 "x_c",  "y_c",  "u_c",  "v_c",  "exx",  "eyy",  "exy",  "e1",  "e2",  "gamma",  "e_vonmises",  "sigma",  "x",  "y",  "u",  "v"
-700,715,0,0,0,0,0,0,0,0,0,-1,524,309,0,0
-693,715,0,0,0,0,0,0,0,0,0,-1,531,309,0,0
-686,715,0,0,0,0,0,0,0,0,0,-1,538,309,0,0
-679,715,0,0,0,0,0,0,0,0,0,-1,545,309,0,0
-672,715,0,0,0,0,0,0,0,0,0,-1,552,309,0,0
-665,715,0,0,0,0,0,0,0,0,0,-1,559,309,0,0
-658,715,0,0,0,0,0,0,0,0,0,-1,566,309,0,0
-651,715,0,0,0,0,0,0,0,0,0,-1,573,309,0,0
-644,715,0,0,0,0,0,0,0,0,0,-1,580,309,0,0
-637,715,0,0,0,0,0,0,0,0,0,-1,587,309,0,0
-630,715,0,0,0,0,0,0,0,0,0,-1,594,309,0,0
-623,715,0,0,0,0,0,0,0,0,0,-1,601,309,0,0
-616,715,0,0,0,0,0,0,0,0,0,-1,608,309,0,0
-609,715,0,0,0,0,0,0,0,0,0,-1,615,309,0,0
-602,715,0,0,0,0,0,0,0,0,0,-1,622,309,0,0
-595,715,0,0,0,0,0,0,0,0,0,-1,629,309,0,0
-588,715,0,0,0,0,0,0,0,0,0,-1,636,309,0,0
-581,715,0,0,0,0,0,0,0,0,0,-1,643,309,0,0
-574,715,0,0,0,0,0,0,0,0,0,-1,650,309,0,0
-567,715,0,0,0,0,0,0,0,0,0,-1,657,309,0,0
-560,715,0,0,0,0,0,0,0,0,0,-1,664,309,0,0
-553,715,0,0,0,0,0,0,0,0,0,-1,671,309,0,0
-546,715,0,0,0,0,0,0,0,0,0,-1,678,309,0,0
-539,715,0,0,0,0,0,0,0,0,0,-1,685,309,0,0
-532,715,0,0,0,0,0,0,0,0,0,-1,692,309,0,0
-525,715,0,0,0,0,0,0,0,0,0,-1,699,309,0,0
-518,715,0,0,0,0,0,0,0,0,0,-1,706,309,0,0
-511,715,0,0,0,0,0,0,0,0,0,-1,713,309,0,0
-504,715,0,0,0,0,0,0,0,0,0,-1,720,309,0,0
-497,715,0,0,0,0,0,0,0,0,0,-1,727,309,0,0
-490,715,0,0,0,0,0,0,0,0,0,-1,734,309,0,0
-483,715,0,0,0,0,0,0,0,0,0,-1,741,309,0,0
-476,715,0,0,0,0,0,0,0,0,0,-1,748,309,0,0
-469,715,0,0,0,0,0,0,0,0,0,-1,755,309,0,0
-462,715,0,0,0,0,0,0,0,0,0,-1,762,309,0,0
-455,715,0,0,0,0,0,0,0,0,0,-1,769,309,0,0
-448,715,0,0,0,0,0,0,0,0,0,-1,776,309,0,0
-441,715,0,0,0,0,0,0,0,0,0,-1,783,309,0,0
-434,715,0,0,0,0,0,0,0,0,0,-1,790,309,0,0
-427,715,0,0,0,0,0,0,0,0,0,-1,797,309,0,0
-420,715,0,0,0,0,0,0,0,0,0,-1,804,309,0,0
-413,715,0,0,0,0,0,0,0,0,0,-1,811,309,0,0
-406,715,0,0,0,0,0,0,0,0,0,-1,818,309,0,0
-399,715,0,0,0,0,0,0,0,0,0,-1,825,309,0,0
-392,715,0,0,0,0,0,0,0,0,0,-1,832,309,0,0
-385,715,0,0,0,0,0,0,0,0,0,-1,839,309,0,0
-378,715,0,0,0,0,0,0,0,0,0,-1,846,309,0,0
-371,715,0,0,0,0,0,0,0,0,0,-1,853,309,0,0
-364,715,0,0,0,0,0,0,0,0,0,-1,860,309,0,0
-357,715,0,0,0,0,0,0,0,0,0,-1,867,309,0,0
-350,715,0,0,0,0,0,0,0,0,0,-1,874,309,0,0
-343,715,0,0,0,0,0,0,0,0,0,-1,881,309,0,0
-336,715,0,0,0,0,0,0,0,0,0,-1,888,309,0,0
-329,715,0,0,0,0,0,0,0,0,0,-1,895,309,0,0
-322,715,0,0,0,0,0,0,0,0,0,-1,902,309,0,0
-315,715,0,0,0,0,0,0,0,0,0,-1,909,309,0,0
-308,715,0,0,0,0,0,0,0,0,0,-1,916,309,0,0
-301,715,0,0,0,0,0,0,0,0,0,-1,923,309,0,0
-294,715,0,0,0,0,0,0,0,0,0,-1,930,309,0,0
-287,715,0,0,0,0,0,0,0,0,0,-1,937,309,0,0
-280,715,0,0,0,0,0,0,0,0,0,-1,944,309,0,0
-273,715,0,0,0,0,0,0,0,0,0,-1,951,309,0,0
-266,715,0,0,0,0,0,0,0,0,0,-1,958,309,0,0
-259,715,0,0,0,0,0,0,0,0,0,-1,965,309,0,0
-252,715,0,0,0,0,0,0,0,0,0,-1,972,309,0,0
-245,715,0,0,0,0,0,0,0,0,0,-1,979,309,0,0
-238,715,0,0,0,0,0,0,0,0,0,-1,986,309,0,0
-231,715,0,0,0,0,0,0,0,0,0,-1,993,309,0,0
-224,715,0,0,0,0,0,0,0,0,0,-1,1000,309,0,0
-217,715,0,0,0,0,0,0,0,0,0,-1,1007,309,0,0
-210,715,0,0,0,0,0,0,0,0,0,-1,1014,309,0,0
-203,715,0,0,0,0,0,0,0,0,0,-1,1021,309,0,0
-196,715,0,0,0,0,0,0,0,0,0,-1,1028,309,0,0
-189,715,0,0,0,0,0,0,0,0,0,-1,1035,309,0,0
-182,715,0,0,0,0,0,0,0,0,0,-1,1042,309,0,0
-175,715,0,0,0,0,0,0,0,0,0,-1,1049,309,0,0
-168,715,0,0,0,0,0,0,0,0,0,-1,1056,309,0,0
-161,715,0,0,0,0,0,0,0,0,0,-1,1063,309,0,0
-154,715,0,0,0,0,0,0,0,0,0,-1,1070,309,0,0
-147,715,0,0,0,0,0,0,0,0,0,-1,1077,309,0,0
-140,715,0,0,0,0,0,0,0,0,0,-1,1084,309,0,0
-133,715,0,0,0,0,0,0,0,0,0,-1,1091,309,0,0
-126,715,0,0,0,0,0,0,0,0,0,-1,1098,309,0,0
-119,715,0,0,0,0,0,0,0,0,0,-1,1105,309,0,0
-112,715,0,0,0,0,0,0,0,0,0,-1,1112,309,0,0
-105,715,0,0,0,0,0,0,0,0,0,-1,1119,309,0,0
-98,715,0,0,0,0,0,0,0,0,0,-1,1126,309,0,0
-91,715,0,0,0,0,0,0,0,0,0,-1,1133,309,0,0
-84,715,0,0,0,0,0,0,0,0,0,-1,1140,309,0,0
-77,715,0,0,0,0,0,0,0,0,0,-1,1147,309,0,0
-70,715,0,0,0,0,0,0,0,0,0,-1,1154,309,0,0
-63,715,0,0,0,0,0,0,0,0,0,-1,1161,309,0,0
-56,715,0,0,0,0,0,0,0,0,0,-1,1168,309,0,0
-49,715,0,0,0,0,0,0,0,0,0,-1,1175,309,0,0
-42,715,0,0,0,0,0,0,0,0,0,-1,1182,309,0,0
-35,715,0,0,0,0,0,0,0,0,0,-1,1189,309,0,0
-28,715,0,0,0,0,0,0,0,0,0,-1,1196,309,0,0
-21,715,0,0,0,0,0,0,0,0,0,-1,1203,309,0,0
-14,715,0,0,0,0,0,0,0,0,0,-1,1210,309,0,0
-7,715,0,0,0,0,0,0,0,0,0,-1,1217,309,0,0
0,715,0,0,0,0,0,0,0,0,0,-1,1224,309,0,0
7,715,0,0,0,0,0,0,0,0,0,-1,1231,309,0,0
14,715,0,0,0,0,0,0,0,0,0,-1,1238,309,0,0
21,715,0,0,0,0,0,0,0,0,0,-1,1245,309,0,0
28,715,0,0,0,0,0,0,0,0,0,-1,1252,309,0,0
35,715,0,0,0,0,0,0,0,0,0,-1,1259,309,0,0
42,715,0,0,0,0,0,0,0,0,0,-1,1266,309,0,0
49,715,0,0,0,0,0,0,0,0,0,-1,1273,309,0,0
56,715,0,0,0,0,0,0,0,0,0,-1,1280,309,0,0
63,715,5.77954,-29.1296,0.0170033,0.169783,0.0691827,0.196454,-0.00966831,1.20283,0.134308,0.0432059,1287,309,5.77954,29.1296
70,715,5.95911,-28.9782,0.0171797,0.176783,0.0622568,0.198196,-0.00423233,1.23954,0.133563,0.044696,1294,309,5.95906,28.9782
77,715,0,0,0,0,0,0,0,0,0,-1,1301,309,0,0
84,715,0,0,0,0,0,0,0,0,0,-1,1308,309,0,0
91,715,0,0,0,0,0,0,0,0,0,-1,1315,309,0,0
98,715,0,0,0,0,0,0,0,0,0,-1,1322,309,0,0
105,715,0,0,0,0,0,0,0,0,0,-1,1329,309,0,0
112,715,0,0,0,0,0,0,0,0,0,-1,1336,309,0,0
119,715,0,0,0,0,0,0,0,0,0,-1,1343,309,0,0
126,715,0,0,0,0,0,0,0,0,0,-1,1350,309,0,0
133,715,0,0,0,0,0,0,0,0,0,-1,1357,309,0,0
140,715,0,0,0,0,0,0,0,0,0,-1,1364,309,0,0
147,715,0,0,0,0,0,0,0,0,0,-1,1371,309,0,0
154,715,0,0,0,0,0,0,0,0,0,-1,1378,309,0,0
161,715,0,0,0,0,0,0,0,0,0,-1,1385,309,0,0
168,715,0,0,0,0,0,0,0,0,0,-1,1392,309,0,0
175,715,0,0,0,0,0,0,0,0,0,-1,1399,309,0,0
182,715,0,0,0,0,0,0,0,0,0,-1,1406,309,0,0
189,715,0,0,0,0,0,0,0,0,0,-1,1413,309,0,0
196,715,0,0,0,0,0,0,0,0,0,-1,1420,309,0,0
203,715,0,0,0,0,0,0,0,0,0,-1,1427,309,0,0
210,715,0,0,0,0,0,0,0,0,0,-1,1434,309,0,0
217,715,0,0,0,0,0,0,0,0,0,-1,1441,309,0,0
224,715,0,0,0,0,0,0,0,0,0,-1,1448,309,0,0
231,715,0,0,0,0,0,0,0,0,0,-1,1455,309,0,0
238,715,0,0,0,0,0,0,0,0,0,-1,1462,309,0,0
245,715,0,0,0,0,0,0,0,0,0,-1,1469,309,0,0
252,715,0,0,0,0,0,0,0,0,0,-1,1476,309,0,0
259,715,0,0,0,0,0,0,0,0,0,-1,1483,309,0,0
266,715,0,0,0,0,0,0,0,0,0,-1,1490,309,0,0
273,715,0,0,0,0,0,0,0,0,0,-1,1497,309,0,0
280,715,0,0,0,0,0,0,0,0,0,-1,1504,309,0,0
287,715,0,0,0,0,0,0,0,0,0,-1,1511,309,0,0
294,715,0,0,0,0,0,0,0,0,0,-1,1518,309,0,0
301,715,0,0,0,0,0,0,0,0,0,-1,1525,309,0,0
308,715,0,0,0,0,0,0,0,0,0,-1,1532,309,0,0
315,715,0,0,0,0,0,0,0,0,0,-1,1539,309,0,0
322,715,0,0,0,0,0,0,0,0,0,-1,1546,309,0,0
329,715,0,0,0,0,0,0,0,0,0,-1,1553,309,0,0
336,715,0,0,0,0,0,0,0,0,0,-1,1560,309,0,0
343,715,0,0,0,0,0,0,0,0,0,-1,1567,309,0,0
350,715,0,0,0,0,0,0,0,0,0,-1,1574,309,0,0
357,715,0,0,0,0,0,0,0,0,0,-1,1581,309,0,0
364,715,0,0,0,0,0,0,0,0,0,-1,1588,309,0,0
371,715,0,0,0,0,0,0,0,0,0,-1,1595,309,0,0
378,715,0,0,0,0,0,0,0,0,0,-1,1602,309,0,0
385,715,0,0,0,0,0,0,0,0,0,-1,1609,309,0,0
392,715,0,0,0,0,0,0,0,0,0,-1,1616,309,0,0
399,715,0,0,0,0,0,0,0,0,0,-1,1623,309,0,0
406,715,0,0,0,0,0,0,0,0,0,-1,1630,309,0,0
413,715,0,0,0,0,0,0,0,0,0,-1,1637,309,0,0
420,715,0,0,0,0,0,0,0,0,0,-1,1644,309,0,0
427,715,0,0,0,0,0,0,0,0,0,-1,1651,309,0,0
434,715,0,0,0,0,0,0,0,0,0,-1,1658,309,0,0
441,715,0,0,0,0,0,0,0,0,0,-1,1665,309,0,0
448,715,0,0,0,0,0,0,0,0,0,-1,1672,309,0,0
455,715,0,0,0,0,0,0,0,0,0,-1,1679,309,0,0
462,715,0,0,0,0,0,0,0,0,0,-1,1686,309,0,0
469,715,0,0,0,0,0,0,0,0,0,-1,1693,309,0,0
476,715,0,0,0,0,0,0,0,0,0,-1,1700,309,0,0
483,715,0,0,0,0,0,0,0,0,0,-1,1707,309,0,0
490,715,0,0,0,0,0,0,0,0,0,-1,1714,309,0,0
497,715,0,0,0,0,0,0,0,0,0,-1,1721,309,0,0
504,715,0,0,0,0,0,0,0,0,0,-1,1728,309,0,0
511,715,0,0,0,0,0,0,0,0,0,-1,1735,309,0,0
518,715,0,0,0,0,0,0,0,0,0,-1,1742,309,0,0
525,715,0,0,0,0,0,0,0,0,0,-1,1749,309,0,0
532,715,0,0,0,0,0,0,0,0,0,-1,1756,309,0,0
539,715,0,0,0,0,0,0,0,0,0,-1,1763,309,0,0
546,715,0,0,0,0,0,0,0,0,0,-1,1770,309,0,0
553,715,0,0,0,0,0,0,0,0,0,-1,1777,309,0,0
560,715,0,0,0,0,0,0,0,0,0,-1,1784,309,0,0
567,715,0,0,0,0,0,0,0,0,0,-1,1791,309,0,0
574,715,0,0,0,0,0,0,0,0,0,-1,1798,309,0,0
581,715,0,0,0,0,0,0,0,0,0,-1,1805,309,0,0
588,715,0,0,0,0,0,0,0,0,0,-1,1812,309,0,0
595,715,0,0,0,0,0,0,0,0,0,-1,1819,309,0,0
602,715,0,0,0,0,0,0,0,0,0,-1,1826,309,0,0
609,715,0,0,0,0,0,0,0,0,0,-1,1833,309,0,0
616,715,0,0,0,0,0,0,0,0,0,-1,1840,309,0,0
623,715,0,0,0,0,0,0,0,0,0,-1,1847,309,0,0
630,715,0,0,0,0,0,0,0,0,0,-1,1854,309,0,0
637,715,0,0,0,0,0,0,0,0,0,-1,1861,309,0,0
644,715,0,0,0,0,0,0,0,0,0,-1,1868,309,0,0
651,715,0,0,0,0,0,0,0,0,0,-1,1875,309,0,0
658,715,0,0,0,0,0,0,0,0,0,-1,1882,309,0,0
665,715,0,0,0,0,0,0,0,0,0,-1,1889,309,0,0
672,715,0,0,0,0,0,0,0,0,0,-1,1896,309,0,0
679,715,0,0,0,0,0,0,0,0,0,-1,1903,309,0,0
686,715,0,0,0,0,0,0,0,0,0,-1,1910,309,0,0
693,715,0,0,0,0,0,0,0,0,0,-1,1917,309,0,0
700,715,0,0,0,0,0,0,0,0,0,-1,1924,309,0,0
707,715,0,0,0,0,0,0,0,0,0,-1,1931,309,0,0
714,715,0,0,0,0,0,0,0,0,0,-1,1938,309,0,0
721,715,0,0,0,0,0,0,0,0,0,-1,1945,309,0,0
728,715,0,0,0,0,0,0,0,0,0,-1,1952,309,0,0
735,715,0,0,0,0,0,0,0,0,0,-1,1959,309,0,0
742,715,0,0,0,0,0,0,0,0,0,-1,1966,309,0,0
749,715,0,0,0,0,0,0,0,0,0,-1,1973,309,0,0
756,715,0,0,0,0,0,0,0,0,0,-1,1980,309,0,0
763,715,0,0,0,0,0,0,0,0,0,-1,1987,309,0,0
770,715,0,0,0,0,0,0,0,0,0,-1,1994,309,0,0
777,715,0,0,0,0,0,0,0,0,0,-1,2001,309,0,0
784,715,0,0,0,0,0,0,0,0,0,-1,2008,309,0,0
791,715,0,0,0,0,0,0,0,0,0,-1,2015,309,0,0
798,715,0,0,0,0,0,0,0,0,0,-1,2022,309,0,0
805,715,0,0,0,0,0,0,0,0,0,-1,2029,309,0,0
812,715,0,0,0,0,0,0,0,0,0,-1,2036,309,0,0
-700,708,0,0,0,0,0,0,0,0,0,-1,524,316,0,0
-693,708,0,0,0,0,0,0,0,0,0,-1,531,316,0,0
-686,708,0,0,0,0,0,0,0,0,0,-1,538,316,0,0
-679,708,0,0,0,0,0,0,0,0,0,-1,545,316,0,0
-672,708,0,0,0,0,0,0,0,0,0,-1,552,316,0,0
-665,708,0,0,0,0,0,0,0,0,0,-1,559,316,0,0
-658,708,0,0,0,0,0,0,0,0,0,-1,566,316,0,0
-651,708,0,0,0,0,0,0,0,0,0,-1,573,316,0,0
-644,708,0,0,0,0,0,0,0,0,0,-1,580,316,0,0
-637,708,0,0,0,0,0,0,0,0,0,-1,587,316,0,0
-630,708,0,0,0,0,0,0,0,0,0,-1,594,316,0,0
-623,708,0,0,0,0,0,0,0,0,0,-1,601,316,0,0
-616,708,0,0,0,0,0,0,0,0,0,-1,608,316,0,0
-609,708,0,0,0,0,0,0,0,0,0,-1,615,316,0,0
-602,708,0,0,0,0,0,0,0,0,0,-1,622,316,0,0
-595,708,0,0,0,0,0,0,0,0,0,-1,629,316,0,0
-588,708,0,0,0,0,0,0,0,0,0,-1,636,316,0,0
-581,708,0,0,0,0,0,0,0,0,0,-1,643,316,0,0
-574,708,0,0,0,0,0,0,0,0,0,-1,650,316,0,0
-567,708,0,0,0,0,0,0,0,0,0,-1,657,316,0,0
-560,708,0,0,0,0,0,0,0,0,0,-1,664,316,0,0
-553,708,0,0,0,0,0,0,0,0,0,-1,671,316,0,0
-546,708,0,0,0,0,0,0,0,0,0,-1,678,316,0,0
-539,708,0,0,0,0,0,0,0,0,0,-1,685,316,0,0
-532,708,0,0,0,0,0,0,0,0,0,-1,692,316,0,0
-525,708,0,0,0,0,0,0,0,0,0,-1,699,316,0,0
-518,708,0,0,0,0,0,0,0,0,0,-1,706,316,0,0
-511,708,0,0,0,0,0,0,0,0,0,-1,713,316,0,0
-504,708,0,0,0,0,0,0,0,0,0,-1,720,316,0,0
-497,708,0,0,0,0,0,0,0,0,0,-1,727,316,0,0
-490,708,0,0,0,0,0,0,0,0,0,-1,734,316,0,0
-483,708,0,0,0,0,0,0,0,0,0,-1,741,316,0,0
-476,708,0,0,0,0,0,0,0,0,0,-1,748,316,0,0
-469,708,0,0,0,0,0,0,0,0,0,-1,755,316,0,0
-462,708,0,0,0,0,0,0,0,0,0,-1,762,316,0,0
-455,708,0,0,0,0,0,0,0,0,0,-1,769,316,0,0
-448,708,0,0,0,0,0,0,0,0,0,-1,776,316,0,0
-441,708,0,0,0,0,0,0,0,0,0,-1,783,316,0,0
-434,708,0,0,0,0,0,0,0,0,0,-1,790,316,0,0
-427,708,0,0,0,0,0,0,0,0,0,-1,797,316,0,0
-420,708,0,0,0,0,0,0,0,0,0,-1,804,316,0,0
-413,708,0,0,0,0,0,0,0,0,0,-1,811,316,0,0
-406,708,0,0,0,0,0,0,0,0,0,-1,818,316,0,0
-399,708,0,0,0,0,0,0,0,0,0,-1,825,316,0,0
-392,708,0,0,0,0,0,0,0,0,0,-1,832,316,0,0
-385,708,0,0,0,0,0,0,0,0,0,-1,839,316,0,0
-378,708,0,0,0,0,0,0,0,0,0,-1,846,316,0,0
-371,708,0,0,0,0,0,0,0,0,0,-1,853,316,0,0
-364,708,0,0,0,0,0,0,0,0,0,-1,860,316,0,0
-357,708,0,0,0,0,0,0,0,0,0,-1,867,316,0,0
-350,708,0,0,0,0,0,0,0,0,0,-1,874,316,0,0
-343,708,0,0,0,0,0,0,0,0,0,-1,881,316,0,0
-336,708,0,0,0,0,0,0,0,0,0,-1,888,316,0,0
-329,708,0,0,0,0,0,0,0,0,0,-1,895,316,0,0
-322,708,0,0,0,0,0,0,0,0,0,-1,902,316,0,0
-315,708,0,0,0,0,0,0,0,0,0,-1,909,316,0,0
-308,708,0,0,0,0,0,0,0,0,0,-1,916,316,0,0
-301,708,0,0,0,0,0,0,0,0,0,-1,923,316,0,0
-294,708,0,0,0,0,0,0,0,0,0,-1,930,316,0,0
-287,708,0,0,0,0,0,0,0,0,0,-1,937,316,0,0
-280,708,0,0,0,0,0,0,0,0,0,-1,944,316,0,0
-273,708,0,0,0,0,0,0,0,0,0,-1,951,316,0,0
-266,708,0,0,0,0,0,0,0,0,0,-1,958,316,0,0
-259,708,0,0,0,0,0,0,0,0,0,-1,965,316,0,0
-252,708,0,0,0,0,0,0,0,0,0,-1,972,316,0,0
-245,708,0,0,0,0,0,0,0,0,0,-1,979,316,0,0
-238,708,0,0,0,0,0,0,0,0,0,-1,986,316,0,0
-231,708,0,0,0,0,0,0,0,0,0,-1,993,316,0,0
-224,708,0,0,0,0,0,0,0,0,0,-1,1000,316,0,0
-217,708,0,0,0,0,0,0,0,0,0,-1,1007,316,0,0
-210,708,0,0,0,0,0,0,0,0,0,-1,1014,316,0,0
-203,708,0,0,0,0,0,0,0,0,0,-1,1021,316,0,0
-196,708,0,0,0,0,0,0,0,0,0,-1,1028,316,0,0
-189,708,0,0,0,0,0,0,0,0,0,-1,1035,316,0,0
-182,708,0,0,0,0,0,0,0,0,0,-1,1042,316,0,0
-175,708,0,0,0,0,0,0,0,0,0,-1,1049,316,0,0
-168,708,0,0,0,0,0,0,0,0,0,-1,1056,316,0,0
-161,708,0,0,0,0,0,0,0,0,0,-1,1063,316,0,0
-154,708,0,0,0,0,0,0,0,0,0,-1,1070,316,0,0
-147,708,0,0,0,0,0,0,0,0,0,-1,1077,316,0,0
-140,708,0,0,0,0,0,0,0,0,0,-1,1084,316,0,0
-133,708,0,0,0,0,0,0,0,0,0,-1,1091,316,0,0
-126,708,0,0,0,0,0,0,0,0,0,-1,1098,316,0,0
-119,708,0,0,0,0,0,0,0,0,0,-1,1105,316,0,0
-112,708,0,0,0,0,0,0,0,0,0,-1,1112,316,0,0
-105,708,0,0,0,0,0,0,0,0,0,-1,1119,316,0,0
-98,708,0,0,0,0,0,0,0,0,0,-1,1126,316,0,0
-91,708,0,0,0,0,0,0,0,0,0,-1,1133,316,0,0
-84,708,0,0,0,0,0,0,0,0,0,-1,1140,316,0,0
-77,708,0,0,0,0,0,0,0,0,0,-1,1147,316,0,0
-70,708,0,0,0,0,0,0,0,0,0,-1,1154,316,0,0
-63,708,0,0,0,0,0,0,0,0,0,-1,1161,316,0,0
-56,708,0,0,0,0,0,0,0,0,0,-1,1168,316,0,0
-49,708,0,0,0,0,0,0,0,0,0,-1,1175,316,0,0
-42,708,0,0,0,0,0,0,0,0,0,-1,1182,316,0,0
-35,708,-2.71204,-6.31558,0,0,0,0,0,0,0,-1,1189,316,-2.712,6.3156
-28,708,-2.92371,-5.53253,0,0,0,0,0,0,0,-1,1196,316,-2.92375,5.53254
-21,708,-0.417969,-24.5911,0,0,0,0,0,0,0,-1,1203,316,-0.418022,24.5911
-14,708,7.11194,-37.7769,0,0,0,0,0,0,0,-1,1210,316,7.11195,37.7769
-7,708,6.87317,-38.0704,0.025699,0.0915087,0.117252,0.180385,-0.0631773,0.922197,0.145947,0.0487292,1217,316,6.87312,38.0704
0,708,7.63416,-33.6524,0.0134269,0.101942,0.108815,0.175156,-0.059787,0.978541,0.14099,0.0495601,1224,316,7.63416,33.6524
7,708,7.18689,-33.4715,0,0,0,0,0,0,0,-1,1231,316,7.18689,33.4715
14,708,6.72607,-33.3883,-0.00139923,0.116466,0.0903511,0.165406,-0.0503385,1.07438,0.130332,0.0427562,1238,316,6.72602,33.3883
21,708,6.37317,-33.0557,-0.00354493,0.122192,0.0833086,0.163692,-0.0450449,1.10863,0.126838,0.0452145,1245,316,6.37313,33.0557
28,708,6.36267,-32.1896,0,0,0,0,0,0,0,-1,1252,316,6.36264,32.1896
35,708,6.37756,-31.6713,0,0,0,0,0,0,0,-1,1259,316,6.37757,31.6713
42,708,5.54761,-30.9011,0,0,0,0,0,0,0,-1,1266,316,5.54757,30.9011
49,708,4.96741,-30.8412,0.00581349,0.151098,0.066395,0.176869,-0.0199577,1.20055,0.125097,0.0407566,1273,316,4.96746,30.8411
56,708,4.99573,-30.4129,0.0111396,0.149619,0.0635408,0.174356,-0.0135971,1.19954,0.121025,0.0416262,1280,316,4.99568,30.4129
63,708,5.1178,-30.0278,0.0141178,0.164734,0.0613396,0.186554,-0.00770219,1.22903,0.127015,0.0411058,1287,316,5.11781,30.0278
70,708,5.22949,-29.7962,0.0145089,0.173671,0.0563682,0.191612,-0.00343198,1.26265,0.1289,0.0424916,1294,316,5.22948,29.7962
77,708,5.20886,-29.4783,0.0132064,0.184504,0.0498104,0.197935,-0.000224553,1.30742,0.132031,0.0438407,1301,316,5.20882,29.4783
84,708,5.15552,-29.0958,0,0,0,0,0,0,0,-1,1308,316,5.15551,29.0958
91,708,6.41296,-28.555,0,0,0,0,0,0,0,-1,1315,316,6.41297,28.555
98,708,6.96277,-28.0145,0,0,0,0,0,0,0,-1,1322,316,6.96276,28.0145
105,708,6.21887,-25.7398,0,0,0,0,0,0,0,-1,1329,316,6.21882,25.7398
112,708,5.45032,-26.2608,-0.0379982,0.205655,-0.0360741,0.210884,-0.043227,-1.42685,0.156994,0.0450901,1336,316,5.45038,26.2608
119,708,3.97131,-28.7655,-0.0488649,0.200869,-0.0612357,0.215076,-0.0630719,-1.34282,0.168392,0.0454244,1343,316,3.97134,28.7655
126,708,3.99512,-28.4841,0,0,0,0,0,0,0,-1,1350,316,3.99509,28.4841
133,708,3.97778,-28.3221,0,0,0,0,0,0,0,-1,1357,316,3.97778,28.322
140,708,4.73828,-28.8445,0,0,0,0,0,0,0,-1,1364,316,4.73827,28.8445
147,708,2.70288,-31.8309,0,0,0,0,0,0,0,-1,1371,316,2.70289,31.8309
154,708,0,0,0,0,0,0,0,0,0,-1,1378,316,0,0
161,708,0,0,0,0,0,0,0,0,0,-1,1385,316,0,0
168,708,0,0,0,0,0,0,0,0,0,-1,1392,316,0,0
175,708,0,0,0,0,0,0,0,0,0,-1,1399,316,0,0
182,708,0,0,0,0,0,0,0,0,0,-1,1406,316,0,0
189,708,0,0,0,0,0,0,0,0,0,-1,1413,316,0,0
196,708,0,0,0,0,0,0,0,0,0,-1,1420,316,0,0
203,708,0,0,0,0,0,0,0,0,0,-1,1427,316,0,0
210,708,0,0,0,0,0,0,0,0,0,-1,1434,316,0,0
217,708,0,0,0,0,0,0,0,0,0,-1,1441,316,0,0
224,708,0,0,0,0,0,0,0,0,0,-1,1448,316,0,0
231,708,0,0,0,0,0,0,0,0,0,-1,1455,316,0,0
238,708,0,0,0,0,0,0,0,0,0,-1,1462,316,0,0
245,708,0,0,0,0,0,0,0,0,0,-1,1469,316,0,0
252,708,0,0,0,0,0,0,0,0,0,-1,1476,316,0,0
259,708,0,0,0,0,0,0,0,0,0,-1,1483,316,0,0
266,708,0,0,0,0,0,0,0,0,0,-1,1490,316,0,0
273,708,0,0,0,0,0,0,0,0,0,-1,1497,316,0,0
280,708,0,0,0,0,0,0,0,0,0,-1,1504,316,0,0
287,708,0,0,0,0,0,0,0,0,0,-1,1511,316,0,0
294,708,0,0,0,0,0,0,0,0,0,-1,1518,316,0,0
301,708,0,0,0,0,0,0,0,0,0,-1,1525,316,0,0
308,708,0,0,0,0,0,0,0,0,0,-1,1532,316,0,0
315,708,0,0,0,0,0,0,0,0,0,-1,1539,316,0,0
322,708,0,0,0,0,0,0,0,0,0,-1,1546,316,0,0
329,708,0,0,0,0,0,0,0,0,0,-1,1553,316,0,0
336,708,0,0,0,0,0,0,0,0,0,-1,1560,316,0,0
343,708,0,0,0,0,0,0,0,0,0,-1,1567,316,0,0
350,708,0,0,0,0,0,0,0,0,0,-1,1574,316,0,0
357,708,0,0,0,0,0,0,0,0,0,-1,1581,316,0,0
364,708,0,0,0,0,0,0,0,0,0,-1,1588,316,0,0
371,708,0,0,0,0,0,0,0,0,0,-1,1595,316,0,0
378,708,0,0,0,0,0,0,0,0,0,-1,1602,316,0,0
385,708,0,0,0,0,0,0,0,0,0,-1,1609,316,0,0
392,708,0,0,0,0,0,0,0,0,0,-1,1616,316,0,0
399,708,0,0,0,0,0,0,0,0,0,-1,1623,316,0,0
406,708,0,0,0,0,0,0,0,0,0,-1,1630,316,0,0
413,708,0,0,0,0,0,0,0,0,0,-1,1637,316,0,0
420,708,0,0,0,0,0,0,0,0,0,-1,1644,316,0,0
427,708,0,0,0,0,0,0,0,0,0,-1,1651,316,0,0
434,708,0,0,0,0,0,0,0,0,0,-1,1658,316,0,0
441,708,0,0,0,0,0,0,0,0,0,-1,1665,316,0,0
448,708,0,0,0,0,0,0,0,0,0,-1,1672,316,0,0
455,708,0,0,0,0,0,0,0,0,0,-1,1679,316,0,0
462,708,0,0,0,0,0,0,0,0,0,-1,1686,316,0,0
469,708,0,0,0,0,0,0,0,0,0,-1,1693,316,0,0
476,708,0,0,0,0,0,0,0,0,0,-1,1700,316,0,0
483,708,0,0,0,0,0,0,0,0,0,-1,1707,316,0,0
490,708,0,0,0,0,0,0,0,0,0,-1,1714,316,0,0
497,708,0,0,0,0,0,0,0,0,0,-1,1721,316,0,0
504,708,0,0,0,0,0,0,0,0,0,-1,1728,316,0,0
511,708,0,0,0,0,0,0,0,0,0,-1,1735,316,0,0
518,708,0,0,0,0,0,0,0,0,0,-1,1742,316,0,0
525,708,0,0,0,0,0,0,0,0,0,-1,1749,316,0,0
532,708,0,0,0,0,0,0,0,0,0,-1,1756,316,0,0
539,708,0,0,0,0,0,0,0,0,0,-1,1763,316,0,0
546,708,0,0,0,0,0,0,0,0,0,-1,1770,316,0,0
553,708,0,0,0,0,0,0,0,0,0,-1,1777,316,0,0
560,708,0,0,0,0,0,0,0,0,0,-1,1784,316,0,0
567,708,0,0,0,0,0,0,0,0,0,-1,1791,316,0,0
574,708,0,0,0,0,0,0,0,0,0,-1,1798,316,0,0
581,708,0,0,0,0,0,0,0,0,0,-1,1805,316,0,0
588,708,0,0,0,0,0,0,0,0,0,-1,1812,316,0,0
595,708,0,0,0,0,0,0,0,0,0,-1,1819,316,0,0
602,708,0,0,0,0,0,0,0,0,0,-1,1826,316,0,0
609,708,0,0,0,0,0,0,0,0,0,-1,1833,316,0,0
616,708,0,0,0,0,0,0,0,0,0,-1,1840,316,0,0
623,708,0,0,0,0,0,0,0,0,0,-1,1847,316,0,0
630,708,0,0,0,0,0,0,0,0,0,-1,1854,316,0,0
637,708,0,0,0,0,0,0,0,0,0,-1,1861,316,0,0
644,708,0,0,0,0,0,0,0,0,0,-1,1868,316,0,0
651,708,0,0,0,0,0,0,0,0,0,-1,1875,316,0,0
658,708,0,0,0,0,0,0,0,0,0,-1,1882,316,0,0
665,708,0,0,0,0,0,0,0,0,0,-1,1889,316,0,0
672,708,0,0,0,0,0,0,0,0,0,-1,1896,316,0,0
679,708,0,0,0,0,0,0,0,0,0,-1,1903,316,0,0
686,708,0,0,0,0,0,0,0,0,0,-1,1910,316,0,0
693,708,0,0,0,0,0,0,0,0,0,-1,1917,316,0,0
700,708,0,0,0,0,0,0,0,0,0,-1,1924,316,0,0
707,708,0,0,0,0,0,0,0,0,0,-1,1931,316,0,0
714,708,0,0,0,0,0,0,0,0,0,-1,1938,316,0,0
721,708,0,0,0,0,0,0,0,0,0,-1,1945,316,0,0
728,708,0,0,0,0,0,0,0,0,0,-1,1952,316,0,0
735,708,0,0,0,0,0,0,0,0,0,-1,1959,316,0,0
742,708,0,0,0,0,0,0,0,0,0,-1,1966,316,0,0
749,708,0,0,0,0,0,0,0,0,0,-1,1973,316,0,0
756,708,0,0,0,0,0,0,0,0,0,-1,1980,316,0,0
763,708,0,0,0,0,0,0,0,0,0,-1,1987,316,0,0
770,708,0,0,0,0,0,0,0,0,0,-1,1994,316,0,0
777,708,0,0,0,0,0,0,0,0,0,-1,2001,316,0,0
784,708,0,0,0,0,0,0,0,0,0,-1,2008,316,0,0
791,708,0,0,0,0,0,0,0,0,0,-1,2015,316,0,0
798,708,0,0,0,0,0,0,0,0,0,-1,2022,316,0,0
805,708,0,0,0,0,0,0,0,0,0,-1,2029,316,0,0
812,708,0,0,0,0,0,0,0,0,0,-1,2036,316,0,0
-700,701,0,0,0,0,0,0,0,0,0,-1,524,323,0,0
-693,701,0,0,0,0,0,0,0,0,0,-1,531,323,0,0
-686,701,0,0,0,0,0,0,0,0,0,-1,538,323,0,0
-679,701,0,0,0,0,0,0,0,0,0,-1,545,323,0,0
-672,701,0,0,0,0,0,0,0,0,0,-1,552,323,0,0
-665,701,0,0,0,0,0,0,0,0,0,-1,559,323,0,0
-658,701,0,0,0,0,0,0,0,0,0,-1,566,323,0,0
-651,701,0,0,0,0,0,0,0,0,0,-1,573,323,0,0
-644,701,0,0,0,0,0,0,0,0,0,-1,580,323,0,0
-637,701,0,0,0,0,0,0,0,0,0,-1,587,323,0,0
-630,701,0,0,0,0,0,0,0,0,0,-1,594,323,0,0
-623,701,0,0,0,0,0,0,0,0,0,-1,601,323,0,0
-616,701,0,0,0,0,0,0,0,0,0,-1,608,323,0,0
-609,701,0,0,0,0,0,0,0,0,0,-1,615,323,0,0
-602,701,0,0,0,0,0,0,0,0,0,-1,622,323,0,0
-595,701,0,0,0,0,0,0,0,0,0,-1,629,323,0,0
-588,701,0,0,0,0,0,0,0,0,0,-1,636,323,0,0
-581,701,0,0,0,0,0,0,0,0,0,-1,643,323,0,0
-574,701,0,0,0,0,0,0,0,0,0,-1,650,323,0,0
-567,701,0,0,0,0,0,0,0,0,0,-1,657,323,0,0
-560,701,0,0,0,0,0,0,0,0,0,-1,664,323,0,0
-553,701,0,0,0,0,0,0,0,0,0,-1,671,323,0,0
-546,701,0,0,0,0,0,0,0,0,0,-1,678,323,0,0
-539,701,0,0,0,0,0,0,0,0,0,-1,685,323,0,0
-532,701,0,0,0,0,0,0,0,0,0,-1,692,323,0,0
-525,701,0,0,0,0,0,0,0,0,0,-1,699,323,0,0
-518,701,0,0,0,0,0,0,0,0,0,-1,706,323,0,0
-511,701,0,0,0,0,0,0,0,0,0,-1,713,323,0,0
-504,701,0,0,0,0,0,0,0,0,0,-1,720,323,0,0
-497,701,0,0,0,0,0,0,0,0,0,-1,727,323,0,0
-490,701,0,0,0,0,0,0,0,0,0,-1,734,323,0,0
-483,701,0,0,0,0,0,0,0,0,0,-1,741,323,0,0
-476,701,0,0,0,0,0,0,0,0,0,-1,748,323,0,0
-469,701,0,0,0,0,0,0,0,0,0,-1,755,323,0,0
-462,701,0,0,0,0,0,0,0,0,0,-1,762,323,0,0
-455,701,0,0,0,0,0,0,0,0,0,-1,769,323,0,0
-448,701,0,0,0,0,0,0,0,0,0,-1,776,323,0,0
-441,701,0,0,0,0,0,0,0,0,0,-1,783,323,0,0
-434,701,0,0,0,0,0,0,0,0,0,-1,790,323,0,0
-427,701,0,0,0,0,0,0,0,0,0,-1,797,323,0,0
-420,701,0,0,0,0,0,0,0,0,0,-1,804,323,0,0
-413,701,0,0,0,0,0,0,0,0,0,-1,811,323,0,0
-406,701,0,0,0,0,0,0,0,0,0,-1,818,323,0,0
-399,701,0,0,0,0,0,0,0,0,0,-1,825,323,0,0
-392,701,0,0,0,0,0,0,0,0,0,-1,832,323,0,0
-385,701,0,0,0,0,0,0,0,0,0,-1,839,323,0,0
-378,701,0,0,0,0,0,0,0,0,0,-1,846,323,0,0
-371,701,0,0,0,0,0,0,0,0,0,-1,853,323,0,0
-364,701,0,0,0,0,0,0,0,0,0,-1,860,323,0,0
-357,701,0,0,0,0,0,0,0,0,0,-1,867,323,0,0
-350,701,0,0,0,0,0,0,0,0,0,-1,874,323,0,0
-343,701,0,0,0,0,0,0,0,0,0,-1,881,323,0,0
-336,701,0,0,0,0,0,0,0,0,0,-1,888,323,0,0
-329,701,0,0,0,0,0,0,0,0,0,-1,895,323,0,0
-322,701,0,0,0,0,0,0,0,0,0,-1,902,323,0,0
-315,701,0,0,0,0,0,0,0,0,0,-1,909,323,0,0
-308,701,0,0,0,0,0,0,0,0,0,-1,916,323,0,0
-301,701,0,0,0,0,0,0,0,0,0,-1,923,323,0,0
-294,701,0,0,0,0,0,0,0,0,0,-1,930,323,0,0
-287,701,0,0,0,0,0,0,0,0,0,-1,937,323,0,0
-280,701,0,0,0,0,0,0,0,0,0,-1,944,323,0,0
-273,701,0,0,0,0,0,0,0,0,0,-1,951,323,0,0
-266,701,0,0,0,0,0,0,0,0,0,-1,958,323,0,0
-259,701,0,0,0,0,0,0,0,0,0,-1,965,323,0,0
-252,701,0,0,0,0,0,0,0,0,0,-1,972,323,0,0
-245,701,0,0,0,0,0,0,0,0,0,-1,979,323,0,0
-238,701,0,0,0,0,0,0,0,0,0,-1,986,323,0,0
-231,701,0,0,0,0,0,0,0,0,0,-1,993,323,0,0
-224,701,0,0,0,0,0,0,0,0,0,-1,1000,323,0,0
-217,701,0,0,0,0,0,0,0,0,0,-1,1007,323,0,0
-210,701,0,0,0,0,0,0,0,0,0,-1,1014,323,0,0
-203,701,0,0,0,0,0,0,0,0,0,-1,1021,323,0,0
-196,701,0,0,0,0,0,0,0,0,0,-1,1028,323,0,0
-189,701,0,0,0,0,0,0,0,0,0,-1,1035,323,0,0
-182,701,0,0,0,0,0,0,0,0,0,-1,1042,323,0,0
-175,701,0,0,0,0,0,0,0,0,0,-1,1049,323,0,0
-168,701,0,0,0,0,0,0,0,0,0,-1,1056,323,0,0
-161,701,0,0,0,0,0,0,0,0,0,-1,1063,323,0,0
-154,701,0,0,0,0,0,0,0,0,0,-1,1070,323,0,0
-147,701,0,0,0,0,0,0,0,0,0,-1,1077,323,0,0
-140,701,0,0,0,0,0,0,0,0,0,-1,1084,323,0,0
-133,701,0,0,0,0,0,0,0,0,0,-1,1091,323,0,0
-126,701,0,0,0,0,0,0,0,0,0,-1,1098,323,0,0
-119,701,0,0,0,0,0,0,0,0,0,-1,1105,323,0,0
-112,701,0,0,0,0,0,0,0,0,0,-1,1112,323,0,0
-105,701,0,0,0,0,0,0,0,0,0,-1,1119,323,0,0
-98,701,0,0,0,0,0,0,0,0,0,-1,1126,323,0,0
-91,701,0,0,0,0,0,0,0,0,0,-1,1133,323,0,0
-84,701,0,0,0,0,0,0,0,0,0,-1,1140,323,0,0
-77,701,0,0,0,0,0,0,0,0,0,-1,1147,323,0,0
-70,701,-12.5206,-30.0983,0,0,0,0,0,0,0,-1,1154,323,-12.5206,30.0983
-63,701,-18.3169,-21.2322,0,0,0,0,0,0,0,-1,1161,323,-18.3169,21.2322
-56,701,-0.420166,-0.101776,0,0,0,0,0,0,0,-1,1168,323,-0.420119,0.101777
-49,701,-1.09021,-0.155762,0,0,0,0,0,0,0,-1,1175,323,-1.09024,0.155768
-42,701,-0.210327,-0.299133,0,0,0,0,0,0,0,-1,1182,323,-0.210379,0.29914
-35,701,-2.9635,-7.98676,0,0,0,0,0,0,0,-1,1189,323,-2.9635,7.98676
-28,701,-6.64417,-5.4917,0,0,0,0,0,0,0,-1,1196,323,-6.64411,5.4917
-21,701,5.22729,-32.2801,0,0,0,0,0,0,0,-1,1203,323,5.22728,32.2801
-14,701,6.5271,-36.4143,0,0,0,0,0,0,0,-1,1210,323,6.52714,36.4143
-7,701,6.40674,-37.4616,0.00928083,0.0663384,0.0877862,0.130115,-0.0544959,0.942505,0.109525,0.0456281,1217,323,6.40668,37.4616
0,701,5.97351,-37.7779,0.000820897,0.0757809,0.0822045,0.128647,-0.0520447,0.999288,0.107402,0.0483915,1224,323,5.97355,37.7779
7,701,6.68347,-34.2922,0,0,0,0,0,0,0,-1,1231,323,6.68342,34.2923
14,701,6.64709,-33.9923,-0.00820609,0.0919542,0.069192,0.127288,-0.0435399,1.09865,0.102502,0.045392,1238,323,6.64715,33.9923
21,701,6.37891,-33.5114,-0.00856444,0.0998666,0.0647964,0.130137,-0.038835,1.13376,0.102193,0.0455529,1245,323,6.37886,33.5114
28,701,6.05811,-32.8408,-0.00751028,0.106128,0.0607016,0.132454,-0.0338362,1.16158,0.101479,0.0446958,1252,323,6.05809,32.8408
35,701,6.00452,-32.3135,-0.00409148,0.112945,0.0576545,0.136575,-0.0277221,1.18181,0.10156,0.043592,1259,323,6.00457,32.3135
42,701,5.49573,-31.6679,0.000801707,0.121817,0.056851,0.144335,-0.021716,1.19367,0.104219,0.0457645,1266,323,5.49578,31.6679
49,701,4.76135,-31.3154,0.00359673,0.134843,0.055185,0.154963,-0.0165226,1.22119,0.109233,0.0445977,1273,323,4.76139,31.3154
56,701,4.22058,-31.0362,0.00825089,0.137205,0.0536567,0.15661,-0.0111549,1.22377,0.108317,0.0415743,1280,323,4.22056,31.0362
63,701,4.06714,-30.9201,0.0108138,0.151343,0.0526178,0.168861,-0.00670396,1.24941,0.114874,0.040939,1287,323,4.06716,30.9201
70,701,4.85278,-30.5273,0.011262,0.160603,0.0490987,0.175299,-0.00343395,1.27997,0.118027,0.0436746,1294,323,4.85281,30.5273
77,701,4.73621,-30.0585,0.0101775,0.170213,0.0438717,0.18145,-0.00106023,1.32004,0.121322,0.0470841,1301,323,4.73625,30.0585
84,701,5.46948,-30.0072,0.00466399,0.177701,0.0360298,0.184903,-0.00253838,1.3735,0.124123,0.0464647,1308,323,5.4695,30.0072
91,701,5.92749,-29.5716,-0.00325125,0.183261,0.0249267,0.186535,-0.00652515,1.4402,0.126588,0.0456123,1315,323,5.92753,29.5716
98,701,6.32324,-29.0026,0,0,0,0,0,0,0,-1,1322,323,6.32324,29.0026
105,701,5.27905,-28.3636,0,0,0,0,0,0,0,-1,1329,323,5.27911,28.3636
112,701,5.04321,-28.0969,-0.0275683,0.18689,-0.019854,0.188713,-0.0293908,-1.47926,0.136663,0.0451649,1336,323,5.04325,28.0969
119,701,4.09668,-29.353,-0.0349772,0.18186,-0.037934,0.188305,-0.041422,-1.40251,0.141381,0.0454864,1343,323,4.09665,29.353
126,701,3.82458,-28.9332,0,0,0,0,0,0,0,-1,1350,323,3.82453,28.9332
133,701,3.74048,-30.4864,0,0,0,0,0,0,0,-1,1357,323,3.7405,30.4864
140,701,4.23511,-29.8792,0,0,0,0,0,0,0,-1,1364,323,4.23514,29.8792
147,701,2.40613,-32.0232,0,0,0,0,0,0,0,-1,1371,323,2.40618,32.0232
154,701,2.34778,-31.6131,0,0,0,0,0,0,0,-1,1378,323,2.34778,31.6131
161,701,2.62903,-31.4281,0,0,0,0,0,0,0,-1,1385,323,2.62906,31.4281
168,701,30.7272,1.76184,0,0,0,0,0,0,0,-1,1392,323,30.7272,-1.76184
175,701,31.5035,2.25711,0,0,0,0,0,0,0,-1,1399,323,31.5036,-2.25712
182,701,8.80652,5.42807,0,0,0,0,0,0,0,-1,1406,323,8.8065,-5.42808
189,701,8.58081,4.24493,0,0,0,0,0,0,0,-1,1413,323,8.58082,-4.24494
196,701,0,0,0,0,0,0,0,0,0,-1,1420,323,0,0
203,701,0,0,0,0,0,0,0,0,0,-1,1427,323,0,0
210,701,0,0,0,0,0,0,0,0,0,-1,1434,323,0,0
217,701,0,0,0,0,0,0,0,0,0,-1,1441,323,0,0
224,701,0,0,0,0,0,0,0,0,0,-1,1448,323,0,0
231,701,0,0,0,0,0,0,0,0,0,-1,1455,323,0,0
238,701,0,0,0,0,0,0,0,0,0,-1,1462,323,0,0
245,701,0,0,0,0,0,0,0,0,0,-1,1469,323,0,0
252,701,0,0,0,0,0,0,0,0,0,-1,1476,323,0,0
259,701,0,0,0,0,0,0,0,0,0,-1,1483,323,0,0
266,701,0,0,0,0,0,0,0,0,0,-1,1490,323,0,0
273,701,0,0,0,0,0,0,0,0,0,-1,1497,323,0,0
280,701,0,0,0,0,0,0,0,0,0,-1,1504,323,0,0
287,701,0,0,0,0,0,0,0,0,0,-1,1511,323,0,0
294,701,0,0,0,0,0,0,0,0,0,-1,1518,323,0,0
301,701,0,0,0,0,0,0,0,0,0,-1,1525,323,0,0
308,701,0,0,0,0,0,0,0,0,0,-1,1532,323,0,0
315,701,0,0,0,0,0,0,0,0,0,-1,1539,323,0,0
322,701,0,0,0,0,0,0,0,0,0,-1,1546,323,0,0
329,701,0,0,0,0,0,0,0,0,0,-1,1553,323,0,0
336,701,0,0,0,0,0,0,0,0,0,-1,1560,323,0,0
343,701,0,0,0,0,0,0,0,0,0,-1,1567,323,0,0
350,701,0,0,0,0,0,0,0,0,0,-1,1574,323,0,0
357,701,0,0,0,0,0,0,0,0,0,-1,1581,323,0,0
364,701,0,0,0,0,0,0,0,0,0,-1,1588,323,0,0
371,701,0,0,0,0,0,0,0,0,0,-1,1595,323,0,0
378,701,0,0,0,0,0,0,0,0,0,-1,1602,323,0,0
385,701,0,0,0,0,0,0,0,0,0,-1,1609,323,0,0
392,701,0,0,0,0,0,0,0,0,0,-1,1616,323,0,0
399,701,0,0,0,0,0,0,0,0,0,-1,1623,323,0,0
406,701,0,0,0,0,0,0,0,0,0,-1,1630,323,0,0
413,701,0,0,0,0,0,0,0,0,0,-1,1637,323,0,0
420,701,0,0,0,0,0,0,0,0,0,-1,1644,323,0,0
427,701,0,0,0,0,0,0,0,0,0,-1,1651,323,0,0
434,701,0,0,0,0,0,0,0,0,0,-1,1658,323,0,0
441,701,0,0,0,0,0,0,0,0,0,-1,1665,323,0,0
448,701,0,0,0,0,0,0,0,0,0,-1,1672,323,0,0
455,701,0,0,0,0,0,0,0,0,0,-1,1679,323,0,0
462,701,0,0,0,0,0,0,0,0,0,-1,1686,323,0,0
469,701,0,0,0,0,0,0,0,0,0,-1,1693,323,0,0
476,701,0,0,0,0,0,0,0,0,0,-1,1700,323,0,0
483,701,0,0,0,0,0,0,0,0,0,-1,1707,323,0,0
490,701,0,0,0,0,0,0,0,0,0,-1,1714,323,0,0
497,701,0,0,0,0,0,0,0,0,0,-1,1721,323,0,0
504,701,0,0,0,0,0,0,0,0,0,-1,1728,323,0,0
511,701,0,0,0,0,0,0,0,0,0,-1,1735,323,0,0
518,701,0,0,0,0,0,0,0,0,0,-1,1742,323,0,0
525,701,0,0,0,0,0,0,0,0,0,-1,1749,323,0,0
532,701,0,0,0,0,0,0,0,0,0,-1,1756,323,0,0
539,701,0,0,0,0,0,0,0,0,0,-1,1763,323,0,0
546,701,0,0,0,0,0,0,0,0,0,-1,1770,323,0,0
553,701,0,0,0,0,0,0,0,0,0,-1,1777,323,0,0
560,701,0,0,0,0,0,0,0,0,0,-1,1784,323,0,0
567,701,0,0,0,0,0,0,0,0,0,-1,1791,323,0,0
574,701,0,0,0,0,0,0,0,0,0,-1,1798,323,0,0
581,701,0,0,0,0,0,0,0,0,0,-1,1805,323,0,0
588,701,0,0,0,0,0,0,0,0,0,-1,1812,323,0,0
595,701,0,0,0,0,0,0,0,0,0,-1,1819,323,0,0
602,701,0,0,0,0,0,0,0,0,0,-1,1826,323,0,0
609,701,0,0,0,0,0,0,0,0,0,-1,1833,323,0,0
616,701,0,0,0,0,0,0,0,0,0,-1,1840,323,0,0
623,701,0,0,0,0,0,0,0,0,0,-1,1847,323,0,0
630,701,0,0,0,0,0,0,0,0,0,-1,1854,323,0,0
637,701,0,0,0,0,0,0,0,0,0,-1,1861,323,0,0
644,701,0,0,0,0,0,0,0,0,0,-1,1868,323,0,0
651,701,0,0,0,0,0,0,0,0,0,-1,1875,323,0,0
658,701,0,0,0,0,0,0,0,0,0,-1,1882,323,0,0
665,701,0,0,0,0,0,0,0,0,0,-1,1889,323,0,0
672,701,0,0,0,0,0,0,0,0,0,-1,1896,323,0,0
679,701,0,0,0,0,0,0,0,0,0,-1,1903,323,0,0
686,701,0,0,0,0,0,0,0,0,0,-1,1910,323,0,0
693,701,0,0,0,0,0,0,0,0,0,-1,1917,323,0,0
700,701,0,0,0,0,0,0,0,0,0,-1,1924,323,0,0
707,701,0,0,0,0,0,0,0,0,0,-1,1931,323,0,0
714,701,0,0,0,0,0,0,0,0,0,-1,1938,323,0,0
721,701,0,0,0,0,0,0,0,0,0,-1,1945,323,0,0
728,701,0,0,0,0,0,0,0,0,0,-1,1952,323,0,0
735,701,0,0,0,0,0,0,0,0,0,-1,1959,323,0,0
742,701,0,0,0,0,0,0,0,0,0,-1,1966,323,0,0
749,701,0,0,0,0,0,0,0,0,0,-1,1973,323,0,0
756,701,0,0,0,0,0,0,0,0,0,-1,1980,323,0,0
763,701,0,0,0,0,0,0,0,0,0,-1,1987,323,0,0
770,701,0,0,0,0,0,0,0,0,0,-1,1994,323,0,0
777,701,0,0,0,0,0,0,0,0,0,-1,2001,323,0,0
784,701,0,0,0,0,0,0,0,0,0,-1,2008,323,0,0
791,701,0,0,0,0,0,0,0,0,0,-1,2015,323,0,0
798,701,0,0,0,0,0,0,0,0,0,-1,2022,323,0,0
805,701,0,0,0,0,0,0,0,0,0,-1,2029,323,0,0
812,701,0,0,0,0,0,0,0,0,0,-1,2036,323,0,0
-700,694,0,0,0,0,0,0,0,0,0,-1,524,330,0,0
-693,694,0,0,0,0,0,0,0,0,0,-1,531,330,0,0
-686,694,0,0,0,0,0,0,0,0,0,-1,538,330,0,0
-679,694,0,0,0,0,0,0,0,0,0,-1,545,330,0,0
-672,694,0,0,0,0,0,0,0,0,0,-1,552,330,0,0
-665,694,0,0,0,0,0,0,0,0,0,-1,559,330,0,0
-658,694,0,0,0,0,0,0,0,0,0,-1,566,330,0,0
-651,694,0,0,0,0,0,0,0,0,0,-1,573,330,0,0
-644,694,0,0,0,0,0,0,0,0,0,-1,580,330,0,0
-637,694,0,0,0,0,0,0,0,0,0,-1,587,330,0,0
-630,694,0,0,0,0,0,0,0,0,0,-1,594,330,0,0
-623,694,0,0,0,0,0,0,0,0,0,-1,601,330,0,0
-616,694,0,0,0,0,0,0,0,0,0,-1,608,330,0,0
-609,694,0,0,0,0,0,0,0,0,0,-1,615,330,0,0
-602,694,0,0,0,0,0,0,0,0,0,-1,622,330,0,0
-595,694,0,0,0,0,0,0,0,0,0,-1,629,330,0,0
-588,694,0,0,0,0,0,0,0,0,0,-1,636,330,0,0
-581,694,0,0,0,0,0,0,0,0,0,-1,643,330,0,0
-574,694,0,0,0,0,0,0,0,0,0,-1,650,330,0,0
-567,694,0,0,0,0,0,0,0,0,0,-1,657,330,0,0
-560,694,0,0,0,0,0,0,0,0,0,-1,664,330,0,0
-553,694,0,0,0,0,0,0,0,0,0,-1,671,330,0,0
-546,694,0,0,0,0,0,0,0,0,0,-1,678,330,0,0
-539,694,0,0,0,0,0,0,0,0,0,-1,685,330,0,0
-532,694,0,0,0,0,0,0,0,0,0,-1,692,330,0,0
-525,694,0,0,0,0,0,0,0,0,0,-1,699,330,0,0
-518,694,0,0,0,0,0,0,0,0,0,-1,706,330,0,0
-511,694,0,0,0,0,0,0,0,0,0,-1,713,330,0,0
-504,694,0,0,0,0,0,0,0,0,0,-1,720,330,0,0
-497,694,0,0,0,0,0,0,0,0,0,-1,727,330,0,0
-490,694,0,0,0,0,0,0,0,0,0,-1,734,330,0,0
-483,694,0,0,0,0,0,0,0,0,0,-1,741,330,0,0
-476,694,0,0,0,0,0,0,0,0,0,-1,748,330,0,0
-469,694,0,0,0,0,0,0,0,0,0,-1,755,330,0,0
-462,694,0,0,0,0,0,0,0,0,0,-1,762,330,0,0
-455,694,0,0,0,0,0,0,0,0,0,-1,769,330,0,0
-448,694,0,0,0,0,0,0,0,0,0,-1,776,330,0,0
-441,694,0,0,0,0,0,0,0,0,0,-1,783,330,0,0
-434,694,0,0,0,0,0,0,0,0,0,-1,790,330,0,0
-427,694,0,0,0,0,0,0,0,0,0,-1,797,330,0,0
-420,694,0,0,0,0,0,0,0,0,0,-1,804,330,0,0
-413,694,0,0,0,0,0,0,0,0,0,-1,811,330,0,0
-406,694,0,0,0,0,0,0,0,0,0,-1,818,330,0,0
-399,694,0,0,0,0,0,0,0,0,0,-1,825,330,0,0
-392,694,0,0,0,0,0,0,0,0,0,-1,832,330,0,0
-385,694,0,0,0,0,0,0,0,0,0,-1,839,330,0,0
-378,694,0,0,0,0,0,0,0,0,0,-1,846,330,0,0
-371,694,0,0,0,0,0,0,0,0,0,-1,853,330,0,0
-364,694,0,0,0,0,0,0,0,0,0,-1,860,330,0,0
-357,694,0,0,0,0,0,0,0,0,0,-1,867,330,0,0
-350,694,0,0,0,0,0,0,0,0,0,-1,874,330,0,0
-343,694,0,0,0,0,0,0,0,0,0,-1,881,330,0,0
-336,694,0,0,0,0,0,0,0,0,0,-1,888,330,0,0
-329,694,0,0,0,0,0,0,0,0,0,-1,895,330,0,0
-322,694,0,0,0,0,0,0,0,0,0,-1,902,330,0,0
-315,694,0,0,0,0,0,0,0,0,0,-1,909,330,0,0
-308,694,0,0,0,0,0,0,0,0,0,-1,916,330,0,0
-301,694,0,0,0,0,0,0,0,0,0,-1,923,330,0,0
-294,694,0,0,0,0,0,0,0,0,0,-1,930,330,0,0
-287,694,0,0,0,0,0,0,0,0,0,-1,937,330,0,0
-280,694,0,0,0,0,0,0,0,0,0,-1,944,330,0,0
-273,694,0,0,0,0,0,0,0,0,0,-1,951,330,0,0
-266,694,0,0,0,0,0,0,0,0,0,-1,958,330,0,0
-259,694,0,0,0,0,0,0,0,0,0,-1,965,330,0,0
-252,694,0,0,0,0,0,0,0,0,0,-1,972,330,0,0
-245,694,0,0,0,0,0,0,0,0,0,-1,979,330,0,0
-238,694,0,0,0,0,0,0,0,0,0,-1,986,330,0,0
-231,694,0,0,0,0,0,0,0,0,0,-1,993,330,0,0
-224,694,0,0,0,0,0,0,0,0,0,-1,1000,330,0,0
-217,694,0,0,0,0,0,0,0,0,0,-1,1007,330,0,0
-210,694,0,0,0,0,0,0,0,0,0,-1,1014,330,0,0
-203,694,0,0,0,0,0,0,0,0,0,-1,1021,330,0,0
-196,694,0,0,0,0,0,0,0,0,0,-1,1028,330,0,0
-189,694,0,0,0,0,0,0,0,0,0,-1,1035,330,0,0
-182,694,0,0,0,0,0,0,0,0,0,-1,1042,330,0,0
-175,694,0,0,0,0,0,0,0,0,0,-1,1049,330,0,0
-168,694,0,0,0,0,0,0,0,0,0,-1,1056,330,0,0
-161,694,0,0,0,0,0,0,0,0,0,-1,1063,330,0,0
-154,694,0,0,0,0,0,0,0,0,0,-1,1070,330,0,0
-147,694,0,0,0,0,0,0,0,0,0,-1,1077,330,0,0
-140,694,0,0,0,0,0,0,0,0,0,-1,1084,330,0,0
-133,694,0,0,0,0,0,0,0,0,0,-1,1091,330,0,0
-126,694,0,0,0,0,0,0,0,0,0,-1,1098,330,0,0
-119,694,0,0,0,0,0,0,0,0,0,-1,1105,330,0,0
-112,694,0,0,0,0,0,0,0,0,0,-1,1112,330,0,0
-105,694,2.5188,-19.3963,0,0,0,0,0,0,0,-1,1119,330,2.51882,19.3963
-98,694,1.34875,-10.1051,0,0,0,0,0,0,0,-1,1126,330,1.34874,10.1051
-91,694,7.12927,-43.3935,0,0,0,0,0,0,0,-1,1133,330,7.12929,43.3935
-84,694,0.937744,-38.53,0,0,0,0,0,0,0,-1,1140,330,0.937727,38.53
-77,694,-5.45215,-32.2713,0,0,0,0,0,0,0,-1,1147,330,-5.45219,32.2713
-70,694,-11.7397,-25.7227,0,0,0,0,0,0,0,-1,1154,330,-11.7398,25.7228
-63,694,-18.0549,-19.214,0,0,0,0,0,0,0,-1,1161,330,-18.055,19.2139
-56,694,-6.50623,-0.649139,0,0,0,0,0,0,0,-1,1168,330,-6.5062,0.649126
-49,694,-1.11426,0.0341797,0,0,0,0,0,0,0,-1,1175,330,-1.11424,-0.0341846
-42,694,-0.346313,-0.709595,0,0,0,0,0,0,0,-1,1182,330,-0.346298,0.709581
-35,694,-0.459106,-1.24713,0,0,0,0,0,0,0,-1,1189,330,-0.459142,1.24714
-28,694,-6.48413,-3.95972,0,0,0,0,0,0,0,-1,1196,330,-6.48414,3.9597
-21,694,6.68689,-35.5084,0,0,0,0,0,0,0,-1,1203,330,6.68685,35.5084
-14,694,6.48535,-35.9304,0.0048166,0.0406887,0.068973,0.0940197,-0.0485143,0.912603,0.0836783,0.0486222,1210,330,6.48532,35.9304
-7,694,6.19189,-36.6057,-0.00102022,0.0495808,0.065284,0.0942955,-0.0457348,0.97026,0.0824511,0.0429562,1217,330,6.19191,36.6056
0,694,5.72791,-37.1613,-0.00669888,0.0574908,0.0616123,0.0948665,-0.0440746,1.02552,0.0819849,0.0425736,1224,330,5.72793,37.1613
7,694,7.25342,-34.3425,0,0,0,0,0,0,0,-1,1231,330,7.25347,34.3425
14,694,6.8645,-34.2205,-0.0117024,0.0729485,0.0524574,0.0980264,-0.0367804,1.12485,0.0804637,0.0455787,1238,330,6.86446,34.2205
21,694,6.15613,-33.802,-0.011064,0.0812924,0.0498284,0.10305,-0.0328217,1.1591,0.0818641,0.0426871,1245,330,6.15618,33.802
28,694,5.77026,-33.4374,-0.00934364,0.0881179,0.047332,0.107321,-0.0285467,1.18538,0.0827214,0.0420266,1252,330,5.77028,33.4374
35,694,5.68079,-33.0163,-0.00587932,0.0953275,0.0454638,0.112751,-0.0233028,1.20482,0.0840191,0.0422633,1259,330,5.68084,33.0163
42,694,5.45532,-32.631,-0.00131369,0.104394,0.0454537,0.121251,-0.0181704,1.21566,0.0875217,0.0483321,1266,330,5.45534,32.631
49,694,5.20825,-32.3371,0,0,0,0,0,0,0,-1,1273,330,5.20823,32.3371
56,694,3.68494,-31.7026,0.00551085,0.121269,0.0442254,0.136231,-0.00945152,1.24456,0.0941295,0.0420411,1280,330,3.68494,31.7026
63,694,4.59595,-34.3975,0.00761859,0.133818,0.0439285,0.147603,-0.00616659,1.26672,0.100521,0.0449216,1287,330,4.59598,34.3975
70,694,4.61475,-31.2291,0.00806589,0.1426,0.0415139,0.154379,-0.00371304,1.29433,0.104179,0.0455334,1294,330,4.61478,31.2291
77,694,4.63245,-32.3018,0,0,0,0,0,0,0,-1,1301,330,4.63243,32.3019
84,694,4.8584,-30.8182,0.00276268,0.156984,0.031523,0.163178,-0.00343186,1.37676,0.109947,0.0454395,1308,330,4.8584,30.8182
91,694,5.30493,-30.6343,-0.00333522,0.161411,0.0231439,0.1646,-0.00652478,1.43384,0.111972,0.0440253,1315,330,5.30487,30.6343
98,694,5.44666,-30.0705,-0.00891439,0.1638,0.0129764,0.16477,-0.0098839,1.49622,0.113285,0.0450096,1322,330,5.44669,30.0705
105,694,4.87244,-29.9353,-0.0140505,0.164534,0.00228401,0.164564,-0.0140797,1.55801,0.114691,0.0458676,1329,330,4.87241,29.9353
112,694,4.5072,-29.8253,-0.0203672,0.163058,-0.00969674,0.163569,-0.0208784,-1.51813,0.11663,0.0416874,1336,330,4.50716,29.8253
119,694,4.02942,-30.1108,-0.0254652,0.158123,-0.0227284,0.160895,-0.0282372,-1.44944,0.117809,0.0433505,1343,330,4.0294,30.1108
126,694,2.78357,-34.3284,0,0,0,0,0,0,0,-1,1350,330,2.78357,34.3284
133,694,3.54626,-31.2329,0,0,0,0,0,0,0,-1,1357,330,3.54623,31.2329
140,694,4.12708,-30.5476,0,0,0,0,0,0,0,-1,1364,330,4.12711,30.5476
147,694,4.62158,-29.9185,0,0,0,0,0,0,0,-1,1371,330,4.62153,29.9185
154,694,2.71143,-32.0522,0,0,0,0,0,0,0,-1,1378,330,2.71141,32.0522
161,694,2.71069,-31.7711,0,0,0,0,0,0,0,-1,1385,330,2.71067,31.7711
168,694,30.451,0.196686,0,0,0,0,0,0,0,-1,1392,330,30.4511,-0.196674
175,694,31.0701,0.869873,0,0,0,0,0,0,0,-1,1399,330,31.07,-0.869874
182,694,8.29028,5.75238,0,0,0,0,0,0,0,-1,1406,330,8.29034,-5.75237
189,694,7.9801,4.46118,0,0,0,0,0,0,0,-1,1413,330,7.9801,-4.46118
196,694,7.39331,3.32632,0,0,0,0,0,0,0,-1,1420,330,7.39329,-3.32633
203,694,7.04492,2.20529,0,0,0,0,0,0,0,-1,1427,330,7.04496,-2.20529
210,694,6.44714,0.646912,0,0,0,0,0,0,0,-1,1434,330,6.44717,-0.646903
217,694,7.12061,-0.644958,0,0,0,0,0,0,0,-1,1441,330,7.12059,0.644961
224,694,6.74011,-1.70544,0,0,0,0,0,0,0,-1,1448,330,6.74013,1.70546
231,694,0,0,0,0,0,0,0,0,0,-1,1455,330,0,0
238,694,0,0,0,0,0,0,0,0,0,-1,1462,330,0,0
245,694,0,0,0,0,0,0,0,0,0,-1,1469,330,0,0
252,694,0,0,0,0,0,0,0,0,0,-1,1476,330,0,0
259,694,0,0,0,0,0,0,0,0,0,-1,1483,330,0,0
266,694,0,0,0,0,0,0,0,0,0,-1,1490,330,0,0
273,694,0,0,0,0,0,0,0,0,0,-1,1497,330,0,0
280,694,0,0,0,0,0,0,0,0,0,-1,1504,330,0,0
287,694,0,0,0,0,0,0,0,0,0,-1,1511,330,0,0
294,694,0,0,0,0,0,0,0,0,0,-1,1518,330,0,0
301,694,0,0,0,0,0,0,0,0,0,-1,1525,330,0,0
308,694,0,0,0,0,0,0,0,0,0,-1,1532,330,0,0
315,694,0,0,0,0,0,0,0,0,0,-1,1539,330,0,0
322,694,0,0,0,0,0,0,0,0,0,-1,1546,330,0,0
329,694,0,0,0,0,0,0,0,0,0,-1,1553,330,0,0
336,694,0,0,0,0,0,0,0,0,0,-1,1560,330,0,0
343,694,0,0,0,0,0,0,0,0,0,-1,1567,330,0,0
350,694,0,0,0,0,0,0,0,0,0,-1,1574,330,0,0
357,694,0,0,0,0,0,0,0,0,0,-1,1581,330,0,0
364,694,0,0,0,0,0,0,0,0,0,-1,1588,330,0,0
371,694,0,0,0,0,0,0,0,0,0,-1,1595,330,0,0
378,694,0,0,0,0,0,0,0,0,0,-1,1602,330,0,0
385,694,0,0,0,0,0,0,0,0,0,-1,1609,330,0,0
392,694,0,0,0,0,0,0,0,0,0,-1,1616,330,0,0
399,694,0,0,0,0,0,0,0,0,0,-1,1623,330,0,0
406,694,0,0,0,0,0,0,0,0,0,-1,1630,330,0,0
413,694,0,0,0,0,0,0,0,0,0,-1,1637,330,0,0
420,694,0,0,0,0,0,0,0,0,0,-1,1644,330,0,0
427,694,0,0,0,0,0,0,0,0,0,-1,1651,330,0,0
434,694,0,0,0,0,0,0,0,0,0,-1,1658,330,0,0
441,694,0,0,0,0,0,0,0,0,0,-1,1665,330,0,0
448,694,0,0,0,0,0,0,0,0,0,-1,1672,330,0,0
455,694,0,0,0,0,0,0,0,0,0,-1,1679,330,0,0
462,694,0,0,0,0,0,0,0,0,0,-1,1686,330,0,0
469,694,0,0,0,0,0,0,0,0,0,-1,1693,330,0,0
476,694,0,0,0,0,0,0,0,0,0,-1,1700,330,0,0
483,694,0,0,0,0,0,0,0,0,0,-1,1707,330,0,0
490,694,0,0,0,0,0,0,0,0,0,-1,1714,330,0,0
497,694,0,0,0,0,0,0,0,0,0,-1,1721,330,0,0
504,694,0,0,0,0,0,0,0,0,0,-1,1728,330,0,0
511,694,0,0,0,0,0,0,0,0,0,-1,1735,330,0,0
518,694,0,0,0,0,0,0,0,0,0,-1,1742,330,0,0
525,694,0,0,0,0,0,0,0,0,0,-1,1749,330,0,0
532,694,0,0,0,0,0,0,0,0,0,-1,1756,330,0,0
539,694,0,0,0,0,0,0,0,0,0,-1,1763,330,0,0
546,694,0,0,0,0,0,0,0,0,0,-1,1770,330,0,0
553,694,0,0,0,0,0,0,0,0,0,-1,1777,330,0,0
560,694,0,0,0,0,0,0,0,0,0,-1,1784,330,0,0
567,694,0,0,0,0,0,0,0,0,0,-1,1791,330,0,0
574,694,0,0,0,0,0,0,0,0,0,-1,1798,330,0,0
581,694,0,0,0,0,0,0,0,0,0,-1,1805,330,0,0
588,694,0,0,0,0,0,0,0,0,0,-1,1812,330,0,0
595,694,0,0,0,0,0,0,0,0,0,-1,1819,330,0,0
602,694,0,0,0,0,0,0,0,0,0,-1,1826,330,0,0
609,694,0,0,0,0,0,0,0,0,0,-1,1833,330,0,0
616,694,0,0,0,0,0,0,0,0,0,-1,1840,330,0,0
623,694,0,0,0,0,0,0,0,0,0,-1,1847,330,0,0
630,694,0,0,0,0,0,0,0,0,0,-1,1854,330,0,0
637,694,0,0,0,0,0,0,0,0,0,-1,1861,330,0,0
644,694,0,0,0,0,0,0,0,0,0,-1,1868,330,0,0
651,694,0,0,0,0,0,0,0,0,0,-1,1875,330,0,0
658,694,0,0,0,0,0,0,0,0,0,-1,1882,330,0,0
665,694,0,0,0,0,0,0,0,0,0,-1,1889,330,0,0
672,694,0,0,0,0,0,0,0,0,0,-1,1896,330,0,0
679,694,0,0,0,0,0,0,0,0,0,-1,1903,330,0,0
686,694,0,0,0,0,0,0,0,0,0,-1,1910,330,0,0
693,694,0,0,0,0,0,0,0,0,0,-1,1917,330,0,0
700,694,0,0,0,0,0,0,0,0,0,-1,1924,330,0,0
707,694,0,0,0,0,0,0,0,0,0,-1,1931,330,0,0
714,694,0,0,0,0,0,0,0,0,0,-1,1938,330,0,0
721,694,0,0,0,0,0,0,0,0,0,-1,1945,330,0,0
728,694,0,0,0,0,0,0,0,0,0,-1,1952,330,0,0
735,694,0,0,0,0,0,0,0,0,0,-1,1959,330,0,0
742,694,0,0,0,0,0,0,0,0,0,-1,1966,330,0,0
749,694,0,0,0,0,0,0,0,0,0,-1,1973,330,0,0
756,694,0,0,0,0,0,0,0,0,0,-1,1980,330,0,0
763,694,0,0,0,0,0,0,0,0,0,-1,1987,330,0,0
770,694,0,0,0,0,0,0,0,0,0,-1,1994,330,0,0
777,694,0,0,0,0,0,0,0,0,0,-1,2001,330,0,0
784,694,0,0,0,0,0,0,0,0,0,-1,2008,330,0,0
791,694,0,0,0,0,0,0,0,0,0,-1,2015,330,0,0
798,694,0,0,0,0,0,0,0,0,0,-1,2022,330,0,0
805,694,0,0,0,0,0,0,0,0,0,-1,2029,330,0,0
812,694,0,0,0,0,0,0,0,0,0,-1,2036,330,0,0
-700,687,0,0,0,0,0,0,0,0,0,-1,524,337,0,0
-693,687,0,0,0,0,0,0,0,0,0,-1,531,337,0,0
-686,687,0,0,0,0,0,0,0,0,0,-1,538,337,0,0
-679,687,0,0,0,0,0,0,0,0,0,-1,545,337,0,0
-672,687,0,0,0,0,0,0,0,0,0,-1,552,337,0,0
-665,687,0,0,0,0,0,0,0,0,0,-1,559,337,0,0
-658,687,0,0,0,0,0,0,0,0,0,-1,566,337,0,0
-651,687,0,0,0,0,0,0,0,0,0,-1,573,337,0,0
-644,687,0,0,0,0,0,0,0,0,0,-1,580,337,0,0
-637,687,0,0,0,0,0,0,0,0,0,-1,587,337,0,0
-630,687,0,0,0,0,0,0,0,0,0,-1,594,337,0,0
-623,687,0,0,0,0,0,0,0,0,0,-1,601,337,0,0
-616,687,0,0,0,0,0,0,0,0,0,-1,608,337,0,0
-609,687,0,0,0,0,0,0,0,0,0,-1,615,337,0,0
-602,687,0,0,0,0,0,0,0,0,0,-1,622,337,0,0
-595,687,0,0,0,0,0,0,0,0,0,-1,629,337,0,0
-588,687,0,0,0,0,0,0,0,0,0,-1,636,337,0,0
-581,687,0,0,0,0,0,0,0,0,0,-1,643,337,0,0
-574,687,0,0,0,0,0,0,0,0,0,-1,650,337,0,0
-567,687,0,0,0,0,0,0,0,0,0,-1,657,337,0,0
-560,687,0,0,0,0,0,0,0,0,0,-1,664,337,0,0
-553,687,0,0,0,0,0,0,0,0,0,-1,671,337,0,0
-546,687,0,0,0,0,0,0,0,0,0,-1,678,337,0,0
-539,687,0,0,0,0,0,0,0,0,0,-1,685,337,0,0
-532,687,0,0,0,0,0,0,0,0,0,-1,692,337,0,0
-525,687,0,0,0,0,0,0,0,0,0,-1,699,337,0,0
-518,687,0,0,0,0,0,0,0,0,0,-1,706,337,0,0
-511,687,0,0,0,0,0,0,0,0,0,-1,713,337,0,0
-504,687,0,0,0,0,0,0,0,0,0,-1,720,337,0,0
-497,687,0,0,0,0,0,0,0,0,0,-1,727,337,0,0
-490,687,0,0,0,0,0,0,0,0,0,-1,734,337,0,0
-483,687,0,0,0,0,0,0,0,0,0,-1,741,337,0,0
-476,687,0,0,0,0,0,0,0,0,0,-1,748,337,0,0
-469,687,0,0,0,0,0,0,0,0,0,-1,755,337,0,0
-462,687,0,0,0,0,0,0,0,0,0,-1,762,337,0,0
-455,687,0,0,0,0,0,0,0,0,0,-1,769,337,0,0
-448,687,0,0,0,0,0,0,0,0,0,-1,776,337,0,0
-441,687,0,0,0,0,0,0,0,0,0,-1,783,337,0,0
-434,687,0,0,0,0,0,0,0,0,0,-1,790,337,0,0
-427,687,0,0,0,0,0,0,0,0,0,-1,797,337,0,0
-420,687,0,0,0,0,0,0,0,0,0,-1,804,337,0,0
-413,687,0,0,0,0,0,0,0,0,0,-1,811,337,0,0
-406,687,0,0,0,0,0,0,0,0,0,-1,818,337,0,0
-399,687,0,0,0,0,0,0,0,0,0,-1,825,337,0,0
-392,687,0,0,0,0,0,0,0,0,0,-1,832,337,0,0
-385,687,0,0,0,0,0,0,0,0,0,-1,839,337,0,0
-378,687,0,0,0,0,0,0,0,0,0,-1,846,337,0,0
-371,687,0,0,0,0,0,0,0,0,0,-1,853,337,0,0
-364,687,0,0,0,0,0,0,0,0,0,-1,860,337,0,0
-357,687,0,0,0,0,0,0,0,0,0,-1,867,337,0,0
-350,687,0,0,0,0,0,0,0,0,0,-1,874,337,0,0
-343,687,0,0,0,0,0,0,0,0,0,-1,881,337,0,0
-336,687,0,0,0,0,0,0,0,0,0,-1,888,337,0,0
-329,687,0,0,0,0,0,0,0,0,0,-1,895,337,0,0
-322,687,0,0,0,0,0,0,0,0,0,-1,902,337,0,0
-315,687,0,0,0,0,0,0,0,0,0,-1,909,337,0,0
-308,687,0,0,0,0,0,0,0,0,0,-1,916,337,0,0
-301,687,0,0,0,0,0,0,0,0,0,-1,923,337,0,0
-294,687,0,0,0,0,0,0,0,0,0,-1,930,337,0,0
-287,687,0,0,0,0,0,0,0,0,0,-1,937,337,0,0
-280,687,0,0,0,0,0,0,0,0,0,-1,944,337,0,0
-273,687,0,0,0,0,0,0,0,0,0,-1,951,337,0,0
-266,687,0,0,0,0,0,0,0,0,0,-1,958,337,0,0
-259,687,0,0,0,0,0,0,0,0,0,-1,965,337,0,0
-252,687,0,0,0,0,0,0,0,0,0,-1,972,337,0,0
-245,687,0,0,0,0,0,0,0,0,0,-1,979,337,0,0
-238,687,0,0,0,0,0,0,0,0,0,-1,986,337,0,0
-231,687,0,0,0,0,0,0,0,0,0,-1,993,337,0,0
-224,687,0,0,0,0,0,0,0,0,0,-1,1000,337,0,0
-217,687,0,0,0,0,0,0,0,0,0,-1,1007,337,0,0
-210,687,0,0,0,0,0,0,0,0,0,-1,1014,337,0,0
-203,687,0,0,0,0,0,0,0,0,0,-1,1021,337,0,0
-196,687,0,0,0,0,0,0,0,0,0,-1,1028,337,0,0
-189,687,0,0,0,0,0,0,0,0,0,-1,1035,337,0,0
-182,687,0,0,0,0,0,0,0,0,0,-1,1042,337,0,0
-175,687,0,0,0,0,0,0,0,0,0,-1,1049,337,0,0
-168,687,0,0,0,0,0,0,0,0,0,-1,1056,337,0,0
-161,687,0,0,0,0,0,0,0,0,0,-1,1063,337,0,0
-154,687,0,0,0,0,0,0,0,0,0,-1,1070,337,0,0
-147,687,0,0,0,0,0,0,0,0,0,-1,1077,337,0,0
-140,687,0,0,0,0,0,0,0,0,0,-1,1084,337,0,0
-133,687,5.05859,-32.5701,0,0,0,0,0,0,0,-1,1091,337,5.05864,32.5701
-126,687,5.46191,-31.8163,0,0,0,0,0,0,0,-1,1098,337,5.46188,31.8163
-119,687,5.87366,-31.1191,0,0,0,0,0,0,0,-1,1105,337,5.87367,31.1191
-112,687,6.2616,-30.3766,0,0,0,0,0,0,0,-1,1112,337,6.26163,30.3766
-105,687,6.71155,-27.9981,0,0,0,0,0,0,0,-1,1119,337,6.7116,27.9981
-98,687,13.5825,-44.6227,0,0,0,0,0,0,0,-1,1126,337,13.5825,44.6227
-91,687,7.80652,-40.6695,0,0,0,0,0,0,0,-1,1133,337,7.80654,40.6695
-84,687,1.58215,-34.1306,0,0,0,0,0,0,0,-1,1140,337,1.58212,34.1306
-77,687,-4.66223,-27.6216,0,0,0,0,0,0,0,-1,1147,337,-4.66227,27.6216
-70,687,-10.9153,-21.2731,0,0,0,0,0,0,0,-1,1154,337,-10.9153,21.2731
-63,687,-17.217,-14.7555,0,0,0,0,0,0,0,-1,1161,337,-17.2171,14.7555
-56,687,-18.104,7.81931,0,0,0,0,0,0,0,-1,1168,337,-18.104,-7.81931
-49,687,-15.6449,-9.94391,0,0,0,0,0,0,0,-1,1175,337,-15.6449,9.94392
-42,687,-4.2019,-0.405609,0,0,0,0,0,0,0,-1,1182,337,-4.20192,0.405614
-35,687,-4.42273,-0.688171,0,0,0,0,0,0,0,-1,1189,337,-4.42276,0.688178
-28,687,-1.14038,-1.39072,0,0,0,0,0,0,0,-1,1196,337,-1.14035,1.3907
-21,687,6.67419,-35.2459,0,0,0,0,0,0,0,-1,1203,337,6.67415,35.2459
-14,687,6.23438,-35.5353,-0.00334231,0.0305521,0.0500053,0.0664039,-0.0391941,0.948778,0.061638,0.0439736,1210,337,6.23439,35.5353
-7,687,5.77417,-35.8235,-0.00709495,0.037575,0.0477272,0.0679348,-0.0374548,1.00425,0.0616891,0.0442033,1217,337,5.77417,35.8235
0,687,5.1261,-36.1195,-0.0107759,0.0440782,0.0454096,0.0697008,-0.0363985,1.05707,0.0622542,0.0475489,1224,337,5.12613,36.1195
7,687,6.72119,-33.7579,0,0,0,0,0,0,0,-1,1231,337,6.72117,33.7579
14,687,6.52942,-33.9587,0,0,0,0,0,0,0,-1,1238,337,6.52945,33.9587
21,687,5.34802,-34.3576,0,0,0,0,0,0,0,-1,1245,337,5.34798,34.3576
28,687,5.4292,-34.1059,0,0,0,0,0,0,0,-1,1252,337,5.42917,34.1059
35,687,5.44824,-34.6642,0,0,0,0,0,0,0,-1,1259,337,5.44821,34.6642
42,687,5.14771,-33.4184,0,0,0,0,0,0,0,-1,1266,337,5.14772,33.4184
49,687,4.55225,-34.5372,0,0,0,0,0,0,0,-1,1273,337,4.55219,34.5372
56,687,4.54993,-34.5228,0,0,0,0,0,0,0,-1,1280,337,4.54991,34.5228
63,687,4.44543,-34.5376,0.00480486,0.114624,0.0357195,0.125219,-0.00579086,1.28243,0.0854753,0.0445147,1287,337,4.44538,34.5376
70,687,4.36646,-35.062,0.00522606,0.122508,0.0341479,0.131726,-0.003992,1.30714,0.0891776,0.0401383,1294,337,4.36651,35.062
77,687,4.57568,-33.203,0.00445407,0.129162,0.0309291,0.136412,-0.00279532,1.34057,0.091887,0.0472847,1301,337,4.57566,33.203
84,687,4.27783,-32.6951,0,0,0,0,0,0,0,-1,1308,337,4.27788,32.6951
91,687,4.50903,-31.8802,-0.00357731,0.137604,0.0203562,0.14048,-0.00645376,1.43042,0.0958771,0.0450997,1315,337,4.50907,31.8802
98,687,4.52979,-31.5917,-0.00740262,0.139297,0.0127905,0.140404,-0.00850945,1.48448,0.0965641,0.0461859,1322,337,4.52973,31.5917
105,687,4.48767,-31.3487,-0.0107917,0.139395,0.00502965,0.139563,-0.01096,1.53736,0.0969021,0.0435445,1329,337,4.48765,31.3487
112,687,4.24292,-31.3275,-0.0153156,0.137742,-0.00354908,0.137824,-0.0153979,-1.54763,0.0974217,0.0428746,1336,337,4.24298,31.3276
119,687,3.75427,-30.8442,-0.0188084,0.133091,-0.012922,0.134182,-0.0198998,-1.48653,0.0967726,0.0394714,1343,337,3.75432,30.8442
126,687,3.05078,-34.5199,-0.0201875,0.127868,-0.0229526,0.131344,-0.0236641,-1.42047,0.0964238,0.0475538,1350,337,3.05077,34.5199
133,687,2.46082,-33.9863,0,0,0,0,0,0,0,-1,1357,337,2.46086,33.9863
140,687,3.81531,-31.2996,0,0,0,0,0,0,0,-1,1364,337,3.81533,31.2996
147,687,3.34949,-32.0941,0,0,0,0,0,0,0,-1,1371,337,3.34948,32.0941
154,687,5.39526,-32.6595,0,0,0,0,0,0,0,-1,1378,337,5.39527,32.6595
161,687,29.3895,-1.90628,0,0,0,0,0,0,0,-1,1385,337,29.3895,1.90628
168,687,29.8564,-1.19434,0,0,0,0,0,0,0,-1,1392,337,29.8564,1.19434
175,687,30.3419,-0.453583,0,0,0,0,0,0,0,-1,1399,337,30.3419,0.45357
182,687,6.67249,0.289917,0,0,0,0,0,0,0,-1,1406,337,6.67247,-0.289916
189,687,7.76062,4.53635,0,0,0,0,0,0,0,-1,1413,337,7.76064,-4.53636
196,687,6.99048,3.2966,0,0,0,0,0,0,0,-1,1420,337,6.99046,-3.2966
203,687,6.36499,2.1445,0,0,0,0,0,0,0,-1,1427,337,6.36499,-2.14451
210,687,6.68066,0.674652,0,0,0,0,0,0,0,-1,1434,337,6.68062,-0.674655
217,687,5.99683,-0.630493,0,0,0,0,0,0,0,-1,1441,337,5.99684,0.630497
224,687,5.52917,0.524902,0,0,0,0,0,0,0,-1,1448,337,5.5292,-0.524915
231,687,5.85583,-1.73651,0,0,0,0,0,0,0,-1,1455,337,5.85577,1.73651
238,687,5.96582,-2.96774,0,0,0,0,0,0,0,-1,1462,337,5.96577,2.96773
245,687,1.28259,2.32211,0,0,0,0,0,0,0,-1,1469,337,1.28258,-2.32211
252,687,1.97278,3.88422,0,0,0,0,0,0,0,-1,1476,337,1.97281,-3.88421
259,687,0,0,0,0,0,0,0,0,0,-1,1483,337,0,0
266,687,0,0,0,0,0,0,0,0,0,-1,1490,337,0,0
273,687,0,0,0,0,0,0,0,0,0,-1,1497,337,0,0
280,687,0,0,0,0,0,0,0,0,0,-1,1504,337,0,0
287,687,0,0,0,0,0,0,0,0,0,-1,1511,337,0,0
294,687,0,0,0,0,0,0,0,0,0,-1,1518,337,0,0
301,687,0,0,0,0,0,0,0,0,0,-1,1525,337,0,0
308,687,0,0,0,0,0,0,0,0,0,-1,1532,337,0,0
315,687,0,0,0,0,0,0,0,0,0,-1,1539,337,0,0
322,687,0,0,0,0,0,0,0,0,0,-1,1546,337,0,0
329,687,0,0,0,0,0,0,0,0,0,-1,1553,337,0,0
336,687,0,0,0,0,0,0,0,0,0,-1,1560,337,0,0
343,687,0,0,0,0,0,0,0,0,0,-1,1567,337,0,0
350,687,0,0,0,0,0,0,0,0,0,-1,1574,337,0,0
357,687,0,0,0,0,0,0,0,0,0,-1,1581,337,0,0
364,687,0,0,0,0,0,0,0,0,0,-1,1588,337,0,0
371,687,0,0,0,0,0,0,0,0,0,-1,1595,337,0,0
378,687,0,0,0,0,0,0,0,0,0,-1,1602,337,0,0
385,687,0,0,0,0,0,0,0,0,0,-1,1609,337,0,0
392,687,0,0,0,0,0,0,0,0,0,-1,1616,337,0,0
399,687,0,0,0,0,0,0,0,0,0,-1,1623,337,0,0
406,687,0,0,0,0,0,0,0,0,0,-1,1630,337,0,0
413,687,0,0,0,0,0,0,0,0,0,-1,1637,337,0,0
420,687,0,0,0,0,0,0,0,0,0,-1,1644,337,0,0
427,687,0,0,0,0,0,0,0,0,0,-1,1651,337,0,0
434,687,0,0,0,0,0,0,0,0,0,-1,1658,337,0,0
441,687,0,0,0,0,0,0,0,0,0,-1,1665,337,0,0
448,687,0,0,0,0,0,0,0,0,0,-1,1672,337,0,0
455,687,0,0,0,0,0,0,0,0,0,-1,1679,337,0,0
462,687,0,0,0,0,0,0,0,0,0,-1,1686,337,0,0
469,687,0,0,0,0,0,0,0,0,0,-1,1693,337,0,0
476,687,0,0,0,0,0,0,0,0,0,-1,1700,337,0,0
483,687,0,0,0,0,0,0,0,0,0,-1,1707,337,0,0
490,687,0,0,0,0,0,0,0,0,0,-1,1714,337,0,0
497,687,0,0,0,0,0,0,0,0,0,-1,1721,337,0,0
504,687,0,0,0,0,0,0,0,0,0,-1,1728,337,0,0
511,687,0,0,0,0,0,0,0,0,0,-1,1735,337,0,0
518,687,0,0,0,0,0,0,0,0,0,-1,1742,337,0,0
525,687,0,0,0,0,0,0,0,0,0,-1,1749,337,0,0
532,687,0,0,0,0,0,0,0,0,0,-1,1756,337,0,0
539,687,0,0,0,0,0,0,0,0,0,-1,1763,337,0,0
546,687,0,0,0,0,0,0,0,0,0,-1,1770,337,0,0
553,687,0,0,0,0,0,0,0,0,0,-1,1777,337,0,0
560,687,0,0,0,0,0,0,0,0,0,-1,1784,337,0,0
567,687,0,0,0,0,0,0,0,0,0,-1,1791,337,0,0
574,687,0,0,0,0,0,0,0,0,0,-1,1798,337,0,0
581,687,0,0,0,0,0,0,0,0,0,-1,1805,337,0,0
588,687,0,0,0,0,0,0,0,0,0,-1,1812,337,0,0
595,687,0,0,0,0,0,0,0,0,0,-1,1819,337,0,0
602,687,0,0,0,0,0,0,0,0,0,-1,1826,337,0,0
609,687,0,0,0,0,0,0,0,0,0,-1,1833,337,0,0
616,687,0,0,0,0,0,0,0,0,0,-1,1840,337,0,0
623,687,0,0,0,0,0,0,0,0,0,-1,1847,337,0,0
630,687,0,0,0,0,0,0,0,0,0,-1,1854,337,0,0
637,687,0,0,0,0,0,0,0,0,0,-1,1861,337,0,0
644,687,0,0,0,0,0,0,0,0,0,-1,1868,337,0,0
651,687,0,0,0,0,0,0,0,0,0,-1,1875,337,0,0
658,687,0,0,0,0,0,0,0,0,0,-1,1882,337,0,0
665,687,0,0,0,0,0,0,0,0,0,-1,1889,337,0,0
672,687,0,0,0,0,0,0,0,0,0,-1,1896,337,0,0
679,687,0,0,0,0,0,0,0,0,0,-1,1903,337,0,0
686,687,0,0,0,0,0,0,0,0,0,-1,1910,337,0,0
693,687,0,0,0,0,0,0,0,0,0,-1,1917,337,0,0
700,687,0,0,0,0,0,0,0,0,0,-1,1924,337,0,0
707,687,0,0,0,0,0,0,0,0,0,-1,1931,337,0,0
714,687,0,0,0,0,0,0,0,0,0,-1,1938,337,0,0
721,687,0,0,0,0,0,0,0,0,0,-1,1945,337,0,0
728,687,0,0,0,0,0,0,0,0,0,-1,1952,337,0,0
735,687,0,0,0,0,0,0,0,0,0,-1,1959,337,0,0
742,687,0,0,0,0,0,0,0,0,0,-1,1966,337,0,0
749,687,0,0,0,0,0,0,0,0,0,-1,1973,337,0,0
756,687,0,0,0,0,0,0,0,0,0,-1,1980,337,0,0
763,687,0,0,0,0,0,0,0,0,0,-1,1987,337,0,0
770,687,0,0,0,0,0,0,0,0,0,-1,1994,337,0,0
777,687,0,0,0,0,0,0,0,0,0,-1,2001,337,0,0
784,687,0,0,0,0,0,0,0,0,0,-1,2008,337,0,0
791,687,0,0,0,0,0,0,0,0,0,-1,2015,337,0,0
798,687,0,0,0,0,0,0,0,0,0,-1,2022,337,0,0
805,687,0,0,0,0,0,0,0,0,0,-1,2029,337,0,0
812,687,0,0,0,0,0,0,0,0,0,-1,2036,337,0,0
-700,680,0,0,0,0,0,0,0,0,0,-1,524,344,0,0
-693,680,0,0,0,0,0,0,0,0,0,-1,531,344,0,0
-686,680,0,0,0,0,0,0,0,0,0,-1,538,344,0,0
-679,680,0,0,0,0,0,0,0,0,0,-1,545,344,0,0
-672,680,0,0,0,0,0,0,0,0,0,-1,552,344,0,0
-665,680,0,0,0,0,0,0,0,0,0,-1,559,344,0,0
-658,680,0,0,0,0,0,0,0,0,0,-1,566,344,0,0
-651,680,0,0,0,0,0,0,0,0,0,-1,573,344,0,0
-644,680,0,0,0,0,0,0,0,0,0,-1,580,344,0,0
-637,680,0,0,0,0,0,0,0,0,0,-1,587,344,0,0
-630,680,0,0,0,0,0,0,0,0,0,-1,594,344,0,0
-623,680,0,0,0,0,0,0,0,0,0,-1,601,344,0,0
-616,680,0,0,0,0,0,0,0,0,0,-1,608,344,0,0
-609,680,0,0,0,0,0,0,0,0,0,-1,615,344,0,0
-602,680,0,0,0,0,0,0,0,0,0,-1,622,344,0,0
-595,680,0,0,0,0,0,0,0,0,0,-1,629,344,0,0
-588,680,0,0,0,0,0,0,0,0,0,-1,636,344,0,0
-581,680,0,0,0,0,0,0,0,0,0,-1,643,344,0,0
-574,680,0,0,0,0,0,0,0,0,0,-1,650,344,0,0
-567,680,0,0,0,0,0,0,0,0,0,-1,657,344,0,0
-560,680,0,0,0,0,0,0,0,0,0,-1,664,344,0,0
-553,680,0,0,0,0,0,0,0,0,0,-1,671,344,0,0
-546,680,0,0,0,0,0,0,0,0,0,-1,678,344,0,0
-539,680,0,0,0,0,0,0,0,0,0,-1,685,344,0,0
-532,680,0,0,0,0,0,0,0,0,0,-1,692,344,0,0
-525,680,0,0,0,0,0,0,0,0,0,-1,699,344,0,0
-518,680,0,0,0,0,0,0,0,0,0,-1,706,344,0,0
-511,680,0,0,0,0,0,0,0,0,0,-1,713,344,0,0
-504,680,0,0,0,0,0,0,0,0,0,-1,720,344,0,0
-497,680,0,0,0,0,0,0,0,0,0,-1,727,344,0,0
-490,680,0,0,0,0,0,0,0,0,0,-1,734,344,0,0
-483,680,0,0,0,0,0,0,0,0,0,-1,741,344,0,0
-476,680,0,0,0,0,0,0,0,0,0,-1,748,344,0,0
-469,680,0,0,0,0,0,0,0,0,0,-1,755,344,0,0
-462,680,0,0,0,0,0,0,0,0,0,-1,762,344,0,0
-455,680,0,0,0,0,0,0,0,0,0,-1,769,344,0,0
-448,680,0,0,0,0,0,0,0,0,0,-1,776,344,0,0
-441,680,0,0,0,0,0,0,0,0,0,-1,783,344,0,0
-434,680,0,0,0,0,0,0,0,0,0,-1,790,344,0,0
-427,680,0,0,0,0,0,0,0,0,0,-1,797,344,0,0
-420,680,0,0,0,0,0,0,0,0,0,-1,804,344,0,0
-413,680,0,0,0,0,0,0,0,0,0,-1,811,344,0,0
-406,680,0,0,0,0,0,0,0,0,0,-1,818,344,0,0
-399,680,0,0,0,0,0,0,0,0,0,-1,825,344,0,0
-392,680,0,0,0,0,0,0,0,0,0,-1,832,344,0,0
-385,680,0,0,0,0,0,0,0,0,0,-1,839,344,0,0
-378,680,0,0,0,0,0,0,0,0,0,-1,846,344,0,0
-371,680,0,0,0,0,0,0,0,0,0,-1,853,344,0,0
-364,680,0,0,0,0,0,0,0,0,0,-1,860,344,0,0
-357,680,0,0,0,0,0,0,0,0,0,-1,867,344,0,0
-350,680,0,0,0,0,0,0,0,0,0,-1,874,344,0,0
-343,680,0,0,0,0,0,0,0,0,0,-1,881,344,0,0
-336,680,0,0,0,0,0,0,0,0,0,-1,888,344,0,0
-329,680,0,0,0,0,0,0,0,0,0,-1,895,344,0,0
-322,680,0,0,0,0,0,0,0,0,0,-1,902,344,0,0
-315,680,0,0,0,0,0,0,0,0,0,-1,909,344,0,0
-308,680,0,0,0,0,0,0,0,0,0,-1,916,344,0,0
-301,680,0,0,0,0,0,0,0,0,0,-1,923,344,0,0
-294,680,0,0,0,0,0,0,0,0,0,-1,930,344,0,0
-287,680,0,0,0,0,0,0,0,0,0,-1,937,344,0,0
-280,680,0,0,0,0,0,0,0,0,0,-1,944,344,0,0
-273,680,0,0,0,0,0,0,0,0,0,-1,951,344,0,0
-266,680,0,0,0,0,0,0,0,0,0,-1,958,344,0,0
-259,680,0,0,0,0,0,0,0,0,0,-1,965,344,0,0
-252,680,0,0,0,0,0,0,0,0,0,-1,972,344,0,0
-245,680,0,0,0,0,0,0,0,0,0,-1,979,344,0,0
-238,680,0,0,0,0,0,0,0,0,0,-1,986,344,0,0
-231,680,0,0,0,0,0,0,0,0,0,-1,993,344,0,0
-224,680,0,0,0,0,0,0,0,0,0,-1,1000,344,0,0
-217,680,0,0,0,0,0,0,0,0,0,-1,1007,344,0,0
-210,680,0,0,0,0,0,0,0,0,0,-1,1014,344,0,0
-203,680,0,0,0,0,0,0,0,0,0,-1,1021,344,0,0
-196,680,0,0,0,0,0,0,0,0,0,-1,1028,344,0,0
-189,680,0,0,0,0,0,0,0,0,0,-1,1035,344,0,0
-182,680,0,0,0,0,0,0,0,0,0,-1,1042,344,0,0
-175,680,0,0,0,0,0,0,0,0,0,-1,1049,344,0,0
-168,680,0,0,0,0,0,0,0,0,0,-1,1056,344,0,0
-161,680,0,0,0,0,0,0,0,0,0,-1,1063,344,0,0
-154,680,2.25244,-29.1442,0,0,0,0,0,0,0,-1,1070,344,2.25241,29.1442
-147,680,5.75867,-30.2404,0,0,0,0,0,0,0,-1,1077,344,5.75868,30.2404
-140,680,4.63684,-31.9802,0,0,0,0,0,0,0,-1,1084,344,4.63687,31.9802
-133,680,5.0437,-31.8094,0,0,0,0,0,0,0,-1,1091,344,5.04366,31.8094
-126,680,5.4635,-31.3669,0,0,0,0,0,0,0,-1,1098,344,5.46346,31.3669
-119,680,5.91211,-30.6628,0,0,0,0,0,0,0,-1,1105,344,5.91217,30.6628
-112,680,6.33032,-29.9273,0,0,0,0,0,0,0,-1,1112,344,6.33028,29.9273
-105,680,8.12,-27.7806,0,0,0,0,0,0,0,-1,1119,344,8.12,27.7806
-98,680,14.1224,-39.1392,0,0,0,0,0,0,0,-1,1126,344,14.1225,39.1392
-91,680,8.3208,-33.7806,0,0,0,0,0,0,0,-1,1133,344,8.32075,33.7806
-84,680,2.26807,-29.7271,0,0,0,0,0,0,0,-1,1140,344,2.26804,29.7271
-77,680,-3.90979,-22.8858,0,0,0,0,0,0,0,-1,1147,344,-3.90976,22.8858
-70,680,-10.1283,-16.7068,0,0,0,0,0,0,0,-1,1154,344,-10.1283,16.7069
-63,680,-16.4406,-10.4266,0,0,0,0,0,0,0,-1,1161,344,-16.4405,10.4266
-56,680,-6.96912,-8.83356,0,0,0,0,0,0,0,-1,1168,344,-6.96907,8.83354
-49,680,-6.7677,-2.24063,0,0,0,0,0,0,0,-1,1175,344,-6.76772,2.24063
-42,680,-1.02368,0.618805,0,0,0,0,0,0,0,-1,1182,344,-1.0237,-0.618797
-35,680,-0.947876,-0.942719,0,0,0,0,0,0,0,-1,1189,344,-0.947842,0.942731
-28,680,-1.46118,-1.10574,0,0,0,0,0,0,0,-1,1196,344,-1.4612,1.10575
-21,680,6.3761,-34.9169,0,0,0,0,0,0,0,-1,1203,344,6.37606,34.9169
-14,680,5.88525,-35.1446,0,0,0,0,0,0,0,-1,1210,344,5.88527,35.1446
-7,680,5.20325,-34.7643,0,0,0,0,0,0,0,-1,1217,344,5.20324,34.7644
0,680,5.03784,-34.6478,0,0,0,0,0,0,0,-1,1224,344,5.03787,34.6478
7,680,5.90564,-34.1998,0,0,0,0,0,0,0,-1,1231,344,5.90566,34.1998
14,680,5.78833,-34.4179,-0.0129496,0.0455582,0.0284657,0.057122,-0.0245134,1.18493,0.0483694,0.0426015,1238,344,5.78836,34.4179
21,680,5.63379,-34.6152,-0.0116103,0.05244,0.0278268,0.0628406,-0.0220109,1.21311,0.0508444,0.0447052,1245,344,5.63379,34.6152
28,680,5.00476,-34.8993,-0.00970584,0.0582522,0.0271413,0.0677614,-0.019215,1.2338,0.0527588,0.0447874,1252,344,5.00481,34.8993
35,680,5.18286,-34.9737,-0.00695512,0.0643052,0.0265846,0.0731301,-0.01578,1.25029,0.0547764,0.0442355,1259,344,5.18289,34.9737
42,680,5.2605,-35.0079,-0.00360854,0.0717437,0.0272036,0.0805383,-0.0124031,1.25811,0.0582683,0.0451116,1266,344,5.2605,35.0079
49,680,4.57324,-34.9512,-0.00125841,0.0813335,0.0276452,0.0897327,-0.00965767,1.27584,0.0632872,0.0444999,1273,344,4.57321,34.9512
56,680,4.55847,-34.941,0.00122854,0.086502,0.0278404,0.0947866,-0.00705603,1.28157,0.0656696,0.0416111,1280,344,4.55849,34.941
63,680,4.50305,-34.7885,0.00251627,0.0952966,0.0282544,0.103224,-0.00541076,1.29727,0.0706884,0.0398211,1287,344,4.50311,34.7886
70,680,4.48499,-34.7179,0.00290005,0.102074,0.0273148,0.1091,-0.00412535,1.31905,0.0741466,0.0374804,1294,344,4.48495,34.7179
77,680,4.55042,-34.1649,0.00226581,0.107366,0.0248721,0.112955,-0.00332299,1.34977,0.0764352,0.0397601,1301,344,4.55044,34.1649
84,680,4.2605,-33.6901,-0.000362332,0.111329,0.0217265,0.115406,-0.0044398,1.38528,0.0784593,0.0439379,1308,344,4.26055,33.6901
91,680,4.03198,-33.2895,-0.00376173,0.113852,0.0171479,0.116301,-0.00621087,1.42893,0.0796851,0.0478867,1315,344,4.03196,33.2895
98,680,3.61938,-33.4996,-0.00631478,0.115,0.0115933,0.116098,-0.00741274,1.47637,0.0799841,0.0456746,1322,344,3.61943,33.4996
105,680,3.13062,-33.3309,0,0,0,0,0,0,0,-1,1329,344,3.13059,33.3309
112,680,3.90186,-32.9417,0,0,0,0,0,0,0,-1,1336,344,3.90182,32.9417
119,680,3.74524,-34.5272,0,0,0,0,0,0,0,-1,1343,344,3.74521,34.5271
126,680,3.34326,-34.5972,-0.0148266,0.103655,-0.0142119,0.105336,-0.0165075,-1.45307,0.076324,0.04526,1350,344,3.34329,34.5972
133,680,2.88464,-34.3229,-0.0130558,0.0991745,-0.0189867,0.1023,-0.0161809,-1.40767,0.0741839,0.0461857,1357,344,2.88458,34.3229
140,680,3.0885,-34.1853,0,0,0,0,0,0,0,-1,1364,344,3.08847,34.1853
147,680,3.67029,-32.8719,-0.00486763,0.0883883,-0.0222301,0.0934164,-0.00989569,-1.34836,0.0658246,0.0490446,1371,344,3.67027,32.8719
154,680,4.52966,-33.104,0.00192043,0.0830353,-0.0207632,0.0880412,-0.00308545,-1.33422,0.0597492,0.0470521,1378,344,4.52971,33.104
161,680,4.41431,-32.7739,0,0,0,0,0,0,0,-1,1385,344,4.41429,32.7739
168,680,29.4142,-2.51651,0,0,0,0,0,0,0,-1,1392,344,29.4142,2.51652
175,680,6.66541,0.942078,0,0,0,0,0,0,0,-1,1399,344,6.66538,-0.942088
182,680,6.52917,0.532379,0,0,0,0,0,0,0,-1,1406,344,6.52922,-0.532385
189,680,7.55884,4.77695,0,0,0,0,0,0,0,-1,1413,344,7.55886,-4.77694
196,680,6.55627,3.35254,0,0,0,0,0,0,0,-1,1420,344,6.55622,-3.35255
203,680,5.7334,1.90753,0,0,0,0,0,0,0,-1,1427,344,5.73341,-1.90754
210,680,5.27515,0.493622,0,0,0,0,0,0,0,-1,1434,344,5.27514,-0.493632
217,680,6.56384,-0.374176,0,0,0,0,0,0,0,-1,1441,344,6.56379,0.374176
224,680,3.9491,-0.640228,0,0,0,0,0,0,0,-1,1448,344,3.94908,0.64024
231,680,4.24866,-1.96881,0,0,0,0,0,0,0,-1,1455,344,4.2486,1.96882
238,680,4.29333,-3.23984,0,0,0,0,0,0,0,-1,1462,344,4.29332,3.23984
245,680,2.44397,0.985382,0,0,0,0,0,0,0,-1,1469,344,2.44402,-0.985394
252,680,3.07349,2.18951,0,0,0,0,0,0,0,-1,1476,344,3.0735,-2.18952
259,680,2.82971,1.30682,0,0,0,0,0,0,0,-1,1483,344,2.82972,-1.30684
266,680,2.67554,1.44067,0,0,0,0,0,0,0,-1,1490,344,2.67551,-1.44066
273,680,2.46411,1.54666,0,0,0,0,0,0,0,-1,1497,344,2.46407,-1.54666
280,680,0,0,0,0,0,0,0,0,0,-1,1504,344,0,0
287,680,0,0,0,0,0,0,0,0,0,-1,1511,344,0,0
294,680,0,0,0,0,0,0,0,0,0,-1,1518,344,0,0
301,680,0,0,0,0,0,0,0,0,0,-1,1525,344,0,0
308,680,0,0,0,0,0,0,0,0,0,-1,1532,344,0,0
315,680,0,0,0,0,0,0,0,0,0,-1,1539,344,0,0
322,680,0,0,0,0,0,0,0,0,0,-1,1546,344,0,0
329,680,0,0,0,0,0,0,0,0,0,-1,1553,344,0,0
336,680,0,0,0,0,0,0,0,0,0,-1,1560,344,0,0
343,680,0,0,0,0,0,0,0,0,0,-1,1567,344,0,0
350,680,0,0,0,0,0,0,0,0,0,-1,1574,344,0,0
357,680,0,0,0,0,0,0,0,0,0,-1,1581,344,0,0
364,680,0,0,0,0,0,0,0,0,0,-1,1588,344,0,0
371,680,0,0,0,0,0,0,0,0,0,-1,1595,344,0,0
378,680,0,0,0,0,0,0,0,0,0,-1,1602,344,0,0
385,680,0,0,0,0,0,0,0,0,0,-1,1609,344,0,0
392,680,0,0,0,0,0,0,0,0,0,-1,1616,344,0,0
399,680,0,0,0,0,0,0,0,0,0,-1,1623,344,0,0
406,680,0,0,0,0,0,0,0,0,0,-1,1630,344,0,0
413,680,0,0,0,0,0,0,0,0,0,-1,1637,344,0,0
420,680,0,0,0,0,0,0,0,0,0,-1,1644,344,0,0
427,680,0,0,0,0,0,0,0,0,0,-1,1651,344,0,0
434,680,0,0,0,0,0,0,0,0,0,-1,1658,344,0,0
441,680,0,0,0,0,0,0,0,0,0,-1,1665,344,0,0
448,680,0,0,0,0,0,0,0,0,0,-1,1672,344,0,0
455,680,0,0,0,0,0,0,0,0,0,-1,1679,344,0,0
462,680,0,0,0,0,0,0,0,0,0,-1,1686,344,0,0
469,680,0,0,0,0,0,0,0,0,0,-1,1693,344,0,0
476,680,0,0,0,0,0,0,0,0,0,-1,1700,344,0,0
483,680,0,0,0,0,0,0,0,0,0,-1,1707,344,0,0
490,680,0,0,0,0,0,0,0,0,0,-1,1714,344,0,0
497,680,0,0,0,0,0,0,0,0,0,-1,1721,344,0,0
504,680,0,0,0,0,0,0,0,0,0,-1,1728,344,0,0
511,680,0,0,0,0,0,0,0,0,0,-1,1735,344,0,0
518,680,0,0,0,0,0,0,0,0,0,-1,1742,344,0,0
525,680,0,0,0,0,0,0,0,0,0,-1,1749,344,0,0
532,680,0,0,0,0,0,0,0,0,0,-1,1756,344,0,0
539,680,0,0,0,0,0,0,0,0,0,-1,1763,344,0,0
546,680,0,0,0,0,0,0,0,0,0,-1,1770,344,0,0
553,680,0,0,0,0,0,0,0,0,0,-1,1777,344,0,0
560,680,0,0,0,0,0,0,0,0,0,-1,1784,344,0,0
567,680,0,0,0,0,0,0,0,0,0,-1,1791,344,0,0
574,680,0,0,0,0,0,0,0,0,0,-1,1798,344,0,0
581,680,0,0,0,0,0,0,0,0,0,-1,1805,344,0,0
588,680,0,0,0,0,0,0,0,0,0,-1,1812,344,0,0
595,680,0,0,0,0,0,0,0,0,0,-1,1819,344,0,0
602,680,0,0,0,0,0,0,0,0,0,-1,1826,344,0,0
609,680,0,0,0,0,0,0,0,0,0,-1,1833,344,0,0
616,680,0,0,0,0,0,0,0,0,0,-1,1840,344,0,0
623,680,0,0,0,0,0,0,0,0,0,-1,1847,344,0,0
630,680,0,0,0,0,0,0,0,0,0,-1,1854,344,0,0
637,680,0,0,0,0,0,0,0,0,0,-1,1861,344,0,0
644,680,0,0,0,0,0,0,0,0,0,-1,1868,344,0,0
651,680,0,0,0,0,0,0,0,0,0,-1,1875,344,0,0
658,680,0,0,0,0,0,0,0,0,0,-1,1882,344,0,0
665,680,0,0,0,0,0,0,0,0,0,-1,1889,344,0,0
672,680,0,0,0,0,0,0,0,0,0,-1,1896,344,0,0
679,680,0,0,0,0,0,0,0,0,0,-1,1903,344,0,0
686,680,0,0,0,0,0,0,0,0,0,-1,1910,344,0,0
693,680,0,0,0,0,0,0,0,0,0,-1,1917,344,0,0
700,680,0,0,0,0,0,0,0,0,0,-1,1924,344,0,0
707,680,0,0,0,0,0,0,0,0,0,-1,1931,344,0,0
714,680,0,0,0,0,0,0,0,0,0,-1,1938,344,0,0
721,680,0,0,0,0,0,0,0,0,0,-1,1945,344,0,0
728,680,0,0,0,0,0,0,0,0,0,-1,1952,344,0,0
735,680,0,0,0,0,0,0,0,0,0,-1,1959,344,0,0
742,680,0,0,0,0,0,0,0,0,0,-1,1966,344,0,0
749,680,0,0,0,0,0,0,0,0,0,-1,1973,344,0,0
756,680,0,0,0,0,0,0,0,0,0,-1,1980,344,0,0
763,680,0,0,0,0,0,0,0,0,0,-1,1987,344,0,0
770,680,0,0,0,0,0,0,0,0,0,-1,1994,344,0,0
777,680,0,0,0,0,0,0,0,0,0,-1,2001,344,0,0
784,680,0,0,0,0,0,0,0,0,0,-1,2008,344,0,0
791,680,0,0,0,0,0,0,0,0,0,-1,2015,344,0,0
798,680,0,0,0,0,0,0,0,0,0,-1,2022,344,0,0
805,680,0,0,0,0,0,0,0,0,0,-1,2029,344,0,0
812,680,0,0,0,0,0,0,0,0,0,-1,2036,344,0,0
-700,673,0,0,0,0,0,0,0,0,0,-1,524,351,0,0
-693,673,0,0,0,0,0,0,0,0,0,-1,531,351,0,0
-686,673,0,0,0,0,0,0,0,0,0,-1,538,351,0,0
-679,673,0,0,0,0,0,0,0,0,0,-1,545,351,0,0
-672,673,0,0,0,0,0,0,0,0,0,-1,552,351,0,0
-665,673,0,0,0,0,0,0,0,0,0,-1,559,351,0,0
-658,673,0,0,0,0,0,0,0,0,0,-1,566,351,0,0
-651,673,0,0,0,0,0,0,0,0,0,-1,573,351,0,0
-644,673,0,0,0,0,0,0,0,0,0,-1,580,351,0,0
-637,673,0,0,0,0,0,0,0,0,0,-1,587,351,0,0
-630,673,0,0,0,0,0,0,0,0,0,-1,594,351,0,0
-623,673,0,0,0,0,0,0,0,0,0,-1,601,351,0,0
-616,673,0,0,0,0,0,0,0,0,0,-1,608,351,0,0
-609,673,0,0,0,0,0,0,0,0,0,-1,615,351,0,0
-602,673,0,0,0,0,0,0,0,0,0,-1,622,351,0,0
-595,673,0,0,0,0,0,0,0,0,0,-1,629,351,0,0
-588,673,0,0,0,0,0,0,0,0,0,-1,636,351,0,0
-581,673,0,0,0,0,0,0,0,0,0,-1,643,351,0,0
-574,673,0,0,0,0,0,0,0,0,0,-1,650,351,0,0
-567,673,0,0,0,0,0,0,0,0,0,-1,657,351,0,0
-560,673,0,0,0,0,0,0,0,0,0,-1,664,351,0,0
-553,673,0,0,0,0,0,0,0,0,0,-1,671,351,0,0
-546,673,0,0,0,0,0,0,0,0,0,-1,678,351,0,0
-539,673,0,0,0,0,0,0,0,0,0,-1,685,351,0,0
-532,673,0,0,0,0,0,0,0,0,0,-1,692,351,0,0
-525,673,0,0,0,0,0,0,0,0,0,-1,699,351,0,0
-518,673,0,0,0,0,0,0,0,0,0,-1,706,351,0,0
-511,673,0,0,0,0,0,0,0,0,0,-1,713,351,0,0
-504,673,0,0,0,0,0,0,0,0,0,-1,720,351,0,0
-497,673,0,0,0,0,0,0,0,0,0,-1,727,351,0,0
-490,673,0,0,0,0,0,0,0,0,0,-1,734,351,0,0
-483,673,0,0,0,0,0,0,0,0,0,-1,741,351,0,0
-476,673,0,0,0,0,0,0,0,0,0,-1,748,351,0,0
-469,673,0,0,0,0,0,0,0,0,0,-1,755,351,0,0
-462,673,0,0,0,0,0,0,0,0,0,-1,762,351,0,0
-455,673,0,0,0,0,0,0,0,0,0,-1,769,351,0,0
-448,673,0,0,0,0,0,0,0,0,0,-1,776,351,0,0
-441,673,0,0,0,0,0,0,0,0,0,-1,783,351,0,0
-434,673,0,0,0,0,0,0,0,0,0,-1,790,351,0,0
-427,673,0,0,0,0,0,0,0,0,0,-1,797,351,0,0
-420,673,0,0,0,0,0,0,0,0,0,-1,804,351,0,0
-413,673,0,0,0,0,0,0,0,0,0,-1,811,351,0,0
-406,673,0,0,0,0,0,0,0,0,0,-1,818,351,0,0
-399,673,0,0,0,0,0,0,0,0,0,-1,825,351,0,0
-392,673,0,0,0,0,0,0,0,0,0,-1,832,351,0,0
-385,673,0,0,0,0,0,0,0,0,0,-1,839,351,0,0
-378,673,0,0,0,0,0,0,0,0,0,-1,846,351,0,0
-371,673,0,0,0,0,0,0,0,0,0,-1,853,351,0,0
-364,673,0,0,0,0,0,0,0,0,0,-1,860,351,0,0
-357,673,0,0,0,0,0,0,0,0,0,-1,867,351,0,0
-350,673,0,0,0,0,0,0,0,0,0,-1,874,351,0,0
-343,673,0,0,0,0,0,0,0,0,0,-1,881,351,0,0
-336,673,0,0,0,0,0,0,0,0,0,-1,888,351,0,0
-329,673,0,0,0,0,0,0,0,0,0,-1,895,351,0,0
-322,673,0,0,0,0,0,0,0,0,0,-1,902,351,0,0
-315,673,0,0,0,0,0,0,0,0,0,-1,909,351,0,0
-308,673,0,0,0,0,0,0,0,0,0,-1,916,351,0,0
-301,673,0,0,0,0,0,0,0,0,0,-1,923,351,0,0
-294,673,0,0,0,0,0,0,0,0,0,-1,930,351,0,0
-287,673,0,0,0,0,0,0,0,0,0,-1,937,351,0,0
-280,673,0,0,0,0,0,0,0,0,0,-1,944,351,0,0
-273,673,0,0,0,0,0,0,0,0,0,-1,951,351,0,0
-266,673,0,0,0,0,0,0,0,0,0,-1,958,351,0,0
-259,673,0,0,0,0,0,0,0,0,0,-1,965,351,0,0
-252,673,0,0,0,0,0,0,0,0,0,-1,972,351,0,0
-245,673,0,0,0,0,0,0,0,0,0,-1,979,351,0,0
-238,673,0,0,0,0,0,0,0,0,0,-1,986,351,0,0
-231,673,0,0,0,0,0,0,0,0,0,-1,993,351,0,0
-224,673,0,0,0,0,0,0,0,0,0,-1,1000,351,0,0
-217,673,0,0,0,0,0,0,0,0,0,-1,1007,351,0,0
-210,673,0,0,0,0,0,0,0,0,0,-1,1014,351,0,0
-203,673,0,0,0,0,0,0,0,0,0,-1,1021,351,0,0
-196,673,0,0,0,0,0,0,0,0,0,-1,1028,351,0,0
-189,673,0,0,0,0,0,0,0,0,0,-1,1035,351,0,0
-182,673,0,0,0,0,0,0,0,0,0,-1,1042,351,0,0
-175,673,5.2832,-32.3343,0,0,0,0,0,0,0,-1,1049,351,5.28321,32.3343
-168,673,4.46045,-30.7689,0,0,0,0,0,0,0,-1,1056,351,4.46044,30.7689
-161,673,4.37891,-32.2039,0,0,0,0,0,0,0,-1,1063,351,4.37897,32.2039
-154,673,6.15723,-35.5591,0,0,0,0,0,0,0,-1,1070,351,6.15727,35.559
-147,673,5.61096,-30.1121,0,0,0,0,0,0,0,-1,1077,351,5.61101,30.1121
-140,673,4.7522,-31.6575,0,0,0,0,0,0,0,-1,1084,351,4.75223,31.6575
-133,673,5.18884,-31.4102,0,0,0,0,0,0,0,-1,1091,351,5.18883,31.4102
-126,673,5.68237,-30.9974,0,0,0,0,0,0,0,-1,1098,351,5.68242,30.9974
-119,673,6.15649,-30.4594,0,0,0,0,0,0,0,-1,1105,351,6.15652,30.4593
-112,673,6.6344,-29.6632,0,0,0,0,0,0,0,-1,1112,351,6.63446,29.6632
-105,673,6.17139,-28.5951,0,0,0,0,0,0,0,-1,1119,351,6.17133,28.5951
-98,673,14.6038,-34.1646,0,0,0,0,0,0,0,-1,1126,351,14.6038,34.1646
-91,673,8.87854,-29.3053,0,0,0,0,0,0,0,-1,1133,351,8.87848,29.3053
-84,673,2.95984,-25.4112,0,0,0,0,0,0,0,-1,1140,351,2.95983,25.4112
-77,673,-3.17065,-18.5375,0,0,0,0,0,0,0,-1,1147,351,-3.1706,18.5375
-70,673,-9.33289,-12.0613,0,0,0,0,0,0,0,-1,1154,351,-9.33284,12.0613
-63,673,-15.652,-5.80804,0,0,0,0,0,0,0,-1,1161,351,-15.652,5.80804
-56,673,-18.0282,2.79053,0,0,0,0,0,0,0,-1,1168,351,-18.0283,-2.79052
-49,673,-0.926758,-0.115448,0,0,0,0,0,0,0,-1,1175,351,-0.926732,0.115444
-42,673,-1.15015,0.289917,0,0,0,0,0,0,0,-1,1182,351,-1.15017,-0.289932
-35,673,-0.919556,-1.00711,0,0,0,0,0,0,0,-1,1189,351,-0.919514,1.00711
-28,673,3.19104,-25.0986,0,0,0,0,0,0,0,-1,1196,351,3.19099,25.0986
-21,673,5.29053,-34.4577,0,0,0,0,0,0,0,-1,1203,351,5.29058,34.4577
-14,673,5.35437,-34.7404,-0.00959579,0.0177082,0.0239293,0.031606,-0.0234936,1.04463,0.0319264,0.0440423,1210,351,5.35437,34.7404
-7,673,5.08911,-34.8829,-0.0109497,0.0220581,0.0234424,0.0342235,-0.0231151,1.09211,0.0333109,0.0425168,1217,351,5.08915,34.8829
0,673,4.97888,-34.8858,-0.0122682,0.0261481,0.0227705,0.03673,-0.0228501,1.13577,0.0347083,0.0470755,1224,351,4.9789,34.8858
7,673,4.92236,-34.9029,0,0,0,0,0,0,0,-1,1231,351,4.92238,34.9029
14,673,5.09705,-34.7646,-0.0118414,0.0355178,0.0201451,0.0429276,-0.0192512,1.21834,0.0367562,0.043295,1238,351,5.09709,34.7646
21,673,4.91675,-35.1452,-0.0105282,0.0412276,0.0200058,0.048059,-0.0173596,1.24174,0.0391312,0.0294908,1245,351,4.9167,35.1452
28,673,4.86438,-35.2039,-0.00882765,0.0461015,0.0197845,0.0524855,-0.0152117,1.25866,0.0410123,0.0200646,1252,351,4.86442,35.2039
35,673,4.8103,-35.2082,-0.00657982,0.051181,0.0195626,0.0571829,-0.0125817,1.27311,0.0429348,0.0308183,1259,351,4.81031,35.2082
42,673,4.6626,-35.2375,-0.00391132,0.057382,0.0202322,0.0634581,-0.00998739,1.27905,0.0459974,0.0321261,1266,351,4.66263,35.2376
49,673,4.58606,-35.3015,-0.00200361,0.0652052,0.0208218,0.071133,-0.00793149,1.29344,0.0502748,0.019478,1273,351,4.58607,35.3015
56,673,4.5498,-35.2904,-0.000128183,0.06988,0.0211669,0.0757822,-0.0060304,1.29886,0.0526468,0.0157385,1280,351,4.54983,35.2904
63,673,4.59375,-35.1092,0.000834456,0.0768587,0.021689,0.0826111,-0.00491795,1.31154,0.0567844,0.0197713,1287,351,4.59378,35.1092
70,673,4.55371,-35.0122,0.00116967,0.0824439,0.0211981,0.0876406,-0.00402699,1.33039,0.0598146,0.0328522,1294,351,4.55375,35.0122
77,673,4.54456,-34.8289,0.000663174,0.0865346,0.0194047,0.090716,-0.00351816,1.35856,0.0616835,0.0400233,1301,351,4.5445,34.8289
84,673,4.49072,-34.7749,-0.00130698,0.0895597,0.0171665,0.0926946,-0.00444191,1.39017,0.063329,0.0445327,1308,351,4.49076,34.7749
91,673,4.42871,-35.3271,0,0,0,0,0,0,0,-1,1315,351,4.42877,35.3271
98,673,3.4325,-35.0628,0,0,0,0,0,0,0,-1,1322,351,3.43254,35.0628
105,673,4.00134,-34.7768,0,0,0,0,0,0,0,-1,1329,351,4.00135,34.7768
112,673,4.07874,-34.6663,0,0,0,0,0,0,0,-1,1336,351,4.07877,34.6663
119,673,3.97778,-34.726,0,0,0,0,0,0,0,-1,1343,351,3.97777,34.726
126,673,3.76208,-34.5905,-0.0109083,0.0815237,-0.00844976,0.0822898,-0.0116744,-1.48038,0.0591367,0.042649,1350,351,3.76213,34.5906
133,673,3.4574,-34.4306,-0.00950377,0.0774964,-0.0118857,0.079091,-0.0110983,-1.43743,0.0567894,0.0423908,1357,351,3.45739,34.4306
140,673,3.47778,-34.4074,-0.00700777,0.0728974,-0.0133267,0.0750614,-0.00917181,-1.40982,0.0533616,0.0440966,1364,351,3.47776,34.4074
147,673,3.78857,-33.8249,-0.00355813,0.067921,-0.0140222,0.0705734,-0.00621046,-1.38385,0.0492498,0.0413175,1371,351,3.78861,33.8249
154,673,3.80383,-33.6481,0.00112745,0.062824,-0.0130517,0.0654715,-0.00151999,-1.37067,0.044163,0.0397028,1378,351,3.80381,33.6481
161,673,3.78162,-33.3309,0,0,0,0,0,0,0,-1,1385,351,3.78165,33.3309
168,673,6.87061,1.83954,0,0,0,0,0,0,0,-1,1392,351,6.87063,-1.83953
175,673,6.6228,1.1459,0,0,0,0,0,0,0,-1,1399,351,6.62276,-1.14591
182,673,6.37244,0.796112,0,0,0,0,0,0,0,-1,1406,351,6.3724,-0.796102
189,673,6.12097,0.265472,0,0,0,0,0,0,0,-1,1413,351,6.121,-0.265482
196,673,6.02173,3.12717,0,0,0,0,0,0,0,-1,1420,351,6.02176,-3.12717
203,673,5.04456,1.6351,0,0,0,0,0,0,0,-1,1427,351,5.04455,-1.63509
210,673,4.79224,0.447479,0,0,0,0,0,0,0,-1,1434,351,4.79229,-0.447469
217,673,2.01648,0.972687,0,0,0,0,0,0,0,-1,1441,351,2.01644,-0.972691
224,673,2.3689,-1.80539,0,0,0,0,0,0,0,-1,1448,351,2.36896,1.80539
231,673,2.65857,-2.18497,0,0,0,0,0,0,0,-1,1455,351,2.65852,2.18496
238,673,3.77844,-2.06088,0,0,0,0,0,0,0,-1,1462,351,3.77839,2.06088
245,673,3.5376,-0.190399,0,0,0,0,0,0,0,-1,1469,351,3.53759,0.1904
252,673,3.80518,0.55603,0,0,0,0,0,0,0,-1,1476,351,3.80519,-0.556022
259,673,3.88562,1.29617,0,0,0,0,0,0,0,-1,1483,351,3.88562,-1.29618
266,673,4.22424,2.04834,0,0,0,0,0,0,0,-1,1490,351,4.22429,-2.04834
273,673,6.07886,0.385895,0,0,0,0,0,0,0,-1,1497,351,6.0789,-0.385906
280,673,6.97534,-0.0820007,0,0,0,0,0,0,0,-1,1504,351,6.97536,0.0820122
287,673,7.66968,-0.348541,0,0,0,0,0,0,0,-1,1511,351,7.66969,0.348534
294,673,8.20996,0.28537,0,0,0,0,0,0,0,-1,1518,351,8.20993,-0.28536
301,673,0,0,0,0,0,0,0,0,0,-1,1525,351,0,0
308,673,0,0,0,0,0,0,0,0,0,-1,1532,351,0,0
315,673,0,0,0,0,0,0,0,0,0,-1,1539,351,0,0
322,673,0,0,0,0,0,0,0,0,0,-1,1546,351,0,0
329,673,0,0,0,0,0,0,0,0,0,-1,1553,351,0,0
336,673,0,0,0,0,0,0,0,0,0,-1,1560,351,0,0
343,673,0,0,0,0,0,0,0,0,0,-1,1567,351,0,0
350,673,0,0,0,0,0,0,0,0,0,-1,1574,351,0,0
357,673,0,0,0,0,0,0,0,0,0,-1,1581,351,0,0
364,673,0,0,0,0,0,0,0,0,0,-1,1588,351,0,0
371,673,0,0,0,0,0,0,0,0,0,-1,1595,351,0,0
378,673,0,0,0,0,0,0,0,0,0,-1,1602,351,0,0
385,673,0,0,0,0,0,0,0,0,0,-1,1609,351,0,0
392,673,0,0,0,0,0,0,0,0,0,-1,1616,351,0,0
399,673,0,0,0,0,0,0,0,0,0,-1,1623,351,0,0
406,673,0,0,0,0,0,0,0,0,0,-1,1630,351,0,0
413,673,0,0,0,0,0,0,0,0,0,-1,1637,351,0,0
420,673,0,0,0,0,0,0,0,0,0,-1,1644,351,0,0
427,673,0,0,0,0,0,0,0,0,0,-1,1651,351,0,0
434,673,0,0,0,0,0,0,0,0,0,-1,1658,351,0,0
441,673,0,0,0,0,0,0,0,0,0,-1,1665,351,0,0
448,673,0,0,0,0,0,0,0,0,0,-1,1672,351,0,0
455,673,0,0,0,0,0,0,0,0,0,-1,1679,351,0,0
462,673,0,0,0,0,0,0,0,0,0,-1,1686,351,0,0
469,673,0,0,0,0,0,0,0,0,0,-1,1693,351,0,0
476,673,0,0,0,0,0,0,0,0,0,-1,1700,351,0,0
483,673,0,0,0,0,0,0,0,0,0,-1,1707,351,0,0
490,673,0,0,0,0,0,0,0,0,0,-1,1714,351,0,0
497,673,0,0,0,0,0,0,0,0,0,-1,1721,351,0,0
504,673,0,0,0,0,0,0,0,0,0,-1,1728,351,0,0
511,673,0,0,0,0,0,0,0,0,0,-1,1735,351,0,0
518,673,0,0,0,0,0,0,0,0,0,-1,1742,351,0,0
525,673,0,0,0,0,0,0,0,0,0,-1,1749,351,0,0
532,673,0,0,0,0,0,0,0,0,0,-1,1756,351,0,0
539,673,0,0,0,0,0,0,0,0,0,-1,1763,351,0,0
546,673,0,0,0,0,0,0,0,0,0,-1,1770,351,0,0
553,673,0,0,0,0,0,0,0,0,0,-1,1777,351,0,0
560,673,0,0,0,0,0,0,0,0,0,-1,1784,351,0,0
567,673,0,0,0,0,0,0,0,0,0,-1,1791,351,0,0
574,673,0,0,0,0,0,0,0,0,0,-1,1798,351,0,0
581,673,0,0,0,0,0,0,0,0,0,-1,1805,351,0,0
588,673,0,0,0,0,0,0,0,0,0,-1,1812,351,0,0
595,673,0,0,0,0,0,0,0,0,0,-1,1819,351,0,0
602,673,0,0,0,0,0,0,0,0,0,-1,1826,351,0,0
609,673,0,0,0,0,0,0,0,0,0,-1,1833,351,0,0
616,673,0,0,0,0,0,0,0,0,0,-1,1840,351,0,0
623,673,0,0,0,0,0,0,0,0,0,-1,1847,351,0,0
630,673,0,0,0,0,0,0,0,0,0,-1,1854,351,0,0
637,673,0,0,0,0,0,0,0,0,0,-1,1861,351,0,0
644,673,0,0,0,0,0,0,0,0,0,-1,1868,351,0,0
651,673,0,0,0,0,0,0,0,0,0,-1,1875,351,0,0
658,673,0,0,0,0,0,0,0,0,0,-1,1882,351,0,0
665,673,0,0,0,0,0,0,0,0,0,-1,1889,351,0,0
672,673,0,0,0,0,0,0,0,0,0,-1,1896,351,0,0
679,673,0,0,0,0,0,0,0,0,0,-1,1903,351,0,0
686,673,0,0,0,0,0,0,0,0,0,-1,1910,351,0,0
693,673,0,0,0,0,0,0,0,0,0,-1,1917,351,0,0
700,673,0,0,0,0,0,0,0,0,0,-1,1924,351,0,0
707,673,0,0,0,0,0,0,0,0,0,-1,1931,351,0,0
714,673,0,0,0,0,0,0,0,0,0,-1,1938,351,0,0
721,673,0,0,0,0,0,0,0,0,0,-1,1945,351,0,0
728,673,0,0,0,0,0,0,0,0,0,-1,1952,351,0,0
735,673,0,0,0,0,0,0,0,0,0,-1,1959,351,0,0
742,673,0,0,0,0,0,0,0,0,0,-1,1966,351,0,0
749,673,0,0,0,0,0,0,0,0,0,-1,1973,351,0,0
756,673,0,0,0,0,0,0,0,0,0,-1,1980,351,0,0
763,673,0,0,0,0,0,0,0,0,0,-1,1987,351,0,0
770,673,0,0,0,0,0,0,0,0,0,-1,1994,351,0,0
777,673,0,0,0,0,0,0,0,0,0,-1,2001,351,0,0
784,673,0,0,0,0,0,0,0,0,0,-1,2008,351,0,0
791,673,0,0,0,0,0,0,0,0,0,-1,2015,351,0,0
798,673,0,0,0,0,0,0,0,0,0,-1,2022,351,0,0
805,673,0,0,0,0,0,0,0,0,0,-1,2029,351,0,0
812,673,0,0,0,0,0,0,0,0,0,-1,2036,351,0,0
-700,666,0,0,0,0,0,0,0,0,0,-1,524,358,0,0
-693,666,0,0,0,0,0,0,0,0,0,-1,531,358,0,0
-686,666,0,0,0,0,0,0,0,0,0,-1,538,358,0,0
-679,666,0,0,0,0,0,0,0,0,0,-1,545,358,0,0
-672,666,0,0,0,0,0,0,0,0,0,-1,552,358,0,0
-665,666,0,0,0,0,0,0,0,0,0,-1,559,358,0,0
-658,666,0,0,0,0,0,0,0,0,0,-1,566,358,0,0
-651,666,0,0,0,0,0,0,0,0,0,-1,573,358,0,0
-644,666,0,0,0,0,0,0,0,0,0,-1,580,358,0,0
-637,666,0,0,0,0,0,0,0,0,0,-1,587,358,0,0
-630,666,0,0,0,0,0,0,0,0,0,-1,594,358,0,0
-623,666,0,0,0,0,0,0,0,0,0,-1,601,358,0,0
-616,666,0,0,0,0,0,0,0,0,0,-1,608,358,0,0
-609,666,0,0,0,0,0,0,0,0,0,-1,615,358,0,0
-602,666,0,0,0,0,0,0,0,0,0,-1,622,358,0,0
-595,666,0,0,0,0,0,0,0,0,0,-1,629,358,0,0
-588,666,0,0,0,0,0,0,0,0,0,-1,636,358,0,0
-581,666,0,0,0,0,0,0,0,0,0,-1,643,358,0,0
-574,666,0,0,0,0,0,0,0,0,0,-1,650,358,0,0
-567,666,0,0,0,0,0,0,0,0,0,-1,657,358,0,0
-560,666,0,0,0,0,0,0,0,0,0,-1,664,358,0,0
-553,666,0,0,0,0,0,0,0,0,0,-1,671,358,0,0
-546,666,0,0,0,0,0,0,0,0,0,-1,678,358,0,0
-539,666,0,0,0,0,0,0,0,0,0,-1,685,358,0,0
-532,666,0,0,0,0,0,0,0,0,0,-1,692,358,0,0
-525,666,0,0,0,0,0,0,0,0,0,-1,699,358,0,0
-518,666,0,0,0,0,0,0,0,0,0,-1,706,358,0,0
-511,666,0,0,0,0,0,0,0,0,0,-1,713,358,0,0
-504,666,0,0,0,0,0,0,0,0,0,-1,720,358,0,0
-497,666,0,0,0,0,0,0,0,0,0,-1,727,358,0,0
-490,666,0,0,0,0,0,0,0,0,0,-1,734,358,0,0
-483,666,0,0,0,0,0,0,0,0,0,-1,741,358,0,0
-476,666,0,0,0,0,0,0,0,0,0,-1,748,358,0,0
-469,666,0,0,0,0,0,0,0,0,0,-1,755,358,0,0
-462,666,0,0,0,0,0,0,0,0,0,-1,762,358,0,0
-455,666,0,0,0,0,0,0,0,0,0,-1,769,358,0,0
-448,666,0,0,0,0,0,0,0,0,0,-1,776,358,0,0
-441,666,0,0,0,0,0,0,0,0,0,-1,783,358,0,0
-434,666,0,0,0,0,0,0,0,0,0,-1,790,358,0,0
-427,666,0,0,0,0,0,0,0,0,0,-1,797,358,0,0
-420,666,0,0,0,0,0,0,0,0,0,-1,804,358,0,0
-413,666,0,0,0,0,0,0,0,0,0,-1,811,358,0,0
-406,666,0,0,0,0,0,0,0,0,0,-1,818,358,0,0
-399,666,0,0,0,0,0,0,0,0,0,-1,825,358,0,0
-392,666,0,0,0,0,0,0,0,0,0,-1,832,358,0,0
-385,666,0,0,0,0,0,0,0,0,0,-1,839,358,0,0
-378,666,0,0,0,0,0,0,0,0,0,-1,846,358,0,0
-371,666,0,0,0,0,0,0,0,0,0,-1,853,358,0,0
-364,666,0,0,0,0,0,0,0,0,0,-1,860,358,0,0
-357,666,0,0,0,0,0,0,0,0,0,-1,867,358,0,0
-350,666,0,0,0,0,0,0,0,0,0,-1,874,358,0,0
-343,666,0,0,0,0,0,0,0,0,0,-1,881,358,0,0
-336,666,0,0,0,0,0,0,0,0,0,-1,888,358,0,0
-329,666,0,0,0,0,0,0,0,0,0,-1,895,358,0,0
-322,666,0,0,0,0,0,0,0,0,0,-1,902,358,0,0
-315,666,0,0,0,0,0,0,0,0,0,-1,909,358,0,0
-308,666,0,0,0,0,0,0,0,0,0,-1,916,358,0,0
-301,666,0,0,0,0,0,0,0,0,0,-1,923,358,0,0
-294,666,0,0,0,0,0,0,0,0,0,-1,930,358,0,0
-287,666,0,0,0,0,0,0,0,0,0,-1,937,358,0,0
-280,666,0,0,0,0,0,0,0,0,0,-1,944,358,0,0
-273,666,0,0,0,0,0,0,0,0,0,-1,951,358,0,0
-266,666,0,0,0,0,0,0,0,0,0,-1,958,358,0,0
-259,666,0,0,0,0,0,0,0,0,0,-1,965,358,0,0
-252,666,0,0,0,0,0,0,0,0,0,-1,972,358,0,0
-245,666,0,0,0,0,0,0,0,0,0,-1,979,358,0,0
-238,666,0,0,0,0,0,0,0,0,0,-1,986,358,0,0
-231,666,0,0,0,0,0,0,0,0,0,-1,993,358,0,0
-224,666,0,0,0,0,0,0,0,0,0,-1,1000,358,0,0
-217,666,0,0,0,0,0,0,0,0,0,-1,1007,358,0,0
-210,666,0,0,0,0,0,0,0,0,0,-1,1014,358,0,0
-203,666,0,0,0,0,0,0,0,0,0,-1,1021,358,0,0
-196,666,1.6853,-29.5602,0,0,0,0,0,0,0,-1,1028,358,1.68528,29.5602
-189,666,2.41431,-29.26,0,0,0,0,0,0,0,-1,1035,358,2.41429,29.26
-182,666,4.39185,-30.1624,0,0,0,0,0,0,0,-1,1042,358,4.3918,30.1624
-175,666,4.87549,-31.3018,0,0,0,0,0,0,0,-1,1049,358,4.87553,31.3018
-168,666,4.11987,-30.7134,0,0,0,0,0,0,0,-1,1056,358,4.11991,30.7134
-161,666,4.03271,-31.5957,0,0,0,0,0,0,0,-1,1063,358,4.03271,31.5957
-154,666,4.35596,-32.7505,0,0,0,0,0,0,0,-1,1070,358,4.35599,32.7505
-147,666,4.81836,-29.7686,0,0,0,0,0,0,0,-1,1077,358,4.81836,29.7686
-140,666,4.56018,-28.8821,0,0,0,0,0,0,0,-1,1084,358,4.56023,28.8821
-133,666,5.59155,-30.8354,0,0,0,0,0,0,0,-1,1091,358,5.5915,30.8354
-126,666,5.76843,-30.6155,0,0,0,0,0,0,0,-1,1098,358,5.76847,30.6155
-119,666,5.96838,-32.0387,0,0,0,0,0,0,0,-1,1105,358,5.96836,32.0387
-112,666,6.13318,-30.696,0,0,0,0,0,0,0,-1,1112,358,6.13319,30.696
-105,666,6.30908,-29.0855,0,0,0,0,0,0,0,-1,1119,358,6.30905,29.0855
-98,666,3.5968,-23.5447,0,0,0,0,0,0,0,-1,1126,358,3.59686,23.5447
-91,666,9.5127,-25.1347,0,0,0,0,0,0,0,-1,1133,358,9.51269,25.1347
-84,666,4.03943,-19.3453,0,0,0,0,0,0,0,-1,1140,358,4.03941,19.3453
-77,666,-2.39233,-14.0082,0,0,0,0,0,0,0,-1,1147,358,-2.39229,14.0082
-70,666,-8.53284,-7.41498,0,0,0,0,0,0,0,-1,1154,358,-8.53289,7.41498
-63,666,-11.7778,-0.975189,0,0,0,0,0,0,0,-1,1161,358,-11.7778,0.97519
-56,666,0.424683,-2.04132,0,0,0,0,0,0,0,-1,1168,358,0.424665,2.04132
-49,666,0.754395,-2.23169,0,0,0,0,0,0,0,-1,1175,358,0.754383,2.23169
-42,666,1.34473,-3.53897,0,0,0,0,0,0,0,-1,1182,358,1.34476,3.53896
-35,666,4.91309,-34.7521,0,0,0,0,0,0,0,-1,1189,358,4.91311,34.7521
-28,666,5.17676,-34.5435,0,0,0,0,0,0,0,-1,1196,358,5.17674,34.5435
-21,666,5.11536,-34.6943,-0.00903251,0.0107834,0.015469,0.0192455,-0.0174946,1.07023,0.0212199,0.0357875,1203,358,5.11537,34.6943
-14,666,5.0293,-34.8005,-0.00950474,0.0136317,0.0155672,0.0214583,-0.0173314,1.10494,0.0224375,0.0309137,1210,358,5.02933,34.8006
-7,666,4.95422,-34.9478,-0.0102462,0.0169262,0.0155434,0.0239842,-0.0173042,1.14455,0.0239416,0.0200386,1217,358,4.95418,34.9478
0,666,4.9425,-35.0941,-0.0109478,0.0200194,0.0153016,0.0263046,-0.017233,1.18105,0.0253177,0.014089,1224,358,4.94249,35.0941
7,666,4.8584,-35.1751,-0.0108077,0.0231614,0.0145703,0.0285547,-0.016201,1.21628,0.0261658,0.0198818,1231,358,4.85843,35.1751
14,666,4.802,-35.2063,-0.010086,0.0272549,0.0137849,0.0317924,-0.0146235,1.2528,0.0274025,0.0193299,1238,358,4.80197,35.2063
21,666,4.75488,-35.3479,-0.00892852,0.0317563,0.0139245,0.0360655,-0.0132378,1.27067,0.0294648,0.0139735,1245,358,4.75485,35.3479
28,666,4.72485,-35.4425,-0.0075102,0.0356384,0.0139755,0.0397694,-0.0116412,1.28339,0.0311276,0.0137979,1252,358,4.72491,35.4425
35,666,4.73438,-35.4287,-0.00576062,0.0396966,0.013953,0.0436377,-0.00970178,1.29551,0.0328075,0.0134206,1259,358,4.73443,35.4287
42,666,4.672,-35.4691,-0.00372693,0.0446154,0.0145832,0.048674,-0.00778546,1.29936,0.0353316,0.0140357,1266,358,4.67205,35.4691
49,666,4.59924,-35.4962,-0.00226436,0.0507174,0.0151917,0.0547643,-0.00631125,1.31045,0.0387848,0.0118522,1273,358,4.59924,35.4962
56,666,4.55859,-35.5224,-0.00090483,0.0546328,0.0155788,0.0587043,-0.00497633,1.31517,0.040896,0.0135286,1280,358,4.55861,35.5224
63,666,4.5105,-35.5879,-0.000206401,0.0599666,0.0161107,0.0640086,-0.00424837,1.32498,0.0441567,0.0165013,1287,358,4.51056,35.5879
70,666,4.49658,-35.5423,7.00866e-05,0.0643655,0.0159137,0.0680887,-0.00365311,1.34097,0.0466579,0.0168825,1294,358,4.49662,35.5423
77,666,4.46472,-35.4274,-0.000325072,0.0674367,0.0146472,0.0704673,-0.00335564,1.36677,0.0481357,0.021681,1301,358,4.46468,35.4274
84,666,4.43347,-35.4268,-0.00176813,0.0696821,0.0130916,0.0720053,-0.00409134,1.39517,0.0494238,0.0280039,1308,358,4.43342,35.4268
91,666,4.38574,-35.4696,-0.00350636,0.0709243,0.010777,0.0724533,-0.00503537,1.42986,0.0500652,0.025503,1315,358,4.38577,35.4696
98,666,4.24243,-35.3965,-0.00454686,0.0713738,0.00794858,0.0721971,-0.00537012,1.46759,0.0500176,0.0218219,1322,358,4.24249,35.3965
105,666,4.14038,-35.2538,-0.00533593,0.0707368,0.00523897,0.0710959,-0.00569503,1.50236,0.0494052,0.0234431,1329,358,4.14033,35.2538
112,666,4.19006,-35.016,-0.00681375,0.069176,0.0023074,0.069246,-0.00688375,1.54047,0.0486213,0.0477597,1336,358,4.1901,35.016
119,666,4.14355,-34.9969,0,0,0,0,0,0,0,-1,1343,358,4.14354,34.9969
126,666,4.05396,-34.7299,-0.00793317,0.0620885,-0.00474683,0.0624089,-0.00825349,-1.50342,0.0446123,0.0287936,1350,358,4.05398,34.7299
133,666,3.99475,-34.6305,-0.00685468,0.0586404,-0.00713237,0.0594082,-0.00762239,-1.46357,0.0423754,0.0257705,1357,358,3.99469,34.6305
140,666,3.92249,-34.6243,-0.00504369,0.0547821,-0.00800581,0.0558349,-0.00609649,-1.44004,0.0394129,0.0247179,1364,358,3.92244,34.6243
147,666,3.8158,-34.466,-0.00265109,0.0506897,-0.00840787,0.0519836,-0.003945,-1.4181,0.0360427,0.0221429,1371,358,3.81585,34.466
154,666,3.8656,-34.1225,0.000458764,0.0464157,-0.00771619,0.0476766,-0.000802189,-1.40881,0.0320552,0.0204424,1378,358,3.86564,34.1225
161,666,3.8866,-33.9031,0.00335836,0.0437789,-0.00591112,0.0446256,0.00251165,-1.42852,0.0289495,0.0284365,1385,358,3.88662,33.9031
168,666,3.87415,-33.69,0,0,0,0,0,0,0,-1,1392,358,3.8741,33.69
175,666,3.94092,-33.9306,0,0,0,0,0,0,0,-1,1399,358,3.94091,33.9306
182,666,2.60876,-5.17068,0,0,0,0,0,0,0,-1,1406,358,2.6088,5.17068
189,666,2.46973,-5.49979,0,0,0,0,0,0,0,-1,1413,358,2.46975,5.49979
196,666,2.32458,-5.23651,0,0,0,0,0,0,0,-1,1420,358,2.32461,5.23653
203,666,2.28064,-3.88004,0,0,0,0,0,0,0,-1,1427,358,2.28059,3.88003
210,666,3.02576,-5.83548,0,0,0,0,0,0,0,-1,1434,358,3.02581,5.83547
217,666,2.30444,-5.36011,0,0,0,0,0,0,0,-1,1441,358,2.30447,5.3601
224,666,1.82324,-6.03101,0,0,0,0,0,0,0,-1,1448,358,1.82322,6.031
231,666,2.29797,-10.1093,0,0,0,0,0,0,0,-1,1455,358,2.29801,10.1093
238,666,2.52429,-6.10568,0,0,0,0,0,0,0,-1,1462,358,2.52423,6.10567
245,666,4.53345,-1.38205,0,0,0,0,0,0,0,-1,1469,358,4.53349,1.38204
252,666,4.77405,-0.246979,0,0,0,0,0,0,0,-1,1476,358,4.77405,0.246993
259,666,4.83655,1.14087,0,0,0,0,0,0,0,-1,1483,358,4.83652,-1.14087
266,666,6.14148,0.749512,0,0,0,0,0,0,0,-1,1490,358,6.14144,-0.749519
273,666,2.61304,-1.53772,0,0,0,0,0,0,0,-1,1497,358,2.613,1.53773
280,666,8.70898,-0.836975,0,0,0,0,0,0,0,-1,1504,358,8.70894,0.836988
287,666,-7.06934,-20.3464,0,0,0,0,0,0,0,-1,1511,358,-7.06933,20.3464
294,666,-7.85376,-22.0297,0,0,0,0,0,0,0,-1,1518,358,-7.85378,22.0297
301,666,-6.78711,-23.9803,0,0,0,0,0,0,0,-1,1525,358,-6.78706,23.9803
308,666,1.08496,-1.87576,0,0,0,0,0,0,0,-1,1532,358,1.08491,1.87575
315,666,1.76294,-0.284027,0,0,0,0,0,0,0,-1,1539,358,1.76291,0.284016
322,666,0,0,0,0,0,0,0,0,0,-1,1546,358,0,0
329,666,0,0,0,0,0,0,0,0,0,-1,1553,358,0,0
336,666,0,0,0,0,0,0,0,0,0,-1,1560,358,0,0
343,666,0,0,0,0,0,0,0,0,0,-1,1567,358,0,0
350,666,0,0,0,0,0,0,0,0,0,-1,1574,358,0,0
357,666,0,0,0,0,0,0,0,0,0,-1,1581,358,0,0
364,666,0,0,0,0,0,0,0,0,0,-1,1588,358,0,0
371,666,0,0,0,0,0,0,0,0,0,-1,1595,358,0,0
378,666,0,0,0,0,0,0,0,0,0,-1,1602,358,0,0
385,666,0,0,0,0,0,0,0,0,0,-1,1609,358,0,0
392,666,0,0,0,0,0,0,0,0,0,-1,1616,358,0,0
399,666,0,0,0,0,0,0,0,0,0,-1,1623,358,0,0
406,666,0,0,0,0,0,0,0,0,0,-1,1630,358,0,0
413,666,0,0,0,0,0,0,0,0,0,-1,1637,358,0,0
420,666,0,0,0,0,0,0,0,0,0,-1,1644,358,0,0
427,666,0,0,0,0,0,0,0,0,0,-1,1651,358,0,0
434,666,0,0,0,0,0,0,0,0,0,-1,1658,358,0,0
441,666,0,0,0,0,0,0,0,0,0,-1,1665,358,0,0
448,666,0,0,0,0,0,0,0,0,0,-1,1672,358,0,0
455,666,0,0,0,0,0,0,0,0,0,-1,1679,358,0,0
462,666,0,0,0,0,0,0,0,0,0,-1,1686,358,0,0
469,666,0,0,0,0,0,0,0,0,0,-1,1693,358,0,0
476,666,0,0,0,0,0,0,0,0,0,-1,1700,358,0,0
483,666,0,0,0,0,0,0,0,0,0,-1,1707,358,0,0
490,666,0,0,0,0,0,0,0,0,0,-1,1714,358,0,0
497,666,0,0,0,0,0,0,0,0,0,-1,1721,358,0,0
504,666,0,0,0,0,0,0,0,0,0,-1,1728,358,0,0
511,666,0,0,0,0,0,0,0,0,0,-1,1735,358,0,0
518,666,0,0,0,0,0,0,0,0,0,-1,1742,358,0,0
525,666,0,0,0,0,0,0,0,0,0,-1,1749,358,0,0
532,666,0,0,0,0,0,0,0,0,0,-1,1756,358,0,0
539,666,0,0,0,0,0,0,0,0,0,-1,1763,358,0,0
546,666,0,0,0,0,0,0,0,0,0,-1,1770,358,0,0
553,666,0,0,0,0,0,0,0,0,0,-1,1777,358,0,0
560,666,0,0,0,0,0,0,0,0,0,-1,1784,358,0,0
567,666,0,0,0,0,0,0,0,0,0,-1,1791,358,0,0
574,666,0,0,0,0,0,0,0,0,0,-1,1798,358,0,0
581,666,0,0,0,0,0,0,0,0,0,-1,1805,358,0,0
588,666,0,0,0,0,0,0,0,0,0,-1,1812,358,0,0
595,666,0,0,0,0,0,0,0,0,0,-1,1819,358,0,0
602,666,0,0,0,0,0,0,0,0,0,-1,1826,358,0,0
609,666,0,0,0,0,0,0,0,0,0,-1,1833,358,0,0
616,666,0,0,0,0,0,0,0,0,0,-1,1840,358,0,0
623,666,0,0,0,0,0,0,0,0,0,-1,1847,358,0,0
630,666,0,0,0,0,0,0,0,0,0,-1,1854,358,0,0
637,666,0,0,0,0,0,0,0,0,0,-1,1861,358,0,0
644,666,0,0,0,0,0,0,0,0,0,-1,1868,358,0,0
651,666,0,0,0,0,0,0,0,0,0,-1,1875,358,0,0
658,666,0,0,0,0,0,0,0,0,0,-1,1882,358,0,0
665,666,0,0,0,0,0,0,0,0,0,-1,1889,358,0,0
672,666,0,0,0,0,0,0,0,0,0,-1,1896,358,0,0
679,666,0,0,0,0,0,0,0,0,0,-1,1903,358,0,0
686,666,0,0,0,0,0,0,0,0,0,-1,1910,358,0,0
693,666,0,0,0,0,0,0,0,0,0,-1,1917,358,0,0
700,666,0,0,0,0,0,0,0,0,0,-1,1924,358,0,0
707,666,0,0,0,0,0,0,0,0,0,-1,1931,358,0,0
714,666,0,0,0,0,0,0,0,0,0,-1,1938,358,0,0
721,666,0,0,0,0,0,0,0,0,0,-1,1945,358,0,0
728,666,0,0,0,0,0,0,0,0,0,-1,1952,358,0,0
735,666,0,0,0,0,0,0,0,0,0,-1,1959,358,0,0
742,666,0,0,0,0,0,0,0,0,0,-1,1966,358,0,0
749,666,0,0,0,0,0,0,0,0,0,-1,1973,358,0,0
756,666,0,0,0,0,0,0,0,0,0,-1,1980,358,0,0
763,666,0,0,0,0,0,0,0,0,0,-1,1987,358,0,0
770,666,0,0,0,0,0,0,0,0,0,-1,1994,358,0,0
777,666,0,0,0,0,0,0,0,0,0,-1,2001,358,0,0
784,666,0,0,0,0,0,0,0,0,0,-1,2008,358,0,0
791,666,0,0,0,0,0,0,0,0,0,-1,2015,358,0,0
798,666,0,0,0,0,0,0,0,0,0,-1,2022,358,0,0
805,666,0,0,0,0,0,0,0,0,0,-1,2029,358,0,0
812,666,0,0,0,0,0,0,0,0,0,-1,2036,358,0,0
-700,659,0,0,0,0,0,0,0,0,0,-1,524,365,0,0
-693,659,0,0,0,0,0,0,0,0,0,-1,531,365,0,0
-686,659,0,0,0,0,0,0,0,0,0,-1,538,365,0,0
-679,659,0,0,0,0,0,0,0,0,0,-1,545,365,0,0
-672,659,0,0,0,0,0,0,0,0,0,-1,552,365,0,0
-665,659,0,0,0,0,0,0,0,0,0,-1,559,365,0,0
-658,659,0,0,0,0,0,0,0,0,0,-1,566,365,0,0
-651,659,0,0,0,0,0,0,0,0,0,-1,573,365,0,0
-644,659,0,0,0,0,0,0,0,0,0,-1,580,365,0,0
-637,659,0,0,0,0,0,0,0,0,0,-1,587,365,0,0
-630,659,0,0,0,0,0,0,0,0,0,-1,594,365,0,0
-623,659,0,0,0,0,0,0,0,0,0,-1,601,365,0,0
-616,659,0,0,0,0,0,0,0,0,0,-1,608,365,0,0
-609,659,0,0,0,0,0,0,0,0,0,-1,615,365,0,0
-602,659,0,0,0,0,0,0,0,0,0,-1,622,365,0,0
-595,659,0,0,0,0,0,0,0,0,0,-1,629,365,0,0
-588,659,0,0,0,0,0,0,0,0,0,-1,636,365,0,0
-581,659,0,0,0,0,0,0,0,0,0,-1,643,365,0,0
-574,659,0,0,0,0,0,0,0,0,0,-1,650,365,0,0
-567,659,0,0,0,0,0,0,0,0,0,-1,657,365,0,0
-560,659,0,0,0,0,0,0,0,0,0,-1,664,365,0,0
-553,659,0,0,0,0,0,0,0,0,0,-1,671,365,0,0
-546,659,0,0,0,0,0,0,0,0,0,-1,678,365,0,0
-539,659,0,0,0,0,0,0,0,0,0,-1,685,365,0,0
-532,659,0,0,0,0,0,0,0,0,0,-1,692,365,0,0
-525,659,0,0,0,0,0,0,0,0,0,-1,699,365,0,0
-518,659,0,0,0,0,0,0,0,0,0,-1,706,365,0,0
-511,659,0,0,0,0,0,0,0,0,0,-1,713,365,0,0
-504,659,0,0,0,0,0,0,0,0,0,-1,720,365,0,0
-497,659,0,0,0,0,0,0,0,0,0,-1,727,365,0,0
-490,659,0,0,0,0,0,0,0,0,0,-1,734,365,0,0
-483,659,0,0,0,0,0,0,0,0,0,-1,741,365,0,0
-476,659,0,0,0,0,0,0,0,0,0,-1,748,365,0,0
-469,659,0,0,0,0,0,0,0,0,0,-1,755,365,0,0
-462,659,0,0,0,0,0,0,0,0,0,-1,762,365,0,0
-455,659,0,0,0,0,0,0,0,0,0,-1,769,365,0,0
-448,659,0,0,0,0,0,0,0,0,0,-1,776,365,0,0
-441,659,0,0,0,0,0,0,0,0,0,-1,783,365,0,0
-434,659,0,0,0,0,0,0,0,0,0,-1,790,365,0,0
-427,659,0,0,0,0,0,0,0,0,0,-1,797,365,0,0
-420,659,0,0,0,0,0,0,0,0,0,-1,804,365,0,0
-413,659,0,0,0,0,0,0,0,0,0,-1,811,365,0,0
-406,659,0,0,0,0,0,0,0,0,0,-1,818,365,0,0
-399,659,0,0,0,0,0,0,0,0,0,-1,825,365,0,0
-392,659,0,0,0,0,0,0,0,0,0,-1,832,365,0,0
-385,659,0,0,0,0,0,0,0,0,0,-1,839,365,0,0
-378,659,0,0,0,0,0,0,0,0,0,-1,846,365,0,0
-371,659,0,0,0,0,0,0,0,0,0,-1,853,365,0,0
-364,659,0,0,0,0,0,0,0,0,0,-1,860,365,0,0
-357,659,0,0,0,0,0,0,0,0,0,-1,867,365,0,0
-350,659,0,0,0,0,0,0,0,0,0,-1,874,365,0,0
-343,659,0,0,0,0,0,0,0,0,0,-1,881,365,0,0
-336,659,0,0,0,0,0,0,0,0,0,-1,888,365,0,0
-329,659,0,0,0,0,0,0,0,0,0,-1,895,365,0,0
-322,659,0,0,0,0,0,0,0,0,0,-1,902,365,0,0
-315,659,0,0,0,0,0,0,0,0,0,-1,909,365,0,0
-308,659,0,0,0,0,0,0,0,0,0,-1,916,365,0,0
-301,659,0,0,0,0,0,0,0,0,0,-1,923,365,0,0
-294,659,0,0,0,0,0,0,0,0,0,-1,930,365,0,0
-287,659,0,0,0,0,0,0,0,0,0,-1,937,365,0,0
-280,659,0,0,0,0,0,0,0,0,0,-1,944,365,0,0
-273,659,0,0,0,0,0,0,0,0,0,-1,951,365,0,0
-266,659,0,0,0,0,0,0,0,0,0,-1,958,365,0,0
-259,659,0,0,0,0,0,0,0,0,0,-1,965,365,0,0
-252,659,0,0,0,0,0,0,0,0,0,-1,972,365,0,0
-245,659,0,0,0,0,0,0,0,0,0,-1,979,365,0,0
-238,659,0,0,0,0,0,0,0,0,0,-1,986,365,0,0
-231,659,0,0,0,0,0,0,0,0,0,-1,993,365,0,0
-224,659,0,0,0,0,0,0,0,0,0,-1,1000,365,0,0
-217,659,1.58905,-25.7653,0,0,0,0,0,0,0,-1,1007,365,1.58908,25.7652
-210,659,2.664,-25.0039,0,0,0,0,0,0,0,-1,1014,365,2.664,25.0039
-203,659,3.64746,-23.8298,0,0,0,0,0,0,0,-1,1021,365,3.64742,23.8298
-196,659,2.4447,-28.0702,0,0,0,0,0,0,0,-1,1028,365,2.44469,28.0702
-189,659,3.53638,-28.0162,0,0,0,0,0,0,0,-1,1035,365,3.53642,28.0162
-182,659,4.17529,-29.0959,0,0,0,0,0,0,0,-1,1042,365,4.17528,29.0959
-175,659,4.03003,-29.2253,0,0,0,0,0,0,0,-1,1049,365,4.03,29.2253
-168,659,4.18323,-30.2132,0,0,0,0,0,0,0,-1,1056,365,4.18328,30.2132
-161,659,4.21912,-30.9017,0,0,0,0,0,0,0,-1,1063,365,4.21906,30.9017
-154,659,5.83618,-29.9391,0,0,0,0,0,0,0,-1,1070,365,5.8362,29.9391
-147,659,5.97815,-30.1176,0,0,0,0,0,0,0,-1,1077,365,5.97816,30.1176
-140,659,6.01697,-30.1194,0,0,0,0,0,0,0,-1,1084,365,6.017,30.1194
-133,659,6.28955,-29.3275,0,0,0,0,0,0,0,-1,1091,365,6.2895,29.3274
-126,659,5.56848,-31.785,0,0,0,0,0,0,0,-1,1098,365,5.56852,31.785
-119,659,5.65759,-31.8293,0,0,0,0,0,0,0,-1,1105,365,5.65754,31.8293
-112,659,5.69714,-31.7078,0,0,0,0,0,0,0,-1,1112,365,5.69716,31.7078
-105,659,5.38696,-30.5854,0,0,0,0,0,0,0,-1,1119,365,5.387,30.5854
-98,659,4.68042,-26.2438,0,0,0,0,0,0,0,-1,1126,365,4.68041,26.2438
-91,659,4.20776,-20.8654,0,0,0,0,0,0,0,-1,1133,365,4.20777,20.8654
-84,659,2.8584,-17.8303,0,0,0,0,0,0,0,-1,1140,365,2.85836,17.8303
-77,659,2.80139,-15.3457,0,0,0,0,0,0,0,-1,1147,365,2.80139,15.3457
-70,659,2.9353,-12.7028,0,0,0,0,0,0,0,-1,1154,365,2.93533,12.7028
-63,659,2.11267,-9.7796,0,0,0,0,0,0,0,-1,1161,365,2.11266,9.7796
-56,659,2.11182,-9.91541,0,0,0,0,0,0,0,-1,1168,365,2.11178,9.91541
-49,659,5.05847,-34.1746,0,0,0,0,0,0,0,-1,1175,365,5.05844,34.1746
-42,659,5.05737,-34.403,0,0,0,0,0,0,0,-1,1182,365,5.05738,34.403
-35,659,4.99243,-34.6333,-0.007412,0.00522162,0.00824539,0.00929176,-0.0114821,1.11226,0.012016,0.0418917,1189,365,4.99249,34.6333
-28,659,5.0116,-34.7213,-0.00795219,0.00668764,0.00891035,0.0108992,-0.0121638,1.12926,0.0133221,0.0152866,1196,365,5.01156,34.7213
-21,659,4.96606,-34.8624,-0.00811195,0.00851296,0.00931596,0.0126859,-0.0122849,1.14966,0.0144175,0.0119222,1203,365,4.96612,34.8624
-14,659,4.90466,-35.0191,-0.00824407,0.0105295,0.00965002,0.0146051,-0.0123196,1.17118,0.0155636,0.00998257,1210,365,4.90463,35.0191
-7,659,4.86206,-35.1346,-0.0085939,0.0128389,0.00987168,0.0166928,-0.0124477,1.1986,0.0168837,0.00975058,1217,365,4.86207,35.1345
0,659,4.84058,-35.2327,-0.00891231,0.0150048,0.0098756,0.0185554,-0.0124629,1.22565,0.0180232,0.00884879,1224,365,4.84059,35.2327
7,659,4.80566,-35.3258,-0.00861939,0.0172608,0.00950847,0.0203786,-0.0117372,1.25394,0.0187645,0.00904643,1231,365,4.80566,35.3258
14,659,4.7583,-35.3751,-0.00799355,0.0201624,0.00907843,0.0228357,-0.0106669,1.28442,0.0197635,0.0111662,1238,365,4.75835,35.3751
21,659,4.72974,-35.4456,-0.00709096,0.0234693,0.00931994,0.0260874,-0.00970897,1.29695,0.021376,0.0114108,1245,365,4.72976,35.4456
28,659,4.70264,-35.5202,-0.00598924,0.0263814,0.00949664,0.0289618,-0.0085696,1.30549,0.0227099,0.0110994,1252,365,4.70258,35.5202
35,659,4.67932,-35.5777,-0.00469845,0.0294706,0.00956426,0.0319656,-0.0071934,1.31562,0.0240692,0.0118871,1259,365,4.67931,35.5777
42,659,4.64807,-35.6144,-0.00322473,0.0332178,0.0100995,0.0358296,-0.00583646,1.31774,0.0260507,0.012194,1266,365,4.64804,35.6144
49,659,4.5791,-35.6294,-0.00217097,0.0378422,0.0106454,0.0404981,-0.00482686,1.3263,0.0287431,0.0116195,1273,365,4.57904,35.6294
56,659,4.52295,-35.6313,-0.00122763,0.0409746,0.0109923,0.0436661,-0.00391909,1.33067,0.0305011,0.0151955,1280,365,4.52298,35.6313
63,659,4.5166,-35.6764,-0.000739218,0.0449797,0.0114555,0.0476894,-0.00344896,1.33852,0.0330027,0.0164104,1287,365,4.5166,35.6764
70,659,4.48145,-35.6725,-0.000524288,0.0483511,0.0114029,0.0508806,-0.00305374,1.35251,0.0349827,0.0177914,1294,365,4.48143,35.6725
77,659,4.43579,-35.6331,-0.000814582,0.0506239,0.0105198,0.0526922,-0.00288285,1.37667,0.0361274,0.0170132,1301,365,4.43584,35.6331
84,659,4.40137,-35.6124,-0.00184279,0.0522554,0.00944636,0.0538574,-0.00344483,1.4028,0.0371066,0.0116874,1308,365,4.40135,35.6124
91,659,4.34863,-35.5602,-0.00304856,0.0530683,0.00783776,0.0541424,-0.00412269,1.4346,0.0375447,0.0107866,1315,365,4.34868,35.5602
98,659,4.31323,-35.4749,-0.00368202,0.0533007,0.00588571,0.0539023,-0.00428361,1.46894,0.0374445,0.00854427,1322,365,4.31322,35.4749
105,659,4.29492,-35.3611,-0.00410826,0.0526641,0.00407097,0.0529546,-0.00439869,1.49958,0.0368569,0.0099506,1329,365,4.29489,35.3611
112,659,4.27075,-35.2425,-0.00505415,0.0512971,0.0021166,0.0513765,-0.00513354,1.53331,0.0360841,0.0144084,1336,365,4.2708,35.2425
119,659,4.22083,-35.1223,-0.00559314,0.0487327,-1.20144e-05,0.0487327,-0.00559314,-1.57058,0.0345043,0.0159629,1343,365,4.22079,35.1223
126,659,4.18896,-35.0012,-0.0055685,0.0455509,-0.00252242,0.0456751,-0.00569266,-1.52161,0.0325141,0.0137847,1350,365,4.18894,35.0012
133,659,4.12646,-34.8835,-0.00477896,0.0428323,-0.00408753,0.0431807,-0.00512734,-1.48577,0.0306396,0.0125569,1357,365,4.12648,34.8836
140,659,4.07141,-34.7664,-0.00350702,0.0398686,-0.00454599,0.0403399,-0.00397834,-1.46749,0.0283127,0.00970564,1364,365,4.0714,34.7664
147,659,4.04138,-34.618,-0.00191071,0.0368482,-0.00470524,0.0374112,-0.00247374,-1.4517,0.0258049,0.00827669,1371,365,4.04134,34.618
154,659,3.99377,-34.4259,5.92403e-05,0.0336973,-0.00416563,0.0342055,-0.000448942,-1.4494,0.0229548,0.00975361,1378,365,3.99371,34.4259
161,659,3.96826,-34.2286,0.00173953,0.03182,-0.00285921,0.0320894,0.00147017,-1.47687,0.0209201,0.0116177,1385,365,3.96831,34.2286
168,659,3.95508,-34.0272,0.00370767,0.0282854,-0.000912126,0.0283193,0.00367387,-1.53375,0.0177818,0.0179614,1392,365,3.95514,34.0272
175,659,3.93225,-33.854,0.00515612,0.0269174,0.00176913,0.0270603,0.00501324,1.4902,0.0166231,0.0411128,1399,365,3.93224,33.854
182,659,3.78625,-33.7332,0,0,0,0,0,0,0,-1,1406,365,3.78631,33.7331
189,659,3.8407,-33.3269,0,0,0,0,0,0,0,-1,1413,365,3.84071,33.3269
196,659,2.41248,-13.4371,0,0,0,0,0,0,0,-1,1420,365,2.41243,13.4371
203,659,2.38623,-12.2163,0,0,0,0,0,0,0,-1,1427,365,2.38617,12.2163
210,659,2.20789,-13.9792,0,0,0,0,0,0,0,-1,1434,365,2.20794,13.9792
217,659,2.24121,-13.487,0,0,0,0,0,0,0,-1,1441,365,2.24116,13.487
224,659,2.3479,-15.2926,0,0,0,0,0,0,0,-1,1448,365,2.34793,15.2926
231,659,2.47974,-17.8629,0,0,0,0,0,0,0,-1,1455,365,2.47976,17.8628
238,659,3.57886,-21.1258,0,0,0,0,0,0,0,-1,1462,365,3.57889,21.1258
245,659,3.29883,-25.0283,0,0,0,0,0,0,0,-1,1469,365,3.29889,25.0283
252,659,2.81909,-24.1604,0,0,0,0,0,0,0,-1,1476,365,2.81905,24.1604
259,659,2.33069,-3.36703,0,0,0,0,0,0,0,-1,1483,365,2.33073,3.36702
266,659,1.72681,-17.183,0,0,0,0,0,0,0,-1,1490,365,1.72683,17.183
273,659,3.06396,-29.3878,0,0,0,0,0,0,0,-1,1497,365,3.06398,29.3878
280,659,-6.90784,-17.1906,0,0,0,0,0,0,0,-1,1504,365,-6.90789,17.1906
287,659,-6.03333,-19.2684,0,0,0,0,0,0,0,-1,1511,365,-6.03339,19.2684
294,659,-5.25952,-20.9666,0,0,0,0,0,0,0,-1,1518,365,-5.25957,20.9666
301,659,-4.52319,-22.5462,0,0,0,0,0,0,0,-1,1525,365,-4.52316,22.5462
308,659,-3.6543,-24.1383,0,0,0,0,0,0,0,-1,1532,365,-3.65433,24.1383
315,659,2.17102,-2.98474,0,0,0,0,0,0,0,-1,1539,365,2.171,2.98473
322,659,0.382813,-2.2424,0,0,0,0,0,0,0,-1,1546,365,0.382801,2.2424
329,659,0.604004,-1.75998,0,0,0,0,0,0,0,-1,1553,365,0.603966,1.75998
336,659,4.55933,-25.2647,0,0,0,0,0,0,0,-1,1560,365,4.55935,25.2647
343,659,0,0,0,0,0,0,0,0,0,-1,1567,365,0,0
350,659,0,0,0,0,0,0,0,0,0,-1,1574,365,0,0
357,659,0,0,0,0,0,0,0,0,0,-1,1581,365,0,0
364,659,0,0,0,0,0,0,0,0,0,-1,1588,365,0,0
371,659,0,0,0,0,0,0,0,0,0,-1,1595,365,0,0
378,659,0,0,0,0,0,0,0,0,0,-1,1602,365,0,0
385,659,0,0,0,0,0,0,0,0,0,-1,1609,365,0,0
392,659,0,0,0,0,0,0,0,0,0,-1,1616,365,0,0
399,659,0,0,0,0,0,0,0,0,0,-1,1623,365,0,0
406,659,0,0,0,0,0,0,0,0,0,-1,1630,365,0,0
413,659,0,0,0,0,0,0,0,0,0,-1,1637,365,0,0
420,659,0,0,0,0,0,0,0,0,0,-1,1644,365,0,0
427,659,0,0,0,0,0,0,0,0,0,-1,1651,365,0,0
434,659,0,0,0,0,0,0,0,0,0,-1,1658,365,0,0
441,659,0,0,0,0,0,0,0,0,0,-1,1665,365,0,0
448,659,0,0,0,0,0,0,0,0,0,-1,1672,365,0,0
455,659,0,0,0,0,0,0,0,0,0,-1,1679,365,0,0
462,659,0,0,0,0,0,0,0,0,0,-1,1686,365,0,0
469,659,0,0,0,0,0,0,0,0,0,-1,1693,365,0,0
476,659,0,0,0,0,0,0,0,0,0,-1,1700,365,0,0
483,659,0,0,0,0,0,0,0,0,0,-1,1707,365,0,0
490,659,0,0,0,0,0,0,0,0,0,-1,1714,365,0,0
497,659,0,0,0,0,0,0,0,0,0,-1,1721,365,0,0
504,659,0,0,0,0,0,0,0,0,0,-1,1728,365,0,0
511,659,0,0,0,0,0,0,0,0,0,-1,1735,365,0,0
518,659,0,0,0,0,0,0,0,0,0,-1,1742,365,0,0
525,659,0,0,0,0,0,0,0,0,0,-1,1749,365,0,0
532,659,0,0,0,0,0,0,0,0,0,-1,1756,365,0,0
539,659,0,0,0,0,0,0,0,0,0,-1,1763,365,0,0
546,659,0,0,0,0,0,0,0,0,0,-1,1770,365,0,0
553,659,0,0,0,0,0,0,0,0,0,-1,1777,365,0,0
560,659,0,0,0,0,0,0,0,0,0,-1,1784,365,0,0
567,659,0,0,0,0,0,0,0,0,0,-1,1791,365,0,0
574,659,0,0,0,0,0,0,0,0,0,-1,1798,365,0,0
581,659,0,0,0,0,0,0,0,0,0,-1,1805,365,0,0
588,659,0,0,0,0,0,0,0,0,0,-1,1812,365,0,0
595,659,0,0,0,0,0,0,0,0,0,-1,1819,365,0,0
602,659,0,0,0,0,0,0,0,0,0,-1,1826,365,0,0
609,659,0,0,0,0,0,0,0,0,0,-1,1833,365,0,0
616,659,0,0,0,0,0,0,0,0,0,-1,1840,365,0,0
623,659,0,0,0,0,0,0,0,0,0,-1,1847,365,0,0
630,659,0,0,0,0,0,0,0,0,0,-1,1854,365,0,0
637,659,0,0,0,0,0,0,0,0,0,-1,1861,365,0,0
644,659,0,0,0,0,0,0,0,0,0,-1,1868,365,0,0
651,659,0,0,0,0,0,0,0,0,0,-1,1875,365,0,0
658,659,0,0,0,0,0,0,0,0,0,-1,1882,365,0,0
665,659,0,0,0,0,0,0,0,0,0,-1,1889,365,0,0
672,659,0,0,0,0,0,0,0,0,0,-1,1896,365,0,0
679,659,0,0,0,0,0,0,0,0,0,-1,1903,365,0,0
686,659,0,0,0,0,0,0,0,0,0,-1,1910,365,0,0
693,659,0,0,0,0,0,0,0,0,0,-1,1917,365,0,0
700,659,0,0,0,0,0,0,0,0,0,-1,1924,365,0,0
707,659,0,0,0,0,0,0,0,0,0,-1,1931,365,0,0
714,659,0,0,0,0,0,0,0,0,0,-1,1938,365,0,0
721,659,0,0,0,0,0,0,0,0,0,-1,1945,365,0,0
728,659,0,0,0,0,0,0,0,0,0,-1,1952,365,0,0
735,659,0,0,0,0,0,0,0,0,0,-1,1959,365,0,0
742,659,0,0,0,0,0,0,0,0,0,-1,1966,365,0,0
749,659,0,0,0,0,0,0,0,0,0,-1,1973,365,0,0
756,659,0,0,0,0,0,0,0,0,0,-1,1980,365,0,0
763,659,0,0,0,0,0,0,0,0,0,-1,1987,365,0,0
770,659,0,0,0,0,0,0,0,0,0,-1,1994,365,0,0
777,659,0,0,0,0,0,0,0,0,0,-1,2001,365,0,0
784,659,0,0,0,0,0,0,0,0,0,-1,2008,365,0,0
791,659,0,0,0,0,0,0,0,0,0,-1,2015,365,0,0
798,659,0,0,0,0,0,0,0,0,0,-1,2022,365,0,0
805,659,0,0,0,0,0,0,0,0,0,-1,2029,365,0,0
812,659,0,0,0,0,0,0,0,0,0,-1,2036,365,0,0
-700,652,0,0,0,0,0,0,0,0,0,-1,524,372,0,0
-693,652,0,0,0,0,0,0,0,0,0,-1,531,372,0,0
-686,652,0,0,0,0,0,0,0,0,0,-1,538,372,0,0
-679,652,0,0,0,0,0,0,0,0,0,-1,545,372,0,0
-672,652,0,0,0,0,0,0,0,0,0,-1,552,372,0,0
-665,652,0,0,0,0,0,0,0,0,0,-1,559,372,0,0
-658,652,0,0,0,0,0,0,0,0,0,-1,566,372,0,0
-651,652,0,0,0,0,0,0,0,0,0,-1,573,372,0,0
-644,652,0,0,0,0,0,0,0,0,0,-1,580,372,0,0
-637,652,0,0,0,0,0,0,0,0,0,-1,587,372,0,0
-630,652,0,0,0,0,0,0,0,0,0,-1,594,372,0,0
-623,652,0,0,0,0,0,0,0,0,0,-1,601,372,0,0
-616,652,0,0,0,0,0,0,0,0,0,-1,608,372,0,0
-609,652,0,0,0,0,0,0,0,0,0,-1,615,372,0,0
-602,652,0,0,0,0,0,0,0,0,0,-1,622,372,0,0
-595,652,0,0,0,0,0,0,0,0,0,-1,629,372,0,0
-588,652,0,0,0,0,0,0,0,0,0,-1,636,372,0,0
-581,652,0,0,0,0,0,0,0,0,0,-1,643,372,0,0
-574,652,0,0,0,0,0,0,0,0,0,-1,650,372,0,0
-567,652,0,0,0,0,0,0,0,0,0,-1,657,372,0,0
-560,652,0,0,0,0,0,0,0,0,0,-1,664,372,0,0
-553,652,0,0,0,0,0,0,0,0,0,-1,671,372,0,0
-546,652,0,0,0,0,0,0,0,0,0,-1,678,372,0,0
-539,652,0,0,0,0,0,0,0,0,0,-1,685,372,0,0
-532,652,0,0,0,0,0,0,0,0,0,-1,692,372,0,0
-525,652,0,0,0,0,0,0,0,0,0,-1,699,372,0,0
-518,652,0,0,0,0,0,0,0,0,0,-1,706,372,0,0
-511,652,0,0,0,0,0,0,0,0,0,-1,713,372,0,0
-504,652,0,0,0,0,0,0,0,0,0,-1,720,372,0,0
-497,652,0,0,0,0,0,0,0,0,0,-1,727,372,0,0
-490,652,0,0,0,0,0,0,0,0,0,-1,734,372,0,0
-483,652,0,0,0,0,0,0,0,0,0,-1,741,372,0,0
-476,652,0,0,0,0,0,0,0,0,0,-1,748,372,0,0
-469,652,0,0,0,0,0,0,0,0,0,-1,755,372,0,0
-462,652,0,0,0,0,0,0,0,0,0,-1,762,372,0,0
-455,652,0,0,0,0,0,0,0,0,0,-1,769,372,0,0
-448,652,0,0,0,0,0,0,0,0,0,-1,776,372,0,0
-441,652,0,0,0,0,0,0,0,0,0,-1,783,372,0,0
-434,652,0,0,0,0,0,0,0,0,0,-1,790,372,0,0
-427,652,0,0,0,0,0,0,0,0,0,-1,797,372,0,0
-420,652,0,0,0,0,0,0,0,0,0,-1,804,372,0,0
-413,652,0,0,0,0,0,0,0,0,0,-1,811,372,0,0
-406,652,0,0,0,0,0,0,0,0,0,-1,818,372,0,0
-399,652,0,0,0,0,0,0,0,0,0,-1,825,372,0,0
-392,652,0,0,0,0,0,0,0,0,0,-1,832,372,0,0
-385,652,0,0,0,0,0,0,0,0,0,-1,839,372,0,0
-378,652,0,0,0,0,0,0,0,0,0,-1,846,372,0,0
-371,652,0,0,0,0,0,0,0,0,0,-1,853,372,0,0
-364,652,0,0,0,0,0,0,0,0,0,-1,860,372,0,0
-357,652,0,0,0,0,0,0,0,0,0,-1,867,372,0,0
-350,652,0,0,0,0,0,0,0,0,0,-1,874,372,0,0
-343,652,0,0,0,0,0,0,0,0,0,-1,881,372,0,0
-336,652,0,0,0,0,0,0,0,0,0,-1,888,372,0,0
-329,652,0,0,0,0,0,0,0,0,0,-1,895,372,0,0
-322,652,0,0,0,0,0,0,0,0,0,-1,902,372,0,0
-315,652,0,0,0,0,0,0,0,0,0,-1,909,372,0,0
-308,652,0,0,0,0,0,0,0,0,0,-1,916,372,0,0
-301,652,0,0,0,0,0,0,0,0,0,-1,923,372,0,0
-294,652,0,0,0,0,0,0,0,0,0,-1,930,372,0,0
-287,652,0,0,0,0,0,0,0,0,0,-1,937,372,0,0
-280,652,0,0,0,0,0,0,0,0,0,-1,944,372,0,0
-273,652,0,0,0,0,0,0,0,0,0,-1,951,372,0,0
-266,652,0,0,0,0,0,0,0,0,0,-1,958,372,0,0
-259,652,0,0,0,0,0,0,0,0,0,-1,965,372,0,0
-252,652,0,0,0,0,0,0,0,0,0,-1,972,372,0,0
-245,652,0,0,0,0,0,0,0,0,0,-1,979,372,0,0
-238,652,0,0,0,0,0,0,0,0,0,-1,986,372,0,0
-231,652,8.68457,-21.315,0,0,0,0,0,0,0,-1,993,372,8.68455,21.315
-224,652,9.47449,-18.002,0,0,0,0,0,0,0,-1,1000,372,9.47449,18.002
-217,652,1.80139,-26.709,0,0,0,0,0,0,0,-1,1007,372,1.80137,26.709
-210,652,2.70807,-25.7509,0,0,0,0,0,0,0,-1,1014,372,2.70809,25.7509
-203,652,3.66467,-24.6504,0,0,0,0,0,0,0,-1,1021,372,3.66463,24.6504
-196,652,4.50012,-23.3835,0,0,0,0,0,0,0,-1,1028,372,4.50007,23.3835
-189,652,4.42688,-26.6211,0,0,0,0,0,0,0,-1,1035,372,4.42691,26.6211
-182,652,4.00623,-28.1492,0,0,0,0,0,0,0,-1,1042,372,4.00617,28.1492
-175,652,4.5874,-29.3477,0,0,0,0,0,0,0,-1,1049,372,4.58737,29.3476
-168,652,4.19031,-29.7985,0,0,0,0,0,0,0,-1,1056,372,4.19032,29.7985
-161,652,4.39417,-30.4572,0.0374283,0.00330352,0.000806272,0.0374473,0.00328448,0.0236096,0.0239452,0.0426755,1063,372,4.39415,30.4571
-154,652,5.55664,-29.7462,0.031851,0.00414753,0.0016012,0.0319433,0.00405529,0.0575425,0.0200807,0.0451373,1070,372,5.55661,29.7463
-147,652,5.70239,-30.2811,0.0260178,0.00552957,0.0020336,0.0262177,0.00532967,0.0979829,0.0160006,0.0441681,1077,372,5.70242,30.2811
-140,652,5.66455,-30.4398,0.0203421,0.00711737,0.00211638,0.0206725,0.00678694,0.154881,0.0121676,0.0428277,1084,372,5.66452,30.4398
-133,652,5.6084,-30.2855,0,0,0,0,0,0,0,-1,1091,372,5.60844,30.2855
-126,652,5.3916,-31.3832,0.0101138,0.0104272,0.00168051,0.0119583,0.00858269,0.831877,0.00711896,0.0412545,1098,372,5.39157,31.3832
-119,652,5.34131,-31.6318,0.00626982,0.0117937,0.00150975,0.0121794,0.00588412,1.32067,0.00703309,0.0377325,1105,372,5.34132,31.6318
-112,652,5.33423,-31.7994,0.0030896,0.0127269,0.00106896,0.012844,0.00297245,1.46164,0.00776389,0.0375494,1112,372,5.33419,31.7994
-105,652,5.24915,-31.9489,0,0,0,0,0,0,0,-1,1119,372,5.24912,31.9489
-98,652,5.32861,-31.8527,0,0,0,0,0,0,0,-1,1126,372,5.32864,31.8527
-91,652,5.34656,-32.1734,0,0,0,0,0,0,0,-1,1133,372,5.34654,32.1734
-84,652,5.24219,-32.708,0,0,0,0,0,0,0,-1,1140,372,5.24221,32.708
-77,652,5.09802,-33.2469,0,0,0,0,0,0,0,-1,1147,372,5.09805,33.2469
-70,652,5.09534,-33.5709,0,0,0,0,0,0,0,-1,1154,372,5.09529,33.5709
-63,652,5.05676,-33.8005,0,0,0,0,0,0,0,-1,1161,372,5.05674,33.8005
-56,652,4.9823,-34.0404,0,0,0,0,0,0,0,-1,1168,372,4.98226,34.0404
-49,652,4.95776,-34.221,-0.00778641,0.00236674,0.000184028,0.00237007,-0.00778974,1.55268,0.00613766,0.0377551,1175,372,4.95777,34.221
-42,652,4.92297,-34.39,-0.0080184,0.00128655,0.000427278,0.00130612,-0.00803798,1.52501,0.00584289,0.0119149,1182,372,4.92298,34.39
-35,652,4.90686,-34.5547,-0.00852119,0.00165358,0.000969828,0.0017452,-0.00861281,1.47661,0.00640338,0.00969649,1189,372,4.90692,34.5547
-28,652,4.87354,-34.7203,-0.00876535,0.00241221,0.00158836,0.00263354,-0.00898668,1.43234,0.00703524,0.00785728,1196,372,4.87358,34.7203
-21,652,4.82068,-34.8821,-0.00865229,0.0035481,0.00212853,0.00390879,-0.00901298,1.40294,0.00765194,0.00775786,1203,372,4.82064,34.8821
-14,652,4.79443,-35.0322,-0.00842929,0.00489556,0.00273719,0.00543592,-0.00896965,1.37589,0.00840005,0.00921088,1210,372,4.79443,35.0322
-7,652,4.76624,-35.1695,-0.00831633,0.00651852,0.00334657,0.00723853,-0.00903633,1.35888,0.00941539,0.0116263,1217,372,4.76619,35.1695
0,652,4.73279,-35.2702,-0.00817697,0.00811028,0.00378443,0.00894667,-0.00901336,1.35329,0.0103692,0.0123729,1224,372,4.73279,35.2702
7,652,4.72217,-35.3352,-0.00760671,0.00987158,0.00393863,0.0107181,-0.00845325,1.35908,0.0110943,0.0132317,1231,372,4.72222,35.3352
14,652,4.71118,-35.4207,-0.00682401,0.0121424,0.00404004,0.0129671,-0.00764873,1.36943,0.0120338,0.0109365,1238,372,4.71118,35.4207
21,652,4.66968,-35.5054,-0.0058875,0.0147884,0.00459837,0.015765,-0.00686407,1.36153,0.0133975,0.0109419,1245,372,4.66966,35.5054
28,652,4.64868,-35.5961,-0.00484825,0.0171974,0.00505655,0.0183019,-0.00595273,1.35575,0.0145959,0.0106252,1252,372,4.64865,35.5961
35,652,4.61584,-35.6481,-0.00375567,0.0197407,0.00535135,0.0209021,-0.00491704,1.35709,0.0158304,0.0103813,1259,372,4.61585,35.6481
42,652,4.57825,-35.6662,-0.00260731,0.0227088,0.00592161,0.0240255,-0.00392394,1.35201,0.0174724,0.0115379,1266,372,4.57829,35.6662
49,652,4.55371,-35.6775,-0.00168578,0.0261853,0.0065855,0.027663,-0.00316348,1.35006,0.0195818,0.0137564,1273,372,4.55374,35.6775
56,652,4.51611,-35.6759,-0.00103342,0.0289037,0.00700059,0.0304598,-0.00258957,1.35206,0.0212225,0.0159819,1280,372,4.51607,35.6759
63,652,4.50391,-35.6973,-0.000699483,0.0316388,0.00745119,0.033273,-0.00233375,1.35489,0.0229994,0.0202674,1287,372,4.50392,35.6973
70,652,4.48596,-35.682,-0.000542552,0.0340131,0.00757092,0.0355991,-0.0021285,1.3643,0.0244731,0.017525,1294,372,4.48601,35.682
77,652,4.427,-35.6617,-0.000734253,0.035497,0.00707971,0.0368312,-0.00206852,1.38452,0.0252719,0.0153954,1301,372,4.427,35.6617
84,652,4.44397,-35.6281,-0.0013725,0.0365603,0.00650476,0.0376448,-0.00245695,1.4056,0.0259543,0.0124488,1308,372,4.44401,35.628
91,652,4.40381,-35.6104,-0.00211115,0.0370344,0.00558934,0.0378168,-0.00289357,1.43171,0.026229,0.0156549,1315,372,4.40385,35.6104
98,652,4.39392,-35.5339,-0.00242315,0.0371393,0.00445992,0.0376358,-0.00291969,1.45992,0.0261182,0.0132038,1322,372,4.3939,35.5339
105,652,4.37622,-35.4288,-0.00255935,0.0365687,0.00344237,0.0368692,-0.00285989,1.48371,0.0255861,0.0112146,1329,372,4.37628,35.4288
112,652,4.35193,-35.3146,-0.00306958,0.0354924,0.00231519,0.0356309,-0.00320808,1.51104,0.0248923,0.0102808,1336,372,4.35193,35.3146
119,652,4.31982,-35.2011,-0.00331709,0.0336272,0.00103845,0.0336564,-0.00334626,1.54272,0.0236321,0.0109389,1343,372,4.31977,35.2011
126,652,4.28149,-35.0702,-0.00321224,0.0313027,-0.000568366,0.0313121,-0.0032216,-1.55433,0.0220273,0.0130884,1350,372,4.28152,35.0702
133,652,4.22949,-34.9322,-0.00264128,0.0293397,-0.00155627,0.0294153,-0.00271683,-1.52229,0.0205757,0.0142381,1357,372,4.22955,34.9322
140,652,4.20447,-34.8014,-0.00179104,0.0272986,-0.00181356,0.0274112,-0.00190367,-1.50877,0.0189406,0.0105672,1364,372,4.20449,34.8014
147,652,4.19592,-34.6487,-0.000789461,0.0253302,-0.001893,0.0254667,-0.00092594,-1.49882,0.0172947,0.00872512,1371,372,4.19594,34.6487
154,652,4.16064,-34.4879,0.000371002,0.0232926,-0.00153809,0.0233954,0.000268253,-1.50409,0.0155083,0.0090834,1378,372,4.16069,34.4879
161,652,4.12183,-34.2956,0.0012221,0.0222228,-0.000675324,0.0222445,0.0012004,-1.53868,0.0144462,0.0111749,1385,372,4.12185,34.2956
168,652,4.08411,-34.0734,0.00195383,0.0203944,0.000306032,0.0203995,0.00194875,1.55421,0.0129989,0.0118625,1392,372,4.08409,34.0734
175,652,4.05725,-33.8595,0.00236497,0.0194984,0.0018432,0.0196944,0.00216892,1.46483,0.0124697,0.0119952,1399,372,4.05725,33.8595
182,652,4.02515,-33.6677,0.00232294,0.0191346,0.00376549,0.0199395,0.00151808,1.36022,0.012817,0.0177141,1406,372,4.02509,33.6677
189,652,4.02869,-33.4404,0.00221158,0.0181303,0.00447802,0.0193036,0.00103835,1.31456,0.0125373,0.0296536,1413,372,4.02872,33.4404
196,652,4.01526,-33.1845,0,0,0,0,0,0,0,-1,1420,372,4.01526,33.1845
203,652,3.93909,-32.9127,0,0,0,0,0,0,0,-1,1427,372,3.93908,32.9127
210,652,3.99182,-32.5555,0,0,0,0,0,0,0,-1,1434,372,3.9918,32.5555
217,652,3.90771,-32.3533,0,0,0,0,0,0,0,-1,1441,372,3.90776,32.3533
224,652,3.63794,-31.2791,0,0,0,0,0,0,0,-1,1448,372,3.63799,31.2791
231,652,3.83936,-30.4812,0,0,0,0,0,0,0,-1,1455,372,3.8393,30.4812
238,652,3.83765,-31.2734,0,0,0,0,0,0,0,-1,1462,372,3.83762,31.2734
245,652,3.72754,-31.0824,0,0,0,0,0,0,0,-1,1469,372,3.72759,31.0824
252,652,3.82739,-30.7293,0,0,0,0,0,0,0,-1,1476,372,3.82738,30.7293
259,652,3.34412,-29.9949,0,0,0,0,0,0,0,-1,1483,372,3.34408,29.9949
266,652,3.28284,-29.5712,0,0,0,0,0,0,0,-1,1490,372,3.28289,29.5712
273,652,3.46826,-29.4953,0,0,0,0,0,0,0,-1,1497,372,3.46825,29.4953
280,652,3.62817,-29.2885,0,0,0,0,0,0,0,-1,1504,372,3.62822,29.2885
287,652,-4.71191,-19.5709,0,0,0,0,0,0,0,-1,1511,372,-4.71192,19.5709
294,652,-3.52563,-20.1174,0,0,0,0,0,0,0,-1,1518,372,-3.52558,20.1174
301,652,-2.42944,-21.364,0,0,0,0,0,0,0,-1,1525,372,-2.4295,21.364
308,652,-1.33337,-22.6107,0,0,0,0,0,0,0,-1,1532,372,-1.33341,22.6107
315,652,2.32214,-25.9898,0,0,0,0,0,0,0,-1,1539,372,2.32213,25.9898
322,652,1.62671,-24.3525,0,0,0,0,0,0,0,-1,1546,372,1.62673,24.3525
329,652,3.6593,-22.1693,0,0,0,0,0,0,0,-1,1553,372,3.65935,22.1693
336,652,3.52173,-24.2133,0,0,0,0,0,0,0,-1,1560,372,3.52174,24.2133
343,652,4.85767,-24.4762,0,0,0,0,0,0,0,-1,1567,372,4.85772,24.4762
350,652,5.28394,-25.6715,0,0,0,0,0,0,0,-1,1574,372,5.28393,25.6715
357,652,0,0,0,0,0,0,0,0,0,-1,1581,372,0,0
364,652,0,0,0,0,0,0,0,0,0,-1,1588,372,0,0
371,652,0,0,0,0,0,0,0,0,0,-1,1595,372,0,0
378,652,0,0,0,0,0,0,0,0,0,-1,1602,372,0,0
385,652,0,0,0,0,0,0,0,0,0,-1,1609,372,0,0
392,652,0,0,0,0,0,0,0,0,0,-1,1616,372,0,0
399,652,0,0,0,0,0,0,0,0,0,-1,1623,372,0,0
406,652,0,0,0,0,0,0,0,0,0,-1,1630,372,0,0
413,652,0,0,0,0,0,0,0,0,0,-1,1637,372,0,0
420,652,0,0,0,0,0,0,0,0,0,-1,1644,372,0,0
427,652,0,0,0,0,0,0,0,0,0,-1,1651,372,0,0
434,652,0,0,0,0,0,0,0,0,0,-1,1658,372,0,0
441,652,0,0,0,0,0,0,0,0,0,-1,1665,372,0,0
448,652,0,0,0,0,0,0,0,0,0,-1,1672,372,0,0
455,652,0,0,0,0,0,0,0,0,0,-1,1679,372,0,0
462,652,0,0,0,0,0,0,0,0,0,-1,1686,372,0,0
469,652,0,0,0,0,0,0,0,0,0,-1,1693,372,0,0
476,652,0,0,0,0,0,0,0,0,0,-1,1700,372,0,0
483,652,0,0,0,0,0,0,0,0,0,-1,1707,372,0,0
490,652,0,0,0,0,0,0,0,0,0,-1,1714,372,0,0
497,652,0,0,0,0,0,0,0,0,0,-1,1721,372,0,0
504,652,0,0,0,0,0,0,0,0,0,-1,1728,372,0,0
511,652,0,0,0,0,0,0,0,0,0,-1,1735,372,0,0
518,652,0,0,0,0,0,0,0,0,0,-1,1742,372,0,0
525,652,0,0,0,0,0,0,0,0,0,-1,1749,372,0,0
532,652,0,0,0,0,0,0,0,0,0,-1,1756,372,0,0
539,652,0,0,0,0,0,0,0,0,0,-1,1763,372,0,0
546,652,0,0,0,0,0,0,0,0,0,-1,1770,372,0,0
553,652,0,0,0,0,0,0,0,0,0,-1,1777,372,0,0
560,652,0,0,0,0,0,0,0,0,0,-1,1784,372,0,0
567,652,0,0,0,0,0,0,0,0,0,-1,1791,372,0,0
574,652,0,0,0,0,0,0,0,0,0,-1,1798,372,0,0
581,652,0,0,0,0,0,0,0,0,0,-1,1805,372,0,0
588,652,0,0,0,0,0,0,0,0,0,-1,1812,372,0,0
595,652,0,0,0,0,0,0,0,0,0,-1,1819,372,0,0
602,652,0,0,0,0,0,0,0,0,0,-1,1826,372,0,0
609,652,0,0,0,0,0,0,0,0,0,-1,1833,372,0,0
616,652,0,0,0,0,0,0,0,0,0,-1,1840,372,0,0
623,652,0,0,0,0,0,0,0,0,0,-1,1847,372,0,0
630,652,0,0,0,0,0,0,0,0,0,-1,1854,372,0,0
637,652,0,0,0,0,0,0,0,0,0,-1,1861,372,0,0
644,652,0,0,0,0,0,0,0,0,0,-1,1868,372,0,0
651,652,0,0,0,0,0,0,0,0,0,-1,1875,372,0,0
658,652,0,0,0,0,0,0,0,0,0,-1,1882,372,0,0
665,652,0,0,0,0,0,0,0,0,0,-1,1889,372,0,0
672,652,0,0,0,0,0,0,0,0,0,-1,1896,372,0,0
679,652,0,0,0,0,0,0,0,0,0,-1,1903,372,0,0
686,652,0,0,0,0,0,0,0,0,0,-1,1910,372,0,0
693,652,0,0,0,0,0,0,0,0,0,-1,1917,372,0,0
700,652,0,0,0,0,0,0,0,0,0,-1,1924,372,0,0
707,652,0,0,0,0,0,0,0,0,0,-1,1931,372,0,0
714,652,0,0,0,0,0,0,0,0,0,-1,1938,372,0,0
721,652,0,0,0,0,0,0,0,0,0,-1,1945,372,0,0
728,652,0,0,0,0,0,0,0,0,0,-1,1952,372,0,0
735,652,0,0,0,0,0,0,0,0,0,-1,1959,372,0,0
742,652,0,0,0,0,0,0,0,0,0,-1,1966,372,0,0
749,652,0,0,0,0,0,0,0,0,0,-1,1973,372,0,0
756,652,0,0,0,0,0,0,0,0,0,-1,1980,372,0,0
763,652,0,0,0,0,0,0,0,0,0,-1,1987,372,0,0
770,652,0,0,0,0,0,0,0,0,0,-1,1994,372,0,0
777,652,0,0,0,0,0,0,0,0,0,-1,2001,372,0,0
784,652,0,0,0,0,0,0,0,0,0,-1,2008,372,0,0
791,652,0,0,0,0,0,0,0,0,0,-1,2015,372,0,0
798,652,0,0,0,0,0,0,0,0,0,-1,2022,372,0,0
805,652,0,0,0,0,0,0,0,0,0,-1,2029,372,0,0
812,652,0,0,0,0,0,0,0,0,0,-1,2036,372,0,0
-700,645,0,0,0,0,0,0,0,0,0,-1,524,379,0,0
-693,645,0,0,0,0,0,0,0,0,0,-1,531,379,0,0
-686,645,0,0,0,0,0,0,0,0,0,-1,538,379,0,0
-679,645,0,0,0,0,0,0,0,0,0,-1,545,379,0,0
-672,645,0,0,0,0,0,0,0,0,0,-1,552,379,0,0
-665,645,0,0,0,0,0,0,0,0,0,-1,559,379,0,0
-658,645,0,0,0,0,0,0,0,0,0,-1,566,379,0,0
-651,645,0,0,0,0,0,0,0,0,0,-1,573,379,0,0
-644,645,0,0,0,0,0,0,0,0,0,-1,580,379,0,0
-637,645,0,0,0,0,0,0,0,0,0,-1,587,379,0,0
-630,645,0,0,0,0,0,0,0,0,0,-1,594,379,0,0
-623,645,0,0,0,0,0,0,0,0,0,-1,601,379,0,0
-616,645,0,0,0,0,0,0,0,0,0,-1,608,379,0,0
-609,645,0,0,0,0,0,0,0,0,0,-1,615,379,0,0
-602,645,0,0,0,0,0,0,0,0,0,-1,622,379,0,0
-595,645,0,0,0,0,0,0,0,0,0,-1,629,379,0,0
-588,645,0,0,0,0,0,0,0,0,0,-1,636,379,0,0
-581,645,0,0,0,0,0,0,0,0,0,-1,643,379,0,0
-574,645,0,0,0,0,0,0,0,0,0,-1,650,379,0,0
-567,645,0,0,0,0,0,0,0,0,0,-1,657,379,0,0
-560,645,0,0,0,0,0,0,0,0,0,-1,664,379,0,0
-553,645,0,0,0,0,0,0,0,0,0,-1,671,379,0,0
-546,645,0,0,0,0,0,0,0,0,0,-1,678,379,0,0
-539,645,0,0,0,0,0,0,0,0,0,-1,685,379,0,0
-532,645,0,0,0,0,0,0,0,0,0,-1,692,379,0,0
-525,645,0,0,0,0,0,0,0,0,0,-1,699,379,0,0
-518,645,0,0,0,0,0,0,0,0,0,-1,706,379,0,0
-511,645,0,0,0,0,0,0,0,0,0,-1,713,379,0,0
-504,645,0,0,0,0,0,0,0,0,0,-1,720,379,0,0
-497,645,0,0,0,0,0,0,0,0,0,-1,727,379,0,0
-490,645,0,0,0,0,0,0,0,0,0,-1,734,379,0,0
-483,645,0,0,0,0,0,0,0,0,0,-1,741,379,0,0
-476,645,0,0,0,0,0,0,0,0,0,-1,748,379,0,0
-469,645,0,0,0,0,0,0,0,0,0,-1,755,379,0,0
-462,645,0,0,0,0,0,0,0,0,0,-1,762,379,0,0
-455,645,0,0,0,0,0,0,0,0,0,-1,769,379,0,0
-448,645,0,0,0,0,0,0,0,0,0,-1,776,379,0,0
-441,645,0,0,0,0,0,0,0,0,0,-1,783,379,0,0
-434,645,0,0,0,0,0,0,0,0,0,-1,790,379,0,0
-427,645,0,0,0,0,0,0,0,0,0,-1,797,379,0,0
-420,645,0,0,0,0,0,0,0,0,0,-1,804,379,0,0
-413,645,0,0,0,0,0,0,0,0,0,-1,811,379,0,0
-406,645,0,0,0,0,0,0,0,0,0,-1,818,379,0,0
-399,645,0,0,0,0,0,0,0,0,0,-1,825,379,0,0
-392,645,0,0,0,0,0,0,0,0,0,-1,832,379,0,0
-385,645,0,0,0,0,0,0,0,0,0,-1,839,379,0,0
-378,645,0,0,0,0,0,0,0,0,0,-1,846,379,0,0
-371,645,0,0,0,0,0,0,0,0,0,-1,853,379,0,0
-364,645,0,0,0,0,0,0,0,0,0,-1,860,379,0,0
-357,645,0,0,0,0,0,0,0,0,0,-1,867,379,0,0
-350,645,0,0,0,0,0,0,0,0,0,-1,874,379,0,0
-343,645,0,0,0,0,0,0,0,0,0,-1,881,379,0,0
-336,645,0,0,0,0,0,0,0,0,0,-1,888,379,0,0
-329,645,0,0,0,0,0,0,0,0,0,-1,895,379,0,0
-322,645,0,0,0,0,0,0,0,0,0,-1,902,379,0,0
-315,645,0,0,0,0,0,0,0,0,0,-1,909,379,0,0
-308,645,0,0,0,0,0,0,0,0,0,-1,916,379,0,0
-301,645,0,0,0,0,0,0,0,0,0,-1,923,379,0,0
-294,645,0,0,0,0,0,0,0,0,0,-1,930,379,0,0
-287,645,0,0,0,0,0,0,0,0,0,-1,937,379,0,0
-280,645,0,0,0,0,0,0,0,0,0,-1,944,379,0,0
-273,645,0,0,0,0,0,0,0,0,0,-1,951,379,0,0
-266,645,0,0,0,0,0,0,0,0,0,-1,958,379,0,0
-259,645,0,0,0,0,0,0,0,0,0,-1,965,379,0,0
-252,645,2.95691,-26.9133,0,0,0,0,0,0,0,-1,972,379,2.9569,26.9133
-245,645,2.73169,-27.0215,0,0,0,0,0,0,0,-1,979,379,2.73172,27.0215
-238,645,2.6665,-26.9464,0,0,0,0,0,0,0,-1,986,379,2.66649,26.9464
-231,645,1.89801,-26.437,0,0,0,0,0,0,0,-1,993,379,1.89804,26.437
-224,645,9.92029,-21.3227,0,0,0,0,0,0,0,-1,1000,379,9.92026,21.3227
-217,645,8.09961,-19.0991,0,0,0,0,0,0,0,-1,1007,379,8.0996,19.0991
-210,645,3.58685,-26.664,0,0,0,0,0,0,0,-1,1014,379,3.58685,26.664
-203,645,3.70166,-25.3203,0,0,0,0,0,0,0,-1,1021,379,3.70166,25.3203
-196,645,3.98962,-24.5246,0,0,0,0,0,0,0,-1,1028,379,3.98963,24.5246
-189,645,3.8988,-23.8797,0,0,0,0,0,0,0,-1,1035,379,3.89886,23.8797
-182,645,3.80847,-27.3266,0,0,0,0,0,0,0,-1,1042,379,3.80845,27.3266
-175,645,5.0282,-29.914,0,0,0,0,0,0,0,-1,1049,379,5.0282,29.914
-168,645,4.31177,-29.6427,0,0,0,0,0,0,0,-1,1056,379,4.31178,29.6427
-161,645,4.65649,-30.1205,0.023767,0.00573364,-0.00116692,0.0238422,0.00565845,-0.0643511,0.0143845,0.0466738,1063,379,4.65653,30.1204
-154,645,5.32678,-29.9003,0.0204442,0.00578214,-0.000410269,0.0204557,0.00577067,-0.0279525,0.0121782,0.0425633,1070,379,5.32683,29.9003
-147,645,5.35925,-30.2833,0.0167831,0.00635141,0.000109153,0.0167842,0.00635027,0.010462,0.00978552,0.039669,1077,379,5.35926,30.2833
-140,645,5.18884,-30.5494,0.0131718,0.00705775,0.000348341,0.0131916,0.00703797,0.0567289,0.00762188,0.0427296,1084,379,5.18887,30.5494
-133,645,4.99316,-30.8864,0,0,0,0,0,0,0,-1,1091,379,4.99318,30.8864
-126,645,5.10901,-31.205,0.00645059,0.00888308,0.000370658,0.00893831,0.00639537,1.42289,0.00531791,0.0380863,1098,379,5.10906,31.205
-119,645,5.08691,-31.6195,0.00395659,0.00978736,0.000433544,0.00981942,0.00392453,1.49698,0.00570717,0.0213118,1105,379,5.08697,31.6195
-112,645,5.04773,-31.9566,0.00183807,0.0103517,0.000221064,0.0103574,0.00183234,1.54485,0.00638244,0.0143687,1112,379,5.04774,31.9566
-105,645,5.01477,-32.1936,-0.00174437,0.0114396,-5.28238e-05,0.0114398,-0.00174459,-1.56679,0.00826963,0.0209538,1119,379,5.01474,32.1936
-98,645,4.97607,-32.3929,-0.00346904,0.0106836,-0.000531083,0.0107035,-0.00348894,-1.53334,0.00853959,0.0332062,1126,379,4.97603,32.3929
-91,645,5.02576,-32.6844,-0.00350329,0.0101992,-0.000590842,0.0102247,-0.00352872,-1.52778,0.00824824,0.045423,1133,379,5.02578,32.6844
-84,645,5.05884,-33.0358,-0.00320633,0.00890311,-0.000823083,0.0089588,-0.00326202,-1.50324,0.00730676,0.0489082,1140,379,5.0589,33.0358
-77,645,4.9613,-33.412,-0.00320798,0.00793217,-0.000717217,0.00797815,-0.00325396,-1.50677,0.00667332,0.0301191,1147,379,4.96132,33.412
-70,645,4.88367,-33.6177,-0.00332566,0.00758524,-0.000649897,0.00762381,-0.00336423,-1.51151,0.0065009,0.0132346,1154,379,4.88364,33.6177
-63,645,4.84631,-33.8127,-0.00414076,0.00620077,-0.000634343,0.00623953,-0.00417953,-1.50976,0.00605451,0.0110616,1161,379,4.84634,33.8127
-56,645,4.81201,-34.0072,-0.00489675,0.00413695,-0.000678927,0.00418769,-0.00494749,-1.4962,0.00528028,0.0123398,1168,379,4.81207,34.0072
-49,645,4.80347,-34.2108,-0.00483943,0.00242815,-0.00017132,0.00243219,-0.00484347,-1.54724,0.00427681,0.0100695,1175,379,4.80341,34.2108
-42,645,4.78577,-34.4016,-0.0048933,0.00147706,1.36834e-05,0.00147709,-0.00489333,1.56865,0.00385021,0.00980459,1182,379,4.78572,34.4016
-35,645,4.75696,-34.5915,-0.00512695,0.00140792,0.000360045,0.0014277,-0.00514673,1.51592,0.00399306,0.0110889,1189,379,4.75693,34.5915
-28,645,4.70959,-34.7685,-0.00520605,0.00164607,0.0007268,0.00172231,-0.0052823,1.46628,0.00421462,0.00903994,1196,379,4.70959,34.7685
-21,645,4.66809,-34.9069,-0.00506397,0.00210672,0.00102328,0.00224989,-0.00520713,1.43179,0.00441672,0.0103876,1203,379,4.66806,34.9069
-14,645,4.67004,-35.058,-0.00484084,0.00268094,0.00136475,0.00292091,-0.0050808,1.39675,0.00467555,0.00956987,1210,379,4.67,35.058
-7,645,4.6709,-35.2043,-0.00465913,0.00341387,0.00171605,0.0037635,-0.00500876,1.36981,0.00508165,0.0127901,1217,379,4.67093,35.2043
0,645,4.64124,-35.3074,-0.00450068,0.00422719,0.00197156,0.00465188,-0.00492537,1.35863,0.00553018,0.0253532,1224,379,4.64127,35.3074
7,645,4.6123,-35.3852,-0.00413665,0.00520839,0.00209723,0.00565747,-0.00458573,1.35985,0.00592469,0.0162186,1231,379,4.61225,35.3852
14,645,4.60742,-35.4523,-0.00368503,0.00640708,0.00219539,0.00686397,-0.00414192,1.36561,0.00641871,0.0155584,1238,379,4.60737,35.4523
21,645,4.57288,-35.5362,-0.00315907,0.00803881,0.00262186,0.00862229,-0.00374255,1.35182,0.00732181,0.0112226,1245,379,4.57287,35.5362
28,645,4.57178,-35.6075,-0.00257843,0.0095926,0.00300936,0.010296,-0.00328186,1.34117,0.00818043,0.00998209,1252,379,4.57172,35.6075
35,645,4.56091,-35.6653,-0.00201163,0.0112805,0.0032575,0.0120359,-0.00276701,1.34293,0.00908781,0.0090957,1259,379,4.56087,35.6653
42,645,4.54224,-35.7151,-0.00141815,0.0132806,0.00366849,0.0141453,-0.00228286,1.33931,0.010276,0.00937465,1266,379,4.54222,35.7151
49,645,4.55286,-35.7299,-0.000995244,0.0156308,0.00415468,0.0166112,-0.00197564,1.33906,0.011788,0.0131209,1273,379,4.55282,35.7298
56,645,4.54346,-35.7119,-0.00073547,0.0175983,0.00440745,0.0186028,-0.00173998,1.34671,0.0130207,0.0132864,1280,379,4.54344,35.712
63,645,4.52368,-35.7213,-0.000589112,0.0193753,0.00470438,0.0204283,-0.00164211,1.35059,0.0141979,0.0125375,1287,379,4.52368,35.7213
70,645,4.48694,-35.7097,-0.000507371,0.0209431,0.00477529,0.0219581,-0.00152241,1.36135,0.0151717,0.0155722,1294,379,4.48692,35.7097
77,645,4.49146,-35.6799,-0.000648693,0.0218766,0.00440363,0.0227069,-0.00147898,1.38444,0.0156542,0.0186555,1301,379,4.49144,35.6799
84,645,4.51062,-35.6279,-0.00103283,0.0225121,0.00396874,0.0231631,-0.0016838,1.40822,0.0160328,0.0134615,1308,379,4.51058,35.6279
91,645,4.47656,-35.6042,-0.00146337,0.0227325,0.00332553,0.0231812,-0.00191211,1.43667,0.0161294,0.0148582,1315,379,4.47655,35.6042
98,645,4.4624,-35.5235,-0.00159029,0.022755,0.00260119,0.0230298,-0.00186511,1.46553,0.0160111,0.0132891,1322,379,4.46238,35.5235
105,645,4.44861,-35.4332,-0.00150381,0.0222804,0.00195814,0.0224405,-0.00166394,1.4892,0.0155447,0.0104145,1329,379,4.44862,35.4332
112,645,4.43005,-35.3409,-0.00164731,0.0215305,0.00127966,0.021601,-0.00171774,1.51581,0.015006,0.00914627,1336,379,4.43011,35.341
119,645,4.4187,-35.2305,-0.00165688,0.0204887,0.000595789,0.0205047,-0.0016729,1.54392,0.0142602,0.00889008,1343,379,4.41865,35.2305
126,645,4.38232,-35.0962,-0.00147746,0.0190431,-0.000296943,0.0190474,-0.00148175,-1.55633,0.0132199,0.0117038,1350,379,4.38232,35.0962
133,645,4.36829,-34.955,-0.00106134,0.0178847,-0.000812388,0.0179195,-0.00109611,-1.52802,0.0123279,0.0133017,1357,379,4.36827,34.955
140,645,4.36877,-34.8199,-0.000488741,0.0167566,-0.000841117,0.0167975,-0.000529668,-1.52218,0.011379,0.0129879,1364,379,4.3688,34.8199
147,645,4.34399,-34.6729,0.000115789,0.0158005,-0.000783661,0.0158396,7.67317e-05,-1.521,0.0105342,0.0131686,1371,379,4.34403,34.6728
154,645,4.33118,-34.5129,0.000725444,0.0147776,-0.000542099,0.0147985,0.000704561,-1.5323,0.00963941,0.0120813,1378,379,4.33122,34.5129
161,645,4.30383,-34.3352,0.00109574,0.0144268,2.31905e-05,0.0144268,0.0010957,1.56906,0.00927424,0.0149924,1385,379,4.3038,34.3352
168,645,4.26501,-34.1345,0.00124783,0.013758,0.000578791,0.0137847,0.00122111,1.52466,0.00881101,0.0165299,1392,379,4.265,34.1345
175,645,4.2655,-33.9214,0.00118702,0.0134466,0.00143288,0.0136119,0.00102177,1.45598,0.00875388,0.0137791,1399,379,4.26549,33.9214
182,645,4.24634,-33.6965,0.00106307,0.0132916,0.00264357,0.0138386,0.000516055,1.36675,0.00905863,0.01055,1406,379,4.24637,33.6965
189,645,4.22363,-33.441,0.000896086,0.0126825,0.00318501,0.0134881,9.04766e-05,1.32305,0.00896209,0.0114141,1413,379,4.22368,33.441
196,645,4.17346,-33.2212,0.00030125,0.0118286,0.0035187,0.0128178,-0.000687941,1.29675,0.00878349,0.0113416,1420,379,4.17348,33.2212
203,645,4.12415,-32.9438,-0.00109611,0.00983908,0.00382603,0.0110448,-0.00230183,1.26551,0.00823837,0.0115258,1427,379,4.12419,32.9438
210,645,4.16333,-32.6077,-0.00259724,0.00903307,0.00338506,0.00994655,-0.00351073,1.30722,0.00806029,0.0204851,1434,379,4.1633,32.6077
217,645,4.14709,-32.4067,-0.00271102,0.00974151,0.00329904,0.0105615,-0.00353103,1.32717,0.00846711,0.0397244,1441,379,4.14714,32.4067
224,645,3.95569,-32.315,0,0,0,0,0,0,0,-1,1448,379,3.95567,32.315
231,645,3.9917,-31.7996,0,0,0,0,0,0,0,-1,1455,379,3.99175,31.7996
238,645,3.96887,-31.4803,-0.00256292,0.0149836,0.00417328,0.0159256,-0.00350493,1.34879,0.0119579,0.0267168,1462,379,3.96889,31.4803
245,645,3.95996,-31.1688,-0.00364909,0.0168276,0.00396391,0.0175682,-0.00438965,1.3861,0.0134169,0.0169052,1469,379,3.95996,31.1688
252,645,3.99438,-30.7164,-0.00413812,0.0187905,0.00408801,0.0194976,-0.00484518,1.39953,0.0148788,0.0286186,1476,379,3.99438,30.7164
259,645,3.85059,-30.2242,-0.00469687,0.0208969,0.00423962,0.021581,-0.00538089,1.41084,0.0164765,0.0456131,1483,379,3.85056,30.2242
266,645,3.71606,-29.918,-0.00524368,0.023135,0.00454174,0.0238441,-0.00595282,1.41591,0.0182077,0.0333523,1490,379,3.71606,29.918
273,645,3.81982,-29.6839,-0.00593865,0.0253116,0.00483094,0.0260413,-0.00666841,1.42087,0.0199585,0.0225051,1497,379,3.81978,29.6839
280,645,3.94507,-29.2717,0,0,0,0,0,0,0,-1,1504,379,3.9451,29.2717
287,645,4.12134,-28.4853,0,0,0,0,0,0,0,-1,1511,379,4.12133,28.4853
294,645,2.95325,-28.9672,0,0,0,0,0,0,0,-1,1518,379,2.95322,28.9672
301,645,0.0356445,-19.925,0,0,0,0,0,0,0,-1,1525,379,0.0356305,19.925
308,645,4.37341,-25.1157,0,0,0,0,0,0,0,-1,1532,379,4.37337,25.1157
315,645,3.73743,-23.8562,0,0,0,0,0,0,0,-1,1539,379,3.73748,23.8562
322,645,4.29028,-27.4981,0,0,0,0,0,0,0,-1,1546,379,4.29029,27.4981
329,645,3.61487,-26.396,0,0,0,0,0,0,0,-1,1553,379,3.61483,26.396
336,645,5.78894,-25.6707,0,0,0,0,0,0,0,-1,1560,379,5.78891,25.6707
343,645,4.77185,-23.7191,0,0,0,0,0,0,0,-1,1567,379,4.77184,23.7191
350,645,4.76404,-22.1987,0,0,0,0,0,0,0,-1,1574,379,4.76399,22.1987
357,645,4.61316,-21.967,0,0,0,0,0,0,0,-1,1581,379,4.61316,21.967
364,645,-0.0794678,-3.22021,0,0,0,0,0,0,0,-1,1588,379,-0.0794987,3.22021
371,645,0,0,0,0,0,0,0,0,0,-1,1595,379,0,0
378,645,0,0,0,0,0,0,0,0,0,-1,1602,379,0,0
385,645,0,0,0,0,0,0,0,0,0,-1,1609,379,0,0
392,645,0,0,0,0,0,0,0,0,0,-1,1616,379,0,0
399,645,0,0,0,0,0,0,0,0,0,-1,1623,379,0,0
406,645,0,0,0,0,0,0,0,0,0,-1,1630,379,0,0
413,645,0,0,0,0,0,0,0,0,0,-1,1637,379,0,0
420,645,0,0,0,0,0,0,0,0,0,-1,1644,379,0,0
427,645,0,0,0,0,0,0,0,0,0,-1,1651,379,0,0
434,645,0,0,0,0,0,0,0,0,0,-1,1658,379,0,0
441,645,0,0,0,0,0,0,0,0,0,-1,1665,379,0,0
448,645,0,0,0,0,0,0,0,0,0,-1,1672,379,0,0
455,645,0,0,0,0,0,0,0,0,0,-1,1679,379,0,0
462,645,0,0,0,0,0,0,0,0,0,-1,1686,379,0,0
469,645,0,0,0,0,0,0,0,0,0,-1,1693,379,0,0
476,645,0,0,0,0,0,0,0,0,0,-1,1700,379,0,0
483,645,0,0,0,0,0,0,0,0,0,-1,1707,379,0,0
490,645,0,0,0,0,0,0,0,0,0,-1,1714,379,0,0
497,645,0,0,0,0,0,0,0,0,0,-1,1721,379,0,0
504,645,0,0,0,0,0,0,0,0,0,-1,1728,379,0,0
511,645,0,0,0,0,0,0,0,0,0,-1,1735,379,0,0
518,645,0,0,0,0,0,0,0,0,0,-1,1742,379,0,0
525,645,0,0,0,0,0,0,0,0,0,-1,1749,379,0,0
532,645,0,0,0,0,0,0,0,0,0,-1,1756,379,0,0
539,645,0,0,0,0,0,0,0,0,0,-1,1763,379,0,0
546,645,0,0,0,0,0,0,0,0,0,-1,1770,379,0,0
553,645,0,0,0,0,0,0,0,0,0,-1,1777,379,0,0
560,645,0,0,0,0,0,0,0,0,0,-1,1784,379,0,0
567,645,0,0,0,0,0,0,0,0,0,-1,1791,379,0,0
574,645,0,0,0,0,0,0,0,0,0,-1,1798,379,0,0
581,645,0,0,0,0,0,0,0,0,0,-1,1805,379,0,0
588,645,0,0,0,0,0,0,0,0,0,-1,1812,379,0,0
595,645,0,0,0,0,0,0,0,0,0,-1,1819,379,0,0
602,645,0,0,0,0,0,0,0,0,0,-1,1826,379,0,0
609,645,0,0,0,0,0,0,0,0,0,-1,1833,379,0,0
616,645,0,0,0,0,0,0,0,0,0,-1,1840,379,0,0
623,645,0,0,0,0,0,0,0,0,0,-1,1847,379,0,0
630,645,0,0,0,0,0,0,0,0,0,-1,1854,379,0,0
637,645,0,0,0,0,0,0,0,0,0,-1,1861,379,0,0
644,645,0,0,0,0,0,0,0,0,0,-1,1868,379,0,0
651,645,0,0,0,0,0,0,0,0,0,-1,1875,379,0,0
658,645,0,0,0,0,0,0,0,0,0,-1,1882,379,0,0
665,645,0,0,0,0,0,0,0,0,0,-1,1889,379,0,0
672,645,0,0,0,0,0,0,0,0,0,-1,1896,379,0,0
679,645,0,0,0,0,0,0,0,0,0,-1,1903,379,0,0
686,645,0,0,0,0,0,0,0,0,0,-1,1910,379,0,0
693,645,0,0,0,0,0,0,0,0,0,-1,1917,379,0,0
700,645,0,0,0,0,0,0,0,0,0,-1,1924,379,0,0
707,645,0,0,0,0,0,0,0,0,0,-1,1931,379,0,0
714,645,0,0,0,0,0,0,0,0,0,-1,1938,379,0,0
721,645,0,0,0,0,0,0,0,0,0,-1,1945,379,0,0
728,645,0,0,0,0,0,0,0,0,0,-1,1952,379,0,0
735,645,0,0,0,0,0,0,0,0,0,-1,1959,379,0,0
742,645,0,0,0,0,0,0,0,0,0,-1,1966,379,0,0
749,645,0,0,0,0,0,0,0,0,0,-1,1973,379,0,0
756,645,0,0,0,0,0,0,0,0,0,-1,1980,379,0,0
763,645,0,0,0,0,0,0,0,0,0,-1,1987,379,0,0
770,645,0,0,0,0,0,0,0,0,0,-1,1994,379,0,0
777,645,0,0,0,0,0,0,0,0,0,-1,2001,379,0,0
784,645,0,0,0,0,0,0,0,0,0,-1,2008,379,0,0
791,645,0,0,0,0,0,0,0,0,0,-1,2015,379,0,0
798,645,0,0,0,0,0,0,0,0,0,-1,2022,379,0,0
805,645,0,0,0,0,0,0,0,0,0,-1,2029,379,0,0
812,645,0,0,0,0,0,0,0,0,0,-1,2036,379,0,0
-700,638,0,0,0,0,0,0,0,0,0,-1,524,386,0,0
-693,638,0,0,0,0,0,0,0,0,0,-1,531,386,0,0
-686,638,0,0,0,0,0,0,0,0,0,-1,538,386,0,0
-679,638,0,0,0,0,0,0,0,0,0,-1,545,386,0,0
-672,638,0,0,0,0,0,0,0,0,0,-1,552,386,0,0
-665,638,0,0,0,0,0,0,0,0,0,-1,559,386,0,0
-658,638,0,0,0,0,0,0,0,0,0,-1,566,386,0,0
-651,638,0,0,0,0,0,0,0,0,0,-1,573,386,0,0
-644,638,0,0,0,0,0,0,0,0,0,-1,580,386,0,0
-637,638,0,0,0,0,0,0,0,0,0,-1,587,386,0,0
-630,638,0,0,0,0,0,0,0,0,0,-1,594,386,0,0
-623,638,0,0,0,0,0,0,0,0,0,-1,601,386,0,0
-616,638,0,0,0,0,0,0,0,0,0,-1,608,386,0,0
-609,638,0,0,0,0,0,0,0,0,0,-1,615,386,0,0
-602,638,0,0,0,0,0,0,0,0,0,-1,622,386,0,0
-595,638,0,0,0,0,0,0,0,0,0,-1,629,386,0,0
-588,638,0,0,0,0,0,0,0,0,0,-1,636,386,0,0
-581,638,0,0,0,0,0,0,0,0,0,-1,643,386,0,0
-574,638,0,0,0,0,0,0,0,0,0,-1,650,386,0,0
-567,638,0,0,0,0,0,0,0,0,0,-1,657,386,0,0
-560,638,0,0,0,0,0,0,0,0,0,-1,664,386,0,0
-553,638,0,0,0,0,0,0,0,0,0,-1,671,386,0,0
-546,638,0,0,0,0,0,0,0,0,0,-1,678,386,0,0
-539,638,0,0,0,0,0,0,0,0,0,-1,685,386,0,0
-532,638,0,0,0,0,0,0,0,0,0,-1,692,386,0,0
-525,638,0,0,0,0,0,0,0,0,0,-1,699,386,0,0
-518,638,0,0,0,0,0,0,0,0,0,-1,706,386,0,0
-511,638,0,0,0,0,0,0,0,0,0,-1,713,386,0,0
-504,638,0,0,0,0,0,0,0,0,0,-1,720,386,0,0
-497,638,0,0,0,0,0,0,0,0,0,-1,727,386,0,0
-490,638,0,0,0,0,0,0,0,0,0,-1,734,386,0,0
-483,638,0,0,0,0,0,0,0,0,0,-1,741,386,0,0
-476,638,0,0,0,0,0,0,0,0,0,-1,748,386,0,0
-469,638,0,0,0,0,0,0,0,0,0,-1,755,386,0,0
-462,638,0,0,0,0,0,0,0,0,0,-1,762,386,0,0
-455,638,0,0,0,0,0,0,0,0,0,-1,769,386,0,0
-448,638,0,0,0,0,0,0,0,0,0,-1,776,386,0,0
-441,638,0,0,0,0,0,0,0,0,0,-1,783,386,0,0
-434,638,0,0,0,0,0,0,0,0,0,-1,790,386,0,0
-427,638,0,0,0,0,0,0,0,0,0,-1,797,386,0,0
-420,638,0,0,0,0,0,0,0,0,0,-1,804,386,0,0
-413,638,0,0,0,0,0,0,0,0,0,-1,811,386,0,0
-406,638,0,0,0,0,0,0,0,0,0,-1,818,386,0,0
-399,638,0,0,0,0,0,0,0,0,0,-1,825,386,0,0
-392,638,0,0,0,0,0,0,0,0,0,-1,832,386,0,0
-385,638,0,0,0,0,0,0,0,0,0,-1,839,386,0,0
-378,638,0,0,0,0,0,0,0,0,0,-1,846,386,0,0
-371,638,0,0,0,0,0,0,0,0,0,-1,853,386,0,0
-364,638,0,0,0,0,0,0,0,0,0,-1,860,386,0,0
-357,638,0,0,0,0,0,0,0,0,0,-1,867,386,0,0
-350,638,0,0,0,0,0,0,0,0,0,-1,874,386,0,0
-343,638,0,0,0,0,0,0,0,0,0,-1,881,386,0,0
-336,638,0,0,0,0,0,0,0,0,0,-1,888,386,0,0
-329,638,0,0,0,0,0,0,0,0,0,-1,895,386,0,0
-322,638,0,0,0,0,0,0,0,0,0,-1,902,386,0,0
-315,638,0,0,0,0,0,0,0,0,0,-1,909,386,0,0
-308,638,0,0,0,0,0,0,0,0,0,-1,916,386,0,0
-301,638,0,0,0,0,0,0,0,0,0,-1,923,386,0,0
-294,638,0,0,0,0,0,0,0,0,0,-1,930,386,0,0
-287,638,0,0,0,0,0,0,0,0,0,-1,937,386,0,0
-280,638,0,0,0,0,0,0,0,0,0,-1,944,386,0,0
-273,638,0,0,0,0,0,0,0,0,0,-1,951,386,0,0
-266,638,5.34705,-26.6979,0,0,0,0,0,0,0,-1,958,386,5.34704,26.6979
-259,638,7.30426,-26.7659,0,0,0,0,0,0,0,-1,965,386,7.30423,26.7659
-252,638,9.31195,-27.1175,0,0,0,0,0,0,0,-1,972,386,9.31197,27.1175
-245,638,3.35309,-26.4681,0,0,0,0,0,0,0,-1,979,386,3.35311,26.4681
-238,638,2.93518,-26.3649,0,0,0,0,0,0,0,-1,986,386,2.93516,26.3649
-231,638,2.36829,-26.0088,0,0,0,0,0,0,0,-1,993,386,2.3683,26.0088
-224,638,1.80823,-25.8195,0,0,0,0,0,0,0,-1,1000,386,1.8082,25.8196
-217,638,3.34961,-27.6036,0,0,0,0,0,0,0,-1,1007,386,3.3496,27.6036
-210,638,3.4826,-26.5204,0,0,0,0,0,0,0,-1,1014,386,3.48262,26.5204
-203,638,3.61267,-25.3666,0,0,0,0,0,0,0,-1,1021,386,3.61262,25.3666
-196,638,3.92346,-24.3737,0,0,0,0,0,0,0,-1,1028,386,3.92344,24.3737
-189,638,4.1333,-23.6895,0,0,0,0,0,0,0,-1,1035,386,4.13334,23.6895
-182,638,4.84229,-28.485,0,0,0,0,0,0,0,-1,1042,386,4.8423,28.485
-175,638,4.90649,-29.1468,0.017031,0.00918206,-0.00403206,0.0187332,0.00747991,-0.399459,0.0108885,0.0471265,1049,386,4.90649,29.1468
-168,638,4.96533,-29.4961,0.0160698,0.00757744,-0.00304582,0.0170492,0.006598,-0.311125,0.00992681,0.0394057,1056,386,4.96534,29.4961
-161,638,4.98779,-29.886,0.0145994,0.00677339,-0.00220834,0.0151796,0.00619325,-0.256899,0.00881324,0.0373203,1063,386,4.98779,29.886
-154,638,5.01538,-30.1072,0.0127286,0.00636638,-0.00151831,0.0130723,0.00602262,-0.222659,0.00755507,0.0330364,1070,386,5.01538,30.1072
-147,638,4.96997,-30.3422,0.010516,0.00640151,-0.000977,0.0107362,0.0061813,-0.221685,0.00622222,0.0263255,1077,386,4.96997,30.3422
-140,638,4.93835,-30.6861,0.00833843,0.0065623,-0.000678626,0.00856804,0.00633269,-0.326252,0.00513184,0.022592,1084,386,4.93838,30.6861
-133,638,4.90405,-31.1578,0.00613511,0.00698236,-0.000490443,0.0072068,0.00591066,-1.14161,0.00443606,0.0211272,1091,386,4.90407,31.1578
-126,638,4.88062,-31.4402,0.0040429,0.00742583,-0.000407906,0.00747432,0.00399441,-1.45248,0.00431871,0.0185579,1098,386,4.88065,31.4403
-119,638,4.83667,-31.7488,0.00246854,0.00803006,-0.000233139,0.00803982,0.00245878,-1.52897,0.00475703,0.017029,1105,386,4.83673,31.7488
-112,638,4.81958,-32.0624,0.00109175,0.00837234,-0.000311333,0.00838563,0.00107846,-1.52814,0.00526786,0.0149514,1112,386,4.81963,32.0624
-105,638,4.7821,-32.3554,-0.00136679,0.00906255,-0.000447968,0.00908176,-0.001386,-1.52795,0.00656545,0.0158914,1119,386,4.78211,32.3554
-98,638,4.73975,-32.6233,-0.00250411,0.00841334,-0.000767986,0.0084671,-0.00255787,-1.50091,0.00666308,0.0147429,1126,386,4.73981,32.6233
-91,638,4.70337,-32.9011,-0.0024676,0.00795051,-0.000775665,0.00800794,-0.00252503,-1.49689,0.00634992,0.0121231,1133,386,4.70341,32.9011
-84,638,4.68323,-33.1706,-0.00221338,0.00694545,-0.000857851,0.00702511,-0.00229303,-1.47821,0.0056063,0.0139368,1140,386,4.68322,33.1706
-77,638,4.66748,-33.4159,-0.00215284,0.0061741,-0.000727391,0.00623716,-0.0022159,-1.48432,0.00506111,0.011473,1147,386,4.66749,33.4159
-70,638,4.65698,-33.6423,-0.0021526,0.00574111,-0.000621323,0.00578972,-0.00220121,-1.49273,0.00476611,0.0113749,1154,386,4.65702,33.6423
-63,638,4.64099,-33.851,-0.00242283,0.00494709,-0.000482563,0.00497855,-0.00245429,-1.50569,0.00437307,0.01181,1161,386,4.64098,33.8511
-56,638,4.63538,-34.0432,-0.00265029,0.00388502,-0.000426617,0.00391275,-0.00267802,-1.50588,0.00382738,0.0148025,1168,386,4.63534,34.0432
-49,638,4.62061,-34.2351,-0.00274854,0.00300087,-0.000261664,0.00301276,-0.00276042,-1.52541,0.00333421,0.0121532,1175,386,4.62057,34.2351
-42,638,4.6156,-34.4284,-0.00268273,0.00232631,-9.87214e-05,0.00232826,-0.00268468,-1.5511,0.00289666,0.0107435,1182,386,4.61563,34.4284
-35,638,4.58997,-34.6073,-0.00266512,0.00205895,0.000124416,0.00206222,-0.00266839,1.54448,0.00273868,0.0113692,1189,386,4.59001,34.6073
-28,638,4.57166,-34.7822,-0.00260438,0.0019282,0.000308751,0.00194914,-0.00262531,1.5031,0.00265066,0.0112028,1196,386,4.57171,34.7822
-21,638,4.53625,-34.9166,-0.00244242,0.00183324,0.000437682,0.00187759,-0.00248676,1.46983,0.00252793,0.012315,1203,386,4.53628,34.9166
-14,638,4.53015,-35.0763,-0.00226895,0.00173049,0.000561201,0.00180775,-0.00234621,1.434,0.00240499,0.0118083,1210,386,4.53018,35.0763
-7,638,4.55542,-35.2599,-0.00212722,0.00167168,0.000661974,0.00178372,-0.00223927,1.40312,0.00232763,0.0169507,1217,386,4.55547,35.2599
0,638,4.61133,-35.3489,-0.00210508,0.0017765,0.000929197,0.00198747,-0.00231606,1.34754,0.00248705,0.032014,1224,386,4.61138,35.3489
7,638,4.53101,-35.4189,-0.00207303,0.00206429,0.00125591,0.00241569,-0.00242443,1.29798,0.00279444,0.0231724,1231,386,4.53105,35.4189
14,638,4.48987,-35.4684,-0.00190776,0.0023646,0.00145769,0.00281456,-0.00235772,1.27139,0.0029901,0.0125924,1238,386,4.4899,35.4684
21,638,4.50378,-35.5573,-0.00169149,0.0029427,0.00176378,0.00353762,-0.00228641,1.24548,0.00338827,0.0107948,1245,386,4.50377,35.5573
28,638,4.50989,-35.6029,-0.00135343,0.00363706,0.00215433,0.00443839,-0.00215475,1.21469,0.00388192,0.00882017,1252,386,4.50989,35.6029
35,638,4.5155,-35.662,-0.00101351,0.00449172,0.0023943,0.00538733,-0.00190912,1.21285,0.00436924,0.010468,1259,386,4.51551,35.662
42,638,4.5332,-35.7238,-0.000614836,0.00558027,0.00265179,0.00656032,-0.00159489,1.21679,0.00499086,0.010071,1266,386,4.53317,35.7238
49,638,4.55444,-35.7324,-0.000266548,0.00693397,0.00287004,0.00793795,-0.00127052,1.23429,0.00576235,0.0095617,1273,386,4.5544,35.7324
56,638,4.5426,-35.7277,7.37944e-05,0.00801012,0.00283874,0.00892097,-0.000837055,1.26031,0.00624506,0.0125204,1280,386,4.54254,35.7277
63,638,4.52502,-35.7323,0.000362387,0.0090399,0.00269628,0.00980945,-0.000407156,1.29278,0.00667949,0.0130631,1287,386,4.52507,35.7323
70,638,4.50684,-35.7296,0.000559386,0.00993463,0.0023846,0.0105063,-1.22827e-05,1.3355,0.00700829,0.0184731,1294,386,4.50679,35.7295
77,638,4.52417,-35.7003,0.000606449,0.010383,0.00178427,0.0106985,0.000290991,1.39581,0.00703733,0.0194376,1301,386,4.52411,35.7003
84,638,4.56287,-35.6479,0.000469299,0.0106414,0.00113252,0.0107659,0.000344733,1.46125,0.00706517,0.0143732,1308,386,4.56283,35.6479
91,638,4.5531,-35.5764,0.000274542,0.0105516,0.000422981,0.0105689,0.000257162,1.52973,0.00696182,0.0155896,1315,386,4.55307,35.5764
98,638,4.5332,-35.5086,0.000207816,0.0103606,-0.000221876,0.0103655,0.000202969,-1.54896,0.00684367,0.0138192,1322,386,4.53321,35.5086
105,638,4.51233,-35.4373,0.000334676,0.00991005,-0.000908774,0.00999553,0.000249189,-1.477,0.0065822,0.0105141,1329,386,4.5123,35.4373
112,638,4.51453,-35.3594,0.000284732,0.00930326,-0.00145137,0.00953108,5.69155e-05,-1.4151,0.00633516,0.00977652,1336,386,4.51458,35.3594
119,638,4.52344,-35.2426,0.000165986,0.00876891,-0.00165558,0.00907652,-0.000141622,-1.38709,0.00609877,0.0116266,1343,386,4.52342,35.2426
126,638,4.52063,-35.1056,0.000188634,0.00809656,-0.00184896,0.00850751,-0.000222316,-1.35209,0.00574721,0.0156921,1350,386,4.52067,35.1056
133,638,4.51282,-34.9863,0.000302455,0.00757824,-0.00192109,0.00805433,-0.000173633,-1.32787,0.00542836,0.0162721,1357,386,4.51278,34.9863
140,638,4.48389,-34.8558,0.000551001,0.00719214,-0.00162949,0.00757041,0.000172731,-1.3427,0.00499036,0.016749,1364,386,4.48387,34.8558
147,638,4.48389,-34.6979,0.000803343,0.00706993,-0.00127127,0.00731801,0.000555267,-1.37808,0.00470452,0.0184784,1371,386,4.48393,34.6979
154,638,4.51135,-34.5382,0.00104516,0.00707291,-0.000827046,0.00718433,0.000933748,-1.43689,0.00451063,0.0166343,1378,386,4.51132,34.5382
161,638,4.50378,-34.3839,0.00112252,0.00757019,-0.000250426,0.0075799,0.00111281,-1.53203,0.0047262,0.0192611,1385,386,4.5038,34.3839
168,638,4.49536,-34.161,0.00104053,0.00787114,0.000259799,0.007881,0.00103067,1.53283,0.00494637,0.0236117,1392,386,4.49533,34.161
175,638,4.495,-33.9436,0.000822282,0.00829805,0.00087472,0.00839903,0.000721297,1.45586,0.00537508,0.0185756,1399,386,4.49504,33.9436
182,638,4.43738,-33.7194,0.000643101,0.00859939,0.0016595,0.00893164,0.000310844,1.37319,0.00585357,0.0126266,1406,386,4.43738,33.7194
189,638,4.41895,-33.4843,0.000439226,0.00851115,0.00208753,0.00901906,-6.8685e-05,1.33213,0.00603573,0.0113389,1413,386,4.41893,33.4843
196,638,4.40088,-33.2306,2.60839e-05,0.00813697,0.00237829,0.0087829,-0.000619842,1.3056,0.00607244,0.0145831,1420,386,4.40088,33.2306
203,638,4.36389,-32.9912,-0.000818616,0.00706946,0.00263953,0.00787122,-0.00162037,1.2759,0.00586272,0.02182,1427,386,4.36387,32.9912
210,638,4.38074,-32.7559,-0.00173363,0.00690517,0.0025228,0.00758794,-0.0024164,1.30649,0.00602776,0.017537,1434,386,4.38074,32.7559
217,638,4.36292,-32.4878,-0.00186901,0.00759821,0.00255003,0.00824137,-0.00251218,1.32373,0.00649564,0.0128268,1441,386,4.36295,32.4878
224,638,4.32507,-32.1676,-0.00173099,0.00869528,0.00265565,0.00933272,-0.00236843,1.33522,0.00714339,0.0115644,1448,386,4.32511,32.1676
231,638,4.27148,-31.8419,-0.001627,0.00989927,0.00297829,0.0106233,-0.00235108,1.3323,0.00798219,0.01222,1455,386,4.27146,31.8419
238,638,4.24426,-31.5464,-0.00190581,0.0116172,0.00343168,0.0124382,-0.00272681,1.33597,0.0093348,0.0129636,1462,386,4.24427,31.5464
245,638,4.20508,-31.1988,-0.00279506,0.0129899,0.00331333,0.0136572,-0.00346234,1.37206,0.0104518,0.0149192,1469,386,4.20512,31.1988
252,638,4.2262,-30.8682,-0.00320794,0.0144994,0.00346271,0.0151524,-0.003861,1.38439,0.0116047,0.0192848,1476,386,4.22619,30.8682
259,638,4.22437,-30.5712,-0.00365232,0.0161441,0.00366016,0.0167992,-0.00430737,1.3937,0.0128776,0.0189628,1483,386,4.22431,30.5712
266,638,4.12378,-30.1981,-0.00406579,0.0179021,0.00399332,0.0186055,-0.00476917,1.39644,0.0142617,0.0125352,1490,386,4.12374,30.1981
273,638,4.10388,-29.8574,-0.00458575,0.0195602,0.00430882,0.0203061,-0.00533161,1.39939,0.0156209,0.0110069,1497,386,4.10383,29.8574
280,638,4.16199,-29.4306,-0.00508695,0.0212839,0.00468222,0.0220906,-0.00589361,1.40019,0.0170349,0.0216534,1504,386,4.16204,29.4306
287,638,4.28577,-28.7595,-0.00539775,0.0230031,0.00527539,0.0239513,-0.00634598,1.39295,0.0184503,0.0403548,1511,386,4.28573,28.7594
294,638,3.67505,-28.6936,-0.00558277,0.0247937,0.00594517,0.0259158,-0.00670488,1.38425,0.0198925,0.0495837,1518,386,3.67501,28.6936
301,638,3.80469,-28.0835,0,0,0,0,0,0,0,-1,1525,386,3.80463,28.0835
308,638,4.00232,-27.4363,0,0,0,0,0,0,0,-1,1532,386,4.00227,27.4363
315,638,4.27771,-26.9409,0,0,0,0,0,0,0,-1,1539,386,4.27773,26.9409
322,638,4.4845,-26.8775,0,0,0,0,0,0,0,-1,1546,386,4.48453,26.8775
329,638,3.88562,-25.8197,0,0,0,0,0,0,0,-1,1553,386,3.88557,25.8197
336,638,3.76184,-25.853,0,0,0,0,0,0,0,-1,1560,386,3.76179,25.853
343,638,5.62451,-25.231,0,0,0,0,0,0,0,-1,1567,386,5.62449,25.2311
350,638,5.91162,-19.0222,0,0,0,0,0,0,0,-1,1574,386,5.91165,19.0222
357,638,0.387329,-3.01077,0,0,0,0,0,0,0,-1,1581,386,0.387332,3.01077
364,638,3.78149,-6.45215,0,0,0,0,0,0,0,-1,1588,386,3.78155,6.45216
371,638,4.18604,-6.71164,0,0,0,0,0,0,0,-1,1595,386,4.18598,6.71164
378,638,4.59045,-6.97113,0,0,0,0,0,0,0,-1,1602,386,4.5904,6.97112
385,638,0,0,0,0,0,0,0,0,0,-1,1609,386,0,0
392,638,0,0,0,0,0,0,0,0,0,-1,1616,386,0,0
399,638,0,0,0,0,0,0,0,0,0,-1,1623,386,0,0
406,638,0,0,0,0,0,0,0,0,0,-1,1630,386,0,0
413,638,0,0,0,0,0,0,0,0,0,-1,1637,386,0,0
420,638,0,0,0,0,0,0,0,0,0,-1,1644,386,0,0
427,638,0,0,0,0,0,0,0,0,0,-1,1651,386,0,0
434,638,0,0,0,0,0,0,0,0,0,-1,1658,386,0,0
441,638,0,0,0,0,0,0,0,0,0,-1,1665,386,0,0
448,638,0,0,0,0,0,0,0,0,0,-1,1672,386,0,0
455,638,0,0,0,0,0,0,0,0,0,-1,1679,386,0,0
462,638,0,0,0,0,0,0,0,0,0,-1,1686,386,0,0
469,638,0,0,0,0,0,0,0,0,0,-1,1693,386,0,0
476,638,0,0,0,0,0,0,0,0,0,-1,1700,386,0,0
483,638,0,0,0,0,0,0,0,0,0,-1,1707,386,0,0
490,638,0,0,0,0,0,0,0,0,0,-1,1714,386,0,0
497,638,0,0,0,0,0,0,0,0,0,-1,1721,386,0,0
504,638,0,0,0,0,0,0,0,0,0,-1,1728,386,0,0
511,638,0,0,0,0,0,0,0,0,0,-1,1735,386,0,0
518,638,0,0,0,0,0,0,0,0,0,-1,1742,386,0,0
525,638,0,0,0,0,0,0,0,0,0,-1,1749,386,0,0
532,638,0,0,0,0,0,0,0,0,0,-1,1756,386,0,0
539,638,0,0,0,0,0,0,0,0,0,-1,1763,386,0,0
546,638,0,0,0,0,0,0,0,0,0,-1,1770,386,0,0
553,638,0,0,0,0,0,0,0,0,0,-1,1777,386,0,0
560,638,0,0,0,0,0,0,0,0,0,-1,1784,386,0,0
567,638,0,0,0,0,0,0,0,0,0,-1,1791,386,0,0
574,638,0,0,0,0,0,0,0,0,0,-1,1798,386,0,0
581,638,0,0,0,0,0,0,0,0,0,-1,1805,386,0,0
588,638,0,0,0,0,0,0,0,0,0,-1,1812,386,0,0
595,638,0,0,0,0,0,0,0,0,0,-1,1819,386,0,0
602,638,0,0,0,0,0,0,0,0,0,-1,1826,386,0,0
609,638,0,0,0,0,0,0,0,0,0,-1,1833,386,0,0
616,638,0,0,0,0,0,0,0,0,0,-1,1840,386,0,0
623,638,0,0,0,0,0,0,0,0,0,-1,1847,386,0,0
630,638,0,0,0,0,0,0,0,0,0,-1,1854,386,0,0
637,638,0,0,0,0,0,0,0,0,0,-1,1861,386,0,0
644,638,0,0,0,0,0,0,0,0,0,-1,1868,386,0,0
651,638,0,0,0,0,0,0,0,0,0,-1,1875,386,0,0
658,638,0,0,0,0,0,0,0,0,0,-1,1882,386,0,0
665,638,0,0,0,0,0,0,0,0,0,-1,1889,386,0,0
672,638,0,0,0,0,0,0,0,0,0,-1,1896,386,0,0
679,638,0,0,0,0,0,0,0,0,0,-1,1903,386,0,0
686,638,0,0,0,0,0,0,0,0,0,-1,1910,386,0,0
693,638,0,0,0,0,0,0,0,0,0,-1,1917,386,0,0
700,638,0,0,0,0,0,0,0,0,0,-1,1924,386,0,0
707,638,0,0,0,0,0,0,0,0,0,-1,1931,386,0,0
714,638,0,0,0,0,0,0,0,0,0,-1,1938,386,0,0
721,638,0,0,0,0,0,0,0,0,0,-1,1945,386,0,0
728,638,0,0,0,0,0,0,0,0,0,-1,1952,386,0,0
735,638,0,0,0,0,0,0,0,0,0,-1,1959,386,0,0
742,638,0,0,0,0,0,0,0,0,0,-1,1966,386,0,0
749,638,0,0,0,0,0,0,0,0,0,-1,1973,386,0,0
756,638,0,0,0,0,0,0,0,0,0,-1,1980,386,0,0
763,638,0,0,0,0,0,0,0,0,0,-1,1987,386,0,0
770,638,0,0,0,0,0,0,0,0,0,-1,1994,386,0,0
777,638,0,0,0,0,0,0,0,0,0,-1,2001,386,0,0
784,638,0,0,0,0,0,0,0,0,0,-1,2008,386,0,0
791,638,0,0,0,0,0,0,0,0,0,-1,2015,386,0,0
798,638,0,0,0,0,0,0,0,0,0,-1,2022,386,0,0
805,638,0,0,0,0,0,0,0,0,0,-1,2029,386,0,0
812,638,0,0,0,0,0,0,0,0,0,-1,2036,386,0,0
-700,631,0,0,0,0,0,0,0,0,0,-1,524,393,0,0
-693,631,0,0,0,0,0,0,0,0,0,-1,531,393,0,0
-686,631,0,0,0,0,0,0,0,0,0,-1,538,393,0,0
-679,631,0,0,0,0,0,0,0,0,0,-1,545,393,0,0
-672,631,0,0,0,0,0,0,0,0,0,-1,552,393,0,0
-665,631,0,0,0,0,0,0,0,0,0,-1,559,393,0,0
-658,631,0,0,0,0,0,0,0,0,0,-1,566,393,0,0
-651,631,0,0,0,0,0,0,0,0,0,-1,573,393,0,0
-644,631,0,0,0,0,0,0,0,0,0,-1,580,393,0,0
-637,631,0,0,0,0,0,0,0,0,0,-1,587,393,0,0
-630,631,0,0,0,0,0,0,0,0,0,-1,594,393,0,0
-623,631,0,0,0,0,0,0,0,0,0,-1,601,393,0,0
-616,631,0,0,0,0,0,0,0,0,0,-1,608,393,0,0
-609,631,0,0,0,0,0,0,0,0,0,-1,615,393,0,0
-602,631,0,0,0,0,0,0,0,0,0,-1,622,393,0,0
-595,631,0,0,0,0,0,0,0,0,0,-1,629,393,0,0
-588,631,0,0,0,0,0,0,0,0,0,-1,636,393,0,0
-581,631,0,0,0,0,0,0,0,0,0,-1,643,393,0,0
-574,631,0,0,0,0,0,0,0,0,0,-1,650,393,0,0
-567,631,0,0,0,0,0,0,0,0,0,-1,657,393,0,0
-560,631,0,0,0,0,0,0,0,0,0,-1,664,393,0,0
-553,631,0,0,0,0,0,0,0,0,0,-1,671,393,0,0
-546,631,0,0,0,0,0,0,0,0,0,-1,678,393,0,0
-539,631,0,0,0,0,0,0,0,0,0,-1,685,393,0,0
-532,631,0,0,0,0,0,0,0,0,0,-1,692,393,0,0
-525,631,0,0,0,0,0,0,0,0,0,-1,699,393,0,0
-518,631,0,0,0,0,0,0,0,0,0,-1,706,393,0,0
-511,631,0,0,0,0,0,0,0,0,0,-1,713,393,0,0
-504,631,0,0,0,0,0,0,0,0,0,-1,720,393,0,0
-497,631,0,0,0,0,0,0,0,0,0,-1,727,393,0,0
-490,631,0,0,0,0,0,0,0,0,0,-1,734,393,0,0
-483,631,0,0,0,0,0,0,0,0,0,-1,741,393,0,0
-476,631,0,0,0,0,0,0,0,0,0,-1,748,393,0,0
-469,631,0,0,0,0,0,0,0,0,0,-1,755,393,0,0
-462,631,0,0,0,0,0,0,0,0,0,-1,762,393,0,0
-455,631,0,0,0,0,0,0,0,0,0,-1,769,393,0,0
-448,631,0,0,0,0,0,0,0,0,0,-1,776,393,0,0
-441,631,0,0,0,0,0,0,0,0,0,-1,783,393,0,0
-434,631,0,0,0,0,0,0,0,0,0,-1,790,393,0,0
-427,631,0,0,0,0,0,0,0,0,0,-1,797,393,0,0
-420,631,0,0,0,0,0,0,0,0,0,-1,804,393,0,0
-413,631,0,0,0,0,0,0,0,0,0,-1,811,393,0,0
-406,631,0,0,0,0,0,0,0,0,0,-1,818,393,0,0
-399,631,0,0,0,0,0,0,0,0,0,-1,825,393,0,0
-392,631,0,0,0,0,0,0,0,0,0,-1,832,393,0,0
-385,631,0,0,0,0,0,0,0,0,0,-1,839,393,0,0
-378,631,0,0,0,0,0,0,0,0,0,-1,846,393,0,0
-371,631,0,0,0,0,0,0,0,0,0,-1,853,393,0,0
-364,631,0,0,0,0,0,0,0,0,0,-1,860,393,0,0
-357,631,0,0,0,0,0,0,0,0,0,-1,867,393,0,0
-350,631,0,0,0,0,0,0,0,0,0,-1,874,393,0,0
-343,631,0,0,0,0,0,0,0,0,0,-1,881,393,0,0
-336,631,0,0,0,0,0,0,0,0,0,-1,888,393,0,0
-329,631,0,0,0,0,0,0,0,0,0,-1,895,393,0,0
-322,631,0,0,0,0,0,0,0,0,0,-1,902,393,0,0
-315,631,0,0,0,0,0,0,0,0,0,-1,909,393,0,0
-308,631,0,0,0,0,0,0,0,0,0,-1,916,393,0,0
-301,631,0,0,0,0,0,0,0,0,0,-1,923,393,0,0
-294,631,0,0,0,0,0,0,0,0,0,-1,930,393,0,0
-287,631,0,0,0,0,0,0,0,0,0,-1,937,393,0,0
-280,631,1.02759,-14.3235,0,0,0,0,0,0,0,-1,944,393,1.02761,14.3235
-273,631,3.12531,-25.4045,0,0,0,0,0,0,0,-1,951,393,3.12531,25.4045
-266,631,4.95123,-25.876,0,0,0,0,0,0,0,-1,958,393,4.95123,25.876
-259,631,6.86334,-26.3179,0,0,0,0,0,0,0,-1,965,393,6.86332,26.3179
-252,631,8.73389,-26.7964,0,0,0,0,0,0,0,-1,972,393,8.7339,26.7964
-245,631,4.06909,-25.853,0,0,0,0,0,0,0,-1,979,393,4.06911,25.853
-238,631,3.05438,-25.4099,0,0,0,0,0,0,0,-1,986,393,3.0544,25.4099
-231,631,2.14966,-25.2306,0,0,0,0,0,0,0,-1,993,393,2.14968,25.2306
-224,631,6.83575,-19.7909,0,0,0,0,0,0,0,-1,1000,393,6.83575,19.7909
-217,631,5.05188,-18.3867,0,0,0,0,0,0,0,-1,1007,393,5.0519,18.3866
-210,631,3.37842,-26.3769,0,0,0,0,0,0,0,-1,1014,393,3.37839,26.3769
-203,631,5.05298,-26.4169,0,0,0,0,0,0,0,-1,1021,393,5.05302,26.4169
-196,631,5.08899,-27.2827,0,0,0,0,0,0,0,-1,1028,393,5.089,27.2826
-189,631,4.96582,-27.4317,0,0,0,0,0,0,0,-1,1035,393,4.96587,27.4317
-182,631,4.89221,-27.89,0,0,0,0,0,0,0,-1,1042,393,4.89217,27.89
-175,631,5.14941,-28.9846,0.00952147,0.00954913,-0.00415389,0.0136892,0.00538139,-0.787063,0.00796344,0.0405862,1049,393,5.14941,28.9846
-168,631,4.75989,-29.4429,0.00927597,0.00797021,-0.00333659,0.012023,0.00522322,-0.688782,0.00696132,0.0209489,1056,393,4.75984,29.4429
-161,631,4.7124,-29.8614,0.00865148,0.00698547,-0.0026231,0.0105707,0.00506628,-0.631652,0.00610472,0.0107474,1063,393,4.71238,29.8614
-154,631,4.68799,-30.2295,0.00769804,0.00628529,-0.00199964,0.0091124,0.00487093,-0.615614,0.00526523,0.0108366,1070,393,4.68802,30.2295
-147,631,4.66296,-30.5198,0.00646833,0.00596467,-0.00147853,0.00771632,0.00471668,-0.701045,0.00449163,0.0116395,1077,393,4.66293,30.5198
-140,631,4.63464,-30.8559,0.0052258,0.00574121,-0.00115912,0.00667092,0.00429608,-0.894784,0.00390434,0.0108249,1084,393,4.63463,30.8559
-133,631,4.59839,-31.1972,0.00390457,0.00576856,-0.000917675,0.00614452,0.00352861,-1.18197,0.00356056,0.00881224,1091,393,4.59834,31.1972
-126,631,4.58142,-31.4864,0.0026003,0.00591887,-0.000762428,0.00608565,0.00243352,-1.35544,0.00353696,0.0128888,1098,393,4.58147,31.4864
-119,631,4.56458,-31.7668,0.00166237,0.00630995,-0.000550887,0.00637435,0.00159796,-1.45441,0.0038297,0.0153042,1105,393,4.56455,31.7668
-112,631,4.54358,-32.0747,0.000824505,0.0065158,-0.000559382,0.00657026,0.000770045,-1.47375,0.00414739,0.0143054,1112,393,4.54356,32.0747
-105,631,4.56287,-32.3716,-0.000739422,0.00693315,-0.00062959,0.00698447,-0.000790741,-1.48946,0.00494103,0.0196499,1119,393,4.56292,32.3715
-98,631,4.5166,-32.6341,-0.00139776,0.00640776,-0.000844063,0.00649799,-0.00148799,-1.4643,0.00490382,0.0159921,1126,393,4.51655,32.6341
-91,631,4.46338,-32.9091,-0.00129962,0.00598187,-0.000834847,0.00607636,-0.00139411,-1.45809,0.00458679,0.016354,1133,393,4.46341,32.9091
-84,631,4.4552,-33.18,-0.00108079,0.00517586,-0.000825582,0.00528297,-0.00118789,-1.44179,0.00397752,0.0160485,1140,393,4.4552,33.18
-77,631,4.43823,-33.4338,-0.000975872,0.00451179,-0.000683821,0.00459572,-0.0010598,-1.44867,0.00347143,0.0115705,1147,393,4.43821,33.4338
-70,631,4.44397,-33.6495,-0.000885466,0.00401255,-0.000548182,0.00407315,-0.000946068,-1.46069,0.00307962,0.0131467,1154,393,4.444,33.6495
-63,631,4.44714,-33.8687,-0.000828369,0.00343495,-0.000417122,0.00347538,-0.000868796,-1.47418,0.00265434,0.0133985,1161,393,4.4472,33.8687
-56,631,4.42175,-34.0808,-0.000729973,0.00278399,-0.000357829,0.00282006,-0.000766041,-1.47034,0.00218071,0.0137343,1168,393,4.42179,34.0808
-49,631,4.41663,-34.2542,-0.000564117,0.00222931,-0.000230684,0.00224824,-0.000583039,-1.48895,0.00172631,0.0106491,1175,393,4.4166,34.2542
-42,631,4.40491,-34.4331,-0.000386946,0.00151366,-3.88626e-05,0.00151446,-0.000387741,-1.55036,0.00116068,0.00873588,1182,393,4.40489,34.4332
-35,631,4.39453,-34.6082,-0.000249704,0.000853715,0.000131822,0.000869245,-0.000265234,1.45353,0.000685238,0.0102429,1189,393,4.39451,34.6082
-28,631,4.41113,-34.7689,-0.000162734,0.000251472,0.000244167,0.00036454,-0.000275801,1.13712,0.000370882,0.0135892,1196,393,4.41107,34.7689
-21,631,4.39954,-34.9144,-0.000101506,-0.000299679,0.000278757,9.52516e-05,-0.000496436,0.614633,0.000366853,0.0121042,1203,393,4.39955,34.9144
-14,631,4.38208,-35.0675,-0.000174342,-0.000837678,0.000224632,-0.000105432,-0.000906588,0.297657,0.000572493,0.0137899,1210,393,4.38213,35.0675
-7,631,4.41064,-35.2686,-0.000315902,-0.00130129,8.80212e-05,-0.000308101,-0.00130909,0.0883942,0.000790304,0.021255,1217,393,4.41061,35.2687
0,631,4.42078,-35.3873,-0.000624221,-0.00154892,0.000411259,-0.00046778,-0.00170536,0.363491,0.00101748,0.0252228,1224,393,4.42083,35.3873
7,631,4.40393,-35.4287,-0.00080781,-0.00150569,0.000754986,-0.000325027,-0.00198847,0.56893,0.00123169,0.0194745,1231,393,4.40398,35.4287
14,631,4.42615,-35.4873,-0.000771205,-0.00150161,0.000942787,-0.000125357,-0.00214745,0.600615,0.00139173,0.0107851,1238,393,4.42615,35.4873
21,631,4.4574,-35.576,-0.000634469,-0.00135568,0.00117858,0.000237435,-0.00222759,0.636937,0.0015702,0.0127749,1245,393,4.45745,35.576
28,631,4.47095,-35.6339,-0.000273748,-0.00109943,0.00144793,0.000819046,-0.00219223,0.64652,0.0017978,0.0142895,1252,393,4.47096,35.6339
35,631,4.47083,-35.6603,0.000204973,-0.000626185,0.00164859,0.00148956,-0.00191077,0.66193,0.0019682,0.0140793,1259,393,4.47084,35.6603
42,631,4.52014,-35.711,0.000906667,1.46839e-06,0.00174076,0.0022527,-0.00134456,0.658213,0.00209883,0.0126741,1266,393,4.52016,35.711
49,631,4.52759,-35.7298,0.0016114,0.000784637,0.00169935,0.00294692,-0.000550889,0.666087,0.00217166,0.0118641,1273,393,4.52765,35.7298
56,631,4.53491,-35.7542,0.00225901,0.00129888,0.00137677,0.00323701,0.000320881,0.617645,0.0020594,0.0134347,1280,393,4.53495,35.7542
63,631,4.53418,-35.79,0.00292446,0.00180177,0.000852746,0.00338404,0.00134219,0.494311,0.00196765,0.0144121,1287,393,4.53417,35.79
70,631,4.5437,-35.7406,0.00339743,0.00222454,0.000288776,0.00346468,0.0021573,0.228781,0.0020203,0.0159325,1294,393,4.54372,35.7406
77,631,4.56445,-35.7067,0.00363774,0.00223116,-0.00040225,0.00374465,0.00212425,-0.259771,0.00216849,0.0169376,1301,393,4.56446,35.7067
84,631,4.57764,-35.6756,0.00359764,0.00199239,-0.00115534,0.00420178,0.00138824,-0.481815,0.00247199,0.0145558,1308,393,4.57764,35.6756
91,631,4.58777,-35.5946,0.003356,0.00145502,-0.00186914,0.00450243,0.000308577,-0.550179,0.00290423,0.0175892,1315,393,4.58772,35.5946
98,631,4.59668,-35.5219,0.00304892,0.000798212,-0.00241813,0.00459074,-0.000743603,-0.567613,0.0033361,0.0147909,1322,393,4.59672,35.5219
105,631,4.5835,-35.4579,0.00284259,1.63807e-05,-0.00314308,0.00487562,-0.00201665,-0.574141,0.00409178,0.0118714,1329,393,4.58344,35.4579
112,631,4.60498,-35.3788,0.00239303,-0.000787665,-0.00352644,0.00467114,-0.00306577,-0.573564,0.00449885,0.0118766,1336,393,4.60502,35.3788
119,631,4.62195,-35.2785,0.00182216,-0.00133539,-0.00342591,0.00401557,-0.0035288,-0.569485,0.00435877,0.0124036,1343,393,4.62198,35.2785
126,631,4.63013,-35.1402,0.00148575,-0.00176248,-0.00325494,0.00349927,-0.00377599,-0.553987,0.00420139,0.0177575,1350,393,4.63008,35.1402
133,631,4.63354,-35.0102,0.00127373,-0.00200615,-0.00297787,0.00303337,-0.00376578,-0.533705,0.00393308,0.0198869,1357,393,4.63356,35.0102
140,631,4.62354,-34.88,0.00123037,-0.00208302,-0.00253347,0.00260073,-0.00345338,-0.495834,0.00350688,0.0206352,1364,393,4.62351,34.88
147,631,4.62891,-34.683,0.0011851,-0.00180072,-0.0020068,0.0021934,-0.00280902,-0.465597,0.00289543,0.0225593,1371,393,4.62887,34.6829
154,631,4.67676,-34.5228,0.00125668,-0.00116434,-0.00145911,0.00194204,-0.00184971,-0.439126,0.00218939,0.0215503,1378,393,4.67671,34.5228
161,631,4.70837,-34.3625,0.00128091,-2.45846e-05,-0.000896756,0.00173733,-0.000481003,-0.470795,0.00134748,0.0231999,1385,393,4.70835,34.3625
168,631,4.70129,-34.1659,0.00113561,0.0011112,-0.000397708,0.0015213,0.000725508,-0.770057,0.000878635,0.0280653,1392,393,4.70127,34.1659
175,631,4.67151,-33.9837,0.000919827,0.00243222,3.7827e-05,0.00243317,0.000918881,1.54581,0.00141874,0.0212001,1399,393,4.67147,33.9837
182,631,4.64783,-33.7573,0.000729264,0.00360636,0.000487227,0.00368663,0.000648993,1.40751,0.00227253,0.0113662,1406,393,4.64778,33.7573
189,631,4.65601,-33.4999,0.000532171,0.00437952,0.000929847,0.00459246,0.000319226,1.34567,0.00296097,0.0110889,1413,393,4.65599,33.4999
196,631,4.64197,-33.256,0.000263313,0.00482545,0.0012801,0.00516009,-7.13288e-05,1.3151,0.00346408,0.0124079,1420,393,4.64192,33.256
203,631,4.64746,-33.0179,-0.000241653,0.00479118,0.00157847,0.00524527,-0.000695744,1.29068,0.00375034,0.0148526,1427,393,4.64744,33.0179
210,631,4.63184,-32.7813,-0.000843447,0.00501314,0.00167163,0.00545668,-0.00128699,1.31144,0.00413411,0.0164613,1434,393,4.63185,32.7813
217,631,4.61816,-32.5408,-0.00102292,0.00567788,0.00179752,0.00612962,-0.00147466,1.32458,0.00465646,0.0174139,1441,393,4.6182,32.5408
224,631,4.60107,-32.2285,-0.000982506,0.00653966,0.00195682,0.00701826,-0.0014611,1.33093,0.00523429,0.0138841,1448,393,4.60103,32.2285
231,631,4.56152,-31.8921,-0.000960875,0.00745462,0.00226947,0.00802763,-0.00153388,1.32348,0.00592956,0.0112171,1455,393,4.56156,31.8921
238,631,4.51953,-31.5479,-0.00121132,0.00875033,0.0026753,0.00942334,-0.00188433,1.32435,0.00699545,0.0174448,1462,393,4.5195,31.5479
245,631,4.50281,-31.2331,-0.00189091,0.00978423,0.00264253,0.0103545,-0.00246116,1.35826,0.007853,0.0189371,1469,393,4.50278,31.2331
252,631,4.50085,-30.9277,-0.00222782,0.0109488,0.00280181,0.0115198,-0.00279884,1.36975,0.00876311,0.0182166,1476,393,4.50086,30.9277
259,631,4.48535,-30.6084,-0.0025879,0.0122239,0.00301266,0.0128132,-0.00317722,1.37762,0.00977487,0.0129657,1483,393,4.48532,30.6084
266,631,4.45715,-30.275,-0.00291647,0.0135892,0.00333113,0.0142362,-0.00356339,1.37898,0.0108749,0.011506,1490,393,4.45712,30.275
273,631,4.44482,-29.9095,-0.00332026,0.0148543,0.00363072,0.0155528,-0.00401872,1.38074,0.0119358,0.0141792,1497,393,4.44484,29.9095
280,631,4.42456,-29.5177,-0.0036793,0.0161117,0.00398312,0.0168833,-0.00445087,1.37946,0.0129957,0.0125719,1504,393,4.42462,29.5177
287,631,4.38721,-29.1295,-0.00388205,0.0174248,0.00449823,0.0183356,-0.00479277,1.37103,0.0140956,0.0141814,1511,393,4.38723,29.1295
294,631,4.30627,-28.6853,-0.00401236,0.0187535,0.0050515,0.0198241,-0.00508289,1.36196,0.0151964,0.018222,1518,393,4.30627,28.6853
301,631,4.23303,-28.2249,-0.00404218,0.0200091,0.00562023,0.0212576,-0.00529069,1.3522,0.0162254,0.0265152,1525,393,4.23308,28.2249
308,631,4.34766,-27.6875,-0.00382152,0.0212853,0.00633777,0.0227944,-0.00533066,1.33703,0.01725,0.0381706,1532,393,4.34765,27.6875
315,631,4.47986,-27.2216,-0.00327102,0.0222335,0.0072854,0.0241679,-0.0052054,1.31127,0.0180983,0.0469808,1539,393,4.47989,27.2216
322,631,4.38855,-26.9279,0,0,0,0,0,0,0,-1,1546,393,4.3886,26.9279
329,631,4.12537,-26.3776,0,0,0,0,0,0,0,-1,1553,393,4.12542,26.3776
336,631,4.21655,-25.8646,0,0,0,0,0,0,0,-1,1560,393,4.21655,25.8646
343,631,4.30774,-25.3517,0,0,0,0,0,0,0,-1,1567,393,4.30768,25.3516
350,631,2.1344,-9.23401,0,0,0,0,0,0,0,-1,1574,393,2.13439,9.23401
357,631,2.6449,-9.60303,0,0,0,0,0,0,0,-1,1581,393,2.64491,9.60304
364,631,3.39136,-5.7594,0,0,0,0,0,0,0,-1,1588,393,3.39137,5.75939
371,631,3.72839,-6.0574,0,0,0,0,0,0,0,-1,1595,393,3.72845,6.05742
378,631,4.06555,-6.35544,0,0,0,0,0,0,0,-1,1602,393,4.06553,6.35544
385,631,3.90442,-3.58298,0,0,0,0,0,0,0,-1,1609,393,3.90437,3.58299
392,631,0.352295,-2.21301,0,0,0,0,0,0,0,-1,1616,393,0.352345,2.213
399,631,0,0,0,0,0,0,0,0,0,-1,1623,393,0,0
406,631,0,0,0,0,0,0,0,0,0,-1,1630,393,0,0
413,631,0,0,0,0,0,0,0,0,0,-1,1637,393,0,0
420,631,0,0,0,0,0,0,0,0,0,-1,1644,393,0,0
427,631,0,0,0,0,0,0,0,0,0,-1,1651,393,0,0
434,631,0,0,0,0,0,0,0,0,0,-1,1658,393,0,0
441,631,0,0,0,0,0,0,0,0,0,-1,1665,393,0,0
448,631,0,0,0,0,0,0,0,0,0,-1,1672,393,0,0
455,631,0,0,0,0,0,0,0,0,0,-1,1679,393,0,0
462,631,0,0,0,0,0,0,0,0,0,-1,1686,393,0,0
469,631,0,0,0,0,0,0,0,0,0,-1,1693,393,0,0
476,631,0,0,0,0,0,0,0,0,0,-1,1700,393,0,0
483,631,0,0,0,0,0,0,0,0,0,-1,1707,393,0,0
490,631,0,0,0,0,0,0,0,0,0,-1,1714,393,0,0
497,631,0,0,0,0,0,0,0,0,0,-1,1721,393,0,0
504,631,0,0,0,0,0,0,0,0,0,-1,1728,393,0,0
511,631,0,0,0,0,0,0,0,0,0,-1,1735,393,0,0
518,631,0,0,0,0,0,0,0,0,0,-1,1742,393,0,0
525,631,0,0,0,0,0,0,0,0,0,-1,1749,393,0,0
532,631,0,0,0,0,0,0,0,0,0,-1,1756,393,0,0
539,631,0,0,0,0,0,0,0,0,0,-1,1763,393,0,0
546,631,0,0,0,0,0,0,0,0,0,-1,1770,393,0,0
553,631,0,0,0,0,0,0,0,0,0,-1,1777,393,0,0
560,631,0,0,0,0,0,0,0,0,0,-1,1784,393,0,0
567,631,0,0,0,0,0,0,0,0,0,-1,1791,393,0,0
574,631,0,0,0,0,0,0,0,0,0,-1,1798,393,0,0
581,631,0,0,0,0,0,0,0,0,0,-1,1805,393,0,0
588,631,0,0,0,0,0,0,0,0,0,-1,1812,393,0,0
595,631,0,0,0,0,0,0,0,0,0,-1,1819,393,0,0
602,631,0,0,0,0,0,0,0,0,0,-1,1826,393,0,0
609,631,0,0,0,0,0,0,0,0,0,-1,1833,393,0,0
616,631,0,0,0,0,0,0,0,0,0,-1,1840,393,0,0
623,631,0,0,0,0,0,0,0,0,0,-1,1847,393,0,0
630,631,0,0,0,0,0,0,0,0,0,-1,1854,393,0,0
637,631,0,0,0,0,0,0,0,0,0,-1,1861,393,0,0
644,631,0,0,0,0,0,0,0,0,0,-1,1868,393,0,0
651,631,0,0,0,0,0,0,0,0,0,-1,1875,393,0,0
658,631,0,0,0,0,0,0,0,0,0,-1,1882,393,0,0
665,631,0,0,0,0,0,0,0,0,0,-1,1889,393,0,0
672,631,0,0,0,0,0,0,0,0,0,-1,1896,393,0,0
679,631,0,0,0,0,0,0,0,0,0,-1,1903,393,0,0
686,631,0,0,0,0,0,0,0,0,0,-1,1910,393,0,0
693,631,0,0,0,0,0,0,0,0,0,-1,1917,393,0,0
700,631,0,0,0,0,0,0,0,0,0,-1,1924,393,0,0
707,631,0,0,0,0,0,0,0,0,0,-1,1931,393,0,0
714,631,0,0,0,0,0,0,0,0,0,-1,1938,393,0,0
721,631,0,0,0,0,0,0,0,0,0,-1,1945,393,0,0
728,631,0,0,0,0,0,0,0,0,0,-1,1952,393,0,0
735,631,0,0,0,0,0,0,0,0,0,-1,1959,393,0,0
742,631,0,0,0,0,0,0,0,0,0,-1,1966,393,0,0
749,631,0,0,0,0,0,0,0,0,0,-1,1973,393,0,0
756,631,0,0,0,0,0,0,0,0,0,-1,1980,393,0,0
763,631,0,0,0,0,0,0,0,0,0,-1,1987,393,0,0
770,631,0,0,0,0,0,0,0,0,0,-1,1994,393,0,0
777,631,0,0,0,0,0,0,0,0,0,-1,2001,393,0,0
784,631,0,0,0,0,0,0,0,0,0,-1,2008,393,0,0
791,631,0,0,0,0,0,0,0,0,0,-1,2015,393,0,0
798,631,0,0,0,0,0,0,0,0,0,-1,2022,393,0,0
805,631,0,0,0,0,0,0,0,0,0,-1,2029,393,0,0
812,631,0,0,0,0,0,0,0,0,0,-1,2036,393,0,0
-700,624,0,0,0,0,0,0,0,0,0,-1,524,400,0,0
-693,624,0,0,0,0,0,0,0,0,0,-1,531,400,0,0
-686,624,0,0,0,0,0,0,0,0,0,-1,538,400,0,0
-679,624,0,0,0,0,0,0,0,0,0,-1,545,400,0,0
-672,624,0,0,0,0,0,0,0,0,0,-1,552,400,0,0
-665,624,0,0,0,0,0,0,0,0,0,-1,559,400,0,0
-658,624,0,0,0,0,0,0,0,0,0,-1,566,400,0,0
-651,624,0,0,0,0,0,0,0,0,0,-1,573,400,0,0
-644,624,0,0,0,0,0,0,0,0,0,-1,580,400,0,0
-637,624,0,0,0,0,0,0,0,0,0,-1,587,400,0,0
-630,624,0,0,0,0,0,0,0,0,0,-1,594,400,0,0
-623,624,0,0,0,0,0,0,0,0,0,-1,601,400,0,0
-616,624,0,0,0,0,0,0,0,0,0,-1,608,400,0,0
-609,624,0,0,0,0,0,0,0,0,0,-1,615,400,0,0
-602,624,0,0,0,0,0,0,0,0,0,-1,622,400,0,0
-595,624,0,0,0,0,0,0,0,0,0,-1,629,400,0,0
-588,624,0,0,0,0,0,0,0,0,0,-1,636,400,0,0
-581,624,0,0,0,0,0,0,0,0,0,-1,643,400,0,0
-574,624,0,0,0,0,0,0,0,0,0,-1,650,400,0,0
-567,624,0,0,0,0,0,0,0,0,0,-1,657,400,0,0
-560,624,0,0,0,0,0,0,0,0,0,-1,664,400,0,0
-553,624,0,0,0,0,0,0,0,0,0,-1,671,400,0,0
-546,624,0,0,0,0,0,0,0,0,0,-1,678,400,0,0
-539,624,0,0,0,0,0,0,0,0,0,-1,685,400,0,0
-532,624,0,0,0,0,0,0,0,0,0,-1,692,400,0,0
-525,624,0,0,0,0,0,0,0,0,0,-1,699,400,0,0
-518,624,0,0,0,0,0,0,0,0,0,-1,706,400,0,0
-511,624,0,0,0,0,0,0,0,0,0,-1,713,400,0,0
-504,624,0,0,0,0,0,0,0,0,0,-1,720,400,0,0
-497,624,0,0,0,0,0,0,0,0,0,-1,727,400,0,0
-490,624,0,0,0,0,0,0,0,0,0,-1,734,400,0,0
-483,624,0,0,0,0,0,0,0,0,0,-1,741,400,0,0
-476,624,0,0,0,0,0,0,0,0,0,-1,748,400,0,0
-469,624,0,0,0,0,0,0,0,0,0,-1,755,400,0,0
-462,624,0,0,0,0,0,0,0,0,0,-1,762,400,0,0
-455,624,0,0,0,0,0,0,0,0,0,-1,769,400,0,0
-448,624,0,0,0,0,0,0,0,0,0,-1,776,400,0,0
-441,624,0,0,0,0,0,0,0,0,0,-1,783,400,0,0
-434,624,0,0,0,0,0,0,0,0,0,-1,790,400,0,0
-427,624,0,0,0,0,0,0,0,0,0,-1,797,400,0,0
-420,624,0,0,0,0,0,0,0,0,0,-1,804,400,0,0
-413,624,0,0,0,0,0,0,0,0,0,-1,811,400,0,0
-406,624,0,0,0,0,0,0,0,0,0,-1,818,400,0,0
-399,624,0,0,0,0,0,0,0,0,0,-1,825,400,0,0
-392,624,0,0,0,0,0,0,0,0,0,-1,832,400,0,0
-385,624,0,0,0,0,0,0,0,0,0,-1,839,400,0,0
-378,624,0,0,0,0,0,0,0,0,0,-1,846,400,0,0
-371,624,0,0,0,0,0,0,0,0,0,-1,853,400,0,0
-364,624,0,0,0,0,0,0,0,0,0,-1,860,400,0,0
-357,624,0,0,0,0,0,0,0,0,0,-1,867,400,0,0
-350,624,0,0,0,0,0,0,0,0,0,-1,874,400,0,0
-343,624,0,0,0,0,0,0,0,0,0,-1,881,400,0,0
-336,624,0,0,0,0,0,0,0,0,0,-1,888,400,0,0
-329,624,0,0,0,0,0,0,0,0,0,-1,895,400,0,0
-322,624,0,0,0,0,0,0,0,0,0,-1,902,400,0,0
-315,624,0,0,0,0,0,0,0,0,0,-1,909,400,0,0
-308,624,0,0,0,0,0,0,0,0,0,-1,916,400,0,0
-301,624,0,0,0,0,0,0,0,0,0,-1,923,400,0,0
-294,624,10.6271,-28.4093,0,0,0,0,0,0,0,-1,930,400,10.6271,28.4093
-287,624,0.12146,-15.0862,0,0,0,0,0,0,0,-1,937,400,0.121451,15.0862
-280,624,1.61359,-14.553,0,0,0,0,0,0,0,-1,944,400,1.6136,14.553
-273,624,2.92303,-24.3356,0,0,0,0,0,0,0,-1,951,400,2.92306,24.3356
-266,624,4.62988,-24.8541,0,0,0,0,0,0,0,-1,958,400,4.62991,24.8541
-259,624,6.30719,-25.3577,0,0,0,0,0,0,0,-1,965,400,6.30719,25.3577
-252,624,7.96606,-26.0403,0,0,0,0,0,0,0,-1,972,400,7.96608,26.0403
-245,624,4.72278,-25.3516,0,0,0,0,0,0,0,-1,979,400,4.72279,25.3516
-238,624,4.08038,-25.0565,0,0,0,0,0,0,0,-1,986,400,4.0804,25.0565
-231,624,4.95148,-20.7456,0,0,0,0,0,0,0,-1,993,400,4.95146,20.7456
-224,624,3.2287,-22.9566,0,0,0,0,0,0,0,-1,1000,400,3.22873,22.9566
-217,624,4.83716,-26.6254,0,0,0,0,0,0,0,-1,1007,400,4.83718,26.6254
-210,624,4.7384,-27.0366,0,0,0,0,0,0,0,-1,1014,400,4.73839,27.0366
-203,624,4.53394,-27.4578,0,0,0,0,0,0,0,-1,1021,400,4.53397,27.4578
-196,624,4.65576,-27.6128,0.0023524,0.0135365,-0.00476265,0.0152897,0.000599117,-1.21806,0.00999944,0.0434165,1028,400,4.65577,27.6128
-189,624,4.55737,-27.922,0.0035186,0.01272,-0.00462432,0.0146424,0.0015962,-1.17682,0.00927541,0.0413983,1035,400,4.55739,27.922
-182,624,4.53052,-28.3894,0.00454308,0.0111931,-0.00439763,0.0133813,0.00235495,-1.10909,0.00824869,0.0357378,1042,400,4.53057,28.3894
-175,624,4.56531,-29.0834,0.00501074,0.00896899,-0.00384281,0.0113124,0.00266735,-1.02319,0.00682839,0.0237508,1049,400,4.56526,29.0834
-168,624,4.44482,-29.4958,0.00510856,0.00743291,-0.00315774,0.00963554,0.00290592,-0.961725,0.00570722,0.014184,1056,400,4.44478,29.4958
-161,624,4.39929,-29.8958,0.00494337,0.00630437,-0.002538,0.00825152,0.00299622,-0.91638,0.00482316,0.0104914,1063,400,4.39926,29.8958
-154,624,4.39148,-30.2306,0.00453539,0.0053642,-0.00196069,0.0069538,0.00294579,-0.889543,0.00403036,0.00951841,1070,400,4.39149,30.2306
-147,624,4.37585,-30.5466,0.00390125,0.00475243,-0.00145526,0.00584305,0.00281062,-0.927656,0.0033743,0.0110906,1077,400,4.37585,30.5466
-140,624,4.33594,-30.8824,0.00323949,0.00421919,-0.00111569,0.00494783,0.00251085,-0.992257,0.00285674,0.0108555,1084,400,4.33593,30.8824
-133,624,4.30872,-31.209,0.00249061,0.00391842,-0.000834563,0.00430277,0.00210626,-1.13922,0.00248439,0.0116091,1091,400,4.30873,31.209
-126,624,4.29016,-31.5003,0.00171492,0.00381496,-0.000636551,0.00399284,0.00153704,-1.2983,0.00232552,0.0129114,1098,400,4.29013,31.5004
-119,624,4.26843,-31.783,0.00119564,0.00399913,-0.000425196,0.0040622,0.00113257,-1.42354,0.0024206,0.0142902,1105,400,4.2684,31.783
-112,624,4.27026,-32.0722,0.000731523,0.00408524,-0.000403865,0.00413319,0.000683574,-1.45262,0.00255823,0.0169523,1112,400,4.27024,32.0723
-105,624,4.29968,-32.3712,-0.000141554,0.00429349,-0.000454341,0.00433955,-0.000187619,-1.46975,0.00295756,0.0142576,1119,400,4.29966,32.3712
-98,624,4.24451,-32.6388,-0.000417434,0.00390215,-0.000607046,0.00398584,-0.000501123,-1.4338,0.00283905,0.0138279,1126,400,4.24447,32.6388
-91,624,4.23267,-32.9002,-0.000255693,0.00356822,-0.000615586,0.00366488,-0.000352349,-1.41505,0.00256877,0.0187921,1133,400,4.23266,32.9002
-84,624,4.26245,-33.1708,-4.13435e-05,0.00299042,-0.000580614,0.00309781,-0.000148733,-1.3879,0.00211653,0.0184892,1140,400,4.26244,33.1708
-77,624,4.25525,-33.4289,0.000130508,0.00249185,-0.000478311,0.00258506,3.73012e-05,-1.37834,0.00171107,0.0141626,1147,400,4.25523,33.4289
-70,624,4.24475,-33.6241,0.000343502,0.00208555,-0.000369258,0.00216059,0.000268464,-1.37031,0.00135977,0.0152613,1154,400,4.24475,33.6241
-63,624,4.24048,-33.8477,0.000584558,0.0016855,-0.000272645,0.00174932,0.000520738,-1.34086,0.00103717,0.0156177,1161,400,4.24052,33.8477
-56,624,4.21484,-34.0793,0.000930557,0.00116591,-0.00020063,0.00128083,0.000815639,-1.05063,0.000748656,0.0124414,1168,400,4.21486,34.0793
-49,624,4.22717,-34.2774,0.00130575,0.000383868,-1.22194e-06,0.00130575,0.000383866,-0.00132548,0.000774914,0.0102457,1175,400,4.22718,34.2774
-42,624,4.22241,-34.4529,0.00158162,-0.000838407,0.000355983,0.0016329,-0.000889686,0.143062,0.00147734,0.00995598,1182,400,4.22243,34.4529
-35,624,4.22253,-34.6133,0.0018104,-0.00222966,0.000572128,0.00188986,-0.00230912,0.137999,0.00242831,0.0153462,1189,400,4.22257,34.6133
-28,624,4.22852,-34.7955,0.00194614,-0.00350969,0.000696465,0.00203364,-0.00359719,0.124985,0.00329248,0.020427,1196,400,4.22853,34.7955
-21,624,4.26038,-34.9153,0.00187353,-0.00462608,0.000618466,0.00193185,-0.00468441,0.09403,0.00392854,0.0146146,1203,400,4.26034,34.9153
-14,624,4.27161,-35.037,0.00150481,-0.00559022,0.00033175,0.00152029,-0.00560569,0.0466225,0.00433371,0.0148243,1210,400,4.27167,35.037
-7,624,4.26611,-35.1639,0.00102311,-0.00635216,-0.000125382,0.00102524,-0.00635429,-0.0169938,0.00461605,0.020273,1217,400,4.26612,35.1639
0,624,4.297,-35.3099,0.000386298,-0.00679694,0.000212657,0.000392588,-0.00680323,0.0295701,0.00467185,0.0219318,1224,400,4.29695,35.3099
7,624,4.30273,-35.4165,-4.68232e-05,-0.00684363,0.000454464,-1.65703e-05,-0.00687388,0.0664701,0.00457707,0.0156212,1231,400,4.30273,35.4165
14,624,4.36951,-35.5112,-9.73897e-05,-0.0068966,0.000447659,-6.80427e-05,-0.00692594,0.0654632,0.00459478,0.0129596,1238,400,4.36955,35.5112
21,624,4.38647,-35.5827,5.53145e-05,-0.00672633,0.000497451,9.16095e-05,-0.00676263,0.072833,0.00453926,0.0136327,1245,400,4.38649,35.5827
28,624,4.39026,-35.6505,0.000529717,-0.0064999,0.000628378,0.000585446,-0.00655563,0.0884555,0.00457807,0.0125619,1252,400,4.39024,35.6505
35,624,4.39685,-35.6694,0.00121373,-0.00606943,0.000726025,0.0012854,-0.0061411,0.0983952,0.00458302,0.0156506,1259,400,4.39683,35.6694
42,624,4.45117,-35.7022,0.00230739,-0.00549184,0.000693503,0.00236858,-0.00555302,0.0879994,0.0046951,0.0174428,1266,400,4.45113,35.7022
49,624,4.52136,-35.7006,0.00345559,-0.00486231,0.000501836,0.00348576,-0.00489248,0.0600418,0.00485985,0.0189642,1273,400,4.52137,35.7006
56,624,4.52197,-35.7498,0.00450565,-0.0044189,-4.10667e-06,0.00450565,-0.0044189,-0.000460154,0.00515267,0.0197174,1280,400,4.52195,35.7498
63,624,4.55627,-35.7669,0.0056038,-0.00403852,-0.000746916,0.00566132,-0.00409603,-0.0768513,0.00565752,0.0155839,1287,400,4.55633,35.7669
70,624,4.58118,-35.7655,0.00650721,-0.00372257,-0.0014747,0.00671556,-0.00393092,-0.140352,0.00621644,0.0129719,1294,400,4.58121,35.7655
77,624,4.60803,-35.7099,0.00701023,-0.00399625,-0.00232558,0.00748144,-0.00446746,-0.199911,0.00697147,0.0145359,1301,400,4.60806,35.7099
84,624,4.61426,-35.6819,0.00715985,-0.00465836,-0.00316506,0.00795411,-0.00545262,-0.245869,0.00778516,0.0133278,1308,400,4.61432,35.6819
91,624,4.64111,-35.6073,0.00691796,-0.00565375,-0.00396675,0.00806495,-0.00680073,-0.281472,0.00859304,0.0137132,1315,400,4.64114,35.6073
98,624,4.66113,-35.5334,0.00628154,-0.00695393,-0.00453923,0.0076887,-0.00836109,-0.300606,0.00926906,0.0139691,1322,400,4.66116,35.5334
105,624,4.66785,-35.4919,0.00553997,-0.00838754,-0.00552085,0.00746293,-0.0103105,-0.335167,0.0103053,0.014766,1329,400,4.66788,35.4919
112,624,4.70044,-35.4099,0.0045542,-0.00970097,-0.00594324,0.00670694,-0.0118537,-0.347518,0.0108525,0.0145647,1336,400,4.70038,35.4099
119,624,4.71741,-35.309,0.00328656,-0.0106874,-0.00568516,0.0053073,-0.0127082,-0.341513,0.0106898,0.0143652,1343,400,4.71746,35.309
126,624,4.73755,-35.1591,0.00235861,-0.0115293,-0.00533654,0.00417234,-0.0133431,-0.327623,0.0105645,0.0175561,1350,400,4.73749,35.1591
133,624,4.76892,-34.989,0.00168689,-0.0119986,-0.0049002,0.0032605,-0.0135722,-0.31073,0.0103083,0.0195422,1357,400,4.76887,34.9891
140,624,4.77905,-34.8518,0.00133152,-0.0121685,-0.00429952,0.00258454,-0.0134215,-0.283579,0.00992203,0.0192741,1364,400,4.77911,34.8518
147,624,4.77417,-34.6718,0.00102522,-0.0119004,-0.00361107,0.00196564,-0.0128408,-0.254767,0.00928537,0.022421,1371,400,4.77412,34.6718
154,624,4.8363,-34.5316,0.000993178,-0.0109902,-0.00293629,0.00167398,-0.011671,-0.227833,0.00839445,0.0254182,1378,400,4.83632,34.5316
161,624,4.88757,-34.3539,0.00106757,-0.0094912,-0.00229109,0.00154326,-0.0099669,-0.204721,0.00721426,0.0235165,1385,400,4.88763,34.3539
168,624,4.88049,-34.1714,0.000992726,-0.00769239,-0.00170663,0.00131604,-0.00801571,-0.187229,0.00583219,0.0234412,1392,400,4.88052,34.1714
175,624,4.87683,-33.9911,0.000870183,-0.00535004,-0.00124409,0.00110978,-0.00558963,-0.190259,0.00414616,0.0177815,1399,400,4.87682,33.9911
182,624,4.88293,-33.7604,0.000705539,-0.00295903,-0.000739019,0.000848961,-0.00310245,-0.191688,0.00240183,0.0105991,1406,400,4.88292,33.7604
189,624,4.8844,-33.5184,0.000600618,-0.000886373,-0.000252523,0.000642332,-0.000928087,-0.163709,0.000911671,0.0106856,1413,400,4.88435,33.5184
196,624,4.8584,-33.2758,0.000568904,0.000864116,0.000212851,0.000975534,0.000457487,1.08856,0.000563587,0.0121702,1420,400,4.85836,33.2758
203,624,4.88879,-33.0153,0.000397266,0.00232713,0.000572389,0.00248412,0.00024027,1.3031,0.00158209,0.0143632,1427,400,4.88881,33.0153
210,624,4.88538,-32.7499,3.1218e-05,0.00337612,0.000834651,0.00357282,-0.000165484,1.33935,0.00243891,0.0178842,1434,400,4.88535,32.7499
217,624,4.84668,-32.4649,-0.000227824,0.004054,0.00106331,0.00430351,-0.000477337,1.34031,0.00304064,0.0211062,1441,400,4.84666,32.4649
224,624,4.84021,-32.1948,-0.000292422,0.00478603,0.00128923,0.00509457,-0.000600962,1.33589,0.0036134,0.0168884,1448,400,4.84017,32.1948
231,624,4.85938,-31.9353,-0.000354922,0.00553717,0.00161177,0.00594924,-0.000766998,1.32049,0.00424499,0.0120234,1455,400,4.85938,31.9353
238,624,4.83105,-31.6133,-0.000569008,0.00652912,0.00198944,0.00704869,-0.00108857,1.31534,0.00510085,0.0178681,1462,400,4.83104,31.6133
245,624,4.82007,-31.2879,-0.00104454,0.00735058,0.00204976,0.00782432,-0.00151828,1.34367,0.00578906,0.0185171,1469,400,4.82005,31.2879
252,624,4.81042,-30.9583,-0.00131122,0.00827635,0.00222157,0.0087661,-0.00180097,1.35381,0.00652773,0.0135393,1476,400,4.8104,30.9583
259,624,4.78455,-30.6289,-0.00161232,0.00927794,0.0024349,0.00979756,-0.00213194,1.36055,0.0073462,0.00939249,1483,400,4.78451,30.6289
266,624,4.77185,-30.275,-0.00189073,0.0103467,0.00272372,0.0109256,-0.00246957,1.36139,0.00823132,0.0130856,1490,400,4.7719,30.275
273,624,4.78064,-29.921,-0.00222181,0.0113451,0.00299819,0.0119782,-0.00285485,1.36271,0.00908778,0.0165695,1497,400,4.78059,29.921
280,624,4.73816,-29.5815,-0.00250077,0.0122947,0.00331821,0.0130048,-0.00321087,1.35998,0.00991499,0.0142427,1504,400,4.73821,29.5815
287,624,4.69348,-29.2312,-0.00266395,0.0133532,0.003754,0.0141894,-0.00350013,1.35163,0.0108167,0.0107431,1511,400,4.6935,29.2312
294,624,4.66846,-28.8362,-0.00279567,0.014391,0.00420479,0.0153646,-0.00376924,1.34327,0.0117036,0.0102928,1518,400,4.6685,28.8363
301,624,4.65039,-28.4012,-0.00286852,0.0153279,0.00465791,0.0164509,-0.00399154,1.33421,0.0125118,0.0116054,1525,400,4.65034,28.4012
308,624,4.6571,-27.969,-0.0027534,0.0162519,0.00522951,0.0175958,-0.00409733,1.31925,0.0133082,0.0156577,1532,400,4.65708,27.969
315,624,4.64819,-27.565,-0.0024319,0.0169268,0.00592162,0.0185945,-0.00409959,1.29628,0.0139649,0.0203606,1539,400,4.64814,27.565
322,624,4.63306,-27.1558,-0.00213081,0.017526,0.00668368,0.0195833,-0.00418806,1.2722,0.0146524,0.034578,1546,400,4.63311,27.1558
329,624,4.61108,-26.7351,0,0,0,0,0,0,0,-1,1553,400,4.61107,26.7351
336,624,4.60791,-25.9883,0,0,0,0,0,0,0,-1,1560,400,4.60792,25.9883
343,624,4.73853,-25.4122,0,0,0,0,0,0,0,-1,1567,400,4.73849,25.4122
350,624,1.99194,-7.29742,0,0,0,0,0,0,0,-1,1574,400,1.99198,7.29741
357,624,2.64075,-3.13092,0,0,0,0,0,0,0,-1,1581,400,2.64076,3.13091
364,624,3.16565,-4.9458,0,0,0,0,0,0,0,-1,1588,400,3.16564,4.94579
371,624,3.37561,-5.23529,0,0,0,0,0,0,0,-1,1595,400,3.37563,5.23529
378,624,1.50439,-5.22165,0,0,0,0,0,0,0,-1,1602,400,1.50438,5.22164
385,624,1.2301,-10.5866,0,0,0,0,0,0,0,-1,1609,400,1.2301,10.5866
392,624,4.26819,-5.14236,0,0,0,0,0,0,0,-1,1616,400,4.26818,5.14236
399,624,2.22168,-9.19293,0,0,0,0,0,0,0,-1,1623,400,2.22173,9.19294
406,624,2.68213,-9.91171,0,0,0,0,0,0,0,-1,1630,400,2.68213,9.91171
413,624,0,0,0,0,0,0,0,0,0,-1,1637,400,0,0
420,624,0,0,0,0,0,0,0,0,0,-1,1644,400,0,0
427,624,0,0,0,0,0,0,0,0,0,-1,1651,400,0,0
434,624,0,0,0,0,0,0,0,0,0,-1,1658,400,0,0
441,624,0,0,0,0,0,0,0,0,0,-1,1665,400,0,0
448,624,0,0,0,0,0,0,0,0,0,-1,1672,400,0,0
455,624,0,0,0,0,0,0,0,0,0,-1,1679,400,0,0
462,624,0,0,0,0,0,0,0,0,0,-1,1686,400,0,0
469,624,0,0,0,0,0,0,0,0,0,-1,1693,400,0,0
476,624,0,0,0,0,0,0,0,0,0,-1,1700,400,0,0
483,624,0,0,0,0,0,0,0,0,0,-1,1707,400,0,0
490,624,0,0,0,0,0,0,0,0,0,-1,1714,400,0,0
497,624,0,0,0,0,0,0,0,0,0,-1,1721,400,0,0
504,624,0,0,0,0,0,0,0,0,0,-1,1728,400,0,0
511,624,0,0,0,0,0,0,0,0,0,-1,1735,400,0,0
518,624,0,0,0,0,0,0,0,0,0,-1,1742,400,0,0
525,624,0,0,0,0,0,0,0,0,0,-1,1749,400,0,0
532,624,0,0,0,0,0,0,0,0,0,-1,1756,400,0,0
539,624,0,0,0,0,0,0,0,0,0,-1,1763,400,0,0
546,624,0,0,0,0,0,0,0,0,0,-1,1770,400,0,0
553,624,0,0,0,0,0,0,0,0,0,-1,1777,400,0,0
560,624,0,0,0,0,0,0,0,0,0,-1,1784,400,0,0
567,624,0,0,0,0,0,0,0,0,0,-1,1791,400,0,0
574,624,0,0,0,0,0,0,0,0,0,-1,1798,400,0,0
581,624,0,0,0,0,0,0,0,0,0,-1,1805,400,0,0
588,624,0,0,0,0,0,0,0,0,0,-1,1812,400,0,0
595,624,0,0,0,0,0,0,0,0,0,-1,1819,400,0,0
602,624,0,0,0,0,0,0,0,0,0,-1,1826,400,0,0
609,624,0,0,0,0,0,0,0,0,0,-1,1833,400,0,0
616,624,0,0,0,0,0,0,0,0,0,-1,1840,400,0,0
623,624,0,0,0,0,0,0,0,0,0,-1,1847,400,0,0
630,624,0,0,0,0,0,0,0,0,0,-1,1854,400,0,0
637,624,0,0,0,0,0,0,0,0,0,-1,1861,400,0,0
644,624,0,0,0,0,0,0,0,0,0,-1,1868,400,0,0
651,624,0,0,0,0,0,0,0,0,0,-1,1875,400,0,0
658,624,0,0,0,0,0,0,0,0,0,-1,1882,400,0,0
665,624,0,0,0,0,0,0,0,0,0,-1,1889,400,0,0
672,624,0,0,0,0,0,0,0,0,0,-1,1896,400,0,0
679,624,0,0,0,0,0,0,0,0,0,-1,1903,400,0,0
686,624,0,0,0,0,0,0,0,0,0,-1,1910,400,0,0
693,624,0,0,0,0,0,0,0,0,0,-1,1917,400,0,0
700,624,0,0,0,0,0,0,0,0,0,-1,1924,400,0,0
707,624,0,0,0,0,0,0,0,0,0,-1,1931,400,0,0
714,624,0,0,0,0,0,0,0,0,0,-1,1938,400,0,0
721,624,0,0,0,0,0,0,0,0,0,-1,1945,400,0,0
728,624,0,0,0,0,0,0,0,0,0,-1,1952,400,0,0
735,624,0,0,0,0,0,0,0,0,0,-1,1959,400,0,0
742,624,0,0,0,0,0,0,0,0,0,-1,1966,400,0,0
749,624,0,0,0,0,0,0,0,0,0,-1,1973,400,0,0
756,624,0,0,0,0,0,0,0,0,0,-1,1980,400,0,0
763,624,0,0,0,0,0,0,0,0,0,-1,1987,400,0,0
770,624,0,0,0,0,0,0,0,0,0,-1,1994,400,0,0
777,624,0,0,0,0,0,0,0,0,0,-1,2001,400,0,0
784,624,0,0,0,0,0,0,0,0,0,-1,2008,400,0,0
791,624,0,0,0,0,0,0,0,0,0,-1,2015,400,0,0
798,624,0,0,0,0,0,0,0,0,0,-1,2022,400,0,0
805,624,0,0,0,0,0,0,0,0,0,-1,2029,400,0,0
812,624,0,0,0,0,0,0,0,0,0,-1,2036,400,0,0
-700,617,0,0,0,0,0,0,0,0,0,-1,524,407,0,0
-693,617,0,0,0,0,0,0,0,0,0,-1,531,407,0,0
-686,617,0,0,0,0,0,0,0,0,0,-1,538,407,0,0
-679,617,0,0,0,0,0,0,0,0,0,-1,545,407,0,0
-672,617,0,0,0,0,0,0,0,0,0,-1,552,407,0,0
-665,617,0,0,0,0,0,0,0,0,0,-1,559,407,0,0
-658,617,0,0,0,0,0,0,0,0,0,-1,566,407,0,0
-651,617,0,0,0,0,0,0,0,0,0,-1,573,407,0,0
-644,617,0,0,0,0,0,0,0,0,0,-1,580,407,0,0
-637,617,0,0,0,0,0,0,0,0,0,-1,587,407,0,0
-630,617,0,0,0,0,0,0,0,0,0,-1,594,407,0,0
-623,617,0,0,0,0,0,0,0,0,0,-1,601,407,0,0
-616,617,0,0,0,0,0,0,0,0,0,-1,608,407,0,0
-609,617,0,0,0,0,0,0,0,0,0,-1,615,407,0,0
-602,617,0,0,0,0,0,0,0,0,0,-1,622,407,0,0
-595,617,0,0,0,0,0,0,0,0,0,-1,629,407,0,0
-588,617,0,0,0,0,0,0,0,0,0,-1,636,407,0,0
-581,617,0,0,0,0,0,0,0,0,0,-1,643,407,0,0
-574,617,0,0,0,0,0,0,0,0,0,-1,650,407,0,0
-567,617,0,0,0,0,0,0,0,0,0,-1,657,407,0,0
-560,617,0,0,0,0,0,0,0,0,0,-1,664,407,0,0
-553,617,0,0,0,0,0,0,0,0,0,-1,671,407,0,0
-546,617,0,0,0,0,0,0,0,0,0,-1,678,407,0,0
-539,617,0,0,0,0,0,0,0,0,0,-1,685,407,0,0
-532,617,0,0,0,0,0,0,0,0,0,-1,692,407,0,0
-525,617,0,0,0,0,0,0,0,0,0,-1,699,407,0,0
-518,617,0,0,0,0,0,0,0,0,0,-1,706,407,0,0
-511,617,0,0,0,0,0,0,0,0,0,-1,713,407,0,0
-504,617,0,0,0,0,0,0,0,0,0,-1,720,407,0,0
-497,617,0,0,0,0,0,0,0,0,0,-1,727,407,0,0
-490,617,0,0,0,0,0,0,0,0,0,-1,734,407,0,0
-483,617,0,0,0,0,0,0,0,0,0,-1,741,407,0,0
-476,617,0,0,0,0,0,0,0,0,0,-1,748,407,0,0
-469,617,0,0,0,0,0,0,0,0,0,-1,755,407,0,0
-462,617,0,0,0,0,0,0,0,0,0,-1,762,407,0,0
-455,617,0,0,0,0,0,0,0,0,0,-1,769,407,0,0
-448,617,0,0,0,0,0,0,0,0,0,-1,776,407,0,0
-441,617,0,0,0,0,0,0,0,0,0,-1,783,407,0,0
-434,617,0,0,0,0,0,0,0,0,0,-1,790,407,0,0
-427,617,0,0,0,0,0,0,0,0,0,-1,797,407,0,0
-420,617,0,0,0,0,0,0,0,0,0,-1,804,407,0,0
-413,617,0,0,0,0,0,0,0,0,0,-1,811,407,0,0
-406,617,0,0,0,0,0,0,0,0,0,-1,818,407,0,0
-399,617,0,0,0,0,0,0,0,0,0,-1,825,407,0,0
-392,617,0,0,0,0,0,0,0,0,0,-1,832,407,0,0
-385,617,0,0,0,0,0,0,0,0,0,-1,839,407,0,0
-378,617,0,0,0,0,0,0,0,0,0,-1,846,407,0,0
-371,617,0,0,0,0,0,0,0,0,0,-1,853,407,0,0
-364,617,0,0,0,0,0,0,0,0,0,-1,860,407,0,0
-357,617,0,0,0,0,0,0,0,0,0,-1,867,407,0,0
-350,617,0,0,0,0,0,0,0,0,0,-1,874,407,0,0
-343,617,0,0,0,0,0,0,0,0,0,-1,881,407,0,0
-336,617,0,0,0,0,0,0,0,0,0,-1,888,407,0,0
-329,617,0,0,0,0,0,0,0,0,0,-1,895,407,0,0
-322,617,0,0,0,0,0,0,0,0,0,-1,902,407,0,0
-315,617,0,0,0,0,0,0,0,0,0,-1,909,407,0,0
-308,617,0,0,0,0,0,0,0,0,0,-1,916,407,0,0
-301,617,6.8504,-26.4473,0,0,0,0,0,0,0,-1,923,407,6.85041,26.4473
-294,617,8.41962,-26.4389,0,0,0,0,0,0,0,-1,930,407,8.41964,26.4389
-287,617,9.90497,-26.4554,0,0,0,0,0,0,0,-1,937,407,9.90498,26.4554
-280,617,4.3504,-25.0479,0,0,0,0,0,0,0,-1,944,407,4.35041,25.0479
-273,617,3.83069,-23.1539,0,0,0,0,0,0,0,-1,951,407,3.83071,23.1539
-266,617,4.50061,-23.7659,0,0,0,0,0,0,0,-1,958,407,4.50058,23.7659
-259,617,5.4046,-24.5516,0,0,0,0,0,0,0,-1,965,407,5.40458,24.5516
-252,617,4.47961,-25.8224,0,0,0,0,0,0,0,-1,972,407,4.47962,25.8224
-245,617,4.81409,-25.6815,0,0,0,0,0,0,0,-1,979,407,4.81408,25.6815
-238,617,4.26581,-25.8775,0,0,0,0,0,0,0,-1,986,407,4.26581,25.8775
-231,617,4.29114,-25.2384,0,0,0,0,0,0,0,-1,993,407,4.29113,25.2384
-224,617,4.21307,-26.0125,0,0,0,0,0,0,0,-1,1000,407,4.21309,26.0125
-217,617,4.37585,-26.6725,-0.00654492,0.0162269,-0.00412531,0.0169512,-0.00726922,-1.39699,0.0143513,0.0459045,1007,407,4.37585,26.6725
-210,617,4.33508,-27.1694,-0.00311083,0.0142715,-0.0044903,0.015363,-0.00420226,-1.33236,0.0118928,0.0325819,1014,407,4.3351,27.1694
-203,617,4.2373,-27.6031,-0.000999392,0.0130848,-0.00419287,0.0142385,-0.0021531,-1.30228,0.0102855,0.0229073,1021,407,4.23735,27.6031
-196,617,4.22717,-27.9508,0.000101037,0.011723,-0.00399412,0.0129633,-0.00113926,-1.26971,0.00904592,0.016633,1028,407,4.22713,27.9508
-189,617,4.17261,-28.3123,0.00110793,0.010951,-0.00392588,0.012325,-0.000266089,-1.23413,0.00830681,0.0159036,1035,407,4.17262,28.3123
-182,617,4.15869,-28.7202,0.00197,0.00960978,-0.00372787,0.0111274,0.000452425,-1.18419,0.00727212,0.0184309,1042,407,4.15868,28.7203
-175,617,4.14331,-29.1124,0.00246744,0.00757675,-0.00322935,0.00913974,0.000904448,-1.12004,0.00581517,0.0155539,1049,407,4.14328,29.1124
-168,617,4.10132,-29.5217,0.00269947,0.00603519,-0.00260651,0.00746178,0.00127287,-1.07001,0.00460919,0.0107972,1056,407,4.10126,29.5217
-161,617,4.0647,-29.903,0.00274761,0.00476776,-0.00203283,0.00602762,0.00148774,-1.01597,0.00362572,0.0105072,1063,407,4.06466,29.903
-154,617,4.05151,-30.2409,0.0026284,0.00367525,-0.00148215,0.00472369,0.00157997,-0.955138,0.00277659,0.0110427,1070,407,4.05153,30.2409
-147,617,4.03833,-30.5789,0.00233768,0.00287089,-0.000991215,0.00363073,0.00157784,-0.916772,0.00210217,0.0158888,1077,407,4.03838,30.579
-140,617,4.03357,-30.9308,0.00201964,0.00213518,-0.000637217,0.00271724,0.00143758,-0.830604,0.00156968,0.0127805,1084,407,4.03352,30.9308
-133,617,4.02063,-31.2189,0.00163132,0.00160547,-0.000330887,0.00194954,0.00128726,-0.765878,0.00114468,0.014357,1091,407,4.02062,31.2189
-126,617,4.00671,-31.487,0.00120653,0.00131596,-0.000113437,0.00138719,0.0011353,-1.0101,0.000853312,0.0136852,1098,407,4.00666,31.487
-119,617,3.98413,-31.7883,0.000960859,0.00132055,7.25434e-05,0.00133463,0.000946779,1.37909,0.000792752,0.0138926,1105,407,3.98415,31.7883
-112,617,4.00195,-32.0733,0.000759446,0.00130976,9.33535e-05,0.00132516,0.00074404,1.40725,0.000767007,0.0160049,1112,407,4.0019,32.0733
-105,617,4.03296,-32.3569,0.000413299,0.00136277,3.23165e-05,0.00136387,0.000412201,1.53681,0.000807704,0.0173498,1119,407,4.03302,32.3569
-98,617,3.98462,-32.6469,0.00044077,0.00111228,-9.5717e-05,0.00112566,0.000427393,-1.43194,0.000656142,0.0136136,1126,407,3.9846,32.6468
-91,617,3.99048,-32.8899,0.000685759,0.000911486,-0.000150876,0.000987042,0.000610203,-1.10653,0.000575154,0.0183104,1133,407,3.99049,32.8899
-84,617,4.02673,-33.1627,0.000944208,0.000592888,-0.000151578,0.00100057,0.00053653,-0.35597,0.000578182,0.0189635,1140,407,4.02676,33.1627
-77,617,4.03259,-33.4092,0.00120995,0.000326504,-0.000145356,0.00123325,0.000303203,-0.158953,0.000742045,0.0149584,1147,407,4.03261,33.4092
-70,617,4.03674,-33.6239,0.00156583,8.47678e-05,-0.000116598,0.00157495,7.56447e-05,-0.0780849,0.00102568,0.0152571,1154,407,4.03677,33.6239
-63,617,4.05029,-33.8486,0.00227758,-9.81234e-05,-6.49968e-05,0.00227936,-9.99004e-05,-0.0273317,0.00155394,0.0164403,1161,407,4.05035,33.8486
-56,617,4.02832,-34.0675,0.00325972,-0.000606525,8.97482e-05,0.0032618,-0.000608607,0.0231966,0.00240323,0.0122022,1168,407,4.0283,34.0675
-49,617,4.03418,-34.2822,0.00418445,-0.00196821,0.000567284,0.00423631,-0.00202007,0.0911773,0.0036869,0.0103292,1175,407,4.03416,34.2822
-42,617,4.05347,-34.4892,0.00473198,-0.00417451,0.0013808,0.00494114,-0.00438367,0.150332,0.00538689,0.0124548,1182,407,4.05348,34.4892
-35,617,4.08911,-34.6384,0.00510059,-0.00633141,0.0017642,0.00536665,-0.00659747,0.149683,0.00691967,0.0184056,1189,407,4.08916,34.6384
-28,617,4.07739,-34.7995,0.00516839,-0.00828548,0.00193138,0.00544016,-0.00855725,0.139795,0.00814793,0.0210796,1196,407,4.07733,34.7995
-21,617,4.14233,-34.9179,0.00482186,-0.00990261,0.00170303,0.00501627,-0.010097,0.113661,0.0088885,0.0147332,1203,407,4.14236,34.9179
-14,617,4.15698,-35.0103,0.00395406,-0.0111623,0.00111513,0.00403588,-0.0112441,0.0732411,0.00914327,0.0156198,1210,407,4.15694,35.0103
-7,617,4.14209,-35.111,0.00287417,-0.0121039,0.000280473,0.00287942,-0.0121092,0.0187168,0.0091843,0.0186834,1217,407,4.14203,35.111
0,617,4.1875,-35.2524,0.00164263,-0.0126527,0.000463269,0.00165763,-0.0126677,0.0323617,0.00904845,0.0163776,1224,407,4.18749,35.2524
7,617,4.23914,-35.4063,0.000753865,-0.0126737,0.000438489,0.000768168,-0.012688,0.0326096,0.00872598,0.0119553,1231,407,4.23912,35.4063
14,617,4.29224,-35.5023,0.000403337,-0.0126671,8.63965e-05,0.000403908,-0.0126676,0.0066097,0.0085829,0.0142271,1238,407,4.29224,35.5023
21,617,4.33472,-35.5682,0.000410775,-0.0123797,-0.00020233,0.000413976,-0.0123829,-0.0158136,0.00839664,0.0127751,1245,407,4.33473,35.5682
28,617,4.35742,-35.6581,0.000848604,-0.0120468,-0.000323515,0.000856715,-0.0120549,-0.0250665,0.00833689,0.0109834,1252,407,4.35738,35.6581
35,617,4.31067,-35.7127,0.00166729,-0.0115114,-0.000421434,0.00168075,-0.0115248,-0.0319351,0.00830038,0.0134598,1259,407,4.31068,35.7127
42,617,4.45264,-35.6931,0.003078,-0.0107852,-0.000638399,0.00310733,-0.0108146,-0.0459202,0.00843841,0.020062,1266,407,4.45259,35.6932
49,617,4.52039,-35.6986,0.00470991,-0.00998208,-0.0010314,0.00478196,-0.0100541,-0.0697454,0.00874405,0.020279,1273,407,4.52033,35.6986
56,617,4.51428,-35.7248,0.00629086,-0.00936403,-0.00174458,0.00648292,-0.00955609,-0.109648,0.00931662,0.0154747,1280,407,4.51433,35.7248
63,617,4.54163,-35.7543,0.00796544,-0.00884762,-0.00251477,0.00833352,-0.0092157,-0.145336,0.0101363,0.0119673,1287,407,4.54163,35.7543
70,617,4.55566,-35.7541,0.0094298,-0.00856037,-0.00319063,0.00997891,-0.00910948,-0.170431,0.0110245,0.0157515,1294,407,4.55565,35.7541
77,617,4.6416,-35.7061,0.0103098,-0.00911324,-0.00402838,0.0111121,-0.00991559,-0.196602,0.0121469,0.0134453,1301,407,4.64162,35.7061
84,617,4.69519,-35.6754,0.0107229,-0.0101465,-0.00476104,0.0117578,-0.0111813,-0.214028,0.0132453,0.0104478,1308,407,4.6952,35.6754
91,617,4.69641,-35.6193,0.0105255,-0.0116588,-0.00545784,0.0117955,-0.0129289,-0.228632,0.0142796,0.0106159,1315,407,4.69636,35.6193
98,617,4.73914,-35.5359,0.00969124,-0.0136805,-0.00594959,0.0111186,-0.0151079,-0.235461,0.0152002,0.0123517,1322,407,4.73914,35.5358
105,617,4.77759,-35.469,0.00851575,-0.0159106,-0.0071212,0.0104402,-0.0178351,-0.263941,0.0165098,0.0137636,1329,407,4.77755,35.469
112,617,4.81274,-35.3872,0.00692705,-0.0179888,-0.0075569,0.00903987,-0.0201016,-0.272627,0.0172241,0.0157838,1336,407,4.81277,35.3872
119,617,4.82495,-35.2697,0.00491444,-0.0196685,-0.00717021,0.00685295,-0.021607,-0.264043,0.0171516,0.0183128,1343,407,4.82499,35.2697
126,617,4.85339,-35.1363,0.00340227,-0.0211804,-0.00673256,0.00512536,-0.0229035,-0.250557,0.0172334,0.0205257,1350,407,4.85334,35.1363
133,617,4.86523,-34.9838,0.00236462,-0.0221328,-0.00629234,0.00388633,-0.0236546,-0.237279,0.017212,0.018693,1357,407,4.8652,34.9838
140,617,4.90894,-34.8445,0.00179552,-0.0226304,-0.00570399,0.00306188,-0.0238968,-0.218468,0.0170437,0.0163804,1364,407,4.90896,34.8445
147,617,4.93591,-34.6625,0.00129486,-0.0225949,-0.00500931,0.00230272,-0.0236028,-0.198545,0.0165562,0.0191585,1371,407,4.93593,34.6625
154,617,4.98804,-34.537,0.00120964,-0.0216253,-0.0043333,0.0020043,-0.0224199,-0.18137,0.0156575,0.0228872,1378,407,4.98802,34.5371
161,617,5.05151,-34.4145,0.00133127,-0.0198297,-0.00367992,0.00195295,-0.0204513,-0.167358,0.0143296,0.0236094,1385,407,5.05152,34.4145
168,617,5.07532,-34.2115,0.00124754,-0.0174986,-0.00324336,0.00179282,-0.0180439,-0.166566,0.0126692,0.0214278,1392,407,5.07534,34.2116
175,617,5.08313,-33.9757,0.00119323,-0.0140191,-0.00279113,0.00168917,-0.014515,-0.17585,0.0102861,0.0174911,1399,407,5.08313,33.9757
182,617,5.10791,-33.7589,0.00110849,-0.0102317,-0.0020966,0.00148369,-0.0106069,-0.177086,0.0076142,0.01136,1406,407,5.10794,33.7589
189,617,5.09949,-33.5197,0.00110718,-0.0066873,-0.00147079,0.00137547,-0.00695559,-0.180434,0.00515706,0.0110398,1413,407,5.0995,33.5196
196,617,5.09802,-33.2792,0.00129449,-0.00336265,-0.000815881,0.00143329,-0.00350144,-0.168506,0.00293129,0.0154587,1420,407,5.09799,33.2792
203,617,5.09912,-33.0299,0.00126068,-0.000186466,-0.000334423,0.00133422,-0.000260011,-0.21647,0.000987629,0.0151737,1427,407,5.09913,33.0299
210,617,5.11792,-32.743,0.00088258,0.00197633,6.15802e-06,0.00197637,0.000882545,1.56517,0.00114323,0.014872,1434,407,5.11787,32.743
217,617,5.10645,-32.4347,0.000522314,0.00269503,0.000341085,0.00274731,0.000470027,1.41868,0.00169671,0.0199437,1441,407,5.10648,32.4347
224,617,5.11157,-32.1971,0.000355395,0.00335739,0.000641298,0.00348865,0.000224138,1.36891,0.00225477,0.0190911,1448,407,5.11156,32.197
231,617,5.15942,-31.9621,0.000216908,0.00400284,0.000986363,0.0042444,-2.46596e-05,1.33062,0.00283786,0.0143657,1455,407,5.15938,31.9621
238,617,5.15942,-31.641,5.6332e-05,0.00474573,0.00135092,0.00510706,-0.000304998,1.30944,0.00351079,0.0155527,1462,407,5.15942,31.641
245,617,5.15295,-31.3256,-0.000210839,0.00538352,0.00150304,0.00576177,-0.000589089,1.32426,0.00405185,0.0134761,1469,407,5.15294,31.3256
252,617,5.13879,-30.9696,-0.000398182,0.00609348,0.00169061,0.00650737,-0.000812073,1.3307,0.00463272,0.0141058,1476,407,5.13874,30.9696
259,617,5.09644,-30.6202,-0.000644423,0.0068391,0.00190123,0.00729442,-0.00109974,1.33574,0.00526793,0.0113631,1483,407,5.09648,30.6202
266,617,5.07996,-30.2693,-0.000884076,0.00762879,0.0021524,0.00814206,-0.00139734,1.33671,0.00594878,0.013243,1490,407,5.08001,30.2693
273,617,5.09082,-29.914,-0.00115523,0.00840269,0.00239773,0.00897047,-0.00172301,1.33828,0.0066297,0.0143413,1497,407,5.09088,29.914
280,617,5.06714,-29.5885,-0.00137215,0.00910451,0.00268168,0.00975103,-0.00201868,1.33422,0.00726764,0.0126299,1504,407,5.06715,29.5885
287,617,5.02417,-29.2189,-0.00151703,0.00997847,0.00304226,0.0107339,-0.00227251,1.32739,0.0080215,0.0117251,1511,407,5.02417,29.2189
294,617,5.02441,-28.8464,-0.00166571,0.0108288,0.00340889,0.0116983,-0.00253524,1.32104,0.00876702,0.010599,1518,407,5.02437,28.8464
301,617,5.01111,-28.4538,-0.00178694,0.0115844,0.00377458,0.0125764,-0.00277887,1.31381,0.00944775,0.0086691,1525,407,5.01116,28.4538
308,617,4.97839,-28.0587,-0.00176393,0.0123178,0.00423669,0.0134942,-0.00294032,1.29995,0.0101196,0.00834293,1532,407,4.97838,28.0587
315,617,4.9574,-27.6697,-0.00161821,0.0128816,0.00474666,0.0142973,-0.00303387,1.28095,0.0106873,0.00927382,1539,407,4.95742,27.6697
322,617,4.91577,-27.2608,-0.00151881,0.0133596,0.0052747,0.0150399,-0.00319904,1.26241,0.0112456,0.0136749,1546,407,4.91581,27.2608
329,617,4.89722,-26.8054,-0.00162446,0.0136387,0.00569026,0.0155266,-0.00351233,1.25045,0.0116989,0.0161051,1553,407,4.89721,26.8054
336,617,4.92346,-26.2423,-0.001866,0.0138865,0.00588447,0.0158419,-0.00382145,1.24997,0.012039,0.0296402,1560,407,4.92349,26.2423
343,617,4.76941,-25.8416,0,0,0,0,0,0,0,-1,1567,407,4.76937,25.8416
350,617,4.77356,-25.431,0,0,0,0,0,0,0,-1,1574,407,4.7735,25.431
357,617,2.1748,-7.16504,0,0,0,0,0,0,0,-1,1581,407,2.1748,7.16505
364,617,2.30127,-7.60257,0,0,0,0,0,0,0,-1,1588,407,2.30125,7.60258
371,617,2.60266,-6.20667,0,0,0,0,0,0,0,-1,1595,407,2.60261,6.20668
378,617,1.56921,-10.3601,0,0,0,0,0,0,0,-1,1602,407,1.56918,10.3601
385,617,1.74146,-10.3561,0,0,0,0,0,0,0,-1,1609,407,1.7414,10.3561
392,617,1.96936,-5.10449,0,0,0,0,0,0,0,-1,1616,407,1.96931,5.10451
399,617,2.48889,-5.81256,0,0,0,0,0,0,0,-1,1623,407,2.48888,5.81255
406,617,3.01465,-6.51642,0,0,0,0,0,0,0,-1,1630,407,3.01461,6.51643
413,617,3.6427,-7.2074,0,0,0,0,0,0,0,-1,1637,407,3.64274,7.20739
420,617,3.42737,-4.47391,0,0,0,0,0,0,0,-1,1644,407,3.42737,4.47391
427,617,0,0,0,0,0,0,0,0,0,-1,1651,407,0,0
434,617,0,0,0,0,0,0,0,0,0,-1,1658,407,0,0
441,617,0,0,0,0,0,0,0,0,0,-1,1665,407,0,0
448,617,0,0,0,0,0,0,0,0,0,-1,1672,407,0,0
455,617,0,0,0,0,0,0,0,0,0,-1,1679,407,0,0
462,617,0,0,0,0,0,0,0,0,0,-1,1686,407,0,0
469,617,0,0,0,0,0,0,0,0,0,-1,1693,407,0,0
476,617,0,0,0,0,0,0,0,0,0,-1,1700,407,0,0
483,617,0,0,0,0,0,0,0,0,0,-1,1707,407,0,0
490,617,0,0,0,0,0,0,0,0,0,-1,1714,407,0,0
497,617,0,0,0,0,0,0,0,0,0,-1,1721,407,0,0
504,617,0,0,0,0,0,0,0,0,0,-1,1728,407,0,0
511,617,0,0,0,0,0,0,0,0,0,-1,1735,407,0,0
518,617,0,0,0,0,0,0,0,0,0,-1,1742,407,0,0
525,617,0,0,0,0,0,0,0,0,0,-1,1749,407,0,0
532,617,0,0,0,0,0,0,0,0,0,-1,1756,407,0,0
539,617,0,0,0,0,0,0,0,0,0,-1,1763,407,0,0
546,617,0,0,0,0,0,0,0,0,0,-1,1770,407,0,0
553,617,0,0,0,0,0,0,0,0,0,-1,1777,407,0,0
560,617,0,0,0,0,0,0,0,0,0,-1,1784,407,0,0
567,617,0,0,0,0,0,0,0,0,0,-1,1791,407,0,0
574,617,0,0,0,0,0,0,0,0,0,-1,1798,407,0,0
581,617,0,0,0,0,0,0,0,0,0,-1,1805,407,0,0
588,617,0,0,0,0,0,0,0,0,0,-1,1812,407,0,0
595,617,0,0,0,0,0,0,0,0,0,-1,1819,407,0,0
602,617,0,0,0,0,0,0,0,0,0,-1,1826,407,0,0
609,617,0,0,0,0,0,0,0,0,0,-1,1833,407,0,0
616,617,0,0,0,0,0,0,0,0,0,-1,1840,407,0,0
623,617,0,0,0,0,0,0,0,0,0,-1,1847,407,0,0
630,617,0,0,0,0,0,0,0,0,0,-1,1854,407,0,0
637,617,0,0,0,0,0,0,0,0,0,-1,1861,407,0,0
644,617,0,0,0,0,0,0,0,0,0,-1,1868,407,0,0
651,617,0,0,0,0,0,0,0,0,0,-1,1875,407,0,0
658,617,0,0,0,0,0,0,0,0,0,-1,1882,407,0,0
665,617,0,0,0,0,0,0,0,0,0,-1,1889,407,0,0
672,617,0,0,0,0,0,0,0,0,0,-1,1896,407,0,0
679,617,0,0,0,0,0,0,0,0,0,-1,1903,407,0,0
686,617,0,0,0,0,0,0,0,0,0,-1,1910,407,0,0
693,617,0,0,0,0,0,0,0,0,0,-1,1917,407,0,0
700,617,0,0,0,0,0,0,0,0,0,-1,1924,407,0,0
707,617,0,0,0,0,0,0,0,0,0,-1,1931,407,0,0
714,617,0,0,0,0,0,0,0,0,0,-1,1938,407,0,0
721,617,0,0,0,0,0,0,0,0,0,-1,1945,407,0,0
728,617,0,0,0,0,0,0,0,0,0,-1,1952,407,0,0
735,617,0,0,0,0,0,0,0,0,0,-1,1959,407,0,0
742,617,0,0,0,0,0,0,0,0,0,-1,1966,407,0,0
749,617,0,0,0,0,0,0,0,0,0,-1,1973,407,0,0
756,617,0,0,0,0,0,0,0,0,0,-1,1980,407,0,0
763,617,0,0,0,0,0,0,0,0,0,-1,1987,407,0,0
770,617,0,0,0,0,0,0,0,0,0,-1,1994,407,0,0
777,617,0,0,0,0,0,0,0,0,0,-1,2001,407,0,0
784,617,0,0,0,0,0,0,0,0,0,-1,2008,407,0,0
791,617,0,0,0,0,0,0,0,0,0,-1,2015,407,0,0
798,617,0,0,0,0,0,0,0,0,0,-1,2022,407,0,0
805,617,0,0,0,0,0,0,0,0,0,-1,2029,407,0,0
812,617,0,0,0,0,0,0,0,0,0,-1,2036,407,0,0
-700,610,0,0,0,0,0,0,0,0,0,-1,524,414,0,0
-693,610,0,0,0,0,0,0,0,0,0,-1,531,414,0,0
-686,610,0,0,0,0,0,0,0,0,0,-1,538,414,0,0
-679,610,0,0,0,0,0,0,0,0,0,-1,545,414,0,0
-672,610,0,0,0,0,0,0,0,0,0,-1,552,414,0,0
-665,610,0,0,0,0,0,0,0,0,0,-1,559,414,0,0
-658,610,0,0,0,0,0,0,0,0,0,-1,566,414,0,0
-651,610,0,0,0,0,0,0,0,0,0,-1,573,414,0,0
-644,610,0,0,0,0,0,0,0,0,0,-1,580,414,0,0
-637,610,0,0,0,0,0,0,0,0,0,-1,587,414,0,0
-630,610,0,0,0,0,0,0,0,0,0,-1,594,414,0,0
-623,610,0,0,0,0,0,0,0,0,0,-1,601,414,0,0
-616,610,0,0,0,0,0,0,0,0,0,-1,608,414,0,0
-609,610,0,0,0,0,0,0,0,0,0,-1,615,414,0,0
-602,610,0,0,0,0,0,0,0,0,0,-1,622,414,0,0
-595,610,0,0,0,0,0,0,0,0,0,-1,629,414,0,0
-588,610,0,0,0,0,0,0,0,0,0,-1,636,414,0,0
-581,610,0,0,0,0,0,0,0,0,0,-1,643,414,0,0
-574,610,0,0,0,0,0,0,0,0,0,-1,650,414,0,0
-567,610,0,0,0,0,0,0,0,0,0,-1,657,414,0,0
-560,610,0,0,0,0,0,0,0,0,0,-1,664,414,0,0
-553,610,0,0,0,0,0,0,0,0,0,-1,671,414,0,0
-546,610,0,0,0,0,0,0,0,0,0,-1,678,414,0,0
-539,610,0,0,0,0,0,0,0,0,0,-1,685,414,0,0
-532,610,0,0,0,0,0,0,0,0,0,-1,692,414,0,0
-525,610,0,0,0,0,0,0,0,0,0,-1,699,414,0,0
-518,610,0,0,0,0,0,0,0,0,0,-1,706,414,0,0
-511,610,0,0,0,0,0,0,0,0,0,-1,713,414,0,0
-504,610,0,0,0,0,0,0,0,0,0,-1,720,414,0,0
-497,610,0,0,0,0,0,0,0,0,0,-1,727,414,0,0
-490,610,0,0,0,0,0,0,0,0,0,-1,734,414,0,0
-483,610,0,0,0,0,0,0,0,0,0,-1,741,414,0,0
-476,610,0,0,0,0,0,0,0,0,0,-1,748,414,0,0
-469,610,0,0,0,0,0,0,0,0,0,-1,755,414,0,0
-462,610,0,0,0,0,0,0,0,0,0,-1,762,414,0,0
-455,610,0,0,0,0,0,0,0,0,0,-1,769,414,0,0
-448,610,0,0,0,0,0,0,0,0,0,-1,776,414,0,0
-441,610,0,0,0,0,0,0,0,0,0,-1,783,414,0,0
-434,610,0,0,0,0,0,0,0,0,0,-1,790,414,0,0
-427,610,0,0,0,0,0,0,0,0,0,-1,797,414,0,0
-420,610,0,0,0,0,0,0,0,0,0,-1,804,414,0,0
-413,610,0,0,0,0,0,0,0,0,0,-1,811,414,0,0
-406,610,0,0,0,0,0,0,0,0,0,-1,818,414,0,0
-399,610,0,0,0,0,0,0,0,0,0,-1,825,414,0,0
-392,610,0,0,0,0,0,0,0,0,0,-1,832,414,0,0
-385,610,0,0,0,0,0,0,0,0,0,-1,839,414,0,0
-378,610,0,0,0,0,0,0,0,0,0,-1,846,414,0,0
-371,610,0,0,0,0,0,0,0,0,0,-1,853,414,0,0
-364,610,0,0,0,0,0,0,0,0,0,-1,860,414,0,0
-357,610,0,0,0,0,0,0,0,0,0,-1,867,414,0,0
-350,610,0,0,0,0,0,0,0,0,0,-1,874,414,0,0
-343,610,0,0,0,0,0,0,0,0,0,-1,881,414,0,0
-336,610,0,0,0,0,0,0,0,0,0,-1,888,414,0,0
-329,610,0,0,0,0,0,0,0,0,0,-1,895,414,0,0
-322,610,0,0,0,0,0,0,0,0,0,-1,902,414,0,0
-315,610,8.08594,-20.6403,0,0,0,0,0,0,0,-1,909,414,8.08595,20.6403
-308,610,3.97559,-24.1635,0,0,0,0,0,0,0,-1,916,414,3.97556,24.1635
-301,610,4.95953,-24.3575,0,0,0,0,0,0,0,-1,923,414,4.95952,24.3575
-294,610,6.20813,-24.3114,0,0,0,0,0,0,0,-1,930,414,6.20815,24.3114
-287,610,2.427,-24.4821,0,0,0,0,0,0,0,-1,937,414,2.42702,24.4821
-280,610,2.78668,-21.9856,0,0,0,0,0,0,0,-1,944,414,2.78671,21.9856
-273,610,3.55499,-22.5514,0,0,0,0,0,0,0,-1,951,414,3.55497,22.5514
-266,610,4.38629,-23.0743,0,0,0,0,0,0,0,-1,958,414,4.38632,23.0743
-259,610,3.396,-25.0469,0,0,0,0,0,0,0,-1,965,414,3.396,25.0469
-252,610,3.85046,-25.3041,0,0,0,0,0,0,0,-1,972,414,3.85046,25.3041
-245,610,4.25787,-25.3793,-0.00806849,0.0104487,-0.00132998,0.0105438,-0.00816352,-1.49946,0.0108298,0.0470996,979,414,4.25787,25.3793
-238,610,4.0661,-25.69,-0.00686969,0.0121038,-0.00187532,0.0122874,-0.00705327,-1.47322,0.0113018,0.0483906,986,414,4.06613,25.69
-231,610,3.93732,-25.5812,-0.00588425,0.013175,-0.00219313,0.0134241,-0.00613336,-1.4577,0.0115501,0.0382601,993,414,3.93734,25.5812
-224,610,3.90527,-26.2232,-0.00539732,0.0130808,-0.00289338,0.0135233,-0.00583978,-1.41905,0.0114689,0.0265957,1000,414,3.90529,26.2232
-217,610,3.93951,-26.777,-0.00482711,0.0129112,-0.00338732,0.013536,-0.00545195,-1.38838,0.011289,0.0181104,1007,414,3.93951,26.777
-210,610,3.92267,-27.2522,-0.00283517,0.0116549,-0.00361849,0.0125083,-0.00368853,-1.3392,0.00980249,0.0127502,1014,414,3.92269,27.2522
-203,610,3.90723,-27.6507,-0.00148418,0.0106099,-0.00340039,0.0115004,-0.00237467,-1.31467,0.00856887,0.0148444,1021,414,3.90722,27.6507
-196,610,3.87354,-28.033,-0.00069118,0.00945759,-0.0031903,0.0103771,-0.00161074,-1.29017,0.00751279,0.0138712,1028,414,3.87352,28.033
-189,610,3.84448,-28.394,8.20942e-05,0.00869185,-0.00310754,0.00969628,-0.00092234,-1.25817,0.00679254,0.0114838,1035,414,3.84445,28.394
-182,610,3.81787,-28.7749,0.000750925,0.00744829,-0.0028684,0.00850885,-0.000309634,-1.21665,0.00577854,0.0128223,1042,414,3.81783,28.7749
-175,610,3.78809,-29.1463,0.0011881,0.00559483,-0.00236838,0.00662628,0.000156654,-1.16006,0.00436624,0.0128039,1049,414,3.78812,29.1463
-168,610,3.74902,-29.529,0.00141547,0.00406249,-0.00176647,0.00494626,0.000531693,-1.1069,0.00313534,0.0113113,1056,414,3.74902,29.529
-161,610,3.72681,-29.9142,0.00151381,0.00269635,-0.00120802,0.00345003,0.000760122,-1.01299,0.00209317,0.0108687,1063,414,3.7268,29.9142
-154,610,3.7229,-30.2458,0.00151962,0.00150049,-0.000669189,0.00217931,0.000840799,-0.77825,0.00126912,0.0142267,1070,414,3.72293,30.2458
-147,610,3.73853,-30.5627,0.00141426,0.000557151,-0.000194007,0.00145613,0.000515283,-0.212549,0.00085258,0.0161427,1077,414,3.73849,30.5627
-140,610,3.72913,-30.9209,0.00129209,-0.000323175,0.000165096,0.00130879,-0.000339877,0.100821,0.00100516,0.0122927,1084,414,3.72913,30.9209
-133,610,3.724,-31.2124,0.00113004,-0.00103229,0.000483635,0.00123328,-0.00113553,0.210315,0.00136802,0.013144,1091,414,3.72405,31.2124
-126,610,3.71912,-31.4807,0.000947835,-0.001485,0.000700661,0.0011352,-0.00167236,0.261294,0.0016308,0.0121969,1098,414,3.71911,31.4807
-119,610,3.71399,-31.7722,0.00088906,-0.00165776,0.000842429,0.0011425,-0.0019112,0.292227,0.00178157,0.0107521,1105,414,3.71397,31.7722
-112,610,3.71875,-32.0668,0.000879479,-0.00176975,0.000839192,0.00112294,-0.0020132,0.282358,0.00183481,0.0189608,1112,414,3.71879,32.0668
-105,610,3.72607,-32.3675,0.000943366,-0.00182925,0.000740143,0.00112857,-0.00201446,0.245197,0.0018385,0.0192617,1119,414,3.7261,32.3675
-98,610,3.7395,-32.6383,0.00122008,-0.00193167,0.000595408,0.00132881,-0.0020404,0.180623,0.00195962,0.0135515,1126,414,3.7395,32.6383
-91,610,3.73145,-32.8845,0.00155363,-0.00197329,0.000477588,0.00161716,-0.00203682,0.13224,0.00211426,0.0143863,1133,414,3.73142,32.8845
-84,610,3.76404,-33.1472,0.0018727,-0.00203532,0.000413885,0.00191605,-0.00207867,0.104364,0.00230699,0.0152562,1140,414,3.76401,33.1472
-77,610,3.77356,-33.4291,0.00223872,-0.00206203,0.000306103,0.0022604,-0.00208371,0.0706993,0.00250876,0.0122641,1147,414,3.77357,33.4291
-70,610,3.79907,-33.6597,0.00275342,-0.00208159,0.000228819,0.00276422,-0.0020924,0.0471848,0.0028129,0.0141328,1154,414,3.79903,33.6597
-63,610,3.81653,-33.8672,0.00403484,-0.00193264,0.000214538,0.00404254,-0.00194035,0.0358895,0.00352458,0.0132042,1161,414,3.81647,33.8672
-56,610,3.84485,-34.0552,0.00586297,-0.00236281,0.000447005,0.00588719,-0.00238703,0.0541295,0.00491753,0.0111804,1168,414,3.84481,34.0552
-49,610,3.85889,-34.2681,0.00747642,-0.0044454,0.00127139,0.0076105,-0.00457947,0.10507,0.00711003,0.0116026,1175,414,3.85884,34.2681
-42,610,3.87573,-34.4761,0.00809809,-0.00833807,0.0029196,0.0086013,-0.00884128,0.170679,0.0100708,0.0159144,1182,414,3.87579,34.4761
-35,610,3.89954,-34.6373,0.00902121,-0.0117765,0.00334527,0.00954605,-0.0123013,0.15562,0.012647,0.0171362,1189,414,3.89955,34.6373
-28,610,3.92761,-34.7888,0.00940985,-0.0145369,0.00317372,0.00982333,-0.0149504,0.129553,0.0144049,0.0144429,1196,414,3.92764,34.7888
-21,610,3.98047,-34.905,0.00875791,-0.0166873,0.00257082,0.00901505,-0.0169445,0.0996911,0.015219,0.0117047,1203,414,3.98045,34.905
-14,610,4.01599,-35.0044,0.00742375,-0.0181466,0.00143245,0.00750374,-0.0182265,0.0557874,0.0152793,0.0132876,1210,414,4.01603,35.0044
-7,610,4.06079,-35.1026,0.00585127,-0.0192088,0.000123841,0.00585188,-0.0192094,0.00494161,0.0151387,0.0152272,1217,414,4.06076,35.1026
0,610,4.09521,-35.2517,0.0041106,-0.0197615,-6.6659e-05,0.00411079,-0.0197616,-0.00279231,0.0147371,0.0116776,1224,414,4.09519,35.2517
7,610,4.12939,-35.3775,0.00275263,-0.0195955,-0.000489679,0.00276335,-0.0196063,-0.0218974,0.0140826,0.0129269,1231,414,4.12935,35.3775
14,610,4.24927,-35.4407,0.00199472,-0.0193054,-0.00121099,0.00206335,-0.019374,-0.0566103,0.0136559,0.0169582,1238,414,4.24924,35.4407
21,610,4.32336,-35.4834,0.00170931,-0.0186787,-0.00180742,0.0018683,-0.0188377,-0.0877392,0.0132253,0.0156849,1245,414,4.32331,35.4834
28,610,4.29126,-35.5885,0.00195623,-0.017987,-0.00212863,0.0021809,-0.0182117,-0.105156,0.0129296,0.0153331,1252,414,4.2912,35.5885
35,610,4.37732,-35.6449,0.00273768,-0.017079,-0.00235231,0.00301308,-0.0173544,-0.116546,0.0126937,0.0180389,1259,414,4.37728,35.6449
42,610,4.43408,-35.6474,0.00435418,-0.015983,-0.00267349,0.00469976,-0.0163286,-0.128549,0.0127445,0.016698,1266,414,4.43404,35.6474
49,610,4.49548,-35.7162,0.00635823,-0.0148252,-0.00319289,0.00682902,-0.015296,-0.146394,0.0130819,0.0166348,1273,414,4.49552,35.7162
56,610,4.52185,-35.7065,0.00834361,-0.0139087,-0.00403848,0.00905387,-0.0146189,-0.174092,0.0137928,0.0159345,1280,414,4.5218,35.7065
63,610,4.47986,-35.6541,0.0104667,-0.0131228,-0.00493429,0.0114572,-0.0141133,-0.198111,0.0147896,0.0220674,1287,414,4.47987,35.6541
70,610,4.52686,-35.5907,0.0121626,-0.0128233,-0.00561145,0.013365,-0.0140257,-0.211081,0.0158156,0.0304792,1294,414,4.52683,35.5907
77,610,4.6084,-35.554,0.0130911,-0.0138349,-0.00642511,0.0145456,-0.0152894,-0.222639,0.0172271,0.0343198,1301,414,4.60846,35.554
84,610,4.77319,-35.5821,0.0137311,-0.0154118,-0.00713125,0.0153826,-0.0170632,-0.227565,0.018741,0.0319477,1308,414,4.77316,35.5821
91,610,4.80786,-35.6248,0.0132994,-0.0176918,-0.00761518,0.0150695,-0.0194619,-0.228388,0.0199904,0.0286696,1315,414,4.80784,35.6248
98,610,4.88928,-35.5602,0.0121279,-0.020612,-0.00805776,0.0140036,-0.0224877,-0.228705,0.0212572,0.0260735,1322,414,4.88927,35.5602
105,610,4.90442,-35.4638,0.0104046,-0.0238492,-0.00938813,0.0128089,-0.0262535,-0.250711,0.0229937,0.020298,1329,414,4.90442,35.4638
112,610,4.91431,-35.3482,0.00803459,-0.0269466,-0.00981283,0.0105992,-0.0295112,-0.255638,0.0240005,0.0132289,1336,414,4.91428,35.3482
119,610,4.94409,-35.2489,0.00508017,-0.0295898,-0.00924165,0.00738977,-0.0318994,-0.244896,0.02411,0.0193045,1343,414,4.94413,35.2489
126,610,5.02576,-35.1386,0.00276404,-0.0320035,-0.00858756,0.00476949,-0.0340089,-0.229418,0.0244182,0.0274177,1350,414,5.02576,35.1386
133,610,5.06262,-35.0077,0.00120051,-0.0336897,-0.00798444,0.00294089,-0.0354301,-0.214615,0.0246589,0.0210067,1357,414,5.06263,35.0077
140,610,5.10107,-34.8643,0.000351452,-0.0347345,-0.00723565,0.00178506,-0.0361681,-0.195598,0.0247286,0.0165698,1364,414,5.10106,34.8643
147,610,5.10632,-34.6523,-0.000356947,-0.0350563,-0.00638586,0.000780953,-0.0361942,-0.17634,0.0243939,0.0169518,1371,414,5.10638,34.6523
154,610,5.11572,-34.4782,-0.000447562,-0.0341149,-0.00559433,0.000457684,-0.0350201,-0.160424,0.0235008,0.0212404,1378,414,5.11568,34.4782
161,610,5.23206,-34.3484,-0.00020746,-0.0320955,-0.00486516,0.000518298,-0.0328213,-0.148083,0.0220557,0.0263934,1385,414,5.23201,34.3484
168,610,5.26501,-34.1602,-0.000175746,-0.0292915,-0.00449815,0.000503344,-0.0299705,-0.149839,0.0201502,0.0265872,1392,414,5.26503,34.1602
175,610,5.27197,-33.9519,0.000133238,-0.0245475,-0.00402412,0.000772789,-0.025187,-0.157611,0.0170548,0.0218094,1399,414,5.27195,33.9519
182,610,5.31409,-33.743,0.000407605,-0.0191629,-0.00309889,0.000886577,-0.0196418,-0.153349,0.0133999,0.0154051,1406,414,5.31405,33.743
189,610,5.34778,-33.4995,0.000728916,-0.0138418,-0.00237169,0.00110524,-0.0142181,-0.157361,0.00986782,0.0139333,1413,414,5.34775,33.4995
196,610,5.3551,-33.2707,0.00187816,-0.00843895,-0.00180949,0.00218632,-0.0087471,-0.168682,0.00668051,0.013994,1420,414,5.35514,33.2707
203,610,5.35193,-33.0258,0.00206564,-0.0029682,-0.00119149,0.00233341,-0.00323598,-0.221069,0.00322953,0.0135966,1427,414,5.35194,33.0258
210,610,5.36304,-32.7827,0.00168925,0.000851727,-0.000810458,0.00218274,0.000358238,-0.546939,0.00135167,0.0103842,1434,414,5.363,32.7827
217,610,5.41418,-32.4776,0.00120586,0.0016266,-0.000366258,0.00183861,0.000993856,-1.04608,0.00106268,0.0169383,1441,414,5.41418,32.4776
224,610,5.42639,-32.1964,0.000940299,0.00227476,1.60896e-05,0.00227496,0.000940105,1.55874,0.00132002,0.0199245,1448,414,5.42644,32.1963
231,610,5.41345,-31.9303,0.000736692,0.00286487,0.000396575,0.00293636,0.000665194,1.39242,0.00177782,0.0151652,1455,414,5.41345,31.9303
238,610,5.42834,-31.6182,0.000644637,0.00340557,0.000762134,0.00360198,0.000448229,1.31858,0.00226673,0.0113467,1462,414,5.42839,31.6182
245,610,5.44434,-31.2969,0.000583044,0.0038776,0.00100079,0.00415778,0.000302863,1.29782,0.00267662,0.0130922,1469,414,5.44439,31.2969
252,610,5.44287,-30.9549,0.000499409,0.00435024,0.00120832,0.00469799,0.000151665,1.29058,0.00308268,0.0142958,1476,414,5.44293,30.9549
259,610,5.4231,-30.6128,0.000319867,0.00482125,0.0014095,0.00522617,-8.50593e-05,1.29105,0.00351281,0.0121991,1483,414,5.42307,30.6128
266,610,5.42627,-30.2717,0.000119422,0.00532111,0.0016106,0.00577942,-0.000338885,1.29357,0.00397073,0.0126104,1490,414,5.42632,30.2717
273,610,5.42847,-29.9301,-9.73094e-05,0.00587951,0.00181835,0.00638924,-0.00060704,1.29749,0.00447558,0.00976221,1497,414,5.42846,29.9301
280,610,5.41113,-29.5688,-0.00026231,0.00633966,0.00206076,0.00693011,-0.000852756,1.29175,0.00492897,0.00914295,1504,414,5.41117,29.5688
287,610,5.3761,-29.185,-0.000407114,0.00704419,0.00234804,0.00772237,-0.0010853,1.28962,0.00554553,0.0124286,1511,414,5.37611,29.185
294,610,5.38794,-28.8181,-0.000593829,0.00774465,0.00264421,0.00851246,-0.00136163,1.2882,0.00617906,0.0119691,1518,414,5.38793,28.8182
301,610,5.38098,-28.4748,-0.000781448,0.00837795,0.00294302,0.00924205,-0.00164556,1.28521,0.00677681,0.0114417,1525,414,5.38092,28.4748
308,610,5.35693,-28.0773,-0.000858585,0.0089914,0.00332113,0.0100066,-0.00187375,1.27415,0.0073754,0.0122991,1532,414,5.35699,28.0773
315,610,5.31946,-27.6826,-0.00087352,0.00951691,0.00370234,0.0107012,-0.00205777,1.26122,0.00790976,0.0127092,1539,414,5.3194,27.6825
322,610,5.28882,-27.2463,-0.00095162,0.00997627,0.0040784,0.0113305,-0.00230589,1.25019,0.00842813,0.0133823,1546,414,5.28886,27.2463
329,610,5.25842,-26.8201,-0.00118644,0.01024,0.00437307,0.0117215,-0.00266798,1.24414,0.00883894,0.0122213,1553,414,5.25838,26.8201
336,610,5.27759,-26.3894,-0.00152351,0.0104932,0.00451884,0.0120029,-0.00303315,1.24838,0.0091815,0.0107698,1560,414,5.27755,26.3894
343,610,5.24561,-25.9486,-0.00161853,0.010534,0.0046723,0.0121227,-0.00320721,1.24304,0.00933631,0.0193058,1567,414,5.24557,25.9486
350,610,5.15649,-25.5606,-0.00137443,0.0112786,0.00536788,0.013249,-0.00334484,1.21899,0.0101333,0.0423118,1574,414,5.15646,25.5606
357,610,5.2959,-24.896,0,0,0,0,0,0,0,-1,1581,414,5.29591,24.896
364,610,4.34302,-15.9496,0,0,0,0,0,0,0,-1,1588,414,4.34299,15.9496
371,610,3.54138,-13.3788,0,0,0,0,0,0,0,-1,1595,414,3.54137,13.3788
378,610,3.5752,-12.1958,0,0,0,0,0,0,0,-1,1602,414,3.57517,12.1958
385,610,2.57104,-10.3878,0,0,0,0,0,0,0,-1,1609,414,2.57109,10.3878
392,610,1.99744,-1.83582,0,0,0,0,0,0,0,-1,1616,414,1.99741,1.8358
399,610,2.77136,-2.60333,0,0,0,0,0,0,0,-1,1623,414,2.77133,2.60332
406,610,3.54529,-3.37085,0,0,0,0,0,0,0,-1,1630,414,3.54525,3.37084
413,610,3.01929,-3.20306,0,0,0,0,0,0,0,-1,1637,414,3.01929,3.20306
420,610,4.78149,-3.64041,0,0,0,0,0,0,0,-1,1644,414,4.78152,3.64042
427,610,5.20764,-4.67545,0,0,0,0,0,0,0,-1,1651,414,5.20759,4.67545
434,610,5.39233,-5.45441,0,0,0,0,0,0,0,-1,1658,414,5.39228,5.4544
441,610,0,0,0,0,0,0,0,0,0,-1,1665,414,0,0
448,610,0,0,0,0,0,0,0,0,0,-1,1672,414,0,0
455,610,0,0,0,0,0,0,0,0,0,-1,1679,414,0,0
462,610,0,0,0,0,0,0,0,0,0,-1,1686,414,0,0
469,610,0,0,0,0,0,0,0,0,0,-1,1693,414,0,0
476,610,0,0,0,0,0,0,0,0,0,-1,1700,414,0,0
483,610,0,0,0,0,0,0,0,0,0,-1,1707,414,0,0
490,610,0,0,0,0,0,0,0,0,0,-1,1714,414,0,0
497,610,0,0,0,0,0,0,0,0,0,-1,1721,414,0,0
504,610,0,0,0,0,0,0,0,0,0,-1,1728,414,0,0
511,610,0,0,0,0,0,0,0,0,0,-1,1735,414,0,0
518,610,0,0,0,0,0,0,0,0,0,-1,1742,414,0,0
525,610,0,0,0,0,0,0,0,0,0,-1,1749,414,0,0
532,610,0,0,0,0,0,0,0,0,0,-1,1756,414,0,0
539,610,0,0,0,0,0,0,0,0,0,-1,1763,414,0,0
546,610,0,0,0,0,0,0,0,0,0,-1,1770,414,0,0
553,610,0,0,0,0,0,0,0,0,0,-1,1777,414,0,0
560,610,0,0,0,0,0,0,0,0,0,-1,1784,414,0,0
567,610,0,0,0,0,0,0,0,0,0,-1,1791,414,0,0
574,610,0,0,0,0,0,0,0,0,0,-1,1798,414,0,0
581,610,0,0,0,0,0,0,0,0,0,-1,1805,414,0,0
588,610,0,0,0,0,0,0,0,0,0,-1,1812,414,0,0
595,610,0,0,0,0,0,0,0,0,0,-1,1819,414,0,0
602,610,0,0,0,0,0,0,0,0,0,-1,1826,414,0,0
609,610,0,0,0,0,0,0,0,0,0,-1,1833,414,0,0
616,610,0,0,0,0,0,0,0,0,0,-1,1840,414,0,0
623,610,0,0,0,0,0,0,0,0,0,-1,1847,414,0,0
630,610,0,0,0,0,0,0,0,0,0,-1,1854,414,0,0
637,610,0,0,0,0,0,0,0,0,0,-1,1861,414,0,0
644,610,0,0,0,0,0,0,0,0,0,-1,1868,414,0,0
651,610,0,0,0,0,0,0,0,0,0,-1,1875,414,0,0
658,610,0,0,0,0,0,0,0,0,0,-1,1882,414,0,0
665,610,0,0,0,0,0,0,0,0,0,-1,1889,414,0,0
672,610,0,0,0,0,0,0,0,0,0,-1,1896,414,0,0
679,610,0,0,0,0,0,0,0,0,0,-1,1903,414,0,0
686,610,0,0,0,0,0,0,0,0,0,-1,1910,414,0,0
693,610,0,0,0,0,0,0,0,0,0,-1,1917,414,0,0
700,610,0,0,0,0,0,0,0,0,0,-1,1924,414,0,0
707,610,0,0,0,0,0,0,0,0,0,-1,1931,414,0,0
714,610,0,0,0,0,0,0,0,0,0,-1,1938,414,0,0
721,610,0,0,0,0,0,0,0,0,0,-1,1945,414,0,0
728,610,0,0,0,0,0,0,0,0,0,-1,1952,414,0,0
735,610,0,0,0,0,0,0,0,0,0,-1,1959,414,0,0
742,610,0,0,0,0,0,0,0,0,0,-1,1966,414,0,0
749,610,0,0,0,0,0,0,0,0,0,-1,1973,414,0,0
756,610,0,0,0,0,0,0,0,0,0,-1,1980,414,0,0
763,610,0,0,0,0,0,0,0,0,0,-1,1987,414,0,0
770,610,0,0,0,0,0,0,0,0,0,-1,1994,414,0,0
777,610,0,0,0,0,0,0,0,0,0,-1,2001,414,0,0
784,610,0,0,0,0,0,0,0,0,0,-1,2008,414,0,0
791,610,0,0,0,0,0,0,0,0,0,-1,2015,414,0,0
798,610,0,0,0,0,0,0,0,0,0,-1,2022,414,0,0
805,610,0,0,0,0,0,0,0,0,0,-1,2029,414,0,0
812,610,0,0,0,0,0,0,0,0,0,-1,2036,414,0,0
-700,603,0,0,0,0,0,0,0,0,0,-1,524,421,0,0
-693,603,0,0,0,0,0,0,0,0,0,-1,531,421,0,0
-686,603,0,0,0,0,0,0,0,0,0,-1,538,421,0,0
-679,603,0,0,0,0,0,0,0,0,0,-1,545,421,0,0
-672,603,0,0,0,0,0,0,0,0,0,-1,552,421,0,0
-665,603,0,0,0,0,0,0,0,0,0,-1,559,421,0,0
-658,603,0,0,0,0,0,0,0,0,0,-1,566,421,0,0
-651,603,0,0,0,0,0,0,0,0,0,-1,573,421,0,0
-644,603,0,0,0,0,0,0,0,0,0,-1,580,421,0,0
-637,603,0,0,0,0,0,0,0,0,0,-1,587,421,0,0
-630,603,0,0,0,0,0,0,0,0,0,-1,594,421,0,0
-623,603,0,0,0,0,0,0,0,0,0,-1,601,421,0,0
-616,603,0,0,0,0,0,0,0,0,0,-1,608,421,0,0
-609,603,0,0,0,0,0,0,0,0,0,-1,615,421,0,0
-602,603,0,0,0,0,0,0,0,0,0,-1,622,421,0,0
-595,603,0,0,0,0,0,0,0,0,0,-1,629,421,0,0
-588,603,0,0,0,0,0,0,0,0,0,-1,636,421,0,0
-581,603,0,0,0,0,0,0,0,0,0,-1,643,421,0,0
-574,603,0,0,0,0,0,0,0,0,0,-1,650,421,0,0
-567,603,0,0,0,0,0,0,0,0,0,-1,657,421,0,0
-560,603,0,0,0,0,0,0,0,0,0,-1,664,421,0,0
-553,603,0,0,0,0,0,0,0,0,0,-1,671,421,0,0
-546,603,0,0,0,0,0,0,0,0,0,-1,678,421,0,0
-539,603,0,0,0,0,0,0,0,0,0,-1,685,421,0,0
-532,603,0,0,0,0,0,0,0,0,0,-1,692,421,0,0
-525,603,0,0,0,0,0,0,0,0,0,-1,699,421,0,0
-518,603,0,0,0,0,0,0,0,0,0,-1,706,421,0,0
-511,603,0,0,0,0,0,0,0,0,0,-1,713,421,0,0
-504,603,0,0,0,0,0,0,0,0,0,-1,720,421,0,0
-497,603,0,0,0,0,0,0,0,0,0,-1,727,421,0,0
-490,603,0,0,0,0,0,0,0,0,0,-1,734,421,0,0
-483,603,0,0,0,0,0,0,0,0,0,-1,741,421,0,0
-476,603,0,0,0,0,0,0,0,0,0,-1,748,421,0,0
-469,603,0,0,0,0,0,0,0,0,0,-1,755,421,0,0
-462,603,0,0,0,0,0,0,0,0,0,-1,762,421,0,0
-455,603,0,0,0,0,0,0,0,0,0,-1,769,421,0,0
-448,603,0,0,0,0,0,0,0,0,0,-1,776,421,0,0
-441,603,0,0,0,0,0,0,0,0,0,-1,783,421,0,0
-434,603,0,0,0,0,0,0,0,0,0,-1,790,421,0,0
-427,603,0,0,0,0,0,0,0,0,0,-1,797,421,0,0
-420,603,0,0,0,0,0,0,0,0,0,-1,804,421,0,0
-413,603,0,0,0,0,0,0,0,0,0,-1,811,421,0,0
-406,603,0,0,0,0,0,0,0,0,0,-1,818,421,0,0
-399,603,0,0,0,0,0,0,0,0,0,-1,825,421,0,0
-392,603,0,0,0,0,0,0,0,0,0,-1,832,421,0,0
-385,603,0,0,0,0,0,0,0,0,0,-1,839,421,0,0
-378,603,0,0,0,0,0,0,0,0,0,-1,846,421,0,0
-371,603,0,0,0,0,0,0,0,0,0,-1,853,421,0,0
-364,603,0,0,0,0,0,0,0,0,0,-1,860,421,0,0
-357,603,0,0,0,0,0,0,0,0,0,-1,867,421,0,0
-350,603,0,0,0,0,0,0,0,0,0,-1,874,421,0,0
-343,603,0,0,0,0,0,0,0,0,0,-1,881,421,0,0
-336,603,0,0,0,0,0,0,0,0,0,-1,888,421,0,0
-329,603,4.09686,-17.9702,0,0,0,0,0,0,0,-1,895,421,4.09687,17.9702
-322,603,5.98431,-20.9071,0,0,0,0,0,0,0,-1,902,421,5.98431,20.9071
-315,603,5.99744,-20.4501,0,0,0,0,0,0,0,-1,909,421,5.99745,20.4501
-308,603,5.92249,-20.778,0,0,0,0,0,0,0,-1,916,421,5.92248,20.778
-301,603,2.87506,-22.5246,0,0,0,0,0,0,0,-1,923,421,2.87504,22.5246
-294,603,4.08228,-22.5695,0,0,0,0,0,0,0,-1,930,421,4.0823,22.5695
-287,603,5.09351,-22.4149,0,0,0,0,0,0,0,-1,937,421,5.09353,22.4149
-280,603,3.82019,-21.8847,0,0,0,0,0,0,0,-1,944,421,3.82019,21.8847
-273,603,3.9469,-23.4201,0,0,0,0,0,0,0,-1,951,421,3.94693,23.4201
-266,603,3.74567,-23.7615,0,0,0,0,0,0,0,-1,958,421,3.74566,23.7615
-259,603,3.68451,-23.7226,0,0,0,0,0,0,0,-1,965,421,3.68451,23.7226
-252,603,3.74744,-24.7897,0,0,0,0,0,0,0,-1,972,421,3.74745,24.7897
-245,603,3.74878,-25.0912,-0.00604104,0.00905884,-0.00179146,0.00926847,-0.00625067,-1.45431,0.00901627,0.033505,979,421,3.74877,25.0912
-238,603,3.66797,-25.4532,-0.00512977,0.0100321,-0.00212169,0.0103234,-0.00542107,-1.43435,0.00923581,0.023003,986,421,3.66797,25.4532
-231,603,3.61298,-25.9494,-0.00437811,0.0104728,-0.0021939,0.0107902,-0.00469543,-1.42716,0.00916852,0.0137412,993,421,3.61299,25.9494
-224,603,3.55841,-26.416,-0.00396208,0.0102338,-0.00246695,0.0106503,-0.00437857,-1.40355,0.0089252,0.0138159,1000,421,3.55843,26.4161
-217,603,3.54578,-26.8204,-0.00347977,0.00994314,-0.00268441,0.0104601,-0.00399671,-1.38055,0.0086202,0.012354,1007,421,3.54577,26.8204
-210,603,3.55273,-27.2383,-0.00223893,0.00896395,-0.00275485,0.00960474,-0.00287971,-1.34226,0.00754844,0.0103397,1014,421,3.55276,27.2383
-203,603,3.54834,-27.6642,-0.00132758,0.00793278,-0.0025157,0.00857207,-0.00196687,-1.32194,0.00647076,0.0165545,1021,421,3.54838,27.6641
-196,603,3.54443,-28.0935,-0.000754643,0.00686236,-0.00226529,0.00748514,-0.00137742,-1.3025,0.00550695,0.0180075,1028,421,3.54439,28.0935
-189,603,3.50342,-28.433,-0.000186409,0.00604279,-0.0021296,0.00670125,-0.000844865,-1.27093,0.0047741,0.0158841,1035,421,3.5034,28.433
-182,603,3.46057,-28.8005,0.000301821,0.00483208,-0.0018293,0.0054785,-0.000344603,-1.23112,0.00377245,0.0115743,1042,421,3.46062,28.8005
-175,603,3.43933,-29.1643,0.000633261,0.00312494,-0.00131004,0.00368695,7.12507e-05,-1.16554,0.00243457,0.0114033,1049,421,3.43928,29.1643
-168,603,3.41211,-29.524,0.000781002,0.00159612,-0.000713854,0.00201057,0.000366555,-1.04478,0.00123644,0.0144251,1056,421,3.41207,29.524
-161,603,3.39063,-29.9043,0.00083509,0.000141498,-0.000154666,0.000868016,0.000108572,-0.209755,0.000546096,0.0140822,1063,421,3.39058,29.9043
-154,603,3.39612,-30.2423,0.000867776,-0.00113503,0.000385533,0.000939427,-0.00120668,0.183751,0.00124226,0.0134196,1070,421,3.39612,30.2423
-147,603,3.42053,-30.5634,0.000851515,-0.0021789,0.000855515,0.00107635,-0.00240374,0.256999,0.00205737,0.0146725,1077,421,3.42055,30.5634
-140,603,3.43274,-30.8829,0.000823657,-0.00318397,0.00122536,0.00116863,-0.00352893,0.274422,0.00282395,0.0120969,1084,421,3.43274,30.8829
-133,603,3.40881,-31.1926,0.000782886,-0.00404706,0.00156594,0.00124615,-0.00451033,0.287635,0.00349708,0.0121881,1091,421,3.40879,31.1926
-126,603,3.41064,-31.4669,0.000770427,-0.00465626,0.00178519,0.00130503,-0.00519086,0.290965,0.00396778,0.0105407,1098,421,3.41059,31.4669
-119,603,3.43298,-31.7603,0.000843327,-0.00500937,0.00188508,0.00139793,-0.00556397,0.286135,0.00425259,0.0105159,1105,421,3.43297,31.7602
-112,603,3.45044,-32.0653,0.000980976,-0.00522199,0.00184645,0.001489,-0.00573001,0.268494,0.00440112,0.0159794,1112,421,3.45042,32.0653
-105,603,3.46643,-32.3638,0.00137819,-0.00536076,0.00169389,0.00178,-0.00576257,0.232909,0.00455256,0.0163232,1119,421,3.46645,32.3638
-98,603,3.46753,-32.6206,0.00188319,-0.00532913,0.00149879,0.00218225,-0.00562819,0.196949,0.00465336,0.0135055,1126,421,3.46754,32.6206
-91,603,3.46033,-32.8726,0.00231581,-0.0051951,0.00130426,0.00253584,-0.00541514,0.167133,0.00468976,0.00988637,1133,421,3.46032,32.8726
-84,603,3.49231,-33.1505,0.00271712,-0.0050053,0.00115371,0.00288579,-0.00517398,0.145175,0.00471541,0.0110004,1140,421,3.49225,33.1505
-77,603,3.54077,-33.463,0.00319503,-0.00479268,0.000911213,0.00329766,-0.00489531,0.112157,0.00476009,0.0174599,1147,421,3.54083,33.463
-70,603,3.51697,-33.666,0,0,0,0,0,0,0,-1,1154,421,3.51693,33.666
-63,603,3.5509,-33.8392,0,0,0,0,0,0,0,-1,1161,421,3.55086,33.8392
-56,603,3.61951,-34.0437,0,0,0,0,0,0,0,-1,1168,421,3.61956,34.0437
-49,603,3.69495,-34.2485,0,0,0,0,0,0,0,-1,1175,421,3.69489,34.2485
-42,603,3.71179,-34.4077,0,0,0,0,0,0,0,-1,1182,421,3.71185,34.4077
-35,603,3.68103,-34.5293,0.0148684,-0.0195455,0.0055198,0.0157321,-0.0204091,0.15521,0.0209243,0.042095,1189,421,3.681,34.5293
-28,603,3.69812,-34.6631,0.0171086,-0.0229453,0.00405889,0.0175158,-0.0233524,0.0999815,0.0236754,0.0266997,1196,421,3.69807,34.6631
-21,603,3.77344,-34.8003,0.0163869,-0.0253902,0.00298746,0.0165995,-0.0256028,0.0710277,0.0245496,0.0227982,1203,421,3.77345,34.8003
-14,603,3.89697,-34.9158,0.0144792,-0.0267187,0.00119891,0.0145141,-0.0267536,0.0290684,0.0241727,0.0221916,1210,421,3.89696,34.9158
-7,603,3.96729,-35.0403,0.0124681,-0.0277126,-0.000636202,0.0124782,-0.0277226,-0.0158283,0.0237597,0.025856,1217,421,3.96725,35.0403
0,603,3.97302,-35.2343,0.010169,-0.0281321,-0.00142019,0.0102216,-0.0281847,-0.0370119,0.0229681,0.0319175,1224,421,3.97304,35.2343
7,603,3.98633,-35.1852,0.00808304,-0.0276558,-0.00236557,0.00823894,-0.0278117,-0.065808,0.0218124,0.0417018,1231,421,3.9863,35.1852
14,603,4.22717,-35.0284,0.00655649,-0.0268443,-0.00353171,0.00692584,-0.0272137,-0.104202,0.0208383,0.040784,1238,421,4.22715,35.0284
21,603,4.28625,-35.1136,0.00560682,-0.0256643,-0.00447148,0.00623364,-0.0262911,-0.139273,0.0199329,0.0324032,1245,421,4.28622,35.1135
28,603,4.30615,-35.1925,0.00529712,-0.0243855,-0.00499962,0.00611661,-0.025205,-0.162466,0.0191703,0.0371008,1252,421,4.30613,35.1925
35,603,4.29297,-35.1533,0.00571928,-0.0228912,-0.00533683,0.00668236,-0.0238543,-0.178538,0.0185363,0.0455958,1259,421,4.29291,35.1533
42,603,4.40796,-35.3692,0.00726618,-0.0212734,-0.00573791,0.00837659,-0.0223839,-0.191158,0.0183631,0.0392529,1266,421,4.40795,35.3692
49,603,4.5365,-35.5786,0.00942357,-0.0196429,-0.00635456,0.0107521,-0.0209714,-0.206097,0.0186297,0.0208359,1273,421,4.53653,35.5786
56,603,4.44702,-35.4851,0.0115265,-0.0184636,-0.00735369,0.0132326,-0.0201697,-0.227972,0.019423,0.0400822,1280,421,4.44707,35.4851
63,603,4.37048,-35.4818,0,0,0,0,0,0,0,-1,1287,421,4.3705,35.4818
70,603,4.43506,-35.3899,0,0,0,0,0,0,0,-1,1294,421,4.43506,35.3899
77,603,4.55359,-35.3784,0,0,0,0,0,0,0,-1,1301,421,4.55358,35.3785
84,603,4.85388,-35.4791,0,0,0,0,0,0,0,-1,1308,421,4.85394,35.4791
91,603,4.9187,-35.6135,0,0,0,0,0,0,0,-1,1315,421,4.91872,35.6135
98,603,5.05798,-35.6418,0,0,0,0,0,0,0,-1,1322,421,5.05798,35.6418
105,603,5.34375,-35.196,0.0116165,-0.0324607,-0.012252,0.0147932,-0.0356374,-0.253693,0.0299337,0.0476695,1329,421,5.34372,35.1961
112,603,5.21912,-35.0898,0.00838767,-0.0362986,-0.0125405,0.0116664,-0.0395773,-0.255727,0.0310139,0.0385903,1336,421,5.21914,35.0898
119,603,5.31555,-35.0042,0.00450934,-0.0397564,-0.0116862,0.00740508,-0.0426522,-0.242898,0.0311975,0.0417162,1343,421,5.31557,35.0042
126,603,5.32043,-34.7943,0.00144275,-0.0428386,-0.0107119,0.00389791,-0.0452938,-0.225307,0.0315754,0.0499423,1350,421,5.32045,34.7943
133,603,5.3407,-34.6574,-0.000578038,-0.0450375,-0.0098018,0.00148701,-0.0471026,-0.207644,0.0319089,0.0388289,1357,421,5.34065,34.6574
140,603,5.43262,-34.5707,-0.00167779,-0.0464124,-0.00873493,-3.2695e-05,-0.0480575,-0.186155,0.0320274,0.0284416,1364,421,5.43265,34.5707
147,603,5.323,-34.4704,-0.00256423,-0.0468501,-0.00759667,-0.00129735,-0.048117,-0.165246,0.0316544,0.0232532,1371,421,5.323,34.4704
154,603,5.25818,-34.4006,-0.002734,-0.0458226,-0.00657177,-0.00175398,-0.0468027,-0.148035,0.0306339,0.0287564,1378,421,5.25812,34.4006
161,603,5.4176,-34.2731,-0.00250567,-0.0436113,-0.00559393,-0.00175801,-0.0443589,-0.132868,0.0290044,0.0320386,1385,421,5.41761,34.2731
168,603,5.51978,-34.1001,-0.00245077,-0.0405592,-0.00511943,-0.00177502,-0.0412349,-0.131239,0.0269178,0.0339622,1392,421,5.51974,34.1001
175,603,5.6311,-33.8927,-0.00189148,-0.0350269,-0.00458388,-0.00126905,-0.0356493,-0.134962,0.0233547,0.0374945,1399,421,5.63108,33.8927
182,603,5.70825,-33.6983,-0.00126522,-0.028621,-0.00338088,-0.000853577,-0.0290327,-0.121161,0.019077,0.0433164,1406,421,5.70825,33.6983
189,603,5.70056,-33.4472,-0.000508198,-0.0218903,-0.00265516,-0.000183423,-0.0222151,-0.121714,0.0147493,0.0374293,1413,421,5.70051,33.4472
196,603,5.62573,-33.1733,0.00175563,-0.0145758,-0.00230481,0.00207467,-0.0148949,-0.137549,0.0106888,0.0282226,1420,421,5.62571,33.1733
203,603,5.62634,-32.9824,0.00235501,-0.00642743,-0.00163115,0.00264817,-0.00672059,-0.177831,0.0055768,0.0161807,1427,421,5.62631,32.9824
210,603,5.651,-32.8205,0.00225573,-0.000175418,-0.00142055,0.0029098,-0.000829489,-0.431498,0.00226751,0.0126181,1434,421,5.65094,32.8205
217,603,5.67566,-32.5112,0.00179845,0.000873429,-0.001052,0.00248512,0.000186756,-0.578293,0.00159814,0.0136107,1441,421,5.67567,32.5112
224,603,5.71997,-32.1945,0.00143999,0.00155724,-0.000582598,0.00208415,0.000913074,-0.83554,0.00120636,0.0167355,1448,421,5.71994,32.1945
231,603,5.71265,-31.9129,0.00118505,0.00213753,-0.000154348,0.00216192,0.00116066,-1.41409,0.00124931,0.0144431,1455,421,5.71268,31.9129
238,603,5.72327,-31.6074,0.00118008,0.00251768,0.000228924,0.00255577,0.00114198,1.4059,0.00147835,0.011398,1462,421,5.72326,31.6074
245,603,5.75732,-31.29,0.00132277,0.00282557,0.000548003,0.00300418,0.00114417,1.25573,0.0017508,0.0121116,1469,421,5.75734,31.29
252,603,5.76892,-30.9606,0.00135478,0.00305069,0.000776985,0.00335283,0.00105263,1.19992,0.00197992,0.0101469,1476,421,5.76896,30.9606
259,603,5.76343,-30.6357,0.00124786,0.00323337,0.000964704,0.00362489,0.000856343,1.18526,0.00218775,0.00980743,1483,421,5.76339,30.6357
266,603,5.75659,-30.2929,0.00109019,0.00343003,0.00111141,0.00387378,0.00064644,1.19092,0.00239628,0.0120611,1490,421,5.75665,30.293
273,603,5.75842,-29.9419,0.000929569,0.00376399,0.00127808,0.00425518,0.000438385,1.20388,0.00270253,0.0112521,1497,421,5.75846,29.9419
280,603,5.75806,-29.5731,0.000813376,0.00394532,0.00146179,0.00452157,0.000237128,1.19529,0.00293853,0.0122224,1504,421,5.75808,29.5731
287,603,5.76111,-29.1795,0.000665617,0.00446486,0.00166936,0.00509414,3.63393e-05,1.21031,0.00338404,0.0115296,1511,421,5.76107,29.1795
294,603,5.74658,-28.8173,0.000446856,0.00502085,0.0018963,0.00570476,-0.000237055,1.22466,0.0038846,0.0101865,1518,421,5.74656,28.8173
301,603,5.74316,-28.473,0.000210237,0.00554665,0.00213702,0.00629695,-0.000540062,1.23315,0.00438908,0.0121471,1525,421,5.74322,28.473
308,603,5.72571,-28.0674,6.47733e-05,0.00606096,0.00244593,0.00693212,-0.000806389,1.22864,0.00491232,0.0170792,1532,421,5.72574,28.0674
315,603,5.70081,-27.6679,-5.71479e-05,0.0065689,0.00273911,0.00755457,-0.00104283,1.22537,0.00541755,0.015343,1539,421,5.70087,27.6679
322,603,5.6803,-27.2453,-0.000247531,0.007048,0.00303419,0.00814497,-0.0013445,1.22388,0.00592918,0.0152516,1546,421,5.68032,27.2453
329,603,5.66016,-26.8195,-0.000554822,0.00735881,0.00328875,0.00854711,-0.00174313,1.22407,0.00635926,0.0112548,1553,421,5.66011,26.8195
336,603,5.65247,-26.4229,-0.000938078,0.00766881,0.00345276,0.00888272,-0.00215199,1.23272,0.0067544,0.00935433,1560,421,5.65242,26.4229
343,603,5.64648,-26.0027,-0.0011697,0.00786771,0.00363491,0.00914825,-0.00245024,1.23208,0.00705879,0.0115938,1567,421,5.64643,26.0028
350,603,5.62097,-25.5645,-0.00119596,0.00857825,0.00418254,0.0101237,-0.00274139,1.21686,0.00782466,0.0210071,1574,421,5.621,25.5645
357,603,5.6261,-25.0569,-0.00165044,0.00893172,0.00452959,0.0106058,-0.00332447,1.21679,0.00840086,0.0314077,1581,421,5.62606,25.0569
364,603,5.67566,-24.4684,0,0,0,0,0,0,0,-1,1588,421,5.67563,24.4684
371,603,5.52856,-24.0347,0,0,0,0,0,0,0,-1,1595,421,5.52859,24.0347
378,603,5.38403,-23.8557,0,0,0,0,0,0,0,-1,1602,421,5.38401,23.8557
385,603,5.07361,-23.0275,0,0,0,0,0,0,0,-1,1609,421,5.07365,23.0275
392,603,4.90527,-19.605,0,0,0,0,0,0,0,-1,1616,421,4.90526,19.605
399,603,2.94299,0.638214,0,0,0,0,0,0,0,-1,1623,421,2.94293,-0.638215
406,603,3.01917,-2.37219,0,0,0,0,0,0,0,-1,1630,421,3.01915,2.37219
413,603,2.38928,-2.41275,0,0,0,0,0,0,0,-1,1637,421,2.38926,2.41274
420,603,2.74866,-2.30066,0,0,0,0,0,0,0,-1,1644,421,2.74867,2.30065
427,603,7.11548,-3.35352,0,0,0,0,0,0,0,-1,1651,421,7.11549,3.35351
434,603,7.32153,-4.50525,0,0,0,0,0,0,0,-1,1658,421,7.32149,4.50525
441,603,3.18213,-0.250946,0,0,0,0,0,0,0,-1,1665,421,3.18212,0.250944
448,603,2.95667,-0.066925,0,0,0,0,0,0,0,-1,1672,421,2.95662,0.0669226
455,603,0,0,0,0,0,0,0,0,0,-1,1679,421,0,0
462,603,0,0,0,0,0,0,0,0,0,-1,1686,421,0,0
469,603,0,0,0,0,0,0,0,0,0,-1,1693,421,0,0
476,603,0,0,0,0,0,0,0,0,0,-1,1700,421,0,0
483,603,0,0,0,0,0,0,0,0,0,-1,1707,421,0,0
490,603,0,0,0,0,0,0,0,0,0,-1,1714,421,0,0
497,603,0,0,0,0,0,0,0,0,0,-1,1721,421,0,0
504,603,0,0,0,0,0,0,0,0,0,-1,1728,421,0,0
511,603,0,0,0,0,0,0,0,0,0,-1,1735,421,0,0
518,603,0,0,0,0,0,0,0,0,0,-1,1742,421,0,0
525,603,0,0,0,0,0,0,0,0,0,-1,1749,421,0,0
532,603,0,0,0,0,0,0,0,0,0,-1,1756,421,0,0
539,603,0,0,0,0,0,0,0,0,0,-1,1763,421,0,0
546,603,0,0,0,0,0,0,0,0,0,-1,1770,421,0,0
553,603,0,0,0,0,0,0,0,0,0,-1,1777,421,0,0
560,603,0,0,0,0,0,0,0,0,0,-1,1784,421,0,0
567,603,0,0,0,0,0,0,0,0,0,-1,1791,421,0,0
574,603,0,0,0,0,0,0,0,0,0,-1,1798,421,0,0
581,603,0,0,0,0,0,0,0,0,0,-1,1805,421,0,0
588,603,0,0,0,0,0,0,0,0,0,-1,1812,421,0,0
595,603,0,0,0,0,0,0,0,0,0,-1,1819,421,0,0
602,603,0,0,0,0,0,0,0,0,0,-1,1826,421,0,0
609,603,0,0,0,0,0,0,0,0,0,-1,1833,421,0,0
616,603,0,0,0,0,0,0,0,0,0,-1,1840,421,0,0
623,603,0,0,0,0,0,0,0,0,0,-1,1847,421,0,0
630,603,0,0,0,0,0,0,0,0,0,-1,1854,421,0,0
637,603,0,0,0,0,0,0,0,0,0,-1,1861,421,0,0
644,603,0,0,0,0,0,0,0,0,0,-1,1868,421,0,0
651,603,0,0,0,0,0,0,0,0,0,-1,1875,421,0,0
658,603,0,0,0,0,0,0,0,0,0,-1,1882,421,0,0
665,603,0,0,0,0,0,0,0,0,0,-1,1889,421,0,0
672,603,0,0,0,0,0,0,0,0,0,-1,1896,421,0,0
679,603,0,0,0,0,0,0,0,0,0,-1,1903,421,0,0
686,603,0,0,0,0,0,0,0,0,0,-1,1910,421,0,0
693,603,0,0,0,0,0,0,0,0,0,-1,1917,421,0,0
700,603,0,0,0,0,0,0,0,0,0,-1,1924,421,0,0
707,603,0,0,0,0,0,0,0,0,0,-1,1931,421,0,0
714,603,0,0,0,0,0,0,0,0,0,-1,1938,421,0,0
721,603,0,0,0,0,0,0,0,0,0,-1,1945,421,0,0
728,603,0,0,0,0,0,0,0,0,0,-1,1952,421,0,0
735,603,0,0,0,0,0,0,0,0,0,-1,1959,421,0,0
742,603,0,0,0,0,0,0,0,0,0,-1,1966,421,0,0
749,603,0,0,0,0,0,0,0,0,0,-1,1973,421,0,0
756,603,0,0,0,0,0,0,0,0,0,-1,1980,421,0,0
763,603,0,0,0,0,0,0,0,0,0,-1,1987,421,0,0
770,603,0,0,0,0,0,0,0,0,0,-1,1994,421,0,0
777,603,0,0,0,0,0,0,0,0,0,-1,2001,421,0,0
784,603,0,0,0,0,0,0,0,0,0,-1,2008,421,0,0
791,603,0,0,0,0,0,0,0,0,0,-1,2015,421,0,0
798,603,0,0,0,0,0,0,0,0,0,-1,2022,421,0,0
805,603,0,0,0,0,0,0,0,0,0,-1,2029,421,0,0
812,603,0,0,0,0,0,0,0,0,0,-1,2036,421,0,0
-700,596,0,0,0,0,0,0,0,0,0,-1,524,428,0,0
-693,596,0,0,0,0,0,0,0,0,0,-1,531,428,0,0
-686,596,0,0,0,0,0,0,0,0,0,-1,538,428,0,0
-679,596,0,0,0,0,0,0,0,0,0,-1,545,428,0,0
-672,596,0,0,0,0,0,0,0,0,0,-1,552,428,0,0
-665,596,0,0,0,0,0,0,0,0,0,-1,559,428,0,0
-658,596,0,0,0,0,0,0,0,0,0,-1,566,428,0,0
-651,596,0,0,0,0,0,0,0,0,0,-1,573,428,0,0
-644,596,0,0,0,0,0,0,0,0,0,-1,580,428,0,0
-637,596,0,0,0,0,0,0,0,0,0,-1,587,428,0,0
-630,596,0,0,0,0,0,0,0,0,0,-1,594,428,0,0
-623,596,0,0,0,0,0,0,0,0,0,-1,601,428,0,0
-616,596,0,0,0,0,0,0,0,0,0,-1,608,428,0,0
-609,596,0,0,0,0,0,0,0,0,0,-1,615,428,0,0
-602,596,0,0,0,0,0,0,0,0,0,-1,622,428,0,0
-595,596,0,0,0,0,0,0,0,0,0,-1,629,428,0,0
-588,596,0,0,0,0,0,0,0,0,0,-1,636,428,0,0
-581,596,0,0,0,0,0,0,0,0,0,-1,643,428,0,0
-574,596,0,0,0,0,0,0,0,0,0,-1,650,428,0,0
-567,596,0,0,0,0,0,0,0,0,0,-1,657,428,0,0
-560,596,0,0,0,0,0,0,0,0,0,-1,664,428,0,0
-553,596,0,0,0,0,0,0,0,0,0,-1,671,428,0,0
-546,596,0,0,0,0,0,0,0,0,0,-1,678,428,0,0
-539,596,0,0,0,0,0,0,0,0,0,-1,685,428,0,0
-532,596,0,0,0,0,0,0,0,0,0,-1,692,428,0,0
-525,596,0,0,0,0,0,0,0,0,0,-1,699,428,0,0
-518,596,0,0,0,0,0,0,0,0,0,-1,706,428,0,0
-511,596,0,0,0,0,0,0,0,0,0,-1,713,428,0,0
-504,596,0,0,0,0,0,0,0,0,0,-1,720,428,0,0
-497,596,0,0,0,0,0,0,0,0,0,-1,727,428,0,0
-490,596,0,0,0,0,0,0,0,0,0,-1,734,428,0,0
-483,596,0,0,0,0,0,0,0,0,0,-1,741,428,0,0
-476,596,0,0,0,0,0,0,0,0,0,-1,748,428,0,0
-469,596,0,0,0,0,0,0,0,0,0,-1,755,428,0,0
-462,596,0,0,0,0,0,0,0,0,0,-1,762,428,0,0
-455,596,0,0,0,0,0,0,0,0,0,-1,769,428,0,0
-448,596,0,0,0,0,0,0,0,0,0,-1,776,428,0,0
-441,596,0,0,0,0,0,0,0,0,0,-1,783,428,0,0
-434,596,0,0,0,0,0,0,0,0,0,-1,790,428,0,0
-427,596,0,0,0,0,0,0,0,0,0,-1,797,428,0,0
-420,596,0,0,0,0,0,0,0,0,0,-1,804,428,0,0
-413,596,0,0,0,0,0,0,0,0,0,-1,811,428,0,0
-406,596,0,0,0,0,0,0,0,0,0,-1,818,428,0,0
-399,596,0,0,0,0,0,0,0,0,0,-1,825,428,0,0
-392,596,0,0,0,0,0,0,0,0,0,-1,832,428,0,0
-385,596,0,0,0,0,0,0,0,0,0,-1,839,428,0,0
-378,596,0,0,0,0,0,0,0,0,0,-1,846,428,0,0
-371,596,0,0,0,0,0,0,0,0,0,-1,853,428,0,0
-364,596,0,0,0,0,0,0,0,0,0,-1,860,428,0,0
-357,596,0,0,0,0,0,0,0,0,0,-1,867,428,0,0
-350,596,0,0,0,0,0,0,0,0,0,-1,874,428,0,0
-343,596,0,0,0,0,0,0,0,0,0,-1,881,428,0,0
-336,596,-0.98291,-20.0836,0,0,0,0,0,0,0,-1,888,428,-0.982933,20.0836
-329,596,4.43048,-20.1666,0,0,0,0,0,0,0,-1,895,428,4.43045,20.1666
-322,596,4.29657,-19.996,0,0,0,0,0,0,0,-1,902,428,4.29655,19.996
-315,596,4.20044,-19.8317,0,0,0,0,0,0,0,-1,909,428,4.20045,19.8317
-308,596,0.254761,-20.841,0,0,0,0,0,0,0,-1,916,428,0.254731,20.841
-301,596,2.90369,-20.8094,0,0,0,0,0,0,0,-1,923,428,2.9037,20.8094
-294,596,2.79095,-20.7735,0,0,0,0,0,0,0,-1,930,428,2.79093,20.7735
-287,596,3.41455,-22.2227,0,0,0,0,0,0,0,-1,937,428,3.41454,22.2227
-280,596,3.44171,-22.8383,0,0,0,0,0,0,0,-1,944,428,3.44172,22.8383
-273,596,3.45465,-23.3722,-0.00265169,0.000873118,-0.00477642,0.00420191,-0.00598048,-0.962139,0.00590862,0.0467077,951,428,3.45465,23.3722
-266,596,3.32727,-23.7621,-0.00369737,0.00299424,-0.00388678,0.00477693,-0.00548007,-1.14077,0.00592652,0.0440249,958,428,3.32728,23.7621
-259,596,3.25153,-23.9785,-0.00482266,0.00581054,-0.00228583,0.0062811,-0.00529322,-1.36777,0.00669055,0.0366765,965,428,3.2515,23.9785
-252,596,3.27747,-24.6429,-0.00511631,0.00734001,-0.00191552,0.00762792,-0.00540422,-1.42161,0.00756054,0.0187875,972,428,3.27746,24.6429
-245,596,3.26685,-25.1589,-0.00449798,0.00751888,-0.00192739,0.00782045,-0.00479955,-1.41559,0.00735541,0.0149691,979,428,3.26687,25.1589
-238,596,3.27545,-25.5814,-0.00372919,0.00794413,-0.00208655,0.00830588,-0.00409094,-1.39913,0.00729391,0.0128287,986,428,3.27543,25.5813
-231,596,3.21613,-26.0437,-0.00311461,0.00791974,-0.00198285,0.00826524,-0.00346011,-1.39829,0.00695654,0.0127302,993,428,3.21612,26.0437
-224,596,3.17804,-26.4706,-0.00272884,0.00747248,-0.00196125,0.00783654,-0.00309291,-1.38726,0.00650522,0.0132917,1000,428,3.17803,26.4706
-217,596,3.16016,-26.8654,-0.00228813,0.00699029,-0.00194803,0.00738269,-0.00268053,-1.37202,0.00601771,0.0138193,1007,428,3.16017,26.8654
-210,596,3.17505,-27.2707,-0.00166807,0.00611131,-0.00187886,0.00654132,-0.00209808,-1.3458,0.0052032,0.0125359,1014,428,3.17502,27.2707
-203,596,3.16614,-27.6548,-0.00118194,0.0050471,-0.0015947,0.00543162,-0.00156646,-1.33419,0.0042408,0.0170799,1021,428,3.16611,27.6548
-196,596,3.17224,-28.0727,-0.00084696,0.00402547,-0.00130407,0.00435254,-0.00117403,-1.32506,0.00336208,0.0162694,1028,428,3.17222,28.0727
-189,596,3.13916,-28.4193,-0.000512582,0.00315337,-0.00112628,0.00347175,-0.000830958,-1.29531,0.00263552,0.013065,1035,428,3.13912,28.4193
-182,596,3.10706,-28.792,-0.000216348,0.00196691,-0.000772073,0.00221235,-0.000461787,-1.263,0.0016505,0.0118863,1042,428,3.10712,28.792
-175,596,3.10522,-29.1717,5.66937e-06,0.000426939,-0.00023889,0.000534793,-0.000102185,-1.14671,0.000395021,0.0143795,1049,428,3.10517,29.1717
-168,596,3.10254,-29.5354,8.5053e-05,-0.0010856,0.000352563,0.000183033,-0.00118358,0.271068,0.000856606,0.0170912,1056,428,3.10257,29.5354
-161,596,3.09302,-29.9004,0.000116557,-0.00262082,0.000917432,0.00039559,-0.00289986,0.295257,0.00207769,0.0154675,1063,428,3.09296,29.9004
-154,596,3.078,-30.2305,0.000211126,-0.00397462,0.00147333,0.000677709,-0.0044412,0.306694,0.00321063,0.0132414,1070,428,3.07795,30.2305
-147,596,3.10449,-30.5278,0.000324604,-0.00510429,0.0019673,0.000962541,-0.00574222,0.313572,0.00418605,0.013671,1077,428,3.10444,30.5278
-140,596,3.10742,-30.8318,0.00044547,-0.00628983,0.00240766,0.00121762,-0.00706198,0.310341,0.00516195,0.0136613,1084,428,3.10737,30.8318
-133,596,3.10352,-31.1823,0.000577635,-0.0073757,0.00283811,0.00148654,-0.0082846,0.309928,0.00607946,0.0142816,1091,428,3.10355,31.1822
-126,596,3.11829,-31.4665,0.000772992,-0.00822534,0.00312818,0.0017536,-0.00920595,0.303775,0.00679766,0.0112305,1098,428,3.11825,31.4664
-119,596,3.14331,-31.77,0.00101304,-0.00885829,0.00325865,0.00199173,-0.00983698,0.291765,0.00731287,0.0143718,1105,428,3.14335,31.77
-112,596,3.13257,-32.0529,0.00131113,-0.00927412,0.0032396,0.0022239,-0.0101869,0.274634,0.0076412,0.0159915,1112,428,3.13254,32.0529
-105,596,3.1521,-32.3563,0.00184092,-0.00950622,0.00305037,0.00260895,-0.0102743,0.246655,0.00786474,0.0161936,1119,428,3.15216,32.3562
-98,596,3.21155,-32.6096,0.00242472,-0.00939838,0.00278808,0.00304921,-0.0100229,0.220348,0.00789704,0.0128385,1126,428,3.21153,32.6096
-91,596,3.20923,-32.9727,0.00295748,-0.00906708,0.00251742,0.00346324,-0.00957284,0.198267,0.00779705,0.0303275,1133,428,3.20918,32.9727
-84,596,3.21924,-33.1371,0,0,0,0,0,0,0,-1,1140,428,3.21918,33.1371
-77,596,3.32642,-33.5288,0,0,0,0,0,0,0,-1,1147,428,3.32646,33.5288
-70,596,3.50696,-32.137,0,0,0,0,0,0,0,-1,1154,428,3.50696,32.137
-63,596,1.95569,-12.2758,0,0,0,0,0,0,0,-1,1161,428,1.95563,12.2759
-56,596,1.60107,-10.5827,0,0,0,0,0,0,0,-1,1168,428,1.60108,10.5827
-49,596,1.59473,-10.0393,0,0,0,0,0,0,0,-1,1175,428,1.59472,10.0393
-42,596,1.99585,-6.6246,0,0,0,0,0,0,0,-1,1182,428,1.99586,6.62459
-35,596,3.31738,-34.2847,0,0,0,0,0,0,0,-1,1189,428,3.31735,34.2847
-28,596,3.47449,-34.4867,0,0,0,0,0,0,0,-1,1196,428,3.47444,34.4867
-21,596,3.56226,-34.6422,0,0,0,0,0,0,0,-1,1203,428,3.56221,34.6422
-14,596,3.79236,-34.7906,0,0,0,0,0,0,0,-1,1210,428,3.79237,34.7906
-7,596,3.86816,-34.9291,0,0,0,0,0,0,0,-1,1217,428,3.86816,34.9291
0,596,3.83923,-35.2283,0,0,0,0,0,0,0,-1,1224,428,3.83928,35.2283
7,596,3.9397,-35.1231,0,0,0,0,0,0,0,-1,1231,428,3.93971,35.1231
14,596,4.24829,-34.5048,0,0,0,0,0,0,0,-1,1238,428,4.24834,34.5048
21,596,4.30444,-34.5268,0,0,0,0,0,0,0,-1,1245,428,4.3045,34.5268
28,596,4.29968,-34.6517,0,0,0,0,0,0,0,-1,1252,428,4.29967,34.6517
35,596,4.12939,-34.6473,0,0,0,0,0,0,0,-1,1259,428,4.12937,34.6473
42,596,4.32263,-35.1435,0,0,0,0,0,0,0,-1,1266,428,4.3226,35.1435
49,596,4.82373,-35.8677,0.011929,-0.0244711,-0.00994767,0.0144702,-0.0270122,-0.250104,0.024312,0.045385,1273,428,4.82373,35.8677
56,596,4.36804,-35.8,0.0143308,-0.0231236,-0.0112102,0.0174296,-0.0262225,-0.269697,0.0253724,0.0430321,1280,428,4.36803,35.8
63,596,1.63574,-35.2096,0,0,0,0,0,0,0,-1,1287,428,1.63576,35.2096
70,596,2.17407,-35.0229,0,0,0,0,0,0,0,-1,1294,428,2.17409,35.0229
77,596,2.73291,-34.797,0,0,0,0,0,0,0,-1,1301,428,2.73295,34.797
84,596,3.33862,-34.381,0.0182972,-0.0280362,-0.0137645,0.0220778,-0.0318168,-0.268053,0.0312849,0.0487259,1308,428,3.33863,34.381
91,596,3.5575,-33.8709,0.0173203,-0.0319755,-0.0136441,0.0208447,-0.0354999,-0.252787,0.0328953,0.0456017,1315,428,3.55747,33.8709
98,596,3.95471,-33.5129,0,0,0,0,0,0,0,-1,1322,428,3.95466,33.5129
105,596,3.59241,-33.1786,0,0,0,0,0,0,0,-1,1329,428,3.59239,33.1786
112,596,3.71448,-33.1027,0,0,0,0,0,0,0,-1,1336,428,3.7145,33.1027
119,596,4.23901,-33.2738,0,0,0,0,0,0,0,-1,1343,428,4.239,33.2738
126,596,4.56128,-33.1953,0,0,0,0,0,0,0,-1,1350,428,4.5613,33.1953
133,596,4.76855,-32.9868,0,0,0,0,0,0,0,-1,1357,428,4.7685,32.9868
140,596,4.65735,-33.0626,0,0,0,0,0,0,0,-1,1364,428,4.65736,33.0626
147,596,4.67493,-33.3197,0,0,0,0,0,0,0,-1,1371,428,4.67495,33.3197
154,596,5.33716,-34.1752,0,0,0,0,0,0,0,-1,1378,428,5.33721,34.1752
161,596,5.74731,-34.0829,0,0,0,0,0,0,0,-1,1385,428,5.74735,34.0829
168,596,5.9071,-33.7878,0,0,0,0,0,0,0,-1,1392,428,5.90712,33.7878
175,596,5.96533,-33.5926,0,0,0,0,0,0,0,-1,1399,428,5.96537,33.5926
182,596,6.08057,-33.6082,0,0,0,0,0,0,0,-1,1406,428,6.08055,33.6082
189,596,6.04407,-33.3733,0,0,0,0,0,0,0,-1,1413,428,6.04411,33.3733
196,596,5.92834,-32.9357,0,0,0,0,0,0,0,-1,1420,428,5.92839,32.9357
203,596,5.87195,-32.8933,0,0,0,0,0,0,0,-1,1427,428,5.87197,32.8933
210,596,5.89246,-32.8275,0,0,0,0,0,0,0,-1,1434,428,5.8924,32.8275
217,596,5.92932,-32.4893,0,0,0,0,0,0,0,-1,1441,428,5.92929,32.4893
224,596,6.13208,-32.4196,0.00183491,0.00122692,-0.00115431,0.00272458,0.000337248,-0.656642,0.00171506,0.0473143,1448,428,6.13207,32.4196
231,596,6.02966,-31.9217,0.00154384,0.00183201,-0.000664597,0.00236796,0.00100789,-0.892145,0.00137217,0.0192881,1455,428,6.02961,31.9217
238,596,6.04077,-31.5899,0.0016473,0.00208919,-0.000242628,0.0021964,0.00154009,-1.15473,0.00130186,0.0164749,1462,428,6.04083,31.5899
245,596,6.0824,-31.2742,0.00199445,0.0022188,0.000149834,0.0022938,0.00191945,1.10673,0.00142095,0.014041,1469,428,6.0824,31.2742
252,596,6.10889,-30.9522,0.00216936,0.00215332,0.000405465,0.00256689,0.0017558,0.775509,0.00151508,0.00972601,1476,428,6.10893,30.9522
259,596,6.10425,-30.6378,0.00215399,0.00201478,0.000576843,0.00266542,0.00150336,0.725356,0.00154308,0.00821183,1483,428,6.10426,30.6378
266,596,6.08362,-30.3026,0.00205117,0.00188605,0.000664492,0.00263821,0.00129901,0.723592,0.00152323,0.010181,1490,428,6.08362,30.3026
273,596,6.09912,-29.9563,0.00195407,0.00198195,0.000786881,0.00275502,0.00118101,0.794254,0.00159599,0.0125416,1497,428,6.09909,29.9563
280,596,6.1167,-29.599,0.00189233,0.00187267,0.000911178,0.00279373,0.00097127,0.780004,0.00163773,0.013307,1504,428,6.11669,29.599
287,596,6.11682,-29.2166,0.0017449,0.00219428,0.00104262,0.00303615,0.000903027,0.891528,0.00180024,0.0121894,1511,428,6.11681,29.2166
294,596,6.10596,-28.8455,0.00147832,0.00262974,0.00120437,0.00338893,0.000719133,1.00835,0.00206181,0.00952433,1518,428,6.10595,28.8455
301,596,6.10315,-28.467,0.00118139,0.00306996,0.00139284,0.00380844,0.000442916,1.08329,0.00240495,0.0103927,1525,428,6.10312,28.467
308,596,6.11548,-28.0769,0.000965777,0.00348867,0.00163262,0.0042904,0.000164052,1.11432,0.00280718,0.0163603,1532,428,6.11542,28.0769
315,596,6.08984,-27.6526,0.000744276,0.00397921,0.00184726,0.00481706,-9.35683e-05,1.14498,0.00324301,0.0160835,1539,428,6.08985,27.6527
322,596,6.07935,-27.2417,0.000453899,0.00447993,0.00207609,0.00535869,-0.000424862,1.17039,0.00372217,0.0128464,1546,428,6.0794,27.2417
329,596,6.05798,-26.8373,8.71025e-05,0.00484977,0.00229683,0.00577694,-0.000840063,1.18713,0.00415969,0.0102203,1553,428,6.05792,26.8373
336,596,6.02197,-26.4438,-0.000317891,0.00521973,0.0024667,0.00615914,-0.0012573,1.20692,0.00458305,0.00926505,1560,428,6.02201,26.4438
343,596,6.02905,-26.0351,-0.000622072,0.00553588,0.0026556,0.0065229,-0.00160909,1.21494,0.00497252,0.0116319,1567,428,6.02901,26.0351
350,596,6.0376,-25.5862,-0.000780071,0.00623838,0.00310252,0.0074132,-0.00195489,1.20881,0.00570649,0.0126426,1574,428,6.03755,25.5861
357,596,5.99792,-25.1223,-0.00115252,0.00669796,0.00345204,0.00799996,-0.00245452,1.21013,0.0063126,0.010546,1581,428,5.99791,25.1223
364,596,5.96545,-24.647,-0.0016141,0.00709488,0.00369941,0.00845416,-0.00297338,1.21868,0.00684597,0.0146873,1588,428,5.96543,24.647
371,596,5.95044,-24.2292,-0.00210364,0.00758948,0.00389283,0.00895929,-0.00347345,1.23245,0.00740731,0.0215207,1595,428,5.95049,24.2292
378,596,5.87683,-23.8622,-0.00243085,0.0086845,0.00424536,0.0101205,-0.0038668,1.24464,0.00834025,0.030355,1602,428,5.87686,23.8623
385,596,5.74744,-23.2527,-0.00279158,0.00968715,0.0044928,0.0111364,-0.00424084,1.25876,0.00917078,0.0455982,1609,428,5.74748,23.2527
392,596,5.82312,-22.4848,0,0,0,0,0,0,0,-1,1616,428,5.82313,22.4848
399,596,5.7688,-21.7463,0,0,0,0,0,0,0,-1,1623,428,5.76876,21.7463
406,596,3.60034,-10.1525,0,0,0,0,0,0,0,-1,1630,428,3.60028,10.1525
413,596,3.39124,-2.63528,0,0,0,0,0,0,0,-1,1637,428,3.39122,2.6353
420,596,2.6344,-3.06308,0,0,0,0,0,0,0,-1,1644,428,2.63439,3.06308
427,596,2.99329,-1.90512,0,0,0,0,0,0,0,-1,1651,428,2.99327,1.90512
434,596,3.80896,-0.253998,0,0,0,0,0,0,0,-1,1658,428,3.80902,0.254004
441,596,3.86401,-0.131622,0,0,0,0,0,0,0,-1,1665,428,3.86406,0.131613
448,596,1.0769,0.0083313,0,0,0,0,0,0,0,-1,1672,428,1.07684,-0.00832231
455,596,2.00769,-1.43329,0,0,0,0,0,0,0,-1,1679,428,2.00765,1.4333
462,596,0,0,0,0,0,0,0,0,0,-1,1686,428,0,0
469,596,0,0,0,0,0,0,0,0,0,-1,1693,428,0,0
476,596,0,0,0,0,0,0,0,0,0,-1,1700,428,0,0
483,596,0,0,0,0,0,0,0,0,0,-1,1707,428,0,0
490,596,0,0,0,0,0,0,0,0,0,-1,1714,428,0,0
497,596,0,0,0,0,0,0,0,0,0,-1,1721,428,0,0
504,596,0,0,0,0,0,0,0,0,0,-1,1728,428,0,0
511,596,0,0,0,0,0,0,0,0,0,-1,1735,428,0,0
518,596,0,0,0,0,0,0,0,0,0,-1,1742,428,0,0
525,596,0,0,0,0,0,0,0,0,0,-1,1749,428,0,0
532,596,0,0,0,0,0,0,0,0,0,-1,1756,428,0,0
539,596,0,0,0,0,0,0,0,0,0,-1,1763,428,0,0
546,596,0,0,0,0,0,0,0,0,0,-1,1770,428,0,0
553,596,0,0,0,0,0,0,0,0,0,-1,1777,428,0,0
560,596,0,0,0,0,0,0,0,0,0,-1,1784,428,0,0
567,596,0,0,0,0,0,0,0,0,0,-1,1791,428,0,0
574,596,0,0,0,0,0,0,0,0,0,-1,1798,428,0,0
581,596,0,0,0,0,0,0,0,0,0,-1,1805,428,0,0
588,596,0,0,0,0,0,0,0,0,0,-1,1812,428,0,0
595,596,0,0,0,0,0,0,0,0,0,-1,1819,428,0,0
602,596,0,0,0,0,0,0,0,0,0,-1,1826,428,0,0
609,596,0,0,0,0,0,0,0,0,0,-1,1833,428,0,0
616,596,0,0,0,0,0,0,0,0,0,-1,1840,428,0,0
623,596,0,0,0,0,0,0,0,0,0,-1,1847,428,0,0
630,596,0,0,0,0,0,0,0,0,0,-1,1854,428,0,0
637,596,0,0,0,0,0,0,0,0,0,-1,1861,428,0,0
644,596,0,0,0,0,0,0,0,0,0,-1,1868,428,0,0
651,596,0,0,0,0,0,0,0,0,0,-1,1875,428,0,0
658,596,0,0,0,0,0,0,0,0,0,-1,1882,428,0,0
665,596,0,0,0,0,0,0,0,0,0,-1,1889,428,0,0
672,596,0,0,0,0,0,0,0,0,0,-1,1896,428,0,0
679,596,0,0,0,0,0,0,0,0,0,-1,1903,428,0,0
686,596,0,0,0,0,0,0,0,0,0,-1,1910,428,0,0
693,596,0,0,0,0,0,0,0,0,0,-1,1917,428,0,0
700,596,0,0,0,0,0,0,0,0,0,-1,1924,428,0,0
707,596,0,0,0,0,0,0,0,0,0,-1,1931,428,0,0
714,596,0,0,0,0,0,0,0,0,0,-1,1938,428,0,0
721,596,0,0,0,0,0,0,0,0,0,-1,1945,428,0,0
728,596,0,0,0,0,0,0,0,0,0,-1,1952,428,0,0
735,596,0,0,0,0,0,0,0,0,0,-1,1959,428,0,0
742,596,0,0,0,0,0,0,0,0,0,-1,1966,428,0,0
749,596,0,0,0,0,0,0,0,0,0,-1,1973,428,0,0
756,596,0,0,0,0,0,0,0,0,0,-1,1980,428,0,0
763,596,0,0,0,0,0,0,0,0,0,-1,1987,428,0,0
770,596,0,0,0,0,0,0,0,0,0,-1,1994,428,0,0
777,596,0,0,0,0,0,0,0,0,0,-1,2001,428,0,0
784,596,0,0,0,0,0,0,0,0,0,-1,2008,428,0,0
791,596,0,0,0,0,0,0,0,0,0,-1,2015,428,0,0
798,596,0,0,0,0,0,0,0,0,0,-1,2022,428,0,0
805,596,0,0,0,0,0,0,0,0,0,-1,2029,428,0,0
812,596,0,0,0,0,0,0,0,0,0,-1,2036,428,0,0
-700,589,0,0,0,0,0,0,0,0,0,-1,524,435,0,0
-693,589,0,0,0,0,0,0,0,0,0,-1,531,435,0,0
-686,589,0,0,0,0,0,0,0,0,0,-1,538,435,0,0
-679,589,0,0,0,0,0,0,0,0,0,-1,545,435,0,0
-672,589,0,0,0,0,0,0,0,0,0,-1,552,435,0,0
-665,589,0,0,0,0,0,0,0,0,0,-1,559,435,0,0
-658,589,0,0,0,0,0,0,0,0,0,-1,566,435,0,0
-651,589,0,0,0,0,0,0,0,0,0,-1,573,435,0,0
-644,589,0,0,0,0,0,0,0,0,0,-1,580,435,0,0
-637,589,0,0,0,0,0,0,0,0,0,-1,587,435,0,0
-630,589,0,0,0,0,0,0,0,0,0,-1,594,435,0,0
-623,589,0,0,0,0,0,0,0,0,0,-1,601,435,0,0
-616,589,0,0,0,0,0,0,0,0,0,-1,608,435,0,0
-609,589,0,0,0,0,0,0,0,0,0,-1,615,435,0,0
-602,589,0,0,0,0,0,0,0,0,0,-1,622,435,0,0
-595,589,0,0,0,0,0,0,0,0,0,-1,629,435,0,0
-588,589,0,0,0,0,0,0,0,0,0,-1,636,435,0,0
-581,589,0,0,0,0,0,0,0,0,0,-1,643,435,0,0
-574,589,0,0,0,0,0,0,0,0,0,-1,650,435,0,0
-567,589,0,0,0,0,0,0,0,0,0,-1,657,435,0,0
-560,589,0,0,0,0,0,0,0,0,0,-1,664,435,0,0
-553,589,0,0,0,0,0,0,0,0,0,-1,671,435,0,0
-546,589,0,0,0,0,0,0,0,0,0,-1,678,435,0,0
-539,589,0,0,0,0,0,0,0,0,0,-1,685,435,0,0
-532,589,0,0,0,0,0,0,0,0,0,-1,692,435,0,0
-525,589,0,0,0,0,0,0,0,0,0,-1,699,435,0,0
-518,589,0,0,0,0,0,0,0,0,0,-1,706,435,0,0
-511,589,0,0,0,0,0,0,0,0,0,-1,713,435,0,0
-504,589,0,0,0,0,0,0,0,0,0,-1,720,435,0,0
-497,589,0,0,0,0,0,0,0,0,0,-1,727,435,0,0
-490,589,0,0,0,0,0,0,0,0,0,-1,734,435,0,0
-483,589,0,0,0,0,0,0,0,0,0,-1,741,435,0,0
-476,589,0,0,0,0,0,0,0,0,0,-1,748,435,0,0
-469,589,0,0,0,0,0,0,0,0,0,-1,755,435,0,0
-462,589,0,0,0,0,0,0,0,0,0,-1,762,435,0,0
-455,589,0,0,0,0,0,0,0,0,0,-1,769,435,0,0
-448,589,0,0,0,0,0,0,0,0,0,-1,776,435,0,0
-441,589,0,0,0,0,0,0,0,0,0,-1,783,435,0,0
-434,589,0,0,0,0,0,0,0,0,0,-1,790,435,0,0
-427,589,0,0,0,0,0,0,0,0,0,-1,797,435,0,0
-420,589,0,0,0,0,0,0,0,0,0,-1,804,435,0,0
-413,589,0,0,0,0,0,0,0,0,0,-1,811,435,0,0
-406,589,0,0,0,0,0,0,0,0,0,-1,818,435,0,0
-399,589,0,0,0,0,0,0,0,0,0,-1,825,435,0,0
-392,589,0,0,0,0,0,0,0,0,0,-1,832,435,0,0
-385,589,0,0,0,0,0,0,0,0,0,-1,839,435,0,0
-378,589,0,0,0,0,0,0,0,0,0,-1,846,435,0,0
-371,589,0,0,0,0,0,0,0,0,0,-1,853,435,0,0
-364,589,0,0,0,0,0,0,0,0,0,-1,860,435,0,0
-357,589,0,0,0,0,0,0,0,0,0,-1,867,435,0,0
-350,589,-0.799927,-20.664,0,0,0,0,0,0,0,-1,874,435,-0.799952,20.664
-343,589,-0.370911,-19.1543,0,0,0,0,0,0,0,-1,881,435,-0.370922,19.1543
-336,589,-0.836914,-18.9103,0,0,0,0,0,0,0,-1,888,435,-0.836925,18.9103
-329,589,2.58252,-16.902,0,0,0,0,0,0,0,-1,895,435,2.58251,16.902
-322,589,1.5899,-21.1559,0,0,0,0,0,0,0,-1,902,435,1.58993,21.156
-315,589,1.47852,-22.003,0,0,0,0,0,0,0,-1,909,435,1.4785,22.003
-308,589,2.4541,-22.4223,0,0,0,0,0,0,0,-1,916,435,2.4541,22.4223
-301,589,2.35931,-20.3924,0,0,0,0,0,0,0,-1,923,435,2.35933,20.3924
-294,589,3.599,-22.324,0,0,0,0,0,0,0,-1,930,435,3.59902,22.324
-287,589,2.99701,-22.2864,0.00157289,-0.00413206,-0.00665275,0.0059589,-0.00851807,-0.58287,0.0084017,0.0450756,937,435,2.99698,22.2864
-280,589,2.99365,-22.7963,-0.000570827,-0.000600294,-0.00506293,0.00447739,-0.00564851,-0.783943,0.00585921,0.0324421,944,435,2.99368,22.7963
-273,589,2.98633,-23.3324,-0.00187949,0.00144884,-0.00437727,0.00446762,-0.00489827,-0.967051,0.0054093,0.0192228,951,435,2.98635,23.3324
-266,589,2.93781,-23.7866,-0.00263771,0.00282099,-0.00367958,0.00467298,-0.0044897,-1.1045,0.00529043,0.0181763,958,435,2.93779,23.7866
-259,589,2.88177,-24.258,-0.00349555,0.00488714,-0.00226338,0.00545922,-0.00406763,-1.32322,0.00551986,0.0157548,965,435,2.88177,24.258
-252,589,2.87964,-24.7831,-0.00372008,0.00591414,-0.00180013,0.0062395,-0.00404544,-1.39198,0.00598288,0.010241,972,435,2.87964,24.7831
-245,589,2.88733,-25.2133,-0.00320434,0.0057194,-0.0016867,0.00602757,-0.00351251,-1.39009,0.0055714,0.00998204,979,435,2.88733,25.2133
-238,589,2.86444,-25.6254,-0.00252936,0.00569844,-0.0017063,0.00603827,-0.00286918,-1.37421,0.00525009,0.0140368,986,435,2.86443,25.6254
-231,589,2.82544,-26.0424,-0.00200185,0.0053029,-0.00147297,0.00558873,-0.00228769,-1.37913,0.00467868,0.0147966,993,435,2.82542,26.0425
-224,589,2.7951,-26.4533,-0.00163081,0.00463822,-0.0012537,0.00487965,-0.00187223,-1.38056,0.00402504,0.0143796,1000,435,2.79508,26.4533
-217,589,2.77808,-26.8734,-0.00121371,0.00396147,-0.0010677,0.00417309,-0.00142534,-1.37513,0.00335952,0.0152406,1007,435,2.77809,26.8734
-210,589,2.77393,-27.2848,-0.000799492,0.00303084,-0.000840335,0.00320709,-0.000975743,-1.36405,0.0025269,0.0152189,1014,435,2.77391,27.2848
-203,589,2.77087,-27.6633,-0.000464523,0.00191637,-0.000470305,0.00200591,-0.000554056,-1.38267,0.00155521,0.0122301,1021,435,2.77085,27.6633
-196,589,2.76135,-28.0327,-0.000223378,0.000899149,-0.000123427,0.00091256,-0.000236789,-1.46256,0.000700768,0.0139146,1028,435,2.76137,28.0327
-189,589,2.7406,-28.4272,-1.19382e-05,-4.44245e-05,0.000144492,0.000117221,-0.000173583,0.729425,0.000168944,0.0171424,1035,435,2.74055,28.4272
-182,589,2.74207,-28.7684,0.000179398,-0.00124283,0.000587388,0.000390622,-0.00145406,0.3452,0.00112247,0.0133303,1042,435,2.74208,28.7684
-175,589,2.75549,-29.1379,0.000326661,-0.00266272,0.00118218,0.000737662,-0.00307372,0.33459,0.00233421,0.016357,1049,435,2.75549,29.1379
-168,589,2.78333,-29.5235,0.000330972,-0.00421425,0.00180469,0.000960369,-0.00484365,0.335567,0.00359227,0.013485,1056,435,2.78328,29.5235
-161,589,2.77588,-29.8689,0.000280443,-0.0058561,0.00240521,0.0011108,-0.00668646,0.332422,0.00487032,0.0124011,1063,435,2.77587,29.8689
-154,589,2.76343,-30.1912,0.000323094,-0.00734158,0.003003,0.00135952,-0.008378,0.332329,0.00608931,0.0129276,1070,435,2.76346,30.1912
-147,589,2.76843,-30.5021,0.00043388,-0.00860394,0.00353867,0.00165454,-0.0098246,0.332169,0.00716521,0.0133353,1077,435,2.76849,30.5021
-140,589,2.78613,-30.8206,0.000541309,-0.010006,0.00404963,0.00191678,-0.0113815,0.327428,0.00830069,0.0139128,1084,435,2.78608,30.8206
-133,589,2.80554,-31.1629,0.000666955,-0.0113348,0.0045601,0.00220299,-0.0128709,0.324905,0.00940134,0.0138529,1091,435,2.80556,31.1629
-126,589,2.82373,-31.4742,0.000913877,-0.0124402,0.00489477,0.00251583,-0.0140421,0.316291,0.0103029,0.0119126,1098,435,2.82375,31.4742
-119,589,2.80981,-31.7539,0.00118639,-0.0133581,0.0050205,0.00275105,-0.0149228,0.302115,0.010981,0.0189766,1105,435,2.80977,31.7539
-112,589,2.80212,-32.016,0.00153166,-0.0139572,0.00497142,0.00299001,-0.0154155,0.285342,0.0114051,0.0195133,1112,435,2.80209,32.016
-105,589,2.82373,-32.3631,0.00204975,-0.0141628,0.00472449,0.00332604,-0.0154391,0.263845,0.011562,0.022184,1119,435,2.82372,32.3631
-98,589,2.95105,-32.7458,0.00266246,-0.0139288,0.00434834,0.00373302,-0.0149994,0.241399,0.0114486,0.0486618,1126,435,2.95107,32.7458
-91,589,2.84521,-33.2081,0,0,0,0,0,0,0,-1,1133,435,2.84526,33.2081
-84,589,2.76538,-22.6013,0,0,0,0,0,0,0,-1,1140,435,2.76539,22.6014
-77,589,2.18152,-14.8023,0,0,0,0,0,0,0,-1,1147,435,2.18155,14.8023
-70,589,1.48267,-9.90961,0,0,0,0,0,0,0,-1,1154,435,1.48264,9.9096
-63,589,0.880127,-5.50586,0,0,0,0,0,0,0,-1,1161,435,0.880186,5.50587
-56,589,-2.78052,-7.28082,0,0,0,0,0,0,0,-1,1168,435,-2.78053,7.28082
-49,589,-0.525757,-2.76703,0,0,0,0,0,0,0,-1,1175,435,-0.525771,2.76702
-42,589,-2.7738,-2.87921,0,0,0,0,0,0,0,-1,1182,435,-2.77383,2.87922
-35,589,-2.55225,-3.27551,0,0,0,0,0,0,0,-1,1189,435,-2.55223,3.27552
-28,589,-0.0632324,-3.42938,0,0,0,0,0,0,0,-1,1196,435,-0.063241,3.42938
-21,589,0.959473,-37.8123,0,0,0,0,0,0,0,-1,1203,435,0.95952,37.8123
-14,589,1.44897,-37.8248,0,0,0,0,0,0,0,-1,1210,435,1.44899,37.8248
-7,589,2.57043,-37.3427,0,0,0,0,0,0,0,-1,1217,435,2.57048,37.3427
0,589,4.12598,-35.4874,0,0,0,0,0,0,0,-1,1224,435,4.12596,35.4874
7,589,3.88733,-35.2826,0.0196479,-0.0460414,-0.00549363,0.0201042,-0.0464977,-0.0828635,0.0394462,0.0477055,1231,435,3.88737,35.2826
14,589,3.73694,-35.0566,0.0155198,-0.0437644,-0.00810523,0.016608,-0.0448525,-0.133456,0.036712,0.0461852,1238,435,3.73696,35.0566
21,589,3.83289,-35.0416,0.0125583,-0.0409969,-0.0102958,0.0144694,-0.042908,-0.183534,0.0344565,0.0462772,1245,435,3.83288,35.0416
28,589,3.67566,-34.8996,0,0,0,0,0,0,0,-1,1252,435,3.6757,34.8996
35,589,2.0083,-34.5352,0.0104333,-0.0351192,-0.0127516,0.0137599,-0.0384458,-0.255193,0.0312441,0.0438014,1259,435,2.00828,34.5352
42,589,1.40942,-34.4484,0.0120256,-0.0322979,-0.0136532,0.0158937,-0.036166,-0.276075,0.030807,0.0480536,1266,435,1.40939,34.4484
49,589,1.05945,-34.6025,0.0148614,-0.0296227,-0.0147219,0.0192922,-0.0340535,-0.292345,0.0311897,0.0470671,1273,435,1.0594,34.6025
56,589,0.790894,-34.7102,0.017436,-0.0280569,-0.0162044,0.0226177,-0.0332386,-0.309498,0.0324424,0.0433139,1280,435,0.790857,34.7102
63,589,2.28796,-34.8752,0.0199976,-0.0269995,-0.0175083,0.025803,-0.0328049,-0.320172,0.0339177,0.0463341,1287,435,2.28794,34.8752
70,589,2.90723,-34.6423,0.0211049,-0.0276116,-0.0176755,0.0268423,-0.033349,-0.313866,0.0348191,0.0470542,1294,435,2.90726,34.6423
77,589,3.52026,-34.4063,0.0197649,-0.0310042,-0.0174871,0.0252053,-0.0364445,-0.301614,0.0357901,0.045484,1301,435,3.52027,34.4062
84,589,4.02576,-34.0798,0.0200729,-0.0350936,-0.0175729,0.0251951,-0.0402158,-0.283622,0.0380954,0.0429035,1308,435,4.02581,34.0798
91,589,4.3457,-33.7842,0.0188659,-0.0398618,-0.0168393,0.0233516,-0.0443476,-0.260342,0.0397078,0.0434728,1315,435,4.34576,33.7842
98,589,4.70032,-33.4806,0.0163697,-0.0453617,-0.0167891,0.0206404,-0.0496324,-0.24909,0.0417071,0.0469262,1322,435,4.70034,33.4806
105,589,4.60889,-32.9919,0.0124417,-0.0506889,-0.0179858,0.0172062,-0.0554534,-0.258958,0.0438445,0.0467821,1329,435,4.60892,32.9919
112,589,4.67737,-32.7789,0.00727954,-0.0555764,-0.0177462,0.0119438,-0.0602406,-0.257016,0.044677,0.0435017,1336,435,4.67735,32.7789
119,589,5.01953,-32.5124,0,0,0,0,0,0,0,-1,1343,435,5.01957,32.5124
126,589,5.12524,-32.2462,-0.00382165,-0.064767,-0.0143378,-0.000617091,-0.0679716,-0.21989,0.0451101,0.0456439,1350,435,5.12528,32.2463
133,589,5.2406,-32.0775,-0.00702178,-0.0678651,-0.0125154,-0.00454797,-0.0703389,-0.195146,0.0454525,0.0458753,1357,435,5.24054,32.0775
140,589,5.15454,-32.0438,-0.00884074,-0.0695875,-0.0104837,-0.00708237,-0.0713459,-0.166178,0.0453877,0.0466066,1364,435,5.15451,32.0438
147,589,5.15344,-32.2004,-0.0101389,-0.0695592,-0.0085049,-0.00894553,-0.0707525,-0.139403,0.0444873,0.047273,1371,435,5.15343,32.2004
154,589,5.27991,-32.3734,0,0,0,0,0,0,0,-1,1378,435,5.27995,32.3734
161,589,7.40857,-32.8765,0,0,0,0,0,0,0,-1,1385,435,7.40859,32.8765
168,589,8.0177,-32.7285,0,0,0,0,0,0,0,-1,1392,435,8.01769,32.7285
175,589,8.66992,-7.65527,0,0,0,0,0,0,0,-1,1399,435,8.66994,7.65528
182,589,3.8136,-2.45389,0,0,0,0,0,0,0,-1,1406,435,3.81363,2.4539
189,589,3.69983,-3.68149,0,0,0,0,0,0,0,-1,1413,435,3.69987,3.68147
196,589,3.31055,-5.31677,0,0,0,0,0,0,0,-1,1420,435,3.31059,5.31678
203,589,2.72559,-8.84338,0,0,0,0,0,0,0,-1,1427,435,2.72558,8.84338
210,589,3.62378,-14.4032,0,0,0,0,0,0,0,-1,1434,435,3.62378,14.4032
217,589,4.65601,-22.3745,0,0,0,0,0,0,0,-1,1441,435,4.65607,22.3745
224,589,6.42932,-32.5672,0,0,0,0,0,0,0,-1,1448,435,6.42926,32.5672
231,589,6.32971,-31.9499,0,0,0,0,0,0,0,-1,1455,435,6.32974,31.9499
238,589,6.35059,-31.5831,0,0,0,0,0,0,0,-1,1462,435,6.35059,31.5831
245,589,6.39795,-31.2588,0,0,0,0,0,0,0,-1,1469,435,6.398,31.2588
252,589,6.4314,-30.9169,0.00302782,0.00220599,0.000106307,0.00304134,0.00219246,0.12658,0.00181214,0.0146303,1476,435,6.43141,30.9169
259,589,6.43958,-30.6302,0.00312377,0.0015026,0.000239186,0.00315833,0.00146804,0.143467,0.00182497,0.00979,1483,435,6.43961,30.6303
266,589,6.44031,-30.2733,0.00307747,0.000863082,0.00025322,0.00310606,0.000834494,0.112419,0.00185616,0.00967834,1490,435,6.44034,30.2734
273,589,6.46594,-29.9449,0.00303929,0.00059201,0.000330095,0.00308303,0.000548267,0.131746,0.00189916,0.0119834,1497,435,6.46594,29.9449
280,589,6.47595,-29.598,0.00302124,7.75444e-05,0.000393412,0.00307291,2.58737e-05,0.130593,0.00204003,0.0132767,1504,435,6.47601,29.598
287,589,6.47913,-29.2465,0.00286286,0.000135443,0.0004587,0.00293794,6.03651e-05,0.162237,0.00193882,0.0119806,1511,435,6.47918,29.2465
294,589,6.48572,-28.852,0.00254472,0.000417027,0.000566701,0.00268625,0.000275503,0.244728,0.00170643,0.0103433,1518,435,6.48571,28.852
301,589,6.49329,-28.4465,0.00218832,0.000759363,0.000710841,0.00248169,0.000465984,0.391424,0.00152308,0.0105604,1525,435,6.4933,28.4465
308,589,6.49438,-28.0564,0.00188144,0.0010629,0.000870969,0.00243451,0.000509836,0.565759,0.00148257,0.0108019,1532,435,6.49434,28.0564
315,589,6.49133,-27.6767,0.00154404,0.0015406,0.000996347,0.00253866,0.000545967,0.784535,0.00154299,0.0105541,1539,435,6.49131,27.6767
322,589,6.49597,-27.2767,0.00114684,0.00208705,0.00116163,0.00287009,0.000363801,0.977672,0.00180439,0.0109069,1546,435,6.49593,27.2767
329,589,6.48035,-26.853,0.000712808,0.00255678,0.00135626,0.00327476,-5.17129e-06,1.08392,0.0021849,0.0101674,1553,435,6.48033,26.853
336,589,6.45508,-26.4488,0.000268295,0.00303277,0.00154042,0.00372019,-0.000419125,1.15106,0.00263099,0.00967533,1560,435,6.45508,26.4488
343,589,6.44031,-26.0578,-0.000105919,0.00349715,0.00175046,0.00420752,-0.000816283,1.18529,0.00311299,0.0108085,1567,435,6.44026,26.0578
350,589,6.42285,-25.5976,-0.000354346,0.0042709,0.00216296,0.00512476,-0.0012082,1.19481,0.00388242,0.0158301,1574,435,6.42281,25.5976
357,589,6.40723,-25.1198,-0.000681728,0.00489806,0.00254839,0.00588676,-0.00167043,1.2007,0.00458392,0.0137579,1581,435,6.40722,25.1198
364,589,6.40149,-24.6785,-0.00103299,0.00546988,0.00288602,0.00656597,-0.00212908,1.20783,0.00523341,0.0110731,1588,435,6.40154,24.6785
371,589,6.38391,-24.2326,-0.00138297,0.00610861,0.00320503,0.00729265,-0.00256701,1.21692,0.0059064,0.0106897,1595,435,6.38395,24.2326
378,589,6.37659,-23.7766,-0.00163761,0.007093,0.00359727,0.00838422,-0.00292882,1.22618,0.00678001,0.0119735,1602,435,6.37654,23.7766
385,589,6.3512,-23.2847,-0.00191097,0.0079702,0.00387162,0.00930647,-0.00324723,1.23845,0.00752404,0.0146367,1609,435,6.35114,23.2847
392,589,6.28857,-22.6977,-0.00207658,0.00885119,0.00423748,0.0103018,-0.00352719,1.24097,0.00829738,0.020111,1616,435,6.28857,22.6976
399,589,6.29736,-22.078,-0.00174823,0.0103083,0.0053229,0.012322,-0.00376193,1.20913,0.00971454,0.0340967,1623,435,6.29733,22.078
406,589,6.35071,-21.6404,0,0,0,0,0,0,0,-1,1630,435,6.35067,21.6404
413,589,5.61377,-19.0606,0,0,0,0,0,0,0,-1,1637,435,5.61372,19.0606
420,589,2.79724,-5.79956,0,0,0,0,0,0,0,-1,1644,435,2.7973,5.79955
427,589,5.93201,-20.5385,0,0,0,0,0,0,0,-1,1651,435,5.93203,20.5385
434,589,2.52734,-2.73029,0,0,0,0,0,0,0,-1,1658,435,2.52736,2.73029
441,589,3.17639,-2.02435,0,0,0,0,0,0,0,-1,1665,435,3.17643,2.02435
448,589,0.453735,-3.2868,0,0,0,0,0,0,0,-1,1672,435,0.453701,3.28681
455,589,0.664307,-3.46848,0,0,0,0,0,0,0,-1,1679,435,0.66425,3.46846
462,589,3.46716,-4.41891,0,0,0,0,0,0,0,-1,1686,435,3.4672,4.41891
469,589,0.0238037,-3.81497,0,0,0,0,0,0,0,-1,1693,435,0.0237965,3.81498
476,589,0,0,0,0,0,0,0,0,0,-1,1700,435,0,0
483,589,0,0,0,0,0,0,0,0,0,-1,1707,435,0,0
490,589,0,0,0,0,0,0,0,0,0,-1,1714,435,0,0
497,589,0,0,0,0,0,0,0,0,0,-1,1721,435,0,0
504,589,0,0,0,0,0,0,0,0,0,-1,1728,435,0,0
511,589,0,0,0,0,0,0,0,0,0,-1,1735,435,0,0
518,589,0,0,0,0,0,0,0,0,0,-1,1742,435,0,0
525,589,0,0,0,0,0,0,0,0,0,-1,1749,435,0,0
532,589,0,0,0,0,0,0,0,0,0,-1,1756,435,0,0
539,589,0,0,0,0,0,0,0,0,0,-1,1763,435,0,0
546,589,0,0,0,0,0,0,0,0,0,-1,1770,435,0,0
553,589,0,0,0,0,0,0,0,0,0,-1,1777,435,0,0
560,589,0,0,0,0,0,0,0,0,0,-1,1784,435,0,0
567,589,0,0,0,0,0,0,0,0,0,-1,1791,435,0,0
574,589,0,0,0,0,0,0,0,0,0,-1,1798,435,0,0
581,589,0,0,0,0,0,0,0,0,0,-1,1805,435,0,0
588,589,0,0,0,0,0,0,0,0,0,-1,1812,435,0,0
595,589,0,0,0,0,0,0,0,0,0,-1,1819,435,0,0
602,589,0,0,0,0,0,0,0,0,0,-1,1826,435,0,0
609,589,0,0,0,0,0,0,0,0,0,-1,1833,435,0,0
616,589,0,0,0,0,0,0,0,0,0,-1,1840,435,0,0
623,589,0,0,0,0,0,0,0,0,0,-1,1847,435,0,0
630,589,0,0,0,0,0,0,0,0,0,-1,1854,435,0,0
637,589,0,0,0,0,0,0,0,0,0,-1,1861,435,0,0
644,589,0,0,0,0,0,0,0,0,0,-1,1868,435,0,0
651,589,0,0,0,0,0,0,0,0,0,-1,1875,435,0,0
658,589,0,0,0,0,0,0,0,0,0,-1,1882,435,0,0
665,589,0,0,0,0,0,0,0,0,0,-1,1889,435,0,0
672,589,0,0,0,0,0,0,0,0,0,-1,1896,435,0,0
679,589,0,0,0,0,0,0,0,0,0,-1,1903,435,0,0
686,589,0,0,0,0,0,0,0,0,0,-1,1910,435,0,0
693,589,0,0,0,0,0,0,0,0,0,-1,1917,435,0,0
700,589,0,0,0,0,0,0,0,0,0,-1,1924,435,0,0
707,589,0,0,0,0,0,0,0,0,0,-1,1931,435,0,0
714,589,0,0,0,0,0,0,0,0,0,-1,1938,435,0,0
721,589,0,0,0,0,0,0,0,0,0,-1,1945,435,0,0
728,589,0,0,0,0,0,0,0,0,0,-1,1952,435,0,0
735,589,0,0,0,0,0,0,0,0,0,-1,1959,435,0,0
742,589,0,0,0,0,0,0,0,0,0,-1,1966,435,0,0
749,589,0,0,0,0,0,0,0,0,0,-1,1973,435,0,0
756,589,0,0,0,0,0,0,0,0,0,-1,1980,435,0,0
763,589,0,0,0,0,0,0,0,0,0,-1,1987,435,0,0
770,589,0,0,0,0,0,0,0,0,0,-1,1994,435,0,0
777,589,0,0,0,0,0,0,0,0,0,-1,2001,435,0,0
784,589,0,0,0,0,0,0,0,0,0,-1,2008,435,0,0
791,589,0,0,0,0,0,0,0,0,0,-1,2015,435,0,0
798,589,0,0,0,0,0,0,0,0,0,-1,2022,435,0,0
805,589,0,0,0,0,0,0,0,0,0,-1,2029,435,0,0
812,589,0,0,0,0,0,0,0,0,0,-1,2036,435,0,0
-700,582,0,0,0,0,0,0,0,0,0,-1,524,442,0,0
-693,582,0,0,0,0,0,0,0,0,0,-1,531,442,0,0
-686,582,0,0,0,0,0,0,0,0,0,-1,538,442,0,0
-679,582,0,0,0,0,0,0,0,0,0,-1,545,442,0,0
-672,582,0,0,0,0,0,0,0,0,0,-1,552,442,0,0
-665,582,0,0,0,0,0,0,0,0,0,-1,559,442,0,0
-658,582,0,0,0,0,0,0,0,0,0,-1,566,442,0,0
-651,582,0,0,0,0,0,0,0,0,0,-1,573,442,0,0
-644,582,0,0,0,0,0,0,0,0,0,-1,580,442,0,0
-637,582,0,0,0,0,0,0,0,0,0,-1,587,442,0,0
-630,582,0,0,0,0,0,0,0,0,0,-1,594,442,0,0
-623,582,0,0,0,0,0,0,0,0,0,-1,601,442,0,0
-616,582,0,0,0,0,0,0,0,0,0,-1,608,442,0,0
-609,582,0,0,0,0,0,0,0,0,0,-1,615,442,0,0
-602,582,0,0,0,0,0,0,0,0,0,-1,622,442,0,0
-595,582,0,0,0,0,0,0,0,0,0,-1,629,442,0,0
-588,582,0,0,0,0,0,0,0,0,0,-1,636,442,0,0
-581,582,0,0,0,0,0,0,0,0,0,-1,643,442,0,0
-574,582,0,0,0,0,0,0,0,0,0,-1,650,442,0,0
-567,582,0,0,0,0,0,0,0,0,0,-1,657,442,0,0
-560,582,0,0,0,0,0,0,0,0,0,-1,664,442,0,0
-553,582,0,0,0,0,0,0,0,0,0,-1,671,442,0,0
-546,582,0,0,0,0,0,0,0,0,0,-1,678,442,0,0
-539,582,0,0,0,0,0,0,0,0,0,-1,685,442,0,0
-532,582,0,0,0,0,0,0,0,0,0,-1,692,442,0,0
-525,582,0,0,0,0,0,0,0,0,0,-1,699,442,0,0
-518,582,0,0,0,0,0,0,0,0,0,-1,706,442,0,0
-511,582,0,0,0,0,0,0,0,0,0,-1,713,442,0,0
-504,582,0,0,0,0,0,0,0,0,0,-1,720,442,0,0
-497,582,0,0,0,0,0,0,0,0,0,-1,727,442,0,0
-490,582,0,0,0,0,0,0,0,0,0,-1,734,442,0,0
-483,582,0,0,0,0,0,0,0,0,0,-1,741,442,0,0
-476,582,0,0,0,0,0,0,0,0,0,-1,748,442,0,0
-469,582,0,0,0,0,0,0,0,0,0,-1,755,442,0,0
-462,582,0,0,0,0,0,0,0,0,0,-1,762,442,0,0
-455,582,0,0,0,0,0,0,0,0,0,-1,769,442,0,0
-448,582,0,0,0,0,0,0,0,0,0,-1,776,442,0,0
-441,582,0,0,0,0,0,0,0,0,0,-1,783,442,0,0
-434,582,0,0,0,0,0,0,0,0,0,-1,790,442,0,0
-427,582,0,0,0,0,0,0,0,0,0,-1,797,442,0,0
-420,582,0,0,0,0,0,0,0,0,0,-1,804,442,0,0
-413,582,0,0,0,0,0,0,0,0,0,-1,811,442,0,0
-406,582,0,0,0,0,0,0,0,0,0,-1,818,442,0,0
-399,582,0,0,0,0,0,0,0,0,0,-1,825,442,0,0
-392,582,0,0,0,0,0,0,0,0,0,-1,832,442,0,0
-385,582,0,0,0,0,0,0,0,0,0,-1,839,442,0,0
-378,582,0,0,0,0,0,0,0,0,0,-1,846,442,0,0
-371,582,0,0,0,0,0,0,0,0,0,-1,853,442,0,0
-364,582,0,0,0,0,0,0,0,0,0,-1,860,442,0,0
-357,582,-1.4903,-21.5295,0,0,0,0,0,0,0,-1,867,442,-1.49031,21.5295
-350,582,-0.880859,-19.7966,0,0,0,0,0,0,0,-1,874,442,-0.880885,19.7966
-343,582,-0.208557,-18.0078,0,0,0,0,0,0,0,-1,881,442,-0.208576,18.0078
-336,582,-0.167114,-18.7637,0,0,0,0,0,0,0,-1,888,442,-0.167108,18.7637
-329,582,2.34509,-19.5596,0,0,0,0,0,0,0,-1,895,442,2.34508,19.5596
-322,582,1.85284,-20.2876,0,0,0,0,0,0,0,-1,902,442,1.85286,20.2876
-315,582,1.72937,-21.0678,0.0120363,-0.0108695,-0.0119667,0.0171475,-0.0159807,-0.403667,0.0191305,0.045291,909,442,1.7294,21.0678
-308,582,2.28015,-21.6915,0.00866204,-0.00849797,-0.0104557,0.0136075,-0.0134434,-0.441808,0.0156179,0.046974,916,442,2.28016,21.6915
-301,582,3,-21.6415,0,0,0,0,0,0,0,-1,923,442,3.00003,21.6415
-294,582,2.92029,-22.1604,0.00308843,-0.00370557,-0.00714504,0.00760289,-0.00822003,-0.563497,0.00913768,0.0432712,930,442,2.92029,22.1604
-287,582,2.61328,-22.3264,0.000973485,-0.00180593,-0.00554725,0.00530246,-0.0061349,-0.662663,0.00660919,0.034733,937,442,2.61331,22.3264
-280,582,2.59485,-22.8457,-0.000508802,0.000451296,-0.0043589,0.0043565,-0.00441401,-0.840243,0.00506369,0.0165827,944,442,2.59482,22.8457
-273,582,2.57452,-23.3481,-0.00138974,0.0016431,-0.0038505,0.00426502,-0.00401167,-0.972983,0.0047793,0.0103724,951,442,2.57451,23.3481
-266,582,2.54578,-23.8324,-0.00189071,0.00233694,-0.00325762,0.00410646,-0.00366023,-1.07319,0.00448656,0.0104887,958,442,2.5458,23.8324
-259,582,2.50775,-24.3129,-0.00247483,0.00373003,-0.00198566,0.00431107,-0.00305586,-1.28613,0.00427383,0.00919015,965,442,2.50778,24.3129
-252,582,2.48108,-24.7843,-0.00258553,0.00427655,-0.00144933,0.0045701,-0.00287909,-1.37096,0.00433757,0.00798797,972,442,2.48109,24.7843
-245,582,2.48236,-25.1908,-0.0021,0.00376999,-0.00122164,0.00401408,-0.00234409,-1.37359,0.00371286,0.0111136,979,442,2.48233,25.1908
-238,582,2.4563,-25.5862,-0.00145777,0.0033628,-0.00111278,0.00360728,-0.00170225,-1.35453,0.00313053,0.0161102,986,442,2.45628,25.5863
-231,582,2.44281,-26.0044,-0.000957898,0.00264862,-0.000774571,0.00280794,-0.00111721,-1.36794,0.00233521,0.0131266,993,442,2.44282,26.0044
-224,582,2.4245,-26.4308,-0.000579474,0.00177994,-0.000386131,0.00184152,-0.000641059,-1.41264,0.00148813,0.0104946,1000,442,2.4245,26.4308
-217,582,2.38318,-26.85,-0.000174857,0.000913872,-4.88833e-05,0.000916063,-0.000177047,-1.52602,0.00067748,0.0124614,1007,442,2.38318,26.85
-210,582,2.38293,-27.2571,0.000188182,-0.000156487,0.000321152,0.000380318,-0.000348622,0.539145,0.000420986,0.0132103,1014,442,2.38293,27.2571
-203,582,2.40466,-27.6526,0.000474774,-0.00134743,0.000794046,0.000772231,-0.00164488,0.358429,0.00142552,0.0110055,1021,442,2.40468,27.6526
-196,582,2.37805,-28.037,0.000667902,-0.00240846,0.00120488,0.00108362,-0.00282418,0.332241,0.00232958,0.0167297,1028,442,2.37799,28.037
-189,582,2.35583,-28.4232,0.00077342,-0.0034679,0.00158067,0.0012977,-0.00399218,0.320265,0.00318344,0.024362,1035,442,2.35586,28.4233
-182,582,2.36487,-28.7979,0.000862951,-0.00472821,0.00212144,0.00157675,-0.00544201,0.324572,0.00425218,0.0178577,1042,442,2.36486,28.7978
-175,582,2.37195,-29.1304,0.000919651,-0.00605797,0.00278674,0.00189601,-0.00703433,0.336994,0.00543298,0.0137052,1049,442,2.37196,29.1304
-168,582,2.40295,-29.4874,0.000824833,-0.00769797,0.003448,0.00204506,-0.0089182,0.34014,0.00673151,0.0108298,1056,442,2.40291,29.4874
-161,582,2.40784,-29.8332,0.000644433,-0.0094851,0.00409508,0.00209285,-0.0109335,0.339964,0.00807752,0.0127596,1063,442,2.40785,29.8332
-154,582,2.40979,-30.1606,0.000560813,-0.0111295,0.00474374,0.00224354,-0.0128122,0.340878,0.0093792,0.0133347,1070,442,2.40981,30.1605
-147,582,2.42847,-30.4938,0.000573405,-0.0125284,0.0053317,0.00246888,-0.0144239,0.341575,0.0105358,0.0128242,1077,442,2.42848,30.4938
-140,582,2.43567,-30.8065,0.000561329,-0.0141953,0.00593189,0.00265016,-0.0162841,0.338577,0.0118388,0.0133991,1084,442,2.43562,30.8065
-133,582,2.47498,-31.1452,0.00055403,-0.0158141,0.00654999,0.00285239,-0.0181124,0.337473,0.0131294,0.015917,1091,442,2.47494,31.1452
-126,582,2.49084,-31.3787,0.000747391,-0.0172541,0.00695506,0.00312145,-0.0196282,0.328942,0.0142404,0.0154873,1098,442,2.49086,31.3787
-119,582,2.44287,-31.5368,0.000943696,-0.018497,0.00714229,0.00328558,-0.0208389,0.316844,0.0151074,0.0213725,1105,442,2.44284,31.5368
-112,582,2.32996,-31.823,0.00123917,-0.019349,0.0070843,0.0034413,-0.0215511,0.301379,0.0156412,0.0310089,1112,442,2.32993,31.823
-105,582,2.37329,-32.2239,0.00179383,-0.0196381,0.00683679,0.00378902,-0.0216333,0.283946,0.015837,0.0494444,1119,442,2.37334,32.2239
-98,582,2.61938,-32.8673,0,0,0,0,0,0,0,-1,1126,442,2.61944,32.8673
-91,582,2.16492,-24.1119,0,0,0,0,0,0,0,-1,1133,442,2.16496,24.1119
-84,582,2.10278,-16.7533,0,0,0,0,0,0,0,-1,1140,442,2.10279,16.7533
-77,582,2.30212,-11.4907,0,0,0,0,0,0,0,-1,1147,442,2.30207,11.4907
-70,582,1.49255,-6.36548,0,0,0,0,0,0,0,-1,1154,442,1.49251,6.36549
-63,582,-4.62915,-4.0347,0,0,0,0,0,0,0,-1,1161,442,-4.6292,4.03471
-56,582,-5.81714,-5.24149,0,0,0,0,0,0,0,-1,1168,442,-5.81718,5.24149
-49,582,-3.88672,-10.1064,0,0,0,0,0,0,0,-1,1175,442,-3.88678,10.1064
-42,582,-0.948975,1.13968,0,0,0,0,0,0,0,-1,1182,442,-0.949003,-1.13969
-35,582,-2.58435,-3.86911,0,0,0,0,0,0,0,-1,1189,442,-2.58437,3.86912
-28,582,-0.825317,-3.45941,0,0,0,0,0,0,0,-1,1196,442,-0.825377,3.45942
-21,582,2.05249,-37.0172,0,0,0,0,0,0,0,-1,1203,442,2.05251,37.0172
-14,582,2.38672,-36.9588,0,0,0,0,0,0,0,-1,1210,442,2.38668,36.9588
-7,582,2.83752,-36.6975,0,0,0,0,0,0,0,-1,1217,442,2.83746,36.6975
0,582,4.16504,-35.7028,0,0,0,0,0,0,0,-1,1224,442,4.16506,35.7028
7,582,4.16626,-34.9455,0.029412,-0.0573786,-0.00756487,0.0300665,-0.058033,-0.0862951,0.0517115,0.0460189,1231,442,4.1663,34.9455
14,582,3.96106,-34.5904,0.023222,-0.0540394,-0.0113219,0.024847,-0.0556643,-0.142548,0.0476047,0.0459029,1238,442,3.96105,34.5904
21,582,3.83716,-34.5407,0.0186135,-0.0501287,-0.0145059,0.0215492,-0.0530643,-0.199679,0.0443405,0.0435985,1245,442,3.83714,34.5407
28,582,3.44446,-34.6804,0.0155594,-0.0461008,-0.01674,0.019811,-0.0503524,-0.248717,0.0417685,0.0425049,1252,442,3.44452,34.6804
35,582,2.88586,-34.5326,0.0143463,-0.0420641,-0.0182993,0.0197625,-0.0474803,-0.287763,0.0399069,0.0447105,1259,442,2.88591,34.5326
42,582,2.22229,-34.4171,0.0155474,-0.0384461,-0.0195886,0.0219054,-0.0448041,-0.313848,0.0392638,0.047826,1266,442,2.22235,34.4171
49,582,1.64392,-34.4885,0,0,0,0,0,0,0,-1,1273,442,1.64391,34.4885
56,582,2.16907,-35.397,0.0208164,-0.0333972,-0.0226026,0.0290035,-0.0415843,-0.347517,0.040969,0.0398922,1280,442,2.16904,35.397
63,582,2.99683,-34.4951,0.0230537,-0.0323755,-0.0238536,0.0319054,-0.0412272,-0.355332,0.0423373,0.0451515,1287,442,2.99677,34.4951
70,582,3.59387,-34.2417,0.0232843,-0.033578,-0.0234496,0.0317071,-0.0420008,-0.344836,0.0426934,0.0468758,1294,442,3.59393,34.2417
77,582,4.30383,-33.6671,0.0203905,-0.0379978,-0.0224113,0.0280008,-0.045608,-0.327355,0.0429014,0.0460496,1301,442,4.30382,33.6671
84,582,4.86426,-33.4484,0,0,0,0,0,0,0,-1,1308,442,4.86427,33.4484
91,582,5.31885,-33.6462,0.0191987,-0.0484758,-0.0203133,0.0248278,-0.0541049,-0.270328,0.046605,0.0463221,1315,442,5.31889,33.6462
98,582,5.98413,-33.4399,0.0163438,-0.0547364,-0.0198675,0.02152,-0.0599126,-0.25487,0.0487257,0.0434964,1322,442,5.98411,33.4399
105,582,5.61487,-32.8053,0.0117537,-0.0605236,-0.0207368,0.0172806,-0.0660505,-0.260471,0.0507836,0.0457519,1329,442,5.61493,32.8053
112,582,5.61841,-32.5352,0.00573003,-0.0657558,-0.0201006,0.0109943,-0.0710201,-0.256143,0.0514049,0.0442156,1336,442,5.61843,32.5352
119,582,5.82751,-32.4001,0,0,0,0,0,0,0,-1,1343,442,5.82747,32.4001
126,582,5.68262,-31.3162,-0.00753718,-0.0761649,-0.0157325,-0.0041025,-0.0795996,-0.214945,0.0517531,0.0448926,1350,442,5.68258,31.3162
133,582,6.00916,-31.4577,-0.0113573,-0.0796587,-0.0132973,-0.00885987,-0.0821562,-0.185655,0.0520694,0.046332,1357,442,6.00914,31.4577
140,582,5.66541,-31.0528,-0.0135603,-0.081383,-0.0106064,-0.0119403,-0.083003,-0.151565,0.0518159,0.0460638,1364,442,5.66544,31.0528
147,582,5.46851,-30.9463,-0.014978,-0.0806925,-0.00805799,-0.0140043,-0.0816661,-0.120248,0.0504284,0.0487328,1371,442,5.46847,30.9463
154,582,5.43445,-31.023,-0.0155248,-0.0774138,-0.00593111,-0.0149616,-0.0779771,-0.0946863,0.0477848,0.0458043,1378,442,5.43441,31.023
161,582,5.49902,-31.071,0,0,0,0,0,0,0,-1,1385,442,5.49904,31.0711
168,582,7.16553,-31.7727,0,0,0,0,0,0,0,-1,1392,442,7.1655,31.7727
175,582,6.50549,-2.00424,0,0,0,0,0,0,0,-1,1399,442,6.50546,2.00425
182,582,5.18958,-2.18652,0,0,0,0,0,0,0,-1,1406,442,5.1896,2.18652
189,582,6.19751,-0.880951,0,0,0,0,0,0,0,-1,1413,442,6.19754,0.88096
196,582,4.87354,-2.22327,0,0,0,0,0,0,0,-1,1420,442,4.87348,2.22325
203,582,3.11401,-4.48257,0,0,0,0,0,0,0,-1,1427,442,3.11404,4.48259
210,582,2.93115,-11.0731,0,0,0,0,0,0,0,-1,1434,442,2.93113,11.0731
217,582,4.94092,-16.5476,0,0,0,0,0,0,0,-1,1441,442,4.94087,16.5476
224,582,5.21008,-20.9908,0,0,0,0,0,0,0,-1,1448,442,5.21006,20.9908
231,582,5.70032,-25.622,0,0,0,0,0,0,0,-1,1455,442,5.70026,25.6221
238,582,6.44189,-30.7028,0,0,0,0,0,0,0,-1,1462,442,6.44195,30.7028
245,582,6.91541,-31.4156,0,0,0,0,0,0,0,-1,1469,442,6.91545,31.4156
252,582,6.81409,-31.0312,0.00336029,0.00322642,3.34696e-06,0.00336038,0.00322634,0.0249801,0.00219694,0.0349174,1476,442,6.81414,31.0312
259,582,6.74487,-30.6953,0.00363245,0.00171595,5.14093e-05,0.00363383,0.00171458,0.0267989,0.0020991,0.0247087,1483,442,6.74488,30.6952
266,582,6.7666,-30.3238,0.0037059,0.000389571,-6.46568e-05,0.00370716,0.000388311,-0.0194867,0.00235271,0.0179308,1490,442,6.76655,30.3238
273,582,6.81824,-29.9675,0.00380646,-0.000361609,-7.04053e-05,0.00380765,-0.000362798,-0.0168851,0.0026676,0.0153228,1497,442,6.81827,29.9675
280,582,6.83228,-29.62,0.00391574,-0.00140814,-0.000105594,0.00391783,-0.00141023,-0.0198237,0.0031877,0.0133741,1504,442,6.83232,29.62
287,582,6.86133,-29.2327,0.0038344,-0.00169121,-0.000119491,0.00383698,-0.0016938,-0.0216115,0.00327213,0.0113176,1511,442,6.86138,29.2327
294,582,6.87524,-28.8393,0.00353974,-0.00158765,-6.55246e-05,0.00354058,-0.00158849,-0.0127765,0.00303192,0.0089549,1518,442,6.87525,28.8393
301,582,6.8894,-28.4262,0.00318913,-0.00135626,4.04364e-05,0.00318949,-0.00135662,0.00889519,0.00269487,0.00984339,1525,442,6.8894,28.4262
308,582,6.88708,-28.0309,0.00285162,-0.00118235,0.000128174,0.00285569,-0.00118641,0.0317309,0.00239913,0.0130067,1532,442,6.88712,28.031
315,582,6.88208,-27.674,0.00238925,-0.000682488,0.000167864,0.0023984,-0.000691634,0.0544319,0.00187255,0.0136203,1539,442,6.88207,27.674
322,582,6.88757,-27.2707,0.00185856,-8.55665e-05,0.000289938,0.00190088,-0.000127885,0.144935,0.00131196,0.0111103,1546,442,6.88755,27.2707
329,582,6.88403,-26.8474,0.00132739,0.000500101,0.000472418,0.00154166,0.000285828,0.425816,0.000946989,0.010846,1553,442,6.88402,26.8474
336,582,6.88232,-26.4468,0.000825027,0.00108632,0.000662574,0.001631,0.000280341,0.882738,0.00100698,0.0107072,1560,442,6.88237,26.4468
343,582,6.86243,-26.0372,0.000353681,0.00167754,0.000874621,0.00211248,-8.12538e-05,1.10932,0.00143617,0.0129501,1567,442,6.86247,26.0372
350,582,6.85449,-25.5993,-1.18254e-05,0.00246619,0.00122714,0.00297104,-0.000516668,1.1805,0.00217348,0.0164867,1574,442,6.85453,25.5993
357,582,6.84998,-25.125,-0.000311613,0.00316726,0.00162069,0.00380527,-0.000949624,1.19576,0.00290559,0.0145498,1581,442,6.85003,25.125
364,582,6.83582,-24.6772,-0.000573614,0.00378471,0.0020134,0.00457245,-0.00136135,1.19786,0.0035892,0.0112609,1588,442,6.83583,24.6771
371,582,6.83313,-24.2346,-0.000802447,0.00442029,0.00240946,0.00536205,-0.00174421,1.19819,0.00427637,0.0149799,1595,442,6.83307,24.2346
378,582,6.81226,-23.7926,-0.000969818,0.00524584,0.00282743,0.00633955,-0.00206353,1.2017,0.00505657,0.0160316,1602,442,6.81223,23.7926
385,582,6.78162,-23.3265,-0.0011489,0.00599828,0.00313275,0.00717703,-0.00232764,1.21092,0.00572065,0.0115581,1609,442,6.78158,23.3265
392,582,6.72803,-22.8369,-0.00122816,0.00670943,0.00350723,0.00803705,-0.00255578,1.20893,0.00638286,0.0100579,1616,442,6.72797,22.8369
399,582,6.70264,-22.382,-0.000927034,0.00782502,0.0044503,0.00969036,-0.00279238,1.17389,0.00756482,0.0177684,1623,442,6.70266,22.382
406,582,6.70337,-21.7788,-0.000250973,0.0107503,0.00637828,0.0136723,-0.00317289,1.14122,0.0103361,0.032775,1630,442,6.70342,21.7788
413,582,6.70288,-21.1454,0,0,0,0,0,0,0,-1,1637,442,6.70294,21.1454
420,582,6.54187,-20.8881,0,0,0,0,0,0,0,-1,1644,442,6.54189,20.8881
427,582,6.4906,-20.4168,0,0,0,0,0,0,0,-1,1651,442,6.4906,20.4168
434,582,6.48389,-19.8487,0,0,0,0,0,0,0,-1,1658,442,6.48383,19.8487
441,582,4.53979,-12.7726,0,0,0,0,0,0,0,-1,1665,442,4.53983,12.7726
448,582,7.49854,-17.2696,0,0,0,0,0,0,0,-1,1672,442,7.49848,17.2696
455,582,5.93567,-16.3171,0,0,0,0,0,0,0,-1,1679,442,5.93569,16.3171
462,582,6.7699,-17.5673,0,0,0,0,0,0,0,-1,1686,442,6.76989,17.5673
469,582,5.90674,-15.9182,0,0,0,0,0,0,0,-1,1693,442,5.90676,15.9182
476,582,1.93579,-8.53891,0,0,0,0,0,0,0,-1,1700,442,1.93579,8.53892
483,582,0,0,0,0,0,0,0,0,0,-1,1707,442,0,0
490,582,0,0,0,0,0,0,0,0,0,-1,1714,442,0,0
497,582,0,0,0,0,0,0,0,0,0,-1,1721,442,0,0
504,582,0,0,0,0,0,0,0,0,0,-1,1728,442,0,0
511,582,0,0,0,0,0,0,0,0,0,-1,1735,442,0,0
518,582,0,0,0,0,0,0,0,0,0,-1,1742,442,0,0
525,582,0,0,0,0,0,0,0,0,0,-1,1749,442,0,0
532,582,0,0,0,0,0,0,0,0,0,-1,1756,442,0,0
539,582,0,0,0,0,0,0,0,0,0,-1,1763,442,0,0
546,582,0,0,0,0,0,0,0,0,0,-1,1770,442,0,0
553,582,0,0,0,0,0,0,0,0,0,-1,1777,442,0,0
560,582,0,0,0,0,0,0,0,0,0,-1,1784,442,0,0
567,582,0,0,0,0,0,0,0,0,0,-1,1791,442,0,0
574,582,0,0,0,0,0,0,0,0,0,-1,1798,442,0,0
581,582,0,0,0,0,0,0,0,0,0,-1,1805,442,0,0
588,582,0,0,0,0,0,0,0,0,0,-1,1812,442,0,0
595,582,0,0,0,0,0,0,0,0,0,-1,1819,442,0,0
602,582,0,0,0,0,0,0,0,0,0,-1,1826,442,0,0
609,582,0,0,0,0,0,0,0,0,0,-1,1833,442,0,0
616,582,0,0,0,0,0,0,0,0,0,-1,1840,442,0,0
623,582,0,0,0,0,0,0,0,0,0,-1,1847,442,0,0
630,582,0,0,0,0,0,0,0,0,0,-1,1854,442,0,0
637,582,0,0,0,0,0,0,0,0,0,-1,1861,442,0,0
644,582,0,0,0,0,0,0,0,0,0,-1,1868,442,0,0
651,582,0,0,0,0,0,0,0,0,0,-1,1875,442,0,0
658,582,0,0,0,0,0,0,0,0,0,-1,1882,442,0,0
665,582,0,0,0,0,0,0,0,0,0,-1,1889,442,0,0
672,582,0,0,0,0,0,0,0,0,0,-1,1896,442,0,0
679,582,0,0,0,0,0,0,0,0,0,-1,1903,442,0,0
686,582,0,0,0,0,0,0,0,0,0,-1,1910,442,0,0
693,582,0,0,0,0,0,0,0,0,0,-1,1917,442,0,0
700,582,0,0,0,0,0,0,0,0,0,-1,1924,442,0,0
707,582,0,0,0,0,0,0,0,0,0,-1,1931,442,0,0
714,582,0,0,0,0,0,0,0,0,0,-1,1938,442,0,0
721,582,0,0,0,0,0,0,0,0,0,-1,1945,442,0,0
728,582,0,0,0,0,0,0,0,0,0,-1,1952,442,0,0
735,582,0,0,0,0,0,0,0,0,0,-1,1959,442,0,0
742,582,0,0,0,0,0,0,0,0,0,-1,1966,442,0,0
749,582,0,0,0,0,0,0,0,0,0,-1,1973,442,0,0
756,582,0,0,0,0,0,0,0,0,0,-1,1980,442,0,0
763,582,0,0,0,0,0,0,0,0,0,-1,1987,442,0,0
770,582,0,0,0,0,0,0,0,0,0,-1,1994,442,0,0
777,582,0,0,0,0,0,0,0,0,0,-1,2001,442,0,0
784,582,0,0,0,0,0,0,0,0,0,-1,2008,442,0,0
791,582,0,0,0,0,0,0,0,0,0,-1,2015,442,0,0
798,582,0,0,0,0,0,0,0,0,0,-1,2022,442,0,0
805,582,0,0,0,0,0,0,0,0,0,-1,2029,442,0,0
812,582,0,0,0,0,0,0,0,0,0,-1,2036,442,0,0
-700,575,0,0,0,0,0,0,0,0,0,-1,524,449,0,0
-693,575,0,0,0,0,0,0,0,0,0,-1,531,449,0,0
-686,575,0,0,0,0,0,0,0,0,0,-1,538,449,0,0
-679,575,0,0,0,0,0,0,0,0,0,-1,545,449,0,0
-672,575,0,0,0,0,0,0,0,0,0,-1,552,449,0,0
-665,575,0,0,0,0,0,0,0,0,0,-1,559,449,0,0
-658,575,0,0,0,0,0,0,0,0,0,-1,566,449,0,0
-651,575,0,0,0,0,0,0,0,0,0,-1,573,449,0,0
-644,575,0,0,0,0,0,0,0,0,0,-1,580,449,0,0
-637,575,0,0,0,0,0,0,0,0,0,-1,587,449,0,0
-630,575,0,0,0,0,0,0,0,0,0,-1,594,449,0,0
-623,575,0,0,0,0,0,0,0,0,0,-1,601,449,0,0
-616,575,0,0,0,0,0,0,0,0,0,-1,608,449,0,0
-609,575,0,0,0,0,0,0,0,0,0,-1,615,449,0,0
-602,575,0,0,0,0,0,0,0,0,0,-1,622,449,0,0
-595,575,0,0,0,0,0,0,0,0,0,-1,629,449,0,0
-588,575,0,0,0,0,0,0,0,0,0,-1,636,449,0,0
-581,575,0,0,0,0,0,0,0,0,0,-1,643,449,0,0
-574,575,0,0,0,0,0,0,0,0,0,-1,650,449,0,0
-567,575,0,0,0,0,0,0,0,0,0,-1,657,449,0,0
-560,575,0,0,0,0,0,0,0,0,0,-1,664,449,0,0
-553,575,0,0,0,0,0,0,0,0,0,-1,671,449,0,0
-546,575,0,0,0,0,0,0,0,0,0,-1,678,449,0,0
-539,575,0,0,0,0,0,0,0,0,0,-1,685,449,0,0
-532,575,0,0,0,0,0,0,0,0,0,-1,692,449,0,0
-525,575,0,0,0,0,0,0,0,0,0,-1,699,449,0,0
-518,575,0,0,0,0,0,0,0,0,0,-1,706,449,0,0
-511,575,0,0,0,0,0,0,0,0,0,-1,713,449,0,0
-504,575,0,0,0,0,0,0,0,0,0,-1,720,449,0,0
-497,575,0,0,0,0,0,0,0,0,0,-1,727,449,0,0
-490,575,0,0,0,0,0,0,0,0,0,-1,734,449,0,0
-483,575,0,0,0,0,0,0,0,0,0,-1,741,449,0,0
-476,575,0,0,0,0,0,0,0,0,0,-1,748,449,0,0
-469,575,0,0,0,0,0,0,0,0,0,-1,755,449,0,0
-462,575,0,0,0,0,0,0,0,0,0,-1,762,449,0,0
-455,575,0,0,0,0,0,0,0,0,0,-1,769,449,0,0
-448,575,0,0,0,0,0,0,0,0,0,-1,776,449,0,0
-441,575,0,0,0,0,0,0,0,0,0,-1,783,449,0,0
-434,575,0,0,0,0,0,0,0,0,0,-1,790,449,0,0
-427,575,0,0,0,0,0,0,0,0,0,-1,797,449,0,0
-420,575,0,0,0,0,0,0,0,0,0,-1,804,449,0,0
-413,575,0,0,0,0,0,0,0,0,0,-1,811,449,0,0
-406,575,0,0,0,0,0,0,0,0,0,-1,818,449,0,0
-399,575,0,0,0,0,0,0,0,0,0,-1,825,449,0,0
-392,575,0,0,0,0,0,0,0,0,0,-1,832,449,0,0
-385,575,0,0,0,0,0,0,0,0,0,-1,839,449,0,0
-378,575,0,0,0,0,0,0,0,0,0,-1,846,449,0,0
-371,575,0.56897,-3.52304,0,0,0,0,0,0,0,-1,853,449,0.568955,3.52306
-364,575,1.49805,-4.67191,0,0,0,0,0,0,0,-1,860,449,1.49803,4.6719
-357,575,3.15521,-8.29892,0,0,0,0,0,0,0,-1,867,449,3.15521,8.29891
-350,575,-0.825928,-18.5347,0,0,0,0,0,0,0,-1,874,449,-0.825948,18.5347
-343,575,0.465393,-16.3569,0,0,0,0,0,0,0,-1,881,449,0.465397,16.3569
-336,575,3.1994,-17.5725,0,0,0,0,0,0,0,-1,888,449,3.19941,17.5725
-329,575,2.71667,-19.2544,0,0,0,0,0,0,0,-1,895,449,2.71668,19.2544
-322,575,2.26611,-19.3169,0,0,0,0,0,0,0,-1,902,449,2.26611,19.3169
-315,575,2.11578,-20.2581,0.00759573,-0.0040342,-0.00898164,0.0124805,-0.00891894,-0.498116,0.0124119,0.0429816,909,449,2.11576,20.2581
-308,575,2.1106,-21.0354,0.00547005,-0.00331828,-0.00796674,0.0101741,-0.00802234,-0.533377,0.0105302,0.0434573,916,449,2.11058,21.0354
-301,575,2.26123,-21.4539,0.00365431,-0.00219492,-0.00696343,0.00828236,-0.00682297,-0.586586,0.00873462,0.0318916,923,449,2.26121,21.4539
-294,575,2.23035,-21.9324,0.00198045,-0.00133143,-0.00567587,0.00623701,-0.00558799,-0.643462,0.0068306,0.0235681,930,449,2.23032,21.9324
-287,575,2.18799,-22.4413,0.000639184,-0.000437249,-0.00449102,0.00462412,-0.00442218,-0.725761,0.00522332,0.017655,937,449,2.18801,22.4413
-280,575,2.16571,-22.9227,-0.000315255,0.000801084,-0.00357139,0.00385766,-0.00337183,-0.862916,0.00417709,0.0138525,944,449,2.16571,22.9227
-273,575,2.16235,-23.3907,-0.000880631,0.00136689,-0.00316474,0.00360147,-0.00311521,-0.955998,0.00388126,0.0116996,951,449,2.16238,23.3907
-266,575,2.14954,-23.8555,-0.00118383,0.0015443,-0.00263036,0.00314325,-0.00278279,-1.0246,0.00342351,0.0131129,958,449,2.14955,23.8555
-259,575,2.09851,-24.3116,-0.00153819,0.0023563,-0.00148972,0.0028608,-0.00204269,-1.24427,0.00284413,0.0130636,965,449,2.09853,24.3116
-252,575,2.04395,-24.7665,-0.00153997,0.002449,-0.000899403,0.00264241,-0.00173338,-1.35898,0.00254447,0.0116514,972,449,2.04395,24.7665
-245,575,2.02368,-25.1871,-0.00107992,0.00168967,-0.000564748,0.0018004,-0.00119065,-1.37718,0.0017388,0.0147988,979,449,2.02366,25.1871
-238,575,2.03137,-25.5861,-0.000470265,0.00094542,-0.000330948,0.00101897,-0.000543811,-1.35212,0.000916065,0.0151706,986,449,2.03139,25.5861
-231,575,2.02448,-25.9993,1.08522e-05,-4.82393e-05,9.89735e-05,8.45959e-05,-0.000121983,0.640348,0.000119918,0.0128119,993,449,2.02445,25.9993
-224,575,1.99548,-26.4227,0.000437204,-0.00116024,0.000598627,0.000636636,-0.00135967,0.321584,0.0011775,0.0124397,1000,449,1.99548,26.4227
-217,575,1.97949,-26.846,0.00086772,-0.00226004,0.0010633,0.00119496,-0.00258728,0.298558,0.00223245,0.010704,1007,449,1.97948,26.846
-210,575,1.99976,-27.2559,0.00120213,-0.00354198,0.00153808,0.00165714,-0.003997,0.287632,0.0033563,0.00928,1014,449,1.99974,27.2559
-203,575,2.01526,-27.6467,0.00144954,-0.00485582,0.00210377,0.00208702,-0.00549329,0.294219,0.00452138,0.0128328,1021,449,2.01524,27.6467
-196,575,2.0127,-28.0262,0.00159877,-0.0059991,0.00256614,0.00238427,-0.00678459,0.297043,0.0054931,0.0165893,1028,449,2.01273,28.0262
-189,575,1.99683,-28.3998,0.00157532,-0.00721441,0.0030511,0.0025306,-0.0081697,0.303426,0.00645746,0.0177661,1035,449,1.99679,28.3998
-182,575,1.99121,-28.7699,0.00151801,-0.00858693,0.00370145,0.00272878,-0.0097977,0.316136,0.00760634,0.0164267,1042,449,1.99119,28.7699
-175,575,2.0105,-29.1205,0.00142213,-0.00984999,0.00445956,0.00297306,-0.0114009,0.334693,0.00876142,0.0124559,1049,449,2.01051,29.1205
-168,575,2.02271,-29.4569,0.00115407,-0.0115919,0.00518469,0.00299667,-0.0134346,0.341471,0.0101045,0.0105211,1056,449,2.02265,29.4569
-161,575,2.03662,-29.8044,0.000756942,-0.0135214,0.00590567,0.00288302,-0.0156474,0.345561,0.0115136,0.016102,1063,449,2.0366,29.8045
-154,575,2.0437,-30.138,0.000441964,-0.0153418,0.00664587,0.00286751,-0.0177674,0.349949,0.0129074,0.021157,1070,449,2.04375,30.138
-147,575,2.07654,-30.4261,0.000262964,-0.0168719,0.00734042,0.0029775,-0.0195864,0.354209,0.0141549,0.0193659,1077,449,2.0765,30.4261
-140,575,2.04419,-30.6833,3.96337e-05,-0.0188927,0.00810231,0.00303363,-0.0218867,0.353961,0.0157003,0.0239533,1084,449,2.04419,30.6833
-133,575,2.04639,-30.9431,-0.000198712,-0.0209213,0.00891915,0.00311141,-0.0242314,0.35537,0.017285,0.0305491,1091,449,2.04641,30.9431
-126,575,2.06787,-30.8356,-0.000114569,-0.0228945,0.00948565,0.00331805,-0.0263271,0.347214,0.0187555,0.0360435,1098,449,2.06786,30.8356
-119,575,2.0094,-31.0288,9.67586e-05,-0.0247078,0.00981677,0.00351173,-0.0281228,0.334777,0.020022,0.0413007,1105,449,2.00936,31.0288
-112,575,1.92383,-31.2918,0.000411565,-0.026138,0.00983155,0.00365584,-0.0293823,0.318735,0.0209136,0.0466801,1112,449,1.9238,31.2918
-105,575,1.97571,-31.9922,0,0,0,0,0,0,0,-1,1119,449,1.97575,31.9922
-98,575,1.521,-25.6961,0,0,0,0,0,0,0,-1,1126,449,1.52105,25.6961
-91,575,1.60803,-16.4247,0,0,0,0,0,0,0,-1,1133,449,1.60802,16.4247
-84,575,1.16553,-11.9056,0,0,0,0,0,0,0,-1,1140,449,1.16558,11.9056
-77,575,0.205078,-11.2584,0,0,0,0,0,0,0,-1,1147,449,0.205117,11.2584
-70,575,-4.2467,-1.78738,0,0,0,0,0,0,0,-1,1154,449,-4.24674,1.78739
-63,575,-4.52209,-3.48798,0,0,0,0,0,0,0,-1,1161,449,-4.5221,3.48796
-56,575,-5.5968,-5.4928,0,0,0,0,0,0,0,-1,1168,449,-5.59683,5.49281
-49,575,-5.96863,-7.17612,0,0,0,0,0,0,0,-1,1175,449,-5.96868,7.1761
-42,575,-0.830322,0.773499,0,0,0,0,0,0,0,-1,1182,449,-0.83038,-0.77351
-35,575,-0.62085,0.205139,0,0,0,0,0,0,0,-1,1189,449,-0.620855,-0.205126
-28,575,0.49292,-3.87988,0,0,0,0,0,0,0,-1,1196,449,0.492941,3.87989
-21,575,16.8424,-42.838,0,0,0,0,0,0,0,-1,1203,449,16.8424,42.838
-14,575,2.77808,-36.9307,0,0,0,0,0,0,0,-1,1210,449,2.77811,36.9307
-7,575,3.2074,-36.2541,0.0604589,-0.0737237,0.00410015,0.060584,-0.0738489,0.0305185,0.0777407,0.0465017,1217,449,3.2074,36.254
0,575,3.68457,-35.688,0.0524987,-0.0730048,-0.00346955,0.0525945,-0.0731006,-0.0276169,0.0728913,0.0469618,1224,449,3.68453,35.688
7,575,4.20959,-34.5288,0.0428957,-0.0703091,-0.0100631,0.0437833,-0.0711967,-0.087974,0.0670097,0.0439086,1231,449,4.20954,34.5289
14,575,4.10583,-34.1513,0.0340971,-0.0656394,-0.0153884,0.0364174,-0.0679597,-0.149656,0.0611725,0.0491469,1238,449,4.10578,34.1513
21,575,3.88745,-34.0697,0,0,0,0,0,0,0,-1,1245,449,3.88746,34.0697
28,575,4.36255,-34.5265,0.0225931,-0.0548915,-0.0231929,0.0290047,-0.0613031,-0.269711,0.0532392,0.0424174,1252,449,4.36249,34.5265
35,575,3.88147,-34.4874,0.0200573,-0.0495914,-0.0255031,0.0283971,-0.0579312,-0.316049,0.0508046,0.0441332,1259,449,3.88149,34.4874
42,575,3.34631,-34.4521,0.0203996,-0.0450097,-0.0272775,0.030282,-0.0548921,-0.347583,0.0498548,0.0461616,1266,449,3.34635,34.4521
49,575,2.81946,-34.4248,0,0,0,0,0,0,0,-1,1273,449,2.81948,34.4248
56,575,3.20276,-34.3691,0.0245079,-0.0391685,-0.0306814,0.0368853,-0.0515459,-0.383448,0.0512891,0.0397953,1280,449,3.20278,34.3691
63,575,3.12805,-34.2155,0.0257679,-0.0383534,-0.0317408,0.0388223,-0.0514077,-0.390192,0.052263,0.0403287,1287,449,3.12805,34.2156
70,575,4.28662,-33.8917,0.0243003,-0.0403479,-0.0304591,0.0363902,-0.0524378,-0.37785,0.0515631,0.0443245,1294,449,4.28659,33.8917
77,575,4.64001,-33.317,0.0190416,-0.0458594,-0.0281487,0.0295491,-0.0563669,-0.357265,0.0504026,0.0486176,1301,449,4.64006,33.317
84,575,4.79504,-33,0,0,0,0,0,0,0,-1,1308,449,4.79501,33
91,575,6.3219,-33.4824,0,0,0,0,0,0,0,-1,1315,449,6.3219,33.4824
98,575,6.71277,-33.5865,0,0,0,0,0,0,0,-1,1322,449,6.71272,33.5866
105,575,6.47729,-32.7112,0.00965455,-0.0703974,-0.0235098,0.0160483,-0.0767911,-0.265538,0.0572976,0.0443916,1329,449,6.47729,32.7112
112,575,6.51453,-32.3075,0.00298826,-0.075652,-0.0223792,0.00891081,-0.0815746,-0.258715,0.0575836,0.0436351,1336,449,6.5145,32.3075
119,575,7.49731,-32.152,0,0,0,0,0,0,0,-1,1343,449,7.49728,32.152
126,575,6.30298,-30.405,-0.0122505,-0.0867457,-0.0169101,-0.00859167,-0.0904045,-0.213084,0.0576197,0.0467569,1350,449,6.303,30.405
133,575,6.10278,-29.9225,-0.0166433,-0.0903526,-0.0136876,-0.0141836,-0.0928123,-0.177803,0.0577307,0.0497243,1357,449,6.1028,29.9225
140,575,6.1366,-29.8587,-0.0191917,-0.0917134,-0.0101459,-0.017799,-0.0931061,-0.136413,0.0570705,0.0474124,1364,449,6.13664,29.8587
147,575,5.69617,-29.6961,-0.0206094,-0.0898701,-0.0068511,-0.0199382,-0.0905413,-0.0976566,0.0549344,0.0460959,1371,449,5.69622,29.6961
154,575,5.62256,-29.4631,-0.0210951,-0.0847693,-0.00413635,-0.0208276,-0.0850369,-0.0645993,0.0511814,0.0455387,1378,449,5.62255,29.4631
161,575,5.78735,-29.5479,0,0,0,0,0,0,0,-1,1385,449,5.78737,29.5479
168,575,7.5509,-35.3165,0,0,0,0,0,0,0,-1,1392,449,7.5509,35.3165
175,575,4.32617,1.93634,0,0,0,0,0,0,0,-1,1399,449,4.32612,-1.93634
182,575,6.3147,-2.88345,0,0,0,0,0,0,0,-1,1406,449,6.31466,2.88346
189,575,6.10449,-1.30817,0,0,0,0,0,0,0,-1,1413,449,6.10455,1.30817
196,575,5.79895,0.818359,0,0,0,0,0,0,0,-1,1420,449,5.79895,-0.81837
203,575,3.29724,-1.46378,0,0,0,0,0,0,0,-1,1427,449,3.29722,1.46377
210,575,2.32739,-7.74503,0,0,0,0,0,0,0,-1,1434,449,2.32741,7.74502
217,575,3.33618,-11.5521,0,0,0,0,0,0,0,-1,1441,449,3.3362,11.5521
224,575,5.51709,-16.3903,0,0,0,0,0,0,0,-1,1448,449,5.51713,16.3903
231,575,5.48572,-20.4595,0,0,0,0,0,0,0,-1,1455,449,5.48571,20.4595
238,575,5.33484,-22.3575,0,0,0,0,0,0,0,-1,1462,449,5.33478,22.3575
245,575,5.59741,-23.513,0,0,0,0,0,0,0,-1,1469,449,5.5974,23.513
252,575,7.18018,-31.3123,0,0,0,0,0,0,0,-1,1476,449,7.18015,31.3123
259,575,7.06873,-30.9224,0,0,0,0,0,0,0,-1,1483,449,7.06872,30.9224
266,575,7.09326,-30.4869,0,0,0,0,0,0,0,-1,1490,449,7.09331,30.4869
273,575,7.12476,-30.0517,0,0,0,0,0,0,0,-1,1497,449,7.12477,30.0517
280,575,7.07324,-29.6774,0,0,0,0,0,0,0,-1,1504,449,7.07329,29.6774
287,575,7.16467,-29.2618,0.00530417,-0.00312575,-0.000427165,0.00532576,-0.00314734,-0.0505001,0.00494555,0.027877,1511,449,7.16466,29.2618
294,575,7.2511,-28.8652,0.00487835,-0.00322933,-0.000492188,0.00490812,-0.0032591,-0.0604108,0.00474727,0.0122931,1518,449,7.25115,28.8652
301,575,7.28015,-28.4443,0.00438582,-0.00315828,-0.000487702,0.00441722,-0.00318968,-0.0642901,0.00441086,0.00989616,1525,449,7.28016,28.4443
308,575,7.29724,-28.0332,0.00387708,-0.00319218,-0.000542747,0.0039185,-0.00323361,-0.0761807,0.00413558,0.0107477,1532,449,7.29728,28.0332
315,575,7.27991,-27.6625,0.0031866,-0.00274762,-0.000636458,0.0032541,-0.00281511,-0.105651,0.00350711,0.0112181,1539,449,7.27988,27.6625
322,575,7.28015,-27.2579,0.00246063,-0.00215807,-0.000584448,0.00253344,-0.00223087,-0.123937,0.00275253,0.0106954,1546,449,7.2801,27.2579
329,575,7.28784,-26.8535,0.00179204,-0.00149227,-0.000436097,0.00184896,-0.00154919,-0.129786,0.00196447,0.011434,1553,449,7.2879,26.8535
336,575,7.29834,-26.4468,0.00119972,-0.000814316,-0.000262585,0.00123339,-0.000847988,-0.127537,0.00120853,0.0124155,1560,449,7.2983,26.4468
343,575,7.30872,-26.0187,0.00063822,-0.000120355,-6.42748e-05,0.000643628,-0.000125763,-0.0839335,0.00047657,0.012514,1567,449,7.30869,26.0187
350,575,7.28979,-25.5909,0.000218693,0.000716779,0.000273018,0.000837278,9.81937e-05,1.15515,0.000528504,0.0123437,1574,449,7.28974,25.591
357,575,7.27515,-25.1283,-0.000101664,0.00152395,0.000661528,0.00175913,-0.000336843,1.22922,0.00129966,0.0117159,1581,449,7.2752,25.1283
364,575,7.25024,-24.6865,-0.000325907,0.00222701,0.0010932,0.00263116,-0.000730054,1.21669,0.00204144,0.0112214,1588,449,7.25018,24.6865
371,575,7.26526,-24.2486,-0.000483088,0.00290378,0.0015461,0.00350341,-0.00108272,1.20082,0.00276802,0.0202176,1595,449,7.26523,24.2486
378,575,7.24548,-23.7809,-0.00060329,0.00363648,0.001976,0.0044146,-0.00138142,1.19565,0.00349574,0.0188783,1602,449,7.24547,23.7809
385,575,7.19678,-23.3097,-0.000718686,0.00433617,0.00230749,0.00523108,-0.0016136,1.20083,0.00413166,0.0116728,1609,449,7.19681,23.3097
392,575,7.17188,-22.8621,-0.00073437,0.00493461,0.00268203,0.00600238,-0.00180214,1.19191,0.00471844,0.00935557,1616,449,7.1719,22.8621
399,575,7.15039,-22.417,-0.000442704,0.00580873,0.00350824,0.00738172,-0.0020157,1.1493,0.00571283,0.00976001,1623,449,7.15039,22.417
406,575,7.125,-21.892,0.000116948,0.00821887,0.00510915,0.0106882,-0.00235234,1.12059,0.00802531,0.0115071,1630,449,7.12501,21.892
413,575,7.10486,-21.3867,0.00034332,0.00984439,0.00607908,0.012809,-0.00262125,1.11706,0.00953393,0.01477,1637,449,7.10484,21.3867
420,575,7.06348,-20.8936,0.00137553,0.0112001,0.00702926,0.0148634,-0.0022878,1.09037,0.010753,0.0145046,1644,449,7.06348,20.8936
427,575,7.01624,-20.3523,0.00309769,0.0122464,0.00846558,0.0172945,-0.00195036,1.0331,0.0122317,0.0163016,1651,449,7.01623,20.3523
434,575,6.94177,-19.8831,0.00505754,0.014149,0.0101793,0.0207514,-0.00154494,0.995394,0.014377,0.0271024,1658,449,6.94181,19.8831
441,575,6.90637,-19.4303,0,0,0,0,0,0,0,-1,1665,449,6.90635,19.4303
448,575,7.36926,-18.4676,0,0,0,0,0,0,0,-1,1672,449,7.3693,18.4676
455,575,7.67603,-16.9385,0,0,0,0,0,0,0,-1,1679,449,7.67605,16.9385
462,575,6.72778,-15.9041,0,0,0,0,0,0,0,-1,1686,449,6.72774,15.9041
469,575,6.35046,-17.6287,0,0,0,0,0,0,0,-1,1693,449,6.35042,17.6287
476,575,6.77271,-17.0621,0,0,0,0,0,0,0,-1,1700,449,6.77272,17.0621
483,575,6.93201,-16.3794,0,0,0,0,0,0,0,-1,1707,449,6.93196,16.3794
490,575,5.84216,-16.4164,0,0,0,0,0,0,0,-1,1714,449,5.84215,16.4164
497,575,0,0,0,0,0,0,0,0,0,-1,1721,449,0,0
504,575,0,0,0,0,0,0,0,0,0,-1,1728,449,0,0
511,575,0,0,0,0,0,0,0,0,0,-1,1735,449,0,0
518,575,0,0,0,0,0,0,0,0,0,-1,1742,449,0,0
525,575,0,0,0,0,0,0,0,0,0,-1,1749,449,0,0
532,575,0,0,0,0,0,0,0,0,0,-1,1756,449,0,0
539,575,0,0,0,0,0,0,0,0,0,-1,1763,449,0,0
546,575,0,0,0,0,0,0,0,0,0,-1,1770,449,0,0
553,575,0,0,0,0,0,0,0,0,0,-1,1777,449,0,0
560,575,0,0,0,0,0,0,0,0,0,-1,1784,449,0,0
567,575,0,0,0,0,0,0,0,0,0,-1,1791,449,0,0
574,575,0,0,0,0,0,0,0,0,0,-1,1798,449,0,0
581,575,0,0,0,0,0,0,0,0,0,-1,1805,449,0,0
588,575,0,0,0,0,0,0,0,0,0,-1,1812,449,0,0
595,575,0,0,0,0,0,0,0,0,0,-1,1819,449,0,0
602,575,0,0,0,0,0,0,0,0,0,-1,1826,449,0,0
609,575,0,0,0,0,0,0,0,0,0,-1,1833,449,0,0
616,575,0,0,0,0,0,0,0,0,0,-1,1840,449,0,0
623,575,0,0,0,0,0,0,0,0,0,-1,1847,449,0,0
630,575,0,0,0,0,0,0,0,0,0,-1,1854,449,0,0
637,575,0,0,0,0,0,0,0,0,0,-1,1861,449,0,0
644,575,0,0,0,0,0,0,0,0,0,-1,1868,449,0,0
651,575,0,0,0,0,0,0,0,0,0,-1,1875,449,0,0
658,575,0,0,0,0,0,0,0,0,0,-1,1882,449,0,0
665,575,0,0,0,0,0,0,0,0,0,-1,1889,449,0,0
672,575,0,0,0,0,0,0,0,0,0,-1,1896,449,0,0
679,575,0,0,0,0,0,0,0,0,0,-1,1903,449,0,0
686,575,0,0,0,0,0,0,0,0,0,-1,1910,449,0,0
693,575,0,0,0,0,0,0,0,0,0,-1,1917,449,0,0
700,575,0,0,0,0,0,0,0,0,0,-1,1924,449,0,0
707,575,0,0,0,0,0,0,0,0,0,-1,1931,449,0,0
714,575,0,0,0,0,0,0,0,0,0,-1,1938,449,0,0
721,575,0,0,0,0,0,0,0,0,0,-1,1945,449,0,0
728,575,0,0,0,0,0,0,0,0,0,-1,1952,449,0,0
735,575,0,0,0,0,0,0,0,0,0,-1,1959,449,0,0
742,575,0,0,0,0,0,0,0,0,0,-1,1966,449,0,0
749,575,0,0,0,0,0,0,0,0,0,-1,1973,449,0,0
756,575,0,0,0,0,0,0,0,0,0,-1,1980,449,0,0
763,575,0,0,0,0,0,0,0,0,0,-1,1987,449,0,0
770,575,0,0,0,0,0,0,0,0,0,-1,1994,449,0,0
777,575,0,0,0,0,0,0,0,0,0,-1,2001,449,0,0
784,575,0,0,0,0,0,0,0,0,0,-1,2008,449,0,0
791,575,0,0,0,0,0,0,0,0,0,-1,2015,449,0,0
798,575,0,0,0,0,0,0,0,0,0,-1,2022,449,0,0
805,575,0,0,0,0,0,0,0,0,0,-1,2029,449,0,0
812,575,0,0,0,0,0,0,0,0,0,-1,2036,449,0,0
-700,568,0,0,0,0,0,0,0,0,0,-1,524,456,0,0
-693,568,0,0,0,0,0,0,0,0,0,-1,531,456,0,0
-686,568,0,0,0,0,0,0,0,0,0,-1,538,456,0,0
-679,568,0,0,0,0,0,0,0,0,0,-1,545,456,0,0
-672,568,0,0,0,0,0,0,0,0,0,-1,552,456,0,0
-665,568,0,0,0,0,0,0,0,0,0,-1,559,456,0,0
-658,568,0,0,0,0,0,0,0,0,0,-1,566,456,0,0
-651,568,0,0,0,0,0,0,0,0,0,-1,573,456,0,0
-644,568,0,0,0,0,0,0,0,0,0,-1,580,456,0,0
-637,568,0,0,0,0,0,0,0,0,0,-1,587,456,0,0
-630,568,0,0,0,0,0,0,0,0,0,-1,594,456,0,0
-623,568,0,0,0,0,0,0,0,0,0,-1,601,456,0,0
-616,568,0,0,0,0,0,0,0,0,0,-1,608,456,0,0
-609,568,0,0,0,0,0,0,0,0,0,-1,615,456,0,0
-602,568,0,0,0,0,0,0,0,0,0,-1,622,456,0,0
-595,568,0,0,0,0,0,0,0,0,0,-1,629,456,0,0
-588,568,0,0,0,0,0,0,0,0,0,-1,636,456,0,0
-581,568,0,0,0,0,0,0,0,0,0,-1,643,456,0,0
-574,568,0,0,0,0,0,0,0,0,0,-1,650,456,0,0
-567,568,0,0,0,0,0,0,0,0,0,-1,657,456,0,0
-560,568,0,0,0,0,0,0,0,0,0,-1,664,456,0,0
-553,568,0,0,0,0,0,0,0,0,0,-1,671,456,0,0
-546,568,0,0,0,0,0,0,0,0,0,-1,678,456,0,0
-539,568,0,0,0,0,0,0,0,0,0,-1,685,456,0,0
-532,568,0,0,0,0,0,0,0,0,0,-1,692,456,0,0
-525,568,0,0,0,0,0,0,0,0,0,-1,699,456,0,0
-518,568,0,0,0,0,0,0,0,0,0,-1,706,456,0,0
-511,568,0,0,0,0,0,0,0,0,0,-1,713,456,0,0
-504,568,0,0,0,0,0,0,0,0,0,-1,720,456,0,0
-497,568,0,0,0,0,0,0,0,0,0,-1,727,456,0,0
-490,568,0,0,0,0,0,0,0,0,0,-1,734,456,0,0
-483,568,0,0,0,0,0,0,0,0,0,-1,741,456,0,0
-476,568,0,0,0,0,0,0,0,0,0,-1,748,456,0,0
-469,568,0,0,0,0,0,0,0,0,0,-1,755,456,0,0
-462,568,0,0,0,0,0,0,0,0,0,-1,762,456,0,0
-455,568,0,0,0,0,0,0,0,0,0,-1,769,456,0,0
-448,568,0,0,0,0,0,0,0,0,0,-1,776,456,0,0
-441,568,0,0,0,0,0,0,0,0,0,-1,783,456,0,0
-434,568,0,0,0,0,0,0,0,0,0,-1,790,456,0,0
-427,568,0,0,0,0,0,0,0,0,0,-1,797,456,0,0
-420,568,0,0,0,0,0,0,0,0,0,-1,804,456,0,0
-413,568,0,0,0,0,0,0,0,0,0,-1,811,456,0,0
-406,568,0,0,0,0,0,0,0,0,0,-1,818,456,0,0
-399,568,0,0,0,0,0,0,0,0,0,-1,825,456,0,0
-392,568,0,0,0,0,0,0,0,0,0,-1,832,456,0,0
-385,568,0,0,0,0,0,0,0,0,0,-1,839,456,0,0
-378,568,0.321777,-7.29929,0,0,0,0,0,0,0,-1,846,456,0.321806,7.29927
-371,568,1.09595,-7.46707,0,0,0,0,0,0,0,-1,853,456,1.09597,7.46707
-364,568,1.87787,-7.61115,0,0,0,0,0,0,0,-1,860,456,1.87784,7.61116
-357,568,2.14166,-7.67645,0,0,0,0,0,0,0,-1,867,456,2.14167,7.67646
-350,568,2.7467,-11.2507,0,0,0,0,0,0,0,-1,874,456,2.7467,11.2507
-343,568,2.16516,-11.3762,0,0,0,0,0,0,0,-1,881,456,2.16514,11.3762
-336,568,2.05109,-19.3333,0,0,0,0,0,0,0,-1,888,456,2.05108,19.3333
-329,568,2.16956,-19.3795,0.00721698,0.00366448,-0.00835074,0.0139783,-0.00309683,-0.680607,0.0105044,0.046667,895,456,2.16958,19.3796
-322,568,2.1828,-19.4897,0.00595753,0.00140778,-0.00754065,0.011559,-0.00419367,-0.638899,0.00942034,0.0409181,902,456,2.18279,19.4896
-315,568,2.06439,-20.0889,0.00464719,0.000172606,-0.00675929,0.00952983,-0.00471003,-0.625576,0.0083769,0.0364831,909,456,2.06438,20.0889
-308,568,1.86877,-20.9264,0.00336069,-8.33379e-05,-0.00600833,0.0078889,-0.00461155,-0.645837,0.00729935,0.0300742,916,456,1.86878,20.9264
-301,568,1.80133,-21.5134,0.00225468,1.74127e-05,-0.00526732,0.00652084,-0.00424875,-0.680766,0.00626378,0.0175675,923,456,1.80135,21.5134
-294,568,1.77509,-21.9724,0.00124551,6.31281e-05,-0.00430913,0.00500382,-0.00369518,-0.717226,0.00504128,0.0127154,930,456,1.77506,21.9724
-287,568,1.74792,-22.4585,0.000435907,0.000272499,-0.00339872,0.0037539,-0.0030455,-0.773381,0.00393273,0.0113307,937,456,1.74795,22.4585
-280,568,1.73761,-22.9546,-0.000136531,0.000787862,-0.00267611,0.00304139,-0.00239006,-0.870911,0.00314336,0.0116777,944,456,1.73761,22.9546
-273,568,1.73181,-23.4232,-0.000464445,0.000902115,-0.00233712,0.00265379,-0.00221612,-0.927615,0.00281542,0.0125582,951,456,1.73182,23.4232
-266,568,1.7038,-23.8609,-0.00059991,0.00068084,-0.0018488,0.00199703,-0.0019161,-0.952118,0.00225941,0.0119092,958,456,1.70382,23.8609
-259,568,1.66302,-24.2989,-0.000736046,0.000964058,-0.000851289,0.00131704,-0.00108902,-1.17773,0.00139122,0.0132237,965,456,1.66304,24.2988
-252,568,1.62659,-24.7499,-0.000613101,0.000597535,-0.000233719,0.000641089,-0.000656655,-1.38656,0.000749271,0.0137241,972,456,1.62656,24.7499
-245,568,1.61407,-25.1537,-0.000147638,-0.000426898,0.000192168,-4.97288e-05,-0.000524807,0.471218,0.00033453,0.0154654,979,456,1.61405,25.1537
-238,568,1.62653,-25.5738,0.00045657,-0.00153865,0.000551152,0.000598694,-0.00168078,0.252369,0.00136459,0.0138455,986,456,1.62652,25.5737
-231,568,1.60773,-25.9983,0.000945618,-0.00284566,0.00107797,0.00123068,-0.00313072,0.258527,0.00259649,0.0125629,993,456,1.6077,25.9983
-224,568,1.57306,-26.4159,0.0013953,-0.00425216,0.00168072,0.00185765,-0.00471451,0.268446,0.00391211,0.0143623,1000,456,1.57304,26.4159
-217,568,1.58325,-26.8283,0.0018355,-0.00563141,0.00227307,0.00247303,-0.00626894,0.273447,0.00520337,0.0118574,1007,456,1.58328,26.8283
-210,568,1.59766,-27.2285,0.00212874,-0.00715951,0.00285738,0.00293737,-0.00796814,0.275785,0.00651578,0.0111102,1014,456,1.59767,27.2285
-203,568,1.60699,-27.6161,0.00230462,-0.00859426,0.00352995,0.00334802,-0.00963766,0.287401,0.00778491,0.0104158,1021,456,1.60697,27.6161
-196,568,1.63794,-27.9736,0.00238627,-0.00980902,0.00406516,0.00361712,-0.0110399,0.294005,0.00881652,0.0140829,1028,456,1.63798,27.9736
-189,568,1.62512,-28.3435,0.00221166,-0.01116,0.00468341,0.00368884,-0.0126372,0.30553,0.00988653,0.0147312,1035,456,1.62514,28.3435
-182,568,1.64966,-28.7424,0.00197265,-0.0126322,0.00547533,0.00379736,-0.0144569,0.321685,0.011122,0.0155735,1042,456,1.64965,28.7424
-175,568,1.66248,-29.0849,0.00168422,-0.0137931,0.00636941,0.00396835,-0.0160772,0.344323,0.012257,0.0148361,1049,456,1.66242,29.0849
-168,568,1.65771,-29.3184,0.00121649,-0.0156421,0.00719375,0.00386885,-0.0182944,0.353239,0.0136696,0.0217684,1056,456,1.65775,29.3184
-161,568,1.64185,-29.5998,0.000563587,-0.0177174,0.00801871,0.00358238,-0.0207362,0.360057,0.01516,0.036168,1063,456,1.64184,29.5998
-154,568,1.8606,-30.1353,-4.92313e-05,-0.0197728,0.00889418,0.00336909,-0.0231911,0.366928,0.0166975,0.0446976,1070,456,1.86054,30.1353
-147,568,1.87549,-30.3426,-0.000473445,-0.021463,0.00975167,0.00335782,-0.0252943,0.374356,0.0180863,0.0473567,1077,456,1.87548,30.3426
-140,568,1.70654,-30.4837,-0.000934649,-0.0240476,0.0107217,0.00327295,-0.0282552,0.373971,0.0200172,0.0429759,1084,456,1.70656,30.4837
-133,568,1.59778,-30.6126,-0.00145648,-0.0267575,0.0118152,0.00320296,-0.031417,0.375635,0.0220898,0.0466845,1091,456,1.59773,30.6126
-126,568,1.66455,-30.8048,-0.00152606,-0.0296183,0.01266,0.00333731,-0.0344817,0.366771,0.0241771,0.0476871,1098,456,1.66454,30.8048
-119,568,1.91089,-31.0151,0,0,0,0,0,0,0,-1,1105,456,1.91084,31.0151
-112,568,1.49316,-30.6167,0,0,0,0,0,0,0,-1,1112,456,1.49321,30.6167
-105,568,2.02454,-25.038,0,0,0,0,0,0,0,-1,1119,456,2.02459,25.038
-98,568,1.58618,-14.7874,0,0,0,0,0,0,0,-1,1126,456,1.58617,14.7874
-91,568,1.11621,-11.1853,0,0,0,0,0,0,0,-1,1133,456,1.11626,11.1853
-84,568,0.461792,-9.7959,0,0,0,0,0,0,0,-1,1140,456,0.461793,9.7959
-77,568,-1.13806,-8.57822,0,0,0,0,0,0,0,-1,1147,456,-1.13807,8.57821
-70,568,-4.09766,-1.42911,0,0,0,0,0,0,0,-1,1154,456,-4.09767,1.4291
-63,568,-5.92273,-3.70752,0,0,0,0,0,0,0,-1,1161,456,-5.92272,3.70751
-56,568,-5.24158,-6.01385,0,0,0,0,0,0,0,-1,1168,456,-5.24161,6.01386
-49,568,-5.24365,-8.33557,0,0,0,0,0,0,0,-1,1175,456,-5.24371,8.33557
-42,568,-0.664795,0.521973,0,0,0,0,0,0,0,-1,1182,456,-0.664829,-0.521984
-35,568,-0.153076,-1.67731,0,0,0,0,0,0,0,-1,1189,456,-0.153068,1.67731
-28,568,1.25439,-4.48798,0,0,0,0,0,0,0,-1,1196,456,1.2544,4.48797
-21,568,2.36523,-37.232,0,0,0,0,0,0,0,-1,1203,456,2.36519,37.232
-14,568,2.9187,-36.5186,0.0909013,-0.0882889,0.0138282,0.0919622,-0.0893497,0.0765662,0.104684,0.0467732,1210,456,2.91867,36.5186
-7,568,3.55603,-35.8672,0.0848666,-0.0901189,0.00779957,0.0852136,-0.0904659,0.0444551,0.101444,0.0484138,1217,456,3.55603,35.8672
0,568,3.98303,-34.9439,0.0744138,-0.0888518,-0.00363758,0.0744948,-0.0889328,-0.0222654,0.0944776,0.049703,1224,456,3.98306,34.9439
7,568,4.22156,-33.5167,0.0613078,-0.0850116,-0.013335,0.0625132,-0.0862169,-0.0901465,0.0862321,0.0462065,1231,456,4.2215,33.5167
14,568,4.18921,-33.7574,0,0,0,0,0,0,0,-1,1238,456,4.18922,33.7574
21,568,5.62903,-34.2391,0.0400631,-0.0716283,-0.0270322,0.0462616,-0.0778268,-0.225404,0.0724109,0.0438949,1245,456,5.62903,34.2391
28,568,5.29114,-34.1356,0.0330556,-0.0645198,-0.0316669,0.0424318,-0.0738959,-0.287863,0.0679758,0.0434781,1252,456,5.29108,34.1356
35,568,4.81665,-34.2127,0.0285755,-0.0576995,-0.0349225,0.0409396,-0.0700636,-0.340272,0.0648188,0.0437208,1259,456,4.8166,34.2127
42,568,4.24255,-34.1705,0.0273521,-0.0519298,-0.0372609,0.042115,-0.0666927,-0.377229,0.0633521,0.043925,1266,456,4.24251,34.1705
49,568,3.89758,-33.9364,0.0287317,-0.0467766,-0.039131,0.0453523,-0.0633972,-0.401652,0.063074,0.0459855,1273,456,3.89764,33.9364
56,568,3.89648,-33.743,0.028597,-0.0453975,-0.0408345,0.046702,-0.0635025,-0.41733,0.0638726,0.0454904,1280,456,3.89647,33.743
63,568,4.34521,-33.6934,0.0278325,-0.0450714,-0.0415272,0.0466368,-0.0638757,-0.425196,0.0640627,0.0437996,1287,456,4.34517,33.6934
70,568,4.92078,-33.6011,0.0234347,-0.0480649,-0.0390085,0.0405972,-0.0652274,-0.41448,0.0616471,0.0441022,1294,456,4.92072,33.6011
77,568,5.45251,-33.4294,0,0,0,0,0,0,0,-1,1301,456,5.45256,33.4294
84,568,6.43542,-33.6825,0,0,0,0,0,0,0,-1,1308,456,6.43548,33.6825
91,568,6.56873,-28.2976,0,0,0,0,0,0,0,-1,1315,456,6.56868,28.2976
98,568,5.36731,-33.9019,0,0,0,0,0,0,0,-1,1322,456,5.36728,33.9019
105,568,7.19287,-32.5281,0,0,0,0,0,0,0,-1,1329,456,7.19292,32.5281
112,568,7.0614,-31.9584,-0.00120713,-0.084703,-0.0246797,0.00554214,-0.0914523,-0.266947,0.062897,0.0476427,1336,456,7.06141,31.9584
119,568,6.64233,-28.7032,-0.0100878,-0.0905901,-0.0218321,-0.00454822,-0.0961298,-0.248493,0.0626255,0.0449233,1343,456,6.64237,28.7032
126,568,6.37256,-29.1714,-0.017988,-0.0957564,-0.0179583,-0.0140413,-0.0997031,-0.216329,0.0623178,0.04731,1350,456,6.37253,29.1715
133,568,5.9718,-29.612,0,0,0,0,0,0,0,-1,1357,456,5.97182,29.612
140,568,6.56995,-28.674,0,0,0,0,0,0,0,-1,1364,456,6.57,28.674
147,568,5.57996,-27.8985,0,0,0,0,0,0,0,-1,1371,456,5.57999,27.8985
154,568,5.54968,-27.8808,0,0,0,0,0,0,0,-1,1378,456,5.54971,27.8808
161,568,5.51941,-27.8632,0,0,0,0,0,0,0,-1,1385,456,5.51943,27.8632
168,568,4.17395,-32.3794,0,0,0,0,0,0,0,-1,1392,456,4.174,32.3794
175,568,10.5151,0.747498,0,0,0,0,0,0,0,-1,1399,456,10.5152,-0.747501
182,568,6.35095,-3.63361,0,0,0,0,0,0,0,-1,1406,456,6.35093,3.63359
189,568,6.17493,-1.70911,0,0,0,0,0,0,0,-1,1413,456,6.17497,1.70911
196,568,6.04724,0.200836,0,0,0,0,0,0,0,-1,1420,456,6.04724,-0.200835
203,568,5.9281,2.08649,0,0,0,0,0,0,0,-1,1427,456,5.92812,-2.08648
210,568,1.46216,-2.50446,0,0,0,0,0,0,0,-1,1434,456,1.46219,2.50446
217,568,2.62366,-7.86703,0,0,0,0,0,0,0,-1,1441,456,2.62365,7.86704
224,568,3.43494,-12.1555,0,0,0,0,0,0,0,-1,1448,456,3.43492,12.1555
231,568,4.38245,-9.3205,0,0,0,0,0,0,0,-1,1455,456,4.38244,9.32048
238,568,5.88879,-20.7448,0,0,0,0,0,0,0,-1,1462,456,5.88876,20.7449
245,568,3.34387,-10.6774,0,0,0,0,0,0,0,-1,1469,456,3.34389,10.6774
252,568,3.56946,-9.28928,0,0,0,0,0,0,0,-1,1476,456,3.56948,9.28928
259,568,3.38843,-8.73068,0,0,0,0,0,0,0,-1,1483,456,3.38842,8.73068
266,568,3.104,-9.16876,0,0,0,0,0,0,0,-1,1490,456,3.10397,9.16876
273,568,3.77869,-13.1147,0,0,0,0,0,0,0,-1,1497,456,3.77869,13.1147
280,568,4.40002,-14.9322,0,0,0,0,0,0,0,-1,1504,456,4.4,14.9322
287,568,7.55334,-29.412,0,0,0,0,0,0,0,-1,1511,456,7.55329,29.412
294,568,7.60669,-28.7385,0.00634327,-0.00499728,-0.000834649,0.00640437,-0.00505838,-0.0730739,0.00663321,0.0425305,1518,456,7.6067,28.7385
301,568,7.63501,-28.4089,0.00569252,-0.00497366,-0.000931646,0.00577329,-0.00505442,-0.0864731,0.00625597,0.0204537,1525,456,7.63498,28.4089
308,568,7.70056,-28.0144,0.0049769,-0.00516051,-0.00115615,0.00510709,-0.0052907,-0.112129,0.00600347,0.0139163,1532,456,7.70053,28.0144
315,568,7.68237,-27.6453,0.00399955,-0.00467635,-0.0014096,0.00422282,-0.00489963,-0.157092,0.00527168,0.00851045,1539,456,7.6824,27.6453
322,568,7.68323,-27.2518,0.00305174,-0.00404637,-0.00143175,0.00332966,-0.00432428,-0.191725,0.00443143,0.00967151,1546,456,7.68324,27.2518
329,568,7.71765,-26.8473,0.00223716,-0.00327166,-0.00132103,0.00253756,-0.00357206,-0.223599,0.00354421,0.0110633,1553,456,7.71762,26.8473
336,568,7.74548,-26.4186,0.00154302,-0.00249861,-0.0011747,0.00185964,-0.00281523,-0.263277,0.00271777,0.0118905,1560,456,7.74551,26.4186
343,568,7.76367,-25.9882,0.000883239,-0.00173086,-0.00100359,0.00122409,-0.00207171,-0.327408,0.0019237,0.0117719,1567,456,7.76371,25.9881
350,568,7.7301,-25.575,0.00040071,-0.000864903,-0.000683585,0.000699426,-0.00116362,-0.411977,0.0010867,0.0104301,1574,456,7.73007,25.575
357,568,7.69934,-25.124,4.53234e-05,2.79065e-05,-0.00030401,0.00034075,-0.00026752,-0.771079,0.000352032,0.00960249,1581,456,7.69939,25.124
364,568,7.70837,-24.6857,-0.000173263,0.000792599,0.000154691,0.000816769,-0.000197433,1.4158,0.000620877,0.0118806,1588,456,7.70838,24.6857
371,568,7.724,-24.2206,-0.000292066,0.0014926,0.000646799,0.00170236,-0.000501824,1.2572,0.00133402,0.0213676,1595,456,7.724,24.2205
378,568,7.67273,-23.7507,-0.000362674,0.00219117,0.00110358,0.00260198,-0.000773478,1.21444,0.00204191,0.0185586,1602,456,7.67277,23.7507
385,568,7.63489,-23.3082,-0.000422018,0.00290376,0.00148033,0.00346721,-0.000985466,1.2071,0.00270058,0.00893049,1609,456,7.63484,23.3082
392,568,7.61865,-22.8696,-0.000395959,0.00345195,0.00186952,0.00421066,-0.00115467,1.18527,0.00326087,0.0103653,1616,456,7.61871,22.8696
399,568,7.58337,-22.4457,-0.000134685,0.00416556,0.00259939,0.00538884,-0.00135796,1.13094,0.00412049,0.0172815,1623,456,7.58343,22.4457
406,568,7.58435,-21.9212,0.000302104,0.00613952,0.00391979,0.0081079,-0.00166628,1.10542,0.00603783,0.0154658,1630,456,7.58439,21.9212
413,568,7.57031,-21.3911,0.000458263,0.00750387,0.00474961,0.00989452,-0.00193239,1.10448,0.00732593,0.0128756,1637,456,7.57026,21.3911
420,568,7.55542,-20.8851,0.00123539,0.00859993,0.0055443,0.0115734,-0.00173804,1.07853,0.0083554,0.0111575,1644,456,7.55539,20.8851
427,568,7.52515,-20.3786,0.00252802,0.00949144,0.00668982,0.0135513,-0.00153189,1.02533,0.00958575,0.0121811,1651,456,7.52516,20.3786
434,568,7.52234,-19.8537,0.0039268,0.0109856,0.00801131,0.0162105,-0.00129809,0.992883,0.0112647,0.0180115,1658,456,7.52239,19.8537
441,568,7.48755,-19.376,0.00567102,0.0122809,0.00939443,0.0189348,-0.000982852,0.954536,0.0129632,0.0282558,1665,456,7.48755,19.376
448,568,7.64539,-18.6333,0.00751413,0.0133804,0.0106787,0.0215215,-0.00062696,0.919429,0.0145612,0.0418258,1672,456,7.64535,18.6333
455,568,7.88525,-17.2702,0.00965524,0.0138121,0.011758,0.023674,-0.000206621,0.872878,0.015852,0.0483586,1679,456,7.88522,17.2702
462,568,6.63831,-18.1737,0,0,0,0,0,0,0,-1,1686,456,6.63835,18.1737
469,568,7.01257,-17.4629,0.0147691,0.0128705,0.0130701,0.0269244,0.000715302,0.749146,0.017716,0.0474244,1693,456,7.0126,17.4629
476,568,7.28796,-16.8849,0.0175404,0.0104202,0.0134706,0.0279134,4.72479e-05,0.656209,0.0185932,0.0494977,1700,456,7.288,16.8849
483,568,7.43298,-16.2253,0,0,0,0,0,0,0,-1,1707,456,7.43302,16.2252
490,568,7.57642,-15.549,0,0,0,0,0,0,0,-1,1714,456,7.57643,15.549
497,568,5.72998,-10.7149,0,0,0,0,0,0,0,-1,1721,456,5.72993,10.7149
504,568,0,0,0,0,0,0,0,0,0,-1,1728,456,0,0
511,568,0,0,0,0,0,0,0,0,0,-1,1735,456,0,0
518,568,0,0,0,0,0,0,0,0,0,-1,1742,456,0,0
525,568,0,0,0,0,0,0,0,0,0,-1,1749,456,0,0
532,568,0,0,0,0,0,0,0,0,0,-1,1756,456,0,0
539,568,0,0,0,0,0,0,0,0,0,-1,1763,456,0,0
546,568,0,0,0,0,0,0,0,0,0,-1,1770,456,0,0
553,568,0,0,0,0,0,0,0,0,0,-1,1777,456,0,0
560,568,0,0,0,0,0,0,0,0,0,-1,1784,456,0,0
567,568,0,0,0,0,0,0,0,0,0,-1,1791,456,0,0
574,568,0,0,0,0,0,0,0,0,0,-1,1798,456,0,0
581,568,0,0,0,0,0,0,0,0,0,-1,1805,456,0,0
588,568,0,0,0,0,0,0,0,0,0,-1,1812,456,0,0
595,568,0,0,0,0,0,0,0,0,0,-1,1819,456,0,0
602,568,0,0,0,0,0,0,0,0,0,-1,1826,456,0,0
609,568,0,0,0,0,0,0,0,0,0,-1,1833,456,0,0
616,568,0,0,0,0,0,0,0,0,0,-1,1840,456,0,0
623,568,0,0,0,0,0,0,0,0,0,-1,1847,456,0,0
630,568,0,0,0,0,0,0,0,0,0,-1,1854,456,0,0
637,568,0,0,0,0,0,0,0,0,0,-1,1861,456,0,0
644,568,0,0,0,0,0,0,0,0,0,-1,1868,456,0,0
651,568,0,0,0,0,0,0,0,0,0,-1,1875,456,0,0
658,568,0,0,0,0,0,0,0,0,0,-1,1882,456,0,0
665,568,0,0,0,0,0,0,0,0,0,-1,1889,456,0,0
672,568,0,0,0,0,0,0,0,0,0,-1,1896,456,0,0
679,568,0,0,0,0,0,0,0,0,0,-1,1903,456,0,0
686,568,0,0,0,0,0,0,0,0,0,-1,1910,456,0,0
693,568,0,0,0,0,0,0,0,0,0,-1,1917,456,0,0
700,568,0,0,0,0,0,0,0,0,0,-1,1924,456,0,0
707,568,0,0,0,0,0,0,0,0,0,-1,1931,456,0,0
714,568,0,0,0,0,0,0,0,0,0,-1,1938,456,0,0
721,568,0,0,0,0,0,0,0,0,0,-1,1945,456,0,0
728,568,0,0,0,0,0,0,0,0,0,-1,1952,456,0,0
735,568,0,0,0,0,0,0,0,0,0,-1,1959,456,0,0
742,568,0,0,0,0,0,0,0,0,0,-1,1966,456,0,0
749,568,0,0,0,0,0,0,0,0,0,-1,1973,456,0,0
756,568,0,0,0,0,0,0,0,0,0,-1,1980,456,0,0
763,568,0,0,0,0,0,0,0,0,0,-1,1987,456,0,0
770,568,0,0,0,0,0,0,0,0,0,-1,1994,456,0,0
777,568,0,0,0,0,0,0,0,0,0,-1,2001,456,0,0
784,568,0,0,0,0,0,0,0,0,0,-1,2008,456,0,0
791,568,0,0,0,0,0,0,0,0,0,-1,2015,456,0,0
798,568,0,0,0,0,0,0,0,0,0,-1,2022,456,0,0
805,568,0,0,0,0,0,0,0,0,0,-1,2029,456,0,0
812,568,0,0,0,0,0,0,0,0,0,-1,2036,456,0,0
-700,561,0,0,0,0,0,0,0,0,0,-1,524,463,0,0
-693,561,0,0,0,0,0,0,0,0,0,-1,531,463,0,0
-686,561,0,0,0,0,0,0,0,0,0,-1,538,463,0,0
-679,561,0,0,0,0,0,0,0,0,0,-1,545,463,0,0
-672,561,0,0,0,0,0,0,0,0,0,-1,552,463,0,0
-665,561,0,0,0,0,0,0,0,0,0,-1,559,463,0,0
-658,561,0,0,0,0,0,0,0,0,0,-1,566,463,0,0
-651,561,0,0,0,0,0,0,0,0,0,-1,573,463,0,0
-644,561,0,0,0,0,0,0,0,0,0,-1,580,463,0,0
-637,561,0,0,0,0,0,0,0,0,0,-1,587,463,0,0
-630,561,0,0,0,0,0,0,0,0,0,-1,594,463,0,0
-623,561,0,0,0,0,0,0,0,0,0,-1,601,463,0,0
-616,561,0,0,0,0,0,0,0,0,0,-1,608,463,0,0
-609,561,0,0,0,0,0,0,0,0,0,-1,615,463,0,0
-602,561,0,0,0,0,0,0,0,0,0,-1,622,463,0,0
-595,561,0,0,0,0,0,0,0,0,0,-1,629,463,0,0
-588,561,0,0,0,0,0,0,0,0,0,-1,636,463,0,0
-581,561,0,0,0,0,0,0,0,0,0,-1,643,463,0,0
-574,561,0,0,0,0,0,0,0,0,0,-1,650,463,0,0
-567,561,0,0,0,0,0,0,0,0,0,-1,657,463,0,0
-560,561,0,0,0,0,0,0,0,0,0,-1,664,463,0,0
-553,561,0,0,0,0,0,0,0,0,0,-1,671,463,0,0
-546,561,0,0,0,0,0,0,0,0,0,-1,678,463,0,0
-539,561,0,0,0,0,0,0,0,0,0,-1,685,463,0,0
-532,561,0,0,0,0,0,0,0,0,0,-1,692,463,0,0
-525,561,0,0,0,0,0,0,0,0,0,-1,699,463,0,0
-518,561,0,0,0,0,0,0,0,0,0,-1,706,463,0,0
-511,561,0,0,0,0,0,0,0,0,0,-1,713,463,0,0
-504,561,0,0,0,0,0,0,0,0,0,-1,720,463,0,0
-497,561,0,0,0,0,0,0,0,0,0,-1,727,463,0,0
-490,561,0,0,0,0,0,0,0,0,0,-1,734,463,0,0
-483,561,0,0,0,0,0,0,0,0,0,-1,741,463,0,0
-476,561,0,0,0,0,0,0,0,0,0,-1,748,463,0,0
-469,561,0,0,0,0,0,0,0,0,0,-1,755,463,0,0
-462,561,0,0,0,0,0,0,0,0,0,-1,762,463,0,0
-455,561,0,0,0,0,0,0,0,0,0,-1,769,463,0,0
-448,561,0,0,0,0,0,0,0,0,0,-1,776,463,0,0
-441,561,0,0,0,0,0,0,0,0,0,-1,783,463,0,0
-434,561,0,0,0,0,0,0,0,0,0,-1,790,463,0,0
-427,561,0,0,0,0,0,0,0,0,0,-1,797,463,0,0
-420,561,0,0,0,0,0,0,0,0,0,-1,804,463,0,0
-413,561,0,0,0,0,0,0,0,0,0,-1,811,463,0,0
-406,561,0,0,0,0,0,0,0,0,0,-1,818,463,0,0
-399,561,0,0,0,0,0,0,0,0,0,-1,825,463,0,0
-392,561,4.92407,-2.54578,0,0,0,0,0,0,0,-1,832,463,4.92408,2.54576
-385,561,5.55634,-1.02338,0,0,0,0,0,0,0,-1,839,463,5.55634,1.02338
-378,561,0.160522,-4.51785,0,0,0,0,0,0,0,-1,846,463,0.160542,4.51785
-371,561,1.06299,-7.56818,0,0,0,0,0,0,0,-1,853,463,1.06297,7.56817
-364,561,1.45264,-7.57684,0,0,0,0,0,0,0,-1,860,463,1.45264,7.57684
-357,561,0.948242,-12.2803,0,0,0,0,0,0,0,-1,867,463,0.948262,12.2803
-350,561,1.33124,-11.9406,0,0,0,0,0,0,0,-1,874,463,1.33127,11.9406
-343,561,1.13214,-14.1837,0,0,0,0,0,0,0,-1,881,463,1.13217,14.1837
-336,561,1.55316,-18.853,0,0,0,0,0,0,0,-1,888,463,1.55317,18.853
-329,561,1.38287,-19.7574,0.00410776,0.00635849,-0.00655964,0.0118886,-0.00142235,-0.87035,0.0084399,0.0423129,895,463,1.38286,19.7574
-322,561,1.32751,-19.9924,0.00343832,0.00401527,-0.00579358,0.00952755,-0.00207396,-0.810274,0.00714408,0.0345099,902,463,1.3275,19.9924
-315,561,1.48932,-20.3032,0.00271181,0.00250745,-0.00511354,0.00772419,-0.00250494,-0.775409,0.00615671,0.0220206,909,463,1.48934,20.3032
-308,561,1.44,-20.8846,0.00195443,0.00177185,-0.00448933,0.00635339,-0.00262712,-0.775232,0.0053316,0.0190648,916,463,1.44001,20.8846
-301,561,1.36243,-21.5165,0.00131378,0.00128868,-0.00388752,0.00518877,-0.00258631,-0.783784,0.004572,0.0144441,923,463,1.36241,21.5165
-294,561,1.32465,-21.9921,0.000754563,0.000832777,-0.00312677,0.00392069,-0.00233335,-0.791651,0.00364933,0.0119959,930,463,1.32466,21.9921
-287,561,1.30371,-22.4651,0.000329058,0.000583129,-0.00239006,0.00284953,-0.00193734,-0.811949,0.00278038,0.0106648,937,463,1.3037,22.4651
-280,561,1.27203,-22.9482,5.17849e-05,0.000566808,-0.00179995,0.00212758,-0.00150898,-0.856449,0.00210967,0.0130607,944,463,1.27206,22.9482
-273,561,1.24432,-23.3964,-8.20472e-05,0.000334119,-0.00148348,0.00162404,-0.00137197,-0.855077,0.00173179,0.0146936,951,463,1.2443,23.3964
-266,561,1.24219,-23.8357,-6.18216e-05,-0.000230093,-0.00100585,0.000863401,-0.00115532,-0.743672,0.00116956,0.00948677,958,463,1.2422,23.8357
-259,561,1.22864,-24.2892,1.6428e-05,-0.000462224,-0.000132864,5.08349e-05,-0.000496631,-0.253397,0.000349268,0.0109119,965,463,1.22863,24.2892
-252,561,1.22192,-24.7312,0.000273923,-0.00131778,0.000514801,0.000425911,-0.00146977,0.287081,0.00114845,0.0160871,972,463,1.22191,24.7312
-245,561,1.20911,-25.142,0.000755312,-0.0026053,0.00104962,0.0010562,-0.00290619,0.279179,0.00236934,0.0184448,979,463,1.2091,25.142
-238,561,1.22412,-25.5743,0.00136782,-0.00407204,0.00155283,0.00177987,-0.00448409,0.259377,0.00372714,0.0139652,986,463,1.22413,25.5743
-231,561,1.18744,-26.0056,0.0018811,-0.00567525,0.00218519,0.00246752,-0.00626167,0.262183,0.00519607,0.0122746,993,463,1.18742,26.0056
-224,561,1.16815,-26.4186,0.00235946,-0.00738881,0.00291723,0.00316577,-0.00819512,0.269663,0.00677006,0.0128524,1000,463,1.16814,26.4186
-217,561,1.19635,-26.8118,0.0028206,-0.00905559,0.00365257,0.00385403,-0.010089,0.275727,0.00831399,0.0125878,1007,463,1.19635,26.8118
-210,561,1.21313,-27.2014,0.00307096,-0.0108519,0.00436684,0.00432724,-0.0121082,0.280122,0.0098371,0.0128155,1014,463,1.21316,27.2014
-203,561,1.21265,-27.5741,0.00316171,-0.0124531,0.00517565,0.00472142,-0.0140128,0.292701,0.0112509,0.0138967,1021,463,1.21266,27.5741
-196,561,1.19739,-27.9203,0.0031673,-0.013793,0.00581475,0.00496938,-0.015595,0.300529,0.0123899,0.0152121,1028,463,1.19735,27.9203
-189,561,1.20703,-28.2627,0.00280831,-0.0153583,0.00661369,0.00496099,-0.017511,0.314673,0.013632,0.018665,1035,463,1.20707,28.2627
-182,561,1.26111,-28.6257,0.00231888,-0.0170168,0.00760083,0.004949,-0.019647,0.333133,0.0150219,0.0220172,1042,463,1.26115,28.6257
-175,561,1.18921,-28.9344,0.0017455,-0.0181063,0.00869506,0.00501534,-0.0213761,0.359697,0.0161837,0.0350953,1049,463,1.18926,28.9344
-168,561,1.23132,-29.2883,0.0010024,-0.0201481,0.00965954,0.00474995,-0.0238957,0.370087,0.0177272,0.0481331,1056,463,1.23138,29.2883
-161,561,1.21204,-29.5337,1.15464e-05,-0.0224043,0.0106015,0.00423118,-0.0266239,0.3788,0.0193148,0.0476885,1063,463,1.212,29.5337
-154,561,1.17676,-29.8721,-0.00101699,-0.0247658,0.0116365,0.00373415,-0.0295169,0.387639,0.0210334,0.0482399,1070,463,1.17677,29.8721
-147,561,1.17847,-30.1884,0,0,0,0,0,0,0,-1,1077,463,1.17842,30.1884
-140,561,1.44373,-30.2233,0,0,0,0,0,0,0,-1,1084,463,1.44372,30.2233
-133,561,1.19983,-30.3273,0,0,0,0,0,0,0,-1,1091,463,1.19977,30.3273
-126,561,1.31909,-30.6702,0,0,0,0,0,0,0,-1,1098,463,1.31909,30.6702
-119,561,2.55225,-28.7428,0,0,0,0,0,0,0,-1,1105,463,2.55223,28.7428
-112,561,0.157715,-27.1758,0,0,0,0,0,0,0,-1,1112,463,0.157754,27.1758
-105,561,0.530518,-13.5379,0,0,0,0,0,0,0,-1,1119,463,0.530477,13.5379
-98,561,1.5387,-7.54352,0,0,0,0,0,0,0,-1,1126,463,1.53871,7.54351
-91,561,1.29553,-6.57968,0,0,0,0,0,0,0,-1,1133,463,1.29549,6.5797
-84,561,1.23364,-5.84555,0,0,0,0,0,0,0,-1,1140,463,1.23363,5.84556
-77,561,-2.36023,1.00204,0,0,0,0,0,0,0,-1,1147,463,-2.3602,-1.00205
-70,561,-3.90015,-1.41541,0,0,0,0,0,0,0,-1,1154,463,-3.90009,1.4154
-63,561,-6.95691,-4.02756,0,0,0,0,0,0,0,-1,1161,463,-6.95696,4.02756
-56,561,-5.37988,-6.66855,0,0,0,0,0,0,0,-1,1168,463,-5.37988,6.66854
-49,561,-5.7439,-9.11029,0,0,0,0,0,0,0,-1,1175,463,-5.74387,9.1103
-42,561,-1.72644,-5.63065,0,0,0,0,0,0,0,-1,1182,463,-1.72648,5.63064
-35,561,-1.65674,-4.87994,0,0,0,0,0,0,0,-1,1189,463,-1.6567,4.87993
-28,561,-1.91418,-3.86896,0,0,0,0,0,0,0,-1,1196,463,-1.91414,3.86895
-21,561,2.87134,-37.0259,0,0,0,0,0,0,0,-1,1203,463,2.87129,37.0259
-14,561,3.44263,-36.2698,0,0,0,0,0,0,0,-1,1210,463,3.44257,36.2698
-7,561,3.9519,-35.5271,0,0,0,0,0,0,0,-1,1217,463,3.95191,35.5271
0,561,4.34167,-33.9272,0,0,0,0,0,0,0,-1,1224,463,4.34172,33.9272
7,561,4.2998,-32.4258,0.0867786,-0.101602,-0.0184104,0.088561,-0.103385,-0.096513,0.11093,0.0458997,1231,463,4.29985,32.4259
14,561,4.20544,-30.9229,0.0713253,-0.093198,-0.0285377,0.0761347,-0.0980074,-0.166961,0.100805,0.0426759,1238,463,4.20547,30.9229
21,561,6.18164,-33.6913,0.0589079,-0.0840873,-0.0369703,0.0679008,-0.0930801,-0.238611,0.0933205,0.0452307,1245,463,6.18168,33.6913
28,561,5.87305,-33.5919,0.0490238,-0.0749813,-0.0432342,0.062609,-0.0885665,-0.304455,0.0877091,0.0450435,1252,463,5.87299,33.5919
35,561,5.72937,-33.8894,0.0417053,-0.0663638,-0.0475783,0.0596668,-0.0843253,-0.360973,0.0835392,0.0418981,1259,463,5.72933,33.8894
42,561,5.1698,-33.8561,0,0,0,0,0,0,0,-1,1266,463,5.16984,33.8561
49,561,4.62329,-33.6554,0.036955,-0.0527344,-0.0524662,0.0611302,-0.0769096,-0.43178,0.0798707,0.0453449,1273,463,4.62335,33.6554
56,561,4.47742,-33.6032,0.0332903,-0.0523185,-0.0536817,0.059144,-0.0781722,-0.448829,0.0795329,0.0440414,1280,463,4.47747,33.6032
63,561,4.29346,-33.4623,0.028803,-0.0529525,-0.0537859,0.055482,-0.0796315,-0.46046,0.078422,0.0448315,1287,463,4.29345,33.4623
70,561,4.15747,-33.3793,0,0,0,0,0,0,0,-1,1294,463,4.15753,33.3793
77,561,4.96399,-28.2014,0,0,0,0,0,0,0,-1,1301,463,4.964,28.2014
84,561,5.401,-28.2038,0,0,0,0,0,0,0,-1,1308,463,5.40104,28.2038
91,561,5.77246,-28.5748,0,0,0,0,0,0,0,-1,1315,463,5.77242,28.5748
98,561,5.83777,-29.0742,0,0,0,0,0,0,0,-1,1322,463,5.83779,29.0742
105,561,6.67432,-27.1189,0,0,0,0,0,0,0,-1,1329,463,6.67428,27.1189
112,561,7.30884,-27.1884,0,0,0,0,0,0,0,-1,1336,463,7.30888,27.1884
119,561,6.95154,-27.6106,-0.0162656,-0.0974256,-0.0239237,-0.0097385,-0.103953,-0.266348,0.0662945,0.047562,1343,463,6.95158,27.6106
126,561,6.57397,-28.0396,-0.0247986,-0.102028,-0.0190471,-0.0203565,-0.10647,-0.22912,0.0652617,0.0465953,1350,463,6.57404,28.0396
133,561,6.17798,-28.4804,0,0,0,0,0,0,0,-1,1357,463,6.17794,28.4804
140,561,6.70593,-28.2403,-0.0327923,-0.10396,-0.00759157,-0.0319915,-0.104761,-0.105096,0.061992,0.0499473,1364,463,6.70592,28.2403
147,561,5.23035,-27.0304,0,0,0,0,0,0,0,-1,1371,463,5.2304,27.0304
154,561,5.57861,-26.8101,0,0,0,0,0,0,0,-1,1378,463,5.57866,26.8101
161,561,6.89709,-29.2862,0,0,0,0,0,0,0,-1,1385,463,6.89709,29.2862
168,561,3.78113,-33.7118,0,0,0,0,0,0,0,-1,1392,463,3.78116,33.7118
175,561,10.4185,0.276398,0,0,0,0,0,0,0,-1,1399,463,10.4185,-0.276394
182,561,6.45703,-4.02127,0,0,0,0,0,0,0,-1,1406,463,6.45704,4.02127
189,561,6.50854,-2.08685,0,0,0,0,0,0,0,-1,1413,463,6.50851,2.08686
196,561,6.44775,-0.27182,0,0,0,0,0,0,0,-1,1420,463,6.44773,0.271814
203,561,6.18591,1.1301,0,0,0,0,0,0,0,-1,1427,463,6.18592,-1.13009
210,561,5.68713,2.68427,0,0,0,0,0,0,0,-1,1434,463,5.6871,-2.68425
217,561,3.61743,-7.33582,0,0,0,0,0,0,0,-1,1441,463,3.61738,7.33581
224,561,4.27466,-8.59171,0,0,0,0,0,0,0,-1,1448,463,4.27466,8.59171
231,561,4.93188,-9.8476,0,0,0,0,0,0,0,-1,1455,463,4.93193,9.84761
238,561,2.18018,-5.18359,0,0,0,0,0,0,0,-1,1462,463,2.18023,5.18359
245,561,3.07568,-3.50238,0,0,0,0,0,0,0,-1,1469,463,3.0757,3.50238
252,561,3.47412,-3.71109,0,0,0,0,0,0,0,-1,1476,463,3.47413,3.71109
259,561,3.42212,-3.2334,0,0,0,0,0,0,0,-1,1483,463,3.42214,3.2334
266,561,4.44373,-5.90027,0,0,0,0,0,0,0,-1,1490,463,4.44372,5.90026
273,561,2.59485,-3.65268,0,0,0,0,0,0,0,-1,1497,463,2.5948,3.65268
280,561,3.10767,-6.38235,0,0,0,0,0,0,0,-1,1504,463,3.10766,6.38235
287,561,4.91809,-14.429,0,0,0,0,0,0,0,-1,1511,463,4.9181,14.429
294,561,7.90283,-28.529,0,0,0,0,0,0,0,-1,1518,463,7.90281,28.529
301,561,7.90332,-28.2025,0.00720123,-0.00745548,-0.00128056,0.00731227,-0.00756652,-0.086497,0.00859069,0.0450557,1525,463,7.90333,28.2025
308,561,8.03271,-27.8839,0.00617879,-0.00761629,-0.00172165,0.0063904,-0.00782791,-0.122303,0.00822292,0.0327331,1532,463,8.03275,27.8838
315,561,8.09485,-27.5947,0.00476982,-0.00684894,-0.00218494,0.00516712,-0.00724623,-0.17987,0.00720028,0.0193509,1539,463,8.09486,27.5947
322,561,8.10388,-27.259,0.0035213,-0.00602958,-0.00229603,0.0040446,-0.00655287,-0.224084,0.00617531,0.0184356,1546,463,8.10388,27.259
329,561,8.13794,-26.8313,0.00252872,-0.0050417,-0.00223298,0.00313828,-0.00565127,-0.266488,0.00514332,0.0147819,1553,463,8.13797,26.8313
336,561,8.18176,-26.3926,0.00171251,-0.00411868,-0.00212871,0.00240692,-0.00481308,-0.315325,0.00424493,0.0122035,1560,463,8.18171,26.3926
343,561,8.17773,-25.9732,0.000942559,-0.00324737,-0.00199666,0.00174165,-0.00404646,-0.380689,0.00342894,0.0109568,1567,463,8.1777,25.9732
350,561,8.14514,-25.5451,0.00039738,-0.0023491,-0.00170076,0.00121009,-0.00316181,-0.445771,0.00260661,0.00997162,1574,463,8.14514,25.5451
357,561,8.13367,-25.0964,9.28596e-06,-0.00137977,-0.00133358,0.000818354,-0.00218883,-0.545324,0.00179529,0.00979344,1581,463,8.13373,25.0964
364,561,8.146,-24.6848,-0.000196978,-0.000564561,-0.000848242,0.000487156,-0.00124869,-0.678711,0.00103384,0.00925666,1588,463,8.14595,24.6848
371,561,8.14026,-24.2204,-0.000260416,0.000174359,-0.000309257,0.000334989,-0.000421046,-1.09175,0.000437438,0.0155244,1595,463,8.14024,24.2204
378,561,8.08948,-23.7655,-0.000261459,0.000885438,0.000194293,0.000917459,-0.00029348,1.40746,0.000729419,0.011683,1602,463,8.08944,23.7655
385,561,8.08618,-23.2918,-0.000244828,0.00166671,0.000646157,0.00186463,-0.000442755,1.27356,0.00141397,0.00994602,1609,463,8.08621,23.2918
392,561,8.07361,-22.8153,-0.000161871,0.00223148,0.00107706,0.0026448,-0.000575196,1.20438,0.00198294,0.0138897,1616,463,8.07357,22.8153
399,561,8.05835,-22.3611,8.04554e-05,0.00285468,0.00173075,0.00368558,-0.000750441,1.12321,0.00274165,0.020054,1623,463,8.05829,22.3611
406,561,8.06433,-21.8783,0.000419023,0.00445939,0.00280391,0.00589508,-0.00101667,1.09757,0.00430911,0.0193368,1630,463,8.06438,21.8783
413,561,8.0498,-21.3816,0.000537961,0.00564638,0.00353325,0.00745197,-0.00126762,1.09837,0.00543998,0.0173749,1637,463,8.0498,21.3816
420,561,8.00891,-20.8765,0.0011213,0.00656762,0.00422344,0.0088697,-0.00118079,1.07174,0.00634347,0.0135002,1644,463,8.00886,20.8765
427,561,8.00391,-20.3551,0.00207611,0.00736694,0.00515006,0.0105113,-0.00106823,1.02266,0.00738938,0.0105912,1651,463,8.00391,20.3551
434,561,8.01904,-19.8497,0.00306807,0.00856239,0.00618478,0.0125827,-0.000952225,0.9944,0.00872321,0.0126382,1658,463,8.01908,19.8497
441,561,8.00708,-19.3652,0.00427811,0.00959457,0.00727296,0.0146799,-0.000807187,0.960604,0.0100664,0.0164114,1665,463,8.00707,19.3652
448,561,7.94312,-18.8173,0.00553532,0.0105497,0.00829261,0.0167058,-0.000620837,0.932199,0.0113498,0.0226625,1672,463,7.94313,18.8173
455,561,7.96155,-18.12,0.00701129,0.0110019,0.00914497,0.0183667,-0.000353508,0.892809,0.012364,0.0404857,1679,463,7.9616,18.12
462,561,7.75757,-17.7244,0.00871678,0.01109,0.00977828,0.0197534,5.33946e-05,0.84578,0.0131512,0.038895,1686,463,7.7576,17.7244
469,561,7.68945,-17.324,0.0104886,0.0101502,0.0102188,0.0205396,9.92334e-05,0.777119,0.0136601,0.0269995,1693,463,7.68946,17.324
476,561,7.75842,-16.7303,0.0122941,0.00823617,0.0107621,0.0212168,-0.000686502,0.692227,0.0143788,0.0423798,1700,463,7.75836,16.7303
483,561,7.8125,-16.1024,0,0,0,0,0,0,0,-1,1707,463,7.81252,16.1024
490,561,7.92944,-13.2884,0,0,0,0,0,0,0,-1,1714,463,7.92949,13.2884
497,561,9.09949,-8.67551,0,0,0,0,0,0,0,-1,1721,463,9.09948,8.67552
504,561,10.0769,-0.811401,0,0,0,0,0,0,0,-1,1728,463,10.0769,0.8114
511,561,0,0,0,0,0,0,0,0,0,-1,1735,463,0,0
518,561,0,0,0,0,0,0,0,0,0,-1,1742,463,0,0
525,561,0,0,0,0,0,0,0,0,0,-1,1749,463,0,0
532,561,0,0,0,0,0,0,0,0,0,-1,1756,463,0,0
539,561,0,0,0,0,0,0,0,0,0,-1,1763,463,0,0
546,561,0,0,0,0,0,0,0,0,0,-1,1770,463,0,0
553,561,0,0,0,0,0,0,0,0,0,-1,1777,463,0,0
560,561,0,0,0,0,0,0,0,0,0,-1,1784,463,0,0
567,561,0,0,0,0,0,0,0,0,0,-1,1791,463,0,0
574,561,0,0,0,0,0,0,0,0,0,-1,1798,463,0,0
581,561,0,0,0,0,0,0,0,0,0,-1,1805,463,0,0
588,561,0,0,0,0,0,0,0,0,0,-1,1812,463,0,0
595,561,0,0,0,0,0,0,0,0,0,-1,1819,463,0,0
602,561,0,0,0,0,0,0,0,0,0,-1,1826,463,0,0
609,561,0,0,0,0,0,0,0,0,0,-1,1833,463,0,0
616,561,0,0,0,0,0,0,0,0,0,-1,1840,463,0,0
623,561,0,0,0,0,0,0,0,0,0,-1,1847,463,0,0
630,561,0,0,0,0,0,0,0,0,0,-1,1854,463,0,0
637,561,0,0,0,0,0,0,0,0,0,-1,1861,463,0,0
644,561,0,0,0,0,0,0,0,0,0,-1,1868,463,0,0
651,561,0,0,0,0,0,0,0,0,0,-1,1875,463,0,0
658,561,0,0,0,0,0,0,0,0,0,-1,1882,463,0,0
665,561,0,0,0,0,0,0,0,0,0,-1,1889,463,0,0
672,561,0,0,0,0,0,0,0,0,0,-1,1896,463,0,0
679,561,0,0,0,0,0,0,0,0,0,-1,1903,463,0,0
686,561,0,0,0,0,0,0,0,0,0,-1,1910,463,0,0
693,561,0,0,0,0,0,0,0,0,0,-1,1917,463,0,0
700,561,0,0,0,0,0,0,0,0,0,-1,1924,463,0,0
707,561,0,0,0,0,0,0,0,0,0,-1,1931,463,0,0
714,561,0,0,0,0,0,0,0,0,0,-1,1938,463,0,0
721,561,0,0,0,0,0,0,0,0,0,-1,1945,463,0,0
728,561,0,0,0,0,0,0,0,0,0,-1,1952,463,0,0
735,561,0,0,0,0,0,0,0,0,0,-1,1959,463,0,0
742,561,0,0,0,0,0,0,0,0,0,-1,1966,463,0,0
749,561,0,0,0,0,0,0,0,0,0,-1,1973,463,0,0
756,561,0,0,0,0,0,0,0,0,0,-1,1980,463,0,0
763,561,0,0,0,0,0,0,0,0,0,-1,1987,463,0,0
770,561,0,0,0,0,0,0,0,0,0,-1,1994,463,0,0
777,561,0,0,0,0,0,0,0,0,0,-1,2001,463,0,0
784,561,0,0,0,0,0,0,0,0,0,-1,2008,463,0,0
791,561,0,0,0,0,0,0,0,0,0,-1,2015,463,0,0
798,561,0,0,0,0,0,0,0,0,0,-1,2022,463,0,0
805,561,0,0,0,0,0,0,0,0,0,-1,2029,463,0,0
812,561,0,0,0,0,0,0,0,0,0,-1,2036,463,0,0
-700,554,0,0,0,0,0,0,0,0,0,-1,524,470,0,0
-693,554,0,0,0,0,0,0,0,0,0,-1,531,470,0,0
-686,554,0,0,0,0,0,0,0,0,0,-1,538,470,0,0
-679,554,0,0,0,0,0,0,0,0,0,-1,545,470,0,0
-672,554,0,0,0,0,0,0,0,0,0,-1,552,470,0,0
-665,554,0,0,0,0,0,0,0,0,0,-1,559,470,0,0
-658,554,0,0,0,0,0,0,0,0,0,-1,566,470,0,0
-651,554,0,0,0,0,0,0,0,0,0,-1,573,470,0,0
-644,554,0,0,0,0,0,0,0,0,0,-1,580,470,0,0
-637,554,0,0,0,0,0,0,0,0,0,-1,587,470,0,0
-630,554,0,0,0,0,0,0,0,0,0,-1,594,470,0,0
-623,554,0,0,0,0,0,0,0,0,0,-1,601,470,0,0
-616,554,0,0,0,0,0,0,0,0,0,-1,608,470,0,0
-609,554,0,0,0,0,0,0,0,0,0,-1,615,470,0,0
-602,554,0,0,0,0,0,0,0,0,0,-1,622,470,0,0
-595,554,0,0,0,0,0,0,0,0,0,-1,629,470,0,0
-588,554,0,0,0,0,0,0,0,0,0,-1,636,470,0,0
-581,554,0,0,0,0,0,0,0,0,0,-1,643,470,0,0
-574,554,0,0,0,0,0,0,0,0,0,-1,650,470,0,0
-567,554,0,0,0,0,0,0,0,0,0,-1,657,470,0,0
-560,554,0,0,0,0,0,0,0,0,0,-1,664,470,0,0
-553,554,0,0,0,0,0,0,0,0,0,-1,671,470,0,0
-546,554,0,0,0,0,0,0,0,0,0,-1,678,470,0,0
-539,554,0,0,0,0,0,0,0,0,0,-1,685,470,0,0
-532,554,0,0,0,0,0,0,0,0,0,-1,692,470,0,0
-525,554,0,0,0,0,0,0,0,0,0,-1,699,470,0,0
-518,554,0,0,0,0,0,0,0,0,0,-1,706,470,0,0
-511,554,0,0,0,0,0,0,0,0,0,-1,713,470,0,0
-504,554,0,0,0,0,0,0,0,0,0,-1,720,470,0,0
-497,554,0,0,0,0,0,0,0,0,0,-1,727,470,0,0
-490,554,0,0,0,0,0,0,0,0,0,-1,734,470,0,0
-483,554,0,0,0,0,0,0,0,0,0,-1,741,470,0,0
-476,554,0,0,0,0,0,0,0,0,0,-1,748,470,0,0
-469,554,0,0,0,0,0,0,0,0,0,-1,755,470,0,0
-462,554,0,0,0,0,0,0,0,0,0,-1,762,470,0,0
-455,554,0,0,0,0,0,0,0,0,0,-1,769,470,0,0
-448,554,0,0,0,0,0,0,0,0,0,-1,776,470,0,0
-441,554,0,0,0,0,0,0,0,0,0,-1,783,470,0,0
-434,554,0,0,0,0,0,0,0,0,0,-1,790,470,0,0
-427,554,0,0,0,0,0,0,0,0,0,-1,797,470,0,0
-420,554,0,0,0,0,0,0,0,0,0,-1,804,470,0,0
-413,554,0,0,0,0,0,0,0,0,0,-1,811,470,0,0
-406,554,0,0,0,0,0,0,0,0,0,-1,818,470,0,0
-399,554,-1.32275,-3.95142,0,0,0,0,0,0,0,-1,825,470,-1.32275,3.95141
-392,554,-1.35632,-3.7406,0,0,0,0,0,0,0,-1,832,470,-1.35632,3.7406
-385,554,-0.849243,-4.14447,0,0,0,0,0,0,0,-1,839,470,-0.849262,4.14446
-378,554,-0.982666,-4.55084,0,0,0,0,0,0,0,-1,846,470,-0.982671,4.55084
-371,554,-1.74542,-4.63467,0,0,0,0,0,0,0,-1,853,470,-1.74541,4.63468
-364,554,1.04883,-7.68756,0,0,0,0,0,0,0,-1,860,470,1.0488,7.68757
-357,554,1.06714,-11.5403,0,0,0,0,0,0,0,-1,867,470,1.06715,11.5403
-350,554,0.835327,-15.9311,0,0,0,0,0,0,0,-1,874,470,0.8353,15.9311
-343,554,1.16132,-18.5919,0,0,0,0,0,0,0,-1,881,470,1.16132,18.5919
-336,554,1.07965,-18.9662,0.00258466,0.00976092,-0.00611753,0.013265,-0.000919374,-1.05063,0.00916514,0.0453303,888,470,1.07964,18.9662
-329,554,0.993286,-19.5471,0.0022753,0.00726501,-0.00529913,0.0106272,-0.0010869,-1.00541,0.00747349,0.0211959,895,470,0.993304,19.5471
-322,554,0.932739,-20.0555,0.00192546,0.00505224,-0.00453475,0.00828553,-0.00130783,-0.951397,0.00600728,0.0129139,902,470,0.932745,20.0554
-315,554,0.935303,-20.5249,0.00153345,0.00353848,-0.00388393,0.00654719,-0.00147526,-0.911701,0.00493067,0.0123361,909,470,0.935299,20.5249
-308,554,0.903381,-21.0143,0.0010976,0.00262448,-0.0033071,0.00525512,-0.00153304,-0.898835,0.00411084,0.014,916,470,0.903402,21.0144
-301,554,0.907959,-21.5279,0.000748991,0.00184585,-0.00276224,0.00411358,-0.00151873,-0.883397,0.00336488,0.0149107,923,470,0.907938,21.5279
-294,554,0.8703,-21.9962,0.000503212,0.00114232,-0.00212154,0.00296824,-0.00132271,-0.860148,0.00253738,0.0131949,930,470,0.870308,21.9962
-287,554,0.842834,-22.4706,0.000366365,0.000634272,-0.00150232,0.0020086,-0.00100796,-0.829863,0.00177326,0.0131897,937,470,0.842834,22.4706
-280,554,0.837585,-22.9215,0.000321869,0.000208844,-0.000999939,0.00126689,-0.000736178,-0.75717,0.00116992,0.0124158,944,470,0.837584,22.9215
-273,554,0.796204,-23.3752,0.000339474,-0.000300395,-0.000659491,0.000752537,-0.000713459,-0.55956,0.000846493,0.0145408,951,470,0.796181,23.3752
-266,554,0.772949,-23.8207,0.000493152,-0.00115345,-0.000153966,0.000507425,-0.00116773,-0.0924375,0.000991877,0.0121296,958,470,0.772955,23.8207
-259,554,0.767639,-24.2257,0.000760782,-0.0018738,0.000627315,0.000902524,-0.00201555,0.22222,0.00172512,0.0128988,965,470,0.767633,24.2257
-252,554,0.763794,-24.6572,0.00113622,-0.0032436,0.00132402,0.00150536,-0.00361274,0.271897,0.00303729,0.0161421,972,470,0.763792,24.6572
-245,554,0.75415,-25.1067,0.00163186,-0.00483521,0.0019986,0.00219966,-0.00540301,0.276806,0.00451741,0.0173994,979,470,0.754167,25.1067
-238,554,0.781311,-25.5639,0.00225059,-0.00669331,0.00268227,0.00299333,-0.00743604,0.270136,0.00620083,0.0124167,986,470,0.781291,25.5639
-231,554,0.759583,-25.9962,0.00279331,-0.00865212,0.00346679,0.00376149,-0.0096203,0.272334,0.00796899,0.0110992,993,470,0.759561,25.9962
-224,554,0.765015,-26.3917,0.00331373,-0.0107604,0.00437926,0.0045651,-0.0120118,0.278333,0.00988731,0.0115824,1000,470,0.76499,26.3917
-217,554,0.790894,-26.7791,0.0038148,-0.0128263,0.00531547,0.00536773,-0.0143792,0.284244,0.01179,0.0112525,1007,470,0.790921,26.7791
-210,554,0.817139,-27.1683,0.00403076,-0.0150086,0.00620886,0.00587656,-0.0168544,0.288965,0.0136244,0.014767,1014,470,0.817146,27.1683
-203,554,0.792603,-27.5172,0.00402423,-0.0168742,0.00719296,0.00626063,-0.0191106,0.30144,0.0152615,0.0243454,1021,470,0.792578,27.5172
-196,554,0.699463,-27.7459,0.00395271,-0.0184369,0.00796216,0.00649543,-0.0209796,0.309114,0.0165812,0.0311523,1028,470,0.699458,27.7459
-189,554,0.866089,-28.0032,0.0034044,-0.0202591,0.00894783,0.00640687,-0.0232616,0.323746,0.0180269,0.0378469,1035,470,0.8661,28.0032
-182,554,0.824341,-28.4758,0,0,0,0,0,0,0,-1,1042,470,0.824317,28.4758
-175,554,0.689331,-28.7648,0,0,0,0,0,0,0,-1,1049,470,0.689359,28.7648
-168,554,0.809448,-29.189,0,0,0,0,0,0,0,-1,1056,470,0.809497,29.189
-161,554,0.713501,-29.2998,-0.00099239,-0.0281067,0.0136975,0.00472268,-0.0338218,0.395274,0.0242757,0.0463349,1063,470,0.713456,29.2998
-154,554,0.561768,-29.6638,-0.00265637,-0.0308007,0.0148988,0.00376535,-0.0372224,0.406962,0.0261605,0.0469782,1070,470,0.561766,29.6638
-147,554,0.52771,-30.076,0,0,0,0,0,0,0,-1,1077,470,0.527765,30.076
-140,554,3.14563,-26.981,0,0,0,0,0,0,0,-1,1084,470,3.14569,26.981
-133,554,2.33813,-27.5244,0,0,0,0,0,0,0,-1,1091,470,2.3381,27.5244
-126,554,2.70093,-28.5442,0,0,0,0,0,0,0,-1,1098,470,2.70092,28.5441
-119,554,-0.547607,-26.993,0,0,0,0,0,0,0,-1,1105,470,-0.547614,26.993
-112,554,1.03162,-24.5784,0,0,0,0,0,0,0,-1,1112,470,1.03156,24.5784
-105,554,0.608765,-21.0475,0,0,0,0,0,0,0,-1,1119,470,0.608728,21.0475
-98,554,1.51929,-7.3624,0,0,0,0,0,0,0,-1,1126,470,1.51928,7.36241
-91,554,1.41089,-6.5864,0,0,0,0,0,0,0,-1,1133,470,1.41093,6.58638
-84,554,1.62305,-5.87186,0,0,0,0,0,0,0,-1,1140,470,1.62299,5.87186
-77,554,-2.56958,1.33258,0,0,0,0,0,0,0,-1,1147,470,-2.56959,-1.33257
-70,554,-3.68164,-1.18332,0,0,0,0,0,0,0,-1,1154,470,-3.68158,1.18331
-63,554,-4.86853,-3.88708,0,0,0,0,0,0,0,-1,1161,470,-4.86853,3.88708
-56,554,-5.69958,-6.45422,0,0,0,0,0,0,0,-1,1168,470,-5.69955,6.45422
-49,554,-6.23645,-8.8569,0,0,0,0,0,0,0,-1,1175,470,-6.23643,8.85689
-42,554,-6.62524,-11.5382,0,0,0,0,0,0,0,-1,1182,470,-6.62522,11.5382
-35,554,-2.40173,-4.59482,0,0,0,0,0,0,0,-1,1189,470,-2.40169,4.59481
-28,554,-0.760132,-1.65555,0,0,0,0,0,0,0,-1,1196,470,-0.760095,1.65556
-21,554,-6.11462,-31.9121,0,0,0,0,0,0,0,-1,1203,470,-6.11458,31.9122
-14,554,3.97449,-36.0193,0,0,0,0,0,0,0,-1,1210,470,3.97454,36.0192
-7,554,18.2686,-40.8158,0,0,0,0,0,0,0,-1,1217,470,18.2685,40.8158
0,554,4.72876,-32.9534,0,0,0,0,0,0,0,-1,1224,470,4.72881,32.9534
7,554,4.38269,-31.0912,0.124198,-0.12165,-0.028006,0.127348,-0.1248,-0.112004,0.14558,0.0475862,1231,470,4.38272,31.0911
14,554,4.27246,-29.6291,0.104777,-0.110697,-0.0411194,0.112357,-0.118277,-0.1823,0.133172,0.0452239,1238,470,4.2725,29.6291
21,554,6.6792,-33.0855,0.0886433,-0.0992595,-0.0519717,0.10206,-0.112676,-0.252639,0.124029,0.0438219,1245,470,6.6792,33.0855
28,554,6.47949,-33.0791,0,0,0,0,0,0,0,-1,1252,470,6.47944,33.0791
35,554,6.68115,-33.6069,0.0632181,-0.0773485,-0.0653311,0.0888926,-0.103023,-0.374449,0.110903,0.0420067,1259,470,6.68116,33.6069
42,554,5.88586,-33.4633,0,0,0,0,0,0,0,-1,1266,470,5.88589,33.4633
49,554,5.42639,-33.4813,0,0,0,0,0,0,0,-1,1273,470,5.42645,33.4813
56,554,5.22815,-33.4242,0,0,0,0,0,0,0,-1,1280,470,5.22814,33.4242
63,554,4.95776,-33.1867,0.0279498,-0.0642793,-0.0694972,0.0652404,-0.10157,-0.492479,0.0970663,0.0426354,1287,470,4.95775,33.1867
70,554,5.04077,-33.2322,0,0,0,0,0,0,0,-1,1294,470,5.04073,33.2322
77,554,5.33447,-33.1246,0,0,0,0,0,0,0,-1,1301,470,5.33448,33.1246
84,554,4.9845,-28.3798,0,0,0,0,0,0,0,-1,1308,470,4.9845,28.3798
91,554,5.19543,-28.9017,0,0,0,0,0,0,0,-1,1315,470,5.19538,28.9017
98,554,7.62769,-25.6188,0,0,0,0,0,0,0,-1,1322,470,7.62763,25.6188
105,554,7.52039,-26.0379,-0.0103999,-0.0946701,-0.0339132,0.00155261,-0.106623,-0.338851,0.0716049,0.0486263,1329,470,7.52037,26.0379
112,554,7.36145,-26.4553,-0.0157752,-0.0967252,-0.0305973,-0.00551141,-0.106989,-0.323651,0.0695616,0.0441917,1336,470,7.36149,26.4553
119,554,7.24634,-26.6946,-0.0240629,-0.100769,-0.0268899,-0.0155756,-0.109256,-0.305737,0.0682407,0.0417051,1343,470,7.24631,26.6946
126,554,7.01807,-27.0423,-0.0327599,-0.103832,-0.0207193,-0.0271608,-0.109431,-0.26393,0.0657966,0.0437636,1350,470,7.01812,27.0423
133,554,6.69824,-27.4641,-0.0377991,-0.104753,-0.0135631,-0.0351559,-0.107396,-0.192468,0.0632253,0.0440855,1357,470,6.69823,27.4641
140,554,6.50146,-27.577,-0.0405062,-0.102391,-0.00595719,-0.0399379,-0.102959,-0.0950988,0.0599395,0.0474242,1364,470,6.50147,27.577
147,554,6.35803,-27.7072,0,0,0,0,0,0,0,-1,1371,470,6.35807,27.7073
154,554,6.06506,-28.0315,-0.0395533,-0.0834758,0.00684632,-0.0385109,-0.0845182,0.151099,0.0488606,0.0479968,1378,470,6.06502,28.0315
161,554,5.92542,-28.8889,-0.0372291,-0.0649005,0.0115519,-0.0330406,-0.069089,0.347843,0.0399012,0.0448914,1385,470,5.92536,28.8889
168,554,5.86401,-29.7572,0,0,0,0,0,0,0,-1,1392,470,5.86405,29.7572
175,554,10.663,0.286957,0,0,0,0,0,0,0,-1,1399,470,10.663,-0.286966
182,554,6.71106,-4.50217,0,0,0,0,0,0,0,-1,1406,470,6.71107,4.50215
189,554,6.90479,-2.50348,0,0,0,0,0,0,0,-1,1413,470,6.90477,2.50348
196,554,6.96216,-0.740906,0,0,0,0,0,0,0,-1,1420,470,6.96214,0.740912
203,554,6.43518,0.414154,0,0,0,0,0,0,0,-1,1427,470,6.43523,-0.414141
210,554,6.21167,1.96707,0,0,0,0,0,0,0,-1,1434,470,6.21165,-1.96706
217,554,5.64551,3.4989,0,0,0,0,0,0,0,-1,1441,470,5.64555,-3.49891
224,554,4.85144,-8.85172,0,0,0,0,0,0,0,-1,1448,470,4.85146,8.85173
231,554,3.25073,-5.29642,0,0,0,0,0,0,0,-1,1455,470,3.25078,5.29642
238,554,4.28625,-3.25253,0,0,0,0,0,0,0,-1,1462,470,4.28622,3.25252
245,554,4.0752,-2.90033,0,0,0,0,0,0,0,-1,1469,470,4.07515,2.90032
252,554,3.52112,-0.934998,0,0,0,0,0,0,0,-1,1476,470,3.52113,0.934996
259,554,3.96448,-2.16425,0,0,0,0,0,0,0,-1,1483,470,3.96446,2.16424
266,554,3.0592,-2.71716,0,0,0,0,0,0,0,-1,1490,470,3.05923,2.71718
273,554,2.58521,-3.06876,0,0,0,0,0,0,0,-1,1497,470,2.58524,3.06874
280,554,2.83301,-0.991699,0,0,0,0,0,0,0,-1,1504,470,2.83303,0.991704
287,554,3.54126,-4.12277,0,0,0,0,0,0,0,-1,1511,470,3.54123,4.12277
294,554,3.62036,-8.50146,0,0,0,0,0,0,0,-1,1518,470,3.62031,8.50145
301,554,8.11108,-27.7811,0,0,0,0,0,0,0,-1,1525,470,8.11104,27.7811
308,554,8.3606,-27.7532,0,0,0,0,0,0,0,-1,1532,470,8.3606,27.7532
315,554,8.51965,-27.5369,0,0,0,0,0,0,0,-1,1539,470,8.51964,27.5369
322,554,8.52246,-27.2714,0,0,0,0,0,0,0,-1,1546,470,8.52241,27.2714
329,554,8.53235,-26.5459,0.00238741,-0.00702258,-0.00344662,0.00351475,-0.00814992,-0.316118,0.00690956,0.0439922,1553,470,8.53238,26.5459
336,554,8.54919,-26.3423,0.00148162,-0.0058457,-0.00333228,0.00277039,-0.00713446,-0.369033,0.00590069,0.0267994,1560,470,8.54921,26.3423
343,554,8.54749,-25.9682,0.00064482,-0.00479131,-0.00318683,0.00211528,-0.00626177,-0.432309,0.00503012,0.015026,1567,470,8.54751,25.9682
350,554,8.57739,-25.5169,9.2505e-05,-0.00381394,-0.00286468,0.00160648,-0.00532792,-0.486185,0.00419135,0.0105796,1574,470,8.57738,25.5169
357,554,8.58557,-25.0877,-0.000268934,-0.00273209,-0.0024628,0.00125306,-0.00425409,-0.553545,0.0033332,0.0109359,1581,470,8.58561,25.0877
364,554,8.57275,-24.6871,-0.000416133,-0.00183445,-0.00191586,0.0009176,-0.00316819,-0.608141,0.00247535,0.00919892,1588,470,8.5728,24.6871
371,554,8.56482,-24.2356,-0.000384459,-0.00102778,-0.00130337,0.000636359,-0.0020486,-0.66442,0.00162006,0.00899906,1595,470,8.56481,24.2356
378,554,8.56177,-23.746,-0.000284219,-0.000244193,-0.000715152,0.000451226,-0.000979638,-0.799386,0.000844678,0.0106545,1602,470,8.56179,23.746
385,554,8.56458,-23.2741,-0.000172719,0.0006468,-0.000153667,0.000674667,-0.000200585,-1.3914,0.00052946,0.0103326,1609,470,8.56456,23.2741
392,554,8.56909,-22.8049,-2.51758e-05,0.00125875,0.000337845,0.00134222,-0.000108648,1.32858,0.000933138,0.0137302,1616,470,8.56912,22.8049
399,554,8.52588,-22.3111,0.000209945,0.00183553,0.000936924,0.00226308,-0.000217609,1.14268,0.00158624,0.0182561,1623,470,8.52591,22.3111
406,554,8.50037,-21.8319,0.000468649,0.00310643,0.00179102,0.00401177,-0.000436692,1.10277,0.00283133,0.0176456,1630,470,8.50038,21.8319
413,554,8.52417,-21.3482,0.00057821,0.00416113,0.00245275,0.00540699,-0.00066765,1.10081,0.00384657,0.0159749,1637,470,8.52415,21.3483
420,554,8.50098,-20.8634,0.00101355,0.00495034,0.00307533,0.00663328,-0.000669383,1.07008,0.00466136,0.0159814,1644,470,8.50103,20.8634
427,554,8.4917,-20.3645,0.00169068,0.00568691,0.00382958,0.0080083,-0.000630712,1.02585,0.00556104,0.0114158,1651,470,8.49171,20.3645
434,554,8.48926,-19.8689,0.00237589,0.00664989,0.00464492,0.00962582,-0.000600036,1.001,0.00662629,0.00964235,1658,470,8.4893,19.8689
441,554,8.48816,-19.3814,0.00320306,0.00746586,0.00551419,0.0112462,-0.000577327,0.969819,0.00769716,0.0113428,1665,470,8.48815,19.3814
448,554,8.44849,-18.8305,0.00404547,0.00827527,0.00633858,0.0128425,-0.000521724,0.946418,0.00874075,0.0172677,1672,470,8.44853,18.8305
455,554,8.38403,-18.3215,0.00504865,0.00869525,0.00702999,0.0141345,-0.000390642,0.912283,0.0095559,0.0176822,1679,470,8.38403,18.3215
462,554,8.30164,-17.8188,0.0062064,0.00874931,0.00753927,0.0151236,-0.000167879,0.868934,0.0101388,0.0188547,1686,470,8.30168,17.8188
469,554,8.24634,-17.2938,0.00738031,0.00791665,0.00794965,0.0156027,-0.000305686,0.802259,0.0105051,0.0239926,1693,470,8.24633,17.2938
476,554,8.33008,-16.6064,0.00844875,0.00635574,0.00854307,0.0160092,-0.00120468,0.724453,0.0110962,0.0421075,1700,470,8.33011,16.6064
483,554,8.43347,-15.933,0,0,0,0,0,0,0,-1,1707,470,8.43347,15.9331
490,554,8.76025,-12.0439,0,0,0,0,0,0,0,-1,1714,470,8.76021,12.0438
497,554,10.9613,1.60983,0,0,0,0,0,0,0,-1,1721,470,10.9613,-1.60982
504,554,2.13257,-3.81628,0,0,0,0,0,0,0,-1,1728,470,2.1326,3.8163
511,554,1.31396,-4.02713,0,0,0,0,0,0,0,-1,1735,470,1.31398,4.02712
518,554,5.04236,-5.9472,0,0,0,0,0,0,0,-1,1742,470,5.04231,5.94721
525,554,0,0,0,0,0,0,0,0,0,-1,1749,470,0,0
532,554,0,0,0,0,0,0,0,0,0,-1,1756,470,0,0
539,554,0,0,0,0,0,0,0,0,0,-1,1763,470,0,0
546,554,0,0,0,0,0,0,0,0,0,-1,1770,470,0,0
553,554,0,0,0,0,0,0,0,0,0,-1,1777,470,0,0
560,554,0,0,0,0,0,0,0,0,0,-1,1784,470,0,0
567,554,0,0,0,0,0,0,0,0,0,-1,1791,470,0,0
574,554,0,0,0,0,0,0,0,0,0,-1,1798,470,0,0
581,554,0,0,0,0,0,0,0,0,0,-1,1805,470,0,0
588,554,0,0,0,0,0,0,0,0,0,-1,1812,470,0,0
595,554,0,0,0,0,0,0,0,0,0,-1,1819,470,0,0
602,554,0,0,0,0,0,0,0,0,0,-1,1826,470,0,0
609,554,0,0,0,0,0,0,0,0,0,-1,1833,470,0,0
616,554,0,0,0,0,0,0,0,0,0,-1,1840,470,0,0
623,554,0,0,0,0,0,0,0,0,0,-1,1847,470,0,0
630,554,0,0,0,0,0,0,0,0,0,-1,1854,470,0,0
637,554,0,0,0,0,0,0,0,0,0,-1,1861,470,0,0
644,554,0,0,0,0,0,0,0,0,0,-1,1868,470,0,0
651,554,0,0,0,0,0,0,0,0,0,-1,1875,470,0,0
658,554,0,0,0,0,0,0,0,0,0,-1,1882,470,0,0
665,554,0,0,0,0,0,0,0,0,0,-1,1889,470,0,0
672,554,0,0,0,0,0,0,0,0,0,-1,1896,470,0,0
679,554,0,0,0,0,0,0,0,0,0,-1,1903,470,0,0
686,554,0,0,0,0,0,0,0,0,0,-1,1910,470,0,0
693,554,0,0,0,0,0,0,0,0,0,-1,1917,470,0,0
700,554,0,0,0,0,0,0,0,0,0,-1,1924,470,0,0
707,554,0,0,0,0,0,0,0,0,0,-1,1931,470,0,0
714,554,0,0,0,0,0,0,0,0,0,-1,1938,470,0,0
721,554,0,0,0,0,0,0,0,0,0,-1,1945,470,0,0
728,554,0,0,0,0,0,0,0,0,0,-1,1952,470,0,0
735,554,0,0,0,0,0,0,0,0,0,-1,1959,470,0,0
742,554,0,0,0,0,0,0,0,0,0,-1,1966,470,0,0
749,554,0,0,0,0,0,0,0,0,0,-1,1973,470,0,0
756,554,0,0,0,0,0,0,0,0,0,-1,1980,470,0,0
763,554,0,0,0,0,0,0,0,0,0,-1,1987,470,0,0
770,554,0,0,0,0,0,0,0,0,0,-1,1994,470,0,0
777,554,0,0,0,0,0,0,0,0,0,-1,2001,470,0,0
784,554,0,0,0,0,0,0,0,0,0,-1,2008,470,0,0
791,554,0,0,0,0,0,0,0,0,0,-1,2015,470,0,0
798,554,0,0,0,0,0,0,0,0,0,-1,2022,470,0,0
805,554,0,0,0,0,0,0,0,0,0,-1,2029,470,0,0
812,554,0,0,0,0,0,0,0,0,0,-1,2036,470,0,0
-700,547,0,0,0,0,0,0,0,0,0,-1,524,477,0,0
-693,547,0,0,0,0,0,0,0,0,0,-1,531,477,0,0
-686,547,0,0,0,0,0,0,0,0,0,-1,538,477,0,0
-679,547,0,0,0,0,0,0,0,0,0,-1,545,477,0,0
-672,547,0,0,0,0,0,0,0,0,0,-1,552,477,0,0
-665,547,0,0,0,0,0,0,0,0,0,-1,559,477,0,0
-658,547,0,0,0,0,0,0,0,0,0,-1,566,477,0,0
-651,547,0,0,0,0,0,0,0,0,0,-1,573,477,0,0
-644,547,0,0,0,0,0,0,0,0,0,-1,580,477,0,0
-637,547,0,0,0,0,0,0,0,0,0,-1,587,477,0,0
-630,547,0,0,0,0,0,0,0,0,0,-1,594,477,0,0
-623,547,0,0,0,0,0,0,0,0,0,-1,601,477,0,0
-616,547,0,0,0,0,0,0,0,0,0,-1,608,477,0,0
-609,547,0,0,0,0,0,0,0,0,0,-1,615,477,0,0
-602,547,0,0,0,0,0,0,0,0,0,-1,622,477,0,0
-595,547,0,0,0,0,0,0,0,0,0,-1,629,477,0,0
-588,547,0,0,0,0,0,0,0,0,0,-1,636,477,0,0
-581,547,0,0,0,0,0,0,0,0,0,-1,643,477,0,0
-574,547,0,0,0,0,0,0,0,0,0,-1,650,477,0,0
-567,547,0,0,0,0,0,0,0,0,0,-1,657,477,0,0
-560,547,0,0,0,0,0,0,0,0,0,-1,664,477,0,0
-553,547,0,0,0,0,0,0,0,0,0,-1,671,477,0,0
-546,547,0,0,0,0,0,0,0,0,0,-1,678,477,0,0
-539,547,0,0,0,0,0,0,0,0,0,-1,685,477,0,0
-532,547,0,0,0,0,0,0,0,0,0,-1,692,477,0,0
-525,547,0,0,0,0,0,0,0,0,0,-1,699,477,0,0
-518,547,0,0,0,0,0,0,0,0,0,-1,706,477,0,0
-511,547,0,0,0,0,0,0,0,0,0,-1,713,477,0,0
-504,547,0,0,0,0,0,0,0,0,0,-1,720,477,0,0
-497,547,0,0,0,0,0,0,0,0,0,-1,727,477,0,0
-490,547,0,0,0,0,0,0,0,0,0,-1,734,477,0,0
-483,547,0,0,0,0,0,0,0,0,0,-1,741,477,0,0
-476,547,0,0,0,0,0,0,0,0,0,-1,748,477,0,0
-469,547,0,0,0,0,0,0,0,0,0,-1,755,477,0,0
-462,547,0,0,0,0,0,0,0,0,0,-1,762,477,0,0
-455,547,0,0,0,0,0,0,0,0,0,-1,769,477,0,0
-448,547,0,0,0,0,0,0,0,0,0,-1,776,477,0,0
-441,547,0,0,0,0,0,0,0,0,0,-1,783,477,0,0
-434,547,0,0,0,0,0,0,0,0,0,-1,790,477,0,0
-427,547,0,0,0,0,0,0,0,0,0,-1,797,477,0,0
-420,547,0,0,0,0,0,0,0,0,0,-1,804,477,0,0
-413,547,0,0,0,0,0,0,0,0,0,-1,811,477,0,0
-406,547,0.144592,-11.0292,0,0,0,0,0,0,0,-1,818,477,0.144583,11.0292
-399,547,0.775513,-10.0294,0,0,0,0,0,0,0,-1,825,477,0.775482,10.0295
-392,547,-1.52271,-4.41675,0,0,0,0,0,0,0,-1,832,477,-1.52273,4.41674
-385,547,-1.73743,-4.6431,0,0,0,0,0,0,0,-1,839,477,-1.73743,4.64308
-378,547,-2.41339,-4.60071,0,0,0,0,0,0,0,-1,846,477,-2.41337,4.60071
-371,547,1.64569,-11.1445,0,0,0,0,0,0,0,-1,853,477,1.64569,11.1445
-364,547,0.271729,-4.58582,0,0,0,0,0,0,0,-1,860,477,0.271753,4.5858
-357,547,0.575989,-15.8035,0,0,0,0,0,0,0,-1,867,477,0.575992,15.8035
-350,547,0.672119,-17.302,0,0,0,0,0,0,0,-1,874,477,0.672117,17.302
-343,547,0.653809,-18.1656,0.00188429,0.0117048,-0.00638112,0.0148462,-0.00125712,-1.11333,0.010342,0.0479108,881,477,0.6538,18.1656
-336,547,0.577332,-19.0102,0.00137508,0.00925974,-0.00518044,0.0118273,-0.0011925,-1.11065,0.00831094,0.0199245,888,477,0.577308,19.0102
-329,547,0.508911,-19.5498,0.00122501,0.00710318,-0.00434065,0.00940618,-0.00107799,-1.083,0.00665927,0.0108411,895,477,0.508925,19.5498
-322,547,0.48175,-20.0517,0.00104907,0.00510261,-0.00356642,0.00717794,-0.00102625,-1.04379,0.0051615,0.0114349,902,477,0.481779,20.0517
-315,547,0.458923,-20.5625,0.000852305,0.00370212,-0.00291316,0.00552019,-0.000965761,-1.01285,0.0040407,0.0108179,909,477,0.458923,20.5625
-308,547,0.43927,-21.0424,0.000618545,0.00276295,-0.00234465,0.00426893,-0.000887429,-0.999851,0.00318326,0.0122186,916,477,0.439276,21.0424
-301,547,0.436035,-21.5299,0.00045458,0.00185406,-0.00181222,0.00309694,-0.000788303,-0.969641,0.00237148,0.0121452,923,477,0.436033,21.5299
-294,547,0.405334,-21.9886,0.0003987,0.00102246,-0.00122635,0.00197597,-0.000554809,-0.909916,0.00153602,0.0107475,930,477,0.405328,21.9886
-287,547,0.378723,-22.4352,0.000449014,0.000340699,-0.000649699,0.00104681,-0.000257096,-0.743815,0.000797506,0.0126048,937,477,0.378743,22.4352
-280,547,0.398254,-22.9085,0.000568399,-0.000385369,-0.000173947,0.000599133,-0.000416103,-0.174881,0.000589313,0.013859,944,477,0.398228,22.9085
-273,547,0.371826,-23.3664,0.000696728,-0.00110868,0.000228866,0.000725289,-0.00113724,0.124151,0.00108406,0.0123918,951,477,0.371833,23.3664
-266,547,0.331604,-23.8035,0.000963884,-0.00220137,0.000802542,0.00115574,-0.00239323,0.234654,0.0020901,0.0119372,958,477,0.331612,23.8035
-259,547,0.314941,-24.207,0.00140624,-0.00337379,0.0015263,0.00185203,-0.00381958,0.284165,0.00333954,0.0115105,965,477,0.314924,24.207
-252,547,0.334045,-24.6503,0.00190396,-0.00526908,0.00228266,0.00256875,-0.00593388,0.283397,0.00503552,0.0113255,972,477,0.334029,24.6503
-245,547,0.348022,-25.1051,0.00244209,-0.00718919,0.00310061,0.00335394,-0.00810104,0.286025,0.0068002,0.0119911,979,477,0.348036,25.1051
-238,547,0.348816,-25.5385,0.00310241,-0.00948135,0.00397815,0.00425455,-0.0106335,0.281904,0.0088547,0.00863949,986,477,0.348815,25.5385
-231,547,0.339539,-25.966,0.00372035,-0.0118607,0.00493134,0.00514993,-0.0132902,0.282163,0.0109868,0.0086027,993,477,0.339509,25.966
-224,547,0.349487,-26.345,0.00432769,-0.014465,0.00605488,0.00610958,-0.0162468,0.28621,0.0133425,0.0120684,1000,477,0.3495,26.345
-217,547,0.374573,-26.7309,0.00492049,-0.017062,0.00722806,0.00708418,-0.0192257,0.290857,0.0157199,0.0189735,1007,477,0.374576,26.7309
-210,547,0.393555,-26.9855,0.0051269,-0.0197909,0.00834822,0.00766523,-0.0223292,0.295175,0.0179939,0.0326727,1014,477,0.393539,26.9855
-203,547,0.467957,-26.921,0.00500351,-0.0220653,0.00956239,0.00804075,-0.0251025,0.307546,0.0199626,0.0445435,1021,477,0.467942,26.921
-196,547,0.145752,-27.5031,0,0,0,0,0,0,0,-1,1028,477,0.145775,27.5032
-189,547,0.569946,-27.7323,0,0,0,0,0,0,0,-1,1035,477,0.569956,27.7323
-182,547,-0.0454102,-23.1846,0,0,0,0,0,0,0,-1,1042,477,-0.0454543,23.1846
-175,547,-0.350098,-12.3584,0,0,0,0,0,0,0,-1,1049,477,-0.350098,12.3584
-168,547,1.12463,-8.66785,0,0,0,0,0,0,0,-1,1056,477,1.12461,8.66786
-161,547,0.132568,-29.0455,0,0,0,0,0,0,0,-1,1063,477,0.132546,29.0455
-154,547,-0.311035,-29.4901,0,0,0,0,0,0,0,-1,1070,477,-0.31106,29.4901
-147,547,3.69434,-26.413,0,0,0,0,0,0,0,-1,1077,477,3.69437,26.413
-140,547,1.55676,-22.5229,0,0,0,0,0,0,0,-1,1084,477,1.5568,22.5229
-133,547,2.31665,-17.9421,0,0,0,0,0,0,0,-1,1091,477,2.31667,17.9421
-126,547,1.7063,-26.5276,0,0,0,0,0,0,0,-1,1098,477,1.70634,26.5276
-119,547,0.967651,-24.9351,0,0,0,0,0,0,0,-1,1105,477,0.967657,24.9351
-112,547,1.15674,-22.2276,0,0,0,0,0,0,0,-1,1112,477,1.15677,22.2276
-105,547,0.966797,-20.5777,0,0,0,0,0,0,0,-1,1119,477,0.966804,20.5777
-98,547,0.70166,-18.9755,0,0,0,0,0,0,0,-1,1126,477,0.701713,18.9755
-91,547,1.37805,-7.12024,0,0,0,0,0,0,0,-1,1133,477,1.37804,7.12025
-84,547,1.94202,-6.66241,0,0,0,0,0,0,0,-1,1140,477,1.94201,6.66241
-77,547,-2.28357,1.8588,0,0,0,0,0,0,0,-1,1147,477,-2.28356,-1.85879
-70,547,-3.70178,-0.874908,0,0,0,0,0,0,0,-1,1154,477,-3.70182,0.874918
-63,547,-5.12012,-3.60861,0,0,0,0,0,0,0,-1,1161,477,-5.12009,3.60862
-56,547,-6.01917,-6.2399,0,0,0,0,0,0,0,-1,1168,477,-6.01921,6.23991
-49,547,-6.729,-8.60349,0,0,0,0,0,0,0,-1,1175,477,-6.72899,8.60348
-42,547,-2.41736,-5.53012,0,0,0,0,0,0,0,-1,1182,477,-2.41734,5.53011
-35,547,-2.96838,-4.45734,0,0,0,0,0,0,0,-1,1189,477,-2.96839,4.45734
-28,547,-0.869141,-1.29901,0,0,0,0,0,0,0,-1,1196,477,-0.869135,1.29901
-21,547,-7.68262,-30.8089,0,0,0,0,0,0,0,-1,1203,477,-7.68256,30.8089
-14,547,19.6815,-41.2642,0,0,0,0,0,0,0,-1,1210,477,19.6816,41.2641
-7,547,19.052,-40.5492,0,0,0,0,0,0,0,-1,1217,477,19.052,40.5492
0,547,18.3995,-39.9279,0,0,0,0,0,0,0,-1,1224,477,18.3996,39.9279
7,547,4.70825,-29.7843,0,0,0,0,0,0,0,-1,1231,477,4.70822,29.7843
14,547,0,0,0,0,0,0,0,0,0,-1,1238,477,0,0
21,547,0,0,0,0,0,0,0,0,0,-1,1245,477,0,0
28,547,0,0,0,0,0,0,0,0,0,-1,1252,477,0,0
35,547,0,0,0,0,0,0,0,0,0,-1,1259,477,0,0
42,547,0,0,0,0,0,0,0,0,0,-1,1266,477,0,0
49,547,0,0,0,0,0,0,0,0,0,-1,1273,477,0,0
56,547,0,0,0,0,0,0,0,0,0,-1,1280,477,0,0
63,547,0,0,0,0,0,0,0,0,0,-1,1287,477,0,0
70,547,0,0,0,0,0,0,0,0,0,-1,1294,477,0,0
77,547,0,0,0,0,0,0,0,0,0,-1,1301,477,0,0
84,547,0,0,0,0,0,0,0,0,0,-1,1308,477,0,0
91,547,0,0,0,0,0,0,0,0,0,-1,1315,477,0,0
98,547,0,0,0,0,0,0,0,0,0,-1,1322,477,0,0
105,547,8.27795,-25.0034,-0.0223112,-0.0991029,-0.0412729,-0.00433598,-0.117078,-0.410748,0.0766476,0.045617,1329,477,8.27796,25.0034
112,547,8.27271,-25.428,-0.0261766,-0.0981073,-0.0370815,-0.010484,-0.1138,-0.400338,0.0726246,0.0456681,1336,477,8.27267,25.428
119,547,7.81897,-25.5845,0,0,0,0,0,0,0,-1,1343,477,7.81894,25.5845
126,547,7.24976,-26.3479,-0.0415596,-0.0986639,-0.0252228,-0.0320143,-0.108209,-0.361782,0.0641869,0.042431,1350,477,7.24979,26.3479
133,547,6.54175,-26.7296,-0.0461458,-0.0961185,-0.0159836,-0.0414708,-0.100793,-0.284547,0.0584965,0.044824,1357,477,6.54173,26.7296
140,547,6.21765,-27.0742,-0.0485085,-0.0907383,-0.00620817,-0.0476147,-0.0916321,-0.14298,0.0529174,0.0457212,1364,477,6.21764,27.0742
147,547,5.82556,-27.3752,0,0,0,0,0,0,0,-1,1371,477,5.82555,27.3752
154,547,5.09363,-27.7248,-0.0459857,-0.0697295,0.0114623,-0.0413553,-0.0743599,0.383924,0.0430219,0.0471597,1378,477,5.09367,27.7248
161,547,4.86646,-28.5222,-0.0413895,-0.0540859,0.0187215,-0.0279692,-0.0675063,0.621939,0.039165,0.0457222,1385,477,4.86639,28.5222
168,547,4.89246,-29.1939,0,0,0,0,0,0,0,-1,1392,477,4.89245,29.1939
175,547,3.35034,-0.26532,0,0,0,0,0,0,0,-1,1399,477,3.3503,0.265306
182,547,4.26038,3.72672,0,0,0,0,0,0,0,-1,1406,477,4.26039,-3.7267
189,547,3.40454,1.28671,0,0,0,0,0,0,0,-1,1413,477,3.40457,-1.28673
196,547,3.53931,1.87793,0,0,0,0,0,0,0,-1,1420,477,3.53928,-1.87794
203,547,6.49414,-0.425842,0,0,0,0,0,0,0,-1,1427,477,6.4941,0.425844
210,547,4.82092,0.53595,0,0,0,0,0,0,0,-1,1434,477,4.82096,-0.535942
217,547,4.68579,0.480072,0,0,0,0,0,0,0,-1,1441,477,4.68577,-0.480069
224,547,4.55615,0.739807,0,0,0,0,0,0,0,-1,1448,477,4.55613,-0.73981
231,547,5.90869,-3.57721,0,0,0,0,0,0,0,-1,1455,477,5.90871,3.57722
238,547,5.50049,-3.15356,0,0,0,0,0,0,0,-1,1462,477,5.50045,3.15356
245,547,5.13708,-2.65213,0,0,0,0,0,0,0,-1,1469,477,5.13708,2.65212
252,547,3.73511,-0.645233,0,0,0,0,0,0,0,-1,1476,477,3.73515,0.645237
259,547,5.86816,-3.20816,0,0,0,0,0,0,0,-1,1483,477,5.86815,3.20816
266,547,5.40222,-2.45731,0,0,0,0,0,0,0,-1,1490,477,5.40221,2.45732
273,547,3.05737,0.495789,0,0,0,0,0,0,0,-1,1497,477,3.05742,-0.49578
280,547,2.0885,1.47797,0,0,0,0,0,0,0,-1,1504,477,2.08848,-1.47795
287,547,2.31177,-2.21716,0,0,0,0,0,0,0,-1,1511,477,2.31174,2.21717
294,547,2.4823,-3.03659,0,0,0,0,0,0,0,-1,1518,477,2.48229,3.0366
301,547,4.72119,-3.93454,0,0,0,0,0,0,0,-1,1525,477,4.72119,3.93453
308,547,4.07471,-5.42175,0,0,0,0,0,0,0,-1,1532,477,4.07468,5.42174
315,547,3.58496,-6.62112,0,0,0,0,0,0,0,-1,1539,477,3.58497,6.62113
322,547,5.73926,-14.1878,0,0,0,0,0,0,0,-1,1546,477,5.73926,14.1878
329,547,8.79333,-26.4715,0,0,0,0,0,0,0,-1,1553,477,8.79331,26.4715
336,547,8.92358,-26.5232,0,0,0,0,0,0,0,-1,1560,477,8.92357,26.5232
343,547,9.13391,-26.0472,-2.2347e-06,-0.00635546,-0.00456869,0.00238566,-0.00874336,-0.481616,0.00676581,0.0483471,1567,477,9.13396,26.0472
350,547,9.04956,-25.5255,-0.000533268,-0.00525982,-0.00419347,0.00191701,-0.00771009,-0.528801,0.00588409,0.027837,1574,477,9.04951,25.5254
357,547,9.04077,-25.0983,-0.000826468,-0.00403024,-0.00372444,0.00162597,-0.00648267,-0.582307,0.00495354,0.0147395,1581,477,9.04076,25.0983
364,547,9.02246,-24.6684,-0.000879648,-0.00301477,-0.00309098,0.00132294,-0.00521735,-0.619122,0.00399295,0.0107877,1588,477,9.02244,24.6684
371,547,9.02576,-24.2137,-0.000714768,-0.00209648,-0.0023781,0.00107079,-0.00388204,-0.644035,0.00300915,0.0102466,1595,477,9.02579,24.2137
378,547,9.02576,-23.7471,-0.000475798,-0.00120257,-0.00167771,0.000877423,-0.0025558,-0.678747,0.00205961,0.0111206,1602,477,9.02572,23.7471
385,547,9.02515,-23.2848,-0.000211331,-0.00017637,-0.000960903,0.000767212,-0.00115491,-0.794493,0.00111724,0.011149,1609,477,9.02514,23.2848
392,547,9.03491,-22.82,4.5085e-05,0.000509756,-0.000375476,0.000718966,-0.000164125,-1.06245,0.000542361,0.0117375,1616,477,9.03486,22.82
399,547,8.99207,-22.3267,0.000309059,0.00106855,0.000202745,0.00111928,0.000258326,1.3256,0.000676721,0.0140464,1623,477,8.99211,22.3267
406,547,8.99451,-21.8223,0.000531734,0.00203553,0.000888532,0.00244761,0.000119656,1.13655,0.00159335,0.0145573,1630,477,8.99455,21.8223
413,547,9.01538,-21.3452,0.000663461,0.0029911,0.00152506,0.00374568,-9.11269e-05,1.11132,0.00252805,0.014215,1637,477,9.01532,21.3452
420,547,8.99609,-20.8951,0.000989724,0.00367181,0.00212223,0.00484119,-0.00017966,1.06717,0.00328898,0.0156309,1644,477,8.99607,20.8951
427,547,8.98389,-20.3894,0.00143249,0.00435536,0.00275023,0.00600834,-0.000220487,1.02962,0.00408104,0.0148142,1651,477,8.98387,20.3894
434,547,8.94629,-19.8943,0.00187307,0.00512855,0.00340656,0.00727628,-0.000274664,1.00827,0.00494495,0.00939917,1658,477,8.94631,19.8943
441,547,8.92395,-19.4284,0.00240881,0.00576341,0.00411832,0.0085329,-0.000360677,0.97878,0.00581256,0.0093825,1665,477,8.92397,19.4284
448,547,8.89526,-18.8755,0.00294253,0.00642807,0.00480136,0.00979317,-0.000422563,0.959491,0.00667409,0.010488,1672,477,8.89532,18.8755
455,547,8.87976,-18.356,0.00358861,0.00678806,0.00537522,0.0107966,-0.000419886,0.93003,0.00734167,0.0105627,1679,477,8.87976,18.3561
462,547,8.83545,-17.8512,0.0043428,0.00680404,0.00579561,0.0114982,-0.000351403,0.890013,0.00778527,0.010784,1686,477,8.83545,17.8512
469,547,8.7887,-17.2838,0.00508262,0.00604687,0.00617603,0.0117596,-0.000630081,0.824351,0.00805795,0.0181732,1693,477,8.7887,17.2838
476,547,8.84399,-16.6535,0.00563167,0.00473639,0.00676165,0.0119605,-0.00159242,0.752345,0.00855402,0.0331285,1700,477,8.84395,16.6535
483,547,8.93994,-16.0237,0,0,0,0,0,0,0,-1,1707,477,8.93992,16.0238
490,547,3.65271,-3.71707,0,0,0,0,0,0,0,-1,1714,477,3.65277,3.71708
497,547,2.55481,-3.81421,0,0,0,0,0,0,0,-1,1721,477,2.55476,3.8142
504,547,4.01953,-2.22714,0,0,0,0,0,0,0,-1,1728,477,4.0195,2.22713
511,547,5.2146,-6.9552,0,0,0,0,0,0,0,-1,1735,477,5.21464,6.95521
518,547,5.24243,-6.56122,0,0,0,0,0,0,0,-1,1742,477,5.24241,6.56121
525,547,5.89368,-5.49866,0,0,0,0,0,0,0,-1,1749,477,5.89372,5.49866
532,547,0,0,0,0,0,0,0,0,0,-1,1756,477,0,0
539,547,0,0,0,0,0,0,0,0,0,-1,1763,477,0,0
546,547,0,0,0,0,0,0,0,0,0,-1,1770,477,0,0
553,547,0,0,0,0,0,0,0,0,0,-1,1777,477,0,0
560,547,0,0,0,0,0,0,0,0,0,-1,1784,477,0,0
567,547,0,0,0,0,0,0,0,0,0,-1,1791,477,0,0
574,547,0,0,0,0,0,0,0,0,0,-1,1798,477,0,0
581,547,0,0,0,0,0,0,0,0,0,-1,1805,477,0,0
588,547,0,0,0,0,0,0,0,0,0,-1,1812,477,0,0
595,547,0,0,0,0,0,0,0,0,0,-1,1819,477,0,0
602,547,0,0,0,0,0,0,0,0,0,-1,1826,477,0,0
609,547,0,0,0,0,0,0,0,0,0,-1,1833,477,0,0
616,547,0,0,0,0,0,0,0,0,0,-1,1840,477,0,0
623,547,0,0,0,0,0,0,0,0,0,-1,1847,477,0,0
630,547,0,0,0,0,0,0,0,0,0,-1,1854,477,0,0
637,547,0,0,0,0,0,0,0,0,0,-1,1861,477,0,0
644,547,0,0,0,0,0,0,0,0,0,-1,1868,477,0,0
651,547,0,0,0,0,0,0,0,0,0,-1,1875,477,0,0
658,547,0,0,0,0,0,0,0,0,0,-1,1882,477,0,0
665,547,0,0,0,0,0,0,0,0,0,-1,1889,477,0,0
672,547,0,0,0,0,0,0,0,0,0,-1,1896,477,0,0
679,547,0,0,0,0,0,0,0,0,0,-1,1903,477,0,0
686,547,0,0,0,0,0,0,0,0,0,-1,1910,477,0,0
693,547,0,0,0,0,0,0,0,0,0,-1,1917,477,0,0
700,547,0,0,0,0,0,0,0,0,0,-1,1924,477,0,0
707,547,0,0,0,0,0,0,0,0,0,-1,1931,477,0,0
714,547,0,0,0,0,0,0,0,0,0,-1,1938,477,0,0
721,547,0,0,0,0,0,0,0,0,0,-1,1945,477,0,0
728,547,0,0,0,0,0,0,0,0,0,-1,1952,477,0,0
735,547,0,0,0,0,0,0,0,0,0,-1,1959,477,0,0
742,547,0,0,0,0,0,0,0,0,0,-1,1966,477,0,0
749,547,0,0,0,0,0,0,0,0,0,-1,1973,477,0,0
756,547,0,0,0,0,0,0,0,0,0,-1,1980,477,0,0
763,547,0,0,0,0,0,0,0,0,0,-1,1987,477,0,0
770,547,0,0,0,0,0,0,0,0,0,-1,1994,477,0,0
777,547,0,0,0,0,0,0,0,0,0,-1,2001,477,0,0
784,547,0,0,0,0,0,0,0,0,0,-1,2008,477,0,0
791,547,0,0,0,0,0,0,0,0,0,-1,2015,477,0,0
798,547,0,0,0,0,0,0,0,0,0,-1,2022,477,0,0
805,547,0,0,0,0,0,0,0,0,0,-1,2029,477,0,0
812,547,0,0,0,0,0,0,0,0,0,-1,2036,477,0,0
-700,540,0,0,0,0,0,0,0,0,0,-1,524,484,0,0
-693,540,0,0,0,0,0,0,0,0,0,-1,531,484,0,0
-686,540,0,0,0,0,0,0,0,0,0,-1,538,484,0,0
-679,540,0,0,0,0,0,0,0,0,0,-1,545,484,0,0
-672,540,0,0,0,0,0,0,0,0,0,-1,552,484,0,0
-665,540,0,0,0,0,0,0,0,0,0,-1,559,484,0,0
-658,540,0,0,0,0,0,0,0,0,0,-1,566,484,0,0
-651,540,0,0,0,0,0,0,0,0,0,-1,573,484,0,0
-644,540,0,0,0,0,0,0,0,0,0,-1,580,484,0,0
-637,540,0,0,0,0,0,0,0,0,0,-1,587,484,0,0
-630,540,0,0,0,0,0,0,0,0,0,-1,594,484,0,0
-623,540,0,0,0,0,0,0,0,0,0,-1,601,484,0,0
-616,540,0,0,0,0,0,0,0,0,0,-1,608,484,0,0
-609,540,0,0,0,0,0,0,0,0,0,-1,615,484,0,0
-602,540,0,0,0,0,0,0,0,0,0,-1,622,484,0,0
-595,540,0,0,0,0,0,0,0,0,0,-1,629,484,0,0
-588,540,0,0,0,0,0,0,0,0,0,-1,636,484,0,0
-581,540,0,0,0,0,0,0,0,0,0,-1,643,484,0,0
-574,540,0,0,0,0,0,0,0,0,0,-1,650,484,0,0
-567,540,0,0,0,0,0,0,0,0,0,-1,657,484,0,0
-560,540,0,0,0,0,0,0,0,0,0,-1,664,484,0,0
-553,540,0,0,0,0,0,0,0,0,0,-1,671,484,0,0
-546,540,0,0,0,0,0,0,0,0,0,-1,678,484,0,0
-539,540,0,0,0,0,0,0,0,0,0,-1,685,484,0,0
-532,540,0,0,0,0,0,0,0,0,0,-1,692,484,0,0
-525,540,0,0,0,0,0,0,0,0,0,-1,699,484,0,0
-518,540,0,0,0,0,0,0,0,0,0,-1,706,484,0,0
-511,540,0,0,0,0,0,0,0,0,0,-1,713,484,0,0
-504,540,0,0,0,0,0,0,0,0,0,-1,720,484,0,0
-497,540,0,0,0,0,0,0,0,0,0,-1,727,484,0,0
-490,540,0,0,0,0,0,0,0,0,0,-1,734,484,0,0
-483,540,0,0,0,0,0,0,0,0,0,-1,741,484,0,0
-476,540,0,0,0,0,0,0,0,0,0,-1,748,484,0,0
-469,540,0,0,0,0,0,0,0,0,0,-1,755,484,0,0
-462,540,0,0,0,0,0,0,0,0,0,-1,762,484,0,0
-455,540,0,0,0,0,0,0,0,0,0,-1,769,484,0,0
-448,540,0,0,0,0,0,0,0,0,0,-1,776,484,0,0
-441,540,0,0,0,0,0,0,0,0,0,-1,783,484,0,0
-434,540,0,0,0,0,0,0,0,0,0,-1,790,484,0,0
-427,540,0,0,0,0,0,0,0,0,0,-1,797,484,0,0
-420,540,0.227051,-10.0402,0,0,0,0,0,0,0,-1,804,484,0.227063,10.0402
-413,540,-0.0393677,-10.3862,0,0,0,0,0,0,0,-1,811,484,-0.0393683,10.3862
-406,540,-0.518372,-11.5288,0,0,0,0,0,0,0,-1,818,484,-0.518402,11.5288
-399,540,0.0863037,-11.3801,0,0,0,0,0,0,0,-1,825,484,0.0863201,11.3801
-392,540,-0.517395,-10.6735,0,0,0,0,0,0,0,-1,832,484,-0.517377,10.6735
-385,540,-2.29407,-5.03418,0,0,0,0,0,0,0,-1,839,484,-2.29408,5.03418
-378,540,1.06445,-10.5824,0,0,0,0,0,0,0,-1,846,484,1.06446,10.5824
-371,540,1.14825,-10.7452,0,0,0,0,0,0,0,-1,853,484,1.14827,10.7452
-364,540,-0.0896606,-17.0774,0,0,0,0,0,0,0,-1,860,484,-0.0896307,17.0774
-357,540,0.0617065,-17.4125,0,0,0,0,0,0,0,-1,867,484,0.0617204,17.4125
-350,540,0.142578,-17.6652,0.00239605,0.0129125,-0.00755643,0.0168601,-0.00155163,-1.08937,0.0117914,0.0373568,874,484,0.142588,17.6652
-343,540,0.0838013,-18.4425,0.00118778,0.0102021,-0.00555597,0.0128492,-0.0014593,-1.12617,0.00909171,0.0203747,881,484,0.0837826,18.4425
-336,540,0.0283203,-19.0993,0.00075855,0.0081069,-0.00436019,0.0101346,-0.0012691,-1.13551,0.0072167,0.0131741,888,484,0.0283027,19.0993
-329,540,0.00927734,-19.584,0.000684708,0.00625472,-0.00352605,0.00796296,-0.00102354,-1.11965,0.00568064,0.0102908,895,484,0.00930723,19.584
-322,540,-0.0130005,-20.0689,0.000606772,0.00448635,-0.00276077,0.00592067,-0.000827552,-1.09164,0.00424991,0.0145393,902,484,-0.0129737,20.0689
-315,540,-0.0181274,-20.5608,0.000529441,0.00323917,-0.00211181,0.00439337,-0.000624757,-1.07061,0.00315783,0.0131636,909,484,-0.0181007,20.5608
-308,540,-0.0183716,-21.0352,0.000430124,0.00232916,-0.00154399,0.00319224,-0.000432953,-1.06108,0.00228618,0.0126767,916,484,-0.0183543,21.0352
-301,540,-0.0523682,-21.4894,0.000382027,0.00137341,-0.00100149,0.00199517,-0.000239735,-1.0152,0.0014168,0.0128604,923,484,-0.0523661,21.4894
-294,540,-0.0629272,-21.9426,0.000438904,0.000508689,-0.000435443,0.000910635,3.69578e-05,-0.825378,0.000595153,0.0120385,930,484,-0.0629047,21.9426
-287,540,-0.0541382,-22.4136,0.000609964,-0.000259639,0.000128891,0.000628665,-0.000278341,0.144092,0.000536523,0.00947595,937,484,-0.0541149,22.4136
-280,540,-0.0645752,-22.8855,0.000845583,-0.00119079,0.000607864,0.00101323,-0.00135844,0.269108,0.00137411,0.0104308,944,484,-0.0645955,22.8855
-273,540,-0.0720215,-23.3529,0.00104731,-0.00205263,0.0011064,0.00140168,-0.002407,0.30997,0.00222433,0.0117312,951,484,-0.0720272,23.3529
-266,540,-0.0801392,-23.8033,0.00140536,-0.00330453,0.00178543,0.00200566,-0.00390484,0.324352,0.00347065,0.012384,958,484,-0.0801311,23.8033
-259,540,-0.101196,-24.2418,0.00201385,-0.00484725,0.0024908,0.00282273,-0.00565613,0.314003,0.00498555,0.012063,965,484,-0.101194,24.2418
-252,540,-0.0936279,-24.6506,0.00264239,-0.00724543,0.00332313,0.00365545,-0.00825849,0.2959,0.00704757,0.0114323,972,484,-0.0936348,24.6506
-245,540,-0.0900269,-25.0867,0.00325485,-0.00952991,0.00431057,0.00457243,-0.0108475,0.296644,0.00914512,0.0118286,979,484,-0.0900313,25.0867
-238,540,-0.0973511,-25.488,0.00400141,-0.0123329,0.00542982,0.00564167,-0.0139731,0.293368,0.0116602,0.010111,986,484,-0.0973688,25.488
-231,540,-0.0675049,-25.8785,0.00475865,-0.015252,0.00661092,0.00674543,-0.0172388,0.291944,0.0142823,0.0152069,993,484,-0.0675279,25.8785
-224,540,-0.0846558,-26.2652,0.00551941,-0.0185397,0.0080364,0.00795685,-0.0209771,0.294481,0.0172596,0.0270816,1000,484,-0.0846646,26.2652
-217,540,-0.165039,-26.4562,0.00630429,-0.0218309,0.0095047,0.00921422,-0.0247409,0.297096,0.0202757,0.038594,1007,484,-0.165043,26.4562
-210,540,-0.038208,-26.7601,0.00656153,-0.025324,0.0109107,0.00993756,-0.0287,0.300079,0.0231676,0.0440531,1014,484,-0.0381915,26.7601
-203,540,-0.121826,-27.1245,0,0,0,0,0,0,0,-1,1021,484,-0.121805,27.1245
-196,540,-0.143799,-26.0272,0,0,0,0,0,0,0,-1,1028,484,-0.143848,26.0272
-189,540,-0.726807,-22.826,0,0,0,0,0,0,0,-1,1035,484,-0.72684,22.8259
-182,540,0.109375,-15.2948,0,0,0,0,0,0,0,-1,1042,484,0.109331,15.2948
-175,540,1.73413,-10.728,0,0,0,0,0,0,0,-1,1049,484,1.73414,10.728
-168,540,1.18164,-7.65347,0,0,0,0,0,0,0,-1,1056,484,1.18163,7.65347
-161,540,-0.405884,-9.86481,0,0,0,0,0,0,0,-1,1063,484,-0.405886,9.8648
-154,540,1.96863,-22.0727,0,0,0,0,0,0,0,-1,1070,484,1.96859,22.0727
-147,540,1.32764,-21.9952,0,0,0,0,0,0,0,-1,1077,484,1.32762,21.9952
-140,540,1.40735,-15.6289,0,0,0,0,0,0,0,-1,1084,484,1.4073,15.6289
-133,540,2.28345,-17.6413,0,0,0,0,0,0,0,-1,1091,484,2.2835,17.6413
-126,540,1.25293,-23.9108,0,0,0,0,0,0,0,-1,1098,484,1.25288,23.9108
-119,540,1.55969,-23.0125,0,0,0,0,0,0,0,-1,1105,484,1.55968,23.0125
-112,540,1.4801,-21.6515,0,0,0,0,0,0,0,-1,1112,484,1.4801,21.6515
-105,540,1.30078,-19.8938,0,0,0,0,0,0,0,-1,1119,484,1.30077,19.8938
-98,540,1.08105,-18.1304,0,0,0,0,0,0,0,-1,1126,484,1.08101,18.1304
-91,540,1.56519,-7.48666,0,0,0,0,0,0,0,-1,1133,484,1.56514,7.48667
-84,540,-0.945923,4.43073,0,0,0,0,0,0,0,-1,1140,484,-0.945891,-4.43074
-77,540,-2.28894,2.14368,0,0,0,0,0,0,0,-1,1147,484,-2.28894,-2.14368
-70,540,-3.75244,-0.452576,0,0,0,0,0,0,0,-1,1154,484,-3.75244,0.452576
-63,540,-5.26257,-3.04767,0,0,0,0,0,0,0,-1,1161,484,-5.26262,3.04766
-56,540,-5.19055,-6.12595,0,0,0,0,0,0,0,-1,1168,484,-5.19057,6.12595
-49,540,-5.63867,-8.52298,0,0,0,0,0,0,0,-1,1175,484,-5.63871,8.52298
-42,540,0,0,0,0,0,0,0,0,0,-1,1182,484,0,0
-35,540,0,0,0,0,0,0,0,0,0,-1,1189,484,0,0
-28,540,0,0,0,0,0,0,0,0,0,-1,1196,484,0,0
-21,540,0,0,0,0,0,0,0,0,0,-1,1203,484,0,0
-14,540,0,0,0,0,0,0,0,0,0,-1,1210,484,0,0
-7,540,0,0,0,0,0,0,0,0,0,-1,1217,484,0,0
0,540,0,0,0,0,0,0,0,0,0,-1,1224,484,0,0
7,540,0,0,0,0,0,0,0,0,0,-1,1231,484,0,0
14,540,0,0,0,0,0,0,0,0,0,-1,1238,484,0,0
21,540,0,0,0,0,0,0,0,0,0,-1,1245,484,0,0
28,540,0,0,0,0,0,0,0,0,0,-1,1252,484,0,0
35,540,0,0,0,0,0,0,0,0,0,-1,1259,484,0,0
42,540,0,0,0,0,0,0,0,0,0,-1,1266,484,0,0
49,540,0,0,0,0,0,0,0,0,0,-1,1273,484,0,0
56,540,0,0,0,0,0,0,0,0,0,-1,1280,484,0,0
63,540,0,0,0,0,0,0,0,0,0,-1,1287,484,0,0
70,540,0,0,0,0,0,0,0,0,0,-1,1294,484,0,0
77,540,0,0,0,0,0,0,0,0,0,-1,1301,484,0,0
84,540,0,0,0,0,0,0,0,0,0,-1,1308,484,0,0
91,540,0,0,0,0,0,0,0,0,0,-1,1315,484,0,0
98,540,0,0,0,0,0,0,0,0,0,-1,1322,484,0,0
105,540,0,0,0,0,0,0,0,0,0,-1,1329,484,0,0
112,540,0,0,0,0,0,0,0,0,0,-1,1336,484,0,0
119,540,0,0,0,0,0,0,0,0,0,-1,1343,484,0,0
126,540,0,0,0,0,0,0,0,0,0,-1,1350,484,0,0
133,540,0,0,0,0,0,0,0,0,0,-1,1357,484,0,0
140,540,0,0,0,0,0,0,0,0,0,-1,1364,484,0,0
147,540,0,0,0,0,0,0,0,0,0,-1,1371,484,0,0
154,540,0,0,0,0,0,0,0,0,0,-1,1378,484,0,0
161,540,0,0,0,0,0,0,0,0,0,-1,1385,484,0,0
168,540,3.05078,-0.0010376,0,0,0,0,0,0,0,-1,1392,484,3.05084,0.00102554
175,540,3.37708,0.617035,0,0,0,0,0,0,0,-1,1399,484,3.37707,-0.617046
182,540,3.32678,1.23267,0,0,0,0,0,0,0,-1,1406,484,3.32678,-1.23266
189,540,3.5813,2.15619,0,0,0,0,0,0,0,-1,1413,484,3.58129,-2.1562
196,540,1.84448,-0.801483,0,0,0,0,0,0,0,-1,1420,484,1.84446,0.80148
203,540,4.14648,0.702087,0,0,0,0,0,0,0,-1,1427,484,4.14645,-0.702089
210,540,4.50671,-0.56076,0,0,0,0,0,0,0,-1,1434,484,4.50667,0.560771
217,540,5.00452,-0.278717,0,0,0,0,0,0,0,-1,1441,484,5.00452,0.278709
224,540,6.44458,-2.83527,0,0,0,0,0,0,0,-1,1448,484,6.44457,2.83525
231,540,6.9231,-3.10504,0,0,0,0,0,0,0,-1,1455,484,6.92307,3.10505
238,540,6.4823,-2.58365,0,0,0,0,0,0,0,-1,1462,484,6.48225,2.58363
245,540,6.02087,-1.97916,0,0,0,0,0,0,0,-1,1469,484,6.02088,1.97915
252,540,6.50647,-3.56006,0,0,0,0,0,0,0,-1,1476,484,6.50649,3.56006
259,540,6.01941,-2.798,0,0,0,0,0,0,0,-1,1483,484,6.01941,2.79801
266,540,5.5332,-2.02853,0,0,0,0,0,0,0,-1,1490,484,5.53323,2.02855
273,540,5.06787,-1.28137,0,0,0,0,0,0,0,-1,1497,484,5.06786,1.28136
280,540,1.62903,-2.14609,0,0,0,0,0,0,0,-1,1504,484,1.62906,2.1461
287,540,1.97156,-2.45053,0,0,0,0,0,0,0,-1,1511,484,1.97159,2.45053
294,540,2.44165,-2.6185,0,0,0,0,0,0,0,-1,1518,484,2.44167,2.6185
301,540,4.36169,-2.54272,0,0,0,0,0,0,0,-1,1525,484,4.36165,2.54272
308,540,4.2019,-4.30469,0,0,0,0,0,0,0,-1,1532,484,4.20193,4.3047
315,540,4.45923,-5.32101,0,0,0,0,0,0,0,-1,1539,484,4.45923,5.32103
322,540,4.71655,-6.33737,0,0,0,0,0,0,0,-1,1546,484,4.71653,6.33736
329,540,5.8949,-12.9383,0,0,0,0,0,0,0,-1,1553,484,5.89492,12.9383
336,540,7.16467,-17.7826,0,0,0,0,0,0,0,-1,1560,484,7.16469,17.7826
343,540,9.77893,-26.2436,0,0,0,0,0,0,0,-1,1567,484,9.77889,26.2436
350,540,9.46082,-25.584,0,0,0,0,0,0,0,-1,1574,484,9.46084,25.584
357,540,9.56726,-24.8433,-0.00204855,-0.00539862,-0.0053417,0.00187459,-0.00932176,-0.633465,0.00692447,0.0391507,1581,484,9.56729,24.8433
364,540,9.4624,-24.5743,-0.00186617,-0.00418681,-0.00452348,0.00164343,-0.00769642,-0.65985,0.00575748,0.022149,1588,484,9.4624,24.5743
371,540,9.46997,-24.1771,-0.00142793,-0.00306842,-0.00361677,0.00146044,-0.00595679,-0.67389,0.00453704,0.0151115,1595,484,9.47003,24.1771
378,540,9.48779,-23.7223,-0.000931312,-0.00197719,-0.00271469,0.00131035,-0.00421885,-0.690247,0.00333626,0.0130462,1602,484,9.48773,23.7223
385,540,9.47363,-23.2648,-0.000425468,-0.000781317,-0.00177629,0.00118178,-0.00238857,-0.735481,0.00210022,0.0134846,1609,484,9.47367,23.2648
392,540,9.47241,-22.8036,-8.56325e-08,7.89698e-06,-0.00105792,0.00106184,-0.00105403,-0.787285,0.0012216,0.0119958,1616,484,9.4724,22.8037
399,540,9.46277,-22.3276,0.000337959,0.000574208,-0.000462021,0.000932966,-2.07994e-05,-0.910552,0.000629025,0.0173355,1623,484,9.46282,22.3276
406,540,9.48877,-21.8241,0.000572094,0.00126168,0.000100812,0.00127612,0.000557658,1.42857,0.000738713,0.0198643,1630,484,9.48872,21.8241
413,540,9.5033,-21.3171,0.000760603,0.00213346,0.000741482,0.00245747,0.000436596,1.15883,0.00151391,0.0156548,1637,484,9.50333,21.3171
420,540,9.47546,-20.8558,0.0010256,0.00271407,0.00134237,0.00345562,0.000284053,1.0661,0.00221514,0.0139697,1644,484,9.47542,20.8558
427,540,9.44373,-20.3776,0.00128426,0.00333797,0.0018727,0.00444687,0.000175367,1.03618,0.00290789,0.0143081,1651,484,9.44378,20.3776
434,540,9.42969,-19.8961,0.00153982,0.00394011,0.00240985,0.00543212,4.78076e-05,1.01643,0.00360558,0.0154712,1658,484,9.42969,19.896
441,540,9.44739,-19.3696,0.00186643,0.00442196,0.00300487,0.00640946,-0.000121067,0.986432,0.00431389,0.0178767,1665,484,9.4474,19.3696
448,540,9.40381,-18.8645,0.00220054,0.00494614,0.00358791,0.00741491,-0.000268236,0.968115,0.00503507,0.0112529,1672,484,9.40386,18.8645
455,540,9.38818,-18.3546,0.00260669,0.00523807,0.00407961,0.00820889,-0.000364141,0.941385,0.00559792,0.0102338,1679,484,9.38813,18.3546
462,540,9.34644,-17.8498,0.00309062,0.00522129,0.00444154,0.00872347,-0.000411561,0.903103,0.00595757,0.010501,1686,484,9.34638,17.8498
469,540,9.3186,-17.3192,0.00354237,0.00453014,0.00479869,0.00886029,-0.000787787,0.836678,0.0061862,0.013456,1693,484,9.31858,17.3192
476,540,9.33215,-16.7782,0.00375434,0.00339823,0.00535553,0.00893477,-0.0017822,0.768781,0.0066309,0.0181384,1700,484,9.33213,16.7782
483,540,9.31848,-16.2143,0.00394677,0.00194055,0.0057408,0.00877144,-0.00288412,0.698905,0.00700965,0.0316276,1707,484,9.3185,16.2143
490,540,9.41516,-15.5178,0,0,0,0,0,0,0,-1,1714,484,9.41519,15.5178
497,540,9.20886,-14.5695,0,0,0,0,0,0,0,-1,1721,484,9.2088,14.5695
504,540,5.96704,-6.98599,0,0,0,0,0,0,0,-1,1728,484,5.96708,6.98598
511,540,5.82471,-6.83521,0,0,0,0,0,0,0,-1,1735,484,5.82465,6.83522
518,540,9.98181,-12.4608,0,0,0,0,0,0,0,-1,1742,484,9.98187,12.4608
525,540,8.64587,-13.3445,0,0,0,0,0,0,0,-1,1749,484,8.64585,13.3445
532,540,2.84265,-1.07925,0,0,0,0,0,0,0,-1,1756,484,2.84269,1.07927
539,540,0,0,0,0,0,0,0,0,0,-1,1763,484,0,0
546,540,0,0,0,0,0,0,0,0,0,-1,1770,484,0,0
553,540,0,0,0,0,0,0,0,0,0,-1,1777,484,0,0
560,540,0,0,0,0,0,0,0,0,0,-1,1784,484,0,0
567,540,0,0,0,0,0,0,0,0,0,-1,1791,484,0,0
574,540,0,0,0,0,0,0,0,0,0,-1,1798,484,0,0
581,540,0,0,0,0,0,0,0,0,0,-1,1805,484,0,0
588,540,0,0,0,0,0,0,0,0,0,-1,1812,484,0,0
595,540,0,0,0,0,0,0,0,0,0,-1,1819,484,0,0
602,540,0,0,0,0,0,0,0,0,0,-1,1826,484,0,0
609,540,0,0,0,0,0,0,0,0,0,-1,1833,484,0,0
616,540,0,0,0,0,0,0,0,0,0,-1,1840,484,0,0
623,540,0,0,0,0,0,0,0,0,0,-1,1847,484,0,0
630,540,0,0,0,0,0,0,0,0,0,-1,1854,484,0,0
637,540,0,0,0,0,0,0,0,0,0,-1,1861,484,0,0
644,540,0,0,0,0,0,0,0,0,0,-1,1868,484,0,0
651,540,0,0,0,0,0,0,0,0,0,-1,1875,484,0,0
658,540,0,0,0,0,0,0,0,0,0,-1,1882,484,0,0
665,540,0,0,0,0,0,0,0,0,0,-1,1889,484,0,0
672,540,0,0,0,0,0,0,0,0,0,-1,1896,484,0,0
679,540,0,0,0,0,0,0,0,0,0,-1,1903,484,0,0
686,540,0,0,0,0,0,0,0,0,0,-1,1910,484,0,0
693,540,0,0,0,0,0,0,0,0,0,-1,1917,484,0,0
700,540,0,0,0,0,0,0,0,0,0,-1,1924,484,0,0
707,540,0,0,0,0,0,0,0,0,0,-1,1931,484,0,0
714,540,0,0,0,0,0,0,0,0,0,-1,1938,484,0,0
721,540,0,0,0,0,0,0,0,0,0,-1,1945,484,0,0
728,540,0,0,0,0,0,0,0,0,0,-1,1952,484,0,0
735,540,0,0,0,0,0,0,0,0,0,-1,1959,484,0,0
742,540,0,0,0,0,0,0,0,0,0,-1,1966,484,0,0
749,540,0,0,0,0,0,0,0,0,0,-1,1973,484,0,0
756,540,0,0,0,0,0,0,0,0,0,-1,1980,484,0,0
763,540,0,0,0,0,0,0,0,0,0,-1,1987,484,0,0
770,540,0,0,0,0,0,0,0,0,0,-1,1994,484,0,0
777,540,0,0,0,0,0,0,0,0,0,-1,2001,484,0,0
784,540,0,0,0,0,0,0,0,0,0,-1,2008,484,0,0
791,540,0,0,0,0,0,0,0,0,0,-1,2015,484,0,0
798,540,0,0,0,0,0,0,0,0,0,-1,2022,484,0,0
805,540,0,0,0,0,0,0,0,0,0,-1,2029,484,0,0
812,540,0,0,0,0,0,0,0,0,0,-1,2036,484,0,0
-700,533,0,0,0,0,0,0,0,0,0,-1,524,491,0,0
-693,533,0,0,0,0,0,0,0,0,0,-1,531,491,0,0
-686,533,0,0,0,0,0,0,0,0,0,-1,538,491,0,0
-679,533,0,0,0,0,0,0,0,0,0,-1,545,491,0,0
-672,533,0,0,0,0,0,0,0,0,0,-1,552,491,0,0
-665,533,0,0,0,0,0,0,0,0,0,-1,559,491,0,0
-658,533,0,0,0,0,0,0,0,0,0,-1,566,491,0,0
-651,533,0,0,0,0,0,0,0,0,0,-1,573,491,0,0
-644,533,0,0,0,0,0,0,0,0,0,-1,580,491,0,0
-637,533,0,0,0,0,0,0,0,0,0,-1,587,491,0,0
-630,533,0,0,0,0,0,0,0,0,0,-1,594,491,0,0
-623,533,0,0,0,0,0,0,0,0,0,-1,601,491,0,0
-616,533,0,0,0,0,0,0,0,0,0,-1,608,491,0,0
-609,533,0,0,0,0,0,0,0,0,0,-1,615,491,0,0
-602,533,0,0,0,0,0,0,0,0,0,-1,622,491,0,0
-595,533,0,0,0,0,0,0,0,0,0,-1,629,491,0,0
-588,533,0,0,0,0,0,0,0,0,0,-1,636,491,0,0
-581,533,0,0,0,0,0,0,0,0,0,-1,643,491,0,0
-574,533,0,0,0,0,0,0,0,0,0,-1,650,491,0,0
-567,533,0,0,0,0,0,0,0,0,0,-1,657,491,0,0
-560,533,0,0,0,0,0,0,0,0,0,-1,664,491,0,0
-553,533,0,0,0,0,0,0,0,0,0,-1,671,491,0,0
-546,533,0,0,0,0,0,0,0,0,0,-1,678,491,0,0
-539,533,0,0,0,0,0,0,0,0,0,-1,685,491,0,0
-532,533,0,0,0,0,0,0,0,0,0,-1,692,491,0,0
-525,533,0,0,0,0,0,0,0,0,0,-1,699,491,0,0
-518,533,0,0,0,0,0,0,0,0,0,-1,706,491,0,0
-511,533,0,0,0,0,0,0,0,0,0,-1,713,491,0,0
-504,533,0,0,0,0,0,0,0,0,0,-1,720,491,0,0
-497,533,0,0,0,0,0,0,0,0,0,-1,727,491,0,0
-490,533,0,0,0,0,0,0,0,0,0,-1,734,491,0,0
-483,533,0,0,0,0,0,0,0,0,0,-1,741,491,0,0
-476,533,0,0,0,0,0,0,0,0,0,-1,748,491,0,0
-469,533,0,0,0,0,0,0,0,0,0,-1,755,491,0,0
-462,533,0,0,0,0,0,0,0,0,0,-1,762,491,0,0
-455,533,0,0,0,0,0,0,0,0,0,-1,769,491,0,0
-448,533,0,0,0,0,0,0,0,0,0,-1,776,491,0,0
-441,533,0,0,0,0,0,0,0,0,0,-1,783,491,0,0
-434,533,0,0,0,0,0,0,0,0,0,-1,790,491,0,0
-427,533,0.559814,-4.40222,0,0,0,0,0,0,0,-1,797,491,0.559816,4.40222
-420,533,-1.11127,-10.9054,0,0,0,0,0,0,0,-1,804,491,-1.11124,10.9054
-413,533,-0.704773,-11.0942,0,0,0,0,0,0,0,-1,811,491,-0.704742,11.0942
-406,533,-0.670898,-12.0899,0,0,0,0,0,0,0,-1,818,491,-0.670908,12.0899
-399,533,-0.455017,-12.4423,0,0,0,0,0,0,0,-1,825,491,-0.455032,12.4423
-392,533,-1.89661,-10.3905,0,0,0,0,0,0,0,-1,832,491,-1.89661,10.3905
-385,533,-1.69116,-6.64645,0,0,0,0,0,0,0,-1,839,491,-1.69115,6.64645
-378,533,-0.177185,-15.5741,0,0,0,0,0,0,0,-1,846,491,-0.177172,15.5741
-371,533,-0.622925,-16.5617,0,0,0,0,0,0,0,-1,853,491,-0.622926,16.5617
-364,533,-0.493164,-17.015,0.00413819,0.0159805,-0.0106141,0.0222134,-0.00209468,-1.03983,0.0155542,0.0437041,860,491,-0.493153,17.015
-357,533,-0.369507,-17.4452,0.00287002,0.0129613,-0.00845098,0.0177583,-0.00192697,-1.05452,0.0125307,0.0249634,867,491,-0.369526,17.4451
-350,533,-0.34436,-18.0157,0.00188708,0.0106793,-0.00658423,0.0142001,-0.00163376,-1.07975,0.0100557,0.0150415,874,491,-0.344389,18.0158
-343,533,-0.393311,-18.5655,0.000835214,0.0083393,-0.00471309,0.0106115,-0.00143695,-1.12157,0.00759872,0.0129697,881,491,-0.393312,18.5655
-336,533,-0.43335,-19.0879,0.000477723,0.00655113,-0.00356085,0.0081943,-0.00116545,-1.13846,0.00588991,0.0154317,888,491,-0.433379,19.0879
-329,533,-0.451172,-19.569,0.000464665,0.00497942,-0.00276221,0.00628934,-0.00084525,-1.12798,0.00450117,0.0138324,895,491,-0.451197,19.569
-322,533,-0.487305,-20.0559,0.000439455,0.00345262,-0.00202183,0.00446746,-0.000575387,-1.1056,0.00318746,0.0118176,902,491,-0.487321,20.0559
-315,533,-0.489014,-20.5504,0.00042776,0.00238176,-0.00138127,0.00309664,-0.000287117,-1.09321,0.00216648,0.012782,909,491,-0.48903,20.5504
-308,533,-0.491211,-21.0266,0.000417903,0.00156339,-0.000813686,0.0019857,-4.39992e-06,-1.09206,0.00132527,0.012191,916,491,-0.491209,21.0266
-301,533,-0.535828,-21.4737,0.000439679,0.000638517,-0.000256324,0.000814028,0.000264168,-0.970399,0.00047953,0.0133595,923,491,-0.535814,21.4737
-294,533,-0.524963,-21.916,0.000562997,-0.000165477,0.00029715,0.000668832,-0.000271311,0.342155,0.000558731,0.012527,930,491,-0.524975,21.916
-287,533,-0.506226,-22.3899,0.000816665,-0.000928729,0.000854179,0.00116512,-0.00127719,0.387337,0.00141056,0.0102059,937,491,-0.506228,22.3899
-280,533,-0.522888,-22.8672,0.00114395,-0.00199905,0.001344,0.00164029,-0.00249539,0.353763,0.00240469,0.00932695,944,491,-0.522867,22.8672
-273,533,-0.539063,-23.3268,0.00140715,-0.00295392,0.0019489,0.00215116,-0.00369793,0.364681,0.00341611,0.0120161,951,491,-0.539046,23.3269
-266,533,-0.535583,-23.7806,0.00186695,-0.00433237,0.00274865,0.00291011,-0.00537554,0.362725,0.0048538,0.0116078,958,491,-0.535596,23.7806
-259,533,-0.529236,-24.2223,0.00266587,-0.00624109,0.00344979,0.00384573,-0.00742095,0.329538,0.00661309,0.0126937,965,491,-0.529262,24.2223
-252,533,-0.514465,-24.6188,0.00345982,-0.009222,0.0043689,0.00481919,-0.0105814,0.301653,0.00909661,0.0148298,972,491,-0.514473,24.6188
-245,533,-0.562134,-25.0039,0.00418706,-0.0120239,0.00556535,0.00591377,-0.0137506,0.300844,0.0116499,0.0230092,979,491,-0.562152,25.0039
-238,533,-0.468079,-25.3342,0.0050672,-0.0155482,0.00699846,0.00721852,-0.0176995,0.298231,0.0148046,0.0307462,986,491,-0.468066,25.3341
-231,533,-0.305786,-25.4961,0.00600304,-0.0192224,0.00848831,0.00859335,-0.0218127,0.296186,0.0180995,0.0487295,993,491,-0.305786,25.4961
-224,533,-0.490662,-26.257,0,0,0,0,0,0,0,-1,1000,491,-0.490682,26.257
-217,533,-0.613892,-26.3805,0,0,0,0,0,0,0,-1,1007,491,-0.613886,26.3805
-210,533,-0.528259,-26.8153,0,0,0,0,0,0,0,-1,1014,491,-0.528288,26.8153
-203,533,-0.584229,-27.4276,0,0,0,0,0,0,0,-1,1021,491,-0.584252,27.4276
-196,533,0.688354,-19.5743,0,0,0,0,0,0,0,-1,1028,491,0.688406,19.5743
-189,533,-0.169189,-15.0303,0,0,0,0,0,0,0,-1,1035,491,-0.169241,15.0303
-182,533,1.26123,-11.4969,0,0,0,0,0,0,0,-1,1042,491,1.26128,11.4969
-175,533,0.937744,-7.36966,0,0,0,0,0,0,0,-1,1049,491,0.937769,7.36965
-168,533,2.64807,-2.7543,0,0,0,0,0,0,0,-1,1056,491,2.64812,2.7543
-161,533,1.91833,-1.76553,0,0,0,0,0,0,0,-1,1063,491,1.91836,1.76554
-154,533,0.376709,-11.0633,0,0,0,0,0,0,0,-1,1070,491,0.376715,11.0632
-147,533,0.383789,-12.1586,0,0,0,0,0,0,0,-1,1077,491,0.383829,12.1586
-140,533,1.14001,-15.4608,0,0,0,0,0,0,0,-1,1084,491,1.14005,15.4608
-133,533,0.189941,-16.0795,0,0,0,0,0,0,0,-1,1091,491,0.18994,16.0795
-126,533,2.89612,-2.59003,0,0,0,0,0,0,0,-1,1098,491,2.89608,2.59003
-119,533,1.78284,-22.5394,0,0,0,0,0,0,0,-1,1105,491,1.78279,22.5394
-112,533,1.83862,-21.2401,0,0,0,0,0,0,0,-1,1112,491,1.83859,21.24
-105,533,1.67554,-19.4018,0,0,0,0,0,0,0,-1,1119,491,1.6755,19.4018
-98,533,-1.39392,-5.16367,0,0,0,0,0,0,0,-1,1126,491,-1.39394,5.16367
-91,533,0.367432,4.49753,0,0,0,0,0,0,0,-1,1133,491,0.367468,-4.49754
-84,533,-0.88623,3.03604,0,0,0,0,0,0,0,-1,1140,491,-0.886288,-3.03605
-77,533,0,0,0,0,0,0,0,0,0,-1,1147,491,0,0
-70,533,0,0,0,0,0,0,0,0,0,-1,1154,491,0,0
-63,533,0,0,0,0,0,0,0,0,0,-1,1161,491,0,0
-56,533,0,0,0,0,0,0,0,0,0,-1,1168,491,0,0
-49,533,0,0,0,0,0,0,0,0,0,-1,1175,491,0,0
-42,533,0,0,0,0,0,0,0,0,0,-1,1182,491,0,0
-35,533,0,0,0,0,0,0,0,0,0,-1,1189,491,0,0
-28,533,0,0,0,0,0,0,0,0,0,-1,1196,491,0,0
-21,533,0,0,0,0,0,0,0,0,0,-1,1203,491,0,0
-14,533,0,0,0,0,0,0,0,0,0,-1,1210,491,0,0
-7,533,0,0,0,0,0,0,0,0,0,-1,1217,491,0,0
0,533,0,0,0,0,0,0,0,0,0,-1,1224,491,0,0
7,533,0,0,0,0,0,0,0,0,0,-1,1231,491,0,0
14,533,0,0,0,0,0,0,0,0,0,-1,1238,491,0,0
21,533,0,0,0,0,0,0,0,0,0,-1,1245,491,0,0
28,533,0,0,0,0,0,0,0,0,0,-1,1252,491,0,0
35,533,0,0,0,0,0,0,0,0,0,-1,1259,491,0,0
42,533,0,0,0,0,0,0,0,0,0,-1,1266,491,0,0
49,533,0,0,0,0,0,0,0,0,0,-1,1273,491,0,0
56,533,0,0,0,0,0,0,0,0,0,-1,1280,491,0,0
63,533,0,0,0,0,0,0,0,0,0,-1,1287,491,0,0
70,533,0,0,0,0,0,0,0,0,0,-1,1294,491,0,0
77,533,0,0,0,0,0,0,0,0,0,-1,1301,491,0,0
84,533,0,0,0,0,0,0,0,0,0,-1,1308,491,0,0
91,533,0,0,0,0,0,0,0,0,0,-1,1315,491,0,0
98,533,0,0,0,0,0,0,0,0,0,-1,1322,491,0,0
105,533,0,0,0,0,0,0,0,0,0,-1,1329,491,0,0
112,533,0,0,0,0,0,0,0,0,0,-1,1336,491,0,0
119,533,0,0,0,0,0,0,0,0,0,-1,1343,491,0,0
126,533,0,0,0,0,0,0,0,0,0,-1,1350,491,0,0
133,533,0,0,0,0,0,0,0,0,0,-1,1357,491,0,0
140,533,0,0,0,0,0,0,0,0,0,-1,1364,491,0,0
147,533,0,0,0,0,0,0,0,0,0,-1,1371,491,0,0
154,533,0,0,0,0,0,0,0,0,0,-1,1378,491,0,0
161,533,0,0,0,0,0,0,0,0,0,-1,1385,491,0,0
168,533,0,0,0,0,0,0,0,0,0,-1,1392,491,0,0
175,533,0,0,0,0,0,0,0,0,0,-1,1399,491,0,0
182,533,0,0,0,0,0,0,0,0,0,-1,1406,491,0,0
189,533,0,0,0,0,0,0,0,0,0,-1,1413,491,0,0
196,533,0,0,0,0,0,0,0,0,0,-1,1420,491,0,0
203,533,3.7887,1.16193,0,0,0,0,0,0,0,-1,1427,491,3.78872,-1.16193
210,533,5.09558,-0.216034,0,0,0,0,0,0,0,-1,1434,491,5.09559,0.216028
217,533,6.91614,-2.46814,0,0,0,0,0,0,0,-1,1441,491,6.91618,2.46814
224,533,7.23621,-2.1857,0,0,0,0,0,0,0,-1,1448,491,7.23621,2.1857
231,533,7.23474,-1.92282,0,0,0,0,0,0,0,-1,1455,491,7.2347,1.92282
238,533,7.23535,-1.67258,0,0,0,0,0,0,0,-1,1462,491,7.23539,1.67258
245,533,6.86682,-1.2301,0,0,0,0,0,0,0,-1,1469,491,6.86686,1.23011
252,533,6.63354,-3.07825,0,0,0,0,0,0,0,-1,1476,491,6.6335,3.07824
259,533,6.16431,-2.35037,0,0,0,0,0,0,0,-1,1483,491,6.1643,2.35037
266,533,5.68884,-1.6214,0,0,0,0,0,0,0,-1,1490,491,5.68885,1.6214
273,533,5.21399,-0.864227,0,0,0,0,0,0,0,-1,1497,491,5.21403,0.864227
280,533,1.41089,-1.97946,0,0,0,0,0,0,0,-1,1504,491,1.41087,1.97946
287,533,1.6814,-2.44443,0,0,0,0,0,0,0,-1,1511,491,1.6814,2.44444
294,533,2.2384,-2.57626,0,0,0,0,0,0,0,-1,1518,491,2.23839,2.57625
301,533,3.39941,-4.0817,0,0,0,0,0,0,0,-1,1525,491,3.3994,4.08171
308,533,4.13733,-4.14752,0,0,0,0,0,0,0,-1,1532,491,4.13727,4.14752
315,533,4.80762,-5.29349,0,0,0,0,0,0,0,-1,1539,491,4.80762,5.29347
322,533,5.47803,-6.43942,0,0,0,0,0,0,0,-1,1546,491,5.47798,6.43943
329,533,3.88477,-3.86301,0,0,0,0,0,0,0,-1,1553,491,3.88475,3.86299
336,533,6.70923,-13.2003,0,0,0,0,0,0,0,-1,1560,491,6.70926,13.2004
343,533,7.06677,-17.1133,0,0,0,0,0,0,0,-1,1567,491,7.06673,17.1133
350,533,10.0876,-23.7254,0,0,0,0,0,0,0,-1,1574,491,10.0877,23.7254
357,533,10.0149,-24.6172,0,0,0,0,0,0,0,-1,1581,491,10.0148,24.6173
364,533,10.1531,-24.3228,-0.00319804,-0.00480579,-0.00606865,0.00211974,-0.0101236,-0.71955,0.0075554,0.0434467,1588,491,10.1531,24.3228
371,533,9.90662,-24.0739,-0.00237147,-0.00343615,-0.00487466,0.00199983,-0.00780745,-0.731011,0.00598402,0.0383231,1595,491,9.90662,24.0739
378,533,9.88123,-23.6497,-0.00153991,-0.00212693,-0.00369096,0.00186919,-0.00553604,-0.745722,0.0044467,0.0275208,1602,491,9.88127,23.6497
385,533,9.95325,-23.2142,-0.000728333,-0.00083006,-0.0024718,0.00169313,-0.00325152,-0.775111,0.00290167,0.0212936,1609,491,9.95319,23.2142
392,533,9.94263,-22.7723,-0.00010613,-1.34348e-05,-0.00161161,0.00155249,-0.00167205,-0.799774,0.00186212,0.013301,1616,491,9.94258,22.7723
399,533,9.97656,-22.3254,0.000318203,0.000466154,-0.00100879,0.00140368,-0.000619321,-0.821998,0.00119688,0.0135965,1623,491,9.97651,22.3254
406,533,10.0062,-21.8324,0.000587414,0.000801178,-0.000562715,0.00126707,0.000121521,-0.87925,0.000807262,0.0169938,1630,491,10.0062,21.8324
413,533,9.97803,-21.3099,0.000857042,0.00153764,8.62296e-05,0.00154839,0.000846287,1.44671,0.000895256,0.0143242,1637,491,9.97797,21.3099
420,533,9.93799,-20.8347,0.00109539,0.00198087,0.000695726,0.00236278,0.000713473,1.06877,0.00139936,0.0141308,1644,491,9.93803,20.8347
427,533,9.9259,-20.336,0.00121095,0.00252276,0.00114367,0.00318527,0.000548451,1.04575,0.00196636,0.0153128,1651,491,9.92588,20.336
434,533,9.91602,-19.8671,0.00133184,0.00298164,0.00158528,0.0039438,0.000369678,1.0253,0.00251505,0.0137228,1658,491,9.91605,19.8671
441,533,9.95081,-19.369,0.00151178,0.00334154,0.00208931,0.00470749,0.000145828,0.991765,0.00309087,0.0157504,1665,491,9.95079,19.3691
448,533,9.93445,-18.8611,0.00170816,0.00374215,0.0025993,0.00551633,-6.60229e-05,0.971872,0.00369976,0.0176308,1672,491,9.93444,18.8611
455,533,9.88647,-18.3729,0.00194236,0.00399103,0.00303461,0.00616952,-0.000236133,0.948169,0.00419394,0.0168684,1679,491,9.88642,18.3729
462,533,9.84924,-17.8253,0.00223369,0.00396223,0.00335856,0.00656594,-0.000370022,0.911333,0.0045057,0.0144969,1686,491,9.84927,17.8252
469,533,9.83069,-17.3146,0.00248702,0.00335839,0.00369836,0.00664664,-0.00080123,0.844031,0.00472089,0.00991165,1693,491,9.83063,17.3146
476,533,9.83508,-16.7588,0.00247847,0.00238608,0.00421661,0.00664914,-0.00178459,0.77992,0.00513211,0.0111007,1700,491,9.8351,16.7588
483,533,9.84094,-16.167,0.0024318,0.00119164,0.00457395,0.0064275,-0.00280407,0.718025,0.00546499,0.0172796,1707,491,9.84097,16.167
490,533,9.90759,-15.6923,0.00228966,-0.000651423,0.00505041,0.00607926,-0.00444103,0.643729,0.00609839,0.0423609,1714,491,9.90764,15.6923
497,533,9.74536,-14.9568,0.00195107,-0.00320028,0.00554452,0.00548897,-0.00673818,0.567957,0.00707162,0.0487041,1721,491,9.74532,14.9568
504,533,9.50464,-14.2579,0,0,0,0,0,0,0,-1,1728,491,9.50461,14.2579
511,533,9.95276,-14.1675,0,0,0,0,0,0,0,-1,1735,491,9.95276,14.1675
518,533,10.0658,-14.1817,0,0,0,0,0,0,0,-1,1742,491,10.0658,14.1817
525,533,10.7209,-13.7234,0,0,0,0,0,0,0,-1,1749,491,10.7209,13.7234
532,533,8.45972,-12.6109,0,0,0,0,0,0,0,-1,1756,491,8.45969,12.6109
539,533,3.61609,1.62427,0,0,0,0,0,0,0,-1,1763,491,3.61606,-1.62426
546,533,3.59607,1.65799,0,0,0,0,0,0,0,-1,1770,491,3.59605,-1.658
553,533,0,0,0,0,0,0,0,0,0,-1,1777,491,0,0
560,533,0,0,0,0,0,0,0,0,0,-1,1784,491,0,0
567,533,0,0,0,0,0,0,0,0,0,-1,1791,491,0,0
574,533,0,0,0,0,0,0,0,0,0,-1,1798,491,0,0
581,533,0,0,0,0,0,0,0,0,0,-1,1805,491,0,0
588,533,0,0,0,0,0,0,0,0,0,-1,1812,491,0,0
595,533,0,0,0,0,0,0,0,0,0,-1,1819,491,0,0
602,533,0,0,0,0,0,0,0,0,0,-1,1826,491,0,0
609,533,0,0,0,0,0,0,0,0,0,-1,1833,491,0,0
616,533,0,0,0,0,0,0,0,0,0,-1,1840,491,0,0
623,533,0,0,0,0,0,0,0,0,0,-1,1847,491,0,0
630,533,0,0,0,0,0,0,0,0,0,-1,1854,491,0,0
637,533,0,0,0,0,0,0,0,0,0,-1,1861,491,0,0
644,533,0,0,0,0,0,0,0,0,0,-1,1868,491,0,0
651,533,0,0,0,0,0,0,0,0,0,-1,1875,491,0,0
658,533,0,0,0,0,0,0,0,0,0,-1,1882,491,0,0
665,533,0,0,0,0,0,0,0,0,0,-1,1889,491,0,0
672,533,0,0,0,0,0,0,0,0,0,-1,1896,491,0,0
679,533,0,0,0,0,0,0,0,0,0,-1,1903,491,0,0
686,533,0,0,0,0,0,0,0,0,0,-1,1910,491,0,0
693,533,0,0,0,0,0,0,0,0,0,-1,1917,491,0,0
700,533,0,0,0,0,0,0,0,0,0,-1,1924,491,0,0
707,533,0,0,0,0,0,0,0,0,0,-1,1931,491,0,0
714,533,0,0,0,0,0,0,0,0,0,-1,1938,491,0,0
721,533,0,0,0,0,0,0,0,0,0,-1,1945,491,0,0
728,533,0,0,0,0,0,0,0,0,0,-1,1952,491,0,0
735,533,0,0,0,0,0,0,0,0,0,-1,1959,491,0,0
742,533,0,0,0,0,0,0,0,0,0,-1,1966,491,0,0
749,533,0,0,0,0,0,0,0,0,0,-1,1973,491,0,0
756,533,0,0,0,0,0,0,0,0,0,-1,1980,491,0,0
763,533,0,0,0,0,0,0,0,0,0,-1,1987,491,0,0
770,533,0,0,0,0,0,0,0,0,0,-1,1994,491,0,0
777,533,0,0,0,0,0,0,0,0,0,-1,2001,491,0,0
784,533,0,0,0,0,0,0,0,0,0,-1,2008,491,0,0
791,533,0,0,0,0,0,0,0,0,0,-1,2015,491,0,0
798,533,0,0,0,0,0,0,0,0,0,-1,2022,491,0,0
805,533,0,0,0,0,0,0,0,0,0,-1,2029,491,0,0
812,533,0,0,0,0,0,0,0,0,0,-1,2036,491,0,0
-700,526,0,0,0,0,0,0,0,0,0,-1,524,498,0,0
-693,526,0,0,0,0,0,0,0,0,0,-1,531,498,0,0
-686,526,0,0,0,0,0,0,0,0,0,-1,538,498,0,0
-679,526,0,0,0,0,0,0,0,0,0,-1,545,498,0,0
-672,526,0,0,0,0,0,0,0,0,0,-1,552,498,0,0
-665,526,0,0,0,0,0,0,0,0,0,-1,559,498,0,0
-658,526,0,0,0,0,0,0,0,0,0,-1,566,498,0,0
-651,526,0,0,0,0,0,0,0,0,0,-1,573,498,0,0
-644,526,0,0,0,0,0,0,0,0,0,-1,580,498,0,0
-637,526,0,0,0,0,0,0,0,0,0,-1,587,498,0,0
-630,526,0,0,0,0,0,0,0,0,0,-1,594,498,0,0
-623,526,0,0,0,0,0,0,0,0,0,-1,601,498,0,0
-616,526,0,0,0,0,0,0,0,0,0,-1,608,498,0,0
-609,526,0,0,0,0,0,0,0,0,0,-1,615,498,0,0
-602,526,0,0,0,0,0,0,0,0,0,-1,622,498,0,0
-595,526,0,0,0,0,0,0,0,0,0,-1,629,498,0,0
-588,526,0,0,0,0,0,0,0,0,0,-1,636,498,0,0
-581,526,0,0,0,0,0,0,0,0,0,-1,643,498,0,0
-574,526,0,0,0,0,0,0,0,0,0,-1,650,498,0,0
-567,526,0,0,0,0,0,0,0,0,0,-1,657,498,0,0
-560,526,0,0,0,0,0,0,0,0,0,-1,664,498,0,0
-553,526,0,0,0,0,0,0,0,0,0,-1,671,498,0,0
-546,526,0,0,0,0,0,0,0,0,0,-1,678,498,0,0
-539,526,0,0,0,0,0,0,0,0,0,-1,685,498,0,0
-532,526,0,0,0,0,0,0,0,0,0,-1,692,498,0,0
-525,526,0,0,0,0,0,0,0,0,0,-1,699,498,0,0
-518,526,0,0,0,0,0,0,0,0,0,-1,706,498,0,0
-511,526,0,0,0,0,0,0,0,0,0,-1,713,498,0,0
-504,526,0,0,0,0,0,0,0,0,0,-1,720,498,0,0
-497,526,0,0,0,0,0,0,0,0,0,-1,727,498,0,0
-490,526,0,0,0,0,0,0,0,0,0,-1,734,498,0,0
-483,526,0,0,0,0,0,0,0,0,0,-1,741,498,0,0
-476,526,0,0,0,0,0,0,0,0,0,-1,748,498,0,0
-469,526,0,0,0,0,0,0,0,0,0,-1,755,498,0,0
-462,526,0,0,0,0,0,0,0,0,0,-1,762,498,0,0
-455,526,0,0,0,0,0,0,0,0,0,-1,769,498,0,0
-448,526,0,0,0,0,0,0,0,0,0,-1,776,498,0,0
-441,526,0,0,0,0,0,0,0,0,0,-1,783,498,0,0
-434,526,-0.153564,-5.96649,0,0,0,0,0,0,0,-1,790,498,-0.153589,5.9665
-427,526,1.23206,-4.59808,0,0,0,0,0,0,0,-1,797,498,1.23208,4.59809
-420,526,-1.76373,-11.6241,0,0,0,0,0,0,0,-1,804,498,-1.76373,11.6241
-413,526,-1.38965,-11.7916,0,0,0,0,0,0,0,-1,811,498,-1.38963,11.7916
-406,526,-1.35187,-12.5182,0,0,0,0,0,0,0,-1,818,498,-1.35185,12.5181
-399,526,-1.32715,-13.2116,0,0,0,0,0,0,0,-1,825,498,-1.32713,13.2116
-392,526,-2.27356,-11.5593,0,0,0,0,0,0,0,-1,832,498,-2.27357,11.5593
-385,526,-0.798523,-14.4907,0,0,0,0,0,0,0,-1,839,498,-0.798493,14.4907
-378,526,-0.715759,-15.4178,0.00769947,0.0179671,-0.0152311,0.0289063,-0.0032397,-0.94795,0.0204365,0.0480443,846,498,-0.715731,15.4178
-371,526,-0.780701,-16.2658,0.00519701,0.0156134,-0.0116208,0.0231397,-0.0023293,-0.996068,0.0162586,0.0369567,853,498,-0.780706,16.2658
-364,526,-0.833252,-16.8907,0.0033852,0.0130945,-0.00907521,0.018532,-0.00205222,-1.031,0.0130924,0.0198239,860,498,-0.833261,16.8907
-357,526,-0.819397,-17.4759,0.00209448,0.0108492,-0.00705002,0.0147703,-0.0018266,-1.06322,0.0105088,0.0132082,867,498,-0.819423,17.4759
-350,526,-0.838501,-18.0082,0.00123358,0.00893643,-0.00535666,0.0116825,-0.00151251,-1.09708,0.00833838,0.0119549,874,498,-0.83851,18.0082
-343,526,-0.872681,-18.5385,0.000360722,0.00695861,-0.00368422,0.00860502,-0.00128569,-1.15054,0.00620976,0.0151257,881,498,-0.872671,18.5384
-336,526,-0.91748,-19.0522,0.000101459,0.00542399,-0.00263624,0.00650867,-0.000983221,-1.18046,0.00470125,0.0152719,888,498,-0.917483,19.0522
-329,526,-0.929504,-19.5482,0.00017998,0.00405533,-0.00192781,0.00485097,-0.000615667,-1.17937,0.00345752,0.0142345,895,498,-0.92952,19.5482
-322,526,-0.948364,-20.0235,0.000257984,0.00267612,-0.00126951,0.0032202,-0.000286092,-1.16591,0.00224824,0.0100218,902,498,-0.948339,20.0235
-315,526,-0.95697,-20.5254,0.000372026,0.00164944,-0.000698476,0.00195721,6.42574e-05,-1.15576,0.00128392,0.00952291,909,498,-0.956949,20.5254
-308,526,-0.964355,-21.0315,0.000522321,0.000782553,-0.000189224,0.00088208,0.000422794,-1.08659,0.000509414,0.00874287,916,498,-0.964369,21.0315
-301,526,-1.00555,-21.4826,0.000678503,-0.000246787,0.000343315,0.00079197,-0.000360255,0.319203,0.000680624,0.0100963,923,498,-1.00553,21.4826
-294,526,-0.997314,-21.9241,0.000909093,-0.00110433,0.000858482,0.00122543,-0.00142066,0.353047,0.00152911,0.0100231,930,498,-0.997308,21.9241
-287,526,-0.989441,-22.3831,0.00125288,-0.00195202,0.00140827,0.00178375,-0.0024829,0.360495,0.00247435,0.0102489,937,498,-0.989421,22.3831
-280,526,-1.02087,-22.8423,0.00165505,-0.0032506,0.00194391,0.00233195,-0.0039275,0.335081,0.00365282,0.0126976,944,498,-1.02088,22.8423
-273,526,-1.0202,-23.3004,0.001958,-0.00437102,0.00270296,0.00295524,-0.00536826,0.353448,0.00487242,0.0104528,951,498,-1.02021,23.3004
-266,526,-1.01862,-23.7477,0.0024853,-0.00589817,0.00369846,0.00388367,-0.00729654,0.361481,0.00655438,0.0110297,958,498,-1.0186,23.7477
-259,526,-0.967773,-24.1607,0.00330194,-0.00799523,0.00456775,0.00491771,-0.009611,0.339998,0.00853279,0.0248404,965,498,-0.967757,24.1607
-252,526,-1.00861,-24.351,0.00406048,-0.0114446,0.00567361,0.0059148,-0.0132989,0.315888,0.0113628,0.040425,972,498,-1.0086,24.351
-245,526,-1.13153,-24.4356,0,0,0,0,0,0,0,-1,979,498,-1.13151,24.4356
-238,526,-0.871399,-25.2255,0,0,0,0,0,0,0,-1,986,498,-0.871376,25.2255
-231,526,-0.435791,-25.2014,0,0,0,0,0,0,0,-1,993,498,-0.435785,25.2014
-224,526,-0.292603,-23.2656,0,0,0,0,0,0,0,-1,1000,498,-0.292617,23.2656
-217,526,-0.541504,-25.9099,0,0,0,0,0,0,0,-1,1007,498,-0.541484,25.9099
-210,526,-0.717834,-26.676,0,0,0,0,0,0,0,-1,1014,498,-0.717808,26.676
-203,526,-0.659302,-18.8818,0,0,0,0,0,0,0,-1,1021,498,-0.659273,18.8818
-196,526,-0.328247,-12.179,0,0,0,0,0,0,0,-1,1028,498,-0.328238,12.179
-189,526,0.401245,-5.96826,0,0,0,0,0,0,0,-1,1035,498,0.401197,5.96826
-182,526,1.7323,-2.99405,0,0,0,0,0,0,0,-1,1042,498,1.73226,2.99404
-175,526,2.27637,-2.07983,0,0,0,0,0,0,0,-1,1049,498,2.27639,2.07984
-168,526,2.12036,-1.66049,0,0,0,0,0,0,0,-1,1056,498,2.12035,1.66048
-161,526,2.09082,-1.20572,0,0,0,0,0,0,0,-1,1063,498,2.09086,1.2057
-154,526,-1.3446,-5.37799,0,0,0,0,0,0,0,-1,1070,498,-1.34457,5.37799
-147,526,-0.472656,-6.64996,0,0,0,0,0,0,0,-1,1077,498,-0.472659,6.64997
-140,526,0.422852,-8.03339,0,0,0,0,0,0,0,-1,1084,498,0.422844,8.0334
-133,526,1.09583,-9.2215,0,0,0,0,0,0,0,-1,1091,498,1.09581,9.2215
-126,526,3.42529,-2.36053,0,0,0,0,0,0,0,-1,1098,498,3.42523,2.36052
-119,526,2.7771,-0.764099,0,0,0,0,0,0,0,-1,1105,498,2.7771,0.764107
-112,526,2.57715,-1.1893,0,0,0,0,0,0,0,-1,1112,498,2.57718,1.1893
-105,526,0,0,0,0,0,0,0,0,0,-1,1119,498,0,0
-98,526,0,0,0,0,0,0,0,0,0,-1,1126,498,0,0
-91,526,0,0,0,0,0,0,0,0,0,-1,1133,498,0,0
-84,526,0,0,0,0,0,0,0,0,0,-1,1140,498,0,0
-77,526,0,0,0,0,0,0,0,0,0,-1,1147,498,0,0
-70,526,0,0,0,0,0,0,0,0,0,-1,1154,498,0,0
-63,526,0,0,0,0,0,0,0,0,0,-1,1161,498,0,0
-56,526,0,0,0,0,0,0,0,0,0,-1,1168,498,0,0
-49,526,0,0,0,0,0,0,0,0,0,-1,1175,498,0,0
-42,526,0,0,0,0,0,0,0,0,0,-1,1182,498,0,0
-35,526,0,0,0,0,0,0,0,0,0,-1,1189,498,0,0
-28,526,0,0,0,0,0,0,0,0,0,-1,1196,498,0,0
-21,526,0,0,0,0,0,0,0,0,0,-1,1203,498,0,0
-14,526,0,0,0,0,0,0,0,0,0,-1,1210,498,0,0
-7,526,0,0,0,0,0,0,0,0,0,-1,1217,498,0,0
0,526,0,0,0,0,0,0,0,0,0,-1,1224,498,0,0
7,526,0,0,0,0,0,0,0,0,0,-1,1231,498,0,0
14,526,0,0,0,0,0,0,0,0,0,-1,1238,498,0,0
21,526,0,0,0,0,0,0,0,0,0,-1,1245,498,0,0
28,526,0,0,0,0,0,0,0,0,0,-1,1252,498,0,0
35,526,0,0,0,0,0,0,0,0,0,-1,1259,498,0,0
42,526,0,0,0,0,0,0,0,0,0,-1,1266,498,0,0
49,526,0,0,0,0,0,0,0,0,0,-1,1273,498,0,0
56,526,0,0,0,0,0,0,0,0,0,-1,1280,498,0,0
63,526,0,0,0,0,0,0,0,0,0,-1,1287,498,0,0
70,526,0,0,0,0,0,0,0,0,0,-1,1294,498,0,0
77,526,0,0,0,0,0,0,0,0,0,-1,1301,498,0,0
84,526,0,0,0,0,0,0,0,0,0,-1,1308,498,0,0
91,526,0,0,0,0,0,0,0,0,0,-1,1315,498,0,0
98,526,0,0,0,0,0,0,0,0,0,-1,1322,498,0,0
105,526,0,0,0,0,0,0,0,0,0,-1,1329,498,0,0
112,526,0,0,0,0,0,0,0,0,0,-1,1336,498,0,0
119,526,0,0,0,0,0,0,0,0,0,-1,1343,498,0,0
126,526,0,0,0,0,0,0,0,0,0,-1,1350,498,0,0
133,526,0,0,0,0,0,0,0,0,0,-1,1357,498,0,0
140,526,0,0,0,0,0,0,0,0,0,-1,1364,498,0,0
147,526,0,0,0,0,0,0,0,0,0,-1,1371,498,0,0
154,526,0,0,0,0,0,0,0,0,0,-1,1378,498,0,0
161,526,0,0,0,0,0,0,0,0,0,-1,1385,498,0,0
168,526,0,0,0,0,0,0,0,0,0,-1,1392,498,0,0
175,526,0,0,0,0,0,0,0,0,0,-1,1399,498,0,0
182,526,0,0,0,0,0,0,0,0,0,-1,1406,498,0,0
189,526,0,0,0,0,0,0,0,0,0,-1,1413,498,0,0
196,526,0,0,0,0,0,0,0,0,0,-1,1420,498,0,0
203,526,0,0,0,0,0,0,0,0,0,-1,1427,498,0,0
210,526,0,0,0,0,0,0,0,0,0,-1,1434,498,0,0
217,526,0,0,0,0,0,0,0,0,0,-1,1441,498,0,0
224,526,0,0,0,0,0,0,0,0,0,-1,1448,498,0,0
231,526,7.93237,-1.30618,0,0,0,0,0,0,0,-1,1455,498,7.93238,1.30618
238,526,7.97717,-1.08197,0,0,0,0,0,0,0,-1,1462,498,7.97723,1.08196
245,526,7.2793,-0.792938,0,0,0,0,0,0,0,-1,1469,498,7.27931,0.792926
252,526,6.73523,-2.23608,0,0,0,0,0,0,0,-1,1476,498,6.73525,2.23608
259,526,6.22949,-1.84967,0,0,0,0,0,0,0,-1,1483,498,6.22953,1.84968
266,526,5.72375,-1.46329,0,0,0,0,0,0,0,-1,1490,498,5.72381,1.46328
273,526,4.33984,0.49173,0,0,0,0,0,0,0,-1,1497,498,4.33979,-0.491727
280,526,1.4585,-1.59897,0,0,0,0,0,0,0,-1,1504,498,1.45846,1.59895
287,526,1.46411,-2.40134,0,0,0,0,0,0,0,-1,1511,498,1.46406,2.40133
294,526,5.57471,-4.59085,0,0,0,0,0,0,0,-1,1518,498,5.57466,4.59084
301,526,4.42786,-3.99677,0,0,0,0,0,0,0,-1,1525,498,4.42788,3.99676
308,526,5.79529,-4.19366,0,0,0,0,0,0,0,-1,1532,498,5.79528,4.19368
315,526,5.09851,-5.20068,0,0,0,0,0,0,0,-1,1539,498,5.09851,5.20068
322,526,5.50708,-4.72348,0,0,0,0,0,0,0,-1,1546,498,5.50713,4.72347
329,526,3.88672,-4.345,0,0,0,0,0,0,0,-1,1553,498,3.88674,4.34501
336,526,4.97876,-2.23828,0,0,0,0,0,0,0,-1,1560,498,4.97877,2.23828
343,526,3.31665,-2.69696,0,0,0,0,0,0,0,-1,1567,498,3.31667,2.69696
350,526,6.06287,-6.12015,0,0,0,0,0,0,0,-1,1574,498,6.06286,6.12014
357,526,11.0042,-25.5896,0,0,0,0,0,0,0,-1,1581,498,11.0041,25.5896
364,526,10.5453,-24.8533,0,0,0,0,0,0,0,-1,1588,498,10.5453,24.8533
371,526,10.4194,-24.2782,0,0,0,0,0,0,0,-1,1595,498,10.4194,24.2782
378,526,10.2754,-23.8931,0,0,0,0,0,0,0,-1,1602,498,10.2754,23.8931
385,526,10.4069,-23.2836,0,0,0,0,0,0,0,-1,1609,498,10.4069,23.2836
392,526,10.5214,-22.7885,-0.000262599,0.000478098,-0.00199776,0.00213954,-0.00192404,-0.877049,0.00234721,0.0416861,1616,498,10.5213,22.7885
399,526,10.447,-22.3116,0.000300134,0.000813366,-0.00137178,0.00195233,-0.00083883,-0.877863,0.00165367,0.0233035,1623,498,10.447,22.3116
406,526,10.4963,-21.7972,0.000649202,0.000756011,-0.00102255,0.00172655,-0.000321341,-0.811488,0.00127175,0.0136478,1630,498,10.4964,21.7972
413,526,10.4563,-21.2988,0.00102315,0.00132744,-0.000359874,0.00156601,0.000784582,-0.985385,0.000904135,0.0133666,1637,498,10.4563,21.2988
420,526,10.4163,-20.8344,0.00124213,0.0015953,0.000247243,0.00172254,0.00111488,1.0955,0.00100878,0.0146548,1644,498,10.4162,20.8343
427,526,10.4141,-20.3363,0.00123087,0.00202372,0.000610809,0.00235547,0.000899115,1.07324,0.00137256,0.0155781,1651,498,10.414,20.3363
434,526,10.3998,-19.8245,0.00123226,0.0023374,0.000959256,0.00289185,0.000677802,1.04671,0.00174638,0.0136606,1658,498,10.3998,19.8245
441,526,10.4015,-19.3148,0.00129117,0.00257386,0.00137569,0.00345036,0.000414676,1.00352,0.00217523,0.0116214,1665,498,10.4015,19.3148
448,526,10.399,-18.8344,0.00138941,0.00283027,0.00181059,0.0040585,0.000161181,0.974745,0.00265357,0.0109744,1672,498,10.399,18.8344
455,526,10.3788,-18.3628,0.00149526,0.003013,0.00218564,0.00456777,-5.95108e-05,0.952491,0.00306521,0.0138785,1679,498,10.3788,18.3628
462,526,10.368,-17.8177,0.00164943,0.00298493,0.00247882,0.00488436,-0.000250005,0.916966,0.00334269,0.0103991,1686,498,10.3681,17.8177
469,526,10.3594,-17.3076,0.00177197,0.00248253,0.00279601,0.00494574,-0.000691247,0.848593,0.00355008,0.00773527,1693,498,10.3593,17.3076
476,526,10.3351,-16.7642,0.00162878,0.00166366,0.0032576,0.00490387,-0.00161143,0.788075,0.00391844,0.00938201,1700,498,10.3351,16.7642
483,526,10.3275,-16.1644,0.00144157,0.000691076,0.00357323,0.0046592,-0.00252655,0.733082,0.00420916,0.0123367,1707,498,10.3275,16.1644
490,526,10.3979,-15.5513,0.00112938,-0.000802477,0.00396378,0.00424323,-0.00391632,0.665883,0.00471218,0.0243454,1714,498,10.3979,15.5513
497,526,10.3204,-15.186,0.000637884,-0.00284515,0.00436207,0.00359323,-0.0058005,0.595472,0.00547315,0.0297028,1721,498,10.3204,15.186
504,526,10.2692,-14.5858,-0.0001272,-0.00564827,0.00472494,0.00258453,-0.00835999,0.52102,0.00660558,0.0339564,1728,498,10.2692,14.5858
511,526,10.3337,-14.1738,-0.00111616,-0.0096848,0.00504336,0.00121699,-0.0120179,0.433297,0.0084469,0.0427072,1735,498,10.3337,14.1738
518,526,10.5288,-13.9853,-0.00213989,-0.0138366,0.00596734,0.000367139,-0.0163436,0.397734,0.0110202,0.0416966,1742,498,10.5288,13.9853
525,526,10.6582,-13.398,-0.00387413,-0.0188835,0.0071308,-0.00102658,-0.021731,0.37993,0.0141576,0.0472577,1749,498,10.6582,13.398
532,526,10.3251,-12.5541,0,0,0,0,0,0,0,-1,1756,498,10.3251,12.5541
539,526,3.29407,0.932312,0,0,0,0,0,0,0,-1,1763,498,3.2941,-0.93232
546,526,3.36731,1.07721,0,0,0,0,0,0,0,-1,1770,498,3.36735,-1.07719
553,526,3.40796,1.37137,0,0,0,0,0,0,0,-1,1777,498,3.40792,-1.37138
560,526,0,0,0,0,0,0,0,0,0,-1,1784,498,0,0
567,526,0,0,0,0,0,0,0,0,0,-1,1791,498,0,0
574,526,0,0,0,0,0,0,0,0,0,-1,1798,498,0,0
581,526,0,0,0,0,0,0,0,0,0,-1,1805,498,0,0
588,526,0,0,0,0,0,0,0,0,0,-1,1812,498,0,0
595,526,0,0,0,0,0,0,0,0,0,-1,1819,498,0,0
602,526,0,0,0,0,0,0,0,0,0,-1,1826,498,0,0
609,526,0,0,0,0,0,0,0,0,0,-1,1833,498,0,0
616,526,0,0,0,0,0,0,0,0,0,-1,1840,498,0,0
623,526,0,0,0,0,0,0,0,0,0,-1,1847,498,0,0
630,526,0,0,0,0,0,0,0,0,0,-1,1854,498,0,0
637,526,0,0,0,0,0,0,0,0,0,-1,1861,498,0,0
644,526,0,0,0,0,0,0,0,0,0,-1,1868,498,0,0
651,526,0,0,0,0,0,0,0,0,0,-1,1875,498,0,0
658,526,0,0,0,0,0,0,0,0,0,-1,1882,498,0,0
665,526,0,0,0,0,0,0,0,0,0,-1,1889,498,0,0
672,526,0,0,0,0,0,0,0,0,0,-1,1896,498,0,0
679,526,0,0,0,0,0,0,0,0,0,-1,1903,498,0,0
686,526,0,0,0,0,0,0,0,0,0,-1,1910,498,0,0
693,526,0,0,0,0,0,0,0,0,0,-1,1917,498,0,0
700,526,0,0,0,0,0,0,0,0,0,-1,1924,498,0,0
707,526,0,0,0,0,0,0,0,0,0,-1,1931,498,0,0
714,526,0,0,0,0,0,0,0,0,0,-1,1938,498,0,0
721,526,0,0,0,0,0,0,0,0,0,-1,1945,498,0,0
728,526,0,0,0,0,0,0,0,0,0,-1,1952,498,0,0
735,526,0,0,0,0,0,0,0,0,0,-1,1959,498,0,0
742,526,0,0,0,0,0,0,0,0,0,-1,1966,498,0,0
749,526,0,0,0,0,0,0,0,0,0,-1,1973,498,0,0
756,526,0,0,0,0,0,0,0,0,0,-1,1980,498,0,0
763,526,0,0,0,0,0,0,0,0,0,-1,1987,498,0,0
770,526,0,0,0,0,0,0,0,0,0,-1,1994,498,0,0
777,526,0,0,0,0,0,0,0,0,0,-1,2001,498,0,0
784,526,0,0,0,0,0,0,0,0,0,-1,2008,498,0,0
791,526,0,0,0,0,0,0,0,0,0,-1,2015,498,0,0
798,526,0,0,0,0,0,0,0,0,0,-1,2022,498,0,0
805,526,0,0,0,0,0,0,0,0,0,-1,2029,498,0,0
812,526,0,0,0,0,0,0,0,0,0,-1,2036,498,0,0
-700,519,0,0,0,0,0,0,0,0,0,-1,524,505,0,0
-693,519,0,0,0,0,0,0,0,0,0,-1,531,505,0,0
-686,519,0,0,0,0,0,0,0,0,0,-1,538,505,0,0
-679,519,0,0,0,0,0,0,0,0,0,-1,545,505,0,0
-672,519,0,0,0,0,0,0,0,0,0,-1,552,505,0,0
-665,519,0,0,0,0,0,0,0,0,0,-1,559,505,0,0
-658,519,0,0,0,0,0,0,0,0,0,-1,566,505,0,0
-651,519,0,0,0,0,0,0,0,0,0,-1,573,505,0,0
-644,519,0,0,0,0,0,0,0,0,0,-1,580,505,0,0
-637,519,0,0,0,0,0,0,0,0,0,-1,587,505,0,0
-630,519,0,0,0,0,0,0,0,0,0,-1,594,505,0,0
-623,519,0,0,0,0,0,0,0,0,0,-1,601,505,0,0
-616,519,0,0,0,0,0,0,0,0,0,-1,608,505,0,0
-609,519,0,0,0,0,0,0,0,0,0,-1,615,505,0,0
-602,519,0,0,0,0,0,0,0,0,0,-1,622,505,0,0
-595,519,0,0,0,0,0,0,0,0,0,-1,629,505,0,0
-588,519,0,0,0,0,0,0,0,0,0,-1,636,505,0,0
-581,519,0,0,0,0,0,0,0,0,0,-1,643,505,0,0
-574,519,0,0,0,0,0,0,0,0,0,-1,650,505,0,0
-567,519,0,0,0,0,0,0,0,0,0,-1,657,505,0,0
-560,519,0,0,0,0,0,0,0,0,0,-1,664,505,0,0
-553,519,0,0,0,0,0,0,0,0,0,-1,671,505,0,0
-546,519,0,0,0,0,0,0,0,0,0,-1,678,505,0,0
-539,519,0,0,0,0,0,0,0,0,0,-1,685,505,0,0
-532,519,0,0,0,0,0,0,0,0,0,-1,692,505,0,0
-525,519,0,0,0,0,0,0,0,0,0,-1,699,505,0,0
-518,519,0,0,0,0,0,0,0,0,0,-1,706,505,0,0
-511,519,0,0,0,0,0,0,0,0,0,-1,713,505,0,0
-504,519,0,0,0,0,0,0,0,0,0,-1,720,505,0,0
-497,519,0,0,0,0,0,0,0,0,0,-1,727,505,0,0
-490,519,0,0,0,0,0,0,0,0,0,-1,734,505,0,0
-483,519,0,0,0,0,0,0,0,0,0,-1,741,505,0,0
-476,519,0,0,0,0,0,0,0,0,0,-1,748,505,0,0
-469,519,0,0,0,0,0,0,0,0,0,-1,755,505,0,0
-462,519,0,0,0,0,0,0,0,0,0,-1,762,505,0,0
-455,519,0,0,0,0,0,0,0,0,0,-1,769,505,0,0
-448,519,0,0,0,0,0,0,0,0,0,-1,776,505,0,0
-441,519,1.34839,-5.29346,0,0,0,0,0,0,0,-1,783,505,1.3484,5.29347
-434,519,0.949585,-5.77313,0,0,0,0,0,0,0,-1,790,505,0.949598,5.77315
-427,519,-0.0523682,-9.31567,0,0,0,0,0,0,0,-1,797,505,-0.0523854,9.31568
-420,519,-2.38867,-12.1938,0,0,0,0,0,0,0,-1,804,505,-2.38867,12.1938
-413,519,-2.2298,-12.4998,0,0,0,0,0,0,0,-1,811,505,-2.22979,12.4998
-406,519,-1.44373,-12.3475,0,0,0,0,0,0,0,-1,818,505,-1.44376,12.3475
-399,519,-1.29913,-13.3184,0,0,0,0,0,0,0,-1,825,505,-1.29914,13.3184
-392,519,-0.913574,-14.5026,0,0,0,0,0,0,0,-1,832,505,-0.913546,14.5025
-385,519,-1.32861,-15.0434,0,0,0,0,0,0,0,-1,839,505,-1.32863,15.0434
-378,519,-1.32007,-15.6331,0.00636339,0.014763,-0.01273,0.023968,-0.00284168,-0.944733,0.0170052,0.0326792,846,505,-1.32005,15.6331
-371,519,-1.29877,-16.2679,0.00446687,0.0124547,-0.00990285,0.0191387,-0.00221713,-0.977076,0.0135587,0.0185642,853,505,-1.29879,16.268
-364,519,-1.29364,-16.8943,0.00302214,0.0103149,-0.00762126,0.0151171,-0.00178014,-1.00853,0.0107209,0.0109977,860,505,-1.29365,16.8943
-357,519,-1.31024,-17.4713,0.00197679,0.00845977,-0.00580563,0.0118675,-0.00143098,-1.04001,0.00842927,0.0106625,867,505,-1.31023,17.4713
-350,519,-1.32782,-17.9966,0.00128317,0.00680152,-0.00430409,0.0091549,-0.00107021,-1.07043,0.00648949,0.012484,874,505,-1.32783,17.9967
-343,519,-1.38068,-18.4966,0.00057133,0.00506363,-0.00280367,0.00640994,-0.000774974,-1.12312,0.00455365,0.015457,881,505,-1.38067,18.4966
-336,519,-1.43823,-19.0095,0.000384427,0.00371073,-0.00185294,0.00453745,-0.000442295,-1.15113,0.00318266,0.0158014,888,505,-1.43824,19.0095
-329,519,-1.42328,-19.5074,0.00050423,0.00249542,-0.00122649,0.00307953,-7.98835e-05,-1.12633,0.00208016,0.0132926,895,505,-1.42327,19.5075
-322,519,-1.41187,-20.0026,0.00061461,0.00126115,-0.000648608,0.00166259,0.000213176,-1.01658,0.00104461,0.0107676,902,505,-1.41188,20.0026
-315,519,-1.42383,-20.5015,0.000759928,0.000293136,-0.000153038,0.000805628,0.000247437,-0.290186,0.000476524,0.00914908,909,505,-1.42383,20.5014
-308,519,-1.45331,-21.0051,0.000968016,-0.000589468,0.000284587,0.00101839,-0.000639839,0.175183,0.000965657,0.00801849,916,505,-1.45334,21.0052
-301,519,-1.46796,-21.4495,0.0011585,-0.0016598,0.00077984,0.0013599,-0.00186119,0.25273,0.00186719,0.0121763,923,505,-1.46797,21.4495
-294,519,-1.45624,-21.8819,0.00139366,-0.00248445,0.00123601,0.00175409,-0.00284489,0.283743,0.00268,0.0148929,930,505,-1.45627,21.8819
-287,519,-1.48553,-22.3723,0.0017348,-0.00332421,0.00175415,0.00228351,-0.00387292,0.303167,0.00359369,0.0114079,937,505,-1.48555,22.3723
-280,519,-1.52936,-22.8379,0.0021842,-0.00479391,0.00232259,0.00288655,-0.00549627,0.29366,0.00491738,0.0169704,944,505,-1.52934,22.8379
-273,519,-1.5011,-23.3017,0.00252116,-0.00604259,0.0032489,0.00361421,-0.00713564,0.324541,0.00631645,0.0304095,951,505,-1.50109,23.3017
-266,519,-1.5387,-23.7485,0.0031418,-0.00767505,0.00448722,0.00476091,-0.00929415,0.346287,0.00825419,0.0457599,958,505,-1.5387,23.7485
-259,519,-1.3924,-24.1918,0,0,0,0,0,0,0,-1,965,505,-1.39241,24.1917
-252,519,-1.54077,-24.0778,0,0,0,0,0,0,0,-1,972,505,-1.54079,24.0778
-245,519,-1.23254,-23.2696,0,0,0,0,0,0,0,-1,979,505,-1.23256,23.2696
-238,519,-1.06903,-23.1753,0,0,0,0,0,0,0,-1,986,505,-1.06904,23.1753
-231,519,0.337585,-11.2798,0,0,0,0,0,0,0,-1,993,505,0.337568,11.2798
-224,519,-0.0494995,-7.97394,0,0,0,0,0,0,0,-1,1000,505,-0.0495123,7.97392
-217,519,-0.283691,-23.8409,0,0,0,0,0,0,0,-1,1007,505,-0.283683,23.8409
-210,519,-2.14398,-4.74774,0,0,0,0,0,0,0,-1,1014,505,-2.14397,4.74775
-203,519,-0.513611,-5.39017,0,0,0,0,0,0,0,-1,1021,505,-0.513585,5.39017
-196,519,-0.374023,-5.41635,0,0,0,0,0,0,0,-1,1028,505,-0.374047,5.41635
-189,519,-0.234497,-5.44254,0,0,0,0,0,0,0,-1,1035,505,-0.234508,5.44253
-182,519,2.76697,-1.19659,0,0,0,0,0,0,0,-1,1042,505,2.76696,1.19661
-175,519,2.31323,-0.960938,0,0,0,0,0,0,0,-1,1049,505,2.31319,0.960941
-168,519,2.01074,-0.721405,0,0,0,0,0,0,0,-1,1056,505,2.01072,0.721407
-161,519,2.32056,-0.522339,0,0,0,0,0,0,0,-1,1063,505,2.32057,0.522328
-154,519,2.55566,0.116669,0,0,0,0,0,0,0,-1,1070,505,2.55563,-0.116661
-147,519,-0.55127,-6.14001,0,0,0,0,0,0,0,-1,1077,505,-0.551252,6.14001
-140,519,0.240601,-7.53503,0,0,0,0,0,0,0,-1,1084,505,0.240653,7.53501
-133,519,2.70911,-4.4516,0,0,0,0,0,0,0,-1,1091,505,2.70915,4.45161
-126,519,0,0,0,0,0,0,0,0,0,-1,1098,505,0,0
-119,519,0,0,0,0,0,0,0,0,0,-1,1105,505,0,0
-112,519,0,0,0,0,0,0,0,0,0,-1,1112,505,0,0
-105,519,0,0,0,0,0,0,0,0,0,-1,1119,505,0,0
-98,519,0,0,0,0,0,0,0,0,0,-1,1126,505,0,0
-91,519,0,0,0,0,0,0,0,0,0,-1,1133,505,0,0
-84,519,0,0,0,0,0,0,0,0,0,-1,1140,505,0,0
-77,519,0,0,0,0,0,0,0,0,0,-1,1147,505,0,0
-70,519,0,0,0,0,0,0,0,0,0,-1,1154,505,0,0
-63,519,0,0,0,0,0,0,0,0,0,-1,1161,505,0,0
-56,519,0,0,0,0,0,0,0,0,0,-1,1168,505,0,0
-49,519,0,0,0,0,0,0,0,0,0,-1,1175,505,0,0
-42,519,0,0,0,0,0,0,0,0,0,-1,1182,505,0,0
-35,519,0,0,0,0,0,0,0,0,0,-1,1189,505,0,0
-28,519,0,0,0,0,0,0,0,0,0,-1,1196,505,0,0
-21,519,0,0,0,0,0,0,0,0,0,-1,1203,505,0,0
-14,519,0,0,0,0,0,0,0,0,0,-1,1210,505,0,0
-7,519,0,0,0,0,0,0,0,0,0,-1,1217,505,0,0
0,519,0,0,0,0,0,0,0,0,0,-1,1224,505,0,0
7,519,0,0,0,0,0,0,0,0,0,-1,1231,505,0,0
14,519,0,0,0,0,0,0,0,0,0,-1,1238,505,0,0
21,519,0,0,0,0,0,0,0,0,0,-1,1245,505,0,0
28,519,0,0,0,0,0,0,0,0,0,-1,1252,505,0,0
35,519,0,0,0,0,0,0,0,0,0,-1,1259,505,0,0
42,519,0,0,0,0,0,0,0,0,0,-1,1266,505,0,0
49,519,0,0,0,0,0,0,0,0,0,-1,1273,505,0,0
56,519,0,0,0,0,0,0,0,0,0,-1,1280,505,0,0
63,519,0,0,0,0,0,0,0,0,0,-1,1287,505,0,0
70,519,0,0,0,0,0,0,0,0,0,-1,1294,505,0,0
77,519,0,0,0,0,0,0,0,0,0,-1,1301,505,0,0
84,519,0,0,0,0,0,0,0,0,0,-1,1308,505,0,0
91,519,0,0,0,0,0,0,0,0,0,-1,1315,505,0,0
98,519,0,0,0,0,0,0,0,0,0,-1,1322,505,0,0
105,519,0,0,0,0,0,0,0,0,0,-1,1329,505,0,0
112,519,0,0,0,0,0,0,0,0,0,-1,1336,505,0,0
119,519,0,0,0,0,0,0,0,0,0,-1,1343,505,0,0
126,519,0,0,0,0,0,0,0,0,0,-1,1350,505,0,0
133,519,0,0,0,0,0,0,0,0,0,-1,1357,505,0,0
140,519,0,0,0,0,0,0,0,0,0,-1,1364,505,0,0
147,519,0,0,0,0,0,0,0,0,0,-1,1371,505,0,0
154,519,0,0,0,0,0,0,0,0,0,-1,1378,505,0,0
161,519,0,0,0,0,0,0,0,0,0,-1,1385,505,0,0
168,519,0,0,0,0,0,0,0,0,0,-1,1392,505,0,0
175,519,0,0,0,0,0,0,0,0,0,-1,1399,505,0,0
182,519,0,0,0,0,0,0,0,0,0,-1,1406,505,0,0
189,519,0,0,0,0,0,0,0,0,0,-1,1413,505,0,0
196,519,0,0,0,0,0,0,0,0,0,-1,1420,505,0,0
203,519,0,0,0,0,0,0,0,0,0,-1,1427,505,0,0
210,519,0,0,0,0,0,0,0,0,0,-1,1434,505,0,0
217,519,0,0,0,0,0,0,0,0,0,-1,1441,505,0,0
224,519,0,0,0,0,0,0,0,0,0,-1,1448,505,0,0
231,519,0,0,0,0,0,0,0,0,0,-1,1455,505,0,0
238,519,0,0,0,0,0,0,0,0,0,-1,1462,505,0,0
245,519,0,0,0,0,0,0,0,0,0,-1,1469,505,0,0
252,519,5.26208,0.0938416,0,0,0,0,0,0,0,-1,1476,505,5.26207,-0.0938493
259,519,6.14246,-1.36441,0,0,0,0,0,0,0,-1,1483,505,6.14241,1.36441
266,519,5.31909,-0.400787,0,0,0,0,0,0,0,-1,1490,505,5.31912,0.400773
273,519,4.02393,0.325531,0,0,0,0,0,0,0,-1,1497,505,4.0239,-0.325522
280,519,4.68848,0.53006,0,0,0,0,0,0,0,-1,1504,505,4.68842,-0.530073
287,519,7.9519,-3.80801,0,0,0,0,0,0,0,-1,1511,505,7.95193,3.808
294,519,6.92273,-3.38889,0,0,0,0,0,0,0,-1,1518,505,6.92268,3.38888
301,519,5.35669,-2.92661,0,0,0,0,0,0,0,-1,1525,505,5.35675,2.9266
308,519,7.37549,-5.64529,0,0,0,0,0,0,0,-1,1532,505,7.3755,5.64529
315,519,6.30029,-4.53754,0,0,0,0,0,0,0,-1,1539,505,6.30024,4.53753
322,519,5.84302,-5.45117,0,0,0,0,0,0,0,-1,1546,505,5.84303,5.45116
329,519,4.92407,0.62384,0,0,0,0,0,0,0,-1,1553,505,4.92403,-0.623832
336,519,3.10095,-0.329285,0,0,0,0,0,0,0,-1,1560,505,3.1009,0.329283
343,519,2.49146,-2.31119,0,0,0,0,0,0,0,-1,1567,505,2.49145,2.31119
350,519,3.47729,-2.22516,0,0,0,0,0,0,0,-1,1574,505,3.47726,2.22515
357,519,9.01709,-24.3693,0,0,0,0,0,0,0,-1,1581,505,9.01713,24.3693
364,519,10.7144,-25.3546,0,0,0,0,0,0,0,-1,1588,505,10.7143,25.3545
371,519,8.9231,-23.3576,0,0,0,0,0,0,0,-1,1595,505,8.92307,23.3576
378,519,6.36597,-10.0967,0,0,0,0,0,0,0,-1,1602,505,6.36597,10.0967
385,519,6.24756,-9.72186,0,0,0,0,0,0,0,-1,1609,505,6.24752,9.72183
392,519,10.8735,-23.0122,0,0,0,0,0,0,0,-1,1616,505,10.8736,23.0122
399,519,10.8644,-22.3284,0,0,0,0,0,0,0,-1,1623,505,10.8644,22.3284
406,519,10.9489,-21.829,0.000631327,0.000976142,-0.00139982,0.00221414,-0.000606666,-0.846671,0.00171447,0.0357936,1630,505,10.9488,21.829
413,519,10.9872,-21.3403,0.00117759,0.00139176,-0.000681996,0.00197503,0.000594321,-0.86327,0.00117002,0.0158829,1637,505,10.9871,21.3403
420,519,10.9343,-20.8257,0.0014299,0.00149169,-4.96851e-05,0.0015193,0.00140229,-1.06355,0.000976203,0.0166301,1644,505,10.9344,20.8257
427,519,10.9325,-20.3541,0.00137293,0.00180312,0.000262539,0.00192743,0.00124862,1.1286,0.00112889,0.0155465,1651,505,10.9324,20.3541
434,519,10.9276,-19.8312,0.00130738,0.00198152,0.000539475,0.00228057,0.00100833,1.06463,0.00131962,0.0137835,1658,505,10.9276,19.8311
441,519,10.8982,-19.2984,0.00129033,0.00210527,0.000881785,0.00266918,0.000726419,1.00183,0.00159349,0.0127254,1665,505,10.8982,19.2984
448,519,10.8903,-18.8068,0.00133941,0.00220907,0.00124905,0.00309682,0.000451669,0.952902,0.00193167,0.00925452,1672,505,10.8903,18.8068
455,519,10.8766,-18.3301,0.00135345,0.00231347,0.00155979,0.00346544,0.000201478,0.934669,0.00224615,0.0102802,1679,505,10.8766,18.3301
462,519,10.8781,-17.8148,0.00139732,0.00228067,0.00181363,0.00370564,-2.76434e-05,0.904839,0.00247969,0.010111,1686,505,10.8781,17.8148
469,519,10.8899,-17.2981,0.00141735,0.00188087,0.00209488,0.00375677,-0.000458552,0.84049,0.00267052,0.0108433,1693,505,10.8899,17.2981
476,519,10.8589,-16.7443,0.00117248,0.00120722,0.00247794,0.00366785,-0.00128815,0.788902,0.00296926,0.0129632,1700,505,10.8589,16.7443
483,519,10.8411,-16.1967,0.000863262,0.00042297,0.0027311,0.00338307,-0.00209684,0.745182,0.00319275,0.0144401,1707,505,10.841,16.1967
490,519,10.8232,-15.614,0.000405386,-0.000770304,0.00301849,0.00289274,-0.00325766,0.689228,0.00355301,0.0124226,1714,505,10.8232,15.614
497,519,10.8032,-15.1277,-0.000198166,-0.00237704,0.00332448,0.00221083,-0.00478603,0.627062,0.00412984,0.0164738,1721,505,10.8032,15.1277
504,519,10.7729,-14.5656,-0.00103541,-0.00453924,0.00360419,0.00122009,-0.00679474,0.559174,0.00498653,0.0166108,1728,505,10.773,14.5655
511,519,10.7523,-13.9839,-0.00208732,-0.00751161,0.00384031,-9.80031e-05,-0.00950092,0.477951,0.00630153,0.0216767,1735,505,10.7523,13.9839
518,519,10.647,-13.5897,-0.00328177,-0.0106645,0.00435998,-0.00126037,-0.0126859,0.434127,0.00807001,0.0399725,1742,505,10.6469,13.5897
525,519,10.5947,-13.282,-0.00499213,-0.0144292,0.00493142,-0.00288545,-0.0165358,0.403729,0.0101991,0.0498391,1749,505,10.5948,13.282
532,519,10.4603,-12.7765,0,0,0,0,0,0,0,-1,1756,505,10.4603,12.7765
539,519,3.30005,0.0229797,0,0,0,0,0,0,0,-1,1763,505,3.30008,-0.0229869
546,519,4.62024,-2.89774,0,0,0,0,0,0,0,-1,1770,505,4.62023,2.89775
553,519,4.14136,0.0667419,0,0,0,0,0,0,0,-1,1777,505,4.14141,-0.0667503
560,519,3.77856,0.279724,0,0,0,0,0,0,0,-1,1784,505,3.77861,-0.279731
567,519,0,0,0,0,0,0,0,0,0,-1,1791,505,0,0
574,519,0,0,0,0,0,0,0,0,0,-1,1798,505,0,0
581,519,0,0,0,0,0,0,0,0,0,-1,1805,505,0,0
588,519,0,0,0,0,0,0,0,0,0,-1,1812,505,0,0
595,519,0,0,0,0,0,0,0,0,0,-1,1819,505,0,0
602,519,0,0,0,0,0,0,0,0,0,-1,1826,505,0,0
609,519,0,0,0,0,0,0,0,0,0,-1,1833,505,0,0
616,519,0,0,0,0,0,0,0,0,0,-1,1840,505,0,0
623,519,0,0,0,0,0,0,0,0,0,-1,1847,505,0,0
630,519,0,0,0,0,0,0,0,0,0,-1,1854,505,0,0
637,519,0,0,0,0,0,0,0,0,0,-1,1861,505,0,0
644,519,0,0,0,0,0,0,0,0,0,-1,1868,505,0,0
651,519,0,0,0,0,0,0,0,0,0,-1,1875,505,0,0
658,519,0,0,0,0,0,0,0,0,0,-1,1882,505,0,0
665,519,0,0,0,0,0,0,0,0,0,-1,1889,505,0,0
672,519,0,0,0,0,0,0,0,0,0,-1,1896,505,0,0
679,519,0,0,0,0,0,0,0,0,0,-1,1903,505,0,0
686,519,0,0,0,0,0,0,0,0,0,-1,1910,505,0,0
693,519,0,0,0,0,0,0,0,0,0,-1,1917,505,0,0
700,519,0,0,0,0,0,0,0,0,0,-1,1924,505,0,0
707,519,0,0,0,0,0,0,0,0,0,-1,1931,505,0,0
714,519,0,0,0,0,0,0,0,0,0,-1,1938,505,0,0
721,519,0,0,0,0,0,0,0,0,0,-1,1945,505,0,0
728,519,0,0,0,0,0,0,0,0,0,-1,1952,505,0,0
735,519,0,0,0,0,0,0,0,0,0,-1,1959,505,0,0
742,519,0,0,0,0,0,0,0,0,0,-1,1966,505,0,0
749,519,0,0,0,0,0,0,0,0,0,-1,1973,505,0,0
756,519,0,0,0,0,0,0,0,0,0,-1,1980,505,0,0
763,519,0,0,0,0,0,0,0,0,0,-1,1987,505,0,0
770,519,0,0,0,0,0,0,0,0,0,-1,1994,505,0,0
777,519,0,0,0,0,0,0,0,0,0,-1,2001,505,0,0
784,519,0,0,0,0,0,0,0,0,0,-1,2008,505,0,0
791,519,0,0,0,0,0,0,0,0,0,-1,2015,505,0,0
798,519,0,0,0,0,0,0,0,0,0,-1,2022,505,0,0
805,519,0,0,0,0,0,0,0,0,0,-1,2029,505,0,0
812,519,0,0,0,0,0,0,0,0,0,-1,2036,505,0,0
-700,512,0,0,0,0,0,0,0,0,0,-1,524,512,0,0
-693,512,0,0,0,0,0,0,0,0,0,-1,531,512,0,0
-686,512,0,0,0,0,0,0,0,0,0,-1,538,512,0,0
-679,512,0,0,0,0,0,0,0,0,0,-1,545,512,0,0
-672,512,0,0,0,0,0,0,0,0,0,-1,552,512,0,0
-665,512,0,0,0,0,0,0,0,0,0,-1,559,512,0,0
-658,512,0,0,0,0,0,0,0,0,0,-1,566,512,0,0
-651,512,0,0,0,0,0,0,0,0,0,-1,573,512,0,0
-644,512,0,0,0,0,0,0,0,0,0,-1,580,512,0,0
-637,512,0,0,0,0,0,0,0,0,0,-1,587,512,0,0
-630,512,0,0,0,0,0,0,0,0,0,-1,594,512,0,0
-623,512,0,0,0,0,0,0,0,0,0,-1,601,512,0,0
-616,512,0,0,0,0,0,0,0,0,0,-1,608,512,0,0
-609,512,0,0,0,0,0,0,0,0,0,-1,615,512,0,0
-602,512,0,0,0,0,0,0,0,0,0,-1,622,512,0,0
-595,512,0,0,0,0,0,0,0,0,0,-1,629,512,0,0
-588,512,0,0,0,0,0,0,0,0,0,-1,636,512,0,0
-581,512,0,0,0,0,0,0,0,0,0,-1,643,512,0,0
-574,512,0,0,0,0,0,0,0,0,0,-1,650,512,0,0
-567,512,0,0,0,0,0,0,0,0,0,-1,657,512,0,0
-560,512,0,0,0,0,0,0,0,0,0,-1,664,512,0,0
-553,512,0,0,0,0,0,0,0,0,0,-1,671,512,0,0
-546,512,0,0,0,0,0,0,0,0,0,-1,678,512,0,0
-539,512,0,0,0,0,0,0,0,0,0,-1,685,512,0,0
-532,512,0,0,0,0,0,0,0,0,0,-1,692,512,0,0
-525,512,0,0,0,0,0,0,0,0,0,-1,699,512,0,0
-518,512,0,0,0,0,0,0,0,0,0,-1,706,512,0,0
-511,512,0,0,0,0,0,0,0,0,0,-1,713,512,0,0
-504,512,0,0,0,0,0,0,0,0,0,-1,720,512,0,0
-497,512,0,0,0,0,0,0,0,0,0,-1,727,512,0,0
-490,512,0,0,0,0,0,0,0,0,0,-1,734,512,0,0
-483,512,0,0,0,0,0,0,0,0,0,-1,741,512,0,0
-476,512,0,0,0,0,0,0,0,0,0,-1,748,512,0,0
-469,512,0,0,0,0,0,0,0,0,0,-1,755,512,0,0
-462,512,0,0,0,0,0,0,0,0,0,-1,762,512,0,0
-455,512,0,0,0,0,0,0,0,0,0,-1,769,512,0,0
-448,512,1.96283,-4.15674,0,0,0,0,0,0,0,-1,776,512,1.96285,4.15677
-441,512,1.78198,-4.88824,0,0,0,0,0,0,0,-1,783,512,1.78201,4.88826
-434,512,0.0726929,-9.85822,0,0,0,0,0,0,0,-1,790,512,0.0727008,9.85819
-427,512,-0.384583,-9.94824,0,0,0,0,0,0,0,-1,797,512,-0.384552,9.94823
-420,512,-2.93219,-12.4855,0,0,0,0,0,0,0,-1,804,512,-2.93219,12.4855
-413,512,-2.22711,-11.4485,0,0,0,0,0,0,0,-1,811,512,-2.22712,11.4485
-406,512,-2.06824,-12.4553,0,0,0,0,0,0,0,-1,818,512,-2.06827,12.4553
-399,512,-1.91101,-13.4295,0.012229,0.0207497,-0.0191344,0.0360923,-0.00311363,-0.894939,0.0251637,0.0483251,825,512,-1.911,13.4295
-392,512,-1.64288,-14.6022,0.0093571,0.0175188,-0.0159069,0.0298599,-0.00298405,-0.910963,0.0209722,0.0398699,832,512,-1.64287,14.6022
-385,512,-1.6983,-15.2968,0.00698942,0.014443,-0.0129865,0.0242269,-0.00279442,-0.925131,0.0171587,0.0196079,839,512,-1.69831,15.2968
-378,512,-1.79004,-15.8217,0.00517227,0.0118447,-0.0104809,0.0195076,-0.00249061,-0.939484,0.0139098,0.0155984,846,512,-1.79007,15.8217
-371,512,-1.79358,-16.3872,0.00379372,0.00958566,-0.00832565,0.0155046,-0.00212525,-0.952772,0.0111128,0.0127003,853,512,-1.79356,16.3872
-364,512,-1.78662,-16.9632,0.00271638,0.00758238,-0.00642375,0.0120184,-0.00171968,-0.966426,0.00864274,0.0102097,860,512,-1.78659,16.9632
-357,512,-1.81689,-17.4822,0.00194909,0.00590808,-0.0048639,0.00917987,-0.0013227,-0.978652,0.00660511,0.0114364,867,512,-1.81686,17.4822
-350,512,-1.83978,-17.9998,0.00145253,0.00440971,-0.00356441,0.00679004,-0.000927805,-0.982006,0.00486554,0.0118785,874,512,-1.83975,17.9998
-343,512,-1.88397,-18.5073,0.000929191,0.0028528,-0.0022447,0.00433307,-0.000551083,-0.987804,0.00308884,0.0127527,881,512,-1.88399,18.5073
-336,512,-1.93024,-19.0059,0.000825938,0.00167032,-0.00137012,0.00268182,-0.000185563,-0.934853,0.00185283,0.0135886,888,512,-1.93024,19.0059
-329,512,-1.89459,-19.4945,0.000974699,0.000644657,-0.000767127,0.00159435,2.50029e-05,-0.679455,0.00105467,0.0151096,895,512,-1.89461,19.4945
-322,512,-1.89478,-19.9951,0.00109914,-0.00033531,-0.000199336,0.00112633,-0.000362495,-0.135542,0.000896489,0.0127548,902,512,-1.8948,19.9951
-315,512,-1.91589,-20.4918,0.00124199,-0.00109971,0.000298047,0.00127933,-0.00113705,0.124631,0.0013959,0.0105069,909,512,-1.91588,20.4918
-308,512,-1.94006,-20.9684,0.00146069,-0.00183062,0.000740195,0.00161949,-0.00198942,0.211339,0.00208725,0.0102743,916,512,-1.94005,20.9684
-301,512,-1.93842,-21.4133,0.00161951,-0.00276354,0.00126939,0.0019606,-0.00310463,0.262502,0.00294917,0.0147707,923,512,-1.93841,21.4133
-294,512,-1.9342,-21.8668,0.00176016,-0.00338427,0.00173002,0.00228782,-0.00391194,0.296042,0.00362014,0.0153015,930,512,-1.93419,21.8668
-287,512,-2.01813,-22.2948,0.00200884,-0.00407447,0.00222849,0.00273784,-0.00480347,0.316154,0.00440808,0.0241034,937,512,-2.01811,22.2948
-280,512,-1.94617,-22.8154,0.00244057,-0.0056917,0.00283614,0.00333198,-0.0065831,0.304524,0.00582615,0.0418666,944,512,-1.94618,22.8153
-273,512,-1.8634,-23.3326,0,0,0,0,0,0,0,-1,951,512,-1.86338,23.3326
-266,512,-1.99103,-23.8209,0,0,0,0,0,0,0,-1,958,512,-1.99103,23.8209
-259,512,-0.525452,-14.0815,0,0,0,0,0,0,0,-1,965,512,-0.525475,14.0815
-252,512,1.45941,-3.43475,0,0,0,0,0,0,0,-1,972,512,1.45938,3.43475
-245,512,-1.6731,-22.8959,0,0,0,0,0,0,0,-1,979,512,-1.67312,22.8959
-238,512,0.227051,-8.92969,0,0,0,0,0,0,0,-1,986,512,0.227073,8.92968
-231,512,-2.54437,-10.169,0,0,0,0,0,0,0,-1,993,512,-2.54439,10.169
-224,512,-4.84601,-7.52783,0,0,0,0,0,0,0,-1,1000,512,-4.84602,7.52786
-217,512,-7.37274,-3.89563,0,0,0,0,0,0,0,-1,1007,512,-7.37274,3.89561
-210,512,-3.76642,-1.94702,0,0,0,0,0,0,0,-1,1014,512,-3.76641,1.94702
-203,512,-2.48328,-5.19061,0,0,0,0,0,0,0,-1,1021,512,-2.48328,5.19059
-196,512,-1.14929,-4.63202,0,0,0,0,0,0,0,-1,1028,512,-1.14934,4.632
-189,512,0.197998,4.55505,0,0,0,0,0,0,0,-1,1035,512,0.197996,-4.55506
-182,512,2.73938,0.0778503,0,0,0,0,0,0,0,-1,1042,512,2.73944,-0.077852
-175,512,2.29565,0.209808,0,0,0,0,0,0,0,-1,1049,512,2.29565,-0.209813
-168,512,2.09399,-0.302856,0,0,0,0,0,0,0,-1,1056,512,2.09403,0.302826
-161,512,2.76636,0.0921021,0,0,0,0,0,0,0,-1,1063,512,2.76633,-0.0921104
-154,512,3.41382,0.466187,0,0,0,0,0,0,0,-1,1070,512,3.41382,-0.466178
-147,512,0,0,0,0,0,0,0,0,0,-1,1077,512,0,0
-140,512,0,0,0,0,0,0,0,0,0,-1,1084,512,0,0
-133,512,0,0,0,0,0,0,0,0,0,-1,1091,512,0,0
-126,512,0,0,0,0,0,0,0,0,0,-1,1098,512,0,0
-119,512,0,0,0,0,0,0,0,0,0,-1,1105,512,0,0
-112,512,0,0,0,0,0,0,0,0,0,-1,1112,512,0,0
-105,512,0,0,0,0,0,0,0,0,0,-1,1119,512,0,0
-98,512,0,0,0,0,0,0,0,0,0,-1,1126,512,0,0
-91,512,0,0,0,0,0,0,0,0,0,-1,1133,512,0,0
-84,512,0,0,0,0,0,0,0,0,0,-1,1140,512,0,0
-77,512,0,0,0,0,0,0,0,0,0,-1,1147,512,0,0
-70,512,0,0,0,0,0,0,0,0,0,-1,1154,512,0,0
-63,512,0,0,0,0,0,0,0,0,0,-1,1161,512,0,0
-56,512,0,0,0,0,0,0,0,0,0,-1,1168,512,0,0
-49,512,0,0,0,0,0,0,0,0,0,-1,1175,512,0,0
-42,512,0,0,0,0,0,0,0,0,0,-1,1182,512,0,0
-35,512,0,0,0,0,0,0,0,0,0,-1,1189,512,0,0
-28,512,0,0,0,0,0,0,0,0,0,-1,1196,512,0,0
-21,512,0,0,0,0,0,0,0,0,0,-1,1203,512,0,0
-14,512,0,0,0,0,0,0,0,0,0,-1,1210,512,0,0
-7,512,0,0,0,0,0,0,0,0,0,-1,1217,512,0,0
0,512,0,0,0,0,0,0,0,0,0,-1,1224,512,0,0
7,512,0,0,0,0,0,0,0,0,0,-1,1231,512,0,0
14,512,0,0,0,0,0,0,0,0,0,-1,1238,512,0,0
21,512,0,0,0,0,0,0,0,0,0,-1,1245,512,0,0
28,512,0,0,0,0,0,0,0,0,0,-1,1252,512,0,0
35,512,0,0,0,0,0,0,0,0,0,-1,1259,512,0,0
42,512,0,0,0,0,0,0,0,0,0,-1,1266,512,0,0
49,512,0,0,0,0,0,0,0,0,0,-1,1273,512,0,0
56,512,0,0,0,0,0,0,0,0,0,-1,1280,512,0,0
63,512,0,0,0,0,0,0,0,0,0,-1,1287,512,0,0
70,512,0,0,0,0,0,0,0,0,0,-1,1294,512,0,0
77,512,0,0,0,0,0,0,0,0,0,-1,1301,512,0,0
84,512,0,0,0,0,0,0,0,0,0,-1,1308,512,0,0
91,512,0,0,0,0,0,0,0,0,0,-1,1315,512,0,0
98,512,0,0,0,0,0,0,0,0,0,-1,1322,512,0,0
105,512,0,0,0,0,0,0,0,0,0,-1,1329,512,0,0
112,512,0,0,0,0,0,0,0,0,0,-1,1336,512,0,0
119,512,0,0,0,0,0,0,0,0,0,-1,1343,512,0,0
126,512,0,0,0,0,0,0,0,0,0,-1,1350,512,0,0
133,512,0,0,0,0,0,0,0,0,0,-1,1357,512,0,0
140,512,0,0,0,0,0,0,0,0,0,-1,1364,512,0,0
147,512,0,0,0,0,0,0,0,0,0,-1,1371,512,0,0
154,512,0,0,0,0,0,0,0,0,0,-1,1378,512,0,0
161,512,0,0,0,0,0,0,0,0,0,-1,1385,512,0,0
168,512,0,0,0,0,0,0,0,0,0,-1,1392,512,0,0
175,512,0,0,0,0,0,0,0,0,0,-1,1399,512,0,0
182,512,0,0,0,0,0,0,0,0,0,-1,1406,512,0,0
189,512,0,0,0,0,0,0,0,0,0,-1,1413,512,0,0
196,512,0,0,0,0,0,0,0,0,0,-1,1420,512,0,0
203,512,0,0,0,0,0,0,0,0,0,-1,1427,512,0,0
210,512,0,0,0,0,0,0,0,0,0,-1,1434,512,0,0
217,512,0,0,0,0,0,0,0,0,0,-1,1441,512,0,0
224,512,0,0,0,0,0,0,0,0,0,-1,1448,512,0,0
231,512,0,0,0,0,0,0,0,0,0,-1,1455,512,0,0
238,512,0,0,0,0,0,0,0,0,0,-1,1462,512,0,0
245,512,0,0,0,0,0,0,0,0,0,-1,1469,512,0,0
252,512,0,0,0,0,0,0,0,0,0,-1,1476,512,0,0
259,512,0,0,0,0,0,0,0,0,0,-1,1483,512,0,0
266,512,0,0,0,0,0,0,0,0,0,-1,1490,512,0,0
273,512,4.00745,0.618622,0,0,0,0,0,0,0,-1,1497,512,4.00747,-0.618611
280,512,4.49609,0.649841,0,0,0,0,0,0,0,-1,1504,512,4.49612,-0.649834
287,512,4.77234,0.458069,0,0,0,0,0,0,0,-1,1511,512,4.77233,-0.458083
294,512,8.54956,-2.36273,0,0,0,0,0,0,0,-1,1518,512,8.54952,2.36274
301,512,6.302,-1.69092,0,0,0,0,0,0,0,-1,1525,512,6.30196,1.69093
308,512,8.2439,-6.22754,0,0,0,0,0,0,0,-1,1532,512,8.24394,6.22757
315,512,7.53687,-6.04211,0,0,0,0,0,0,0,-1,1539,512,7.53691,6.04211
322,512,6.82983,-5.85663,0,0,0,0,0,0,0,-1,1546,512,6.82988,5.85666
329,512,4.38147,-0.329651,0,0,0,0,0,0,0,-1,1553,512,4.38144,0.329662
336,512,4.41467,-0.741455,0,0,0,0,0,0,0,-1,1560,512,4.41467,0.741442
343,512,4.44727,-1.21667,0,0,0,0,0,0,0,-1,1567,512,4.44732,1.21666
350,512,4.55469,-1.65082,0,0,0,0,0,0,0,-1,1574,512,4.5547,1.65083
357,512,5.79993,-2.67456,0,0,0,0,0,0,0,-1,1581,512,5.79991,2.67454
364,512,8.56641,-24.3753,0,0,0,0,0,0,0,-1,1588,512,8.56646,24.3753
371,512,5.28467,-7.69269,0,0,0,0,0,0,0,-1,1595,512,5.28464,7.69269
378,512,6.29407,-9.88055,0,0,0,0,0,0,0,-1,1602,512,6.29412,9.88057
385,512,6.45569,-9.32233,0,0,0,0,0,0,0,-1,1609,512,6.45565,9.3223
392,512,6.35522,-8.98425,0,0,0,0,0,0,0,-1,1616,512,6.35526,8.98422
399,512,7.5304,-12.1449,0,0,0,0,0,0,0,-1,1623,512,7.53042,12.1449
406,512,11.4788,-21.9637,0,0,0,0,0,0,0,-1,1630,512,11.4788,21.9637
413,512,11.429,-21.5217,0,0,0,0,0,0,0,-1,1637,512,11.429,21.5217
420,512,11.464,-20.8949,0.00234205,0.00215151,0.000479077,0.00273524,0.00175832,0.68725,0.00160053,0.0257804,1644,512,11.464,20.8949
427,512,11.4561,-20.3494,0.00213531,0.00217676,0.000564845,0.00272126,0.00159081,0.803736,0.0015786,0.0157883,1651,512,11.456,20.3493
434,512,11.4498,-19.8301,0.00183644,0.00209282,0.000590716,0.00256909,0.00136016,0.892244,0.00148412,0.0119142,1658,512,11.4498,19.8301
441,512,11.4263,-19.3317,0.00158008,0.00197802,0.000681276,0.00248879,0.00106932,0.927474,0.00144164,0.0135326,1665,512,11.4263,19.3317
448,512,11.3912,-18.8354,0.00143935,0.00181947,0.000826411,0.00247739,0.000781423,0.898424,0.00146245,0.0091753,1672,512,11.3913,18.8355
455,512,11.3762,-18.3216,0.00124175,0.00176124,0.000954617,0.00249082,0.00051217,0.918229,0.00151888,0.00857538,1679,512,11.3762,18.3216
462,512,11.3772,-17.8014,0.00108664,0.0016693,0.00109047,0.00250668,0.000249251,0.915929,0.00159455,0.00923778,1686,512,11.3772,17.8014
469,512,11.371,-17.2514,0.000961441,0.00135655,0.001295,0.00246898,-0.000150988,0.86109,0.00169855,0.0117238,1693,512,11.3709,17.2514
476,512,11.3481,-16.715,0.000631039,0.000828555,0.00159619,0.00232904,-0.000869448,0.816294,0.00190967,0.0152563,1700,512,11.3482,16.715
483,512,11.3439,-16.1735,0.000248379,0.000220812,0.00181573,0.00205038,-0.00158119,0.781603,0.00210251,0.0142866,1707,512,11.3438,16.1735
490,512,11.3368,-15.6246,-0.00026723,-0.000687066,0.00205883,0.00159235,-0.00254665,0.734594,0.00241073,0.0112304,1714,512,11.3368,15.6246
497,512,11.3236,-15.0855,-0.000877647,-0.00190968,0.00233625,0.000998898,-0.00378623,0.676706,0.00291474,0.0118226,1721,512,11.3236,15.0855
504,512,11.2828,-14.5243,-0.00164343,-0.00352724,0.00262602,0.000204493,-0.00537517,0.613205,0.00365352,0.0130343,1728,512,11.2828,14.5243
511,512,11.2274,-13.9465,-0.00260163,-0.00561016,0.0028963,-0.000842253,-0.00736953,0.545884,0.00465772,0.0144523,1735,512,11.2274,13.9465
518,512,11.224,-13.4005,-0.00379969,-0.00797395,0.00316002,-0.00209976,-0.00967388,0.493544,0.00587576,0.0188001,1742,512,11.2241,13.4004
525,512,10.9115,-13.0513,-0.00532526,-0.0107536,0.00337461,-0.00370876,-0.0123701,0.446721,0.00733021,0.0431747,1749,512,10.9116,13.0513
532,512,10.7062,-12.4996,0,0,0,0,0,0,0,-1,1756,512,10.7062,12.4995
539,512,7.05908,-7.00647,0,0,0,0,0,0,0,-1,1763,512,7.05909,7.00647
546,512,2.77551,-0.66449,0,0,0,0,0,0,0,-1,1770,512,2.77548,0.664503
553,512,3.927,-0.448853,0,0,0,0,0,0,0,-1,1777,512,3.92704,0.448843
560,512,3.55762,-0.201233,0,0,0,0,0,0,0,-1,1784,512,3.55768,0.201259
567,512,3.09045,0.191193,0,0,0,0,0,0,0,-1,1791,512,3.09045,-0.191203
574,512,0,0,0,0,0,0,0,0,0,-1,1798,512,0,0
581,512,0,0,0,0,0,0,0,0,0,-1,1805,512,0,0
588,512,0,0,0,0,0,0,0,0,0,-1,1812,512,0,0
595,512,0,0,0,0,0,0,0,0,0,-1,1819,512,0,0
602,512,0,0,0,0,0,0,0,0,0,-1,1826,512,0,0
609,512,0,0,0,0,0,0,0,0,0,-1,1833,512,0,0
616,512,0,0,0,0,0,0,0,0,0,-1,1840,512,0,0
623,512,0,0,0,0,0,0,0,0,0,-1,1847,512,0,0
630,512,0,0,0,0,0,0,0,0,0,-1,1854,512,0,0
637,512,0,0,0,0,0,0,0,0,0,-1,1861,512,0,0
644,512,0,0,0,0,0,0,0,0,0,-1,1868,512,0,0
651,512,0,0,0,0,0,0,0,0,0,-1,1875,512,0,0
658,512,0,0,0,0,0,0,0,0,0,-1,1882,512,0,0
665,512,0,0,0,0,0,0,0,0,0,-1,1889,512,0,0
672,512,0,0,0,0,0,0,0,0,0,-1,1896,512,0,0
679,512,0,0,0,0,0,0,0,0,0,-1,1903,512,0,0
686,512,0,0,0,0,0,0,0,0,0,-1,1910,512,0,0
693,512,0,0,0,0,0,0,0,0,0,-1,1917,512,0,0
700,512,0,0,0,0,0,0,0,0,0,-1,1924,512,0,0
707,512,0,0,0,0,0,0,0,0,0,-1,1931,512,0,0
714,512,0,0,0,0,0,0,0,0,0,-1,1938,512,0,0
721,512,0,0,0,0,0,0,0,0,0,-1,1945,512,0,0
728,512,0,0,0,0,0,0,0,0,0,-1,1952,512,0,0
735,512,0,0,0,0,0,0,0,0,0,-1,1959,512,0,0
742,512,0,0,0,0,0,0,0,0,0,-1,1966,512,0,0
749,512,0,0,0,0,0,0,0,0,0,-1,1973,512,0,0
756,512,0,0,0,0,0,0,0,0,0,-1,1980,512,0,0
763,512,0,0,0,0,0,0,0,0,0,-1,1987,512,0,0
770,512,0,0,0,0,0,0,0,0,0,-1,1994,512,0,0
777,512,0,0,0,0,0,0,0,0,0,-1,2001,512,0,0
784,512,0,0,0,0,0,0,0,0,0,-1,2008,512,0,0
791,512,0,0,0,0,0,0,0,0,0,-1,2015,512,0,0
798,512,0,0,0,0,0,0,0,0,0,-1,2022,512,0,0
805,512,0,0,0,0,0,0,0,0,0,-1,2029,512,0,0
812,512,0,0,0,0,0,0,0,0,0,-1,2036,512,0,0
-700,505,0,0,0,0,0,0,0,0,0,-1,524,519,0,0
-693,505,0,0,0,0,0,0,0,0,0,-1,531,519,0,0
-686,505,0,0,0,0,0,0,0,0,0,-1,538,519,0,0
-679,505,0,0,0,0,0,0,0,0,0,-1,545,519,0,0
-672,505,0,0,0,0,0,0,0,0,0,-1,552,519,0,0
-665,505,0,0,0,0,0,0,0,0,0,-1,559,519,0,0
-658,505,0,0,0,0,0,0,0,0,0,-1,566,519,0,0
-651,505,0,0,0,0,0,0,0,0,0,-1,573,519,0,0
-644,505,0,0,0,0,0,0,0,0,0,-1,580,519,0,0
-637,505,0,0,0,0,0,0,0,0,0,-1,587,519,0,0
-630,505,0,0,0,0,0,0,0,0,0,-1,594,519,0,0
-623,505,0,0,0,0,0,0,0,0,0,-1,601,519,0,0
-616,505,0,0,0,0,0,0,0,0,0,-1,608,519,0,0
-609,505,0,0,0,0,0,0,0,0,0,-1,615,519,0,0
-602,505,0,0,0,0,0,0,0,0,0,-1,622,519,0,0
-595,505,0,0,0,0,0,0,0,0,0,-1,629,519,0,0
-588,505,0,0,0,0,0,0,0,0,0,-1,636,519,0,0
-581,505,0,0,0,0,0,0,0,0,0,-1,643,519,0,0
-574,505,0,0,0,0,0,0,0,0,0,-1,650,519,0,0
-567,505,0,0,0,0,0,0,0,0,0,-1,657,519,0,0
-560,505,0,0,0,0,0,0,0,0,0,-1,664,519,0,0
-553,505,0,0,0,0,0,0,0,0,0,-1,671,519,0,0
-546,505,0,0,0,0,0,0,0,0,0,-1,678,519,0,0
-539,505,0,0,0,0,0,0,0,0,0,-1,685,519,0,0
-532,505,0,0,0,0,0,0,0,0,0,-1,692,519,0,0
-525,505,0,0,0,0,0,0,0,0,0,-1,699,519,0,0
-518,505,0,0,0,0,0,0,0,0,0,-1,706,519,0,0
-511,505,0,0,0,0,0,0,0,0,0,-1,713,519,0,0
-504,505,0,0,0,0,0,0,0,0,0,-1,720,519,0,0
-497,505,0,0,0,0,0,0,0,0,0,-1,727,519,0,0
-490,505,0,0,0,0,0,0,0,0,0,-1,734,519,0,0
-483,505,0,0,0,0,0,0,0,0,0,-1,741,519,0,0
-476,505,0,0,0,0,0,0,0,0,0,-1,748,519,0,0
-469,505,0,0,0,0,0,0,0,0,0,-1,755,519,0,0
-462,505,0,0,0,0,0,0,0,0,0,-1,762,519,0,0
-455,505,2.72137,-3.26379,0,0,0,0,0,0,0,-1,769,519,2.72135,3.26377
-448,505,2.51111,-3.94989,0,0,0,0,0,0,0,-1,776,519,2.51112,3.94986
-441,505,2.80212,-6.8902,0,0,0,0,0,0,0,-1,783,519,2.80209,6.89019
-434,505,-0.155212,-10.6374,0,0,0,0,0,0,0,-1,790,519,-0.155194,10.6374
-427,505,-0.474426,-10.4702,0,0,0,0,0,0,0,-1,797,519,-0.474433,10.4702
-420,505,-0.922546,-10.1928,0,0,0,0,0,0,0,-1,804,519,-0.92257,10.1928
-413,505,-3.33948,-13.6183,0,0,0,0,0,0,0,-1,811,519,-3.33949,13.6184
-406,505,-2.43744,-12.7195,0,0,0,0,0,0,0,-1,818,519,-2.43747,12.7196
-399,505,-2.52924,-13.4518,0.00872272,0.0170815,-0.014871,0.0283492,-0.00254499,-0.922386,0.0198024,0.0453937,825,519,-2.52923,13.4518
-392,505,-2.19952,-14.6841,0.0068934,0.0142981,-0.0124976,0.0236302,-0.00243877,-0.929401,0.0166261,0.0219267,832,519,-2.19954,14.6841
-385,505,-2.24481,-15.3286,0.00535315,0.0116409,-0.0102602,0.0192281,-0.00223404,-0.934064,0.0136246,0.00973634,839,519,-2.24482,15.3286
-378,505,-2.29962,-15.8724,0.00417336,0.00939772,-0.00835343,0.0155379,-0.00196679,-0.936935,0.0110726,0.0109714,846,519,-2.2996,15.8723
-371,505,-2.29425,-16.4334,0.00320225,0.00732247,-0.00665367,0.0122277,-0.00170294,-0.935528,0.00877468,0.0144343,853,519,-2.29423,16.4334
-364,505,-2.30664,-16.9684,0.0024076,0.00544519,-0.00508375,0.00923217,-0.00137938,-0.930556,0.00666234,0.0157749,860,519,-2.30665,16.9684
-357,505,-2.31299,-17.4877,0.00186902,0.00391563,-0.0037601,0.00678918,-0.00100453,-0.918255,0.00489544,0.0127737,867,519,-2.31302,17.4877
-350,505,-2.33356,-17.9904,0.00154603,0.00255079,-0.00264702,0.00474269,-0.000645866,-0.879178,0.0033976,0.011854,874,519,-2.33354,17.9904
-343,505,-2.36652,-18.496,0.00122044,0.00115943,-0.0015307,0.00272094,-0.000341067,-0.775435,0.00193768,0.00928942,881,519,-2.36652,18.4959
-336,505,-2.40961,-18.9839,0.00121197,9.76095e-05,-0.000750031,0.00158913,-0.000279554,-0.465936,0.00116385,0.0114649,888,519,-2.40959,18.9839
-329,505,-2.38367,-19.4612,0.00139837,-0.000799509,-0.000175045,0.00141223,-0.000813362,-0.0789793,0.00130036,0.0168596,895,519,-2.38366,19.4612
-322,505,-2.37164,-19.9987,0.00156357,-0.00156325,0.000379183,0.00160889,-0.00160858,0.118971,0.00185761,0.0194657,902,519,-2.37162,19.9987
-315,505,-2.40015,-20.4991,0.00174342,-0.0021677,0.000881895,0.00193307,-0.00235736,0.21183,0.00248112,0.0142616,909,519,-2.40016,20.4991
-308,505,-2.41913,-20.924,0.00202344,-0.00278211,0.00134261,0.00237311,-0.00313178,0.254778,0.00318829,0.0112386,916,519,-2.41912,20.924
-301,505,-2.40234,-21.4043,0.00220251,-0.00358555,0.00194105,0.00279317,-0.00417621,0.295398,0.0040501,0.0166858,923,519,-2.40232,21.4043
-294,505,-2.42395,-21.8768,0,0,0,0,0,0,0,-1,930,519,-2.42393,21.8768
-287,505,-2.50281,-22.3956,0,0,0,0,0,0,0,-1,937,519,-2.5028,22.3956
-280,505,-2.35895,-23.0372,0,0,0,0,0,0,0,-1,944,519,-2.35894,23.0372
-273,505,-0.0680542,-9.44867,0,0,0,0,0,0,0,-1,951,519,-0.0680462,9.44866
-266,505,-0.036377,-9.07922,0,0,0,0,0,0,0,-1,958,519,-0.0364055,9.0792
-259,505,0.10321,-6.69824,0,0,0,0,0,0,0,-1,965,519,0.103235,6.69826
-252,505,6.82312,-15.6972,0,0,0,0,0,0,0,-1,972,519,6.82314,15.6972
-245,505,4.26727,-12.9861,0,0,0,0,0,0,0,-1,979,519,4.2673,12.9861
-238,505,1.67432,-11.2307,0,0,0,0,0,0,0,-1,986,519,1.67429,11.2307
-231,505,-0.958435,-8.3075,0,0,0,0,0,0,0,-1,993,519,-0.958421,8.30751
-224,505,-3.69653,-5.12732,0,0,0,0,0,0,0,-1,1000,519,-3.69653,5.12733
-217,505,-6.34302,-1.65533,0,0,0,0,0,0,0,-1,1007,519,-6.34299,1.65535
-210,505,-3.06128,-0.396301,0,0,0,0,0,0,0,-1,1014,519,-3.06129,0.396294
-203,505,-4.26465,2.03607,0,0,0,0,0,0,0,-1,1021,519,-4.26462,-2.03606
-196,505,-5.47595,4.27295,0,0,0,0,0,0,0,-1,1028,519,-5.47597,-4.27292
-189,505,1.51526,5.56207,0,0,0,0,0,0,0,-1,1035,519,1.51523,-5.56209
-182,505,2.97815,7.5097,0,0,0,0,0,0,0,-1,1042,519,2.97812,-7.5097
-175,505,-2.38416,-2.17548,0,0,0,0,0,0,0,-1,1049,519,-2.38411,2.1755
-168,505,0,0,0,0,0,0,0,0,0,-1,1056,519,0,0
-161,505,0,0,0,0,0,0,0,0,0,-1,1063,519,0,0
-154,505,0,0,0,0,0,0,0,0,0,-1,1070,519,0,0
-147,505,0,0,0,0,0,0,0,0,0,-1,1077,519,0,0
-140,505,0,0,0,0,0,0,0,0,0,-1,1084,519,0,0
-133,505,0,0,0,0,0,0,0,0,0,-1,1091,519,0,0
-126,505,0,0,0,0,0,0,0,0,0,-1,1098,519,0,0
-119,505,0,0,0,0,0,0,0,0,0,-1,1105,519,0,0
-112,505,0,0,0,0,0,0,0,0,0,-1,1112,519,0,0
-105,505,0,0,0,0,0,0,0,0,0,-1,1119,519,0,0
-98,505,0,0,0,0,0,0,0,0,0,-1,1126,519,0,0
-91,505,0,0,0,0,0,0,0,0,0,-1,1133,519,0,0
-84,505,0,0,0,0,0,0,0,0,0,-1,1140,519,0,0
-77,505,0,0,0,0,0,0,0,0,0,-1,1147,519,0,0
-70,505,0,0,0,0,0,0,0,0,0,-1,1154,519,0,0
-63,505,0,0,0,0,0,0,0,0,0,-1,1161,519,0,0
-56,505,0,0,0,0,0,0,0,0,0,-1,1168,519,0,0
-49,505,0,0,0,0,0,0,0,0,0,-1,1175,519,0,0
-42,505,0,0,0,0,0,0,0,0,0,-1,1182,519,0,0
-35,505,0,0,0,0,0,0,0,0,0,-1,1189,519,0,0
-28,505,0,0,0,0,0,0,0,0,0,-1,1196,519,0,0
-21,505,0,0,0,0,0,0,0,0,0,-1,1203,519,0,0
-14,505,0,0,0,0,0,0,0,0,0,-1,1210,519,0,0
-7,505,0,0,0,0,0,0,0,0,0,-1,1217,519,0,0
0,505,0,0,0,0,0,0,0,0,0,-1,1224,519,0,0
7,505,0,0,0,0,0,0,0,0,0,-1,1231,519,0,0
14,505,0,0,0,0,0,0,0,0,0,-1,1238,519,0,0
21,505,0,0,0,0,0,0,0,0,0,-1,1245,519,0,0
28,505,0,0,0,0,0,0,0,0,0,-1,1252,519,0,0
35,505,0,0,0,0,0,0,0,0,0,-1,1259,519,0,0
42,505,0,0,0,0,0,0,0,0,0,-1,1266,519,0,0
49,505,0,0,0,0,0,0,0,0,0,-1,1273,519,0,0
56,505,0,0,0,0,0,0,0,0,0,-1,1280,519,0,0
63,505,0,0,0,0,0,0,0,0,0,-1,1287,519,0,0
70,505,0,0,0,0,0,0,0,0,0,-1,1294,519,0,0
77,505,0,0,0,0,0,0,0,0,0,-1,1301,519,0,0
84,505,0,0,0,0,0,0,0,0,0,-1,1308,519,0,0
91,505,0,0,0,0,0,0,0,0,0,-1,1315,519,0,0
98,505,0,0,0,0,0,0,0,0,0,-1,1322,519,0,0
105,505,0,0,0,0,0,0,0,0,0,-1,1329,519,0,0
112,505,0,0,0,0,0,0,0,0,0,-1,1336,519,0,0
119,505,0,0,0,0,0,0,0,0,0,-1,1343,519,0,0
126,505,0,0,0,0,0,0,0,0,0,-1,1350,519,0,0
133,505,0,0,0,0,0,0,0,0,0,-1,1357,519,0,0
140,505,0,0,0,0,0,0,0,0,0,-1,1364,519,0,0
147,505,0,0,0,0,0,0,0,0,0,-1,1371,519,0,0
154,505,0,0,0,0,0,0,0,0,0,-1,1378,519,0,0
161,505,0,0,0,0,0,0,0,0,0,-1,1385,519,0,0
168,505,0,0,0,0,0,0,0,0,0,-1,1392,519,0,0
175,505,0,0,0,0,0,0,0,0,0,-1,1399,519,0,0
182,505,0,0,0,0,0,0,0,0,0,-1,1406,519,0,0
189,505,0,0,0,0,0,0,0,0,0,-1,1413,519,0,0
196,505,0,0,0,0,0,0,0,0,0,-1,1420,519,0,0
203,505,0,0,0,0,0,0,0,0,0,-1,1427,519,0,0
210,505,0,0,0,0,0,0,0,0,0,-1,1434,519,0,0
217,505,0,0,0,0,0,0,0,0,0,-1,1441,519,0,0
224,505,0,0,0,0,0,0,0,0,0,-1,1448,519,0,0
231,505,0,0,0,0,0,0,0,0,0,-1,1455,519,0,0
238,505,0,0,0,0,0,0,0,0,0,-1,1462,519,0,0
245,505,0,0,0,0,0,0,0,0,0,-1,1469,519,0,0
252,505,0,0,0,0,0,0,0,0,0,-1,1476,519,0,0
259,505,0,0,0,0,0,0,0,0,0,-1,1483,519,0,0
266,505,0,0,0,0,0,0,0,0,0,-1,1490,519,0,0
273,505,0,0,0,0,0,0,0,0,0,-1,1497,519,0,0
280,505,0,0,0,0,0,0,0,0,0,-1,1504,519,0,0
287,505,4.39478,0.499512,0,0,0,0,0,0,0,-1,1511,519,4.39476,-0.499506
294,505,4.88867,0.0822754,0,0,0,0,0,0,0,-1,1518,519,4.88871,-0.0822748
301,505,4.82153,-0.0704346,0,0,0,0,0,0,0,-1,1525,519,4.82156,0.0704312
308,505,4.67761,-0.29187,0,0,0,0,0,0,0,-1,1532,519,4.67762,0.291845
315,505,8.44055,-6.54352,0,0,0,0,0,0,0,-1,1539,519,8.44059,6.54349
322,505,4.78955,-0.594116,0,0,0,0,0,0,0,-1,1546,519,4.78957,0.594096
329,505,5.16321,0.434631,0,0,0,0,0,0,0,-1,1553,519,5.16316,-0.434614
336,505,4.94495,-0.920471,0,0,0,0,0,0,0,-1,1560,519,4.945,0.920495
343,505,5.01855,-1.4823,0,0,0,0,0,0,0,-1,1567,519,5.01851,1.48227
350,505,5.33154,-1.77838,0,0,0,0,0,0,0,-1,1574,519,5.33152,1.77838
357,505,5.56567,-1.9425,0,0,0,0,0,0,0,-1,1581,519,5.56562,1.94248
364,505,5.85205,-2.6579,0,0,0,0,0,0,0,-1,1588,519,5.85211,2.65788
371,505,5.88477,-7.00922,0,0,0,0,0,0,0,-1,1595,519,5.88473,7.00924
378,505,5.44104,-7.10162,0,0,0,0,0,0,0,-1,1602,519,5.44099,7.10162
385,505,6.64661,-8.65015,0,0,0,0,0,0,0,-1,1609,519,6.64662,8.65014
392,505,6.34558,-8.3429,0,0,0,0,0,0,0,-1,1616,519,6.34554,8.34288
399,505,7.45898,-9.70386,0,0,0,0,0,0,0,-1,1623,519,7.45899,9.70388
406,505,7.08679,-9.4928,0,0,0,0,0,0,0,-1,1630,519,7.08678,9.49278
413,505,8.4032,-14.0308,0,0,0,0,0,0,0,-1,1637,519,8.4032,14.0308
420,505,11.9282,-21.0822,0,0,0,0,0,0,0,-1,1644,519,11.9282,21.0822
427,505,11.9696,-20.4453,0.00257894,0.00297021,0.000823213,0.00362071,0.00192844,0.902056,0.0020919,0.0301063,1651,519,11.9696,20.4452
434,505,11.9404,-19.8311,0.00217926,0.00261161,0.000663869,0.00309361,0.00169725,0.942799,0.00178891,0.0119453,1658,519,11.9404,19.8311
441,505,11.9402,-19.2922,0.00185374,0.00224706,0.000595516,0.00267755,0.00142325,0.944879,0.00154691,0.0105336,1665,519,11.9401,19.2922
448,505,11.9279,-18.7859,0.00168637,0.0018389,0.000622328,0.00238962,0.00113565,0.846366,0.00138021,0.0106179,1672,519,11.9278,18.7859
455,505,11.9115,-18.2717,0.00144364,0.00161648,0.000667461,0.00220309,0.000857028,0.849775,0.00128236,0.0110086,1679,519,11.9115,18.2717
462,505,11.8798,-17.7631,0.00123249,0.00146008,0.000757724,0.00211251,0.000580063,0.859934,0.00126029,0.0110454,1686,519,11.8797,17.7631
469,505,11.8936,-17.2289,0.00107861,0.00122936,0.000924088,0.00208114,0.000226824,0.826092,0.00131834,0.0114773,1693,519,11.8935,17.2289
476,505,11.8625,-16.7103,0.000757705,0.000826332,0.00115527,0.00194779,-0.000363756,0.800245,0.00143523,0.0121585,1700,519,11.8626,16.7103
483,505,11.8619,-16.1843,0.000364786,0.000345199,0.00134001,0.00169503,-0.000985049,0.781744,0.00156534,0.0133481,1707,519,11.862,16.1843
490,505,11.856,-15.6271,-0.000173409,-0.00034176,0.00152225,0.00126699,-0.00178216,0.757778,0.00176878,0.0124422,1714,519,11.8559,15.6271
497,505,11.8374,-15.0922,-0.000793467,-0.00127519,0.00173514,0.000717448,-0.0027861,0.716432,0.00213708,0.0120033,1721,519,11.8374,15.0922
504,505,11.7964,-14.5291,-0.0015311,-0.00249792,0.00195134,-4.18467e-06,-0.00402484,0.663976,0.00268183,0.0127709,1728,519,11.7963,14.5291
511,505,11.7484,-13.9719,-0.00244583,-0.00400471,0.00212999,-0.000957143,-0.0054934,0.609998,0.00338858,0.0149205,1735,519,11.7485,13.9719
518,505,11.7875,-13.4081,-0.00357991,-0.00575065,0.00220747,-0.00220541,-0.00712515,0.556913,0.00421203,0.0212354,1742,519,11.7874,13.4081
525,505,11.5514,-12.8136,-0.00492329,-0.00785999,0.00217774,-0.00376511,-0.00901816,0.48878,0.00523021,0.0329406,1749,519,11.5514,12.8136
532,505,11.3164,-12.3181,0,0,0,0,0,0,0,-1,1756,519,11.3164,12.3181
539,505,7.90369,-7.11932,0,0,0,0,0,0,0,-1,1763,519,7.90373,7.11932
546,505,7.94946,-6.64539,0,0,0,0,0,0,0,-1,1770,519,7.94947,6.64539
553,505,2.82837,0.162659,0,0,0,0,0,0,0,-1,1777,519,2.82841,-0.162672
560,505,3.66223,-0.479797,0,0,0,0,0,0,0,-1,1784,519,3.66219,0.47982
567,505,4.65271,-0.950256,0,0,0,0,0,0,0,-1,1791,519,4.65274,0.95028
574,505,5.54443,-1.19977,0,0,0,0,0,0,0,-1,1798,519,5.54443,1.19974
581,505,0,0,0,0,0,0,0,0,0,-1,1805,519,0,0
588,505,0,0,0,0,0,0,0,0,0,-1,1812,519,0,0
595,505,0,0,0,0,0,0,0,0,0,-1,1819,519,0,0
602,505,0,0,0,0,0,0,0,0,0,-1,1826,519,0,0
609,505,0,0,0,0,0,0,0,0,0,-1,1833,519,0,0
616,505,0,0,0,0,0,0,0,0,0,-1,1840,519,0,0
623,505,0,0,0,0,0,0,0,0,0,-1,1847,519,0,0
630,505,0,0,0,0,0,0,0,0,0,-1,1854,519,0,0
637,505,0,0,0,0,0,0,0,0,0,-1,1861,519,0,0
644,505,0,0,0,0,0,0,0,0,0,-1,1868,519,0,0
651,505,0,0,0,0,0,0,0,0,0,-1,1875,519,0,0
658,505,0,0,0,0,0,0,0,0,0,-1,1882,519,0,0
665,505,0,0,0,0,0,0,0,0,0,-1,1889,519,0,0
672,505,0,0,0,0,0,0,0,0,0,-1,1896,519,0,0
679,505,0,0,0,0,0,0,0,0,0,-1,1903,519,0,0
686,505,0,0,0,0,0,0,0,0,0,-1,1910,519,0,0
693,505,0,0,0,0,0,0,0,0,0,-1,1917,519,0,0
700,505,0,0,0,0,0,0,0,0,0,-1,1924,519,0,0
707,505,0,0,0,0,0,0,0,0,0,-1,1931,519,0,0
714,505,0,0,0,0,0,0,0,0,0,-1,1938,519,0,0
721,505,0,0,0,0,0,0,0,0,0,-1,1945,519,0,0
728,505,0,0,0,0,0,0,0,0,0,-1,1952,519,0,0
735,505,0,0,0,0,0,0,0,0,0,-1,1959,519,0,0
742,505,0,0,0,0,0,0,0,0,0,-1,1966,519,0,0
749,505,0,0,0,0,0,0,0,0,0,-1,1973,519,0,0
756,505,0,0,0,0,0,0,0,0,0,-1,1980,519,0,0
763,505,0,0,0,0,0,0,0,0,0,-1,1987,519,0,0
770,505,0,0,0,0,0,0,0,0,0,-1,1994,519,0,0
777,505,0,0,0,0,0,0,0,0,0,-1,2001,519,0,0
784,505,0,0,0,0,0,0,0,0,0,-1,2008,519,0,0
791,505,0,0,0,0,0,0,0,0,0,-1,2015,519,0,0
798,505,0,0,0,0,0,0,0,0,0,-1,2022,519,0,0
805,505,0,0,0,0,0,0,0,0,0,-1,2029,519,0,0
812,505,0,0,0,0,0,0,0,0,0,-1,2036,519,0,0
-700,498,0,0,0,0,0,0,0,0,0,-1,524,526,0,0
-693,498,0,0,0,0,0,0,0,0,0,-1,531,526,0,0
-686,498,0,0,0,0,0,0,0,0,0,-1,538,526,0,0
-679,498,0,0,0,0,0,0,0,0,0,-1,545,526,0,0
-672,498,0,0,0,0,0,0,0,0,0,-1,552,526,0,0
-665,498,0,0,0,0,0,0,0,0,0,-1,559,526,0,0
-658,498,0,0,0,0,0,0,0,0,0,-1,566,526,0,0
-651,498,0,0,0,0,0,0,0,0,0,-1,573,526,0,0
-644,498,0,0,0,0,0,0,0,0,0,-1,580,526,0,0
-637,498,0,0,0,0,0,0,0,0,0,-1,587,526,0,0
-630,498,0,0,0,0,0,0,0,0,0,-1,594,526,0,0
-623,498,0,0,0,0,0,0,0,0,0,-1,601,526,0,0
-616,498,0,0,0,0,0,0,0,0,0,-1,608,526,0,0
-609,498,0,0,0,0,0,0,0,0,0,-1,615,526,0,0
-602,498,0,0,0,0,0,0,0,0,0,-1,622,526,0,0
-595,498,0,0,0,0,0,0,0,0,0,-1,629,526,0,0
-588,498,0,0,0,0,0,0,0,0,0,-1,636,526,0,0
-581,498,0,0,0,0,0,0,0,0,0,-1,643,526,0,0
-574,498,0,0,0,0,0,0,0,0,0,-1,650,526,0,0
-567,498,0,0,0,0,0,0,0,0,0,-1,657,526,0,0
-560,498,0,0,0,0,0,0,0,0,0,-1,664,526,0,0
-553,498,0,0,0,0,0,0,0,0,0,-1,671,526,0,0
-546,498,0,0,0,0,0,0,0,0,0,-1,678,526,0,0
-539,498,0,0,0,0,0,0,0,0,0,-1,685,526,0,0
-532,498,0,0,0,0,0,0,0,0,0,-1,692,526,0,0
-525,498,0,0,0,0,0,0,0,0,0,-1,699,526,0,0
-518,498,0,0,0,0,0,0,0,0,0,-1,706,526,0,0
-511,498,0,0,0,0,0,0,0,0,0,-1,713,526,0,0
-504,498,0,0,0,0,0,0,0,0,0,-1,720,526,0,0
-497,498,0,0,0,0,0,0,0,0,0,-1,727,526,0,0
-490,498,0,0,0,0,0,0,0,0,0,-1,734,526,0,0
-483,498,0,0,0,0,0,0,0,0,0,-1,741,526,0,0
-476,498,0,0,0,0,0,0,0,0,0,-1,748,526,0,0
-469,498,0,0,0,0,0,0,0,0,0,-1,755,526,0,0
-462,498,6.81024,1.15515,0,0,0,0,0,0,0,-1,762,526,6.81026,-1.15514
-455,498,3.25757,-3.0592,0,0,0,0,0,0,0,-1,769,526,3.25754,3.05921
-448,498,3.05939,-3.74298,0,0,0,0,0,0,0,-1,776,526,3.05939,3.74296
-441,498,2.77191,-6.08209,0,0,0,0,0,0,0,-1,783,526,2.77189,6.08207
-434,498,2.10681,-6.95929,0,0,0,0,0,0,0,-1,790,526,2.10682,6.9593
-427,498,-0.368042,-10.7726,0,0,0,0,0,0,0,-1,797,526,-0.36807,10.7726
-420,498,-1.05035,-10.5142,0,0,0,0,0,0,0,-1,804,526,-1.05034,10.5142
-413,498,-3.0575,-12.3035,0,0,0,0,0,0,0,-1,811,526,-3.0575,12.3035
-406,498,-2.86731,-13.1481,0,0,0,0,0,0,0,-1,818,526,-2.86732,13.1481
-399,498,-2.69116,-14.0793,0.00599223,0.0137008,-0.0112817,0.0217685,-0.00207543,-0.950002,0.0152513,0.0239934,825,526,-2.69115,14.0793
-392,498,-2.74512,-14.7746,0.00490707,0.0113319,-0.00953348,0.0181797,-0.00194067,-0.947905,0.0128157,0.0122278,832,526,-2.7451,14.7746
-385,498,-2.76923,-15.3312,0.00400132,0.0090852,-0.00784885,0.0147935,-0.00170695,-0.941999,0.0104777,0.00955094,839,526,-2.76922,15.3313
-378,498,-2.78326,-15.8543,0.00332146,0.00719514,-0.00637766,0.0119236,-0.00140698,-0.932818,0.00845715,0.010427,846,526,-2.78324,15.8543
-371,498,-2.78943,-16.392,0.00270888,0.00536542,-0.00500913,0.00921939,-0.00114509,-0.915,0.00656135,0.0168694,853,526,-2.78945,16.392
-364,498,-2.82666,-16.9398,0.0021849,0.00366417,-0.00369995,0.00669769,-0.000848622,-0.88405,0.00477321,0.0174036,860,526,-2.82667,16.9398
-357,498,-2.82782,-17.4644,0.00186351,0.00229185,-0.00257919,0.00466574,-0.000510386,-0.826822,0.00329383,0.0112434,867,526,-2.82781,17.4644
-350,498,-2.8371,-17.97,0.00170823,0.00105962,-0.00163581,0.00305157,-0.000283723,-0.68754,0.00213524,0.011269,874,526,-2.83711,17.97
-343,498,-2.84686,-18.4662,0.00159529,-0.000157846,-0.000745663,0.00186954,-0.000432097,-0.352439,0.0014126,0.0113433,881,526,-2.84687,18.4662
-336,498,-2.87549,-18.9613,0.00168655,-0.00113626,-9.14083e-05,0.0016895,-0.00113922,-0.0323369,0.00164343,0.0139079,888,526,-2.87548,18.9613
-329,498,-2.86682,-19.4283,0.00189415,-0.00197808,0.000418733,0.00193892,-0.00202284,0.106497,0.00228749,0.0208594,895,526,-2.86684,19.4283
-322,498,-2.87042,-19.9548,0.00208539,-0.00260611,0.000901164,0.00225254,-0.00277325,0.183392,0.00290683,0.0227948,902,526,-2.87043,19.9548
-315,498,-2.9093,-20.4642,0.00228288,-0.00316183,0.00133834,0.00259407,-0.00347302,0.228457,0.00351506,0.0176544,909,526,-2.9093,20.4642
-308,498,-2.89948,-20.9123,0.0026062,-0.00377401,0.001737,0.00304844,-0.00421625,0.249304,0.00421229,0.0195116,916,526,-2.89949,20.9123
-301,498,-2.88501,-21.4045,0,0,0,0,0,0,0,-1,923,526,-2.88501,21.4045
-294,498,-2.53186,-21.1682,0,0,0,0,0,0,0,-1,930,526,-2.53187,21.1681
-287,498,-0.91394,-13.4327,0,0,0,0,0,0,0,-1,937,526,-0.913935,13.4327
-280,498,-0.341614,-8.66608,0,0,0,0,0,0,0,-1,944,526,-0.341589,8.66606
-273,498,-0.988892,-8.62921,0,0,0,0,0,0,0,-1,951,526,-0.988906,8.62922
-266,498,0.362488,-6.33545,0,0,0,0,0,0,0,-1,958,526,0.362478,6.33547
-259,498,10.9454,-17.3615,0,0,0,0,0,0,0,-1,965,526,10.9454,17.3614
-252,498,8.56586,-14.6886,0,0,0,0,0,0,0,-1,972,526,8.56584,14.6886
-245,498,5.97382,-11.928,0,0,0,0,0,0,0,-1,979,526,5.97381,11.928
-238,498,2.24841,-13.8145,0,0,0,0,0,0,0,-1,986,526,2.24838,13.8145
-231,498,0.665894,-10.4898,0,0,0,0,0,0,0,-1,993,526,0.665863,10.4898
-224,498,-2.11243,-4.76312,0,0,0,0,0,0,0,-1,1000,526,-2.11245,4.76314
-217,498,-3.82239,-1.42841,0,0,0,0,0,0,0,-1,1007,526,-3.82241,1.42843
-210,498,-1.80591,-0.358215,0,0,0,0,0,0,0,-1,1014,526,-1.8059,0.3582
-203,498,-3.17316,1.06641,0,0,0,0,0,0,0,-1,1021,526,-3.17313,-1.0664
-196,498,-0.103271,5.40527,0,0,0,0,0,0,0,-1,1028,526,-0.103285,-5.40528
-189,498,3.00256,6.47137,0,0,0,0,0,0,0,-1,1035,526,3.00256,-6.47139
-182,498,0,0,0,0,0,0,0,0,0,-1,1042,526,0,0
-175,498,0,0,0,0,0,0,0,0,0,-1,1049,526,0,0
-168,498,0,0,0,0,0,0,0,0,0,-1,1056,526,0,0
-161,498,0,0,0,0,0,0,0,0,0,-1,1063,526,0,0
-154,498,0,0,0,0,0,0,0,0,0,-1,1070,526,0,0
-147,498,0,0,0,0,0,0,0,0,0,-1,1077,526,0,0
-140,498,0,0,0,0,0,0,0,0,0,-1,1084,526,0,0
-133,498,0,0,0,0,0,0,0,0,0,-1,1091,526,0,0
-126,498,0,0,0,0,0,0,0,0,0,-1,1098,526,0,0
-119,498,0,0,0,0,0,0,0,0,0,-1,1105,526,0,0
-112,498,0,0,0,0,0,0,0,0,0,-1,1112,526,0,0
-105,498,0,0,0,0,0,0,0,0,0,-1,1119,526,0,0
-98,498,0,0,0,0,0,0,0,0,0,-1,1126,526,0,0
-91,498,0,0,0,0,0,0,0,0,0,-1,1133,526,0,0
-84,498,0,0,0,0,0,0,0,0,0,-1,1140,526,0,0
-77,498,0,0,0,0,0,0,0,0,0,-1,1147,526,0,0
-70,498,0,0,0,0,0,0,0,0,0,-1,1154,526,0,0
-63,498,0,0,0,0,0,0,0,0,0,-1,1161,526,0,0
-56,498,0,0,0,0,0,0,0,0,0,-1,1168,526,0,0
-49,498,0,0,0,0,0,0,0,0,0,-1,1175,526,0,0
-42,498,0,0,0,0,0,0,0,0,0,-1,1182,526,0,0
-35,498,0,0,0,0,0,0,0,0,0,-1,1189,526,0,0
-28,498,0,0,0,0,0,0,0,0,0,-1,1196,526,0,0
-21,498,0,0,0,0,0,0,0,0,0,-1,1203,526,0,0
-14,498,0,0,0,0,0,0,0,0,0,-1,1210,526,0,0
-7,498,0,0,0,0,0,0,0,0,0,-1,1217,526,0,0
0,498,0,0,0,0,0,0,0,0,0,-1,1224,526,0,0
7,498,0,0,0,0,0,0,0,0,0,-1,1231,526,0,0
14,498,0,0,0,0,0,0,0,0,0,-1,1238,526,0,0
21,498,0,0,0,0,0,0,0,0,0,-1,1245,526,0,0
28,498,0,0,0,0,0,0,0,0,0,-1,1252,526,0,0
35,498,0,0,0,0,0,0,0,0,0,-1,1259,526,0,0
42,498,0,0,0,0,0,0,0,0,0,-1,1266,526,0,0
49,498,0,0,0,0,0,0,0,0,0,-1,1273,526,0,0
56,498,0,0,0,0,0,0,0,0,0,-1,1280,526,0,0
63,498,0,0,0,0,0,0,0,0,0,-1,1287,526,0,0
70,498,0,0,0,0,0,0,0,0,0,-1,1294,526,0,0
77,498,0,0,0,0,0,0,0,0,0,-1,1301,526,0,0
84,498,0,0,0,0,0,0,0,0,0,-1,1308,526,0,0
91,498,0,0,0,0,0,0,0,0,0,-1,1315,526,0,0
98,498,0,0,0,0,0,0,0,0,0,-1,1322,526,0,0
105,498,0,0,0,0,0,0,0,0,0,-1,1329,526,0,0
112,498,0,0,0,0,0,0,0,0,0,-1,1336,526,0,0
119,498,0,0,0,0,0,0,0,0,0,-1,1343,526,0,0
126,498,0,0,0,0,0,0,0,0,0,-1,1350,526,0,0
133,498,0,0,0,0,0,0,0,0,0,-1,1357,526,0,0
140,498,0,0,0,0,0,0,0,0,0,-1,1364,526,0,0
147,498,0,0,0,0,0,0,0,0,0,-1,1371,526,0,0
154,498,0,0,0,0,0,0,0,0,0,-1,1378,526,0,0
161,498,0,0,0,0,0,0,0,0,0,-1,1385,526,0,0
168,498,0,0,0,0,0,0,0,0,0,-1,1392,526,0,0
175,498,0,0,0,0,0,0,0,0,0,-1,1399,526,0,0
182,498,0,0,0,0,0,0,0,0,0,-1,1406,526,0,0
189,498,0,0,0,0,0,0,0,0,0,-1,1413,526,0,0
196,498,0,0,0,0,0,0,0,0,0,-1,1420,526,0,0
203,498,0,0,0,0,0,0,0,0,0,-1,1427,526,0,0
210,498,0,0,0,0,0,0,0,0,0,-1,1434,526,0,0
217,498,0,0,0,0,0,0,0,0,0,-1,1441,526,0,0
224,498,0,0,0,0,0,0,0,0,0,-1,1448,526,0,0
231,498,0,0,0,0,0,0,0,0,0,-1,1455,526,0,0
238,498,0,0,0,0,0,0,0,0,0,-1,1462,526,0,0
245,498,0,0,0,0,0,0,0,0,0,-1,1469,526,0,0
252,498,0,0,0,0,0,0,0,0,0,-1,1476,526,0,0
259,498,0,0,0,0,0,0,0,0,0,-1,1483,526,0,0
266,498,0,0,0,0,0,0,0,0,0,-1,1490,526,0,0
273,498,0,0,0,0,0,0,0,0,0,-1,1497,526,0,0
280,498,0,0,0,0,0,0,0,0,0,-1,1504,526,0,0
287,498,0,0,0,0,0,0,0,0,0,-1,1511,526,0,0
294,498,0,0,0,0,0,0,0,0,0,-1,1518,526,0,0
301,498,0,0,0,0,0,0,0,0,0,-1,1525,526,0,0
308,498,4.77942,-0.293884,0,0,0,0,0,0,0,-1,1532,526,4.77939,0.293899
315,498,4.56091,-0.564148,0,0,0,0,0,0,0,-1,1539,526,4.56097,0.564142
322,498,4.52344,-0.447266,0,0,0,0,0,0,0,-1,1546,526,4.52341,0.447295
329,498,4.63232,-0.156982,0,0,0,0,0,0,0,-1,1553,526,4.63238,0.156991
336,498,5.22644,0.0925903,0,0,0,0,0,0,0,-1,1560,526,5.22648,-0.0926188
343,498,6.22607,-1.67615,0,0,0,0,0,0,0,-1,1567,526,6.22605,1.67617
350,498,6.19373,-1.59906,0,0,0,0,0,0,0,-1,1574,526,6.19367,1.59906
357,498,6.21472,-1.58929,0,0,0,0,0,0,0,-1,1581,526,6.21476,1.58927
364,498,5.73547,-1.2019,0,0,0,0,0,0,0,-1,1588,526,5.73547,1.20192
371,498,3.27087,-4.55334,0,0,0,0,0,0,0,-1,1595,526,3.27089,4.55332
378,498,8.42944,-4.70624,0,0,0,0,0,0,0,-1,1602,526,8.42942,4.70624
385,498,4.7793,-5.15314,0,0,0,0,0,0,0,-1,1609,526,4.77935,5.15311
392,498,9.12439,-8.57953,0,0,0,0,0,0,0,-1,1616,526,9.12443,8.57955
399,498,7.98938,-9.46021,0,0,0,0,0,0,0,-1,1623,526,7.98936,9.4602
406,498,7.58081,-9.26819,0,0,0,0,0,0,0,-1,1630,526,7.58085,9.26817
413,498,7.17236,-9.07611,0,0,0,0,0,0,0,-1,1637,526,7.17234,9.07614
420,498,11.4314,-16.1147,0,0,0,0,0,0,0,-1,1644,526,11.4313,16.1147
427,498,12.3573,-20.4916,0,0,0,0,0,0,0,-1,1651,526,12.3573,20.4916
434,498,12.3473,-19.8282,0.00263703,0.00329774,0.000868694,0.00389677,0.002038,0.967097,0.0022506,0.0372175,1658,526,12.3473,19.8282
441,498,12.4479,-19.289,0.00220008,0.00268212,0.000606276,0.00309353,0.00178867,0.974592,0.00179331,0.0129425,1665,526,12.4478,19.289
448,498,12.4672,-18.7411,0.00198642,0.00203971,0.000488002,0.00250179,0.00152434,0.812668,0.00145587,0.0107022,1672,526,12.4671,18.7412
455,498,12.4369,-18.2236,0.00168334,0.00167723,0.000427291,0.00210758,0.00125298,0.781824,0.00122404,0.0148041,1679,526,12.4369,18.2236
462,498,12.4164,-17.731,0.00140924,0.00147357,0.000458344,0.00190088,0.000981935,0.820431,0.00109767,0.0167725,1686,526,12.4163,17.731
469,498,12.3998,-17.2252,0.00123401,0.00132631,0.000569807,0.00185183,0.000708488,0.825807,0.00107894,0.014657,1693,526,12.3998,17.2252
476,498,12.3879,-16.7024,0.000944465,0.00103694,0.000723713,0.00171589,0.000265514,0.8173,0.0010665,0.0108205,1700,526,12.388,16.7024
483,498,12.3699,-16.1729,0.000554948,0.000649022,0.000879596,0.00148284,-0.000278868,0.81211,0.00109343,0.00903079,1707,526,12.3699,16.1729
490,498,12.3527,-15.634,1.76668e-05,0.000136367,0.00101958,0.00109832,-0.000944287,0.814471,0.00118042,0.0110668,1714,526,12.3527,15.634
497,498,12.3492,-15.076,-0.000580019,-0.000572015,0.00119696,0.000620954,-0.00177299,0.78707,0.0014345,0.0125723,1721,526,12.3492,15.0761
504,498,12.3271,-14.5181,-0.00125931,-0.00149286,0.00137308,1.95275e-06,-0.00275412,0.742978,0.00183673,0.0146671,1728,526,12.3271,14.5181
511,498,12.2936,-13.9681,-0.00209047,-0.00260599,0.00151051,-0.000815885,-0.00388058,0.70089,0.00236253,0.0167612,1735,526,12.2936,13.9681
518,498,12.3285,-13.4096,-0.00311084,-0.00387581,0.0015335,-0.00191284,-0.00507381,0.663182,0.00295876,0.0177111,1742,526,12.3285,13.4096
525,498,12.2152,-12.8502,-0.0042563,-0.00545231,0.0014504,-0.00328546,-0.00642315,0.589863,0.00370874,0.025365,1749,526,12.2152,12.8502
532,498,12.0463,-12.3179,-0.0054337,-0.00710073,0.00134991,-0.00468071,-0.00785372,0.508819,0.00456211,0.0439484,1756,526,12.0463,12.318
539,498,12.0956,-11.7903,0,0,0,0,0,0,0,-1,1763,526,12.0956,11.7903
546,498,10.2014,-8.47589,0,0,0,0,0,0,0,-1,1770,526,10.2014,8.47589
553,498,5.93958,-1.71448,0,0,0,0,0,0,0,-1,1777,526,5.93956,1.71447
560,498,3.69385,-0.615112,0,0,0,0,0,0,0,-1,1784,526,3.69381,0.615118
567,498,5.12695,-0.581604,0,0,0,0,0,0,0,-1,1791,526,5.12699,0.58159
574,498,3.88,0.0286255,0,0,0,0,0,0,0,-1,1798,526,3.87999,-0.0286535
581,498,10.8722,2.58551,0,0,0,0,0,0,0,-1,1805,526,10.8723,-2.58551
588,498,0,0,0,0,0,0,0,0,0,-1,1812,526,0,0
595,498,0,0,0,0,0,0,0,0,0,-1,1819,526,0,0
602,498,0,0,0,0,0,0,0,0,0,-1,1826,526,0,0
609,498,0,0,0,0,0,0,0,0,0,-1,1833,526,0,0
616,498,0,0,0,0,0,0,0,0,0,-1,1840,526,0,0
623,498,0,0,0,0,0,0,0,0,0,-1,1847,526,0,0
630,498,0,0,0,0,0,0,0,0,0,-1,1854,526,0,0
637,498,0,0,0,0,0,0,0,0,0,-1,1861,526,0,0
644,498,0,0,0,0,0,0,0,0,0,-1,1868,526,0,0
651,498,0,0,0,0,0,0,0,0,0,-1,1875,526,0,0
658,498,0,0,0,0,0,0,0,0,0,-1,1882,526,0,0
665,498,0,0,0,0,0,0,0,0,0,-1,1889,526,0,0
672,498,0,0,0,0,0,0,0,0,0,-1,1896,526,0,0
679,498,0,0,0,0,0,0,0,0,0,-1,1903,526,0,0
686,498,0,0,0,0,0,0,0,0,0,-1,1910,526,0,0
693,498,0,0,0,0,0,0,0,0,0,-1,1917,526,0,0
700,498,0,0,0,0,0,0,0,0,0,-1,1924,526,0,0
707,498,0,0,0,0,0,0,0,0,0,-1,1931,526,0,0
714,498,0,0,0,0,0,0,0,0,0,-1,1938,526,0,0
721,498,0,0,0,0,0,0,0,0,0,-1,1945,526,0,0
728,498,0,0,0,0,0,0,0,0,0,-1,1952,526,0,0
735,498,0,0,0,0,0,0,0,0,0,-1,1959,526,0,0
742,498,0,0,0,0,0,0,0,0,0,-1,1966,526,0,0
749,498,0,0,0,0,0,0,0,0,0,-1,1973,526,0,0
756,498,0,0,0,0,0,0,0,0,0,-1,1980,526,0,0
763,498,0,0,0,0,0,0,0,0,0,-1,1987,526,0,0
770,498,0,0,0,0,0,0,0,0,0,-1,1994,526,0,0
777,498,0,0,0,0,0,0,0,0,0,-1,2001,526,0,0
784,498,0,0,0,0,0,0,0,0,0,-1,2008,526,0,0
791,498,0,0,0,0,0,0,0,0,0,-1,2015,526,0,0
798,498,0,0,0,0,0,0,0,0,0,-1,2022,526,0,0
805,498,0,0,0,0,0,0,0,0,0,-1,2029,526,0,0
812,498,0,0,0,0,0,0,0,0,0,-1,2036,526,0,0
-700,491,0,0,0,0,0,0,0,0,0,-1,524,533,0,0
-693,491,0,0,0,0,0,0,0,0,0,-1,531,533,0,0
-686,491,0,0,0,0,0,0,0,0,0,-1,538,533,0,0
-679,491,0,0,0,0,0,0,0,0,0,-1,545,533,0,0
-672,491,0,0,0,0,0,0,0,0,0,-1,552,533,0,0
-665,491,0,0,0,0,0,0,0,0,0,-1,559,533,0,0
-658,491,0,0,0,0,0,0,0,0,0,-1,566,533,0,0
-651,491,0,0,0,0,0,0,0,0,0,-1,573,533,0,0
-644,491,0,0,0,0,0,0,0,0,0,-1,580,533,0,0
-637,491,0,0,0,0,0,0,0,0,0,-1,587,533,0,0
-630,491,0,0,0,0,0,0,0,0,0,-1,594,533,0,0
-623,491,0,0,0,0,0,0,0,0,0,-1,601,533,0,0
-616,491,0,0,0,0,0,0,0,0,0,-1,608,533,0,0
-609,491,0,0,0,0,0,0,0,0,0,-1,615,533,0,0
-602,491,0,0,0,0,0,0,0,0,0,-1,622,533,0,0
-595,491,0,0,0,0,0,0,0,0,0,-1,629,533,0,0
-588,491,0,0,0,0,0,0,0,0,0,-1,636,533,0,0
-581,491,0,0,0,0,0,0,0,0,0,-1,643,533,0,0
-574,491,0,0,0,0,0,0,0,0,0,-1,650,533,0,0
-567,491,0,0,0,0,0,0,0,0,0,-1,657,533,0,0
-560,491,0,0,0,0,0,0,0,0,0,-1,664,533,0,0
-553,491,0,0,0,0,0,0,0,0,0,-1,671,533,0,0
-546,491,0,0,0,0,0,0,0,0,0,-1,678,533,0,0
-539,491,0,0,0,0,0,0,0,0,0,-1,685,533,0,0
-532,491,0,0,0,0,0,0,0,0,0,-1,692,533,0,0
-525,491,0,0,0,0,0,0,0,0,0,-1,699,533,0,0
-518,491,0,0,0,0,0,0,0,0,0,-1,706,533,0,0
-511,491,0,0,0,0,0,0,0,0,0,-1,713,533,0,0
-504,491,0,0,0,0,0,0,0,0,0,-1,720,533,0,0
-497,491,0,0,0,0,0,0,0,0,0,-1,727,533,0,0
-490,491,0,0,0,0,0,0,0,0,0,-1,734,533,0,0
-483,491,0,0,0,0,0,0,0,0,0,-1,741,533,0,0
-476,491,0,0,0,0,0,0,0,0,0,-1,748,533,0,0
-469,491,-5.85913,4.55011,0,0,0,0,0,0,0,-1,755,533,-5.8591,-4.55009
-462,491,-9.93713,4.90381,0,0,0,0,0,0,0,-1,762,533,-9.93716,-4.9038
-455,491,1.9494,-0.27887,0,0,0,0,0,0,0,-1,769,533,1.94941,0.27885
-448,491,2.68909,-1.8999,0,0,0,0,0,0,0,-1,776,533,2.6891,1.89988
-441,491,3.46069,-3.51855,0,0,0,0,0,0,0,-1,783,533,3.46071,3.51854
-434,491,2.67145,-7.44061,0,0,0,0,0,0,0,-1,790,533,2.67146,7.44061
-427,491,2.27136,-8.34546,0,0,0,0,0,0,0,-1,797,533,2.27136,8.34546
-420,491,-1.52142,-8.1123,0,0,0,0,0,0,0,-1,804,533,-1.52142,8.11228
-413,491,-3.21967,-13.1878,0,0,0,0,0,0,0,-1,811,533,-3.21968,13.1878
-406,491,-3.29718,-13.5767,0,0,0,0,0,0,0,-1,818,533,-3.29718,13.5767
-399,491,-3.20746,-14.2735,0.00389821,0.010648,-0.00826697,0.0162024,-0.0016562,-0.979194,0.0113939,0.0111677,825,533,-3.20744,14.2735
-392,491,-3.27942,-14.8364,0.00337214,0.00863389,-0.00700351,0.0134844,-0.00147833,-0.965069,0.00952069,0.0105426,832,533,-3.27942,14.8364
-385,491,-3.30389,-15.3501,0.00294724,0.00674935,-0.00574624,0.0109008,-0.00120424,-0.945148,0.00770009,0.0100746,839,533,-3.30392,15.3501
-378,491,-3.29657,-15.8562,0.00265339,0.00514353,-0.00462377,0.00868692,-0.000890011,-0.916917,0.0061096,0.0135651,846,533,-3.29657,15.8562
-371,491,-3.28845,-16.3784,0.00233854,0.00353234,-0.00353002,0.00651557,-0.000644692,-0.869152,0.00457378,0.0153276,853,533,-3.28844,16.3784
-364,491,-3.32159,-16.9178,0.00205398,0.00201384,-0.0024497,0.00448369,-0.000415873,-0.781302,0.00313695,0.0147565,860,533,-3.32162,16.9178
-357,491,-3.34973,-17.4346,0.00193067,0.000802892,-0.00151735,0.00298552,-0.00025196,-0.607493,0.00207943,0.0118126,867,533,-3.34972,17.4346
-350,491,-3.35406,-17.9406,0.00193298,-0.000281901,-0.000740031,0.00215749,-0.000506403,-0.294543,0.0016335,0.0141035,874,533,-3.35405,17.9406
-343,491,-3.33557,-18.4497,0.00204545,-0.00126429,-0.000106788,0.00204889,-0.00126773,-0.0322201,0.00193248,0.0217742,881,533,-3.33554,18.4497
-336,491,-3.35321,-18.9496,0.00225597,-0.00210923,0.000388627,0.0022903,-0.00214356,0.0881052,0.00256036,0.0212963,888,533,-3.35321,18.9496
-329,491,-3.39471,-19.3978,0.00249055,-0.00285175,0.000811668,0.00261115,-0.00297234,0.147499,0.00322588,0.0222578,895,533,-3.39472,19.3978
-322,491,-3.3974,-19.8752,0.00271748,-0.00327338,0.00118806,0.00294449,-0.00350038,0.188797,0.00372556,0.0217962,902,533,-3.3974,19.8752
-315,491,-3.42926,-20.3547,0.00293985,-0.00376928,0.00153404,0.00327397,-0.0041034,0.214454,0.00426829,0.0217234,909,533,-3.42927,20.3548
-308,491,-3.3913,-20.9341,0,0,0,0,0,0,0,-1,916,533,-3.39129,20.9341
-301,491,-3.09882,-21.0473,0,0,0,0,0,0,0,-1,923,533,-3.09882,21.0473
-294,491,-0.777283,-8.60913,0,0,0,0,0,0,0,-1,930,533,-0.777288,8.6091
-287,491,-0.26123,-8.69055,0,0,0,0,0,0,0,-1,937,533,-0.261204,8.69053
-280,491,0.2948,-5.99219,0,0,0,0,0,0,0,-1,944,533,0.294811,5.99221
-273,491,0.369995,-5.33691,0,0,0,0,0,0,0,-1,951,533,0.369985,5.33693
-266,491,1.1167,-5.0321,0,0,0,0,0,0,0,-1,958,533,1.11668,5.0321
-259,491,12.0862,-16.9615,0,0,0,0,0,0,0,-1,965,533,12.0862,16.9615
-252,491,9.72443,-13.8417,0,0,0,0,0,0,0,-1,972,533,9.72444,13.8418
-245,491,5.27258,-14.3619,0,0,0,0,0,0,0,-1,979,533,5.27255,14.3619
-238,491,3.65381,-11.1472,0,0,0,0,0,0,0,-1,986,533,3.6538,11.1472
-231,491,2.17719,-7.86835,0,0,0,0,0,0,0,-1,993,533,2.17719,7.86832
-224,491,0.554626,-4.61725,0,0,0,0,0,0,0,-1,1000,533,0.554608,4.61727
-217,491,-2.92743,-1.0766,0,0,0,0,0,0,0,-1,1007,533,-2.92743,1.07659
-210,491,-0.92395,0.374512,0,0,0,0,0,0,0,-1,1014,533,-0.923959,-0.374531
-203,491,0.417419,4.77161,0,0,0,0,0,0,0,-1,1021,533,0.417446,-4.77162
-196,491,0,0,0,0,0,0,0,0,0,-1,1028,533,0,0
-189,491,0,0,0,0,0,0,0,0,0,-1,1035,533,0,0
-182,491,0,0,0,0,0,0,0,0,0,-1,1042,533,0,0
-175,491,0,0,0,0,0,0,0,0,0,-1,1049,533,0,0
-168,491,0,0,0,0,0,0,0,0,0,-1,1056,533,0,0
-161,491,0,0,0,0,0,0,0,0,0,-1,1063,533,0,0
-154,491,0,0,0,0,0,0,0,0,0,-1,1070,533,0,0
-147,491,0,0,0,0,0,0,0,0,0,-1,1077,533,0,0
-140,491,0,0,0,0,0,0,0,0,0,-1,1084,533,0,0
-133,491,0,0,0,0,0,0,0,0,0,-1,1091,533,0,0
-126,491,0,0,0,0,0,0,0,0,0,-1,1098,533,0,0
-119,491,0,0,0,0,0,0,0,0,0,-1,1105,533,0,0
-112,491,0,0,0,0,0,0,0,0,0,-1,1112,533,0,0
-105,491,0,0,0,0,0,0,0,0,0,-1,1119,533,0,0
-98,491,0,0,0,0,0,0,0,0,0,-1,1126,533,0,0
-91,491,0,0,0,0,0,0,0,0,0,-1,1133,533,0,0
-84,491,0,0,0,0,0,0,0,0,0,-1,1140,533,0,0
-77,491,0,0,0,0,0,0,0,0,0,-1,1147,533,0,0
-70,491,0,0,0,0,0,0,0,0,0,-1,1154,533,0,0
-63,491,0,0,0,0,0,0,0,0,0,-1,1161,533,0,0
-56,491,0,0,0,0,0,0,0,0,0,-1,1168,533,0,0
-49,491,0,0,0,0,0,0,0,0,0,-1,1175,533,0,0
-42,491,0,0,0,0,0,0,0,0,0,-1,1182,533,0,0
-35,491,0,0,0,0,0,0,0,0,0,-1,1189,533,0,0
-28,491,0,0,0,0,0,0,0,0,0,-1,1196,533,0,0
-21,491,0,0,0,0,0,0,0,0,0,-1,1203,533,0,0
-14,491,0,0,0,0,0,0,0,0,0,-1,1210,533,0,0
-7,491,0,0,0,0,0,0,0,0,0,-1,1217,533,0,0
0,491,0,0,0,0,0,0,0,0,0,-1,1224,533,0,0
7,491,0,0,0,0,0,0,0,0,0,-1,1231,533,0,0
14,491,0,0,0,0,0,0,0,0,0,-1,1238,533,0,0
21,491,0,0,0,0,0,0,0,0,0,-1,1245,533,0,0
28,491,0,0,0,0,0,0,0,0,0,-1,1252,533,0,0
35,491,0,0,0,0,0,0,0,0,0,-1,1259,533,0,0
42,491,0,0,0,0,0,0,0,0,0,-1,1266,533,0,0
49,491,0,0,0,0,0,0,0,0,0,-1,1273,533,0,0
56,491,0,0,0,0,0,0,0,0,0,-1,1280,533,0,0
63,491,0,0,0,0,0,0,0,0,0,-1,1287,533,0,0
70,491,0,0,0,0,0,0,0,0,0,-1,1294,533,0,0
77,491,0,0,0,0,0,0,0,0,0,-1,1301,533,0,0
84,491,0,0,0,0,0,0,0,0,0,-1,1308,533,0,0
91,491,0,0,0,0,0,0,0,0,0,-1,1315,533,0,0
98,491,0,0,0,0,0,0,0,0,0,-1,1322,533,0,0
105,491,0,0,0,0,0,0,0,0,0,-1,1329,533,0,0
112,491,0,0,0,0,0,0,0,0,0,-1,1336,533,0,0
119,491,0,0,0,0,0,0,0,0,0,-1,1343,533,0,0
126,491,0,0,0,0,0,0,0,0,0,-1,1350,533,0,0
133,491,0,0,0,0,0,0,0,0,0,-1,1357,533,0,0
140,491,0,0,0,0,0,0,0,0,0,-1,1364,533,0,0
147,491,0,0,0,0,0,0,0,0,0,-1,1371,533,0,0
154,491,0,0,0,0,0,0,0,0,0,-1,1378,533,0,0
161,491,0,0,0,0,0,0,0,0,0,-1,1385,533,0,0
168,491,0,0,0,0,0,0,0,0,0,-1,1392,533,0,0
175,491,0,0,0,0,0,0,0,0,0,-1,1399,533,0,0
182,491,0,0,0,0,0,0,0,0,0,-1,1406,533,0,0
189,491,0,0,0,0,0,0,0,0,0,-1,1413,533,0,0
196,491,0,0,0,0,0,0,0,0,0,-1,1420,533,0,0
203,491,0,0,0,0,0,0,0,0,0,-1,1427,533,0,0
210,491,0,0,0,0,0,0,0,0,0,-1,1434,533,0,0
217,491,0,0,0,0,0,0,0,0,0,-1,1441,533,0,0
224,491,0,0,0,0,0,0,0,0,0,-1,1448,533,0,0
231,491,0,0,0,0,0,0,0,0,0,-1,1455,533,0,0
238,491,0,0,0,0,0,0,0,0,0,-1,1462,533,0,0
245,491,0,0,0,0,0,0,0,0,0,-1,1469,533,0,0
252,491,0,0,0,0,0,0,0,0,0,-1,1476,533,0,0
259,491,0,0,0,0,0,0,0,0,0,-1,1483,533,0,0
266,491,0,0,0,0,0,0,0,0,0,-1,1490,533,0,0
273,491,0,0,0,0,0,0,0,0,0,-1,1497,533,0,0
280,491,0,0,0,0,0,0,0,0,0,-1,1504,533,0,0
287,491,0,0,0,0,0,0,0,0,0,-1,1511,533,0,0
294,491,0,0,0,0,0,0,0,0,0,-1,1518,533,0,0
301,491,0,0,0,0,0,0,0,0,0,-1,1525,533,0,0
308,491,0,0,0,0,0,0,0,0,0,-1,1532,533,0,0
315,491,0,0,0,0,0,0,0,0,0,-1,1539,533,0,0
322,491,4.26331,-0.734314,0,0,0,0,0,0,0,-1,1546,533,4.26326,0.734324
329,491,4.25354,-0.783752,0,0,0,0,0,0,0,-1,1553,533,4.25359,0.783734
336,491,4.81604,-0.722107,0,0,0,0,0,0,0,-1,1560,533,4.81605,0.722115
343,491,6.14478,-1.44281,0,0,0,0,0,0,0,-1,1567,533,6.14474,1.44281
350,491,6.36353,-1.30792,0,0,0,0,0,0,0,-1,1574,533,6.36352,1.3079
357,491,6.69482,-1.06018,0,0,0,0,0,0,0,-1,1581,533,6.69489,1.06018
364,491,8.01086,-1.69604,0,0,0,0,0,0,0,-1,1588,533,8.01087,1.69607
371,491,8.2135,-0.539307,0,0,0,0,0,0,0,-1,1595,533,8.21348,0.53929
378,491,13.3589,2.17267,0,0,0,0,0,0,0,-1,1602,533,13.3589,-2.17264
385,491,8.08228,-4.95471,0,0,0,0,0,0,0,-1,1609,533,8.08227,4.95474
392,491,2.88721,-4.30988,0,0,0,0,0,0,0,-1,1616,533,2.88716,4.30986
399,491,8.95862,-8.55518,0,0,0,0,0,0,0,-1,1623,533,8.95864,8.55516
406,491,8.16541,-9.00806,0,0,0,0,0,0,0,-1,1630,533,8.16535,9.00807
413,491,5.31848,-3.7124,0,0,0,0,0,0,0,-1,1637,533,5.31849,3.7124
420,491,4.86389,-3.95892,0,0,0,0,0,0,0,-1,1644,533,4.86387,3.95893
427,491,11.5096,-15.2742,0,0,0,0,0,0,0,-1,1651,533,11.5096,15.2742
434,491,12.8235,-19.8321,0,0,0,0,0,0,0,-1,1658,533,12.8235,19.8321
441,491,12.9113,-19.3505,0,0,0,0,0,0,0,-1,1665,533,12.9113,19.3505
448,491,12.9502,-18.7721,0.00233529,0.00245407,0.000410535,0.00280949,0.00197987,0.857229,0.00166676,0.0313419,1672,533,12.9501,18.7721
455,491,12.9341,-18.2295,0.00195661,0.00194763,0.000230069,0.00218223,0.00172201,0.775639,0.00132826,0.0167053,1679,533,12.9341,18.2295
462,491,12.9432,-17.737,0.00162853,0.00168465,0.000214594,0.00187301,0.00144017,0.850417,0.00113231,0.0157455,1686,533,12.9432,17.737
469,491,12.8958,-17.2151,0.00144812,0.00159925,0.000277451,0.00181124,0.00123613,0.918348,0.00106868,0.0152449,1693,533,12.8957,17.2151
476,491,12.9142,-16.6795,0.00122301,0.00139017,0.000371277,0.00168716,0.000926022,0.89611,0.000975631,0.0109686,1700,533,12.9142,16.6795
483,491,12.9037,-16.1353,0.000861568,0.00104734,0.000520736,0.00148341,0.000425497,0.873655,0.000882007,0.0124239,1707,533,12.9037,16.1353
490,491,12.8916,-15.6174,0.000349053,0.000655945,0.000638717,0.00115939,-0.000154391,0.903284,0.000829195,0.0107898,1714,533,12.8916,15.6175
497,491,12.882,-15.0714,-0.000205213,0.000100434,0.000798111,0.000760221,-0.000865,0.879994,0.000938972,0.0117528,1721,533,12.8819,15.0713
504,491,12.8785,-14.5029,-0.000808487,-0.000607108,0.000953405,0.00025091,-0.0016665,0.838008,0.00120339,0.013775,1728,533,12.8786,14.5028
511,491,12.847,-13.9473,-0.00154193,-0.00144014,0.00107118,-0.000418645,-0.00256342,0.809137,0.0015879,0.0128053,1735,533,12.847,13.9473
518,491,12.8214,-13.4237,-0.00244269,-0.00236198,0.00107023,-0.00133135,-0.00347332,0.804244,0.00202345,0.0102278,1742,533,12.8214,13.4237
525,491,12.8207,-12.8612,-0.00340581,-0.00351993,0.000971976,-0.00248922,-0.00443652,0.75608,0.00256779,0.0104271,1749,533,12.8207,12.8612
532,491,12.8103,-12.3027,-0.00435927,-0.00463242,0.000867558,-0.0036176,-0.00537409,0.707327,0.00316414,0.0221663,1756,533,12.8104,12.3027
539,491,12.677,-11.8209,-0.00533552,-0.00570512,0.000644254,-0.00485009,-0.00619056,0.645726,0.00376071,0.0397585,1763,533,12.677,11.8209
546,491,12.4131,-11.1303,0,0,0,0,0,0,0,-1,1770,533,12.4131,11.1303
553,491,10.5021,-7.77869,0,0,0,0,0,0,0,-1,1777,533,10.502,7.77871
560,491,6.28455,-1.43585,0,0,0,0,0,0,0,-1,1784,533,6.28458,1.43586
567,491,5.67651,-1.3562,0,0,0,0,0,0,0,-1,1791,533,5.67649,1.3562
574,491,8.0719,1.58325,0,0,0,0,0,0,0,-1,1798,533,8.07195,-1.58326
581,491,9.44812,1.60931,0,0,0,0,0,0,0,-1,1805,533,9.44808,-1.60933
588,491,11.0497,1.54962,0,0,0,0,0,0,0,-1,1812,533,11.0496,-1.54963
595,491,0,0,0,0,0,0,0,0,0,-1,1819,533,0,0
602,491,0,0,0,0,0,0,0,0,0,-1,1826,533,0,0
609,491,0,0,0,0,0,0,0,0,0,-1,1833,533,0,0
616,491,0,0,0,0,0,0,0,0,0,-1,1840,533,0,0
623,491,0,0,0,0,0,0,0,0,0,-1,1847,533,0,0
630,491,0,0,0,0,0,0,0,0,0,-1,1854,533,0,0
637,491,0,0,0,0,0,0,0,0,0,-1,1861,533,0,0
644,491,0,0,0,0,0,0,0,0,0,-1,1868,533,0,0
651,491,0,0,0,0,0,0,0,0,0,-1,1875,533,0,0
658,491,0,0,0,0,0,0,0,0,0,-1,1882,533,0,0
665,491,0,0,0,0,0,0,0,0,0,-1,1889,533,0,0
672,491,0,0,0,0,0,0,0,0,0,-1,1896,533,0,0
679,491,0,0,0,0,0,0,0,0,0,-1,1903,533,0,0
686,491,0,0,0,0,0,0,0,0,0,-1,1910,533,0,0
693,491,0,0,0,0,0,0,0,0,0,-1,1917,533,0,0
700,491,0,0,0,0,0,0,0,0,0,-1,1924,533,0,0
707,491,0,0,0,0,0,0,0,0,0,-1,1931,533,0,0
714,491,0,0,0,0,0,0,0,0,0,-1,1938,533,0,0
721,491,0,0,0,0,0,0,0,0,0,-1,1945,533,0,0
728,491,0,0,0,0,0,0,0,0,0,-1,1952,533,0,0
735,491,0,0,0,0,0,0,0,0,0,-1,1959,533,0,0
742,491,0,0,0,0,0,0,0,0,0,-1,1966,533,0,0
749,491,0,0,0,0,0,0,0,0,0,-1,1973,533,0,0
756,491,0,0,0,0,0,0,0,0,0,-1,1980,533,0,0
763,491,0,0,0,0,0,0,0,0,0,-1,1987,533,0,0
770,491,0,0,0,0,0,0,0,0,0,-1,1994,533,0,0
777,491,0,0,0,0,0,0,0,0,0,-1,2001,533,0,0
784,491,0,0,0,0,0,0,0,0,0,-1,2008,533,0,0
791,491,0,0,0,0,0,0,0,0,0,-1,2015,533,0,0
798,491,0,0,0,0,0,0,0,0,0,-1,2022,533,0,0
805,491,0,0,0,0,0,0,0,0,0,-1,2029,533,0,0
812,491,0,0,0,0,0,0,0,0,0,-1,2036,533,0,0
-700,484,0,0,0,0,0,0,0,0,0,-1,524,540,0,0
-693,484,0,0,0,0,0,0,0,0,0,-1,531,540,0,0
-686,484,0,0,0,0,0,0,0,0,0,-1,538,540,0,0
-679,484,0,0,0,0,0,0,0,0,0,-1,545,540,0,0
-672,484,0,0,0,0,0,0,0,0,0,-1,552,540,0,0
-665,484,0,0,0,0,0,0,0,0,0,-1,559,540,0,0
-658,484,0,0,0,0,0,0,0,0,0,-1,566,540,0,0
-651,484,0,0,0,0,0,0,0,0,0,-1,573,540,0,0
-644,484,0,0,0,0,0,0,0,0,0,-1,580,540,0,0
-637,484,0,0,0,0,0,0,0,0,0,-1,587,540,0,0
-630,484,0,0,0,0,0,0,0,0,0,-1,594,540,0,0
-623,484,0,0,0,0,0,0,0,0,0,-1,601,540,0,0
-616,484,0,0,0,0,0,0,0,0,0,-1,608,540,0,0
-609,484,0,0,0,0,0,0,0,0,0,-1,615,540,0,0
-602,484,0,0,0,0,0,0,0,0,0,-1,622,540,0,0
-595,484,0,0,0,0,0,0,0,0,0,-1,629,540,0,0
-588,484,0,0,0,0,0,0,0,0,0,-1,636,540,0,0
-581,484,0,0,0,0,0,0,0,0,0,-1,643,540,0,0
-574,484,0,0,0,0,0,0,0,0,0,-1,650,540,0,0
-567,484,0,0,0,0,0,0,0,0,0,-1,657,540,0,0
-560,484,0,0,0,0,0,0,0,0,0,-1,664,540,0,0
-553,484,0,0,0,0,0,0,0,0,0,-1,671,540,0,0
-546,484,0,0,0,0,0,0,0,0,0,-1,678,540,0,0
-539,484,0,0,0,0,0,0,0,0,0,-1,685,540,0,0
-532,484,0,0,0,0,0,0,0,0,0,-1,692,540,0,0
-525,484,0,0,0,0,0,0,0,0,0,-1,699,540,0,0
-518,484,0,0,0,0,0,0,0,0,0,-1,706,540,0,0
-511,484,0,0,0,0,0,0,0,0,0,-1,713,540,0,0
-504,484,0,0,0,0,0,0,0,0,0,-1,720,540,0,0
-497,484,0,0,0,0,0,0,0,0,0,-1,727,540,0,0
-490,484,0,0,0,0,0,0,0,0,0,-1,734,540,0,0
-483,484,0,0,0,0,0,0,0,0,0,-1,741,540,0,0
-476,484,-8.46552,1.44702,0,0,0,0,0,0,0,-1,748,540,-8.46554,-1.44702
-469,484,-7.82343,1.70355,0,0,0,0,0,0,0,-1,755,540,-7.82345,-1.70355
-462,484,-8.36987,3.08612,0,0,0,0,0,0,0,-1,762,540,-8.36988,-3.0861
-455,484,-6.77197,2.07092,0,0,0,0,0,0,0,-1,769,540,-6.77197,-2.07094
-448,484,3.54895,-1.40106,0,0,0,0,0,0,0,-1,776,540,3.54897,1.40106
-441,484,4.28906,-3.05884,0,0,0,0,0,0,0,-1,783,540,4.28905,3.05883
-434,484,-2.17548,-5.07245,0,0,0,0,0,0,0,-1,790,540,-2.17546,5.07243
-427,484,-3.63617,-11.5651,0,0,0,0,0,0,0,-1,797,540,-3.63618,11.565
-420,484,-3.64429,-12.3774,0,0,0,0,0,0,0,-1,804,540,-3.64429,12.3774
-413,484,-3.61615,-13.0687,0.00250564,0.0114575,-0.00739226,0.0156233,-0.00166016,-1.05762,0.0110107,0.03112,811,540,-3.61617,13.0687
-406,484,-3.66748,-13.714,0.00261607,0.00973685,-0.00674905,0.0138071,-0.00145414,-1.02812,0.00972572,0.0162468,818,540,-3.66746,13.714
-399,484,-3.74725,-14.2842,0.00248539,0.0080033,-0.00588411,0.0117432,-0.00125446,-1.00462,0.00827867,0.0169675,825,540,-3.74728,14.2843
-392,484,-3.80756,-14.8063,0.0023104,0.00627703,-0.00493791,0.00961503,-0.00102761,-0.976363,0.00677857,0.0187663,832,540,-3.80756,14.8063
-385,484,-3.82996,-15.3425,0.00219826,0.00467063,-0.00398033,0.00760231,-0.000733425,-0.935962,0.00532953,0.0140274,839,540,-3.82999,15.3425
-378,484,-3.83136,-15.8633,0.00216269,0.00328428,-0.00310212,0.00587588,-0.000428914,-0.874821,0.00406777,0.014982,846,540,-3.83136,15.8633
-371,484,-3.82434,-16.3761,0.00206461,0.00186581,-0.00221351,0.00418095,-0.000250531,-0.76296,0.00287446,0.0155885,853,540,-3.82437,16.3761
-364,484,-3.83679,-16.8853,0.00197137,0.000537694,-0.00132825,0.00276387,-0.000254808,-0.537953,0.00193312,0.011028,860,540,-3.8368,16.8853
-357,484,-3.87427,-17.405,0.00201781,-0.000503054,-0.000570947,0.00214109,-0.000626338,-0.212664,0.00167566,0.0121422,867,540,-3.87428,17.405
-350,484,-3.87866,-17.9012,0.00216571,-0.00141862,4.37439e-05,0.00216625,-0.00141916,0.0122018,0.00208496,0.0138281,874,540,-3.87869,17.9012
-343,484,-3.86395,-18.4145,0.00251771,-0.00209291,0.000394479,0.00255122,-0.00212642,0.084738,0.00270434,0.0209993,881,540,-3.86395,18.4145
-336,484,-3.86407,-18.9102,0.00288444,-0.00274345,0.000703178,0.00297096,-0.00282998,0.122438,0.00334951,0.0233143,888,540,-3.8641,18.9102
-329,484,-3.84729,-19.3526,0.00318982,-0.00332814,0.00101067,0.00334293,-0.00348125,0.150357,0.00394022,0.0353463,895,540,-3.84731,19.3526
-322,484,-3.82404,-19.8361,0,0,0,0,0,0,0,-1,902,540,-3.82402,19.8361
-315,484,-3.73682,-20.3817,0,0,0,0,0,0,0,-1,909,540,-3.73683,20.3817
-308,484,-1.32623,-8.9317,0,0,0,0,0,0,0,-1,916,540,-1.32626,8.93173
-301,484,-1.33453,-6.52667,0,0,0,0,0,0,0,-1,923,540,-1.33454,6.5267
-294,484,-1.61224,-8.17059,0,0,0,0,0,0,0,-1,930,540,-1.61227,8.17058
-287,484,-0.715759,-5.62103,0,0,0,0,0,0,0,-1,937,540,-0.715772,5.62105
-280,484,2.66742,-1.6795,0,0,0,0,0,0,0,-1,944,540,2.6674,1.67949
-273,484,2.53125,-2.22296,0,0,0,0,0,0,0,-1,951,540,2.53128,2.22295
-266,484,2.6778,-2.72058,0,0,0,0,0,0,0,-1,958,540,2.6778,2.72061
-259,484,2.41718,-2.59894,0,0,0,0,0,0,0,-1,965,540,2.41717,2.59892
-252,484,10.6069,-11.696,0,0,0,0,0,0,0,-1,972,540,10.6069,11.696
-245,484,6.34106,-11.6107,0,0,0,0,0,0,0,-1,979,540,6.34104,11.6107
-238,484,4.89319,-8.54059,0,0,0,0,0,0,0,-1,986,540,4.89321,8.5406
-231,484,3.47675,-5.22064,0,0,0,0,0,0,0,-1,993,540,3.47676,5.22067
-224,484,1.71344,-2.03473,0,0,0,0,0,0,0,-1,1000,540,1.71342,2.03472
-217,484,-0.745056,1.17358,0,0,0,0,0,0,0,-1,1007,540,-0.745043,-1.17359
-210,484,0,0,0,0,0,0,0,0,0,-1,1014,540,0,0
-203,484,0,0,0,0,0,0,0,0,0,-1,1021,540,0,0
-196,484,0,0,0,0,0,0,0,0,0,-1,1028,540,0,0
-189,484,0,0,0,0,0,0,0,0,0,-1,1035,540,0,0
-182,484,0,0,0,0,0,0,0,0,0,-1,1042,540,0,0
-175,484,0,0,0,0,0,0,0,0,0,-1,1049,540,0,0
-168,484,0,0,0,0,0,0,0,0,0,-1,1056,540,0,0
-161,484,0,0,0,0,0,0,0,0,0,-1,1063,540,0,0
-154,484,0,0,0,0,0,0,0,0,0,-1,1070,540,0,0
-147,484,0,0,0,0,0,0,0,0,0,-1,1077,540,0,0
-140,484,0,0,0,0,0,0,0,0,0,-1,1084,540,0,0
-133,484,0,0,0,0,0,0,0,0,0,-1,1091,540,0,0
-126,484,0,0,0,0,0,0,0,0,0,-1,1098,540,0,0
-119,484,0,0,0,0,0,0,0,0,0,-1,1105,540,0,0
-112,484,0,0,0,0,0,0,0,0,0,-1,1112,540,0,0
-105,484,0,0,0,0,0,0,0,0,0,-1,1119,540,0,0
-98,484,0,0,0,0,0,0,0,0,0,-1,1126,540,0,0
-91,484,0,0,0,0,0,0,0,0,0,-1,1133,540,0,0
-84,484,0,0,0,0,0,0,0,0,0,-1,1140,540,0,0
-77,484,0,0,0,0,0,0,0,0,0,-1,1147,540,0,0
-70,484,0,0,0,0,0,0,0,0,0,-1,1154,540,0,0
-63,484,0,0,0,0,0,0,0,0,0,-1,1161,540,0,0
-56,484,0,0,0,0,0,0,0,0,0,-1,1168,540,0,0
-49,484,0,0,0,0,0,0,0,0,0,-1,1175,540,0,0
-42,484,0,0,0,0,0,0,0,0,0,-1,1182,540,0,0
-35,484,0,0,0,0,0,0,0,0,0,-1,1189,540,0,0
-28,484,0,0,0,0,0,0,0,0,0,-1,1196,540,0,0
-21,484,0,0,0,0,0,0,0,0,0,-1,1203,540,0,0
-14,484,0,0,0,0,0,0,0,0,0,-1,1210,540,0,0
-7,484,0,0,0,0,0,0,0,0,0,-1,1217,540,0,0
0,484,0,0,0,0,0,0,0,0,0,-1,1224,540,0,0
7,484,0,0,0,0,0,0,0,0,0,-1,1231,540,0,0
14,484,0,0,0,0,0,0,0,0,0,-1,1238,540,0,0
21,484,0,0,0,0,0,0,0,0,0,-1,1245,540,0,0
28,484,0,0,0,0,0,0,0,0,0,-1,1252,540,0,0
35,484,0,0,0,0,0,0,0,0,0,-1,1259,540,0,0
42,484,0,0,0,0,0,0,0,0,0,-1,1266,540,0,0
49,484,0,0,0,0,0,0,0,0,0,-1,1273,540,0,0
56,484,0,0,0,0,0,0,0,0,0,-1,1280,540,0,0
63,484,0,0,0,0,0,0,0,0,0,-1,1287,540,0,0
70,484,0,0,0,0,0,0,0,0,0,-1,1294,540,0,0
77,484,0,0,0,0,0,0,0,0,0,-1,1301,540,0,0
84,484,0,0,0,0,0,0,0,0,0,-1,1308,540,0,0
91,484,0,0,0,0,0,0,0,0,0,-1,1315,540,0,0
98,484,0,0,0,0,0,0,0,0,0,-1,1322,540,0,0
105,484,0,0,0,0,0,0,0,0,0,-1,1329,540,0,0
112,484,0,0,0,0,0,0,0,0,0,-1,1336,540,0,0
119,484,0,0,0,0,0,0,0,0,0,-1,1343,540,0,0
126,484,0,0,0,0,0,0,0,0,0,-1,1350,540,0,0
133,484,0,0,0,0,0,0,0,0,0,-1,1357,540,0,0
140,484,0,0,0,0,0,0,0,0,0,-1,1364,540,0,0
147,484,0,0,0,0,0,0,0,0,0,-1,1371,540,0,0
154,484,0,0,0,0,0,0,0,0,0,-1,1378,540,0,0
161,484,0,0,0,0,0,0,0,0,0,-1,1385,540,0,0
168,484,0,0,0,0,0,0,0,0,0,-1,1392,540,0,0
175,484,0,0,0,0,0,0,0,0,0,-1,1399,540,0,0
182,484,0,0,0,0,0,0,0,0,0,-1,1406,540,0,0
189,484,0,0,0,0,0,0,0,0,0,-1,1413,540,0,0
196,484,0,0,0,0,0,0,0,0,0,-1,1420,540,0,0
203,484,0,0,0,0,0,0,0,0,0,-1,1427,540,0,0
210,484,0,0,0,0,0,0,0,0,0,-1,1434,540,0,0
217,484,0,0,0,0,0,0,0,0,0,-1,1441,540,0,0
224,484,0,0,0,0,0,0,0,0,0,-1,1448,540,0,0
231,484,0,0,0,0,0,0,0,0,0,-1,1455,540,0,0
238,484,0,0,0,0,0,0,0,0,0,-1,1462,540,0,0
245,484,0,0,0,0,0,0,0,0,0,-1,1469,540,0,0
252,484,0,0,0,0,0,0,0,0,0,-1,1476,540,0,0
259,484,0,0,0,0,0,0,0,0,0,-1,1483,540,0,0
266,484,0,0,0,0,0,0,0,0,0,-1,1490,540,0,0
273,484,0,0,0,0,0,0,0,0,0,-1,1497,540,0,0
280,484,0,0,0,0,0,0,0,0,0,-1,1504,540,0,0
287,484,0,0,0,0,0,0,0,0,0,-1,1511,540,0,0
294,484,0,0,0,0,0,0,0,0,0,-1,1518,540,0,0
301,484,0,0,0,0,0,0,0,0,0,-1,1525,540,0,0
308,484,0,0,0,0,0,0,0,0,0,-1,1532,540,0,0
315,484,0,0,0,0,0,0,0,0,0,-1,1539,540,0,0
322,484,0,0,0,0,0,0,0,0,0,-1,1546,540,0,0
329,484,0,0,0,0,0,0,0,0,0,-1,1553,540,0,0
336,484,4.38708,-1.64136,0,0,0,0,0,0,0,-1,1560,540,4.38704,1.64138
343,484,7.57996,-1.05457,0,0,0,0,0,0,0,-1,1567,540,7.57995,1.05454
350,484,8.10425,-1.18878,0,0,0,0,0,0,0,-1,1574,540,8.1043,1.18877
357,484,7.74902,-3.80286,0,0,0,0,0,0,0,-1,1581,540,7.74901,3.80287
364,484,6.31262,-3.87213,0,0,0,0,0,0,0,-1,1588,540,6.31263,3.87215
371,484,7.21008,0.973511,0,0,0,0,0,0,0,-1,1595,540,7.21014,-0.973541
378,484,11.0563,1.5014,0,0,0,0,0,0,0,-1,1602,540,11.0563,-1.5014
385,484,14.3469,2.5545,0,0,0,0,0,0,0,-1,1609,540,14.3469,-2.55453
392,484,7.39453,-4.95026,0,0,0,0,0,0,0,-1,1616,540,7.39448,4.95023
399,484,7.14417,-2.5639,0,0,0,0,0,0,0,-1,1623,540,7.14417,2.56391
406,484,7.88953,-2.47321,0,0,0,0,0,0,0,-1,1630,540,7.88954,2.47323
413,484,4.4895,-1.08673,0,0,0,0,0,0,0,-1,1637,540,4.48952,1.08674
420,484,4.50012,-2.11255,0,0,0,0,0,0,0,-1,1644,540,4.50012,2.11256
427,484,5.28601,-3.54053,0,0,0,0,0,0,0,-1,1651,540,5.28599,3.54051
434,484,11.1488,-13.5359,0,0,0,0,0,0,0,-1,1658,540,11.1489,13.5359
441,484,13.205,-18.1697,0,0,0,0,0,0,0,-1,1665,540,13.205,18.1697
448,484,13.392,-18.9222,0,0,0,0,0,0,0,-1,1672,540,13.3919,18.9222
455,484,13.4688,-18.3216,0,0,0,0,0,0,0,-1,1679,540,13.4688,18.3216
462,484,13.4966,-17.7242,0.00182827,0.00200321,-3.60014e-05,0.00201033,0.00182115,-1.37557,0.00128182,0.0231529,1686,540,13.4966,17.7242
469,484,13.4933,-17.1835,0.00165644,0.00199785,1.66475e-05,0.00199866,0.00165563,1.52219,0.00123409,0.0170458,1693,540,13.4933,17.1836
476,484,13.4611,-16.6287,0.0015289,0.00185354,9.00319e-05,0.00187683,0.0015056,1.31759,0.00114767,0.0159771,1700,540,13.4611,16.6287
483,484,13.4525,-16.1086,0.00122041,0.0015281,0.000265056,0.00168073,0.00106779,1.04835,0.000982142,0.0129144,1707,540,13.4525,16.1086
490,484,13.4419,-15.608,0.000752408,0.00122864,0.000387079,0.00144498,0.00053607,1.06115,0.000843466,0.0126451,1714,540,13.4418,15.6081
497,484,13.4139,-15.0609,0.000250625,0.00077613,0.000546137,0.00111943,-9.26788e-05,1.00961,0.000779022,0.0139432,1721,540,13.4139,15.0608
504,484,13.4098,-14.4896,-0.000275998,0.000209916,0.000690482,0.000698938,-0.00076502,0.954566,0.000845503,0.0164765,1728,540,13.4097,14.4896
511,484,13.3966,-13.9256,-0.000911056,-0.00043484,0.000801974,0.000163627,-0.00150952,0.929704,0.00106509,0.0181387,1735,540,13.3966,13.9256
518,484,13.3527,-13.4018,-0.00168982,-0.00112655,0.000797868,-0.000562067,-0.0022543,0.955065,0.00135494,0.0149479,1742,540,13.3527,13.4018
525,484,13.3345,-12.8456,-0.00248832,-0.00200466,0.000702636,-0.0015034,-0.00298958,0.951135,0.00172604,0.0134974,1749,540,13.3345,12.8456
532,484,13.3475,-12.2443,-0.00326861,-0.00278137,0.000595972,-0.00238115,-0.00366883,0.979422,0.00214933,0.0157406,1756,540,13.3476,12.2443
539,484,13.298,-11.6345,-0.0040854,-0.00354024,0.000387022,-0.00333944,-0.0042862,1.0922,0.00259999,0.037231,1763,540,13.298,11.6345
546,484,13.2743,-10.9152,0,0,0,0,0,0,0,-1,1770,540,13.2743,10.9151
553,484,12.4246,-8.96423,0,0,0,0,0,0,0,-1,1777,540,12.4246,8.96422
560,484,10.0549,-5.47931,0,0,0,0,0,0,0,-1,1784,540,10.055,5.47928
567,484,7.78223,-1.38312,0,0,0,0,0,0,0,-1,1791,540,7.78224,1.38311
574,484,5.74463,1.50922,0,0,0,0,0,0,0,-1,1798,540,5.74463,-1.50924
581,484,10.34,2.9491,0,0,0,0,0,0,0,-1,1805,540,10.34,-2.94912
588,484,10.6669,2.88568,0,0,0,0,0,0,0,-1,1812,540,10.6669,-2.88567
595,484,10.7233,1.04767,0,0,0,0,0,0,0,-1,1819,540,10.7233,-1.04766
602,484,0,0,0,0,0,0,0,0,0,-1,1826,540,0,0
609,484,0,0,0,0,0,0,0,0,0,-1,1833,540,0,0
616,484,0,0,0,0,0,0,0,0,0,-1,1840,540,0,0
623,484,0,0,0,0,0,0,0,0,0,-1,1847,540,0,0
630,484,0,0,0,0,0,0,0,0,0,-1,1854,540,0,0
637,484,0,0,0,0,0,0,0,0,0,-1,1861,540,0,0
644,484,0,0,0,0,0,0,0,0,0,-1,1868,540,0,0
651,484,0,0,0,0,0,0,0,0,0,-1,1875,540,0,0
658,484,0,0,0,0,0,0,0,0,0,-1,1882,540,0,0
665,484,0,0,0,0,0,0,0,0,0,-1,1889,540,0,0
672,484,0,0,0,0,0,0,0,0,0,-1,1896,540,0,0
679,484,0,0,0,0,0,0,0,0,0,-1,1903,540,0,0
686,484,0,0,0,0,0,0,0,0,0,-1,1910,540,0,0
693,484,0,0,0,0,0,0,0,0,0,-1,1917,540,0,0
700,484,0,0,0,0,0,0,0,0,0,-1,1924,540,0,0
707,484,0,0,0,0,0,0,0,0,0,-1,1931,540,0,0
714,484,0,0,0,0,0,0,0,0,0,-1,1938,540,0,0
721,484,0,0,0,0,0,0,0,0,0,-1,1945,540,0,0
728,484,0,0,0,0,0,0,0,0,0,-1,1952,540,0,0
735,484,0,0,0,0,0,0,0,0,0,-1,1959,540,0,0
742,484,0,0,0,0,0,0,0,0,0,-1,1966,540,0,0
749,484,0,0,0,0,0,0,0,0,0,-1,1973,540,0,0
756,484,0,0,0,0,0,0,0,0,0,-1,1980,540,0,0
763,484,0,0,0,0,0,0,0,0,0,-1,1987,540,0,0
770,484,0,0,0,0,0,0,0,0,0,-1,1994,540,0,0
777,484,0,0,0,0,0,0,0,0,0,-1,2001,540,0,0
784,484,0,0,0,0,0,0,0,0,0,-1,2008,540,0,0
791,484,0,0,0,0,0,0,0,0,0,-1,2015,540,0,0
798,484,0,0,0,0,0,0,0,0,0,-1,2022,540,0,0
805,484,0,0,0,0,0,0,0,0,0,-1,2029,540,0,0
812,484,0,0,0,0,0,0,0,0,0,-1,2036,540,0,0
-700,477,0,0,0,0,0,0,0,0,0,-1,524,547,0,0
-693,477,0,0,0,0,0,0,0,0,0,-1,531,547,0,0
-686,477,0,0,0,0,0,0,0,0,0,-1,538,547,0,0
-679,477,0,0,0,0,0,0,0,0,0,-1,545,547,0,0
-672,477,0,0,0,0,0,0,0,0,0,-1,552,547,0,0
-665,477,0,0,0,0,0,0,0,0,0,-1,559,547,0,0
-658,477,0,0,0,0,0,0,0,0,0,-1,566,547,0,0
-651,477,0,0,0,0,0,0,0,0,0,-1,573,547,0,0
-644,477,0,0,0,0,0,0,0,0,0,-1,580,547,0,0
-637,477,0,0,0,0,0,0,0,0,0,-1,587,547,0,0
-630,477,0,0,0,0,0,0,0,0,0,-1,594,547,0,0
-623,477,0,0,0,0,0,0,0,0,0,-1,601,547,0,0
-616,477,0,0,0,0,0,0,0,0,0,-1,608,547,0,0
-609,477,0,0,0,0,0,0,0,0,0,-1,615,547,0,0
-602,477,0,0,0,0,0,0,0,0,0,-1,622,547,0,0
-595,477,0,0,0,0,0,0,0,0,0,-1,629,547,0,0
-588,477,0,0,0,0,0,0,0,0,0,-1,636,547,0,0
-581,477,0,0,0,0,0,0,0,0,0,-1,643,547,0,0
-574,477,0,0,0,0,0,0,0,0,0,-1,650,547,0,0
-567,477,0,0,0,0,0,0,0,0,0,-1,657,547,0,0
-560,477,0,0,0,0,0,0,0,0,0,-1,664,547,0,0
-553,477,0,0,0,0,0,0,0,0,0,-1,671,547,0,0
-546,477,0,0,0,0,0,0,0,0,0,-1,678,547,0,0
-539,477,0,0,0,0,0,0,0,0,0,-1,685,547,0,0
-532,477,0,0,0,0,0,0,0,0,0,-1,692,547,0,0
-525,477,0,0,0,0,0,0,0,0,0,-1,699,547,0,0
-518,477,0,0,0,0,0,0,0,0,0,-1,706,547,0,0
-511,477,0,0,0,0,0,0,0,0,0,-1,713,547,0,0
-504,477,0,0,0,0,0,0,0,0,0,-1,720,547,0,0
-497,477,0,0,0,0,0,0,0,0,0,-1,727,547,0,0
-490,477,0,0,0,0,0,0,0,0,0,-1,734,547,0,0
-483,477,-7.73151,-0.224182,0,0,0,0,0,0,0,-1,741,547,-7.73152,0.224176
-476,477,-6.25806,-0.310547,0,0,0,0,0,0,0,-1,748,547,-6.25804,0.310549
-469,477,-7.26617,0.525085,0,0,0,0,0,0,0,-1,755,547,-7.2662,-0.525111
-462,477,-6.65143,1.06042,0,0,0,0,0,0,0,-1,762,547,-6.65143,-1.06043
-455,477,-5.31757,0.429016,0,0,0,0,0,0,0,-1,769,547,-5.31756,-0.42902
-448,477,-4.0697,0.273376,0,0,0,0,0,0,0,-1,776,547,-4.06971,-0.273363
-441,477,-2.47504,-4.76971,0,0,0,0,0,0,0,-1,783,547,-2.47505,4.76973
-434,477,-3.94489,-11.6694,0,0,0,0,0,0,0,-1,790,547,-3.94486,11.6694
-427,477,-4.15057,-11.8734,0.000383449,0.0116783,-0.00566428,0.0140295,-0.00196772,-1.17735,0.0100732,0.042239,797,547,-4.15058,11.8734
-420,477,-4.21777,-12.2855,0.000841882,0.0101602,-0.00547822,0.0126926,-0.00169054,-1.13779,0.00907786,0.03418,804,547,-4.21779,12.2855
-413,477,-4.20325,-13.0753,0.00117286,0.00865836,-0.00512481,0.0112616,-0.0014304,-1.10079,0.00802714,0.0195827,811,547,-4.20325,13.0753
-406,477,-4.24615,-13.704,0.00143572,0.00727209,-0.00467224,0.00986259,-0.00115478,-1.06455,0.00699185,0.0120335,818,547,-4.24616,13.704
-399,477,-4.28906,-14.2255,0.00152502,0.00584436,-0.00403007,0.00825696,-0.000887577,-1.03137,0.00582309,0.0204553,825,547,-4.28905,14.2255
-392,477,-4.31482,-14.7709,0.00157989,0.00437706,-0.00331301,0.0065746,-0.000617649,-0.985125,0.00460278,0.0182769,832,547,-4.31481,14.7709
-385,477,-4.31415,-15.2907,0.00168363,0.00301299,-0.00258139,0.0050139,-0.000317275,-0.911406,0.00345322,0.0159524,839,547,-4.31414,15.2907
-378,477,-4.33978,-15.8267,0.00183551,0.00180621,-0.00188503,0.00370594,-6.42322e-05,-0.781512,0.00249232,0.0144987,846,547,-4.33976,15.8267
-371,477,-4.36542,-16.3381,0.00192247,0.000557199,-0.00115489,0.00258139,-0.000101722,-0.518481,0.00175582,0.0139152,853,547,-4.36542,16.3382
-364,477,-4.37286,-16.8427,0.00202051,-0.00060429,-0.000431928,0.00208976,-0.000673539,-0.158974,0.00166377,0.0128286,860,547,-4.37289,16.8427
-357,477,-4.39392,-17.3592,0.00225586,-0.00153339,0.000183053,0.00226469,-0.00154221,0.0481589,0.00221107,0.0112753,867,547,-4.39391,17.3592
-350,477,-4.39233,-17.8606,0.00258304,-0.00236922,0.000676746,0.00267386,-0.00246003,0.133396,0.00296491,0.0103886,874,547,-4.39234,17.8606
-343,477,-4.35248,-18.3924,0.00324193,-0.0028265,0.000775001,0.00333935,-0.00292391,0.125037,0.00361875,0.0179582,881,547,-4.35245,18.3924
-336,477,-4.30066,-18.9154,0.0038663,-0.00339621,0.000918331,0.00398062,-0.00351053,0.123851,0.00432786,0.0375795,888,547,-4.30066,18.9154
-329,477,-4.1488,-19.4101,0,0,0,0,0,0,0,-1,895,547,-4.14881,19.4101
-322,477,-2.04822,-12.0026,0,0,0,0,0,0,0,-1,902,547,-2.04819,12.0026
-315,477,-1.67358,-9.15253,0,0,0,0,0,0,0,-1,909,547,-1.67356,9.15253
-308,477,-1.30127,-6.55188,0,0,0,0,0,0,0,-1,916,547,-1.30128,6.55185
-301,477,-1.21185,-6.28351,0,0,0,0,0,0,0,-1,923,547,-1.21184,6.28352
-294,477,-0.352905,3.27142,0,0,0,0,0,0,0,-1,930,547,-0.35292,-3.27144
-287,477,3.54364,2.15399,0,0,0,0,0,0,0,-1,937,547,3.54362,-2.15396
-280,477,1.97308,-0.954163,0,0,0,0,0,0,0,-1,944,547,1.9731,0.954178
-273,477,2.11621,-3.76709,0,0,0,0,0,0,0,-1,951,547,2.11619,3.76706
-266,477,2.04669,-3.42389,0,0,0,0,0,0,0,-1,958,547,2.04671,3.42391
-259,477,-1.33478,-3.41205,0,0,0,0,0,0,0,-1,965,547,-1.3348,3.41206
-252,477,0.597168,-5.32922,0,0,0,0,0,0,0,-1,972,547,0.597144,5.32924
-245,477,8.2309,-8.48492,0,0,0,0,0,0,0,-1,979,547,8.23091,8.48494
-238,477,6.60938,-5.64063,0,0,0,0,0,0,0,-1,986,547,6.60938,5.64063
-231,477,4.71716,-2.52484,0,0,0,0,0,0,0,-1,993,547,4.71716,2.52483
-224,477,0,0,0,0,0,0,0,0,0,-1,1000,547,0,0
-217,477,0,0,0,0,0,0,0,0,0,-1,1007,547,0,0
-210,477,0,0,0,0,0,0,0,0,0,-1,1014,547,0,0
-203,477,0,0,0,0,0,0,0,0,0,-1,1021,547,0,0
-196,477,0,0,0,0,0,0,0,0,0,-1,1028,547,0,0
-189,477,0,0,0,0,0,0,0,0,0,-1,1035,547,0,0
-182,477,0,0,0,0,0,0,0,0,0,-1,1042,547,0,0
-175,477,0,0,0,0,0,0,0,0,0,-1,1049,547,0,0
-168,477,0,0,0,0,0,0,0,0,0,-1,1056,547,0,0
-161,477,0,0,0,0,0,0,0,0,0,-1,1063,547,0,0
-154,477,0,0,0,0,0,0,0,0,0,-1,1070,547,0,0
-147,477,0,0,0,0,0,0,0,0,0,-1,1077,547,0,0
-140,477,0,0,0,0,0,0,0,0,0,-1,1084,547,0,0
-133,477,0,0,0,0,0,0,0,0,0,-1,1091,547,0,0
-126,477,0,0,0,0,0,0,0,0,0,-1,1098,547,0,0
-119,477,0,0,0,0,0,0,0,0,0,-1,1105,547,0,0
-112,477,0,0,0,0,0,0,0,0,0,-1,1112,547,0,0
-105,477,0,0,0,0,0,0,0,0,0,-1,1119,547,0,0
-98,477,0,0,0,0,0,0,0,0,0,-1,1126,547,0,0
-91,477,0,0,0,0,0,0,0,0,0,-1,1133,547,0,0
-84,477,0,0,0,0,0,0,0,0,0,-1,1140,547,0,0
-77,477,0,0,0,0,0,0,0,0,0,-1,1147,547,0,0
-70,477,0,0,0,0,0,0,0,0,0,-1,1154,547,0,0
-63,477,0,0,0,0,0,0,0,0,0,-1,1161,547,0,0
-56,477,0,0,0,0,0,0,0,0,0,-1,1168,547,0,0
-49,477,0,0,0,0,0,0,0,0,0,-1,1175,547,0,0
-42,477,0,0,0,0,0,0,0,0,0,-1,1182,547,0,0
-35,477,0,0,0,0,0,0,0,0,0,-1,1189,547,0,0
-28,477,0,0,0,0,0,0,0,0,0,-1,1196,547,0,0
-21,477,0,0,0,0,0,0,0,0,0,-1,1203,547,0,0
-14,477,0,0,0,0,0,0,0,0,0,-1,1210,547,0,0
-7,477,0,0,0,0,0,0,0,0,0,-1,1217,547,0,0
0,477,0,0,0,0,0,0,0,0,0,-1,1224,547,0,0
7,477,0,0,0,0,0,0,0,0,0,-1,1231,547,0,0
14,477,0,0,0,0,0,0,0,0,0,-1,1238,547,0,0
21,477,0,0,0,0,0,0,0,0,0,-1,1245,547,0,0
28,477,0,0,0,0,0,0,0,0,0,-1,1252,547,0,0
35,477,0,0,0,0,0,0,0,0,0,-1,1259,547,0,0
42,477,0,0,0,0,0,0,0,0,0,-1,1266,547,0,0
49,477,0,0,0,0,0,0,0,0,0,-1,1273,547,0,0
56,477,0,0,0,0,0,0,0,0,0,-1,1280,547,0,0
63,477,0,0,0,0,0,0,0,0,0,-1,1287,547,0,0
70,477,0,0,0,0,0,0,0,0,0,-1,1294,547,0,0
77,477,0,0,0,0,0,0,0,0,0,-1,1301,547,0,0
84,477,0,0,0,0,0,0,0,0,0,-1,1308,547,0,0
91,477,0,0,0,0,0,0,0,0,0,-1,1315,547,0,0
98,477,0,0,0,0,0,0,0,0,0,-1,1322,547,0,0
105,477,0,0,0,0,0,0,0,0,0,-1,1329,547,0,0
112,477,0,0,0,0,0,0,0,0,0,-1,1336,547,0,0
119,477,0,0,0,0,0,0,0,0,0,-1,1343,547,0,0
126,477,0,0,0,0,0,0,0,0,0,-1,1350,547,0,0
133,477,0,0,0,0,0,0,0,0,0,-1,1357,547,0,0
140,477,0,0,0,0,0,0,0,0,0,-1,1364,547,0,0
147,477,0,0,0,0,0,0,0,0,0,-1,1371,547,0,0
154,477,0,0,0,0,0,0,0,0,0,-1,1378,547,0,0
161,477,0,0,0,0,0,0,0,0,0,-1,1385,547,0,0
168,477,0,0,0,0,0,0,0,0,0,-1,1392,547,0,0
175,477,0,0,0,0,0,0,0,0,0,-1,1399,547,0,0
182,477,0,0,0,0,0,0,0,0,0,-1,1406,547,0,0
189,477,0,0,0,0,0,0,0,0,0,-1,1413,547,0,0
196,477,0,0,0,0,0,0,0,0,0,-1,1420,547,0,0
203,477,0,0,0,0,0,0,0,0,0,-1,1427,547,0,0
210,477,0,0,0,0,0,0,0,0,0,-1,1434,547,0,0
217,477,0,0,0,0,0,0,0,0,0,-1,1441,547,0,0
224,477,0,0,0,0,0,0,0,0,0,-1,1448,547,0,0
231,477,0,0,0,0,0,0,0,0,0,-1,1455,547,0,0
238,477,0,0,0,0,0,0,0,0,0,-1,1462,547,0,0
245,477,0,0,0,0,0,0,0,0,0,-1,1469,547,0,0
252,477,0,0,0,0,0,0,0,0,0,-1,1476,547,0,0
259,477,0,0,0,0,0,0,0,0,0,-1,1483,547,0,0
266,477,0,0,0,0,0,0,0,0,0,-1,1490,547,0,0
273,477,0,0,0,0,0,0,0,0,0,-1,1497,547,0,0
280,477,0,0,0,0,0,0,0,0,0,-1,1504,547,0,0
287,477,0,0,0,0,0,0,0,0,0,-1,1511,547,0,0
294,477,0,0,0,0,0,0,0,0,0,-1,1518,547,0,0
301,477,0,0,0,0,0,0,0,0,0,-1,1525,547,0,0
308,477,0,0,0,0,0,0,0,0,0,-1,1532,547,0,0
315,477,0,0,0,0,0,0,0,0,0,-1,1539,547,0,0
322,477,0,0,0,0,0,0,0,0,0,-1,1546,547,0,0
329,477,0,0,0,0,0,0,0,0,0,-1,1553,547,0,0
336,477,0,0,0,0,0,0,0,0,0,-1,1560,547,0,0
343,477,0,0,0,0,0,0,0,0,0,-1,1567,547,0,0
350,477,1.7699,-3.32275,0,0,0,0,0,0,0,-1,1574,547,1.7699,3.32272
357,477,3.073,-4.83313,0,0,0,0,0,0,0,-1,1581,547,3.07303,4.83316
364,477,4.30127,-4.22864,0,0,0,0,0,0,0,-1,1588,547,4.30125,4.22865
371,477,4.57703,0.283264,0,0,0,0,0,0,0,-1,1595,547,4.57706,-0.283262
378,477,8.57947,1.05969,0,0,0,0,0,0,0,-1,1602,547,8.5795,-1.05972
385,477,12.3726,2.02356,0,0,0,0,0,0,0,-1,1609,547,12.3725,-2.02355
392,477,16.4678,2.76843,0,0,0,0,0,0,0,-1,1616,547,16.4678,-2.76845
399,477,8.00037,-2.29523,0,0,0,0,0,0,0,-1,1623,547,8.00031,2.2952
406,477,4.82495,2.7475,0,0,0,0,0,0,0,-1,1630,547,4.825,-2.74752
413,477,4.88171,-0.336426,0,0,0,0,0,0,0,-1,1637,547,4.88169,0.336398
420,477,3.34875,0.102722,0,0,0,0,0,0,0,-1,1644,547,3.34871,-0.1027
427,477,1.66772,-0.373108,0,0,0,0,0,0,0,-1,1651,547,1.66768,0.373104
434,477,3.76978,-2.30798,0,0,0,0,0,0,0,-1,1658,547,3.76974,2.30801
441,477,4.05444,-2.80402,0,0,0,0,0,0,0,-1,1665,547,4.05444,2.804
448,477,10.4247,-11.7421,0,0,0,0,0,0,0,-1,1672,547,10.4247,11.7421
455,477,13.3054,-16.8109,0,0,0,0,0,0,0,-1,1679,547,13.3054,16.8109
462,477,14.015,-17.838,0,0,0,0,0,0,0,-1,1686,547,14.015,17.8379
469,477,14.0841,-17.1402,0.0018191,0.0025631,-9.27433e-05,0.00257449,0.00180771,-1.44863,0.00152635,0.0399012,1693,547,14.0841,17.1402
476,477,14.0149,-16.6351,0.00182629,0.00244952,-6.16673e-05,0.00245557,0.00182025,-1.47311,0.00147171,0.0206894,1700,547,14.0149,16.6351
483,477,14.0144,-16.1122,0.0016056,0.00210129,0.000134173,0.00213528,0.00157161,1.32271,0.00127777,0.0129977,1707,547,14.0144,16.1122
490,477,13.9788,-15.5936,0.00120705,0.00184568,0.000249223,0.00193142,0.0011213,1.23943,0.00111992,0.0131123,1714,547,13.9788,15.5936
497,477,13.947,-15.0369,0.000769989,0.00143341,0.000399804,0.00162119,0.000582203,1.13169,0.000948299,0.0145514,1721,547,13.947,15.0369
504,477,13.9368,-14.4764,0.000320936,0.000928835,0.000525134,0.00123164,1.81315e-05,1.04774,0.000815117,0.019263,1728,547,13.9368,14.4764
511,477,13.9448,-13.9443,-0.000221719,0.000381411,0.000628811,0.000777231,-0.000617538,1.00899,0.000807028,0.0236543,1735,547,13.9448,13.9443
518,477,13.9332,-13.4075,-0.000889623,-0.000180009,0.000631526,0.000189554,-0.00125919,1.04134,0.000909253,0.0201906,1742,547,13.9333,13.4075
525,477,13.896,-12.8061,-0.0015557,-0.000884672,0.000556253,-0.00057058,-0.00186979,1.05677,0.00110651,0.0174913,1749,547,13.896,12.8061
532,477,13.8348,-12.2064,-0.00221381,-0.00147245,0.000467122,-0.0012468,-0.00243946,1.12079,0.00140854,0.0211107,1756,547,13.8348,12.2064
539,477,13.8474,-11.6155,-0.00289859,-0.00204495,0.000307281,-0.00194584,-0.00299769,1.25881,0.00175619,0.0182382,1763,547,13.8474,11.6155
546,477,13.7834,-11.1279,-0.0037002,-0.00262097,2.68127e-05,-0.0026203,-0.00370087,1.54597,0.00219747,0.03759,1770,547,13.7834,11.128
553,477,13.8369,-10.4037,0,0,0,0,0,0,0,-1,1777,547,13.8369,10.4037
560,477,13.7404,-9.38354,0,0,0,0,0,0,0,-1,1784,547,13.7404,9.38354
567,477,13.9529,-8.70972,0,0,0,0,0,0,0,-1,1791,547,13.9529,8.7097
574,477,6.82593,-0.916992,0,0,0,0,0,0,0,-1,1798,547,6.82598,0.916977
581,477,9.29321,-0.557007,0,0,0,0,0,0,0,-1,1805,547,9.29324,0.55703
588,477,9.75195,0.422729,0,0,0,0,0,0,0,-1,1812,547,9.75198,-0.42273
595,477,9.89172,1.21326,0,0,0,0,0,0,0,-1,1819,547,9.89174,-1.21328
602,477,6.5271,-0.964417,0,0,0,0,0,0,0,-1,1826,547,6.52706,0.964427
609,477,0,0,0,0,0,0,0,0,0,-1,1833,547,0,0
616,477,0,0,0,0,0,0,0,0,0,-1,1840,547,0,0
623,477,0,0,0,0,0,0,0,0,0,-1,1847,547,0,0
630,477,0,0,0,0,0,0,0,0,0,-1,1854,547,0,0
637,477,0,0,0,0,0,0,0,0,0,-1,1861,547,0,0
644,477,0,0,0,0,0,0,0,0,0,-1,1868,547,0,0
651,477,0,0,0,0,0,0,0,0,0,-1,1875,547,0,0
658,477,0,0,0,0,0,0,0,0,0,-1,1882,547,0,0
665,477,0,0,0,0,0,0,0,0,0,-1,1889,547,0,0
672,477,0,0,0,0,0,0,0,0,0,-1,1896,547,0,0
679,477,0,0,0,0,0,0,0,0,0,-1,1903,547,0,0
686,477,0,0,0,0,0,0,0,0,0,-1,1910,547,0,0
693,477,0,0,0,0,0,0,0,0,0,-1,1917,547,0,0
700,477,0,0,0,0,0,0,0,0,0,-1,1924,547,0,0
707,477,0,0,0,0,0,0,0,0,0,-1,1931,547,0,0
714,477,0,0,0,0,0,0,0,0,0,-1,1938,547,0,0
721,477,0,0,0,0,0,0,0,0,0,-1,1945,547,0,0
728,477,0,0,0,0,0,0,0,0,0,-1,1952,547,0,0
735,477,0,0,0,0,0,0,0,0,0,-1,1959,547,0,0
742,477,0,0,0,0,0,0,0,0,0,-1,1966,547,0,0
749,477,0,0,0,0,0,0,0,0,0,-1,1973,547,0,0
756,477,0,0,0,0,0,0,0,0,0,-1,1980,547,0,0
763,477,0,0,0,0,0,0,0,0,0,-1,1987,547,0,0
770,477,0,0,0,0,0,0,0,0,0,-1,1994,547,0,0
777,477,0,0,0,0,0,0,0,0,0,-1,2001,547,0,0
784,477,0,0,0,0,0,0,0,0,0,-1,2008,547,0,0
791,477,0,0,0,0,0,0,0,0,0,-1,2015,547,0,0
798,477,0,0,0,0,0,0,0,0,0,-1,2022,547,0,0
805,477,0,0,0,0,0,0,0,0,0,-1,2029,547,0,0
812,477,0,0,0,0,0,0,0,0,0,-1,2036,547,0,0
-700,470,0,0,0,0,0,0,0,0,0,-1,524,554,0,0
-693,470,0,0,0,0,0,0,0,0,0,-1,531,554,0,0
-686,470,0,0,0,0,0,0,0,0,0,-1,538,554,0,0
-679,470,0,0,0,0,0,0,0,0,0,-1,545,554,0,0
-672,470,0,0,0,0,0,0,0,0,0,-1,552,554,0,0
-665,470,0,0,0,0,0,0,0,0,0,-1,559,554,0,0
-658,470,0,0,0,0,0,0,0,0,0,-1,566,554,0,0
-651,470,0,0,0,0,0,0,0,0,0,-1,573,554,0,0
-644,470,0,0,0,0,0,0,0,0,0,-1,580,554,0,0
-637,470,0,0,0,0,0,0,0,0,0,-1,587,554,0,0
-630,470,0,0,0,0,0,0,0,0,0,-1,594,554,0,0
-623,470,0,0,0,0,0,0,0,0,0,-1,601,554,0,0
-616,470,0,0,0,0,0,0,0,0,0,-1,608,554,0,0
-609,470,0,0,0,0,0,0,0,0,0,-1,615,554,0,0
-602,470,0,0,0,0,0,0,0,0,0,-1,622,554,0,0
-595,470,0,0,0,0,0,0,0,0,0,-1,629,554,0,0
-588,470,0,0,0,0,0,0,0,0,0,-1,636,554,0,0
-581,470,0,0,0,0,0,0,0,0,0,-1,643,554,0,0
-574,470,0,0,0,0,0,0,0,0,0,-1,650,554,0,0
-567,470,0,0,0,0,0,0,0,0,0,-1,657,554,0,0
-560,470,0,0,0,0,0,0,0,0,0,-1,664,554,0,0
-553,470,0,0,0,0,0,0,0,0,0,-1,671,554,0,0
-546,470,0,0,0,0,0,0,0,0,0,-1,678,554,0,0
-539,470,0,0,0,0,0,0,0,0,0,-1,685,554,0,0
-532,470,0,0,0,0,0,0,0,0,0,-1,692,554,0,0
-525,470,0,0,0,0,0,0,0,0,0,-1,699,554,0,0
-518,470,0,0,0,0,0,0,0,0,0,-1,706,554,0,0
-511,470,0,0,0,0,0,0,0,0,0,-1,713,554,0,0
-504,470,0,0,0,0,0,0,0,0,0,-1,720,554,0,0
-497,470,0,0,0,0,0,0,0,0,0,-1,727,554,0,0
-490,470,-9.13263,-1.03125,0,0,0,0,0,0,0,-1,734,554,-9.1326,1.03127
-483,470,-7.68677,-1.03955,0,0,0,0,0,0,0,-1,741,554,-7.68678,1.03958
-476,470,-6.17969,-1.03394,0,0,0,0,0,0,0,-1,748,554,-6.17971,1.03395
-469,470,-6.23016,-0.651855,0,0,0,0,0,0,0,-1,755,554,-6.23014,0.651829
-462,470,-4.87915,-1.03705,0,0,0,0,0,0,0,-1,762,554,-4.87914,1.03702
-455,470,-4.14777,-1.37079,0,0,0,0,0,0,0,-1,769,554,-4.14779,1.37078
-448,470,-2.9314,-5.74518,0,0,0,0,0,0,0,-1,776,554,-2.93137,5.74518
-441,470,-4.5376,-10.8951,0,0,0,0,0,0,0,-1,783,554,-4.53761,10.8952
-434,470,-4.53607,-11.5353,-0.000740091,0.00966123,-0.00403204,0.0110412,-0.00212003,-1.24105,0.00815978,0.0471677,790,554,-4.53606,11.5353
-427,470,-4.74396,-11.9604,-0.000213242,0.00866848,-0.00394635,0.0101686,-0.00171333,-1.20754,0.00741642,0.0213916,797,554,-4.74396,11.9604
-420,470,-4.72766,-12.5442,0.000243137,0.00750499,-0.00376865,0.00910726,-0.00135913,-1.16879,0.00657157,0.0146743,804,554,-4.72767,12.5442
-413,470,-4.75897,-13.1434,0.000557395,0.00627813,-0.00341982,0.00787611,-0.00104059,-1.13367,0.00562975,0.0131867,811,554,-4.75899,13.1434
-406,470,-4.79211,-13.6644,0.000847822,0.00515161,-0.0030359,0.00672092,-0.000721484,-1.09371,0.00473945,0.0121169,818,554,-4.79213,13.6643
-399,470,-4.80042,-14.1979,0.00103387,0.00399569,-0.00251455,0.00543301,-0.000403452,-1.05152,0.0037637,0.0153159,825,554,-4.8004,14.1979
-392,470,-4.80853,-14.7292,0.00121136,0.00275773,-0.00193607,0.0040693,-0.000100205,-0.975375,0.00274688,0.0138163,832,554,-4.80855,14.7292
-385,470,-4.80286,-15.2422,0.00143675,0.00160814,-0.0013577,0.00288285,0.00016205,-0.816916,0.00187022,0.0117239,839,554,-4.80286,15.2422
-378,470,-4.82367,-15.7907,0.00168859,0.000555788,-0.000789937,0.00209421,0.000150176,-0.474368,0.00134887,0.0171503,846,554,-4.82369,15.7907
-371,470,-4.86902,-16.3182,0.00189241,-0.000529396,-0.000192199,0.00190757,-0.000544554,-0.0787054,0.00148685,0.0148857,853,554,-4.86902,16.3182
-364,470,-4.8764,-16.8186,0.00213055,-0.00151613,0.00036114,0.00216598,-0.00155155,0.0977672,0.00215606,0.0144021,860,554,-4.87639,16.8186
-357,470,-4.89063,-17.3437,0.00250486,-0.00235237,0.000805785,0.00263504,-0.00248256,0.16018,0.00295508,0.0143914,867,554,-4.8906,17.3437
-350,470,-4.90228,-17.8615,0.00295236,-0.00315353,0.00114985,0.00316172,-0.00336289,0.180102,0.00376758,0.0117172,874,554,-4.90227,17.8615
-343,470,-4.82037,-18.3443,0.00390357,-0.00343811,0.000917883,0.00401658,-0.00355113,0.122512,0.00437197,0.0384227,881,554,-4.82038,18.3443
-336,470,-4.8111,-18.9095,0,0,0,0,0,0,0,-1,888,554,-4.8111,18.9095
-329,470,-2.78516,-12.3594,0,0,0,0,0,0,0,-1,895,554,-2.78517,12.3594
-322,470,-2.30829,-11.4527,0,0,0,0,0,0,0,-1,902,554,-2.30827,11.4527
-315,470,-1.04797,-8.29529,0,0,0,0,0,0,0,-1,909,554,-1.04797,8.29526
-308,470,-1.39368,-6.68152,0,0,0,0,0,0,0,-1,916,554,-1.39369,6.68149
-301,470,-0.0340576,3.34888,0,0,0,0,0,0,0,-1,923,554,-0.0340496,-3.3489
-294,470,-1.18378,3.22266,0,0,0,0,0,0,0,-1,930,554,-1.18376,-3.22268
-287,470,-2.15454,3.2204,0,0,0,0,0,0,0,-1,937,554,-2.15452,-3.22037
-280,470,-3.00537,3.099,0,0,0,0,0,0,0,-1,944,554,-3.00536,-3.09898
-273,470,-12.3932,3.65009,0,0,0,0,0,0,0,-1,951,554,-12.3932,-3.65011
-266,470,-11.5706,1.16028,0,0,0,0,0,0,0,-1,958,554,-11.5706,-1.16031
-259,470,-7.50415,-2.77167,0,0,0,0,0,0,0,-1,965,554,-7.50413,2.7717
-252,470,-0.371155,-5.87823,0,0,0,0,0,0,0,-1,972,554,-0.37114,5.87821
-245,470,1.33221,-6.81122,0,0,0,0,0,0,0,-1,979,554,1.33223,6.8112
-238,470,0,0,0,0,0,0,0,0,0,-1,986,554,0,0
-231,470,0,0,0,0,0,0,0,0,0,-1,993,554,0,0
-224,470,0,0,0,0,0,0,0,0,0,-1,1000,554,0,0
-217,470,0,0,0,0,0,0,0,0,0,-1,1007,554,0,0
-210,470,0,0,0,0,0,0,0,0,0,-1,1014,554,0,0
-203,470,0,0,0,0,0,0,0,0,0,-1,1021,554,0,0
-196,470,0,0,0,0,0,0,0,0,0,-1,1028,554,0,0
-189,470,0,0,0,0,0,0,0,0,0,-1,1035,554,0,0
-182,470,0,0,0,0,0,0,0,0,0,-1,1042,554,0,0
-175,470,0,0,0,0,0,0,0,0,0,-1,1049,554,0,0
-168,470,0,0,0,0,0,0,0,0,0,-1,1056,554,0,0
-161,470,0,0,0,0,0,0,0,0,0,-1,1063,554,0,0
-154,470,0,0,0,0,0,0,0,0,0,-1,1070,554,0,0
-147,470,0,0,0,0,0,0,0,0,0,-1,1077,554,0,0
-140,470,0,0,0,0,0,0,0,0,0,-1,1084,554,0,0
-133,470,0,0,0,0,0,0,0,0,0,-1,1091,554,0,0
-126,470,0,0,0,0,0,0,0,0,0,-1,1098,554,0,0
-119,470,0,0,0,0,0,0,0,0,0,-1,1105,554,0,0
-112,470,0,0,0,0,0,0,0,0,0,-1,1112,554,0,0
-105,470,0,0,0,0,0,0,0,0,0,-1,1119,554,0,0
-98,470,0,0,0,0,0,0,0,0,0,-1,1126,554,0,0
-91,470,0,0,0,0,0,0,0,0,0,-1,1133,554,0,0
-84,470,0,0,0,0,0,0,0,0,0,-1,1140,554,0,0
-77,470,0,0,0,0,0,0,0,0,0,-1,1147,554,0,0
-70,470,0,0,0,0,0,0,0,0,0,-1,1154,554,0,0
-63,470,0,0,0,0,0,0,0,0,0,-1,1161,554,0,0
-56,470,0,0,0,0,0,0,0,0,0,-1,1168,554,0,0
-49,470,0,0,0,0,0,0,0,0,0,-1,1175,554,0,0
-42,470,0,0,0,0,0,0,0,0,0,-1,1182,554,0,0
-35,470,0,0,0,0,0,0,0,0,0,-1,1189,554,0,0
-28,470,0,0,0,0,0,0,0,0,0,-1,1196,554,0,0
-21,470,0,0,0,0,0,0,0,0,0,-1,1203,554,0,0
-14,470,0,0,0,0,0,0,0,0,0,-1,1210,554,0,0
-7,470,0,0,0,0,0,0,0,0,0,-1,1217,554,0,0
0,470,0,0,0,0,0,0,0,0,0,-1,1224,554,0,0
7,470,0,0,0,0,0,0,0,0,0,-1,1231,554,0,0
14,470,0,0,0,0,0,0,0,0,0,-1,1238,554,0,0
21,470,0,0,0,0,0,0,0,0,0,-1,1245,554,0,0
28,470,0,0,0,0,0,0,0,0,0,-1,1252,554,0,0
35,470,0,0,0,0,0,0,0,0,0,-1,1259,554,0,0
42,470,0,0,0,0,0,0,0,0,0,-1,1266,554,0,0
49,470,0,0,0,0,0,0,0,0,0,-1,1273,554,0,0
56,470,0,0,0,0,0,0,0,0,0,-1,1280,554,0,0
63,470,0,0,0,0,0,0,0,0,0,-1,1287,554,0,0
70,470,0,0,0,0,0,0,0,0,0,-1,1294,554,0,0
77,470,0,0,0,0,0,0,0,0,0,-1,1301,554,0,0
84,470,0,0,0,0,0,0,0,0,0,-1,1308,554,0,0
91,470,0,0,0,0,0,0,0,0,0,-1,1315,554,0,0
98,470,0,0,0,0,0,0,0,0,0,-1,1322,554,0,0
105,470,0,0,0,0,0,0,0,0,0,-1,1329,554,0,0
112,470,0,0,0,0,0,0,0,0,0,-1,1336,554,0,0
119,470,0,0,0,0,0,0,0,0,0,-1,1343,554,0,0
126,470,0,0,0,0,0,0,0,0,0,-1,1350,554,0,0
133,470,0,0,0,0,0,0,0,0,0,-1,1357,554,0,0
140,470,0,0,0,0,0,0,0,0,0,-1,1364,554,0,0
147,470,0,0,0,0,0,0,0,0,0,-1,1371,554,0,0
154,470,0,0,0,0,0,0,0,0,0,-1,1378,554,0,0
161,470,0,0,0,0,0,0,0,0,0,-1,1385,554,0,0
168,470,0,0,0,0,0,0,0,0,0,-1,1392,554,0,0
175,470,0,0,0,0,0,0,0,0,0,-1,1399,554,0,0
182,470,0,0,0,0,0,0,0,0,0,-1,1406,554,0,0
189,470,0,0,0,0,0,0,0,0,0,-1,1413,554,0,0
196,470,0,0,0,0,0,0,0,0,0,-1,1420,554,0,0
203,470,0,0,0,0,0,0,0,0,0,-1,1427,554,0,0
210,470,0,0,0,0,0,0,0,0,0,-1,1434,554,0,0
217,470,0,0,0,0,0,0,0,0,0,-1,1441,554,0,0
224,470,0,0,0,0,0,0,0,0,0,-1,1448,554,0,0
231,470,0,0,0,0,0,0,0,0,0,-1,1455,554,0,0
238,470,0,0,0,0,0,0,0,0,0,-1,1462,554,0,0
245,470,0,0,0,0,0,0,0,0,0,-1,1469,554,0,0
252,470,0,0,0,0,0,0,0,0,0,-1,1476,554,0,0
259,470,0,0,0,0,0,0,0,0,0,-1,1483,554,0,0
266,470,0,0,0,0,0,0,0,0,0,-1,1490,554,0,0
273,470,0,0,0,0,0,0,0,0,0,-1,1497,554,0,0
280,470,0,0,0,0,0,0,0,0,0,-1,1504,554,0,0
287,470,0,0,0,0,0,0,0,0,0,-1,1511,554,0,0
294,470,0,0,0,0,0,0,0,0,0,-1,1518,554,0,0
301,470,0,0,0,0,0,0,0,0,0,-1,1525,554,0,0
308,470,0,0,0,0,0,0,0,0,0,-1,1532,554,0,0
315,470,0,0,0,0,0,0,0,0,0,-1,1539,554,0,0
322,470,0,0,0,0,0,0,0,0,0,-1,1546,554,0,0
329,470,0,0,0,0,0,0,0,0,0,-1,1553,554,0,0
336,470,0,0,0,0,0,0,0,0,0,-1,1560,554,0,0
343,470,0,0,0,0,0,0,0,0,0,-1,1567,554,0,0
350,470,0,0,0,0,0,0,0,0,0,-1,1574,554,0,0
357,470,0,0,0,0,0,0,0,0,0,-1,1581,554,0,0
364,470,1.33423,0.293335,0,0,0,0,0,0,0,-1,1588,554,1.33422,-0.293348
371,470,2.22498,-0.0305176,0,0,0,0,0,0,0,-1,1595,554,2.22494,0.0305046
378,470,6.27051,0.710083,0,0,0,0,0,0,0,-1,1602,554,6.27054,-0.710093
385,470,10.3657,1.47296,0,0,0,0,0,0,0,-1,1609,554,10.3657,-1.47299
392,470,15.3881,3.01935,0,0,0,0,0,0,0,-1,1616,554,15.388,-3.01937
399,470,18.4479,2.93793,0,0,0,0,0,0,0,-1,1623,554,18.4479,-2.93792
406,470,15.1896,1.36676,0,0,0,0,0,0,0,-1,1630,554,15.1896,-1.36679
413,470,6.55383,1.99207,0,0,0,0,0,0,0,-1,1637,554,6.5538,-1.99208
420,470,4.47095,0.845703,0,0,0,0,0,0,0,-1,1644,554,4.47098,-0.845718
427,470,3.51038,1.19684,0,0,0,0,0,0,0,-1,1651,554,3.51039,-1.19684
434,470,3.31775,-1.37427,0,0,0,0,0,0,0,-1,1658,554,3.31781,1.37426
441,470,2.55457,-2.05902,0,0,0,0,0,0,0,-1,1665,554,2.55461,2.05904
448,470,3.27258,-2.64032,0,0,0,0,0,0,0,-1,1672,554,3.27257,2.64029
455,470,10.3658,-9.82233,0,0,0,0,0,0,0,-1,1679,554,10.3659,9.82233
462,470,11.0651,-11.9958,0,0,0,0,0,0,0,-1,1686,554,11.0651,11.9958
469,470,14.3274,-17.3568,0,0,0,0,0,0,0,-1,1693,554,14.3274,17.3568
476,470,14.4729,-16.6476,0.00257616,0.00277144,-1.10522e-05,0.00277206,0.00257554,-1.51444,0.00178614,0.0489581,1700,554,14.4729,16.6476
483,470,14.5679,-16.1025,0.00244696,0.0024354,0.000270268,0.00271151,0.00217085,0.774705,0.00165712,0.0177864,1707,554,14.5679,16.1026
490,470,14.5205,-15.5566,0.00205513,0.00229422,0.000401903,0.00259398,0.00175537,0.929956,0.0015285,0.0130931,1714,554,14.5205,15.5567
497,470,14.5055,-15.0035,0.00157446,0.00197111,0.000541211,0.00234919,0.00119638,0.961023,0.00135638,0.0133519,1721,554,14.5055,15.0035
504,470,14.5005,-14.4777,0.0010748,0.00157161,0.000611288,0.00198304,0.000663374,0.978388,0.00116562,0.0202285,1728,554,14.5005,14.4777
511,470,14.4862,-13.9578,0.0004904,0.00115961,0.000650367,0.0015564,9.36104e-05,1.02298,0.00100785,0.0285987,1735,554,14.4862,13.9578
518,470,14.5028,-13.3865,-0.000198093,0.000750339,0.000595212,0.00103715,-0.000484902,1.12177,0.00089783,0.0277081,1742,554,14.5028,13.3865
525,470,14.5031,-12.7928,-0.00087385,0.000229545,0.00046305,0.000398115,-0.00104242,1.22167,0.000858976,0.0164941,1749,554,14.503,12.7928
532,470,14.4189,-12.1927,-0.00155315,-0.000194698,0.000300673,-0.000131124,-0.00161672,1.36243,0.00103687,0.0142702,1756,554,14.4189,12.1927
539,470,14.3892,-11.6199,-0.00223292,-0.000619019,9.6368e-05,-0.000613285,-0.00223865,1.51137,0.00133579,0.0169464,1763,554,14.3891,11.6199
546,470,14.385,-11.0675,-0.0029928,-0.00107202,-0.000225896,-0.00104581,-0.00301901,-1.45529,0.00177023,0.0157264,1770,554,14.385,11.0675
553,470,14.402,-10.466,-0.00373484,-0.001326,-0.000530767,-0.00121424,-0.0038466,-1.36326,0.00227059,0.0222199,1777,554,14.4019,10.466
560,470,14.3856,-9.83673,-0.00446753,-0.00168641,-0.000853839,-0.00144519,-0.00470875,-1.29546,0.00278534,0.0384151,1784,554,14.3857,9.83676
567,470,14.3309,-9.13672,0,0,0,0,0,0,0,-1,1791,554,14.3309,9.13671
574,470,14.2793,-8.07147,0,0,0,0,0,0,0,-1,1798,554,14.2793,8.07147
581,470,8.24646,-4.06317,0,0,0,0,0,0,0,-1,1805,554,8.24648,4.06318
588,470,11.1803,1.74927,0,0,0,0,0,0,0,-1,1812,554,11.1803,-1.74926
595,470,4.72192,3.44116,0,0,0,0,0,0,0,-1,1819,554,4.72191,-3.44116
602,470,14.4307,2.76141,0,0,0,0,0,0,0,-1,1826,554,14.4306,-2.76139
609,470,20.9181,4.41058,0,0,0,0,0,0,0,-1,1833,554,20.9181,-4.4106
616,470,0,0,0,0,0,0,0,0,0,-1,1840,554,0,0
623,470,0,0,0,0,0,0,0,0,0,-1,1847,554,0,0
630,470,0,0,0,0,0,0,0,0,0,-1,1854,554,0,0
637,470,0,0,0,0,0,0,0,0,0,-1,1861,554,0,0
644,470,0,0,0,0,0,0,0,0,0,-1,1868,554,0,0
651,470,0,0,0,0,0,0,0,0,0,-1,1875,554,0,0
658,470,0,0,0,0,0,0,0,0,0,-1,1882,554,0,0
665,470,0,0,0,0,0,0,0,0,0,-1,1889,554,0,0
672,470,0,0,0,0,0,0,0,0,0,-1,1896,554,0,0
679,470,0,0,0,0,0,0,0,0,0,-1,1903,554,0,0
686,470,0,0,0,0,0,0,0,0,0,-1,1910,554,0,0
693,470,0,0,0,0,0,0,0,0,0,-1,1917,554,0,0
700,470,0,0,0,0,0,0,0,0,0,-1,1924,554,0,0
707,470,0,0,0,0,0,0,0,0,0,-1,1931,554,0,0
714,470,0,0,0,0,0,0,0,0,0,-1,1938,554,0,0
721,470,0,0,0,0,0,0,0,0,0,-1,1945,554,0,0
728,470,0,0,0,0,0,0,0,0,0,-1,1952,554,0,0
735,470,0,0,0,0,0,0,0,0,0,-1,1959,554,0,0
742,470,0,0,0,0,0,0,0,0,0,-1,1966,554,0,0
749,470,0,0,0,0,0,0,0,0,0,-1,1973,554,0,0
756,470,0,0,0,0,0,0,0,0,0,-1,1980,554,0,0
763,470,0,0,0,0,0,0,0,0,0,-1,1987,554,0,0
770,470,0,0,0,0,0,0,0,0,0,-1,1994,554,0,0
777,470,0,0,0,0,0,0,0,0,0,-1,2001,554,0,0
784,470,0,0,0,0,0,0,0,0,0,-1,2008,554,0,0
791,470,0,0,0,0,0,0,0,0,0,-1,2015,554,0,0
798,470,0,0,0,0,0,0,0,0,0,-1,2022,554,0,0
805,470,0,0,0,0,0,0,0,0,0,-1,2029,554,0,0
812,470,0,0,0,0,0,0,0,0,0,-1,2036,554,0,0
-700,463,0,0,0,0,0,0,0,0,0,-1,524,561,0,0
-693,463,0,0,0,0,0,0,0,0,0,-1,531,561,0,0
-686,463,0,0,0,0,0,0,0,0,0,-1,538,561,0,0
-679,463,0,0,0,0,0,0,0,0,0,-1,545,561,0,0
-672,463,0,0,0,0,0,0,0,0,0,-1,552,561,0,0
-665,463,0,0,0,0,0,0,0,0,0,-1,559,561,0,0
-658,463,0,0,0,0,0,0,0,0,0,-1,566,561,0,0
-651,463,0,0,0,0,0,0,0,0,0,-1,573,561,0,0
-644,463,0,0,0,0,0,0,0,0,0,-1,580,561,0,0
-637,463,0,0,0,0,0,0,0,0,0,-1,587,561,0,0
-630,463,0,0,0,0,0,0,0,0,0,-1,594,561,0,0
-623,463,0,0,0,0,0,0,0,0,0,-1,601,561,0,0
-616,463,0,0,0,0,0,0,0,0,0,-1,608,561,0,0
-609,463,0,0,0,0,0,0,0,0,0,-1,615,561,0,0
-602,463,0,0,0,0,0,0,0,0,0,-1,622,561,0,0
-595,463,0,0,0,0,0,0,0,0,0,-1,629,561,0,0
-588,463,0,0,0,0,0,0,0,0,0,-1,636,561,0,0
-581,463,0,0,0,0,0,0,0,0,0,-1,643,561,0,0
-574,463,0,0,0,0,0,0,0,0,0,-1,650,561,0,0
-567,463,0,0,0,0,0,0,0,0,0,-1,657,561,0,0
-560,463,0,0,0,0,0,0,0,0,0,-1,664,561,0,0
-553,463,0,0,0,0,0,0,0,0,0,-1,671,561,0,0
-546,463,0,0,0,0,0,0,0,0,0,-1,678,561,0,0
-539,463,0,0,0,0,0,0,0,0,0,-1,685,561,0,0
-532,463,0,0,0,0,0,0,0,0,0,-1,692,561,0,0
-525,463,0,0,0,0,0,0,0,0,0,-1,699,561,0,0
-518,463,0,0,0,0,0,0,0,0,0,-1,706,561,0,0
-511,463,0,0,0,0,0,0,0,0,0,-1,713,561,0,0
-504,463,0,0,0,0,0,0,0,0,0,-1,720,561,0,0
-497,463,-9.81451,-1.67126,0,0,0,0,0,0,0,-1,727,561,-9.81452,1.67127
-490,463,-8.57043,-1.58942,0,0,0,0,0,0,0,-1,734,561,-8.57045,1.58944
-483,463,-7.29224,-1.7226,0,0,0,0,0,0,0,-1,741,561,-7.29226,1.72261
-476,463,-5.77704,-1.7312,0,0,0,0,0,0,0,-1,748,561,-5.77703,1.73121
-469,463,-5.14545,-2.138,0,0,0,0,0,0,0,-1,755,561,-5.14546,2.13799
-462,463,-3.13672,-3.07977,0,0,0,0,0,0,0,-1,762,561,-3.13672,3.07974
-455,463,-2.91406,-5.61798,0,0,0,0,0,0,0,-1,769,561,-2.91406,5.61801
-448,463,-4.00177,-8.54681,0,0,0,0,0,0,0,-1,776,561,-4.00175,8.54683
-441,463,-5.30688,-10.7156,0,0,0,0,0,0,0,-1,783,561,-5.30691,10.7156
-434,463,-5.21521,-11.4303,-0.000792744,0.00737365,-0.00292647,0.00831407,-0.00173317,-1.25987,0.00620169,0.0255557,790,561,-5.21523,11.4303
-427,463,-5.23206,-11.9852,-0.000408294,0.00645866,-0.0027664,0.00743446,-0.00138409,-1.23169,0.00547629,0.0105279,797,561,-5.23205,11.9852
-420,463,-5.22101,-12.538,-2.25427e-05,0.00546606,-0.00257421,0.00648444,-0.00104092,-1.19408,0.00470844,0.00994479,804,561,-5.22098,12.538
-413,463,-5.25671,-13.1057,0.000240452,0.00436498,-0.00221288,0.00532758,-0.000722146,-1.16049,0.00381528,0.00974951,811,561,-5.25672,13.1056
-406,463,-5.30865,-13.6461,0.000524782,0.00338999,-0.00186377,0.00430813,-0.000393358,-1.11307,0.00301178,0.010114,818,561,-5.30864,13.6461
-399,463,-5.3327,-14.17,0.000767589,0.00240242,-0.001418,0.00322173,-5.17264e-05,-1.04686,0.00216527,0.0114217,825,561,-5.3327,14.17
-392,463,-5.34259,-14.7028,0.00103401,0.00132446,-0.000930661,0.00212116,0.000237313,-0.862797,0.00134202,0.0106137,832,561,-5.34261,14.7028
-385,463,-5.34607,-15.2463,0.00135372,0.000345215,-0.00045457,0.00152837,0.000170568,-0.366815,0.000967081,0.0111077,839,561,-5.34605,15.2463
-378,463,-5.36133,-15.7795,0.00168551,-0.000581632,4.11341e-05,0.00168626,-0.000582378,0.0181356,0.0013605,0.0127628,846,561,-5.36134,15.7795
-371,463,-5.38763,-16.311,0.00200657,-0.00149539,0.000559196,0.00209369,-0.00158251,0.154562,0.00212929,0.0122249,853,561,-5.38761,16.311
-364,463,-5.38696,-16.7961,0.00240589,-0.00226619,0.000985386,0.00260521,-0.00246552,0.199586,0.00292796,0.0141965,860,561,-5.38697,16.7961
-357,463,-5.40625,-17.3018,0.00294023,-0.00296712,0.00130285,0.0032148,-0.00324169,0.207712,0.00372767,0.0209137,867,561,-5.40625,17.3018
-350,463,-5.34766,-17.8687,0.00352826,-0.00364804,0.00154692,0.00384751,-0.00396729,0.20352,0.00451206,0.0384377,874,561,-5.34768,17.8687
-343,463,-5.09332,-18.3859,0,0,0,0,0,0,0,-1,881,561,-5.09333,18.3858
-336,463,-2.94928,-12.2127,0,0,0,0,0,0,0,-1,888,561,-2.94925,12.2127
-329,463,-2.64307,-12.7037,0,0,0,0,0,0,0,-1,895,561,-2.64307,12.7038
-322,463,-1.82898,-9.11957,0,0,0,0,0,0,0,-1,902,561,-1.829,9.11957
-315,463,-0.944763,-5.96234,0,0,0,0,0,0,0,-1,909,561,-0.94479,5.96237
-308,463,-1.1535,-3.17889,0,0,0,0,0,0,0,-1,916,561,-1.15352,3.17889
-301,463,-1.50366,-3.15338,0,0,0,0,0,0,0,-1,923,561,-1.50364,3.15341
-294,463,-2.35889,-3.93463,0,0,0,0,0,0,0,-1,930,561,-2.35886,3.93465
-287,463,-2.80322,2.73999,0,0,0,0,0,0,0,-1,937,561,-2.80322,-2.74
-280,463,-12.864,5.25146,0,0,0,0,0,0,0,-1,944,561,-12.864,-5.25149
-273,463,-12.4598,3.39178,0,0,0,0,0,0,0,-1,951,561,-12.4598,-3.3918
-266,463,-8.78101,-3.7356,0,0,0,0,0,0,0,-1,958,561,-8.78098,3.73562
-259,463,-6.23285,-5.68842,0,0,0,0,0,0,0,-1,965,561,-6.23288,5.68843
-252,463,0,0,0,0,0,0,0,0,0,-1,972,561,0,0
-245,463,0,0,0,0,0,0,0,0,0,-1,979,561,0,0
-238,463,0,0,0,0,0,0,0,0,0,-1,986,561,0,0
-231,463,0,0,0,0,0,0,0,0,0,-1,993,561,0,0
-224,463,0,0,0,0,0,0,0,0,0,-1,1000,561,0,0
-217,463,0,0,0,0,0,0,0,0,0,-1,1007,561,0,0
-210,463,0,0,0,0,0,0,0,0,0,-1,1014,561,0,0
-203,463,0,0,0,0,0,0,0,0,0,-1,1021,561,0,0
-196,463,0,0,0,0,0,0,0,0,0,-1,1028,561,0,0
-189,463,0,0,0,0,0,0,0,0,0,-1,1035,561,0,0
-182,463,0,0,0,0,0,0,0,0,0,-1,1042,561,0,0
-175,463,0,0,0,0,0,0,0,0,0,-1,1049,561,0,0
-168,463,0,0,0,0,0,0,0,0,0,-1,1056,561,0,0
-161,463,0,0,0,0,0,0,0,0,0,-1,1063,561,0,0
-154,463,0,0,0,0,0,0,0,0,0,-1,1070,561,0,0
-147,463,0,0,0,0,0,0,0,0,0,-1,1077,561,0,0
-140,463,0,0,0,0,0,0,0,0,0,-1,1084,561,0,0
-133,463,0,0,0,0,0,0,0,0,0,-1,1091,561,0,0
-126,463,0,0,0,0,0,0,0,0,0,-1,1098,561,0,0
-119,463,0,0,0,0,0,0,0,0,0,-1,1105,561,0,0
-112,463,0,0,0,0,0,0,0,0,0,-1,1112,561,0,0
-105,463,0,0,0,0,0,0,0,0,0,-1,1119,561,0,0
-98,463,0,0,0,0,0,0,0,0,0,-1,1126,561,0,0
-91,463,0,0,0,0,0,0,0,0,0,-1,1133,561,0,0
-84,463,0,0,0,0,0,0,0,0,0,-1,1140,561,0,0
-77,463,0,0,0,0,0,0,0,0,0,-1,1147,561,0,0
-70,463,0,0,0,0,0,0,0,0,0,-1,1154,561,0,0
-63,463,0,0,0,0,0,0,0,0,0,-1,1161,561,0,0
-56,463,0,0,0,0,0,0,0,0,0,-1,1168,561,0,0
-49,463,0,0,0,0,0,0,0,0,0,-1,1175,561,0,0
-42,463,0,0,0,0,0,0,0,0,0,-1,1182,561,0,0
-35,463,0,0,0,0,0,0,0,0,0,-1,1189,561,0,0
-28,463,0,0,0,0,0,0,0,0,0,-1,1196,561,0,0
-21,463,0,0,0,0,0,0,0,0,0,-1,1203,561,0,0
-14,463,0,0,0,0,0,0,0,0,0,-1,1210,561,0,0
-7,463,0,0,0,0,0,0,0,0,0,-1,1217,561,0,0
0,463,0,0,0,0,0,0,0,0,0,-1,1224,561,0,0
7,463,0,0,0,0,0,0,0,0,0,-1,1231,561,0,0
14,463,0,0,0,0,0,0,0,0,0,-1,1238,561,0,0
21,463,0,0,0,0,0,0,0,0,0,-1,1245,561,0,0
28,463,0,0,0,0,0,0,0,0,0,-1,1252,561,0,0
35,463,0,0,0,0,0,0,0,0,0,-1,1259,561,0,0
42,463,0,0,0,0,0,0,0,0,0,-1,1266,561,0,0
49,463,0,0,0,0,0,0,0,0,0,-1,1273,561,0,0
56,463,0,0,0,0,0,0,0,0,0,-1,1280,561,0,0
63,463,0,0,0,0,0,0,0,0,0,-1,1287,561,0,0
70,463,0,0,0,0,0,0,0,0,0,-1,1294,561,0,0
77,463,0,0,0,0,0,0,0,0,0,-1,1301,561,0,0
84,463,0,0,0,0,0,0,0,0,0,-1,1308,561,0,0
91,463,0,0,0,0,0,0,0,0,0,-1,1315,561,0,0
98,463,0,0,0,0,0,0,0,0,0,-1,1322,561,0,0
105,463,0,0,0,0,0,0,0,0,0,-1,1329,561,0,0
112,463,0,0,0,0,0,0,0,0,0,-1,1336,561,0,0
119,463,0,0,0,0,0,0,0,0,0,-1,1343,561,0,0
126,463,0,0,0,0,0,0,0,0,0,-1,1350,561,0,0
133,463,0,0,0,0,0,0,0,0,0,-1,1357,561,0,0
140,463,0,0,0,0,0,0,0,0,0,-1,1364,561,0,0
147,463,0,0,0,0,0,0,0,0,0,-1,1371,561,0,0
154,463,0,0,0,0,0,0,0,0,0,-1,1378,561,0,0
161,463,0,0,0,0,0,0,0,0,0,-1,1385,561,0,0
168,463,0,0,0,0,0,0,0,0,0,-1,1392,561,0,0
175,463,0,0,0,0,0,0,0,0,0,-1,1399,561,0,0
182,463,0,0,0,0,0,0,0,0,0,-1,1406,561,0,0
189,463,0,0,0,0,0,0,0,0,0,-1,1413,561,0,0
196,463,0,0,0,0,0,0,0,0,0,-1,1420,561,0,0
203,463,0,0,0,0,0,0,0,0,0,-1,1427,561,0,0
210,463,0,0,0,0,0,0,0,0,0,-1,1434,561,0,0
217,463,0,0,0,0,0,0,0,0,0,-1,1441,561,0,0
224,463,0,0,0,0,0,0,0,0,0,-1,1448,561,0,0
231,463,0,0,0,0,0,0,0,0,0,-1,1455,561,0,0
238,463,0,0,0,0,0,0,0,0,0,-1,1462,561,0,0
245,463,0,0,0,0,0,0,0,0,0,-1,1469,561,0,0
252,463,0,0,0,0,0,0,0,0,0,-1,1476,561,0,0
259,463,0,0,0,0,0,0,0,0,0,-1,1483,561,0,0
266,463,0,0,0,0,0,0,0,0,0,-1,1490,561,0,0
273,463,0,0,0,0,0,0,0,0,0,-1,1497,561,0,0
280,463,0,0,0,0,0,0,0,0,0,-1,1504,561,0,0
287,463,0,0,0,0,0,0,0,0,0,-1,1511,561,0,0
294,463,0,0,0,0,0,0,0,0,0,-1,1518,561,0,0
301,463,0,0,0,0,0,0,0,0,0,-1,1525,561,0,0
308,463,0,0,0,0,0,0,0,0,0,-1,1532,561,0,0
315,463,0,0,0,0,0,0,0,0,0,-1,1539,561,0,0
322,463,0,0,0,0,0,0,0,0,0,-1,1546,561,0,0
329,463,0,0,0,0,0,0,0,0,0,-1,1553,561,0,0
336,463,0,0,0,0,0,0,0,0,0,-1,1560,561,0,0
343,463,0,0,0,0,0,0,0,0,0,-1,1567,561,0,0
350,463,0,0,0,0,0,0,0,0,0,-1,1574,561,0,0
357,463,0,0,0,0,0,0,0,0,0,-1,1581,561,0,0
364,463,0,0,0,0,0,0,0,0,0,-1,1588,561,0,0
371,463,1.75842,0.152588,0,0,0,0,0,0,0,-1,1595,561,1.75844,-0.152558
378,463,4.58813,-0.0444336,0,0,0,0,0,0,0,-1,1602,561,4.58809,0.0444505
385,463,8.88574,1.65057,0,0,0,0,0,0,0,-1,1609,561,8.88575,-1.65055
392,463,14.0912,2.50513,0,0,0,0,0,0,0,-1,1616,561,14.0912,-2.5051
399,463,21.4769,2.7002,0,0,0,0,0,0,0,-1,1623,561,21.477,-2.70017
406,463,26.2987,4.32318,0,0,0,0,0,0,0,-1,1630,561,26.2987,-4.3232
413,463,26.5011,2.65222,0,0,0,0,0,0,0,-1,1637,561,26.5011,-2.65224
420,463,8.849,2.26611,0,0,0,0,0,0,0,-1,1644,561,8.84899,-2.26613
427,463,5.12207,1.69183,0,0,0,0,0,0,0,-1,1651,561,5.12206,-1.69184
434,463,4.59814,1.81995,0,0,0,0,0,0,0,-1,1658,561,4.59812,-1.81994
441,463,1.76392,-5.99225,0,0,0,0,0,0,0,-1,1665,561,1.7639,5.99225
448,463,2.49939,-4.30536,0,0,0,0,0,0,0,-1,1672,561,2.49941,4.30536
455,463,4.40295,-3.02557,0,0,0,0,0,0,0,-1,1679,561,4.40299,3.02558
462,463,5.38293,-4.06445,0,0,0,0,0,0,0,-1,1686,561,5.38289,4.06444
469,463,5.94373,-4.50647,0,0,0,0,0,0,0,-1,1693,561,5.94368,4.50646
476,463,14.8574,-16.9401,0,0,0,0,0,0,0,-1,1700,561,14.8574,16.94
483,463,15.101,-16.1931,0,0,0,0,0,0,0,-1,1707,561,15.101,16.1931
490,463,15.0853,-15.5352,0.00268021,0.0026198,0.000708073,0.00335872,0.00194128,0.764083,0.001947,0.0234704,1714,561,15.0854,15.5352
497,463,15.0526,-14.9907,0.00225782,0.0023733,0.000845132,0.00316266,0.00146846,0.819507,0.00182751,0.0131513,1721,561,15.0526,14.9907
504,463,15.0559,-14.4415,0.00180993,0.00204261,0.000868133,0.00280216,0.00105037,0.852009,0.00163464,0.0163735,1728,561,15.0559,14.4415
511,463,15.0261,-13.8963,0.00130173,0.00171078,0.000872337,0.00240225,0.000610265,0.900546,0.00144179,0.0236895,1735,561,15.0261,13.8963
518,463,15.04,-13.3176,0.000720292,0.00138733,0.000817111,0.00193637,0.000171254,0.979162,0.00123778,0.0252763,1742,561,15.0401,13.3177
525,463,15.0355,-12.7785,0.00014402,0.00099912,0.000693387,0.00138618,-0.000243037,1.06167,0.00101488,0.0189787,1749,561,15.0355,12.7785
532,463,15.0194,-12.1989,-0.000460299,0.000664379,0.000520661,0.000868403,-0.000664324,1.19733,0.000887531,0.0160101,1756,561,15.0194,12.1989
539,463,14.9788,-11.6111,-0.00105623,0.000311234,0.000329178,0.000386348,-0.00113134,1.34645,0.000910749,0.0182718,1763,561,14.9787,11.6111
546,463,14.949,-11.0789,-0.00171842,-8.77616e-05,2.43563e-05,-8.73979e-05,-0.00171878,1.55586,0.00111786,0.0141923,1770,561,14.9489,11.0788
553,463,14.9467,-10.4895,-0.00235931,-0.000396443,-0.000271283,-0.00035964,-0.00239611,-1.43596,0.00149205,0.0116803,1777,561,14.9467,10.4895
560,463,14.9541,-9.80707,-0.00301505,-0.000781096,-0.000580095,-0.000639444,-0.00315671,-1.3313,0.00192702,0.02068,1784,561,14.9541,9.80707
567,463,14.8108,-9.26788,-0.00367992,-0.00131146,-0.000936792,-0.000985731,-0.00400565,-1.23616,0.00241002,0.0273131,1791,561,14.8108,9.2679
574,463,14.8718,-8.72345,0,0,0,0,0,0,0,-1,1798,561,14.8718,8.72345
581,463,9.4939,-3.88245,0,0,0,0,0,0,0,-1,1805,561,9.49392,3.88245
588,463,1.97424,2.16016,0,0,0,0,0,0,0,-1,1812,561,1.97422,-2.16013
595,463,9.98657,2.99854,0,0,0,0,0,0,0,-1,1819,561,9.98662,-2.99856
602,463,17.2202,4.91302,0,0,0,0,0,0,0,-1,1826,561,17.2202,-4.91305
609,463,17.96,4.03131,0,0,0,0,0,0,0,-1,1833,561,17.96,-4.03132
616,463,20.8352,3.15131,0,0,0,0,0,0,0,-1,1840,561,20.8352,-3.1513
623,463,0,0,0,0,0,0,0,0,0,-1,1847,561,0,0
630,463,0,0,0,0,0,0,0,0,0,-1,1854,561,0,0
637,463,0,0,0,0,0,0,0,0,0,-1,1861,561,0,0
644,463,0,0,0,0,0,0,0,0,0,-1,1868,561,0,0
651,463,0,0,0,0,0,0,0,0,0,-1,1875,561,0,0
658,463,0,0,0,0,0,0,0,0,0,-1,1882,561,0,0
665,463,0,0,0,0,0,0,0,0,0,-1,1889,561,0,0
672,463,0,0,0,0,0,0,0,0,0,-1,1896,561,0,0
679,463,0,0,0,0,0,0,0,0,0,-1,1903,561,0,0
686,463,0,0,0,0,0,0,0,0,0,-1,1910,561,0,0
693,463,0,0,0,0,0,0,0,0,0,-1,1917,561,0,0
700,463,0,0,0,0,0,0,0,0,0,-1,1924,561,0,0
707,463,0,0,0,0,0,0,0,0,0,-1,1931,561,0,0
714,463,0,0,0,0,0,0,0,0,0,-1,1938,561,0,0
721,463,0,0,0,0,0,0,0,0,0,-1,1945,561,0,0
728,463,0,0,0,0,0,0,0,0,0,-1,1952,561,0,0
735,463,0,0,0,0,0,0,0,0,0,-1,1959,561,0,0
742,463,0,0,0,0,0,0,0,0,0,-1,1966,561,0,0
749,463,0,0,0,0,0,0,0,0,0,-1,1973,561,0,0
756,463,0,0,0,0,0,0,0,0,0,-1,1980,561,0,0
763,463,0,0,0,0,0,0,0,0,0,-1,1987,561,0,0
770,463,0,0,0,0,0,0,0,0,0,-1,1994,561,0,0
777,463,0,0,0,0,0,0,0,0,0,-1,2001,561,0,0
784,463,0,0,0,0,0,0,0,0,0,-1,2008,561,0,0
791,463,0,0,0,0,0,0,0,0,0,-1,2015,561,0,0
798,463,0,0,0,0,0,0,0,0,0,-1,2022,561,0,0
805,463,0,0,0,0,0,0,0,0,0,-1,2029,561,0,0
812,463,0,0,0,0,0,0,0,0,0,-1,2036,561,0,0
-700,456,0,0,0,0,0,0,0,0,0,-1,524,568,0,0
-693,456,0,0,0,0,0,0,0,0,0,-1,531,568,0,0
-686,456,0,0,0,0,0,0,0,0,0,-1,538,568,0,0
-679,456,0,0,0,0,0,0,0,0,0,-1,545,568,0,0
-672,456,0,0,0,0,0,0,0,0,0,-1,552,568,0,0
-665,456,0,0,0,0,0,0,0,0,0,-1,559,568,0,0
-658,456,0,0,0,0,0,0,0,0,0,-1,566,568,0,0
-651,456,0,0,0,0,0,0,0,0,0,-1,573,568,0,0
-644,456,0,0,0,0,0,0,0,0,0,-1,580,568,0,0
-637,456,0,0,0,0,0,0,0,0,0,-1,587,568,0,0
-630,456,0,0,0,0,0,0,0,0,0,-1,594,568,0,0
-623,456,0,0,0,0,0,0,0,0,0,-1,601,568,0,0
-616,456,0,0,0,0,0,0,0,0,0,-1,608,568,0,0
-609,456,0,0,0,0,0,0,0,0,0,-1,615,568,0,0
-602,456,0,0,0,0,0,0,0,0,0,-1,622,568,0,0
-595,456,0,0,0,0,0,0,0,0,0,-1,629,568,0,0
-588,456,0,0,0,0,0,0,0,0,0,-1,636,568,0,0
-581,456,0,0,0,0,0,0,0,0,0,-1,643,568,0,0
-574,456,0,0,0,0,0,0,0,0,0,-1,650,568,0,0
-567,456,0,0,0,0,0,0,0,0,0,-1,657,568,0,0
-560,456,0,0,0,0,0,0,0,0,0,-1,664,568,0,0
-553,456,0,0,0,0,0,0,0,0,0,-1,671,568,0,0
-546,456,0,0,0,0,0,0,0,0,0,-1,678,568,0,0
-539,456,0,0,0,0,0,0,0,0,0,-1,685,568,0,0
-532,456,0,0,0,0,0,0,0,0,0,-1,692,568,0,0
-525,456,0,0,0,0,0,0,0,0,0,-1,699,568,0,0
-518,456,0,0,0,0,0,0,0,0,0,-1,706,568,0,0
-511,456,0,0,0,0,0,0,0,0,0,-1,713,568,0,0
-504,456,-10.3994,-2.34839,0,0,0,0,0,0,0,-1,720,568,-10.3994,2.3484
-497,456,-9.21375,-2.38068,0,0,0,0,0,0,0,-1,727,568,-9.21372,2.38069
-490,456,-8.09058,-2.31824,0,0,0,0,0,0,0,-1,734,568,-8.09057,2.31821
-483,456,-6.66119,-2.24329,0,0,0,0,0,0,0,-1,741,568,-6.66121,2.24331
-476,456,-5.1499,-2.21185,0,0,0,0,0,0,0,-1,748,568,-5.14992,2.21184
-469,456,-2.81238,-3.51501,0,0,0,0,0,0,0,-1,755,568,-2.81237,3.51501
-462,456,-4.2431,-5.27478,0,0,0,0,0,0,0,-1,762,568,-4.24312,5.27476
-455,456,-5.98364,-8.72119,0,0,0,0,0,0,0,-1,769,568,-5.98364,8.72122
-448,456,-5.82538,-9.93628,0,0,0,0,0,0,0,-1,776,568,-5.82536,9.93625
-441,456,-5.67291,-10.8134,-0.000969561,0.00658129,-0.00244929,0.00730619,-0.00169446,-1.28305,0.00552294,0.0293188,783,568,-5.67288,10.8134
-434,456,-5.76685,-11.426,-0.000767454,0.0056265,-0.00211604,0.00626336,-0.00140431,-1.27845,0.00471392,0.0153931,790,568,-5.76687,11.426
-427,456,-5.77368,-11.9803,-0.000533315,0.0047487,-0.00182925,0.00532033,-0.00110495,-1.26791,0.00396684,0.00873837,797,568,-5.77366,11.9803
-420,456,-5.78479,-12.5229,-0.000239251,0.00383712,-0.00156842,0.00437072,-0.000772861,-1.24286,0.00320267,0.00932724,804,568,-5.78479,12.523
-413,456,-5.80872,-13.0723,-3.54525e-05,0.00279295,-0.00116291,0.00320968,-0.000452184,-1.2267,0.00230535,0.00873485,811,568,-5.8087,13.0723
-406,456,-5.85248,-13.6204,0.000237788,0.00189163,-0.000817066,0.0022272,-9.77864e-05,-1.18109,0.00151845,0.00903966,818,568,-5.85249,13.6204
-399,456,-5.86914,-14.142,0.00053752,0.00100026,-0.000427528,0.00125501,0.000282769,-1.03342,0.000760152,0.0113899,825,568,-5.86912,14.1421
-392,456,-5.87225,-14.6767,0.00090852,3.27037e-05,-2.97916e-05,0.000909532,3.16915e-05,-0.0339634,0.000596072,0.0107585,832,568,-5.87228,14.6767
-385,456,-5.88922,-15.2133,0.00134914,-0.000814582,0.000335649,0.00140002,-0.000865454,0.150417,0.00132005,0.00961036,839,568,-5.88923,15.2132
-378,456,-5.90613,-15.7518,0.00179452,-0.00164774,0.000746816,0.00194956,-0.00180278,0.204697,0.00216697,0.0108409,846,568,-5.90612,15.7517
-371,456,-5.90912,-16.2678,0.00228423,-0.0023894,0.00116278,0.00255754,-0.00266271,0.230859,0.00301411,0.0116256,853,568,-5.9091,16.2678
-364,456,-5.91278,-16.7443,0.0029077,-0.00290778,0.00142642,0.00323873,-0.00323881,0.228034,0.00373981,0.0216538,860,568,-5.91281,16.7443
-357,456,-5.83752,-17.346,0,0,0,0,0,0,0,-1,867,568,-5.83754,17.346
-350,456,-5.71411,-18.0751,0,0,0,0,0,0,0,-1,874,568,-5.71409,18.0751
-343,456,-3.39081,-12.0217,0,0,0,0,0,0,0,-1,881,568,-3.39078,12.0217
-336,456,-3.04517,-12.4623,0,0,0,0,0,0,0,-1,888,568,-3.04519,12.4624
-329,456,-1.06183,-10.7184,0,0,0,0,0,0,0,-1,895,568,-1.06184,10.7184
-322,456,-0.662537,-7.66632,0,0,0,0,0,0,0,-1,902,568,-0.662564,7.66633
-315,456,-0.675476,-3.38397,0,0,0,0,0,0,0,-1,909,568,-0.675473,3.38399
-308,456,-1.1618,-3.15314,0,0,0,0,0,0,0,-1,916,568,-1.16178,3.15314
-301,456,-1.83551,-3.26447,0,0,0,0,0,0,0,-1,923,568,-1.8355,3.26449
-294,456,-2.93414,-3.35449,0,0,0,0,0,0,0,-1,930,568,-2.93413,3.35451
-287,456,-3.7569,-3.53101,0,0,0,0,0,0,0,-1,937,568,-3.75692,3.53101
-280,456,-13.072,4.52856,0,0,0,0,0,0,0,-1,944,568,-13.072,-4.52855
-273,456,-8.26538,-6.66748,0,0,0,0,0,0,0,-1,951,568,-8.26536,6.66745
-266,456,-5.33752,-9.16571,0,0,0,0,0,0,0,-1,958,568,-5.33753,9.16571
-259,456,0,0,0,0,0,0,0,0,0,-1,965,568,0,0
-252,456,0,0,0,0,0,0,0,0,0,-1,972,568,0,0
-245,456,0,0,0,0,0,0,0,0,0,-1,979,568,0,0
-238,456,0,0,0,0,0,0,0,0,0,-1,986,568,0,0
-231,456,0,0,0,0,0,0,0,0,0,-1,993,568,0,0
-224,456,0,0,0,0,0,0,0,0,0,-1,1000,568,0,0
-217,456,0,0,0,0,0,0,0,0,0,-1,1007,568,0,0
-210,456,0,0,0,0,0,0,0,0,0,-1,1014,568,0,0
-203,456,0,0,0,0,0,0,0,0,0,-1,1021,568,0,0
-196,456,0,0,0,0,0,0,0,0,0,-1,1028,568,0,0
-189,456,0,0,0,0,0,0,0,0,0,-1,1035,568,0,0
-182,456,0,0,0,0,0,0,0,0,0,-1,1042,568,0,0
-175,456,0,0,0,0,0,0,0,0,0,-1,1049,568,0,0
-168,456,0,0,0,0,0,0,0,0,0,-1,1056,568,0,0
-161,456,0,0,0,0,0,0,0,0,0,-1,1063,568,0,0
-154,456,0,0,0,0,0,0,0,0,0,-1,1070,568,0,0
-147,456,0,0,0,0,0,0,0,0,0,-1,1077,568,0,0
-140,456,0,0,0,0,0,0,0,0,0,-1,1084,568,0,0
-133,456,0,0,0,0,0,0,0,0,0,-1,1091,568,0,0
-126,456,0,0,0,0,0,0,0,0,0,-1,1098,568,0,0
-119,456,0,0,0,0,0,0,0,0,0,-1,1105,568,0,0
-112,456,0,0,0,0,0,0,0,0,0,-1,1112,568,0,0
-105,456,0,0,0,0,0,0,0,0,0,-1,1119,568,0,0
-98,456,0,0,0,0,0,0,0,0,0,-1,1126,568,0,0
-91,456,0,0,0,0,0,0,0,0,0,-1,1133,568,0,0
-84,456,0,0,0,0,0,0,0,0,0,-1,1140,568,0,0
-77,456,0,0,0,0,0,0,0,0,0,-1,1147,568,0,0
-70,456,0,0,0,0,0,0,0,0,0,-1,1154,568,0,0
-63,456,0,0,0,0,0,0,0,0,0,-1,1161,568,0,0
-56,456,0,0,0,0,0,0,0,0,0,-1,1168,568,0,0
-49,456,0,0,0,0,0,0,0,0,0,-1,1175,568,0,0
-42,456,0,0,0,0,0,0,0,0,0,-1,1182,568,0,0
-35,456,0,0,0,0,0,0,0,0,0,-1,1189,568,0,0
-28,456,0,0,0,0,0,0,0,0,0,-1,1196,568,0,0
-21,456,0,0,0,0,0,0,0,0,0,-1,1203,568,0,0
-14,456,0,0,0,0,0,0,0,0,0,-1,1210,568,0,0
-7,456,0,0,0,0,0,0,0,0,0,-1,1217,568,0,0
0,456,0,0,0,0,0,0,0,0,0,-1,1224,568,0,0
7,456,0,0,0,0,0,0,0,0,0,-1,1231,568,0,0
14,456,0,0,0,0,0,0,0,0,0,-1,1238,568,0,0
21,456,0,0,0,0,0,0,0,0,0,-1,1245,568,0,0
28,456,0,0,0,0,0,0,0,0,0,-1,1252,568,0,0
35,456,0,0,0,0,0,0,0,0,0,-1,1259,568,0,0
42,456,0,0,0,0,0,0,0,0,0,-1,1266,568,0,0
49,456,0,0,0,0,0,0,0,0,0,-1,1273,568,0,0
56,456,0,0,0,0,0,0,0,0,0,-1,1280,568,0,0
63,456,0,0,0,0,0,0,0,0,0,-1,1287,568,0,0
70,456,0,0,0,0,0,0,0,0,0,-1,1294,568,0,0
77,456,0,0,0,0,0,0,0,0,0,-1,1301,568,0,0
84,456,0,0,0,0,0,0,0,0,0,-1,1308,568,0,0
91,456,0,0,0,0,0,0,0,0,0,-1,1315,568,0,0
98,456,0,0,0,0,0,0,0,0,0,-1,1322,568,0,0
105,456,0,0,0,0,0,0,0,0,0,-1,1329,568,0,0
112,456,0,0,0,0,0,0,0,0,0,-1,1336,568,0,0
119,456,0,0,0,0,0,0,0,0,0,-1,1343,568,0,0
126,456,0,0,0,0,0,0,0,0,0,-1,1350,568,0,0
133,456,0,0,0,0,0,0,0,0,0,-1,1357,568,0,0
140,456,0,0,0,0,0,0,0,0,0,-1,1364,568,0,0
147,456,0,0,0,0,0,0,0,0,0,-1,1371,568,0,0
154,456,0,0,0,0,0,0,0,0,0,-1,1378,568,0,0
161,456,0,0,0,0,0,0,0,0,0,-1,1385,568,0,0
168,456,0,0,0,0,0,0,0,0,0,-1,1392,568,0,0
175,456,0,0,0,0,0,0,0,0,0,-1,1399,568,0,0
182,456,0,0,0,0,0,0,0,0,0,-1,1406,568,0,0
189,456,0,0,0,0,0,0,0,0,0,-1,1413,568,0,0
196,456,0,0,0,0,0,0,0,0,0,-1,1420,568,0,0
203,456,0,0,0,0,0,0,0,0,0,-1,1427,568,0,0
210,456,0,0,0,0,0,0,0,0,0,-1,1434,568,0,0
217,456,0,0,0,0,0,0,0,0,0,-1,1441,568,0,0
224,456,0,0,0,0,0,0,0,0,0,-1,1448,568,0,0
231,456,0,0,0,0,0,0,0,0,0,-1,1455,568,0,0
238,456,0,0,0,0,0,0,0,0,0,-1,1462,568,0,0
245,456,0,0,0,0,0,0,0,0,0,-1,1469,568,0,0
252,456,0,0,0,0,0,0,0,0,0,-1,1476,568,0,0
259,456,0,0,0,0,0,0,0,0,0,-1,1483,568,0,0
266,456,0,0,0,0,0,0,0,0,0,-1,1490,568,0,0
273,456,0,0,0,0,0,0,0,0,0,-1,1497,568,0,0
280,456,0,0,0,0,0,0,0,0,0,-1,1504,568,0,0
287,456,0,0,0,0,0,0,0,0,0,-1,1511,568,0,0
294,456,0,0,0,0,0,0,0,0,0,-1,1518,568,0,0
301,456,0,0,0,0,0,0,0,0,0,-1,1525,568,0,0
308,456,0,0,0,0,0,0,0,0,0,-1,1532,568,0,0
315,456,0,0,0,0,0,0,0,0,0,-1,1539,568,0,0
322,456,0,0,0,0,0,0,0,0,0,-1,1546,568,0,0
329,456,0,0,0,0,0,0,0,0,0,-1,1553,568,0,0
336,456,0,0,0,0,0,0,0,0,0,-1,1560,568,0,0
343,456,0,0,0,0,0,0,0,0,0,-1,1567,568,0,0
350,456,0,0,0,0,0,0,0,0,0,-1,1574,568,0,0
357,456,0,0,0,0,0,0,0,0,0,-1,1581,568,0,0
364,456,0,0,0,0,0,0,0,0,0,-1,1588,568,0,0
371,456,0,0,0,0,0,0,0,0,0,-1,1595,568,0,0
378,456,0,0,0,0,0,0,0,0,0,-1,1602,568,0,0
385,456,5.66284,0.660645,0,0,0,0,0,0,0,-1,1609,568,5.66285,-0.660615
392,456,17.5027,4.32971,0,0,0,0,0,0,0,-1,1616,568,17.5026,-4.32971
399,456,24.1917,5.99652,0,0,0,0,0,0,0,-1,1623,568,24.1916,-5.99651
406,456,24.446,4.53003,0,0,0,0,0,0,0,-1,1630,568,24.446,-4.53005
413,456,24.9418,2.90521,0,0,0,0,0,0,0,-1,1637,568,24.9418,-2.90524
420,456,25.3048,1.04712,0,0,0,0,0,0,0,-1,1644,568,25.3048,-1.04713
427,456,6.21375,2.02905,0,0,0,0,0,0,0,-1,1651,568,6.21372,-2.02904
434,456,3.0719,-4.86285,0,0,0,0,0,0,0,-1,1658,568,3.07184,4.86287
441,456,2.90344,-4.70459,0,0,0,0,0,0,0,-1,1665,568,2.90346,4.7046
448,456,3.06995,-4.93689,0,0,0,0,0,0,0,-1,1672,568,3.06991,4.93687
455,456,3.46582,-3.43701,0,0,0,0,0,0,0,-1,1679,568,3.46585,3.43698
462,456,4.68445,-4.45831,0,0,0,0,0,0,0,-1,1686,568,4.68439,4.45833
469,456,4.93201,-2.289,0,0,0,0,0,0,0,-1,1693,568,4.93197,2.28903
476,456,4.8363,-2.79364,0,0,0,0,0,0,0,-1,1700,568,4.83636,2.79363
483,456,12.8522,-13.692,0,0,0,0,0,0,0,-1,1707,568,12.8522,13.6919
490,456,15.6091,-15.5778,0,0,0,0,0,0,0,-1,1714,568,15.6092,15.5778
497,456,15.6826,-15.1001,0.00262673,0.0028494,0.00114094,0.00388442,0.00159171,0.834036,0.00225481,0.0469996,1721,568,15.6826,15.1001
504,456,15.5837,-14.4422,0.00226585,0.00247962,0.00111971,0.00349754,0.00124794,0.832983,0.00204672,0.0126266,1728,568,15.5838,14.4422
511,456,15.585,-13.8698,0.0018907,0.00211463,0.00109922,0.00310757,0.000897764,0.836151,0.00184669,0.0144523,1735,568,15.5849,13.8698
518,456,15.5765,-13.3058,0.00147547,0.00177947,0.00107055,0.00270876,0.00054619,0.855918,0.00165411,0.0172992,1742,568,15.5766,13.3058
525,456,15.5669,-12.7718,0.00103474,0.00146966,0.000980987,0.002257,0.000247398,0.894473,0.00142935,0.0162186,1749,568,15.5669,12.7718
532,456,15.568,-12.1781,0.000529878,0.00116443,0.000821355,0.00172766,-3.3349e-05,0.969712,0.00116305,0.0167342,1756,568,15.568,12.1781
539,456,15.5405,-11.5965,3.47003e-05,0.000843132,0.00066169,0.0012143,-0.00033647,1.05959,0.000941941,0.0213469,1763,568,15.5405,11.5965
546,456,15.4977,-11.0383,-0.000524994,0.000477612,0.000395273,0.000614701,-0.000662084,1.23695,0.000737321,0.0225718,1770,568,15.4977,11.0383
553,456,15.4766,-10.4471,-0.00108367,0.000133278,0.000136187,0.000148332,-0.00109873,1.4607,0.000786604,0.0137625,1777,568,15.4766,10.4472
560,456,15.4708,-9.89673,-0.00168547,-0.000251327,-0.000124723,-0.000240561,-0.00169623,-1.48469,0.00105978,0.0110362,1784,568,15.4708,9.8967
567,456,15.4603,-9.30914,-0.00227422,-0.000711465,-0.00036578,-0.000630088,-0.0023556,-1.35189,0.00140817,0.0173694,1791,568,15.4603,9.30914
574,456,15.4061,-8.89465,-0.0030178,-0.00130928,-0.000731255,-0.00103904,-0.00328804,-1.21681,0.00194072,0.0484273,1798,568,15.4062,8.89466
581,456,15.4296,-8.44525,0,0,0,0,0,0,0,-1,1805,568,15.4296,8.44524
588,456,5.23901,-0.0901489,0,0,0,0,0,0,0,-1,1812,568,5.23906,0.0901656
595,456,6.90063,3.14886,0,0,0,0,0,0,0,-1,1819,568,6.90066,-3.14887
602,456,16.894,4.10938,0,0,0,0,0,0,0,-1,1826,568,16.8941,-4.1094
609,456,14.9966,3.5708,0,0,0,0,0,0,0,-1,1833,568,14.9966,-3.57083
616,456,17.7407,2.6579,0,0,0,0,0,0,0,-1,1840,568,17.7408,-2.6579
623,456,20.6838,1.7121,0,0,0,0,0,0,0,-1,1847,568,20.6838,-1.71208
630,456,0,0,0,0,0,0,0,0,0,-1,1854,568,0,0
637,456,0,0,0,0,0,0,0,0,0,-1,1861,568,0,0
644,456,0,0,0,0,0,0,0,0,0,-1,1868,568,0,0
651,456,0,0,0,0,0,0,0,0,0,-1,1875,568,0,0
658,456,0,0,0,0,0,0,0,0,0,-1,1882,568,0,0
665,456,0,0,0,0,0,0,0,0,0,-1,1889,568,0,0
672,456,0,0,0,0,0,0,0,0,0,-1,1896,568,0,0
679,456,0,0,0,0,0,0,0,0,0,-1,1903,568,0,0
686,456,0,0,0,0,0,0,0,0,0,-1,1910,568,0,0
693,456,0,0,0,0,0,0,0,0,0,-1,1917,568,0,0
700,456,0,0,0,0,0,0,0,0,0,-1,1924,568,0,0
707,456,0,0,0,0,0,0,0,0,0,-1,1931,568,0,0
714,456,0,0,0,0,0,0,0,0,0,-1,1938,568,0,0
721,456,0,0,0,0,0,0,0,0,0,-1,1945,568,0,0
728,456,0,0,0,0,0,0,0,0,0,-1,1952,568,0,0
735,456,0,0,0,0,0,0,0,0,0,-1,1959,568,0,0
742,456,0,0,0,0,0,0,0,0,0,-1,1966,568,0,0
749,456,0,0,0,0,0,0,0,0,0,-1,1973,568,0,0
756,456,0,0,0,0,0,0,0,0,0,-1,1980,568,0,0
763,456,0,0,0,0,0,0,0,0,0,-1,1987,568,0,0
770,456,0,0,0,0,0,0,0,0,0,-1,1994,568,0,0
777,456,0,0,0,0,0,0,0,0,0,-1,2001,568,0,0
784,456,0,0,0,0,0,0,0,0,0,-1,2008,568,0,0
791,456,0,0,0,0,0,0,0,0,0,-1,2015,568,0,0
798,456,0,0,0,0,0,0,0,0,0,-1,2022,568,0,0
805,456,0,0,0,0,0,0,0,0,0,-1,2029,568,0,0
812,456,0,0,0,0,0,0,0,0,0,-1,2036,568,0,0
-700,449,0,0,0,0,0,0,0,0,0,-1,524,575,0,0
-693,449,0,0,0,0,0,0,0,0,0,-1,531,575,0,0
-686,449,0,0,0,0,0,0,0,0,0,-1,538,575,0,0
-679,449,0,0,0,0,0,0,0,0,0,-1,545,575,0,0
-672,449,0,0,0,0,0,0,0,0,0,-1,552,575,0,0
-665,449,0,0,0,0,0,0,0,0,0,-1,559,575,0,0
-658,449,0,0,0,0,0,0,0,0,0,-1,566,575,0,0
-651,449,0,0,0,0,0,0,0,0,0,-1,573,575,0,0
-644,449,0,0,0,0,0,0,0,0,0,-1,580,575,0,0
-637,449,0,0,0,0,0,0,0,0,0,-1,587,575,0,0
-630,449,0,0,0,0,0,0,0,0,0,-1,594,575,0,0
-623,449,0,0,0,0,0,0,0,0,0,-1,601,575,0,0
-616,449,0,0,0,0,0,0,0,0,0,-1,608,575,0,0
-609,449,0,0,0,0,0,0,0,0,0,-1,615,575,0,0
-602,449,0,0,0,0,0,0,0,0,0,-1,622,575,0,0
-595,449,0,0,0,0,0,0,0,0,0,-1,629,575,0,0
-588,449,0,0,0,0,0,0,0,0,0,-1,636,575,0,0
-581,449,0,0,0,0,0,0,0,0,0,-1,643,575,0,0
-574,449,0,0,0,0,0,0,0,0,0,-1,650,575,0,0
-567,449,0,0,0,0,0,0,0,0,0,-1,657,575,0,0
-560,449,0,0,0,0,0,0,0,0,0,-1,664,575,0,0
-553,449,0,0,0,0,0,0,0,0,0,-1,671,575,0,0
-546,449,0,0,0,0,0,0,0,0,0,-1,678,575,0,0
-539,449,0,0,0,0,0,0,0,0,0,-1,685,575,0,0
-532,449,0,0,0,0,0,0,0,0,0,-1,692,575,0,0
-525,449,0,0,0,0,0,0,0,0,0,-1,699,575,0,0
-518,449,0,0,0,0,0,0,0,0,0,-1,706,575,0,0
-511,449,-0.941345,-4.4519,0,0,0,0,0,0,0,-1,713,575,-0.941356,4.45191
-504,449,-14.1078,0.318237,0,0,0,0,0,0,0,-1,720,575,-14.1078,-0.318231
-497,449,-8.61292,-3.09009,0,0,0,0,0,0,0,-1,727,575,-8.61291,3.09011
-490,449,-7.50995,-2.96252,0,0,0,0,0,0,0,-1,734,575,-7.50995,2.96251
-483,449,-5.77789,-2.50061,0,0,0,0,0,0,0,-1,741,575,-5.77792,2.50059
-476,449,-4.1723,-2.07739,0,0,0,0,0,0,0,-1,748,575,-4.17228,2.0774
-469,449,-4.02954,-4.56329,0,0,0,0,0,0,0,-1,755,575,-4.02951,4.56329
-462,449,-6.08002,-8.61115,0,0,0,0,0,0,0,-1,762,575,-6.08003,8.61117
-455,449,-6.47131,-9.39795,0,0,0,0,0,0,0,-1,769,575,-6.47134,9.39796
-448,449,-6.24548,-10.1931,-0.000794732,0.00565473,-0.00236324,0.00642797,-0.00156797,-1.25458,0.00489245,0.0386113,776,575,-6.24547,10.193
-441,449,-6.2428,-10.9394,-0.000671081,0.00479535,-0.00192542,0.00540545,-0.00128117,-1.26394,0.004098,0.0186319,783,575,-6.24279,10.9394
-434,449,-6.3147,-11.4535,-0.000577278,0.00392975,-0.00148087,0.00437277,-0.0010203,-1.28011,0.00330815,0.0132963,790,575,-6.31471,11.4535
-427,449,-6.34698,-11.9803,-0.000460263,0.00312994,-0.00108986,0.00343488,-0.000765205,-1.29797,0.00258305,0.0127476,797,575,-6.34697,11.9803
-420,449,-6.33813,-12.5076,-0.000247754,0.00233249,-0.000774431,0.00254708,-0.000462344,-1.30048,0.0018713,0.0130178,804,575,-6.33814,12.5076
-413,449,-6.35132,-13.0471,-0.000103628,0.00139041,-0.00033541,0.00146226,-0.000175472,-1.35979,0.00103828,0.0103281,811,575,-6.35131,13.0471
-406,449,-6.3847,-13.6084,0.000141008,0.00059385,9.78719e-06,0.000594061,0.000140796,1.5492,0.000358448,0.00985751,818,575,-6.3847,13.6084
-399,449,-6.40027,-14.1401,0.000477054,-0.000174332,0.000343189,0.000624494,-0.000321772,0.405774,0.000555567,0.0101099,825,575,-6.40025,14.1401
-392,449,-6.39899,-14.6696,0.000938663,-0.00098897,0.000644596,0.00113435,-0.00118466,0.294738,0.00133898,0.0105069,832,575,-6.39901,14.6695
-385,449,-6.4129,-15.1956,0.00149434,-0.00167412,0.000890662,0.00172754,-0.00190732,0.256083,0.00209945,0.010562,839,575,-6.41288,15.1956
-378,449,-6.43799,-15.7106,0.00206765,-0.00239565,0.00120276,0.00237113,-0.00269913,0.247162,0.00292936,0.0102219,846,575,-6.438,15.7105
-371,449,-6.41986,-16.2269,0.00277026,-0.00294349,0.00149397,0.00313731,-0.00331053,0.240914,0.00372311,0.0145152,853,575,-6.41988,16.2269
-364,449,-6.41943,-16.7921,0,0,0,0,0,0,0,-1,860,575,-6.41943,16.792
-357,449,-5.88049,-15.8704,0,0,0,0,0,0,0,-1,867,575,-5.88051,15.8704
-350,449,-2.8764,-9.90204,0,0,0,0,0,0,0,-1,874,575,-2.87638,9.90203
-343,449,-2.98492,-9.2254,0,0,0,0,0,0,0,-1,881,575,-2.98491,9.22541
-336,449,-1.29523,-9.54626,0,0,0,0,0,0,0,-1,888,575,-1.29525,9.54626
-329,449,-0.733398,-7.78937,0,0,0,0,0,0,0,-1,895,575,-0.733398,7.78937
-322,449,-0.628845,-3.16669,0,0,0,0,0,0,0,-1,902,575,-0.628861,3.16667
-315,449,-0.540344,-3.21918,0,0,0,0,0,0,0,-1,909,575,-0.540336,3.21917
-308,449,-1.04413,-2.99341,0,0,0,0,0,0,0,-1,916,575,-1.04415,2.99338
-301,449,-1.58691,-2.80725,0,0,0,0,0,0,0,-1,923,575,-1.58692,2.80728
-294,449,-3.71118,-2.76086,0,0,0,0,0,0,0,-1,930,575,-3.71119,2.76087
-287,449,-4.4082,-2.69525,0,0,0,0,0,0,0,-1,937,575,-4.40822,2.69526
-280,449,-2.09113,-10.9323,0,0,0,0,0,0,0,-1,944,575,-2.09114,10.9322
-273,449,0,0,0,0,0,0,0,0,0,-1,951,575,0,0
-266,449,0,0,0,0,0,0,0,0,0,-1,958,575,0,0
-259,449,0,0,0,0,0,0,0,0,0,-1,965,575,0,0
-252,449,0,0,0,0,0,0,0,0,0,-1,972,575,0,0
-245,449,0,0,0,0,0,0,0,0,0,-1,979,575,0,0
-238,449,0,0,0,0,0,0,0,0,0,-1,986,575,0,0
-231,449,0,0,0,0,0,0,0,0,0,-1,993,575,0,0
-224,449,0,0,0,0,0,0,0,0,0,-1,1000,575,0,0
-217,449,0,0,0,0,0,0,0,0,0,-1,1007,575,0,0
-210,449,0,0,0,0,0,0,0,0,0,-1,1014,575,0,0
-203,449,0,0,0,0,0,0,0,0,0,-1,1021,575,0,0
-196,449,0,0,0,0,0,0,0,0,0,-1,1028,575,0,0
-189,449,0,0,0,0,0,0,0,0,0,-1,1035,575,0,0
-182,449,0,0,0,0,0,0,0,0,0,-1,1042,575,0,0
-175,449,0,0,0,0,0,0,0,0,0,-1,1049,575,0,0
-168,449,0,0,0,0,0,0,0,0,0,-1,1056,575,0,0
-161,449,0,0,0,0,0,0,0,0,0,-1,1063,575,0,0
-154,449,0,0,0,0,0,0,0,0,0,-1,1070,575,0,0
-147,449,0,0,0,0,0,0,0,0,0,-1,1077,575,0,0
-140,449,0,0,0,0,0,0,0,0,0,-1,1084,575,0,0
-133,449,0,0,0,0,0,0,0,0,0,-1,1091,575,0,0
-126,449,0,0,0,0,0,0,0,0,0,-1,1098,575,0,0
-119,449,0,0,0,0,0,0,0,0,0,-1,1105,575,0,0
-112,449,0,0,0,0,0,0,0,0,0,-1,1112,575,0,0
-105,449,0,0,0,0,0,0,0,0,0,-1,1119,575,0,0
-98,449,0,0,0,0,0,0,0,0,0,-1,1126,575,0,0
-91,449,0,0,0,0,0,0,0,0,0,-1,1133,575,0,0
-84,449,0,0,0,0,0,0,0,0,0,-1,1140,575,0,0
-77,449,0,0,0,0,0,0,0,0,0,-1,1147,575,0,0
-70,449,0,0,0,0,0,0,0,0,0,-1,1154,575,0,0
-63,449,0,0,0,0,0,0,0,0,0,-1,1161,575,0,0
-56,449,0,0,0,0,0,0,0,0,0,-1,1168,575,0,0
-49,449,0,0,0,0,0,0,0,0,0,-1,1175,575,0,0
-42,449,0,0,0,0,0,0,0,0,0,-1,1182,575,0,0
-35,449,0,0,0,0,0,0,0,0,0,-1,1189,575,0,0
-28,449,0,0,0,0,0,0,0,0,0,-1,1196,575,0,0
-21,449,0,0,0,0,0,0,0,0,0,-1,1203,575,0,0
-14,449,0,0,0,0,0,0,0,0,0,-1,1210,575,0,0
-7,449,0,0,0,0,0,0,0,0,0,-1,1217,575,0,0
0,449,0,0,0,0,0,0,0,0,0,-1,1224,575,0,0
7,449,0,0,0,0,0,0,0,0,0,-1,1231,575,0,0
14,449,0,0,0,0,0,0,0,0,0,-1,1238,575,0,0
21,449,0,0,0,0,0,0,0,0,0,-1,1245,575,0,0
28,449,0,0,0,0,0,0,0,0,0,-1,1252,575,0,0
35,449,0,0,0,0,0,0,0,0,0,-1,1259,575,0,0
42,449,0,0,0,0,0,0,0,0,0,-1,1266,575,0,0
49,449,0,0,0,0,0,0,0,0,0,-1,1273,575,0,0
56,449,0,0,0,0,0,0,0,0,0,-1,1280,575,0,0
63,449,0,0,0,0,0,0,0,0,0,-1,1287,575,0,0
70,449,0,0,0,0,0,0,0,0,0,-1,1294,575,0,0
77,449,0,0,0,0,0,0,0,0,0,-1,1301,575,0,0
84,449,0,0,0,0,0,0,0,0,0,-1,1308,575,0,0
91,449,0,0,0,0,0,0,0,0,0,-1,1315,575,0,0
98,449,0,0,0,0,0,0,0,0,0,-1,1322,575,0,0
105,449,0,0,0,0,0,0,0,0,0,-1,1329,575,0,0
112,449,0,0,0,0,0,0,0,0,0,-1,1336,575,0,0
119,449,0,0,0,0,0,0,0,0,0,-1,1343,575,0,0
126,449,0,0,0,0,0,0,0,0,0,-1,1350,575,0,0
133,449,0,0,0,0,0,0,0,0,0,-1,1357,575,0,0
140,449,0,0,0,0,0,0,0,0,0,-1,1364,575,0,0
147,449,0,0,0,0,0,0,0,0,0,-1,1371,575,0,0
154,449,0,0,0,0,0,0,0,0,0,-1,1378,575,0,0
161,449,0,0,0,0,0,0,0,0,0,-1,1385,575,0,0
168,449,0,0,0,0,0,0,0,0,0,-1,1392,575,0,0
175,449,0,0,0,0,0,0,0,0,0,-1,1399,575,0,0
182,449,0,0,0,0,0,0,0,0,0,-1,1406,575,0,0
189,449,0,0,0,0,0,0,0,0,0,-1,1413,575,0,0
196,449,0,0,0,0,0,0,0,0,0,-1,1420,575,0,0
203,449,0,0,0,0,0,0,0,0,0,-1,1427,575,0,0
210,449,0,0,0,0,0,0,0,0,0,-1,1434,575,0,0
217,449,0,0,0,0,0,0,0,0,0,-1,1441,575,0,0
224,449,0,0,0,0,0,0,0,0,0,-1,1448,575,0,0
231,449,0,0,0,0,0,0,0,0,0,-1,1455,575,0,0
238,449,0,0,0,0,0,0,0,0,0,-1,1462,575,0,0
245,449,0,0,0,0,0,0,0,0,0,-1,1469,575,0,0
252,449,0,0,0,0,0,0,0,0,0,-1,1476,575,0,0
259,449,0,0,0,0,0,0,0,0,0,-1,1483,575,0,0
266,449,0,0,0,0,0,0,0,0,0,-1,1490,575,0,0
273,449,0,0,0,0,0,0,0,0,0,-1,1497,575,0,0
280,449,0,0,0,0,0,0,0,0,0,-1,1504,575,0,0
287,449,0,0,0,0,0,0,0,0,0,-1,1511,575,0,0
294,449,0,0,0,0,0,0,0,0,0,-1,1518,575,0,0
301,449,0,0,0,0,0,0,0,0,0,-1,1525,575,0,0
308,449,0,0,0,0,0,0,0,0,0,-1,1532,575,0,0
315,449,0,0,0,0,0,0,0,0,0,-1,1539,575,0,0
322,449,0,0,0,0,0,0,0,0,0,-1,1546,575,0,0
329,449,0,0,0,0,0,0,0,0,0,-1,1553,575,0,0
336,449,0,0,0,0,0,0,0,0,0,-1,1560,575,0,0
343,449,0,0,0,0,0,0,0,0,0,-1,1567,575,0,0
350,449,0,0,0,0,0,0,0,0,0,-1,1574,575,0,0
357,449,0,0,0,0,0,0,0,0,0,-1,1581,575,0,0
364,449,0,0,0,0,0,0,0,0,0,-1,1588,575,0,0
371,449,0,0,0,0,0,0,0,0,0,-1,1595,575,0,0
378,449,0,0,0,0,0,0,0,0,0,-1,1602,575,0,0
385,449,0,0,0,0,0,0,0,0,0,-1,1609,575,0,0
392,449,7.95471,3.66217,0,0,0,0,0,0,0,-1,1616,575,7.95471,-3.66218
399,449,19.9791,5.565,0,0,0,0,0,0,0,-1,1623,575,19.9791,-5.56499
406,449,24.9847,4.55969,0,0,0,0,0,0,0,-1,1630,575,24.9848,-4.55968
413,449,30.4159,3.15027,0,0,0,0,0,0,0,-1,1637,575,30.4159,-3.15028
420,449,23.9675,1.29718,0,0,0,0,0,0,0,-1,1644,575,23.9675,-1.29721
427,449,24.4276,-0.596558,0,0,0,0,0,0,0,-1,1651,575,24.4277,0.596569
434,449,25.61,-2.96594,0,0,0,0,0,0,0,-1,1658,575,25.61,2.96595
441,449,3.89856,-6.06458,0,0,0,0,0,0,0,-1,1665,575,3.89855,6.06459
448,449,4.03198,-5.18207,0,0,0,0,0,0,0,-1,1672,575,4.03197,5.18207
455,449,4.21948,-4.09467,0,0,0,0,0,0,0,-1,1679,575,4.21952,4.09465
462,449,4.23181,-2.96924,0,0,0,0,0,0,0,-1,1686,575,4.23185,2.96926
469,449,4.51672,-2.95135,0,0,0,0,0,0,0,-1,1693,575,4.51672,2.95135
476,449,4.71838,-1.86688,0,0,0,0,0,0,0,-1,1700,575,4.71842,1.86689
483,449,4.87878,-1.73126,0,0,0,0,0,0,0,-1,1707,575,4.87875,1.73128
490,449,5.73279,-2.74573,0,0,0,0,0,0,0,-1,1714,575,5.73282,2.74575
497,449,16.2111,-15.3051,0,0,0,0,0,0,0,-1,1721,575,16.211,15.305
504,449,16.1195,-14.4713,0,0,0,0,0,0,0,-1,1728,575,16.1195,14.4713
511,449,16.1418,-13.8603,0.00245514,0.00264322,0.00145512,0.00400733,0.00109102,0.817667,0.0023923,0.0123227,1735,575,16.1418,13.8603
518,449,16.1536,-13.2916,0.00215887,0.0021854,0.00140254,0.00357474,0.000769531,0.790128,0.00217256,0.0139491,1742,575,16.1535,13.2916
525,449,16.1205,-12.7468,0.00178722,0.00188603,0.00130117,0.00313873,0.000534515,0.804374,0.00193903,0.01312,1749,575,16.1205,12.7468
532,449,16.0795,-12.1972,0.00131294,0.00153373,0.00111144,0.00254024,0.000306431,0.834898,0.00160116,0.0115931,1756,575,16.0794,12.1972
539,449,16.0302,-11.6104,0.000859193,0.0011902,0.000943915,0.00198301,6.63801e-05,0.872184,0.00130044,0.0143474,1763,575,16.0302,11.6104
546,449,16.0308,-11.0322,0.000344059,0.000818776,0.000683342,0.00130481,-0.000141974,0.952554,0.000920853,0.0241554,1770,575,16.0308,11.0322
553,449,16.0175,-10.472,-0.000196337,0.000424814,0.000423676,0.000639556,-0.00041108,1.10168,0.000611347,0.0169983,1777,575,16.0175,10.472
560,449,16.0327,-9.90771,-0.000804726,2.97975e-05,0.000162571,6.03489e-05,-0.000835278,1.38504,0.000578019,0.0135045,1784,575,16.0328,9.9077
567,449,16.0099,-9.31073,-0.00140079,-0.000381306,-5.43086e-05,-0.000378421,-0.00140368,-1.51773,0.000838606,0.0100023,1791,575,16.0099,9.31073
574,449,15.9971,-8.68286,-0.00213021,-0.000908516,-0.000362661,-0.000808971,-0.00222975,-1.30291,0.0013034,0.0229969,1798,575,15.9971,8.68285
581,449,15.9969,-8.00037,0,0,0,0,0,0,0,-1,1805,575,15.9969,8.00038
588,449,12.3274,-4.5672,0,0,0,0,0,0,0,-1,1812,575,12.3274,4.5672
595,449,15.9352,-5.65479,0,0,0,0,0,0,0,-1,1819,575,15.9352,5.65478
602,449,9.46167,4.17444,0,0,0,0,0,0,0,-1,1826,575,9.46164,-4.17442
609,449,12.2028,3.18652,0,0,0,0,0,0,0,-1,1833,575,12.2027,-3.18655
616,449,14.9438,2.19867,0,0,0,0,0,0,0,-1,1840,575,14.9438,-2.19867
623,449,9.83789,-0.0820313,0,0,0,0,0,0,0,-1,1847,575,9.83794,0.0820443
630,449,8.90686,4.99329,0,0,0,0,0,0,0,-1,1854,575,8.90685,-4.99327
637,449,0,0,0,0,0,0,0,0,0,-1,1861,575,0,0
644,449,0,0,0,0,0,0,0,0,0,-1,1868,575,0,0
651,449,0,0,0,0,0,0,0,0,0,-1,1875,575,0,0
658,449,0,0,0,0,0,0,0,0,0,-1,1882,575,0,0
665,449,0,0,0,0,0,0,0,0,0,-1,1889,575,0,0
672,449,0,0,0,0,0,0,0,0,0,-1,1896,575,0,0
679,449,0,0,0,0,0,0,0,0,0,-1,1903,575,0,0
686,449,0,0,0,0,0,0,0,0,0,-1,1910,575,0,0
693,449,0,0,0,0,0,0,0,0,0,-1,1917,575,0,0
700,449,0,0,0,0,0,0,0,0,0,-1,1924,575,0,0
707,449,0,0,0,0,0,0,0,0,0,-1,1931,575,0,0
714,449,0,0,0,0,0,0,0,0,0,-1,1938,575,0,0
721,449,0,0,0,0,0,0,0,0,0,-1,1945,575,0,0
728,449,0,0,0,0,0,0,0,0,0,-1,1952,575,0,0
735,449,0,0,0,0,0,0,0,0,0,-1,1959,575,0,0
742,449,0,0,0,0,0,0,0,0,0,-1,1966,575,0,0
749,449,0,0,0,0,0,0,0,0,0,-1,1973,575,0,0
756,449,0,0,0,0,0,0,0,0,0,-1,1980,575,0,0
763,449,0,0,0,0,0,0,0,0,0,-1,1987,575,0,0
770,449,0,0,0,0,0,0,0,0,0,-1,1994,575,0,0
777,449,0,0,0,0,0,0,0,0,0,-1,2001,575,0,0
784,449,0,0,0,0,0,0,0,0,0,-1,2008,575,0,0
791,449,0,0,0,0,0,0,0,0,0,-1,2015,575,0,0
798,449,0,0,0,0,0,0,0,0,0,-1,2022,575,0,0
805,449,0,0,0,0,0,0,0,0,0,-1,2029,575,0,0
812,449,0,0,0,0,0,0,0,0,0,-1,2036,575,0,0
-700,442,0,0,0,0,0,0,0,0,0,-1,524,582,0,0
-693,442,0,0,0,0,0,0,0,0,0,-1,531,582,0,0
-686,442,0,0,0,0,0,0,0,0,0,-1,538,582,0,0
-679,442,0,0,0,0,0,0,0,0,0,-1,545,582,0,0
-672,442,0,0,0,0,0,0,0,0,0,-1,552,582,0,0
-665,442,0,0,0,0,0,0,0,0,0,-1,559,582,0,0
-658,442,0,0,0,0,0,0,0,0,0,-1,566,582,0,0
-651,442,0,0,0,0,0,0,0,0,0,-1,573,582,0,0
-644,442,0,0,0,0,0,0,0,0,0,-1,580,582,0,0
-637,442,0,0,0,0,0,0,0,0,0,-1,587,582,0,0
-630,442,0,0,0,0,0,0,0,0,0,-1,594,582,0,0
-623,442,0,0,0,0,0,0,0,0,0,-1,601,582,0,0
-616,442,0,0,0,0,0,0,0,0,0,-1,608,582,0,0
-609,442,0,0,0,0,0,0,0,0,0,-1,615,582,0,0
-602,442,0,0,0,0,0,0,0,0,0,-1,622,582,0,0
-595,442,0,0,0,0,0,0,0,0,0,-1,629,582,0,0
-588,442,0,0,0,0,0,0,0,0,0,-1,636,582,0,0
-581,442,0,0,0,0,0,0,0,0,0,-1,643,582,0,0
-574,442,0,0,0,0,0,0,0,0,0,-1,650,582,0,0
-567,442,0,0,0,0,0,0,0,0,0,-1,657,582,0,0
-560,442,0,0,0,0,0,0,0,0,0,-1,664,582,0,0
-553,442,0,0,0,0,0,0,0,0,0,-1,671,582,0,0
-546,442,0,0,0,0,0,0,0,0,0,-1,678,582,0,0
-539,442,0,0,0,0,0,0,0,0,0,-1,685,582,0,0
-532,442,0,0,0,0,0,0,0,0,0,-1,692,582,0,0
-525,442,0,0,0,0,0,0,0,0,0,-1,699,582,0,0
-518,442,-0.493774,-5.72943,0,0,0,0,0,0,0,-1,706,582,-0.493791,5.72946
-511,442,-1.33008,-6.18512,0,0,0,0,0,0,0,-1,713,582,-1.33006,6.18511
-504,442,-3.20807,-6.34082,0,0,0,0,0,0,0,-1,720,582,-3.2081,6.34083
-497,442,-13.6886,-0.250122,0,0,0,0,0,0,0,-1,727,582,-13.6886,0.250143
-490,442,-9.09039,-3.64862,0,0,0,0,0,0,0,-1,734,582,-9.09037,3.64861
-483,442,-7.36499,-1.01892,0,0,0,0,0,0,0,-1,741,582,-7.365,1.01895
-476,442,-4.62225,-3.47467,0,0,0,0,0,0,0,-1,748,582,-4.62225,3.47465
-469,442,-6.88812,-7.99603,0,0,0,0,0,0,0,-1,755,582,-6.88814,7.996
-462,442,-7.06097,-8.98199,0,0,0,0,0,0,0,-1,762,582,-7.06095,8.98198
-455,442,-6.91467,-9.72589,-0.000347489,0.00523374,-0.00271501,0.00633656,-0.0014503,-1.18496,0.00478169,0.0435359,769,582,-6.91466,9.7259
-448,442,-6.78674,-10.3066,-0.000318286,0.00425592,-0.00210323,0.00507597,-0.00113834,-1.19903,0.00382038,0.0178106,776,582,-6.78674,10.3067
-441,442,-6.8457,-10.8635,-0.000240707,0.00338813,-0.00159,0.00398623,-0.000838801,-1.21101,0.00297674,0.0138249,783,582,-6.84571,10.8635
-434,442,-6.86938,-11.4022,-0.000179735,0.00258905,-0.00110264,0.00297451,-0.000565189,-1.2345,0.00219578,0.0144146,790,582,-6.86936,11.4022
-427,442,-6.88226,-11.9577,-0.000107486,0.00184004,-0.000661088,0.00204324,-0.00031069,-1.27258,0.00147666,0.0142715,797,582,-6.88225,11.9577
-420,442,-6.875,-12.5029,5.87853e-05,0.00112351,-0.000307781,0.00120608,-2.37821e-05,-1.3087,0.000812096,0.0142038,804,582,-6.875,12.503
-413,442,-6.88538,-13.0414,0.000148015,0.000268324,0.000166267,0.000384984,3.13547e-05,0.95897,0.000246869,0.0111555,811,582,-6.8854,13.0414
-406,442,-6.90637,-13.5972,0.000319734,-0.000452198,0.000548245,0.000604247,-0.000736711,0.478694,0.00077546,0.00976285,818,582,-6.90635,13.5972
-399,442,-6.93018,-14.1428,0.000604551,-0.00113032,0.00088442,0.000975923,-0.00150169,0.397546,0.00144115,0.00946023,825,582,-6.93018,14.1428
-392,442,-6.94562,-14.6506,0.00103072,-0.00180447,0.00117005,0.00145122,-0.00222497,0.345013,0.00213806,0.0113793,832,582,-6.9456,14.6507
-385,442,-6.96289,-15.1622,0.00153622,-0.00234088,0.00139763,0.00198751,-0.00279217,0.312329,0.00277256,0.0130967,839,582,-6.96287,15.1623
-378,442,-6.9646,-15.6913,0.00204578,-0.00296758,0.0017237,0.00258124,-0.00350303,0.301192,0.00352617,0.014959,846,582,-6.96462,15.6914
-371,442,-6.91113,-16.2372,0.00277563,-0.0033097,0.0020102,0.00337971,-0.00391378,0.29192,0.00421466,0.0456299,853,582,-6.91114,16.2373
-364,442,-6.73206,-16.772,0,0,0,0,0,0,0,-1,860,582,-6.73204,16.772
-357,442,-4.9115,-11.2649,0,0,0,0,0,0,0,-1,867,582,-4.91147,11.2649
-350,442,-1.75372,-6.27618,0,0,0,0,0,0,0,-1,874,582,-1.75371,6.27618
-343,442,-1.4599,-4.63605,0,0,0,0,0,0,0,-1,881,582,-1.4599,4.63607
-336,442,-1.4054,-2.64313,0,0,0,0,0,0,0,-1,888,582,-1.40539,2.64315
-329,442,-0.952576,-2.76923,0,0,0,0,0,0,0,-1,895,582,-0.952571,2.7692
-322,442,-0.972534,-2.63208,0,0,0,0,0,0,0,-1,902,582,-0.972512,2.6321
-315,442,-0.445557,-2.89764,0,0,0,0,0,0,0,-1,909,582,-0.445582,2.89765
-308,442,-0.654175,-3.07831,0,0,0,0,0,0,0,-1,916,582,-0.654145,3.07832
-301,442,-1.37427,-2.41455,0,0,0,0,0,0,0,-1,923,582,-1.37425,2.41453
-294,442,-2.99963,-2.07855,0,0,0,0,0,0,0,-1,930,582,-2.99964,2.07857
-287,442,-5.62799,-2.76422,0,0,0,0,0,0,0,-1,937,582,-5.628,2.76424
-280,442,0,0,0,0,0,0,0,0,0,-1,944,582,0,0
-273,442,0,0,0,0,0,0,0,0,0,-1,951,582,0,0
-266,442,0,0,0,0,0,0,0,0,0,-1,958,582,0,0
-259,442,0,0,0,0,0,0,0,0,0,-1,965,582,0,0
-252,442,0,0,0,0,0,0,0,0,0,-1,972,582,0,0
-245,442,0,0,0,0,0,0,0,0,0,-1,979,582,0,0
-238,442,0,0,0,0,0,0,0,0,0,-1,986,582,0,0
-231,442,0,0,0,0,0,0,0,0,0,-1,993,582,0,0
-224,442,0,0,0,0,0,0,0,0,0,-1,1000,582,0,0
-217,442,0,0,0,0,0,0,0,0,0,-1,1007,582,0,0
-210,442,0,0,0,0,0,0,0,0,0,-1,1014,582,0,0
-203,442,0,0,0,0,0,0,0,0,0,-1,1021,582,0,0
-196,442,0,0,0,0,0,0,0,0,0,-1,1028,582,0,0
-189,442,0,0,0,0,0,0,0,0,0,-1,1035,582,0,0
-182,442,0,0,0,0,0,0,0,0,0,-1,1042,582,0,0
-175,442,0,0,0,0,0,0,0,0,0,-1,1049,582,0,0
-168,442,0,0,0,0,0,0,0,0,0,-1,1056,582,0,0
-161,442,0,0,0,0,0,0,0,0,0,-1,1063,582,0,0
-154,442,0,0,0,0,0,0,0,0,0,-1,1070,582,0,0
-147,442,0,0,0,0,0,0,0,0,0,-1,1077,582,0,0
-140,442,0,0,0,0,0,0,0,0,0,-1,1084,582,0,0
-133,442,0,0,0,0,0,0,0,0,0,-1,1091,582,0,0
-126,442,0,0,0,0,0,0,0,0,0,-1,1098,582,0,0
-119,442,0,0,0,0,0,0,0,0,0,-1,1105,582,0,0
-112,442,0,0,0,0,0,0,0,0,0,-1,1112,582,0,0
-105,442,0,0,0,0,0,0,0,0,0,-1,1119,582,0,0
-98,442,0,0,0,0,0,0,0,0,0,-1,1126,582,0,0
-91,442,0,0,0,0,0,0,0,0,0,-1,1133,582,0,0
-84,442,0,0,0,0,0,0,0,0,0,-1,1140,582,0,0
-77,442,0,0,0,0,0,0,0,0,0,-1,1147,582,0,0
-70,442,0,0,0,0,0,0,0,0,0,-1,1154,582,0,0
-63,442,0,0,0,0,0,0,0,0,0,-1,1161,582,0,0
-56,442,0,0,0,0,0,0,0,0,0,-1,1168,582,0,0
-49,442,0,0,0,0,0,0,0,0,0,-1,1175,582,0,0
-42,442,0,0,0,0,0,0,0,0,0,-1,1182,582,0,0
-35,442,0,0,0,0,0,0,0,0,0,-1,1189,582,0,0
-28,442,0,0,0,0,0,0,0,0,0,-1,1196,582,0,0
-21,442,0,0,0,0,0,0,0,0,0,-1,1203,582,0,0
-14,442,0,0,0,0,0,0,0,0,0,-1,1210,582,0,0
-7,442,0,0,0,0,0,0,0,0,0,-1,1217,582,0,0
0,442,0,0,0,0,0,0,0,0,0,-1,1224,582,0,0
7,442,0,0,0,0,0,0,0,0,0,-1,1231,582,0,0
14,442,0,0,0,0,0,0,0,0,0,-1,1238,582,0,0
21,442,0,0,0,0,0,0,0,0,0,-1,1245,582,0,0
28,442,0,0,0,0,0,0,0,0,0,-1,1252,582,0,0
35,442,0,0,0,0,0,0,0,0,0,-1,1259,582,0,0
42,442,0,0,0,0,0,0,0,0,0,-1,1266,582,0,0
49,442,0,0,0,0,0,0,0,0,0,-1,1273,582,0,0
56,442,0,0,0,0,0,0,0,0,0,-1,1280,582,0,0
63,442,0,0,0,0,0,0,0,0,0,-1,1287,582,0,0
70,442,0,0,0,0,0,0,0,0,0,-1,1294,582,0,0
77,442,0,0,0,0,0,0,0,0,0,-1,1301,582,0,0
84,442,0,0,0,0,0,0,0,0,0,-1,1308,582,0,0
91,442,0,0,0,0,0,0,0,0,0,-1,1315,582,0,0
98,442,0,0,0,0,0,0,0,0,0,-1,1322,582,0,0
105,442,0,0,0,0,0,0,0,0,0,-1,1329,582,0,0
112,442,0,0,0,0,0,0,0,0,0,-1,1336,582,0,0
119,442,0,0,0,0,0,0,0,0,0,-1,1343,582,0,0
126,442,0,0,0,0,0,0,0,0,0,-1,1350,582,0,0
133,442,0,0,0,0,0,0,0,0,0,-1,1357,582,0,0
140,442,0,0,0,0,0,0,0,0,0,-1,1364,582,0,0
147,442,0,0,0,0,0,0,0,0,0,-1,1371,582,0,0
154,442,0,0,0,0,0,0,0,0,0,-1,1378,582,0,0
161,442,0,0,0,0,0,0,0,0,0,-1,1385,582,0,0
168,442,0,0,0,0,0,0,0,0,0,-1,1392,582,0,0
175,442,0,0,0,0,0,0,0,0,0,-1,1399,582,0,0
182,442,0,0,0,0,0,0,0,0,0,-1,1406,582,0,0
189,442,0,0,0,0,0,0,0,0,0,-1,1413,582,0,0
196,442,0,0,0,0,0,0,0,0,0,-1,1420,582,0,0
203,442,0,0,0,0,0,0,0,0,0,-1,1427,582,0,0
210,442,0,0,0,0,0,0,0,0,0,-1,1434,582,0,0
217,442,0,0,0,0,0,0,0,0,0,-1,1441,582,0,0
224,442,0,0,0,0,0,0,0,0,0,-1,1448,582,0,0
231,442,0,0,0,0,0,0,0,0,0,-1,1455,582,0,0
238,442,0,0,0,0,0,0,0,0,0,-1,1462,582,0,0
245,442,0,0,0,0,0,0,0,0,0,-1,1469,582,0,0
252,442,0,0,0,0,0,0,0,0,0,-1,1476,582,0,0
259,442,0,0,0,0,0,0,0,0,0,-1,1483,582,0,0
266,442,0,0,0,0,0,0,0,0,0,-1,1490,582,0,0
273,442,0,0,0,0,0,0,0,0,0,-1,1497,582,0,0
280,442,0,0,0,0,0,0,0,0,0,-1,1504,582,0,0
287,442,0,0,0,0,0,0,0,0,0,-1,1511,582,0,0
294,442,0,0,0,0,0,0,0,0,0,-1,1518,582,0,0
301,442,0,0,0,0,0,0,0,0,0,-1,1525,582,0,0
308,442,0,0,0,0,0,0,0,0,0,-1,1532,582,0,0
315,442,0,0,0,0,0,0,0,0,0,-1,1539,582,0,0
322,442,0,0,0,0,0,0,0,0,0,-1,1546,582,0,0
329,442,0,0,0,0,0,0,0,0,0,-1,1553,582,0,0
336,442,0,0,0,0,0,0,0,0,0,-1,1560,582,0,0
343,442,0,0,0,0,0,0,0,0,0,-1,1567,582,0,0
350,442,0,0,0,0,0,0,0,0,0,-1,1574,582,0,0
357,442,0,0,0,0,0,0,0,0,0,-1,1581,582,0,0
364,442,0,0,0,0,0,0,0,0,0,-1,1588,582,0,0
371,442,0,0,0,0,0,0,0,0,0,-1,1595,582,0,0
378,442,0,0,0,0,0,0,0,0,0,-1,1602,582,0,0
385,442,0,0,0,0,0,0,0,0,0,-1,1609,582,0,0
392,442,0,0,0,0,0,0,0,0,0,-1,1616,582,0,0
399,442,0,0,0,0,0,0,0,0,0,-1,1623,582,0,0
406,442,17.6321,4.08295,0,0,0,0,0,0,0,-1,1630,582,17.6321,-4.08293
413,442,25.4768,2.74445,0,0,0,0,0,0,0,-1,1637,582,25.4768,-2.74444
420,442,22.7478,1.55011,0,0,0,0,0,0,0,-1,1644,582,22.7478,-1.55009
427,442,23.2969,-0.456787,0,0,0,0,0,0,0,-1,1651,582,23.2968,0.456769
434,442,23.9512,-2.49365,0,0,0,0,0,0,0,-1,1658,582,23.9512,2.49366
441,442,24.8251,-4.43958,0,0,0,0,0,0,0,-1,1665,582,24.8251,4.43956
448,442,4.7749,-5.88562,0,0,0,0,0,0,0,-1,1672,582,4.7749,5.8856
455,442,4.87024,-4.60687,0,0,0,0,0,0,0,-1,1679,582,4.87019,4.60686
462,442,5.02307,-3.72821,0,0,0,0,0,0,0,-1,1686,582,5.02311,3.7282
469,442,5.12976,-2.98834,0,0,0,0,0,0,0,-1,1693,582,5.12971,2.98834
476,442,5.4624,1.76947,0,0,0,0,0,0,0,-1,1700,582,5.46234,-1.76944
483,442,5.98486,1.87042,0,0,0,0,0,0,0,-1,1707,582,5.98492,-1.87045
490,442,5.04407,-2.35834,0,0,0,0,0,0,0,-1,1714,582,5.04411,2.35837
497,442,6.20984,-3.07831,0,0,0,0,0,0,0,-1,1721,582,6.2098,3.07833
504,442,16.6204,-14.5187,0,0,0,0,0,0,0,-1,1728,582,16.6204,14.5187
511,442,16.6724,-13.8563,0.00296379,0.00344717,0.00179276,0.00501446,0.0013965,0.852401,0.0029883,0.0335663,1735,582,16.6724,13.8563
518,442,16.7034,-13.2411,0.0027561,0.00277613,0.00174246,0.0045086,0.00102363,0.788273,0.00272928,0.0121837,1742,582,16.7034,13.2411
525,442,16.6641,-12.7136,0.00241644,0.00242624,0.00164432,0.00406567,0.000777008,0.786889,0.00249215,0.0106008,1749,582,16.6641,12.7136
532,442,16.6565,-12.1511,0.00194544,0.00196098,0.00143196,0.00338519,0.000521222,0.788111,0.00210468,0.0116015,1756,582,16.6564,12.1511
539,442,16.6156,-11.5616,0.00152391,0.00155524,0.00125707,0.00279674,0.000282402,0.79163,0.00177785,0.0124481,1763,582,16.6155,11.5616
546,442,16.5999,-11.0145,0.00105654,0.00115172,0.00100711,0.00211237,9.5894e-05,0.809006,0.00137739,0.016076,1770,582,16.5998,11.0145
553,442,16.5701,-10.461,0.000540719,0.000698537,0.000742606,0.00136641,-0.000127159,0.838329,0.000956152,0.016911,1777,582,16.57,10.461
560,442,16.5757,-9.86774,-5.29663e-05,0.000285163,0.000469568,0.000615175,-0.000382978,0.958195,0.000581458,0.014209,1784,582,16.5756,9.86777
567,442,16.5669,-9.30426,-0.000622038,-9.5755e-05,0.000255887,8.14773e-06,-0.00072594,1.18509,0.000486699,0.0103259,1791,582,16.5669,9.30426
574,442,16.5477,-8.70856,-0.00125689,-0.000527766,4.13777e-06,-0.000527742,-0.00125692,1.56512,0.00072878,0.0132464,1798,582,16.5478,8.70857
581,442,16.589,-8.05408,-0.00195577,-0.00105939,-0.000272341,-0.000983136,-0.00203202,-1.29778,0.00117339,0.0257902,1805,582,16.5889,8.0541
588,442,16.7013,-7.39069,0,0,0,0,0,0,0,-1,1812,582,16.7013,7.39068
595,442,16.27,-6.47083,0,0,0,0,0,0,0,-1,1819,582,16.27,6.47082
602,442,16.2213,-4.49225,0,0,0,0,0,0,0,-1,1826,582,16.2213,4.49223
609,442,12.761,2.97223,0,0,0,0,0,0,0,-1,1833,582,12.761,-2.97221
616,442,9.78345,-0.103394,0,0,0,0,0,0,0,-1,1840,582,9.78341,0.103424
623,442,9.23828,0.326721,0,0,0,0,0,0,0,-1,1847,582,9.23829,-0.326727
630,442,7.74304,2.3924,0,0,0,0,0,0,0,-1,1854,582,7.7431,-2.39238
637,442,5.87805,1.84027,0,0,0,0,0,0,0,-1,1861,582,5.87807,-1.84025
644,442,0,0,0,0,0,0,0,0,0,-1,1868,582,0,0
651,442,0,0,0,0,0,0,0,0,0,-1,1875,582,0,0
658,442,0,0,0,0,0,0,0,0,0,-1,1882,582,0,0
665,442,0,0,0,0,0,0,0,0,0,-1,1889,582,0,0
672,442,0,0,0,0,0,0,0,0,0,-1,1896,582,0,0
679,442,0,0,0,0,0,0,0,0,0,-1,1903,582,0,0
686,442,0,0,0,0,0,0,0,0,0,-1,1910,582,0,0
693,442,0,0,0,0,0,0,0,0,0,-1,1917,582,0,0
700,442,0,0,0,0,0,0,0,0,0,-1,1924,582,0,0
707,442,0,0,0,0,0,0,0,0,0,-1,1931,582,0,0
714,442,0,0,0,0,0,0,0,0,0,-1,1938,582,0,0
721,442,0,0,0,0,0,0,0,0,0,-1,1945,582,0,0
728,442,0,0,0,0,0,0,0,0,0,-1,1952,582,0,0
735,442,0,0,0,0,0,0,0,0,0,-1,1959,582,0,0
742,442,0,0,0,0,0,0,0,0,0,-1,1966,582,0,0
749,442,0,0,0,0,0,0,0,0,0,-1,1973,582,0,0
756,442,0,0,0,0,0,0,0,0,0,-1,1980,582,0,0
763,442,0,0,0,0,0,0,0,0,0,-1,1987,582,0,0
770,442,0,0,0,0,0,0,0,0,0,-1,1994,582,0,0
777,442,0,0,0,0,0,0,0,0,0,-1,2001,582,0,0
784,442,0,0,0,0,0,0,0,0,0,-1,2008,582,0,0
791,442,0,0,0,0,0,0,0,0,0,-1,2015,582,0,0
798,442,0,0,0,0,0,0,0,0,0,-1,2022,582,0,0
805,442,0,0,0,0,0,0,0,0,0,-1,2029,582,0,0
812,442,0,0,0,0,0,0,0,0,0,-1,2036,582,0,0
-700,435,0,0,0,0,0,0,0,0,0,-1,524,589,0,0
-693,435,0,0,0,0,0,0,0,0,0,-1,531,589,0,0
-686,435,0,0,0,0,0,0,0,0,0,-1,538,589,0,0
-679,435,0,0,0,0,0,0,0,0,0,-1,545,589,0,0
-672,435,0,0,0,0,0,0,0,0,0,-1,552,589,0,0
-665,435,0,0,0,0,0,0,0,0,0,-1,559,589,0,0
-658,435,0,0,0,0,0,0,0,0,0,-1,566,589,0,0
-651,435,0,0,0,0,0,0,0,0,0,-1,573,589,0,0
-644,435,0,0,0,0,0,0,0,0,0,-1,580,589,0,0
-637,435,0,0,0,0,0,0,0,0,0,-1,587,589,0,0
-630,435,0,0,0,0,0,0,0,0,0,-1,594,589,0,0
-623,435,0,0,0,0,0,0,0,0,0,-1,601,589,0,0
-616,435,0,0,0,0,0,0,0,0,0,-1,608,589,0,0
-609,435,0,0,0,0,0,0,0,0,0,-1,615,589,0,0
-602,435,0,0,0,0,0,0,0,0,0,-1,622,589,0,0
-595,435,0,0,0,0,0,0,0,0,0,-1,629,589,0,0
-588,435,0,0,0,0,0,0,0,0,0,-1,636,589,0,0
-581,435,0,0,0,0,0,0,0,0,0,-1,643,589,0,0
-574,435,0,0,0,0,0,0,0,0,0,-1,650,589,0,0
-567,435,0,0,0,0,0,0,0,0,0,-1,657,589,0,0
-560,435,0,0,0,0,0,0,0,0,0,-1,664,589,0,0
-553,435,0,0,0,0,0,0,0,0,0,-1,671,589,0,0
-546,435,0,0,0,0,0,0,0,0,0,-1,678,589,0,0
-539,435,0,0,0,0,0,0,0,0,0,-1,685,589,0,0
-532,435,0,0,0,0,0,0,0,0,0,-1,692,589,0,0
-525,435,-10.0776,10.0547,0,0,0,0,0,0,0,-1,699,589,-10.0776,-10.0547
-518,435,-1.83093,-5.82367,0,0,0,0,0,0,0,-1,706,589,-1.83093,5.8237
-511,435,-2.45154,-5.33118,0,0,0,0,0,0,0,-1,713,589,-2.45151,5.33115
-504,435,-3.07208,-4.83862,0,0,0,0,0,0,0,-1,720,589,-3.0721,4.8386
-497,435,-6.31012,-5.84698,0,0,0,0,0,0,0,-1,727,589,-6.31012,5.84697
-490,435,-5.81903,-0.458679,0,0,0,0,0,0,0,-1,734,589,-5.81902,0.458684
-483,435,-6.96503,-3.01624,0,0,0,0,0,0,0,-1,741,589,-6.96505,3.01623
-476,435,-7.64954,-7.73297,0,0,0,0,0,0,0,-1,748,589,-7.64951,7.733
-469,435,-7.34161,-8.29254,-0.000437956,0.00584509,-0.00315305,0.00715451,-0.00174737,-1.17718,0.00544638,0.0380752,755,589,-7.3416,8.29254
-462,435,-7.21069,-9.08978,-0.000167392,0.00484261,-0.00275533,0.00606143,-0.00138622,-1.15432,0.00457359,0.0228149,762,589,-7.21069,9.08979
-455,435,-7.38025,-9.66956,-7.81813e-05,0.00409365,-0.00226729,0.00508859,-0.00107312,-1.15728,0.00380094,0.0211879,769,589,-7.38022,9.66958
-448,435,-7.37372,-10.3087,-1.44136e-05,0.00319762,-0.00174783,0.00396525,-0.000782046,-1.15697,0.00293907,0.0137747,776,589,-7.37374,10.3086
-441,435,-7.38007,-10.8382,3.21687e-05,0.00235188,-0.00124779,0.00289562,-0.000511572,-1.15984,0.0021216,0.0115304,783,589,-7.38005,10.8382
-434,435,-7.40277,-11.3448,7.3087e-05,0.00161341,-0.000770451,0.00193262,-0.00024613,-1.178,0.00137781,0.0134779,790,589,-7.40278,11.3449
-427,435,-7.42548,-11.9473,0.000113087,0.000897112,-0.000314454,0.00100765,2.55101e-06,-1.23277,0.000670916,0.0115881,797,589,-7.42548,11.9473
-420,435,-7.42999,-12.488,0.000234106,0.000221002,6.56484e-05,0.000293529,0.000161579,0.73566,0.000169756,0.0109993,804,589,-7.43002,12.488
-413,435,-7.43994,-13.0375,0.00027295,-0.000581428,0.000569603,0.000557757,-0.000866235,0.463655,0.000828548,0.0116651,811,589,-7.43997,13.0375
-406,435,-7.44769,-13.5762,0.000364547,-0.0012924,0.00101157,0.000843606,-0.00177146,0.442289,0.00154116,0.0124368,818,589,-7.44769,13.5763
-399,435,-7.47131,-14.1087,0.000580623,-0.00196937,0.001391,0.00119255,-0.0025813,0.414441,0.00222747,0.00998412,825,589,-7.47129,14.1087
-392,435,-7.50208,-14.637,0.000948276,-0.00259437,0.00172231,0.00164757,-0.00329366,0.385685,0.0029051,0.0105471,832,589,-7.50206,14.637
-385,435,-7.50464,-15.1496,0.00136853,-0.00309896,0.00202068,0.00214689,-0.00387731,0.367679,0.00352558,0.0188856,839,589,-7.50465,15.1496
-378,435,-7.53082,-15.5768,0.00177021,-0.00377975,0.00247948,0.00271657,-0.0047261,0.36461,0.00434892,0.0412185,846,589,-7.5308,15.5768
-371,435,-7.4425,-16.2089,0,0,0,0,0,0,0,-1,853,589,-7.44252,16.2089
-364,435,-5.62848,-11.5937,0,0,0,0,0,0,0,-1,860,589,-5.62847,11.5937
-357,435,-5.57343,-10.9666,0,0,0,0,0,0,0,-1,867,589,-5.57342,10.9666
-350,435,-0.86676,-3.69836,0,0,0,0,0,0,0,-1,874,589,-0.866784,3.69834
-343,435,-1.60706,-2.36835,0,0,0,0,0,0,0,-1,881,589,-1.60706,2.36838
-336,435,-2.07263,-1.94012,0,0,0,0,0,0,0,-1,888,589,-2.07265,1.94014
-329,435,-2.55963,-1.5517,0,0,0,0,0,0,0,-1,895,589,-2.5596,1.55168
-322,435,-3.08545,-1.55255,0,0,0,0,0,0,0,-1,902,589,-3.08544,1.55254
-315,435,-0.404297,-2.63763,0,0,0,0,0,0,0,-1,909,589,-0.404276,2.63761
-308,435,-1.70056,-1.90369,0,0,0,0,0,0,0,-1,916,589,-1.70056,1.90367
-301,435,-1.25232,-2.05511,0,0,0,0,0,0,0,-1,923,589,-1.25234,2.05514
-294,435,-1.79974,-1.97321,0,0,0,0,0,0,0,-1,930,589,-1.79973,1.97322
-287,435,0,0,0,0,0,0,0,0,0,-1,937,589,0,0
-280,435,0,0,0,0,0,0,0,0,0,-1,944,589,0,0
-273,435,0,0,0,0,0,0,0,0,0,-1,951,589,0,0
-266,435,0,0,0,0,0,0,0,0,0,-1,958,589,0,0
-259,435,0,0,0,0,0,0,0,0,0,-1,965,589,0,0
-252,435,0,0,0,0,0,0,0,0,0,-1,972,589,0,0
-245,435,0,0,0,0,0,0,0,0,0,-1,979,589,0,0
-238,435,0,0,0,0,0,0,0,0,0,-1,986,589,0,0
-231,435,0,0,0,0,0,0,0,0,0,-1,993,589,0,0
-224,435,0,0,0,0,0,0,0,0,0,-1,1000,589,0,0
-217,435,0,0,0,0,0,0,0,0,0,-1,1007,589,0,0
-210,435,0,0,0,0,0,0,0,0,0,-1,1014,589,0,0
-203,435,0,0,0,0,0,0,0,0,0,-1,1021,589,0,0
-196,435,0,0,0,0,0,0,0,0,0,-1,1028,589,0,0
-189,435,0,0,0,0,0,0,0,0,0,-1,1035,589,0,0
-182,435,0,0,0,0,0,0,0,0,0,-1,1042,589,0,0
-175,435,0,0,0,0,0,0,0,0,0,-1,1049,589,0,0
-168,435,0,0,0,0,0,0,0,0,0,-1,1056,589,0,0
-161,435,0,0,0,0,0,0,0,0,0,-1,1063,589,0,0
-154,435,0,0,0,0,0,0,0,0,0,-1,1070,589,0,0
-147,435,0,0,0,0,0,0,0,0,0,-1,1077,589,0,0
-140,435,0,0,0,0,0,0,0,0,0,-1,1084,589,0,0
-133,435,0,0,0,0,0,0,0,0,0,-1,1091,589,0,0
-126,435,0,0,0,0,0,0,0,0,0,-1,1098,589,0,0
-119,435,0,0,0,0,0,0,0,0,0,-1,1105,589,0,0
-112,435,0,0,0,0,0,0,0,0,0,-1,1112,589,0,0
-105,435,0,0,0,0,0,0,0,0,0,-1,1119,589,0,0
-98,435,0,0,0,0,0,0,0,0,0,-1,1126,589,0,0
-91,435,0,0,0,0,0,0,0,0,0,-1,1133,589,0,0
-84,435,0,0,0,0,0,0,0,0,0,-1,1140,589,0,0
-77,435,0,0,0,0,0,0,0,0,0,-1,1147,589,0,0
-70,435,0,0,0,0,0,0,0,0,0,-1,1154,589,0,0
-63,435,0,0,0,0,0,0,0,0,0,-1,1161,589,0,0
-56,435,0,0,0,0,0,0,0,0,0,-1,1168,589,0,0
-49,435,0,0,0,0,0,0,0,0,0,-1,1175,589,0,0
-42,435,0,0,0,0,0,0,0,0,0,-1,1182,589,0,0
-35,435,0,0,0,0,0,0,0,0,0,-1,1189,589,0,0
-28,435,0,0,0,0,0,0,0,0,0,-1,1196,589,0,0
-21,435,0,0,0,0,0,0,0,0,0,-1,1203,589,0,0
-14,435,0,0,0,0,0,0,0,0,0,-1,1210,589,0,0
-7,435,0,0,0,0,0,0,0,0,0,-1,1217,589,0,0
0,435,0,0,0,0,0,0,0,0,0,-1,1224,589,0,0
7,435,0,0,0,0,0,0,0,0,0,-1,1231,589,0,0
14,435,0,0,0,0,0,0,0,0,0,-1,1238,589,0,0
21,435,0,0,0,0,0,0,0,0,0,-1,1245,589,0,0
28,435,0,0,0,0,0,0,0,0,0,-1,1252,589,0,0
35,435,0,0,0,0,0,0,0,0,0,-1,1259,589,0,0
42,435,0,0,0,0,0,0,0,0,0,-1,1266,589,0,0
49,435,0,0,0,0,0,0,0,0,0,-1,1273,589,0,0
56,435,0,0,0,0,0,0,0,0,0,-1,1280,589,0,0
63,435,0,0,0,0,0,0,0,0,0,-1,1287,589,0,0
70,435,0,0,0,0,0,0,0,0,0,-1,1294,589,0,0
77,435,0,0,0,0,0,0,0,0,0,-1,1301,589,0,0
84,435,0,0,0,0,0,0,0,0,0,-1,1308,589,0,0
91,435,0,0,0,0,0,0,0,0,0,-1,1315,589,0,0
98,435,0,0,0,0,0,0,0,0,0,-1,1322,589,0,0
105,435,0,0,0,0,0,0,0,0,0,-1,1329,589,0,0
112,435,0,0,0,0,0,0,0,0,0,-1,1336,589,0,0
119,435,0,0,0,0,0,0,0,0,0,-1,1343,589,0,0
126,435,0,0,0,0,0,0,0,0,0,-1,1350,589,0,0
133,435,0,0,0,0,0,0,0,0,0,-1,1357,589,0,0
140,435,0,0,0,0,0,0,0,0,0,-1,1364,589,0,0
147,435,0,0,0,0,0,0,0,0,0,-1,1371,589,0,0
154,435,0,0,0,0,0,0,0,0,0,-1,1378,589,0,0
161,435,0,0,0,0,0,0,0,0,0,-1,1385,589,0,0
168,435,0,0,0,0,0,0,0,0,0,-1,1392,589,0,0
175,435,0,0,0,0,0,0,0,0,0,-1,1399,589,0,0
182,435,0,0,0,0,0,0,0,0,0,-1,1406,589,0,0
189,435,0,0,0,0,0,0,0,0,0,-1,1413,589,0,0
196,435,0,0,0,0,0,0,0,0,0,-1,1420,589,0,0
203,435,0,0,0,0,0,0,0,0,0,-1,1427,589,0,0
210,435,0,0,0,0,0,0,0,0,0,-1,1434,589,0,0
217,435,0,0,0,0,0,0,0,0,0,-1,1441,589,0,0
224,435,0,0,0,0,0,0,0,0,0,-1,1448,589,0,0
231,435,0,0,0,0,0,0,0,0,0,-1,1455,589,0,0
238,435,0,0,0,0,0,0,0,0,0,-1,1462,589,0,0
245,435,0,0,0,0,0,0,0,0,0,-1,1469,589,0,0
252,435,0,0,0,0,0,0,0,0,0,-1,1476,589,0,0
259,435,0,0,0,0,0,0,0,0,0,-1,1483,589,0,0
266,435,0,0,0,0,0,0,0,0,0,-1,1490,589,0,0
273,435,0,0,0,0,0,0,0,0,0,-1,1497,589,0,0
280,435,0,0,0,0,0,0,0,0,0,-1,1504,589,0,0
287,435,0,0,0,0,0,0,0,0,0,-1,1511,589,0,0
294,435,0,0,0,0,0,0,0,0,0,-1,1518,589,0,0
301,435,0,0,0,0,0,0,0,0,0,-1,1525,589,0,0
308,435,0,0,0,0,0,0,0,0,0,-1,1532,589,0,0
315,435,0,0,0,0,0,0,0,0,0,-1,1539,589,0,0
322,435,0,0,0,0,0,0,0,0,0,-1,1546,589,0,0
329,435,0,0,0,0,0,0,0,0,0,-1,1553,589,0,0
336,435,0,0,0,0,0,0,0,0,0,-1,1560,589,0,0
343,435,0,0,0,0,0,0,0,0,0,-1,1567,589,0,0
350,435,0,0,0,0,0,0,0,0,0,-1,1574,589,0,0
357,435,0,0,0,0,0,0,0,0,0,-1,1581,589,0,0
364,435,0,0,0,0,0,0,0,0,0,-1,1588,589,0,0
371,435,0,0,0,0,0,0,0,0,0,-1,1595,589,0,0
378,435,0,0,0,0,0,0,0,0,0,-1,1602,589,0,0
385,435,0,0,0,0,0,0,0,0,0,-1,1609,589,0,0
392,435,0,0,0,0,0,0,0,0,0,-1,1616,589,0,0
399,435,0,0,0,0,0,0,0,0,0,-1,1623,589,0,0
406,435,0,0,0,0,0,0,0,0,0,-1,1630,589,0,0
413,435,20.4565,3.49835,0,0,0,0,0,0,0,-1,1637,589,20.4565,-3.49836
420,435,21.4015,1.49609,0,0,0,0,0,0,0,-1,1644,589,21.4015,-1.49609
427,435,22.0464,-0.373962,0,0,0,0,0,0,0,-1,1651,589,22.0464,0.373972
434,435,22.1863,-1.54407,0,0,0,0,0,0,0,-1,1658,589,22.1862,1.54405
441,435,22.3992,-2.38287,0,0,0,0,0,0,0,-1,1665,589,22.3992,2.38289
448,435,7.4585,-0.00292969,0,0,0,0,0,0,0,-1,1672,589,7.45848,0.00294131
455,435,5.49915,-5.047,0,0,0,0,0,0,0,-1,1679,589,5.49914,5.04703
462,435,5.60669,-4.71466,0,0,0,0,0,0,0,-1,1686,589,5.60675,4.71469
469,435,5.87708,1.22351,0,0,0,0,0,0,0,-1,1693,589,5.87703,-1.22351
476,435,6.14136,1.37714,0,0,0,0,0,0,0,-1,1700,589,6.14138,-1.37712
483,435,6.49243,1.36169,0,0,0,0,0,0,0,-1,1707,589,6.49242,-1.36171
490,435,4.38391,-1.36218,0,0,0,0,0,0,0,-1,1714,589,4.38389,1.3622
497,435,7.23499,-3.64551,0,0,0,0,0,0,0,-1,1721,589,7.23495,3.64551
504,435,7.31189,-3.75909,0,0,0,0,0,0,0,-1,1728,589,7.31184,3.75911
511,435,17.2068,-13.8942,0,0,0,0,0,0,0,-1,1735,589,17.2068,13.8942
518,435,17.2635,-13.2833,0.00349759,0.00328507,0.00217871,0.00557263,0.00121003,0.761031,0.00338463,0.0273045,1742,589,17.2636,13.2833
525,435,17.2236,-12.6835,0.00312275,0.00292133,0.00204806,0.00507258,0.000971507,0.760832,0.0031089,0.0122979,1749,589,17.2236,12.6835
532,435,17.2346,-12.0952,0.00259887,0.00236431,0.00177812,0.00426358,0.000699607,0.752468,0.00264026,0.0140479,1756,589,17.2346,12.0951
539,435,17.2264,-11.5068,0.00217473,0.00193042,0.00156954,0.00362686,0.000478282,0.746563,0.0022753,0.0155753,1763,589,17.2264,11.5068
546,435,17.1844,-10.9612,0.00172481,0.00152019,0.00131888,0.00294535,0.000299659,0.746689,0.00187169,0.0151532,1770,589,17.1844,10.9612
553,435,17.1575,-10.4329,0.00120064,0.00103953,0.00103612,0.00215933,8.08326e-05,0.746603,0.00141338,0.0110028,1777,589,17.1575,10.4329
560,435,17.1395,-9.8736,0.000596843,0.00063002,0.000744783,0.0013584,-0.000131536,0.796533,0.000952477,0.00947882,1784,589,17.1395,9.87357
567,435,17.1304,-9.28162,1.77193e-05,0.000293527,0.000526462,0.000699848,-0.000388601,0.913493,0.000636923,0.00899462,1791,589,17.1304,9.28161
574,435,17.0986,-8.70251,-0.000566766,-4.36047e-05,0.000309907,0.00010036,-0.00071073,1.13592,0.000510572,0.0105448,1798,589,17.0987,8.70251
581,435,17.0917,-8.11597,-0.00113158,-0.000387659,0.000122215,-0.000368096,-0.00115114,1.41207,0.000678852,0.0176037,1805,589,17.0917,8.11599
588,435,17.0892,-7.56647,-0.0015525,-0.000622173,5.945e-05,-0.000618389,-0.00155629,1.50724,0.000904812,0.0411147,1812,589,17.0892,7.56644
595,435,16.869,-7.04327,-0.00192812,-0.000501134,0.000169987,-0.000481164,-0.00194809,1.45385,0.00117175,0.0480849,1819,589,16.8691,7.0433
602,435,16.8671,-6.39026,0,0,0,0,0,0,0,-1,1826,589,16.867,6.39024
609,435,15.2611,-3.42242,0,0,0,0,0,0,0,-1,1833,589,15.2611,3.42242
616,435,5.05151,-2.75269,0,0,0,0,0,0,0,-1,1840,589,5.05157,2.7527
623,435,11.7588,3.9704,0,0,0,0,0,0,0,-1,1847,589,11.7587,-3.97043
630,435,4.72742,-0.87561,0,0,0,0,0,0,0,-1,1854,589,4.7274,0.875636
637,435,5.05286,1.48792,0,0,0,0,0,0,0,-1,1861,589,5.05291,-1.48792
644,435,0,0,0,0,0,0,0,0,0,-1,1868,589,0,0
651,435,0,0,0,0,0,0,0,0,0,-1,1875,589,0,0
658,435,0,0,0,0,0,0,0,0,0,-1,1882,589,0,0
665,435,0,0,0,0,0,0,0,0,0,-1,1889,589,0,0
672,435,0,0,0,0,0,0,0,0,0,-1,1896,589,0,0
679,435,0,0,0,0,0,0,0,0,0,-1,1903,589,0,0
686,435,0,0,0,0,0,0,0,0,0,-1,1910,589,0,0
693,435,0,0,0,0,0,0,0,0,0,-1,1917,589,0,0
700,435,0,0,0,0,0,0,0,0,0,-1,1924,589,0,0
707,435,0,0,0,0,0,0,0,0,0,-1,1931,589,0,0
714,435,0,0,0,0,0,0,0,0,0,-1,1938,589,0,0
721,435,0,0,0,0,0,0,0,0,0,-1,1945,589,0,0
728,435,0,0,0,0,0,0,0,0,0,-1,1952,589,0,0
735,435,0,0,0,0,0,0,0,0,0,-1,1959,589,0,0
742,435,0,0,0,0,0,0,0,0,0,-1,1966,589,0,0
749,435,0,0,0,0,0,0,0,0,0,-1,1973,589,0,0
756,435,0,0,0,0,0,0,0,0,0,-1,1980,589,0,0
763,435,0,0,0,0,0,0,0,0,0,-1,1987,589,0,0
770,435,0,0,0,0,0,0,0,0,0,-1,1994,589,0,0
777,435,0,0,0,0,0,0,0,0,0,-1,2001,589,0,0
784,435,0,0,0,0,0,0,0,0,0,-1,2008,589,0,0
791,435,0,0,0,0,0,0,0,0,0,-1,2015,589,0,0
798,435,0,0,0,0,0,0,0,0,0,-1,2022,589,0,0
805,435,0,0,0,0,0,0,0,0,0,-1,2029,589,0,0
812,435,0,0,0,0,0,0,0,0,0,-1,2036,589,0,0
-700,428,0,0,0,0,0,0,0,0,0,-1,524,596,0,0
-693,428,0,0,0,0,0,0,0,0,0,-1,531,596,0,0
-686,428,0,0,0,0,0,0,0,0,0,-1,538,596,0,0
-679,428,0,0,0,0,0,0,0,0,0,-1,545,596,0,0
-672,428,0,0,0,0,0,0,0,0,0,-1,552,596,0,0
-665,428,0,0,0,0,0,0,0,0,0,-1,559,596,0,0
-658,428,0,0,0,0,0,0,0,0,0,-1,566,596,0,0
-651,428,0,0,0,0,0,0,0,0,0,-1,573,596,0,0
-644,428,0,0,0,0,0,0,0,0,0,-1,580,596,0,0
-637,428,0,0,0,0,0,0,0,0,0,-1,587,596,0,0
-630,428,0,0,0,0,0,0,0,0,0,-1,594,596,0,0
-623,428,0,0,0,0,0,0,0,0,0,-1,601,596,0,0
-616,428,0,0,0,0,0,0,0,0,0,-1,608,596,0,0
-609,428,0,0,0,0,0,0,0,0,0,-1,615,596,0,0
-602,428,0,0,0,0,0,0,0,0,0,-1,622,596,0,0
-595,428,0,0,0,0,0,0,0,0,0,-1,629,596,0,0
-588,428,0,0,0,0,0,0,0,0,0,-1,636,596,0,0
-581,428,0,0,0,0,0,0,0,0,0,-1,643,596,0,0
-574,428,0,0,0,0,0,0,0,0,0,-1,650,596,0,0
-567,428,0,0,0,0,0,0,0,0,0,-1,657,596,0,0
-560,428,0,0,0,0,0,0,0,0,0,-1,664,596,0,0
-553,428,0,0,0,0,0,0,0,0,0,-1,671,596,0,0
-546,428,0,0,0,0,0,0,0,0,0,-1,678,596,0,0
-539,428,0,0,0,0,0,0,0,0,0,-1,685,596,0,0
-532,428,0,0,0,0,0,0,0,0,0,-1,692,596,0,0
-525,428,-9.59918,7.58618,0,0,0,0,0,0,0,-1,699,596,-9.59918,-7.5862
-518,428,-2.92285,-4.81854,0,0,0,0,0,0,0,-1,706,596,-2.92285,4.81856
-511,428,-3.68811,-4.79474,0,0,0,0,0,0,0,-1,713,596,-3.68811,4.79474
-504,428,-4.45337,-4.77094,0,0,0,0,0,0,0,-1,720,596,-4.45337,4.77092
-497,428,-2.98108,-3.77502,0,0,0,0,0,0,0,-1,727,596,-2.98106,3.77505
-490,428,-6.39044,-2.80481,0,0,0,0,0,0,0,-1,734,596,-6.39047,2.80483
-483,428,-7.62341,-5.64526,0,0,0,0,0,0,0,-1,741,596,-7.62344,5.64525
-476,428,-7.82013,-7.90704,0,0,0,0,0,0,0,-1,748,596,-7.82013,7.90704
-469,428,-7.73932,-8.4693,-0.000353635,0.00477046,-0.00251608,0.00579934,-0.00138251,-1.18262,0.00440007,0.0251953,755,596,-7.73932,8.46927
-462,428,-7.83368,-8.97308,-7.05926e-05,0.00382954,-0.00220464,0.00482281,-0.00106386,-1.1475,0.00362228,0.0258847,762,596,-7.83369,8.97309
-455,428,-7.90454,-9.62817,6.66813e-05,0.00309487,-0.00180667,0.003938,-0.000776457,-1.13416,0.00291879,0.0153826,769,596,-7.90454,9.6282
-448,428,-7.92719,-10.2387,0.000171099,0.00229954,-0.00137255,0.00297212,-0.000501475,-1.11517,0.00216799,0.0118919,776,596,-7.92718,10.2387
-441,428,-7.93274,-10.8049,0.000196851,0.00148224,-0.000881688,0.00193061,-0.000251524,-1.10034,0.00137859,0.013306,783,596,-7.93271,10.8048
-434,428,-7.92786,-11.3739,0.000217896,0.00079025,-0.000409541,0.00100369,4.45207e-06,-1.09035,0.00066765,0.0104328,790,596,-7.92784,11.3739
-427,428,-7.95453,-11.9277,0.000220999,9.05398e-05,6.38983e-05,0.000247082,6.44573e-05,0.387544,0.000147991,0.0114483,797,596,-7.95456,11.9277
-420,428,-7.96881,-12.4319,0.000277235,-0.000578284,0.000484329,0.000495659,-0.000796708,0.423671,0.000752866,0.0113693,804,596,-7.96879,12.4319
-413,428,-7.98865,-12.9692,0.000250077,-0.00135307,0.00102091,0.000746494,-0.00184949,0.452586,0.00154323,0.0145631,811,596,-7.98865,12.9693
-406,428,-7.99786,-13.5273,0.000236984,-0.00210678,0.00153545,0.00099666,-0.00286646,0.459445,0.00231582,0.0176607,818,596,-7.99788,13.5273
-399,428,-7.99237,-14.0671,0.000347558,-0.00285737,0.00196918,0.00128391,-0.00379372,0.443857,0.00304861,0.0155025,825,596,-7.99235,14.0672
-392,428,-7.99109,-14.6312,0.00061243,-0.00351952,0.00236804,0.00168904,-0.00459613,0.426708,0.00375591,0.0242645,832,596,-7.9911,14.6312
-385,428,-8.04779,-15.2787,0,0,0,0,0,0,0,-1,839,596,-8.04778,15.2787
-378,428,-8.19409,-15.5009,0,0,0,0,0,0,0,-1,846,596,-8.19408,15.5009
-371,428,-5.96155,-11.0703,0,0,0,0,0,0,0,-1,853,596,-5.96154,11.0702
-364,428,-6.33643,-10.7223,0,0,0,0,0,0,0,-1,860,596,-6.33645,10.7223
-357,428,-3.20996,-4.70966,0,0,0,0,0,0,0,-1,867,596,-3.20997,4.70965
-350,428,-1.62793,-3.94055,0,0,0,0,0,0,0,-1,874,596,-1.62794,3.94055
-343,428,-0.0567017,-4.80994,0,0,0,0,0,0,0,-1,881,596,-0.0567096,4.80996
-336,428,-3.29175,-1.39569,0,0,0,0,0,0,0,-1,888,596,-3.29172,1.39568
-329,428,-3.71564,-0.791321,0,0,0,0,0,0,0,-1,895,596,-3.71564,0.791299
-322,428,-5.52863,-3.59827,0,0,0,0,0,0,0,-1,902,596,-5.52865,3.59829
-315,428,-4.57172,-1.22052,0,0,0,0,0,0,0,-1,909,596,-4.57171,1.22052
-308,428,-5.94324,-0.810791,0,0,0,0,0,0,0,-1,916,596,-5.94321,0.810803
-301,428,0,0,0,0,0,0,0,0,0,-1,923,596,0,0
-294,428,0,0,0,0,0,0,0,0,0,-1,930,596,0,0
-287,428,0,0,0,0,0,0,0,0,0,-1,937,596,0,0
-280,428,0,0,0,0,0,0,0,0,0,-1,944,596,0,0
-273,428,0,0,0,0,0,0,0,0,0,-1,951,596,0,0
-266,428,0,0,0,0,0,0,0,0,0,-1,958,596,0,0
-259,428,0,0,0,0,0,0,0,0,0,-1,965,596,0,0
-252,428,0,0,0,0,0,0,0,0,0,-1,972,596,0,0
-245,428,0,0,0,0,0,0,0,0,0,-1,979,596,0,0
-238,428,0,0,0,0,0,0,0,0,0,-1,986,596,0,0
-231,428,0,0,0,0,0,0,0,0,0,-1,993,596,0,0
-224,428,0,0,0,0,0,0,0,0,0,-1,1000,596,0,0
-217,428,0,0,0,0,0,0,0,0,0,-1,1007,596,0,0
-210,428,0,0,0,0,0,0,0,0,0,-1,1014,596,0,0
-203,428,0,0,0,0,0,0,0,0,0,-1,1021,596,0,0
-196,428,0,0,0,0,0,0,0,0,0,-1,1028,596,0,0
-189,428,0,0,0,0,0,0,0,0,0,-1,1035,596,0,0
-182,428,0,0,0,0,0,0,0,0,0,-1,1042,596,0,0
-175,428,0,0,0,0,0,0,0,0,0,-1,1049,596,0,0
-168,428,0,0,0,0,0,0,0,0,0,-1,1056,596,0,0
-161,428,0,0,0,0,0,0,0,0,0,-1,1063,596,0,0
-154,428,0,0,0,0,0,0,0,0,0,-1,1070,596,0,0
-147,428,0,0,0,0,0,0,0,0,0,-1,1077,596,0,0
-140,428,0,0,0,0,0,0,0,0,0,-1,1084,596,0,0
-133,428,0,0,0,0,0,0,0,0,0,-1,1091,596,0,0
-126,428,0,0,0,0,0,0,0,0,0,-1,1098,596,0,0
-119,428,0,0,0,0,0,0,0,0,0,-1,1105,596,0,0
-112,428,0,0,0,0,0,0,0,0,0,-1,1112,596,0,0
-105,428,0,0,0,0,0,0,0,0,0,-1,1119,596,0,0
-98,428,0,0,0,0,0,0,0,0,0,-1,1126,596,0,0
-91,428,0,0,0,0,0,0,0,0,0,-1,1133,596,0,0
-84,428,0,0,0,0,0,0,0,0,0,-1,1140,596,0,0
-77,428,0,0,0,0,0,0,0,0,0,-1,1147,596,0,0
-70,428,0,0,0,0,0,0,0,0,0,-1,1154,596,0,0
-63,428,0,0,0,0,0,0,0,0,0,-1,1161,596,0,0
-56,428,0,0,0,0,0,0,0,0,0,-1,1168,596,0,0
-49,428,0,0,0,0,0,0,0,0,0,-1,1175,596,0,0
-42,428,0,0,0,0,0,0,0,0,0,-1,1182,596,0,0
-35,428,0,0,0,0,0,0,0,0,0,-1,1189,596,0,0
-28,428,0,0,0,0,0,0,0,0,0,-1,1196,596,0,0
-21,428,0,0,0,0,0,0,0,0,0,-1,1203,596,0,0
-14,428,0,0,0,0,0,0,0,0,0,-1,1210,596,0,0
-7,428,0,0,0,0,0,0,0,0,0,-1,1217,596,0,0
0,428,0,0,0,0,0,0,0,0,0,-1,1224,596,0,0
7,428,0,0,0,0,0,0,0,0,0,-1,1231,596,0,0
14,428,0,0,0,0,0,0,0,0,0,-1,1238,596,0,0
21,428,0,0,0,0,0,0,0,0,0,-1,1245,596,0,0
28,428,0,0,0,0,0,0,0,0,0,-1,1252,596,0,0
35,428,0,0,0,0,0,0,0,0,0,-1,1259,596,0,0
42,428,0,0,0,0,0,0,0,0,0,-1,1266,596,0,0
49,428,0,0,0,0,0,0,0,0,0,-1,1273,596,0,0
56,428,0,0,0,0,0,0,0,0,0,-1,1280,596,0,0
63,428,0,0,0,0,0,0,0,0,0,-1,1287,596,0,0
70,428,0,0,0,0,0,0,0,0,0,-1,1294,596,0,0
77,428,0,0,0,0,0,0,0,0,0,-1,1301,596,0,0
84,428,0,0,0,0,0,0,0,0,0,-1,1308,596,0,0
91,428,0,0,0,0,0,0,0,0,0,-1,1315,596,0,0
98,428,0,0,0,0,0,0,0,0,0,-1,1322,596,0,0
105,428,0,0,0,0,0,0,0,0,0,-1,1329,596,0,0
112,428,0,0,0,0,0,0,0,0,0,-1,1336,596,0,0
119,428,0,0,0,0,0,0,0,0,0,-1,1343,596,0,0
126,428,0,0,0,0,0,0,0,0,0,-1,1350,596,0,0
133,428,0,0,0,0,0,0,0,0,0,-1,1357,596,0,0
140,428,0,0,0,0,0,0,0,0,0,-1,1364,596,0,0
147,428,0,0,0,0,0,0,0,0,0,-1,1371,596,0,0
154,428,0,0,0,0,0,0,0,0,0,-1,1378,596,0,0
161,428,0,0,0,0,0,0,0,0,0,-1,1385,596,0,0
168,428,0,0,0,0,0,0,0,0,0,-1,1392,596,0,0
175,428,0,0,0,0,0,0,0,0,0,-1,1399,596,0,0
182,428,0,0,0,0,0,0,0,0,0,-1,1406,596,0,0
189,428,0,0,0,0,0,0,0,0,0,-1,1413,596,0,0
196,428,0,0,0,0,0,0,0,0,0,-1,1420,596,0,0
203,428,0,0,0,0,0,0,0,0,0,-1,1427,596,0,0
210,428,0,0,0,0,0,0,0,0,0,-1,1434,596,0,0
217,428,0,0,0,0,0,0,0,0,0,-1,1441,596,0,0
224,428,0,0,0,0,0,0,0,0,0,-1,1448,596,0,0
231,428,0,0,0,0,0,0,0,0,0,-1,1455,596,0,0
238,428,0,0,0,0,0,0,0,0,0,-1,1462,596,0,0
245,428,0,0,0,0,0,0,0,0,0,-1,1469,596,0,0
252,428,0,0,0,0,0,0,0,0,0,-1,1476,596,0,0
259,428,0,0,0,0,0,0,0,0,0,-1,1483,596,0,0
266,428,0,0,0,0,0,0,0,0,0,-1,1490,596,0,0
273,428,0,0,0,0,0,0,0,0,0,-1,1497,596,0,0
280,428,0,0,0,0,0,0,0,0,0,-1,1504,596,0,0
287,428,0,0,0,0,0,0,0,0,0,-1,1511,596,0,0
294,428,0,0,0,0,0,0,0,0,0,-1,1518,596,0,0
301,428,0,0,0,0,0,0,0,0,0,-1,1525,596,0,0
308,428,0,0,0,0,0,0,0,0,0,-1,1532,596,0,0
315,428,0,0,0,0,0,0,0,0,0,-1,1539,596,0,0
322,428,0,0,0,0,0,0,0,0,0,-1,1546,596,0,0
329,428,0,0,0,0,0,0,0,0,0,-1,1553,596,0,0
336,428,0,0,0,0,0,0,0,0,0,-1,1560,596,0,0
343,428,0,0,0,0,0,0,0,0,0,-1,1567,596,0,0
350,428,0,0,0,0,0,0,0,0,0,-1,1574,596,0,0
357,428,0,0,0,0,0,0,0,0,0,-1,1581,596,0,0
364,428,0,0,0,0,0,0,0,0,0,-1,1588,596,0,0
371,428,0,0,0,0,0,0,0,0,0,-1,1595,596,0,0
378,428,0,0,0,0,0,0,0,0,0,-1,1602,596,0,0
385,428,0,0,0,0,0,0,0,0,0,-1,1609,596,0,0
392,428,0,0,0,0,0,0,0,0,0,-1,1616,596,0,0
399,428,0,0,0,0,0,0,0,0,0,-1,1623,596,0,0
406,428,0,0,0,0,0,0,0,0,0,-1,1630,596,0,0
413,428,0,0,0,0,0,0,0,0,0,-1,1637,596,0,0
420,428,19.8469,1.3399,0,0,0,0,0,0,0,-1,1644,596,19.8469,-1.33992
427,428,20.7299,-0.225281,0,0,0,0,0,0,0,-1,1651,596,20.7299,0.225262
434,428,19.8915,-0.583069,0,0,0,0,0,0,0,-1,1658,596,19.8915,0.583075
441,428,8.17993,0.607483,0,0,0,0,0,0,0,-1,1665,596,8.17997,-0.607513
448,428,7.84338,-0.385986,0,0,0,0,0,0,0,-1,1672,596,7.84336,0.385978
455,428,6.64038,2.1123,0,0,0,0,0,0,0,-1,1679,596,6.64037,-2.11229
462,428,4.84106,4.12341,0,0,0,0,0,0,0,-1,1686,596,4.84107,-4.12339
469,428,7.83789,3.10083,0,0,0,0,0,0,0,-1,1693,596,7.83785,-3.10086
476,428,7.61255,1.73956,0,0,0,0,0,0,0,-1,1700,596,7.61252,-1.73958
483,428,7.22766,1.05121,0,0,0,0,0,0,0,-1,1707,596,7.2277,-1.05121
490,428,5.4071,-3.2793,0,0,0,0,0,0,0,-1,1714,596,5.40707,3.27929
497,428,7.84106,-3.65491,0,0,0,0,0,0,0,-1,1721,596,7.84107,3.65491
504,428,6.92139,-2.83356,0,0,0,0,0,0,0,-1,1728,596,6.92137,2.83353
511,428,7.88501,-3.78723,0,0,0,0,0,0,0,-1,1735,596,7.88502,3.78722
518,428,17.8171,-13.3736,0,0,0,0,0,0,0,-1,1742,596,17.8171,13.3736
525,428,17.7762,-12.6486,0,0,0,0,0,0,0,-1,1749,596,17.7762,12.6486
532,428,17.7854,-12.0586,0.00358649,0.00269489,0.00222034,0.00540534,0.000876038,0.686325,0.00334995,0.0212866,1756,596,17.7854,12.0586
539,428,17.812,-11.5073,0.00310101,0.00220773,0.00189998,0.00460614,0.000702599,0.669956,0.00286542,0.0210679,1763,596,17.812,11.5073
546,428,17.7806,-10.9689,0.00260975,0.00176869,0.00160283,0.0038463,0.000532146,0.657106,0.00240651,0.0173751,1770,596,17.7806,10.9689
553,428,17.7472,-10.4253,0.00201156,0.001254,0.00126575,0.002954,0.000311566,0.640013,0.00187413,0.0113212,1777,596,17.7472,10.4253
560,428,17.7429,-9.82697,0.00133107,0.000843432,0.000938538,0.00205694,0.000117559,0.658315,0.00133384,0.0120917,1784,596,17.743,9.82699
567,428,17.7053,-9.24884,0.000670148,0.000545505,0.000708633,0.00131919,-0.000103541,0.741538,0.00091593,0.0119189,1791,596,17.7053,9.24883
574,428,17.6824,-8.6795,3.7439e-05,0.000295972,0.000523538,0.000705966,-0.000372555,0.906432,0.000632524,0.0139228,1798,596,17.6824,8.67948
581,428,17.6561,-8.08722,-0.000543857,0.000115672,0.000423361,0.000322545,-0.000750729,1.11628,0.00063588,0.0116738,1805,596,17.6561,8.08721
588,428,17.6663,-7.47443,-0.00100153,0.00012407,0.000476605,0.000298763,-0.00117622,1.21947,0.000900414,0.0176497,1812,596,17.6663,7.47442
595,428,17.6118,-6.88153,-0.00135405,0.00046002,0.00074542,0.000727023,-0.00162105,1.22684,0.00138803,0.0231915,1819,596,17.6118,6.88153
602,428,17.692,-6.2597,0,0,0,0,0,0,0,-1,1826,596,17.692,6.25973
609,428,17.2073,-4.82446,0,0,0,0,0,0,0,-1,1833,596,17.2073,4.82447
616,428,15.7817,-3.09558,0,0,0,0,0,0,0,-1,1840,596,15.7817,3.09556
623,428,9.53577,1.12518,0,0,0,0,0,0,0,-1,1847,596,9.5358,-1.1252
630,428,7.07996,6.88562,0,0,0,0,0,0,0,-1,1854,596,7.0799,-6.88565
637,428,3.95435,1.90857,0,0,0,0,0,0,0,-1,1861,596,3.95439,-1.90858
644,428,5.75476,0.888977,0,0,0,0,0,0,0,-1,1868,596,5.75472,-0.888955
651,428,0,0,0,0,0,0,0,0,0,-1,1875,596,0,0
658,428,0,0,0,0,0,0,0,0,0,-1,1882,596,0,0
665,428,0,0,0,0,0,0,0,0,0,-1,1889,596,0,0
672,428,0,0,0,0,0,0,0,0,0,-1,1896,596,0,0
679,428,0,0,0,0,0,0,0,0,0,-1,1903,596,0,0
686,428,0,0,0,0,0,0,0,0,0,-1,1910,596,0,0
693,428,0,0,0,0,0,0,0,0,0,-1,1917,596,0,0
700,428,0,0,0,0,0,0,0,0,0,-1,1924,596,0,0
707,428,0,0,0,0,0,0,0,0,0,-1,1931,596,0,0
714,428,0,0,0,0,0,0,0,0,0,-1,1938,596,0,0
721,428,0,0,0,0,0,0,0,0,0,-1,1945,596,0,0
728,428,0,0,0,0,0,0,0,0,0,-1,1952,596,0,0
735,428,0,0,0,0,0,0,0,0,0,-1,1959,596,0,0
742,428,0,0,0,0,0,0,0,0,0,-1,1966,596,0,0
749,428,0,0,0,0,0,0,0,0,0,-1,1973,596,0,0
756,428,0,0,0,0,0,0,0,0,0,-1,1980,596,0,0
763,428,0,0,0,0,0,0,0,0,0,-1,1987,596,0,0
770,428,0,0,0,0,0,0,0,0,0,-1,1994,596,0,0
777,428,0,0,0,0,0,0,0,0,0,-1,2001,596,0,0
784,428,0,0,0,0,0,0,0,0,0,-1,2008,596,0,0
791,428,0,0,0,0,0,0,0,0,0,-1,2015,596,0,0
798,428,0,0,0,0,0,0,0,0,0,-1,2022,596,0,0
805,428,0,0,0,0,0,0,0,0,0,-1,2029,596,0,0
812,428,0,0,0,0,0,0,0,0,0,-1,2036,596,0,0
-700,421,0,0,0,0,0,0,0,0,0,-1,524,603,0,0
-693,421,0,0,0,0,0,0,0,0,0,-1,531,603,0,0
-686,421,0,0,0,0,0,0,0,0,0,-1,538,603,0,0
-679,421,0,0,0,0,0,0,0,0,0,-1,545,603,0,0
-672,421,0,0,0,0,0,0,0,0,0,-1,552,603,0,0
-665,421,0,0,0,0,0,0,0,0,0,-1,559,603,0,0
-658,421,0,0,0,0,0,0,0,0,0,-1,566,603,0,0
-651,421,0,0,0,0,0,0,0,0,0,-1,573,603,0,0
-644,421,0,0,0,0,0,0,0,0,0,-1,580,603,0,0
-637,421,0,0,0,0,0,0,0,0,0,-1,587,603,0,0
-630,421,0,0,0,0,0,0,0,0,0,-1,594,603,0,0
-623,421,0,0,0,0,0,0,0,0,0,-1,601,603,0,0
-616,421,0,0,0,0,0,0,0,0,0,-1,608,603,0,0
-609,421,0,0,0,0,0,0,0,0,0,-1,615,603,0,0
-602,421,0,0,0,0,0,0,0,0,0,-1,622,603,0,0
-595,421,0,0,0,0,0,0,0,0,0,-1,629,603,0,0
-588,421,0,0,0,0,0,0,0,0,0,-1,636,603,0,0
-581,421,0,0,0,0,0,0,0,0,0,-1,643,603,0,0
-574,421,0,0,0,0,0,0,0,0,0,-1,650,603,0,0
-567,421,0,0,0,0,0,0,0,0,0,-1,657,603,0,0
-560,421,0,0,0,0,0,0,0,0,0,-1,664,603,0,0
-553,421,0,0,0,0,0,0,0,0,0,-1,671,603,0,0
-546,421,0,0,0,0,0,0,0,0,0,-1,678,603,0,0
-539,421,0,0,0,0,0,0,0,0,0,-1,685,603,0,0
-532,421,-8.97382,6.95636,0,0,0,0,0,0,0,-1,692,603,-8.97384,-6.95634
-525,421,-2.11481,-8.04272,0,0,0,0,0,0,0,-1,699,603,-2.11483,8.0427
-518,421,-3.05908,-5.07233,0,0,0,0,0,0,0,-1,706,603,-3.0591,5.07235
-511,421,-4.63525,-4.08447,0,0,0,0,0,0,0,-1,713,603,-4.63524,4.08449
-504,421,-5.17029,-4.94458,0,0,0,0,0,0,0,-1,720,603,-5.17029,4.9446
-497,421,-6.63141,-2.32501,0,0,0,0,0,0,0,-1,727,603,-6.6314,2.32498
-490,421,-6.7616,-4.14783,0,0,0,0,0,0,0,-1,734,603,-6.76159,4.1478
-483,421,-8.13916,-7.58447,0,0,0,0,0,0,0,-1,741,603,-8.13916,7.58445
-476,421,-8.25006,-8.04883,-0.000400373,0.00487442,-0.00226128,0.00571111,-0.00123706,-1.21641,0.00427977,0.0347101,748,603,-8.25006,8.04883
-469,421,-8.40729,-8.4494,-0.000203609,0.00376432,-0.0020263,0.0046162,-0.00105548,-1.17282,0.00348302,0.0250717,755,603,-8.40727,8.44938
-462,421,-8.43756,-9.07098,3.89341e-05,0.00287811,-0.00176216,0.00372136,-0.000804316,-1.12447,0.00278796,0.0194899,762,603,-8.43759,9.07097
-455,421,-8.44598,-9.61438,0.000182926,0.00215338,-0.0014259,0.00290132,-0.000565016,-1.08771,0.00214747,0.0203331,769,603,-8.446,9.61439
-448,421,-8.46936,-10.1893,0.000290716,0.00143152,-0.00104338,0.00205024,-0.000327999,-1.03555,0.00148825,0.0197816,776,603,-8.46934,10.1892
-441,421,-8.48151,-10.7781,0.00027987,0.000638766,-0.000546089,0.00103413,-0.000115499,-0.944143,0.000730971,0.0141728,783,603,-8.4815,10.7782
-434,421,-8.49689,-11.356,0.000270992,-8.86663e-06,-6.34102e-05,0.000284689,-2.25637e-05,-0.212739,0.000197743,0.0102786,790,603,-8.49691,11.356
-427,421,-8.50543,-11.9116,0.000226862,-0.000682071,0.000445871,0.000409059,-0.000864268,0.387926,0.000750652,0.0100805,797,603,-8.50545,11.9116
-420,421,-8.52008,-12.4144,0.00019483,-0.00133603,0.000941393,0.000642702,-0.0017839,0.444065,0.00145173,0.0112706,804,603,-8.52006,12.4144
-413,421,-8.54633,-12.9218,7.96287e-05,-0.00205146,0.00153535,0.000882954,-0.00285478,0.482051,0.00225586,0.0138938,811,603,-8.54632,12.9218
-406,421,-8.57971,-13.5047,-6.37303e-05,-0.00282487,0.00215399,0.00111415,-0.00400274,0.50041,0.00310719,0.0185249,818,603,-8.57972,13.5047
-399,421,-8.49567,-14.1246,-9.17677e-05,-0.00363753,0.0026709,0.0013411,-0.0050704,0.492399,0.00390484,0.0288707,825,603,-8.49565,14.1246
-392,421,-8.63898,-14.5329,1.91176e-05,-0.00434202,0.00318328,0.00169706,-0.00601996,0.485102,0.00468265,0.0492842,832,603,-8.63897,14.5329
-385,421,-8.75555,-15.1578,0,0,0,0,0,0,0,-1,839,603,-8.75553,15.1577
-378,421,-4.94733,-8.87909,0,0,0,0,0,0,0,-1,846,603,-4.94731,8.87906
-371,421,-5.65082,-7.01849,0,0,0,0,0,0,0,-1,853,603,-5.65082,7.0185
-364,421,-5.94189,-7.09875,0,0,0,0,0,0,0,-1,860,603,-5.94192,7.09878
-357,421,-7.62531,-8.26337,0,0,0,0,0,0,0,-1,867,603,-7.62532,8.26337
-350,421,-5.38019,-3.75024,0,0,0,0,0,0,0,-1,874,603,-5.38017,3.75026
-343,421,-6.22797,-2.57123,0,0,0,0,0,0,0,-1,881,603,-6.22798,2.57121
-336,421,-6.22882,-2.59369,0,0,0,0,0,0,0,-1,888,603,-6.22883,2.5937
-329,421,-4.50134,-1.49469,0,0,0,0,0,0,0,-1,895,603,-4.50137,1.49468
-322,421,-7.55817,1.13263,0,0,0,0,0,0,0,-1,902,603,-7.55818,-1.13263
-315,421,-4.47821,-1.26733,0,0,0,0,0,0,0,-1,909,603,-4.47824,1.26732
-308,421,0,0,0,0,0,0,0,0,0,-1,916,603,0,0
-301,421,0,0,0,0,0,0,0,0,0,-1,923,603,0,0
-294,421,0,0,0,0,0,0,0,0,0,-1,930,603,0,0
-287,421,0,0,0,0,0,0,0,0,0,-1,937,603,0,0
-280,421,0,0,0,0,0,0,0,0,0,-1,944,603,0,0
-273,421,0,0,0,0,0,0,0,0,0,-1,951,603,0,0
-266,421,0,0,0,0,0,0,0,0,0,-1,958,603,0,0
-259,421,0,0,0,0,0,0,0,0,0,-1,965,603,0,0
-252,421,0,0,0,0,0,0,0,0,0,-1,972,603,0,0
-245,421,0,0,0,0,0,0,0,0,0,-1,979,603,0,0
-238,421,0,0,0,0,0,0,0,0,0,-1,986,603,0,0
-231,421,0,0,0,0,0,0,0,0,0,-1,993,603,0,0
-224,421,0,0,0,0,0,0,0,0,0,-1,1000,603,0,0
-217,421,0,0,0,0,0,0,0,0,0,-1,1007,603,0,0
-210,421,0,0,0,0,0,0,0,0,0,-1,1014,603,0,0
-203,421,0,0,0,0,0,0,0,0,0,-1,1021,603,0,0
-196,421,0,0,0,0,0,0,0,0,0,-1,1028,603,0,0
-189,421,0,0,0,0,0,0,0,0,0,-1,1035,603,0,0
-182,421,0,0,0,0,0,0,0,0,0,-1,1042,603,0,0
-175,421,0,0,0,0,0,0,0,0,0,-1,1049,603,0,0
-168,421,0,0,0,0,0,0,0,0,0,-1,1056,603,0,0
-161,421,0,0,0,0,0,0,0,0,0,-1,1063,603,0,0
-154,421,0,0,0,0,0,0,0,0,0,-1,1070,603,0,0
-147,421,0,0,0,0,0,0,0,0,0,-1,1077,603,0,0
-140,421,0,0,0,0,0,0,0,0,0,-1,1084,603,0,0
-133,421,0,0,0,0,0,0,0,0,0,-1,1091,603,0,0
-126,421,0,0,0,0,0,0,0,0,0,-1,1098,603,0,0
-119,421,0,0,0,0,0,0,0,0,0,-1,1105,603,0,0
-112,421,0,0,0,0,0,0,0,0,0,-1,1112,603,0,0
-105,421,0,0,0,0,0,0,0,0,0,-1,1119,603,0,0
-98,421,0,0,0,0,0,0,0,0,0,-1,1126,603,0,0
-91,421,0,0,0,0,0,0,0,0,0,-1,1133,603,0,0
-84,421,0,0,0,0,0,0,0,0,0,-1,1140,603,0,0
-77,421,0,0,0,0,0,0,0,0,0,-1,1147,603,0,0
-70,421,0,0,0,0,0,0,0,0,0,-1,1154,603,0,0
-63,421,0,0,0,0,0,0,0,0,0,-1,1161,603,0,0
-56,421,0,0,0,0,0,0,0,0,0,-1,1168,603,0,0
-49,421,0,0,0,0,0,0,0,0,0,-1,1175,603,0,0
-42,421,0,0,0,0,0,0,0,0,0,-1,1182,603,0,0
-35,421,0,0,0,0,0,0,0,0,0,-1,1189,603,0,0
-28,421,0,0,0,0,0,0,0,0,0,-1,1196,603,0,0
-21,421,0,0,0,0,0,0,0,0,0,-1,1203,603,0,0
-14,421,0,0,0,0,0,0,0,0,0,-1,1210,603,0,0
-7,421,0,0,0,0,0,0,0,0,0,-1,1217,603,0,0
0,421,0,0,0,0,0,0,0,0,0,-1,1224,603,0,0
7,421,0,0,0,0,0,0,0,0,0,-1,1231,603,0,0
14,421,0,0,0,0,0,0,0,0,0,-1,1238,603,0,0
21,421,0,0,0,0,0,0,0,0,0,-1,1245,603,0,0
28,421,0,0,0,0,0,0,0,0,0,-1,1252,603,0,0
35,421,0,0,0,0,0,0,0,0,0,-1,1259,603,0,0
42,421,0,0,0,0,0,0,0,0,0,-1,1266,603,0,0
49,421,0,0,0,0,0,0,0,0,0,-1,1273,603,0,0
56,421,0,0,0,0,0,0,0,0,0,-1,1280,603,0,0
63,421,0,0,0,0,0,0,0,0,0,-1,1287,603,0,0
70,421,0,0,0,0,0,0,0,0,0,-1,1294,603,0,0
77,421,0,0,0,0,0,0,0,0,0,-1,1301,603,0,0
84,421,0,0,0,0,0,0,0,0,0,-1,1308,603,0,0
91,421,0,0,0,0,0,0,0,0,0,-1,1315,603,0,0
98,421,0,0,0,0,0,0,0,0,0,-1,1322,603,0,0
105,421,0,0,0,0,0,0,0,0,0,-1,1329,603,0,0
112,421,0,0,0,0,0,0,0,0,0,-1,1336,603,0,0
119,421,0,0,0,0,0,0,0,0,0,-1,1343,603,0,0
126,421,0,0,0,0,0,0,0,0,0,-1,1350,603,0,0
133,421,0,0,0,0,0,0,0,0,0,-1,1357,603,0,0
140,421,0,0,0,0,0,0,0,0,0,-1,1364,603,0,0
147,421,0,0,0,0,0,0,0,0,0,-1,1371,603,0,0
154,421,0,0,0,0,0,0,0,0,0,-1,1378,603,0,0
161,421,0,0,0,0,0,0,0,0,0,-1,1385,603,0,0
168,421,0,0,0,0,0,0,0,0,0,-1,1392,603,0,0
175,421,0,0,0,0,0,0,0,0,0,-1,1399,603,0,0
182,421,0,0,0,0,0,0,0,0,0,-1,1406,603,0,0
189,421,0,0,0,0,0,0,0,0,0,-1,1413,603,0,0
196,421,0,0,0,0,0,0,0,0,0,-1,1420,603,0,0
203,421,0,0,0,0,0,0,0,0,0,-1,1427,603,0,0
210,421,0,0,0,0,0,0,0,0,0,-1,1434,603,0,0
217,421,0,0,0,0,0,0,0,0,0,-1,1441,603,0,0
224,421,0,0,0,0,0,0,0,0,0,-1,1448,603,0,0
231,421,0,0,0,0,0,0,0,0,0,-1,1455,603,0,0
238,421,0,0,0,0,0,0,0,0,0,-1,1462,603,0,0
245,421,0,0,0,0,0,0,0,0,0,-1,1469,603,0,0
252,421,0,0,0,0,0,0,0,0,0,-1,1476,603,0,0
259,421,0,0,0,0,0,0,0,0,0,-1,1483,603,0,0
266,421,0,0,0,0,0,0,0,0,0,-1,1490,603,0,0
273,421,0,0,0,0,0,0,0,0,0,-1,1497,603,0,0
280,421,0,0,0,0,0,0,0,0,0,-1,1504,603,0,0
287,421,0,0,0,0,0,0,0,0,0,-1,1511,603,0,0
294,421,0,0,0,0,0,0,0,0,0,-1,1518,603,0,0
301,421,0,0,0,0,0,0,0,0,0,-1,1525,603,0,0
308,421,0,0,0,0,0,0,0,0,0,-1,1532,603,0,0
315,421,0,0,0,0,0,0,0,0,0,-1,1539,603,0,0
322,421,0,0,0,0,0,0,0,0,0,-1,1546,603,0,0
329,421,0,0,0,0,0,0,0,0,0,-1,1553,603,0,0
336,421,0,0,0,0,0,0,0,0,0,-1,1560,603,0,0
343,421,0,0,0,0,0,0,0,0,0,-1,1567,603,0,0
350,421,0,0,0,0,0,0,0,0,0,-1,1574,603,0,0
357,421,0,0,0,0,0,0,0,0,0,-1,1581,603,0,0
364,421,0,0,0,0,0,0,0,0,0,-1,1588,603,0,0
371,421,0,0,0,0,0,0,0,0,0,-1,1595,603,0,0
378,421,0,0,0,0,0,0,0,0,0,-1,1602,603,0,0
385,421,0,0,0,0,0,0,0,0,0,-1,1609,603,0,0
392,421,0,0,0,0,0,0,0,0,0,-1,1616,603,0,0
399,421,0,0,0,0,0,0,0,0,0,-1,1623,603,0,0
406,421,0,0,0,0,0,0,0,0,0,-1,1630,603,0,0
413,421,0,0,0,0,0,0,0,0,0,-1,1637,603,0,0
420,421,0,0,0,0,0,0,0,0,0,-1,1644,603,0,0
427,421,0,0,0,0,0,0,0,0,0,-1,1651,603,0,0
434,421,3.68176,-0.0327759,0,0,0,0,0,0,0,-1,1658,603,3.6818,0.0328037
441,421,8.06689,0.527832,0,0,0,0,0,0,0,-1,1665,603,8.06693,-0.527851
448,421,6.93921,0.802246,0,0,0,0,0,0,0,-1,1672,603,6.93923,-0.802251
455,421,7.29456,2.14825,0,0,0,0,0,0,0,-1,1679,603,7.29461,-2.14827
462,421,7.86902,3.53174,0,0,0,0,0,0,0,-1,1686,603,7.869,-3.53173
469,421,8.06604,2.81213,0,0,0,0,0,0,0,-1,1693,603,8.06606,-2.81212
476,421,8.26306,2.09253,0,0,0,0,0,0,0,-1,1700,603,8.26312,-2.09251
483,421,8.05322,0.798096,0,0,0,0,0,0,0,-1,1707,603,8.05323,-0.7981
490,421,7.51233,0.213074,0,0,0,0,0,0,0,-1,1714,603,7.51235,-0.213043
497,421,7.49634,-2.86688,0,0,0,0,0,0,0,-1,1721,603,7.4963,2.86688
504,421,6.90491,-2.18671,0,0,0,0,0,0,0,-1,1728,603,6.90491,2.18669
511,421,6.31348,-1.50653,0,0,0,0,0,0,0,-1,1735,603,6.31353,1.5065
518,421,6.27588,-2.49878,0,0,0,0,0,0,0,-1,1742,603,6.2759,2.4988
525,421,18.0929,-12.9374,0,0,0,0,0,0,0,-1,1749,603,18.0929,12.9374
532,421,18.2372,-12.1249,0.00454808,0.00309488,0.00265381,0.00657296,0.00107,0.651775,0.00407244,0.0444607,1756,603,18.2371,12.1249
539,421,18.3696,-11.5104,0.0039708,0.00252319,0.00222094,0.0055829,0.000911092,0.627875,0.00345847,0.0224119,1763,603,18.3697,11.5104
546,421,18.3461,-10.9581,0.00342284,0.00202039,0.00188328,0.00473121,0.000712022,0.60718,0.00294563,0.0139876,1770,603,18.3461,10.9581
553,421,18.3273,-10.379,0.00275252,0.00144996,0.0014909,0.00372819,0.000474294,0.579472,0.00234341,0.0121449,1777,603,18.3273,10.379
560,421,18.3125,-9.78516,0.0020141,0.00101317,0.00112476,0.00274471,0.000282554,0.576074,0.00174327,0.0138568,1784,603,18.3125,9.78516
567,421,18.2891,-9.21399,0.00131009,0.000711631,0.000874892,0.00193551,8.62135e-05,0.620624,0.00126258,0.0172223,1791,603,18.289,9.21396
574,421,18.2654,-8.62518,0.000683327,0.000504109,0.000714035,0.00131335,-0.000125918,0.722976,0.000920417,0.0195903,1798,603,18.2654,8.62519
581,421,18.235,-8.04126,0.000146137,0.000417989,0.000674754,0.000970372,-0.000406246,0.884791,0.000816733,0.0154126,1805,603,18.235,8.04129
588,421,18.2096,-7.50214,-0.000265177,0.000553053,0.000793179,0.00103641,-0.000748535,1.0235,0.001035,0.0113864,1812,603,18.2096,7.50213
595,421,18.24,-6.93207,-0.000503713,0.000976417,0.00114403,0.00159889,-0.00112619,1.07249,0.00158119,0.0174063,1819,603,18.24,6.9321
602,421,18.2507,-6.31659,0,0,0,0,0,0,0,-1,1826,603,18.2507,6.31658
609,421,17.6451,-5.54187,0,0,0,0,0,0,0,-1,1833,603,17.6451,5.54189
616,421,17.7633,-4.72491,0,0,0,0,0,0,0,-1,1840,603,17.7633,4.7249
623,421,6.19885,0.376648,0,0,0,0,0,0,0,-1,1847,603,6.19881,-0.376624
630,421,6.54993,0.778748,0,0,0,0,0,0,0,-1,1854,603,6.54991,-0.778744
637,421,3.74512,1.65405,0,0,0,0,0,0,0,-1,1861,603,3.74517,-1.65407
644,421,3.58081,0.354675,0,0,0,0,0,0,0,-1,1868,603,3.58082,-0.354704
651,421,3.28687,3.66351,0,0,0,0,0,0,0,-1,1875,603,3.28688,-3.66353
658,421,0,0,0,0,0,0,0,0,0,-1,1882,603,0,0
665,421,0,0,0,0,0,0,0,0,0,-1,1889,603,0,0
672,421,0,0,0,0,0,0,0,0,0,-1,1896,603,0,0
679,421,0,0,0,0,0,0,0,0,0,-1,1903,603,0,0
686,421,0,0,0,0,0,0,0,0,0,-1,1910,603,0,0
693,421,0,0,0,0,0,0,0,0,0,-1,1917,603,0,0
700,421,0,0,0,0,0,0,0,0,0,-1,1924,603,0,0
707,421,0,0,0,0,0,0,0,0,0,-1,1931,603,0,0
714,421,0,0,0,0,0,0,0,0,0,-1,1938,603,0,0
721,421,0,0,0,0,0,0,0,0,0,-1,1945,603,0,0
728,421,0,0,0,0,0,0,0,0,0,-1,1952,603,0,0
735,421,0,0,0,0,0,0,0,0,0,-1,1959,603,0,0
742,421,0,0,0,0,0,0,0,0,0,-1,1966,603,0,0
749,421,0,0,0,0,0,0,0,0,0,-1,1973,603,0,0
756,421,0,0,0,0,0,0,0,0,0,-1,1980,603,0,0
763,421,0,0,0,0,0,0,0,0,0,-1,1987,603,0,0
770,421,0,0,0,0,0,0,0,0,0,-1,1994,603,0,0
777,421,0,0,0,0,0,0,0,0,0,-1,2001,603,0,0
784,421,0,0,0,0,0,0,0,0,0,-1,2008,603,0,0
791,421,0,0,0,0,0,0,0,0,0,-1,2015,603,0,0
798,421,0,0,0,0,0,0,0,0,0,-1,2022,603,0,0
805,421,0,0,0,0,0,0,0,0,0,-1,2029,603,0,0
812,421,0,0,0,0,0,0,0,0,0,-1,2036,603,0,0
-700,414,0,0,0,0,0,0,0,0,0,-1,524,610,0,0
-693,414,0,0,0,0,0,0,0,0,0,-1,531,610,0,0
-686,414,0,0,0,0,0,0,0,0,0,-1,538,610,0,0
-679,414,0,0,0,0,0,0,0,0,0,-1,545,610,0,0
-672,414,0,0,0,0,0,0,0,0,0,-1,552,610,0,0
-665,414,0,0,0,0,0,0,0,0,0,-1,559,610,0,0
-658,414,0,0,0,0,0,0,0,0,0,-1,566,610,0,0
-651,414,0,0,0,0,0,0,0,0,0,-1,573,610,0,0
-644,414,0,0,0,0,0,0,0,0,0,-1,580,610,0,0
-637,414,0,0,0,0,0,0,0,0,0,-1,587,610,0,0
-630,414,0,0,0,0,0,0,0,0,0,-1,594,610,0,0
-623,414,0,0,0,0,0,0,0,0,0,-1,601,610,0,0
-616,414,0,0,0,0,0,0,0,0,0,-1,608,610,0,0
-609,414,0,0,0,0,0,0,0,0,0,-1,615,610,0,0
-602,414,0,0,0,0,0,0,0,0,0,-1,622,610,0,0
-595,414,0,0,0,0,0,0,0,0,0,-1,629,610,0,0
-588,414,0,0,0,0,0,0,0,0,0,-1,636,610,0,0
-581,414,0,0,0,0,0,0,0,0,0,-1,643,610,0,0
-574,414,0,0,0,0,0,0,0,0,0,-1,650,610,0,0
-567,414,0,0,0,0,0,0,0,0,0,-1,657,610,0,0
-560,414,0,0,0,0,0,0,0,0,0,-1,664,610,0,0
-553,414,0,0,0,0,0,0,0,0,0,-1,671,610,0,0
-546,414,0,0,0,0,0,0,0,0,0,-1,678,610,0,0
-539,414,-7.50146,5.65619,0,0,0,0,0,0,0,-1,685,610,-7.50149,-5.65617
-532,414,-8.15204,4.01605,0,0,0,0,0,0,0,-1,692,610,-8.15206,-4.01606
-525,414,-3.47137,-3.27924,0,0,0,0,0,0,0,-1,699,610,-3.47136,3.27922
-518,414,-4.12909,-4.36908,0,0,0,0,0,0,0,-1,706,610,-4.12909,4.36909
-511,414,-3.92542,-4.97021,0,0,0,0,0,0,0,-1,713,610,-3.92542,4.97023
-504,414,-9.35394,-5.49896,0,0,0,0,0,0,0,-1,720,610,-9.35394,5.49898
-497,414,-9.17554,-6.03741,0,0,0,0,0,0,0,-1,727,610,-9.17551,6.03743
-490,414,-9.01099,-6.05676,0,0,0,0,0,0,0,-1,734,610,-9.01101,6.05677
-483,414,-8.77094,-7.50122,0,0,0,0,0,0,0,-1,741,610,-8.77095,7.50124
-476,414,-8.92725,-8.00159,-0.000143899,0.00398085,-0.00184743,0.0046873,-0.00085035,-1.20556,0.0034435,0.0231716,748,610,-8.92722,8.00156
-469,414,-8.98871,-8.49866,3.78423e-05,0.00301663,-0.00165829,0.00375619,-0.000701717,-1.15129,0.00276785,0.0133757,755,610,-8.98868,8.49868
-462,414,-8.98987,-9.06409,0.000250337,0.00223222,-0.00144032,0.00298957,-0.000507004,-1.08671,0.00218177,0.0222044,762,610,-8.98985,9.0641
-455,414,-8.9964,-9.61658,0.000389254,0.00154395,-0.00115481,0.00225769,-0.00032449,-1.0172,0.00162413,0.0253323,769,610,-8.99642,9.61655
-448,414,-9.02344,-10.1768,0.000490274,0.00089762,-0.000819172,0.00153806,-0.000150165,-0.907244,0.00107892,0.02592,776,610,-9.02345,10.1768
-441,414,-9.02222,-10.7661,0.000436176,0.000131981,-0.00032304,0.000641134,-7.29772e-05,-0.565378,0.000453709,0.0183715,783,610,-9.02222,10.7661
-434,414,-9.05585,-11.3321,0.000372431,-0.000499903,0.000172902,0.000405452,-0.000532923,0.188705,0.000543435,0.0100054,790,610,-9.05582,11.3321
-427,414,-9.0705,-11.8863,0.000238435,-0.00119755,0.00073331,0.000546725,-0.00150584,0.397976,0.00122742,0.0107648,797,610,-9.07052,11.8863
-420,414,-9.07562,-12.4121,4.98075e-05,-0.00191974,0.00135059,0.00073652,-0.00260645,0.470389,0.00202822,0.0103861,804,610,-9.07559,12.4121
-413,414,-9.09943,-12.929,-0.000228826,-0.00266219,0.00205032,0.000938634,-0.00382965,0.517618,0.00291676,0.0102481,811,610,-9.09941,12.9289
-406,414,-9.10822,-13.553,-0.000590283,-0.00357356,0.00283817,0.00112435,-0.0052882,0.543454,0.0039539,0.0235858,818,610,-9.10819,13.553
-399,414,-9.08044,-14.2347,0,0,0,0,0,0,0,-1,825,610,-9.08047,14.2347
-392,414,-9.15796,-14.5764,0,0,0,0,0,0,0,-1,832,610,-9.15798,14.5763
-385,414,-8.14691,-13.0653,0,0,0,0,0,0,0,-1,839,610,-8.14692,13.0653
-378,414,-8.04907,-11.3331,0,0,0,0,0,0,0,-1,846,610,-8.04905,11.3331
-371,414,-5.20886,-8.05151,0,0,0,0,0,0,0,-1,853,610,-5.20887,8.05153
-364,414,-6.76282,-6.58759,0,0,0,0,0,0,0,-1,860,610,-6.7628,6.58756
-357,414,-9.08685,-8.86188,0,0,0,0,0,0,0,-1,867,610,-9.08688,8.86187
-350,414,-6.4502,-2.41821,0,0,0,0,0,0,0,-1,874,610,-6.45021,2.41822
-343,414,-6.80249,-2.32117,0,0,0,0,0,0,0,-1,881,610,-6.80252,2.32116
-336,414,-7.11017,-2.52026,0,0,0,0,0,0,0,-1,888,610,-7.11016,2.52026
-329,414,-7.59747,-2.70313,0,0,0,0,0,0,0,-1,895,610,-7.59747,2.70315
-322,414,-4.42236,-1.29163,0,0,0,0,0,0,0,-1,902,610,-4.42238,1.2916
-315,414,0,0,0,0,0,0,0,0,0,-1,909,610,0,0
-308,414,0,0,0,0,0,0,0,0,0,-1,916,610,0,0
-301,414,0,0,0,0,0,0,0,0,0,-1,923,610,0,0
-294,414,0,0,0,0,0,0,0,0,0,-1,930,610,0,0
-287,414,0,0,0,0,0,0,0,0,0,-1,937,610,0,0
-280,414,0,0,0,0,0,0,0,0,0,-1,944,610,0,0
-273,414,0,0,0,0,0,0,0,0,0,-1,951,610,0,0
-266,414,0,0,0,0,0,0,0,0,0,-1,958,610,0,0
-259,414,0,0,0,0,0,0,0,0,0,-1,965,610,0,0
-252,414,0,0,0,0,0,0,0,0,0,-1,972,610,0,0
-245,414,0,0,0,0,0,0,0,0,0,-1,979,610,0,0
-238,414,0,0,0,0,0,0,0,0,0,-1,986,610,0,0
-231,414,0,0,0,0,0,0,0,0,0,-1,993,610,0,0
-224,414,0,0,0,0,0,0,0,0,0,-1,1000,610,0,0
-217,414,0,0,0,0,0,0,0,0,0,-1,1007,610,0,0
-210,414,0,0,0,0,0,0,0,0,0,-1,1014,610,0,0
-203,414,0,0,0,0,0,0,0,0,0,-1,1021,610,0,0
-196,414,0,0,0,0,0,0,0,0,0,-1,1028,610,0,0
-189,414,0,0,0,0,0,0,0,0,0,-1,1035,610,0,0
-182,414,0,0,0,0,0,0,0,0,0,-1,1042,610,0,0
-175,414,0,0,0,0,0,0,0,0,0,-1,1049,610,0,0
-168,414,0,0,0,0,0,0,0,0,0,-1,1056,610,0,0
-161,414,0,0,0,0,0,0,0,0,0,-1,1063,610,0,0
-154,414,0,0,0,0,0,0,0,0,0,-1,1070,610,0,0
-147,414,0,0,0,0,0,0,0,0,0,-1,1077,610,0,0
-140,414,0,0,0,0,0,0,0,0,0,-1,1084,610,0,0
-133,414,0,0,0,0,0,0,0,0,0,-1,1091,610,0,0
-126,414,0,0,0,0,0,0,0,0,0,-1,1098,610,0,0
-119,414,0,0,0,0,0,0,0,0,0,-1,1105,610,0,0
-112,414,0,0,0,0,0,0,0,0,0,-1,1112,610,0,0
-105,414,0,0,0,0,0,0,0,0,0,-1,1119,610,0,0
-98,414,0,0,0,0,0,0,0,0,0,-1,1126,610,0,0
-91,414,0,0,0,0,0,0,0,0,0,-1,1133,610,0,0
-84,414,0,0,0,0,0,0,0,0,0,-1,1140,610,0,0
-77,414,0,0,0,0,0,0,0,0,0,-1,1147,610,0,0
-70,414,0,0,0,0,0,0,0,0,0,-1,1154,610,0,0
-63,414,0,0,0,0,0,0,0,0,0,-1,1161,610,0,0
-56,414,0,0,0,0,0,0,0,0,0,-1,1168,610,0,0
-49,414,0,0,0,0,0,0,0,0,0,-1,1175,610,0,0
-42,414,0,0,0,0,0,0,0,0,0,-1,1182,610,0,0
-35,414,0,0,0,0,0,0,0,0,0,-1,1189,610,0,0
-28,414,0,0,0,0,0,0,0,0,0,-1,1196,610,0,0
-21,414,0,0,0,0,0,0,0,0,0,-1,1203,610,0,0
-14,414,0,0,0,0,0,0,0,0,0,-1,1210,610,0,0
-7,414,0,0,0,0,0,0,0,0,0,-1,1217,610,0,0
0,414,0,0,0,0,0,0,0,0,0,-1,1224,610,0,0
7,414,0,0,0,0,0,0,0,0,0,-1,1231,610,0,0
14,414,0,0,0,0,0,0,0,0,0,-1,1238,610,0,0
21,414,0,0,0,0,0,0,0,0,0,-1,1245,610,0,0
28,414,0,0,0,0,0,0,0,0,0,-1,1252,610,0,0
35,414,0,0,0,0,0,0,0,0,0,-1,1259,610,0,0
42,414,0,0,0,0,0,0,0,0,0,-1,1266,610,0,0
49,414,0,0,0,0,0,0,0,0,0,-1,1273,610,0,0
56,414,0,0,0,0,0,0,0,0,0,-1,1280,610,0,0
63,414,0,0,0,0,0,0,0,0,0,-1,1287,610,0,0
70,414,0,0,0,0,0,0,0,0,0,-1,1294,610,0,0
77,414,0,0,0,0,0,0,0,0,0,-1,1301,610,0,0
84,414,0,0,0,0,0,0,0,0,0,-1,1308,610,0,0
91,414,0,0,0,0,0,0,0,0,0,-1,1315,610,0,0
98,414,0,0,0,0,0,0,0,0,0,-1,1322,610,0,0
105,414,0,0,0,0,0,0,0,0,0,-1,1329,610,0,0
112,414,0,0,0,0,0,0,0,0,0,-1,1336,610,0,0
119,414,0,0,0,0,0,0,0,0,0,-1,1343,610,0,0
126,414,0,0,0,0,0,0,0,0,0,-1,1350,610,0,0
133,414,0,0,0,0,0,0,0,0,0,-1,1357,610,0,0
140,414,0,0,0,0,0,0,0,0,0,-1,1364,610,0,0
147,414,0,0,0,0,0,0,0,0,0,-1,1371,610,0,0
154,414,0,0,0,0,0,0,0,0,0,-1,1378,610,0,0
161,414,0,0,0,0,0,0,0,0,0,-1,1385,610,0,0
168,414,0,0,0,0,0,0,0,0,0,-1,1392,610,0,0
175,414,0,0,0,0,0,0,0,0,0,-1,1399,610,0,0
182,414,0,0,0,0,0,0,0,0,0,-1,1406,610,0,0
189,414,0,0,0,0,0,0,0,0,0,-1,1413,610,0,0
196,414,0,0,0,0,0,0,0,0,0,-1,1420,610,0,0
203,414,0,0,0,0,0,0,0,0,0,-1,1427,610,0,0
210,414,0,0,0,0,0,0,0,0,0,-1,1434,610,0,0
217,414,0,0,0,0,0,0,0,0,0,-1,1441,610,0,0
224,414,0,0,0,0,0,0,0,0,0,-1,1448,610,0,0
231,414,0,0,0,0,0,0,0,0,0,-1,1455,610,0,0
238,414,0,0,0,0,0,0,0,0,0,-1,1462,610,0,0
245,414,0,0,0,0,0,0,0,0,0,-1,1469,610,0,0
252,414,0,0,0,0,0,0,0,0,0,-1,1476,610,0,0
259,414,0,0,0,0,0,0,0,0,0,-1,1483,610,0,0
266,414,0,0,0,0,0,0,0,0,0,-1,1490,610,0,0
273,414,0,0,0,0,0,0,0,0,0,-1,1497,610,0,0
280,414,0,0,0,0,0,0,0,0,0,-1,1504,610,0,0
287,414,0,0,0,0,0,0,0,0,0,-1,1511,610,0,0
294,414,0,0,0,0,0,0,0,0,0,-1,1518,610,0,0
301,414,0,0,0,0,0,0,0,0,0,-1,1525,610,0,0
308,414,0,0,0,0,0,0,0,0,0,-1,1532,610,0,0
315,414,0,0,0,0,0,0,0,0,0,-1,1539,610,0,0
322,414,0,0,0,0,0,0,0,0,0,-1,1546,610,0,0
329,414,0,0,0,0,0,0,0,0,0,-1,1553,610,0,0
336,414,0,0,0,0,0,0,0,0,0,-1,1560,610,0,0
343,414,0,0,0,0,0,0,0,0,0,-1,1567,610,0,0
350,414,0,0,0,0,0,0,0,0,0,-1,1574,610,0,0
357,414,0,0,0,0,0,0,0,0,0,-1,1581,610,0,0
364,414,0,0,0,0,0,0,0,0,0,-1,1588,610,0,0
371,414,0,0,0,0,0,0,0,0,0,-1,1595,610,0,0
378,414,0,0,0,0,0,0,0,0,0,-1,1602,610,0,0
385,414,0,0,0,0,0,0,0,0,0,-1,1609,610,0,0
392,414,0,0,0,0,0,0,0,0,0,-1,1616,610,0,0
399,414,0,0,0,0,0,0,0,0,0,-1,1623,610,0,0
406,414,0,0,0,0,0,0,0,0,0,-1,1630,610,0,0
413,414,0,0,0,0,0,0,0,0,0,-1,1637,610,0,0
420,414,0,0,0,0,0,0,0,0,0,-1,1644,610,0,0
427,414,0,0,0,0,0,0,0,0,0,-1,1651,610,0,0
434,414,0,0,0,0,0,0,0,0,0,-1,1658,610,0,0
441,414,7.84375,0.584412,0,0,0,0,0,0,0,-1,1665,610,7.84379,-0.584394
448,414,7.40808,1.25446,0,0,0,0,0,0,0,-1,1672,610,7.40807,-1.25446
455,414,6.3512,1.73846,0,0,0,0,0,0,0,-1,1679,610,6.3512,-1.73847
462,414,8.18103,3.22113,0,0,0,0,0,0,0,-1,1686,610,8.18108,-3.22112
469,414,8.38513,2.49579,0,0,0,0,0,0,0,-1,1693,610,8.38516,-2.49576
476,414,8.64099,1.71161,0,0,0,0,0,0,0,-1,1700,610,8.64097,-1.71164
483,414,8.62744,0.687622,0,0,0,0,0,0,0,-1,1707,610,8.62749,-0.687615
490,414,8.38831,-0.0302734,0,0,0,0,0,0,0,-1,1714,610,8.38835,0.0302913
497,414,4.71094,-0.110046,0,0,0,0,0,0,0,-1,1721,610,4.71089,0.110024
504,414,7.19568,-1.43835,0,0,0,0,0,0,0,-1,1728,610,7.19563,1.43836
511,414,5.94153,-1.28772,0,0,0,0,0,0,0,-1,1735,610,5.94151,1.28769
518,414,4.53381,-0.0996704,0,0,0,0,0,0,0,-1,1742,610,4.53378,0.0996819
525,414,6.18811,-1.64056,0,0,0,0,0,0,0,-1,1749,610,6.18814,1.64055
532,414,18.7749,-12.4236,0,0,0,0,0,0,0,-1,1756,610,18.7749,12.4236
539,414,18.8771,-11.6221,0.00515471,0.00296104,0.00276273,0.00703037,0.00108537,0.596434,0.00437028,0.045969,1763,610,18.877,11.6222
546,414,18.8933,-10.927,0.00445975,0.00233393,0.00232998,0.00595781,0.000835874,0.571404,0.00372465,0.0135967,1770,610,18.8933,10.927
553,414,18.8981,-10.3572,0.00365165,0.00167123,0.00183509,0.00474664,0.000576235,0.537987,0.00299091,0.0121281,1777,610,18.8981,10.3572
560,414,18.8821,-9.78168,0.00280165,0.00117726,0.00138717,0.00359691,0.000382005,0.520552,0.00228129,0.0132448,1784,610,18.882,9.78166
567,414,18.8718,-9.1748,0.00200184,0.000831335,0.00106944,0.00263569,0.000197485,0.535031,0.00169514,0.0222413,1791,610,18.8718,9.17482
574,414,18.8436,-8.57642,0.00132731,0.000632257,0.000883195,0.00192889,3.06728e-05,0.597959,0.00127583,0.0210799,1798,610,18.8437,8.57643
581,414,18.8151,-8.01721,0.000767411,0.000599719,0.000840569,0.00152831,-0.000161175,0.735688,0.00107662,0.0156861,1805,610,18.8151,8.01719
588,414,18.7677,-7.4809,0.000328775,0.00079339,0.000947854,0.00153699,-0.000414824,0.905573,0.00118734,0.015243,1812,610,18.7677,7.48091
595,414,18.7622,-6.87073,0.000110964,0.00123678,0.00128241,0.00207439,-0.000726642,0.99221,0.00167842,0.0212726,1819,610,18.7622,6.87075
602,414,18.7477,-6.30829,8.93705e-05,0.00193553,0.0018223,0.00305521,-0.00103031,1.01983,0.00245344,0.0250282,1826,610,18.7477,6.30828
609,414,18.7517,-5.70605,0,0,0,0,0,0,0,-1,1833,610,18.7517,5.70604
616,414,18.9774,-4.88794,0,0,0,0,0,0,0,-1,1840,610,18.9774,4.88796
623,414,9.6969,0.0378418,0,0,0,0,0,0,0,-1,1847,610,9.69685,-0.0378644
630,414,5.47144,0.499329,0,0,0,0,0,0,0,-1,1854,610,5.47142,-0.499303
637,414,8.36707,4.16278,0,0,0,0,0,0,0,-1,1861,610,8.36709,-4.16278
644,414,5.87073,1.51422,0,0,0,0,0,0,0,-1,1868,610,5.87076,-1.51424
651,414,3.6377,0.820557,0,0,0,0,0,0,0,-1,1875,610,3.6377,-0.820543
658,414,2.29761,3.87323,0,0,0,0,0,0,0,-1,1882,610,2.29758,-3.87325
665,414,0,0,0,0,0,0,0,0,0,-1,1889,610,0,0
672,414,0,0,0,0,0,0,0,0,0,-1,1896,610,0,0
679,414,0,0,0,0,0,0,0,0,0,-1,1903,610,0,0
686,414,0,0,0,0,0,0,0,0,0,-1,1910,610,0,0
693,414,0,0,0,0,0,0,0,0,0,-1,1917,610,0,0
700,414,0,0,0,0,0,0,0,0,0,-1,1924,610,0,0
707,414,0,0,0,0,0,0,0,0,0,-1,1931,610,0,0
714,414,0,0,0,0,0,0,0,0,0,-1,1938,610,0,0
721,414,0,0,0,0,0,0,0,0,0,-1,1945,610,0,0
728,414,0,0,0,0,0,0,0,0,0,-1,1952,610,0,0
735,414,0,0,0,0,0,0,0,0,0,-1,1959,610,0,0
742,414,0,0,0,0,0,0,0,0,0,-1,1966,610,0,0
749,414,0,0,0,0,0,0,0,0,0,-1,1973,610,0,0
756,414,0,0,0,0,0,0,0,0,0,-1,1980,610,0,0
763,414,0,0,0,0,0,0,0,0,0,-1,1987,610,0,0
770,414,0,0,0,0,0,0,0,0,0,-1,1994,610,0,0
777,414,0,0,0,0,0,0,0,0,0,-1,2001,610,0,0
784,414,0,0,0,0,0,0,0,0,0,-1,2008,610,0,0
791,414,0,0,0,0,0,0,0,0,0,-1,2015,610,0,0
798,414,0,0,0,0,0,0,0,0,0,-1,2022,610,0,0
805,414,0,0,0,0,0,0,0,0,0,-1,2029,610,0,0
812,414,0,0,0,0,0,0,0,0,0,-1,2036,610,0,0
-700,407,0,0,0,0,0,0,0,0,0,-1,524,617,0,0
-693,407,0,0,0,0,0,0,0,0,0,-1,531,617,0,0
-686,407,0,0,0,0,0,0,0,0,0,-1,538,617,0,0
-679,407,0,0,0,0,0,0,0,0,0,-1,545,617,0,0
-672,407,0,0,0,0,0,0,0,0,0,-1,552,617,0,0
-665,407,0,0,0,0,0,0,0,0,0,-1,559,617,0,0
-658,407,0,0,0,0,0,0,0,0,0,-1,566,617,0,0
-651,407,0,0,0,0,0,0,0,0,0,-1,573,617,0,0
-644,407,0,0,0,0,0,0,0,0,0,-1,580,617,0,0
-637,407,0,0,0,0,0,0,0,0,0,-1,587,617,0,0
-630,407,0,0,0,0,0,0,0,0,0,-1,594,617,0,0
-623,407,0,0,0,0,0,0,0,0,0,-1,601,617,0,0
-616,407,0,0,0,0,0,0,0,0,0,-1,608,617,0,0
-609,407,0,0,0,0,0,0,0,0,0,-1,615,617,0,0
-602,407,0,0,0,0,0,0,0,0,0,-1,622,617,0,0
-595,407,0,0,0,0,0,0,0,0,0,-1,629,617,0,0
-588,407,0,0,0,0,0,0,0,0,0,-1,636,617,0,0
-581,407,0,0,0,0,0,0,0,0,0,-1,643,617,0,0
-574,407,0,0,0,0,0,0,0,0,0,-1,650,617,0,0
-567,407,0,0,0,0,0,0,0,0,0,-1,657,617,0,0
-560,407,0,0,0,0,0,0,0,0,0,-1,664,617,0,0
-553,407,0,0,0,0,0,0,0,0,0,-1,671,617,0,0
-546,407,-8.54517,-0.658142,0,0,0,0,0,0,0,-1,678,617,-8.54515,0.658112
-539,407,-6.09442,-1.01154,0,0,0,0,0,0,0,-1,685,617,-6.09441,1.01155
-532,407,-7.75665,1.62152,0,0,0,0,0,0,0,-1,692,617,-7.75667,-1.62154
-525,407,-3.78247,-2.67639,0,0,0,0,0,0,0,-1,699,617,-3.78246,2.67638
-518,407,-5.013,-5.87323,0,0,0,0,0,0,0,-1,706,617,-5.013,5.87324
-511,407,-9.42743,-4.94189,0,0,0,0,0,0,0,-1,713,617,-9.42745,4.94191
-504,407,-9.42578,-5.44543,0,0,0,0,0,0,0,-1,720,617,-9.42581,5.44545
-497,407,-9.32892,-5.96295,0,0,0,0,0,0,0,-1,727,617,-9.32894,5.96296
-490,407,-9.5882,-6.55084,0,0,0,0,0,0,0,-1,734,617,-9.5882,6.55083
-483,407,-9.44922,-7.38055,7.79591e-05,0.00433104,-0.00186158,0.00503075,-0.000621746,-1.21127,0.00357913,0.0319953,741,617,-9.44919,7.38053
-476,407,-9.4743,-7.9303,4.63139e-05,0.00324849,-0.00157505,0.00389335,-0.000598543,-1.1822,0.00281636,0.0161419,748,617,-9.4743,7.93032
-469,407,-9.50403,-8.46936,0.000197836,0.00241625,-0.00138894,0.00308454,-0.000470455,-1.12234,0.00222978,0.0131412,755,617,-9.50402,8.46937
-462,407,-9.53265,-9.03857,0.000369927,0.00172588,-0.00117736,0.00240651,-0.000310709,-1.04663,0.00171731,0.0205553,762,617,-9.53266,9.03857
-455,407,-9.53772,-9.63263,0.000500252,0.00107294,-0.000910767,0.00174132,-0.000168122,-0.937706,0.00122078,0.0217516,769,617,-9.53775,9.63263
-448,407,-9.52722,-10.2034,0.00060073,0.000494359,-0.000604101,0.00115398,-5.88936e-05,-0.741491,0.000789685,0.0192534,776,617,-9.52723,10.2035
-441,407,-9.56403,-10.713,0.000533111,-0.000230869,-0.000115618,0.000550225,-0.000247983,-0.146954,0.000471729,0.0158496,783,617,-9.56402,10.713
-434,407,-9.60913,-11.2545,0.000448531,-0.000851734,0.00038428,0.000553609,-0.000956812,0.266917,0.000882338,0.0114201,790,617,-9.60916,11.2545
-427,407,-9.60699,-11.8244,0.000259323,-0.00159797,0.000986033,0.000685168,-0.00202381,0.407681,0.00162644,0.0115072,797,617,-9.60702,11.8244
-420,407,-9.60303,-12.3726,-6.42117e-05,-0.0024404,0.00173012,0.000846471,-0.00335108,0.484521,0.00256323,0.0111402,804,617,-9.60306,12.3726
-413,407,-9.61755,-12.8883,-0.000483341,-0.00326883,0.00253727,0.00101831,-0.00477047,0.534394,0.00356852,0.013403,811,617,-9.61755,12.8883
-406,407,-9.72095,-13.2678,-0.00108147,-0.00442302,0.00351346,0.00113824,-0.00664274,0.563456,0.00485261,0.039322,818,617,-9.72096,13.2678
-399,407,-9.61963,-13.6904,0,0,0,0,0,0,0,-1,825,617,-9.61965,13.6904
-392,407,-8.33612,-12.195,0,0,0,0,0,0,0,-1,832,617,-8.33611,12.195
-385,407,-7.65765,-10.7744,0,0,0,0,0,0,0,-1,839,617,-7.65767,10.7744
-378,407,-6.08655,-7.42291,0,0,0,0,0,0,0,-1,846,617,-6.08652,7.42292
-371,407,-7.4007,-5.79449,0,0,0,0,0,0,0,-1,853,617,-7.40072,5.79447
-364,407,-10.0638,-6.6228,0,0,0,0,0,0,0,-1,860,617,-10.0639,6.62279
-357,407,-6.64447,-1.83337,0,0,0,0,0,0,0,-1,867,617,-6.64446,1.8334
-350,407,-7.03351,-1.77551,0,0,0,0,0,0,0,-1,874,617,-7.03349,1.77551
-343,407,-7.40967,-1.95026,0,0,0,0,0,0,0,-1,881,617,-7.40969,1.95026
-336,407,-8.10229,-2.40662,0,0,0,0,0,0,0,-1,888,617,-8.10229,2.40664
-329,407,-8.81232,-2.76331,0,0,0,0,0,0,0,-1,895,617,-8.81235,2.76331
-322,407,0,0,0,0,0,0,0,0,0,-1,902,617,0,0
-315,407,0,0,0,0,0,0,0,0,0,-1,909,617,0,0
-308,407,0,0,0,0,0,0,0,0,0,-1,916,617,0,0
-301,407,0,0,0,0,0,0,0,0,0,-1,923,617,0,0
-294,407,0,0,0,0,0,0,0,0,0,-1,930,617,0,0
-287,407,0,0,0,0,0,0,0,0,0,-1,937,617,0,0
-280,407,0,0,0,0,0,0,0,0,0,-1,944,617,0,0
-273,407,0,0,0,0,0,0,0,0,0,-1,951,617,0,0
-266,407,0,0,0,0,0,0,0,0,0,-1,958,617,0,0
-259,407,0,0,0,0,0,0,0,0,0,-1,965,617,0,0
-252,407,0,0,0,0,0,0,0,0,0,-1,972,617,0,0
-245,407,0,0,0,0,0,0,0,0,0,-1,979,617,0,0
-238,407,0,0,0,0,0,0,0,0,0,-1,986,617,0,0
-231,407,0,0,0,0,0,0,0,0,0,-1,993,617,0,0
-224,407,0,0,0,0,0,0,0,0,0,-1,1000,617,0,0
-217,407,0,0,0,0,0,0,0,0,0,-1,1007,617,0,0
-210,407,0,0,0,0,0,0,0,0,0,-1,1014,617,0,0
-203,407,0,0,0,0,0,0,0,0,0,-1,1021,617,0,0
-196,407,0,0,0,0,0,0,0,0,0,-1,1028,617,0,0
-189,407,0,0,0,0,0,0,0,0,0,-1,1035,617,0,0
-182,407,0,0,0,0,0,0,0,0,0,-1,1042,617,0,0
-175,407,0,0,0,0,0,0,0,0,0,-1,1049,617,0,0
-168,407,0,0,0,0,0,0,0,0,0,-1,1056,617,0,0
-161,407,0,0,0,0,0,0,0,0,0,-1,1063,617,0,0
-154,407,0,0,0,0,0,0,0,0,0,-1,1070,617,0,0
-147,407,0,0,0,0,0,0,0,0,0,-1,1077,617,0,0
-140,407,0,0,0,0,0,0,0,0,0,-1,1084,617,0,0
-133,407,0,0,0,0,0,0,0,0,0,-1,1091,617,0,0
-126,407,0,0,0,0,0,0,0,0,0,-1,1098,617,0,0
-119,407,0,0,0,0,0,0,0,0,0,-1,1105,617,0,0
-112,407,0,0,0,0,0,0,0,0,0,-1,1112,617,0,0
-105,407,0,0,0,0,0,0,0,0,0,-1,1119,617,0,0
-98,407,0,0,0,0,0,0,0,0,0,-1,1126,617,0,0
-91,407,0,0,0,0,0,0,0,0,0,-1,1133,617,0,0
-84,407,0,0,0,0,0,0,0,0,0,-1,1140,617,0,0
-77,407,0,0,0,0,0,0,0,0,0,-1,1147,617,0,0
-70,407,0,0,0,0,0,0,0,0,0,-1,1154,617,0,0
-63,407,0,0,0,0,0,0,0,0,0,-1,1161,617,0,0
-56,407,0,0,0,0,0,0,0,0,0,-1,1168,617,0,0
-49,407,0,0,0,0,0,0,0,0,0,-1,1175,617,0,0
-42,407,0,0,0,0,0,0,0,0,0,-1,1182,617,0,0
-35,407,0,0,0,0,0,0,0,0,0,-1,1189,617,0,0
-28,407,0,0,0,0,0,0,0,0,0,-1,1196,617,0,0
-21,407,0,0,0,0,0,0,0,0,0,-1,1203,617,0,0
-14,407,0,0,0,0,0,0,0,0,0,-1,1210,617,0,0
-7,407,0,0,0,0,0,0,0,0,0,-1,1217,617,0,0
0,407,0,0,0,0,0,0,0,0,0,-1,1224,617,0,0
7,407,0,0,0,0,0,0,0,0,0,-1,1231,617,0,0
14,407,0,0,0,0,0,0,0,0,0,-1,1238,617,0,0
21,407,0,0,0,0,0,0,0,0,0,-1,1245,617,0,0
28,407,0,0,0,0,0,0,0,0,0,-1,1252,617,0,0
35,407,0,0,0,0,0,0,0,0,0,-1,1259,617,0,0
42,407,0,0,0,0,0,0,0,0,0,-1,1266,617,0,0
49,407,0,0,0,0,0,0,0,0,0,-1,1273,617,0,0
56,407,0,0,0,0,0,0,0,0,0,-1,1280,617,0,0
63,407,0,0,0,0,0,0,0,0,0,-1,1287,617,0,0
70,407,0,0,0,0,0,0,0,0,0,-1,1294,617,0,0
77,407,0,0,0,0,0,0,0,0,0,-1,1301,617,0,0
84,407,0,0,0,0,0,0,0,0,0,-1,1308,617,0,0
91,407,0,0,0,0,0,0,0,0,0,-1,1315,617,0,0
98,407,0,0,0,0,0,0,0,0,0,-1,1322,617,0,0
105,407,0,0,0,0,0,0,0,0,0,-1,1329,617,0,0
112,407,0,0,0,0,0,0,0,0,0,-1,1336,617,0,0
119,407,0,0,0,0,0,0,0,0,0,-1,1343,617,0,0
126,407,0,0,0,0,0,0,0,0,0,-1,1350,617,0,0
133,407,0,0,0,0,0,0,0,0,0,-1,1357,617,0,0
140,407,0,0,0,0,0,0,0,0,0,-1,1364,617,0,0
147,407,0,0,0,0,0,0,0,0,0,-1,1371,617,0,0
154,407,0,0,0,0,0,0,0,0,0,-1,1378,617,0,0
161,407,0,0,0,0,0,0,0,0,0,-1,1385,617,0,0
168,407,0,0,0,0,0,0,0,0,0,-1,1392,617,0,0
175,407,0,0,0,0,0,0,0,0,0,-1,1399,617,0,0
182,407,0,0,0,0,0,0,0,0,0,-1,1406,617,0,0
189,407,0,0,0,0,0,0,0,0,0,-1,1413,617,0,0
196,407,0,0,0,0,0,0,0,0,0,-1,1420,617,0,0
203,407,0,0,0,0,0,0,0,0,0,-1,1427,617,0,0
210,407,0,0,0,0,0,0,0,0,0,-1,1434,617,0,0
217,407,0,0,0,0,0,0,0,0,0,-1,1441,617,0,0
224,407,0,0,0,0,0,0,0,0,0,-1,1448,617,0,0
231,407,0,0,0,0,0,0,0,0,0,-1,1455,617,0,0
238,407,0,0,0,0,0,0,0,0,0,-1,1462,617,0,0
245,407,0,0,0,0,0,0,0,0,0,-1,1469,617,0,0
252,407,0,0,0,0,0,0,0,0,0,-1,1476,617,0,0
259,407,0,0,0,0,0,0,0,0,0,-1,1483,617,0,0
266,407,0,0,0,0,0,0,0,0,0,-1,1490,617,0,0
273,407,0,0,0,0,0,0,0,0,0,-1,1497,617,0,0
280,407,0,0,0,0,0,0,0,0,0,-1,1504,617,0,0
287,407,0,0,0,0,0,0,0,0,0,-1,1511,617,0,0
294,407,0,0,0,0,0,0,0,0,0,-1,1518,617,0,0
301,407,0,0,0,0,0,0,0,0,0,-1,1525,617,0,0
308,407,0,0,0,0,0,0,0,0,0,-1,1532,617,0,0
315,407,0,0,0,0,0,0,0,0,0,-1,1539,617,0,0
322,407,0,0,0,0,0,0,0,0,0,-1,1546,617,0,0
329,407,0,0,0,0,0,0,0,0,0,-1,1553,617,0,0
336,407,0,0,0,0,0,0,0,0,0,-1,1560,617,0,0
343,407,0,0,0,0,0,0,0,0,0,-1,1567,617,0,0
350,407,0,0,0,0,0,0,0,0,0,-1,1574,617,0,0
357,407,0,0,0,0,0,0,0,0,0,-1,1581,617,0,0
364,407,0,0,0,0,0,0,0,0,0,-1,1588,617,0,0
371,407,0,0,0,0,0,0,0,0,0,-1,1595,617,0,0
378,407,0,0,0,0,0,0,0,0,0,-1,1602,617,0,0
385,407,0,0,0,0,0,0,0,0,0,-1,1609,617,0,0
392,407,0,0,0,0,0,0,0,0,0,-1,1616,617,0,0
399,407,0,0,0,0,0,0,0,0,0,-1,1623,617,0,0
406,407,0,0,0,0,0,0,0,0,0,-1,1630,617,0,0
413,407,0,0,0,0,0,0,0,0,0,-1,1637,617,0,0
420,407,0,0,0,0,0,0,0,0,0,-1,1644,617,0,0
427,407,0,0,0,0,0,0,0,0,0,-1,1651,617,0,0
434,407,0,0,0,0,0,0,0,0,0,-1,1658,617,0,0
441,407,0,0,0,0,0,0,0,0,0,-1,1665,617,0,0
448,407,7.02893,2.13843,0,0,0,0,0,0,0,-1,1672,617,7.02899,-2.13844
455,407,7.55237,2.29242,0,0,0,0,0,0,0,-1,1679,617,7.55236,-2.29244
462,407,8.2926,2.46173,0,0,0,0,0,0,0,-1,1686,617,8.29261,-2.46174
469,407,8.71509,2.22681,0,0,0,0,0,0,0,-1,1693,617,8.71511,-2.22681
476,407,8.89917,1.47766,0,0,0,0,0,0,0,-1,1700,617,8.89914,-1.47768
483,407,9.02612,0.682983,0,0,0,0,0,0,0,-1,1707,617,9.02608,-0.683004
490,407,9.12659,0.000671387,0,0,0,0,0,0,0,-1,1714,617,9.12653,-0.000675931
497,407,7.76819,0.855835,0,0,0,0,0,0,0,-1,1721,617,7.7682,-0.855865
504,407,4.69336,0.160706,0,0,0,0,0,0,0,-1,1728,617,4.69337,-0.1607
511,407,4.07104,-0.00140381,0,0,0,0,0,0,0,-1,1735,617,4.07109,0.00141425
518,407,6.09534,1.9411,0,0,0,0,0,0,0,-1,1742,617,6.09532,-1.94113
525,407,5.72534,-1.35986,0,0,0,0,0,0,0,-1,1749,617,5.72529,1.35988
532,407,18.5767,-10.6388,0,0,0,0,0,0,0,-1,1756,617,18.5766,10.6388
539,407,19.4207,-11.5412,0,0,0,0,0,0,0,-1,1763,617,19.4207,11.5412
546,407,19.4755,-10.9202,0.00554393,0.00263106,0.00278684,0.00723196,0.000943023,0.544612,0.00453974,0.0192925,1770,617,19.4755,10.9202
553,407,19.4493,-10.3561,0.004602,0.00186091,0.00216812,0.00579644,0.000666477,0.503541,0.0036624,0.0151277,1777,617,19.4493,10.3561
560,407,19.4556,-9.75537,0.00364887,0.00128667,0.00162742,0.00447861,0.000456923,0.471498,0.00284569,0.0158886,1784,617,19.4555,9.75535
567,407,19.455,-9.18536,0.00275013,0.000867246,0.00122594,0.00335441,0.00026297,0.457958,0.00215397,0.0279751,1791,617,19.455,9.18536
574,407,19.4315,-8.61639,0.00202072,0.000663951,0.00100607,0.00255575,0.000128917,0.488767,0.00166253,0.0242208,1798,617,19.4316,8.61641
581,407,19.4036,-8.01733,0.00142337,0.000672287,0.000952314,0.00207152,2.41441e-05,0.597585,0.00137303,0.0169679,1805,617,19.4035,8.01733
588,407,19.3439,-7.44427,0.000950216,0.000905775,0.00104756,0.00197579,-0.000119803,0.774794,0.00135889,0.0124197,1812,617,19.3438,7.44428
595,407,19.3383,-6.89294,0.000746573,0.00135082,0.00136833,0.00244998,-0.000352588,0.894054,0.00176264,0.0240871,1819,617,19.3382,6.89294
602,407,19.3433,-6.27832,0.000822741,0.00207702,0.00193585,0.00348478,-0.000585022,0.942044,0.00254075,0.0197242,1826,617,19.3432,6.27833
609,407,19.2687,-5.66913,0.00122371,0.00308907,0.00278192,0.0050905,-0.000777716,0.947143,0.0036804,0.0161643,1833,617,19.2686,5.66911
616,407,19.3196,-4.94537,0.00201027,0.00450261,0.00391987,0.00736963,-0.000856745,0.939302,0.00522214,0.028883,1840,617,19.3196,4.94535
623,407,19.5596,-4.1261,0,0,0,0,0,0,0,-1,1847,617,19.5596,4.12609
630,407,7.06177,0.814575,0,0,0,0,0,0,0,-1,1854,617,7.06178,-0.814579
637,407,8.90479,0.219421,0,0,0,0,0,0,0,-1,1861,617,8.90474,-0.219401
644,407,5.09766,2.27747,0,0,0,0,0,0,0,-1,1868,617,5.09764,-2.27746
651,407,7.37524,0.0513916,0,0,0,0,0,0,0,-1,1875,617,7.3752,-0.0513923
658,407,3.76685,0.594177,0,0,0,0,0,0,0,-1,1882,617,3.76683,-0.594184
665,407,5.76123,0.375061,0,0,0,0,0,0,0,-1,1889,617,5.76118,-0.37509
672,407,0,0,0,0,0,0,0,0,0,-1,1896,617,0,0
679,407,0,0,0,0,0,0,0,0,0,-1,1903,617,0,0
686,407,0,0,0,0,0,0,0,0,0,-1,1910,617,0,0
693,407,0,0,0,0,0,0,0,0,0,-1,1917,617,0,0
700,407,0,0,0,0,0,0,0,0,0,-1,1924,617,0,0
707,407,0,0,0,0,0,0,0,0,0,-1,1931,617,0,0
714,407,0,0,0,0,0,0,0,0,0,-1,1938,617,0,0
721,407,0,0,0,0,0,0,0,0,0,-1,1945,617,0,0
728,407,0,0,0,0,0,0,0,0,0,-1,1952,617,0,0
735,407,0,0,0,0,0,0,0,0,0,-1,1959,617,0,0
742,407,0,0,0,0,0,0,0,0,0,-1,1966,617,0,0
749,407,0,0,0,0,0,0,0,0,0,-1,1973,617,0,0
756,407,0,0,0,0,0,0,0,0,0,-1,1980,617,0,0
763,407,0,0,0,0,0,0,0,0,0,-1,1987,617,0,0
770,407,0,0,0,0,0,0,0,0,0,-1,1994,617,0,0
777,407,0,0,0,0,0,0,0,0,0,-1,2001,617,0,0
784,407,0,0,0,0,0,0,0,0,0,-1,2008,617,0,0
791,407,0,0,0,0,0,0,0,0,0,-1,2015,617,0,0
798,407,0,0,0,0,0,0,0,0,0,-1,2022,617,0,0
805,407,0,0,0,0,0,0,0,0,0,-1,2029,617,0,0
812,407,0,0,0,0,0,0,0,0,0,-1,2036,617,0,0
-700,400,0,0,0,0,0,0,0,0,0,-1,524,624,0,0
-693,400,0,0,0,0,0,0,0,0,0,-1,531,624,0,0
-686,400,0,0,0,0,0,0,0,0,0,-1,538,624,0,0
-679,400,0,0,0,0,0,0,0,0,0,-1,545,624,0,0
-672,400,0,0,0,0,0,0,0,0,0,-1,552,624,0,0
-665,400,0,0,0,0,0,0,0,0,0,-1,559,624,0,0
-658,400,0,0,0,0,0,0,0,0,0,-1,566,624,0,0
-651,400,0,0,0,0,0,0,0,0,0,-1,573,624,0,0
-644,400,0,0,0,0,0,0,0,0,0,-1,580,624,0,0
-637,400,0,0,0,0,0,0,0,0,0,-1,587,624,0,0
-630,400,0,0,0,0,0,0,0,0,0,-1,594,624,0,0
-623,400,0,0,0,0,0,0,0,0,0,-1,601,624,0,0
-616,400,0,0,0,0,0,0,0,0,0,-1,608,624,0,0
-609,400,0,0,0,0,0,0,0,0,0,-1,615,624,0,0
-602,400,0,0,0,0,0,0,0,0,0,-1,622,624,0,0
-595,400,0,0,0,0,0,0,0,0,0,-1,629,624,0,0
-588,400,0,0,0,0,0,0,0,0,0,-1,636,624,0,0
-581,400,0,0,0,0,0,0,0,0,0,-1,643,624,0,0
-574,400,0,0,0,0,0,0,0,0,0,-1,650,624,0,0
-567,400,0,0,0,0,0,0,0,0,0,-1,657,624,0,0
-560,400,0,0,0,0,0,0,0,0,0,-1,664,624,0,0
-553,400,0,0,0,0,0,0,0,0,0,-1,671,624,0,0
-546,400,-8.41174,-1.4599,0,0,0,0,0,0,0,-1,678,624,-8.41173,1.45989
-539,400,-5.69104,-1.7337,0,0,0,0,0,0,0,-1,685,624,-5.69103,1.7337
-532,400,-3.03632,-2.03912,0,0,0,0,0,0,0,-1,692,624,-3.03632,2.03909
-525,400,-6.20813,-7.04071,0,0,0,0,0,0,0,-1,699,624,-6.20814,7.04071
-518,400,-5.26544,-1.58661,0,0,0,0,0,0,0,-1,706,624,-5.26544,1.58658
-511,400,-9.32965,-6.91058,0,0,0,0,0,0,0,-1,713,624,-9.32963,6.91059
-504,400,-9.49768,-5.39191,0,0,0,0,0,0,0,-1,720,624,-9.49768,5.39192
-497,400,-10.1033,-5.98035,0,0,0,0,0,0,0,-1,727,624,-10.1033,5.98036
-490,400,-9.96942,-6.66492,0.000724376,0.00481356,-0.00200088,0.00562972,-9.17825e-05,-1.1835,0.00378411,0.0310173,734,624,-9.96943,6.66493
-483,400,-10.025,-7.32166,0.000452874,0.00353496,-0.00162123,0.0042307,-0.000242867,-1.16542,0.00290481,0.0166506,741,624,-10.025,7.32166
-476,400,-10.0413,-7.86188,0.000378206,0.00259853,-0.00136982,0.00325157,-0.000274833,-1.12594,0.00226489,0.0135664,748,624,-10.0413,7.86187
-469,400,-10.0485,-8.44415,0.000464961,0.00186916,-0.00119554,0.00255351,-0.000219395,-1.0509,0.00177999,0.01518,755,624,-10.0485,8.44418
-462,400,-10.0919,-9.03741,0.000565215,0.00125478,-0.000997622,0.00196552,-0.000145525,-0.951774,0.00136145,0.0201032,762,624,-10.0919,9.03739
-455,400,-10.1083,-9.60132,0.000660673,0.000641805,-0.000753175,0.00140447,-0.000101995,-0.779136,0.000972099,0.0195878,769,624,-10.1083,9.60131
-448,400,-10.1045,-10.1856,0.00073962,0.000133581,-0.000476618,0.00100139,-0.000128188,-0.502245,0.000714167,0.0142251,776,624,-10.1045,10.1856
-441,400,-10.1287,-10.6862,0.000653213,-0.000506543,-1.72003e-05,0.000653468,-0.000506798,-0.0148266,0.000671662,0.0145761,783,624,-10.1287,10.6862
-434,400,-10.155,-11.2165,0.000531219,-0.00107656,0.000474056,0.000660586,-0.00120593,0.266407,0.00109286,0.0127935,790,624,-10.155,11.2165
-427,400,-10.1579,-11.7744,0.000261988,-0.00183332,0.00111761,0.000746202,-0.00231754,0.408847,0.00184477,0.0110542,797,624,-10.1579,11.7743
-420,400,-10.1192,-12.3574,-0.000243755,-0.00276566,0.00200855,0.000866851,-0.00387626,0.505096,0.00291639,0.0154181,804,624,-10.1192,12.3574
-413,400,-10.2274,-12.7947,-0.000877406,-0.00363741,0.00295279,0.00100195,-0.00551676,0.566802,0.00405331,0.0353452,811,624,-10.2274,12.7947
-406,400,-10.2454,-12.8746,0,0,0,0,0,0,0,-1,818,624,-10.2454,12.8747
-399,400,-10.7405,-13.0305,0,0,0,0,0,0,0,-1,825,624,-10.7405,13.0305
-392,400,-4.92285,-6.63354,0,0,0,0,0,0,0,-1,832,624,-4.92285,6.63354
-385,400,-3.68738,-5.04205,0,0,0,0,0,0,0,-1,839,624,-3.68736,5.04207
-378,400,-6.84064,-1.28662,0,0,0,0,0,0,0,-1,846,624,-6.84062,1.28662
-371,400,-6.98865,-1.2572,0,0,0,0,0,0,0,-1,853,624,-6.98865,1.25721
-364,400,-6.97247,-1.24133,0,0,0,0,0,0,0,-1,860,624,-6.97249,1.24135
-357,400,-7.18329,-1.23218,0,0,0,0,0,0,0,-1,867,624,-7.18327,1.2322
-350,400,-7.40186,-1.19409,0,0,0,0,0,0,0,-1,874,624,-7.40187,1.19407
-343,400,-8.09357,-1.51147,0,0,0,0,0,0,0,-1,881,624,-8.09355,1.51148
-336,400,0,0,0,0,0,0,0,0,0,-1,888,624,0,0
-329,400,0,0,0,0,0,0,0,0,0,-1,895,624,0,0
-322,400,0,0,0,0,0,0,0,0,0,-1,902,624,0,0
-315,400,0,0,0,0,0,0,0,0,0,-1,909,624,0,0
-308,400,0,0,0,0,0,0,0,0,0,-1,916,624,0,0
-301,400,0,0,0,0,0,0,0,0,0,-1,923,624,0,0
-294,400,0,0,0,0,0,0,0,0,0,-1,930,624,0,0
-287,400,0,0,0,0,0,0,0,0,0,-1,937,624,0,0
-280,400,0,0,0,0,0,0,0,0,0,-1,944,624,0,0
-273,400,0,0,0,0,0,0,0,0,0,-1,951,624,0,0
-266,400,0,0,0,0,0,0,0,0,0,-1,958,624,0,0
-259,400,0,0,0,0,0,0,0,0,0,-1,965,624,0,0
-252,400,0,0,0,0,0,0,0,0,0,-1,972,624,0,0
-245,400,0,0,0,0,0,0,0,0,0,-1,979,624,0,0
-238,400,0,0,0,0,0,0,0,0,0,-1,986,624,0,0
-231,400,0,0,0,0,0,0,0,0,0,-1,993,624,0,0
-224,400,0,0,0,0,0,0,0,0,0,-1,1000,624,0,0
-217,400,0,0,0,0,0,0,0,0,0,-1,1007,624,0,0
-210,400,0,0,0,0,0,0,0,0,0,-1,1014,624,0,0
-203,400,0,0,0,0,0,0,0,0,0,-1,1021,624,0,0
-196,400,0,0,0,0,0,0,0,0,0,-1,1028,624,0,0
-189,400,0,0,0,0,0,0,0,0,0,-1,1035,624,0,0
-182,400,0,0,0,0,0,0,0,0,0,-1,1042,624,0,0
-175,400,0,0,0,0,0,0,0,0,0,-1,1049,624,0,0
-168,400,0,0,0,0,0,0,0,0,0,-1,1056,624,0,0
-161,400,0,0,0,0,0,0,0,0,0,-1,1063,624,0,0
-154,400,0,0,0,0,0,0,0,0,0,-1,1070,624,0,0
-147,400,0,0,0,0,0,0,0,0,0,-1,1077,624,0,0
-140,400,0,0,0,0,0,0,0,0,0,-1,1084,624,0,0
-133,400,0,0,0,0,0,0,0,0,0,-1,1091,624,0,0
-126,400,0,0,0,0,0,0,0,0,0,-1,1098,624,0,0
-119,400,0,0,0,0,0,0,0,0,0,-1,1105,624,0,0
-112,400,0,0,0,0,0,0,0,0,0,-1,1112,624,0,0
-105,400,0,0,0,0,0,0,0,0,0,-1,1119,624,0,0
-98,400,0,0,0,0,0,0,0,0,0,-1,1126,624,0,0
-91,400,0,0,0,0,0,0,0,0,0,-1,1133,624,0,0
-84,400,0,0,0,0,0,0,0,0,0,-1,1140,624,0,0
-77,400,0,0,0,0,0,0,0,0,0,-1,1147,624,0,0
-70,400,0,0,0,0,0,0,0,0,0,-1,1154,624,0,0
-63,400,0,0,0,0,0,0,0,0,0,-1,1161,624,0,0
-56,400,0,0,0,0,0,0,0,0,0,-1,1168,624,0,0
-49,400,0,0,0,0,0,0,0,0,0,-1,1175,624,0,0
-42,400,0,0,0,0,0,0,0,0,0,-1,1182,624,0,0
-35,400,0,0,0,0,0,0,0,0,0,-1,1189,624,0,0
-28,400,0,0,0,0,0,0,0,0,0,-1,1196,624,0,0
-21,400,0,0,0,0,0,0,0,0,0,-1,1203,624,0,0
-14,400,0,0,0,0,0,0,0,0,0,-1,1210,624,0,0
-7,400,0,0,0,0,0,0,0,0,0,-1,1217,624,0,0
0,400,0,0,0,0,0,0,0,0,0,-1,1224,624,0,0
7,400,0,0,0,0,0,0,0,0,0,-1,1231,624,0,0
14,400,0,0,0,0,0,0,0,0,0,-1,1238,624,0,0
21,400,0,0,0,0,0,0,0,0,0,-1,1245,624,0,0
28,400,0,0,0,0,0,0,0,0,0,-1,1252,624,0,0
35,400,0,0,0,0,0,0,0,0,0,-1,1259,624,0,0
42,400,0,0,0,0,0,0,0,0,0,-1,1266,624,0,0
49,400,0,0,0,0,0,0,0,0,0,-1,1273,624,0,0
56,400,0,0,0,0,0,0,0,0,0,-1,1280,624,0,0
63,400,0,0,0,0,0,0,0,0,0,-1,1287,624,0,0
70,400,0,0,0,0,0,0,0,0,0,-1,1294,624,0,0
77,400,0,0,0,0,0,0,0,0,0,-1,1301,624,0,0
84,400,0,0,0,0,0,0,0,0,0,-1,1308,624,0,0
91,400,0,0,0,0,0,0,0,0,0,-1,1315,624,0,0
98,400,0,0,0,0,0,0,0,0,0,-1,1322,624,0,0
105,400,0,0,0,0,0,0,0,0,0,-1,1329,624,0,0
112,400,0,0,0,0,0,0,0,0,0,-1,1336,624,0,0
119,400,0,0,0,0,0,0,0,0,0,-1,1343,624,0,0
126,400,0,0,0,0,0,0,0,0,0,-1,1350,624,0,0
133,400,0,0,0,0,0,0,0,0,0,-1,1357,624,0,0
140,400,0,0,0,0,0,0,0,0,0,-1,1364,624,0,0
147,400,0,0,0,0,0,0,0,0,0,-1,1371,624,0,0
154,400,0,0,0,0,0,0,0,0,0,-1,1378,624,0,0
161,400,0,0,0,0,0,0,0,0,0,-1,1385,624,0,0
168,400,0,0,0,0,0,0,0,0,0,-1,1392,624,0,0
175,400,0,0,0,0,0,0,0,0,0,-1,1399,624,0,0
182,400,0,0,0,0,0,0,0,0,0,-1,1406,624,0,0
189,400,0,0,0,0,0,0,0,0,0,-1,1413,624,0,0
196,400,0,0,0,0,0,0,0,0,0,-1,1420,624,0,0
203,400,0,0,0,0,0,0,0,0,0,-1,1427,624,0,0
210,400,0,0,0,0,0,0,0,0,0,-1,1434,624,0,0
217,400,0,0,0,0,0,0,0,0,0,-1,1441,624,0,0
224,400,0,0,0,0,0,0,0,0,0,-1,1448,624,0,0
231,400,0,0,0,0,0,0,0,0,0,-1,1455,624,0,0
238,400,0,0,0,0,0,0,0,0,0,-1,1462,624,0,0
245,400,0,0,0,0,0,0,0,0,0,-1,1469,624,0,0
252,400,0,0,0,0,0,0,0,0,0,-1,1476,624,0,0
259,400,0,0,0,0,0,0,0,0,0,-1,1483,624,0,0
266,400,0,0,0,0,0,0,0,0,0,-1,1490,624,0,0
273,400,0,0,0,0,0,0,0,0,0,-1,1497,624,0,0
280,400,0,0,0,0,0,0,0,0,0,-1,1504,624,0,0
287,400,0,0,0,0,0,0,0,0,0,-1,1511,624,0,0
294,400,0,0,0,0,0,0,0,0,0,-1,1518,624,0,0
301,400,0,0,0,0,0,0,0,0,0,-1,1525,624,0,0
308,400,0,0,0,0,0,0,0,0,0,-1,1532,624,0,0
315,400,0,0,0,0,0,0,0,0,0,-1,1539,624,0,0
322,400,0,0,0,0,0,0,0,0,0,-1,1546,624,0,0
329,400,0,0,0,0,0,0,0,0,0,-1,1553,624,0,0
336,400,0,0,0,0,0,0,0,0,0,-1,1560,624,0,0
343,400,0,0,0,0,0,0,0,0,0,-1,1567,624,0,0
350,400,0,0,0,0,0,0,0,0,0,-1,1574,624,0,0
357,400,0,0,0,0,0,0,0,0,0,-1,1581,624,0,0
364,400,0,0,0,0,0,0,0,0,0,-1,1588,624,0,0
371,400,0,0,0,0,0,0,0,0,0,-1,1595,624,0,0
378,400,0,0,0,0,0,0,0,0,0,-1,1602,624,0,0
385,400,0,0,0,0,0,0,0,0,0,-1,1609,624,0,0
392,400,0,0,0,0,0,0,0,0,0,-1,1616,624,0,0
399,400,0,0,0,0,0,0,0,0,0,-1,1623,624,0,0
406,400,0,0,0,0,0,0,0,0,0,-1,1630,624,0,0
413,400,0,0,0,0,0,0,0,0,0,-1,1637,624,0,0
420,400,0,0,0,0,0,0,0,0,0,-1,1644,624,0,0
427,400,0,0,0,0,0,0,0,0,0,-1,1651,624,0,0
434,400,0,0,0,0,0,0,0,0,0,-1,1658,624,0,0
441,400,0,0,0,0,0,0,0,0,0,-1,1665,624,0,0
448,400,0,0,0,0,0,0,0,0,0,-1,1672,624,0,0
455,400,8.91309,2.75885,0,0,0,0,0,0,0,-1,1679,624,8.91312,-2.75885
462,400,8.90356,2.37878,0,0,0,0,0,0,0,-1,1686,624,8.90353,-2.37878
469,400,9.14429,1.76849,0,0,0,0,0,0,0,-1,1693,624,9.14432,-1.76847
476,400,9.23254,1.25995,0,0,0,0,0,0,0,-1,1700,624,9.23252,-1.25994
483,400,9.59766,0.562439,0,0,0,0,0,0,0,-1,1707,624,9.59771,-0.56242
490,400,9.92578,-0.213745,0,0,0,0,0,0,0,-1,1714,624,9.92579,0.21376
497,400,9.19141,0.175232,0,0,0,0,0,0,0,-1,1721,624,9.19138,-0.175209
504,400,9.23438,0.00823975,0,0,0,0,0,0,0,-1,1728,624,9.23436,-0.00823766
511,400,6.16687,3.3501,0,0,0,0,0,0,0,-1,1735,624,6.16682,-3.35007
518,400,6.55237,1.74994,0,0,0,0,0,0,0,-1,1742,624,6.55236,-1.74993
525,400,6.99731,1.08783,0,0,0,0,0,0,0,-1,1749,624,6.99736,-1.08785
532,400,6.96582,-1.74982,0,0,0,0,0,0,0,-1,1756,624,6.96585,1.74983
539,400,20.4977,-9.83105,0,0,0,0,0,0,0,-1,1763,624,20.4976,9.83106
546,400,19.8998,-10.9978,0,0,0,0,0,0,0,-1,1770,624,19.8998,10.9978
553,400,19.967,-10.3578,0.0057573,0.00180795,0.00239296,0.00688514,0.000680113,0.440437,0.00438102,0.0362804,1777,624,19.967,10.3578
560,400,20.0145,-9.72302,0.00461439,0.00123421,0.00178303,0.00538105,0.000467556,0.406077,0.00344211,0.0157093,1784,624,20.0145,9.72301
567,400,20.0195,-9.17181,0.00353879,0.00079915,0.00130487,0.00406082,0.000277122,0.38056,0.00261973,0.0186417,1791,624,20.0195,9.17179
574,400,20.0067,-8.6275,0.00268716,0.000641525,0.00105943,0.00313694,0.000191744,0.40149,0.0020304,0.0203526,1798,624,20.0067,8.62751
581,400,19.9581,-8.00952,0.00199412,0.000718133,0.000997339,0.00254007,0.000172185,0.500849,0.001639,0.0196552,1805,624,19.9581,8.00949
588,400,19.9167,-7.39313,0.00144847,0.000995719,0.00108364,0.00232913,0.000115068,0.682426,0.00151585,0.015905,1812,624,19.9167,7.39313
595,400,19.9066,-6.8324,0.00120522,0.00143918,0.00138036,0.00270751,-6.311e-05,0.827671,0.00182641,0.0145468,1819,624,19.9066,6.83237
602,400,19.8911,-6.27197,0.00127241,0.00215531,0.00193182,0.00369547,-0.000267754,0.897727,0.00255758,0.013882,1826,624,19.8911,6.27198
609,400,19.8094,-5.65448,0.00161081,0.0030708,0.00269105,0.00512911,-0.000447501,0.917845,0.00357792,0.0140198,1833,624,19.8095,5.65445
616,400,19.7981,-5.04218,0.00230623,0.00430237,0.00370631,0.00714264,-0.000534044,0.916923,0.00494939,0.018075,1840,624,19.7981,5.04216
623,400,19.8402,-4.42987,0,0,0,0,0,0,0,-1,1847,624,19.8402,4.42988
630,400,11.9432,0.09021,0,0,0,0,0,0,0,-1,1854,624,11.9432,-0.0902007
637,400,6.92896,1.01917,0,0,0,0,0,0,0,-1,1861,624,6.92899,-1.01918
644,400,8.65381,1.4599,0,0,0,0,0,0,0,-1,1868,624,8.65379,-1.45991
651,400,7.90601,0.424072,0,0,0,0,0,0,0,-1,1875,624,7.90598,-0.424097
658,400,8.69031,1.0484,0,0,0,0,0,0,0,-1,1882,624,8.6903,-1.0484
665,400,5.98438,0.522522,0,0,0,0,0,0,0,-1,1889,624,5.98442,-0.522552
672,400,0,0,0,0,0,0,0,0,0,-1,1896,624,0,0
679,400,0,0,0,0,0,0,0,0,0,-1,1903,624,0,0
686,400,0,0,0,0,0,0,0,0,0,-1,1910,624,0,0
693,400,0,0,0,0,0,0,0,0,0,-1,1917,624,0,0
700,400,0,0,0,0,0,0,0,0,0,-1,1924,624,0,0
707,400,0,0,0,0,0,0,0,0,0,-1,1931,624,0,0
714,400,0,0,0,0,0,0,0,0,0,-1,1938,624,0,0
721,400,0,0,0,0,0,0,0,0,0,-1,1945,624,0,0
728,400,0,0,0,0,0,0,0,0,0,-1,1952,624,0,0
735,400,0,0,0,0,0,0,0,0,0,-1,1959,624,0,0
742,400,0,0,0,0,0,0,0,0,0,-1,1966,624,0,0
749,400,0,0,0,0,0,0,0,0,0,-1,1973,624,0,0
756,400,0,0,0,0,0,0,0,0,0,-1,1980,624,0,0
763,400,0,0,0,0,0,0,0,0,0,-1,1987,624,0,0
770,400,0,0,0,0,0,0,0,0,0,-1,1994,624,0,0
777,400,0,0,0,0,0,0,0,0,0,-1,2001,624,0,0
784,400,0,0,0,0,0,0,0,0,0,-1,2008,624,0,0
791,400,0,0,0,0,0,0,0,0,0,-1,2015,624,0,0
798,400,0,0,0,0,0,0,0,0,0,-1,2022,624,0,0
805,400,0,0,0,0,0,0,0,0,0,-1,2029,624,0,0
812,400,0,0,0,0,0,0,0,0,0,-1,2036,624,0,0
-700,393,0,0,0,0,0,0,0,0,0,-1,524,631,0,0
-693,393,0,0,0,0,0,0,0,0,0,-1,531,631,0,0
-686,393,0,0,0,0,0,0,0,0,0,-1,538,631,0,0
-679,393,0,0,0,0,0,0,0,0,0,-1,545,631,0,0
-672,393,0,0,0,0,0,0,0,0,0,-1,552,631,0,0
-665,393,0,0,0,0,0,0,0,0,0,-1,559,631,0,0
-658,393,0,0,0,0,0,0,0,0,0,-1,566,631,0,0
-651,393,0,0,0,0,0,0,0,0,0,-1,573,631,0,0
-644,393,0,0,0,0,0,0,0,0,0,-1,580,631,0,0
-637,393,0,0,0,0,0,0,0,0,0,-1,587,631,0,0
-630,393,0,0,0,0,0,0,0,0,0,-1,594,631,0,0
-623,393,0,0,0,0,0,0,0,0,0,-1,601,631,0,0
-616,393,0,0,0,0,0,0,0,0,0,-1,608,631,0,0
-609,393,0,0,0,0,0,0,0,0,0,-1,615,631,0,0
-602,393,0,0,0,0,0,0,0,0,0,-1,622,631,0,0
-595,393,0,0,0,0,0,0,0,0,0,-1,629,631,0,0
-588,393,0,0,0,0,0,0,0,0,0,-1,636,631,0,0
-581,393,0,0,0,0,0,0,0,0,0,-1,643,631,0,0
-574,393,0,0,0,0,0,0,0,0,0,-1,650,631,0,0
-567,393,0,0,0,0,0,0,0,0,0,-1,657,631,0,0
-560,393,0,0,0,0,0,0,0,0,0,-1,664,631,0,0
-553,393,-2.35107,3.92633,0,0,0,0,0,0,0,-1,671,631,-2.35108,-3.92634
-546,393,-1.78778,2.4856,0,0,0,0,0,0,0,-1,678,631,-1.78778,-2.48557
-539,393,-5.2113,-2.20245,0,0,0,0,0,0,0,-1,685,631,-5.21128,2.20247
-532,393,-2.83643,-2.01624,0,0,0,0,0,0,0,-1,692,631,-2.83642,2.01626
-525,393,-5.9505,-0.952698,0,0,0,0,0,0,0,-1,699,631,-5.95053,0.95268
-518,393,-5.80219,-1.57739,0,0,0,0,0,0,0,-1,706,631,-5.80219,1.57738
-511,393,-6.15527,-2.09906,0,0,0,0,0,0,0,-1,713,631,-6.15526,2.09903
-504,393,-10.9536,-5.02521,0,0,0,0,0,0,0,-1,720,631,-10.9536,5.0252
-497,393,-10.5972,-5.88257,0.00146041,0.00514152,-0.00226243,0.00621751,0.000384415,-1.12687,0.00402299,0.0389,727,631,-10.5972,5.88254
-490,393,-10.5489,-6.73846,0.00105015,0.00389857,-0.00177407,0.00474937,0.000199347,-1.12362,0.00310194,0.0194901,734,631,-10.5489,6.73847
-483,393,-10.5778,-7.29468,0.000754489,0.00285822,-0.00142746,0.00357951,3.32001e-05,-1.10292,0.00237535,0.0195744,741,631,-10.5778,7.29467
-476,393,-10.5863,-7.81915,0.000653083,0.00207952,-0.00120831,0.0027694,-3.67953e-05,-1.05201,0.00185866,0.0165076,748,631,-10.5863,7.81913
-469,393,-10.6041,-8.40216,0.000689321,0.0014589,-0.001047,0.00218957,-4.13555e-05,-0.961495,0.00147369,0.0132636,755,631,-10.6041,8.40218
-462,393,-10.6444,-9.01324,0.000743656,0.000941172,-0.000877374,0.00172533,-4.05012e-05,-0.841443,0.00116395,0.0152289,762,631,-10.6444,9.01324
-455,393,-10.6765,-9.58362,0.000823619,0.000392213,-0.000673233,0.00131486,-9.90282e-05,-0.630366,0.000911378,0.0138103,769,631,-10.6765,9.58359
-448,393,-10.702,-10.1664,0.000902226,-3.80414e-05,-0.000444077,0.0010788,-0.000214615,-0.378452,0.000800388,0.0132603,776,631,-10.702,10.1664
-441,393,-10.7186,-10.7001,0.000841685,-0.000550212,-5.45194e-05,0.000843817,-0.000552344,-0.0390893,0.000811908,0.0130734,783,631,-10.7186,10.7001
-434,393,-10.7273,-11.2032,0.000717944,-0.00104899,0.000393912,0.000801783,-0.00113283,0.209708,0.00112238,0.0127893,790,631,-10.7273,11.2032
-427,393,-10.6835,-11.7792,0.000396563,-0.00181565,0.00105915,0.000821882,-0.00224097,0.381857,0.00183051,0.0212809,797,631,-10.6835,11.7793
-420,393,-10.7181,-12.279,-0.0002808,-0.00286377,0.00210705,0.000899067,-0.00404364,0.51046,0.00304009,0.0455744,804,631,-10.7181,12.279
-413,393,-11.0075,-12.8027,0,0,0,0,0,0,0,-1,811,631,-11.0075,12.8027
-406,393,-11.6807,-12.6664,0,0,0,0,0,0,0,-1,818,631,-11.6806,12.6664
-399,393,-5.07343,-5.92365,0,0,0,0,0,0,0,-1,825,631,-5.07344,5.92364
-392,393,-2.08063,-3.02386,0,0,0,0,0,0,0,-1,832,631,-2.08063,3.02384
-385,393,-3.16931,-0.624756,0,0,0,0,0,0,0,-1,839,631,-3.16928,0.624764
-378,393,-7.33081,-0.872314,0,0,0,0,0,0,0,-1,846,631,-7.33081,0.872325
-371,393,-7.47858,-0.811096,0,0,0,0,0,0,0,-1,853,631,-7.47859,0.811075
-364,393,-7.64917,-0.662415,0,0,0,0,0,0,0,-1,860,631,-7.64917,0.662406
-357,393,-8.09686,-0.726013,0,0,0,0,0,0,0,-1,867,631,-8.09689,0.726029
-350,393,-8.38788,-0.511841,0,0,0,0,0,0,0,-1,874,631,-8.38785,0.511811
-343,393,0,0,0,0,0,0,0,0,0,-1,881,631,0,0
-336,393,0,0,0,0,0,0,0,0,0,-1,888,631,0,0
-329,393,0,0,0,0,0,0,0,0,0,-1,895,631,0,0
-322,393,0,0,0,0,0,0,0,0,0,-1,902,631,0,0
-315,393,0,0,0,0,0,0,0,0,0,-1,909,631,0,0
-308,393,0,0,0,0,0,0,0,0,0,-1,916,631,0,0
-301,393,0,0,0,0,0,0,0,0,0,-1,923,631,0,0
-294,393,0,0,0,0,0,0,0,0,0,-1,930,631,0,0
-287,393,0,0,0,0,0,0,0,0,0,-1,937,631,0,0
-280,393,0,0,0,0,0,0,0,0,0,-1,944,631,0,0
-273,393,0,0,0,0,0,0,0,0,0,-1,951,631,0,0
-266,393,0,0,0,0,0,0,0,0,0,-1,958,631,0,0
-259,393,0,0,0,0,0,0,0,0,0,-1,965,631,0,0
-252,393,0,0,0,0,0,0,0,0,0,-1,972,631,0,0
-245,393,0,0,0,0,0,0,0,0,0,-1,979,631,0,0
-238,393,0,0,0,0,0,0,0,0,0,-1,986,631,0,0
-231,393,0,0,0,0,0,0,0,0,0,-1,993,631,0,0
-224,393,0,0,0,0,0,0,0,0,0,-1,1000,631,0,0
-217,393,0,0,0,0,0,0,0,0,0,-1,1007,631,0,0
-210,393,0,0,0,0,0,0,0,0,0,-1,1014,631,0,0
-203,393,0,0,0,0,0,0,0,0,0,-1,1021,631,0,0
-196,393,0,0,0,0,0,0,0,0,0,-1,1028,631,0,0
-189,393,0,0,0,0,0,0,0,0,0,-1,1035,631,0,0
-182,393,0,0,0,0,0,0,0,0,0,-1,1042,631,0,0
-175,393,0,0,0,0,0,0,0,0,0,-1,1049,631,0,0
-168,393,0,0,0,0,0,0,0,0,0,-1,1056,631,0,0
-161,393,0,0,0,0,0,0,0,0,0,-1,1063,631,0,0
-154,393,0,0,0,0,0,0,0,0,0,-1,1070,631,0,0
-147,393,0,0,0,0,0,0,0,0,0,-1,1077,631,0,0
-140,393,0,0,0,0,0,0,0,0,0,-1,1084,631,0,0
-133,393,0,0,0,0,0,0,0,0,0,-1,1091,631,0,0
-126,393,0,0,0,0,0,0,0,0,0,-1,1098,631,0,0
-119,393,0,0,0,0,0,0,0,0,0,-1,1105,631,0,0
-112,393,0,0,0,0,0,0,0,0,0,-1,1112,631,0,0
-105,393,0,0,0,0,0,0,0,0,0,-1,1119,631,0,0
-98,393,0,0,0,0,0,0,0,0,0,-1,1126,631,0,0
-91,393,0,0,0,0,0,0,0,0,0,-1,1133,631,0,0
-84,393,0,0,0,0,0,0,0,0,0,-1,1140,631,0,0
-77,393,0,0,0,0,0,0,0,0,0,-1,1147,631,0,0
-70,393,0,0,0,0,0,0,0,0,0,-1,1154,631,0,0
-63,393,0,0,0,0,0,0,0,0,0,-1,1161,631,0,0
-56,393,0,0,0,0,0,0,0,0,0,-1,1168,631,0,0
-49,393,0,0,0,0,0,0,0,0,0,-1,1175,631,0,0
-42,393,0,0,0,0,0,0,0,0,0,-1,1182,631,0,0
-35,393,0,0,0,0,0,0,0,0,0,-1,1189,631,0,0
-28,393,0,0,0,0,0,0,0,0,0,-1,1196,631,0,0
-21,393,0,0,0,0,0,0,0,0,0,-1,1203,631,0,0
-14,393,0,0,0,0,0,0,0,0,0,-1,1210,631,0,0
-7,393,0,0,0,0,0,0,0,0,0,-1,1217,631,0,0
0,393,0,0,0,0,0,0,0,0,0,-1,1224,631,0,0
7,393,0,0,0,0,0,0,0,0,0,-1,1231,631,0,0
14,393,0,0,0,0,0,0,0,0,0,-1,1238,631,0,0
21,393,0,0,0,0,0,0,0,0,0,-1,1245,631,0,0
28,393,0,0,0,0,0,0,0,0,0,-1,1252,631,0,0
35,393,0,0,0,0,0,0,0,0,0,-1,1259,631,0,0
42,393,0,0,0,0,0,0,0,0,0,-1,1266,631,0,0
49,393,0,0,0,0,0,0,0,0,0,-1,1273,631,0,0
56,393,0,0,0,0,0,0,0,0,0,-1,1280,631,0,0
63,393,0,0,0,0,0,0,0,0,0,-1,1287,631,0,0
70,393,0,0,0,0,0,0,0,0,0,-1,1294,631,0,0
77,393,0,0,0,0,0,0,0,0,0,-1,1301,631,0,0
84,393,0,0,0,0,0,0,0,0,0,-1,1308,631,0,0
91,393,0,0,0,0,0,0,0,0,0,-1,1315,631,0,0
98,393,0,0,0,0,0,0,0,0,0,-1,1322,631,0,0
105,393,0,0,0,0,0,0,0,0,0,-1,1329,631,0,0
112,393,0,0,0,0,0,0,0,0,0,-1,1336,631,0,0
119,393,0,0,0,0,0,0,0,0,0,-1,1343,631,0,0
126,393,0,0,0,0,0,0,0,0,0,-1,1350,631,0,0
133,393,0,0,0,0,0,0,0,0,0,-1,1357,631,0,0
140,393,0,0,0,0,0,0,0,0,0,-1,1364,631,0,0
147,393,0,0,0,0,0,0,0,0,0,-1,1371,631,0,0
154,393,0,0,0,0,0,0,0,0,0,-1,1378,631,0,0
161,393,0,0,0,0,0,0,0,0,0,-1,1385,631,0,0
168,393,0,0,0,0,0,0,0,0,0,-1,1392,631,0,0
175,393,0,0,0,0,0,0,0,0,0,-1,1399,631,0,0
182,393,0,0,0,0,0,0,0,0,0,-1,1406,631,0,0
189,393,0,0,0,0,0,0,0,0,0,-1,1413,631,0,0
196,393,0,0,0,0,0,0,0,0,0,-1,1420,631,0,0
203,393,0,0,0,0,0,0,0,0,0,-1,1427,631,0,0
210,393,0,0,0,0,0,0,0,0,0,-1,1434,631,0,0
217,393,0,0,0,0,0,0,0,0,0,-1,1441,631,0,0
224,393,0,0,0,0,0,0,0,0,0,-1,1448,631,0,0
231,393,0,0,0,0,0,0,0,0,0,-1,1455,631,0,0
238,393,0,0,0,0,0,0,0,0,0,-1,1462,631,0,0
245,393,0,0,0,0,0,0,0,0,0,-1,1469,631,0,0
252,393,0,0,0,0,0,0,0,0,0,-1,1476,631,0,0
259,393,0,0,0,0,0,0,0,0,0,-1,1483,631,0,0
266,393,0,0,0,0,0,0,0,0,0,-1,1490,631,0,0
273,393,0,0,0,0,0,0,0,0,0,-1,1497,631,0,0
280,393,0,0,0,0,0,0,0,0,0,-1,1504,631,0,0
287,393,0,0,0,0,0,0,0,0,0,-1,1511,631,0,0
294,393,0,0,0,0,0,0,0,0,0,-1,1518,631,0,0
301,393,0,0,0,0,0,0,0,0,0,-1,1525,631,0,0
308,393,0,0,0,0,0,0,0,0,0,-1,1532,631,0,0
315,393,0,0,0,0,0,0,0,0,0,-1,1539,631,0,0
322,393,0,0,0,0,0,0,0,0,0,-1,1546,631,0,0
329,393,0,0,0,0,0,0,0,0,0,-1,1553,631,0,0
336,393,0,0,0,0,0,0,0,0,0,-1,1560,631,0,0
343,393,0,0,0,0,0,0,0,0,0,-1,1567,631,0,0
350,393,0,0,0,0,0,0,0,0,0,-1,1574,631,0,0
357,393,0,0,0,0,0,0,0,0,0,-1,1581,631,0,0
364,393,0,0,0,0,0,0,0,0,0,-1,1588,631,0,0
371,393,0,0,0,0,0,0,0,0,0,-1,1595,631,0,0
378,393,0,0,0,0,0,0,0,0,0,-1,1602,631,0,0
385,393,0,0,0,0,0,0,0,0,0,-1,1609,631,0,0
392,393,0,0,0,0,0,0,0,0,0,-1,1616,631,0,0
399,393,0,0,0,0,0,0,0,0,0,-1,1623,631,0,0
406,393,0,0,0,0,0,0,0,0,0,-1,1630,631,0,0
413,393,0,0,0,0,0,0,0,0,0,-1,1637,631,0,0
420,393,0,0,0,0,0,0,0,0,0,-1,1644,631,0,0
427,393,0,0,0,0,0,0,0,0,0,-1,1651,631,0,0
434,393,0,0,0,0,0,0,0,0,0,-1,1658,631,0,0
441,393,0,0,0,0,0,0,0,0,0,-1,1665,631,0,0
448,393,0,0,0,0,0,0,0,0,0,-1,1672,631,0,0
455,393,0,0,0,0,0,0,0,0,0,-1,1679,631,0,0
462,393,8.51099,1.89502,0,0,0,0,0,0,0,-1,1686,631,8.51103,-1.89504
469,393,9.39465,1.51703,0,0,0,0,0,0,0,-1,1693,631,9.39465,-1.51703
476,393,9.95569,1.185,0,0,0,0,0,0,0,-1,1700,631,9.95575,-1.18497
483,393,10.5267,0.887329,0,0,0,0,0,0,0,-1,1707,631,10.5267,-0.887321
490,393,10.9303,0.761414,0,0,0,0,0,0,0,-1,1714,631,10.9303,-0.761386
497,393,8.32153,1.88104,0,0,0,0,0,0,0,-1,1721,631,8.32148,-1.88103
504,393,9.46985,1.78711,0,0,0,0,0,0,0,-1,1728,631,9.46986,-1.78713
511,393,9.66565,-0.375977,0,0,0,0,0,0,0,-1,1735,631,9.66571,0.375949
518,393,7.01599,1.62482,0,0,0,0,0,0,0,-1,1742,631,7.01597,-1.62483
525,393,7.88245,-1.13422,0,0,0,0,0,0,0,-1,1749,631,7.88246,1.13423
532,393,7.06335,-1.18103,0,0,0,0,0,0,0,-1,1756,631,7.06332,1.18101
539,393,9.91626,-2.46301,0,0,0,0,0,0,0,-1,1763,631,9.91625,2.46302
546,393,16.4094,-8.04651,0,0,0,0,0,0,0,-1,1770,631,16.4094,8.04649
553,393,20.4271,-10.3892,0,0,0,0,0,0,0,-1,1777,631,20.4272,10.3892
560,393,20.5913,-9.76447,0.0057987,0.00102944,0.00198305,0.00651551,0.000312626,0.346857,0.00424331,0.0357588,1784,631,20.5914,9.76444
567,393,20.5642,-9.15118,0.00445228,0.000565163,0.00134934,0.00487476,0.000142681,0.303433,0.00320334,0.015838,1791,631,20.5643,9.15119
574,393,20.5431,-8.59711,0.00340139,0.000431894,0.00101978,0.00371787,0.000115412,0.300919,0.00244102,0.016536,1798,631,20.543,8.59708
581,393,20.495,-7.97888,0.00254515,0.000556222,0.000901813,0.00289315,0.000208216,0.368289,0.00186325,0.0162196,1805,631,20.495,7.97891
588,393,20.4832,-7.35779,0.00188598,0.000855226,0.000947229,0.00244896,0.000292246,0.53625,0.00154447,0.0174618,1812,631,20.4831,7.35779
595,393,20.5018,-6.8302,0.00156196,0.00129478,0.00119742,0.00263321,0.000223523,0.729844,0.00168592,0.0147802,1819,631,20.5018,6.83022
602,393,20.4875,-6.22369,0.00157202,0.0019957,0.001708,0.00350495,6.27701e-05,0.847097,0.00231599,0.0166688,1826,631,20.4875,6.2237
609,393,20.4385,-5.61401,0.00180269,0.00284912,0.00237683,0.00475964,-0.000107832,0.893736,0.00320964,0.0170648,1833,631,20.4384,5.61403
616,393,20.3969,-5.04504,0.00230844,0.00394734,0.00322798,0.00645826,-0.000202476,0.909702,0.00437456,0.016878,1840,631,20.3969,5.04507
623,393,20.4286,-4.34369,0.0034791,0.00509158,0.00443631,0.00879432,-0.000223638,0.875285,0.00593883,0.0313609,1847,631,20.4286,4.34367
630,393,20.7008,-3.64832,0,0,0,0,0,0,0,-1,1854,631,20.7008,3.64834
637,393,11.4626,0.608887,0,0,0,0,0,0,0,-1,1861,631,11.4627,-0.608904
644,393,8.97583,1.30585,0,0,0,0,0,0,0,-1,1868,631,8.97586,-1.30584
651,393,11.348,0.53302,0,0,0,0,0,0,0,-1,1875,631,11.348,-0.53305
658,393,9.21338,1.50836,0,0,0,0,0,0,0,-1,1882,631,9.21338,-1.50834
665,393,6.1001,2.32129,0,0,0,0,0,0,0,-1,1889,631,6.10012,-2.3213
672,393,7.14575,2.43225,0,0,0,0,0,0,0,-1,1896,631,7.14572,-2.43222
679,393,0,0,0,0,0,0,0,0,0,-1,1903,631,0,0
686,393,0,0,0,0,0,0,0,0,0,-1,1910,631,0,0
693,393,0,0,0,0,0,0,0,0,0,-1,1917,631,0,0
700,393,0,0,0,0,0,0,0,0,0,-1,1924,631,0,0
707,393,0,0,0,0,0,0,0,0,0,-1,1931,631,0,0
714,393,0,0,0,0,0,0,0,0,0,-1,1938,631,0,0
721,393,0,0,0,0,0,0,0,0,0,-1,1945,631,0,0
728,393,0,0,0,0,0,0,0,0,0,-1,1952,631,0,0
735,393,0,0,0,0,0,0,0,0,0,-1,1959,631,0,0
742,393,0,0,0,0,0,0,0,0,0,-1,1966,631,0,0
749,393,0,0,0,0,0,0,0,0,0,-1,1973,631,0,0
756,393,0,0,0,0,0,0,0,0,0,-1,1980,631,0,0
763,393,0,0,0,0,0,0,0,0,0,-1,1987,631,0,0
770,393,0,0,0,0,0,0,0,0,0,-1,1994,631,0,0
777,393,0,0,0,0,0,0,0,0,0,-1,2001,631,0,0
784,393,0,0,0,0,0,0,0,0,0,-1,2008,631,0,0
791,393,0,0,0,0,0,0,0,0,0,-1,2015,631,0,0
798,393,0,0,0,0,0,0,0,0,0,-1,2022,631,0,0
805,393,0,0,0,0,0,0,0,0,0,-1,2029,631,0,0
812,393,0,0,0,0,0,0,0,0,0,-1,2036,631,0,0
-700,386,0,0,0,0,0,0,0,0,0,-1,524,638,0,0
-693,386,0,0,0,0,0,0,0,0,0,-1,531,638,0,0
-686,386,0,0,0,0,0,0,0,0,0,-1,538,638,0,0
-679,386,0,0,0,0,0,0,0,0,0,-1,545,638,0,0
-672,386,0,0,0,0,0,0,0,0,0,-1,552,638,0,0
-665,386,0,0,0,0,0,0,0,0,0,-1,559,638,0,0
-658,386,0,0,0,0,0,0,0,0,0,-1,566,638,0,0
-651,386,0,0,0,0,0,0,0,0,0,-1,573,638,0,0
-644,386,0,0,0,0,0,0,0,0,0,-1,580,638,0,0
-637,386,0,0,0,0,0,0,0,0,0,-1,587,638,0,0
-630,386,0,0,0,0,0,0,0,0,0,-1,594,638,0,0
-623,386,0,0,0,0,0,0,0,0,0,-1,601,638,0,0
-616,386,0,0,0,0,0,0,0,0,0,-1,608,638,0,0
-609,386,0,0,0,0,0,0,0,0,0,-1,615,638,0,0
-602,386,0,0,0,0,0,0,0,0,0,-1,622,638,0,0
-595,386,0,0,0,0,0,0,0,0,0,-1,629,638,0,0
-588,386,0,0,0,0,0,0,0,0,0,-1,636,638,0,0
-581,386,0,0,0,0,0,0,0,0,0,-1,643,638,0,0
-574,386,0,0,0,0,0,0,0,0,0,-1,650,638,0,0
-567,386,0,0,0,0,0,0,0,0,0,-1,657,638,0,0
-560,386,-3.97229,-5.13898,0,0,0,0,0,0,0,-1,664,638,-3.97232,5.13897
-553,386,-4.94244,-5.54309,0,0,0,0,0,0,0,-1,671,638,-4.94242,5.5431
-546,386,-1.78668,1.72827,0,0,0,0,0,0,0,-1,678,638,-1.78668,-1.72829
-539,386,-0.879456,-2.90009,0,0,0,0,0,0,0,-1,685,638,-0.879442,2.90008
-532,386,-5.4884,1.73328,0,0,0,0,0,0,0,-1,692,638,-5.4884,-1.73325
-525,386,-6.64148,-1.50604,0,0,0,0,0,0,0,-1,699,638,-6.64149,1.50603
-518,386,-7.68927,-2.40173,0,0,0,0,0,0,0,-1,706,638,-7.68929,2.4017
-511,386,-10.7792,-3.83508,0,0,0,0,0,0,0,-1,713,638,-10.7793,3.83507
-504,386,-11.192,-5.47949,0,0,0,0,0,0,0,-1,720,638,-11.192,5.47951
-497,386,-11.1686,-6.13745,0.00156819,0.00448417,-0.0022104,0.00567413,0.000378235,-1.07695,0.00366319,0.0196332,727,638,-11.1686,6.13745
-490,386,-11.1138,-6.77728,0.00111864,0.00310747,-0.00153464,0.00394171,0.000284397,-1.07288,0.00253833,0.0132681,734,638,-11.1138,6.77726
-483,386,-11.1124,-7.34052,0.000886477,0.00230929,-0.00126411,0.00304842,0.000147339,-1.0417,0.00198499,0.0172406,741,638,-11.1124,7.34053
-476,386,-11.1245,-7.87054,0.000833506,0.00170284,-0.0011137,0.00246369,7.26532e-05,-0.971452,0.00161879,0.0165483,748,638,-11.1245,7.87055
-469,386,-11.1661,-8.41504,0.000875659,0.00120164,-0.000990344,0.00204232,3.49851e-05,-0.866958,0.00135004,0.0118388,755,638,-11.1661,8.41501
-462,386,-11.1898,-8.99475,0.000931319,0.000788538,-0.000866141,0.00172901,-9.14966e-06,-0.744279,0.00115573,0.0109091,762,638,-11.1898,8.99473
-455,386,-11.2227,-9.55939,0.00104013,0.000307958,-0.000712172,0.0014748,-0.000126712,-0.547991,0.00102804,0.0130782,769,638,-11.2227,9.55937
-448,386,-11.2356,-10.1229,0.0011672,-6.07146e-05,-0.000535399,0.00136786,-0.000261371,-0.358577,0.00101036,0.0132343,776,638,-11.2356,10.1229
-441,386,-11.275,-10.6517,0.00121207,-0.000428532,-0.000244228,0.00124765,-0.000464117,-0.144687,0.00102222,0.0141397,783,638,-11.275,10.6517
-434,386,-11.2655,-11.2611,0.00116501,-0.000874496,0.000148628,0.00117579,-0.000885271,0.0723647,0.00119389,0.0364095,790,638,-11.2655,11.2611
-427,386,-11.173,-11.9832,0,0,0,0,0,0,0,-1,797,638,-11.173,11.9832
-420,386,-11.2957,-12.278,0,0,0,0,0,0,0,-1,804,638,-11.2957,12.278
-413,386,-5.45691,-5.35785,0,0,0,0,0,0,0,-1,811,638,-5.45691,5.35783
-406,386,-4.51135,-4.10999,0,0,0,0,0,0,0,-1,818,638,-4.51135,4.10996
-399,386,-3.57117,-3.42126,0,0,0,0,0,0,0,-1,825,638,-3.57116,3.42129
-392,386,-4.00977,0.403625,0,0,0,0,0,0,0,-1,832,638,-4.0098,-0.403616
-385,386,-3.2406,-0.118469,0,0,0,0,0,0,0,-1,839,638,-3.24058,0.118485
-378,386,-2.55243,-1.22748,0,0,0,0,0,0,0,-1,846,638,-2.55243,1.22748
-371,386,-7.95807,-0.330261,0,0,0,0,0,0,0,-1,853,638,-7.95806,0.330284
-364,386,-8.90637,-0.665955,0,0,0,0,0,0,0,-1,860,638,-8.90635,0.665951
-357,386,-9.10364,-0.388733,0,0,0,0,0,0,0,-1,867,638,-9.10364,0.388744
-350,386,0,0,0,0,0,0,0,0,0,-1,874,638,0,0
-343,386,0,0,0,0,0,0,0,0,0,-1,881,638,0,0
-336,386,0,0,0,0,0,0,0,0,0,-1,888,638,0,0
-329,386,0,0,0,0,0,0,0,0,0,-1,895,638,0,0
-322,386,0,0,0,0,0,0,0,0,0,-1,902,638,0,0
-315,386,0,0,0,0,0,0,0,0,0,-1,909,638,0,0
-308,386,0,0,0,0,0,0,0,0,0,-1,916,638,0,0
-301,386,0,0,0,0,0,0,0,0,0,-1,923,638,0,0
-294,386,0,0,0,0,0,0,0,0,0,-1,930,638,0,0
-287,386,0,0,0,0,0,0,0,0,0,-1,937,638,0,0
-280,386,0,0,0,0,0,0,0,0,0,-1,944,638,0,0
-273,386,0,0,0,0,0,0,0,0,0,-1,951,638,0,0
-266,386,0,0,0,0,0,0,0,0,0,-1,958,638,0,0
-259,386,0,0,0,0,0,0,0,0,0,-1,965,638,0,0
-252,386,0,0,0,0,0,0,0,0,0,-1,972,638,0,0
-245,386,0,0,0,0,0,0,0,0,0,-1,979,638,0,0
-238,386,0,0,0,0,0,0,0,0,0,-1,986,638,0,0
-231,386,0,0,0,0,0,0,0,0,0,-1,993,638,0,0
-224,386,0,0,0,0,0,0,0,0,0,-1,1000,638,0,0
-217,386,0,0,0,0,0,0,0,0,0,-1,1007,638,0,0
-210,386,0,0,0,0,0,0,0,0,0,-1,1014,638,0,0
-203,386,0,0,0,0,0,0,0,0,0,-1,1021,638,0,0
-196,386,0,0,0,0,0,0,0,0,0,-1,1028,638,0,0
-189,386,0,0,0,0,0,0,0,0,0,-1,1035,638,0,0
-182,386,0,0,0,0,0,0,0,0,0,-1,1042,638,0,0
-175,386,0,0,0,0,0,0,0,0,0,-1,1049,638,0,0
-168,386,0,0,0,0,0,0,0,0,0,-1,1056,638,0,0
-161,386,0,0,0,0,0,0,0,0,0,-1,1063,638,0,0
-154,386,0,0,0,0,0,0,0,0,0,-1,1070,638,0,0
-147,386,0,0,0,0,0,0,0,0,0,-1,1077,638,0,0
-140,386,0,0,0,0,0,0,0,0,0,-1,1084,638,0,0
-133,386,0,0,0,0,0,0,0,0,0,-1,1091,638,0,0
-126,386,0,0,0,0,0,0,0,0,0,-1,1098,638,0,0
-119,386,0,0,0,0,0,0,0,0,0,-1,1105,638,0,0
-112,386,0,0,0,0,0,0,0,0,0,-1,1112,638,0,0
-105,386,0,0,0,0,0,0,0,0,0,-1,1119,638,0,0
-98,386,0,0,0,0,0,0,0,0,0,-1,1126,638,0,0
-91,386,0,0,0,0,0,0,0,0,0,-1,1133,638,0,0
-84,386,0,0,0,0,0,0,0,0,0,-1,1140,638,0,0
-77,386,0,0,0,0,0,0,0,0,0,-1,1147,638,0,0
-70,386,0,0,0,0,0,0,0,0,0,-1,1154,638,0,0
-63,386,0,0,0,0,0,0,0,0,0,-1,1161,638,0,0
-56,386,0,0,0,0,0,0,0,0,0,-1,1168,638,0,0
-49,386,0,0,0,0,0,0,0,0,0,-1,1175,638,0,0
-42,386,0,0,0,0,0,0,0,0,0,-1,1182,638,0,0
-35,386,0,0,0,0,0,0,0,0,0,-1,1189,638,0,0
-28,386,0,0,0,0,0,0,0,0,0,-1,1196,638,0,0
-21,386,0,0,0,0,0,0,0,0,0,-1,1203,638,0,0
-14,386,0,0,0,0,0,0,0,0,0,-1,1210,638,0,0
-7,386,0,0,0,0,0,0,0,0,0,-1,1217,638,0,0
0,386,0,0,0,0,0,0,0,0,0,-1,1224,638,0,0
7,386,0,0,0,0,0,0,0,0,0,-1,1231,638,0,0
14,386,0,0,0,0,0,0,0,0,0,-1,1238,638,0,0
21,386,0,0,0,0,0,0,0,0,0,-1,1245,638,0,0
28,386,0,0,0,0,0,0,0,0,0,-1,1252,638,0,0
35,386,0,0,0,0,0,0,0,0,0,-1,1259,638,0,0
42,386,0,0,0,0,0,0,0,0,0,-1,1266,638,0,0
49,386,0,0,0,0,0,0,0,0,0,-1,1273,638,0,0
56,386,0,0,0,0,0,0,0,0,0,-1,1280,638,0,0
63,386,0,0,0,0,0,0,0,0,0,-1,1287,638,0,0
70,386,0,0,0,0,0,0,0,0,0,-1,1294,638,0,0
77,386,0,0,0,0,0,0,0,0,0,-1,1301,638,0,0
84,386,0,0,0,0,0,0,0,0,0,-1,1308,638,0,0
91,386,0,0,0,0,0,0,0,0,0,-1,1315,638,0,0
98,386,0,0,0,0,0,0,0,0,0,-1,1322,638,0,0
105,386,0,0,0,0,0,0,0,0,0,-1,1329,638,0,0
112,386,0,0,0,0,0,0,0,0,0,-1,1336,638,0,0
119,386,0,0,0,0,0,0,0,0,0,-1,1343,638,0,0
126,386,0,0,0,0,0,0,0,0,0,-1,1350,638,0,0
133,386,0,0,0,0,0,0,0,0,0,-1,1357,638,0,0
140,386,0,0,0,0,0,0,0,0,0,-1,1364,638,0,0
147,386,0,0,0,0,0,0,0,0,0,-1,1371,638,0,0
154,386,0,0,0,0,0,0,0,0,0,-1,1378,638,0,0
161,386,0,0,0,0,0,0,0,0,0,-1,1385,638,0,0
168,386,0,0,0,0,0,0,0,0,0,-1,1392,638,0,0
175,386,0,0,0,0,0,0,0,0,0,-1,1399,638,0,0
182,386,0,0,0,0,0,0,0,0,0,-1,1406,638,0,0
189,386,0,0,0,0,0,0,0,0,0,-1,1413,638,0,0
196,386,0,0,0,0,0,0,0,0,0,-1,1420,638,0,0
203,386,0,0,0,0,0,0,0,0,0,-1,1427,638,0,0
210,386,0,0,0,0,0,0,0,0,0,-1,1434,638,0,0
217,386,0,0,0,0,0,0,0,0,0,-1,1441,638,0,0
224,386,0,0,0,0,0,0,0,0,0,-1,1448,638,0,0
231,386,0,0,0,0,0,0,0,0,0,-1,1455,638,0,0
238,386,0,0,0,0,0,0,0,0,0,-1,1462,638,0,0
245,386,0,0,0,0,0,0,0,0,0,-1,1469,638,0,0
252,386,0,0,0,0,0,0,0,0,0,-1,1476,638,0,0
259,386,0,0,0,0,0,0,0,0,0,-1,1483,638,0,0
266,386,0,0,0,0,0,0,0,0,0,-1,1490,638,0,0
273,386,0,0,0,0,0,0,0,0,0,-1,1497,638,0,0
280,386,0,0,0,0,0,0,0,0,0,-1,1504,638,0,0
287,386,0,0,0,0,0,0,0,0,0,-1,1511,638,0,0
294,386,0,0,0,0,0,0,0,0,0,-1,1518,638,0,0
301,386,0,0,0,0,0,0,0,0,0,-1,1525,638,0,0
308,386,0,0,0,0,0,0,0,0,0,-1,1532,638,0,0
315,386,0,0,0,0,0,0,0,0,0,-1,1539,638,0,0
322,386,0,0,0,0,0,0,0,0,0,-1,1546,638,0,0
329,386,0,0,0,0,0,0,0,0,0,-1,1553,638,0,0
336,386,0,0,0,0,0,0,0,0,0,-1,1560,638,0,0
343,386,0,0,0,0,0,0,0,0,0,-1,1567,638,0,0
350,386,0,0,0,0,0,0,0,0,0,-1,1574,638,0,0
357,386,0,0,0,0,0,0,0,0,0,-1,1581,638,0,0
364,386,0,0,0,0,0,0,0,0,0,-1,1588,638,0,0
371,386,0,0,0,0,0,0,0,0,0,-1,1595,638,0,0
378,386,0,0,0,0,0,0,0,0,0,-1,1602,638,0,0
385,386,0,0,0,0,0,0,0,0,0,-1,1609,638,0,0
392,386,0,0,0,0,0,0,0,0,0,-1,1616,638,0,0
399,386,0,0,0,0,0,0,0,0,0,-1,1623,638,0,0
406,386,0,0,0,0,0,0,0,0,0,-1,1630,638,0,0
413,386,0,0,0,0,0,0,0,0,0,-1,1637,638,0,0
420,386,0,0,0,0,0,0,0,0,0,-1,1644,638,0,0
427,386,0,0,0,0,0,0,0,0,0,-1,1651,638,0,0
434,386,0,0,0,0,0,0,0,0,0,-1,1658,638,0,0
441,386,0,0,0,0,0,0,0,0,0,-1,1665,638,0,0
448,386,0,0,0,0,0,0,0,0,0,-1,1672,638,0,0
455,386,0,0,0,0,0,0,0,0,0,-1,1679,638,0,0
462,386,0,0,0,0,0,0,0,0,0,-1,1686,638,0,0
469,386,9.84692,1.55804,0,0,0,0,0,0,0,-1,1693,638,9.84691,-1.55807
476,386,10.6145,0.986511,0,0,0,0,0,0,0,-1,1700,638,10.6145,-0.986529
483,386,11.4113,0.732971,0,0,0,0,0,0,0,-1,1707,638,11.4112,-0.732958
490,386,7.79785,1.79572,0,0,0,0,0,0,0,-1,1714,638,7.79788,-1.7957
497,386,8.96362,1.77081,0,0,0,0,0,0,0,-1,1721,638,8.96357,-1.77081
504,386,10.0555,1.69427,0,0,0,0,0,0,0,-1,1728,638,10.0555,-1.69426
511,386,11.2172,1.534,0,0,0,0,0,0,0,-1,1735,638,11.2172,-1.53398
518,386,7.41553,1.75238,0,0,0,0,0,0,0,-1,1742,638,7.41547,-1.75238
525,386,8.82422,-1.1449,0,0,0,0,0,0,0,-1,1749,638,8.82426,1.14492
532,386,10.6432,0.617371,0,0,0,0,0,0,0,-1,1756,638,10.6432,-0.617359
539,386,9.62061,-0.393616,0,0,0,0,0,0,0,-1,1763,638,9.62059,0.393634
546,386,10.7963,-2.854,0,0,0,0,0,0,0,-1,1770,638,10.7962,2.854
553,386,16.9939,-7.27942,0,0,0,0,0,0,0,-1,1777,638,16.9939,7.27944
560,386,21.0712,-9.9939,0,0,0,0,0,0,0,-1,1784,638,21.0711,9.9939
567,386,21.0709,-9.12592,0.00549847,0.000336603,0.00143209,0.00586916,-3.40876e-05,0.253288,0.00392419,0.0292821,1791,638,21.0709,9.1259
574,386,21.1252,-8.52563,0.00415312,0.000191481,0.000992796,0.00438799,-4.3391e-05,0.232305,0.0029399,0.0148123,1798,638,21.1252,8.52562
581,386,21.0692,-7.95746,0.00306911,0.000325416,0.000792588,0.00328161,0.000112914,0.261951,0.00215109,0.0147598,1805,638,21.0692,7.95746
588,386,21.087,-7.3822,0.00226315,0.000601185,0.00077825,0.00257068,0.000293658,0.37632,0.00162477,0.0129255,1812,638,21.087,7.3822
595,386,21.0925,-6.82153,0.00182743,0.00101262,0.000964602,0.00246713,0.000372918,0.585586,0.00153562,0.0141962,1819,638,21.0925,6.82156
602,386,21.0581,-6.22504,0.00175108,0.00166725,0.00140899,0.00311878,0.000299551,0.770528,0.00198688,0.0168172,1826,638,21.0581,6.22506
609,386,21.0385,-5.63715,0.00188402,0.00244256,0.00197948,0.00416237,0.000164206,0.855477,0.00272183,0.0168096,1833,638,21.0384,5.63713
616,386,21.0121,-5.05353,0.0022624,0.00340084,0.00268225,0.0055736,8.96417e-05,0.889956,0.00368622,0.0136182,1840,638,21.0121,5.05353
623,386,20.9707,-4.43164,0.00311451,0.00437167,0.00360923,0.00740664,7.95319e-05,0.871613,0.00491147,0.0120584,1847,638,20.9707,4.43165
630,386,21.0815,-3.7951,0.00418219,0.00545805,0.0045397,0.00940442,0.000235823,0.855202,0.00619251,0.0374693,1854,638,21.0815,3.7951
637,386,21.1958,-3.15594,0,0,0,0,0,0,0,-1,1861,638,21.1957,3.15592
644,386,11.6521,0.723328,0,0,0,0,0,0,0,-1,1868,638,11.6521,-0.723355
651,386,9.3866,1.31097,0,0,0,0,0,0,0,-1,1875,638,9.3866,-1.31095
658,386,12.0731,-0.00415039,0,0,0,0,0,0,0,-1,1882,638,12.0731,0.00412803
665,386,6.33167,1.78601,0,0,0,0,0,0,0,-1,1889,638,6.33171,-1.78601
672,386,7.23352,2.14435,0,0,0,0,0,0,0,-1,1896,638,7.23353,-2.14433
679,386,8.07764,2.57104,0,0,0,0,0,0,0,-1,1903,638,8.07758,-2.57103
686,386,0,0,0,0,0,0,0,0,0,-1,1910,638,0,0
693,386,0,0,0,0,0,0,0,0,0,-1,1917,638,0,0
700,386,0,0,0,0,0,0,0,0,0,-1,1924,638,0,0
707,386,0,0,0,0,0,0,0,0,0,-1,1931,638,0,0
714,386,0,0,0,0,0,0,0,0,0,-1,1938,638,0,0
721,386,0,0,0,0,0,0,0,0,0,-1,1945,638,0,0
728,386,0,0,0,0,0,0,0,0,0,-1,1952,638,0,0
735,386,0,0,0,0,0,0,0,0,0,-1,1959,638,0,0
742,386,0,0,0,0,0,0,0,0,0,-1,1966,638,0,0
749,386,0,0,0,0,0,0,0,0,0,-1,1973,638,0,0
756,386,0,0,0,0,0,0,0,0,0,-1,1980,638,0,0
763,386,0,0,0,0,0,0,0,0,0,-1,1987,638,0,0
770,386,0,0,0,0,0,0,0,0,0,-1,1994,638,0,0
777,386,0,0,0,0,0,0,0,0,0,-1,2001,638,0,0
784,386,0,0,0,0,0,0,0,0,0,-1,2008,638,0,0
791,386,0,0,0,0,0,0,0,0,0,-1,2015,638,0,0
798,386,0,0,0,0,0,0,0,0,0,-1,2022,638,0,0
805,386,0,0,0,0,0,0,0,0,0,-1,2029,638,0,0
812,386,0,0,0,0,0,0,0,0,0,-1,2036,638,0,0
-700,379,0,0,0,0,0,0,0,0,0,-1,524,645,0,0
-693,379,0,0,0,0,0,0,0,0,0,-1,531,645,0,0
-686,379,0,0,0,0,0,0,0,0,0,-1,538,645,0,0
-679,379,0,0,0,0,0,0,0,0,0,-1,545,645,0,0
-672,379,0,0,0,0,0,0,0,0,0,-1,552,645,0,0
-665,379,0,0,0,0,0,0,0,0,0,-1,559,645,0,0
-658,379,0,0,0,0,0,0,0,0,0,-1,566,645,0,0
-651,379,0,0,0,0,0,0,0,0,0,-1,573,645,0,0
-644,379,0,0,0,0,0,0,0,0,0,-1,580,645,0,0
-637,379,0,0,0,0,0,0,0,0,0,-1,587,645,0,0
-630,379,0,0,0,0,0,0,0,0,0,-1,594,645,0,0
-623,379,0,0,0,0,0,0,0,0,0,-1,601,645,0,0
-616,379,0,0,0,0,0,0,0,0,0,-1,608,645,0,0
-609,379,0,0,0,0,0,0,0,0,0,-1,615,645,0,0
-602,379,0,0,0,0,0,0,0,0,0,-1,622,645,0,0
-595,379,0,0,0,0,0,0,0,0,0,-1,629,645,0,0
-588,379,0,0,0,0,0,0,0,0,0,-1,636,645,0,0
-581,379,0,0,0,0,0,0,0,0,0,-1,643,645,0,0
-574,379,0,0,0,0,0,0,0,0,0,-1,650,645,0,0
-567,379,-8.78058,0.59668,0,0,0,0,0,0,0,-1,657,645,-8.7806,-0.596692
-560,379,-9.53485,-0.211304,0,0,0,0,0,0,0,-1,664,645,-9.53487,0.211282
-553,379,-5.17108,-4.53119,0,0,0,0,0,0,0,-1,671,645,-5.17106,4.53117
-546,379,-6.23053,-4.92102,0,0,0,0,0,0,0,-1,678,645,-6.23054,4.92105
-539,379,-0.71698,-2.19427,0,0,0,0,0,0,0,-1,685,645,-0.716959,2.19427
-532,379,-7.69611,0.217224,0,0,0,0,0,0,0,-1,692,645,-7.69614,-0.217204
-525,379,-7.09833,-1.13043,0,0,0,0,0,0,0,-1,699,645,-7.0983,1.13041
-518,379,-10.5613,-3.82849,0,0,0,0,0,0,0,-1,706,645,-10.5613,3.82849
-511,379,-11.6573,-4.95453,0,0,0,0,0,0,0,-1,713,645,-11.6573,4.95455
-504,379,-11.6061,-5.62811,0.00225894,0.00508711,-0.00271699,0.00673598,0.000610074,-1.02534,0.00430174,0.0279471,720,645,-11.6061,5.62811
-497,379,-11.6652,-6.17047,0.00161836,0.00360246,-0.0018278,0.00469008,0.00053074,-1.03403,0.00296568,0.0138827,727,645,-11.6651,6.17047
-490,379,-11.6722,-6.74347,0.00120069,0.0023639,-0.00118976,0.0031066,0.000457984,-1.01274,0.00193654,0.0113143,734,645,-11.6722,6.74346
-483,379,-11.6859,-7.30219,0.00102911,0.0017613,-0.00100388,0.00246375,0.000326656,-0.960244,0.00154517,0.0129431,741,645,-11.6859,7.3022
-476,379,-11.6862,-7.84766,0.00102535,0.0013115,-0.000942222,0.00212145,0.0002154,-0.860748,0.00134825,0.0140148,748,645,-11.6862,7.84763
-469,379,-11.7242,-8.38599,0.00110232,0.00094044,-0.000907426,0.00193241,0.000110353,-0.740916,0.00125311,0.012196,755,645,-11.7242,8.38596
-462,379,-11.7595,-8.96484,0.00119784,0.00065607,-0.000891891,0.00185907,-5.16628e-06,-0.637966,0.00124111,0.00918606,762,645,-11.7594,8.96487
-455,379,-11.7803,-9.53003,0.00136343,0.000279019,-0.000859594,0.00183753,-0.000195087,-0.50403,0.00129496,0.00984384,769,645,-11.7803,9.53001
-448,379,-11.7635,-10.0594,0.00155803,4.72187e-06,-0.000812927,0.00190567,-0.00034292,-0.404107,0.00139883,0.0118231,776,645,-11.7635,10.0594
-441,379,-11.7946,-10.6624,0.00174095,-0.00013733,-0.000731399,0.00199216,-0.000388538,-0.330839,0.00147478,0.0229176,783,645,-11.7946,10.6623
-434,379,-11.7604,-11.4335,0,0,0,0,0,0,0,-1,790,645,-11.7604,11.4335
-427,379,-4.16113,-4.13452,0,0,0,0,0,0,0,-1,797,645,-4.16116,4.1345
-420,379,-4.63953,-3.46869,0,0,0,0,0,0,0,-1,804,645,-4.63953,3.46872
-413,379,-4.62543,-3.7912,0,0,0,0,0,0,0,-1,811,645,-4.62541,3.79123
-406,379,-4.64063,-4.38489,0,0,0,0,0,0,0,-1,818,645,-4.64065,4.3849
-399,379,-2.93536,-1.40118,0,0,0,0,0,0,0,-1,825,645,-2.93534,1.40119
-392,379,-4.16711,-0.466003,0,0,0,0,0,0,0,-1,832,645,-4.16714,0.465992
-385,379,-3.51862,0.441101,0,0,0,0,0,0,0,-1,839,645,-3.51859,-0.441072
-378,379,-5.3504,0.212219,0,0,0,0,0,0,0,-1,846,645,-5.35038,-0.212241
-371,379,-4.32092,-0.186707,0,0,0,0,0,0,0,-1,853,645,-4.3209,0.186707
-364,379,-3.40887,-0.549805,0,0,0,0,0,0,0,-1,860,645,-3.4089,0.549802
-357,379,0,0,0,0,0,0,0,0,0,-1,867,645,0,0
-350,379,0,0,0,0,0,0,0,0,0,-1,874,645,0,0
-343,379,0,0,0,0,0,0,0,0,0,-1,881,645,0,0
-336,379,0,0,0,0,0,0,0,0,0,-1,888,645,0,0
-329,379,0,0,0,0,0,0,0,0,0,-1,895,645,0,0
-322,379,0,0,0,0,0,0,0,0,0,-1,902,645,0,0
-315,379,0,0,0,0,0,0,0,0,0,-1,909,645,0,0
-308,379,0,0,0,0,0,0,0,0,0,-1,916,645,0,0
-301,379,0,0,0,0,0,0,0,0,0,-1,923,645,0,0
-294,379,0,0,0,0,0,0,0,0,0,-1,930,645,0,0
-287,379,0,0,0,0,0,0,0,0,0,-1,937,645,0,0
-280,379,0,0,0,0,0,0,0,0,0,-1,944,645,0,0
-273,379,0,0,0,0,0,0,0,0,0,-1,951,645,0,0
-266,379,0,0,0,0,0,0,0,0,0,-1,958,645,0,0
-259,379,0,0,0,0,0,0,0,0,0,-1,965,645,0,0
-252,379,0,0,0,0,0,0,0,0,0,-1,972,645,0,0
-245,379,0,0,0,0,0,0,0,0,0,-1,979,645,0,0
-238,379,0,0,0,0,0,0,0,0,0,-1,986,645,0,0
-231,379,0,0,0,0,0,0,0,0,0,-1,993,645,0,0
-224,379,0,0,0,0,0,0,0,0,0,-1,1000,645,0,0
-217,379,0,0,0,0,0,0,0,0,0,-1,1007,645,0,0
-210,379,0,0,0,0,0,0,0,0,0,-1,1014,645,0,0
-203,379,0,0,0,0,0,0,0,0,0,-1,1021,645,0,0
-196,379,0,0,0,0,0,0,0,0,0,-1,1028,645,0,0
-189,379,0,0,0,0,0,0,0,0,0,-1,1035,645,0,0
-182,379,0,0,0,0,0,0,0,0,0,-1,1042,645,0,0
-175,379,0,0,0,0,0,0,0,0,0,-1,1049,645,0,0
-168,379,0,0,0,0,0,0,0,0,0,-1,1056,645,0,0
-161,379,0,0,0,0,0,0,0,0,0,-1,1063,645,0,0
-154,379,0,0,0,0,0,0,0,0,0,-1,1070,645,0,0
-147,379,0,0,0,0,0,0,0,0,0,-1,1077,645,0,0
-140,379,0,0,0,0,0,0,0,0,0,-1,1084,645,0,0
-133,379,0,0,0,0,0,0,0,0,0,-1,1091,645,0,0
-126,379,0,0,0,0,0,0,0,0,0,-1,1098,645,0,0
-119,379,0,0,0,0,0,0,0,0,0,-1,1105,645,0,0
-112,379,0,0,0,0,0,0,0,0,0,-1,1112,645,0,0
-105,379,0,0,0,0,0,0,0,0,0,-1,1119,645,0,0
-98,379,0,0,0,0,0,0,0,0,0,-1,1126,645,0,0
-91,379,0,0,0,0,0,0,0,0,0,-1,1133,645,0,0
-84,379,0,0,0,0,0,0,0,0,0,-1,1140,645,0,0
-77,379,0,0,0,0,0,0,0,0,0,-1,1147,645,0,0
-70,379,0,0,0,0,0,0,0,0,0,-1,1154,645,0,0
-63,379,0,0,0,0,0,0,0,0,0,-1,1161,645,0,0
-56,379,0,0,0,0,0,0,0,0,0,-1,1168,645,0,0
-49,379,0,0,0,0,0,0,0,0,0,-1,1175,645,0,0
-42,379,0,0,0,0,0,0,0,0,0,-1,1182,645,0,0
-35,379,0,0,0,0,0,0,0,0,0,-1,1189,645,0,0
-28,379,0,0,0,0,0,0,0,0,0,-1,1196,645,0,0
-21,379,0,0,0,0,0,0,0,0,0,-1,1203,645,0,0
-14,379,0,0,0,0,0,0,0,0,0,-1,1210,645,0,0
-7,379,0,0,0,0,0,0,0,0,0,-1,1217,645,0,0
0,379,0,0,0,0,0,0,0,0,0,-1,1224,645,0,0
7,379,0,0,0,0,0,0,0,0,0,-1,1231,645,0,0
14,379,0,0,0,0,0,0,0,0,0,-1,1238,645,0,0
21,379,0,0,0,0,0,0,0,0,0,-1,1245,645,0,0
28,379,0,0,0,0,0,0,0,0,0,-1,1252,645,0,0
35,379,0,0,0,0,0,0,0,0,0,-1,1259,645,0,0
42,379,0,0,0,0,0,0,0,0,0,-1,1266,645,0,0
49,379,0,0,0,0,0,0,0,0,0,-1,1273,645,0,0
56,379,0,0,0,0,0,0,0,0,0,-1,1280,645,0,0
63,379,0,0,0,0,0,0,0,0,0,-1,1287,645,0,0
70,379,0,0,0,0,0,0,0,0,0,-1,1294,645,0,0
77,379,0,0,0,0,0,0,0,0,0,-1,1301,645,0,0
84,379,0,0,0,0,0,0,0,0,0,-1,1308,645,0,0
91,379,0,0,0,0,0,0,0,0,0,-1,1315,645,0,0
98,379,0,0,0,0,0,0,0,0,0,-1,1322,645,0,0
105,379,0,0,0,0,0,0,0,0,0,-1,1329,645,0,0
112,379,0,0,0,0,0,0,0,0,0,-1,1336,645,0,0
119,379,0,0,0,0,0,0,0,0,0,-1,1343,645,0,0
126,379,0,0,0,0,0,0,0,0,0,-1,1350,645,0,0
133,379,0,0,0,0,0,0,0,0,0,-1,1357,645,0,0
140,379,0,0,0,0,0,0,0,0,0,-1,1364,645,0,0
147,379,0,0,0,0,0,0,0,0,0,-1,1371,645,0,0
154,379,0,0,0,0,0,0,0,0,0,-1,1378,645,0,0
161,379,0,0,0,0,0,0,0,0,0,-1,1385,645,0,0
168,379,0,0,0,0,0,0,0,0,0,-1,1392,645,0,0
175,379,0,0,0,0,0,0,0,0,0,-1,1399,645,0,0
182,379,0,0,0,0,0,0,0,0,0,-1,1406,645,0,0
189,379,0,0,0,0,0,0,0,0,0,-1,1413,645,0,0
196,379,0,0,0,0,0,0,0,0,0,-1,1420,645,0,0
203,379,0,0,0,0,0,0,0,0,0,-1,1427,645,0,0
210,379,0,0,0,0,0,0,0,0,0,-1,1434,645,0,0
217,379,0,0,0,0,0,0,0,0,0,-1,1441,645,0,0
224,379,0,0,0,0,0,0,0,0,0,-1,1448,645,0,0
231,379,0,0,0,0,0,0,0,0,0,-1,1455,645,0,0
238,379,0,0,0,0,0,0,0,0,0,-1,1462,645,0,0
245,379,0,0,0,0,0,0,0,0,0,-1,1469,645,0,0
252,379,0,0,0,0,0,0,0,0,0,-1,1476,645,0,0
259,379,0,0,0,0,0,0,0,0,0,-1,1483,645,0,0
266,379,0,0,0,0,0,0,0,0,0,-1,1490,645,0,0
273,379,0,0,0,0,0,0,0,0,0,-1,1497,645,0,0
280,379,0,0,0,0,0,0,0,0,0,-1,1504,645,0,0
287,379,0,0,0,0,0,0,0,0,0,-1,1511,645,0,0
294,379,0,0,0,0,0,0,0,0,0,-1,1518,645,0,0
301,379,0,0,0,0,0,0,0,0,0,-1,1525,645,0,0
308,379,0,0,0,0,0,0,0,0,0,-1,1532,645,0,0
315,379,0,0,0,0,0,0,0,0,0,-1,1539,645,0,0
322,379,0,0,0,0,0,0,0,0,0,-1,1546,645,0,0
329,379,0,0,0,0,0,0,0,0,0,-1,1553,645,0,0
336,379,0,0,0,0,0,0,0,0,0,-1,1560,645,0,0
343,379,0,0,0,0,0,0,0,0,0,-1,1567,645,0,0
350,379,0,0,0,0,0,0,0,0,0,-1,1574,645,0,0
357,379,0,0,0,0,0,0,0,0,0,-1,1581,645,0,0
364,379,0,0,0,0,0,0,0,0,0,-1,1588,645,0,0
371,379,0,0,0,0,0,0,0,0,0,-1,1595,645,0,0
378,379,0,0,0,0,0,0,0,0,0,-1,1602,645,0,0
385,379,0,0,0,0,0,0,0,0,0,-1,1609,645,0,0
392,379,0,0,0,0,0,0,0,0,0,-1,1616,645,0,0
399,379,0,0,0,0,0,0,0,0,0,-1,1623,645,0,0
406,379,0,0,0,0,0,0,0,0,0,-1,1630,645,0,0
413,379,0,0,0,0,0,0,0,0,0,-1,1637,645,0,0
420,379,0,0,0,0,0,0,0,0,0,-1,1644,645,0,0
427,379,0,0,0,0,0,0,0,0,0,-1,1651,645,0,0
434,379,0,0,0,0,0,0,0,0,0,-1,1658,645,0,0
441,379,0,0,0,0,0,0,0,0,0,-1,1665,645,0,0
448,379,0,0,0,0,0,0,0,0,0,-1,1672,645,0,0
455,379,0,0,0,0,0,0,0,0,0,-1,1679,645,0,0
462,379,0,0,0,0,0,0,0,0,0,-1,1686,645,0,0
469,379,0,0,0,0,0,0,0,0,0,-1,1693,645,0,0
476,379,11.1787,0.830383,0,0,0,0,0,0,0,-1,1700,645,11.1787,-0.830365
483,379,7.4231,1.54321,0,0,0,0,0,0,0,-1,1707,645,7.42314,-1.54324
490,379,8.52881,1.56677,0,0,0,0,0,0,0,-1,1714,645,8.52878,-1.56677
497,379,9.63599,1.49573,0,0,0,0,0,0,0,-1,1721,645,9.63604,-1.4957
504,379,10.0833,1.35229,0,0,0,0,0,0,0,-1,1728,645,10.0832,-1.35227
511,379,8.14343,1.59912,0,0,0,0,0,0,0,-1,1735,645,8.14347,-1.59912
518,379,12.7955,-0.324097,0,0,0,0,0,0,0,-1,1742,645,12.7955,0.324101
525,379,6.03711,1.10352,0,0,0,0,0,0,0,-1,1749,645,6.03711,-1.10351
532,379,8.70947,0.887817,0,0,0,0,0,0,0,-1,1756,645,8.70953,-0.887808
539,379,9.87097,0.111389,0,0,0,0,0,0,0,-1,1763,645,9.87095,-0.111395
546,379,8.42383,-0.730652,0,0,0,0,0,0,0,-1,1770,645,8.42378,0.730638
553,379,19.2905,-7.67834,0,0,0,0,0,0,0,-1,1777,645,19.2905,7.67837
560,379,21.2775,-9.52728,0,0,0,0,0,0,0,-1,1784,645,21.2774,9.52728
567,379,21.4873,-8.99707,0.00639426,-0.000205737,0.00133727,0.00665492,-0.000466395,0.192505,0.00459996,0.0392982,1791,645,21.4872,8.99708
574,379,21.7253,-8.4801,0.00479135,-0.00022773,0.000883049,0.00494218,-0.000378559,0.169173,0.00342795,0.0139605,1798,645,21.7253,8.48013
581,379,21.7051,-7.92065,0.00355945,1.29294e-05,0.000676858,0.00368424,-0.000111859,0.182317,0.00249428,0.0158121,1805,645,21.7051,7.92067
588,379,21.6887,-7.3349,0.00268902,0.000330431,0.000663529,0.00286287,0.000156578,0.256252,0.00185859,0.0185818,1812,645,21.6887,7.33492
595,379,21.6731,-6.77039,0.00219224,0.00077638,0.000826693,0.0025727,0.000395923,0.431317,0.00159957,0.0159013,1819,645,21.6731,6.77041
602,379,21.6414,-6.21722,0.00204951,0.00141266,0.00121716,0.00298921,0.000472964,0.657459,0.00185535,0.0166754,1826,645,21.6413,6.21724
609,379,21.5975,-5.65857,0.00209111,0.00211983,0.00169956,0.00380509,0.000405851,0.789623,0.00241285,0.017208,1833,645,21.5976,5.65854
616,379,21.5752,-5.0614,0.00233342,0.00293951,0.00226845,0.00492507,0.000347864,0.851801,0.00317378,0.0136445,1840,645,21.5751,5.06137
623,379,21.5621,-4.42834,0.00283266,0.00374116,0.00295655,0.00627815,0.000295671,0.861623,0.00409044,0.0136911,1847,645,21.5622,4.42836
630,379,21.5503,-3.83221,0.0033645,0.00456786,0.0035956,0.00761177,0.000320587,0.868299,0.0049711,0.0153615,1854,645,21.5503,3.83222
637,379,21.5568,-3.13617,0.00385217,0.00553483,0.00424499,0.00902106,0.000365941,0.883227,0.00589584,0.0407966,1861,645,21.5568,3.13615
644,379,21.7488,-2.33337,0,0,0,0,0,0,0,-1,1868,645,21.7487,2.33337
651,379,12.9515,0.220825,0,0,0,0,0,0,0,-1,1875,645,12.9515,-0.220814
658,379,13.7498,0.37439,0,0,0,0,0,0,0,-1,1882,645,13.7498,-0.374371
665,379,11.9719,0.353333,0,0,0,0,0,0,0,-1,1889,645,11.9719,-0.353321
672,379,7.57605,2.15326,0,0,0,0,0,0,0,-1,1896,645,7.57599,-2.15326
679,379,8.55078,2.50409,0,0,0,0,0,0,0,-1,1903,645,8.55073,-2.50406
686,379,0,0,0,0,0,0,0,0,0,-1,1910,645,0,0
693,379,0,0,0,0,0,0,0,0,0,-1,1917,645,0,0
700,379,0,0,0,0,0,0,0,0,0,-1,1924,645,0,0
707,379,0,0,0,0,0,0,0,0,0,-1,1931,645,0,0
714,379,0,0,0,0,0,0,0,0,0,-1,1938,645,0,0
721,379,0,0,0,0,0,0,0,0,0,-1,1945,645,0,0
728,379,0,0,0,0,0,0,0,0,0,-1,1952,645,0,0
735,379,0,0,0,0,0,0,0,0,0,-1,1959,645,0,0
742,379,0,0,0,0,0,0,0,0,0,-1,1966,645,0,0
749,379,0,0,0,0,0,0,0,0,0,-1,1973,645,0,0
756,379,0,0,0,0,0,0,0,0,0,-1,1980,645,0,0
763,379,0,0,0,0,0,0,0,0,0,-1,1987,645,0,0
770,379,0,0,0,0,0,0,0,0,0,-1,1994,645,0,0
777,379,0,0,0,0,0,0,0,0,0,-1,2001,645,0,0
784,379,0,0,0,0,0,0,0,0,0,-1,2008,645,0,0
791,379,0,0,0,0,0,0,0,0,0,-1,2015,645,0,0
798,379,0,0,0,0,0,0,0,0,0,-1,2022,645,0,0
805,379,0,0,0,0,0,0,0,0,0,-1,2029,645,0,0
812,379,0,0,0,0,0,0,0,0,0,-1,2036,645,0,0
-700,372,0,0,0,0,0,0,0,0,0,-1,524,652,0,0
-693,372,0,0,0,0,0,0,0,0,0,-1,531,652,0,0
-686,372,0,0,0,0,0,0,0,0,0,-1,538,652,0,0
-679,372,0,0,0,0,0,0,0,0,0,-1,545,652,0,0
-672,372,0,0,0,0,0,0,0,0,0,-1,552,652,0,0
-665,372,0,0,0,0,0,0,0,0,0,-1,559,652,0,0
-658,372,0,0,0,0,0,0,0,0,0,-1,566,652,0,0
-651,372,0,0,0,0,0,0,0,0,0,-1,573,652,0,0
-644,372,0,0,0,0,0,0,0,0,0,-1,580,652,0,0
-637,372,0,0,0,0,0,0,0,0,0,-1,587,652,0,0
-630,372,0,0,0,0,0,0,0,0,0,-1,594,652,0,0
-623,372,0,0,0,0,0,0,0,0,0,-1,601,652,0,0
-616,372,0,0,0,0,0,0,0,0,0,-1,608,652,0,0
-609,372,0,0,0,0,0,0,0,0,0,-1,615,652,0,0
-602,372,0,0,0,0,0,0,0,0,0,-1,622,652,0,0
-595,372,0,0,0,0,0,0,0,0,0,-1,629,652,0,0
-588,372,0,0,0,0,0,0,0,0,0,-1,636,652,0,0
-581,372,0,0,0,0,0,0,0,0,0,-1,643,652,0,0
-574,372,0,0,0,0,0,0,0,0,0,-1,650,652,0,0
-567,372,-7.93744,0.73407,0,0,0,0,0,0,0,-1,657,652,-7.93741,-0.734076
-560,372,-8.78552,-0.158203,0,0,0,0,0,0,0,-1,664,652,-8.78552,0.158216
-553,372,-7.95551,1.61694,0,0,0,0,0,0,0,-1,671,652,-7.95552,-1.61697
-546,372,-4.2403,-3.75372,0,0,0,0,0,0,0,-1,678,652,-4.24028,3.75369
-539,372,-7.92285,-0.0650024,0,0,0,0,0,0,0,-1,685,652,-7.92287,0.0649772
-532,372,-8.59589,-0.419556,0,0,0,0,0,0,0,-1,692,652,-8.59591,0.419539
-525,372,-8.03674,-1.36804,0,0,0,0,0,0,0,-1,699,652,-8.03676,1.36806
-518,372,-12.2134,-4.31885,0,0,0,0,0,0,0,-1,706,652,-12.2134,4.31885
-511,372,-12.178,-5.02478,0.00302117,0.0059868,-0.00350578,0.00831045,0.00069751,-0.98547,0.00532305,0.0330855,713,652,-12.178,5.02476
-504,372,-12.2057,-5.56335,0.00226433,0.0041608,-0.00235514,0.00575143,0.000673703,-0.976782,0.00363061,0.0164754,720,652,-12.2058,5.56336
-497,372,-12.1921,-6.15454,0.00178003,0.0028985,-0.0016292,0.00406178,0.000616752,-0.950725,0.00252748,0.0117346,727,652,-12.1921,6.15454
-490,372,-12.2245,-6.70111,0.00141174,0.00177364,-0.00106252,0.00267052,0.00051487,-0.86974,0.00163595,0.012132,734,652,-12.2245,6.70112
-483,372,-12.2395,-7.25372,0.00128743,0.00130419,-0.000929759,0.0022256,0.000366011,-0.789905,0.00137803,0.012214,741,652,-12.2395,7.25371
-476,372,-12.2477,-7.78766,0.00130129,0.000981585,-0.000913499,0.00206882,0.000214058,-0.69878,0.00131368,0.0141657,748,652,-12.2477,7.78765
-469,372,-12.2769,-8.32599,0.00137188,0.000731515,-0.000929343,0.00203465,6.87442e-05,-0.619504,0.00133411,0.011637,755,652,-12.2769,8.32599
-462,372,-12.3,-8.90869,0.00146169,0.000579348,-0.000980263,0.00209548,-5.4445e-05,-0.573949,0.00141548,0.00982668,762,652,-12.3,8.90869
-455,372,-12.3313,-9.47858,0.0016304,0.000322848,-0.00102877,0.00219556,-0.000242305,-0.502343,0.0015508,0.00971051,769,652,-12.3313,9.47856
-448,372,-12.3275,-10.0378,0.00182807,0.000157118,-0.00107106,0.00235097,-0.000365782,-0.45417,0.00170239,0.0117634,776,652,-12.3274,10.0378
-441,372,-12.2734,-10.6674,0,0,0,0,0,0,0,-1,783,652,-12.2734,10.6674
-434,372,-9.86865,-9.68494,0,0,0,0,0,0,0,-1,790,652,-9.86863,9.68492
-427,372,-4.54248,-3.56268,0,0,0,0,0,0,0,-1,797,652,-4.54247,3.56266
-420,372,-4.66168,-2.93597,0,0,0,0,0,0,0,-1,804,652,-4.66166,2.93599
-413,372,-4.74762,-3.29541,0,0,0,0,0,0,0,-1,811,652,-4.74763,3.29542
-406,372,-0.885437,-0.583923,0,0,0,0,0,0,0,-1,818,652,-0.885437,0.5839
-399,372,-3.97357,-0.825012,0,0,0,0,0,0,0,-1,825,652,-3.97359,0.825037
-392,372,-7.64337,0.173035,0,0,0,0,0,0,0,-1,832,652,-7.64337,-0.173019
-385,372,-6.48871,-0.0271606,0,0,0,0,0,0,0,-1,839,652,-6.48874,0.0271353
-378,372,-5.33044,-0.242432,0,0,0,0,0,0,0,-1,846,652,-5.33042,0.242457
-371,372,-4.40802,-0.495667,0,0,0,0,0,0,0,-1,853,652,-4.40802,0.495661
-364,372,0,0,0,0,0,0,0,0,0,-1,860,652,0,0
-357,372,0,0,0,0,0,0,0,0,0,-1,867,652,0,0
-350,372,0,0,0,0,0,0,0,0,0,-1,874,652,0,0
-343,372,0,0,0,0,0,0,0,0,0,-1,881,652,0,0
-336,372,0,0,0,0,0,0,0,0,0,-1,888,652,0,0
-329,372,0,0,0,0,0,0,0,0,0,-1,895,652,0,0
-322,372,0,0,0,0,0,0,0,0,0,-1,902,652,0,0
-315,372,0,0,0,0,0,0,0,0,0,-1,909,652,0,0
-308,372,0,0,0,0,0,0,0,0,0,-1,916,652,0,0
-301,372,0,0,0,0,0,0,0,0,0,-1,923,652,0,0
-294,372,0,0,0,0,0,0,0,0,0,-1,930,652,0,0
-287,372,0,0,0,0,0,0,0,0,0,-1,937,652,0,0
-280,372,0,0,0,0,0,0,0,0,0,-1,944,652,0,0
-273,372,0,0,0,0,0,0,0,0,0,-1,951,652,0,0
-266,372,0,0,0,0,0,0,0,0,0,-1,958,652,0,0
-259,372,0,0,0,0,0,0,0,0,0,-1,965,652,0,0
-252,372,0,0,0,0,0,0,0,0,0,-1,972,652,0,0
-245,372,0,0,0,0,0,0,0,0,0,-1,979,652,0,0
-238,372,0,0,0,0,0,0,0,0,0,-1,986,652,0,0
-231,372,0,0,0,0,0,0,0,0,0,-1,993,652,0,0
-224,372,0,0,0,0,0,0,0,0,0,-1,1000,652,0,0
-217,372,0,0,0,0,0,0,0,0,0,-1,1007,652,0,0
-210,372,0,0,0,0,0,0,0,0,0,-1,1014,652,0,0
-203,372,0,0,0,0,0,0,0,0,0,-1,1021,652,0,0
-196,372,0,0,0,0,0,0,0,0,0,-1,1028,652,0,0
-189,372,0,0,0,0,0,0,0,0,0,-1,1035,652,0,0
-182,372,0,0,0,0,0,0,0,0,0,-1,1042,652,0,0
-175,372,0,0,0,0,0,0,0,0,0,-1,1049,652,0,0
-168,372,0,0,0,0,0,0,0,0,0,-1,1056,652,0,0
-161,372,0,0,0,0,0,0,0,0,0,-1,1063,652,0,0
-154,372,0,0,0,0,0,0,0,0,0,-1,1070,652,0,0
-147,372,0,0,0,0,0,0,0,0,0,-1,1077,652,0,0
-140,372,0,0,0,0,0,0,0,0,0,-1,1084,652,0,0
-133,372,0,0,0,0,0,0,0,0,0,-1,1091,652,0,0
-126,372,0,0,0,0,0,0,0,0,0,-1,1098,652,0,0
-119,372,0,0,0,0,0,0,0,0,0,-1,1105,652,0,0
-112,372,0,0,0,0,0,0,0,0,0,-1,1112,652,0,0
-105,372,0,0,0,0,0,0,0,0,0,-1,1119,652,0,0
-98,372,0,0,0,0,0,0,0,0,0,-1,1126,652,0,0
-91,372,0,0,0,0,0,0,0,0,0,-1,1133,652,0,0
-84,372,0,0,0,0,0,0,0,0,0,-1,1140,652,0,0
-77,372,0,0,0,0,0,0,0,0,0,-1,1147,652,0,0
-70,372,0,0,0,0,0,0,0,0,0,-1,1154,652,0,0
-63,372,0,0,0,0,0,0,0,0,0,-1,1161,652,0,0
-56,372,0,0,0,0,0,0,0,0,0,-1,1168,652,0,0
-49,372,0,0,0,0,0,0,0,0,0,-1,1175,652,0,0
-42,372,0,0,0,0,0,0,0,0,0,-1,1182,652,0,0
-35,372,0,0,0,0,0,0,0,0,0,-1,1189,652,0,0
-28,372,0,0,0,0,0,0,0,0,0,-1,1196,652,0,0
-21,372,0,0,0,0,0,0,0,0,0,-1,1203,652,0,0
-14,372,0,0,0,0,0,0,0,0,0,-1,1210,652,0,0
-7,372,0,0,0,0,0,0,0,0,0,-1,1217,652,0,0
0,372,0,0,0,0,0,0,0,0,0,-1,1224,652,0,0
7,372,0,0,0,0,0,0,0,0,0,-1,1231,652,0,0
14,372,0,0,0,0,0,0,0,0,0,-1,1238,652,0,0
21,372,0,0,0,0,0,0,0,0,0,-1,1245,652,0,0
28,372,0,0,0,0,0,0,0,0,0,-1,1252,652,0,0
35,372,0,0,0,0,0,0,0,0,0,-1,1259,652,0,0
42,372,0,0,0,0,0,0,0,0,0,-1,1266,652,0,0
49,372,0,0,0,0,0,0,0,0,0,-1,1273,652,0,0
56,372,0,0,0,0,0,0,0,0,0,-1,1280,652,0,0
63,372,0,0,0,0,0,0,0,0,0,-1,1287,652,0,0
70,372,0,0,0,0,0,0,0,0,0,-1,1294,652,0,0
77,372,0,0,0,0,0,0,0,0,0,-1,1301,652,0,0
84,372,0,0,0,0,0,0,0,0,0,-1,1308,652,0,0
91,372,0,0,0,0,0,0,0,0,0,-1,1315,652,0,0
98,372,0,0,0,0,0,0,0,0,0,-1,1322,652,0,0
105,372,0,0,0,0,0,0,0,0,0,-1,1329,652,0,0
112,372,0,0,0,0,0,0,0,0,0,-1,1336,652,0,0
119,372,0,0,0,0,0,0,0,0,0,-1,1343,652,0,0
126,372,0,0,0,0,0,0,0,0,0,-1,1350,652,0,0
133,372,0,0,0,0,0,0,0,0,0,-1,1357,652,0,0
140,372,0,0,0,0,0,0,0,0,0,-1,1364,652,0,0
147,372,0,0,0,0,0,0,0,0,0,-1,1371,652,0,0
154,372,0,0,0,0,0,0,0,0,0,-1,1378,652,0,0
161,372,0,0,0,0,0,0,0,0,0,-1,1385,652,0,0
168,372,0,0,0,0,0,0,0,0,0,-1,1392,652,0,0
175,372,0,0,0,0,0,0,0,0,0,-1,1399,652,0,0
182,372,0,0,0,0,0,0,0,0,0,-1,1406,652,0,0
189,372,0,0,0,0,0,0,0,0,0,-1,1413,652,0,0
196,372,0,0,0,0,0,0,0,0,0,-1,1420,652,0,0
203,372,0,0,0,0,0,0,0,0,0,-1,1427,652,0,0
210,372,0,0,0,0,0,0,0,0,0,-1,1434,652,0,0
217,372,0,0,0,0,0,0,0,0,0,-1,1441,652,0,0
224,372,0,0,0,0,0,0,0,0,0,-1,1448,652,0,0
231,372,0,0,0,0,0,0,0,0,0,-1,1455,652,0,0
238,372,0,0,0,0,0,0,0,0,0,-1,1462,652,0,0
245,372,0,0,0,0,0,0,0,0,0,-1,1469,652,0,0
252,372,0,0,0,0,0,0,0,0,0,-1,1476,652,0,0
259,372,0,0,0,0,0,0,0,0,0,-1,1483,652,0,0
266,372,0,0,0,0,0,0,0,0,0,-1,1490,652,0,0
273,372,0,0,0,0,0,0,0,0,0,-1,1497,652,0,0
280,372,0,0,0,0,0,0,0,0,0,-1,1504,652,0,0
287,372,0,0,0,0,0,0,0,0,0,-1,1511,652,0,0
294,372,0,0,0,0,0,0,0,0,0,-1,1518,652,0,0
301,372,0,0,0,0,0,0,0,0,0,-1,1525,652,0,0
308,372,0,0,0,0,0,0,0,0,0,-1,1532,652,0,0
315,372,0,0,0,0,0,0,0,0,0,-1,1539,652,0,0
322,372,0,0,0,0,0,0,0,0,0,-1,1546,652,0,0
329,372,0,0,0,0,0,0,0,0,0,-1,1553,652,0,0
336,372,0,0,0,0,0,0,0,0,0,-1,1560,652,0,0
343,372,0,0,0,0,0,0,0,0,0,-1,1567,652,0,0
350,372,0,0,0,0,0,0,0,0,0,-1,1574,652,0,0
357,372,0,0,0,0,0,0,0,0,0,-1,1581,652,0,0
364,372,0,0,0,0,0,0,0,0,0,-1,1588,652,0,0
371,372,0,0,0,0,0,0,0,0,0,-1,1595,652,0,0
378,372,0,0,0,0,0,0,0,0,0,-1,1602,652,0,0
385,372,0,0,0,0,0,0,0,0,0,-1,1609,652,0,0
392,372,0,0,0,0,0,0,0,0,0,-1,1616,652,0,0
399,372,0,0,0,0,0,0,0,0,0,-1,1623,652,0,0
406,372,0,0,0,0,0,0,0,0,0,-1,1630,652,0,0
413,372,0,0,0,0,0,0,0,0,0,-1,1637,652,0,0
420,372,0,0,0,0,0,0,0,0,0,-1,1644,652,0,0
427,372,0,0,0,0,0,0,0,0,0,-1,1651,652,0,0
434,372,0,0,0,0,0,0,0,0,0,-1,1658,652,0,0
441,372,0,0,0,0,0,0,0,0,0,-1,1665,652,0,0
448,372,0,0,0,0,0,0,0,0,0,-1,1672,652,0,0
455,372,0,0,0,0,0,0,0,0,0,-1,1679,652,0,0
462,372,0,0,0,0,0,0,0,0,0,-1,1686,652,0,0
469,372,0,0,0,0,0,0,0,0,0,-1,1693,652,0,0
476,372,0,0,0,0,0,0,0,0,0,-1,1700,652,0,0
483,372,8.74182,1.53125,0,0,0,0,0,0,0,-1,1707,652,8.74186,-1.53126
490,372,9.78455,1.67096,0,0,0,0,0,0,0,-1,1714,652,9.7846,-1.67093
497,372,9.97644,1.46069,0,0,0,0,0,0,0,-1,1721,652,9.97647,-1.46071
504,372,10.1216,1.28375,0,0,0,0,0,0,0,-1,1728,652,10.1216,-1.28376
511,372,11.7367,-0.0272217,0,0,0,0,0,0,0,-1,1735,652,11.7367,0.0272326
518,372,12.0657,-0.0995483,0,0,0,0,0,0,0,-1,1742,652,12.0657,0.0995285
525,372,12.3947,-0.171814,0,0,0,0,0,0,0,-1,1749,652,12.3946,0.171824
532,372,9.36597,1.72034,0,0,0,0,0,0,0,-1,1756,652,9.36597,-1.72036
539,372,7.82886,-0.0865479,0,0,0,0,0,0,0,-1,1763,652,7.82882,0.0865771
546,372,10.953,-0.187195,0,0,0,0,0,0,0,-1,1770,652,10.953,0.187181
553,372,14.1201,-4.83234,0,0,0,0,0,0,0,-1,1777,652,14.1201,4.83235
560,372,20.1057,-8.06934,0,0,0,0,0,0,0,-1,1784,652,20.1058,8.06936
567,372,22.3386,-9.08777,0,0,0,0,0,0,0,-1,1791,652,22.3386,9.08777
574,372,22.337,-8.38776,0.00551415,-0.000703766,0.000756259,0.00560481,-0.000794425,0.119309,0.00402755,0.0331905,1798,652,22.337,8.38776
581,372,22.3239,-7.89899,0.00403954,-0.000351496,0.000519938,0.00410027,-0.000412222,0.116267,0.00288077,0.0195828,1805,652,22.3238,7.89896
588,372,22.2717,-7.33667,0.00302742,-1.25556e-05,0.000488342,0.00310394,-8.90767e-05,0.155432,0.00209962,0.01715,1812,652,22.2717,7.33666
595,372,22.2366,-6.75732,0.00239405,0.000445292,0.000607604,0.00256797,0.000271369,0.278789,0.00162908,0.0154283,1819,652,22.2365,6.75731
602,372,22.2468,-6.20197,0.00212122,0.00103172,0.000924104,0.00264918,0.000503752,0.519071,0.00162445,0.0161237,1826,652,22.2469,6.20194
609,372,22.1703,-5.63312,0.00205134,0.00165639,0.00132796,0.00319643,0.000511306,0.711586,0.00198262,0.0161287,1833,652,22.1702,5.6331
616,372,22.1566,-5.02551,0.00216668,0.00234677,0.00179393,0.00405291,0.000460537,0.810474,0.00256226,0.0148495,1840,652,22.1566,5.02548
623,372,22.1689,-4.4035,0.00241137,0.0030218,0.00231666,0.00505327,0.000379902,0.850895,0.00324962,0.0133416,1847,652,22.169,4.40353
630,372,22.1503,-3.81,0.00264812,0.00366951,0.00277432,0.00597975,0.000337883,0.87642,0.00387878,0.0168645,1854,652,22.1502,3.81
637,372,22.1453,-3.24341,0.00287628,0.00438154,0.00322323,0.00693884,0.000318981,0.900094,0.00452332,0.0251883,1861,652,22.1453,3.24342
644,372,22.271,-2.63293,0,0,0,0,0,0,0,-1,1868,652,22.271,2.63293
651,372,21.3998,-0.888,0,0,0,0,0,0,0,-1,1875,652,21.3998,0.887992
658,372,14.157,0.280273,0,0,0,0,0,0,0,-1,1882,652,14.157,-0.280264
665,372,15.2286,0.463867,0,0,0,0,0,0,0,-1,1889,652,15.2287,-0.463854
672,372,9.34106,1.48444,0,0,0,0,0,0,0,-1,1896,652,9.34109,-1.48444
679,372,10.7308,2.32391,0,0,0,0,0,0,0,-1,1903,652,10.7309,-2.3239
686,372,11.6295,2.52997,0,0,0,0,0,0,0,-1,1910,652,11.6296,-2.52996
693,372,0,0,0,0,0,0,0,0,0,-1,1917,652,0,0
700,372,0,0,0,0,0,0,0,0,0,-1,1924,652,0,0
707,372,0,0,0,0,0,0,0,0,0,-1,1931,652,0,0
714,372,0,0,0,0,0,0,0,0,0,-1,1938,652,0,0
721,372,0,0,0,0,0,0,0,0,0,-1,1945,652,0,0
728,372,0,0,0,0,0,0,0,0,0,-1,1952,652,0,0
735,372,0,0,0,0,0,0,0,0,0,-1,1959,652,0,0
742,372,0,0,0,0,0,0,0,0,0,-1,1966,652,0,0
749,372,0,0,0,0,0,0,0,0,0,-1,1973,652,0,0
756,372,0,0,0,0,0,0,0,0,0,-1,1980,652,0,0
763,372,0,0,0,0,0,0,0,0,0,-1,1987,652,0,0
770,372,0,0,0,0,0,0,0,0,0,-1,1994,652,0,0
777,372,0,0,0,0,0,0,0,0,0,-1,2001,652,0,0
784,372,0,0,0,0,0,0,0,0,0,-1,2008,652,0,0
791,372,0,0,0,0,0,0,0,0,0,-1,2015,652,0,0
798,372,0,0,0,0,0,0,0,0,0,-1,2022,652,0,0
805,372,0,0,0,0,0,0,0,0,0,-1,2029,652,0,0
812,372,0,0,0,0,0,0,0,0,0,-1,2036,652,0,0
-700,365,0,0,0,0,0,0,0,0,0,-1,524,659,0,0
-693,365,0,0,0,0,0,0,0,0,0,-1,531,659,0,0
-686,365,0,0,0,0,0,0,0,0,0,-1,538,659,0,0
-679,365,0,0,0,0,0,0,0,0,0,-1,545,659,0,0
-672,365,0,0,0,0,0,0,0,0,0,-1,552,659,0,0
-665,365,0,0,0,0,0,0,0,0,0,-1,559,659,0,0
-658,365,0,0,0,0,0,0,0,0,0,-1,566,659,0,0
-651,365,0,0,0,0,0,0,0,0,0,-1,573,659,0,0
-644,365,0,0,0,0,0,0,0,0,0,-1,580,659,0,0
-637,365,0,0,0,0,0,0,0,0,0,-1,587,659,0,0
-630,365,0,0,0,0,0,0,0,0,0,-1,594,659,0,0
-623,365,0,0,0,0,0,0,0,0,0,-1,601,659,0,0
-616,365,0,0,0,0,0,0,0,0,0,-1,608,659,0,0
-609,365,0,0,0,0,0,0,0,0,0,-1,615,659,0,0
-602,365,0,0,0,0,0,0,0,0,0,-1,622,659,0,0
-595,365,0,0,0,0,0,0,0,0,0,-1,629,659,0,0
-588,365,0,0,0,0,0,0,0,0,0,-1,636,659,0,0
-581,365,0,0,0,0,0,0,0,0,0,-1,643,659,0,0
-574,365,-7.69281,1.59015,0,0,0,0,0,0,0,-1,650,659,-7.69282,-1.59018
-567,365,-8.2583,1.72638,0,0,0,0,0,0,0,-1,657,659,-8.25827,-1.72637
-560,365,-7.17767,0.275757,0,0,0,0,0,0,0,-1,664,659,-7.17768,-0.27577
-553,365,-10.0349,-0.169617,0,0,0,0,0,0,0,-1,671,659,-10.0349,0.169593
-546,365,-10.6303,-1.51642,0,0,0,0,0,0,0,-1,678,659,-10.6303,1.5164
-539,365,-8.38599,1.52936,0,0,0,0,0,0,0,-1,685,659,-8.38598,-1.52935
-532,365,-8.52863,0.166504,0,0,0,0,0,0,0,-1,692,659,-8.52863,-0.166501
-525,365,-9.28229,-2.62726,0,0,0,0,0,0,0,-1,699,659,-9.28227,2.62724
-518,365,-12.7466,-4.29541,0,0,0,0,0,0,0,-1,706,659,-12.7466,4.29539
-511,365,-12.7641,-4.95557,0.0026825,0.00500917,-0.00302589,0.00708765,0.000604019,-0.968917,0.00453718,0.0320677,713,659,-12.7641,4.95554
-504,365,-12.7523,-5.53619,0.00218503,0.00340345,-0.00209217,0.0049733,0.000615175,-0.927074,0.00313069,0.0125328,720,659,-12.7523,5.53619
-497,365,-12.7609,-6.12158,0.00189736,0.00233293,-0.00151386,0.00364459,0.000585699,-0.856838,0.00225994,0.0123936,727,659,-12.7609,6.12161
-490,365,-12.7953,-6.68579,0.00157287,0.0013121,-0.0010025,0.00245343,0.000431538,-0.720729,0.00151244,0.0135574,734,659,-12.7953,6.68581
-483,365,-12.8073,-7.23529,0.00146494,0.000953278,-0.000900607,0.00214535,0.000272871,-0.64701,0.00134851,0.0130267,741,659,-12.8072,7.2353
-476,365,-12.766,-7.77509,0.00147527,0.000741747,-0.000905982,0.00208591,0.000131106,-0.593069,0.00134903,0.0156677,748,659,-12.766,7.77505
-469,365,-12.7907,-8.32739,0.00152982,0.000610048,-0.000949951,0.00212535,1.45175e-05,-0.559969,0.00141208,0.0154982,755,659,-12.7907,8.32741
-462,365,-12.8475,-8.88123,0.00161904,0.00059433,-0.0010399,0.00226595,-5.25807e-05,-0.556504,0.00152846,0.0143947,762,659,-12.8475,8.88124
-455,365,-12.8653,-9.43774,0.00179231,0.00046842,-0.00113282,0.00244241,-0.000181678,-0.520988,0.00169209,0.0159499,769,659,-12.8653,9.43774
-448,365,-12.804,-10.1002,0.00200819,0.000415798,-0.00123376,0.00268036,-0.000256369,-0.498851,0.0018782,0.0353447,776,659,-12.804,10.1002
-441,365,-12.5862,-10.8394,0,0,0,0,0,0,0,-1,783,659,-12.5862,10.8394
-434,365,-5.45056,-3.98041,0,0,0,0,0,0,0,-1,790,659,-5.45055,3.98042
-427,365,-5.05377,-4.74689,0,0,0,0,0,0,0,-1,797,659,-5.05376,4.7469
-420,365,-4.58813,-3.16376,0,0,0,0,0,0,0,-1,804,659,-4.58816,3.16374
-413,365,0.141357,0.672729,0,0,0,0,0,0,0,-1,811,659,0.141365,-0.672714
-406,365,-1.75067,-0.934448,0,0,0,0,0,0,0,-1,818,659,-1.7507,0.934424
-399,365,-4.10242,-1.25439,0,0,0,0,0,0,0,-1,825,659,-4.10244,1.25438
-392,365,-7.46545,-0.779724,0,0,0,0,0,0,0,-1,832,659,-7.46543,0.779744
-385,365,-6.27875,-0.887573,0,0,0,0,0,0,0,-1,839,659,-6.27874,0.887545
-378,365,-5.34503,-0.263306,0,0,0,0,0,0,0,-1,846,659,-5.34504,0.263275
-371,365,0,0,0,0,0,0,0,0,0,-1,853,659,0,0
-364,365,0,0,0,0,0,0,0,0,0,-1,860,659,0,0
-357,365,0,0,0,0,0,0,0,0,0,-1,867,659,0,0
-350,365,0,0,0,0,0,0,0,0,0,-1,874,659,0,0
-343,365,0,0,0,0,0,0,0,0,0,-1,881,659,0,0
-336,365,0,0,0,0,0,0,0,0,0,-1,888,659,0,0
-329,365,0,0,0,0,0,0,0,0,0,-1,895,659,0,0
-322,365,0,0,0,0,0,0,0,0,0,-1,902,659,0,0
-315,365,0,0,0,0,0,0,0,0,0,-1,909,659,0,0
-308,365,0,0,0,0,0,0,0,0,0,-1,916,659,0,0
-301,365,0,0,0,0,0,0,0,0,0,-1,923,659,0,0
-294,365,0,0,0,0,0,0,0,0,0,-1,930,659,0,0
-287,365,0,0,0,0,0,0,0,0,0,-1,937,659,0,0
-280,365,0,0,0,0,0,0,0,0,0,-1,944,659,0,0
-273,365,0,0,0,0,0,0,0,0,0,-1,951,659,0,0
-266,365,0,0,0,0,0,0,0,0,0,-1,958,659,0,0
-259,365,0,0,0,0,0,0,0,0,0,-1,965,659,0,0
-252,365,0,0,0,0,0,0,0,0,0,-1,972,659,0,0
-245,365,0,0,0,0,0,0,0,0,0,-1,979,659,0,0
-238,365,0,0,0,0,0,0,0,0,0,-1,986,659,0,0
-231,365,0,0,0,0,0,0,0,0,0,-1,993,659,0,0
-224,365,0,0,0,0,0,0,0,0,0,-1,1000,659,0,0
-217,365,0,0,0,0,0,0,0,0,0,-1,1007,659,0,0
-210,365,0,0,0,0,0,0,0,0,0,-1,1014,659,0,0
-203,365,0,0,0,0,0,0,0,0,0,-1,1021,659,0,0
-196,365,0,0,0,0,0,0,0,0,0,-1,1028,659,0,0
-189,365,0,0,0,0,0,0,0,0,0,-1,1035,659,0,0
-182,365,0,0,0,0,0,0,0,0,0,-1,1042,659,0,0
-175,365,0,0,0,0,0,0,0,0,0,-1,1049,659,0,0
-168,365,0,0,0,0,0,0,0,0,0,-1,1056,659,0,0
-161,365,0,0,0,0,0,0,0,0,0,-1,1063,659,0,0
-154,365,0,0,0,0,0,0,0,0,0,-1,1070,659,0,0
-147,365,0,0,0,0,0,0,0,0,0,-1,1077,659,0,0
-140,365,0,0,0,0,0,0,0,0,0,-1,1084,659,0,0
-133,365,0,0,0,0,0,0,0,0,0,-1,1091,659,0,0
-126,365,0,0,0,0,0,0,0,0,0,-1,1098,659,0,0
-119,365,0,0,0,0,0,0,0,0,0,-1,1105,659,0,0
-112,365,0,0,0,0,0,0,0,0,0,-1,1112,659,0,0
-105,365,0,0,0,0,0,0,0,0,0,-1,1119,659,0,0
-98,365,0,0,0,0,0,0,0,0,0,-1,1126,659,0,0
-91,365,0,0,0,0,0,0,0,0,0,-1,1133,659,0,0
-84,365,0,0,0,0,0,0,0,0,0,-1,1140,659,0,0
-77,365,0,0,0,0,0,0,0,0,0,-1,1147,659,0,0
-70,365,0,0,0,0,0,0,0,0,0,-1,1154,659,0,0
-63,365,0,0,0,0,0,0,0,0,0,-1,1161,659,0,0
-56,365,0,0,0,0,0,0,0,0,0,-1,1168,659,0,0
-49,365,0,0,0,0,0,0,0,0,0,-1,1175,659,0,0
-42,365,0,0,0,0,0,0,0,0,0,-1,1182,659,0,0
-35,365,0,0,0,0,0,0,0,0,0,-1,1189,659,0,0
-28,365,0,0,0,0,0,0,0,0,0,-1,1196,659,0,0
-21,365,0,0,0,0,0,0,0,0,0,-1,1203,659,0,0
-14,365,0,0,0,0,0,0,0,0,0,-1,1210,659,0,0
-7,365,0,0,0,0,0,0,0,0,0,-1,1217,659,0,0
0,365,0,0,0,0,0,0,0,0,0,-1,1224,659,0,0
7,365,0,0,0,0,0,0,0,0,0,-1,1231,659,0,0
14,365,0,0,0,0,0,0,0,0,0,-1,1238,659,0,0
21,365,0,0,0,0,0,0,0,0,0,-1,1245,659,0,0
28,365,0,0,0,0,0,0,0,0,0,-1,1252,659,0,0
35,365,0,0,0,0,0,0,0,0,0,-1,1259,659,0,0
42,365,0,0,0,0,0,0,0,0,0,-1,1266,659,0,0
49,365,0,0,0,0,0,0,0,0,0,-1,1273,659,0,0
56,365,0,0,0,0,0,0,0,0,0,-1,1280,659,0,0
63,365,0,0,0,0,0,0,0,0,0,-1,1287,659,0,0
70,365,0,0,0,0,0,0,0,0,0,-1,1294,659,0,0
77,365,0,0,0,0,0,0,0,0,0,-1,1301,659,0,0
84,365,0,0,0,0,0,0,0,0,0,-1,1308,659,0,0
91,365,0,0,0,0,0,0,0,0,0,-1,1315,659,0,0
98,365,0,0,0,0,0,0,0,0,0,-1,1322,659,0,0
105,365,0,0,0,0,0,0,0,0,0,-1,1329,659,0,0
112,365,0,0,0,0,0,0,0,0,0,-1,1336,659,0,0
119,365,0,0,0,0,0,0,0,0,0,-1,1343,659,0,0
126,365,0,0,0,0,0,0,0,0,0,-1,1350,659,0,0
133,365,0,0,0,0,0,0,0,0,0,-1,1357,659,0,0
140,365,0,0,0,0,0,0,0,0,0,-1,1364,659,0,0
147,365,0,0,0,0,0,0,0,0,0,-1,1371,659,0,0
154,365,0,0,0,0,0,0,0,0,0,-1,1378,659,0,0
161,365,0,0,0,0,0,0,0,0,0,-1,1385,659,0,0
168,365,0,0,0,0,0,0,0,0,0,-1,1392,659,0,0
175,365,0,0,0,0,0,0,0,0,0,-1,1399,659,0,0
182,365,0,0,0,0,0,0,0,0,0,-1,1406,659,0,0
189,365,0,0,0,0,0,0,0,0,0,-1,1413,659,0,0
196,365,0,0,0,0,0,0,0,0,0,-1,1420,659,0,0
203,365,0,0,0,0,0,0,0,0,0,-1,1427,659,0,0
210,365,0,0,0,0,0,0,0,0,0,-1,1434,659,0,0
217,365,0,0,0,0,0,0,0,0,0,-1,1441,659,0,0
224,365,0,0,0,0,0,0,0,0,0,-1,1448,659,0,0
231,365,0,0,0,0,0,0,0,0,0,-1,1455,659,0,0
238,365,0,0,0,0,0,0,0,0,0,-1,1462,659,0,0
245,365,0,0,0,0,0,0,0,0,0,-1,1469,659,0,0
252,365,0,0,0,0,0,0,0,0,0,-1,1476,659,0,0
259,365,0,0,0,0,0,0,0,0,0,-1,1483,659,0,0
266,365,0,0,0,0,0,0,0,0,0,-1,1490,659,0,0
273,365,0,0,0,0,0,0,0,0,0,-1,1497,659,0,0
280,365,0,0,0,0,0,0,0,0,0,-1,1504,659,0,0
287,365,0,0,0,0,0,0,0,0,0,-1,1511,659,0,0
294,365,0,0,0,0,0,0,0,0,0,-1,1518,659,0,0
301,365,0,0,0,0,0,0,0,0,0,-1,1525,659,0,0
308,365,0,0,0,0,0,0,0,0,0,-1,1532,659,0,0
315,365,0,0,0,0,0,0,0,0,0,-1,1539,659,0,0
322,365,0,0,0,0,0,0,0,0,0,-1,1546,659,0,0
329,365,0,0,0,0,0,0,0,0,0,-1,1553,659,0,0
336,365,0,0,0,0,0,0,0,0,0,-1,1560,659,0,0
343,365,0,0,0,0,0,0,0,0,0,-1,1567,659,0,0
350,365,0,0,0,0,0,0,0,0,0,-1,1574,659,0,0
357,365,0,0,0,0,0,0,0,0,0,-1,1581,659,0,0
364,365,0,0,0,0,0,0,0,0,0,-1,1588,659,0,0
371,365,0,0,0,0,0,0,0,0,0,-1,1595,659,0,0
378,365,0,0,0,0,0,0,0,0,0,-1,1602,659,0,0
385,365,0,0,0,0,0,0,0,0,0,-1,1609,659,0,0
392,365,0,0,0,0,0,0,0,0,0,-1,1616,659,0,0
399,365,0,0,0,0,0,0,0,0,0,-1,1623,659,0,0
406,365,0,0,0,0,0,0,0,0,0,-1,1630,659,0,0
413,365,0,0,0,0,0,0,0,0,0,-1,1637,659,0,0
420,365,0,0,0,0,0,0,0,0,0,-1,1644,659,0,0
427,365,0,0,0,0,0,0,0,0,0,-1,1651,659,0,0
434,365,0,0,0,0,0,0,0,0,0,-1,1658,659,0,0
441,365,0,0,0,0,0,0,0,0,0,-1,1665,659,0,0
448,365,0,0,0,0,0,0,0,0,0,-1,1672,659,0,0
455,365,0,0,0,0,0,0,0,0,0,-1,1679,659,0,0
462,365,0,0,0,0,0,0,0,0,0,-1,1686,659,0,0
469,365,0,0,0,0,0,0,0,0,0,-1,1693,659,0,0
476,365,0,0,0,0,0,0,0,0,0,-1,1700,659,0,0
483,365,0,0,0,0,0,0,0,0,0,-1,1707,659,0,0
490,365,8.39551,0.471252,0,0,0,0,0,0,0,-1,1714,659,8.39551,-0.471241
497,365,9.89233,1.35394,0,0,0,0,0,0,0,-1,1721,659,9.89237,-1.35396
504,365,10.1414,1.18005,0,0,0,0,0,0,0,-1,1728,659,10.1413,-1.18004
511,365,10.5151,0.993896,0,0,0,0,0,0,0,-1,1735,659,10.5152,-0.993894
518,365,11.2029,0.398132,0,0,0,0,0,0,0,-1,1742,659,11.2029,-0.398136
525,365,15.5748,3.85303,0,0,0,0,0,0,0,-1,1749,659,15.5748,-3.85303
532,365,11.2446,1.00629,0,0,0,0,0,0,0,-1,1756,659,11.2446,-1.00631
539,365,12.6301,1.03204,0,0,0,0,0,0,0,-1,1763,659,12.6302,-1.03204
546,365,11.647,0.84198,0,0,0,0,0,0,0,-1,1770,659,11.6469,-0.841955
553,365,12.028,-0.558899,0,0,0,0,0,0,0,-1,1777,659,12.028,0.558873
560,365,14.5372,-4.55548,0,0,0,0,0,0,0,-1,1784,659,14.5373,4.55547
567,365,20.5676,-7.53888,0,0,0,0,0,0,0,-1,1791,659,20.5676,7.53887
574,365,23.0992,-8.30652,0,0,0,0,0,0,0,-1,1798,659,23.0992,8.30655
581,365,22.7181,-8.13263,0,0,0,0,0,0,0,-1,1805,659,22.7182,8.13261
588,365,22.7994,-7.41858,0.00341326,-0.000243266,0.000343796,0.0034453,-0.00027531,0.0929375,0.00239392,0.0224742,1812,659,22.7994,7.41861
595,365,22.8148,-6.73767,0.00262209,0.000213439,0.000427059,0.00269556,0.000139963,0.170386,0.00175225,0.0132279,1819,659,22.8148,6.73767
602,365,22.8002,-6.14526,0.00218651,0.000713371,0.000657518,0.0024373,0.000462589,0.364377,0.00149472,0.0152436,1826,659,22.8002,6.14525
609,365,22.7415,-5.55829,0.00200105,0.00123566,0.000987717,0.00267762,0.000559088,0.600575,0.00163098,0.0158716,1833,659,22.7415,5.55827
616,365,22.7384,-4.96271,0.00199565,0.00179031,0.00136271,0.00325955,0.000526409,0.747797,0.00202055,0.0167142,1840,659,22.7385,4.9627
623,365,22.7537,-4.37201,0.00203885,0.00233881,0.00175063,0.00394587,0.000431786,0.828131,0.00249912,0.0120656,1847,659,22.7537,4.37201
630,365,22.722,-3.79657,0.00201236,0.00282684,0.0020832,0.00454224,0.000296965,0.881925,0.00293418,0.0158557,1854,659,22.722,3.79655
637,365,22.6877,-3.23938,0.0018635,0.00332556,0.00235476,0.00506015,0.000128911,0.935906,0.0033313,0.0216728,1861,659,22.6877,3.23941
644,365,22.6926,-2.63385,0.00153293,0.00389403,0.00259284,0.00556243,-0.000135468,0.999029,0.00375426,0.0223396,1868,659,22.6926,2.63384
651,365,22.8486,-1.9043,0,0,0,0,0,0,0,-1,1875,659,22.8486,1.90431
658,365,21.6173,-1.22028,0,0,0,0,0,0,0,-1,1882,659,21.6173,1.22025
665,365,14.0961,0.769043,0,0,0,0,0,0,0,-1,1889,659,14.0961,-0.769063
672,365,10.0579,2.15088,0,0,0,0,0,0,0,-1,1896,659,10.0579,-2.15088
679,365,10.9718,2.19208,0,0,0,0,0,0,0,-1,1903,659,10.9718,-2.19211
686,365,12.2134,2.17108,0,0,0,0,0,0,0,-1,1910,659,12.2134,-2.17109
693,365,13.7141,1.98279,0,0,0,0,0,0,0,-1,1917,659,13.7141,-1.98278
700,365,0,0,0,0,0,0,0,0,0,-1,1924,659,0,0
707,365,0,0,0,0,0,0,0,0,0,-1,1931,659,0,0
714,365,0,0,0,0,0,0,0,0,0,-1,1938,659,0,0
721,365,0,0,0,0,0,0,0,0,0,-1,1945,659,0,0
728,365,0,0,0,0,0,0,0,0,0,-1,1952,659,0,0
735,365,0,0,0,0,0,0,0,0,0,-1,1959,659,0,0
742,365,0,0,0,0,0,0,0,0,0,-1,1966,659,0,0
749,365,0,0,0,0,0,0,0,0,0,-1,1973,659,0,0
756,365,0,0,0,0,0,0,0,0,0,-1,1980,659,0,0
763,365,0,0,0,0,0,0,0,0,0,-1,1987,659,0,0
770,365,0,0,0,0,0,0,0,0,0,-1,1994,659,0,0
777,365,0,0,0,0,0,0,0,0,0,-1,2001,659,0,0
784,365,0,0,0,0,0,0,0,0,0,-1,2008,659,0,0
791,365,0,0,0,0,0,0,0,0,0,-1,2015,659,0,0
798,365,0,0,0,0,0,0,0,0,0,-1,2022,659,0,0
805,365,0,0,0,0,0,0,0,0,0,-1,2029,659,0,0
812,365,0,0,0,0,0,0,0,0,0,-1,2036,659,0,0
-700,358,0,0,0,0,0,0,0,0,0,-1,524,666,0,0
-693,358,0,0,0,0,0,0,0,0,0,-1,531,666,0,0
-686,358,0,0,0,0,0,0,0,0,0,-1,538,666,0,0
-679,358,0,0,0,0,0,0,0,0,0,-1,545,666,0,0
-672,358,0,0,0,0,0,0,0,0,0,-1,552,666,0,0
-665,358,0,0,0,0,0,0,0,0,0,-1,559,666,0,0
-658,358,0,0,0,0,0,0,0,0,0,-1,566,666,0,0
-651,358,0,0,0,0,0,0,0,0,0,-1,573,666,0,0
-644,358,0,0,0,0,0,0,0,0,0,-1,580,666,0,0
-637,358,0,0,0,0,0,0,0,0,0,-1,587,666,0,0
-630,358,0,0,0,0,0,0,0,0,0,-1,594,666,0,0
-623,358,0,0,0,0,0,0,0,0,0,-1,601,666,0,0
-616,358,0,0,0,0,0,0,0,0,0,-1,608,666,0,0
-609,358,0,0,0,0,0,0,0,0,0,-1,615,666,0,0
-602,358,0,0,0,0,0,0,0,0,0,-1,622,666,0,0
-595,358,0,0,0,0,0,0,0,0,0,-1,629,666,0,0
-588,358,0,0,0,0,0,0,0,0,0,-1,636,666,0,0
-581,358,-8.31616,1.61993,0,0,0,0,0,0,0,-1,643,666,-8.31614,-1.61993
-574,358,-8.22406,1.75385,0,0,0,0,0,0,0,-1,650,666,-8.22408,-1.75383
-567,358,-8.14215,1.91577,0,0,0,0,0,0,0,-1,657,666,-8.14214,-1.91579
-560,358,-10.6086,2.18872,0,0,0,0,0,0,0,-1,664,666,-10.6086,-2.18873
-553,358,-13.4767,1.09552,0,0,0,0,0,0,0,-1,671,666,-13.4767,-1.09551
-546,358,-13.3743,-0.185059,0,0,0,0,0,0,0,-1,678,666,-13.3743,0.185037
-539,358,-9.43884,-2.04785,0,0,0,0,0,0,0,-1,685,666,-9.43884,2.04785
-532,358,-12.4141,-2.36572,0,0,0,0,0,0,0,-1,692,666,-12.4141,2.3657
-525,358,-12.731,-3.88031,0,0,0,0,0,0,0,-1,699,666,-12.731,3.88029
-518,358,-13.2385,-4.28381,0,0,0,0,0,0,0,-1,706,666,-13.2384,4.2838
-511,358,-13.2867,-4.93896,0.00231072,0.0041456,-0.00248859,0.00588048,0.000575841,-0.961998,0.00374316,0.0172086,713,666,-13.2868,4.93896
-504,358,-13.3035,-5.51117,0.00199197,0.0027362,-0.00172214,0.00412597,0.000602206,-0.891801,0.00257351,0.0121605,720,666,-13.3035,5.5112
-497,358,-13.3055,-6.10065,0.00184891,0.00183477,-0.00126934,0.0031112,0.000572478,-0.782612,0.00191209,0.0113666,727,666,-13.3055,6.10068
-490,358,-13.3273,-6.66321,0.00159306,0.000930446,-0.000830671,0.00215605,0.000367449,-0.595644,0.00133189,0.0110864,734,666,-13.3273,6.66323
-483,358,-13.3617,-7.20288,0.001532,0.000669903,-0.000775413,0.00198812,0.000213782,-0.53172,0.00126021,0.0105092,741,666,-13.3617,7.20287
-476,358,-13.3224,-7.72711,0.00157361,0.000557953,-0.000826072,0.00203546,9.60981e-05,-0.509801,0.0013261,0.0127847,748,666,-13.3224,7.72714
-469,358,-13.3668,-8.30121,0.00166503,0.000546723,-0.000940172,0.00219976,1.1995e-05,-0.517129,0.00146252,0.0161076,755,666,-13.3668,8.30118
-462,358,-13.4329,-8.87994,0.00182011,0.000669915,-0.00111271,0.00249755,-7.53207e-06,-0.546883,0.00166755,0.0182195,762,666,-13.4329,8.87995
-455,358,-13.3596,-9.47662,0.00207962,0.000726388,-0.00130338,0.00287155,-6.55373e-05,-0.545983,0.00193658,0.0404598,769,666,-13.3596,9.47661
-448,358,-13.2109,-10.3137,0,0,0,0,0,0,0,-1,776,666,-13.2109,10.3137
-441,358,-5.56293,-3.98041,0,0,0,0,0,0,0,-1,783,666,-5.56291,3.98043
-434,358,-5.21558,-4.43127,0,0,0,0,0,0,0,-1,790,666,-5.21559,4.43125
-427,358,-3.56189,-3.15729,0,0,0,0,0,0,0,-1,797,666,-3.56192,3.15729
-420,358,0.200195,1.08234,0,0,0,0,0,0,0,-1,804,666,0.200174,-1.08231
-413,358,0.0325317,0.161072,0,0,0,0,0,0,0,-1,811,666,0.0325501,-0.161098
-406,358,-3.85846,0.753113,0,0,0,0,0,0,0,-1,818,666,-3.85846,-0.753129
-399,358,-1.31213,0.190735,0,0,0,0,0,0,0,-1,825,666,-1.31215,-0.190763
-392,358,-3.73914,-0.832214,0,0,0,0,0,0,0,-1,832,666,-3.73915,0.832202
-385,358,-5.95178,-1.69141,0,0,0,0,0,0,0,-1,839,666,-5.9518,1.69143
-378,358,0,0,0,0,0,0,0,0,0,-1,846,666,0,0
-371,358,0,0,0,0,0,0,0,0,0,-1,853,666,0,0
-364,358,0,0,0,0,0,0,0,0,0,-1,860,666,0,0
-357,358,0,0,0,0,0,0,0,0,0,-1,867,666,0,0
-350,358,0,0,0,0,0,0,0,0,0,-1,874,666,0,0
-343,358,0,0,0,0,0,0,0,0,0,-1,881,666,0,0
-336,358,0,0,0,0,0,0,0,0,0,-1,888,666,0,0
-329,358,0,0,0,0,0,0,0,0,0,-1,895,666,0,0
-322,358,0,0,0,0,0,0,0,0,0,-1,902,666,0,0
-315,358,0,0,0,0,0,0,0,0,0,-1,909,666,0,0
-308,358,0,0,0,0,0,0,0,0,0,-1,916,666,0,0
-301,358,0,0,0,0,0,0,0,0,0,-1,923,666,0,0
-294,358,0,0,0,0,0,0,0,0,0,-1,930,666,0,0
-287,358,0,0,0,0,0,0,0,0,0,-1,937,666,0,0
-280,358,0,0,0,0,0,0,0,0,0,-1,944,666,0,0
-273,358,0,0,0,0,0,0,0,0,0,-1,951,666,0,0
-266,358,0,0,0,0,0,0,0,0,0,-1,958,666,0,0
-259,358,0,0,0,0,0,0,0,0,0,-1,965,666,0,0
-252,358,0,0,0,0,0,0,0,0,0,-1,972,666,0,0
-245,358,0,0,0,0,0,0,0,0,0,-1,979,666,0,0
-238,358,0,0,0,0,0,0,0,0,0,-1,986,666,0,0
-231,358,0,0,0,0,0,0,0,0,0,-1,993,666,0,0
-224,358,0,0,0,0,0,0,0,0,0,-1,1000,666,0,0
-217,358,0,0,0,0,0,0,0,0,0,-1,1007,666,0,0
-210,358,0,0,0,0,0,0,0,0,0,-1,1014,666,0,0
-203,358,0,0,0,0,0,0,0,0,0,-1,1021,666,0,0
-196,358,0,0,0,0,0,0,0,0,0,-1,1028,666,0,0
-189,358,0,0,0,0,0,0,0,0,0,-1,1035,666,0,0
-182,358,0,0,0,0,0,0,0,0,0,-1,1042,666,0,0
-175,358,0,0,0,0,0,0,0,0,0,-1,1049,666,0,0
-168,358,0,0,0,0,0,0,0,0,0,-1,1056,666,0,0
-161,358,0,0,0,0,0,0,0,0,0,-1,1063,666,0,0
-154,358,0,0,0,0,0,0,0,0,0,-1,1070,666,0,0
-147,358,0,0,0,0,0,0,0,0,0,-1,1077,666,0,0
-140,358,0,0,0,0,0,0,0,0,0,-1,1084,666,0,0
-133,358,0,0,0,0,0,0,0,0,0,-1,1091,666,0,0
-126,358,0,0,0,0,0,0,0,0,0,-1,1098,666,0,0
-119,358,0,0,0,0,0,0,0,0,0,-1,1105,666,0,0
-112,358,0,0,0,0,0,0,0,0,0,-1,1112,666,0,0
-105,358,0,0,0,0,0,0,0,0,0,-1,1119,666,0,0
-98,358,0,0,0,0,0,0,0,0,0,-1,1126,666,0,0
-91,358,0,0,0,0,0,0,0,0,0,-1,1133,666,0,0
-84,358,0,0,0,0,0,0,0,0,0,-1,1140,666,0,0
-77,358,0,0,0,0,0,0,0,0,0,-1,1147,666,0,0
-70,358,0,0,0,0,0,0,0,0,0,-1,1154,666,0,0
-63,358,0,0,0,0,0,0,0,0,0,-1,1161,666,0,0
-56,358,0,0,0,0,0,0,0,0,0,-1,1168,666,0,0
-49,358,0,0,0,0,0,0,0,0,0,-1,1175,666,0,0
-42,358,0,0,0,0,0,0,0,0,0,-1,1182,666,0,0
-35,358,0,0,0,0,0,0,0,0,0,-1,1189,666,0,0
-28,358,0,0,0,0,0,0,0,0,0,-1,1196,666,0,0
-21,358,0,0,0,0,0,0,0,0,0,-1,1203,666,0,0
-14,358,0,0,0,0,0,0,0,0,0,-1,1210,666,0,0
-7,358,0,0,0,0,0,0,0,0,0,-1,1217,666,0,0
0,358,0,0,0,0,0,0,0,0,0,-1,1224,666,0,0
7,358,0,0,0,0,0,0,0,0,0,-1,1231,666,0,0
14,358,0,0,0,0,0,0,0,0,0,-1,1238,666,0,0
21,358,0,0,0,0,0,0,0,0,0,-1,1245,666,0,0
28,358,0,0,0,0,0,0,0,0,0,-1,1252,666,0,0
35,358,0,0,0,0,0,0,0,0,0,-1,1259,666,0,0
42,358,0,0,0,0,0,0,0,0,0,-1,1266,666,0,0
49,358,0,0,0,0,0,0,0,0,0,-1,1273,666,0,0
56,358,0,0,0,0,0,0,0,0,0,-1,1280,666,0,0
63,358,0,0,0,0,0,0,0,0,0,-1,1287,666,0,0
70,358,0,0,0,0,0,0,0,0,0,-1,1294,666,0,0
77,358,0,0,0,0,0,0,0,0,0,-1,1301,666,0,0
84,358,0,0,0,0,0,0,0,0,0,-1,1308,666,0,0
91,358,0,0,0,0,0,0,0,0,0,-1,1315,666,0,0
98,358,0,0,0,0,0,0,0,0,0,-1,1322,666,0,0
105,358,0,0,0,0,0,0,0,0,0,-1,1329,666,0,0
112,358,0,0,0,0,0,0,0,0,0,-1,1336,666,0,0
119,358,0,0,0,0,0,0,0,0,0,-1,1343,666,0,0
126,358,0,0,0,0,0,0,0,0,0,-1,1350,666,0,0
133,358,0,0,0,0,0,0,0,0,0,-1,1357,666,0,0
140,358,0,0,0,0,0,0,0,0,0,-1,1364,666,0,0
147,358,0,0,0,0,0,0,0,0,0,-1,1371,666,0,0
154,358,0,0,0,0,0,0,0,0,0,-1,1378,666,0,0
161,358,0,0,0,0,0,0,0,0,0,-1,1385,666,0,0
168,358,0,0,0,0,0,0,0,0,0,-1,1392,666,0,0
175,358,0,0,0,0,0,0,0,0,0,-1,1399,666,0,0
182,358,0,0,0,0,0,0,0,0,0,-1,1406,666,0,0
189,358,0,0,0,0,0,0,0,0,0,-1,1413,666,0,0
196,358,0,0,0,0,0,0,0,0,0,-1,1420,666,0,0
203,358,0,0,0,0,0,0,0,0,0,-1,1427,666,0,0
210,358,0,0,0,0,0,0,0,0,0,-1,1434,666,0,0
217,358,0,0,0,0,0,0,0,0,0,-1,1441,666,0,0
224,358,0,0,0,0,0,0,0,0,0,-1,1448,666,0,0
231,358,0,0,0,0,0,0,0,0,0,-1,1455,666,0,0
238,358,0,0,0,0,0,0,0,0,0,-1,1462,666,0,0
245,358,0,0,0,0,0,0,0,0,0,-1,1469,666,0,0
252,358,0,0,0,0,0,0,0,0,0,-1,1476,666,0,0
259,358,0,0,0,0,0,0,0,0,0,-1,1483,666,0,0
266,358,0,0,0,0,0,0,0,0,0,-1,1490,666,0,0
273,358,0,0,0,0,0,0,0,0,0,-1,1497,666,0,0
280,358,0,0,0,0,0,0,0,0,0,-1,1504,666,0,0
287,358,0,0,0,0,0,0,0,0,0,-1,1511,666,0,0
294,358,0,0,0,0,0,0,0,0,0,-1,1518,666,0,0
301,358,0,0,0,0,0,0,0,0,0,-1,1525,666,0,0
308,358,0,0,0,0,0,0,0,0,0,-1,1532,666,0,0
315,358,0,0,0,0,0,0,0,0,0,-1,1539,666,0,0
322,358,0,0,0,0,0,0,0,0,0,-1,1546,666,0,0
329,358,0,0,0,0,0,0,0,0,0,-1,1553,666,0,0
336,358,0,0,0,0,0,0,0,0,0,-1,1560,666,0,0
343,358,0,0,0,0,0,0,0,0,0,-1,1567,666,0,0
350,358,0,0,0,0,0,0,0,0,0,-1,1574,666,0,0
357,358,0,0,0,0,0,0,0,0,0,-1,1581,666,0,0
364,358,0,0,0,0,0,0,0,0,0,-1,1588,666,0,0
371,358,0,0,0,0,0,0,0,0,0,-1,1595,666,0,0
378,358,0,0,0,0,0,0,0,0,0,-1,1602,666,0,0
385,358,0,0,0,0,0,0,0,0,0,-1,1609,666,0,0
392,358,0,0,0,0,0,0,0,0,0,-1,1616,666,0,0
399,358,0,0,0,0,0,0,0,0,0,-1,1623,666,0,0
406,358,0,0,0,0,0,0,0,0,0,-1,1630,666,0,0
413,358,0,0,0,0,0,0,0,0,0,-1,1637,666,0,0
420,358,0,0,0,0,0,0,0,0,0,-1,1644,666,0,0
427,358,0,0,0,0,0,0,0,0,0,-1,1651,666,0,0
434,358,0,0,0,0,0,0,0,0,0,-1,1658,666,0,0
441,358,0,0,0,0,0,0,0,0,0,-1,1665,666,0,0
448,358,0,0,0,0,0,0,0,0,0,-1,1672,666,0,0
455,358,0,0,0,0,0,0,0,0,0,-1,1679,666,0,0
462,358,0,0,0,0,0,0,0,0,0,-1,1686,666,0,0
469,358,0,0,0,0,0,0,0,0,0,-1,1693,666,0,0
476,358,0,0,0,0,0,0,0,0,0,-1,1700,666,0,0
483,358,0,0,0,0,0,0,0,0,0,-1,1707,666,0,0
490,358,0,0,0,0,0,0,0,0,0,-1,1714,666,0,0
497,358,8.57239,1.1322,0,0,0,0,0,0,0,-1,1721,666,8.57234,-1.13219
504,358,10.5972,0.832947,0,0,0,0,0,0,0,-1,1728,666,10.5972,-0.832968
511,358,10.6873,0.868469,0,0,0,0,0,0,0,-1,1735,666,10.6872,-0.868484
518,358,16.5884,2.34894,0,0,0,0,0,0,0,-1,1742,666,16.5884,-2.34894
525,358,15.7626,3.65344,0,0,0,0,0,0,0,-1,1749,666,15.7626,-3.65342
532,358,14.9368,4.95789,0,0,0,0,0,0,0,-1,1756,666,14.9367,-4.9579
539,358,15.1597,3.42694,0,0,0,0,0,0,0,-1,1763,666,15.1597,-3.42692
546,358,12.3792,1.53558,0,0,0,0,0,0,0,-1,1770,666,12.3792,-1.5356
553,358,11.6584,1.26172,0,0,0,0,0,0,0,-1,1777,666,11.6585,-1.26175
560,358,10.8234,1.43042,0,0,0,0,0,0,0,-1,1784,666,10.8233,-1.43041
567,358,10.1333,-0.955139,0,0,0,0,0,0,0,-1,1791,666,10.1333,0.955132
574,358,14.7886,-2.69293,0,0,0,0,0,0,0,-1,1798,666,14.7885,2.6929
581,358,20.1738,-6.76135,0,0,0,0,0,0,0,-1,1805,666,20.1738,6.76137
588,358,23.2456,-7.5285,0,0,0,0,0,0,0,-1,1812,666,23.2457,7.52853
595,358,23.3904,-6.71613,0.002918,9.60693e-05,0.000391315,0.00297126,4.28109e-05,0.135269,0.00196673,0.0159496,1819,666,23.3904,6.71615
602,358,23.3527,-6.10852,0.00233301,0.000506055,0.000525978,0.00247362,0.000365448,0.261217,0.00154177,0.0133504,1826,666,23.3526,6.10853
609,358,23.301,-5.53699,0.00205876,0.00093291,0.000779003,0.00245694,0.000534726,0.472524,0.00149201,0.0170845,1833,666,23.301,5.53697
616,358,23.2898,-4.94958,0.0019511,0.00136341,0.00106626,0.00276327,0.000551242,0.650944,0.00168869,0.0156949,1840,666,23.2898,4.94957
623,358,23.3182,-4.36157,0.00183024,0.00180057,0.00133286,0.00314835,0.000482458,0.779835,0.001958,0.0142538,1847,666,23.3182,4.36156
630,358,23.3037,-3.79456,0.00160819,0.00216133,0.00155287,0.00346206,0.000307458,0.873525,0.00221269,0.0179823,1854,666,23.3038,3.79458
637,358,23.2157,-3.24689,0.00121738,0.00251166,0.00167632,0.00366142,6.76191e-05,0.969609,0.00241872,0.024778,1861,666,23.2157,3.2469
644,358,23.2399,-2.65601,0.000635884,0.00286534,0.00172909,0.00380789,-0.000306659,1.07172,0.00264674,0.0191754,1868,666,23.2399,2.656
651,358,23.3704,-1.92596,-0.000371704,0.00318197,0.00163005,0.00381641,-0.00100614,1.19963,0.00293765,0.0351018,1875,666,23.3704,1.92595
658,358,23.1819,-1.23016,0,0,0,0,0,0,0,-1,1882,666,23.1819,1.23014
665,358,22.4215,-0.503967,0,0,0,0,0,0,0,-1,1889,666,22.4215,0.503976
672,358,12.4299,1.47272,0,0,0,0,0,0,0,-1,1896,666,12.4299,-1.4727
679,358,12.1294,2.19702,0,0,0,0,0,0,0,-1,1903,666,12.1294,-2.19703
686,358,11.9557,2.2002,0,0,0,0,0,0,0,-1,1910,666,11.9557,-2.20021
693,358,13.188,2.52203,0,0,0,0,0,0,0,-1,1917,666,13.188,-2.52202
700,358,0,0,0,0,0,0,0,0,0,-1,1924,666,0,0
707,358,0,0,0,0,0,0,0,0,0,-1,1931,666,0,0
714,358,0,0,0,0,0,0,0,0,0,-1,1938,666,0,0
721,358,0,0,0,0,0,0,0,0,0,-1,1945,666,0,0
728,358,0,0,0,0,0,0,0,0,0,-1,1952,666,0,0
735,358,0,0,0,0,0,0,0,0,0,-1,1959,666,0,0
742,358,0,0,0,0,0,0,0,0,0,-1,1966,666,0,0
749,358,0,0,0,0,0,0,0,0,0,-1,1973,666,0,0
756,358,0,0,0,0,0,0,0,0,0,-1,1980,666,0,0
763,358,0,0,0,0,0,0,0,0,0,-1,1987,666,0,0
770,358,0,0,0,0,0,0,0,0,0,-1,1994,666,0,0
777,358,0,0,0,0,0,0,0,0,0,-1,2001,666,0,0
784,358,0,0,0,0,0,0,0,0,0,-1,2008,666,0,0
791,358,0,0,0,0,0,0,0,0,0,-1,2015,666,0,0
798,358,0,0,0,0,0,0,0,0,0,-1,2022,666,0,0
805,358,0,0,0,0,0,0,0,0,0,-1,2029,666,0,0
812,358,0,0,0,0,0,0,0,0,0,-1,2036,666,0,0
-700,351,0,0,0,0,0,0,0,0,0,-1,524,673,0,0
-693,351,0,0,0,0,0,0,0,0,0,-1,531,673,0,0
-686,351,0,0,0,0,0,0,0,0,0,-1,538,673,0,0
-679,351,0,0,0,0,0,0,0,0,0,-1,545,673,0,0
-672,351,0,0,0,0,0,0,0,0,0,-1,552,673,0,0
-665,351,0,0,0,0,0,0,0,0,0,-1,559,673,0,0
-658,351,0,0,0,0,0,0,0,0,0,-1,566,673,0,0
-651,351,0,0,0,0,0,0,0,0,0,-1,573,673,0,0
-644,351,0,0,0,0,0,0,0,0,0,-1,580,673,0,0
-637,351,0,0,0,0,0,0,0,0,0,-1,587,673,0,0
-630,351,0,0,0,0,0,0,0,0,0,-1,594,673,0,0
-623,351,0,0,0,0,0,0,0,0,0,-1,601,673,0,0
-616,351,0,0,0,0,0,0,0,0,0,-1,608,673,0,0
-609,351,0,0,0,0,0,0,0,0,0,-1,615,673,0,0
-602,351,0,0,0,0,0,0,0,0,0,-1,622,673,0,0
-595,351,0,0,0,0,0,0,0,0,0,-1,629,673,0,0
-588,351,0,0,0,0,0,0,0,0,0,-1,636,673,0,0
-581,351,-9.0647,1.71906,0,0,0,0,0,0,0,-1,643,673,-9.06472,-1.71908
-574,351,-8.23584,2.64764,0,0,0,0,0,0,0,-1,650,673,-8.23584,-2.64764
-567,351,-10.8027,4.56836,0,0,0,0,0,0,0,-1,657,673,-10.8027,-4.56839
-560,351,-14.2001,2.17084,0,0,0,0,0,0,0,-1,664,673,-14.2002,-2.17086
-553,351,-13.4979,0.779541,0,0,0,0,0,0,0,-1,671,673,-13.4978,-0.779519
-546,351,-14.0065,0.73645,0,0,0,0,0,0,0,-1,678,673,-14.0065,-0.736473
-539,351,-12.8123,-1.46393,0,0,0,0,0,0,0,-1,685,673,-12.8123,1.46395
-532,351,-13.1417,-3.13611,0,0,0,0,0,0,0,-1,692,673,-13.1416,3.13611
-525,351,-13.935,-3.84381,0,0,0,0,0,0,0,-1,699,673,-13.935,3.84384
-518,351,-13.8552,-4.33405,0.00231217,0.00517324,-0.00290591,0.00698165,0.00050376,-1.01413,0.00449593,0.0192862,706,673,-13.8552,4.33408
-511,351,-13.8228,-4.91504,0.00206976,0.00344086,-0.00201285,0.0048817,0.000628923,-0.94953,0.0030664,0.0123076,713,673,-13.8227,4.91502
-504,351,-13.8483,-5.50464,0.00182974,0.00216459,-0.00135588,0.00336334,0.000630993,-0.846829,0.0020643,0.0117231,720,673,-13.8484,5.50467
-497,351,-13.8633,-6.06653,0.00174399,0.00136157,-0.000978796,0.00255008,0.000555486,-0.688937,0.00154847,0.0119034,727,673,-13.8634,6.06656
-490,351,-13.8839,-6.61902,0.00153702,0.000579662,-0.000624765,0.0018454,0.00027128,-0.458512,0.00115055,0.011267,734,673,-13.8839,6.61899
-483,351,-13.8992,-7.16052,0.00150382,0.000385191,-0.000609814,0.00177198,0.000117036,-0.414282,0.0011443,0.0123597,741,673,-13.8992,7.16051
-476,351,-13.9284,-7.69171,0.00155586,0.000346906,-0.000705681,0.00188056,2.22017e-05,-0.431246,0.00124637,0.0110847,748,673,-13.9284,7.6917
-469,351,-13.951,-8.23529,0.001684,0.00045282,-0.000913932,0.00217033,-3.35081e-05,-0.489018,0.00145818,0.0134733,755,673,-13.951,8.2353
-462,351,-14.0011,-8.86194,0.00194973,0.000727905,-0.00122636,0.00270891,-3.12801e-05,-0.554315,0.00181646,0.0291795,762,673,-14.0011,8.86195
-455,351,-13.9833,-9.46735,0,0,0,0,0,0,0,-1,769,673,-13.9833,9.46734
-448,351,-6.61456,-4.38654,0,0,0,0,0,0,0,-1,776,673,-6.61456,4.38654
-441,351,-4.31567,-2.3009,0,0,0,0,0,0,0,-1,783,673,-4.31565,2.30089
-434,351,-3.81708,-2.28003,0,0,0,0,0,0,0,-1,790,673,-3.81706,2.28006
-427,351,-2.05157,-2.7785,0,0,0,0,0,0,0,-1,797,673,-2.05157,2.77848
-420,351,-1.06989,-2.43665,0,0,0,0,0,0,0,-1,804,673,-1.06991,2.43663
-413,351,-0.392334,-2.06671,0,0,0,0,0,0,0,-1,811,673,-0.392363,2.06672
-406,351,-1.86316,-2.58105,0,0,0,0,0,0,0,-1,818,673,-1.86313,2.58106
-399,351,1.00952,-1.53455,0,0,0,0,0,0,0,-1,825,673,1.00954,1.53457
-392,351,-1.02197,0.877136,0,0,0,0,0,0,0,-1,832,673,-1.02195,-0.877143
-385,351,-1.47205,1.04437,0,0,0,0,0,0,0,-1,839,673,-1.47207,-1.04435
-378,351,0,0,0,0,0,0,0,0,0,-1,846,673,0,0
-371,351,0,0,0,0,0,0,0,0,0,-1,853,673,0,0
-364,351,0,0,0,0,0,0,0,0,0,-1,860,673,0,0
-357,351,0,0,0,0,0,0,0,0,0,-1,867,673,0,0
-350,351,0,0,0,0,0,0,0,0,0,-1,874,673,0,0
-343,351,0,0,0,0,0,0,0,0,0,-1,881,673,0,0
-336,351,0,0,0,0,0,0,0,0,0,-1,888,673,0,0
-329,351,0,0,0,0,0,0,0,0,0,-1,895,673,0,0
-322,351,0,0,0,0,0,0,0,0,0,-1,902,673,0,0
-315,351,0,0,0,0,0,0,0,0,0,-1,909,673,0,0
-308,351,0,0,0,0,0,0,0,0,0,-1,916,673,0,0
-301,351,0,0,0,0,0,0,0,0,0,-1,923,673,0,0
-294,351,0,0,0,0,0,0,0,0,0,-1,930,673,0,0
-287,351,0,0,0,0,0,0,0,0,0,-1,937,673,0,0
-280,351,0,0,0,0,0,0,0,0,0,-1,944,673,0,0
-273,351,0,0,0,0,0,0,0,0,0,-1,951,673,0,0
-266,351,0,0,0,0,0,0,0,0,0,-1,958,673,0,0
-259,351,0,0,0,0,0,0,0,0,0,-1,965,673,0,0
-252,351,0,0,0,0,0,0,0,0,0,-1,972,673,0,0
-245,351,0,0,0,0,0,0,0,0,0,-1,979,673,0,0
-238,351,0,0,0,0,0,0,0,0,0,-1,986,673,0,0
-231,351,0,0,0,0,0,0,0,0,0,-1,993,673,0,0
-224,351,0,0,0,0,0,0,0,0,0,-1,1000,673,0,0
-217,351,0,0,0,0,0,0,0,0,0,-1,1007,673,0,0
-210,351,0,0,0,0,0,0,0,0,0,-1,1014,673,0,0
-203,351,0,0,0,0,0,0,0,0,0,-1,1021,673,0,0
-196,351,0,0,0,0,0,0,0,0,0,-1,1028,673,0,0
-189,351,0,0,0,0,0,0,0,0,0,-1,1035,673,0,0
-182,351,0,0,0,0,0,0,0,0,0,-1,1042,673,0,0
-175,351,0,0,0,0,0,0,0,0,0,-1,1049,673,0,0
-168,351,0,0,0,0,0,0,0,0,0,-1,1056,673,0,0
-161,351,0,0,0,0,0,0,0,0,0,-1,1063,673,0,0
-154,351,0,0,0,0,0,0,0,0,0,-1,1070,673,0,0
-147,351,0,0,0,0,0,0,0,0,0,-1,1077,673,0,0
-140,351,0,0,0,0,0,0,0,0,0,-1,1084,673,0,0
-133,351,0,0,0,0,0,0,0,0,0,-1,1091,673,0,0
-126,351,0,0,0,0,0,0,0,0,0,-1,1098,673,0,0
-119,351,0,0,0,0,0,0,0,0,0,-1,1105,673,0,0
-112,351,0,0,0,0,0,0,0,0,0,-1,1112,673,0,0
-105,351,0,0,0,0,0,0,0,0,0,-1,1119,673,0,0
-98,351,0,0,0,0,0,0,0,0,0,-1,1126,673,0,0
-91,351,0,0,0,0,0,0,0,0,0,-1,1133,673,0,0
-84,351,0,0,0,0,0,0,0,0,0,-1,1140,673,0,0
-77,351,0,0,0,0,0,0,0,0,0,-1,1147,673,0,0
-70,351,0,0,0,0,0,0,0,0,0,-1,1154,673,0,0
-63,351,0,0,0,0,0,0,0,0,0,-1,1161,673,0,0
-56,351,0,0,0,0,0,0,0,0,0,-1,1168,673,0,0
-49,351,0,0,0,0,0,0,0,0,0,-1,1175,673,0,0
-42,351,0,0,0,0,0,0,0,0,0,-1,1182,673,0,0
-35,351,0,0,0,0,0,0,0,0,0,-1,1189,673,0,0
-28,351,0,0,0,0,0,0,0,0,0,-1,1196,673,0,0
-21,351,0,0,0,0,0,0,0,0,0,-1,1203,673,0,0
-14,351,0,0,0,0,0,0,0,0,0,-1,1210,673,0,0
-7,351,0,0,0,0,0,0,0,0,0,-1,1217,673,0,0
0,351,0,0,0,0,0,0,0,0,0,-1,1224,673,0,0
7,351,0,0,0,0,0,0,0,0,0,-1,1231,673,0,0
14,351,0,0,0,0,0,0,0,0,0,-1,1238,673,0,0
21,351,0,0,0,0,0,0,0,0,0,-1,1245,673,0,0
28,351,0,0,0,0,0,0,0,0,0,-1,1252,673,0,0
35,351,0,0,0,0,0,0,0,0,0,-1,1259,673,0,0
42,351,0,0,0,0,0,0,0,0,0,-1,1266,673,0,0
49,351,0,0,0,0,0,0,0,0,0,-1,1273,673,0,0
56,351,0,0,0,0,0,0,0,0,0,-1,1280,673,0,0
63,351,0,0,0,0,0,0,0,0,0,-1,1287,673,0,0
70,351,0,0,0,0,0,0,0,0,0,-1,1294,673,0,0
77,351,0,0,0,0,0,0,0,0,0,-1,1301,673,0,0
84,351,0,0,0,0,0,0,0,0,0,-1,1308,673,0,0
91,351,0,0,0,0,0,0,0,0,0,-1,1315,673,0,0
98,351,0,0,0,0,0,0,0,0,0,-1,1322,673,0,0
105,351,0,0,0,0,0,0,0,0,0,-1,1329,673,0,0
112,351,0,0,0,0,0,0,0,0,0,-1,1336,673,0,0
119,351,0,0,0,0,0,0,0,0,0,-1,1343,673,0,0
126,351,0,0,0,0,0,0,0,0,0,-1,1350,673,0,0
133,351,0,0,0,0,0,0,0,0,0,-1,1357,673,0,0
140,351,0,0,0,0,0,0,0,0,0,-1,1364,673,0,0
147,351,0,0,0,0,0,0,0,0,0,-1,1371,673,0,0
154,351,0,0,0,0,0,0,0,0,0,-1,1378,673,0,0
161,351,0,0,0,0,0,0,0,0,0,-1,1385,673,0,0
168,351,0,0,0,0,0,0,0,0,0,-1,1392,673,0,0
175,351,0,0,0,0,0,0,0,0,0,-1,1399,673,0,0
182,351,0,0,0,0,0,0,0,0,0,-1,1406,673,0,0
189,351,0,0,0,0,0,0,0,0,0,-1,1413,673,0,0
196,351,0,0,0,0,0,0,0,0,0,-1,1420,673,0,0
203,351,0,0,0,0,0,0,0,0,0,-1,1427,673,0,0
210,351,0,0,0,0,0,0,0,0,0,-1,1434,673,0,0
217,351,0,0,0,0,0,0,0,0,0,-1,1441,673,0,0
224,351,0,0,0,0,0,0,0,0,0,-1,1448,673,0,0
231,351,0,0,0,0,0,0,0,0,0,-1,1455,673,0,0
238,351,0,0,0,0,0,0,0,0,0,-1,1462,673,0,0
245,351,0,0,0,0,0,0,0,0,0,-1,1469,673,0,0
252,351,0,0,0,0,0,0,0,0,0,-1,1476,673,0,0
259,351,0,0,0,0,0,0,0,0,0,-1,1483,673,0,0
266,351,0,0,0,0,0,0,0,0,0,-1,1490,673,0,0
273,351,0,0,0,0,0,0,0,0,0,-1,1497,673,0,0
280,351,0,0,0,0,0,0,0,0,0,-1,1504,673,0,0
287,351,0,0,0,0,0,0,0,0,0,-1,1511,673,0,0
294,351,0,0,0,0,0,0,0,0,0,-1,1518,673,0,0
301,351,0,0,0,0,0,0,0,0,0,-1,1525,673,0,0
308,351,0,0,0,0,0,0,0,0,0,-1,1532,673,0,0
315,351,0,0,0,0,0,0,0,0,0,-1,1539,673,0,0
322,351,0,0,0,0,0,0,0,0,0,-1,1546,673,0,0
329,351,0,0,0,0,0,0,0,0,0,-1,1553,673,0,0
336,351,0,0,0,0,0,0,0,0,0,-1,1560,673,0,0
343,351,0,0,0,0,0,0,0,0,0,-1,1567,673,0,0
350,351,0,0,0,0,0,0,0,0,0,-1,1574,673,0,0
357,351,0,0,0,0,0,0,0,0,0,-1,1581,673,0,0
364,351,0,0,0,0,0,0,0,0,0,-1,1588,673,0,0
371,351,0,0,0,0,0,0,0,0,0,-1,1595,673,0,0
378,351,0,0,0,0,0,0,0,0,0,-1,1602,673,0,0
385,351,0,0,0,0,0,0,0,0,0,-1,1609,673,0,0
392,351,0,0,0,0,0,0,0,0,0,-1,1616,673,0,0
399,351,0,0,0,0,0,0,0,0,0,-1,1623,673,0,0
406,351,0,0,0,0,0,0,0,0,0,-1,1630,673,0,0
413,351,0,0,0,0,0,0,0,0,0,-1,1637,673,0,0
420,351,0,0,0,0,0,0,0,0,0,-1,1644,673,0,0
427,351,0,0,0,0,0,0,0,0,0,-1,1651,673,0,0
434,351,0,0,0,0,0,0,0,0,0,-1,1658,673,0,0
441,351,0,0,0,0,0,0,0,0,0,-1,1665,673,0,0
448,351,0,0,0,0,0,0,0,0,0,-1,1672,673,0,0
455,351,0,0,0,0,0,0,0,0,0,-1,1679,673,0,0
462,351,0,0,0,0,0,0,0,0,0,-1,1686,673,0,0
469,351,0,0,0,0,0,0,0,0,0,-1,1693,673,0,0
476,351,0,0,0,0,0,0,0,0,0,-1,1700,673,0,0
483,351,0,0,0,0,0,0,0,0,0,-1,1707,673,0,0
490,351,0,0,0,0,0,0,0,0,0,-1,1714,673,0,0
497,351,0,0,0,0,0,0,0,0,0,-1,1721,673,0,0
504,351,10.8842,1.61615,0,0,0,0,0,0,0,-1,1728,673,10.8842,-1.61618
511,351,15.4548,0.0236816,0,0,0,0,0,0,0,-1,1735,673,15.4549,-0.0236664
518,351,16.7448,2.49268,0,0,0,0,0,0,0,-1,1742,673,16.7448,-2.49269
525,351,16.0701,3.43225,0,0,0,0,0,0,0,-1,1749,673,16.07,-3.43227
532,351,32.3822,3.03021,0,0,0,0,0,0,0,-1,1756,673,32.3822,-3.03019
539,351,15.3387,3.54486,0,0,0,0,0,0,0,-1,1763,673,15.3387,-3.54485
546,351,13.9387,4.59357,0,0,0,0,0,0,0,-1,1770,673,13.9388,-4.59359
553,351,12.0682,2.02832,0,0,0,0,0,0,0,-1,1777,673,12.0683,-2.02831
560,351,12.0173,0.55304,0,0,0,0,0,0,0,-1,1784,673,12.0174,-0.553028
567,351,10.7827,0.130188,0,0,0,0,0,0,0,-1,1791,673,10.7827,-0.130183
574,351,13.405,-1.09204,0,0,0,0,0,0,0,-1,1798,673,13.405,1.09207
581,351,15.2351,-3.06049,0,0,0,0,0,0,0,-1,1805,673,15.2351,3.06046
588,351,23.8507,-7.3562,0,0,0,0,0,0,0,-1,1812,673,23.8507,7.3562
595,351,23.9536,-6.73889,0.00324943,9.65497e-05,0.000556807,0.00334488,1.1056e-06,0.169764,0.00222955,0.0394028,1819,673,23.9536,6.7389
602,351,23.9331,-6.12262,0.00247099,0.000379012,0.000499767,0.00258425,0.000265751,0.222863,0.00164144,0.0202096,1826,673,23.9331,6.12264
609,351,23.9297,-5.55743,0.00211756,0.00069196,0.000634176,0.00235884,0.000450683,0.363547,0.00144594,0.0190923,1833,673,23.9296,5.55745
616,351,23.9131,-4.95551,0.00192778,0.000992779,0.000821539,0.00240552,0.000515036,0.526722,0.00146255,0.0148355,1840,673,23.9131,4.95553
623,351,23.9431,-4.35962,0.00169363,0.00133318,0.00097823,0.0025081,0.000518714,0.694301,0.00152878,0.0157116,1847,673,23.9432,4.35963
630,351,23.91,-3.79022,0.001354,0.00159647,0.00110814,0.00258999,0.000360479,0.839885,0.00161993,0.0245889,1854,673,23.9101,3.79019
637,351,23.8173,-3.20789,0.000819018,0.00185161,0.00113066,0.00257827,9.23496e-05,0.999575,0.00168891,0.0276354,1861,673,23.8173,3.20786
644,351,23.799,-2.61096,8.75751e-05,0.00207562,0.00106663,0.0025396,-0.000376407,1.16049,0.00183147,0.0210295,1868,673,23.7989,2.61097
651,351,23.8481,-1.97351,-0.00103681,0.00229374,0.00086635,0.00250562,-0.00124869,1.33094,0.00220767,0.0163521,1875,673,23.8482,1.9735
658,351,23.8065,-1.35004,-0.00267305,0.00241088,0.000406801,0.00244322,-0.00270539,1.49145,0.00297384,0.0332642,1882,673,23.8065,1.35004
665,351,23.5671,-0.663147,0,0,0,0,0,0,0,-1,1889,673,23.5672,0.663142
672,351,23.0483,-0.175049,0,0,0,0,0,0,0,-1,1896,673,23.0483,0.175055
679,351,14.1252,1.85681,0,0,0,0,0,0,0,-1,1903,673,14.1253,-1.85682
686,351,13.0294,2.1189,0,0,0,0,0,0,0,-1,1910,673,13.0294,-2.11892
693,351,13.5187,2.34595,0,0,0,0,0,0,0,-1,1917,673,13.5187,-2.34596
700,351,14.5629,-2.40173,0,0,0,0,0,0,0,-1,1924,673,14.5629,2.40172
707,351,0,0,0,0,0,0,0,0,0,-1,1931,673,0,0
714,351,0,0,0,0,0,0,0,0,0,-1,1938,673,0,0
721,351,0,0,0,0,0,0,0,0,0,-1,1945,673,0,0
728,351,0,0,0,0,0,0,0,0,0,-1,1952,673,0,0
735,351,0,0,0,0,0,0,0,0,0,-1,1959,673,0,0
742,351,0,0,0,0,0,0,0,0,0,-1,1966,673,0,0
749,351,0,0,0,0,0,0,0,0,0,-1,1973,673,0,0
756,351,0,0,0,0,0,0,0,0,0,-1,1980,673,0,0
763,351,0,0,0,0,0,0,0,0,0,-1,1987,673,0,0
770,351,0,0,0,0,0,0,0,0,0,-1,1994,673,0,0
777,351,0,0,0,0,0,0,0,0,0,-1,2001,673,0,0
784,351,0,0,0,0,0,0,0,0,0,-1,2008,673,0,0
791,351,0,0,0,0,0,0,0,0,0,-1,2015,673,0,0
798,351,0,0,0,0,0,0,0,0,0,-1,2022,673,0,0
805,351,0,0,0,0,0,0,0,0,0,-1,2029,673,0,0
812,351,0,0,0,0,0,0,0,0,0,-1,2036,673,0,0
-700,344,0,0,0,0,0,0,0,0,0,-1,524,680,0,0
-693,344,0,0,0,0,0,0,0,0,0,-1,531,680,0,0
-686,344,0,0,0,0,0,0,0,0,0,-1,538,680,0,0
-679,344,0,0,0,0,0,0,0,0,0,-1,545,680,0,0
-672,344,0,0,0,0,0,0,0,0,0,-1,552,680,0,0
-665,344,0,0,0,0,0,0,0,0,0,-1,559,680,0,0
-658,344,0,0,0,0,0,0,0,0,0,-1,566,680,0,0
-651,344,0,0,0,0,0,0,0,0,0,-1,573,680,0,0
-644,344,0,0,0,0,0,0,0,0,0,-1,580,680,0,0
-637,344,0,0,0,0,0,0,0,0,0,-1,587,680,0,0
-630,344,0,0,0,0,0,0,0,0,0,-1,594,680,0,0
-623,344,0,0,0,0,0,0,0,0,0,-1,601,680,0,0
-616,344,0,0,0,0,0,0,0,0,0,-1,608,680,0,0
-609,344,0,0,0,0,0,0,0,0,0,-1,615,680,0,0
-602,344,0,0,0,0,0,0,0,0,0,-1,622,680,0,0
-595,344,0,0,0,0,0,0,0,0,0,-1,629,680,0,0
-588,344,-9.27826,1.47302,0,0,0,0,0,0,0,-1,636,680,-9.27829,-1.473
-581,344,-10.0098,1.71753,0,0,0,0,0,0,0,-1,643,680,-10.0098,-1.7175
-574,344,-10.2208,3.04871,0,0,0,0,0,0,0,-1,650,680,-10.2208,-3.04869
-567,344,-14.3779,2.29016,0,0,0,0,0,0,0,-1,657,680,-14.3779,-2.29014
-560,344,-14.1238,1.8374,0,0,0,0,0,0,0,-1,664,680,-14.1238,-1.83743
-553,344,-14.7884,2.00116,0,0,0,0,0,0,0,-1,671,680,-14.7884,-2.00115
-546,344,-14.4287,-0.701416,0,0,0,0,0,0,0,-1,678,680,-14.4287,0.701422
-539,344,-14.2459,-2.06067,0,0,0,0,0,0,0,-1,685,680,-14.2459,2.0607
-532,344,-14.3535,-3.0827,0,0,0,0,0,0,0,-1,692,680,-14.3535,3.08268
-525,344,-14.4525,-3.69916,0.00215436,0.00626414,-0.00319439,0.0080075,0.000411,-1.07122,0.00520675,0.0382551,699,680,-14.4525,3.69913
-518,344,-14.4335,-4.35736,0.00200723,0.0042355,-0.00224662,0.00562907,0.000613653,-1.01559,0.00356581,0.0201064,706,680,-14.4336,4.35734
-511,344,-14.423,-4.9314,0.00181852,0.00266981,-0.00149772,0.00380119,0.000687139,-0.923846,0.00233897,0.017523,713,680,-14.423,4.93137
-504,344,-14.4099,-5.50452,0.00164883,0.00149254,-0.000946611,0.00252052,0.000620856,-0.744216,0.00151637,0.0185453,720,680,-14.4098,5.50454
-497,344,-14.4316,-6.0658,0.00159844,0.000752314,-0.000636547,0.00193969,0.000411064,-0.492105,0.00118022,0.0168372,727,680,-14.4316,6.06578
-490,344,-14.4643,-6.61194,0.00143718,0.000118349,-0.000393755,0.0015458,9.7336e-06,-0.269151,0.0010273,0.0152542,734,680,-14.4643,6.61193
-483,344,-14.4499,-7.15094,0.00141046,-2.16788e-05,-0.000426148,0.00152768,-0.00013889,-0.268412,0.00106776,0.0139618,741,680,-14.4499,7.15097
-476,344,-14.4753,-7.68384,0.00143835,9.62846e-06,-0.000583266,0.00164622,-0.000198242,-0.342357,0.00116918,0.0136276,748,680,-14.4753,7.68382
-469,344,-14.5127,-8.25305,0.00158609,0.000275659,-0.000944638,0.00208051,-0.000218755,-0.482184,0.00146537,0.0177301,755,680,-14.5127,8.25305
-462,344,-14.5342,-8.85083,0,0,0,0,0,0,0,-1,762,680,-14.5342,8.85083
-455,344,-12.1653,-7.99176,0,0,0,0,0,0,0,-1,769,680,-12.1653,7.99174
-448,344,-5.67657,-2.72864,0,0,0,0,0,0,0,-1,776,680,-5.6766,2.72863
-441,344,-5.09229,-2.34167,0,0,0,0,0,0,0,-1,783,680,-5.09229,2.34168
-434,344,-4.28778,-2.08807,0,0,0,0,0,0,0,-1,790,680,-4.28778,2.08809
-427,344,-3.06506,-1.45404,0,0,0,0,0,0,0,-1,797,680,-3.06505,1.45402
-420,344,-1.96582,-1.57574,0,0,0,0,0,0,0,-1,804,680,-1.96579,1.57574
-413,344,-0.817993,-1.4751,0,0,0,0,0,0,0,-1,811,680,-0.818017,1.47511
-406,344,-0.00714111,-1.25189,0,0,0,0,0,0,0,-1,818,680,-0.00714956,1.25191
-399,344,0.240051,-1.75769,0,0,0,0,0,0,0,-1,825,680,0.240079,1.75767
-392,344,1.11353,-2.05615,0,0,0,0,0,0,0,-1,832,680,1.11351,2.05616
-385,344,0,0,0,0,0,0,0,0,0,-1,839,680,0,0
-378,344,0,0,0,0,0,0,0,0,0,-1,846,680,0,0
-371,344,0,0,0,0,0,0,0,0,0,-1,853,680,0,0
-364,344,0,0,0,0,0,0,0,0,0,-1,860,680,0,0
-357,344,0,0,0,0,0,0,0,0,0,-1,867,680,0,0
-350,344,0,0,0,0,0,0,0,0,0,-1,874,680,0,0
-343,344,0,0,0,0,0,0,0,0,0,-1,881,680,0,0
-336,344,0,0,0,0,0,0,0,0,0,-1,888,680,0,0
-329,344,0,0,0,0,0,0,0,0,0,-1,895,680,0,0
-322,344,0,0,0,0,0,0,0,0,0,-1,902,680,0,0
-315,344,0,0,0,0,0,0,0,0,0,-1,909,680,0,0
-308,344,0,0,0,0,0,0,0,0,0,-1,916,680,0,0
-301,344,0,0,0,0,0,0,0,0,0,-1,923,680,0,0
-294,344,0,0,0,0,0,0,0,0,0,-1,930,680,0,0
-287,344,0,0,0,0,0,0,0,0,0,-1,937,680,0,0
-280,344,0,0,0,0,0,0,0,0,0,-1,944,680,0,0
-273,344,0,0,0,0,0,0,0,0,0,-1,951,680,0,0
-266,344,0,0,0,0,0,0,0,0,0,-1,958,680,0,0
-259,344,0,0,0,0,0,0,0,0,0,-1,965,680,0,0
-252,344,0,0,0,0,0,0,0,0,0,-1,972,680,0,0
-245,344,0,0,0,0,0,0,0,0,0,-1,979,680,0,0
-238,344,0,0,0,0,0,0,0,0,0,-1,986,680,0,0
-231,344,0,0,0,0,0,0,0,0,0,-1,993,680,0,0
-224,344,0,0,0,0,0,0,0,0,0,-1,1000,680,0,0
-217,344,0,0,0,0,0,0,0,0,0,-1,1007,680,0,0
-210,344,0,0,0,0,0,0,0,0,0,-1,1014,680,0,0
-203,344,0,0,0,0,0,0,0,0,0,-1,1021,680,0,0
-196,344,0,0,0,0,0,0,0,0,0,-1,1028,680,0,0
-189,344,0,0,0,0,0,0,0,0,0,-1,1035,680,0,0
-182,344,0,0,0,0,0,0,0,0,0,-1,1042,680,0,0
-175,344,0,0,0,0,0,0,0,0,0,-1,1049,680,0,0
-168,344,0,0,0,0,0,0,0,0,0,-1,1056,680,0,0
-161,344,0,0,0,0,0,0,0,0,0,-1,1063,680,0,0
-154,344,0,0,0,0,0,0,0,0,0,-1,1070,680,0,0
-147,344,0,0,0,0,0,0,0,0,0,-1,1077,680,0,0
-140,344,0,0,0,0,0,0,0,0,0,-1,1084,680,0,0
-133,344,0,0,0,0,0,0,0,0,0,-1,1091,680,0,0
-126,344,0,0,0,0,0,0,0,0,0,-1,1098,680,0,0
-119,344,0,0,0,0,0,0,0,0,0,-1,1105,680,0,0
-112,344,0,0,0,0,0,0,0,0,0,-1,1112,680,0,0
-105,344,0,0,0,0,0,0,0,0,0,-1,1119,680,0,0
-98,344,0,0,0,0,0,0,0,0,0,-1,1126,680,0,0
-91,344,0,0,0,0,0,0,0,0,0,-1,1133,680,0,0
-84,344,0,0,0,0,0,0,0,0,0,-1,1140,680,0,0
-77,344,0,0,0,0,0,0,0,0,0,-1,1147,680,0,0
-70,344,0,0,0,0,0,0,0,0,0,-1,1154,680,0,0
-63,344,0,0,0,0,0,0,0,0,0,-1,1161,680,0,0
-56,344,0,0,0,0,0,0,0,0,0,-1,1168,680,0,0
-49,344,0,0,0,0,0,0,0,0,0,-1,1175,680,0,0
-42,344,0,0,0,0,0,0,0,0,0,-1,1182,680,0,0
-35,344,0,0,0,0,0,0,0,0,0,-1,1189,680,0,0
-28,344,0,0,0,0,0,0,0,0,0,-1,1196,680,0,0
-21,344,0,0,0,0,0,0,0,0,0,-1,1203,680,0,0
-14,344,0,0,0,0,0,0,0,0,0,-1,1210,680,0,0
-7,344,0,0,0,0,0,0,0,0,0,-1,1217,680,0,0
0,344,0,0,0,0,0,0,0,0,0,-1,1224,680,0,0
7,344,0,0,0,0,0,0,0,0,0,-1,1231,680,0,0
14,344,0,0,0,0,0,0,0,0,0,-1,1238,680,0,0
21,344,0,0,0,0,0,0,0,0,0,-1,1245,680,0,0
28,344,0,0,0,0,0,0,0,0,0,-1,1252,680,0,0
35,344,0,0,0,0,0,0,0,0,0,-1,1259,680,0,0
42,344,0,0,0,0,0,0,0,0,0,-1,1266,680,0,0
49,344,0,0,0,0,0,0,0,0,0,-1,1273,680,0,0
56,344,0,0,0,0,0,0,0,0,0,-1,1280,680,0,0
63,344,0,0,0,0,0,0,0,0,0,-1,1287,680,0,0
70,344,0,0,0,0,0,0,0,0,0,-1,1294,680,0,0
77,344,0,0,0,0,0,0,0,0,0,-1,1301,680,0,0
84,344,0,0,0,0,0,0,0,0,0,-1,1308,680,0,0
91,344,0,0,0,0,0,0,0,0,0,-1,1315,680,0,0
98,344,0,0,0,0,0,0,0,0,0,-1,1322,680,0,0
105,344,0,0,0,0,0,0,0,0,0,-1,1329,680,0,0
112,344,0,0,0,0,0,0,0,0,0,-1,1336,680,0,0
119,344,0,0,0,0,0,0,0,0,0,-1,1343,680,0,0
126,344,0,0,0,0,0,0,0,0,0,-1,1350,680,0,0
133,344,0,0,0,0,0,0,0,0,0,-1,1357,680,0,0
140,344,0,0,0,0,0,0,0,0,0,-1,1364,680,0,0
147,344,0,0,0,0,0,0,0,0,0,-1,1371,680,0,0
154,344,0,0,0,0,0,0,0,0,0,-1,1378,680,0,0
161,344,0,0,0,0,0,0,0,0,0,-1,1385,680,0,0
168,344,0,0,0,0,0,0,0,0,0,-1,1392,680,0,0
175,344,0,0,0,0,0,0,0,0,0,-1,1399,680,0,0
182,344,0,0,0,0,0,0,0,0,0,-1,1406,680,0,0
189,344,0,0,0,0,0,0,0,0,0,-1,1413,680,0,0
196,344,0,0,0,0,0,0,0,0,0,-1,1420,680,0,0
203,344,0,0,0,0,0,0,0,0,0,-1,1427,680,0,0
210,344,0,0,0,0,0,0,0,0,0,-1,1434,680,0,0
217,344,0,0,0,0,0,0,0,0,0,-1,1441,680,0,0
224,344,0,0,0,0,0,0,0,0,0,-1,1448,680,0,0
231,344,0,0,0,0,0,0,0,0,0,-1,1455,680,0,0
238,344,0,0,0,0,0,0,0,0,0,-1,1462,680,0,0
245,344,0,0,0,0,0,0,0,0,0,-1,1469,680,0,0
252,344,0,0,0,0,0,0,0,0,0,-1,1476,680,0,0
259,344,0,0,0,0,0,0,0,0,0,-1,1483,680,0,0
266,344,0,0,0,0,0,0,0,0,0,-1,1490,680,0,0
273,344,0,0,0,0,0,0,0,0,0,-1,1497,680,0,0
280,344,0,0,0,0,0,0,0,0,0,-1,1504,680,0,0
287,344,0,0,0,0,0,0,0,0,0,-1,1511,680,0,0
294,344,0,0,0,0,0,0,0,0,0,-1,1518,680,0,0
301,344,0,0,0,0,0,0,0,0,0,-1,1525,680,0,0
308,344,0,0,0,0,0,0,0,0,0,-1,1532,680,0,0
315,344,0,0,0,0,0,0,0,0,0,-1,1539,680,0,0
322,344,0,0,0,0,0,0,0,0,0,-1,1546,680,0,0
329,344,0,0,0,0,0,0,0,0,0,-1,1553,680,0,0
336,344,0,0,0,0,0,0,0,0,0,-1,1560,680,0,0
343,344,0,0,0,0,0,0,0,0,0,-1,1567,680,0,0
350,344,0,0,0,0,0,0,0,0,0,-1,1574,680,0,0
357,344,0,0,0,0,0,0,0,0,0,-1,1581,680,0,0
364,344,0,0,0,0,0,0,0,0,0,-1,1588,680,0,0
371,344,0,0,0,0,0,0,0,0,0,-1,1595,680,0,0
378,344,0,0,0,0,0,0,0,0,0,-1,1602,680,0,0
385,344,0,0,0,0,0,0,0,0,0,-1,1609,680,0,0
392,344,0,0,0,0,0,0,0,0,0,-1,1616,680,0,0
399,344,0,0,0,0,0,0,0,0,0,-1,1623,680,0,0
406,344,0,0,0,0,0,0,0,0,0,-1,1630,680,0,0
413,344,0,0,0,0,0,0,0,0,0,-1,1637,680,0,0
420,344,0,0,0,0,0,0,0,0,0,-1,1644,680,0,0
427,344,0,0,0,0,0,0,0,0,0,-1,1651,680,0,0
434,344,0,0,0,0,0,0,0,0,0,-1,1658,680,0,0
441,344,0,0,0,0,0,0,0,0,0,-1,1665,680,0,0
448,344,0,0,0,0,0,0,0,0,0,-1,1672,680,0,0
455,344,0,0,0,0,0,0,0,0,0,-1,1679,680,0,0
462,344,0,0,0,0,0,0,0,0,0,-1,1686,680,0,0
469,344,0,0,0,0,0,0,0,0,0,-1,1693,680,0,0
476,344,0,0,0,0,0,0,0,0,0,-1,1700,680,0,0
483,344,0,0,0,0,0,0,0,0,0,-1,1707,680,0,0
490,344,0,0,0,0,0,0,0,0,0,-1,1714,680,0,0
497,344,0,0,0,0,0,0,0,0,0,-1,1721,680,0,0
504,344,0,0,0,0,0,0,0,0,0,-1,1728,680,0,0
511,344,15.4819,0.452637,0,0,0,0,0,0,0,-1,1735,680,15.4819,-0.452656
518,344,17.1357,2.31207,0,0,0,0,0,0,0,-1,1742,680,17.1358,-2.31207
525,344,31.5201,2.6217,0,0,0,0,0,0,0,-1,1749,680,31.5201,-2.62168
532,344,31.9766,2.61047,0,0,0,0,0,0,0,-1,1756,680,31.9765,-2.6105
539,344,32.4379,2.65314,0,0,0,0,0,0,0,-1,1763,680,32.4378,-2.65316
546,344,14.6722,4.30243,0,0,0,0,0,0,0,-1,1770,680,14.6722,-4.30241
553,344,14.8136,4.35681,0,0,0,0,0,0,0,-1,1777,680,14.8136,-4.35679
560,344,11.9363,2.14185,0,0,0,0,0,0,0,-1,1784,680,11.9362,-2.14182
567,344,11.397,0.925842,0,0,0,0,0,0,0,-1,1791,680,11.397,-0.92583
574,344,10.0004,0.504639,0,0,0,0,0,0,0,-1,1798,680,10.0004,-0.504645
581,344,13.6709,-0.969604,0,0,0,0,0,0,0,-1,1805,680,13.6709,0.969629
588,344,16.1447,-3.15948,0,0,0,0,0,0,0,-1,1812,680,16.1447,3.15946
595,344,24.4672,-6.73389,0,0,0,0,0,0,0,-1,1819,680,24.4672,6.73391
602,344,24.5378,-6.10522,0.00250563,0.000440255,0.000493262,0.00261739,0.000328499,0.222804,0.00164638,0.0453522,1826,680,24.5378,6.10525
609,344,24.5564,-5.5036,0.00216323,0.000633166,0.000570638,0.00235261,0.000443786,0.320437,0.0014434,0.0157135,1833,680,24.5564,5.50359
616,344,24.5238,-4.90332,0.00194539,0.000804761,0.000710196,0.00228592,0.000464232,0.447102,0.00139519,0.0219818,1840,680,24.5238,4.90329
623,344,24.5607,-4.34979,0.00166227,0.00104672,0.000802559,0.00221404,0.000494942,0.602302,0.00134183,0.020167,1847,680,24.5606,4.34979
630,344,24.5126,-3.76068,0.00127607,0.00120865,0.000877564,0.00212057,0.000364151,0.766202,0.00130932,0.0247669,1854,680,24.5126,3.76071
637,344,24.4468,-3.16345,0.000649761,0.0013698,0.000833125,0.00191737,0.000102194,0.989345,0.00124558,0.0229703,1861,680,24.4467,3.16343
644,344,24.4232,-2.57709,-0.000174944,0.00148393,0.000691667,0.00173448,-0.000425492,1.22326,0.00132119,0.0170531,1868,680,24.4232,2.57706
651,344,24.4253,-1.97638,-0.00135729,0.00161468,0.000428686,0.00167528,-0.00141789,1.43037,0.0017879,0.0122085,1875,680,24.4253,1.97639
658,344,24.4209,-1.30536,-0.0030117,0.0016815,-4.13171e-05,0.00168186,-0.00301206,-1.56199,0.00274607,0.0233745,1882,680,24.4209,1.30537
665,344,24.277,-0.771912,-0.00529704,0.00169701,-0.000730733,0.00177254,-0.00537257,-1.4678,0.00429623,0.0368291,1889,680,24.2769,0.771887
672,344,24.2748,-0.266663,0,0,0,0,0,0,0,-1,1896,680,24.2748,0.26669
679,344,24.3424,-0.113159,0,0,0,0,0,0,0,-1,1903,680,24.3425,0.113166
686,344,15.024,1.82709,0,0,0,0,0,0,0,-1,1910,680,15.024,-1.82706
693,344,12.4362,-1.42346,0,0,0,0,0,0,0,-1,1917,680,12.4361,1.42348
700,344,17.5396,2.61206,0,0,0,0,0,0,0,-1,1924,680,17.5396,-2.61204
707,344,18.5829,3.29352,0,0,0,0,0,0,0,-1,1931,680,18.5828,-3.2935
714,344,0,0,0,0,0,0,0,0,0,-1,1938,680,0,0
721,344,0,0,0,0,0,0,0,0,0,-1,1945,680,0,0
728,344,0,0,0,0,0,0,0,0,0,-1,1952,680,0,0
735,344,0,0,0,0,0,0,0,0,0,-1,1959,680,0,0
742,344,0,0,0,0,0,0,0,0,0,-1,1966,680,0,0
749,344,0,0,0,0,0,0,0,0,0,-1,1973,680,0,0
756,344,0,0,0,0,0,0,0,0,0,-1,1980,680,0,0
763,344,0,0,0,0,0,0,0,0,0,-1,1987,680,0,0
770,344,0,0,0,0,0,0,0,0,0,-1,1994,680,0,0
777,344,0,0,0,0,0,0,0,0,0,-1,2001,680,0,0
784,344,0,0,0,0,0,0,0,0,0,-1,2008,680,0,0
791,344,0,0,0,0,0,0,0,0,0,-1,2015,680,0,0
798,344,0,0,0,0,0,0,0,0,0,-1,2022,680,0,0
805,344,0,0,0,0,0,0,0,0,0,-1,2029,680,0,0
812,344,0,0,0,0,0,0,0,0,0,-1,2036,680,0,0
-700,337,0,0,0,0,0,0,0,0,0,-1,524,687,0,0
-693,337,0,0,0,0,0,0,0,0,0,-1,531,687,0,0
-686,337,0,0,0,0,0,0,0,0,0,-1,538,687,0,0
-679,337,0,0,0,0,0,0,0,0,0,-1,545,687,0,0
-672,337,0,0,0,0,0,0,0,0,0,-1,552,687,0,0
-665,337,0,0,0,0,0,0,0,0,0,-1,559,687,0,0
-658,337,0,0,0,0,0,0,0,0,0,-1,566,687,0,0
-651,337,0,0,0,0,0,0,0,0,0,-1,573,687,0,0
-644,337,0,0,0,0,0,0,0,0,0,-1,580,687,0,0
-637,337,0,0,0,0,0,0,0,0,0,-1,587,687,0,0
-630,337,0,0,0,0,0,0,0,0,0,-1,594,687,0,0
-623,337,0,0,0,0,0,0,0,0,0,-1,601,687,0,0
-616,337,0,0,0,0,0,0,0,0,0,-1,608,687,0,0
-609,337,0,0,0,0,0,0,0,0,0,-1,615,687,0,0
-602,337,0,0,0,0,0,0,0,0,0,-1,622,687,0,0
-595,337,0,0,0,0,0,0,0,0,0,-1,629,687,0,0
-588,337,-10.8413,1.27863,0,0,0,0,0,0,0,-1,636,687,-10.8413,-1.27861
-581,337,-11.2157,1.31567,0,0,0,0,0,0,0,-1,643,687,-11.2157,-1.3157
-574,337,-6.03339,2.0321,0,0,0,0,0,0,0,-1,650,687,-6.03337,-2.03213
-567,337,-13.8102,1.56787,0,0,0,0,0,0,0,-1,657,687,-13.8102,-1.56789
-560,337,-15.5435,2.34247,0,0,0,0,0,0,0,-1,664,687,-15.5435,-2.34247
-553,337,-14.9598,0.0701294,0,0,0,0,0,0,0,-1,671,687,-14.9598,-0.0701294
-546,337,-14.8851,-1.15588,0.00141784,0.0121436,-0.00559148,0.0145283,-0.000966863,-1.16766,0.0100234,0.0488576,678,687,-14.8851,1.15588
-539,337,-14.7704,-2.36829,0,0,0,0,0,0,0,-1,685,687,-14.7704,2.36831
-532,337,-14.8734,-3.19031,0.00152131,0.00669219,-0.00317732,0.00820307,1.04299e-05,-1.12692,0.00546524,0.0285345,692,687,-14.8733,3.19028
-525,337,-14.9846,-3.76782,0.00155137,0.0046319,-0.00228206,0.00584486,0.000338415,-1.08225,0.00378881,0.0175085,699,687,-14.9846,3.76782
-518,337,-15.006,-4.37006,0.00152149,0.00298608,-0.00152766,0.00394789,0.000559679,-1.0089,0.00246662,0.0235477,706,687,-15.006,4.37008
-511,337,-15.0045,-4.92468,0.00145905,0.00169427,-0.000918917,0.00250308,0.00065025,-0.849046,0.00149972,0.0244529,713,687,-15.0045,4.92467
-504,337,-14.9942,-5.49957,0.00138222,0.000715075,-0.000455202,0.00161299,0.000484307,-0.469197,0.000955709,0.0246537,720,687,-14.9942,5.4996
-497,337,-14.9918,-6.04401,0.00137265,0.000118237,-0.000192984,0.00140167,8.92185e-05,-0.149247,0.000906172,0.017935,727,687,-14.9917,6.04399
-490,337,-15.0284,-6.5921,0.00129946,-0.000238289,-7.09939e-05,0.00130273,-0.00024156,-0.0460368,0.000959202,0.0157831,734,687,-15.0284,6.59209
-483,337,-15.0236,-7.16248,0.00132222,-0.000224929,-0.000158484,0.00133828,-0.000240996,-0.101038,0.000982423,0.0144984,741,687,-15.0236,7.16248
-476,337,-15.0225,-7.73022,0.00136963,-1.7937e-05,-0.00041247,0.00148298,-0.000131289,-0.268192,0.00103519,0.0146923,748,687,-15.0225,7.73024
-469,337,-15.0405,-8.3028,0,0,0,0,0,0,0,-1,755,687,-15.0405,8.3028
-462,337,-14.186,-8.89264,0,0,0,0,0,0,0,-1,762,687,-14.186,8.89266
-455,337,-6.00574,-3.12933,0,0,0,0,0,0,0,-1,769,687,-6.00576,3.12934
-448,337,-5.30627,-2.07202,0,0,0,0,0,0,0,-1,776,687,-5.30628,2.07205
-441,337,-4.24762,-1.49597,0,0,0,0,0,0,0,-1,783,687,-4.24762,1.49598
-434,337,-6.86908,1.37531,0,0,0,0,0,0,0,-1,790,687,-6.86908,-1.3753
-427,337,-9.92004,2.487,0,0,0,0,0,0,0,-1,797,687,-9.92002,-2.48701
-420,337,-2.95996,-1.76697,0,0,0,0,0,0,0,-1,804,687,-2.95998,1.76696
-413,337,-1.29169,-1.99487,0,0,0,0,0,0,0,-1,811,687,-1.29171,1.9949
-406,337,-1.02356,-1.89563,0,0,0,0,0,0,0,-1,818,687,-1.02357,1.89564
-399,337,-0.472839,-2.21338,0,0,0,0,0,0,0,-1,825,687,-0.472837,2.2134
-392,337,0,0,0,0,0,0,0,0,0,-1,832,687,0,0
-385,337,0,0,0,0,0,0,0,0,0,-1,839,687,0,0
-378,337,0,0,0,0,0,0,0,0,0,-1,846,687,0,0
-371,337,0,0,0,0,0,0,0,0,0,-1,853,687,0,0
-364,337,0,0,0,0,0,0,0,0,0,-1,860,687,0,0
-357,337,0,0,0,0,0,0,0,0,0,-1,867,687,0,0
-350,337,0,0,0,0,0,0,0,0,0,-1,874,687,0,0
-343,337,0,0,0,0,0,0,0,0,0,-1,881,687,0,0
-336,337,0,0,0,0,0,0,0,0,0,-1,888,687,0,0
-329,337,0,0,0,0,0,0,0,0,0,-1,895,687,0,0
-322,337,0,0,0,0,0,0,0,0,0,-1,902,687,0,0
-315,337,0,0,0,0,0,0,0,0,0,-1,909,687,0,0
-308,337,0,0,0,0,0,0,0,0,0,-1,916,687,0,0
-301,337,0,0,0,0,0,0,0,0,0,-1,923,687,0,0
-294,337,0,0,0,0,0,0,0,0,0,-1,930,687,0,0
-287,337,0,0,0,0,0,0,0,0,0,-1,937,687,0,0
-280,337,0,0,0,0,0,0,0,0,0,-1,944,687,0,0
-273,337,0,0,0,0,0,0,0,0,0,-1,951,687,0,0
-266,337,0,0,0,0,0,0,0,0,0,-1,958,687,0,0
-259,337,0,0,0,0,0,0,0,0,0,-1,965,687,0,0
-252,337,0,0,0,0,0,0,0,0,0,-1,972,687,0,0
-245,337,0,0,0,0,0,0,0,0,0,-1,979,687,0,0
-238,337,0,0,0,0,0,0,0,0,0,-1,986,687,0,0
-231,337,0,0,0,0,0,0,0,0,0,-1,993,687,0,0
-224,337,0,0,0,0,0,0,0,0,0,-1,1000,687,0,0
-217,337,0,0,0,0,0,0,0,0,0,-1,1007,687,0,0
-210,337,0,0,0,0,0,0,0,0,0,-1,1014,687,0,0
-203,337,0,0,0,0,0,0,0,0,0,-1,1021,687,0,0
-196,337,0,0,0,0,0,0,0,0,0,-1,1028,687,0,0
-189,337,0,0,0,0,0,0,0,0,0,-1,1035,687,0,0
-182,337,0,0,0,0,0,0,0,0,0,-1,1042,687,0,0
-175,337,0,0,0,0,0,0,0,0,0,-1,1049,687,0,0
-168,337,0,0,0,0,0,0,0,0,0,-1,1056,687,0,0
-161,337,0,0,0,0,0,0,0,0,0,-1,1063,687,0,0
-154,337,0,0,0,0,0,0,0,0,0,-1,1070,687,0,0
-147,337,0,0,0,0,0,0,0,0,0,-1,1077,687,0,0
-140,337,0,0,0,0,0,0,0,0,0,-1,1084,687,0,0
-133,337,0,0,0,0,0,0,0,0,0,-1,1091,687,0,0
-126,337,0,0,0,0,0,0,0,0,0,-1,1098,687,0,0
-119,337,0,0,0,0,0,0,0,0,0,-1,1105,687,0,0
-112,337,0,0,0,0,0,0,0,0,0,-1,1112,687,0,0
-105,337,0,0,0,0,0,0,0,0,0,-1,1119,687,0,0
-98,337,0,0,0,0,0,0,0,0,0,-1,1126,687,0,0
-91,337,0,0,0,0,0,0,0,0,0,-1,1133,687,0,0
-84,337,0,0,0,0,0,0,0,0,0,-1,1140,687,0,0
-77,337,0,0,0,0,0,0,0,0,0,-1,1147,687,0,0
-70,337,0,0,0,0,0,0,0,0,0,-1,1154,687,0,0
-63,337,0,0,0,0,0,0,0,0,0,-1,1161,687,0,0
-56,337,0,0,0,0,0,0,0,0,0,-1,1168,687,0,0
-49,337,0,0,0,0,0,0,0,0,0,-1,1175,687,0,0
-42,337,0,0,0,0,0,0,0,0,0,-1,1182,687,0,0
-35,337,0,0,0,0,0,0,0,0,0,-1,1189,687,0,0
-28,337,0,0,0,0,0,0,0,0,0,-1,1196,687,0,0
-21,337,0,0,0,0,0,0,0,0,0,-1,1203,687,0,0
-14,337,0,0,0,0,0,0,0,0,0,-1,1210,687,0,0
-7,337,0,0,0,0,0,0,0,0,0,-1,1217,687,0,0
0,337,0,0,0,0,0,0,0,0,0,-1,1224,687,0,0
7,337,0,0,0,0,0,0,0,0,0,-1,1231,687,0,0
14,337,0,0,0,0,0,0,0,0,0,-1,1238,687,0,0
21,337,0,0,0,0,0,0,0,0,0,-1,1245,687,0,0
28,337,0,0,0,0,0,0,0,0,0,-1,1252,687,0,0
35,337,0,0,0,0,0,0,0,0,0,-1,1259,687,0,0
42,337,0,0,0,0,0,0,0,0,0,-1,1266,687,0,0
49,337,0,0,0,0,0,0,0,0,0,-1,1273,687,0,0
56,337,0,0,0,0,0,0,0,0,0,-1,1280,687,0,0
63,337,0,0,0,0,0,0,0,0,0,-1,1287,687,0,0
70,337,0,0,0,0,0,0,0,0,0,-1,1294,687,0,0
77,337,0,0,0,0,0,0,0,0,0,-1,1301,687,0,0
84,337,0,0,0,0,0,0,0,0,0,-1,1308,687,0,0
91,337,0,0,0,0,0,0,0,0,0,-1,1315,687,0,0
98,337,0,0,0,0,0,0,0,0,0,-1,1322,687,0,0
105,337,0,0,0,0,0,0,0,0,0,-1,1329,687,0,0
112,337,0,0,0,0,0,0,0,0,0,-1,1336,687,0,0
119,337,0,0,0,0,0,0,0,0,0,-1,1343,687,0,0
126,337,0,0,0,0,0,0,0,0,0,-1,1350,687,0,0
133,337,0,0,0,0,0,0,0,0,0,-1,1357,687,0,0
140,337,0,0,0,0,0,0,0,0,0,-1,1364,687,0,0
147,337,0,0,0,0,0,0,0,0,0,-1,1371,687,0,0
154,337,0,0,0,0,0,0,0,0,0,-1,1378,687,0,0
161,337,0,0,0,0,0,0,0,0,0,-1,1385,687,0,0
168,337,0,0,0,0,0,0,0,0,0,-1,1392,687,0,0
175,337,0,0,0,0,0,0,0,0,0,-1,1399,687,0,0
182,337,0,0,0,0,0,0,0,0,0,-1,1406,687,0,0
189,337,0,0,0,0,0,0,0,0,0,-1,1413,687,0,0
196,337,0,0,0,0,0,0,0,0,0,-1,1420,687,0,0
203,337,0,0,0,0,0,0,0,0,0,-1,1427,687,0,0
210,337,0,0,0,0,0,0,0,0,0,-1,1434,687,0,0
217,337,0,0,0,0,0,0,0,0,0,-1,1441,687,0,0
224,337,0,0,0,0,0,0,0,0,0,-1,1448,687,0,0
231,337,0,0,0,0,0,0,0,0,0,-1,1455,687,0,0
238,337,0,0,0,0,0,0,0,0,0,-1,1462,687,0,0
245,337,0,0,0,0,0,0,0,0,0,-1,1469,687,0,0
252,337,0,0,0,0,0,0,0,0,0,-1,1476,687,0,0
259,337,0,0,0,0,0,0,0,0,0,-1,1483,687,0,0
266,337,0,0,0,0,0,0,0,0,0,-1,1490,687,0,0
273,337,0,0,0,0,0,0,0,0,0,-1,1497,687,0,0
280,337,0,0,0,0,0,0,0,0,0,-1,1504,687,0,0
287,337,0,0,0,0,0,0,0,0,0,-1,1511,687,0,0
294,337,0,0,0,0,0,0,0,0,0,-1,1518,687,0,0
301,337,0,0,0,0,0,0,0,0,0,-1,1525,687,0,0
308,337,0,0,0,0,0,0,0,0,0,-1,1532,687,0,0
315,337,0,0,0,0,0,0,0,0,0,-1,1539,687,0,0
322,337,0,0,0,0,0,0,0,0,0,-1,1546,687,0,0
329,337,0,0,0,0,0,0,0,0,0,-1,1553,687,0,0
336,337,0,0,0,0,0,0,0,0,0,-1,1560,687,0,0
343,337,0,0,0,0,0,0,0,0,0,-1,1567,687,0,0
350,337,0,0,0,0,0,0,0,0,0,-1,1574,687,0,0
357,337,0,0,0,0,0,0,0,0,0,-1,1581,687,0,0
364,337,0,0,0,0,0,0,0,0,0,-1,1588,687,0,0
371,337,0,0,0,0,0,0,0,0,0,-1,1595,687,0,0
378,337,0,0,0,0,0,0,0,0,0,-1,1602,687,0,0
385,337,0,0,0,0,0,0,0,0,0,-1,1609,687,0,0
392,337,0,0,0,0,0,0,0,0,0,-1,1616,687,0,0
399,337,0,0,0,0,0,0,0,0,0,-1,1623,687,0,0
406,337,0,0,0,0,0,0,0,0,0,-1,1630,687,0,0
413,337,0,0,0,0,0,0,0,0,0,-1,1637,687,0,0
420,337,0,0,0,0,0,0,0,0,0,-1,1644,687,0,0
427,337,0,0,0,0,0,0,0,0,0,-1,1651,687,0,0
434,337,0,0,0,0,0,0,0,0,0,-1,1658,687,0,0
441,337,0,0,0,0,0,0,0,0,0,-1,1665,687,0,0
448,337,0,0,0,0,0,0,0,0,0,-1,1672,687,0,0
455,337,0,0,0,0,0,0,0,0,0,-1,1679,687,0,0
462,337,0,0,0,0,0,0,0,0,0,-1,1686,687,0,0
469,337,0,0,0,0,0,0,0,0,0,-1,1693,687,0,0
476,337,0,0,0,0,0,0,0,0,0,-1,1700,687,0,0
483,337,0,0,0,0,0,0,0,0,0,-1,1707,687,0,0
490,337,0,0,0,0,0,0,0,0,0,-1,1714,687,0,0
497,337,0,0,0,0,0,0,0,0,0,-1,1721,687,0,0
504,337,0,0,0,0,0,0,0,0,0,-1,1728,687,0,0
511,337,0,0,0,0,0,0,0,0,0,-1,1735,687,0,0
518,337,18.0369,1.64581,0,0,0,0,0,0,0,-1,1742,687,18.0368,-1.64581
525,337,31.0717,2.13745,0,0,0,0,0,0,0,-1,1749,687,31.0717,-2.13747
532,337,31.5126,2.13904,0,0,0,0,0,0,0,-1,1756,687,31.5125,-2.13905
539,337,31.9684,2.15594,0,0,0,0,0,0,0,-1,1763,687,31.9684,-2.15596
546,337,32.3584,1.43719,0,0,0,0,0,0,0,-1,1770,687,32.3585,-1.43722
553,337,32.1809,1.36395,0,0,0,0,0,0,0,-1,1777,687,32.181,-1.36396
560,337,18.4053,3.62793,0,0,0,0,0,0,0,-1,1784,687,18.4052,-3.6279
567,337,11.9288,1.38776,0,0,0,0,0,0,0,-1,1791,687,11.9288,-1.38777
574,337,10.704,1.19476,0,0,0,0,0,0,0,-1,1798,687,10.704,-1.19478
581,337,8.50427,0.561768,0,0,0,0,0,0,0,-1,1805,687,8.5043,-0.561754
588,337,8.5885,-0.0536499,0,0,0,0,0,0,0,-1,1812,687,8.58844,0.0536788
595,337,13.8816,-1.70703,0,0,0,0,0,0,0,-1,1819,687,13.8816,1.70702
602,337,25.1035,-6.1145,0,0,0,0,0,0,0,-1,1826,687,25.1035,6.11449
609,337,25.1215,-5.43164,0.00235411,0.000661414,0.000605727,0.00254853,0.000466988,0.310591,0.00156673,0.0264633,1833,687,25.1215,5.43166
616,337,25.0992,-4.87366,0.00205211,0.000689192,0.000700327,0.00234781,0.000393489,0.399527,0.00145193,0.0172794,1840,687,25.0992,4.87364
623,337,25.0995,-4.32202,0.00170766,0.000832104,0.000734243,0.00212473,0.000415036,0.516576,0.00130041,0.0152141,1847,687,25.0995,4.322
630,337,25.0723,-3.73804,0.00129161,0.000905484,0.000758657,0.00188138,0.000315709,0.660804,0.00116339,0.0191585,1854,687,25.0723,3.73806
637,337,25.0553,-3.13409,0.000598786,0.00100036,0.000658284,0.0014878,0.000111346,0.933423,0.00095691,0.0166331,1861,687,25.0552,3.13407
644,337,25.0239,-2.53186,-0.000289804,0.00106492,0.000472286,0.00121332,-0.000438198,1.26636,0.000987889,0.0109853,1868,687,25.0239,2.53188
651,337,24.9984,-1.96381,-0.00149471,0.00121281,0.000204524,0.00122817,-0.00151007,1.49582,0.00158371,0.0101724,1875,687,24.9985,1.9638
658,337,24.9894,-1.36853,-0.00311791,0.00132101,-0.000222996,0.00133219,-0.00312908,-1.52073,0.00264444,0.0123302,1882,687,24.9894,1.36854
665,337,24.9885,-0.791443,-0.00527783,0.00143138,-0.000819087,0.00152993,-0.00537638,-1.45106,0.00418843,0.015236,1889,687,24.9885,0.791439
672,337,24.9299,-0.286133,-0.00819948,0.00152101,-0.001749,0.00182613,-0.00850459,-1.39808,0.00636635,0.0314249,1896,687,24.93,0.286142
679,337,24.6062,0.395691,0,0,0,0,0,0,0,-1,1903,687,24.6062,-0.395713
686,337,18.5614,1.68597,0,0,0,0,0,0,0,-1,1910,687,18.5614,-1.68598
693,337,16.5415,2.21411,0,0,0,0,0,0,0,-1,1917,687,16.5415,-2.2141
700,337,17.2661,2.44379,0,0,0,0,0,0,0,-1,1924,687,17.2661,-2.44378
707,337,17.3544,5.61853,0,0,0,0,0,0,0,-1,1931,687,17.3543,-5.61851
714,337,0,0,0,0,0,0,0,0,0,-1,1938,687,0,0
721,337,0,0,0,0,0,0,0,0,0,-1,1945,687,0,0
728,337,0,0,0,0,0,0,0,0,0,-1,1952,687,0,0
735,337,0,0,0,0,0,0,0,0,0,-1,1959,687,0,0
742,337,0,0,0,0,0,0,0,0,0,-1,1966,687,0,0
749,337,0,0,0,0,0,0,0,0,0,-1,1973,687,0,0
756,337,0,0,0,0,0,0,0,0,0,-1,1980,687,0,0
763,337,0,0,0,0,0,0,0,0,0,-1,1987,687,0,0
770,337,0,0,0,0,0,0,0,0,0,-1,1994,687,0,0
777,337,0,0,0,0,0,0,0,0,0,-1,2001,687,0,0
784,337,0,0,0,0,0,0,0,0,0,-1,2008,687,0,0
791,337,0,0,0,0,0,0,0,0,0,-1,2015,687,0,0
798,337,0,0,0,0,0,0,0,0,0,-1,2022,687,0,0
805,337,0,0,0,0,0,0,0,0,0,-1,2029,687,0,0
812,337,0,0,0,0,0,0,0,0,0,-1,2036,687,0,0
-700,330,0,0,0,0,0,0,0,0,0,-1,524,694,0,0
-693,330,0,0,0,0,0,0,0,0,0,-1,531,694,0,0
-686,330,0,0,0,0,0,0,0,0,0,-1,538,694,0,0
-679,330,0,0,0,0,0,0,0,0,0,-1,545,694,0,0
-672,330,0,0,0,0,0,0,0,0,0,-1,552,694,0,0
-665,330,0,0,0,0,0,0,0,0,0,-1,559,694,0,0
-658,330,0,0,0,0,0,0,0,0,0,-1,566,694,0,0
-651,330,0,0,0,0,0,0,0,0,0,-1,573,694,0,0
-644,330,0,0,0,0,0,0,0,0,0,-1,580,694,0,0
-637,330,0,0,0,0,0,0,0,0,0,-1,587,694,0,0
-630,330,0,0,0,0,0,0,0,0,0,-1,594,694,0,0
-623,330,0,0,0,0,0,0,0,0,0,-1,601,694,0,0
-616,330,0,0,0,0,0,0,0,0,0,-1,608,694,0,0
-609,330,0,0,0,0,0,0,0,0,0,-1,615,694,0,0
-602,330,0,0,0,0,0,0,0,0,0,-1,622,694,0,0
-595,330,-4.67883,1.65515,0,0,0,0,0,0,0,-1,629,694,-4.67881,-1.65515
-588,330,-8.5047,2.67346,0,0,0,0,0,0,0,-1,636,694,-8.50469,-2.67348
-581,330,-12.4227,0.947083,0,0,0,0,0,0,0,-1,643,694,-12.4227,-0.947109
-574,330,-9.02118,1.87952,0,0,0,0,0,0,0,-1,650,694,-9.02115,-1.87953
-567,330,-8.35577,0.909973,0,0,0,0,0,0,0,-1,657,694,-8.35575,-0.909945
-560,330,-13.1036,-0.584656,0,0,0,0,0,0,0,-1,664,694,-13.1035,0.584658
-553,330,-15.4409,-1.38501,0,0,0,0,0,0,0,-1,671,694,-15.4408,1.38499
-546,330,-15.3201,-1.78876,0,0,0,0,0,0,0,-1,678,694,-15.32,1.78875
-539,330,-15.5004,-2.4361,0,0,0,0,0,0,0,-1,685,694,-15.5004,2.43612
-532,330,-15.535,-3.16705,0.0008227,0.0047667,-0.00211398,0.00568567,-9.62694e-05,-1.16073,0.00382294,0.014862,692,694,-15.535,3.16708
-525,330,-15.5244,-3.78162,0.00103357,0.00325595,-0.00149908,0.00401077,0.000278753,-1.10434,0.00258594,0.0121219,699,694,-15.5244,3.78163
-518,330,-15.5316,-4.31104,0.00114998,0.00202028,-0.000955667,0.0026352,0.000535057,-0.999038,0.00160839,0.0159682,706,694,-15.5316,4.31105
-511,330,-15.5585,-4.86981,0.00120694,0.00103108,-0.000497507,0.00162423,0.000613795,-0.697931,0.000947024,0.0211675,713,694,-15.5585,4.8698
-504,330,-15.5627,-5.44556,0.00122917,0.000287183,-0.000125559,0.00124562,0.000270734,-0.130262,0.000756494,0.0197035,720,694,-15.5627,5.44553
-497,330,-15.5775,-5.9884,0.00126912,-0.000156546,0.000104771,0.00127678,-0.000164205,0.0729668,0.000910866,0.0147494,727,694,-15.5774,5.98838
-490,330,-15.5731,-6.56805,0.00131241,-0.000209802,0.000134446,0.0013242,-0.000221585,0.0874209,0.000965175,0.0149802,734,694,-15.573,6.56805
-483,330,-15.5725,-7.14734,0.00142306,-4.20857e-05,5.09407e-05,0.00142483,-4.38546e-05,0.0347125,0.000964835,0.0138384,741,694,-15.5725,7.14736
-476,330,-15.6124,-7.7226,0,0,0,0,0,0,0,-1,748,694,-15.6124,7.72258
-469,330,-14.9962,-8.27765,0,0,0,0,0,0,0,-1,755,694,-14.9962,8.27767
-462,330,-7.26733,-3.84833,0,0,0,0,0,0,0,-1,762,694,-7.26731,3.84832
-455,330,-5.04254,-1.79303,0,0,0,0,0,0,0,-1,769,694,-5.04252,1.79305
-448,330,-4.89886,-1.66156,0,0,0,0,0,0,0,-1,776,694,-4.89886,1.66157
-441,330,-5.30676,-2.34045,0,0,0,0,0,0,0,-1,783,694,-5.30679,2.34048
-434,330,-7.20428,1.00024,0,0,0,0,0,0,0,-1,790,694,-7.20431,-1.00027
-427,330,-16.0428,2.89258,0,0,0,0,0,0,0,-1,797,694,-16.0428,-2.89259
-420,330,-29.0331,0.271606,0,0,0,0,0,0,0,-1,804,694,-29.0331,-0.27158
-413,330,-29.0896,0.56366,0,0,0,0,0,0,0,-1,811,694,-29.0896,-0.563671
-406,330,-1.65375,-1.74371,0,0,0,0,0,0,0,-1,818,694,-1.65375,1.74371
-399,330,0,0,0,0,0,0,0,0,0,-1,825,694,0,0
-392,330,0,0,0,0,0,0,0,0,0,-1,832,694,0,0
-385,330,0,0,0,0,0,0,0,0,0,-1,839,694,0,0
-378,330,0,0,0,0,0,0,0,0,0,-1,846,694,0,0
-371,330,0,0,0,0,0,0,0,0,0,-1,853,694,0,0
-364,330,0,0,0,0,0,0,0,0,0,-1,860,694,0,0
-357,330,0,0,0,0,0,0,0,0,0,-1,867,694,0,0
-350,330,0,0,0,0,0,0,0,0,0,-1,874,694,0,0
-343,330,0,0,0,0,0,0,0,0,0,-1,881,694,0,0
-336,330,0,0,0,0,0,0,0,0,0,-1,888,694,0,0
-329,330,0,0,0,0,0,0,0,0,0,-1,895,694,0,0
-322,330,0,0,0,0,0,0,0,0,0,-1,902,694,0,0
-315,330,0,0,0,0,0,0,0,0,0,-1,909,694,0,0
-308,330,0,0,0,0,0,0,0,0,0,-1,916,694,0,0
-301,330,0,0,0,0,0,0,0,0,0,-1,923,694,0,0
-294,330,0,0,0,0,0,0,0,0,0,-1,930,694,0,0
-287,330,0,0,0,0,0,0,0,0,0,-1,937,694,0,0
-280,330,0,0,0,0,0,0,0,0,0,-1,944,694,0,0
-273,330,0,0,0,0,0,0,0,0,0,-1,951,694,0,0
-266,330,0,0,0,0,0,0,0,0,0,-1,958,694,0,0
-259,330,0,0,0,0,0,0,0,0,0,-1,965,694,0,0
-252,330,0,0,0,0,0,0,0,0,0,-1,972,694,0,0
-245,330,0,0,0,0,0,0,0,0,0,-1,979,694,0,0
-238,330,0,0,0,0,0,0,0,0,0,-1,986,694,0,0
-231,330,0,0,0,0,0,0,0,0,0,-1,993,694,0,0
-224,330,0,0,0,0,0,0,0,0,0,-1,1000,694,0,0
-217,330,0,0,0,0,0,0,0,0,0,-1,1007,694,0,0
-210,330,0,0,0,0,0,0,0,0,0,-1,1014,694,0,0
-203,330,0,0,0,0,0,0,0,0,0,-1,1021,694,0,0
-196,330,0,0,0,0,0,0,0,0,0,-1,1028,694,0,0
-189,330,0,0,0,0,0,0,0,0,0,-1,1035,694,0,0
-182,330,0,0,0,0,0,0,0,0,0,-1,1042,694,0,0
-175,330,0,0,0,0,0,0,0,0,0,-1,1049,694,0,0
-168,330,0,0,0,0,0,0,0,0,0,-1,1056,694,0,0
-161,330,0,0,0,0,0,0,0,0,0,-1,1063,694,0,0
-154,330,0,0,0,0,0,0,0,0,0,-1,1070,694,0,0
-147,330,0,0,0,0,0,0,0,0,0,-1,1077,694,0,0
-140,330,0,0,0,0,0,0,0,0,0,-1,1084,694,0,0
-133,330,0,0,0,0,0,0,0,0,0,-1,1091,694,0,0
-126,330,0,0,0,0,0,0,0,0,0,-1,1098,694,0,0
-119,330,0,0,0,0,0,0,0,0,0,-1,1105,694,0,0
-112,330,0,0,0,0,0,0,0,0,0,-1,1112,694,0,0
-105,330,0,0,0,0,0,0,0,0,0,-1,1119,694,0,0
-98,330,0,0,0,0,0,0,0,0,0,-1,1126,694,0,0
-91,330,0,0,0,0,0,0,0,0,0,-1,1133,694,0,0
-84,330,0,0,0,0,0,0,0,0,0,-1,1140,694,0,0
-77,330,0,0,0,0,0,0,0,0,0,-1,1147,694,0,0
-70,330,0,0,0,0,0,0,0,0,0,-1,1154,694,0,0
-63,330,0,0,0,0,0,0,0,0,0,-1,1161,694,0,0
-56,330,0,0,0,0,0,0,0,0,0,-1,1168,694,0,0
-49,330,0,0,0,0,0,0,0,0,0,-1,1175,694,0,0
-42,330,0,0,0,0,0,0,0,0,0,-1,1182,694,0,0
-35,330,0,0,0,0,0,0,0,0,0,-1,1189,694,0,0
-28,330,0,0,0,0,0,0,0,0,0,-1,1196,694,0,0
-21,330,0,0,0,0,0,0,0,0,0,-1,1203,694,0,0
-14,330,0,0,0,0,0,0,0,0,0,-1,1210,694,0,0
-7,330,0,0,0,0,0,0,0,0,0,-1,1217,694,0,0
0,330,0,0,0,0,0,0,0,0,0,-1,1224,694,0,0
7,330,0,0,0,0,0,0,0,0,0,-1,1231,694,0,0
14,330,0,0,0,0,0,0,0,0,0,-1,1238,694,0,0
21,330,0,0,0,0,0,0,0,0,0,-1,1245,694,0,0
28,330,0,0,0,0,0,0,0,0,0,-1,1252,694,0,0
35,330,0,0,0,0,0,0,0,0,0,-1,1259,694,0,0
42,330,0,0,0,0,0,0,0,0,0,-1,1266,694,0,0
49,330,0,0,0,0,0,0,0,0,0,-1,1273,694,0,0
56,330,0,0,0,0,0,0,0,0,0,-1,1280,694,0,0
63,330,0,0,0,0,0,0,0,0,0,-1,1287,694,0,0
70,330,0,0,0,0,0,0,0,0,0,-1,1294,694,0,0
77,330,0,0,0,0,0,0,0,0,0,-1,1301,694,0,0
84,330,0,0,0,0,0,0,0,0,0,-1,1308,694,0,0
91,330,0,0,0,0,0,0,0,0,0,-1,1315,694,0,0
98,330,0,0,0,0,0,0,0,0,0,-1,1322,694,0,0
105,330,0,0,0,0,0,0,0,0,0,-1,1329,694,0,0
112,330,0,0,0,0,0,0,0,0,0,-1,1336,694,0,0
119,330,0,0,0,0,0,0,0,0,0,-1,1343,694,0,0
126,330,0,0,0,0,0,0,0,0,0,-1,1350,694,0,0
133,330,0,0,0,0,0,0,0,0,0,-1,1357,694,0,0
140,330,0,0,0,0,0,0,0,0,0,-1,1364,694,0,0
147,330,0,0,0,0,0,0,0,0,0,-1,1371,694,0,0
154,330,0,0,0,0,0,0,0,0,0,-1,1378,694,0,0
161,330,0,0,0,0,0,0,0,0,0,-1,1385,694,0,0
168,330,0,0,0,0,0,0,0,0,0,-1,1392,694,0,0
175,330,0,0,0,0,0,0,0,0,0,-1,1399,694,0,0
182,330,0,0,0,0,0,0,0,0,0,-1,1406,694,0,0
189,330,0,0,0,0,0,0,0,0,0,-1,1413,694,0,0
196,330,0,0,0,0,0,0,0,0,0,-1,1420,694,0,0
203,330,0,0,0,0,0,0,0,0,0,-1,1427,694,0,0
210,330,0,0,0,0,0,0,0,0,0,-1,1434,694,0,0
217,330,0,0,0,0,0,0,0,0,0,-1,1441,694,0,0
224,330,0,0,0,0,0,0,0,0,0,-1,1448,694,0,0
231,330,0,0,0,0,0,0,0,0,0,-1,1455,694,0,0
238,330,0,0,0,0,0,0,0,0,0,-1,1462,694,0,0
245,330,0,0,0,0,0,0,0,0,0,-1,1469,694,0,0
252,330,0,0,0,0,0,0,0,0,0,-1,1476,694,0,0
259,330,0,0,0,0,0,0,0,0,0,-1,1483,694,0,0
266,330,0,0,0,0,0,0,0,0,0,-1,1490,694,0,0
273,330,0,0,0,0,0,0,0,0,0,-1,1497,694,0,0
280,330,0,0,0,0,0,0,0,0,0,-1,1504,694,0,0
287,330,0,0,0,0,0,0,0,0,0,-1,1511,694,0,0
294,330,0,0,0,0,0,0,0,0,0,-1,1518,694,0,0
301,330,0,0,0,0,0,0,0,0,0,-1,1525,694,0,0
308,330,0,0,0,0,0,0,0,0,0,-1,1532,694,0,0
315,330,0,0,0,0,0,0,0,0,0,-1,1539,694,0,0
322,330,0,0,0,0,0,0,0,0,0,-1,1546,694,0,0
329,330,0,0,0,0,0,0,0,0,0,-1,1553,694,0,0
336,330,0,0,0,0,0,0,0,0,0,-1,1560,694,0,0
343,330,0,0,0,0,0,0,0,0,0,-1,1567,694,0,0
350,330,0,0,0,0,0,0,0,0,0,-1,1574,694,0,0
357,330,0,0,0,0,0,0,0,0,0,-1,1581,694,0,0
364,330,0,0,0,0,0,0,0,0,0,-1,1588,694,0,0
371,330,0,0,0,0,0,0,0,0,0,-1,1595,694,0,0
378,330,0,0,0,0,0,0,0,0,0,-1,1602,694,0,0
385,330,0,0,0,0,0,0,0,0,0,-1,1609,694,0,0
392,330,0,0,0,0,0,0,0,0,0,-1,1616,694,0,0
399,330,0,0,0,0,0,0,0,0,0,-1,1623,694,0,0
406,330,0,0,0,0,0,0,0,0,0,-1,1630,694,0,0
413,330,0,0,0,0,0,0,0,0,0,-1,1637,694,0,0
420,330,0,0,0,0,0,0,0,0,0,-1,1644,694,0,0
427,330,0,0,0,0,0,0,0,0,0,-1,1651,694,0,0
434,330,0,0,0,0,0,0,0,0,0,-1,1658,694,0,0
441,330,0,0,0,0,0,0,0,0,0,-1,1665,694,0,0
448,330,0,0,0,0,0,0,0,0,0,-1,1672,694,0,0
455,330,0,0,0,0,0,0,0,0,0,-1,1679,694,0,0
462,330,0,0,0,0,0,0,0,0,0,-1,1686,694,0,0
469,330,0,0,0,0,0,0,0,0,0,-1,1693,694,0,0
476,330,0,0,0,0,0,0,0,0,0,-1,1700,694,0,0
483,330,0,0,0,0,0,0,0,0,0,-1,1707,694,0,0
490,330,0,0,0,0,0,0,0,0,0,-1,1714,694,0,0
497,330,0,0,0,0,0,0,0,0,0,-1,1721,694,0,0
504,330,0,0,0,0,0,0,0,0,0,-1,1728,694,0,0
511,330,0,0,0,0,0,0,0,0,0,-1,1735,694,0,0
518,330,0,0,0,0,0,0,0,0,0,-1,1742,694,0,0
525,330,30.6694,0.69519,0,0,0,0,0,0,0,-1,1749,694,30.6694,-0.695206
532,330,30.9469,1.32501,0,0,0,0,0,0,0,-1,1756,694,30.9469,-1.32501
539,330,31.5155,1.62506,0,0,0,0,0,0,0,-1,1763,694,31.5155,-1.62507
546,330,31.4187,1.85651,0,0,0,0,0,0,0,-1,1770,694,31.4187,-1.85651
553,330,31.8452,1.81476,0,0,0,0,0,0,0,-1,1777,694,31.8452,-1.81475
560,330,32.2401,2.43225,0,0,0,0,0,0,0,-1,1784,694,32.2401,-2.43227
567,330,18.0321,3.98578,0,0,0,0,0,0,0,-1,1791,694,18.0321,-3.98576
574,330,12.0454,2.1662,0,0,0,0,0,0,0,-1,1798,694,12.0455,-2.16618
581,330,11.4215,4.50836,0,0,0,0,0,0,0,-1,1805,694,11.4215,-4.50837
588,330,6.45667,-0.0630493,0,0,0,0,0,0,0,-1,1812,694,6.45661,0.0630695
595,330,8.23193,-0.258484,0,0,0,0,0,0,0,-1,1819,694,8.23188,0.258459
602,330,25.5201,-6.25775,0,0,0,0,0,0,0,-1,1826,694,25.5202,6.25774
609,330,25.5995,-5.50061,0.00265499,0.000771722,0.000713834,0.00289498,0.000531733,0.324326,0.00177943,0.0398815,1833,694,25.5995,5.50061
616,330,25.6624,-4.85767,0.00225721,0.000610657,0.000749215,0.00254709,0.000320782,0.369167,0.00160187,0.0110779,1840,694,25.6623,4.85768
623,330,25.6542,-4.28607,0.00185562,0.000652758,0.000730508,0.00220043,0.000307955,0.441002,0.00137584,0.0127218,1847,694,25.6542,4.28608
630,330,25.6462,-3.69818,0.00142239,0.000662422,0.000711505,0.00184902,0.000235791,0.540138,0.00116209,0.013626,1854,694,25.6462,3.69819
637,330,25.6549,-3.10663,0.000680564,0.000717696,0.000569803,0.00126924,0.000129024,0.801684,0.000806596,0.0125935,1861,694,25.6549,3.10666
644,330,25.6049,-2.52271,-0.000252281,0.000774299,0.000361167,0.00088863,-0.000366612,1.26422,0.000745311,0.00795441,1868,694,25.6049,2.52269
651,330,25.5736,-1.96033,-0.00144862,0.000955785,0.000100258,0.000959959,-0.00145279,1.52919,0.00140265,0.0116097,1875,694,25.5736,1.96036
658,330,25.5492,-1.3689,-0.00300094,0.00112601,-0.000279945,0.00114491,-0.00301984,-1.50337,0.00248441,0.0126728,1882,694,25.5492,1.3689
665,330,25.5183,-0.757446,-0.004987,0.00133647,-0.000786949,0.00143294,-0.00508346,-1.44883,0.00395414,0.0109392,1889,694,25.5183,0.757417
672,330,25.5602,-0.165344,-0.00756368,0.00161022,-0.0015055,0.00185096,-0.00780443,-1.41223,0.00591724,0.0247653,1896,694,25.5601,0.165345
679,330,25.2048,0.350586,-0.0111505,0.0018714,-0.00255708,0.00235552,-0.0116346,-1.38368,0.00864918,0.0401549,1903,694,25.2048,-0.350587
686,330,24.9061,1.04138,0,0,0,0,0,0,0,-1,1910,694,24.9061,-1.04139
693,330,17.3999,2.5976,0,0,0,0,0,0,0,-1,1917,694,17.4,-2.59759
700,330,17.1072,4.13,0,0,0,0,0,0,0,-1,1924,694,17.1071,-4.13002
707,330,16.663,4.88672,0,0,0,0,0,0,0,-1,1931,694,16.6629,-4.88673
714,330,16.5454,5.80896,0,0,0,0,0,0,0,-1,1938,694,16.5454,-5.80899
721,330,0,0,0,0,0,0,0,0,0,-1,1945,694,0,0
728,330,0,0,0,0,0,0,0,0,0,-1,1952,694,0,0
735,330,0,0,0,0,0,0,0,0,0,-1,1959,694,0,0
742,330,0,0,0,0,0,0,0,0,0,-1,1966,694,0,0
749,330,0,0,0,0,0,0,0,0,0,-1,1973,694,0,0
756,330,0,0,0,0,0,0,0,0,0,-1,1980,694,0,0
763,330,0,0,0,0,0,0,0,0,0,-1,1987,694,0,0
770,330,0,0,0,0,0,0,0,0,0,-1,1994,694,0,0
777,330,0,0,0,0,0,0,0,0,0,-1,2001,694,0,0
784,330,0,0,0,0,0,0,0,0,0,-1,2008,694,0,0
791,330,0,0,0,0,0,0,0,0,0,-1,2015,694,0,0
798,330,0,0,0,0,0,0,0,0,0,-1,2022,694,0,0
805,330,0,0,0,0,0,0,0,0,0,-1,2029,694,0,0
812,330,0,0,0,0,0,0,0,0,0,-1,2036,694,0,0
-700,323,0,0,0,0,0,0,0,0,0,-1,524,701,0,0
-693,323,0,0,0,0,0,0,0,0,0,-1,531,701,0,0
-686,323,0,0,0,0,0,0,0,0,0,-1,538,701,0,0
-679,323,0,0,0,0,0,0,0,0,0,-1,545,701,0,0
-672,323,0,0,0,0,0,0,0,0,0,-1,552,701,0,0
-665,323,0,0,0,0,0,0,0,0,0,-1,559,701,0,0
-658,323,0,0,0,0,0,0,0,0,0,-1,566,701,0,0
-651,323,0,0,0,0,0,0,0,0,0,-1,573,701,0,0
-644,323,0,0,0,0,0,0,0,0,0,-1,580,701,0,0
-637,323,0,0,0,0,0,0,0,0,0,-1,587,701,0,0
-630,323,0,0,0,0,0,0,0,0,0,-1,594,701,0,0
-623,323,0,0,0,0,0,0,0,0,0,-1,601,701,0,0
-616,323,0,0,0,0,0,0,0,0,0,-1,608,701,0,0
-609,323,0,0,0,0,0,0,0,0,0,-1,615,701,0,0
-602,323,-4.15833,2.12256,0,0,0,0,0,0,0,-1,622,701,-4.1583,-2.12257
-595,323,-4.052,1.79156,0,0,0,0,0,0,0,-1,629,701,-4.05198,-1.79158
-588,323,-4.07019,1.94543,0,0,0,0,0,0,0,-1,636,701,-4.07019,-1.94542
-581,323,-6.63727,0.562805,0,0,0,0,0,0,0,-1,643,701,-6.63728,-0.56279
-574,323,-6.15887,0.426697,0,0,0,0,0,0,0,-1,650,701,-6.15887,-0.426727
-567,323,-10.0015,0.0371094,0,0,0,0,0,0,0,-1,657,701,-10.0015,-0.037126
-560,323,-16.1335,-1.24207,0,0,0,0,0,0,0,-1,664,701,-16.1335,1.24205
-553,323,-16.006,-1.711,-0.00165147,0.00762628,-0.00238726,0.00820451,-0.0022297,-1.33316,0.00634487,0.0488293,671,701,-16.0061,1.71102
-546,323,-16.0074,-2.07391,-0.00063371,0.00600671,-0.00210072,0.00661547,-0.00124247,-1.28874,0.00487751,0.022381,678,701,-16.0074,2.0739
-539,323,-16.0082,-2.53491,-2.20527e-05,0.00467563,-0.00169038,0.00522065,-0.000567073,-1.2589,0.00368404,0.019065,685,701,-16.0082,2.53494
-532,323,-16.0433,-3.15454,0.000437323,0.00344934,-0.00130168,0.00393392,-4.7252e-05,-1.21442,0.0026385,0.0114011,692,701,-16.0433,3.15457
-525,323,-16.0806,-3.74811,0.000740863,0.00233995,-0.000900443,0.00274459,0.00033622,-1.14846,0.00172859,0.00902432,699,701,-16.0805,3.7481
-518,323,-16.0997,-4.28345,0.000937292,0.00137351,-0.000519901,0.0017192,0.000591603,-0.98401,0.00100853,0.0110441,706,701,-16.0997,4.28342
-511,323,-16.1282,-4.83954,0.00104837,0.00055751,-0.00017506,0.00110441,0.000501473,-0.309792,0.000638525,0.0144474,713,701,-16.1282,4.83953
-504,323,-16.1506,-5.39636,0.00108926,-7.95394e-05,0.000131047,0.00110377,-9.40525e-05,0.110297,0.000769117,0.0156405,720,701,-16.1506,5.39634
-497,323,-16.1498,-5.95233,0.00108169,-0.000519064,0.000366933,0.00116179,-0.000599166,0.214929,0.00103384,0.0130487,727,701,-16.1498,5.95231
-490,323,-16.1456,-6.51917,0.00114781,-0.000427798,0.000359602,0.001226,-0.00050599,0.214107,0.00102836,0.0138567,734,701,-16.1456,6.51917
-483,323,-16.1503,-7.07196,0.00127228,-0.000223639,0.000321899,0.00133861,-0.000289966,0.203205,0.00100313,0.0271487,741,701,-16.1503,7.07197
-476,323,-16.1537,-7.64764,0,0,0,0,0,0,0,-1,748,701,-16.1537,7.64765
-469,323,-8.33301,-3.64001,0,0,0,0,0,0,0,-1,755,701,-8.33298,3.64
-462,323,-5.29431,-1.45697,0,0,0,0,0,0,0,-1,762,701,-5.29431,1.45699
-455,323,-5.0658,-1.36639,0,0,0,0,0,0,0,-1,769,701,-5.06578,1.3664
-448,323,-4.91608,-1.59601,0,0,0,0,0,0,0,-1,776,701,-4.91606,1.59604
-441,323,-14.4006,0.535217,0,0,0,0,0,0,0,-1,783,701,-14.4006,-0.535203
-434,323,-15.3158,2.479,0,0,0,0,0,0,0,-1,790,701,-15.3158,-2.47898
-427,323,-28.3923,1.16797,0,0,0,0,0,0,0,-1,797,701,-28.3923,-1.16796
-420,323,-28.7292,1.09302,0,0,0,0,0,0,0,-1,804,701,-28.7292,-1.09304
-413,323,-28.7955,1.22418,0,0,0,0,0,0,0,-1,811,701,-28.7956,-1.22419
-406,323,0,0,0,0,0,0,0,0,0,-1,818,701,0,0
-399,323,0,0,0,0,0,0,0,0,0,-1,825,701,0,0
-392,323,0,0,0,0,0,0,0,0,0,-1,832,701,0,0
-385,323,0,0,0,0,0,0,0,0,0,-1,839,701,0,0
-378,323,0,0,0,0,0,0,0,0,0,-1,846,701,0,0
-371,323,0,0,0,0,0,0,0,0,0,-1,853,701,0,0
-364,323,0,0,0,0,0,0,0,0,0,-1,860,701,0,0
-357,323,0,0,0,0,0,0,0,0,0,-1,867,701,0,0
-350,323,0,0,0,0,0,0,0,0,0,-1,874,701,0,0
-343,323,0,0,0,0,0,0,0,0,0,-1,881,701,0,0
-336,323,0,0,0,0,0,0,0,0,0,-1,888,701,0,0
-329,323,0,0,0,0,0,0,0,0,0,-1,895,701,0,0
-322,323,0,0,0,0,0,0,0,0,0,-1,902,701,0,0
-315,323,0,0,0,0,0,0,0,0,0,-1,909,701,0,0
-308,323,0,0,0,0,0,0,0,0,0,-1,916,701,0,0
-301,323,0,0,0,0,0,0,0,0,0,-1,923,701,0,0
-294,323,0,0,0,0,0,0,0,0,0,-1,930,701,0,0
-287,323,0,0,0,0,0,0,0,0,0,-1,937,701,0,0
-280,323,0,0,0,0,0,0,0,0,0,-1,944,701,0,0
-273,323,0,0,0,0,0,0,0,0,0,-1,951,701,0,0
-266,323,0,0,0,0,0,0,0,0,0,-1,958,701,0,0
-259,323,0,0,0,0,0,0,0,0,0,-1,965,701,0,0
-252,323,0,0,0,0,0,0,0,0,0,-1,972,701,0,0
-245,323,0,0,0,0,0,0,0,0,0,-1,979,701,0,0
-238,323,0,0,0,0,0,0,0,0,0,-1,986,701,0,0
-231,323,0,0,0,0,0,0,0,0,0,-1,993,701,0,0
-224,323,0,0,0,0,0,0,0,0,0,-1,1000,701,0,0
-217,323,0,0,0,0,0,0,0,0,0,-1,1007,701,0,0
-210,323,0,0,0,0,0,0,0,0,0,-1,1014,701,0,0
-203,323,0,0,0,0,0,0,0,0,0,-1,1021,701,0,0
-196,323,0,0,0,0,0,0,0,0,0,-1,1028,701,0,0
-189,323,0,0,0,0,0,0,0,0,0,-1,1035,701,0,0
-182,323,0,0,0,0,0,0,0,0,0,-1,1042,701,0,0
-175,323,0,0,0,0,0,0,0,0,0,-1,1049,701,0,0
-168,323,0,0,0,0,0,0,0,0,0,-1,1056,701,0,0
-161,323,0,0,0,0,0,0,0,0,0,-1,1063,701,0,0
-154,323,0,0,0,0,0,0,0,0,0,-1,1070,701,0,0
-147,323,0,0,0,0,0,0,0,0,0,-1,1077,701,0,0
-140,323,0,0,0,0,0,0,0,0,0,-1,1084,701,0,0
-133,323,0,0,0,0,0,0,0,0,0,-1,1091,701,0,0
-126,323,0,0,0,0,0,0,0,0,0,-1,1098,701,0,0
-119,323,0,0,0,0,0,0,0,0,0,-1,1105,701,0,0
-112,323,0,0,0,0,0,0,0,0,0,-1,1112,701,0,0
-105,323,0,0,0,0,0,0,0,0,0,-1,1119,701,0,0
-98,323,0,0,0,0,0,0,0,0,0,-1,1126,701,0,0
-91,323,0,0,0,0,0,0,0,0,0,-1,1133,701,0,0
-84,323,0,0,0,0,0,0,0,0,0,-1,1140,701,0,0
-77,323,0,0,0,0,0,0,0,0,0,-1,1147,701,0,0
-70,323,0,0,0,0,0,0,0,0,0,-1,1154,701,0,0
-63,323,0,0,0,0,0,0,0,0,0,-1,1161,701,0,0
-56,323,0,0,0,0,0,0,0,0,0,-1,1168,701,0,0
-49,323,0,0,0,0,0,0,0,0,0,-1,1175,701,0,0
-42,323,0,0,0,0,0,0,0,0,0,-1,1182,701,0,0
-35,323,0,0,0,0,0,0,0,0,0,-1,1189,701,0,0
-28,323,0,0,0,0,0,0,0,0,0,-1,1196,701,0,0
-21,323,0,0,0,0,0,0,0,0,0,-1,1203,701,0,0
-14,323,0,0,0,0,0,0,0,0,0,-1,1210,701,0,0
-7,323,0,0,0,0,0,0,0,0,0,-1,1217,701,0,0
0,323,0,0,0,0,0,0,0,0,0,-1,1224,701,0,0
7,323,0,0,0,0,0,0,0,0,0,-1,1231,701,0,0
14,323,0,0,0,0,0,0,0,0,0,-1,1238,701,0,0
21,323,0,0,0,0,0,0,0,0,0,-1,1245,701,0,0
28,323,0,0,0,0,0,0,0,0,0,-1,1252,701,0,0
35,323,0,0,0,0,0,0,0,0,0,-1,1259,701,0,0
42,323,0,0,0,0,0,0,0,0,0,-1,1266,701,0,0
49,323,0,0,0,0,0,0,0,0,0,-1,1273,701,0,0
56,323,0,0,0,0,0,0,0,0,0,-1,1280,701,0,0
63,323,0,0,0,0,0,0,0,0,0,-1,1287,701,0,0
70,323,0,0,0,0,0,0,0,0,0,-1,1294,701,0,0
77,323,0,0,0,0,0,0,0,0,0,-1,1301,701,0,0
84,323,0,0,0,0,0,0,0,0,0,-1,1308,701,0,0
91,323,0,0,0,0,0,0,0,0,0,-1,1315,701,0,0
98,323,0,0,0,0,0,0,0,0,0,-1,1322,701,0,0
105,323,0,0,0,0,0,0,0,0,0,-1,1329,701,0,0
112,323,0,0,0,0,0,0,0,0,0,-1,1336,701,0,0
119,323,0,0,0,0,0,0,0,0,0,-1,1343,701,0,0
126,323,0,0,0,0,0,0,0,0,0,-1,1350,701,0,0
133,323,0,0,0,0,0,0,0,0,0,-1,1357,701,0,0
140,323,0,0,0,0,0,0,0,0,0,-1,1364,701,0,0
147,323,0,0,0,0,0,0,0,0,0,-1,1371,701,0,0
154,323,0,0,0,0,0,0,0,0,0,-1,1378,701,0,0
161,323,0,0,0,0,0,0,0,0,0,-1,1385,701,0,0
168,323,0,0,0,0,0,0,0,0,0,-1,1392,701,0,0
175,323,0,0,0,0,0,0,0,0,0,-1,1399,701,0,0
182,323,0,0,0,0,0,0,0,0,0,-1,1406,701,0,0
189,323,0,0,0,0,0,0,0,0,0,-1,1413,701,0,0
196,323,0,0,0,0,0,0,0,0,0,-1,1420,701,0,0
203,323,0,0,0,0,0,0,0,0,0,-1,1427,701,0,0
210,323,0,0,0,0,0,0,0,0,0,-1,1434,701,0,0
217,323,0,0,0,0,0,0,0,0,0,-1,1441,701,0,0
224,323,0,0,0,0,0,0,0,0,0,-1,1448,701,0,0
231,323,0,0,0,0,0,0,0,0,0,-1,1455,701,0,0
238,323,0,0,0,0,0,0,0,0,0,-1,1462,701,0,0
245,323,0,0,0,0,0,0,0,0,0,-1,1469,701,0,0
252,323,0,0,0,0,0,0,0,0,0,-1,1476,701,0,0
259,323,0,0,0,0,0,0,0,0,0,-1,1483,701,0,0
266,323,0,0,0,0,0,0,0,0,0,-1,1490,701,0,0
273,323,0,0,0,0,0,0,0,0,0,-1,1497,701,0,0
280,323,0,0,0,0,0,0,0,0,0,-1,1504,701,0,0
287,323,0,0,0,0,0,0,0,0,0,-1,1511,701,0,0
294,323,0,0,0,0,0,0,0,0,0,-1,1518,701,0,0
301,323,0,0,0,0,0,0,0,0,0,-1,1525,701,0,0
308,323,0,0,0,0,0,0,0,0,0,-1,1532,701,0,0
315,323,0,0,0,0,0,0,0,0,0,-1,1539,701,0,0
322,323,0,0,0,0,0,0,0,0,0,-1,1546,701,0,0
329,323,0,0,0,0,0,0,0,0,0,-1,1553,701,0,0
336,323,0,0,0,0,0,0,0,0,0,-1,1560,701,0,0
343,323,0,0,0,0,0,0,0,0,0,-1,1567,701,0,0
350,323,0,0,0,0,0,0,0,0,0,-1,1574,701,0,0
357,323,0,0,0,0,0,0,0,0,0,-1,1581,701,0,0
364,323,0,0,0,0,0,0,0,0,0,-1,1588,701,0,0
371,323,0,0,0,0,0,0,0,0,0,-1,1595,701,0,0
378,323,0,0,0,0,0,0,0,0,0,-1,1602,701,0,0
385,323,0,0,0,0,0,0,0,0,0,-1,1609,701,0,0
392,323,0,0,0,0,0,0,0,0,0,-1,1616,701,0,0
399,323,0,0,0,0,0,0,0,0,0,-1,1623,701,0,0
406,323,0,0,0,0,0,0,0,0,0,-1,1630,701,0,0
413,323,0,0,0,0,0,0,0,0,0,-1,1637,701,0,0
420,323,0,0,0,0,0,0,0,0,0,-1,1644,701,0,0
427,323,0,0,0,0,0,0,0,0,0,-1,1651,701,0,0
434,323,0,0,0,0,0,0,0,0,0,-1,1658,701,0,0
441,323,0,0,0,0,0,0,0,0,0,-1,1665,701,0,0
448,323,0,0,0,0,0,0,0,0,0,-1,1672,701,0,0
455,323,0,0,0,0,0,0,0,0,0,-1,1679,701,0,0
462,323,0,0,0,0,0,0,0,0,0,-1,1686,701,0,0
469,323,0,0,0,0,0,0,0,0,0,-1,1693,701,0,0
476,323,0,0,0,0,0,0,0,0,0,-1,1700,701,0,0
483,323,0,0,0,0,0,0,0,0,0,-1,1707,701,0,0
490,323,0,0,0,0,0,0,0,0,0,-1,1714,701,0,0
497,323,0,0,0,0,0,0,0,0,0,-1,1721,701,0,0
504,323,0,0,0,0,0,0,0,0,0,-1,1728,701,0,0
511,323,0,0,0,0,0,0,0,0,0,-1,1735,701,0,0
518,323,0,0,0,0,0,0,0,0,0,-1,1742,701,0,0
525,323,0,0,0,0,0,0,0,0,0,-1,1749,701,0,0
532,323,33.6193,1.69446,0,0,0,0,0,0,0,-1,1756,701,33.6193,-1.69444
539,323,32.2698,2.44037,0,0,0,0,0,0,0,-1,1763,701,32.2697,-2.44036
546,323,31.1644,3.9444,0,0,0,0,0,0,0,-1,1770,701,31.1644,-3.94438
553,323,30.2488,5.8775,0,0,0,0,0,0,0,-1,1777,701,30.2487,-5.87752
560,323,40.6711,1.25153,0,0,0,0,0,0,0,-1,1784,701,40.6711,-1.25154
567,323,42.1637,2.01208,0,0,0,0,0,0,0,-1,1791,701,42.1637,-2.01207
574,323,12.514,5.89685,0,0,0,0,0,0,0,-1,1798,701,12.5141,-5.89683
581,323,11.821,5.3476,0,0,0,0,0,0,0,-1,1805,701,11.821,-5.34762
588,323,11.7933,7.00818,0,0,0,0,0,0,0,-1,1812,701,11.7933,-7.00819
595,323,6.67847,0.06604,0,0,0,0,0,0,0,-1,1819,701,6.67841,-0.0660418
602,323,11.2856,-0.595459,0,0,0,0,0,0,0,-1,1826,701,11.2856,0.595433
609,323,26.2257,-5.39972,0,0,0,0,0,0,0,-1,1833,701,26.2257,5.39973
616,323,26.233,-4.81494,0.00219492,0.000521308,0.00184725,0.00338606,-0.000669833,0.572724,0.00251062,0.0139903,1840,701,26.233,4.81493
623,323,26.2227,-4.23615,0.00192813,0.000469271,0.00125665,0.00265171,-0.000254309,0.522435,0.00185839,0.0131764,1847,701,26.2226,4.23616
630,323,26.2067,-3.65021,0.0015889,0.000433563,0.000931371,0.0021072,-8.47398e-05,0.507815,0.00143388,0.0144255,1854,701,26.2067,3.65018
637,323,26.22,-3.07727,0.000900916,0.000465925,0.000545587,0.00127076,9.60795e-05,0.59573,0.000817033,0.0113831,1861,701,26.2199,3.0773
644,323,26.1893,-2.51428,-1.97236e-05,0.000520732,0.000328792,0.000676094,-0.000175086,1.12937,0.000519031,0.00856584,1868,701,26.1894,2.51431
651,323,26.1595,-1.93262,-0.00115635,0.000731768,8.72369e-05,0.00073579,-0.00116037,1.52472,0.00110386,0.0107799,1875,701,26.1595,1.93262
658,323,26.106,-1.3302,-0.00258716,0.000972668,-0.000236764,0.000988346,-0.00260284,-1.50467,0.00214208,0.0155347,1882,701,26.1059,1.33023
665,323,26.0719,-0.734131,-0.00436382,0.00127988,-0.000648833,0.00135351,-0.00443745,-1.45779,0.00349788,0.0134005,1889,701,26.0719,0.734108
672,323,26.1,-0.097168,-0.0065777,0.00171105,-0.00117655,0.00187482,-0.00674147,-1.43249,0.00523244,0.0140332,1896,701,26.1,0.0971465
679,323,26.0059,0.438782,-0.00951974,0.00223867,-0.00190498,0.00253959,-0.00982066,-1.41412,0.00753762,0.0359898,1903,701,26.0059,-0.438763
686,323,25.9214,0.813477,0,0,0,0,0,0,0,-1,1910,701,25.9213,-0.813507
693,323,23.8806,1.08844,0,0,0,0,0,0,0,-1,1917,701,23.8806,-1.08845
700,323,10.7705,0.828613,0,0,0,0,0,0,0,-1,1924,701,10.7705,-0.828591
707,323,16.9005,4.79193,0,0,0,0,0,0,0,-1,1931,701,16.9005,-4.7919
714,323,16.2346,6.25958,0,0,0,0,0,0,0,-1,1938,701,16.2346,-6.25956
721,323,0,0,0,0,0,0,0,0,0,-1,1945,701,0,0
728,323,0,0,0,0,0,0,0,0,0,-1,1952,701,0,0
735,323,0,0,0,0,0,0,0,0,0,-1,1959,701,0,0
742,323,0,0,0,0,0,0,0,0,0,-1,1966,701,0,0
749,323,0,0,0,0,0,0,0,0,0,-1,1973,701,0,0
756,323,0,0,0,0,0,0,0,0,0,-1,1980,701,0,0
763,323,0,0,0,0,0,0,0,0,0,-1,1987,701,0,0
770,323,0,0,0,0,0,0,0,0,0,-1,1994,701,0,0
777,323,0,0,0,0,0,0,0,0,0,-1,2001,701,0,0
784,323,0,0,0,0,0,0,0,0,0,-1,2008,701,0,0
791,323,0,0,0,0,0,0,0,0,0,-1,2015,701,0,0
798,323,0,0,0,0,0,0,0,0,0,-1,2022,701,0,0
805,323,0,0,0,0,0,0,0,0,0,-1,2029,701,0,0
812,323,0,0,0,0,0,0,0,0,0,-1,2036,701,0,0
-700,316,0,0,0,0,0,0,0,0,0,-1,524,708,0,0
-693,316,0,0,0,0,0,0,0,0,0,-1,531,708,0,0
-686,316,0,0,0,0,0,0,0,0,0,-1,538,708,0,0
-679,316,0,0,0,0,0,0,0,0,0,-1,545,708,0,0
-672,316,0,0,0,0,0,0,0,0,0,-1,552,708,0,0
-665,316,0,0,0,0,0,0,0,0,0,-1,559,708,0,0
-658,316,0,0,0,0,0,0,0,0,0,-1,566,708,0,0
-651,316,0,0,0,0,0,0,0,0,0,-1,573,708,0,0
-644,316,0,0,0,0,0,0,0,0,0,-1,580,708,0,0
-637,316,0,0,0,0,0,0,0,0,0,-1,587,708,0,0
-630,316,0,0,0,0,0,0,0,0,0,-1,594,708,0,0
-623,316,0,0,0,0,0,0,0,0,0,-1,601,708,0,0
-616,316,0,0,0,0,0,0,0,0,0,-1,608,708,0,0
-609,316,0,0,0,0,0,0,0,0,0,-1,615,708,0,0
-602,316,-0.451782,-0.0494995,0,0,0,0,0,0,0,-1,622,708,-0.451768,0.0495022
-595,316,-3.3761,2.17188,0,0,0,0,0,0,0,-1,629,708,-3.37609,-2.17189
-588,316,-5.00177,2.60675,0,0,0,0,0,0,0,-1,636,708,-5.00175,-2.60676
-581,316,-3.94653,0.393433,0,0,0,0,0,0,0,-1,643,708,-3.94655,-0.39342
-574,316,-9.67395,1.06067,0,0,0,0,0,0,0,-1,650,708,-9.67396,-1.06065
-567,316,-10.1962,0.448425,0,0,0,0,0,0,0,-1,657,708,-10.1962,-0.448411
-560,316,-16.2952,-1.29175,0,0,0,0,0,0,0,-1,664,708,-16.2952,1.29178
-553,316,-16.4244,-1.64178,-0.00176983,0.00567105,-0.00103033,0.00581109,-0.00190986,-1.43571,0.0046435,0.0428994,671,708,-16.4244,1.64176
-546,316,-16.6428,-2.0061,-0.000899089,0.00443403,-0.00104372,0.00463102,-0.00109607,-1.38426,0.00351022,0.0269161,678,708,-16.6428,2.00612
-539,316,-16.5663,-2.5882,-0.000296824,0.00341556,-0.000887606,0.00361686,-0.000498129,-1.34777,0.00259328,0.0136265,685,708,-16.5663,2.58818
-532,316,-16.5942,-3.14185,0.0001336,0.00240723,-0.00069788,0.00260435,-6.35214e-05,-1.29551,0.00175779,0.0110754,692,708,-16.5942,3.14187
-525,316,-16.6202,-3.70941,0.000464433,0.00152564,-0.000426313,0.00167569,0.000314388,-1.23238,0.00102847,0.00981462,699,708,-16.6202,3.70943
-518,316,-16.6273,-4.26782,0.000707526,0.000713975,-0.00014186,0.000852647,0.000568854,-0.796761,0.000501362,0.0103095,706,708,-16.6273,4.26783
-511,316,-16.6595,-4.83093,0.000843744,-1.26128e-05,0.000151422,0.00086973,-3.8599e-05,0.169958,0.000593105,0.0120657,713,708,-16.6595,4.83095
-504,316,-16.6889,-5.39728,0.000886733,-0.00061192,0.00044688,0.00100987,-0.000735056,0.268875,0.00101159,0.0152714,720,708,-16.6889,5.39725
-497,316,-16.6845,-5.92603,0.000813843,-0.00113137,0.000747139,0.00106769,-0.00138522,0.327518,0.00142013,0.0133348,727,708,-16.6845,5.92603
-490,316,-16.6916,-6.4776,0.000879435,-0.000990958,0.000773292,0.00115773,-0.00126926,0.345458,0.00140172,0.0178793,734,708,-16.6916,6.4776
-483,316,-16.6733,-7.03394,0,0,0,0,0,0,0,-1,741,708,-16.6733,7.03395
-476,316,-8.90894,-3.31207,0,0,0,0,0,0,0,-1,748,708,-8.90896,3.31206
-469,316,-6.24194,-1.42725,0,0,0,0,0,0,0,-1,755,708,-6.24192,1.42725
-462,316,-5.74237,-1.40039,0,0,0,0,0,0,0,-1,762,708,-5.74238,1.40039
-455,316,-5.44745,-1.21899,0,0,0,0,0,0,0,-1,769,708,-5.44746,1.21898
-448,316,-14.8945,0.655396,0,0,0,0,0,0,0,-1,776,708,-14.8946,-0.655396
-441,316,-14.9626,0.576111,0,0,0,0,0,0,0,-1,783,708,-14.9626,-0.576115
-434,316,-27.7723,1.15576,0,0,0,0,0,0,0,-1,790,708,-27.7723,-1.15579
-427,316,-28.0504,1.31427,0,0,0,0,0,0,0,-1,797,708,-28.0504,-1.31427
-420,316,-28.198,1.62891,0,0,0,0,0,0,0,-1,804,708,-28.198,-1.62889
-413,316,0,0,0,0,0,0,0,0,0,-1,811,708,0,0
-406,316,0,0,0,0,0,0,0,0,0,-1,818,708,0,0
-399,316,0,0,0,0,0,0,0,0,0,-1,825,708,0,0
-392,316,0,0,0,0,0,0,0,0,0,-1,832,708,0,0
-385,316,0,0,0,0,0,0,0,0,0,-1,839,708,0,0
-378,316,0,0,0,0,0,0,0,0,0,-1,846,708,0,0
-371,316,0,0,0,0,0,0,0,0,0,-1,853,708,0,0
-364,316,0,0,0,0,0,0,0,0,0,-1,860,708,0,0
-357,316,0,0,0,0,0,0,0,0,0,-1,867,708,0,0
-350,316,0,0,0,0,0,0,0,0,0,-1,874,708,0,0
-343,316,0,0,0,0,0,0,0,0,0,-1,881,708,0,0
-336,316,0,0,0,0,0,0,0,0,0,-1,888,708,0,0
-329,316,0,0,0,0,0,0,0,0,0,-1,895,708,0,0
-322,316,0,0,0,0,0,0,0,0,0,-1,902,708,0,0
-315,316,0,0,0,0,0,0,0,0,0,-1,909,708,0,0
-308,316,0,0,0,0,0,0,0,0,0,-1,916,708,0,0
-301,316,0,0,0,0,0,0,0,0,0,-1,923,708,0,0
-294,316,0,0,0,0,0,0,0,0,0,-1,930,708,0,0
-287,316,0,0,0,0,0,0,0,0,0,-1,937,708,0,0
-280,316,0,0,0,0,0,0,0,0,0,-1,944,708,0,0
-273,316,0,0,0,0,0,0,0,0,0,-1,951,708,0,0
-266,316,0,0,0,0,0,0,0,0,0,-1,958,708,0,0
-259,316,0,0,0,0,0,0,0,0,0,-1,965,708,0,0
-252,316,0,0,0,0,0,0,0,0,0,-1,972,708,0,0
-245,316,0,0,0,0,0,0,0,0,0,-1,979,708,0,0
-238,316,0,0,0,0,0,0,0,0,0,-1,986,708,0,0
-231,316,0,0,0,0,0,0,0,0,0,-1,993,708,0,0
-224,316,0,0,0,0,0,0,0,0,0,-1,1000,708,0,0
-217,316,0,0,0,0,0,0,0,0,0,-1,1007,708,0,0
-210,316,0,0,0,0,0,0,0,0,0,-1,1014,708,0,0
-203,316,0,0,0,0,0,0,0,0,0,-1,1021,708,0,0
-196,316,0,0,0,0,0,0,0,0,0,-1,1028,708,0,0
-189,316,0,0,0,0,0,0,0,0,0,-1,1035,708,0,0
-182,316,0,0,0,0,0,0,0,0,0,-1,1042,708,0,0
-175,316,0,0,0,0,0,0,0,0,0,-1,1049,708,0,0
-168,316,0,0,0,0,0,0,0,0,0,-1,1056,708,0,0
-161,316,0,0,0,0,0,0,0,0,0,-1,1063,708,0,0
-154,316,0,0,0,0,0,0,0,0,0,-1,1070,708,0,0
-147,316,0,0,0,0,0,0,0,0,0,-1,1077,708,0,0
-140,316,0,0,0,0,0,0,0,0,0,-1,1084,708,0,0
-133,316,0,0,0,0,0,0,0,0,0,-1,1091,708,0,0
-126,316,0,0,0,0,0,0,0,0,0,-1,1098,708,0,0
-119,316,0,0,0,0,0,0,0,0,0,-1,1105,708,0,0
-112,316,0,0,0,0,0,0,0,0,0,-1,1112,708,0,0
-105,316,0,0,0,0,0,0,0,0,0,-1,1119,708,0,0
-98,316,0,0,0,0,0,0,0,0,0,-1,1126,708,0,0
-91,316,0,0,0,0,0,0,0,0,0,-1,1133,708,0,0
-84,316,0,0,0,0,0,0,0,0,0,-1,1140,708,0,0
-77,316,0,0,0,0,0,0,0,0,0,-1,1147,708,0,0
-70,316,0,0,0,0,0,0,0,0,0,-1,1154,708,0,0
-63,316,0,0,0,0,0,0,0,0,0,-1,1161,708,0,0
-56,316,0,0,0,0,0,0,0,0,0,-1,1168,708,0,0
-49,316,0,0,0,0,0,0,0,0,0,-1,1175,708,0,0
-42,316,0,0,0,0,0,0,0,0,0,-1,1182,708,0,0
-35,316,0,0,0,0,0,0,0,0,0,-1,1189,708,0,0
-28,316,0,0,0,0,0,0,0,0,0,-1,1196,708,0,0
-21,316,0,0,0,0,0,0,0,0,0,-1,1203,708,0,0
-14,316,0,0,0,0,0,0,0,0,0,-1,1210,708,0,0
-7,316,0,0,0,0,0,0,0,0,0,-1,1217,708,0,0
0,316,0,0,0,0,0,0,0,0,0,-1,1224,708,0,0
7,316,0,0,0,0,0,0,0,0,0,-1,1231,708,0,0
14,316,0,0,0,0,0,0,0,0,0,-1,1238,708,0,0
21,316,0,0,0,0,0,0,0,0,0,-1,1245,708,0,0
28,316,0,0,0,0,0,0,0,0,0,-1,1252,708,0,0
35,316,0,0,0,0,0,0,0,0,0,-1,1259,708,0,0
42,316,0,0,0,0,0,0,0,0,0,-1,1266,708,0,0
49,316,0,0,0,0,0,0,0,0,0,-1,1273,708,0,0
56,316,0,0,0,0,0,0,0,0,0,-1,1280,708,0,0
63,316,0,0,0,0,0,0,0,0,0,-1,1287,708,0,0
70,316,0,0,0,0,0,0,0,0,0,-1,1294,708,0,0
77,316,0,0,0,0,0,0,0,0,0,-1,1301,708,0,0
84,316,0,0,0,0,0,0,0,0,0,-1,1308,708,0,0
91,316,0,0,0,0,0,0,0,0,0,-1,1315,708,0,0
98,316,0,0,0,0,0,0,0,0,0,-1,1322,708,0,0
105,316,0,0,0,0,0,0,0,0,0,-1,1329,708,0,0
112,316,0,0,0,0,0,0,0,0,0,-1,1336,708,0,0
119,316,0,0,0,0,0,0,0,0,0,-1,1343,708,0,0
126,316,0,0,0,0,0,0,0,0,0,-1,1350,708,0,0
133,316,0,0,0,0,0,0,0,0,0,-1,1357,708,0,0
140,316,0,0,0,0,0,0,0,0,0,-1,1364,708,0,0
147,316,0,0,0,0,0,0,0,0,0,-1,1371,708,0,0
154,316,0,0,0,0,0,0,0,0,0,-1,1378,708,0,0
161,316,0,0,0,0,0,0,0,0,0,-1,1385,708,0,0
168,316,0,0,0,0,0,0,0,0,0,-1,1392,708,0,0
175,316,0,0,0,0,0,0,0,0,0,-1,1399,708,0,0
182,316,0,0,0,0,0,0,0,0,0,-1,1406,708,0,0
189,316,0,0,0,0,0,0,0,0,0,-1,1413,708,0,0
196,316,0,0,0,0,0,0,0,0,0,-1,1420,708,0,0
203,316,0,0,0,0,0,0,0,0,0,-1,1427,708,0,0
210,316,0,0,0,0,0,0,0,0,0,-1,1434,708,0,0
217,316,0,0,0,0,0,0,0,0,0,-1,1441,708,0,0
224,316,0,0,0,0,0,0,0,0,0,-1,1448,708,0,0
231,316,0,0,0,0,0,0,0,0,0,-1,1455,708,0,0
238,316,0,0,0,0,0,0,0,0,0,-1,1462,708,0,0
245,316,0,0,0,0,0,0,0,0,0,-1,1469,708,0,0
252,316,0,0,0,0,0,0,0,0,0,-1,1476,708,0,0
259,316,0,0,0,0,0,0,0,0,0,-1,1483,708,0,0
266,316,0,0,0,0,0,0,0,0,0,-1,1490,708,0,0
273,316,0,0,0,0,0,0,0,0,0,-1,1497,708,0,0
280,316,0,0,0,0,0,0,0,0,0,-1,1504,708,0,0
287,316,0,0,0,0,0,0,0,0,0,-1,1511,708,0,0
294,316,0,0,0,0,0,0,0,0,0,-1,1518,708,0,0
301,316,0,0,0,0,0,0,0,0,0,-1,1525,708,0,0
308,316,0,0,0,0,0,0,0,0,0,-1,1532,708,0,0
315,316,0,0,0,0,0,0,0,0,0,-1,1539,708,0,0
322,316,0,0,0,0,0,0,0,0,0,-1,1546,708,0,0
329,316,0,0,0,0,0,0,0,0,0,-1,1553,708,0,0
336,316,0,0,0,0,0,0,0,0,0,-1,1560,708,0,0
343,316,0,0,0,0,0,0,0,0,0,-1,1567,708,0,0
350,316,0,0,0,0,0,0,0,0,0,-1,1574,708,0,0
357,316,0,0,0,0,0,0,0,0,0,-1,1581,708,0,0
364,316,0,0,0,0,0,0,0,0,0,-1,1588,708,0,0
371,316,0,0,0,0,0,0,0,0,0,-1,1595,708,0,0
378,316,0,0,0,0,0,0,0,0,0,-1,1602,708,0,0
385,316,0,0,0,0,0,0,0,0,0,-1,1609,708,0,0
392,316,0,0,0,0,0,0,0,0,0,-1,1616,708,0,0
399,316,0,0,0,0,0,0,0,0,0,-1,1623,708,0,0
406,316,0,0,0,0,0,0,0,0,0,-1,1630,708,0,0
413,316,0,0,0,0,0,0,0,0,0,-1,1637,708,0,0
420,316,0,0,0,0,0,0,0,0,0,-1,1644,708,0,0
427,316,0,0,0,0,0,0,0,0,0,-1,1651,708,0,0
434,316,0,0,0,0,0,0,0,0,0,-1,1658,708,0,0
441,316,0,0,0,0,0,0,0,0,0,-1,1665,708,0,0
448,316,0,0,0,0,0,0,0,0,0,-1,1672,708,0,0
455,316,0,0,0,0,0,0,0,0,0,-1,1679,708,0,0
462,316,0,0,0,0,0,0,0,0,0,-1,1686,708,0,0
469,316,0,0,0,0,0,0,0,0,0,-1,1693,708,0,0
476,316,0,0,0,0,0,0,0,0,0,-1,1700,708,0,0
483,316,0,0,0,0,0,0,0,0,0,-1,1707,708,0,0
490,316,0,0,0,0,0,0,0,0,0,-1,1714,708,0,0
497,316,0,0,0,0,0,0,0,0,0,-1,1721,708,0,0
504,316,0,0,0,0,0,0,0,0,0,-1,1728,708,0,0
511,316,0,0,0,0,0,0,0,0,0,-1,1735,708,0,0
518,316,0,0,0,0,0,0,0,0,0,-1,1742,708,0,0
525,316,0,0,0,0,0,0,0,0,0,-1,1749,708,0,0
532,316,33.8604,0.531128,0,0,0,0,0,0,0,-1,1756,708,33.8604,-0.531151
539,316,44.4543,2.73468,0,0,0,0,0,0,0,-1,1763,708,44.4543,-2.7347
546,316,44.713,3.35498,0,0,0,0,0,0,0,-1,1770,708,44.7131,-3.35501
553,316,39.9031,6.57275,0,0,0,0,0,0,0,-1,1777,708,39.9031,-6.57274
560,316,39.1196,1.10046,0,0,0,0,0,0,0,-1,1784,708,39.1197,-1.10048
567,316,40.3279,1.98065,0,0,0,0,0,0,0,-1,1791,708,40.3279,-1.98067
574,316,40.1323,2.25415,0,0,0,0,0,0,0,-1,1798,708,40.1324,-2.25415
581,316,24.6815,7.77496,0,0,0,0,0,0,0,-1,1805,708,24.6815,-7.77499
588,316,19.7659,2.90198,0,0,0,0,0,0,0,-1,1812,708,19.7659,-2.902
595,316,12.5363,1.50702,0,0,0,0,0,0,0,-1,1819,708,12.5363,-1.50701
602,316,7.79919,0.0422363,0,0,0,0,0,0,0,-1,1826,708,7.79923,-0.0422066
609,316,26.765,-5.4093,0,0,0,0,0,0,0,-1,1833,708,26.765,5.40932
616,316,26.8087,-4.78815,0.00180828,0.000746056,0.00293209,0.00425698,-0.00170264,0.695801,0.00354457,0.0168156,1840,708,26.8087,4.78817
623,316,26.817,-4.21375,0.00168663,0.000430913,0.00175321,0.00292101,-0.000803474,0.613454,0.00226322,0.0111096,1847,708,26.817,4.21376
630,316,26.7904,-3.65955,0.0015511,0.000185968,0.00107145,0.00213893,-0.000401861,0.501789,0.00157707,0.0127989,1854,708,26.7904,3.65954
637,316,26.7932,-3.06104,0.00103003,0.000185667,0.0004804,0.00124739,-3.17003e-05,0.424907,0.000842361,0.0122363,1861,708,26.7932,3.06105
644,316,26.7826,-2.47827,0.000190457,0.000290423,0.000307568,0.000552043,-7.1163e-05,0.865949,0.000393898,0.0124118,1868,708,26.7826,2.47826
651,316,26.7372,-1.90485,-0.000813697,0.000567651,0.000132474,0.00058024,-0.000826287,1.47605,0.00081619,0.014375,1875,708,26.7372,1.90482
658,316,26.6615,-1.31335,-0.00203187,0.000904104,-9.93516e-05,0.000907463,-0.00203522,-1.53701,0.00174005,0.0255714,1882,708,26.6615,1.31334
665,316,26.6204,-0.708984,-0.00345682,0.00131398,-0.00036983,0.00134248,-0.00348532,-1.49389,0.0028774,0.0191511,1889,708,26.6204,0.708975
672,316,26.6729,-0.107178,-0.00518832,0.00187948,-0.000694028,0.00194699,-0.00525582,-1.47383,0.00430233,0.0122352,1896,708,26.6728,0.107201
679,316,26.7058,0.508606,-0.00734905,0.00259743,-0.00110955,0.0027197,-0.00747132,-1.46104,0.00609325,0.0318013,1903,708,26.7059,-0.508583
686,316,26.2369,1.15161,-0.0100016,0.00343771,-0.001582,0.00362142,-0.0101854,-1.45519,0.00826617,0.0455753,1910,708,26.2369,-1.15161
693,316,25.6633,1.94043,0,0,0,0,0,0,0,-1,1917,708,25.6634,-1.94044
700,316,12.8749,2.89136,0,0,0,0,0,0,0,-1,1924,708,12.8748,-2.89137
707,316,15.7089,5.41486,0,0,0,0,0,0,0,-1,1931,708,15.7088,-5.41487
714,316,16.1727,5.52045,0,0,0,0,0,0,0,-1,1938,708,16.1728,-5.52042
721,316,16.7094,6.53351,0,0,0,0,0,0,0,-1,1945,708,16.7094,-6.5335
728,316,0,0,0,0,0,0,0,0,0,-1,1952,708,0,0
735,316,0,0,0,0,0,0,0,0,0,-1,1959,708,0,0
742,316,0,0,0,0,0,0,0,0,0,-1,1966,708,0,0
749,316,0,0,0,0,0,0,0,0,0,-1,1973,708,0,0
756,316,0,0,0,0,0,0,0,0,0,-1,1980,708,0,0
763,316,0,0,0,0,0,0,0,0,0,-1,1987,708,0,0
770,316,0,0,0,0,0,0,0,0,0,-1,1994,708,0,0
777,316,0,0,0,0,0,0,0,0,0,-1,2001,708,0,0
784,316,0,0,0,0,0,0,0,0,0,-1,2008,708,0,0
791,316,0,0,0,0,0,0,0,0,0,-1,2015,708,0,0
798,316,0,0,0,0,0,0,0,0,0,-1,2022,708,0,0
805,316,0,0,0,0,0,0,0,0,0,-1,2029,708,0,0
812,316,0,0,0,0,0,0,0,0,0,-1,2036,708,0,0
-700,309,0,0,0,0,0,0,0,0,0,-1,524,715,0,0
-693,309,0,0,0,0,0,0,0,0,0,-1,531,715,0,0
-686,309,0,0,0,0,0,0,0,0,0,-1,538,715,0,0
-679,309,0,0,0,0,0,0,0,0,0,-1,545,715,0,0
-672,309,0,0,0,0,0,0,0,0,0,-1,552,715,0,0
-665,309,0,0,0,0,0,0,0,0,0,-1,559,715,0,0
-658,309,0,0,0,0,0,0,0,0,0,-1,566,715,0,0
-651,309,0,0,0,0,0,0,0,0,0,-1,573,715,0,0
-644,309,0,0,0,0,0,0,0,0,0,-1,580,715,0,0
-637,309,0,0,0,0,0,0,0,0,0,-1,587,715,0,0
-630,309,0,0,0,0,0,0,0,0,0,-1,594,715,0,0
-623,309,0,0,0,0,0,0,0,0,0,-1,601,715,0,0
-616,309,0,0,0,0,0,0,0,0,0,-1,608,715,0,0
-609,309,-5.95392,-3.93689,0,0,0,0,0,0,0,-1,615,715,-5.95392,3.93686
-602,309,-4.99786,-3.31287,0,0,0,0,0,0,0,-1,622,715,-4.99786,3.31284
-595,309,-6.80847,2.4046,0,0,0,0,0,0,0,-1,629,715,-6.80845,-2.40458
-588,309,-6.08795,2.19324,0,0,0,0,0,0,0,-1,636,715,-6.08793,-2.19325
-581,309,-5.97552,1.3277,0,0,0,0,0,0,0,-1,643,715,-5.97552,-1.32769
-574,309,-8.73602,0.208435,0,0,0,0,0,0,0,-1,650,715,-8.73604,-0.208437
-567,309,-10.3909,0.85968,0,0,0,0,0,0,0,-1,657,715,-10.3909,-0.859696
-560,309,-16.9769,-1.34204,0,0,0,0,0,0,0,-1,664,715,-16.9768,1.34205
-553,309,-17.0662,-1.49066,-0.00131114,0.00420431,-0.000169632,0.00420952,-0.00131635,-1.54008,0.00333294,0.0449579,671,715,-17.0662,1.49064
-546,309,-17.1733,-1.98395,-0.000785282,0.00318151,-0.000283931,0.00320172,-0.000805502,-1.4997,0.00244757,0.022235,678,715,-17.1733,1.98392
-539,309,-17.1203,-2.57495,-0.000341631,0.00234564,-0.000251227,0.00236893,-0.000364915,-1.47838,0.00171392,0.0152395,685,715,-17.1203,2.57496
-532,309,-17.1206,-3.12793,-7.53182e-05,0.0014812,-0.000157266,0.00149693,-9.10489e-05,-1.4711,0.00102964,0.0120417,692,715,-17.1206,3.12792
-525,309,-17.1331,-3.7196,0.00022444,0.000761782,2.39139e-05,0.000762844,0.000223378,1.52641,0.000452856,0.0146305,699,715,-17.1331,3.71962
-518,309,-17.1747,-4.25739,0.000495931,8.05771e-05,0.000234292,0.000601339,-2.48314e-05,0.422773,0.000409421,0.0166508,706,715,-17.1747,4.25739
-511,309,-17.1984,-4.79736,0.000646575,-0.000553813,0.000483507,0.000817103,-0.000724341,0.339068,0.00089049,0.0137683,713,715,-17.1984,4.79737
-504,309,-17.2223,-5.35498,0.000689734,-0.00109285,0.000768754,0.000975465,-0.00137858,0.355858,0.00136574,0.0103057,720,715,-17.2223,5.35499
-497,309,-17.2394,-5.88239,0.000542126,-0.00167218,0.00114652,0.0010288,-0.00215886,0.401432,0.00187855,0.0139223,727,715,-17.2394,5.88239
-490,309,-17.2107,-6.45642,0.000592314,-0.00150268,0.00124387,0.001171,-0.00208136,0.435446,0.00190212,0.0489977,734,715,-17.2107,6.45643
-483,309,-16.9313,-7.276,0,0,0,0,0,0,0,-1,741,715,-16.9313,7.27602
-476,309,-5.29486,-1.2262,0,0,0,0,0,0,0,-1,748,715,-5.29484,1.22622
-469,309,-4.22717,-0.592896,0,0,0,0,0,0,0,-1,755,715,-4.2272,0.592905
-462,309,-10.428,2.46948,0,0,0,0,0,0,0,-1,762,715,-10.428,-2.46947
-455,309,-15.8216,0.00915527,0,0,0,0,0,0,0,-1,769,715,-15.8216,-0.00913359
-448,309,-37.3543,-1.02441,0,0,0,0,0,0,0,-1,776,715,-37.3543,1.02444
-441,309,-19.8181,1.4425,0,0,0,0,0,0,0,-1,783,715,-19.8181,-1.44249
-434,309,-28.3196,0.95105,0,0,0,0,0,0,0,-1,790,715,-28.3196,-0.951068
-427,309,-27.8553,1.40332,0,0,0,0,0,0,0,-1,797,715,-27.8553,-1.40334
-420,309,-27.3148,1.90747,0,0,0,0,0,0,0,-1,804,715,-27.3148,-1.90745
-413,309,0,0,0,0,0,0,0,0,0,-1,811,715,0,0
-406,309,0,0,0,0,0,0,0,0,0,-1,818,715,0,0
-399,309,0,0,0,0,0,0,0,0,0,-1,825,715,0,0
-392,309,0,0,0,0,0,0,0,0,0,-1,832,715,0,0
-385,309,0,0,0,0,0,0,0,0,0,-1,839,715,0,0
-378,309,0,0,0,0,0,0,0,0,0,-1,846,715,0,0
-371,309,0,0,0,0,0,0,0,0,0,-1,853,715,0,0
-364,309,0,0,0,0,0,0,0,0,0,-1,860,715,0,0
-357,309,0,0,0,0,0,0,0,0,0,-1,867,715,0,0
-350,309,0,0,0,0,0,0,0,0,0,-1,874,715,0,0
-343,309,0,0,0,0,0,0,0,0,0,-1,881,715,0,0
-336,309,0,0,0,0,0,0,0,0,0,-1,888,715,0,0
-329,309,0,0,0,0,0,0,0,0,0,-1,895,715,0,0
-322,309,0,0,0,0,0,0,0,0,0,-1,902,715,0,0
-315,309,0,0,0,0,0,0,0,0,0,-1,909,715,0,0
-308,309,0,0,0,0,0,0,0,0,0,-1,916,715,0,0
-301,309,0,0,0,0,0,0,0,0,0,-1,923,715,0,0
-294,309,0,0,0,0,0,0,0,0,0,-1,930,715,0,0
-287,309,0,0,0,0,0,0,0,0,0,-1,937,715,0,0
-280,309,0,0,0,0,0,0,0,0,0,-1,944,715,0,0
-273,309,0,0,0,0,0,0,0,0,0,-1,951,715,0,0
-266,309,0,0,0,0,0,0,0,0,0,-1,958,715,0,0
-259,309,0,0,0,0,0,0,0,0,0,-1,965,715,0,0
-252,309,0,0,0,0,0,0,0,0,0,-1,972,715,0,0
-245,309,0,0,0,0,0,0,0,0,0,-1,979,715,0,0
-238,309,0,0,0,0,0,0,0,0,0,-1,986,715,0,0
-231,309,0,0,0,0,0,0,0,0,0,-1,993,715,0,0
-224,309,0,0,0,0,0,0,0,0,0,-1,1000,715,0,0
-217,309,0,0,0,0,0,0,0,0,0,-1,1007,715,0,0
-210,309,0,0,0,0,0,0,0,0,0,-1,1014,715,0,0
-203,309,0,0,0,0,0,0,0,0,0,-1,1021,715,0,0
-196,309,0,0,0,0,0,0,0,0,0,-1,1028,715,0,0
-189,309,0,0,0,0,0,0,0,0,0,-1,1035,715,0,0
-182,309,0,0,0,0,0,0,0,0,0,-1,1042,715,0,0
-175,309,0,0,0,0,0,0,0,0,0,-1,1049,715,0,0
-168,309,0,0,0,0,0,0,0,0,0,-1,1056,715,0,0
-161,309,0,0,0,0,0,0,0,0,0,-1,1063,715,0,0
-154,309,0,0,0,0,0,0,0,0,0,-1,1070,715,0,0
-147,309,0,0,0,0,0,0,0,0,0,-1,1077,715,0,0
-140,309,0,0,0,0,0,0,0,0,0,-1,1084,715,0,0
-133,309,0,0,0,0,0,0,0,0,0,-1,1091,715,0,0
-126,309,0,0,0,0,0,0,0,0,0,-1,1098,715,0,0
-119,309,0,0,0,0,0,0,0,0,0,-1,1105,715,0,0
-112,309,0,0,0,0,0,0,0,0,0,-1,1112,715,0,0
-105,309,0,0,0,0,0,0,0,0,0,-1,1119,715,0,0
-98,309,0,0,0,0,0,0,0,0,0,-1,1126,715,0,0
-91,309,0,0,0,0,0,0,0,0,0,-1,1133,715,0,0
-84,309,0,0,0,0,0,0,0,0,0,-1,1140,715,0,0
-77,309,0,0,0,0,0,0,0,0,0,-1,1147,715,0,0
-70,309,0,0,0,0,0,0,0,0,0,-1,1154,715,0,0
-63,309,0,0,0,0,0,0,0,0,0,-1,1161,715,0,0
-56,309,0,0,0,0,0,0,0,0,0,-1,1168,715,0,0
-49,309,0,0,0,0,0,0,0,0,0,-1,1175,715,0,0
-42,309,0,0,0,0,0,0,0,0,0,-1,1182,715,0,0
-35,309,0,0,0,0,0,0,0,0,0,-1,1189,715,0,0
-28,309,0,0,0,0,0,0,0,0,0,-1,1196,715,0,0
-21,309,0,0,0,0,0,0,0,0,0,-1,1203,715,0,0
-14,309,0,0,0,0,0,0,0,0,0,-1,1210,715,0,0
-7,309,0,0,0,0,0,0,0,0,0,-1,1217,715,0,0
0,309,0,0,0,0,0,0,0,0,0,-1,1224,715,0,0
7,309,0,0,0,0,0,0,0,0,0,-1,1231,715,0,0
14,309,0,0,0,0,0,0,0,0,0,-1,1238,715,0,0
21,309,0,0,0,0,0,0,0,0,0,-1,1245,715,0,0
28,309,0,0,0,0,0,0,0,0,0,-1,1252,715,0,0
35,309,0,0,0,0,0,0,0,0,0,-1,1259,715,0,0
42,309,0,0,0,0,0,0,0,0,0,-1,1266,715,0,0
49,309,0,0,0,0,0,0,0,0,0,-1,1273,715,0,0
56,309,0,0,0,0,0,0,0,0,0,-1,1280,715,0,0
63,309,0,0,0,0,0,0,0,0,0,-1,1287,715,0,0
70,309,0,0,0,0,0,0,0,0,0,-1,1294,715,0,0
77,309,0,0,0,0,0,0,0,0,0,-1,1301,715,0,0
84,309,0,0,0,0,0,0,0,0,0,-1,1308,715,0,0
91,309,0,0,0,0,0,0,0,0,0,-1,1315,715,0,0
98,309,0,0,0,0,0,0,0,0,0,-1,1322,715,0,0
105,309,0,0,0,0,0,0,0,0,0,-1,1329,715,0,0
112,309,0,0,0,0,0,0,0,0,0,-1,1336,715,0,0
119,309,0,0,0,0,0,0,0,0,0,-1,1343,715,0,0
126,309,0,0,0,0,0,0,0,0,0,-1,1350,715,0,0
133,309,0,0,0,0,0,0,0,0,0,-1,1357,715,0,0
140,309,0,0,0,0,0,0,0,0,0,-1,1364,715,0,0
147,309,0,0,0,0,0,0,0,0,0,-1,1371,715,0,0
154,309,0,0,0,0,0,0,0,0,0,-1,1378,715,0,0
161,309,0,0,0,0,0,0,0,0,0,-1,1385,715,0,0
168,309,0,0,0,0,0,0,0,0,0,-1,1392,715,0,0
175,309,0,0,0,0,0,0,0,0,0,-1,1399,715,0,0
182,309,0,0,0,0,0,0,0,0,0,-1,1406,715,0,0
189,309,0,0,0,0,0,0,0,0,0,-1,1413,715,0,0
196,309,0,0,0,0,0,0,0,0,0,-1,1420,715,0,0
203,309,0,0,0,0,0,0,0,0,0,-1,1427,715,0,0
210,309,0,0,0,0,0,0,0,0,0,-1,1434,715,0,0
217,309,0,0,0,0,0,0,0,0,0,-1,1441,715,0,0
224,309,0,0,0,0,0,0,0,0,0,-1,1448,715,0,0
231,309,0,0,0,0,0,0,0,0,0,-1,1455,715,0,0
238,309,0,0,0,0,0,0,0,0,0,-1,1462,715,0,0
245,309,0,0,0,0,0,0,0,0,0,-1,1469,715,0,0
252,309,0,0,0,0,0,0,0,0,0,-1,1476,715,0,0
259,309,0,0,0,0,0,0,0,0,0,-1,1483,715,0,0
266,309,0,0,0,0,0,0,0,0,0,-1,1490,715,0,0
273,309,0,0,0,0,0,0,0,0,0,-1,1497,715,0,0
280,309,0,0,0,0,0,0,0,0,0,-1,1504,715,0,0
287,309,0,0,0,0,0,0,0,0,0,-1,1511,715,0,0
294,309,0,0,0,0,0,0,0,0,0,-1,1518,715,0,0
301,309,0,0,0,0,0,0,0,0,0,-1,1525,715,0,0
308,309,0,0,0,0,0,0,0,0,0,-1,1532,715,0,0
315,309,0,0,0,0,0,0,0,0,0,-1,1539,715,0,0
322,309,0,0,0,0,0,0,0,0,0,-1,1546,715,0,0
329,309,0,0,0,0,0,0,0,0,0,-1,1553,715,0,0
336,309,0,0,0,0,0,0,0,0,0,-1,1560,715,0,0
343,309,0,0,0,0,0,0,0,0,0,-1,1567,715,0,0
350,309,0,0,0,0,0,0,0,0,0,-1,1574,715,0,0
357,309,0,0,0,0,0,0,0,0,0,-1,1581,715,0,0
364,309,0,0,0,0,0,0,0,0,0,-1,1588,715,0,0
371,309,0,0,0,0,0,0,0,0,0,-1,1595,715,0,0
378,309,0,0,0,0,0,0,0,0,0,-1,1602,715,0,0
385,309,0,0,0,0,0,0,0,0,0,-1,1609,715,0,0
392,309,0,0,0,0,0,0,0,0,0,-1,1616,715,0,0
399,309,0,0,0,0,0,0,0,0,0,-1,1623,715,0,0
406,309,0,0,0,0,0,0,0,0,0,-1,1630,715,0,0
413,309,0,0,0,0,0,0,0,0,0,-1,1637,715,0,0
420,309,0,0,0,0,0,0,0,0,0,-1,1644,715,0,0
427,309,0,0,0,0,0,0,0,0,0,-1,1651,715,0,0
434,309,0,0,0,0,0,0,0,0,0,-1,1658,715,0,0
441,309,0,0,0,0,0,0,0,0,0,-1,1665,715,0,0
448,309,0,0,0,0,0,0,0,0,0,-1,1672,715,0,0
455,309,0,0,0,0,0,0,0,0,0,-1,1679,715,0,0
462,309,0,0,0,0,0,0,0,0,0,-1,1686,715,0,0
469,309,0,0,0,0,0,0,0,0,0,-1,1693,715,0,0
476,309,0,0,0,0,0,0,0,0,0,-1,1700,715,0,0
483,309,0,0,0,0,0,0,0,0,0,-1,1707,715,0,0
490,309,0,0,0,0,0,0,0,0,0,-1,1714,715,0,0
497,309,0,0,0,0,0,0,0,0,0,-1,1721,715,0,0
504,309,0,0,0,0,0,0,0,0,0,-1,1728,715,0,0
511,309,0,0,0,0,0,0,0,0,0,-1,1735,715,0,0
518,309,0,0,0,0,0,0,0,0,0,-1,1742,715,0,0
525,309,0,0,0,0,0,0,0,0,0,-1,1749,715,0,0
532,309,0,0,0,0,0,0,0,0,0,-1,1756,715,0,0
539,309,44.2073,2.66235,0,0,0,0,0,0,0,-1,1763,715,44.2073,-2.66238
546,309,44.4976,3.25531,0,0,0,0,0,0,0,-1,1770,715,44.4976,-3.25533
553,309,44.7058,3.60016,0,0,0,0,0,0,0,-1,1777,715,44.7058,-3.60018
560,309,46.9683,4.81451,0,0,0,0,0,0,0,-1,1784,715,46.9682,-4.8145
567,309,38.2872,1.72437,0,0,0,0,0,0,0,-1,1791,715,38.2872,-1.72434
574,309,39.0372,2.01044,0,0,0,0,0,0,0,-1,1798,715,39.0372,-2.01045
581,309,39.9871,2.35028,0,0,0,0,0,0,0,-1,1805,715,39.9871,-2.3503
588,309,26.2064,7.76422,0,0,0,0,0,0,0,-1,1812,715,26.2064,-7.7642
595,309,19.585,3.71558,0,0,0,0,0,0,0,-1,1819,715,19.5849,-3.71555
602,309,11.0811,3.47772,0,0,0,0,0,0,0,-1,1826,715,11.0811,-3.47772
609,309,27.3257,-5.48724,0,0,0,0,0,0,0,-1,1833,715,27.3256,5.48725
616,309,27.3821,-4.8233,0.00125364,0.00235287,0.00421742,0.00605634,-0.00244982,0.850193,0.00505603,0.0278259,1840,715,27.3821,4.82333
623,309,27.4209,-4.19226,0.00129442,0.00129435,0.0025086,0.00380298,-0.00121421,0.785392,0.00302248,0.011497,1847,715,27.4209,4.19226
630,309,27.3912,-3.62732,0.0013685,0.000471164,0.00139097,0.00238137,-0.000541709,0.629388,0.0017956,0.011025,1854,715,27.3913,3.62731
637,309,27.3403,-3.04266,0.00107607,0.000129019,0.000483341,0.00127919,-7.4098e-05,0.397828,0.000878532,0.0140348,1861,715,27.3403,3.04266
644,309,27.3207,-2.45685,0.000362644,0.000155749,0.000320543,0.000596019,-7.76257e-05,0.629311,0.000425588,0.014682,1868,715,27.3207,2.45687
651,309,27.3164,-1.86926,-0.00048268,0.000401186,0.000177343,0.000435441,-0.000516935,1.37999,0.000550525,0.0138941,1875,715,27.3164,1.86929
658,309,27.2794,-1.26434,-0.00149739,0.000771315,1.7381e-05,0.000771448,-0.00149752,1.56314,0.00133216,0.0203165,1882,715,27.2794,1.26434
665,309,27.2936,-0.694092,-0.00263383,0.00125667,-0.000140449,0.00126173,-0.0026389,-1.53476,0.00229834,0.0174596,1889,715,27.2936,0.694099
672,309,27.2675,-0.117676,-0.00398645,0.00190649,-0.000316306,0.00192342,-0.00400338,-1.51733,0.00349137,0.0151345,1896,715,27.2675,0.117695
679,309,27.2699,0.512756,-0.00557527,0.00272982,-0.00051702,0.00276188,-0.00560733,-1.50886,0.00492418,0.0199746,1903,715,27.2698,-0.512768
686,309,27.1138,1.20227,-0.00739985,0.00369339,-0.000706671,0.00373822,-0.00744468,-1.50743,0.0065736,0.0347034,1910,715,27.1138,-1.20226
693,309,26.6954,1.86169,0,0,0,0,0,0,0,-1,1917,715,26.6954,-1.86172
700,309,23.0179,3.08337,0,0,0,0,0,0,0,-1,1924,715,23.018,-3.08336
707,309,15.6318,4.58655,0,0,0,0,0,0,0,-1,1931,715,15.6318,-4.58657
714,309,16.7573,6.68286,0,0,0,0,0,0,0,-1,1938,715,16.7574,-6.68284
721,309,16.8337,5.4458,0,0,0,0,0,0,0,-1,1945,715,16.8338,-5.44582
728,309,0,0,0,0,0,0,0,0,0,-1,1952,715,0,0
735,309,0,0,0,0,0,0,0,0,0,-1,1959,715,0,0
742,309,0,0,0,0,0,0,0,0,0,-1,1966,715,0,0
749,309,0,0,0,0,0,0,0,0,0,-1,1973,715,0,0
756,309,0,0,0,0,0,0,0,0,0,-1,1980,715,0,0
763,309,0,0,0,0,0,0,0,0,0,-1,1987,715,0,0
770,309,0,0,0,0,0,0,0,0,0,-1,1994,715,0,0
777,309,0,0,0,0,0,0,0,0,0,-1,2001,715,0,0
784,309,0,0,0,0,0,0,0,0,0,-1,2008,715,0,0
791,309,0,0,0,0,0,0,0,0,0,-1,2015,715,0,0
798,309,0,0,0,0,0,0,0,0,0,-1,2022,715,0,0
805,309,0,0,0,0,0,0,0,0,0,-1,2029,715,0,0
812,309,0,0,0,0,0,0,0,0,0,-1,2036,715,0,0
-700,302,0,0,0,0,0,0,0,0,0,-1,524,722,0,0
-693,302,0,0,0,0,0,0,0,0,0,-1,531,722,0,0
-686,302,0,0,0,0,0,0,0,0,0,-1,538,722,0,0
-679,302,0,0,0,0,0,0,0,0,0,-1,545,722,0,0
-672,302,0,0,0,0,0,0,0,0,0,-1,552,722,0,0
-665,302,0,0,0,0,0,0,0,0,0,-1,559,722,0,0
-658,302,0,0,0,0,0,0,0,0,0,-1,566,722,0,0
-651,302,0,0,0,0,0,0,0,0,0,-1,573,722,0,0
-644,302,0,0,0,0,0,0,0,0,0,-1,580,722,0,0
-637,302,0,0,0,0,0,0,0,0,0,-1,587,722,0,0
-630,302,0,0,0,0,0,0,0,0,0,-1,594,722,0,0
-623,302,0,0,0,0,0,0,0,0,0,-1,601,722,0,0
-616,302,0,0,0,0,0,0,0,0,0,-1,608,722,0,0
-609,302,-7.79266,-3.71649,0,0,0,0,0,0,0,-1,615,722,-7.79267,3.7165
-602,302,0.92865,-1.99158,0,0,0,0,0,0,0,-1,622,722,0.928637,1.99157
-595,302,-7.89941,2.13641,0,0,0,0,0,0,0,-1,629,722,-7.89939,-2.13639
-588,302,-7.10895,1.79163,0,0,0,0,0,0,0,-1,636,722,-7.10896,-1.79163
-581,302,-9.17566,1.09448,0,0,0,0,0,0,0,-1,643,722,-9.17569,-1.09445
-574,302,-11.5183,-0.344543,0,0,0,0,0,0,0,-1,650,722,-11.5183,0.344557
-567,302,-12.1534,-0.672241,0,0,0,0,0,0,0,-1,657,722,-12.1535,0.672246
-560,302,-17.7625,-0.76355,0,0,0,0,0,0,0,-1,664,722,-17.7625,0.763524
-553,302,-17.6791,-1.37683,-0.00105417,0.00302813,0.00026949,0.00304584,-0.00107188,1.50516,0.00246674,0.0238106,671,722,-17.6791,1.37682
-546,302,-17.6896,-1.99988,-0.000716076,0.00217202,0.000177196,0.00218285,-0.000726906,1.50975,0.00174864,0.0159729,678,722,-17.6896,1.99989
-539,302,-17.7037,-2.52142,-0.000371054,0.00146584,0.000179974,0.00148331,-0.000388521,1.47404,0.00114065,0.0151357,685,722,-17.7037,2.52145
-532,302,-17.6947,-3.09058,-0.000206086,0.000711418,0.000256877,0.000778441,-0.000273109,1.31557,0.000630047,0.0137721,692,722,-17.6947,3.09055
-525,302,-17.663,-3.71356,4.13648e-05,0.000139357,0.00038718,0.000480629,-0.000299907,0.848337,0.000454651,0.0185451,699,722,-17.663,3.71355
-518,302,-17.7194,-4.23468,0.000242589,-0.000322851,0.000539524,0.00056898,-0.000649243,0.54406,0.00070385,0.0210788,706,722,-17.7194,4.23467
-511,302,-17.7556,-4.74414,0.00026819,-0.000700143,0.000740074,0.000668403,-0.00110036,0.495732,0.00103129,0.0113667,713,722,-17.7556,4.74414
-504,302,-17.776,-5.32288,0.00010403,-0.000879713,0.000979015,0.00070779,-0.00148347,0.552609,0.00129128,0.00948422,720,722,-17.776,5.32287
-497,302,-17.8401,-5.84534,-0.000382165,-0.000918558,0.00130406,0.000680991,-0.00198171,0.683981,0.00159729,0.0143997,727,722,-17.8401,5.84535
-490,302,-17.7006,-6.43677,0,0,0,0,0,0,0,-1,734,722,-17.7006,6.43675
-483,302,-9.53412,-3.1673,0,0,0,0,0,0,0,-1,741,722,-9.53411,3.1673
-476,302,-4.29749,-0.203491,0,0,0,0,0,0,0,-1,748,722,-4.29751,0.203464
-469,302,-12.369,1.42859,0,0,0,0,0,0,0,-1,755,722,-12.3689,-1.42857
-462,302,-17.4766,0.310791,0,0,0,0,0,0,0,-1,762,722,-17.4766,-0.310788
-455,302,-36.7368,-2.97418,0,0,0,0,0,0,0,-1,769,722,-36.7368,2.97416
-448,302,-37.3755,-1.21204,0,0,0,0,0,0,0,-1,776,722,-37.3755,1.21201
-441,302,-38.1774,-1.19635,0,0,0,0,0,0,0,-1,783,722,-38.1774,1.19636
-434,302,-38.5441,-0.682678,0,0,0,0,0,0,0,-1,790,722,-38.5441,0.682664
-427,302,-27.1735,1.81506,0,0,0,0,0,0,0,-1,797,722,-27.1735,-1.81504
-420,302,0,0,0,0,0,0,0,0,0,-1,804,722,0,0
-413,302,0,0,0,0,0,0,0,0,0,-1,811,722,0,0
-406,302,0,0,0,0,0,0,0,0,0,-1,818,722,0,0
-399,302,0,0,0,0,0,0,0,0,0,-1,825,722,0,0
-392,302,0,0,0,0,0,0,0,0,0,-1,832,722,0,0
-385,302,0,0,0,0,0,0,0,0,0,-1,839,722,0,0
-378,302,0,0,0,0,0,0,0,0,0,-1,846,722,0,0
-371,302,0,0,0,0,0,0,0,0,0,-1,853,722,0,0
-364,302,0,0,0,0,0,0,0,0,0,-1,860,722,0,0
-357,302,0,0,0,0,0,0,0,0,0,-1,867,722,0,0
-350,302,0,0,0,0,0,0,0,0,0,-1,874,722,0,0
-343,302,0,0,0,0,0,0,0,0,0,-1,881,722,0,0
-336,302,0,0,0,0,0,0,0,0,0,-1,888,722,0,0
-329,302,0,0,0,0,0,0,0,0,0,-1,895,722,0,0
-322,302,0,0,0,0,0,0,0,0,0,-1,902,722,0,0
-315,302,0,0,0,0,0,0,0,0,0,-1,909,722,0,0
-308,302,0,0,0,0,0,0,0,0,0,-1,916,722,0,0
-301,302,0,0,0,0,0,0,0,0,0,-1,923,722,0,0
-294,302,0,0,0,0,0,0,0,0,0,-1,930,722,0,0
-287,302,0,0,0,0,0,0,0,0,0,-1,937,722,0,0
-280,302,0,0,0,0,0,0,0,0,0,-1,944,722,0,0
-273,302,0,0,0,0,0,0,0,0,0,-1,951,722,0,0
-266,302,0,0,0,0,0,0,0,0,0,-1,958,722,0,0
-259,302,0,0,0,0,0,0,0,0,0,-1,965,722,0,0
-252,302,0,0,0,0,0,0,0,0,0,-1,972,722,0,0
-245,302,0,0,0,0,0,0,0,0,0,-1,979,722,0,0
-238,302,0,0,0,0,0,0,0,0,0,-1,986,722,0,0
-231,302,0,0,0,0,0,0,0,0,0,-1,993,722,0,0
-224,302,0,0,0,0,0,0,0,0,0,-1,1000,722,0,0
-217,302,0,0,0,0,0,0,0,0,0,-1,1007,722,0,0
-210,302,0,0,0,0,0,0,0,0,0,-1,1014,722,0,0
-203,302,0,0,0,0,0,0,0,0,0,-1,1021,722,0,0
-196,302,0,0,0,0,0,0,0,0,0,-1,1028,722,0,0
-189,302,0,0,0,0,0,0,0,0,0,-1,1035,722,0,0
-182,302,0,0,0,0,0,0,0,0,0,-1,1042,722,0,0
-175,302,0,0,0,0,0,0,0,0,0,-1,1049,722,0,0
-168,302,0,0,0,0,0,0,0,0,0,-1,1056,722,0,0
-161,302,0,0,0,0,0,0,0,0,0,-1,1063,722,0,0
-154,302,0,0,0,0,0,0,0,0,0,-1,1070,722,0,0
-147,302,0,0,0,0,0,0,0,0,0,-1,1077,722,0,0
-140,302,0,0,0,0,0,0,0,0,0,-1,1084,722,0,0
-133,302,0,0,0,0,0,0,0,0,0,-1,1091,722,0,0
-126,302,0,0,0,0,0,0,0,0,0,-1,1098,722,0,0
-119,302,0,0,0,0,0,0,0,0,0,-1,1105,722,0,0
-112,302,0,0,0,0,0,0,0,0,0,-1,1112,722,0,0
-105,302,0,0,0,0,0,0,0,0,0,-1,1119,722,0,0
-98,302,0,0,0,0,0,0,0,0,0,-1,1126,722,0,0
-91,302,0,0,0,0,0,0,0,0,0,-1,1133,722,0,0
-84,302,0,0,0,0,0,0,0,0,0,-1,1140,722,0,0
-77,302,0,0,0,0,0,0,0,0,0,-1,1147,722,0,0
-70,302,0,0,0,0,0,0,0,0,0,-1,1154,722,0,0
-63,302,0,0,0,0,0,0,0,0,0,-1,1161,722,0,0
-56,302,0,0,0,0,0,0,0,0,0,-1,1168,722,0,0
-49,302,0,0,0,0,0,0,0,0,0,-1,1175,722,0,0
-42,302,0,0,0,0,0,0,0,0,0,-1,1182,722,0,0
-35,302,0,0,0,0,0,0,0,0,0,-1,1189,722,0,0
-28,302,0,0,0,0,0,0,0,0,0,-1,1196,722,0,0
-21,302,0,0,0,0,0,0,0,0,0,-1,1203,722,0,0
-14,302,0,0,0,0,0,0,0,0,0,-1,1210,722,0,0
-7,302,0,0,0,0,0,0,0,0,0,-1,1217,722,0,0
0,302,0,0,0,0,0,0,0,0,0,-1,1224,722,0,0
7,302,0,0,0,0,0,0,0,0,0,-1,1231,722,0,0
14,302,0,0,0,0,0,0,0,0,0,-1,1238,722,0,0
21,302,0,0,0,0,0,0,0,0,0,-1,1245,722,0,0
28,302,0,0,0,0,0,0,0,0,0,-1,1252,722,0,0
35,302,0,0,0,0,0,0,0,0,0,-1,1259,722,0,0
42,302,0,0,0,0,0,0,0,0,0,-1,1266,722,0,0
49,302,0,0,0,0,0,0,0,0,0,-1,1273,722,0,0
56,302,0,0,0,0,0,0,0,0,0,-1,1280,722,0,0
63,302,0,0,0,0,0,0,0,0,0,-1,1287,722,0,0
70,302,0,0,0,0,0,0,0,0,0,-1,1294,722,0,0
77,302,0,0,0,0,0,0,0,0,0,-1,1301,722,0,0
84,302,0,0,0,0,0,0,0,0,0,-1,1308,722,0,0
91,302,0,0,0,0,0,0,0,0,0,-1,1315,722,0,0
98,302,0,0,0,0,0,0,0,0,0,-1,1322,722,0,0
105,302,0,0,0,0,0,0,0,0,0,-1,1329,722,0,0
112,302,0,0,0,0,0,0,0,0,0,-1,1336,722,0,0
119,302,0,0,0,0,0,0,0,0,0,-1,1343,722,0,0
126,302,0,0,0,0,0,0,0,0,0,-1,1350,722,0,0
133,302,0,0,0,0,0,0,0,0,0,-1,1357,722,0,0
140,302,0,0,0,0,0,0,0,0,0,-1,1364,722,0,0
147,302,0,0,0,0,0,0,0,0,0,-1,1371,722,0,0
154,302,0,0,0,0,0,0,0,0,0,-1,1378,722,0,0
161,302,0,0,0,0,0,0,0,0,0,-1,1385,722,0,0
168,302,0,0,0,0,0,0,0,0,0,-1,1392,722,0,0
175,302,0,0,0,0,0,0,0,0,0,-1,1399,722,0,0
182,302,0,0,0,0,0,0,0,0,0,-1,1406,722,0,0
189,302,0,0,0,0,0,0,0,0,0,-1,1413,722,0,0
196,302,0,0,0,0,0,0,0,0,0,-1,1420,722,0,0
203,302,0,0,0,0,0,0,0,0,0,-1,1427,722,0,0
210,302,0,0,0,0,0,0,0,0,0,-1,1434,722,0,0
217,302,0,0,0,0,0,0,0,0,0,-1,1441,722,0,0
224,302,0,0,0,0,0,0,0,0,0,-1,1448,722,0,0
231,302,0,0,0,0,0,0,0,0,0,-1,1455,722,0,0
238,302,0,0,0,0,0,0,0,0,0,-1,1462,722,0,0
245,302,0,0,0,0,0,0,0,0,0,-1,1469,722,0,0
252,302,0,0,0,0,0,0,0,0,0,-1,1476,722,0,0
259,302,0,0,0,0,0,0,0,0,0,-1,1483,722,0,0
266,302,0,0,0,0,0,0,0,0,0,-1,1490,722,0,0
273,302,0,0,0,0,0,0,0,0,0,-1,1497,722,0,0
280,302,0,0,0,0,0,0,0,0,0,-1,1504,722,0,0
287,302,0,0,0,0,0,0,0,0,0,-1,1511,722,0,0
294,302,0,0,0,0,0,0,0,0,0,-1,1518,722,0,0
301,302,0,0,0,0,0,0,0,0,0,-1,1525,722,0,0
308,302,0,0,0,0,0,0,0,0,0,-1,1532,722,0,0
315,302,0,0,0,0,0,0,0,0,0,-1,1539,722,0,0
322,302,0,0,0,0,0,0,0,0,0,-1,1546,722,0,0
329,302,0,0,0,0,0,0,0,0,0,-1,1553,722,0,0
336,302,0,0,0,0,0,0,0,0,0,-1,1560,722,0,0
343,302,0,0,0,0,0,0,0,0,0,-1,1567,722,0,0
350,302,0,0,0,0,0,0,0,0,0,-1,1574,722,0,0
357,302,0,0,0,0,0,0,0,0,0,-1,1581,722,0,0
364,302,0,0,0,0,0,0,0,0,0,-1,1588,722,0,0
371,302,0,0,0,0,0,0,0,0,0,-1,1595,722,0,0
378,302,0,0,0,0,0,0,0,0,0,-1,1602,722,0,0
385,302,0,0,0,0,0,0,0,0,0,-1,1609,722,0,0
392,302,0,0,0,0,0,0,0,0,0,-1,1616,722,0,0
399,302,0,0,0,0,0,0,0,0,0,-1,1623,722,0,0
406,302,0,0,0,0,0,0,0,0,0,-1,1630,722,0,0
413,302,0,0,0,0,0,0,0,0,0,-1,1637,722,0,0
420,302,0,0,0,0,0,0,0,0,0,-1,1644,722,0,0
427,302,0,0,0,0,0,0,0,0,0,-1,1651,722,0,0
434,302,0,0,0,0,0,0,0,0,0,-1,1658,722,0,0
441,302,0,0,0,0,0,0,0,0,0,-1,1665,722,0,0
448,302,0,0,0,0,0,0,0,0,0,-1,1672,722,0,0
455,302,0,0,0,0,0,0,0,0,0,-1,1679,722,0,0
462,302,0,0,0,0,0,0,0,0,0,-1,1686,722,0,0
469,302,0,0,0,0,0,0,0,0,0,-1,1693,722,0,0
476,302,0,0,0,0,0,0,0,0,0,-1,1700,722,0,0
483,302,0,0,0,0,0,0,0,0,0,-1,1707,722,0,0
490,302,0,0,0,0,0,0,0,0,0,-1,1714,722,0,0
497,302,0,0,0,0,0,0,0,0,0,-1,1721,722,0,0
504,302,0,0,0,0,0,0,0,0,0,-1,1728,722,0,0
511,302,0,0,0,0,0,0,0,0,0,-1,1735,722,0,0
518,302,0,0,0,0,0,0,0,0,0,-1,1742,722,0,0
525,302,0,0,0,0,0,0,0,0,0,-1,1749,722,0,0
532,302,0,0,0,0,0,0,0,0,0,-1,1756,722,0,0
539,302,0,0,0,0,0,0,0,0,0,-1,1763,722,0,0
546,302,44.5226,3.35297,0,0,0,0,0,0,0,-1,1770,722,44.5226,-3.35296
553,302,46.0334,4.32007,0,0,0,0,0,0,0,-1,1777,722,46.0334,-4.32008
560,302,46.5814,4.2301,0,0,0,0,0,0,0,-1,1784,722,46.5814,-4.2301
567,302,47.1295,4.14014,0,0,0,0,0,0,0,-1,1791,722,47.1295,-4.14013
574,302,37.9297,1.69781,0,0,0,0,0,0,0,-1,1798,722,37.9297,-1.69781
581,302,38.2401,2.2843,0,0,0,0,0,0,0,-1,1805,722,38.2402,-2.28431
588,302,26.9731,7.19983,0,0,0,0,0,0,0,-1,1812,722,26.9732,-7.19981
595,302,27.3826,8.13104,0,0,0,0,0,0,0,-1,1819,722,27.3825,-8.13102
602,302,14.7349,5.21246,0,0,0,0,0,0,0,-1,1826,722,14.7349,-5.21247
609,302,11.1578,-0.125854,0,0,0,0,0,0,0,-1,1833,722,11.1579,0.125839
616,302,27.9475,-4.83154,0,0,0,0,0,0,0,-1,1840,722,27.9475,4.83154
623,302,27.9755,-4.14917,0.00141467,0.00240557,0.00320537,0.00515355,-0.00133331,0.862076,0.00395576,0.0163434,1847,722,27.9755,4.14919
630,302,27.9366,-3.58606,0.00142295,0.00102429,0.00178329,0.00301801,-0.000570776,0.729741,0.00222678,0.012125,1854,722,27.9366,3.58605
637,302,27.8818,-3.01678,0.0011738,0.000244758,0.000536743,0.00141912,-5.6054e-07,0.428702,0.000946267,0.0158504,1861,722,27.8818,3.01679
644,302,27.8938,-2.4325,0.000476478,6.53487e-05,0.000322891,0.000653687,-0.00011186,0.501936,0.000477465,0.016162,1868,722,27.8937,2.4325
651,302,27.9135,-1.83392,-0.000240125,0.000215914,0.000187803,0.000283297,-0.000307508,1.2263,0.000341197,0.0147472,1875,722,27.9135,1.83392
658,302,27.9058,-1.24866,-0.00105293,0.000553728,7.82118e-05,0.000557526,-0.00105673,1.52227,0.00094673,0.0153219,1882,722,27.9058,1.24866
665,302,27.8876,-0.694214,-0.00191832,0.00110048,6.16622e-07,0.00110048,-0.00191832,1.57059,0.0017641,0.0150837,1889,722,27.8876,0.694187
672,302,27.8444,-0.120056,-0.00287924,0.00182672,-3.39055e-05,0.00182697,-0.00287948,-1.56359,0.00273982,0.0123325,1896,722,27.8444,0.120049
679,302,27.8114,0.488647,-0.00393854,0.002719,-5.70788e-05,0.00271949,-0.00393903,-1.56222,0.00386573,0.0100151,1903,722,27.8114,-0.488638
686,302,27.8204,1.10901,-0.00502579,0.00376532,-7.52146e-06,0.00376532,-0.00502579,-1.56994,0.00509291,0.0197891,1910,722,27.8205,-1.10902
693,302,27.778,1.73383,0,0,0,0,0,0,0,-1,1917,722,27.778,-1.73385
700,302,25.4069,1.97308,0,0,0,0,0,0,0,-1,1924,722,25.4068,-1.97311
707,302,16.7321,4.76685,0,0,0,0,0,0,0,-1,1931,722,16.7321,-4.76687
714,302,17.2,5.77594,0,0,0,0,0,0,0,-1,1938,722,17.2,-5.77595
721,302,17.7914,6.60394,0,0,0,0,0,0,0,-1,1945,722,17.7914,-6.60395
728,302,17.2798,4.81702,0,0,0,0,0,0,0,-1,1952,722,17.2798,-4.81703
735,302,0,0,0,0,0,0,0,0,0,-1,1959,722,0,0
742,302,0,0,0,0,0,0,0,0,0,-1,1966,722,0,0
749,302,0,0,0,0,0,0,0,0,0,-1,1973,722,0,0
756,302,0,0,0,0,0,0,0,0,0,-1,1980,722,0,0
763,302,0,0,0,0,0,0,0,0,0,-1,1987,722,0,0
770,302,0,0,0,0,0,0,0,0,0,-1,1994,722,0,0
777,302,0,0,0,0,0,0,0,0,0,-1,2001,722,0,0
784,302,0,0,0,0,0,0,0,0,0,-1,2008,722,0,0
791,302,0,0,0,0,0,0,0,0,0,-1,2015,722,0,0
798,302,0,0,0,0,0,0,0,0,0,-1,2022,722,0,0
805,302,0,0,0,0,0,0,0,0,0,-1,2029,722,0,0
812,302,0,0,0,0,0,0,0,0,0,-1,2036,722,0,0
-700,295,0,0,0,0,0,0,0,0,0,-1,524,729,0,0
-693,295,0,0,0,0,0,0,0,0,0,-1,531,729,0,0
-686,295,0,0,0,0,0,0,0,0,0,-1,538,729,0,0
-679,295,0,0,0,0,0,0,0,0,0,-1,545,729,0,0
-672,295,0,0,0,0,0,0,0,0,0,-1,552,729,0,0
-665,295,0,0,0,0,0,0,0,0,0,-1,559,729,0,0
-658,295,0,0,0,0,0,0,0,0,0,-1,566,729,0,0
-651,295,0,0,0,0,0,0,0,0,0,-1,573,729,0,0
-644,295,0,0,0,0,0,0,0,0,0,-1,580,729,0,0
-637,295,0,0,0,0,0,0,0,0,0,-1,587,729,0,0
-630,295,0,0,0,0,0,0,0,0,0,-1,594,729,0,0
-623,295,0,0,0,0,0,0,0,0,0,-1,601,729,0,0
-616,295,-13.4911,1.31738,0,0,0,0,0,0,0,-1,608,729,-13.4911,-1.3174
-609,295,-10.2864,0.832031,0,0,0,0,0,0,0,-1,615,729,-10.2863,-0.832034
-602,295,-8.19006,3.01587,0,0,0,0,0,0,0,-1,622,729,-8.19005,-3.01588
-595,295,-0.615479,-1.95447,0,0,0,0,0,0,0,-1,629,729,-0.615481,1.95445
-588,295,-7.98999,1.56903,0,0,0,0,0,0,0,-1,636,729,-7.98997,-1.56905
-581,295,-12.0404,0.150574,0,0,0,0,0,0,0,-1,643,729,-12.0404,-0.150604
-574,295,-12.1605,-0.0739746,0,0,0,0,0,0,0,-1,650,729,-12.1605,0.0739856
-567,295,-17.9503,-0.238708,0,0,0,0,0,0,0,-1,657,729,-17.9503,0.238686
-560,295,-18.1664,-0.89386,-0.000804387,0.00290433,0.000604034,0.00300023,-0.000900286,1.41335,0.00235824,0.0327923,664,729,-18.1664,0.89388
-553,295,-18.1866,-1.47723,-0.00072586,0.00219311,0.00047,0.00226692,-0.000799671,1.41502,0.00183681,0.0179533,671,729,-18.1866,1.47726
-546,295,-18.2637,-2.02264,-0.000591453,0.00140698,0.000446579,0.00150224,-0.000686707,1.36065,0.00129269,0.0212646,678,729,-18.2637,2.02263
-539,295,-18.2818,-2.51093,-0.000388539,0.000737128,0.000478846,0.000913264,-0.000564674,1.21832,0.000861163,0.019493,685,729,-18.2818,2.51092
-532,295,-18.2858,-3.06531,-0.000350479,1.37662e-05,0.000588822,0.000447988,-0.000784701,0.935381,0.000720489,0.0155721,692,729,-18.2858,3.06533
-525,295,-18.2716,-3.65601,-0.000224665,-0.000447795,0.000723778,0.000396096,-0.00106856,0.708929,0.000874822,0.0146568,699,729,-18.2716,3.65603
-518,295,-18.2848,-4.17786,-0.000186644,-0.000670375,0.000852326,0.00045747,-0.00131449,0.647147,0.00106218,0.0111725,706,729,-18.2848,4.17788
-511,295,-18.3037,-4.70941,-0.000395778,-0.000676192,0.000985136,0.000459078,-0.00153105,0.714712,0.00120328,0.00934648,713,729,-18.3037,4.70942
-504,295,-18.331,-5.26776,-0.000844481,-0.000312779,0.00111034,0.000563094,-0.00172035,0.902902,0.00137363,0.0108668,720,729,-18.331,5.26779
-497,295,-18.3995,-5.75269,-0.0017222,0.000512593,0.00122547,0.00105362,-0.00226322,1.15505,0.00195697,0.021052,727,729,-18.3995,5.75266
-490,295,-18.4681,-6.203,0,0,0,0,0,0,0,-1,734,729,-18.4681,6.20302
-483,295,-6.84503,-0.454651,0,0,0,0,0,0,0,-1,741,729,-6.84505,0.454639
-476,295,-13.1738,-0.836243,0,0,0,0,0,0,0,-1,748,729,-13.1738,0.836223
-469,295,-26.5608,-0.466187,0,0,0,0,0,0,0,-1,755,729,-26.5608,0.466162
-462,295,-29.7701,-0.792664,0,0,0,0,0,0,0,-1,762,729,-29.7701,0.792642
-455,295,-37.14,-1.6676,0,0,0,0,0,0,0,-1,769,729,-37.14,1.66761
-448,295,-37.1309,-1.22095,0,0,0,0,0,0,0,-1,776,729,-37.1308,1.22097
-441,295,-37.28,-1.02405,0,0,0,0,0,0,0,-1,783,729,-37.28,1.02408
-434,295,-37.5234,-0.676086,0,0,0,0,0,0,0,-1,790,729,-37.5234,0.676077
-427,295,0,0,0,0,0,0,0,0,0,-1,797,729,0,0
-420,295,0,0,0,0,0,0,0,0,0,-1,804,729,0,0
-413,295,0,0,0,0,0,0,0,0,0,-1,811,729,0,0
-406,295,0,0,0,0,0,0,0,0,0,-1,818,729,0,0
-399,295,0,0,0,0,0,0,0,0,0,-1,825,729,0,0
-392,295,0,0,0,0,0,0,0,0,0,-1,832,729,0,0
-385,295,0,0,0,0,0,0,0,0,0,-1,839,729,0,0
-378,295,0,0,0,0,0,0,0,0,0,-1,846,729,0,0
-371,295,0,0,0,0,0,0,0,0,0,-1,853,729,0,0
-364,295,0,0,0,0,0,0,0,0,0,-1,860,729,0,0
-357,295,0,0,0,0,0,0,0,0,0,-1,867,729,0,0
-350,295,0,0,0,0,0,0,0,0,0,-1,874,729,0,0
-343,295,0,0,0,0,0,0,0,0,0,-1,881,729,0,0
-336,295,0,0,0,0,0,0,0,0,0,-1,888,729,0,0
-329,295,0,0,0,0,0,0,0,0,0,-1,895,729,0,0
-322,295,0,0,0,0,0,0,0,0,0,-1,902,729,0,0
-315,295,0,0,0,0,0,0,0,0,0,-1,909,729,0,0
-308,295,0,0,0,0,0,0,0,0,0,-1,916,729,0,0
-301,295,0,0,0,0,0,0,0,0,0,-1,923,729,0,0
-294,295,0,0,0,0,0,0,0,0,0,-1,930,729,0,0
-287,295,0,0,0,0,0,0,0,0,0,-1,937,729,0,0
-280,295,0,0,0,0,0,0,0,0,0,-1,944,729,0,0
-273,295,0,0,0,0,0,0,0,0,0,-1,951,729,0,0
-266,295,0,0,0,0,0,0,0,0,0,-1,958,729,0,0
-259,295,0,0,0,0,0,0,0,0,0,-1,965,729,0,0
-252,295,0,0,0,0,0,0,0,0,0,-1,972,729,0,0
-245,295,0,0,0,0,0,0,0,0,0,-1,979,729,0,0
-238,295,0,0,0,0,0,0,0,0,0,-1,986,729,0,0
-231,295,0,0,0,0,0,0,0,0,0,-1,993,729,0,0
-224,295,0,0,0,0,0,0,0,0,0,-1,1000,729,0,0
-217,295,0,0,0,0,0,0,0,0,0,-1,1007,729,0,0
-210,295,0,0,0,0,0,0,0,0,0,-1,1014,729,0,0
-203,295,0,0,0,0,0,0,0,0,0,-1,1021,729,0,0
-196,295,0,0,0,0,0,0,0,0,0,-1,1028,729,0,0
-189,295,0,0,0,0,0,0,0,0,0,-1,1035,729,0,0
-182,295,0,0,0,0,0,0,0,0,0,-1,1042,729,0,0
-175,295,0,0,0,0,0,0,0,0,0,-1,1049,729,0,0
-168,295,0,0,0,0,0,0,0,0,0,-1,1056,729,0,0
-161,295,0,0,0,0,0,0,0,0,0,-1,1063,729,0,0
-154,295,0,0,0,0,0,0,0,0,0,-1,1070,729,0,0
-147,295,0,0,0,0,0,0,0,0,0,-1,1077,729,0,0
-140,295,0,0,0,0,0,0,0,0,0,-1,1084,729,0,0
-133,295,0,0,0,0,0,0,0,0,0,-1,1091,729,0,0
-126,295,0,0,0,0,0,0,0,0,0,-1,1098,729,0,0
-119,295,0,0,0,0,0,0,0,0,0,-1,1105,729,0,0
-112,295,0,0,0,0,0,0,0,0,0,-1,1112,729,0,0
-105,295,0,0,0,0,0,0,0,0,0,-1,1119,729,0,0
-98,295,0,0,0,0,0,0,0,0,0,-1,1126,729,0,0
-91,295,0,0,0,0,0,0,0,0,0,-1,1133,729,0,0
-84,295,0,0,0,0,0,0,0,0,0,-1,1140,729,0,0
-77,295,0,0,0,0,0,0,0,0,0,-1,1147,729,0,0
-70,295,0,0,0,0,0,0,0,0,0,-1,1154,729,0,0
-63,295,0,0,0,0,0,0,0,0,0,-1,1161,729,0,0
-56,295,0,0,0,0,0,0,0,0,0,-1,1168,729,0,0
-49,295,0,0,0,0,0,0,0,0,0,-1,1175,729,0,0
-42,295,0,0,0,0,0,0,0,0,0,-1,1182,729,0,0
-35,295,0,0,0,0,0,0,0,0,0,-1,1189,729,0,0
-28,295,0,0,0,0,0,0,0,0,0,-1,1196,729,0,0
-21,295,0,0,0,0,0,0,0,0,0,-1,1203,729,0,0
-14,295,0,0,0,0,0,0,0,0,0,-1,1210,729,0,0
-7,295,0,0,0,0,0,0,0,0,0,-1,1217,729,0,0
0,295,0,0,0,0,0,0,0,0,0,-1,1224,729,0,0
7,295,0,0,0,0,0,0,0,0,0,-1,1231,729,0,0
14,295,0,0,0,0,0,0,0,0,0,-1,1238,729,0,0
21,295,0,0,0,0,0,0,0,0,0,-1,1245,729,0,0
28,295,0,0,0,0,0,0,0,0,0,-1,1252,729,0,0
35,295,0,0,0,0,0,0,0,0,0,-1,1259,729,0,0
42,295,0,0,0,0,0,0,0,0,0,-1,1266,729,0,0
49,295,0,0,0,0,0,0,0,0,0,-1,1273,729,0,0
56,295,0,0,0,0,0,0,0,0,0,-1,1280,729,0,0
63,295,0,0,0,0,0,0,0,0,0,-1,1287,729,0,0
70,295,0,0,0,0,0,0,0,0,0,-1,1294,729,0,0
77,295,0,0,0,0,0,0,0,0,0,-1,1301,729,0,0
84,295,0,0,0,0,0,0,0,0,0,-1,1308,729,0,0
91,295,0,0,0,0,0,0,0,0,0,-1,1315,729,0,0
98,295,0,0,0,0,0,0,0,0,0,-1,1322,729,0,0
105,295,0,0,0,0,0,0,0,0,0,-1,1329,729,0,0
112,295,0,0,0,0,0,0,0,0,0,-1,1336,729,0,0
119,295,0,0,0,0,0,0,0,0,0,-1,1343,729,0,0
126,295,0,0,0,0,0,0,0,0,0,-1,1350,729,0,0
133,295,0,0,0,0,0,0,0,0,0,-1,1357,729,0,0
140,295,0,0,0,0,0,0,0,0,0,-1,1364,729,0,0
147,295,0,0,0,0,0,0,0,0,0,-1,1371,729,0,0
154,295,0,0,0,0,0,0,0,0,0,-1,1378,729,0,0
161,295,0,0,0,0,0,0,0,0,0,-1,1385,729,0,0
168,295,0,0,0,0,0,0,0,0,0,-1,1392,729,0,0
175,295,0,0,0,0,0,0,0,0,0,-1,1399,729,0,0
182,295,0,0,0,0,0,0,0,0,0,-1,1406,729,0,0
189,295,0,0,0,0,0,0,0,0,0,-1,1413,729,0,0
196,295,0,0,0,0,0,0,0,0,0,-1,1420,729,0,0
203,295,0,0,0,0,0,0,0,0,0,-1,1427,729,0,0
210,295,0,0,0,0,0,0,0,0,0,-1,1434,729,0,0
217,295,0,0,0,0,0,0,0,0,0,-1,1441,729,0,0
224,295,0,0,0,0,0,0,0,0,0,-1,1448,729,0,0
231,295,0,0,0,0,0,0,0,0,0,-1,1455,729,0,0
238,295,0,0,0,0,0,0,0,0,0,-1,1462,729,0,0
245,295,0,0,0,0,0,0,0,0,0,-1,1469,729,0,0
252,295,0,0,0,0,0,0,0,0,0,-1,1476,729,0,0
259,295,0,0,0,0,0,0,0,0,0,-1,1483,729,0,0
266,295,0,0,0,0,0,0,0,0,0,-1,1490,729,0,0
273,295,0,0,0,0,0,0,0,0,0,-1,1497,729,0,0
280,295,0,0,0,0,0,0,0,0,0,-1,1504,729,0,0
287,295,0,0,0,0,0,0,0,0,0,-1,1511,729,0,0
294,295,0,0,0,0,0,0,0,0,0,-1,1518,729,0,0
301,295,0,0,0,0,0,0,0,0,0,-1,1525,729,0,0
308,295,0,0,0,0,0,0,0,0,0,-1,1532,729,0,0
315,295,0,0,0,0,0,0,0,0,0,-1,1539,729,0,0
322,295,0,0,0,0,0,0,0,0,0,-1,1546,729,0,0
329,295,0,0,0,0,0,0,0,0,0,-1,1553,729,0,0
336,295,0,0,0,0,0,0,0,0,0,-1,1560,729,0,0
343,295,0,0,0,0,0,0,0,0,0,-1,1567,729,0,0
350,295,0,0,0,0,0,0,0,0,0,-1,1574,729,0,0
357,295,0,0,0,0,0,0,0,0,0,-1,1581,729,0,0
364,295,0,0,0,0,0,0,0,0,0,-1,1588,729,0,0
371,295,0,0,0,0,0,0,0,0,0,-1,1595,729,0,0
378,295,0,0,0,0,0,0,0,0,0,-1,1602,729,0,0
385,295,0,0,0,0,0,0,0,0,0,-1,1609,729,0,0
392,295,0,0,0,0,0,0,0,0,0,-1,1616,729,0,0
399,295,0,0,0,0,0,0,0,0,0,-1,1623,729,0,0
406,295,0,0,0,0,0,0,0,0,0,-1,1630,729,0,0
413,295,0,0,0,0,0,0,0,0,0,-1,1637,729,0,0
420,295,0,0,0,0,0,0,0,0,0,-1,1644,729,0,0
427,295,0,0,0,0,0,0,0,0,0,-1,1651,729,0,0
434,295,0,0,0,0,0,0,0,0,0,-1,1658,729,0,0
441,295,0,0,0,0,0,0,0,0,0,-1,1665,729,0,0
448,295,0,0,0,0,0,0,0,0,0,-1,1672,729,0,0
455,295,0,0,0,0,0,0,0,0,0,-1,1679,729,0,0
462,295,0,0,0,0,0,0,0,0,0,-1,1686,729,0,0
469,295,0,0,0,0,0,0,0,0,0,-1,1693,729,0,0
476,295,0,0,0,0,0,0,0,0,0,-1,1700,729,0,0
483,295,0,0,0,0,0,0,0,0,0,-1,1707,729,0,0
490,295,0,0,0,0,0,0,0,0,0,-1,1714,729,0,0
497,295,0,0,0,0,0,0,0,0,0,-1,1721,729,0,0
504,295,0,0,0,0,0,0,0,0,0,-1,1728,729,0,0
511,295,0,0,0,0,0,0,0,0,0,-1,1735,729,0,0
518,295,0,0,0,0,0,0,0,0,0,-1,1742,729,0,0
525,295,0,0,0,0,0,0,0,0,0,-1,1749,729,0,0
532,295,0,0,0,0,0,0,0,0,0,-1,1756,729,0,0
539,295,0,0,0,0,0,0,0,0,0,-1,1763,729,0,0
546,295,45.0194,2.68616,0,0,0,0,0,0,0,-1,1770,729,45.0194,-2.68618
553,295,46.0332,3.89307,0,0,0,0,0,0,0,-1,1777,729,46.0332,-3.89309
560,295,46.3784,3.7464,0,0,0,0,0,0,0,-1,1784,729,46.3785,-3.74642
567,295,46.3113,3.2359,0,0,0,0,0,0,0,-1,1791,729,46.3113,-3.23591
574,295,43.2974,4.64819,0,0,0,0,0,0,0,-1,1798,729,43.2974,-4.64822
581,295,37.8191,2.19592,0,0,0,0,0,0,0,-1,1805,729,37.8191,-2.19594
588,295,39.0542,2.45679,0,0,0,0,0,0,0,-1,1812,729,39.0542,-2.45676
595,295,27.2102,6.99121,0,0,0,0,0,0,0,-1,1819,729,27.2103,-6.99121
602,295,26.9065,7.82141,0,0,0,0,0,0,0,-1,1826,729,26.9064,-7.8214
609,295,11.7737,2.19989,0,0,0,0,0,0,0,-1,1833,729,11.7736,-2.19988
616,295,28.684,-4.72473,0,0,0,0,0,0,0,-1,1840,729,28.684,4.72471
623,295,28.575,-4.14337,0.00152861,0.00282199,0.00404794,0.00627457,-0.00192397,0.864608,0.0049506,0.032882,1847,729,28.5749,4.14335
630,295,28.5009,-3.55164,0.00150045,0.00127154,0.00236344,0.0037522,-0.000980212,0.761204,0.00288427,0.0131585,1854,729,28.5009,3.55165
637,295,28.4769,-2.97296,0.0013251,0.00031732,0.000745522,0.00172105,-7.86281e-05,0.488219,0.00117445,0.0145653,1861,729,28.4769,2.97295
644,295,28.4808,-2.38916,0.000669313,-2.14028e-06,0.000429433,0.000878678,-0.000211506,0.453629,0.000667551,0.0136132,1868,729,28.4809,2.38917
651,295,28.4839,-1.8028,8.59155e-05,3.77357e-05,0.000252571,0.000315543,-0.000191892,0.737853,0.000295853,0.0133188,1875,729,28.4839,1.80279
658,295,28.4778,-1.2373,-0.000518078,0.000313218,0.000185808,0.000352859,-0.000557719,1.3606,0.000530139,0.0125093,1882,729,28.4778,1.23731
665,295,28.447,-0.662231,-0.00115471,0.000904369,0.000170445,0.000918383,-0.00116873,1.48876,0.00120788,0.0111143,1889,729,28.447,0.662244
672,295,28.4041,-0.0960083,-0.00181782,0.00166819,0.000233642,0.00168378,-0.0018334,1.50417,0.00203126,0.013437,1896,729,28.4041,0.0959892
679,295,28.3812,0.482361,-0.0024361,0.00259179,0.000376184,0.00261978,-0.00246409,1.49653,0.00293563,0.0108748,1903,729,28.3813,-0.482372
686,295,28.3942,1.0675,-0.00299809,0.00366137,0.000609511,0.00371669,-0.00305341,1.48027,0.00391497,0.0115798,1910,729,28.3941,-1.06752
693,295,28.3424,1.64703,-0.00348209,0.00493879,0.000956479,0.00504606,-0.00358937,1.45911,0.00500926,0.0467413,1917,729,28.3424,-1.64704
700,295,28.3766,2.22681,0,0,0,0,0,0,0,-1,1924,729,28.3765,-2.2268
707,295,22.2661,3.05206,0,0,0,0,0,0,0,-1,1931,729,22.2662,-3.05207
714,295,17.4906,4.63068,0,0,0,0,0,0,0,-1,1938,729,17.4906,-4.63066
721,295,18.3792,5.32281,0,0,0,0,0,0,0,-1,1945,729,18.3791,-5.32283
728,295,17.379,3.74866,0,0,0,0,0,0,0,-1,1952,729,17.379,-3.74863
735,295,0,0,0,0,0,0,0,0,0,-1,1959,729,0,0
742,295,0,0,0,0,0,0,0,0,0,-1,1966,729,0,0
749,295,0,0,0,0,0,0,0,0,0,-1,1973,729,0,0
756,295,0,0,0,0,0,0,0,0,0,-1,1980,729,0,0
763,295,0,0,0,0,0,0,0,0,0,-1,1987,729,0,0
770,295,0,0,0,0,0,0,0,0,0,-1,1994,729,0,0
777,295,0,0,0,0,0,0,0,0,0,-1,2001,729,0,0
784,295,0,0,0,0,0,0,0,0,0,-1,2008,729,0,0
791,295,0,0,0,0,0,0,0,0,0,-1,2015,729,0,0
798,295,0,0,0,0,0,0,0,0,0,-1,2022,729,0,0
805,295,0,0,0,0,0,0,0,0,0,-1,2029,729,0,0
812,295,0,0,0,0,0,0,0,0,0,-1,2036,729,0,0
-700,288,0,0,0,0,0,0,0,0,0,-1,524,736,0,0
-693,288,0,0,0,0,0,0,0,0,0,-1,531,736,0,0
-686,288,0,0,0,0,0,0,0,0,0,-1,538,736,0,0
-679,288,0,0,0,0,0,0,0,0,0,-1,545,736,0,0
-672,288,0,0,0,0,0,0,0,0,0,-1,552,736,0,0
-665,288,0,0,0,0,0,0,0,0,0,-1,559,736,0,0
-658,288,0,0,0,0,0,0,0,0,0,-1,566,736,0,0
-651,288,0,0,0,0,0,0,0,0,0,-1,573,736,0,0
-644,288,0,0,0,0,0,0,0,0,0,-1,580,736,0,0
-637,288,0,0,0,0,0,0,0,0,0,-1,587,736,0,0
-630,288,0,0,0,0,0,0,0,0,0,-1,594,736,0,0
-623,288,0,0,0,0,0,0,0,0,0,-1,601,736,0,0
-616,288,-11.7584,2.4425,0,0,0,0,0,0,0,-1,608,736,-11.7584,-2.44251
-609,288,-10.3007,2.32178,0,0,0,0,0,0,0,-1,615,736,-10.3007,-2.32178
-602,288,-10.1458,-1.85559,0,0,0,0,0,0,0,-1,622,736,-10.1458,1.85556
-595,288,-7.63208,1.81769,0,0,0,0,0,0,0,-1,629,736,-7.63205,-1.81766
-588,288,-8.19269,1.50598,0,0,0,0,0,0,0,-1,636,736,-8.19268,-1.50601
-581,288,-13.1915,0.659241,0,0,0,0,0,0,0,-1,643,736,-13.1915,-0.659228
-574,288,-18.3899,0.207886,0,0,0,0,0,0,0,-1,650,736,-18.3899,-0.207864
-567,288,-18.5376,-0.357239,0.000275281,0.0032892,0.000354218,0.00333027,0.00023421,1.45536,0.00214637,0.0372418,657,736,-18.5376,0.357248
-560,288,-18.7624,-0.942139,-0.000253474,0.00235795,0.000439403,0.0024299,-0.000325427,1.40849,0.00173859,0.0170893,664,736,-18.7624,0.942117
-553,288,-18.7615,-1.43896,-0.000431248,0.00157078,0.000500731,0.00168903,-0.000549502,1.33888,0.00134708,0.0182912,671,736,-18.7615,1.43897
-546,288,-18.7914,-1.99268,-0.000472113,0.000779585,0.000610572,0.00102808,-0.000720612,1.18428,0.0010148,0.0209251,678,736,-18.7914,1.99267
-539,288,-18.8137,-2.50311,-0.000405687,7.14517e-05,0.000745014,0.000615162,-0.000949397,0.94035,0.000910143,0.018113,685,736,-18.8137,2.50308
-532,288,-18.7986,-3.05536,-0.000478028,-0.000667038,0.000926147,0.000358423,-0.00150349,0.734554,0.00114073,0.0144389,692,736,-18.7987,3.05538
-525,288,-18.8149,-3.60229,-0.000495489,-0.000995073,0.00107805,0.000361331,-0.00185189,0.671553,0.001371,0.0129708,699,736,-18.8149,3.60232
-518,288,-18.8597,-4.14374,-0.000669204,-0.000884,0.00117569,0.000403983,-0.00195719,0.73985,0.00145823,0.0115276,706,736,-18.8598,4.14376
-511,288,-18.8718,-4.67932,-0.0011632,-0.000399423,0.00121144,0.000488894,-0.00205152,0.938086,0.00155645,0.00853907,713,736,-18.8718,4.67934
-504,288,-18.8988,-5.21552,-0.00191898,0.000618471,0.00119333,0.0010915,-0.00239201,1.1934,0.00205739,0.0104089,720,736,-18.8988,5.21552
-497,288,-18.9219,-5.59619,-0.00313503,0.00236658,0.00106841,0.00256678,-0.00333523,1.38556,0.00341714,0.0311924,727,736,-18.9219,5.59619
-490,288,-18.8461,-5.92639,0,0,0,0,0,0,0,-1,734,736,-18.8461,5.9264
-483,288,-17.3287,0.564758,0,0,0,0,0,0,0,-1,741,736,-17.3287,-0.56477
-476,288,-26.136,0.452148,0,0,0,0,0,0,0,-1,748,736,-26.136,-0.452177
-469,288,-27.7904,0.649841,0,0,0,0,0,0,0,-1,755,736,-27.7904,-0.649854
-462,288,-34.9476,1.23218,0,0,0,0,0,0,0,-1,762,736,-34.9476,-1.23219
-455,288,-35.3354,0.743347,0,0,0,0,0,0,0,-1,769,736,-35.3354,-0.743378
-448,288,-36.1013,0.106995,0,0,0,0,0,0,0,-1,776,736,-36.1013,-0.106975
-441,288,-36.4864,-0.569519,0,0,0,0,0,0,0,-1,783,736,-36.4864,0.569532
-434,288,-36.2269,-0.579102,0,0,0,0,0,0,0,-1,790,736,-36.2268,0.579116
-427,288,0,0,0,0,0,0,0,0,0,-1,797,736,0,0
-420,288,0,0,0,0,0,0,0,0,0,-1,804,736,0,0
-413,288,0,0,0,0,0,0,0,0,0,-1,811,736,0,0
-406,288,0,0,0,0,0,0,0,0,0,-1,818,736,0,0
-399,288,0,0,0,0,0,0,0,0,0,-1,825,736,0,0
-392,288,0,0,0,0,0,0,0,0,0,-1,832,736,0,0
-385,288,0,0,0,0,0,0,0,0,0,-1,839,736,0,0
-378,288,0,0,0,0,0,0,0,0,0,-1,846,736,0,0
-371,288,0,0,0,0,0,0,0,0,0,-1,853,736,0,0
-364,288,0,0,0,0,0,0,0,0,0,-1,860,736,0,0
-357,288,0,0,0,0,0,0,0,0,0,-1,867,736,0,0
-350,288,0,0,0,0,0,0,0,0,0,-1,874,736,0,0
-343,288,0,0,0,0,0,0,0,0,0,-1,881,736,0,0
-336,288,0,0,0,0,0,0,0,0,0,-1,888,736,0,0
-329,288,0,0,0,0,0,0,0,0,0,-1,895,736,0,0
-322,288,0,0,0,0,0,0,0,0,0,-1,902,736,0,0
-315,288,0,0,0,0,0,0,0,0,0,-1,909,736,0,0
-308,288,0,0,0,0,0,0,0,0,0,-1,916,736,0,0
-301,288,0,0,0,0,0,0,0,0,0,-1,923,736,0,0
-294,288,0,0,0,0,0,0,0,0,0,-1,930,736,0,0
-287,288,0,0,0,0,0,0,0,0,0,-1,937,736,0,0
-280,288,0,0,0,0,0,0,0,0,0,-1,944,736,0,0
-273,288,0,0,0,0,0,0,0,0,0,-1,951,736,0,0
-266,288,0,0,0,0,0,0,0,0,0,-1,958,736,0,0
-259,288,0,0,0,0,0,0,0,0,0,-1,965,736,0,0
-252,288,0,0,0,0,0,0,0,0,0,-1,972,736,0,0
-245,288,0,0,0,0,0,0,0,0,0,-1,979,736,0,0
-238,288,0,0,0,0,0,0,0,0,0,-1,986,736,0,0
-231,288,0,0,0,0,0,0,0,0,0,-1,993,736,0,0
-224,288,0,0,0,0,0,0,0,0,0,-1,1000,736,0,0
-217,288,0,0,0,0,0,0,0,0,0,-1,1007,736,0,0
-210,288,0,0,0,0,0,0,0,0,0,-1,1014,736,0,0
-203,288,0,0,0,0,0,0,0,0,0,-1,1021,736,0,0
-196,288,0,0,0,0,0,0,0,0,0,-1,1028,736,0,0
-189,288,0,0,0,0,0,0,0,0,0,-1,1035,736,0,0
-182,288,0,0,0,0,0,0,0,0,0,-1,1042,736,0,0
-175,288,0,0,0,0,0,0,0,0,0,-1,1049,736,0,0
-168,288,0,0,0,0,0,0,0,0,0,-1,1056,736,0,0
-161,288,0,0,0,0,0,0,0,0,0,-1,1063,736,0,0
-154,288,0,0,0,0,0,0,0,0,0,-1,1070,736,0,0
-147,288,0,0,0,0,0,0,0,0,0,-1,1077,736,0,0
-140,288,0,0,0,0,0,0,0,0,0,-1,1084,736,0,0
-133,288,0,0,0,0,0,0,0,0,0,-1,1091,736,0,0
-126,288,0,0,0,0,0,0,0,0,0,-1,1098,736,0,0
-119,288,0,0,0,0,0,0,0,0,0,-1,1105,736,0,0
-112,288,0,0,0,0,0,0,0,0,0,-1,1112,736,0,0
-105,288,0,0,0,0,0,0,0,0,0,-1,1119,736,0,0
-98,288,0,0,0,0,0,0,0,0,0,-1,1126,736,0,0
-91,288,0,0,0,0,0,0,0,0,0,-1,1133,736,0,0
-84,288,0,0,0,0,0,0,0,0,0,-1,1140,736,0,0
-77,288,0,0,0,0,0,0,0,0,0,-1,1147,736,0,0
-70,288,0,0,0,0,0,0,0,0,0,-1,1154,736,0,0
-63,288,0,0,0,0,0,0,0,0,0,-1,1161,736,0,0
-56,288,0,0,0,0,0,0,0,0,0,-1,1168,736,0,0
-49,288,0,0,0,0,0,0,0,0,0,-1,1175,736,0,0
-42,288,0,0,0,0,0,0,0,0,0,-1,1182,736,0,0
-35,288,0,0,0,0,0,0,0,0,0,-1,1189,736,0,0
-28,288,0,0,0,0,0,0,0,0,0,-1,1196,736,0,0
-21,288,0,0,0,0,0,0,0,0,0,-1,1203,736,0,0
-14,288,0,0,0,0,0,0,0,0,0,-1,1210,736,0,0
-7,288,0,0,0,0,0,0,0,0,0,-1,1217,736,0,0
0,288,0,0,0,0,0,0,0,0,0,-1,1224,736,0,0
7,288,0,0,0,0,0,0,0,0,0,-1,1231,736,0,0
14,288,0,0,0,0,0,0,0,0,0,-1,1238,736,0,0
21,288,0,0,0,0,0,0,0,0,0,-1,1245,736,0,0
28,288,0,0,0,0,0,0,0,0,0,-1,1252,736,0,0
35,288,0,0,0,0,0,0,0,0,0,-1,1259,736,0,0
42,288,0,0,0,0,0,0,0,0,0,-1,1266,736,0,0
49,288,0,0,0,0,0,0,0,0,0,-1,1273,736,0,0
56,288,0,0,0,0,0,0,0,0,0,-1,1280,736,0,0
63,288,0,0,0,0,0,0,0,0,0,-1,1287,736,0,0
70,288,0,0,0,0,0,0,0,0,0,-1,1294,736,0,0
77,288,0,0,0,0,0,0,0,0,0,-1,1301,736,0,0
84,288,0,0,0,0,0,0,0,0,0,-1,1308,736,0,0
91,288,0,0,0,0,0,0,0,0,0,-1,1315,736,0,0
98,288,0,0,0,0,0,0,0,0,0,-1,1322,736,0,0
105,288,0,0,0,0,0,0,0,0,0,-1,1329,736,0,0
112,288,0,0,0,0,0,0,0,0,0,-1,1336,736,0,0
119,288,0,0,0,0,0,0,0,0,0,-1,1343,736,0,0
126,288,0,0,0,0,0,0,0,0,0,-1,1350,736,0,0
133,288,0,0,0,0,0,0,0,0,0,-1,1357,736,0,0
140,288,0,0,0,0,0,0,0,0,0,-1,1364,736,0,0
147,288,0,0,0,0,0,0,0,0,0,-1,1371,736,0,0
154,288,0,0,0,0,0,0,0,0,0,-1,1378,736,0,0
161,288,0,0,0,0,0,0,0,0,0,-1,1385,736,0,0
168,288,0,0,0,0,0,0,0,0,0,-1,1392,736,0,0
175,288,0,0,0,0,0,0,0,0,0,-1,1399,736,0,0
182,288,0,0,0,0,0,0,0,0,0,-1,1406,736,0,0
189,288,0,0,0,0,0,0,0,0,0,-1,1413,736,0,0
196,288,0,0,0,0,0,0,0,0,0,-1,1420,736,0,0
203,288,0,0,0,0,0,0,0,0,0,-1,1427,736,0,0
210,288,0,0,0,0,0,0,0,0,0,-1,1434,736,0,0
217,288,0,0,0,0,0,0,0,0,0,-1,1441,736,0,0
224,288,0,0,0,0,0,0,0,0,0,-1,1448,736,0,0
231,288,0,0,0,0,0,0,0,0,0,-1,1455,736,0,0
238,288,0,0,0,0,0,0,0,0,0,-1,1462,736,0,0
245,288,0,0,0,0,0,0,0,0,0,-1,1469,736,0,0
252,288,0,0,0,0,0,0,0,0,0,-1,1476,736,0,0
259,288,0,0,0,0,0,0,0,0,0,-1,1483,736,0,0
266,288,0,0,0,0,0,0,0,0,0,-1,1490,736,0,0
273,288,0,0,0,0,0,0,0,0,0,-1,1497,736,0,0
280,288,0,0,0,0,0,0,0,0,0,-1,1504,736,0,0
287,288,0,0,0,0,0,0,0,0,0,-1,1511,736,0,0
294,288,0,0,0,0,0,0,0,0,0,-1,1518,736,0,0
301,288,0,0,0,0,0,0,0,0,0,-1,1525,736,0,0
308,288,0,0,0,0,0,0,0,0,0,-1,1532,736,0,0
315,288,0,0,0,0,0,0,0,0,0,-1,1539,736,0,0
322,288,0,0,0,0,0,0,0,0,0,-1,1546,736,0,0
329,288,0,0,0,0,0,0,0,0,0,-1,1553,736,0,0
336,288,0,0,0,0,0,0,0,0,0,-1,1560,736,0,0
343,288,0,0,0,0,0,0,0,0,0,-1,1567,736,0,0
350,288,0,0,0,0,0,0,0,0,0,-1,1574,736,0,0
357,288,0,0,0,0,0,0,0,0,0,-1,1581,736,0,0
364,288,0,0,0,0,0,0,0,0,0,-1,1588,736,0,0
371,288,0,0,0,0,0,0,0,0,0,-1,1595,736,0,0
378,288,0,0,0,0,0,0,0,0,0,-1,1602,736,0,0
385,288,0,0,0,0,0,0,0,0,0,-1,1609,736,0,0
392,288,0,0,0,0,0,0,0,0,0,-1,1616,736,0,0
399,288,0,0,0,0,0,0,0,0,0,-1,1623,736,0,0
406,288,0,0,0,0,0,0,0,0,0,-1,1630,736,0,0
413,288,0,0,0,0,0,0,0,0,0,-1,1637,736,0,0
420,288,0,0,0,0,0,0,0,0,0,-1,1644,736,0,0
427,288,0,0,0,0,0,0,0,0,0,-1,1651,736,0,0
434,288,0,0,0,0,0,0,0,0,0,-1,1658,736,0,0
441,288,0,0,0,0,0,0,0,0,0,-1,1665,736,0,0
448,288,0,0,0,0,0,0,0,0,0,-1,1672,736,0,0
455,288,0,0,0,0,0,0,0,0,0,-1,1679,736,0,0
462,288,0,0,0,0,0,0,0,0,0,-1,1686,736,0,0
469,288,0,0,0,0,0,0,0,0,0,-1,1693,736,0,0
476,288,0,0,0,0,0,0,0,0,0,-1,1700,736,0,0
483,288,0,0,0,0,0,0,0,0,0,-1,1707,736,0,0
490,288,0,0,0,0,0,0,0,0,0,-1,1714,736,0,0
497,288,0,0,0,0,0,0,0,0,0,-1,1721,736,0,0
504,288,0,0,0,0,0,0,0,0,0,-1,1728,736,0,0
511,288,0,0,0,0,0,0,0,0,0,-1,1735,736,0,0
518,288,0,0,0,0,0,0,0,0,0,-1,1742,736,0,0
525,288,0,0,0,0,0,0,0,0,0,-1,1749,736,0,0
532,288,0,0,0,0,0,0,0,0,0,-1,1756,736,0,0
539,288,0,0,0,0,0,0,0,0,0,-1,1763,736,0,0
546,288,0,0,0,0,0,0,0,0,0,-1,1770,736,0,0
553,288,44.8391,3.76056,0,0,0,0,0,0,0,-1,1777,736,44.8391,-3.76055
560,288,45.9943,3.08582,0,0,0,0,0,0,0,-1,1784,736,45.9942,-3.08581
567,288,46.5269,3.18427,0,0,0,0,0,0,0,-1,1791,736,46.5268,-3.18428
574,288,46.9022,3.22034,0,0,0,0,0,0,0,-1,1798,736,46.9022,-3.22036
581,288,46.4124,3.25073,0,0,0,0,0,0,0,-1,1805,736,46.4123,-3.25071
588,288,45.3058,4.14844,0,0,0,0,0,0,0,-1,1812,736,45.3057,-4.14844
595,288,40.1831,2.50763,0,0,0,0,0,0,0,-1,1819,736,40.1831,-2.50762
602,288,26.7634,7.61279,0,0,0,0,0,0,0,-1,1826,736,26.7635,-7.61279
609,288,17.5223,4.86414,0,0,0,0,0,0,0,-1,1833,736,17.5223,-4.86412
616,288,13.4886,0.801331,0,0,0,0,0,0,0,-1,1840,736,13.4886,-0.80132
623,288,29.1757,-4.1731,0,0,0,0,0,0,0,-1,1847,736,29.1757,4.17312
630,288,29.0831,-3.54309,0.00175435,0.00151019,0.00269579,0.00433082,-0.00106629,0.762771,0.00330056,0.0251201,1854,736,29.0831,3.54312
637,288,29.0846,-2.9599,0.00158579,0.000562933,0.000914569,0.00212221,2.65078e-05,0.530458,0.00140606,0.011147,1861,736,29.0846,2.95988
644,288,29.0649,-2.38287,0.000932679,6.06232e-05,0.000565335,0.0012106,-0.000217298,0.456909,0.000888403,0.0103656,1868,736,29.065,2.3829
651,288,29.0447,-1.79834,0.000452692,-0.000113774,0.000351953,0.000621225,-0.000282306,0.446584,0.000533747,0.0111358,1875,736,29.0447,1.79833
658,288,29.0415,-1.20844,3.46816e-05,-1.77946e-05,0.00031932,0.000328839,-0.000311952,0.744406,0.000370004,0.0159517,1882,736,29.0415,1.20843
665,288,29.025,-0.643066,-0.00041144,0.000589284,0.000353143,0.000701354,-0.000523509,1.2635,0.000709655,0.0163762,1889,736,29.0251,0.643093
672,288,28.9862,-0.0752563,-0.000846603,0.00135444,0.000475667,0.00145283,-0.000945,1.36681,0.0013947,0.0161713,1896,736,28.9862,0.0752836
679,288,28.9666,0.508423,-0.00117215,0.00228506,0.000712926,0.00242631,-0.00131339,1.37521,0.00219075,0.0139013,1903,736,28.9665,-0.508426
686,288,28.9398,1.05042,-0.00141247,0.00334634,0.00103354,0.00356112,-0.00162724,1.36591,0.00306408,0.0107168,1910,736,28.9399,-1.05041
693,288,28.9403,1.70667,-0.00148629,0.00458753,0.0015068,0.00494079,-0.00183956,1.34051,0.00404883,0.02151,1917,736,28.9404,-1.70668
700,288,28.8486,2.4494,-0.00116135,0.00614268,0.00233145,0.00682343,-0.0018421,1.28671,0.00527139,0.0459117,1924,736,28.8486,-2.44942
707,288,28.9634,3.23175,0,0,0,0,0,0,0,-1,1931,736,28.9634,-3.23176
714,288,23.0149,3.82544,0,0,0,0,0,0,0,-1,1938,736,23.0149,-3.82541
721,288,18.0732,3.69385,0,0,0,0,0,0,0,-1,1945,736,18.0732,-3.69387
728,288,19.3208,3.91455,0,0,0,0,0,0,0,-1,1952,736,19.3209,-3.91455
735,288,18.7712,3.51312,0,0,0,0,0,0,0,-1,1959,736,18.7713,-3.51309
742,288,0,0,0,0,0,0,0,0,0,-1,1966,736,0,0
749,288,0,0,0,0,0,0,0,0,0,-1,1973,736,0,0
756,288,0,0,0,0,0,0,0,0,0,-1,1980,736,0,0
763,288,0,0,0,0,0,0,0,0,0,-1,1987,736,0,0
770,288,0,0,0,0,0,0,0,0,0,-1,1994,736,0,0
777,288,0,0,0,0,0,0,0,0,0,-1,2001,736,0,0
784,288,0,0,0,0,0,0,0,0,0,-1,2008,736,0,0
791,288,0,0,0,0,0,0,0,0,0,-1,2015,736,0,0
798,288,0,0,0,0,0,0,0,0,0,-1,2022,736,0,0
805,288,0,0,0,0,0,0,0,0,0,-1,2029,736,0,0
812,288,0,0,0,0,0,0,0,0,0,-1,2036,736,0,0
-700,281,0,0,0,0,0,0,0,0,0,-1,524,743,0,0
-693,281,0,0,0,0,0,0,0,0,0,-1,531,743,0,0
-686,281,0,0,0,0,0,0,0,0,0,-1,538,743,0,0
-679,281,0,0,0,0,0,0,0,0,0,-1,545,743,0,0
-672,281,0,0,0,0,0,0,0,0,0,-1,552,743,0,0
-665,281,0,0,0,0,0,0,0,0,0,-1,559,743,0,0
-658,281,0,0,0,0,0,0,0,0,0,-1,566,743,0,0
-651,281,0,0,0,0,0,0,0,0,0,-1,573,743,0,0
-644,281,0,0,0,0,0,0,0,0,0,-1,580,743,0,0
-637,281,0,0,0,0,0,0,0,0,0,-1,587,743,0,0
-630,281,0,0,0,0,0,0,0,0,0,-1,594,743,0,0
-623,281,-19.1697,5.67017,0,0,0,0,0,0,0,-1,601,743,-19.1697,-5.67019
-616,281,-11.5906,2.6853,0,0,0,0,0,0,0,-1,608,743,-11.5906,-2.68529
-609,281,-16.1972,4.14838,0,0,0,0,0,0,0,-1,615,743,-16.1972,-4.14837
-602,281,-12.7697,3.94086,0,0,0,0,0,0,0,-1,622,743,-12.7697,-3.94086
-595,281,-10.4797,-1.07404,0,0,0,0,0,0,0,-1,629,743,-10.4798,1.07402
-588,281,-13.277,1.49817,0,0,0,0,0,0,0,-1,636,743,-13.2771,-1.49817
-581,281,-19.2344,0.603333,0,0,0,0,0,0,0,-1,643,743,-19.2344,-0.603319
-574,281,-19.1371,0.180054,0.00219717,0.00366685,9.66643e-05,0.00367318,0.00219084,1.5054,0.00213382,0.0382124,650,743,-19.1372,-0.180053
-567,281,-19.2711,-0.299316,0.000935846,0.00250007,0.000349356,0.00257455,0.000861366,1.36075,0.00151329,0.0191109,657,743,-19.271,0.29933
-560,281,-19.3311,-0.871948,0.00017381,0.00153586,0.000581674,0.00175045,-4.07877e-05,1.21736,0.0011808,0.00855948,664,743,-19.3311,0.871938
-553,281,-19.3384,-1.4118,-0.000217225,0.000723664,0.000753783,0.00114176,-0.000635322,1.06438,0.00103979,0.0136554,671,743,-19.3384,1.4118
-546,281,-19.3394,-1.92926,-0.000407316,-9.03722e-06,0.000918355,0.000731522,-0.00114787,0.892167,0.00109391,0.0157271,678,743,-19.3394,1.92924
-539,281,-19.359,-2.49335,-0.00052724,-0.000727188,0.00118648,0.000563468,-0.00181789,0.743367,0.00143706,0.0141834,685,743,-19.359,2.49332
-532,281,-19.3772,-3.02075,-0.000816877,-0.00138375,0.00152912,0.000454855,-0.00265548,0.693759,0.0019398,0.0139085,692,743,-19.3772,3.02078
-525,281,-19.4012,-3.55981,-0.00116689,-0.00145528,0.00181002,0.000504668,-0.00312684,0.74565,0.00227155,0.016121,699,743,-19.4012,3.55981
-518,281,-19.4128,-4.125,-0.00177695,-0.000936114,0.00199259,0.00067993,-0.00339299,0.889368,0.00251941,0.0128803,706,743,-19.4128,4.12501
-511,281,-19.4299,-4.69312,-0.00272439,5.5529e-06,0.0020971,0.00114278,-0.00386162,1.0739,0.00302809,0.0114457,713,743,-19.4299,4.6931
-504,281,-19.4877,-5.23187,-0.00395769,0.00154892,0.0021082,0.00226335,-0.00467211,1.24406,0.0040839,0.0146906,720,743,-19.4877,5.2319
-497,281,-19.413,-5.79065,-0.00557288,0.00388565,0.00187485,0.00424372,-0.00593095,1.38208,0.00590121,0.0468977,727,743,-19.4129,5.79064
-490,281,-19.2661,-6.25806,0,0,0,0,0,0,0,-1,734,743,-19.2661,6.25805
-483,281,-22.1078,-2.34973,0,0,0,0,0,0,0,-1,741,743,-22.1078,2.3497
-476,281,-28.0016,2.17786,0,0,0,0,0,0,0,-1,748,743,-28.0016,-2.17786
-469,281,-34.6448,0.171692,0,0,0,0,0,0,0,-1,755,743,-34.6448,-0.171685
-462,281,-34.2302,1.18732,0,0,0,0,0,0,0,-1,762,743,-34.2302,-1.1873
-455,281,-35.0367,0.741882,0,0,0,0,0,0,0,-1,769,743,-35.0367,-0.741898
-448,281,-35.6111,0.471985,0,0,0,0,0,0,0,-1,776,743,-35.6111,-0.47201
-441,281,-35.7243,0.524963,0,0,0,0,0,0,0,-1,783,743,-35.7243,-0.524959
-434,281,0,0,0,0,0,0,0,0,0,-1,790,743,0,0
-427,281,0,0,0,0,0,0,0,0,0,-1,797,743,0,0
-420,281,0,0,0,0,0,0,0,0,0,-1,804,743,0,0
-413,281,0,0,0,0,0,0,0,0,0,-1,811,743,0,0
-406,281,0,0,0,0,0,0,0,0,0,-1,818,743,0,0
-399,281,0,0,0,0,0,0,0,0,0,-1,825,743,0,0
-392,281,0,0,0,0,0,0,0,0,0,-1,832,743,0,0
-385,281,0,0,0,0,0,0,0,0,0,-1,839,743,0,0
-378,281,0,0,0,0,0,0,0,0,0,-1,846,743,0,0
-371,281,0,0,0,0,0,0,0,0,0,-1,853,743,0,0
-364,281,0,0,0,0,0,0,0,0,0,-1,860,743,0,0
-357,281,0,0,0,0,0,0,0,0,0,-1,867,743,0,0
-350,281,0,0,0,0,0,0,0,0,0,-1,874,743,0,0
-343,281,0,0,0,0,0,0,0,0,0,-1,881,743,0,0
-336,281,0,0,0,0,0,0,0,0,0,-1,888,743,0,0
-329,281,0,0,0,0,0,0,0,0,0,-1,895,743,0,0
-322,281,0,0,0,0,0,0,0,0,0,-1,902,743,0,0
-315,281,0,0,0,0,0,0,0,0,0,-1,909,743,0,0
-308,281,0,0,0,0,0,0,0,0,0,-1,916,743,0,0
-301,281,0,0,0,0,0,0,0,0,0,-1,923,743,0,0
-294,281,0,0,0,0,0,0,0,0,0,-1,930,743,0,0
-287,281,0,0,0,0,0,0,0,0,0,-1,937,743,0,0
-280,281,0,0,0,0,0,0,0,0,0,-1,944,743,0,0
-273,281,0,0,0,0,0,0,0,0,0,-1,951,743,0,0
-266,281,0,0,0,0,0,0,0,0,0,-1,958,743,0,0
-259,281,0,0,0,0,0,0,0,0,0,-1,965,743,0,0
-252,281,0,0,0,0,0,0,0,0,0,-1,972,743,0,0
-245,281,0,0,0,0,0,0,0,0,0,-1,979,743,0,0
-238,281,0,0,0,0,0,0,0,0,0,-1,986,743,0,0
-231,281,0,0,0,0,0,0,0,0,0,-1,993,743,0,0
-224,281,0,0,0,0,0,0,0,0,0,-1,1000,743,0,0
-217,281,0,0,0,0,0,0,0,0,0,-1,1007,743,0,0
-210,281,0,0,0,0,0,0,0,0,0,-1,1014,743,0,0
-203,281,0,0,0,0,0,0,0,0,0,-1,1021,743,0,0
-196,281,0,0,0,0,0,0,0,0,0,-1,1028,743,0,0
-189,281,0,0,0,0,0,0,0,0,0,-1,1035,743,0,0
-182,281,0,0,0,0,0,0,0,0,0,-1,1042,743,0,0
-175,281,0,0,0,0,0,0,0,0,0,-1,1049,743,0,0
-168,281,0,0,0,0,0,0,0,0,0,-1,1056,743,0,0
-161,281,0,0,0,0,0,0,0,0,0,-1,1063,743,0,0
-154,281,0,0,0,0,0,0,0,0,0,-1,1070,743,0,0
-147,281,0,0,0,0,0,0,0,0,0,-1,1077,743,0,0
-140,281,0,0,0,0,0,0,0,0,0,-1,1084,743,0,0
-133,281,0,0,0,0,0,0,0,0,0,-1,1091,743,0,0
-126,281,0,0,0,0,0,0,0,0,0,-1,1098,743,0,0
-119,281,0,0,0,0,0,0,0,0,0,-1,1105,743,0,0
-112,281,0,0,0,0,0,0,0,0,0,-1,1112,743,0,0
-105,281,0,0,0,0,0,0,0,0,0,-1,1119,743,0,0
-98,281,0,0,0,0,0,0,0,0,0,-1,1126,743,0,0
-91,281,0,0,0,0,0,0,0,0,0,-1,1133,743,0,0
-84,281,0,0,0,0,0,0,0,0,0,-1,1140,743,0,0
-77,281,0,0,0,0,0,0,0,0,0,-1,1147,743,0,0
-70,281,0,0,0,0,0,0,0,0,0,-1,1154,743,0,0
-63,281,0,0,0,0,0,0,0,0,0,-1,1161,743,0,0
-56,281,0,0,0,0,0,0,0,0,0,-1,1168,743,0,0
-49,281,0,0,0,0,0,0,0,0,0,-1,1175,743,0,0
-42,281,0,0,0,0,0,0,0,0,0,-1,1182,743,0,0
-35,281,0,0,0,0,0,0,0,0,0,-1,1189,743,0,0
-28,281,0,0,0,0,0,0,0,0,0,-1,1196,743,0,0
-21,281,0,0,0,0,0,0,0,0,0,-1,1203,743,0,0
-14,281,0,0,0,0,0,0,0,0,0,-1,1210,743,0,0
-7,281,0,0,0,0,0,0,0,0,0,-1,1217,743,0,0
0,281,0,0,0,0,0,0,0,0,0,-1,1224,743,0,0
7,281,0,0,0,0,0,0,0,0,0,-1,1231,743,0,0
14,281,0,0,0,0,0,0,0,0,0,-1,1238,743,0,0
21,281,0,0,0,0,0,0,0,0,0,-1,1245,743,0,0
28,281,0,0,0,0,0,0,0,0,0,-1,1252,743,0,0
35,281,0,0,0,0,0,0,0,0,0,-1,1259,743,0,0
42,281,0,0,0,0,0,0,0,0,0,-1,1266,743,0,0
49,281,0,0,0,0,0,0,0,0,0,-1,1273,743,0,0
56,281,0,0,0,0,0,0,0,0,0,-1,1280,743,0,0
63,281,0,0,0,0,0,0,0,0,0,-1,1287,743,0,0
70,281,0,0,0,0,0,0,0,0,0,-1,1294,743,0,0
77,281,0,0,0,0,0,0,0,0,0,-1,1301,743,0,0
84,281,0,0,0,0,0,0,0,0,0,-1,1308,743,0,0
91,281,0,0,0,0,0,0,0,0,0,-1,1315,743,0,0
98,281,0,0,0,0,0,0,0,0,0,-1,1322,743,0,0
105,281,0,0,0,0,0,0,0,0,0,-1,1329,743,0,0
112,281,0,0,0,0,0,0,0,0,0,-1,1336,743,0,0
119,281,0,0,0,0,0,0,0,0,0,-1,1343,743,0,0
126,281,0,0,0,0,0,0,0,0,0,-1,1350,743,0,0
133,281,0,0,0,0,0,0,0,0,0,-1,1357,743,0,0
140,281,0,0,0,0,0,0,0,0,0,-1,1364,743,0,0
147,281,0,0,0,0,0,0,0,0,0,-1,1371,743,0,0
154,281,0,0,0,0,0,0,0,0,0,-1,1378,743,0,0
161,281,0,0,0,0,0,0,0,0,0,-1,1385,743,0,0
168,281,0,0,0,0,0,0,0,0,0,-1,1392,743,0,0
175,281,0,0,0,0,0,0,0,0,0,-1,1399,743,0,0
182,281,0,0,0,0,0,0,0,0,0,-1,1406,743,0,0
189,281,0,0,0,0,0,0,0,0,0,-1,1413,743,0,0
196,281,0,0,0,0,0,0,0,0,0,-1,1420,743,0,0
203,281,0,0,0,0,0,0,0,0,0,-1,1427,743,0,0
210,281,0,0,0,0,0,0,0,0,0,-1,1434,743,0,0
217,281,0,0,0,0,0,0,0,0,0,-1,1441,743,0,0
224,281,0,0,0,0,0,0,0,0,0,-1,1448,743,0,0
231,281,0,0,0,0,0,0,0,0,0,-1,1455,743,0,0
238,281,0,0,0,0,0,0,0,0,0,-1,1462,743,0,0
245,281,0,0,0,0,0,0,0,0,0,-1,1469,743,0,0
252,281,0,0,0,0,0,0,0,0,0,-1,1476,743,0,0
259,281,0,0,0,0,0,0,0,0,0,-1,1483,743,0,0
266,281,0,0,0,0,0,0,0,0,0,-1,1490,743,0,0
273,281,0,0,0,0,0,0,0,0,0,-1,1497,743,0,0
280,281,0,0,0,0,0,0,0,0,0,-1,1504,743,0,0
287,281,0,0,0,0,0,0,0,0,0,-1,1511,743,0,0
294,281,0,0,0,0,0,0,0,0,0,-1,1518,743,0,0
301,281,0,0,0,0,0,0,0,0,0,-1,1525,743,0,0
308,281,0,0,0,0,0,0,0,0,0,-1,1532,743,0,0
315,281,0,0,0,0,0,0,0,0,0,-1,1539,743,0,0
322,281,0,0,0,0,0,0,0,0,0,-1,1546,743,0,0
329,281,0,0,0,0,0,0,0,0,0,-1,1553,743,0,0
336,281,0,0,0,0,0,0,0,0,0,-1,1560,743,0,0
343,281,0,0,0,0,0,0,0,0,0,-1,1567,743,0,0
350,281,0,0,0,0,0,0,0,0,0,-1,1574,743,0,0
357,281,0,0,0,0,0,0,0,0,0,-1,1581,743,0,0
364,281,0,0,0,0,0,0,0,0,0,-1,1588,743,0,0
371,281,0,0,0,0,0,0,0,0,0,-1,1595,743,0,0
378,281,0,0,0,0,0,0,0,0,0,-1,1602,743,0,0
385,281,0,0,0,0,0,0,0,0,0,-1,1609,743,0,0
392,281,0,0,0,0,0,0,0,0,0,-1,1616,743,0,0
399,281,0,0,0,0,0,0,0,0,0,-1,1623,743,0,0
406,281,0,0,0,0,0,0,0,0,0,-1,1630,743,0,0
413,281,0,0,0,0,0,0,0,0,0,-1,1637,743,0,0
420,281,0,0,0,0,0,0,0,0,0,-1,1644,743,0,0
427,281,0,0,0,0,0,0,0,0,0,-1,1651,743,0,0
434,281,0,0,0,0,0,0,0,0,0,-1,1658,743,0,0
441,281,0,0,0,0,0,0,0,0,0,-1,1665,743,0,0
448,281,0,0,0,0,0,0,0,0,0,-1,1672,743,0,0
455,281,0,0,0,0,0,0,0,0,0,-1,1679,743,0,0
462,281,0,0,0,0,0,0,0,0,0,-1,1686,743,0,0
469,281,0,0,0,0,0,0,0,0,0,-1,1693,743,0,0
476,281,0,0,0,0,0,0,0,0,0,-1,1700,743,0,0
483,281,0,0,0,0,0,0,0,0,0,-1,1707,743,0,0
490,281,0,0,0,0,0,0,0,0,0,-1,1714,743,0,0
497,281,0,0,0,0,0,0,0,0,0,-1,1721,743,0,0
504,281,0,0,0,0,0,0,0,0,0,-1,1728,743,0,0
511,281,0,0,0,0,0,0,0,0,0,-1,1735,743,0,0
518,281,0,0,0,0,0,0,0,0,0,-1,1742,743,0,0
525,281,0,0,0,0,0,0,0,0,0,-1,1749,743,0,0
532,281,0,0,0,0,0,0,0,0,0,-1,1756,743,0,0
539,281,0,0,0,0,0,0,0,0,0,-1,1763,743,0,0
546,281,0,0,0,0,0,0,0,0,0,-1,1770,743,0,0
553,281,0,0,0,0,0,0,0,0,0,-1,1777,743,0,0
560,281,46.3732,3.12329,0,0,0,0,0,0,0,-1,1784,743,46.3732,-3.12327
567,281,46.7659,3.16235,0,0,0,0,0,0,0,-1,1791,743,46.7659,-3.16238
574,281,46.8341,2.17554,0,0,0,0,0,0,0,-1,1798,743,46.8341,-2.17556
581,281,46.6821,3.1767,0,0,0,0,0,0,0,-1,1805,743,46.6822,-3.17672
588,281,46.5303,4.17786,0,0,0,0,0,0,0,-1,1812,743,46.5303,-4.17789
595,281,44.9331,4.37634,0,0,0,0,0,0,0,-1,1819,743,44.9331,-4.37636
602,281,43.4924,3.27167,0,0,0,0,0,0,0,-1,1826,743,43.4925,-3.27166
609,281,32.7925,1.28723,0,0,0,0,0,0,0,-1,1833,743,32.7925,-1.28722
616,281,21.3191,-0.253906,0,0,0,0,0,0,0,-1,1840,743,21.3191,0.253931
623,281,29.4835,-3.91199,0,0,0,0,0,0,0,-1,1847,743,29.4835,3.91199
630,281,29.5972,-3.45233,0.00184071,0.0022275,0.00315566,0.00519569,-0.00112747,0.816003,0.00389441,0.0476007,1854,743,29.5972,3.45231
637,281,29.641,-2.94568,0.00159654,0.00125133,0.00136327,0.00279809,4.97834e-05,0.722428,0.00184902,0.0161922,1861,743,29.641,2.94571
644,281,29.6117,-2.37524,0.000909807,0.000460726,0.000918357,0.00163068,-0.000260142,0.665499,0.0011834,0.0105904,1868,743,29.6117,2.37522
651,281,29.5951,-1.80005,0.000504096,-5.32289e-05,0.000573192,0.000862774,-0.000411906,0.559141,0.000751126,0.0111942,1875,743,29.5951,1.80003
658,281,29.6007,-1.20343,0.000275329,-0.000293343,0.00046056,0.000532253,-0.000550267,0.508851,0.000625022,0.0199494,1882,743,29.6008,1.20345
665,281,29.571,-0.64447,3.03133e-05,0.000235795,0.00045977,0.000604163,-0.000338055,0.895323,0.000551175,0.0221575,1889,743,29.5711,0.644477
672,281,29.5433,-0.0525513,-0.000181489,0.000966463,0.00059181,0.00121692,-0.000431944,1.17045,0.000987276,0.0135896,1896,743,29.5433,0.0525475
679,281,29.5428,0.491333,-0.000255291,0.00192579,0.000890137,0.00224295,-0.000572452,1.22852,0.00171821,0.0202759,1903,743,29.5429,-0.491346
686,281,29.4851,1.02643,-0.00023076,0.00301374,0.00127446,0.00345448,-0.000671503,1.23784,0.00255639,0.0162981,1910,743,29.4851,-1.02644
693,281,29.464,1.62646,1.76282e-05,0.00426473,0.00183242,0.00494604,-0.000663678,1.21483,0.00353939,0.0122817,1917,743,29.464,-1.62647
700,281,29.4374,2.23474,0.000669225,0.00579597,0.00271772,0.00696849,-0.000503297,1.16349,0.00482219,0.0293141,1924,743,29.4374,-2.23474
707,281,29.5022,2.81097,0,0,0,0,0,0,0,-1,1931,743,29.5022,-2.81099
714,281,25.0125,2.5105,0,0,0,0,0,0,0,-1,1938,743,25.0124,-2.51053
721,281,16.9656,3.22174,0,0,0,0,0,0,0,-1,1945,743,16.9656,-3.22172
728,281,19.0251,3.63934,0,0,0,0,0,0,0,-1,1952,743,19.0252,-3.63932
735,281,19.0869,2.50311,0,0,0,0,0,0,0,-1,1959,743,19.0869,-2.5031
742,281,0,0,0,0,0,0,0,0,0,-1,1966,743,0,0
749,281,0,0,0,0,0,0,0,0,0,-1,1973,743,0,0
756,281,0,0,0,0,0,0,0,0,0,-1,1980,743,0,0
763,281,0,0,0,0,0,0,0,0,0,-1,1987,743,0,0
770,281,0,0,0,0,0,0,0,0,0,-1,1994,743,0,0
777,281,0,0,0,0,0,0,0,0,0,-1,2001,743,0,0
784,281,0,0,0,0,0,0,0,0,0,-1,2008,743,0,0
791,281,0,0,0,0,0,0,0,0,0,-1,2015,743,0,0
798,281,0,0,0,0,0,0,0,0,0,-1,2022,743,0,0
805,281,0,0,0,0,0,0,0,0,0,-1,2029,743,0,0
812,281,0,0,0,0,0,0,0,0,0,-1,2036,743,0,0
-700,274,0,0,0,0,0,0,0,0,0,-1,524,750,0,0
-693,274,0,0,0,0,0,0,0,0,0,-1,531,750,0,0
-686,274,0,0,0,0,0,0,0,0,0,-1,538,750,0,0
-679,274,0,0,0,0,0,0,0,0,0,-1,545,750,0,0
-672,274,0,0,0,0,0,0,0,0,0,-1,552,750,0,0
-665,274,0,0,0,0,0,0,0,0,0,-1,559,750,0,0
-658,274,0,0,0,0,0,0,0,0,0,-1,566,750,0,0
-651,274,0,0,0,0,0,0,0,0,0,-1,573,750,0,0
-644,274,0,0,0,0,0,0,0,0,0,-1,580,750,0,0
-637,274,0,0,0,0,0,0,0,0,0,-1,587,750,0,0
-630,274,0,0,0,0,0,0,0,0,0,-1,594,750,0,0
-623,274,-19.6909,5.12701,0,0,0,0,0,0,0,-1,601,750,-19.6908,-5.12703
-616,274,-17.9133,3.9024,0,0,0,0,0,0,0,-1,608,750,-17.9133,-3.90239
-609,274,-18.6586,4.92523,0,0,0,0,0,0,0,-1,615,750,-18.6586,-4.92526
-602,274,-18.191,4.28918,0,0,0,0,0,0,0,-1,622,750,-18.191,-4.28919
-595,274,-18.4185,1.95624,0,0,0,0,0,0,0,-1,629,750,-18.4185,-1.95626
-588,274,-19.6318,1.3999,0,0,0,0,0,0,0,-1,636,750,-19.6318,-1.3999
-581,274,-19.6791,0.820496,0.00635529,0.00529182,-0.00139524,0.00731668,0.00433043,-0.603342,0.00424799,0.0460777,643,750,-19.6791,-0.820512
-574,274,-19.6779,0.212219,0.00373725,0.00376087,-0.000678882,0.00442805,0.00307008,-0.794098,0.00261946,0.0234108,650,750,-19.6778,-0.212213
-567,274,-19.8328,-0.316772,0.00203094,0.00253676,-0.000164679,0.00258565,0.00198205,-1.28221,0.00156194,0.0236165,657,750,-19.8328,0.316774
-560,274,-19.8589,-0.871338,0.000889938,0.00150261,0.00026745,0.00160293,0.000789615,1.21193,0.000925485,0.0152013,664,750,-19.8589,0.871327
-553,274,-19.8784,-1.40417,0.000165642,0.000593028,0.00061718,0.00103246,-0.000273793,0.952059,0.000795438,0.0091423,671,750,-19.8783,1.40418
-546,274,-19.9133,-1.93414,-0.000354988,-0.000233111,0.000989918,0.000697742,-0.00128584,0.816139,0.00116188,0.0108498,678,750,-19.9132,1.93413
-539,274,-19.9344,-2.48248,-0.000776331,-0.0010795,0.00147807,0.000557907,-0.00241374,0.734298,0.0018238,0.0118234,685,750,-19.9345,2.48251
-532,274,-19.9588,-3.01575,-0.00131962,-0.00175092,0.00202565,0.000501831,-0.00357237,0.732368,0.00256527,0.0128533,692,750,-19.9588,3.01573
-525,274,-19.963,-3.54547,-0.00196877,-0.00167093,0.00241646,0.000601199,-0.0042409,0.816172,0.0030475,0.013569,699,750,-19.963,3.54548
-518,274,-19.9639,-4.10553,-0.00285612,-0.000960901,0.00258986,0.000849264,-0.00466628,0.960779,0.00342918,0.0131495,706,750,-19.9639,4.10552
-511,274,-19.9855,-4.68445,-0.00399871,0.000187573,0.00264845,0.00147015,-0.00528129,1.11981,0.00409974,0.0137609,713,750,-19.9855,4.68446
-504,274,-20.0493,-5.25568,-0.00532968,0.00191891,0.00254863,0.0027253,-0.00613608,1.26436,0.00524092,0.0266104,720,750,-20.0492,5.25567
-497,274,-20.1398,-5.8252,0,0,0,0,0,0,0,-1,727,750,-20.1398,5.82518
-490,274,-13.6545,-3.58826,0,0,0,0,0,0,0,-1,734,750,-13.6546,3.58825
-483,274,-27.8608,1.30981,0,0,0,0,0,0,0,-1,741,750,-27.8608,-1.30979
-476,274,-33.7561,-0.508606,0,0,0,0,0,0,0,-1,748,750,-33.7561,0.508636
-469,274,-34.4943,0.574036,0,0,0,0,0,0,0,-1,755,750,-34.4943,-0.574017
-462,274,-34.4627,1.29321,0,0,0,0,0,0,0,-1,762,750,-34.4627,-1.2932
-455,274,-34.7192,1.02307,0,0,0,0,0,0,0,-1,769,750,-34.7192,-1.02304
-448,274,-35.0747,0.840027,0,0,0,0,0,0,0,-1,776,750,-35.0747,-0.840005
-441,274,0,0,0,0,0,0,0,0,0,-1,783,750,0,0
-434,274,0,0,0,0,0,0,0,0,0,-1,790,750,0,0
-427,274,0,0,0,0,0,0,0,0,0,-1,797,750,0,0
-420,274,0,0,0,0,0,0,0,0,0,-1,804,750,0,0
-413,274,0,0,0,0,0,0,0,0,0,-1,811,750,0,0
-406,274,0,0,0,0,0,0,0,0,0,-1,818,750,0,0
-399,274,0,0,0,0,0,0,0,0,0,-1,825,750,0,0
-392,274,0,0,0,0,0,0,0,0,0,-1,832,750,0,0
-385,274,0,0,0,0,0,0,0,0,0,-1,839,750,0,0
-378,274,0,0,0,0,0,0,0,0,0,-1,846,750,0,0
-371,274,0,0,0,0,0,0,0,0,0,-1,853,750,0,0
-364,274,0,0,0,0,0,0,0,0,0,-1,860,750,0,0
-357,274,0,0,0,0,0,0,0,0,0,-1,867,750,0,0
-350,274,0,0,0,0,0,0,0,0,0,-1,874,750,0,0
-343,274,0,0,0,0,0,0,0,0,0,-1,881,750,0,0
-336,274,0,0,0,0,0,0,0,0,0,-1,888,750,0,0
-329,274,0,0,0,0,0,0,0,0,0,-1,895,750,0,0
-322,274,0,0,0,0,0,0,0,0,0,-1,902,750,0,0
-315,274,0,0,0,0,0,0,0,0,0,-1,909,750,0,0
-308,274,0,0,0,0,0,0,0,0,0,-1,916,750,0,0
-301,274,0,0,0,0,0,0,0,0,0,-1,923,750,0,0
-294,274,0,0,0,0,0,0,0,0,0,-1,930,750,0,0
-287,274,0,0,0,0,0,0,0,0,0,-1,937,750,0,0
-280,274,0,0,0,0,0,0,0,0,0,-1,944,750,0,0
-273,274,0,0,0,0,0,0,0,0,0,-1,951,750,0,0
-266,274,0,0,0,0,0,0,0,0,0,-1,958,750,0,0
-259,274,0,0,0,0,0,0,0,0,0,-1,965,750,0,0
-252,274,0,0,0,0,0,0,0,0,0,-1,972,750,0,0
-245,274,0,0,0,0,0,0,0,0,0,-1,979,750,0,0
-238,274,0,0,0,0,0,0,0,0,0,-1,986,750,0,0
-231,274,0,0,0,0,0,0,0,0,0,-1,993,750,0,0
-224,274,0,0,0,0,0,0,0,0,0,-1,1000,750,0,0
-217,274,0,0,0,0,0,0,0,0,0,-1,1007,750,0,0
-210,274,0,0,0,0,0,0,0,0,0,-1,1014,750,0,0
-203,274,0,0,0,0,0,0,0,0,0,-1,1021,750,0,0
-196,274,0,0,0,0,0,0,0,0,0,-1,1028,750,0,0
-189,274,0,0,0,0,0,0,0,0,0,-1,1035,750,0,0
-182,274,0,0,0,0,0,0,0,0,0,-1,1042,750,0,0
-175,274,0,0,0,0,0,0,0,0,0,-1,1049,750,0,0
-168,274,0,0,0,0,0,0,0,0,0,-1,1056,750,0,0
-161,274,0,0,0,0,0,0,0,0,0,-1,1063,750,0,0
-154,274,0,0,0,0,0,0,0,0,0,-1,1070,750,0,0
-147,274,0,0,0,0,0,0,0,0,0,-1,1077,750,0,0
-140,274,0,0,0,0,0,0,0,0,0,-1,1084,750,0,0
-133,274,0,0,0,0,0,0,0,0,0,-1,1091,750,0,0
-126,274,0,0,0,0,0,0,0,0,0,-1,1098,750,0,0
-119,274,0,0,0,0,0,0,0,0,0,-1,1105,750,0,0
-112,274,0,0,0,0,0,0,0,0,0,-1,1112,750,0,0
-105,274,0,0,0,0,0,0,0,0,0,-1,1119,750,0,0
-98,274,0,0,0,0,0,0,0,0,0,-1,1126,750,0,0
-91,274,0,0,0,0,0,0,0,0,0,-1,1133,750,0,0
-84,274,0,0,0,0,0,0,0,0,0,-1,1140,750,0,0
-77,274,0,0,0,0,0,0,0,0,0,-1,1147,750,0,0
-70,274,0,0,0,0,0,0,0,0,0,-1,1154,750,0,0
-63,274,0,0,0,0,0,0,0,0,0,-1,1161,750,0,0
-56,274,0,0,0,0,0,0,0,0,0,-1,1168,750,0,0
-49,274,0,0,0,0,0,0,0,0,0,-1,1175,750,0,0
-42,274,0,0,0,0,0,0,0,0,0,-1,1182,750,0,0
-35,274,0,0,0,0,0,0,0,0,0,-1,1189,750,0,0
-28,274,0,0,0,0,0,0,0,0,0,-1,1196,750,0,0
-21,274,0,0,0,0,0,0,0,0,0,-1,1203,750,0,0
-14,274,0,0,0,0,0,0,0,0,0,-1,1210,750,0,0
-7,274,0,0,0,0,0,0,0,0,0,-1,1217,750,0,0
0,274,0,0,0,0,0,0,0,0,0,-1,1224,750,0,0
7,274,0,0,0,0,0,0,0,0,0,-1,1231,750,0,0
14,274,0,0,0,0,0,0,0,0,0,-1,1238,750,0,0
21,274,0,0,0,0,0,0,0,0,0,-1,1245,750,0,0
28,274,0,0,0,0,0,0,0,0,0,-1,1252,750,0,0
35,274,0,0,0,0,0,0,0,0,0,-1,1259,750,0,0
42,274,0,0,0,0,0,0,0,0,0,-1,1266,750,0,0
49,274,0,0,0,0,0,0,0,0,0,-1,1273,750,0,0
56,274,0,0,0,0,0,0,0,0,0,-1,1280,750,0,0
63,274,0,0,0,0,0,0,0,0,0,-1,1287,750,0,0
70,274,0,0,0,0,0,0,0,0,0,-1,1294,750,0,0
77,274,0,0,0,0,0,0,0,0,0,-1,1301,750,0,0
84,274,0,0,0,0,0,0,0,0,0,-1,1308,750,0,0
91,274,0,0,0,0,0,0,0,0,0,-1,1315,750,0,0
98,274,0,0,0,0,0,0,0,0,0,-1,1322,750,0,0
105,274,0,0,0,0,0,0,0,0,0,-1,1329,750,0,0
112,274,0,0,0,0,0,0,0,0,0,-1,1336,750,0,0
119,274,0,0,0,0,0,0,0,0,0,-1,1343,750,0,0
126,274,0,0,0,0,0,0,0,0,0,-1,1350,750,0,0
133,274,0,0,0,0,0,0,0,0,0,-1,1357,750,0,0
140,274,0,0,0,0,0,0,0,0,0,-1,1364,750,0,0
147,274,0,0,0,0,0,0,0,0,0,-1,1371,750,0,0
154,274,0,0,0,0,0,0,0,0,0,-1,1378,750,0,0
161,274,0,0,0,0,0,0,0,0,0,-1,1385,750,0,0
168,274,0,0,0,0,0,0,0,0,0,-1,1392,750,0,0
175,274,0,0,0,0,0,0,0,0,0,-1,1399,750,0,0
182,274,0,0,0,0,0,0,0,0,0,-1,1406,750,0,0
189,274,0,0,0,0,0,0,0,0,0,-1,1413,750,0,0
196,274,0,0,0,0,0,0,0,0,0,-1,1420,750,0,0
203,274,0,0,0,0,0,0,0,0,0,-1,1427,750,0,0
210,274,0,0,0,0,0,0,0,0,0,-1,1434,750,0,0
217,274,0,0,0,0,0,0,0,0,0,-1,1441,750,0,0
224,274,0,0,0,0,0,0,0,0,0,-1,1448,750,0,0
231,274,0,0,0,0,0,0,0,0,0,-1,1455,750,0,0
238,274,0,0,0,0,0,0,0,0,0,-1,1462,750,0,0
245,274,0,0,0,0,0,0,0,0,0,-1,1469,750,0,0
252,274,0,0,0,0,0,0,0,0,0,-1,1476,750,0,0
259,274,0,0,0,0,0,0,0,0,0,-1,1483,750,0,0
266,274,0,0,0,0,0,0,0,0,0,-1,1490,750,0,0
273,274,0,0,0,0,0,0,0,0,0,-1,1497,750,0,0
280,274,0,0,0,0,0,0,0,0,0,-1,1504,750,0,0
287,274,0,0,0,0,0,0,0,0,0,-1,1511,750,0,0
294,274,0,0,0,0,0,0,0,0,0,-1,1518,750,0,0
301,274,0,0,0,0,0,0,0,0,0,-1,1525,750,0,0
308,274,0,0,0,0,0,0,0,0,0,-1,1532,750,0,0
315,274,0,0,0,0,0,0,0,0,0,-1,1539,750,0,0
322,274,0,0,0,0,0,0,0,0,0,-1,1546,750,0,0
329,274,0,0,0,0,0,0,0,0,0,-1,1553,750,0,0
336,274,0,0,0,0,0,0,0,0,0,-1,1560,750,0,0
343,274,0,0,0,0,0,0,0,0,0,-1,1567,750,0,0
350,274,0,0,0,0,0,0,0,0,0,-1,1574,750,0,0
357,274,0,0,0,0,0,0,0,0,0,-1,1581,750,0,0
364,274,0,0,0,0,0,0,0,0,0,-1,1588,750,0,0
371,274,0,0,0,0,0,0,0,0,0,-1,1595,750,0,0
378,274,0,0,0,0,0,0,0,0,0,-1,1602,750,0,0
385,274,0,0,0,0,0,0,0,0,0,-1,1609,750,0,0
392,274,0,0,0,0,0,0,0,0,0,-1,1616,750,0,0
399,274,0,0,0,0,0,0,0,0,0,-1,1623,750,0,0
406,274,0,0,0,0,0,0,0,0,0,-1,1630,750,0,0
413,274,0,0,0,0,0,0,0,0,0,-1,1637,750,0,0
420,274,0,0,0,0,0,0,0,0,0,-1,1644,750,0,0
427,274,0,0,0,0,0,0,0,0,0,-1,1651,750,0,0
434,274,0,0,0,0,0,0,0,0,0,-1,1658,750,0,0
441,274,0,0,0,0,0,0,0,0,0,-1,1665,750,0,0
448,274,0,0,0,0,0,0,0,0,0,-1,1672,750,0,0
455,274,0,0,0,0,0,0,0,0,0,-1,1679,750,0,0
462,274,0,0,0,0,0,0,0,0,0,-1,1686,750,0,0
469,274,0,0,0,0,0,0,0,0,0,-1,1693,750,0,0
476,274,0,0,0,0,0,0,0,0,0,-1,1700,750,0,0
483,274,0,0,0,0,0,0,0,0,0,-1,1707,750,0,0
490,274,0,0,0,0,0,0,0,0,0,-1,1714,750,0,0
497,274,0,0,0,0,0,0,0,0,0,-1,1721,750,0,0
504,274,0,0,0,0,0,0,0,0,0,-1,1728,750,0,0
511,274,0,0,0,0,0,0,0,0,0,-1,1735,750,0,0
518,274,0,0,0,0,0,0,0,0,0,-1,1742,750,0,0
525,274,0,0,0,0,0,0,0,0,0,-1,1749,750,0,0
532,274,0,0,0,0,0,0,0,0,0,-1,1756,750,0,0
539,274,0,0,0,0,0,0,0,0,0,-1,1763,750,0,0
546,274,0,0,0,0,0,0,0,0,0,-1,1770,750,0,0
553,274,0,0,0,0,0,0,0,0,0,-1,1777,750,0,0
560,274,46.5815,3.11725,0,0,0,0,0,0,0,-1,1784,750,46.5815,-3.11725
567,274,46.7881,3.10376,0,0,0,0,0,0,0,-1,1791,750,46.7881,-3.10377
574,274,46.9607,3.12732,0,0,0,0,0,0,0,-1,1798,750,46.9607,-3.12729
581,274,46.9796,3.19934,-0.00131083,0.0120256,0.0250317,0.0312621,-0.0205473,0.915571,0.0301246,0.0453864,1805,750,46.9796,-3.19933
588,274,46.8685,4.24701,0,0,0,0,0,0,0,-1,1812,750,46.8685,-4.24699
595,274,46.7313,5.25006,0,0,0,0,0,0,0,-1,1819,750,46.7314,-5.25009
602,274,47.8207,3.47772,0,0,0,0,0,0,0,-1,1826,750,47.8207,-3.4777
609,274,44.6676,3.10461,0,0,0,0,0,0,0,-1,1833,750,44.6676,-3.1046
616,274,32.7869,1.78436,0,0,0,0,0,0,0,-1,1840,750,32.7868,-1.78437
623,274,24.8231,-1.80353,0,0,0,0,0,0,0,-1,1847,750,24.8232,1.80351
630,274,30.1489,-3.51477,0,0,0,0,0,0,0,-1,1854,750,30.149,3.51476
637,274,30.1989,-2.94403,0.0019356,0.00214339,0.00171679,0.00375943,0.000319563,0.815619,0.00240685,0.0182711,1861,750,30.1988,2.94401
644,274,30.1554,-2.34167,0.00113942,0.00113242,0.00122755,0.00236348,-9.16368e-05,0.783974,0.00160707,0.012326,1868,750,30.1554,2.34168
651,274,30.1466,-1.77399,0.000670016,0.000286858,0.000752082,0.00125454,-0.000297662,0.660685,0.000951231,0.0132082,1875,750,30.1466,1.77396
658,274,30.1465,-1.20319,0.000493681,-0.000388862,0.00052216,0.000736055,-0.000631237,0.43458,0.000790179,0.0165182,1882,750,30.1464,1.20321
665,274,30.1332,-0.593567,0.000373788,-5.49287e-05,0.000442254,0.000650895,-0.000332036,0.559734,0.000577362,0.0172876,1889,750,30.1332,0.59357
672,274,30.1207,-0.0194092,0.000349305,0.0005571,0.000543876,0.00100691,-0.000100509,0.879777,0.000707164,0.0139724,1896,750,30.1207,0.0194392
679,274,30.1056,0.53833,0.000499219,0.00146637,0.000872311,0.00198018,-1.45882e-05,1.03849,0.00132501,0.0145502,1903,750,30.1056,-0.538333
686,274,30.0774,1.08722,0.00079832,0.00256372,0.00132699,0.00327478,8.72612e-05,1.07889,0.00215469,0.0170119,1910,750,30.0774,-1.08724
693,274,30.0439,1.66742,0.00134978,0.0037997,0.00197191,0.00489615,0.000253326,1.06333,0.00318302,0.0128633,1917,750,30.044,-1.66742
700,274,30.0411,2.2619,0.00226933,0.00525745,0.00290991,0.00703444,0.000492335,1.02257,0.00453443,0.0152416,1924,750,30.0412,-2.26192
707,274,29.9786,2.85724,0.00382368,0.00694719,0.00431921,0.00997833,0.000792544,0.958877,0.00640441,0.0269271,1931,750,29.9787,-2.85723
714,274,29.8901,3.48126,0,0,0,0,0,0,0,-1,1938,750,29.8901,-3.48126
721,274,25.6215,3.91144,0,0,0,0,0,0,0,-1,1945,750,25.6214,-3.91141
728,274,19.2209,3.95154,0,0,0,0,0,0,0,-1,1952,750,19.221,-3.95151
735,274,20.6608,4.10931,0,0,0,0,0,0,0,-1,1959,750,20.6607,-4.10932
742,274,11.7815,-0.740234,0,0,0,0,0,0,0,-1,1966,750,11.7815,0.740253
749,274,0,0,0,0,0,0,0,0,0,-1,1973,750,0,0
756,274,0,0,0,0,0,0,0,0,0,-1,1980,750,0,0
763,274,0,0,0,0,0,0,0,0,0,-1,1987,750,0,0
770,274,0,0,0,0,0,0,0,0,0,-1,1994,750,0,0
777,274,0,0,0,0,0,0,0,0,0,-1,2001,750,0,0
784,274,0,0,0,0,0,0,0,0,0,-1,2008,750,0,0
791,274,0,0,0,0,0,0,0,0,0,-1,2015,750,0,0
798,274,0,0,0,0,0,0,0,0,0,-1,2022,750,0,0
805,274,0,0,0,0,0,0,0,0,0,-1,2029,750,0,0
812,274,0,0,0,0,0,0,0,0,0,-1,2036,750,0,0
-700,267,0,0,0,0,0,0,0,0,0,-1,524,757,0,0
-693,267,0,0,0,0,0,0,0,0,0,-1,531,757,0,0
-686,267,0,0,0,0,0,0,0,0,0,-1,538,757,0,0
-679,267,0,0,0,0,0,0,0,0,0,-1,545,757,0,0
-672,267,0,0,0,0,0,0,0,0,0,-1,552,757,0,0
-665,267,0,0,0,0,0,0,0,0,0,-1,559,757,0,0
-658,267,0,0,0,0,0,0,0,0,0,-1,566,757,0,0
-651,267,0,0,0,0,0,0,0,0,0,-1,573,757,0,0
-644,267,0,0,0,0,0,0,0,0,0,-1,580,757,0,0
-637,267,0,0,0,0,0,0,0,0,0,-1,587,757,0,0
-630,267,-21.3979,5.17529,0,0,0,0,0,0,0,-1,594,757,-21.3979,-5.17529
-623,267,-20.043,4.43115,0,0,0,0,0,0,0,-1,601,757,-20.043,-4.43116
-616,267,-18.6576,5.19214,0,0,0,0,0,0,0,-1,608,757,-18.6576,-5.19215
-609,267,-18.6078,4.34973,0,0,0,0,0,0,0,-1,615,757,-18.6078,-4.34976
-602,267,-19.3658,2.84296,0,0,0,0,0,0,0,-1,622,757,-19.3658,-2.84295
-595,267,-20.8549,2.27991,0,0,0,0,0,0,0,-1,629,757,-20.8549,-2.27991
-588,267,-20.4404,1.59668,0.011136,0.00748792,-0.00358697,0.0133361,0.00528785,-0.550178,0.00775437,0.0472017,636,757,-20.4403,-1.5967
-581,267,-20.2574,0.884766,0.00713975,0.00534218,-0.00236017,0.00876648,0.00371545,-0.603469,0.00508087,0.0362739,643,757,-20.2574,-0.884757
-574,267,-20.2849,0.28186,0.00445094,0.00379273,-0.00139084,0.00555108,0.00269259,-0.669222,0.00320539,0.020361,650,757,-20.2849,-0.281879
-567,267,-20.3574,-0.257507,0.00257593,0.00250638,-0.000647565,0.00318965,0.00189266,-0.758572,0.00185222,0.0261768,657,757,-20.3573,0.257485
-560,267,-20.3867,-0.828979,0.00124083,0.00139333,-2.44487e-05,0.00139715,0.00123701,-1.41565,0.000882909,0.0241573,664,757,-20.3867,0.82895
-553,267,-20.4238,-1.38641,0.000305815,0.000376971,0.000509269,0.000851904,-0.000169118,0.820272,0.000631898,0.0174392,671,757,-20.4238,1.38642
-546,267,-20.4481,-1.91241,-0.000438117,-0.000590372,0.00114101,0.000629299,-0.00165779,0.752088,0.00136423,0.0113231,678,757,-20.448,1.91239
-539,267,-20.4567,-2.45581,-0.00108454,-0.00152385,0.00186556,0.000574253,-0.00318265,0.726797,0.00233682,0.0110257,685,757,-20.4567,2.45584
-532,267,-20.4599,-3.01422,-0.00178008,-0.00216286,0.00258962,0.000625216,-0.00456816,0.748512,0.00327381,0.0118396,692,757,-20.4599,3.01421
-525,267,-20.4929,-3.53577,-0.00257623,-0.00191528,0.00303166,0.00080386,-0.00529537,0.839688,0.00382645,0.0118288,699,757,-20.4929,3.53577
-518,267,-20.5034,-4.0694,-0.00358545,-0.00100716,0.00316041,0.00111692,-0.00570952,0.979049,0.00422812,0.0116711,706,757,-20.5034,4.06942
-511,267,-20.4921,-4.62372,-0.00476409,0.000320604,0.0031353,0.0018148,-0.00625828,1.12607,0.00489067,0.0178215,713,757,-20.4921,4.62369
-504,267,-20.5745,-5.02264,-0.00607811,0.00221661,0.00291007,0.00313572,-0.00699722,1.26487,0.00599018,0.0338717,720,757,-20.5745,5.02265
-497,267,-20.6929,-5.37469,0,0,0,0,0,0,0,-1,727,757,-20.6928,5.37472
-490,267,-23.4949,-0.494995,0,0,0,0,0,0,0,-1,734,757,-23.4949,0.494981
-483,267,-33.2785,-0.448425,0,0,0,0,0,0,0,-1,741,757,-33.2785,0.448407
-476,267,-33.7904,1.32043,0,0,0,0,0,0,0,-1,748,757,-33.7904,-1.32042
-469,267,-34.3151,0.902344,0,0,0,0,0,0,0,-1,755,757,-34.3151,-0.902354
-462,267,-34.8398,0.484314,0,0,0,0,0,0,0,-1,762,757,-34.8398,-0.484287
-455,267,-34.4745,1.24573,0,0,0,0,0,0,0,-1,769,757,-34.4745,-1.24571
-448,267,-34.5133,1.39307,0,0,0,0,0,0,0,-1,776,757,-34.5133,-1.39305
-441,267,0,0,0,0,0,0,0,0,0,-1,783,757,0,0
-434,267,0,0,0,0,0,0,0,0,0,-1,790,757,0,0
-427,267,0,0,0,0,0,0,0,0,0,-1,797,757,0,0
-420,267,0,0,0,0,0,0,0,0,0,-1,804,757,0,0
-413,267,0,0,0,0,0,0,0,0,0,-1,811,757,0,0
-406,267,0,0,0,0,0,0,0,0,0,-1,818,757,0,0
-399,267,0,0,0,0,0,0,0,0,0,-1,825,757,0,0
-392,267,0,0,0,0,0,0,0,0,0,-1,832,757,0,0
-385,267,0,0,0,0,0,0,0,0,0,-1,839,757,0,0
-378,267,0,0,0,0,0,0,0,0,0,-1,846,757,0,0
-371,267,0,0,0,0,0,0,0,0,0,-1,853,757,0,0
-364,267,0,0,0,0,0,0,0,0,0,-1,860,757,0,0
-357,267,0,0,0,0,0,0,0,0,0,-1,867,757,0,0
-350,267,0,0,0,0,0,0,0,0,0,-1,874,757,0,0
-343,267,0,0,0,0,0,0,0,0,0,-1,881,757,0,0
-336,267,0,0,0,0,0,0,0,0,0,-1,888,757,0,0
-329,267,0,0,0,0,0,0,0,0,0,-1,895,757,0,0
-322,267,0,0,0,0,0,0,0,0,0,-1,902,757,0,0
-315,267,0,0,0,0,0,0,0,0,0,-1,909,757,0,0
-308,267,0,0,0,0,0,0,0,0,0,-1,916,757,0,0
-301,267,0,0,0,0,0,0,0,0,0,-1,923,757,0,0
-294,267,0,0,0,0,0,0,0,0,0,-1,930,757,0,0
-287,267,0,0,0,0,0,0,0,0,0,-1,937,757,0,0
-280,267,0,0,0,0,0,0,0,0,0,-1,944,757,0,0
-273,267,0,0,0,0,0,0,0,0,0,-1,951,757,0,0
-266,267,0,0,0,0,0,0,0,0,0,-1,958,757,0,0
-259,267,0,0,0,0,0,0,0,0,0,-1,965,757,0,0
-252,267,0,0,0,0,0,0,0,0,0,-1,972,757,0,0
-245,267,0,0,0,0,0,0,0,0,0,-1,979,757,0,0
-238,267,0,0,0,0,0,0,0,0,0,-1,986,757,0,0
-231,267,0,0,0,0,0,0,0,0,0,-1,993,757,0,0
-224,267,0,0,0,0,0,0,0,0,0,-1,1000,757,0,0
-217,267,0,0,0,0,0,0,0,0,0,-1,1007,757,0,0
-210,267,0,0,0,0,0,0,0,0,0,-1,1014,757,0,0
-203,267,0,0,0,0,0,0,0,0,0,-1,1021,757,0,0
-196,267,0,0,0,0,0,0,0,0,0,-1,1028,757,0,0
-189,267,0,0,0,0,0,0,0,0,0,-1,1035,757,0,0
-182,267,0,0,0,0,0,0,0,0,0,-1,1042,757,0,0
-175,267,0,0,0,0,0,0,0,0,0,-1,1049,757,0,0
-168,267,0,0,0,0,0,0,0,0,0,-1,1056,757,0,0
-161,267,0,0,0,0,0,0,0,0,0,-1,1063,757,0,0
-154,267,0,0,0,0,0,0,0,0,0,-1,1070,757,0,0
-147,267,0,0,0,0,0,0,0,0,0,-1,1077,757,0,0
-140,267,0,0,0,0,0,0,0,0,0,-1,1084,757,0,0
-133,267,0,0,0,0,0,0,0,0,0,-1,1091,757,0,0
-126,267,0,0,0,0,0,0,0,0,0,-1,1098,757,0,0
-119,267,0,0,0,0,0,0,0,0,0,-1,1105,757,0,0
-112,267,0,0,0,0,0,0,0,0,0,-1,1112,757,0,0
-105,267,0,0,0,0,0,0,0,0,0,-1,1119,757,0,0
-98,267,0,0,0,0,0,0,0,0,0,-1,1126,757,0,0
-91,267,0,0,0,0,0,0,0,0,0,-1,1133,757,0,0
-84,267,0,0,0,0,0,0,0,0,0,-1,1140,757,0,0
-77,267,0,0,0,0,0,0,0,0,0,-1,1147,757,0,0
-70,267,0,0,0,0,0,0,0,0,0,-1,1154,757,0,0
-63,267,0,0,0,0,0,0,0,0,0,-1,1161,757,0,0
-56,267,0,0,0,0,0,0,0,0,0,-1,1168,757,0,0
-49,267,0,0,0,0,0,0,0,0,0,-1,1175,757,0,0
-42,267,0,0,0,0,0,0,0,0,0,-1,1182,757,0,0
-35,267,0,0,0,0,0,0,0,0,0,-1,1189,757,0,0
-28,267,0,0,0,0,0,0,0,0,0,-1,1196,757,0,0
-21,267,0,0,0,0,0,0,0,0,0,-1,1203,757,0,0
-14,267,0,0,0,0,0,0,0,0,0,-1,1210,757,0,0
-7,267,0,0,0,0,0,0,0,0,0,-1,1217,757,0,0
0,267,0,0,0,0,0,0,0,0,0,-1,1224,757,0,0
7,267,0,0,0,0,0,0,0,0,0,-1,1231,757,0,0
14,267,0,0,0,0,0,0,0,0,0,-1,1238,757,0,0
21,267,0,0,0,0,0,0,0,0,0,-1,1245,757,0,0
28,267,0,0,0,0,0,0,0,0,0,-1,1252,757,0,0
35,267,0,0,0,0,0,0,0,0,0,-1,1259,757,0,0
42,267,0,0,0,0,0,0,0,0,0,-1,1266,757,0,0
49,267,0,0,0,0,0,0,0,0,0,-1,1273,757,0,0
56,267,0,0,0,0,0,0,0,0,0,-1,1280,757,0,0
63,267,0,0,0,0,0,0,0,0,0,-1,1287,757,0,0
70,267,0,0,0,0,0,0,0,0,0,-1,1294,757,0,0
77,267,0,0,0,0,0,0,0,0,0,-1,1301,757,0,0
84,267,0,0,0,0,0,0,0,0,0,-1,1308,757,0,0
91,267,0,0,0,0,0,0,0,0,0,-1,1315,757,0,0
98,267,0,0,0,0,0,0,0,0,0,-1,1322,757,0,0
105,267,0,0,0,0,0,0,0,0,0,-1,1329,757,0,0
112,267,0,0,0,0,0,0,0,0,0,-1,1336,757,0,0
119,267,0,0,0,0,0,0,0,0,0,-1,1343,757,0,0
126,267,0,0,0,0,0,0,0,0,0,-1,1350,757,0,0
133,267,0,0,0,0,0,0,0,0,0,-1,1357,757,0,0
140,267,0,0,0,0,0,0,0,0,0,-1,1364,757,0,0
147,267,0,0,0,0,0,0,0,0,0,-1,1371,757,0,0
154,267,0,0,0,0,0,0,0,0,0,-1,1378,757,0,0
161,267,0,0,0,0,0,0,0,0,0,-1,1385,757,0,0
168,267,0,0,0,0,0,0,0,0,0,-1,1392,757,0,0
175,267,0,0,0,0,0,0,0,0,0,-1,1399,757,0,0
182,267,0,0,0,0,0,0,0,0,0,-1,1406,757,0,0
189,267,0,0,0,0,0,0,0,0,0,-1,1413,757,0,0
196,267,0,0,0,0,0,0,0,0,0,-1,1420,757,0,0
203,267,0,0,0,0,0,0,0,0,0,-1,1427,757,0,0
210,267,0,0,0,0,0,0,0,0,0,-1,1434,757,0,0
217,267,0,0,0,0,0,0,0,0,0,-1,1441,757,0,0
224,267,0,0,0,0,0,0,0,0,0,-1,1448,757,0,0
231,267,0,0,0,0,0,0,0,0,0,-1,1455,757,0,0
238,267,0,0,0,0,0,0,0,0,0,-1,1462,757,0,0
245,267,0,0,0,0,0,0,0,0,0,-1,1469,757,0,0
252,267,0,0,0,0,0,0,0,0,0,-1,1476,757,0,0
259,267,0,0,0,0,0,0,0,0,0,-1,1483,757,0,0
266,267,0,0,0,0,0,0,0,0,0,-1,1490,757,0,0
273,267,0,0,0,0,0,0,0,0,0,-1,1497,757,0,0
280,267,0,0,0,0,0,0,0,0,0,-1,1504,757,0,0
287,267,0,0,0,0,0,0,0,0,0,-1,1511,757,0,0
294,267,0,0,0,0,0,0,0,0,0,-1,1518,757,0,0
301,267,0,0,0,0,0,0,0,0,0,-1,1525,757,0,0
308,267,0,0,0,0,0,0,0,0,0,-1,1532,757,0,0
315,267,0,0,0,0,0,0,0,0,0,-1,1539,757,0,0
322,267,0,0,0,0,0,0,0,0,0,-1,1546,757,0,0
329,267,0,0,0,0,0,0,0,0,0,-1,1553,757,0,0
336,267,0,0,0,0,0,0,0,0,0,-1,1560,757,0,0
343,267,0,0,0,0,0,0,0,0,0,-1,1567,757,0,0
350,267,0,0,0,0,0,0,0,0,0,-1,1574,757,0,0
357,267,0,0,0,0,0,0,0,0,0,-1,1581,757,0,0
364,267,0,0,0,0,0,0,0,0,0,-1,1588,757,0,0
371,267,0,0,0,0,0,0,0,0,0,-1,1595,757,0,0
378,267,0,0,0,0,0,0,0,0,0,-1,1602,757,0,0
385,267,0,0,0,0,0,0,0,0,0,-1,1609,757,0,0
392,267,0,0,0,0,0,0,0,0,0,-1,1616,757,0,0
399,267,0,0,0,0,0,0,0,0,0,-1,1623,757,0,0
406,267,0,0,0,0,0,0,0,0,0,-1,1630,757,0,0
413,267,0,0,0,0,0,0,0,0,0,-1,1637,757,0,0
420,267,0,0,0,0,0,0,0,0,0,-1,1644,757,0,0
427,267,0,0,0,0,0,0,0,0,0,-1,1651,757,0,0
434,267,0,0,0,0,0,0,0,0,0,-1,1658,757,0,0
441,267,0,0,0,0,0,0,0,0,0,-1,1665,757,0,0
448,267,0,0,0,0,0,0,0,0,0,-1,1672,757,0,0
455,267,0,0,0,0,0,0,0,0,0,-1,1679,757,0,0
462,267,0,0,0,0,0,0,0,0,0,-1,1686,757,0,0
469,267,0,0,0,0,0,0,0,0,0,-1,1693,757,0,0
476,267,0,0,0,0,0,0,0,0,0,-1,1700,757,0,0
483,267,0,0,0,0,0,0,0,0,0,-1,1707,757,0,0
490,267,0,0,0,0,0,0,0,0,0,-1,1714,757,0,0
497,267,0,0,0,0,0,0,0,0,0,-1,1721,757,0,0
504,267,0,0,0,0,0,0,0,0,0,-1,1728,757,0,0
511,267,0,0,0,0,0,0,0,0,0,-1,1735,757,0,0
518,267,0,0,0,0,0,0,0,0,0,-1,1742,757,0,0
525,267,0,0,0,0,0,0,0,0,0,-1,1749,757,0,0
532,267,0,0,0,0,0,0,0,0,0,-1,1756,757,0,0
539,267,0,0,0,0,0,0,0,0,0,-1,1763,757,0,0
546,267,0,0,0,0,0,0,0,0,0,-1,1770,757,0,0
553,267,0,0,0,0,0,0,0,0,0,-1,1777,757,0,0
560,267,0,0,0,0,0,0,0,0,0,-1,1784,757,0,0
567,267,46.8893,2.90509,0,0,0,0,0,0,0,-1,1791,757,46.8893,-2.90511
574,267,46.9888,2.94061,6.37406e-05,0.0126167,0.0261416,0.0332247,-0.0205443,0.903216,0.03133,0.0455562,1798,757,46.9887,-2.94064
581,267,46.9158,3.25464,0.00112693,0.0118517,0.0216402,0.0287841,-0.0158054,0.906851,0.0261047,0.049691,1805,757,46.9158,-3.25465
588,267,46.9351,3.58521,0,0,0,0,0,0,0,-1,1812,757,46.9351,-3.58519
595,267,47.6021,3.08765,0,0,0,0,0,0,0,-1,1819,757,47.6021,-3.08766
602,267,47.5708,3.24927,0,0,0,0,0,0,0,-1,1826,757,47.5708,-3.24926
609,267,47.6526,3.34497,0,0,0,0,0,0,0,-1,1833,757,47.6525,-3.34498
616,267,44.2543,3.28918,0,0,0,0,0,0,0,-1,1840,757,44.2542,-3.28918
623,267,24.1475,-1.1391,0,0,0,0,0,0,0,-1,1847,757,24.1475,1.13913
630,267,31.1926,-3.28143,0,0,0,0,0,0,0,-1,1854,757,31.1926,3.28142
637,267,30.8927,-2.79956,0.00190225,0.00292691,0.00204768,0.00452538,0.000303773,0.907982,0.00292093,0.0380266,1861,757,30.8927,2.79953
644,267,30.7366,-2.29297,0.00106009,0.00188513,0.0015322,0.00305937,-0.000114148,0.916897,0.00207867,0.0137089,1868,757,30.7366,2.29294
651,267,30.7172,-1.71063,0.000564315,0.000881468,0.000982719,0.00171832,-0.00027254,0.865391,0.00124637,0.0140771,1875,757,30.7172,1.71064
658,267,30.7365,-1.15143,0.000421596,-0.000179904,0.000619767,0.00080973,-0.000568038,0.559504,0.000799524,0.014667,1882,757,30.7364,1.1514
665,267,30.7314,-0.568176,0.000370569,-0.000156419,0.000384224,0.000572969,-0.000358819,0.484838,0.000542683,0.0158666,1889,757,30.7314,0.568182
672,267,30.7048,-0.00543213,0.000451448,0.00022494,0.00039059,0.000744871,-6.8484e-05,0.64429,0.000520912,0.0139458,1896,757,30.7048,0.00541713
679,267,30.667,0.56012,0.000730662,0.000964398,0.00070443,0.00156159,0.000133472,0.867601,0.000999543,0.0130104,1903,757,30.667,-0.560099
686,267,30.6617,1.13519,0.00120567,0.00199557,0.00122057,0.0028835,0.000317739,0.94187,0.00182566,0.0145285,1910,757,30.6617,-1.13516
693,267,30.6362,1.66724,0.00196034,0.00317421,0.00194899,0.00460859,0.000525973,0.936344,0.00291294,0.0141089,1917,757,30.6362,-1.66721
700,267,30.6188,2.24658,0.00306027,0.00451947,0.00295023,0.00682898,0.000750767,0.906617,0.00432418,0.0151364,1924,757,30.6188,-2.24656
707,267,30.5806,2.81689,0.00471486,0.00605724,0.00438057,0.00981774,0.000954361,0.861417,0.00625137,0.0149668,1931,757,30.5806,-2.8169
714,267,30.7903,3.34448,0.0072727,0.00813294,0.00662331,0.0143401,0.00106556,0.817823,0.00922541,0.0338583,1938,757,30.7903,-3.34451
721,267,31.103,3.84509,0,0,0,0,0,0,0,-1,1945,757,31.103,-3.84511
728,267,26.7886,3.90027,0,0,0,0,0,0,0,-1,1952,757,26.7886,-3.90028
735,267,24.6713,2.82483,0,0,0,0,0,0,0,-1,1959,757,24.6713,-2.82483
742,267,18.1177,3.56561,0,0,0,0,0,0,0,-1,1966,757,18.1176,-3.56564
749,267,0,0,0,0,0,0,0,0,0,-1,1973,757,0,0
756,267,0,0,0,0,0,0,0,0,0,-1,1980,757,0,0
763,267,0,0,0,0,0,0,0,0,0,-1,1987,757,0,0
770,267,0,0,0,0,0,0,0,0,0,-1,1994,757,0,0
777,267,0,0,0,0,0,0,0,0,0,-1,2001,757,0,0
784,267,0,0,0,0,0,0,0,0,0,-1,2008,757,0,0
791,267,0,0,0,0,0,0,0,0,0,-1,2015,757,0,0
798,267,0,0,0,0,0,0,0,0,0,-1,2022,757,0,0
805,267,0,0,0,0,0,0,0,0,0,-1,2029,757,0,0
812,267,0,0,0,0,0,0,0,0,0,-1,2036,757,0,0
-700,260,0,0,0,0,0,0,0,0,0,-1,524,764,0,0
-693,260,0,0,0,0,0,0,0,0,0,-1,531,764,0,0
-686,260,0,0,0,0,0,0,0,0,0,-1,538,764,0,0
-679,260,0,0,0,0,0,0,0,0,0,-1,545,764,0,0
-672,260,0,0,0,0,0,0,0,0,0,-1,552,764,0,0
-665,260,0,0,0,0,0,0,0,0,0,-1,559,764,0,0
-658,260,0,0,0,0,0,0,0,0,0,-1,566,764,0,0
-651,260,0,0,0,0,0,0,0,0,0,-1,573,764,0,0
-644,260,0,0,0,0,0,0,0,0,0,-1,580,764,0,0
-637,260,0,0,0,0,0,0,0,0,0,-1,587,764,0,0
-630,260,-21.8905,4.49341,0,0,0,0,0,0,0,-1,594,764,-21.8905,-4.49342
-623,260,-20.3127,3.53546,0,0,0,0,0,0,0,-1,601,764,-20.3127,-3.53544
-616,260,-23.4346,3.65009,0,0,0,0,0,0,0,-1,608,764,-23.4345,-3.65008
-609,260,-18.557,3.77429,0,0,0,0,0,0,0,-1,615,764,-18.557,-3.77426
-602,260,-20.5432,2.90839,0,0,0,0,0,0,0,-1,622,764,-20.5432,-2.90838
-595,260,-21.7814,2.13367,0,0,0,0,0,0,0,-1,629,764,-21.7814,-2.13366
-588,260,-21.3393,1.42255,0.0107505,0.00723684,-0.00414508,0.0134957,0.00449165,-0.584958,0.00793558,0.0420564,636,764,-21.3393,-1.42254
-581,260,-20.8983,0.759705,0.00724317,0.00523271,-0.00284097,0.00925152,0.00322437,-0.615355,0.00542245,0.0274333,643,764,-20.8983,-0.759722
-574,260,-20.9047,0.242432,0.00471332,0.00368613,-0.00175634,0.00602962,0.00236983,-0.643153,0.00350766,0.0178464,650,764,-20.9047,-0.242416
-567,260,-20.9059,-0.233398,0.0028279,0.00233712,-0.000872759,0.00348911,0.00167591,-0.648352,0.00201496,0.0175169,657,764,-20.9059,0.233421
-560,260,-20.9062,-0.791687,0.00140157,0.00113096,-0.00011583,0.00144437,0.00108815,-0.354004,0.000868866,0.0205301,664,764,-20.9062,0.791704
-553,260,-20.937,-1.33746,0.000353882,6.84487e-06,0.000552592,0.000759559,-0.000398832,0.633269,0.00067952,0.0179736,671,764,-20.937,1.33744
-546,260,-20.9797,-1.89246,-0.000565366,-0.00113406,0.00142079,0.000599251,-0.00229867,0.686637,0.00176641,0.0117652,678,764,-20.9797,1.89245
-539,260,-20.9712,-2.41394,-0.00141302,-0.00211162,0.00233812,0.00060175,-0.00412639,0.711249,0.00297188,0.0123383,685,764,-20.9712,2.41396
-532,260,-20.966,-2.92706,-0.00223761,-0.00265013,0.00317566,0.000738477,-0.00562622,0.752969,0.00401965,0.0164111,692,764,-20.966,2.92703
-525,260,-21.0106,-3.50226,-0.00315919,-0.00221895,0.00363903,0.0009802,-0.00635834,0.849637,0.00460057,0.0149476,699,764,-21.0106,3.50224
-518,260,-21.0591,-4.00604,-0.00425805,-0.00115644,0.00372179,0.00132472,-0.00673921,0.9828,0.0049933,0.0166375,706,764,-21.0592,4.00606
-511,260,-21.0645,-4.49756,-0.00546187,0.000271265,0.00366098,0.00205443,-0.00724504,1.11754,0.00564095,0.0302269,713,764,-21.0645,4.49753
-504,260,-21.1674,-4.97961,0,0,0,0,0,0,0,-1,720,764,-21.1673,4.97959
-497,260,-16.6542,-3.67334,0,0,0,0,0,0,0,-1,727,764,-16.6542,3.67331
-490,260,-29.4557,0.921387,0,0,0,0,0,0,0,-1,734,764,-29.4557,-0.921369
-483,260,-33.0483,2.17987,0,0,0,0,0,0,0,-1,741,764,-33.0483,-2.17985
-476,260,-34.6907,1.94861,0,0,0,0,0,0,0,-1,748,764,-34.6907,-1.9486
-469,260,-34.8846,1.78406,0,0,0,0,0,0,0,-1,755,764,-34.8847,-1.78405
-462,260,-34.4127,1.05493,0,0,0,0,0,0,0,-1,762,764,-34.4127,-1.05495
-455,260,-34.4651,1.13965,0,0,0,0,0,0,0,-1,769,764,-34.4651,-1.13966
-448,260,0,0,0,0,0,0,0,0,0,-1,776,764,0,0
-441,260,0,0,0,0,0,0,0,0,0,-1,783,764,0,0
-434,260,0,0,0,0,0,0,0,0,0,-1,790,764,0,0
-427,260,0,0,0,0,0,0,0,0,0,-1,797,764,0,0
-420,260,0,0,0,0,0,0,0,0,0,-1,804,764,0,0
-413,260,0,0,0,0,0,0,0,0,0,-1,811,764,0,0
-406,260,0,0,0,0,0,0,0,0,0,-1,818,764,0,0
-399,260,0,0,0,0,0,0,0,0,0,-1,825,764,0,0
-392,260,0,0,0,0,0,0,0,0,0,-1,832,764,0,0
-385,260,0,0,0,0,0,0,0,0,0,-1,839,764,0,0
-378,260,0,0,0,0,0,0,0,0,0,-1,846,764,0,0
-371,260,0,0,0,0,0,0,0,0,0,-1,853,764,0,0
-364,260,0,0,0,0,0,0,0,0,0,-1,860,764,0,0
-357,260,0,0,0,0,0,0,0,0,0,-1,867,764,0,0
-350,260,0,0,0,0,0,0,0,0,0,-1,874,764,0,0
-343,260,0,0,0,0,0,0,0,0,0,-1,881,764,0,0
-336,260,0,0,0,0,0,0,0,0,0,-1,888,764,0,0
-329,260,0,0,0,0,0,0,0,0,0,-1,895,764,0,0
-322,260,0,0,0,0,0,0,0,0,0,-1,902,764,0,0
-315,260,0,0,0,0,0,0,0,0,0,-1,909,764,0,0
-308,260,0,0,0,0,0,0,0,0,0,-1,916,764,0,0
-301,260,0,0,0,0,0,0,0,0,0,-1,923,764,0,0
-294,260,0,0,0,0,0,0,0,0,0,-1,930,764,0,0
-287,260,0,0,0,0,0,0,0,0,0,-1,937,764,0,0
-280,260,0,0,0,0,0,0,0,0,0,-1,944,764,0,0
-273,260,0,0,0,0,0,0,0,0,0,-1,951,764,0,0
-266,260,0,0,0,0,0,0,0,0,0,-1,958,764,0,0
-259,260,0,0,0,0,0,0,0,0,0,-1,965,764,0,0
-252,260,0,0,0,0,0,0,0,0,0,-1,972,764,0,0
-245,260,0,0,0,0,0,0,0,0,0,-1,979,764,0,0
-238,260,0,0,0,0,0,0,0,0,0,-1,986,764,0,0
-231,260,0,0,0,0,0,0,0,0,0,-1,993,764,0,0
-224,260,0,0,0,0,0,0,0,0,0,-1,1000,764,0,0
-217,260,0,0,0,0,0,0,0,0,0,-1,1007,764,0,0
-210,260,0,0,0,0,0,0,0,0,0,-1,1014,764,0,0
-203,260,0,0,0,0,0,0,0,0,0,-1,1021,764,0,0
-196,260,0,0,0,0,0,0,0,0,0,-1,1028,764,0,0
-189,260,0,0,0,0,0,0,0,0,0,-1,1035,764,0,0
-182,260,0,0,0,0,0,0,0,0,0,-1,1042,764,0,0
-175,260,0,0,0,0,0,0,0,0,0,-1,1049,764,0,0
-168,260,0,0,0,0,0,0,0,0,0,-1,1056,764,0,0
-161,260,0,0,0,0,0,0,0,0,0,-1,1063,764,0,0
-154,260,0,0,0,0,0,0,0,0,0,-1,1070,764,0,0
-147,260,0,0,0,0,0,0,0,0,0,-1,1077,764,0,0
-140,260,0,0,0,0,0,0,0,0,0,-1,1084,764,0,0
-133,260,0,0,0,0,0,0,0,0,0,-1,1091,764,0,0
-126,260,0,0,0,0,0,0,0,0,0,-1,1098,764,0,0
-119,260,0,0,0,0,0,0,0,0,0,-1,1105,764,0,0
-112,260,0,0,0,0,0,0,0,0,0,-1,1112,764,0,0
-105,260,0,0,0,0,0,0,0,0,0,-1,1119,764,0,0
-98,260,0,0,0,0,0,0,0,0,0,-1,1126,764,0,0
-91,260,0,0,0,0,0,0,0,0,0,-1,1133,764,0,0
-84,260,0,0,0,0,0,0,0,0,0,-1,1140,764,0,0
-77,260,0,0,0,0,0,0,0,0,0,-1,1147,764,0,0
-70,260,0,0,0,0,0,0,0,0,0,-1,1154,764,0,0
-63,260,0,0,0,0,0,0,0,0,0,-1,1161,764,0,0
-56,260,0,0,0,0,0,0,0,0,0,-1,1168,764,0,0
-49,260,0,0,0,0,0,0,0,0,0,-1,1175,764,0,0
-42,260,0,0,0,0,0,0,0,0,0,-1,1182,764,0,0
-35,260,0,0,0,0,0,0,0,0,0,-1,1189,764,0,0
-28,260,0,0,0,0,0,0,0,0,0,-1,1196,764,0,0
-21,260,0,0,0,0,0,0,0,0,0,-1,1203,764,0,0
-14,260,0,0,0,0,0,0,0,0,0,-1,1210,764,0,0
-7,260,0,0,0,0,0,0,0,0,0,-1,1217,764,0,0
0,260,0,0,0,0,0,0,0,0,0,-1,1224,764,0,0
7,260,0,0,0,0,0,0,0,0,0,-1,1231,764,0,0
14,260,0,0,0,0,0,0,0,0,0,-1,1238,764,0,0
21,260,0,0,0,0,0,0,0,0,0,-1,1245,764,0,0
28,260,0,0,0,0,0,0,0,0,0,-1,1252,764,0,0
35,260,0,0,0,0,0,0,0,0,0,-1,1259,764,0,0
42,260,0,0,0,0,0,0,0,0,0,-1,1266,764,0,0
49,260,0,0,0,0,0,0,0,0,0,-1,1273,764,0,0
56,260,0,0,0,0,0,0,0,0,0,-1,1280,764,0,0
63,260,0,0,0,0,0,0,0,0,0,-1,1287,764,0,0
70,260,0,0,0,0,0,0,0,0,0,-1,1294,764,0,0
77,260,0,0,0,0,0,0,0,0,0,-1,1301,764,0,0
84,260,0,0,0,0,0,0,0,0,0,-1,1308,764,0,0
91,260,0,0,0,0,0,0,0,0,0,-1,1315,764,0,0
98,260,0,0,0,0,0,0,0,0,0,-1,1322,764,0,0
105,260,0,0,0,0,0,0,0,0,0,-1,1329,764,0,0
112,260,0,0,0,0,0,0,0,0,0,-1,1336,764,0,0
119,260,0,0,0,0,0,0,0,0,0,-1,1343,764,0,0
126,260,0,0,0,0,0,0,0,0,0,-1,1350,764,0,0
133,260,0,0,0,0,0,0,0,0,0,-1,1357,764,0,0
140,260,0,0,0,0,0,0,0,0,0,-1,1364,764,0,0
147,260,0,0,0,0,0,0,0,0,0,-1,1371,764,0,0
154,260,0,0,0,0,0,0,0,0,0,-1,1378,764,0,0
161,260,0,0,0,0,0,0,0,0,0,-1,1385,764,0,0
168,260,0,0,0,0,0,0,0,0,0,-1,1392,764,0,0
175,260,0,0,0,0,0,0,0,0,0,-1,1399,764,0,0
182,260,0,0,0,0,0,0,0,0,0,-1,1406,764,0,0
189,260,0,0,0,0,0,0,0,0,0,-1,1413,764,0,0
196,260,0,0,0,0,0,0,0,0,0,-1,1420,764,0,0
203,260,0,0,0,0,0,0,0,0,0,-1,1427,764,0,0
210,260,0,0,0,0,0,0,0,0,0,-1,1434,764,0,0
217,260,0,0,0,0,0,0,0,0,0,-1,1441,764,0,0
224,260,0,0,0,0,0,0,0,0,0,-1,1448,764,0,0
231,260,0,0,0,0,0,0,0,0,0,-1,1455,764,0,0
238,260,0,0,0,0,0,0,0,0,0,-1,1462,764,0,0
245,260,0,0,0,0,0,0,0,0,0,-1,1469,764,0,0
252,260,0,0,0,0,0,0,0,0,0,-1,1476,764,0,0
259,260,0,0,0,0,0,0,0,0,0,-1,1483,764,0,0
266,260,0,0,0,0,0,0,0,0,0,-1,1490,764,0,0
273,260,0,0,0,0,0,0,0,0,0,-1,1497,764,0,0
280,260,0,0,0,0,0,0,0,0,0,-1,1504,764,0,0
287,260,0,0,0,0,0,0,0,0,0,-1,1511,764,0,0
294,260,0,0,0,0,0,0,0,0,0,-1,1518,764,0,0
301,260,0,0,0,0,0,0,0,0,0,-1,1525,764,0,0
308,260,0,0,0,0,0,0,0,0,0,-1,1532,764,0,0
315,260,0,0,0,0,0,0,0,0,0,-1,1539,764,0,0
322,260,0,0,0,0,0,0,0,0,0,-1,1546,764,0,0
329,260,0,0,0,0,0,0,0,0,0,-1,1553,764,0,0
336,260,0,0,0,0,0,0,0,0,0,-1,1560,764,0,0
343,260,0,0,0,0,0,0,0,0,0,-1,1567,764,0,0
350,260,0,0,0,0,0,0,0,0,0,-1,1574,764,0,0
357,260,0,0,0,0,0,0,0,0,0,-1,1581,764,0,0
364,260,0,0,0,0,0,0,0,0,0,-1,1588,764,0,0
371,260,0,0,0,0,0,0,0,0,0,-1,1595,764,0,0
378,260,0,0,0,0,0,0,0,0,0,-1,1602,764,0,0
385,260,0,0,0,0,0,0,0,0,0,-1,1609,764,0,0
392,260,0,0,0,0,0,0,0,0,0,-1,1616,764,0,0
399,260,0,0,0,0,0,0,0,0,0,-1,1623,764,0,0
406,260,0,0,0,0,0,0,0,0,0,-1,1630,764,0,0
413,260,0,0,0,0,0,0,0,0,0,-1,1637,764,0,0
420,260,0,0,0,0,0,0,0,0,0,-1,1644,764,0,0
427,260,0,0,0,0,0,0,0,0,0,-1,1651,764,0,0
434,260,0,0,0,0,0,0,0,0,0,-1,1658,764,0,0
441,260,0,0,0,0,0,0,0,0,0,-1,1665,764,0,0
448,260,0,0,0,0,0,0,0,0,0,-1,1672,764,0,0
455,260,0,0,0,0,0,0,0,0,0,-1,1679,764,0,0
462,260,0,0,0,0,0,0,0,0,0,-1,1686,764,0,0
469,260,0,0,0,0,0,0,0,0,0,-1,1693,764,0,0
476,260,0,0,0,0,0,0,0,0,0,-1,1700,764,0,0
483,260,0,0,0,0,0,0,0,0,0,-1,1707,764,0,0
490,260,0,0,0,0,0,0,0,0,0,-1,1714,764,0,0
497,260,0,0,0,0,0,0,0,0,0,-1,1721,764,0,0
504,260,0,0,0,0,0,0,0,0,0,-1,1728,764,0,0
511,260,0,0,0,0,0,0,0,0,0,-1,1735,764,0,0
518,260,0,0,0,0,0,0,0,0,0,-1,1742,764,0,0
525,260,0,0,0,0,0,0,0,0,0,-1,1749,764,0,0
532,260,0,0,0,0,0,0,0,0,0,-1,1756,764,0,0
539,260,0,0,0,0,0,0,0,0,0,-1,1763,764,0,0
546,260,0,0,0,0,0,0,0,0,0,-1,1770,764,0,0
553,260,0,0,0,0,0,0,0,0,0,-1,1777,764,0,0
560,260,0,0,0,0,0,0,0,0,0,-1,1784,764,0,0
567,260,0,0,0,0,0,0,0,0,0,-1,1791,764,0,0
574,260,46.9651,2.74969,0.0025396,0.0105777,0.0205576,0.0275054,-0.0143881,0.881932,0.0245792,0.0394795,1798,764,46.9651,-2.7497
581,260,46.9417,3.03857,0.00298296,0.0113781,0.0183198,0.0259751,-0.011614,0.898018,0.0222237,0.0484956,1805,764,46.9416,-3.03859
588,260,47.152,3.03046,0,0,0,0,0,0,0,-1,1812,764,47.152,-3.03047
595,260,47.375,2.89246,0.00356438,0.00968596,0.0124335,0.0194299,-0.00617958,0.906084,0.0154312,0.0487713,1819,764,47.375,-2.89246
602,260,47.3634,2.99463,0.00345637,0.00850469,0.00988293,0.0161807,-0.00421965,0.910428,0.0124347,0.0453991,1826,764,47.3634,-2.99465
609,260,47.422,3.07715,0,0,0,0,0,0,0,-1,1833,764,47.4219,-3.07715
616,260,46.4113,3.17505,0,0,0,0,0,0,0,-1,1840,764,46.4113,-3.17507
623,260,32.2268,3.25836,0,0,0,0,0,0,0,-1,1847,764,32.2268,-3.25833
630,260,24.3739,-0.536316,0,0,0,0,0,0,0,-1,1854,764,24.3739,0.536343
637,260,31.4026,-2.78143,0,0,0,0,0,0,0,-1,1861,764,31.4026,2.78141
644,260,31.381,-2.23718,0.0010193,0.0024017,0.00183014,0.00366682,-0.000245818,0.965956,0.00253047,0.0325512,1868,764,31.381,2.2372
651,260,31.3347,-1.65942,0.000474057,0.00141772,0.00124315,0.00227557,-0.000383788,0.966774,0.00165983,0.0155308,1875,764,31.3347,1.65944
658,260,31.2856,-1.09332,0.000293172,0.000169914,0.000761152,0.000995186,-0.0005321,0.745002,0.000895188,0.0160424,1882,764,31.2856,1.09331
665,260,31.2488,-0.54071,0.000238405,-8.90696e-05,0.000336616,0.000448994,-0.000299659,0.559036,0.000435092,0.0160204,1889,764,31.2487,0.540695
672,260,31.2506,0.0325317,0.000370341,1.89612e-05,0.000180502,0.00044654,-5.72375e-05,0.399453,0.000318492,0.0139548,1896,764,31.2506,-0.0325447
679,260,31.2224,0.587097,0.000743153,0.000525894,0.000424181,0.00107239,0.000196653,0.660046,0.000659229,0.0128562,1903,764,31.2224,-0.587107
686,260,31.2153,1.14276,0.001391,0.00144124,0.000969976,0.00238642,0.000445821,0.798345,0.00146513,0.0169846,1910,764,31.2153,-1.14276
693,260,31.1838,1.66199,0.0023876,0.00254661,0.00176518,0.00423408,0.000700132,0.807903,0.0026207,0.0168222,1917,764,31.1838,-1.66197
700,260,31.135,2.24213,0.0036625,0.00393423,0.00286813,0.00666972,0.000927016,0.809065,0.00417194,0.0143654,1924,764,31.1351,-2.24212
707,260,31.1161,2.82422,0.00537082,0.00548637,0.00433493,0.00976391,0.00109328,0.792062,0.00617718,0.0147585,1931,764,31.116,-2.82421
714,260,31.1472,3.37378,0.00779275,0.00758255,0.00652539,0.0142139,0.00116142,0.777346,0.00911348,0.0268975,1938,764,31.1472,-3.37376
721,260,31.2141,3.91974,0,0,0,0,0,0,0,-1,1945,764,31.2141,-3.91972
728,260,30.0559,5.07568,0,0,0,0,0,0,0,-1,1952,764,30.0559,-5.07567
735,260,26.9788,4.85681,0,0,0,0,0,0,0,-1,1959,764,26.9787,-4.85678
742,260,32.1443,1.73688,0,0,0,0,0,0,0,-1,1966,764,32.1442,-1.73688
749,260,33.6013,2.94733,0,0,0,0,0,0,0,-1,1973,764,33.6013,-2.9473
756,260,0,0,0,0,0,0,0,0,0,-1,1980,764,0,0
763,260,0,0,0,0,0,0,0,0,0,-1,1987,764,0,0
770,260,0,0,0,0,0,0,0,0,0,-1,1994,764,0,0
777,260,0,0,0,0,0,0,0,0,0,-1,2001,764,0,0
784,260,0,0,0,0,0,0,0,0,0,-1,2008,764,0,0
791,260,0,0,0,0,0,0,0,0,0,-1,2015,764,0,0
798,260,0,0,0,0,0,0,0,0,0,-1,2022,764,0,0
805,260,0,0,0,0,0,0,0,0,0,-1,2029,764,0,0
812,260,0,0,0,0,0,0,0,0,0,-1,2036,764,0,0
-700,253,0,0,0,0,0,0,0,0,0,-1,524,771,0,0
-693,253,0,0,0,0,0,0,0,0,0,-1,531,771,0,0
-686,253,0,0,0,0,0,0,0,0,0,-1,538,771,0,0
-679,253,0,0,0,0,0,0,0,0,0,-1,545,771,0,0
-672,253,0,0,0,0,0,0,0,0,0,-1,552,771,0,0
-665,253,0,0,0,0,0,0,0,0,0,-1,559,771,0,0
-658,253,0,0,0,0,0,0,0,0,0,-1,566,771,0,0
-651,253,0,0,0,0,0,0,0,0,0,-1,573,771,0,0
-644,253,0,0,0,0,0,0,0,0,0,-1,580,771,0,0
-637,253,-24.7979,-0.491394,0,0,0,0,0,0,0,-1,587,771,-24.7978,0.491371
-630,253,-25.156,0.540405,0,0,0,0,0,0,0,-1,594,771,-25.156,-0.540421
-623,253,-20.808,2.84314,0,0,0,0,0,0,0,-1,601,771,-20.8081,-2.84312
-616,253,-25.0877,2.96875,0,0,0,0,0,0,0,-1,608,771,-25.0877,-2.96876
-609,253,-24.28,2.08228,0,0,0,0,0,0,0,-1,615,771,-24.2801,-2.08227
-602,253,-21.6799,2.61639,0,0,0,0,0,0,0,-1,622,771,-21.6799,-2.61638
-595,253,-21.5892,2.02527,0,0,0,0,0,0,0,-1,629,771,-21.5892,-2.02526
-588,253,-21.4725,1.39124,0.0101401,0.00678048,-0.0044281,0.0131963,0.00372426,-0.60411,0.00785608,0.0379331,636,771,-21.4725,-1.39125
-581,253,-21.4138,0.770447,0.00700728,0.0049265,-0.0030774,0.0092154,0.00271838,-0.622392,0.00546757,0.0245135,643,771,-21.4138,-0.770421
-574,253,-21.4478,0.227844,0.00461561,0.00340556,-0.00190949,0.00601363,0.00200753,-0.631977,0.00353531,0.0201907,650,771,-21.4477,-0.227856
-567,253,-21.4807,-0.306641,0.00274357,0.002025,-0.000916148,0.00336837,0.00140021,-0.59853,0.00195392,0.0172593,657,771,-21.4806,0.30665
-560,253,-21.4609,-0.760437,0.0012693,0.000756835,-5.00645e-05,0.00127414,0.000751989,-0.0964787,0.000739605,0.0137,664,771,-21.4608,0.760429
-553,253,-21.479,-1.29156,0.000179916,-0.000424719,0.00073117,0.000668803,-0.000913606,0.589365,0.000917241,0.0128999,671,771,-21.479,1.29158
-546,253,-21.5255,-1.83545,-0.000846759,-0.00170318,0.00181897,0.000593727,-0.00314367,0.669796,0.00231916,0.01147,678,771,-21.5255,1.83544
-539,253,-21.5493,-2.38696,-0.00182391,-0.00264783,0.0028852,0.000678594,-0.00515034,0.714486,0.00368067,0.0123111,685,771,-21.5493,2.38699
-532,253,-21.5264,-2.92426,-0.00270814,-0.0030159,0.00375131,0.000892437,-0.00661649,0.764899,0.00473658,0.0165723,692,771,-21.5264,2.92426
-525,253,-21.5356,-3.47864,-0.00369493,-0.00242493,0.00419,0.00117791,-0.00729777,0.860602,0.00530162,0.0150717,699,771,-21.5356,3.47862
-518,253,-21.6107,-4.00134,-0.00484174,-0.00128008,0.00421524,0.00151507,-0.00763689,0.985263,0.00566424,0.0237693,706,771,-21.6107,4.00135
-511,253,-21.6803,-4.42444,0,0,0,0,0,0,0,-1,713,771,-21.6803,4.42441
-504,253,-19.317,-4.1723,0,0,0,0,0,0,0,-1,720,771,-19.317,4.1723
-497,253,-21.7737,-1.76837,0,0,0,0,0,0,0,-1,727,771,-21.7738,1.7684
-490,253,-29.7674,0.438354,0,0,0,0,0,0,0,-1,734,771,-29.7674,-0.438339
-483,253,-34.6915,1.84723,0,0,0,0,0,0,0,-1,741,771,-34.6915,-1.84725
-476,253,-34.8328,1.69336,-0.0153285,0.0201411,-0.00370882,0.0205247,-0.0157122,-1.46772,0.0209828,0.0487471,748,771,-34.8328,-1.69339
-469,253,-35.0002,1.53851,-0.0181103,0.0270375,-0.00758652,0.0282782,-0.019351,-1.40869,0.0276593,0.0440471,755,771,-35.0002,-1.53853
-462,253,-35.1658,1.35638,0,0,0,0,0,0,0,-1,762,771,-35.1658,-1.35636
-455,253,-34.7318,1.17981,0,0,0,0,0,0,0,-1,769,771,-34.7318,-1.17981
-448,253,0,0,0,0,0,0,0,0,0,-1,776,771,0,0
-441,253,0,0,0,0,0,0,0,0,0,-1,783,771,0,0
-434,253,0,0,0,0,0,0,0,0,0,-1,790,771,0,0
-427,253,0,0,0,0,0,0,0,0,0,-1,797,771,0,0
-420,253,0,0,0,0,0,0,0,0,0,-1,804,771,0,0
-413,253,0,0,0,0,0,0,0,0,0,-1,811,771,0,0
-406,253,0,0,0,0,0,0,0,0,0,-1,818,771,0,0
-399,253,0,0,0,0,0,0,0,0,0,-1,825,771,0,0
-392,253,0,0,0,0,0,0,0,0,0,-1,832,771,0,0
-385,253,0,0,0,0,0,0,0,0,0,-1,839,771,0,0
-378,253,0,0,0,0,0,0,0,0,0,-1,846,771,0,0
-371,253,0,0,0,0,0,0,0,0,0,-1,853,771,0,0
-364,253,0,0,0,0,0,0,0,0,0,-1,860,771,0,0
-357,253,0,0,0,0,0,0,0,0,0,-1,867,771,0,0
-350,253,0,0,0,0,0,0,0,0,0,-1,874,771,0,0
-343,253,0,0,0,0,0,0,0,0,0,-1,881,771,0,0
-336,253,0,0,0,0,0,0,0,0,0,-1,888,771,0,0
-329,253,0,0,0,0,0,0,0,0,0,-1,895,771,0,0
-322,253,0,0,0,0,0,0,0,0,0,-1,902,771,0,0
-315,253,0,0,0,0,0,0,0,0,0,-1,909,771,0,0
-308,253,0,0,0,0,0,0,0,0,0,-1,916,771,0,0
-301,253,0,0,0,0,0,0,0,0,0,-1,923,771,0,0
-294,253,0,0,0,0,0,0,0,0,0,-1,930,771,0,0
-287,253,0,0,0,0,0,0,0,0,0,-1,937,771,0,0
-280,253,0,0,0,0,0,0,0,0,0,-1,944,771,0,0
-273,253,0,0,0,0,0,0,0,0,0,-1,951,771,0,0
-266,253,0,0,0,0,0,0,0,0,0,-1,958,771,0,0
-259,253,0,0,0,0,0,0,0,0,0,-1,965,771,0,0
-252,253,0,0,0,0,0,0,0,0,0,-1,972,771,0,0
-245,253,0,0,0,0,0,0,0,0,0,-1,979,771,0,0
-238,253,0,0,0,0,0,0,0,0,0,-1,986,771,0,0
-231,253,0,0,0,0,0,0,0,0,0,-1,993,771,0,0
-224,253,0,0,0,0,0,0,0,0,0,-1,1000,771,0,0
-217,253,0,0,0,0,0,0,0,0,0,-1,1007,771,0,0
-210,253,0,0,0,0,0,0,0,0,0,-1,1014,771,0,0
-203,253,0,0,0,0,0,0,0,0,0,-1,1021,771,0,0
-196,253,0,0,0,0,0,0,0,0,0,-1,1028,771,0,0
-189,253,0,0,0,0,0,0,0,0,0,-1,1035,771,0,0
-182,253,0,0,0,0,0,0,0,0,0,-1,1042,771,0,0
-175,253,0,0,0,0,0,0,0,0,0,-1,1049,771,0,0
-168,253,0,0,0,0,0,0,0,0,0,-1,1056,771,0,0
-161,253,0,0,0,0,0,0,0,0,0,-1,1063,771,0,0
-154,253,0,0,0,0,0,0,0,0,0,-1,1070,771,0,0
-147,253,0,0,0,0,0,0,0,0,0,-1,1077,771,0,0
-140,253,0,0,0,0,0,0,0,0,0,-1,1084,771,0,0
-133,253,0,0,0,0,0,0,0,0,0,-1,1091,771,0,0
-126,253,0,0,0,0,0,0,0,0,0,-1,1098,771,0,0
-119,253,0,0,0,0,0,0,0,0,0,-1,1105,771,0,0
-112,253,0,0,0,0,0,0,0,0,0,-1,1112,771,0,0
-105,253,0,0,0,0,0,0,0,0,0,-1,1119,771,0,0
-98,253,0,0,0,0,0,0,0,0,0,-1,1126,771,0,0
-91,253,0,0,0,0,0,0,0,0,0,-1,1133,771,0,0
-84,253,0,0,0,0,0,0,0,0,0,-1,1140,771,0,0
-77,253,0,0,0,0,0,0,0,0,0,-1,1147,771,0,0
-70,253,0,0,0,0,0,0,0,0,0,-1,1154,771,0,0
-63,253,0,0,0,0,0,0,0,0,0,-1,1161,771,0,0
-56,253,0,0,0,0,0,0,0,0,0,-1,1168,771,0,0
-49,253,0,0,0,0,0,0,0,0,0,-1,1175,771,0,0
-42,253,0,0,0,0,0,0,0,0,0,-1,1182,771,0,0
-35,253,0,0,0,0,0,0,0,0,0,-1,1189,771,0,0
-28,253,0,0,0,0,0,0,0,0,0,-1,1196,771,0,0
-21,253,0,0,0,0,0,0,0,0,0,-1,1203,771,0,0
-14,253,0,0,0,0,0,0,0,0,0,-1,1210,771,0,0
-7,253,0,0,0,0,0,0,0,0,0,-1,1217,771,0,0
0,253,0,0,0,0,0,0,0,0,0,-1,1224,771,0,0
7,253,0,0,0,0,0,0,0,0,0,-1,1231,771,0,0
14,253,0,0,0,0,0,0,0,0,0,-1,1238,771,0,0
21,253,0,0,0,0,0,0,0,0,0,-1,1245,771,0,0
28,253,0,0,0,0,0,0,0,0,0,-1,1252,771,0,0
35,253,0,0,0,0,0,0,0,0,0,-1,1259,771,0,0
42,253,0,0,0,0,0,0,0,0,0,-1,1266,771,0,0
49,253,0,0,0,0,0,0,0,0,0,-1,1273,771,0,0
56,253,0,0,0,0,0,0,0,0,0,-1,1280,771,0,0
63,253,0,0,0,0,0,0,0,0,0,-1,1287,771,0,0
70,253,0,0,0,0,0,0,0,0,0,-1,1294,771,0,0
77,253,0,0,0,0,0,0,0,0,0,-1,1301,771,0,0
84,253,0,0,0,0,0,0,0,0,0,-1,1308,771,0,0
91,253,0,0,0,0,0,0,0,0,0,-1,1315,771,0,0
98,253,0,0,0,0,0,0,0,0,0,-1,1322,771,0,0
105,253,0,0,0,0,0,0,0,0,0,-1,1329,771,0,0
112,253,0,0,0,0,0,0,0,0,0,-1,1336,771,0,0
119,253,0,0,0,0,0,0,0,0,0,-1,1343,771,0,0
126,253,0,0,0,0,0,0,0,0,0,-1,1350,771,0,0
133,253,0,0,0,0,0,0,0,0,0,-1,1357,771,0,0
140,253,0,0,0,0,0,0,0,0,0,-1,1364,771,0,0
147,253,0,0,0,0,0,0,0,0,0,-1,1371,771,0,0
154,253,0,0,0,0,0,0,0,0,0,-1,1378,771,0,0
161,253,0,0,0,0,0,0,0,0,0,-1,1385,771,0,0
168,253,0,0,0,0,0,0,0,0,0,-1,1392,771,0,0
175,253,0,0,0,0,0,0,0,0,0,-1,1399,771,0,0
182,253,0,0,0,0,0,0,0,0,0,-1,1406,771,0,0
189,253,0,0,0,0,0,0,0,0,0,-1,1413,771,0,0
196,253,0,0,0,0,0,0,0,0,0,-1,1420,771,0,0
203,253,0,0,0,0,0,0,0,0,0,-1,1427,771,0,0
210,253,0,0,0,0,0,0,0,0,0,-1,1434,771,0,0
217,253,0,0,0,0,0,0,0,0,0,-1,1441,771,0,0
224,253,0,0,0,0,0,0,0,0,0,-1,1448,771,0,0
231,253,0,0,0,0,0,0,0,0,0,-1,1455,771,0,0
238,253,0,0,0,0,0,0,0,0,0,-1,1462,771,0,0
245,253,0,0,0,0,0,0,0,0,0,-1,1469,771,0,0
252,253,0,0,0,0,0,0,0,0,0,-1,1476,771,0,0
259,253,0,0,0,0,0,0,0,0,0,-1,1483,771,0,0
266,253,0,0,0,0,0,0,0,0,0,-1,1490,771,0,0
273,253,0,0,0,0,0,0,0,0,0,-1,1497,771,0,0
280,253,0,0,0,0,0,0,0,0,0,-1,1504,771,0,0
287,253,0,0,0,0,0,0,0,0,0,-1,1511,771,0,0
294,253,0,0,0,0,0,0,0,0,0,-1,1518,771,0,0
301,253,0,0,0,0,0,0,0,0,0,-1,1525,771,0,0
308,253,0,0,0,0,0,0,0,0,0,-1,1532,771,0,0
315,253,0,0,0,0,0,0,0,0,0,-1,1539,771,0,0
322,253,0,0,0,0,0,0,0,0,0,-1,1546,771,0,0
329,253,0,0,0,0,0,0,0,0,0,-1,1553,771,0,0
336,253,0,0,0,0,0,0,0,0,0,-1,1560,771,0,0
343,253,0,0,0,0,0,0,0,0,0,-1,1567,771,0,0
350,253,0,0,0,0,0,0,0,0,0,-1,1574,771,0,0
357,253,0,0,0,0,0,0,0,0,0,-1,1581,771,0,0
364,253,0,0,0,0,0,0,0,0,0,-1,1588,771,0,0
371,253,0,0,0,0,0,0,0,0,0,-1,1595,771,0,0
378,253,0,0,0,0,0,0,0,0,0,-1,1602,771,0,0
385,253,0,0,0,0,0,0,0,0,0,-1,1609,771,0,0
392,253,0,0,0,0,0,0,0,0,0,-1,1616,771,0,0
399,253,0,0,0,0,0,0,0,0,0,-1,1623,771,0,0
406,253,0,0,0,0,0,0,0,0,0,-1,1630,771,0,0
413,253,0,0,0,0,0,0,0,0,0,-1,1637,771,0,0
420,253,0,0,0,0,0,0,0,0,0,-1,1644,771,0,0
427,253,0,0,0,0,0,0,0,0,0,-1,1651,771,0,0
434,253,0,0,0,0,0,0,0,0,0,-1,1658,771,0,0
441,253,0,0,0,0,0,0,0,0,0,-1,1665,771,0,0
448,253,0,0,0,0,0,0,0,0,0,-1,1672,771,0,0
455,253,0,0,0,0,0,0,0,0,0,-1,1679,771,0,0
462,253,0,0,0,0,0,0,0,0,0,-1,1686,771,0,0
469,253,0,0,0,0,0,0,0,0,0,-1,1693,771,0,0
476,253,0,0,0,0,0,0,0,0,0,-1,1700,771,0,0
483,253,0,0,0,0,0,0,0,0,0,-1,1707,771,0,0
490,253,0,0,0,0,0,0,0,0,0,-1,1714,771,0,0
497,253,0,0,0,0,0,0,0,0,0,-1,1721,771,0,0
504,253,0,0,0,0,0,0,0,0,0,-1,1728,771,0,0
511,253,0,0,0,0,0,0,0,0,0,-1,1735,771,0,0
518,253,0,0,0,0,0,0,0,0,0,-1,1742,771,0,0
525,253,0,0,0,0,0,0,0,0,0,-1,1749,771,0,0
532,253,0,0,0,0,0,0,0,0,0,-1,1756,771,0,0
539,253,0,0,0,0,0,0,0,0,0,-1,1763,771,0,0
546,253,0,0,0,0,0,0,0,0,0,-1,1770,771,0,0
553,253,0,0,0,0,0,0,0,0,0,-1,1777,771,0,0
560,253,0,0,0,0,0,0,0,0,0,-1,1784,771,0,0
567,253,0,0,0,0,0,0,0,0,0,-1,1791,771,0,0
574,253,46.924,2.61993,0.00406295,0.00665219,0.0141494,0.0195661,-0.00885091,0.83102,0.0167908,0.0381504,1798,771,46.924,-2.61993
581,253,46.8859,2.71887,0.0040969,0.00982874,0.0146203,0.0218614,-0.0079357,0.882183,0.0178186,0.0413956,1805,771,46.8859,-2.7189
588,253,47.085,2.78497,0.00435361,0.0103781,0.013218,0.0209228,-0.00619103,0.89743,0.0164063,0.0448321,1812,771,47.085,-2.78496
595,253,47.3215,2.82568,0.00409825,0.00971142,0.0110867,0.0183413,-0.00453164,0.909368,0.013985,0.0497578,1819,771,47.3215,-2.82568
602,253,47.3258,2.70703,0.00377197,0.00868019,0.0090647,0.0156171,-0.00316495,0.917596,0.0116111,0.0483023,1826,771,47.3258,-2.70704
609,253,47.271,2.70477,0,0,0,0,0,0,0,-1,1833,771,47.271,-2.7048
616,253,47.2698,2.75793,0,0,0,0,0,0,0,-1,1840,771,47.2698,-2.75796
623,253,46.1421,3.28015,0,0,0,0,0,0,0,-1,1847,771,46.142,-3.28016
630,253,33.561,2.96838,0,0,0,0,0,0,0,-1,1854,771,33.561,-2.96836
637,253,22.3192,-0.604004,0,0,0,0,0,0,0,-1,1861,771,22.3192,0.603986
644,253,32.0507,-2.19836,0,0,0,0,0,0,0,-1,1868,771,32.0507,2.19839
651,253,31.8542,-1.59851,0.00051069,0.00197879,0.00153977,0.00295054,-0.00046105,1.00783,0.00213735,0.0282784,1875,771,31.8542,1.59851
658,253,31.8431,-1.06073,0.000301151,0.00070489,0.0010164,0.00153927,-0.000533228,0.883429,0.00124266,0.0195149,1882,771,31.8431,1.0607
665,253,31.7494,-0.510986,0.000166888,0.000222093,0.000444912,0.000640257,-0.000251277,0.816378,0.000530807,0.0207827,1889,771,31.7493,0.510979
672,253,31.7249,0.0474854,0.000197736,2.64461e-05,9.28251e-05,0.00023839,-1.42084e-05,0.412804,0.000163869,0.0163071,1896,771,31.7248,-0.0474883
679,253,31.7992,0.624695,0.000448429,0.000206741,0.000173895,0.000539346,0.000115824,0.481742,0.000327848,0.0130054,1903,771,31.7991,-0.624701
686,253,31.7809,1.1731,0.0010456,0.000924271,0.000639368,0.00162717,0.000342694,0.738101,0.000990512,0.0194575,1910,771,31.7809,-1.17308
693,253,31.7262,1.703,0.00208178,0.00191242,0.0014045,0.00340415,0.00059005,0.75529,0.00210056,0.0189973,1917,771,31.7261,-1.70298
700,253,31.7064,2.25574,0.00335786,0.0032757,0.00250136,0.00581848,0.00081508,0.777187,0.00363786,0.0158401,1924,771,31.7064,-2.25573
707,253,31.7076,2.8432,0.00495082,0.00478593,0.00389341,0.00876266,0.0009741,0.774812,0.00554566,0.0153173,1931,771,31.7076,-2.8432
714,253,31.7034,3.40729,0.00705515,0.00679126,0.00589088,0.0128156,0.00103085,0.774201,0.00822166,0.0214653,1938,771,31.7033,-3.40729
721,253,31.887,4.08569,0.00944832,0.00916061,0.00846192,0.0177676,0.000841319,0.776899,0.0115748,0.0390896,1945,771,31.8869,-4.08568
728,253,32.1079,4.77057,0,0,0,0,0,0,0,-1,1952,771,32.108,-4.77055
735,253,30.9088,5.36432,0,0,0,0,0,0,0,-1,1959,771,30.9088,-5.36435
742,253,31.0571,5.7337,0,0,0,0,0,0,0,-1,1966,771,31.0571,-5.73373
749,253,33.7754,3.21533,0,0,0,0,0,0,0,-1,1973,771,33.7754,-3.21533
756,253,0,0,0,0,0,0,0,0,0,-1,1980,771,0,0
763,253,0,0,0,0,0,0,0,0,0,-1,1987,771,0,0
770,253,0,0,0,0,0,0,0,0,0,-1,1994,771,0,0
777,253,0,0,0,0,0,0,0,0,0,-1,2001,771,0,0
784,253,0,0,0,0,0,0,0,0,0,-1,2008,771,0,0
791,253,0,0,0,0,0,0,0,0,0,-1,2015,771,0,0
798,253,0,0,0,0,0,0,0,0,0,-1,2022,771,0,0
805,253,0,0,0,0,0,0,0,0,0,-1,2029,771,0,0
812,253,0,0,0,0,0,0,0,0,0,-1,2036,771,0,0
-700,246,0,0,0,0,0,0,0,0,0,-1,524,778,0,0
-693,246,0,0,0,0,0,0,0,0,0,-1,531,778,0,0
-686,246,0,0,0,0,0,0,0,0,0,-1,538,778,0,0
-679,246,0,0,0,0,0,0,0,0,0,-1,545,778,0,0
-672,246,0,0,0,0,0,0,0,0,0,-1,552,778,0,0
-665,246,0,0,0,0,0,0,0,0,0,-1,559,778,0,0
-658,246,0,0,0,0,0,0,0,0,0,-1,566,778,0,0
-651,246,0,0,0,0,0,0,0,0,0,-1,573,778,0,0
-644,246,0,0,0,0,0,0,0,0,0,-1,580,778,0,0
-637,246,-24.1234,0.130432,0,0,0,0,0,0,0,-1,587,778,-24.1234,-0.130438
-630,246,-24.0781,1.38916,0,0,0,0,0,0,0,-1,594,778,-24.0781,-1.38913
-623,246,-23.9183,2.49573,0,0,0,0,0,0,0,-1,601,778,-23.9183,-2.49575
-616,246,-26.8182,2.0705,0,0,0,0,0,0,0,-1,608,778,-26.8182,-2.07052
-609,246,-26.0615,1.16388,0,0,0,0,0,0,0,-1,615,778,-26.0615,-1.16388
-602,246,-21.8865,3.75995,0,0,0,0,0,0,0,-1,622,778,-21.8865,-3.75995
-595,246,-21.9954,2.11456,0,0,0,0,0,0,0,-1,629,778,-21.9953,-2.11459
-588,246,-21.9095,1.41803,0.00929851,0.00620399,-0.00443943,0.0124526,0.00304991,-0.617717,0.00749488,0.0308497,636,778,-21.9095,-1.41802
-581,246,-21.9681,0.861267,0.006499,0.00448424,-0.00307679,0.00872913,0.00225411,-0.627192,0.00523248,0.0175109,643,778,-21.9681,-0.861253
-574,246,-21.941,0.256042,0.00424837,0.00299705,-0.00186171,0.00558673,0.00165868,-0.623294,0.00331302,0.018272,650,778,-21.941,-0.256034
-567,246,-21.9818,-0.277649,0.00240885,0.00160712,-0.000792321,0.00289594,0.00112003,-0.551206,0.0016862,0.0231399,657,778,-21.9817,0.277674
-560,246,-22.0304,-0.778259,0.000913395,0.000316144,0.00015987,0.000953496,0.000276043,0.245764,0.000566529,0.017862,664,778,-22.0304,0.778254
-553,246,-22.0416,-1.26776,-0.000158331,-0.000839567,0.00104479,0.000599962,-0.00159786,0.627823,0.00131179,0.0132965,671,778,-22.0416,1.26774
-546,246,-22.0735,-1.78918,-0.00122066,-0.00216595,0.00233911,0.000693076,-0.00407969,0.68571,0.00297782,0.011468,678,778,-22.0735,1.78917
-539,246,-22.0731,-2.35126,-0.00221694,-0.00297285,0.00349515,0.000920638,-0.00611042,0.731539,0.00441263,0.0109348,685,778,-22.0731,2.35126
-532,246,-22.0623,-2.90863,-0.0030267,-0.00310242,0.00430962,0.00124523,-0.00737434,0.781006,0.00537956,0.0131612,692,778,-22.0622,2.90866
-525,246,-22.1069,-3.42639,-0.00396116,-0.00241749,0.00470926,0.00158277,-0.00796141,0.866624,0.00590632,0.0226682,699,778,-22.1069,3.42638
-518,246,-22.2635,-3.81592,-0.00504307,-0.00129538,0.00469214,0.00188325,-0.0082217,0.975375,0.00620489,0.0366146,706,778,-22.2635,3.81592
-511,246,-22.5168,-4.10413,0,0,0,0,0,0,0,-1,713,778,-22.5168,4.10413
-504,246,-20.0047,-2.88214,0,0,0,0,0,0,0,-1,720,778,-20.0047,2.88216
-497,246,-29.4669,1.82684,0,0,0,0,0,0,0,-1,727,778,-29.4669,-1.82687
-490,246,-34.5287,1.47192,0,0,0,0,0,0,0,-1,734,778,-34.5287,-1.47195
-483,246,-34.811,1.63422,0,0,0,0,0,0,0,-1,741,778,-34.8109,-1.63424
-476,246,-34.9799,1.45856,-0.0156363,0.0182733,-0.00288864,0.0185177,-0.0158807,-1.48642,0.0198793,0.0472997,748,778,-34.9799,-1.45857
-469,246,-35.1387,1.29736,-0.0183316,0.0242508,-0.00655577,0.0252373,-0.019318,-1.42145,0.0257996,0.0413336,755,778,-35.1387,-1.29737
-462,246,-35.2838,1.04651,-0.0209981,0.0300401,-0.0110346,0.0323237,-0.0232816,-1.36673,0.0322449,0.0451831,762,778,-35.2837,-1.04648
-455,246,0,0,0,0,0,0,0,0,0,-1,769,778,0,0
-448,246,0,0,0,0,0,0,0,0,0,-1,776,778,0,0
-441,246,0,0,0,0,0,0,0,0,0,-1,783,778,0,0
-434,246,0,0,0,0,0,0,0,0,0,-1,790,778,0,0
-427,246,0,0,0,0,0,0,0,0,0,-1,797,778,0,0
-420,246,0,0,0,0,0,0,0,0,0,-1,804,778,0,0
-413,246,0,0,0,0,0,0,0,0,0,-1,811,778,0,0
-406,246,0,0,0,0,0,0,0,0,0,-1,818,778,0,0
-399,246,0,0,0,0,0,0,0,0,0,-1,825,778,0,0
-392,246,0,0,0,0,0,0,0,0,0,-1,832,778,0,0
-385,246,0,0,0,0,0,0,0,0,0,-1,839,778,0,0
-378,246,0,0,0,0,0,0,0,0,0,-1,846,778,0,0
-371,246,0,0,0,0,0,0,0,0,0,-1,853,778,0,0
-364,246,0,0,0,0,0,0,0,0,0,-1,860,778,0,0
-357,246,0,0,0,0,0,0,0,0,0,-1,867,778,0,0
-350,246,0,0,0,0,0,0,0,0,0,-1,874,778,0,0
-343,246,0,0,0,0,0,0,0,0,0,-1,881,778,0,0
-336,246,0,0,0,0,0,0,0,0,0,-1,888,778,0,0
-329,246,0,0,0,0,0,0,0,0,0,-1,895,778,0,0
-322,246,0,0,0,0,0,0,0,0,0,-1,902,778,0,0
-315,246,0,0,0,0,0,0,0,0,0,-1,909,778,0,0
-308,246,0,0,0,0,0,0,0,0,0,-1,916,778,0,0
-301,246,0,0,0,0,0,0,0,0,0,-1,923,778,0,0
-294,246,0,0,0,0,0,0,0,0,0,-1,930,778,0,0
-287,246,0,0,0,0,0,0,0,0,0,-1,937,778,0,0
-280,246,0,0,0,0,0,0,0,0,0,-1,944,778,0,0
-273,246,0,0,0,0,0,0,0,0,0,-1,951,778,0,0
-266,246,0,0,0,0,0,0,0,0,0,-1,958,778,0,0
-259,246,0,0,0,0,0,0,0,0,0,-1,965,778,0,0
-252,246,0,0,0,0,0,0,0,0,0,-1,972,778,0,0
-245,246,0,0,0,0,0,0,0,0,0,-1,979,778,0,0
-238,246,0,0,0,0,0,0,0,0,0,-1,986,778,0,0
-231,246,0,0,0,0,0,0,0,0,0,-1,993,778,0,0
-224,246,0,0,0,0,0,0,0,0,0,-1,1000,778,0,0
-217,246,0,0,0,0,0,0,0,0,0,-1,1007,778,0,0
-210,246,0,0,0,0,0,0,0,0,0,-1,1014,778,0,0
-203,246,0,0,0,0,0,0,0,0,0,-1,1021,778,0,0
-196,246,0,0,0,0,0,0,0,0,0,-1,1028,778,0,0
-189,246,0,0,0,0,0,0,0,0,0,-1,1035,778,0,0
-182,246,0,0,0,0,0,0,0,0,0,-1,1042,778,0,0
-175,246,0,0,0,0,0,0,0,0,0,-1,1049,778,0,0
-168,246,0,0,0,0,0,0,0,0,0,-1,1056,778,0,0
-161,246,0,0,0,0,0,0,0,0,0,-1,1063,778,0,0
-154,246,0,0,0,0,0,0,0,0,0,-1,1070,778,0,0
-147,246,0,0,0,0,0,0,0,0,0,-1,1077,778,0,0
-140,246,0,0,0,0,0,0,0,0,0,-1,1084,778,0,0
-133,246,0,0,0,0,0,0,0,0,0,-1,1091,778,0,0
-126,246,0,0,0,0,0,0,0,0,0,-1,1098,778,0,0
-119,246,0,0,0,0,0,0,0,0,0,-1,1105,778,0,0
-112,246,0,0,0,0,0,0,0,0,0,-1,1112,778,0,0
-105,246,0,0,0,0,0,0,0,0,0,-1,1119,778,0,0
-98,246,0,0,0,0,0,0,0,0,0,-1,1126,778,0,0
-91,246,0,0,0,0,0,0,0,0,0,-1,1133,778,0,0
-84,246,0,0,0,0,0,0,0,0,0,-1,1140,778,0,0
-77,246,0,0,0,0,0,0,0,0,0,-1,1147,778,0,0
-70,246,0,0,0,0,0,0,0,0,0,-1,1154,778,0,0
-63,246,0,0,0,0,0,0,0,0,0,-1,1161,778,0,0
-56,246,0,0,0,0,0,0,0,0,0,-1,1168,778,0,0
-49,246,0,0,0,0,0,0,0,0,0,-1,1175,778,0,0
-42,246,0,0,0,0,0,0,0,0,0,-1,1182,778,0,0
-35,246,0,0,0,0,0,0,0,0,0,-1,1189,778,0,0
-28,246,0,0,0,0,0,0,0,0,0,-1,1196,778,0,0
-21,246,0,0,0,0,0,0,0,0,0,-1,1203,778,0,0
-14,246,0,0,0,0,0,0,0,0,0,-1,1210,778,0,0
-7,246,0,0,0,0,0,0,0,0,0,-1,1217,778,0,0
0,246,0,0,0,0,0,0,0,0,0,-1,1224,778,0,0
7,246,0,0,0,0,0,0,0,0,0,-1,1231,778,0,0
14,246,0,0,0,0,0,0,0,0,0,-1,1238,778,0,0
21,246,0,0,0,0,0,0,0,0,0,-1,1245,778,0,0
28,246,0,0,0,0,0,0,0,0,0,-1,1252,778,0,0
35,246,0,0,0,0,0,0,0,0,0,-1,1259,778,0,0
42,246,0,0,0,0,0,0,0,0,0,-1,1266,778,0,0
49,246,0,0,0,0,0,0,0,0,0,-1,1273,778,0,0
56,246,0,0,0,0,0,0,0,0,0,-1,1280,778,0,0
63,246,0,0,0,0,0,0,0,0,0,-1,1287,778,0,0
70,246,0,0,0,0,0,0,0,0,0,-1,1294,778,0,0
77,246,0,0,0,0,0,0,0,0,0,-1,1301,778,0,0
84,246,0,0,0,0,0,0,0,0,0,-1,1308,778,0,0
91,246,0,0,0,0,0,0,0,0,0,-1,1315,778,0,0
98,246,0,0,0,0,0,0,0,0,0,-1,1322,778,0,0
105,246,0,0,0,0,0,0,0,0,0,-1,1329,778,0,0
112,246,0,0,0,0,0,0,0,0,0,-1,1336,778,0,0
119,246,0,0,0,0,0,0,0,0,0,-1,1343,778,0,0
126,246,0,0,0,0,0,0,0,0,0,-1,1350,778,0,0
133,246,0,0,0,0,0,0,0,0,0,-1,1357,778,0,0
140,246,0,0,0,0,0,0,0,0,0,-1,1364,778,0,0
147,246,0,0,0,0,0,0,0,0,0,-1,1371,778,0,0
154,246,0,0,0,0,0,0,0,0,0,-1,1378,778,0,0
161,246,0,0,0,0,0,0,0,0,0,-1,1385,778,0,0
168,246,0,0,0,0,0,0,0,0,0,-1,1392,778,0,0
175,246,0,0,0,0,0,0,0,0,0,-1,1399,778,0,0
182,246,0,0,0,0,0,0,0,0,0,-1,1406,778,0,0
189,246,0,0,0,0,0,0,0,0,0,-1,1413,778,0,0
196,246,0,0,0,0,0,0,0,0,0,-1,1420,778,0,0
203,246,0,0,0,0,0,0,0,0,0,-1,1427,778,0,0
210,246,0,0,0,0,0,0,0,0,0,-1,1434,778,0,0
217,246,0,0,0,0,0,0,0,0,0,-1,1441,778,0,0
224,246,0,0,0,0,0,0,0,0,0,-1,1448,778,0,0
231,246,0,0,0,0,0,0,0,0,0,-1,1455,778,0,0
238,246,0,0,0,0,0,0,0,0,0,-1,1462,778,0,0
245,246,0,0,0,0,0,0,0,0,0,-1,1469,778,0,0
252,246,0,0,0,0,0,0,0,0,0,-1,1476,778,0,0
259,246,0,0,0,0,0,0,0,0,0,-1,1483,778,0,0
266,246,0,0,0,0,0,0,0,0,0,-1,1490,778,0,0
273,246,0,0,0,0,0,0,0,0,0,-1,1497,778,0,0
280,246,0,0,0,0,0,0,0,0,0,-1,1504,778,0,0
287,246,0,0,0,0,0,0,0,0,0,-1,1511,778,0,0
294,246,0,0,0,0,0,0,0,0,0,-1,1518,778,0,0
301,246,0,0,0,0,0,0,0,0,0,-1,1525,778,0,0
308,246,0,0,0,0,0,0,0,0,0,-1,1532,778,0,0
315,246,0,0,0,0,0,0,0,0,0,-1,1539,778,0,0
322,246,0,0,0,0,0,0,0,0,0,-1,1546,778,0,0
329,246,0,0,0,0,0,0,0,0,0,-1,1553,778,0,0
336,246,0,0,0,0,0,0,0,0,0,-1,1560,778,0,0
343,246,0,0,0,0,0,0,0,0,0,-1,1567,778,0,0
350,246,0,0,0,0,0,0,0,0,0,-1,1574,778,0,0
357,246,0,0,0,0,0,0,0,0,0,-1,1581,778,0,0
364,246,0,0,0,0,0,0,0,0,0,-1,1588,778,0,0
371,246,0,0,0,0,0,0,0,0,0,-1,1595,778,0,0
378,246,0,0,0,0,0,0,0,0,0,-1,1602,778,0,0
385,246,0,0,0,0,0,0,0,0,0,-1,1609,778,0,0
392,246,0,0,0,0,0,0,0,0,0,-1,1616,778,0,0
399,246,0,0,0,0,0,0,0,0,0,-1,1623,778,0,0
406,246,0,0,0,0,0,0,0,0,0,-1,1630,778,0,0
413,246,0,0,0,0,0,0,0,0,0,-1,1637,778,0,0
420,246,0,0,0,0,0,0,0,0,0,-1,1644,778,0,0
427,246,0,0,0,0,0,0,0,0,0,-1,1651,778,0,0
434,246,0,0,0,0,0,0,0,0,0,-1,1658,778,0,0
441,246,0,0,0,0,0,0,0,0,0,-1,1665,778,0,0
448,246,0,0,0,0,0,0,0,0,0,-1,1672,778,0,0
455,246,0,0,0,0,0,0,0,0,0,-1,1679,778,0,0
462,246,0,0,0,0,0,0,0,0,0,-1,1686,778,0,0
469,246,0,0,0,0,0,0,0,0,0,-1,1693,778,0,0
476,246,0,0,0,0,0,0,0,0,0,-1,1700,778,0,0
483,246,0,0,0,0,0,0,0,0,0,-1,1707,778,0,0
490,246,0,0,0,0,0,0,0,0,0,-1,1714,778,0,0
497,246,0,0,0,0,0,0,0,0,0,-1,1721,778,0,0
504,246,0,0,0,0,0,0,0,0,0,-1,1728,778,0,0
511,246,0,0,0,0,0,0,0,0,0,-1,1735,778,0,0
518,246,0,0,0,0,0,0,0,0,0,-1,1742,778,0,0
525,246,0,0,0,0,0,0,0,0,0,-1,1749,778,0,0
532,246,0,0,0,0,0,0,0,0,0,-1,1756,778,0,0
539,246,0,0,0,0,0,0,0,0,0,-1,1763,778,0,0
546,246,0,0,0,0,0,0,0,0,0,-1,1770,778,0,0
553,246,0,0,0,0,0,0,0,0,0,-1,1777,778,0,0
560,246,0,0,0,0,0,0,0,0,0,-1,1784,778,0,0
567,246,0,0,0,0,0,0,0,0,0,-1,1791,778,0,0
574,246,0,0,0,0,0,0,0,0,0,-1,1798,778,0,0
581,246,46.8813,2.69751,0.00422135,0.00692608,0.010362,0.0160236,-0.00487619,0.850287,0.0126257,0.0384922,1805,778,46.8813,-2.6975
588,246,46.9316,2.6853,0.00473088,0.00926086,0.0108245,0.0180548,-0.00406308,0.888533,0.0135948,0.0402415,1812,778,46.9317,-2.6853
595,246,47.0707,2.7677,0.00446708,0.00946535,0.00971652,0.016999,-0.00306655,0.911272,0.0124811,0.0420746,1819,778,47.0707,-2.76772
602,246,47.0588,2.92297,0,0,0,0,0,0,0,-1,1826,778,47.0589,-2.92295
609,246,47.0703,2.62714,0,0,0,0,0,0,0,-1,1833,778,47.0703,-2.62714
616,246,46.676,3.38776,0,0,0,0,0,0,0,-1,1840,778,46.676,-3.38776
623,246,46.9471,3.76068,0,0,0,0,0,0,0,-1,1847,778,46.9471,-3.7607
630,246,45.7892,2.75171,0,0,0,0,0,0,0,-1,1854,778,45.7892,-2.75171
637,246,29.5785,0.837585,0,0,0,0,0,0,0,-1,1861,778,29.5785,-0.837606
644,246,28.1232,-1.43188,0,0,0,0,0,0,0,-1,1868,778,28.1232,1.43188
651,246,32.2029,-1.72931,0,0,0,0,0,0,0,-1,1875,778,32.2028,1.7293
658,246,32.3191,-1.10223,0.000287608,0.00121043,0.00119086,0.00202614,-0.000528103,0.970223,0.00155694,0.0313211,1882,778,32.3191,1.10222
665,246,32.3286,-0.487,8.24445e-05,0.000582559,0.000521171,0.000910557,-0.000245553,1.00908,0.000703326,0.0225151,1889,778,32.3286,0.486978
672,246,32.3231,0.0968628,-1.68087e-05,0.000109481,-1.00395e-05,0.000110274,-1.76018e-05,-1.49196,8.00313e-05,0.0209917,1896,778,32.3231,-0.0968666
679,246,32.3213,0.644165,1.96215e-05,-3.7267e-05,-0.000117257,0.000111835,-0.00012948,-0.666406,0.000139447,0.0208661,1903,778,32.3213,-0.644146
686,246,32.3287,1.21991,0.000457784,0.000468172,0.000233194,0.000696229,0.000229727,0.796532,0.000409643,0.0223058,1910,778,32.3287,-1.21991
693,246,32.3203,1.73096,0.00146392,0.00135174,0.000961825,0.00237129,0.000444371,0.756271,0.00145553,0.0180095,1917,778,32.3203,-1.73095
700,246,32.3007,2.26831,0.00270558,0.00268823,0.00206725,0.00476416,0.000629637,0.7833,0.00298842,0.0148672,1924,778,32.3006,-2.2683
707,246,32.296,2.85498,0.00417097,0.00423211,0.00346891,0.00767058,0.000732501,0.789804,0.00488788,0.0138113,1931,778,32.296,-2.85497
714,246,32.2612,3.42975,0.00598048,0.00619902,0.00537328,0.0114641,0.000715361,0.795565,0.00741582,0.0134917,1938,778,32.2613,-3.42975
721,246,32.2087,3.95013,0.00793849,0.00858601,0.0078276,0.0160965,0.000427959,0.806067,0.0105913,0.0200682,1945,778,32.2088,-3.95015
728,246,32.4303,4.75586,0.0100478,0.011834,0.0109645,0.0219417,-5.99623e-05,0.826036,0.0146478,0.0425451,1952,778,32.4303,-4.75583
735,246,32.9579,5.68329,0,0,0,0,0,0,0,-1,1959,778,32.9579,-5.68328
742,246,31.7356,6.70013,0,0,0,0,0,0,0,-1,1966,778,31.7356,-6.70011
749,246,32.3883,7.69324,0,0,0,0,0,0,0,-1,1973,778,32.3883,-7.69322
756,246,33.6919,3.45264,0,0,0,0,0,0,0,-1,1980,778,33.6919,-3.45262
763,246,0,0,0,0,0,0,0,0,0,-1,1987,778,0,0
770,246,0,0,0,0,0,0,0,0,0,-1,1994,778,0,0
777,246,0,0,0,0,0,0,0,0,0,-1,2001,778,0,0
784,246,0,0,0,0,0,0,0,0,0,-1,2008,778,0,0
791,246,0,0,0,0,0,0,0,0,0,-1,2015,778,0,0
798,246,0,0,0,0,0,0,0,0,0,-1,2022,778,0,0
805,246,0,0,0,0,0,0,0,0,0,-1,2029,778,0,0
812,246,0,0,0,0,0,0,0,0,0,-1,2036,778,0,0
-700,239,0,0,0,0,0,0,0,0,0,-1,524,785,0,0
-693,239,0,0,0,0,0,0,0,0,0,-1,531,785,0,0
-686,239,0,0,0,0,0,0,0,0,0,-1,538,785,0,0
-679,239,0,0,0,0,0,0,0,0,0,-1,545,785,0,0
-672,239,0,0,0,0,0,0,0,0,0,-1,552,785,0,0
-665,239,0,0,0,0,0,0,0,0,0,-1,559,785,0,0
-658,239,0,0,0,0,0,0,0,0,0,-1,566,785,0,0
-651,239,0,0,0,0,0,0,0,0,0,-1,573,785,0,0
-644,239,0,0,0,0,0,0,0,0,0,-1,580,785,0,0
-637,239,-23.2709,0.465088,0,0,0,0,0,0,0,-1,587,785,-23.271,-0.465116
-630,239,-23.4006,0.956299,0,0,0,0,0,0,0,-1,594,785,-23.4005,-0.956285
-623,239,-30.6328,2.52185,0,0,0,0,0,0,0,-1,601,785,-30.6328,-2.52183
-616,239,-29.1425,1.42139,0,0,0,0,0,0,0,-1,608,785,-29.1425,-1.42139
-609,239,-27.8569,0.322937,0,0,0,0,0,0,0,-1,615,785,-27.857,-0.322963
-602,239,-22.3122,3.33832,0,0,0,0,0,0,0,-1,622,785,-22.3122,-3.33834
-595,239,-22.3636,2.39581,0.0115716,0.00727587,-0.00563356,0.0154528,0.0033946,-0.603275,0.00937745,0.0439901,629,785,-22.3637,-2.39579
-588,239,-22.4244,1.5094,0.00828819,0.0054848,-0.00405555,0.0111774,0.00259555,-0.619013,0.00675476,0.0201761,636,785,-22.4244,-1.50942
-581,239,-22.5023,0.872375,0.00582923,0.00391851,-0.00281346,0.00784511,0.00190263,-0.621723,0.00472532,0.011719,643,785,-22.5023,-0.872371
-574,239,-22.491,0.298523,0.00374154,0.00249297,-0.00165147,0.00488279,0.00135172,-0.604691,0.00291117,0.0127163,650,785,-22.491,-0.298519
-567,239,-22.5162,-0.251953,0.00195763,0.00113326,-0.000579365,0.00225647,0.00083442,-0.476217,0.00131742,0.0173738,657,785,-22.5161,0.251976
-560,239,-22.5593,-0.760498,0.000477834,-0.000102256,0.000411777,0.000691462,-0.000315884,0.47857,0.000594914,0.0175839,664,785,-22.5593,0.760476
-553,239,-22.5748,-1.26819,-0.000531328,-0.0011279,0.00137507,0.000577433,-0.00223666,0.67859,0.00171628,0.0148181,671,785,-22.5749,1.26816
-546,239,-22.6138,-1.78076,-0.00156232,-0.00235316,0.00284517,0.000914773,-0.00483025,0.716351,0.00356444,0.015631,678,785,-22.6139,1.78073
-539,239,-22.6462,-2.31519,-0.00249085,-0.00291726,0.00404316,0.00134473,-0.00675283,0.759057,0.00501065,0.0170927,685,785,-22.6462,2.3152
-532,239,-22.6483,-2.84247,-0.00321757,-0.00281284,0.00482611,0.00181515,-0.00784555,0.806352,0.00592877,0.0184509,692,785,-22.6482,2.84244
-525,239,-22.7006,-3.23938,-0.00406937,-0.00209551,0.00522653,0.00223646,-0.00840134,0.878715,0.0064764,0.028819,699,785,-22.7006,3.23941
-518,239,-22.966,-3.53754,0,0,0,0,0,0,0,-1,706,785,-22.966,3.53752
-511,239,-20.9849,-2.09235,0,0,0,0,0,0,0,-1,713,785,-20.9848,2.09234
-504,239,-25.5015,2.00421,0,0,0,0,0,0,0,-1,720,785,-25.5015,-2.00422
-497,239,-34.3427,0.221069,0,0,0,0,0,0,0,-1,727,785,-34.3427,-0.221054
-490,239,-34.6534,1.31738,0,0,0,0,0,0,0,-1,734,785,-34.6534,-1.31736
-483,239,-34.7618,1.50854,0,0,0,0,0,0,0,-1,741,785,-34.7619,-1.50856
-476,239,-35.1363,1.24274,-0.0151611,0.0159403,-0.00208566,0.0160795,-0.0153003,-1.50413,0.018119,0.0415883,748,785,-35.1363,-1.24273
-469,239,-35.2615,1.06403,-0.0174365,0.0209278,-0.00592152,0.0218209,-0.0183297,-1.42109,0.0232102,0.0414697,755,785,-35.2615,-1.06402
-462,239,-35.3915,0.906555,-0.019296,0.0256714,-0.010976,0.0282075,-0.021832,-1.34372,0.0289684,0.043145,762,785,-35.3916,-0.906554
-455,239,0,0,0,0,0,0,0,0,0,-1,769,785,0,0
-448,239,0,0,0,0,0,0,0,0,0,-1,776,785,0,0
-441,239,0,0,0,0,0,0,0,0,0,-1,783,785,0,0
-434,239,0,0,0,0,0,0,0,0,0,-1,790,785,0,0
-427,239,0,0,0,0,0,0,0,0,0,-1,797,785,0,0
-420,239,0,0,0,0,0,0,0,0,0,-1,804,785,0,0
-413,239,0,0,0,0,0,0,0,0,0,-1,811,785,0,0
-406,239,0,0,0,0,0,0,0,0,0,-1,818,785,0,0
-399,239,0,0,0,0,0,0,0,0,0,-1,825,785,0,0
-392,239,0,0,0,0,0,0,0,0,0,-1,832,785,0,0
-385,239,0,0,0,0,0,0,0,0,0,-1,839,785,0,0
-378,239,0,0,0,0,0,0,0,0,0,-1,846,785,0,0
-371,239,0,0,0,0,0,0,0,0,0,-1,853,785,0,0
-364,239,0,0,0,0,0,0,0,0,0,-1,860,785,0,0
-357,239,0,0,0,0,0,0,0,0,0,-1,867,785,0,0
-350,239,0,0,0,0,0,0,0,0,0,-1,874,785,0,0
-343,239,0,0,0,0,0,0,0,0,0,-1,881,785,0,0
-336,239,0,0,0,0,0,0,0,0,0,-1,888,785,0,0
-329,239,0,0,0,0,0,0,0,0,0,-1,895,785,0,0
-322,239,0,0,0,0,0,0,0,0,0,-1,902,785,0,0
-315,239,0,0,0,0,0,0,0,0,0,-1,909,785,0,0
-308,239,0,0,0,0,0,0,0,0,0,-1,916,785,0,0
-301,239,0,0,0,0,0,0,0,0,0,-1,923,785,0,0
-294,239,0,0,0,0,0,0,0,0,0,-1,930,785,0,0
-287,239,0,0,0,0,0,0,0,0,0,-1,937,785,0,0
-280,239,0,0,0,0,0,0,0,0,0,-1,944,785,0,0
-273,239,0,0,0,0,0,0,0,0,0,-1,951,785,0,0
-266,239,0,0,0,0,0,0,0,0,0,-1,958,785,0,0
-259,239,0,0,0,0,0,0,0,0,0,-1,965,785,0,0
-252,239,0,0,0,0,0,0,0,0,0,-1,972,785,0,0
-245,239,0,0,0,0,0,0,0,0,0,-1,979,785,0,0
-238,239,0,0,0,0,0,0,0,0,0,-1,986,785,0,0
-231,239,0,0,0,0,0,0,0,0,0,-1,993,785,0,0
-224,239,0,0,0,0,0,0,0,0,0,-1,1000,785,0,0
-217,239,0,0,0,0,0,0,0,0,0,-1,1007,785,0,0
-210,239,0,0,0,0,0,0,0,0,0,-1,1014,785,0,0
-203,239,0,0,0,0,0,0,0,0,0,-1,1021,785,0,0
-196,239,0,0,0,0,0,0,0,0,0,-1,1028,785,0,0
-189,239,0,0,0,0,0,0,0,0,0,-1,1035,785,0,0
-182,239,0,0,0,0,0,0,0,0,0,-1,1042,785,0,0
-175,239,0,0,0,0,0,0,0,0,0,-1,1049,785,0,0
-168,239,0,0,0,0,0,0,0,0,0,-1,1056,785,0,0
-161,239,0,0,0,0,0,0,0,0,0,-1,1063,785,0,0
-154,239,0,0,0,0,0,0,0,0,0,-1,1070,785,0,0
-147,239,0,0,0,0,0,0,0,0,0,-1,1077,785,0,0
-140,239,0,0,0,0,0,0,0,0,0,-1,1084,785,0,0
-133,239,0,0,0,0,0,0,0,0,0,-1,1091,785,0,0
-126,239,0,0,0,0,0,0,0,0,0,-1,1098,785,0,0
-119,239,0,0,0,0,0,0,0,0,0,-1,1105,785,0,0
-112,239,0,0,0,0,0,0,0,0,0,-1,1112,785,0,0
-105,239,0,0,0,0,0,0,0,0,0,-1,1119,785,0,0
-98,239,0,0,0,0,0,0,0,0,0,-1,1126,785,0,0
-91,239,0,0,0,0,0,0,0,0,0,-1,1133,785,0,0
-84,239,0,0,0,0,0,0,0,0,0,-1,1140,785,0,0
-77,239,0,0,0,0,0,0,0,0,0,-1,1147,785,0,0
-70,239,0,0,0,0,0,0,0,0,0,-1,1154,785,0,0
-63,239,0,0,0,0,0,0,0,0,0,-1,1161,785,0,0
-56,239,0,0,0,0,0,0,0,0,0,-1,1168,785,0,0
-49,239,0,0,0,0,0,0,0,0,0,-1,1175,785,0,0
-42,239,0,0,0,0,0,0,0,0,0,-1,1182,785,0,0
-35,239,0,0,0,0,0,0,0,0,0,-1,1189,785,0,0
-28,239,0,0,0,0,0,0,0,0,0,-1,1196,785,0,0
-21,239,0,0,0,0,0,0,0,0,0,-1,1203,785,0,0
-14,239,0,0,0,0,0,0,0,0,0,-1,1210,785,0,0
-7,239,0,0,0,0,0,0,0,0,0,-1,1217,785,0,0
0,239,0,0,0,0,0,0,0,0,0,-1,1224,785,0,0
7,239,0,0,0,0,0,0,0,0,0,-1,1231,785,0,0
14,239,0,0,0,0,0,0,0,0,0,-1,1238,785,0,0
21,239,0,0,0,0,0,0,0,0,0,-1,1245,785,0,0
28,239,0,0,0,0,0,0,0,0,0,-1,1252,785,0,0
35,239,0,0,0,0,0,0,0,0,0,-1,1259,785,0,0
42,239,0,0,0,0,0,0,0,0,0,-1,1266,785,0,0
49,239,0,0,0,0,0,0,0,0,0,-1,1273,785,0,0
56,239,0,0,0,0,0,0,0,0,0,-1,1280,785,0,0
63,239,0,0,0,0,0,0,0,0,0,-1,1287,785,0,0
70,239,0,0,0,0,0,0,0,0,0,-1,1294,785,0,0
77,239,0,0,0,0,0,0,0,0,0,-1,1301,785,0,0
84,239,0,0,0,0,0,0,0,0,0,-1,1308,785,0,0
91,239,0,0,0,0,0,0,0,0,0,-1,1315,785,0,0
98,239,0,0,0,0,0,0,0,0,0,-1,1322,785,0,0
105,239,0,0,0,0,0,0,0,0,0,-1,1329,785,0,0
112,239,0,0,0,0,0,0,0,0,0,-1,1336,785,0,0
119,239,0,0,0,0,0,0,0,0,0,-1,1343,785,0,0
126,239,0,0,0,0,0,0,0,0,0,-1,1350,785,0,0
133,239,0,0,0,0,0,0,0,0,0,-1,1357,785,0,0
140,239,0,0,0,0,0,0,0,0,0,-1,1364,785,0,0
147,239,0,0,0,0,0,0,0,0,0,-1,1371,785,0,0
154,239,0,0,0,0,0,0,0,0,0,-1,1378,785,0,0
161,239,0,0,0,0,0,0,0,0,0,-1,1385,785,0,0
168,239,0,0,0,0,0,0,0,0,0,-1,1392,785,0,0
175,239,0,0,0,0,0,0,0,0,0,-1,1399,785,0,0
182,239,0,0,0,0,0,0,0,0,0,-1,1406,785,0,0
189,239,0,0,0,0,0,0,0,0,0,-1,1413,785,0,0
196,239,0,0,0,0,0,0,0,0,0,-1,1420,785,0,0
203,239,0,0,0,0,0,0,0,0,0,-1,1427,785,0,0
210,239,0,0,0,0,0,0,0,0,0,-1,1434,785,0,0
217,239,0,0,0,0,0,0,0,0,0,-1,1441,785,0,0
224,239,0,0,0,0,0,0,0,0,0,-1,1448,785,0,0
231,239,0,0,0,0,0,0,0,0,0,-1,1455,785,0,0
238,239,0,0,0,0,0,0,0,0,0,-1,1462,785,0,0
245,239,0,0,0,0,0,0,0,0,0,-1,1469,785,0,0
252,239,0,0,0,0,0,0,0,0,0,-1,1476,785,0,0
259,239,0,0,0,0,0,0,0,0,0,-1,1483,785,0,0
266,239,0,0,0,0,0,0,0,0,0,-1,1490,785,0,0
273,239,0,0,0,0,0,0,0,0,0,-1,1497,785,0,0
280,239,0,0,0,0,0,0,0,0,0,-1,1504,785,0,0
287,239,0,0,0,0,0,0,0,0,0,-1,1511,785,0,0
294,239,0,0,0,0,0,0,0,0,0,-1,1518,785,0,0
301,239,0,0,0,0,0,0,0,0,0,-1,1525,785,0,0
308,239,0,0,0,0,0,0,0,0,0,-1,1532,785,0,0
315,239,0,0,0,0,0,0,0,0,0,-1,1539,785,0,0
322,239,0,0,0,0,0,0,0,0,0,-1,1546,785,0,0
329,239,0,0,0,0,0,0,0,0,0,-1,1553,785,0,0
336,239,0,0,0,0,0,0,0,0,0,-1,1560,785,0,0
343,239,0,0,0,0,0,0,0,0,0,-1,1567,785,0,0
350,239,0,0,0,0,0,0,0,0,0,-1,1574,785,0,0
357,239,0,0,0,0,0,0,0,0,0,-1,1581,785,0,0
364,239,0,0,0,0,0,0,0,0,0,-1,1588,785,0,0
371,239,0,0,0,0,0,0,0,0,0,-1,1595,785,0,0
378,239,0,0,0,0,0,0,0,0,0,-1,1602,785,0,0
385,239,0,0,0,0,0,0,0,0,0,-1,1609,785,0,0
392,239,0,0,0,0,0,0,0,0,0,-1,1616,785,0,0
399,239,0,0,0,0,0,0,0,0,0,-1,1623,785,0,0
406,239,0,0,0,0,0,0,0,0,0,-1,1630,785,0,0
413,239,0,0,0,0,0,0,0,0,0,-1,1637,785,0,0
420,239,0,0,0,0,0,0,0,0,0,-1,1644,785,0,0
427,239,0,0,0,0,0,0,0,0,0,-1,1651,785,0,0
434,239,0,0,0,0,0,0,0,0,0,-1,1658,785,0,0
441,239,0,0,0,0,0,0,0,0,0,-1,1665,785,0,0
448,239,0,0,0,0,0,0,0,0,0,-1,1672,785,0,0
455,239,0,0,0,0,0,0,0,0,0,-1,1679,785,0,0
462,239,0,0,0,0,0,0,0,0,0,-1,1686,785,0,0
469,239,0,0,0,0,0,0,0,0,0,-1,1693,785,0,0
476,239,0,0,0,0,0,0,0,0,0,-1,1700,785,0,0
483,239,0,0,0,0,0,0,0,0,0,-1,1707,785,0,0
490,239,0,0,0,0,0,0,0,0,0,-1,1714,785,0,0
497,239,0,0,0,0,0,0,0,0,0,-1,1721,785,0,0
504,239,0,0,0,0,0,0,0,0,0,-1,1728,785,0,0
511,239,0,0,0,0,0,0,0,0,0,-1,1735,785,0,0
518,239,0,0,0,0,0,0,0,0,0,-1,1742,785,0,0
525,239,0,0,0,0,0,0,0,0,0,-1,1749,785,0,0
532,239,0,0,0,0,0,0,0,0,0,-1,1756,785,0,0
539,239,0,0,0,0,0,0,0,0,0,-1,1763,785,0,0
546,239,0,0,0,0,0,0,0,0,0,-1,1770,785,0,0
553,239,0,0,0,0,0,0,0,0,0,-1,1777,785,0,0
560,239,0,0,0,0,0,0,0,0,0,-1,1784,785,0,0
567,239,0,0,0,0,0,0,0,0,0,-1,1791,785,0,0
574,239,0,0,0,0,0,0,0,0,0,-1,1798,785,0,0
581,239,46.754,3.00024,0.00310977,0.00308391,0.00589143,0.00898828,-0.00279461,0.784301,0.00710924,0.0389371,1805,785,46.754,-3.00026
588,239,46.8185,2.84479,0.0042611,0.00725814,0.00809688,0.013994,-0.00247476,0.8769,0.0102543,0.0397333,1812,785,46.8185,-2.84478
595,239,46.9161,2.77753,0.00435387,0.008665,0.00819359,0.0149818,-0.00196296,0.914024,0.0107024,0.0370843,1819,785,46.9161,-2.77752
602,239,47.0186,2.73578,0.00407586,0.00866977,0.00748857,0.0142057,-0.0014601,0.934207,0.00999281,0.0420805,1826,785,47.0185,-2.73575
609,239,47.1289,2.81232,0,0,0,0,0,0,0,-1,1833,785,47.129,-2.81233
616,239,46.9348,3.10339,0,0,0,0,0,0,0,-1,1840,785,46.9348,-3.10342
623,239,47.0048,3.44604,0,0,0,0,0,0,0,-1,1847,785,47.0047,-3.44604
630,239,47.2651,3.54199,0,0,0,0,0,0,0,-1,1854,785,47.2652,-3.54196
637,239,39.5542,2.54114,0,0,0,0,0,0,0,-1,1861,785,39.5543,-2.54114
644,239,18.3466,0.735413,0,0,0,0,0,0,0,-1,1868,785,18.3465,-0.735414
651,239,32.5701,-1.92224,0,0,0,0,0,0,0,-1,1875,785,32.5701,1.92225
658,239,32.813,-1.1485,0.000268715,0.00163027,0.00133511,0.00244816,-0.000549168,1.02117,0.00184264,0.0447639,1882,785,32.813,1.14852
665,239,32.9215,-0.450439,4.79747e-05,0.000979405,0.000626098,0.001294,-0.000266624,1.10517,0.000963914,0.0192381,1889,785,32.9215,0.450425
672,239,32.8915,0.141846,-0.000135383,0.000358188,-3.32131e-05,0.000360413,-0.000137608,-1.50391,0.000296969,0.0225844,1896,785,32.8915,-0.141868
679,239,32.8567,0.680481,-0.000328848,-4.90707e-05,-0.000329401,0.000168914,-0.000546833,-0.986196,0.000432011,0.0228772,1903,785,32.8566,-0.680465
686,239,32.8304,1.23853,-0.000106078,0.000232848,-0.000143251,0.000285283,-0.000158513,-1.21991,0.000259687,0.0237421,1910,785,32.8305,-1.2385
693,239,32.8677,1.76459,0.00080937,0.000974391,0.000500588,0.00139922,0.000384538,0.867077,0.000834703,0.0162438,1917,785,32.8676,-1.76457
700,239,32.8611,2.30005,0.00196622,0.00226939,0.00158371,0.00370875,0.000526857,0.83311,0.00231694,0.0121791,1924,785,32.8611,-2.30006
707,239,32.8308,2.86212,0.00329183,0.00387153,0.00299073,0.00658642,0.000576935,0.833706,0.00421183,0.0113208,1931,785,32.8308,-2.86213
714,239,32.8044,3.40503,0.00481457,0.00584253,0.0048118,0.0101677,0.000489377,0.838605,0.00662139,0.0105407,1938,785,32.8044,-3.40503
721,239,32.7396,3.96228,0.00637531,0.00830165,0.00714455,0.0145477,0.000129301,0.8524,0.00965563,0.0237583,1945,785,32.7396,-3.9623
728,239,32.7826,4.66888,0.00787957,0.0116087,0.0100648,0.0199801,-0.000491887,0.876987,0.013487,0.0445858,1952,785,32.7826,-4.66887
735,239,33.1243,5.56769,0,0,0,0,0,0,0,-1,1959,785,33.1243,-5.56766
742,239,32.4141,7.6665,0,0,0,0,0,0,0,-1,1966,785,32.4141,-7.6665
749,239,32.1489,3.4411,0,0,0,0,0,0,0,-1,1973,785,32.149,-3.44109
756,239,32.9064,3.6687,0,0,0,0,0,0,0,-1,1980,785,32.9063,-3.66873
763,239,0,0,0,0,0,0,0,0,0,-1,1987,785,0,0
770,239,0,0,0,0,0,0,0,0,0,-1,1994,785,0,0
777,239,0,0,0,0,0,0,0,0,0,-1,2001,785,0,0
784,239,0,0,0,0,0,0,0,0,0,-1,2008,785,0,0
791,239,0,0,0,0,0,0,0,0,0,-1,2015,785,0,0
798,239,0,0,0,0,0,0,0,0,0,-1,2022,785,0,0
805,239,0,0,0,0,0,0,0,0,0,-1,2029,785,0,0
812,239,0,0,0,0,0,0,0,0,0,-1,2036,785,0,0
-700,232,0,0,0,0,0,0,0,0,0,-1,524,792,0,0
-693,232,0,0,0,0,0,0,0,0,0,-1,531,792,0,0
-686,232,0,0,0,0,0,0,0,0,0,-1,538,792,0,0
-679,232,0,0,0,0,0,0,0,0,0,-1,545,792,0,0
-672,232,0,0,0,0,0,0,0,0,0,-1,552,792,0,0
-665,232,0,0,0,0,0,0,0,0,0,-1,559,792,0,0
-658,232,0,0,0,0,0,0,0,0,0,-1,566,792,0,0
-651,232,0,0,0,0,0,0,0,0,0,-1,573,792,0,0
-644,232,-22.5826,0.269348,0,0,0,0,0,0,0,-1,580,792,-22.5826,-0.269357
-637,232,-30.1556,5.06824,0,0,0,0,0,0,0,-1,587,792,-30.1556,-5.06823
-630,232,-32.2345,1.80212,0,0,0,0,0,0,0,-1,594,792,-32.2345,-1.80211
-623,232,-31.5665,1.05115,0,0,0,0,0,0,0,-1,601,792,-31.5664,-1.05112
-616,232,-30.6812,0.432861,0,0,0,0,0,0,0,-1,608,792,-30.6812,-0.432881
-609,232,-29.7142,-0.478943,0,0,0,0,0,0,0,-1,615,792,-29.7142,0.478965
-602,232,-23.0533,3.15601,0,0,0,0,0,0,0,-1,622,792,-23.0533,-3.15599
-595,232,-22.986,2.31525,0.00986211,0.00641116,-0.00464331,0.0130902,0.00318309,-0.607503,0.00788296,0.0379339,629,792,-22.986,-2.31525
-588,232,-23.0019,1.46716,0.00723482,0.00483652,-0.00343613,0.00967504,0.00239631,-0.617515,0.00581814,0.0134462,636,792,-23.0019,-1.46714
-581,232,-23.0307,0.858154,0.00515291,0.00339225,-0.00240561,0.00683421,0.00171095,-0.609993,0.00410641,0.00896418,643,792,-23.0307,-0.858167
-574,232,-23.0374,0.327698,0.00328247,0.00202172,-0.00137988,0.00416914,0.00113504,-0.571137,0.0024889,0.00951092,650,792,-23.0374,-0.327728
-567,232,-23.0547,-0.190979,0.00164273,0.000708843,-0.000371042,0.0017722,0.000579373,-0.335726,0.00104341,0.011637,657,792,-23.0547,0.190949
-560,232,-23.0861,-0.704102,0.00028883,-0.00042939,0.000624898,0.000650454,-0.000791014,0.524605,0.000833549,0.0155461,664,792,-23.0861,0.704122
-553,232,-23.1141,-1.23401,-0.000562465,-0.00126785,0.00162148,0.000744239,-0.00257455,0.67831,0.00201089,0.0153895,671,792,-23.1141,1.234
-546,232,-23.1537,-1.77112,-0.0014571,-0.00231673,0.00318743,0.00132937,-0.00510319,0.718379,0.0039211,0.0219374,678,792,-23.1537,1.77109
-539,232,-23.2155,-2.25586,-0.00218407,-0.00262476,0.00437808,0.00197921,-0.00678804,0.760255,0.00530952,0.0312515,685,792,-23.2154,2.25586
-532,232,-23.2942,-2.74908,-0.00279407,-0.00234262,0.00511295,0.00254958,-0.00768628,0.807458,0.00615272,0.0308586,692,792,-23.2942,2.74906
-525,232,-23.2649,-2.98907,0,0,0,0,0,0,0,-1,699,792,-23.2649,2.98908
-518,232,-20.8098,-3.08154,0,0,0,0,0,0,0,-1,706,792,-20.8098,3.08155
-511,232,-21.6708,-0.962708,0,0,0,0,0,0,0,-1,713,792,-21.6708,0.962731
-504,232,-34.2155,0.346985,0,0,0,0,0,0,0,-1,720,792,-34.2155,-0.346955
-497,232,-34.5452,0.476501,-0.00802582,0.00366927,0.00483627,0.00541009,-0.00976664,1.22528,0.00888181,0.046437,727,792,-34.5452,-0.476514
-490,232,-34.9243,1.341,-0.00978263,0.00625884,0.00359032,0.00702575,-0.0105495,1.36036,0.0102149,0.0436394,734,792,-34.9242,-1.34099
-483,232,-35.1146,1.35809,-0.0117549,0.0096136,0.0014988,0.00971821,-0.0118595,1.50111,0.0124783,0.0399156,741,792,-35.1146,-1.35807
-476,232,-35.2872,1.00104,-0.0138138,0.0137186,-0.00159269,0.0138104,-0.0139057,-1.5132,0.0160019,0.0359315,748,792,-35.2872,-1.00105
-469,232,-35.4518,0.782959,-0.0153918,0.017829,-0.005901,0.018846,-0.0164089,-1.40012,0.0203706,0.0340026,755,792,-35.4518,-0.782985
-462,232,0,0,0,0,0,0,0,0,0,-1,762,792,0,0
-455,232,0,0,0,0,0,0,0,0,0,-1,769,792,0,0
-448,232,0,0,0,0,0,0,0,0,0,-1,776,792,0,0
-441,232,0,0,0,0,0,0,0,0,0,-1,783,792,0,0
-434,232,0,0,0,0,0,0,0,0,0,-1,790,792,0,0
-427,232,0,0,0,0,0,0,0,0,0,-1,797,792,0,0
-420,232,0,0,0,0,0,0,0,0,0,-1,804,792,0,0
-413,232,0,0,0,0,0,0,0,0,0,-1,811,792,0,0
-406,232,0,0,0,0,0,0,0,0,0,-1,818,792,0,0
-399,232,0,0,0,0,0,0,0,0,0,-1,825,792,0,0
-392,232,0,0,0,0,0,0,0,0,0,-1,832,792,0,0
-385,232,0,0,0,0,0,0,0,0,0,-1,839,792,0,0
-378,232,0,0,0,0,0,0,0,0,0,-1,846,792,0,0
-371,232,0,0,0,0,0,0,0,0,0,-1,853,792,0,0
-364,232,0,0,0,0,0,0,0,0,0,-1,860,792,0,0
-357,232,0,0,0,0,0,0,0,0,0,-1,867,792,0,0
-350,232,0,0,0,0,0,0,0,0,0,-1,874,792,0,0
-343,232,0,0,0,0,0,0,0,0,0,-1,881,792,0,0
-336,232,0,0,0,0,0,0,0,0,0,-1,888,792,0,0
-329,232,0,0,0,0,0,0,0,0,0,-1,895,792,0,0
-322,232,0,0,0,0,0,0,0,0,0,-1,902,792,0,0
-315,232,0,0,0,0,0,0,0,0,0,-1,909,792,0,0
-308,232,0,0,0,0,0,0,0,0,0,-1,916,792,0,0
-301,232,0,0,0,0,0,0,0,0,0,-1,923,792,0,0
-294,232,0,0,0,0,0,0,0,0,0,-1,930,792,0,0
-287,232,0,0,0,0,0,0,0,0,0,-1,937,792,0,0
-280,232,0,0,0,0,0,0,0,0,0,-1,944,792,0,0
-273,232,0,0,0,0,0,0,0,0,0,-1,951,792,0,0
-266,232,0,0,0,0,0,0,0,0,0,-1,958,792,0,0
-259,232,0,0,0,0,0,0,0,0,0,-1,965,792,0,0
-252,232,0,0,0,0,0,0,0,0,0,-1,972,792,0,0
-245,232,0,0,0,0,0,0,0,0,0,-1,979,792,0,0
-238,232,0,0,0,0,0,0,0,0,0,-1,986,792,0,0
-231,232,0,0,0,0,0,0,0,0,0,-1,993,792,0,0
-224,232,0,0,0,0,0,0,0,0,0,-1,1000,792,0,0
-217,232,0,0,0,0,0,0,0,0,0,-1,1007,792,0,0
-210,232,0,0,0,0,0,0,0,0,0,-1,1014,792,0,0
-203,232,0,0,0,0,0,0,0,0,0,-1,1021,792,0,0
-196,232,0,0,0,0,0,0,0,0,0,-1,1028,792,0,0
-189,232,0,0,0,0,0,0,0,0,0,-1,1035,792,0,0
-182,232,0,0,0,0,0,0,0,0,0,-1,1042,792,0,0
-175,232,0,0,0,0,0,0,0,0,0,-1,1049,792,0,0
-168,232,0,0,0,0,0,0,0,0,0,-1,1056,792,0,0
-161,232,0,0,0,0,0,0,0,0,0,-1,1063,792,0,0
-154,232,0,0,0,0,0,0,0,0,0,-1,1070,792,0,0
-147,232,0,0,0,0,0,0,0,0,0,-1,1077,792,0,0
-140,232,0,0,0,0,0,0,0,0,0,-1,1084,792,0,0
-133,232,0,0,0,0,0,0,0,0,0,-1,1091,792,0,0
-126,232,0,0,0,0,0,0,0,0,0,-1,1098,792,0,0
-119,232,0,0,0,0,0,0,0,0,0,-1,1105,792,0,0
-112,232,0,0,0,0,0,0,0,0,0,-1,1112,792,0,0
-105,232,0,0,0,0,0,0,0,0,0,-1,1119,792,0,0
-98,232,0,0,0,0,0,0,0,0,0,-1,1126,792,0,0
-91,232,0,0,0,0,0,0,0,0,0,-1,1133,792,0,0
-84,232,0,0,0,0,0,0,0,0,0,-1,1140,792,0,0
-77,232,0,0,0,0,0,0,0,0,0,-1,1147,792,0,0
-70,232,0,0,0,0,0,0,0,0,0,-1,1154,792,0,0
-63,232,0,0,0,0,0,0,0,0,0,-1,1161,792,0,0
-56,232,0,0,0,0,0,0,0,0,0,-1,1168,792,0,0
-49,232,0,0,0,0,0,0,0,0,0,-1,1175,792,0,0
-42,232,0,0,0,0,0,0,0,0,0,-1,1182,792,0,0
-35,232,0,0,0,0,0,0,0,0,0,-1,1189,792,0,0
-28,232,0,0,0,0,0,0,0,0,0,-1,1196,792,0,0
-21,232,0,0,0,0,0,0,0,0,0,-1,1203,792,0,0
-14,232,0,0,0,0,0,0,0,0,0,-1,1210,792,0,0
-7,232,0,0,0,0,0,0,0,0,0,-1,1217,792,0,0
0,232,0,0,0,0,0,0,0,0,0,-1,1224,792,0,0
7,232,0,0,0,0,0,0,0,0,0,-1,1231,792,0,0
14,232,0,0,0,0,0,0,0,0,0,-1,1238,792,0,0
21,232,0,0,0,0,0,0,0,0,0,-1,1245,792,0,0
28,232,0,0,0,0,0,0,0,0,0,-1,1252,792,0,0
35,232,0,0,0,0,0,0,0,0,0,-1,1259,792,0,0
42,232,0,0,0,0,0,0,0,0,0,-1,1266,792,0,0
49,232,0,0,0,0,0,0,0,0,0,-1,1273,792,0,0
56,232,0,0,0,0,0,0,0,0,0,-1,1280,792,0,0
63,232,0,0,0,0,0,0,0,0,0,-1,1287,792,0,0
70,232,0,0,0,0,0,0,0,0,0,-1,1294,792,0,0
77,232,0,0,0,0,0,0,0,0,0,-1,1301,792,0,0
84,232,0,0,0,0,0,0,0,0,0,-1,1308,792,0,0
91,232,0,0,0,0,0,0,0,0,0,-1,1315,792,0,0
98,232,0,0,0,0,0,0,0,0,0,-1,1322,792,0,0
105,232,0,0,0,0,0,0,0,0,0,-1,1329,792,0,0
112,232,0,0,0,0,0,0,0,0,0,-1,1336,792,0,0
119,232,0,0,0,0,0,0,0,0,0,-1,1343,792,0,0
126,232,0,0,0,0,0,0,0,0,0,-1,1350,792,0,0
133,232,0,0,0,0,0,0,0,0,0,-1,1357,792,0,0
140,232,0,0,0,0,0,0,0,0,0,-1,1364,792,0,0
147,232,0,0,0,0,0,0,0,0,0,-1,1371,792,0,0
154,232,0,0,0,0,0,0,0,0,0,-1,1378,792,0,0
161,232,0,0,0,0,0,0,0,0,0,-1,1385,792,0,0
168,232,0,0,0,0,0,0,0,0,0,-1,1392,792,0,0
175,232,0,0,0,0,0,0,0,0,0,-1,1399,792,0,0
182,232,0,0,0,0,0,0,0,0,0,-1,1406,792,0,0
189,232,0,0,0,0,0,0,0,0,0,-1,1413,792,0,0
196,232,0,0,0,0,0,0,0,0,0,-1,1420,792,0,0
203,232,0,0,0,0,0,0,0,0,0,-1,1427,792,0,0
210,232,0,0,0,0,0,0,0,0,0,-1,1434,792,0,0
217,232,0,0,0,0,0,0,0,0,0,-1,1441,792,0,0
224,232,0,0,0,0,0,0,0,0,0,-1,1448,792,0,0
231,232,0,0,0,0,0,0,0,0,0,-1,1455,792,0,0
238,232,0,0,0,0,0,0,0,0,0,-1,1462,792,0,0
245,232,0,0,0,0,0,0,0,0,0,-1,1469,792,0,0
252,232,0,0,0,0,0,0,0,0,0,-1,1476,792,0,0
259,232,0,0,0,0,0,0,0,0,0,-1,1483,792,0,0
266,232,0,0,0,0,0,0,0,0,0,-1,1490,792,0,0
273,232,0,0,0,0,0,0,0,0,0,-1,1497,792,0,0
280,232,0,0,0,0,0,0,0,0,0,-1,1504,792,0,0
287,232,0,0,0,0,0,0,0,0,0,-1,1511,792,0,0
294,232,0,0,0,0,0,0,0,0,0,-1,1518,792,0,0
301,232,0,0,0,0,0,0,0,0,0,-1,1525,792,0,0
308,232,0,0,0,0,0,0,0,0,0,-1,1532,792,0,0
315,232,0,0,0,0,0,0,0,0,0,-1,1539,792,0,0
322,232,0,0,0,0,0,0,0,0,0,-1,1546,792,0,0
329,232,0,0,0,0,0,0,0,0,0,-1,1553,792,0,0
336,232,0,0,0,0,0,0,0,0,0,-1,1560,792,0,0
343,232,0,0,0,0,0,0,0,0,0,-1,1567,792,0,0
350,232,0,0,0,0,0,0,0,0,0,-1,1574,792,0,0
357,232,0,0,0,0,0,0,0,0,0,-1,1581,792,0,0
364,232,0,0,0,0,0,0,0,0,0,-1,1588,792,0,0
371,232,0,0,0,0,0,0,0,0,0,-1,1595,792,0,0
378,232,0,0,0,0,0,0,0,0,0,-1,1602,792,0,0
385,232,0,0,0,0,0,0,0,0,0,-1,1609,792,0,0
392,232,0,0,0,0,0,0,0,0,0,-1,1616,792,0,0
399,232,0,0,0,0,0,0,0,0,0,-1,1623,792,0,0
406,232,0,0,0,0,0,0,0,0,0,-1,1630,792,0,0
413,232,0,0,0,0,0,0,0,0,0,-1,1637,792,0,0
420,232,0,0,0,0,0,0,0,0,0,-1,1644,792,0,0
427,232,0,0,0,0,0,0,0,0,0,-1,1651,792,0,0
434,232,0,0,0,0,0,0,0,0,0,-1,1658,792,0,0
441,232,0,0,0,0,0,0,0,0,0,-1,1665,792,0,0
448,232,0,0,0,0,0,0,0,0,0,-1,1672,792,0,0
455,232,0,0,0,0,0,0,0,0,0,-1,1679,792,0,0
462,232,0,0,0,0,0,0,0,0,0,-1,1686,792,0,0
469,232,0,0,0,0,0,0,0,0,0,-1,1693,792,0,0
476,232,0,0,0,0,0,0,0,0,0,-1,1700,792,0,0
483,232,0,0,0,0,0,0,0,0,0,-1,1707,792,0,0
490,232,0,0,0,0,0,0,0,0,0,-1,1714,792,0,0
497,232,0,0,0,0,0,0,0,0,0,-1,1721,792,0,0
504,232,0,0,0,0,0,0,0,0,0,-1,1728,792,0,0
511,232,0,0,0,0,0,0,0,0,0,-1,1735,792,0,0
518,232,0,0,0,0,0,0,0,0,0,-1,1742,792,0,0
525,232,0,0,0,0,0,0,0,0,0,-1,1749,792,0,0
532,232,0,0,0,0,0,0,0,0,0,-1,1756,792,0,0
539,232,0,0,0,0,0,0,0,0,0,-1,1763,792,0,0
546,232,0,0,0,0,0,0,0,0,0,-1,1770,792,0,0
553,232,0,0,0,0,0,0,0,0,0,-1,1777,792,0,0
560,232,0,0,0,0,0,0,0,0,0,-1,1784,792,0,0
567,232,0,0,0,0,0,0,0,0,0,-1,1791,792,0,0
574,232,0,0,0,0,0,0,0,0,0,-1,1798,792,0,0
581,232,0,0,0,0,0,0,0,0,0,-1,1805,792,0,0
588,232,46.812,2.82336,0.00301223,0.00453184,0.00517165,0.0089992,-0.00145513,0.858335,0.00653871,0.0407433,1812,792,46.812,-2.82336
595,232,46.9125,2.77081,0.00356629,0.00713727,0.00634006,0.0119385,-0.0012349,0.922654,0.00840092,0.0399272,1819,792,46.9125,-2.77079
602,232,46.9386,2.6554,0.00364039,0.008063,0.00646828,0.0126875,-0.000984137,0.950105,0.00880474,0.0387898,1826,792,46.9386,-2.65538
609,232,46.967,2.73181,0.00352645,0.00801109,0.00612989,0.0122959,-0.000758372,0.960739,0.0084614,0.0444107,1833,792,46.967,-2.73182
616,232,46.9319,2.91052,0.00306668,0.00718279,0.00543477,0.0109361,-0.000686659,0.966396,0.00753008,0.0495301,1840,792,46.9319,-2.91055
623,232,46.9219,3.1842,0.00246117,0.00613151,0.00455797,0.00920988,-0.000617206,0.976784,0.00635565,0.0450883,1847,792,46.9219,-3.18421
630,232,47.2418,3.24567,0,0,0,0,0,0,0,-1,1854,792,47.2418,-3.24566
637,232,44.7451,3.55951,0,0,0,0,0,0,0,-1,1861,792,44.7451,-3.5595
644,232,30.7756,4.24139,0,0,0,0,0,0,0,-1,1868,792,30.7757,-4.24141
651,232,31.6797,-0.564087,0,0,0,0,0,0,0,-1,1875,792,31.6797,0.564059
658,232,33.3746,-1.13336,0,0,0,0,0,0,0,-1,1882,792,33.3746,1.13337
665,232,33.5082,-0.404175,-7.04458e-05,0.00123124,0.000541632,0.00142714,-0.000266339,1.22376,0.00105151,0.0216568,1889,792,33.5082,0.404184
672,232,33.4047,0.186096,-0.000315026,0.000559514,-0.000179861,0.00059506,-0.000350572,-1.37568,0.00055201,0.0245371,1896,792,33.4046,-0.186109
679,232,33.4098,0.726624,-0.000701247,-8.84506e-05,-0.000609526,0.000287355,-0.00107705,-1.01829,0.000830559,0.0205395,1903,792,33.4097,-0.72665
686,232,33.408,1.2663,-0.000695748,-4.61638e-05,-0.000586092,0.000299114,-0.00104103,-1.03842,0.000812291,0.019443,1910,792,33.408,-1.2663
693,232,33.4109,1.79401,8.91357e-05,0.000526472,-4.86057e-05,0.000531809,8.37987e-05,-1.46143,0.000330171,0.0110917,1917,792,33.4109,-1.79398
700,232,33.4141,2.34082,0.00115476,0.00173885,0.000971371,0.00246113,0.000432481,0.931424,0.00151728,0.0133591,1924,792,33.414,-2.34081
707,232,33.3989,2.89191,0.00241201,0.00338609,0.00232936,0.00527878,0.000519315,0.888458,0.00335949,0.0134473,1931,792,33.399,-2.89193
714,232,33.3649,3.414,0.00376223,0.00539025,0.00404709,0.00870438,0.000448103,0.884641,0.00565947,0.0134627,1938,792,33.3648,-3.41402
721,232,33.3278,3.97137,0.00510267,0.00795888,0.00622118,0.0129138,0.000147786,0.898221,0.00856034,0.0216972,1945,792,33.3278,-3.97136
728,232,33.3267,4.50061,0.00629997,0.0113727,0.00887604,0.0180677,-0.000394966,0.924567,0.0121789,0.0461438,1952,792,33.3266,-4.50061
735,232,33.5846,5.20428,0,0,0,0,0,0,0,-1,1959,792,33.5846,-5.2043
742,232,25.6461,6.00684,0,0,0,0,0,0,0,-1,1966,792,25.6461,-6.00684
749,232,31.2874,3.74713,0,0,0,0,0,0,0,-1,1973,792,31.2874,-3.74713
756,232,32.1207,3.896,0,0,0,0,0,0,0,-1,1980,792,32.1207,-3.89597
763,232,32.7255,4.05878,0,0,0,0,0,0,0,-1,1987,792,32.7255,-4.05881
770,232,0,0,0,0,0,0,0,0,0,-1,1994,792,0,0
777,232,0,0,0,0,0,0,0,0,0,-1,2001,792,0,0
784,232,0,0,0,0,0,0,0,0,0,-1,2008,792,0,0
791,232,0,0,0,0,0,0,0,0,0,-1,2015,792,0,0
798,232,0,0,0,0,0,0,0,0,0,-1,2022,792,0,0
805,232,0,0,0,0,0,0,0,0,0,-1,2029,792,0,0
812,232,0,0,0,0,0,0,0,0,0,-1,2036,792,0,0
-700,225,0,0,0,0,0,0,0,0,0,-1,524,799,0,0
-693,225,0,0,0,0,0,0,0,0,0,-1,531,799,0,0
-686,225,0,0,0,0,0,0,0,0,0,-1,538,799,0,0
-679,225,0,0,0,0,0,0,0,0,0,-1,545,799,0,0
-672,225,0,0,0,0,0,0,0,0,0,-1,552,799,0,0
-665,225,0,0,0,0,0,0,0,0,0,-1,559,799,0,0
-658,225,0,0,0,0,0,0,0,0,0,-1,566,799,0,0
-651,225,0,0,0,0,0,0,0,0,0,-1,573,799,0,0
-644,225,-28.9417,3.77637,0,0,0,0,0,0,0,-1,580,799,-28.9416,-3.77637
-637,225,-29.6128,3.23175,0,0,0,0,0,0,0,-1,587,799,-29.6128,-3.23173
-630,225,-29.8912,5.02606,0,0,0,0,0,0,0,-1,594,799,-29.8912,-5.02606
-623,225,-32.8276,-0.00836182,0,0,0,0,0,0,0,-1,601,799,-32.8276,0.00837668
-616,225,-32.0569,-0.549255,0,0,0,0,0,0,0,-1,608,799,-32.0569,0.549265
-609,225,-24.3423,2.90808,0,0,0,0,0,0,0,-1,615,799,-24.3423,-2.9081
-602,225,-24.0884,2.42395,0.0110357,0.00710934,-0.0045069,0.0139884,0.0041566,-0.579994,0.00829482,0.0495067,622,799,-24.0884,-2.42396
-595,225,-23.6486,2.00226,0.00854787,0.0056699,-0.00359228,0.0109787,0.00323911,-0.594896,0.00651363,0.0310632,629,799,-23.6486,-2.00224
-588,225,-23.5669,1.37933,0.00626189,0.00415749,-0.00266986,0.00807941,0.00233998,-0.597692,0.00480031,0.013016,636,799,-23.5669,-1.37932
-581,225,-23.5642,0.868164,0.00438411,0.00285682,-0.00183451,0.00560756,0.00163336,-0.588174,0.00333023,0.0109141,643,799,-23.5642,-0.868192
-574,225,-23.5695,0.355957,0.00266149,0.00151797,-0.000942746,0.00319231,0.000987148,-0.512811,0.00188727,0.00969592,650,799,-23.5695,-0.355959
-567,225,-23.5967,-0.173767,0.00114886,0.00025272,-6.99847e-06,0.00114892,0.000252666,-0.00780891,0.000697156,0.012942,657,799,-23.5967,0.173776
-560,225,-23.6193,-0.673401,-6.173e-05,-0.00078269,0.00094141,0.000585857,-0.00143028,0.602552,0.00119756,0.0140273,664,799,-23.6193,0.67339
-553,225,-23.6398,-1.21948,-0.000726886,-0.00141269,0.00189083,0.000851881,-0.00299146,0.695698,0.00233075,0.0129743,671,799,-23.6398,1.21946
-546,225,-23.7048,-1.76031,-0.00145388,-0.00227703,0.00343485,0.00159396,-0.00532488,0.725771,0.00418371,0.0215952,678,799,-23.7049,1.76033
-539,225,-23.7115,-2.26917,-0.00195865,-0.00238912,0.00453411,0.00236533,-0.00671311,0.761681,0.00543811,0.0428008,685,799,-23.7115,2.26919
-532,225,-23.8532,-2.67029,-0.00244483,-0.00201014,0.00517138,0.00294846,-0.00740343,0.8064,0.00615839,0.0420185,692,799,-23.8532,2.67027
-525,225,-24.1929,-2.86725,0,0,0,0,0,0,0,-1,699,799,-24.1929,2.86722
-518,225,-21.963,0.171326,0,0,0,0,0,0,0,-1,706,799,-21.9629,-0.171319
-511,225,-33.0002,0.660217,0,0,0,0,0,0,0,-1,713,799,-33.0002,-0.660239
-504,225,-35.0976,1.14209,0,0,0,0,0,0,0,-1,720,799,-35.0976,-1.14209
-497,225,-34.9434,0.941101,-0.00694051,0.00310074,0.00534959,0.00541665,-0.00925642,1.16224,0.00856764,0.0426207,727,799,-34.9434,-0.94113
-490,225,-35.1329,1.17346,-0.00845614,0.00537709,0.00417353,0.00653872,-0.00961777,1.29934,0.00938424,0.0379141,734,799,-35.1328,-1.17346
-483,225,-35.2751,1.03943,-0.0100254,0.00835628,0.00200183,0.00857176,-0.0102409,1.46357,0.0108757,0.0339903,741,799,-35.2752,-1.0394
-476,225,-35.2249,0.990112,-0.0113161,0.0120452,-0.00152481,0.0121443,-0.0114152,-1.50589,0.0136043,0.0326339,748,799,-35.2248,-0.990125
-469,225,-35.2084,0.992188,-0.0115066,0.0155235,-0.00675216,0.0171164,-0.0130994,-1.33913,0.0174964,0.0356788,755,799,-35.2085,-0.992182
-462,225,0,0,0,0,0,0,0,0,0,-1,762,799,0,0
-455,225,0,0,0,0,0,0,0,0,0,-1,769,799,0,0
-448,225,0,0,0,0,0,0,0,0,0,-1,776,799,0,0
-441,225,0,0,0,0,0,0,0,0,0,-1,783,799,0,0
-434,225,0,0,0,0,0,0,0,0,0,-1,790,799,0,0
-427,225,0,0,0,0,0,0,0,0,0,-1,797,799,0,0
-420,225,0,0,0,0,0,0,0,0,0,-1,804,799,0,0
-413,225,0,0,0,0,0,0,0,0,0,-1,811,799,0,0
-406,225,0,0,0,0,0,0,0,0,0,-1,818,799,0,0
-399,225,0,0,0,0,0,0,0,0,0,-1,825,799,0,0
-392,225,0,0,0,0,0,0,0,0,0,-1,832,799,0,0
-385,225,0,0,0,0,0,0,0,0,0,-1,839,799,0,0
-378,225,0,0,0,0,0,0,0,0,0,-1,846,799,0,0
-371,225,0,0,0,0,0,0,0,0,0,-1,853,799,0,0
-364,225,0,0,0,0,0,0,0,0,0,-1,860,799,0,0
-357,225,0,0,0,0,0,0,0,0,0,-1,867,799,0,0
-350,225,0,0,0,0,0,0,0,0,0,-1,874,799,0,0
-343,225,0,0,0,0,0,0,0,0,0,-1,881,799,0,0
-336,225,0,0,0,0,0,0,0,0,0,-1,888,799,0,0
-329,225,0,0,0,0,0,0,0,0,0,-1,895,799,0,0
-322,225,0,0,0,0,0,0,0,0,0,-1,902,799,0,0
-315,225,0,0,0,0,0,0,0,0,0,-1,909,799,0,0
-308,225,0,0,0,0,0,0,0,0,0,-1,916,799,0,0
-301,225,0,0,0,0,0,0,0,0,0,-1,923,799,0,0
-294,225,0,0,0,0,0,0,0,0,0,-1,930,799,0,0
-287,225,0,0,0,0,0,0,0,0,0,-1,937,799,0,0
-280,225,0,0,0,0,0,0,0,0,0,-1,944,799,0,0
-273,225,0,0,0,0,0,0,0,0,0,-1,951,799,0,0
-266,225,0,0,0,0,0,0,0,0,0,-1,958,799,0,0
-259,225,0,0,0,0,0,0,0,0,0,-1,965,799,0,0
-252,225,0,0,0,0,0,0,0,0,0,-1,972,799,0,0
-245,225,0,0,0,0,0,0,0,0,0,-1,979,799,0,0
-238,225,0,0,0,0,0,0,0,0,0,-1,986,799,0,0
-231,225,0,0,0,0,0,0,0,0,0,-1,993,799,0,0
-224,225,0,0,0,0,0,0,0,0,0,-1,1000,799,0,0
-217,225,0,0,0,0,0,0,0,0,0,-1,1007,799,0,0
-210,225,0,0,0,0,0,0,0,0,0,-1,1014,799,0,0
-203,225,0,0,0,0,0,0,0,0,0,-1,1021,799,0,0
-196,225,0,0,0,0,0,0,0,0,0,-1,1028,799,0,0
-189,225,0,0,0,0,0,0,0,0,0,-1,1035,799,0,0
-182,225,0,0,0,0,0,0,0,0,0,-1,1042,799,0,0
-175,225,0,0,0,0,0,0,0,0,0,-1,1049,799,0,0
-168,225,0,0,0,0,0,0,0,0,0,-1,1056,799,0,0
-161,225,0,0,0,0,0,0,0,0,0,-1,1063,799,0,0
-154,225,0,0,0,0,0,0,0,0,0,-1,1070,799,0,0
-147,225,0,0,0,0,0,0,0,0,0,-1,1077,799,0,0
-140,225,0,0,0,0,0,0,0,0,0,-1,1084,799,0,0
-133,225,0,0,0,0,0,0,0,0,0,-1,1091,799,0,0
-126,225,0,0,0,0,0,0,0,0,0,-1,1098,799,0,0
-119,225,0,0,0,0,0,0,0,0,0,-1,1105,799,0,0
-112,225,0,0,0,0,0,0,0,0,0,-1,1112,799,0,0
-105,225,0,0,0,0,0,0,0,0,0,-1,1119,799,0,0
-98,225,0,0,0,0,0,0,0,0,0,-1,1126,799,0,0
-91,225,0,0,0,0,0,0,0,0,0,-1,1133,799,0,0
-84,225,0,0,0,0,0,0,0,0,0,-1,1140,799,0,0
-77,225,0,0,0,0,0,0,0,0,0,-1,1147,799,0,0
-70,225,0,0,0,0,0,0,0,0,0,-1,1154,799,0,0
-63,225,0,0,0,0,0,0,0,0,0,-1,1161,799,0,0
-56,225,0,0,0,0,0,0,0,0,0,-1,1168,799,0,0
-49,225,0,0,0,0,0,0,0,0,0,-1,1175,799,0,0
-42,225,0,0,0,0,0,0,0,0,0,-1,1182,799,0,0
-35,225,0,0,0,0,0,0,0,0,0,-1,1189,799,0,0
-28,225,0,0,0,0,0,0,0,0,0,-1,1196,799,0,0
-21,225,0,0,0,0,0,0,0,0,0,-1,1203,799,0,0
-14,225,0,0,0,0,0,0,0,0,0,-1,1210,799,0,0
-7,225,0,0,0,0,0,0,0,0,0,-1,1217,799,0,0
0,225,0,0,0,0,0,0,0,0,0,-1,1224,799,0,0
7,225,0,0,0,0,0,0,0,0,0,-1,1231,799,0,0
14,225,0,0,0,0,0,0,0,0,0,-1,1238,799,0,0
21,225,0,0,0,0,0,0,0,0,0,-1,1245,799,0,0
28,225,0,0,0,0,0,0,0,0,0,-1,1252,799,0,0
35,225,0,0,0,0,0,0,0,0,0,-1,1259,799,0,0
42,225,0,0,0,0,0,0,0,0,0,-1,1266,799,0,0
49,225,0,0,0,0,0,0,0,0,0,-1,1273,799,0,0
56,225,0,0,0,0,0,0,0,0,0,-1,1280,799,0,0
63,225,0,0,0,0,0,0,0,0,0,-1,1287,799,0,0
70,225,0,0,0,0,0,0,0,0,0,-1,1294,799,0,0
77,225,0,0,0,0,0,0,0,0,0,-1,1301,799,0,0
84,225,0,0,0,0,0,0,0,0,0,-1,1308,799,0,0
91,225,0,0,0,0,0,0,0,0,0,-1,1315,799,0,0
98,225,0,0,0,0,0,0,0,0,0,-1,1322,799,0,0
105,225,0,0,0,0,0,0,0,0,0,-1,1329,799,0,0
112,225,0,0,0,0,0,0,0,0,0,-1,1336,799,0,0
119,225,0,0,0,0,0,0,0,0,0,-1,1343,799,0,0
126,225,0,0,0,0,0,0,0,0,0,-1,1350,799,0,0
133,225,0,0,0,0,0,0,0,0,0,-1,1357,799,0,0
140,225,0,0,0,0,0,0,0,0,0,-1,1364,799,0,0
147,225,0,0,0,0,0,0,0,0,0,-1,1371,799,0,0
154,225,0,0,0,0,0,0,0,0,0,-1,1378,799,0,0
161,225,0,0,0,0,0,0,0,0,0,-1,1385,799,0,0
168,225,0,0,0,0,0,0,0,0,0,-1,1392,799,0,0
175,225,0,0,0,0,0,0,0,0,0,-1,1399,799,0,0
182,225,0,0,0,0,0,0,0,0,0,-1,1406,799,0,0
189,225,0,0,0,0,0,0,0,0,0,-1,1413,799,0,0
196,225,0,0,0,0,0,0,0,0,0,-1,1420,799,0,0
203,225,0,0,0,0,0,0,0,0,0,-1,1427,799,0,0
210,225,0,0,0,0,0,0,0,0,0,-1,1434,799,0,0
217,225,0,0,0,0,0,0,0,0,0,-1,1441,799,0,0
224,225,0,0,0,0,0,0,0,0,0,-1,1448,799,0,0
231,225,0,0,0,0,0,0,0,0,0,-1,1455,799,0,0
238,225,0,0,0,0,0,0,0,0,0,-1,1462,799,0,0
245,225,0,0,0,0,0,0,0,0,0,-1,1469,799,0,0
252,225,0,0,0,0,0,0,0,0,0,-1,1476,799,0,0
259,225,0,0,0,0,0,0,0,0,0,-1,1483,799,0,0
266,225,0,0,0,0,0,0,0,0,0,-1,1490,799,0,0
273,225,0,0,0,0,0,0,0,0,0,-1,1497,799,0,0
280,225,0,0,0,0,0,0,0,0,0,-1,1504,799,0,0
287,225,0,0,0,0,0,0,0,0,0,-1,1511,799,0,0
294,225,0,0,0,0,0,0,0,0,0,-1,1518,799,0,0
301,225,0,0,0,0,0,0,0,0,0,-1,1525,799,0,0
308,225,0,0,0,0,0,0,0,0,0,-1,1532,799,0,0
315,225,0,0,0,0,0,0,0,0,0,-1,1539,799,0,0
322,225,0,0,0,0,0,0,0,0,0,-1,1546,799,0,0
329,225,0,0,0,0,0,0,0,0,0,-1,1553,799,0,0
336,225,0,0,0,0,0,0,0,0,0,-1,1560,799,0,0
343,225,0,0,0,0,0,0,0,0,0,-1,1567,799,0,0
350,225,0,0,0,0,0,0,0,0,0,-1,1574,799,0,0
357,225,0,0,0,0,0,0,0,0,0,-1,1581,799,0,0
364,225,0,0,0,0,0,0,0,0,0,-1,1588,799,0,0
371,225,0,0,0,0,0,0,0,0,0,-1,1595,799,0,0
378,225,0,0,0,0,0,0,0,0,0,-1,1602,799,0,0
385,225,0,0,0,0,0,0,0,0,0,-1,1609,799,0,0
392,225,0,0,0,0,0,0,0,0,0,-1,1616,799,0,0
399,225,0,0,0,0,0,0,0,0,0,-1,1623,799,0,0
406,225,0,0,0,0,0,0,0,0,0,-1,1630,799,0,0
413,225,0,0,0,0,0,0,0,0,0,-1,1637,799,0,0
420,225,0,0,0,0,0,0,0,0,0,-1,1644,799,0,0
427,225,0,0,0,0,0,0,0,0,0,-1,1651,799,0,0
434,225,0,0,0,0,0,0,0,0,0,-1,1658,799,0,0
441,225,0,0,0,0,0,0,0,0,0,-1,1665,799,0,0
448,225,0,0,0,0,0,0,0,0,0,-1,1672,799,0,0
455,225,0,0,0,0,0,0,0,0,0,-1,1679,799,0,0
462,225,0,0,0,0,0,0,0,0,0,-1,1686,799,0,0
469,225,0,0,0,0,0,0,0,0,0,-1,1693,799,0,0
476,225,0,0,0,0,0,0,0,0,0,-1,1700,799,0,0
483,225,0,0,0,0,0,0,0,0,0,-1,1707,799,0,0
490,225,0,0,0,0,0,0,0,0,0,-1,1714,799,0,0
497,225,0,0,0,0,0,0,0,0,0,-1,1721,799,0,0
504,225,0,0,0,0,0,0,0,0,0,-1,1728,799,0,0
511,225,0,0,0,0,0,0,0,0,0,-1,1735,799,0,0
518,225,0,0,0,0,0,0,0,0,0,-1,1742,799,0,0
525,225,0,0,0,0,0,0,0,0,0,-1,1749,799,0,0
532,225,0,0,0,0,0,0,0,0,0,-1,1756,799,0,0
539,225,0,0,0,0,0,0,0,0,0,-1,1763,799,0,0
546,225,0,0,0,0,0,0,0,0,0,-1,1770,799,0,0
553,225,0,0,0,0,0,0,0,0,0,-1,1777,799,0,0
560,225,0,0,0,0,0,0,0,0,0,-1,1784,799,0,0
567,225,0,0,0,0,0,0,0,0,0,-1,1791,799,0,0
574,225,0,0,0,0,0,0,0,0,0,-1,1798,799,0,0
581,225,0,0,0,0,0,0,0,0,0,-1,1805,799,0,0
588,225,46.8408,2.6676,0.00101229,0.00118895,0.0022353,0.00333766,-0.00113642,0.805145,0.0026853,0.0371507,1812,799,46.8409,-2.66759
595,225,46.927,2.66364,0.00205092,0.00477654,0.004201,0.00783025,-0.00100279,0.942243,0.00558452,0.0369497,1819,799,46.927,-2.66365
602,225,46.8663,2.67834,0.00267058,0.00676947,0.00518342,0.0102939,-0.000853845,0.973659,0.00716419,0.0370933,1826,799,46.8664,-2.67835
609,225,46.9181,2.65936,0.00296376,0.00747478,0.0054557,0.0111228,-0.000684286,0.98141,0.00765352,0.0354267,1833,799,46.9181,-2.65939
616,225,46.8759,2.78644,0.00276245,0.00704513,0.00511536,0.0104493,-0.00064168,0.983621,0.00718962,0.038418,1840,799,46.8758,-2.78644
623,225,46.9092,2.99554,0.00222425,0.00611295,0.00435751,0.00894022,-0.000603027,0.995246,0.00617098,0.0402973,1847,799,46.9092,-2.99553
630,225,47.1936,2.98297,0.00175666,0.00518089,0.00355742,0.00741676,-0.00047921,1.00968,0.00511174,0.042737,1854,799,47.1936,-2.98299
637,225,46.9852,2.82965,0,0,0,0,0,0,0,-1,1861,799,46.9852,-2.82967
644,225,42.0298,2.46411,0,0,0,0,0,0,0,-1,1868,799,42.0298,-2.4641
651,225,27.9657,0.579529,0,0,0,0,0,0,0,-1,1875,799,27.9657,-0.579541
658,225,34.6892,-0.602661,0,0,0,0,0,0,0,-1,1882,799,34.6892,0.602673
665,225,34.2422,-0.222473,-0.000233323,0.00135188,0.000454931,0.00147316,-0.000354603,1.31027,0.00111919,0.0268391,1889,799,34.2422,0.222453
672,225,34.017,0.281738,-0.000524612,0.000694824,-0.000252253,0.000744945,-0.000574733,-1.37466,0.000764026,0.0246973,1896,799,34.017,-0.281747
679,225,33.9985,0.800171,-0.00109359,-0.000109796,-0.000764034,0.000306994,-0.00151038,-1.0714,0.00112332,0.01935,1903,799,33.9986,-0.800176
686,225,33.9882,1.29803,-0.00130323,-0.00027011,-0.000917533,0.00026628,-0.00183962,-1.04178,0.00132413,0.0114582,1910,799,33.9881,-1.29802
693,225,33.9602,1.81641,-0.000687685,0.000159913,-0.000509688,0.000398977,-0.000926748,-1.13222,0.000785365,0.0100724,1917,799,33.9603,-1.81638
700,225,33.9489,2.36328,0.000280075,0.00127958,0.000401831,0.00142109,0.000138562,1.23219,0.00090475,0.0117147,1924,799,33.9488,-2.36325
707,225,33.9246,2.90222,0.00155623,0.00295681,0.00168083,0.0040774,0.000435648,0.98278,0.00258531,0.0123073,1931,799,33.9246,-2.9022
714,225,33.918,3.4436,0.00289199,0.00500674,0.00329885,0.00741354,0.000485195,0.940489,0.00478883,0.0132262,1938,799,33.918,-3.44358
721,225,33.9261,4.00153,0.00424125,0.00766089,0.00532011,0.0115392,0.000362951,0.940879,0.00757471,0.0163349,1945,799,33.9261,-4.00155
728,225,33.8337,4.36115,0.00547174,0.0111218,0.00773707,0.0165334,6.00675e-05,0.960442,0.0110023,0.0323423,1952,799,33.8337,-4.36117
735,225,34.1583,5.3634,0,0,0,0,0,0,0,-1,1959,799,34.1583,-5.36343
742,225,29.0922,3.2132,0,0,0,0,0,0,0,-1,1966,799,29.0921,-3.21322
749,225,29.9529,4.45538,0,0,0,0,0,0,0,-1,1973,799,29.9529,-4.45537
756,225,31.8855,3.83466,0,0,0,0,0,0,0,-1,1980,799,31.8855,-3.83463
763,225,28.3649,5.54443,0,0,0,0,0,0,0,-1,1987,799,28.3649,-5.54444
770,225,0,0,0,0,0,0,0,0,0,-1,1994,799,0,0
777,225,0,0,0,0,0,0,0,0,0,-1,2001,799,0,0
784,225,0,0,0,0,0,0,0,0,0,-1,2008,799,0,0
791,225,0,0,0,0,0,0,0,0,0,-1,2015,799,0,0
798,225,0,0,0,0,0,0,0,0,0,-1,2022,799,0,0
805,225,0,0,0,0,0,0,0,0,0,-1,2029,799,0,0
812,225,0,0,0,0,0,0,0,0,0,-1,2036,799,0,0
-700,218,0,0,0,0,0,0,0,0,0,-1,524,806,0,0
-693,218,0,0,0,0,0,0,0,0,0,-1,531,806,0,0
-686,218,0,0,0,0,0,0,0,0,0,-1,538,806,0,0
-679,218,0,0,0,0,0,0,0,0,0,-1,545,806,0,0
-672,218,0,0,0,0,0,0,0,0,0,-1,552,806,0,0
-665,218,0,0,0,0,0,0,0,0,0,-1,559,806,0,0
-658,218,0,0,0,0,0,0,0,0,0,-1,566,806,0,0
-651,218,-26.2643,2.93054,0,0,0,0,0,0,0,-1,573,806,-26.2643,-2.93053
-644,218,-28.7305,4.12079,0,0,0,0,0,0,0,-1,580,806,-28.7305,-4.12076
-637,218,-29.3349,3.56067,0,0,0,0,0,0,0,-1,587,806,-29.3349,-3.56068
-630,218,-29.7347,3.06238,0,0,0,0,0,0,0,-1,594,806,-29.7347,-3.06238
-623,218,-29.4469,4.34161,0,0,0,0,0,0,0,-1,601,806,-29.4469,-4.34164
-616,218,-20.0258,1.87585,0,0,0,0,0,0,0,-1,608,806,-20.0258,-1.87585
-609,218,-24.2418,2.96906,0,0,0,0,0,0,0,-1,615,806,-24.2418,-2.96904
-602,218,-24.2047,2.42896,0.00909804,0.00551544,-0.00234863,0.0102605,0.00435296,-0.459608,0.00594654,0.0394,622,806,-24.2047,-2.42897
-595,218,-24.1362,1.90192,0.00717654,0.00477613,-0.00213425,0.0084249,0.00352776,-0.529258,0.00488549,0.0175253,629,806,-24.1362,-1.90189
-588,218,-24.1014,1.3725,0.00527055,0.00340123,-0.00158718,0.00617782,0.00249396,-0.519296,0.00358875,0.0111983,636,806,-24.1014,-1.37248
-581,218,-24.1074,0.891418,0.00360643,0.00230978,-0.000974521,0.00412858,0.00178763,-0.491879,0.00239076,0.0107408,643,806,-24.1074,-0.89139
-574,218,-24.1248,0.393127,0.00204369,0.00110287,-0.000257351,0.00210949,0.00103708,-0.250299,0.00121797,0.0107416,650,806,-24.1248,-0.393129
-567,218,-24.1143,-0.148865,0.000701802,8.41928e-06,0.00057284,0.00102469,-0.000314472,0.513276,0.0008086,0.0184423,657,806,-24.1142,0.148866
-560,218,-24.1238,-0.641418,-0.000303891,-0.000816515,0.00140133,0.000864371,-0.00198478,0.694945,0.00168682,0.0187626,664,806,-24.1238,0.641409
-553,218,-24.0853,-1.255,-0.000769725,-0.00118169,0.00219674,0.00123066,-0.00318208,0.738651,0.00262943,0.0189158,671,806,-24.0853,1.255
-546,218,-24.2299,-1.8952,-0.00131203,-0.00178932,0.00353763,0.00199499,-0.00509635,0.751719,0.00422269,0.0210568,678,806,-24.2299,1.8952
-539,218,-24.2705,-2.3985,-0.00162282,-0.00177349,0.00445878,0.00276126,-0.00615757,0.776951,0.00527227,0.0338569,685,806,-24.2705,2.39848
-532,218,-24.3618,-2.62286,-0.00198714,-0.00136078,0.00496255,0.00329846,-0.00664638,0.816911,0.00584911,0.0439387,692,806,-24.3618,2.62284
-525,218,-24.774,-2.75079,0,0,0,0,0,0,0,-1,699,806,-24.774,2.75079
-518,218,-23.61,2.54181,0,0,0,0,0,0,0,-1,706,806,-23.61,-2.54183
-511,218,-35.4604,0.833984,0,0,0,0,0,0,0,-1,713,806,-35.4605,-0.833972
-504,218,-35.1685,1.05737,-0.00448236,0.00158119,0.0057967,0.00509108,-0.00799224,1.02634,0.00761531,0.0445845,720,806,-35.1685,-1.05737
-497,218,-35.0015,1.28546,-0.00534029,0.00297614,0.00539809,0.00563189,-0.00799604,1.11359,0.00790745,0.044769,727,806,-35.0015,-1.28547
-490,218,-35.1584,1.08069,-0.00643834,0.00498831,0.00418664,0.00635807,-0.00780809,1.2546,0.00819311,0.033827,734,806,-35.1584,-1.08068
-483,218,-35.2166,1.00531,-0.00735707,0.00758253,0.00171696,0.00777732,-0.00755185,1.45783,0.00885062,0.0334164,741,806,-35.2165,-1.0053
-476,218,-35.1566,1.0163,-0.00761772,0.0106513,-0.00256768,0.0110054,-0.00797175,-1.43378,0.011003,0.0361192,748,806,-35.1566,-1.01632
-469,218,0,0,0,0,0,0,0,0,0,-1,755,806,0,0
-462,218,0,0,0,0,0,0,0,0,0,-1,762,806,0,0
-455,218,0,0,0,0,0,0,0,0,0,-1,769,806,0,0
-448,218,0,0,0,0,0,0,0,0,0,-1,776,806,0,0
-441,218,0,0,0,0,0,0,0,0,0,-1,783,806,0,0
-434,218,0,0,0,0,0,0,0,0,0,-1,790,806,0,0
-427,218,0,0,0,0,0,0,0,0,0,-1,797,806,0,0
-420,218,0,0,0,0,0,0,0,0,0,-1,804,806,0,0
-413,218,0,0,0,0,0,0,0,0,0,-1,811,806,0,0
-406,218,0,0,0,0,0,0,0,0,0,-1,818,806,0,0
-399,218,0,0,0,0,0,0,0,0,0,-1,825,806,0,0
-392,218,0,0,0,0,0,0,0,0,0,-1,832,806,0,0
-385,218,0,0,0,0,0,0,0,0,0,-1,839,806,0,0
-378,218,0,0,0,0,0,0,0,0,0,-1,846,806,0,0
-371,218,0,0,0,0,0,0,0,0,0,-1,853,806,0,0
-364,218,0,0,0,0,0,0,0,0,0,-1,860,806,0,0
-357,218,0,0,0,0,0,0,0,0,0,-1,867,806,0,0
-350,218,0,0,0,0,0,0,0,0,0,-1,874,806,0,0
-343,218,0,0,0,0,0,0,0,0,0,-1,881,806,0,0
-336,218,0,0,0,0,0,0,0,0,0,-1,888,806,0,0
-329,218,0,0,0,0,0,0,0,0,0,-1,895,806,0,0
-322,218,0,0,0,0,0,0,0,0,0,-1,902,806,0,0
-315,218,0,0,0,0,0,0,0,0,0,-1,909,806,0,0
-308,218,0,0,0,0,0,0,0,0,0,-1,916,806,0,0
-301,218,0,0,0,0,0,0,0,0,0,-1,923,806,0,0
-294,218,0,0,0,0,0,0,0,0,0,-1,930,806,0,0
-287,218,0,0,0,0,0,0,0,0,0,-1,937,806,0,0
-280,218,0,0,0,0,0,0,0,0,0,-1,944,806,0,0
-273,218,0,0,0,0,0,0,0,0,0,-1,951,806,0,0
-266,218,0,0,0,0,0,0,0,0,0,-1,958,806,0,0
-259,218,0,0,0,0,0,0,0,0,0,-1,965,806,0,0
-252,218,0,0,0,0,0,0,0,0,0,-1,972,806,0,0
-245,218,0,0,0,0,0,0,0,0,0,-1,979,806,0,0
-238,218,0,0,0,0,0,0,0,0,0,-1,986,806,0,0
-231,218,0,0,0,0,0,0,0,0,0,-1,993,806,0,0
-224,218,0,0,0,0,0,0,0,0,0,-1,1000,806,0,0
-217,218,0,0,0,0,0,0,0,0,0,-1,1007,806,0,0
-210,218,0,0,0,0,0,0,0,0,0,-1,1014,806,0,0
-203,218,0,0,0,0,0,0,0,0,0,-1,1021,806,0,0
-196,218,0,0,0,0,0,0,0,0,0,-1,1028,806,0,0
-189,218,0,0,0,0,0,0,0,0,0,-1,1035,806,0,0
-182,218,0,0,0,0,0,0,0,0,0,-1,1042,806,0,0
-175,218,0,0,0,0,0,0,0,0,0,-1,1049,806,0,0
-168,218,0,0,0,0,0,0,0,0,0,-1,1056,806,0,0
-161,218,0,0,0,0,0,0,0,0,0,-1,1063,806,0,0
-154,218,0,0,0,0,0,0,0,0,0,-1,1070,806,0,0
-147,218,0,0,0,0,0,0,0,0,0,-1,1077,806,0,0
-140,218,0,0,0,0,0,0,0,0,0,-1,1084,806,0,0
-133,218,0,0,0,0,0,0,0,0,0,-1,1091,806,0,0
-126,218,0,0,0,0,0,0,0,0,0,-1,1098,806,0,0
-119,218,0,0,0,0,0,0,0,0,0,-1,1105,806,0,0
-112,218,0,0,0,0,0,0,0,0,0,-1,1112,806,0,0
-105,218,0,0,0,0,0,0,0,0,0,-1,1119,806,0,0
-98,218,0,0,0,0,0,0,0,0,0,-1,1126,806,0,0
-91,218,0,0,0,0,0,0,0,0,0,-1,1133,806,0,0
-84,218,0,0,0,0,0,0,0,0,0,-1,1140,806,0,0
-77,218,0,0,0,0,0,0,0,0,0,-1,1147,806,0,0
-70,218,0,0,0,0,0,0,0,0,0,-1,1154,806,0,0
-63,218,0,0,0,0,0,0,0,0,0,-1,1161,806,0,0
-56,218,0,0,0,0,0,0,0,0,0,-1,1168,806,0,0
-49,218,0,0,0,0,0,0,0,0,0,-1,1175,806,0,0
-42,218,0,0,0,0,0,0,0,0,0,-1,1182,806,0,0
-35,218,0,0,0,0,0,0,0,0,0,-1,1189,806,0,0
-28,218,0,0,0,0,0,0,0,0,0,-1,1196,806,0,0
-21,218,0,0,0,0,0,0,0,0,0,-1,1203,806,0,0
-14,218,0,0,0,0,0,0,0,0,0,-1,1210,806,0,0
-7,218,0,0,0,0,0,0,0,0,0,-1,1217,806,0,0
0,218,0,0,0,0,0,0,0,0,0,-1,1224,806,0,0
7,218,0,0,0,0,0,0,0,0,0,-1,1231,806,0,0
14,218,0,0,0,0,0,0,0,0,0,-1,1238,806,0,0
21,218,0,0,0,0,0,0,0,0,0,-1,1245,806,0,0
28,218,0,0,0,0,0,0,0,0,0,-1,1252,806,0,0
35,218,0,0,0,0,0,0,0,0,0,-1,1259,806,0,0
42,218,0,0,0,0,0,0,0,0,0,-1,1266,806,0,0
49,218,0,0,0,0,0,0,0,0,0,-1,1273,806,0,0
56,218,0,0,0,0,0,0,0,0,0,-1,1280,806,0,0
63,218,0,0,0,0,0,0,0,0,0,-1,1287,806,0,0
70,218,0,0,0,0,0,0,0,0,0,-1,1294,806,0,0
77,218,0,0,0,0,0,0,0,0,0,-1,1301,806,0,0
84,218,0,0,0,0,0,0,0,0,0,-1,1308,806,0,0
91,218,0,0,0,0,0,0,0,0,0,-1,1315,806,0,0
98,218,0,0,0,0,0,0,0,0,0,-1,1322,806,0,0
105,218,0,0,0,0,0,0,0,0,0,-1,1329,806,0,0
112,218,0,0,0,0,0,0,0,0,0,-1,1336,806,0,0
119,218,0,0,0,0,0,0,0,0,0,-1,1343,806,0,0
126,218,0,0,0,0,0,0,0,0,0,-1,1350,806,0,0
133,218,0,0,0,0,0,0,0,0,0,-1,1357,806,0,0
140,218,0,0,0,0,0,0,0,0,0,-1,1364,806,0,0
147,218,0,0,0,0,0,0,0,0,0,-1,1371,806,0,0
154,218,0,0,0,0,0,0,0,0,0,-1,1378,806,0,0
161,218,0,0,0,0,0,0,0,0,0,-1,1385,806,0,0
168,218,0,0,0,0,0,0,0,0,0,-1,1392,806,0,0
175,218,0,0,0,0,0,0,0,0,0,-1,1399,806,0,0
182,218,0,0,0,0,0,0,0,0,0,-1,1406,806,0,0
189,218,0,0,0,0,0,0,0,0,0,-1,1413,806,0,0
196,218,0,0,0,0,0,0,0,0,0,-1,1420,806,0,0
203,218,0,0,0,0,0,0,0,0,0,-1,1427,806,0,0
210,218,0,0,0,0,0,0,0,0,0,-1,1434,806,0,0
217,218,0,0,0,0,0,0,0,0,0,-1,1441,806,0,0
224,218,0,0,0,0,0,0,0,0,0,-1,1448,806,0,0
231,218,0,0,0,0,0,0,0,0,0,-1,1455,806,0,0
238,218,0,0,0,0,0,0,0,0,0,-1,1462,806,0,0
245,218,0,0,0,0,0,0,0,0,0,-1,1469,806,0,0
252,218,0,0,0,0,0,0,0,0,0,-1,1476,806,0,0
259,218,0,0,0,0,0,0,0,0,0,-1,1483,806,0,0
266,218,0,0,0,0,0,0,0,0,0,-1,1490,806,0,0
273,218,0,0,0,0,0,0,0,0,0,-1,1497,806,0,0
280,218,0,0,0,0,0,0,0,0,0,-1,1504,806,0,0
287,218,0,0,0,0,0,0,0,0,0,-1,1511,806,0,0
294,218,0,0,0,0,0,0,0,0,0,-1,1518,806,0,0
301,218,0,0,0,0,0,0,0,0,0,-1,1525,806,0,0
308,218,0,0,0,0,0,0,0,0,0,-1,1532,806,0,0
315,218,0,0,0,0,0,0,0,0,0,-1,1539,806,0,0
322,218,0,0,0,0,0,0,0,0,0,-1,1546,806,0,0
329,218,0,0,0,0,0,0,0,0,0,-1,1553,806,0,0
336,218,0,0,0,0,0,0,0,0,0,-1,1560,806,0,0
343,218,0,0,0,0,0,0,0,0,0,-1,1567,806,0,0
350,218,0,0,0,0,0,0,0,0,0,-1,1574,806,0,0
357,218,0,0,0,0,0,0,0,0,0,-1,1581,806,0,0
364,218,0,0,0,0,0,0,0,0,0,-1,1588,806,0,0
371,218,0,0,0,0,0,0,0,0,0,-1,1595,806,0,0
378,218,0,0,0,0,0,0,0,0,0,-1,1602,806,0,0
385,218,0,0,0,0,0,0,0,0,0,-1,1609,806,0,0
392,218,0,0,0,0,0,0,0,0,0,-1,1616,806,0,0
399,218,0,0,0,0,0,0,0,0,0,-1,1623,806,0,0
406,218,0,0,0,0,0,0,0,0,0,-1,1630,806,0,0
413,218,0,0,0,0,0,0,0,0,0,-1,1637,806,0,0
420,218,0,0,0,0,0,0,0,0,0,-1,1644,806,0,0
427,218,0,0,0,0,0,0,0,0,0,-1,1651,806,0,0
434,218,0,0,0,0,0,0,0,0,0,-1,1658,806,0,0
441,218,0,0,0,0,0,0,0,0,0,-1,1665,806,0,0
448,218,0,0,0,0,0,0,0,0,0,-1,1672,806,0,0
455,218,0,0,0,0,0,0,0,0,0,-1,1679,806,0,0
462,218,0,0,0,0,0,0,0,0,0,-1,1686,806,0,0
469,218,0,0,0,0,0,0,0,0,0,-1,1693,806,0,0
476,218,0,0,0,0,0,0,0,0,0,-1,1700,806,0,0
483,218,0,0,0,0,0,0,0,0,0,-1,1707,806,0,0
490,218,0,0,0,0,0,0,0,0,0,-1,1714,806,0,0
497,218,0,0,0,0,0,0,0,0,0,-1,1721,806,0,0
504,218,0,0,0,0,0,0,0,0,0,-1,1728,806,0,0
511,218,0,0,0,0,0,0,0,0,0,-1,1735,806,0,0
518,218,0,0,0,0,0,0,0,0,0,-1,1742,806,0,0
525,218,0,0,0,0,0,0,0,0,0,-1,1749,806,0,0
532,218,0,0,0,0,0,0,0,0,0,-1,1756,806,0,0
539,218,0,0,0,0,0,0,0,0,0,-1,1763,806,0,0
546,218,0,0,0,0,0,0,0,0,0,-1,1770,806,0,0
553,218,0,0,0,0,0,0,0,0,0,-1,1777,806,0,0
560,218,0,0,0,0,0,0,0,0,0,-1,1784,806,0,0
567,218,0,0,0,0,0,0,0,0,0,-1,1791,806,0,0
574,218,0,0,0,0,0,0,0,0,0,-1,1798,806,0,0
581,218,0,0,0,0,0,0,0,0,0,-1,1805,806,0,0
588,218,0,0,0,0,0,0,0,0,0,-1,1812,806,0,0
595,218,46.9603,2.59955,0.000189978,0.00200713,0.00143445,0.00279654,-0.000599434,1.06771,0.00209298,0.038552,1819,806,46.9603,-2.59954
602,218,46.9059,2.53729,0.00132249,0.00473762,0.00311279,0.00658044,-0.000520329,1.03627,0.00457028,0.0355309,1826,806,46.9059,-2.53728
609,218,46.8699,2.60272,0.00214424,0.00630176,0.0041205,0.00883816,-0.000392164,1.01902,0.00602708,0.0310741,1833,806,46.8699,-2.60269
616,218,46.8363,2.73334,0.00240167,0.00653068,0.00436667,0.00929628,-0.000363935,1.00622,0.00632233,0.0302545,1840,806,46.8363,-2.73334
623,218,46.8711,2.81891,0.00206306,0.00588328,0.00389892,0.00831484,-0.000368495,1.01317,0.00567005,0.0333208,1847,806,46.8711,-2.81889
630,218,47.0022,2.83868,0.00161559,0.00510708,0.00324105,0.00704265,-0.000319968,1.03244,0.00480531,0.0376406,1854,806,47.0022,-2.83871
637,218,46.892,2.77246,0.00107013,0.00433929,0.00255762,0.00574005,-0.000330634,1.06974,0.00394154,0.0420353,1861,806,46.8919,-2.77249
644,218,46.8094,2.6839,0,0,0,0,0,0,0,-1,1868,806,46.8095,-2.68388
651,218,41.7338,1.99164,0,0,0,0,0,0,0,-1,1875,806,41.7338,-1.99162
658,218,28.41,0.514954,0,0,0,0,0,0,0,-1,1882,806,28.41,-0.514983
665,218,35.0562,0.06073,0,0,0,0,0,0,0,-1,1889,806,35.0561,-0.0607034
672,218,34.7476,0.346375,-0.000603669,0.000862155,-0.000226207,0.00089627,-0.000637784,-1.42111,0.000889867,0.0217409,1896,806,34.7475,-0.346346
679,218,34.6221,0.834412,-0.00127413,3.56723e-05,-0.000751212,0.000377372,-0.00161583,-1.1439,0.00122258,0.0178256,1903,806,34.6221,-0.834396
686,218,34.564,1.28796,-0.00169286,-0.000282413,-0.00107178,0.00029535,-0.00227062,-1.07638,0.00162119,0.0127826,1910,806,34.564,-1.28798
693,218,34.5293,1.83221,-0.00129905,-3.31634e-05,-0.000826678,0.000375053,-0.00170726,-1.11212,0.00128162,0.0114926,1917,806,34.5293,-1.83222
700,218,34.4924,2.37024,-0.000497837,0.000915804,-7.36039e-05,0.000919626,-0.000501659,-1.51892,0.000832322,0.00958369,1924,806,34.4924,-2.37023
707,218,34.4651,2.89941,0.000707825,0.00249673,0.00109577,0.00301676,0.000187793,1.12769,0.00195159,0.00806693,1931,806,34.4651,-2.89941
714,218,34.4618,3.43921,0.00198341,0.00451076,0.00260839,0.00614546,0.000348706,1.01097,0.00398583,0.0106125,1938,806,34.4618,-3.43918
721,218,34.4628,3.97552,0.00330174,0.00712624,0.00448816,0.0100925,0.000335439,0.986784,0.00661938,0.014109,1945,806,34.4627,-3.9755
728,218,34.4403,4.56299,0.00451866,0.0104631,0.00670369,0.0148239,0.000157826,0.994062,0.00983043,0.0248788,1952,806,34.4403,-4.56299
735,218,34.5453,5.30414,0.00570706,0.0149824,0.00949255,0.0209096,-0.000220152,1.01262,0.0140137,0.0436106,1959,806,34.5453,-5.30414
742,218,34.7184,6.09778,0,0,0,0,0,0,0,-1,1966,806,34.7184,-6.09778
749,218,34.6599,7.21771,0,0,0,0,0,0,0,-1,1973,806,34.6599,-7.21769
756,218,34.6073,8.12305,0,0,0,0,0,0,0,-1,1980,806,34.6073,-8.12305
763,218,32.5953,4.72253,0,0,0,0,0,0,0,-1,1987,806,32.5954,-4.72253
770,218,0,0,0,0,0,0,0,0,0,-1,1994,806,0,0
777,218,0,0,0,0,0,0,0,0,0,-1,2001,806,0,0
784,218,0,0,0,0,0,0,0,0,0,-1,2008,806,0,0
791,218,0,0,0,0,0,0,0,0,0,-1,2015,806,0,0
798,218,0,0,0,0,0,0,0,0,0,-1,2022,806,0,0
805,218,0,0,0,0,0,0,0,0,0,-1,2029,806,0,0
812,218,0,0,0,0,0,0,0,0,0,-1,2036,806,0,0
-700,211,0,0,0,0,0,0,0,0,0,-1,524,813,0,0
-693,211,0,0,0,0,0,0,0,0,0,-1,531,813,0,0
-686,211,0,0,0,0,0,0,0,0,0,-1,538,813,0,0
-679,211,0,0,0,0,0,0,0,0,0,-1,545,813,0,0
-672,211,0,0,0,0,0,0,0,0,0,-1,552,813,0,0
-665,211,0,0,0,0,0,0,0,0,0,-1,559,813,0,0
-658,211,0,0,0,0,0,0,0,0,0,-1,566,813,0,0
-651,211,-26.5805,4.03448,0,0,0,0,0,0,0,-1,573,813,-26.5805,-4.03446
-644,211,-25.6163,4.17889,0,0,0,0,0,0,0,-1,580,813,-25.6163,-4.17889
-637,211,-29.3029,4.28766,0,0,0,0,0,0,0,-1,587,813,-29.3029,-4.28766
-630,211,-26.2802,6.70776,0,0,0,0,0,0,0,-1,594,813,-26.2802,-6.70775
-623,211,-26.2827,6.96381,0,0,0,0,0,0,0,-1,601,813,-26.2827,-6.96378
-616,211,-24.381,3.45966,0,0,0,0,0,0,0,-1,608,813,-24.381,-3.45967
-609,211,-24.4465,2.91547,0.00788623,0.00167615,0.000309463,0.00790161,0.00166077,0.0496683,0.00481068,0.0428397,615,813,-24.4465,-2.91546
-602,211,-24.5271,2.39014,0.00688744,0.00375294,-0.000632744,0.00701034,0.00363003,-0.191859,0.00404828,0.0215906,622,813,-24.5271,-2.39016
-595,211,-24.5948,1.90698,0.00553886,0.00354169,-0.000886594,0.00587565,0.0032049,-0.363031,0.00339698,0.010661,629,813,-24.5948,-1.90698
-588,211,-24.6134,1.39569,0.00403704,0.00236458,-0.000610798,0.00423635,0.00216527,-0.315426,0.00244606,0.01027,636,813,-24.6134,-1.39567
-581,211,-24.6312,0.896362,0.00270376,0.00149464,-0.000208845,0.00273882,0.00145959,-0.166307,0.0015824,0.011339,643,813,-24.6313,-0.896358
-574,211,-24.6689,0.400208,0.00142946,0.00048242,0.000289905,0.00151115,0.000400722,0.274684,0.000903969,0.0136369,650,813,-24.6689,-0.400236
-567,211,-24.6487,-0.113831,0.000405101,-0.00036749,0.000978068,0.0010704,-0.00103278,0.597322,0.00121434,0.0205119,657,813,-24.6487,0.113859
-560,211,-24.6686,-0.633301,-0.000272501,-0.000946765,0.00164549,0.00107004,-0.00228931,0.684355,0.00198165,0.0246715,664,813,-24.6686,0.633304
-553,211,-24.5181,-1.20703,-0.000522814,-0.00106518,0.00227367,0.00149579,-0.00308379,0.726043,0.00269649,0.0364067,671,813,-24.5182,1.20703
-546,211,-24.851,-1.60687,-0.000885908,-0.00144248,0.00340615,0.00225331,-0.00458169,0.744638,0.00402179,0.0454483,678,813,-24.851,1.60688
-539,211,-24.8003,-2.16388,-0.00102225,-0.00133362,0.00419824,0.00302319,-0.00537906,0.766865,0.00491419,0.0292748,685,813,-24.8003,2.16387
-532,211,-24.6403,-2.8255,0,0,0,0,0,0,0,-1,692,813,-24.6403,2.82552
-525,211,-14.3009,2.3233,0,0,0,0,0,0,0,-1,699,813,-14.3009,-2.3233
-518,211,-35.3145,0.316711,0,0,0,0,0,0,0,-1,706,813,-35.3144,-0.316705
-511,211,-35.2686,0.647949,0,0,0,0,0,0,0,-1,713,813,-35.2686,-0.64792
-504,211,-35.1545,1.06342,-0.00297971,0.00175648,0.00556663,0.00543778,-0.00666102,0.986507,0.00699714,0.0460601,720,813,-35.1545,-1.06344
-497,211,-35.0209,1.16565,-0.00346784,0.00296268,0.00515438,0.00582241,-0.00632757,1.06426,0.00701681,0.0453501,727,813,-35.0209,-1.16563
-490,211,-35.1437,1.03784,-0.00407032,0.0046892,0.0037658,0.00608556,-0.00546667,1.21571,0.00667287,0.0330727,734,813,-35.1437,-1.03786
-483,211,-35.257,0.991516,-0.00412139,0.00675221,0.000772844,0.00680686,-0.00417604,1.50019,0.00640133,0.0313425,741,813,-35.257,-0.991504
-476,211,-35.3104,1.11926,-0.00309821,0.00880149,-0.00448894,0.0103049,-0.00460164,-1.24762,0.00881378,0.0352915,748,813,-35.3104,-1.11926
-469,211,0,0,0,0,0,0,0,0,0,-1,755,813,0,0
-462,211,0,0,0,0,0,0,0,0,0,-1,762,813,0,0
-455,211,0,0,0,0,0,0,0,0,0,-1,769,813,0,0
-448,211,0,0,0,0,0,0,0,0,0,-1,776,813,0,0
-441,211,0,0,0,0,0,0,0,0,0,-1,783,813,0,0
-434,211,0,0,0,0,0,0,0,0,0,-1,790,813,0,0
-427,211,0,0,0,0,0,0,0,0,0,-1,797,813,0,0
-420,211,0,0,0,0,0,0,0,0,0,-1,804,813,0,0
-413,211,0,0,0,0,0,0,0,0,0,-1,811,813,0,0
-406,211,0,0,0,0,0,0,0,0,0,-1,818,813,0,0
-399,211,0,0,0,0,0,0,0,0,0,-1,825,813,0,0
-392,211,0,0,0,0,0,0,0,0,0,-1,832,813,0,0
-385,211,0,0,0,0,0,0,0,0,0,-1,839,813,0,0
-378,211,0,0,0,0,0,0,0,0,0,-1,846,813,0,0
-371,211,0,0,0,0,0,0,0,0,0,-1,853,813,0,0
-364,211,0,0,0,0,0,0,0,0,0,-1,860,813,0,0
-357,211,0,0,0,0,0,0,0,0,0,-1,867,813,0,0
-350,211,0,0,0,0,0,0,0,0,0,-1,874,813,0,0
-343,211,0,0,0,0,0,0,0,0,0,-1,881,813,0,0
-336,211,0,0,0,0,0,0,0,0,0,-1,888,813,0,0
-329,211,0,0,0,0,0,0,0,0,0,-1,895,813,0,0
-322,211,0,0,0,0,0,0,0,0,0,-1,902,813,0,0
-315,211,0,0,0,0,0,0,0,0,0,-1,909,813,0,0
-308,211,0,0,0,0,0,0,0,0,0,-1,916,813,0,0
-301,211,0,0,0,0,0,0,0,0,0,-1,923,813,0,0
-294,211,0,0,0,0,0,0,0,0,0,-1,930,813,0,0
-287,211,0,0,0,0,0,0,0,0,0,-1,937,813,0,0
-280,211,0,0,0,0,0,0,0,0,0,-1,944,813,0,0
-273,211,0,0,0,0,0,0,0,0,0,-1,951,813,0,0
-266,211,0,0,0,0,0,0,0,0,0,-1,958,813,0,0
-259,211,0,0,0,0,0,0,0,0,0,-1,965,813,0,0
-252,211,0,0,0,0,0,0,0,0,0,-1,972,813,0,0
-245,211,0,0,0,0,0,0,0,0,0,-1,979,813,0,0
-238,211,0,0,0,0,0,0,0,0,0,-1,986,813,0,0
-231,211,0,0,0,0,0,0,0,0,0,-1,993,813,0,0
-224,211,0,0,0,0,0,0,0,0,0,-1,1000,813,0,0
-217,211,0,0,0,0,0,0,0,0,0,-1,1007,813,0,0
-210,211,0,0,0,0,0,0,0,0,0,-1,1014,813,0,0
-203,211,0,0,0,0,0,0,0,0,0,-1,1021,813,0,0
-196,211,0,0,0,0,0,0,0,0,0,-1,1028,813,0,0
-189,211,0,0,0,0,0,0,0,0,0,-1,1035,813,0,0
-182,211,0,0,0,0,0,0,0,0,0,-1,1042,813,0,0
-175,211,0,0,0,0,0,0,0,0,0,-1,1049,813,0,0
-168,211,0,0,0,0,0,0,0,0,0,-1,1056,813,0,0
-161,211,0,0,0,0,0,0,0,0,0,-1,1063,813,0,0
-154,211,0,0,0,0,0,0,0,0,0,-1,1070,813,0,0
-147,211,0,0,0,0,0,0,0,0,0,-1,1077,813,0,0
-140,211,0,0,0,0,0,0,0,0,0,-1,1084,813,0,0
-133,211,0,0,0,0,0,0,0,0,0,-1,1091,813,0,0
-126,211,0,0,0,0,0,0,0,0,0,-1,1098,813,0,0
-119,211,0,0,0,0,0,0,0,0,0,-1,1105,813,0,0
-112,211,0,0,0,0,0,0,0,0,0,-1,1112,813,0,0
-105,211,0,0,0,0,0,0,0,0,0,-1,1119,813,0,0
-98,211,0,0,0,0,0,0,0,0,0,-1,1126,813,0,0
-91,211,0,0,0,0,0,0,0,0,0,-1,1133,813,0,0
-84,211,0,0,0,0,0,0,0,0,0,-1,1140,813,0,0
-77,211,0,0,0,0,0,0,0,0,0,-1,1147,813,0,0
-70,211,0,0,0,0,0,0,0,0,0,-1,1154,813,0,0
-63,211,0,0,0,0,0,0,0,0,0,-1,1161,813,0,0
-56,211,0,0,0,0,0,0,0,0,0,-1,1168,813,0,0
-49,211,0,0,0,0,0,0,0,0,0,-1,1175,813,0,0
-42,211,0,0,0,0,0,0,0,0,0,-1,1182,813,0,0
-35,211,0,0,0,0,0,0,0,0,0,-1,1189,813,0,0
-28,211,0,0,0,0,0,0,0,0,0,-1,1196,813,0,0
-21,211,0,0,0,0,0,0,0,0,0,-1,1203,813,0,0
-14,211,0,0,0,0,0,0,0,0,0,-1,1210,813,0,0
-7,211,0,0,0,0,0,0,0,0,0,-1,1217,813,0,0
0,211,0,0,0,0,0,0,0,0,0,-1,1224,813,0,0
7,211,0,0,0,0,0,0,0,0,0,-1,1231,813,0,0
14,211,0,0,0,0,0,0,0,0,0,-1,1238,813,0,0
21,211,0,0,0,0,0,0,0,0,0,-1,1245,813,0,0
28,211,0,0,0,0,0,0,0,0,0,-1,1252,813,0,0
35,211,0,0,0,0,0,0,0,0,0,-1,1259,813,0,0
42,211,0,0,0,0,0,0,0,0,0,-1,1266,813,0,0
49,211,0,0,0,0,0,0,0,0,0,-1,1273,813,0,0
56,211,0,0,0,0,0,0,0,0,0,-1,1280,813,0,0
63,211,0,0,0,0,0,0,0,0,0,-1,1287,813,0,0
70,211,0,0,0,0,0,0,0,0,0,-1,1294,813,0,0
77,211,0,0,0,0,0,0,0,0,0,-1,1301,813,0,0
84,211,0,0,0,0,0,0,0,0,0,-1,1308,813,0,0
91,211,0,0,0,0,0,0,0,0,0,-1,1315,813,0,0
98,211,0,0,0,0,0,0,0,0,0,-1,1322,813,0,0
105,211,0,0,0,0,0,0,0,0,0,-1,1329,813,0,0
112,211,0,0,0,0,0,0,0,0,0,-1,1336,813,0,0
119,211,0,0,0,0,0,0,0,0,0,-1,1343,813,0,0
126,211,0,0,0,0,0,0,0,0,0,-1,1350,813,0,0
133,211,0,0,0,0,0,0,0,0,0,-1,1357,813,0,0
140,211,0,0,0,0,0,0,0,0,0,-1,1364,813,0,0
147,211,0,0,0,0,0,0,0,0,0,-1,1371,813,0,0
154,211,0,0,0,0,0,0,0,0,0,-1,1378,813,0,0
161,211,0,0,0,0,0,0,0,0,0,-1,1385,813,0,0
168,211,0,0,0,0,0,0,0,0,0,-1,1392,813,0,0
175,211,0,0,0,0,0,0,0,0,0,-1,1399,813,0,0
182,211,0,0,0,0,0,0,0,0,0,-1,1406,813,0,0
189,211,0,0,0,0,0,0,0,0,0,-1,1413,813,0,0
196,211,0,0,0,0,0,0,0,0,0,-1,1420,813,0,0
203,211,0,0,0,0,0,0,0,0,0,-1,1427,813,0,0
210,211,0,0,0,0,0,0,0,0,0,-1,1434,813,0,0
217,211,0,0,0,0,0,0,0,0,0,-1,1441,813,0,0
224,211,0,0,0,0,0,0,0,0,0,-1,1448,813,0,0
231,211,0,0,0,0,0,0,0,0,0,-1,1455,813,0,0
238,211,0,0,0,0,0,0,0,0,0,-1,1462,813,0,0
245,211,0,0,0,0,0,0,0,0,0,-1,1469,813,0,0
252,211,0,0,0,0,0,0,0,0,0,-1,1476,813,0,0
259,211,0,0,0,0,0,0,0,0,0,-1,1483,813,0,0
266,211,0,0,0,0,0,0,0,0,0,-1,1490,813,0,0
273,211,0,0,0,0,0,0,0,0,0,-1,1497,813,0,0
280,211,0,0,0,0,0,0,0,0,0,-1,1504,813,0,0
287,211,0,0,0,0,0,0,0,0,0,-1,1511,813,0,0
294,211,0,0,0,0,0,0,0,0,0,-1,1518,813,0,0
301,211,0,0,0,0,0,0,0,0,0,-1,1525,813,0,0
308,211,0,0,0,0,0,0,0,0,0,-1,1532,813,0,0
315,211,0,0,0,0,0,0,0,0,0,-1,1539,813,0,0
322,211,0,0,0,0,0,0,0,0,0,-1,1546,813,0,0
329,211,0,0,0,0,0,0,0,0,0,-1,1553,813,0,0
336,211,0,0,0,0,0,0,0,0,0,-1,1560,813,0,0
343,211,0,0,0,0,0,0,0,0,0,-1,1567,813,0,0
350,211,0,0,0,0,0,0,0,0,0,-1,1574,813,0,0
357,211,0,0,0,0,0,0,0,0,0,-1,1581,813,0,0
364,211,0,0,0,0,0,0,0,0,0,-1,1588,813,0,0
371,211,0,0,0,0,0,0,0,0,0,-1,1595,813,0,0
378,211,0,0,0,0,0,0,0,0,0,-1,1602,813,0,0
385,211,0,0,0,0,0,0,0,0,0,-1,1609,813,0,0
392,211,0,0,0,0,0,0,0,0,0,-1,1616,813,0,0
399,211,0,0,0,0,0,0,0,0,0,-1,1623,813,0,0
406,211,0,0,0,0,0,0,0,0,0,-1,1630,813,0,0
413,211,0,0,0,0,0,0,0,0,0,-1,1637,813,0,0
420,211,0,0,0,0,0,0,0,0,0,-1,1644,813,0,0
427,211,0,0,0,0,0,0,0,0,0,-1,1651,813,0,0
434,211,0,0,0,0,0,0,0,0,0,-1,1658,813,0,0
441,211,0,0,0,0,0,0,0,0,0,-1,1665,813,0,0
448,211,0,0,0,0,0,0,0,0,0,-1,1672,813,0,0
455,211,0,0,0,0,0,0,0,0,0,-1,1679,813,0,0
462,211,0,0,0,0,0,0,0,0,0,-1,1686,813,0,0
469,211,0,0,0,0,0,0,0,0,0,-1,1693,813,0,0
476,211,0,0,0,0,0,0,0,0,0,-1,1700,813,0,0
483,211,0,0,0,0,0,0,0,0,0,-1,1707,813,0,0
490,211,0,0,0,0,0,0,0,0,0,-1,1714,813,0,0
497,211,0,0,0,0,0,0,0,0,0,-1,1721,813,0,0
504,211,0,0,0,0,0,0,0,0,0,-1,1728,813,0,0
511,211,0,0,0,0,0,0,0,0,0,-1,1735,813,0,0
518,211,0,0,0,0,0,0,0,0,0,-1,1742,813,0,0
525,211,0,0,0,0,0,0,0,0,0,-1,1749,813,0,0
532,211,0,0,0,0,0,0,0,0,0,-1,1756,813,0,0
539,211,0,0,0,0,0,0,0,0,0,-1,1763,813,0,0
546,211,0,0,0,0,0,0,0,0,0,-1,1770,813,0,0
553,211,0,0,0,0,0,0,0,0,0,-1,1777,813,0,0
560,211,0,0,0,0,0,0,0,0,0,-1,1784,813,0,0
567,211,0,0,0,0,0,0,0,0,0,-1,1791,813,0,0
574,211,0,0,0,0,0,0,0,0,0,-1,1798,813,0,0
581,211,0,0,0,0,0,0,0,0,0,-1,1805,813,0,0
588,211,0,0,0,0,0,0,0,0,0,-1,1812,813,0,0
595,211,46.9694,2.56342,-0.0020586,-0.00141391,-0.00143866,-0.000261931,-0.00321058,-0.895607,0.00205864,0.0405186,1819,813,46.9694,-2.56341
602,211,46.8881,2.54797,-0.000507698,0.00175334,0.000764422,0.00198752,-0.000741882,1.27352,0.00162961,0.0374474,1826,813,46.888,-2.54798
609,211,46.8181,2.5033,0.000906216,0.00419832,0.0024952,0.0055415,-0.000436965,1.07698,0.00384827,0.0356843,1833,813,46.8182,-2.5033
616,211,46.8015,2.64343,0.00183139,0.00537172,0.00346484,0.0074924,-0.000289283,1.02156,0.0050941,0.0297181,1840,813,46.8015,-2.64343
623,211,46.8162,2.76428,0.00188618,0.00527486,0.00342298,0.00739988,-0.000238847,1.01521,0.00501477,0.0290227,1847,813,46.8162,-2.76431
630,211,46.8722,2.79742,0.00154719,0.00478844,0.00296111,0.00654341,-0.000207776,1.03578,0.00443316,0.0329507,1854,813,46.8722,-2.79744
637,211,46.9138,2.7558,0.000995149,0.00407518,0.00233772,0.00533455,-0.000264222,1.07666,0.00364763,0.0395663,1861,813,46.9138,-2.75581
644,211,46.9631,2.83801,0,0,0,0,0,0,0,-1,1868,813,46.9631,-2.83801
651,211,45.1924,2.85034,0,0,0,0,0,0,0,-1,1875,813,45.1924,-2.85033
658,211,27.7909,1.52234,0,0,0,0,0,0,0,-1,1882,813,27.7909,-1.52234
665,211,35.6128,0.0516968,0,0,0,0,0,0,0,-1,1889,813,35.6128,-0.0516763
672,211,35.4395,0.401123,-0.000672316,0.000880968,-0.000219808,0.000911475,-0.000702822,-1.43289,0.000934606,0.039326,1896,813,35.4394,-0.401098
679,211,35.261,0.811401,-0.00136869,0.000111411,-0.000692691,0.000385015,-0.0016423,-1.19462,0.00124324,0.0230306,1903,813,35.261,-0.811397
686,211,35.1072,1.29468,-0.00192354,-0.000291928,-0.00111977,0.000277698,-0.00249317,-1.10021,0.00176199,0.0139244,1910,813,35.1072,-1.29467
693,211,35.071,1.81372,-0.00179669,-0.000222481,-0.0010561,0.000307564,-0.00232674,-1.10564,0.00166319,0.0123667,1917,813,35.071,-1.81371
700,211,34.9523,2.31274,-0.00124868,0.000515779,-0.000505517,0.000650347,-0.00138325,-1.31063,0.00119924,0.0135729,1924,813,34.9523,-2.31273
707,211,34.9509,2.90259,-0.000207874,0.00191845,0.000503231,0.00203154,-0.000320958,1.34975,0.00147305,0.0209826,1931,813,34.9509,-2.90258
714,211,34.9945,3.50122,0.000949416,0.00386538,0.00189135,0.00479548,1.93212e-05,1.11376,0.00319056,0.0226959,1938,813,34.9945,-3.50121
721,211,35.025,3.97809,0.00220459,0.00642579,0.00364604,0.00852806,0.000102322,1.04777,0.00565158,0.0175802,1945,813,35.025,-3.97811
728,211,35.0052,4.52435,0.00338985,0.00962843,0.00569547,0.0130029,1.5426e-05,1.03593,0.00866343,0.0174153,1952,813,35.0053,-4.52434
735,211,34.9814,5.198,0.00455306,0.0138259,0.00818907,0.0186,-0.00022102,1.04298,0.0124743,0.0303322,1959,813,34.9814,-5.19801
742,211,34.8093,5.6394,0,0,0,0,0,0,0,-1,1966,813,34.8093,-5.63938
749,211,34.9574,6.93329,0.00721969,0.0265908,0.0155294,0.0352075,-0.00139703,1.06423,0.0239509,0.0495597,1973,813,34.9573,-6.93326
756,211,34.934,7.77576,0,0,0,0,0,0,0,-1,1980,813,34.934,-7.77575
763,211,34.8909,8.62366,0,0,0,0,0,0,0,-1,1987,813,34.8909,-8.62363
770,211,36.4148,8.47723,0,0,0,0,0,0,0,-1,1994,813,36.4148,-8.47724
777,211,0,0,0,0,0,0,0,0,0,-1,2001,813,0,0
784,211,0,0,0,0,0,0,0,0,0,-1,2008,813,0,0
791,211,0,0,0,0,0,0,0,0,0,-1,2015,813,0,0
798,211,0,0,0,0,0,0,0,0,0,-1,2022,813,0,0
805,211,0,0,0,0,0,0,0,0,0,-1,2029,813,0,0
812,211,0,0,0,0,0,0,0,0,0,-1,2036,813,0,0
-700,204,0,0,0,0,0,0,0,0,0,-1,524,820,0,0
-693,204,0,0,0,0,0,0,0,0,0,-1,531,820,0,0
-686,204,0,0,0,0,0,0,0,0,0,-1,538,820,0,0
-679,204,0,0,0,0,0,0,0,0,0,-1,545,820,0,0
-672,204,0,0,0,0,0,0,0,0,0,-1,552,820,0,0
-665,204,0,0,0,0,0,0,0,0,0,-1,559,820,0,0
-658,204,0,0,0,0,0,0,0,0,0,-1,566,820,0,0
-651,204,-26.9496,5.22046,0,0,0,0,0,0,0,-1,573,820,-26.9496,-5.22048
-644,204,-26.0089,5.32202,0,0,0,0,0,0,0,-1,580,820,-26.0089,-5.32201
-637,204,-26.352,7.71545,0,0,0,0,0,0,0,-1,587,820,-26.352,-7.71546
-630,204,-26.5369,7.09045,0,0,0,0,0,0,0,-1,594,820,-26.5369,-7.09043
-623,204,-26.4147,7.32642,0,0,0,0,0,0,0,-1,601,820,-26.4147,-7.32645
-616,204,-25.2609,3.58466,0,0,0,0,0,0,0,-1,608,820,-25.2608,-3.58463
-609,204,-25.116,3.00555,0.00540406,-0.000117931,0.00272821,0.00652459,-0.00123846,0.389713,0.00481592,0.0389906,615,820,-25.116,-3.00558
-602,204,-25.0575,2.43353,0.00488216,0.00251667,0.00118348,0.00537259,0.00202624,0.392855,0.00313292,0.0171631,622,820,-25.0575,-2.43356
-595,204,-25.1053,1.92505,0.00388038,0.00255879,0.00043832,0.00401254,0.00242664,0.292843,0.00233353,0.0153832,629,820,-25.1054,-1.92507
-588,204,-25.1271,1.40283,0.0027583,0.00146475,0.000381269,0.00286232,0.00136073,0.266328,0.00165323,0.0127402,636,820,-25.1271,-1.40285
-581,204,-25.145,0.891174,0.00177694,0.000714534,0.000492958,0.00197043,0.000521041,0.374037,0.00117897,0.0123892,643,820,-25.145,-0.891191
-574,204,-25.1613,0.404602,0.000858677,-0.000140058,0.000673241,0.00119753,-0.000478915,0.466302,0.000997099,0.0151506,650,820,-25.1612,-0.404616
-567,204,-25.1283,-0.0844116,0.0002087,-0.00076093,0.00115861,0.000979841,-0.00153207,0.587246,0.00146189,0.0155873,657,820,-25.1283,0.0843987
-560,204,-25.1254,-0.633362,-0.000154047,-0.00109425,0.00164141,0.00108325,-0.00233155,0.645931,0.00201496,0.0174653,664,820,-25.1254,0.63335
-553,204,-25.2213,-1.05273,-0.000272405,-0.00102751,0.00212778,0.00151106,-0.00281097,0.697592,0.00253266,0.0210649,671,820,-25.2212,1.05271
-546,204,-25.376,-1.49799,-0.0005201,-0.00117745,0.00308261,0.00225131,-0.00394886,0.732288,0.00362411,0.025604,678,820,-25.376,1.49798
-539,204,-25.2694,-2.07428,-0.000505711,-0.000985951,0.00378027,0.00304206,-0.00453372,0.753681,0.00440205,0.0478751,685,820,-25.2694,2.07428
-532,204,-25.1399,-2.84924,0,0,0,0,0,0,0,-1,692,820,-25.1399,2.84927
-525,204,-25.7137,1.52496,0,0,0,0,0,0,0,-1,699,820,-25.7137,-1.52496
-518,204,-34.6855,0.6922,0,0,0,0,0,0,0,-1,706,820,-34.6855,-0.692204
-511,204,-35.0926,1.05212,0,0,0,0,0,0,0,-1,713,820,-35.0926,-1.0521
-504,204,-35.1411,1.07062,-0.00149419,0.00202098,0.00517368,0.00572747,-0.00520068,0.94914,0.00631181,0.047114,720,820,-35.141,-1.07064
-497,204,-35.1487,1.12201,-0.00156633,0.00305632,0.00468978,0.00597341,-0.00448341,1.01435,0.00605764,0.038346,727,820,-35.1487,-1.12203
-490,204,-35.1716,1.10144,-0.00155355,0.00447739,0.00302626,0.00573407,-0.00281024,1.1772,0.00502841,0.0344133,734,820,-35.1716,-1.10143
-483,204,-35.2212,1.0033,-0.000489343,0.00595431,-0.00063397,0.00601609,-0.000551125,-1.47365,0.00420649,0.0386607,741,820,-35.2212,-1.00328
-476,204,0,0,0,0,0,0,0,0,0,-1,748,820,0,0
-469,204,0,0,0,0,0,0,0,0,0,-1,755,820,0,0
-462,204,0,0,0,0,0,0,0,0,0,-1,762,820,0,0
-455,204,0,0,0,0,0,0,0,0,0,-1,769,820,0,0
-448,204,0,0,0,0,0,0,0,0,0,-1,776,820,0,0
-441,204,0,0,0,0,0,0,0,0,0,-1,783,820,0,0
-434,204,0,0,0,0,0,0,0,0,0,-1,790,820,0,0
-427,204,0,0,0,0,0,0,0,0,0,-1,797,820,0,0
-420,204,0,0,0,0,0,0,0,0,0,-1,804,820,0,0
-413,204,0,0,0,0,0,0,0,0,0,-1,811,820,0,0
-406,204,0,0,0,0,0,0,0,0,0,-1,818,820,0,0
-399,204,0,0,0,0,0,0,0,0,0,-1,825,820,0,0
-392,204,0,0,0,0,0,0,0,0,0,-1,832,820,0,0
-385,204,0,0,0,0,0,0,0,0,0,-1,839,820,0,0
-378,204,0,0,0,0,0,0,0,0,0,-1,846,820,0,0
-371,204,0,0,0,0,0,0,0,0,0,-1,853,820,0,0
-364,204,0,0,0,0,0,0,0,0,0,-1,860,820,0,0
-357,204,0,0,0,0,0,0,0,0,0,-1,867,820,0,0
-350,204,0,0,0,0,0,0,0,0,0,-1,874,820,0,0
-343,204,0,0,0,0,0,0,0,0,0,-1,881,820,0,0
-336,204,0,0,0,0,0,0,0,0,0,-1,888,820,0,0
-329,204,0,0,0,0,0,0,0,0,0,-1,895,820,0,0
-322,204,0,0,0,0,0,0,0,0,0,-1,902,820,0,0
-315,204,0,0,0,0,0,0,0,0,0,-1,909,820,0,0
-308,204,0,0,0,0,0,0,0,0,0,-1,916,820,0,0
-301,204,0,0,0,0,0,0,0,0,0,-1,923,820,0,0
-294,204,0,0,0,0,0,0,0,0,0,-1,930,820,0,0
-287,204,0,0,0,0,0,0,0,0,0,-1,937,820,0,0
-280,204,0,0,0,0,0,0,0,0,0,-1,944,820,0,0
-273,204,0,0,0,0,0,0,0,0,0,-1,951,820,0,0
-266,204,0,0,0,0,0,0,0,0,0,-1,958,820,0,0
-259,204,0,0,0,0,0,0,0,0,0,-1,965,820,0,0
-252,204,0,0,0,0,0,0,0,0,0,-1,972,820,0,0
-245,204,0,0,0,0,0,0,0,0,0,-1,979,820,0,0
-238,204,0,0,0,0,0,0,0,0,0,-1,986,820,0,0
-231,204,0,0,0,0,0,0,0,0,0,-1,993,820,0,0
-224,204,0,0,0,0,0,0,0,0,0,-1,1000,820,0,0
-217,204,0,0,0,0,0,0,0,0,0,-1,1007,820,0,0
-210,204,0,0,0,0,0,0,0,0,0,-1,1014,820,0,0
-203,204,0,0,0,0,0,0,0,0,0,-1,1021,820,0,0
-196,204,0,0,0,0,0,0,0,0,0,-1,1028,820,0,0
-189,204,0,0,0,0,0,0,0,0,0,-1,1035,820,0,0
-182,204,0,0,0,0,0,0,0,0,0,-1,1042,820,0,0
-175,204,0,0,0,0,0,0,0,0,0,-1,1049,820,0,0
-168,204,0,0,0,0,0,0,0,0,0,-1,1056,820,0,0
-161,204,0,0,0,0,0,0,0,0,0,-1,1063,820,0,0
-154,204,0,0,0,0,0,0,0,0,0,-1,1070,820,0,0
-147,204,0,0,0,0,0,0,0,0,0,-1,1077,820,0,0
-140,204,0,0,0,0,0,0,0,0,0,-1,1084,820,0,0
-133,204,0,0,0,0,0,0,0,0,0,-1,1091,820,0,0
-126,204,0,0,0,0,0,0,0,0,0,-1,1098,820,0,0
-119,204,0,0,0,0,0,0,0,0,0,-1,1105,820,0,0
-112,204,0,0,0,0,0,0,0,0,0,-1,1112,820,0,0
-105,204,0,0,0,0,0,0,0,0,0,-1,1119,820,0,0
-98,204,0,0,0,0,0,0,0,0,0,-1,1126,820,0,0
-91,204,0,0,0,0,0,0,0,0,0,-1,1133,820,0,0
-84,204,0,0,0,0,0,0,0,0,0,-1,1140,820,0,0
-77,204,0,0,0,0,0,0,0,0,0,-1,1147,820,0,0
-70,204,0,0,0,0,0,0,0,0,0,-1,1154,820,0,0
-63,204,0,0,0,0,0,0,0,0,0,-1,1161,820,0,0
-56,204,0,0,0,0,0,0,0,0,0,-1,1168,820,0,0
-49,204,0,0,0,0,0,0,0,0,0,-1,1175,820,0,0
-42,204,0,0,0,0,0,0,0,0,0,-1,1182,820,0,0
-35,204,0,0,0,0,0,0,0,0,0,-1,1189,820,0,0
-28,204,0,0,0,0,0,0,0,0,0,-1,1196,820,0,0
-21,204,0,0,0,0,0,0,0,0,0,-1,1203,820,0,0
-14,204,0,0,0,0,0,0,0,0,0,-1,1210,820,0,0
-7,204,0,0,0,0,0,0,0,0,0,-1,1217,820,0,0
0,204,0,0,0,0,0,0,0,0,0,-1,1224,820,0,0
7,204,0,0,0,0,0,0,0,0,0,-1,1231,820,0,0
14,204,0,0,0,0,0,0,0,0,0,-1,1238,820,0,0
21,204,0,0,0,0,0,0,0,0,0,-1,1245,820,0,0
28,204,0,0,0,0,0,0,0,0,0,-1,1252,820,0,0
35,204,0,0,0,0,0,0,0,0,0,-1,1259,820,0,0
42,204,0,0,0,0,0,0,0,0,0,-1,1266,820,0,0
49,204,0,0,0,0,0,0,0,0,0,-1,1273,820,0,0
56,204,0,0,0,0,0,0,0,0,0,-1,1280,820,0,0
63,204,0,0,0,0,0,0,0,0,0,-1,1287,820,0,0
70,204,0,0,0,0,0,0,0,0,0,-1,1294,820,0,0
77,204,0,0,0,0,0,0,0,0,0,-1,1301,820,0,0
84,204,0,0,0,0,0,0,0,0,0,-1,1308,820,0,0
91,204,0,0,0,0,0,0,0,0,0,-1,1315,820,0,0
98,204,0,0,0,0,0,0,0,0,0,-1,1322,820,0,0
105,204,0,0,0,0,0,0,0,0,0,-1,1329,820,0,0
112,204,0,0,0,0,0,0,0,0,0,-1,1336,820,0,0
119,204,0,0,0,0,0,0,0,0,0,-1,1343,820,0,0
126,204,0,0,0,0,0,0,0,0,0,-1,1350,820,0,0
133,204,0,0,0,0,0,0,0,0,0,-1,1357,820,0,0
140,204,0,0,0,0,0,0,0,0,0,-1,1364,820,0,0
147,204,0,0,0,0,0,0,0,0,0,-1,1371,820,0,0
154,204,0,0,0,0,0,0,0,0,0,-1,1378,820,0,0
161,204,0,0,0,0,0,0,0,0,0,-1,1385,820,0,0
168,204,0,0,0,0,0,0,0,0,0,-1,1392,820,0,0
175,204,0,0,0,0,0,0,0,0,0,-1,1399,820,0,0
182,204,0,0,0,0,0,0,0,0,0,-1,1406,820,0,0
189,204,0,0,0,0,0,0,0,0,0,-1,1413,820,0,0
196,204,0,0,0,0,0,0,0,0,0,-1,1420,820,0,0
203,204,0,0,0,0,0,0,0,0,0,-1,1427,820,0,0
210,204,0,0,0,0,0,0,0,0,0,-1,1434,820,0,0
217,204,0,0,0,0,0,0,0,0,0,-1,1441,820,0,0
224,204,0,0,0,0,0,0,0,0,0,-1,1448,820,0,0
231,204,0,0,0,0,0,0,0,0,0,-1,1455,820,0,0
238,204,0,0,0,0,0,0,0,0,0,-1,1462,820,0,0
245,204,0,0,0,0,0,0,0,0,0,-1,1469,820,0,0
252,204,0,0,0,0,0,0,0,0,0,-1,1476,820,0,0
259,204,0,0,0,0,0,0,0,0,0,-1,1483,820,0,0
266,204,0,0,0,0,0,0,0,0,0,-1,1490,820,0,0
273,204,0,0,0,0,0,0,0,0,0,-1,1497,820,0,0
280,204,0,0,0,0,0,0,0,0,0,-1,1504,820,0,0
287,204,0,0,0,0,0,0,0,0,0,-1,1511,820,0,0
294,204,0,0,0,0,0,0,0,0,0,-1,1518,820,0,0
301,204,0,0,0,0,0,0,0,0,0,-1,1525,820,0,0
308,204,0,0,0,0,0,0,0,0,0,-1,1532,820,0,0
315,204,0,0,0,0,0,0,0,0,0,-1,1539,820,0,0
322,204,0,0,0,0,0,0,0,0,0,-1,1546,820,0,0
329,204,0,0,0,0,0,0,0,0,0,-1,1553,820,0,0
336,204,0,0,0,0,0,0,0,0,0,-1,1560,820,0,0
343,204,0,0,0,0,0,0,0,0,0,-1,1567,820,0,0
350,204,0,0,0,0,0,0,0,0,0,-1,1574,820,0,0
357,204,0,0,0,0,0,0,0,0,0,-1,1581,820,0,0
364,204,0,0,0,0,0,0,0,0,0,-1,1588,820,0,0
371,204,0,0,0,0,0,0,0,0,0,-1,1595,820,0,0
378,204,0,0,0,0,0,0,0,0,0,-1,1602,820,0,0
385,204,0,0,0,0,0,0,0,0,0,-1,1609,820,0,0
392,204,0,0,0,0,0,0,0,0,0,-1,1616,820,0,0
399,204,0,0,0,0,0,0,0,0,0,-1,1623,820,0,0
406,204,0,0,0,0,0,0,0,0,0,-1,1630,820,0,0
413,204,0,0,0,0,0,0,0,0,0,-1,1637,820,0,0
420,204,0,0,0,0,0,0,0,0,0,-1,1644,820,0,0
427,204,0,0,0,0,0,0,0,0,0,-1,1651,820,0,0
434,204,0,0,0,0,0,0,0,0,0,-1,1658,820,0,0
441,204,0,0,0,0,0,0,0,0,0,-1,1665,820,0,0
448,204,0,0,0,0,0,0,0,0,0,-1,1672,820,0,0
455,204,0,0,0,0,0,0,0,0,0,-1,1679,820,0,0
462,204,0,0,0,0,0,0,0,0,0,-1,1686,820,0,0
469,204,0,0,0,0,0,0,0,0,0,-1,1693,820,0,0
476,204,0,0,0,0,0,0,0,0,0,-1,1700,820,0,0
483,204,0,0,0,0,0,0,0,0,0,-1,1707,820,0,0
490,204,0,0,0,0,0,0,0,0,0,-1,1714,820,0,0
497,204,0,0,0,0,0,0,0,0,0,-1,1721,820,0,0
504,204,0,0,0,0,0,0,0,0,0,-1,1728,820,0,0
511,204,0,0,0,0,0,0,0,0,0,-1,1735,820,0,0
518,204,0,0,0,0,0,0,0,0,0,-1,1742,820,0,0
525,204,0,0,0,0,0,0,0,0,0,-1,1749,820,0,0
532,204,0,0,0,0,0,0,0,0,0,-1,1756,820,0,0
539,204,0,0,0,0,0,0,0,0,0,-1,1763,820,0,0
546,204,0,0,0,0,0,0,0,0,0,-1,1770,820,0,0
553,204,0,0,0,0,0,0,0,0,0,-1,1777,820,0,0
560,204,0,0,0,0,0,0,0,0,0,-1,1784,820,0,0
567,204,0,0,0,0,0,0,0,0,0,-1,1791,820,0,0
574,204,0,0,0,0,0,0,0,0,0,-1,1798,820,0,0
581,204,0,0,0,0,0,0,0,0,0,-1,1805,820,0,0
588,204,0,0,0,0,0,0,0,0,0,-1,1812,820,0,0
595,204,0,0,0,0,0,0,0,0,0,-1,1819,820,0,0
602,204,46.8928,2.57776,-0.00253916,-0.00142753,-0.00161532,-0.000275069,-0.00369162,-0.951098,0.00237471,0.038633,1826,820,46.8928,-2.57778
609,204,46.8201,2.604,-0.00074327,0.00143857,0.000516872,0.00155482,-0.000859521,1.34956,0.00141306,0.0392835,1833,820,46.8201,-2.60397
616,204,46.7557,2.67157,0.00082521,0.0034363,0.00211743,0.00461831,-0.000356802,1.06166,0.00320444,0.0361878,1840,820,46.7558,-2.6716
623,204,46.7522,2.71588,0.00141003,0.00404504,0.00261636,0.00565689,-0.00020183,1.01865,0.00384031,0.0268589,1847,820,46.7522,-2.71587
630,204,46.8125,2.74573,0.0013087,0.00399003,0.00245158,0.00544358,-0.00014485,1.03561,0.00367829,0.0258129,1854,820,46.8126,-2.74575
637,204,46.8674,2.70227,0.000811179,0.00345401,0.00194749,0.00448607,-0.000220882,1.08348,0.00306699,0.0332529,1861,820,46.8674,-2.70226
644,204,46.9333,2.70844,0.00020066,0.00271212,0.00141295,0.0033467,-0.00043392,1.14868,0.00238895,0.0427072,1868,820,46.9333,-2.70842
651,204,47.0223,2.73346,0,0,0,0,0,0,0,-1,1875,820,47.0223,-2.73347
658,204,34.9631,1.64844,0,0,0,0,0,0,0,-1,1882,820,34.9631,-1.64842
665,204,21.8292,1.51099,0,0,0,0,0,0,0,-1,1889,820,21.8292,-1.51099
672,204,36.0466,0.298584,0,0,0,0,0,0,0,-1,1896,820,36.0466,-0.298583
679,204,35.7063,0.672485,-0.00143926,-5.2005e-05,-0.00072535,0.000257987,-0.00174925,-1.16692,0.00126099,0.038024,1903,820,35.7063,-0.672509
686,204,35.6248,1.28833,-0.00202411,-0.00045737,-0.00119442,0.00018765,-0.00266913,-1.07564,0.00184516,0.0191608,1910,820,35.6248,-1.28833
693,204,35.5345,1.82886,-0.00207347,-0.000496466,-0.00125866,0.000200285,-0.00277022,-1.06522,0.00191706,0.0170234,1917,820,35.5345,-1.82884
700,204,35.582,2.37146,-0.00173659,3.57051e-05,-0.000911664,0.00042093,-0.00212182,-1.171,0.00157373,0.0176951,1924,820,35.5821,-2.37144
707,204,35.5299,2.9549,-0.000851497,0.00122502,-9.54896e-05,0.0012294,-0.000855879,-1.52494,0.00121036,0.0169769,1931,820,35.5299,-2.95488
714,204,35.5336,3.5694,0.000210883,0.00308595,0.00116723,0.00350015,-0.000203322,1.2298,0.00240407,0.0262124,1938,820,35.5336,-3.56937
721,204,35.5459,4.00555,0.00142895,0.00561577,0.00283599,0.0070473,-2.58139e-06,1.10334,0.00469906,0.0224802,1945,820,35.5459,-4.00555
728,204,35.5114,4.50427,0.00263121,0.00871512,0.00479054,0.0113479,-1.57626e-06,1.06827,0.0075658,0.0138436,1952,820,35.5113,-4.5043
735,204,35.4364,5.09235,0.00382869,0.0126468,0.00711022,0.016604,-0.000128556,1.06293,0.0111125,0.0158581,1959,820,35.4364,-5.09232
742,204,35.3776,5.62775,0.00514126,0.0177322,0.0100488,0.0232947,-0.000421207,1.06523,0.0156721,0.031878,1966,820,35.3776,-5.62777
749,204,35.3252,6.40338,0.00667282,0.0243828,0.0138319,0.0319514,-0.000895744,1.07012,0.0216057,0.0464536,1973,820,35.3252,-6.40337
756,204,35.2526,7.3316,0,0,0,0,0,0,0,-1,1980,820,35.2525,-7.33162
763,204,35.64,7.40845,0,0,0,0,0,0,0,-1,1987,820,35.6401,-7.40843
770,204,36.3516,8.1601,0,0,0,0,0,0,0,-1,1994,820,36.3515,-8.1601
777,204,0,0,0,0,0,0,0,0,0,-1,2001,820,0,0
784,204,0,0,0,0,0,0,0,0,0,-1,2008,820,0,0
791,204,0,0,0,0,0,0,0,0,0,-1,2015,820,0,0
798,204,0,0,0,0,0,0,0,0,0,-1,2022,820,0,0
805,204,0,0,0,0,0,0,0,0,0,-1,2029,820,0,0
812,204,0,0,0,0,0,0,0,0,0,-1,2036,820,0,0
-700,197,0,0,0,0,0,0,0,0,0,-1,524,827,0,0
-693,197,0,0,0,0,0,0,0,0,0,-1,531,827,0,0
-686,197,0,0,0,0,0,0,0,0,0,-1,538,827,0,0
-679,197,0,0,0,0,0,0,0,0,0,-1,545,827,0,0
-672,197,0,0,0,0,0,0,0,0,0,-1,552,827,0,0
-665,197,0,0,0,0,0,0,0,0,0,-1,559,827,0,0
-658,197,-28.2596,6.08923,0,0,0,0,0,0,0,-1,566,827,-28.2596,-6.08923
-651,197,-27.4594,6.21869,0,0,0,0,0,0,0,-1,573,827,-27.4593,-6.21868
-644,197,-26.6991,6.16089,0,0,0,0,0,0,0,-1,580,827,-26.6991,-6.16091
-637,197,-27.0466,7.04468,0,0,0,0,0,0,0,-1,587,827,-27.0466,-7.04469
-630,197,-26.6761,7.41974,0,0,0,0,0,0,0,-1,594,827,-26.6761,-7.41974
-623,197,-26.5325,7.68707,0,0,0,0,0,0,0,-1,601,827,-26.5325,-7.68705
-616,197,-25.6704,3.37982,0,0,0,0,0,0,0,-1,608,827,-25.6704,-3.37984
-609,197,-25.6085,2.97528,0.00345513,-0.00151972,0.00460886,0.00620496,-0.00426955,0.537946,0.00608178,0.0345977,615,827,-25.6085,-2.9753
-602,197,-25.5821,2.42584,0.00372732,0.0016752,0.00256809,0.00546674,-6.42224e-05,0.595343,0.00366609,0.0178884,622,827,-25.5821,-2.42583
-595,197,-25.6323,1.9516,0.00300667,0.00187607,0.00154341,0.00408505,0.000797689,0.609852,0.00250025,0.0186618,629,827,-25.6323,-1.95158
-588,197,-25.6462,1.42072,0.00217849,0.000847856,0.00125572,0.00293426,9.20886e-05,0.541785,0.00192621,0.0198379,636,827,-25.6462,-1.42071
-581,197,-25.659,0.885315,0.00147568,0.000203595,0.00112919,0.00213564,-0.000456367,0.528911,0.00159776,0.0114547,643,827,-25.659,-0.885312
-574,197,-25.6497,0.422913,0.000804131,-0.000478453,0.00102585,0.00137265,-0.00104697,0.506052,0.00140118,0.0134879,650,827,-25.6497,-0.422894
-567,197,-25.618,-0.0579224,0.000403928,-0.000860557,0.00130204,0.00121911,-0.00167574,0.559376,0.00167826,0.0162311,657,827,-25.618,0.0579451
-560,197,-25.6011,-0.565186,0.000214674,-0.000945705,0.00159105,0.00132802,-0.00205905,0.610561,0.00197064,0.0241471,664,827,-25.6011,0.565207
-553,197,-25.9648,-0.96759,9.95678e-05,-0.000769875,0.0019349,0.00164799,-0.00231829,0.674896,0.00230081,0.0250418,671,827,-25.9648,0.967579
-546,197,-25.8724,-1.41492,-9.61299e-05,-0.000762097,0.00268491,0.00227636,-0.00313459,0.723703,0.00313709,0.0413106,678,827,-25.8724,1.41492
-539,197,-25.7844,-1.81989,0,0,0,0,0,0,0,-1,685,827,-25.7844,1.81989
-532,197,-16.0519,0.0410156,0,0,0,0,0,0,0,-1,692,827,-16.0519,-0.0410415
-525,197,-34.4382,0.7099,0,0,0,0,0,0,0,-1,699,827,-34.4382,-0.709895
-518,197,-35.2365,0.876526,0,0,0,0,0,0,0,-1,706,827,-35.2365,-0.876508
-511,197,-35.2485,0.906921,-0.000323064,0.00144032,0.00454756,0.00519088,-0.00407362,0.881151,0.00536181,0.0400516,713,827,-35.2485,-0.906909
-504,197,-35.2702,0.999451,-0.000158468,0.00222094,0.00462749,0.00580921,-0.00374675,0.91122,0.00555981,0.0366108,720,827,-35.2702,-0.999438
-497,197,-35.3295,1.13593,0.000210287,0.00304374,0.00404604,0.00591392,-0.00265989,0.953803,0.00506753,0.0377933,727,827,-35.3295,-1.13593
-490,197,-35.2645,1.11932,0.000908624,0.00402091,0.00212061,0.00509508,-0.000165549,1.10193,0.00345323,0.0389122,734,827,-35.2644,-1.1193
-483,197,-35.1365,0.937988,0.00309046,0.00474576,-0.00205516,0.00613367,0.00170255,-0.976821,0.00365621,0.0407174,741,827,-35.1365,-0.937996
-476,197,0,0,0,0,0,0,0,0,0,-1,748,827,0,0
-469,197,0,0,0,0,0,0,0,0,0,-1,755,827,0,0
-462,197,0,0,0,0,0,0,0,0,0,-1,762,827,0,0
-455,197,0,0,0,0,0,0,0,0,0,-1,769,827,0,0
-448,197,0,0,0,0,0,0,0,0,0,-1,776,827,0,0
-441,197,0,0,0,0,0,0,0,0,0,-1,783,827,0,0
-434,197,0,0,0,0,0,0,0,0,0,-1,790,827,0,0
-427,197,0,0,0,0,0,0,0,0,0,-1,797,827,0,0
-420,197,0,0,0,0,0,0,0,0,0,-1,804,827,0,0
-413,197,0,0,0,0,0,0,0,0,0,-1,811,827,0,0
-406,197,0,0,0,0,0,0,0,0,0,-1,818,827,0,0
-399,197,0,0,0,0,0,0,0,0,0,-1,825,827,0,0
-392,197,0,0,0,0,0,0,0,0,0,-1,832,827,0,0
-385,197,0,0,0,0,0,0,0,0,0,-1,839,827,0,0
-378,197,0,0,0,0,0,0,0,0,0,-1,846,827,0,0
-371,197,0,0,0,0,0,0,0,0,0,-1,853,827,0,0
-364,197,0,0,0,0,0,0,0,0,0,-1,860,827,0,0
-357,197,0,0,0,0,0,0,0,0,0,-1,867,827,0,0
-350,197,0,0,0,0,0,0,0,0,0,-1,874,827,0,0
-343,197,0,0,0,0,0,0,0,0,0,-1,881,827,0,0
-336,197,0,0,0,0,0,0,0,0,0,-1,888,827,0,0
-329,197,0,0,0,0,0,0,0,0,0,-1,895,827,0,0
-322,197,0,0,0,0,0,0,0,0,0,-1,902,827,0,0
-315,197,0,0,0,0,0,0,0,0,0,-1,909,827,0,0
-308,197,0,0,0,0,0,0,0,0,0,-1,916,827,0,0
-301,197,0,0,0,0,0,0,0,0,0,-1,923,827,0,0
-294,197,0,0,0,0,0,0,0,0,0,-1,930,827,0,0
-287,197,0,0,0,0,0,0,0,0,0,-1,937,827,0,0
-280,197,0,0,0,0,0,0,0,0,0,-1,944,827,0,0
-273,197,0,0,0,0,0,0,0,0,0,-1,951,827,0,0
-266,197,0,0,0,0,0,0,0,0,0,-1,958,827,0,0
-259,197,0,0,0,0,0,0,0,0,0,-1,965,827,0,0
-252,197,0,0,0,0,0,0,0,0,0,-1,972,827,0,0
-245,197,0,0,0,0,0,0,0,0,0,-1,979,827,0,0
-238,197,0,0,0,0,0,0,0,0,0,-1,986,827,0,0
-231,197,0,0,0,0,0,0,0,0,0,-1,993,827,0,0
-224,197,0,0,0,0,0,0,0,0,0,-1,1000,827,0,0
-217,197,0,0,0,0,0,0,0,0,0,-1,1007,827,0,0
-210,197,0,0,0,0,0,0,0,0,0,-1,1014,827,0,0
-203,197,0,0,0,0,0,0,0,0,0,-1,1021,827,0,0
-196,197,0,0,0,0,0,0,0,0,0,-1,1028,827,0,0
-189,197,0,0,0,0,0,0,0,0,0,-1,1035,827,0,0
-182,197,0,0,0,0,0,0,0,0,0,-1,1042,827,0,0
-175,197,0,0,0,0,0,0,0,0,0,-1,1049,827,0,0
-168,197,0,0,0,0,0,0,0,0,0,-1,1056,827,0,0
-161,197,0,0,0,0,0,0,0,0,0,-1,1063,827,0,0
-154,197,0,0,0,0,0,0,0,0,0,-1,1070,827,0,0
-147,197,0,0,0,0,0,0,0,0,0,-1,1077,827,0,0
-140,197,0,0,0,0,0,0,0,0,0,-1,1084,827,0,0
-133,197,0,0,0,0,0,0,0,0,0,-1,1091,827,0,0
-126,197,0,0,0,0,0,0,0,0,0,-1,1098,827,0,0
-119,197,0,0,0,0,0,0,0,0,0,-1,1105,827,0,0
-112,197,0,0,0,0,0,0,0,0,0,-1,1112,827,0,0
-105,197,0,0,0,0,0,0,0,0,0,-1,1119,827,0,0
-98,197,0,0,0,0,0,0,0,0,0,-1,1126,827,0,0
-91,197,0,0,0,0,0,0,0,0,0,-1,1133,827,0,0
-84,197,0,0,0,0,0,0,0,0,0,-1,1140,827,0,0
-77,197,0,0,0,0,0,0,0,0,0,-1,1147,827,0,0
-70,197,0,0,0,0,0,0,0,0,0,-1,1154,827,0,0
-63,197,0,0,0,0,0,0,0,0,0,-1,1161,827,0,0
-56,197,0,0,0,0,0,0,0,0,0,-1,1168,827,0,0
-49,197,0,0,0,0,0,0,0,0,0,-1,1175,827,0,0
-42,197,0,0,0,0,0,0,0,0,0,-1,1182,827,0,0
-35,197,0,0,0,0,0,0,0,0,0,-1,1189,827,0,0
-28,197,0,0,0,0,0,0,0,0,0,-1,1196,827,0,0
-21,197,0,0,0,0,0,0,0,0,0,-1,1203,827,0,0
-14,197,0,0,0,0,0,0,0,0,0,-1,1210,827,0,0
-7,197,0,0,0,0,0,0,0,0,0,-1,1217,827,0,0
0,197,0,0,0,0,0,0,0,0,0,-1,1224,827,0,0
7,197,0,0,0,0,0,0,0,0,0,-1,1231,827,0,0
14,197,0,0,0,0,0,0,0,0,0,-1,1238,827,0,0
21,197,0,0,0,0,0,0,0,0,0,-1,1245,827,0,0
28,197,0,0,0,0,0,0,0,0,0,-1,1252,827,0,0
35,197,0,0,0,0,0,0,0,0,0,-1,1259,827,0,0
42,197,0,0,0,0,0,0,0,0,0,-1,1266,827,0,0
49,197,0,0,0,0,0,0,0,0,0,-1,1273,827,0,0
56,197,0,0,0,0,0,0,0,0,0,-1,1280,827,0,0
63,197,0,0,0,0,0,0,0,0,0,-1,1287,827,0,0
70,197,0,0,0,0,0,0,0,0,0,-1,1294,827,0,0
77,197,0,0,0,0,0,0,0,0,0,-1,1301,827,0,0
84,197,0,0,0,0,0,0,0,0,0,-1,1308,827,0,0
91,197,0,0,0,0,0,0,0,0,0,-1,1315,827,0,0
98,197,0,0,0,0,0,0,0,0,0,-1,1322,827,0,0
105,197,0,0,0,0,0,0,0,0,0,-1,1329,827,0,0
112,197,0,0,0,0,0,0,0,0,0,-1,1336,827,0,0
119,197,0,0,0,0,0,0,0,0,0,-1,1343,827,0,0
126,197,0,0,0,0,0,0,0,0,0,-1,1350,827,0,0
133,197,0,0,0,0,0,0,0,0,0,-1,1357,827,0,0
140,197,0,0,0,0,0,0,0,0,0,-1,1364,827,0,0
147,197,0,0,0,0,0,0,0,0,0,-1,1371,827,0,0
154,197,0,0,0,0,0,0,0,0,0,-1,1378,827,0,0
161,197,0,0,0,0,0,0,0,0,0,-1,1385,827,0,0
168,197,0,0,0,0,0,0,0,0,0,-1,1392,827,0,0
175,197,0,0,0,0,0,0,0,0,0,-1,1399,827,0,0
182,197,0,0,0,0,0,0,0,0,0,-1,1406,827,0,0
189,197,0,0,0,0,0,0,0,0,0,-1,1413,827,0,0
196,197,0,0,0,0,0,0,0,0,0,-1,1420,827,0,0
203,197,0,0,0,0,0,0,0,0,0,-1,1427,827,0,0
210,197,0,0,0,0,0,0,0,0,0,-1,1434,827,0,0
217,197,0,0,0,0,0,0,0,0,0,-1,1441,827,0,0
224,197,0,0,0,0,0,0,0,0,0,-1,1448,827,0,0
231,197,0,0,0,0,0,0,0,0,0,-1,1455,827,0,0
238,197,0,0,0,0,0,0,0,0,0,-1,1462,827,0,0
245,197,0,0,0,0,0,0,0,0,0,-1,1469,827,0,0
252,197,0,0,0,0,0,0,0,0,0,-1,1476,827,0,0
259,197,0,0,0,0,0,0,0,0,0,-1,1483,827,0,0
266,197,0,0,0,0,0,0,0,0,0,-1,1490,827,0,0
273,197,0,0,0,0,0,0,0,0,0,-1,1497,827,0,0
280,197,0,0,0,0,0,0,0,0,0,-1,1504,827,0,0
287,197,0,0,0,0,0,0,0,0,0,-1,1511,827,0,0
294,197,0,0,0,0,0,0,0,0,0,-1,1518,827,0,0
301,197,0,0,0,0,0,0,0,0,0,-1,1525,827,0,0
308,197,0,0,0,0,0,0,0,0,0,-1,1532,827,0,0
315,197,0,0,0,0,0,0,0,0,0,-1,1539,827,0,0
322,197,0,0,0,0,0,0,0,0,0,-1,1546,827,0,0
329,197,0,0,0,0,0,0,0,0,0,-1,1553,827,0,0
336,197,0,0,0,0,0,0,0,0,0,-1,1560,827,0,0
343,197,0,0,0,0,0,0,0,0,0,-1,1567,827,0,0
350,197,0,0,0,0,0,0,0,0,0,-1,1574,827,0,0
357,197,0,0,0,0,0,0,0,0,0,-1,1581,827,0,0
364,197,0,0,0,0,0,0,0,0,0,-1,1588,827,0,0
371,197,0,0,0,0,0,0,0,0,0,-1,1595,827,0,0
378,197,0,0,0,0,0,0,0,0,0,-1,1602,827,0,0
385,197,0,0,0,0,0,0,0,0,0,-1,1609,827,0,0
392,197,0,0,0,0,0,0,0,0,0,-1,1616,827,0,0
399,197,0,0,0,0,0,0,0,0,0,-1,1623,827,0,0
406,197,0,0,0,0,0,0,0,0,0,-1,1630,827,0,0
413,197,0,0,0,0,0,0,0,0,0,-1,1637,827,0,0
420,197,0,0,0,0,0,0,0,0,0,-1,1644,827,0,0
427,197,0,0,0,0,0,0,0,0,0,-1,1651,827,0,0
434,197,0,0,0,0,0,0,0,0,0,-1,1658,827,0,0
441,197,0,0,0,0,0,0,0,0,0,-1,1665,827,0,0
448,197,0,0,0,0,0,0,0,0,0,-1,1672,827,0,0
455,197,0,0,0,0,0,0,0,0,0,-1,1679,827,0,0
462,197,0,0,0,0,0,0,0,0,0,-1,1686,827,0,0
469,197,0,0,0,0,0,0,0,0,0,-1,1693,827,0,0
476,197,0,0,0,0,0,0,0,0,0,-1,1700,827,0,0
483,197,0,0,0,0,0,0,0,0,0,-1,1707,827,0,0
490,197,0,0,0,0,0,0,0,0,0,-1,1714,827,0,0
497,197,0,0,0,0,0,0,0,0,0,-1,1721,827,0,0
504,197,0,0,0,0,0,0,0,0,0,-1,1728,827,0,0
511,197,0,0,0,0,0,0,0,0,0,-1,1735,827,0,0
518,197,0,0,0,0,0,0,0,0,0,-1,1742,827,0,0
525,197,0,0,0,0,0,0,0,0,0,-1,1749,827,0,0
532,197,0,0,0,0,0,0,0,0,0,-1,1756,827,0,0
539,197,0,0,0,0,0,0,0,0,0,-1,1763,827,0,0
546,197,0,0,0,0,0,0,0,0,0,-1,1770,827,0,0
553,197,0,0,0,0,0,0,0,0,0,-1,1777,827,0,0
560,197,0,0,0,0,0,0,0,0,0,-1,1784,827,0,0
567,197,0,0,0,0,0,0,0,0,0,-1,1791,827,0,0
574,197,0,0,0,0,0,0,0,0,0,-1,1798,827,0,0
581,197,0,0,0,0,0,0,0,0,0,-1,1805,827,0,0
588,197,0,0,0,0,0,0,0,0,0,-1,1812,827,0,0
595,197,0,0,0,0,0,0,0,0,0,-1,1819,827,0,0
602,197,46.8877,2.59009,-0.00452989,-0.00395547,-0.00349553,-0.000735373,-0.00774999,-0.826388,0.00493982,0.0400353,1826,827,46.8877,-2.59006
609,197,46.8906,2.62317,-0.00255112,-0.000996034,-0.00128233,-0.000273926,-0.00327323,-1.05794,0.00209682,0.0390382,1833,827,46.8907,-2.62319
616,197,46.7701,2.6098,-0.000509805,0.00147486,0.000667253,0.00167834,-0.000713277,1.27481,0.00141778,0.036352,1840,827,46.7702,-2.60978
623,197,46.6754,2.56665,0.000678686,0.00273274,0.00168104,0.00367566,-0.000264227,1.05961,0.00254309,0.033684,1847,827,46.6754,-2.56667
630,197,46.7601,2.62689,0.000958051,0.00316554,0.00186234,0.00422664,-0.000103053,1.0529,0.00285273,0.0291148,1854,827,46.7601,-2.62688
637,197,46.8413,2.65967,0.000618376,0.00287921,0.00152568,0.00364762,-0.000150034,1.10423,0.00248327,0.0277019,1861,827,46.8414,-2.65964
644,197,46.8875,2.67932,7.95857e-05,0.00227725,0.00107695,0.00271701,-0.000360172,1.18313,0.00194256,0.0346958,1868,827,46.8875,-2.67932
651,197,46.9369,2.80139,0,0,0,0,0,0,0,-1,1875,827,46.9369,-2.8014
658,197,40.4694,3.05927,0,0,0,0,0,0,0,-1,1882,827,40.4694,-3.05926
665,197,14.0618,1.80304,0,0,0,0,0,0,0,-1,1889,827,14.0617,-1.80303
672,197,33.3518,0.135193,0,0,0,0,0,0,0,-1,1896,827,33.3518,-0.135171
679,197,36.0969,0.509155,0,0,0,0,0,0,0,-1,1903,827,36.0969,-0.50915
686,197,36.1719,1.36627,-0.00195539,-0.000558411,-0.00120307,0.000134239,-0.00264804,-1.04841,0.00181177,0.0319734,1910,827,36.1719,-1.36626
693,197,36.089,1.93488,-0.00210987,-0.000698943,-0.00131683,8.94888e-05,-0.0028983,-1.03131,0.00196271,0.0191187,1917,827,36.0889,-1.93485
700,197,36.0599,2.44318,-0.00194954,-0.000365691,-0.00111117,0.000206875,-0.00252211,-1.095,0.00175443,0.02248,1924,827,36.06,-2.44317
707,197,36.1217,2.97552,-0.00125737,0.00056838,-0.000509256,0.00070082,-0.00138981,-1.31637,0.00122868,0.0103339,1931,827,36.1217,-2.97552
714,197,36.1006,3.50067,-0.000368218,0.00227977,0.000550729,0.00238974,-0.000478191,1.3737,0.00177417,0.0126594,1938,827,36.1006,-3.50064
721,197,36.0583,4.00458,0.000718857,0.00471252,0.00204311,0.00557254,-0.000141165,1.17237,0.00376297,0.0128781,1945,827,36.0584,-4.00457
728,197,36.0239,4.52161,0.00186706,0.00767451,0.00383068,0.00957763,-3.60571e-05,1.1097,0.00639714,0.0117194,1952,827,36.0239,-4.5216
735,197,35.9854,5.07202,0.00303695,0.0113412,0.00592095,0.0144208,-4.26425e-05,1.09118,0.00962813,0.012046,1959,827,35.9853,-5.072
742,197,35.9525,5.64905,0.00432532,0.0160102,0.00852807,0.0205052,-0.00016966,1.08572,0.013727,0.0215297,1966,827,35.9526,-5.64904
749,197,35.9171,6.55182,0.00586019,0.022026,0.0118603,0.0282958,-0.0004096,1.0845,0.0190018,0.04398,1973,827,35.9172,-6.55182
756,197,35.8411,7.4538,0.0079298,0.029776,0.0161053,0.038313,-0.000607185,1.08338,0.0257468,0.0493089,1980,827,35.8411,-7.4538
763,197,35.793,8.28955,0,0,0,0,0,0,0,-1,1987,827,35.793,-8.28957
770,197,35.5985,7.97974,0,0,0,0,0,0,0,-1,1994,827,35.5985,-7.97976
777,197,0,0,0,0,0,0,0,0,0,-1,2001,827,0,0
784,197,0,0,0,0,0,0,0,0,0,-1,2008,827,0,0
791,197,0,0,0,0,0,0,0,0,0,-1,2015,827,0,0
798,197,0,0,0,0,0,0,0,0,0,-1,2022,827,0,0
805,197,0,0,0,0,0,0,0,0,0,-1,2029,827,0,0
812,197,0,0,0,0,0,0,0,0,0,-1,2036,827,0,0
-700,190,0,0,0,0,0,0,0,0,0,-1,524,834,0,0
-693,190,0,0,0,0,0,0,0,0,0,-1,531,834,0,0
-686,190,0,0,0,0,0,0,0,0,0,-1,538,834,0,0
-679,190,0,0,0,0,0,0,0,0,0,-1,545,834,0,0
-672,190,0,0,0,0,0,0,0,0,0,-1,552,834,0,0
-665,190,0,0,0,0,0,0,0,0,0,-1,559,834,0,0
-658,190,-29.6046,6.81848,0,0,0,0,0,0,0,-1,566,834,-29.6046,-6.81848
-651,190,-29.3401,5.43561,0,0,0,0,0,0,0,-1,573,834,-29.3401,-5.43559
-644,190,-29.4637,5.23157,0,0,0,0,0,0,0,-1,580,834,-29.4637,-5.23155
-637,190,-26.2308,5.63983,0,0,0,0,0,0,0,-1,587,834,-26.2308,-5.63981
-630,190,-25.6833,5.11017,0,0,0,0,0,0,0,-1,594,834,-25.6833,-5.11014
-623,190,-26.0948,3.76801,0,0,0,0,0,0,0,-1,601,834,-26.0948,-3.76803
-616,190,-26.1066,3.32343,-0.000440662,-0.0090454,0.00872448,0.00498461,-0.0144707,0.556327,0.0116691,0.0460644,608,834,-26.1066,-3.32341
-609,190,-26.1016,2.89905,0.00160089,-0.00287721,0.00605095,0.00581377,-0.00709008,0.608194,0.00746218,0.0249307,615,834,-26.1016,-2.89906
-602,190,-26.1188,2.44379,0.00258607,0.000789043,0.00365091,0.00544741,-0.00207229,0.664742,0.0044849,0.0167939,622,834,-26.1188,-2.44377
-595,190,-26.1499,1.94714,0.00227245,0.00125748,0.00240057,0.00421859,-0.000688661,0.681231,0.00306782,0.0195771,629,834,-26.1499,-1.94716
-588,190,-26.1694,1.42938,0.00173491,0.000282804,0.00195511,0.00309443,-0.00107671,0.607609,0.00250036,0.0189476,636,834,-26.1694,-1.42936
-581,190,-26.1749,0.915588,0.00132135,-0.000281684,0.00165509,0.00235878,-0.00131912,0.559905,0.00215153,0.013474,643,834,-26.175,-0.9156
-574,190,-26.16,0.429077,0.000890441,-0.000776069,0.00133317,0.00162933,-0.00151496,0.506092,0.00181576,0.0119639,650,834,-26.1599,-0.429072
-567,190,-26.0782,-0.123535,0.000711787,-0.000963423,0.00141918,0.00152211,-0.00177374,0.518806,0.00190471,0.0216267,657,834,-26.0782,0.123548
-560,190,-26.1872,-0.563721,0.0006525,-0.000878346,0.00153805,0.00160506,-0.00183091,0.554512,0.00198519,0.0434669,664,834,-26.1872,0.563733
-553,190,-26.3141,-0.99292,0.000528325,-0.000650747,0.00173385,0.00177012,-0.00189254,0.621522,0.00211503,0.036267,671,834,-26.3141,0.992905
-546,190,-25.8929,-1.25824,0,0,0,0,0,0,0,-1,678,834,-25.893,1.25824
-539,190,-16.4624,-0.542542,0,0,0,0,0,0,0,-1,685,834,-16.4624,0.542527
-532,190,-21.6292,2.06122,0,0,0,0,0,0,0,-1,692,834,-21.6292,-2.06123
-525,190,-35.4673,0.321106,0,0,0,0,0,0,0,-1,699,834,-35.4673,-0.321117
-518,190,-35.3588,0.616455,0.00065842,0.00109294,0.00345095,0.00433346,-0.0025821,0.816835,0.00403515,0.0459361,706,834,-35.3588,-0.616448
-511,190,-35.3182,0.817932,0.000682126,0.00159718,0.00377261,0.00493991,-0.0026606,0.845741,0.00445345,0.0370775,713,834,-35.3182,-0.817951
-504,190,-35.4128,0.898987,0.00117758,0.0022441,0.00385083,0.00559842,-0.00217673,0.8542,0.00463162,0.0372212,720,834,-35.4128,-0.898995
-497,190,-35.4882,1.133,0.00203576,0.00275738,0.00317689,0.00559389,-0.000800748,0.841943,0.00402283,0.0403915,727,834,-35.4882,-1.13299
-490,190,-35.3427,1.2431,0.0035241,0.00299202,0.00109798,0.00438782,0.00212831,0.66654,0.00253369,0.0399297,734,834,-35.3427,-1.24312
-483,190,0,0,0,0,0,0,0,0,0,-1,741,834,0,0
-476,190,0,0,0,0,0,0,0,0,0,-1,748,834,0,0
-469,190,0,0,0,0,0,0,0,0,0,-1,755,834,0,0
-462,190,0,0,0,0,0,0,0,0,0,-1,762,834,0,0
-455,190,0,0,0,0,0,0,0,0,0,-1,769,834,0,0
-448,190,0,0,0,0,0,0,0,0,0,-1,776,834,0,0
-441,190,0,0,0,0,0,0,0,0,0,-1,783,834,0,0
-434,190,0,0,0,0,0,0,0,0,0,-1,790,834,0,0
-427,190,0,0,0,0,0,0,0,0,0,-1,797,834,0,0
-420,190,0,0,0,0,0,0,0,0,0,-1,804,834,0,0
-413,190,0,0,0,0,0,0,0,0,0,-1,811,834,0,0
-406,190,0,0,0,0,0,0,0,0,0,-1,818,834,0,0
-399,190,0,0,0,0,0,0,0,0,0,-1,825,834,0,0
-392,190,0,0,0,0,0,0,0,0,0,-1,832,834,0,0
-385,190,0,0,0,0,0,0,0,0,0,-1,839,834,0,0
-378,190,0,0,0,0,0,0,0,0,0,-1,846,834,0,0
-371,190,0,0,0,0,0,0,0,0,0,-1,853,834,0,0
-364,190,0,0,0,0,0,0,0,0,0,-1,860,834,0,0
-357,190,0,0,0,0,0,0,0,0,0,-1,867,834,0,0
-350,190,0,0,0,0,0,0,0,0,0,-1,874,834,0,0
-343,190,0,0,0,0,0,0,0,0,0,-1,881,834,0,0
-336,190,0,0,0,0,0,0,0,0,0,-1,888,834,0,0
-329,190,0,0,0,0,0,0,0,0,0,-1,895,834,0,0
-322,190,0,0,0,0,0,0,0,0,0,-1,902,834,0,0
-315,190,0,0,0,0,0,0,0,0,0,-1,909,834,0,0
-308,190,0,0,0,0,0,0,0,0,0,-1,916,834,0,0
-301,190,0,0,0,0,0,0,0,0,0,-1,923,834,0,0
-294,190,0,0,0,0,0,0,0,0,0,-1,930,834,0,0
-287,190,0,0,0,0,0,0,0,0,0,-1,937,834,0,0
-280,190,0,0,0,0,0,0,0,0,0,-1,944,834,0,0
-273,190,0,0,0,0,0,0,0,0,0,-1,951,834,0,0
-266,190,0,0,0,0,0,0,0,0,0,-1,958,834,0,0
-259,190,0,0,0,0,0,0,0,0,0,-1,965,834,0,0
-252,190,0,0,0,0,0,0,0,0,0,-1,972,834,0,0
-245,190,0,0,0,0,0,0,0,0,0,-1,979,834,0,0
-238,190,0,0,0,0,0,0,0,0,0,-1,986,834,0,0
-231,190,0,0,0,0,0,0,0,0,0,-1,993,834,0,0
-224,190,0,0,0,0,0,0,0,0,0,-1,1000,834,0,0
-217,190,0,0,0,0,0,0,0,0,0,-1,1007,834,0,0
-210,190,0,0,0,0,0,0,0,0,0,-1,1014,834,0,0
-203,190,0,0,0,0,0,0,0,0,0,-1,1021,834,0,0
-196,190,0,0,0,0,0,0,0,0,0,-1,1028,834,0,0
-189,190,0,0,0,0,0,0,0,0,0,-1,1035,834,0,0
-182,190,0,0,0,0,0,0,0,0,0,-1,1042,834,0,0
-175,190,0,0,0,0,0,0,0,0,0,-1,1049,834,0,0
-168,190,0,0,0,0,0,0,0,0,0,-1,1056,834,0,0
-161,190,0,0,0,0,0,0,0,0,0,-1,1063,834,0,0
-154,190,0,0,0,0,0,0,0,0,0,-1,1070,834,0,0
-147,190,0,0,0,0,0,0,0,0,0,-1,1077,834,0,0
-140,190,0,0,0,0,0,0,0,0,0,-1,1084,834,0,0
-133,190,0,0,0,0,0,0,0,0,0,-1,1091,834,0,0
-126,190,0,0,0,0,0,0,0,0,0,-1,1098,834,0,0
-119,190,0,0,0,0,0,0,0,0,0,-1,1105,834,0,0
-112,190,0,0,0,0,0,0,0,0,0,-1,1112,834,0,0
-105,190,0,0,0,0,0,0,0,0,0,-1,1119,834,0,0
-98,190,0,0,0,0,0,0,0,0,0,-1,1126,834,0,0
-91,190,0,0,0,0,0,0,0,0,0,-1,1133,834,0,0
-84,190,0,0,0,0,0,0,0,0,0,-1,1140,834,0,0
-77,190,0,0,0,0,0,0,0,0,0,-1,1147,834,0,0
-70,190,0,0,0,0,0,0,0,0,0,-1,1154,834,0,0
-63,190,0,0,0,0,0,0,0,0,0,-1,1161,834,0,0
-56,190,0,0,0,0,0,0,0,0,0,-1,1168,834,0,0
-49,190,0,0,0,0,0,0,0,0,0,-1,1175,834,0,0
-42,190,0,0,0,0,0,0,0,0,0,-1,1182,834,0,0
-35,190,0,0,0,0,0,0,0,0,0,-1,1189,834,0,0
-28,190,0,0,0,0,0,0,0,0,0,-1,1196,834,0,0
-21,190,0,0,0,0,0,0,0,0,0,-1,1203,834,0,0
-14,190,0,0,0,0,0,0,0,0,0,-1,1210,834,0,0
-7,190,0,0,0,0,0,0,0,0,0,-1,1217,834,0,0
0,190,0,0,0,0,0,0,0,0,0,-1,1224,834,0,0
7,190,0,0,0,0,0,0,0,0,0,-1,1231,834,0,0
14,190,0,0,0,0,0,0,0,0,0,-1,1238,834,0,0
21,190,0,0,0,0,0,0,0,0,0,-1,1245,834,0,0
28,190,0,0,0,0,0,0,0,0,0,-1,1252,834,0,0
35,190,0,0,0,0,0,0,0,0,0,-1,1259,834,0,0
42,190,0,0,0,0,0,0,0,0,0,-1,1266,834,0,0
49,190,0,0,0,0,0,0,0,0,0,-1,1273,834,0,0
56,190,0,0,0,0,0,0,0,0,0,-1,1280,834,0,0
63,190,0,0,0,0,0,0,0,0,0,-1,1287,834,0,0
70,190,0,0,0,0,0,0,0,0,0,-1,1294,834,0,0
77,190,0,0,0,0,0,0,0,0,0,-1,1301,834,0,0
84,190,0,0,0,0,0,0,0,0,0,-1,1308,834,0,0
91,190,0,0,0,0,0,0,0,0,0,-1,1315,834,0,0
98,190,0,0,0,0,0,0,0,0,0,-1,1322,834,0,0
105,190,0,0,0,0,0,0,0,0,0,-1,1329,834,0,0
112,190,0,0,0,0,0,0,0,0,0,-1,1336,834,0,0
119,190,0,0,0,0,0,0,0,0,0,-1,1343,834,0,0
126,190,0,0,0,0,0,0,0,0,0,-1,1350,834,0,0
133,190,0,0,0,0,0,0,0,0,0,-1,1357,834,0,0
140,190,0,0,0,0,0,0,0,0,0,-1,1364,834,0,0
147,190,0,0,0,0,0,0,0,0,0,-1,1371,834,0,0
154,190,0,0,0,0,0,0,0,0,0,-1,1378,834,0,0
161,190,0,0,0,0,0,0,0,0,0,-1,1385,834,0,0
168,190,0,0,0,0,0,0,0,0,0,-1,1392,834,0,0
175,190,0,0,0,0,0,0,0,0,0,-1,1399,834,0,0
182,190,0,0,0,0,0,0,0,0,0,-1,1406,834,0,0
189,190,0,0,0,0,0,0,0,0,0,-1,1413,834,0,0
196,190,0,0,0,0,0,0,0,0,0,-1,1420,834,0,0
203,190,0,0,0,0,0,0,0,0,0,-1,1427,834,0,0
210,190,0,0,0,0,0,0,0,0,0,-1,1434,834,0,0
217,190,0,0,0,0,0,0,0,0,0,-1,1441,834,0,0
224,190,0,0,0,0,0,0,0,0,0,-1,1448,834,0,0
231,190,0,0,0,0,0,0,0,0,0,-1,1455,834,0,0
238,190,0,0,0,0,0,0,0,0,0,-1,1462,834,0,0
245,190,0,0,0,0,0,0,0,0,0,-1,1469,834,0,0
252,190,0,0,0,0,0,0,0,0,0,-1,1476,834,0,0
259,190,0,0,0,0,0,0,0,0,0,-1,1483,834,0,0
266,190,0,0,0,0,0,0,0,0,0,-1,1490,834,0,0
273,190,0,0,0,0,0,0,0,0,0,-1,1497,834,0,0
280,190,0,0,0,0,0,0,0,0,0,-1,1504,834,0,0
287,190,0,0,0,0,0,0,0,0,0,-1,1511,834,0,0
294,190,0,0,0,0,0,0,0,0,0,-1,1518,834,0,0
301,190,0,0,0,0,0,0,0,0,0,-1,1525,834,0,0
308,190,0,0,0,0,0,0,0,0,0,-1,1532,834,0,0
315,190,0,0,0,0,0,0,0,0,0,-1,1539,834,0,0
322,190,0,0,0,0,0,0,0,0,0,-1,1546,834,0,0
329,190,0,0,0,0,0,0,0,0,0,-1,1553,834,0,0
336,190,0,0,0,0,0,0,0,0,0,-1,1560,834,0,0
343,190,0,0,0,0,0,0,0,0,0,-1,1567,834,0,0
350,190,0,0,0,0,0,0,0,0,0,-1,1574,834,0,0
357,190,0,0,0,0,0,0,0,0,0,-1,1581,834,0,0
364,190,0,0,0,0,0,0,0,0,0,-1,1588,834,0,0
371,190,0,0,0,0,0,0,0,0,0,-1,1595,834,0,0
378,190,0,0,0,0,0,0,0,0,0,-1,1602,834,0,0
385,190,0,0,0,0,0,0,0,0,0,-1,1609,834,0,0
392,190,0,0,0,0,0,0,0,0,0,-1,1616,834,0,0
399,190,0,0,0,0,0,0,0,0,0,-1,1623,834,0,0
406,190,0,0,0,0,0,0,0,0,0,-1,1630,834,0,0
413,190,0,0,0,0,0,0,0,0,0,-1,1637,834,0,0
420,190,0,0,0,0,0,0,0,0,0,-1,1644,834,0,0
427,190,0,0,0,0,0,0,0,0,0,-1,1651,834,0,0
434,190,0,0,0,0,0,0,0,0,0,-1,1658,834,0,0
441,190,0,0,0,0,0,0,0,0,0,-1,1665,834,0,0
448,190,0,0,0,0,0,0,0,0,0,-1,1672,834,0,0
455,190,0,0,0,0,0,0,0,0,0,-1,1679,834,0,0
462,190,0,0,0,0,0,0,0,0,0,-1,1686,834,0,0
469,190,0,0,0,0,0,0,0,0,0,-1,1693,834,0,0
476,190,0,0,0,0,0,0,0,0,0,-1,1700,834,0,0
483,190,0,0,0,0,0,0,0,0,0,-1,1707,834,0,0
490,190,0,0,0,0,0,0,0,0,0,-1,1714,834,0,0
497,190,0,0,0,0,0,0,0,0,0,-1,1721,834,0,0
504,190,0,0,0,0,0,0,0,0,0,-1,1728,834,0,0
511,190,0,0,0,0,0,0,0,0,0,-1,1735,834,0,0
518,190,0,0,0,0,0,0,0,0,0,-1,1742,834,0,0
525,190,0,0,0,0,0,0,0,0,0,-1,1749,834,0,0
532,190,0,0,0,0,0,0,0,0,0,-1,1756,834,0,0
539,190,0,0,0,0,0,0,0,0,0,-1,1763,834,0,0
546,190,0,0,0,0,0,0,0,0,0,-1,1770,834,0,0
553,190,0,0,0,0,0,0,0,0,0,-1,1777,834,0,0
560,190,0,0,0,0,0,0,0,0,0,-1,1784,834,0,0
567,190,0,0,0,0,0,0,0,0,0,-1,1791,834,0,0
574,190,0,0,0,0,0,0,0,0,0,-1,1798,834,0,0
581,190,0,0,0,0,0,0,0,0,0,-1,1805,834,0,0
588,190,0,0,0,0,0,0,0,0,0,-1,1812,834,0,0
595,190,0,0,0,0,0,0,0,0,0,-1,1819,834,0,0
602,190,46.8723,2.65857,-0.00570667,-0.00553025,-0.00534388,-0.000273856,-0.0109631,-0.793651,0.00721916,0.0428,1826,834,46.8723,-2.65857
609,190,46.9115,2.69568,-0.00364725,-0.00268456,-0.0031103,-1.85738e-05,-0.00631323,-0.862168,0.00420264,0.0390665,1833,834,46.9115,-2.69568
616,190,46.714,2.49677,-0.00147186,-0.000126507,-0.000986095,0.000394499,-0.00199286,-1.08472,0.00147773,0.0374425,1840,834,46.714,-2.49675
623,190,46.6729,2.53674,6.35938e-05,0.00153711,0.000500621,0.0016911,-9.03976e-05,1.27238,0.00115871,0.0360322,1847,834,46.6728,-2.53677
630,190,46.8054,2.59845,0.000664756,0.00239057,0.00111292,0.00293592,0.000119404,1.11516,0.00191872,0.0391883,1854,834,46.8054,-2.59844
637,190,46.8444,2.64587,0.000483718,0.00238789,0.00104768,0.00285146,2.01424e-05,1.15421,0.0018943,0.0349716,1861,834,46.8444,-2.64588
644,190,46.8362,2.68799,-6.49113e-07,0.00195127,0.000745256,0.00220328,-0.000252657,1.24472,0.00155991,0.0281991,1868,834,46.8362,-2.68797
651,190,46.8461,2.86029,-0.00037948,0.00142,0.000424608,0.00151516,-0.000474639,1.35033,0.00120003,0.0406743,1875,834,46.8461,-2.86029
658,190,46.8579,3.04523,0,0,0,0,0,0,0,-1,1882,834,46.8579,-3.04523
665,190,25.9916,3.05157,0,0,0,0,0,0,0,-1,1889,834,25.9916,-3.05156
672,190,27.2662,1.70862,0,0,0,0,0,0,0,-1,1896,834,27.2662,-1.70861
679,190,36.7385,1.05383,0,0,0,0,0,0,0,-1,1903,834,36.7385,-1.05386
686,190,36.6593,1.48657,-0.00200935,-0.000351797,-0.0011107,0.000205258,-0.0025664,-1.10592,0.0017833,0.0264,1910,834,36.6592,-1.48656
693,190,36.6945,1.96814,-0.00222446,-0.000545438,-0.00124167,0.000113888,-0.00288379,-1.08266,0.00196159,0.0185912,1917,834,36.6944,-1.96817
700,190,36.583,2.46692,-0.00218008,-0.000329519,-0.00113311,0.000208106,-0.0027177,-1.12778,0.001885,0.0126353,1924,834,36.5831,-2.4669
707,190,36.6162,2.9942,-0.00162541,0.000377708,-0.000739041,0.000620858,-0.00186856,-1.25294,0.00149623,0.0135957,1931,834,36.6163,-2.99417
714,190,36.6183,3.5014,-0.000852591,0.00183445,9.17898e-05,0.00183758,-0.000855723,1.53669,0.00158905,0.0121846,1938,834,36.6183,-3.50143
721,190,36.6001,4.0224,0.000136116,0.00399963,0.00134925,0.00442417,-0.000288426,1.26595,0.00305014,0.011445,1945,834,36.6001,-4.0224
728,190,36.5699,4.53241,0.00124608,0.00668399,0.0029126,0.0079495,-1.94288e-05,1.16091,0.00530616,0.0136722,1952,834,36.57,-4.53244
735,190,36.5498,5.04425,0.00242647,0.0099965,0.0047474,0.0122831,0.000139896,1.12194,0.00814248,0.0126511,1959,834,36.5498,-5.04423
742,190,36.4963,5.64447,0.00373527,0.0141392,0.00701462,0.0176702,0.000204228,1.10445,0.0117127,0.0166444,1966,834,36.4963,-5.64444
749,190,36.4362,6.41925,0.00530489,0.019383,0.00989807,0.0244897,0.000198162,1.09448,0.0162608,0.0388538,1973,834,36.4361,-6.41926
756,190,36.3435,7.19055,0.00743742,0.0261428,0.0136646,0.0333489,0.000231341,1.0855,0.0221559,0.0483937,1980,834,36.3435,-7.19054
763,190,36.26,7.90924,0,0,0,0,0,0,0,-1,1987,834,36.2601,-7.90922
770,190,36.8949,7.85333,0,0,0,0,0,0,0,-1,1994,834,36.8949,-7.85333
777,190,37.3125,9.35968,0,0,0,0,0,0,0,-1,2001,834,37.3125,-9.3597
784,190,0,0,0,0,0,0,0,0,0,-1,2008,834,0,0
791,190,0,0,0,0,0,0,0,0,0,-1,2015,834,0,0
798,190,0,0,0,0,0,0,0,0,0,-1,2022,834,0,0
805,190,0,0,0,0,0,0,0,0,0,-1,2029,834,0,0
812,190,0,0,0,0,0,0,0,0,0,-1,2036,834,0,0
-700,183,0,0,0,0,0,0,0,0,0,-1,524,841,0,0
-693,183,0,0,0,0,0,0,0,0,0,-1,531,841,0,0
-686,183,0,0,0,0,0,0,0,0,0,-1,538,841,0,0
-679,183,0,0,0,0,0,0,0,0,0,-1,545,841,0,0
-672,183,0,0,0,0,0,0,0,0,0,-1,552,841,0,0
-665,183,0,0,0,0,0,0,0,0,0,-1,559,841,0,0
-658,183,-28.3281,4.81165,0,0,0,0,0,0,0,-1,566,841,-28.3281,-4.81166
-651,183,-28.4729,4.60718,0,0,0,0,0,0,0,-1,573,841,-28.4729,-4.60715
-644,183,-28.6149,4.37231,0,0,0,0,0,0,0,-1,580,841,-28.6149,-4.3723
-637,183,-27.7303,3.17352,0,0,0,0,0,0,0,-1,587,841,-27.7303,-3.17353
-630,183,-26.6199,4.20642,0,0,0,0,0,0,0,-1,594,841,-26.6199,-4.20642
-623,183,-26.6299,3.74408,-0.00460974,-0.016577,0.0133834,0.00406679,-0.0252535,0.575182,0.0183422,0.0494451,601,841,-26.6299,-3.74406
-616,183,-26.6215,3.33203,-0.00264648,-0.0102409,0.0101457,0.00438929,-0.0172767,0.606333,0.0132259,0.039054,608,841,-26.6215,-3.33201
-609,183,-26.6004,2.92059,-7.62228e-05,-0.00416487,0.00728651,0.00544731,-0.0096884,0.648633,0.00885222,0.0170752,615,841,-26.6004,-2.92062
-602,183,-26.6182,2.45801,0.00142744,-0.000115372,0.00462913,0.005349,-0.00403693,0.702836,0.00543659,0.0118927,622,841,-26.6182,-2.45798
-595,183,-26.6495,1.94733,0.0014377,0.000611606,0.00315639,0.00420796,-0.00215865,0.720337,0.0037387,0.0122155,629,841,-26.6495,-1.94731
-588,183,-26.6592,1.43134,0.00110539,-0.000255013,0.00253954,0.00305424,-0.00220387,0.654547,0.00304898,0.0141332,636,841,-26.6592,-1.43136
-581,183,-26.6943,0.950134,0.000929224,-0.000701465,0.00205298,0.00232284,-0.00209508,0.596374,0.00255182,0.0148359,643,841,-26.6943,-0.950109
-574,183,-26.6776,0.485168,0.000691084,-0.000956701,0.00153962,0.0016134,-0.00187901,0.539722,0.00201829,0.014469,650,841,-26.6775,-0.485175
-567,183,-26.5101,-0.00567627,0.000654193,-0.00101875,0.00150664,0.00154099,-0.00190554,0.531989,0.00199356,0.0437715,657,841,-26.5102,0.00570427
-560,183,-26.7218,-0.461182,0.000669514,-0.000878703,0.0015477,0.00162591,-0.0018351,0.553508,0.00199943,0.0496041,664,841,-26.7218,0.461164
-553,183,-26.5989,-1.1236,0.000545199,-0.000686983,0.00166066,0.00170037,-0.00184216,0.607773,0.00204582,0.0455754,671,841,-26.5989,1.12359
-546,183,-25.7393,-1.56714,0,0,0,0,0,0,0,-1,678,841,-25.7393,1.56711
-539,183,-16.8032,-0.417297,0,0,0,0,0,0,0,-1,685,841,-16.8032,0.41732
-532,183,-29.9686,0.953613,0,0,0,0,0,0,0,-1,692,841,-29.9686,-0.953627
-525,183,-35.6586,0.0776367,0,0,0,0,0,0,0,-1,699,841,-35.6586,-0.0776166
-518,183,-35.4824,0.46167,0.000924856,0.00094009,0.00297083,0.00390331,-0.00203837,0.78668,0.0034863,0.0482617,706,841,-35.4824,-0.4617
-511,183,-35.2586,0.830627,0.00111813,0.00131128,0.00327804,0.00449417,-0.00206476,0.800125,0.00387242,0.039596,713,841,-35.2586,-0.830609
-504,183,-35.2652,0.856934,0.00195639,0.00169749,0.00334318,0.00517263,-0.00151874,0.766048,0.00405071,0.0400936,720,841,-35.2652,-0.85696
-497,183,-35.4813,0.811401,0.00336676,0.00172874,0.00258297,0.00525746,-0.000161956,0.631872,0.00356018,0.0418105,727,841,-35.4812,-0.811419
-490,183,-35.1396,1.08667,0.00572821,0.000895465,0.000562184,0.00579275,0.000830929,0.114295,0.00361681,0.0391573,734,841,-35.1397,-1.08668
-483,183,0,0,0,0,0,0,0,0,0,-1,741,841,0,0
-476,183,0,0,0,0,0,0,0,0,0,-1,748,841,0,0
-469,183,0,0,0,0,0,0,0,0,0,-1,755,841,0,0
-462,183,0,0,0,0,0,0,0,0,0,-1,762,841,0,0
-455,183,0,0,0,0,0,0,0,0,0,-1,769,841,0,0
-448,183,0,0,0,0,0,0,0,0,0,-1,776,841,0,0
-441,183,0,0,0,0,0,0,0,0,0,-1,783,841,0,0
-434,183,0,0,0,0,0,0,0,0,0,-1,790,841,0,0
-427,183,0,0,0,0,0,0,0,0,0,-1,797,841,0,0
-420,183,0,0,0,0,0,0,0,0,0,-1,804,841,0,0
-413,183,0,0,0,0,0,0,0,0,0,-1,811,841,0,0
-406,183,0,0,0,0,0,0,0,0,0,-1,818,841,0,0
-399,183,0,0,0,0,0,0,0,0,0,-1,825,841,0,0
-392,183,0,0,0,0,0,0,0,0,0,-1,832,841,0,0
-385,183,0,0,0,0,0,0,0,0,0,-1,839,841,0,0
-378,183,0,0,0,0,0,0,0,0,0,-1,846,841,0,0
-371,183,0,0,0,0,0,0,0,0,0,-1,853,841,0,0
-364,183,0,0,0,0,0,0,0,0,0,-1,860,841,0,0
-357,183,0,0,0,0,0,0,0,0,0,-1,867,841,0,0
-350,183,0,0,0,0,0,0,0,0,0,-1,874,841,0,0
-343,183,0,0,0,0,0,0,0,0,0,-1,881,841,0,0
-336,183,0,0,0,0,0,0,0,0,0,-1,888,841,0,0
-329,183,0,0,0,0,0,0,0,0,0,-1,895,841,0,0
-322,183,0,0,0,0,0,0,0,0,0,-1,902,841,0,0
-315,183,0,0,0,0,0,0,0,0,0,-1,909,841,0,0
-308,183,0,0,0,0,0,0,0,0,0,-1,916,841,0,0
-301,183,0,0,0,0,0,0,0,0,0,-1,923,841,0,0
-294,183,0,0,0,0,0,0,0,0,0,-1,930,841,0,0
-287,183,0,0,0,0,0,0,0,0,0,-1,937,841,0,0
-280,183,0,0,0,0,0,0,0,0,0,-1,944,841,0,0
-273,183,0,0,0,0,0,0,0,0,0,-1,951,841,0,0
-266,183,0,0,0,0,0,0,0,0,0,-1,958,841,0,0
-259,183,0,0,0,0,0,0,0,0,0,-1,965,841,0,0
-252,183,0,0,0,0,0,0,0,0,0,-1,972,841,0,0
-245,183,0,0,0,0,0,0,0,0,0,-1,979,841,0,0
-238,183,0,0,0,0,0,0,0,0,0,-1,986,841,0,0
-231,183,0,0,0,0,0,0,0,0,0,-1,993,841,0,0
-224,183,0,0,0,0,0,0,0,0,0,-1,1000,841,0,0
-217,183,0,0,0,0,0,0,0,0,0,-1,1007,841,0,0
-210,183,0,0,0,0,0,0,0,0,0,-1,1014,841,0,0
-203,183,0,0,0,0,0,0,0,0,0,-1,1021,841,0,0
-196,183,0,0,0,0,0,0,0,0,0,-1,1028,841,0,0
-189,183,0,0,0,0,0,0,0,0,0,-1,1035,841,0,0
-182,183,0,0,0,0,0,0,0,0,0,-1,1042,841,0,0
-175,183,0,0,0,0,0,0,0,0,0,-1,1049,841,0,0
-168,183,0,0,0,0,0,0,0,0,0,-1,1056,841,0,0
-161,183,0,0,0,0,0,0,0,0,0,-1,1063,841,0,0
-154,183,0,0,0,0,0,0,0,0,0,-1,1070,841,0,0
-147,183,0,0,0,0,0,0,0,0,0,-1,1077,841,0,0
-140,183,0,0,0,0,0,0,0,0,0,-1,1084,841,0,0
-133,183,0,0,0,0,0,0,0,0,0,-1,1091,841,0,0
-126,183,0,0,0,0,0,0,0,0,0,-1,1098,841,0,0
-119,183,0,0,0,0,0,0,0,0,0,-1,1105,841,0,0
-112,183,0,0,0,0,0,0,0,0,0,-1,1112,841,0,0
-105,183,0,0,0,0,0,0,0,0,0,-1,1119,841,0,0
-98,183,0,0,0,0,0,0,0,0,0,-1,1126,841,0,0
-91,183,0,0,0,0,0,0,0,0,0,-1,1133,841,0,0
-84,183,0,0,0,0,0,0,0,0,0,-1,1140,841,0,0
-77,183,0,0,0,0,0,0,0,0,0,-1,1147,841,0,0
-70,183,0,0,0,0,0,0,0,0,0,-1,1154,841,0,0
-63,183,0,0,0,0,0,0,0,0,0,-1,1161,841,0,0
-56,183,0,0,0,0,0,0,0,0,0,-1,1168,841,0,0
-49,183,0,0,0,0,0,0,0,0,0,-1,1175,841,0,0
-42,183,0,0,0,0,0,0,0,0,0,-1,1182,841,0,0
-35,183,0,0,0,0,0,0,0,0,0,-1,1189,841,0,0
-28,183,0,0,0,0,0,0,0,0,0,-1,1196,841,0,0
-21,183,0,0,0,0,0,0,0,0,0,-1,1203,841,0,0
-14,183,0,0,0,0,0,0,0,0,0,-1,1210,841,0,0
-7,183,0,0,0,0,0,0,0,0,0,-1,1217,841,0,0
0,183,0,0,0,0,0,0,0,0,0,-1,1224,841,0,0
7,183,0,0,0,0,0,0,0,0,0,-1,1231,841,0,0
14,183,0,0,0,0,0,0,0,0,0,-1,1238,841,0,0
21,183,0,0,0,0,0,0,0,0,0,-1,1245,841,0,0
28,183,0,0,0,0,0,0,0,0,0,-1,1252,841,0,0
35,183,0,0,0,0,0,0,0,0,0,-1,1259,841,0,0
42,183,0,0,0,0,0,0,0,0,0,-1,1266,841,0,0
49,183,0,0,0,0,0,0,0,0,0,-1,1273,841,0,0
56,183,0,0,0,0,0,0,0,0,0,-1,1280,841,0,0
63,183,0,0,0,0,0,0,0,0,0,-1,1287,841,0,0
70,183,0,0,0,0,0,0,0,0,0,-1,1294,841,0,0
77,183,0,0,0,0,0,0,0,0,0,-1,1301,841,0,0
84,183,0,0,0,0,0,0,0,0,0,-1,1308,841,0,0
91,183,0,0,0,0,0,0,0,0,0,-1,1315,841,0,0
98,183,0,0,0,0,0,0,0,0,0,-1,1322,841,0,0
105,183,0,0,0,0,0,0,0,0,0,-1,1329,841,0,0
112,183,0,0,0,0,0,0,0,0,0,-1,1336,841,0,0
119,183,0,0,0,0,0,0,0,0,0,-1,1343,841,0,0
126,183,0,0,0,0,0,0,0,0,0,-1,1350,841,0,0
133,183,0,0,0,0,0,0,0,0,0,-1,1357,841,0,0
140,183,0,0,0,0,0,0,0,0,0,-1,1364,841,0,0
147,183,0,0,0,0,0,0,0,0,0,-1,1371,841,0,0
154,183,0,0,0,0,0,0,0,0,0,-1,1378,841,0,0
161,183,0,0,0,0,0,0,0,0,0,-1,1385,841,0,0
168,183,0,0,0,0,0,0,0,0,0,-1,1392,841,0,0
175,183,0,0,0,0,0,0,0,0,0,-1,1399,841,0,0
182,183,0,0,0,0,0,0,0,0,0,-1,1406,841,0,0
189,183,0,0,0,0,0,0,0,0,0,-1,1413,841,0,0
196,183,0,0,0,0,0,0,0,0,0,-1,1420,841,0,0
203,183,0,0,0,0,0,0,0,0,0,-1,1427,841,0,0
210,183,0,0,0,0,0,0,0,0,0,-1,1434,841,0,0
217,183,0,0,0,0,0,0,0,0,0,-1,1441,841,0,0
224,183,0,0,0,0,0,0,0,0,0,-1,1448,841,0,0
231,183,0,0,0,0,0,0,0,0,0,-1,1455,841,0,0
238,183,0,0,0,0,0,0,0,0,0,-1,1462,841,0,0
245,183,0,0,0,0,0,0,0,0,0,-1,1469,841,0,0
252,183,0,0,0,0,0,0,0,0,0,-1,1476,841,0,0
259,183,0,0,0,0,0,0,0,0,0,-1,1483,841,0,0
266,183,0,0,0,0,0,0,0,0,0,-1,1490,841,0,0
273,183,0,0,0,0,0,0,0,0,0,-1,1497,841,0,0
280,183,0,0,0,0,0,0,0,0,0,-1,1504,841,0,0
287,183,0,0,0,0,0,0,0,0,0,-1,1511,841,0,0
294,183,0,0,0,0,0,0,0,0,0,-1,1518,841,0,0
301,183,0,0,0,0,0,0,0,0,0,-1,1525,841,0,0
308,183,0,0,0,0,0,0,0,0,0,-1,1532,841,0,0
315,183,0,0,0,0,0,0,0,0,0,-1,1539,841,0,0
322,183,0,0,0,0,0,0,0,0,0,-1,1546,841,0,0
329,183,0,0,0,0,0,0,0,0,0,-1,1553,841,0,0
336,183,0,0,0,0,0,0,0,0,0,-1,1560,841,0,0
343,183,0,0,0,0,0,0,0,0,0,-1,1567,841,0,0
350,183,0,0,0,0,0,0,0,0,0,-1,1574,841,0,0
357,183,0,0,0,0,0,0,0,0,0,-1,1581,841,0,0
364,183,0,0,0,0,0,0,0,0,0,-1,1588,841,0,0
371,183,0,0,0,0,0,0,0,0,0,-1,1595,841,0,0
378,183,0,0,0,0,0,0,0,0,0,-1,1602,841,0,0
385,183,0,0,0,0,0,0,0,0,0,-1,1609,841,0,0
392,183,0,0,0,0,0,0,0,0,0,-1,1616,841,0,0
399,183,0,0,0,0,0,0,0,0,0,-1,1623,841,0,0
406,183,0,0,0,0,0,0,0,0,0,-1,1630,841,0,0
413,183,0,0,0,0,0,0,0,0,0,-1,1637,841,0,0
420,183,0,0,0,0,0,0,0,0,0,-1,1644,841,0,0
427,183,0,0,0,0,0,0,0,0,0,-1,1651,841,0,0
434,183,0,0,0,0,0,0,0,0,0,-1,1658,841,0,0
441,183,0,0,0,0,0,0,0,0,0,-1,1665,841,0,0
448,183,0,0,0,0,0,0,0,0,0,-1,1672,841,0,0
455,183,0,0,0,0,0,0,0,0,0,-1,1679,841,0,0
462,183,0,0,0,0,0,0,0,0,0,-1,1686,841,0,0
469,183,0,0,0,0,0,0,0,0,0,-1,1693,841,0,0
476,183,0,0,0,0,0,0,0,0,0,-1,1700,841,0,0
483,183,0,0,0,0,0,0,0,0,0,-1,1707,841,0,0
490,183,0,0,0,0,0,0,0,0,0,-1,1714,841,0,0
497,183,0,0,0,0,0,0,0,0,0,-1,1721,841,0,0
504,183,0,0,0,0,0,0,0,0,0,-1,1728,841,0,0
511,183,0,0,0,0,0,0,0,0,0,-1,1735,841,0,0
518,183,0,0,0,0,0,0,0,0,0,-1,1742,841,0,0
525,183,0,0,0,0,0,0,0,0,0,-1,1749,841,0,0
532,183,0,0,0,0,0,0,0,0,0,-1,1756,841,0,0
539,183,0,0,0,0,0,0,0,0,0,-1,1763,841,0,0
546,183,0,0,0,0,0,0,0,0,0,-1,1770,841,0,0
553,183,0,0,0,0,0,0,0,0,0,-1,1777,841,0,0
560,183,0,0,0,0,0,0,0,0,0,-1,1784,841,0,0
567,183,0,0,0,0,0,0,0,0,0,-1,1791,841,0,0
574,183,0,0,0,0,0,0,0,0,0,-1,1798,841,0,0
581,183,0,0,0,0,0,0,0,0,0,-1,1805,841,0,0
588,183,0,0,0,0,0,0,0,0,0,-1,1812,841,0,0
595,183,0,0,0,0,0,0,0,0,0,-1,1819,841,0,0
602,183,0,0,0,0,0,0,0,0,0,-1,1826,841,0,0
609,183,46.8037,2.61121,-0.00427613,-0.00448037,-0.00487065,0.000493471,-0.00924997,-0.774916,0.00633754,0.0406667,1833,841,46.8037,-2.6112
616,183,46.7523,2.55902,-0.00207789,-0.00194029,-0.00262119,0.000613003,-0.00463119,-0.798519,0.00331076,0.0395081,1840,841,46.7523,-2.55903
623,183,46.848,2.53271,-0.000418647,4.30817e-05,-0.000741403,0.000588734,-0.000964299,-0.936334,0.000905341,0.0414438,1847,841,46.8481,-2.53274
630,183,46.8406,2.67017,0.000393975,0.00132454,0.000306974,0.00141668,0.000301833,1.27919,0.000861647,0.0405682,1854,841,46.8405,-2.67019
637,183,46.8093,2.69043,0.000374777,0.0017118,0.000581674,0.00192944,0.000157145,1.21277,0.00123724,0.0362513,1861,841,46.8093,-2.69041
644,183,46.7953,2.71265,-4.83559e-05,0.00151648,0.000456785,0.00164006,-0.000171935,1.30658,0.00115496,0.0291614,1868,841,46.7952,-2.71267
651,183,46.8273,2.70178,-0.000406999,0.00111093,0.000225036,0.00114359,-0.000439659,1.42667,0.000943726,0.0261741,1875,841,46.8273,-2.70176
658,183,46.9078,2.72589,0,0,0,0,0,0,0,-1,1882,841,46.9079,-2.72589
665,183,38.4337,2.66992,0,0,0,0,0,0,0,-1,1889,841,38.4337,-2.6699
672,183,29.168,1.54572,0,0,0,0,0,0,0,-1,1896,841,29.168,-1.54574
679,183,37.3885,1.10468,0,0,0,0,0,0,0,-1,1903,841,37.3886,-1.10466
686,183,37.2992,1.52283,-0.00187492,-0.000148271,-0.000950626,0.000272546,-0.00229574,-1.15405,0.00162896,0.0276035,1910,841,37.2992,-1.52282
693,183,37.2601,1.97711,-0.00208507,-0.000366919,-0.00109146,0.000162998,-0.00261499,-1.11881,0.00180012,0.0239754,1917,841,37.2602,-1.97711
700,183,37.1792,2.51855,-0.00207452,-0.000214081,-0.00105806,0.000264528,-0.00255313,-1.14599,0.00179676,0.0221011,1924,841,37.1792,-2.51858
707,183,37.1198,3.02209,-0.00160059,0.000338754,-0.000820901,0.000639571,-0.00190141,-1.21954,0.00152614,0.0133742,1931,841,37.1198,-3.02208
714,183,37.1245,3.51007,-0.000928765,0.00151017,-0.000179315,0.00152328,-0.000941878,-1.4978,0.00143639,0.0166944,1938,841,37.1245,-3.51004
721,183,37.1351,4.02515,-6.75789e-05,0.00336391,0.000857613,0.00356631,-0.000269979,1.33903,0.00247245,0.0147895,1945,841,37.1352,-4.02513
728,183,37.1105,4.54083,0.000941341,0.00575307,0.00220822,0.00661284,8.15657e-05,1.1995,0.00438163,0.0133444,1952,841,37.1105,-4.54085
735,183,37.0862,5.04419,0.00205534,0.00873255,0.00381177,0.0104611,0.000326813,1.14506,0.00686771,0.0121184,1959,841,37.0862,-5.04417
742,183,37.0458,5.59363,0.00328746,0.0124318,0.00579337,0.0152399,0.000479392,1.11946,0.0100039,0.0108695,1966,841,37.0458,-5.59366
749,183,36.9413,6.21075,0.00474127,0.01705,0.00831164,0.0212377,0.000553505,1.10408,0.0139777,0.0307203,1973,841,36.9413,-6.21076
756,183,37.0585,6.88855,0.00667955,0.0229386,0.0116183,0.0289891,0.000628999,1.09067,0.0191199,0.0475936,1980,841,37.0584,-6.88858
763,183,37.408,7.62219,0,0,0,0,0,0,0,-1,1987,841,37.4079,-7.62218
770,183,37.5458,7.45435,0,0,0,0,0,0,0,-1,1994,841,37.5457,-7.45432
777,183,38.3298,9.43518,0,0,0,0,0,0,0,-1,2001,841,38.3299,-9.43516
784,183,0,0,0,0,0,0,0,0,0,-1,2008,841,0,0
791,183,0,0,0,0,0,0,0,0,0,-1,2015,841,0,0
798,183,0,0,0,0,0,0,0,0,0,-1,2022,841,0,0
805,183,0,0,0,0,0,0,0,0,0,-1,2029,841,0,0
812,183,0,0,0,0,0,0,0,0,0,-1,2036,841,0,0
-700,176,0,0,0,0,0,0,0,0,0,-1,524,848,0,0
-693,176,0,0,0,0,0,0,0,0,0,-1,531,848,0,0
-686,176,0,0,0,0,0,0,0,0,0,-1,538,848,0,0
-679,176,0,0,0,0,0,0,0,0,0,-1,545,848,0,0
-672,176,0,0,0,0,0,0,0,0,0,-1,552,848,0,0
-665,176,-27.5441,1.32941,-0.0184362,-0.089693,0.0333737,-0.00524671,-0.102882,0.376367,0.066908,0.0460073,559,848,-27.5441,-1.32942
-658,176,-27.4673,1.63702,-0.0197686,-0.073247,0.0321034,-0.00472728,-0.0882884,0.438154,0.0573481,0.0480298,566,848,-27.4673,-1.63702
-651,176,-28.0429,3.37506,0,0,0,0,0,0,0,-1,573,848,-28.0429,-3.37505
-644,176,-28.0007,3.37543,-0.0183234,-0.0466209,0.0260743,-0.00280634,-0.0621379,0.536814,0.0405222,0.0438286,580,848,-28.0007,-3.37541
-637,176,-27.835,3.24982,-0.0148079,-0.0354192,0.0222634,-0.000580581,-0.0496465,0.568635,0.0329058,0.0466379,587,848,-27.835,-3.24982
-630,176,-27.1885,3.82062,0,0,0,0,0,0,0,-1,594,848,-27.1885,-3.82062
-623,176,-27.1766,3.59723,-0.0079009,-0.0175994,0.0145846,0.00261952,-0.0281198,0.624902,0.0196779,0.0415652,601,848,-27.1766,-3.59722
-616,176,-27.1222,3.45551,-0.00505752,-0.0112456,0.0111869,0.00345536,-0.0197585,0.650482,0.0144624,0.0273003,608,848,-27.1222,-3.45551
-609,176,-27.1026,2.93842,-0.00176291,-0.00528915,0.00816529,0.00482745,-0.0118795,0.679067,0.00992807,0.0118563,615,848,-27.1026,-2.93839
-602,176,-27.122,2.43726,0.000257812,-0.00103951,0.00531062,0.00495923,-0.00574093,0.724627,0.00618324,0.012431,622,848,-27.122,-2.43725
-595,176,-27.1548,1.93646,0.000678369,-4.7163e-05,0.00365238,0.00398596,-0.00335475,0.735899,0.00424338,0.0122134,629,848,-27.1548,-1.93647
-588,176,-27.1453,1.44501,0.000604632,-0.000742154,0.00288609,0.00289485,-0.00303237,0.670787,0.00342239,0.0138127,636,848,-27.1453,-1.445
-581,176,-27.1805,0.996826,0.000676612,-0.00105406,0.00226169,0.00223285,-0.0026103,0.602687,0.00279903,0.0122261,643,848,-27.1805,-0.996807
-574,176,-27.213,0.523254,0.000572493,-0.00114799,0.00165816,0.00158027,-0.00215577,0.546113,0.00216552,0.019196,650,848,-27.213,-0.523234
-567,176,-27.0781,0.228149,0,0,0,0,0,0,0,-1,657,848,-27.0781,-0.228126
-560,176,-27.2139,-0.43927,0,0,0,0,0,0,0,-1,664,848,-27.2139,0.4393
-553,176,-27.1576,-1.05341,0,0,0,0,0,0,0,-1,671,848,-27.1576,1.05338
-546,176,-16.657,-0.403198,0,0,0,0,0,0,0,-1,678,848,-16.657,0.403182
-539,176,-22.7061,1.48657,0,0,0,0,0,0,0,-1,685,848,-22.7061,-1.48657
-532,176,-33.3401,1.53455,0,0,0,0,0,0,0,-1,692,848,-33.3401,-1.53456
-525,176,-34.8055,1.60382,0,0,0,0,0,0,0,-1,699,848,-34.8055,-1.60382
-518,176,-35.2609,0.79248,0,0,0,0,0,0,0,-1,706,848,-35.2608,-0.792494
-511,176,-35.2404,0.89856,0.0015128,0.000552573,0.00280935,0.00388277,-0.00181739,0.700766,0.00336223,0.0408548,713,848,-35.2404,-0.898583
-504,176,-35.2016,0.712708,0.00270222,0.000545046,0.00293007,0.00474592,-0.00149866,0.609041,0.00376429,0.0417414,720,848,-35.2016,-0.712733
-497,176,-35.2952,0.726318,0.00450765,-7.96454e-05,0.00239631,0.0055311,-0.00110309,0.403642,0.0041048,0.0422038,727,848,-35.2952,-0.726299
-490,176,-35.1474,1.06012,0.0072405,-0.00213475,0.00127649,0.0074112,-0.00230545,0.132932,0.00586239,0.0397056,734,848,-35.1474,-1.0601
-483,176,0,0,0,0,0,0,0,0,0,-1,741,848,0,0
-476,176,0,0,0,0,0,0,0,0,0,-1,748,848,0,0
-469,176,0,0,0,0,0,0,0,0,0,-1,755,848,0,0
-462,176,0,0,0,0,0,0,0,0,0,-1,762,848,0,0
-455,176,0,0,0,0,0,0,0,0,0,-1,769,848,0,0
-448,176,0,0,0,0,0,0,0,0,0,-1,776,848,0,0
-441,176,0,0,0,0,0,0,0,0,0,-1,783,848,0,0
-434,176,0,0,0,0,0,0,0,0,0,-1,790,848,0,0
-427,176,0,0,0,0,0,0,0,0,0,-1,797,848,0,0
-420,176,0,0,0,0,0,0,0,0,0,-1,804,848,0,0
-413,176,0,0,0,0,0,0,0,0,0,-1,811,848,0,0
-406,176,0,0,0,0,0,0,0,0,0,-1,818,848,0,0
-399,176,0,0,0,0,0,0,0,0,0,-1,825,848,0,0
-392,176,0,0,0,0,0,0,0,0,0,-1,832,848,0,0
-385,176,0,0,0,0,0,0,0,0,0,-1,839,848,0,0
-378,176,0,0,0,0,0,0,0,0,0,-1,846,848,0,0
-371,176,0,0,0,0,0,0,0,0,0,-1,853,848,0,0
-364,176,0,0,0,0,0,0,0,0,0,-1,860,848,0,0
-357,176,0,0,0,0,0,0,0,0,0,-1,867,848,0,0
-350,176,0,0,0,0,0,0,0,0,0,-1,874,848,0,0
-343,176,0,0,0,0,0,0,0,0,0,-1,881,848,0,0
-336,176,0,0,0,0,0,0,0,0,0,-1,888,848,0,0
-329,176,0,0,0,0,0,0,0,0,0,-1,895,848,0,0
-322,176,0,0,0,0,0,0,0,0,0,-1,902,848,0,0
-315,176,0,0,0,0,0,0,0,0,0,-1,909,848,0,0
-308,176,0,0,0,0,0,0,0,0,0,-1,916,848,0,0
-301,176,0,0,0,0,0,0,0,0,0,-1,923,848,0,0
-294,176,0,0,0,0,0,0,0,0,0,-1,930,848,0,0
-287,176,0,0,0,0,0,0,0,0,0,-1,937,848,0,0
-280,176,0,0,0,0,0,0,0,0,0,-1,944,848,0,0
-273,176,0,0,0,0,0,0,0,0,0,-1,951,848,0,0
-266,176,0,0,0,0,0,0,0,0,0,-1,958,848,0,0
-259,176,0,0,0,0,0,0,0,0,0,-1,965,848,0,0
-252,176,0,0,0,0,0,0,0,0,0,-1,972,848,0,0
-245,176,0,0,0,0,0,0,0,0,0,-1,979,848,0,0
-238,176,0,0,0,0,0,0,0,0,0,-1,986,848,0,0
-231,176,0,0,0,0,0,0,0,0,0,-1,993,848,0,0
-224,176,0,0,0,0,0,0,0,0,0,-1,1000,848,0,0
-217,176,0,0,0,0,0,0,0,0,0,-1,1007,848,0,0
-210,176,0,0,0,0,0,0,0,0,0,-1,1014,848,0,0
-203,176,0,0,0,0,0,0,0,0,0,-1,1021,848,0,0
-196,176,0,0,0,0,0,0,0,0,0,-1,1028,848,0,0
-189,176,0,0,0,0,0,0,0,0,0,-1,1035,848,0,0
-182,176,0,0,0,0,0,0,0,0,0,-1,1042,848,0,0
-175,176,0,0,0,0,0,0,0,0,0,-1,1049,848,0,0
-168,176,0,0,0,0,0,0,0,0,0,-1,1056,848,0,0
-161,176,0,0,0,0,0,0,0,0,0,-1,1063,848,0,0
-154,176,0,0,0,0,0,0,0,0,0,-1,1070,848,0,0
-147,176,0,0,0,0,0,0,0,0,0,-1,1077,848,0,0
-140,176,0,0,0,0,0,0,0,0,0,-1,1084,848,0,0
-133,176,0,0,0,0,0,0,0,0,0,-1,1091,848,0,0
-126,176,0,0,0,0,0,0,0,0,0,-1,1098,848,0,0
-119,176,0,0,0,0,0,0,0,0,0,-1,1105,848,0,0
-112,176,0,0,0,0,0,0,0,0,0,-1,1112,848,0,0
-105,176,0,0,0,0,0,0,0,0,0,-1,1119,848,0,0
-98,176,0,0,0,0,0,0,0,0,0,-1,1126,848,0,0
-91,176,0,0,0,0,0,0,0,0,0,-1,1133,848,0,0
-84,176,0,0,0,0,0,0,0,0,0,-1,1140,848,0,0
-77,176,0,0,0,0,0,0,0,0,0,-1,1147,848,0,0
-70,176,0,0,0,0,0,0,0,0,0,-1,1154,848,0,0
-63,176,0,0,0,0,0,0,0,0,0,-1,1161,848,0,0
-56,176,0,0,0,0,0,0,0,0,0,-1,1168,848,0,0
-49,176,0,0,0,0,0,0,0,0,0,-1,1175,848,0,0
-42,176,0,0,0,0,0,0,0,0,0,-1,1182,848,0,0
-35,176,0,0,0,0,0,0,0,0,0,-1,1189,848,0,0
-28,176,0,0,0,0,0,0,0,0,0,-1,1196,848,0,0
-21,176,0,0,0,0,0,0,0,0,0,-1,1203,848,0,0
-14,176,0,0,0,0,0,0,0,0,0,-1,1210,848,0,0
-7,176,0,0,0,0,0,0,0,0,0,-1,1217,848,0,0
0,176,0,0,0,0,0,0,0,0,0,-1,1224,848,0,0
7,176,0,0,0,0,0,0,0,0,0,-1,1231,848,0,0
14,176,0,0,0,0,0,0,0,0,0,-1,1238,848,0,0
21,176,0,0,0,0,0,0,0,0,0,-1,1245,848,0,0
28,176,0,0,0,0,0,0,0,0,0,-1,1252,848,0,0
35,176,0,0,0,0,0,0,0,0,0,-1,1259,848,0,0
42,176,0,0,0,0,0,0,0,0,0,-1,1266,848,0,0
49,176,0,0,0,0,0,0,0,0,0,-1,1273,848,0,0
56,176,0,0,0,0,0,0,0,0,0,-1,1280,848,0,0
63,176,0,0,0,0,0,0,0,0,0,-1,1287,848,0,0
70,176,0,0,0,0,0,0,0,0,0,-1,1294,848,0,0
77,176,0,0,0,0,0,0,0,0,0,-1,1301,848,0,0
84,176,0,0,0,0,0,0,0,0,0,-1,1308,848,0,0
91,176,0,0,0,0,0,0,0,0,0,-1,1315,848,0,0
98,176,0,0,0,0,0,0,0,0,0,-1,1322,848,0,0
105,176,0,0,0,0,0,0,0,0,0,-1,1329,848,0,0
112,176,0,0,0,0,0,0,0,0,0,-1,1336,848,0,0
119,176,0,0,0,0,0,0,0,0,0,-1,1343,848,0,0
126,176,0,0,0,0,0,0,0,0,0,-1,1350,848,0,0
133,176,0,0,0,0,0,0,0,0,0,-1,1357,848,0,0
140,176,0,0,0,0,0,0,0,0,0,-1,1364,848,0,0
147,176,0,0,0,0,0,0,0,0,0,-1,1371,848,0,0
154,176,0,0,0,0,0,0,0,0,0,-1,1378,848,0,0
161,176,0,0,0,0,0,0,0,0,0,-1,1385,848,0,0
168,176,0,0,0,0,0,0,0,0,0,-1,1392,848,0,0
175,176,0,0,0,0,0,0,0,0,0,-1,1399,848,0,0
182,176,0,0,0,0,0,0,0,0,0,-1,1406,848,0,0
189,176,0,0,0,0,0,0,0,0,0,-1,1413,848,0,0
196,176,0,0,0,0,0,0,0,0,0,-1,1420,848,0,0
203,176,0,0,0,0,0,0,0,0,0,-1,1427,848,0,0
210,176,0,0,0,0,0,0,0,0,0,-1,1434,848,0,0
217,176,0,0,0,0,0,0,0,0,0,-1,1441,848,0,0
224,176,0,0,0,0,0,0,0,0,0,-1,1448,848,0,0
231,176,0,0,0,0,0,0,0,0,0,-1,1455,848,0,0
238,176,0,0,0,0,0,0,0,0,0,-1,1462,848,0,0
245,176,0,0,0,0,0,0,0,0,0,-1,1469,848,0,0
252,176,0,0,0,0,0,0,0,0,0,-1,1476,848,0,0
259,176,0,0,0,0,0,0,0,0,0,-1,1483,848,0,0
266,176,0,0,0,0,0,0,0,0,0,-1,1490,848,0,0
273,176,0,0,0,0,0,0,0,0,0,-1,1497,848,0,0
280,176,0,0,0,0,0,0,0,0,0,-1,1504,848,0,0
287,176,0,0,0,0,0,0,0,0,0,-1,1511,848,0,0
294,176,0,0,0,0,0,0,0,0,0,-1,1518,848,0,0
301,176,0,0,0,0,0,0,0,0,0,-1,1525,848,0,0
308,176,0,0,0,0,0,0,0,0,0,-1,1532,848,0,0
315,176,0,0,0,0,0,0,0,0,0,-1,1539,848,0,0
322,176,0,0,0,0,0,0,0,0,0,-1,1546,848,0,0
329,176,0,0,0,0,0,0,0,0,0,-1,1553,848,0,0
336,176,0,0,0,0,0,0,0,0,0,-1,1560,848,0,0
343,176,0,0,0,0,0,0,0,0,0,-1,1567,848,0,0
350,176,0,0,0,0,0,0,0,0,0,-1,1574,848,0,0
357,176,0,0,0,0,0,0,0,0,0,-1,1581,848,0,0
364,176,0,0,0,0,0,0,0,0,0,-1,1588,848,0,0
371,176,0,0,0,0,0,0,0,0,0,-1,1595,848,0,0
378,176,0,0,0,0,0,0,0,0,0,-1,1602,848,0,0
385,176,0,0,0,0,0,0,0,0,0,-1,1609,848,0,0
392,176,0,0,0,0,0,0,0,0,0,-1,1616,848,0,0
399,176,0,0,0,0,0,0,0,0,0,-1,1623,848,0,0
406,176,0,0,0,0,0,0,0,0,0,-1,1630,848,0,0
413,176,0,0,0,0,0,0,0,0,0,-1,1637,848,0,0
420,176,0,0,0,0,0,0,0,0,0,-1,1644,848,0,0
427,176,0,0,0,0,0,0,0,0,0,-1,1651,848,0,0
434,176,0,0,0,0,0,0,0,0,0,-1,1658,848,0,0
441,176,0,0,0,0,0,0,0,0,0,-1,1665,848,0,0
448,176,0,0,0,0,0,0,0,0,0,-1,1672,848,0,0
455,176,0,0,0,0,0,0,0,0,0,-1,1679,848,0,0
462,176,0,0,0,0,0,0,0,0,0,-1,1686,848,0,0
469,176,0,0,0,0,0,0,0,0,0,-1,1693,848,0,0
476,176,0,0,0,0,0,0,0,0,0,-1,1700,848,0,0
483,176,0,0,0,0,0,0,0,0,0,-1,1707,848,0,0
490,176,0,0,0,0,0,0,0,0,0,-1,1714,848,0,0
497,176,0,0,0,0,0,0,0,0,0,-1,1721,848,0,0
504,176,0,0,0,0,0,0,0,0,0,-1,1728,848,0,0
511,176,0,0,0,0,0,0,0,0,0,-1,1735,848,0,0
518,176,0,0,0,0,0,0,0,0,0,-1,1742,848,0,0
525,176,0,0,0,0,0,0,0,0,0,-1,1749,848,0,0
532,176,0,0,0,0,0,0,0,0,0,-1,1756,848,0,0
539,176,0,0,0,0,0,0,0,0,0,-1,1763,848,0,0
546,176,0,0,0,0,0,0,0,0,0,-1,1770,848,0,0
553,176,0,0,0,0,0,0,0,0,0,-1,1777,848,0,0
560,176,0,0,0,0,0,0,0,0,0,-1,1784,848,0,0
567,176,0,0,0,0,0,0,0,0,0,-1,1791,848,0,0
574,176,0,0,0,0,0,0,0,0,0,-1,1798,848,0,0
581,176,0,0,0,0,0,0,0,0,0,-1,1805,848,0,0
588,176,0,0,0,0,0,0,0,0,0,-1,1812,848,0,0
595,176,0,0,0,0,0,0,0,0,0,-1,1819,848,0,0
602,176,0,0,0,0,0,0,0,0,0,-1,1826,848,0,0
609,176,46.8303,2.72461,-0.00431353,-0.00631923,-0.00676073,0.00151832,-0.0121511,-0.711768,0.00865135,0.0395669,1833,848,46.8304,-2.72458
616,176,46.629,2.74371,-0.00215827,-0.00372131,-0.0044634,0.00159151,-0.0074711,-0.698729,0.00558731,0.0406248,1840,848,46.629,-2.7437
623,176,46.8796,2.2663,-0.000490796,-0.00151149,-0.00228338,0.00133857,-0.00334086,-0.675452,0.00278289,0.0459857,1847,848,46.8797,-2.26633
630,176,46.9133,2.54132,0.000461362,0.000112528,-0.000796543,0.00110236,-0.00052847,-0.677616,0.000960796,0.0412943,1854,848,46.9133,-2.54135
637,176,46.8602,2.73938,0.000618335,0.000957166,-5.47799e-05,0.000965802,0.000609699,-1.41443,0.000563977,0.0328134,1861,848,46.8603,-2.7394
644,176,46.7797,2.72601,0.000290353,0.00106881,0.000116511,0.00108587,0.000273289,1.42537,0.000652193,0.0318862,1868,848,46.7797,-2.726
651,176,46.7996,2.71771,-4.35044e-05,0.000827674,5.1056e-05,0.000830656,-4.64864e-05,1.51246,0.000569899,0.0331645,1875,848,46.7996,-2.71773
658,176,46.8693,2.65955,-0.000295411,0.000595788,-0.000121173,0.000611969,-0.000311593,-1.43804,0.000542538,0.0403359,1882,848,46.8692,-2.65954
665,176,46.9154,2.58264,0,0,0,0,0,0,0,-1,1889,848,46.9154,-2.58264
672,176,16.9304,2.80719,0,0,0,0,0,0,0,-1,1896,848,16.9305,-2.80719
679,176,38.1305,1.00067,0,0,0,0,0,0,0,-1,1903,848,38.1305,-1.0007
686,176,37.9913,1.5921,-0.00136559,-0.000135343,-0.000693763,0.000176726,-0.00167766,-1.14809,0.00118176,0.0392463,1910,848,37.9913,-1.59212
693,176,37.8295,2.12268,-0.00158444,-0.000397961,-0.000828822,2.80538e-05,-0.00201045,-1.09601,0.00134975,0.0215197,1917,848,37.8295,-2.12267
700,176,37.6753,2.64508,-0.0016111,-0.000321417,-0.000870394,0.00011698,-0.0020495,-1.10421,0.00140695,0.0248075,1924,848,37.6753,-2.64508
707,176,37.6954,3.11743,-0.0012025,0.000114567,-0.000751633,0.000455343,-0.00154328,-1.14514,0.00120955,0.0154075,1931,848,37.6954,-3.11741
714,176,37.6782,3.54803,-0.000684393,0.00104331,-0.000303753,0.00109516,-0.000736241,-1.40174,0.00106411,0.012798,1938,848,37.6782,-3.54805
721,176,37.6476,4.03241,-2.97733e-05,0.00262491,0.000517953,0.00272239,-0.000127251,1.38477,0.00185879,0.01228,1945,848,37.6476,-4.03242
728,176,37.6289,4.56256,0.000775254,0.00475516,0.00166433,0.00535941,0.000171004,1.22253,0.00351733,0.0155768,1952,848,37.6289,-4.56257
735,176,37.5885,5.0697,0.00171158,0.00745847,0.00306118,0.00878354,0.00038651,1.16229,0.0057312,0.0142499,1959,848,37.5885,-5.06972
742,176,37.5665,5.56903,0.00275999,0.0108187,0.0048129,0.0130663,0.000512429,1.13391,0.00854516,0.0165373,1966,848,37.5666,-5.56902
749,176,37.5864,6.047,0.00397287,0.0149593,0.00704146,0.0183968,0.000535383,1.11665,0.01209,0.0286205,1973,848,37.5864,-6.04697
756,176,38.1042,6.49792,0.00556834,0.0201873,0.00998917,0.0252557,0.000499946,1.10125,0.016673,0.0484019,1980,848,38.1043,-6.49794
763,176,38.6897,6.8194,0,0,0,0,0,0,0,-1,1987,848,38.6897,-6.81939
770,176,36.4186,4.25641,0,0,0,0,0,0,0,-1,1994,848,36.4186,-4.25639
777,176,39.6573,9.50757,0,0,0,0,0,0,0,-1,2001,848,39.6574,-9.50755
784,176,0,0,0,0,0,0,0,0,0,-1,2008,848,0,0
791,176,0,0,0,0,0,0,0,0,0,-1,2015,848,0,0
798,176,0,0,0,0,0,0,0,0,0,-1,2022,848,0,0
805,176,0,0,0,0,0,0,0,0,0,-1,2029,848,0,0
812,176,0,0,0,0,0,0,0,0,0,-1,2036,848,0,0
-700,169,0,0,0,0,0,0,0,0,0,-1,524,855,0,0
-693,169,0,0,0,0,0,0,0,0,0,-1,531,855,0,0
-686,169,0,0,0,0,0,0,0,0,0,-1,538,855,0,0
-679,169,0,0,0,0,0,0,0,0,0,-1,545,855,0,0
-672,169,0,0,0,0,0,0,0,0,0,-1,552,855,0,0
-665,169,-27.7006,2.21771,-0.0514649,-0.0920779,0.0403372,-0.0266113,-0.116932,0.552208,0.0707718,0.0448681,559,855,-27.7006,-2.21773
-658,169,-27.6542,2.5282,-0.0420054,-0.0750504,0.036784,-0.0182035,-0.0988523,0.574314,0.0607497,0.0463451,566,855,-27.6542,-2.52822
-651,169,-27.8818,2.69421,-0.0347121,-0.0604239,0.0325456,-0.0125752,-0.0825607,0.597299,0.0513644,0.0492492,573,855,-27.8818,-2.69423
-644,169,-27.9281,3.05054,-0.0277625,-0.0475069,0.0281341,-0.00781875,-0.0674506,0.616661,0.0426007,0.0475383,580,855,-27.9281,-3.05053
-637,169,-27.9287,3.37305,-0.0212096,-0.0361923,0.0236658,-0.00387774,-0.0535242,0.632113,0.034463,0.0455887,587,855,-27.9287,-3.37307
-630,169,-27.8094,3.43597,-0.0156395,-0.0265086,0.0193283,-0.00099626,-0.0411519,0.648351,0.0271086,0.0442276,594,855,-27.8094,-3.43597
-623,169,-27.7256,3.4574,-0.0109505,-0.0183785,0.0153268,0.00110587,-0.0304349,0.66653,0.0206684,0.0367503,601,855,-27.7257,-3.4574
-616,169,-27.6287,3.43774,-0.00717007,-0.0119335,0.0117476,0.00243481,-0.0215384,0.685383,0.0152355,0.0222356,608,855,-27.6287,-3.43776
-609,169,-27.6174,2.93768,-0.00312722,-0.00609742,0.00856729,0.00408274,-0.0133074,0.699578,0.0105005,0.0138644,615,855,-27.6174,-2.93767
-602,169,-27.6426,2.43536,-0.000642668,-0.00176214,0.00558548,0.00441105,-0.00681586,0.735459,0.00653124,0.0130186,622,855,-27.6426,-2.43536
-595,169,-27.6624,1.94312,7.70336e-05,-0.00063884,0.00384207,0.0035778,-0.00413961,0.738951,0.00445959,0.0118483,629,855,-27.6624,-1.94309
-588,169,-27.6404,1.48425,0.000243991,-0.00117122,0.0029924,0.00261131,-0.00353854,0.669297,0.00356405,0.0105204,636,855,-27.6404,-1.48423
-581,169,-27.6815,1.02887,0.000477936,-0.00137119,0.00233227,0.00206221,-0.00295547,0.596689,0.00291223,0.0146227,643,855,-27.6815,-1.02884
-574,169,-27.8911,0.536743,0.000408773,-0.00138009,0.00174463,0.00147488,-0.0024462,0.548528,0.00228688,0.0264569,650,855,-27.8911,-0.536721
-567,169,-27.7114,0.167236,0.00040297,-0.0015508,0.00163981,0.00133482,-0.00248265,0.516761,0.00223698,0.0388325,657,855,-27.7114,-0.167248
-560,169,-27.4308,-0.386597,0,0,0,0,0,0,0,-1,664,855,-27.4308,0.38662
-553,169,-26.4789,-0.650208,0,0,0,0,0,0,0,-1,671,855,-26.4789,0.650229
-546,169,-19.0852,-1.05609,0,0,0,0,0,0,0,-1,678,855,-19.0852,1.05612
-539,169,-33.2307,1.10706,0,0,0,0,0,0,0,-1,685,855,-33.2307,-1.10708
-532,169,-35.12,0.977051,0,0,0,0,0,0,0,-1,692,855,-35.12,-0.977063
-525,169,-34.9979,1.10901,0.000848322,-0.000633531,0.00206671,0.0023029,-0.00208811,0.613282,0.00253617,0.0450783,699,855,-34.9979,-1.109
-518,169,-35.2124,0.834595,0.000744804,-0.00022584,0.00232781,0.00263735,-0.00211838,0.682626,0.00275117,0.0422493,706,855,-35.2124,-0.834594
-511,169,-35.1497,0.973328,0.00120042,-0.00015708,0.00266002,0.00326693,-0.00222358,0.66048,0.00318897,0.041274,713,855,-35.1497,-0.973337
-504,169,-35.0565,0.816223,0.00254567,-0.000614832,0.00292907,0.00429357,-0.00236274,0.538023,0.00389655,0.043403,720,855,-35.0565,-0.816233
-497,169,-35.0507,0.756226,0.00441523,-0.00185377,0.00266858,0.00539733,-0.00283588,0.352641,0.00482952,0.0429364,727,855,-35.0507,-0.756255
-490,169,0,0,0,0,0,0,0,0,0,-1,734,855,0,0
-483,169,0,0,0,0,0,0,0,0,0,-1,741,855,0,0
-476,169,0,0,0,0,0,0,0,0,0,-1,748,855,0,0
-469,169,0,0,0,0,0,0,0,0,0,-1,755,855,0,0
-462,169,0,0,0,0,0,0,0,0,0,-1,762,855,0,0
-455,169,0,0,0,0,0,0,0,0,0,-1,769,855,0,0
-448,169,0,0,0,0,0,0,0,0,0,-1,776,855,0,0
-441,169,0,0,0,0,0,0,0,0,0,-1,783,855,0,0
-434,169,0,0,0,0,0,0,0,0,0,-1,790,855,0,0
-427,169,0,0,0,0,0,0,0,0,0,-1,797,855,0,0
-420,169,0,0,0,0,0,0,0,0,0,-1,804,855,0,0
-413,169,0,0,0,0,0,0,0,0,0,-1,811,855,0,0
-406,169,0,0,0,0,0,0,0,0,0,-1,818,855,0,0
-399,169,0,0,0,0,0,0,0,0,0,-1,825,855,0,0
-392,169,0,0,0,0,0,0,0,0,0,-1,832,855,0,0
-385,169,0,0,0,0,0,0,0,0,0,-1,839,855,0,0
-378,169,0,0,0,0,0,0,0,0,0,-1,846,855,0,0
-371,169,0,0,0,0,0,0,0,0,0,-1,853,855,0,0
-364,169,0,0,0,0,0,0,0,0,0,-1,860,855,0,0
-357,169,0,0,0,0,0,0,0,0,0,-1,867,855,0,0
-350,169,0,0,0,0,0,0,0,0,0,-1,874,855,0,0
-343,169,0,0,0,0,0,0,0,0,0,-1,881,855,0,0
-336,169,0,0,0,0,0,0,0,0,0,-1,888,855,0,0
-329,169,0,0,0,0,0,0,0,0,0,-1,895,855,0,0
-322,169,0,0,0,0,0,0,0,0,0,-1,902,855,0,0
-315,169,0,0,0,0,0,0,0,0,0,-1,909,855,0,0
-308,169,0,0,0,0,0,0,0,0,0,-1,916,855,0,0
-301,169,0,0,0,0,0,0,0,0,0,-1,923,855,0,0
-294,169,0,0,0,0,0,0,0,0,0,-1,930,855,0,0
-287,169,0,0,0,0,0,0,0,0,0,-1,937,855,0,0
-280,169,0,0,0,0,0,0,0,0,0,-1,944,855,0,0
-273,169,0,0,0,0,0,0,0,0,0,-1,951,855,0,0
-266,169,0,0,0,0,0,0,0,0,0,-1,958,855,0,0
-259,169,0,0,0,0,0,0,0,0,0,-1,965,855,0,0
-252,169,0,0,0,0,0,0,0,0,0,-1,972,855,0,0
-245,169,0,0,0,0,0,0,0,0,0,-1,979,855,0,0
-238,169,0,0,0,0,0,0,0,0,0,-1,986,855,0,0
-231,169,0,0,0,0,0,0,0,0,0,-1,993,855,0,0
-224,169,0,0,0,0,0,0,0,0,0,-1,1000,855,0,0
-217,169,0,0,0,0,0,0,0,0,0,-1,1007,855,0,0
-210,169,0,0,0,0,0,0,0,0,0,-1,1014,855,0,0
-203,169,0,0,0,0,0,0,0,0,0,-1,1021,855,0,0
-196,169,0,0,0,0,0,0,0,0,0,-1,1028,855,0,0
-189,169,0,0,0,0,0,0,0,0,0,-1,1035,855,0,0
-182,169,0,0,0,0,0,0,0,0,0,-1,1042,855,0,0
-175,169,0,0,0,0,0,0,0,0,0,-1,1049,855,0,0
-168,169,0,0,0,0,0,0,0,0,0,-1,1056,855,0,0
-161,169,0,0,0,0,0,0,0,0,0,-1,1063,855,0,0
-154,169,0,0,0,0,0,0,0,0,0,-1,1070,855,0,0
-147,169,0,0,0,0,0,0,0,0,0,-1,1077,855,0,0
-140,169,0,0,0,0,0,0,0,0,0,-1,1084,855,0,0
-133,169,0,0,0,0,0,0,0,0,0,-1,1091,855,0,0
-126,169,0,0,0,0,0,0,0,0,0,-1,1098,855,0,0
-119,169,0,0,0,0,0,0,0,0,0,-1,1105,855,0,0
-112,169,0,0,0,0,0,0,0,0,0,-1,1112,855,0,0
-105,169,0,0,0,0,0,0,0,0,0,-1,1119,855,0,0
-98,169,0,0,0,0,0,0,0,0,0,-1,1126,855,0,0
-91,169,0,0,0,0,0,0,0,0,0,-1,1133,855,0,0
-84,169,0,0,0,0,0,0,0,0,0,-1,1140,855,0,0
-77,169,0,0,0,0,0,0,0,0,0,-1,1147,855,0,0
-70,169,0,0,0,0,0,0,0,0,0,-1,1154,855,0,0
-63,169,0,0,0,0,0,0,0,0,0,-1,1161,855,0,0
-56,169,0,0,0,0,0,0,0,0,0,-1,1168,855,0,0
-49,169,0,0,0,0,0,0,0,0,0,-1,1175,855,0,0
-42,169,0,0,0,0,0,0,0,0,0,-1,1182,855,0,0
-35,169,0,0,0,0,0,0,0,0,0,-1,1189,855,0,0
-28,169,0,0,0,0,0,0,0,0,0,-1,1196,855,0,0
-21,169,0,0,0,0,0,0,0,0,0,-1,1203,855,0,0
-14,169,0,0,0,0,0,0,0,0,0,-1,1210,855,0,0
-7,169,0,0,0,0,0,0,0,0,0,-1,1217,855,0,0
0,169,0,0,0,0,0,0,0,0,0,-1,1224,855,0,0
7,169,0,0,0,0,0,0,0,0,0,-1,1231,855,0,0
14,169,0,0,0,0,0,0,0,0,0,-1,1238,855,0,0
21,169,0,0,0,0,0,0,0,0,0,-1,1245,855,0,0
28,169,0,0,0,0,0,0,0,0,0,-1,1252,855,0,0
35,169,0,0,0,0,0,0,0,0,0,-1,1259,855,0,0
42,169,0,0,0,0,0,0,0,0,0,-1,1266,855,0,0
49,169,0,0,0,0,0,0,0,0,0,-1,1273,855,0,0
56,169,0,0,0,0,0,0,0,0,0,-1,1280,855,0,0
63,169,0,0,0,0,0,0,0,0,0,-1,1287,855,0,0
70,169,0,0,0,0,0,0,0,0,0,-1,1294,855,0,0
77,169,0,0,0,0,0,0,0,0,0,-1,1301,855,0,0
84,169,0,0,0,0,0,0,0,0,0,-1,1308,855,0,0
91,169,0,0,0,0,0,0,0,0,0,-1,1315,855,0,0
98,169,0,0,0,0,0,0,0,0,0,-1,1322,855,0,0
105,169,0,0,0,0,0,0,0,0,0,-1,1329,855,0,0
112,169,0,0,0,0,0,0,0,0,0,-1,1336,855,0,0
119,169,0,0,0,0,0,0,0,0,0,-1,1343,855,0,0
126,169,0,0,0,0,0,0,0,0,0,-1,1350,855,0,0
133,169,0,0,0,0,0,0,0,0,0,-1,1357,855,0,0
140,169,0,0,0,0,0,0,0,0,0,-1,1364,855,0,0
147,169,0,0,0,0,0,0,0,0,0,-1,1371,855,0,0
154,169,0,0,0,0,0,0,0,0,0,-1,1378,855,0,0
161,169,0,0,0,0,0,0,0,0,0,-1,1385,855,0,0
168,169,0,0,0,0,0,0,0,0,0,-1,1392,855,0,0
175,169,0,0,0,0,0,0,0,0,0,-1,1399,855,0,0
182,169,0,0,0,0,0,0,0,0,0,-1,1406,855,0,0
189,169,0,0,0,0,0,0,0,0,0,-1,1413,855,0,0
196,169,0,0,0,0,0,0,0,0,0,-1,1420,855,0,0
203,169,0,0,0,0,0,0,0,0,0,-1,1427,855,0,0
210,169,0,0,0,0,0,0,0,0,0,-1,1434,855,0,0
217,169,0,0,0,0,0,0,0,0,0,-1,1441,855,0,0
224,169,0,0,0,0,0,0,0,0,0,-1,1448,855,0,0
231,169,0,0,0,0,0,0,0,0,0,-1,1455,855,0,0
238,169,0,0,0,0,0,0,0,0,0,-1,1462,855,0,0
245,169,0,0,0,0,0,0,0,0,0,-1,1469,855,0,0
252,169,0,0,0,0,0,0,0,0,0,-1,1476,855,0,0
259,169,0,0,0,0,0,0,0,0,0,-1,1483,855,0,0
266,169,0,0,0,0,0,0,0,0,0,-1,1490,855,0,0
273,169,0,0,0,0,0,0,0,0,0,-1,1497,855,0,0
280,169,0,0,0,0,0,0,0,0,0,-1,1504,855,0,0
287,169,0,0,0,0,0,0,0,0,0,-1,1511,855,0,0
294,169,0,0,0,0,0,0,0,0,0,-1,1518,855,0,0
301,169,0,0,0,0,0,0,0,0,0,-1,1525,855,0,0
308,169,0,0,0,0,0,0,0,0,0,-1,1532,855,0,0
315,169,0,0,0,0,0,0,0,0,0,-1,1539,855,0,0
322,169,0,0,0,0,0,0,0,0,0,-1,1546,855,0,0
329,169,0,0,0,0,0,0,0,0,0,-1,1553,855,0,0
336,169,0,0,0,0,0,0,0,0,0,-1,1560,855,0,0
343,169,0,0,0,0,0,0,0,0,0,-1,1567,855,0,0
350,169,0,0,0,0,0,0,0,0,0,-1,1574,855,0,0
357,169,0,0,0,0,0,0,0,0,0,-1,1581,855,0,0
364,169,0,0,0,0,0,0,0,0,0,-1,1588,855,0,0
371,169,0,0,0,0,0,0,0,0,0,-1,1595,855,0,0
378,169,0,0,0,0,0,0,0,0,0,-1,1602,855,0,0
385,169,0,0,0,0,0,0,0,0,0,-1,1609,855,0,0
392,169,0,0,0,0,0,0,0,0,0,-1,1616,855,0,0
399,169,0,0,0,0,0,0,0,0,0,-1,1623,855,0,0
406,169,0,0,0,0,0,0,0,0,0,-1,1630,855,0,0
413,169,0,0,0,0,0,0,0,0,0,-1,1637,855,0,0
420,169,0,0,0,0,0,0,0,0,0,-1,1644,855,0,0
427,169,0,0,0,0,0,0,0,0,0,-1,1651,855,0,0
434,169,0,0,0,0,0,0,0,0,0,-1,1658,855,0,0
441,169,0,0,0,0,0,0,0,0,0,-1,1665,855,0,0
448,169,0,0,0,0,0,0,0,0,0,-1,1672,855,0,0
455,169,0,0,0,0,0,0,0,0,0,-1,1679,855,0,0
462,169,0,0,0,0,0,0,0,0,0,-1,1686,855,0,0
469,169,0,0,0,0,0,0,0,0,0,-1,1693,855,0,0
476,169,0,0,0,0,0,0,0,0,0,-1,1700,855,0,0
483,169,0,0,0,0,0,0,0,0,0,-1,1707,855,0,0
490,169,0,0,0,0,0,0,0,0,0,-1,1714,855,0,0
497,169,0,0,0,0,0,0,0,0,0,-1,1721,855,0,0
504,169,0,0,0,0,0,0,0,0,0,-1,1728,855,0,0
511,169,0,0,0,0,0,0,0,0,0,-1,1735,855,0,0
518,169,0,0,0,0,0,0,0,0,0,-1,1742,855,0,0
525,169,0,0,0,0,0,0,0,0,0,-1,1749,855,0,0
532,169,0,0,0,0,0,0,0,0,0,-1,1756,855,0,0
539,169,0,0,0,0,0,0,0,0,0,-1,1763,855,0,0
546,169,0,0,0,0,0,0,0,0,0,-1,1770,855,0,0
553,169,0,0,0,0,0,0,0,0,0,-1,1777,855,0,0
560,169,0,0,0,0,0,0,0,0,0,-1,1784,855,0,0
567,169,0,0,0,0,0,0,0,0,0,-1,1791,855,0,0
574,169,0,0,0,0,0,0,0,0,0,-1,1798,855,0,0
581,169,0,0,0,0,0,0,0,0,0,-1,1805,855,0,0
588,169,0,0,0,0,0,0,0,0,0,-1,1812,855,0,0
595,169,0,0,0,0,0,0,0,0,0,-1,1819,855,0,0
602,169,0,0,0,0,0,0,0,0,0,-1,1826,855,0,0
609,169,0,0,0,0,0,0,0,0,0,-1,1833,855,0,0
616,169,46.7432,2.85968,-0.00173772,-0.00529059,-0.00649804,0.00322233,-0.0102506,-0.651968,0.00812377,0.0445938,1840,855,46.7431,-2.85967
623,169,46.7103,2.33093,-0.000399036,-0.00297173,-0.00398938,0.00250626,-0.00587702,-0.629439,0.00496879,0.048096,1847,855,46.7104,-2.33091
630,169,46.7446,2.50873,0.000443989,-0.00116755,-0.00204647,0.0018376,-0.00256116,-0.597851,0.00255106,0.0442165,1854,855,46.7447,-2.50873
637,169,46.8412,2.7431,0.000683418,4.92126e-05,-0.000762931,0.00119252,-0.000459891,-0.588441,0.000984782,0.0370809,1861,855,46.8412,-2.74312
644,169,46.8245,2.70123,0.000468841,0.00046381,-0.000207705,0.000674046,0.000258606,-0.779343,0.000392656,0.0355418,1868,855,46.8245,-2.70124
651,169,46.834,2.737,0.000209327,0.000399198,-4.69364e-05,0.000410167,0.000198358,-1.34122,0.000236852,0.0364636,1875,855,46.834,-2.73701
658,169,46.8744,2.71063,5.04146e-05,0.00023664,-8.17357e-05,0.000267425,1.96294e-05,-1.21059,0.000172114,0.0353506,1882,855,46.8744,-2.71064
665,169,46.8711,2.70331,0,0,0,0,0,0,0,-1,1889,855,46.8711,-2.70331
672,169,31.2465,2.96387,0,0,0,0,0,0,0,-1,1896,855,31.2464,-2.9639
679,169,38.4297,1.08197,0,0,0,0,0,0,0,-1,1903,855,38.4296,-1.08194
686,169,38.4205,1.63177,-0.000743626,-0.000299062,-0.00035546,-0.000102105,-0.000940583,-1.06482,0.000595943,0.0499967,1910,855,38.4206,-1.63179
693,169,38.3809,2.15948,-0.000935469,-0.000567602,-0.000471492,-0.000245437,-0.00125763,-0.971374,0.000769766,0.0224923,1917,855,38.3809,-2.15948
700,169,38.3744,2.70154,-0.000922817,-0.000507486,-0.00058393,-9.53946e-05,-0.00133491,-0.956241,0.000859907,0.020375,1924,855,38.3743,-2.70151
707,169,38.3002,3.15344,-0.000555325,-8.46059e-05,-0.00057002,0.000296733,-0.000936664,-0.981186,0.000743364,0.0197372,1931,855,38.3002,-3.15344
714,169,38.1744,3.55328,-0.000201915,0.000655779,-0.000278957,0.000738525,-0.00028466,-1.28244,0.000609801,0.0150995,1938,855,38.1744,-3.5533
721,169,38.1417,4.06641,0.000203344,0.00198709,0.000335073,0.00204796,0.000142478,1.39111,0.00132038,0.0161819,1945,855,38.1418,-4.06641
728,169,38.1306,4.58936,0.000729947,0.00386604,0.00127149,0.00431677,0.000279217,1.23013,0.00278944,0.0136547,1952,855,38.1306,-4.58936
735,169,38.1017,5.07947,0.00139909,0.00629818,0.00246458,0.00732346,0.000373808,1.17657,0.0047626,0.0191016,1959,855,38.1016,-5.07946
742,169,38.073,5.5694,0.00217195,0.00933789,0.00400558,0.0111291,0.000380686,1.15028,0.00729585,0.0161014,1966,855,38.073,-5.56938
749,169,38.0447,5.95868,0.00304908,0.0130312,0.00598258,0.0158313,0.000248996,1.13304,0.0104722,0.027353,1973,855,38.0447,-5.95867
756,169,38.236,6.29999,0.00419965,0.0176393,0.00862125,0.0218503,-1.13165e-05,1.11644,0.0145706,0.0498411,1980,855,38.236,-6.29999
763,169,38.577,6.67743,0,0,0,0,0,0,0,-1,1987,855,38.577,-6.67741
770,169,37.2059,3.97021,0,0,0,0,0,0,0,-1,1994,855,37.2059,-3.97022
777,169,37.9381,9.14392,0,0,0,0,0,0,0,-1,2001,855,37.9381,-9.1439
784,169,37.6997,9.83215,0,0,0,0,0,0,0,-1,2008,855,37.6997,-9.83216
791,169,0,0,0,0,0,0,0,0,0,-1,2015,855,0,0
798,169,0,0,0,0,0,0,0,0,0,-1,2022,855,0,0
805,169,0,0,0,0,0,0,0,0,0,-1,2029,855,0,0
812,169,0,0,0,0,0,0,0,0,0,-1,2036,855,0,0
-700,162,0,0,0,0,0,0,0,0,0,-1,524,862,0,0
-693,162,0,0,0,0,0,0,0,0,0,-1,531,862,0,0
-686,162,0,0,0,0,0,0,0,0,0,-1,538,862,0,0
-679,162,0,0,0,0,0,0,0,0,0,-1,545,862,0,0
-672,162,0,0,0,0,0,0,0,0,0,-1,552,862,0,0
-665,162,-27.7366,3.01807,-0.0764495,-0.0950748,0.0457034,-0.0391196,-0.132405,0.684893,0.0785472,0.0461824,559,862,-27.7366,-3.01809
-658,162,-27.9741,3.1861,-0.0593338,-0.0775216,0.0403767,-0.0270396,-0.109816,0.674634,0.0660683,0.0469813,566,862,-27.9741,-3.18607
-651,162,-28.2,3.33356,-0.0463667,-0.0622642,0.0349131,-0.018509,-0.090122,0.673469,0.0549605,0.0490265,573,862,-28.2,-3.33358
-644,162,-28.0201,3.48224,0,0,0,0,0,0,0,-1,580,862,-28.0201,-3.48222
-637,162,-28.1201,3.5365,-0.0265454,-0.0371923,0.0245407,-0.00675741,-0.0569802,0.678591,0.0359467,0.0457812,587,862,-28.1201,-3.53652
-630,162,-28.2463,3.58862,-0.0192435,-0.0272167,0.019844,-0.00298954,-0.0434706,0.68627,0.0280371,0.0445241,594,862,-28.2463,-3.58863
-623,162,-28.1856,3.6673,-0.0133519,-0.0189264,0.0156081,-0.000284135,-0.0319942,0.697042,0.0212354,0.0327759,601,862,-28.1856,-3.66731
-616,162,-28.0626,3.4248,-0.00873819,-0.0122973,0.0118908,0.00150545,-0.0225409,0.711121,0.0155534,0.019834,608,862,-28.0626,-3.42477
-609,162,-28.1221,2.92853,-0.00405442,-0.00653515,0.00860458,0.00339873,-0.0139883,0.713816,0.0106409,0.0138745,615,862,-28.1221,-2.92855
-602,162,-28.1558,2.43524,-0.00120312,-0.00216196,0.00559759,0.00393554,-0.00730062,0.742679,0.00658346,0.0114202,622,862,-28.1558,-2.43527
-595,162,-28.1574,1.97809,-0.000248045,-0.000905523,0.0038554,0.0032926,-0.00444617,0.742867,0.0044845,0.011188,629,862,-28.1574,-1.97809
-588,162,-28.1602,1.52301,8.55596e-05,-0.00119543,0.0029757,0.00248892,-0.00359879,0.679395,0.00353416,0.0119849,636,862,-28.1602,-1.52303
-581,162,-28.3359,1.04944,0.000394376,-0.00122532,0.00233612,0.00205704,-0.00288798,0.618548,0.00286841,0.0233238,643,862,-28.3359,-1.04941
-574,162,-28.5873,0.531616,0.000293589,-0.00109896,0.00179432,0.00152199,-0.00232736,0.600319,0.00223858,0.0350809,650,862,-28.5873,-0.531591
-567,162,-28.5043,0.078064,0.000204882,-0.00125079,0.00164135,0.00127253,-0.00231844,0.576706,0.00210236,0.0428262,657,862,-28.5043,-0.0780538
-560,162,-28.2667,-0.564148,0.000135706,-0.00121827,0.00163806,0.00123116,-0.00231373,0.589444,0.00207821,0.0398157,664,862,-28.2667,0.56413
-553,162,-27.8959,-1.20569,0,0,0,0,0,0,0,-1,671,862,-27.8959,1.20566
-546,162,-22.8181,-1.51154,0,0,0,0,0,0,0,-1,678,862,-22.8181,1.51155
-539,162,-35.0782,1.07727,0,0,0,0,0,0,0,-1,685,862,-35.0782,-1.07726
-532,162,-35.1044,0.953125,0.000230213,-0.000767015,0.00179706,0.00159655,-0.00213335,0.650072,0.00216088,0.0377235,692,862,-35.1045,-0.953123
-525,162,-35.1683,0.813232,0.000124067,-0.000517091,0.00187438,0.00170508,-0.00209811,0.700702,0.00219968,0.0393037,699,862,-35.1683,-0.813236
-518,162,-35.1972,0.881042,-0.000178266,-0.00025406,0.0022028,0.00198696,-0.00241929,0.776797,0.00254802,0.0404646,706,862,-35.1972,-0.881038
-511,162,-35.1313,1.01721,0.000147832,-0.000492279,0.0027063,0.00255293,-0.00289738,0.72654,0.00314883,0.0418403,713,862,-35.1313,-1.01721
-504,162,-35.0648,0.950684,0.00140888,-0.00162577,0.00325786,0.00348542,-0.00370232,0.567464,0.00415047,0.0439367,720,862,-35.0648,-0.950673
-497,162,-35.01,0.921204,0.00305257,-0.00344156,0.00341734,0.00451949,-0.00490848,0.405472,0.00544479,0.0439492,727,862,-35.01,-0.921196
-490,162,0,0,0,0,0,0,0,0,0,-1,734,862,0,0
-483,162,0,0,0,0,0,0,0,0,0,-1,741,862,0,0
-476,162,0,0,0,0,0,0,0,0,0,-1,748,862,0,0
-469,162,0,0,0,0,0,0,0,0,0,-1,755,862,0,0
-462,162,0,0,0,0,0,0,0,0,0,-1,762,862,0,0
-455,162,0,0,0,0,0,0,0,0,0,-1,769,862,0,0
-448,162,0,0,0,0,0,0,0,0,0,-1,776,862,0,0
-441,162,0,0,0,0,0,0,0,0,0,-1,783,862,0,0
-434,162,0,0,0,0,0,0,0,0,0,-1,790,862,0,0
-427,162,0,0,0,0,0,0,0,0,0,-1,797,862,0,0
-420,162,0,0,0,0,0,0,0,0,0,-1,804,862,0,0
-413,162,0,0,0,0,0,0,0,0,0,-1,811,862,0,0
-406,162,0,0,0,0,0,0,0,0,0,-1,818,862,0,0
-399,162,0,0,0,0,0,0,0,0,0,-1,825,862,0,0
-392,162,0,0,0,0,0,0,0,0,0,-1,832,862,0,0
-385,162,0,0,0,0,0,0,0,0,0,-1,839,862,0,0
-378,162,0,0,0,0,0,0,0,0,0,-1,846,862,0,0
-371,162,0,0,0,0,0,0,0,0,0,-1,853,862,0,0
-364,162,0,0,0,0,0,0,0,0,0,-1,860,862,0,0
-357,162,0,0,0,0,0,0,0,0,0,-1,867,862,0,0
-350,162,0,0,0,0,0,0,0,0,0,-1,874,862,0,0
-343,162,0,0,0,0,0,0,0,0,0,-1,881,862,0,0
-336,162,0,0,0,0,0,0,0,0,0,-1,888,862,0,0
-329,162,0,0,0,0,0,0,0,0,0,-1,895,862,0,0
-322,162,0,0,0,0,0,0,0,0,0,-1,902,862,0,0
-315,162,0,0,0,0,0,0,0,0,0,-1,909,862,0,0
-308,162,0,0,0,0,0,0,0,0,0,-1,916,862,0,0
-301,162,0,0,0,0,0,0,0,0,0,-1,923,862,0,0
-294,162,0,0,0,0,0,0,0,0,0,-1,930,862,0,0
-287,162,0,0,0,0,0,0,0,0,0,-1,937,862,0,0
-280,162,0,0,0,0,0,0,0,0,0,-1,944,862,0,0
-273,162,0,0,0,0,0,0,0,0,0,-1,951,862,0,0
-266,162,0,0,0,0,0,0,0,0,0,-1,958,862,0,0
-259,162,0,0,0,0,0,0,0,0,0,-1,965,862,0,0
-252,162,0,0,0,0,0,0,0,0,0,-1,972,862,0,0
-245,162,0,0,0,0,0,0,0,0,0,-1,979,862,0,0
-238,162,0,0,0,0,0,0,0,0,0,-1,986,862,0,0
-231,162,0,0,0,0,0,0,0,0,0,-1,993,862,0,0
-224,162,0,0,0,0,0,0,0,0,0,-1,1000,862,0,0
-217,162,0,0,0,0,0,0,0,0,0,-1,1007,862,0,0
-210,162,0,0,0,0,0,0,0,0,0,-1,1014,862,0,0
-203,162,0,0,0,0,0,0,0,0,0,-1,1021,862,0,0
-196,162,0,0,0,0,0,0,0,0,0,-1,1028,862,0,0
-189,162,0,0,0,0,0,0,0,0,0,-1,1035,862,0,0
-182,162,0,0,0,0,0,0,0,0,0,-1,1042,862,0,0
-175,162,0,0,0,0,0,0,0,0,0,-1,1049,862,0,0
-168,162,0,0,0,0,0,0,0,0,0,-1,1056,862,0,0
-161,162,0,0,0,0,0,0,0,0,0,-1,1063,862,0,0
-154,162,0,0,0,0,0,0,0,0,0,-1,1070,862,0,0
-147,162,0,0,0,0,0,0,0,0,0,-1,1077,862,0,0
-140,162,0,0,0,0,0,0,0,0,0,-1,1084,862,0,0
-133,162,0,0,0,0,0,0,0,0,0,-1,1091,862,0,0
-126,162,0,0,0,0,0,0,0,0,0,-1,1098,862,0,0
-119,162,0,0,0,0,0,0,0,0,0,-1,1105,862,0,0
-112,162,0,0,0,0,0,0,0,0,0,-1,1112,862,0,0
-105,162,0,0,0,0,0,0,0,0,0,-1,1119,862,0,0
-98,162,0,0,0,0,0,0,0,0,0,-1,1126,862,0,0
-91,162,0,0,0,0,0,0,0,0,0,-1,1133,862,0,0
-84,162,0,0,0,0,0,0,0,0,0,-1,1140,862,0,0
-77,162,0,0,0,0,0,0,0,0,0,-1,1147,862,0,0
-70,162,0,0,0,0,0,0,0,0,0,-1,1154,862,0,0
-63,162,0,0,0,0,0,0,0,0,0,-1,1161,862,0,0
-56,162,0,0,0,0,0,0,0,0,0,-1,1168,862,0,0
-49,162,0,0,0,0,0,0,0,0,0,-1,1175,862,0,0
-42,162,0,0,0,0,0,0,0,0,0,-1,1182,862,0,0
-35,162,0,0,0,0,0,0,0,0,0,-1,1189,862,0,0
-28,162,0,0,0,0,0,0,0,0,0,-1,1196,862,0,0
-21,162,0,0,0,0,0,0,0,0,0,-1,1203,862,0,0
-14,162,0,0,0,0,0,0,0,0,0,-1,1210,862,0,0
-7,162,0,0,0,0,0,0,0,0,0,-1,1217,862,0,0
0,162,0,0,0,0,0,0,0,0,0,-1,1224,862,0,0
7,162,0,0,0,0,0,0,0,0,0,-1,1231,862,0,0
14,162,0,0,0,0,0,0,0,0,0,-1,1238,862,0,0
21,162,0,0,0,0,0,0,0,0,0,-1,1245,862,0,0
28,162,0,0,0,0,0,0,0,0,0,-1,1252,862,0,0
35,162,0,0,0,0,0,0,0,0,0,-1,1259,862,0,0
42,162,0,0,0,0,0,0,0,0,0,-1,1266,862,0,0
49,162,0,0,0,0,0,0,0,0,0,-1,1273,862,0,0
56,162,0,0,0,0,0,0,0,0,0,-1,1280,862,0,0
63,162,0,0,0,0,0,0,0,0,0,-1,1287,862,0,0
70,162,0,0,0,0,0,0,0,0,0,-1,1294,862,0,0
77,162,0,0,0,0,0,0,0,0,0,-1,1301,862,0,0
84,162,0,0,0,0,0,0,0,0,0,-1,1308,862,0,0
91,162,0,0,0,0,0,0,0,0,0,-1,1315,862,0,0
98,162,0,0,0,0,0,0,0,0,0,-1,1322,862,0,0
105,162,0,0,0,0,0,0,0,0,0,-1,1329,862,0,0
112,162,0,0,0,0,0,0,0,0,0,-1,1336,862,0,0
119,162,0,0,0,0,0,0,0,0,0,-1,1343,862,0,0
126,162,0,0,0,0,0,0,0,0,0,-1,1350,862,0,0
133,162,0,0,0,0,0,0,0,0,0,-1,1357,862,0,0
140,162,0,0,0,0,0,0,0,0,0,-1,1364,862,0,0
147,162,0,0,0,0,0,0,0,0,0,-1,1371,862,0,0
154,162,0,0,0,0,0,0,0,0,0,-1,1378,862,0,0
161,162,0,0,0,0,0,0,0,0,0,-1,1385,862,0,0
168,162,0,0,0,0,0,0,0,0,0,-1,1392,862,0,0
175,162,0,0,0,0,0,0,0,0,0,-1,1399,862,0,0
182,162,0,0,0,0,0,0,0,0,0,-1,1406,862,0,0
189,162,0,0,0,0,0,0,0,0,0,-1,1413,862,0,0
196,162,0,0,0,0,0,0,0,0,0,-1,1420,862,0,0
203,162,0,0,0,0,0,0,0,0,0,-1,1427,862,0,0
210,162,0,0,0,0,0,0,0,0,0,-1,1434,862,0,0
217,162,0,0,0,0,0,0,0,0,0,-1,1441,862,0,0
224,162,0,0,0,0,0,0,0,0,0,-1,1448,862,0,0
231,162,0,0,0,0,0,0,0,0,0,-1,1455,862,0,0
238,162,0,0,0,0,0,0,0,0,0,-1,1462,862,0,0
245,162,0,0,0,0,0,0,0,0,0,-1,1469,862,0,0
252,162,0,0,0,0,0,0,0,0,0,-1,1476,862,0,0
259,162,0,0,0,0,0,0,0,0,0,-1,1483,862,0,0
266,162,0,0,0,0,0,0,0,0,0,-1,1490,862,0,0
273,162,0,0,0,0,0,0,0,0,0,-1,1497,862,0,0
280,162,0,0,0,0,0,0,0,0,0,-1,1504,862,0,0
287,162,0,0,0,0,0,0,0,0,0,-1,1511,862,0,0
294,162,0,0,0,0,0,0,0,0,0,-1,1518,862,0,0
301,162,0,0,0,0,0,0,0,0,0,-1,1525,862,0,0
308,162,0,0,0,0,0,0,0,0,0,-1,1532,862,0,0
315,162,0,0,0,0,0,0,0,0,0,-1,1539,862,0,0
322,162,0,0,0,0,0,0,0,0,0,-1,1546,862,0,0
329,162,0,0,0,0,0,0,0,0,0,-1,1553,862,0,0
336,162,0,0,0,0,0,0,0,0,0,-1,1560,862,0,0
343,162,0,0,0,0,0,0,0,0,0,-1,1567,862,0,0
350,162,0,0,0,0,0,0,0,0,0,-1,1574,862,0,0
357,162,0,0,0,0,0,0,0,0,0,-1,1581,862,0,0
364,162,0,0,0,0,0,0,0,0,0,-1,1588,862,0,0
371,162,0,0,0,0,0,0,0,0,0,-1,1595,862,0,0
378,162,0,0,0,0,0,0,0,0,0,-1,1602,862,0,0
385,162,0,0,0,0,0,0,0,0,0,-1,1609,862,0,0
392,162,0,0,0,0,0,0,0,0,0,-1,1616,862,0,0
399,162,0,0,0,0,0,0,0,0,0,-1,1623,862,0,0
406,162,0,0,0,0,0,0,0,0,0,-1,1630,862,0,0
413,162,0,0,0,0,0,0,0,0,0,-1,1637,862,0,0
420,162,0,0,0,0,0,0,0,0,0,-1,1644,862,0,0
427,162,0,0,0,0,0,0,0,0,0,-1,1651,862,0,0
434,162,0,0,0,0,0,0,0,0,0,-1,1658,862,0,0
441,162,0,0,0,0,0,0,0,0,0,-1,1665,862,0,0
448,162,0,0,0,0,0,0,0,0,0,-1,1672,862,0,0
455,162,0,0,0,0,0,0,0,0,0,-1,1679,862,0,0
462,162,0,0,0,0,0,0,0,0,0,-1,1686,862,0,0
469,162,0,0,0,0,0,0,0,0,0,-1,1693,862,0,0
476,162,0,0,0,0,0,0,0,0,0,-1,1700,862,0,0
483,162,0,0,0,0,0,0,0,0,0,-1,1707,862,0,0
490,162,0,0,0,0,0,0,0,0,0,-1,1714,862,0,0
497,162,0,0,0,0,0,0,0,0,0,-1,1721,862,0,0
504,162,0,0,0,0,0,0,0,0,0,-1,1728,862,0,0
511,162,0,0,0,0,0,0,0,0,0,-1,1735,862,0,0
518,162,0,0,0,0,0,0,0,0,0,-1,1742,862,0,0
525,162,0,0,0,0,0,0,0,0,0,-1,1749,862,0,0
532,162,0,0,0,0,0,0,0,0,0,-1,1756,862,0,0
539,162,0,0,0,0,0,0,0,0,0,-1,1763,862,0,0
546,162,0,0,0,0,0,0,0,0,0,-1,1770,862,0,0
553,162,0,0,0,0,0,0,0,0,0,-1,1777,862,0,0
560,162,0,0,0,0,0,0,0,0,0,-1,1784,862,0,0
567,162,0,0,0,0,0,0,0,0,0,-1,1791,862,0,0
574,162,0,0,0,0,0,0,0,0,0,-1,1798,862,0,0
581,162,0,0,0,0,0,0,0,0,0,-1,1805,862,0,0
588,162,0,0,0,0,0,0,0,0,0,-1,1812,862,0,0
595,162,0,0,0,0,0,0,0,0,0,-1,1819,862,0,0
602,162,0,0,0,0,0,0,0,0,0,-1,1826,862,0,0
609,162,0,0,0,0,0,0,0,0,0,-1,1833,862,0,0
616,162,46.8533,2.94537,-0.00113378,-0.00668278,-0.0081554,0.00470614,-0.0125227,-0.621437,0.0102827,0.0478884,1840,862,46.8533,-2.94538
623,162,46.8049,2.66339,-0.000137833,-0.00426468,-0.00541422,0.00359284,-0.00799535,-0.603339,0.0068495,0.046265,1847,862,46.8049,-2.66338
630,162,46.67,2.52899,0.000538709,-0.00233428,-0.00318115,0.00259267,-0.00438823,-0.573321,0.00407462,0.042678,1854,862,46.67,-2.52902
637,162,46.6825,2.62067,0.000802776,-0.000820687,-0.00148697,0.00168515,-0.00170306,-0.535555,0.00195619,0.0388958,1861,862,46.6825,-2.62064
644,162,46.84,2.62897,0.00066311,-0.000125825,-0.000580367,0.000970377,-0.000433091,-0.486917,0.000829849,0.0359592,1868,862,46.84,-2.62896
651,162,46.8778,2.6405,0.00046044,-1.1191e-06,-0.000192512,0.000530194,-7.08727e-05,-0.34762,0.0003793,0.0335016,1875,862,46.8778,-2.6405
658,162,46.8403,2.71027,0.000371707,-6.37203e-05,-7.68061e-05,0.000384858,-7.68711e-05,-0.169577,0.000285664,0.0323532,1882,862,46.8404,-2.71028
665,162,46.8503,2.7439,0.000267582,-0.000123054,-0.000161352,0.000325609,-0.000181081,-0.345226,0.000296478,0.0414323,1889,862,46.8504,-2.74389
672,162,46.8763,2.72491,0,0,0,0,0,0,0,-1,1896,862,46.8763,-2.72492
679,162,26.5077,2.54785,0,0,0,0,0,0,0,-1,1903,862,26.5077,-2.54787
686,162,38.8702,1.55695,0,0,0,0,0,0,0,-1,1910,862,38.8703,-1.55697
693,162,38.8591,2.20447,-0.000387665,-0.000571519,-0.000244972,-0.000217939,-0.000741245,-0.605901,0.000439896,0.0259281,1917,862,38.8592,-2.20449
700,162,38.8586,2.68073,-0.000311846,-0.000486523,-0.00042515,3.48435e-05,-0.000833213,-0.684092,0.000567447,0.0251664,1924,862,38.8587,-2.68075
707,162,38.7821,3.11682,1.66817e-05,-4.66875e-05,-0.000462833,0.000448913,-0.000478919,-0.751222,0.000535778,0.0186643,1931,862,38.7821,-3.11682
714,162,38.6715,3.57037,0.00021414,0.000526314,-0.000268637,0.000680918,5.95356e-05,-1.04858,0.000435459,0.0210313,1938,862,38.6715,-3.57036
721,162,38.5933,4.14667,0.000389823,0.00160539,0.000162105,0.00162664,0.000368576,1.44047,0.00098483,0.0293585,1945,862,38.5933,-4.14666
728,162,38.556,4.61743,0.000602539,0.00320164,0.000877414,0.00347011,0.00033407,1.27386,0.00221048,0.023055,1952,862,38.556,-4.61746
735,162,38.6007,5.09937,0.000945949,0.00533074,0.00185513,0.0060103,0.000266392,1.21966,0.00392109,0.0112932,1959,862,38.6007,-5.09939
742,162,38.5913,5.5802,0.0013856,0.00804069,0.00318479,0.00931917,0.000107124,1.18906,0.00617738,0.0146179,1966,862,38.5913,-5.5802
749,162,38.5092,6.03809,0.00188345,0.0113052,0.00493255,0.013415,-0.000226411,1.1666,0.00901977,0.0218123,1973,862,38.5092,-6.0381
756,162,38.4449,6.57526,0.00256009,0.0153307,0.00729646,0.0186413,-0.000750511,1.14485,0.0126851,0.0444975,1980,862,38.445,-6.57526
763,162,38.8477,7.52283,0,0,0,0,0,0,0,-1,1987,862,38.8476,-7.52282
770,162,39.4889,8.18964,0,0,0,0,0,0,0,-1,1994,862,39.4889,-8.18965
777,162,39.4197,8.78247,0,0,0,0,0,0,0,-1,2001,862,39.4197,-8.78246
784,162,37.2179,12.1003,0,0,0,0,0,0,0,-1,2008,862,37.2179,-12.1003
791,162,0,0,0,0,0,0,0,0,0,-1,2015,862,0,0
798,162,0,0,0,0,0,0,0,0,0,-1,2022,862,0,0
805,162,0,0,0,0,0,0,0,0,0,-1,2029,862,0,0
812,162,0,0,0,0,0,0,0,0,0,-1,2036,862,0,0
-700,155,0,0,0,0,0,0,0,0,0,-1,524,869,0,0
-693,155,0,0,0,0,0,0,0,0,0,-1,531,869,0,0
-686,155,0,0,0,0,0,0,0,0,0,-1,538,869,0,0
-679,155,0,0,0,0,0,0,0,0,0,-1,545,869,0,0
-672,155,0,0,0,0,0,0,0,0,0,-1,552,869,0,0
-665,155,-27.8384,3.4223,-0.0962402,-0.0979814,0.0493184,-0.0477847,-0.146437,0.776573,0.0862289,0.0475004,559,869,-27.8384,-3.4223
-658,155,-28.6256,3.6264,-0.0734108,-0.0799319,0.0426698,-0.0338771,-0.119466,0.747266,0.0710947,0.04517,566,869,-28.6256,-3.62639
-651,155,-28.7778,3.56354,-0.0561188,-0.0640538,0.0362539,-0.023616,-0.0965566,0.730897,0.058121,0.0470467,573,869,-28.7778,-3.56353
-644,155,-28.4126,3.82507,0,0,0,0,0,0,0,-1,580,869,-28.4126,-3.82507
-637,155,-28.324,3.67072,0,0,0,0,0,0,0,-1,587,869,-28.324,-3.67074
-630,155,-28.4726,3.67621,-0.0222748,-0.0276805,0.019789,-0.00500488,-0.0449504,0.717526,0.0284458,0.0464697,594,869,-28.4726,-3.67623
-623,155,-28.5071,3.94989,-0.0153172,-0.0191618,0.0153864,-0.00173343,-0.0327455,0.723253,0.0212761,0.0261414,601,869,-28.5072,-3.94991
-616,155,-28.5275,3.43683,-0.00995352,-0.0123484,0.0115892,0.000499963,-0.0228019,0.733919,0.0153706,0.0144214,608,869,-28.5274,-3.43681
-609,155,-28.5988,2.92065,-0.00472989,-0.00665156,0.00825778,0.00262277,-0.0140042,0.727481,0.0103221,0.0134077,615,869,-28.5987,-2.92064
-602,155,-28.6284,2.45129,-0.00157102,-0.00231787,0.00531642,0.00338507,-0.00727396,0.750335,0.00628904,0.0127892,622,869,-28.6284,-2.45128
-595,155,-28.6418,1.99774,-0.000376753,-0.000973138,0.00365973,0.00299691,-0.00434681,0.744748,0.00426371,0.0124983,629,869,-28.6419,-1.99774
-588,155,-28.649,1.55731,0.000113396,-0.00101219,0.00283453,0.00244047,-0.00333927,0.687398,0.00335035,0.0155134,636,869,-28.649,-1.55734
-581,155,-28.8813,1.19507,0.000446233,-0.000875055,0.00231343,0.0021915,-0.00262032,0.646315,0.00278178,0.0299086,643,869,-28.8813,-1.19509
-574,155,-28.9838,0.808105,0.000290497,-0.000636427,0.00187773,0.00176111,-0.00210704,0.664406,0.00223625,0.0356464,650,869,-28.9838,-0.808115
-567,155,-28.9274,0.144775,0.000125823,-0.000767987,0.0017148,0.001451,-0.00209316,0.657925,0.00205738,0.0432969,657,869,-28.9274,-0.144775
-560,155,-28.7703,-0.39563,-1.86689e-06,-0.00076707,0.00172121,0.00137875,-0.00214769,0.676033,0.00205206,0.0387435,664,869,-28.7703,0.395614
-553,155,-28.5204,-1.24188,0,0,0,0,0,0,0,-1,671,869,-28.5204,1.2419
-546,155,-22.7988,0.873657,0,0,0,0,0,0,0,-1,678,869,-22.7988,-0.873645
-539,155,-35.0873,1.06329,0,0,0,0,0,0,0,-1,685,869,-35.0873,-1.06328
-532,155,-35.0998,0.979309,-0.000259202,-0.000451027,0.00185463,0.00150199,-0.00221222,0.759564,0.00215743,0.0342505,692,869,-35.0998,-0.979298
-525,155,-35.1177,0.932434,-0.000639201,-0.000337168,0.00194897,0.00146663,-0.002443,0.824063,0.00228057,0.0379441,699,869,-35.1177,-0.932405
-518,155,-35.1769,0.941711,-0.00114886,-0.000358735,0.00238861,0.00166727,-0.00317486,0.867353,0.00284041,0.0431105,706,869,-35.1769,-0.94172
-511,155,-35.2005,1.00092,-0.0009066,-0.00103833,0.00311008,0.00213831,-0.00408324,0.774811,0.00365005,0.0429354,713,869,-35.2005,-1.00091
-504,155,-35.1746,1.04926,0.000377898,-0.00293457,0.00393181,0.00298808,-0.00554475,0.586058,0.0049996,0.0410557,720,869,-35.1746,-1.04926
-497,155,0,0,0,0,0,0,0,0,0,-1,727,869,0,0
-490,155,0,0,0,0,0,0,0,0,0,-1,734,869,0,0
-483,155,0,0,0,0,0,0,0,0,0,-1,741,869,0,0
-476,155,0,0,0,0,0,0,0,0,0,-1,748,869,0,0
-469,155,0,0,0,0,0,0,0,0,0,-1,755,869,0,0
-462,155,0,0,0,0,0,0,0,0,0,-1,762,869,0,0
-455,155,0,0,0,0,0,0,0,0,0,-1,769,869,0,0
-448,155,0,0,0,0,0,0,0,0,0,-1,776,869,0,0
-441,155,0,0,0,0,0,0,0,0,0,-1,783,869,0,0
-434,155,0,0,0,0,0,0,0,0,0,-1,790,869,0,0
-427,155,0,0,0,0,0,0,0,0,0,-1,797,869,0,0
-420,155,0,0,0,0,0,0,0,0,0,-1,804,869,0,0
-413,155,0,0,0,0,0,0,0,0,0,-1,811,869,0,0
-406,155,0,0,0,0,0,0,0,0,0,-1,818,869,0,0
-399,155,0,0,0,0,0,0,0,0,0,-1,825,869,0,0
-392,155,0,0,0,0,0,0,0,0,0,-1,832,869,0,0
-385,155,0,0,0,0,0,0,0,0,0,-1,839,869,0,0
-378,155,0,0,0,0,0,0,0,0,0,-1,846,869,0,0
-371,155,0,0,0,0,0,0,0,0,0,-1,853,869,0,0
-364,155,0,0,0,0,0,0,0,0,0,-1,860,869,0,0
-357,155,0,0,0,0,0,0,0,0,0,-1,867,869,0,0
-350,155,0,0,0,0,0,0,0,0,0,-1,874,869,0,0
-343,155,0,0,0,0,0,0,0,0,0,-1,881,869,0,0
-336,155,0,0,0,0,0,0,0,0,0,-1,888,869,0,0
-329,155,0,0,0,0,0,0,0,0,0,-1,895,869,0,0
-322,155,0,0,0,0,0,0,0,0,0,-1,902,869,0,0
-315,155,0,0,0,0,0,0,0,0,0,-1,909,869,0,0
-308,155,0,0,0,0,0,0,0,0,0,-1,916,869,0,0
-301,155,0,0,0,0,0,0,0,0,0,-1,923,869,0,0
-294,155,0,0,0,0,0,0,0,0,0,-1,930,869,0,0
-287,155,0,0,0,0,0,0,0,0,0,-1,937,869,0,0
-280,155,0,0,0,0,0,0,0,0,0,-1,944,869,0,0
-273,155,0,0,0,0,0,0,0,0,0,-1,951,869,0,0
-266,155,0,0,0,0,0,0,0,0,0,-1,958,869,0,0
-259,155,0,0,0,0,0,0,0,0,0,-1,965,869,0,0
-252,155,0,0,0,0,0,0,0,0,0,-1,972,869,0,0
-245,155,0,0,0,0,0,0,0,0,0,-1,979,869,0,0
-238,155,0,0,0,0,0,0,0,0,0,-1,986,869,0,0
-231,155,0,0,0,0,0,0,0,0,0,-1,993,869,0,0
-224,155,0,0,0,0,0,0,0,0,0,-1,1000,869,0,0
-217,155,0,0,0,0,0,0,0,0,0,-1,1007,869,0,0
-210,155,0,0,0,0,0,0,0,0,0,-1,1014,869,0,0
-203,155,0,0,0,0,0,0,0,0,0,-1,1021,869,0,0
-196,155,0,0,0,0,0,0,0,0,0,-1,1028,869,0,0
-189,155,0,0,0,0,0,0,0,0,0,-1,1035,869,0,0
-182,155,0,0,0,0,0,0,0,0,0,-1,1042,869,0,0
-175,155,0,0,0,0,0,0,0,0,0,-1,1049,869,0,0
-168,155,0,0,0,0,0,0,0,0,0,-1,1056,869,0,0
-161,155,0,0,0,0,0,0,0,0,0,-1,1063,869,0,0
-154,155,0,0,0,0,0,0,0,0,0,-1,1070,869,0,0
-147,155,0,0,0,0,0,0,0,0,0,-1,1077,869,0,0
-140,155,0,0,0,0,0,0,0,0,0,-1,1084,869,0,0
-133,155,0,0,0,0,0,0,0,0,0,-1,1091,869,0,0
-126,155,0,0,0,0,0,0,0,0,0,-1,1098,869,0,0
-119,155,0,0,0,0,0,0,0,0,0,-1,1105,869,0,0
-112,155,0,0,0,0,0,0,0,0,0,-1,1112,869,0,0
-105,155,0,0,0,0,0,0,0,0,0,-1,1119,869,0,0
-98,155,0,0,0,0,0,0,0,0,0,-1,1126,869,0,0
-91,155,0,0,0,0,0,0,0,0,0,-1,1133,869,0,0
-84,155,0,0,0,0,0,0,0,0,0,-1,1140,869,0,0
-77,155,0,0,0,0,0,0,0,0,0,-1,1147,869,0,0
-70,155,0,0,0,0,0,0,0,0,0,-1,1154,869,0,0
-63,155,0,0,0,0,0,0,0,0,0,-1,1161,869,0,0
-56,155,0,0,0,0,0,0,0,0,0,-1,1168,869,0,0
-49,155,0,0,0,0,0,0,0,0,0,-1,1175,869,0,0
-42,155,0,0,0,0,0,0,0,0,0,-1,1182,869,0,0
-35,155,0,0,0,0,0,0,0,0,0,-1,1189,869,0,0
-28,155,0,0,0,0,0,0,0,0,0,-1,1196,869,0,0
-21,155,0,0,0,0,0,0,0,0,0,-1,1203,869,0,0
-14,155,0,0,0,0,0,0,0,0,0,-1,1210,869,0,0
-7,155,0,0,0,0,0,0,0,0,0,-1,1217,869,0,0
0,155,0,0,0,0,0,0,0,0,0,-1,1224,869,0,0
7,155,0,0,0,0,0,0,0,0,0,-1,1231,869,0,0
14,155,0,0,0,0,0,0,0,0,0,-1,1238,869,0,0
21,155,0,0,0,0,0,0,0,0,0,-1,1245,869,0,0
28,155,0,0,0,0,0,0,0,0,0,-1,1252,869,0,0
35,155,0,0,0,0,0,0,0,0,0,-1,1259,869,0,0
42,155,0,0,0,0,0,0,0,0,0,-1,1266,869,0,0
49,155,0,0,0,0,0,0,0,0,0,-1,1273,869,0,0
56,155,0,0,0,0,0,0,0,0,0,-1,1280,869,0,0
63,155,0,0,0,0,0,0,0,0,0,-1,1287,869,0,0
70,155,0,0,0,0,0,0,0,0,0,-1,1294,869,0,0
77,155,0,0,0,0,0,0,0,0,0,-1,1301,869,0,0
84,155,0,0,0,0,0,0,0,0,0,-1,1308,869,0,0
91,155,0,0,0,0,0,0,0,0,0,-1,1315,869,0,0
98,155,0,0,0,0,0,0,0,0,0,-1,1322,869,0,0
105,155,0,0,0,0,0,0,0,0,0,-1,1329,869,0,0
112,155,0,0,0,0,0,0,0,0,0,-1,1336,869,0,0
119,155,0,0,0,0,0,0,0,0,0,-1,1343,869,0,0
126,155,0,0,0,0,0,0,0,0,0,-1,1350,869,0,0
133,155,0,0,0,0,0,0,0,0,0,-1,1357,869,0,0
140,155,0,0,0,0,0,0,0,0,0,-1,1364,869,0,0
147,155,0,0,0,0,0,0,0,0,0,-1,1371,869,0,0
154,155,0,0,0,0,0,0,0,0,0,-1,1378,869,0,0
161,155,0,0,0,0,0,0,0,0,0,-1,1385,869,0,0
168,155,0,0,0,0,0,0,0,0,0,-1,1392,869,0,0
175,155,0,0,0,0,0,0,0,0,0,-1,1399,869,0,0
182,155,0,0,0,0,0,0,0,0,0,-1,1406,869,0,0
189,155,0,0,0,0,0,0,0,0,0,-1,1413,869,0,0
196,155,0,0,0,0,0,0,0,0,0,-1,1420,869,0,0
203,155,0,0,0,0,0,0,0,0,0,-1,1427,869,0,0
210,155,0,0,0,0,0,0,0,0,0,-1,1434,869,0,0
217,155,0,0,0,0,0,0,0,0,0,-1,1441,869,0,0
224,155,0,0,0,0,0,0,0,0,0,-1,1448,869,0,0
231,155,0,0,0,0,0,0,0,0,0,-1,1455,869,0,0
238,155,0,0,0,0,0,0,0,0,0,-1,1462,869,0,0
245,155,0,0,0,0,0,0,0,0,0,-1,1469,869,0,0
252,155,0,0,0,0,0,0,0,0,0,-1,1476,869,0,0
259,155,0,0,0,0,0,0,0,0,0,-1,1483,869,0,0
266,155,0,0,0,0,0,0,0,0,0,-1,1490,869,0,0
273,155,0,0,0,0,0,0,0,0,0,-1,1497,869,0,0
280,155,0,0,0,0,0,0,0,0,0,-1,1504,869,0,0
287,155,0,0,0,0,0,0,0,0,0,-1,1511,869,0,0
294,155,0,0,0,0,0,0,0,0,0,-1,1518,869,0,0
301,155,0,0,0,0,0,0,0,0,0,-1,1525,869,0,0
308,155,0,0,0,0,0,0,0,0,0,-1,1532,869,0,0
315,155,0,0,0,0,0,0,0,0,0,-1,1539,869,0,0
322,155,0,0,0,0,0,0,0,0,0,-1,1546,869,0,0
329,155,0,0,0,0,0,0,0,0,0,-1,1553,869,0,0
336,155,0,0,0,0,0,0,0,0,0,-1,1560,869,0,0
343,155,0,0,0,0,0,0,0,0,0,-1,1567,869,0,0
350,155,0,0,0,0,0,0,0,0,0,-1,1574,869,0,0
357,155,0,0,0,0,0,0,0,0,0,-1,1581,869,0,0
364,155,0,0,0,0,0,0,0,0,0,-1,1588,869,0,0
371,155,0,0,0,0,0,0,0,0,0,-1,1595,869,0,0
378,155,0,0,0,0,0,0,0,0,0,-1,1602,869,0,0
385,155,0,0,0,0,0,0,0,0,0,-1,1609,869,0,0
392,155,0,0,0,0,0,0,0,0,0,-1,1616,869,0,0
399,155,0,0,0,0,0,0,0,0,0,-1,1623,869,0,0
406,155,0,0,0,0,0,0,0,0,0,-1,1630,869,0,0
413,155,0,0,0,0,0,0,0,0,0,-1,1637,869,0,0
420,155,0,0,0,0,0,0,0,0,0,-1,1644,869,0,0
427,155,0,0,0,0,0,0,0,0,0,-1,1651,869,0,0
434,155,0,0,0,0,0,0,0,0,0,-1,1658,869,0,0
441,155,0,0,0,0,0,0,0,0,0,-1,1665,869,0,0
448,155,0,0,0,0,0,0,0,0,0,-1,1672,869,0,0
455,155,0,0,0,0,0,0,0,0,0,-1,1679,869,0,0
462,155,0,0,0,0,0,0,0,0,0,-1,1686,869,0,0
469,155,0,0,0,0,0,0,0,0,0,-1,1693,869,0,0
476,155,0,0,0,0,0,0,0,0,0,-1,1700,869,0,0
483,155,0,0,0,0,0,0,0,0,0,-1,1707,869,0,0
490,155,0,0,0,0,0,0,0,0,0,-1,1714,869,0,0
497,155,0,0,0,0,0,0,0,0,0,-1,1721,869,0,0
504,155,0,0,0,0,0,0,0,0,0,-1,1728,869,0,0
511,155,0,0,0,0,0,0,0,0,0,-1,1735,869,0,0
518,155,0,0,0,0,0,0,0,0,0,-1,1742,869,0,0
525,155,0,0,0,0,0,0,0,0,0,-1,1749,869,0,0
532,155,0,0,0,0,0,0,0,0,0,-1,1756,869,0,0
539,155,0,0,0,0,0,0,0,0,0,-1,1763,869,0,0
546,155,0,0,0,0,0,0,0,0,0,-1,1770,869,0,0
553,155,0,0,0,0,0,0,0,0,0,-1,1777,869,0,0
560,155,0,0,0,0,0,0,0,0,0,-1,1784,869,0,0
567,155,0,0,0,0,0,0,0,0,0,-1,1791,869,0,0
574,155,0,0,0,0,0,0,0,0,0,-1,1798,869,0,0
581,155,0,0,0,0,0,0,0,0,0,-1,1805,869,0,0
588,155,0,0,0,0,0,0,0,0,0,-1,1812,869,0,0
595,155,0,0,0,0,0,0,0,0,0,-1,1819,869,0,0
602,155,0,0,0,0,0,0,0,0,0,-1,1826,869,0,0
609,155,0,0,0,0,0,0,0,0,0,-1,1833,869,0,0
616,155,46.9606,3.06128,0,0,0,0,0,0,0,-1,1840,869,46.9606,-3.06129
623,155,46.9241,2.81049,0.000708401,-0.00561761,-0.00659801,0.00486238,-0.00977159,-0.561887,0.00860594,0.0445066,1847,869,46.9241,-2.81048
630,155,46.7948,2.72559,0.000965732,-0.00347568,-0.00417022,0.00346967,-0.00597963,-0.540738,0.00551934,0.0424353,1854,869,46.7948,-2.72557
637,155,46.8082,2.70337,0.00104725,-0.00166591,-0.00221067,0.00228439,-0.00290305,-0.5102,0.00300206,0.0388779,1861,869,46.8082,-2.70335
644,155,46.8944,2.67181,0.000891201,-0.00069014,-0.00101483,0.00138701,-0.00118595,-0.454459,0.00148701,0.0358619,1868,869,46.8944,-2.67184
651,155,46.8939,2.63855,0.000724929,-0.00035478,-0.000398844,0.000856282,-0.000486133,-0.318147,0.000784803,0.0329919,1875,869,46.8939,-2.63853
658,155,46.8209,2.70691,0.000722638,-0.00030944,-0.000122346,0.000736943,-0.000323745,-0.116394,0.000627686,0.0263888,1882,869,46.821,-2.70694
665,155,46.8015,2.73907,0.000695264,-0.000309713,-0.000115891,0.000708456,-0.000322904,-0.113335,0.000609167,0.0312244,1889,869,46.8015,-2.73907
672,155,46.8114,2.73071,0,0,0,0,0,0,0,-1,1896,869,46.8115,-2.73069
679,155,35.1565,2.78528,0,0,0,0,0,0,0,-1,1903,869,35.1565,-2.7853
686,155,39.5166,1.82166,0,0,0,0,0,0,0,-1,1910,869,39.5166,-1.82166
693,155,39.3539,2.23352,0.000295045,-0.000565547,-7.97361e-05,0.00030237,-0.000572872,-0.0916135,0.000513303,0.0408288,1917,869,39.3539,-2.23354
700,155,39.3777,2.75519,0.000426663,-0.00050437,-0.000329008,0.000531192,-0.000608899,-0.307623,0.000658741,0.0310029,1924,869,39.3777,-2.75519
707,155,39.4076,3.26099,0.000725201,-6.01959e-05,-0.00038582,0.000883019,-0.000218015,-0.388282,0.000673223,0.0225128,1931,869,39.4076,-3.26099
714,155,39.3568,3.68951,0.00079823,0.000383176,-0.000246562,0.000912977,0.000268429,-0.435576,0.000541812,0.0428515,1938,869,39.3568,-3.68949
721,155,39.1075,4.15637,0.000774193,0.00124659,2.98737e-05,0.00124847,0.000772311,1.50789,0.000727533,0.0318876,1945,869,39.1075,-4.15637
728,155,39.0889,4.66327,0.000669486,0.00256985,0.000520369,0.00270301,0.000536326,1.32028,0.0016525,0.0205675,1952,869,39.0889,-4.66329
735,155,39.0952,5.12738,0.000659881,0.00438135,0.00126413,0.00477014,0.000271091,1.27242,0.00309369,0.0159608,1959,869,39.0952,-5.12739
742,155,39.1271,5.61273,0.00073262,0.00673718,0.00233775,0.00754,-7.01996e-05,1.24,0.00505023,0.0186048,1966,869,39.1271,-5.61271
749,155,39.0521,6.06348,0.000847188,0.00956216,0.00380215,0.0109878,-0.000578405,1.21207,0.00752538,0.0182043,1973,869,39.0522,-6.06347
756,155,38.9724,6.64691,0.00108304,0.0130099,0.00580659,0.0153699,-0.00127693,1.18476,0.0106977,0.0299167,1980,869,38.9725,-6.64694
763,155,39.0092,7.39899,0.00178474,0.0175083,0.00871537,0.0213839,-0.00209082,1.15237,0.0150015,0.0456673,1987,869,39.0091,-7.39899
770,155,38.8971,8.3927,0.00250502,0.0235049,0.0123114,0.0291858,-0.00317585,1.13848,0.0205976,0.0445001,1994,869,38.8971,-8.39268
777,155,38.8502,9.14136,0,0,0,0,0,0,0,-1,2001,869,38.8503,-9.14135
784,155,38.9619,9.88068,0,0,0,0,0,0,0,-1,2008,869,38.9619,-9.88066
791,155,0,0,0,0,0,0,0,0,0,-1,2015,869,0,0
798,155,0,0,0,0,0,0,0,0,0,-1,2022,869,0,0
805,155,0,0,0,0,0,0,0,0,0,-1,2029,869,0,0
812,155,0,0,0,0,0,0,0,0,0,-1,2036,869,0,0
-700,148,0,0,0,0,0,0,0,0,0,-1,524,876,0,0
-693,148,0,0,0,0,0,0,0,0,0,-1,531,876,0,0
-686,148,0,0,0,0,0,0,0,0,0,-1,538,876,0,0
-679,148,0,0,0,0,0,0,0,0,0,-1,545,876,0,0
-672,148,-26.5212,3.78522,0,0,0,0,0,0,0,-1,552,876,-26.5212,-3.78521
-665,148,-27.803,3.88757,-0.111713,-0.0999921,0.0513706,-0.0541489,-0.157556,0.842195,0.0924353,0.0460035,559,876,-27.803,-3.88758
-658,148,-29.5823,4.6098,-0.0844666,-0.0815121,0.0437812,-0.0391833,-0.126796,0.802263,0.0749642,0.0460224,566,876,-29.5823,-4.6098
-651,148,-29.5401,3.87701,0,0,0,0,0,0,0,-1,573,876,-29.5401,-3.87701
-644,148,-29.2809,4.01642,0,0,0,0,0,0,0,-1,580,876,-29.2809,-4.01642
-637,148,-27.6625,2.17377,0,0,0,0,0,0,0,-1,587,876,-27.6625,-2.17374
-630,148,-28.7164,3.64374,0,0,0,0,0,0,0,-1,594,876,-28.7164,-3.64374
-623,148,-28.9034,4.0094,-0.0167963,-0.0189567,0.014848,-0.00298932,-0.0327637,0.749087,0.0209174,0.0261173,601,876,-28.9034,-4.0094
-616,148,-29.0013,3.44696,-0.0109023,-0.0120635,0.0110504,-0.000417324,-0.0225485,0.759151,0.0148952,0.0134856,608,876,-29.0013,-3.44698
-609,148,-29.078,2.94147,-0.00538244,-0.00651089,0.00776302,0.00183683,-0.0137302,0.749121,0.00982313,0.0123533,615,876,-29.078,-2.94147
-602,148,-29.121,2.47632,-0.0021379,-0.00235577,0.00498874,0.00274309,-0.00723676,0.774482,0.00595339,0.0137502,622,876,-29.121,-2.47634
-595,148,-29.1235,2.01825,-0.000884661,-0.00101568,0.00348601,0.00253646,-0.0044368,0.776003,0.00407554,0.0121016,629,876,-29.1236,-2.01825
-588,148,-29.1545,1.4964,-0.000378169,-0.000934301,0.00276988,0.00212757,-0.00344004,0.735371,0.00324409,0.0214593,636,876,-29.1545,-1.49637
-581,148,-29.3339,1.1524,-8.05033e-05,-0.000727913,0.00238198,0.00199967,-0.00280808,0.717863,0.00278881,0.03721,643,876,-29.3339,-1.15242
-574,148,-29.0445,0.818848,-0.00024027,-0.000465176,0.00204018,0.00169055,-0.002396,0.757866,0.00237106,0.0425972,650,876,-29.0445,-0.818875
-567,148,-29.2369,0.299194,0,0,0,0,0,0,0,-1,657,876,-29.2369,-0.299185
-560,148,-29.3195,-0.276001,0,0,0,0,0,0,0,-1,664,876,-29.3195,0.276007
-553,148,-18.3896,-0.00280762,0,0,0,0,0,0,0,-1,671,876,-18.3897,0.00278524
-546,148,-35.0644,1.03784,0,0,0,0,0,0,0,-1,678,876,-35.0644,-1.03786
-539,148,-35.0848,1.02386,-0.000889226,-0.000563472,0.00193165,0.00121216,-0.00266485,0.827459,0.00229017,0.0354805,685,876,-35.0848,-1.02384
-532,148,-35.0991,1.02448,-0.000912619,-0.000446483,0.00201013,0.00134405,-0.00270315,0.843114,0.00238017,0.0342491,692,876,-35.0991,-1.02445
-525,148,-35.0594,0.999573,-0.0015399,-0.000489392,0.00216779,0.00121587,-0.00324516,0.904257,0.00266293,0.037625,699,876,-35.0594,-0.999551
-518,148,-35.1725,0.776978,-0.00225651,-0.000841493,0.00276924,0.00130919,-0.0044072,0.910467,0.00345815,0.0449741,706,876,-35.1726,-0.776985
-511,148,-35.2111,0.779541,-0.00218662,-0.0019238,0.00380555,0.00175261,-0.00586303,0.802657,0.00460543,0.0425523,713,876,-35.2111,-0.779527
-504,148,-35.2412,1.01813,-0.000960592,-0.00440273,0.00497475,0.00258239,-0.00794571,0.618862,0.00633586,0.0425868,720,876,-35.2412,-1.0181
-497,148,0,0,0,0,0,0,0,0,0,-1,727,876,0,0
-490,148,0,0,0,0,0,0,0,0,0,-1,734,876,0,0
-483,148,0,0,0,0,0,0,0,0,0,-1,741,876,0,0
-476,148,0,0,0,0,0,0,0,0,0,-1,748,876,0,0
-469,148,0,0,0,0,0,0,0,0,0,-1,755,876,0,0
-462,148,0,0,0,0,0,0,0,0,0,-1,762,876,0,0
-455,148,0,0,0,0,0,0,0,0,0,-1,769,876,0,0
-448,148,0,0,0,0,0,0,0,0,0,-1,776,876,0,0
-441,148,0,0,0,0,0,0,0,0,0,-1,783,876,0,0
-434,148,0,0,0,0,0,0,0,0,0,-1,790,876,0,0
-427,148,0,0,0,0,0,0,0,0,0,-1,797,876,0,0
-420,148,0,0,0,0,0,0,0,0,0,-1,804,876,0,0
-413,148,0,0,0,0,0,0,0,0,0,-1,811,876,0,0
-406,148,0,0,0,0,0,0,0,0,0,-1,818,876,0,0
-399,148,0,0,0,0,0,0,0,0,0,-1,825,876,0,0
-392,148,0,0,0,0,0,0,0,0,0,-1,832,876,0,0
-385,148,0,0,0,0,0,0,0,0,0,-1,839,876,0,0
-378,148,0,0,0,0,0,0,0,0,0,-1,846,876,0,0
-371,148,0,0,0,0,0,0,0,0,0,-1,853,876,0,0
-364,148,0,0,0,0,0,0,0,0,0,-1,860,876,0,0
-357,148,0,0,0,0,0,0,0,0,0,-1,867,876,0,0
-350,148,0,0,0,0,0,0,0,0,0,-1,874,876,0,0
-343,148,0,0,0,0,0,0,0,0,0,-1,881,876,0,0
-336,148,0,0,0,0,0,0,0,0,0,-1,888,876,0,0
-329,148,0,0,0,0,0,0,0,0,0,-1,895,876,0,0
-322,148,0,0,0,0,0,0,0,0,0,-1,902,876,0,0
-315,148,0,0,0,0,0,0,0,0,0,-1,909,876,0,0
-308,148,0,0,0,0,0,0,0,0,0,-1,916,876,0,0
-301,148,0,0,0,0,0,0,0,0,0,-1,923,876,0,0
-294,148,0,0,0,0,0,0,0,0,0,-1,930,876,0,0
-287,148,0,0,0,0,0,0,0,0,0,-1,937,876,0,0
-280,148,0,0,0,0,0,0,0,0,0,-1,944,876,0,0
-273,148,0,0,0,0,0,0,0,0,0,-1,951,876,0,0
-266,148,0,0,0,0,0,0,0,0,0,-1,958,876,0,0
-259,148,0,0,0,0,0,0,0,0,0,-1,965,876,0,0
-252,148,0,0,0,0,0,0,0,0,0,-1,972,876,0,0
-245,148,0,0,0,0,0,0,0,0,0,-1,979,876,0,0
-238,148,0,0,0,0,0,0,0,0,0,-1,986,876,0,0
-231,148,0,0,0,0,0,0,0,0,0,-1,993,876,0,0
-224,148,0,0,0,0,0,0,0,0,0,-1,1000,876,0,0
-217,148,0,0,0,0,0,0,0,0,0,-1,1007,876,0,0
-210,148,0,0,0,0,0,0,0,0,0,-1,1014,876,0,0
-203,148,0,0,0,0,0,0,0,0,0,-1,1021,876,0,0
-196,148,0,0,0,0,0,0,0,0,0,-1,1028,876,0,0
-189,148,0,0,0,0,0,0,0,0,0,-1,1035,876,0,0
-182,148,0,0,0,0,0,0,0,0,0,-1,1042,876,0,0
-175,148,0,0,0,0,0,0,0,0,0,-1,1049,876,0,0
-168,148,0,0,0,0,0,0,0,0,0,-1,1056,876,0,0
-161,148,0,0,0,0,0,0,0,0,0,-1,1063,876,0,0
-154,148,0,0,0,0,0,0,0,0,0,-1,1070,876,0,0
-147,148,0,0,0,0,0,0,0,0,0,-1,1077,876,0,0
-140,148,0,0,0,0,0,0,0,0,0,-1,1084,876,0,0
-133,148,0,0,0,0,0,0,0,0,0,-1,1091,876,0,0
-126,148,0,0,0,0,0,0,0,0,0,-1,1098,876,0,0
-119,148,0,0,0,0,0,0,0,0,0,-1,1105,876,0,0
-112,148,0,0,0,0,0,0,0,0,0,-1,1112,876,0,0
-105,148,0,0,0,0,0,0,0,0,0,-1,1119,876,0,0
-98,148,0,0,0,0,0,0,0,0,0,-1,1126,876,0,0
-91,148,0,0,0,0,0,0,0,0,0,-1,1133,876,0,0
-84,148,0,0,0,0,0,0,0,0,0,-1,1140,876,0,0
-77,148,0,0,0,0,0,0,0,0,0,-1,1147,876,0,0
-70,148,0,0,0,0,0,0,0,0,0,-1,1154,876,0,0
-63,148,0,0,0,0,0,0,0,0,0,-1,1161,876,0,0
-56,148,0,0,0,0,0,0,0,0,0,-1,1168,876,0,0
-49,148,0,0,0,0,0,0,0,0,0,-1,1175,876,0,0
-42,148,0,0,0,0,0,0,0,0,0,-1,1182,876,0,0
-35,148,0,0,0,0,0,0,0,0,0,-1,1189,876,0,0
-28,148,0,0,0,0,0,0,0,0,0,-1,1196,876,0,0
-21,148,0,0,0,0,0,0,0,0,0,-1,1203,876,0,0
-14,148,0,0,0,0,0,0,0,0,0,-1,1210,876,0,0
-7,148,0,0,0,0,0,0,0,0,0,-1,1217,876,0,0
0,148,0,0,0,0,0,0,0,0,0,-1,1224,876,0,0
7,148,0,0,0,0,0,0,0,0,0,-1,1231,876,0,0
14,148,0,0,0,0,0,0,0,0,0,-1,1238,876,0,0
21,148,0,0,0,0,0,0,0,0,0,-1,1245,876,0,0
28,148,0,0,0,0,0,0,0,0,0,-1,1252,876,0,0
35,148,0,0,0,0,0,0,0,0,0,-1,1259,876,0,0
42,148,0,0,0,0,0,0,0,0,0,-1,1266,876,0,0
49,148,0,0,0,0,0,0,0,0,0,-1,1273,876,0,0
56,148,0,0,0,0,0,0,0,0,0,-1,1280,876,0,0
63,148,0,0,0,0,0,0,0,0,0,-1,1287,876,0,0
70,148,0,0,0,0,0,0,0,0,0,-1,1294,876,0,0
77,148,0,0,0,0,0,0,0,0,0,-1,1301,876,0,0
84,148,0,0,0,0,0,0,0,0,0,-1,1308,876,0,0
91,148,0,0,0,0,0,0,0,0,0,-1,1315,876,0,0
98,148,0,0,0,0,0,0,0,0,0,-1,1322,876,0,0
105,148,0,0,0,0,0,0,0,0,0,-1,1329,876,0,0
112,148,0,0,0,0,0,0,0,0,0,-1,1336,876,0,0
119,148,0,0,0,0,0,0,0,0,0,-1,1343,876,0,0
126,148,0,0,0,0,0,0,0,0,0,-1,1350,876,0,0
133,148,0,0,0,0,0,0,0,0,0,-1,1357,876,0,0
140,148,0,0,0,0,0,0,0,0,0,-1,1364,876,0,0
147,148,0,0,0,0,0,0,0,0,0,-1,1371,876,0,0
154,148,0,0,0,0,0,0,0,0,0,-1,1378,876,0,0
161,148,0,0,0,0,0,0,0,0,0,-1,1385,876,0,0
168,148,0,0,0,0,0,0,0,0,0,-1,1392,876,0,0
175,148,0,0,0,0,0,0,0,0,0,-1,1399,876,0,0
182,148,0,0,0,0,0,0,0,0,0,-1,1406,876,0,0
189,148,0,0,0,0,0,0,0,0,0,-1,1413,876,0,0
196,148,0,0,0,0,0,0,0,0,0,-1,1420,876,0,0
203,148,0,0,0,0,0,0,0,0,0,-1,1427,876,0,0
210,148,0,0,0,0,0,0,0,0,0,-1,1434,876,0,0
217,148,0,0,0,0,0,0,0,0,0,-1,1441,876,0,0
224,148,0,0,0,0,0,0,0,0,0,-1,1448,876,0,0
231,148,0,0,0,0,0,0,0,0,0,-1,1455,876,0,0
238,148,0,0,0,0,0,0,0,0,0,-1,1462,876,0,0
245,148,0,0,0,0,0,0,0,0,0,-1,1469,876,0,0
252,148,0,0,0,0,0,0,0,0,0,-1,1476,876,0,0
259,148,0,0,0,0,0,0,0,0,0,-1,1483,876,0,0
266,148,0,0,0,0,0,0,0,0,0,-1,1490,876,0,0
273,148,0,0,0,0,0,0,0,0,0,-1,1497,876,0,0
280,148,0,0,0,0,0,0,0,0,0,-1,1504,876,0,0
287,148,0,0,0,0,0,0,0,0,0,-1,1511,876,0,0
294,148,0,0,0,0,0,0,0,0,0,-1,1518,876,0,0
301,148,0,0,0,0,0,0,0,0,0,-1,1525,876,0,0
308,148,0,0,0,0,0,0,0,0,0,-1,1532,876,0,0
315,148,0,0,0,0,0,0,0,0,0,-1,1539,876,0,0
322,148,0,0,0,0,0,0,0,0,0,-1,1546,876,0,0
329,148,0,0,0,0,0,0,0,0,0,-1,1553,876,0,0
336,148,0,0,0,0,0,0,0,0,0,-1,1560,876,0,0
343,148,0,0,0,0,0,0,0,0,0,-1,1567,876,0,0
350,148,0,0,0,0,0,0,0,0,0,-1,1574,876,0,0
357,148,0,0,0,0,0,0,0,0,0,-1,1581,876,0,0
364,148,0,0,0,0,0,0,0,0,0,-1,1588,876,0,0
371,148,0,0,0,0,0,0,0,0,0,-1,1595,876,0,0
378,148,0,0,0,0,0,0,0,0,0,-1,1602,876,0,0
385,148,0,0,0,0,0,0,0,0,0,-1,1609,876,0,0
392,148,0,0,0,0,0,0,0,0,0,-1,1616,876,0,0
399,148,0,0,0,0,0,0,0,0,0,-1,1623,876,0,0
406,148,0,0,0,0,0,0,0,0,0,-1,1630,876,0,0
413,148,0,0,0,0,0,0,0,0,0,-1,1637,876,0,0
420,148,0,0,0,0,0,0,0,0,0,-1,1644,876,0,0
427,148,0,0,0,0,0,0,0,0,0,-1,1651,876,0,0
434,148,0,0,0,0,0,0,0,0,0,-1,1658,876,0,0
441,148,0,0,0,0,0,0,0,0,0,-1,1665,876,0,0
448,148,0,0,0,0,0,0,0,0,0,-1,1672,876,0,0
455,148,0,0,0,0,0,0,0,0,0,-1,1679,876,0,0
462,148,0,0,0,0,0,0,0,0,0,-1,1686,876,0,0
469,148,0,0,0,0,0,0,0,0,0,-1,1693,876,0,0
476,148,0,0,0,0,0,0,0,0,0,-1,1700,876,0,0
483,148,0,0,0,0,0,0,0,0,0,-1,1707,876,0,0
490,148,0,0,0,0,0,0,0,0,0,-1,1714,876,0,0
497,148,0,0,0,0,0,0,0,0,0,-1,1721,876,0,0
504,148,0,0,0,0,0,0,0,0,0,-1,1728,876,0,0
511,148,0,0,0,0,0,0,0,0,0,-1,1735,876,0,0
518,148,0,0,0,0,0,0,0,0,0,-1,1742,876,0,0
525,148,0,0,0,0,0,0,0,0,0,-1,1749,876,0,0
532,148,0,0,0,0,0,0,0,0,0,-1,1756,876,0,0
539,148,0,0,0,0,0,0,0,0,0,-1,1763,876,0,0
546,148,0,0,0,0,0,0,0,0,0,-1,1770,876,0,0
553,148,0,0,0,0,0,0,0,0,0,-1,1777,876,0,0
560,148,0,0,0,0,0,0,0,0,0,-1,1784,876,0,0
567,148,0,0,0,0,0,0,0,0,0,-1,1791,876,0,0
574,148,0,0,0,0,0,0,0,0,0,-1,1798,876,0,0
581,148,0,0,0,0,0,0,0,0,0,-1,1805,876,0,0
588,148,0,0,0,0,0,0,0,0,0,-1,1812,876,0,0
595,148,0,0,0,0,0,0,0,0,0,-1,1819,876,0,0
602,148,0,0,0,0,0,0,0,0,0,-1,1826,876,0,0
609,148,0,0,0,0,0,0,0,0,0,-1,1833,876,0,0
616,148,0,0,0,0,0,0,0,0,0,-1,1840,876,0,0
623,148,46.8864,2.66553,0.0013603,-0.00650295,-0.00760155,0.00598678,-0.0111294,-0.546737,0.0100296,0.0434685,1847,876,46.8863,-2.66554
630,148,46.84,2.87476,0.00127316,-0.00429519,-0.00500155,0.00421325,-0.00723528,-0.531426,0.00668613,0.0429646,1854,876,46.84,-2.87476
637,148,46.8827,2.82312,0.00117883,-0.00238513,-0.00293252,0.00282834,-0.00403464,-0.512381,0.00398269,0.0386729,1861,876,46.8827,-2.82312
644,148,46.9017,2.69324,0.000982808,-0.00124194,-0.00157569,0.00179921,-0.00205835,-0.478041,0.00222884,0.0366797,1868,876,46.9017,-2.69321
651,148,46.9099,2.58417,0.000835445,-0.000725119,-0.000797324,0.00117076,-0.00106044,-0.3981,0.00128871,0.0373817,1875,876,46.9099,-2.58415
658,148,46.798,2.72632,0.000925066,-0.000565464,-0.0003736,0.00101347,-0.000653863,-0.232343,0.000970067,0.0320853,1882,876,46.798,-2.72631
665,148,46.7458,2.80273,0.00098627,-0.000515796,-0.000283388,0.00103796,-0.000567483,-0.180406,0.000940075,0.0246583,1889,876,46.7459,-2.80272
672,148,46.8191,2.68945,0.00103518,-0.00050452,-7.5628e-05,0.00103889,-0.000508225,-0.0489615,0.000910572,0.0318125,1896,876,46.819,-2.68943
679,148,46.7333,2.92725,0,0,0,0,0,0,0,-1,1903,876,46.7333,-2.92722
686,148,21.6195,2.40845,0,0,0,0,0,0,0,-1,1910,876,21.6196,-2.40846
693,148,40.0448,2.32263,0,0,0,0,0,0,0,-1,1917,876,40.0448,-2.32266
700,148,39.9102,2.83014,0.00108458,-0.000559496,-0.000374255,0.00116577,-0.000640682,-0.213616,0.00105754,0.0327403,1924,876,39.9102,-2.83016
707,148,40.0083,3.45862,0.00132198,-0.000109494,-0.000412597,0.00143239,-0.000219902,-0.261467,0.00103604,0.0272871,1931,876,40.0083,-3.45859
714,148,40.0031,3.77441,0,0,0,0,0,0,0,-1,1938,876,40.003,-3.77441
721,148,39.6432,4.18115,0.00108304,0.00101103,-6.21873e-05,0.00111889,0.000975177,-0.522997,0.000702937,0.0228239,1945,876,39.6432,-4.18112
728,148,39.634,4.67804,0.0007271,0.00216381,0.000289432,0.00221992,0.000670984,1.37929,0.00131466,0.0219404,1952,876,39.634,-4.67801
735,148,39.6394,5.159,0.000427405,0.00378703,0.000859987,0.00399437,0.000220065,1.33421,0.00259267,0.019999,1959,876,39.6394,-5.159
742,148,39.605,5.62476,0.000175964,0.00593965,0.00172513,0.00641654,-0.000300928,1.30109,0.00438145,0.0206235,1966,876,39.605,-5.62477
749,148,39.5403,6.07147,-5.81602e-05,0.00850382,0.00295552,0.00942494,-0.000979283,1.26868,0.00663386,0.0206758,1973,876,39.5403,-6.07147
756,148,39.4677,6.6239,-0.000212174,0.0115858,0.00464903,0.0131976,-0.00182394,1.23707,0.00946514,0.025329,1980,876,39.4677,-6.6239
763,148,39.4169,7.35663,7.10423e-05,0.0155094,0.00712638,0.018296,-0.00271553,1.19805,0.013196,0.045519,1987,876,39.4169,-7.35663
770,148,39.384,8.08099,0.000419472,0.0206738,0.0101668,0.0248967,-0.0038034,1.17712,0.0180001,0.0494126,1994,876,39.384,-8.08101
777,148,39.376,8.80743,0,0,0,0,0,0,0,-1,2001,876,39.376,-8.80744
784,148,40.4189,9.19659,0,0,0,0,0,0,0,-1,2008,876,40.4189,-9.19662
791,148,40.6108,9.98114,0,0,0,0,0,0,0,-1,2015,876,40.6108,-9.98111
798,148,0,0,0,0,0,0,0,0,0,-1,2022,876,0,0
805,148,0,0,0,0,0,0,0,0,0,-1,2029,876,0,0
812,148,0,0,0,0,0,0,0,0,0,-1,2036,876,0,0
-700,141,0,0,0,0,0,0,0,0,0,-1,524,883,0,0
-693,141,0,0,0,0,0,0,0,0,0,-1,531,883,0,0
-686,141,0,0,0,0,0,0,0,0,0,-1,538,883,0,0
-679,141,0,0,0,0,0,0,0,0,0,-1,545,883,0,0
-672,141,-26.7271,4.44904,0,0,0,0,0,0,0,-1,552,883,-26.7271,-4.44905
-665,141,-27.9929,4.31726,-0.110127,-0.0972369,0.0483433,-0.054911,-0.152453,0.851667,0.0891585,0.0489906,559,883,-27.9929,-4.31725
-658,141,-30.3801,5.72876,-0.0835348,-0.0792774,0.0412091,-0.0401421,-0.12267,0.811203,0.0722192,0.046353,566,883,-30.38,-5.72879
-651,141,-31.0798,5.07416,-0.063097,-0.0631723,0.0344699,-0.0286647,-0.0976046,0.784852,0.0579291,0.0432649,573,883,-31.0798,-5.07413
-644,141,-31.706,4.34479,0,0,0,0,0,0,0,-1,580,883,-31.706,-4.34478
-637,141,-29.4442,5.05865,0,0,0,0,0,0,0,-1,587,883,-29.4442,-5.05864
-630,141,-29.4379,4.62067,0,0,0,0,0,0,0,-1,594,883,-29.4379,-4.62067
-623,141,-29.3021,3.92584,-0.0163475,-0.0179149,0.0136735,-0.00343526,-0.0308272,0.756771,0.0195074,0.0282817,601,883,-29.302,-3.92582
-616,141,-29.4938,3.40375,-0.0106574,-0.0112443,0.0101087,-0.000837825,-0.0210638,0.770886,0.0137718,0.0130966,608,883,-29.4938,-3.40375
-609,141,-29.5513,2.93671,-0.00546564,-0.00604678,0.0070419,0.00129168,-0.0128041,0.764779,0.00899758,0.0136363,615,883,-29.5513,-2.9367
-602,141,-29.5795,2.49005,-0.00266524,-0.00226123,0.00460166,0.00214286,-0.00706932,0.807333,0.0055664,0.0138837,622,883,-29.5795,-2.49005
-595,141,-29.5778,2.01965,-0.00172176,-0.00102206,0.00329506,0.00194167,-0.00468549,0.838287,0.00393399,0.0135844,629,883,-29.5778,-2.01968
-588,141,-29.8773,1.55792,-0.00137369,-0.00098452,0.00267998,0.00150793,-0.00386615,0.821638,0.00320075,0.0261998,636,883,-29.8773,-1.55794
-581,141,-29.8562,1.16815,-0.00115215,-0.000774581,0.00241561,0.00145961,-0.00338634,0.824395,0.00287058,0.0357328,643,883,-29.8562,-1.16817
-574,141,-29.518,0.913086,-0.00128214,-0.000496352,0.00216632,0.00131241,-0.00309091,0.875105,0.00261047,0.0474529,650,883,-29.518,-0.913082
-567,141,-29.5479,0.489685,0,0,0,0,0,0,0,-1,657,883,-29.5478,-0.489668
-560,141,-29.5339,0.16095,0,0,0,0,0,0,0,-1,664,883,-29.534,-0.16096
-553,141,-32.0876,1.39459,0,0,0,0,0,0,0,-1,671,883,-32.0876,-1.3946
-546,141,-34.9923,0.988831,0,0,0,0,0,0,0,-1,678,883,-34.9923,-0.988858
-539,141,-35.0485,0.974365,-0.00177253,-0.000669407,0.00207909,0.000930039,-0.00337197,0.915056,0.00261374,0.0292932,685,883,-35.0484,-0.974383
-532,141,-35.1022,0.981812,-0.00186638,-0.00059629,0.00223074,0.00108804,-0.00355071,0.92407,0.00280116,0.0300254,692,883,-35.1022,-0.98181
-525,141,-35.0432,1.0932,-0.00267904,-0.000749426,0.00251099,0.000975732,-0.0044042,0.968819,0.00330967,0.0406372,699,883,-35.0432,-1.09321
-518,141,-35.0713,0.911072,-0.0036075,-0.00134156,0.00334331,0.00105553,-0.00600459,0.948764,0.00439734,0.0456323,706,883,-35.0713,-0.911094
-511,141,-35.2157,1.04425,0,0,0,0,0,0,0,-1,713,883,-35.2157,-1.04424
-504,141,-35.15,1.09961,0,0,0,0,0,0,0,-1,720,883,-35.15,-1.09961
-497,141,0,0,0,0,0,0,0,0,0,-1,727,883,0,0
-490,141,0,0,0,0,0,0,0,0,0,-1,734,883,0,0
-483,141,0,0,0,0,0,0,0,0,0,-1,741,883,0,0
-476,141,0,0,0,0,0,0,0,0,0,-1,748,883,0,0
-469,141,0,0,0,0,0,0,0,0,0,-1,755,883,0,0
-462,141,0,0,0,0,0,0,0,0,0,-1,762,883,0,0
-455,141,0,0,0,0,0,0,0,0,0,-1,769,883,0,0
-448,141,0,0,0,0,0,0,0,0,0,-1,776,883,0,0
-441,141,0,0,0,0,0,0,0,0,0,-1,783,883,0,0
-434,141,0,0,0,0,0,0,0,0,0,-1,790,883,0,0
-427,141,0,0,0,0,0,0,0,0,0,-1,797,883,0,0
-420,141,0,0,0,0,0,0,0,0,0,-1,804,883,0,0
-413,141,0,0,0,0,0,0,0,0,0,-1,811,883,0,0
-406,141,0,0,0,0,0,0,0,0,0,-1,818,883,0,0
-399,141,0,0,0,0,0,0,0,0,0,-1,825,883,0,0
-392,141,0,0,0,0,0,0,0,0,0,-1,832,883,0,0
-385,141,0,0,0,0,0,0,0,0,0,-1,839,883,0,0
-378,141,0,0,0,0,0,0,0,0,0,-1,846,883,0,0
-371,141,0,0,0,0,0,0,0,0,0,-1,853,883,0,0
-364,141,0,0,0,0,0,0,0,0,0,-1,860,883,0,0
-357,141,0,0,0,0,0,0,0,0,0,-1,867,883,0,0
-350,141,0,0,0,0,0,0,0,0,0,-1,874,883,0,0
-343,141,0,0,0,0,0,0,0,0,0,-1,881,883,0,0
-336,141,0,0,0,0,0,0,0,0,0,-1,888,883,0,0
-329,141,0,0,0,0,0,0,0,0,0,-1,895,883,0,0
-322,141,0,0,0,0,0,0,0,0,0,-1,902,883,0,0
-315,141,0,0,0,0,0,0,0,0,0,-1,909,883,0,0
-308,141,0,0,0,0,0,0,0,0,0,-1,916,883,0,0
-301,141,0,0,0,0,0,0,0,0,0,-1,923,883,0,0
-294,141,0,0,0,0,0,0,0,0,0,-1,930,883,0,0
-287,141,0,0,0,0,0,0,0,0,0,-1,937,883,0,0
-280,141,0,0,0,0,0,0,0,0,0,-1,944,883,0,0
-273,141,0,0,0,0,0,0,0,0,0,-1,951,883,0,0
-266,141,0,0,0,0,0,0,0,0,0,-1,958,883,0,0
-259,141,0,0,0,0,0,0,0,0,0,-1,965,883,0,0
-252,141,0,0,0,0,0,0,0,0,0,-1,972,883,0,0
-245,141,0,0,0,0,0,0,0,0,0,-1,979,883,0,0
-238,141,0,0,0,0,0,0,0,0,0,-1,986,883,0,0
-231,141,0,0,0,0,0,0,0,0,0,-1,993,883,0,0
-224,141,0,0,0,0,0,0,0,0,0,-1,1000,883,0,0
-217,141,0,0,0,0,0,0,0,0,0,-1,1007,883,0,0
-210,141,0,0,0,0,0,0,0,0,0,-1,1014,883,0,0
-203,141,0,0,0,0,0,0,0,0,0,-1,1021,883,0,0
-196,141,0,0,0,0,0,0,0,0,0,-1,1028,883,0,0
-189,141,0,0,0,0,0,0,0,0,0,-1,1035,883,0,0
-182,141,0,0,0,0,0,0,0,0,0,-1,1042,883,0,0
-175,141,0,0,0,0,0,0,0,0,0,-1,1049,883,0,0
-168,141,0,0,0,0,0,0,0,0,0,-1,1056,883,0,0
-161,141,0,0,0,0,0,0,0,0,0,-1,1063,883,0,0
-154,141,0,0,0,0,0,0,0,0,0,-1,1070,883,0,0
-147,141,0,0,0,0,0,0,0,0,0,-1,1077,883,0,0
-140,141,0,0,0,0,0,0,0,0,0,-1,1084,883,0,0
-133,141,0,0,0,0,0,0,0,0,0,-1,1091,883,0,0
-126,141,0,0,0,0,0,0,0,0,0,-1,1098,883,0,0
-119,141,0,0,0,0,0,0,0,0,0,-1,1105,883,0,0
-112,141,0,0,0,0,0,0,0,0,0,-1,1112,883,0,0
-105,141,0,0,0,0,0,0,0,0,0,-1,1119,883,0,0
-98,141,0,0,0,0,0,0,0,0,0,-1,1126,883,0,0
-91,141,0,0,0,0,0,0,0,0,0,-1,1133,883,0,0
-84,141,0,0,0,0,0,0,0,0,0,-1,1140,883,0,0
-77,141,0,0,0,0,0,0,0,0,0,-1,1147,883,0,0
-70,141,0,0,0,0,0,0,0,0,0,-1,1154,883,0,0
-63,141,0,0,0,0,0,0,0,0,0,-1,1161,883,0,0
-56,141,0,0,0,0,0,0,0,0,0,-1,1168,883,0,0
-49,141,0,0,0,0,0,0,0,0,0,-1,1175,883,0,0
-42,141,0,0,0,0,0,0,0,0,0,-1,1182,883,0,0
-35,141,0,0,0,0,0,0,0,0,0,-1,1189,883,0,0
-28,141,0,0,0,0,0,0,0,0,0,-1,1196,883,0,0
-21,141,0,0,0,0,0,0,0,0,0,-1,1203,883,0,0
-14,141,0,0,0,0,0,0,0,0,0,-1,1210,883,0,0
-7,141,0,0,0,0,0,0,0,0,0,-1,1217,883,0,0
0,141,0,0,0,0,0,0,0,0,0,-1,1224,883,0,0
7,141,0,0,0,0,0,0,0,0,0,-1,1231,883,0,0
14,141,0,0,0,0,0,0,0,0,0,-1,1238,883,0,0
21,141,0,0,0,0,0,0,0,0,0,-1,1245,883,0,0
28,141,0,0,0,0,0,0,0,0,0,-1,1252,883,0,0
35,141,0,0,0,0,0,0,0,0,0,-1,1259,883,0,0
42,141,0,0,0,0,0,0,0,0,0,-1,1266,883,0,0
49,141,0,0,0,0,0,0,0,0,0,-1,1273,883,0,0
56,141,0,0,0,0,0,0,0,0,0,-1,1280,883,0,0
63,141,0,0,0,0,0,0,0,0,0,-1,1287,883,0,0
70,141,0,0,0,0,0,0,0,0,0,-1,1294,883,0,0
77,141,0,0,0,0,0,0,0,0,0,-1,1301,883,0,0
84,141,0,0,0,0,0,0,0,0,0,-1,1308,883,0,0
91,141,0,0,0,0,0,0,0,0,0,-1,1315,883,0,0
98,141,0,0,0,0,0,0,0,0,0,-1,1322,883,0,0
105,141,0,0,0,0,0,0,0,0,0,-1,1329,883,0,0
112,141,0,0,0,0,0,0,0,0,0,-1,1336,883,0,0
119,141,0,0,0,0,0,0,0,0,0,-1,1343,883,0,0
126,141,0,0,0,0,0,0,0,0,0,-1,1350,883,0,0
133,141,0,0,0,0,0,0,0,0,0,-1,1357,883,0,0
140,141,0,0,0,0,0,0,0,0,0,-1,1364,883,0,0
147,141,0,0,0,0,0,0,0,0,0,-1,1371,883,0,0
154,141,0,0,0,0,0,0,0,0,0,-1,1378,883,0,0
161,141,0,0,0,0,0,0,0,0,0,-1,1385,883,0,0
168,141,0,0,0,0,0,0,0,0,0,-1,1392,883,0,0
175,141,0,0,0,0,0,0,0,0,0,-1,1399,883,0,0
182,141,0,0,0,0,0,0,0,0,0,-1,1406,883,0,0
189,141,0,0,0,0,0,0,0,0,0,-1,1413,883,0,0
196,141,0,0,0,0,0,0,0,0,0,-1,1420,883,0,0
203,141,0,0,0,0,0,0,0,0,0,-1,1427,883,0,0
210,141,0,0,0,0,0,0,0,0,0,-1,1434,883,0,0
217,141,0,0,0,0,0,0,0,0,0,-1,1441,883,0,0
224,141,0,0,0,0,0,0,0,0,0,-1,1448,883,0,0
231,141,0,0,0,0,0,0,0,0,0,-1,1455,883,0,0
238,141,0,0,0,0,0,0,0,0,0,-1,1462,883,0,0
245,141,0,0,0,0,0,0,0,0,0,-1,1469,883,0,0
252,141,0,0,0,0,0,0,0,0,0,-1,1476,883,0,0
259,141,0,0,0,0,0,0,0,0,0,-1,1483,883,0,0
266,141,0,0,0,0,0,0,0,0,0,-1,1490,883,0,0
273,141,0,0,0,0,0,0,0,0,0,-1,1497,883,0,0
280,141,0,0,0,0,0,0,0,0,0,-1,1504,883,0,0
287,141,0,0,0,0,0,0,0,0,0,-1,1511,883,0,0
294,141,0,0,0,0,0,0,0,0,0,-1,1518,883,0,0
301,141,0,0,0,0,0,0,0,0,0,-1,1525,883,0,0
308,141,0,0,0,0,0,0,0,0,0,-1,1532,883,0,0
315,141,0,0,0,0,0,0,0,0,0,-1,1539,883,0,0
322,141,0,0,0,0,0,0,0,0,0,-1,1546,883,0,0
329,141,0,0,0,0,0,0,0,0,0,-1,1553,883,0,0
336,141,0,0,0,0,0,0,0,0,0,-1,1560,883,0,0
343,141,0,0,0,0,0,0,0,0,0,-1,1567,883,0,0
350,141,0,0,0,0,0,0,0,0,0,-1,1574,883,0,0
357,141,0,0,0,0,0,0,0,0,0,-1,1581,883,0,0
364,141,0,0,0,0,0,0,0,0,0,-1,1588,883,0,0
371,141,0,0,0,0,0,0,0,0,0,-1,1595,883,0,0
378,141,0,0,0,0,0,0,0,0,0,-1,1602,883,0,0
385,141,0,0,0,0,0,0,0,0,0,-1,1609,883,0,0
392,141,0,0,0,0,0,0,0,0,0,-1,1616,883,0,0
399,141,0,0,0,0,0,0,0,0,0,-1,1623,883,0,0
406,141,0,0,0,0,0,0,0,0,0,-1,1630,883,0,0
413,141,0,0,0,0,0,0,0,0,0,-1,1637,883,0,0
420,141,0,0,0,0,0,0,0,0,0,-1,1644,883,0,0
427,141,0,0,0,0,0,0,0,0,0,-1,1651,883,0,0
434,141,0,0,0,0,0,0,0,0,0,-1,1658,883,0,0
441,141,0,0,0,0,0,0,0,0,0,-1,1665,883,0,0
448,141,0,0,0,0,0,0,0,0,0,-1,1672,883,0,0
455,141,0,0,0,0,0,0,0,0,0,-1,1679,883,0,0
462,141,0,0,0,0,0,0,0,0,0,-1,1686,883,0,0
469,141,0,0,0,0,0,0,0,0,0,-1,1693,883,0,0
476,141,0,0,0,0,0,0,0,0,0,-1,1700,883,0,0
483,141,0,0,0,0,0,0,0,0,0,-1,1707,883,0,0
490,141,0,0,0,0,0,0,0,0,0,-1,1714,883,0,0
497,141,0,0,0,0,0,0,0,0,0,-1,1721,883,0,0
504,141,0,0,0,0,0,0,0,0,0,-1,1728,883,0,0
511,141,0,0,0,0,0,0,0,0,0,-1,1735,883,0,0
518,141,0,0,0,0,0,0,0,0,0,-1,1742,883,0,0
525,141,0,0,0,0,0,0,0,0,0,-1,1749,883,0,0
532,141,0,0,0,0,0,0,0,0,0,-1,1756,883,0,0
539,141,0,0,0,0,0,0,0,0,0,-1,1763,883,0,0
546,141,0,0,0,0,0,0,0,0,0,-1,1770,883,0,0
553,141,0,0,0,0,0,0,0,0,0,-1,1777,883,0,0
560,141,0,0,0,0,0,0,0,0,0,-1,1784,883,0,0
567,141,0,0,0,0,0,0,0,0,0,-1,1791,883,0,0
574,141,0,0,0,0,0,0,0,0,0,-1,1798,883,0,0
581,141,0,0,0,0,0,0,0,0,0,-1,1805,883,0,0
588,141,0,0,0,0,0,0,0,0,0,-1,1812,883,0,0
595,141,0,0,0,0,0,0,0,0,0,-1,1819,883,0,0
602,141,0,0,0,0,0,0,0,0,0,-1,1826,883,0,0
609,141,0,0,0,0,0,0,0,0,0,-1,1833,883,0,0
616,141,0,0,0,0,0,0,0,0,0,-1,1840,883,0,0
623,141,46.812,2.67517,0.00235599,-0.00725256,-0.00846859,0.00728815,-0.0121847,-0.527382,0.0113605,0.0464702,1847,883,46.8121,-2.67514
630,141,46.9678,2.60443,0.00183874,-0.00493729,-0.00567,0.00505584,-0.0081544,-0.516096,0.00769655,0.0477142,1854,883,46.9678,-2.60443
637,141,46.9525,2.52661,0.00146969,-0.00294328,-0.00352559,0.00342233,-0.00489592,-0.505794,0.0048276,0.0450988,1861,883,46.9525,-2.52659
644,141,46.9684,2.47284,0.00113536,-0.00163901,-0.00204017,0.00221527,-0.00271893,-0.486832,0.0028537,0.040552,1868,883,46.9684,-2.47284
651,141,47.0355,2.59412,0.000933087,-0.000928671,-0.00110221,0.00144492,-0.0014405,-0.434736,0.0016659,0.038106,1875,883,47.0355,-2.59409
658,141,46.8688,2.76038,0.00106652,-0.00063704,-0.000520643,0.00121304,-0.000783558,-0.274322,0.00116159,0.036689,1882,883,46.8688,-2.76038
665,141,46.7445,2.77509,0.0012272,-0.000525677,-0.000318743,0.00128336,-0.000581838,-0.174405,0.00110197,0.0289135,1889,883,46.7445,-2.77508
672,141,46.8014,2.71191,0.00136598,-0.000497125,-7.2892e-05,0.00136883,-0.000499972,-0.0390444,0.00111715,0.0229686,1896,883,46.8014,-2.7119
679,141,46.8146,2.66669,0.00142688,-0.000415974,1.73702e-05,0.00142705,-0.000416138,0.00942458,0.00111624,0.0419961,1903,883,46.8146,-2.6667
686,141,46.8036,2.60345,0,0,0,0,0,0,0,-1,1910,883,46.8036,-2.60348
693,141,39.8958,2.12225,0,0,0,0,0,0,0,-1,1917,883,39.8957,-2.12225
700,141,40.3398,2.82623,0.00159204,-0.00052109,-0.000270908,0.00162622,-0.000555269,-0.125499,0.00130909,0.0309541,1924,883,40.3398,-2.82625
707,141,40.3331,3.41681,0.00174897,-0.000122688,-0.000314366,0.00180036,-0.000174078,-0.162039,0.00126227,0.0272108,1931,883,40.3332,-3.41682
714,141,40.1292,3.72198,0.0015917,0.000199855,-0.00016898,0.00161192,0.000179633,-0.119102,0.00102002,0.0260532,1938,883,40.1292,-3.72199
721,141,40.1017,4.15198,0.00131943,0.000802918,-6.76805e-05,0.00132815,0.000794197,-0.128151,0.000771701,0.0159704,1945,883,40.1016,-4.15196
728,141,40.126,4.60938,0.000775466,0.00180014,0.000134483,0.00181749,0.000758109,1.44245,0.00105412,0.0165364,1952,883,40.126,-4.60936
735,141,40.1133,5.12567,0.000237045,0.00326086,0.000495864,0.0033401,0.000157807,1.41234,0.00217604,0.0180442,1959,883,40.1133,-5.12567
742,141,40.0642,5.61316,-0.000282464,0.00527439,0.00111987,0.00549159,-0.000499661,1.37923,0.00383847,0.0181522,1966,883,40.0642,-5.61315
749,141,40.063,6.05292,-0.000782116,0.00768641,0.00209855,0.00817792,-0.00127362,1.34073,0.00592231,0.014294,1973,883,40.0629,-6.05292
756,141,40.041,6.60748,-0.00117715,0.0105425,0.00348952,0.0115029,-0.00213746,1.30225,0.00847142,0.0204301,1980,883,40.041,-6.60746
763,141,39.952,7.26764,-0.00109242,0.0140876,0.00556556,0.0159095,-0.0029143,1.25444,0.0116994,0.0433378,1987,883,39.952,-7.26764
770,141,39.9537,8.02667,0,0,0,0,0,0,0,-1,1994,883,39.9537,-8.02667
777,141,41.9054,7.27954,0,0,0,0,0,0,0,-1,2001,883,41.9054,-7.27954
784,141,42.7319,7.87225,0,0,0,0,0,0,0,-1,2008,883,42.7319,-7.87224
791,141,42.5815,7.74707,0,0,0,0,0,0,0,-1,2015,883,42.5815,-7.74706
798,141,0,0,0,0,0,0,0,0,0,-1,2022,883,0,0
805,141,0,0,0,0,0,0,0,0,0,-1,2029,883,0,0
812,141,0,0,0,0,0,0,0,0,0,-1,2036,883,0,0
-700,134,0,0,0,0,0,0,0,0,0,-1,524,890,0,0
-693,134,0,0,0,0,0,0,0,0,0,-1,531,890,0,0
-686,134,0,0,0,0,0,0,0,0,0,-1,538,890,0,0
-679,134,0,0,0,0,0,0,0,0,0,-1,545,890,0,0
-672,134,-27.3483,4.99908,0,0,0,0,0,0,0,-1,552,890,-27.3483,-4.99911
-665,134,-28.3842,4.8028,0,0,0,0,0,0,0,-1,559,890,-28.3842,-4.80282
-658,134,-31.5362,6.68713,-0.0703081,-0.0711673,0.0344038,-0.0363312,-0.105144,0.779155,0.061663,0.0461126,566,890,-31.5362,-6.68713
-651,134,-32.3649,6.01074,-0.054662,-0.0574519,0.0293487,-0.0266751,-0.0854388,0.761651,0.0504745,0.0427727,573,890,-32.3649,-6.01073
-644,134,-33.2329,5.19891,0,0,0,0,0,0,0,-1,580,890,-33.2329,-5.19893
-637,134,-28.7275,0.339355,0,0,0,0,0,0,0,-1,587,890,-28.7275,-0.339377
-630,134,-29.6678,4.16376,0,0,0,0,0,0,0,-1,594,890,-29.6679,-4.16378
-623,134,-29.8021,3.81116,-0.0149625,-0.016332,0.012058,-0.00356976,-0.0277247,0.757035,0.0174156,0.0263187,601,890,-29.8021,-3.81115
-616,134,-29.978,3.38062,-0.00994214,-0.0101194,0.00892923,-0.00110108,-0.0189604,0.780436,0.0122897,0.0122507,608,890,-29.9779,-3.38064
-609,134,-30.0428,2.93579,-0.00549496,-0.00542018,0.00627518,0.000817724,-0.0117329,0.788377,0.00810824,0.011775,615,890,-30.0428,-2.93581
-602,134,-30.0433,2.48578,-0.00333919,-0.00208345,0.00423022,0.00156524,-0.00698788,0.859073,0.00525856,0.013321,622,890,-30.0433,-2.48576
-595,134,-30.0078,2.09766,-0.0027373,-0.000947293,0.00314064,0.00142338,-0.00510797,0.924206,0.00396585,0.0197246,629,890,-30.0078,-2.09764
-588,134,-30.4363,1.72113,-0.00251889,-0.000930364,0.0026299,0.0010226,-0.00447186,0.932049,0.00337416,0.033961,636,890,-30.4363,-1.72116
-581,134,-30.5829,1.2605,0,0,0,0,0,0,0,-1,643,890,-30.5829,-1.2605
-574,134,-30.1194,0.82251,0,0,0,0,0,0,0,-1,650,890,-30.1194,-0.822506
-567,134,-29.868,0.364319,0,0,0,0,0,0,0,-1,657,890,-29.868,-0.364308
-560,134,-22.9123,0.106567,0,0,0,0,0,0,0,-1,664,890,-22.9123,-0.106594
-553,134,-35.0016,0.929077,0,0,0,0,0,0,0,-1,671,890,-35.0016,-0.929055
-546,134,-34.9868,0.931946,-0.00262509,-0.000605533,0.00206312,0.000681669,-0.00391229,1.01298,0.0028626,0.0305109,678,890,-34.9867,-0.931937
-539,134,-35.0209,0.941162,-0.00269488,-0.000471005,0.00217513,0.000859921,-0.00402581,1.02168,0.00301172,0.0184536,685,890,-35.0208,-0.941141
-532,134,-35.1059,0.991882,-0.00282069,-0.00040597,0.0023787,0.00105424,-0.00428091,1.02024,0.00326263,0.0247941,692,890,-35.1059,-0.991874
-525,134,-35.0687,1.04065,-0.00370657,-0.000616685,0.00275784,0.000999468,-0.00532273,1.04072,0.0039243,0.039554,699,890,-35.0686,-1.04063
-518,134,-35.1437,1.08716,-0.00480537,-0.0013281,0.00370407,0.00102509,-0.00715855,1.00483,0.00514819,0.046532,706,890,-35.1437,-1.08719
-511,134,-35.2544,1.22717,-0.00520581,-0.00236274,0.00509509,0.0015054,-0.00907395,0.92144,0.0066085,0.0447414,713,890,-35.2544,-1.22718
-504,134,0,0,0,0,0,0,0,0,0,-1,720,890,0,0
-497,134,0,0,0,0,0,0,0,0,0,-1,727,890,0,0
-490,134,0,0,0,0,0,0,0,0,0,-1,734,890,0,0
-483,134,0,0,0,0,0,0,0,0,0,-1,741,890,0,0
-476,134,0,0,0,0,0,0,0,0,0,-1,748,890,0,0
-469,134,0,0,0,0,0,0,0,0,0,-1,755,890,0,0
-462,134,0,0,0,0,0,0,0,0,0,-1,762,890,0,0
-455,134,0,0,0,0,0,0,0,0,0,-1,769,890,0,0
-448,134,0,0,0,0,0,0,0,0,0,-1,776,890,0,0
-441,134,0,0,0,0,0,0,0,0,0,-1,783,890,0,0
-434,134,0,0,0,0,0,0,0,0,0,-1,790,890,0,0
-427,134,0,0,0,0,0,0,0,0,0,-1,797,890,0,0
-420,134,0,0,0,0,0,0,0,0,0,-1,804,890,0,0
-413,134,0,0,0,0,0,0,0,0,0,-1,811,890,0,0
-406,134,0,0,0,0,0,0,0,0,0,-1,818,890,0,0
-399,134,0,0,0,0,0,0,0,0,0,-1,825,890,0,0
-392,134,0,0,0,0,0,0,0,0,0,-1,832,890,0,0
-385,134,0,0,0,0,0,0,0,0,0,-1,839,890,0,0
-378,134,0,0,0,0,0,0,0,0,0,-1,846,890,0,0
-371,134,0,0,0,0,0,0,0,0,0,-1,853,890,0,0
-364,134,0,0,0,0,0,0,0,0,0,-1,860,890,0,0
-357,134,0,0,0,0,0,0,0,0,0,-1,867,890,0,0
-350,134,0,0,0,0,0,0,0,0,0,-1,874,890,0,0
-343,134,0,0,0,0,0,0,0,0,0,-1,881,890,0,0
-336,134,0,0,0,0,0,0,0,0,0,-1,888,890,0,0
-329,134,0,0,0,0,0,0,0,0,0,-1,895,890,0,0
-322,134,0,0,0,0,0,0,0,0,0,-1,902,890,0,0
-315,134,0,0,0,0,0,0,0,0,0,-1,909,890,0,0
-308,134,0,0,0,0,0,0,0,0,0,-1,916,890,0,0
-301,134,0,0,0,0,0,0,0,0,0,-1,923,890,0,0
-294,134,0,0,0,0,0,0,0,0,0,-1,930,890,0,0
-287,134,0,0,0,0,0,0,0,0,0,-1,937,890,0,0
-280,134,0,0,0,0,0,0,0,0,0,-1,944,890,0,0
-273,134,0,0,0,0,0,0,0,0,0,-1,951,890,0,0
-266,134,0,0,0,0,0,0,0,0,0,-1,958,890,0,0
-259,134,0,0,0,0,0,0,0,0,0,-1,965,890,0,0
-252,134,0,0,0,0,0,0,0,0,0,-1,972,890,0,0
-245,134,0,0,0,0,0,0,0,0,0,-1,979,890,0,0
-238,134,0,0,0,0,0,0,0,0,0,-1,986,890,0,0
-231,134,0,0,0,0,0,0,0,0,0,-1,993,890,0,0
-224,134,0,0,0,0,0,0,0,0,0,-1,1000,890,0,0
-217,134,0,0,0,0,0,0,0,0,0,-1,1007,890,0,0
-210,134,0,0,0,0,0,0,0,0,0,-1,1014,890,0,0
-203,134,0,0,0,0,0,0,0,0,0,-1,1021,890,0,0
-196,134,0,0,0,0,0,0,0,0,0,-1,1028,890,0,0
-189,134,0,0,0,0,0,0,0,0,0,-1,1035,890,0,0
-182,134,0,0,0,0,0,0,0,0,0,-1,1042,890,0,0
-175,134,0,0,0,0,0,0,0,0,0,-1,1049,890,0,0
-168,134,0,0,0,0,0,0,0,0,0,-1,1056,890,0,0
-161,134,0,0,0,0,0,0,0,0,0,-1,1063,890,0,0
-154,134,0,0,0,0,0,0,0,0,0,-1,1070,890,0,0
-147,134,0,0,0,0,0,0,0,0,0,-1,1077,890,0,0
-140,134,0,0,0,0,0,0,0,0,0,-1,1084,890,0,0
-133,134,0,0,0,0,0,0,0,0,0,-1,1091,890,0,0
-126,134,0,0,0,0,0,0,0,0,0,-1,1098,890,0,0
-119,134,0,0,0,0,0,0,0,0,0,-1,1105,890,0,0
-112,134,0,0,0,0,0,0,0,0,0,-1,1112,890,0,0
-105,134,0,0,0,0,0,0,0,0,0,-1,1119,890,0,0
-98,134,0,0,0,0,0,0,0,0,0,-1,1126,890,0,0
-91,134,0,0,0,0,0,0,0,0,0,-1,1133,890,0,0
-84,134,0,0,0,0,0,0,0,0,0,-1,1140,890,0,0
-77,134,0,0,0,0,0,0,0,0,0,-1,1147,890,0,0
-70,134,0,0,0,0,0,0,0,0,0,-1,1154,890,0,0
-63,134,0,0,0,0,0,0,0,0,0,-1,1161,890,0,0
-56,134,0,0,0,0,0,0,0,0,0,-1,1168,890,0,0
-49,134,0,0,0,0,0,0,0,0,0,-1,1175,890,0,0
-42,134,0,0,0,0,0,0,0,0,0,-1,1182,890,0,0
-35,134,0,0,0,0,0,0,0,0,0,-1,1189,890,0,0
-28,134,0,0,0,0,0,0,0,0,0,-1,1196,890,0,0
-21,134,0,0,0,0,0,0,0,0,0,-1,1203,890,0,0
-14,134,0,0,0,0,0,0,0,0,0,-1,1210,890,0,0
-7,134,0,0,0,0,0,0,0,0,0,-1,1217,890,0,0
0,134,0,0,0,0,0,0,0,0,0,-1,1224,890,0,0
7,134,0,0,0,0,0,0,0,0,0,-1,1231,890,0,0
14,134,0,0,0,0,0,0,0,0,0,-1,1238,890,0,0
21,134,0,0,0,0,0,0,0,0,0,-1,1245,890,0,0
28,134,0,0,0,0,0,0,0,0,0,-1,1252,890,0,0
35,134,0,0,0,0,0,0,0,0,0,-1,1259,890,0,0
42,134,0,0,0,0,0,0,0,0,0,-1,1266,890,0,0
49,134,0,0,0,0,0,0,0,0,0,-1,1273,890,0,0
56,134,0,0,0,0,0,0,0,0,0,-1,1280,890,0,0
63,134,0,0,0,0,0,0,0,0,0,-1,1287,890,0,0
70,134,0,0,0,0,0,0,0,0,0,-1,1294,890,0,0
77,134,0,0,0,0,0,0,0,0,0,-1,1301,890,0,0
84,134,0,0,0,0,0,0,0,0,0,-1,1308,890,0,0
91,134,0,0,0,0,0,0,0,0,0,-1,1315,890,0,0
98,134,0,0,0,0,0,0,0,0,0,-1,1322,890,0,0
105,134,0,0,0,0,0,0,0,0,0,-1,1329,890,0,0
112,134,0,0,0,0,0,0,0,0,0,-1,1336,890,0,0
119,134,0,0,0,0,0,0,0,0,0,-1,1343,890,0,0
126,134,0,0,0,0,0,0,0,0,0,-1,1350,890,0,0
133,134,0,0,0,0,0,0,0,0,0,-1,1357,890,0,0
140,134,0,0,0,0,0,0,0,0,0,-1,1364,890,0,0
147,134,0,0,0,0,0,0,0,0,0,-1,1371,890,0,0
154,134,0,0,0,0,0,0,0,0,0,-1,1378,890,0,0
161,134,0,0,0,0,0,0,0,0,0,-1,1385,890,0,0
168,134,0,0,0,0,0,0,0,0,0,-1,1392,890,0,0
175,134,0,0,0,0,0,0,0,0,0,-1,1399,890,0,0
182,134,0,0,0,0,0,0,0,0,0,-1,1406,890,0,0
189,134,0,0,0,0,0,0,0,0,0,-1,1413,890,0,0
196,134,0,0,0,0,0,0,0,0,0,-1,1420,890,0,0
203,134,0,0,0,0,0,0,0,0,0,-1,1427,890,0,0
210,134,0,0,0,0,0,0,0,0,0,-1,1434,890,0,0
217,134,0,0,0,0,0,0,0,0,0,-1,1441,890,0,0
224,134,0,0,0,0,0,0,0,0,0,-1,1448,890,0,0
231,134,0,0,0,0,0,0,0,0,0,-1,1455,890,0,0
238,134,0,0,0,0,0,0,0,0,0,-1,1462,890,0,0
245,134,0,0,0,0,0,0,0,0,0,-1,1469,890,0,0
252,134,0,0,0,0,0,0,0,0,0,-1,1476,890,0,0
259,134,0,0,0,0,0,0,0,0,0,-1,1483,890,0,0
266,134,0,0,0,0,0,0,0,0,0,-1,1490,890,0,0
273,134,0,0,0,0,0,0,0,0,0,-1,1497,890,0,0
280,134,0,0,0,0,0,0,0,0,0,-1,1504,890,0,0
287,134,0,0,0,0,0,0,0,0,0,-1,1511,890,0,0
294,134,0,0,0,0,0,0,0,0,0,-1,1518,890,0,0
301,134,0,0,0,0,0,0,0,0,0,-1,1525,890,0,0
308,134,0,0,0,0,0,0,0,0,0,-1,1532,890,0,0
315,134,0,0,0,0,0,0,0,0,0,-1,1539,890,0,0
322,134,0,0,0,0,0,0,0,0,0,-1,1546,890,0,0
329,134,0,0,0,0,0,0,0,0,0,-1,1553,890,0,0
336,134,0,0,0,0,0,0,0,0,0,-1,1560,890,0,0
343,134,0,0,0,0,0,0,0,0,0,-1,1567,890,0,0
350,134,0,0,0,0,0,0,0,0,0,-1,1574,890,0,0
357,134,0,0,0,0,0,0,0,0,0,-1,1581,890,0,0
364,134,0,0,0,0,0,0,0,0,0,-1,1588,890,0,0
371,134,0,0,0,0,0,0,0,0,0,-1,1595,890,0,0
378,134,0,0,0,0,0,0,0,0,0,-1,1602,890,0,0
385,134,0,0,0,0,0,0,0,0,0,-1,1609,890,0,0
392,134,0,0,0,0,0,0,0,0,0,-1,1616,890,0,0
399,134,0,0,0,0,0,0,0,0,0,-1,1623,890,0,0
406,134,0,0,0,0,0,0,0,0,0,-1,1630,890,0,0
413,134,0,0,0,0,0,0,0,0,0,-1,1637,890,0,0
420,134,0,0,0,0,0,0,0,0,0,-1,1644,890,0,0
427,134,0,0,0,0,0,0,0,0,0,-1,1651,890,0,0
434,134,0,0,0,0,0,0,0,0,0,-1,1658,890,0,0
441,134,0,0,0,0,0,0,0,0,0,-1,1665,890,0,0
448,134,0,0,0,0,0,0,0,0,0,-1,1672,890,0,0
455,134,0,0,0,0,0,0,0,0,0,-1,1679,890,0,0
462,134,0,0,0,0,0,0,0,0,0,-1,1686,890,0,0
469,134,0,0,0,0,0,0,0,0,0,-1,1693,890,0,0
476,134,0,0,0,0,0,0,0,0,0,-1,1700,890,0,0
483,134,0,0,0,0,0,0,0,0,0,-1,1707,890,0,0
490,134,0,0,0,0,0,0,0,0,0,-1,1714,890,0,0
497,134,0,0,0,0,0,0,0,0,0,-1,1721,890,0,0
504,134,0,0,0,0,0,0,0,0,0,-1,1728,890,0,0
511,134,0,0,0,0,0,0,0,0,0,-1,1735,890,0,0
518,134,0,0,0,0,0,0,0,0,0,-1,1742,890,0,0
525,134,0,0,0,0,0,0,0,0,0,-1,1749,890,0,0
532,134,0,0,0,0,0,0,0,0,0,-1,1756,890,0,0
539,134,0,0,0,0,0,0,0,0,0,-1,1763,890,0,0
546,134,0,0,0,0,0,0,0,0,0,-1,1770,890,0,0
553,134,0,0,0,0,0,0,0,0,0,-1,1777,890,0,0
560,134,0,0,0,0,0,0,0,0,0,-1,1784,890,0,0
567,134,0,0,0,0,0,0,0,0,0,-1,1791,890,0,0
574,134,0,0,0,0,0,0,0,0,0,-1,1798,890,0,0
581,134,0,0,0,0,0,0,0,0,0,-1,1805,890,0,0
588,134,0,0,0,0,0,0,0,0,0,-1,1812,890,0,0
595,134,0,0,0,0,0,0,0,0,0,-1,1819,890,0,0
602,134,0,0,0,0,0,0,0,0,0,-1,1826,890,0,0
609,134,0,0,0,0,0,0,0,0,0,-1,1833,890,0,0
616,134,0,0,0,0,0,0,0,0,0,-1,1840,890,0,0
623,134,46.8007,2.96356,0.00354237,-0.00806376,-0.00910171,0.00853359,-0.013055,-0.501601,0.012555,0.0443567,1847,890,46.8007,-2.96353
630,134,46.9092,2.53906,0.00254069,-0.00559882,-0.00610896,0.00581139,-0.00886951,-0.49156,0.0085371,0.0442505,1854,890,46.9092,-2.53903
637,134,46.8848,2.28827,0.00188974,-0.00351315,-0.00394726,0.00397147,-0.00559488,-0.485314,0.00554958,0.0444134,1861,890,46.8848,-2.2883
644,134,46.8867,2.5108,0.00136505,-0.00207253,-0.0024064,0.00260345,-0.00331093,-0.475282,0.00342281,0.0401394,1868,890,46.8868,-2.51082
651,134,46.8895,2.89178,0.00104952,-0.00118333,-0.00135348,0.00168761,-0.00182142,-0.440542,0.00202643,0.0401681,1875,890,46.8895,-2.89179
658,134,46.8054,2.62848,0.00116516,-0.000748203,-0.000634713,0.00135656,-0.000939607,-0.292887,0.00133296,0.0407555,1882,890,46.8054,-2.62847
665,134,46.8148,2.60406,0.00138421,-0.000546958,-0.000319587,0.00143573,-0.000598472,-0.159814,0.00120715,0.0338743,1889,890,46.8148,-2.60406
672,134,46.8102,2.62091,0.00157941,-0.000492284,-1.43074e-05,0.00157951,-0.000492383,-0.0069057,0.00124989,0.0232689,1896,890,46.8102,-2.62094
679,134,46.8236,2.56921,0.00169305,-0.000412925,0.000130668,0.00170113,-0.000421001,0.061731,0.00129739,0.0212712,1903,890,46.8236,-2.56923
686,134,46.8402,2.57703,0,0,0,0,0,0,0,-1,1910,890,46.8402,-2.57703
693,134,34.5778,2.48096,0,0,0,0,0,0,0,-1,1917,890,34.5777,-2.48099
700,134,40.5682,2.63586,0,0,0,0,0,0,0,-1,1924,890,40.5682,-2.63588
707,134,40.4072,3.00543,0.00195113,-0.000102219,-0.000143806,0.00196115,-0.000112241,-0.0695821,0.00134641,0.022628,1931,890,40.4072,-3.00543
714,134,40.4497,3.53784,0.00172358,0.000165,-1.66605e-05,0.00172376,0.000164822,-0.0106879,0.00109836,0.0228536,1938,890,40.4497,-3.53784
721,134,40.6171,4.11493,0.00139297,0.000647285,8.60787e-06,0.00139307,0.000647185,0.0115415,0.000804963,0.0206711,1945,890,40.6171,-4.11491
728,134,40.6599,4.59741,0.000716355,0.00151195,9.22703e-05,0.00152252,0.000705794,1.45684,0.000879802,0.0186278,1952,890,40.6599,-4.5974
735,134,40.6106,5.12457,4.69771e-06,0.00282877,0.00027492,0.00285529,-2.18163e-05,1.47465,0.00191084,0.0248364,1959,890,40.6106,-5.12458
742,134,40.558,5.6109,-0.000734067,0.00471526,0.000677142,0.00479814,-0.000816949,1.449,0.00350298,0.0168944,1966,890,40.558,-5.61091
749,134,40.577,6.0683,-0.00149686,0.00702887,0.00143227,0.00726305,-0.00173104,1.40873,0.00551044,0.0126153,1973,890,40.577,-6.06827
756,134,40.5635,6.53235,-0.00215196,0.00978416,0.00257736,0.0103169,-0.00268471,1.36696,0.00792589,0.0169356,1980,890,40.5635,-6.53235
763,134,40.4633,7.03491,-0.00233168,0.0131222,0.00430697,0.0142414,-0.00345096,1.31654,0.0108295,0.0373723,1987,890,40.4633,-7.03489
770,134,40.3624,7.54053,0,0,0,0,0,0,0,-1,1994,890,40.3625,-7.5405
777,134,43.6969,5.94574,0,0,0,0,0,0,0,-1,2001,890,43.697,-5.94577
784,134,42.3352,7.4964,0,0,0,0,0,0,0,-1,2008,890,42.3352,-7.49641
791,134,42.2061,9.63593,0,0,0,0,0,0,0,-1,2015,890,42.2061,-9.63591
798,134,0,0,0,0,0,0,0,0,0,-1,2022,890,0,0
805,134,0,0,0,0,0,0,0,0,0,-1,2029,890,0,0
812,134,0,0,0,0,0,0,0,0,0,-1,2036,890,0,0
-700,127,0,0,0,0,0,0,0,0,0,-1,524,897,0,0
-693,127,0,0,0,0,0,0,0,0,0,-1,531,897,0,0
-686,127,0,0,0,0,0,0,0,0,0,-1,538,897,0,0
-679,127,-34.5961,1.51733,0,0,0,0,0,0,0,-1,545,897,-34.5961,-1.51734
-672,127,-34.033,2.18512,0,0,0,0,0,0,0,-1,552,897,-34.033,-2.18513
-665,127,-33.0739,3.02075,0,0,0,0,0,0,0,-1,559,897,-33.0739,-3.02077
-658,127,-32.8755,7.54254,0,0,0,0,0,0,0,-1,566,897,-32.8755,-7.54252
-651,127,-33.8195,6.84332,-0.0451673,-0.0505983,0.0237966,-0.0239318,-0.0718338,0.728588,0.0422359,0.0448087,573,897,-33.8195,-6.84333
-644,127,-34.6973,5.84436,0,0,0,0,0,0,0,-1,580,897,-34.6973,-5.84434
-637,127,-30.5244,3.48792,0,0,0,0,0,0,0,-1,587,897,-30.5244,-3.48792
-630,127,-30.402,3.69116,-0.0185022,-0.0212948,0.0131205,-0.00670383,-0.0330931,0.732388,0.0202017,0.0484678,594,897,-30.402,-3.69115
-623,127,-30.3885,3.71454,-0.01298,-0.0143005,0.0101897,-0.0034292,-0.0238513,0.753045,0.01489,0.0166039,601,897,-30.3885,-3.71456
-616,127,-30.4561,3.35645,-0.00882827,-0.00872219,0.00762211,-0.00115293,-0.0163975,0.788877,0.0105683,0.0102768,608,897,-30.4561,-3.35644
-609,127,-30.5123,2.92627,-0.00526382,-0.00465162,0.00546655,0.000517401,-0.0104328,0.813367,0.00713395,0.0141947,615,897,-30.5123,-2.92629
-602,127,-30.5095,2.50812,-0.00380485,-0.00180038,0.00385761,0.00118306,-0.0067883,0.912492,0.00496708,0.0165613,622,897,-30.5095,-2.50814
-595,127,-30.4595,2.13727,-0.00351854,-0.000751309,0.00298437,0.00115458,-0.00542443,1.00246,0.0040563,0.0253539,629,897,-30.4594,-2.13729
-588,127,-30.6171,1.64038,-0.003417,-0.000717518,0.00256895,0.000834693,-0.00496921,1.02728,0.00362323,0.0330908,636,897,-30.6171,-1.64039
-581,127,-30.4424,1.14264,0,0,0,0,0,0,0,-1,643,897,-30.4424,-1.14262
-574,127,-25.2603,0.511169,0,0,0,0,0,0,0,-1,650,897,-25.2603,-0.51117
-567,127,-24.5417,-0.0447388,0,0,0,0,0,0,0,-1,657,897,-24.5417,0.0447226
-560,127,-18.9678,1.21667,0,0,0,0,0,0,0,-1,664,897,-18.9677,-1.2167
-553,127,-35.014,0.880127,0,0,0,0,0,0,0,-1,671,897,-35.014,-0.880107
-546,127,-35.0327,0.898743,-0.003578,-7.09752e-05,0.00215766,0.000955856,-0.00460483,1.12661,0.00343315,0.024953,678,897,-35.0326,-0.898717
-539,127,-35.0519,0.927429,-0.00368002,0.000103206,0.00226492,0.00116254,-0.00473935,1.13331,0.00361002,0.022579,685,897,-35.0519,-0.927409
-532,127,-35.0745,0.957214,-0.0038195,0.000201315,0.0024937,0.00139407,-0.00501226,1.12465,0.00389037,0.0183596,692,897,-35.0745,-0.957242
-525,127,-35.218,1.06201,-0.00465509,-4.21902e-05,0.00288908,0.00134818,-0.00604546,1.12226,0.00454682,0.0351587,699,897,-35.218,-1.06204
-518,127,-35.2808,1.32648,-0.00583004,-0.000858172,0.00375537,0.00115952,-0.00784773,1.07777,0.00565807,0.0434771,706,897,-35.2808,-1.32649
-511,127,-35.3609,1.4726,-0.00629707,-0.00173649,0.00484144,0.00133479,-0.00936835,1.00549,0.00673473,0.0446911,713,897,-35.3609,-1.47261
-504,127,0,0,0,0,0,0,0,0,0,-1,720,897,0,0
-497,127,0,0,0,0,0,0,0,0,0,-1,727,897,0,0
-490,127,0,0,0,0,0,0,0,0,0,-1,734,897,0,0
-483,127,0,0,0,0,0,0,0,0,0,-1,741,897,0,0
-476,127,0,0,0,0,0,0,0,0,0,-1,748,897,0,0
-469,127,0,0,0,0,0,0,0,0,0,-1,755,897,0,0
-462,127,0,0,0,0,0,0,0,0,0,-1,762,897,0,0
-455,127,0,0,0,0,0,0,0,0,0,-1,769,897,0,0
-448,127,0,0,0,0,0,0,0,0,0,-1,776,897,0,0
-441,127,0,0,0,0,0,0,0,0,0,-1,783,897,0,0
-434,127,0,0,0,0,0,0,0,0,0,-1,790,897,0,0
-427,127,0,0,0,0,0,0,0,0,0,-1,797,897,0,0
-420,127,0,0,0,0,0,0,0,0,0,-1,804,897,0,0
-413,127,0,0,0,0,0,0,0,0,0,-1,811,897,0,0
-406,127,0,0,0,0,0,0,0,0,0,-1,818,897,0,0
-399,127,0,0,0,0,0,0,0,0,0,-1,825,897,0,0
-392,127,0,0,0,0,0,0,0,0,0,-1,832,897,0,0
-385,127,0,0,0,0,0,0,0,0,0,-1,839,897,0,0
-378,127,0,0,0,0,0,0,0,0,0,-1,846,897,0,0
-371,127,0,0,0,0,0,0,0,0,0,-1,853,897,0,0
-364,127,0,0,0,0,0,0,0,0,0,-1,860,897,0,0
-357,127,0,0,0,0,0,0,0,0,0,-1,867,897,0,0
-350,127,0,0,0,0,0,0,0,0,0,-1,874,897,0,0
-343,127,0,0,0,0,0,0,0,0,0,-1,881,897,0,0
-336,127,0,0,0,0,0,0,0,0,0,-1,888,897,0,0
-329,127,0,0,0,0,0,0,0,0,0,-1,895,897,0,0
-322,127,0,0,0,0,0,0,0,0,0,-1,902,897,0,0
-315,127,0,0,0,0,0,0,0,0,0,-1,909,897,0,0
-308,127,0,0,0,0,0,0,0,0,0,-1,916,897,0,0
-301,127,0,0,0,0,0,0,0,0,0,-1,923,897,0,0
-294,127,0,0,0,0,0,0,0,0,0,-1,930,897,0,0
-287,127,0,0,0,0,0,0,0,0,0,-1,937,897,0,0
-280,127,0,0,0,0,0,0,0,0,0,-1,944,897,0,0
-273,127,0,0,0,0,0,0,0,0,0,-1,951,897,0,0
-266,127,0,0,0,0,0,0,0,0,0,-1,958,897,0,0
-259,127,0,0,0,0,0,0,0,0,0,-1,965,897,0,0
-252,127,0,0,0,0,0,0,0,0,0,-1,972,897,0,0
-245,127,0,0,0,0,0,0,0,0,0,-1,979,897,0,0
-238,127,0,0,0,0,0,0,0,0,0,-1,986,897,0,0
-231,127,0,0,0,0,0,0,0,0,0,-1,993,897,0,0
-224,127,0,0,0,0,0,0,0,0,0,-1,1000,897,0,0
-217,127,0,0,0,0,0,0,0,0,0,-1,1007,897,0,0
-210,127,0,0,0,0,0,0,0,0,0,-1,1014,897,0,0
-203,127,0,0,0,0,0,0,0,0,0,-1,1021,897,0,0
-196,127,0,0,0,0,0,0,0,0,0,-1,1028,897,0,0
-189,127,0,0,0,0,0,0,0,0,0,-1,1035,897,0,0
-182,127,0,0,0,0,0,0,0,0,0,-1,1042,897,0,0
-175,127,0,0,0,0,0,0,0,0,0,-1,1049,897,0,0
-168,127,0,0,0,0,0,0,0,0,0,-1,1056,897,0,0
-161,127,0,0,0,0,0,0,0,0,0,-1,1063,897,0,0
-154,127,0,0,0,0,0,0,0,0,0,-1,1070,897,0,0
-147,127,0,0,0,0,0,0,0,0,0,-1,1077,897,0,0
-140,127,0,0,0,0,0,0,0,0,0,-1,1084,897,0,0
-133,127,0,0,0,0,0,0,0,0,0,-1,1091,897,0,0
-126,127,0,0,0,0,0,0,0,0,0,-1,1098,897,0,0
-119,127,0,0,0,0,0,0,0,0,0,-1,1105,897,0,0
-112,127,0,0,0,0,0,0,0,0,0,-1,1112,897,0,0
-105,127,0,0,0,0,0,0,0,0,0,-1,1119,897,0,0
-98,127,0,0,0,0,0,0,0,0,0,-1,1126,897,0,0
-91,127,0,0,0,0,0,0,0,0,0,-1,1133,897,0,0
-84,127,0,0,0,0,0,0,0,0,0,-1,1140,897,0,0
-77,127,0,0,0,0,0,0,0,0,0,-1,1147,897,0,0
-70,127,0,0,0,0,0,0,0,0,0,-1,1154,897,0,0
-63,127,0,0,0,0,0,0,0,0,0,-1,1161,897,0,0
-56,127,0,0,0,0,0,0,0,0,0,-1,1168,897,0,0
-49,127,0,0,0,0,0,0,0,0,0,-1,1175,897,0,0
-42,127,0,0,0,0,0,0,0,0,0,-1,1182,897,0,0
-35,127,0,0,0,0,0,0,0,0,0,-1,1189,897,0,0
-28,127,0,0,0,0,0,0,0,0,0,-1,1196,897,0,0
-21,127,0,0,0,0,0,0,0,0,0,-1,1203,897,0,0
-14,127,0,0,0,0,0,0,0,0,0,-1,1210,897,0,0
-7,127,0,0,0,0,0,0,0,0,0,-1,1217,897,0,0
0,127,0,0,0,0,0,0,0,0,0,-1,1224,897,0,0
7,127,0,0,0,0,0,0,0,0,0,-1,1231,897,0,0
14,127,0,0,0,0,0,0,0,0,0,-1,1238,897,0,0
21,127,0,0,0,0,0,0,0,0,0,-1,1245,897,0,0
28,127,0,0,0,0,0,0,0,0,0,-1,1252,897,0,0
35,127,0,0,0,0,0,0,0,0,0,-1,1259,897,0,0
42,127,0,0,0,0,0,0,0,0,0,-1,1266,897,0,0
49,127,0,0,0,0,0,0,0,0,0,-1,1273,897,0,0
56,127,0,0,0,0,0,0,0,0,0,-1,1280,897,0,0
63,127,0,0,0,0,0,0,0,0,0,-1,1287,897,0,0
70,127,0,0,0,0,0,0,0,0,0,-1,1294,897,0,0
77,127,0,0,0,0,0,0,0,0,0,-1,1301,897,0,0
84,127,0,0,0,0,0,0,0,0,0,-1,1308,897,0,0
91,127,0,0,0,0,0,0,0,0,0,-1,1315,897,0,0
98,127,0,0,0,0,0,0,0,0,0,-1,1322,897,0,0
105,127,0,0,0,0,0,0,0,0,0,-1,1329,897,0,0
112,127,0,0,0,0,0,0,0,0,0,-1,1336,897,0,0
119,127,0,0,0,0,0,0,0,0,0,-1,1343,897,0,0
126,127,0,0,0,0,0,0,0,0,0,-1,1350,897,0,0
133,127,0,0,0,0,0,0,0,0,0,-1,1357,897,0,0
140,127,0,0,0,0,0,0,0,0,0,-1,1364,897,0,0
147,127,0,0,0,0,0,0,0,0,0,-1,1371,897,0,0
154,127,0,0,0,0,0,0,0,0,0,-1,1378,897,0,0
161,127,0,0,0,0,0,0,0,0,0,-1,1385,897,0,0
168,127,0,0,0,0,0,0,0,0,0,-1,1392,897,0,0
175,127,0,0,0,0,0,0,0,0,0,-1,1399,897,0,0
182,127,0,0,0,0,0,0,0,0,0,-1,1406,897,0,0
189,127,0,0,0,0,0,0,0,0,0,-1,1413,897,0,0
196,127,0,0,0,0,0,0,0,0,0,-1,1420,897,0,0
203,127,0,0,0,0,0,0,0,0,0,-1,1427,897,0,0
210,127,0,0,0,0,0,0,0,0,0,-1,1434,897,0,0
217,127,0,0,0,0,0,0,0,0,0,-1,1441,897,0,0
224,127,0,0,0,0,0,0,0,0,0,-1,1448,897,0,0
231,127,0,0,0,0,0,0,0,0,0,-1,1455,897,0,0
238,127,0,0,0,0,0,0,0,0,0,-1,1462,897,0,0
245,127,0,0,0,0,0,0,0,0,0,-1,1469,897,0,0
252,127,0,0,0,0,0,0,0,0,0,-1,1476,897,0,0
259,127,0,0,0,0,0,0,0,0,0,-1,1483,897,0,0
266,127,0,0,0,0,0,0,0,0,0,-1,1490,897,0,0
273,127,0,0,0,0,0,0,0,0,0,-1,1497,897,0,0
280,127,0,0,0,0,0,0,0,0,0,-1,1504,897,0,0
287,127,0,0,0,0,0,0,0,0,0,-1,1511,897,0,0
294,127,0,0,0,0,0,0,0,0,0,-1,1518,897,0,0
301,127,0,0,0,0,0,0,0,0,0,-1,1525,897,0,0
308,127,0,0,0,0,0,0,0,0,0,-1,1532,897,0,0
315,127,0,0,0,0,0,0,0,0,0,-1,1539,897,0,0
322,127,0,0,0,0,0,0,0,0,0,-1,1546,897,0,0
329,127,0,0,0,0,0,0,0,0,0,-1,1553,897,0,0
336,127,0,0,0,0,0,0,0,0,0,-1,1560,897,0,0
343,127,0,0,0,0,0,0,0,0,0,-1,1567,897,0,0
350,127,0,0,0,0,0,0,0,0,0,-1,1574,897,0,0
357,127,0,0,0,0,0,0,0,0,0,-1,1581,897,0,0
364,127,0,0,0,0,0,0,0,0,0,-1,1588,897,0,0
371,127,0,0,0,0,0,0,0,0,0,-1,1595,897,0,0
378,127,0,0,0,0,0,0,0,0,0,-1,1602,897,0,0
385,127,0,0,0,0,0,0,0,0,0,-1,1609,897,0,0
392,127,0,0,0,0,0,0,0,0,0,-1,1616,897,0,0
399,127,0,0,0,0,0,0,0,0,0,-1,1623,897,0,0
406,127,0,0,0,0,0,0,0,0,0,-1,1630,897,0,0
413,127,0,0,0,0,0,0,0,0,0,-1,1637,897,0,0
420,127,0,0,0,0,0,0,0,0,0,-1,1644,897,0,0
427,127,0,0,0,0,0,0,0,0,0,-1,1651,897,0,0
434,127,0,0,0,0,0,0,0,0,0,-1,1658,897,0,0
441,127,0,0,0,0,0,0,0,0,0,-1,1665,897,0,0
448,127,0,0,0,0,0,0,0,0,0,-1,1672,897,0,0
455,127,0,0,0,0,0,0,0,0,0,-1,1679,897,0,0
462,127,0,0,0,0,0,0,0,0,0,-1,1686,897,0,0
469,127,0,0,0,0,0,0,0,0,0,-1,1693,897,0,0
476,127,0,0,0,0,0,0,0,0,0,-1,1700,897,0,0
483,127,0,0,0,0,0,0,0,0,0,-1,1707,897,0,0
490,127,0,0,0,0,0,0,0,0,0,-1,1714,897,0,0
497,127,0,0,0,0,0,0,0,0,0,-1,1721,897,0,0
504,127,0,0,0,0,0,0,0,0,0,-1,1728,897,0,0
511,127,0,0,0,0,0,0,0,0,0,-1,1735,897,0,0
518,127,0,0,0,0,0,0,0,0,0,-1,1742,897,0,0
525,127,0,0,0,0,0,0,0,0,0,-1,1749,897,0,0
532,127,0,0,0,0,0,0,0,0,0,-1,1756,897,0,0
539,127,0,0,0,0,0,0,0,0,0,-1,1763,897,0,0
546,127,0,0,0,0,0,0,0,0,0,-1,1770,897,0,0
553,127,0,0,0,0,0,0,0,0,0,-1,1777,897,0,0
560,127,0,0,0,0,0,0,0,0,0,-1,1784,897,0,0
567,127,0,0,0,0,0,0,0,0,0,-1,1791,897,0,0
574,127,0,0,0,0,0,0,0,0,0,-1,1798,897,0,0
581,127,0,0,0,0,0,0,0,0,0,-1,1805,897,0,0
588,127,0,0,0,0,0,0,0,0,0,-1,1812,897,0,0
595,127,0,0,0,0,0,0,0,0,0,-1,1819,897,0,0
602,127,0,0,0,0,0,0,0,0,0,-1,1826,897,0,0
609,127,0,0,0,0,0,0,0,0,0,-1,1833,897,0,0
616,127,0,0,0,0,0,0,0,0,0,-1,1840,897,0,0
623,127,0,0,0,0,0,0,0,0,0,-1,1847,897,0,0
630,127,46.655,2.69098,0.00284409,-0.00660249,-0.00626438,0.0059663,-0.00972471,-0.462373,0.00914542,0.0375727,1854,897,46.655,-2.69095
637,127,46.7317,2.16229,0.00204046,-0.00440873,-0.00414832,0.00407006,-0.00643833,-0.455018,0.00611816,0.0406627,1861,897,46.7317,-2.16226
644,127,46.8677,2.45343,0.0014476,-0.00281395,-0.00261587,0.00269069,-0.00405704,-0.443621,0.00392233,0.0414359,1868,897,46.8676,-2.45342
651,127,46.7264,2.89227,0,0,0,0,0,0,0,-1,1875,897,46.7264,-2.89228
658,127,46.744,2.56122,0.00122629,-0.00106383,-0.000703941,0.00142537,-0.0012629,-0.275602,0.00155302,0.0401949,1882,897,46.744,-2.56122
665,127,46.7772,2.52661,0.00151773,-0.000714619,-0.000293446,0.00155566,-0.000752548,-0.128543,0.00135927,0.0371567,1889,897,46.7772,-2.52664
672,127,46.7842,2.53906,0.00178302,-0.0005972,5.97857e-05,0.00178452,-0.000598701,0.0250966,0.00143161,0.0334906,1896,897,46.7841,-2.53907
679,127,46.8202,2.54419,0.00195158,-0.000486988,0.000247994,0.00197654,-0.000511953,0.100328,0.00151741,0.0265611,1903,897,46.8202,-2.5442
686,127,46.8213,2.51666,0.00191937,-0.000495438,0.000428888,0.00199329,-0.000569349,0.170657,0.00155381,0.0453479,1910,897,46.8213,-2.51668
693,127,46.791,2.40649,0,0,0,0,0,0,0,-1,1917,897,46.791,-2.40651
700,127,40.912,2.57214,0,0,0,0,0,0,0,-1,1924,897,40.912,-2.57213
707,127,40.8171,3.02301,0.00210184,-8.44688e-05,-7.59358e-06,0.00210187,-8.44952e-05,-0.00347319,0.00143024,0.0279259,1931,897,40.8171,-3.02298
714,127,41.0391,3.57104,0.00179101,0.000158331,0.000112229,0.00179868,0.000150653,0.0683113,0.00115219,0.0228744,1938,897,41.0391,-3.57107
721,127,41.2106,4.22968,0.00140658,0.000555265,8.34878e-05,0.00141469,0.000547154,0.0968401,0.000823722,0.0194549,1945,897,41.2106,-4.22965
728,127,41.1554,4.66589,0.000615747,0.00131719,7.54041e-05,0.00132521,0.000607733,1.46491,0.000765983,0.017554,1952,897,41.1554,-4.66592
735,127,41.1177,5.14465,-0.000261703,0.00252795,9.25473e-05,0.00253102,-0.00026477,1.53767,0.00178217,0.0219923,1959,897,41.1176,-5.14462
742,127,41.0868,5.60803,-0.00121521,0.00430997,0.00028136,0.00432426,-0.0012295,1.52005,0.00336832,0.019409,1966,897,41.0868,-5.60804
749,127,41.0774,6.05609,-0.0022535,0.00657387,0.000798176,0.00664546,-0.00232509,1.48134,0.00537565,0.0132761,1973,897,41.0774,-6.05606
756,127,41.0427,6.48163,-0.00319401,0.0093127,0.00165428,0.00952782,-0.00340912,1.44149,0.00774261,0.0161529,1980,897,41.0427,-6.48161
763,127,40.9663,6.89954,-0.00368332,0.0125697,0.00294017,0.0130853,-0.00419884,1.39722,0.0104093,0.0248775,1987,897,40.9663,-6.89954
770,127,40.917,7.31842,0,0,0,0,0,0,0,-1,1994,897,40.917,-7.31843
777,127,42.703,5.33789,0,0,0,0,0,0,0,-1,2001,897,42.7031,-5.33791
784,127,42.6145,8.47131,0,0,0,0,0,0,0,-1,2008,897,42.6146,-8.47131
791,127,42.5813,5.51636,0,0,0,0,0,0,0,-1,2015,897,42.5813,-5.51633
798,127,0,0,0,0,0,0,0,0,0,-1,2022,897,0,0
805,127,0,0,0,0,0,0,0,0,0,-1,2029,897,0,0
812,127,0,0,0,0,0,0,0,0,0,-1,2036,897,0,0
-700,120,0,0,0,0,0,0,0,0,0,-1,524,904,0,0
-693,120,0,0,0,0,0,0,0,0,0,-1,531,904,0,0
-686,120,0,0,0,0,0,0,0,0,0,-1,538,904,0,0
-679,120,-29.9805,2.74487,0,0,0,0,0,0,0,-1,545,904,-29.9805,-2.74486
-672,120,-34.0113,0.702393,0,0,0,0,0,0,0,-1,552,904,-34.0113,-0.70237
-665,120,-33.0872,1.02594,0,0,0,0,0,0,0,-1,559,904,-33.0871,-1.02595
-658,120,-34.5807,8.79901,0,0,0,0,0,0,0,-1,566,904,-34.5808,-8.799
-651,120,-35.5688,7.60797,0,0,0,0,0,0,0,-1,573,904,-35.5688,-7.60797
-644,120,-32.2053,3.62897,0,0,0,0,0,0,0,-1,580,904,-32.2053,-3.62897
-637,120,-31.536,3.88416,-0.0215525,-0.0251863,0.0131907,-0.0100542,-0.0366846,0.716959,0.0218887,0.0480877,587,904,-31.536,-3.88418
-630,120,-30.8727,4.03644,-0.0156653,-0.0178616,0.0106427,-0.00606423,-0.0274627,0.733987,0.0166591,0.0295798,594,904,-30.8727,-4.03644
-623,120,-30.8956,3.71082,-0.011159,-0.011819,0.00835175,-0.00313077,-0.0198473,0.765651,0.0123212,0.012201,601,904,-30.8956,-3.7108
-616,120,-30.9196,3.32739,-0.00799106,-0.00712892,0.00635271,-0.00119267,-0.0139273,0.819274,0.00891395,0.0103271,608,904,-30.9196,-3.3274
-609,120,-30.9505,2.9173,-0.00540738,-0.00393051,0.00469587,8.46325e-05,-0.00942252,0.863386,0.00631008,0.0135324,615,904,-30.9505,-2.91728
-602,120,-30.9756,2.50421,-0.0045871,-0.00162401,0.00335444,0.000561489,-0.0067726,0.993349,0.00471339,0.0159744,622,904,-30.9756,-2.5042
-595,120,-30.9078,2.13861,-0.00460436,-0.000651994,0.00254457,0.000593646,-0.00585,1.11556,0.00411219,0.0283213,629,904,-30.9079,-2.13863
-588,120,-30.9022,1.61316,-0.00458164,-0.000619075,0.00210183,0.000288095,-0.00548881,1.16334,0.00375892,0.0369877,636,904,-30.9022,-1.61319
-581,120,-30.6662,0.995483,0,0,0,0,0,0,0,-1,643,904,-30.6662,-0.995487
-574,120,-27.5438,0.505066,0,0,0,0,0,0,0,-1,650,904,-27.5438,-0.505085
-567,120,-25.2822,-0.410645,0,0,0,0,0,0,0,-1,657,904,-25.2821,0.410629
-560,120,-27.3358,1.10327,0,0,0,0,0,0,0,-1,664,904,-27.3358,-1.10324
-553,120,-34.9984,0.932251,0,0,0,0,0,0,0,-1,671,904,-34.9984,-0.932247
-546,120,-35.029,0.95813,-0.00430605,0.000680472,0.00192212,0.00133537,-0.00496094,1.24242,0.0038308,0.0348382,678,904,-35.029,-0.958139
-539,120,-35.0319,0.96637,-0.00422393,0.00102477,0.00210805,0.00176659,-0.00496575,1.23243,0.00403055,0.027666,685,904,-35.032,-0.966399
-532,120,-34.9473,0.94635,-0.00413973,0.0012917,0.00248552,0.00225741,-0.00510545,1.20021,0.00435567,0.0285741,692,904,-34.9473,-0.946354
-525,120,-35.1653,1.40906,-0.00461939,0.00118861,0.00305699,0.00250106,-0.00593184,1.16527,0.00500124,0.0347359,699,904,-35.1653,-1.40904
-518,120,-35.4052,1.74841,-0.0058801,0.000436315,0.00397,0.00235109,-0.00779487,1.1214,0.0061324,0.0401632,706,904,-35.4052,-1.74841
-511,120,-35.4598,1.57721,-0.00660082,-0.000294893,0.00482889,0.00231923,-0.00921494,1.07462,0.0070448,0.0425783,713,904,-35.4598,-1.57722
-504,120,0,0,0,0,0,0,0,0,0,-1,720,904,0,0
-497,120,0,0,0,0,0,0,0,0,0,-1,727,904,0,0
-490,120,0,0,0,0,0,0,0,0,0,-1,734,904,0,0
-483,120,0,0,0,0,0,0,0,0,0,-1,741,904,0,0
-476,120,0,0,0,0,0,0,0,0,0,-1,748,904,0,0
-469,120,0,0,0,0,0,0,0,0,0,-1,755,904,0,0
-462,120,0,0,0,0,0,0,0,0,0,-1,762,904,0,0
-455,120,0,0,0,0,0,0,0,0,0,-1,769,904,0,0
-448,120,0,0,0,0,0,0,0,0,0,-1,776,904,0,0
-441,120,0,0,0,0,0,0,0,0,0,-1,783,904,0,0
-434,120,0,0,0,0,0,0,0,0,0,-1,790,904,0,0
-427,120,0,0,0,0,0,0,0,0,0,-1,797,904,0,0
-420,120,0,0,0,0,0,0,0,0,0,-1,804,904,0,0
-413,120,0,0,0,0,0,0,0,0,0,-1,811,904,0,0
-406,120,0,0,0,0,0,0,0,0,0,-1,818,904,0,0
-399,120,0,0,0,0,0,0,0,0,0,-1,825,904,0,0
-392,120,0,0,0,0,0,0,0,0,0,-1,832,904,0,0
-385,120,0,0,0,0,0,0,0,0,0,-1,839,904,0,0
-378,120,0,0,0,0,0,0,0,0,0,-1,846,904,0,0
-371,120,0,0,0,0,0,0,0,0,0,-1,853,904,0,0
-364,120,0,0,0,0,0,0,0,0,0,-1,860,904,0,0
-357,120,0,0,0,0,0,0,0,0,0,-1,867,904,0,0
-350,120,0,0,0,0,0,0,0,0,0,-1,874,904,0,0
-343,120,0,0,0,0,0,0,0,0,0,-1,881,904,0,0
-336,120,0,0,0,0,0,0,0,0,0,-1,888,904,0,0
-329,120,0,0,0,0,0,0,0,0,0,-1,895,904,0,0
-322,120,0,0,0,0,0,0,0,0,0,-1,902,904,0,0
-315,120,0,0,0,0,0,0,0,0,0,-1,909,904,0,0
-308,120,0,0,0,0,0,0,0,0,0,-1,916,904,0,0
-301,120,0,0,0,0,0,0,0,0,0,-1,923,904,0,0
-294,120,0,0,0,0,0,0,0,0,0,-1,930,904,0,0
-287,120,0,0,0,0,0,0,0,0,0,-1,937,904,0,0
-280,120,0,0,0,0,0,0,0,0,0,-1,944,904,0,0
-273,120,0,0,0,0,0,0,0,0,0,-1,951,904,0,0
-266,120,0,0,0,0,0,0,0,0,0,-1,958,904,0,0
-259,120,0,0,0,0,0,0,0,0,0,-1,965,904,0,0
-252,120,0,0,0,0,0,0,0,0,0,-1,972,904,0,0
-245,120,0,0,0,0,0,0,0,0,0,-1,979,904,0,0
-238,120,0,0,0,0,0,0,0,0,0,-1,986,904,0,0
-231,120,0,0,0,0,0,0,0,0,0,-1,993,904,0,0
-224,120,0,0,0,0,0,0,0,0,0,-1,1000,904,0,0
-217,120,0,0,0,0,0,0,0,0,0,-1,1007,904,0,0
-210,120,0,0,0,0,0,0,0,0,0,-1,1014,904,0,0
-203,120,0,0,0,0,0,0,0,0,0,-1,1021,904,0,0
-196,120,0,0,0,0,0,0,0,0,0,-1,1028,904,0,0
-189,120,0,0,0,0,0,0,0,0,0,-1,1035,904,0,0
-182,120,0,0,0,0,0,0,0,0,0,-1,1042,904,0,0
-175,120,0,0,0,0,0,0,0,0,0,-1,1049,904,0,0
-168,120,0,0,0,0,0,0,0,0,0,-1,1056,904,0,0
-161,120,0,0,0,0,0,0,0,0,0,-1,1063,904,0,0
-154,120,0,0,0,0,0,0,0,0,0,-1,1070,904,0,0
-147,120,0,0,0,0,0,0,0,0,0,-1,1077,904,0,0
-140,120,0,0,0,0,0,0,0,0,0,-1,1084,904,0,0
-133,120,0,0,0,0,0,0,0,0,0,-1,1091,904,0,0
-126,120,0,0,0,0,0,0,0,0,0,-1,1098,904,0,0
-119,120,0,0,0,0,0,0,0,0,0,-1,1105,904,0,0
-112,120,0,0,0,0,0,0,0,0,0,-1,1112,904,0,0
-105,120,0,0,0,0,0,0,0,0,0,-1,1119,904,0,0
-98,120,0,0,0,0,0,0,0,0,0,-1,1126,904,0,0
-91,120,0,0,0,0,0,0,0,0,0,-1,1133,904,0,0
-84,120,0,0,0,0,0,0,0,0,0,-1,1140,904,0,0
-77,120,0,0,0,0,0,0,0,0,0,-1,1147,904,0,0
-70,120,0,0,0,0,0,0,0,0,0,-1,1154,904,0,0
-63,120,0,0,0,0,0,0,0,0,0,-1,1161,904,0,0
-56,120,0,0,0,0,0,0,0,0,0,-1,1168,904,0,0
-49,120,0,0,0,0,0,0,0,0,0,-1,1175,904,0,0
-42,120,0,0,0,0,0,0,0,0,0,-1,1182,904,0,0
-35,120,0,0,0,0,0,0,0,0,0,-1,1189,904,0,0
-28,120,0,0,0,0,0,0,0,0,0,-1,1196,904,0,0
-21,120,0,0,0,0,0,0,0,0,0,-1,1203,904,0,0
-14,120,0,0,0,0,0,0,0,0,0,-1,1210,904,0,0
-7,120,0,0,0,0,0,0,0,0,0,-1,1217,904,0,0
0,120,0,0,0,0,0,0,0,0,0,-1,1224,904,0,0
7,120,0,0,0,0,0,0,0,0,0,-1,1231,904,0,0
14,120,0,0,0,0,0,0,0,0,0,-1,1238,904,0,0
21,120,0,0,0,0,0,0,0,0,0,-1,1245,904,0,0
28,120,0,0,0,0,0,0,0,0,0,-1,1252,904,0,0
35,120,0,0,0,0,0,0,0,0,0,-1,1259,904,0,0
42,120,0,0,0,0,0,0,0,0,0,-1,1266,904,0,0
49,120,0,0,0,0,0,0,0,0,0,-1,1273,904,0,0
56,120,0,0,0,0,0,0,0,0,0,-1,1280,904,0,0
63,120,0,0,0,0,0,0,0,0,0,-1,1287,904,0,0
70,120,0,0,0,0,0,0,0,0,0,-1,1294,904,0,0
77,120,0,0,0,0,0,0,0,0,0,-1,1301,904,0,0
84,120,0,0,0,0,0,0,0,0,0,-1,1308,904,0,0
91,120,0,0,0,0,0,0,0,0,0,-1,1315,904,0,0
98,120,0,0,0,0,0,0,0,0,0,-1,1322,904,0,0
105,120,0,0,0,0,0,0,0,0,0,-1,1329,904,0,0
112,120,0,0,0,0,0,0,0,0,0,-1,1336,904,0,0
119,120,0,0,0,0,0,0,0,0,0,-1,1343,904,0,0
126,120,0,0,0,0,0,0,0,0,0,-1,1350,904,0,0
133,120,0,0,0,0,0,0,0,0,0,-1,1357,904,0,0
140,120,0,0,0,0,0,0,0,0,0,-1,1364,904,0,0
147,120,0,0,0,0,0,0,0,0,0,-1,1371,904,0,0
154,120,0,0,0,0,0,0,0,0,0,-1,1378,904,0,0
161,120,0,0,0,0,0,0,0,0,0,-1,1385,904,0,0
168,120,0,0,0,0,0,0,0,0,0,-1,1392,904,0,0
175,120,0,0,0,0,0,0,0,0,0,-1,1399,904,0,0
182,120,0,0,0,0,0,0,0,0,0,-1,1406,904,0,0
189,120,0,0,0,0,0,0,0,0,0,-1,1413,904,0,0
196,120,0,0,0,0,0,0,0,0,0,-1,1420,904,0,0
203,120,0,0,0,0,0,0,0,0,0,-1,1427,904,0,0
210,120,0,0,0,0,0,0,0,0,0,-1,1434,904,0,0
217,120,0,0,0,0,0,0,0,0,0,-1,1441,904,0,0
224,120,0,0,0,0,0,0,0,0,0,-1,1448,904,0,0
231,120,0,0,0,0,0,0,0,0,0,-1,1455,904,0,0
238,120,0,0,0,0,0,0,0,0,0,-1,1462,904,0,0
245,120,0,0,0,0,0,0,0,0,0,-1,1469,904,0,0
252,120,0,0,0,0,0,0,0,0,0,-1,1476,904,0,0
259,120,0,0,0,0,0,0,0,0,0,-1,1483,904,0,0
266,120,0,0,0,0,0,0,0,0,0,-1,1490,904,0,0
273,120,0,0,0,0,0,0,0,0,0,-1,1497,904,0,0
280,120,0,0,0,0,0,0,0,0,0,-1,1504,904,0,0
287,120,0,0,0,0,0,0,0,0,0,-1,1511,904,0,0
294,120,0,0,0,0,0,0,0,0,0,-1,1518,904,0,0
301,120,0,0,0,0,0,0,0,0,0,-1,1525,904,0,0
308,120,0,0,0,0,0,0,0,0,0,-1,1532,904,0,0
315,120,0,0,0,0,0,0,0,0,0,-1,1539,904,0,0
322,120,0,0,0,0,0,0,0,0,0,-1,1546,904,0,0
329,120,0,0,0,0,0,0,0,0,0,-1,1553,904,0,0
336,120,0,0,0,0,0,0,0,0,0,-1,1560,904,0,0
343,120,0,0,0,0,0,0,0,0,0,-1,1567,904,0,0
350,120,0,0,0,0,0,0,0,0,0,-1,1574,904,0,0
357,120,0,0,0,0,0,0,0,0,0,-1,1581,904,0,0
364,120,0,0,0,0,0,0,0,0,0,-1,1588,904,0,0
371,120,0,0,0,0,0,0,0,0,0,-1,1595,904,0,0
378,120,0,0,0,0,0,0,0,0,0,-1,1602,904,0,0
385,120,0,0,0,0,0,0,0,0,0,-1,1609,904,0,0
392,120,0,0,0,0,0,0,0,0,0,-1,1616,904,0,0
399,120,0,0,0,0,0,0,0,0,0,-1,1623,904,0,0
406,120,0,0,0,0,0,0,0,0,0,-1,1630,904,0,0
413,120,0,0,0,0,0,0,0,0,0,-1,1637,904,0,0
420,120,0,0,0,0,0,0,0,0,0,-1,1644,904,0,0
427,120,0,0,0,0,0,0,0,0,0,-1,1651,904,0,0
434,120,0,0,0,0,0,0,0,0,0,-1,1658,904,0,0
441,120,0,0,0,0,0,0,0,0,0,-1,1665,904,0,0
448,120,0,0,0,0,0,0,0,0,0,-1,1672,904,0,0
455,120,0,0,0,0,0,0,0,0,0,-1,1679,904,0,0
462,120,0,0,0,0,0,0,0,0,0,-1,1686,904,0,0
469,120,0,0,0,0,0,0,0,0,0,-1,1693,904,0,0
476,120,0,0,0,0,0,0,0,0,0,-1,1700,904,0,0
483,120,0,0,0,0,0,0,0,0,0,-1,1707,904,0,0
490,120,0,0,0,0,0,0,0,0,0,-1,1714,904,0,0
497,120,0,0,0,0,0,0,0,0,0,-1,1721,904,0,0
504,120,0,0,0,0,0,0,0,0,0,-1,1728,904,0,0
511,120,0,0,0,0,0,0,0,0,0,-1,1735,904,0,0
518,120,0,0,0,0,0,0,0,0,0,-1,1742,904,0,0
525,120,0,0,0,0,0,0,0,0,0,-1,1749,904,0,0
532,120,0,0,0,0,0,0,0,0,0,-1,1756,904,0,0
539,120,0,0,0,0,0,0,0,0,0,-1,1763,904,0,0
546,120,0,0,0,0,0,0,0,0,0,-1,1770,904,0,0
553,120,0,0,0,0,0,0,0,0,0,-1,1777,904,0,0
560,120,0,0,0,0,0,0,0,0,0,-1,1784,904,0,0
567,120,0,0,0,0,0,0,0,0,0,-1,1791,904,0,0
574,120,0,0,0,0,0,0,0,0,0,-1,1798,904,0,0
581,120,0,0,0,0,0,0,0,0,0,-1,1805,904,0,0
588,120,0,0,0,0,0,0,0,0,0,-1,1812,904,0,0
595,120,0,0,0,0,0,0,0,0,0,-1,1819,904,0,0
602,120,0,0,0,0,0,0,0,0,0,-1,1826,904,0,0
609,120,0,0,0,0,0,0,0,0,0,-1,1833,904,0,0
616,120,0,0,0,0,0,0,0,0,0,-1,1840,904,0,0
623,120,0,0,0,0,0,0,0,0,0,-1,1847,904,0,0
630,120,46.7559,2.55981,0.00291669,-0.00718415,-0.00597513,0.00568989,-0.00995734,-0.434536,0.00914524,0.0385294,1854,904,46.7558,-2.55983
637,120,46.9583,2.26984,0.00198472,-0.00501789,-0.00405391,0.00384003,-0.00687319,-0.429205,0.00626737,0.0426699,1861,904,46.9583,-2.26985
644,120,46.8522,2.44696,0.00137616,-0.00339136,-0.00269261,0.00258857,-0.00460377,-0.423081,0.00420648,0.0426172,1868,904,46.8521,-2.44693
651,120,46.5422,2.74121,0.00105997,-0.00218427,-0.00168146,0.00177421,-0.00289851,-0.40168,0.0027237,0.0420378,1875,904,46.5423,-2.74123
658,120,46.6965,2.66449,0.00120408,-0.00138118,-0.000890611,0.00148118,-0.00165829,-0.30165,0.00181354,0.0389151,1882,904,46.6966,-2.6645
665,120,46.7164,2.65552,0.00156035,-0.000912792,-0.000438453,0.00163578,-0.000988223,-0.170371,0.00153027,0.0356402,1889,904,46.7164,-2.65551
672,120,46.7751,2.58032,0.00186246,-0.000738409,-6.69276e-05,0.00186418,-0.00074013,-0.0257102,0.00154958,0.037063,1896,904,46.7751,-2.58032
679,120,46.7789,2.60535,0.00206085,-0.000610718,0.000165562,0.00207107,-0.000620939,0.0616576,0.00162766,0.033745,1903,904,46.7789,-2.60537
686,120,46.7996,2.5954,0.00203689,-0.000594868,0.000375847,0.00208951,-0.000647491,0.139108,0.0016517,0.0268421,1910,904,46.7996,-2.59537
693,120,46.767,2.51904,0,0,0,0,0,0,0,-1,1917,904,46.7669,-2.51905
700,120,41.587,2.91229,0,0,0,0,0,0,0,-1,1924,904,41.587,-2.91232
707,120,41.3995,3.27509,0.00196277,-0.000159897,-3.11318e-05,0.00196323,-0.000160354,-0.0146621,0.00136541,0.0470569,1931,904,41.3996,-3.27508
714,120,41.6844,3.85175,0.00155009,8.86429e-05,0.000100822,0.00155701,8.17202e-05,0.068555,0.00101187,0.0228083,1938,904,41.6844,-3.85174
721,120,41.6663,4.29694,0.00110243,0.000445334,5.04321e-05,0.00110628,0.000441486,0.0761553,0.000643034,0.0172323,1945,904,41.6663,-4.29691
728,120,41.6128,4.76508,0.000219356,0.00114463,-4.99623e-06,0.00114466,0.000219329,-1.5654,0.000701518,0.0120862,1952,904,41.6128,-4.76509
735,120,41.5839,5.17438,-0.000758519,0.00228686,-0.000103222,0.00229036,-0.000762014,-1.53695,0.00183445,0.014103,1959,904,41.5839,-5.17435
742,120,41.5756,5.62933,-0.00184383,0.0039915,-9.12453e-05,0.00399292,-0.00184526,-1.55516,0.00344586,0.0147981,1966,904,41.5756,-5.62933
749,120,41.5591,6.04797,-0.00304875,0.0062414,0.000194128,0.00624546,-0.0030528,1.54991,0.00547282,0.0111322,1973,904,41.5591,-6.048
756,120,41.493,6.48035,-0.00415045,0.00898909,0.000775473,0.0090347,-0.00419606,1.51205,0.0078072,0.0145749,1980,904,41.493,-6.48033
763,120,41.3969,6.90131,-0.00478664,0.0121893,0.00166288,0.0123506,-0.00494799,1.47407,0.0102877,0.0291806,1987,904,41.3968,-6.9013
770,120,41.317,7.35614,0,0,0,0,0,0,0,-1,1994,904,41.317,-7.35612
777,120,41.3512,6.78638,0,0,0,0,0,0,0,-1,2001,904,41.3512,-6.78635
784,120,43.5239,5.77271,0,0,0,0,0,0,0,-1,2008,904,43.524,-5.77269
791,120,41.957,6.00659,0,0,0,0,0,0,0,-1,2015,904,41.957,-6.00662
798,120,40.3899,6.24054,0,0,0,0,0,0,0,-1,2022,904,40.39,-6.24055
805,120,0,0,0,0,0,0,0,0,0,-1,2029,904,0,0
812,120,0,0,0,0,0,0,0,0,0,-1,2036,904,0,0
-700,113,0,0,0,0,0,0,0,0,0,-1,524,911,0,0
-693,113,0,0,0,0,0,0,0,0,0,-1,531,911,0,0
-686,113,0,0,0,0,0,0,0,0,0,-1,538,911,0,0
-679,113,-29.7403,2.8996,0,0,0,0,0,0,0,-1,545,911,-29.7403,-2.89963
-672,113,-30.002,2.09918,0,0,0,0,0,0,0,-1,552,911,-30.002,-2.09921
-665,113,-32.9369,-0.223633,0,0,0,0,0,0,0,-1,559,911,-32.9369,0.22363
-658,113,-32.3231,0.133789,0,0,0,0,0,0,0,-1,566,911,-32.3232,-0.133818
-651,113,-37.0273,8.46857,0,0,0,0,0,0,0,-1,573,911,-37.0274,-8.46859
-644,113,-31.3445,4.48779,0,0,0,0,0,0,0,-1,580,911,-31.3446,-4.48778
-637,113,-31.382,4.2334,-0.0161169,-0.0201719,0.00890424,-0.00901226,-0.0272766,0.673458,0.0160473,0.039387,587,911,-31.382,-4.2334
-630,113,-31.3121,4.08716,-0.0116237,-0.0138193,0.0073022,-0.00533723,-0.0201057,0.71079,0.0120262,0.0202061,594,911,-31.3121,-4.08714
-623,113,-31.3601,3.70923,-0.00848548,-0.00881809,0.00589456,-0.00275488,-0.0145487,0.771295,0.00892372,0.0120546,601,911,-31.3601,-3.70921
-616,113,-31.3463,3.3111,-0.00679082,-0.00520082,0.00473258,-0.00119693,-0.0107947,0.868614,0.00683253,0.00968163,608,911,-31.3463,-3.31108
-609,113,-31.3654,2.93408,-0.00544346,-0.00303173,0.00371891,-0.00032807,-0.00814712,0.942176,0.00532543,0.0110882,615,911,-31.3654,-2.93409
-602,113,-31.4082,2.51489,-0.00528592,-0.00134093,0.0026497,-1.01461e-05,-0.0066167,1.10536,0.00440776,0.0180022,622,911,-31.4082,-2.51489
-595,113,-31.4139,2.19415,-0.00562798,-0.000559137,0.00194611,0.000101852,-0.00628897,1.24338,0.00422701,0.0254135,629,911,-31.4139,-2.19415
-588,113,-31.365,1.78436,-0.00575578,-0.000584516,0.00152422,-0.00016869,-0.00617161,1.30447,0.00405934,0.0275343,636,911,-31.365,-1.78439
-581,113,-31.3669,1.36621,-0.00562269,-0.000189421,0.00147358,0.000184499,-0.00599661,1.32229,0.00406063,0.0285242,643,911,-31.3669,-1.36624
-574,113,-31.3614,0.797363,0,0,0,0,0,0,0,-1,650,911,-31.3614,-0.797367
-567,113,-21.8396,0.437378,0,0,0,0,0,0,0,-1,657,911,-21.8396,-0.437351
-560,113,-34.9905,1.07361,0,0,0,0,0,0,0,-1,664,911,-34.9906,-1.07358
-553,113,-34.9956,1.12701,-0.00506017,0.000776714,0.00148967,0.00113492,-0.00541838,1.33482,0.00404399,0.0411179,671,911,-34.9956,-1.12699
-546,113,-34.9684,0.936218,-0.00486492,0.00123062,0.00163615,0.00164202,-0.00527633,1.32446,0.00417398,0.0375742,678,911,-34.9684,-0.936222
-539,113,-34.9205,0.874634,-0.00443156,0.00179014,0.0019399,0.00234543,-0.00498685,1.292,0.00432389,0.0368205,685,911,-34.9206,-0.87462
-532,113,-34.91,0.973145,-0.00386744,0.00233081,0.00248008,0.00320099,-0.00473762,1.23335,0.00461189,0.0373442,692,911,-34.91,-0.97317
-525,113,-35.0412,1.27765,-0.00371639,0.00259568,0.00322049,0.00394876,-0.00506947,1.17304,0.00522006,0.0375571,699,911,-35.0412,-1.27765
-518,113,-35.2,1.49341,-0.00492424,0.00228757,0.00419878,0.00421631,-0.00685298,1.14019,0.00645101,0.039007,706,911,-35.1999,-1.4934
-511,113,-35.3801,1.49945,-0.00574811,0.00200592,0.00485031,0.00433832,-0.0080805,1.12257,0.0072777,0.0433785,713,911,-35.3801,-1.49948
-504,113,0,0,0,0,0,0,0,0,0,-1,720,911,0,0
-497,113,0,0,0,0,0,0,0,0,0,-1,727,911,0,0
-490,113,0,0,0,0,0,0,0,0,0,-1,734,911,0,0
-483,113,0,0,0,0,0,0,0,0,0,-1,741,911,0,0
-476,113,0,0,0,0,0,0,0,0,0,-1,748,911,0,0
-469,113,0,0,0,0,0,0,0,0,0,-1,755,911,0,0
-462,113,0,0,0,0,0,0,0,0,0,-1,762,911,0,0
-455,113,0,0,0,0,0,0,0,0,0,-1,769,911,0,0
-448,113,0,0,0,0,0,0,0,0,0,-1,776,911,0,0
-441,113,0,0,0,0,0,0,0,0,0,-1,783,911,0,0
-434,113,0,0,0,0,0,0,0,0,0,-1,790,911,0,0
-427,113,0,0,0,0,0,0,0,0,0,-1,797,911,0,0
-420,113,0,0,0,0,0,0,0,0,0,-1,804,911,0,0
-413,113,0,0,0,0,0,0,0,0,0,-1,811,911,0,0
-406,113,0,0,0,0,0,0,0,0,0,-1,818,911,0,0
-399,113,0,0,0,0,0,0,0,0,0,-1,825,911,0,0
-392,113,0,0,0,0,0,0,0,0,0,-1,832,911,0,0
-385,113,0,0,0,0,0,0,0,0,0,-1,839,911,0,0
-378,113,0,0,0,0,0,0,0,0,0,-1,846,911,0,0
-371,113,0,0,0,0,0,0,0,0,0,-1,853,911,0,0
-364,113,0,0,0,0,0,0,0,0,0,-1,860,911,0,0
-357,113,0,0,0,0,0,0,0,0,0,-1,867,911,0,0
-350,113,0,0,0,0,0,0,0,0,0,-1,874,911,0,0
-343,113,0,0,0,0,0,0,0,0,0,-1,881,911,0,0
-336,113,0,0,0,0,0,0,0,0,0,-1,888,911,0,0
-329,113,0,0,0,0,0,0,0,0,0,-1,895,911,0,0
-322,113,0,0,0,0,0,0,0,0,0,-1,902,911,0,0
-315,113,0,0,0,0,0,0,0,0,0,-1,909,911,0,0
-308,113,0,0,0,0,0,0,0,0,0,-1,916,911,0,0
-301,113,0,0,0,0,0,0,0,0,0,-1,923,911,0,0
-294,113,0,0,0,0,0,0,0,0,0,-1,930,911,0,0
-287,113,0,0,0,0,0,0,0,0,0,-1,937,911,0,0
-280,113,0,0,0,0,0,0,0,0,0,-1,944,911,0,0
-273,113,0,0,0,0,0,0,0,0,0,-1,951,911,0,0
-266,113,0,0,0,0,0,0,0,0,0,-1,958,911,0,0
-259,113,0,0,0,0,0,0,0,0,0,-1,965,911,0,0
-252,113,0,0,0,0,0,0,0,0,0,-1,972,911,0,0
-245,113,0,0,0,0,0,0,0,0,0,-1,979,911,0,0
-238,113,0,0,0,0,0,0,0,0,0,-1,986,911,0,0
-231,113,0,0,0,0,0,0,0,0,0,-1,993,911,0,0
-224,113,0,0,0,0,0,0,0,0,0,-1,1000,911,0,0
-217,113,0,0,0,0,0,0,0,0,0,-1,1007,911,0,0
-210,113,0,0,0,0,0,0,0,0,0,-1,1014,911,0,0
-203,113,0,0,0,0,0,0,0,0,0,-1,1021,911,0,0
-196,113,0,0,0,0,0,0,0,0,0,-1,1028,911,0,0
-189,113,0,0,0,0,0,0,0,0,0,-1,1035,911,0,0
-182,113,0,0,0,0,0,0,0,0,0,-1,1042,911,0,0
-175,113,0,0,0,0,0,0,0,0,0,-1,1049,911,0,0
-168,113,0,0,0,0,0,0,0,0,0,-1,1056,911,0,0
-161,113,0,0,0,0,0,0,0,0,0,-1,1063,911,0,0
-154,113,0,0,0,0,0,0,0,0,0,-1,1070,911,0,0
-147,113,0,0,0,0,0,0,0,0,0,-1,1077,911,0,0
-140,113,0,0,0,0,0,0,0,0,0,-1,1084,911,0,0
-133,113,0,0,0,0,0,0,0,0,0,-1,1091,911,0,0
-126,113,0,0,0,0,0,0,0,0,0,-1,1098,911,0,0
-119,113,0,0,0,0,0,0,0,0,0,-1,1105,911,0,0
-112,113,0,0,0,0,0,0,0,0,0,-1,1112,911,0,0
-105,113,0,0,0,0,0,0,0,0,0,-1,1119,911,0,0
-98,113,0,0,0,0,0,0,0,0,0,-1,1126,911,0,0
-91,113,0,0,0,0,0,0,0,0,0,-1,1133,911,0,0
-84,113,0,0,0,0,0,0,0,0,0,-1,1140,911,0,0
-77,113,0,0,0,0,0,0,0,0,0,-1,1147,911,0,0
-70,113,0,0,0,0,0,0,0,0,0,-1,1154,911,0,0
-63,113,0,0,0,0,0,0,0,0,0,-1,1161,911,0,0
-56,113,0,0,0,0,0,0,0,0,0,-1,1168,911,0,0
-49,113,0,0,0,0,0,0,0,0,0,-1,1175,911,0,0
-42,113,0,0,0,0,0,0,0,0,0,-1,1182,911,0,0
-35,113,0,0,0,0,0,0,0,0,0,-1,1189,911,0,0
-28,113,0,0,0,0,0,0,0,0,0,-1,1196,911,0,0
-21,113,0,0,0,0,0,0,0,0,0,-1,1203,911,0,0
-14,113,0,0,0,0,0,0,0,0,0,-1,1210,911,0,0
-7,113,0,0,0,0,0,0,0,0,0,-1,1217,911,0,0
0,113,0,0,0,0,0,0,0,0,0,-1,1224,911,0,0
7,113,0,0,0,0,0,0,0,0,0,-1,1231,911,0,0
14,113,0,0,0,0,0,0,0,0,0,-1,1238,911,0,0
21,113,0,0,0,0,0,0,0,0,0,-1,1245,911,0,0
28,113,0,0,0,0,0,0,0,0,0,-1,1252,911,0,0
35,113,0,0,0,0,0,0,0,0,0,-1,1259,911,0,0
42,113,0,0,0,0,0,0,0,0,0,-1,1266,911,0,0
49,113,0,0,0,0,0,0,0,0,0,-1,1273,911,0,0
56,113,0,0,0,0,0,0,0,0,0,-1,1280,911,0,0
63,113,0,0,0,0,0,0,0,0,0,-1,1287,911,0,0
70,113,0,0,0,0,0,0,0,0,0,-1,1294,911,0,0
77,113,0,0,0,0,0,0,0,0,0,-1,1301,911,0,0
84,113,0,0,0,0,0,0,0,0,0,-1,1308,911,0,0
91,113,0,0,0,0,0,0,0,0,0,-1,1315,911,0,0
98,113,0,0,0,0,0,0,0,0,0,-1,1322,911,0,0
105,113,0,0,0,0,0,0,0,0,0,-1,1329,911,0,0
112,113,0,0,0,0,0,0,0,0,0,-1,1336,911,0,0
119,113,0,0,0,0,0,0,0,0,0,-1,1343,911,0,0
126,113,0,0,0,0,0,0,0,0,0,-1,1350,911,0,0
133,113,0,0,0,0,0,0,0,0,0,-1,1357,911,0,0
140,113,0,0,0,0,0,0,0,0,0,-1,1364,911,0,0
147,113,0,0,0,0,0,0,0,0,0,-1,1371,911,0,0
154,113,0,0,0,0,0,0,0,0,0,-1,1378,911,0,0
161,113,0,0,0,0,0,0,0,0,0,-1,1385,911,0,0
168,113,0,0,0,0,0,0,0,0,0,-1,1392,911,0,0
175,113,0,0,0,0,0,0,0,0,0,-1,1399,911,0,0
182,113,0,0,0,0,0,0,0,0,0,-1,1406,911,0,0
189,113,0,0,0,0,0,0,0,0,0,-1,1413,911,0,0
196,113,0,0,0,0,0,0,0,0,0,-1,1420,911,0,0
203,113,0,0,0,0,0,0,0,0,0,-1,1427,911,0,0
210,113,0,0,0,0,0,0,0,0,0,-1,1434,911,0,0
217,113,0,0,0,0,0,0,0,0,0,-1,1441,911,0,0
224,113,0,0,0,0,0,0,0,0,0,-1,1448,911,0,0
231,113,0,0,0,0,0,0,0,0,0,-1,1455,911,0,0
238,113,0,0,0,0,0,0,0,0,0,-1,1462,911,0,0
245,113,0,0,0,0,0,0,0,0,0,-1,1469,911,0,0
252,113,0,0,0,0,0,0,0,0,0,-1,1476,911,0,0
259,113,0,0,0,0,0,0,0,0,0,-1,1483,911,0,0
266,113,0,0,0,0,0,0,0,0,0,-1,1490,911,0,0
273,113,0,0,0,0,0,0,0,0,0,-1,1497,911,0,0
280,113,0,0,0,0,0,0,0,0,0,-1,1504,911,0,0
287,113,0,0,0,0,0,0,0,0,0,-1,1511,911,0,0
294,113,0,0,0,0,0,0,0,0,0,-1,1518,911,0,0
301,113,0,0,0,0,0,0,0,0,0,-1,1525,911,0,0
308,113,0,0,0,0,0,0,0,0,0,-1,1532,911,0,0
315,113,0,0,0,0,0,0,0,0,0,-1,1539,911,0,0
322,113,0,0,0,0,0,0,0,0,0,-1,1546,911,0,0
329,113,0,0,0,0,0,0,0,0,0,-1,1553,911,0,0
336,113,0,0,0,0,0,0,0,0,0,-1,1560,911,0,0
343,113,0,0,0,0,0,0,0,0,0,-1,1567,911,0,0
350,113,0,0,0,0,0,0,0,0,0,-1,1574,911,0,0
357,113,0,0,0,0,0,0,0,0,0,-1,1581,911,0,0
364,113,0,0,0,0,0,0,0,0,0,-1,1588,911,0,0
371,113,0,0,0,0,0,0,0,0,0,-1,1595,911,0,0
378,113,0,0,0,0,0,0,0,0,0,-1,1602,911,0,0
385,113,0,0,0,0,0,0,0,0,0,-1,1609,911,0,0
392,113,0,0,0,0,0,0,0,0,0,-1,1616,911,0,0
399,113,0,0,0,0,0,0,0,0,0,-1,1623,911,0,0
406,113,0,0,0,0,0,0,0,0,0,-1,1630,911,0,0
413,113,0,0,0,0,0,0,0,0,0,-1,1637,911,0,0
420,113,0,0,0,0,0,0,0,0,0,-1,1644,911,0,0
427,113,0,0,0,0,0,0,0,0,0,-1,1651,911,0,0
434,113,0,0,0,0,0,0,0,0,0,-1,1658,911,0,0
441,113,0,0,0,0,0,0,0,0,0,-1,1665,911,0,0
448,113,0,0,0,0,0,0,0,0,0,-1,1672,911,0,0
455,113,0,0,0,0,0,0,0,0,0,-1,1679,911,0,0
462,113,0,0,0,0,0,0,0,0,0,-1,1686,911,0,0
469,113,0,0,0,0,0,0,0,0,0,-1,1693,911,0,0
476,113,0,0,0,0,0,0,0,0,0,-1,1700,911,0,0
483,113,0,0,0,0,0,0,0,0,0,-1,1707,911,0,0
490,113,0,0,0,0,0,0,0,0,0,-1,1714,911,0,0
497,113,0,0,0,0,0,0,0,0,0,-1,1721,911,0,0
504,113,0,0,0,0,0,0,0,0,0,-1,1728,911,0,0
511,113,0,0,0,0,0,0,0,0,0,-1,1735,911,0,0
518,113,0,0,0,0,0,0,0,0,0,-1,1742,911,0,0
525,113,0,0,0,0,0,0,0,0,0,-1,1749,911,0,0
532,113,0,0,0,0,0,0,0,0,0,-1,1756,911,0,0
539,113,0,0,0,0,0,0,0,0,0,-1,1763,911,0,0
546,113,0,0,0,0,0,0,0,0,0,-1,1770,911,0,0
553,113,0,0,0,0,0,0,0,0,0,-1,1777,911,0,0
560,113,0,0,0,0,0,0,0,0,0,-1,1784,911,0,0
567,113,0,0,0,0,0,0,0,0,0,-1,1791,911,0,0
574,113,0,0,0,0,0,0,0,0,0,-1,1798,911,0,0
581,113,0,0,0,0,0,0,0,0,0,-1,1805,911,0,0
588,113,0,0,0,0,0,0,0,0,0,-1,1812,911,0,0
595,113,0,0,0,0,0,0,0,0,0,-1,1819,911,0,0
602,113,0,0,0,0,0,0,0,0,0,-1,1826,911,0,0
609,113,0,0,0,0,0,0,0,0,0,-1,1833,911,0,0
616,113,0,0,0,0,0,0,0,0,0,-1,1840,911,0,0
623,113,0,0,0,0,0,0,0,0,0,-1,1847,911,0,0
630,113,47.0409,2.47021,0.00303218,-0.00736027,-0.00544141,0.0053599,-0.00968799,-0.404221,0.00880687,0.0408914,1854,911,47.041,-2.47019
637,113,47.0958,2.28552,0.00204132,-0.00526675,-0.00388142,0.00371808,-0.00694352,-0.407782,0.00624867,0.0385699,1861,911,47.0959,-2.28552
644,113,46.806,2.57922,0.00140106,-0.00366857,-0.00279079,0.00263636,-0.00490388,-0.416713,0.00441849,0.0388167,1868,911,46.8061,-2.5792
651,113,46.484,2.94946,0.00104528,-0.00245997,-0.00193654,0.00190453,-0.00331922,-0.417606,0.00305257,0.0434269,1875,911,46.4841,-2.94946
658,113,46.7469,2.69263,0.00111888,-0.00158337,-0.00120961,0.00158123,-0.00204572,-0.365097,0.00209974,0.0427614,1882,911,46.747,-2.6926
665,113,46.7115,2.62878,0.00146562,-0.0010465,-0.000734248,0.00166449,-0.00124536,-0.264496,0.0016858,0.0357126,1889,911,46.7116,-2.6288
672,113,46.7367,2.63214,0.00174801,-0.000846113,-0.000337771,0.00179127,-0.000889372,-0.127377,0.0015766,0.0364924,1896,911,46.7367,-2.63214
679,113,46.7633,2.63556,0.0019383,-0.000759149,-4.18199e-05,0.00193895,-0.000759797,-0.0154985,0.00160694,0.0332582,1903,911,46.7633,-2.63554
686,113,46.7821,2.62024,0.00193338,-0.00075483,0.00020496,0.00194892,-0.000770368,0.0756612,0.00161839,0.030214,1910,911,46.7821,-2.62022
693,113,46.7968,2.61401,0,0,0,0,0,0,0,-1,1917,911,46.7967,-2.61398
700,113,43.897,2.79669,0,0,0,0,0,0,0,-1,1924,911,43.897,-2.79671
707,113,42.0983,3.37512,0,0,0,0,0,0,0,-1,1931,911,42.0982,-3.3751
714,113,42.0249,3.78839,0.00122817,-4.01159e-05,2.4586e-05,0.00122865,-4.05923e-05,0.0193755,0.000832959,0.0234273,1938,911,42.0249,-3.78836
721,113,42.038,4.22614,0.000789859,0.000311213,-3.28158e-05,0.000792099,0.000308974,-0.0681346,0.000460988,0.0221038,1945,911,42.038,-4.22616
728,113,42.0868,4.75494,-9.52688e-05,0.00099888,-0.000122413,0.00101241,-0.000108797,-1.46073,0.000713973,0.0217558,1952,911,42.0868,-4.75495
735,113,42.0415,5.19531,-0.00106552,0.00213983,-0.000343516,0.00217623,-0.00110192,-1.46522,0.00192622,0.0192389,1959,911,42.0415,-5.19533
742,113,42.0143,5.61188,-0.00211815,0.00378043,-0.000552833,0.0038318,-0.00216952,-1.47815,0.00350889,0.0133358,1966,911,42.0143,-5.61189
749,113,42.025,6.05103,-0.00334908,0.00605114,-0.00057109,0.00608571,-0.00338364,-1.51034,0.00554083,0.00955346,1973,911,42.025,-6.05101
756,113,41.9493,6.49664,-0.00450949,0.00879683,-0.000342442,0.00880564,-0.00451829,-1.54508,0.0078242,0.0134883,1980,911,41.9493,-6.49666
763,113,41.8162,6.99377,-0.00524307,0.0118546,6.38863e-05,0.0118549,-0.00524331,1.56706,0.0101147,0.0295889,1987,911,41.8162,-6.9938
770,113,41.75,7.43896,-0.00555932,0.0153489,0.000476535,0.0153598,-0.00557017,1.54802,0.0125168,0.0496069,1994,911,41.75,-7.43895
777,113,41.8534,7.79913,0,0,0,0,0,0,0,-1,2001,911,41.8533,-7.79911
784,113,42.8354,6.22766,0,0,0,0,0,0,0,-1,2008,911,42.8355,-6.22766
791,113,41.5598,6.70038,0,0,0,0,0,0,0,-1,2015,911,41.5598,-6.7004
798,113,40.2842,7.17316,0,0,0,0,0,0,0,-1,2022,911,40.2841,-7.17314
805,113,0,0,0,0,0,0,0,0,0,-1,2029,911,0,0
812,113,0,0,0,0,0,0,0,0,0,-1,2036,911,0,0
-700,106,0,0,0,0,0,0,0,0,0,-1,524,918,0,0
-693,106,0,0,0,0,0,0,0,0,0,-1,531,918,0,0
-686,106,0,0,0,0,0,0,0,0,0,-1,538,918,0,0
-679,106,-29.4818,3.35242,0,0,0,0,0,0,0,-1,545,918,-29.4817,-3.35241
-672,106,-29.9342,2.85651,0,0,0,0,0,0,0,-1,552,918,-29.9342,-2.85651
-665,106,-30.3611,2.02899,0,0,0,0,0,0,0,-1,559,918,-30.3611,-2.02899
-658,106,-33.4319,4.44128,0,0,0,0,0,0,0,-1,566,918,-33.432,-4.44131
-651,106,-30.94,5.53473,0,0,0,0,0,0,0,-1,573,918,-30.94,-5.5347
-644,106,-31.1915,5.06055,0,0,0,0,0,0,0,-1,580,918,-31.1915,-5.06057
-637,106,-31.4378,4.59717,-0.010119,-0.0150394,0.00521944,-0.00680903,-0.0183494,0.565166,0.0107108,0.0306109,587,918,-31.4378,-4.5972
-630,106,-31.6811,4.16174,-0.00719942,-0.00962883,0.00449879,-0.00375423,-0.013074,0.653539,0.00777292,0.0140597,594,918,-31.6811,-4.16175
-623,106,-31.8018,3.66589,-0.00558774,-0.00566234,0.00388955,-0.00173532,-0.00951477,0.780604,0.00585115,0.0137137,601,918,-31.8017,-3.66591
-616,106,-31.8157,3.26453,-0.00533292,-0.00310434,0.00341852,-0.000623091,-0.00781417,0.942946,0.00501467,0.0134574,608,918,-31.8157,-3.26451
-609,106,-31.7939,2.91138,-0.0052643,-0.00187617,0.00293636,-0.000180239,-0.00696024,1.04704,0.00458126,0.0121811,615,918,-31.7939,-2.91136
-602,106,-31.8237,2.51715,-0.00577711,-0.000772547,0.00213057,1.16182e-05,-0.00656127,1.21813,0.00437806,0.0186099,622,918,-31.8237,-2.51714
-595,106,-31.9465,2.16309,-0.00645585,-0.000218978,0.00156043,0.000149643,-0.00682447,1.33882,0.00460034,0.0231479,629,918,-31.9465,-2.16306
-588,106,-31.917,1.75183,-0.00673554,-0.000383297,0.00118415,-0.000169736,-0.0069491,1.39236,0.0045772,0.0263553,636,918,-31.917,-1.75182
-581,106,-31.738,1.30798,-0.00665548,-2.73553e-05,0.00118177,0.000177047,-0.00685988,1.39953,0.0046334,0.0168647,643,918,-31.7379,-1.30796
-574,106,-31.7018,0.901978,0,0,0,0,0,0,0,-1,650,918,-31.7018,-0.901958
-567,106,-31.5134,0.533264,0,0,0,0,0,0,0,-1,657,918,-31.5134,-0.533291
-560,106,-35.0286,0.842041,0,0,0,0,0,0,0,-1,664,918,-35.0286,-0.842056
-553,106,-35.0329,0.967041,-0.00586559,0.00124167,0.00125712,0.00145747,-0.00608139,1.40079,0.00461741,0.035617,671,918,-35.0329,-0.967022
-546,106,-34.9944,0.875854,-0.00539441,0.00186521,0.00144589,0.00214259,-0.00567179,1.38126,0.00466248,0.0377333,678,918,-34.9944,-0.87585
-539,106,-34.9274,0.742249,-0.00453158,0.0026101,0.00178905,0.0030332,-0.00495469,1.33857,0.00465608,0.0382354,685,918,-34.9274,-0.742247
-532,106,-34.9303,0.848633,-0.00334717,0.00338618,0.0023523,0.00412655,-0.00408754,1.26587,0.00474242,0.0391761,692,918,-34.9303,-0.848635
-525,106,-34.9974,1.06006,-0.00248164,0.00401807,0.00302225,0.00520619,-0.00366975,1.19623,0.00515005,0.0397588,699,918,-34.9975,-1.06003
-518,106,-35.0077,1.20679,-0.00366054,0.00424703,0.00384474,0.00580817,-0.00522169,1.18509,0.00637109,0.0386993,706,918,-35.0077,-1.20678
-511,106,0,0,0,0,0,0,0,0,0,-1,713,918,0,0
-504,106,0,0,0,0,0,0,0,0,0,-1,720,918,0,0
-497,106,0,0,0,0,0,0,0,0,0,-1,727,918,0,0
-490,106,0,0,0,0,0,0,0,0,0,-1,734,918,0,0
-483,106,0,0,0,0,0,0,0,0,0,-1,741,918,0,0
-476,106,0,0,0,0,0,0,0,0,0,-1,748,918,0,0
-469,106,0,0,0,0,0,0,0,0,0,-1,755,918,0,0
-462,106,0,0,0,0,0,0,0,0,0,-1,762,918,0,0
-455,106,0,0,0,0,0,0,0,0,0,-1,769,918,0,0
-448,106,0,0,0,0,0,0,0,0,0,-1,776,918,0,0
-441,106,0,0,0,0,0,0,0,0,0,-1,783,918,0,0
-434,106,0,0,0,0,0,0,0,0,0,-1,790,918,0,0
-427,106,0,0,0,0,0,0,0,0,0,-1,797,918,0,0
-420,106,0,0,0,0,0,0,0,0,0,-1,804,918,0,0
-413,106,0,0,0,0,0,0,0,0,0,-1,811,918,0,0
-406,106,0,0,0,0,0,0,0,0,0,-1,818,918,0,0
-399,106,0,0,0,0,0,0,0,0,0,-1,825,918,0,0
-392,106,0,0,0,0,0,0,0,0,0,-1,832,918,0,0
-385,106,0,0,0,0,0,0,0,0,0,-1,839,918,0,0
-378,106,0,0,0,0,0,0,0,0,0,-1,846,918,0,0
-371,106,0,0,0,0,0,0,0,0,0,-1,853,918,0,0
-364,106,0,0,0,0,0,0,0,0,0,-1,860,918,0,0
-357,106,0,0,0,0,0,0,0,0,0,-1,867,918,0,0
-350,106,0,0,0,0,0,0,0,0,0,-1,874,918,0,0
-343,106,0,0,0,0,0,0,0,0,0,-1,881,918,0,0
-336,106,0,0,0,0,0,0,0,0,0,-1,888,918,0,0
-329,106,0,0,0,0,0,0,0,0,0,-1,895,918,0,0
-322,106,0,0,0,0,0,0,0,0,0,-1,902,918,0,0
-315,106,0,0,0,0,0,0,0,0,0,-1,909,918,0,0
-308,106,0,0,0,0,0,0,0,0,0,-1,916,918,0,0
-301,106,0,0,0,0,0,0,0,0,0,-1,923,918,0,0
-294,106,0,0,0,0,0,0,0,0,0,-1,930,918,0,0
-287,106,0,0,0,0,0,0,0,0,0,-1,937,918,0,0
-280,106,0,0,0,0,0,0,0,0,0,-1,944,918,0,0
-273,106,0,0,0,0,0,0,0,0,0,-1,951,918,0,0
-266,106,0,0,0,0,0,0,0,0,0,-1,958,918,0,0
-259,106,0,0,0,0,0,0,0,0,0,-1,965,918,0,0
-252,106,0,0,0,0,0,0,0,0,0,-1,972,918,0,0
-245,106,0,0,0,0,0,0,0,0,0,-1,979,918,0,0
-238,106,0,0,0,0,0,0,0,0,0,-1,986,918,0,0
-231,106,0,0,0,0,0,0,0,0,0,-1,993,918,0,0
-224,106,0,0,0,0,0,0,0,0,0,-1,1000,918,0,0
-217,106,0,0,0,0,0,0,0,0,0,-1,1007,918,0,0
-210,106,0,0,0,0,0,0,0,0,0,-1,1014,918,0,0
-203,106,0,0,0,0,0,0,0,0,0,-1,1021,918,0,0
-196,106,0,0,0,0,0,0,0,0,0,-1,1028,918,0,0
-189,106,0,0,0,0,0,0,0,0,0,-1,1035,918,0,0
-182,106,0,0,0,0,0,0,0,0,0,-1,1042,918,0,0
-175,106,0,0,0,0,0,0,0,0,0,-1,1049,918,0,0
-168,106,0,0,0,0,0,0,0,0,0,-1,1056,918,0,0
-161,106,0,0,0,0,0,0,0,0,0,-1,1063,918,0,0
-154,106,0,0,0,0,0,0,0,0,0,-1,1070,918,0,0
-147,106,0,0,0,0,0,0,0,0,0,-1,1077,918,0,0
-140,106,0,0,0,0,0,0,0,0,0,-1,1084,918,0,0
-133,106,0,0,0,0,0,0,0,0,0,-1,1091,918,0,0
-126,106,0,0,0,0,0,0,0,0,0,-1,1098,918,0,0
-119,106,0,0,0,0,0,0,0,0,0,-1,1105,918,0,0
-112,106,0,0,0,0,0,0,0,0,0,-1,1112,918,0,0
-105,106,0,0,0,0,0,0,0,0,0,-1,1119,918,0,0
-98,106,0,0,0,0,0,0,0,0,0,-1,1126,918,0,0
-91,106,0,0,0,0,0,0,0,0,0,-1,1133,918,0,0
-84,106,0,0,0,0,0,0,0,0,0,-1,1140,918,0,0
-77,106,0,0,0,0,0,0,0,0,0,-1,1147,918,0,0
-70,106,0,0,0,0,0,0,0,0,0,-1,1154,918,0,0
-63,106,0,0,0,0,0,0,0,0,0,-1,1161,918,0,0
-56,106,0,0,0,0,0,0,0,0,0,-1,1168,918,0,0
-49,106,0,0,0,0,0,0,0,0,0,-1,1175,918,0,0
-42,106,0,0,0,0,0,0,0,0,0,-1,1182,918,0,0
-35,106,0,0,0,0,0,0,0,0,0,-1,1189,918,0,0
-28,106,0,0,0,0,0,0,0,0,0,-1,1196,918,0,0
-21,106,0,0,0,0,0,0,0,0,0,-1,1203,918,0,0
-14,106,0,0,0,0,0,0,0,0,0,-1,1210,918,0,0
-7,106,0,0,0,0,0,0,0,0,0,-1,1217,918,0,0
0,106,0,0,0,0,0,0,0,0,0,-1,1224,918,0,0
7,106,0,0,0,0,0,0,0,0,0,-1,1231,918,0,0
14,106,0,0,0,0,0,0,0,0,0,-1,1238,918,0,0
21,106,0,0,0,0,0,0,0,0,0,-1,1245,918,0,0
28,106,0,0,0,0,0,0,0,0,0,-1,1252,918,0,0
35,106,0,0,0,0,0,0,0,0,0,-1,1259,918,0,0
42,106,0,0,0,0,0,0,0,0,0,-1,1266,918,0,0
49,106,0,0,0,0,0,0,0,0,0,-1,1273,918,0,0
56,106,0,0,0,0,0,0,0,0,0,-1,1280,918,0,0
63,106,0,0,0,0,0,0,0,0,0,-1,1287,918,0,0
70,106,0,0,0,0,0,0,0,0,0,-1,1294,918,0,0
77,106,0,0,0,0,0,0,0,0,0,-1,1301,918,0,0
84,106,0,0,0,0,0,0,0,0,0,-1,1308,918,0,0
91,106,0,0,0,0,0,0,0,0,0,-1,1315,918,0,0
98,106,0,0,0,0,0,0,0,0,0,-1,1322,918,0,0
105,106,0,0,0,0,0,0,0,0,0,-1,1329,918,0,0
112,106,0,0,0,0,0,0,0,0,0,-1,1336,918,0,0
119,106,0,0,0,0,0,0,0,0,0,-1,1343,918,0,0
126,106,0,0,0,0,0,0,0,0,0,-1,1350,918,0,0
133,106,0,0,0,0,0,0,0,0,0,-1,1357,918,0,0
140,106,0,0,0,0,0,0,0,0,0,-1,1364,918,0,0
147,106,0,0,0,0,0,0,0,0,0,-1,1371,918,0,0
154,106,0,0,0,0,0,0,0,0,0,-1,1378,918,0,0
161,106,0,0,0,0,0,0,0,0,0,-1,1385,918,0,0
168,106,0,0,0,0,0,0,0,0,0,-1,1392,918,0,0
175,106,0,0,0,0,0,0,0,0,0,-1,1399,918,0,0
182,106,0,0,0,0,0,0,0,0,0,-1,1406,918,0,0
189,106,0,0,0,0,0,0,0,0,0,-1,1413,918,0,0
196,106,0,0,0,0,0,0,0,0,0,-1,1420,918,0,0
203,106,0,0,0,0,0,0,0,0,0,-1,1427,918,0,0
210,106,0,0,0,0,0,0,0,0,0,-1,1434,918,0,0
217,106,0,0,0,0,0,0,0,0,0,-1,1441,918,0,0
224,106,0,0,0,0,0,0,0,0,0,-1,1448,918,0,0
231,106,0,0,0,0,0,0,0,0,0,-1,1455,918,0,0
238,106,0,0,0,0,0,0,0,0,0,-1,1462,918,0,0
245,106,0,0,0,0,0,0,0,0,0,-1,1469,918,0,0
252,106,0,0,0,0,0,0,0,0,0,-1,1476,918,0,0
259,106,0,0,0,0,0,0,0,0,0,-1,1483,918,0,0
266,106,0,0,0,0,0,0,0,0,0,-1,1490,918,0,0
273,106,0,0,0,0,0,0,0,0,0,-1,1497,918,0,0
280,106,0,0,0,0,0,0,0,0,0,-1,1504,918,0,0
287,106,0,0,0,0,0,0,0,0,0,-1,1511,918,0,0
294,106,0,0,0,0,0,0,0,0,0,-1,1518,918,0,0
301,106,0,0,0,0,0,0,0,0,0,-1,1525,918,0,0
308,106,0,0,0,0,0,0,0,0,0,-1,1532,918,0,0
315,106,0,0,0,0,0,0,0,0,0,-1,1539,918,0,0
322,106,0,0,0,0,0,0,0,0,0,-1,1546,918,0,0
329,106,0,0,0,0,0,0,0,0,0,-1,1553,918,0,0
336,106,0,0,0,0,0,0,0,0,0,-1,1560,918,0,0
343,106,0,0,0,0,0,0,0,0,0,-1,1567,918,0,0
350,106,0,0,0,0,0,0,0,0,0,-1,1574,918,0,0
357,106,0,0,0,0,0,0,0,0,0,-1,1581,918,0,0
364,106,0,0,0,0,0,0,0,0,0,-1,1588,918,0,0
371,106,0,0,0,0,0,0,0,0,0,-1,1595,918,0,0
378,106,0,0,0,0,0,0,0,0,0,-1,1602,918,0,0
385,106,0,0,0,0,0,0,0,0,0,-1,1609,918,0,0
392,106,0,0,0,0,0,0,0,0,0,-1,1616,918,0,0
399,106,0,0,0,0,0,0,0,0,0,-1,1623,918,0,0
406,106,0,0,0,0,0,0,0,0,0,-1,1630,918,0,0
413,106,0,0,0,0,0,0,0,0,0,-1,1637,918,0,0
420,106,0,0,0,0,0,0,0,0,0,-1,1644,918,0,0
427,106,0,0,0,0,0,0,0,0,0,-1,1651,918,0,0
434,106,0,0,0,0,0,0,0,0,0,-1,1658,918,0,0
441,106,0,0,0,0,0,0,0,0,0,-1,1665,918,0,0
448,106,0,0,0,0,0,0,0,0,0,-1,1672,918,0,0
455,106,0,0,0,0,0,0,0,0,0,-1,1679,918,0,0
462,106,0,0,0,0,0,0,0,0,0,-1,1686,918,0,0
469,106,0,0,0,0,0,0,0,0,0,-1,1693,918,0,0
476,106,0,0,0,0,0,0,0,0,0,-1,1700,918,0,0
483,106,0,0,0,0,0,0,0,0,0,-1,1707,918,0,0
490,106,0,0,0,0,0,0,0,0,0,-1,1714,918,0,0
497,106,0,0,0,0,0,0,0,0,0,-1,1721,918,0,0
504,106,0,0,0,0,0,0,0,0,0,-1,1728,918,0,0
511,106,0,0,0,0,0,0,0,0,0,-1,1735,918,0,0
518,106,0,0,0,0,0,0,0,0,0,-1,1742,918,0,0
525,106,0,0,0,0,0,0,0,0,0,-1,1749,918,0,0
532,106,0,0,0,0,0,0,0,0,0,-1,1756,918,0,0
539,106,0,0,0,0,0,0,0,0,0,-1,1763,918,0,0
546,106,0,0,0,0,0,0,0,0,0,-1,1770,918,0,0
553,106,0,0,0,0,0,0,0,0,0,-1,1777,918,0,0
560,106,0,0,0,0,0,0,0,0,0,-1,1784,918,0,0
567,106,0,0,0,0,0,0,0,0,0,-1,1791,918,0,0
574,106,0,0,0,0,0,0,0,0,0,-1,1798,918,0,0
581,106,0,0,0,0,0,0,0,0,0,-1,1805,918,0,0
588,106,0,0,0,0,0,0,0,0,0,-1,1812,918,0,0
595,106,0,0,0,0,0,0,0,0,0,-1,1819,918,0,0
602,106,0,0,0,0,0,0,0,0,0,-1,1826,918,0,0
609,106,0,0,0,0,0,0,0,0,0,-1,1833,918,0,0
616,106,0,0,0,0,0,0,0,0,0,-1,1840,918,0,0
623,106,0,0,0,0,0,0,0,0,0,-1,1847,918,0,0
630,106,46.835,2.73932,0.00341035,-0.00711065,-0.00449461,0.00506898,-0.00876928,-0.353523,0.00808417,0.0425377,1854,918,46.8349,-2.73931
637,106,47.0009,2.6015,0.00232557,-0.00509437,-0.00339601,0.00364519,-0.00641399,-0.370622,0.00588055,0.0375645,1861,918,47.0009,-2.60152
644,106,46.8535,2.65149,0.00160279,-0.00357549,-0.00264087,0.00271201,-0.00468471,-0.397645,0.00432082,0.0376395,1868,918,46.8535,-2.65151
651,106,46.6924,2.81433,0.00115315,-0.00244445,-0.00199356,0.00203949,-0.00333079,-0.418354,0.00313027,0.0436653,1875,918,46.6924,-2.81431
658,106,46.8214,2.55304,0.00107698,-0.00156321,-0.0013767,0.00166422,-0.00215045,-0.403192,0.00220836,0.0432941,1882,918,46.8214,-2.55305
665,106,46.7365,2.55219,0.001321,-0.000994789,-0.000905376,0.00163295,-0.00130673,-0.331808,0.00170071,0.0387432,1889,918,46.7364,-2.55217
672,106,46.75,2.60785,0.00151493,-0.00079052,-0.000484446,0.00161259,-0.00088818,-0.198925,0.00146387,0.0393636,1896,918,46.75,-2.60786
679,106,46.8184,2.5907,0.00165721,-0.000761815,-0.000135093,0.00166473,-0.000769336,-0.0556156,0.00143665,0.0344618,1903,918,46.8184,-2.5907
686,106,46.7708,2.58356,0.00165576,-0.000792714,0.000119852,0.00166161,-0.000798567,0.0487942,0.00144923,0.0324185,1910,918,46.7708,-2.58357
693,106,46.8265,2.49634,0.00171317,-0.000758733,0.000132834,0.00172029,-0.00076585,0.053532,0.00147021,0.0352019,1917,918,46.8265,-2.49633
700,106,47.0159,2.27808,0,0,0,0,0,0,0,-1,1924,918,47.0158,-2.27809
707,106,42.3521,3.32159,0,0,0,0,0,0,0,-1,1931,918,42.352,-3.3216
714,106,42.5051,3.77222,0.000797751,-9.1237e-05,-2.42127e-05,0.00079841,-9.1896e-05,-0.0272094,0.0005654,0.0342333,1938,918,42.5052,-3.7722
721,106,42.5355,4.2652,0.000385928,0.000255826,-0.000107378,0.000446423,0.000195332,-0.513056,0.000258412,0.0265444,1945,918,42.5355,-4.26521
728,106,42.6134,4.77295,-0.000446753,0.000941713,-0.00024369,0.000983241,-0.000488281,-1.402,0.000865455,0.0249712,1952,918,42.6134,-4.77292
735,106,42.5605,5.19861,-0.00133281,0.0020824,-0.000591321,0.00218189,-0.00143229,-1.40411,0.00210156,0.0217755,1959,918,42.5605,-5.19862
742,106,42.4954,5.58673,-0.00228907,0.003621,-0.00100141,0.00378607,-0.00245415,-1.40743,0.00363004,0.0129546,1966,918,42.4954,-5.58675
749,106,42.4702,6.0271,-0.00352512,0.00583637,-0.00135655,0.00602898,-0.00371773,-1.42975,0.00567976,0.0104566,1973,918,42.4702,-6.02711
756,106,42.4073,6.45471,-0.00474386,0.00851064,-0.00150657,0.00867973,-0.00491294,-1.45903,0.00794754,0.012332,1980,918,42.4073,-6.45471
763,106,42.3224,6.94159,-0.00565809,0.0113654,-0.00159674,0.0115139,-0.00580657,-1.47808,0.0101793,0.0234741,1987,918,42.3224,-6.94158
770,106,42.2184,7.38782,-0.0062405,0.014363,-0.00182843,0.014524,-0.0064015,-1.48297,0.012381,0.0433718,1994,918,42.2184,-7.38785
777,106,42.2534,7.75659,-0.00668378,0.0173227,-0.00198454,0.0174857,-0.00684673,-1.48887,0.014489,0.049329,2001,918,42.2534,-7.75657
784,106,42.0293,8.06152,0,0,0,0,0,0,0,-1,2008,918,42.0293,-8.06155
791,106,41.8076,7.31378,0,0,0,0,0,0,0,-1,2015,918,41.8076,-7.31378
798,106,41.2981,7.73993,0,0,0,0,0,0,0,-1,2022,918,41.2982,-7.73996
805,106,0,0,0,0,0,0,0,0,0,-1,2029,918,0,0
812,106,0,0,0,0,0,0,0,0,0,-1,2036,918,0,0
-700,99,0,0,0,0,0,0,0,0,0,-1,524,925,0,0
-693,99,0,0,0,0,0,0,0,0,0,-1,531,925,0,0
-686,99,0,0,0,0,0,0,0,0,0,-1,538,925,0,0
-679,99,-29.2908,4.06067,0,0,0,0,0,0,0,-1,545,925,-29.2909,-4.06069
-672,99,-29.7535,3.71478,0,0,0,0,0,0,0,-1,552,925,-29.7534,-3.71478
-665,99,-33.9604,5.12408,0,0,0,0,0,0,0,-1,559,925,-33.9604,-5.12411
-658,99,-33.4349,4.53857,0,0,0,0,0,0,0,-1,566,925,-33.4349,-4.53858
-651,99,-32.9094,3.95306,0,0,0,0,0,0,0,-1,573,925,-32.9094,-3.95306
-644,99,-31.3655,5.0874,0,0,0,0,0,0,0,-1,580,925,-31.3655,-5.0874
-637,99,-31.9089,4.62671,-0.00392064,-0.0099677,0.00159225,-0.00352701,-0.0103613,0.242358,0.00608285,0.0308914,587,925,-31.9089,-4.62672
-630,99,-32.0771,4.12073,-0.00289569,-0.00563791,0.00182599,-0.00198334,-0.00655026,0.463364,0.00387861,0.0152276,594,925,-32.0771,-4.12073
-623,99,-32.2369,3.65546,-0.00296611,-0.00274615,0.0020237,-0.000829438,-0.00488282,0.812544,0.00301698,0.0101776,601,925,-32.2369,-3.65544
-616,99,-32.2471,3.26483,-0.00411388,-0.00119724,0.00219684,-1.8741e-05,-0.00529238,1.07841,0.00352202,0.011516,608,925,-32.2471,-3.26482
-609,99,-32.2363,2.92743,-0.00521378,-0.000807255,0.00217466,8.52081e-05,-0.00610624,1.18136,0.00409953,0.0118668,615,925,-32.2364,-2.92741
-602,99,-32.2457,2.58649,-0.00627069,-0.000222801,0.00158761,0.000168625,-0.00666211,1.32907,0.00449867,0.0148947,622,925,-32.2457,-2.58649
-595,99,-32.3322,2.2381,-0.00720488,9.39065e-05,0.00115187,0.000271376,-0.00738235,1.41793,0.00501447,0.0205548,629,925,-32.3322,-2.23807
-588,99,-32.3271,1.83466,-0.00759333,-0.000239159,0.000792478,-0.000154732,-0.00767776,1.46466,0.00506772,0.0221865,636,925,-32.3271,-1.83468
-581,99,-32.2458,1.35754,-0.00752378,4.69798e-05,0.000762457,0.000123004,-0.00759981,1.47142,0.00510803,0.0161372,643,925,-32.2458,-1.35757
-574,99,-32.6549,0.946411,-0.00730049,0.000470961,0.000718244,0.000536784,-0.00736631,1.47941,0.00509923,0.0354225,650,925,-32.6549,-0.946434
-567,99,-33.6166,0.595276,0,0,0,0,0,0,0,-1,657,925,-33.6166,-0.595288
-560,99,-35.0324,0.781067,-0.00682474,0.00101382,0.000677055,0.00107187,-0.0068828,1.48527,0.00498439,0.0434351,664,925,-35.0324,-0.781075
-553,99,-35.102,0.923889,-0.00628692,0.0015523,0.000756854,0.0016247,-0.00635932,1.47542,0.00487226,0.0370429,671,925,-35.102,-0.923904
-546,99,-35.0306,0.737427,-0.00538168,0.0022672,0.000909438,0.00237385,-0.00548832,1.45407,0.00465643,0.0398313,678,925,-35.0306,-0.737403
-539,99,-34.9683,0.664246,-0.00389598,0.00311151,0.00118704,0.00330713,-0.0040916,1.40747,0.00427965,0.0391097,685,925,-34.9683,-0.664216
-532,99,-35.0151,0.862976,-0.0018529,0.0039898,0.00160224,0.00440033,-0.00226344,1.31997,0.00391271,0.0406492,692,925,-35.015,-0.862962
-525,99,-35.0236,1.0155,-0.000153068,0.00484522,0.00192665,0.00550166,-0.000809508,1.24242,0.00396525,0.0418362,699,925,-35.0235,-1.0155
-518,99,-34.963,1.0033,-0.00122429,0.00549187,0.00238357,0.00625181,-0.00198423,1.26216,0.0049633,0.0405205,706,925,-34.963,-1.00331
-511,99,0,0,0,0,0,0,0,0,0,-1,713,925,0,0
-504,99,0,0,0,0,0,0,0,0,0,-1,720,925,0,0
-497,99,0,0,0,0,0,0,0,0,0,-1,727,925,0,0
-490,99,0,0,0,0,0,0,0,0,0,-1,734,925,0,0
-483,99,0,0,0,0,0,0,0,0,0,-1,741,925,0,0
-476,99,0,0,0,0,0,0,0,0,0,-1,748,925,0,0
-469,99,0,0,0,0,0,0,0,0,0,-1,755,925,0,0
-462,99,0,0,0,0,0,0,0,0,0,-1,762,925,0,0
-455,99,0,0,0,0,0,0,0,0,0,-1,769,925,0,0
-448,99,0,0,0,0,0,0,0,0,0,-1,776,925,0,0
-441,99,0,0,0,0,0,0,0,0,0,-1,783,925,0,0
-434,99,0,0,0,0,0,0,0,0,0,-1,790,925,0,0
-427,99,0,0,0,0,0,0,0,0,0,-1,797,925,0,0
-420,99,0,0,0,0,0,0,0,0,0,-1,804,925,0,0
-413,99,0,0,0,0,0,0,0,0,0,-1,811,925,0,0
-406,99,0,0,0,0,0,0,0,0,0,-1,818,925,0,0
-399,99,0,0,0,0,0,0,0,0,0,-1,825,925,0,0
-392,99,0,0,0,0,0,0,0,0,0,-1,832,925,0,0
-385,99,0,0,0,0,0,0,0,0,0,-1,839,925,0,0
-378,99,0,0,0,0,0,0,0,0,0,-1,846,925,0,0
-371,99,0,0,0,0,0,0,0,0,0,-1,853,925,0,0
-364,99,0,0,0,0,0,0,0,0,0,-1,860,925,0,0
-357,99,0,0,0,0,0,0,0,0,0,-1,867,925,0,0
-350,99,0,0,0,0,0,0,0,0,0,-1,874,925,0,0
-343,99,0,0,0,0,0,0,0,0,0,-1,881,925,0,0
-336,99,0,0,0,0,0,0,0,0,0,-1,888,925,0,0
-329,99,0,0,0,0,0,0,0,0,0,-1,895,925,0,0
-322,99,0,0,0,0,0,0,0,0,0,-1,902,925,0,0
-315,99,0,0,0,0,0,0,0,0,0,-1,909,925,0,0
-308,99,0,0,0,0,0,0,0,0,0,-1,916,925,0,0
-301,99,0,0,0,0,0,0,0,0,0,-1,923,925,0,0
-294,99,0,0,0,0,0,0,0,0,0,-1,930,925,0,0
-287,99,0,0,0,0,0,0,0,0,0,-1,937,925,0,0
-280,99,0,0,0,0,0,0,0,0,0,-1,944,925,0,0
-273,99,0,0,0,0,0,0,0,0,0,-1,951,925,0,0
-266,99,0,0,0,0,0,0,0,0,0,-1,958,925,0,0
-259,99,0,0,0,0,0,0,0,0,0,-1,965,925,0,0
-252,99,0,0,0,0,0,0,0,0,0,-1,972,925,0,0
-245,99,0,0,0,0,0,0,0,0,0,-1,979,925,0,0
-238,99,0,0,0,0,0,0,0,0,0,-1,986,925,0,0
-231,99,0,0,0,0,0,0,0,0,0,-1,993,925,0,0
-224,99,0,0,0,0,0,0,0,0,0,-1,1000,925,0,0
-217,99,0,0,0,0,0,0,0,0,0,-1,1007,925,0,0
-210,99,0,0,0,0,0,0,0,0,0,-1,1014,925,0,0
-203,99,0,0,0,0,0,0,0,0,0,-1,1021,925,0,0
-196,99,0,0,0,0,0,0,0,0,0,-1,1028,925,0,0
-189,99,0,0,0,0,0,0,0,0,0,-1,1035,925,0,0
-182,99,0,0,0,0,0,0,0,0,0,-1,1042,925,0,0
-175,99,0,0,0,0,0,0,0,0,0,-1,1049,925,0,0
-168,99,0,0,0,0,0,0,0,0,0,-1,1056,925,0,0
-161,99,0,0,0,0,0,0,0,0,0,-1,1063,925,0,0
-154,99,0,0,0,0,0,0,0,0,0,-1,1070,925,0,0
-147,99,0,0,0,0,0,0,0,0,0,-1,1077,925,0,0
-140,99,0,0,0,0,0,0,0,0,0,-1,1084,925,0,0
-133,99,0,0,0,0,0,0,0,0,0,-1,1091,925,0,0
-126,99,0,0,0,0,0,0,0,0,0,-1,1098,925,0,0
-119,99,0,0,0,0,0,0,0,0,0,-1,1105,925,0,0
-112,99,0,0,0,0,0,0,0,0,0,-1,1112,925,0,0
-105,99,0,0,0,0,0,0,0,0,0,-1,1119,925,0,0
-98,99,0,0,0,0,0,0,0,0,0,-1,1126,925,0,0
-91,99,0,0,0,0,0,0,0,0,0,-1,1133,925,0,0
-84,99,0,0,0,0,0,0,0,0,0,-1,1140,925,0,0
-77,99,0,0,0,0,0,0,0,0,0,-1,1147,925,0,0
-70,99,0,0,0,0,0,0,0,0,0,-1,1154,925,0,0
-63,99,0,0,0,0,0,0,0,0,0,-1,1161,925,0,0
-56,99,0,0,0,0,0,0,0,0,0,-1,1168,925,0,0
-49,99,0,0,0,0,0,0,0,0,0,-1,1175,925,0,0
-42,99,0,0,0,0,0,0,0,0,0,-1,1182,925,0,0
-35,99,0,0,0,0,0,0,0,0,0,-1,1189,925,0,0
-28,99,0,0,0,0,0,0,0,0,0,-1,1196,925,0,0
-21,99,0,0,0,0,0,0,0,0,0,-1,1203,925,0,0
-14,99,0,0,0,0,0,0,0,0,0,-1,1210,925,0,0
-7,99,0,0,0,0,0,0,0,0,0,-1,1217,925,0,0
0,99,0,0,0,0,0,0,0,0,0,-1,1224,925,0,0
7,99,0,0,0,0,0,0,0,0,0,-1,1231,925,0,0
14,99,0,0,0,0,0,0,0,0,0,-1,1238,925,0,0
21,99,0,0,0,0,0,0,0,0,0,-1,1245,925,0,0
28,99,0,0,0,0,0,0,0,0,0,-1,1252,925,0,0
35,99,0,0,0,0,0,0,0,0,0,-1,1259,925,0,0
42,99,0,0,0,0,0,0,0,0,0,-1,1266,925,0,0
49,99,0,0,0,0,0,0,0,0,0,-1,1273,925,0,0
56,99,0,0,0,0,0,0,0,0,0,-1,1280,925,0,0
63,99,0,0,0,0,0,0,0,0,0,-1,1287,925,0,0
70,99,0,0,0,0,0,0,0,0,0,-1,1294,925,0,0
77,99,0,0,0,0,0,0,0,0,0,-1,1301,925,0,0
84,99,0,0,0,0,0,0,0,0,0,-1,1308,925,0,0
91,99,0,0,0,0,0,0,0,0,0,-1,1315,925,0,0
98,99,0,0,0,0,0,0,0,0,0,-1,1322,925,0,0
105,99,0,0,0,0,0,0,0,0,0,-1,1329,925,0,0
112,99,0,0,0,0,0,0,0,0,0,-1,1336,925,0,0
119,99,0,0,0,0,0,0,0,0,0,-1,1343,925,0,0
126,99,0,0,0,0,0,0,0,0,0,-1,1350,925,0,0
133,99,0,0,0,0,0,0,0,0,0,-1,1357,925,0,0
140,99,0,0,0,0,0,0,0,0,0,-1,1364,925,0,0
147,99,0,0,0,0,0,0,0,0,0,-1,1371,925,0,0
154,99,0,0,0,0,0,0,0,0,0,-1,1378,925,0,0
161,99,0,0,0,0,0,0,0,0,0,-1,1385,925,0,0
168,99,0,0,0,0,0,0,0,0,0,-1,1392,925,0,0
175,99,0,0,0,0,0,0,0,0,0,-1,1399,925,0,0
182,99,0,0,0,0,0,0,0,0,0,-1,1406,925,0,0
189,99,0,0,0,0,0,0,0,0,0,-1,1413,925,0,0
196,99,0,0,0,0,0,0,0,0,0,-1,1420,925,0,0
203,99,0,0,0,0,0,0,0,0,0,-1,1427,925,0,0
210,99,0,0,0,0,0,0,0,0,0,-1,1434,925,0,0
217,99,0,0,0,0,0,0,0,0,0,-1,1441,925,0,0
224,99,0,0,0,0,0,0,0,0,0,-1,1448,925,0,0
231,99,0,0,0,0,0,0,0,0,0,-1,1455,925,0,0
238,99,0,0,0,0,0,0,0,0,0,-1,1462,925,0,0
245,99,0,0,0,0,0,0,0,0,0,-1,1469,925,0,0
252,99,0,0,0,0,0,0,0,0,0,-1,1476,925,0,0
259,99,0,0,0,0,0,0,0,0,0,-1,1483,925,0,0
266,99,0,0,0,0,0,0,0,0,0,-1,1490,925,0,0
273,99,0,0,0,0,0,0,0,0,0,-1,1497,925,0,0
280,99,0,0,0,0,0,0,0,0,0,-1,1504,925,0,0
287,99,0,0,0,0,0,0,0,0,0,-1,1511,925,0,0
294,99,0,0,0,0,0,0,0,0,0,-1,1518,925,0,0
301,99,0,0,0,0,0,0,0,0,0,-1,1525,925,0,0
308,99,0,0,0,0,0,0,0,0,0,-1,1532,925,0,0
315,99,0,0,0,0,0,0,0,0,0,-1,1539,925,0,0
322,99,0,0,0,0,0,0,0,0,0,-1,1546,925,0,0
329,99,0,0,0,0,0,0,0,0,0,-1,1553,925,0,0
336,99,0,0,0,0,0,0,0,0,0,-1,1560,925,0,0
343,99,0,0,0,0,0,0,0,0,0,-1,1567,925,0,0
350,99,0,0,0,0,0,0,0,0,0,-1,1574,925,0,0
357,99,0,0,0,0,0,0,0,0,0,-1,1581,925,0,0
364,99,0,0,0,0,0,0,0,0,0,-1,1588,925,0,0
371,99,0,0,0,0,0,0,0,0,0,-1,1595,925,0,0
378,99,0,0,0,0,0,0,0,0,0,-1,1602,925,0,0
385,99,0,0,0,0,0,0,0,0,0,-1,1609,925,0,0
392,99,0,0,0,0,0,0,0,0,0,-1,1616,925,0,0
399,99,0,0,0,0,0,0,0,0,0,-1,1623,925,0,0
406,99,0,0,0,0,0,0,0,0,0,-1,1630,925,0,0
413,99,0,0,0,0,0,0,0,0,0,-1,1637,925,0,0
420,99,0,0,0,0,0,0,0,0,0,-1,1644,925,0,0
427,99,0,0,0,0,0,0,0,0,0,-1,1651,925,0,0
434,99,0,0,0,0,0,0,0,0,0,-1,1658,925,0,0
441,99,0,0,0,0,0,0,0,0,0,-1,1665,925,0,0
448,99,0,0,0,0,0,0,0,0,0,-1,1672,925,0,0
455,99,0,0,0,0,0,0,0,0,0,-1,1679,925,0,0
462,99,0,0,0,0,0,0,0,0,0,-1,1686,925,0,0
469,99,0,0,0,0,0,0,0,0,0,-1,1693,925,0,0
476,99,0,0,0,0,0,0,0,0,0,-1,1700,925,0,0
483,99,0,0,0,0,0,0,0,0,0,-1,1707,925,0,0
490,99,0,0,0,0,0,0,0,0,0,-1,1714,925,0,0
497,99,0,0,0,0,0,0,0,0,0,-1,1721,925,0,0
504,99,0,0,0,0,0,0,0,0,0,-1,1728,925,0,0
511,99,0,0,0,0,0,0,0,0,0,-1,1735,925,0,0
518,99,0,0,0,0,0,0,0,0,0,-1,1742,925,0,0
525,99,0,0,0,0,0,0,0,0,0,-1,1749,925,0,0
532,99,0,0,0,0,0,0,0,0,0,-1,1756,925,0,0
539,99,0,0,0,0,0,0,0,0,0,-1,1763,925,0,0
546,99,0,0,0,0,0,0,0,0,0,-1,1770,925,0,0
553,99,0,0,0,0,0,0,0,0,0,-1,1777,925,0,0
560,99,0,0,0,0,0,0,0,0,0,-1,1784,925,0,0
567,99,0,0,0,0,0,0,0,0,0,-1,1791,925,0,0
574,99,0,0,0,0,0,0,0,0,0,-1,1798,925,0,0
581,99,0,0,0,0,0,0,0,0,0,-1,1805,925,0,0
588,99,0,0,0,0,0,0,0,0,0,-1,1812,925,0,0
595,99,0,0,0,0,0,0,0,0,0,-1,1819,925,0,0
602,99,0,0,0,0,0,0,0,0,0,-1,1826,925,0,0
609,99,0,0,0,0,0,0,0,0,0,-1,1833,925,0,0
616,99,0,0,0,0,0,0,0,0,0,-1,1840,925,0,0
623,99,0,0,0,0,0,0,0,0,0,-1,1847,925,0,0
630,99,0,0,0,0,0,0,0,0,0,-1,1854,925,0,0
637,99,46.9777,2.73224,0.00251331,-0.00473614,-0.00295485,0.0035651,-0.00578793,-0.341968,0.00545057,0.0436629,1861,925,46.9777,-2.73226
644,99,46.8185,2.63385,0.0017678,-0.00330108,-0.00246363,0.00276788,-0.00430116,-0.385616,0.00411319,0.0390586,1868,925,46.8184,-2.63382
651,99,46.6893,2.78058,0.001262,-0.00228488,-0.00198368,0.0021494,-0.00317228,-0.420649,0.00309134,0.0414073,1875,925,46.6893,-2.78056
658,99,46.8508,2.52704,0.0010401,-0.00143773,-0.00145761,0.00171418,-0.00211181,-0.433162,0.00221291,0.0428322,1882,925,46.8508,-2.52703
665,99,46.9697,2.4176,0,0,0,0,0,0,0,-1,1889,925,46.9697,-2.4176
672,99,46.6586,2.73975,0.00121945,-0.000638961,-0.000518058,0.00135411,-0.00077362,-0.254302,0.00124359,0.0396179,1896,925,46.6586,-2.73972
679,99,46.838,2.56439,0.00129778,-0.000635112,-0.00012021,0.00130523,-0.00064256,-0.0618739,0.00114604,0.0357592,1903,925,46.838,-2.56441
686,99,46.7386,2.61719,0.00130471,-0.000692682,0.000135912,0.00131392,-0.000701888,0.0676293,0.00118157,0.0317838,1910,925,46.7387,-2.61718
693,99,46.7407,2.62939,0.0013596,-0.00067736,0.000151854,0.00137085,-0.000688619,0.0740046,0.00121059,0.0343929,1917,925,46.7408,-2.62942
700,99,46.8448,2.53375,0,0,0,0,0,0,0,-1,1924,925,46.8448,-2.53377
707,99,43.1644,3.35529,0,0,0,0,0,0,0,-1,1931,925,43.1645,-3.35531
714,99,43.1166,3.85883,0.000340856,-1.79751e-05,-3.70315e-05,0.000344638,-2.17569e-05,-0.101771,0.000237343,0.0408572,1938,925,43.1166,-3.85883
721,99,42.9832,4.24799,-5.16306e-05,0.000323674,-0.000174404,0.000392205,-0.000120162,-1.19638,0.000309402,0.0291542,1945,925,42.9831,-4.24796
728,99,43.0414,4.72748,-0.000823122,0.00100124,-0.000384705,0.00107904,-0.000900927,-1.37124,0.00114468,0.0225158,1952,925,43.0414,-4.72747
735,99,43.0123,5.1864,-0.00163697,0.00209227,-0.000875712,0.00228767,-0.00183237,-1.35126,0.00238354,0.0187059,1959,925,43.0124,-5.18642
742,99,42.9686,5.59265,-0.00252126,0.00347989,-0.00147496,0.00382281,-0.00286418,-1.34236,0.00387393,0.0141458,1966,925,42.9686,-5.59263
749,99,42.9175,6.01135,-0.00371688,0.00551023,-0.00216486,0.0059929,-0.00419955,-1.35143,0.0059149,0.0127009,1973,925,42.9175,-6.01136
756,99,42.8608,6.40216,-0.00490089,0.00783876,-0.00281811,0.00843431,-0.00549644,-1.36253,0.00810232,0.0128149,1980,925,42.8608,-6.40218
763,99,42.8035,6.80518,-0.00585515,0.0103271,-0.00347477,0.0110417,-0.00656972,-1.36798,0.0102766,0.0150056,1987,925,42.8035,-6.80517
770,99,42.7405,7.30817,-0.00644195,0.0126392,-0.00441816,0.0136126,-0.0074153,-1.35395,0.012315,0.0277227,1994,925,42.7404,-7.30818
777,99,42.7114,7.79541,-0.00680429,0.014441,-0.00563323,0.0158422,-0.00820553,-1.327,0.0141154,0.0423634,2001,925,42.7115,-7.79542
784,99,42.6963,8.27692,0,0,0,0,0,0,0,-1,2008,925,42.6962,-8.27691
791,99,42.4153,8.04633,0,0,0,0,0,0,0,-1,2015,925,42.4152,-8.04631
798,99,42.1765,9.18079,0,0,0,0,0,0,0,-1,2022,925,42.1765,-9.18079
805,99,0,0,0,0,0,0,0,0,0,-1,2029,925,0,0
812,99,0,0,0,0,0,0,0,0,0,-1,2036,925,0,0
-700,92,0,0,0,0,0,0,0,0,0,-1,524,932,0,0
-693,92,0,0,0,0,0,0,0,0,0,-1,531,932,0,0
-686,92,-32.7874,6.24701,0,0,0,0,0,0,0,-1,538,932,-32.7874,-6.24701
-679,92,-32.8189,5.87604,0,0,0,0,0,0,0,-1,545,932,-32.8189,-5.87602
-672,92,-29.5694,4.37549,0,0,0,0,0,0,0,-1,552,932,-29.5694,-4.37549
-665,92,-33.7435,5.37848,0,0,0,0,0,0,0,-1,559,932,-33.7435,-5.37847
-658,92,-33.4329,4.79132,0.00537553,-0.0218188,-0.00576688,0.00654792,-0.0229912,-0.200564,0.0179136,0.0459138,566,932,-33.4329,-4.79135
-651,92,-33.2073,4.23987,0.00475206,-0.0147594,-0.00428797,0.00565283,-0.0156602,-0.207058,0.0127492,0.0446246,573,932,-33.2074,-4.23985
-644,92,-32.537,5.0835,0.00365623,-0.00909691,-0.00266328,0.00419007,-0.00963075,-0.197821,0.00818295,0.0423517,580,932,-32.537,-5.08347
-637,92,-32.4714,4.4895,0.00243359,-0.00489865,-0.00113321,0.00260473,-0.0050698,-0.149894,0.00450644,0.0262386,587,932,-32.4714,-4.48948
-630,92,-32.5228,4.01495,0.00129036,-0.00182135,-9.83261e-05,0.00129347,-0.00182445,-0.0315568,0.00180881,0.0137151,594,932,-32.5229,-4.01493
-623,92,-32.6104,3.64319,-0.00056012,-5.3292e-05,0.000682972,0.000421765,-0.00103518,0.963048,0.00086566,0.00944794,601,932,-32.6104,-3.64316
-616,92,-32.6288,3.28827,-0.0030159,0.000529969,0.00123117,0.000915525,-0.00340146,1.26731,0.00262655,0.00857429,608,932,-32.6288,-3.28825
-609,92,-32.6554,2.93976,-0.00511723,0.000170378,0.00145491,0.000544263,-0.00549112,1.31926,0.00385499,0.00892274,615,932,-32.6554,-2.93976
-602,92,-32.6432,2.58478,-0.00664863,0.000282073,0.000920047,0.000402129,-0.00676869,1.44104,0.0046523,0.0102561,622,932,-32.6432,-2.58479
-595,92,-32.5562,2.17639,-0.00779441,0.00035369,0.000492386,0.000383336,-0.00782406,1.51066,0.0053484,0.0212352,629,932,-32.5561,-2.17638
-588,92,-32.6058,1.85223,-0.00826917,-0.000168833,7.95291e-05,-0.000168052,-0.00826995,1.56098,0.00545815,0.0240689,636,932,-32.6058,-1.85224
-581,92,-32.828,1.45184,-0.00818424,-2.58904e-05,-4.4163e-05,-2.56519e-05,-0.00818448,-1.56538,0.00544779,0.0229679,643,932,-32.828,-1.45185
-574,92,-33.4621,1.02881,-0.00790656,0.00035966,-0.000133413,0.000361813,-0.00790871,-1.55466,0.00539712,0.0434987,650,932,-33.4621,-1.0288
-567,92,-34.39,0.625977,0,0,0,0,0,0,0,-1,657,932,-34.39,-0.625966
-560,92,-34.9438,0.867188,-0.00709393,0.00106241,-0.00023438,0.00106913,-0.00710066,-1.54209,0.00512744,0.0388093,664,932,-34.9439,-0.867174
-553,92,-35.0903,1.01556,-0.00615312,0.00169514,-0.000167899,0.00169873,-0.00615671,-1.54942,0.00477257,0.0398843,671,932,-35.0903,-1.01554
-546,92,-35.0539,1.24414,0,0,0,0,0,0,0,-1,678,932,-35.0539,-1.24415
-539,92,-34.9957,0.860352,-0.0024064,0.00344018,0.000256844,0.00345144,-0.00241766,1.52698,0.00340601,0.0401551,685,932,-34.9956,-0.860342
-532,92,-35.001,0.899048,0.000560039,0.00440067,0.000563635,0.00448168,0.00047903,1.42805,0.0028416,0.0421587,692,932,-35.001,-0.899078
-525,92,-35.0006,1.05774,0.00294717,0.00546554,0.000532567,0.00557353,0.00283918,1.37073,0.00321807,0.0409432,699,932,-35.0006,-1.05773
-518,92,-34.9436,1.13684,0.00184187,0.00648618,0.000559363,0.00655259,0.00177545,1.45261,0.00391322,0.0409452,706,932,-34.9436,-1.13683
-511,92,0,0,0,0,0,0,0,0,0,-1,713,932,0,0
-504,92,0,0,0,0,0,0,0,0,0,-1,720,932,0,0
-497,92,0,0,0,0,0,0,0,0,0,-1,727,932,0,0
-490,92,0,0,0,0,0,0,0,0,0,-1,734,932,0,0
-483,92,0,0,0,0,0,0,0,0,0,-1,741,932,0,0
-476,92,0,0,0,0,0,0,0,0,0,-1,748,932,0,0
-469,92,0,0,0,0,0,0,0,0,0,-1,755,932,0,0
-462,92,0,0,0,0,0,0,0,0,0,-1,762,932,0,0
-455,92,0,0,0,0,0,0,0,0,0,-1,769,932,0,0
-448,92,0,0,0,0,0,0,0,0,0,-1,776,932,0,0
-441,92,0,0,0,0,0,0,0,0,0,-1,783,932,0,0
-434,92,0,0,0,0,0,0,0,0,0,-1,790,932,0,0
-427,92,0,0,0,0,0,0,0,0,0,-1,797,932,0,0
-420,92,0,0,0,0,0,0,0,0,0,-1,804,932,0,0
-413,92,0,0,0,0,0,0,0,0,0,-1,811,932,0,0
-406,92,0,0,0,0,0,0,0,0,0,-1,818,932,0,0
-399,92,0,0,0,0,0,0,0,0,0,-1,825,932,0,0
-392,92,0,0,0,0,0,0,0,0,0,-1,832,932,0,0
-385,92,0,0,0,0,0,0,0,0,0,-1,839,932,0,0
-378,92,0,0,0,0,0,0,0,0,0,-1,846,932,0,0
-371,92,0,0,0,0,0,0,0,0,0,-1,853,932,0,0
-364,92,0,0,0,0,0,0,0,0,0,-1,860,932,0,0
-357,92,0,0,0,0,0,0,0,0,0,-1,867,932,0,0
-350,92,0,0,0,0,0,0,0,0,0,-1,874,932,0,0
-343,92,0,0,0,0,0,0,0,0,0,-1,881,932,0,0
-336,92,0,0,0,0,0,0,0,0,0,-1,888,932,0,0
-329,92,0,0,0,0,0,0,0,0,0,-1,895,932,0,0
-322,92,0,0,0,0,0,0,0,0,0,-1,902,932,0,0
-315,92,0,0,0,0,0,0,0,0,0,-1,909,932,0,0
-308,92,0,0,0,0,0,0,0,0,0,-1,916,932,0,0
-301,92,0,0,0,0,0,0,0,0,0,-1,923,932,0,0
-294,92,0,0,0,0,0,0,0,0,0,-1,930,932,0,0
-287,92,0,0,0,0,0,0,0,0,0,-1,937,932,0,0
-280,92,0,0,0,0,0,0,0,0,0,-1,944,932,0,0
-273,92,0,0,0,0,0,0,0,0,0,-1,951,932,0,0
-266,92,0,0,0,0,0,0,0,0,0,-1,958,932,0,0
-259,92,0,0,0,0,0,0,0,0,0,-1,965,932,0,0
-252,92,0,0,0,0,0,0,0,0,0,-1,972,932,0,0
-245,92,0,0,0,0,0,0,0,0,0,-1,979,932,0,0
-238,92,0,0,0,0,0,0,0,0,0,-1,986,932,0,0
-231,92,0,0,0,0,0,0,0,0,0,-1,993,932,0,0
-224,92,0,0,0,0,0,0,0,0,0,-1,1000,932,0,0
-217,92,0,0,0,0,0,0,0,0,0,-1,1007,932,0,0
-210,92,0,0,0,0,0,0,0,0,0,-1,1014,932,0,0
-203,92,0,0,0,0,0,0,0,0,0,-1,1021,932,0,0
-196,92,0,0,0,0,0,0,0,0,0,-1,1028,932,0,0
-189,92,0,0,0,0,0,0,0,0,0,-1,1035,932,0,0
-182,92,0,0,0,0,0,0,0,0,0,-1,1042,932,0,0
-175,92,0,0,0,0,0,0,0,0,0,-1,1049,932,0,0
-168,92,0,0,0,0,0,0,0,0,0,-1,1056,932,0,0
-161,92,0,0,0,0,0,0,0,0,0,-1,1063,932,0,0
-154,92,0,0,0,0,0,0,0,0,0,-1,1070,932,0,0
-147,92,0,0,0,0,0,0,0,0,0,-1,1077,932,0,0
-140,92,0,0,0,0,0,0,0,0,0,-1,1084,932,0,0
-133,92,0,0,0,0,0,0,0,0,0,-1,1091,932,0,0
-126,92,0,0,0,0,0,0,0,0,0,-1,1098,932,0,0
-119,92,0,0,0,0,0,0,0,0,0,-1,1105,932,0,0
-112,92,0,0,0,0,0,0,0,0,0,-1,1112,932,0,0
-105,92,0,0,0,0,0,0,0,0,0,-1,1119,932,0,0
-98,92,0,0,0,0,0,0,0,0,0,-1,1126,932,0,0
-91,92,0,0,0,0,0,0,0,0,0,-1,1133,932,0,0
-84,92,0,0,0,0,0,0,0,0,0,-1,1140,932,0,0
-77,92,0,0,0,0,0,0,0,0,0,-1,1147,932,0,0
-70,92,0,0,0,0,0,0,0,0,0,-1,1154,932,0,0
-63,92,0,0,0,0,0,0,0,0,0,-1,1161,932,0,0
-56,92,0,0,0,0,0,0,0,0,0,-1,1168,932,0,0
-49,92,0,0,0,0,0,0,0,0,0,-1,1175,932,0,0
-42,92,0,0,0,0,0,0,0,0,0,-1,1182,932,0,0
-35,92,0,0,0,0,0,0,0,0,0,-1,1189,932,0,0
-28,92,0,0,0,0,0,0,0,0,0,-1,1196,932,0,0
-21,92,0,0,0,0,0,0,0,0,0,-1,1203,932,0,0
-14,92,0,0,0,0,0,0,0,0,0,-1,1210,932,0,0
-7,92,0,0,0,0,0,0,0,0,0,-1,1217,932,0,0
0,92,0,0,0,0,0,0,0,0,0,-1,1224,932,0,0
7,92,0,0,0,0,0,0,0,0,0,-1,1231,932,0,0
14,92,0,0,0,0,0,0,0,0,0,-1,1238,932,0,0
21,92,0,0,0,0,0,0,0,0,0,-1,1245,932,0,0
28,92,0,0,0,0,0,0,0,0,0,-1,1252,932,0,0
35,92,0,0,0,0,0,0,0,0,0,-1,1259,932,0,0
42,92,0,0,0,0,0,0,0,0,0,-1,1266,932,0,0
49,92,0,0,0,0,0,0,0,0,0,-1,1273,932,0,0
56,92,0,0,0,0,0,0,0,0,0,-1,1280,932,0,0
63,92,0,0,0,0,0,0,0,0,0,-1,1287,932,0,0
70,92,0,0,0,0,0,0,0,0,0,-1,1294,932,0,0
77,92,0,0,0,0,0,0,0,0,0,-1,1301,932,0,0
84,92,0,0,0,0,0,0,0,0,0,-1,1308,932,0,0
91,92,0,0,0,0,0,0,0,0,0,-1,1315,932,0,0
98,92,0,0,0,0,0,0,0,0,0,-1,1322,932,0,0
105,92,0,0,0,0,0,0,0,0,0,-1,1329,932,0,0
112,92,0,0,0,0,0,0,0,0,0,-1,1336,932,0,0
119,92,0,0,0,0,0,0,0,0,0,-1,1343,932,0,0
126,92,0,0,0,0,0,0,0,0,0,-1,1350,932,0,0
133,92,0,0,0,0,0,0,0,0,0,-1,1357,932,0,0
140,92,0,0,0,0,0,0,0,0,0,-1,1364,932,0,0
147,92,0,0,0,0,0,0,0,0,0,-1,1371,932,0,0
154,92,0,0,0,0,0,0,0,0,0,-1,1378,932,0,0
161,92,0,0,0,0,0,0,0,0,0,-1,1385,932,0,0
168,92,0,0,0,0,0,0,0,0,0,-1,1392,932,0,0
175,92,0,0,0,0,0,0,0,0,0,-1,1399,932,0,0
182,92,0,0,0,0,0,0,0,0,0,-1,1406,932,0,0
189,92,0,0,0,0,0,0,0,0,0,-1,1413,932,0,0
196,92,0,0,0,0,0,0,0,0,0,-1,1420,932,0,0
203,92,0,0,0,0,0,0,0,0,0,-1,1427,932,0,0
210,92,0,0,0,0,0,0,0,0,0,-1,1434,932,0,0
217,92,0,0,0,0,0,0,0,0,0,-1,1441,932,0,0
224,92,0,0,0,0,0,0,0,0,0,-1,1448,932,0,0
231,92,0,0,0,0,0,0,0,0,0,-1,1455,932,0,0
238,92,0,0,0,0,0,0,0,0,0,-1,1462,932,0,0
245,92,0,0,0,0,0,0,0,0,0,-1,1469,932,0,0
252,92,0,0,0,0,0,0,0,0,0,-1,1476,932,0,0
259,92,0,0,0,0,0,0,0,0,0,-1,1483,932,0,0
266,92,0,0,0,0,0,0,0,0,0,-1,1490,932,0,0
273,92,0,0,0,0,0,0,0,0,0,-1,1497,932,0,0
280,92,0,0,0,0,0,0,0,0,0,-1,1504,932,0,0
287,92,0,0,0,0,0,0,0,0,0,-1,1511,932,0,0
294,92,0,0,0,0,0,0,0,0,0,-1,1518,932,0,0
301,92,0,0,0,0,0,0,0,0,0,-1,1525,932,0,0
308,92,0,0,0,0,0,0,0,0,0,-1,1532,932,0,0
315,92,0,0,0,0,0,0,0,0,0,-1,1539,932,0,0
322,92,0,0,0,0,0,0,0,0,0,-1,1546,932,0,0
329,92,0,0,0,0,0,0,0,0,0,-1,1553,932,0,0
336,92,0,0,0,0,0,0,0,0,0,-1,1560,932,0,0
343,92,0,0,0,0,0,0,0,0,0,-1,1567,932,0,0
350,92,0,0,0,0,0,0,0,0,0,-1,1574,932,0,0
357,92,0,0,0,0,0,0,0,0,0,-1,1581,932,0,0
364,92,0,0,0,0,0,0,0,0,0,-1,1588,932,0,0
371,92,0,0,0,0,0,0,0,0,0,-1,1595,932,0,0
378,92,0,0,0,0,0,0,0,0,0,-1,1602,932,0,0
385,92,0,0,0,0,0,0,0,0,0,-1,1609,932,0,0
392,92,0,0,0,0,0,0,0,0,0,-1,1616,932,0,0
399,92,0,0,0,0,0,0,0,0,0,-1,1623,932,0,0
406,92,0,0,0,0,0,0,0,0,0,-1,1630,932,0,0
413,92,0,0,0,0,0,0,0,0,0,-1,1637,932,0,0
420,92,0,0,0,0,0,0,0,0,0,-1,1644,932,0,0
427,92,0,0,0,0,0,0,0,0,0,-1,1651,932,0,0
434,92,0,0,0,0,0,0,0,0,0,-1,1658,932,0,0
441,92,0,0,0,0,0,0,0,0,0,-1,1665,932,0,0
448,92,0,0,0,0,0,0,0,0,0,-1,1672,932,0,0
455,92,0,0,0,0,0,0,0,0,0,-1,1679,932,0,0
462,92,0,0,0,0,0,0,0,0,0,-1,1686,932,0,0
469,92,0,0,0,0,0,0,0,0,0,-1,1693,932,0,0
476,92,0,0,0,0,0,0,0,0,0,-1,1700,932,0,0
483,92,0,0,0,0,0,0,0,0,0,-1,1707,932,0,0
490,92,0,0,0,0,0,0,0,0,0,-1,1714,932,0,0
497,92,0,0,0,0,0,0,0,0,0,-1,1721,932,0,0
504,92,0,0,0,0,0,0,0,0,0,-1,1728,932,0,0
511,92,0,0,0,0,0,0,0,0,0,-1,1735,932,0,0
518,92,0,0,0,0,0,0,0,0,0,-1,1742,932,0,0
525,92,0,0,0,0,0,0,0,0,0,-1,1749,932,0,0
532,92,0,0,0,0,0,0,0,0,0,-1,1756,932,0,0
539,92,0,0,0,0,0,0,0,0,0,-1,1763,932,0,0
546,92,0,0,0,0,0,0,0,0,0,-1,1770,932,0,0
553,92,0,0,0,0,0,0,0,0,0,-1,1777,932,0,0
560,92,0,0,0,0,0,0,0,0,0,-1,1784,932,0,0
567,92,0,0,0,0,0,0,0,0,0,-1,1791,932,0,0
574,92,0,0,0,0,0,0,0,0,0,-1,1798,932,0,0
581,92,0,0,0,0,0,0,0,0,0,-1,1805,932,0,0
588,92,0,0,0,0,0,0,0,0,0,-1,1812,932,0,0
595,92,0,0,0,0,0,0,0,0,0,-1,1819,932,0,0
602,92,0,0,0,0,0,0,0,0,0,-1,1826,932,0,0
609,92,0,0,0,0,0,0,0,0,0,-1,1833,932,0,0
616,92,0,0,0,0,0,0,0,0,0,-1,1840,932,0,0
623,92,0,0,0,0,0,0,0,0,0,-1,1847,932,0,0
630,92,0,0,0,0,0,0,0,0,0,-1,1854,932,0,0
637,92,46.7375,2.81976,0.00280262,-0.00437333,-0.00257987,0.00363384,-0.00520455,-0.311692,0.00512964,0.0498707,1861,932,46.7375,-2.81977
644,92,46.7692,2.57147,0.00202536,-0.0030603,-0.00229015,0.00290463,-0.00393957,-0.366581,0.00396653,0.0404074,1868,932,46.7692,-2.57145
651,92,46.887,2.65112,0.00144952,-0.00219189,-0.00194275,0.00229138,-0.00303375,-0.408908,0.00308441,0.0393641,1875,932,46.8869,-2.65113
658,92,46.9233,2.6748,0.00106435,-0.00143525,-0.00151257,0.00177666,-0.00214755,-0.440118,0.00226902,0.0458293,1882,932,46.9233,-2.6748
665,92,46.704,2.74939,0.000967195,-0.000879861,-0.00108404,0.00146776,-0.00138043,-0.432591,0.00164466,0.0438381,1889,932,46.704,-2.74941
672,92,46.6715,2.65143,0.000859716,-0.000668232,-0.000637844,0.00109098,-0.000899498,-0.347832,0.00115097,0.0392109,1896,932,46.6715,-2.65143
679,92,46.7825,2.58881,0.000819903,-0.000688748,-0.000234486,0.000855508,-0.000724353,-0.150693,0.000913181,0.0375708,1903,932,46.7825,-2.5888
686,92,46.7821,2.58246,0.00079706,-0.000767318,-6.63171e-06,0.000797088,-0.000767346,-0.0042391,0.000903281,0.0309905,1910,932,46.7821,-2.58244
693,92,46.743,2.78375,0.000824358,-0.000770564,-9.50199e-06,0.000824415,-0.000770621,-0.00595737,0.000921069,0.0272229,1917,932,46.7431,-2.78375
700,92,46.7217,2.77203,0,0,0,0,0,0,0,-1,1924,932,46.7217,-2.77205
707,92,32.9893,3.26874,0,0,0,0,0,0,0,-1,1931,932,32.9893,-3.26874
714,92,43.6399,3.82715,0,0,0,0,0,0,0,-1,1938,932,43.6399,-3.82714
721,92,43.5348,4.36041,-0.0006551,0.000248103,-0.000418835,0.000412429,-0.000819426,-1.19691,0.000724035,0.0307847,1945,932,43.5348,-4.36043
728,92,43.4111,4.82397,-0.00135442,0.000950737,-0.000669672,0.00113116,-0.00153485,-1.30762,0.00154509,0.0228568,1952,932,43.4111,-4.824
735,92,43.3986,5.21704,-0.00208321,0.00201877,-0.00123327,0.002361,-0.00242544,-1.30011,0.00276354,0.0188182,1959,932,43.3985,-5.21702
742,92,43.4459,5.58124,-0.0028539,0.00326607,-0.00194226,0.00383043,-0.00341826,-1.28801,0.00418729,0.0193278,1966,932,43.4459,-5.58121
749,92,43.3787,5.98236,-0.00388572,0.00508871,-0.00284648,0.0059154,-0.00471241,-1.28815,0.00614905,0.0175751,1973,932,43.3787,-5.98235
756,92,43.286,6.35498,-0.00483449,0.00702553,-0.00389522,0.00819043,-0.0059994,-1.2802,0.00822499,0.0148717,1980,932,43.286,-6.35497
763,92,43.2506,6.75616,-0.00561023,0.00911903,-0.00502532,0.0106702,-0.0071614,-1.2714,0.0103613,0.0156221,1987,932,43.2506,-6.75614
770,92,43.1908,7.20343,-0.00593368,0.0107979,-0.00653756,0.0130494,-0.00818514,-1.23913,0.0123665,0.024207,1994,932,43.1908,-7.20343
777,92,43.3131,7.72205,-0.0058392,0.0116535,-0.00855027,0.0151385,-0.0093242,-1.18377,0.0142559,0.0430978,2001,932,43.3131,-7.72205
784,92,43.356,8.27081,0,0,0,0,0,0,0,-1,2008,932,43.356,-8.2708
791,92,43.2048,8.99835,0,0,0,0,0,0,0,-1,2015,932,43.2048,-8.99835
798,92,42.7893,9.84918,0,0,0,0,0,0,0,-1,2022,932,42.7894,-9.84916
805,92,0,0,0,0,0,0,0,0,0,-1,2029,932,0,0
812,92,0,0,0,0,0,0,0,0,0,-1,2036,932,0,0
-700,85,0,0,0,0,0,0,0,0,0,-1,524,939,0,0
-693,85,0,0,0,0,0,0,0,0,0,-1,531,939,0,0
-686,85,-33.067,6.40161,0.0176059,-0.0463817,-0.0137282,0.0204269,-0.0492026,-0.202665,0.0413291,0.0479384,538,939,-33.067,-6.40162
-679,85,-33.1338,6.07654,0.0219007,-0.037034,-0.0159975,0.0259631,-0.0410964,-0.248684,0.0390441,0.0488866,545,939,-33.1338,-6.07654
-672,85,-33.803,5.83472,0,0,0,0,0,0,0,-1,552,939,-33.803,-5.83472
-665,85,-33.7603,5.43445,0.0201524,-0.0199028,-0.0139339,0.0245227,-0.0242731,-0.303929,0.0281724,0.0461445,559,939,-33.7603,-5.43442
-658,85,-33.5135,5.05066,0.017032,-0.012912,-0.0114087,0.0208834,-0.0167634,-0.32557,0.0217787,0.0441564,566,939,-33.5135,-5.05066
-651,85,-32.7441,4.89264,0.0134348,-0.00722534,-0.00854536,0.0165112,-0.0103017,-0.345563,0.0156182,0.0411324,573,939,-32.7442,-4.89262
-644,85,-32.7685,4.61249,0.00987505,-0.00301353,-0.00573826,0.0120596,-0.00519806,-0.363754,0.0102228,0.0334544,580,939,-32.7685,-4.61251
-637,85,-32.8704,4.29999,0.00666176,-0.000201546,-0.00326259,0.00796517,-0.00150495,-0.380074,0.00587635,0.0198583,587,939,-32.8704,-4.29996
-630,85,-32.9457,3.92365,0.00403992,0.00174056,-0.00165175,0.00490271,0.000877771,-0.481367,0.00301873,0.0126282,594,939,-32.9457,-3.92363
-623,85,-33.0141,3.59204,0.00103721,0.00248749,-0.000488929,0.00263692,0.000887774,-1.27418,0.00154927,0.00994547,601,939,-33.0141,-3.59207
-616,85,-33.0204,3.26288,-0.00220855,0.00221112,0.000269577,0.0022275,-0.00222493,1.5101,0.00257061,0.00963876,608,939,-33.0204,-3.26287
-609,85,-33.0403,2.92456,-0.0048898,0.00122584,0.000629569,0.00128998,-0.00495393,1.46927,0.00380619,0.0116186,615,939,-33.0403,-2.92453
-602,85,-33.0479,2.58771,-0.00663518,0.000944558,6.39606e-05,0.000945098,-0.00663572,1.56236,0.00477015,0.0158928,622,939,-33.0479,-2.5877
-595,85,-32.9766,2.24823,-0.00792111,0.000726567,-0.000366593,0.00074208,-0.00793662,-1.52851,0.00555499,0.0203265,629,939,-32.9766,-2.24822
-588,85,-32.9991,1.90369,-0.00842575,6.69359e-05,-0.000830216,0.000147334,-0.00850615,-1.47426,0.00572051,0.019583,636,939,-32.9991,-1.90366
-581,85,-33.1777,1.55115,-0.0083376,5.91983e-05,-0.00104123,0.000186389,-0.00846479,-1.44925,0.00570634,0.0259431,643,939,-33.1777,-1.55115
-574,85,-33.8168,1.23535,-0.00804607,0.000351517,-0.00117579,0.000513039,-0.00820759,-1.43428,0.00565051,0.0431743,650,939,-33.8168,-1.23535
-567,85,-34.6947,0.94928,0,0,0,0,0,0,0,-1,657,939,-34.6947,-0.949274
-560,85,-34.8845,0.889771,-0.00692891,0.00119962,-0.00126347,0.00139148,-0.00712077,-1.42009,0.00527257,0.0352983,664,939,-34.8844,-0.889743
-553,85,-34.9366,0.971985,-0.00564493,0.00188042,-0.00113149,0.00204687,-0.00581137,-1.42474,0.00470729,0.0404967,671,939,-34.9366,-0.971965
-546,85,-35.0677,1.02197,-0.00368551,0.00271337,-0.000867361,0.00282886,-0.00380099,-1.43843,0.00384144,0.0418987,678,939,-35.0677,-1.02199
-539,85,-35.1342,1.01752,-0.000916879,0.00361693,-0.000457253,0.00366258,-0.000962535,-1.47128,0.00281791,0.0398486,685,939,-35.1342,-1.01752
-532,85,-35.0222,0.979065,0.00254908,0.00446231,-6.24237e-05,0.00446435,0.00254704,-1.53822,0.00258603,0.0398796,692,939,-35.0222,-0.979089
-525,85,-34.9718,0.822266,0.00501447,0.00542163,-0.000236796,0.00553033,0.00490577,-1.14046,0.00349734,0.0391217,699,939,-34.9718,-0.822255
-518,85,-34.983,0.961731,0.00357404,0.00641528,-0.000433604,0.00647998,0.00350934,-1.42268,0.00374553,0.0384376,706,939,-34.983,-0.961744
-511,85,0,0,0,0,0,0,0,0,0,-1,713,939,0,0
-504,85,0,0,0,0,0,0,0,0,0,-1,720,939,0,0
-497,85,0,0,0,0,0,0,0,0,0,-1,727,939,0,0
-490,85,0,0,0,0,0,0,0,0,0,-1,734,939,0,0
-483,85,0,0,0,0,0,0,0,0,0,-1,741,939,0,0
-476,85,0,0,0,0,0,0,0,0,0,-1,748,939,0,0
-469,85,0,0,0,0,0,0,0,0,0,-1,755,939,0,0
-462,85,0,0,0,0,0,0,0,0,0,-1,762,939,0,0
-455,85,0,0,0,0,0,0,0,0,0,-1,769,939,0,0
-448,85,0,0,0,0,0,0,0,0,0,-1,776,939,0,0
-441,85,0,0,0,0,0,0,0,0,0,-1,783,939,0,0
-434,85,0,0,0,0,0,0,0,0,0,-1,790,939,0,0
-427,85,0,0,0,0,0,0,0,0,0,-1,797,939,0,0
-420,85,0,0,0,0,0,0,0,0,0,-1,804,939,0,0
-413,85,0,0,0,0,0,0,0,0,0,-1,811,939,0,0
-406,85,0,0,0,0,0,0,0,0,0,-1,818,939,0,0
-399,85,0,0,0,0,0,0,0,0,0,-1,825,939,0,0
-392,85,0,0,0,0,0,0,0,0,0,-1,832,939,0,0
-385,85,0,0,0,0,0,0,0,0,0,-1,839,939,0,0
-378,85,0,0,0,0,0,0,0,0,0,-1,846,939,0,0
-371,85,0,0,0,0,0,0,0,0,0,-1,853,939,0,0
-364,85,0,0,0,0,0,0,0,0,0,-1,860,939,0,0
-357,85,0,0,0,0,0,0,0,0,0,-1,867,939,0,0
-350,85,0,0,0,0,0,0,0,0,0,-1,874,939,0,0
-343,85,0,0,0,0,0,0,0,0,0,-1,881,939,0,0
-336,85,0,0,0,0,0,0,0,0,0,-1,888,939,0,0
-329,85,0,0,0,0,0,0,0,0,0,-1,895,939,0,0
-322,85,0,0,0,0,0,0,0,0,0,-1,902,939,0,0
-315,85,0,0,0,0,0,0,0,0,0,-1,909,939,0,0
-308,85,0,0,0,0,0,0,0,0,0,-1,916,939,0,0
-301,85,0,0,0,0,0,0,0,0,0,-1,923,939,0,0
-294,85,0,0,0,0,0,0,0,0,0,-1,930,939,0,0
-287,85,0,0,0,0,0,0,0,0,0,-1,937,939,0,0
-280,85,0,0,0,0,0,0,0,0,0,-1,944,939,0,0
-273,85,0,0,0,0,0,0,0,0,0,-1,951,939,0,0
-266,85,0,0,0,0,0,0,0,0,0,-1,958,939,0,0
-259,85,0,0,0,0,0,0,0,0,0,-1,965,939,0,0
-252,85,0,0,0,0,0,0,0,0,0,-1,972,939,0,0
-245,85,0,0,0,0,0,0,0,0,0,-1,979,939,0,0
-238,85,0,0,0,0,0,0,0,0,0,-1,986,939,0,0
-231,85,0,0,0,0,0,0,0,0,0,-1,993,939,0,0
-224,85,0,0,0,0,0,0,0,0,0,-1,1000,939,0,0
-217,85,0,0,0,0,0,0,0,0,0,-1,1007,939,0,0
-210,85,0,0,0,0,0,0,0,0,0,-1,1014,939,0,0
-203,85,0,0,0,0,0,0,0,0,0,-1,1021,939,0,0
-196,85,0,0,0,0,0,0,0,0,0,-1,1028,939,0,0
-189,85,0,0,0,0,0,0,0,0,0,-1,1035,939,0,0
-182,85,0,0,0,0,0,0,0,0,0,-1,1042,939,0,0
-175,85,0,0,0,0,0,0,0,0,0,-1,1049,939,0,0
-168,85,0,0,0,0,0,0,0,0,0,-1,1056,939,0,0
-161,85,0,0,0,0,0,0,0,0,0,-1,1063,939,0,0
-154,85,0,0,0,0,0,0,0,0,0,-1,1070,939,0,0
-147,85,0,0,0,0,0,0,0,0,0,-1,1077,939,0,0
-140,85,0,0,0,0,0,0,0,0,0,-1,1084,939,0,0
-133,85,0,0,0,0,0,0,0,0,0,-1,1091,939,0,0
-126,85,0,0,0,0,0,0,0,0,0,-1,1098,939,0,0
-119,85,0,0,0,0,0,0,0,0,0,-1,1105,939,0,0
-112,85,0,0,0,0,0,0,0,0,0,-1,1112,939,0,0
-105,85,0,0,0,0,0,0,0,0,0,-1,1119,939,0,0
-98,85,0,0,0,0,0,0,0,0,0,-1,1126,939,0,0
-91,85,0,0,0,0,0,0,0,0,0,-1,1133,939,0,0
-84,85,0,0,0,0,0,0,0,0,0,-1,1140,939,0,0
-77,85,0,0,0,0,0,0,0,0,0,-1,1147,939,0,0
-70,85,0,0,0,0,0,0,0,0,0,-1,1154,939,0,0
-63,85,0,0,0,0,0,0,0,0,0,-1,1161,939,0,0
-56,85,0,0,0,0,0,0,0,0,0,-1,1168,939,0,0
-49,85,0,0,0,0,0,0,0,0,0,-1,1175,939,0,0
-42,85,0,0,0,0,0,0,0,0,0,-1,1182,939,0,0
-35,85,0,0,0,0,0,0,0,0,0,-1,1189,939,0,0
-28,85,0,0,0,0,0,0,0,0,0,-1,1196,939,0,0
-21,85,0,0,0,0,0,0,0,0,0,-1,1203,939,0,0
-14,85,0,0,0,0,0,0,0,0,0,-1,1210,939,0,0
-7,85,0,0,0,0,0,0,0,0,0,-1,1217,939,0,0
0,85,0,0,0,0,0,0,0,0,0,-1,1224,939,0,0
7,85,0,0,0,0,0,0,0,0,0,-1,1231,939,0,0
14,85,0,0,0,0,0,0,0,0,0,-1,1238,939,0,0
21,85,0,0,0,0,0,0,0,0,0,-1,1245,939,0,0
28,85,0,0,0,0,0,0,0,0,0,-1,1252,939,0,0
35,85,0,0,0,0,0,0,0,0,0,-1,1259,939,0,0
42,85,0,0,0,0,0,0,0,0,0,-1,1266,939,0,0
49,85,0,0,0,0,0,0,0,0,0,-1,1273,939,0,0
56,85,0,0,0,0,0,0,0,0,0,-1,1280,939,0,0
63,85,0,0,0,0,0,0,0,0,0,-1,1287,939,0,0
70,85,0,0,0,0,0,0,0,0,0,-1,1294,939,0,0
77,85,0,0,0,0,0,0,0,0,0,-1,1301,939,0,0
84,85,0,0,0,0,0,0,0,0,0,-1,1308,939,0,0
91,85,0,0,0,0,0,0,0,0,0,-1,1315,939,0,0
98,85,0,0,0,0,0,0,0,0,0,-1,1322,939,0,0
105,85,0,0,0,0,0,0,0,0,0,-1,1329,939,0,0
112,85,0,0,0,0,0,0,0,0,0,-1,1336,939,0,0
119,85,0,0,0,0,0,0,0,0,0,-1,1343,939,0,0
126,85,0,0,0,0,0,0,0,0,0,-1,1350,939,0,0
133,85,0,0,0,0,0,0,0,0,0,-1,1357,939,0,0
140,85,0,0,0,0,0,0,0,0,0,-1,1364,939,0,0
147,85,0,0,0,0,0,0,0,0,0,-1,1371,939,0,0
154,85,0,0,0,0,0,0,0,0,0,-1,1378,939,0,0
161,85,0,0,0,0,0,0,0,0,0,-1,1385,939,0,0
168,85,0,0,0,0,0,0,0,0,0,-1,1392,939,0,0
175,85,0,0,0,0,0,0,0,0,0,-1,1399,939,0,0
182,85,0,0,0,0,0,0,0,0,0,-1,1406,939,0,0
189,85,0,0,0,0,0,0,0,0,0,-1,1413,939,0,0
196,85,0,0,0,0,0,0,0,0,0,-1,1420,939,0,0
203,85,0,0,0,0,0,0,0,0,0,-1,1427,939,0,0
210,85,0,0,0,0,0,0,0,0,0,-1,1434,939,0,0
217,85,0,0,0,0,0,0,0,0,0,-1,1441,939,0,0
224,85,0,0,0,0,0,0,0,0,0,-1,1448,939,0,0
231,85,0,0,0,0,0,0,0,0,0,-1,1455,939,0,0
238,85,0,0,0,0,0,0,0,0,0,-1,1462,939,0,0
245,85,0,0,0,0,0,0,0,0,0,-1,1469,939,0,0
252,85,0,0,0,0,0,0,0,0,0,-1,1476,939,0,0
259,85,0,0,0,0,0,0,0,0,0,-1,1483,939,0,0
266,85,0,0,0,0,0,0,0,0,0,-1,1490,939,0,0
273,85,0,0,0,0,0,0,0,0,0,-1,1497,939,0,0
280,85,0,0,0,0,0,0,0,0,0,-1,1504,939,0,0
287,85,0,0,0,0,0,0,0,0,0,-1,1511,939,0,0
294,85,0,0,0,0,0,0,0,0,0,-1,1518,939,0,0
301,85,0,0,0,0,0,0,0,0,0,-1,1525,939,0,0
308,85,0,0,0,0,0,0,0,0,0,-1,1532,939,0,0
315,85,0,0,0,0,0,0,0,0,0,-1,1539,939,0,0
322,85,0,0,0,0,0,0,0,0,0,-1,1546,939,0,0
329,85,0,0,0,0,0,0,0,0,0,-1,1553,939,0,0
336,85,0,0,0,0,0,0,0,0,0,-1,1560,939,0,0
343,85,0,0,0,0,0,0,0,0,0,-1,1567,939,0,0
350,85,0,0,0,0,0,0,0,0,0,-1,1574,939,0,0
357,85,0,0,0,0,0,0,0,0,0,-1,1581,939,0,0
364,85,0,0,0,0,0,0,0,0,0,-1,1588,939,0,0
371,85,0,0,0,0,0,0,0,0,0,-1,1595,939,0,0
378,85,0,0,0,0,0,0,0,0,0,-1,1602,939,0,0
385,85,0,0,0,0,0,0,0,0,0,-1,1609,939,0,0
392,85,0,0,0,0,0,0,0,0,0,-1,1616,939,0,0
399,85,0,0,0,0,0,0,0,0,0,-1,1623,939,0,0
406,85,0,0,0,0,0,0,0,0,0,-1,1630,939,0,0
413,85,0,0,0,0,0,0,0,0,0,-1,1637,939,0,0
420,85,0,0,0,0,0,0,0,0,0,-1,1644,939,0,0
427,85,0,0,0,0,0,0,0,0,0,-1,1651,939,0,0
434,85,0,0,0,0,0,0,0,0,0,-1,1658,939,0,0
441,85,0,0,0,0,0,0,0,0,0,-1,1665,939,0,0
448,85,0,0,0,0,0,0,0,0,0,-1,1672,939,0,0
455,85,0,0,0,0,0,0,0,0,0,-1,1679,939,0,0
462,85,0,0,0,0,0,0,0,0,0,-1,1686,939,0,0
469,85,0,0,0,0,0,0,0,0,0,-1,1693,939,0,0
476,85,0,0,0,0,0,0,0,0,0,-1,1700,939,0,0
483,85,0,0,0,0,0,0,0,0,0,-1,1707,939,0,0
490,85,0,0,0,0,0,0,0,0,0,-1,1714,939,0,0
497,85,0,0,0,0,0,0,0,0,0,-1,1721,939,0,0
504,85,0,0,0,0,0,0,0,0,0,-1,1728,939,0,0
511,85,0,0,0,0,0,0,0,0,0,-1,1735,939,0,0
518,85,0,0,0,0,0,0,0,0,0,-1,1742,939,0,0
525,85,0,0,0,0,0,0,0,0,0,-1,1749,939,0,0
532,85,0,0,0,0,0,0,0,0,0,-1,1756,939,0,0
539,85,0,0,0,0,0,0,0,0,0,-1,1763,939,0,0
546,85,0,0,0,0,0,0,0,0,0,-1,1770,939,0,0
553,85,0,0,0,0,0,0,0,0,0,-1,1777,939,0,0
560,85,0,0,0,0,0,0,0,0,0,-1,1784,939,0,0
567,85,0,0,0,0,0,0,0,0,0,-1,1791,939,0,0
574,85,0,0,0,0,0,0,0,0,0,-1,1798,939,0,0
581,85,0,0,0,0,0,0,0,0,0,-1,1805,939,0,0
588,85,0,0,0,0,0,0,0,0,0,-1,1812,939,0,0
595,85,0,0,0,0,0,0,0,0,0,-1,1819,939,0,0
602,85,0,0,0,0,0,0,0,0,0,-1,1826,939,0,0
609,85,0,0,0,0,0,0,0,0,0,-1,1833,939,0,0
616,85,0,0,0,0,0,0,0,0,0,-1,1840,939,0,0
623,85,0,0,0,0,0,0,0,0,0,-1,1847,939,0,0
630,85,0,0,0,0,0,0,0,0,0,-1,1854,939,0,0
637,85,46.6776,2.73358,0.00296551,-0.00349753,-0.00187943,0.0034723,-0.00400432,-0.263387,0.00432027,0.0488773,1861,939,46.6776,-2.73359
644,85,46.803,2.54272,0.00224225,-0.00245661,-0.00189686,0.0029124,-0.00312677,-0.339609,0.00348745,0.0407823,1868,939,46.803,-2.54271
651,85,46.9556,2.508,0.00164373,-0.00182416,-0.00174824,0.00237209,-0.00255251,-0.394752,0.00284385,0.0383847,1875,939,46.9556,-2.50798
658,85,46.842,2.68268,0.00115666,-0.00127328,-0.00145076,0.00183401,-0.00195063,-0.436811,0.00218541,0.0404802,1882,939,46.8421,-2.68265
665,85,46.6831,2.68304,0.000926419,-0.000884627,-0.00110369,0.00144851,-0.00140672,-0.441854,0.00164853,0.0413855,1889,939,46.6831,-2.68305
672,85,46.7382,2.6181,0.000686873,-0.000777954,-0.000695134,0.000964232,-0.00105531,-0.379645,0.00116638,0.0407877,1896,939,46.7382,-2.61809
679,85,46.9497,2.47766,0,0,0,0,0,0,0,-1,1903,939,46.9497,-2.47766
686,85,46.8591,2.55872,0.000520861,-0.00105229,-0.000104373,0.000527756,-0.00105919,-0.0659614,0.000933188,0.0344304,1910,939,46.8591,-2.5587
693,85,46.7631,2.71686,0.000518288,-0.0011003,-0.000119765,0.000527101,-0.00110911,-0.0734604,0.000964382,0.028993,1917,939,46.7631,-2.71684
700,85,46.7435,2.74292,0.000263779,-0.00102513,-0.000308544,0.000333832,-0.00109519,-0.223258,0.000863195,0.0433878,1924,939,46.7435,-2.7429
707,85,46.7826,2.79285,0,0,0,0,0,0,0,-1,1931,939,46.7826,-2.79286
714,85,44.0033,3.95947,0,0,0,0,0,0,0,-1,1938,939,44.0033,-3.95946
721,85,43.9064,4.44098,-0.00106211,-6.67295e-05,-0.000583343,0.000202381,-0.00133123,-1.13856,0.000962066,0.03132,1945,939,43.9063,-4.44098
728,85,43.7832,4.95532,-0.001713,0.00068247,-0.000850458,0.000953697,-0.00198423,-1.26207,0.00173064,0.0251534,1952,939,43.7832,-4.95531
735,85,43.8026,5.26135,-0.00237907,0.00178957,-0.00145808,0.00224894,-0.00283845,-1.26558,0.00294378,0.0232804,1959,939,43.8026,-5.26137
742,85,43.8918,5.60126,-0.00305253,0.0029639,-0.00223265,0.00370189,-0.00379053,-1.25156,0.00432585,0.0184783,1966,939,43.8918,-5.60125
749,85,43.8138,5.9787,-0.00393528,0.00466061,-0.00329057,0.00577563,-0.0050503,-1.24409,0.00625503,0.014965,1973,939,43.8139,-5.97869
756,85,43.7002,6.32684,-0.00471069,0.00639721,-0.00463254,0.0080756,-0.00638908,-1.2232,0.00837009,0.0141074,1980,939,43.7002,-6.32685
763,85,43.6583,6.67389,-0.00535593,0.00827624,-0.00613649,0.0106316,-0.00771129,-1.20431,0.0106349,0.0131973,1987,939,43.6583,-6.67386
770,85,43.5908,7.02649,-0.00552606,0.00961284,-0.00808118,0.013116,-0.00902918,-1.16175,0.0128579,0.0187631,1994,939,43.5909,-7.02647
777,85,43.4766,7.48376,-0.00523122,0.010001,-0.0106573,0.0154839,-0.0107141,-1.09564,0.0152088,0.0423208,2001,939,43.4766,-7.48374
784,85,43.3977,7.9436,0,0,0,0,0,0,0,-1,2008,939,43.3976,-7.94361
791,85,43.8469,9.64978,0,0,0,0,0,0,0,-1,2015,939,43.847,-9.64975
798,85,43.4023,10.5175,0,0,0,0,0,0,0,-1,2022,939,43.4023,-10.5175
805,85,44.2192,8.38947,0,0,0,0,0,0,0,-1,2029,939,44.2193,-8.38946
812,85,0,0,0,0,0,0,0,0,0,-1,2036,939,0,0
-700,78,0,0,0,0,0,0,0,0,0,-1,524,946,0,0
-693,78,0,0,0,0,0,0,0,0,0,-1,531,946,0,0
-686,78,-33.4693,6.63763,0.0259146,-0.0350368,-0.0190529,0.0313802,-0.0405025,-0.279366,0.0416127,0.0443911,538,946,-33.4693,-6.63765
-679,78,-33.4949,6.30267,0.0286071,-0.0264721,-0.0203276,0.0352967,-0.0331617,-0.317928,0.0395309,0.0471268,545,946,-33.4949,-6.30269
-672,78,-33.5444,5.99866,0.0274361,-0.0185423,-0.0190961,0.0343328,-0.0254389,-0.346578,0.0346363,0.0482347,552,946,-33.5444,-5.99865
-665,78,-33.5563,5.73297,0.024246,-0.0115542,-0.0165769,0.0307427,-0.018051,-0.373519,0.0284869,0.0465005,559,946,-33.5563,-5.73299
-658,78,-33.5803,5.42706,0.0200725,-0.00574348,-0.0133897,0.0257629,-0.0114339,-0.401857,0.0220003,0.0467988,566,946,-33.5803,-5.42709
-651,78,-33.275,4.94025,0.0155877,-0.00126473,-0.00998107,0.0202238,-0.00590079,-0.434834,0.0158206,0.0425873,573,946,-33.275,-4.94026
-644,78,-33.0432,4.42206,0.0113336,0.00176777,-0.00673175,0.0148086,-0.0017072,-0.476528,0.0104879,0.0275067,580,946,-33.0432,-4.42204
-637,78,-33.236,4.16437,0.00759198,0.00348043,-0.00396089,0.00999882,0.0010736,-0.546025,0.00633839,0.0170013,587,946,-33.236,-4.16438
-630,78,-33.3499,3.8703,0.00457971,0.00453925,-0.00225786,0.00681743,0.00230153,-0.780918,0.00400466,0.0150246,594,946,-33.3498,-3.87032
-623,78,-33.38,3.54242,0.00135313,0.00451008,-0.0010938,0.00485202,0.00101119,-1.26781,0.00295584,0.0127316,601,946,-33.38,-3.54241
-616,78,-33.3862,3.21698,-0.00195861,0.00361482,-0.000407658,0.00364448,-0.00198827,-1.49817,0.00329859,0.0116821,608,946,-33.3863,-3.217
-609,78,-33.3586,2.92554,-0.00458153,0.00220701,-0.000136575,0.00220976,-0.00458428,-1.55069,0.0040016,0.0126627,615,946,-33.3586,-2.92555
-602,78,-33.3758,2.60846,-0.00623504,0.00159657,-0.000823196,0.00168216,-0.00632063,-1.46719,0.00487225,0.0166955,622,946,-33.3758,-2.60848
-595,78,-33.3284,2.24237,-0.00747937,0.00106955,-0.00129109,0.00126028,-0.0076701,-1.42413,0.00558113,0.0159854,629,946,-33.3284,-2.24239
-588,78,-33.3282,1.9726,-0.00792805,0.000274413,-0.00180979,0.000655975,-0.00830962,-1.36301,0.00577084,0.0144594,636,946,-33.3283,-1.9726
-581,78,-33.2726,1.60583,0,0,0,0,0,0,0,-1,643,946,-33.2726,-1.60582
-574,78,-34.1717,1.30035,0,0,0,0,0,0,0,-1,650,946,-34.1717,-1.30034
-567,78,-34.9606,1.09149,0,0,0,0,0,0,0,-1,657,946,-34.9606,-1.09147
-560,78,-34.8983,0.899841,-0.00612723,0.00121966,-0.00223612,0.00184673,-0.0067543,-1.29739,0.00522831,0.034534,664,946,-34.8983,-0.899834
-553,78,-34.9769,0.711609,-0.00460541,0.00192784,-0.00195557,0.00246846,-0.00514603,-1.30108,0.00448591,0.0410607,671,946,-34.9769,-0.711604
-546,78,-35.1178,0.847412,-0.00237833,0.00276867,-0.00147482,0.00316132,-0.00277098,-1.3106,0.00342748,0.0408959,678,946,-35.1178,-0.847393
-539,78,-35.0804,0.991943,0.0006135,0.00363186,-0.000776998,0.00382013,0.000425225,-1.33307,0.00241751,0.0400297,685,946,-35.0804,-0.991968
-532,78,-34.9439,0.908752,0.0041979,0.00438488,-0.000117017,0.00444117,0.00414161,-1.12244,0.00286615,0.0392892,692,946,-34.9439,-0.908762
-525,78,-34.8177,0.848267,0.0064854,0.00527645,-0.000228791,0.00652725,0.0052346,-0.180916,0.00399102,0.0381201,699,946,-34.8177,-0.848245
-518,78,-34.8545,0.800354,0.00476335,0.00624044,-0.000404914,0.00634415,0.00465963,-1.32004,0.00379468,0.040591,706,946,-34.8545,-0.80034
-511,78,0,0,0,0,0,0,0,0,0,-1,713,946,0,0
-504,78,0,0,0,0,0,0,0,0,0,-1,720,946,0,0
-497,78,0,0,0,0,0,0,0,0,0,-1,727,946,0,0
-490,78,0,0,0,0,0,0,0,0,0,-1,734,946,0,0
-483,78,0,0,0,0,0,0,0,0,0,-1,741,946,0,0
-476,78,0,0,0,0,0,0,0,0,0,-1,748,946,0,0
-469,78,0,0,0,0,0,0,0,0,0,-1,755,946,0,0
-462,78,0,0,0,0,0,0,0,0,0,-1,762,946,0,0
-455,78,0,0,0,0,0,0,0,0,0,-1,769,946,0,0
-448,78,0,0,0,0,0,0,0,0,0,-1,776,946,0,0
-441,78,0,0,0,0,0,0,0,0,0,-1,783,946,0,0
-434,78,0,0,0,0,0,0,0,0,0,-1,790,946,0,0
-427,78,0,0,0,0,0,0,0,0,0,-1,797,946,0,0
-420,78,0,0,0,0,0,0,0,0,0,-1,804,946,0,0
-413,78,0,0,0,0,0,0,0,0,0,-1,811,946,0,0
-406,78,0,0,0,0,0,0,0,0,0,-1,818,946,0,0
-399,78,0,0,0,0,0,0,0,0,0,-1,825,946,0,0
-392,78,0,0,0,0,0,0,0,0,0,-1,832,946,0,0
-385,78,0,0,0,0,0,0,0,0,0,-1,839,946,0,0
-378,78,0,0,0,0,0,0,0,0,0,-1,846,946,0,0
-371,78,0,0,0,0,0,0,0,0,0,-1,853,946,0,0
-364,78,0,0,0,0,0,0,0,0,0,-1,860,946,0,0
-357,78,0,0,0,0,0,0,0,0,0,-1,867,946,0,0
-350,78,0,0,0,0,0,0,0,0,0,-1,874,946,0,0
-343,78,0,0,0,0,0,0,0,0,0,-1,881,946,0,0
-336,78,0,0,0,0,0,0,0,0,0,-1,888,946,0,0
-329,78,0,0,0,0,0,0,0,0,0,-1,895,946,0,0
-322,78,0,0,0,0,0,0,0,0,0,-1,902,946,0,0
-315,78,0,0,0,0,0,0,0,0,0,-1,909,946,0,0
-308,78,0,0,0,0,0,0,0,0,0,-1,916,946,0,0
-301,78,0,0,0,0,0,0,0,0,0,-1,923,946,0,0
-294,78,0,0,0,0,0,0,0,0,0,-1,930,946,0,0
-287,78,0,0,0,0,0,0,0,0,0,-1,937,946,0,0
-280,78,0,0,0,0,0,0,0,0,0,-1,944,946,0,0
-273,78,0,0,0,0,0,0,0,0,0,-1,951,946,0,0
-266,78,0,0,0,0,0,0,0,0,0,-1,958,946,0,0
-259,78,0,0,0,0,0,0,0,0,0,-1,965,946,0,0
-252,78,0,0,0,0,0,0,0,0,0,-1,972,946,0,0
-245,78,0,0,0,0,0,0,0,0,0,-1,979,946,0,0
-238,78,0,0,0,0,0,0,0,0,0,-1,986,946,0,0
-231,78,0,0,0,0,0,0,0,0,0,-1,993,946,0,0
-224,78,0,0,0,0,0,0,0,0,0,-1,1000,946,0,0
-217,78,0,0,0,0,0,0,0,0,0,-1,1007,946,0,0
-210,78,0,0,0,0,0,0,0,0,0,-1,1014,946,0,0
-203,78,0,0,0,0,0,0,0,0,0,-1,1021,946,0,0
-196,78,0,0,0,0,0,0,0,0,0,-1,1028,946,0,0
-189,78,0,0,0,0,0,0,0,0,0,-1,1035,946,0,0
-182,78,0,0,0,0,0,0,0,0,0,-1,1042,946,0,0
-175,78,0,0,0,0,0,0,0,0,0,-1,1049,946,0,0
-168,78,0,0,0,0,0,0,0,0,0,-1,1056,946,0,0
-161,78,0,0,0,0,0,0,0,0,0,-1,1063,946,0,0
-154,78,0,0,0,0,0,0,0,0,0,-1,1070,946,0,0
-147,78,0,0,0,0,0,0,0,0,0,-1,1077,946,0,0
-140,78,0,0,0,0,0,0,0,0,0,-1,1084,946,0,0
-133,78,0,0,0,0,0,0,0,0,0,-1,1091,946,0,0
-126,78,0,0,0,0,0,0,0,0,0,-1,1098,946,0,0
-119,78,0,0,0,0,0,0,0,0,0,-1,1105,946,0,0
-112,78,0,0,0,0,0,0,0,0,0,-1,1112,946,0,0
-105,78,0,0,0,0,0,0,0,0,0,-1,1119,946,0,0
-98,78,0,0,0,0,0,0,0,0,0,-1,1126,946,0,0
-91,78,0,0,0,0,0,0,0,0,0,-1,1133,946,0,0
-84,78,0,0,0,0,0,0,0,0,0,-1,1140,946,0,0
-77,78,0,0,0,0,0,0,0,0,0,-1,1147,946,0,0
-70,78,0,0,0,0,0,0,0,0,0,-1,1154,946,0,0
-63,78,0,0,0,0,0,0,0,0,0,-1,1161,946,0,0
-56,78,0,0,0,0,0,0,0,0,0,-1,1168,946,0,0
-49,78,0,0,0,0,0,0,0,0,0,-1,1175,946,0,0
-42,78,0,0,0,0,0,0,0,0,0,-1,1182,946,0,0
-35,78,0,0,0,0,0,0,0,0,0,-1,1189,946,0,0
-28,78,0,0,0,0,0,0,0,0,0,-1,1196,946,0,0
-21,78,0,0,0,0,0,0,0,0,0,-1,1203,946,0,0
-14,78,0,0,0,0,0,0,0,0,0,-1,1210,946,0,0
-7,78,0,0,0,0,0,0,0,0,0,-1,1217,946,0,0
0,78,0,0,0,0,0,0,0,0,0,-1,1224,946,0,0
7,78,0,0,0,0,0,0,0,0,0,-1,1231,946,0,0
14,78,0,0,0,0,0,0,0,0,0,-1,1238,946,0,0
21,78,0,0,0,0,0,0,0,0,0,-1,1245,946,0,0
28,78,0,0,0,0,0,0,0,0,0,-1,1252,946,0,0
35,78,0,0,0,0,0,0,0,0,0,-1,1259,946,0,0
42,78,0,0,0,0,0,0,0,0,0,-1,1266,946,0,0
49,78,0,0,0,0,0,0,0,0,0,-1,1273,946,0,0
56,78,0,0,0,0,0,0,0,0,0,-1,1280,946,0,0
63,78,0,0,0,0,0,0,0,0,0,-1,1287,946,0,0
70,78,0,0,0,0,0,0,0,0,0,-1,1294,946,0,0
77,78,0,0,0,0,0,0,0,0,0,-1,1301,946,0,0
84,78,0,0,0,0,0,0,0,0,0,-1,1308,946,0,0
91,78,0,0,0,0,0,0,0,0,0,-1,1315,946,0,0
98,78,0,0,0,0,0,0,0,0,0,-1,1322,946,0,0
105,78,0,0,0,0,0,0,0,0,0,-1,1329,946,0,0
112,78,0,0,0,0,0,0,0,0,0,-1,1336,946,0,0
119,78,0,0,0,0,0,0,0,0,0,-1,1343,946,0,0
126,78,0,0,0,0,0,0,0,0,0,-1,1350,946,0,0
133,78,0,0,0,0,0,0,0,0,0,-1,1357,946,0,0
140,78,0,0,0,0,0,0,0,0,0,-1,1364,946,0,0
147,78,0,0,0,0,0,0,0,0,0,-1,1371,946,0,0
154,78,0,0,0,0,0,0,0,0,0,-1,1378,946,0,0
161,78,0,0,0,0,0,0,0,0,0,-1,1385,946,0,0
168,78,0,0,0,0,0,0,0,0,0,-1,1392,946,0,0
175,78,0,0,0,0,0,0,0,0,0,-1,1399,946,0,0
182,78,0,0,0,0,0,0,0,0,0,-1,1406,946,0,0
189,78,0,0,0,0,0,0,0,0,0,-1,1413,946,0,0
196,78,0,0,0,0,0,0,0,0,0,-1,1420,946,0,0
203,78,0,0,0,0,0,0,0,0,0,-1,1427,946,0,0
210,78,0,0,0,0,0,0,0,0,0,-1,1434,946,0,0
217,78,0,0,0,0,0,0,0,0,0,-1,1441,946,0,0
224,78,0,0,0,0,0,0,0,0,0,-1,1448,946,0,0
231,78,0,0,0,0,0,0,0,0,0,-1,1455,946,0,0
238,78,0,0,0,0,0,0,0,0,0,-1,1462,946,0,0
245,78,0,0,0,0,0,0,0,0,0,-1,1469,946,0,0
252,78,0,0,0,0,0,0,0,0,0,-1,1476,946,0,0
259,78,0,0,0,0,0,0,0,0,0,-1,1483,946,0,0
266,78,0,0,0,0,0,0,0,0,0,-1,1490,946,0,0
273,78,0,0,0,0,0,0,0,0,0,-1,1497,946,0,0
280,78,0,0,0,0,0,0,0,0,0,-1,1504,946,0,0
287,78,0,0,0,0,0,0,0,0,0,-1,1511,946,0,0
294,78,0,0,0,0,0,0,0,0,0,-1,1518,946,0,0
301,78,0,0,0,0,0,0,0,0,0,-1,1525,946,0,0
308,78,0,0,0,0,0,0,0,0,0,-1,1532,946,0,0
315,78,0,0,0,0,0,0,0,0,0,-1,1539,946,0,0
322,78,0,0,0,0,0,0,0,0,0,-1,1546,946,0,0
329,78,0,0,0,0,0,0,0,0,0,-1,1553,946,0,0
336,78,0,0,0,0,0,0,0,0,0,-1,1560,946,0,0
343,78,0,0,0,0,0,0,0,0,0,-1,1567,946,0,0
350,78,0,0,0,0,0,0,0,0,0,-1,1574,946,0,0
357,78,0,0,0,0,0,0,0,0,0,-1,1581,946,0,0
364,78,0,0,0,0,0,0,0,0,0,-1,1588,946,0,0
371,78,0,0,0,0,0,0,0,0,0,-1,1595,946,0,0
378,78,0,0,0,0,0,0,0,0,0,-1,1602,946,0,0
385,78,0,0,0,0,0,0,0,0,0,-1,1609,946,0,0
392,78,0,0,0,0,0,0,0,0,0,-1,1616,946,0,0
399,78,0,0,0,0,0,0,0,0,0,-1,1623,946,0,0
406,78,0,0,0,0,0,0,0,0,0,-1,1630,946,0,0
413,78,0,0,0,0,0,0,0,0,0,-1,1637,946,0,0
420,78,0,0,0,0,0,0,0,0,0,-1,1644,946,0,0
427,78,0,0,0,0,0,0,0,0,0,-1,1651,946,0,0
434,78,0,0,0,0,0,0,0,0,0,-1,1658,946,0,0
441,78,0,0,0,0,0,0,0,0,0,-1,1665,946,0,0
448,78,0,0,0,0,0,0,0,0,0,-1,1672,946,0,0
455,78,0,0,0,0,0,0,0,0,0,-1,1679,946,0,0
462,78,0,0,0,0,0,0,0,0,0,-1,1686,946,0,0
469,78,0,0,0,0,0,0,0,0,0,-1,1693,946,0,0
476,78,0,0,0,0,0,0,0,0,0,-1,1700,946,0,0
483,78,0,0,0,0,0,0,0,0,0,-1,1707,946,0,0
490,78,0,0,0,0,0,0,0,0,0,-1,1714,946,0,0
497,78,0,0,0,0,0,0,0,0,0,-1,1721,946,0,0
504,78,0,0,0,0,0,0,0,0,0,-1,1728,946,0,0
511,78,0,0,0,0,0,0,0,0,0,-1,1735,946,0,0
518,78,0,0,0,0,0,0,0,0,0,-1,1742,946,0,0
525,78,0,0,0,0,0,0,0,0,0,-1,1749,946,0,0
532,78,0,0,0,0,0,0,0,0,0,-1,1756,946,0,0
539,78,0,0,0,0,0,0,0,0,0,-1,1763,946,0,0
546,78,0,0,0,0,0,0,0,0,0,-1,1770,946,0,0
553,78,0,0,0,0,0,0,0,0,0,-1,1777,946,0,0
560,78,0,0,0,0,0,0,0,0,0,-1,1784,946,0,0
567,78,0,0,0,0,0,0,0,0,0,-1,1791,946,0,0
574,78,0,0,0,0,0,0,0,0,0,-1,1798,946,0,0
581,78,0,0,0,0,0,0,0,0,0,-1,1805,946,0,0
588,78,0,0,0,0,0,0,0,0,0,-1,1812,946,0,0
595,78,0,0,0,0,0,0,0,0,0,-1,1819,946,0,0
602,78,0,0,0,0,0,0,0,0,0,-1,1826,946,0,0
609,78,0,0,0,0,0,0,0,0,0,-1,1833,946,0,0
616,78,0,0,0,0,0,0,0,0,0,-1,1840,946,0,0
623,78,0,0,0,0,0,0,0,0,0,-1,1847,946,0,0
630,78,0,0,0,0,0,0,0,0,0,-1,1854,946,0,0
637,78,46.7294,2.79803,0.00333877,-0.00192267,-0.00106773,0.00354719,-0.00213109,-0.192777,0.00331217,0.0439651,1861,946,46.7294,-2.79806
644,78,46.6901,2.79144,0.00256622,-0.00133846,-0.00145876,0.00305101,-0.00182325,-0.320848,0.00284376,0.0424332,1868,946,46.69,-2.79147
651,78,46.7635,2.71796,0.00188365,-0.0010567,-0.00154057,0.00254297,-0.00171603,-0.404389,0.00247434,0.0407828,1875,946,46.7635,-2.71796
658,78,46.7318,2.63177,0.00127477,-0.000797514,-0.00135916,0.00194769,-0.00147044,-0.459723,0.00197986,0.036672,1882,946,46.7318,-2.63179
665,78,46.7001,2.6272,0.000876382,-0.000619281,-0.00105772,0.00142394,-0.00116684,-0.477686,0.00149824,0.0372929,1889,946,46.7001,-2.6272
672,78,46.6624,2.49951,0.000471312,-0.000628492,-0.000650902,0.000773505,-0.000930685,-0.434656,0.000985308,0.0408774,1896,946,46.6623,-2.4995
679,78,46.7667,2.53784,0.000234167,-0.000821457,-0.000242418,0.000287175,-0.000874465,-0.215275,0.00069866,0.0413058,1903,946,46.7668,-2.53784
686,78,46.7974,2.54468,0.000146221,-0.00101077,-3.06168e-05,0.000147031,-0.00101158,-0.0264376,0.000728364,0.0360469,1910,946,46.7973,-2.5447
693,78,46.7328,2.58539,0.000104563,-0.00108606,-2.58142e-05,0.000105123,-0.00108662,-0.0216677,0.000761873,0.0318,1917,946,46.7328,-2.58539
700,78,46.7087,2.6095,-0.000210117,-0.0010174,-0.00016368,-0.000178193,-0.00104932,-0.192624,0.000648364,0.0303081,1924,946,46.7087,-2.6095
707,78,46.7734,2.79315,0,0,0,0,0,0,0,-1,1931,946,46.7735,-2.79314
714,78,44.1982,4.17529,0,0,0,0,0,0,0,-1,1938,946,44.1982,-4.17527
721,78,44.1963,4.52881,-0.0015049,1.01992e-05,-0.000490348,0.000155047,-0.00164975,-1.28357,0.00115499,0.0312577,1945,946,44.1963,-4.5288
728,78,44.1917,5.00171,-0.00210512,0.000810868,-0.00077701,0.00100499,-0.00229924,-1.32597,0.00195587,0.0289517,1952,946,44.1916,-5.00171
735,78,44.2579,5.32001,-0.00270475,0.00193148,-0.00143464,0.00233951,-0.00311278,-1.2937,0.00315842,0.0210647,1959,946,44.2579,-5.31999
742,78,44.2805,5.62103,-0.00330481,0.00300923,-0.00226966,0.00374041,-0.00403599,-1.25914,0.00449079,0.0180929,1966,946,44.2805,-5.62101
749,78,44.1703,5.95996,-0.00404084,0.00454275,-0.00345317,0.00575948,-0.00525757,-1.23203,0.00636289,0.0156402,1973,946,44.1703,-5.95998
756,78,44.135,6.2818,-0.0046355,0.00601673,-0.00504811,0.00802893,-0.0066477,-1.19149,0.00848606,0.0158978,1980,946,44.135,-6.28178
763,78,44.0648,6.57062,-0.00513748,0.00761347,-0.00687786,0.0106162,-0.00814026,-1.15915,0.0108605,0.0161716,1987,946,44.0648,-6.57063
770,78,43.9764,6.82672,-0.00516045,0.00863667,-0.00917521,0.0132174,-0.0097412,-1.10775,0.0133057,0.0226795,1994,946,43.9764,-6.82675
777,78,43.8507,7.06628,-0.00469239,0.00861135,-0.0121932,0.0158491,-0.0119301,-1.0351,0.0160915,0.0449294,2001,946,43.8507,-7.06631
784,78,43.7471,7.33478,-0.00313818,0.00687482,-0.0162291,0.0188521,-0.0151155,-0.935011,0.0196507,0.0488473,2008,946,43.747,-7.33479
791,78,43.3472,7.42676,0,0,0,0,0,0,0,-1,2015,946,43.3471,-7.42673
798,78,44.5208,7.38416,0,0,0,0,0,0,0,-1,2022,946,44.5207,-7.38413
805,78,44.4521,7.54877,0,0,0,0,0,0,0,-1,2029,946,44.4522,-7.54875
812,78,0,0,0,0,0,0,0,0,0,-1,2036,946,0,0
-700,71,0,0,0,0,0,0,0,0,0,-1,524,953,0,0
-693,71,0,0,0,0,0,0,0,0,0,-1,531,953,0,0
-686,71,-33.8169,6.89636,0.0270392,-0.0266175,-0.0215986,0.034653,-0.0342313,-0.338911,0.0397706,0.0429933,538,953,-33.8169,-6.89638
-679,71,-33.8407,6.58746,0.0293099,-0.0189136,-0.0221172,0.0379174,-0.0275211,-0.37114,0.0379395,0.0473703,545,953,-33.8407,-6.58744
-672,71,-33.8689,6.28564,0.0276216,-0.0117134,-0.0202841,0.0362075,-0.0202994,-0.400415,0.0330524,0.0485699,552,953,-33.8689,-6.28567
-665,71,-33.4521,5.57422,0.0239582,-0.00549604,-0.017328,0.031972,-0.0135098,-0.43318,0.0269704,0.0438567,559,953,-33.4521,-5.57421
-658,71,-33.4897,4.97205,0,0,0,0,0,0,0,-1,566,953,-33.4898,-4.97202
-651,71,-33.5115,4.65338,0.0148072,0.00312464,-0.0101878,0.0207095,-0.00277763,-0.525097,0.0148192,0.046823,573,953,-33.5115,-4.65339
-644,71,-33.4235,4.36353,0.0104786,0.0053318,-0.00679674,0.0151728,0.00063759,-0.604427,0.0099095,0.0338499,580,953,-33.4235,-4.36355
-637,71,-33.6053,4.10925,0.00677987,0.00625772,-0.00403168,0.0105589,0.00247867,-0.753065,0.00637574,0.0169557,587,953,-33.6054,-4.10925
-630,71,-33.6871,3.8219,0.00384747,0.00667241,-0.00246461,0.00810061,0.00241928,-1.0456,0.00480163,0.0149617,594,953,-33.6871,-3.82192
-623,71,-33.7124,3.49701,0.000815025,0.00609959,-0.00149597,0.00649368,0.000420932,-1.31321,0.00419585,0.014467,601,953,-33.7124,-3.49701
-616,71,-33.7341,3.1579,-0.00224129,0.0048148,-0.00102821,0.00496158,-0.00238806,-1.429,0.00432916,0.015132,608,953,-33.7341,-3.1579
-609,71,-33.6852,2.90375,-0.00460261,0.00313476,-0.000940114,0.00324735,-0.0047152,-1.4516,0.00462315,0.0158695,615,953,-33.6853,-2.90375
-602,71,-33.6459,2.60931,-0.00596227,0.00229453,-0.0017978,0.00266899,-0.00633673,-1.36544,0.00534126,0.0164635,622,953,-33.6459,-2.60929
-595,71,-33.6531,2.35162,-0.00702137,0.00147493,-0.00234545,0.0020794,-0.00762584,-1.31857,0.00590045,0.0168971,629,953,-33.6531,-2.35161
-588,71,-33.646,2.1073,-0.0073341,0.000540876,-0.002929,0.00151081,-0.00830404,-1.25101,0.0061023,0.0207317,636,953,-33.646,-2.10728
-581,71,-33.912,1.56573,-0.00715904,0.000229618,-0.00328684,0.00148012,-0.00840954,-1.20725,0.0061593,0.0369874,643,953,-33.912,-1.56574
-574,71,-34.6848,1.07697,-0.00681764,0.000240508,-0.00344026,0.0016399,-0.00821703,-1.18447,0.00609859,0.0413283,650,953,-34.6848,-1.077
-567,71,-34.9991,0.806396,-0.00622611,0.00064567,-0.00344335,0.00207414,-0.00765458,-1.17756,0.00591688,0.0217054,657,953,-34.9992,-0.806386
-560,71,-34.9849,0.833923,-0.00520153,0.00113024,-0.00323083,0.00248775,-0.00655904,-1.17302,0.00539659,0.0312148,664,953,-34.9849,-0.8339
-553,71,-34.8529,0.545532,-0.00350104,0.00180246,-0.00275076,0.0029715,-0.00467008,-1.16893,0.00444805,0.0443604,671,953,-34.8529,-0.545554
-546,71,-34.5731,0.463867,0,0,0,0,0,0,0,-1,678,953,-34.5731,-0.463882
-539,71,-35.0037,1.07941,0.00200232,0.00338207,-0.000989006,0.00389804,0.00148635,-1.08994,0.00227157,0.0416501,685,953,-35.0037,-1.0794
-532,71,-34.8029,0.771423,0.00555832,0.00406729,-9.65939e-05,0.00556456,0.00406106,-0.0644244,0.00332389,0.0441629,692,953,-34.8029,-0.771411
-525,71,-34.7393,0.792969,0.00755315,0.00505453,-0.000260764,0.00758007,0.0050276,-0.102886,0.00445345,0.0421671,699,953,-34.7393,-0.792982
-518,71,0,0,0,0,0,0,0,0,0,-1,706,953,0,0
-511,71,0,0,0,0,0,0,0,0,0,-1,713,953,0,0
-504,71,0,0,0,0,0,0,0,0,0,-1,720,953,0,0
-497,71,0,0,0,0,0,0,0,0,0,-1,727,953,0,0
-490,71,0,0,0,0,0,0,0,0,0,-1,734,953,0,0
-483,71,0,0,0,0,0,0,0,0,0,-1,741,953,0,0
-476,71,0,0,0,0,0,0,0,0,0,-1,748,953,0,0
-469,71,0,0,0,0,0,0,0,0,0,-1,755,953,0,0
-462,71,0,0,0,0,0,0,0,0,0,-1,762,953,0,0
-455,71,0,0,0,0,0,0,0,0,0,-1,769,953,0,0
-448,71,0,0,0,0,0,0,0,0,0,-1,776,953,0,0
-441,71,0,0,0,0,0,0,0,0,0,-1,783,953,0,0
-434,71,0,0,0,0,0,0,0,0,0,-1,790,953,0,0
-427,71,0,0,0,0,0,0,0,0,0,-1,797,953,0,0
-420,71,0,0,0,0,0,0,0,0,0,-1,804,953,0,0
-413,71,0,0,0,0,0,0,0,0,0,-1,811,953,0,0
-406,71,0,0,0,0,0,0,0,0,0,-1,818,953,0,0
-399,71,0,0,0,0,0,0,0,0,0,-1,825,953,0,0
-392,71,0,0,0,0,0,0,0,0,0,-1,832,953,0,0
-385,71,0,0,0,0,0,0,0,0,0,-1,839,953,0,0
-378,71,0,0,0,0,0,0,0,0,0,-1,846,953,0,0
-371,71,0,0,0,0,0,0,0,0,0,-1,853,953,0,0
-364,71,0,0,0,0,0,0,0,0,0,-1,860,953,0,0
-357,71,0,0,0,0,0,0,0,0,0,-1,867,953,0,0
-350,71,0,0,0,0,0,0,0,0,0,-1,874,953,0,0
-343,71,0,0,0,0,0,0,0,0,0,-1,881,953,0,0
-336,71,0,0,0,0,0,0,0,0,0,-1,888,953,0,0
-329,71,0,0,0,0,0,0,0,0,0,-1,895,953,0,0
-322,71,0,0,0,0,0,0,0,0,0,-1,902,953,0,0
-315,71,0,0,0,0,0,0,0,0,0,-1,909,953,0,0
-308,71,0,0,0,0,0,0,0,0,0,-1,916,953,0,0
-301,71,0,0,0,0,0,0,0,0,0,-1,923,953,0,0
-294,71,0,0,0,0,0,0,0,0,0,-1,930,953,0,0
-287,71,0,0,0,0,0,0,0,0,0,-1,937,953,0,0
-280,71,0,0,0,0,0,0,0,0,0,-1,944,953,0,0
-273,71,0,0,0,0,0,0,0,0,0,-1,951,953,0,0
-266,71,0,0,0,0,0,0,0,0,0,-1,958,953,0,0
-259,71,0,0,0,0,0,0,0,0,0,-1,965,953,0,0
-252,71,0,0,0,0,0,0,0,0,0,-1,972,953,0,0
-245,71,0,0,0,0,0,0,0,0,0,-1,979,953,0,0
-238,71,0,0,0,0,0,0,0,0,0,-1,986,953,0,0
-231,71,0,0,0,0,0,0,0,0,0,-1,993,953,0,0
-224,71,0,0,0,0,0,0,0,0,0,-1,1000,953,0,0
-217,71,0,0,0,0,0,0,0,0,0,-1,1007,953,0,0
-210,71,0,0,0,0,0,0,0,0,0,-1,1014,953,0,0
-203,71,0,0,0,0,0,0,0,0,0,-1,1021,953,0,0
-196,71,0,0,0,0,0,0,0,0,0,-1,1028,953,0,0
-189,71,0,0,0,0,0,0,0,0,0,-1,1035,953,0,0
-182,71,0,0,0,0,0,0,0,0,0,-1,1042,953,0,0
-175,71,0,0,0,0,0,0,0,0,0,-1,1049,953,0,0
-168,71,0,0,0,0,0,0,0,0,0,-1,1056,953,0,0
-161,71,0,0,0,0,0,0,0,0,0,-1,1063,953,0,0
-154,71,0,0,0,0,0,0,0,0,0,-1,1070,953,0,0
-147,71,0,0,0,0,0,0,0,0,0,-1,1077,953,0,0
-140,71,0,0,0,0,0,0,0,0,0,-1,1084,953,0,0
-133,71,0,0,0,0,0,0,0,0,0,-1,1091,953,0,0
-126,71,0,0,0,0,0,0,0,0,0,-1,1098,953,0,0
-119,71,0,0,0,0,0,0,0,0,0,-1,1105,953,0,0
-112,71,0,0,0,0,0,0,0,0,0,-1,1112,953,0,0
-105,71,0,0,0,0,0,0,0,0,0,-1,1119,953,0,0
-98,71,0,0,0,0,0,0,0,0,0,-1,1126,953,0,0
-91,71,0,0,0,0,0,0,0,0,0,-1,1133,953,0,0
-84,71,0,0,0,0,0,0,0,0,0,-1,1140,953,0,0
-77,71,0,0,0,0,0,0,0,0,0,-1,1147,953,0,0
-70,71,0,0,0,0,0,0,0,0,0,-1,1154,953,0,0
-63,71,0,0,0,0,0,0,0,0,0,-1,1161,953,0,0
-56,71,0,0,0,0,0,0,0,0,0,-1,1168,953,0,0
-49,71,0,0,0,0,0,0,0,0,0,-1,1175,953,0,0
-42,71,0,0,0,0,0,0,0,0,0,-1,1182,953,0,0
-35,71,0,0,0,0,0,0,0,0,0,-1,1189,953,0,0
-28,71,0,0,0,0,0,0,0,0,0,-1,1196,953,0,0
-21,71,0,0,0,0,0,0,0,0,0,-1,1203,953,0,0
-14,71,0,0,0,0,0,0,0,0,0,-1,1210,953,0,0
-7,71,0,0,0,0,0,0,0,0,0,-1,1217,953,0,0
0,71,0,0,0,0,0,0,0,0,0,-1,1224,953,0,0
7,71,0,0,0,0,0,0,0,0,0,-1,1231,953,0,0
14,71,0,0,0,0,0,0,0,0,0,-1,1238,953,0,0
21,71,0,0,0,0,0,0,0,0,0,-1,1245,953,0,0
28,71,0,0,0,0,0,0,0,0,0,-1,1252,953,0,0
35,71,0,0,0,0,0,0,0,0,0,-1,1259,953,0,0
42,71,0,0,0,0,0,0,0,0,0,-1,1266,953,0,0
49,71,0,0,0,0,0,0,0,0,0,-1,1273,953,0,0
56,71,0,0,0,0,0,0,0,0,0,-1,1280,953,0,0
63,71,0,0,0,0,0,0,0,0,0,-1,1287,953,0,0
70,71,0,0,0,0,0,0,0,0,0,-1,1294,953,0,0
77,71,0,0,0,0,0,0,0,0,0,-1,1301,953,0,0
84,71,0,0,0,0,0,0,0,0,0,-1,1308,953,0,0
91,71,0,0,0,0,0,0,0,0,0,-1,1315,953,0,0
98,71,0,0,0,0,0,0,0,0,0,-1,1322,953,0,0
105,71,0,0,0,0,0,0,0,0,0,-1,1329,953,0,0
112,71,0,0,0,0,0,0,0,0,0,-1,1336,953,0,0
119,71,0,0,0,0,0,0,0,0,0,-1,1343,953,0,0
126,71,0,0,0,0,0,0,0,0,0,-1,1350,953,0,0
133,71,0,0,0,0,0,0,0,0,0,-1,1357,953,0,0
140,71,0,0,0,0,0,0,0,0,0,-1,1364,953,0,0
147,71,0,0,0,0,0,0,0,0,0,-1,1371,953,0,0
154,71,0,0,0,0,0,0,0,0,0,-1,1378,953,0,0
161,71,0,0,0,0,0,0,0,0,0,-1,1385,953,0,0
168,71,0,0,0,0,0,0,0,0,0,-1,1392,953,0,0
175,71,0,0,0,0,0,0,0,0,0,-1,1399,953,0,0
182,71,0,0,0,0,0,0,0,0,0,-1,1406,953,0,0
189,71,0,0,0,0,0,0,0,0,0,-1,1413,953,0,0
196,71,0,0,0,0,0,0,0,0,0,-1,1420,953,0,0
203,71,0,0,0,0,0,0,0,0,0,-1,1427,953,0,0
210,71,0,0,0,0,0,0,0,0,0,-1,1434,953,0,0
217,71,0,0,0,0,0,0,0,0,0,-1,1441,953,0,0
224,71,0,0,0,0,0,0,0,0,0,-1,1448,953,0,0
231,71,0,0,0,0,0,0,0,0,0,-1,1455,953,0,0
238,71,0,0,0,0,0,0,0,0,0,-1,1462,953,0,0
245,71,0,0,0,0,0,0,0,0,0,-1,1469,953,0,0
252,71,0,0,0,0,0,0,0,0,0,-1,1476,953,0,0
259,71,0,0,0,0,0,0,0,0,0,-1,1483,953,0,0
266,71,0,0,0,0,0,0,0,0,0,-1,1490,953,0,0
273,71,0,0,0,0,0,0,0,0,0,-1,1497,953,0,0
280,71,0,0,0,0,0,0,0,0,0,-1,1504,953,0,0
287,71,0,0,0,0,0,0,0,0,0,-1,1511,953,0,0
294,71,0,0,0,0,0,0,0,0,0,-1,1518,953,0,0
301,71,0,0,0,0,0,0,0,0,0,-1,1525,953,0,0
308,71,0,0,0,0,0,0,0,0,0,-1,1532,953,0,0
315,71,0,0,0,0,0,0,0,0,0,-1,1539,953,0,0
322,71,0,0,0,0,0,0,0,0,0,-1,1546,953,0,0
329,71,0,0,0,0,0,0,0,0,0,-1,1553,953,0,0
336,71,0,0,0,0,0,0,0,0,0,-1,1560,953,0,0
343,71,0,0,0,0,0,0,0,0,0,-1,1567,953,0,0
350,71,0,0,0,0,0,0,0,0,0,-1,1574,953,0,0
357,71,0,0,0,0,0,0,0,0,0,-1,1581,953,0,0
364,71,0,0,0,0,0,0,0,0,0,-1,1588,953,0,0
371,71,0,0,0,0,0,0,0,0,0,-1,1595,953,0,0
378,71,0,0,0,0,0,0,0,0,0,-1,1602,953,0,0
385,71,0,0,0,0,0,0,0,0,0,-1,1609,953,0,0
392,71,0,0,0,0,0,0,0,0,0,-1,1616,953,0,0
399,71,0,0,0,0,0,0,0,0,0,-1,1623,953,0,0
406,71,0,0,0,0,0,0,0,0,0,-1,1630,953,0,0
413,71,0,0,0,0,0,0,0,0,0,-1,1637,953,0,0
420,71,0,0,0,0,0,0,0,0,0,-1,1644,953,0,0
427,71,0,0,0,0,0,0,0,0,0,-1,1651,953,0,0
434,71,0,0,0,0,0,0,0,0,0,-1,1658,953,0,0
441,71,0,0,0,0,0,0,0,0,0,-1,1665,953,0,0
448,71,0,0,0,0,0,0,0,0,0,-1,1672,953,0,0
455,71,0,0,0,0,0,0,0,0,0,-1,1679,953,0,0
462,71,0,0,0,0,0,0,0,0,0,-1,1686,953,0,0
469,71,0,0,0,0,0,0,0,0,0,-1,1693,953,0,0
476,71,0,0,0,0,0,0,0,0,0,-1,1700,953,0,0
483,71,0,0,0,0,0,0,0,0,0,-1,1707,953,0,0
490,71,0,0,0,0,0,0,0,0,0,-1,1714,953,0,0
497,71,0,0,0,0,0,0,0,0,0,-1,1721,953,0,0
504,71,0,0,0,0,0,0,0,0,0,-1,1728,953,0,0
511,71,0,0,0,0,0,0,0,0,0,-1,1735,953,0,0
518,71,0,0,0,0,0,0,0,0,0,-1,1742,953,0,0
525,71,0,0,0,0,0,0,0,0,0,-1,1749,953,0,0
532,71,0,0,0,0,0,0,0,0,0,-1,1756,953,0,0
539,71,0,0,0,0,0,0,0,0,0,-1,1763,953,0,0
546,71,0,0,0,0,0,0,0,0,0,-1,1770,953,0,0
553,71,0,0,0,0,0,0,0,0,0,-1,1777,953,0,0
560,71,0,0,0,0,0,0,0,0,0,-1,1784,953,0,0
567,71,0,0,0,0,0,0,0,0,0,-1,1791,953,0,0
574,71,0,0,0,0,0,0,0,0,0,-1,1798,953,0,0
581,71,0,0,0,0,0,0,0,0,0,-1,1805,953,0,0
588,71,0,0,0,0,0,0,0,0,0,-1,1812,953,0,0
595,71,0,0,0,0,0,0,0,0,0,-1,1819,953,0,0
602,71,0,0,0,0,0,0,0,0,0,-1,1826,953,0,0
609,71,0,0,0,0,0,0,0,0,0,-1,1833,953,0,0
616,71,0,0,0,0,0,0,0,0,0,-1,1840,953,0,0
623,71,0,0,0,0,0,0,0,0,0,-1,1847,953,0,0
630,71,0,0,0,0,0,0,0,0,0,-1,1854,953,0,0
637,71,46.7445,2.67902,0.00395233,-0.000597128,-0.000130644,0.00395608,-0.000600876,-0.0286849,0.0028588,0.0378181,1861,953,46.7445,-2.679
644,71,46.5734,2.99951,0.0030121,-0.000371944,-0.000864386,0.00322011,-0.000579949,-0.236149,0.00236389,0.0413576,1868,953,46.5734,-2.9995
651,71,46.724,3.05176,0.00218375,-0.000356054,-0.00117667,0.00264509,-0.000817397,-0.373655,0.00208984,0.039582,1875,953,46.724,-3.05176
658,71,46.8174,2.73718,0.00142637,-0.00031688,-0.00113017,0.00198198,-0.000872493,-0.456921,0.00168902,0.0366579,1882,953,46.8174,-2.73718
665,71,46.6846,2.672,0.00083802,-0.000257957,-0.000905672,0.00134858,-0.000768521,-0.513331,0.00123751,0.037478,1889,953,46.6846,-2.67197
672,71,46.6688,2.58734,0.000263077,-0.000297569,-0.000532962,0.000584941,-0.000619433,-0.543294,0.000695441,0.0391559,1896,953,46.6688,-2.58732
679,71,46.7223,2.61377,-8.02108e-05,-0.000435568,-9.3593e-05,-5.70677e-05,-0.000458711,-0.242411,0.000288671,0.0389787,1903,953,46.7224,-2.61377
686,71,46.7512,2.55621,-0.000209498,-0.000604993,0.000145335,-0.000161835,-0.000652655,0.3169,0.000392444,0.0352523,1910,953,46.7512,-2.55623
693,71,46.7646,2.44312,-0.000279807,-0.000680838,0.000179909,-0.000210928,-0.000749717,0.365642,0.000446433,0.0335222,1917,953,46.7646,-2.44314
700,71,46.7235,2.45422,-0.000624383,-0.000610441,9.51372e-05,-0.00052202,-0.000712804,0.82197,0.000426092,0.0361049,1924,953,46.7235,-2.45425
707,71,46.6432,2.95148,0,0,0,0,0,0,0,-1,1931,953,46.6431,-2.95149
714,71,44.939,4.30365,0,0,0,0,0,0,0,-1,1938,953,44.939,-4.30367
721,71,44.7224,4.60162,-0.00187121,0.000490646,-0.000229992,0.000512834,-0.0018934,-1.47462,0.00146348,0.0423153,1945,953,44.7225,-4.60163
728,71,44.5416,5.02417,-0.00242578,0.0013258,-0.000523759,0.00139755,-0.00249753,-1.43465,0.00227852,0.0249575,1952,953,44.5416,-5.0242
735,71,44.5662,5.37659,-0.00298302,0.00241189,-0.00121168,0.00267153,-0.00324266,-1.35971,0.00341987,0.0190214,1959,953,44.5662,-5.37662
742,71,44.595,5.65918,-0.00356012,0.00336782,-0.00210637,0.00395797,-0.00415027,-1.29763,0.00468173,0.0196123,1966,953,44.595,-5.6592
749,71,44.55,5.9472,-0.00420165,0.00469859,-0.00340902,0.00585427,-0.00535733,-1.24395,0.00647514,0.0188748,1973,953,44.5501,-5.9472
756,71,44.533,6.24249,-0.00467106,0.00586988,-0.00524265,0.00803333,-0.00683451,-1.17942,0.00859325,0.0174505,1980,953,44.5329,-6.24251
763,71,44.4862,6.56134,-0.00506414,0.00710713,-0.0074229,0.0106202,-0.00857718,-1.12876,0.0111045,0.0202418,1987,953,44.4862,-6.56136
770,71,44.2806,6.74573,-0.00495739,0.00775493,-0.0101249,0.0133534,-0.0105559,-1.0657,0.0138355,0.0250806,1994,953,44.2806,-6.74571
777,71,44.1948,6.92389,-0.004307,0.00732254,-0.0135711,0.0162721,-0.0132566,-0.9878,0.017078,0.0459864,2001,953,44.1948,-6.92391
784,71,44.3486,7.07574,-0.00256642,0.00518129,-0.0180679,0.019786,-0.0171711,-0.891002,0.021355,0.0461185,2008,953,44.3486,-7.07575
791,71,44.1899,7.33759,0,0,0,0,0,0,0,-1,2015,953,44.19,-7.3376
798,71,45.0645,6.52448,0,0,0,0,0,0,0,-1,2022,953,45.0644,-6.52449
805,71,45.0161,6.63287,0,0,0,0,0,0,0,-1,2029,953,45.0161,-6.63289
812,71,0,0,0,0,0,0,0,0,0,-1,2036,953,0,0
-700,64,0,0,0,0,0,0,0,0,0,-1,524,960,0,0
-693,64,0,0,0,0,0,0,0,0,0,-1,531,960,0,0
-686,64,-34.1302,7.16254,0,0,0,0,0,0,0,-1,538,960,-34.1302,-7.16252
-679,64,-34.1961,6.89709,0,0,0,0,0,0,0,-1,545,960,-34.1961,-6.89707
-672,64,-33.9867,6.36176,0.026768,-0.00639919,-0.0205692,0.0366062,-0.0162374,-0.446133,0.0312556,0.0485983,552,960,-33.9867,-6.36173
-665,64,-32.9771,4.94891,0.0223991,-0.000682186,-0.0172464,0.03161,-0.00989308,-0.490535,0.0250314,0.0456617,559,960,-32.9771,-4.94893
-658,64,-33.8191,4.62878,0,0,0,0,0,0,0,-1,566,960,-33.8191,-4.62881
-651,64,-33.9153,4.44434,0.0126653,0.00665438,-0.00973325,0.0198465,-0.00052687,-0.635651,0.0134101,0.0470043,573,960,-33.9153,-4.44431
-644,64,-33.921,4.18329,0.00839284,0.00817986,-0.00631737,0.0146046,0.00196809,-0.776971,0.0091512,0.034209,580,960,-33.921,-4.18327
-637,64,-33.9534,3.96399,0.00495502,0.00845514,-0.00368176,0.0107816,0.00262856,-1.00726,0.00649144,0.0171266,587,960,-33.9534,-3.96396
-630,64,-34.0132,3.72784,0.00234823,0.00833101,-0.0023421,0.00913881,0.00154043,-1.23867,0.00564951,0.0137287,594,960,-34.0132,-3.72783
-623,64,-34.0243,3.47437,-0.000233797,0.00732181,-0.0016681,0.0076737,-0.000585686,-1.36289,0.00532178,0.0148806,601,960,-34.0243,-3.47439
-616,64,-34.0448,3.17426,-0.00284347,0.00577345,-0.00147744,0.00601974,-0.00308975,-1.40562,0.00534928,0.0188843,608,960,-34.0448,-3.17427
-609,64,-33.9999,2.93121,-0.00479626,0.00392485,-0.00161584,0.00421461,-0.00508602,-1.39336,0.00537757,0.0174791,615,960,-33.9999,-2.9312
-602,64,-33.9551,2.67249,-0.0057417,0.00291073,-0.00264956,0.00365762,-0.00648858,-1.29604,0.00593343,0.0160284,622,960,-33.9551,-2.67248
-595,64,-33.989,2.43439,-0.00646112,0.00189877,-0.00329608,0.00304199,-0.00760434,-1.23694,0.006332,0.0185382,629,960,-33.989,-2.4344
-588,64,-33.9831,2.24493,-0.00659439,0.000857093,-0.0039341,0.00254968,-0.00828698,-1.1645,0.00654231,0.0301526,636,960,-33.9831,-2.24492
-581,64,-34.2784,1.60553,-0.00631025,0.00038295,-0.00436014,0.00253276,-0.00846007,-1.11272,0.00664713,0.0426315,643,960,-34.2784,-1.60554
-574,64,-34.8584,0.964233,-0.00592661,0.000221757,-0.00450927,0.00260506,-0.00830991,-1.08458,0.00658243,0.042649,650,960,-34.8584,-0.964205
-567,64,-34.9326,0.823975,-0.0052918,0.000477526,-0.00442211,0.00287267,-0.00768694,-1.0744,0.00630426,0.0255147,657,960,-34.9326,-0.823949
-560,64,-34.9364,0.882202,-0.00419486,0.000821494,-0.00401412,0.00304661,-0.00641998,-1.06464,0.00558001,0.0354978,664,960,-34.9364,-0.882205
-553,64,-34.787,0.585449,-0.00243392,0.00131302,-0.00328156,0.00321824,-0.00433914,-1.04478,0.00437922,0.0405772,671,960,-34.787,-0.585458
-546,64,-34.7106,0.584473,-6.76942e-08,0.00187691,-0.00221393,0.00334305,-0.00146621,-0.985868,0.00284623,0.0421637,678,960,-34.7106,-0.58446
-539,64,-35.1214,0.907349,0.00303557,0.00237921,-0.000849784,0.00361834,0.00179644,-0.601125,0.00208907,0.043587,685,960,-35.1214,-0.907368
-532,64,-35.0472,0.761963,0.00638252,0.00278591,0.000252408,0.00640014,0.00276829,0.069724,0.00370632,0.0462232,692,960,-35.0473,-0.761978
-525,64,-34.7855,0.548401,0.00797275,0.00363943,5.96012e-05,0.00797357,0.00363861,0.0137507,0.00460939,0.044133,699,960,-34.7855,-0.548382
-518,64,0,0,0,0,0,0,0,0,0,-1,706,960,0,0
-511,64,0,0,0,0,0,0,0,0,0,-1,713,960,0,0
-504,64,0,0,0,0,0,0,0,0,0,-1,720,960,0,0
-497,64,0,0,0,0,0,0,0,0,0,-1,727,960,0,0
-490,64,0,0,0,0,0,0,0,0,0,-1,734,960,0,0
-483,64,0,0,0,0,0,0,0,0,0,-1,741,960,0,0
-476,64,0,0,0,0,0,0,0,0,0,-1,748,960,0,0
-469,64,0,0,0,0,0,0,0,0,0,-1,755,960,0,0
-462,64,0,0,0,0,0,0,0,0,0,-1,762,960,0,0
-455,64,0,0,0,0,0,0,0,0,0,-1,769,960,0,0
-448,64,0,0,0,0,0,0,0,0,0,-1,776,960,0,0
-441,64,0,0,0,0,0,0,0,0,0,-1,783,960,0,0
-434,64,0,0,0,0,0,0,0,0,0,-1,790,960,0,0
-427,64,0,0,0,0,0,0,0,0,0,-1,797,960,0,0
-420,64,0,0,0,0,0,0,0,0,0,-1,804,960,0,0
-413,64,0,0,0,0,0,0,0,0,0,-1,811,960,0,0
-406,64,0,0,0,0,0,0,0,0,0,-1,818,960,0,0
-399,64,0,0,0,0,0,0,0,0,0,-1,825,960,0,0
-392,64,0,0,0,0,0,0,0,0,0,-1,832,960,0,0
-385,64,0,0,0,0,0,0,0,0,0,-1,839,960,0,0
-378,64,0,0,0,0,0,0,0,0,0,-1,846,960,0,0
-371,64,0,0,0,0,0,0,0,0,0,-1,853,960,0,0
-364,64,0,0,0,0,0,0,0,0,0,-1,860,960,0,0
-357,64,0,0,0,0,0,0,0,0,0,-1,867,960,0,0
-350,64,0,0,0,0,0,0,0,0,0,-1,874,960,0,0
-343,64,0,0,0,0,0,0,0,0,0,-1,881,960,0,0
-336,64,0,0,0,0,0,0,0,0,0,-1,888,960,0,0
-329,64,0,0,0,0,0,0,0,0,0,-1,895,960,0,0
-322,64,0,0,0,0,0,0,0,0,0,-1,902,960,0,0
-315,64,0,0,0,0,0,0,0,0,0,-1,909,960,0,0
-308,64,0,0,0,0,0,0,0,0,0,-1,916,960,0,0
-301,64,0,0,0,0,0,0,0,0,0,-1,923,960,0,0
-294,64,0,0,0,0,0,0,0,0,0,-1,930,960,0,0
-287,64,0,0,0,0,0,0,0,0,0,-1,937,960,0,0
-280,64,0,0,0,0,0,0,0,0,0,-1,944,960,0,0
-273,64,0,0,0,0,0,0,0,0,0,-1,951,960,0,0
-266,64,0,0,0,0,0,0,0,0,0,-1,958,960,0,0
-259,64,0,0,0,0,0,0,0,0,0,-1,965,960,0,0
-252,64,0,0,0,0,0,0,0,0,0,-1,972,960,0,0
-245,64,0,0,0,0,0,0,0,0,0,-1,979,960,0,0
-238,64,0,0,0,0,0,0,0,0,0,-1,986,960,0,0
-231,64,0,0,0,0,0,0,0,0,0,-1,993,960,0,0
-224,64,0,0,0,0,0,0,0,0,0,-1,1000,960,0,0
-217,64,0,0,0,0,0,0,0,0,0,-1,1007,960,0,0
-210,64,0,0,0,0,0,0,0,0,0,-1,1014,960,0,0
-203,64,0,0,0,0,0,0,0,0,0,-1,1021,960,0,0
-196,64,0,0,0,0,0,0,0,0,0,-1,1028,960,0,0
-189,64,0,0,0,0,0,0,0,0,0,-1,1035,960,0,0
-182,64,0,0,0,0,0,0,0,0,0,-1,1042,960,0,0
-175,64,0,0,0,0,0,0,0,0,0,-1,1049,960,0,0
-168,64,0,0,0,0,0,0,0,0,0,-1,1056,960,0,0
-161,64,0,0,0,0,0,0,0,0,0,-1,1063,960,0,0
-154,64,0,0,0,0,0,0,0,0,0,-1,1070,960,0,0
-147,64,0,0,0,0,0,0,0,0,0,-1,1077,960,0,0
-140,64,0,0,0,0,0,0,0,0,0,-1,1084,960,0,0
-133,64,0,0,0,0,0,0,0,0,0,-1,1091,960,0,0
-126,64,0,0,0,0,0,0,0,0,0,-1,1098,960,0,0
-119,64,0,0,0,0,0,0,0,0,0,-1,1105,960,0,0
-112,64,0,0,0,0,0,0,0,0,0,-1,1112,960,0,0
-105,64,0,0,0,0,0,0,0,0,0,-1,1119,960,0,0
-98,64,0,0,0,0,0,0,0,0,0,-1,1126,960,0,0
-91,64,0,0,0,0,0,0,0,0,0,-1,1133,960,0,0
-84,64,0,0,0,0,0,0,0,0,0,-1,1140,960,0,0
-77,64,0,0,0,0,0,0,0,0,0,-1,1147,960,0,0
-70,64,0,0,0,0,0,0,0,0,0,-1,1154,960,0,0
-63,64,0,0,0,0,0,0,0,0,0,-1,1161,960,0,0
-56,64,0,0,0,0,0,0,0,0,0,-1,1168,960,0,0
-49,64,0,0,0,0,0,0,0,0,0,-1,1175,960,0,0
-42,64,0,0,0,0,0,0,0,0,0,-1,1182,960,0,0
-35,64,0,0,0,0,0,0,0,0,0,-1,1189,960,0,0
-28,64,0,0,0,0,0,0,0,0,0,-1,1196,960,0,0
-21,64,0,0,0,0,0,0,0,0,0,-1,1203,960,0,0
-14,64,0,0,0,0,0,0,0,0,0,-1,1210,960,0,0
-7,64,0,0,0,0,0,0,0,0,0,-1,1217,960,0,0
0,64,0,0,0,0,0,0,0,0,0,-1,1224,960,0,0
7,64,0,0,0,0,0,0,0,0,0,-1,1231,960,0,0
14,64,0,0,0,0,0,0,0,0,0,-1,1238,960,0,0
21,64,0,0,0,0,0,0,0,0,0,-1,1245,960,0,0
28,64,0,0,0,0,0,0,0,0,0,-1,1252,960,0,0
35,64,0,0,0,0,0,0,0,0,0,-1,1259,960,0,0
42,64,0,0,0,0,0,0,0,0,0,-1,1266,960,0,0
49,64,0,0,0,0,0,0,0,0,0,-1,1273,960,0,0
56,64,0,0,0,0,0,0,0,0,0,-1,1280,960,0,0
63,64,0,0,0,0,0,0,0,0,0,-1,1287,960,0,0
70,64,0,0,0,0,0,0,0,0,0,-1,1294,960,0,0
77,64,0,0,0,0,0,0,0,0,0,-1,1301,960,0,0
84,64,0,0,0,0,0,0,0,0,0,-1,1308,960,0,0
91,64,0,0,0,0,0,0,0,0,0,-1,1315,960,0,0
98,64,0,0,0,0,0,0,0,0,0,-1,1322,960,0,0
105,64,0,0,0,0,0,0,0,0,0,-1,1329,960,0,0
112,64,0,0,0,0,0,0,0,0,0,-1,1336,960,0,0
119,64,0,0,0,0,0,0,0,0,0,-1,1343,960,0,0
126,64,0,0,0,0,0,0,0,0,0,-1,1350,960,0,0
133,64,0,0,0,0,0,0,0,0,0,-1,1357,960,0,0
140,64,0,0,0,0,0,0,0,0,0,-1,1364,960,0,0
147,64,0,0,0,0,0,0,0,0,0,-1,1371,960,0,0
154,64,0,0,0,0,0,0,0,0,0,-1,1378,960,0,0
161,64,0,0,0,0,0,0,0,0,0,-1,1385,960,0,0
168,64,0,0,0,0,0,0,0,0,0,-1,1392,960,0,0
175,64,0,0,0,0,0,0,0,0,0,-1,1399,960,0,0
182,64,0,0,0,0,0,0,0,0,0,-1,1406,960,0,0
189,64,0,0,0,0,0,0,0,0,0,-1,1413,960,0,0
196,64,0,0,0,0,0,0,0,0,0,-1,1420,960,0,0
203,64,0,0,0,0,0,0,0,0,0,-1,1427,960,0,0
210,64,0,0,0,0,0,0,0,0,0,-1,1434,960,0,0
217,64,0,0,0,0,0,0,0,0,0,-1,1441,960,0,0
224,64,0,0,0,0,0,0,0,0,0,-1,1448,960,0,0
231,64,0,0,0,0,0,0,0,0,0,-1,1455,960,0,0
238,64,0,0,0,0,0,0,0,0,0,-1,1462,960,0,0
245,64,0,0,0,0,0,0,0,0,0,-1,1469,960,0,0
252,64,0,0,0,0,0,0,0,0,0,-1,1476,960,0,0
259,64,0,0,0,0,0,0,0,0,0,-1,1483,960,0,0
266,64,0,0,0,0,0,0,0,0,0,-1,1490,960,0,0
273,64,0,0,0,0,0,0,0,0,0,-1,1497,960,0,0
280,64,0,0,0,0,0,0,0,0,0,-1,1504,960,0,0
287,64,0,0,0,0,0,0,0,0,0,-1,1511,960,0,0
294,64,0,0,0,0,0,0,0,0,0,-1,1518,960,0,0
301,64,0,0,0,0,0,0,0,0,0,-1,1525,960,0,0
308,64,0,0,0,0,0,0,0,0,0,-1,1532,960,0,0
315,64,0,0,0,0,0,0,0,0,0,-1,1539,960,0,0
322,64,0,0,0,0,0,0,0,0,0,-1,1546,960,0,0
329,64,0,0,0,0,0,0,0,0,0,-1,1553,960,0,0
336,64,0,0,0,0,0,0,0,0,0,-1,1560,960,0,0
343,64,0,0,0,0,0,0,0,0,0,-1,1567,960,0,0
350,64,0,0,0,0,0,0,0,0,0,-1,1574,960,0,0
357,64,0,0,0,0,0,0,0,0,0,-1,1581,960,0,0
364,64,0,0,0,0,0,0,0,0,0,-1,1588,960,0,0
371,64,0,0,0,0,0,0,0,0,0,-1,1595,960,0,0
378,64,0,0,0,0,0,0,0,0,0,-1,1602,960,0,0
385,64,0,0,0,0,0,0,0,0,0,-1,1609,960,0,0
392,64,0,0,0,0,0,0,0,0,0,-1,1616,960,0,0
399,64,0,0,0,0,0,0,0,0,0,-1,1623,960,0,0
406,64,0,0,0,0,0,0,0,0,0,-1,1630,960,0,0
413,64,0,0,0,0,0,0,0,0,0,-1,1637,960,0,0
420,64,0,0,0,0,0,0,0,0,0,-1,1644,960,0,0
427,64,0,0,0,0,0,0,0,0,0,-1,1651,960,0,0
434,64,0,0,0,0,0,0,0,0,0,-1,1658,960,0,0
441,64,0,0,0,0,0,0,0,0,0,-1,1665,960,0,0
448,64,0,0,0,0,0,0,0,0,0,-1,1672,960,0,0
455,64,0,0,0,0,0,0,0,0,0,-1,1679,960,0,0
462,64,0,0,0,0,0,0,0,0,0,-1,1686,960,0,0
469,64,0,0,0,0,0,0,0,0,0,-1,1693,960,0,0
476,64,0,0,0,0,0,0,0,0,0,-1,1700,960,0,0
483,64,0,0,0,0,0,0,0,0,0,-1,1707,960,0,0
490,64,0,0,0,0,0,0,0,0,0,-1,1714,960,0,0
497,64,0,0,0,0,0,0,0,0,0,-1,1721,960,0,0
504,64,0,0,0,0,0,0,0,0,0,-1,1728,960,0,0
511,64,0,0,0,0,0,0,0,0,0,-1,1735,960,0,0
518,64,0,0,0,0,0,0,0,0,0,-1,1742,960,0,0
525,64,0,0,0,0,0,0,0,0,0,-1,1749,960,0,0
532,64,0,0,0,0,0,0,0,0,0,-1,1756,960,0,0
539,64,0,0,0,0,0,0,0,0,0,-1,1763,960,0,0
546,64,0,0,0,0,0,0,0,0,0,-1,1770,960,0,0
553,64,0,0,0,0,0,0,0,0,0,-1,1777,960,0,0
560,64,0,0,0,0,0,0,0,0,0,-1,1784,960,0,0
567,64,0,0,0,0,0,0,0,0,0,-1,1791,960,0,0
574,64,0,0,0,0,0,0,0,0,0,-1,1798,960,0,0
581,64,0,0,0,0,0,0,0,0,0,-1,1805,960,0,0
588,64,0,0,0,0,0,0,0,0,0,-1,1812,960,0,0
595,64,0,0,0,0,0,0,0,0,0,-1,1819,960,0,0
602,64,0,0,0,0,0,0,0,0,0,-1,1826,960,0,0
609,64,0,0,0,0,0,0,0,0,0,-1,1833,960,0,0
616,64,0,0,0,0,0,0,0,0,0,-1,1840,960,0,0
623,64,0,0,0,0,0,0,0,0,0,-1,1847,960,0,0
630,64,0,0,0,0,0,0,0,0,0,-1,1854,960,0,0
637,64,0,0,0,0,0,0,0,0,0,-1,1861,960,0,0
644,64,46.6993,2.91144,0.00375581,0.00129405,-0.000183537,0.00376942,0.00128045,-0.0740099,0.00221325,0.0411231,1868,960,46.6993,-2.91147
651,64,46.8282,2.93292,0.00273497,0.000974524,-0.000694486,0.00297595,0.000733541,-0.333996,0.00179027,0.0386287,1875,960,46.8282,-2.93291
658,64,46.8759,2.85614,0.00180439,0.000696008,-0.000766078,0.00219571,0.000304681,-0.472265,0.00137356,0.036108,1882,960,46.8758,-2.85613
665,64,46.7828,2.77765,0.00101577,0.000513499,-0.000627163,0.00144021,8.90588e-05,-0.594959,0.000931874,0.0402379,1889,960,46.7828,-2.77765
672,64,46.7833,2.65521,0.000270272,0.000319754,-0.000309917,0.000605916,-1.58897e-05,-0.825229,0.000409343,0.0423944,1896,960,46.7833,-2.65519
679,64,46.7891,2.59973,-0.000193094,0.000116897,0.00011663,0.000155876,-0.000232073,1.24825,0.000225418,0.0393237,1903,960,46.789,-2.59972
686,64,46.7927,2.53156,-0.000377447,-0.00010576,0.000364975,0.000147832,-0.000631039,0.963555,0.000477658,0.0356412,1910,960,46.7927,-2.53154
693,64,46.7653,2.4386,-0.00048933,-0.000249479,0.000412239,5.99238e-05,-0.000798733,0.926948,0.000553546,0.0331823,1917,960,46.7652,-2.43862
700,64,46.7622,2.5448,-0.000870316,-0.000233675,0.000351255,-7.79622e-05,-0.00102603,1.15352,0.00065957,0.0333161,1924,960,46.7622,-2.5448
707,64,46.6642,2.95032,0,0,0,0,0,0,0,-1,1931,960,46.6642,-2.95034
714,64,46.5353,3.6463,0,0,0,0,0,0,0,-1,1938,960,46.5353,-3.6463
721,64,44.9816,4.6488,0,0,0,0,0,0,0,-1,1945,960,44.9816,-4.64879
728,64,44.8496,5.05145,-0.00260997,0.0017113,-0.000347087,0.001739,-0.00263767,-1.49116,0.00254457,0.019479,1952,960,44.8496,-5.05145
735,64,44.847,5.4212,-0.0031373,0.00276352,-0.00104709,0.00294381,-0.0033176,-1.40028,0.00361717,0.0279902,1959,960,44.847,-5.4212
742,64,44.9469,5.66852,-0.00372025,0.00364481,-0.00197914,0.00414296,-0.00421839,-1.32422,0.00482749,0.0247888,1966,960,44.9469,-5.66852
749,64,44.902,5.9458,-0.00431072,0.00484957,-0.00335281,0.00594561,-0.00540676,-1.25485,0.00655675,0.0155494,1973,960,44.9019,-5.94578
756,64,44.8695,6.22766,-0.00469628,0.00581787,-0.00532985,0.00804706,-0.00692547,-1.17466,0.00865247,0.0148705,1980,960,44.8696,-6.22768
763,64,44.8533,6.51105,-0.00500348,0.0067802,-0.00775124,0.0106247,-0.00884794,-1.11037,0.0112581,0.0178482,1987,960,44.8533,-6.51103
770,64,44.6604,6.73212,-0.00477636,0.0071102,-0.0107798,0.0134765,-0.0111427,-1.03733,0.0142352,0.0193688,1994,960,44.6603,-6.73209
777,64,44.5511,6.95337,-0.00393745,0.00633821,-0.0145596,0.0166399,-0.0142392,-0.955018,0.017846,0.0366602,2001,960,44.5511,-6.95336
784,64,44.2925,6.82867,-0.00198756,0.00381411,-0.0194321,0.0205607,-0.0187341,-0.859491,0.022695,0.0446118,2008,960,44.2924,-6.82868
791,64,44.4058,6.71454,0.00168513,-0.0014621,-0.0259495,0.0261087,-0.0258857,-0.755115,0.0300191,0.0490802,2015,960,44.4058,-6.71457
798,64,43.7566,6.45062,0,0,0,0,0,0,0,-1,2022,960,43.7567,-6.45065
805,64,45.2212,5.37988,0,0,0,0,0,0,0,-1,2029,960,45.2211,-5.37991
812,64,0,0,0,0,0,0,0,0,0,-1,2036,960,0,0
-700,57,0,0,0,0,0,0,0,0,0,-1,524,967,0,0
-693,57,0,0,0,0,0,0,0,0,0,-1,531,967,0,0
-686,57,-34.639,1.08398,0,0,0,0,0,0,0,-1,538,967,-34.639,-1.08396
-679,57,-34.2581,1.68073,0,0,0,0,0,0,0,-1,545,967,-34.2581,-1.68072
-672,57,-34.2393,6.33069,0,0,0,0,0,0,0,-1,552,967,-34.2392,-6.33071
-665,57,-32.6845,4.63855,0,0,0,0,0,0,0,-1,559,967,-32.6845,-4.63855
-658,57,-34.0206,4.41779,0,0,0,0,0,0,0,-1,566,967,-34.0206,-4.41781
-651,57,-34.1944,4.18182,0.00608652,0.0112562,-0.00942153,0.0184411,-0.00109831,-0.919282,0.012676,0.0484636,573,967,-34.1944,-4.18185
-644,57,-34.2487,3.97736,0.00395896,0.0114916,-0.0058551,0.0146872,0.000763438,-1.07121,0.00954714,0.0354872,580,967,-34.2487,-3.97736
-637,57,-34.2324,3.82184,0.0020012,0.0107717,-0.00322689,0.011831,0.000941892,-1.2536,0.00759288,0.0194697,587,967,-34.2324,-3.82184
-630,57,-34.3234,3.62189,0.000865602,0.0098698,-0.00213958,0.0103523,0.000383057,-1.34897,0.00677749,0.0134137,594,967,-34.3234,-3.62186
-623,57,-34.3273,3.43573,-0.000929904,0.00818511,-0.00153872,0.00843786,-0.00118265,-1.40799,0.00605806,0.0134898,601,967,-34.3273,-3.43574
-616,57,-34.3209,3.19751,-0.00309755,0.00644109,-0.00171135,0.00673883,-0.00339529,-1.39854,0.00595614,0.0156465,608,967,-34.3209,-3.19749
-609,57,-34.3249,2.93579,-0.00461695,0.00445899,-0.00213754,0.00493722,-0.00509518,-1.35069,0.00579245,0.0151057,615,967,-34.3249,-2.93579
-602,57,-34.2866,2.70428,-0.0051737,0.00326692,-0.00335888,0.00444041,-0.00634719,-1.23468,0.00626058,0.0108929,622,967,-34.2865,-2.70426
-595,57,-34.29,2.49304,-0.00558644,0.00210927,-0.00410871,0.00389058,-0.00736775,-1.16171,0.00660253,0.0135742,629,967,-34.2901,-2.49303
-588,57,-34.2968,2.33154,-0.00557035,0.00100642,-0.00478676,0.00352549,-0.00808943,-1.08636,0.00687628,0.0229536,636,967,-34.2967,-2.33153
-581,57,-34.5623,1.55096,-0.00525115,0.000408667,-0.0052609,0.00355249,-0.00839498,-1.03216,0.00708422,0.0329515,643,967,-34.5623,-1.55093
-574,57,-34.9703,0.706055,0,0,0,0,0,0,0,-1,650,967,-34.9703,-0.706068
-567,57,-34.8865,0.887512,-0.00431166,0.000144314,-0.00517364,0.00354931,-0.00771666,-0.988718,0.00665109,0.0322625,657,967,-34.8866,-0.887528
-560,57,-35.0135,0.810242,-0.0032614,0.000297815,-0.00454461,0.00339883,-0.00636242,-0.972015,0.00572158,0.040345,664,967,-35.0135,-0.810244
-553,57,-34.9338,0.612915,-0.00160273,0.000553699,-0.0035203,0.0031572,-0.00420623,-0.934005,0.00426564,0.0402101,671,967,-34.9339,-0.612901
-546,57,-34.8473,0.606445,0.000676295,0.000815687,-0.00208883,0.00283599,-0.001344,-0.802075,0.00246403,0.0415308,678,967,-34.8473,-0.606454
-539,57,-34.9303,0.972107,0.00345273,0.000942656,-0.0003443,0.0034991,0.000896286,-0.133874,0.00209876,0.0445402,685,967,-34.9303,-0.972121
-532,57,-35.0145,1.15387,0,0,0,0,0,0,0,-1,692,967,-35.0144,-1.15387
-525,57,-34.8422,0.573975,0,0,0,0,0,0,0,-1,699,967,-34.8422,-0.573991
-518,57,0,0,0,0,0,0,0,0,0,-1,706,967,0,0
-511,57,0,0,0,0,0,0,0,0,0,-1,713,967,0,0
-504,57,0,0,0,0,0,0,0,0,0,-1,720,967,0,0
-497,57,0,0,0,0,0,0,0,0,0,-1,727,967,0,0
-490,57,0,0,0,0,0,0,0,0,0,-1,734,967,0,0
-483,57,0,0,0,0,0,0,0,0,0,-1,741,967,0,0
-476,57,0,0,0,0,0,0,0,0,0,-1,748,967,0,0
-469,57,0,0,0,0,0,0,0,0,0,-1,755,967,0,0
-462,57,0,0,0,0,0,0,0,0,0,-1,762,967,0,0
-455,57,0,0,0,0,0,0,0,0,0,-1,769,967,0,0
-448,57,0,0,0,0,0,0,0,0,0,-1,776,967,0,0
-441,57,0,0,0,0,0,0,0,0,0,-1,783,967,0,0
-434,57,0,0,0,0,0,0,0,0,0,-1,790,967,0,0
-427,57,0,0,0,0,0,0,0,0,0,-1,797,967,0,0
-420,57,0,0,0,0,0,0,0,0,0,-1,804,967,0,0
-413,57,0,0,0,0,0,0,0,0,0,-1,811,967,0,0
-406,57,0,0,0,0,0,0,0,0,0,-1,818,967,0,0
-399,57,0,0,0,0,0,0,0,0,0,-1,825,967,0,0
-392,57,0,0,0,0,0,0,0,0,0,-1,832,967,0,0
-385,57,0,0,0,0,0,0,0,0,0,-1,839,967,0,0
-378,57,0,0,0,0,0,0,0,0,0,-1,846,967,0,0
-371,57,0,0,0,0,0,0,0,0,0,-1,853,967,0,0
-364,57,0,0,0,0,0,0,0,0,0,-1,860,967,0,0
-357,57,0,0,0,0,0,0,0,0,0,-1,867,967,0,0
-350,57,0,0,0,0,0,0,0,0,0,-1,874,967,0,0
-343,57,0,0,0,0,0,0,0,0,0,-1,881,967,0,0
-336,57,0,0,0,0,0,0,0,0,0,-1,888,967,0,0
-329,57,0,0,0,0,0,0,0,0,0,-1,895,967,0,0
-322,57,0,0,0,0,0,0,0,0,0,-1,902,967,0,0
-315,57,0,0,0,0,0,0,0,0,0,-1,909,967,0,0
-308,57,0,0,0,0,0,0,0,0,0,-1,916,967,0,0
-301,57,0,0,0,0,0,0,0,0,0,-1,923,967,0,0
-294,57,0,0,0,0,0,0,0,0,0,-1,930,967,0,0
-287,57,0,0,0,0,0,0,0,0,0,-1,937,967,0,0
-280,57,0,0,0,0,0,0,0,0,0,-1,944,967,0,0
-273,57,0,0,0,0,0,0,0,0,0,-1,951,967,0,0
-266,57,0,0,0,0,0,0,0,0,0,-1,958,967,0,0
-259,57,0,0,0,0,0,0,0,0,0,-1,965,967,0,0
-252,57,0,0,0,0,0,0,0,0,0,-1,972,967,0,0
-245,57,0,0,0,0,0,0,0,0,0,-1,979,967,0,0
-238,57,0,0,0,0,0,0,0,0,0,-1,986,967,0,0
-231,57,0,0,0,0,0,0,0,0,0,-1,993,967,0,0
-224,57,0,0,0,0,0,0,0,0,0,-1,1000,967,0,0
-217,57,0,0,0,0,0,0,0,0,0,-1,1007,967,0,0
-210,57,0,0,0,0,0,0,0,0,0,-1,1014,967,0,0
-203,57,0,0,0,0,0,0,0,0,0,-1,1021,967,0,0
-196,57,0,0,0,0,0,0,0,0,0,-1,1028,967,0,0
-189,57,0,0,0,0,0,0,0,0,0,-1,1035,967,0,0
-182,57,0,0,0,0,0,0,0,0,0,-1,1042,967,0,0
-175,57,0,0,0,0,0,0,0,0,0,-1,1049,967,0,0
-168,57,0,0,0,0,0,0,0,0,0,-1,1056,967,0,0
-161,57,0,0,0,0,0,0,0,0,0,-1,1063,967,0,0
-154,57,0,0,0,0,0,0,0,0,0,-1,1070,967,0,0
-147,57,0,0,0,0,0,0,0,0,0,-1,1077,967,0,0
-140,57,0,0,0,0,0,0,0,0,0,-1,1084,967,0,0
-133,57,0,0,0,0,0,0,0,0,0,-1,1091,967,0,0
-126,57,0,0,0,0,0,0,0,0,0,-1,1098,967,0,0
-119,57,0,0,0,0,0,0,0,0,0,-1,1105,967,0,0
-112,57,0,0,0,0,0,0,0,0,0,-1,1112,967,0,0
-105,57,0,0,0,0,0,0,0,0,0,-1,1119,967,0,0
-98,57,0,0,0,0,0,0,0,0,0,-1,1126,967,0,0
-91,57,0,0,0,0,0,0,0,0,0,-1,1133,967,0,0
-84,57,0,0,0,0,0,0,0,0,0,-1,1140,967,0,0
-77,57,0,0,0,0,0,0,0,0,0,-1,1147,967,0,0
-70,57,0,0,0,0,0,0,0,0,0,-1,1154,967,0,0
-63,57,0,0,0,0,0,0,0,0,0,-1,1161,967,0,0
-56,57,0,0,0,0,0,0,0,0,0,-1,1168,967,0,0
-49,57,0,0,0,0,0,0,0,0,0,-1,1175,967,0,0
-42,57,0,0,0,0,0,0,0,0,0,-1,1182,967,0,0
-35,57,0,0,0,0,0,0,0,0,0,-1,1189,967,0,0
-28,57,0,0,0,0,0,0,0,0,0,-1,1196,967,0,0
-21,57,0,0,0,0,0,0,0,0,0,-1,1203,967,0,0
-14,57,0,0,0,0,0,0,0,0,0,-1,1210,967,0,0
-7,57,0,0,0,0,0,0,0,0,0,-1,1217,967,0,0
0,57,0,0,0,0,0,0,0,0,0,-1,1224,967,0,0
7,57,0,0,0,0,0,0,0,0,0,-1,1231,967,0,0
14,57,0,0,0,0,0,0,0,0,0,-1,1238,967,0,0
21,57,0,0,0,0,0,0,0,0,0,-1,1245,967,0,0
28,57,0,0,0,0,0,0,0,0,0,-1,1252,967,0,0
35,57,0,0,0,0,0,0,0,0,0,-1,1259,967,0,0
42,57,0,0,0,0,0,0,0,0,0,-1,1266,967,0,0
49,57,0,0,0,0,0,0,0,0,0,-1,1273,967,0,0
56,57,0,0,0,0,0,0,0,0,0,-1,1280,967,0,0
63,57,0,0,0,0,0,0,0,0,0,-1,1287,967,0,0
70,57,0,0,0,0,0,0,0,0,0,-1,1294,967,0,0
77,57,0,0,0,0,0,0,0,0,0,-1,1301,967,0,0
84,57,0,0,0,0,0,0,0,0,0,-1,1308,967,0,0
91,57,0,0,0,0,0,0,0,0,0,-1,1315,967,0,0
98,57,0,0,0,0,0,0,0,0,0,-1,1322,967,0,0
105,57,0,0,0,0,0,0,0,0,0,-1,1329,967,0,0
112,57,0,0,0,0,0,0,0,0,0,-1,1336,967,0,0
119,57,0,0,0,0,0,0,0,0,0,-1,1343,967,0,0
126,57,0,0,0,0,0,0,0,0,0,-1,1350,967,0,0
133,57,0,0,0,0,0,0,0,0,0,-1,1357,967,0,0
140,57,0,0,0,0,0,0,0,0,0,-1,1364,967,0,0
147,57,0,0,0,0,0,0,0,0,0,-1,1371,967,0,0
154,57,0,0,0,0,0,0,0,0,0,-1,1378,967,0,0
161,57,0,0,0,0,0,0,0,0,0,-1,1385,967,0,0
168,57,0,0,0,0,0,0,0,0,0,-1,1392,967,0,0
175,57,0,0,0,0,0,0,0,0,0,-1,1399,967,0,0
182,57,0,0,0,0,0,0,0,0,0,-1,1406,967,0,0
189,57,0,0,0,0,0,0,0,0,0,-1,1413,967,0,0
196,57,0,0,0,0,0,0,0,0,0,-1,1420,967,0,0
203,57,0,0,0,0,0,0,0,0,0,-1,1427,967,0,0
210,57,0,0,0,0,0,0,0,0,0,-1,1434,967,0,0
217,57,0,0,0,0,0,0,0,0,0,-1,1441,967,0,0
224,57,0,0,0,0,0,0,0,0,0,-1,1448,967,0,0
231,57,0,0,0,0,0,0,0,0,0,-1,1455,967,0,0
238,57,0,0,0,0,0,0,0,0,0,-1,1462,967,0,0
245,57,0,0,0,0,0,0,0,0,0,-1,1469,967,0,0
252,57,0,0,0,0,0,0,0,0,0,-1,1476,967,0,0
259,57,0,0,0,0,0,0,0,0,0,-1,1483,967,0,0
266,57,0,0,0,0,0,0,0,0,0,-1,1490,967,0,0
273,57,0,0,0,0,0,0,0,0,0,-1,1497,967,0,0
280,57,0,0,0,0,0,0,0,0,0,-1,1504,967,0,0
287,57,0,0,0,0,0,0,0,0,0,-1,1511,967,0,0
294,57,0,0,0,0,0,0,0,0,0,-1,1518,967,0,0
301,57,0,0,0,0,0,0,0,0,0,-1,1525,967,0,0
308,57,0,0,0,0,0,0,0,0,0,-1,1532,967,0,0
315,57,0,0,0,0,0,0,0,0,0,-1,1539,967,0,0
322,57,0,0,0,0,0,0,0,0,0,-1,1546,967,0,0
329,57,0,0,0,0,0,0,0,0,0,-1,1553,967,0,0
336,57,0,0,0,0,0,0,0,0,0,-1,1560,967,0,0
343,57,0,0,0,0,0,0,0,0,0,-1,1567,967,0,0
350,57,0,0,0,0,0,0,0,0,0,-1,1574,967,0,0
357,57,0,0,0,0,0,0,0,0,0,-1,1581,967,0,0
364,57,0,0,0,0,0,0,0,0,0,-1,1588,967,0,0
371,57,0,0,0,0,0,0,0,0,0,-1,1595,967,0,0
378,57,0,0,0,0,0,0,0,0,0,-1,1602,967,0,0
385,57,0,0,0,0,0,0,0,0,0,-1,1609,967,0,0
392,57,0,0,0,0,0,0,0,0,0,-1,1616,967,0,0
399,57,0,0,0,0,0,0,0,0,0,-1,1623,967,0,0
406,57,0,0,0,0,0,0,0,0,0,-1,1630,967,0,0
413,57,0,0,0,0,0,0,0,0,0,-1,1637,967,0,0
420,57,0,0,0,0,0,0,0,0,0,-1,1644,967,0,0
427,57,0,0,0,0,0,0,0,0,0,-1,1651,967,0,0
434,57,0,0,0,0,0,0,0,0,0,-1,1658,967,0,0
441,57,0,0,0,0,0,0,0,0,0,-1,1665,967,0,0
448,57,0,0,0,0,0,0,0,0,0,-1,1672,967,0,0
455,57,0,0,0,0,0,0,0,0,0,-1,1679,967,0,0
462,57,0,0,0,0,0,0,0,0,0,-1,1686,967,0,0
469,57,0,0,0,0,0,0,0,0,0,-1,1693,967,0,0
476,57,0,0,0,0,0,0,0,0,0,-1,1700,967,0,0
483,57,0,0,0,0,0,0,0,0,0,-1,1707,967,0,0
490,57,0,0,0,0,0,0,0,0,0,-1,1714,967,0,0
497,57,0,0,0,0,0,0,0,0,0,-1,1721,967,0,0
504,57,0,0,0,0,0,0,0,0,0,-1,1728,967,0,0
511,57,0,0,0,0,0,0,0,0,0,-1,1735,967,0,0
518,57,0,0,0,0,0,0,0,0,0,-1,1742,967,0,0
525,57,0,0,0,0,0,0,0,0,0,-1,1749,967,0,0
532,57,0,0,0,0,0,0,0,0,0,-1,1756,967,0,0
539,57,0,0,0,0,0,0,0,0,0,-1,1763,967,0,0
546,57,0,0,0,0,0,0,0,0,0,-1,1770,967,0,0
553,57,0,0,0,0,0,0,0,0,0,-1,1777,967,0,0
560,57,0,0,0,0,0,0,0,0,0,-1,1784,967,0,0
567,57,0,0,0,0,0,0,0,0,0,-1,1791,967,0,0
574,57,0,0,0,0,0,0,0,0,0,-1,1798,967,0,0
581,57,0,0,0,0,0,0,0,0,0,-1,1805,967,0,0
588,57,0,0,0,0,0,0,0,0,0,-1,1812,967,0,0
595,57,0,0,0,0,0,0,0,0,0,-1,1819,967,0,0
602,57,0,0,0,0,0,0,0,0,0,-1,1826,967,0,0
609,57,0,0,0,0,0,0,0,0,0,-1,1833,967,0,0
616,57,0,0,0,0,0,0,0,0,0,-1,1840,967,0,0
623,57,0,0,0,0,0,0,0,0,0,-1,1847,967,0,0
630,57,0,0,0,0,0,0,0,0,0,-1,1854,967,0,0
637,57,0,0,0,0,0,0,0,0,0,-1,1861,967,0,0
644,57,46.7228,2.8208,0.00456579,0.00345324,0.000248738,0.00461887,0.00340016,0.210241,0.00276407,0.0387099,1868,967,46.7228,-2.82079
651,57,46.8192,2.84967,0.00329687,0.00258678,-0.000280703,0.00339443,0.00248922,-0.334495,0.00202966,0.0331551,1875,967,46.8192,-2.8497
658,57,46.8826,2.73932,0.00218422,0.00185279,-0.00037479,0.00242829,0.00160872,-0.577248,0.00142644,0.0340442,1882,967,46.8826,-2.73934
665,57,46.9487,2.70685,0.00127122,0.00129742,-0.000277997,0.00156263,0.00100602,-0.808941,0.000914535,0.0414997,1889,967,46.9488,-2.70684
672,57,46.9767,2.57306,0.000439323,0.000842156,-1.10211e-05,0.000842457,0.000439022,-1.54346,0.000486538,0.0416965,1896,967,46.9767,-2.57304
679,57,46.8599,2.60822,-8.88761e-05,0.000509562,0.000386594,0.000699206,-0.00027852,1.11474,0.000581647,0.0407218,1903,967,46.8598,-2.60821
686,57,46.7363,2.5105,-0.000311922,0.000196435,0.000638066,0.000629086,-0.000744573,0.974943,0.000794017,0.0383381,1910,967,46.7364,-2.51051
693,57,46.6846,2.4704,-0.000458013,-1.61905e-05,0.000697088,0.000494153,-0.000968357,0.938845,0.000859048,0.0334304,1917,967,46.6845,-2.47038
700,57,46.7271,2.62805,-0.000864857,-4.89707e-05,0.000645455,0.00030665,-0.00122048,1.06722,0.000932824,0.0273066,1924,967,46.7271,-2.62805
707,57,46.7352,2.92786,0,0,0,0,0,0,0,-1,1931,967,46.7352,-2.92786
714,57,46.2699,3.87323,0,0,0,0,0,0,0,-1,1938,967,46.2699,-3.87324
721,57,45.2781,4.81598,0,0,0,0,0,0,0,-1,1945,967,45.2781,-4.81599
728,57,45.1321,5.18781,-0.00264778,0.00201022,-0.000168655,0.00201632,-0.00265387,-1.53465,0.0027047,0.0224259,1952,967,45.1321,-5.18778
735,57,45.1973,5.50549,-0.00317907,0.00309928,-0.000859968,0.00321494,-0.00329473,-1.4371,0.00375846,0.0291203,1959,967,45.1973,-5.50552
742,57,45.2716,5.64624,-0.00380827,0.00396707,-0.00180355,0.00436505,-0.00420624,-1.35361,0.00494892,0.0217413,1966,967,45.2716,-5.64626
749,57,45.2311,5.93762,-0.00438703,0.0051239,-0.00318364,0.00609119,-0.00535433,-1.27583,0.00661264,0.014467,1973,967,45.231,-5.93762
756,57,45.1735,6.18799,-0.00471957,0.00600668,-0.00519496,0.0081102,-0.00682309,-1.18606,0.00863241,0.0109442,1980,967,45.1735,-6.18798
763,57,45.1017,6.41425,-0.00496573,0.0068462,-0.00771504,0.0106563,-0.00877585,-1.11208,0.0112367,0.0124154,1987,967,45.1017,-6.41423
770,57,45.0195,6.64398,-0.00461382,0.00700579,-0.0109432,0.0135858,-0.0111938,-1.02943,0.0143287,0.0127279,1994,967,45.0195,-6.64401
777,57,44.8738,6.77087,-0.00358192,0.00606017,-0.0149286,0.0169268,-0.0144486,-0.941582,0.0181334,0.0289537,2001,967,44.8738,-6.7709
784,57,44.614,6.86774,-0.0014052,0.00332926,-0.020025,0.0211264,-0.0192024,-0.844232,0.0232927,0.0458567,2008,967,44.614,-6.86775
791,57,44.7148,7.07135,0.0025084,-0.00218462,-0.0267579,0.0270225,-0.0266987,-0.741663,0.0310161,0.0487313,2015,967,44.7149,-7.07135
798,57,44.3896,6.79639,0.00836169,-0.0112962,-0.0356002,0.0354649,-0.0383994,-0.650707,0.0426568,0.0480244,2022,967,44.3898,-6.79637
805,57,44.3279,6.84015,0,0,0,0,0,0,0,-1,2029,967,44.328,-6.84015
812,57,0,0,0,0,0,0,0,0,0,-1,2036,967,0,0
-700,50,0,0,0,0,0,0,0,0,0,-1,524,974,0,0
-693,50,-35.3916,-0.309998,0,0,0,0,0,0,0,-1,531,974,-35.3916,0.309996
-686,50,-35.0481,0.424316,0,0,0,0,0,0,0,-1,538,974,-35.0481,-0.424296
-679,50,-34.4856,1.35242,0,0,0,0,0,0,0,-1,545,974,-34.4856,-1.35245
-672,50,-34.1533,1.75336,0,0,0,0,0,0,0,-1,552,974,-34.1532,-1.75337
-665,50,-34.1161,2.03546,0,0,0,0,0,0,0,-1,559,974,-34.1161,-2.03546
-658,50,-34.022,4.63397,0,0,0,0,0,0,0,-1,566,974,-34.022,-4.63395
-651,50,-34.2265,4.18408,-0.00342538,0.0159306,-0.00725439,0.0183476,-0.00584242,-1.24918,0.0145749,0.0459371,573,974,-34.2265,-4.18405
-644,50,-34.3728,3.79163,-0.00244934,0.0147827,-0.0042701,0.0157828,-0.00344943,-1.34074,0.0118404,0.0330526,580,974,-34.3728,-3.79162
-637,50,-34.4901,3.70105,-0.00207912,0.012971,-0.00214033,0.0132695,-0.00237759,-1.43224,0.00973612,0.0191399,587,974,-34.4901,-3.70104
-630,50,-34.5739,3.53943,-0.00146977,0.0112061,-0.00168495,0.0114263,-0.00168992,-1.44088,0.0082388,0.0114855,594,974,-34.5738,-3.5394
-623,50,-34.5855,3.39233,-0.00180273,0.00882358,-0.00138155,0.00900026,-0.00197941,-1.4436,0.00675731,0.0118486,601,974,-34.5855,-3.3923
-616,50,-34.5803,3.20966,-0.00288018,0.00690638,-0.0020245,0.00730864,-0.00328244,-1.37465,0.00626031,0.0121018,608,974,-34.5803,-3.20966
-609,50,-34.5895,2.93738,-0.00393914,0.00481582,-0.00281322,0.00564185,-0.00476517,-1.2852,0.0060156,0.0109258,615,974,-34.5895,-2.93736
-602,50,-34.5978,2.73181,-0.00414344,0.00345936,-0.00425424,0.00536315,-0.00604723,-1.15002,0.00659173,0.0111487,622,974,-34.5978,-2.73183
-595,50,-34.5781,2.54987,-0.00430026,0.00221247,-0.00513763,0.0050388,-0.00712659,-1.06786,0.00705808,0.0123185,629,974,-34.5781,-2.54988
-588,50,-34.6057,2.22522,-0.00416845,0.00112381,-0.00584409,0.00489293,-0.00793757,-0.997983,0.00747689,0.017415,636,974,-34.6057,-2.2252
-581,50,-34.8242,1.4079,-0.00385369,0.000494208,-0.00631652,0.00500041,-0.0083599,-0.951133,0.00779444,0.0234691,643,974,-34.8242,-1.40789
-574,50,-35.0228,0.597046,0,0,0,0,0,0,0,-1,650,974,-35.0229,-0.597065
-567,50,-34.9136,0.901733,-0.00315229,1.19601e-06,-0.00600697,0.00463491,-0.007786,-0.913746,0.00724773,0.0361484,657,974,-34.9136,-0.901707
-560,50,-35.0637,0.88385,-0.00231183,2.13626e-05,-0.00511631,0.00410239,-0.00639286,-0.897489,0.00610735,0.0427366,664,974,-35.0637,-0.883837
-553,50,-35.185,0.842896,-0.000981017,9.12874e-05,-0.00374776,0.00334105,-0.00423078,-0.856446,0.00438164,0.0420426,671,974,-35.185,-0.842879
-546,50,-34.9681,1.06079,0.000848659,8.77531e-05,-0.00190208,0.00240796,-0.00147155,-0.686691,0.00226148,0.0404168,678,974,-34.9681,-1.06081
-539,50,-34.7823,1.15765,0.00302602,-0.000119768,0.000233612,0.00304328,-0.000137022,0.0737229,0.00207603,0.0436637,685,974,-34.7823,-1.15765
-532,50,-34.7697,0.833679,0.00535913,-0.000437561,0.00163896,0.00579044,-0.000868871,0.257326,0.00418013,0.0442414,692,974,-34.7697,-0.833661
-525,50,-34.6767,0.428772,0,0,0,0,0,0,0,-1,699,974,-34.6767,-0.428752
-518,50,0,0,0,0,0,0,0,0,0,-1,706,974,0,0
-511,50,0,0,0,0,0,0,0,0,0,-1,713,974,0,0
-504,50,0,0,0,0,0,0,0,0,0,-1,720,974,0,0
-497,50,0,0,0,0,0,0,0,0,0,-1,727,974,0,0
-490,50,0,0,0,0,0,0,0,0,0,-1,734,974,0,0
-483,50,0,0,0,0,0,0,0,0,0,-1,741,974,0,0
-476,50,0,0,0,0,0,0,0,0,0,-1,748,974,0,0
-469,50,0,0,0,0,0,0,0,0,0,-1,755,974,0,0
-462,50,0,0,0,0,0,0,0,0,0,-1,762,974,0,0
-455,50,0,0,0,0,0,0,0,0,0,-1,769,974,0,0
-448,50,0,0,0,0,0,0,0,0,0,-1,776,974,0,0
-441,50,0,0,0,0,0,0,0,0,0,-1,783,974,0,0
-434,50,0,0,0,0,0,0,0,0,0,-1,790,974,0,0
-427,50,0,0,0,0,0,0,0,0,0,-1,797,974,0,0
-420,50,0,0,0,0,0,0,0,0,0,-1,804,974,0,0
-413,50,0,0,0,0,0,0,0,0,0,-1,811,974,0,0
-406,50,0,0,0,0,0,0,0,0,0,-1,818,974,0,0
-399,50,0,0,0,0,0,0,0,0,0,-1,825,974,0,0
-392,50,0,0,0,0,0,0,0,0,0,-1,832,974,0,0
-385,50,0,0,0,0,0,0,0,0,0,-1,839,974,0,0
-378,50,0,0,0,0,0,0,0,0,0,-1,846,974,0,0
-371,50,0,0,0,0,0,0,0,0,0,-1,853,974,0,0
-364,50,0,0,0,0,0,0,0,0,0,-1,860,974,0,0
-357,50,0,0,0,0,0,0,0,0,0,-1,867,974,0,0
-350,50,0,0,0,0,0,0,0,0,0,-1,874,974,0,0
-343,50,0,0,0,0,0,0,0,0,0,-1,881,974,0,0
-336,50,0,0,0,0,0,0,0,0,0,-1,888,974,0,0
-329,50,0,0,0,0,0,0,0,0,0,-1,895,974,0,0
-322,50,0,0,0,0,0,0,0,0,0,-1,902,974,0,0
-315,50,0,0,0,0,0,0,0,0,0,-1,909,974,0,0
-308,50,0,0,0,0,0,0,0,0,0,-1,916,974,0,0
-301,50,0,0,0,0,0,0,0,0,0,-1,923,974,0,0
-294,50,0,0,0,0,0,0,0,0,0,-1,930,974,0,0
-287,50,0,0,0,0,0,0,0,0,0,-1,937,974,0,0
-280,50,0,0,0,0,0,0,0,0,0,-1,944,974,0,0
-273,50,0,0,0,0,0,0,0,0,0,-1,951,974,0,0
-266,50,0,0,0,0,0,0,0,0,0,-1,958,974,0,0
-259,50,0,0,0,0,0,0,0,0,0,-1,965,974,0,0
-252,50,0,0,0,0,0,0,0,0,0,-1,972,974,0,0
-245,50,0,0,0,0,0,0,0,0,0,-1,979,974,0,0
-238,50,0,0,0,0,0,0,0,0,0,-1,986,974,0,0
-231,50,0,0,0,0,0,0,0,0,0,-1,993,974,0,0
-224,50,0,0,0,0,0,0,0,0,0,-1,1000,974,0,0
-217,50,0,0,0,0,0,0,0,0,0,-1,1007,974,0,0
-210,50,0,0,0,0,0,0,0,0,0,-1,1014,974,0,0
-203,50,0,0,0,0,0,0,0,0,0,-1,1021,974,0,0
-196,50,0,0,0,0,0,0,0,0,0,-1,1028,974,0,0
-189,50,0,0,0,0,0,0,0,0,0,-1,1035,974,0,0
-182,50,0,0,0,0,0,0,0,0,0,-1,1042,974,0,0
-175,50,0,0,0,0,0,0,0,0,0,-1,1049,974,0,0
-168,50,0,0,0,0,0,0,0,0,0,-1,1056,974,0,0
-161,50,0,0,0,0,0,0,0,0,0,-1,1063,974,0,0
-154,50,0,0,0,0,0,0,0,0,0,-1,1070,974,0,0
-147,50,0,0,0,0,0,0,0,0,0,-1,1077,974,0,0
-140,50,0,0,0,0,0,0,0,0,0,-1,1084,974,0,0
-133,50,0,0,0,0,0,0,0,0,0,-1,1091,974,0,0
-126,50,0,0,0,0,0,0,0,0,0,-1,1098,974,0,0
-119,50,0,0,0,0,0,0,0,0,0,-1,1105,974,0,0
-112,50,0,0,0,0,0,0,0,0,0,-1,1112,974,0,0
-105,50,0,0,0,0,0,0,0,0,0,-1,1119,974,0,0
-98,50,0,0,0,0,0,0,0,0,0,-1,1126,974,0,0
-91,50,0,0,0,0,0,0,0,0,0,-1,1133,974,0,0
-84,50,0,0,0,0,0,0,0,0,0,-1,1140,974,0,0
-77,50,0,0,0,0,0,0,0,0,0,-1,1147,974,0,0
-70,50,0,0,0,0,0,0,0,0,0,-1,1154,974,0,0
-63,50,0,0,0,0,0,0,0,0,0,-1,1161,974,0,0
-56,50,0,0,0,0,0,0,0,0,0,-1,1168,974,0,0
-49,50,0,0,0,0,0,0,0,0,0,-1,1175,974,0,0
-42,50,0,0,0,0,0,0,0,0,0,-1,1182,974,0,0
-35,50,0,0,0,0,0,0,0,0,0,-1,1189,974,0,0
-28,50,0,0,0,0,0,0,0,0,0,-1,1196,974,0,0
-21,50,0,0,0,0,0,0,0,0,0,-1,1203,974,0,0
-14,50,0,0,0,0,0,0,0,0,0,-1,1210,974,0,0
-7,50,0,0,0,0,0,0,0,0,0,-1,1217,974,0,0
0,50,0,0,0,0,0,0,0,0,0,-1,1224,974,0,0
7,50,0,0,0,0,0,0,0,0,0,-1,1231,974,0,0
14,50,0,0,0,0,0,0,0,0,0,-1,1238,974,0,0
21,50,0,0,0,0,0,0,0,0,0,-1,1245,974,0,0
28,50,0,0,0,0,0,0,0,0,0,-1,1252,974,0,0
35,50,0,0,0,0,0,0,0,0,0,-1,1259,974,0,0
42,50,0,0,0,0,0,0,0,0,0,-1,1266,974,0,0
49,50,0,0,0,0,0,0,0,0,0,-1,1273,974,0,0
56,50,0,0,0,0,0,0,0,0,0,-1,1280,974,0,0
63,50,0,0,0,0,0,0,0,0,0,-1,1287,974,0,0
70,50,0,0,0,0,0,0,0,0,0,-1,1294,974,0,0
77,50,0,0,0,0,0,0,0,0,0,-1,1301,974,0,0
84,50,0,0,0,0,0,0,0,0,0,-1,1308,974,0,0
91,50,0,0,0,0,0,0,0,0,0,-1,1315,974,0,0
98,50,0,0,0,0,0,0,0,0,0,-1,1322,974,0,0
105,50,0,0,0,0,0,0,0,0,0,-1,1329,974,0,0
112,50,0,0,0,0,0,0,0,0,0,-1,1336,974,0,0
119,50,0,0,0,0,0,0,0,0,0,-1,1343,974,0,0
126,50,0,0,0,0,0,0,0,0,0,-1,1350,974,0,0
133,50,0,0,0,0,0,0,0,0,0,-1,1357,974,0,0
140,50,0,0,0,0,0,0,0,0,0,-1,1364,974,0,0
147,50,0,0,0,0,0,0,0,0,0,-1,1371,974,0,0
154,50,0,0,0,0,0,0,0,0,0,-1,1378,974,0,0
161,50,0,0,0,0,0,0,0,0,0,-1,1385,974,0,0
168,50,0,0,0,0,0,0,0,0,0,-1,1392,974,0,0
175,50,0,0,0,0,0,0,0,0,0,-1,1399,974,0,0
182,50,0,0,0,0,0,0,0,0,0,-1,1406,974,0,0
189,50,0,0,0,0,0,0,0,0,0,-1,1413,974,0,0
196,50,0,0,0,0,0,0,0,0,0,-1,1420,974,0,0
203,50,0,0,0,0,0,0,0,0,0,-1,1427,974,0,0
210,50,0,0,0,0,0,0,0,0,0,-1,1434,974,0,0
217,50,0,0,0,0,0,0,0,0,0,-1,1441,974,0,0
224,50,0,0,0,0,0,0,0,0,0,-1,1448,974,0,0
231,50,0,0,0,0,0,0,0,0,0,-1,1455,974,0,0
238,50,0,0,0,0,0,0,0,0,0,-1,1462,974,0,0
245,50,0,0,0,0,0,0,0,0,0,-1,1469,974,0,0
252,50,0,0,0,0,0,0,0,0,0,-1,1476,974,0,0
259,50,0,0,0,0,0,0,0,0,0,-1,1483,974,0,0
266,50,0,0,0,0,0,0,0,0,0,-1,1490,974,0,0
273,50,0,0,0,0,0,0,0,0,0,-1,1497,974,0,0
280,50,0,0,0,0,0,0,0,0,0,-1,1504,974,0,0
287,50,0,0,0,0,0,0,0,0,0,-1,1511,974,0,0
294,50,0,0,0,0,0,0,0,0,0,-1,1518,974,0,0
301,50,0,0,0,0,0,0,0,0,0,-1,1525,974,0,0
308,50,0,0,0,0,0,0,0,0,0,-1,1532,974,0,0
315,50,0,0,0,0,0,0,0,0,0,-1,1539,974,0,0
322,50,0,0,0,0,0,0,0,0,0,-1,1546,974,0,0
329,50,0,0,0,0,0,0,0,0,0,-1,1553,974,0,0
336,50,0,0,0,0,0,0,0,0,0,-1,1560,974,0,0
343,50,0,0,0,0,0,0,0,0,0,-1,1567,974,0,0
350,50,0,0,0,0,0,0,0,0,0,-1,1574,974,0,0
357,50,0,0,0,0,0,0,0,0,0,-1,1581,974,0,0
364,50,0,0,0,0,0,0,0,0,0,-1,1588,974,0,0
371,50,0,0,0,0,0,0,0,0,0,-1,1595,974,0,0
378,50,0,0,0,0,0,0,0,0,0,-1,1602,974,0,0
385,50,0,0,0,0,0,0,0,0,0,-1,1609,974,0,0
392,50,0,0,0,0,0,0,0,0,0,-1,1616,974,0,0
399,50,0,0,0,0,0,0,0,0,0,-1,1623,974,0,0
406,50,0,0,0,0,0,0,0,0,0,-1,1630,974,0,0
413,50,0,0,0,0,0,0,0,0,0,-1,1637,974,0,0
420,50,0,0,0,0,0,0,0,0,0,-1,1644,974,0,0
427,50,0,0,0,0,0,0,0,0,0,-1,1651,974,0,0
434,50,0,0,0,0,0,0,0,0,0,-1,1658,974,0,0
441,50,0,0,0,0,0,0,0,0,0,-1,1665,974,0,0
448,50,0,0,0,0,0,0,0,0,0,-1,1672,974,0,0
455,50,0,0,0,0,0,0,0,0,0,-1,1679,974,0,0
462,50,0,0,0,0,0,0,0,0,0,-1,1686,974,0,0
469,50,0,0,0,0,0,0,0,0,0,-1,1693,974,0,0
476,50,0,0,0,0,0,0,0,0,0,-1,1700,974,0,0
483,50,0,0,0,0,0,0,0,0,0,-1,1707,974,0,0
490,50,0,0,0,0,0,0,0,0,0,-1,1714,974,0,0
497,50,0,0,0,0,0,0,0,0,0,-1,1721,974,0,0
504,50,0,0,0,0,0,0,0,0,0,-1,1728,974,0,0
511,50,0,0,0,0,0,0,0,0,0,-1,1735,974,0,0
518,50,0,0,0,0,0,0,0,0,0,-1,1742,974,0,0
525,50,0,0,0,0,0,0,0,0,0,-1,1749,974,0,0
532,50,0,0,0,0,0,0,0,0,0,-1,1756,974,0,0
539,50,0,0,0,0,0,0,0,0,0,-1,1763,974,0,0
546,50,0,0,0,0,0,0,0,0,0,-1,1770,974,0,0
553,50,0,0,0,0,0,0,0,0,0,-1,1777,974,0,0
560,50,0,0,0,0,0,0,0,0,0,-1,1784,974,0,0
567,50,0,0,0,0,0,0,0,0,0,-1,1791,974,0,0
574,50,0,0,0,0,0,0,0,0,0,-1,1798,974,0,0
581,50,0,0,0,0,0,0,0,0,0,-1,1805,974,0,0
588,50,0,0,0,0,0,0,0,0,0,-1,1812,974,0,0
595,50,0,0,0,0,0,0,0,0,0,-1,1819,974,0,0
602,50,0,0,0,0,0,0,0,0,0,-1,1826,974,0,0
609,50,0,0,0,0,0,0,0,0,0,-1,1833,974,0,0
616,50,0,0,0,0,0,0,0,0,0,-1,1840,974,0,0
623,50,0,0,0,0,0,0,0,0,0,-1,1847,974,0,0
630,50,0,0,0,0,0,0,0,0,0,-1,1854,974,0,0
637,50,0,0,0,0,0,0,0,0,0,-1,1861,974,0,0
644,50,46.7516,2.78595,0.0048143,0.00508691,0.000501468,0.00547027,0.00443094,0.9181,0.00335451,0.0363596,1868,974,46.7516,-2.78598
651,50,46.7742,2.72675,0.00348553,0.00373741,2.85432e-05,0.0037406,0.00348234,1.45936,0.00241226,0.0305658,1875,974,46.7742,-2.72675
658,50,46.7339,2.69812,0.00232156,0.00264281,-4.69587e-05,0.00264954,0.00231484,-1.42859,0.00166604,0.0347132,1882,974,46.7339,-2.69813
665,50,46.8572,2.54553,0.00138498,0.00183766,3.53786e-05,0.00184041,0.00138223,1.49327,0.0011063,0.039215,1889,974,46.8572,-2.54556
672,50,46.8722,2.52502,0.000540122,0.0012427,0.000272097,0.00133576,0.000447068,1.24128,0.000785124,0.0391106,1896,974,46.8721,-2.52502
679,50,46.6702,2.6524,-1.90477e-05,0.000872876,0.000651657,0.00121656,-0.00036273,1.08547,0.00095519,0.0407838,1903,974,46.6701,-2.65238
686,50,46.5991,2.58289,-0.000246261,0.000542197,0.000914156,0.00114351,-0.000847571,0.988974,0.00115377,0.0406782,1910,974,46.5991,-2.58289
693,50,46.6384,2.47418,-0.0003963,0.000321277,0.000987915,0.00101354,-0.00108856,0.959581,0.00121391,0.0401065,1917,974,46.6384,-2.4742
700,50,46.6661,2.68195,-0.000793598,0.000274235,0.000948746,0.000828981,-0.00134834,1.04169,0.00126894,0.0241787,1924,974,46.6662,-2.68193
707,50,46.7161,2.74365,-0.00119527,0.000467482,0.0008657,0.000836366,-0.00156415,1.16799,0.00140701,0.0380134,1931,974,46.7161,-2.74364
714,50,46.7156,2.85339,0,0,0,0,0,0,0,-1,1938,974,46.7156,-2.85342
721,50,45.4095,4.83618,0,0,0,0,0,0,0,-1,1945,974,45.4095,-4.83618
728,50,45.4528,5.20313,-0.00259453,0.00242533,9.03998e-05,0.00242695,-0.00259616,1.5528,0.00290064,0.0236109,1952,974,45.4528,-5.20311
735,50,45.5292,5.45325,-0.00313363,0.00353957,-0.000586557,0.00359073,-0.00318479,-1.48379,0.00391419,0.0221009,1959,974,45.5291,-5.45326
742,50,45.5565,5.6734,-0.00381805,0.00438901,-0.00152677,0.00466384,-0.00409288,-1.3927,0.00505927,0.0163543,1966,974,45.5566,-5.6734
749,50,45.5229,5.86469,-0.00440273,0.00549133,-0.00290077,0.00627906,-0.00519047,-1.30563,0.00663187,0.0161152,1973,974,45.5229,-5.86469
756,50,45.4738,6.10925,-0.00472617,0.00632876,-0.00490768,0.00819306,-0.00659047,-1.20776,0.00855197,0.0127835,1980,974,45.4737,-6.10924
763,50,45.3932,6.35095,-0.0049943,0.00712039,-0.00746499,0.0106765,-0.00855036,-1.12624,0.0111232,0.0129354,1987,974,45.3932,-6.35097
770,50,45.3219,6.5658,-0.00463413,0.00722499,-0.0108145,0.0136288,-0.0110379,-1.03617,0.0142675,0.0124785,1994,974,45.3219,-6.5658
777,50,45.2731,6.75006,-0.00353316,0.00626979,-0.0149249,0.0170774,-0.0143408,-0.944055,0.0181622,0.0243531,2001,974,45.2731,-6.75009
784,50,45.0676,6.90619,-0.0012468,0.00357243,-0.0201192,0.0214258,-0.0191001,-0.844998,0.0234105,0.0398828,2008,974,45.0675,-6.90619
791,50,44.8999,7.1106,0,0,0,0,0,0,0,-1,2015,974,44.8999,-7.11061
798,50,44.8894,6.81195,0.00907728,-0.0108928,-0.0357899,0.0362489,-0.0380644,-0.649362,0.0429091,0.0462395,2022,974,44.8894,-6.81197
805,50,45.0342,6.94916,0.0177061,-0.0245622,-0.0470258,0.0481285,-0.0549846,-0.574214,0.0595763,0.048447,2029,974,45.0343,-6.94916
812,50,0,0,0,0,0,0,0,0,0,-1,2036,974,0,0
-700,43,0,0,0,0,0,0,0,0,0,-1,524,981,0,0
-693,43,-37.6123,11.1312,0,0,0,0,0,0,0,-1,531,981,-37.6123,-11.1312
-686,43,-35.3134,-0.221863,0,0,0,0,0,0,0,-1,538,981,-35.3134,0.221891
-679,43,-34.6898,0.998291,0,0,0,0,0,0,0,-1,545,981,-34.6897,-0.998271
-672,43,-34.6173,1.2785,0,0,0,0,0,0,0,-1,552,981,-34.6173,-1.2785
-665,43,-35.0051,1.33716,0,0,0,0,0,0,0,-1,559,981,-35.005,-1.33716
-658,43,-34.346,3.966,0,0,0,0,0,0,0,-1,566,981,-34.346,-3.96602
-651,43,-34.4802,3.8689,-0.0100379,0.0203221,-0.00540868,0.0212569,-0.0109726,-1.39966,0.0189209,0.0441991,573,981,-34.4802,-3.86887
-644,43,-34.6492,3.77594,-0.00696369,0.0178335,-0.00290762,0.0181699,-0.00730006,-1.45562,0.0151449,0.024697,580,981,-34.6492,-3.77596
-637,43,-34.7546,3.62531,-0.00494905,0.0149231,-0.00123196,0.0149991,-0.00502514,-1.50912,0.0120296,0.0185806,587,981,-34.7546,-3.62532
-630,43,-34.793,3.46973,-0.00292491,0.0123042,-0.00133761,0.0124208,-0.0030415,-1.48385,0.0094588,0.0151088,594,981,-34.793,-3.46974
-623,43,-34.7884,3.33411,-0.00218866,0.00926661,-0.00136952,0.00942807,-0.00235012,-1.45345,0.00719779,0.0119847,601,981,-34.7884,-3.33412
-616,43,-34.7828,3.14948,-0.00247298,0.00716823,-0.00249084,0.00777372,-0.00307847,-1.33233,0.00645803,0.0110222,608,981,-34.7829,-3.1495
-609,43,-34.8049,2.94012,-0.00304454,0.00500965,-0.00363416,0.006407,-0.00444189,-1.20372,0.00629777,0.0133223,615,981,-34.8049,-2.94015
-602,43,-34.8039,2.75977,-0.00290213,0.00352682,-0.00526086,0.00647752,-0.00585284,-1.05964,0.00712198,0.0164258,622,981,-34.8039,-2.75974
-595,43,-34.8589,2.92834,0,0,0,0,0,0,0,-1,629,981,-34.8589,-2.92836
-588,43,-34.8113,2.12103,-0.00254666,0.00120197,-0.00693038,0.00650702,-0.00785171,-0.917463,0.00830212,0.0221752,636,981,-34.8113,-2.12103
-581,43,-34.8642,1.245,-0.00222289,0.00058806,-0.00732781,0.00664396,-0.00827879,-0.880148,0.00863287,0.0274188,643,981,-34.8642,-1.24501
-574,43,-34.9063,0.886658,-0.00206732,0.000101507,-0.0072819,0.0063793,-0.00834511,-0.859315,0.00852636,0.0273804,650,981,-34.9063,-0.886685
-567,43,-34.8902,0.885437,-0.00180194,-2.98454e-05,-0.006693,0.0058355,-0.00766728,-0.851207,0.00781971,0.036528,657,981,-34.8902,-0.885455
-560,43,-34.9381,0.945801,-0.00127064,-0.000100009,-0.00548985,0.00483564,-0.00620629,-0.838506,0.00639141,0.0403637,664,981,-34.9381,-0.945803
-553,43,-34.9883,0.972778,-0.000432458,-0.000176975,-0.00370989,0.00340737,-0.0040168,-0.802608,0.00429116,0.0416427,671,981,-34.9883,-0.972773
-546,43,-34.8422,1.11603,0.000715873,-0.000418949,-0.00135959,0.0016217,-0.00132478,-0.587715,0.00170403,0.0421286,678,981,-34.8423,-1.11601
-539,43,-34.6835,1.22333,0.00203237,-0.000942669,0.00125312,0.00248985,-0.00140015,0.350039,0.00227508,0.0434416,685,981,-34.6835,-1.22333
-532,43,-34.5021,0.839905,0.00343984,-0.00160724,0.00287824,0.00474416,-0.00291157,0.425484,0.00446205,0.0449596,692,981,-34.5021,-0.8399
-525,43,-34.2662,0.548767,0,0,0,0,0,0,0,-1,699,981,-34.2663,-0.548771
-518,43,0,0,0,0,0,0,0,0,0,-1,706,981,0,0
-511,43,0,0,0,0,0,0,0,0,0,-1,713,981,0,0
-504,43,0,0,0,0,0,0,0,0,0,-1,720,981,0,0
-497,43,0,0,0,0,0,0,0,0,0,-1,727,981,0,0
-490,43,0,0,0,0,0,0,0,0,0,-1,734,981,0,0
-483,43,0,0,0,0,0,0,0,0,0,-1,741,981,0,0
-476,43,0,0,0,0,0,0,0,0,0,-1,748,981,0,0
-469,43,0,0,0,0,0,0,0,0,0,-1,755,981,0,0
-462,43,0,0,0,0,0,0,0,0,0,-1,762,981,0,0
-455,43,0,0,0,0,0,0,0,0,0,-1,769,981,0,0
-448,43,0,0,0,0,0,0,0,0,0,-1,776,981,0,0
-441,43,0,0,0,0,0,0,0,0,0,-1,783,981,0,0
-434,43,0,0,0,0,0,0,0,0,0,-1,790,981,0,0
-427,43,0,0,0,0,0,0,0,0,0,-1,797,981,0,0
-420,43,0,0,0,0,0,0,0,0,0,-1,804,981,0,0
-413,43,0,0,0,0,0,0,0,0,0,-1,811,981,0,0
-406,43,0,0,0,0,0,0,0,0,0,-1,818,981,0,0
-399,43,0,0,0,0,0,0,0,0,0,-1,825,981,0,0
-392,43,0,0,0,0,0,0,0,0,0,-1,832,981,0,0
-385,43,0,0,0,0,0,0,0,0,0,-1,839,981,0,0
-378,43,0,0,0,0,0,0,0,0,0,-1,846,981,0,0
-371,43,0,0,0,0,0,0,0,0,0,-1,853,981,0,0
-364,43,0,0,0,0,0,0,0,0,0,-1,860,981,0,0
-357,43,0,0,0,0,0,0,0,0,0,-1,867,981,0,0
-350,43,0,0,0,0,0,0,0,0,0,-1,874,981,0,0
-343,43,0,0,0,0,0,0,0,0,0,-1,881,981,0,0
-336,43,0,0,0,0,0,0,0,0,0,-1,888,981,0,0
-329,43,0,0,0,0,0,0,0,0,0,-1,895,981,0,0
-322,43,0,0,0,0,0,0,0,0,0,-1,902,981,0,0
-315,43,0,0,0,0,0,0,0,0,0,-1,909,981,0,0
-308,43,0,0,0,0,0,0,0,0,0,-1,916,981,0,0
-301,43,0,0,0,0,0,0,0,0,0,-1,923,981,0,0
-294,43,0,0,0,0,0,0,0,0,0,-1,930,981,0,0
-287,43,0,0,0,0,0,0,0,0,0,-1,937,981,0,0
-280,43,0,0,0,0,0,0,0,0,0,-1,944,981,0,0
-273,43,0,0,0,0,0,0,0,0,0,-1,951,981,0,0
-266,43,0,0,0,0,0,0,0,0,0,-1,958,981,0,0
-259,43,0,0,0,0,0,0,0,0,0,-1,965,981,0,0
-252,43,0,0,0,0,0,0,0,0,0,-1,972,981,0,0
-245,43,0,0,0,0,0,0,0,0,0,-1,979,981,0,0
-238,43,0,0,0,0,0,0,0,0,0,-1,986,981,0,0
-231,43,0,0,0,0,0,0,0,0,0,-1,993,981,0,0
-224,43,0,0,0,0,0,0,0,0,0,-1,1000,981,0,0
-217,43,0,0,0,0,0,0,0,0,0,-1,1007,981,0,0
-210,43,0,0,0,0,0,0,0,0,0,-1,1014,981,0,0
-203,43,0,0,0,0,0,0,0,0,0,-1,1021,981,0,0
-196,43,0,0,0,0,0,0,0,0,0,-1,1028,981,0,0
-189,43,0,0,0,0,0,0,0,0,0,-1,1035,981,0,0
-182,43,0,0,0,0,0,0,0,0,0,-1,1042,981,0,0
-175,43,0,0,0,0,0,0,0,0,0,-1,1049,981,0,0
-168,43,0,0,0,0,0,0,0,0,0,-1,1056,981,0,0
-161,43,0,0,0,0,0,0,0,0,0,-1,1063,981,0,0
-154,43,0,0,0,0,0,0,0,0,0,-1,1070,981,0,0
-147,43,0,0,0,0,0,0,0,0,0,-1,1077,981,0,0
-140,43,0,0,0,0,0,0,0,0,0,-1,1084,981,0,0
-133,43,0,0,0,0,0,0,0,0,0,-1,1091,981,0,0
-126,43,0,0,0,0,0,0,0,0,0,-1,1098,981,0,0
-119,43,0,0,0,0,0,0,0,0,0,-1,1105,981,0,0
-112,43,0,0,0,0,0,0,0,0,0,-1,1112,981,0,0
-105,43,0,0,0,0,0,0,0,0,0,-1,1119,981,0,0
-98,43,0,0,0,0,0,0,0,0,0,-1,1126,981,0,0
-91,43,0,0,0,0,0,0,0,0,0,-1,1133,981,0,0
-84,43,0,0,0,0,0,0,0,0,0,-1,1140,981,0,0
-77,43,0,0,0,0,0,0,0,0,0,-1,1147,981,0,0
-70,43,0,0,0,0,0,0,0,0,0,-1,1154,981,0,0
-63,43,0,0,0,0,0,0,0,0,0,-1,1161,981,0,0
-56,43,0,0,0,0,0,0,0,0,0,-1,1168,981,0,0
-49,43,0,0,0,0,0,0,0,0,0,-1,1175,981,0,0
-42,43,0,0,0,0,0,0,0,0,0,-1,1182,981,0,0
-35,43,0,0,0,0,0,0,0,0,0,-1,1189,981,0,0
-28,43,0,0,0,0,0,0,0,0,0,-1,1196,981,0,0
-21,43,0,0,0,0,0,0,0,0,0,-1,1203,981,0,0
-14,43,0,0,0,0,0,0,0,0,0,-1,1210,981,0,0
-7,43,0,0,0,0,0,0,0,0,0,-1,1217,981,0,0
0,43,0,0,0,0,0,0,0,0,0,-1,1224,981,0,0
7,43,0,0,0,0,0,0,0,0,0,-1,1231,981,0,0
14,43,0,0,0,0,0,0,0,0,0,-1,1238,981,0,0
21,43,0,0,0,0,0,0,0,0,0,-1,1245,981,0,0
28,43,0,0,0,0,0,0,0,0,0,-1,1252,981,0,0
35,43,0,0,0,0,0,0,0,0,0,-1,1259,981,0,0
42,43,0,0,0,0,0,0,0,0,0,-1,1266,981,0,0
49,43,0,0,0,0,0,0,0,0,0,-1,1273,981,0,0
56,43,0,0,0,0,0,0,0,0,0,-1,1280,981,0,0
63,43,0,0,0,0,0,0,0,0,0,-1,1287,981,0,0
70,43,0,0,0,0,0,0,0,0,0,-1,1294,981,0,0
77,43,0,0,0,0,0,0,0,0,0,-1,1301,981,0,0
84,43,0,0,0,0,0,0,0,0,0,-1,1308,981,0,0
91,43,0,0,0,0,0,0,0,0,0,-1,1315,981,0,0
98,43,0,0,0,0,0,0,0,0,0,-1,1322,981,0,0
105,43,0,0,0,0,0,0,0,0,0,-1,1329,981,0,0
112,43,0,0,0,0,0,0,0,0,0,-1,1336,981,0,0
119,43,0,0,0,0,0,0,0,0,0,-1,1343,981,0,0
126,43,0,0,0,0,0,0,0,0,0,-1,1350,981,0,0
133,43,0,0,0,0,0,0,0,0,0,-1,1357,981,0,0
140,43,0,0,0,0,0,0,0,0,0,-1,1364,981,0,0
147,43,0,0,0,0,0,0,0,0,0,-1,1371,981,0,0
154,43,0,0,0,0,0,0,0,0,0,-1,1378,981,0,0
161,43,0,0,0,0,0,0,0,0,0,-1,1385,981,0,0
168,43,0,0,0,0,0,0,0,0,0,-1,1392,981,0,0
175,43,0,0,0,0,0,0,0,0,0,-1,1399,981,0,0
182,43,0,0,0,0,0,0,0,0,0,-1,1406,981,0,0
189,43,0,0,0,0,0,0,0,0,0,-1,1413,981,0,0
196,43,0,0,0,0,0,0,0,0,0,-1,1420,981,0,0
203,43,0,0,0,0,0,0,0,0,0,-1,1427,981,0,0
210,43,0,0,0,0,0,0,0,0,0,-1,1434,981,0,0
217,43,0,0,0,0,0,0,0,0,0,-1,1441,981,0,0
224,43,0,0,0,0,0,0,0,0,0,-1,1448,981,0,0
231,43,0,0,0,0,0,0,0,0,0,-1,1455,981,0,0
238,43,0,0,0,0,0,0,0,0,0,-1,1462,981,0,0
245,43,0,0,0,0,0,0,0,0,0,-1,1469,981,0,0
252,43,0,0,0,0,0,0,0,0,0,-1,1476,981,0,0
259,43,0,0,0,0,0,0,0,0,0,-1,1483,981,0,0
266,43,0,0,0,0,0,0,0,0,0,-1,1490,981,0,0
273,43,0,0,0,0,0,0,0,0,0,-1,1497,981,0,0
280,43,0,0,0,0,0,0,0,0,0,-1,1504,981,0,0
287,43,0,0,0,0,0,0,0,0,0,-1,1511,981,0,0
294,43,0,0,0,0,0,0,0,0,0,-1,1518,981,0,0
301,43,0,0,0,0,0,0,0,0,0,-1,1525,981,0,0
308,43,0,0,0,0,0,0,0,0,0,-1,1532,981,0,0
315,43,0,0,0,0,0,0,0,0,0,-1,1539,981,0,0
322,43,0,0,0,0,0,0,0,0,0,-1,1546,981,0,0
329,43,0,0,0,0,0,0,0,0,0,-1,1553,981,0,0
336,43,0,0,0,0,0,0,0,0,0,-1,1560,981,0,0
343,43,0,0,0,0,0,0,0,0,0,-1,1567,981,0,0
350,43,0,0,0,0,0,0,0,0,0,-1,1574,981,0,0
357,43,0,0,0,0,0,0,0,0,0,-1,1581,981,0,0
364,43,0,0,0,0,0,0,0,0,0,-1,1588,981,0,0
371,43,0,0,0,0,0,0,0,0,0,-1,1595,981,0,0
378,43,0,0,0,0,0,0,0,0,0,-1,1602,981,0,0
385,43,0,0,0,0,0,0,0,0,0,-1,1609,981,0,0
392,43,0,0,0,0,0,0,0,0,0,-1,1616,981,0,0
399,43,0,0,0,0,0,0,0,0,0,-1,1623,981,0,0
406,43,0,0,0,0,0,0,0,0,0,-1,1630,981,0,0
413,43,0,0,0,0,0,0,0,0,0,-1,1637,981,0,0
420,43,0,0,0,0,0,0,0,0,0,-1,1644,981,0,0
427,43,0,0,0,0,0,0,0,0,0,-1,1651,981,0,0
434,43,0,0,0,0,0,0,0,0,0,-1,1658,981,0,0
441,43,0,0,0,0,0,0,0,0,0,-1,1665,981,0,0
448,43,0,0,0,0,0,0,0,0,0,-1,1672,981,0,0
455,43,0,0,0,0,0,0,0,0,0,-1,1679,981,0,0
462,43,0,0,0,0,0,0,0,0,0,-1,1686,981,0,0
469,43,0,0,0,0,0,0,0,0,0,-1,1693,981,0,0
476,43,0,0,0,0,0,0,0,0,0,-1,1700,981,0,0
483,43,0,0,0,0,0,0,0,0,0,-1,1707,981,0,0
490,43,0,0,0,0,0,0,0,0,0,-1,1714,981,0,0
497,43,0,0,0,0,0,0,0,0,0,-1,1721,981,0,0
504,43,0,0,0,0,0,0,0,0,0,-1,1728,981,0,0
511,43,0,0,0,0,0,0,0,0,0,-1,1735,981,0,0
518,43,0,0,0,0,0,0,0,0,0,-1,1742,981,0,0
525,43,0,0,0,0,0,0,0,0,0,-1,1749,981,0,0
532,43,0,0,0,0,0,0,0,0,0,-1,1756,981,0,0
539,43,0,0,0,0,0,0,0,0,0,-1,1763,981,0,0
546,43,0,0,0,0,0,0,0,0,0,-1,1770,981,0,0
553,43,0,0,0,0,0,0,0,0,0,-1,1777,981,0,0
560,43,0,0,0,0,0,0,0,0,0,-1,1784,981,0,0
567,43,0,0,0,0,0,0,0,0,0,-1,1791,981,0,0
574,43,0,0,0,0,0,0,0,0,0,-1,1798,981,0,0
581,43,0,0,0,0,0,0,0,0,0,-1,1805,981,0,0
588,43,0,0,0,0,0,0,0,0,0,-1,1812,981,0,0
595,43,0,0,0,0,0,0,0,0,0,-1,1819,981,0,0
602,43,0,0,0,0,0,0,0,0,0,-1,1826,981,0,0
609,43,0,0,0,0,0,0,0,0,0,-1,1833,981,0,0
616,43,0,0,0,0,0,0,0,0,0,-1,1840,981,0,0
623,43,0,0,0,0,0,0,0,0,0,-1,1847,981,0,0
630,43,0,0,0,0,0,0,0,0,0,-1,1854,981,0,0
637,43,0,0,0,0,0,0,0,0,0,-1,1861,981,0,0
644,43,46.6533,2.63745,0.00529216,0.00605388,0.00074276,0.00650774,0.00483831,1.0223,0.0039029,0.0377459,1868,981,46.6533,-2.63747
651,43,46.7296,2.62799,0.00374244,0.00448183,0.000366243,0.00463252,0.00359174,1.18044,0.0028065,0.0370624,1875,981,46.7296,-2.628
658,43,46.7751,2.64569,0.00244379,0.00321068,0.000322734,0.00332842,0.00232605,1.22098,0.00197167,0.039046,1882,981,46.7751,-2.64571
665,43,46.8121,2.66205,0.00144914,0.0022793,0.000388921,0.00243304,0.0012954,1.19436,0.0014057,0.0387985,1889,981,46.8121,-2.66207
672,43,46.7045,2.61359,0.000611421,0.00162534,0.000588097,0.00189483,0.000341937,1.14112,0.00116607,0.0388997,1896,981,46.7044,-2.61361
679,43,46.6151,2.63849,5.81754e-05,0.00125951,0.000930424,0.00176631,-0.000448628,1.07203,0.00135212,0.040303,1903,981,46.6152,-2.63846
686,43,46.7166,2.69342,-0.000147144,0.000936582,0.00117814,0.0016915,-0.000902057,1.00094,0.00152033,0.039004,1910,981,46.7166,-2.69342
693,43,46.7542,2.62299,-0.000274692,0.000707568,0.00126336,0.0015719,-0.00113903,0.970783,0.0015718,0.0381629,1917,981,46.7542,-2.62296
700,43,46.6099,2.67145,-0.000627878,0.000638012,0.00123091,0.00138918,-0.00137904,1.02287,0.00159823,0.0357861,1924,981,46.6099,-2.67143
707,43,46.7177,2.58313,-0.000989839,0.000841983,0.00114125,0.0013894,-0.00153726,1.12355,0.00169043,0.0320213,1931,981,46.7176,-2.58315
714,43,46.7769,2.51923,0,0,0,0,0,0,0,-1,1938,981,46.7769,-2.51924
721,43,45.8616,4.82489,0,0,0,0,0,0,0,-1,1945,981,45.8616,-4.82487
728,43,45.8922,5.14337,-0.00241531,0.00281089,0.000324901,0.00283101,-0.00243543,1.50895,0.00304344,0.022739,1952,981,45.8922,-5.14338
735,43,45.8588,5.42719,-0.0029739,0.00393297,-0.000318195,0.0039476,-0.00298853,-1.52486,0.00401732,0.0159801,1959,981,45.8588,-5.42718
742,43,45.8009,5.6355,-0.00372745,0.00476817,-0.00122464,0.00494118,-0.00390046,-1.43045,0.0051165,0.0167431,1966,981,45.8009,-5.63552
749,43,45.7773,5.84381,-0.00434559,0.00583673,-0.00255536,0.00644204,-0.0049509,-1.3382,0.00659647,0.0183139,1973,981,45.7773,-5.8438
756,43,45.7574,6.04858,-0.00469483,0.00667742,-0.00449231,0.00823787,-0.00625529,-1.23647,0.00839368,0.0204508,1980,981,45.7574,-6.04857
763,43,45.7122,6.24622,-0.00502118,0.00751962,-0.00698595,0.0106365,-0.00813808,-1.15113,0.0108715,0.0240687,1987,981,45.7122,-6.2462
770,43,45.6127,6.51904,-0.00470724,0.00771021,-0.0103304,0.0135541,-0.0105511,-1.05598,0.0139531,0.0196997,1994,981,45.6126,-6.51903
777,43,45.5916,6.71387,-0.0035936,0.00690725,-0.0144407,0.0170224,-0.0137087,-0.959762,0.0177769,0.0251029,2001,981,45.5915,-6.71387
784,43,45.5632,6.9577,-0.00125515,0.00445618,-0.0195863,0.0213939,-0.0181928,-0.857788,0.0228803,0.0427382,2008,981,45.5633,-6.9577
791,43,45.4836,6.83038,0.00302207,-0.000689273,-0.026317,0.0275487,-0.0252159,-0.7502,0.0304736,0.0438614,2015,981,45.4836,-6.83039
798,43,45.5576,6.92877,0.00949308,-0.00937747,-0.0350416,0.0363475,-0.0362319,-0.653888,0.0419037,0.044853,2022,981,45.5576,-6.92876
805,43,46.1099,7.53784,0.0186281,-0.0226956,-0.0461315,0.0485135,-0.052581,-0.574849,0.0583827,0.0426817,2029,981,46.1099,-7.53784
812,43,46.4543,7.84204,0,0,0,0,0,0,0,-1,2036,981,46.4543,-7.84203
-700,36,0,0,0,0,0,0,0,0,0,-1,524,988,0,0
-693,36,-37.2856,10.0479,0,0,0,0,0,0,0,-1,531,988,-37.2856,-10.0478
-686,36,-32.4084,3.41852,0,0,0,0,0,0,0,-1,538,988,-32.4084,-3.41854
-679,36,-34.8585,0.663086,0,0,0,0,0,0,0,-1,545,988,-34.8585,-0.66307
-672,36,-31.6889,3.40228,0,0,0,0,0,0,0,-1,552,988,-31.6889,-3.4023
-665,36,-32.6341,-0.29657,0,0,0,0,0,0,0,-1,559,988,-32.6341,0.296552
-658,36,-34.564,3.71875,0,0,0,0,0,0,0,-1,566,988,-34.564,-3.71873
-651,36,-34.6995,3.63202,-0.0146393,0.0245996,8.39742e-05,0.0245998,-0.0146395,1.56866,0.0228968,0.0419307,573,988,-34.6995,-3.63204
-644,36,-34.861,3.57959,-0.0105071,0.0209248,0.00078244,0.0209443,-0.0105265,1.54592,0.0184985,0.0266118,580,988,-34.861,-3.57957
-637,36,-34.9803,3.47418,-0.0074691,0.0168951,0.000918639,0.0169297,-0.00750369,1.53316,0.0144523,0.0206235,587,988,-34.9803,-3.47418
-630,36,-34.9744,3.40411,-0.00436528,0.0134627,-0.000306224,0.013468,-0.00437054,-1.55363,0.0107362,0.0156167,594,988,-34.9744,-3.40411
-623,36,-34.9835,3.29022,-0.00270018,0.00971715,-0.000923259,0.00978542,-0.00276845,-1.49698,0.00761605,0.0124141,601,988,-34.9835,-3.29024
-616,36,-34.9879,3.13971,-0.00221469,0.00736759,-0.00250738,0.00798403,-0.00283113,-1.32973,0.00647607,0.0107122,608,988,-34.9879,-3.13971
-609,36,-34.9723,3.00085,-0.00230929,0.00507909,-0.00397176,0.0068091,-0.0040393,-1.16,0.00633101,0.0153131,615,988,-34.9723,-3.00087
-602,36,-34.9879,2.82214,-0.00184119,0.00337914,-0.00576995,0.00710185,-0.00556389,-0.997811,0.00733052,0.0205259,622,988,-34.9879,-2.82214
-595,36,-35.129,2.89862,0,0,0,0,0,0,0,-1,629,988,-35.129,-2.89861
-588,36,-34.9932,1.95483,-0.00101163,0.00100961,-0.00748864,0.00755551,-0.00755753,-0.85247,0.00872552,0.0290821,636,988,-34.9931,-1.95481
-581,36,-34.8606,1.09308,-0.00063558,0.000390445,-0.00779963,0.00769392,-0.00793905,-0.818238,0.00902607,0.0296171,643,988,-34.8606,-1.09305
-574,36,-34.8652,0.855164,-0.000537062,-0.000163011,-0.00764902,0.00730127,-0.00800134,-0.797621,0.00883805,0.0256548,650,988,-34.8653,-0.855137
-567,36,-34.9054,0.902527,-0.000449267,-0.000372214,-0.00689551,0.00648487,-0.00730636,-0.788192,0.00796708,0.0324025,657,988,-34.9054,-0.90252
-560,36,-34.8696,0.891296,-0.000239692,-0.000528955,-0.00546181,0.0050794,-0.00584804,-0.772161,0.00631416,0.0367317,664,988,-34.8696,-0.891307
-553,36,-34.8151,0.880188,7.4361e-05,-0.000735538,-0.0033816,0.00307517,-0.00373635,-0.725807,0.0039388,0.0408433,671,988,-34.8151,-0.880216
-546,36,-34.7097,0.862549,0.000489128,-0.00118379,-0.000665613,0.000721642,-0.0014163,-0.336072,0.00125587,0.0416861,678,988,-34.7097,-0.862543
-539,36,-34.6078,1.02045,0.000916077,-0.00197304,0.00224661,0.00214247,-0.00319944,0.49968,0.00310421,0.0410818,685,988,-34.6078,-1.02047
-532,36,-34.5618,1.18164,0.00141043,-0.00292248,0.00392488,0.00372707,-0.00523912,0.533217,0.00520111,0.0440136,692,988,-34.5618,-1.18166
-525,36,-34.8155,1.02655,0.000407453,-0.0032646,0.00372962,0.00272847,-0.00558562,0.556671,0.00489371,0.046734,699,988,-34.8155,-1.02654
-518,36,0,0,0,0,0,0,0,0,0,-1,706,988,0,0
-511,36,0,0,0,0,0,0,0,0,0,-1,713,988,0,0
-504,36,0,0,0,0,0,0,0,0,0,-1,720,988,0,0
-497,36,0,0,0,0,0,0,0,0,0,-1,727,988,0,0
-490,36,0,0,0,0,0,0,0,0,0,-1,734,988,0,0
-483,36,0,0,0,0,0,0,0,0,0,-1,741,988,0,0
-476,36,0,0,0,0,0,0,0,0,0,-1,748,988,0,0
-469,36,0,0,0,0,0,0,0,0,0,-1,755,988,0,0
-462,36,0,0,0,0,0,0,0,0,0,-1,762,988,0,0
-455,36,0,0,0,0,0,0,0,0,0,-1,769,988,0,0
-448,36,0,0,0,0,0,0,0,0,0,-1,776,988,0,0
-441,36,0,0,0,0,0,0,0,0,0,-1,783,988,0,0
-434,36,0,0,0,0,0,0,0,0,0,-1,790,988,0,0
-427,36,0,0,0,0,0,0,0,0,0,-1,797,988,0,0
-420,36,0,0,0,0,0,0,0,0,0,-1,804,988,0,0
-413,36,0,0,0,0,0,0,0,0,0,-1,811,988,0,0
-406,36,0,0,0,0,0,0,0,0,0,-1,818,988,0,0
-399,36,0,0,0,0,0,0,0,0,0,-1,825,988,0,0
-392,36,0,0,0,0,0,0,0,0,0,-1,832,988,0,0
-385,36,0,0,0,0,0,0,0,0,0,-1,839,988,0,0
-378,36,0,0,0,0,0,0,0,0,0,-1,846,988,0,0
-371,36,0,0,0,0,0,0,0,0,0,-1,853,988,0,0
-364,36,0,0,0,0,0,0,0,0,0,-1,860,988,0,0
-357,36,0,0,0,0,0,0,0,0,0,-1,867,988,0,0
-350,36,0,0,0,0,0,0,0,0,0,-1,874,988,0,0
-343,36,0,0,0,0,0,0,0,0,0,-1,881,988,0,0
-336,36,0,0,0,0,0,0,0,0,0,-1,888,988,0,0
-329,36,0,0,0,0,0,0,0,0,0,-1,895,988,0,0
-322,36,0,0,0,0,0,0,0,0,0,-1,902,988,0,0
-315,36,0,0,0,0,0,0,0,0,0,-1,909,988,0,0
-308,36,0,0,0,0,0,0,0,0,0,-1,916,988,0,0
-301,36,0,0,0,0,0,0,0,0,0,-1,923,988,0,0
-294,36,0,0,0,0,0,0,0,0,0,-1,930,988,0,0
-287,36,0,0,0,0,0,0,0,0,0,-1,937,988,0,0
-280,36,0,0,0,0,0,0,0,0,0,-1,944,988,0,0
-273,36,0,0,0,0,0,0,0,0,0,-1,951,988,0,0
-266,36,0,0,0,0,0,0,0,0,0,-1,958,988,0,0
-259,36,0,0,0,0,0,0,0,0,0,-1,965,988,0,0
-252,36,0,0,0,0,0,0,0,0,0,-1,972,988,0,0
-245,36,0,0,0,0,0,0,0,0,0,-1,979,988,0,0
-238,36,0,0,0,0,0,0,0,0,0,-1,986,988,0,0
-231,36,0,0,0,0,0,0,0,0,0,-1,993,988,0,0
-224,36,0,0,0,0,0,0,0,0,0,-1,1000,988,0,0
-217,36,0,0,0,0,0,0,0,0,0,-1,1007,988,0,0
-210,36,0,0,0,0,0,0,0,0,0,-1,1014,988,0,0
-203,36,0,0,0,0,0,0,0,0,0,-1,1021,988,0,0
-196,36,0,0,0,0,0,0,0,0,0,-1,1028,988,0,0
-189,36,0,0,0,0,0,0,0,0,0,-1,1035,988,0,0
-182,36,0,0,0,0,0,0,0,0,0,-1,1042,988,0,0
-175,36,0,0,0,0,0,0,0,0,0,-1,1049,988,0,0
-168,36,0,0,0,0,0,0,0,0,0,-1,1056,988,0,0
-161,36,0,0,0,0,0,0,0,0,0,-1,1063,988,0,0
-154,36,0,0,0,0,0,0,0,0,0,-1,1070,988,0,0
-147,36,0,0,0,0,0,0,0,0,0,-1,1077,988,0,0
-140,36,0,0,0,0,0,0,0,0,0,-1,1084,988,0,0
-133,36,0,0,0,0,0,0,0,0,0,-1,1091,988,0,0
-126,36,0,0,0,0,0,0,0,0,0,-1,1098,988,0,0
-119,36,0,0,0,0,0,0,0,0,0,-1,1105,988,0,0
-112,36,0,0,0,0,0,0,0,0,0,-1,1112,988,0,0
-105,36,0,0,0,0,0,0,0,0,0,-1,1119,988,0,0
-98,36,0,0,0,0,0,0,0,0,0,-1,1126,988,0,0
-91,36,0,0,0,0,0,0,0,0,0,-1,1133,988,0,0
-84,36,0,0,0,0,0,0,0,0,0,-1,1140,988,0,0
-77,36,0,0,0,0,0,0,0,0,0,-1,1147,988,0,0
-70,36,0,0,0,0,0,0,0,0,0,-1,1154,988,0,0
-63,36,0,0,0,0,0,0,0,0,0,-1,1161,988,0,0
-56,36,0,0,0,0,0,0,0,0,0,-1,1168,988,0,0
-49,36,0,0,0,0,0,0,0,0,0,-1,1175,988,0,0
-42,36,0,0,0,0,0,0,0,0,0,-1,1182,988,0,0
-35,36,0,0,0,0,0,0,0,0,0,-1,1189,988,0,0
-28,36,0,0,0,0,0,0,0,0,0,-1,1196,988,0,0
-21,36,0,0,0,0,0,0,0,0,0,-1,1203,988,0,0
-14,36,0,0,0,0,0,0,0,0,0,-1,1210,988,0,0
-7,36,0,0,0,0,0,0,0,0,0,-1,1217,988,0,0
0,36,0,0,0,0,0,0,0,0,0,-1,1224,988,0,0
7,36,0,0,0,0,0,0,0,0,0,-1,1231,988,0,0
14,36,0,0,0,0,0,0,0,0,0,-1,1238,988,0,0
21,36,0,0,0,0,0,0,0,0,0,-1,1245,988,0,0
28,36,0,0,0,0,0,0,0,0,0,-1,1252,988,0,0
35,36,0,0,0,0,0,0,0,0,0,-1,1259,988,0,0
42,36,0,0,0,0,0,0,0,0,0,-1,1266,988,0,0
49,36,0,0,0,0,0,0,0,0,0,-1,1273,988,0,0
56,36,0,0,0,0,0,0,0,0,0,-1,1280,988,0,0
63,36,0,0,0,0,0,0,0,0,0,-1,1287,988,0,0
70,36,0,0,0,0,0,0,0,0,0,-1,1294,988,0,0
77,36,0,0,0,0,0,0,0,0,0,-1,1301,988,0,0
84,36,0,0,0,0,0,0,0,0,0,-1,1308,988,0,0
91,36,0,0,0,0,0,0,0,0,0,-1,1315,988,0,0
98,36,0,0,0,0,0,0,0,0,0,-1,1322,988,0,0
105,36,0,0,0,0,0,0,0,0,0,-1,1329,988,0,0
112,36,0,0,0,0,0,0,0,0,0,-1,1336,988,0,0
119,36,0,0,0,0,0,0,0,0,0,-1,1343,988,0,0
126,36,0,0,0,0,0,0,0,0,0,-1,1350,988,0,0
133,36,0,0,0,0,0,0,0,0,0,-1,1357,988,0,0
140,36,0,0,0,0,0,0,0,0,0,-1,1364,988,0,0
147,36,0,0,0,0,0,0,0,0,0,-1,1371,988,0,0
154,36,0,0,0,0,0,0,0,0,0,-1,1378,988,0,0
161,36,0,0,0,0,0,0,0,0,0,-1,1385,988,0,0
168,36,0,0,0,0,0,0,0,0,0,-1,1392,988,0,0
175,36,0,0,0,0,0,0,0,0,0,-1,1399,988,0,0
182,36,0,0,0,0,0,0,0,0,0,-1,1406,988,0,0
189,36,0,0,0,0,0,0,0,0,0,-1,1413,988,0,0
196,36,0,0,0,0,0,0,0,0,0,-1,1420,988,0,0
203,36,0,0,0,0,0,0,0,0,0,-1,1427,988,0,0
210,36,0,0,0,0,0,0,0,0,0,-1,1434,988,0,0
217,36,0,0,0,0,0,0,0,0,0,-1,1441,988,0,0
224,36,0,0,0,0,0,0,0,0,0,-1,1448,988,0,0
231,36,0,0,0,0,0,0,0,0,0,-1,1455,988,0,0
238,36,0,0,0,0,0,0,0,0,0,-1,1462,988,0,0
245,36,0,0,0,0,0,0,0,0,0,-1,1469,988,0,0
252,36,0,0,0,0,0,0,0,0,0,-1,1476,988,0,0
259,36,0,0,0,0,0,0,0,0,0,-1,1483,988,0,0
266,36,0,0,0,0,0,0,0,0,0,-1,1490,988,0,0
273,36,0,0,0,0,0,0,0,0,0,-1,1497,988,0,0
280,36,0,0,0,0,0,0,0,0,0,-1,1504,988,0,0
287,36,0,0,0,0,0,0,0,0,0,-1,1511,988,0,0
294,36,0,0,0,0,0,0,0,0,0,-1,1518,988,0,0
301,36,0,0,0,0,0,0,0,0,0,-1,1525,988,0,0
308,36,0,0,0,0,0,0,0,0,0,-1,1532,988,0,0
315,36,0,0,0,0,0,0,0,0,0,-1,1539,988,0,0
322,36,0,0,0,0,0,0,0,0,0,-1,1546,988,0,0
329,36,0,0,0,0,0,0,0,0,0,-1,1553,988,0,0
336,36,0,0,0,0,0,0,0,0,0,-1,1560,988,0,0
343,36,0,0,0,0,0,0,0,0,0,-1,1567,988,0,0
350,36,0,0,0,0,0,0,0,0,0,-1,1574,988,0,0
357,36,0,0,0,0,0,0,0,0,0,-1,1581,988,0,0
364,36,0,0,0,0,0,0,0,0,0,-1,1588,988,0,0
371,36,0,0,0,0,0,0,0,0,0,-1,1595,988,0,0
378,36,0,0,0,0,0,0,0,0,0,-1,1602,988,0,0
385,36,0,0,0,0,0,0,0,0,0,-1,1609,988,0,0
392,36,0,0,0,0,0,0,0,0,0,-1,1616,988,0,0
399,36,0,0,0,0,0,0,0,0,0,-1,1623,988,0,0
406,36,0,0,0,0,0,0,0,0,0,-1,1630,988,0,0
413,36,0,0,0,0,0,0,0,0,0,-1,1637,988,0,0
420,36,0,0,0,0,0,0,0,0,0,-1,1644,988,0,0
427,36,0,0,0,0,0,0,0,0,0,-1,1651,988,0,0
434,36,0,0,0,0,0,0,0,0,0,-1,1658,988,0,0
441,36,0,0,0,0,0,0,0,0,0,-1,1665,988,0,0
448,36,0,0,0,0,0,0,0,0,0,-1,1672,988,0,0
455,36,0,0,0,0,0,0,0,0,0,-1,1679,988,0,0
462,36,0,0,0,0,0,0,0,0,0,-1,1686,988,0,0
469,36,0,0,0,0,0,0,0,0,0,-1,1693,988,0,0
476,36,0,0,0,0,0,0,0,0,0,-1,1700,988,0,0
483,36,0,0,0,0,0,0,0,0,0,-1,1707,988,0,0
490,36,0,0,0,0,0,0,0,0,0,-1,1714,988,0,0
497,36,0,0,0,0,0,0,0,0,0,-1,1721,988,0,0
504,36,0,0,0,0,0,0,0,0,0,-1,1728,988,0,0
511,36,0,0,0,0,0,0,0,0,0,-1,1735,988,0,0
518,36,0,0,0,0,0,0,0,0,0,-1,1742,988,0,0
525,36,0,0,0,0,0,0,0,0,0,-1,1749,988,0,0
532,36,0,0,0,0,0,0,0,0,0,-1,1756,988,0,0
539,36,0,0,0,0,0,0,0,0,0,-1,1763,988,0,0
546,36,0,0,0,0,0,0,0,0,0,-1,1770,988,0,0
553,36,0,0,0,0,0,0,0,0,0,-1,1777,988,0,0
560,36,0,0,0,0,0,0,0,0,0,-1,1784,988,0,0
567,36,0,0,0,0,0,0,0,0,0,-1,1791,988,0,0
574,36,0,0,0,0,0,0,0,0,0,-1,1798,988,0,0
581,36,0,0,0,0,0,0,0,0,0,-1,1805,988,0,0
588,36,0,0,0,0,0,0,0,0,0,-1,1812,988,0,0
595,36,0,0,0,0,0,0,0,0,0,-1,1819,988,0,0
602,36,0,0,0,0,0,0,0,0,0,-1,1826,988,0,0
609,36,0,0,0,0,0,0,0,0,0,-1,1833,988,0,0
616,36,0,0,0,0,0,0,0,0,0,-1,1840,988,0,0
623,36,0,0,0,0,0,0,0,0,0,-1,1847,988,0,0
630,36,0,0,0,0,0,0,0,0,0,-1,1854,988,0,0
637,36,0,0,0,0,0,0,0,0,0,-1,1861,988,0,0
644,36,46.6477,2.49323,0.00495306,0.00673322,0.00109257,0.00725237,0.00443391,1.12721,0.00422164,0.0408978,1868,988,46.6477,-2.49325
651,36,46.7484,2.52557,0.00352385,0.0049627,0.000730192,0.00526834,0.00321821,1.17438,0.0030665,0.0398821,1875,988,46.7485,-2.52559
658,36,46.8047,2.53711,0.00231448,0.00356133,0.000655112,0.00384225,0.00203356,1.16571,0.00221959,0.0405351,1882,988,46.8047,-2.53714
665,36,46.7102,2.83795,0.00140831,0.00253398,0.000667188,0.00284403,0.00109826,1.13578,0.00165612,0.0419981,1889,988,46.7102,-2.83793
672,36,46.6025,2.74487,0.000668999,0.00184128,0.000801599,0.00224818,0.000262103,1.10108,0.00141951,0.041039,1896,988,46.6026,-2.74484
679,36,46.6055,2.70007,0.000167791,0.00149033,0.00109188,0.00210558,-0.000447452,1.05767,0.00157421,0.0396825,1903,988,46.6054,-2.70006
686,36,46.7759,2.77356,-2.37101e-05,0.00118657,0.00132002,0.00203355,-0.00087069,1.00032,0.00172098,0.0354125,1910,988,46.7759,-2.77354
693,36,46.8167,2.64471,-0.00013884,0.000966917,0.00142017,0.00193803,-0.00110995,0.971025,0.00178127,0.0375152,1917,988,46.8166,-2.64469
700,36,46.7434,2.65179,-0.000449876,0.000888059,0.00140264,0.00177309,-0.00133491,1.00791,0.00180034,0.0384176,1924,988,46.7435,-2.6518
707,36,46.7223,2.63177,-0.000782723,0.00110531,0.00132671,0.00178958,-0.001467,1.09461,0.00188325,0.0285978,1931,988,46.7223,-2.63179
714,36,46.8329,2.47211,0,0,0,0,0,0,0,-1,1938,988,46.8329,-2.47212
721,36,46.248,4.88965,0,0,0,0,0,0,0,-1,1945,988,46.248,-4.88965
728,36,46.1555,5.18597,-0.00233262,0.00309667,0.0005228,0.00314655,-0.0023825,1.47567,0.00320235,0.0236552,1952,988,46.1555,-5.18599
735,36,46.0912,5.44928,-0.0029047,0.00422457,-5.28961e-05,0.00422497,-0.00290509,-1.56338,0.00413998,0.0203403,1959,988,46.0911,-5.4493
742,36,46.0149,5.61353,-0.00368988,0.00508731,-0.000887302,0.00517611,-0.00377868,-1.47105,0.005191,0.0166289,1966,988,46.0149,-5.6135
749,36,46.0134,5.82928,-0.00432881,0.00616722,-0.00212569,0.00658138,-0.00474297,-1.37837,0.00656677,0.0177513,1973,988,46.0135,-5.82928
756,36,45.9828,6.01892,-0.00469186,0.00708157,-0.00392492,0.00827005,-0.00588034,-1.27677,0.00820848,0.0171798,1980,988,45.9827,-6.01891
763,36,45.8883,6.19061,-0.00504846,0.00809632,-0.00625088,0.0105942,-0.00754634,-1.19063,0.0105226,0.019905,1987,988,45.8883,-6.19063
770,36,45.819,6.40204,-0.0047684,0.00856956,-0.00942229,0.0134442,-0.00964303,-1.09336,0.0133895,0.0167594,1994,988,45.819,-6.40206
777,36,45.7947,6.64319,-0.00363806,0.00816519,-0.0133326,0.016844,-0.0123168,-0.993759,0.0169035,0.026284,2001,988,45.7947,-6.64318
784,36,45.9614,6.80768,-0.00123143,0.00631734,-0.018165,0.021096,-0.0160101,-0.887832,0.0214901,0.0459082,2008,988,45.9615,-6.80768
791,36,46.29,6.92188,0.00319303,0.0019132,-0.0244934,0.0270549,-0.0219487,-0.772338,0.0283434,0.0464827,2015,988,46.2902,-6.92187
798,36,46.2598,7.06451,0.00996159,-0.00591255,-0.032708,0.0356817,-0.0316327,-0.666367,0.0388874,0.0476684,2022,988,46.2597,-7.0645
805,36,46.345,7.17139,0,0,0,0,0,0,0,-1,2029,988,46.3451,-7.17136
812,36,46.5723,7.82355,0,0,0,0,0,0,0,-1,2036,988,46.5722,-7.82353
-700,29,0,0,0,0,0,0,0,0,0,-1,524,995,0,0
-693,29,-32.1151,1.56909,0,0,0,0,0,0,0,-1,531,995,-32.1151,-1.56908
-686,29,-32.5095,3.02032,0,0,0,0,0,0,0,-1,538,995,-32.5095,-3.02034
-679,29,-32.9039,4.47162,0,0,0,0,0,0,0,-1,545,995,-32.9039,-4.4716
-672,29,-30.1542,-0.506958,0,0,0,0,0,0,0,-1,552,995,-30.1542,0.50693
-665,29,-35.4118,1.4118,0,0,0,0,0,0,0,-1,559,995,-35.4118,-1.41181
-658,29,-33.002,-0.00506592,0,0,0,0,0,0,0,-1,566,995,-33.002,0.00505976
-651,29,-34.535,2.80774,0,0,0,0,0,0,0,-1,573,995,-34.535,-2.80775
-644,29,-34.9145,3.14917,-0.0143346,0.0236727,0.00456042,0.0242122,-0.0148742,1.45304,0.0227802,0.0454241,580,995,-34.9145,-3.14916
-637,29,-35.1363,3.3172,-0.0101301,0.0186301,0.00301071,0.0189419,-0.0104419,1.4676,0.0171997,0.0252257,587,995,-35.1363,-3.31718
-630,29,-35.1335,3.30023,-0.005847,0.0143249,0.000593913,0.0143423,-0.00586447,1.54139,0.0120038,0.0131117,594,995,-35.1335,-3.30023
-623,29,-35.1261,3.23987,-0.00322538,0.00986326,-0.000585356,0.00988938,-0.0032515,-1.52619,0.00790295,0.0116904,601,995,-35.1261,-3.23988
-616,29,-35.1417,3.12561,-0.00197813,0.00729871,-0.00254477,0.00795092,-0.00263035,-1.3199,0.00636132,0.0136724,608,995,-35.1417,-3.12561
-609,29,-35.1711,3.05438,-0.00163286,0.00489086,-0.00426812,0.00700083,-0.00374283,-1.11167,0.00629721,0.01999,615,995,-35.1711,-3.05435
-602,29,-35.2153,2.9267,-0.000902357,0.00299539,-0.00613144,0.00748023,-0.00538719,-0.939274,0.0074617,0.0233343,622,995,-35.2153,-2.92669
-595,29,-35.2129,2.97467,0,0,0,0,0,0,0,-1,629,995,-35.2129,-2.97465
-588,29,-35.033,2.0354,0.000194813,0.000590601,-0.00786874,0.00826394,-0.00747852,-0.79797,0.00909268,0.0350016,636,995,-35.033,-2.03539
-581,29,-34.8373,1.31598,0.000580265,-4.7823e-05,-0.00807395,0.00834628,-0.00781383,-0.76596,0.00933173,0.0418812,643,995,-34.8374,-1.31601
-574,29,-34.8423,0.9245,0.000613885,-0.000660223,-0.00781806,0.0078208,-0.00786714,-0.744745,0.00905745,0.0303429,650,995,-34.8423,-0.92447
-567,29,-34.8744,0.822998,0.000526087,-0.000946881,-0.00692715,0.0067558,-0.00717659,-0.732438,0.00804509,0.0308047,657,995,-34.8744,-0.823025
-560,29,-34.861,0.696777,0.000416085,-0.00117822,-0.00531737,0.00499572,-0.00575786,-0.710995,0.00621378,0.0353117,664,995,-34.8611,-0.696756
-553,29,-34.8491,0.640015,0.000221189,-0.0014836,-0.00301787,0.00250474,-0.00376715,-0.64776,0.00364544,0.0395057,671,995,-34.8491,-0.640027
-546,29,-34.7102,0.618835,-6.1566e-05,-0.00207765,-3.84812e-05,-6.08318e-05,-0.00207838,-0.0190779,0.00136576,0.0411018,678,995,-34.7102,-0.618848
-539,29,-34.6906,0.786987,-0.000433764,-0.00303999,0.0030507,0.00158049,-0.00505424,0.583552,0.00400174,0.0419687,685,995,-34.6906,-0.786984
-532,29,-34.8943,1.23047,-0.000734174,-0.00414005,0.0046946,0.00255681,-0.00743103,0.611407,0.005991,0.0439767,692,995,-34.8943,-1.2305
-525,29,-34.9877,1.35748,-0.00231142,-0.00462649,0.00469806,0.00136961,-0.00830751,0.664611,0.0060468,0.0444389,699,995,-34.9877,-1.35751
-518,29,0,0,0,0,0,0,0,0,0,-1,706,995,0,0
-511,29,0,0,0,0,0,0,0,0,0,-1,713,995,0,0
-504,29,0,0,0,0,0,0,0,0,0,-1,720,995,0,0
-497,29,0,0,0,0,0,0,0,0,0,-1,727,995,0,0
-490,29,0,0,0,0,0,0,0,0,0,-1,734,995,0,0
-483,29,0,0,0,0,0,0,0,0,0,-1,741,995,0,0
-476,29,0,0,0,0,0,0,0,0,0,-1,748,995,0,0
-469,29,0,0,0,0,0,0,0,0,0,-1,755,995,0,0
-462,29,0,0,0,0,0,0,0,0,0,-1,762,995,0,0
-455,29,0,0,0,0,0,0,0,0,0,-1,769,995,0,0
-448,29,0,0,0,0,0,0,0,0,0,-1,776,995,0,0
-441,29,0,0,0,0,0,0,0,0,0,-1,783,995,0,0
-434,29,0,0,0,0,0,0,0,0,0,-1,790,995,0,0
-427,29,0,0,0,0,0,0,0,0,0,-1,797,995,0,0
-420,29,0,0,0,0,0,0,0,0,0,-1,804,995,0,0
-413,29,0,0,0,0,0,0,0,0,0,-1,811,995,0,0
-406,29,0,0,0,0,0,0,0,0,0,-1,818,995,0,0
-399,29,0,0,0,0,0,0,0,0,0,-1,825,995,0,0
-392,29,0,0,0,0,0,0,0,0,0,-1,832,995,0,0
-385,29,0,0,0,0,0,0,0,0,0,-1,839,995,0,0
-378,29,0,0,0,0,0,0,0,0,0,-1,846,995,0,0
-371,29,0,0,0,0,0,0,0,0,0,-1,853,995,0,0
-364,29,0,0,0,0,0,0,0,0,0,-1,860,995,0,0
-357,29,0,0,0,0,0,0,0,0,0,-1,867,995,0,0
-350,29,0,0,0,0,0,0,0,0,0,-1,874,995,0,0
-343,29,0,0,0,0,0,0,0,0,0,-1,881,995,0,0
-336,29,0,0,0,0,0,0,0,0,0,-1,888,995,0,0
-329,29,0,0,0,0,0,0,0,0,0,-1,895,995,0,0
-322,29,0,0,0,0,0,0,0,0,0,-1,902,995,0,0
-315,29,0,0,0,0,0,0,0,0,0,-1,909,995,0,0
-308,29,0,0,0,0,0,0,0,0,0,-1,916,995,0,0
-301,29,0,0,0,0,0,0,0,0,0,-1,923,995,0,0
-294,29,0,0,0,0,0,0,0,0,0,-1,930,995,0,0
-287,29,0,0,0,0,0,0,0,0,0,-1,937,995,0,0
-280,29,0,0,0,0,0,0,0,0,0,-1,944,995,0,0
-273,29,0,0,0,0,0,0,0,0,0,-1,951,995,0,0
-266,29,0,0,0,0,0,0,0,0,0,-1,958,995,0,0
-259,29,0,0,0,0,0,0,0,0,0,-1,965,995,0,0
-252,29,0,0,0,0,0,0,0,0,0,-1,972,995,0,0
-245,29,0,0,0,0,0,0,0,0,0,-1,979,995,0,0
-238,29,0,0,0,0,0,0,0,0,0,-1,986,995,0,0
-231,29,0,0,0,0,0,0,0,0,0,-1,993,995,0,0
-224,29,0,0,0,0,0,0,0,0,0,-1,1000,995,0,0
-217,29,0,0,0,0,0,0,0,0,0,-1,1007,995,0,0
-210,29,0,0,0,0,0,0,0,0,0,-1,1014,995,0,0
-203,29,0,0,0,0,0,0,0,0,0,-1,1021,995,0,0
-196,29,0,0,0,0,0,0,0,0,0,-1,1028,995,0,0
-189,29,0,0,0,0,0,0,0,0,0,-1,1035,995,0,0
-182,29,0,0,0,0,0,0,0,0,0,-1,1042,995,0,0
-175,29,0,0,0,0,0,0,0,0,0,-1,1049,995,0,0
-168,29,0,0,0,0,0,0,0,0,0,-1,1056,995,0,0
-161,29,0,0,0,0,0,0,0,0,0,-1,1063,995,0,0
-154,29,0,0,0,0,0,0,0,0,0,-1,1070,995,0,0
-147,29,0,0,0,0,0,0,0,0,0,-1,1077,995,0,0
-140,29,0,0,0,0,0,0,0,0,0,-1,1084,995,0,0
-133,29,0,0,0,0,0,0,0,0,0,-1,1091,995,0,0
-126,29,0,0,0,0,0,0,0,0,0,-1,1098,995,0,0
-119,29,0,0,0,0,0,0,0,0,0,-1,1105,995,0,0
-112,29,0,0,0,0,0,0,0,0,0,-1,1112,995,0,0
-105,29,0,0,0,0,0,0,0,0,0,-1,1119,995,0,0
-98,29,0,0,0,0,0,0,0,0,0,-1,1126,995,0,0
-91,29,0,0,0,0,0,0,0,0,0,-1,1133,995,0,0
-84,29,0,0,0,0,0,0,0,0,0,-1,1140,995,0,0
-77,29,0,0,0,0,0,0,0,0,0,-1,1147,995,0,0
-70,29,0,0,0,0,0,0,0,0,0,-1,1154,995,0,0
-63,29,0,0,0,0,0,0,0,0,0,-1,1161,995,0,0
-56,29,0,0,0,0,0,0,0,0,0,-1,1168,995,0,0
-49,29,0,0,0,0,0,0,0,0,0,-1,1175,995,0,0
-42,29,0,0,0,0,0,0,0,0,0,-1,1182,995,0,0
-35,29,0,0,0,0,0,0,0,0,0,-1,1189,995,0,0
-28,29,0,0,0,0,0,0,0,0,0,-1,1196,995,0,0
-21,29,0,0,0,0,0,0,0,0,0,-1,1203,995,0,0
-14,29,0,0,0,0,0,0,0,0,0,-1,1210,995,0,0
-7,29,0,0,0,0,0,0,0,0,0,-1,1217,995,0,0
0,29,0,0,0,0,0,0,0,0,0,-1,1224,995,0,0
7,29,0,0,0,0,0,0,0,0,0,-1,1231,995,0,0
14,29,0,0,0,0,0,0,0,0,0,-1,1238,995,0,0
21,29,0,0,0,0,0,0,0,0,0,-1,1245,995,0,0
28,29,0,0,0,0,0,0,0,0,0,-1,1252,995,0,0
35,29,0,0,0,0,0,0,0,0,0,-1,1259,995,0,0
42,29,0,0,0,0,0,0,0,0,0,-1,1266,995,0,0
49,29,0,0,0,0,0,0,0,0,0,-1,1273,995,0,0
56,29,0,0,0,0,0,0,0,0,0,-1,1280,995,0,0
63,29,0,0,0,0,0,0,0,0,0,-1,1287,995,0,0
70,29,0,0,0,0,0,0,0,0,0,-1,1294,995,0,0
77,29,0,0,0,0,0,0,0,0,0,-1,1301,995,0,0
84,29,0,0,0,0,0,0,0,0,0,-1,1308,995,0,0
91,29,0,0,0,0,0,0,0,0,0,-1,1315,995,0,0
98,29,0,0,0,0,0,0,0,0,0,-1,1322,995,0,0
105,29,0,0,0,0,0,0,0,0,0,-1,1329,995,0,0
112,29,0,0,0,0,0,0,0,0,0,-1,1336,995,0,0
119,29,0,0,0,0,0,0,0,0,0,-1,1343,995,0,0
126,29,0,0,0,0,0,0,0,0,0,-1,1350,995,0,0
133,29,0,0,0,0,0,0,0,0,0,-1,1357,995,0,0
140,29,0,0,0,0,0,0,0,0,0,-1,1364,995,0,0
147,29,0,0,0,0,0,0,0,0,0,-1,1371,995,0,0
154,29,0,0,0,0,0,0,0,0,0,-1,1378,995,0,0
161,29,0,0,0,0,0,0,0,0,0,-1,1385,995,0,0
168,29,0,0,0,0,0,0,0,0,0,-1,1392,995,0,0
175,29,0,0,0,0,0,0,0,0,0,-1,1399,995,0,0
182,29,0,0,0,0,0,0,0,0,0,-1,1406,995,0,0
189,29,0,0,0,0,0,0,0,0,0,-1,1413,995,0,0
196,29,0,0,0,0,0,0,0,0,0,-1,1420,995,0,0
203,29,0,0,0,0,0,0,0,0,0,-1,1427,995,0,0
210,29,0,0,0,0,0,0,0,0,0,-1,1434,995,0,0
217,29,0,0,0,0,0,0,0,0,0,-1,1441,995,0,0
224,29,0,0,0,0,0,0,0,0,0,-1,1448,995,0,0
231,29,0,0,0,0,0,0,0,0,0,-1,1455,995,0,0
238,29,0,0,0,0,0,0,0,0,0,-1,1462,995,0,0
245,29,0,0,0,0,0,0,0,0,0,-1,1469,995,0,0
252,29,0,0,0,0,0,0,0,0,0,-1,1476,995,0,0
259,29,0,0,0,0,0,0,0,0,0,-1,1483,995,0,0
266,29,0,0,0,0,0,0,0,0,0,-1,1490,995,0,0
273,29,0,0,0,0,0,0,0,0,0,-1,1497,995,0,0
280,29,0,0,0,0,0,0,0,0,0,-1,1504,995,0,0
287,29,0,0,0,0,0,0,0,0,0,-1,1511,995,0,0
294,29,0,0,0,0,0,0,0,0,0,-1,1518,995,0,0
301,29,0,0,0,0,0,0,0,0,0,-1,1525,995,0,0
308,29,0,0,0,0,0,0,0,0,0,-1,1532,995,0,0
315,29,0,0,0,0,0,0,0,0,0,-1,1539,995,0,0
322,29,0,0,0,0,0,0,0,0,0,-1,1546,995,0,0
329,29,0,0,0,0,0,0,0,0,0,-1,1553,995,0,0
336,29,0,0,0,0,0,0,0,0,0,-1,1560,995,0,0
343,29,0,0,0,0,0,0,0,0,0,-1,1567,995,0,0
350,29,0,0,0,0,0,0,0,0,0,-1,1574,995,0,0
357,29,0,0,0,0,0,0,0,0,0,-1,1581,995,0,0
364,29,0,0,0,0,0,0,0,0,0,-1,1588,995,0,0
371,29,0,0,0,0,0,0,0,0,0,-1,1595,995,0,0
378,29,0,0,0,0,0,0,0,0,0,-1,1602,995,0,0
385,29,0,0,0,0,0,0,0,0,0,-1,1609,995,0,0
392,29,0,0,0,0,0,0,0,0,0,-1,1616,995,0,0
399,29,0,0,0,0,0,0,0,0,0,-1,1623,995,0,0
406,29,0,0,0,0,0,0,0,0,0,-1,1630,995,0,0
413,29,0,0,0,0,0,0,0,0,0,-1,1637,995,0,0
420,29,0,0,0,0,0,0,0,0,0,-1,1644,995,0,0
427,29,0,0,0,0,0,0,0,0,0,-1,1651,995,0,0
434,29,0,0,0,0,0,0,0,0,0,-1,1658,995,0,0
441,29,0,0,0,0,0,0,0,0,0,-1,1665,995,0,0
448,29,0,0,0,0,0,0,0,0,0,-1,1672,995,0,0
455,29,0,0,0,0,0,0,0,0,0,-1,1679,995,0,0
462,29,0,0,0,0,0,0,0,0,0,-1,1686,995,0,0
469,29,0,0,0,0,0,0,0,0,0,-1,1693,995,0,0
476,29,0,0,0,0,0,0,0,0,0,-1,1700,995,0,0
483,29,0,0,0,0,0,0,0,0,0,-1,1707,995,0,0
490,29,0,0,0,0,0,0,0,0,0,-1,1714,995,0,0
497,29,0,0,0,0,0,0,0,0,0,-1,1721,995,0,0
504,29,0,0,0,0,0,0,0,0,0,-1,1728,995,0,0
511,29,0,0,0,0,0,0,0,0,0,-1,1735,995,0,0
518,29,0,0,0,0,0,0,0,0,0,-1,1742,995,0,0
525,29,0,0,0,0,0,0,0,0,0,-1,1749,995,0,0
532,29,0,0,0,0,0,0,0,0,0,-1,1756,995,0,0
539,29,0,0,0,0,0,0,0,0,0,-1,1763,995,0,0
546,29,0,0,0,0,0,0,0,0,0,-1,1770,995,0,0
553,29,0,0,0,0,0,0,0,0,0,-1,1777,995,0,0
560,29,0,0,0,0,0,0,0,0,0,-1,1784,995,0,0
567,29,0,0,0,0,0,0,0,0,0,-1,1791,995,0,0
574,29,0,0,0,0,0,0,0,0,0,-1,1798,995,0,0
581,29,0,0,0,0,0,0,0,0,0,-1,1805,995,0,0
588,29,0,0,0,0,0,0,0,0,0,-1,1812,995,0,0
595,29,0,0,0,0,0,0,0,0,0,-1,1819,995,0,0
602,29,0,0,0,0,0,0,0,0,0,-1,1826,995,0,0
609,29,0,0,0,0,0,0,0,0,0,-1,1833,995,0,0
616,29,0,0,0,0,0,0,0,0,0,-1,1840,995,0,0
623,29,0,0,0,0,0,0,0,0,0,-1,1847,995,0,0
630,29,0,0,0,0,0,0,0,0,0,-1,1854,995,0,0
637,29,0,0,0,0,0,0,0,0,0,-1,1861,995,0,0
644,29,46.6761,2.58398,0.00398846,0.00739061,0.00143281,0.00791363,0.00346544,1.22079,0.00458066,0.0400914,1868,995,46.6762,-2.58398
651,29,46.7565,2.56842,0.00289583,0.00539317,0.001077,0.00579347,0.00249553,1.21494,0.00335554,0.0403758,1875,995,46.7564,-2.56844
658,29,46.7771,2.45459,0.00191909,0.00380814,0.00096315,0.00421261,0.00151462,1.17322,0.00246393,0.0427768,1882,995,46.7771,-2.45461
665,29,46.5918,2.63538,0.00119242,0.00264571,0.000923062,0.00309382,0.000744303,1.11885,0.00186464,0.0418021,1889,995,46.5918,-2.63538
672,29,46.5276,2.65118,0.000613714,0.0018838,0.000997259,0.00243105,6.64701e-05,1.06891,0.001599,0.0383885,1896,995,46.5276,-2.6512
679,29,46.6074,2.69897,0.000202205,0.00150776,0.00123579,0.00225258,-0.000542621,1.02838,0.00171151,0.0386454,1903,995,46.6074,-2.69896
686,29,46.7601,2.73492,2.7836e-05,0.00120796,0.00144448,0.00217825,-0.00094245,0.979303,0.00184823,0.0359749,1910,995,46.7602,-2.73495
693,29,46.8419,2.68665,-8.28241e-05,0.000994723,0.00155819,0.00210466,-0.00119276,0.951848,0.00192788,0.0362935,1917,995,46.8419,-2.68662
700,29,46.7424,2.78326,-0.000358042,0.000906937,0.00155995,0.00195774,-0.00140885,0.977998,0.0019523,0.034811,1924,995,46.7424,-2.78324
707,29,46.6923,2.70197,-0.00066776,0.00113781,0.00150743,0.00199211,-0.00152207,1.0552,0.00203495,0.0238106,1931,995,46.6923,-2.70196
714,29,46.6779,3.11499,-0.00108502,0.00159773,0.00137775,0.00217924,-0.00166652,1.17141,0.00222692,0.0412948,1938,995,46.6779,-3.11498
721,29,46.246,5.05652,0,0,0,0,0,0,0,-1,1945,995,46.246,-5.05655
728,29,46.2593,5.29163,-0.00233249,0.0031865,0.000754862,0.00328788,-0.00243388,1.43729,0.0033157,0.0293374,1952,995,46.2593,-5.29161
735,29,46.2147,5.50854,-0.00290161,0.00432717,0.000257999,0.00433637,-0.00291081,1.53517,0.00421106,0.0173237,1959,995,46.2148,-5.50853
742,29,46.1968,5.64038,-0.00364452,0.00524538,-0.000485882,0.00527186,-0.003671,-1.51636,0.00519066,0.0144524,1966,995,46.1968,-5.64039
749,29,46.1967,5.81866,-0.00415072,0.00634022,-0.0016131,0.00658265,-0.00439315,-1.42162,0.00637877,0.0147583,1973,995,46.1966,-5.81865
756,29,46.1699,5.99921,-0.00437383,0.00735015,-0.00324608,0.0081889,-0.00521258,-1.31794,0.0078007,0.014071,1980,995,46.1699,-5.99921
763,29,46.118,6.11804,-0.00449626,0.00851306,-0.00536777,0.0104419,-0.00642509,-1.22583,0.00982976,0.0133711,1987,995,46.1181,-6.11806
770,29,46.0291,6.23273,-0.00388266,0.00924747,-0.00829715,0.0132627,-0.0078979,-1.12009,0.0123473,0.0159375,1994,995,46.0291,-6.23271
777,29,45.9839,6.42377,-0.00226286,0.00921748,-0.0119213,0.0167086,-0.009754,-1.00977,0.0154531,0.0271258,2001,995,45.9839,-6.42376
784,29,46.1792,6.5752,0.000829604,0.00794085,-0.0163086,0.0210769,-0.0123065,-0.892729,0.0194944,0.0444968,2008,995,46.1792,-6.57521
791,29,46.3843,6.72302,0,0,0,0,0,0,0,-1,2015,995,46.3843,-6.72302
798,29,46.9412,7.19714,0,0,0,0,0,0,0,-1,2022,995,46.9412,-7.19715
805,29,46.8127,6.02765,0,0,0,0,0,0,0,-1,2029,995,46.8127,-6.02767
812,29,47.155,4.62274,0,0,0,0,0,0,0,-1,2036,995,47.1551,-4.62272
-700,22,0,0,0,0,0,0,0,0,0,-1,524,1002,0,0
-693,22,-32.3378,1.03583,0,0,0,0,0,0,0,-1,531,1002,-32.3378,-1.03585
-686,22,-32.6193,2.53375,0,0,0,0,0,0,0,-1,538,1002,-32.6193,-2.53375
-679,22,-32.9008,4.03162,0,0,0,0,0,0,0,-1,545,1002,-32.9008,-4.03164
-672,22,-34.9819,2.2688,0,0,0,0,0,0,0,-1,552,1002,-34.9819,-2.26878
-665,22,-35.4102,1.71545,0,0,0,0,0,0,0,-1,559,1002,-35.4102,-1.71545
-658,22,-34.7573,2.0141,0,0,0,0,0,0,0,-1,566,1002,-34.7573,-2.01412
-651,22,-34.3186,2.4389,0,0,0,0,0,0,0,-1,573,1002,-34.3186,-2.43888
-644,22,-34.9003,2.87469,-0.0166045,0.0262555,0.00799145,0.0276971,-0.0180461,1.39233,0.026605,0.0395803,580,1002,-34.9003,-2.87468
-637,22,-35.2612,3.18774,-0.0116483,0.020436,0.00495148,0.0211827,-0.0123951,1.42111,0.0196062,0.0237123,587,1002,-35.2612,-3.18777
-630,22,-35.2399,3.21106,-0.00663284,0.0152537,0.00138625,0.0153412,-0.00672029,1.50779,0.0130573,0.0135579,594,1002,-35.2399,-3.21103
-623,22,-35.2637,3.15607,-0.00339673,0.010081,-0.000256532,0.0100858,-0.00340162,-1.55177,0.00809947,0.0121445,601,1002,-35.2637,-3.15605
-616,22,-35.2487,3.06769,-0.00164908,0.00717766,-0.00257564,0.00787425,-0.00234567,-1.30666,0.00618156,0.0180371,608,1002,-35.2487,-3.06771
-609,22,-35.3226,2.99847,-0.0010691,0.00461069,-0.00447723,0.00707274,-0.00353115,-1.06803,0.00623494,0.0261507,615,1002,-35.3226,-2.9985
-602,22,-35.4171,2.9502,-0.000253099,0.00252163,-0.00634954,0.00763361,-0.00536507,-0.892957,0.00754279,0.0280224,622,1002,-35.4171,-2.9502
-595,22,-35.2639,2.84503,0,0,0,0,0,0,0,-1,629,1002,-35.2639,-2.84506
-588,22,-35.057,2.05237,0.000921701,0.000173216,-0.00805191,0.00860806,-0.00751314,-0.762176,0.00931473,0.0416163,636,1002,-35.057,-2.05239
-581,22,-34.8321,1.32751,0.00129046,-0.000459997,-0.00814763,0.00860973,-0.00777927,-0.731893,0.00946624,0.0461158,643,1002,-34.8321,-1.32749
-574,22,-34.8474,0.859497,0.00125521,-0.00104875,-0.00779108,0.00797901,-0.00777255,-0.712001,0.00909443,0.0347455,650,1002,-34.8474,-0.859518
-567,22,-34.8262,0.819824,0.0010089,-0.001312,-0.00677604,0.00672314,-0.00702624,-0.700592,0.00793886,0.0324513,657,1002,-34.8263,-0.819797
-560,22,-34.8878,0.746704,0.000629366,-0.00149358,-0.00503245,0.00471107,-0.00557528,-0.681459,0.00594581,0.0365595,664,1002,-34.8878,-0.746692
-553,22,-34.9044,0.79541,2.03536e-05,-0.00174973,-0.00257794,0.00186094,-0.00359032,-0.620045,0.00319965,0.0404958,671,1002,-34.9044,-0.795412
-546,22,-34.7634,0.644104,-0.000810701,-0.00231972,0.000585463,-0.000610196,-0.00252022,0.329953,0.00151819,0.0422238,678,1002,-34.7635,-0.644091
-539,22,-34.8135,0.637756,-0.00178499,-0.00328694,0.00379334,0.001331,-0.00640292,0.687675,0.00477453,0.043205,685,1002,-34.8135,-0.637774
-532,22,-34.9547,0.987915,-0.00266518,-0.00435108,0.00541298,0.0019701,-0.00898635,0.708155,0.00674421,0.0438454,692,1002,-34.9547,-0.987919
-525,22,0,0,0,0,0,0,0,0,0,-1,699,1002,0,0
-518,22,0,0,0,0,0,0,0,0,0,-1,706,1002,0,0
-511,22,0,0,0,0,0,0,0,0,0,-1,713,1002,0,0
-504,22,0,0,0,0,0,0,0,0,0,-1,720,1002,0,0
-497,22,0,0,0,0,0,0,0,0,0,-1,727,1002,0,0
-490,22,0,0,0,0,0,0,0,0,0,-1,734,1002,0,0
-483,22,0,0,0,0,0,0,0,0,0,-1,741,1002,0,0
-476,22,0,0,0,0,0,0,0,0,0,-1,748,1002,0,0
-469,22,0,0,0,0,0,0,0,0,0,-1,755,1002,0,0
-462,22,0,0,0,0,0,0,0,0,0,-1,762,1002,0,0
-455,22,0,0,0,0,0,0,0,0,0,-1,769,1002,0,0
-448,22,0,0,0,0,0,0,0,0,0,-1,776,1002,0,0
-441,22,0,0,0,0,0,0,0,0,0,-1,783,1002,0,0
-434,22,0,0,0,0,0,0,0,0,0,-1,790,1002,0,0
-427,22,0,0,0,0,0,0,0,0,0,-1,797,1002,0,0
-420,22,0,0,0,0,0,0,0,0,0,-1,804,1002,0,0
-413,22,0,0,0,0,0,0,0,0,0,-1,811,1002,0,0
-406,22,0,0,0,0,0,0,0,0,0,-1,818,1002,0,0
-399,22,0,0,0,0,0,0,0,0,0,-1,825,1002,0,0
-392,22,0,0,0,0,0,0,0,0,0,-1,832,1002,0,0
-385,22,0,0,0,0,0,0,0,0,0,-1,839,1002,0,0
-378,22,0,0,0,0,0,0,0,0,0,-1,846,1002,0,0
-371,22,0,0,0,0,0,0,0,0,0,-1,853,1002,0,0
-364,22,0,0,0,0,0,0,0,0,0,-1,860,1002,0,0
-357,22,0,0,0,0,0,0,0,0,0,-1,867,1002,0,0
-350,22,0,0,0,0,0,0,0,0,0,-1,874,1002,0,0
-343,22,0,0,0,0,0,0,0,0,0,-1,881,1002,0,0
-336,22,0,0,0,0,0,0,0,0,0,-1,888,1002,0,0
-329,22,0,0,0,0,0,0,0,0,0,-1,895,1002,0,0
-322,22,0,0,0,0,0,0,0,0,0,-1,902,1002,0,0
-315,22,0,0,0,0,0,0,0,0,0,-1,909,1002,0,0
-308,22,0,0,0,0,0,0,0,0,0,-1,916,1002,0,0
-301,22,0,0,0,0,0,0,0,0,0,-1,923,1002,0,0
-294,22,0,0,0,0,0,0,0,0,0,-1,930,1002,0,0
-287,22,0,0,0,0,0,0,0,0,0,-1,937,1002,0,0
-280,22,0,0,0,0,0,0,0,0,0,-1,944,1002,0,0
-273,22,0,0,0,0,0,0,0,0,0,-1,951,1002,0,0
-266,22,0,0,0,0,0,0,0,0,0,-1,958,1002,0,0
-259,22,0,0,0,0,0,0,0,0,0,-1,965,1002,0,0
-252,22,0,0,0,0,0,0,0,0,0,-1,972,1002,0,0
-245,22,0,0,0,0,0,0,0,0,0,-1,979,1002,0,0
-238,22,0,0,0,0,0,0,0,0,0,-1,986,1002,0,0
-231,22,0,0,0,0,0,0,0,0,0,-1,993,1002,0,0
-224,22,0,0,0,0,0,0,0,0,0,-1,1000,1002,0,0
-217,22,0,0,0,0,0,0,0,0,0,-1,1007,1002,0,0
-210,22,0,0,0,0,0,0,0,0,0,-1,1014,1002,0,0
-203,22,0,0,0,0,0,0,0,0,0,-1,1021,1002,0,0
-196,22,0,0,0,0,0,0,0,0,0,-1,1028,1002,0,0
-189,22,0,0,0,0,0,0,0,0,0,-1,1035,1002,0,0
-182,22,0,0,0,0,0,0,0,0,0,-1,1042,1002,0,0
-175,22,0,0,0,0,0,0,0,0,0,-1,1049,1002,0,0
-168,22,0,0,0,0,0,0,0,0,0,-1,1056,1002,0,0
-161,22,0,0,0,0,0,0,0,0,0,-1,1063,1002,0,0
-154,22,0,0,0,0,0,0,0,0,0,-1,1070,1002,0,0
-147,22,0,0,0,0,0,0,0,0,0,-1,1077,1002,0,0
-140,22,0,0,0,0,0,0,0,0,0,-1,1084,1002,0,0
-133,22,0,0,0,0,0,0,0,0,0,-1,1091,1002,0,0
-126,22,0,0,0,0,0,0,0,0,0,-1,1098,1002,0,0
-119,22,0,0,0,0,0,0,0,0,0,-1,1105,1002,0,0
-112,22,0,0,0,0,0,0,0,0,0,-1,1112,1002,0,0
-105,22,0,0,0,0,0,0,0,0,0,-1,1119,1002,0,0
-98,22,0,0,0,0,0,0,0,0,0,-1,1126,1002,0,0
-91,22,0,0,0,0,0,0,0,0,0,-1,1133,1002,0,0
-84,22,0,0,0,0,0,0,0,0,0,-1,1140,1002,0,0
-77,22,0,0,0,0,0,0,0,0,0,-1,1147,1002,0,0
-70,22,0,0,0,0,0,0,0,0,0,-1,1154,1002,0,0
-63,22,0,0,0,0,0,0,0,0,0,-1,1161,1002,0,0
-56,22,0,0,0,0,0,0,0,0,0,-1,1168,1002,0,0
-49,22,0,0,0,0,0,0,0,0,0,-1,1175,1002,0,0
-42,22,0,0,0,0,0,0,0,0,0,-1,1182,1002,0,0
-35,22,0,0,0,0,0,0,0,0,0,-1,1189,1002,0,0
-28,22,0,0,0,0,0,0,0,0,0,-1,1196,1002,0,0
-21,22,0,0,0,0,0,0,0,0,0,-1,1203,1002,0,0
-14,22,0,0,0,0,0,0,0,0,0,-1,1210,1002,0,0
-7,22,0,0,0,0,0,0,0,0,0,-1,1217,1002,0,0
0,22,0,0,0,0,0,0,0,0,0,-1,1224,1002,0,0
7,22,0,0,0,0,0,0,0,0,0,-1,1231,1002,0,0
14,22,0,0,0,0,0,0,0,0,0,-1,1238,1002,0,0
21,22,0,0,0,0,0,0,0,0,0,-1,1245,1002,0,0
28,22,0,0,0,0,0,0,0,0,0,-1,1252,1002,0,0
35,22,0,0,0,0,0,0,0,0,0,-1,1259,1002,0,0
42,22,0,0,0,0,0,0,0,0,0,-1,1266,1002,0,0
49,22,0,0,0,0,0,0,0,0,0,-1,1273,1002,0,0
56,22,0,0,0,0,0,0,0,0,0,-1,1280,1002,0,0
63,22,0,0,0,0,0,0,0,0,0,-1,1287,1002,0,0
70,22,0,0,0,0,0,0,0,0,0,-1,1294,1002,0,0
77,22,0,0,0,0,0,0,0,0,0,-1,1301,1002,0,0
84,22,0,0,0,0,0,0,0,0,0,-1,1308,1002,0,0
91,22,0,0,0,0,0,0,0,0,0,-1,1315,1002,0,0
98,22,0,0,0,0,0,0,0,0,0,-1,1322,1002,0,0
105,22,0,0,0,0,0,0,0,0,0,-1,1329,1002,0,0
112,22,0,0,0,0,0,0,0,0,0,-1,1336,1002,0,0
119,22,0,0,0,0,0,0,0,0,0,-1,1343,1002,0,0
126,22,0,0,0,0,0,0,0,0,0,-1,1350,1002,0,0
133,22,0,0,0,0,0,0,0,0,0,-1,1357,1002,0,0
140,22,0,0,0,0,0,0,0,0,0,-1,1364,1002,0,0
147,22,0,0,0,0,0,0,0,0,0,-1,1371,1002,0,0
154,22,0,0,0,0,0,0,0,0,0,-1,1378,1002,0,0
161,22,0,0,0,0,0,0,0,0,0,-1,1385,1002,0,0
168,22,0,0,0,0,0,0,0,0,0,-1,1392,1002,0,0
175,22,0,0,0,0,0,0,0,0,0,-1,1399,1002,0,0
182,22,0,0,0,0,0,0,0,0,0,-1,1406,1002,0,0
189,22,0,0,0,0,0,0,0,0,0,-1,1413,1002,0,0
196,22,0,0,0,0,0,0,0,0,0,-1,1420,1002,0,0
203,22,0,0,0,0,0,0,0,0,0,-1,1427,1002,0,0
210,22,0,0,0,0,0,0,0,0,0,-1,1434,1002,0,0
217,22,0,0,0,0,0,0,0,0,0,-1,1441,1002,0,0
224,22,0,0,0,0,0,0,0,0,0,-1,1448,1002,0,0
231,22,0,0,0,0,0,0,0,0,0,-1,1455,1002,0,0
238,22,0,0,0,0,0,0,0,0,0,-1,1462,1002,0,0
245,22,0,0,0,0,0,0,0,0,0,-1,1469,1002,0,0
252,22,0,0,0,0,0,0,0,0,0,-1,1476,1002,0,0
259,22,0,0,0,0,0,0,0,0,0,-1,1483,1002,0,0
266,22,0,0,0,0,0,0,0,0,0,-1,1490,1002,0,0
273,22,0,0,0,0,0,0,0,0,0,-1,1497,1002,0,0
280,22,0,0,0,0,0,0,0,0,0,-1,1504,1002,0,0
287,22,0,0,0,0,0,0,0,0,0,-1,1511,1002,0,0
294,22,0,0,0,0,0,0,0,0,0,-1,1518,1002,0,0
301,22,0,0,0,0,0,0,0,0,0,-1,1525,1002,0,0
308,22,0,0,0,0,0,0,0,0,0,-1,1532,1002,0,0
315,22,0,0,0,0,0,0,0,0,0,-1,1539,1002,0,0
322,22,0,0,0,0,0,0,0,0,0,-1,1546,1002,0,0
329,22,0,0,0,0,0,0,0,0,0,-1,1553,1002,0,0
336,22,0,0,0,0,0,0,0,0,0,-1,1560,1002,0,0
343,22,0,0,0,0,0,0,0,0,0,-1,1567,1002,0,0
350,22,0,0,0,0,0,0,0,0,0,-1,1574,1002,0,0
357,22,0,0,0,0,0,0,0,0,0,-1,1581,1002,0,0
364,22,0,0,0,0,0,0,0,0,0,-1,1588,1002,0,0
371,22,0,0,0,0,0,0,0,0,0,-1,1595,1002,0,0
378,22,0,0,0,0,0,0,0,0,0,-1,1602,1002,0,0
385,22,0,0,0,0,0,0,0,0,0,-1,1609,1002,0,0
392,22,0,0,0,0,0,0,0,0,0,-1,1616,1002,0,0
399,22,0,0,0,0,0,0,0,0,0,-1,1623,1002,0,0
406,22,0,0,0,0,0,0,0,0,0,-1,1630,1002,0,0
413,22,0,0,0,0,0,0,0,0,0,-1,1637,1002,0,0
420,22,0,0,0,0,0,0,0,0,0,-1,1644,1002,0,0
427,22,0,0,0,0,0,0,0,0,0,-1,1651,1002,0,0
434,22,0,0,0,0,0,0,0,0,0,-1,1658,1002,0,0
441,22,0,0,0,0,0,0,0,0,0,-1,1665,1002,0,0
448,22,0,0,0,0,0,0,0,0,0,-1,1672,1002,0,0
455,22,0,0,0,0,0,0,0,0,0,-1,1679,1002,0,0
462,22,0,0,0,0,0,0,0,0,0,-1,1686,1002,0,0
469,22,0,0,0,0,0,0,0,0,0,-1,1693,1002,0,0
476,22,0,0,0,0,0,0,0,0,0,-1,1700,1002,0,0
483,22,0,0,0,0,0,0,0,0,0,-1,1707,1002,0,0
490,22,0,0,0,0,0,0,0,0,0,-1,1714,1002,0,0
497,22,0,0,0,0,0,0,0,0,0,-1,1721,1002,0,0
504,22,0,0,0,0,0,0,0,0,0,-1,1728,1002,0,0
511,22,0,0,0,0,0,0,0,0,0,-1,1735,1002,0,0
518,22,0,0,0,0,0,0,0,0,0,-1,1742,1002,0,0
525,22,0,0,0,0,0,0,0,0,0,-1,1749,1002,0,0
532,22,0,0,0,0,0,0,0,0,0,-1,1756,1002,0,0
539,22,0,0,0,0,0,0,0,0,0,-1,1763,1002,0,0
546,22,0,0,0,0,0,0,0,0,0,-1,1770,1002,0,0
553,22,0,0,0,0,0,0,0,0,0,-1,1777,1002,0,0
560,22,0,0,0,0,0,0,0,0,0,-1,1784,1002,0,0
567,22,0,0,0,0,0,0,0,0,0,-1,1791,1002,0,0
574,22,0,0,0,0,0,0,0,0,0,-1,1798,1002,0,0
581,22,0,0,0,0,0,0,0,0,0,-1,1805,1002,0,0
588,22,0,0,0,0,0,0,0,0,0,-1,1812,1002,0,0
595,22,0,0,0,0,0,0,0,0,0,-1,1819,1002,0,0
602,22,0,0,0,0,0,0,0,0,0,-1,1826,1002,0,0
609,22,0,0,0,0,0,0,0,0,0,-1,1833,1002,0,0
616,22,0,0,0,0,0,0,0,0,0,-1,1840,1002,0,0
623,22,0,0,0,0,0,0,0,0,0,-1,1847,1002,0,0
630,22,0,0,0,0,0,0,0,0,0,-1,1854,1002,0,0
637,22,0,0,0,0,0,0,0,0,0,-1,1861,1002,0,0
644,22,46.6069,2.63123,0.0029767,0.00806411,0.00169172,0.00857529,0.00246552,1.27735,0.00509779,0.0392804,1868,1002,46.6069,-2.63122
651,22,46.708,2.66626,0.00218229,0.00586332,0.00139993,0.00633523,0.00171038,1.24566,0.00378447,0.0412212,1875,1002,46.708,-2.66625
658,22,46.7643,2.49127,0.00142349,0.00411317,0.00128854,0.00463083,0.000905822,1.18879,0.00283395,0.0413007,1882,1002,46.7643,-2.49125
665,22,46.728,2.62744,0.000860544,0.00282146,0.00122515,0.00341017,0.000271835,1.12285,0.00218847,0.0383083,1889,1002,46.728,-2.62742
672,22,46.6915,2.67328,0.000425519,0.00198511,0.00126456,0.00269097,-0.000280346,1.06169,0.00189436,0.0381694,1896,1002,46.6915,-2.6733
679,22,46.6752,2.75482,9.33296e-05,0.00154543,0.00146139,0.00245119,-0.000812429,1.01595,0.00196183,0.0403072,1903,1002,46.6752,-2.75484
686,22,46.8248,2.75415,-6.97496e-05,0.0012086,0.00165273,0.00234145,-0.00120259,0.96991,0.00208107,0.0388264,1910,1002,46.8249,-2.75413
693,22,46.8838,2.76855,-0.000181368,0.000962114,0.00177847,0.00225849,-0.00147774,0.94092,0.00217275,0.0357992,1917,1002,46.8837,-2.76857
700,22,46.755,2.78088,-0.000426321,0.000841372,0.00179725,0.00211327,-0.00169822,0.954927,0.00220491,0.0317936,1924,1002,46.755,-2.78088
707,22,46.6498,2.63385,-0.000703227,0.00105554,0.00175394,0.0021382,-0.00178589,1.01777,0.00226862,0.0313598,1931,1002,46.6497,-2.63387
714,22,46.6578,2.80762,-0.00112006,0.00152638,0.00164162,0.00231167,-0.00190535,1.12461,0.00243846,0.0382856,1938,1002,46.6578,-2.80761
721,22,46.4766,4.16785,0,0,0,0,0,0,0,-1,1945,1002,46.4766,-4.16786
728,22,46.3309,5.0459,-0.00243928,0.00311653,0.00107327,0.00331665,-0.0026394,1.38645,0.00344613,0.0442738,1952,1002,46.3309,-5.04591
735,22,46.3687,5.59851,-0.00298683,0.00427337,0.00066963,0.00433462,-0.00304808,1.47959,0.00428392,0.0172069,1959,1002,46.3687,-5.59848
742,22,46.3607,5.69318,-0.00363721,0.00526112,3.49996e-05,0.00526126,-0.00363735,1.56686,0.00516605,0.0173839,1966,1002,46.3608,-5.6932
749,22,46.3208,5.82886,-0.00395827,0.00637269,-0.000950267,0.00645937,-0.00404495,-1.47983,0.00611784,0.0128126,1973,1002,46.3208,-5.82883
756,22,46.302,5.92572,-0.00406043,0.00757049,-0.00228884,0.0080047,-0.00449464,-1.38332,0.00731073,0.0180436,1980,1002,46.3019,-5.92572
763,22,46.2522,6.07397,-0.00425275,0.00880537,-0.00412751,0.0100006,-0.005448,-1.28893,0.00904744,0.0196456,1987,1002,46.2522,-6.07397
770,22,46.1274,6.14685,-0.00366527,0.00977049,-0.00663323,0.0124935,-0.00638825,-1.18127,0.0110897,0.0172279,1994,1002,46.1275,-6.14687
777,22,45.9255,6.12268,-0.00224455,0.0100428,-0.00972866,0.0154053,-0.00760703,-1.06703,0.0135381,0.0361715,2001,1002,45.9255,-6.12266
784,22,45.7693,6.14337,0,0,0,0,0,0,0,-1,2008,1002,45.7692,-6.14338
791,22,46.1748,6.34235,0,0,0,0,0,0,0,-1,2015,1002,46.1748,-6.34235
798,22,46.1677,6.34766,0,0,0,0,0,0,0,-1,2022,1002,46.1677,-6.34763
805,22,46.4507,6.20691,0,0,0,0,0,0,0,-1,2029,1002,46.4506,-6.2069
812,22,46.6714,4.56311,0,0,0,0,0,0,0,-1,2036,1002,46.6713,-4.56312
-700,15,0,0,0,0,0,0,0,0,0,-1,524,1009,0,0
-693,15,-32.8481,0.368774,0,0,0,0,0,0,0,-1,531,1009,-32.8481,-0.368762
-686,15,-32.6649,2.06757,0,0,0,0,0,0,0,-1,538,1009,-32.6649,-2.06756
-679,15,-32.4816,3.76636,0,0,0,0,0,0,0,-1,545,1009,-32.4816,-3.76636
-672,15,-35.7297,2.49835,0,0,0,0,0,0,0,-1,552,1009,-35.7297,-2.49836
-665,15,-36.0955,1.95416,0,0,0,0,0,0,0,-1,559,1009,-36.0955,-1.95413
-658,15,-35.4707,2.28796,0,0,0,0,0,0,0,-1,566,1009,-35.4707,-2.28795
-651,15,-34.0223,2.06744,0,0,0,0,0,0,0,-1,573,1009,-34.0223,-2.06743
-644,15,-35.2669,3.1496,0,0,0,0,0,0,0,-1,580,1009,-35.2669,-3.14961
-637,15,-35.2358,3.16052,-0.0122722,0.0212397,0.00663176,0.0225044,-0.0135369,1.38236,0.021022,0.0268711,587,1009,-35.2358,-3.16052
-630,15,-35.2557,3.15125,-0.00675899,0.0156085,0.00207326,0.015799,-0.00694954,1.47915,0.0134611,0.0149059,594,1009,-35.2557,-3.15126
-623,15,-35.3158,3.12994,-0.00313656,0.0100363,-3.10876e-05,0.0100363,-0.00313663,-1.56844,0.00794557,0.0101871,601,1009,-35.3158,-3.12993
-616,15,-35.3425,3.09473,-0.00103997,0.00691797,-0.0025872,0.00768514,-0.00180713,-1.28253,0.00582009,0.0153727,608,1009,-35.3425,-3.0947
-609,15,-35.3915,3.06995,-0.000271541,0.00424784,-0.0045861,0.00710073,-0.00312444,-1.0143,0.00605047,0.0221116,615,1009,-35.3914,-3.06996
-602,15,-35.4,3.01343,0.000563371,0.00199751,-0.00637301,0.00769366,-0.00513278,-0.841421,0.00745439,0.0224986,622,1009,-35.4,-3.01342
-595,15,-35.1679,2.38745,0,0,0,0,0,0,0,-1,629,1009,-35.1679,-2.38743
-588,15,-35.057,1.85168,0,0,0,0,0,0,0,-1,636,1009,-35.057,-1.85168
-581,15,-34.8259,0.77948,0.00210214,-0.000938824,-0.00780245,0.00853088,-0.00736756,-0.689168,0.00918716,0.0379886,643,1009,-34.8259,-0.779505
-574,15,-34.7967,0.798218,0.00198854,-0.00151404,-0.00732533,0.00776901,-0.00729452,-0.668064,0.00869837,0.0327715,650,1009,-34.7967,-0.79819
-567,15,-34.8378,0.836548,0.00155479,-0.00173411,-0.00621345,0.00633772,-0.00651704,-0.656034,0.00742194,0.0347596,657,1009,-34.8378,-0.836556
-560,15,-34.9567,1.04126,0.000853789,-0.00182624,-0.00441364,0.00412635,-0.0050988,-0.638016,0.005336,0.0408967,664,1009,-34.9567,-1.04124
-553,15,-34.799,1.02643,-0.000245138,-0.0019475,-0.00195094,0.00103222,-0.00322485,-0.5797,0.00256419,0.0426802,671,1009,-34.799,-1.02646
-546,15,-34.6714,0.990295,-0.0017331,-0.00234486,0.00116299,-0.00083644,-0.00324152,0.656806,0.00194317,0.0421993,678,1009,-34.6714,-0.990316
-539,15,-34.8132,0.742615,-0.00343388,-0.00312044,0.00422055,0.000946295,-0.00750061,0.803956,0.00534384,0.0421372,685,1009,-34.8132,-0.742612
-532,15,-34.8951,0.830627,-0.00501279,-0.00390529,0.00552652,0.00109515,-0.0100132,0.835331,0.00706888,0.0405995,692,1009,-34.8951,-0.830635
-525,15,0,0,0,0,0,0,0,0,0,-1,699,1009,0,0
-518,15,0,0,0,0,0,0,0,0,0,-1,706,1009,0,0
-511,15,0,0,0,0,0,0,0,0,0,-1,713,1009,0,0
-504,15,0,0,0,0,0,0,0,0,0,-1,720,1009,0,0
-497,15,0,0,0,0,0,0,0,0,0,-1,727,1009,0,0
-490,15,0,0,0,0,0,0,0,0,0,-1,734,1009,0,0
-483,15,0,0,0,0,0,0,0,0,0,-1,741,1009,0,0
-476,15,0,0,0,0,0,0,0,0,0,-1,748,1009,0,0
-469,15,0,0,0,0,0,0,0,0,0,-1,755,1009,0,0
-462,15,0,0,0,0,0,0,0,0,0,-1,762,1009,0,0
-455,15,0,0,0,0,0,0,0,0,0,-1,769,1009,0,0
-448,15,0,0,0,0,0,0,0,0,0,-1,776,1009,0,0
-441,15,0,0,0,0,0,0,0,0,0,-1,783,1009,0,0
-434,15,0,0,0,0,0,0,0,0,0,-1,790,1009,0,0
-427,15,0,0,0,0,0,0,0,0,0,-1,797,1009,0,0
-420,15,0,0,0,0,0,0,0,0,0,-1,804,1009,0,0
-413,15,0,0,0,0,0,0,0,0,0,-1,811,1009,0,0
-406,15,0,0,0,0,0,0,0,0,0,-1,818,1009,0,0
-399,15,0,0,0,0,0,0,0,0,0,-1,825,1009,0,0
-392,15,0,0,0,0,0,0,0,0,0,-1,832,1009,0,0
-385,15,0,0,0,0,0,0,0,0,0,-1,839,1009,0,0
-378,15,0,0,0,0,0,0,0,0,0,-1,846,1009,0,0
-371,15,0,0,0,0,0,0,0,0,0,-1,853,1009,0,0
-364,15,0,0,0,0,0,0,0,0,0,-1,860,1009,0,0
-357,15,0,0,0,0,0,0,0,0,0,-1,867,1009,0,0
-350,15,0,0,0,0,0,0,0,0,0,-1,874,1009,0,0
-343,15,0,0,0,0,0,0,0,0,0,-1,881,1009,0,0
-336,15,0,0,0,0,0,0,0,0,0,-1,888,1009,0,0
-329,15,0,0,0,0,0,0,0,0,0,-1,895,1009,0,0
-322,15,0,0,0,0,0,0,0,0,0,-1,902,1009,0,0
-315,15,0,0,0,0,0,0,0,0,0,-1,909,1009,0,0
-308,15,0,0,0,0,0,0,0,0,0,-1,916,1009,0,0
-301,15,0,0,0,0,0,0,0,0,0,-1,923,1009,0,0
-294,15,0,0,0,0,0,0,0,0,0,-1,930,1009,0,0
-287,15,0,0,0,0,0,0,0,0,0,-1,937,1009,0,0
-280,15,0,0,0,0,0,0,0,0,0,-1,944,1009,0,0
-273,15,0,0,0,0,0,0,0,0,0,-1,951,1009,0,0
-266,15,0,0,0,0,0,0,0,0,0,-1,958,1009,0,0
-259,15,0,0,0,0,0,0,0,0,0,-1,965,1009,0,0
-252,15,0,0,0,0,0,0,0,0,0,-1,972,1009,0,0
-245,15,0,0,0,0,0,0,0,0,0,-1,979,1009,0,0
-238,15,0,0,0,0,0,0,0,0,0,-1,986,1009,0,0
-231,15,0,0,0,0,0,0,0,0,0,-1,993,1009,0,0
-224,15,0,0,0,0,0,0,0,0,0,-1,1000,1009,0,0
-217,15,0,0,0,0,0,0,0,0,0,-1,1007,1009,0,0
-210,15,0,0,0,0,0,0,0,0,0,-1,1014,1009,0,0
-203,15,0,0,0,0,0,0,0,0,0,-1,1021,1009,0,0
-196,15,0,0,0,0,0,0,0,0,0,-1,1028,1009,0,0
-189,15,0,0,0,0,0,0,0,0,0,-1,1035,1009,0,0
-182,15,0,0,0,0,0,0,0,0,0,-1,1042,1009,0,0
-175,15,0,0,0,0,0,0,0,0,0,-1,1049,1009,0,0
-168,15,0,0,0,0,0,0,0,0,0,-1,1056,1009,0,0
-161,15,0,0,0,0,0,0,0,0,0,-1,1063,1009,0,0
-154,15,0,0,0,0,0,0,0,0,0,-1,1070,1009,0,0
-147,15,0,0,0,0,0,0,0,0,0,-1,1077,1009,0,0
-140,15,0,0,0,0,0,0,0,0,0,-1,1084,1009,0,0
-133,15,0,0,0,0,0,0,0,0,0,-1,1091,1009,0,0
-126,15,0,0,0,0,0,0,0,0,0,-1,1098,1009,0,0
-119,15,0,0,0,0,0,0,0,0,0,-1,1105,1009,0,0
-112,15,0,0,0,0,0,0,0,0,0,-1,1112,1009,0,0
-105,15,0,0,0,0,0,0,0,0,0,-1,1119,1009,0,0
-98,15,0,0,0,0,0,0,0,0,0,-1,1126,1009,0,0
-91,15,0,0,0,0,0,0,0,0,0,-1,1133,1009,0,0
-84,15,0,0,0,0,0,0,0,0,0,-1,1140,1009,0,0
-77,15,0,0,0,0,0,0,0,0,0,-1,1147,1009,0,0
-70,15,0,0,0,0,0,0,0,0,0,-1,1154,1009,0,0
-63,15,0,0,0,0,0,0,0,0,0,-1,1161,1009,0,0
-56,15,0,0,0,0,0,0,0,0,0,-1,1168,1009,0,0
-49,15,0,0,0,0,0,0,0,0,0,-1,1175,1009,0,0
-42,15,0,0,0,0,0,0,0,0,0,-1,1182,1009,0,0
-35,15,0,0,0,0,0,0,0,0,0,-1,1189,1009,0,0
-28,15,0,0,0,0,0,0,0,0,0,-1,1196,1009,0,0
-21,15,0,0,0,0,0,0,0,0,0,-1,1203,1009,0,0
-14,15,0,0,0,0,0,0,0,0,0,-1,1210,1009,0,0
-7,15,0,0,0,0,0,0,0,0,0,-1,1217,1009,0,0
0,15,0,0,0,0,0,0,0,0,0,-1,1224,1009,0,0
7,15,0,0,0,0,0,0,0,0,0,-1,1231,1009,0,0
14,15,0,0,0,0,0,0,0,0,0,-1,1238,1009,0,0
21,15,0,0,0,0,0,0,0,0,0,-1,1245,1009,0,0
28,15,0,0,0,0,0,0,0,0,0,-1,1252,1009,0,0
35,15,0,0,0,0,0,0,0,0,0,-1,1259,1009,0,0
42,15,0,0,0,0,0,0,0,0,0,-1,1266,1009,0,0
49,15,0,0,0,0,0,0,0,0,0,-1,1273,1009,0,0
56,15,0,0,0,0,0,0,0,0,0,-1,1280,1009,0,0
63,15,0,0,0,0,0,0,0,0,0,-1,1287,1009,0,0
70,15,0,0,0,0,0,0,0,0,0,-1,1294,1009,0,0
77,15,0,0,0,0,0,0,0,0,0,-1,1301,1009,0,0
84,15,0,0,0,0,0,0,0,0,0,-1,1308,1009,0,0
91,15,0,0,0,0,0,0,0,0,0,-1,1315,1009,0,0
98,15,0,0,0,0,0,0,0,0,0,-1,1322,1009,0,0
105,15,0,0,0,0,0,0,0,0,0,-1,1329,1009,0,0
112,15,0,0,0,0,0,0,0,0,0,-1,1336,1009,0,0
119,15,0,0,0,0,0,0,0,0,0,-1,1343,1009,0,0
126,15,0,0,0,0,0,0,0,0,0,-1,1350,1009,0,0
133,15,0,0,0,0,0,0,0,0,0,-1,1357,1009,0,0
140,15,0,0,0,0,0,0,0,0,0,-1,1364,1009,0,0
147,15,0,0,0,0,0,0,0,0,0,-1,1371,1009,0,0
154,15,0,0,0,0,0,0,0,0,0,-1,1378,1009,0,0
161,15,0,0,0,0,0,0,0,0,0,-1,1385,1009,0,0
168,15,0,0,0,0,0,0,0,0,0,-1,1392,1009,0,0
175,15,0,0,0,0,0,0,0,0,0,-1,1399,1009,0,0
182,15,0,0,0,0,0,0,0,0,0,-1,1406,1009,0,0
189,15,0,0,0,0,0,0,0,0,0,-1,1413,1009,0,0
196,15,0,0,0,0,0,0,0,0,0,-1,1420,1009,0,0
203,15,0,0,0,0,0,0,0,0,0,-1,1427,1009,0,0
210,15,0,0,0,0,0,0,0,0,0,-1,1434,1009,0,0
217,15,0,0,0,0,0,0,0,0,0,-1,1441,1009,0,0
224,15,0,0,0,0,0,0,0,0,0,-1,1448,1009,0,0
231,15,0,0,0,0,0,0,0,0,0,-1,1455,1009,0,0
238,15,0,0,0,0,0,0,0,0,0,-1,1462,1009,0,0
245,15,0,0,0,0,0,0,0,0,0,-1,1469,1009,0,0
252,15,0,0,0,0,0,0,0,0,0,-1,1476,1009,0,0
259,15,0,0,0,0,0,0,0,0,0,-1,1483,1009,0,0
266,15,0,0,0,0,0,0,0,0,0,-1,1490,1009,0,0
273,15,0,0,0,0,0,0,0,0,0,-1,1497,1009,0,0
280,15,0,0,0,0,0,0,0,0,0,-1,1504,1009,0,0
287,15,0,0,0,0,0,0,0,0,0,-1,1511,1009,0,0
294,15,0,0,0,0,0,0,0,0,0,-1,1518,1009,0,0
301,15,0,0,0,0,0,0,0,0,0,-1,1525,1009,0,0
308,15,0,0,0,0,0,0,0,0,0,-1,1532,1009,0,0
315,15,0,0,0,0,0,0,0,0,0,-1,1539,1009,0,0
322,15,0,0,0,0,0,0,0,0,0,-1,1546,1009,0,0
329,15,0,0,0,0,0,0,0,0,0,-1,1553,1009,0,0
336,15,0,0,0,0,0,0,0,0,0,-1,1560,1009,0,0
343,15,0,0,0,0,0,0,0,0,0,-1,1567,1009,0,0
350,15,0,0,0,0,0,0,0,0,0,-1,1574,1009,0,0
357,15,0,0,0,0,0,0,0,0,0,-1,1581,1009,0,0
364,15,0,0,0,0,0,0,0,0,0,-1,1588,1009,0,0
371,15,0,0,0,0,0,0,0,0,0,-1,1595,1009,0,0
378,15,0,0,0,0,0,0,0,0,0,-1,1602,1009,0,0
385,15,0,0,0,0,0,0,0,0,0,-1,1609,1009,0,0
392,15,0,0,0,0,0,0,0,0,0,-1,1616,1009,0,0
399,15,0,0,0,0,0,0,0,0,0,-1,1623,1009,0,0
406,15,0,0,0,0,0,0,0,0,0,-1,1630,1009,0,0
413,15,0,0,0,0,0,0,0,0,0,-1,1637,1009,0,0
420,15,0,0,0,0,0,0,0,0,0,-1,1644,1009,0,0
427,15,0,0,0,0,0,0,0,0,0,-1,1651,1009,0,0
434,15,0,0,0,0,0,0,0,0,0,-1,1658,1009,0,0
441,15,0,0,0,0,0,0,0,0,0,-1,1665,1009,0,0
448,15,0,0,0,0,0,0,0,0,0,-1,1672,1009,0,0
455,15,0,0,0,0,0,0,0,0,0,-1,1679,1009,0,0
462,15,0,0,0,0,0,0,0,0,0,-1,1686,1009,0,0
469,15,0,0,0,0,0,0,0,0,0,-1,1693,1009,0,0
476,15,0,0,0,0,0,0,0,0,0,-1,1700,1009,0,0
483,15,0,0,0,0,0,0,0,0,0,-1,1707,1009,0,0
490,15,0,0,0,0,0,0,0,0,0,-1,1714,1009,0,0
497,15,0,0,0,0,0,0,0,0,0,-1,1721,1009,0,0
504,15,0,0,0,0,0,0,0,0,0,-1,1728,1009,0,0
511,15,0,0,0,0,0,0,0,0,0,-1,1735,1009,0,0
518,15,0,0,0,0,0,0,0,0,0,-1,1742,1009,0,0
525,15,0,0,0,0,0,0,0,0,0,-1,1749,1009,0,0
532,15,0,0,0,0,0,0,0,0,0,-1,1756,1009,0,0
539,15,0,0,0,0,0,0,0,0,0,-1,1763,1009,0,0
546,15,0,0,0,0,0,0,0,0,0,-1,1770,1009,0,0
553,15,0,0,0,0,0,0,0,0,0,-1,1777,1009,0,0
560,15,0,0,0,0,0,0,0,0,0,-1,1784,1009,0,0
567,15,0,0,0,0,0,0,0,0,0,-1,1791,1009,0,0
574,15,0,0,0,0,0,0,0,0,0,-1,1798,1009,0,0
581,15,0,0,0,0,0,0,0,0,0,-1,1805,1009,0,0
588,15,0,0,0,0,0,0,0,0,0,-1,1812,1009,0,0
595,15,0,0,0,0,0,0,0,0,0,-1,1819,1009,0,0
602,15,0,0,0,0,0,0,0,0,0,-1,1826,1009,0,0
609,15,0,0,0,0,0,0,0,0,0,-1,1833,1009,0,0
616,15,0,0,0,0,0,0,0,0,0,-1,1840,1009,0,0
623,15,0,0,0,0,0,0,0,0,0,-1,1847,1009,0,0
630,15,0,0,0,0,0,0,0,0,0,-1,1854,1009,0,0
637,15,0,0,0,0,0,0,0,0,0,-1,1861,1009,0,0
644,15,46.6166,2.52319,0.00215299,0.00804223,0.0015536,0.00842695,0.00176827,1.32805,0.00513113,0.0415487,1868,1009,46.6166,-2.52318
651,15,46.6823,2.68414,0.00159334,0.00583991,0.0014871,0.00630888,0.00112437,1.26531,0.00388574,0.0397816,1875,1009,46.6822,-2.68412
658,15,46.7097,2.56262,0.00101628,0.00410772,0.00149143,0.00470994,0.000414066,1.18703,0.00301144,0.0396887,1882,1009,46.7097,-2.56262
665,15,46.7637,2.60577,0.000577547,0.00281337,0.00148444,0.00355376,-0.000162841,1.10814,0.00242528,0.0388198,1889,1009,46.7637,-2.60578
672,15,46.7668,2.80157,0.000255507,0.0019917,0.00155074,0.00290078,-0.000653579,1.04056,0.00218455,0.0389326,1896,1009,46.7668,-2.80157
679,15,46.7021,2.71271,5.7814e-06,0.00154137,0.00173931,0.00267481,-0.00112766,0.993254,0.00225512,0.0400606,1903,1009,46.7022,-2.71268
686,15,46.7332,2.64178,-0.000126017,0.00119905,0.00191619,0.00256402,-0.00149098,0.951842,0.00236832,0.0411234,1910,1009,46.7332,-2.6418
693,15,46.7319,2.61884,-0.000220898,0.000940847,0.0020522,0.0024928,-0.00177285,0.923315,0.00247444,0.0379447,1917,1009,46.732,-2.61884
700,15,46.756,2.68854,-0.000416077,0.000809021,0.00207934,0.00236416,-0.00197121,0.928641,0.00250645,0.0324425,1924,1009,46.756,-2.68856
707,15,46.675,2.74194,-0.000651419,0.00101652,0.00202228,0.00237004,-0.00200494,0.980969,0.00252883,0.0301121,1931,1009,46.675,-2.74195
714,15,46.684,2.77838,-0.00105499,0.00148213,0.00191702,0.00251231,-0.00208517,1.07769,0.00265817,0.033191,1938,1009,46.6839,-2.77841
721,15,46.7568,2.69781,0,0,0,0,0,0,0,-1,1945,1009,46.7568,-2.69781
728,15,46.473,5.51489,0,0,0,0,0,0,0,-1,1952,1009,46.473,-5.51492
735,15,46.4221,5.64813,-0.00297443,0.00426385,0.00106014,0.00441592,-0.0031265,1.42832,0.00437578,0.0180724,1959,1009,46.4221,-5.64812
742,15,46.4348,5.79443,-0.0035195,0.00535618,0.000553838,0.00539061,-0.00355393,1.50872,0.0052003,0.030957,1966,1009,46.4348,-5.79445
749,15,46.4154,5.85809,-0.00372478,0.00651899,-0.000270063,0.00652611,-0.00373189,-1.54446,0.00599525,0.0191006,1973,1009,46.4154,-5.85807
756,15,46.4294,5.84833,-0.00377304,0.00794631,-0.00126808,0.00808195,-0.00390868,-1.46424,0.00706118,0.0159223,1980,1009,46.4295,-5.84833
763,15,46.3685,5.96313,-0.00396823,0.00928697,-0.00270544,0.0098179,-0.00449915,-1.37702,0.00845395,0.0134828,1987,1009,46.3685,-5.96316
770,15,46.2551,5.98749,-0.00336423,0.0105464,-0.00461708,0.0119393,-0.00475721,-1.27778,0.00993259,0.0173721,1994,1009,46.2552,-5.9875
777,15,45.9503,6.0451,-0.00198427,0.0111683,-0.00693642,0.0141503,-0.0049663,-1.16477,0.0114537,0.0387911,2001,1009,45.9504,-6.0451
784,15,45.7007,6.11554,0,0,0,0,0,0,0,-1,2008,1009,45.7008,-6.11551
791,15,46.2725,5.78833,0,0,0,0,0,0,0,-1,2015,1009,46.2726,-5.78836
798,15,45.7222,6.36523,0,0,0,0,0,0,0,-1,2022,1009,45.7223,-6.36523
805,15,45.5293,5.44189,0,0,0,0,0,0,0,-1,2029,1009,45.5292,-5.44192
812,15,45.6838,4.67194,0,0,0,0,0,0,0,-1,2036,1009,45.6837,-4.67196
-700,8,0,0,0,0,0,0,0,0,0,-1,524,1016,0,0
-693,8,-32.8617,-0.0250244,0,0,0,0,0,0,0,-1,531,1016,-32.8617,0.0250317
-686,8,-32.6491,1.73285,-0.113476,0.0470098,0.0500457,0.0613369,-0.127803,1.29197,0.111425,0.043582,538,1016,-32.6491,-1.73287
-679,8,-36.7731,2.81927,-0.0882838,0.04657,0.0431463,0.059193,-0.100907,1.28618,0.0934737,0.0476932,545,1016,-36.7731,-2.8193
-672,8,-36.4384,2.63849,-0.0678602,0.0443889,0.0364749,0.0552001,-0.0786714,1.28265,0.0776857,0.0456695,552,1016,-36.4384,-2.63846
-665,8,-36.1158,2.31543,0,0,0,0,0,0,0,-1,559,1016,-36.1158,-2.31544
-658,8,-35.3341,2.39117,0,0,0,0,0,0,0,-1,566,1016,-35.3341,-2.39116
-651,8,-34.769,2.77643,0,0,0,0,0,0,0,-1,573,1016,-34.769,-2.77644
-644,8,-34.6384,2.78009,0,0,0,0,0,0,0,-1,580,1016,-34.6383,-2.78007
-637,8,-35.0958,2.97528,-0.0124705,0.021454,0.00810507,0.0232909,-0.0143075,1.34792,0.021913,0.0377083,587,1016,-35.0958,-2.97528
-630,8,-35.287,3.09747,-0.00666609,0.015809,0.00275642,0.0161421,-0.00699921,1.45053,0.0137038,0.0214282,594,1016,-35.287,-3.09749
-623,8,-35.2842,3.13879,-0.00283744,0.0100703,0.000220283,0.0100741,-0.0028412,1.55374,0.00783672,0.0146697,601,1016,-35.2843,-3.13877
-616,8,-35.3049,3.11438,-0.00045964,0.0066996,-0.0024971,0.00748452,-0.00124456,-1.26624,0.00545209,0.0158023,608,1016,-35.3049,-3.11436
-609,8,-35.3715,3.05597,0.000404877,0.0039338,-0.00454732,0.00704698,-0.0027083,-0.970467,0.00581493,0.0187747,615,1016,-35.3715,-3.05596
-602,8,-35.3366,3.10272,0.00114776,0.00156358,-0.00623358,0.00759271,-0.00488137,-0.802069,0.0072584,0.022375,622,1016,-35.3366,-3.10273
-595,8,-35.3356,3.06195,0,0,0,0,0,0,0,-1,629,1016,-35.3357,-3.06192
-588,8,-34.8324,0.77478,0,0,0,0,0,0,0,-1,636,1016,-34.8324,-0.77478
-581,8,-34.7346,0.804077,0.00263729,-0.00119716,-0.00741869,0.00838249,-0.00694236,-0.658949,0.00886082,0.0299305,643,1016,-34.7346,-0.80408
-574,8,-34.6515,0.819702,0.00247537,-0.00168031,-0.00690651,0.00760983,-0.00681477,-0.639279,0.00833226,0.0341186,650,1016,-34.6515,-0.8197
-567,8,-34.7629,0.887756,0.00193502,-0.0017806,-0.00583323,0.00619914,-0.00604472,-0.631233,0.00706919,0.0391003,657,1016,-34.7629,-0.887755
-560,8,-34.8448,1.06812,0.00104881,-0.00170001,-0.00415142,0.00404742,-0.00469862,-0.625542,0.00505419,0.0421662,664,1016,-34.8448,-1.06814
-553,8,-34.6698,1.04401,-0.000332258,-0.00159309,-0.00188388,0.00102389,-0.00294924,-0.623936,0.00238198,0.0426886,671,1016,-34.6698,-1.04401
-546,8,-34.6762,0.93457,-0.00220773,-0.00171669,0.000953054,-0.000978041,-0.00294638,0.911465,0.00173283,0.0414579,678,1016,-34.6762,-0.934576
-539,8,-34.9179,0.935791,-0.00435443,-0.00221866,0.00365003,0.000516497,-0.00708958,0.927711,0.00490762,0.0419245,685,1016,-34.9179,-0.935785
-532,8,-34.9548,0.922119,-0.00636431,-0.00263647,0.00451009,0.000379679,-0.00938046,0.981348,0.00638396,0.0405066,692,1016,-34.9548,-0.922138
-525,8,0,0,0,0,0,0,0,0,0,-1,699,1016,0,0
-518,8,0,0,0,0,0,0,0,0,0,-1,706,1016,0,0
-511,8,0,0,0,0,0,0,0,0,0,-1,713,1016,0,0
-504,8,0,0,0,0,0,0,0,0,0,-1,720,1016,0,0
-497,8,0,0,0,0,0,0,0,0,0,-1,727,1016,0,0
-490,8,0,0,0,0,0,0,0,0,0,-1,734,1016,0,0
-483,8,0,0,0,0,0,0,0,0,0,-1,741,1016,0,0
-476,8,0,0,0,0,0,0,0,0,0,-1,748,1016,0,0
-469,8,0,0,0,0,0,0,0,0,0,-1,755,1016,0,0
-462,8,0,0,0,0,0,0,0,0,0,-1,762,1016,0,0
-455,8,0,0,0,0,0,0,0,0,0,-1,769,1016,0,0
-448,8,0,0,0,0,0,0,0,0,0,-1,776,1016,0,0
-441,8,0,0,0,0,0,0,0,0,0,-1,783,1016,0,0
-434,8,0,0,0,0,0,0,0,0,0,-1,790,1016,0,0
-427,8,0,0,0,0,0,0,0,0,0,-1,797,1016,0,0
-420,8,0,0,0,0,0,0,0,0,0,-1,804,1016,0,0
-413,8,0,0,0,0,0,0,0,0,0,-1,811,1016,0,0
-406,8,0,0,0,0,0,0,0,0,0,-1,818,1016,0,0
-399,8,0,0,0,0,0,0,0,0,0,-1,825,1016,0,0
-392,8,0,0,0,0,0,0,0,0,0,-1,832,1016,0,0
-385,8,0,0,0,0,0,0,0,0,0,-1,839,1016,0,0
-378,8,0,0,0,0,0,0,0,0,0,-1,846,1016,0,0
-371,8,0,0,0,0,0,0,0,0,0,-1,853,1016,0,0
-364,8,0,0,0,0,0,0,0,0,0,-1,860,1016,0,0
-357,8,0,0,0,0,0,0,0,0,0,-1,867,1016,0,0
-350,8,0,0,0,0,0,0,0,0,0,-1,874,1016,0,0
-343,8,0,0,0,0,0,0,0,0,0,-1,881,1016,0,0
-336,8,0,0,0,0,0,0,0,0,0,-1,888,1016,0,0
-329,8,0,0,0,0,0,0,0,0,0,-1,895,1016,0,0
-322,8,0,0,0,0,0,0,0,0,0,-1,902,1016,0,0
-315,8,0,0,0,0,0,0,0,0,0,-1,909,1016,0,0
-308,8,0,0,0,0,0,0,0,0,0,-1,916,1016,0,0
-301,8,0,0,0,0,0,0,0,0,0,-1,923,1016,0,0
-294,8,0,0,0,0,0,0,0,0,0,-1,930,1016,0,0
-287,8,0,0,0,0,0,0,0,0,0,-1,937,1016,0,0
-280,8,0,0,0,0,0,0,0,0,0,-1,944,1016,0,0
-273,8,0,0,0,0,0,0,0,0,0,-1,951,1016,0,0
-266,8,0,0,0,0,0,0,0,0,0,-1,958,1016,0,0
-259,8,0,0,0,0,0,0,0,0,0,-1,965,1016,0,0
-252,8,0,0,0,0,0,0,0,0,0,-1,972,1016,0,0
-245,8,0,0,0,0,0,0,0,0,0,-1,979,1016,0,0
-238,8,0,0,0,0,0,0,0,0,0,-1,986,1016,0,0
-231,8,0,0,0,0,0,0,0,0,0,-1,993,1016,0,0
-224,8,0,0,0,0,0,0,0,0,0,-1,1000,1016,0,0
-217,8,0,0,0,0,0,0,0,0,0,-1,1007,1016,0,0
-210,8,0,0,0,0,0,0,0,0,0,-1,1014,1016,0,0
-203,8,0,0,0,0,0,0,0,0,0,-1,1021,1016,0,0
-196,8,0,0,0,0,0,0,0,0,0,-1,1028,1016,0,0
-189,8,0,0,0,0,0,0,0,0,0,-1,1035,1016,0,0
-182,8,0,0,0,0,0,0,0,0,0,-1,1042,1016,0,0
-175,8,0,0,0,0,0,0,0,0,0,-1,1049,1016,0,0
-168,8,0,0,0,0,0,0,0,0,0,-1,1056,1016,0,0
-161,8,0,0,0,0,0,0,0,0,0,-1,1063,1016,0,0
-154,8,0,0,0,0,0,0,0,0,0,-1,1070,1016,0,0
-147,8,0,0,0,0,0,0,0,0,0,-1,1077,1016,0,0
-140,8,0,0,0,0,0,0,0,0,0,-1,1084,1016,0,0
-133,8,0,0,0,0,0,0,0,0,0,-1,1091,1016,0,0
-126,8,0,0,0,0,0,0,0,0,0,-1,1098,1016,0,0
-119,8,0,0,0,0,0,0,0,0,0,-1,1105,1016,0,0
-112,8,0,0,0,0,0,0,0,0,0,-1,1112,1016,0,0
-105,8,0,0,0,0,0,0,0,0,0,-1,1119,1016,0,0
-98,8,0,0,0,0,0,0,0,0,0,-1,1126,1016,0,0
-91,8,0,0,0,0,0,0,0,0,0,-1,1133,1016,0,0
-84,8,0,0,0,0,0,0,0,0,0,-1,1140,1016,0,0
-77,8,0,0,0,0,0,0,0,0,0,-1,1147,1016,0,0
-70,8,0,0,0,0,0,0,0,0,0,-1,1154,1016,0,0
-63,8,0,0,0,0,0,0,0,0,0,-1,1161,1016,0,0
-56,8,0,0,0,0,0,0,0,0,0,-1,1168,1016,0,0
-49,8,0,0,0,0,0,0,0,0,0,-1,1175,1016,0,0
-42,8,0,0,0,0,0,0,0,0,0,-1,1182,1016,0,0
-35,8,0,0,0,0,0,0,0,0,0,-1,1189,1016,0,0
-28,8,0,0,0,0,0,0,0,0,0,-1,1196,1016,0,0
-21,8,0,0,0,0,0,0,0,0,0,-1,1203,1016,0,0
-14,8,0,0,0,0,0,0,0,0,0,-1,1210,1016,0,0
-7,8,0,0,0,0,0,0,0,0,0,-1,1217,1016,0,0
0,8,0,0,0,0,0,0,0,0,0,-1,1224,1016,0,0
7,8,0,0,0,0,0,0,0,0,0,-1,1231,1016,0,0
14,8,0,0,0,0,0,0,0,0,0,-1,1238,1016,0,0
21,8,0,0,0,0,0,0,0,0,0,-1,1245,1016,0,0
28,8,0,0,0,0,0,0,0,0,0,-1,1252,1016,0,0
35,8,0,0,0,0,0,0,0,0,0,-1,1259,1016,0,0
42,8,0,0,0,0,0,0,0,0,0,-1,1266,1016,0,0
49,8,0,0,0,0,0,0,0,0,0,-1,1273,1016,0,0
56,8,0,0,0,0,0,0,0,0,0,-1,1280,1016,0,0
63,8,0,0,0,0,0,0,0,0,0,-1,1287,1016,0,0
70,8,0,0,0,0,0,0,0,0,0,-1,1294,1016,0,0
77,8,0,0,0,0,0,0,0,0,0,-1,1301,1016,0,0
84,8,0,0,0,0,0,0,0,0,0,-1,1308,1016,0,0
91,8,0,0,0,0,0,0,0,0,0,-1,1315,1016,0,0
98,8,0,0,0,0,0,0,0,0,0,-1,1322,1016,0,0
105,8,0,0,0,0,0,0,0,0,0,-1,1329,1016,0,0
112,8,0,0,0,0,0,0,0,0,0,-1,1336,1016,0,0
119,8,0,0,0,0,0,0,0,0,0,-1,1343,1016,0,0
126,8,0,0,0,0,0,0,0,0,0,-1,1350,1016,0,0
133,8,0,0,0,0,0,0,0,0,0,-1,1357,1016,0,0
140,8,0,0,0,0,0,0,0,0,0,-1,1364,1016,0,0
147,8,0,0,0,0,0,0,0,0,0,-1,1371,1016,0,0
154,8,0,0,0,0,0,0,0,0,0,-1,1378,1016,0,0
161,8,0,0,0,0,0,0,0,0,0,-1,1385,1016,0,0
168,8,0,0,0,0,0,0,0,0,0,-1,1392,1016,0,0
175,8,0,0,0,0,0,0,0,0,0,-1,1399,1016,0,0
182,8,0,0,0,0,0,0,0,0,0,-1,1406,1016,0,0
189,8,0,0,0,0,0,0,0,0,0,-1,1413,1016,0,0
196,8,0,0,0,0,0,0,0,0,0,-1,1420,1016,0,0
203,8,0,0,0,0,0,0,0,0,0,-1,1427,1016,0,0
210,8,0,0,0,0,0,0,0,0,0,-1,1434,1016,0,0
217,8,0,0,0,0,0,0,0,0,0,-1,1441,1016,0,0
224,8,0,0,0,0,0,0,0,0,0,-1,1448,1016,0,0
231,8,0,0,0,0,0,0,0,0,0,-1,1455,1016,0,0
238,8,0,0,0,0,0,0,0,0,0,-1,1462,1016,0,0
245,8,0,0,0,0,0,0,0,0,0,-1,1469,1016,0,0
252,8,0,0,0,0,0,0,0,0,0,-1,1476,1016,0,0
259,8,0,0,0,0,0,0,0,0,0,-1,1483,1016,0,0
266,8,0,0,0,0,0,0,0,0,0,-1,1490,1016,0,0
273,8,0,0,0,0,0,0,0,0,0,-1,1497,1016,0,0
280,8,0,0,0,0,0,0,0,0,0,-1,1504,1016,0,0
287,8,0,0,0,0,0,0,0,0,0,-1,1511,1016,0,0
294,8,0,0,0,0,0,0,0,0,0,-1,1518,1016,0,0
301,8,0,0,0,0,0,0,0,0,0,-1,1525,1016,0,0
308,8,0,0,0,0,0,0,0,0,0,-1,1532,1016,0,0
315,8,0,0,0,0,0,0,0,0,0,-1,1539,1016,0,0
322,8,0,0,0,0,0,0,0,0,0,-1,1546,1016,0,0
329,8,0,0,0,0,0,0,0,0,0,-1,1553,1016,0,0
336,8,0,0,0,0,0,0,0,0,0,-1,1560,1016,0,0
343,8,0,0,0,0,0,0,0,0,0,-1,1567,1016,0,0
350,8,0,0,0,0,0,0,0,0,0,-1,1574,1016,0,0
357,8,0,0,0,0,0,0,0,0,0,-1,1581,1016,0,0
364,8,0,0,0,0,0,0,0,0,0,-1,1588,1016,0,0
371,8,0,0,0,0,0,0,0,0,0,-1,1595,1016,0,0
378,8,0,0,0,0,0,0,0,0,0,-1,1602,1016,0,0
385,8,0,0,0,0,0,0,0,0,0,-1,1609,1016,0,0
392,8,0,0,0,0,0,0,0,0,0,-1,1616,1016,0,0
399,8,0,0,0,0,0,0,0,0,0,-1,1623,1016,0,0
406,8,0,0,0,0,0,0,0,0,0,-1,1630,1016,0,0
413,8,0,0,0,0,0,0,0,0,0,-1,1637,1016,0,0
420,8,0,0,0,0,0,0,0,0,0,-1,1644,1016,0,0
427,8,0,0,0,0,0,0,0,0,0,-1,1651,1016,0,0
434,8,0,0,0,0,0,0,0,0,0,-1,1658,1016,0,0
441,8,0,0,0,0,0,0,0,0,0,-1,1665,1016,0,0
448,8,0,0,0,0,0,0,0,0,0,-1,1672,1016,0,0
455,8,0,0,0,0,0,0,0,0,0,-1,1679,1016,0,0
462,8,0,0,0,0,0,0,0,0,0,-1,1686,1016,0,0
469,8,0,0,0,0,0,0,0,0,0,-1,1693,1016,0,0
476,8,0,0,0,0,0,0,0,0,0,-1,1700,1016,0,0
483,8,0,0,0,0,0,0,0,0,0,-1,1707,1016,0,0
490,8,0,0,0,0,0,0,0,0,0,-1,1714,1016,0,0
497,8,0,0,0,0,0,0,0,0,0,-1,1721,1016,0,0
504,8,0,0,0,0,0,0,0,0,0,-1,1728,1016,0,0
511,8,0,0,0,0,0,0,0,0,0,-1,1735,1016,0,0
518,8,0,0,0,0,0,0,0,0,0,-1,1742,1016,0,0
525,8,0,0,0,0,0,0,0,0,0,-1,1749,1016,0,0
532,8,0,0,0,0,0,0,0,0,0,-1,1756,1016,0,0
539,8,0,0,0,0,0,0,0,0,0,-1,1763,1016,0,0
546,8,0,0,0,0,0,0,0,0,0,-1,1770,1016,0,0
553,8,0,0,0,0,0,0,0,0,0,-1,1777,1016,0,0
560,8,0,0,0,0,0,0,0,0,0,-1,1784,1016,0,0
567,8,0,0,0,0,0,0,0,0,0,-1,1791,1016,0,0
574,8,0,0,0,0,0,0,0,0,0,-1,1798,1016,0,0
581,8,0,0,0,0,0,0,0,0,0,-1,1805,1016,0,0
588,8,0,0,0,0,0,0,0,0,0,-1,1812,1016,0,0
595,8,0,0,0,0,0,0,0,0,0,-1,1819,1016,0,0
602,8,0,0,0,0,0,0,0,0,0,-1,1826,1016,0,0
609,8,0,0,0,0,0,0,0,0,0,-1,1833,1016,0,0
616,8,0,0,0,0,0,0,0,0,0,-1,1840,1016,0,0
623,8,0,0,0,0,0,0,0,0,0,-1,1847,1016,0,0
630,8,0,0,0,0,0,0,0,0,0,-1,1854,1016,0,0
637,8,0,0,0,0,0,0,0,0,0,-1,1861,1016,0,0
644,8,46.759,2.23932,0.000196822,0.00736773,0.00227525,0.00802872,-0.000464163,1.28807,0.00551372,0.0437489,1868,1016,46.759,-2.2393
651,8,46.7571,2.38287,0.000154487,0.00521137,0.0023063,0.00610522,-0.000739358,1.20105,0.00433765,0.0391105,1875,1016,46.757,-2.38287
658,8,46.7076,2.56982,-2.5477e-05,0.00359972,0.00228473,0.00470355,-0.0011293,1.12074,0.00357214,0.0382609,1882,1016,46.7077,-2.5698
665,8,46.6549,2.49213,-0.000181247,0.00240014,0.00219983,0.00365997,-0.00144107,1.0507,0.00303654,0.0395581,1889,1016,46.6549,-2.4921
672,8,46.6971,2.54803,-0.000273779,0.00167779,0.00215758,0.00306998,-0.00166597,0.997764,0.00277407,0.0381386,1896,1016,46.6972,-2.54806
679,8,46.691,2.5462,-0.000354637,0.00129346,0.00220631,0.00282459,-0.00188577,0.964123,0.00273747,0.0372989,1903,1016,46.6911,-2.54617
686,8,46.6493,2.60406,-0.0004084,0.00100245,0.00226042,0.00266496,-0.00207091,0.936648,0.00274141,0.0403194,1910,1016,46.6493,-2.60405
693,8,46.6516,2.75336,-0.000456229,0.000769095,0.00232123,0.00255715,-0.00224428,0.914425,0.00277407,0.0373765,1917,1016,46.6517,-2.75336
700,8,46.7902,2.71338,-0.000585042,0.000659085,0.00230744,0.00242685,-0.0023528,0.917063,0.00275964,0.0319312,1924,1016,46.7902,-2.71337
707,8,46.754,2.74829,-0.000776022,0.000874323,0.002222,0.00241943,-0.00232113,0.963188,0.00273716,0.0274592,1931,1016,46.754,-2.74831
714,8,46.7197,2.7287,-0.001168,0.00133606,0.00210986,0.00253742,-0.00236935,1.05318,0.00283348,0.0309824,1938,1016,46.7198,-2.72871
721,8,46.7971,2.6109,0,0,0,0,0,0,0,-1,1945,1016,46.7971,-2.61087
728,8,46.3398,5.58044,0,0,0,0,0,0,0,-1,1952,1016,46.3399,-5.58047
735,8,46.3143,5.66058,0,0,0,0,0,0,0,-1,1959,1016,46.3144,-5.66056
742,8,46.4529,5.67719,0,0,0,0,0,0,0,-1,1966,1016,46.4529,-5.67716
749,8,46.5551,5.79626,-0.00356368,0.00658384,0.00031657,0.00659371,-0.00357354,1.53964,0.00595577,0.040188,1973,1016,46.555,-5.79625
756,8,46.4943,5.77911,-0.00354537,0.00824754,-0.000375548,0.00825949,-0.00355732,-1.53899,0.00700017,0.0251493,1980,1016,46.4942,-5.77908
763,8,46.4668,5.84552,-0.00372599,0.00980859,-0.00148388,0.00996936,-0.00388676,-1.46287,0.00825278,0.0147491,1987,1016,46.4667,-5.84555
770,8,46.3752,5.82294,-0.00308369,0.0115041,-0.00289991,0.0120594,-0.00363902,-1.38159,0.00948814,0.0192996,1994,1016,46.3753,-5.82293
777,8,46.0583,5.87347,-0.00175293,0.0126807,-0.00459656,0.0140202,-0.00309244,-1.28723,0.0105301,0.0324558,2001,1016,46.0583,-5.8735
784,8,46.0537,6.08337,0.000140099,0.012845,-0.0064338,0.015534,-0.00254888,-1.17492,0.0113018,0.0487042,2008,1016,46.0537,-6.0834
791,8,46.2002,6.3728,0,0,0,0,0,0,0,-1,2015,1016,46.2002,-6.3728
798,8,44.9351,6.32819,0,0,0,0,0,0,0,-1,2022,1016,44.935,-6.32821
805,8,44.7412,5.46509,0,0,0,0,0,0,0,-1,2029,1016,44.7413,-5.46511
812,8,44.4724,4.56818,0,0,0,0,0,0,0,-1,2036,1016,44.4725,-4.56816
-700,1,0,0,0,0,0,0,0,0,0,-1,524,1023,0,0
-693,1,-32.424,0.95166,0,0,0,0,0,0,0,-1,531,1023,-32.424,-0.951648
-686,1,-32.6093,1.32867,-0.0965767,0.0414291,0.0550077,0.0606716,-0.115819,1.23429,0.103542,0.0456476,538,1023,-32.6093,-1.32867
-679,1,-32.2972,2.81158,-0.0764338,0.0428809,0.0470829,0.0592222,-0.0927751,1.23673,0.0884655,0.0498747,545,1023,-32.2972,-2.81157
-672,1,-37.0118,2.73322,-0.0593466,0.0419902,0.0396001,0.0556293,-0.0729856,1.2391,0.0744809,0.0455014,552,1023,-37.0118,-2.73323
-665,1,-35.5779,2.24042,0,0,0,0,0,0,0,-1,559,1023,-35.5779,-2.24042
-658,1,-35.1993,2.49023,-0.0331615,0.0358534,0.0260388,0.0445754,-0.0418835,1.24758,0.0499251,0.033259,566,1023,-35.1993,-2.49023
-651,1,-35.0276,2.79596,-0.0236667,0.0311808,0.0200487,0.0377278,-0.0302137,1.25516,0.039306,0.0265655,573,1023,-35.0277,-2.79599
-644,1,-34.8182,3.01904,0,0,0,0,0,0,0,-1,580,1023,-34.8182,-3.01904
-637,1,-35.1145,2.9505,-0.0105381,0.0214781,0.00865041,0.0236659,-0.0127258,1.32308,0.0213249,0.0347972,587,1023,-35.1145,-2.95047
-630,1,-35.3489,2.99713,-0.00537132,0.0158613,0.00305773,0.0162929,-0.00580289,1.43058,0.0132275,0.0287203,594,1023,-35.3488,-2.99715
-623,1,-35.2473,3.10999,-0.00199106,0.0100861,0.000349198,0.0100962,-0.00200115,1.54191,0.00748753,0.0149402,601,1023,-35.2473,-3.11
-616,1,-35.3492,3.05182,0.000167409,0.00651728,-0.00229374,0.00725916,-0.000574472,-1.25798,0.00504185,0.0194812,608,1023,-35.3493,-3.05179
-609,1,-35.362,3.07056,0.000894789,0.00362779,-0.00424949,0.00672508,-0.0022025,-0.940961,0.00537028,0.0203113,615,1023,-35.362,-3.07054
-602,1,-35.1942,3.12622,0.00148045,0.00118325,-0.00586546,0.0071992,-0.0045355,-0.772733,0.00683296,0.0144137,622,1023,-35.1941,-3.12624
-595,1,-35.0559,3.11658,0.00198943,-6.98843e-05,-0.00685628,0.00789294,-0.00597339,-0.710867,0.00803126,0.0343567,629,1023,-35.0559,-3.11657
-588,1,-34.9588,1.98004,0.00249423,-0.000810075,-0.00707623,0.00810862,-0.00642446,-0.670713,0.00840943,0.0471515,636,1023,-34.9588,-1.98004
-581,1,-34.761,0.905579,0.00280547,-0.00134081,-0.00685247,0.00789154,-0.00642688,-0.638506,0.00828115,0.0293818,643,1023,-34.761,-0.905571
-574,1,-34.7079,0.945313,0.00265074,-0.00168388,-0.0063443,0.00718771,-0.00622085,-0.620805,0.00774814,0.0380035,650,1023,-34.7079,-0.9453
-567,1,-34.8156,0.862122,0.00208883,-0.0016356,-0.0053647,0.00590533,-0.0054521,-0.618343,0.00655896,0.0424827,657,1023,-34.8156,-0.86214
-560,1,-34.7856,1.09253,0.00115767,-0.00137509,-0.0038777,0.00397053,-0.00418796,-0.627568,0.00471086,0.0408589,664,1023,-34.7856,-1.09253
-553,1,-34.6257,1.11823,-0.00027638,-0.00105887,-0.00190363,0.00127579,-0.00261105,-0.684046,0.00228778,0.0404132,671,1023,-34.6257,-1.11822
-546,1,-34.6879,0.90448,-0.00220486,-0.00095468,0.000538519,-0.0007547,-0.00240484,1.21523,0.00142015,0.0426146,678,1023,-34.6879,-0.9045
-539,1,-34.9329,0.764526,-0.00441033,-0.00126892,0.00279396,0.00036558,-0.00604483,1.04147,0.00415711,0.042799,685,1023,-34.9329,-0.764551
-532,1,-34.9255,0.829407,-0.00638275,-0.00149716,0.00327329,0.00014437,-0.00802428,1.10596,0.00539829,0.0431215,692,1023,-34.9256,-0.829401
-525,1,0,0,0,0,0,0,0,0,0,-1,699,1023,0,0
-518,1,0,0,0,0,0,0,0,0,0,-1,706,1023,0,0
-511,1,0,0,0,0,0,0,0,0,0,-1,713,1023,0,0
-504,1,0,0,0,0,0,0,0,0,0,-1,720,1023,0,0
-497,1,0,0,0,0,0,0,0,0,0,-1,727,1023,0,0
-490,1,0,0,0,0,0,0,0,0,0,-1,734,1023,0,0
-483,1,0,0,0,0,0,0,0,0,0,-1,741,1023,0,0
-476,1,0,0,0,0,0,0,0,0,0,-1,748,1023,0,0
-469,1,0,0,0,0,0,0,0,0,0,-1,755,1023,0,0
-462,1,0,0,0,0,0,0,0,0,0,-1,762,1023,0,0
-455,1,0,0,0,0,0,0,0,0,0,-1,769,1023,0,0
-448,1,0,0,0,0,0,0,0,0,0,-1,776,1023,0,0
-441,1,0,0,0,0,0,0,0,0,0,-1,783,1023,0,0
-434,1,0,0,0,0,0,0,0,0,0,-1,790,1023,0,0
-427,1,0,0,0,0,0,0,0,0,0,-1,797,1023,0,0
-420,1,0,0,0,0,0,0,0,0,0,-1,804,1023,0,0
-413,1,0,0,0,0,0,0,0,0,0,-1,811,1023,0,0
-406,1,0,0,0,0,0,0,0,0,0,-1,818,1023,0,0
-399,1,0,0,0,0,0,0,0,0,0,-1,825,1023,0,0
-392,1,0,0,0,0,0,0,0,0,0,-1,832,1023,0,0
-385,1,0,0,0,0,0,0,0,0,0,-1,839,1023,0,0
-378,1,0,0,0,0,0,0,0,0,0,-1,846,1023,0,0
-371,1,0,0,0,0,0,0,0,0,0,-1,853,1023,0,0
-364,1,0,0,0,0,0,0,0,0,0,-1,860,1023,0,0
-357,1,0,0,0,0,0,0,0,0,0,-1,867,1023,0,0
-350,1,0,0,0,0,0,0,0,0,0,-1,874,1023,0,0
-343,1,0,0,0,0,0,0,0,0,0,-1,881,1023,0,0
-336,1,0,0,0,0,0,0,0,0,0,-1,888,1023,0,0
-329,1,0,0,0,0,0,0,0,0,0,-1,895,1023,0,0
-322,1,0,0,0,0,0,0,0,0,0,-1,902,1023,0,0
-315,1,0,0,0,0,0,0,0,0,0,-1,909,1023,0,0
-308,1,0,0,0,0,0,0,0,0,0,-1,916,1023,0,0
-301,1,0,0,0,0,0,0,0,0,0,-1,923,1023,0,0
-294,1,0,0,0,0,0,0,0,0,0,-1,930,1023,0,0
-287,1,0,0,0,0,0,0,0,0,0,-1,937,1023,0,0
-280,1,0,0,0,0,0,0,0,0,0,-1,944,1023,0,0
-273,1,0,0,0,0,0,0,0,0,0,-1,951,1023,0,0
-266,1,0,0,0,0,0,0,0,0,0,-1,958,1023,0,0
-259,1,0,0,0,0,0,0,0,0,0,-1,965,1023,0,0
-252,1,0,0,0,0,0,0,0,0,0,-1,972,1023,0,0
-245,1,0,0,0,0,0,0,0,0,0,-1,979,1023,0,0
-238,1,0,0,0,0,0,0,0,0,0,-1,986,1023,0,0
-231,1,0,0,0,0,0,0,0,0,0,-1,993,1023,0,0
-224,1,0,0,0,0,0,0,0,0,0,-1,1000,1023,0,0
-217,1,0,0,0,0,0,0,0,0,0,-1,1007,1023,0,0
-210,1,0,0,0,0,0,0,0,0,0,-1,1014,1023,0,0
-203,1,0,0,0,0,0,0,0,0,0,-1,1021,1023,0,0
-196,1,0,0,0,0,0,0,0,0,0,-1,1028,1023,0,0
-189,1,0,0,0,0,0,0,0,0,0,-1,1035,1023,0,0
-182,1,0,0,0,0,0,0,0,0,0,-1,1042,1023,0,0
-175,1,0,0,0,0,0,0,0,0,0,-1,1049,1023,0,0
-168,1,0,0,0,0,0,0,0,0,0,-1,1056,1023,0,0
-161,1,0,0,0,0,0,0,0,0,0,-1,1063,1023,0,0
-154,1,0,0,0,0,0,0,0,0,0,-1,1070,1023,0,0
-147,1,0,0,0,0,0,0,0,0,0,-1,1077,1023,0,0
-140,1,0,0,0,0,0,0,0,0,0,-1,1084,1023,0,0
-133,1,0,0,0,0,0,0,0,0,0,-1,1091,1023,0,0
-126,1,0,0,0,0,0,0,0,0,0,-1,1098,1023,0,0
-119,1,0,0,0,0,0,0,0,0,0,-1,1105,1023,0,0
-112,1,0,0,0,0,0,0,0,0,0,-1,1112,1023,0,0
-105,1,0,0,0,0,0,0,0,0,0,-1,1119,1023,0,0
-98,1,0,0,0,0,0,0,0,0,0,-1,1126,1023,0,0
-91,1,0,0,0,0,0,0,0,0,0,-1,1133,1023,0,0
-84,1,0,0,0,0,0,0,0,0,0,-1,1140,1023,0,0
-77,1,0,0,0,0,0,0,0,0,0,-1,1147,1023,0,0
-70,1,0,0,0,0,0,0,0,0,0,-1,1154,1023,0,0
-63,1,0,0,0,0,0,0,0,0,0,-1,1161,1023,0,0
-56,1,0,0,0,0,0,0,0,0,0,-1,1168,1023,0,0
-49,1,0,0,0,0,0,0,0,0,0,-1,1175,1023,0,0
-42,1,0,0,0,0,0,0,0,0,0,-1,1182,1023,0,0
-35,1,0,0,0,0,0,0,0,0,0,-1,1189,1023,0,0
-28,1,0,0,0,0,0,0,0,0,0,-1,1196,1023,0,0
-21,1,0,0,0,0,0,0,0,0,0,-1,1203,1023,0,0
-14,1,0,0,0,0,0,0,0,0,0,-1,1210,1023,0,0
-7,1,0,0,0,0,0,0,0,0,0,-1,1217,1023,0,0
0,1,0,0,0,0,0,0,0,0,0,-1,1224,1023,0,0
7,1,0,0,0,0,0,0,0,0,0,-1,1231,1023,0,0
14,1,0,0,0,0,0,0,0,0,0,-1,1238,1023,0,0
21,1,0,0,0,0,0,0,0,0,0,-1,1245,1023,0,0
28,1,0,0,0,0,0,0,0,0,0,-1,1252,1023,0,0
35,1,0,0,0,0,0,0,0,0,0,-1,1259,1023,0,0
42,1,0,0,0,0,0,0,0,0,0,-1,1266,1023,0,0
49,1,0,0,0,0,0,0,0,0,0,-1,1273,1023,0,0
56,1,0,0,0,0,0,0,0,0,0,-1,1280,1023,0,0
63,1,0,0,0,0,0,0,0,0,0,-1,1287,1023,0,0
70,1,0,0,0,0,0,0,0,0,0,-1,1294,1023,0,0
77,1,0,0,0,0,0,0,0,0,0,-1,1301,1023,0,0
84,1,0,0,0,0,0,0,0,0,0,-1,1308,1023,0,0
91,1,0,0,0,0,0,0,0,0,0,-1,1315,1023,0,0
98,1,0,0,0,0,0,0,0,0,0,-1,1322,1023,0,0
105,1,0,0,0,0,0,0,0,0,0,-1,1329,1023,0,0
112,1,0,0,0,0,0,0,0,0,0,-1,1336,1023,0,0
119,1,0,0,0,0,0,0,0,0,0,-1,1343,1023,0,0
126,1,0,0,0,0,0,0,0,0,0,-1,1350,1023,0,0
133,1,0,0,0,0,0,0,0,0,0,-1,1357,1023,0,0
140,1,0,0,0,0,0,0,0,0,0,-1,1364,1023,0,0
147,1,0,0,0,0,0,0,0,0,0,-1,1371,1023,0,0
154,1,0,0,0,0,0,0,0,0,0,-1,1378,1023,0,0
161,1,0,0,0,0,0,0,0,0,0,-1,1385,1023,0,0
168,1,0,0,0,0,0,0,0,0,0,-1,1392,1023,0,0
175,1,0,0,0,0,0,0,0,0,0,-1,1399,1023,0,0
182,1,0,0,0,0,0,0,0,0,0,-1,1406,1023,0,0
189,1,0,0,0,0,0,0,0,0,0,-1,1413,1023,0,0
196,1,0,0,0,0,0,0,0,0,0,-1,1420,1023,0,0
203,1,0,0,0,0,0,0,0,0,0,-1,1427,1023,0,0
210,1,0,0,0,0,0,0,0,0,0,-1,1434,1023,0,0
217,1,0,0,0,0,0,0,0,0,0,-1,1441,1023,0,0
224,1,0,0,0,0,0,0,0,0,0,-1,1448,1023,0,0
231,1,0,0,0,0,0,0,0,0,0,-1,1455,1023,0,0
238,1,0,0,0,0,0,0,0,0,0,-1,1462,1023,0,0
245,1,0,0,0,0,0,0,0,0,0,-1,1469,1023,0,0
252,1,0,0,0,0,0,0,0,0,0,-1,1476,1023,0,0
259,1,0,0,0,0,0,0,0,0,0,-1,1483,1023,0,0
266,1,0,0,0,0,0,0,0,0,0,-1,1490,1023,0,0
273,1,0,0,0,0,0,0,0,0,0,-1,1497,1023,0,0
280,1,0,0,0,0,0,0,0,0,0,-1,1504,1023,0,0
287,1,0,0,0,0,0,0,0,0,0,-1,1511,1023,0,0
294,1,0,0,0,0,0,0,0,0,0,-1,1518,1023,0,0
301,1,0,0,0,0,0,0,0,0,0,-1,1525,1023,0,0
308,1,0,0,0,0,0,0,0,0,0,-1,1532,1023,0,0
315,1,0,0,0,0,0,0,0,0,0,-1,1539,1023,0,0
322,1,0,0,0,0,0,0,0,0,0,-1,1546,1023,0,0
329,1,0,0,0,0,0,0,0,0,0,-1,1553,1023,0,0
336,1,0,0,0,0,0,0,0,0,0,-1,1560,1023,0,0
343,1,0,0,0,0,0,0,0,0,0,-1,1567,1023,0,0
350,1,0,0,0,0,0,0,0,0,0,-1,1574,1023,0,0
357,1,0,0,0,0,0,0,0,0,0,-1,1581,1023,0,0
364,1,0,0,0,0,0,0,0,0,0,-1,1588,1023,0,0
371,1,0,0,0,0,0,0,0,0,0,-1,1595,1023,0,0
378,1,0,0,0,0,0,0,0,0,0,-1,1602,1023,0,0
385,1,0,0,0,0,0,0,0,0,0,-1,1609,1023,0,0
392,1,0,0,0,0,0,0,0,0,0,-1,1616,1023,0,0
399,1,0,0,0,0,0,0,0,0,0,-1,1623,1023,0,0
406,1,0,0,0,0,0,0,0,0,0,-1,1630,1023,0,0
413,1,0,0,0,0,0,0,0,0,0,-1,1637,1023,0,0
420,1,0,0,0,0,0,0,0,0,0,-1,1644,1023,0,0
427,1,0,0,0,0,0,0,0,0,0,-1,1651,1023,0,0
434,1,0,0,0,0,0,0,0,0,0,-1,1658,1023,0,0
441,1,0,0,0,0,0,0,0,0,0,-1,1665,1023,0,0
448,1,0,0,0,0,0,0,0,0,0,-1,1672,1023,0,0
455,1,0,0,0,0,0,0,0,0,0,-1,1679,1023,0,0
462,1,0,0,0,0,0,0,0,0,0,-1,1686,1023,0,0
469,1,0,0,0,0,0,0,0,0,0,-1,1693,1023,0,0
476,1,0,0,0,0,0,0,0,0,0,-1,1700,1023,0,0
483,1,0,0,0,0,0,0,0,0,0,-1,1707,1023,0,0
490,1,0,0,0,0,0,0,0,0,0,-1,1714,1023,0,0
497,1,0,0,0,0,0,0,0,0,0,-1,1721,1023,0,0
504,1,0,0,0,0,0,0,0,0,0,-1,1728,1023,0,0
511,1,0,0,0,0,0,0,0,0,0,-1,1735,1023,0,0
518,1,0,0,0,0,0,0,0,0,0,-1,1742,1023,0,0
525,1,0,0,0,0,0,0,0,0,0,-1,1749,1023,0,0
532,1,0,0,0,0,0,0,0,0,0,-1,1756,1023,0,0
539,1,0,0,0,0,0,0,0,0,0,-1,1763,1023,0,0
546,1,0,0,0,0,0,0,0,0,0,-1,1770,1023,0,0
553,1,0,0,0,0,0,0,0,0,0,-1,1777,1023,0,0
560,1,0,0,0,0,0,0,0,0,0,-1,1784,1023,0,0
567,1,0,0,0,0,0,0,0,0,0,-1,1791,1023,0,0
574,1,0,0,0,0,0,0,0,0,0,-1,1798,1023,0,0
581,1,0,0,0,0,0,0,0,0,0,-1,1805,1023,0,0
588,1,0,0,0,0,0,0,0,0,0,-1,1812,1023,0,0
595,1,0,0,0,0,0,0,0,0,0,-1,1819,1023,0,0
602,1,0,0,0,0,0,0,0,0,0,-1,1826,1023,0,0
609,1,0,0,0,0,0,0,0,0,0,-1,1833,1023,0,0
616,1,0,0,0,0,0,0,0,0,0,-1,1840,1023,0,0
623,1,0,0,0,0,0,0,0,0,0,-1,1847,1023,0,0
630,1,0,0,0,0,0,0,0,0,0,-1,1854,1023,0,0
637,1,0,0,0,0,0,0,0,0,0,-1,1861,1023,0,0
644,1,0,0,0,0,0,0,0,0,0,-1,1868,1023,0,0
651,1,46.7885,2.5528,-0.00133078,0.00409739,0.00266697,0.00518843,-0.00242182,1.18247,0.00448952,0.0370718,1875,1023,46.7884,-2.5528
658,1,46.7299,2.59692,-0.0010493,0.00269643,0.00263102,0.0040531,-0.00240597,1.09471,0.00376935,0.036703,1882,1023,46.7299,-2.59691
665,1,46.6882,2.36108,-0.000886696,0.00167687,0.00251336,0.00321642,-0.00242625,1.0212,0.00326843,0.0402721,1889,1023,46.6882,-2.36107
672,1,46.672,2.50342,-0.000735968,0.00110084,0.00242412,0.00277469,-0.00240982,0.966474,0.00299575,0.0402765,1896,1023,46.672,-2.50342
679,1,46.668,2.54657,-0.000636386,0.000815837,0.00240099,0.00259811,-0.00241866,0.932237,0.00289705,0.0388455,1903,1023,46.6679,-2.54657
686,1,46.6947,2.55518,-0.000625933,0.00058398,0.00239681,0.002451,-0.00249296,0.909016,0.00285443,0.0383243,1910,1023,46.6947,-2.55521
693,1,46.8335,2.68158,-0.000646902,0.000382278,0.00242995,0.00235153,-0.00261616,0.889741,0.00286945,0.0337102,1917,1023,46.8336,-2.68155
700,1,46.8086,2.77191,-0.000730944,0.000293647,0.0024101,0.0022453,-0.0026826,0.89012,0.00284886,0.0306675,1924,1023,46.8087,-2.77192
707,1,46.7162,2.68768,-0.00088684,0.000509329,0.00233122,0.00224474,-0.00262225,0.930874,0.00281278,0.0291344,1931,1023,46.7162,-2.68768
714,1,46.6689,2.60974,-0.00127467,0.000971329,0.00224433,0.00235794,-0.00266128,1.01737,0.00289962,0.0323189,1938,1023,46.6689,-2.60973
721,1,46.7855,2.57098,0,0,0,0,0,0,0,-1,1945,1023,46.7856,-2.57099
728,1,46.3059,5.87012,0,0,0,0,0,0,0,-1,1952,1023,46.3059,-5.87012
735,1,46.3126,5.75995,-0.00314132,0.00374971,0.00155766,0.00408545,-0.00347706,1.3585,0.00437092,0.0385281,1959,1023,46.3126,-5.75995
742,1,46.4755,5.73303,-0.00346358,0.00507002,0.00133877,0.00527512,-0.00366868,1.41878,0.00519139,0.047909,1966,1023,46.4755,-5.73305
749,1,46.4812,5.7724,-0.00337899,0.00635121,0.000884207,0.00643091,-0.00345868,1.48091,0.00579508,0.045664,1973,1023,46.4812,-5.77241
756,1,46.5005,5.8017,-0.00325512,0.00822617,0.000477736,0.00824602,-0.00327496,1.52928,0.00685493,0.0248107,1980,1023,46.5005,-5.80169
763,1,46.4257,5.76483,-0.00336558,0.00996311,-0.000320434,0.00997081,-0.00337328,-1.54677,0.00801195,0.0157042,1987,1023,46.4257,-5.76483
770,1,46.4054,5.74091,-0.00260218,0.0120327,-0.00123858,0.0121368,-0.00270626,-1.48696,0.00912799,0.0178137,1994,1023,46.4053,-5.74092
777,1,46.1378,5.65668,-0.00121869,0.0137033,-0.00228498,0.0140454,-0.00156074,-1.4222,0.00992482,0.0248115,2001,1023,46.1378,-5.65668
784,1,46.0259,5.54175,0.000499911,0.0144175,-0.00338486,0.0151971,-0.000279645,-1.34444,0.0102259,0.0456753,2008,1023,46.0259,-5.54176
791,1,45.96,5.45404,0,0,0,0,0,0,0,-1,2015,1023,45.96,-5.45405
798,1,44.1526,6.27478,0,0,0,0,0,0,0,-1,2022,1023,44.1527,-6.27475
805,1,43.9661,5.40808,0,0,0,0,0,0,0,-1,2029,1023,43.9662,-5.4081
812,1,43.2859,4.20001,0,0,0,0,0,0,0,-1,2036,1023,43.2859,-4.2
-700,-6,0,0,0,0,0,0,0,0,0,-1,524,1030,0,0
-693,-6,-32.7309,0.403198,0,0,0,0,0,0,0,-1,531,1030,-32.7309,-0.403204
-686,-6,-32.9201,1.19653,0,0,0,0,0,0,0,-1,538,1030,-32.9201,-1.19656
-679,-6,-32.6355,2.55164,0,0,0,0,0,0,0,-1,545,1030,-32.6355,-2.55165
-672,-6,-35.8969,1.37097,0,0,0,0,0,0,0,-1,552,1030,-35.8969,-1.371
-665,-6,-35.6363,1.67676,0,0,0,0,0,0,0,-1,559,1030,-35.6363,-1.67682
-658,-6,-35.3293,2.05774,-0.0274422,0.0341068,0.0275141,0.044613,-0.0379484,1.20604,0.0477186,0.0383077,566,1030,-35.3293,-2.05769
-651,-6,-35.1061,2.40173,-0.0193399,0.029774,0.0211963,0.0376566,-0.0272226,1.21476,0.0376192,0.0398781,573,1030,-35.1061,-2.40177
-644,-6,-34.8934,3.20813,0,0,0,0,0,0,0,-1,580,1030,-34.8935,-3.20809
-637,-6,-35.1063,3.05176,-0.00802043,0.0207214,0.009178,0.0234021,-0.0107012,1.28662,0.0201396,0.0387239,587,1030,-35.1064,-3.05179
-630,-6,-35.2112,2.98608,-0.00367267,0.0152617,0.00353337,0.0158995,-0.00431055,1.39219,0.0122911,0.0207398,594,1030,-35.2112,-2.98609
-623,-6,-35.1953,3.03333,-0.000885184,0.00972778,0.000718757,0.00977624,-0.000933641,1.50348,0.00684995,0.0156552,601,1030,-35.1952,-3.03327
-616,-6,-35.2389,3.0415,0.000908037,0.00609223,-0.00184195,0.00668003,0.000320237,-1.26189,0.00435054,0.0190236,608,1030,-35.2389,-3.0415
-609,-6,-35.2386,3.10791,0.00143283,0.00315754,-0.00369686,0.00609129,-0.00150092,-0.899983,0.00464276,0.0190903,615,1030,-35.2386,-3.10786
-602,-6,-35.1263,3.21155,0.00183744,0.000678471,-0.00523386,0.0065238,-0.00400789,-0.730264,0.00613803,0.0145361,622,1030,-35.1263,-3.21153
-595,-6,-34.991,3.23242,0.00221032,-0.000505262,-0.00618351,0.00718335,-0.0054783,-0.677322,0.00733227,0.0235045,629,1030,-34.991,-3.23239
-588,-6,-34.907,1.96069,0.00264163,-0.00117715,-0.00632945,0.00734342,-0.00587894,-0.638905,0.00764952,0.0278104,636,1030,-34.907,-1.96064
-581,-6,-34.811,0.924072,0.00292852,-0.00168202,-0.00602807,0.00707708,-0.00583057,-0.602767,0.00746381,0.0242313,643,1030,-34.811,-0.924066
-574,-6,-34.8581,0.91687,0.00279552,-0.00193039,-0.00554384,0.00645898,-0.00559385,-0.583942,0.00696468,0.033484,650,1030,-34.8581,-0.916821
-567,-6,-34.9231,0.816772,0.00224402,-0.00179738,-0.00467266,0.0053142,-0.00486756,-0.581316,0.00588032,0.0404191,657,1030,-34.9231,-0.816771
-560,-6,-34.8821,1.00586,0.00131093,-0.00144254,-0.00338487,0.00358833,-0.00371994,-0.59225,0.00421966,0.0410713,664,1030,-34.8821,-1.00582
-553,-6,-34.7352,1.06067,-0.000113616,-0.00103325,-0.00168496,0.00117314,-0.00232001,-0.652194,0.00205269,0.040987,671,1030,-34.7352,-1.06062
-546,-6,-34.7496,0.588867,-0.00201724,-0.000847253,0.000422442,-0.000710668,-0.00215382,1.25808,0.00126725,0.0434872,678,1030,-34.7496,-0.588892
-539,-6,-34.8036,0.73999,-0.00421878,-0.00113955,0.00236844,0.000145706,-0.00550404,1.0736,0.00371888,0.0428504,685,1030,-34.8036,-0.739975
-532,-6,-34.9138,0.946167,-0.00609302,-0.00140303,0.00269891,-0.000172677,-0.00732337,1.14307,0.00482572,0.0421149,692,1030,-34.9137,-0.946192
-525,-6,0,0,0,0,0,0,0,0,0,-1,699,1030,0,0
-518,-6,0,0,0,0,0,0,0,0,0,-1,706,1030,0,0
-511,-6,0,0,0,0,0,0,0,0,0,-1,713,1030,0,0
-504,-6,0,0,0,0,0,0,0,0,0,-1,720,1030,0,0
-497,-6,0,0,0,0,0,0,0,0,0,-1,727,1030,0,0
-490,-6,0,0,0,0,0,0,0,0,0,-1,734,1030,0,0
-483,-6,0,0,0,0,0,0,0,0,0,-1,741,1030,0,0
-476,-6,0,0,0,0,0,0,0,0,0,-1,748,1030,0,0
-469,-6,0,0,0,0,0,0,0,0,0,-1,755,1030,0,0
-462,-6,0,0,0,0,0,0,0,0,0,-1,762,1030,0,0
-455,-6,0,0,0,0,0,0,0,0,0,-1,769,1030,0,0
-448,-6,0,0,0,0,0,0,0,0,0,-1,776,1030,0,0
-441,-6,0,0,0,0,0,0,0,0,0,-1,783,1030,0,0
-434,-6,0,0,0,0,0,0,0,0,0,-1,790,1030,0,0
-427,-6,0,0,0,0,0,0,0,0,0,-1,797,1030,0,0
-420,-6,0,0,0,0,0,0,0,0,0,-1,804,1030,0,0
-413,-6,0,0,0,0,0,0,0,0,0,-1,811,1030,0,0
-406,-6,0,0,0,0,0,0,0,0,0,-1,818,1030,0,0
-399,-6,0,0,0,0,0,0,0,0,0,-1,825,1030,0,0
-392,-6,0,0,0,0,0,0,0,0,0,-1,832,1030,0,0
-385,-6,0,0,0,0,0,0,0,0,0,-1,839,1030,0,0
-378,-6,0,0,0,0,0,0,0,0,0,-1,846,1030,0,0
-371,-6,0,0,0,0,0,0,0,0,0,-1,853,1030,0,0
-364,-6,0,0,0,0,0,0,0,0,0,-1,860,1030,0,0
-357,-6,0,0,0,0,0,0,0,0,0,-1,867,1030,0,0
-350,-6,0,0,0,0,0,0,0,0,0,-1,874,1030,0,0
-343,-6,0,0,0,0,0,0,0,0,0,-1,881,1030,0,0
-336,-6,0,0,0,0,0,0,0,0,0,-1,888,1030,0,0
-329,-6,0,0,0,0,0,0,0,0,0,-1,895,1030,0,0
-322,-6,0,0,0,0,0,0,0,0,0,-1,902,1030,0,0
-315,-6,0,0,0,0,0,0,0,0,0,-1,909,1030,0,0
-308,-6,0,0,0,0,0,0,0,0,0,-1,916,1030,0,0
-301,-6,0,0,0,0,0,0,0,0,0,-1,923,1030,0,0
-294,-6,0,0,0,0,0,0,0,0,0,-1,930,1030,0,0
-287,-6,0,0,0,0,0,0,0,0,0,-1,937,1030,0,0
-280,-6,0,0,0,0,0,0,0,0,0,-1,944,1030,0,0
-273,-6,0,0,0,0,0,0,0,0,0,-1,951,1030,0,0
-266,-6,0,0,0,0,0,0,0,0,0,-1,958,1030,0,0
-259,-6,0,0,0,0,0,0,0,0,0,-1,965,1030,0,0
-252,-6,0,0,0,0,0,0,0,0,0,-1,972,1030,0,0
-245,-6,0,0,0,0,0,0,0,0,0,-1,979,1030,0,0
-238,-6,0,0,0,0,0,0,0,0,0,-1,986,1030,0,0
-231,-6,0,0,0,0,0,0,0,0,0,-1,993,1030,0,0
-224,-6,0,0,0,0,0,0,0,0,0,-1,1000,1030,0,0
-217,-6,0,0,0,0,0,0,0,0,0,-1,1007,1030,0,0
-210,-6,0,0,0,0,0,0,0,0,0,-1,1014,1030,0,0
-203,-6,0,0,0,0,0,0,0,0,0,-1,1021,1030,0,0
-196,-6,0,0,0,0,0,0,0,0,0,-1,1028,1030,0,0
-189,-6,0,0,0,0,0,0,0,0,0,-1,1035,1030,0,0
-182,-6,0,0,0,0,0,0,0,0,0,-1,1042,1030,0,0
-175,-6,0,0,0,0,0,0,0,0,0,-1,1049,1030,0,0
-168,-6,0,0,0,0,0,0,0,0,0,-1,1056,1030,0,0
-161,-6,0,0,0,0,0,0,0,0,0,-1,1063,1030,0,0
-154,-6,0,0,0,0,0,0,0,0,0,-1,1070,1030,0,0
-147,-6,0,0,0,0,0,0,0,0,0,-1,1077,1030,0,0
-140,-6,0,0,0,0,0,0,0,0,0,-1,1084,1030,0,0
-133,-6,0,0,0,0,0,0,0,0,0,-1,1091,1030,0,0
-126,-6,0,0,0,0,0,0,0,0,0,-1,1098,1030,0,0
-119,-6,0,0,0,0,0,0,0,0,0,-1,1105,1030,0,0
-112,-6,0,0,0,0,0,0,0,0,0,-1,1112,1030,0,0
-105,-6,0,0,0,0,0,0,0,0,0,-1,1119,1030,0,0
-98,-6,0,0,0,0,0,0,0,0,0,-1,1126,1030,0,0
-91,-6,0,0,0,0,0,0,0,0,0,-1,1133,1030,0,0
-84,-6,0,0,0,0,0,0,0,0,0,-1,1140,1030,0,0
-77,-6,0,0,0,0,0,0,0,0,0,-1,1147,1030,0,0
-70,-6,0,0,0,0,0,0,0,0,0,-1,1154,1030,0,0
-63,-6,0,0,0,0,0,0,0,0,0,-1,1161,1030,0,0
-56,-6,0,0,0,0,0,0,0,0,0,-1,1168,1030,0,0
-49,-6,0,0,0,0,0,0,0,0,0,-1,1175,1030,0,0
-42,-6,0,0,0,0,0,0,0,0,0,-1,1182,1030,0,0
-35,-6,0,0,0,0,0,0,0,0,0,-1,1189,1030,0,0
-28,-6,0,0,0,0,0,0,0,0,0,-1,1196,1030,0,0
-21,-6,0,0,0,0,0,0,0,0,0,-1,1203,1030,0,0
-14,-6,0,0,0,0,0,0,0,0,0,-1,1210,1030,0,0
-7,-6,0,0,0,0,0,0,0,0,0,-1,1217,1030,0,0
0,-6,0,0,0,0,0,0,0,0,0,-1,1224,1030,0,0
7,-6,0,0,0,0,0,0,0,0,0,-1,1231,1030,0,0
14,-6,0,0,0,0,0,0,0,0,0,-1,1238,1030,0,0
21,-6,0,0,0,0,0,0,0,0,0,-1,1245,1030,0,0
28,-6,0,0,0,0,0,0,0,0,0,-1,1252,1030,0,0
35,-6,0,0,0,0,0,0,0,0,0,-1,1259,1030,0,0
42,-6,0,0,0,0,0,0,0,0,0,-1,1266,1030,0,0
49,-6,0,0,0,0,0,0,0,0,0,-1,1273,1030,0,0
56,-6,0,0,0,0,0,0,0,0,0,-1,1280,1030,0,0
63,-6,0,0,0,0,0,0,0,0,0,-1,1287,1030,0,0
70,-6,0,0,0,0,0,0,0,0,0,-1,1294,1030,0,0
77,-6,0,0,0,0,0,0,0,0,0,-1,1301,1030,0,0
84,-6,0,0,0,0,0,0,0,0,0,-1,1308,1030,0,0
91,-6,0,0,0,0,0,0,0,0,0,-1,1315,1030,0,0
98,-6,0,0,0,0,0,0,0,0,0,-1,1322,1030,0,0
105,-6,0,0,0,0,0,0,0,0,0,-1,1329,1030,0,0
112,-6,0,0,0,0,0,0,0,0,0,-1,1336,1030,0,0
119,-6,0,0,0,0,0,0,0,0,0,-1,1343,1030,0,0
126,-6,0,0,0,0,0,0,0,0,0,-1,1350,1030,0,0
133,-6,0,0,0,0,0,0,0,0,0,-1,1357,1030,0,0
140,-6,0,0,0,0,0,0,0,0,0,-1,1364,1030,0,0
147,-6,0,0,0,0,0,0,0,0,0,-1,1371,1030,0,0
154,-6,0,0,0,0,0,0,0,0,0,-1,1378,1030,0,0
161,-6,0,0,0,0,0,0,0,0,0,-1,1385,1030,0,0
168,-6,0,0,0,0,0,0,0,0,0,-1,1392,1030,0,0
175,-6,0,0,0,0,0,0,0,0,0,-1,1399,1030,0,0
182,-6,0,0,0,0,0,0,0,0,0,-1,1406,1030,0,0
189,-6,0,0,0,0,0,0,0,0,0,-1,1413,1030,0,0
196,-6,0,0,0,0,0,0,0,0,0,-1,1420,1030,0,0
203,-6,0,0,0,0,0,0,0,0,0,-1,1427,1030,0,0
210,-6,0,0,0,0,0,0,0,0,0,-1,1434,1030,0,0
217,-6,0,0,0,0,0,0,0,0,0,-1,1441,1030,0,0
224,-6,0,0,0,0,0,0,0,0,0,-1,1448,1030,0,0
231,-6,0,0,0,0,0,0,0,0,0,-1,1455,1030,0,0
238,-6,0,0,0,0,0,0,0,0,0,-1,1462,1030,0,0
245,-6,0,0,0,0,0,0,0,0,0,-1,1469,1030,0,0
252,-6,0,0,0,0,0,0,0,0,0,-1,1476,1030,0,0
259,-6,0,0,0,0,0,0,0,0,0,-1,1483,1030,0,0
266,-6,0,0,0,0,0,0,0,0,0,-1,1490,1030,0,0
273,-6,0,0,0,0,0,0,0,0,0,-1,1497,1030,0,0
280,-6,0,0,0,0,0,0,0,0,0,-1,1504,1030,0,0
287,-6,0,0,0,0,0,0,0,0,0,-1,1511,1030,0,0
294,-6,0,0,0,0,0,0,0,0,0,-1,1518,1030,0,0
301,-6,0,0,0,0,0,0,0,0,0,-1,1525,1030,0,0
308,-6,0,0,0,0,0,0,0,0,0,-1,1532,1030,0,0
315,-6,0,0,0,0,0,0,0,0,0,-1,1539,1030,0,0
322,-6,0,0,0,0,0,0,0,0,0,-1,1546,1030,0,0
329,-6,0,0,0,0,0,0,0,0,0,-1,1553,1030,0,0
336,-6,0,0,0,0,0,0,0,0,0,-1,1560,1030,0,0
343,-6,0,0,0,0,0,0,0,0,0,-1,1567,1030,0,0
350,-6,0,0,0,0,0,0,0,0,0,-1,1574,1030,0,0
357,-6,0,0,0,0,0,0,0,0,0,-1,1581,1030,0,0
364,-6,0,0,0,0,0,0,0,0,0,-1,1588,1030,0,0
371,-6,0,0,0,0,0,0,0,0,0,-1,1595,1030,0,0
378,-6,0,0,0,0,0,0,0,0,0,-1,1602,1030,0,0
385,-6,0,0,0,0,0,0,0,0,0,-1,1609,1030,0,0
392,-6,0,0,0,0,0,0,0,0,0,-1,1616,1030,0,0
399,-6,0,0,0,0,0,0,0,0,0,-1,1623,1030,0,0
406,-6,0,0,0,0,0,0,0,0,0,-1,1630,1030,0,0
413,-6,0,0,0,0,0,0,0,0,0,-1,1637,1030,0,0
420,-6,0,0,0,0,0,0,0,0,0,-1,1644,1030,0,0
427,-6,0,0,0,0,0,0,0,0,0,-1,1651,1030,0,0
434,-6,0,0,0,0,0,0,0,0,0,-1,1658,1030,0,0
441,-6,0,0,0,0,0,0,0,0,0,-1,1665,1030,0,0
448,-6,0,0,0,0,0,0,0,0,0,-1,1672,1030,0,0
455,-6,0,0,0,0,0,0,0,0,0,-1,1679,1030,0,0
462,-6,0,0,0,0,0,0,0,0,0,-1,1686,1030,0,0
469,-6,0,0,0,0,0,0,0,0,0,-1,1693,1030,0,0
476,-6,0,0,0,0,0,0,0,0,0,-1,1700,1030,0,0
483,-6,0,0,0,0,0,0,0,0,0,-1,1707,1030,0,0
490,-6,0,0,0,0,0,0,0,0,0,-1,1714,1030,0,0
497,-6,0,0,0,0,0,0,0,0,0,-1,1721,1030,0,0
504,-6,0,0,0,0,0,0,0,0,0,-1,1728,1030,0,0
511,-6,0,0,0,0,0,0,0,0,0,-1,1735,1030,0,0
518,-6,0,0,0,0,0,0,0,0,0,-1,1742,1030,0,0
525,-6,0,0,0,0,0,0,0,0,0,-1,1749,1030,0,0
532,-6,0,0,0,0,0,0,0,0,0,-1,1756,1030,0,0
539,-6,0,0,0,0,0,0,0,0,0,-1,1763,1030,0,0
546,-6,0,0,0,0,0,0,0,0,0,-1,1770,1030,0,0
553,-6,0,0,0,0,0,0,0,0,0,-1,1777,1030,0,0
560,-6,0,0,0,0,0,0,0,0,0,-1,1784,1030,0,0
567,-6,0,0,0,0,0,0,0,0,0,-1,1791,1030,0,0
574,-6,0,0,0,0,0,0,0,0,0,-1,1798,1030,0,0
581,-6,0,0,0,0,0,0,0,0,0,-1,1805,1030,0,0
588,-6,0,0,0,0,0,0,0,0,0,-1,1812,1030,0,0
595,-6,0,0,0,0,0,0,0,0,0,-1,1819,1030,0,0
602,-6,0,0,0,0,0,0,0,0,0,-1,1826,1030,0,0
609,-6,0,0,0,0,0,0,0,0,0,-1,1833,1030,0,0
616,-6,0,0,0,0,0,0,0,0,0,-1,1840,1030,0,0
623,-6,0,0,0,0,0,0,0,0,0,-1,1847,1030,0,0
630,-6,0,0,0,0,0,0,0,0,0,-1,1854,1030,0,0
637,-6,0,0,0,0,0,0,0,0,0,-1,1861,1030,0,0
644,-6,0,0,0,0,0,0,0,0,0,-1,1868,1030,0,0
651,-6,46.7754,2.64294,-0.00246031,0.00275717,0.00307063,0.00417761,-0.00388074,1.13752,0.00465354,0.0359841,1875,1030,46.7754,-2.64289
658,-6,46.8402,2.5531,-0.00183813,0.00170745,0.002955,0.00338065,-0.00351133,1.05558,0.00397932,0.0375857,1882,1030,46.8402,-2.55313
665,-6,46.7853,2.3717,-0.00144364,0.000934959,0.00277287,0.00276282,-0.0032715,0.987985,0.00348804,0.04335,1889,1030,46.7852,-2.37176
672,-6,46.675,2.55151,-0.00111762,0.000524856,0.00263191,0.00246068,-0.00305344,0.936627,0.0031897,0.0428604,1896,1030,46.675,-2.5515
679,-6,46.6494,2.67188,-0.000881274,0.000334069,0.00254891,0.00234674,-0.00289395,0.902416,0.00303121,0.042653,1903,1030,46.6494,-2.67188
686,-6,46.6788,2.60681,-0.000821551,0.000141729,0.00250237,0.00220838,-0.00288821,0.880472,0.00295123,0.037168,1910,1030,46.6788,-2.60679
693,-6,46.7144,2.58997,-0.000818094,-4.9359e-05,0.00251783,0.00211327,-0.00298073,0.861142,0.0029552,0.0338074,1917,1030,46.7143,-2.59002
700,-6,46.7139,2.77087,-0.000866248,-0.000131734,0.00250291,0.00203072,-0.0030287,0.858244,0.00293994,0.0331128,1924,1030,46.7139,-2.77093
707,-6,46.6484,2.65088,-0.00100068,7.49977e-05,0.0024347,0.00203055,-0.00295624,0.894105,0.00289561,0.0315922,1931,1030,46.6484,-2.65092
714,-6,46.667,2.4281,-0.00137978,0.000519309,0.00238029,0.00213246,-0.00299293,0.975186,0.00297302,0.0422004,1938,1030,46.667,-2.42805
721,-6,46.8188,2.18591,0,0,0,0,0,0,0,-1,1945,1030,46.8189,-2.18589
728,-6,46.3027,5.78455,0,0,0,0,0,0,0,-1,1952,1030,46.3027,-5.78458
735,-6,46.3534,5.70789,-0.00319885,0.00324312,0.00181059,0.00371713,-0.00367286,1.31475,0.00426664,0.0357366,1959,1030,46.3534,-5.70789
742,-6,46.4717,5.71179,-0.00341156,0.0046072,0.00170076,0.00495302,-0.00375737,1.3702,0.00504472,0.0363757,1966,1030,46.4716,-5.71182
749,-6,46.4355,5.83569,-0.00322692,0.0058941,0.00137099,0.00609572,-0.00342854,1.42478,0.00557024,0.0299031,1973,1030,46.4356,-5.83575
756,-6,46.4763,5.70605,-0.00306286,0.00796635,0.00121968,0.00809962,-0.00319613,1.46196,0.00672331,0.020803,1980,1030,46.4764,-5.70602
763,-6,46.3807,5.61804,-0.00318536,0.0098341,0.000671174,0.00986861,-0.00321986,1.51943,0.00787493,0.0200575,1987,1030,46.3807,-5.61803
770,-6,46.3275,5.58313,-0.00246851,0.0121935,0.000173295,0.0121956,-0.00247056,1.55898,0.0090668,0.0182378,1994,1030,46.3276,-5.58311
777,-6,46.2283,5.57397,-0.00126379,0.0142985,-0.00028999,0.0143039,-0.00126919,-1.55217,0.0099859,0.0199258,2001,1030,46.2283,-5.574
784,-6,46.1519,5.49084,1.65574e-05,0.0155445,-0.000715085,0.0155774,-1.63042e-05,-1.52487,0.0103904,0.0446283,2008,1030,46.1519,-5.4908
791,-6,46.0989,5.39478,0,0,0,0,0,0,0,-1,2015,1030,46.0988,-5.39482
798,-6,44.1399,5.26196,0,0,0,0,0,0,0,-1,2022,1030,44.1399,-5.26196
805,-6,43.8652,5.31262,0,0,0,0,0,0,0,-1,2029,1030,43.8652,-5.31265
812,-6,45.4619,4.9043,0,0,0,0,0,0,0,-1,2036,1030,45.4619,-4.90434
-700,-13,0,0,0,0,0,0,0,0,0,-1,524,1037,0,0
-693,-13,-33.0056,-0.25354,-0.0752048,0.0209426,0.0692689,0.0571854,-0.111448,1.08875,0.0990261,0.049994,531,1037,-33.0056,0.253525
-686,-13,-33.1876,0.900635,-0.062436,0.0309351,0.0603544,0.0605528,-0.0920537,1.11459,0.0887309,0.0455512,538,1037,-33.1876,-0.900638
-679,-13,-33.2586,2.44983,-0.0504913,0.0351158,0.0514612,0.059248,-0.0746235,1.1323,0.0774605,0.0470299,545,1037,-33.2586,-2.44981
-672,-13,-33.354,3.9541,0,0,0,0,0,0,0,-1,552,1037,-33.354,-3.95414
-665,-13,-35.0842,2.53259,0,0,0,0,0,0,0,-1,559,1037,-35.0842,-2.5326
-658,-13,-35.4144,1.53027,-0.0218621,0.0318043,0.0280829,0.0438127,-0.0338705,1.16672,0.0449727,0.0466514,566,1037,-35.4144,-1.53032
-651,-13,-34.9385,2.26489,-0.0151705,0.02782,0.0215967,0.0367955,-0.0241459,1.17692,0.0354363,0.0438058,573,1037,-34.9385,-2.26487
-644,-13,-34.8694,2.64001,-0.00976558,0.0245785,0.0158132,0.0307503,-0.0159374,1.19868,0.0274037,0.0308679,580,1037,-34.8694,-2.64004
-637,-13,-34.9531,2.82373,-0.00565887,0.0194301,0.00939518,0.0225584,-0.00878708,1.24938,0.0186704,0.0246503,587,1037,-34.9531,-2.82374
-630,-13,-35.0811,2.85352,-0.00213338,0.0142028,0.00390128,0.0150866,-0.00301724,1.348,0.0111998,0.015787,594,1037,-35.0811,-2.85346
-623,-13,-35.0903,2.96509,0.000121225,0.00907574,0.00111378,0.00921219,-1.52304e-05,1.44889,0.00614655,0.0134045,601,1037,-35.0903,-2.96504
-616,-13,-35.0652,3.08496,0.00152899,0.00547894,-0.00127416,0.00585428,0.00115364,-1.28432,0.0035808,0.0128764,608,1037,-35.0652,-3.08494
-609,-13,-35.0483,3.18274,0.00182968,0.00259493,-0.0029956,0.00523224,-0.000807631,-0.848919,0.00378619,0.0177906,615,1037,-35.0483,-3.18278
-602,-13,-35.0169,3.28137,0.00202849,0.000188499,-0.00441493,0.00561827,-0.00340128,-0.682677,0.00525961,0.0130419,622,1037,-35.0169,-3.28134
-595,-13,-34.895,3.27991,0.00226557,-0.000912434,-0.00528185,0.00619226,-0.00483913,-0.639284,0.00638493,0.0327957,629,1037,-34.895,-3.27995
-588,-13,-34.6149,2.43811,0,0,0,0,0,0,0,-1,636,1037,-34.6149,-2.43808
-581,-13,-34.7971,0.891113,0.00288766,-0.00204981,-0.00500506,0.00599971,-0.00516187,-0.556282,0.00645019,0.0205225,643,1037,-34.797,-0.891065
-574,-13,-34.8736,1.00806,0.00279095,-0.00225728,-0.00457249,0.00548974,-0.00495608,-0.533201,0.00603352,0.0325886,650,1037,-34.8736,-1.00811
-567,-13,-35.0238,0.932617,0.00228623,-0.00210908,-0.00384694,0.004519,-0.00434185,-0.525883,0.00511615,0.0399025,657,1037,-35.0238,-0.932584
-560,-13,-35.0414,0.930054,0.00141178,-0.00173946,-0.00280439,0.00305286,-0.00338055,-0.529455,0.00371594,0.0422155,664,1037,-35.0414,-0.930114
-553,-13,-34.9681,1.07166,8.39751e-05,-0.00131508,-0.00143723,0.000982872,-0.00221397,-0.558915,0.00189077,0.0415853,671,1037,-34.9681,-1.07165
-546,-13,-34.9434,0.942017,-0.00169143,-0.00110358,0.000265651,-0.00100132,-0.00179369,1.20334,0.00103793,0.0415087,678,1037,-34.9433,-0.941972
-539,-13,-34.8952,0.936768,-0.00380248,-0.00141147,0.00185714,-0.000398312,-0.00481564,1.07138,0.00308623,0.0408921,685,1037,-34.8952,-0.936795
-532,-13,-34.9213,1.01587,-0.00554779,-0.00170034,0.00210888,-0.000769572,-0.00647855,1.15516,0.00408674,0.0402257,692,1037,-34.9213,-1.01582
-525,-13,0,0,0,0,0,0,0,0,0,-1,699,1037,0,0
-518,-13,0,0,0,0,0,0,0,0,0,-1,706,1037,0,0
-511,-13,0,0,0,0,0,0,0,0,0,-1,713,1037,0,0
-504,-13,0,0,0,0,0,0,0,0,0,-1,720,1037,0,0
-497,-13,0,0,0,0,0,0,0,0,0,-1,727,1037,0,0
-490,-13,0,0,0,0,0,0,0,0,0,-1,734,1037,0,0
-483,-13,0,0,0,0,0,0,0,0,0,-1,741,1037,0,0
-476,-13,0,0,0,0,0,0,0,0,0,-1,748,1037,0,0
-469,-13,0,0,0,0,0,0,0,0,0,-1,755,1037,0,0
-462,-13,0,0,0,0,0,0,0,0,0,-1,762,1037,0,0
-455,-13,0,0,0,0,0,0,0,0,0,-1,769,1037,0,0
-448,-13,0,0,0,0,0,0,0,0,0,-1,776,1037,0,0
-441,-13,0,0,0,0,0,0,0,0,0,-1,783,1037,0,0
-434,-13,0,0,0,0,0,0,0,0,0,-1,790,1037,0,0
-427,-13,0,0,0,0,0,0,0,0,0,-1,797,1037,0,0
-420,-13,0,0,0,0,0,0,0,0,0,-1,804,1037,0,0
-413,-13,0,0,0,0,0,0,0,0,0,-1,811,1037,0,0
-406,-13,0,0,0,0,0,0,0,0,0,-1,818,1037,0,0
-399,-13,0,0,0,0,0,0,0,0,0,-1,825,1037,0,0
-392,-13,0,0,0,0,0,0,0,0,0,-1,832,1037,0,0
-385,-13,0,0,0,0,0,0,0,0,0,-1,839,1037,0,0
-378,-13,0,0,0,0,0,0,0,0,0,-1,846,1037,0,0
-371,-13,0,0,0,0,0,0,0,0,0,-1,853,1037,0,0
-364,-13,0,0,0,0,0,0,0,0,0,-1,860,1037,0,0
-357,-13,0,0,0,0,0,0,0,0,0,-1,867,1037,0,0
-350,-13,0,0,0,0,0,0,0,0,0,-1,874,1037,0,0
-343,-13,0,0,0,0,0,0,0,0,0,-1,881,1037,0,0
-336,-13,0,0,0,0,0,0,0,0,0,-1,888,1037,0,0
-329,-13,0,0,0,0,0,0,0,0,0,-1,895,1037,0,0
-322,-13,0,0,0,0,0,0,0,0,0,-1,902,1037,0,0
-315,-13,0,0,0,0,0,0,0,0,0,-1,909,1037,0,0
-308,-13,0,0,0,0,0,0,0,0,0,-1,916,1037,0,0
-301,-13,0,0,0,0,0,0,0,0,0,-1,923,1037,0,0
-294,-13,0,0,0,0,0,0,0,0,0,-1,930,1037,0,0
-287,-13,0,0,0,0,0,0,0,0,0,-1,937,1037,0,0
-280,-13,0,0,0,0,0,0,0,0,0,-1,944,1037,0,0
-273,-13,0,0,0,0,0,0,0,0,0,-1,951,1037,0,0
-266,-13,0,0,0,0,0,0,0,0,0,-1,958,1037,0,0
-259,-13,0,0,0,0,0,0,0,0,0,-1,965,1037,0,0
-252,-13,0,0,0,0,0,0,0,0,0,-1,972,1037,0,0
-245,-13,0,0,0,0,0,0,0,0,0,-1,979,1037,0,0
-238,-13,0,0,0,0,0,0,0,0,0,-1,986,1037,0,0
-231,-13,0,0,0,0,0,0,0,0,0,-1,993,1037,0,0
-224,-13,0,0,0,0,0,0,0,0,0,-1,1000,1037,0,0
-217,-13,0,0,0,0,0,0,0,0,0,-1,1007,1037,0,0
-210,-13,0,0,0,0,0,0,0,0,0,-1,1014,1037,0,0
-203,-13,0,0,0,0,0,0,0,0,0,-1,1021,1037,0,0
-196,-13,0,0,0,0,0,0,0,0,0,-1,1028,1037,0,0
-189,-13,0,0,0,0,0,0,0,0,0,-1,1035,1037,0,0
-182,-13,0,0,0,0,0,0,0,0,0,-1,1042,1037,0,0
-175,-13,0,0,0,0,0,0,0,0,0,-1,1049,1037,0,0
-168,-13,0,0,0,0,0,0,0,0,0,-1,1056,1037,0,0
-161,-13,0,0,0,0,0,0,0,0,0,-1,1063,1037,0,0
-154,-13,0,0,0,0,0,0,0,0,0,-1,1070,1037,0,0
-147,-13,0,0,0,0,0,0,0,0,0,-1,1077,1037,0,0
-140,-13,0,0,0,0,0,0,0,0,0,-1,1084,1037,0,0
-133,-13,0,0,0,0,0,0,0,0,0,-1,1091,1037,0,0
-126,-13,0,0,0,0,0,0,0,0,0,-1,1098,1037,0,0
-119,-13,0,0,0,0,0,0,0,0,0,-1,1105,1037,0,0
-112,-13,0,0,0,0,0,0,0,0,0,-1,1112,1037,0,0
-105,-13,0,0,0,0,0,0,0,0,0,-1,1119,1037,0,0
-98,-13,0,0,0,0,0,0,0,0,0,-1,1126,1037,0,0
-91,-13,0,0,0,0,0,0,0,0,0,-1,1133,1037,0,0
-84,-13,0,0,0,0,0,0,0,0,0,-1,1140,1037,0,0
-77,-13,0,0,0,0,0,0,0,0,0,-1,1147,1037,0,0
-70,-13,0,0,0,0,0,0,0,0,0,-1,1154,1037,0,0
-63,-13,0,0,0,0,0,0,0,0,0,-1,1161,1037,0,0
-56,-13,0,0,0,0,0,0,0,0,0,-1,1168,1037,0,0
-49,-13,0,0,0,0,0,0,0,0,0,-1,1175,1037,0,0
-42,-13,0,0,0,0,0,0,0,0,0,-1,1182,1037,0,0
-35,-13,0,0,0,0,0,0,0,0,0,-1,1189,1037,0,0
-28,-13,0,0,0,0,0,0,0,0,0,-1,1196,1037,0,0
-21,-13,0,0,0,0,0,0,0,0,0,-1,1203,1037,0,0
-14,-13,0,0,0,0,0,0,0,0,0,-1,1210,1037,0,0
-7,-13,0,0,0,0,0,0,0,0,0,-1,1217,1037,0,0
0,-13,0,0,0,0,0,0,0,0,0,-1,1224,1037,0,0
7,-13,0,0,0,0,0,0,0,0,0,-1,1231,1037,0,0
14,-13,0,0,0,0,0,0,0,0,0,-1,1238,1037,0,0
21,-13,0,0,0,0,0,0,0,0,0,-1,1245,1037,0,0
28,-13,0,0,0,0,0,0,0,0,0,-1,1252,1037,0,0
35,-13,0,0,0,0,0,0,0,0,0,-1,1259,1037,0,0
42,-13,0,0,0,0,0,0,0,0,0,-1,1266,1037,0,0
49,-13,0,0,0,0,0,0,0,0,0,-1,1273,1037,0,0
56,-13,0,0,0,0,0,0,0,0,0,-1,1280,1037,0,0
63,-13,0,0,0,0,0,0,0,0,0,-1,1287,1037,0,0
70,-13,0,0,0,0,0,0,0,0,0,-1,1294,1037,0,0
77,-13,0,0,0,0,0,0,0,0,0,-1,1301,1037,0,0
84,-13,0,0,0,0,0,0,0,0,0,-1,1308,1037,0,0
91,-13,0,0,0,0,0,0,0,0,0,-1,1315,1037,0,0
98,-13,0,0,0,0,0,0,0,0,0,-1,1322,1037,0,0
105,-13,0,0,0,0,0,0,0,0,0,-1,1329,1037,0,0
112,-13,0,0,0,0,0,0,0,0,0,-1,1336,1037,0,0
119,-13,0,0,0,0,0,0,0,0,0,-1,1343,1037,0,0
126,-13,0,0,0,0,0,0,0,0,0,-1,1350,1037,0,0
133,-13,0,0,0,0,0,0,0,0,0,-1,1357,1037,0,0
140,-13,0,0,0,0,0,0,0,0,0,-1,1364,1037,0,0
147,-13,0,0,0,0,0,0,0,0,0,-1,1371,1037,0,0
154,-13,0,0,0,0,0,0,0,0,0,-1,1378,1037,0,0
161,-13,0,0,0,0,0,0,0,0,0,-1,1385,1037,0,0
168,-13,0,0,0,0,0,0,0,0,0,-1,1392,1037,0,0
175,-13,0,0,0,0,0,0,0,0,0,-1,1399,1037,0,0
182,-13,0,0,0,0,0,0,0,0,0,-1,1406,1037,0,0
189,-13,0,0,0,0,0,0,0,0,0,-1,1413,1037,0,0
196,-13,0,0,0,0,0,0,0,0,0,-1,1420,1037,0,0
203,-13,0,0,0,0,0,0,0,0,0,-1,1427,1037,0,0
210,-13,0,0,0,0,0,0,0,0,0,-1,1434,1037,0,0
217,-13,0,0,0,0,0,0,0,0,0,-1,1441,1037,0,0
224,-13,0,0,0,0,0,0,0,0,0,-1,1448,1037,0,0
231,-13,0,0,0,0,0,0,0,0,0,-1,1455,1037,0,0
238,-13,0,0,0,0,0,0,0,0,0,-1,1462,1037,0,0
245,-13,0,0,0,0,0,0,0,0,0,-1,1469,1037,0,0
252,-13,0,0,0,0,0,0,0,0,0,-1,1476,1037,0,0
259,-13,0,0,0,0,0,0,0,0,0,-1,1483,1037,0,0
266,-13,0,0,0,0,0,0,0,0,0,-1,1490,1037,0,0
273,-13,0,0,0,0,0,0,0,0,0,-1,1497,1037,0,0
280,-13,0,0,0,0,0,0,0,0,0,-1,1504,1037,0,0
287,-13,0,0,0,0,0,0,0,0,0,-1,1511,1037,0,0
294,-13,0,0,0,0,0,0,0,0,0,-1,1518,1037,0,0
301,-13,0,0,0,0,0,0,0,0,0,-1,1525,1037,0,0
308,-13,0,0,0,0,0,0,0,0,0,-1,1532,1037,0,0
315,-13,0,0,0,0,0,0,0,0,0,-1,1539,1037,0,0
322,-13,0,0,0,0,0,0,0,0,0,-1,1546,1037,0,0
329,-13,0,0,0,0,0,0,0,0,0,-1,1553,1037,0,0
336,-13,0,0,0,0,0,0,0,0,0,-1,1560,1037,0,0
343,-13,0,0,0,0,0,0,0,0,0,-1,1567,1037,0,0
350,-13,0,0,0,0,0,0,0,0,0,-1,1574,1037,0,0
357,-13,0,0,0,0,0,0,0,0,0,-1,1581,1037,0,0
364,-13,0,0,0,0,0,0,0,0,0,-1,1588,1037,0,0
371,-13,0,0,0,0,0,0,0,0,0,-1,1595,1037,0,0
378,-13,0,0,0,0,0,0,0,0,0,-1,1602,1037,0,0
385,-13,0,0,0,0,0,0,0,0,0,-1,1609,1037,0,0
392,-13,0,0,0,0,0,0,0,0,0,-1,1616,1037,0,0
399,-13,0,0,0,0,0,0,0,0,0,-1,1623,1037,0,0
406,-13,0,0,0,0,0,0,0,0,0,-1,1630,1037,0,0
413,-13,0,0,0,0,0,0,0,0,0,-1,1637,1037,0,0
420,-13,0,0,0,0,0,0,0,0,0,-1,1644,1037,0,0
427,-13,0,0,0,0,0,0,0,0,0,-1,1651,1037,0,0
434,-13,0,0,0,0,0,0,0,0,0,-1,1658,1037,0,0
441,-13,0,0,0,0,0,0,0,0,0,-1,1665,1037,0,0
448,-13,0,0,0,0,0,0,0,0,0,-1,1672,1037,0,0
455,-13,0,0,0,0,0,0,0,0,0,-1,1679,1037,0,0
462,-13,0,0,0,0,0,0,0,0,0,-1,1686,1037,0,0
469,-13,0,0,0,0,0,0,0,0,0,-1,1693,1037,0,0
476,-13,0,0,0,0,0,0,0,0,0,-1,1700,1037,0,0
483,-13,0,0,0,0,0,0,0,0,0,-1,1707,1037,0,0
490,-13,0,0,0,0,0,0,0,0,0,-1,1714,1037,0,0
497,-13,0,0,0,0,0,0,0,0,0,-1,1721,1037,0,0
504,-13,0,0,0,0,0,0,0,0,0,-1,1728,1037,0,0
511,-13,0,0,0,0,0,0,0,0,0,-1,1735,1037,0,0
518,-13,0,0,0,0,0,0,0,0,0,-1,1742,1037,0,0
525,-13,0,0,0,0,0,0,0,0,0,-1,1749,1037,0,0
532,-13,0,0,0,0,0,0,0,0,0,-1,1756,1037,0,0
539,-13,0,0,0,0,0,0,0,0,0,-1,1763,1037,0,0
546,-13,0,0,0,0,0,0,0,0,0,-1,1770,1037,0,0
553,-13,0,0,0,0,0,0,0,0,0,-1,1777,1037,0,0
560,-13,0,0,0,0,0,0,0,0,0,-1,1784,1037,0,0
567,-13,0,0,0,0,0,0,0,0,0,-1,1791,1037,0,0
574,-13,0,0,0,0,0,0,0,0,0,-1,1798,1037,0,0
581,-13,0,0,0,0,0,0,0,0,0,-1,1805,1037,0,0
588,-13,0,0,0,0,0,0,0,0,0,-1,1812,1037,0,0
595,-13,0,0,0,0,0,0,0,0,0,-1,1819,1037,0,0
602,-13,0,0,0,0,0,0,0,0,0,-1,1826,1037,0,0
609,-13,0,0,0,0,0,0,0,0,0,-1,1833,1037,0,0
616,-13,0,0,0,0,0,0,0,0,0,-1,1840,1037,0,0
623,-13,0,0,0,0,0,0,0,0,0,-1,1847,1037,0,0
630,-13,0,0,0,0,0,0,0,0,0,-1,1854,1037,0,0
637,-13,0,0,0,0,0,0,0,0,0,-1,1861,1037,0,0
644,-13,0,0,0,0,0,0,0,0,0,-1,1868,1037,0,0
651,-13,46.7903,2.56091,-0.00288796,0.00121511,0.00298547,0.00278598,-0.00445883,1.08643,0.0042198,0.0406518,1875,1037,46.7902,-2.56094
658,-13,46.7393,2.53857,-0.002142,0.000619985,0.00294043,0.00248757,-0.00400959,1.00494,0.00378529,0.0434558,1882,1037,46.7393,-2.53862
665,-13,46.7469,2.45618,-0.00166712,0.00019774,0.00282132,0.00223672,-0.0037061,0.944995,0.00346587,0.0439637,1889,1037,46.7469,-2.45613
672,-13,46.6582,2.58215,-0.0012717,2.20908e-05,0.00273177,0.00218251,-0.00343212,0.901659,0.00326826,0.0380752,1896,1037,46.6581,-2.58213
679,-13,46.6787,2.76074,-0.000964272,-8.99067e-06,0.00267238,0.0022281,-0.00320137,0.87383,0.00315145,0.039201,1903,1037,46.6787,-2.76069
686,-13,46.7007,2.55029,-0.0008885,-0.000121546,0.00263525,0.00215799,-0.00316803,0.85765,0.00309335,0.0379901,1910,1037,46.7007,-2.5503
693,-13,46.73,2.51172,-0.000881919,-0.00028498,0.00265782,0.00209107,-0.00325797,0.841313,0.00311267,0.0371333,1917,1037,46.73,-2.51173
700,-13,46.6897,2.59595,-0.000910586,-0.000355273,0.00266408,0.00204558,-0.00331144,0.837322,0.00312153,0.037815,1924,1037,46.6897,-2.59598
707,-13,46.6774,2.64673,-0.00104634,-0.000159953,0.00261815,0.00205225,-0.00325854,0.869242,0.00309244,0.0337216,1931,1037,46.6773,-2.64675
714,-13,46.6677,2.77124,-0.00142795,0.000247468,0.00258853,0.00213046,-0.00331095,0.941892,0.00316615,0.0364345,1938,1037,46.6677,-2.77119
721,-13,46.5857,2.99707,0,0,0,0,0,0,0,-1,1945,1037,46.5858,-2.99708
728,-13,46.4486,5.89795,0,0,0,0,0,0,0,-1,1952,1037,46.4486,-5.89799
735,-13,46.4006,5.87036,-0.00320706,0.00279772,0.00207651,0.00344585,-0.00385518,1.26826,0.00421746,0.0268377,1959,1037,46.4007,-5.8704
742,-13,46.3748,5.81494,-0.00327921,0.00414269,0.0020684,0.0046802,-0.00381672,1.31655,0.00491414,0.0163965,1966,1037,46.3748,-5.81492
749,-13,46.4181,5.75391,-0.00291469,0.005375,0.00183212,0.00576186,-0.00330156,1.3627,0.00529665,0.0222964,1973,1037,46.4181,-5.75394
756,-13,46.411,5.67908,-0.00272053,0.00753217,0.00183537,0.00785082,-0.00303918,1.39889,0.00648869,0.0183084,1980,1037,46.4111,-5.67902
763,-13,46.3635,5.56958,-0.00301619,0.0093221,0.00127294,0.00945206,-0.00314615,1.46905,0.00757121,0.0263854,1987,1037,46.3636,-5.5696
770,-13,46.2886,5.52881,-0.002501,0.0117345,0.000880587,0.0117887,-0.00255526,1.50925,0.00883496,0.0230986,1994,1037,46.2886,-5.52877
777,-13,46.168,5.43445,-0.00179676,0.0139666,0.000499018,0.0139824,-0.00181254,1.53918,0.00998079,0.0166162,2001,1037,46.168,-5.4345
784,-13,46.1714,5.4021,-0.00147811,0.0154018,6.0884e-05,0.0154021,-0.00147833,1.56719,0.0107946,0.0361904,2008,1037,46.1715,-5.40205
791,-13,46.3418,5.57617,-0.00219399,0.0153326,-0.000600061,0.0153532,-0.00221451,-1.53661,0.0110478,0.0497523,2015,1037,46.3418,-5.57618
798,-13,46.3088,5.86487,0,0,0,0,0,0,0,-1,2022,1037,46.3088,-5.86481
805,-13,46.0503,5.71375,0,0,0,0,0,0,0,-1,2029,1037,46.0504,-5.7138
812,-13,46.0098,5.63611,0,0,0,0,0,0,0,-1,2036,1037,46.0097,-5.63616
-700,-20,-33.2284,-2.24219,0,0,0,0,0,0,0,-1,524,1044,-33.2284,2.24214
-693,-20,-33.3397,-0.866821,-0.0597012,0.0120657,0.0676896,0.0527949,-0.10043,1.02912,0.0898784,0.0465896,531,1044,-33.3397,0.866778
-686,-20,-33.6993,0.755493,-0.0489381,0.024142,0.0598603,0.0577335,-0.0825296,1.05942,0.0814017,0.0437628,538,1044,-33.6993,-0.755518
-679,-20,-33.7732,2.21851,-0.0391665,0.0299673,0.0514377,0.0573738,-0.0665731,1.08125,0.0716264,0.0447739,545,1044,-33.7732,-2.21854
-672,-20,-34.8353,1.40161,0,0,0,0,0,0,0,-1,552,1044,-34.8353,-1.40163
-665,-20,-34.8467,1.98083,0,0,0,0,0,0,0,-1,559,1044,-34.8467,-1.9808
-658,-20,-34.745,2.20032,0,0,0,0,0,0,0,-1,566,1044,-34.745,-2.20034
-651,-20,-34.7487,2.30469,-0.0107494,0.02571,0.0215639,0.0357172,-0.0207567,1.1363,0.0329844,0.04534,573,1044,-34.7486,-2.30475
-644,-20,-34.7293,2.45374,-0.00640708,0.0228698,0.0157811,0.0297564,-0.0132937,1.15932,0.0254536,0.0293483,580,1044,-34.7293,-2.45371
-637,-20,-34.8127,2.59692,-0.00318082,0.0180344,0.00938895,0.0215928,-0.00673914,1.20853,0.0170903,0.0199961,587,1044,-34.8128,-2.59693
-630,-20,-34.904,2.79395,-0.000555969,0.0130666,0.00412839,0.01422,-0.00170943,1.29835,0.0100982,0.0164986,594,1044,-34.904,-2.79389
-623,-20,-34.934,2.95447,0.00106004,0.00838071,0.00140234,0.00864015,0.0008006,1.38786,0.00551264,0.0144282,601,1044,-34.934,-2.95452
-616,-20,-34.9159,3.07849,0.00203145,0.00490442,-0.000794784,0.00510964,0.00182624,-1.31812,0.00298977,0.0138229,608,1044,-34.9159,-3.07848
-609,-20,-34.9191,3.20264,0.00212331,0.00215919,-0.00238393,0.00452524,-0.000242748,-0.78916,0.00310091,0.0153435,615,1044,-34.9191,-3.20258
-602,-20,-34.9094,3.3208,0.00210437,-4.72966e-05,-0.003662,0.00484529,-0.00278822,-0.642527,0.00446023,0.0129833,622,1044,-34.9094,-3.32074
-595,-20,-34.8967,3.3866,0.00222198,-0.00102678,-0.00445142,0.00533614,-0.00414094,-0.610449,0.00548608,0.0288315,629,1044,-34.8967,-3.38661
-588,-20,-34.773,0.77356,0,0,0,0,0,0,0,-1,636,1044,-34.773,-0.773521
-581,-20,-34.8126,0.885376,0.00284628,-0.00207155,-0.00415727,0.00521739,-0.00444266,-0.518335,0.00558321,0.0281599,643,1044,-34.8126,-0.885368
-574,-20,-34.8617,1.16064,0.00285159,-0.00222158,-0.00382859,0.00490765,-0.00427764,-0.492829,0.00530729,0.0366392,650,1044,-34.8617,-1.16066
-567,-20,-35.0679,1.15686,0.00248055,-0.00205889,-0.00329839,0.0042147,-0.00379304,-0.484041,0.00462541,0.0435655,657,1044,-35.0679,-1.15683
-560,-20,-35.0739,1.10266,0.00178943,-0.00167555,-0.0025461,0.00313658,-0.00302269,-0.486657,0.00355626,0.0431692,664,1044,-35.0739,-1.10269
-553,-20,-34.8368,1.34656,0.00072988,-0.00121817,-0.00155019,0.00158665,-0.00207495,-0.504905,0.00212028,0.0406814,671,1044,-34.8368,-1.34661
-546,-20,-34.8,1.12549,-0.000689605,-0.000922085,-0.000276751,-0.000505674,-0.00110602,-0.586577,0.000639338,0.0402933,678,1044,-34.8,-1.12548
-539,-20,-34.8936,1.00537,-0.00239642,-0.0011222,0.000939748,-0.000623957,-0.00289467,1.08329,0.00175908,0.0409371,685,1044,-34.8936,-1.00537
-532,-20,-34.9697,1.02625,-0.00373593,-0.00118114,0.0011909,-0.000712114,-0.00420495,1.19561,0.00259866,0.0406224,692,1044,-34.9697,-1.02626
-525,-20,0,0,0,0,0,0,0,0,0,-1,699,1044,0,0
-518,-20,0,0,0,0,0,0,0,0,0,-1,706,1044,0,0
-511,-20,0,0,0,0,0,0,0,0,0,-1,713,1044,0,0
-504,-20,0,0,0,0,0,0,0,0,0,-1,720,1044,0,0
-497,-20,0,0,0,0,0,0,0,0,0,-1,727,1044,0,0
-490,-20,0,0,0,0,0,0,0,0,0,-1,734,1044,0,0
-483,-20,0,0,0,0,0,0,0,0,0,-1,741,1044,0,0
-476,-20,0,0,0,0,0,0,0,0,0,-1,748,1044,0,0
-469,-20,0,0,0,0,0,0,0,0,0,-1,755,1044,0,0
-462,-20,0,0,0,0,0,0,0,0,0,-1,762,1044,0,0
-455,-20,0,0,0,0,0,0,0,0,0,-1,769,1044,0,0
-448,-20,0,0,0,0,0,0,0,0,0,-1,776,1044,0,0
-441,-20,0,0,0,0,0,0,0,0,0,-1,783,1044,0,0
-434,-20,0,0,0,0,0,0,0,0,0,-1,790,1044,0,0
-427,-20,0,0,0,0,0,0,0,0,0,-1,797,1044,0,0
-420,-20,0,0,0,0,0,0,0,0,0,-1,804,1044,0,0
-413,-20,0,0,0,0,0,0,0,0,0,-1,811,1044,0,0
-406,-20,0,0,0,0,0,0,0,0,0,-1,818,1044,0,0
-399,-20,0,0,0,0,0,0,0,0,0,-1,825,1044,0,0
-392,-20,0,0,0,0,0,0,0,0,0,-1,832,1044,0,0
-385,-20,0,0,0,0,0,0,0,0,0,-1,839,1044,0,0
-378,-20,0,0,0,0,0,0,0,0,0,-1,846,1044,0,0
-371,-20,0,0,0,0,0,0,0,0,0,-1,853,1044,0,0
-364,-20,0,0,0,0,0,0,0,0,0,-1,860,1044,0,0
-357,-20,0,0,0,0,0,0,0,0,0,-1,867,1044,0,0
-350,-20,0,0,0,0,0,0,0,0,0,-1,874,1044,0,0
-343,-20,0,0,0,0,0,0,0,0,0,-1,881,1044,0,0
-336,-20,0,0,0,0,0,0,0,0,0,-1,888,1044,0,0
-329,-20,0,0,0,0,0,0,0,0,0,-1,895,1044,0,0
-322,-20,0,0,0,0,0,0,0,0,0,-1,902,1044,0,0
-315,-20,0,0,0,0,0,0,0,0,0,-1,909,1044,0,0
-308,-20,0,0,0,0,0,0,0,0,0,-1,916,1044,0,0
-301,-20,0,0,0,0,0,0,0,0,0,-1,923,1044,0,0
-294,-20,0,0,0,0,0,0,0,0,0,-1,930,1044,0,0
-287,-20,0,0,0,0,0,0,0,0,0,-1,937,1044,0,0
-280,-20,0,0,0,0,0,0,0,0,0,-1,944,1044,0,0
-273,-20,0,0,0,0,0,0,0,0,0,-1,951,1044,0,0
-266,-20,0,0,0,0,0,0,0,0,0,-1,958,1044,0,0
-259,-20,0,0,0,0,0,0,0,0,0,-1,965,1044,0,0
-252,-20,0,0,0,0,0,0,0,0,0,-1,972,1044,0,0
-245,-20,0,0,0,0,0,0,0,0,0,-1,979,1044,0,0
-238,-20,0,0,0,0,0,0,0,0,0,-1,986,1044,0,0
-231,-20,0,0,0,0,0,0,0,0,0,-1,993,1044,0,0
-224,-20,0,0,0,0,0,0,0,0,0,-1,1000,1044,0,0
-217,-20,0,0,0,0,0,0,0,0,0,-1,1007,1044,0,0
-210,-20,0,0,0,0,0,0,0,0,0,-1,1014,1044,0,0
-203,-20,0,0,0,0,0,0,0,0,0,-1,1021,1044,0,0
-196,-20,0,0,0,0,0,0,0,0,0,-1,1028,1044,0,0
-189,-20,0,0,0,0,0,0,0,0,0,-1,1035,1044,0,0
-182,-20,0,0,0,0,0,0,0,0,0,-1,1042,1044,0,0
-175,-20,0,0,0,0,0,0,0,0,0,-1,1049,1044,0,0
-168,-20,0,0,0,0,0,0,0,0,0,-1,1056,1044,0,0
-161,-20,0,0,0,0,0,0,0,0,0,-1,1063,1044,0,0
-154,-20,0,0,0,0,0,0,0,0,0,-1,1070,1044,0,0
-147,-20,0,0,0,0,0,0,0,0,0,-1,1077,1044,0,0
-140,-20,0,0,0,0,0,0,0,0,0,-1,1084,1044,0,0
-133,-20,0,0,0,0,0,0,0,0,0,-1,1091,1044,0,0
-126,-20,0,0,0,0,0,0,0,0,0,-1,1098,1044,0,0
-119,-20,0,0,0,0,0,0,0,0,0,-1,1105,1044,0,0
-112,-20,0,0,0,0,0,0,0,0,0,-1,1112,1044,0,0
-105,-20,0,0,0,0,0,0,0,0,0,-1,1119,1044,0,0
-98,-20,0,0,0,0,0,0,0,0,0,-1,1126,1044,0,0
-91,-20,0,0,0,0,0,0,0,0,0,-1,1133,1044,0,0
-84,-20,0,0,0,0,0,0,0,0,0,-1,1140,1044,0,0
-77,-20,0,0,0,0,0,0,0,0,0,-1,1147,1044,0,0
-70,-20,0,0,0,0,0,0,0,0,0,-1,1154,1044,0,0
-63,-20,0,0,0,0,0,0,0,0,0,-1,1161,1044,0,0
-56,-20,0,0,0,0,0,0,0,0,0,-1,1168,1044,0,0
-49,-20,0,0,0,0,0,0,0,0,0,-1,1175,1044,0,0
-42,-20,0,0,0,0,0,0,0,0,0,-1,1182,1044,0,0
-35,-20,0,0,0,0,0,0,0,0,0,-1,1189,1044,0,0
-28,-20,0,0,0,0,0,0,0,0,0,-1,1196,1044,0,0
-21,-20,0,0,0,0,0,0,0,0,0,-1,1203,1044,0,0
-14,-20,0,0,0,0,0,0,0,0,0,-1,1210,1044,0,0
-7,-20,0,0,0,0,0,0,0,0,0,-1,1217,1044,0,0
0,-20,0,0,0,0,0,0,0,0,0,-1,1224,1044,0,0
7,-20,0,0,0,0,0,0,0,0,0,-1,1231,1044,0,0
14,-20,0,0,0,0,0,0,0,0,0,-1,1238,1044,0,0
21,-20,0,0,0,0,0,0,0,0,0,-1,1245,1044,0,0
28,-20,0,0,0,0,0,0,0,0,0,-1,1252,1044,0,0
35,-20,0,0,0,0,0,0,0,0,0,-1,1259,1044,0,0
42,-20,0,0,0,0,0,0,0,0,0,-1,1266,1044,0,0
49,-20,0,0,0,0,0,0,0,0,0,-1,1273,1044,0,0
56,-20,0,0,0,0,0,0,0,0,0,-1,1280,1044,0,0
63,-20,0,0,0,0,0,0,0,0,0,-1,1287,1044,0,0
70,-20,0,0,0,0,0,0,0,0,0,-1,1294,1044,0,0
77,-20,0,0,0,0,0,0,0,0,0,-1,1301,1044,0,0
84,-20,0,0,0,0,0,0,0,0,0,-1,1308,1044,0,0
91,-20,0,0,0,0,0,0,0,0,0,-1,1315,1044,0,0
98,-20,0,0,0,0,0,0,0,0,0,-1,1322,1044,0,0
105,-20,0,0,0,0,0,0,0,0,0,-1,1329,1044,0,0
112,-20,0,0,0,0,0,0,0,0,0,-1,1336,1044,0,0
119,-20,0,0,0,0,0,0,0,0,0,-1,1343,1044,0,0
126,-20,0,0,0,0,0,0,0,0,0,-1,1350,1044,0,0
133,-20,0,0,0,0,0,0,0,0,0,-1,1357,1044,0,0
140,-20,0,0,0,0,0,0,0,0,0,-1,1364,1044,0,0
147,-20,0,0,0,0,0,0,0,0,0,-1,1371,1044,0,0
154,-20,0,0,0,0,0,0,0,0,0,-1,1378,1044,0,0
161,-20,0,0,0,0,0,0,0,0,0,-1,1385,1044,0,0
168,-20,0,0,0,0,0,0,0,0,0,-1,1392,1044,0,0
175,-20,0,0,0,0,0,0,0,0,0,-1,1399,1044,0,0
182,-20,0,0,0,0,0,0,0,0,0,-1,1406,1044,0,0
189,-20,0,0,0,0,0,0,0,0,0,-1,1413,1044,0,0
196,-20,0,0,0,0,0,0,0,0,0,-1,1420,1044,0,0
203,-20,0,0,0,0,0,0,0,0,0,-1,1427,1044,0,0
210,-20,0,0,0,0,0,0,0,0,0,-1,1434,1044,0,0
217,-20,0,0,0,0,0,0,0,0,0,-1,1441,1044,0,0
224,-20,0,0,0,0,0,0,0,0,0,-1,1448,1044,0,0
231,-20,0,0,0,0,0,0,0,0,0,-1,1455,1044,0,0
238,-20,0,0,0,0,0,0,0,0,0,-1,1462,1044,0,0
245,-20,0,0,0,0,0,0,0,0,0,-1,1469,1044,0,0
252,-20,0,0,0,0,0,0,0,0,0,-1,1476,1044,0,0
259,-20,0,0,0,0,0,0,0,0,0,-1,1483,1044,0,0
266,-20,0,0,0,0,0,0,0,0,0,-1,1490,1044,0,0
273,-20,0,0,0,0,0,0,0,0,0,-1,1497,1044,0,0
280,-20,0,0,0,0,0,0,0,0,0,-1,1504,1044,0,0
287,-20,0,0,0,0,0,0,0,0,0,-1,1511,1044,0,0
294,-20,0,0,0,0,0,0,0,0,0,-1,1518,1044,0,0
301,-20,0,0,0,0,0,0,0,0,0,-1,1525,1044,0,0
308,-20,0,0,0,0,0,0,0,0,0,-1,1532,1044,0,0
315,-20,0,0,0,0,0,0,0,0,0,-1,1539,1044,0,0
322,-20,0,0,0,0,0,0,0,0,0,-1,1546,1044,0,0
329,-20,0,0,0,0,0,0,0,0,0,-1,1553,1044,0,0
336,-20,0,0,0,0,0,0,0,0,0,-1,1560,1044,0,0
343,-20,0,0,0,0,0,0,0,0,0,-1,1567,1044,0,0
350,-20,0,0,0,0,0,0,0,0,0,-1,1574,1044,0,0
357,-20,0,0,0,0,0,0,0,0,0,-1,1581,1044,0,0
364,-20,0,0,0,0,0,0,0,0,0,-1,1588,1044,0,0
371,-20,0,0,0,0,0,0,0,0,0,-1,1595,1044,0,0
378,-20,0,0,0,0,0,0,0,0,0,-1,1602,1044,0,0
385,-20,0,0,0,0,0,0,0,0,0,-1,1609,1044,0,0
392,-20,0,0,0,0,0,0,0,0,0,-1,1616,1044,0,0
399,-20,0,0,0,0,0,0,0,0,0,-1,1623,1044,0,0
406,-20,0,0,0,0,0,0,0,0,0,-1,1630,1044,0,0
413,-20,0,0,0,0,0,0,0,0,0,-1,1637,1044,0,0
420,-20,0,0,0,0,0,0,0,0,0,-1,1644,1044,0,0
427,-20,0,0,0,0,0,0,0,0,0,-1,1651,1044,0,0
434,-20,0,0,0,0,0,0,0,0,0,-1,1658,1044,0,0
441,-20,0,0,0,0,0,0,0,0,0,-1,1665,1044,0,0
448,-20,0,0,0,0,0,0,0,0,0,-1,1672,1044,0,0
455,-20,0,0,0,0,0,0,0,0,0,-1,1679,1044,0,0
462,-20,0,0,0,0,0,0,0,0,0,-1,1686,1044,0,0
469,-20,0,0,0,0,0,0,0,0,0,-1,1693,1044,0,0
476,-20,0,0,0,0,0,0,0,0,0,-1,1700,1044,0,0
483,-20,0,0,0,0,0,0,0,0,0,-1,1707,1044,0,0
490,-20,0,0,0,0,0,0,0,0,0,-1,1714,1044,0,0
497,-20,0,0,0,0,0,0,0,0,0,-1,1721,1044,0,0
504,-20,0,0,0,0,0,0,0,0,0,-1,1728,1044,0,0
511,-20,0,0,0,0,0,0,0,0,0,-1,1735,1044,0,0
518,-20,0,0,0,0,0,0,0,0,0,-1,1742,1044,0,0
525,-20,0,0,0,0,0,0,0,0,0,-1,1749,1044,0,0
532,-20,0,0,0,0,0,0,0,0,0,-1,1756,1044,0,0
539,-20,0,0,0,0,0,0,0,0,0,-1,1763,1044,0,0
546,-20,0,0,0,0,0,0,0,0,0,-1,1770,1044,0,0
553,-20,0,0,0,0,0,0,0,0,0,-1,1777,1044,0,0
560,-20,0,0,0,0,0,0,0,0,0,-1,1784,1044,0,0
567,-20,0,0,0,0,0,0,0,0,0,-1,1791,1044,0,0
574,-20,0,0,0,0,0,0,0,0,0,-1,1798,1044,0,0
581,-20,0,0,0,0,0,0,0,0,0,-1,1805,1044,0,0
588,-20,0,0,0,0,0,0,0,0,0,-1,1812,1044,0,0
595,-20,0,0,0,0,0,0,0,0,0,-1,1819,1044,0,0
602,-20,0,0,0,0,0,0,0,0,0,-1,1826,1044,0,0
609,-20,0,0,0,0,0,0,0,0,0,-1,1833,1044,0,0
616,-20,0,0,0,0,0,0,0,0,0,-1,1840,1044,0,0
623,-20,0,0,0,0,0,0,0,0,0,-1,1847,1044,0,0
630,-20,0,0,0,0,0,0,0,0,0,-1,1854,1044,0,0
637,-20,0,0,0,0,0,0,0,0,0,-1,1861,1044,0,0
644,-20,0,0,0,0,0,0,0,0,0,-1,1868,1044,0,0
651,-20,46.8073,2.47388,-0.00308933,0.000395842,0.00227266,0.0015171,-0.00421059,1.11247,0.0034266,0.0422706,1875,1044,46.8073,-2.47384
658,-20,46.595,2.51221,-0.00233496,2.02497e-05,0.00244736,0.00155858,-0.00387329,1.00963,0.00322961,0.0436822,1882,1044,46.5949,-2.51224
665,-20,46.7435,2.62463,-0.00182283,-0.000196936,0.0024928,0.00161212,-0.00363189,0.94302,0.00310158,0.0401368,1889,1044,46.7435,-2.62465
672,-20,46.7227,2.68433,-0.00137441,-0.000234241,0.0025316,0.00179067,-0.00339933,0.896145,0.00304405,0.0268686,1896,1044,46.7226,-2.68435
679,-20,46.7039,2.73694,-0.000996843,-0.000159006,0.00255644,0.00201261,-0.00316846,0.86661,0.00301601,0.0296424,1903,1044,46.7039,-2.73698
686,-20,46.7808,2.61963,-0.000894517,-0.000220798,0.00258125,0.00204548,-0.00316079,0.850283,0.00302874,0.036712,1910,1044,46.7807,-2.61964
693,-20,46.8169,2.48889,-0.000886583,-0.000369462,0.00264303,0.00202762,-0.00328367,0.834157,0.00309493,0.0406004,1917,1044,46.8169,-2.48891
700,-20,46.7516,2.57153,-0.000899413,-0.000442287,0.00269129,0.00203013,-0.00337183,0.82776,0.00315073,0.0385899,1924,1044,46.7516,-2.57159
707,-20,46.666,2.69788,-0.00103131,-0.000275495,0.00269408,0.00206706,-0.00337386,0.85508,0.00317137,0.0322042,1931,1044,46.6661,-2.69789
714,-20,46.6675,2.82788,-0.00142029,9.22174e-05,0.00271188,0.00215131,-0.00347939,0.921377,0.00328089,0.0314568,1938,1044,46.6675,-2.82791
721,-20,46.6039,2.91052,0,0,0,0,0,0,0,-1,1945,1044,46.6039,-2.91055
728,-20,46.6788,5.87427,0,0,0,0,0,0,0,-1,1952,1044,46.6789,-5.87432
735,-20,46.4362,5.84595,-0.00311893,0.00237511,0.00228689,0.00320244,-0.00394627,1.22367,0.00413475,0.0287051,1959,1044,46.4362,-5.84594
742,-20,46.2754,5.76184,-0.0030536,0.00367318,0.00235898,0.00441797,-0.00379839,1.26497,0.00474821,0.0209785,1966,1044,46.2754,-5.76182
749,-20,46.3326,5.72266,-0.00250008,0.0048534,0.00220927,0.0054661,-0.00311278,1.30026,0.00501476,0.0235021,1973,1044,46.3327,-5.72271
756,-20,46.3248,5.6488,-0.00213894,0.0069513,0.00231355,0.00750624,-0.00269389,1.33538,0.00610361,0.0180957,1980,1044,46.3248,-5.64882
763,-20,46.2585,5.55457,-0.0022569,0.00853052,0.00163036,0.00877154,-0.00249792,1.42403,0.00683423,0.0270511,1987,1044,46.2585,-5.55452
770,-20,46.1837,5.5343,-0.00146804,0.010796,0.00118032,0.0109086,-0.0015806,1.47572,0.00785248,0.0236924,1994,1044,46.1837,-5.53434
777,-20,46.0665,5.37463,-0.000449352,0.0128658,0.000638441,0.0128964,-0.000479894,1.52299,0.00876193,0.0155181,2001,1044,46.0665,-5.37465
784,-20,46.072,5.32288,6.62092e-05,0.0141225,-7.47429e-05,0.0141229,6.58119e-05,-1.56548,0.00939339,0.0209686,2008,1044,46.0719,-5.32282
791,-20,46.4417,5.22083,-0.000665326,0.013923,-0.00111403,0.0140075,-0.000749909,-1.49502,0.00959809,0.0380494,2015,1044,46.4416,-5.22089
798,-20,47.1968,4.83679,-0.00352921,0.0114534,-0.00265689,0.0119106,-0.00398641,-1.40038,0.00955068,0.0428515,2022,1044,47.1967,-4.83681
805,-20,47.8418,4.70728,0,0,0,0,0,0,0,-1,2029,1044,47.8417,-4.7073
812,-20,45.9087,3.01929,0,0,0,0,0,0,0,-1,2036,1044,45.9087,-3.01931
-700,-27,-33.3651,-1.8905,-0.059773,-0.0146649,0.0676161,0.0340596,-0.108497,0.946376,0.0859641,0.046481,524,1051,-33.3652,1.89052
-693,-27,-33.9116,-0.762207,-0.0487278,0.00564251,0.0626498,0.0467511,-0.0898364,0.9901,0.0801559,0.0459402,531,1051,-33.9116,0.762267
-686,-27,-33.9831,0.515991,-0.038849,0.0188813,0.0563006,0.0532851,-0.0732528,1.02227,0.0733592,0.0423513,538,1051,-33.9831,-0.515992
-679,-27,-34.7287,0.284546,0,0,0,0,0,0,0,-1,545,1051,-34.7287,-0.284587
-672,-27,-34.6397,0.840088,-0.0228454,0.0288124,0.0411405,0.0515599,-0.045593,1.06571,0.0561265,0.0469876,552,1051,-34.6397,-0.840079
-665,-27,-34.6522,1.40833,-0.0164871,0.028989,0.033703,0.046907,-0.0344051,1.08216,0.0471302,0.0448797,559,1051,-34.6522,-1.40831
-658,-27,-34.7514,1.92151,-0.0112469,0.0271902,0.0267556,0.0409142,-0.0249709,1.09685,0.0384082,0.0460753,566,1051,-34.7514,-1.92152
-651,-27,-34.5374,2.30127,-0.00711406,0.0240221,0.0204222,0.0341334,-0.0172254,1.11106,0.0301829,0.0392784,573,1051,-34.5373,-2.30122
-644,-27,-34.5726,2.36804,-0.00370808,0.0214141,0.0148971,0.028339,-0.010633,1.13566,0.0232617,0.0185214,580,1051,-34.5726,-2.36802
-637,-27,-34.645,2.4906,-0.00127652,0.0168212,0.00882514,0.0204121,-0.00486748,1.18435,0.0154877,0.0146052,587,1051,-34.645,-2.49065
-630,-27,-34.7408,2.77832,0.00053599,0.0120579,0.00403224,0.0133288,-0.000734951,1.26546,0.00914072,0.0192756,594,1051,-34.7408,-2.77836
-623,-27,-34.7526,2.9552,0.0016464,0.00776951,0.00151832,0.00812532,0.00129058,1.3406,0.00504205,0.0167205,601,1051,-34.7526,-2.95521
-616,-27,-34.7348,3.09753,0.00231551,0.00440167,-0.00041664,0.0044818,0.00223538,-1.38079,0.00258757,0.0139497,608,1051,-34.7348,-3.09755
-609,-27,-34.7435,3.26318,0.00230836,0.00180145,-0.00181501,0.00388752,0.000222284,-0.716025,0.00252086,0.0141168,615,1051,-34.7435,-3.26316
-602,-27,-34.6901,3.44019,0.00216618,-0.000181316,-0.00291293,0.00413295,-0.00214808,-0.593877,0.00368622,0.013599,622,1051,-34.69,-3.44016
-595,-27,-34.7293,3.54321,0.00223592,-0.00102414,-0.00361835,0.00457444,-0.00336267,-0.573767,0.00460026,0.0159657,629,1051,-34.7293,-3.54326
-588,-27,-34.7811,0.848389,0,0,0,0,0,0,0,-1,636,1051,-34.7811,-0.848413
-581,-27,-34.791,0.945435,0.00295831,-0.00193542,-0.00333817,0.00465035,-0.00362746,-0.469133,0.00479134,0.0248242,643,1051,-34.791,-0.945442
-574,-27,-34.796,1.15283,0.00310119,-0.00202631,-0.00313417,0.00458662,-0.00351174,-0.442588,0.0046893,0.0361417,650,1051,-34.796,-1.15278
-567,-27,-34.832,1.30994,0.00293451,-0.00185728,-0.00282582,0.00424341,-0.00316619,-0.433773,0.00429298,0.0457111,657,1051,-34.832,-1.30997
-560,-27,-34.834,0.860229,0.00250834,-0.00149531,-0.00240903,0.00363872,-0.00262569,-0.438728,0.00363249,0.0456138,664,1051,-34.834,-0.86022
-553,-27,-34.7466,1.58923,0.0018147,-0.00107757,-0.00186094,0.00272534,-0.00198821,-0.455088,0.00273244,0.0444183,671,1051,-34.7466,-1.58926
-546,-27,-34.6123,0.825806,0.000859065,-0.000819373,-0.00115265,0.00144564,-0.00140595,-0.470738,0.00164642,0.0442653,678,1051,-34.6123,-0.825828
-539,-27,-34.7581,1.0293,-0.000333716,-0.00107896,-0.000530403,-5.81283e-05,-0.00135454,-0.47919,0.00088429,0.0451478,685,1051,-34.758,-1.0293
-532,-27,-34.7255,1.47351,0,0,0,0,0,0,0,-1,692,1051,-34.7255,-1.47354
-525,-27,0,0,0,0,0,0,0,0,0,-1,699,1051,0,0
-518,-27,0,0,0,0,0,0,0,0,0,-1,706,1051,0,0
-511,-27,0,0,0,0,0,0,0,0,0,-1,713,1051,0,0
-504,-27,0,0,0,0,0,0,0,0,0,-1,720,1051,0,0
-497,-27,0,0,0,0,0,0,0,0,0,-1,727,1051,0,0
-490,-27,0,0,0,0,0,0,0,0,0,-1,734,1051,0,0
-483,-27,0,0,0,0,0,0,0,0,0,-1,741,1051,0,0
-476,-27,0,0,0,0,0,0,0,0,0,-1,748,1051,0,0
-469,-27,0,0,0,0,0,0,0,0,0,-1,755,1051,0,0
-462,-27,0,0,0,0,0,0,0,0,0,-1,762,1051,0,0
-455,-27,0,0,0,0,0,0,0,0,0,-1,769,1051,0,0
-448,-27,0,0,0,0,0,0,0,0,0,-1,776,1051,0,0
-441,-27,0,0,0,0,0,0,0,0,0,-1,783,1051,0,0
-434,-27,0,0,0,0,0,0,0,0,0,-1,790,1051,0,0
-427,-27,0,0,0,0,0,0,0,0,0,-1,797,1051,0,0
-420,-27,0,0,0,0,0,0,0,0,0,-1,804,1051,0,0
-413,-27,0,0,0,0,0,0,0,0,0,-1,811,1051,0,0
-406,-27,0,0,0,0,0,0,0,0,0,-1,818,1051,0,0
-399,-27,0,0,0,0,0,0,0,0,0,-1,825,1051,0,0
-392,-27,0,0,0,0,0,0,0,0,0,-1,832,1051,0,0
-385,-27,0,0,0,0,0,0,0,0,0,-1,839,1051,0,0
-378,-27,0,0,0,0,0,0,0,0,0,-1,846,1051,0,0
-371,-27,0,0,0,0,0,0,0,0,0,-1,853,1051,0,0
-364,-27,0,0,0,0,0,0,0,0,0,-1,860,1051,0,0
-357,-27,0,0,0,0,0,0,0,0,0,-1,867,1051,0,0
-350,-27,0,0,0,0,0,0,0,0,0,-1,874,1051,0,0
-343,-27,0,0,0,0,0,0,0,0,0,-1,881,1051,0,0
-336,-27,0,0,0,0,0,0,0,0,0,-1,888,1051,0,0
-329,-27,0,0,0,0,0,0,0,0,0,-1,895,1051,0,0
-322,-27,0,0,0,0,0,0,0,0,0,-1,902,1051,0,0
-315,-27,0,0,0,0,0,0,0,0,0,-1,909,1051,0,0
-308,-27,0,0,0,0,0,0,0,0,0,-1,916,1051,0,0
-301,-27,0,0,0,0,0,0,0,0,0,-1,923,1051,0,0
-294,-27,0,0,0,0,0,0,0,0,0,-1,930,1051,0,0
-287,-27,0,0,0,0,0,0,0,0,0,-1,937,1051,0,0
-280,-27,0,0,0,0,0,0,0,0,0,-1,944,1051,0,0
-273,-27,0,0,0,0,0,0,0,0,0,-1,951,1051,0,0
-266,-27,0,0,0,0,0,0,0,0,0,-1,958,1051,0,0
-259,-27,0,0,0,0,0,0,0,0,0,-1,965,1051,0,0
-252,-27,0,0,0,0,0,0,0,0,0,-1,972,1051,0,0
-245,-27,0,0,0,0,0,0,0,0,0,-1,979,1051,0,0
-238,-27,0,0,0,0,0,0,0,0,0,-1,986,1051,0,0
-231,-27,0,0,0,0,0,0,0,0,0,-1,993,1051,0,0
-224,-27,0,0,0,0,0,0,0,0,0,-1,1000,1051,0,0
-217,-27,0,0,0,0,0,0,0,0,0,-1,1007,1051,0,0
-210,-27,0,0,0,0,0,0,0,0,0,-1,1014,1051,0,0
-203,-27,0,0,0,0,0,0,0,0,0,-1,1021,1051,0,0
-196,-27,0,0,0,0,0,0,0,0,0,-1,1028,1051,0,0
-189,-27,0,0,0,0,0,0,0,0,0,-1,1035,1051,0,0
-182,-27,0,0,0,0,0,0,0,0,0,-1,1042,1051,0,0
-175,-27,0,0,0,0,0,0,0,0,0,-1,1049,1051,0,0
-168,-27,0,0,0,0,0,0,0,0,0,-1,1056,1051,0,0
-161,-27,0,0,0,0,0,0,0,0,0,-1,1063,1051,0,0
-154,-27,0,0,0,0,0,0,0,0,0,-1,1070,1051,0,0
-147,-27,0,0,0,0,0,0,0,0,0,-1,1077,1051,0,0
-140,-27,0,0,0,0,0,0,0,0,0,-1,1084,1051,0,0
-133,-27,0,0,0,0,0,0,0,0,0,-1,1091,1051,0,0
-126,-27,0,0,0,0,0,0,0,0,0,-1,1098,1051,0,0
-119,-27,0,0,0,0,0,0,0,0,0,-1,1105,1051,0,0
-112,-27,0,0,0,0,0,0,0,0,0,-1,1112,1051,0,0
-105,-27,0,0,0,0,0,0,0,0,0,-1,1119,1051,0,0
-98,-27,0,0,0,0,0,0,0,0,0,-1,1126,1051,0,0
-91,-27,0,0,0,0,0,0,0,0,0,-1,1133,1051,0,0
-84,-27,0,0,0,0,0,0,0,0,0,-1,1140,1051,0,0
-77,-27,0,0,0,0,0,0,0,0,0,-1,1147,1051,0,0
-70,-27,0,0,0,0,0,0,0,0,0,-1,1154,1051,0,0
-63,-27,0,0,0,0,0,0,0,0,0,-1,1161,1051,0,0
-56,-27,0,0,0,0,0,0,0,0,0,-1,1168,1051,0,0
-49,-27,0,0,0,0,0,0,0,0,0,-1,1175,1051,0,0
-42,-27,0,0,0,0,0,0,0,0,0,-1,1182,1051,0,0
-35,-27,0,0,0,0,0,0,0,0,0,-1,1189,1051,0,0
-28,-27,0,0,0,0,0,0,0,0,0,-1,1196,1051,0,0
-21,-27,0,0,0,0,0,0,0,0,0,-1,1203,1051,0,0
-14,-27,0,0,0,0,0,0,0,0,0,-1,1210,1051,0,0
-7,-27,0,0,0,0,0,0,0,0,0,-1,1217,1051,0,0
0,-27,0,0,0,0,0,0,0,0,0,-1,1224,1051,0,0
7,-27,0,0,0,0,0,0,0,0,0,-1,1231,1051,0,0
14,-27,0,0,0,0,0,0,0,0,0,-1,1238,1051,0,0
21,-27,0,0,0,0,0,0,0,0,0,-1,1245,1051,0,0
28,-27,0,0,0,0,0,0,0,0,0,-1,1252,1051,0,0
35,-27,0,0,0,0,0,0,0,0,0,-1,1259,1051,0,0
42,-27,0,0,0,0,0,0,0,0,0,-1,1266,1051,0,0
49,-27,0,0,0,0,0,0,0,0,0,-1,1273,1051,0,0
56,-27,0,0,0,0,0,0,0,0,0,-1,1280,1051,0,0
63,-27,0,0,0,0,0,0,0,0,0,-1,1287,1051,0,0
70,-27,0,0,0,0,0,0,0,0,0,-1,1294,1051,0,0
77,-27,0,0,0,0,0,0,0,0,0,-1,1301,1051,0,0
84,-27,0,0,0,0,0,0,0,0,0,-1,1308,1051,0,0
91,-27,0,0,0,0,0,0,0,0,0,-1,1315,1051,0,0
98,-27,0,0,0,0,0,0,0,0,0,-1,1322,1051,0,0
105,-27,0,0,0,0,0,0,0,0,0,-1,1329,1051,0,0
112,-27,0,0,0,0,0,0,0,0,0,-1,1336,1051,0,0
119,-27,0,0,0,0,0,0,0,0,0,-1,1343,1051,0,0
126,-27,0,0,0,0,0,0,0,0,0,-1,1350,1051,0,0
133,-27,0,0,0,0,0,0,0,0,0,-1,1357,1051,0,0
140,-27,0,0,0,0,0,0,0,0,0,-1,1364,1051,0,0
147,-27,0,0,0,0,0,0,0,0,0,-1,1371,1051,0,0
154,-27,0,0,0,0,0,0,0,0,0,-1,1378,1051,0,0
161,-27,0,0,0,0,0,0,0,0,0,-1,1385,1051,0,0
168,-27,0,0,0,0,0,0,0,0,0,-1,1392,1051,0,0
175,-27,0,0,0,0,0,0,0,0,0,-1,1399,1051,0,0
182,-27,0,0,0,0,0,0,0,0,0,-1,1406,1051,0,0
189,-27,0,0,0,0,0,0,0,0,0,-1,1413,1051,0,0
196,-27,0,0,0,0,0,0,0,0,0,-1,1420,1051,0,0
203,-27,0,0,0,0,0,0,0,0,0,-1,1427,1051,0,0
210,-27,0,0,0,0,0,0,0,0,0,-1,1434,1051,0,0
217,-27,0,0,0,0,0,0,0,0,0,-1,1441,1051,0,0
224,-27,0,0,0,0,0,0,0,0,0,-1,1448,1051,0,0
231,-27,0,0,0,0,0,0,0,0,0,-1,1455,1051,0,0
238,-27,0,0,0,0,0,0,0,0,0,-1,1462,1051,0,0
245,-27,0,0,0,0,0,0,0,0,0,-1,1469,1051,0,0
252,-27,0,0,0,0,0,0,0,0,0,-1,1476,1051,0,0
259,-27,0,0,0,0,0,0,0,0,0,-1,1483,1051,0,0
266,-27,0,0,0,0,0,0,0,0,0,-1,1490,1051,0,0
273,-27,0,0,0,0,0,0,0,0,0,-1,1497,1051,0,0
280,-27,0,0,0,0,0,0,0,0,0,-1,1504,1051,0,0
287,-27,0,0,0,0,0,0,0,0,0,-1,1511,1051,0,0
294,-27,0,0,0,0,0,0,0,0,0,-1,1518,1051,0,0
301,-27,0,0,0,0,0,0,0,0,0,-1,1525,1051,0,0
308,-27,0,0,0,0,0,0,0,0,0,-1,1532,1051,0,0
315,-27,0,0,0,0,0,0,0,0,0,-1,1539,1051,0,0
322,-27,0,0,0,0,0,0,0,0,0,-1,1546,1051,0,0
329,-27,0,0,0,0,0,0,0,0,0,-1,1553,1051,0,0
336,-27,0,0,0,0,0,0,0,0,0,-1,1560,1051,0,0
343,-27,0,0,0,0,0,0,0,0,0,-1,1567,1051,0,0
350,-27,0,0,0,0,0,0,0,0,0,-1,1574,1051,0,0
357,-27,0,0,0,0,0,0,0,0,0,-1,1581,1051,0,0
364,-27,0,0,0,0,0,0,0,0,0,-1,1588,1051,0,0
371,-27,0,0,0,0,0,0,0,0,0,-1,1595,1051,0,0
378,-27,0,0,0,0,0,0,0,0,0,-1,1602,1051,0,0
385,-27,0,0,0,0,0,0,0,0,0,-1,1609,1051,0,0
392,-27,0,0,0,0,0,0,0,0,0,-1,1616,1051,0,0
399,-27,0,0,0,0,0,0,0,0,0,-1,1623,1051,0,0
406,-27,0,0,0,0,0,0,0,0,0,-1,1630,1051,0,0
413,-27,0,0,0,0,0,0,0,0,0,-1,1637,1051,0,0
420,-27,0,0,0,0,0,0,0,0,0,-1,1644,1051,0,0
427,-27,0,0,0,0,0,0,0,0,0,-1,1651,1051,0,0
434,-27,0,0,0,0,0,0,0,0,0,-1,1658,1051,0,0
441,-27,0,0,0,0,0,0,0,0,0,-1,1665,1051,0,0
448,-27,0,0,0,0,0,0,0,0,0,-1,1672,1051,0,0
455,-27,0,0,0,0,0,0,0,0,0,-1,1679,1051,0,0
462,-27,0,0,0,0,0,0,0,0,0,-1,1686,1051,0,0
469,-27,0,0,0,0,0,0,0,0,0,-1,1693,1051,0,0
476,-27,0,0,0,0,0,0,0,0,0,-1,1700,1051,0,0
483,-27,0,0,0,0,0,0,0,0,0,-1,1707,1051,0,0
490,-27,0,0,0,0,0,0,0,0,0,-1,1714,1051,0,0
497,-27,0,0,0,0,0,0,0,0,0,-1,1721,1051,0,0
504,-27,0,0,0,0,0,0,0,0,0,-1,1728,1051,0,0
511,-27,0,0,0,0,0,0,0,0,0,-1,1735,1051,0,0
518,-27,0,0,0,0,0,0,0,0,0,-1,1742,1051,0,0
525,-27,0,0,0,0,0,0,0,0,0,-1,1749,1051,0,0
532,-27,0,0,0,0,0,0,0,0,0,-1,1756,1051,0,0
539,-27,0,0,0,0,0,0,0,0,0,-1,1763,1051,0,0
546,-27,0,0,0,0,0,0,0,0,0,-1,1770,1051,0,0
553,-27,0,0,0,0,0,0,0,0,0,-1,1777,1051,0,0
560,-27,0,0,0,0,0,0,0,0,0,-1,1784,1051,0,0
567,-27,0,0,0,0,0,0,0,0,0,-1,1791,1051,0,0
574,-27,0,0,0,0,0,0,0,0,0,-1,1798,1051,0,0
581,-27,0,0,0,0,0,0,0,0,0,-1,1805,1051,0,0
588,-27,0,0,0,0,0,0,0,0,0,-1,1812,1051,0,0
595,-27,0,0,0,0,0,0,0,0,0,-1,1819,1051,0,0
602,-27,0,0,0,0,0,0,0,0,0,-1,1826,1051,0,0
609,-27,0,0,0,0,0,0,0,0,0,-1,1833,1051,0,0
616,-27,0,0,0,0,0,0,0,0,0,-1,1840,1051,0,0
623,-27,0,0,0,0,0,0,0,0,0,-1,1847,1051,0,0
630,-27,0,0,0,0,0,0,0,0,0,-1,1854,1051,0,0
637,-27,0,0,0,0,0,0,0,0,0,-1,1861,1051,0,0
644,-27,0,0,0,0,0,0,0,0,0,-1,1868,1051,0,0
651,-27,46.7856,2.49121,-0.00303358,0.000279753,0.00163209,0.000948656,-0.00370248,1.18183,0.0028379,0.0404274,1875,1051,46.7856,-2.49124
658,-27,46.5625,2.5603,-0.00234866,-3.84404e-05,0.00198873,0.00110631,-0.0034934,1.0485,0.00277229,0.0409099,1882,1051,46.5625,-2.56026
665,-27,46.6107,2.74268,-0.00185125,-0.00018894,0.00216558,0.00129951,-0.0033397,0.968631,0.00276344,0.0401086,1889,1051,46.6107,-2.74271
672,-27,46.6798,2.71338,-0.00138834,-0.000226131,0.00228999,0.00155533,-0.0031698,0.909655,0.00278063,0.0322403,1896,1051,46.6798,-2.71336
679,-27,46.6759,2.75244,-0.000977304,-0.000182975,0.00235975,0.0018128,-0.00297308,0.868771,0.00279006,0.0302052,1903,1051,46.6759,-2.75241
686,-27,46.7759,2.76782,-0.000842134,-0.000301209,0.00242336,0.00186673,-0.00301008,0.840971,0.0028413,0.0398024,1910,1051,46.7759,-2.76779
693,-27,46.7544,2.66699,-0.000816026,-0.000510195,0.0025091,0.00185065,-0.00317687,0.815833,0.00293611,0.0415044,1917,1051,46.7544,-2.66698
700,-27,46.6943,2.64063,-0.000803991,-0.000635368,0.002585,0.0018667,-0.00330606,0.8017,0.00302478,0.0376542,1924,1051,46.6943,-2.64065
707,-27,46.609,2.72705,-0.000925637,-0.000533188,0.00263034,0.00190824,-0.00336706,0.822629,0.00308427,0.0258834,1931,1051,46.609,-2.72705
714,-27,46.6537,2.82422,-0.00131248,-0.000216279,0.00270284,0.00199348,-0.00352224,0.885435,0.00322501,0.0243963,1938,1051,46.6537,-2.82426
721,-27,46.6725,2.98364,0,0,0,0,0,0,0,-1,1945,1051,46.6725,-2.98368
728,-27,46.7124,5.94653,0,0,0,0,0,0,0,-1,1952,1051,46.7124,-5.94653
735,-27,46.3239,5.93469,-0.00285746,0.00181435,0.00238012,0.00281332,-0.00385644,1.17341,0.00386645,0.0313707,1959,1051,46.3239,-5.93465
742,-27,46.1558,5.86707,-0.00261184,0.00309339,0.00250376,0.00403633,-0.00355478,1.21062,0.00438567,0.0186733,1966,1051,46.1557,-5.86711
749,-27,46.2054,5.74353,-0.00181967,0.0042648,0.00241594,0.0051074,-0.00266227,1.23522,0.00455927,0.0148613,1973,1051,46.2055,-5.74355
756,-27,46.1823,5.62305,-0.0012801,0.00631511,0.0025544,0.00709427,-0.00205926,1.27474,0.00554489,0.0144275,1980,1051,46.1822,-5.62309
763,-27,46.1307,5.47046,-0.00117959,0.00779047,0.00176274,0.00812444,-0.00151355,1.38356,0.00598495,0.0157146,1987,1051,46.1307,-5.47048
770,-27,46.0468,5.3374,-5.53805e-05,0.0099788,0.00117644,0.0101149,-0.000191465,1.45563,0.00680798,0.0173669,1994,1051,46.0467,-5.33741
777,-27,45.963,5.33337,0.00136576,0.0119162,0.000353781,0.0119281,0.00135391,1.53731,0.00754138,0.0186634,2001,1051,45.9631,-5.33339
784,-27,45.9875,5.33032,0.00219924,0.0130033,-0.000766339,0.0130574,0.00214515,-1.50034,0.00808527,0.0268632,2008,1051,45.9875,-5.33037
791,-27,46.2109,5.20081,0.00171565,0.0126152,-0.00238377,0.0131138,0.00121712,-1.36463,0.00836637,0.0410262,2015,1051,46.211,-5.20087
798,-27,46.8899,5.01685,-0.0011039,0.00992992,-0.0048213,0.0117398,-0.00291374,-1.21169,0.00895714,0.0452733,2022,1051,46.8899,-5.01682
805,-27,47.5872,4.65002,-0.00786296,0.00402491,-0.00848461,0.00844046,-0.0122785,-1.09095,0.0120303,0.045028,2029,1051,47.5872,-4.64999
812,-27,45.5342,3.43176,-0.0220616,-0.00667221,-0.0141314,0.00172358,-0.0304574,-1.03471,0.0209032,0.0449139,2036,1051,45.5343,-3.43181
-700,-34,-33.653,-0.223389,-0.0535259,-0.0130297,0.0585869,0.0287094,-0.095265,0.951776,0.074936,0.0458769,524,1058,-33.653,0.223438
-693,-34,-33.8669,-0.140503,-0.0423448,0.00598818,0.0551258,0.042012,-0.0783686,0.991976,0.0705505,0.0459274,531,1058,-33.8669,0.140554
-686,-34,-34.1311,0.179077,-0.0324437,0.0182336,0.0502977,0.0492146,-0.0634247,1.01873,0.0652046,0.046405,538,1058,-34.1311,-0.179072
-679,-34,-35.1232,0.188477,0,0,0,0,0,0,0,-1,545,1058,-35.1232,-0.18842
-672,-34,-34.8239,0.485107,-0.0174251,0.0277316,0.0373724,0.0488165,-0.03851,1.05713,0.0505349,0.0453375,552,1058,-34.8239,-0.485114
-665,-34,-34.5118,0.800171,-0.0118507,0.0279053,0.0307316,0.0446274,-0.0285728,1.07247,0.0425997,0.042747,559,1058,-34.5118,-0.800229
-658,-34,-34.3572,1.51355,-0.00745603,0.0261461,0.0244294,0.0389941,-0.0203041,1.08662,0.0347981,0.0409023,566,1058,-34.3572,-1.51355
-651,-34,-34.2691,2.16431,-0.00415712,0.0230526,0.0186403,0.0325249,-0.0136293,1.10064,0.0273814,0.0328072,573,1058,-34.2691,-2.16437
-644,-34,-34.4228,2.24976,-0.00145899,0.0204352,0.0135922,0.0269405,-0.00796428,1.12441,0.0211216,0.0160402,580,1058,-34.4228,-2.2498
-637,-34,-34.4741,2.41541,0.00032837,0.0159171,0.00807854,0.0193483,-0.00310291,1.16915,0.0140479,0.0164647,587,1058,-34.4741,-2.41535
-630,-34,-34.5172,2.69348,0.00149359,0.0112311,0.00384523,0.0125664,0.000158268,1.23656,0.00832535,0.017163,594,1058,-34.5172,-2.69348
-623,-34,-34.5187,2.89661,0.00220646,0.00722067,0.00163755,0.00770809,0.00171904,1.2815,0.00467234,0.0138287,601,1058,-34.5187,-2.89656
-616,-34,-34.5057,3.12769,0.00261594,0.00396588,-1.19984e-05,0.00396599,0.00261583,-1.56191,0.00232831,0.0207222,608,1058,-34.5057,-3.12767
-609,-34,-34.4847,3.32227,0.00251756,0.00151027,-0.00119426,0.00331004,0.000717798,-0.585853,0.0020106,0.0201505,615,1058,-34.4847,-3.32226
-602,-34,-34.4691,3.47961,0.00227171,-0.000207682,-0.00211676,0.00348508,-0.00142105,-0.520495,0.00291492,0.0165543,622,1058,-34.4691,-3.47964
-595,-34,-34.558,3.59399,0.00229963,-0.000879106,-0.00275214,0.00388837,-0.00246785,-0.523542,0.00370019,0.0171445,629,1058,-34.558,-3.59398
-588,-34,-34.754,0.910034,0,0,0,0,0,0,0,-1,636,1058,-34.754,-0.910046
-581,-34,-34.7682,0.936279,0.00310937,-0.00162268,-0.00252436,0.00420318,-0.00271649,-0.408882,0.00402569,0.0260565,643,1058,-34.7682,-0.936295
-574,-34,-34.7278,1.23315,0.00335005,-0.00163303,-0.00241269,0.00432677,-0.00260975,-0.38466,0.0040455,0.0361737,650,1058,-34.7278,-1.23316
-567,-34,-34.5964,1.43994,0.00333872,-0.0014165,-0.00227964,0.00425501,-0.00233279,-0.382183,0.00385706,0.0431024,657,1058,-34.5964,-1.43994
-560,-34,-34.6566,0.466919,0,0,0,0,0,0,0,-1,664,1058,-34.6566,-0.466875
-553,-34,-34.6674,1.07861,0,0,0,0,0,0,0,-1,671,1058,-34.6674,-1.07865
-546,-34,-34.6232,0.416626,0,0,0,0,0,0,0,-1,678,1058,-34.6232,-0.416579
-539,-34,-34.6283,0.640869,0.0014651,-0.00110885,-0.00162561,0.00225151,-0.00189526,-0.450572,0.00239708,0.0467489,685,1058,-34.6283,-0.640844
-532,-34,-34.7545,0.576538,0,0,0,0,0,0,0,-1,692,1058,-34.7545,-0.576482
-525,-34,0,0,0,0,0,0,0,0,0,-1,699,1058,0,0
-518,-34,0,0,0,0,0,0,0,0,0,-1,706,1058,0,0
-511,-34,0,0,0,0,0,0,0,0,0,-1,713,1058,0,0
-504,-34,0,0,0,0,0,0,0,0,0,-1,720,1058,0,0
-497,-34,0,0,0,0,0,0,0,0,0,-1,727,1058,0,0
-490,-34,0,0,0,0,0,0,0,0,0,-1,734,1058,0,0
-483,-34,0,0,0,0,0,0,0,0,0,-1,741,1058,0,0
-476,-34,0,0,0,0,0,0,0,0,0,-1,748,1058,0,0
-469,-34,0,0,0,0,0,0,0,0,0,-1,755,1058,0,0
-462,-34,0,0,0,0,0,0,0,0,0,-1,762,1058,0,0
-455,-34,0,0,0,0,0,0,0,0,0,-1,769,1058,0,0
-448,-34,0,0,0,0,0,0,0,0,0,-1,776,1058,0,0
-441,-34,0,0,0,0,0,0,0,0,0,-1,783,1058,0,0
-434,-34,0,0,0,0,0,0,0,0,0,-1,790,1058,0,0
-427,-34,0,0,0,0,0,0,0,0,0,-1,797,1058,0,0
-420,-34,0,0,0,0,0,0,0,0,0,-1,804,1058,0,0
-413,-34,0,0,0,0,0,0,0,0,0,-1,811,1058,0,0
-406,-34,0,0,0,0,0,0,0,0,0,-1,818,1058,0,0
-399,-34,0,0,0,0,0,0,0,0,0,-1,825,1058,0,0
-392,-34,0,0,0,0,0,0,0,0,0,-1,832,1058,0,0
-385,-34,0,0,0,0,0,0,0,0,0,-1,839,1058,0,0
-378,-34,0,0,0,0,0,0,0,0,0,-1,846,1058,0,0
-371,-34,0,0,0,0,0,0,0,0,0,-1,853,1058,0,0
-364,-34,0,0,0,0,0,0,0,0,0,-1,860,1058,0,0
-357,-34,0,0,0,0,0,0,0,0,0,-1,867,1058,0,0
-350,-34,0,0,0,0,0,0,0,0,0,-1,874,1058,0,0
-343,-34,0,0,0,0,0,0,0,0,0,-1,881,1058,0,0
-336,-34,0,0,0,0,0,0,0,0,0,-1,888,1058,0,0
-329,-34,0,0,0,0,0,0,0,0,0,-1,895,1058,0,0
-322,-34,0,0,0,0,0,0,0,0,0,-1,902,1058,0,0
-315,-34,0,0,0,0,0,0,0,0,0,-1,909,1058,0,0
-308,-34,0,0,0,0,0,0,0,0,0,-1,916,1058,0,0
-301,-34,0,0,0,0,0,0,0,0,0,-1,923,1058,0,0
-294,-34,0,0,0,0,0,0,0,0,0,-1,930,1058,0,0
-287,-34,0,0,0,0,0,0,0,0,0,-1,937,1058,0,0
-280,-34,0,0,0,0,0,0,0,0,0,-1,944,1058,0,0
-273,-34,0,0,0,0,0,0,0,0,0,-1,951,1058,0,0
-266,-34,0,0,0,0,0,0,0,0,0,-1,958,1058,0,0
-259,-34,0,0,0,0,0,0,0,0,0,-1,965,1058,0,0
-252,-34,0,0,0,0,0,0,0,0,0,-1,972,1058,0,0
-245,-34,0,0,0,0,0,0,0,0,0,-1,979,1058,0,0
-238,-34,0,0,0,0,0,0,0,0,0,-1,986,1058,0,0
-231,-34,0,0,0,0,0,0,0,0,0,-1,993,1058,0,0
-224,-34,0,0,0,0,0,0,0,0,0,-1,1000,1058,0,0
-217,-34,0,0,0,0,0,0,0,0,0,-1,1007,1058,0,0
-210,-34,0,0,0,0,0,0,0,0,0,-1,1014,1058,0,0
-203,-34,0,0,0,0,0,0,0,0,0,-1,1021,1058,0,0
-196,-34,0,0,0,0,0,0,0,0,0,-1,1028,1058,0,0
-189,-34,0,0,0,0,0,0,0,0,0,-1,1035,1058,0,0
-182,-34,0,0,0,0,0,0,0,0,0,-1,1042,1058,0,0
-175,-34,0,0,0,0,0,0,0,0,0,-1,1049,1058,0,0
-168,-34,0,0,0,0,0,0,0,0,0,-1,1056,1058,0,0
-161,-34,0,0,0,0,0,0,0,0,0,-1,1063,1058,0,0
-154,-34,0,0,0,0,0,0,0,0,0,-1,1070,1058,0,0
-147,-34,0,0,0,0,0,0,0,0,0,-1,1077,1058,0,0
-140,-34,0,0,0,0,0,0,0,0,0,-1,1084,1058,0,0
-133,-34,0,0,0,0,0,0,0,0,0,-1,1091,1058,0,0
-126,-34,0,0,0,0,0,0,0,0,0,-1,1098,1058,0,0
-119,-34,0,0,0,0,0,0,0,0,0,-1,1105,1058,0,0
-112,-34,0,0,0,0,0,0,0,0,0,-1,1112,1058,0,0
-105,-34,0,0,0,0,0,0,0,0,0,-1,1119,1058,0,0
-98,-34,0,0,0,0,0,0,0,0,0,-1,1126,1058,0,0
-91,-34,0,0,0,0,0,0,0,0,0,-1,1133,1058,0,0
-84,-34,0,0,0,0,0,0,0,0,0,-1,1140,1058,0,0
-77,-34,0,0,0,0,0,0,0,0,0,-1,1147,1058,0,0
-70,-34,0,0,0,0,0,0,0,0,0,-1,1154,1058,0,0
-63,-34,0,0,0,0,0,0,0,0,0,-1,1161,1058,0,0
-56,-34,0,0,0,0,0,0,0,0,0,-1,1168,1058,0,0
-49,-34,0,0,0,0,0,0,0,0,0,-1,1175,1058,0,0
-42,-34,0,0,0,0,0,0,0,0,0,-1,1182,1058,0,0
-35,-34,0,0,0,0,0,0,0,0,0,-1,1189,1058,0,0
-28,-34,0,0,0,0,0,0,0,0,0,-1,1196,1058,0,0
-21,-34,0,0,0,0,0,0,0,0,0,-1,1203,1058,0,0
-14,-34,0,0,0,0,0,0,0,0,0,-1,1210,1058,0,0
-7,-34,0,0,0,0,0,0,0,0,0,-1,1217,1058,0,0
0,-34,0,0,0,0,0,0,0,0,0,-1,1224,1058,0,0
7,-34,0,0,0,0,0,0,0,0,0,-1,1231,1058,0,0
14,-34,0,0,0,0,0,0,0,0,0,-1,1238,1058,0,0
21,-34,0,0,0,0,0,0,0,0,0,-1,1245,1058,0,0
28,-34,0,0,0,0,0,0,0,0,0,-1,1252,1058,0,0
35,-34,0,0,0,0,0,0,0,0,0,-1,1259,1058,0,0
42,-34,0,0,0,0,0,0,0,0,0,-1,1266,1058,0,0
49,-34,0,0,0,0,0,0,0,0,0,-1,1273,1058,0,0
56,-34,0,0,0,0,0,0,0,0,0,-1,1280,1058,0,0
63,-34,0,0,0,0,0,0,0,0,0,-1,1287,1058,0,0
70,-34,0,0,0,0,0,0,0,0,0,-1,1294,1058,0,0
77,-34,0,0,0,0,0,0,0,0,0,-1,1301,1058,0,0
84,-34,0,0,0,0,0,0,0,0,0,-1,1308,1058,0,0
91,-34,0,0,0,0,0,0,0,0,0,-1,1315,1058,0,0
98,-34,0,0,0,0,0,0,0,0,0,-1,1322,1058,0,0
105,-34,0,0,0,0,0,0,0,0,0,-1,1329,1058,0,0
112,-34,0,0,0,0,0,0,0,0,0,-1,1336,1058,0,0
119,-34,0,0,0,0,0,0,0,0,0,-1,1343,1058,0,0
126,-34,0,0,0,0,0,0,0,0,0,-1,1350,1058,0,0
133,-34,0,0,0,0,0,0,0,0,0,-1,1357,1058,0,0
140,-34,0,0,0,0,0,0,0,0,0,-1,1364,1058,0,0
147,-34,0,0,0,0,0,0,0,0,0,-1,1371,1058,0,0
154,-34,0,0,0,0,0,0,0,0,0,-1,1378,1058,0,0
161,-34,0,0,0,0,0,0,0,0,0,-1,1385,1058,0,0
168,-34,0,0,0,0,0,0,0,0,0,-1,1392,1058,0,0
175,-34,0,0,0,0,0,0,0,0,0,-1,1399,1058,0,0
182,-34,0,0,0,0,0,0,0,0,0,-1,1406,1058,0,0
189,-34,0,0,0,0,0,0,0,0,0,-1,1413,1058,0,0
196,-34,0,0,0,0,0,0,0,0,0,-1,1420,1058,0,0
203,-34,0,0,0,0,0,0,0,0,0,-1,1427,1058,0,0
210,-34,0,0,0,0,0,0,0,0,0,-1,1434,1058,0,0
217,-34,0,0,0,0,0,0,0,0,0,-1,1441,1058,0,0
224,-34,0,0,0,0,0,0,0,0,0,-1,1448,1058,0,0
231,-34,0,0,0,0,0,0,0,0,0,-1,1455,1058,0,0
238,-34,0,0,0,0,0,0,0,0,0,-1,1462,1058,0,0
245,-34,0,0,0,0,0,0,0,0,0,-1,1469,1058,0,0
252,-34,0,0,0,0,0,0,0,0,0,-1,1476,1058,0,0
259,-34,0,0,0,0,0,0,0,0,0,-1,1483,1058,0,0
266,-34,0,0,0,0,0,0,0,0,0,-1,1490,1058,0,0
273,-34,0,0,0,0,0,0,0,0,0,-1,1497,1058,0,0
280,-34,0,0,0,0,0,0,0,0,0,-1,1504,1058,0,0
287,-34,0,0,0,0,0,0,0,0,0,-1,1511,1058,0,0
294,-34,0,0,0,0,0,0,0,0,0,-1,1518,1058,0,0
301,-34,0,0,0,0,0,0,0,0,0,-1,1525,1058,0,0
308,-34,0,0,0,0,0,0,0,0,0,-1,1532,1058,0,0
315,-34,0,0,0,0,0,0,0,0,0,-1,1539,1058,0,0
322,-34,0,0,0,0,0,0,0,0,0,-1,1546,1058,0,0
329,-34,0,0,0,0,0,0,0,0,0,-1,1553,1058,0,0
336,-34,0,0,0,0,0,0,0,0,0,-1,1560,1058,0,0
343,-34,0,0,0,0,0,0,0,0,0,-1,1567,1058,0,0
350,-34,0,0,0,0,0,0,0,0,0,-1,1574,1058,0,0
357,-34,0,0,0,0,0,0,0,0,0,-1,1581,1058,0,0
364,-34,0,0,0,0,0,0,0,0,0,-1,1588,1058,0,0
371,-34,0,0,0,0,0,0,0,0,0,-1,1595,1058,0,0
378,-34,0,0,0,0,0,0,0,0,0,-1,1602,1058,0,0
385,-34,0,0,0,0,0,0,0,0,0,-1,1609,1058,0,0
392,-34,0,0,0,0,0,0,0,0,0,-1,1616,1058,0,0
399,-34,0,0,0,0,0,0,0,0,0,-1,1623,1058,0,0
406,-34,0,0,0,0,0,0,0,0,0,-1,1630,1058,0,0
413,-34,0,0,0,0,0,0,0,0,0,-1,1637,1058,0,0
420,-34,0,0,0,0,0,0,0,0,0,-1,1644,1058,0,0
427,-34,0,0,0,0,0,0,0,0,0,-1,1651,1058,0,0
434,-34,0,0,0,0,0,0,0,0,0,-1,1658,1058,0,0
441,-34,0,0,0,0,0,0,0,0,0,-1,1665,1058,0,0
448,-34,0,0,0,0,0,0,0,0,0,-1,1672,1058,0,0
455,-34,0,0,0,0,0,0,0,0,0,-1,1679,1058,0,0
462,-34,0,0,0,0,0,0,0,0,0,-1,1686,1058,0,0
469,-34,0,0,0,0,0,0,0,0,0,-1,1693,1058,0,0
476,-34,0,0,0,0,0,0,0,0,0,-1,1700,1058,0,0
483,-34,0,0,0,0,0,0,0,0,0,-1,1707,1058,0,0
490,-34,0,0,0,0,0,0,0,0,0,-1,1714,1058,0,0
497,-34,0,0,0,0,0,0,0,0,0,-1,1721,1058,0,0
504,-34,0,0,0,0,0,0,0,0,0,-1,1728,1058,0,0
511,-34,0,0,0,0,0,0,0,0,0,-1,1735,1058,0,0
518,-34,0,0,0,0,0,0,0,0,0,-1,1742,1058,0,0
525,-34,0,0,0,0,0,0,0,0,0,-1,1749,1058,0,0
532,-34,0,0,0,0,0,0,0,0,0,-1,1756,1058,0,0
539,-34,0,0,0,0,0,0,0,0,0,-1,1763,1058,0,0
546,-34,0,0,0,0,0,0,0,0,0,-1,1770,1058,0,0
553,-34,0,0,0,0,0,0,0,0,0,-1,1777,1058,0,0
560,-34,0,0,0,0,0,0,0,0,0,-1,1784,1058,0,0
567,-34,0,0,0,0,0,0,0,0,0,-1,1791,1058,0,0
574,-34,0,0,0,0,0,0,0,0,0,-1,1798,1058,0,0
581,-34,0,0,0,0,0,0,0,0,0,-1,1805,1058,0,0
588,-34,0,0,0,0,0,0,0,0,0,-1,1812,1058,0,0
595,-34,0,0,0,0,0,0,0,0,0,-1,1819,1058,0,0
602,-34,0,0,0,0,0,0,0,0,0,-1,1826,1058,0,0
609,-34,0,0,0,0,0,0,0,0,0,-1,1833,1058,0,0
616,-34,0,0,0,0,0,0,0,0,0,-1,1840,1058,0,0
623,-34,0,0,0,0,0,0,0,0,0,-1,1847,1058,0,0
630,-34,0,0,0,0,0,0,0,0,0,-1,1854,1058,0,0
637,-34,0,0,0,0,0,0,0,0,0,-1,1861,1058,0,0
644,-34,0,0,0,0,0,0,0,0,0,-1,1868,1058,0,0
651,-34,46.6357,2.53821,-0.00264882,2.37172e-05,0.0011548,0.000453567,-0.00307867,1.21446,0.00221914,0.0395943,1875,1058,46.6357,-2.53824
658,-34,46.6813,2.55774,-0.00216991,-0.000221396,0.00160067,0.000678202,-0.00306951,1.05878,0.00230589,0.0424257,1882,1058,46.6813,-2.5578
665,-34,46.5911,2.55518,-0.00176026,-0.000306851,0.00186898,0.000971737,-0.00303885,0.970815,0.00241586,0.0442641,1889,1058,46.5911,-2.55513
672,-34,46.6616,2.54541,-0.00132263,-0.000305688,0.00208143,0.00132848,-0.0029568,0.905196,0.00253295,0.0390834,1896,1058,46.6616,-2.54546
679,-34,46.6989,2.85474,-0.000931963,-0.000265637,0.00221833,0.00164441,-0.00284201,0.859934,0.00262082,0.0366579,1903,1058,46.6988,-2.85474
686,-34,46.7429,3.00562,-0.000830129,-0.000415529,0.00233259,0.00171895,-0.00296461,0.829717,0.00273575,0.0422496,1910,1058,46.7429,-3.00564
693,-34,46.6338,2.76489,-0.000824527,-0.000653985,0.00245293,0.00171515,-0.00319367,0.802773,0.00287664,0.042564,1917,1058,46.6337,-2.76484
700,-34,46.6127,2.6272,-0.000826535,-0.000801383,0.00255166,0.00173774,-0.00336565,0.787862,0.00299599,0.0392796,1924,1058,46.6127,-2.62714
707,-34,46.5835,2.6958,-0.000972862,-0.000747425,0.00262898,0.00177125,-0.00349154,0.806823,0.00309211,0.0259392,1931,1058,46.5835,-2.69583
714,-34,46.6205,2.80664,-0.00136592,-0.000483319,0.00273647,0.00184721,-0.00369645,0.865343,0.00325945,0.021719,1938,1058,46.6205,-2.80662
721,-34,46.652,2.91809,0,0,0,0,0,0,0,-1,1945,1058,46.652,-2.91806
728,-34,46.1324,6.07275,0,0,0,0,0,0,0,-1,1952,1058,46.1324,-6.07271
735,-34,46.0396,6.00916,-0.00275526,0.00136121,0.00247479,0.00252181,-0.00391587,1.13228,0.00374573,0.0202558,1959,1058,46.0395,-6.00916
742,-34,45.9844,5.88831,-0.00239189,0.00259042,0.00262226,0.00371618,-0.00351766,1.16528,0.00417698,0.0166715,1966,1058,45.9844,-5.88827
749,-34,46.0157,5.74548,-0.0014377,0.00378331,0.00259938,0.00485676,-0.00251115,1.17916,0.00432512,0.0140804,1973,1058,46.0157,-5.74547
756,-34,46.0308,5.5885,-0.000765789,0.00583626,0.00277776,0.00684948,-0.00177901,1.22103,0.00526057,0.011507,1980,1058,46.0308,-5.58849
763,-34,45.9589,5.43152,-0.000509779,0.00729791,0.00191118,0.00774063,-0.000952498,1.34316,0.00550546,0.0128956,1987,1058,45.9589,-5.43158
770,-34,45.8718,5.28003,0.000836194,0.00952857,0.00124821,0.00970426,0.000660504,1.43096,0.00626096,0.0184775,1994,1058,45.8719,-5.28009
777,-34,45.778,5.22827,0.0025009,0.0115804,0.000267583,0.0115883,0.00249302,1.54136,0.00704317,0.0194471,2001,1058,45.7779,-5.22828
784,-34,45.7412,5.15149,0.00352073,0.0128399,-0.00111125,0.0129705,0.00339005,-1.45374,0.00776763,0.0349989,2008,1058,45.7413,-5.15145
791,-34,46.0269,5.21814,0.00324789,0.0127643,-0.00313649,0.013705,0.00230714,-1.2794,0.00847301,0.043859,2015,1058,46.0268,-5.2181
798,-34,46.4138,5.19336,0,0,0,0,0,0,0,-1,2022,1058,46.4138,-5.19334
805,-34,45.4504,4.17578,-0.00561977,0.00547487,-0.0108601,0.0121224,-0.0122673,-1.02152,0.0140815,0.0490397,2029,1058,45.4504,-4.17582
812,-34,45.3789,4.11926,-0.0189568,-0.00413143,-0.0179072,0.00783669,-0.0309249,-0.981635,0.0236654,0.0495427,2036,1058,45.3789,-4.11921
-700,-41,-33.3201,-0.373657,-0.0491289,-0.00575056,0.0500828,0.0271378,-0.0820173,0.98974,0.065622,0.0456817,524,1065,-33.3201,0.373716
-693,-41,-33.8301,-0.186157,-0.0379017,0.0109588,0.0476748,0.0400983,-0.0670413,1.02217,0.0625056,0.0455796,531,1065,-33.8301,0.186197
-686,-41,-34.1847,-0.0966797,-0.0281472,0.0211075,0.0438592,0.0467806,-0.0538203,1.04122,0.0581294,0.0452777,538,1065,-34.1847,0.0966226
-679,-41,-34.5862,0.000366211,0,0,0,0,0,0,0,-1,545,1065,-34.5862,-0.000388246
-672,-41,-34.7408,0.263794,-0.0138823,0.0283897,0.0330213,0.0464601,-0.0319526,1.07008,0.0455291,0.0455475,552,1065,-34.7409,-0.26376
-665,-41,-34.6559,0.422363,-0.00886254,0.0279637,0.0272899,0.0424714,-0.0233702,1.08218,0.0385432,0.0410785,559,1065,-34.6559,-0.422319
-658,-41,-34.1846,0.961182,-0.00506819,0.0258186,0.0217854,0.0370792,-0.0163288,1.09373,0.0316014,0.0388926,566,1065,-34.1846,-0.961206
-651,-41,-33.9169,1.90747,-0.00236669,0.0225143,0.0167009,0.0308989,-0.0107513,1.10551,0.024967,0.0317223,573,1065,-33.9169,-1.90744
-644,-41,-34.2035,2.17944,-0.000176519,0.0196687,0.0122483,0.0255094,-0.00601714,1.12584,0.0193267,0.0172114,580,1065,-34.2035,-2.17947
-637,-41,-34.2532,2.38513,0.00116722,0.0151227,0.00739727,0.0183139,-0.00202404,1.16351,0.0129368,0.0178614,587,1065,-34.2532,-2.38509
-630,-41,-34.252,2.62341,0.00191368,0.0104741,0.0037057,0.0118554,0.000532403,1.21401,0.00773223,0.0140149,594,1065,-34.252,-2.62344
-623,-41,-34.2586,2.86548,0.00243888,0.00667648,0.00176546,0.00731561,0.00179975,1.22345,0.00440156,0.0119823,601,1065,-34.2586,-2.86547
-616,-41,-34.2458,3.13342,0.00274093,0.00360995,0.000331372,0.00372189,0.00262899,1.24503,0.002209,0.0157431,608,1065,-34.2459,-3.13336
-609,-41,-34.1807,3.37793,0.00266242,0.00126756,-0.000707351,0.00295835,0.000971634,-0.396229,0.00174119,0.0211078,615,1065,-34.1806,-3.37794
-602,-41,-34.2444,3.51563,0.00240557,-0.000181526,-0.00150595,0.00309725,-0.000873208,-0.430561,0.00240924,0.0140446,622,1065,-34.2445,-3.51564
-595,-41,-34.4582,3.61194,0,0,0,0,0,0,0,-1,629,1065,-34.4582,-3.61196
-588,-41,-34.6182,2.09424,0,0,0,0,0,0,0,-1,636,1065,-34.6182,-2.09426
-581,-41,-34.7415,0.823364,0.0033936,-0.0013782,-0.00188061,0.00404566,-0.00203026,-0.333758,0.00357168,0.0371146,643,1065,-34.7415,-0.823317
-574,-41,-34.7354,1.27783,0.00371428,-0.00135417,-0.00180156,0.00428939,-0.00192927,-0.309,0.00367553,0.0372052,650,1065,-34.7354,-1.27785
-567,-41,-34.6621,1.70435,0.00383422,-0.00113524,-0.001737,0.00438116,-0.00168219,-0.305051,0.00361443,0.0431461,657,1065,-34.6621,-1.70429
-560,-41,-34.7203,0.713257,0.00377886,-0.000791568,-0.0016955,0.00433915,-0.00135186,-0.319162,0.00343328,0.0453475,664,1065,-34.7203,-0.713309
-553,-41,-34.6481,0.747559,0.00361833,-0.000473556,-0.00166457,0.00420993,-0.00106516,-0.341488,0.00322093,0.0446745,671,1065,-34.6481,-0.747532
-546,-41,-34.6023,0.775269,0.00338611,-0.000436294,-0.00160991,0.00397381,-0.00102399,-0.35002,0.00304841,0.0458654,678,1065,-34.6023,-0.775278
-539,-41,-34.5704,0.335938,0.00320347,-0.00118559,-0.0016577,0.0037592,-0.00174132,-0.323467,0.00324618,0.0430062,685,1065,-34.5704,-0.335979
-532,-41,-34.6627,0.0849609,0,0,0,0,0,0,0,-1,692,1065,-34.6626,-0.0850051
-525,-41,0,0,0,0,0,0,0,0,0,-1,699,1065,0,0
-518,-41,0,0,0,0,0,0,0,0,0,-1,706,1065,0,0
-511,-41,0,0,0,0,0,0,0,0,0,-1,713,1065,0,0
-504,-41,0,0,0,0,0,0,0,0,0,-1,720,1065,0,0
-497,-41,0,0,0,0,0,0,0,0,0,-1,727,1065,0,0
-490,-41,0,0,0,0,0,0,0,0,0,-1,734,1065,0,0
-483,-41,0,0,0,0,0,0,0,0,0,-1,741,1065,0,0
-476,-41,0,0,0,0,0,0,0,0,0,-1,748,1065,0,0
-469,-41,0,0,0,0,0,0,0,0,0,-1,755,1065,0,0
-462,-41,0,0,0,0,0,0,0,0,0,-1,762,1065,0,0
-455,-41,0,0,0,0,0,0,0,0,0,-1,769,1065,0,0
-448,-41,0,0,0,0,0,0,0,0,0,-1,776,1065,0,0
-441,-41,0,0,0,0,0,0,0,0,0,-1,783,1065,0,0
-434,-41,0,0,0,0,0,0,0,0,0,-1,790,1065,0,0
-427,-41,0,0,0,0,0,0,0,0,0,-1,797,1065,0,0
-420,-41,0,0,0,0,0,0,0,0,0,-1,804,1065,0,0
-413,-41,0,0,0,0,0,0,0,0,0,-1,811,1065,0,0
-406,-41,0,0,0,0,0,0,0,0,0,-1,818,1065,0,0
-399,-41,0,0,0,0,0,0,0,0,0,-1,825,1065,0,0
-392,-41,0,0,0,0,0,0,0,0,0,-1,832,1065,0,0
-385,-41,0,0,0,0,0,0,0,0,0,-1,839,1065,0,0
-378,-41,0,0,0,0,0,0,0,0,0,-1,846,1065,0,0
-371,-41,0,0,0,0,0,0,0,0,0,-1,853,1065,0,0
-364,-41,0,0,0,0,0,0,0,0,0,-1,860,1065,0,0
-357,-41,0,0,0,0,0,0,0,0,0,-1,867,1065,0,0
-350,-41,0,0,0,0,0,0,0,0,0,-1,874,1065,0,0
-343,-41,0,0,0,0,0,0,0,0,0,-1,881,1065,0,0
-336,-41,0,0,0,0,0,0,0,0,0,-1,888,1065,0,0
-329,-41,0,0,0,0,0,0,0,0,0,-1,895,1065,0,0
-322,-41,0,0,0,0,0,0,0,0,0,-1,902,1065,0,0
-315,-41,0,0,0,0,0,0,0,0,0,-1,909,1065,0,0
-308,-41,0,0,0,0,0,0,0,0,0,-1,916,1065,0,0
-301,-41,0,0,0,0,0,0,0,0,0,-1,923,1065,0,0
-294,-41,0,0,0,0,0,0,0,0,0,-1,930,1065,0,0
-287,-41,0,0,0,0,0,0,0,0,0,-1,937,1065,0,0
-280,-41,0,0,0,0,0,0,0,0,0,-1,944,1065,0,0
-273,-41,0,0,0,0,0,0,0,0,0,-1,951,1065,0,0
-266,-41,0,0,0,0,0,0,0,0,0,-1,958,1065,0,0
-259,-41,0,0,0,0,0,0,0,0,0,-1,965,1065,0,0
-252,-41,0,0,0,0,0,0,0,0,0,-1,972,1065,0,0
-245,-41,0,0,0,0,0,0,0,0,0,-1,979,1065,0,0
-238,-41,0,0,0,0,0,0,0,0,0,-1,986,1065,0,0
-231,-41,0,0,0,0,0,0,0,0,0,-1,993,1065,0,0
-224,-41,0,0,0,0,0,0,0,0,0,-1,1000,1065,0,0
-217,-41,0,0,0,0,0,0,0,0,0,-1,1007,1065,0,0
-210,-41,0,0,0,0,0,0,0,0,0,-1,1014,1065,0,0
-203,-41,0,0,0,0,0,0,0,0,0,-1,1021,1065,0,0
-196,-41,0,0,0,0,0,0,0,0,0,-1,1028,1065,0,0
-189,-41,0,0,0,0,0,0,0,0,0,-1,1035,1065,0,0
-182,-41,0,0,0,0,0,0,0,0,0,-1,1042,1065,0,0
-175,-41,0,0,0,0,0,0,0,0,0,-1,1049,1065,0,0
-168,-41,0,0,0,0,0,0,0,0,0,-1,1056,1065,0,0
-161,-41,0,0,0,0,0,0,0,0,0,-1,1063,1065,0,0
-154,-41,0,0,0,0,0,0,0,0,0,-1,1070,1065,0,0
-147,-41,0,0,0,0,0,0,0,0,0,-1,1077,1065,0,0
-140,-41,0,0,0,0,0,0,0,0,0,-1,1084,1065,0,0
-133,-41,0,0,0,0,0,0,0,0,0,-1,1091,1065,0,0
-126,-41,0,0,0,0,0,0,0,0,0,-1,1098,1065,0,0
-119,-41,0,0,0,0,0,0,0,0,0,-1,1105,1065,0,0
-112,-41,0,0,0,0,0,0,0,0,0,-1,1112,1065,0,0
-105,-41,0,0,0,0,0,0,0,0,0,-1,1119,1065,0,0
-98,-41,0,0,0,0,0,0,0,0,0,-1,1126,1065,0,0
-91,-41,0,0,0,0,0,0,0,0,0,-1,1133,1065,0,0
-84,-41,0,0,0,0,0,0,0,0,0,-1,1140,1065,0,0
-77,-41,0,0,0,0,0,0,0,0,0,-1,1147,1065,0,0
-70,-41,0,0,0,0,0,0,0,0,0,-1,1154,1065,0,0
-63,-41,0,0,0,0,0,0,0,0,0,-1,1161,1065,0,0
-56,-41,0,0,0,0,0,0,0,0,0,-1,1168,1065,0,0
-49,-41,0,0,0,0,0,0,0,0,0,-1,1175,1065,0,0
-42,-41,0,0,0,0,0,0,0,0,0,-1,1182,1065,0,0
-35,-41,0,0,0,0,0,0,0,0,0,-1,1189,1065,0,0
-28,-41,0,0,0,0,0,0,0,0,0,-1,1196,1065,0,0
-21,-41,0,0,0,0,0,0,0,0,0,-1,1203,1065,0,0
-14,-41,0,0,0,0,0,0,0,0,0,-1,1210,1065,0,0
-7,-41,0,0,0,0,0,0,0,0,0,-1,1217,1065,0,0
0,-41,0,0,0,0,0,0,0,0,0,-1,1224,1065,0,0
7,-41,0,0,0,0,0,0,0,0,0,-1,1231,1065,0,0
14,-41,0,0,0,0,0,0,0,0,0,-1,1238,1065,0,0
21,-41,0,0,0,0,0,0,0,0,0,-1,1245,1065,0,0
28,-41,0,0,0,0,0,0,0,0,0,-1,1252,1065,0,0
35,-41,0,0,0,0,0,0,0,0,0,-1,1259,1065,0,0
42,-41,0,0,0,0,0,0,0,0,0,-1,1266,1065,0,0
49,-41,0,0,0,0,0,0,0,0,0,-1,1273,1065,0,0
56,-41,0,0,0,0,0,0,0,0,0,-1,1280,1065,0,0
63,-41,0,0,0,0,0,0,0,0,0,-1,1287,1065,0,0
70,-41,0,0,0,0,0,0,0,0,0,-1,1294,1065,0,0
77,-41,0,0,0,0,0,0,0,0,0,-1,1301,1065,0,0
84,-41,0,0,0,0,0,0,0,0,0,-1,1308,1065,0,0
91,-41,0,0,0,0,0,0,0,0,0,-1,1315,1065,0,0
98,-41,0,0,0,0,0,0,0,0,0,-1,1322,1065,0,0
105,-41,0,0,0,0,0,0,0,0,0,-1,1329,1065,0,0
112,-41,0,0,0,0,0,0,0,0,0,-1,1336,1065,0,0
119,-41,0,0,0,0,0,0,0,0,0,-1,1343,1065,0,0
126,-41,0,0,0,0,0,0,0,0,0,-1,1350,1065,0,0
133,-41,0,0,0,0,0,0,0,0,0,-1,1357,1065,0,0
140,-41,0,0,0,0,0,0,0,0,0,-1,1364,1065,0,0
147,-41,0,0,0,0,0,0,0,0,0,-1,1371,1065,0,0
154,-41,0,0,0,0,0,0,0,0,0,-1,1378,1065,0,0
161,-41,0,0,0,0,0,0,0,0,0,-1,1385,1065,0,0
168,-41,0,0,0,0,0,0,0,0,0,-1,1392,1065,0,0
175,-41,0,0,0,0,0,0,0,0,0,-1,1399,1065,0,0
182,-41,0,0,0,0,0,0,0,0,0,-1,1406,1065,0,0
189,-41,0,0,0,0,0,0,0,0,0,-1,1413,1065,0,0
196,-41,0,0,0,0,0,0,0,0,0,-1,1420,1065,0,0
203,-41,0,0,0,0,0,0,0,0,0,-1,1427,1065,0,0
210,-41,0,0,0,0,0,0,0,0,0,-1,1434,1065,0,0
217,-41,0,0,0,0,0,0,0,0,0,-1,1441,1065,0,0
224,-41,0,0,0,0,0,0,0,0,0,-1,1448,1065,0,0
231,-41,0,0,0,0,0,0,0,0,0,-1,1455,1065,0,0
238,-41,0,0,0,0,0,0,0,0,0,-1,1462,1065,0,0
245,-41,0,0,0,0,0,0,0,0,0,-1,1469,1065,0,0
252,-41,0,0,0,0,0,0,0,0,0,-1,1476,1065,0,0
259,-41,0,0,0,0,0,0,0,0,0,-1,1483,1065,0,0
266,-41,0,0,0,0,0,0,0,0,0,-1,1490,1065,0,0
273,-41,0,0,0,0,0,0,0,0,0,-1,1497,1065,0,0
280,-41,0,0,0,0,0,0,0,0,0,-1,1504,1065,0,0
287,-41,0,0,0,0,0,0,0,0,0,-1,1511,1065,0,0
294,-41,0,0,0,0,0,0,0,0,0,-1,1518,1065,0,0
301,-41,0,0,0,0,0,0,0,0,0,-1,1525,1065,0,0
308,-41,0,0,0,0,0,0,0,0,0,-1,1532,1065,0,0
315,-41,0,0,0,0,0,0,0,0,0,-1,1539,1065,0,0
322,-41,0,0,0,0,0,0,0,0,0,-1,1546,1065,0,0
329,-41,0,0,0,0,0,0,0,0,0,-1,1553,1065,0,0
336,-41,0,0,0,0,0,0,0,0,0,-1,1560,1065,0,0
343,-41,0,0,0,0,0,0,0,0,0,-1,1567,1065,0,0
350,-41,0,0,0,0,0,0,0,0,0,-1,1574,1065,0,0
357,-41,0,0,0,0,0,0,0,0,0,-1,1581,1065,0,0
364,-41,0,0,0,0,0,0,0,0,0,-1,1588,1065,0,0
371,-41,0,0,0,0,0,0,0,0,0,-1,1595,1065,0,0
378,-41,0,0,0,0,0,0,0,0,0,-1,1602,1065,0,0
385,-41,0,0,0,0,0,0,0,0,0,-1,1609,1065,0,0
392,-41,0,0,0,0,0,0,0,0,0,-1,1616,1065,0,0
399,-41,0,0,0,0,0,0,0,0,0,-1,1623,1065,0,0
406,-41,0,0,0,0,0,0,0,0,0,-1,1630,1065,0,0
413,-41,0,0,0,0,0,0,0,0,0,-1,1637,1065,0,0
420,-41,0,0,0,0,0,0,0,0,0,-1,1644,1065,0,0
427,-41,0,0,0,0,0,0,0,0,0,-1,1651,1065,0,0
434,-41,0,0,0,0,0,0,0,0,0,-1,1658,1065,0,0
441,-41,0,0,0,0,0,0,0,0,0,-1,1665,1065,0,0
448,-41,0,0,0,0,0,0,0,0,0,-1,1672,1065,0,0
455,-41,0,0,0,0,0,0,0,0,0,-1,1679,1065,0,0
462,-41,0,0,0,0,0,0,0,0,0,-1,1686,1065,0,0
469,-41,0,0,0,0,0,0,0,0,0,-1,1693,1065,0,0
476,-41,0,0,0,0,0,0,0,0,0,-1,1700,1065,0,0
483,-41,0,0,0,0,0,0,0,0,0,-1,1707,1065,0,0
490,-41,0,0,0,0,0,0,0,0,0,-1,1714,1065,0,0
497,-41,0,0,0,0,0,0,0,0,0,-1,1721,1065,0,0
504,-41,0,0,0,0,0,0,0,0,0,-1,1728,1065,0,0
511,-41,0,0,0,0,0,0,0,0,0,-1,1735,1065,0,0
518,-41,0,0,0,0,0,0,0,0,0,-1,1742,1065,0,0
525,-41,0,0,0,0,0,0,0,0,0,-1,1749,1065,0,0
532,-41,0,0,0,0,0,0,0,0,0,-1,1756,1065,0,0
539,-41,0,0,0,0,0,0,0,0,0,-1,1763,1065,0,0
546,-41,0,0,0,0,0,0,0,0,0,-1,1770,1065,0,0
553,-41,0,0,0,0,0,0,0,0,0,-1,1777,1065,0,0
560,-41,0,0,0,0,0,0,0,0,0,-1,1784,1065,0,0
567,-41,0,0,0,0,0,0,0,0,0,-1,1791,1065,0,0
574,-41,0,0,0,0,0,0,0,0,0,-1,1798,1065,0,0
581,-41,0,0,0,0,0,0,0,0,0,-1,1805,1065,0,0
588,-41,0,0,0,0,0,0,0,0,0,-1,1812,1065,0,0
595,-41,0,0,0,0,0,0,0,0,0,-1,1819,1065,0,0
602,-41,0,0,0,0,0,0,0,0,0,-1,1826,1065,0,0
609,-41,0,0,0,0,0,0,0,0,0,-1,1833,1065,0,0
616,-41,0,0,0,0,0,0,0,0,0,-1,1840,1065,0,0
623,-41,0,0,0,0,0,0,0,0,0,-1,1847,1065,0,0
630,-41,0,0,0,0,0,0,0,0,0,-1,1854,1065,0,0
637,-41,0,0,0,0,0,0,0,0,0,-1,1861,1065,0,0
644,-41,0,0,0,0,0,0,0,0,0,-1,1868,1065,0,0
651,-41,46.5245,2.63953,0,0,0,0,0,0,0,-1,1875,1065,46.5246,-2.63953
658,-41,46.2919,2.5791,0,0,0,0,0,0,0,-1,1882,1065,46.2919,-2.57905
665,-41,46.9427,2.06641,-0.00143659,-0.000905047,0.00157765,0.000429067,-0.0027707,0.868844,0.00200551,0.0444695,1889,1065,46.9428,-2.06642
672,-41,46.7174,2.77539,-0.00109096,-0.000656726,0.00182947,0.000968471,-0.00271615,0.84446,0.00220564,0.0425973,1896,1065,46.7174,-2.77535
679,-41,46.5693,3.00891,-0.000779274,-0.000424357,0.00201439,0.00142038,-0.00262401,0.829332,0.00236924,0.0391234,1903,1065,46.5694,-3.00891
686,-41,46.5717,2.97766,-0.000736742,-0.000465762,0.00217951,0.00158247,-0.00278497,0.816441,0.0025532,0.0432297,1910,1065,46.5716,-2.97765
693,-41,46.5229,2.76904,-0.000747293,-0.000633765,0.00233746,0.00164763,-0.00302868,0.797538,0.00273883,0.0459511,1917,1065,46.5229,-2.76909
700,-41,46.571,2.67664,-0.000757558,-0.000735206,0.00247691,0.00173055,-0.00322331,0.787654,0.00290307,0.0413458,1924,1065,46.571,-2.67669
707,-41,46.621,2.67249,-0.000930995,-0.000684095,0.00260723,0.00180261,-0.0034177,0.809055,0.00306165,0.0287239,1931,1065,46.621,-2.67245
714,-41,46.6138,2.71631,-0.00131792,-0.000469851,0.00276091,0.00189939,-0.00368716,0.861595,0.00327999,0.0221691,1938,1065,46.6137,-2.71634
721,-41,46.6366,2.81055,0,0,0,0,0,0,0,-1,1945,1065,46.6366,-2.81054
728,-41,46.0251,6.0863,0,0,0,0,0,0,0,-1,1952,1065,46.0251,-6.08626
735,-41,45.8805,5.97522,-0.00253285,0.00115977,0.00260053,0.00250276,-0.00387584,1.09409,0.00371102,0.019486,1959,1065,45.8805,-5.97521
742,-41,45.793,5.85986,-0.0020757,0.00230485,0.00276799,0.00364431,-0.00341517,1.1201,0.00407651,0.0167831,1966,1065,45.793,-5.8599
749,-41,45.8077,5.72937,-0.000975406,0.00350254,0.00280486,0.00485247,-0.00232534,1.12223,0.00422886,0.0149017,1973,1065,45.8078,-5.72931
756,-41,45.8367,5.56873,-0.000184241,0.0055358,0.00301035,0.00682812,-0.00147656,1.1653,0.00511579,0.0146174,1980,1065,45.8367,-5.56874
763,-41,45.7603,5.37866,0.000209561,0.007002,0.00207062,0.00758344,-0.00037188,1.29704,0.00518404,0.0127596,1987,1065,45.7602,-5.37868
770,-41,45.6809,5.21594,0.0017402,0.00930058,0.00132817,0.00952712,0.00151366,1.40186,0.00591181,0.0140106,1994,1065,45.6809,-5.21598
777,-41,45.6031,5.07239,0.00361381,0.0115536,0.000225225,0.01156,0.00360742,1.54246,0.00682953,0.0149308,2001,1065,45.6031,-5.0724
784,-41,45.5166,4.91675,0.004855,0.0131247,-0.00134822,0.013339,0.00464074,-1.4132,0.00781913,0.0244274,2008,1065,45.5166,-4.91672
791,-41,45.4648,4.66968,0.0048854,0.013556,-0.00366643,0.0148985,0.00354289,-1.21979,0.00898724,0.0426727,2015,1065,45.4648,-4.66971
798,-41,45.4055,4.43799,0,0,0,0,0,0,0,-1,2022,1065,45.4055,-4.43804
805,-41,45.426,4.12402,0,0,0,0,0,0,0,-1,2029,1065,45.4261,-4.12399
812,-41,45.334,4.0177,0,0,0,0,0,0,0,-1,2036,1065,45.334,-4.01775
-700,-48,-33.2077,-0.557007,0,0,0,0,0,0,0,-1,524,1072,-33.2077,0.557006
-693,-48,-33.8174,-0.463745,0,0,0,0,0,0,0,-1,531,1072,-33.8174,0.463773
-686,-48,-34.224,-0.374756,0,0,0,0,0,0,0,-1,538,1072,-34.224,0.374763
-679,-48,-34.6702,-0.281494,0,0,0,0,0,0,0,-1,545,1072,-34.6702,0.281529
-672,-48,-33.8188,-0.982544,-0.010188,0.0301998,0.0296831,0.0459069,-0.0258951,1.08409,0.0419882,0.0476308,552,1072,-33.8188,0.982588
-665,-48,-34.1345,-0.222656,-0.00593243,0.0287948,0.0245383,0.0414915,-0.0186292,1.09331,0.0355374,0.0458274,559,1072,-34.1345,0.222697
-658,-48,-34.1865,0.514893,-0.00286536,0.0259649,0.0195793,0.0358633,-0.0127637,1.10272,0.0291116,0.043914,566,1072,-34.1864,-0.514895
-651,-48,-33.8215,1.42358,-0.000797581,0.0222275,0.0149981,0.0296221,-0.00819221,1.11273,0.022971,0.0347478,573,1072,-33.8215,-1.42363
-644,-48,-33.9008,2.12024,0.000899326,0.018996,0.0110056,0.0241953,-0.00429999,1.12945,0.0177381,0.0198775,580,1072,-33.9008,-2.12022
-637,-48,-33.9135,2.3092,0.00181693,0.0143322,0.00671831,0.0172557,-0.00110659,1.16035,0.0118899,0.0202404,587,1072,-33.9135,-2.30925
-630,-48,-33.9039,2.57605,0.00210232,0.00970745,0.00349489,0.0110695,0.000740219,1.19917,0.00714575,0.0212588,594,1072,-33.9039,-2.57607
-623,-48,-34.0008,2.84558,0.00253486,0.00609563,0.00171274,0.00678571,0.00184477,1.18778,0.00405139,0.0123891,601,1072,-34.0008,-2.84553
-616,-48,-33.9883,3.10559,0.00284732,0.00316431,0.00049348,0.00352412,0.0024875,0.940785,0.00209134,0.0109949,608,1072,-33.9883,-3.10555
-609,-48,-33.9438,3.34338,0.00281516,0.000991808,-0.000363546,0.00288497,0.000921996,-0.189721,0.0017014,0.0121981,615,1072,-33.9439,-3.34335
-602,-48,-33.989,3.55359,0.00259153,-0.00022258,-0.00100663,0.00291454,-0.000545586,-0.310499,0.00214811,0.0128841,622,1072,-33.989,-3.55358
-595,-48,-34.0397,3.73315,0.00266537,-0.000724731,-0.00148168,0.00322167,-0.00128103,-0.359166,0.00267891,0.0294488,629,1072,-34.0397,-3.73312
-588,-48,-34.7236,0.619019,0,0,0,0,0,0,0,-1,636,1072,-34.7236,-0.619076
-581,-48,-34.7277,0.740356,0.00372103,-0.00139488,-0.00123891,0.00400526,-0.00167911,-0.225519,0.00337223,0.0467632,643,1072,-34.7277,-0.740318
-574,-48,-34.7061,1.0155,0.00410465,-0.00141881,-0.00114264,0.0043317,-0.00164586,-0.196148,0.00356538,0.0412385,650,1072,-34.7061,-1.01551
-567,-48,-34.6778,1.47803,0.0043402,-0.00127971,-0.00108701,0.00454313,-0.00148263,-0.184556,0.00362546,0.0414348,657,1072,-34.6778,-1.47805
-560,-48,-34.6082,0.830322,0.00443986,-0.00103854,-0.00108772,0.00464792,-0.0012466,-0.188999,0.00358709,0.042288,664,1072,-34.6082,-0.830311
-553,-48,-34.6771,0.592773,0.00450422,-0.000846952,-0.00113234,0.00473397,-0.0010767,-0.200177,0.00356943,0.0423187,671,1072,-34.6771,-0.592798
-546,-48,-34.7234,0.416382,0.00460941,-0.000949247,-0.00120005,0.00485742,-0.00119726,-0.203799,0.00370247,0.040934,678,1072,-34.7234,-0.416403
-539,-48,-34.5642,0.428223,0.00500762,-0.0018819,-0.00139819,0.00528056,-0.00215484,-0.192786,0.00441746,0.0402694,685,1072,-34.5642,-0.428232
-532,-48,-34.5606,0.746338,0.00558609,-0.00262716,-0.00133665,0.00579814,-0.00283921,-0.157335,0.00508338,0.0378803,692,1072,-34.5606,-0.746393
-525,-48,0,0,0,0,0,0,0,0,0,-1,699,1072,0,0
-518,-48,0,0,0,0,0,0,0,0,0,-1,706,1072,0,0
-511,-48,0,0,0,0,0,0,0,0,0,-1,713,1072,0,0
-504,-48,0,0,0,0,0,0,0,0,0,-1,720,1072,0,0
-497,-48,0,0,0,0,0,0,0,0,0,-1,727,1072,0,0
-490,-48,0,0,0,0,0,0,0,0,0,-1,734,1072,0,0
-483,-48,0,0,0,0,0,0,0,0,0,-1,741,1072,0,0
-476,-48,0,0,0,0,0,0,0,0,0,-1,748,1072,0,0
-469,-48,0,0,0,0,0,0,0,0,0,-1,755,1072,0,0
-462,-48,0,0,0,0,0,0,0,0,0,-1,762,1072,0,0
-455,-48,0,0,0,0,0,0,0,0,0,-1,769,1072,0,0
-448,-48,0,0,0,0,0,0,0,0,0,-1,776,1072,0,0
-441,-48,0,0,0,0,0,0,0,0,0,-1,783,1072,0,0
-434,-48,0,0,0,0,0,0,0,0,0,-1,790,1072,0,0
-427,-48,0,0,0,0,0,0,0,0,0,-1,797,1072,0,0
-420,-48,0,0,0,0,0,0,0,0,0,-1,804,1072,0,0
-413,-48,0,0,0,0,0,0,0,0,0,-1,811,1072,0,0
-406,-48,0,0,0,0,0,0,0,0,0,-1,818,1072,0,0
-399,-48,0,0,0,0,0,0,0,0,0,-1,825,1072,0,0
-392,-48,0,0,0,0,0,0,0,0,0,-1,832,1072,0,0
-385,-48,0,0,0,0,0,0,0,0,0,-1,839,1072,0,0
-378,-48,0,0,0,0,0,0,0,0,0,-1,846,1072,0,0
-371,-48,0,0,0,0,0,0,0,0,0,-1,853,1072,0,0
-364,-48,0,0,0,0,0,0,0,0,0,-1,860,1072,0,0
-357,-48,0,0,0,0,0,0,0,0,0,-1,867,1072,0,0
-350,-48,0,0,0,0,0,0,0,0,0,-1,874,1072,0,0
-343,-48,0,0,0,0,0,0,0,0,0,-1,881,1072,0,0
-336,-48,0,0,0,0,0,0,0,0,0,-1,888,1072,0,0
-329,-48,0,0,0,0,0,0,0,0,0,-1,895,1072,0,0
-322,-48,0,0,0,0,0,0,0,0,0,-1,902,1072,0,0
-315,-48,0,0,0,0,0,0,0,0,0,-1,909,1072,0,0
-308,-48,0,0,0,0,0,0,0,0,0,-1,916,1072,0,0
-301,-48,0,0,0,0,0,0,0,0,0,-1,923,1072,0,0
-294,-48,0,0,0,0,0,0,0,0,0,-1,930,1072,0,0
-287,-48,0,0,0,0,0,0,0,0,0,-1,937,1072,0,0
-280,-48,0,0,0,0,0,0,0,0,0,-1,944,1072,0,0
-273,-48,0,0,0,0,0,0,0,0,0,-1,951,1072,0,0
-266,-48,0,0,0,0,0,0,0,0,0,-1,958,1072,0,0
-259,-48,0,0,0,0,0,0,0,0,0,-1,965,1072,0,0
-252,-48,0,0,0,0,0,0,0,0,0,-1,972,1072,0,0
-245,-48,0,0,0,0,0,0,0,0,0,-1,979,1072,0,0
-238,-48,0,0,0,0,0,0,0,0,0,-1,986,1072,0,0
-231,-48,0,0,0,0,0,0,0,0,0,-1,993,1072,0,0
-224,-48,0,0,0,0,0,0,0,0,0,-1,1000,1072,0,0
-217,-48,0,0,0,0,0,0,0,0,0,-1,1007,1072,0,0
-210,-48,0,0,0,0,0,0,0,0,0,-1,1014,1072,0,0
-203,-48,0,0,0,0,0,0,0,0,0,-1,1021,1072,0,0
-196,-48,0,0,0,0,0,0,0,0,0,-1,1028,1072,0,0
-189,-48,0,0,0,0,0,0,0,0,0,-1,1035,1072,0,0
-182,-48,0,0,0,0,0,0,0,0,0,-1,1042,1072,0,0
-175,-48,0,0,0,0,0,0,0,0,0,-1,1049,1072,0,0
-168,-48,0,0,0,0,0,0,0,0,0,-1,1056,1072,0,0
-161,-48,0,0,0,0,0,0,0,0,0,-1,1063,1072,0,0
-154,-48,0,0,0,0,0,0,0,0,0,-1,1070,1072,0,0
-147,-48,0,0,0,0,0,0,0,0,0,-1,1077,1072,0,0
-140,-48,0,0,0,0,0,0,0,0,0,-1,1084,1072,0,0
-133,-48,0,0,0,0,0,0,0,0,0,-1,1091,1072,0,0
-126,-48,0,0,0,0,0,0,0,0,0,-1,1098,1072,0,0
-119,-48,0,0,0,0,0,0,0,0,0,-1,1105,1072,0,0
-112,-48,0,0,0,0,0,0,0,0,0,-1,1112,1072,0,0
-105,-48,0,0,0,0,0,0,0,0,0,-1,1119,1072,0,0
-98,-48,0,0,0,0,0,0,0,0,0,-1,1126,1072,0,0
-91,-48,0,0,0,0,0,0,0,0,0,-1,1133,1072,0,0
-84,-48,0,0,0,0,0,0,0,0,0,-1,1140,1072,0,0
-77,-48,0,0,0,0,0,0,0,0,0,-1,1147,1072,0,0
-70,-48,0,0,0,0,0,0,0,0,0,-1,1154,1072,0,0
-63,-48,0,0,0,0,0,0,0,0,0,-1,1161,1072,0,0
-56,-48,0,0,0,0,0,0,0,0,0,-1,1168,1072,0,0
-49,-48,0,0,0,0,0,0,0,0,0,-1,1175,1072,0,0
-42,-48,0,0,0,0,0,0,0,0,0,-1,1182,1072,0,0
-35,-48,0,0,0,0,0,0,0,0,0,-1,1189,1072,0,0
-28,-48,0,0,0,0,0,0,0,0,0,-1,1196,1072,0,0
-21,-48,0,0,0,0,0,0,0,0,0,-1,1203,1072,0,0
-14,-48,0,0,0,0,0,0,0,0,0,-1,1210,1072,0,0
-7,-48,0,0,0,0,0,0,0,0,0,-1,1217,1072,0,0
0,-48,0,0,0,0,0,0,0,0,0,-1,1224,1072,0,0
7,-48,0,0,0,0,0,0,0,0,0,-1,1231,1072,0,0
14,-48,0,0,0,0,0,0,0,0,0,-1,1238,1072,0,0
21,-48,0,0,0,0,0,0,0,0,0,-1,1245,1072,0,0
28,-48,0,0,0,0,0,0,0,0,0,-1,1252,1072,0,0
35,-48,0,0,0,0,0,0,0,0,0,-1,1259,1072,0,0
42,-48,0,0,0,0,0,0,0,0,0,-1,1266,1072,0,0
49,-48,0,0,0,0,0,0,0,0,0,-1,1273,1072,0,0
56,-48,0,0,0,0,0,0,0,0,0,-1,1280,1072,0,0
63,-48,0,0,0,0,0,0,0,0,0,-1,1287,1072,0,0
70,-48,0,0,0,0,0,0,0,0,0,-1,1294,1072,0,0
77,-48,0,0,0,0,0,0,0,0,0,-1,1301,1072,0,0
84,-48,0,0,0,0,0,0,0,0,0,-1,1308,1072,0,0
91,-48,0,0,0,0,0,0,0,0,0,-1,1315,1072,0,0
98,-48,0,0,0,0,0,0,0,0,0,-1,1322,1072,0,0
105,-48,0,0,0,0,0,0,0,0,0,-1,1329,1072,0,0
112,-48,0,0,0,0,0,0,0,0,0,-1,1336,1072,0,0
119,-48,0,0,0,0,0,0,0,0,0,-1,1343,1072,0,0
126,-48,0,0,0,0,0,0,0,0,0,-1,1350,1072,0,0
133,-48,0,0,0,0,0,0,0,0,0,-1,1357,1072,0,0
140,-48,0,0,0,0,0,0,0,0,0,-1,1364,1072,0,0
147,-48,0,0,0,0,0,0,0,0,0,-1,1371,1072,0,0
154,-48,0,0,0,0,0,0,0,0,0,-1,1378,1072,0,0
161,-48,0,0,0,0,0,0,0,0,0,-1,1385,1072,0,0
168,-48,0,0,0,0,0,0,0,0,0,-1,1392,1072,0,0
175,-48,0,0,0,0,0,0,0,0,0,-1,1399,1072,0,0
182,-48,0,0,0,0,0,0,0,0,0,-1,1406,1072,0,0
189,-48,0,0,0,0,0,0,0,0,0,-1,1413,1072,0,0
196,-48,0,0,0,0,0,0,0,0,0,-1,1420,1072,0,0
203,-48,0,0,0,0,0,0,0,0,0,-1,1427,1072,0,0
210,-48,0,0,0,0,0,0,0,0,0,-1,1434,1072,0,0
217,-48,0,0,0,0,0,0,0,0,0,-1,1441,1072,0,0
224,-48,0,0,0,0,0,0,0,0,0,-1,1448,1072,0,0
231,-48,0,0,0,0,0,0,0,0,0,-1,1455,1072,0,0
238,-48,0,0,0,0,0,0,0,0,0,-1,1462,1072,0,0
245,-48,0,0,0,0,0,0,0,0,0,-1,1469,1072,0,0
252,-48,0,0,0,0,0,0,0,0,0,-1,1476,1072,0,0
259,-48,0,0,0,0,0,0,0,0,0,-1,1483,1072,0,0
266,-48,0,0,0,0,0,0,0,0,0,-1,1490,1072,0,0
273,-48,0,0,0,0,0,0,0,0,0,-1,1497,1072,0,0
280,-48,0,0,0,0,0,0,0,0,0,-1,1504,1072,0,0
287,-48,0,0,0,0,0,0,0,0,0,-1,1511,1072,0,0
294,-48,0,0,0,0,0,0,0,0,0,-1,1518,1072,0,0
301,-48,0,0,0,0,0,0,0,0,0,-1,1525,1072,0,0
308,-48,0,0,0,0,0,0,0,0,0,-1,1532,1072,0,0
315,-48,0,0,0,0,0,0,0,0,0,-1,1539,1072,0,0
322,-48,0,0,0,0,0,0,0,0,0,-1,1546,1072,0,0
329,-48,0,0,0,0,0,0,0,0,0,-1,1553,1072,0,0
336,-48,0,0,0,0,0,0,0,0,0,-1,1560,1072,0,0
343,-48,0,0,0,0,0,0,0,0,0,-1,1567,1072,0,0
350,-48,0,0,0,0,0,0,0,0,0,-1,1574,1072,0,0
357,-48,0,0,0,0,0,0,0,0,0,-1,1581,1072,0,0
364,-48,0,0,0,0,0,0,0,0,0,-1,1588,1072,0,0
371,-48,0,0,0,0,0,0,0,0,0,-1,1595,1072,0,0
378,-48,0,0,0,0,0,0,0,0,0,-1,1602,1072,0,0
385,-48,0,0,0,0,0,0,0,0,0,-1,1609,1072,0,0
392,-48,0,0,0,0,0,0,0,0,0,-1,1616,1072,0,0
399,-48,0,0,0,0,0,0,0,0,0,-1,1623,1072,0,0
406,-48,0,0,0,0,0,0,0,0,0,-1,1630,1072,0,0
413,-48,0,0,0,0,0,0,0,0,0,-1,1637,1072,0,0
420,-48,0,0,0,0,0,0,0,0,0,-1,1644,1072,0,0
427,-48,0,0,0,0,0,0,0,0,0,-1,1651,1072,0,0
434,-48,0,0,0,0,0,0,0,0,0,-1,1658,1072,0,0
441,-48,0,0,0,0,0,0,0,0,0,-1,1665,1072,0,0
448,-48,0,0,0,0,0,0,0,0,0,-1,1672,1072,0,0
455,-48,0,0,0,0,0,0,0,0,0,-1,1679,1072,0,0
462,-48,0,0,0,0,0,0,0,0,0,-1,1686,1072,0,0
469,-48,0,0,0,0,0,0,0,0,0,-1,1693,1072,0,0
476,-48,0,0,0,0,0,0,0,0,0,-1,1700,1072,0,0
483,-48,0,0,0,0,0,0,0,0,0,-1,1707,1072,0,0
490,-48,0,0,0,0,0,0,0,0,0,-1,1714,1072,0,0
497,-48,0,0,0,0,0,0,0,0,0,-1,1721,1072,0,0
504,-48,0,0,0,0,0,0,0,0,0,-1,1728,1072,0,0
511,-48,0,0,0,0,0,0,0,0,0,-1,1735,1072,0,0
518,-48,0,0,0,0,0,0,0,0,0,-1,1742,1072,0,0
525,-48,0,0,0,0,0,0,0,0,0,-1,1749,1072,0,0
532,-48,0,0,0,0,0,0,0,0,0,-1,1756,1072,0,0
539,-48,0,0,0,0,0,0,0,0,0,-1,1763,1072,0,0
546,-48,0,0,0,0,0,0,0,0,0,-1,1770,1072,0,0
553,-48,0,0,0,0,0,0,0,0,0,-1,1777,1072,0,0
560,-48,0,0,0,0,0,0,0,0,0,-1,1784,1072,0,0
567,-48,0,0,0,0,0,0,0,0,0,-1,1791,1072,0,0
574,-48,0,0,0,0,0,0,0,0,0,-1,1798,1072,0,0
581,-48,0,0,0,0,0,0,0,0,0,-1,1805,1072,0,0
588,-48,0,0,0,0,0,0,0,0,0,-1,1812,1072,0,0
595,-48,0,0,0,0,0,0,0,0,0,-1,1819,1072,0,0
602,-48,0,0,0,0,0,0,0,0,0,-1,1826,1072,0,0
609,-48,0,0,0,0,0,0,0,0,0,-1,1833,1072,0,0
616,-48,0,0,0,0,0,0,0,0,0,-1,1840,1072,0,0
623,-48,0,0,0,0,0,0,0,0,0,-1,1847,1072,0,0
630,-48,0,0,0,0,0,0,0,0,0,-1,1854,1072,0,0
637,-48,0,0,0,0,0,0,0,0,0,-1,1861,1072,0,0
644,-48,0,0,0,0,0,0,0,0,0,-1,1868,1072,0,0
651,-48,46.6249,2.68677,-0.000648722,-0.00288766,0.000421861,-0.000571873,-0.00296451,0.180192,0.00181598,0.0337039,1875,1072,46.6249,-2.68671
658,-48,46.515,2.61536,-0.000841559,-0.00196867,0.000822081,-0.000408415,-0.00240182,0.484926,0.00148393,0.0375959,1882,1072,46.5151,-2.61534
665,-48,46.5288,2.59644,-0.00085271,-0.00129501,0.00113296,8.04777e-05,-0.0022282,0.689011,0.001513,0.0441379,1889,1072,46.5288,-2.59641
672,-48,46.5544,2.68604,-0.00067924,-0.000721386,0.00144187,0.000741711,-0.00214234,0.778091,0.00172932,0.0423378,1896,1072,46.5544,-2.68599
679,-48,46.6025,2.73608,-0.000518058,-0.000261106,0.00169431,0.0013096,-0.00208876,0.82324,0.00197916,0.0396823,1903,1072,46.6025,-2.73612
686,-48,46.4868,2.90332,-0.000568864,-0.000193044,0.00192191,0.00155012,-0.00231203,0.83413,0.00224423,0.040826,1910,1072,46.4868,-2.90326
693,-48,46.5356,2.79419,-0.000611056,-0.000320996,0.00211755,0.00165649,-0.00258854,0.81959,0.00247048,0.0418294,1917,1072,46.5356,-2.79422
700,-48,46.5535,2.66528,-0.000632653,-0.000408985,0.00228933,0.00177124,-0.00281288,0.809804,0.00266932,0.038263,1924,1072,46.5535,-2.6653
707,-48,46.6101,2.63281,-0.000828851,-0.000386521,0.00247767,0.00187984,-0.00309521,0.829912,0.00290077,0.0302957,1931,1072,46.6101,-2.63276
714,-48,46.6112,2.80457,-0.00120671,-0.000256301,0.00268369,0.00199393,-0.00345694,0.873025,0.00318462,0.0367276,1938,1072,46.6112,-2.80453
721,-48,46.6066,3.13879,0,0,0,0,0,0,0,-1,1945,1072,46.6065,-3.13874
728,-48,45.8187,6.26782,0,0,0,0,0,0,0,-1,1952,1072,45.8188,-6.26785
735,-48,45.6897,6.0907,-0.00224945,0.000988896,0.00262788,0.00245638,-0.00371694,1.0615,0.00358885,0.0211516,1959,1072,45.6897,-6.09068
742,-48,45.5621,5.88965,-0.00172279,0.00199623,0.00279315,0.00349223,-0.00321879,1.07908,0.00387568,0.0175429,1966,1072,45.5622,-5.88959
749,-48,45.5901,5.70728,-0.000495824,0.00318684,0.00286554,0.00475166,-0.00206064,1.07097,0.00403407,0.0149692,1973,1072,45.5901,-5.70731
756,-48,45.5948,5.54065,0.000402247,0.00519388,0.00307376,0.00669523,-0.00109911,1.11644,0.00487136,0.0131999,1980,1072,45.5948,-5.54069
763,-48,45.5437,5.36365,0.000918405,0.00667498,0.00204129,0.00732535,0.000268037,1.26236,0.00479672,0.0127,1987,1072,45.5437,-5.36369
770,-48,45.5155,5.16846,0.00260515,0.00904015,0.00118957,0.00925301,0.00239229,1.39373,0.00554599,0.0141637,1994,1072,45.5156,-5.16849
777,-48,45.4152,4.97766,0.00464824,0.0114924,-7.46348e-05,0.0114932,0.00464743,-1.55989,0.00667596,0.0127929,2001,1072,45.4152,-4.9777
784,-48,45.335,4.776,0.00611465,0.0134003,-0.00188363,0.0138585,0.00565647,-1.33219,0.00804608,0.0230518,2008,1072,45.3349,-4.77601
791,-48,45.2844,4.58203,0.00647661,0.014382,-0.00454042,0.0164492,0.00440941,-1.14355,0.00983167,0.040061,2015,1072,45.2843,-4.58199
798,-48,45.2444,4.37036,0.00494675,0.0138463,-0.00855605,0.0190405,-0.00024746,-1.02519,0.012777,0.0484336,2022,1072,45.2444,-4.37034
805,-48,45.2007,4.13086,0,0,0,0,0,0,0,-1,2029,1072,45.2007,-4.1308
812,-48,45.1528,3.92615,0,0,0,0,0,0,0,-1,2036,1072,45.1529,-3.9261
-700,-55,-31.6319,-3.2439,0,0,0,0,0,0,0,-1,524,1079,-31.6319,3.24393
-693,-55,-31.6023,-2.54395,0,0,0,0,0,0,0,-1,531,1079,-31.6023,2.54391
-686,-55,-33.6945,-2.15674,0,0,0,0,0,0,0,-1,538,1079,-33.6945,2.15678
-679,-55,-33.9619,-1.73889,-0.0125352,0.0338123,0.0293605,0.0480426,-0.0267655,1.11948,0.043769,0.0462127,545,1079,-33.9619,1.7389
-672,-55,-34.2288,-0.959717,-0.00744785,0.0328187,0.0249926,0.0447787,-0.0194078,1.12446,0.0380108,0.0484986,552,1079,-34.2288,0.959704
-665,-55,-34.1406,-0.24231,-0.00377207,0.0301709,0.0205927,0.0398845,-0.0134856,1.13004,0.0320451,0.047507,559,1079,-34.1406,0.242329
-658,-55,-34.0284,0.417725,-0.00126274,0.0264498,0.0163951,0.0340597,-0.00887262,1.13623,0.0261702,0.0463489,566,1079,-34.0284,-0.417678
-651,-55,-33.7557,1.19202,0.00032863,0.0221371,0.0125425,0.0278527,-0.00538689,1.14322,0.0206002,0.0368293,573,1079,-33.7557,-1.19201
-644,-55,-33.6668,1.99585,0.0016494,0.0184296,0.00921202,0.0224996,-0.00242064,1.15477,0.0158683,0.0228482,580,1079,-33.6668,-1.99587
-637,-55,-33.676,2.24524,0.00220553,0.0135995,0.00569399,0.0159572,-0.000152119,1.17823,0.0106892,0.018466,587,1079,-33.676,-2.24526
-630,-55,-33.6675,2.54102,0.00228496,0.00897226,0.00309402,0.0101842,0.00107306,1.19748,0.00646152,0.0203714,594,1079,-33.6676,-2.54104
-623,-55,-33.7817,2.84875,0.00257106,0.0054711,0.00166916,0.00623211,0.00181004,1.14303,0.00370196,0.0181233,601,1079,-33.7818,-2.84872
-616,-55,-33.8045,3.09204,0.00274959,0.00270849,0.000761618,0.00349094,0.00196715,0.77191,0.00202091,0.0163482,608,1079,-33.8045,-3.09201
-609,-55,-33.7566,3.3844,0.00278773,0.000680592,0.000159243,0.00279969,0.000668626,0.0750053,0.00168831,0.0164659,615,1079,-33.7566,-3.3844
-602,-55,-33.7347,3.62646,0.00262401,-0.000300912,-0.000288956,0.00265229,-0.000329185,-0.0975348,0.00188751,0.0141795,622,1079,-33.7347,-3.62649
-595,-55,-33.6498,3.88379,0.00272744,-0.000727864,-0.000611122,0.00283234,-0.000832765,-0.169997,0.00221854,0.0304595,629,1079,-33.6498,-3.88378
-588,-55,-33.6589,4.20435,0,0,0,0,0,0,0,-1,636,1079,-33.659,-4.20435
-581,-55,-34.7288,0.639282,0,0,0,0,0,0,0,-1,643,1079,-34.7288,-0.63929
-574,-55,-34.6691,0.900269,0.00435569,-0.00153614,-0.000221853,0.00436404,-0.00154449,-0.0375834,0.00353839,0.0406952,650,1079,-34.6691,-0.90029
-567,-55,-34.5161,0.899902,0.0047099,-0.00146668,-0.000183758,0.00471536,-0.00147214,-0.0297157,0.00373235,0.0390752,657,1079,-34.516,-0.899908
-560,-55,-34.6816,1.07361,0.00497206,-0.00131052,-0.000237329,0.00498101,-0.00131947,-0.0377042,0.00383688,0.0419669,664,1079,-34.6816,-1.07362
-553,-55,-34.7162,0.797607,0.00526136,-0.00121437,-0.000380896,0.00528369,-0.00123669,-0.05855,0.00399895,0.0415538,671,1079,-34.7162,-0.797595
-546,-55,-34.6658,0.56604,0.00575204,-0.00140846,-0.000607452,0.00580321,-0.00145963,-0.0840334,0.00443613,0.0386067,678,1079,-34.6658,-0.566013
-539,-55,-34.4548,0.5979,0.00687118,-0.00244304,-0.000968857,0.00697089,-0.00254275,-0.102556,0.00568758,0.0393311,685,1079,-34.4548,-0.59785
-532,-55,-34.4331,0.896973,0.00806927,-0.00326515,-0.000756468,0.00811953,-0.00331541,-0.0663486,0.00679341,0.0389826,692,1079,-34.4331,-0.897018
-525,-55,0,0,0,0,0,0,0,0,0,-1,699,1079,0,0
-518,-55,0,0,0,0,0,0,0,0,0,-1,706,1079,0,0
-511,-55,0,0,0,0,0,0,0,0,0,-1,713,1079,0,0
-504,-55,0,0,0,0,0,0,0,0,0,-1,720,1079,0,0
-497,-55,0,0,0,0,0,0,0,0,0,-1,727,1079,0,0
-490,-55,0,0,0,0,0,0,0,0,0,-1,734,1079,0,0
-483,-55,0,0,0,0,0,0,0,0,0,-1,741,1079,0,0
-476,-55,0,0,0,0,0,0,0,0,0,-1,748,1079,0,0
-469,-55,0,0,0,0,0,0,0,0,0,-1,755,1079,0,0
-462,-55,0,0,0,0,0,0,0,0,0,-1,762,1079,0,0
-455,-55,0,0,0,0,0,0,0,0,0,-1,769,1079,0,0
-448,-55,0,0,0,0,0,0,0,0,0,-1,776,1079,0,0
-441,-55,0,0,0,0,0,0,0,0,0,-1,783,1079,0,0
-434,-55,0,0,0,0,0,0,0,0,0,-1,790,1079,0,0
-427,-55,0,0,0,0,0,0,0,0,0,-1,797,1079,0,0
-420,-55,0,0,0,0,0,0,0,0,0,-1,804,1079,0,0
-413,-55,0,0,0,0,0,0,0,0,0,-1,811,1079,0,0
-406,-55,0,0,0,0,0,0,0,0,0,-1,818,1079,0,0
-399,-55,0,0,0,0,0,0,0,0,0,-1,825,1079,0,0
-392,-55,0,0,0,0,0,0,0,0,0,-1,832,1079,0,0
-385,-55,0,0,0,0,0,0,0,0,0,-1,839,1079,0,0
-378,-55,0,0,0,0,0,0,0,0,0,-1,846,1079,0,0
-371,-55,0,0,0,0,0,0,0,0,0,-1,853,1079,0,0
-364,-55,0,0,0,0,0,0,0,0,0,-1,860,1079,0,0
-357,-55,0,0,0,0,0,0,0,0,0,-1,867,1079,0,0
-350,-55,0,0,0,0,0,0,0,0,0,-1,874,1079,0,0
-343,-55,0,0,0,0,0,0,0,0,0,-1,881,1079,0,0
-336,-55,0,0,0,0,0,0,0,0,0,-1,888,1079,0,0
-329,-55,0,0,0,0,0,0,0,0,0,-1,895,1079,0,0
-322,-55,0,0,0,0,0,0,0,0,0,-1,902,1079,0,0
-315,-55,0,0,0,0,0,0,0,0,0,-1,909,1079,0,0
-308,-55,0,0,0,0,0,0,0,0,0,-1,916,1079,0,0
-301,-55,0,0,0,0,0,0,0,0,0,-1,923,1079,0,0
-294,-55,0,0,0,0,0,0,0,0,0,-1,930,1079,0,0
-287,-55,0,0,0,0,0,0,0,0,0,-1,937,1079,0,0
-280,-55,0,0,0,0,0,0,0,0,0,-1,944,1079,0,0
-273,-55,0,0,0,0,0,0,0,0,0,-1,951,1079,0,0
-266,-55,0,0,0,0,0,0,0,0,0,-1,958,1079,0,0
-259,-55,0,0,0,0,0,0,0,0,0,-1,965,1079,0,0
-252,-55,0,0,0,0,0,0,0,0,0,-1,972,1079,0,0
-245,-55,0,0,0,0,0,0,0,0,0,-1,979,1079,0,0
-238,-55,0,0,0,0,0,0,0,0,0,-1,986,1079,0,0
-231,-55,0,0,0,0,0,0,0,0,0,-1,993,1079,0,0
-224,-55,0,0,0,0,0,0,0,0,0,-1,1000,1079,0,0
-217,-55,0,0,0,0,0,0,0,0,0,-1,1007,1079,0,0
-210,-55,0,0,0,0,0,0,0,0,0,-1,1014,1079,0,0
-203,-55,0,0,0,0,0,0,0,0,0,-1,1021,1079,0,0
-196,-55,0,0,0,0,0,0,0,0,0,-1,1028,1079,0,0
-189,-55,0,0,0,0,0,0,0,0,0,-1,1035,1079,0,0
-182,-55,0,0,0,0,0,0,0,0,0,-1,1042,1079,0,0
-175,-55,0,0,0,0,0,0,0,0,0,-1,1049,1079,0,0
-168,-55,0,0,0,0,0,0,0,0,0,-1,1056,1079,0,0
-161,-55,0,0,0,0,0,0,0,0,0,-1,1063,1079,0,0
-154,-55,0,0,0,0,0,0,0,0,0,-1,1070,1079,0,0
-147,-55,0,0,0,0,0,0,0,0,0,-1,1077,1079,0,0
-140,-55,0,0,0,0,0,0,0,0,0,-1,1084,1079,0,0
-133,-55,0,0,0,0,0,0,0,0,0,-1,1091,1079,0,0
-126,-55,0,0,0,0,0,0,0,0,0,-1,1098,1079,0,0
-119,-55,0,0,0,0,0,0,0,0,0,-1,1105,1079,0,0
-112,-55,0,0,0,0,0,0,0,0,0,-1,1112,1079,0,0
-105,-55,0,0,0,0,0,0,0,0,0,-1,1119,1079,0,0
-98,-55,0,0,0,0,0,0,0,0,0,-1,1126,1079,0,0
-91,-55,0,0,0,0,0,0,0,0,0,-1,1133,1079,0,0
-84,-55,0,0,0,0,0,0,0,0,0,-1,1140,1079,0,0
-77,-55,0,0,0,0,0,0,0,0,0,-1,1147,1079,0,0
-70,-55,0,0,0,0,0,0,0,0,0,-1,1154,1079,0,0
-63,-55,0,0,0,0,0,0,0,0,0,-1,1161,1079,0,0
-56,-55,0,0,0,0,0,0,0,0,0,-1,1168,1079,0,0
-49,-55,0,0,0,0,0,0,0,0,0,-1,1175,1079,0,0
-42,-55,0,0,0,0,0,0,0,0,0,-1,1182,1079,0,0
-35,-55,0,0,0,0,0,0,0,0,0,-1,1189,1079,0,0
-28,-55,0,0,0,0,0,0,0,0,0,-1,1196,1079,0,0
-21,-55,0,0,0,0,0,0,0,0,0,-1,1203,1079,0,0
-14,-55,0,0,0,0,0,0,0,0,0,-1,1210,1079,0,0
-7,-55,0,0,0,0,0,0,0,0,0,-1,1217,1079,0,0
0,-55,0,0,0,0,0,0,0,0,0,-1,1224,1079,0,0
7,-55,0,0,0,0,0,0,0,0,0,-1,1231,1079,0,0
14,-55,0,0,0,0,0,0,0,0,0,-1,1238,1079,0,0
21,-55,0,0,0,0,0,0,0,0,0,-1,1245,1079,0,0
28,-55,0,0,0,0,0,0,0,0,0,-1,1252,1079,0,0
35,-55,0,0,0,0,0,0,0,0,0,-1,1259,1079,0,0
42,-55,0,0,0,0,0,0,0,0,0,-1,1266,1079,0,0
49,-55,0,0,0,0,0,0,0,0,0,-1,1273,1079,0,0
56,-55,0,0,0,0,0,0,0,0,0,-1,1280,1079,0,0
63,-55,0,0,0,0,0,0,0,0,0,-1,1287,1079,0,0
70,-55,0,0,0,0,0,0,0,0,0,-1,1294,1079,0,0
77,-55,0,0,0,0,0,0,0,0,0,-1,1301,1079,0,0
84,-55,0,0,0,0,0,0,0,0,0,-1,1308,1079,0,0
91,-55,0,0,0,0,0,0,0,0,0,-1,1315,1079,0,0
98,-55,0,0,0,0,0,0,0,0,0,-1,1322,1079,0,0
105,-55,0,0,0,0,0,0,0,0,0,-1,1329,1079,0,0
112,-55,0,0,0,0,0,0,0,0,0,-1,1336,1079,0,0
119,-55,0,0,0,0,0,0,0,0,0,-1,1343,1079,0,0
126,-55,0,0,0,0,0,0,0,0,0,-1,1350,1079,0,0
133,-55,0,0,0,0,0,0,0,0,0,-1,1357,1079,0,0
140,-55,0,0,0,0,0,0,0,0,0,-1,1364,1079,0,0
147,-55,0,0,0,0,0,0,0,0,0,-1,1371,1079,0,0
154,-55,0,0,0,0,0,0,0,0,0,-1,1378,1079,0,0
161,-55,0,0,0,0,0,0,0,0,0,-1,1385,1079,0,0
168,-55,0,0,0,0,0,0,0,0,0,-1,1392,1079,0,0
175,-55,0,0,0,0,0,0,0,0,0,-1,1399,1079,0,0
182,-55,0,0,0,0,0,0,0,0,0,-1,1406,1079,0,0
189,-55,0,0,0,0,0,0,0,0,0,-1,1413,1079,0,0
196,-55,0,0,0,0,0,0,0,0,0,-1,1420,1079,0,0
203,-55,0,0,0,0,0,0,0,0,0,-1,1427,1079,0,0
210,-55,0,0,0,0,0,0,0,0,0,-1,1434,1079,0,0
217,-55,0,0,0,0,0,0,0,0,0,-1,1441,1079,0,0
224,-55,0,0,0,0,0,0,0,0,0,-1,1448,1079,0,0
231,-55,0,0,0,0,0,0,0,0,0,-1,1455,1079,0,0
238,-55,0,0,0,0,0,0,0,0,0,-1,1462,1079,0,0
245,-55,0,0,0,0,0,0,0,0,0,-1,1469,1079,0,0
252,-55,0,0,0,0,0,0,0,0,0,-1,1476,1079,0,0
259,-55,0,0,0,0,0,0,0,0,0,-1,1483,1079,0,0
266,-55,0,0,0,0,0,0,0,0,0,-1,1490,1079,0,0
273,-55,0,0,0,0,0,0,0,0,0,-1,1497,1079,0,0
280,-55,0,0,0,0,0,0,0,0,0,-1,1504,1079,0,0
287,-55,0,0,0,0,0,0,0,0,0,-1,1511,1079,0,0
294,-55,0,0,0,0,0,0,0,0,0,-1,1518,1079,0,0
301,-55,0,0,0,0,0,0,0,0,0,-1,1525,1079,0,0
308,-55,0,0,0,0,0,0,0,0,0,-1,1532,1079,0,0
315,-55,0,0,0,0,0,0,0,0,0,-1,1539,1079,0,0
322,-55,0,0,0,0,0,0,0,0,0,-1,1546,1079,0,0
329,-55,0,0,0,0,0,0,0,0,0,-1,1553,1079,0,0
336,-55,0,0,0,0,0,0,0,0,0,-1,1560,1079,0,0
343,-55,0,0,0,0,0,0,0,0,0,-1,1567,1079,0,0
350,-55,0,0,0,0,0,0,0,0,0,-1,1574,1079,0,0
357,-55,0,0,0,0,0,0,0,0,0,-1,1581,1079,0,0
364,-55,0,0,0,0,0,0,0,0,0,-1,1588,1079,0,0
371,-55,0,0,0,0,0,0,0,0,0,-1,1595,1079,0,0
378,-55,0,0,0,0,0,0,0,0,0,-1,1602,1079,0,0
385,-55,0,0,0,0,0,0,0,0,0,-1,1609,1079,0,0
392,-55,0,0,0,0,0,0,0,0,0,-1,1616,1079,0,0
399,-55,0,0,0,0,0,0,0,0,0,-1,1623,1079,0,0
406,-55,0,0,0,0,0,0,0,0,0,-1,1630,1079,0,0
413,-55,0,0,0,0,0,0,0,0,0,-1,1637,1079,0,0
420,-55,0,0,0,0,0,0,0,0,0,-1,1644,1079,0,0
427,-55,0,0,0,0,0,0,0,0,0,-1,1651,1079,0,0
434,-55,0,0,0,0,0,0,0,0,0,-1,1658,1079,0,0
441,-55,0,0,0,0,0,0,0,0,0,-1,1665,1079,0,0
448,-55,0,0,0,0,0,0,0,0,0,-1,1672,1079,0,0
455,-55,0,0,0,0,0,0,0,0,0,-1,1679,1079,0,0
462,-55,0,0,0,0,0,0,0,0,0,-1,1686,1079,0,0
469,-55,0,0,0,0,0,0,0,0,0,-1,1693,1079,0,0
476,-55,0,0,0,0,0,0,0,0,0,-1,1700,1079,0,0
483,-55,0,0,0,0,0,0,0,0,0,-1,1707,1079,0,0
490,-55,0,0,0,0,0,0,0,0,0,-1,1714,1079,0,0
497,-55,0,0,0,0,0,0,0,0,0,-1,1721,1079,0,0
504,-55,0,0,0,0,0,0,0,0,0,-1,1728,1079,0,0
511,-55,0,0,0,0,0,0,0,0,0,-1,1735,1079,0,0
518,-55,0,0,0,0,0,0,0,0,0,-1,1742,1079,0,0
525,-55,0,0,0,0,0,0,0,0,0,-1,1749,1079,0,0
532,-55,0,0,0,0,0,0,0,0,0,-1,1756,1079,0,0
539,-55,0,0,0,0,0,0,0,0,0,-1,1763,1079,0,0
546,-55,0,0,0,0,0,0,0,0,0,-1,1770,1079,0,0
553,-55,0,0,0,0,0,0,0,0,0,-1,1777,1079,0,0
560,-55,0,0,0,0,0,0,0,0,0,-1,1784,1079,0,0
567,-55,0,0,0,0,0,0,0,0,0,-1,1791,1079,0,0
574,-55,0,0,0,0,0,0,0,0,0,-1,1798,1079,0,0
581,-55,0,0,0,0,0,0,0,0,0,-1,1805,1079,0,0
588,-55,0,0,0,0,0,0,0,0,0,-1,1812,1079,0,0
595,-55,0,0,0,0,0,0,0,0,0,-1,1819,1079,0,0
602,-55,0,0,0,0,0,0,0,0,0,-1,1826,1079,0,0
609,-55,0,0,0,0,0,0,0,0,0,-1,1833,1079,0,0
616,-55,0,0,0,0,0,0,0,0,0,-1,1840,1079,0,0
623,-55,0,0,0,0,0,0,0,0,0,-1,1847,1079,0,0
630,-55,0,0,0,0,0,0,0,0,0,-1,1854,1079,0,0
637,-55,0,0,0,0,0,0,0,0,0,-1,1861,1079,0,0
644,-55,0,0,0,0,0,0,0,0,0,-1,1868,1079,0,0
651,-55,46.6184,2.70435,0.000708698,-0.00263144,-0.000138915,0.000714466,-0.0026372,-0.0414941,0.00203846,0.0353291,1875,1079,46.6184,-2.70431
658,-55,46.6521,2.74329,8.10491e-05,-0.00159394,0.000305272,0.000134951,-0.00164784,0.17477,0.0011462,0.034811,1882,1079,46.6521,-2.74323
665,-55,46.5665,2.64893,-0.000210452,-0.00087138,0.000680816,0.000215865,-0.0012977,0.559451,0.000945337,0.0390635,1889,1079,46.5666,-2.64894
672,-55,46.5138,2.61975,-0.000230421,-0.000264505,0.00105863,0.000811306,-0.00130623,0.77735,0.00123364,0.038904,1896,1079,46.5138,-2.61972
679,-55,46.5497,2.6283,-0.000233453,0.000190333,0.0013846,0.00137916,-0.00142228,0.861327,0.00161747,0.037801,1903,1079,46.5496,-2.62826
686,-55,46.5887,2.86841,-0.000389443,0.000217028,0.0016821,0.001623,-0.00179542,0.874577,0.00197446,0.0387455,1910,1079,46.5888,-2.86837
693,-55,46.6154,2.83789,-0.000484297,3.72144e-05,0.0019206,0.00171468,-0.00216177,0.852869,0.00224303,0.0393398,1917,1079,46.6154,-2.83794
700,-55,46.5922,2.70386,-0.000543817,-9.74607e-05,0.00211564,0.00180674,-0.00244802,0.837949,0.00246577,0.0361912,1924,1079,46.5921,-2.7039
707,-55,46.6034,2.67896,-0.000780767,-0.000136367,0.00235025,0.00191367,-0.0028308,0.853519,0.00275623,0.0302811,1931,1079,46.6034,-2.67896
714,-55,46.6146,2.90491,-0.00116515,-8.0435e-05,0.00259696,0.00203019,-0.00327578,0.888341,0.00309142,0.0463032,1938,1079,46.6146,-2.90491
721,-55,46.6925,3.33386,0,0,0,0,0,0,0,-1,1945,1079,46.6925,-3.33385
728,-55,45.4906,6.37451,0,0,0,0,0,0,0,-1,1952,1079,45.4906,-6.37449
735,-55,45.3993,6.14758,-0.00207607,0.000855847,0.00267398,0.00243934,-0.00365957,1.03614,0.00354462,0.0206956,1959,1079,45.3993,-6.14756
742,-55,45.3928,5.93213,-0.00150528,0.00174549,0.00284019,0.0033925,-0.00315228,1.04529,0.00377948,0.0207371,1966,1079,45.3928,-5.93211
749,-55,45.4058,5.71765,-0.000205221,0.00296535,0.00296119,0.00473891,-0.00197877,1.03116,0.00398609,0.0141578,1973,1079,45.4058,-5.71762
756,-55,45.3467,5.52856,0.000784907,0.00496623,0.00319645,0.00669501,-0.000943881,1.07501,0.00480895,0.0118927,1980,1079,45.3467,-5.52855
763,-55,45.3019,5.34583,0.00147321,0.00654597,0.0021475,0.007333,0.000686192,1.21951,0.00467674,0.014208,1987,1079,45.3019,-5.34578
770,-55,45.2656,5.13745,0.00338092,0.00906626,0.00126295,0.00933419,0.003113,1.36175,0.00548779,0.0156658,1994,1079,45.2656,-5.13745
777,-55,45.2128,4.9165,0.00566684,0.0118128,-6.38886e-05,0.0118135,0.00566617,-1.5604,0.00682242,0.013201,2001,1079,45.2127,-4.91646
784,-55,45.1357,4.67664,0.00743803,0.0141716,-0.00198975,0.0147156,0.00689402,-1.30391,0.00850171,0.0279848,2008,1079,45.1357,-4.67666
791,-55,45.0723,4.48865,0.00819912,0.0158353,-0.00484255,0.0181839,0.00585052,-1.11923,0.0107186,0.0423912,2015,1079,45.0722,-4.48859
798,-55,45.0051,4.26746,0.00724744,0.0163071,-0.0091517,0.0219887,0.00156585,-1.01521,0.014166,0.0496285,2022,1079,45.0052,-4.26741
805,-55,44.9949,4.06262,0,0,0,0,0,0,0,-1,2029,1079,44.9949,-4.06267
812,-55,44.9531,3.70471,0,0,0,0,0,0,0,-1,2036,1079,44.9531,-3.70477
-700,-62,-37.2557,3.17371,0,0,0,0,0,0,0,-1,524,1086,-37.2557,-3.17374
-693,-62,-36.6985,2.5509,0,0,0,0,0,0,0,-1,531,1086,-36.6985,-2.55092
-686,-62,-32.0672,-1.78955,0,0,0,0,0,0,0,-1,538,1086,-32.0672,1.78959
-679,-62,-32.9888,-1.29065,-0.0124176,0.0402323,0.023541,0.0492228,-0.0214081,1.20598,0.0418195,0.044148,545,1086,-32.9888,1.29063
-672,-62,-33.9723,-0.813232,-0.00794387,0.037106,0.0198465,0.044602,-0.0154398,1.20966,0.0360023,0.0472798,552,1086,-33.9723,0.813194
-665,-62,-34.1705,-0.227783,-0.0046301,0.0327547,0.0162479,0.0388292,-0.0107046,1.21302,0.0300957,0.0473374,559,1086,-34.1705,0.227732
-658,-62,-33.8666,0.444092,-0.00227766,0.0277789,0.0128864,0.0325473,-0.00704603,1.21639,0.0243885,0.0452132,566,1086,-33.8666,-0.444135
-651,-62,-33.4563,1.38232,-0.000664154,0.0226215,0.00983475,0.0262194,-0.00426198,1.22009,0.0190597,0.0395057,573,1086,-33.4563,-1.38229
-644,-62,-33.3914,1.93201,0.000732947,0.0182319,0.00721881,0.0208254,-0.00186062,1.22588,0.0145436,0.015498,580,1086,-33.3914,-1.93199
-637,-62,-33.4243,2.24744,0.00140187,0.0131138,0.00448043,0.0146312,-0.000115544,1.24425,0.00979285,0.013981,587,1086,-33.4243,-2.24747
-630,-62,-33.4645,2.5426,0.00169862,0.00839973,0.00247859,0.00921687,0.000881482,1.25234,0.00587284,0.015221,594,1086,-33.4645,-2.54266
-623,-62,-33.5092,2.85229,0.00224374,0.00488555,0.00143662,0.00551622,0.00161307,1.15713,0.003275,0.017436,601,1086,-33.5092,-2.85231
-616,-62,-33.5139,3.15698,0.00259857,0.00228615,0.000851928,0.00330849,0.00157623,0.694724,0.00191087,0.0171524,608,1086,-33.5139,-3.15693
-609,-62,-33.4857,3.44629,0.00276454,0.00041943,0.000491512,0.00286339,0.000320581,0.198465,0.00181155,0.0164421,615,1086,-33.4857,-3.44626
-602,-62,-33.413,3.69299,0.00269657,-0.000329532,0.000198897,0.00270959,-0.000342549,0.0653523,0.00193073,0.0154217,622,1086,-33.413,-3.69302
-595,-62,-33.2889,3.9939,0.00279841,-0.000623161,1.67382e-05,0.00279849,-0.000623243,0.00489182,0.0021044,0.0334643,629,1086,-33.2889,-3.99391
-588,-62,-33.2182,4.31116,0,0,0,0,0,0,0,-1,636,1086,-33.2182,-4.31113
-581,-62,-34.6815,1.03271,0,0,0,0,0,0,0,-1,643,1086,-34.6815,-1.03277
-574,-62,-34.7031,0.89209,0.00449398,-0.00120147,0.000260623,0.00450588,-0.00121337,0.0456326,0.00347963,0.0355068,650,1086,-34.7031,-0.892061
-567,-62,-34.6797,0.960571,0.00488541,-0.00106117,0.000215754,0.00489323,-0.00106899,0.0362185,0.00367074,0.0387172,657,1086,-34.6798,-0.960621
-560,-62,-34.7742,1.19702,0.00521392,-0.000826812,3.18831e-05,0.00521409,-0.000826981,0.00527783,0.00378198,0.0415227,664,1086,-34.7742,-1.19703
-553,-62,-34.6824,1.09619,0.00559334,-0.000625598,-0.000319258,0.00560968,-0.000641945,-0.0511572,0.0039711,0.0372463,671,1086,-34.6824,-1.09615
-546,-62,-34.6949,0.859741,0.00632866,-0.000673609,-0.000869893,0.00643511,-0.000780058,-0.121765,0.00457233,0.0321232,678,1086,-34.695,-0.859769
-539,-62,-34.6006,0.93689,0.00811677,-0.00155612,-0.00166107,0.00839407,-0.00183342,-0.165413,0.0062968,0.0392467,685,1086,-34.6006,-0.936836
-532,-62,-34.5717,1.10205,0.00995633,-0.00226868,-0.00173605,0.0101981,-0.00251043,-0.138364,0.00777188,0.0413392,692,1086,-34.5717,-1.10202
-525,-62,0,0,0,0,0,0,0,0,0,-1,699,1086,0,0
-518,-62,0,0,0,0,0,0,0,0,0,-1,706,1086,0,0
-511,-62,0,0,0,0,0,0,0,0,0,-1,713,1086,0,0
-504,-62,0,0,0,0,0,0,0,0,0,-1,720,1086,0,0
-497,-62,0,0,0,0,0,0,0,0,0,-1,727,1086,0,0
-490,-62,0,0,0,0,0,0,0,0,0,-1,734,1086,0,0
-483,-62,0,0,0,0,0,0,0,0,0,-1,741,1086,0,0
-476,-62,0,0,0,0,0,0,0,0,0,-1,748,1086,0,0
-469,-62,0,0,0,0,0,0,0,0,0,-1,755,1086,0,0
-462,-62,0,0,0,0,0,0,0,0,0,-1,762,1086,0,0
-455,-62,0,0,0,0,0,0,0,0,0,-1,769,1086,0,0
-448,-62,0,0,0,0,0,0,0,0,0,-1,776,1086,0,0
-441,-62,0,0,0,0,0,0,0,0,0,-1,783,1086,0,0
-434,-62,0,0,0,0,0,0,0,0,0,-1,790,1086,0,0
-427,-62,0,0,0,0,0,0,0,0,0,-1,797,1086,0,0
-420,-62,0,0,0,0,0,0,0,0,0,-1,804,1086,0,0
-413,-62,0,0,0,0,0,0,0,0,0,-1,811,1086,0,0
-406,-62,0,0,0,0,0,0,0,0,0,-1,818,1086,0,0
-399,-62,0,0,0,0,0,0,0,0,0,-1,825,1086,0,0
-392,-62,0,0,0,0,0,0,0,0,0,-1,832,1086,0,0
-385,-62,0,0,0,0,0,0,0,0,0,-1,839,1086,0,0
-378,-62,0,0,0,0,0,0,0,0,0,-1,846,1086,0,0
-371,-62,0,0,0,0,0,0,0,0,0,-1,853,1086,0,0
-364,-62,0,0,0,0,0,0,0,0,0,-1,860,1086,0,0
-357,-62,0,0,0,0,0,0,0,0,0,-1,867,1086,0,0
-350,-62,0,0,0,0,0,0,0,0,0,-1,874,1086,0,0
-343,-62,0,0,0,0,0,0,0,0,0,-1,881,1086,0,0
-336,-62,0,0,0,0,0,0,0,0,0,-1,888,1086,0,0
-329,-62,0,0,0,0,0,0,0,0,0,-1,895,1086,0,0
-322,-62,0,0,0,0,0,0,0,0,0,-1,902,1086,0,0
-315,-62,0,0,0,0,0,0,0,0,0,-1,909,1086,0,0
-308,-62,0,0,0,0,0,0,0,0,0,-1,916,1086,0,0
-301,-62,0,0,0,0,0,0,0,0,0,-1,923,1086,0,0
-294,-62,0,0,0,0,0,0,0,0,0,-1,930,1086,0,0
-287,-62,0,0,0,0,0,0,0,0,0,-1,937,1086,0,0
-280,-62,0,0,0,0,0,0,0,0,0,-1,944,1086,0,0
-273,-62,0,0,0,0,0,0,0,0,0,-1,951,1086,0,0
-266,-62,0,0,0,0,0,0,0,0,0,-1,958,1086,0,0
-259,-62,0,0,0,0,0,0,0,0,0,-1,965,1086,0,0
-252,-62,0,0,0,0,0,0,0,0,0,-1,972,1086,0,0
-245,-62,0,0,0,0,0,0,0,0,0,-1,979,1086,0,0
-238,-62,0,0,0,0,0,0,0,0,0,-1,986,1086,0,0
-231,-62,0,0,0,0,0,0,0,0,0,-1,993,1086,0,0
-224,-62,0,0,0,0,0,0,0,0,0,-1,1000,1086,0,0
-217,-62,0,0,0,0,0,0,0,0,0,-1,1007,1086,0,0
-210,-62,0,0,0,0,0,0,0,0,0,-1,1014,1086,0,0
-203,-62,0,0,0,0,0,0,0,0,0,-1,1021,1086,0,0
-196,-62,0,0,0,0,0,0,0,0,0,-1,1028,1086,0,0
-189,-62,0,0,0,0,0,0,0,0,0,-1,1035,1086,0,0
-182,-62,0,0,0,0,0,0,0,0,0,-1,1042,1086,0,0
-175,-62,0,0,0,0,0,0,0,0,0,-1,1049,1086,0,0
-168,-62,0,0,0,0,0,0,0,0,0,-1,1056,1086,0,0
-161,-62,0,0,0,0,0,0,0,0,0,-1,1063,1086,0,0
-154,-62,0,0,0,0,0,0,0,0,0,-1,1070,1086,0,0
-147,-62,0,0,0,0,0,0,0,0,0,-1,1077,1086,0,0
-140,-62,0,0,0,0,0,0,0,0,0,-1,1084,1086,0,0
-133,-62,0,0,0,0,0,0,0,0,0,-1,1091,1086,0,0
-126,-62,0,0,0,0,0,0,0,0,0,-1,1098,1086,0,0
-119,-62,0,0,0,0,0,0,0,0,0,-1,1105,1086,0,0
-112,-62,0,0,0,0,0,0,0,0,0,-1,1112,1086,0,0
-105,-62,0,0,0,0,0,0,0,0,0,-1,1119,1086,0,0
-98,-62,0,0,0,0,0,0,0,0,0,-1,1126,1086,0,0
-91,-62,0,0,0,0,0,0,0,0,0,-1,1133,1086,0,0
-84,-62,0,0,0,0,0,0,0,0,0,-1,1140,1086,0,0
-77,-62,0,0,0,0,0,0,0,0,0,-1,1147,1086,0,0
-70,-62,0,0,0,0,0,0,0,0,0,-1,1154,1086,0,0
-63,-62,0,0,0,0,0,0,0,0,0,-1,1161,1086,0,0
-56,-62,0,0,0,0,0,0,0,0,0,-1,1168,1086,0,0
-49,-62,0,0,0,0,0,0,0,0,0,-1,1175,1086,0,0
-42,-62,0,0,0,0,0,0,0,0,0,-1,1182,1086,0,0
-35,-62,0,0,0,0,0,0,0,0,0,-1,1189,1086,0,0
-28,-62,0,0,0,0,0,0,0,0,0,-1,1196,1086,0,0
-21,-62,0,0,0,0,0,0,0,0,0,-1,1203,1086,0,0
-14,-62,0,0,0,0,0,0,0,0,0,-1,1210,1086,0,0
-7,-62,0,0,0,0,0,0,0,0,0,-1,1217,1086,0,0
0,-62,0,0,0,0,0,0,0,0,0,-1,1224,1086,0,0
7,-62,0,0,0,0,0,0,0,0,0,-1,1231,1086,0,0
14,-62,0,0,0,0,0,0,0,0,0,-1,1238,1086,0,0
21,-62,0,0,0,0,0,0,0,0,0,-1,1245,1086,0,0
28,-62,0,0,0,0,0,0,0,0,0,-1,1252,1086,0,0
35,-62,0,0,0,0,0,0,0,0,0,-1,1259,1086,0,0
42,-62,0,0,0,0,0,0,0,0,0,-1,1266,1086,0,0
49,-62,0,0,0,0,0,0,0,0,0,-1,1273,1086,0,0
56,-62,0,0,0,0,0,0,0,0,0,-1,1280,1086,0,0
63,-62,0,0,0,0,0,0,0,0,0,-1,1287,1086,0,0
70,-62,0,0,0,0,0,0,0,0,0,-1,1294,1086,0,0
77,-62,0,0,0,0,0,0,0,0,0,-1,1301,1086,0,0
84,-62,0,0,0,0,0,0,0,0,0,-1,1308,1086,0,0
91,-62,0,0,0,0,0,0,0,0,0,-1,1315,1086,0,0
98,-62,0,0,0,0,0,0,0,0,0,-1,1322,1086,0,0
105,-62,0,0,0,0,0,0,0,0,0,-1,1329,1086,0,0
112,-62,0,0,0,0,0,0,0,0,0,-1,1336,1086,0,0
119,-62,0,0,0,0,0,0,0,0,0,-1,1343,1086,0,0
126,-62,0,0,0,0,0,0,0,0,0,-1,1350,1086,0,0
133,-62,0,0,0,0,0,0,0,0,0,-1,1357,1086,0,0
140,-62,0,0,0,0,0,0,0,0,0,-1,1364,1086,0,0
147,-62,0,0,0,0,0,0,0,0,0,-1,1371,1086,0,0
154,-62,0,0,0,0,0,0,0,0,0,-1,1378,1086,0,0
161,-62,0,0,0,0,0,0,0,0,0,-1,1385,1086,0,0
168,-62,0,0,0,0,0,0,0,0,0,-1,1392,1086,0,0
175,-62,0,0,0,0,0,0,0,0,0,-1,1399,1086,0,0
182,-62,0,0,0,0,0,0,0,0,0,-1,1406,1086,0,0
189,-62,0,0,0,0,0,0,0,0,0,-1,1413,1086,0,0
196,-62,0,0,0,0,0,0,0,0,0,-1,1420,1086,0,0
203,-62,0,0,0,0,0,0,0,0,0,-1,1427,1086,0,0
210,-62,0,0,0,0,0,0,0,0,0,-1,1434,1086,0,0
217,-62,0,0,0,0,0,0,0,0,0,-1,1441,1086,0,0
224,-62,0,0,0,0,0,0,0,0,0,-1,1448,1086,0,0
231,-62,0,0,0,0,0,0,0,0,0,-1,1455,1086,0,0
238,-62,0,0,0,0,0,0,0,0,0,-1,1462,1086,0,0
245,-62,0,0,0,0,0,0,0,0,0,-1,1469,1086,0,0
252,-62,0,0,0,0,0,0,0,0,0,-1,1476,1086,0,0
259,-62,0,0,0,0,0,0,0,0,0,-1,1483,1086,0,0
266,-62,0,0,0,0,0,0,0,0,0,-1,1490,1086,0,0
273,-62,0,0,0,0,0,0,0,0,0,-1,1497,1086,0,0
280,-62,0,0,0,0,0,0,0,0,0,-1,1504,1086,0,0
287,-62,0,0,0,0,0,0,0,0,0,-1,1511,1086,0,0
294,-62,0,0,0,0,0,0,0,0,0,-1,1518,1086,0,0
301,-62,0,0,0,0,0,0,0,0,0,-1,1525,1086,0,0
308,-62,0,0,0,0,0,0,0,0,0,-1,1532,1086,0,0
315,-62,0,0,0,0,0,0,0,0,0,-1,1539,1086,0,0
322,-62,0,0,0,0,0,0,0,0,0,-1,1546,1086,0,0
329,-62,0,0,0,0,0,0,0,0,0,-1,1553,1086,0,0
336,-62,0,0,0,0,0,0,0,0,0,-1,1560,1086,0,0
343,-62,0,0,0,0,0,0,0,0,0,-1,1567,1086,0,0
350,-62,0,0,0,0,0,0,0,0,0,-1,1574,1086,0,0
357,-62,0,0,0,0,0,0,0,0,0,-1,1581,1086,0,0
364,-62,0,0,0,0,0,0,0,0,0,-1,1588,1086,0,0
371,-62,0,0,0,0,0,0,0,0,0,-1,1595,1086,0,0
378,-62,0,0,0,0,0,0,0,0,0,-1,1602,1086,0,0
385,-62,0,0,0,0,0,0,0,0,0,-1,1609,1086,0,0
392,-62,0,0,0,0,0,0,0,0,0,-1,1616,1086,0,0
399,-62,0,0,0,0,0,0,0,0,0,-1,1623,1086,0,0
406,-62,0,0,0,0,0,0,0,0,0,-1,1630,1086,0,0
413,-62,0,0,0,0,0,0,0,0,0,-1,1637,1086,0,0
420,-62,0,0,0,0,0,0,0,0,0,-1,1644,1086,0,0
427,-62,0,0,0,0,0,0,0,0,0,-1,1651,1086,0,0
434,-62,0,0,0,0,0,0,0,0,0,-1,1658,1086,0,0
441,-62,0,0,0,0,0,0,0,0,0,-1,1665,1086,0,0
448,-62,0,0,0,0,0,0,0,0,0,-1,1672,1086,0,0
455,-62,0,0,0,0,0,0,0,0,0,-1,1679,1086,0,0
462,-62,0,0,0,0,0,0,0,0,0,-1,1686,1086,0,0
469,-62,0,0,0,0,0,0,0,0,0,-1,1693,1086,0,0
476,-62,0,0,0,0,0,0,0,0,0,-1,1700,1086,0,0
483,-62,0,0,0,0,0,0,0,0,0,-1,1707,1086,0,0
490,-62,0,0,0,0,0,0,0,0,0,-1,1714,1086,0,0
497,-62,0,0,0,0,0,0,0,0,0,-1,1721,1086,0,0
504,-62,0,0,0,0,0,0,0,0,0,-1,1728,1086,0,0
511,-62,0,0,0,0,0,0,0,0,0,-1,1735,1086,0,0
518,-62,0,0,0,0,0,0,0,0,0,-1,1742,1086,0,0
525,-62,0,0,0,0,0,0,0,0,0,-1,1749,1086,0,0
532,-62,0,0,0,0,0,0,0,0,0,-1,1756,1086,0,0
539,-62,0,0,0,0,0,0,0,0,0,-1,1763,1086,0,0
546,-62,0,0,0,0,0,0,0,0,0,-1,1770,1086,0,0
553,-62,0,0,0,0,0,0,0,0,0,-1,1777,1086,0,0
560,-62,0,0,0,0,0,0,0,0,0,-1,1784,1086,0,0
567,-62,0,0,0,0,0,0,0,0,0,-1,1791,1086,0,0
574,-62,0,0,0,0,0,0,0,0,0,-1,1798,1086,0,0
581,-62,0,0,0,0,0,0,0,0,0,-1,1805,1086,0,0
588,-62,0,0,0,0,0,0,0,0,0,-1,1812,1086,0,0
595,-62,0,0,0,0,0,0,0,0,0,-1,1819,1086,0,0
602,-62,0,0,0,0,0,0,0,0,0,-1,1826,1086,0,0
609,-62,0,0,0,0,0,0,0,0,0,-1,1833,1086,0,0
616,-62,0,0,0,0,0,0,0,0,0,-1,1840,1086,0,0
623,-62,0,0,0,0,0,0,0,0,0,-1,1847,1086,0,0
630,-62,0,0,0,0,0,0,0,0,0,-1,1854,1086,0,0
637,-62,0,0,0,0,0,0,0,0,0,-1,1861,1086,0,0
644,-62,0,0,0,0,0,0,0,0,0,-1,1868,1086,0,0
651,-62,46.3687,3.00891,0.00215965,-0.00249949,-0.0010211,0.00237361,-0.00271344,-0.206549,0.00293919,0.0406436,1875,1086,46.3687,-3.00897
658,-62,46.605,2.76062,0.00115187,-0.00148891,-0.000470424,0.00123317,-0.00157021,-0.171128,0.00162242,0.0392828,1882,1086,46.605,-2.76063
665,-62,46.6672,2.73169,0.000585778,-0.000783856,3.15144e-05,0.000586503,-0.000784581,0.0229931,0.000794344,0.0379772,1889,1086,46.6672,-2.73163
672,-62,46.5181,2.66675,0.000345064,-0.000168011,0.000534186,0.000681119,-0.000504066,0.56154,0.000686808,0.037162,1896,1086,46.5181,-2.66671
679,-62,46.5125,2.66333,0.000135595,0.000278735,0.000987786,0.00119754,-0.000783211,0.821562,0.0011519,0.0372755,1903,1086,46.5124,-2.66334
686,-62,46.6626,2.69128,-0.000147283,0.000299833,0.00139011,0.00148425,-0.0013317,0.865125,0.00162659,0.0385871,1910,1086,46.6626,-2.69126
693,-62,46.676,2.77905,-0.000302237,0.000126792,0.00168781,0.00161367,-0.00178911,0.848607,0.00196547,0.0402091,1917,1086,46.6761,-2.77901
700,-62,46.6074,2.66504,-0.000407429,-2.82071e-07,0.00191439,0.00172133,-0.00212904,0.838368,0.00222716,0.0342577,1924,1086,46.6074,-2.66508
707,-62,46.6058,2.69666,-0.000687684,-4.8446e-05,0.00220649,0.00186146,-0.00259759,0.857325,0.0025861,0.0263261,1931,1086,46.6059,-2.69669
714,-62,46.6608,2.82898,-0.0010732,-1.14092e-05,0.00249562,0.00200916,-0.00309377,0.890201,0.00296828,0.0397366,1938,1086,46.6608,-2.82897
721,-62,46.8146,3.21118,0,0,0,0,0,0,0,-1,1945,1086,46.8146,-3.2112
728,-62,45.2585,6.48767,0,0,0,0,0,0,0,-1,1952,1086,45.2586,-6.48764
735,-62,45.1852,6.16809,-0.00178736,0.000777484,0.00264766,0.00243695,-0.00344683,1.01093,0.00341364,0.0243429,1959,1086,45.1852,-6.16815
742,-62,45.1365,5.96326,-0.00117652,0.00158554,0.00278653,0.00331449,-0.00290547,1.01546,0.00359368,0.0239303,1966,1086,45.1365,-5.9632
749,-62,45.1083,5.71509,0.000188923,0.00285381,0.00293186,0.0047418,-0.00169907,0.998681,0.00385447,0.0179162,1973,1086,45.1083,-5.71503
756,-62,45.0477,5.55579,0.00130028,0.00488899,0.00317066,0.00673782,-0.000548542,1.04289,0.00468544,0.0138377,1980,1086,45.0477,-5.55573
763,-62,45.0417,5.3114,0.00221781,0.00662714,0.00212132,0.00748197,0.00136298,1.18773,0.00460144,0.0157341,1987,1086,45.0418,-5.31141
770,-62,45.0265,5.06299,0.00438579,0.00937613,0.00122712,0.00966156,0.00410037,1.34226,0.00559932,0.0134919,1994,1086,45.0265,-5.06299
777,-62,44.9327,4.79614,0.00692144,0.0125087,-8.72726e-05,0.01251,0.00692008,-1.55518,0.00723627,0.0140999,2001,1086,44.9327,-4.79612
784,-62,44.8682,4.54443,0.00899241,0.0154261,-0.00199064,0.0159922,0.0084263,-1.29373,0.00923756,0.0271361,2008,1086,44.8681,-4.54444
791,-62,44.7607,4.14832,0.0101254,0.0179021,-0.00481272,0.020201,0.00782652,-1.12518,0.0117611,0.0423262,2015,1086,44.7606,-4.14836
798,-62,46.0325,4.91724,0.00969837,0.0195438,-0.00906779,0.024939,0.00430325,-1.03408,0.0153934,0.0467745,2022,1086,46.0325,-4.91727
805,-62,46.8413,4.7218,0.00649542,0.0197771,-0.0153529,0.0298638,-0.00359131,-0.989521,0.0212079,0.044952,2029,1086,46.8412,-4.72177
812,-62,44.5288,3.41748,-0.0019128,0.0175373,-0.0245259,0.0341959,-0.0185714,-0.974151,0.0309072,0.0482647,2036,1086,44.5289,-3.41751
-700,-69,-36.8632,2.64539,0,0,0,0,0,0,0,-1,524,1093,-36.8631,-2.64534
-693,-69,-31.9507,3.49231,0,0,0,0,0,0,0,-1,531,1093,-31.9507,-3.49232
-686,-69,-31.8331,3.45544,0,0,0,0,0,0,0,-1,538,1093,-31.8331,-3.45539
-679,-69,-32.1818,-0.373047,0,0,0,0,0,0,0,-1,545,1093,-32.1817,0.373028
-672,-69,-33.7352,-0.449829,0,0,0,0,0,0,0,-1,552,1093,-33.7352,0.449872
-665,-69,-33.9418,-0.306152,0,0,0,0,0,0,0,-1,559,1093,-33.9418,0.306211
-658,-69,-33.5894,1.32153,-0.00201555,0.0281518,0.0100055,0.0311687,-0.00503237,1.27795,0.0226437,0.0451587,566,1093,-33.5894,-1.32151
-651,-69,-33.0505,1.60693,-0.000919959,0.0225961,0.0074547,0.0247601,-0.00308399,1.28827,0.0176249,0.0350815,573,1093,-33.0505,-1.6069
-644,-69,-33.0392,1.9259,0.000182141,0.0177976,0.00530121,0.0192699,-0.00129015,1.2999,0.0132976,0.0107202,580,1093,-33.0392,-1.92591
-637,-69,-33.0759,2.24854,0.000661646,0.0126534,0.00313235,0.0134223,-0.000107247,1.33009,0.00898418,0.011996,587,1093,-33.0759,-2.2485
-630,-69,-33.1153,2.54602,0.00103842,0.00789656,0.00154921,0.00823028,0.000704697,1.35863,0.00526769,0.0143705,594,1093,-33.1153,-2.546
-623,-69,-33.1162,2.84387,0.00178736,0.00431639,0.000718857,0.00450644,0.00159732,1.31233,0.00263828,0.0165352,601,1093,-33.1162,-2.84386
-616,-69,-33.1133,3.11316,0.00238793,0.00186919,0.00039067,0.00259749,0.00165963,0.492352,0.00151884,0.0195707,608,1093,-33.1133,-3.11322
-609,-69,-33.1108,3.38757,0.00277906,0.000236152,0.000225239,0.00279885,0.000216355,0.087666,0.00179813,0.0172032,615,1093,-33.1108,-3.38757
-602,-69,-33.0727,3.71362,0.00289613,-0.000247465,6.38687e-05,0.00289743,-0.000248762,0.0203059,0.00201965,0.0180314,622,1093,-33.0727,-3.71364
-595,-69,-32.9686,3.98108,0.00301415,-0.000350125,2.52417e-05,0.00301434,-0.000350315,0.00750231,0.00213593,0.0341392,629,1093,-32.9686,-3.98106
-588,-69,-32.9304,4.2677,0,0,0,0,0,0,0,-1,636,1093,-32.9304,-4.26768
-581,-69,-34.1665,0.972046,0,0,0,0,0,0,0,-1,643,1093,-34.1665,-0.972095
-574,-69,-34.7415,0.914551,0,0,0,0,0,0,0,-1,650,1093,-34.7415,-0.914595
-567,-69,-34.6981,1.1283,0.00512813,-0.000244748,0.000162332,0.00513303,-0.000249648,0.0301764,0.0035082,0.0402631,657,1093,-34.698,-1.12828
-560,-69,-34.6246,1.18176,0.00546075,0.000109119,-3.633e-05,0.00546099,0.000108872,-0.00678818,0.00360492,0.0407037,664,1093,-34.6246,-1.1817
-553,-69,-34.6276,0.978638,0.00580116,0.000419986,-0.000436189,0.00583629,0.000384859,-0.0803591,0.00376913,0.037401,671,1093,-34.6276,-0.978681
-546,-69,-34.7419,0.833984,0.00657404,0.000459475,-0.00108778,0.00676179,0.000271725,-0.170916,0.00442007,0.0352869,678,1093,-34.7419,-0.834032
-539,-69,-34.7286,1.00745,0.00870178,-0.000421657,-0.00206829,0.00914876,-0.00086864,-0.212839,0.00640837,0.0416934,685,1093,-34.7286,-1.0074
-532,-69,-34.5549,1.18628,0.0109911,-0.00123696,-0.00250353,0.0114838,-0.00172966,-0.194322,0.0082928,0.0438817,692,1093,-34.5549,-1.1863
-525,-69,0,0,0,0,0,0,0,0,0,-1,699,1093,0,0
-518,-69,0,0,0,0,0,0,0,0,0,-1,706,1093,0,0
-511,-69,0,0,0,0,0,0,0,0,0,-1,713,1093,0,0
-504,-69,0,0,0,0,0,0,0,0,0,-1,720,1093,0,0
-497,-69,0,0,0,0,0,0,0,0,0,-1,727,1093,0,0
-490,-69,0,0,0,0,0,0,0,0,0,-1,734,1093,0,0
-483,-69,0,0,0,0,0,0,0,0,0,-1,741,1093,0,0
-476,-69,0,0,0,0,0,0,0,0,0,-1,748,1093,0,0
-469,-69,0,0,0,0,0,0,0,0,0,-1,755,1093,0,0
-462,-69,0,0,0,0,0,0,0,0,0,-1,762,1093,0,0
-455,-69,0,0,0,0,0,0,0,0,0,-1,769,1093,0,0
-448,-69,0,0,0,0,0,0,0,0,0,-1,776,1093,0,0
-441,-69,0,0,0,0,0,0,0,0,0,-1,783,1093,0,0
-434,-69,0,0,0,0,0,0,0,0,0,-1,790,1093,0,0
-427,-69,0,0,0,0,0,0,0,0,0,-1,797,1093,0,0
-420,-69,0,0,0,0,0,0,0,0,0,-1,804,1093,0,0
-413,-69,0,0,0,0,0,0,0,0,0,-1,811,1093,0,0
-406,-69,0,0,0,0,0,0,0,0,0,-1,818,1093,0,0
-399,-69,0,0,0,0,0,0,0,0,0,-1,825,1093,0,0
-392,-69,0,0,0,0,0,0,0,0,0,-1,832,1093,0,0
-385,-69,0,0,0,0,0,0,0,0,0,-1,839,1093,0,0
-378,-69,0,0,0,0,0,0,0,0,0,-1,846,1093,0,0
-371,-69,0,0,0,0,0,0,0,0,0,-1,853,1093,0,0
-364,-69,0,0,0,0,0,0,0,0,0,-1,860,1093,0,0
-357,-69,0,0,0,0,0,0,0,0,0,-1,867,1093,0,0
-350,-69,0,0,0,0,0,0,0,0,0,-1,874,1093,0,0
-343,-69,0,0,0,0,0,0,0,0,0,-1,881,1093,0,0
-336,-69,0,0,0,0,0,0,0,0,0,-1,888,1093,0,0
-329,-69,0,0,0,0,0,0,0,0,0,-1,895,1093,0,0
-322,-69,0,0,0,0,0,0,0,0,0,-1,902,1093,0,0
-315,-69,0,0,0,0,0,0,0,0,0,-1,909,1093,0,0
-308,-69,0,0,0,0,0,0,0,0,0,-1,916,1093,0,0
-301,-69,0,0,0,0,0,0,0,0,0,-1,923,1093,0,0
-294,-69,0,0,0,0,0,0,0,0,0,-1,930,1093,0,0
-287,-69,0,0,0,0,0,0,0,0,0,-1,937,1093,0,0
-280,-69,0,0,0,0,0,0,0,0,0,-1,944,1093,0,0
-273,-69,0,0,0,0,0,0,0,0,0,-1,951,1093,0,0
-266,-69,0,0,0,0,0,0,0,0,0,-1,958,1093,0,0
-259,-69,0,0,0,0,0,0,0,0,0,-1,965,1093,0,0
-252,-69,0,0,0,0,0,0,0,0,0,-1,972,1093,0,0
-245,-69,0,0,0,0,0,0,0,0,0,-1,979,1093,0,0
-238,-69,0,0,0,0,0,0,0,0,0,-1,986,1093,0,0
-231,-69,0,0,0,0,0,0,0,0,0,-1,993,1093,0,0
-224,-69,0,0,0,0,0,0,0,0,0,-1,1000,1093,0,0
-217,-69,0,0,0,0,0,0,0,0,0,-1,1007,1093,0,0
-210,-69,0,0,0,0,0,0,0,0,0,-1,1014,1093,0,0
-203,-69,0,0,0,0,0,0,0,0,0,-1,1021,1093,0,0
-196,-69,0,0,0,0,0,0,0,0,0,-1,1028,1093,0,0
-189,-69,0,0,0,0,0,0,0,0,0,-1,1035,1093,0,0
-182,-69,0,0,0,0,0,0,0,0,0,-1,1042,1093,0,0
-175,-69,0,0,0,0,0,0,0,0,0,-1,1049,1093,0,0
-168,-69,0,0,0,0,0,0,0,0,0,-1,1056,1093,0,0
-161,-69,0,0,0,0,0,0,0,0,0,-1,1063,1093,0,0
-154,-69,0,0,0,0,0,0,0,0,0,-1,1070,1093,0,0
-147,-69,0,0,0,0,0,0,0,0,0,-1,1077,1093,0,0
-140,-69,0,0,0,0,0,0,0,0,0,-1,1084,1093,0,0
-133,-69,0,0,0,0,0,0,0,0,0,-1,1091,1093,0,0
-126,-69,0,0,0,0,0,0,0,0,0,-1,1098,1093,0,0
-119,-69,0,0,0,0,0,0,0,0,0,-1,1105,1093,0,0
-112,-69,0,0,0,0,0,0,0,0,0,-1,1112,1093,0,0
-105,-69,0,0,0,0,0,0,0,0,0,-1,1119,1093,0,0
-98,-69,0,0,0,0,0,0,0,0,0,-1,1126,1093,0,0
-91,-69,0,0,0,0,0,0,0,0,0,-1,1133,1093,0,0
-84,-69,0,0,0,0,0,0,0,0,0,-1,1140,1093,0,0
-77,-69,0,0,0,0,0,0,0,0,0,-1,1147,1093,0,0
-70,-69,0,0,0,0,0,0,0,0,0,-1,1154,1093,0,0
-63,-69,0,0,0,0,0,0,0,0,0,-1,1161,1093,0,0
-56,-69,0,0,0,0,0,0,0,0,0,-1,1168,1093,0,0
-49,-69,0,0,0,0,0,0,0,0,0,-1,1175,1093,0,0
-42,-69,0,0,0,0,0,0,0,0,0,-1,1182,1093,0,0
-35,-69,0,0,0,0,0,0,0,0,0,-1,1189,1093,0,0
-28,-69,0,0,0,0,0,0,0,0,0,-1,1196,1093,0,0
-21,-69,0,0,0,0,0,0,0,0,0,-1,1203,1093,0,0
-14,-69,0,0,0,0,0,0,0,0,0,-1,1210,1093,0,0
-7,-69,0,0,0,0,0,0,0,0,0,-1,1217,1093,0,0
0,-69,0,0,0,0,0,0,0,0,0,-1,1224,1093,0,0
7,-69,0,0,0,0,0,0,0,0,0,-1,1231,1093,0,0
14,-69,0,0,0,0,0,0,0,0,0,-1,1238,1093,0,0
21,-69,0,0,0,0,0,0,0,0,0,-1,1245,1093,0,0
28,-69,0,0,0,0,0,0,0,0,0,-1,1252,1093,0,0
35,-69,0,0,0,0,0,0,0,0,0,-1,1259,1093,0,0
42,-69,0,0,0,0,0,0,0,0,0,-1,1266,1093,0,0
49,-69,0,0,0,0,0,0,0,0,0,-1,1273,1093,0,0
56,-69,0,0,0,0,0,0,0,0,0,-1,1280,1093,0,0
63,-69,0,0,0,0,0,0,0,0,0,-1,1287,1093,0,0
70,-69,0,0,0,0,0,0,0,0,0,-1,1294,1093,0,0
77,-69,0,0,0,0,0,0,0,0,0,-1,1301,1093,0,0
84,-69,0,0,0,0,0,0,0,0,0,-1,1308,1093,0,0
91,-69,0,0,0,0,0,0,0,0,0,-1,1315,1093,0,0
98,-69,0,0,0,0,0,0,0,0,0,-1,1322,1093,0,0
105,-69,0,0,0,0,0,0,0,0,0,-1,1329,1093,0,0
112,-69,0,0,0,0,0,0,0,0,0,-1,1336,1093,0,0
119,-69,0,0,0,0,0,0,0,0,0,-1,1343,1093,0,0
126,-69,0,0,0,0,0,0,0,0,0,-1,1350,1093,0,0
133,-69,0,0,0,0,0,0,0,0,0,-1,1357,1093,0,0
140,-69,0,0,0,0,0,0,0,0,0,-1,1364,1093,0,0
147,-69,0,0,0,0,0,0,0,0,0,-1,1371,1093,0,0
154,-69,0,0,0,0,0,0,0,0,0,-1,1378,1093,0,0
161,-69,0,0,0,0,0,0,0,0,0,-1,1385,1093,0,0
168,-69,0,0,0,0,0,0,0,0,0,-1,1392,1093,0,0
175,-69,0,0,0,0,0,0,0,0,0,-1,1399,1093,0,0
182,-69,0,0,0,0,0,0,0,0,0,-1,1406,1093,0,0
189,-69,0,0,0,0,0,0,0,0,0,-1,1413,1093,0,0
196,-69,0,0,0,0,0,0,0,0,0,-1,1420,1093,0,0
203,-69,0,0,0,0,0,0,0,0,0,-1,1427,1093,0,0
210,-69,0,0,0,0,0,0,0,0,0,-1,1434,1093,0,0
217,-69,0,0,0,0,0,0,0,0,0,-1,1441,1093,0,0
224,-69,0,0,0,0,0,0,0,0,0,-1,1448,1093,0,0
231,-69,0,0,0,0,0,0,0,0,0,-1,1455,1093,0,0
238,-69,0,0,0,0,0,0,0,0,0,-1,1462,1093,0,0
245,-69,0,0,0,0,0,0,0,0,0,-1,1469,1093,0,0
252,-69,0,0,0,0,0,0,0,0,0,-1,1476,1093,0,0
259,-69,0,0,0,0,0,0,0,0,0,-1,1483,1093,0,0
266,-69,0,0,0,0,0,0,0,0,0,-1,1490,1093,0,0
273,-69,0,0,0,0,0,0,0,0,0,-1,1497,1093,0,0
280,-69,0,0,0,0,0,0,0,0,0,-1,1504,1093,0,0
287,-69,0,0,0,0,0,0,0,0,0,-1,1511,1093,0,0
294,-69,0,0,0,0,0,0,0,0,0,-1,1518,1093,0,0
301,-69,0,0,0,0,0,0,0,0,0,-1,1525,1093,0,0
308,-69,0,0,0,0,0,0,0,0,0,-1,1532,1093,0,0
315,-69,0,0,0,0,0,0,0,0,0,-1,1539,1093,0,0
322,-69,0,0,0,0,0,0,0,0,0,-1,1546,1093,0,0
329,-69,0,0,0,0,0,0,0,0,0,-1,1553,1093,0,0
336,-69,0,0,0,0,0,0,0,0,0,-1,1560,1093,0,0
343,-69,0,0,0,0,0,0,0,0,0,-1,1567,1093,0,0
350,-69,0,0,0,0,0,0,0,0,0,-1,1574,1093,0,0
357,-69,0,0,0,0,0,0,0,0,0,-1,1581,1093,0,0
364,-69,0,0,0,0,0,0,0,0,0,-1,1588,1093,0,0
371,-69,0,0,0,0,0,0,0,0,0,-1,1595,1093,0,0
378,-69,0,0,0,0,0,0,0,0,0,-1,1602,1093,0,0
385,-69,0,0,0,0,0,0,0,0,0,-1,1609,1093,0,0
392,-69,0,0,0,0,0,0,0,0,0,-1,1616,1093,0,0
399,-69,0,0,0,0,0,0,0,0,0,-1,1623,1093,0,0
406,-69,0,0,0,0,0,0,0,0,0,-1,1630,1093,0,0
413,-69,0,0,0,0,0,0,0,0,0,-1,1637,1093,0,0
420,-69,0,0,0,0,0,0,0,0,0,-1,1644,1093,0,0
427,-69,0,0,0,0,0,0,0,0,0,-1,1651,1093,0,0
434,-69,0,0,0,0,0,0,0,0,0,-1,1658,1093,0,0
441,-69,0,0,0,0,0,0,0,0,0,-1,1665,1093,0,0
448,-69,0,0,0,0,0,0,0,0,0,-1,1672,1093,0,0
455,-69,0,0,0,0,0,0,0,0,0,-1,1679,1093,0,0
462,-69,0,0,0,0,0,0,0,0,0,-1,1686,1093,0,0
469,-69,0,0,0,0,0,0,0,0,0,-1,1693,1093,0,0
476,-69,0,0,0,0,0,0,0,0,0,-1,1700,1093,0,0
483,-69,0,0,0,0,0,0,0,0,0,-1,1707,1093,0,0
490,-69,0,0,0,0,0,0,0,0,0,-1,1714,1093,0,0
497,-69,0,0,0,0,0,0,0,0,0,-1,1721,1093,0,0
504,-69,0,0,0,0,0,0,0,0,0,-1,1728,1093,0,0
511,-69,0,0,0,0,0,0,0,0,0,-1,1735,1093,0,0
518,-69,0,0,0,0,0,0,0,0,0,-1,1742,1093,0,0
525,-69,0,0,0,0,0,0,0,0,0,-1,1749,1093,0,0
532,-69,0,0,0,0,0,0,0,0,0,-1,1756,1093,0,0
539,-69,0,0,0,0,0,0,0,0,0,-1,1763,1093,0,0
546,-69,0,0,0,0,0,0,0,0,0,-1,1770,1093,0,0
553,-69,0,0,0,0,0,0,0,0,0,-1,1777,1093,0,0
560,-69,0,0,0,0,0,0,0,0,0,-1,1784,1093,0,0
567,-69,0,0,0,0,0,0,0,0,0,-1,1791,1093,0,0
574,-69,0,0,0,0,0,0,0,0,0,-1,1798,1093,0,0
581,-69,0,0,0,0,0,0,0,0,0,-1,1805,1093,0,0
588,-69,0,0,0,0,0,0,0,0,0,-1,1812,1093,0,0
595,-69,0,0,0,0,0,0,0,0,0,-1,1819,1093,0,0
602,-69,0,0,0,0,0,0,0,0,0,-1,1826,1093,0,0
609,-69,0,0,0,0,0,0,0,0,0,-1,1833,1093,0,0
616,-69,0,0,0,0,0,0,0,0,0,-1,1840,1093,0,0
623,-69,0,0,0,0,0,0,0,0,0,-1,1847,1093,0,0
630,-69,0,0,0,0,0,0,0,0,0,-1,1854,1093,0,0
637,-69,0,0,0,0,0,0,0,0,0,-1,1861,1093,0,0
644,-69,0,0,0,0,0,0,0,0,0,-1,1868,1093,0,0
651,-69,46.4957,3.10217,0.00361044,-0.00222701,-0.00182801,0.00413564,-0.0027522,-0.279769,0.00400334,0.0427696,1875,1093,46.4957,-3.10216
658,-69,46.6089,2.75024,0.002198,-0.00131289,-0.00113107,0.00253083,-0.00164572,-0.286187,0.00242932,0.0430498,1882,1093,46.6089,-2.75025
665,-69,46.7162,2.66919,0.00133837,-0.000663274,-0.000496438,0.00145473,-0.000779634,-0.230233,0.00130949,0.041957,1889,1093,46.7162,-2.66913
672,-69,46.4895,2.70618,0.000862584,-7.57576e-05,0.000117552,0.000877087,-9.02599e-05,0.122749,0.000617016,0.0371406,1896,1093,46.4895,-2.70616
679,-69,46.4989,2.71851,0.00044999,0.000331353,0.000662874,0.00105619,-0.000274851,0.740774,0.000811415,0.0363693,1903,1093,46.4989,-2.71854
686,-69,46.6599,2.62415,7.67302e-05,0.00033491,0.00112206,0.00133528,-0.000923638,0.84267,0.00131138,0.0385227,1910,1093,46.6599,-2.62418
693,-69,46.6421,2.60278,-0.00010015,0.000165771,0.00143571,0.00147467,-0.00140905,0.831571,0.00166505,0.0368678,1917,1093,46.6421,-2.6028
700,-69,46.5704,2.5863,-0.000230633,3.4407e-05,0.00165873,0.0015659,-0.00176213,0.82526,0.00192255,0.0300063,1924,1093,46.5704,-2.58633
707,-69,46.5972,2.62183,-0.000529689,-6.80956e-06,0.00197008,0.0017191,-0.0022556,0.851365,0.00230175,0.0247767,1931,1093,46.5972,-2.62187
714,-69,46.6666,2.66968,-0.000895894,2.38461e-05,0.00228161,0.00189147,-0.00276352,0.884843,0.00270324,0.0331225,1938,1093,46.6666,-2.66966
721,-69,46.788,2.83228,0,0,0,0,0,0,0,-1,1945,1093,46.788,-2.83227
728,-69,44.657,6.62085,0,0,0,0,0,0,0,-1,1952,1093,44.657,-6.62083
735,-69,44.8787,6.30823,-0.00148654,0.00070993,0.00248504,0.0023286,-0.0031052,0.993463,0.00314787,0.031601,1959,1093,44.8787,-6.30819
742,-69,44.8307,6.07202,-0.000906706,0.00142792,0.00260558,0.00311573,-0.00259451,0.995995,0.00330138,0.0239115,1966,1093,44.8307,-6.07197
749,-69,44.7013,5.76257,0.0004381,0.00272898,0.00277982,0.00459011,-0.00142302,0.980826,0.00362864,0.0254296,1973,1093,44.7013,-5.76257
756,-69,44.769,5.5531,0.00157201,0.00480577,0.00305138,0.00664219,-0.0002644,1.02903,0.00451884,0.015011,1980,1093,44.7691,-5.55314
763,-69,44.7615,5.28333,0.00260497,0.00671128,0.00209255,0.00758972,0.00172653,1.17335,0.00459376,0.0167807,1987,1093,44.7614,-5.28338
770,-69,44.7062,5.06213,0.00486646,0.0096992,0.00130154,0.0100274,0.00453823,1.32376,0.00579801,0.0181432,1994,1093,44.7062,-5.06208
777,-69,44.6213,4.84082,0.0074582,0.0132015,0.000140454,0.0132049,0.00745477,1.54636,0.007645,0.0237619,2001,1093,44.6214,-4.84086
784,-69,44.7236,4.65112,0.00967615,0.0166808,-0.00156482,0.0170145,0.00934247,-1.36071,0.00983911,0.0337516,2008,1093,44.7237,-4.65113
791,-69,45.4351,4.60107,0.0110916,0.0200002,-0.00411888,0.0216126,0.00947906,-1.19765,0.0125094,0.0407378,2015,1093,45.4351,-4.60104
798,-69,46.1057,4.53894,0.0111717,0.0228741,-0.00799343,0.026929,0.00711675,-1.10134,0.0161131,0.0441898,2022,1093,46.1057,-4.53889
805,-69,46.6611,4.60583,0.00880525,0.0248281,-0.013725,0.0327088,0.000924567,-1.04958,0.0215043,0.0466307,2029,1093,46.6612,-4.60585
812,-69,47.1843,4.60779,0.00178636,0.0249825,-0.0220835,0.0383283,-0.0115595,-1.0272,0.0301532,0.0472231,2036,1093,47.1843,-4.60777
-700,-76,0,0,0,0,0,0,0,0,0,-1,524,1100,0,0
-693,-76,-32.0852,2.96521,0,0,0,0,0,0,0,-1,531,1100,-32.0852,-2.96527
-686,-76,-32.0105,2.89697,-0.00605256,0.0453854,0.0204143,0.0525025,-0.0131697,1.23534,0.0401187,0.0483728,538,1100,-32.0105,-2.89693
-679,-76,-31.6697,2.81274,-0.00428423,0.0433942,0.0170392,0.0488576,-0.00974763,1.26052,0.0362603,0.048879,545,1100,-31.6697,-2.8127
-672,-76,-31.8607,2.70959,-0.00299265,0.0392569,0.0137738,0.0433506,-0.00708639,1.2819,0.0315291,0.0494043,552,1100,-31.8607,-2.70958
-665,-76,-32.6978,1.7616,-0.00214032,0.033972,0.0107673,0.0369387,-0.005107,1.30194,0.0264927,0.0494087,559,1100,-32.6978,-1.7616
-658,-76,-32.6645,1.72461,-0.00155167,0.0282364,0.00810607,0.0302994,-0.00361466,1.32159,0.021506,0.0459995,566,1100,-32.6645,-1.72459
-651,-76,-32.6214,1.6145,-0.000997672,0.0225265,0.00584141,0.0238972,-0.00236832,1.34032,0.0167767,0.030338,573,1100,-32.6214,-1.6145
-644,-76,-32.6375,1.90076,-0.000223143,0.0174832,0.00396014,0.0183285,-0.0010685,1.36049,0.0125903,0.0111582,580,1100,-32.6374,-1.90081
-637,-76,-32.7079,2.20068,1.13547e-05,0.0124142,0.00217247,0.0127837,-0.000358164,1.40232,0.00864436,0.0134499,587,1100,-32.7079,-2.20064
-630,-76,-32.7527,2.50452,0.000432004,0.00765717,0.000840255,0.00775361,0.000335573,1.45653,0.00506092,0.0140939,594,1100,-32.7527,-2.5045
-623,-76,-32.7749,2.83032,0.00135009,0.00394906,9.34669e-05,0.00395242,0.00134673,1.5349,0.0023202,0.0160846,601,1100,-32.7749,-2.83031
-616,-76,-32.8,3.13989,0.00216972,0.00162124,-2.94986e-05,0.0021713,0.00161966,-0.0535767,0.00130317,0.0166321,608,1100,-32.8,-3.13993
-609,-76,-32.7949,3.43396,0.00275834,0.000181125,-2.75784e-05,0.00275864,0.00018083,-0.0106992,0.00178188,0.0165973,615,1100,-32.7949,-3.43396
-602,-76,-32.7453,3.70996,0.00301918,-8.97517e-05,-6.12145e-05,0.00302039,-9.09566e-05,-0.0196797,0.00204458,0.0184147,622,1100,-32.7453,-3.70994
-595,-76,-32.6966,3.96448,0.00313758,-5.88859e-05,6.76263e-05,0.00313901,-6.03161e-05,0.021144,0.00211306,0.0298222,629,1100,-32.6966,-3.96451
-588,-76,-32.6725,4.27393,0,0,0,0,0,0,0,-1,636,1100,-32.6725,-4.27391
-581,-76,-34.1617,0.948242,0,0,0,0,0,0,0,-1,643,1100,-34.1618,-0.948252
-574,-76,-34.74,0.589844,0,0,0,0,0,0,0,-1,650,1100,-34.74,-0.589796
-567,-76,-34.6071,1.10876,0,0,0,0,0,0,0,-1,657,1100,-34.6071,-1.10874
-560,-76,-34.4742,1.62769,0,0,0,0,0,0,0,-1,664,1100,-34.4742,-1.62769
-553,-76,-34.668,0.918335,0,0,0,0,0,0,0,-1,671,1100,-34.668,-0.918342
-546,-76,-34.9023,1.44739,0,0,0,0,0,0,0,-1,678,1100,-34.9024,-1.44744
-539,-76,-34.7461,0.959717,0.00940613,0.000233837,-0.00198151,0.00981589,-0.000175926,-0.203919,0.00660335,0.043072,685,1100,-34.7461,-0.959675
-532,-76,-34.5001,0.843506,0.0122689,-0.000822534,-0.00272843,0.0128147,-0.00136841,-0.197464,0.00903392,0.042406,692,1100,-34.5001,-0.843491
-525,-76,0,0,0,0,0,0,0,0,0,-1,699,1100,0,0
-518,-76,0,0,0,0,0,0,0,0,0,-1,706,1100,0,0
-511,-76,0,0,0,0,0,0,0,0,0,-1,713,1100,0,0
-504,-76,0,0,0,0,0,0,0,0,0,-1,720,1100,0,0
-497,-76,0,0,0,0,0,0,0,0,0,-1,727,1100,0,0
-490,-76,0,0,0,0,0,0,0,0,0,-1,734,1100,0,0
-483,-76,0,0,0,0,0,0,0,0,0,-1,741,1100,0,0
-476,-76,0,0,0,0,0,0,0,0,0,-1,748,1100,0,0
-469,-76,0,0,0,0,0,0,0,0,0,-1,755,1100,0,0
-462,-76,0,0,0,0,0,0,0,0,0,-1,762,1100,0,0
-455,-76,0,0,0,0,0,0,0,0,0,-1,769,1100,0,0
-448,-76,0,0,0,0,0,0,0,0,0,-1,776,1100,0,0
-441,-76,0,0,0,0,0,0,0,0,0,-1,783,1100,0,0
-434,-76,0,0,0,0,0,0,0,0,0,-1,790,1100,0,0
-427,-76,0,0,0,0,0,0,0,0,0,-1,797,1100,0,0
-420,-76,0,0,0,0,0,0,0,0,0,-1,804,1100,0,0
-413,-76,0,0,0,0,0,0,0,0,0,-1,811,1100,0,0
-406,-76,0,0,0,0,0,0,0,0,0,-1,818,1100,0,0
-399,-76,0,0,0,0,0,0,0,0,0,-1,825,1100,0,0
-392,-76,0,0,0,0,0,0,0,0,0,-1,832,1100,0,0
-385,-76,0,0,0,0,0,0,0,0,0,-1,839,1100,0,0
-378,-76,0,0,0,0,0,0,0,0,0,-1,846,1100,0,0
-371,-76,0,0,0,0,0,0,0,0,0,-1,853,1100,0,0
-364,-76,0,0,0,0,0,0,0,0,0,-1,860,1100,0,0
-357,-76,0,0,0,0,0,0,0,0,0,-1,867,1100,0,0
-350,-76,0,0,0,0,0,0,0,0,0,-1,874,1100,0,0
-343,-76,0,0,0,0,0,0,0,0,0,-1,881,1100,0,0
-336,-76,0,0,0,0,0,0,0,0,0,-1,888,1100,0,0
-329,-76,0,0,0,0,0,0,0,0,0,-1,895,1100,0,0
-322,-76,0,0,0,0,0,0,0,0,0,-1,902,1100,0,0
-315,-76,0,0,0,0,0,0,0,0,0,-1,909,1100,0,0
-308,-76,0,0,0,0,0,0,0,0,0,-1,916,1100,0,0
-301,-76,0,0,0,0,0,0,0,0,0,-1,923,1100,0,0
-294,-76,0,0,0,0,0,0,0,0,0,-1,930,1100,0,0
-287,-76,0,0,0,0,0,0,0,0,0,-1,937,1100,0,0
-280,-76,0,0,0,0,0,0,0,0,0,-1,944,1100,0,0
-273,-76,0,0,0,0,0,0,0,0,0,-1,951,1100,0,0
-266,-76,0,0,0,0,0,0,0,0,0,-1,958,1100,0,0
-259,-76,0,0,0,0,0,0,0,0,0,-1,965,1100,0,0
-252,-76,0,0,0,0,0,0,0,0,0,-1,972,1100,0,0
-245,-76,0,0,0,0,0,0,0,0,0,-1,979,1100,0,0
-238,-76,0,0,0,0,0,0,0,0,0,-1,986,1100,0,0
-231,-76,0,0,0,0,0,0,0,0,0,-1,993,1100,0,0
-224,-76,0,0,0,0,0,0,0,0,0,-1,1000,1100,0,0
-217,-76,0,0,0,0,0,0,0,0,0,-1,1007,1100,0,0
-210,-76,0,0,0,0,0,0,0,0,0,-1,1014,1100,0,0
-203,-76,0,0,0,0,0,0,0,0,0,-1,1021,1100,0,0
-196,-76,0,0,0,0,0,0,0,0,0,-1,1028,1100,0,0
-189,-76,0,0,0,0,0,0,0,0,0,-1,1035,1100,0,0
-182,-76,0,0,0,0,0,0,0,0,0,-1,1042,1100,0,0
-175,-76,0,0,0,0,0,0,0,0,0,-1,1049,1100,0,0
-168,-76,0,0,0,0,0,0,0,0,0,-1,1056,1100,0,0
-161,-76,0,0,0,0,0,0,0,0,0,-1,1063,1100,0,0
-154,-76,0,0,0,0,0,0,0,0,0,-1,1070,1100,0,0
-147,-76,0,0,0,0,0,0,0,0,0,-1,1077,1100,0,0
-140,-76,0,0,0,0,0,0,0,0,0,-1,1084,1100,0,0
-133,-76,0,0,0,0,0,0,0,0,0,-1,1091,1100,0,0
-126,-76,0,0,0,0,0,0,0,0,0,-1,1098,1100,0,0
-119,-76,0,0,0,0,0,0,0,0,0,-1,1105,1100,0,0
-112,-76,0,0,0,0,0,0,0,0,0,-1,1112,1100,0,0
-105,-76,0,0,0,0,0,0,0,0,0,-1,1119,1100,0,0
-98,-76,0,0,0,0,0,0,0,0,0,-1,1126,1100,0,0
-91,-76,0,0,0,0,0,0,0,0,0,-1,1133,1100,0,0
-84,-76,0,0,0,0,0,0,0,0,0,-1,1140,1100,0,0
-77,-76,0,0,0,0,0,0,0,0,0,-1,1147,1100,0,0
-70,-76,0,0,0,0,0,0,0,0,0,-1,1154,1100,0,0
-63,-76,0,0,0,0,0,0,0,0,0,-1,1161,1100,0,0
-56,-76,0,0,0,0,0,0,0,0,0,-1,1168,1100,0,0
-49,-76,0,0,0,0,0,0,0,0,0,-1,1175,1100,0,0
-42,-76,0,0,0,0,0,0,0,0,0,-1,1182,1100,0,0
-35,-76,0,0,0,0,0,0,0,0,0,-1,1189,1100,0,0
-28,-76,0,0,0,0,0,0,0,0,0,-1,1196,1100,0,0
-21,-76,0,0,0,0,0,0,0,0,0,-1,1203,1100,0,0
-14,-76,0,0,0,0,0,0,0,0,0,-1,1210,1100,0,0
-7,-76,0,0,0,0,0,0,0,0,0,-1,1217,1100,0,0
0,-76,0,0,0,0,0,0,0,0,0,-1,1224,1100,0,0
7,-76,0,0,0,0,0,0,0,0,0,-1,1231,1100,0,0
14,-76,0,0,0,0,0,0,0,0,0,-1,1238,1100,0,0
21,-76,0,0,0,0,0,0,0,0,0,-1,1245,1100,0,0
28,-76,0,0,0,0,0,0,0,0,0,-1,1252,1100,0,0
35,-76,0,0,0,0,0,0,0,0,0,-1,1259,1100,0,0
42,-76,0,0,0,0,0,0,0,0,0,-1,1266,1100,0,0
49,-76,0,0,0,0,0,0,0,0,0,-1,1273,1100,0,0
56,-76,0,0,0,0,0,0,0,0,0,-1,1280,1100,0,0
63,-76,0,0,0,0,0,0,0,0,0,-1,1287,1100,0,0
70,-76,0,0,0,0,0,0,0,0,0,-1,1294,1100,0,0
77,-76,0,0,0,0,0,0,0,0,0,-1,1301,1100,0,0
84,-76,0,0,0,0,0,0,0,0,0,-1,1308,1100,0,0
91,-76,0,0,0,0,0,0,0,0,0,-1,1315,1100,0,0
98,-76,0,0,0,0,0,0,0,0,0,-1,1322,1100,0,0
105,-76,0,0,0,0,0,0,0,0,0,-1,1329,1100,0,0
112,-76,0,0,0,0,0,0,0,0,0,-1,1336,1100,0,0
119,-76,0,0,0,0,0,0,0,0,0,-1,1343,1100,0,0
126,-76,0,0,0,0,0,0,0,0,0,-1,1350,1100,0,0
133,-76,0,0,0,0,0,0,0,0,0,-1,1357,1100,0,0
140,-76,0,0,0,0,0,0,0,0,0,-1,1364,1100,0,0
147,-76,0,0,0,0,0,0,0,0,0,-1,1371,1100,0,0
154,-76,0,0,0,0,0,0,0,0,0,-1,1378,1100,0,0
161,-76,0,0,0,0,0,0,0,0,0,-1,1385,1100,0,0
168,-76,0,0,0,0,0,0,0,0,0,-1,1392,1100,0,0
175,-76,0,0,0,0,0,0,0,0,0,-1,1399,1100,0,0
182,-76,0,0,0,0,0,0,0,0,0,-1,1406,1100,0,0
189,-76,0,0,0,0,0,0,0,0,0,-1,1413,1100,0,0
196,-76,0,0,0,0,0,0,0,0,0,-1,1420,1100,0,0
203,-76,0,0,0,0,0,0,0,0,0,-1,1427,1100,0,0
210,-76,0,0,0,0,0,0,0,0,0,-1,1434,1100,0,0
217,-76,0,0,0,0,0,0,0,0,0,-1,1441,1100,0,0
224,-76,0,0,0,0,0,0,0,0,0,-1,1448,1100,0,0
231,-76,0,0,0,0,0,0,0,0,0,-1,1455,1100,0,0
238,-76,0,0,0,0,0,0,0,0,0,-1,1462,1100,0,0
245,-76,0,0,0,0,0,0,0,0,0,-1,1469,1100,0,0
252,-76,0,0,0,0,0,0,0,0,0,-1,1476,1100,0,0
259,-76,0,0,0,0,0,0,0,0,0,-1,1483,1100,0,0
266,-76,0,0,0,0,0,0,0,0,0,-1,1490,1100,0,0
273,-76,0,0,0,0,0,0,0,0,0,-1,1497,1100,0,0
280,-76,0,0,0,0,0,0,0,0,0,-1,1504,1100,0,0
287,-76,0,0,0,0,0,0,0,0,0,-1,1511,1100,0,0
294,-76,0,0,0,0,0,0,0,0,0,-1,1518,1100,0,0
301,-76,0,0,0,0,0,0,0,0,0,-1,1525,1100,0,0
308,-76,0,0,0,0,0,0,0,0,0,-1,1532,1100,0,0
315,-76,0,0,0,0,0,0,0,0,0,-1,1539,1100,0,0
322,-76,0,0,0,0,0,0,0,0,0,-1,1546,1100,0,0
329,-76,0,0,0,0,0,0,0,0,0,-1,1553,1100,0,0
336,-76,0,0,0,0,0,0,0,0,0,-1,1560,1100,0,0
343,-76,0,0,0,0,0,0,0,0,0,-1,1567,1100,0,0
350,-76,0,0,0,0,0,0,0,0,0,-1,1574,1100,0,0
357,-76,0,0,0,0,0,0,0,0,0,-1,1581,1100,0,0
364,-76,0,0,0,0,0,0,0,0,0,-1,1588,1100,0,0
371,-76,0,0,0,0,0,0,0,0,0,-1,1595,1100,0,0
378,-76,0,0,0,0,0,0,0,0,0,-1,1602,1100,0,0
385,-76,0,0,0,0,0,0,0,0,0,-1,1609,1100,0,0
392,-76,0,0,0,0,0,0,0,0,0,-1,1616,1100,0,0
399,-76,0,0,0,0,0,0,0,0,0,-1,1623,1100,0,0
406,-76,0,0,0,0,0,0,0,0,0,-1,1630,1100,0,0
413,-76,0,0,0,0,0,0,0,0,0,-1,1637,1100,0,0
420,-76,0,0,0,0,0,0,0,0,0,-1,1644,1100,0,0
427,-76,0,0,0,0,0,0,0,0,0,-1,1651,1100,0,0
434,-76,0,0,0,0,0,0,0,0,0,-1,1658,1100,0,0
441,-76,0,0,0,0,0,0,0,0,0,-1,1665,1100,0,0
448,-76,0,0,0,0,0,0,0,0,0,-1,1672,1100,0,0
455,-76,0,0,0,0,0,0,0,0,0,-1,1679,1100,0,0
462,-76,0,0,0,0,0,0,0,0,0,-1,1686,1100,0,0
469,-76,0,0,0,0,0,0,0,0,0,-1,1693,1100,0,0
476,-76,0,0,0,0,0,0,0,0,0,-1,1700,1100,0,0
483,-76,0,0,0,0,0,0,0,0,0,-1,1707,1100,0,0
490,-76,0,0,0,0,0,0,0,0,0,-1,1714,1100,0,0
497,-76,0,0,0,0,0,0,0,0,0,-1,1721,1100,0,0
504,-76,0,0,0,0,0,0,0,0,0,-1,1728,1100,0,0
511,-76,0,0,0,0,0,0,0,0,0,-1,1735,1100,0,0
518,-76,0,0,0,0,0,0,0,0,0,-1,1742,1100,0,0
525,-76,0,0,0,0,0,0,0,0,0,-1,1749,1100,0,0
532,-76,0,0,0,0,0,0,0,0,0,-1,1756,1100,0,0
539,-76,0,0,0,0,0,0,0,0,0,-1,1763,1100,0,0
546,-76,0,0,0,0,0,0,0,0,0,-1,1770,1100,0,0
553,-76,0,0,0,0,0,0,0,0,0,-1,1777,1100,0,0
560,-76,0,0,0,0,0,0,0,0,0,-1,1784,1100,0,0
567,-76,0,0,0,0,0,0,0,0,0,-1,1791,1100,0,0
574,-76,0,0,0,0,0,0,0,0,0,-1,1798,1100,0,0
581,-76,0,0,0,0,0,0,0,0,0,-1,1805,1100,0,0
588,-76,0,0,0,0,0,0,0,0,0,-1,1812,1100,0,0
595,-76,0,0,0,0,0,0,0,0,0,-1,1819,1100,0,0
602,-76,0,0,0,0,0,0,0,0,0,-1,1826,1100,0,0
609,-76,0,0,0,0,0,0,0,0,0,-1,1833,1100,0,0
616,-76,0,0,0,0,0,0,0,0,0,-1,1840,1100,0,0
623,-76,0,0,0,0,0,0,0,0,0,-1,1847,1100,0,0
630,-76,0,0,0,0,0,0,0,0,0,-1,1854,1100,0,0
637,-76,0,0,0,0,0,0,0,0,0,-1,1861,1100,0,0
644,-76,0,0,0,0,0,0,0,0,0,-1,1868,1100,0,0
651,-76,46.6576,2.78149,0.00437895,-0.00168319,-0.00226702,0.00513295,-0.00243719,-0.321086,0.00446204,0.0386338,1875,1100,46.6576,-2.78155
658,-76,46.693,2.79602,0.00279202,-0.000930563,-0.00152886,0.00333943,-0.00147797,-0.343826,0.0028497,0.0404068,1882,1100,46.693,-2.79606
665,-76,46.6989,2.55542,0.00179052,-0.000378998,-0.000833757,0.00207392,-0.000662396,-0.327653,0.00164839,0.04012,1889,1100,46.6989,-2.5554
672,-76,46.4852,2.51001,0.00118383,0.000125647,-0.000154382,0.0012059,0.000103584,-0.141952,0.000771725,0.0368649,1896,1100,46.4852,-2.50998
679,-76,46.6085,2.58447,0.000646769,0.000453672,0.000442573,0.0010032,9.72392e-05,0.678004,0.00063886,0.0377975,1903,1100,46.6085,-2.58444
686,-76,46.8015,2.63538,0.000246698,0.000414171,0.000922551,0.00125678,-0.000595909,0.830657,0.0010921,0.0377378,1910,1100,46.8015,-2.63537
693,-76,46.6736,2.61633,8.38414e-05,0.0002383,0.00123058,0.00139407,-0.00107193,0.816736,0.00142779,0.0359119,1917,1100,46.6736,-2.6163
700,-76,46.6042,2.62085,-4.50128e-05,9.82254e-05,0.00142273,0.00145113,-0.00139792,0.810547,0.001645,0.0308243,1924,1100,46.6042,-2.62082
707,-76,46.6327,2.68494,-0.000354844,5.69968e-05,0.00173033,0.00159362,-0.00189147,0.844623,0.00201456,0.0259055,1931,1100,46.6327,-2.68491
714,-76,46.6857,2.67395,0,0,0,0,0,0,0,-1,1938,1100,46.6857,-2.674
721,-76,45.1713,3.04919,0,0,0,0,0,0,0,-1,1945,1100,45.1713,-3.04915
728,-76,43.8673,6.61133,0,0,0,0,0,0,0,-1,1952,1100,43.8673,-6.61131
735,-76,44.2776,6.40906,-0.00116606,0.000670998,0.00227314,0.00220417,-0.00269923,0.977408,0.00283579,0.0366662,1959,1100,44.2776,-6.40908
742,-76,44.5171,6.1377,-0.00065732,0.00130039,0.0023782,0.00289331,-0.00225024,0.980629,0.00297735,0.0244961,1966,1100,44.5171,-6.13765
749,-76,44.4351,5.78882,0.000575727,0.00263197,0.00257854,0.0043798,-0.0011721,0.975101,0.00337902,0.0237216,1973,1100,44.4351,-5.7888
756,-76,44.4972,5.54529,0.00165676,0.00475788,0.00289667,0.00649288,-7.82434e-05,1.03114,0.0043549,0.0154659,1980,1100,44.4971,-5.54523
763,-76,44.4695,5.26428,0.00271833,0.00687779,0.0020987,0.00775269,0.00184343,1.17583,0.0046767,0.0166671,1987,1100,44.4695,-5.26423
770,-76,44.363,5.04126,0.00492149,0.0101574,0.00150431,0.0105589,0.00452007,1.31003,0.00611714,0.0178598,1994,1100,44.363,-5.04128
777,-76,44.2833,4.88953,0.00739389,0.0140338,0.000618937,0.014091,0.00733669,1.47864,0.00813778,0.0234349,2001,1100,44.2834,-4.88956
784,-76,44.4663,4.51355,0.00956705,0.0180945,-0.000731236,0.0181568,0.0095048,-1.48587,0.0104867,0.0340824,2008,1100,44.4664,-4.51355
791,-76,45.1641,4.02795,0.0110852,0.0222988,-0.00279785,0.0229581,0.0104259,-1.33937,0.0132735,0.0388811,2015,1100,45.164,-4.02797
798,-76,46.1387,3.92456,0.0114888,0.0264593,-0.00598968,0.0285608,0.0093873,-1.23337,0.0168092,0.0412425,2022,1100,46.1387,-3.92459
805,-76,46.7666,4.23621,0,0,0,0,0,0,0,-1,2029,1100,46.7665,-4.23621
812,-76,47.3345,4.27405,0,0,0,0,0,0,0,-1,2036,1100,47.3344,-4.274
-700,-83,0,0,0,0,0,0,0,0,0,-1,524,1107,0,0
-693,-83,-32.2798,2.56921,0.0010143,0.0511696,0.0209918,0.0587958,-0.00661194,1.22233,0.0415768,0.0462009,531,1107,-32.2798,-2.56927
-686,-83,-32.2306,2.41626,0.00173562,0.0497811,0.0181755,0.0558821,-0.00436542,1.24694,0.0387918,0.0474564,538,1107,-32.2306,-2.41626
-679,-83,-32.2459,2.26038,0.00172942,0.0457063,0.0150312,0.050353,-0.00291726,1.27098,0.0345821,0.047579,545,1107,-32.2459,-2.26043
-672,-83,-32.3051,2.0437,0.0014238,0.040304,0.0119223,0.0436687,-0.00194088,1.29573,0.0297805,0.0447953,552,1107,-32.3051,-2.04367
-665,-83,-32.3797,1.45508,0.000886795,0.0342923,0.00905282,0.0365878,-0.00140876,1.32246,0.0248748,0.0439552,559,1107,-32.3797,-1.45504
-658,-83,-32.4253,1.12805,0.000331884,0.028157,0.00653159,0.0296139,-0.00112504,1.35133,0.0201281,0.0420906,566,1107,-32.4253,-1.12802
-651,-83,-32.3003,1.33826,2.14902e-05,0.0222499,0.00444462,0.0231057,-0.000834276,1.38058,0.0156893,0.0319763,573,1107,-32.3003,-1.33826
-644,-83,-32.2902,1.83716,0.000137804,0.0168966,0.00279846,0.0173516,-0.000317146,1.40963,0.0116749,0.0160532,580,1107,-32.2902,-1.83721
-637,-83,-32.35,2.15588,-6.34312e-05,0.0119622,0.00129101,0.0120993,-0.000200466,1.46505,0.00813383,0.0122353,587,1107,-32.35,-2.15589
-630,-83,-32.3917,2.49634,0.000197061,0.00732039,0.000194199,0.00732568,0.00019177,1.54356,0.00482113,0.0166747,594,1107,-32.3917,-2.49632
-623,-83,-32.4261,2.8197,0.00105869,0.00359086,-0.000439388,0.00366494,0.000984618,-1.40378,0.00219015,0.0150742,601,1107,-32.4261,-2.81976
-616,-83,-32.4705,3.15576,0.00196874,0.00136976,-0.000296171,0.00209045,0.00124804,-0.389913,0.00121447,0.0148948,608,1107,-32.4704,-3.15573
-609,-83,-32.4565,3.43494,0.0027371,6.98824e-05,-0.00012945,0.00274337,6.36145e-05,-0.0483822,0.00180808,0.0175228,615,1107,-32.4565,-3.43489
-602,-83,-32.454,3.76453,0.0031379,-9.91493e-05,-4.90993e-05,0.00313864,-9.98939e-05,-0.0151633,0.00212651,0.0181597,622,1107,-32.454,-3.76449
-595,-83,-32.3733,4.07349,0.00324315,-3.04032e-05,0.000242955,0.00326108,-4.83366e-05,0.0736795,0.00219034,0.0209139,629,1107,-32.3733,-4.07345
-588,-83,-32.3575,4.32886,0,0,0,0,0,0,0,-1,636,1107,-32.3575,-4.32883
-581,-83,-34.6883,0.764038,0,0,0,0,0,0,0,-1,643,1107,-34.6883,-0.764042
-574,-83,-34.6459,0.674805,0.00489576,0.000275585,0.000491967,0.00494757,0.00022378,0.104915,0.00322637,0.0366483,650,1107,-34.6459,-0.674848
-567,-83,-34.5897,0.958008,0.0052785,0.000631727,0.000500741,0.00533185,0.000578379,0.106138,0.00337832,0.0414051,657,1107,-34.5897,-0.957958
-560,-83,-34.7438,1.21411,0.00561644,0.00105126,0.000391994,0.00564985,0.00101784,0.0850365,0.0034773,0.0416884,664,1107,-34.7438,-1.21407
-553,-83,-34.692,1.20752,0.00586024,0.00140193,4.10053e-05,0.00586061,0.00140155,0.00919646,0.00353378,0.0445738,671,1107,-34.692,-1.20749
-546,-83,-34.6754,1.27209,0.00659794,0.00145406,-0.000631054,0.00667423,0.00137777,-0.120304,0.00406874,0.0434324,678,1107,-34.6754,-1.27205
-539,-83,-34.6807,1.06506,0.00913971,0.000536107,-0.0017393,0.00947803,0.000197795,-0.192112,0.00625379,0.0436023,685,1107,-34.6806,-1.06512
-532,-83,-34.5634,0.73645,0.0122786,-0.0005622,-0.00264324,0.0128014,-0.00108502,-0.195274,0.00891795,0.0462775,692,1107,-34.5634,-0.736471
-525,-83,0,0,0,0,0,0,0,0,0,-1,699,1107,0,0
-518,-83,0,0,0,0,0,0,0,0,0,-1,706,1107,0,0
-511,-83,0,0,0,0,0,0,0,0,0,-1,713,1107,0,0
-504,-83,0,0,0,0,0,0,0,0,0,-1,720,1107,0,0
-497,-83,0,0,0,0,0,0,0,0,0,-1,727,1107,0,0
-490,-83,0,0,0,0,0,0,0,0,0,-1,734,1107,0,0
-483,-83,0,0,0,0,0,0,0,0,0,-1,741,1107,0,0
-476,-83,0,0,0,0,0,0,0,0,0,-1,748,1107,0,0
-469,-83,0,0,0,0,0,0,0,0,0,-1,755,1107,0,0
-462,-83,0,0,0,0,0,0,0,0,0,-1,762,1107,0,0
-455,-83,0,0,0,0,0,0,0,0,0,-1,769,1107,0,0
-448,-83,0,0,0,0,0,0,0,0,0,-1,776,1107,0,0
-441,-83,0,0,0,0,0,0,0,0,0,-1,783,1107,0,0
-434,-83,0,0,0,0,0,0,0,0,0,-1,790,1107,0,0
-427,-83,0,0,0,0,0,0,0,0,0,-1,797,1107,0,0
-420,-83,0,0,0,0,0,0,0,0,0,-1,804,1107,0,0
-413,-83,0,0,0,0,0,0,0,0,0,-1,811,1107,0,0
-406,-83,0,0,0,0,0,0,0,0,0,-1,818,1107,0,0
-399,-83,0,0,0,0,0,0,0,0,0,-1,825,1107,0,0
-392,-83,0,0,0,0,0,0,0,0,0,-1,832,1107,0,0
-385,-83,0,0,0,0,0,0,0,0,0,-1,839,1107,0,0
-378,-83,0,0,0,0,0,0,0,0,0,-1,846,1107,0,0
-371,-83,0,0,0,0,0,0,0,0,0,-1,853,1107,0,0
-364,-83,0,0,0,0,0,0,0,0,0,-1,860,1107,0,0
-357,-83,0,0,0,0,0,0,0,0,0,-1,867,1107,0,0
-350,-83,0,0,0,0,0,0,0,0,0,-1,874,1107,0,0
-343,-83,0,0,0,0,0,0,0,0,0,-1,881,1107,0,0
-336,-83,0,0,0,0,0,0,0,0,0,-1,888,1107,0,0
-329,-83,0,0,0,0,0,0,0,0,0,-1,895,1107,0,0
-322,-83,0,0,0,0,0,0,0,0,0,-1,902,1107,0,0
-315,-83,0,0,0,0,0,0,0,0,0,-1,909,1107,0,0
-308,-83,0,0,0,0,0,0,0,0,0,-1,916,1107,0,0
-301,-83,0,0,0,0,0,0,0,0,0,-1,923,1107,0,0
-294,-83,0,0,0,0,0,0,0,0,0,-1,930,1107,0,0
-287,-83,0,0,0,0,0,0,0,0,0,-1,937,1107,0,0
-280,-83,0,0,0,0,0,0,0,0,0,-1,944,1107,0,0
-273,-83,0,0,0,0,0,0,0,0,0,-1,951,1107,0,0
-266,-83,0,0,0,0,0,0,0,0,0,-1,958,1107,0,0
-259,-83,0,0,0,0,0,0,0,0,0,-1,965,1107,0,0
-252,-83,0,0,0,0,0,0,0,0,0,-1,972,1107,0,0
-245,-83,0,0,0,0,0,0,0,0,0,-1,979,1107,0,0
-238,-83,0,0,0,0,0,0,0,0,0,-1,986,1107,0,0
-231,-83,0,0,0,0,0,0,0,0,0,-1,993,1107,0,0
-224,-83,0,0,0,0,0,0,0,0,0,-1,1000,1107,0,0
-217,-83,0,0,0,0,0,0,0,0,0,-1,1007,1107,0,0
-210,-83,0,0,0,0,0,0,0,0,0,-1,1014,1107,0,0
-203,-83,0,0,0,0,0,0,0,0,0,-1,1021,1107,0,0
-196,-83,0,0,0,0,0,0,0,0,0,-1,1028,1107,0,0
-189,-83,0,0,0,0,0,0,0,0,0,-1,1035,1107,0,0
-182,-83,0,0,0,0,0,0,0,0,0,-1,1042,1107,0,0
-175,-83,0,0,0,0,0,0,0,0,0,-1,1049,1107,0,0
-168,-83,0,0,0,0,0,0,0,0,0,-1,1056,1107,0,0
-161,-83,0,0,0,0,0,0,0,0,0,-1,1063,1107,0,0
-154,-83,0,0,0,0,0,0,0,0,0,-1,1070,1107,0,0
-147,-83,0,0,0,0,0,0,0,0,0,-1,1077,1107,0,0
-140,-83,0,0,0,0,0,0,0,0,0,-1,1084,1107,0,0
-133,-83,0,0,0,0,0,0,0,0,0,-1,1091,1107,0,0
-126,-83,0,0,0,0,0,0,0,0,0,-1,1098,1107,0,0
-119,-83,0,0,0,0,0,0,0,0,0,-1,1105,1107,0,0
-112,-83,0,0,0,0,0,0,0,0,0,-1,1112,1107,0,0
-105,-83,0,0,0,0,0,0,0,0,0,-1,1119,1107,0,0
-98,-83,0,0,0,0,0,0,0,0,0,-1,1126,1107,0,0
-91,-83,0,0,0,0,0,0,0,0,0,-1,1133,1107,0,0
-84,-83,0,0,0,0,0,0,0,0,0,-1,1140,1107,0,0
-77,-83,0,0,0,0,0,0,0,0,0,-1,1147,1107,0,0
-70,-83,0,0,0,0,0,0,0,0,0,-1,1154,1107,0,0
-63,-83,0,0,0,0,0,0,0,0,0,-1,1161,1107,0,0
-56,-83,0,0,0,0,0,0,0,0,0,-1,1168,1107,0,0
-49,-83,0,0,0,0,0,0,0,0,0,-1,1175,1107,0,0
-42,-83,0,0,0,0,0,0,0,0,0,-1,1182,1107,0,0
-35,-83,0,0,0,0,0,0,0,0,0,-1,1189,1107,0,0
-28,-83,0,0,0,0,0,0,0,0,0,-1,1196,1107,0,0
-21,-83,0,0,0,0,0,0,0,0,0,-1,1203,1107,0,0
-14,-83,0,0,0,0,0,0,0,0,0,-1,1210,1107,0,0
-7,-83,0,0,0,0,0,0,0,0,0,-1,1217,1107,0,0
0,-83,0,0,0,0,0,0,0,0,0,-1,1224,1107,0,0
7,-83,0,0,0,0,0,0,0,0,0,-1,1231,1107,0,0
14,-83,0,0,0,0,0,0,0,0,0,-1,1238,1107,0,0
21,-83,0,0,0,0,0,0,0,0,0,-1,1245,1107,0,0
28,-83,0,0,0,0,0,0,0,0,0,-1,1252,1107,0,0
35,-83,0,0,0,0,0,0,0,0,0,-1,1259,1107,0,0
42,-83,0,0,0,0,0,0,0,0,0,-1,1266,1107,0,0
49,-83,0,0,0,0,0,0,0,0,0,-1,1273,1107,0,0
56,-83,0,0,0,0,0,0,0,0,0,-1,1280,1107,0,0
63,-83,0,0,0,0,0,0,0,0,0,-1,1287,1107,0,0
70,-83,0,0,0,0,0,0,0,0,0,-1,1294,1107,0,0
77,-83,0,0,0,0,0,0,0,0,0,-1,1301,1107,0,0
84,-83,0,0,0,0,0,0,0,0,0,-1,1308,1107,0,0
91,-83,0,0,0,0,0,0,0,0,0,-1,1315,1107,0,0
98,-83,0,0,0,0,0,0,0,0,0,-1,1322,1107,0,0
105,-83,0,0,0,0,0,0,0,0,0,-1,1329,1107,0,0
112,-83,0,0,0,0,0,0,0,0,0,-1,1336,1107,0,0
119,-83,0,0,0,0,0,0,0,0,0,-1,1343,1107,0,0
126,-83,0,0,0,0,0,0,0,0,0,-1,1350,1107,0,0
133,-83,0,0,0,0,0,0,0,0,0,-1,1357,1107,0,0
140,-83,0,0,0,0,0,0,0,0,0,-1,1364,1107,0,0
147,-83,0,0,0,0,0,0,0,0,0,-1,1371,1107,0,0
154,-83,0,0,0,0,0,0,0,0,0,-1,1378,1107,0,0
161,-83,0,0,0,0,0,0,0,0,0,-1,1385,1107,0,0
168,-83,0,0,0,0,0,0,0,0,0,-1,1392,1107,0,0
175,-83,0,0,0,0,0,0,0,0,0,-1,1399,1107,0,0
182,-83,0,0,0,0,0,0,0,0,0,-1,1406,1107,0,0
189,-83,0,0,0,0,0,0,0,0,0,-1,1413,1107,0,0
196,-83,0,0,0,0,0,0,0,0,0,-1,1420,1107,0,0
203,-83,0,0,0,0,0,0,0,0,0,-1,1427,1107,0,0
210,-83,0,0,0,0,0,0,0,0,0,-1,1434,1107,0,0
217,-83,0,0,0,0,0,0,0,0,0,-1,1441,1107,0,0
224,-83,0,0,0,0,0,0,0,0,0,-1,1448,1107,0,0
231,-83,0,0,0,0,0,0,0,0,0,-1,1455,1107,0,0
238,-83,0,0,0,0,0,0,0,0,0,-1,1462,1107,0,0
245,-83,0,0,0,0,0,0,0,0,0,-1,1469,1107,0,0
252,-83,0,0,0,0,0,0,0,0,0,-1,1476,1107,0,0
259,-83,0,0,0,0,0,0,0,0,0,-1,1483,1107,0,0
266,-83,0,0,0,0,0,0,0,0,0,-1,1490,1107,0,0
273,-83,0,0,0,0,0,0,0,0,0,-1,1497,1107,0,0
280,-83,0,0,0,0,0,0,0,0,0,-1,1504,1107,0,0
287,-83,0,0,0,0,0,0,0,0,0,-1,1511,1107,0,0
294,-83,0,0,0,0,0,0,0,0,0,-1,1518,1107,0,0
301,-83,0,0,0,0,0,0,0,0,0,-1,1525,1107,0,0
308,-83,0,0,0,0,0,0,0,0,0,-1,1532,1107,0,0
315,-83,0,0,0,0,0,0,0,0,0,-1,1539,1107,0,0
322,-83,0,0,0,0,0,0,0,0,0,-1,1546,1107,0,0
329,-83,0,0,0,0,0,0,0,0,0,-1,1553,1107,0,0
336,-83,0,0,0,0,0,0,0,0,0,-1,1560,1107,0,0
343,-83,0,0,0,0,0,0,0,0,0,-1,1567,1107,0,0
350,-83,0,0,0,0,0,0,0,0,0,-1,1574,1107,0,0
357,-83,0,0,0,0,0,0,0,0,0,-1,1581,1107,0,0
364,-83,0,0,0,0,0,0,0,0,0,-1,1588,1107,0,0
371,-83,0,0,0,0,0,0,0,0,0,-1,1595,1107,0,0
378,-83,0,0,0,0,0,0,0,0,0,-1,1602,1107,0,0
385,-83,0,0,0,0,0,0,0,0,0,-1,1609,1107,0,0
392,-83,0,0,0,0,0,0,0,0,0,-1,1616,1107,0,0
399,-83,0,0,0,0,0,0,0,0,0,-1,1623,1107,0,0
406,-83,0,0,0,0,0,0,0,0,0,-1,1630,1107,0,0
413,-83,0,0,0,0,0,0,0,0,0,-1,1637,1107,0,0
420,-83,0,0,0,0,0,0,0,0,0,-1,1644,1107,0,0
427,-83,0,0,0,0,0,0,0,0,0,-1,1651,1107,0,0
434,-83,0,0,0,0,0,0,0,0,0,-1,1658,1107,0,0
441,-83,0,0,0,0,0,0,0,0,0,-1,1665,1107,0,0
448,-83,0,0,0,0,0,0,0,0,0,-1,1672,1107,0,0
455,-83,0,0,0,0,0,0,0,0,0,-1,1679,1107,0,0
462,-83,0,0,0,0,0,0,0,0,0,-1,1686,1107,0,0
469,-83,0,0,0,0,0,0,0,0,0,-1,1693,1107,0,0
476,-83,0,0,0,0,0,0,0,0,0,-1,1700,1107,0,0
483,-83,0,0,0,0,0,0,0,0,0,-1,1707,1107,0,0
490,-83,0,0,0,0,0,0,0,0,0,-1,1714,1107,0,0
497,-83,0,0,0,0,0,0,0,0,0,-1,1721,1107,0,0
504,-83,0,0,0,0,0,0,0,0,0,-1,1728,1107,0,0
511,-83,0,0,0,0,0,0,0,0,0,-1,1735,1107,0,0
518,-83,0,0,0,0,0,0,0,0,0,-1,1742,1107,0,0
525,-83,0,0,0,0,0,0,0,0,0,-1,1749,1107,0,0
532,-83,0,0,0,0,0,0,0,0,0,-1,1756,1107,0,0
539,-83,0,0,0,0,0,0,0,0,0,-1,1763,1107,0,0
546,-83,0,0,0,0,0,0,0,0,0,-1,1770,1107,0,0
553,-83,0,0,0,0,0,0,0,0,0,-1,1777,1107,0,0
560,-83,0,0,0,0,0,0,0,0,0,-1,1784,1107,0,0
567,-83,0,0,0,0,0,0,0,0,0,-1,1791,1107,0,0
574,-83,0,0,0,0,0,0,0,0,0,-1,1798,1107,0,0
581,-83,0,0,0,0,0,0,0,0,0,-1,1805,1107,0,0
588,-83,0,0,0,0,0,0,0,0,0,-1,1812,1107,0,0
595,-83,0,0,0,0,0,0,0,0,0,-1,1819,1107,0,0
602,-83,0,0,0,0,0,0,0,0,0,-1,1826,1107,0,0
609,-83,0,0,0,0,0,0,0,0,0,-1,1833,1107,0,0
616,-83,0,0,0,0,0,0,0,0,0,-1,1840,1107,0,0
623,-83,0,0,0,0,0,0,0,0,0,-1,1847,1107,0,0
630,-83,0,0,0,0,0,0,0,0,0,-1,1854,1107,0,0
637,-83,0,0,0,0,0,0,0,0,0,-1,1861,1107,0,0
644,-83,46.6659,2.56873,0.00681992,-0.00193353,-0.00329003,0.0079186,-0.0030322,-0.322297,0.00652889,0.0374015,1868,1107,46.6659,-2.5687
651,-83,46.7401,2.56458,0.00453983,-0.00108443,-0.00243689,0.00544878,-0.00199338,-0.357016,0.00444844,0.0390732,1875,1107,46.7402,-2.56456
658,-83,46.8965,2.68457,0.00297279,-0.00062511,-0.0017573,0.00368866,-0.00134098,-0.386844,0.00300746,0.0423792,1882,1107,46.8965,-2.68451
665,-83,46.7682,2.57141,0.00195475,-0.00026779,-0.00106949,0.00238579,-0.00069883,-0.38312,0.00186757,0.0408312,1889,1107,46.7681,-2.57143
672,-83,46.5386,2.50122,0.00130904,8.08984e-05,-0.000374713,0.00141433,-2.44009e-05,-0.273948,0.000951128,0.0377734,1896,1107,46.5386,-2.50125
679,-83,46.5889,2.55432,0.000722137,0.000288216,0.000242401,0.000830492,0.000179862,0.420362,0.00050451,0.0382892,1903,1107,46.5888,-2.55429
686,-83,46.6974,2.62927,0.000326572,0.000206897,0.000724103,0.000993306,-0.000459837,0.744173,0.00085761,0.0362336,1910,1107,46.6974,-2.62923
693,-83,46.6737,2.60767,0.000185949,5.42277e-05,0.00102687,0.00114906,-0.000908888,0.753373,0.00119085,0.0346291,1917,1107,46.6737,-2.60761
700,-83,46.6281,2.66309,7.05488e-05,-5.67075e-05,0.00119758,0.00120619,-0.00119235,0.758858,0.00138481,0.0311697,1924,1107,46.628,-2.66309
707,-83,46.629,2.70715,-0.000242629,-7.67997e-05,0.00151365,0.00135621,-0.00167564,0.81276,0.00175367,0.0245046,1931,1107,46.629,-2.70716
714,-83,46.604,2.64233,0,0,0,0,0,0,0,-1,1938,1107,46.604,-2.64231
721,-83,44.2903,6.90771,0,0,0,0,0,0,0,-1,1945,1107,44.2903,-6.90769
728,-83,44.2864,6.64697,-0.000885224,0.000333521,0.00205465,0.00186726,-0.00241896,0.929557,0.00248148,0.0399965,1952,1107,44.2864,-6.64698
735,-83,43.9834,6.37781,-0.000928171,0.000596278,0.0021078,0.00207544,-0.00240734,0.958893,0.0025905,0.0381428,1959,1107,43.9834,-6.37779
742,-83,44.1464,6.12708,-0.000489323,0.00117253,0.00219764,0.00269108,-0.00200788,0.966141,0.00272249,0.0229168,1966,1107,44.1464,-6.12709
749,-83,44.2052,5.81482,0.000616486,0.00252449,0.0023972,0.00415054,-0.00100957,0.974773,0.00315781,0.0159596,1973,1107,44.2052,-5.81481
756,-83,44.2297,5.52551,0.00165766,0.00445511,0.0027503,0.00614193,-2.91567e-05,1.02064,0.00410437,0.0162964,1980,1107,44.2298,-5.52553
763,-83,44.2012,5.22778,0.00288981,0.00663816,0.00216983,0.00763116,0.0018968,1.14161,0.00458779,0.0128441,1987,1107,44.2012,-5.22776
770,-83,44.0951,5.00635,0.00513554,0.00982637,0.00182631,0.0104536,0.00450835,1.24,0.00605434,0.0160253,1994,1107,44.0951,-5.00629
777,-83,43.9799,4.7644,0.00763909,0.0135016,0.0013025,0.013778,0.00736273,1.36172,0.00796098,0.0194183,2001,1107,43.9798,-4.76439
784,-83,43.8965,4.48523,0.00997257,0.0173991,0.000438895,0.017425,0.00994673,1.51197,0.0100939,0.0292559,2008,1107,43.8964,-4.48517
791,-83,45.6145,2.86426,0,0,0,0,0,0,0,-1,2015,1107,45.6145,-2.86428
798,-83,45.7847,3.10388,0.0130022,0.0255471,-0.00314056,0.0262895,0.0122599,-1.3387,0.0151897,0.0402572,2022,1107,45.7848,-3.10392
805,-83,45.668,3.35315,0.0124004,0.0293133,-0.00649579,0.0315201,0.0101935,-1.24329,0.0185727,0.0425734,2029,1107,45.668,-3.35315
812,-83,45.4014,3.71069,0.00836047,0.0321845,-0.0114377,0.0367867,0.00375831,-1.18825,0.0233726,0.0453941,2036,1107,45.4014,-3.71072
-700,-90,0,0,0,0,0,0,0,0,0,-1,524,1114,0,0
-693,-90,-32.6841,1.92505,0.0117879,0.0526715,0.0228154,0.0628632,0.00159626,1.15069,0.0413869,0.0462195,531,1114,-32.6841,-1.92508
-686,-90,-32.6002,1.86951,0.0104809,0.0484252,0.0194222,0.0566039,0.0023023,1.17224,0.0369924,0.0448631,538,1114,-32.6002,-1.86948
-679,-90,-32.696,1.61536,0.00852784,0.0429849,0.0158458,0.0491639,0.00234883,1.19899,0.0320217,0.0446979,545,1114,-32.6961,-1.6154
-672,-90,-31.4678,-0.175293,0,0,0,0,0,0,0,-1,552,1114,-31.4679,0.175259
-665,-90,-31.6343,0.300049,0.00446452,0.0311053,0.00926426,0.0340102,0.00155964,1.26695,0.0221719,0.049141,559,1114,-31.6343,-0.300039
-658,-90,-31.7889,0.796387,0.00265615,0.0252739,0.00652514,0.0270214,0.000908687,1.30913,0.0177191,0.0451041,566,1114,-31.7889,-0.796422
-651,-90,-31.9026,1.24829,0.00135129,0.0198088,0.00428111,0.0207534,0.000406653,1.35362,0.0137021,0.0333304,573,1114,-31.9026,-1.24831
-644,-90,-31.9885,1.71387,0.00070809,0.0148146,0.00253189,0.0152552,0.000267423,1.39848,0.0100822,0.0160259,580,1114,-31.9885,-1.71388
-637,-90,-32.0222,2.13098,-2.56382e-05,0.0104407,0.00102981,0.010541,-0.000126002,1.47364,0.00706973,0.0133923,587,1114,-32.0222,-2.13095
-630,-90,-32.0292,2.4801,-4.77585e-05,0.006277,-5.83134e-05,0.00627753,-4.82963e-05,-1.56158,0.00420121,0.0124028,594,1114,-32.0292,-2.48008
-623,-90,-32.0281,2.82727,0.000650114,0.00281896,-0.000690777,0.00302028,0.00044879,-1.28721,0.00188185,0.00996015,601,1114,-32.0281,-2.82726
-616,-90,-32.067,3.18884,0.00160195,0.000861928,-0.000436784,0.00180438,0.000659498,-0.433988,0.00105425,0.013073,608,1114,-32.067,-3.18887
-609,-90,-32.0709,3.50171,0.00253325,-0.000137796,-0.000274437,0.00256116,-0.000165701,-0.101335,0.00176526,0.0192451,615,1114,-32.0709,-3.50166
-602,-90,-32.1324,3.80017,0.00308837,-0.000114925,-0.000188887,0.00309947,-0.000126024,-0.0586953,0.00210958,0.0199288,622,1114,-32.1324,-3.80017
-595,-90,-31.9901,4.19897,0.00316232,1.72523e-06,0.000195375,0.00317435,-1.03062e-05,0.0615039,0.00211968,0.015287,629,1114,-31.9901,-4.19892
-588,-90,-31.9762,4.48596,0,0,0,0,0,0,0,-1,636,1114,-31.9762,-4.48599
-581,-90,-34.7164,0.912109,0,0,0,0,0,0,0,-1,643,1114,-34.7164,-0.912103
-574,-90,-34.6598,0.815063,0.00472122,0.000511274,0.000364019,0.00475246,0.00048003,0.0856197,0.00302104,0.0361065,650,1114,-34.6598,-0.815073
-567,-90,-34.6442,0.792358,0.00508035,0.000927799,0.000352006,0.00510998,0.000898171,0.0839703,0.00315023,0.035936,657,1114,-34.6442,-0.792339
-560,-90,-34.7364,0.980713,0.00540379,0.00141533,0.000239981,0.00541818,0.00140094,0.0598808,0.00324748,0.0382741,664,1114,-34.7364,-0.980658
-553,-90,-34.5688,1.05042,0.0055763,0.00185121,-0.00012492,0.00558049,0.00184703,-0.0334846,0.00328268,0.0388479,671,1114,-34.5688,-1.05046
-546,-90,-34.5529,1.23889,0.00620278,0.00200813,-0.000819649,0.00635725,0.00185366,-0.186278,0.00377516,0.0412557,678,1114,-34.5529,-1.23889
-539,-90,-34.6083,1.42078,0,0,0,0,0,0,0,-1,685,1114,-34.6083,-1.42082
-532,-90,-34.6829,0.707886,0,0,0,0,0,0,0,-1,692,1114,-34.6829,-0.707861
-525,-90,0,0,0,0,0,0,0,0,0,-1,699,1114,0,0
-518,-90,0,0,0,0,0,0,0,0,0,-1,706,1114,0,0
-511,-90,0,0,0,0,0,0,0,0,0,-1,713,1114,0,0
-504,-90,0,0,0,0,0,0,0,0,0,-1,720,1114,0,0
-497,-90,0,0,0,0,0,0,0,0,0,-1,727,1114,0,0
-490,-90,0,0,0,0,0,0,0,0,0,-1,734,1114,0,0
-483,-90,0,0,0,0,0,0,0,0,0,-1,741,1114,0,0
-476,-90,0,0,0,0,0,0,0,0,0,-1,748,1114,0,0
-469,-90,0,0,0,0,0,0,0,0,0,-1,755,1114,0,0
-462,-90,0,0,0,0,0,0,0,0,0,-1,762,1114,0,0
-455,-90,0,0,0,0,0,0,0,0,0,-1,769,1114,0,0
-448,-90,0,0,0,0,0,0,0,0,0,-1,776,1114,0,0
-441,-90,0,0,0,0,0,0,0,0,0,-1,783,1114,0,0
-434,-90,0,0,0,0,0,0,0,0,0,-1,790,1114,0,0
-427,-90,0,0,0,0,0,0,0,0,0,-1,797,1114,0,0
-420,-90,0,0,0,0,0,0,0,0,0,-1,804,1114,0,0
-413,-90,0,0,0,0,0,0,0,0,0,-1,811,1114,0,0
-406,-90,0,0,0,0,0,0,0,0,0,-1,818,1114,0,0
-399,-90,0,0,0,0,0,0,0,0,0,-1,825,1114,0,0
-392,-90,0,0,0,0,0,0,0,0,0,-1,832,1114,0,0
-385,-90,0,0,0,0,0,0,0,0,0,-1,839,1114,0,0
-378,-90,0,0,0,0,0,0,0,0,0,-1,846,1114,0,0
-371,-90,0,0,0,0,0,0,0,0,0,-1,853,1114,0,0
-364,-90,0,0,0,0,0,0,0,0,0,-1,860,1114,0,0
-357,-90,0,0,0,0,0,0,0,0,0,-1,867,1114,0,0
-350,-90,0,0,0,0,0,0,0,0,0,-1,874,1114,0,0
-343,-90,0,0,0,0,0,0,0,0,0,-1,881,1114,0,0
-336,-90,0,0,0,0,0,0,0,0,0,-1,888,1114,0,0
-329,-90,0,0,0,0,0,0,0,0,0,-1,895,1114,0,0
-322,-90,0,0,0,0,0,0,0,0,0,-1,902,1114,0,0
-315,-90,0,0,0,0,0,0,0,0,0,-1,909,1114,0,0
-308,-90,0,0,0,0,0,0,0,0,0,-1,916,1114,0,0
-301,-90,0,0,0,0,0,0,0,0,0,-1,923,1114,0,0
-294,-90,0,0,0,0,0,0,0,0,0,-1,930,1114,0,0
-287,-90,0,0,0,0,0,0,0,0,0,-1,937,1114,0,0
-280,-90,0,0,0,0,0,0,0,0,0,-1,944,1114,0,0
-273,-90,0,0,0,0,0,0,0,0,0,-1,951,1114,0,0
-266,-90,0,0,0,0,0,0,0,0,0,-1,958,1114,0,0
-259,-90,0,0,0,0,0,0,0,0,0,-1,965,1114,0,0
-252,-90,0,0,0,0,0,0,0,0,0,-1,972,1114,0,0
-245,-90,0,0,0,0,0,0,0,0,0,-1,979,1114,0,0
-238,-90,0,0,0,0,0,0,0,0,0,-1,986,1114,0,0
-231,-90,0,0,0,0,0,0,0,0,0,-1,993,1114,0,0
-224,-90,0,0,0,0,0,0,0,0,0,-1,1000,1114,0,0
-217,-90,0,0,0,0,0,0,0,0,0,-1,1007,1114,0,0
-210,-90,0,0,0,0,0,0,0,0,0,-1,1014,1114,0,0
-203,-90,0,0,0,0,0,0,0,0,0,-1,1021,1114,0,0
-196,-90,0,0,0,0,0,0,0,0,0,-1,1028,1114,0,0
-189,-90,0,0,0,0,0,0,0,0,0,-1,1035,1114,0,0
-182,-90,0,0,0,0,0,0,0,0,0,-1,1042,1114,0,0
-175,-90,0,0,0,0,0,0,0,0,0,-1,1049,1114,0,0
-168,-90,0,0,0,0,0,0,0,0,0,-1,1056,1114,0,0
-161,-90,0,0,0,0,0,0,0,0,0,-1,1063,1114,0,0
-154,-90,0,0,0,0,0,0,0,0,0,-1,1070,1114,0,0
-147,-90,0,0,0,0,0,0,0,0,0,-1,1077,1114,0,0
-140,-90,0,0,0,0,0,0,0,0,0,-1,1084,1114,0,0
-133,-90,0,0,0,0,0,0,0,0,0,-1,1091,1114,0,0
-126,-90,0,0,0,0,0,0,0,0,0,-1,1098,1114,0,0
-119,-90,0,0,0,0,0,0,0,0,0,-1,1105,1114,0,0
-112,-90,0,0,0,0,0,0,0,0,0,-1,1112,1114,0,0
-105,-90,0,0,0,0,0,0,0,0,0,-1,1119,1114,0,0
-98,-90,0,0,0,0,0,0,0,0,0,-1,1126,1114,0,0
-91,-90,0,0,0,0,0,0,0,0,0,-1,1133,1114,0,0
-84,-90,0,0,0,0,0,0,0,0,0,-1,1140,1114,0,0
-77,-90,0,0,0,0,0,0,0,0,0,-1,1147,1114,0,0
-70,-90,0,0,0,0,0,0,0,0,0,-1,1154,1114,0,0
-63,-90,0,0,0,0,0,0,0,0,0,-1,1161,1114,0,0
-56,-90,0,0,0,0,0,0,0,0,0,-1,1168,1114,0,0
-49,-90,0,0,0,0,0,0,0,0,0,-1,1175,1114,0,0
-42,-90,0,0,0,0,0,0,0,0,0,-1,1182,1114,0,0
-35,-90,0,0,0,0,0,0,0,0,0,-1,1189,1114,0,0
-28,-90,0,0,0,0,0,0,0,0,0,-1,1196,1114,0,0
-21,-90,0,0,0,0,0,0,0,0,0,-1,1203,1114,0,0
-14,-90,0,0,0,0,0,0,0,0,0,-1,1210,1114,0,0
-7,-90,0,0,0,0,0,0,0,0,0,-1,1217,1114,0,0
0,-90,0,0,0,0,0,0,0,0,0,-1,1224,1114,0,0
7,-90,0,0,0,0,0,0,0,0,0,-1,1231,1114,0,0
14,-90,0,0,0,0,0,0,0,0,0,-1,1238,1114,0,0
21,-90,0,0,0,0,0,0,0,0,0,-1,1245,1114,0,0
28,-90,0,0,0,0,0,0,0,0,0,-1,1252,1114,0,0
35,-90,0,0,0,0,0,0,0,0,0,-1,1259,1114,0,0
42,-90,0,0,0,0,0,0,0,0,0,-1,1266,1114,0,0
49,-90,0,0,0,0,0,0,0,0,0,-1,1273,1114,0,0
56,-90,0,0,0,0,0,0,0,0,0,-1,1280,1114,0,0
63,-90,0,0,0,0,0,0,0,0,0,-1,1287,1114,0,0
70,-90,0,0,0,0,0,0,0,0,0,-1,1294,1114,0,0
77,-90,0,0,0,0,0,0,0,0,0,-1,1301,1114,0,0
84,-90,0,0,0,0,0,0,0,0,0,-1,1308,1114,0,0
91,-90,0,0,0,0,0,0,0,0,0,-1,1315,1114,0,0
98,-90,0,0,0,0,0,0,0,0,0,-1,1322,1114,0,0
105,-90,0,0,0,0,0,0,0,0,0,-1,1329,1114,0,0
112,-90,0,0,0,0,0,0,0,0,0,-1,1336,1114,0,0
119,-90,0,0,0,0,0,0,0,0,0,-1,1343,1114,0,0
126,-90,0,0,0,0,0,0,0,0,0,-1,1350,1114,0,0
133,-90,0,0,0,0,0,0,0,0,0,-1,1357,1114,0,0
140,-90,0,0,0,0,0,0,0,0,0,-1,1364,1114,0,0
147,-90,0,0,0,0,0,0,0,0,0,-1,1371,1114,0,0
154,-90,0,0,0,0,0,0,0,0,0,-1,1378,1114,0,0
161,-90,0,0,0,0,0,0,0,0,0,-1,1385,1114,0,0
168,-90,0,0,0,0,0,0,0,0,0,-1,1392,1114,0,0
175,-90,0,0,0,0,0,0,0,0,0,-1,1399,1114,0,0
182,-90,0,0,0,0,0,0,0,0,0,-1,1406,1114,0,0
189,-90,0,0,0,0,0,0,0,0,0,-1,1413,1114,0,0
196,-90,0,0,0,0,0,0,0,0,0,-1,1420,1114,0,0
203,-90,0,0,0,0,0,0,0,0,0,-1,1427,1114,0,0
210,-90,0,0,0,0,0,0,0,0,0,-1,1434,1114,0,0
217,-90,0,0,0,0,0,0,0,0,0,-1,1441,1114,0,0
224,-90,0,0,0,0,0,0,0,0,0,-1,1448,1114,0,0
231,-90,0,0,0,0,0,0,0,0,0,-1,1455,1114,0,0
238,-90,0,0,0,0,0,0,0,0,0,-1,1462,1114,0,0
245,-90,0,0,0,0,0,0,0,0,0,-1,1469,1114,0,0
252,-90,0,0,0,0,0,0,0,0,0,-1,1476,1114,0,0
259,-90,0,0,0,0,0,0,0,0,0,-1,1483,1114,0,0
266,-90,0,0,0,0,0,0,0,0,0,-1,1490,1114,0,0
273,-90,0,0,0,0,0,0,0,0,0,-1,1497,1114,0,0
280,-90,0,0,0,0,0,0,0,0,0,-1,1504,1114,0,0
287,-90,0,0,0,0,0,0,0,0,0,-1,1511,1114,0,0
294,-90,0,0,0,0,0,0,0,0,0,-1,1518,1114,0,0
301,-90,0,0,0,0,0,0,0,0,0,-1,1525,1114,0,0
308,-90,0,0,0,0,0,0,0,0,0,-1,1532,1114,0,0
315,-90,0,0,0,0,0,0,0,0,0,-1,1539,1114,0,0
322,-90,0,0,0,0,0,0,0,0,0,-1,1546,1114,0,0
329,-90,0,0,0,0,0,0,0,0,0,-1,1553,1114,0,0
336,-90,0,0,0,0,0,0,0,0,0,-1,1560,1114,0,0
343,-90,0,0,0,0,0,0,0,0,0,-1,1567,1114,0,0
350,-90,0,0,0,0,0,0,0,0,0,-1,1574,1114,0,0
357,-90,0,0,0,0,0,0,0,0,0,-1,1581,1114,0,0
364,-90,0,0,0,0,0,0,0,0,0,-1,1588,1114,0,0
371,-90,0,0,0,0,0,0,0,0,0,-1,1595,1114,0,0
378,-90,0,0,0,0,0,0,0,0,0,-1,1602,1114,0,0
385,-90,0,0,0,0,0,0,0,0,0,-1,1609,1114,0,0
392,-90,0,0,0,0,0,0,0,0,0,-1,1616,1114,0,0
399,-90,0,0,0,0,0,0,0,0,0,-1,1623,1114,0,0
406,-90,0,0,0,0,0,0,0,0,0,-1,1630,1114,0,0
413,-90,0,0,0,0,0,0,0,0,0,-1,1637,1114,0,0
420,-90,0,0,0,0,0,0,0,0,0,-1,1644,1114,0,0
427,-90,0,0,0,0,0,0,0,0,0,-1,1651,1114,0,0
434,-90,0,0,0,0,0,0,0,0,0,-1,1658,1114,0,0
441,-90,0,0,0,0,0,0,0,0,0,-1,1665,1114,0,0
448,-90,0,0,0,0,0,0,0,0,0,-1,1672,1114,0,0
455,-90,0,0,0,0,0,0,0,0,0,-1,1679,1114,0,0
462,-90,0,0,0,0,0,0,0,0,0,-1,1686,1114,0,0
469,-90,0,0,0,0,0,0,0,0,0,-1,1693,1114,0,0
476,-90,0,0,0,0,0,0,0,0,0,-1,1700,1114,0,0
483,-90,0,0,0,0,0,0,0,0,0,-1,1707,1114,0,0
490,-90,0,0,0,0,0,0,0,0,0,-1,1714,1114,0,0
497,-90,0,0,0,0,0,0,0,0,0,-1,1721,1114,0,0
504,-90,0,0,0,0,0,0,0,0,0,-1,1728,1114,0,0
511,-90,0,0,0,0,0,0,0,0,0,-1,1735,1114,0,0
518,-90,0,0,0,0,0,0,0,0,0,-1,1742,1114,0,0
525,-90,0,0,0,0,0,0,0,0,0,-1,1749,1114,0,0
532,-90,0,0,0,0,0,0,0,0,0,-1,1756,1114,0,0
539,-90,0,0,0,0,0,0,0,0,0,-1,1763,1114,0,0
546,-90,0,0,0,0,0,0,0,0,0,-1,1770,1114,0,0
553,-90,0,0,0,0,0,0,0,0,0,-1,1777,1114,0,0
560,-90,0,0,0,0,0,0,0,0,0,-1,1784,1114,0,0
567,-90,0,0,0,0,0,0,0,0,0,-1,1791,1114,0,0
574,-90,0,0,0,0,0,0,0,0,0,-1,1798,1114,0,0
581,-90,0,0,0,0,0,0,0,0,0,-1,1805,1114,0,0
588,-90,0,0,0,0,0,0,0,0,0,-1,1812,1114,0,0
595,-90,0,0,0,0,0,0,0,0,0,-1,1819,1114,0,0
602,-90,0,0,0,0,0,0,0,0,0,-1,1826,1114,0,0
609,-90,0,0,0,0,0,0,0,0,0,-1,1833,1114,0,0
616,-90,0,0,0,0,0,0,0,0,0,-1,1840,1114,0,0
623,-90,0,0,0,0,0,0,0,0,0,-1,1847,1114,0,0
630,-90,0,0,0,0,0,0,0,0,0,-1,1854,1114,0,0
637,-90,0,0,0,0,0,0,0,0,0,-1,1861,1114,0,0
644,-90,46.588,2.5481,0.00651875,-0.00138269,-0.00299345,0.00752473,-0.00238868,-0.324205,0.00597408,0.0365526,1868,1114,46.5881,-2.54812
651,-90,46.6559,2.53882,0.00432688,-0.00087196,-0.00232632,0.00521584,-0.00176092,-0.365006,0.00418943,0.0387231,1875,1114,46.6559,-2.53886
658,-90,46.8025,2.62061,0.00285917,-0.000636255,-0.00172921,0.00357005,-0.00134714,-0.390039,0.00293404,0.0410276,1882,1114,46.8025,-2.62064
665,-90,46.6852,2.65051,0.00188651,-0.000427009,-0.0010855,0.00231606,-0.000856564,-0.376814,0.00189522,0.0417106,1889,1114,46.6852,-2.65052
672,-90,46.556,2.80542,0.00125479,-0.000197187,-0.000417089,0.00136607,-0.00030847,-0.260734,0.00102906,0.0420478,1896,1114,46.556,-2.8054
679,-90,46.5562,2.77844,0.000655052,-9.24674e-05,0.000188862,0.000700058,-0.000137474,0.23394,0.000518639,0.0394274,1903,1114,46.5561,-2.77844
686,-90,46.6459,2.74792,0.000264759,-0.000204033,0.000645923,0.0007175,-0.000656774,0.611344,0.000793696,0.0356776,1910,1114,46.6459,-2.74796
693,-90,46.6388,2.59839,0.000135552,-0.000338546,0.000920139,0.000848686,-0.00105168,0.659328,0.00109926,0.0356936,1917,1114,46.6387,-2.59844
700,-90,46.6058,2.62085,1.70486e-05,-0.000428046,0.00106577,0.000883263,-0.00129426,0.682471,0.00126464,0.0320887,1924,1114,46.6059,-2.62085
707,-90,46.5935,2.63599,-0.000291664,-0.000425155,0.00138188,0.00102508,-0.0017419,0.761267,0.00161529,0.0247244,1931,1114,46.5935,-2.63594
714,-90,46.5891,2.54822,0,0,0,0,0,0,0,-1,1938,1114,46.5891,-2.54819
721,-90,43.8757,7.00574,0,0,0,0,0,0,0,-1,1945,1114,43.8757,-7.00568
728,-90,43.8693,6.79211,-0.000858416,6.60794e-05,0.00193378,0.00159209,-0.00238443,0.902716,0.00231099,0.0291688,1952,1114,43.8693,-6.79216
735,-90,43.6884,6.44739,-0.000875709,0.000308385,0.00201187,0.00181351,-0.00238084,0.928497,0.00242898,0.0332154,1959,1114,43.6883,-6.44737
742,-90,43.7927,6.08179,-0.000510599,0.000832115,0.00208886,0.00235485,-0.00203334,0.940884,0.00253579,0.0281897,1966,1114,43.7928,-6.08178
749,-90,44.0122,5.70227,0.000430061,0.00210856,0.00239809,0.00381001,-0.00127139,0.953721,0.00305335,0.0184299,1973,1114,44.0122,-5.70229
756,-90,43.9819,5.44995,0.00131601,0.00385153,0.00297996,0.00582219,-0.00065465,0.986515,0.00411706,0.0172709,1980,1114,43.9819,-5.44998
763,-90,43.9058,5.18958,0.0024163,0.00598885,0.00286289,0.00757703,0.000828119,1.06432,0.00479919,0.0129,1987,1114,43.9057,-5.18963
770,-90,43.8425,4.91284,0.00426412,0.00891422,0.00321092,0.0105535,0.00262484,1.09876,0.00634437,0.0163535,1994,1114,43.8425,-4.9129
777,-90,43.7521,4.68396,0.00618892,0.0122091,0.00364781,0.0139284,0.00446962,1.13035,0.00821174,0.0159613,2001,1114,43.7521,-4.68391
784,-90,43.6729,4.49329,0.00786595,0.0157493,0.00404244,0.0174537,0.00616155,1.17179,0.010221,0.0300788,2008,1114,43.673,-4.49331
791,-90,45.2224,2.44897,0,0,0,0,0,0,0,-1,2015,1114,45.2224,-2.44903
798,-90,45.4087,2.58643,0.0093468,0.0232148,0.00445907,0.0245248,0.00803678,1.28505,0.0144369,0.0396703,2022,1114,45.4088,-2.58637
805,-90,45.3113,2.69727,0.00789641,0.0267523,0.00407406,0.0275949,0.00705381,1.36685,0.0165541,0.0420957,2029,1114,45.3113,-2.69727
812,-90,45.2776,3.30029,0.00308254,0.0296401,0.00294935,0.0299637,0.00275894,1.46152,0.0191226,0.046624,2036,1114,45.2775,-3.30034
-700,-97,0,0,0,0,0,0,0,0,0,-1,524,1121,0,0
-693,-97,-33.0611,1.54358,0.02672,0.0452443,0.0248789,0.0625293,0.00943506,0.963594,0.0389242,0.0444254,531,1121,-33.0611,-1.5436
-686,-97,-32.9474,1.4834,0.0226809,0.0403395,0.0211748,0.054452,0.00856832,0.982924,0.0338091,0.0450575,538,1121,-32.9473,-1.48338
-679,-97,-33.6703,0.594238,0.0182497,0.0351599,0.0173405,0.0459968,0.00741282,1.01224,0.0285166,0.0452602,545,1121,-33.6703,-0.594193
-672,-97,-33.8815,0.61084,0.0140338,0.0299939,0.0136521,0.0378272,0.0062005,1.04988,0.0234264,0.046661,552,1121,-33.8815,-0.610822
-665,-97,-31.2244,0.236084,0,0,0,0,0,0,0,-1,559,1121,-31.2244,-0.236024
-658,-97,-31.3054,0.785889,0.00665714,0.020203,0.00727126,0.023367,0.00349307,1.16036,0.0145541,0.0446529,566,1121,-31.3054,-0.785934
-651,-97,-31.5149,1.35815,0.00400321,0.015768,0.00477768,0.0174638,0.00230742,1.22973,0.0109547,0.0334914,573,1121,-31.5149,-1.3582
-644,-97,-31.6274,1.71399,0.00226169,0.0117006,0.0028089,0.0124732,0.00148905,1.30236,0.00786624,0.0125261,580,1121,-31.6274,-1.71401
-637,-97,-31.6548,2.10864,0.000740757,0.00825437,0.00119484,0.0084398,0.000555327,1.41683,0.00545086,0.0129087,587,1121,-31.6548,-2.10867
-630,-97,-31.6493,2.45935,0.000104755,0.00492075,-1.53087e-05,0.0049208,0.000104706,-1.56762,0.00324619,0.0104857,594,1121,-31.6493,-2.45932
-623,-97,-31.6505,2.80872,0.000459482,0.00194158,-0.00075427,0.00225792,0.000143139,-1.17368,0.00145991,0.0124104,601,1121,-31.6505,-2.80869
-616,-97,-31.713,3.18384,0.00137763,0.000322421,-0.000483432,0.00156561,0.000134432,-0.370869,0.00100194,0.0193687,608,1121,-31.713,-3.18388
-609,-97,-31.793,3.57361,0.00243125,-0.000343861,-0.000342786,0.00247296,-0.000385575,-0.121097,0.00179105,0.026329,615,1121,-31.793,-3.57357
-602,-97,-31.8177,3.84351,0.003117,-0.000170501,-0.000230955,0.00313315,-0.000186647,-0.0697956,0.00215368,0.0240546,622,1121,-31.8178,-3.84352
-595,-97,-31.6599,4.21423,0.0031479,-2.30205e-05,0.000288608,0.00317396,-4.90745e-05,0.0900311,0.00213252,0.0183358,629,1121,-31.6599,-4.21424
-588,-97,-31.6556,4.57666,0,0,0,0,0,0,0,-1,636,1121,-31.6556,-4.57666
-581,-97,-34.72,0.940552,0,0,0,0,0,0,0,-1,643,1121,-34.72,-0.940523
-574,-97,-34.6913,0.887573,0.00449802,0.000815387,0.000426834,0.00454685,0.000766562,0.113893,0.00281077,0.0485713,650,1121,-34.6913,-0.887552
-567,-97,-34.7128,0.81189,0.00480109,0.00131116,0.000418209,0.00485051,0.00126175,0.117615,0.00290588,0.0367096,657,1121,-34.7128,-0.811867
-560,-97,-34.6743,1.00732,0.00506981,0.00189476,0.000320658,0.00510187,0.0018627,0.0996522,0.00298109,0.0397555,664,1121,-34.6743,-1.00732
-553,-97,-34.5336,1.23938,0.00512311,0.00246077,-5.07217e-05,0.00512408,0.00245981,-0.0190423,0.00295917,0.0419511,671,1121,-34.5336,-1.23943
-546,-97,-34.5773,1.52832,0.00558662,0.00280778,-0.000781215,0.00579118,0.00260321,-0.256103,0.00334922,0.0431449,678,1121,-34.5774,-1.52826
-539,-97,-34.6685,1.85327,0,0,0,0,0,0,0,-1,685,1121,-34.6684,-1.85324
-532,-97,-34.7422,0.757324,0,0,0,0,0,0,0,-1,692,1121,-34.7422,-0.757325
-525,-97,0,0,0,0,0,0,0,0,0,-1,699,1121,0,0
-518,-97,0,0,0,0,0,0,0,0,0,-1,706,1121,0,0
-511,-97,0,0,0,0,0,0,0,0,0,-1,713,1121,0,0
-504,-97,0,0,0,0,0,0,0,0,0,-1,720,1121,0,0
-497,-97,0,0,0,0,0,0,0,0,0,-1,727,1121,0,0
-490,-97,0,0,0,0,0,0,0,0,0,-1,734,1121,0,0
-483,-97,0,0,0,0,0,0,0,0,0,-1,741,1121,0,0
-476,-97,0,0,0,0,0,0,0,0,0,-1,748,1121,0,0
-469,-97,0,0,0,0,0,0,0,0,0,-1,755,1121,0,0
-462,-97,0,0,0,0,0,0,0,0,0,-1,762,1121,0,0
-455,-97,0,0,0,0,0,0,0,0,0,-1,769,1121,0,0
-448,-97,0,0,0,0,0,0,0,0,0,-1,776,1121,0,0
-441,-97,0,0,0,0,0,0,0,0,0,-1,783,1121,0,0
-434,-97,0,0,0,0,0,0,0,0,0,-1,790,1121,0,0
-427,-97,0,0,0,0,0,0,0,0,0,-1,797,1121,0,0
-420,-97,0,0,0,0,0,0,0,0,0,-1,804,1121,0,0
-413,-97,0,0,0,0,0,0,0,0,0,-1,811,1121,0,0
-406,-97,0,0,0,0,0,0,0,0,0,-1,818,1121,0,0
-399,-97,0,0,0,0,0,0,0,0,0,-1,825,1121,0,0
-392,-97,0,0,0,0,0,0,0,0,0,-1,832,1121,0,0
-385,-97,0,0,0,0,0,0,0,0,0,-1,839,1121,0,0
-378,-97,0,0,0,0,0,0,0,0,0,-1,846,1121,0,0
-371,-97,0,0,0,0,0,0,0,0,0,-1,853,1121,0,0
-364,-97,0,0,0,0,0,0,0,0,0,-1,860,1121,0,0
-357,-97,0,0,0,0,0,0,0,0,0,-1,867,1121,0,0
-350,-97,0,0,0,0,0,0,0,0,0,-1,874,1121,0,0
-343,-97,0,0,0,0,0,0,0,0,0,-1,881,1121,0,0
-336,-97,0,0,0,0,0,0,0,0,0,-1,888,1121,0,0
-329,-97,0,0,0,0,0,0,0,0,0,-1,895,1121,0,0
-322,-97,0,0,0,0,0,0,0,0,0,-1,902,1121,0,0
-315,-97,0,0,0,0,0,0,0,0,0,-1,909,1121,0,0
-308,-97,0,0,0,0,0,0,0,0,0,-1,916,1121,0,0
-301,-97,0,0,0,0,0,0,0,0,0,-1,923,1121,0,0
-294,-97,0,0,0,0,0,0,0,0,0,-1,930,1121,0,0
-287,-97,0,0,0,0,0,0,0,0,0,-1,937,1121,0,0
-280,-97,0,0,0,0,0,0,0,0,0,-1,944,1121,0,0
-273,-97,0,0,0,0,0,0,0,0,0,-1,951,1121,0,0
-266,-97,0,0,0,0,0,0,0,0,0,-1,958,1121,0,0
-259,-97,0,0,0,0,0,0,0,0,0,-1,965,1121,0,0
-252,-97,0,0,0,0,0,0,0,0,0,-1,972,1121,0,0
-245,-97,0,0,0,0,0,0,0,0,0,-1,979,1121,0,0
-238,-97,0,0,0,0,0,0,0,0,0,-1,986,1121,0,0
-231,-97,0,0,0,0,0,0,0,0,0,-1,993,1121,0,0
-224,-97,0,0,0,0,0,0,0,0,0,-1,1000,1121,0,0
-217,-97,0,0,0,0,0,0,0,0,0,-1,1007,1121,0,0
-210,-97,0,0,0,0,0,0,0,0,0,-1,1014,1121,0,0
-203,-97,0,0,0,0,0,0,0,0,0,-1,1021,1121,0,0
-196,-97,0,0,0,0,0,0,0,0,0,-1,1028,1121,0,0
-189,-97,0,0,0,0,0,0,0,0,0,-1,1035,1121,0,0
-182,-97,0,0,0,0,0,0,0,0,0,-1,1042,1121,0,0
-175,-97,0,0,0,0,0,0,0,0,0,-1,1049,1121,0,0
-168,-97,0,0,0,0,0,0,0,0,0,-1,1056,1121,0,0
-161,-97,0,0,0,0,0,0,0,0,0,-1,1063,1121,0,0
-154,-97,0,0,0,0,0,0,0,0,0,-1,1070,1121,0,0
-147,-97,0,0,0,0,0,0,0,0,0,-1,1077,1121,0,0
-140,-97,0,0,0,0,0,0,0,0,0,-1,1084,1121,0,0
-133,-97,0,0,0,0,0,0,0,0,0,-1,1091,1121,0,0
-126,-97,0,0,0,0,0,0,0,0,0,-1,1098,1121,0,0
-119,-97,0,0,0,0,0,0,0,0,0,-1,1105,1121,0,0
-112,-97,0,0,0,0,0,0,0,0,0,-1,1112,1121,0,0
-105,-97,0,0,0,0,0,0,0,0,0,-1,1119,1121,0,0
-98,-97,0,0,0,0,0,0,0,0,0,-1,1126,1121,0,0
-91,-97,0,0,0,0,0,0,0,0,0,-1,1133,1121,0,0
-84,-97,0,0,0,0,0,0,0,0,0,-1,1140,1121,0,0
-77,-97,0,0,0,0,0,0,0,0,0,-1,1147,1121,0,0
-70,-97,0,0,0,0,0,0,0,0,0,-1,1154,1121,0,0
-63,-97,0,0,0,0,0,0,0,0,0,-1,1161,1121,0,0
-56,-97,0,0,0,0,0,0,0,0,0,-1,1168,1121,0,0
-49,-97,0,0,0,0,0,0,0,0,0,-1,1175,1121,0,0
-42,-97,0,0,0,0,0,0,0,0,0,-1,1182,1121,0,0
-35,-97,0,0,0,0,0,0,0,0,0,-1,1189,1121,0,0
-28,-97,0,0,0,0,0,0,0,0,0,-1,1196,1121,0,0
-21,-97,0,0,0,0,0,0,0,0,0,-1,1203,1121,0,0
-14,-97,0,0,0,0,0,0,0,0,0,-1,1210,1121,0,0
-7,-97,0,0,0,0,0,0,0,0,0,-1,1217,1121,0,0
0,-97,0,0,0,0,0,0,0,0,0,-1,1224,1121,0,0
7,-97,0,0,0,0,0,0,0,0,0,-1,1231,1121,0,0
14,-97,0,0,0,0,0,0,0,0,0,-1,1238,1121,0,0
21,-97,0,0,0,0,0,0,0,0,0,-1,1245,1121,0,0
28,-97,0,0,0,0,0,0,0,0,0,-1,1252,1121,0,0
35,-97,0,0,0,0,0,0,0,0,0,-1,1259,1121,0,0
42,-97,0,0,0,0,0,0,0,0,0,-1,1266,1121,0,0
49,-97,0,0,0,0,0,0,0,0,0,-1,1273,1121,0,0
56,-97,0,0,0,0,0,0,0,0,0,-1,1280,1121,0,0
63,-97,0,0,0,0,0,0,0,0,0,-1,1287,1121,0,0
70,-97,0,0,0,0,0,0,0,0,0,-1,1294,1121,0,0
77,-97,0,0,0,0,0,0,0,0,0,-1,1301,1121,0,0
84,-97,0,0,0,0,0,0,0,0,0,-1,1308,1121,0,0
91,-97,0,0,0,0,0,0,0,0,0,-1,1315,1121,0,0
98,-97,0,0,0,0,0,0,0,0,0,-1,1322,1121,0,0
105,-97,0,0,0,0,0,0,0,0,0,-1,1329,1121,0,0
112,-97,0,0,0,0,0,0,0,0,0,-1,1336,1121,0,0
119,-97,0,0,0,0,0,0,0,0,0,-1,1343,1121,0,0
126,-97,0,0,0,0,0,0,0,0,0,-1,1350,1121,0,0
133,-97,0,0,0,0,0,0,0,0,0,-1,1357,1121,0,0
140,-97,0,0,0,0,0,0,0,0,0,-1,1364,1121,0,0
147,-97,0,0,0,0,0,0,0,0,0,-1,1371,1121,0,0
154,-97,0,0,0,0,0,0,0,0,0,-1,1378,1121,0,0
161,-97,0,0,0,0,0,0,0,0,0,-1,1385,1121,0,0
168,-97,0,0,0,0,0,0,0,0,0,-1,1392,1121,0,0
175,-97,0,0,0,0,0,0,0,0,0,-1,1399,1121,0,0
182,-97,0,0,0,0,0,0,0,0,0,-1,1406,1121,0,0
189,-97,0,0,0,0,0,0,0,0,0,-1,1413,1121,0,0
196,-97,0,0,0,0,0,0,0,0,0,-1,1420,1121,0,0
203,-97,0,0,0,0,0,0,0,0,0,-1,1427,1121,0,0
210,-97,0,0,0,0,0,0,0,0,0,-1,1434,1121,0,0
217,-97,0,0,0,0,0,0,0,0,0,-1,1441,1121,0,0
224,-97,0,0,0,0,0,0,0,0,0,-1,1448,1121,0,0
231,-97,0,0,0,0,0,0,0,0,0,-1,1455,1121,0,0
238,-97,0,0,0,0,0,0,0,0,0,-1,1462,1121,0,0
245,-97,0,0,0,0,0,0,0,0,0,-1,1469,1121,0,0
252,-97,0,0,0,0,0,0,0,0,0,-1,1476,1121,0,0
259,-97,0,0,0,0,0,0,0,0,0,-1,1483,1121,0,0
266,-97,0,0,0,0,0,0,0,0,0,-1,1490,1121,0,0
273,-97,0,0,0,0,0,0,0,0,0,-1,1497,1121,0,0
280,-97,0,0,0,0,0,0,0,0,0,-1,1504,1121,0,0
287,-97,0,0,0,0,0,0,0,0,0,-1,1511,1121,0,0
294,-97,0,0,0,0,0,0,0,0,0,-1,1518,1121,0,0
301,-97,0,0,0,0,0,0,0,0,0,-1,1525,1121,0,0
308,-97,0,0,0,0,0,0,0,0,0,-1,1532,1121,0,0
315,-97,0,0,0,0,0,0,0,0,0,-1,1539,1121,0,0
322,-97,0,0,0,0,0,0,0,0,0,-1,1546,1121,0,0
329,-97,0,0,0,0,0,0,0,0,0,-1,1553,1121,0,0
336,-97,0,0,0,0,0,0,0,0,0,-1,1560,1121,0,0
343,-97,0,0,0,0,0,0,0,0,0,-1,1567,1121,0,0
350,-97,0,0,0,0,0,0,0,0,0,-1,1574,1121,0,0
357,-97,0,0,0,0,0,0,0,0,0,-1,1581,1121,0,0
364,-97,0,0,0,0,0,0,0,0,0,-1,1588,1121,0,0
371,-97,0,0,0,0,0,0,0,0,0,-1,1595,1121,0,0
378,-97,0,0,0,0,0,0,0,0,0,-1,1602,1121,0,0
385,-97,0,0,0,0,0,0,0,0,0,-1,1609,1121,0,0
392,-97,0,0,0,0,0,0,0,0,0,-1,1616,1121,0,0
399,-97,0,0,0,0,0,0,0,0,0,-1,1623,1121,0,0
406,-97,0,0,0,0,0,0,0,0,0,-1,1630,1121,0,0
413,-97,0,0,0,0,0,0,0,0,0,-1,1637,1121,0,0
420,-97,0,0,0,0,0,0,0,0,0,-1,1644,1121,0,0
427,-97,0,0,0,0,0,0,0,0,0,-1,1651,1121,0,0
434,-97,0,0,0,0,0,0,0,0,0,-1,1658,1121,0,0
441,-97,0,0,0,0,0,0,0,0,0,-1,1665,1121,0,0
448,-97,0,0,0,0,0,0,0,0,0,-1,1672,1121,0,0
455,-97,0,0,0,0,0,0,0,0,0,-1,1679,1121,0,0
462,-97,0,0,0,0,0,0,0,0,0,-1,1686,1121,0,0
469,-97,0,0,0,0,0,0,0,0,0,-1,1693,1121,0,0
476,-97,0,0,0,0,0,0,0,0,0,-1,1700,1121,0,0
483,-97,0,0,0,0,0,0,0,0,0,-1,1707,1121,0,0
490,-97,0,0,0,0,0,0,0,0,0,-1,1714,1121,0,0
497,-97,0,0,0,0,0,0,0,0,0,-1,1721,1121,0,0
504,-97,0,0,0,0,0,0,0,0,0,-1,1728,1121,0,0
511,-97,0,0,0,0,0,0,0,0,0,-1,1735,1121,0,0
518,-97,0,0,0,0,0,0,0,0,0,-1,1742,1121,0,0
525,-97,0,0,0,0,0,0,0,0,0,-1,1749,1121,0,0
532,-97,0,0,0,0,0,0,0,0,0,-1,1756,1121,0,0
539,-97,0,0,0,0,0,0,0,0,0,-1,1763,1121,0,0
546,-97,0,0,0,0,0,0,0,0,0,-1,1770,1121,0,0
553,-97,0,0,0,0,0,0,0,0,0,-1,1777,1121,0,0
560,-97,0,0,0,0,0,0,0,0,0,-1,1784,1121,0,0
567,-97,0,0,0,0,0,0,0,0,0,-1,1791,1121,0,0
574,-97,0,0,0,0,0,0,0,0,0,-1,1798,1121,0,0
581,-97,0,0,0,0,0,0,0,0,0,-1,1805,1121,0,0
588,-97,0,0,0,0,0,0,0,0,0,-1,1812,1121,0,0
595,-97,0,0,0,0,0,0,0,0,0,-1,1819,1121,0,0
602,-97,0,0,0,0,0,0,0,0,0,-1,1826,1121,0,0
609,-97,0,0,0,0,0,0,0,0,0,-1,1833,1121,0,0
616,-97,0,0,0,0,0,0,0,0,0,-1,1840,1121,0,0
623,-97,0,0,0,0,0,0,0,0,0,-1,1847,1121,0,0
630,-97,0,0,0,0,0,0,0,0,0,-1,1854,1121,0,0
637,-97,0,0,0,0,0,0,0,0,0,-1,1861,1121,0,0
644,-97,46.553,2.77283,0.00575584,-0.000856074,-0.00263273,0.00667607,-0.0017763,-0.336259,0.00514604,0.0387002,1868,1121,46.553,-2.77279
651,-97,46.5792,2.83508,0.00392946,-0.000579185,-0.0022013,0.00482596,-0.00147569,-0.38675,0.0038058,0.0381737,1875,1121,46.5792,-2.83503
658,-97,46.5974,2.58667,0.00271164,-0.000528959,-0.00171641,0.00345173,-0.00126905,-0.407097,0.00282098,0.0380723,1882,1121,46.5974,-2.58672
665,-97,46.5905,2.51306,0.00186742,-0.000464852,-0.00112259,0.00231995,-0.000917382,-0.383187,0.00192666,0.0400794,1889,1121,46.5905,-2.5131
672,-97,46.6158,2.77429,0.00129548,-0.000361925,-0.000473264,0.0014211,-0.000487542,-0.259445,0.00114505,0.0423928,1896,1121,46.6159,-2.77433
679,-97,46.5742,2.56909,0.000712091,-0.000371187,0.000131619,0.000727854,-0.000386949,0.119191,0.000653586,0.0404667,1903,1121,46.5742,-2.56911
686,-97,46.5861,2.67041,0.000350345,-0.000512625,0.000566334,0.000630839,-0.000793119,0.459864,0.0008239,0.0360067,1910,1121,46.5861,-2.67038
693,-97,46.63,2.63074,0.000238018,-0.000633694,0.000813728,0.000725268,-0.00112094,0.539527,0.00107404,0.0348746,1917,1121,46.63,-2.63072
700,-97,46.5795,2.62207,0.000117993,-0.00072121,0.000931165,0.000719731,-0.00132295,0.573714,0.00119636,0.0297687,1924,1121,46.5795,-2.62202
707,-97,46.576,2.60657,-0.000187833,-0.000713094,0.00122757,0.000804884,-0.00170581,0.680015,0.00148033,0.0256562,1931,1121,46.5761,-2.60651
714,-97,46.5674,2.55518,0,0,0,0,0,0,0,-1,1938,1121,46.5674,-2.55516
721,-97,43.6388,6.9679,0,0,0,0,0,0,0,-1,1945,1121,43.6388,-6.96784
728,-97,43.5897,6.79041,-0.000762814,-0.000158398,0.00182708,0.0013913,-0.00231251,0.867358,0.00216033,0.0246857,1952,1121,43.5897,-6.79045
735,-97,43.545,6.42944,-0.000780035,0.000101483,0.00192879,0.00163924,-0.00231779,0.897727,0.00229576,0.0271514,1959,1121,43.545,-6.42945
742,-97,43.5365,6.07776,-0.000504494,0.000583274,0.00201852,0.0021299,-0.00205112,0.916996,0.00241406,0.0207338,1966,1121,43.5366,-6.07772
749,-97,43.6321,5.72107,0.000199915,0.00168013,0.00244519,0.00349477,-0.00161472,0.932355,0.0030158,0.0214082,1973,1121,43.6321,-5.72103
756,-97,43.6366,5.42358,0.000855426,0.00327696,0.00326794,0.00555122,-0.00141883,0.962808,0.00425338,0.0162694,1980,1121,43.6366,-5.42354
763,-97,43.5492,5.18323,0.00170712,0.0052577,0.00367973,0.00756801,-0.000603183,1.01015,0.00525795,0.0124966,1987,1121,43.5492,-5.1832
770,-97,43.5206,4.92163,0.00300741,0.00783094,0.00471855,0.0107184,0.000119993,1.02165,0.00710591,0.0114045,1994,1121,43.5207,-4.9216
777,-97,43.4935,4.63159,0.00422156,0.0106775,0.00604351,0.0143011,0.000597973,1.03068,0.00934111,0.0154907,2001,1121,43.4935,-4.63163
784,-97,43.4663,4.37866,0.00507658,0.0137541,0.00760442,0.0181705,0.000660234,1.04464,0.0118997,0.0359177,2008,1121,43.4663,-4.3786
791,-97,43.4846,4.14001,0,0,0,0,0,0,0,-1,2015,1121,43.4847,-4.14
798,-97,45.0854,2.3429,0.00455372,0.0202156,0.0116188,0.0263961,-0.0016268,1.08192,0.018164,0.0411523,2022,1121,45.0855,-2.34292
805,-97,45.0967,2.22876,0.00198549,0.0232915,0.0138692,0.0301268,-0.00484979,1.11289,0.021881,0.0430971,2029,1121,45.0967,-2.22874
812,-97,45.106,2.10864,0,0,0,0,0,0,0,-1,2036,1121,45.1059,-2.1086
-700,-104,0,0,0,0,0,0,0,0,0,-1,524,1128,0,0
-693,-104,-33.4589,1.18079,0.040669,0.0297136,0.0265841,0.0623339,0.00804867,0.683794,0.0391498,0.0474803,531,1128,-33.4589,-1.18082
-686,-104,-33.326,1.05469,0.0338793,0.0277053,0.0224044,0.0534084,0.00817619,0.716937,0.0332173,0.0489224,538,1128,-33.3261,-1.05464
-679,-104,-25.8812,-2.09863,0,0,0,0,0,0,0,-1,545,1128,-25.8812,2.09867
-672,-104,-34.6454,-0.427734,0,0,0,0,0,0,0,-1,552,1128,-34.6454,0.427696
-665,-104,-34.5978,-0.167847,0,0,0,0,0,0,0,-1,559,1128,-34.5978,0.167841
-658,-104,-31.132,1.2207,0,0,0,0,0,0,0,-1,566,1128,-31.132,-1.22071
-651,-104,-31.1818,1.43896,0.00661482,0.0118677,0.00465061,0.0145822,0.00390025,1.04245,0.00871727,0.0406034,573,1128,-31.1818,-1.43892
-644,-104,-31.238,1.67883,0.00393373,0.0087913,0.00257779,0.00990427,0.00282077,1.16322,0.00589213,0.0152174,580,1128,-31.2381,-1.67881
-637,-104,-31.2501,2.08801,0.00171116,0.00627581,0.000936684,0.00646054,0.00152643,1.37607,0.00389912,0.0108882,587,1128,-31.2501,-2.08796
-630,-104,-31.2672,2.40747,0.000509396,0.00370189,-0.00028727,0.00372753,0.000483752,-1.48177,0.0023405,0.0144341,594,1128,-31.2672,-2.40746
-623,-104,-31.289,2.80225,0.000469848,0.00121398,-0.000985033,0.00189487,-0.000211044,-0.965975,0.00133915,0.0177846,601,1128,-31.289,-2.80228
-616,-104,-31.5177,3.23828,0.00130697,-0.000103886,-0.000591787,0.00152233,-0.000319241,-0.349008,0.00113634,0.0225681,608,1128,-31.5177,-3.23828
-609,-104,-31.6674,3.49719,0.0024061,-0.000458927,-0.00046334,0.00247917,-0.000531996,-0.156413,0.00185571,0.0286924,615,1128,-31.6674,-3.49721
-602,-104,-31.4585,3.88342,0.00315046,-0.000139163,-0.000303136,0.00317816,-0.000166863,-0.0911268,0.00217653,0.0252898,622,1128,-31.4585,-3.88341
-595,-104,-31.2887,4.31433,0.00309227,0.000148795,0.000318426,0.00312633,0.000114742,0.106538,0.00204704,0.0185174,629,1128,-31.2887,-4.31429
-588,-104,-31.1998,4.7738,0,0,0,0,0,0,0,-1,636,1128,-31.1998,-4.77383
-581,-104,-23.9373,2.85864,0,0,0,0,0,0,0,-1,643,1128,-23.9373,-2.85861
-574,-104,-34.6227,0.955078,0,0,0,0,0,0,0,-1,650,1128,-34.6227,-0.955035
-567,-104,-34.6451,1.10059,0.00452711,0.00213266,0.000265031,0.0045561,0.00210368,0.108929,0.00263303,0.0356909,657,1128,-34.6452,-1.10056
-560,-104,-34.6273,1.22229,0.00477429,0.00288455,0.000135065,0.0047839,0.00287494,0.0709918,0.00278069,0.042349,664,1128,-34.6273,-1.22232
-553,-104,-34.5977,1.24146,0.00475405,0.00366958,-0.000308393,0.00483562,0.00358801,-0.258559,0.00289879,0.0477748,671,1128,-34.5977,-1.24151
-546,-104,-34.6693,1.48267,0.00512044,0.00429972,-0.00116787,0.00594795,0.00347222,-0.616449,0.00345008,0.0480743,678,1128,-34.6693,-1.48266
-539,-104,-34.9242,2.11963,0,0,0,0,0,0,0,-1,685,1128,-34.9242,-2.11961
-532,-104,-34.8752,0.834839,0.0111255,0.00344138,-0.00405219,0.0128675,0.00169939,-0.406004,0.00807175,0.0436509,692,1128,-34.8753,-0.834799
-525,-104,-34.7087,0.853882,0.0153657,0.00233858,-0.00586636,0.017618,8.62628e-05,-0.366583,0.0117167,0.0375593,699,1128,-34.7087,-0.853933
-518,-104,0,0,0,0,0,0,0,0,0,-1,706,1128,0,0
-511,-104,0,0,0,0,0,0,0,0,0,-1,713,1128,0,0
-504,-104,0,0,0,0,0,0,0,0,0,-1,720,1128,0,0
-497,-104,0,0,0,0,0,0,0,0,0,-1,727,1128,0,0
-490,-104,0,0,0,0,0,0,0,0,0,-1,734,1128,0,0
-483,-104,0,0,0,0,0,0,0,0,0,-1,741,1128,0,0
-476,-104,0,0,0,0,0,0,0,0,0,-1,748,1128,0,0
-469,-104,0,0,0,0,0,0,0,0,0,-1,755,1128,0,0
-462,-104,0,0,0,0,0,0,0,0,0,-1,762,1128,0,0
-455,-104,0,0,0,0,0,0,0,0,0,-1,769,1128,0,0
-448,-104,0,0,0,0,0,0,0,0,0,-1,776,1128,0,0
-441,-104,0,0,0,0,0,0,0,0,0,-1,783,1128,0,0
-434,-104,0,0,0,0,0,0,0,0,0,-1,790,1128,0,0
-427,-104,0,0,0,0,0,0,0,0,0,-1,797,1128,0,0
-420,-104,0,0,0,0,0,0,0,0,0,-1,804,1128,0,0
-413,-104,0,0,0,0,0,0,0,0,0,-1,811,1128,0,0
-406,-104,0,0,0,0,0,0,0,0,0,-1,818,1128,0,0
-399,-104,0,0,0,0,0,0,0,0,0,-1,825,1128,0,0
-392,-104,0,0,0,0,0,0,0,0,0,-1,832,1128,0,0
-385,-104,0,0,0,0,0,0,0,0,0,-1,839,1128,0,0
-378,-104,0,0,0,0,0,0,0,0,0,-1,846,1128,0,0
-371,-104,0,0,0,0,0,0,0,0,0,-1,853,1128,0,0
-364,-104,0,0,0,0,0,0,0,0,0,-1,860,1128,0,0
-357,-104,0,0,0,0,0,0,0,0,0,-1,867,1128,0,0
-350,-104,0,0,0,0,0,0,0,0,0,-1,874,1128,0,0
-343,-104,0,0,0,0,0,0,0,0,0,-1,881,1128,0,0
-336,-104,0,0,0,0,0,0,0,0,0,-1,888,1128,0,0
-329,-104,0,0,0,0,0,0,0,0,0,-1,895,1128,0,0
-322,-104,0,0,0,0,0,0,0,0,0,-1,902,1128,0,0
-315,-104,0,0,0,0,0,0,0,0,0,-1,909,1128,0,0
-308,-104,0,0,0,0,0,0,0,0,0,-1,916,1128,0,0
-301,-104,0,0,0,0,0,0,0,0,0,-1,923,1128,0,0
-294,-104,0,0,0,0,0,0,0,0,0,-1,930,1128,0,0
-287,-104,0,0,0,0,0,0,0,0,0,-1,937,1128,0,0
-280,-104,0,0,0,0,0,0,0,0,0,-1,944,1128,0,0
-273,-104,0,0,0,0,0,0,0,0,0,-1,951,1128,0,0
-266,-104,0,0,0,0,0,0,0,0,0,-1,958,1128,0,0
-259,-104,0,0,0,0,0,0,0,0,0,-1,965,1128,0,0
-252,-104,0,0,0,0,0,0,0,0,0,-1,972,1128,0,0
-245,-104,0,0,0,0,0,0,0,0,0,-1,979,1128,0,0
-238,-104,0,0,0,0,0,0,0,0,0,-1,986,1128,0,0
-231,-104,0,0,0,0,0,0,0,0,0,-1,993,1128,0,0
-224,-104,0,0,0,0,0,0,0,0,0,-1,1000,1128,0,0
-217,-104,0,0,0,0,0,0,0,0,0,-1,1007,1128,0,0
-210,-104,0,0,0,0,0,0,0,0,0,-1,1014,1128,0,0
-203,-104,0,0,0,0,0,0,0,0,0,-1,1021,1128,0,0
-196,-104,0,0,0,0,0,0,0,0,0,-1,1028,1128,0,0
-189,-104,0,0,0,0,0,0,0,0,0,-1,1035,1128,0,0
-182,-104,0,0,0,0,0,0,0,0,0,-1,1042,1128,0,0
-175,-104,0,0,0,0,0,0,0,0,0,-1,1049,1128,0,0
-168,-104,0,0,0,0,0,0,0,0,0,-1,1056,1128,0,0
-161,-104,0,0,0,0,0,0,0,0,0,-1,1063,1128,0,0
-154,-104,0,0,0,0,0,0,0,0,0,-1,1070,1128,0,0
-147,-104,0,0,0,0,0,0,0,0,0,-1,1077,1128,0,0
-140,-104,0,0,0,0,0,0,0,0,0,-1,1084,1128,0,0
-133,-104,0,0,0,0,0,0,0,0,0,-1,1091,1128,0,0
-126,-104,0,0,0,0,0,0,0,0,0,-1,1098,1128,0,0
-119,-104,0,0,0,0,0,0,0,0,0,-1,1105,1128,0,0
-112,-104,0,0,0,0,0,0,0,0,0,-1,1112,1128,0,0
-105,-104,0,0,0,0,0,0,0,0,0,-1,1119,1128,0,0
-98,-104,0,0,0,0,0,0,0,0,0,-1,1126,1128,0,0
-91,-104,0,0,0,0,0,0,0,0,0,-1,1133,1128,0,0
-84,-104,0,0,0,0,0,0,0,0,0,-1,1140,1128,0,0
-77,-104,0,0,0,0,0,0,0,0,0,-1,1147,1128,0,0
-70,-104,0,0,0,0,0,0,0,0,0,-1,1154,1128,0,0
-63,-104,0,0,0,0,0,0,0,0,0,-1,1161,1128,0,0
-56,-104,0,0,0,0,0,0,0,0,0,-1,1168,1128,0,0
-49,-104,0,0,0,0,0,0,0,0,0,-1,1175,1128,0,0
-42,-104,0,0,0,0,0,0,0,0,0,-1,1182,1128,0,0
-35,-104,0,0,0,0,0,0,0,0,0,-1,1189,1128,0,0
-28,-104,0,0,0,0,0,0,0,0,0,-1,1196,1128,0,0
-21,-104,0,0,0,0,0,0,0,0,0,-1,1203,1128,0,0
-14,-104,0,0,0,0,0,0,0,0,0,-1,1210,1128,0,0
-7,-104,0,0,0,0,0,0,0,0,0,-1,1217,1128,0,0
0,-104,0,0,0,0,0,0,0,0,0,-1,1224,1128,0,0
7,-104,0,0,0,0,0,0,0,0,0,-1,1231,1128,0,0
14,-104,0,0,0,0,0,0,0,0,0,-1,1238,1128,0,0
21,-104,0,0,0,0,0,0,0,0,0,-1,1245,1128,0,0
28,-104,0,0,0,0,0,0,0,0,0,-1,1252,1128,0,0
35,-104,0,0,0,0,0,0,0,0,0,-1,1259,1128,0,0
42,-104,0,0,0,0,0,0,0,0,0,-1,1266,1128,0,0
49,-104,0,0,0,0,0,0,0,0,0,-1,1273,1128,0,0
56,-104,0,0,0,0,0,0,0,0,0,-1,1280,1128,0,0
63,-104,0,0,0,0,0,0,0,0,0,-1,1287,1128,0,0
70,-104,0,0,0,0,0,0,0,0,0,-1,1294,1128,0,0
77,-104,0,0,0,0,0,0,0,0,0,-1,1301,1128,0,0
84,-104,0,0,0,0,0,0,0,0,0,-1,1308,1128,0,0
91,-104,0,0,0,0,0,0,0,0,0,-1,1315,1128,0,0
98,-104,0,0,0,0,0,0,0,0,0,-1,1322,1128,0,0
105,-104,0,0,0,0,0,0,0,0,0,-1,1329,1128,0,0
112,-104,0,0,0,0,0,0,0,0,0,-1,1336,1128,0,0
119,-104,0,0,0,0,0,0,0,0,0,-1,1343,1128,0,0
126,-104,0,0,0,0,0,0,0,0,0,-1,1350,1128,0,0
133,-104,0,0,0,0,0,0,0,0,0,-1,1357,1128,0,0
140,-104,0,0,0,0,0,0,0,0,0,-1,1364,1128,0,0
147,-104,0,0,0,0,0,0,0,0,0,-1,1371,1128,0,0
154,-104,0,0,0,0,0,0,0,0,0,-1,1378,1128,0,0
161,-104,0,0,0,0,0,0,0,0,0,-1,1385,1128,0,0
168,-104,0,0,0,0,0,0,0,0,0,-1,1392,1128,0,0
175,-104,0,0,0,0,0,0,0,0,0,-1,1399,1128,0,0
182,-104,0,0,0,0,0,0,0,0,0,-1,1406,1128,0,0
189,-104,0,0,0,0,0,0,0,0,0,-1,1413,1128,0,0
196,-104,0,0,0,0,0,0,0,0,0,-1,1420,1128,0,0
203,-104,0,0,0,0,0,0,0,0,0,-1,1427,1128,0,0
210,-104,0,0,0,0,0,0,0,0,0,-1,1434,1128,0,0
217,-104,0,0,0,0,0,0,0,0,0,-1,1441,1128,0,0
224,-104,0,0,0,0,0,0,0,0,0,-1,1448,1128,0,0
231,-104,0,0,0,0,0,0,0,0,0,-1,1455,1128,0,0
238,-104,0,0,0,0,0,0,0,0,0,-1,1462,1128,0,0
245,-104,0,0,0,0,0,0,0,0,0,-1,1469,1128,0,0
252,-104,0,0,0,0,0,0,0,0,0,-1,1476,1128,0,0
259,-104,0,0,0,0,0,0,0,0,0,-1,1483,1128,0,0
266,-104,0,0,0,0,0,0,0,0,0,-1,1490,1128,0,0
273,-104,0,0,0,0,0,0,0,0,0,-1,1497,1128,0,0
280,-104,0,0,0,0,0,0,0,0,0,-1,1504,1128,0,0
287,-104,0,0,0,0,0,0,0,0,0,-1,1511,1128,0,0
294,-104,0,0,0,0,0,0,0,0,0,-1,1518,1128,0,0
301,-104,0,0,0,0,0,0,0,0,0,-1,1525,1128,0,0
308,-104,0,0,0,0,0,0,0,0,0,-1,1532,1128,0,0
315,-104,0,0,0,0,0,0,0,0,0,-1,1539,1128,0,0
322,-104,0,0,0,0,0,0,0,0,0,-1,1546,1128,0,0
329,-104,0,0,0,0,0,0,0,0,0,-1,1553,1128,0,0
336,-104,0,0,0,0,0,0,0,0,0,-1,1560,1128,0,0
343,-104,0,0,0,0,0,0,0,0,0,-1,1567,1128,0,0
350,-104,0,0,0,0,0,0,0,0,0,-1,1574,1128,0,0
357,-104,0,0,0,0,0,0,0,0,0,-1,1581,1128,0,0
364,-104,0,0,0,0,0,0,0,0,0,-1,1588,1128,0,0
371,-104,0,0,0,0,0,0,0,0,0,-1,1595,1128,0,0
378,-104,0,0,0,0,0,0,0,0,0,-1,1602,1128,0,0
385,-104,0,0,0,0,0,0,0,0,0,-1,1609,1128,0,0
392,-104,0,0,0,0,0,0,0,0,0,-1,1616,1128,0,0
399,-104,0,0,0,0,0,0,0,0,0,-1,1623,1128,0,0
406,-104,0,0,0,0,0,0,0,0,0,-1,1630,1128,0,0
413,-104,0,0,0,0,0,0,0,0,0,-1,1637,1128,0,0
420,-104,0,0,0,0,0,0,0,0,0,-1,1644,1128,0,0
427,-104,0,0,0,0,0,0,0,0,0,-1,1651,1128,0,0
434,-104,0,0,0,0,0,0,0,0,0,-1,1658,1128,0,0
441,-104,0,0,0,0,0,0,0,0,0,-1,1665,1128,0,0
448,-104,0,0,0,0,0,0,0,0,0,-1,1672,1128,0,0
455,-104,0,0,0,0,0,0,0,0,0,-1,1679,1128,0,0
462,-104,0,0,0,0,0,0,0,0,0,-1,1686,1128,0,0
469,-104,0,0,0,0,0,0,0,0,0,-1,1693,1128,0,0
476,-104,0,0,0,0,0,0,0,0,0,-1,1700,1128,0,0
483,-104,0,0,0,0,0,0,0,0,0,-1,1707,1128,0,0
490,-104,0,0,0,0,0,0,0,0,0,-1,1714,1128,0,0
497,-104,0,0,0,0,0,0,0,0,0,-1,1721,1128,0,0
504,-104,0,0,0,0,0,0,0,0,0,-1,1728,1128,0,0
511,-104,0,0,0,0,0,0,0,0,0,-1,1735,1128,0,0
518,-104,0,0,0,0,0,0,0,0,0,-1,1742,1128,0,0
525,-104,0,0,0,0,0,0,0,0,0,-1,1749,1128,0,0
532,-104,0,0,0,0,0,0,0,0,0,-1,1756,1128,0,0
539,-104,0,0,0,0,0,0,0,0,0,-1,1763,1128,0,0
546,-104,0,0,0,0,0,0,0,0,0,-1,1770,1128,0,0
553,-104,0,0,0,0,0,0,0,0,0,-1,1777,1128,0,0
560,-104,0,0,0,0,0,0,0,0,0,-1,1784,1128,0,0
567,-104,0,0,0,0,0,0,0,0,0,-1,1791,1128,0,0
574,-104,0,0,0,0,0,0,0,0,0,-1,1798,1128,0,0
581,-104,0,0,0,0,0,0,0,0,0,-1,1805,1128,0,0
588,-104,0,0,0,0,0,0,0,0,0,-1,1812,1128,0,0
595,-104,0,0,0,0,0,0,0,0,0,-1,1819,1128,0,0
602,-104,0,0,0,0,0,0,0,0,0,-1,1826,1128,0,0
609,-104,0,0,0,0,0,0,0,0,0,-1,1833,1128,0,0
616,-104,0,0,0,0,0,0,0,0,0,-1,1840,1128,0,0
623,-104,0,0,0,0,0,0,0,0,0,-1,1847,1128,0,0
630,-104,0,0,0,0,0,0,0,0,0,-1,1854,1128,0,0
637,-104,0,0,0,0,0,0,0,0,0,-1,1861,1128,0,0
644,-104,46.4365,2.94873,0,0,0,0,0,0,0,-1,1868,1128,46.4365,-2.94876
651,-104,46.3477,3.20032,0,0,0,0,0,0,0,-1,1875,1128,46.3476,-3.20036
658,-104,46.5851,2.46265,0.00226295,-0.00018774,-0.00153273,0.00299993,-0.000924727,-0.448196,0.00236914,0.0410719,1882,1128,46.585,-2.46263
665,-104,46.5762,2.34021,0.0015797,-0.000325904,-0.000971765,0.00198784,-0.000734042,-0.397625,0.00162611,0.0429815,1889,1128,46.5762,-2.34022
672,-104,46.6514,2.5271,0.00112567,-0.000399798,-0.000371537,0.00121135,-0.000485476,-0.226642,0.0010091,0.041449,1896,1128,46.6514,-2.52711
679,-104,46.6086,2.52502,0.000622842,-0.000549748,0.000199091,0.000655723,-0.000582629,0.163678,0.000715378,0.0394951,1903,1128,46.6087,-2.52497
686,-104,46.562,2.49976,0.000332341,-0.000744536,0.000589905,0.000592592,-0.00100479,0.415489,0.000932426,0.0381801,1910,1128,46.5621,-2.49982
693,-104,46.5868,2.58289,0.000262002,-0.000859905,0.000805959,0.000683005,-0.00128091,0.481377,0.00115125,0.0358224,1917,1128,46.5868,-2.58295
700,-104,46.5906,2.64355,0.000163123,-0.000952177,0.00089517,0.000660131,-0.00144918,0.506835,0.00124589,0.0290065,1924,1128,46.5906,-2.6435
707,-104,46.5767,2.6051,0,0,0,0,0,0,0,-1,1931,1128,46.5767,-2.60515
714,-104,45.5221,2.32166,0,0,0,0,0,0,0,-1,1938,1128,45.5221,-2.3216
721,-104,43.2261,7.08936,0,0,0,0,0,0,0,-1,1945,1128,43.2261,-7.08935
728,-104,43.3779,6.68945,-0.000677755,-0.00031838,0.00175109,0.00126222,-0.00225835,0.836527,0.00205955,0.0251931,1952,1128,43.3779,-6.68944
735,-104,43.3909,6.38196,-0.000718538,3.77397e-06,0.00186645,0.00154369,-0.00225846,0.880966,0.00220806,0.0293977,1959,1128,43.3909,-6.382
742,-104,43.2633,6.07483,-0.000573329,0.000474984,0.00197551,0.00199469,-0.00209303,0.915074,0.00236027,0.0199012,1966,1128,43.2634,-6.07478
749,-104,43.2395,5.7334,-0.00013265,0.00142205,0.00248886,0.00325213,-0.00196274,0.936764,0.00304133,0.019989,1973,1128,43.2395,-5.73343
756,-104,43.248,5.42078,0.000296105,0.00282822,0.0035144,0.00529766,-0.00217333,0.958286,0.00443733,0.0166882,1980,1128,43.2481,-5.42077
763,-104,43.2032,5.15417,0.000903133,0.00462871,0.0044073,0.00755072,-0.00201887,0.985342,0.00582459,0.0157206,1987,1128,43.2032,-5.15422
770,-104,43.1703,4.89905,0.00171841,0.00681677,0.0060292,0.0108136,-0.00227837,0.985403,0.00807633,0.0137062,1994,1128,43.1702,-4.89899
777,-104,43.1162,4.57593,0.00234219,0.0091598,0.00811222,0.0145503,-0.00304832,0.9843,0.0108599,0.0213916,2001,1128,43.1162,-4.57594
784,-104,43.2415,4.54626,0.00249175,0.0116133,0.0107443,0.0187247,-0.0046197,0.986114,0.0142745,0.039564,2008,1128,43.2415,-4.54625
791,-104,43.428,4.49194,0,0,0,0,0,0,0,-1,2015,1128,43.428,-4.49192
798,-104,44.885,2.22717,0,0,0,0,0,0,0,-1,2022,1128,44.8851,-2.22716
805,-104,44.9509,2.03088,0,0,0,0,0,0,0,-1,2029,1128,44.951,-2.03084
812,-104,43.2126,2.47461,0,0,0,0,0,0,0,-1,2036,1128,43.2127,-2.47467
-700,-111,0,0,0,0,0,0,0,0,0,-1,524,1135,0,0
-693,-111,-29.1255,-4.23547,0,0,0,0,0,0,0,-1,531,1135,-29.1255,4.23552
-686,-111,-28.0118,-3.99438,0,0,0,0,0,0,0,-1,538,1135,-28.0118,3.9944
-679,-111,-26.6522,-2.07629,0,0,0,0,0,0,0,-1,545,1135,-26.6522,2.07627
-672,-111,-25.9331,-2.61072,0,0,0,0,0,0,0,-1,552,1135,-25.9331,2.6107
-665,-111,-31.0338,0.959595,0,0,0,0,0,0,0,-1,559,1135,-31.0338,-0.959652
-658,-111,-30.9392,1.38574,0,0,0,0,0,0,0,-1,566,1135,-30.9392,-1.38576
-651,-111,-30.7396,1.47815,0.0109775,0.00727445,0.00603807,0.0154415,0.0028104,0.636629,0.00949719,0.0441333,573,1135,-30.7395,-1.47809
-644,-111,-30.7788,1.69824,0.00707982,0.00543241,0.00370561,0.0100522,0.00246007,0.676033,0.00605049,0.0264051,580,1135,-30.7788,-1.69826
-637,-111,-30.8641,2.0918,0.00388055,0.00404608,0.00183273,0.00579792,0.00212872,0.807963,0.00338658,0.0105086,587,1135,-30.8641,-2.09185
-630,-111,-30.8953,2.40271,0.00175853,0.00249312,0.000387167,0.0026595,0.00159216,1.16493,0.0015454,0.0196983,594,1135,-30.8953,-2.40266
-623,-111,-30.92,2.79053,0.000974895,0.000713828,-0.000490948,0.00135237,0.000336357,-0.655464,0.000812993,0.0171521,601,1135,-30.92,-2.79053
-616,-111,-31.1141,3.15967,0.0015563,-0.000208876,-0.000206553,0.00158015,-0.000232723,-0.114947,0.00113896,0.0178072,608,1135,-31.1141,-3.15963
-609,-111,-31.3491,3.49487,0.00253069,-0.000197679,-0.000315512,0.0025667,-0.00023369,-0.113643,0.00179411,0.0286839,615,1135,-31.349,-3.49488
-602,-111,-31.2123,3.89648,0.00320258,0.000267316,-0.000246891,0.0032232,0.000246694,-0.0833317,0.00207147,0.0332015,622,1135,-31.2123,-3.89647
-595,-111,-31.0007,4.33313,0.00306561,0.000660092,0.000427942,0.00313948,0.000586229,0.170916,0.00192752,0.0183724,629,1135,-31.0007,-4.33311
-588,-111,-30.7455,4.85425,0,0,0,0,0,0,0,-1,636,1135,-30.7455,-4.85425
-581,-111,-21.0555,3.14551,0,0,0,0,0,0,0,-1,643,1135,-21.0555,-3.14548
-574,-111,-34.6953,1.13025,0,0,0,0,0,0,0,-1,650,1135,-34.6952,-1.13025
-567,-111,-34.6249,1.2959,0.00429878,0.00323289,8.40345e-05,0.00430536,0.0032263,0.0781959,0.0025867,0.0380113,657,1135,-34.6249,-1.29591
-560,-111,-34.634,1.3512,0.00453203,0.00410177,-0.00011844,0.00456248,0.00407133,-0.251633,0.00289187,0.0408654,664,1135,-34.634,-1.35119
-553,-111,-34.5737,0.891602,0.00445596,0.00503076,-0.000664538,0.00546738,0.00401934,-0.989492,0.00327089,0.0455733,671,1135,-34.5737,-0.891651
-546,-111,-34.7313,1.10156,0.00474238,0.00580675,-0.00164589,0.00700435,0.00354477,-0.941763,0.00404406,0.0424737,678,1135,-34.7313,-1.1016
-539,-111,-34.9616,1.36877,0.00678925,0.00584331,-0.00314871,0.00950032,0.00313225,-0.71085,0.00559006,0.042811,685,1135,-34.9616,-1.36872
-532,-111,-34.9521,1.07715,0.0106996,0.00515889,-0.0048256,0.0134935,0.00236495,-0.524823,0.00832015,0.0420262,692,1135,-34.9521,-1.07721
-525,-111,-34.7739,0.773071,0.0150772,0.00399233,-0.00688325,0.0183721,0.000697474,-0.446444,0.0120223,0.0377246,699,1135,-34.7739,-0.773102
-518,-111,0,0,0,0,0,0,0,0,0,-1,706,1135,0,0
-511,-111,0,0,0,0,0,0,0,0,0,-1,713,1135,0,0
-504,-111,0,0,0,0,0,0,0,0,0,-1,720,1135,0,0
-497,-111,0,0,0,0,0,0,0,0,0,-1,727,1135,0,0
-490,-111,0,0,0,0,0,0,0,0,0,-1,734,1135,0,0
-483,-111,0,0,0,0,0,0,0,0,0,-1,741,1135,0,0
-476,-111,0,0,0,0,0,0,0,0,0,-1,748,1135,0,0
-469,-111,0,0,0,0,0,0,0,0,0,-1,755,1135,0,0
-462,-111,0,0,0,0,0,0,0,0,0,-1,762,1135,0,0
-455,-111,0,0,0,0,0,0,0,0,0,-1,769,1135,0,0
-448,-111,0,0,0,0,0,0,0,0,0,-1,776,1135,0,0
-441,-111,0,0,0,0,0,0,0,0,0,-1,783,1135,0,0
-434,-111,0,0,0,0,0,0,0,0,0,-1,790,1135,0,0
-427,-111,0,0,0,0,0,0,0,0,0,-1,797,1135,0,0
-420,-111,0,0,0,0,0,0,0,0,0,-1,804,1135,0,0
-413,-111,0,0,0,0,0,0,0,0,0,-1,811,1135,0,0
-406,-111,0,0,0,0,0,0,0,0,0,-1,818,1135,0,0
-399,-111,0,0,0,0,0,0,0,0,0,-1,825,1135,0,0
-392,-111,0,0,0,0,0,0,0,0,0,-1,832,1135,0,0
-385,-111,0,0,0,0,0,0,0,0,0,-1,839,1135,0,0
-378,-111,0,0,0,0,0,0,0,0,0,-1,846,1135,0,0
-371,-111,0,0,0,0,0,0,0,0,0,-1,853,1135,0,0
-364,-111,0,0,0,0,0,0,0,0,0,-1,860,1135,0,0
-357,-111,0,0,0,0,0,0,0,0,0,-1,867,1135,0,0
-350,-111,0,0,0,0,0,0,0,0,0,-1,874,1135,0,0
-343,-111,0,0,0,0,0,0,0,0,0,-1,881,1135,0,0
-336,-111,0,0,0,0,0,0,0,0,0,-1,888,1135,0,0
-329,-111,0,0,0,0,0,0,0,0,0,-1,895,1135,0,0
-322,-111,0,0,0,0,0,0,0,0,0,-1,902,1135,0,0
-315,-111,0,0,0,0,0,0,0,0,0,-1,909,1135,0,0
-308,-111,0,0,0,0,0,0,0,0,0,-1,916,1135,0,0
-301,-111,0,0,0,0,0,0,0,0,0,-1,923,1135,0,0
-294,-111,0,0,0,0,0,0,0,0,0,-1,930,1135,0,0
-287,-111,0,0,0,0,0,0,0,0,0,-1,937,1135,0,0
-280,-111,0,0,0,0,0,0,0,0,0,-1,944,1135,0,0
-273,-111,0,0,0,0,0,0,0,0,0,-1,951,1135,0,0
-266,-111,0,0,0,0,0,0,0,0,0,-1,958,1135,0,0
-259,-111,0,0,0,0,0,0,0,0,0,-1,965,1135,0,0
-252,-111,0,0,0,0,0,0,0,0,0,-1,972,1135,0,0
-245,-111,0,0,0,0,0,0,0,0,0,-1,979,1135,0,0
-238,-111,0,0,0,0,0,0,0,0,0,-1,986,1135,0,0
-231,-111,0,0,0,0,0,0,0,0,0,-1,993,1135,0,0
-224,-111,0,0,0,0,0,0,0,0,0,-1,1000,1135,0,0
-217,-111,0,0,0,0,0,0,0,0,0,-1,1007,1135,0,0
-210,-111,0,0,0,0,0,0,0,0,0,-1,1014,1135,0,0
-203,-111,0,0,0,0,0,0,0,0,0,-1,1021,1135,0,0
-196,-111,0,0,0,0,0,0,0,0,0,-1,1028,1135,0,0
-189,-111,0,0,0,0,0,0,0,0,0,-1,1035,1135,0,0
-182,-111,0,0,0,0,0,0,0,0,0,-1,1042,1135,0,0
-175,-111,0,0,0,0,0,0,0,0,0,-1,1049,1135,0,0
-168,-111,0,0,0,0,0,0,0,0,0,-1,1056,1135,0,0
-161,-111,0,0,0,0,0,0,0,0,0,-1,1063,1135,0,0
-154,-111,0,0,0,0,0,0,0,0,0,-1,1070,1135,0,0
-147,-111,0,0,0,0,0,0,0,0,0,-1,1077,1135,0,0
-140,-111,0,0,0,0,0,0,0,0,0,-1,1084,1135,0,0
-133,-111,0,0,0,0,0,0,0,0,0,-1,1091,1135,0,0
-126,-111,0,0,0,0,0,0,0,0,0,-1,1098,1135,0,0
-119,-111,0,0,0,0,0,0,0,0,0,-1,1105,1135,0,0
-112,-111,0,0,0,0,0,0,0,0,0,-1,1112,1135,0,0
-105,-111,0,0,0,0,0,0,0,0,0,-1,1119,1135,0,0
-98,-111,0,0,0,0,0,0,0,0,0,-1,1126,1135,0,0
-91,-111,0,0,0,0,0,0,0,0,0,-1,1133,1135,0,0
-84,-111,0,0,0,0,0,0,0,0,0,-1,1140,1135,0,0
-77,-111,0,0,0,0,0,0,0,0,0,-1,1147,1135,0,0
-70,-111,0,0,0,0,0,0,0,0,0,-1,1154,1135,0,0
-63,-111,0,0,0,0,0,0,0,0,0,-1,1161,1135,0,0
-56,-111,0,0,0,0,0,0,0,0,0,-1,1168,1135,0,0
-49,-111,0,0,0,0,0,0,0,0,0,-1,1175,1135,0,0
-42,-111,0,0,0,0,0,0,0,0,0,-1,1182,1135,0,0
-35,-111,0,0,0,0,0,0,0,0,0,-1,1189,1135,0,0
-28,-111,0,0,0,0,0,0,0,0,0,-1,1196,1135,0,0
-21,-111,0,0,0,0,0,0,0,0,0,-1,1203,1135,0,0
-14,-111,0,0,0,0,0,0,0,0,0,-1,1210,1135,0,0
-7,-111,0,0,0,0,0,0,0,0,0,-1,1217,1135,0,0
0,-111,0,0,0,0,0,0,0,0,0,-1,1224,1135,0,0
7,-111,0,0,0,0,0,0,0,0,0,-1,1231,1135,0,0
14,-111,0,0,0,0,0,0,0,0,0,-1,1238,1135,0,0
21,-111,0,0,0,0,0,0,0,0,0,-1,1245,1135,0,0
28,-111,0,0,0,0,0,0,0,0,0,-1,1252,1135,0,0
35,-111,0,0,0,0,0,0,0,0,0,-1,1259,1135,0,0
42,-111,0,0,0,0,0,0,0,0,0,-1,1266,1135,0,0
49,-111,0,0,0,0,0,0,0,0,0,-1,1273,1135,0,0
56,-111,0,0,0,0,0,0,0,0,0,-1,1280,1135,0,0
63,-111,0,0,0,0,0,0,0,0,0,-1,1287,1135,0,0
70,-111,0,0,0,0,0,0,0,0,0,-1,1294,1135,0,0
77,-111,0,0,0,0,0,0,0,0,0,-1,1301,1135,0,0
84,-111,0,0,0,0,0,0,0,0,0,-1,1308,1135,0,0
91,-111,0,0,0,0,0,0,0,0,0,-1,1315,1135,0,0
98,-111,0,0,0,0,0,0,0,0,0,-1,1322,1135,0,0
105,-111,0,0,0,0,0,0,0,0,0,-1,1329,1135,0,0
112,-111,0,0,0,0,0,0,0,0,0,-1,1336,1135,0,0
119,-111,0,0,0,0,0,0,0,0,0,-1,1343,1135,0,0
126,-111,0,0,0,0,0,0,0,0,0,-1,1350,1135,0,0
133,-111,0,0,0,0,0,0,0,0,0,-1,1357,1135,0,0
140,-111,0,0,0,0,0,0,0,0,0,-1,1364,1135,0,0
147,-111,0,0,0,0,0,0,0,0,0,-1,1371,1135,0,0
154,-111,0,0,0,0,0,0,0,0,0,-1,1378,1135,0,0
161,-111,0,0,0,0,0,0,0,0,0,-1,1385,1135,0,0
168,-111,0,0,0,0,0,0,0,0,0,-1,1392,1135,0,0
175,-111,0,0,0,0,0,0,0,0,0,-1,1399,1135,0,0
182,-111,0,0,0,0,0,0,0,0,0,-1,1406,1135,0,0
189,-111,0,0,0,0,0,0,0,0,0,-1,1413,1135,0,0
196,-111,0,0,0,0,0,0,0,0,0,-1,1420,1135,0,0
203,-111,0,0,0,0,0,0,0,0,0,-1,1427,1135,0,0
210,-111,0,0,0,0,0,0,0,0,0,-1,1434,1135,0,0
217,-111,0,0,0,0,0,0,0,0,0,-1,1441,1135,0,0
224,-111,0,0,0,0,0,0,0,0,0,-1,1448,1135,0,0
231,-111,0,0,0,0,0,0,0,0,0,-1,1455,1135,0,0
238,-111,0,0,0,0,0,0,0,0,0,-1,1462,1135,0,0
245,-111,0,0,0,0,0,0,0,0,0,-1,1469,1135,0,0
252,-111,0,0,0,0,0,0,0,0,0,-1,1476,1135,0,0
259,-111,0,0,0,0,0,0,0,0,0,-1,1483,1135,0,0
266,-111,0,0,0,0,0,0,0,0,0,-1,1490,1135,0,0
273,-111,0,0,0,0,0,0,0,0,0,-1,1497,1135,0,0
280,-111,0,0,0,0,0,0,0,0,0,-1,1504,1135,0,0
287,-111,0,0,0,0,0,0,0,0,0,-1,1511,1135,0,0
294,-111,0,0,0,0,0,0,0,0,0,-1,1518,1135,0,0
301,-111,0,0,0,0,0,0,0,0,0,-1,1525,1135,0,0
308,-111,0,0,0,0,0,0,0,0,0,-1,1532,1135,0,0
315,-111,0,0,0,0,0,0,0,0,0,-1,1539,1135,0,0
322,-111,0,0,0,0,0,0,0,0,0,-1,1546,1135,0,0
329,-111,0,0,0,0,0,0,0,0,0,-1,1553,1135,0,0
336,-111,0,0,0,0,0,0,0,0,0,-1,1560,1135,0,0
343,-111,0,0,0,0,0,0,0,0,0,-1,1567,1135,0,0
350,-111,0,0,0,0,0,0,0,0,0,-1,1574,1135,0,0
357,-111,0,0,0,0,0,0,0,0,0,-1,1581,1135,0,0
364,-111,0,0,0,0,0,0,0,0,0,-1,1588,1135,0,0
371,-111,0,0,0,0,0,0,0,0,0,-1,1595,1135,0,0
378,-111,0,0,0,0,0,0,0,0,0,-1,1602,1135,0,0
385,-111,0,0,0,0,0,0,0,0,0,-1,1609,1135,0,0
392,-111,0,0,0,0,0,0,0,0,0,-1,1616,1135,0,0
399,-111,0,0,0,0,0,0,0,0,0,-1,1623,1135,0,0
406,-111,0,0,0,0,0,0,0,0,0,-1,1630,1135,0,0
413,-111,0,0,0,0,0,0,0,0,0,-1,1637,1135,0,0
420,-111,0,0,0,0,0,0,0,0,0,-1,1644,1135,0,0
427,-111,0,0,0,0,0,0,0,0,0,-1,1651,1135,0,0
434,-111,0,0,0,0,0,0,0,0,0,-1,1658,1135,0,0
441,-111,0,0,0,0,0,0,0,0,0,-1,1665,1135,0,0
448,-111,0,0,0,0,0,0,0,0,0,-1,1672,1135,0,0
455,-111,0,0,0,0,0,0,0,0,0,-1,1679,1135,0,0
462,-111,0,0,0,0,0,0,0,0,0,-1,1686,1135,0,0
469,-111,0,0,0,0,0,0,0,0,0,-1,1693,1135,0,0
476,-111,0,0,0,0,0,0,0,0,0,-1,1700,1135,0,0
483,-111,0,0,0,0,0,0,0,0,0,-1,1707,1135,0,0
490,-111,0,0,0,0,0,0,0,0,0,-1,1714,1135,0,0
497,-111,0,0,0,0,0,0,0,0,0,-1,1721,1135,0,0
504,-111,0,0,0,0,0,0,0,0,0,-1,1728,1135,0,0
511,-111,0,0,0,0,0,0,0,0,0,-1,1735,1135,0,0
518,-111,0,0,0,0,0,0,0,0,0,-1,1742,1135,0,0
525,-111,0,0,0,0,0,0,0,0,0,-1,1749,1135,0,0
532,-111,0,0,0,0,0,0,0,0,0,-1,1756,1135,0,0
539,-111,0,0,0,0,0,0,0,0,0,-1,1763,1135,0,0
546,-111,0,0,0,0,0,0,0,0,0,-1,1770,1135,0,0
553,-111,0,0,0,0,0,0,0,0,0,-1,1777,1135,0,0
560,-111,0,0,0,0,0,0,0,0,0,-1,1784,1135,0,0
567,-111,0,0,0,0,0,0,0,0,0,-1,1791,1135,0,0
574,-111,0,0,0,0,0,0,0,0,0,-1,1798,1135,0,0
581,-111,0,0,0,0,0,0,0,0,0,-1,1805,1135,0,0
588,-111,0,0,0,0,0,0,0,0,0,-1,1812,1135,0,0
595,-111,0,0,0,0,0,0,0,0,0,-1,1819,1135,0,0
602,-111,0,0,0,0,0,0,0,0,0,-1,1826,1135,0,0
609,-111,0,0,0,0,0,0,0,0,0,-1,1833,1135,0,0
616,-111,0,0,0,0,0,0,0,0,0,-1,1840,1135,0,0
623,-111,0,0,0,0,0,0,0,0,0,-1,1847,1135,0,0
630,-111,0,0,0,0,0,0,0,0,0,-1,1854,1135,0,0
637,-111,0,0,0,0,0,0,0,0,0,-1,1861,1135,0,0
644,-111,46.2991,2.88965,0.00298351,0.000709301,-0.00257952,0.00466543,-0.000972627,-0.577802,0.0034801,0.0428232,1868,1135,46.299,-2.88965
651,-111,46.3802,3.02551,0.0019569,0.000456349,-0.00202067,0.00336208,-0.000948836,-0.607637,0.00261567,0.041521,1875,1135,46.3802,-3.02548
658,-111,46.679,2.52905,0.00136013,7.29194e-05,-0.00145032,0.00230324,-0.000870188,-0.576569,0.00189342,0.042611,1882,1135,46.679,-2.52907
665,-111,46.6283,2.52454,0.00097314,-0.000233386,-0.000863027,0.00142285,-0.000683091,-0.480368,0.00124062,0.0438554,1889,1135,46.6283,-2.52454
672,-111,46.5393,2.57361,0.000743313,-0.000455809,-0.000276613,0.000804046,-0.000516542,-0.21613,0.000768441,0.0430729,1896,1135,46.5394,-2.57366
679,-111,46.5902,2.5907,0.000392789,-0.000721293,0.000277658,0.000458154,-0.000786658,0.231204,0.000726987,0.0407153,1903,1135,46.5903,-2.59074
686,-111,46.5908,2.58398,0.000195121,-0.000980453,0.000630128,0.00046905,-0.00125438,0.410075,0.00102888,0.0387737,1910,1135,46.5908,-2.58402
693,-111,46.5889,2.68713,0.000173839,-0.00110006,0.000827142,0.000580856,-0.00150708,0.457289,0.00124438,0.0357978,1917,1135,46.5888,-2.68709
700,-111,46.6276,2.67419,0.000109841,-0.00120948,0.000904267,0.00056949,-0.00166912,0.470274,0.00134344,0.0275755,1924,1135,46.6275,-2.67424
707,-111,46.6017,2.63489,0,0,0,0,0,0,0,-1,1931,1135,46.6016,-2.63485
714,-111,39.0695,6.81152,0,0,0,0,0,0,0,-1,1938,1135,39.0694,-6.81152
721,-111,42.9019,7.15625,0,0,0,0,0,0,0,-1,1945,1135,42.9018,-7.1562
728,-111,42.9872,6.73633,-0.000682816,-0.000587469,0.00170327,0.00106879,-0.00233908,0.799389,0.00201258,0.02398,1952,1135,42.9872,-6.73627
735,-111,42.9867,6.42554,-0.000744595,-0.000251643,0.00181966,0.00133816,-0.0023344,0.852714,0.0021462,0.0245002,1959,1135,42.9867,-6.42555
742,-111,42.9039,6.11169,-0.000713946,0.000191694,0.00193042,0.0017217,-0.00224395,0.900601,0.00229617,0.0159673,1966,1135,42.904,-6.11164
749,-111,42.8743,5.76807,-0.000504942,0.000982968,0.0025051,0.00285224,-0.00237422,0.929739,0.0030217,0.0174795,1973,1135,42.8743,-5.76811
756,-111,42.8723,5.44177,-0.000284185,0.00216642,0.00370477,0.00484325,-0.00296102,0.945104,0.00454927,0.0166565,1980,1135,42.8724,-5.4418
763,-111,42.8651,5.14819,8.86872e-05,0.00369775,0.00503633,0.00724308,-0.00345664,0.957424,0.0063051,0.0148567,1987,1135,42.8651,-5.14816
770,-111,42.863,4.84241,0.000464154,0.00540829,0.00718571,0.0105353,-0.00466283,0.951069,0.00899032,0.0125244,1994,1135,42.8631,-4.84242
777,-111,42.7319,4.52991,0.000541681,0.00714098,0.00999025,0.0143624,-0.00667973,0.944901,0.0124157,0.0237357,2001,1135,42.7319,-4.52995
784,-111,42.9087,4.5022,-8.6386e-06,0.00880584,0.0136967,0.0187869,-0.00998968,0.941054,0.0168709,0.0409589,2008,1135,42.9086,-4.50214
791,-111,44.23,2.4574,0,0,0,0,0,0,0,-1,2015,1135,44.23,-2.45738
798,-111,44.6035,2.24463,0,0,0,0,0,0,0,-1,2022,1135,44.6035,-2.24459
805,-111,44.9465,2.07068,0,0,0,0,0,0,0,-1,2029,1135,44.9464,-2.07069
812,-111,43.1052,2.64844,0,0,0,0,0,0,0,-1,2036,1135,43.1051,-2.64846
-700,-118,0,0,0,0,0,0,0,0,0,-1,524,1142,0,0
-693,-118,-28.9482,-3.44446,0.0678435,-0.00730873,0.0241109,0.0749138,-0.014379,0.285243,0.0553615,0.0480403,531,1142,-28.9481,3.4445
-686,-118,-28.2932,-3.39795,0.0576461,-0.00273012,0.0221658,0.0649099,-0.00999392,0.316675,0.0469604,0.0497271,538,1142,-28.2932,3.39798
-679,-118,-27.4658,-2.07288,0.0474829,-6.65484e-05,0.0192668,0.0543096,-0.00689325,0.340522,0.0387093,0.0456251,545,1142,-27.4658,2.07286
-672,-118,-26.7192,-2.55896,0,0,0,0,0,0,0,-1,552,1142,-26.7193,2.55896
-665,-118,-33.1703,-0.811157,0,0,0,0,0,0,0,-1,559,1142,-33.1703,0.811162
-658,-118,-30.1918,1.32471,0,0,0,0,0,0,0,-1,566,1142,-30.1918,-1.32468
-651,-118,-30.1874,1.53638,0.015099,0.00233024,0.00664794,0.0179318,-0.000502495,0.402809,0.0121255,0.0443695,573,1142,-30.1874,-1.53639
-644,-118,-30.3128,1.70581,0.00998407,0.00190161,0.00423739,0.0117984,8.73301e-05,0.404544,0.00783662,0.0315923,580,1142,-30.3128,-1.70576
-637,-118,-30.4399,2.1156,0.0058433,0.00174222,0.00229102,0.00686741,0.000718113,0.420366,0.00435866,0.0165966,587,1142,-30.44,-2.11557
-630,-118,-30.4664,2.44031,0.00283733,0.00129777,0.00078365,0.00316603,0.000969068,0.397164,0.00187317,0.0217279,594,1142,-30.4664,-2.44033
-623,-118,-30.492,2.81543,0.00131347,0.000302267,-0.000182438,0.00134538,0.000270359,-0.173147,0.000821758,0.0180349,601,1142,-30.492,-2.81539
-616,-118,-30.5894,3.1748,0.00169224,-0.00018825,-7.17071e-07,0.00169224,-0.000188251,-0.000381321,0.00119586,0.0196674,608,1142,-30.5893,-3.17481
-609,-118,-30.7945,3.40027,0.00260037,0.000113231,-0.000257817,0.00262681,8.6787e-05,-0.102212,0.00172301,0.0336908,615,1142,-30.7945,-3.40026
-602,-118,-30.6749,3.97205,0.00319804,0.000680991,-0.000256627,0.00322394,0.000655093,-0.100576,0.00196762,0.0336364,622,1142,-30.6749,-3.97205
-595,-118,-30.8721,4.55029,0,0,0,0,0,0,0,-1,629,1142,-30.8721,-4.55029
-588,-118,-29.8262,4.96289,0,0,0,0,0,0,0,-1,636,1142,-29.8263,-4.96291
-581,-118,-24.6116,3.89648,0,0,0,0,0,0,0,-1,643,1142,-24.6116,-3.89645
-574,-118,-34.722,1.08704,0,0,0,0,0,0,0,-1,650,1142,-34.722,-1.08705
-567,-118,-34.6406,1.27283,0.00409067,0.00384203,-0.000227899,0.00422595,0.00370675,-0.535699,0.00266117,0.0440645,657,1142,-34.6406,-1.27278
-560,-118,-34.5712,1.07898,0.00432684,0.00470266,-0.000485768,0.0050356,0.0039939,-0.969952,0.00306933,0.0384227,664,1142,-34.5712,-1.07898
-553,-118,-34.3325,0.770874,0.00422467,0.00564134,-0.00108927,0.00623233,0.00363368,-1.07369,0.00361474,0.0393813,671,1142,-34.3325,-0.770843
-546,-118,-34.4303,0.806396,0.00445199,0.00641103,-0.00210425,0.00775257,0.00311045,-1.00323,0.00450497,0.0414943,678,1142,-34.4303,-0.806437
-539,-118,-34.7631,1.02393,0.00628566,0.00647145,-0.0035668,0.00994656,0.00281055,-0.798417,0.00592088,0.0428255,685,1142,-34.7631,-1.02393
-532,-118,-34.8716,1.04236,0.0101529,0.00577181,-0.00519639,0.0136016,0.00232313,-0.585925,0.00840111,0.0407307,692,1142,-34.8716,-1.04233
-525,-118,-34.6506,0.80603,0.0145014,0.00454939,-0.00722528,0.0182983,0.000752406,-0.48385,0.011956,0.0404954,699,1142,-34.6505,-0.806021
-518,-118,0,0,0,0,0,0,0,0,0,-1,706,1142,0,0
-511,-118,0,0,0,0,0,0,0,0,0,-1,713,1142,0,0
-504,-118,0,0,0,0,0,0,0,0,0,-1,720,1142,0,0
-497,-118,0,0,0,0,0,0,0,0,0,-1,727,1142,0,0
-490,-118,0,0,0,0,0,0,0,0,0,-1,734,1142,0,0
-483,-118,0,0,0,0,0,0,0,0,0,-1,741,1142,0,0
-476,-118,0,0,0,0,0,0,0,0,0,-1,748,1142,0,0
-469,-118,0,0,0,0,0,0,0,0,0,-1,755,1142,0,0
-462,-118,0,0,0,0,0,0,0,0,0,-1,762,1142,0,0
-455,-118,0,0,0,0,0,0,0,0,0,-1,769,1142,0,0
-448,-118,0,0,0,0,0,0,0,0,0,-1,776,1142,0,0
-441,-118,0,0,0,0,0,0,0,0,0,-1,783,1142,0,0
-434,-118,0,0,0,0,0,0,0,0,0,-1,790,1142,0,0
-427,-118,0,0,0,0,0,0,0,0,0,-1,797,1142,0,0
-420,-118,0,0,0,0,0,0,0,0,0,-1,804,1142,0,0
-413,-118,0,0,0,0,0,0,0,0,0,-1,811,1142,0,0
-406,-118,0,0,0,0,0,0,0,0,0,-1,818,1142,0,0
-399,-118,0,0,0,0,0,0,0,0,0,-1,825,1142,0,0
-392,-118,0,0,0,0,0,0,0,0,0,-1,832,1142,0,0
-385,-118,0,0,0,0,0,0,0,0,0,-1,839,1142,0,0
-378,-118,0,0,0,0,0,0,0,0,0,-1,846,1142,0,0
-371,-118,0,0,0,0,0,0,0,0,0,-1,853,1142,0,0
-364,-118,0,0,0,0,0,0,0,0,0,-1,860,1142,0,0
-357,-118,0,0,0,0,0,0,0,0,0,-1,867,1142,0,0
-350,-118,0,0,0,0,0,0,0,0,0,-1,874,1142,0,0
-343,-118,0,0,0,0,0,0,0,0,0,-1,881,1142,0,0
-336,-118,0,0,0,0,0,0,0,0,0,-1,888,1142,0,0
-329,-118,0,0,0,0,0,0,0,0,0,-1,895,1142,0,0
-322,-118,0,0,0,0,0,0,0,0,0,-1,902,1142,0,0
-315,-118,0,0,0,0,0,0,0,0,0,-1,909,1142,0,0
-308,-118,0,0,0,0,0,0,0,0,0,-1,916,1142,0,0
-301,-118,0,0,0,0,0,0,0,0,0,-1,923,1142,0,0
-294,-118,0,0,0,0,0,0,0,0,0,-1,930,1142,0,0
-287,-118,0,0,0,0,0,0,0,0,0,-1,937,1142,0,0
-280,-118,0,0,0,0,0,0,0,0,0,-1,944,1142,0,0
-273,-118,0,0,0,0,0,0,0,0,0,-1,951,1142,0,0
-266,-118,0,0,0,0,0,0,0,0,0,-1,958,1142,0,0
-259,-118,0,0,0,0,0,0,0,0,0,-1,965,1142,0,0
-252,-118,0,0,0,0,0,0,0,0,0,-1,972,1142,0,0
-245,-118,0,0,0,0,0,0,0,0,0,-1,979,1142,0,0
-238,-118,0,0,0,0,0,0,0,0,0,-1,986,1142,0,0
-231,-118,0,0,0,0,0,0,0,0,0,-1,993,1142,0,0
-224,-118,0,0,0,0,0,0,0,0,0,-1,1000,1142,0,0
-217,-118,0,0,0,0,0,0,0,0,0,-1,1007,1142,0,0
-210,-118,0,0,0,0,0,0,0,0,0,-1,1014,1142,0,0
-203,-118,0,0,0,0,0,0,0,0,0,-1,1021,1142,0,0
-196,-118,0,0,0,0,0,0,0,0,0,-1,1028,1142,0,0
-189,-118,0,0,0,0,0,0,0,0,0,-1,1035,1142,0,0
-182,-118,0,0,0,0,0,0,0,0,0,-1,1042,1142,0,0
-175,-118,0,0,0,0,0,0,0,0,0,-1,1049,1142,0,0
-168,-118,0,0,0,0,0,0,0,0,0,-1,1056,1142,0,0
-161,-118,0,0,0,0,0,0,0,0,0,-1,1063,1142,0,0
-154,-118,0,0,0,0,0,0,0,0,0,-1,1070,1142,0,0
-147,-118,0,0,0,0,0,0,0,0,0,-1,1077,1142,0,0
-140,-118,0,0,0,0,0,0,0,0,0,-1,1084,1142,0,0
-133,-118,0,0,0,0,0,0,0,0,0,-1,1091,1142,0,0
-126,-118,0,0,0,0,0,0,0,0,0,-1,1098,1142,0,0
-119,-118,0,0,0,0,0,0,0,0,0,-1,1105,1142,0,0
-112,-118,0,0,0,0,0,0,0,0,0,-1,1112,1142,0,0
-105,-118,0,0,0,0,0,0,0,0,0,-1,1119,1142,0,0
-98,-118,0,0,0,0,0,0,0,0,0,-1,1126,1142,0,0
-91,-118,0,0,0,0,0,0,0,0,0,-1,1133,1142,0,0
-84,-118,0,0,0,0,0,0,0,0,0,-1,1140,1142,0,0
-77,-118,0,0,0,0,0,0,0,0,0,-1,1147,1142,0,0
-70,-118,0,0,0,0,0,0,0,0,0,-1,1154,1142,0,0
-63,-118,0,0,0,0,0,0,0,0,0,-1,1161,1142,0,0
-56,-118,0,0,0,0,0,0,0,0,0,-1,1168,1142,0,0
-49,-118,0,0,0,0,0,0,0,0,0,-1,1175,1142,0,0
-42,-118,0,0,0,0,0,0,0,0,0,-1,1182,1142,0,0
-35,-118,0,0,0,0,0,0,0,0,0,-1,1189,1142,0,0
-28,-118,0,0,0,0,0,0,0,0,0,-1,1196,1142,0,0
-21,-118,0,0,0,0,0,0,0,0,0,-1,1203,1142,0,0
-14,-118,0,0,0,0,0,0,0,0,0,-1,1210,1142,0,0
-7,-118,0,0,0,0,0,0,0,0,0,-1,1217,1142,0,0
0,-118,0,0,0,0,0,0,0,0,0,-1,1224,1142,0,0
7,-118,0,0,0,0,0,0,0,0,0,-1,1231,1142,0,0
14,-118,0,0,0,0,0,0,0,0,0,-1,1238,1142,0,0
21,-118,0,0,0,0,0,0,0,0,0,-1,1245,1142,0,0
28,-118,0,0,0,0,0,0,0,0,0,-1,1252,1142,0,0
35,-118,0,0,0,0,0,0,0,0,0,-1,1259,1142,0,0
42,-118,0,0,0,0,0,0,0,0,0,-1,1266,1142,0,0
49,-118,0,0,0,0,0,0,0,0,0,-1,1273,1142,0,0
56,-118,0,0,0,0,0,0,0,0,0,-1,1280,1142,0,0
63,-118,0,0,0,0,0,0,0,0,0,-1,1287,1142,0,0
70,-118,0,0,0,0,0,0,0,0,0,-1,1294,1142,0,0
77,-118,0,0,0,0,0,0,0,0,0,-1,1301,1142,0,0
84,-118,0,0,0,0,0,0,0,0,0,-1,1308,1142,0,0
91,-118,0,0,0,0,0,0,0,0,0,-1,1315,1142,0,0
98,-118,0,0,0,0,0,0,0,0,0,-1,1322,1142,0,0
105,-118,0,0,0,0,0,0,0,0,0,-1,1329,1142,0,0
112,-118,0,0,0,0,0,0,0,0,0,-1,1336,1142,0,0
119,-118,0,0,0,0,0,0,0,0,0,-1,1343,1142,0,0
126,-118,0,0,0,0,0,0,0,0,0,-1,1350,1142,0,0
133,-118,0,0,0,0,0,0,0,0,0,-1,1357,1142,0,0
140,-118,0,0,0,0,0,0,0,0,0,-1,1364,1142,0,0
147,-118,0,0,0,0,0,0,0,0,0,-1,1371,1142,0,0
154,-118,0,0,0,0,0,0,0,0,0,-1,1378,1142,0,0
161,-118,0,0,0,0,0,0,0,0,0,-1,1385,1142,0,0
168,-118,0,0,0,0,0,0,0,0,0,-1,1392,1142,0,0
175,-118,0,0,0,0,0,0,0,0,0,-1,1399,1142,0,0
182,-118,0,0,0,0,0,0,0,0,0,-1,1406,1142,0,0
189,-118,0,0,0,0,0,0,0,0,0,-1,1413,1142,0,0
196,-118,0,0,0,0,0,0,0,0,0,-1,1420,1142,0,0
203,-118,0,0,0,0,0,0,0,0,0,-1,1427,1142,0,0
210,-118,0,0,0,0,0,0,0,0,0,-1,1434,1142,0,0
217,-118,0,0,0,0,0,0,0,0,0,-1,1441,1142,0,0
224,-118,0,0,0,0,0,0,0,0,0,-1,1448,1142,0,0
231,-118,0,0,0,0,0,0,0,0,0,-1,1455,1142,0,0
238,-118,0,0,0,0,0,0,0,0,0,-1,1462,1142,0,0
245,-118,0,0,0,0,0,0,0,0,0,-1,1469,1142,0,0
252,-118,0,0,0,0,0,0,0,0,0,-1,1476,1142,0,0
259,-118,0,0,0,0,0,0,0,0,0,-1,1483,1142,0,0
266,-118,0,0,0,0,0,0,0,0,0,-1,1490,1142,0,0
273,-118,0,0,0,0,0,0,0,0,0,-1,1497,1142,0,0
280,-118,0,0,0,0,0,0,0,0,0,-1,1504,1142,0,0
287,-118,0,0,0,0,0,0,0,0,0,-1,1511,1142,0,0
294,-118,0,0,0,0,0,0,0,0,0,-1,1518,1142,0,0
301,-118,0,0,0,0,0,0,0,0,0,-1,1525,1142,0,0
308,-118,0,0,0,0,0,0,0,0,0,-1,1532,1142,0,0
315,-118,0,0,0,0,0,0,0,0,0,-1,1539,1142,0,0
322,-118,0,0,0,0,0,0,0,0,0,-1,1546,1142,0,0
329,-118,0,0,0,0,0,0,0,0,0,-1,1553,1142,0,0
336,-118,0,0,0,0,0,0,0,0,0,-1,1560,1142,0,0
343,-118,0,0,0,0,0,0,0,0,0,-1,1567,1142,0,0
350,-118,0,0,0,0,0,0,0,0,0,-1,1574,1142,0,0
357,-118,0,0,0,0,0,0,0,0,0,-1,1581,1142,0,0
364,-118,0,0,0,0,0,0,0,0,0,-1,1588,1142,0,0
371,-118,0,0,0,0,0,0,0,0,0,-1,1595,1142,0,0
378,-118,0,0,0,0,0,0,0,0,0,-1,1602,1142,0,0
385,-118,0,0,0,0,0,0,0,0,0,-1,1609,1142,0,0
392,-118,0,0,0,0,0,0,0,0,0,-1,1616,1142,0,0
399,-118,0,0,0,0,0,0,0,0,0,-1,1623,1142,0,0
406,-118,0,0,0,0,0,0,0,0,0,-1,1630,1142,0,0
413,-118,0,0,0,0,0,0,0,0,0,-1,1637,1142,0,0
420,-118,0,0,0,0,0,0,0,0,0,-1,1644,1142,0,0
427,-118,0,0,0,0,0,0,0,0,0,-1,1651,1142,0,0
434,-118,0,0,0,0,0,0,0,0,0,-1,1658,1142,0,0
441,-118,0,0,0,0,0,0,0,0,0,-1,1665,1142,0,0
448,-118,0,0,0,0,0,0,0,0,0,-1,1672,1142,0,0
455,-118,0,0,0,0,0,0,0,0,0,-1,1679,1142,0,0
462,-118,0,0,0,0,0,0,0,0,0,-1,1686,1142,0,0
469,-118,0,0,0,0,0,0,0,0,0,-1,1693,1142,0,0
476,-118,0,0,0,0,0,0,0,0,0,-1,1700,1142,0,0
483,-118,0,0,0,0,0,0,0,0,0,-1,1707,1142,0,0
490,-118,0,0,0,0,0,0,0,0,0,-1,1714,1142,0,0
497,-118,0,0,0,0,0,0,0,0,0,-1,1721,1142,0,0
504,-118,0,0,0,0,0,0,0,0,0,-1,1728,1142,0,0
511,-118,0,0,0,0,0,0,0,0,0,-1,1735,1142,0,0
518,-118,0,0,0,0,0,0,0,0,0,-1,1742,1142,0,0
525,-118,0,0,0,0,0,0,0,0,0,-1,1749,1142,0,0
532,-118,0,0,0,0,0,0,0,0,0,-1,1756,1142,0,0
539,-118,0,0,0,0,0,0,0,0,0,-1,1763,1142,0,0
546,-118,0,0,0,0,0,0,0,0,0,-1,1770,1142,0,0
553,-118,0,0,0,0,0,0,0,0,0,-1,1777,1142,0,0
560,-118,0,0,0,0,0,0,0,0,0,-1,1784,1142,0,0
567,-118,0,0,0,0,0,0,0,0,0,-1,1791,1142,0,0
574,-118,0,0,0,0,0,0,0,0,0,-1,1798,1142,0,0
581,-118,0,0,0,0,0,0,0,0,0,-1,1805,1142,0,0
588,-118,0,0,0,0,0,0,0,0,0,-1,1812,1142,0,0
595,-118,0,0,0,0,0,0,0,0,0,-1,1819,1142,0,0
602,-118,0,0,0,0,0,0,0,0,0,-1,1826,1142,0,0
609,-118,0,0,0,0,0,0,0,0,0,-1,1833,1142,0,0
616,-118,0,0,0,0,0,0,0,0,0,-1,1840,1142,0,0
623,-118,0,0,0,0,0,0,0,0,0,-1,1847,1142,0,0
630,-118,0,0,0,0,0,0,0,0,0,-1,1854,1142,0,0
637,-118,0,0,0,0,0,0,0,0,0,-1,1861,1142,0,0
644,-118,46.4634,2.87439,0.000378263,0.000769139,-0.0022147,0.002797,-0.0016496,-0.829407,0.00259558,0.0427713,1868,1142,46.4633,-2.87434
651,-118,46.6613,2.97888,3.75497e-05,0.00045399,-0.00163027,0.00188928,-0.00139774,-0.848915,0.00190482,0.0421129,1875,1142,46.6613,-2.97885
658,-118,46.6638,2.76501,-2.21505e-05,2.31572e-05,-0.00108442,0.00108516,-0.00108416,-0.795842,0.00125246,0.0409494,1882,1142,46.6638,-2.76507
665,-118,46.6379,2.63904,4.06804e-05,-0.000341192,-0.000570578,0.000451421,-0.000751933,-0.623937,0.000701941,0.0400673,1889,1142,46.638,-2.63906
672,-118,46.5387,2.69775,0.000156201,-0.0006244,-7.68949e-05,0.000163704,-0.000631902,-0.0972618,0.000485132,0.0436354,1896,1142,46.5387,-2.69774
679,-118,46.5304,2.82666,3.51266e-05,-0.000941225,0.000410035,0.00018448,-0.00109058,0.34931,0.000795707,0.0418699,1903,1142,46.5304,-2.82668
686,-118,46.5756,2.80042,-2.41814e-05,-0.00121571,0.000690363,0.00029194,-0.00153183,0.429409,0.00113116,0.0348436,1910,1142,46.5756,-2.80036
693,-118,46.5641,2.72668,3.47217e-05,-0.00130861,0.000842959,0.000440885,-0.00171477,0.449006,0.00131501,0.0329391,1917,1142,46.5641,-2.72668
700,-118,46.6183,2.7533,3.66705e-05,-0.00142571,0.000906531,0.000470142,-0.00185919,0.446027,0.00142231,0.0222694,1924,1142,46.6183,-2.75326
707,-118,46.6793,2.80164,0,0,0,0,0,0,0,-1,1931,1142,46.6793,-2.80158
714,-118,42.8329,7.56604,0,0,0,0,0,0,0,-1,1938,1142,42.8329,-7.56605
721,-118,42.579,7.18018,-0.000452799,-0.00108267,0.0014692,0.00073484,-0.00227031,0.679816,0.00180894,0.0278892,1945,1142,42.579,-7.18016
728,-118,42.6064,6.84119,-0.000592025,-0.000866364,0.0016031,0.000879763,-0.00233815,0.74272,0.00192041,0.0215832,1952,1142,42.6064,-6.84116
735,-118,42.5625,6.49939,-0.000649328,-0.000550605,0.00168466,0.00108542,-0.00228535,0.800044,0.00198679,0.0210288,1959,1142,42.5625,-6.49943
742,-118,42.5779,6.15942,-0.000697968,-0.000137282,0.00177762,0.00138196,-0.00221721,0.863608,0.00209655,0.0266209,1966,1142,42.5779,-6.15937
749,-118,42.5577,5.78711,-0.000722175,0.000538468,0.00229871,0.00229171,-0.00247542,0.919212,0.00275298,0.0225082,1973,1142,42.5577,-5.7871
756,-118,42.5575,5.45068,-0.00072259,0.00161149,0.00347764,0.00411269,-0.00322378,0.947286,0.00424606,0.0179301,1980,1142,42.5575,-5.4507
763,-118,42.5515,5.14453,-0.000472383,0.00303405,0.00509234,0.00666653,-0.00410486,0.951185,0.00627721,0.0103994,1987,1142,42.5515,-5.14459
770,-118,42.495,4.85474,-0.000403242,0.00453259,0.00747354,0.00993515,-0.0058058,0.944871,0.00919169,0.0139279,1994,1142,42.495,-4.85479
777,-118,42.3988,4.57129,-0.000643955,0.00606157,0.0106385,0.0138631,-0.0084455,0.938049,0.0130059,0.0273082,2001,1142,42.3988,-4.57135
784,-118,42.3184,4.29602,-0.00148595,0.00754408,0.0149197,0.0186169,-0.0125588,0.932328,0.0181123,0.0431923,2008,1142,42.3183,-4.29603
791,-118,42.2646,4.04968,0,0,0,0,0,0,0,-1,2015,1142,42.2646,-4.04968
798,-118,44.1921,2.17822,0,0,0,0,0,0,0,-1,2022,1142,44.1921,-2.17821
805,-118,44.6199,1.88843,0,0,0,0,0,0,0,-1,2029,1142,44.6199,-1.88841
812,-118,43.1865,2.77197,0,0,0,0,0,0,0,-1,2036,1142,43.1865,-2.77202
-700,-125,0,0,0,0,0,0,0,0,0,-1,524,1149,0,0
-693,-125,-28.9752,-2.5907,0.0770399,-0.0268169,0.0196016,0.0806163,-0.0303933,0.180468,0.0662417,0.0469772,531,1149,-28.9752,2.59075
-686,-125,-28.5684,-2.79077,0.0660117,-0.0195523,0.0196137,0.0702934,-0.023834,0.214932,0.056508,0.046552,538,1149,-28.5684,2.79079
-679,-125,-28.4473,-1.88965,0.0548487,-0.0142616,0.0179411,0.0592286,-0.0186416,0.239445,0.0469499,0.0447206,545,1149,-28.4473,1.88961
-672,-125,-28.214,-2.66821,0,0,0,0,0,0,0,-1,552,1149,-28.214,2.66816
-665,-125,-31.7819,-0.641357,0,0,0,0,0,0,0,-1,559,1149,-31.7819,0.641385
-658,-125,-29.8829,1.28235,0,0,0,0,0,0,0,-1,566,1149,-29.8829,-1.28235
-651,-125,-29.8657,1.5354,0.0185391,-0.00314726,0.00712186,0.0206688,-0.00527695,0.290572,0.0158341,0.0403593,573,1149,-29.8657,-1.53537
-644,-125,-29.934,1.729,0.012548,-0.00197194,0.00471123,0.0139427,-0.00336661,0.287812,0.0105971,0.0285107,580,1149,-29.934,-1.72895
-637,-125,-30.048,2.08911,0.00771296,-0.000816853,0.00274489,0.00851992,-0.00162381,0.285931,0.00629146,0.0141468,587,1149,-30.048,-2.08907
-630,-125,-30.0486,2.44446,0.00401381,-4.01031e-05,0.00120446,0.00434467,-0.00037096,0.26808,0.00302769,0.0143812,594,1149,-30.0486,-2.44441
-623,-125,-30.0664,2.83801,0.00189775,-0.000119455,0.000135536,0.00190681,-0.000128521,0.0667902,0.00131614,0.0133723,601,1149,-30.0664,-2.83802
-616,-125,-30.1106,3.21094,0.00202028,-0.000165278,0.00013558,0.00202866,-0.000173656,0.0617188,0.00141389,0.0201227,608,1149,-30.1106,-3.21096
-609,-125,-30.248,3.48657,0.00279737,0.000353031,-0.000214144,0.00281599,0.000334412,-0.0867277,0.00177638,0.0389461,615,1149,-30.2481,-3.48651
-602,-125,-30.2427,4.00867,0.00326547,0.000951379,-0.000251116,0.00329241,0.000924443,-0.106859,0.00196083,0.0326955,622,1149,-30.2428,-4.00865
-595,-125,-30.4223,4.52649,0,0,0,0,0,0,0,-1,629,1149,-30.4223,-4.52643
-588,-125,-29.8889,5.02026,0,0,0,0,0,0,0,-1,636,1149,-29.8889,-5.02026
-581,-125,-26.4055,4.83203,0,0,0,0,0,0,0,-1,643,1149,-26.4055,-4.83204
-574,-125,-34.7622,1.08838,0,0,0,0,0,0,0,-1,650,1149,-34.7622,-1.08839
-567,-125,-34.6208,1.00903,0.00378189,0.00395979,-0.00037054,0.00425191,0.00348977,-0.903194,0.00261781,0.0498488,657,1149,-34.6208,-1.00909
-560,-125,-34.5264,0.746094,0.00398262,0.00473603,-0.000656364,0.00511611,0.00360254,-1.04591,0.00303475,0.0368354,664,1149,-34.5264,-0.746128
-553,-125,-34.5125,0.735107,0.00383694,0.00559423,-0.00129328,0.00627911,0.00315207,-1.08378,0.00362525,0.0379477,671,1149,-34.5125,-0.73508
-546,-125,-34.49,0.773438,0.0040229,0.00625226,-0.00234616,0.00773507,0.00254009,-1.00717,0.00455269,0.0417723,678,1149,-34.49,-0.773459
-539,-125,-34.6404,0.936646,0.00567224,0.00625718,-0.00382975,0.00980561,0.00212381,-0.823509,0.0059567,0.0417405,685,1149,-34.6404,-0.936657
-532,-125,-34.793,1.06409,0.00943757,0.00547651,-0.00548024,0.0132842,0.00162991,-0.612003,0.00836591,0.0387447,692,1149,-34.793,-1.06405
-525,-125,-34.4927,0.930908,0.0137233,0.00418878,-0.00752557,0.0178645,4.75571e-05,-0.503063,0.0118938,0.0405111,699,1149,-34.4926,-0.930868
-518,-125,0,0,0,0,0,0,0,0,0,-1,706,1149,0,0
-511,-125,0,0,0,0,0,0,0,0,0,-1,713,1149,0,0
-504,-125,0,0,0,0,0,0,0,0,0,-1,720,1149,0,0
-497,-125,0,0,0,0,0,0,0,0,0,-1,727,1149,0,0
-490,-125,0,0,0,0,0,0,0,0,0,-1,734,1149,0,0
-483,-125,0,0,0,0,0,0,0,0,0,-1,741,1149,0,0
-476,-125,0,0,0,0,0,0,0,0,0,-1,748,1149,0,0
-469,-125,0,0,0,0,0,0,0,0,0,-1,755,1149,0,0
-462,-125,0,0,0,0,0,0,0,0,0,-1,762,1149,0,0
-455,-125,0,0,0,0,0,0,0,0,0,-1,769,1149,0,0
-448,-125,0,0,0,0,0,0,0,0,0,-1,776,1149,0,0
-441,-125,0,0,0,0,0,0,0,0,0,-1,783,1149,0,0
-434,-125,0,0,0,0,0,0,0,0,0,-1,790,1149,0,0
-427,-125,0,0,0,0,0,0,0,0,0,-1,797,1149,0,0
-420,-125,0,0,0,0,0,0,0,0,0,-1,804,1149,0,0
-413,-125,0,0,0,0,0,0,0,0,0,-1,811,1149,0,0
-406,-125,0,0,0,0,0,0,0,0,0,-1,818,1149,0,0
-399,-125,0,0,0,0,0,0,0,0,0,-1,825,1149,0,0
-392,-125,0,0,0,0,0,0,0,0,0,-1,832,1149,0,0
-385,-125,0,0,0,0,0,0,0,0,0,-1,839,1149,0,0
-378,-125,0,0,0,0,0,0,0,0,0,-1,846,1149,0,0
-371,-125,0,0,0,0,0,0,0,0,0,-1,853,1149,0,0
-364,-125,0,0,0,0,0,0,0,0,0,-1,860,1149,0,0
-357,-125,0,0,0,0,0,0,0,0,0,-1,867,1149,0,0
-350,-125,0,0,0,0,0,0,0,0,0,-1,874,1149,0,0
-343,-125,0,0,0,0,0,0,0,0,0,-1,881,1149,0,0
-336,-125,0,0,0,0,0,0,0,0,0,-1,888,1149,0,0
-329,-125,0,0,0,0,0,0,0,0,0,-1,895,1149,0,0
-322,-125,0,0,0,0,0,0,0,0,0,-1,902,1149,0,0
-315,-125,0,0,0,0,0,0,0,0,0,-1,909,1149,0,0
-308,-125,0,0,0,0,0,0,0,0,0,-1,916,1149,0,0
-301,-125,0,0,0,0,0,0,0,0,0,-1,923,1149,0,0
-294,-125,0,0,0,0,0,0,0,0,0,-1,930,1149,0,0
-287,-125,0,0,0,0,0,0,0,0,0,-1,937,1149,0,0
-280,-125,0,0,0,0,0,0,0,0,0,-1,944,1149,0,0
-273,-125,0,0,0,0,0,0,0,0,0,-1,951,1149,0,0
-266,-125,0,0,0,0,0,0,0,0,0,-1,958,1149,0,0
-259,-125,0,0,0,0,0,0,0,0,0,-1,965,1149,0,0
-252,-125,0,0,0,0,0,0,0,0,0,-1,972,1149,0,0
-245,-125,0,0,0,0,0,0,0,0,0,-1,979,1149,0,0
-238,-125,0,0,0,0,0,0,0,0,0,-1,986,1149,0,0
-231,-125,0,0,0,0,0,0,0,0,0,-1,993,1149,0,0
-224,-125,0,0,0,0,0,0,0,0,0,-1,1000,1149,0,0
-217,-125,0,0,0,0,0,0,0,0,0,-1,1007,1149,0,0
-210,-125,0,0,0,0,0,0,0,0,0,-1,1014,1149,0,0
-203,-125,0,0,0,0,0,0,0,0,0,-1,1021,1149,0,0
-196,-125,0,0,0,0,0,0,0,0,0,-1,1028,1149,0,0
-189,-125,0,0,0,0,0,0,0,0,0,-1,1035,1149,0,0
-182,-125,0,0,0,0,0,0,0,0,0,-1,1042,1149,0,0
-175,-125,0,0,0,0,0,0,0,0,0,-1,1049,1149,0,0
-168,-125,0,0,0,0,0,0,0,0,0,-1,1056,1149,0,0
-161,-125,0,0,0,0,0,0,0,0,0,-1,1063,1149,0,0
-154,-125,0,0,0,0,0,0,0,0,0,-1,1070,1149,0,0
-147,-125,0,0,0,0,0,0,0,0,0,-1,1077,1149,0,0
-140,-125,0,0,0,0,0,0,0,0,0,-1,1084,1149,0,0
-133,-125,0,0,0,0,0,0,0,0,0,-1,1091,1149,0,0
-126,-125,0,0,0,0,0,0,0,0,0,-1,1098,1149,0,0
-119,-125,0,0,0,0,0,0,0,0,0,-1,1105,1149,0,0
-112,-125,0,0,0,0,0,0,0,0,0,-1,1112,1149,0,0
-105,-125,0,0,0,0,0,0,0,0,0,-1,1119,1149,0,0
-98,-125,0,0,0,0,0,0,0,0,0,-1,1126,1149,0,0
-91,-125,0,0,0,0,0,0,0,0,0,-1,1133,1149,0,0
-84,-125,0,0,0,0,0,0,0,0,0,-1,1140,1149,0,0
-77,-125,0,0,0,0,0,0,0,0,0,-1,1147,1149,0,0
-70,-125,0,0,0,0,0,0,0,0,0,-1,1154,1149,0,0
-63,-125,0,0,0,0,0,0,0,0,0,-1,1161,1149,0,0
-56,-125,0,0,0,0,0,0,0,0,0,-1,1168,1149,0,0
-49,-125,0,0,0,0,0,0,0,0,0,-1,1175,1149,0,0
-42,-125,0,0,0,0,0,0,0,0,0,-1,1182,1149,0,0
-35,-125,0,0,0,0,0,0,0,0,0,-1,1189,1149,0,0
-28,-125,0,0,0,0,0,0,0,0,0,-1,1196,1149,0,0
-21,-125,0,0,0,0,0,0,0,0,0,-1,1203,1149,0,0
-14,-125,0,0,0,0,0,0,0,0,0,-1,1210,1149,0,0
-7,-125,0,0,0,0,0,0,0,0,0,-1,1217,1149,0,0
0,-125,0,0,0,0,0,0,0,0,0,-1,1224,1149,0,0
7,-125,0,0,0,0,0,0,0,0,0,-1,1231,1149,0,0
14,-125,0,0,0,0,0,0,0,0,0,-1,1238,1149,0,0
21,-125,0,0,0,0,0,0,0,0,0,-1,1245,1149,0,0
28,-125,0,0,0,0,0,0,0,0,0,-1,1252,1149,0,0
35,-125,0,0,0,0,0,0,0,0,0,-1,1259,1149,0,0
42,-125,0,0,0,0,0,0,0,0,0,-1,1266,1149,0,0
49,-125,0,0,0,0,0,0,0,0,0,-1,1273,1149,0,0
56,-125,0,0,0,0,0,0,0,0,0,-1,1280,1149,0,0
63,-125,0,0,0,0,0,0,0,0,0,-1,1287,1149,0,0
70,-125,0,0,0,0,0,0,0,0,0,-1,1294,1149,0,0
77,-125,0,0,0,0,0,0,0,0,0,-1,1301,1149,0,0
84,-125,0,0,0,0,0,0,0,0,0,-1,1308,1149,0,0
91,-125,0,0,0,0,0,0,0,0,0,-1,1315,1149,0,0
98,-125,0,0,0,0,0,0,0,0,0,-1,1322,1149,0,0
105,-125,0,0,0,0,0,0,0,0,0,-1,1329,1149,0,0
112,-125,0,0,0,0,0,0,0,0,0,-1,1336,1149,0,0
119,-125,0,0,0,0,0,0,0,0,0,-1,1343,1149,0,0
126,-125,0,0,0,0,0,0,0,0,0,-1,1350,1149,0,0
133,-125,0,0,0,0,0,0,0,0,0,-1,1357,1149,0,0
140,-125,0,0,0,0,0,0,0,0,0,-1,1364,1149,0,0
147,-125,0,0,0,0,0,0,0,0,0,-1,1371,1149,0,0
154,-125,0,0,0,0,0,0,0,0,0,-1,1378,1149,0,0
161,-125,0,0,0,0,0,0,0,0,0,-1,1385,1149,0,0
168,-125,0,0,0,0,0,0,0,0,0,-1,1392,1149,0,0
175,-125,0,0,0,0,0,0,0,0,0,-1,1399,1149,0,0
182,-125,0,0,0,0,0,0,0,0,0,-1,1406,1149,0,0
189,-125,0,0,0,0,0,0,0,0,0,-1,1413,1149,0,0
196,-125,0,0,0,0,0,0,0,0,0,-1,1420,1149,0,0
203,-125,0,0,0,0,0,0,0,0,0,-1,1427,1149,0,0
210,-125,0,0,0,0,0,0,0,0,0,-1,1434,1149,0,0
217,-125,0,0,0,0,0,0,0,0,0,-1,1441,1149,0,0
224,-125,0,0,0,0,0,0,0,0,0,-1,1448,1149,0,0
231,-125,0,0,0,0,0,0,0,0,0,-1,1455,1149,0,0
238,-125,0,0,0,0,0,0,0,0,0,-1,1462,1149,0,0
245,-125,0,0,0,0,0,0,0,0,0,-1,1469,1149,0,0
252,-125,0,0,0,0,0,0,0,0,0,-1,1476,1149,0,0
259,-125,0,0,0,0,0,0,0,0,0,-1,1483,1149,0,0
266,-125,0,0,0,0,0,0,0,0,0,-1,1490,1149,0,0
273,-125,0,0,0,0,0,0,0,0,0,-1,1497,1149,0,0
280,-125,0,0,0,0,0,0,0,0,0,-1,1504,1149,0,0
287,-125,0,0,0,0,0,0,0,0,0,-1,1511,1149,0,0
294,-125,0,0,0,0,0,0,0,0,0,-1,1518,1149,0,0
301,-125,0,0,0,0,0,0,0,0,0,-1,1525,1149,0,0
308,-125,0,0,0,0,0,0,0,0,0,-1,1532,1149,0,0
315,-125,0,0,0,0,0,0,0,0,0,-1,1539,1149,0,0
322,-125,0,0,0,0,0,0,0,0,0,-1,1546,1149,0,0
329,-125,0,0,0,0,0,0,0,0,0,-1,1553,1149,0,0
336,-125,0,0,0,0,0,0,0,0,0,-1,1560,1149,0,0
343,-125,0,0,0,0,0,0,0,0,0,-1,1567,1149,0,0
350,-125,0,0,0,0,0,0,0,0,0,-1,1574,1149,0,0
357,-125,0,0,0,0,0,0,0,0,0,-1,1581,1149,0,0
364,-125,0,0,0,0,0,0,0,0,0,-1,1588,1149,0,0
371,-125,0,0,0,0,0,0,0,0,0,-1,1595,1149,0,0
378,-125,0,0,0,0,0,0,0,0,0,-1,1602,1149,0,0
385,-125,0,0,0,0,0,0,0,0,0,-1,1609,1149,0,0
392,-125,0,0,0,0,0,0,0,0,0,-1,1616,1149,0,0
399,-125,0,0,0,0,0,0,0,0,0,-1,1623,1149,0,0
406,-125,0,0,0,0,0,0,0,0,0,-1,1630,1149,0,0
413,-125,0,0,0,0,0,0,0,0,0,-1,1637,1149,0,0
420,-125,0,0,0,0,0,0,0,0,0,-1,1644,1149,0,0
427,-125,0,0,0,0,0,0,0,0,0,-1,1651,1149,0,0
434,-125,0,0,0,0,0,0,0,0,0,-1,1658,1149,0,0
441,-125,0,0,0,0,0,0,0,0,0,-1,1665,1149,0,0
448,-125,0,0,0,0,0,0,0,0,0,-1,1672,1149,0,0
455,-125,0,0,0,0,0,0,0,0,0,-1,1679,1149,0,0
462,-125,0,0,0,0,0,0,0,0,0,-1,1686,1149,0,0
469,-125,0,0,0,0,0,0,0,0,0,-1,1693,1149,0,0
476,-125,0,0,0,0,0,0,0,0,0,-1,1700,1149,0,0
483,-125,0,0,0,0,0,0,0,0,0,-1,1707,1149,0,0
490,-125,0,0,0,0,0,0,0,0,0,-1,1714,1149,0,0
497,-125,0,0,0,0,0,0,0,0,0,-1,1721,1149,0,0
504,-125,0,0,0,0,0,0,0,0,0,-1,1728,1149,0,0
511,-125,0,0,0,0,0,0,0,0,0,-1,1735,1149,0,0
518,-125,0,0,0,0,0,0,0,0,0,-1,1742,1149,0,0
525,-125,0,0,0,0,0,0,0,0,0,-1,1749,1149,0,0
532,-125,0,0,0,0,0,0,0,0,0,-1,1756,1149,0,0
539,-125,0,0,0,0,0,0,0,0,0,-1,1763,1149,0,0
546,-125,0,0,0,0,0,0,0,0,0,-1,1770,1149,0,0
553,-125,0,0,0,0,0,0,0,0,0,-1,1777,1149,0,0
560,-125,0,0,0,0,0,0,0,0,0,-1,1784,1149,0,0
567,-125,0,0,0,0,0,0,0,0,0,-1,1791,1149,0,0
574,-125,0,0,0,0,0,0,0,0,0,-1,1798,1149,0,0
581,-125,0,0,0,0,0,0,0,0,0,-1,1805,1149,0,0
588,-125,0,0,0,0,0,0,0,0,0,-1,1812,1149,0,0
595,-125,0,0,0,0,0,0,0,0,0,-1,1819,1149,0,0
602,-125,0,0,0,0,0,0,0,0,0,-1,1826,1149,0,0
609,-125,0,0,0,0,0,0,0,0,0,-1,1833,1149,0,0
616,-125,0,0,0,0,0,0,0,0,0,-1,1840,1149,0,0
623,-125,0,0,0,0,0,0,0,0,0,-1,1847,1149,0,0
630,-125,0,0,0,0,0,0,0,0,0,-1,1854,1149,0,0
637,-125,0,0,0,0,0,0,0,0,0,-1,1861,1149,0,0
644,-125,46.6364,2.65833,-0.00153475,0.000234673,-0.00161606,0.00119234,-0.00249242,-1.03584,0.00217109,0.0406097,1868,1149,46.6364,-2.65834
651,-125,46.5245,3.04761,-0.00134476,-1.42825e-05,-0.00105133,0.000564596,-0.00192364,-1.06748,0.00150632,0.0409529,1875,1149,46.5245,-3.0476
658,-125,46.5425,2.78528,-0.000988183,-0.00036186,-0.00058354,-1.2761e-05,-0.00133728,-1.03167,0.000887298,0.0414582,1882,1149,46.5424,-2.78531
665,-125,46.5149,2.6886,-0.000566194,-0.000648817,-0.000192741,-0.000410386,-0.000804624,-0.679828,0.000464581,0.0402947,1889,1149,46.5149,-2.68861
672,-125,46.4757,2.64148,-0.00019184,-0.000860642,0.000168855,-0.000151627,-0.000900855,0.233799,0.000556951,0.0418317,1896,1149,46.4757,-2.64147
679,-125,46.5006,2.67419,-0.000165277,-0.00111591,0.000569813,0.000101439,-0.00138263,0.437785,0.000957357,0.0388931,1903,1149,46.5007,-2.67425
686,-125,46.5536,2.74817,-0.000154283,-0.00132735,0.000763481,0.000221953,-0.00170358,0.457864,0.00121647,0.0343452,1910,1149,46.5536,-2.74819
693,-125,46.54,2.75293,-6.3045e-05,-0.00135639,0.000878915,0.000381465,-0.0018009,0.468235,0.0013459,0.033597,1917,1149,46.5401,-2.7529
700,-125,46.6052,2.82092,-3.65664e-05,-0.00145361,0.000943763,0.000435036,-0.00192521,0.463411,0.0014504,0.0187522,1924,1149,46.6053,-2.82094
707,-125,46.7749,2.99353,0,0,0,0,0,0,0,-1,1931,1149,46.7749,-2.99352
714,-125,42.3518,7.46948,0,0,0,0,0,0,0,-1,1938,1149,42.3518,-7.46944
721,-125,42.2709,7.16907,-0.00045122,-0.00108405,0.00141594,0.000683226,-0.0022185,0.67547,0.00175173,0.0282714,1945,1149,42.2709,-7.16912
728,-125,42.1981,6.89294,-0.000566511,-0.000913073,0.00154975,0.000819619,-0.0022992,0.729723,0.00186697,0.021541,1952,1149,42.1981,-6.89291
735,-125,42.2163,6.57751,-0.000670901,-0.000625281,0.00161501,0.000967083,-0.00226327,0.79246,0.00191444,0.0227224,1959,1149,42.2164,-6.57754
742,-125,42.293,6.20471,-0.000778356,-0.000255099,0.00168971,0.00119312,-0.00222657,0.862207,0.00200418,0.0253676,1966,1149,42.2929,-6.20467
749,-125,42.2407,5.86377,-0.000956801,0.000320105,0.00210243,0.00187889,-0.00251558,0.93281,0.00254601,0.0270585,1973,1149,42.2407,-5.86373
756,-125,42.222,5.46179,-0.00123318,0.00130802,0.00312568,0.00341148,-0.00333664,0.978449,0.00389611,0.0215989,1980,1149,42.2221,-5.46175
763,-125,42.1764,5.14832,-0.00149598,0.00257615,0.00477637,0.00573232,-0.00465215,0.986875,0.00600628,0.0117267,1987,1149,42.1764,-5.14837
770,-125,42.1384,4.81555,-0.0021245,0.0038453,0.00710677,0.00856856,-0.00684776,0.984216,0.00891908,0.0154923,1994,1149,42.1385,-4.81559
777,-125,42.0801,4.5675,-0.00325678,0.00513764,0.0102713,0.0120362,-0.0101554,0.979361,0.0128277,0.0287604,2001,1149,42.08,-4.56747
784,-125,42.0618,4.27136,-0.00519645,0.0064116,0.0146196,0.0163371,-0.015122,0.974358,0.0181674,0.044325,2008,1149,42.0619,-4.27138
791,-125,42.0977,3.79968,0,0,0,0,0,0,0,-1,2015,1149,42.0976,-3.79963
798,-125,41.4768,3.7124,0,0,0,0,0,0,0,-1,2022,1149,41.4769,-3.71236
805,-125,41.3325,3.38147,0,0,0,0,0,0,0,-1,2029,1149,41.3326,-3.38151
812,-125,43.0627,3.0719,0,0,0,0,0,0,0,-1,2036,1149,43.0627,-3.07191
-700,-132,0,0,0,0,0,0,0,0,0,-1,524,1156,0,0
-693,-132,-29.4022,-1.89355,0,0,0,0,0,0,0,-1,531,1156,-29.4022,1.89358
-686,-132,-29.038,-2.26147,0,0,0,0,0,0,0,-1,538,1156,-29.038,2.26146
-679,-132,-28.9705,-1.66333,0.0605409,-0.0268338,0.0150875,0.0630728,-0.0293657,0.166264,0.0545393,0.047359,545,1156,-28.9704,1.66328
-672,-132,-28.1572,-2.26831,0.0497081,-0.0210871,0.0137327,0.0522787,-0.0236576,0.18504,0.0448678,0.0447546,552,1156,-28.1572,2.26828
-665,-132,-27.1226,-2.96387,0,0,0,0,0,0,0,-1,559,1156,-27.1226,2.96383
-658,-132,-29.9495,0.972168,0,0,0,0,0,0,0,-1,566,1156,-29.9495,-0.972158
-651,-132,-29.7659,1.33972,0.0220447,-0.00877452,0.00699804,0.0235593,-0.0102891,0.213143,0.0200367,0.0391076,573,1156,-29.766,-1.3397
-644,-132,-29.6141,1.69702,0.0152496,-0.0060137,0.00475218,0.0162633,-0.00702744,0.210172,0.0137948,0.0216655,580,1156,-29.6141,-1.69699
-637,-132,-29.6584,2.07446,0.009735,-0.0035508,0.0028846,0.0103343,-0.00415007,0.204835,0.00861286,0.0123251,587,1156,-29.6584,-2.07445
-630,-132,-29.6563,2.43896,0.00531908,-0.00144499,0.00141065,0.00560148,-0.00172739,0.197581,0.00442399,0.0106145,594,1156,-29.6563,-2.43893
-623,-132,-29.6682,2.86035,0.00245965,-0.000478003,0.000272776,0.00248477,-0.000503117,0.091809,0.0018472,0.0158988,601,1156,-29.6681,-2.8603
-616,-132,-29.6567,3.20105,0.00210343,-1.75378e-05,5.37006e-05,0.00210479,-1.88965e-05,0.0252973,0.00140954,0.0277609,608,1156,-29.6567,-3.20105
-609,-132,-29.5974,3.69714,0,0,0,0,0,0,0,-1,615,1156,-29.5974,-3.69716
-602,-132,-29.7195,3.96509,0.00300426,0.0012106,-0.000401612,0.00309008,0.00112478,-0.210517,0.00180592,0.0294745,622,1156,-29.7195,-3.96508
-595,-132,-29.8469,4.3949,0.00261191,0.00153959,0.00021065,0.00265181,0.0014997,0.18718,0.0015354,0.0408439,629,1156,-29.8469,-4.3949
-588,-132,-29.6541,4.96912,0.0021313,0.00265514,0.000251057,0.00275603,0.00203041,1.18868,0.00164957,0.0399759,636,1156,-29.6541,-4.96913
-581,-132,-29.2512,5.62207,0,0,0,0,0,0,0,-1,643,1156,-29.2511,-5.62202
-574,-132,-32.8181,2.74536,0,0,0,0,0,0,0,-1,650,1156,-32.8181,-2.74541
-567,-132,-34.6224,1.02124,0,0,0,0,0,0,0,-1,657,1156,-34.6224,-1.0212
-560,-132,-34.6057,0.87793,0.00346509,0.00461639,-0.000752091,0.00498784,0.00309363,-1.11204,0.00290735,0.0333898,664,1156,-34.6057,-0.87798
-553,-132,-34.6028,0.67749,0.00332863,0.00536353,-0.00134274,0.00603076,0.00266139,-1.10962,0.00348985,0.0358008,671,1156,-34.6028,-0.677455
-546,-132,-34.5237,0.637451,0.00356086,0.00587381,-0.00230644,0.00729747,0.0021372,-1.01779,0.00433203,0.0395512,678,1156,-34.5237,-0.637409
-539,-132,-34.4664,0.786987,0.00504161,0.0058321,-0.00364368,0.00910191,0.0017718,-0.839425,0.00557204,0.0407985,685,1156,-34.4664,-0.786977
-532,-132,-34.5698,0.933594,0.00857753,0.00498384,-0.00518596,0.0122691,0.00129225,-0.618629,0.00778449,0.0403734,692,1156,-34.5698,-0.933594
-525,-132,-34.5848,1.1145,0.0128841,0.0036727,-0.00715063,0.0167839,-0.000227131,-0.499291,0.0112657,0.0418442,699,1156,-34.5849,-1.11451
-518,-132,0,0,0,0,0,0,0,0,0,-1,706,1156,0,0
-511,-132,0,0,0,0,0,0,0,0,0,-1,713,1156,0,0
-504,-132,0,0,0,0,0,0,0,0,0,-1,720,1156,0,0
-497,-132,0,0,0,0,0,0,0,0,0,-1,727,1156,0,0
-490,-132,0,0,0,0,0,0,0,0,0,-1,734,1156,0,0
-483,-132,0,0,0,0,0,0,0,0,0,-1,741,1156,0,0
-476,-132,0,0,0,0,0,0,0,0,0,-1,748,1156,0,0
-469,-132,0,0,0,0,0,0,0,0,0,-1,755,1156,0,0
-462,-132,0,0,0,0,0,0,0,0,0,-1,762,1156,0,0
-455,-132,0,0,0,0,0,0,0,0,0,-1,769,1156,0,0
-448,-132,0,0,0,0,0,0,0,0,0,-1,776,1156,0,0
-441,-132,0,0,0,0,0,0,0,0,0,-1,783,1156,0,0
-434,-132,0,0,0,0,0,0,0,0,0,-1,790,1156,0,0
-427,-132,0,0,0,0,0,0,0,0,0,-1,797,1156,0,0
-420,-132,0,0,0,0,0,0,0,0,0,-1,804,1156,0,0
-413,-132,0,0,0,0,0,0,0,0,0,-1,811,1156,0,0
-406,-132,0,0,0,0,0,0,0,0,0,-1,818,1156,0,0
-399,-132,0,0,0,0,0,0,0,0,0,-1,825,1156,0,0
-392,-132,0,0,0,0,0,0,0,0,0,-1,832,1156,0,0
-385,-132,0,0,0,0,0,0,0,0,0,-1,839,1156,0,0
-378,-132,0,0,0,0,0,0,0,0,0,-1,846,1156,0,0
-371,-132,0,0,0,0,0,0,0,0,0,-1,853,1156,0,0
-364,-132,0,0,0,0,0,0,0,0,0,-1,860,1156,0,0
-357,-132,0,0,0,0,0,0,0,0,0,-1,867,1156,0,0
-350,-132,0,0,0,0,0,0,0,0,0,-1,874,1156,0,0
-343,-132,0,0,0,0,0,0,0,0,0,-1,881,1156,0,0
-336,-132,0,0,0,0,0,0,0,0,0,-1,888,1156,0,0
-329,-132,0,0,0,0,0,0,0,0,0,-1,895,1156,0,0
-322,-132,0,0,0,0,0,0,0,0,0,-1,902,1156,0,0
-315,-132,0,0,0,0,0,0,0,0,0,-1,909,1156,0,0
-308,-132,0,0,0,0,0,0,0,0,0,-1,916,1156,0,0
-301,-132,0,0,0,0,0,0,0,0,0,-1,923,1156,0,0
-294,-132,0,0,0,0,0,0,0,0,0,-1,930,1156,0,0
-287,-132,0,0,0,0,0,0,0,0,0,-1,937,1156,0,0
-280,-132,0,0,0,0,0,0,0,0,0,-1,944,1156,0,0
-273,-132,0,0,0,0,0,0,0,0,0,-1,951,1156,0,0
-266,-132,0,0,0,0,0,0,0,0,0,-1,958,1156,0,0
-259,-132,0,0,0,0,0,0,0,0,0,-1,965,1156,0,0
-252,-132,0,0,0,0,0,0,0,0,0,-1,972,1156,0,0
-245,-132,0,0,0,0,0,0,0,0,0,-1,979,1156,0,0
-238,-132,0,0,0,0,0,0,0,0,0,-1,986,1156,0,0
-231,-132,0,0,0,0,0,0,0,0,0,-1,993,1156,0,0
-224,-132,0,0,0,0,0,0,0,0,0,-1,1000,1156,0,0
-217,-132,0,0,0,0,0,0,0,0,0,-1,1007,1156,0,0
-210,-132,0,0,0,0,0,0,0,0,0,-1,1014,1156,0,0
-203,-132,0,0,0,0,0,0,0,0,0,-1,1021,1156,0,0
-196,-132,0,0,0,0,0,0,0,0,0,-1,1028,1156,0,0
-189,-132,0,0,0,0,0,0,0,0,0,-1,1035,1156,0,0
-182,-132,0,0,0,0,0,0,0,0,0,-1,1042,1156,0,0
-175,-132,0,0,0,0,0,0,0,0,0,-1,1049,1156,0,0
-168,-132,0,0,0,0,0,0,0,0,0,-1,1056,1156,0,0
-161,-132,0,0,0,0,0,0,0,0,0,-1,1063,1156,0,0
-154,-132,0,0,0,0,0,0,0,0,0,-1,1070,1156,0,0
-147,-132,0,0,0,0,0,0,0,0,0,-1,1077,1156,0,0
-140,-132,0,0,0,0,0,0,0,0,0,-1,1084,1156,0,0
-133,-132,0,0,0,0,0,0,0,0,0,-1,1091,1156,0,0
-126,-132,0,0,0,0,0,0,0,0,0,-1,1098,1156,0,0
-119,-132,0,0,0,0,0,0,0,0,0,-1,1105,1156,0,0
-112,-132,0,0,0,0,0,0,0,0,0,-1,1112,1156,0,0
-105,-132,0,0,0,0,0,0,0,0,0,-1,1119,1156,0,0
-98,-132,0,0,0,0,0,0,0,0,0,-1,1126,1156,0,0
-91,-132,0,0,0,0,0,0,0,0,0,-1,1133,1156,0,0
-84,-132,0,0,0,0,0,0,0,0,0,-1,1140,1156,0,0
-77,-132,0,0,0,0,0,0,0,0,0,-1,1147,1156,0,0
-70,-132,0,0,0,0,0,0,0,0,0,-1,1154,1156,0,0
-63,-132,0,0,0,0,0,0,0,0,0,-1,1161,1156,0,0
-56,-132,0,0,0,0,0,0,0,0,0,-1,1168,1156,0,0
-49,-132,0,0,0,0,0,0,0,0,0,-1,1175,1156,0,0
-42,-132,0,0,0,0,0,0,0,0,0,-1,1182,1156,0,0
-35,-132,0,0,0,0,0,0,0,0,0,-1,1189,1156,0,0
-28,-132,0,0,0,0,0,0,0,0,0,-1,1196,1156,0,0
-21,-132,0,0,0,0,0,0,0,0,0,-1,1203,1156,0,0
-14,-132,0,0,0,0,0,0,0,0,0,-1,1210,1156,0,0
-7,-132,0,0,0,0,0,0,0,0,0,-1,1217,1156,0,0
0,-132,0,0,0,0,0,0,0,0,0,-1,1224,1156,0,0
7,-132,0,0,0,0,0,0,0,0,0,-1,1231,1156,0,0
14,-132,0,0,0,0,0,0,0,0,0,-1,1238,1156,0,0
21,-132,0,0,0,0,0,0,0,0,0,-1,1245,1156,0,0
28,-132,0,0,0,0,0,0,0,0,0,-1,1252,1156,0,0
35,-132,0,0,0,0,0,0,0,0,0,-1,1259,1156,0,0
42,-132,0,0,0,0,0,0,0,0,0,-1,1266,1156,0,0
49,-132,0,0,0,0,0,0,0,0,0,-1,1273,1156,0,0
56,-132,0,0,0,0,0,0,0,0,0,-1,1280,1156,0,0
63,-132,0,0,0,0,0,0,0,0,0,-1,1287,1156,0,0
70,-132,0,0,0,0,0,0,0,0,0,-1,1294,1156,0,0
77,-132,0,0,0,0,0,0,0,0,0,-1,1301,1156,0,0
84,-132,0,0,0,0,0,0,0,0,0,-1,1308,1156,0,0
91,-132,0,0,0,0,0,0,0,0,0,-1,1315,1156,0,0
98,-132,0,0,0,0,0,0,0,0,0,-1,1322,1156,0,0
105,-132,0,0,0,0,0,0,0,0,0,-1,1329,1156,0,0
112,-132,0,0,0,0,0,0,0,0,0,-1,1336,1156,0,0
119,-132,0,0,0,0,0,0,0,0,0,-1,1343,1156,0,0
126,-132,0,0,0,0,0,0,0,0,0,-1,1350,1156,0,0
133,-132,0,0,0,0,0,0,0,0,0,-1,1357,1156,0,0
140,-132,0,0,0,0,0,0,0,0,0,-1,1364,1156,0,0
147,-132,0,0,0,0,0,0,0,0,0,-1,1371,1156,0,0
154,-132,0,0,0,0,0,0,0,0,0,-1,1378,1156,0,0
161,-132,0,0,0,0,0,0,0,0,0,-1,1385,1156,0,0
168,-132,0,0,0,0,0,0,0,0,0,-1,1392,1156,0,0
175,-132,0,0,0,0,0,0,0,0,0,-1,1399,1156,0,0
182,-132,0,0,0,0,0,0,0,0,0,-1,1406,1156,0,0
189,-132,0,0,0,0,0,0,0,0,0,-1,1413,1156,0,0
196,-132,0,0,0,0,0,0,0,0,0,-1,1420,1156,0,0
203,-132,0,0,0,0,0,0,0,0,0,-1,1427,1156,0,0
210,-132,0,0,0,0,0,0,0,0,0,-1,1434,1156,0,0
217,-132,0,0,0,0,0,0,0,0,0,-1,1441,1156,0,0
224,-132,0,0,0,0,0,0,0,0,0,-1,1448,1156,0,0
231,-132,0,0,0,0,0,0,0,0,0,-1,1455,1156,0,0
238,-132,0,0,0,0,0,0,0,0,0,-1,1462,1156,0,0
245,-132,0,0,0,0,0,0,0,0,0,-1,1469,1156,0,0
252,-132,0,0,0,0,0,0,0,0,0,-1,1476,1156,0,0
259,-132,0,0,0,0,0,0,0,0,0,-1,1483,1156,0,0
266,-132,0,0,0,0,0,0,0,0,0,-1,1490,1156,0,0
273,-132,0,0,0,0,0,0,0,0,0,-1,1497,1156,0,0
280,-132,0,0,0,0,0,0,0,0,0,-1,1504,1156,0,0
287,-132,0,0,0,0,0,0,0,0,0,-1,1511,1156,0,0
294,-132,0,0,0,0,0,0,0,0,0,-1,1518,1156,0,0
301,-132,0,0,0,0,0,0,0,0,0,-1,1525,1156,0,0
308,-132,0,0,0,0,0,0,0,0,0,-1,1532,1156,0,0
315,-132,0,0,0,0,0,0,0,0,0,-1,1539,1156,0,0
322,-132,0,0,0,0,0,0,0,0,0,-1,1546,1156,0,0
329,-132,0,0,0,0,0,0,0,0,0,-1,1553,1156,0,0
336,-132,0,0,0,0,0,0,0,0,0,-1,1560,1156,0,0
343,-132,0,0,0,0,0,0,0,0,0,-1,1567,1156,0,0
350,-132,0,0,0,0,0,0,0,0,0,-1,1574,1156,0,0
357,-132,0,0,0,0,0,0,0,0,0,-1,1581,1156,0,0
364,-132,0,0,0,0,0,0,0,0,0,-1,1588,1156,0,0
371,-132,0,0,0,0,0,0,0,0,0,-1,1595,1156,0,0
378,-132,0,0,0,0,0,0,0,0,0,-1,1602,1156,0,0
385,-132,0,0,0,0,0,0,0,0,0,-1,1609,1156,0,0
392,-132,0,0,0,0,0,0,0,0,0,-1,1616,1156,0,0
399,-132,0,0,0,0,0,0,0,0,0,-1,1623,1156,0,0
406,-132,0,0,0,0,0,0,0,0,0,-1,1630,1156,0,0
413,-132,0,0,0,0,0,0,0,0,0,-1,1637,1156,0,0
420,-132,0,0,0,0,0,0,0,0,0,-1,1644,1156,0,0
427,-132,0,0,0,0,0,0,0,0,0,-1,1651,1156,0,0
434,-132,0,0,0,0,0,0,0,0,0,-1,1658,1156,0,0
441,-132,0,0,0,0,0,0,0,0,0,-1,1665,1156,0,0
448,-132,0,0,0,0,0,0,0,0,0,-1,1672,1156,0,0
455,-132,0,0,0,0,0,0,0,0,0,-1,1679,1156,0,0
462,-132,0,0,0,0,0,0,0,0,0,-1,1686,1156,0,0
469,-132,0,0,0,0,0,0,0,0,0,-1,1693,1156,0,0
476,-132,0,0,0,0,0,0,0,0,0,-1,1700,1156,0,0
483,-132,0,0,0,0,0,0,0,0,0,-1,1707,1156,0,0
490,-132,0,0,0,0,0,0,0,0,0,-1,1714,1156,0,0
497,-132,0,0,0,0,0,0,0,0,0,-1,1721,1156,0,0
504,-132,0,0,0,0,0,0,0,0,0,-1,1728,1156,0,0
511,-132,0,0,0,0,0,0,0,0,0,-1,1735,1156,0,0
518,-132,0,0,0,0,0,0,0,0,0,-1,1742,1156,0,0
525,-132,0,0,0,0,0,0,0,0,0,-1,1749,1156,0,0
532,-132,0,0,0,0,0,0,0,0,0,-1,1756,1156,0,0
539,-132,0,0,0,0,0,0,0,0,0,-1,1763,1156,0,0
546,-132,0,0,0,0,0,0,0,0,0,-1,1770,1156,0,0
553,-132,0,0,0,0,0,0,0,0,0,-1,1777,1156,0,0
560,-132,0,0,0,0,0,0,0,0,0,-1,1784,1156,0,0
567,-132,0,0,0,0,0,0,0,0,0,-1,1791,1156,0,0
574,-132,0,0,0,0,0,0,0,0,0,-1,1798,1156,0,0
581,-132,0,0,0,0,0,0,0,0,0,-1,1805,1156,0,0
588,-132,0,0,0,0,0,0,0,0,0,-1,1812,1156,0,0
595,-132,0,0,0,0,0,0,0,0,0,-1,1819,1156,0,0
602,-132,0,0,0,0,0,0,0,0,0,-1,1826,1156,0,0
609,-132,0,0,0,0,0,0,0,0,0,-1,1833,1156,0,0
616,-132,0,0,0,0,0,0,0,0,0,-1,1840,1156,0,0
623,-132,0,0,0,0,0,0,0,0,0,-1,1847,1156,0,0
630,-132,0,0,0,0,0,0,0,0,0,-1,1854,1156,0,0
637,-132,0,0,0,0,0,0,0,0,0,-1,1861,1156,0,0
644,-132,46.77,2.57922,-0.00274899,0.00018758,-0.00122208,0.000629622,-0.00319103,-1.22373,0.00236533,0.0408371,1868,1156,46.77,-2.57923
651,-132,46.5847,2.87244,-0.0022651,-0.000125028,-0.000707511,8.7726e-05,-0.00247785,-1.27869,0.0016819,0.0410819,1875,1156,46.5847,-2.87243
658,-132,46.5554,2.81812,-0.00163848,-0.00044732,-0.000318047,-0.000367719,-0.00171808,-1.32555,0.00104462,0.0418528,1882,1156,46.5554,-2.81809
665,-132,46.4908,2.82202,-0.000943003,-0.000673298,-3.93216e-05,-0.000667682,-0.000948619,-1.42893,0.000562653,0.038727,1889,1156,46.4909,-2.82206
672,-132,46.5012,2.76807,-0.000453384,-0.000831228,0.00024968,-0.000329206,-0.000955406,0.461524,0.000560417,0.0376287,1896,1156,46.5012,-2.76802
679,-132,46.5344,2.66724,-0.000443897,-0.0010387,0.000638004,-3.73813e-05,-0.00144521,0.567301,0.000951258,0.0396721,1903,1156,46.5344,-2.66728
686,-132,46.5609,2.70715,-0.000525782,-0.0012407,0.000817088,8.6152e-06,-0.0017751,0.579201,0.00118628,0.0363589,1910,1156,46.5609,-2.70713
693,-132,46.5458,2.78784,-0.000532306,-0.00128055,0.000950876,0.000115399,-0.00192826,0.597974,0.00132565,0.0318715,1917,1156,46.5457,-2.78786
700,-132,46.6079,2.81689,-0.000550431,-0.00141723,0.00106357,0.00016465,-0.00213231,0.591922,0.00147948,0.0444786,1924,1156,46.6079,-2.81695
707,-132,46.6923,2.91138,0,0,0,0,0,0,0,-1,1931,1156,46.6922,-2.91137
714,-132,41.8618,7.35608,0,0,0,0,0,0,0,-1,1938,1156,41.8619,-7.3561
721,-132,41.9396,7.11206,-0.00094015,-0.00108131,0.00152769,0.000518589,-0.00254005,0.762315,0.00189009,0.0349281,1945,1156,41.9395,-7.1121
728,-132,41.876,6.87488,-0.00103274,-0.000970545,0.00167083,0.000669472,-0.00267276,0.794704,0.00204191,0.0260902,1952,1156,41.876,-6.87487
735,-132,41.8422,6.60632,-0.0011533,-0.000728775,0.00173909,0.000810956,-0.00269303,0.846125,0.00211807,0.0268497,1959,1156,41.8422,-6.60633
742,-132,41.8654,6.17188,-0.00121398,-0.000413452,0.00177995,0.00101068,-0.00263812,0.895996,0.00217536,0.0197969,1966,1156,41.8653,-6.17188
749,-132,41.8695,5.82239,-0.00138161,5.98347e-05,0.00205471,0.00151655,-0.00283833,0.954077,0.00255261,0.0249439,1973,1156,41.8695,-5.82233
756,-132,41.8563,5.47693,-0.00173647,0.000911825,0.0028912,0.00276768,-0.00359232,1.00014,0.00368223,0.0247283,1980,1156,41.8563,-5.47693
763,-132,41.812,5.15552,-0.00223969,0.00185015,0.00430344,0.00456981,-0.00495935,1.0072,0.0055032,0.014033,1987,1156,41.812,-5.15553
770,-132,41.8051,4.82336,-0.00330617,0.00268261,0.00634842,0.00670739,-0.00733095,1.00576,0.0081077,0.0141057,1994,1156,41.805,-4.82341
777,-132,41.7549,4.50586,-0.00508512,0.00342072,0.00919804,0.00930147,-0.0109659,1.00195,0.0117145,0.0232078,2001,1156,41.7549,-4.50581
784,-132,41.7083,4.16809,-0.00788325,0.00400817,0.0131616,0.0125047,-0.0163798,0.997552,0.0167264,0.041585,2008,1156,41.7082,-4.16807
791,-132,41.7375,3.79871,0,0,0,0,0,0,0,-1,2015,1156,41.7375,-3.79876
798,-132,41.4702,3.54272,-0.0169371,0.00489766,0.0251712,0.0214171,-0.0334565,0.990016,0.0319345,0.0479909,2022,1156,41.4701,-3.54268
805,-132,41.4744,3.29504,-0.0236693,0.00533192,0.0338684,0.0276733,-0.0460107,0.987664,0.0429784,0.0491382,2029,1156,41.4743,-3.29509
812,-132,41.5171,3.03821,0,0,0,0,0,0,0,-1,2036,1156,41.5171,-3.03817
-700,-139,0,0,0,0,0,0,0,0,0,-1,524,1163,0,0
-693,-139,-29.811,-1.13135,0,0,0,0,0,0,0,-1,531,1163,-29.811,1.13132
-686,-139,-29.5467,-1.49805,0,0,0,0,0,0,0,-1,538,1163,-29.5467,1.49809
-679,-139,-28.9097,-1.64429,0.0675588,-0.0397409,0.0119593,0.0688756,-0.0410577,0.109664,0.0641438,0.0473642,545,1163,-28.9097,1.64433
-672,-139,-28.0502,-2.07117,0.0561363,-0.0319601,0.0115769,0.0576322,-0.033456,0.128506,0.0532037,0.04333,552,1163,-28.0502,2.07113
-665,-139,-27.0211,-2.61194,0.0451787,-0.0251498,0.0102486,0.0466417,-0.0266128,0.141796,0.0428173,0.0457925,559,1163,-27.0211,2.61199
-658,-139,-29.4,0.693115,0.0350499,-0.019188,0.0083797,0.036315,-0.0204532,0.149846,0.0331989,0.0474721,566,1163,-29.4,-0.693159
-651,-139,-29.2393,1.25562,0.0260578,-0.0140065,0.00632099,0.0270314,-0.0149801,0.152827,0.0245858,0.0423357,573,1163,-29.2392,-1.25557
-644,-139,-29.1905,1.69312,0.018373,-0.00965628,0.00428908,0.0190146,-0.0102979,0.148496,0.0171712,0.0223533,580,1163,-29.1905,-1.69313
-637,-139,-29.2206,2.05566,0.0120886,-0.00590907,0.00258593,0.0124527,-0.00627325,0.139912,0.0110059,0.0129748,587,1163,-29.2206,-2.05567
-630,-139,-29.2322,2.44055,0.0069199,-0.00265672,0.00127411,0.00708651,-0.00282333,0.130031,0.00589529,0.0122821,594,1163,-29.2323,-2.4405
-623,-139,-29.2421,2.85876,0.00325055,-0.000763982,0.000160268,0.00325693,-0.00077037,0.0398374,0.00246848,0.0189512,601,1163,-29.2422,-2.85873
-616,-139,-29.2345,3.23926,0.00225972,0.000159902,-0.000242785,0.00228743,0.000132196,-0.113625,0.00148285,0.0189478,608,1163,-29.2345,-3.23923
-609,-139,-29.1102,3.63257,0.0025317,0.000861079,-0.000656366,0.00275873,0.000634052,-0.333003,0.00166845,0.0404622,615,1163,-29.1102,-3.63261
-602,-139,-29.2822,4.04883,0.00270733,0.00133354,-0.000659034,0.00297235,0.00106852,-0.382352,0.00173853,0.0351607,622,1163,-29.2822,-4.04877
-595,-139,-29.4551,4.45935,0.00227587,0.00154746,-8.47227e-05,0.0022856,0.00153774,-0.11428,0.0013456,0.0394742,629,1163,-29.4552,-4.4593
-588,-139,-29.3187,4.90491,0.00175749,0.00260152,-1.20882e-05,0.0026017,0.00175731,-1.55648,0.00153261,0.0341946,636,1163,-29.3187,-4.90488
-581,-139,-28.6489,5.55481,0,0,0,0,0,0,0,-1,643,1163,-28.6489,-5.5548
-574,-139,-23.0725,2.4043,0,0,0,0,0,0,0,-1,650,1163,-23.0725,-2.40433
-567,-139,-34.6115,1.0564,0,0,0,0,0,0,0,-1,657,1163,-34.6115,-1.05642
-560,-139,-34.6006,0.95874,0.00316398,0.00426276,-0.000919256,0.00478429,0.00264245,-1.05474,0.00276725,0.0337137,664,1163,-34.6006,-0.958687
-553,-139,-34.6127,0.771973,0.00313888,0.0048839,-0.00142089,0.00567879,0.00234399,-1.06074,0.00329524,0.0379634,671,1163,-34.6127,-0.771969
-546,-139,-34.5933,0.889404,0.00356372,0.00525633,-0.00221115,0.0067776,0.00204245,-0.968169,0.00401467,0.0389365,678,1163,-34.5933,-0.889453
-539,-139,-34.3328,0.723145,0,0,0,0,0,0,0,-1,685,1163,-34.3328,-0.72312
-532,-139,-34.4465,0.804688,0,0,0,0,0,0,0,-1,692,1163,-34.4464,-0.80473
-525,-139,-34.711,1.05176,0,0,0,0,0,0,0,-1,699,1163,-34.711,-1.05171
-518,-139,0,0,0,0,0,0,0,0,0,-1,706,1163,0,0
-511,-139,0,0,0,0,0,0,0,0,0,-1,713,1163,0,0
-504,-139,0,0,0,0,0,0,0,0,0,-1,720,1163,0,0
-497,-139,0,0,0,0,0,0,0,0,0,-1,727,1163,0,0
-490,-139,0,0,0,0,0,0,0,0,0,-1,734,1163,0,0
-483,-139,0,0,0,0,0,0,0,0,0,-1,741,1163,0,0
-476,-139,0,0,0,0,0,0,0,0,0,-1,748,1163,0,0
-469,-139,0,0,0,0,0,0,0,0,0,-1,755,1163,0,0
-462,-139,0,0,0,0,0,0,0,0,0,-1,762,1163,0,0
-455,-139,0,0,0,0,0,0,0,0,0,-1,769,1163,0,0
-448,-139,0,0,0,0,0,0,0,0,0,-1,776,1163,0,0
-441,-139,0,0,0,0,0,0,0,0,0,-1,783,1163,0,0
-434,-139,0,0,0,0,0,0,0,0,0,-1,790,1163,0,0
-427,-139,0,0,0,0,0,0,0,0,0,-1,797,1163,0,0
-420,-139,0,0,0,0,0,0,0,0,0,-1,804,1163,0,0
-413,-139,0,0,0,0,0,0,0,0,0,-1,811,1163,0,0
-406,-139,0,0,0,0,0,0,0,0,0,-1,818,1163,0,0
-399,-139,0,0,0,0,0,0,0,0,0,-1,825,1163,0,0
-392,-139,0,0,0,0,0,0,0,0,0,-1,832,1163,0,0
-385,-139,0,0,0,0,0,0,0,0,0,-1,839,1163,0,0
-378,-139,0,0,0,0,0,0,0,0,0,-1,846,1163,0,0
-371,-139,0,0,0,0,0,0,0,0,0,-1,853,1163,0,0
-364,-139,0,0,0,0,0,0,0,0,0,-1,860,1163,0,0
-357,-139,0,0,0,0,0,0,0,0,0,-1,867,1163,0,0
-350,-139,0,0,0,0,0,0,0,0,0,-1,874,1163,0,0
-343,-139,0,0,0,0,0,0,0,0,0,-1,881,1163,0,0
-336,-139,0,0,0,0,0,0,0,0,0,-1,888,1163,0,0
-329,-139,0,0,0,0,0,0,0,0,0,-1,895,1163,0,0
-322,-139,0,0,0,0,0,0,0,0,0,-1,902,1163,0,0
-315,-139,0,0,0,0,0,0,0,0,0,-1,909,1163,0,0
-308,-139,0,0,0,0,0,0,0,0,0,-1,916,1163,0,0
-301,-139,0,0,0,0,0,0,0,0,0,-1,923,1163,0,0
-294,-139,0,0,0,0,0,0,0,0,0,-1,930,1163,0,0
-287,-139,0,0,0,0,0,0,0,0,0,-1,937,1163,0,0
-280,-139,0,0,0,0,0,0,0,0,0,-1,944,1163,0,0
-273,-139,0,0,0,0,0,0,0,0,0,-1,951,1163,0,0
-266,-139,0,0,0,0,0,0,0,0,0,-1,958,1163,0,0
-259,-139,0,0,0,0,0,0,0,0,0,-1,965,1163,0,0
-252,-139,0,0,0,0,0,0,0,0,0,-1,972,1163,0,0
-245,-139,0,0,0,0,0,0,0,0,0,-1,979,1163,0,0
-238,-139,0,0,0,0,0,0,0,0,0,-1,986,1163,0,0
-231,-139,0,0,0,0,0,0,0,0,0,-1,993,1163,0,0
-224,-139,0,0,0,0,0,0,0,0,0,-1,1000,1163,0,0
-217,-139,0,0,0,0,0,0,0,0,0,-1,1007,1163,0,0
-210,-139,0,0,0,0,0,0,0,0,0,-1,1014,1163,0,0
-203,-139,0,0,0,0,0,0,0,0,0,-1,1021,1163,0,0
-196,-139,0,0,0,0,0,0,0,0,0,-1,1028,1163,0,0
-189,-139,0,0,0,0,0,0,0,0,0,-1,1035,1163,0,0
-182,-139,0,0,0,0,0,0,0,0,0,-1,1042,1163,0,0
-175,-139,0,0,0,0,0,0,0,0,0,-1,1049,1163,0,0
-168,-139,0,0,0,0,0,0,0,0,0,-1,1056,1163,0,0
-161,-139,0,0,0,0,0,0,0,0,0,-1,1063,1163,0,0
-154,-139,0,0,0,0,0,0,0,0,0,-1,1070,1163,0,0
-147,-139,0,0,0,0,0,0,0,0,0,-1,1077,1163,0,0
-140,-139,0,0,0,0,0,0,0,0,0,-1,1084,1163,0,0
-133,-139,0,0,0,0,0,0,0,0,0,-1,1091,1163,0,0
-126,-139,0,0,0,0,0,0,0,0,0,-1,1098,1163,0,0
-119,-139,0,0,0,0,0,0,0,0,0,-1,1105,1163,0,0
-112,-139,0,0,0,0,0,0,0,0,0,-1,1112,1163,0,0
-105,-139,0,0,0,0,0,0,0,0,0,-1,1119,1163,0,0
-98,-139,0,0,0,0,0,0,0,0,0,-1,1126,1163,0,0
-91,-139,0,0,0,0,0,0,0,0,0,-1,1133,1163,0,0
-84,-139,0,0,0,0,0,0,0,0,0,-1,1140,1163,0,0
-77,-139,0,0,0,0,0,0,0,0,0,-1,1147,1163,0,0
-70,-139,0,0,0,0,0,0,0,0,0,-1,1154,1163,0,0
-63,-139,0,0,0,0,0,0,0,0,0,-1,1161,1163,0,0
-56,-139,0,0,0,0,0,0,0,0,0,-1,1168,1163,0,0
-49,-139,0,0,0,0,0,0,0,0,0,-1,1175,1163,0,0
-42,-139,0,0,0,0,0,0,0,0,0,-1,1182,1163,0,0
-35,-139,0,0,0,0,0,0,0,0,0,-1,1189,1163,0,0
-28,-139,0,0,0,0,0,0,0,0,0,-1,1196,1163,0,0
-21,-139,0,0,0,0,0,0,0,0,0,-1,1203,1163,0,0
-14,-139,0,0,0,0,0,0,0,0,0,-1,1210,1163,0,0
-7,-139,0,0,0,0,0,0,0,0,0,-1,1217,1163,0,0
0,-139,0,0,0,0,0,0,0,0,0,-1,1224,1163,0,0
7,-139,0,0,0,0,0,0,0,0,0,-1,1231,1163,0,0
14,-139,0,0,0,0,0,0,0,0,0,-1,1238,1163,0,0
21,-139,0,0,0,0,0,0,0,0,0,-1,1245,1163,0,0
28,-139,0,0,0,0,0,0,0,0,0,-1,1252,1163,0,0
35,-139,0,0,0,0,0,0,0,0,0,-1,1259,1163,0,0
42,-139,0,0,0,0,0,0,0,0,0,-1,1266,1163,0,0
49,-139,0,0,0,0,0,0,0,0,0,-1,1273,1163,0,0
56,-139,0,0,0,0,0,0,0,0,0,-1,1280,1163,0,0
63,-139,0,0,0,0,0,0,0,0,0,-1,1287,1163,0,0
70,-139,0,0,0,0,0,0,0,0,0,-1,1294,1163,0,0
77,-139,0,0,0,0,0,0,0,0,0,-1,1301,1163,0,0
84,-139,0,0,0,0,0,0,0,0,0,-1,1308,1163,0,0
91,-139,0,0,0,0,0,0,0,0,0,-1,1315,1163,0,0
98,-139,0,0,0,0,0,0,0,0,0,-1,1322,1163,0,0
105,-139,0,0,0,0,0,0,0,0,0,-1,1329,1163,0,0
112,-139,0,0,0,0,0,0,0,0,0,-1,1336,1163,0,0
119,-139,0,0,0,0,0,0,0,0,0,-1,1343,1163,0,0
126,-139,0,0,0,0,0,0,0,0,0,-1,1350,1163,0,0
133,-139,0,0,0,0,0,0,0,0,0,-1,1357,1163,0,0
140,-139,0,0,0,0,0,0,0,0,0,-1,1364,1163,0,0
147,-139,0,0,0,0,0,0,0,0,0,-1,1371,1163,0,0
154,-139,0,0,0,0,0,0,0,0,0,-1,1378,1163,0,0
161,-139,0,0,0,0,0,0,0,0,0,-1,1385,1163,0,0
168,-139,0,0,0,0,0,0,0,0,0,-1,1392,1163,0,0
175,-139,0,0,0,0,0,0,0,0,0,-1,1399,1163,0,0
182,-139,0,0,0,0,0,0,0,0,0,-1,1406,1163,0,0
189,-139,0,0,0,0,0,0,0,0,0,-1,1413,1163,0,0
196,-139,0,0,0,0,0,0,0,0,0,-1,1420,1163,0,0
203,-139,0,0,0,0,0,0,0,0,0,-1,1427,1163,0,0
210,-139,0,0,0,0,0,0,0,0,0,-1,1434,1163,0,0
217,-139,0,0,0,0,0,0,0,0,0,-1,1441,1163,0,0
224,-139,0,0,0,0,0,0,0,0,0,-1,1448,1163,0,0
231,-139,0,0,0,0,0,0,0,0,0,-1,1455,1163,0,0
238,-139,0,0,0,0,0,0,0,0,0,-1,1462,1163,0,0
245,-139,0,0,0,0,0,0,0,0,0,-1,1469,1163,0,0
252,-139,0,0,0,0,0,0,0,0,0,-1,1476,1163,0,0
259,-139,0,0,0,0,0,0,0,0,0,-1,1483,1163,0,0
266,-139,0,0,0,0,0,0,0,0,0,-1,1490,1163,0,0
273,-139,0,0,0,0,0,0,0,0,0,-1,1497,1163,0,0
280,-139,0,0,0,0,0,0,0,0,0,-1,1504,1163,0,0
287,-139,0,0,0,0,0,0,0,0,0,-1,1511,1163,0,0
294,-139,0,0,0,0,0,0,0,0,0,-1,1518,1163,0,0
301,-139,0,0,0,0,0,0,0,0,0,-1,1525,1163,0,0
308,-139,0,0,0,0,0,0,0,0,0,-1,1532,1163,0,0
315,-139,0,0,0,0,0,0,0,0,0,-1,1539,1163,0,0
322,-139,0,0,0,0,0,0,0,0,0,-1,1546,1163,0,0
329,-139,0,0,0,0,0,0,0,0,0,-1,1553,1163,0,0
336,-139,0,0,0,0,0,0,0,0,0,-1,1560,1163,0,0
343,-139,0,0,0,0,0,0,0,0,0,-1,1567,1163,0,0
350,-139,0,0,0,0,0,0,0,0,0,-1,1574,1163,0,0
357,-139,0,0,0,0,0,0,0,0,0,-1,1581,1163,0,0
364,-139,0,0,0,0,0,0,0,0,0,-1,1588,1163,0,0
371,-139,0,0,0,0,0,0,0,0,0,-1,1595,1163,0,0
378,-139,0,0,0,0,0,0,0,0,0,-1,1602,1163,0,0
385,-139,0,0,0,0,0,0,0,0,0,-1,1609,1163,0,0
392,-139,0,0,0,0,0,0,0,0,0,-1,1616,1163,0,0
399,-139,0,0,0,0,0,0,0,0,0,-1,1623,1163,0,0
406,-139,0,0,0,0,0,0,0,0,0,-1,1630,1163,0,0
413,-139,0,0,0,0,0,0,0,0,0,-1,1637,1163,0,0
420,-139,0,0,0,0,0,0,0,0,0,-1,1644,1163,0,0
427,-139,0,0,0,0,0,0,0,0,0,-1,1651,1163,0,0
434,-139,0,0,0,0,0,0,0,0,0,-1,1658,1163,0,0
441,-139,0,0,0,0,0,0,0,0,0,-1,1665,1163,0,0
448,-139,0,0,0,0,0,0,0,0,0,-1,1672,1163,0,0
455,-139,0,0,0,0,0,0,0,0,0,-1,1679,1163,0,0
462,-139,0,0,0,0,0,0,0,0,0,-1,1686,1163,0,0
469,-139,0,0,0,0,0,0,0,0,0,-1,1693,1163,0,0
476,-139,0,0,0,0,0,0,0,0,0,-1,1700,1163,0,0
483,-139,0,0,0,0,0,0,0,0,0,-1,1707,1163,0,0
490,-139,0,0,0,0,0,0,0,0,0,-1,1714,1163,0,0
497,-139,0,0,0,0,0,0,0,0,0,-1,1721,1163,0,0
504,-139,0,0,0,0,0,0,0,0,0,-1,1728,1163,0,0
511,-139,0,0,0,0,0,0,0,0,0,-1,1735,1163,0,0
518,-139,0,0,0,0,0,0,0,0,0,-1,1742,1163,0,0
525,-139,0,0,0,0,0,0,0,0,0,-1,1749,1163,0,0
532,-139,0,0,0,0,0,0,0,0,0,-1,1756,1163,0,0
539,-139,0,0,0,0,0,0,0,0,0,-1,1763,1163,0,0
546,-139,0,0,0,0,0,0,0,0,0,-1,1770,1163,0,0
553,-139,0,0,0,0,0,0,0,0,0,-1,1777,1163,0,0
560,-139,0,0,0,0,0,0,0,0,0,-1,1784,1163,0,0
567,-139,0,0,0,0,0,0,0,0,0,-1,1791,1163,0,0
574,-139,0,0,0,0,0,0,0,0,0,-1,1798,1163,0,0
581,-139,0,0,0,0,0,0,0,0,0,-1,1805,1163,0,0
588,-139,0,0,0,0,0,0,0,0,0,-1,1812,1163,0,0
595,-139,0,0,0,0,0,0,0,0,0,-1,1819,1163,0,0
602,-139,0,0,0,0,0,0,0,0,0,-1,1826,1163,0,0
609,-139,0,0,0,0,0,0,0,0,0,-1,1833,1163,0,0
616,-139,0,0,0,0,0,0,0,0,0,-1,1840,1163,0,0
623,-139,0,0,0,0,0,0,0,0,0,-1,1847,1163,0,0
630,-139,0,0,0,0,0,0,0,0,0,-1,1854,1163,0,0
637,-139,0,0,0,0,0,0,0,0,0,-1,1861,1163,0,0
644,-139,46.6984,2.48584,0,0,0,0,0,0,0,-1,1868,1163,46.6983,-2.48587
651,-139,46.7656,2.99426,0,0,0,0,0,0,0,-1,1875,1163,46.7656,-2.99427
658,-139,46.6744,2.73608,-0.00244676,3.43891e-05,-0.000359908,8.55416e-05,-0.00249792,-1.42962,0.00169451,0.041749,1882,1163,46.6744,-2.7361
665,-139,46.5828,2.76953,-0.00137094,-0.000175071,-0.000129287,-0.000161253,-0.00138476,-1.46432,0.000874393,0.0366307,1889,1163,46.5828,-2.7695
672,-139,46.5945,2.88171,-0.000719071,-0.000350864,0.000150202,-0.000297365,-0.00077257,1.22863,0.000449965,0.0367689,1896,1163,46.5945,-2.88174
679,-139,46.6271,2.85413,-0.000669818,-0.000575,0.000552384,-6.79944e-05,-0.00117682,0.828207,0.000762895,0.036628,1903,1163,46.627,-2.85415
686,-139,46.5715,2.85364,-0.000782197,-0.00083977,0.00074898,-6.14511e-05,-0.00156052,0.76619,0.00102048,0.0367774,1910,1163,46.5716,-2.85362
693,-139,46.5652,2.79773,-0.000850152,-0.000951263,0.00090639,7.09132e-06,-0.00180851,0.757539,0.00120804,0.0276717,1917,1163,46.5652,-2.79768
700,-139,46.6373,2.80981,0,0,0,0,0,0,0,-1,1924,1163,46.6374,-2.80986
707,-139,32.116,6.54346,0,0,0,0,0,0,0,-1,1931,1163,32.116,-6.54343
714,-139,41.3777,7.70654,0,0,0,0,0,0,0,-1,1938,1163,41.3777,-7.7066
721,-139,41.566,7.1936,-0.00119331,-0.000936128,0.00152306,0.000463758,-0.0025932,0.827513,0.00190232,0.0324532,1945,1163,41.566,-7.19355
728,-139,41.4486,6.98608,-0.00126389,-0.000949258,0.00168962,0.000590353,-0.0028035,0.831818,0.00209371,0.0390938,1952,1163,41.4487,-6.98612
735,-139,41.3793,6.69397,-0.00137232,-0.000790411,0.00178224,0.000724467,-0.00288719,0.86631,0.0022063,0.0289897,1959,1163,41.3793,-6.69393
742,-139,41.4349,6.14587,-0.00132499,-0.000531976,0.00181472,0.000929054,-0.00278602,0.892955,0.00223243,0.0218397,1966,1163,41.4349,-6.14587
749,-139,41.4348,5.77686,-0.00130096,-8.60893e-05,0.00193544,0.00133499,-0.00272205,0.937455,0.00238753,0.0194992,1973,1163,41.4348,-5.77688
756,-139,41.4197,5.47937,-0.00146192,0.000731346,0.00245931,0.00232744,-0.00305802,0.995122,0.00311882,0.0115599,1980,1163,41.4197,-5.47942
763,-139,41.4019,5.13635,-0.00179677,0.00148764,0.00340858,0.00362899,-0.00393812,1.00988,0.00437009,0.0108505,1987,1163,41.4019,-5.1363
770,-139,41.4021,4.79614,-0.00276705,0.00209371,0.00486528,0.00510187,-0.0057752,1.01704,0.00628389,0.0122811,1994,1163,41.4021,-4.79614
777,-139,41.3735,4.52625,-0.00454341,0.00253059,0.00699558,0.0068325,-0.00884533,1.01946,0.00907643,0.0243605,2001,1163,41.3735,-4.52625
784,-139,41.2322,4.3186,-0.00741931,0.00273477,0.0100514,0.0089186,-0.0136031,1.01926,0.0130964,0.0425771,2008,1163,41.2321,-4.3186
791,-139,41.3774,3.79785,0,0,0,0,0,0,0,-1,2015,1163,41.3773,-3.79788
798,-139,41.5405,3.32471,-0.0170588,0.00237657,0.0197324,0.0146543,-0.0293366,1.0142,0.0258654,0.0442068,2022,1163,41.5405,-3.32476
805,-139,40.3826,5.63013,-0.0244027,0.00179559,0.0272444,0.0189263,-0.0415334,1.00948,0.0357106,0.0477913,2029,1163,40.3825,-5.63016
812,-139,0,0,0,0,0,0,0,0,0,-1,2036,1163,0,0
-700,-146,0,0,0,0,0,0,0,0,0,-1,524,1170,0,0
-693,-146,-30.2834,-0.311279,0,0,0,0,0,0,0,-1,531,1170,-30.2834,0.311312
-686,-146,-29.7419,-0.913452,0.0840942,-0.0618493,0.00449024,0.0842322,-0.0619873,0.0307282,0.0847449,0.0483348,538,1170,-29.742,0.913495
-679,-146,-28.8741,-1.38232,0.0729964,-0.0507644,0.00711817,0.0734045,-0.0511725,0.0572638,0.0723053,0.0498259,545,1170,-28.8741,1.38227
-672,-146,-27.9079,-1.71167,0.0613415,-0.0408903,0.00773237,0.061923,-0.0414718,0.0750665,0.060083,0.0434686,552,1170,-27.9079,1.71162
-665,-146,-26.8262,-1.97534,0.0499154,-0.0321173,0.00719591,0.0505419,-0.0327437,0.0868362,0.0484496,0.0442243,559,1170,-26.8262,1.97536
-658,-146,-28.9028,1.77625,0.03922,-0.0244017,0.00597671,0.0397766,-0.0249583,0.0928588,0.0376997,0.0462081,566,1170,-28.9028,-1.77624
-651,-146,-28.7903,1.29626,0.0295935,-0.0176983,0.00446573,0.0300115,-0.0181163,0.09333,0.0280681,0.0388,573,1170,-28.7903,-1.29629
-644,-146,-28.7352,1.63757,0.0211985,-0.0120651,0.0028951,0.0214486,-0.0123152,0.0861717,0.0197298,0.0212503,580,1170,-28.7352,-1.63754
-637,-146,-28.782,2.04199,0.0142634,-0.00735135,0.001574,0.0143774,-0.00746537,0.0723124,0.0128197,0.0115939,587,1170,-28.782,-2.04205
-630,-146,-28.808,2.43677,0.00846473,-0.00331075,0.000632727,0.00849863,-0.00334465,0.0535271,0.00705024,0.0116416,594,1170,-28.808,-2.43673
-623,-146,-28.8177,2.83118,0.00404817,-0.000804627,-0.000225866,0.00405866,-0.000815117,-0.0464097,0.00301444,0.0149368,601,1170,-28.8177,-2.83113
-616,-146,-28.847,3.25024,0.00230094,0.000375213,-0.000616719,0.00248152,0.00019464,-0.284835,0.00159343,0.018749,608,1170,-28.847,-3.2502
-609,-146,-28.6917,3.72192,0.00219644,0.00110234,-0.000978456,0.00277039,0.000528387,-0.530499,0.00169842,0.0248567,615,1170,-28.6917,-3.72197
-602,-146,-28.3661,4.12317,0,0,0,0,0,0,0,-1,622,1170,-28.3661,-4.12318
-595,-146,-29.0991,4.50952,0.00179038,0.00164857,-0.000433568,0.0021588,0.00128015,-0.704346,0.00125355,0.0380667,629,1170,-29.0991,-4.50949
-588,-146,-29.064,4.89722,0.00125257,0.00260923,-0.000374903,0.00270594,0.00115587,-1.31834,0.00156779,0.0427939,636,1170,-29.0639,-4.89717
-581,-146,-28.3327,5.71057,0,0,0,0,0,0,0,-1,643,1170,-28.3327,-5.71059
-574,-146,-17.9915,3.79114,0,0,0,0,0,0,0,-1,650,1170,-17.9915,-3.79118
-567,-146,-34.4678,0.666748,0,0,0,0,0,0,0,-1,657,1170,-34.4678,-0.666796
-560,-146,-34.5229,0.802246,0.0027003,0.0039029,-0.00128103,0.00471674,0.00188646,-1.00483,0.00274132,0.0373631,664,1170,-34.523,-0.802286
-553,-146,-34.6029,0.924194,0.00280762,0.00433952,-0.00171289,0.00544991,0.00169723,-0.995646,0.00322024,0.0382598,671,1170,-34.6029,-0.924245
-546,-146,-34.6732,1.50452,0.00349015,0.00447037,-0.00235071,0.00638152,0.001579,-0.888174,0.00383786,0.0405225,678,1170,-34.6732,-1.50452
-539,-146,-34.5923,1.21265,0.00521398,0.00433366,-0.00316992,0.00797416,0.00157349,-0.716412,0.00487697,0.0428376,685,1170,-34.5924,-1.21261
-532,-146,-34.6683,1.01208,0.00877557,0.00340296,-0.00428563,0.0111472,0.00103131,-0.505446,0.00711267,0.0413246,692,1170,-34.6682,-1.01213
-525,-146,-34.588,0.854126,0.0134204,0.00214795,-0.00612016,0.0161043,-0.00053588,-0.413268,0.0109192,0.0409068,699,1170,-34.588,-0.854078
-518,-146,0,0,0,0,0,0,0,0,0,-1,706,1170,0,0
-511,-146,0,0,0,0,0,0,0,0,0,-1,713,1170,0,0
-504,-146,0,0,0,0,0,0,0,0,0,-1,720,1170,0,0
-497,-146,0,0,0,0,0,0,0,0,0,-1,727,1170,0,0
-490,-146,0,0,0,0,0,0,0,0,0,-1,734,1170,0,0
-483,-146,0,0,0,0,0,0,0,0,0,-1,741,1170,0,0
-476,-146,0,0,0,0,0,0,0,0,0,-1,748,1170,0,0
-469,-146,0,0,0,0,0,0,0,0,0,-1,755,1170,0,0
-462,-146,0,0,0,0,0,0,0,0,0,-1,762,1170,0,0
-455,-146,0,0,0,0,0,0,0,0,0,-1,769,1170,0,0
-448,-146,0,0,0,0,0,0,0,0,0,-1,776,1170,0,0
-441,-146,0,0,0,0,0,0,0,0,0,-1,783,1170,0,0
-434,-146,0,0,0,0,0,0,0,0,0,-1,790,1170,0,0
-427,-146,0,0,0,0,0,0,0,0,0,-1,797,1170,0,0
-420,-146,0,0,0,0,0,0,0,0,0,-1,804,1170,0,0
-413,-146,0,0,0,0,0,0,0,0,0,-1,811,1170,0,0
-406,-146,0,0,0,0,0,0,0,0,0,-1,818,1170,0,0
-399,-146,0,0,0,0,0,0,0,0,0,-1,825,1170,0,0
-392,-146,0,0,0,0,0,0,0,0,0,-1,832,1170,0,0
-385,-146,0,0,0,0,0,0,0,0,0,-1,839,1170,0,0
-378,-146,0,0,0,0,0,0,0,0,0,-1,846,1170,0,0
-371,-146,0,0,0,0,0,0,0,0,0,-1,853,1170,0,0
-364,-146,0,0,0,0,0,0,0,0,0,-1,860,1170,0,0
-357,-146,0,0,0,0,0,0,0,0,0,-1,867,1170,0,0
-350,-146,0,0,0,0,0,0,0,0,0,-1,874,1170,0,0
-343,-146,0,0,0,0,0,0,0,0,0,-1,881,1170,0,0
-336,-146,0,0,0,0,0,0,0,0,0,-1,888,1170,0,0
-329,-146,0,0,0,0,0,0,0,0,0,-1,895,1170,0,0
-322,-146,0,0,0,0,0,0,0,0,0,-1,902,1170,0,0
-315,-146,0,0,0,0,0,0,0,0,0,-1,909,1170,0,0
-308,-146,0,0,0,0,0,0,0,0,0,-1,916,1170,0,0
-301,-146,0,0,0,0,0,0,0,0,0,-1,923,1170,0,0
-294,-146,0,0,0,0,0,0,0,0,0,-1,930,1170,0,0
-287,-146,0,0,0,0,0,0,0,0,0,-1,937,1170,0,0
-280,-146,0,0,0,0,0,0,0,0,0,-1,944,1170,0,0
-273,-146,0,0,0,0,0,0,0,0,0,-1,951,1170,0,0
-266,-146,0,0,0,0,0,0,0,0,0,-1,958,1170,0,0
-259,-146,0,0,0,0,0,0,0,0,0,-1,965,1170,0,0
-252,-146,0,0,0,0,0,0,0,0,0,-1,972,1170,0,0
-245,-146,0,0,0,0,0,0,0,0,0,-1,979,1170,0,0
-238,-146,0,0,0,0,0,0,0,0,0,-1,986,1170,0,0
-231,-146,0,0,0,0,0,0,0,0,0,-1,993,1170,0,0
-224,-146,0,0,0,0,0,0,0,0,0,-1,1000,1170,0,0
-217,-146,0,0,0,0,0,0,0,0,0,-1,1007,1170,0,0
-210,-146,0,0,0,0,0,0,0,0,0,-1,1014,1170,0,0
-203,-146,0,0,0,0,0,0,0,0,0,-1,1021,1170,0,0
-196,-146,0,0,0,0,0,0,0,0,0,-1,1028,1170,0,0
-189,-146,0,0,0,0,0,0,0,0,0,-1,1035,1170,0,0
-182,-146,0,0,0,0,0,0,0,0,0,-1,1042,1170,0,0
-175,-146,0,0,0,0,0,0,0,0,0,-1,1049,1170,0,0
-168,-146,0,0,0,0,0,0,0,0,0,-1,1056,1170,0,0
-161,-146,0,0,0,0,0,0,0,0,0,-1,1063,1170,0,0
-154,-146,0,0,0,0,0,0,0,0,0,-1,1070,1170,0,0
-147,-146,0,0,0,0,0,0,0,0,0,-1,1077,1170,0,0
-140,-146,0,0,0,0,0,0,0,0,0,-1,1084,1170,0,0
-133,-146,0,0,0,0,0,0,0,0,0,-1,1091,1170,0,0
-126,-146,0,0,0,0,0,0,0,0,0,-1,1098,1170,0,0
-119,-146,0,0,0,0,0,0,0,0,0,-1,1105,1170,0,0
-112,-146,0,0,0,0,0,0,0,0,0,-1,1112,1170,0,0
-105,-146,0,0,0,0,0,0,0,0,0,-1,1119,1170,0,0
-98,-146,0,0,0,0,0,0,0,0,0,-1,1126,1170,0,0
-91,-146,0,0,0,0,0,0,0,0,0,-1,1133,1170,0,0
-84,-146,0,0,0,0,0,0,0,0,0,-1,1140,1170,0,0
-77,-146,0,0,0,0,0,0,0,0,0,-1,1147,1170,0,0
-70,-146,0,0,0,0,0,0,0,0,0,-1,1154,1170,0,0
-63,-146,0,0,0,0,0,0,0,0,0,-1,1161,1170,0,0
-56,-146,0,0,0,0,0,0,0,0,0,-1,1168,1170,0,0
-49,-146,0,0,0,0,0,0,0,0,0,-1,1175,1170,0,0
-42,-146,0,0,0,0,0,0,0,0,0,-1,1182,1170,0,0
-35,-146,0,0,0,0,0,0,0,0,0,-1,1189,1170,0,0
-28,-146,0,0,0,0,0,0,0,0,0,-1,1196,1170,0,0
-21,-146,0,0,0,0,0,0,0,0,0,-1,1203,1170,0,0
-14,-146,0,0,0,0,0,0,0,0,0,-1,1210,1170,0,0
-7,-146,0,0,0,0,0,0,0,0,0,-1,1217,1170,0,0
0,-146,0,0,0,0,0,0,0,0,0,-1,1224,1170,0,0
7,-146,0,0,0,0,0,0,0,0,0,-1,1231,1170,0,0
14,-146,0,0,0,0,0,0,0,0,0,-1,1238,1170,0,0
21,-146,0,0,0,0,0,0,0,0,0,-1,1245,1170,0,0
28,-146,0,0,0,0,0,0,0,0,0,-1,1252,1170,0,0
35,-146,0,0,0,0,0,0,0,0,0,-1,1259,1170,0,0
42,-146,0,0,0,0,0,0,0,0,0,-1,1266,1170,0,0
49,-146,0,0,0,0,0,0,0,0,0,-1,1273,1170,0,0
56,-146,0,0,0,0,0,0,0,0,0,-1,1280,1170,0,0
63,-146,0,0,0,0,0,0,0,0,0,-1,1287,1170,0,0
70,-146,0,0,0,0,0,0,0,0,0,-1,1294,1170,0,0
77,-146,0,0,0,0,0,0,0,0,0,-1,1301,1170,0,0
84,-146,0,0,0,0,0,0,0,0,0,-1,1308,1170,0,0
91,-146,0,0,0,0,0,0,0,0,0,-1,1315,1170,0,0
98,-146,0,0,0,0,0,0,0,0,0,-1,1322,1170,0,0
105,-146,0,0,0,0,0,0,0,0,0,-1,1329,1170,0,0
112,-146,0,0,0,0,0,0,0,0,0,-1,1336,1170,0,0
119,-146,0,0,0,0,0,0,0,0,0,-1,1343,1170,0,0
126,-146,0,0,0,0,0,0,0,0,0,-1,1350,1170,0,0
133,-146,0,0,0,0,0,0,0,0,0,-1,1357,1170,0,0
140,-146,0,0,0,0,0,0,0,0,0,-1,1364,1170,0,0
147,-146,0,0,0,0,0,0,0,0,0,-1,1371,1170,0,0
154,-146,0,0,0,0,0,0,0,0,0,-1,1378,1170,0,0
161,-146,0,0,0,0,0,0,0,0,0,-1,1385,1170,0,0
168,-146,0,0,0,0,0,0,0,0,0,-1,1392,1170,0,0
175,-146,0,0,0,0,0,0,0,0,0,-1,1399,1170,0,0
182,-146,0,0,0,0,0,0,0,0,0,-1,1406,1170,0,0
189,-146,0,0,0,0,0,0,0,0,0,-1,1413,1170,0,0
196,-146,0,0,0,0,0,0,0,0,0,-1,1420,1170,0,0
203,-146,0,0,0,0,0,0,0,0,0,-1,1427,1170,0,0
210,-146,0,0,0,0,0,0,0,0,0,-1,1434,1170,0,0
217,-146,0,0,0,0,0,0,0,0,0,-1,1441,1170,0,0
224,-146,0,0,0,0,0,0,0,0,0,-1,1448,1170,0,0
231,-146,0,0,0,0,0,0,0,0,0,-1,1455,1170,0,0
238,-146,0,0,0,0,0,0,0,0,0,-1,1462,1170,0,0
245,-146,0,0,0,0,0,0,0,0,0,-1,1469,1170,0,0
252,-146,0,0,0,0,0,0,0,0,0,-1,1476,1170,0,0
259,-146,0,0,0,0,0,0,0,0,0,-1,1483,1170,0,0
266,-146,0,0,0,0,0,0,0,0,0,-1,1490,1170,0,0
273,-146,0,0,0,0,0,0,0,0,0,-1,1497,1170,0,0
280,-146,0,0,0,0,0,0,0,0,0,-1,1504,1170,0,0
287,-146,0,0,0,0,0,0,0,0,0,-1,1511,1170,0,0
294,-146,0,0,0,0,0,0,0,0,0,-1,1518,1170,0,0
301,-146,0,0,0,0,0,0,0,0,0,-1,1525,1170,0,0
308,-146,0,0,0,0,0,0,0,0,0,-1,1532,1170,0,0
315,-146,0,0,0,0,0,0,0,0,0,-1,1539,1170,0,0
322,-146,0,0,0,0,0,0,0,0,0,-1,1546,1170,0,0
329,-146,0,0,0,0,0,0,0,0,0,-1,1553,1170,0,0
336,-146,0,0,0,0,0,0,0,0,0,-1,1560,1170,0,0
343,-146,0,0,0,0,0,0,0,0,0,-1,1567,1170,0,0
350,-146,0,0,0,0,0,0,0,0,0,-1,1574,1170,0,0
357,-146,0,0,0,0,0,0,0,0,0,-1,1581,1170,0,0
364,-146,0,0,0,0,0,0,0,0,0,-1,1588,1170,0,0
371,-146,0,0,0,0,0,0,0,0,0,-1,1595,1170,0,0
378,-146,0,0,0,0,0,0,0,0,0,-1,1602,1170,0,0
385,-146,0,0,0,0,0,0,0,0,0,-1,1609,1170,0,0
392,-146,0,0,0,0,0,0,0,0,0,-1,1616,1170,0,0
399,-146,0,0,0,0,0,0,0,0,0,-1,1623,1170,0,0
406,-146,0,0,0,0,0,0,0,0,0,-1,1630,1170,0,0
413,-146,0,0,0,0,0,0,0,0,0,-1,1637,1170,0,0
420,-146,0,0,0,0,0,0,0,0,0,-1,1644,1170,0,0
427,-146,0,0,0,0,0,0,0,0,0,-1,1651,1170,0,0
434,-146,0,0,0,0,0,0,0,0,0,-1,1658,1170,0,0
441,-146,0,0,0,0,0,0,0,0,0,-1,1665,1170,0,0
448,-146,0,0,0,0,0,0,0,0,0,-1,1672,1170,0,0
455,-146,0,0,0,0,0,0,0,0,0,-1,1679,1170,0,0
462,-146,0,0,0,0,0,0,0,0,0,-1,1686,1170,0,0
469,-146,0,0,0,0,0,0,0,0,0,-1,1693,1170,0,0
476,-146,0,0,0,0,0,0,0,0,0,-1,1700,1170,0,0
483,-146,0,0,0,0,0,0,0,0,0,-1,1707,1170,0,0
490,-146,0,0,0,0,0,0,0,0,0,-1,1714,1170,0,0
497,-146,0,0,0,0,0,0,0,0,0,-1,1721,1170,0,0
504,-146,0,0,0,0,0,0,0,0,0,-1,1728,1170,0,0
511,-146,0,0,0,0,0,0,0,0,0,-1,1735,1170,0,0
518,-146,0,0,0,0,0,0,0,0,0,-1,1742,1170,0,0
525,-146,0,0,0,0,0,0,0,0,0,-1,1749,1170,0,0
532,-146,0,0,0,0,0,0,0,0,0,-1,1756,1170,0,0
539,-146,0,0,0,0,0,0,0,0,0,-1,1763,1170,0,0
546,-146,0,0,0,0,0,0,0,0,0,-1,1770,1170,0,0
553,-146,0,0,0,0,0,0,0,0,0,-1,1777,1170,0,0
560,-146,0,0,0,0,0,0,0,0,0,-1,1784,1170,0,0
567,-146,0,0,0,0,0,0,0,0,0,-1,1791,1170,0,0
574,-146,0,0,0,0,0,0,0,0,0,-1,1798,1170,0,0
581,-146,0,0,0,0,0,0,0,0,0,-1,1805,1170,0,0
588,-146,0,0,0,0,0,0,0,0,0,-1,1812,1170,0,0
595,-146,0,0,0,0,0,0,0,0,0,-1,1819,1170,0,0
602,-146,0,0,0,0,0,0,0,0,0,-1,1826,1170,0,0
609,-146,0,0,0,0,0,0,0,0,0,-1,1833,1170,0,0
616,-146,0,0,0,0,0,0,0,0,0,-1,1840,1170,0,0
623,-146,0,0,0,0,0,0,0,0,0,-1,1847,1170,0,0
630,-146,0,0,0,0,0,0,0,0,0,-1,1854,1170,0,0
637,-146,46.582,2.54614,-0.00692905,0.00208414,-0.00259604,0.00277839,-0.0076233,-1.30948,0.00621878,0.0394541,1861,1170,46.582,-2.54612
644,-146,46.5706,2.54102,-0.00565205,0.0012229,-0.00154895,0.00155577,-0.00598491,-1.35912,0.00459714,0.0379337,1868,1170,46.5705,-2.54099
651,-146,46.5547,2.69153,-0.00431127,0.000791625,-0.000983624,0.000974661,-0.00449431,-1.38682,0.00336843,0.0365966,1875,1170,46.5547,-2.69152
658,-146,46.5343,2.74255,-0.00292852,0.000454502,-0.000615717,0.000563079,-0.0030371,-1.39625,0.00223618,0.0386028,1882,1170,46.5343,-2.74258
665,-146,46.5541,2.7113,-0.00152343,0.000256744,-0.000432415,0.000356221,-0.00162291,-1.34468,0.00121817,0.0371476,1889,1170,46.5541,-2.71125
672,-146,46.5579,2.80164,-0.000797026,5.84694e-05,-0.000123566,7.59596e-05,-0.000814516,-1.43019,0.00057002,0.037912,1896,1170,46.5578,-2.80161
679,-146,46.6052,2.77979,-0.000802343,-0.000180226,0.000338027,-3.19157e-05,-0.000950653,1.15734,0.000623403,0.0319355,1903,1170,46.6052,-2.7798
686,-146,46.5192,2.73962,-0.00101071,-0.000478718,0.000592577,-9.51746e-05,-0.00139425,0.996359,0.000899456,0.0266846,1910,1170,46.5191,-2.73957
693,-146,46.574,2.67993,-0.00116612,-0.000629803,0.000801371,-5.29158e-05,-0.00174301,0.946856,0.00114478,0.0204316,1917,1170,46.574,-2.67995
700,-146,46.6692,2.49097,0,0,0,0,0,0,0,-1,1924,1170,46.6691,-2.49091
707,-146,29.9441,6.94653,0,0,0,0,0,0,0,-1,1931,1170,29.9441,-6.94652
714,-146,31.325,6.13245,0,0,0,0,0,0,0,-1,1938,1170,31.325,-6.1325
721,-146,41.1539,7.08862,0,0,0,0,0,0,0,-1,1945,1170,41.1539,-7.0886
728,-146,41.0137,7.14709,0,0,0,0,0,0,0,-1,1952,1170,41.0137,-7.14714
735,-146,41.0459,6.62903,-0.00170079,-0.000798686,0.00190204,0.000705056,-0.00320453,0.901818,0.00240605,0.0281844,1959,1170,41.0459,-6.62897
742,-146,41.1071,6.18237,-0.0015502,-0.000590886,0.00190795,0.000896779,-0.00303787,0.908546,0.00238114,0.0169102,1966,1170,41.107,-6.18237
749,-146,41.0677,5.8457,-0.00128798,-0.000136647,0.0018355,0.00121134,-0.00263597,0.937355,0.00227144,0.0150597,1973,1170,41.0677,-5.84567
756,-146,41.0435,5.48328,-0.0011935,0.000760941,0.00193314,0.00194982,-0.00238238,1.01942,0.00250535,0.0114335,1980,1170,41.0435,-5.48325
763,-146,41.0123,5.11353,-0.00131558,0.00156069,0.00223962,0.00278415,-0.00253904,1.07081,0.00307444,0.0109924,1987,1170,41.0123,-5.11351
770,-146,40.9948,4.76367,-0.00212898,0.00226811,0.00287769,0.00369099,-0.00355185,1.1116,0.00418191,0.0125455,1994,1170,40.9947,-4.76367
777,-146,40.9884,4.57349,-0.00383917,0.00287152,0.00395707,0.00470431,-0.00567196,1.13705,0.00599942,0.0235257,2001,1170,40.9884,-4.57348
784,-146,40.7295,4.60474,-0.0067343,0.00332949,0.00564948,0.00586309,-0.0092679,1.14922,0.00880929,0.0421928,2008,1170,40.7295,-4.60479
791,-146,40.5229,4.54846,0,0,0,0,0,0,0,-1,2015,1170,40.5229,-4.54842
798,-146,40.3691,4.48413,-0.016941,0.00360573,0.0115493,0.00878968,-0.022125,1.1489,0.0183938,0.0493728,2022,1170,40.3692,-4.48415
805,-146,39.9331,4.53906,-0.0250473,0.00313676,0.0168393,0.0110026,-0.0329132,1.1338,0.0263857,0.0458123,2029,1170,39.9331,-4.53905
812,-146,0,0,0,0,0,0,0,0,0,-1,2036,1170,0,0
-700,-153,0,0,0,0,0,0,0,0,0,-1,524,1177,0,0
-693,-153,0,0,0,0,0,0,0,0,0,-1,531,1177,0,0
-686,-153,-29.8885,-0.430664,0,0,0,0,0,0,0,-1,538,1177,-29.8884,0.43071
-679,-153,-29.6814,-0.953003,0,0,0,0,0,0,0,-1,545,1177,-29.6814,0.953063
-672,-153,-29.1152,-1.47144,0,0,0,0,0,0,0,-1,552,1177,-29.1152,1.47145
-665,-153,-28.8437,1.91882,0,0,0,0,0,0,0,-1,559,1177,-28.8437,-1.91877
-658,-153,-28.7509,1.70508,0.0432813,-0.0278894,0.00268639,0.0433826,-0.0279907,0.0376742,0.0415256,0.0459339,566,1177,-28.7509,-1.70506
-651,-153,-28.5888,1.49146,0.0330529,-0.0199365,0.00188277,0.0331197,-0.0200034,0.0354714,0.0309807,0.0449856,573,1177,-28.5888,-1.49141
-644,-153,-28.2968,1.64221,0.0239703,-0.0133448,0.000949419,0.0239945,-0.0133689,0.0254214,0.0218606,0.0294833,580,1177,-28.2967,-1.64226
-637,-153,-28.3361,2.03723,0.0163816,-0.00798506,0.000158521,0.0163826,-0.00798609,0.00650528,0.014345,0.0119969,587,1177,-28.336,-2.03728
-630,-153,-28.3773,2.42212,0.010006,-0.00349452,-0.000304164,0.0100129,-0.00350137,-0.0225145,0.00809873,0.0108129,594,1177,-28.3772,-2.42211
-623,-153,-28.3958,2.83484,0.0048989,-0.000661032,-0.000780671,0.00500643,-0.000768566,-0.136885,0.0036211,0.0114518,601,1177,-28.3958,-2.83487
-616,-153,-28.4206,3.24658,0.00235496,0.000597397,-0.00102854,0.00282901,0.000123348,-0.431878,0.00184626,0.0131341,608,1177,-28.4206,-3.24652
-609,-153,-28.3637,3.67761,0.00182156,0.00131145,-0.00134671,0.00293715,0.000195857,-0.691811,0.00189619,0.0212386,615,1177,-28.3637,-3.67765
-602,-153,-28.2811,4.10132,0,0,0,0,0,0,0,-1,622,1177,-28.2811,-4.10136
-595,-153,-29.7444,4.36646,0,0,0,0,0,0,0,-1,629,1177,-29.7444,-4.36651
-588,-153,-28.8749,4.96912,0,0,0,0,0,0,0,-1,636,1177,-28.8749,-4.96908
-581,-153,-28.0054,5.57166,0,0,0,0,0,0,0,-1,643,1177,-28.0054,-5.57165
-574,-153,-25.4814,5.16956,0,0,0,0,0,0,0,-1,650,1177,-25.4814,-5.16961
-567,-153,-34.4611,0.841187,0,0,0,0,0,0,0,-1,657,1177,-34.4611,-0.841196
-560,-153,-34.4966,0.764893,0.00213026,0.00372367,-0.00168604,0.00479176,0.00106217,-1.00611,0.0029059,0.0497013,664,1177,-34.4966,-0.764866
-553,-153,-34.5004,0.804321,0.00219039,0.00405936,-0.00198683,0.00532049,0.000929256,-1.00522,0.0032814,0.037512,671,1177,-34.5004,-0.80429
-546,-153,-34.587,1.17969,0.00278458,0.00407038,-0.00238137,0.00589411,0.00096085,-0.917241,0.00365151,0.0412034,678,1177,-34.587,-1.17963
-539,-153,-34.73,0.942993,0.00415057,0.00391513,-0.00280504,0.00684036,0.00122535,-0.764427,0.00421163,0.0444638,685,1177,-34.73,-0.942934
-532,-153,-34.7739,0.836548,0.00700869,0.00297109,-0.00351932,0.00904713,0.000932654,-0.524995,0.00574582,0.0450289,692,1177,-34.7739,-0.836546
-525,-153,-34.5013,0.737305,0.0111461,0.0017253,-0.00523434,0.0134775,-0.000606034,-0.419016,0.00919365,0.0418584,699,1177,-34.5014,-0.737275
-518,-153,0,0,0,0,0,0,0,0,0,-1,706,1177,0,0
-511,-153,0,0,0,0,0,0,0,0,0,-1,713,1177,0,0
-504,-153,0,0,0,0,0,0,0,0,0,-1,720,1177,0,0
-497,-153,0,0,0,0,0,0,0,0,0,-1,727,1177,0,0
-490,-153,0,0,0,0,0,0,0,0,0,-1,734,1177,0,0
-483,-153,0,0,0,0,0,0,0,0,0,-1,741,1177,0,0
-476,-153,0,0,0,0,0,0,0,0,0,-1,748,1177,0,0
-469,-153,0,0,0,0,0,0,0,0,0,-1,755,1177,0,0
-462,-153,0,0,0,0,0,0,0,0,0,-1,762,1177,0,0
-455,-153,0,0,0,0,0,0,0,0,0,-1,769,1177,0,0
-448,-153,0,0,0,0,0,0,0,0,0,-1,776,1177,0,0
-441,-153,0,0,0,0,0,0,0,0,0,-1,783,1177,0,0
-434,-153,0,0,0,0,0,0,0,0,0,-1,790,1177,0,0
-427,-153,0,0,0,0,0,0,0,0,0,-1,797,1177,0,0
-420,-153,0,0,0,0,0,0,0,0,0,-1,804,1177,0,0
-413,-153,0,0,0,0,0,0,0,0,0,-1,811,1177,0,0
-406,-153,0,0,0,0,0,0,0,0,0,-1,818,1177,0,0
-399,-153,0,0,0,0,0,0,0,0,0,-1,825,1177,0,0
-392,-153,0,0,0,0,0,0,0,0,0,-1,832,1177,0,0
-385,-153,0,0,0,0,0,0,0,0,0,-1,839,1177,0,0
-378,-153,0,0,0,0,0,0,0,0,0,-1,846,1177,0,0
-371,-153,0,0,0,0,0,0,0,0,0,-1,853,1177,0,0
-364,-153,0,0,0,0,0,0,0,0,0,-1,860,1177,0,0
-357,-153,0,0,0,0,0,0,0,0,0,-1,867,1177,0,0
-350,-153,0,0,0,0,0,0,0,0,0,-1,874,1177,0,0
-343,-153,0,0,0,0,0,0,0,0,0,-1,881,1177,0,0
-336,-153,0,0,0,0,0,0,0,0,0,-1,888,1177,0,0
-329,-153,0,0,0,0,0,0,0,0,0,-1,895,1177,0,0
-322,-153,0,0,0,0,0,0,0,0,0,-1,902,1177,0,0
-315,-153,0,0,0,0,0,0,0,0,0,-1,909,1177,0,0
-308,-153,0,0,0,0,0,0,0,0,0,-1,916,1177,0,0
-301,-153,0,0,0,0,0,0,0,0,0,-1,923,1177,0,0
-294,-153,0,0,0,0,0,0,0,0,0,-1,930,1177,0,0
-287,-153,0,0,0,0,0,0,0,0,0,-1,937,1177,0,0
-280,-153,0,0,0,0,0,0,0,0,0,-1,944,1177,0,0
-273,-153,0,0,0,0,0,0,0,0,0,-1,951,1177,0,0
-266,-153,0,0,0,0,0,0,0,0,0,-1,958,1177,0,0
-259,-153,0,0,0,0,0,0,0,0,0,-1,965,1177,0,0
-252,-153,0,0,0,0,0,0,0,0,0,-1,972,1177,0,0
-245,-153,0,0,0,0,0,0,0,0,0,-1,979,1177,0,0
-238,-153,0,0,0,0,0,0,0,0,0,-1,986,1177,0,0
-231,-153,0,0,0,0,0,0,0,0,0,-1,993,1177,0,0
-224,-153,0,0,0,0,0,0,0,0,0,-1,1000,1177,0,0
-217,-153,0,0,0,0,0,0,0,0,0,-1,1007,1177,0,0
-210,-153,0,0,0,0,0,0,0,0,0,-1,1014,1177,0,0
-203,-153,0,0,0,0,0,0,0,0,0,-1,1021,1177,0,0
-196,-153,0,0,0,0,0,0,0,0,0,-1,1028,1177,0,0
-189,-153,0,0,0,0,0,0,0,0,0,-1,1035,1177,0,0
-182,-153,0,0,0,0,0,0,0,0,0,-1,1042,1177,0,0
-175,-153,0,0,0,0,0,0,0,0,0,-1,1049,1177,0,0
-168,-153,0,0,0,0,0,0,0,0,0,-1,1056,1177,0,0
-161,-153,0,0,0,0,0,0,0,0,0,-1,1063,1177,0,0
-154,-153,0,0,0,0,0,0,0,0,0,-1,1070,1177,0,0
-147,-153,0,0,0,0,0,0,0,0,0,-1,1077,1177,0,0
-140,-153,0,0,0,0,0,0,0,0,0,-1,1084,1177,0,0
-133,-153,0,0,0,0,0,0,0,0,0,-1,1091,1177,0,0
-126,-153,0,0,0,0,0,0,0,0,0,-1,1098,1177,0,0
-119,-153,0,0,0,0,0,0,0,0,0,-1,1105,1177,0,0
-112,-153,0,0,0,0,0,0,0,0,0,-1,1112,1177,0,0
-105,-153,0,0,0,0,0,0,0,0,0,-1,1119,1177,0,0
-98,-153,0,0,0,0,0,0,0,0,0,-1,1126,1177,0,0
-91,-153,0,0,0,0,0,0,0,0,0,-1,1133,1177,0,0
-84,-153,0,0,0,0,0,0,0,0,0,-1,1140,1177,0,0
-77,-153,0,0,0,0,0,0,0,0,0,-1,1147,1177,0,0
-70,-153,0,0,0,0,0,0,0,0,0,-1,1154,1177,0,0
-63,-153,0,0,0,0,0,0,0,0,0,-1,1161,1177,0,0
-56,-153,0,0,0,0,0,0,0,0,0,-1,1168,1177,0,0
-49,-153,0,0,0,0,0,0,0,0,0,-1,1175,1177,0,0
-42,-153,0,0,0,0,0,0,0,0,0,-1,1182,1177,0,0
-35,-153,0,0,0,0,0,0,0,0,0,-1,1189,1177,0,0
-28,-153,0,0,0,0,0,0,0,0,0,-1,1196,1177,0,0
-21,-153,0,0,0,0,0,0,0,0,0,-1,1203,1177,0,0
-14,-153,0,0,0,0,0,0,0,0,0,-1,1210,1177,0,0
-7,-153,0,0,0,0,0,0,0,0,0,-1,1217,1177,0,0
0,-153,0,0,0,0,0,0,0,0,0,-1,1224,1177,0,0
7,-153,0,0,0,0,0,0,0,0,0,-1,1231,1177,0,0
14,-153,0,0,0,0,0,0,0,0,0,-1,1238,1177,0,0
21,-153,0,0,0,0,0,0,0,0,0,-1,1245,1177,0,0
28,-153,0,0,0,0,0,0,0,0,0,-1,1252,1177,0,0
35,-153,0,0,0,0,0,0,0,0,0,-1,1259,1177,0,0
42,-153,0,0,0,0,0,0,0,0,0,-1,1266,1177,0,0
49,-153,0,0,0,0,0,0,0,0,0,-1,1273,1177,0,0
56,-153,0,0,0,0,0,0,0,0,0,-1,1280,1177,0,0
63,-153,0,0,0,0,0,0,0,0,0,-1,1287,1177,0,0
70,-153,0,0,0,0,0,0,0,0,0,-1,1294,1177,0,0
77,-153,0,0,0,0,0,0,0,0,0,-1,1301,1177,0,0
84,-153,0,0,0,0,0,0,0,0,0,-1,1308,1177,0,0
91,-153,0,0,0,0,0,0,0,0,0,-1,1315,1177,0,0
98,-153,0,0,0,0,0,0,0,0,0,-1,1322,1177,0,0
105,-153,0,0,0,0,0,0,0,0,0,-1,1329,1177,0,0
112,-153,0,0,0,0,0,0,0,0,0,-1,1336,1177,0,0
119,-153,0,0,0,0,0,0,0,0,0,-1,1343,1177,0,0
126,-153,0,0,0,0,0,0,0,0,0,-1,1350,1177,0,0
133,-153,0,0,0,0,0,0,0,0,0,-1,1357,1177,0,0
140,-153,0,0,0,0,0,0,0,0,0,-1,1364,1177,0,0
147,-153,0,0,0,0,0,0,0,0,0,-1,1371,1177,0,0
154,-153,0,0,0,0,0,0,0,0,0,-1,1378,1177,0,0
161,-153,0,0,0,0,0,0,0,0,0,-1,1385,1177,0,0
168,-153,0,0,0,0,0,0,0,0,0,-1,1392,1177,0,0
175,-153,0,0,0,0,0,0,0,0,0,-1,1399,1177,0,0
182,-153,0,0,0,0,0,0,0,0,0,-1,1406,1177,0,0
189,-153,0,0,0,0,0,0,0,0,0,-1,1413,1177,0,0
196,-153,0,0,0,0,0,0,0,0,0,-1,1420,1177,0,0
203,-153,0,0,0,0,0,0,0,0,0,-1,1427,1177,0,0
210,-153,0,0,0,0,0,0,0,0,0,-1,1434,1177,0,0
217,-153,0,0,0,0,0,0,0,0,0,-1,1441,1177,0,0
224,-153,0,0,0,0,0,0,0,0,0,-1,1448,1177,0,0
231,-153,0,0,0,0,0,0,0,0,0,-1,1455,1177,0,0
238,-153,0,0,0,0,0,0,0,0,0,-1,1462,1177,0,0
245,-153,0,0,0,0,0,0,0,0,0,-1,1469,1177,0,0
252,-153,0,0,0,0,0,0,0,0,0,-1,1476,1177,0,0
259,-153,0,0,0,0,0,0,0,0,0,-1,1483,1177,0,0
266,-153,0,0,0,0,0,0,0,0,0,-1,1490,1177,0,0
273,-153,0,0,0,0,0,0,0,0,0,-1,1497,1177,0,0
280,-153,0,0,0,0,0,0,0,0,0,-1,1504,1177,0,0
287,-153,0,0,0,0,0,0,0,0,0,-1,1511,1177,0,0
294,-153,0,0,0,0,0,0,0,0,0,-1,1518,1177,0,0
301,-153,0,0,0,0,0,0,0,0,0,-1,1525,1177,0,0
308,-153,0,0,0,0,0,0,0,0,0,-1,1532,1177,0,0
315,-153,0,0,0,0,0,0,0,0,0,-1,1539,1177,0,0
322,-153,0,0,0,0,0,0,0,0,0,-1,1546,1177,0,0
329,-153,0,0,0,0,0,0,0,0,0,-1,1553,1177,0,0
336,-153,0,0,0,0,0,0,0,0,0,-1,1560,1177,0,0
343,-153,0,0,0,0,0,0,0,0,0,-1,1567,1177,0,0
350,-153,0,0,0,0,0,0,0,0,0,-1,1574,1177,0,0
357,-153,0,0,0,0,0,0,0,0,0,-1,1581,1177,0,0
364,-153,0,0,0,0,0,0,0,0,0,-1,1588,1177,0,0
371,-153,0,0,0,0,0,0,0,0,0,-1,1595,1177,0,0
378,-153,0,0,0,0,0,0,0,0,0,-1,1602,1177,0,0
385,-153,0,0,0,0,0,0,0,0,0,-1,1609,1177,0,0
392,-153,0,0,0,0,0,0,0,0,0,-1,1616,1177,0,0
399,-153,0,0,0,0,0,0,0,0,0,-1,1623,1177,0,0
406,-153,0,0,0,0,0,0,0,0,0,-1,1630,1177,0,0
413,-153,0,0,0,0,0,0,0,0,0,-1,1637,1177,0,0
420,-153,0,0,0,0,0,0,0,0,0,-1,1644,1177,0,0
427,-153,0,0,0,0,0,0,0,0,0,-1,1651,1177,0,0
434,-153,0,0,0,0,0,0,0,0,0,-1,1658,1177,0,0
441,-153,0,0,0,0,0,0,0,0,0,-1,1665,1177,0,0
448,-153,0,0,0,0,0,0,0,0,0,-1,1672,1177,0,0
455,-153,0,0,0,0,0,0,0,0,0,-1,1679,1177,0,0
462,-153,0,0,0,0,0,0,0,0,0,-1,1686,1177,0,0
469,-153,0,0,0,0,0,0,0,0,0,-1,1693,1177,0,0
476,-153,0,0,0,0,0,0,0,0,0,-1,1700,1177,0,0
483,-153,0,0,0,0,0,0,0,0,0,-1,1707,1177,0,0
490,-153,0,0,0,0,0,0,0,0,0,-1,1714,1177,0,0
497,-153,0,0,0,0,0,0,0,0,0,-1,1721,1177,0,0
504,-153,0,0,0,0,0,0,0,0,0,-1,1728,1177,0,0
511,-153,0,0,0,0,0,0,0,0,0,-1,1735,1177,0,0
518,-153,0,0,0,0,0,0,0,0,0,-1,1742,1177,0,0
525,-153,0,0,0,0,0,0,0,0,0,-1,1749,1177,0,0
532,-153,0,0,0,0,0,0,0,0,0,-1,1756,1177,0,0
539,-153,0,0,0,0,0,0,0,0,0,-1,1763,1177,0,0
546,-153,0,0,0,0,0,0,0,0,0,-1,1770,1177,0,0
553,-153,0,0,0,0,0,0,0,0,0,-1,1777,1177,0,0
560,-153,0,0,0,0,0,0,0,0,0,-1,1784,1177,0,0
567,-153,0,0,0,0,0,0,0,0,0,-1,1791,1177,0,0
574,-153,0,0,0,0,0,0,0,0,0,-1,1798,1177,0,0
581,-153,0,0,0,0,0,0,0,0,0,-1,1805,1177,0,0
588,-153,0,0,0,0,0,0,0,0,0,-1,1812,1177,0,0
595,-153,0,0,0,0,0,0,0,0,0,-1,1819,1177,0,0
602,-153,0,0,0,0,0,0,0,0,0,-1,1826,1177,0,0
609,-153,0,0,0,0,0,0,0,0,0,-1,1833,1177,0,0
616,-153,0,0,0,0,0,0,0,0,0,-1,1840,1177,0,0
623,-153,0,0,0,0,0,0,0,0,0,-1,1847,1177,0,0
630,-153,0,0,0,0,0,0,0,0,0,-1,1854,1177,0,0
637,-153,46.632,2.69226,-0.00761812,0.00318438,-0.00222721,0.00362556,-0.0080593,-1.37524,0.00690624,0.037946,1861,1177,46.6319,-2.69223
644,-153,46.6277,2.56531,-0.00617398,0.00200319,-0.00136984,0.00222656,-0.00639736,-1.40915,0.00516948,0.0363559,1868,1177,46.6277,-2.56531
651,-153,46.5913,2.55029,-0.00463784,0.00135041,-0.000924429,0.00148987,-0.0047773,-1.42107,0.00378065,0.0308487,1875,1177,46.5914,-2.55031
658,-153,46.5475,2.61829,-0.0030021,0.000861338,-0.000728826,0.000994256,-0.00313502,-1.39041,0.00248854,0.0353153,1882,1177,46.5475,-2.6183
665,-153,46.535,2.82202,-0.00133323,0.000500119,-0.000740853,0.00076207,-0.00159518,-1.23094,0.001389,0.0389952,1889,1177,46.535,-2.82204
672,-153,46.5034,2.80127,-0.00058467,0.000102056,-0.000495424,0.000361473,-0.000844087,-1.08843,0.000714379,0.0390875,1896,1177,46.5034,-2.80128
679,-153,46.5033,2.73694,-0.000658564,-0.000281146,-4.26892e-05,-0.000276378,-0.000663332,-1.45956,0.000384745,0.0306925,1903,1177,46.5033,-2.73691
686,-153,46.5253,2.70007,-0.000954416,-0.000668754,0.000253755,-0.000520394,-0.00110278,1.04173,0.000637023,0.0207806,1910,1177,46.5253,-2.70013
693,-153,46.6099,2.61816,-0.00116703,-0.000866153,0.000518951,-0.000476274,-0.00155691,0.926475,0.000921178,0.0367036,1917,1177,46.6098,-2.61818
700,-153,46.7133,2.47437,0,0,0,0,0,0,0,-1,1924,1177,46.7133,-2.47433
707,-153,29.6483,6.6842,0,0,0,0,0,0,0,-1,1931,1177,29.6483,-6.68415
714,-153,36.0046,6.78418,0,0,0,0,0,0,0,-1,1938,1177,36.0046,-6.78418
721,-153,36.4866,6.47595,0,0,0,0,0,0,0,-1,1945,1177,36.4866,-6.47593
728,-153,40.5817,6.78174,0,0,0,0,0,0,0,-1,1952,1177,40.5817,-6.78175
735,-153,40.6305,6.46326,0,0,0,0,0,0,0,-1,1959,1177,40.6306,-6.46329
742,-153,40.7169,6.24585,-0.00170593,-0.000860799,0.00198228,0.000743453,-0.00331018,0.890412,0.00249185,0.0143424,1966,1177,40.7169,-6.24579
749,-153,40.6991,5.88171,-0.00123579,-0.000299705,0.00174748,0.00104133,-0.00257682,0.916246,0.00215073,0.0149199,1973,1177,40.6991,-5.88169
756,-153,40.6908,5.48206,-0.000913983,0.000827902,0.00140328,0.00160854,-0.00169463,1.06313,0.0019073,0.0109087,1980,1177,40.6908,-5.48201
763,-153,40.6575,5.11951,-0.000778435,0.00193879,0.00102536,0.00228229,-0.00112193,1.24754,0.00200313,0.0112479,1987,1177,40.6574,-5.11956
770,-153,40.6434,4.76147,-0.00134035,0.00308098,0.000746577,0.00320365,-0.00146301,1.40795,0.00275606,0.0117934,1994,1177,40.6434,-4.76145
777,-153,40.6431,4.43945,-0.00282681,0.00433021,0.000600898,0.00438031,-0.00287691,1.48761,0.00421982,0.0242729,2001,1177,40.643,-4.43946
784,-153,40.5547,4.14734,-0.00549382,0.00573848,0.000648226,0.00577576,-0.00553111,1.51334,0.00652853,0.0458882,2008,1177,40.5547,-4.14738
791,-153,40.4951,3.84717,0,0,0,0,0,0,0,-1,2015,1177,40.4952,-3.84711
798,-153,40.1067,4.10364,0,0,0,0,0,0,0,-1,2022,1177,40.1066,-4.1036
805,-153,39.4744,3.42114,0,0,0,0,0,0,0,-1,2029,1177,39.4743,-3.42111
812,-153,0,0,0,0,0,0,0,0,0,-1,2036,1177,0,0
-700,-160,0,0,0,0,0,0,0,0,0,-1,524,1184,0,0
-693,-160,0,0,0,0,0,0,0,0,0,-1,531,1184,0,0
-686,-160,-29.8647,0.0655518,0.0879019,-0.0792846,-0.010713,0.0885856,-0.0799683,-0.0637306,0.097357,0.0460528,538,1184,-29.8647,-0.0655666
-679,-160,-29.5388,-0.340698,0.0785864,-0.063713,-0.00580167,0.0788225,-0.0639491,-0.0406809,0.0825782,0.0465377,545,1184,-29.5388,0.340639
-672,-160,-29.2089,-0.713989,0,0,0,0,0,0,0,-1,552,1184,-29.2089,0.714008
-665,-160,-29.4713,-0.892334,0.0560234,-0.0382683,-0.00157166,0.0560496,-0.0382945,-0.0166619,0.0547902,0.0473587,559,1184,-29.4712,0.892383
-658,-160,-28.5723,1.55688,0.044955,-0.0282292,-0.000993768,0.0449685,-0.0282427,-0.0135757,0.0426346,0.0497644,566,1184,-28.5723,-1.55686
-651,-160,-28.0552,1.56067,0,0,0,0,0,0,0,-1,573,1184,-28.0552,-1.56072
-644,-160,-27.9473,1.79675,0.0254473,-0.0130238,-0.00103776,0.0254753,-0.0130517,-0.026949,0.0226258,0.0377271,580,1184,-27.9472,-1.79673
-637,-160,-27.8903,2.03186,0.0176027,-0.0076124,-0.00121602,0.0176612,-0.00767091,-0.048077,0.0149998,0.01434,587,1184,-27.8903,-2.03191
-630,-160,-27.9421,2.40747,0.0110388,-0.00313114,-0.0011459,0.0111309,-0.00322321,-0.0801744,0.00869642,0.00916551,594,1184,-27.9421,-2.40744
-623,-160,-27.9807,2.81677,0.00560464,-0.0003853,-0.00124644,0.00585366,-0.000634319,-0.197188,0.00413015,0.0134943,601,1184,-27.9807,-2.81683
-616,-160,-28.0063,3.25708,0.00243522,0.000718354,-0.00133703,0.00316567,-1.20974e-05,-0.500017,0.00211449,0.0115912,608,1184,-28.0064,-3.25705
-609,-160,-27.9922,3.72241,0.00144525,0.0013799,-0.00161171,0.00302462,-0.000199464,-0.775264,0.00208608,0.0133641,615,1184,-27.9922,-3.72247
-602,-160,-27.868,4.34912,0.00132803,0.00160696,-0.00154933,0.00302309,-8.80931e-05,-0.830285,0.00204539,0.0465827,622,1184,-27.868,-4.34916
-595,-160,-27.9216,5.17993,0,0,0,0,0,0,0,-1,629,1184,-27.9216,-5.1799
-588,-160,-28.6927,4.90259,0,0,0,0,0,0,0,-1,636,1184,-28.6927,-4.90259
-581,-160,-25.2925,4.6272,0,0,0,0,0,0,0,-1,643,1184,-25.2925,-4.62719
-574,-160,-28.1793,4.33484,0,0,0,0,0,0,0,-1,650,1184,-28.1792,-4.33488
-567,-160,-29.5828,0.643921,0,0,0,0,0,0,0,-1,657,1184,-29.5828,-0.643968
-560,-160,-34.4149,0.707764,0,0,0,0,0,0,0,-1,664,1184,-34.4149,-0.707736
-553,-160,-34.4505,0.807129,0,0,0,0,0,0,0,-1,671,1184,-34.4505,-0.807102
-546,-160,-34.3638,0.684448,0,0,0,0,0,0,0,-1,678,1184,-34.3638,-0.684418
-539,-160,-34.6331,0.545776,0.00369612,0.00422378,-0.00260021,0.00657351,0.00134639,-0.835957,0.00400962,0.045511,685,1184,-34.6331,-0.545776
-532,-160,-34.5714,0.74939,0.00595387,0.00370971,-0.00326604,0.00828521,0.00137837,-0.619935,0.00512616,0.0465561,692,1184,-34.5714,-0.749331
-525,-160,-34.3558,0.726929,0.00988041,0.00283004,-0.00532736,0.0127433,-3.28682e-05,-0.493115,0.00850652,0.0443059,699,1184,-34.3558,-0.726917
-518,-160,-34.3871,1.09009,0,0,0,0,0,0,0,-1,706,1184,-34.3871,-1.09014
-511,-160,0,0,0,0,0,0,0,0,0,-1,713,1184,0,0
-504,-160,0,0,0,0,0,0,0,0,0,-1,720,1184,0,0
-497,-160,0,0,0,0,0,0,0,0,0,-1,727,1184,0,0
-490,-160,0,0,0,0,0,0,0,0,0,-1,734,1184,0,0
-483,-160,0,0,0,0,0,0,0,0,0,-1,741,1184,0,0
-476,-160,0,0,0,0,0,0,0,0,0,-1,748,1184,0,0
-469,-160,0,0,0,0,0,0,0,0,0,-1,755,1184,0,0
-462,-160,0,0,0,0,0,0,0,0,0,-1,762,1184,0,0
-455,-160,0,0,0,0,0,0,0,0,0,-1,769,1184,0,0
-448,-160,0,0,0,0,0,0,0,0,0,-1,776,1184,0,0
-441,-160,0,0,0,0,0,0,0,0,0,-1,783,1184,0,0
-434,-160,0,0,0,0,0,0,0,0,0,-1,790,1184,0,0
-427,-160,0,0,0,0,0,0,0,0,0,-1,797,1184,0,0
-420,-160,0,0,0,0,0,0,0,0,0,-1,804,1184,0,0
-413,-160,0,0,0,0,0,0,0,0,0,-1,811,1184,0,0
-406,-160,0,0,0,0,0,0,0,0,0,-1,818,1184,0,0
-399,-160,0,0,0,0,0,0,0,0,0,-1,825,1184,0,0
-392,-160,0,0,0,0,0,0,0,0,0,-1,832,1184,0,0
-385,-160,0,0,0,0,0,0,0,0,0,-1,839,1184,0,0
-378,-160,0,0,0,0,0,0,0,0,0,-1,846,1184,0,0
-371,-160,0,0,0,0,0,0,0,0,0,-1,853,1184,0,0
-364,-160,0,0,0,0,0,0,0,0,0,-1,860,1184,0,0
-357,-160,0,0,0,0,0,0,0,0,0,-1,867,1184,0,0
-350,-160,0,0,0,0,0,0,0,0,0,-1,874,1184,0,0
-343,-160,0,0,0,0,0,0,0,0,0,-1,881,1184,0,0
-336,-160,0,0,0,0,0,0,0,0,0,-1,888,1184,0,0
-329,-160,0,0,0,0,0,0,0,0,0,-1,895,1184,0,0
-322,-160,0,0,0,0,0,0,0,0,0,-1,902,1184,0,0
-315,-160,0,0,0,0,0,0,0,0,0,-1,909,1184,0,0
-308,-160,0,0,0,0,0,0,0,0,0,-1,916,1184,0,0
-301,-160,0,0,0,0,0,0,0,0,0,-1,923,1184,0,0
-294,-160,0,0,0,0,0,0,0,0,0,-1,930,1184,0,0
-287,-160,0,0,0,0,0,0,0,0,0,-1,937,1184,0,0
-280,-160,0,0,0,0,0,0,0,0,0,-1,944,1184,0,0
-273,-160,0,0,0,0,0,0,0,0,0,-1,951,1184,0,0
-266,-160,0,0,0,0,0,0,0,0,0,-1,958,1184,0,0
-259,-160,0,0,0,0,0,0,0,0,0,-1,965,1184,0,0
-252,-160,0,0,0,0,0,0,0,0,0,-1,972,1184,0,0
-245,-160,0,0,0,0,0,0,0,0,0,-1,979,1184,0,0
-238,-160,0,0,0,0,0,0,0,0,0,-1,986,1184,0,0
-231,-160,0,0,0,0,0,0,0,0,0,-1,993,1184,0,0
-224,-160,0,0,0,0,0,0,0,0,0,-1,1000,1184,0,0
-217,-160,0,0,0,0,0,0,0,0,0,-1,1007,1184,0,0
-210,-160,0,0,0,0,0,0,0,0,0,-1,1014,1184,0,0
-203,-160,0,0,0,0,0,0,0,0,0,-1,1021,1184,0,0
-196,-160,0,0,0,0,0,0,0,0,0,-1,1028,1184,0,0
-189,-160,0,0,0,0,0,0,0,0,0,-1,1035,1184,0,0
-182,-160,0,0,0,0,0,0,0,0,0,-1,1042,1184,0,0
-175,-160,0,0,0,0,0,0,0,0,0,-1,1049,1184,0,0
-168,-160,0,0,0,0,0,0,0,0,0,-1,1056,1184,0,0
-161,-160,0,0,0,0,0,0,0,0,0,-1,1063,1184,0,0
-154,-160,0,0,0,0,0,0,0,0,0,-1,1070,1184,0,0
-147,-160,0,0,0,0,0,0,0,0,0,-1,1077,1184,0,0
-140,-160,0,0,0,0,0,0,0,0,0,-1,1084,1184,0,0
-133,-160,0,0,0,0,0,0,0,0,0,-1,1091,1184,0,0
-126,-160,0,0,0,0,0,0,0,0,0,-1,1098,1184,0,0
-119,-160,0,0,0,0,0,0,0,0,0,-1,1105,1184,0,0
-112,-160,0,0,0,0,0,0,0,0,0,-1,1112,1184,0,0
-105,-160,0,0,0,0,0,0,0,0,0,-1,1119,1184,0,0
-98,-160,0,0,0,0,0,0,0,0,0,-1,1126,1184,0,0
-91,-160,0,0,0,0,0,0,0,0,0,-1,1133,1184,0,0
-84,-160,0,0,0,0,0,0,0,0,0,-1,1140,1184,0,0
-77,-160,0,0,0,0,0,0,0,0,0,-1,1147,1184,0,0
-70,-160,0,0,0,0,0,0,0,0,0,-1,1154,1184,0,0
-63,-160,0,0,0,0,0,0,0,0,0,-1,1161,1184,0,0
-56,-160,0,0,0,0,0,0,0,0,0,-1,1168,1184,0,0
-49,-160,0,0,0,0,0,0,0,0,0,-1,1175,1184,0,0
-42,-160,0,0,0,0,0,0,0,0,0,-1,1182,1184,0,0
-35,-160,0,0,0,0,0,0,0,0,0,-1,1189,1184,0,0
-28,-160,0,0,0,0,0,0,0,0,0,-1,1196,1184,0,0
-21,-160,0,0,0,0,0,0,0,0,0,-1,1203,1184,0,0
-14,-160,0,0,0,0,0,0,0,0,0,-1,1210,1184,0,0
-7,-160,0,0,0,0,0,0,0,0,0,-1,1217,1184,0,0
0,-160,0,0,0,0,0,0,0,0,0,-1,1224,1184,0,0
7,-160,0,0,0,0,0,0,0,0,0,-1,1231,1184,0,0
14,-160,0,0,0,0,0,0,0,0,0,-1,1238,1184,0,0
21,-160,0,0,0,0,0,0,0,0,0,-1,1245,1184,0,0
28,-160,0,0,0,0,0,0,0,0,0,-1,1252,1184,0,0
35,-160,0,0,0,0,0,0,0,0,0,-1,1259,1184,0,0
42,-160,0,0,0,0,0,0,0,0,0,-1,1266,1184,0,0
49,-160,0,0,0,0,0,0,0,0,0,-1,1273,1184,0,0
56,-160,0,0,0,0,0,0,0,0,0,-1,1280,1184,0,0
63,-160,0,0,0,0,0,0,0,0,0,-1,1287,1184,0,0
70,-160,0,0,0,0,0,0,0,0,0,-1,1294,1184,0,0
77,-160,0,0,0,0,0,0,0,0,0,-1,1301,1184,0,0
84,-160,0,0,0,0,0,0,0,0,0,-1,1308,1184,0,0
91,-160,0,0,0,0,0,0,0,0,0,-1,1315,1184,0,0
98,-160,0,0,0,0,0,0,0,0,0,-1,1322,1184,0,0
105,-160,0,0,0,0,0,0,0,0,0,-1,1329,1184,0,0
112,-160,0,0,0,0,0,0,0,0,0,-1,1336,1184,0,0
119,-160,0,0,0,0,0,0,0,0,0,-1,1343,1184,0,0
126,-160,0,0,0,0,0,0,0,0,0,-1,1350,1184,0,0
133,-160,0,0,0,0,0,0,0,0,0,-1,1357,1184,0,0
140,-160,0,0,0,0,0,0,0,0,0,-1,1364,1184,0,0
147,-160,0,0,0,0,0,0,0,0,0,-1,1371,1184,0,0
154,-160,0,0,0,0,0,0,0,0,0,-1,1378,1184,0,0
161,-160,0,0,0,0,0,0,0,0,0,-1,1385,1184,0,0
168,-160,0,0,0,0,0,0,0,0,0,-1,1392,1184,0,0
175,-160,0,0,0,0,0,0,0,0,0,-1,1399,1184,0,0
182,-160,0,0,0,0,0,0,0,0,0,-1,1406,1184,0,0
189,-160,0,0,0,0,0,0,0,0,0,-1,1413,1184,0,0
196,-160,0,0,0,0,0,0,0,0,0,-1,1420,1184,0,0
203,-160,0,0,0,0,0,0,0,0,0,-1,1427,1184,0,0
210,-160,0,0,0,0,0,0,0,0,0,-1,1434,1184,0,0
217,-160,0,0,0,0,0,0,0,0,0,-1,1441,1184,0,0
224,-160,0,0,0,0,0,0,0,0,0,-1,1448,1184,0,0
231,-160,0,0,0,0,0,0,0,0,0,-1,1455,1184,0,0
238,-160,0,0,0,0,0,0,0,0,0,-1,1462,1184,0,0
245,-160,0,0,0,0,0,0,0,0,0,-1,1469,1184,0,0
252,-160,0,0,0,0,0,0,0,0,0,-1,1476,1184,0,0
259,-160,0,0,0,0,0,0,0,0,0,-1,1483,1184,0,0
266,-160,0,0,0,0,0,0,0,0,0,-1,1490,1184,0,0
273,-160,0,0,0,0,0,0,0,0,0,-1,1497,1184,0,0
280,-160,0,0,0,0,0,0,0,0,0,-1,1504,1184,0,0
287,-160,0,0,0,0,0,0,0,0,0,-1,1511,1184,0,0
294,-160,0,0,0,0,0,0,0,0,0,-1,1518,1184,0,0
301,-160,0,0,0,0,0,0,0,0,0,-1,1525,1184,0,0
308,-160,0,0,0,0,0,0,0,0,0,-1,1532,1184,0,0
315,-160,0,0,0,0,0,0,0,0,0,-1,1539,1184,0,0
322,-160,0,0,0,0,0,0,0,0,0,-1,1546,1184,0,0
329,-160,0,0,0,0,0,0,0,0,0,-1,1553,1184,0,0
336,-160,0,0,0,0,0,0,0,0,0,-1,1560,1184,0,0
343,-160,0,0,0,0,0,0,0,0,0,-1,1567,1184,0,0
350,-160,0,0,0,0,0,0,0,0,0,-1,1574,1184,0,0
357,-160,0,0,0,0,0,0,0,0,0,-1,1581,1184,0,0
364,-160,0,0,0,0,0,0,0,0,0,-1,1588,1184,0,0
371,-160,0,0,0,0,0,0,0,0,0,-1,1595,1184,0,0
378,-160,0,0,0,0,0,0,0,0,0,-1,1602,1184,0,0
385,-160,0,0,0,0,0,0,0,0,0,-1,1609,1184,0,0
392,-160,0,0,0,0,0,0,0,0,0,-1,1616,1184,0,0
399,-160,0,0,0,0,0,0,0,0,0,-1,1623,1184,0,0
406,-160,0,0,0,0,0,0,0,0,0,-1,1630,1184,0,0
413,-160,0,0,0,0,0,0,0,0,0,-1,1637,1184,0,0
420,-160,0,0,0,0,0,0,0,0,0,-1,1644,1184,0,0
427,-160,0,0,0,0,0,0,0,0,0,-1,1651,1184,0,0
434,-160,0,0,0,0,0,0,0,0,0,-1,1658,1184,0,0
441,-160,0,0,0,0,0,0,0,0,0,-1,1665,1184,0,0
448,-160,0,0,0,0,0,0,0,0,0,-1,1672,1184,0,0
455,-160,0,0,0,0,0,0,0,0,0,-1,1679,1184,0,0
462,-160,0,0,0,0,0,0,0,0,0,-1,1686,1184,0,0
469,-160,0,0,0,0,0,0,0,0,0,-1,1693,1184,0,0
476,-160,0,0,0,0,0,0,0,0,0,-1,1700,1184,0,0
483,-160,0,0,0,0,0,0,0,0,0,-1,1707,1184,0,0
490,-160,0,0,0,0,0,0,0,0,0,-1,1714,1184,0,0
497,-160,0,0,0,0,0,0,0,0,0,-1,1721,1184,0,0
504,-160,0,0,0,0,0,0,0,0,0,-1,1728,1184,0,0
511,-160,0,0,0,0,0,0,0,0,0,-1,1735,1184,0,0
518,-160,0,0,0,0,0,0,0,0,0,-1,1742,1184,0,0
525,-160,0,0,0,0,0,0,0,0,0,-1,1749,1184,0,0
532,-160,0,0,0,0,0,0,0,0,0,-1,1756,1184,0,0
539,-160,0,0,0,0,0,0,0,0,0,-1,1763,1184,0,0
546,-160,0,0,0,0,0,0,0,0,0,-1,1770,1184,0,0
553,-160,0,0,0,0,0,0,0,0,0,-1,1777,1184,0,0
560,-160,0,0,0,0,0,0,0,0,0,-1,1784,1184,0,0
567,-160,0,0,0,0,0,0,0,0,0,-1,1791,1184,0,0
574,-160,0,0,0,0,0,0,0,0,0,-1,1798,1184,0,0
581,-160,0,0,0,0,0,0,0,0,0,-1,1805,1184,0,0
588,-160,0,0,0,0,0,0,0,0,0,-1,1812,1184,0,0
595,-160,0,0,0,0,0,0,0,0,0,-1,1819,1184,0,0
602,-160,0,0,0,0,0,0,0,0,0,-1,1826,1184,0,0
609,-160,0,0,0,0,0,0,0,0,0,-1,1833,1184,0,0
616,-160,0,0,0,0,0,0,0,0,0,-1,1840,1184,0,0
623,-160,0,0,0,0,0,0,0,0,0,-1,1847,1184,0,0
630,-160,0,0,0,0,0,0,0,0,0,-1,1854,1184,0,0
637,-160,46.9055,2.74866,-0.00725436,0.00296812,-0.00107355,0.00307965,-0.00736588,-1.46728,0.00619766,0.0399595,1861,1184,46.9055,-2.7486
644,-160,46.7831,2.55725,-0.00587924,0.00193021,-0.000699949,0.00199245,-0.00594148,-1.48211,0.00476605,0.0396957,1868,1184,46.7831,-2.55726
651,-160,46.6466,2.39868,-0.00431521,0.00137788,-0.000603997,0.00144125,-0.00437859,-1.46625,0.00349983,0.0381833,1875,1184,46.6466,-2.39866
658,-160,46.5601,2.5448,-0.00258601,0.000977846,-0.000773543,0.0011385,-0.00274667,-1.36602,0.00230627,0.0394535,1882,1184,46.56,-2.54479
665,-160,46.6067,2.76831,-0.000825367,0.000627937,-0.00111404,0.00123137,-0.0014288,-1.07438,0.00153726,0.040078,1889,1184,46.6066,-2.7683
672,-160,46.5785,2.86072,-0.000213231,0.000131188,-0.000977199,0.000951236,-0.00103328,-0.872616,0.00114609,0.0344957,1896,1184,46.5785,-2.86066
679,-160,46.5334,2.71777,-0.000424217,-0.000321604,-0.000577338,0.000206703,-0.000952524,-0.829715,0.000713962,0.0283588,1903,1184,46.5335,-2.71777
686,-160,46.5618,2.6748,-0.000803579,-0.000759579,-0.000258221,-0.000522422,-0.00104074,-0.827894,0.000600871,0.020002,1910,1184,46.5618,-2.67486
693,-160,46.6328,2.55676,0,0,0,0,0,0,0,-1,1917,1184,46.6328,-2.55671
700,-160,42.8784,2.44617,0,0,0,0,0,0,0,-1,1924,1184,42.8785,-2.4462
707,-160,24.5115,6.27405,0,0,0,0,0,0,0,-1,1931,1184,24.5115,-6.27401
714,-160,35.6892,6.8905,0,0,0,0,0,0,0,-1,1938,1184,35.6892,-6.89048
721,-160,36.2388,6.37878,0,0,0,0,0,0,0,-1,1945,1184,36.2388,-6.37876
728,-160,40.2997,7.04944,0,0,0,0,0,0,0,-1,1952,1184,40.2997,-7.04945
735,-160,40.4064,6.58435,-0.00205384,-0.00136117,0.0018484,0.000173067,-0.00358807,0.878008,0.00245178,0.0302321,1959,1184,40.4064,-6.58431
742,-160,40.3212,6.21704,-0.00172562,-0.000998237,0.00182662,0.000500548,-0.0032244,0.883666,0.00233441,0.0166295,1966,1184,40.3211,-6.21701
749,-160,40.3015,5.83911,-0.00104789,-0.000328031,0.0014348,0.0007913,-0.00216722,0.90829,0.0017686,0.017426,1973,1184,40.3015,-5.83913
756,-160,40.304,5.46484,-0.000497355,0.00110756,0.000620142,0.00131926,-0.000709054,1.24183,0.00118858,0.0112381,1980,1184,40.3039,-5.46485
763,-160,40.2572,5.11096,-5.68127e-05,0.00264283,-0.000506106,0.00273459,-0.000148574,-1.39144,0.00187455,0.0122602,1987,1184,40.2572,-5.11096
770,-160,40.1926,4.71753,-0.000247842,0.00442288,-0.00186302,0.00507495,-0.000899913,-1.23411,0.00371973,0.0238649,1994,1184,40.1927,-4.71753
777,-160,40.3207,4.43152,-0.00130818,0.00663726,-0.00353231,0.00798053,-0.00265144,-1.2074,0.00639023,0.0350344,2001,1184,40.3207,-4.43148
784,-160,40.491,3.8811,-0.0034301,0.00946121,-0.00560069,0.0115545,-0.00552343,-1.21311,0.0100628,0.0439065,2008,1184,40.4909,-3.88109
791,-160,40.3586,3.3147,0,0,0,0,0,0,0,-1,2015,1184,40.3586,-3.31474
798,-160,40.3486,2.67944,0,0,0,0,0,0,0,-1,2022,1184,40.3487,-2.67948
805,-160,39.0933,2.33533,0,0,0,0,0,0,0,-1,2029,1184,39.0932,-2.33537
812,-160,0,0,0,0,0,0,0,0,0,-1,2036,1184,0,0
-700,-167,0,0,0,0,0,0,0,0,0,-1,524,1191,0,0
-693,-167,0,0,0,0,0,0,0,0,0,-1,531,1191,0,0
-686,-167,-29.555,0.569336,0.0847157,-0.0799132,-0.0199928,0.0871089,-0.0823063,-0.119135,0.097825,0.0447931,538,1191,-29.555,-0.569303
-679,-167,-29.2451,0.287598,0.0773041,-0.0633333,-0.0139167,0.078668,-0.0646972,-0.0976919,0.0829028,0.0423324,545,1191,-29.2451,-0.287591
-672,-167,-29.0756,1.52405,0,0,0,0,0,0,0,-1,552,1191,-29.0756,-1.52401
-665,-167,-30.3518,0.199829,0,0,0,0,0,0,0,-1,559,1191,-30.3518,-0.199887
-658,-167,-28.3389,1.87256,0,0,0,0,0,0,0,-1,566,1191,-28.3389,-1.8725
-651,-167,-27.7023,1.6604,0,0,0,0,0,0,0,-1,573,1191,-27.7023,-1.66043
-644,-167,-27.5463,1.84912,0.0266809,-0.0120588,-0.00332859,0.0269648,-0.0123427,-0.0850907,0.0232117,0.042146,580,1191,-27.5463,-1.84906
-637,-167,-27.4212,2.0293,0.0187065,-0.00694946,-0.00275544,0.0189991,-0.00724205,-0.105792,0.015649,0.0182481,587,1191,-27.4212,-2.02929
-630,-167,-27.4958,2.40308,0.012049,-0.00266711,-0.00206597,0.0123335,-0.00295165,-0.136865,0.00936261,0.00941456,594,1191,-27.4958,-2.4031
-623,-167,-27.5289,2.79272,0.00636649,-5.55343e-05,-0.00169405,0.00678596,-0.000475007,-0.242733,0.00469033,0.0128534,601,1191,-27.5289,-2.79272
-616,-167,-27.5745,3.24475,0.0026601,0.000800513,-0.00152112,0.00351309,-5.24757e-05,-0.51107,0.00235975,0.0163712,608,1191,-27.5745,-3.2448
-609,-167,-27.5761,3.71472,0.0011407,0.00129504,-0.00167457,0.00289421,-0.000458476,-0.808424,0.00209906,0.0136291,615,1191,-27.5761,-3.71477
-602,-167,-27.5795,4.12939,0.000910639,0.00135723,-0.00158319,0.00273279,-0.00046492,-0.855457,0.00199498,0.0154545,622,1191,-27.5795,-4.12944
-595,-167,-27.438,4.4812,0,0,0,0,0,0,0,-1,629,1191,-27.438,-4.48114
-588,-167,-27.697,4.83801,0,0,0,0,0,0,0,-1,636,1191,-27.697,-4.83796
-581,-167,-27.8011,5.22107,0,0,0,0,0,0,0,-1,643,1191,-27.8012,-5.22101
-574,-167,-24.1547,5.43677,0,0,0,0,0,0,0,-1,650,1191,-24.1547,-5.43682
-567,-167,-27.3643,2.55859,0,0,0,0,0,0,0,-1,657,1191,-27.3643,-2.55864
-560,-167,-34.5644,1.07617,0,0,0,0,0,0,0,-1,664,1191,-34.5644,-1.07613
-553,-167,-34.5008,1.02466,0.0017323,0.00402149,-0.00163898,0.00487599,0.000877803,-1.09021,0.00300116,0.0403544,671,1191,-34.5008,-1.02471
-546,-167,-34.5128,0.94043,0.00217636,0.0043281,-0.00168431,0.00525083,0.00125363,-1.06962,0.0031665,0.0389566,678,1191,-34.5128,-0.940422
-539,-167,-34.4578,0.579102,0.00293344,0.00473381,-0.00167777,0.00573764,0.00192961,-1.03162,0.00337128,0.0417077,685,1191,-34.4578,-0.579155
-532,-167,-34.2672,0.798218,0.00443795,0.00442988,-0.00213773,0.00657165,0.00229618,-0.784454,0.00385108,0.0469233,692,1191,-34.2671,-0.798167
-525,-167,-34.2274,1.11243,0.00799439,0.00322519,-0.00414067,0.010388,0.000831559,-0.524144,0.00666547,0.0471513,699,1191,-34.2274,-1.11243
-518,-167,-34.3214,1.17578,0,0,0,0,0,0,0,-1,706,1191,-34.3213,-1.1758
-511,-167,0,0,0,0,0,0,0,0,0,-1,713,1191,0,0
-504,-167,0,0,0,0,0,0,0,0,0,-1,720,1191,0,0
-497,-167,0,0,0,0,0,0,0,0,0,-1,727,1191,0,0
-490,-167,0,0,0,0,0,0,0,0,0,-1,734,1191,0,0
-483,-167,0,0,0,0,0,0,0,0,0,-1,741,1191,0,0
-476,-167,0,0,0,0,0,0,0,0,0,-1,748,1191,0,0
-469,-167,0,0,0,0,0,0,0,0,0,-1,755,1191,0,0
-462,-167,0,0,0,0,0,0,0,0,0,-1,762,1191,0,0
-455,-167,0,0,0,0,0,0,0,0,0,-1,769,1191,0,0
-448,-167,0,0,0,0,0,0,0,0,0,-1,776,1191,0,0
-441,-167,0,0,0,0,0,0,0,0,0,-1,783,1191,0,0
-434,-167,0,0,0,0,0,0,0,0,0,-1,790,1191,0,0
-427,-167,0,0,0,0,0,0,0,0,0,-1,797,1191,0,0
-420,-167,0,0,0,0,0,0,0,0,0,-1,804,1191,0,0
-413,-167,0,0,0,0,0,0,0,0,0,-1,811,1191,0,0
-406,-167,0,0,0,0,0,0,0,0,0,-1,818,1191,0,0
-399,-167,0,0,0,0,0,0,0,0,0,-1,825,1191,0,0
-392,-167,0,0,0,0,0,0,0,0,0,-1,832,1191,0,0
-385,-167,0,0,0,0,0,0,0,0,0,-1,839,1191,0,0
-378,-167,0,0,0,0,0,0,0,0,0,-1,846,1191,0,0
-371,-167,0,0,0,0,0,0,0,0,0,-1,853,1191,0,0
-364,-167,0,0,0,0,0,0,0,0,0,-1,860,1191,0,0
-357,-167,0,0,0,0,0,0,0,0,0,-1,867,1191,0,0
-350,-167,0,0,0,0,0,0,0,0,0,-1,874,1191,0,0
-343,-167,0,0,0,0,0,0,0,0,0,-1,881,1191,0,0
-336,-167,0,0,0,0,0,0,0,0,0,-1,888,1191,0,0
-329,-167,0,0,0,0,0,0,0,0,0,-1,895,1191,0,0
-322,-167,0,0,0,0,0,0,0,0,0,-1,902,1191,0,0
-315,-167,0,0,0,0,0,0,0,0,0,-1,909,1191,0,0
-308,-167,0,0,0,0,0,0,0,0,0,-1,916,1191,0,0
-301,-167,0,0,0,0,0,0,0,0,0,-1,923,1191,0,0
-294,-167,0,0,0,0,0,0,0,0,0,-1,930,1191,0,0
-287,-167,0,0,0,0,0,0,0,0,0,-1,937,1191,0,0
-280,-167,0,0,0,0,0,0,0,0,0,-1,944,1191,0,0
-273,-167,0,0,0,0,0,0,0,0,0,-1,951,1191,0,0
-266,-167,0,0,0,0,0,0,0,0,0,-1,958,1191,0,0
-259,-167,0,0,0,0,0,0,0,0,0,-1,965,1191,0,0
-252,-167,0,0,0,0,0,0,0,0,0,-1,972,1191,0,0
-245,-167,0,0,0,0,0,0,0,0,0,-1,979,1191,0,0
-238,-167,0,0,0,0,0,0,0,0,0,-1,986,1191,0,0
-231,-167,0,0,0,0,0,0,0,0,0,-1,993,1191,0,0
-224,-167,0,0,0,0,0,0,0,0,0,-1,1000,1191,0,0
-217,-167,0,0,0,0,0,0,0,0,0,-1,1007,1191,0,0
-210,-167,0,0,0,0,0,0,0,0,0,-1,1014,1191,0,0
-203,-167,0,0,0,0,0,0,0,0,0,-1,1021,1191,0,0
-196,-167,0,0,0,0,0,0,0,0,0,-1,1028,1191,0,0
-189,-167,0,0,0,0,0,0,0,0,0,-1,1035,1191,0,0
-182,-167,0,0,0,0,0,0,0,0,0,-1,1042,1191,0,0
-175,-167,0,0,0,0,0,0,0,0,0,-1,1049,1191,0,0
-168,-167,0,0,0,0,0,0,0,0,0,-1,1056,1191,0,0
-161,-167,0,0,0,0,0,0,0,0,0,-1,1063,1191,0,0
-154,-167,0,0,0,0,0,0,0,0,0,-1,1070,1191,0,0
-147,-167,0,0,0,0,0,0,0,0,0,-1,1077,1191,0,0
-140,-167,0,0,0,0,0,0,0,0,0,-1,1084,1191,0,0
-133,-167,0,0,0,0,0,0,0,0,0,-1,1091,1191,0,0
-126,-167,0,0,0,0,0,0,0,0,0,-1,1098,1191,0,0
-119,-167,0,0,0,0,0,0,0,0,0,-1,1105,1191,0,0
-112,-167,0,0,0,0,0,0,0,0,0,-1,1112,1191,0,0
-105,-167,0,0,0,0,0,0,0,0,0,-1,1119,1191,0,0
-98,-167,0,0,0,0,0,0,0,0,0,-1,1126,1191,0,0
-91,-167,0,0,0,0,0,0,0,0,0,-1,1133,1191,0,0
-84,-167,0,0,0,0,0,0,0,0,0,-1,1140,1191,0,0
-77,-167,0,0,0,0,0,0,0,0,0,-1,1147,1191,0,0
-70,-167,0,0,0,0,0,0,0,0,0,-1,1154,1191,0,0
-63,-167,0,0,0,0,0,0,0,0,0,-1,1161,1191,0,0
-56,-167,0,0,0,0,0,0,0,0,0,-1,1168,1191,0,0
-49,-167,0,0,0,0,0,0,0,0,0,-1,1175,1191,0,0
-42,-167,0,0,0,0,0,0,0,0,0,-1,1182,1191,0,0
-35,-167,0,0,0,0,0,0,0,0,0,-1,1189,1191,0,0
-28,-167,0,0,0,0,0,0,0,0,0,-1,1196,1191,0,0
-21,-167,0,0,0,0,0,0,0,0,0,-1,1203,1191,0,0
-14,-167,0,0,0,0,0,0,0,0,0,-1,1210,1191,0,0
-7,-167,0,0,0,0,0,0,0,0,0,-1,1217,1191,0,0
0,-167,0,0,0,0,0,0,0,0,0,-1,1224,1191,0,0
7,-167,0,0,0,0,0,0,0,0,0,-1,1231,1191,0,0
14,-167,0,0,0,0,0,0,0,0,0,-1,1238,1191,0,0
21,-167,0,0,0,0,0,0,0,0,0,-1,1245,1191,0,0
28,-167,0,0,0,0,0,0,0,0,0,-1,1252,1191,0,0
35,-167,0,0,0,0,0,0,0,0,0,-1,1259,1191,0,0
42,-167,0,0,0,0,0,0,0,0,0,-1,1266,1191,0,0
49,-167,0,0,0,0,0,0,0,0,0,-1,1273,1191,0,0
56,-167,0,0,0,0,0,0,0,0,0,-1,1280,1191,0,0
63,-167,0,0,0,0,0,0,0,0,0,-1,1287,1191,0,0
70,-167,0,0,0,0,0,0,0,0,0,-1,1294,1191,0,0
77,-167,0,0,0,0,0,0,0,0,0,-1,1301,1191,0,0
84,-167,0,0,0,0,0,0,0,0,0,-1,1308,1191,0,0
91,-167,0,0,0,0,0,0,0,0,0,-1,1315,1191,0,0
98,-167,0,0,0,0,0,0,0,0,0,-1,1322,1191,0,0
105,-167,0,0,0,0,0,0,0,0,0,-1,1329,1191,0,0
112,-167,0,0,0,0,0,0,0,0,0,-1,1336,1191,0,0
119,-167,0,0,0,0,0,0,0,0,0,-1,1343,1191,0,0
126,-167,0,0,0,0,0,0,0,0,0,-1,1350,1191,0,0
133,-167,0,0,0,0,0,0,0,0,0,-1,1357,1191,0,0
140,-167,0,0,0,0,0,0,0,0,0,-1,1364,1191,0,0
147,-167,0,0,0,0,0,0,0,0,0,-1,1371,1191,0,0
154,-167,0,0,0,0,0,0,0,0,0,-1,1378,1191,0,0
161,-167,0,0,0,0,0,0,0,0,0,-1,1385,1191,0,0
168,-167,0,0,0,0,0,0,0,0,0,-1,1392,1191,0,0
175,-167,0,0,0,0,0,0,0,0,0,-1,1399,1191,0,0
182,-167,0,0,0,0,0,0,0,0,0,-1,1406,1191,0,0
189,-167,0,0,0,0,0,0,0,0,0,-1,1413,1191,0,0
196,-167,0,0,0,0,0,0,0,0,0,-1,1420,1191,0,0
203,-167,0,0,0,0,0,0,0,0,0,-1,1427,1191,0,0
210,-167,0,0,0,0,0,0,0,0,0,-1,1434,1191,0,0
217,-167,0,0,0,0,0,0,0,0,0,-1,1441,1191,0,0
224,-167,0,0,0,0,0,0,0,0,0,-1,1448,1191,0,0
231,-167,0,0,0,0,0,0,0,0,0,-1,1455,1191,0,0
238,-167,0,0,0,0,0,0,0,0,0,-1,1462,1191,0,0
245,-167,0,0,0,0,0,0,0,0,0,-1,1469,1191,0,0
252,-167,0,0,0,0,0,0,0,0,0,-1,1476,1191,0,0
259,-167,0,0,0,0,0,0,0,0,0,-1,1483,1191,0,0
266,-167,0,0,0,0,0,0,0,0,0,-1,1490,1191,0,0
273,-167,0,0,0,0,0,0,0,0,0,-1,1497,1191,0,0
280,-167,0,0,0,0,0,0,0,0,0,-1,1504,1191,0,0
287,-167,0,0,0,0,0,0,0,0,0,-1,1511,1191,0,0
294,-167,0,0,0,0,0,0,0,0,0,-1,1518,1191,0,0
301,-167,0,0,0,0,0,0,0,0,0,-1,1525,1191,0,0
308,-167,0,0,0,0,0,0,0,0,0,-1,1532,1191,0,0
315,-167,0,0,0,0,0,0,0,0,0,-1,1539,1191,0,0
322,-167,0,0,0,0,0,0,0,0,0,-1,1546,1191,0,0
329,-167,0,0,0,0,0,0,0,0,0,-1,1553,1191,0,0
336,-167,0,0,0,0,0,0,0,0,0,-1,1560,1191,0,0
343,-167,0,0,0,0,0,0,0,0,0,-1,1567,1191,0,0
350,-167,0,0,0,0,0,0,0,0,0,-1,1574,1191,0,0
357,-167,0,0,0,0,0,0,0,0,0,-1,1581,1191,0,0
364,-167,0,0,0,0,0,0,0,0,0,-1,1588,1191,0,0
371,-167,0,0,0,0,0,0,0,0,0,-1,1595,1191,0,0
378,-167,0,0,0,0,0,0,0,0,0,-1,1602,1191,0,0
385,-167,0,0,0,0,0,0,0,0,0,-1,1609,1191,0,0
392,-167,0,0,0,0,0,0,0,0,0,-1,1616,1191,0,0
399,-167,0,0,0,0,0,0,0,0,0,-1,1623,1191,0,0
406,-167,0,0,0,0,0,0,0,0,0,-1,1630,1191,0,0
413,-167,0,0,0,0,0,0,0,0,0,-1,1637,1191,0,0
420,-167,0,0,0,0,0,0,0,0,0,-1,1644,1191,0,0
427,-167,0,0,0,0,0,0,0,0,0,-1,1651,1191,0,0
434,-167,0,0,0,0,0,0,0,0,0,-1,1658,1191,0,0
441,-167,0,0,0,0,0,0,0,0,0,-1,1665,1191,0,0
448,-167,0,0,0,0,0,0,0,0,0,-1,1672,1191,0,0
455,-167,0,0,0,0,0,0,0,0,0,-1,1679,1191,0,0
462,-167,0,0,0,0,0,0,0,0,0,-1,1686,1191,0,0
469,-167,0,0,0,0,0,0,0,0,0,-1,1693,1191,0,0
476,-167,0,0,0,0,0,0,0,0,0,-1,1700,1191,0,0
483,-167,0,0,0,0,0,0,0,0,0,-1,1707,1191,0,0
490,-167,0,0,0,0,0,0,0,0,0,-1,1714,1191,0,0
497,-167,0,0,0,0,0,0,0,0,0,-1,1721,1191,0,0
504,-167,0,0,0,0,0,0,0,0,0,-1,1728,1191,0,0
511,-167,0,0,0,0,0,0,0,0,0,-1,1735,1191,0,0
518,-167,0,0,0,0,0,0,0,0,0,-1,1742,1191,0,0
525,-167,0,0,0,0,0,0,0,0,0,-1,1749,1191,0,0
532,-167,0,0,0,0,0,0,0,0,0,-1,1756,1191,0,0
539,-167,0,0,0,0,0,0,0,0,0,-1,1763,1191,0,0
546,-167,0,0,0,0,0,0,0,0,0,-1,1770,1191,0,0
553,-167,0,0,0,0,0,0,0,0,0,-1,1777,1191,0,0
560,-167,0,0,0,0,0,0,0,0,0,-1,1784,1191,0,0
567,-167,0,0,0,0,0,0,0,0,0,-1,1791,1191,0,0
574,-167,0,0,0,0,0,0,0,0,0,-1,1798,1191,0,0
581,-167,0,0,0,0,0,0,0,0,0,-1,1805,1191,0,0
588,-167,0,0,0,0,0,0,0,0,0,-1,1812,1191,0,0
595,-167,0,0,0,0,0,0,0,0,0,-1,1819,1191,0,0
602,-167,0,0,0,0,0,0,0,0,0,-1,1826,1191,0,0
609,-167,0,0,0,0,0,0,0,0,0,-1,1833,1191,0,0
616,-167,0,0,0,0,0,0,0,0,0,-1,1840,1191,0,0
623,-167,0,0,0,0,0,0,0,0,0,-1,1847,1191,0,0
630,-167,0,0,0,0,0,0,0,0,0,-1,1854,1191,0,0
637,-167,47.0129,2.69641,-0.00678747,0.00227765,0.000483886,0.0023034,-0.00681322,1.51762,0.00547395,0.0419064,1861,1191,47.013,-2.69645
644,-167,46.849,2.56189,-0.00534746,0.00162614,0.000270256,0.00163659,-0.00535792,1.53212,0.0042245,0.0440563,1868,1191,46.849,-2.56188
651,-167,46.5251,2.41357,-0.00359466,0.00131968,-0.000129804,0.0013231,-0.00359808,-1.54441,0.00294071,0.0428801,1875,1191,46.5251,-2.41357
658,-167,46.5015,2.85413,-0.00171276,0.0011342,-0.000792913,0.00134014,-0.0019187,-1.31669,0.00189134,0.0432649,1882,1191,46.5015,-2.85412
665,-167,46.6351,2.80237,8.77935e-05,0.000905849,-0.00152574,0.00207644,-0.00108279,-0.916361,0.00185381,0.0390582,1889,1191,46.6351,-2.80242
672,-167,46.5392,2.75354,0.000464625,0.000410699,-0.00149171,0.00192961,-0.00105429,-0.776361,0.00174729,0.0274552,1896,1191,46.5392,-2.75357
679,-167,46.5435,2.67029,3.736e-05,1.0958e-06,-0.00113314,0.00115251,-0.00111406,-0.777398,0.00130867,0.0239329,1903,1191,46.5435,-2.67032
686,-167,46.545,2.65344,-0.00047953,-0.00042559,-0.000785853,0.000333756,-0.00123888,-0.802551,0.000956774,0.0370015,1910,1191,46.5451,-2.65343
693,-167,46.4977,2.60364,0,0,0,0,0,0,0,-1,1917,1191,46.4976,-2.60368
700,-167,28.0459,2.70508,0,0,0,0,0,0,0,-1,1924,1191,28.0459,-2.70513
707,-167,29.4708,7.10168,0,0,0,0,0,0,0,-1,1931,1191,29.4708,-7.10172
714,-167,35.9202,6.84668,0,0,0,0,0,0,0,-1,1938,1191,35.9202,-6.84664
721,-167,36.2072,6.38892,0,0,0,0,0,0,0,-1,1945,1191,36.2072,-6.38891
728,-167,39.9197,7.10254,0,0,0,0,0,0,0,-1,1952,1191,39.9197,-7.10253
735,-167,39.9779,6.72083,-0.0021811,-0.0012734,0.00169206,2.46151e-05,-0.00347912,0.916426,0.00232766,0.0203929,1959,1191,39.9779,-6.72085
742,-167,39.9082,6.27002,-0.00172603,-0.000904098,0.00167064,0.000405379,-0.00303551,0.906001,0.00217145,0.0175852,1966,1191,39.9083,-6.27006
749,-167,39.9041,5.86707,-0.000850627,-0.000191831,0.00117674,0.00070074,-0.0017432,0.921868,0.00145317,0.015214,1973,1191,39.904,-5.86709
756,-167,39.9038,5.50574,-7.32774e-05,0.00146553,-1.72287e-05,0.00146573,-7.34703e-05,-1.5596,0.00100254,0.0113641,1980,1191,39.9038,-5.50578
763,-167,39.8453,5.11121,0.000668017,0.00332724,-0.00175238,0.00419733,-0.000202077,-1.10994,0.00286796,0.013289,1987,1191,39.8453,-5.11118
770,-167,39.7228,4.83606,0.000868026,0.00565188,-0.00406413,0.00797572,-0.00145582,-1.05138,0.00586298,0.0313292,1994,1191,39.7227,-4.83611
777,-167,40.3453,4.58032,0.000266931,0.00873358,-0.0071502,0.0128097,-0.00380916,-1.05268,0.010053,0.0451302,2001,1191,40.3453,-4.58028
784,-167,40.6604,3.89661,-0.00122643,0.0128883,-0.0112647,0.0191238,-0.00746195,-1.06524,0.0158339,0.0476143,2008,1191,40.6603,-3.89656
791,-167,40.5811,3.22461,0,0,0,0,0,0,0,-1,2015,1191,40.581,-3.22462
798,-167,40.7598,2.21851,-0.00677046,0.0264665,-0.0249196,0.0398006,-0.0201046,-1.07948,0.0352039,0.046498,2022,1191,40.7599,-2.21844
805,-167,40.6221,1.20361,-0.0112547,0.0367181,-0.0346757,0.0548951,-0.0294317,-1.08798,0.0494204,0.0485632,2029,1191,40.6221,-1.2036
812,-167,0,0,0,0,0,0,0,0,0,-1,2036,1191,0,0
-700,-174,0,0,0,0,0,0,0,0,0,-1,524,1198,0,0
-693,-174,0,0,0,0,0,0,0,0,0,-1,531,1198,0,0
-686,-174,-29.3398,1.50012,0.0811937,-0.0798995,-0.0302479,0.086686,-0.0853918,-0.179619,0.0993501,0.0456969,538,1198,-29.3398,-1.50008
-679,-174,-28.9888,1.21851,0.075824,-0.0623352,-0.0232172,0.0796212,-0.0661324,-0.162117,0.0842709,0.045104,545,1198,-28.9888,-1.21856
-672,-174,-28.9342,1.6731,0.0672108,-0.0476065,-0.0178193,0.0699127,-0.0503084,-0.150482,0.0697166,0.0490534,552,1198,-28.9342,-1.6731
-665,-174,-27.9065,1.80322,0,0,0,0,0,0,0,-1,559,1198,-27.9065,-1.80322
-658,-174,-27.6692,1.84863,0,0,0,0,0,0,0,-1,566,1198,-27.6692,-1.84865
-651,-174,-27.3787,1.79468,0.0372711,-0.017154,-0.00804228,0.0384346,-0.0183175,-0.143678,0.033445,0.0484177,573,1198,-27.3787,-1.79466
-644,-174,-27.1401,1.82227,0.028116,-0.0108344,-0.00610494,0.0290505,-0.0117688,-0.151885,0.0242608,0.044872,580,1198,-27.1402,-1.82224
-637,-174,-26.9276,2.01404,0.0200987,-0.00612238,-0.00461284,0.0208865,-0.00691021,-0.169158,0.016711,0.0243327,587,1198,-26.9275,-2.0141
-630,-174,-27.0372,2.4176,0.013426,-0.00209933,-0.00319807,0.014059,-0.0027323,-0.195396,0.0104037,0.0134879,594,1198,-27.0372,-2.41762
-623,-174,-27.0829,2.83362,0.00762937,0.000347278,-0.00221695,0.00825119,-0.000274549,-0.273461,0.00559456,0.0143616,601,1198,-27.0829,-2.83359
-616,-174,-27.1045,3.28857,0.00349698,0.000926511,-0.00170422,0.00434627,7.72241e-05,-0.462322,0.00287212,0.019965,608,1198,-27.1045,-3.28858
-609,-174,-27.1416,3.72559,0.00132747,0.00118404,-0.00165434,0.00291165,-0.000400135,-0.763738,0.0020873,0.0205251,615,1198,-27.1416,-3.72557
-602,-174,-27.1508,4.12207,0.000831446,0.00108335,-0.00154251,0.00250504,-0.00059025,-0.826134,0.00189763,0.0133264,622,1198,-27.1508,-4.12207
-595,-174,-26.9884,4.49048,0,0,0,0,0,0,0,-1,629,1198,-26.9884,-4.49051
-588,-174,-27.5462,4.87061,0,0,0,0,0,0,0,-1,636,1198,-27.5462,-4.87062
-581,-174,-27.6203,5.36157,0,0,0,0,0,0,0,-1,643,1198,-27.6203,-5.36153
-574,-174,-26.3705,5.67102,0,0,0,0,0,0,0,-1,650,1198,-26.3706,-5.67101
-567,-174,-26.6597,3.04041,0,0,0,0,0,0,0,-1,657,1198,-26.6597,-3.04039
-560,-174,-34.5317,1.0896,0,0,0,0,0,0,0,-1,664,1198,-34.5317,-1.08966
-553,-174,-34.4758,1.00647,0.00169832,0.00388649,-0.0011536,0.00438232,0.00120249,-1.16486,0.00261458,0.0408266,671,1198,-34.4758,-1.00645
-546,-174,-34.4407,0.936157,0.00204399,0.00429906,-0.00107503,0.00472942,0.00161364,-1.19001,0.00277606,0.0315457,678,1198,-34.4407,-0.936206
-539,-174,-34.5397,0.992676,0.00253411,0.00480775,-0.000926857,0.0051377,0.00220415,-1.22879,0.0029762,0.0363458,685,1198,-34.5397,-0.992671
-532,-174,-34.126,0.78894,0,0,0,0,0,0,0,-1,692,1198,-34.126,-0.788945
-525,-174,-34.4004,1.10327,0,0,0,0,0,0,0,-1,699,1198,-34.4004,-1.1033
-518,-174,-34.0748,1.58459,0,0,0,0,0,0,0,-1,706,1198,-34.0747,-1.58457
-511,-174,0,0,0,0,0,0,0,0,0,-1,713,1198,0,0
-504,-174,0,0,0,0,0,0,0,0,0,-1,720,1198,0,0
-497,-174,0,0,0,0,0,0,0,0,0,-1,727,1198,0,0
-490,-174,0,0,0,0,0,0,0,0,0,-1,734,1198,0,0
-483,-174,0,0,0,0,0,0,0,0,0,-1,741,1198,0,0
-476,-174,0,0,0,0,0,0,0,0,0,-1,748,1198,0,0
-469,-174,0,0,0,0,0,0,0,0,0,-1,755,1198,0,0
-462,-174,0,0,0,0,0,0,0,0,0,-1,762,1198,0,0
-455,-174,0,0,0,0,0,0,0,0,0,-1,769,1198,0,0
-448,-174,0,0,0,0,0,0,0,0,0,-1,776,1198,0,0
-441,-174,0,0,0,0,0,0,0,0,0,-1,783,1198,0,0
-434,-174,0,0,0,0,0,0,0,0,0,-1,790,1198,0,0
-427,-174,0,0,0,0,0,0,0,0,0,-1,797,1198,0,0
-420,-174,0,0,0,0,0,0,0,0,0,-1,804,1198,0,0
-413,-174,0,0,0,0,0,0,0,0,0,-1,811,1198,0,0
-406,-174,0,0,0,0,0,0,0,0,0,-1,818,1198,0,0
-399,-174,0,0,0,0,0,0,0,0,0,-1,825,1198,0,0
-392,-174,0,0,0,0,0,0,0,0,0,-1,832,1198,0,0
-385,-174,0,0,0,0,0,0,0,0,0,-1,839,1198,0,0
-378,-174,0,0,0,0,0,0,0,0,0,-1,846,1198,0,0
-371,-174,0,0,0,0,0,0,0,0,0,-1,853,1198,0,0
-364,-174,0,0,0,0,0,0,0,0,0,-1,860,1198,0,0
-357,-174,0,0,0,0,0,0,0,0,0,-1,867,1198,0,0
-350,-174,0,0,0,0,0,0,0,0,0,-1,874,1198,0,0
-343,-174,0,0,0,0,0,0,0,0,0,-1,881,1198,0,0
-336,-174,0,0,0,0,0,0,0,0,0,-1,888,1198,0,0
-329,-174,0,0,0,0,0,0,0,0,0,-1,895,1198,0,0
-322,-174,0,0,0,0,0,0,0,0,0,-1,902,1198,0,0
-315,-174,0,0,0,0,0,0,0,0,0,-1,909,1198,0,0
-308,-174,0,0,0,0,0,0,0,0,0,-1,916,1198,0,0
-301,-174,0,0,0,0,0,0,0,0,0,-1,923,1198,0,0
-294,-174,0,0,0,0,0,0,0,0,0,-1,930,1198,0,0
-287,-174,0,0,0,0,0,0,0,0,0,-1,937,1198,0,0
-280,-174,0,0,0,0,0,0,0,0,0,-1,944,1198,0,0
-273,-174,0,0,0,0,0,0,0,0,0,-1,951,1198,0,0
-266,-174,0,0,0,0,0,0,0,0,0,-1,958,1198,0,0
-259,-174,0,0,0,0,0,0,0,0,0,-1,965,1198,0,0
-252,-174,0,0,0,0,0,0,0,0,0,-1,972,1198,0,0
-245,-174,0,0,0,0,0,0,0,0,0,-1,979,1198,0,0
-238,-174,0,0,0,0,0,0,0,0,0,-1,986,1198,0,0
-231,-174,0,0,0,0,0,0,0,0,0,-1,993,1198,0,0
-224,-174,0,0,0,0,0,0,0,0,0,-1,1000,1198,0,0
-217,-174,0,0,0,0,0,0,0,0,0,-1,1007,1198,0,0
-210,-174,0,0,0,0,0,0,0,0,0,-1,1014,1198,0,0
-203,-174,0,0,0,0,0,0,0,0,0,-1,1021,1198,0,0
-196,-174,0,0,0,0,0,0,0,0,0,-1,1028,1198,0,0
-189,-174,0,0,0,0,0,0,0,0,0,-1,1035,1198,0,0
-182,-174,0,0,0,0,0,0,0,0,0,-1,1042,1198,0,0
-175,-174,0,0,0,0,0,0,0,0,0,-1,1049,1198,0,0
-168,-174,0,0,0,0,0,0,0,0,0,-1,1056,1198,0,0
-161,-174,0,0,0,0,0,0,0,0,0,-1,1063,1198,0,0
-154,-174,0,0,0,0,0,0,0,0,0,-1,1070,1198,0,0
-147,-174,0,0,0,0,0,0,0,0,0,-1,1077,1198,0,0
-140,-174,0,0,0,0,0,0,0,0,0,-1,1084,1198,0,0
-133,-174,0,0,0,0,0,0,0,0,0,-1,1091,1198,0,0
-126,-174,0,0,0,0,0,0,0,0,0,-1,1098,1198,0,0
-119,-174,0,0,0,0,0,0,0,0,0,-1,1105,1198,0,0
-112,-174,0,0,0,0,0,0,0,0,0,-1,1112,1198,0,0
-105,-174,0,0,0,0,0,0,0,0,0,-1,1119,1198,0,0
-98,-174,0,0,0,0,0,0,0,0,0,-1,1126,1198,0,0
-91,-174,0,0,0,0,0,0,0,0,0,-1,1133,1198,0,0
-84,-174,0,0,0,0,0,0,0,0,0,-1,1140,1198,0,0
-77,-174,0,0,0,0,0,0,0,0,0,-1,1147,1198,0,0
-70,-174,0,0,0,0,0,0,0,0,0,-1,1154,1198,0,0
-63,-174,0,0,0,0,0,0,0,0,0,-1,1161,1198,0,0
-56,-174,0,0,0,0,0,0,0,0,0,-1,1168,1198,0,0
-49,-174,0,0,0,0,0,0,0,0,0,-1,1175,1198,0,0
-42,-174,0,0,0,0,0,0,0,0,0,-1,1182,1198,0,0
-35,-174,0,0,0,0,0,0,0,0,0,-1,1189,1198,0,0
-28,-174,0,0,0,0,0,0,0,0,0,-1,1196,1198,0,0
-21,-174,0,0,0,0,0,0,0,0,0,-1,1203,1198,0,0
-14,-174,0,0,0,0,0,0,0,0,0,-1,1210,1198,0,0
-7,-174,0,0,0,0,0,0,0,0,0,-1,1217,1198,0,0
0,-174,0,0,0,0,0,0,0,0,0,-1,1224,1198,0,0
7,-174,0,0,0,0,0,0,0,0,0,-1,1231,1198,0,0
14,-174,0,0,0,0,0,0,0,0,0,-1,1238,1198,0,0
21,-174,0,0,0,0,0,0,0,0,0,-1,1245,1198,0,0
28,-174,0,0,0,0,0,0,0,0,0,-1,1252,1198,0,0
35,-174,0,0,0,0,0,0,0,0,0,-1,1259,1198,0,0
42,-174,0,0,0,0,0,0,0,0,0,-1,1266,1198,0,0
49,-174,0,0,0,0,0,0,0,0,0,-1,1273,1198,0,0
56,-174,0,0,0,0,0,0,0,0,0,-1,1280,1198,0,0
63,-174,0,0,0,0,0,0,0,0,0,-1,1287,1198,0,0
70,-174,0,0,0,0,0,0,0,0,0,-1,1294,1198,0,0
77,-174,0,0,0,0,0,0,0,0,0,-1,1301,1198,0,0
84,-174,0,0,0,0,0,0,0,0,0,-1,1308,1198,0,0
91,-174,0,0,0,0,0,0,0,0,0,-1,1315,1198,0,0
98,-174,0,0,0,0,0,0,0,0,0,-1,1322,1198,0,0
105,-174,0,0,0,0,0,0,0,0,0,-1,1329,1198,0,0
112,-174,0,0,0,0,0,0,0,0,0,-1,1336,1198,0,0
119,-174,0,0,0,0,0,0,0,0,0,-1,1343,1198,0,0
126,-174,0,0,0,0,0,0,0,0,0,-1,1350,1198,0,0
133,-174,0,0,0,0,0,0,0,0,0,-1,1357,1198,0,0
140,-174,0,0,0,0,0,0,0,0,0,-1,1364,1198,0,0
147,-174,0,0,0,0,0,0,0,0,0,-1,1371,1198,0,0
154,-174,0,0,0,0,0,0,0,0,0,-1,1378,1198,0,0
161,-174,0,0,0,0,0,0,0,0,0,-1,1385,1198,0,0
168,-174,0,0,0,0,0,0,0,0,0,-1,1392,1198,0,0
175,-174,0,0,0,0,0,0,0,0,0,-1,1399,1198,0,0
182,-174,0,0,0,0,0,0,0,0,0,-1,1406,1198,0,0
189,-174,0,0,0,0,0,0,0,0,0,-1,1413,1198,0,0
196,-174,0,0,0,0,0,0,0,0,0,-1,1420,1198,0,0
203,-174,0,0,0,0,0,0,0,0,0,-1,1427,1198,0,0
210,-174,0,0,0,0,0,0,0,0,0,-1,1434,1198,0,0
217,-174,0,0,0,0,0,0,0,0,0,-1,1441,1198,0,0
224,-174,0,0,0,0,0,0,0,0,0,-1,1448,1198,0,0
231,-174,0,0,0,0,0,0,0,0,0,-1,1455,1198,0,0
238,-174,0,0,0,0,0,0,0,0,0,-1,1462,1198,0,0
245,-174,0,0,0,0,0,0,0,0,0,-1,1469,1198,0,0
252,-174,0,0,0,0,0,0,0,0,0,-1,1476,1198,0,0
259,-174,0,0,0,0,0,0,0,0,0,-1,1483,1198,0,0
266,-174,0,0,0,0,0,0,0,0,0,-1,1490,1198,0,0
273,-174,0,0,0,0,0,0,0,0,0,-1,1497,1198,0,0
280,-174,0,0,0,0,0,0,0,0,0,-1,1504,1198,0,0
287,-174,0,0,0,0,0,0,0,0,0,-1,1511,1198,0,0
294,-174,0,0,0,0,0,0,0,0,0,-1,1518,1198,0,0
301,-174,0,0,0,0,0,0,0,0,0,-1,1525,1198,0,0
308,-174,0,0,0,0,0,0,0,0,0,-1,1532,1198,0,0
315,-174,0,0,0,0,0,0,0,0,0,-1,1539,1198,0,0
322,-174,0,0,0,0,0,0,0,0,0,-1,1546,1198,0,0
329,-174,0,0,0,0,0,0,0,0,0,-1,1553,1198,0,0
336,-174,0,0,0,0,0,0,0,0,0,-1,1560,1198,0,0
343,-174,0,0,0,0,0,0,0,0,0,-1,1567,1198,0,0
350,-174,0,0,0,0,0,0,0,0,0,-1,1574,1198,0,0
357,-174,0,0,0,0,0,0,0,0,0,-1,1581,1198,0,0
364,-174,0,0,0,0,0,0,0,0,0,-1,1588,1198,0,0
371,-174,0,0,0,0,0,0,0,0,0,-1,1595,1198,0,0
378,-174,0,0,0,0,0,0,0,0,0,-1,1602,1198,0,0
385,-174,0,0,0,0,0,0,0,0,0,-1,1609,1198,0,0
392,-174,0,0,0,0,0,0,0,0,0,-1,1616,1198,0,0
399,-174,0,0,0,0,0,0,0,0,0,-1,1623,1198,0,0
406,-174,0,0,0,0,0,0,0,0,0,-1,1630,1198,0,0
413,-174,0,0,0,0,0,0,0,0,0,-1,1637,1198,0,0
420,-174,0,0,0,0,0,0,0,0,0,-1,1644,1198,0,0
427,-174,0,0,0,0,0,0,0,0,0,-1,1651,1198,0,0
434,-174,0,0,0,0,0,0,0,0,0,-1,1658,1198,0,0
441,-174,0,0,0,0,0,0,0,0,0,-1,1665,1198,0,0
448,-174,0,0,0,0,0,0,0,0,0,-1,1672,1198,0,0
455,-174,0,0,0,0,0,0,0,0,0,-1,1679,1198,0,0
462,-174,0,0,0,0,0,0,0,0,0,-1,1686,1198,0,0
469,-174,0,0,0,0,0,0,0,0,0,-1,1693,1198,0,0
476,-174,0,0,0,0,0,0,0,0,0,-1,1700,1198,0,0
483,-174,0,0,0,0,0,0,0,0,0,-1,1707,1198,0,0
490,-174,0,0,0,0,0,0,0,0,0,-1,1714,1198,0,0
497,-174,0,0,0,0,0,0,0,0,0,-1,1721,1198,0,0
504,-174,0,0,0,0,0,0,0,0,0,-1,1728,1198,0,0
511,-174,0,0,0,0,0,0,0,0,0,-1,1735,1198,0,0
518,-174,0,0,0,0,0,0,0,0,0,-1,1742,1198,0,0
525,-174,0,0,0,0,0,0,0,0,0,-1,1749,1198,0,0
532,-174,0,0,0,0,0,0,0,0,0,-1,1756,1198,0,0
539,-174,0,0,0,0,0,0,0,0,0,-1,1763,1198,0,0
546,-174,0,0,0,0,0,0,0,0,0,-1,1770,1198,0,0
553,-174,0,0,0,0,0,0,0,0,0,-1,1777,1198,0,0
560,-174,0,0,0,0,0,0,0,0,0,-1,1784,1198,0,0
567,-174,0,0,0,0,0,0,0,0,0,-1,1791,1198,0,0
574,-174,0,0,0,0,0,0,0,0,0,-1,1798,1198,0,0
581,-174,0,0,0,0,0,0,0,0,0,-1,1805,1198,0,0
588,-174,0,0,0,0,0,0,0,0,0,-1,1812,1198,0,0
595,-174,0,0,0,0,0,0,0,0,0,-1,1819,1198,0,0
602,-174,0,0,0,0,0,0,0,0,0,-1,1826,1198,0,0
609,-174,0,0,0,0,0,0,0,0,0,-1,1833,1198,0,0
616,-174,0,0,0,0,0,0,0,0,0,-1,1840,1198,0,0
623,-174,0,0,0,0,0,0,0,0,0,-1,1847,1198,0,0
630,-174,0,0,0,0,0,0,0,0,0,-1,1854,1198,0,0
637,-174,46.767,2.88489,0,0,0,0,0,0,0,-1,1861,1198,46.767,-2.88483
644,-174,46.6539,2.6178,0,0,0,0,0,0,0,-1,1868,1198,46.654,-2.61781
651,-174,46.4945,2.62573,-0.00249833,0.00129281,-0.000210186,0.00130443,-0.00250995,-1.51558,0.00223859,0.0422557,1875,1198,46.4945,-2.62574
658,-174,46.3942,3.00574,-0.000763445,0.0012505,-0.00111205,0.00174374,-0.00125669,-1.15332,0.00173989,0.0418723,1882,1198,46.3942,-3.00578
665,-174,46.5466,2.80066,0.000699403,0.00105561,-0.00190676,0.00279257,-0.00103756,-0.831966,0.0022874,0.0361155,1889,1198,46.5467,-2.80071
672,-174,46.5045,2.70166,0.00064762,0.000530402,-0.00175353,0.00234352,-0.0011655,-0.768693,0.00206364,0.0275176,1896,1198,46.5046,-2.70167
679,-174,46.5387,2.68054,-1.05633e-05,0.000155209,-0.0013381,0.00141299,-0.00126835,-0.81633,0.00154882,0.0251218,1903,1198,46.5386,-2.68057
686,-174,46.5762,2.67017,0,0,0,0,0,0,0,-1,1910,1198,46.5762,-2.67013
693,-174,45.0994,2.7428,0,0,0,0,0,0,0,-1,1917,1198,45.0994,-2.74284
700,-174,25.4004,6.11792,0,0,0,0,0,0,0,-1,1924,1198,25.4004,-6.11797
707,-174,34.7908,7.34473,0,0,0,0,0,0,0,-1,1931,1198,34.7908,-7.34475
714,-174,40.1135,7.79871,0,0,0,0,0,0,0,-1,1938,1198,40.1135,-7.79875
721,-174,39.4108,7.48364,0,0,0,0,0,0,0,-1,1945,1198,39.4108,-7.48365
728,-174,39.6443,7.07556,-0.00234798,-0.00131782,0.00140946,-0.000332271,-0.00333353,0.960583,0.00212029,0.045883,1952,1198,39.6443,-7.07551
735,-174,39.5433,6.68054,-0.00244663,-0.00120542,0.00172426,6.52333e-06,-0.00365857,0.958142,0.00244123,0.0148433,1959,1198,39.5433,-6.6805
742,-174,39.5295,6.27161,-0.00172041,-0.000786546,0.00163222,0.000444216,-0.00295117,0.924713,0.00213101,0.0218256,1966,1198,39.5296,-6.27155
749,-174,39.5327,5.89685,-0.000510829,-4.7401e-06,0.000953192,0.000728424,-0.00124399,0.915141,0.00115167,0.0185058,1973,1198,39.5327,-5.89684
756,-174,39.494,5.49573,0.000589399,0.00186987,-0.000625849,0.00212495,0.00033432,-1.18378,0.00131939,0.0108217,1980,1198,39.4941,-5.49574
763,-174,39.4601,5.09534,0.00171327,0.00400185,-0.00290653,0.00598123,-0.000266109,-0.972928,0.00407908,0.0148166,1987,1198,39.4601,-5.09535
770,-174,39.5934,4.79736,0.00236789,0.00678284,-0.006067,0.0110315,-0.00188075,-0.959878,0.00805476,0.0349169,1994,1198,39.5934,-4.79739
777,-174,39.9049,4.46826,0,0,0,0,0,0,0,-1,2001,1198,39.905,-4.46823
784,-174,40.7651,3.94226,0,0,0,0,0,0,0,-1,2008,1198,40.7652,-3.94232
791,-174,40.9426,2.8811,0,0,0,0,0,0,0,-1,2015,1198,40.9426,-2.88116
798,-174,41.0354,1.76587,-0.00266048,0.0338507,-0.0365188,0.0564227,-0.0252325,-1.01718,0.0482765,0.0454106,2022,1198,41.0354,-1.76589
805,-174,41.1028,0.573486,-0.00577206,0.0477957,-0.0516733,0.0792141,-0.0371905,-1.0245,0.0686505,0.0454873,2029,1198,41.1028,-0.573493
812,-174,0,0,0,0,0,0,0,0,0,-1,2036,1198,0,0
-700,-181,0,0,0,0,0,0,0,0,0,-1,524,1205,0,0
-693,-181,0,0,0,0,0,0,0,0,0,-1,531,1205,0,0
-686,-181,-29.15,2.11694,0.0805506,-0.0786472,-0.0398314,0.0899602,-0.0880569,-0.231984,0.10278,0.0479007,538,1205,-29.15,-2.11691
-679,-181,-28.8136,1.97229,0.076944,-0.0602379,-0.0319876,0.0840362,-0.06733,-0.218185,0.0875685,0.047433,545,1205,-28.8136,-1.97231
-672,-181,-28.7151,1.83557,0.0693058,-0.0451963,-0.0254151,0.0746935,-0.0505839,-0.208895,0.072774,0.0483236,552,1205,-28.7151,-1.83556
-665,-181,-28.3616,1.55896,0.0597419,-0.0328694,-0.0199627,0.0638616,-0.0369892,-0.203516,0.0589112,0.0473638,559,1205,-28.3616,-1.55895
-658,-181,-26.9995,1.82483,0,0,0,0,0,0,0,-1,566,1205,-26.9994,-1.8248
-651,-181,-26.4595,1.57764,0.0397818,-0.0151699,-0.0119204,0.0422563,-0.0176443,-0.204672,0.0355434,0.0452937,573,1205,-26.4595,-1.57767
-644,-181,-26.6702,1.79346,0.0304793,-0.00921388,-0.00893902,0.0323995,-0.0111341,-0.211596,0.0261145,0.0425585,580,1205,-26.6702,-1.79345
-637,-181,-26.5018,1.98926,0.0221881,-0.00494043,-0.0065819,0.0237007,-0.006453,-0.225884,0.018334,0.0247789,587,1205,-26.5018,-1.98924
-630,-181,-26.595,2.42603,0.0152972,-0.00124254,-0.00453048,0.0164568,-0.0024022,-0.250588,0.0118534,0.0133969,594,1205,-26.595,-2.42607
-623,-181,-26.6443,2.84766,0.00926475,0.000944568,-0.00301667,0.0102434,-3.40794e-05,-0.313701,0.00684032,0.0156839,601,1205,-26.6443,-2.84764
-616,-181,-26.6448,3.30225,0.00474152,0.00118086,-0.00214783,0.00575095,0.000171432,-0.439342,0.00377812,0.0155069,608,1205,-26.6448,-3.30224
-609,-181,-26.6465,3.7417,0.00188525,0.00117,-0.00183051,0.00339274,-0.00033749,-0.688928,0.0023823,0.0141378,615,1205,-26.6465,-3.74164
-602,-181,-26.6409,4.17346,0.00103152,0.000863566,-0.00171371,0.0026633,-0.00076822,-0.760917,0.00207946,0.0120129,622,1205,-26.6408,-4.17351
-595,-181,-26.834,4.51721,0.000913514,0.000573776,-0.00148418,0.00223751,-0.000750224,-0.72842,0.0017948,0.0332512,629,1205,-26.8341,-4.51727
-588,-181,-27.1162,5.00708,0.00110126,0.001421,-0.00124731,0.00251865,3.61761e-06,-0.849136,0.00167789,0.0317791,636,1205,-27.1162,-5.00707
-581,-181,-27.0232,5.55798,0.00136764,0.00199061,-0.00120004,0.00291894,0.000439318,-0.912378,0.0018173,0.0274511,643,1205,-27.0232,-5.55794
-574,-181,-26.7161,6.04492,0,0,0,0,0,0,0,-1,650,1205,-26.7161,-6.04494
-567,-181,-25.8839,3.34485,0,0,0,0,0,0,0,-1,657,1205,-25.8839,-3.3449
-560,-181,-31.7396,1.63306,0,0,0,0,0,0,0,-1,664,1205,-31.7396,-1.63303
-553,-181,-34.4838,1.01172,0,0,0,0,0,0,0,-1,671,1205,-34.4838,-1.01167
-546,-181,-34.4299,0.93396,0.00173997,0.00450345,-0.000733567,0.0046861,0.00155732,-1.32677,0.00275576,0.0341367,678,1205,-34.4299,-0.933971
-539,-181,-34.4644,1.1095,0.00190591,0.00513899,-0.000496993,0.00521366,0.00183123,-1.42166,0.0030542,0.0373714,685,1205,-34.4644,-1.10944
-532,-181,-34.6302,0.534912,0,0,0,0,0,0,0,-1,692,1205,-34.6302,-0.534868
-525,-181,-34.4243,1.10645,0,0,0,0,0,0,0,-1,699,1205,-34.4243,-1.10644
-518,-181,-34.2184,1.67798,0,0,0,0,0,0,0,-1,706,1205,-34.2185,-1.678
-511,-181,0,0,0,0,0,0,0,0,0,-1,713,1205,0,0
-504,-181,0,0,0,0,0,0,0,0,0,-1,720,1205,0,0
-497,-181,0,0,0,0,0,0,0,0,0,-1,727,1205,0,0
-490,-181,0,0,0,0,0,0,0,0,0,-1,734,1205,0,0
-483,-181,0,0,0,0,0,0,0,0,0,-1,741,1205,0,0
-476,-181,0,0,0,0,0,0,0,0,0,-1,748,1205,0,0
-469,-181,0,0,0,0,0,0,0,0,0,-1,755,1205,0,0
-462,-181,0,0,0,0,0,0,0,0,0,-1,762,1205,0,0
-455,-181,0,0,0,0,0,0,0,0,0,-1,769,1205,0,0
-448,-181,0,0,0,0,0,0,0,0,0,-1,776,1205,0,0
-441,-181,0,0,0,0,0,0,0,0,0,-1,783,1205,0,0
-434,-181,0,0,0,0,0,0,0,0,0,-1,790,1205,0,0
-427,-181,0,0,0,0,0,0,0,0,0,-1,797,1205,0,0
-420,-181,0,0,0,0,0,0,0,0,0,-1,804,1205,0,0
-413,-181,0,0,0,0,0,0,0,0,0,-1,811,1205,0,0
-406,-181,0,0,0,0,0,0,0,0,0,-1,818,1205,0,0
-399,-181,0,0,0,0,0,0,0,0,0,-1,825,1205,0,0
-392,-181,0,0,0,0,0,0,0,0,0,-1,832,1205,0,0
-385,-181,0,0,0,0,0,0,0,0,0,-1,839,1205,0,0
-378,-181,0,0,0,0,0,0,0,0,0,-1,846,1205,0,0
-371,-181,0,0,0,0,0,0,0,0,0,-1,853,1205,0,0
-364,-181,0,0,0,0,0,0,0,0,0,-1,860,1205,0,0
-357,-181,0,0,0,0,0,0,0,0,0,-1,867,1205,0,0
-350,-181,0,0,0,0,0,0,0,0,0,-1,874,1205,0,0
-343,-181,0,0,0,0,0,0,0,0,0,-1,881,1205,0,0
-336,-181,0,0,0,0,0,0,0,0,0,-1,888,1205,0,0
-329,-181,0,0,0,0,0,0,0,0,0,-1,895,1205,0,0
-322,-181,0,0,0,0,0,0,0,0,0,-1,902,1205,0,0
-315,-181,0,0,0,0,0,0,0,0,0,-1,909,1205,0,0
-308,-181,0,0,0,0,0,0,0,0,0,-1,916,1205,0,0
-301,-181,0,0,0,0,0,0,0,0,0,-1,923,1205,0,0
-294,-181,0,0,0,0,0,0,0,0,0,-1,930,1205,0,0
-287,-181,0,0,0,0,0,0,0,0,0,-1,937,1205,0,0
-280,-181,0,0,0,0,0,0,0,0,0,-1,944,1205,0,0
-273,-181,0,0,0,0,0,0,0,0,0,-1,951,1205,0,0
-266,-181,0,0,0,0,0,0,0,0,0,-1,958,1205,0,0
-259,-181,0,0,0,0,0,0,0,0,0,-1,965,1205,0,0
-252,-181,0,0,0,0,0,0,0,0,0,-1,972,1205,0,0
-245,-181,0,0,0,0,0,0,0,0,0,-1,979,1205,0,0
-238,-181,0,0,0,0,0,0,0,0,0,-1,986,1205,0,0
-231,-181,0,0,0,0,0,0,0,0,0,-1,993,1205,0,0
-224,-181,0,0,0,0,0,0,0,0,0,-1,1000,1205,0,0
-217,-181,0,0,0,0,0,0,0,0,0,-1,1007,1205,0,0
-210,-181,0,0,0,0,0,0,0,0,0,-1,1014,1205,0,0
-203,-181,0,0,0,0,0,0,0,0,0,-1,1021,1205,0,0
-196,-181,0,0,0,0,0,0,0,0,0,-1,1028,1205,0,0
-189,-181,0,0,0,0,0,0,0,0,0,-1,1035,1205,0,0
-182,-181,0,0,0,0,0,0,0,0,0,-1,1042,1205,0,0
-175,-181,0,0,0,0,0,0,0,0,0,-1,1049,1205,0,0
-168,-181,0,0,0,0,0,0,0,0,0,-1,1056,1205,0,0
-161,-181,0,0,0,0,0,0,0,0,0,-1,1063,1205,0,0
-154,-181,0,0,0,0,0,0,0,0,0,-1,1070,1205,0,0
-147,-181,0,0,0,0,0,0,0,0,0,-1,1077,1205,0,0
-140,-181,0,0,0,0,0,0,0,0,0,-1,1084,1205,0,0
-133,-181,0,0,0,0,0,0,0,0,0,-1,1091,1205,0,0
-126,-181,0,0,0,0,0,0,0,0,0,-1,1098,1205,0,0
-119,-181,0,0,0,0,0,0,0,0,0,-1,1105,1205,0,0
-112,-181,0,0,0,0,0,0,0,0,0,-1,1112,1205,0,0
-105,-181,0,0,0,0,0,0,0,0,0,-1,1119,1205,0,0
-98,-181,0,0,0,0,0,0,0,0,0,-1,1126,1205,0,0
-91,-181,0,0,0,0,0,0,0,0,0,-1,1133,1205,0,0
-84,-181,0,0,0,0,0,0,0,0,0,-1,1140,1205,0,0
-77,-181,0,0,0,0,0,0,0,0,0,-1,1147,1205,0,0
-70,-181,0,0,0,0,0,0,0,0,0,-1,1154,1205,0,0
-63,-181,0,0,0,0,0,0,0,0,0,-1,1161,1205,0,0
-56,-181,0,0,0,0,0,0,0,0,0,-1,1168,1205,0,0
-49,-181,0,0,0,0,0,0,0,0,0,-1,1175,1205,0,0
-42,-181,0,0,0,0,0,0,0,0,0,-1,1182,1205,0,0
-35,-181,0,0,0,0,0,0,0,0,0,-1,1189,1205,0,0
-28,-181,0,0,0,0,0,0,0,0,0,-1,1196,1205,0,0
-21,-181,0,0,0,0,0,0,0,0,0,-1,1203,1205,0,0
-14,-181,0,0,0,0,0,0,0,0,0,-1,1210,1205,0,0
-7,-181,0,0,0,0,0,0,0,0,0,-1,1217,1205,0,0
0,-181,0,0,0,0,0,0,0,0,0,-1,1224,1205,0,0
7,-181,0,0,0,0,0,0,0,0,0,-1,1231,1205,0,0
14,-181,0,0,0,0,0,0,0,0,0,-1,1238,1205,0,0
21,-181,0,0,0,0,0,0,0,0,0,-1,1245,1205,0,0
28,-181,0,0,0,0,0,0,0,0,0,-1,1252,1205,0,0
35,-181,0,0,0,0,0,0,0,0,0,-1,1259,1205,0,0
42,-181,0,0,0,0,0,0,0,0,0,-1,1266,1205,0,0
49,-181,0,0,0,0,0,0,0,0,0,-1,1273,1205,0,0
56,-181,0,0,0,0,0,0,0,0,0,-1,1280,1205,0,0
63,-181,0,0,0,0,0,0,0,0,0,-1,1287,1205,0,0
70,-181,0,0,0,0,0,0,0,0,0,-1,1294,1205,0,0
77,-181,0,0,0,0,0,0,0,0,0,-1,1301,1205,0,0
84,-181,0,0,0,0,0,0,0,0,0,-1,1308,1205,0,0
91,-181,0,0,0,0,0,0,0,0,0,-1,1315,1205,0,0
98,-181,0,0,0,0,0,0,0,0,0,-1,1322,1205,0,0
105,-181,0,0,0,0,0,0,0,0,0,-1,1329,1205,0,0
112,-181,0,0,0,0,0,0,0,0,0,-1,1336,1205,0,0
119,-181,0,0,0,0,0,0,0,0,0,-1,1343,1205,0,0
126,-181,0,0,0,0,0,0,0,0,0,-1,1350,1205,0,0
133,-181,0,0,0,0,0,0,0,0,0,-1,1357,1205,0,0
140,-181,0,0,0,0,0,0,0,0,0,-1,1364,1205,0,0
147,-181,0,0,0,0,0,0,0,0,0,-1,1371,1205,0,0
154,-181,0,0,0,0,0,0,0,0,0,-1,1378,1205,0,0
161,-181,0,0,0,0,0,0,0,0,0,-1,1385,1205,0,0
168,-181,0,0,0,0,0,0,0,0,0,-1,1392,1205,0,0
175,-181,0,0,0,0,0,0,0,0,0,-1,1399,1205,0,0
182,-181,0,0,0,0,0,0,0,0,0,-1,1406,1205,0,0
189,-181,0,0,0,0,0,0,0,0,0,-1,1413,1205,0,0
196,-181,0,0,0,0,0,0,0,0,0,-1,1420,1205,0,0
203,-181,0,0,0,0,0,0,0,0,0,-1,1427,1205,0,0
210,-181,0,0,0,0,0,0,0,0,0,-1,1434,1205,0,0
217,-181,0,0,0,0,0,0,0,0,0,-1,1441,1205,0,0
224,-181,0,0,0,0,0,0,0,0,0,-1,1448,1205,0,0
231,-181,0,0,0,0,0,0,0,0,0,-1,1455,1205,0,0
238,-181,0,0,0,0,0,0,0,0,0,-1,1462,1205,0,0
245,-181,0,0,0,0,0,0,0,0,0,-1,1469,1205,0,0
252,-181,0,0,0,0,0,0,0,0,0,-1,1476,1205,0,0
259,-181,0,0,0,0,0,0,0,0,0,-1,1483,1205,0,0
266,-181,0,0,0,0,0,0,0,0,0,-1,1490,1205,0,0
273,-181,0,0,0,0,0,0,0,0,0,-1,1497,1205,0,0
280,-181,0,0,0,0,0,0,0,0,0,-1,1504,1205,0,0
287,-181,0,0,0,0,0,0,0,0,0,-1,1511,1205,0,0
294,-181,0,0,0,0,0,0,0,0,0,-1,1518,1205,0,0
301,-181,0,0,0,0,0,0,0,0,0,-1,1525,1205,0,0
308,-181,0,0,0,0,0,0,0,0,0,-1,1532,1205,0,0
315,-181,0,0,0,0,0,0,0,0,0,-1,1539,1205,0,0
322,-181,0,0,0,0,0,0,0,0,0,-1,1546,1205,0,0
329,-181,0,0,0,0,0,0,0,0,0,-1,1553,1205,0,0
336,-181,0,0,0,0,0,0,0,0,0,-1,1560,1205,0,0
343,-181,0,0,0,0,0,0,0,0,0,-1,1567,1205,0,0
350,-181,0,0,0,0,0,0,0,0,0,-1,1574,1205,0,0
357,-181,0,0,0,0,0,0,0,0,0,-1,1581,1205,0,0
364,-181,0,0,0,0,0,0,0,0,0,-1,1588,1205,0,0
371,-181,0,0,0,0,0,0,0,0,0,-1,1595,1205,0,0
378,-181,0,0,0,0,0,0,0,0,0,-1,1602,1205,0,0
385,-181,0,0,0,0,0,0,0,0,0,-1,1609,1205,0,0
392,-181,0,0,0,0,0,0,0,0,0,-1,1616,1205,0,0
399,-181,0,0,0,0,0,0,0,0,0,-1,1623,1205,0,0
406,-181,0,0,0,0,0,0,0,0,0,-1,1630,1205,0,0
413,-181,0,0,0,0,0,0,0,0,0,-1,1637,1205,0,0
420,-181,0,0,0,0,0,0,0,0,0,-1,1644,1205,0,0
427,-181,0,0,0,0,0,0,0,0,0,-1,1651,1205,0,0
434,-181,0,0,0,0,0,0,0,0,0,-1,1658,1205,0,0
441,-181,0,0,0,0,0,0,0,0,0,-1,1665,1205,0,0
448,-181,0,0,0,0,0,0,0,0,0,-1,1672,1205,0,0
455,-181,0,0,0,0,0,0,0,0,0,-1,1679,1205,0,0
462,-181,0,0,0,0,0,0,0,0,0,-1,1686,1205,0,0
469,-181,0,0,0,0,0,0,0,0,0,-1,1693,1205,0,0
476,-181,0,0,0,0,0,0,0,0,0,-1,1700,1205,0,0
483,-181,0,0,0,0,0,0,0,0,0,-1,1707,1205,0,0
490,-181,0,0,0,0,0,0,0,0,0,-1,1714,1205,0,0
497,-181,0,0,0,0,0,0,0,0,0,-1,1721,1205,0,0
504,-181,0,0,0,0,0,0,0,0,0,-1,1728,1205,0,0
511,-181,0,0,0,0,0,0,0,0,0,-1,1735,1205,0,0
518,-181,0,0,0,0,0,0,0,0,0,-1,1742,1205,0,0
525,-181,0,0,0,0,0,0,0,0,0,-1,1749,1205,0,0
532,-181,0,0,0,0,0,0,0,0,0,-1,1756,1205,0,0
539,-181,0,0,0,0,0,0,0,0,0,-1,1763,1205,0,0
546,-181,0,0,0,0,0,0,0,0,0,-1,1770,1205,0,0
553,-181,0,0,0,0,0,0,0,0,0,-1,1777,1205,0,0
560,-181,0,0,0,0,0,0,0,0,0,-1,1784,1205,0,0
567,-181,0,0,0,0,0,0,0,0,0,-1,1791,1205,0,0
574,-181,0,0,0,0,0,0,0,0,0,-1,1798,1205,0,0
581,-181,0,0,0,0,0,0,0,0,0,-1,1805,1205,0,0
588,-181,0,0,0,0,0,0,0,0,0,-1,1812,1205,0,0
595,-181,0,0,0,0,0,0,0,0,0,-1,1819,1205,0,0
602,-181,0,0,0,0,0,0,0,0,0,-1,1826,1205,0,0
609,-181,0,0,0,0,0,0,0,0,0,-1,1833,1205,0,0
616,-181,0,0,0,0,0,0,0,0,0,-1,1840,1205,0,0
623,-181,0,0,0,0,0,0,0,0,0,-1,1847,1205,0,0
630,-181,46.4869,2.89258,-0.00529524,0.0022209,0.00222092,0.0028281,-0.00590243,1.30392,0.00514369,0.0385984,1854,1205,46.487,-2.89256
637,-181,46.576,2.97937,-0.00431327,0.00189048,0.0013846,0.00218548,-0.00460827,1.36088,0.00400465,0.0402706,1861,1205,46.5761,-2.97939
644,-181,46.5322,2.9856,-0.00277013,0.00175028,0.000352542,0.00177761,-0.00279746,1.49343,0.0026632,0.0427693,1868,1205,46.5323,-2.98559
651,-181,46.5342,2.96729,-0.0011316,0.00173019,-0.000566273,0.00183816,-0.00123957,-1.38238,0.0017881,0.0415291,1875,1205,46.5342,-2.96732
658,-181,46.4491,2.8999,0.000303936,0.00160947,-0.00153079,0.00262086,-0.000707451,-0.986937,0.00202468,0.0361639,1882,1205,46.4491,-2.89994
665,-181,46.45,2.79285,0.00136688,0.00122398,-0.00222874,0.00352532,-0.000934458,-0.769375,0.00271583,0.0332477,1889,1205,46.4499,-2.79279
672,-181,46.4877,2.74768,0.00101595,0.000530026,-0.00194273,0.00273085,-0.00118487,-0.72319,0.00231873,0.0260802,1896,1205,46.4877,-2.74764
679,-181,46.5594,2.68896,0.000255229,9.00044e-05,-0.00150868,0.00168355,-0.00133832,-0.758046,0.00174847,0.0330629,1903,1205,46.5595,-2.689
686,-181,46.6143,2.58081,0,0,0,0,0,0,0,-1,1910,1205,46.6142,-2.5808
693,-181,36.1301,2.91016,0,0,0,0,0,0,0,-1,1917,1205,36.1302,-2.9102
700,-181,29.5845,6.58398,0,0,0,0,0,0,0,-1,1924,1205,29.5844,-6.58395
707,-181,39.8232,8.03186,0,0,0,0,0,0,0,-1,1931,1205,39.8233,-8.0319
714,-181,40.174,7.73877,0,0,0,0,0,0,0,-1,1938,1205,40.174,-7.73878
721,-181,39.635,7.27222,-0.00193855,-0.00124307,0.000725649,-0.000786143,-0.00239548,1.00884,0.00140999,0.0492596,1945,1205,39.635,-7.2722
728,-181,39.1227,7.07507,-0.00241373,-0.00159007,0.00138716,-0.000554894,-0.0034489,0.929697,0.00213844,0.0259647,1952,1205,39.1227,-7.07511
735,-181,39.1587,6.68152,-0.00236435,-0.0013478,0.00164732,-0.000132125,-0.00358002,0.935038,0.00234388,0.0131121,1959,1205,39.1587,-6.68152
742,-181,39.1157,6.29138,-0.0014226,-0.000793885,0.00151411,0.000438151,-0.00265464,0.887754,0.00193244,0.0183883,1966,1205,39.1157,-6.29139
749,-181,39.1083,5.86707,-3.18819e-05,0.000130763,0.000691243,0.000745451,-0.000646569,0.843953,0.000804358,0.0164912,1973,1205,39.1082,-5.86705
756,-181,39.1049,5.46631,0.00126765,0.00223235,-0.00118017,0.00302494,0.000475071,-0.979396,0.0018784,0.0116004,1980,1205,39.1049,-5.46629
763,-181,39.1251,5.08862,0.00267101,0.00458111,-0.00384126,0.00758427,-0.000332147,-0.907242,0.00517045,0.014034,1987,1205,39.1251,-5.08861
770,-181,39.2767,4.64294,0.00369321,0.00772749,-0.00765193,0.0136237,-0.00220298,-0.914272,0.00989884,0.0373695,1994,1205,39.2767,-4.643
777,-181,39.5254,4.09705,0,0,0,0,0,0,0,-1,2001,1205,39.5254,-4.09707
784,-181,34.7717,2.39917,0,0,0,0,0,0,0,-1,2008,1205,34.7717,-2.39918
791,-181,39.9827,1.92883,0,0,0,0,0,0,0,-1,2015,1205,39.9826,-1.92877
798,-181,41.1882,1.26025,0,0,0,0,0,0,0,-1,2022,1205,41.1883,-1.2603
805,-181,0,0,0,0,0,0,0,0,0,-1,2029,1205,0,0
812,-181,0,0,0,0,0,0,0,0,0,-1,2036,1205,0,0
-700,-188,0,0,0,0,0,0,0,0,0,-1,524,1212,0,0
-693,-188,0,0,0,0,0,0,0,0,0,-1,531,1212,0,0
-686,-188,0,0,0,0,0,0,0,0,0,-1,538,1212,0,0
-679,-188,-28.5317,2.49426,0,0,0,0,0,0,0,-1,545,1212,-28.5317,-2.49422
-672,-188,-28.3925,1.71252,0,0,0,0,0,0,0,-1,552,1212,-28.3925,-1.71253
-665,-188,-27.6858,1.55811,0.0626271,-0.0296093,-0.0249379,0.0689378,-0.03592,-0.247853,0.061532,0.0468258,559,1212,-27.6858,-1.55813
-658,-188,-26.8114,1.19568,0.0522997,-0.0199617,-0.019219,0.0570933,-0.0247553,-0.244432,0.0484691,0.0467773,566,1212,-26.8114,-1.19564
-651,-188,-26.408,1.36511,0.0422556,-0.0126059,-0.0145814,0.0458903,-0.0162406,-0.244292,0.0372079,0.0470388,573,1212,-26.408,-1.3651
-644,-188,-26.1006,1.59021,0.0327773,-0.00705878,-0.0107636,0.0354996,-0.00978103,-0.247719,0.0275125,0.0417141,580,1212,-26.1007,-1.59017
-637,-188,-26.1235,2.00903,0.0241939,-0.00320649,-0.00774045,0.0262293,-0.00524192,-0.257139,0.0194702,0.022141,587,1212,-26.1235,-2.00902
-630,-188,-26.1672,2.44983,0.0170088,0.000119868,-0.00526149,0.0185138,-0.00138515,-0.278605,0.0128292,0.0107953,594,1212,-26.1672,-2.44983
-623,-188,-26.1815,2.88013,0.010774,0.00190653,-0.0034799,0.0119766,0.000703975,-0.332723,0.00776036,0.0116861,601,1212,-26.1815,-2.88013
-616,-188,-26.1636,3.30859,0.00596001,0.00172952,-0.00245943,0.00708869,0.000600843,-0.430247,0.00453879,0.0118062,608,1212,-26.1636,-3.30857
-609,-188,-26.15,3.75671,0.00243266,0.00140581,-0.00197422,0.00395913,-0.000120651,-0.658183,0.00268054,0.0136926,615,1212,-26.15,-3.75672
-602,-188,-26.1836,4.21448,0.00112614,0.000889026,-0.00190178,0.00291306,-0.000897887,-0.754268,0.0023005,0.0157605,622,1212,-26.1836,-4.21453
-595,-188,-26.2725,4.61267,0.000908904,0.000533827,-0.00169647,0.00242817,-0.000985435,-0.730348,0.00202867,0.0207093,629,1212,-26.2725,-4.61271
-588,-188,-26.4218,5.05212,0.0012338,0.00147947,-0.00137988,0.00274197,-2.87092e-05,-0.82979,0.00183763,0.0246613,636,1212,-26.4218,-5.05217
-581,-188,-26.4411,5.49158,0.00152893,0.00211701,-0.00121256,0.00307067,0.000575269,-0.904349,0.00188485,0.0245329,643,1212,-26.4411,-5.49155
-574,-188,-26.7767,5.87354,0,0,0,0,0,0,0,-1,650,1212,-26.7768,-5.87355
-567,-188,-19.5786,4.10388,0,0,0,0,0,0,0,-1,657,1212,-19.5785,-4.10383
-560,-188,-23.9507,0.416626,0,0,0,0,0,0,0,-1,664,1212,-23.9508,-0.416602
-553,-188,-34.6056,0.844604,0,0,0,0,0,0,0,-1,671,1212,-34.6056,-0.844591
-546,-188,-34.5023,0.990112,0.00142904,0.00498012,-0.000489423,0.00504634,0.00136282,-1.43631,0.00301445,0.0427414,678,1212,-34.5023,-0.990062
-539,-188,-34.4137,1.06714,0.00142439,0.00565451,-0.000247156,0.0056689,0.00141,-1.51263,0.00340792,0.036711,685,1212,-34.4137,-1.06716
-532,-188,-34.2568,0.370605,0,0,0,0,0,0,0,-1,692,1212,-34.2568,-0.370579
-525,-188,-34.4709,1.15747,0,0,0,0,0,0,0,-1,699,1212,-34.4709,-1.15752
-518,-188,-34.6851,1.94446,0,0,0,0,0,0,0,-1,706,1212,-34.685,-1.94447
-511,-188,-34.0224,1.10767,0,0,0,0,0,0,0,-1,713,1212,-34.0224,-1.10766
-504,-188,0,0,0,0,0,0,0,0,0,-1,720,1212,0,0
-497,-188,0,0,0,0,0,0,0,0,0,-1,727,1212,0,0
-490,-188,0,0,0,0,0,0,0,0,0,-1,734,1212,0,0
-483,-188,0,0,0,0,0,0,0,0,0,-1,741,1212,0,0
-476,-188,0,0,0,0,0,0,0,0,0,-1,748,1212,0,0
-469,-188,0,0,0,0,0,0,0,0,0,-1,755,1212,0,0
-462,-188,0,0,0,0,0,0,0,0,0,-1,762,1212,0,0
-455,-188,0,0,0,0,0,0,0,0,0,-1,769,1212,0,0
-448,-188,0,0,0,0,0,0,0,0,0,-1,776,1212,0,0
-441,-188,0,0,0,0,0,0,0,0,0,-1,783,1212,0,0
-434,-188,0,0,0,0,0,0,0,0,0,-1,790,1212,0,0
-427,-188,0,0,0,0,0,0,0,0,0,-1,797,1212,0,0
-420,-188,0,0,0,0,0,0,0,0,0,-1,804,1212,0,0
-413,-188,0,0,0,0,0,0,0,0,0,-1,811,1212,0,0
-406,-188,0,0,0,0,0,0,0,0,0,-1,818,1212,0,0
-399,-188,0,0,0,0,0,0,0,0,0,-1,825,1212,0,0
-392,-188,0,0,0,0,0,0,0,0,0,-1,832,1212,0,0
-385,-188,0,0,0,0,0,0,0,0,0,-1,839,1212,0,0
-378,-188,0,0,0,0,0,0,0,0,0,-1,846,1212,0,0
-371,-188,0,0,0,0,0,0,0,0,0,-1,853,1212,0,0
-364,-188,0,0,0,0,0,0,0,0,0,-1,860,1212,0,0
-357,-188,0,0,0,0,0,0,0,0,0,-1,867,1212,0,0
-350,-188,0,0,0,0,0,0,0,0,0,-1,874,1212,0,0
-343,-188,0,0,0,0,0,0,0,0,0,-1,881,1212,0,0
-336,-188,0,0,0,0,0,0,0,0,0,-1,888,1212,0,0
-329,-188,0,0,0,0,0,0,0,0,0,-1,895,1212,0,0
-322,-188,0,0,0,0,0,0,0,0,0,-1,902,1212,0,0
-315,-188,0,0,0,0,0,0,0,0,0,-1,909,1212,0,0
-308,-188,0,0,0,0,0,0,0,0,0,-1,916,1212,0,0
-301,-188,0,0,0,0,0,0,0,0,0,-1,923,1212,0,0
-294,-188,0,0,0,0,0,0,0,0,0,-1,930,1212,0,0
-287,-188,0,0,0,0,0,0,0,0,0,-1,937,1212,0,0
-280,-188,0,0,0,0,0,0,0,0,0,-1,944,1212,0,0
-273,-188,0,0,0,0,0,0,0,0,0,-1,951,1212,0,0
-266,-188,0,0,0,0,0,0,0,0,0,-1,958,1212,0,0
-259,-188,0,0,0,0,0,0,0,0,0,-1,965,1212,0,0
-252,-188,0,0,0,0,0,0,0,0,0,-1,972,1212,0,0
-245,-188,0,0,0,0,0,0,0,0,0,-1,979,1212,0,0
-238,-188,0,0,0,0,0,0,0,0,0,-1,986,1212,0,0
-231,-188,0,0,0,0,0,0,0,0,0,-1,993,1212,0,0
-224,-188,0,0,0,0,0,0,0,0,0,-1,1000,1212,0,0
-217,-188,0,0,0,0,0,0,0,0,0,-1,1007,1212,0,0
-210,-188,0,0,0,0,0,0,0,0,0,-1,1014,1212,0,0
-203,-188,0,0,0,0,0,0,0,0,0,-1,1021,1212,0,0
-196,-188,0,0,0,0,0,0,0,0,0,-1,1028,1212,0,0
-189,-188,0,0,0,0,0,0,0,0,0,-1,1035,1212,0,0
-182,-188,0,0,0,0,0,0,0,0,0,-1,1042,1212,0,0
-175,-188,0,0,0,0,0,0,0,0,0,-1,1049,1212,0,0
-168,-188,0,0,0,0,0,0,0,0,0,-1,1056,1212,0,0
-161,-188,0,0,0,0,0,0,0,0,0,-1,1063,1212,0,0
-154,-188,0,0,0,0,0,0,0,0,0,-1,1070,1212,0,0
-147,-188,0,0,0,0,0,0,0,0,0,-1,1077,1212,0,0
-140,-188,0,0,0,0,0,0,0,0,0,-1,1084,1212,0,0
-133,-188,0,0,0,0,0,0,0,0,0,-1,1091,1212,0,0
-126,-188,0,0,0,0,0,0,0,0,0,-1,1098,1212,0,0
-119,-188,0,0,0,0,0,0,0,0,0,-1,1105,1212,0,0
-112,-188,0,0,0,0,0,0,0,0,0,-1,1112,1212,0,0
-105,-188,0,0,0,0,0,0,0,0,0,-1,1119,1212,0,0
-98,-188,0,0,0,0,0,0,0,0,0,-1,1126,1212,0,0
-91,-188,0,0,0,0,0,0,0,0,0,-1,1133,1212,0,0
-84,-188,0,0,0,0,0,0,0,0,0,-1,1140,1212,0,0
-77,-188,0,0,0,0,0,0,0,0,0,-1,1147,1212,0,0
-70,-188,0,0,0,0,0,0,0,0,0,-1,1154,1212,0,0
-63,-188,0,0,0,0,0,0,0,0,0,-1,1161,1212,0,0
-56,-188,0,0,0,0,0,0,0,0,0,-1,1168,1212,0,0
-49,-188,0,0,0,0,0,0,0,0,0,-1,1175,1212,0,0
-42,-188,0,0,0,0,0,0,0,0,0,-1,1182,1212,0,0
-35,-188,0,0,0,0,0,0,0,0,0,-1,1189,1212,0,0
-28,-188,0,0,0,0,0,0,0,0,0,-1,1196,1212,0,0
-21,-188,0,0,0,0,0,0,0,0,0,-1,1203,1212,0,0
-14,-188,0,0,0,0,0,0,0,0,0,-1,1210,1212,0,0
-7,-188,0,0,0,0,0,0,0,0,0,-1,1217,1212,0,0
0,-188,0,0,0,0,0,0,0,0,0,-1,1224,1212,0,0
7,-188,0,0,0,0,0,0,0,0,0,-1,1231,1212,0,0
14,-188,0,0,0,0,0,0,0,0,0,-1,1238,1212,0,0
21,-188,0,0,0,0,0,0,0,0,0,-1,1245,1212,0,0
28,-188,0,0,0,0,0,0,0,0,0,-1,1252,1212,0,0
35,-188,0,0,0,0,0,0,0,0,0,-1,1259,1212,0,0
42,-188,0,0,0,0,0,0,0,0,0,-1,1266,1212,0,0
49,-188,0,0,0,0,0,0,0,0,0,-1,1273,1212,0,0
56,-188,0,0,0,0,0,0,0,0,0,-1,1280,1212,0,0
63,-188,0,0,0,0,0,0,0,0,0,-1,1287,1212,0,0
70,-188,0,0,0,0,0,0,0,0,0,-1,1294,1212,0,0
77,-188,0,0,0,0,0,0,0,0,0,-1,1301,1212,0,0
84,-188,0,0,0,0,0,0,0,0,0,-1,1308,1212,0,0
91,-188,0,0,0,0,0,0,0,0,0,-1,1315,1212,0,0
98,-188,0,0,0,0,0,0,0,0,0,-1,1322,1212,0,0
105,-188,0,0,0,0,0,0,0,0,0,-1,1329,1212,0,0
112,-188,0,0,0,0,0,0,0,0,0,-1,1336,1212,0,0
119,-188,0,0,0,0,0,0,0,0,0,-1,1343,1212,0,0
126,-188,0,0,0,0,0,0,0,0,0,-1,1350,1212,0,0
133,-188,0,0,0,0,0,0,0,0,0,-1,1357,1212,0,0
140,-188,0,0,0,0,0,0,0,0,0,-1,1364,1212,0,0
147,-188,0,0,0,0,0,0,0,0,0,-1,1371,1212,0,0
154,-188,0,0,0,0,0,0,0,0,0,-1,1378,1212,0,0
161,-188,0,0,0,0,0,0,0,0,0,-1,1385,1212,0,0
168,-188,0,0,0,0,0,0,0,0,0,-1,1392,1212,0,0
175,-188,0,0,0,0,0,0,0,0,0,-1,1399,1212,0,0
182,-188,0,0,0,0,0,0,0,0,0,-1,1406,1212,0,0
189,-188,0,0,0,0,0,0,0,0,0,-1,1413,1212,0,0
196,-188,0,0,0,0,0,0,0,0,0,-1,1420,1212,0,0
203,-188,0,0,0,0,0,0,0,0,0,-1,1427,1212,0,0
210,-188,0,0,0,0,0,0,0,0,0,-1,1434,1212,0,0
217,-188,0,0,0,0,0,0,0,0,0,-1,1441,1212,0,0
224,-188,0,0,0,0,0,0,0,0,0,-1,1448,1212,0,0
231,-188,0,0,0,0,0,0,0,0,0,-1,1455,1212,0,0
238,-188,0,0,0,0,0,0,0,0,0,-1,1462,1212,0,0
245,-188,0,0,0,0,0,0,0,0,0,-1,1469,1212,0,0
252,-188,0,0,0,0,0,0,0,0,0,-1,1476,1212,0,0
259,-188,0,0,0,0,0,0,0,0,0,-1,1483,1212,0,0
266,-188,0,0,0,0,0,0,0,0,0,-1,1490,1212,0,0
273,-188,0,0,0,0,0,0,0,0,0,-1,1497,1212,0,0
280,-188,0,0,0,0,0,0,0,0,0,-1,1504,1212,0,0
287,-188,0,0,0,0,0,0,0,0,0,-1,1511,1212,0,0
294,-188,0,0,0,0,0,0,0,0,0,-1,1518,1212,0,0
301,-188,0,0,0,0,0,0,0,0,0,-1,1525,1212,0,0
308,-188,0,0,0,0,0,0,0,0,0,-1,1532,1212,0,0
315,-188,0,0,0,0,0,0,0,0,0,-1,1539,1212,0,0
322,-188,0,0,0,0,0,0,0,0,0,-1,1546,1212,0,0
329,-188,0,0,0,0,0,0,0,0,0,-1,1553,1212,0,0
336,-188,0,0,0,0,0,0,0,0,0,-1,1560,1212,0,0
343,-188,0,0,0,0,0,0,0,0,0,-1,1567,1212,0,0
350,-188,0,0,0,0,0,0,0,0,0,-1,1574,1212,0,0
357,-188,0,0,0,0,0,0,0,0,0,-1,1581,1212,0,0
364,-188,0,0,0,0,0,0,0,0,0,-1,1588,1212,0,0
371,-188,0,0,0,0,0,0,0,0,0,-1,1595,1212,0,0
378,-188,0,0,0,0,0,0,0,0,0,-1,1602,1212,0,0
385,-188,0,0,0,0,0,0,0,0,0,-1,1609,1212,0,0
392,-188,0,0,0,0,0,0,0,0,0,-1,1616,1212,0,0
399,-188,0,0,0,0,0,0,0,0,0,-1,1623,1212,0,0
406,-188,0,0,0,0,0,0,0,0,0,-1,1630,1212,0,0
413,-188,0,0,0,0,0,0,0,0,0,-1,1637,1212,0,0
420,-188,0,0,0,0,0,0,0,0,0,-1,1644,1212,0,0
427,-188,0,0,0,0,0,0,0,0,0,-1,1651,1212,0,0
434,-188,0,0,0,0,0,0,0,0,0,-1,1658,1212,0,0
441,-188,0,0,0,0,0,0,0,0,0,-1,1665,1212,0,0
448,-188,0,0,0,0,0,0,0,0,0,-1,1672,1212,0,0
455,-188,0,0,0,0,0,0,0,0,0,-1,1679,1212,0,0
462,-188,0,0,0,0,0,0,0,0,0,-1,1686,1212,0,0
469,-188,0,0,0,0,0,0,0,0,0,-1,1693,1212,0,0
476,-188,0,0,0,0,0,0,0,0,0,-1,1700,1212,0,0
483,-188,0,0,0,0,0,0,0,0,0,-1,1707,1212,0,0
490,-188,0,0,0,0,0,0,0,0,0,-1,1714,1212,0,0
497,-188,0,0,0,0,0,0,0,0,0,-1,1721,1212,0,0
504,-188,0,0,0,0,0,0,0,0,0,-1,1728,1212,0,0
511,-188,0,0,0,0,0,0,0,0,0,-1,1735,1212,0,0
518,-188,0,0,0,0,0,0,0,0,0,-1,1742,1212,0,0
525,-188,0,0,0,0,0,0,0,0,0,-1,1749,1212,0,0
532,-188,0,0,0,0,0,0,0,0,0,-1,1756,1212,0,0
539,-188,0,0,0,0,0,0,0,0,0,-1,1763,1212,0,0
546,-188,0,0,0,0,0,0,0,0,0,-1,1770,1212,0,0
553,-188,0,0,0,0,0,0,0,0,0,-1,1777,1212,0,0
560,-188,0,0,0,0,0,0,0,0,0,-1,1784,1212,0,0
567,-188,0,0,0,0,0,0,0,0,0,-1,1791,1212,0,0
574,-188,0,0,0,0,0,0,0,0,0,-1,1798,1212,0,0
581,-188,0,0,0,0,0,0,0,0,0,-1,1805,1212,0,0
588,-188,0,0,0,0,0,0,0,0,0,-1,1812,1212,0,0
595,-188,0,0,0,0,0,0,0,0,0,-1,1819,1212,0,0
602,-188,0,0,0,0,0,0,0,0,0,-1,1826,1212,0,0
609,-188,0,0,0,0,0,0,0,0,0,-1,1833,1212,0,0
616,-188,0,0,0,0,0,0,0,0,0,-1,1840,1212,0,0
623,-188,0,0,0,0,0,0,0,0,0,-1,1847,1212,0,0
630,-188,46.5468,2.81555,-0.00343126,0.00212382,0.00278584,0.00328018,-0.00458763,1.17735,0.00456334,0.0402471,1854,1212,46.5468,-2.81561
637,-188,46.4561,2.80872,-0.00278573,0.0021439,0.00155963,0.0025959,-0.00323772,1.28872,0.00337483,0.0428156,1861,1212,46.456,-2.80876
644,-188,46.3346,2.72913,-0.00149022,0.00235614,0.000127908,0.00236038,-0.00149447,1.53759,0.00224424,0.0391804,1868,1212,46.3346,-2.72908
651,-188,46.3969,2.90039,0,0,0,0,0,0,0,-1,1875,1212,46.3968,-2.9004
658,-188,46.4177,2.79346,0.00099936,0.0021794,-0.00198459,0.00365982,-0.000481063,-0.929887,0.00261503,0.0333254,1882,1212,46.4177,-2.79341
665,-188,46.4086,2.78394,0.00177459,0.00155961,-0.00253928,0.00420866,-0.000874459,-0.764246,0.00313814,0.0318685,1889,1212,46.4086,-2.78399
672,-188,46.4741,2.72668,0.00132914,0.000703807,-0.00215823,0.00319724,-0.00116429,-0.713463,0.00260772,0.0266987,1896,1212,46.4742,-2.72663
679,-188,46.5665,2.68311,0,0,0,0,0,0,0,-1,1903,1212,46.5665,-2.68306
686,-188,46.2593,2.7135,0,0,0,0,0,0,0,-1,1910,1212,46.2593,-2.71346
693,-188,35.9054,2.18042,0,0,0,0,0,0,0,-1,1917,1212,35.9054,-2.18038
700,-188,39.0826,8.68848,0,0,0,0,0,0,0,-1,1924,1212,39.0826,-8.68852
707,-188,38.9496,8.27844,0,0,0,0,0,0,0,-1,1931,1212,38.9495,-8.27843
714,-188,39.1313,8.02661,0,0,0,0,0,0,0,-1,1938,1212,39.1313,-8.02655
721,-188,38.8978,7.52344,-0.00183387,-0.00144789,0.000586217,-0.00102371,-0.00225804,0.944417,0.00130557,0.0374038,1945,1212,38.8979,-7.52342
728,-188,38.736,7.09021,-0.00227422,-0.00180467,0.00123938,-0.000778028,-0.00330086,0.879005,0.00199253,0.0130991,1952,1212,38.736,-7.09015
735,-188,38.7228,6.69434,-0.00206482,-0.00146775,0.00142607,-0.000309299,-0.00322327,0.888579,0.00205353,0.0137558,1959,1212,38.7228,-6.69428
742,-188,38.684,6.29504,-0.00101938,-0.00083325,0.00131545,0.000392425,-0.00224505,0.820713,0.0016432,0.0154288,1966,1212,38.6839,-6.29502
749,-188,38.6818,5.88843,0.000392762,0.000160149,0.000476632,0.000767073,-0.000214161,0.665728,0.000595742,0.0145339,1973,1212,38.6818,-5.88846
756,-188,38.6931,5.47046,0.0017723,0.00263183,-0.00159995,0.00385873,0.000545402,-0.916606,0.00241133,0.012234,1980,1212,38.6931,-5.47042
763,-188,38.723,5.07678,0.00334593,0.00529527,-0.004498,0.00892299,-0.000281786,-0.892093,0.00604478,0.0153063,1987,1212,38.7231,-5.07683
770,-188,38.7542,4.64746,0.00464633,0.00903246,-0.0088136,0.0159217,-0.00224296,-0.907336,0.0114357,0.030584,1994,1212,38.7541,-4.64751
777,-188,38.8446,4.19873,0,0,0,0,0,0,0,-1,2001,1212,38.8447,-4.19875
784,-188,34.7103,1.6665,0,0,0,0,0,0,0,-1,2008,1212,34.7103,-1.66656
791,-188,38.8401,0.969482,0,0,0,0,0,0,0,-1,2015,1212,38.8401,-0.969542
798,-188,38.8203,2.93079,0,0,0,0,0,0,0,-1,2022,1212,38.8204,-2.93082
805,-188,0,0,0,0,0,0,0,0,0,-1,2029,1212,0,0
812,-188,0,0,0,0,0,0,0,0,0,-1,2036,1212,0,0
-700,-195,0,0,0,0,0,0,0,0,0,-1,524,1219,0,0
-693,-195,0,0,0,0,0,0,0,0,0,-1,531,1219,0,0
-686,-195,0,0,0,0,0,0,0,0,0,-1,538,1219,0,0
-679,-195,-31.5502,-6.54773,0,0,0,0,0,0,0,-1,545,1219,-31.5502,6.54769
-672,-195,-27.6602,1.70081,0,0,0,0,0,0,0,-1,552,1219,-27.6601,-1.70077
-665,-195,-26.9854,1.55933,0.0671838,-0.026362,-0.0295671,0.0757455,-0.0349236,-0.281859,0.0653277,0.0471019,559,1219,-26.9854,-1.5593
-658,-195,-26.3411,1.39966,0.0563883,-0.0169546,-0.0227615,0.062878,-0.0234442,-0.277746,0.0515424,0.0464592,566,1219,-26.341,-1.39961
-651,-195,-25.9272,1.23792,0.0458623,-0.00993027,-0.0172295,0.050754,-0.014822,-0.276639,0.0397097,0.0448243,573,1219,-25.9272,-1.23786
-644,-195,-25.6351,1.63306,0.0359989,-0.00472728,-0.0126546,0.0396107,-0.00833905,-0.27802,0.0295812,0.0415237,580,1219,-25.6351,-1.63308
-637,-195,-25.5782,2.00354,0.0269276,-0.00126627,-0.00897529,0.0295424,-0.00388099,-0.283478,0.0211078,0.0226102,587,1219,-25.5782,-2.00351
-630,-195,-25.6985,2.44836,0.019261,0.00169107,-0.00605778,0.0211471,-0.000195066,-0.301843,0.0141635,0.00859544,594,1219,-25.6986,-2.44836
-623,-195,-25.7089,2.88696,0.0127248,0.00304593,-0.00399315,0.0141596,0.00161119,-0.344937,0.00895113,0.00851354,601,1219,-25.7089,-2.88692
-616,-195,-25.6862,3.33069,0.00759872,0.0024819,-0.00277258,0.00881293,0.00126769,-0.412776,0.00550162,0.0106941,608,1219,-25.6862,-3.33069
-609,-195,-25.701,3.78857,0.0034357,0.00178255,-0.0020311,0.00480197,0.000416275,-0.592152,0.00307197,0.0196395,615,1219,-25.701,-3.78863
-602,-195,-25.7274,4.23035,0.00159424,0.00101332,-0.00194421,0.00326957,-0.00066201,-0.711248,0.00243062,0.0220258,622,1219,-25.7274,-4.23029
-595,-195,-25.8035,4.67798,0.00120785,0.000602459,-0.00180513,0.00273548,-0.000925173,-0.702327,0.00219794,0.0189037,629,1219,-25.8036,-4.67798
-588,-195,-25.8286,5.15515,0.00161633,0.00166511,-0.00143689,0.00307782,0.000203624,-0.793885,0.00198748,0.0213664,636,1219,-25.8285,-5.1551
-581,-195,-25.8904,5.46045,0.00190066,0.0024159,-0.00117314,0.00335937,0.000957188,-0.893482,0.00199844,0.0331837,643,1219,-25.8904,-5.46043
-574,-195,-26.4323,5.65356,0,0,0,0,0,0,0,-1,650,1219,-26.4322,-5.6536
-567,-195,-20.6388,3.78369,0,0,0,0,0,0,0,-1,657,1219,-20.6388,-3.78369
-560,-195,-20.878,2.10388,0,0,0,0,0,0,0,-1,664,1219,-20.878,-2.10385
-553,-195,-33.462,1.11926,0,0,0,0,0,0,0,-1,671,1219,-33.462,-1.11925
-546,-195,-34.6053,1.15942,0,0,0,0,0,0,0,-1,678,1219,-34.6053,-1.15941
-539,-195,-34.4227,1.07056,0,0,0,0,0,0,0,-1,685,1219,-34.4227,-1.07052
-532,-195,-34.1528,0.628784,0,0,0,0,0,0,0,-1,692,1219,-34.1527,-0.628809
-525,-195,-34.5173,1.23877,0,0,0,0,0,0,0,-1,699,1219,-34.5173,-1.23874
-518,-195,-34.8818,1.84863,0,0,0,0,0,0,0,-1,706,1219,-34.8818,-1.84867
-511,-195,-34.0361,1.09241,0,0,0,0,0,0,0,-1,713,1219,-34.0361,-1.09239
-504,-195,0,0,0,0,0,0,0,0,0,-1,720,1219,0,0
-497,-195,0,0,0,0,0,0,0,0,0,-1,727,1219,0,0
-490,-195,0,0,0,0,0,0,0,0,0,-1,734,1219,0,0
-483,-195,0,0,0,0,0,0,0,0,0,-1,741,1219,0,0
-476,-195,0,0,0,0,0,0,0,0,0,-1,748,1219,0,0
-469,-195,0,0,0,0,0,0,0,0,0,-1,755,1219,0,0
-462,-195,0,0,0,0,0,0,0,0,0,-1,762,1219,0,0
-455,-195,0,0,0,0,0,0,0,0,0,-1,769,1219,0,0
-448,-195,0,0,0,0,0,0,0,0,0,-1,776,1219,0,0
-441,-195,0,0,0,0,0,0,0,0,0,-1,783,1219,0,0
-434,-195,0,0,0,0,0,0,0,0,0,-1,790,1219,0,0
-427,-195,0,0,0,0,0,0,0,0,0,-1,797,1219,0,0
-420,-195,0,0,0,0,0,0,0,0,0,-1,804,1219,0,0
-413,-195,0,0,0,0,0,0,0,0,0,-1,811,1219,0,0
-406,-195,0,0,0,0,0,0,0,0,0,-1,818,1219,0,0
-399,-195,0,0,0,0,0,0,0,0,0,-1,825,1219,0,0
-392,-195,0,0,0,0,0,0,0,0,0,-1,832,1219,0,0
-385,-195,0,0,0,0,0,0,0,0,0,-1,839,1219,0,0
-378,-195,0,0,0,0,0,0,0,0,0,-1,846,1219,0,0
-371,-195,0,0,0,0,0,0,0,0,0,-1,853,1219,0,0
-364,-195,0,0,0,0,0,0,0,0,0,-1,860,1219,0,0
-357,-195,0,0,0,0,0,0,0,0,0,-1,867,1219,0,0
-350,-195,0,0,0,0,0,0,0,0,0,-1,874,1219,0,0
-343,-195,0,0,0,0,0,0,0,0,0,-1,881,1219,0,0
-336,-195,0,0,0,0,0,0,0,0,0,-1,888,1219,0,0
-329,-195,0,0,0,0,0,0,0,0,0,-1,895,1219,0,0
-322,-195,0,0,0,0,0,0,0,0,0,-1,902,1219,0,0
-315,-195,0,0,0,0,0,0,0,0,0,-1,909,1219,0,0
-308,-195,0,0,0,0,0,0,0,0,0,-1,916,1219,0,0
-301,-195,0,0,0,0,0,0,0,0,0,-1,923,1219,0,0
-294,-195,0,0,0,0,0,0,0,0,0,-1,930,1219,0,0
-287,-195,0,0,0,0,0,0,0,0,0,-1,937,1219,0,0
-280,-195,0,0,0,0,0,0,0,0,0,-1,944,1219,0,0
-273,-195,0,0,0,0,0,0,0,0,0,-1,951,1219,0,0
-266,-195,0,0,0,0,0,0,0,0,0,-1,958,1219,0,0
-259,-195,0,0,0,0,0,0,0,0,0,-1,965,1219,0,0
-252,-195,0,0,0,0,0,0,0,0,0,-1,972,1219,0,0
-245,-195,0,0,0,0,0,0,0,0,0,-1,979,1219,0,0
-238,-195,0,0,0,0,0,0,0,0,0,-1,986,1219,0,0
-231,-195,0,0,0,0,0,0,0,0,0,-1,993,1219,0,0
-224,-195,0,0,0,0,0,0,0,0,0,-1,1000,1219,0,0
-217,-195,0,0,0,0,0,0,0,0,0,-1,1007,1219,0,0
-210,-195,0,0,0,0,0,0,0,0,0,-1,1014,1219,0,0
-203,-195,0,0,0,0,0,0,0,0,0,-1,1021,1219,0,0
-196,-195,0,0,0,0,0,0,0,0,0,-1,1028,1219,0,0
-189,-195,0,0,0,0,0,0,0,0,0,-1,1035,1219,0,0
-182,-195,0,0,0,0,0,0,0,0,0,-1,1042,1219,0,0
-175,-195,0,0,0,0,0,0,0,0,0,-1,1049,1219,0,0
-168,-195,0,0,0,0,0,0,0,0,0,-1,1056,1219,0,0
-161,-195,0,0,0,0,0,0,0,0,0,-1,1063,1219,0,0
-154,-195,0,0,0,0,0,0,0,0,0,-1,1070,1219,0,0
-147,-195,0,0,0,0,0,0,0,0,0,-1,1077,1219,0,0
-140,-195,0,0,0,0,0,0,0,0,0,-1,1084,1219,0,0
-133,-195,0,0,0,0,0,0,0,0,0,-1,1091,1219,0,0
-126,-195,0,0,0,0,0,0,0,0,0,-1,1098,1219,0,0
-119,-195,0,0,0,0,0,0,0,0,0,-1,1105,1219,0,0
-112,-195,0,0,0,0,0,0,0,0,0,-1,1112,1219,0,0
-105,-195,0,0,0,0,0,0,0,0,0,-1,1119,1219,0,0
-98,-195,0,0,0,0,0,0,0,0,0,-1,1126,1219,0,0
-91,-195,0,0,0,0,0,0,0,0,0,-1,1133,1219,0,0
-84,-195,0,0,0,0,0,0,0,0,0,-1,1140,1219,0,0
-77,-195,0,0,0,0,0,0,0,0,0,-1,1147,1219,0,0
-70,-195,0,0,0,0,0,0,0,0,0,-1,1154,1219,0,0
-63,-195,0,0,0,0,0,0,0,0,0,-1,1161,1219,0,0
-56,-195,0,0,0,0,0,0,0,0,0,-1,1168,1219,0,0
-49,-195,0,0,0,0,0,0,0,0,0,-1,1175,1219,0,0
-42,-195,0,0,0,0,0,0,0,0,0,-1,1182,1219,0,0
-35,-195,0,0,0,0,0,0,0,0,0,-1,1189,1219,0,0
-28,-195,0,0,0,0,0,0,0,0,0,-1,1196,1219,0,0
-21,-195,0,0,0,0,0,0,0,0,0,-1,1203,1219,0,0
-14,-195,0,0,0,0,0,0,0,0,0,-1,1210,1219,0,0
-7,-195,0,0,0,0,0,0,0,0,0,-1,1217,1219,0,0
0,-195,0,0,0,0,0,0,0,0,0,-1,1224,1219,0,0
7,-195,0,0,0,0,0,0,0,0,0,-1,1231,1219,0,0
14,-195,0,0,0,0,0,0,0,0,0,-1,1238,1219,0,0
21,-195,0,0,0,0,0,0,0,0,0,-1,1245,1219,0,0
28,-195,0,0,0,0,0,0,0,0,0,-1,1252,1219,0,0
35,-195,0,0,0,0,0,0,0,0,0,-1,1259,1219,0,0
42,-195,0,0,0,0,0,0,0,0,0,-1,1266,1219,0,0
49,-195,0,0,0,0,0,0,0,0,0,-1,1273,1219,0,0
56,-195,0,0,0,0,0,0,0,0,0,-1,1280,1219,0,0
63,-195,0,0,0,0,0,0,0,0,0,-1,1287,1219,0,0
70,-195,0,0,0,0,0,0,0,0,0,-1,1294,1219,0,0
77,-195,0,0,0,0,0,0,0,0,0,-1,1301,1219,0,0
84,-195,0,0,0,0,0,0,0,0,0,-1,1308,1219,0,0
91,-195,0,0,0,0,0,0,0,0,0,-1,1315,1219,0,0
98,-195,0,0,0,0,0,0,0,0,0,-1,1322,1219,0,0
105,-195,0,0,0,0,0,0,0,0,0,-1,1329,1219,0,0
112,-195,0,0,0,0,0,0,0,0,0,-1,1336,1219,0,0
119,-195,0,0,0,0,0,0,0,0,0,-1,1343,1219,0,0
126,-195,0,0,0,0,0,0,0,0,0,-1,1350,1219,0,0
133,-195,0,0,0,0,0,0,0,0,0,-1,1357,1219,0,0
140,-195,0,0,0,0,0,0,0,0,0,-1,1364,1219,0,0
147,-195,0,0,0,0,0,0,0,0,0,-1,1371,1219,0,0
154,-195,0,0,0,0,0,0,0,0,0,-1,1378,1219,0,0
161,-195,0,0,0,0,0,0,0,0,0,-1,1385,1219,0,0
168,-195,0,0,0,0,0,0,0,0,0,-1,1392,1219,0,0
175,-195,0,0,0,0,0,0,0,0,0,-1,1399,1219,0,0
182,-195,0,0,0,0,0,0,0,0,0,-1,1406,1219,0,0
189,-195,0,0,0,0,0,0,0,0,0,-1,1413,1219,0,0
196,-195,0,0,0,0,0,0,0,0,0,-1,1420,1219,0,0
203,-195,0,0,0,0,0,0,0,0,0,-1,1427,1219,0,0
210,-195,0,0,0,0,0,0,0,0,0,-1,1434,1219,0,0
217,-195,0,0,0,0,0,0,0,0,0,-1,1441,1219,0,0
224,-195,0,0,0,0,0,0,0,0,0,-1,1448,1219,0,0
231,-195,0,0,0,0,0,0,0,0,0,-1,1455,1219,0,0
238,-195,0,0,0,0,0,0,0,0,0,-1,1462,1219,0,0
245,-195,0,0,0,0,0,0,0,0,0,-1,1469,1219,0,0
252,-195,0,0,0,0,0,0,0,0,0,-1,1476,1219,0,0
259,-195,0,0,0,0,0,0,0,0,0,-1,1483,1219,0,0
266,-195,0,0,0,0,0,0,0,0,0,-1,1490,1219,0,0
273,-195,0,0,0,0,0,0,0,0,0,-1,1497,1219,0,0
280,-195,0,0,0,0,0,0,0,0,0,-1,1504,1219,0,0
287,-195,0,0,0,0,0,0,0,0,0,-1,1511,1219,0,0
294,-195,0,0,0,0,0,0,0,0,0,-1,1518,1219,0,0
301,-195,0,0,0,0,0,0,0,0,0,-1,1525,1219,0,0
308,-195,0,0,0,0,0,0,0,0,0,-1,1532,1219,0,0
315,-195,0,0,0,0,0,0,0,0,0,-1,1539,1219,0,0
322,-195,0,0,0,0,0,0,0,0,0,-1,1546,1219,0,0
329,-195,0,0,0,0,0,0,0,0,0,-1,1553,1219,0,0
336,-195,0,0,0,0,0,0,0,0,0,-1,1560,1219,0,0
343,-195,0,0,0,0,0,0,0,0,0,-1,1567,1219,0,0
350,-195,0,0,0,0,0,0,0,0,0,-1,1574,1219,0,0
357,-195,0,0,0,0,0,0,0,0,0,-1,1581,1219,0,0
364,-195,0,0,0,0,0,0,0,0,0,-1,1588,1219,0,0
371,-195,0,0,0,0,0,0,0,0,0,-1,1595,1219,0,0
378,-195,0,0,0,0,0,0,0,0,0,-1,1602,1219,0,0
385,-195,0,0,0,0,0,0,0,0,0,-1,1609,1219,0,0
392,-195,0,0,0,0,0,0,0,0,0,-1,1616,1219,0,0
399,-195,0,0,0,0,0,0,0,0,0,-1,1623,1219,0,0
406,-195,0,0,0,0,0,0,0,0,0,-1,1630,1219,0,0
413,-195,0,0,0,0,0,0,0,0,0,-1,1637,1219,0,0
420,-195,0,0,0,0,0,0,0,0,0,-1,1644,1219,0,0
427,-195,0,0,0,0,0,0,0,0,0,-1,1651,1219,0,0
434,-195,0,0,0,0,0,0,0,0,0,-1,1658,1219,0,0
441,-195,0,0,0,0,0,0,0,0,0,-1,1665,1219,0,0
448,-195,0,0,0,0,0,0,0,0,0,-1,1672,1219,0,0
455,-195,0,0,0,0,0,0,0,0,0,-1,1679,1219,0,0
462,-195,0,0,0,0,0,0,0,0,0,-1,1686,1219,0,0
469,-195,0,0,0,0,0,0,0,0,0,-1,1693,1219,0,0
476,-195,0,0,0,0,0,0,0,0,0,-1,1700,1219,0,0
483,-195,0,0,0,0,0,0,0,0,0,-1,1707,1219,0,0
490,-195,0,0,0,0,0,0,0,0,0,-1,1714,1219,0,0
497,-195,0,0,0,0,0,0,0,0,0,-1,1721,1219,0,0
504,-195,0,0,0,0,0,0,0,0,0,-1,1728,1219,0,0
511,-195,0,0,0,0,0,0,0,0,0,-1,1735,1219,0,0
518,-195,0,0,0,0,0,0,0,0,0,-1,1742,1219,0,0
525,-195,0,0,0,0,0,0,0,0,0,-1,1749,1219,0,0
532,-195,0,0,0,0,0,0,0,0,0,-1,1756,1219,0,0
539,-195,0,0,0,0,0,0,0,0,0,-1,1763,1219,0,0
546,-195,0,0,0,0,0,0,0,0,0,-1,1770,1219,0,0
553,-195,0,0,0,0,0,0,0,0,0,-1,1777,1219,0,0
560,-195,0,0,0,0,0,0,0,0,0,-1,1784,1219,0,0
567,-195,0,0,0,0,0,0,0,0,0,-1,1791,1219,0,0
574,-195,0,0,0,0,0,0,0,0,0,-1,1798,1219,0,0
581,-195,0,0,0,0,0,0,0,0,0,-1,1805,1219,0,0
588,-195,0,0,0,0,0,0,0,0,0,-1,1812,1219,0,0
595,-195,0,0,0,0,0,0,0,0,0,-1,1819,1219,0,0
602,-195,0,0,0,0,0,0,0,0,0,-1,1826,1219,0,0
609,-195,0,0,0,0,0,0,0,0,0,-1,1833,1219,0,0
616,-195,0,0,0,0,0,0,0,0,0,-1,1840,1219,0,0
623,-195,0,0,0,0,0,0,0,0,0,-1,1847,1219,0,0
630,-195,46.6222,2.57361,0,0,0,0,0,0,0,-1,1854,1219,46.6222,-2.57363
637,-195,46.5553,2.4762,0,0,0,0,0,0,0,-1,1861,1219,46.5553,-2.47621
644,-195,46.4503,2.70532,-0.00022046,0.00286511,-8.04122e-05,0.0028672,-0.000222555,-1.54476,0.00198981,0.0365927,1868,1219,46.4504,-2.70532
651,-195,46.479,2.71643,0.000889303,0.00291764,-0.00139351,0.00362696,0.000179987,-1.09996,0.00236026,0.0279193,1875,1219,46.479,-2.71648
658,-195,46.5125,2.79102,0.00175128,0.00246676,-0.00231913,0.00445558,-0.000237541,-0.861923,0.00305265,0.0263672,1882,1219,46.5125,-2.79103
665,-195,46.5104,2.74963,0.00227404,0.00166102,-0.00274005,0.00472467,-0.000789613,-0.729699,0.0034433,0.0254357,1889,1219,46.5104,-2.7496
672,-195,46.5519,2.547,0.00180454,0.000742825,-0.0023479,0.00368084,-0.00113348,-0.674218,0.00290636,0.0378793,1896,1219,46.5518,-2.54695
679,-195,46.572,2.34729,0,0,0,0,0,0,0,-1,1903,1219,46.5721,-2.34731
686,-195,45.5856,2.31897,0,0,0,0,0,0,0,-1,1910,1219,45.5856,-2.31902
693,-195,24.4368,5.68298,0,0,0,0,0,0,0,-1,1917,1219,24.4368,-5.68293
700,-195,38.3751,8.95007,0,0,0,0,0,0,0,-1,1924,1219,38.3751,-8.95009
707,-195,38.3961,8.36792,0,0,0,0,0,0,0,-1,1931,1219,38.3962,-8.36787
714,-195,38.415,7.88416,0,0,0,0,0,0,0,-1,1938,1219,38.415,-7.8841
721,-195,38.3479,7.47607,-0.00150768,-0.00166799,0.000478975,-0.0011022,-0.00207347,0.70249,0.00119791,0.0219373,1945,1219,38.3479,-7.47608
728,-195,38.3192,7.09656,-0.00188575,-0.00191582,0.00113358,-0.0007671,-0.00303447,0.778769,0.00182193,0.0113656,1952,1219,38.3192,-7.09655
735,-195,38.311,6.69006,-0.0015604,-0.00148375,0.00126565,-0.000255847,-0.0027883,0.800535,0.00177972,0.0136198,1959,1219,38.311,-6.69006
742,-195,38.29,6.31055,-0.000538277,-0.00088701,0.00119376,0.000493784,-0.00191907,0.712879,0.00147185,0.0149228,1966,1219,38.29,-6.31057
749,-195,38.2782,5.90356,0.000896523,6.83693e-05,0.000195979,0.000940559,2.43335e-05,0.221026,0.000619088,0.0142298,1973,1219,38.2782,-5.90352
756,-195,38.2852,5.48877,0.00254009,0.0024108,-0.00229786,0.00477422,0.000176674,-0.771335,0.00312559,0.0133872,1980,1219,38.2851,-5.48876
763,-195,38.3041,5.06555,0.00455303,0.00497929,-0.0057503,0.0105204,-0.000988089,-0.803922,0.00736509,0.0169015,1987,1219,38.304,-5.06555
770,-195,38.2632,4.64465,0.00659276,0.0087955,-0.0110992,0.0188478,-0.00345957,-0.834851,0.0138631,0.0336746,1994,1219,38.2632,-4.64468
777,-195,38.2064,4.23889,0,0,0,0,0,0,0,-1,2001,1219,38.2064,-4.23885
784,-195,40.2747,-0.327393,0,0,0,0,0,0,0,-1,2008,1219,40.2747,0.327416
791,-195,40.3972,1.3114,0,0,0,0,0,0,0,-1,2015,1219,40.3973,-1.31137
798,-195,40.4421,3.11365,0,0,0,0,0,0,0,-1,2022,1219,40.4421,-3.11367
805,-195,0,0,0,0,0,0,0,0,0,-1,2029,1219,0,0
812,-195,0,0,0,0,0,0,0,0,0,-1,2036,1219,0,0
-700,-202,0,0,0,0,0,0,0,0,0,-1,524,1226,0,0
-693,-202,0,0,0,0,0,0,0,0,0,-1,531,1226,0,0
-686,-202,0,0,0,0,0,0,0,0,0,-1,538,1226,0,0
-679,-202,-32.1727,-7.85217,0,0,0,0,0,0,0,-1,545,1226,-32.1727,7.85213
-672,-202,-27.1499,1.59351,0,0,0,0,0,0,0,-1,552,1226,-27.1499,-1.59355
-665,-202,-26.5106,1.61316,0.0737804,-0.0231914,-0.0326885,0.0837703,-0.0331813,-0.296595,0.0695959,0.0465957,559,1226,-26.5106,-1.61317
-658,-202,-25.6973,1.49353,0.0618382,-0.0139531,-0.0252542,0.0694822,-0.0215971,-0.293914,0.0549538,0.0468579,566,1226,-25.6973,-1.49347
-651,-202,-25.0834,1.21814,0,0,0,0,0,0,0,-1,573,1226,-25.0834,-1.21815
-644,-202,-25.0651,1.56348,0.0398729,-0.002228,-0.0139112,0.0440543,-0.00640935,-0.291983,0.0317225,0.0476755,580,1226,-25.0651,-1.56353
-637,-202,-25.0261,1.89624,0.0301411,0.000841253,-0.00968152,0.0330511,-0.00206878,-0.291986,0.022755,0.0382423,587,1226,-25.0261,-1.89621
-630,-202,-25.1866,2.40527,0.0218938,0.00332713,-0.00640247,0.0238876,0.00133341,-0.30188,0.0154997,0.0163551,594,1226,-25.1866,-2.40525
-623,-202,-25.2365,2.8645,0.0149873,0.00419798,-0.0041527,0.0164005,0.00278475,-0.32802,0.0101338,0.00887861,601,1226,-25.2365,-2.86444
-616,-202,-25.2503,3.31763,0.00951071,0.00327126,-0.00278188,0.0105709,0.00221109,-0.364107,0.00643806,0.00896518,608,1226,-25.2503,-3.31762
-609,-202,-25.2681,3.78723,0.00476765,0.00222507,-0.00185616,0.00574614,0.00124658,-0.485138,0.00349025,0.0219719,615,1226,-25.2681,-3.7872
-602,-202,-25.3036,4.22522,0.00233937,0.00118362,-0.0018073,0.00365894,-0.000135947,-0.630662,0.00248585,0.0212843,622,1226,-25.3036,-4.22521
-595,-202,-25.3544,4.71069,0.00166275,0.00051149,-0.0018285,0.00300409,-0.000829843,-0.632904,0.00232915,0.016129,629,1226,-25.3544,-4.71067
-588,-202,-25.2909,5.15857,0.00207296,0.0015173,-0.00148122,0.00330218,0.000288077,-0.692691,0.00211199,0.0144511,636,1226,-25.2909,-5.1586
-581,-202,-25.2244,5.49792,0.00233079,0.00228205,-0.00115615,0.00346283,0.00115001,-0.774861,0.00203649,0.0477744,643,1226,-25.2244,-5.49794
-574,-202,-25.3995,5.72876,0,0,0,0,0,0,0,-1,650,1226,-25.3995,-5.72881
-567,-202,-22.1768,4.56995,0,0,0,0,0,0,0,-1,657,1226,-22.1768,-4.56991
-560,-202,-10.929,2.73096,0,0,0,0,0,0,0,-1,664,1226,-10.929,-2.73092
-553,-202,-30.2701,1.474,0,0,0,0,0,0,0,-1,671,1226,-30.2701,-1.47395
-546,-202,-34.5167,1.03516,0,0,0,0,0,0,0,-1,678,1226,-34.5167,-1.03522
-539,-202,-34.4156,1.03076,0.000904534,0.00669493,0.000558331,0.00674827,0.000851189,1.47554,0.00424367,0.0453851,685,1226,-34.4156,-1.0308
-532,-202,-34.4324,0.983643,0.000275182,0.00700456,0.000741501,0.00708529,0.000194446,1.46234,0.00466007,0.0314461,692,1226,-34.4324,-0.9837
-525,-202,-34.6234,1.26379,-0.000248101,0.00624897,0.000443884,0.00627916,-0.000278287,1.5029,0.00428188,0.0357626,699,1226,-34.6234,-1.2638
-518,-202,-34.8772,1.43518,0.000109585,0.00307811,-0.000717851,0.00324259,-5.48926e-05,-1.34556,0.00218025,0.040524,706,1226,-34.8772,-1.43519
-511,-202,-35.048,1.47827,0,0,0,0,0,0,0,-1,713,1226,-35.048,-1.47828
-504,-202,0,0,0,0,0,0,0,0,0,-1,720,1226,0,0
-497,-202,0,0,0,0,0,0,0,0,0,-1,727,1226,0,0
-490,-202,0,0,0,0,0,0,0,0,0,-1,734,1226,0,0
-483,-202,0,0,0,0,0,0,0,0,0,-1,741,1226,0,0
-476,-202,0,0,0,0,0,0,0,0,0,-1,748,1226,0,0
-469,-202,0,0,0,0,0,0,0,0,0,-1,755,1226,0,0
-462,-202,0,0,0,0,0,0,0,0,0,-1,762,1226,0,0
-455,-202,0,0,0,0,0,0,0,0,0,-1,769,1226,0,0
-448,-202,0,0,0,0,0,0,0,0,0,-1,776,1226,0,0
-441,-202,0,0,0,0,0,0,0,0,0,-1,783,1226,0,0
-434,-202,0,0,0,0,0,0,0,0,0,-1,790,1226,0,0
-427,-202,0,0,0,0,0,0,0,0,0,-1,797,1226,0,0
-420,-202,0,0,0,0,0,0,0,0,0,-1,804,1226,0,0
-413,-202,0,0,0,0,0,0,0,0,0,-1,811,1226,0,0
-406,-202,0,0,0,0,0,0,0,0,0,-1,818,1226,0,0
-399,-202,0,0,0,0,0,0,0,0,0,-1,825,1226,0,0
-392,-202,0,0,0,0,0,0,0,0,0,-1,832,1226,0,0
-385,-202,0,0,0,0,0,0,0,0,0,-1,839,1226,0,0
-378,-202,0,0,0,0,0,0,0,0,0,-1,846,1226,0,0
-371,-202,0,0,0,0,0,0,0,0,0,-1,853,1226,0,0
-364,-202,0,0,0,0,0,0,0,0,0,-1,860,1226,0,0
-357,-202,0,0,0,0,0,0,0,0,0,-1,867,1226,0,0
-350,-202,0,0,0,0,0,0,0,0,0,-1,874,1226,0,0
-343,-202,0,0,0,0,0,0,0,0,0,-1,881,1226,0,0
-336,-202,0,0,0,0,0,0,0,0,0,-1,888,1226,0,0
-329,-202,0,0,0,0,0,0,0,0,0,-1,895,1226,0,0
-322,-202,0,0,0,0,0,0,0,0,0,-1,902,1226,0,0
-315,-202,0,0,0,0,0,0,0,0,0,-1,909,1226,0,0
-308,-202,0,0,0,0,0,0,0,0,0,-1,916,1226,0,0
-301,-202,0,0,0,0,0,0,0,0,0,-1,923,1226,0,0
-294,-202,0,0,0,0,0,0,0,0,0,-1,930,1226,0,0
-287,-202,0,0,0,0,0,0,0,0,0,-1,937,1226,0,0
-280,-202,0,0,0,0,0,0,0,0,0,-1,944,1226,0,0
-273,-202,0,0,0,0,0,0,0,0,0,-1,951,1226,0,0
-266,-202,0,0,0,0,0,0,0,0,0,-1,958,1226,0,0
-259,-202,0,0,0,0,0,0,0,0,0,-1,965,1226,0,0
-252,-202,0,0,0,0,0,0,0,0,0,-1,972,1226,0,0
-245,-202,0,0,0,0,0,0,0,0,0,-1,979,1226,0,0
-238,-202,0,0,0,0,0,0,0,0,0,-1,986,1226,0,0
-231,-202,0,0,0,0,0,0,0,0,0,-1,993,1226,0,0
-224,-202,0,0,0,0,0,0,0,0,0,-1,1000,1226,0,0
-217,-202,0,0,0,0,0,0,0,0,0,-1,1007,1226,0,0
-210,-202,0,0,0,0,0,0,0,0,0,-1,1014,1226,0,0
-203,-202,0,0,0,0,0,0,0,0,0,-1,1021,1226,0,0
-196,-202,0,0,0,0,0,0,0,0,0,-1,1028,1226,0,0
-189,-202,0,0,0,0,0,0,0,0,0,-1,1035,1226,0,0
-182,-202,0,0,0,0,0,0,0,0,0,-1,1042,1226,0,0
-175,-202,0,0,0,0,0,0,0,0,0,-1,1049,1226,0,0
-168,-202,0,0,0,0,0,0,0,0,0,-1,1056,1226,0,0
-161,-202,0,0,0,0,0,0,0,0,0,-1,1063,1226,0,0
-154,-202,0,0,0,0,0,0,0,0,0,-1,1070,1226,0,0
-147,-202,0,0,0,0,0,0,0,0,0,-1,1077,1226,0,0
-140,-202,0,0,0,0,0,0,0,0,0,-1,1084,1226,0,0
-133,-202,0,0,0,0,0,0,0,0,0,-1,1091,1226,0,0
-126,-202,0,0,0,0,0,0,0,0,0,-1,1098,1226,0,0
-119,-202,0,0,0,0,0,0,0,0,0,-1,1105,1226,0,0
-112,-202,0,0,0,0,0,0,0,0,0,-1,1112,1226,0,0
-105,-202,0,0,0,0,0,0,0,0,0,-1,1119,1226,0,0
-98,-202,0,0,0,0,0,0,0,0,0,-1,1126,1226,0,0
-91,-202,0,0,0,0,0,0,0,0,0,-1,1133,1226,0,0
-84,-202,0,0,0,0,0,0,0,0,0,-1,1140,1226,0,0
-77,-202,0,0,0,0,0,0,0,0,0,-1,1147,1226,0,0
-70,-202,0,0,0,0,0,0,0,0,0,-1,1154,1226,0,0
-63,-202,0,0,0,0,0,0,0,0,0,-1,1161,1226,0,0
-56,-202,0,0,0,0,0,0,0,0,0,-1,1168,1226,0,0
-49,-202,0,0,0,0,0,0,0,0,0,-1,1175,1226,0,0
-42,-202,0,0,0,0,0,0,0,0,0,-1,1182,1226,0,0
-35,-202,0,0,0,0,0,0,0,0,0,-1,1189,1226,0,0
-28,-202,0,0,0,0,0,0,0,0,0,-1,1196,1226,0,0
-21,-202,0,0,0,0,0,0,0,0,0,-1,1203,1226,0,0
-14,-202,0,0,0,0,0,0,0,0,0,-1,1210,1226,0,0
-7,-202,0,0,0,0,0,0,0,0,0,-1,1217,1226,0,0
0,-202,0,0,0,0,0,0,0,0,0,-1,1224,1226,0,0
7,-202,0,0,0,0,0,0,0,0,0,-1,1231,1226,0,0
14,-202,0,0,0,0,0,0,0,0,0,-1,1238,1226,0,0
21,-202,0,0,0,0,0,0,0,0,0,-1,1245,1226,0,0
28,-202,0,0,0,0,0,0,0,0,0,-1,1252,1226,0,0
35,-202,0,0,0,0,0,0,0,0,0,-1,1259,1226,0,0
42,-202,0,0,0,0,0,0,0,0,0,-1,1266,1226,0,0
49,-202,0,0,0,0,0,0,0,0,0,-1,1273,1226,0,0
56,-202,0,0,0,0,0,0,0,0,0,-1,1280,1226,0,0
63,-202,0,0,0,0,0,0,0,0,0,-1,1287,1226,0,0
70,-202,0,0,0,0,0,0,0,0,0,-1,1294,1226,0,0
77,-202,0,0,0,0,0,0,0,0,0,-1,1301,1226,0,0
84,-202,0,0,0,0,0,0,0,0,0,-1,1308,1226,0,0
91,-202,0,0,0,0,0,0,0,0,0,-1,1315,1226,0,0
98,-202,0,0,0,0,0,0,0,0,0,-1,1322,1226,0,0
105,-202,0,0,0,0,0,0,0,0,0,-1,1329,1226,0,0
112,-202,0,0,0,0,0,0,0,0,0,-1,1336,1226,0,0
119,-202,0,0,0,0,0,0,0,0,0,-1,1343,1226,0,0
126,-202,0,0,0,0,0,0,0,0,0,-1,1350,1226,0,0
133,-202,0,0,0,0,0,0,0,0,0,-1,1357,1226,0,0
140,-202,0,0,0,0,0,0,0,0,0,-1,1364,1226,0,0
147,-202,0,0,0,0,0,0,0,0,0,-1,1371,1226,0,0
154,-202,0,0,0,0,0,0,0,0,0,-1,1378,1226,0,0
161,-202,0,0,0,0,0,0,0,0,0,-1,1385,1226,0,0
168,-202,0,0,0,0,0,0,0,0,0,-1,1392,1226,0,0
175,-202,0,0,0,0,0,0,0,0,0,-1,1399,1226,0,0
182,-202,0,0,0,0,0,0,0,0,0,-1,1406,1226,0,0
189,-202,0,0,0,0,0,0,0,0,0,-1,1413,1226,0,0
196,-202,0,0,0,0,0,0,0,0,0,-1,1420,1226,0,0
203,-202,0,0,0,0,0,0,0,0,0,-1,1427,1226,0,0
210,-202,0,0,0,0,0,0,0,0,0,-1,1434,1226,0,0
217,-202,0,0,0,0,0,0,0,0,0,-1,1441,1226,0,0
224,-202,0,0,0,0,0,0,0,0,0,-1,1448,1226,0,0
231,-202,0,0,0,0,0,0,0,0,0,-1,1455,1226,0,0
238,-202,0,0,0,0,0,0,0,0,0,-1,1462,1226,0,0
245,-202,0,0,0,0,0,0,0,0,0,-1,1469,1226,0,0
252,-202,0,0,0,0,0,0,0,0,0,-1,1476,1226,0,0
259,-202,0,0,0,0,0,0,0,0,0,-1,1483,1226,0,0
266,-202,0,0,0,0,0,0,0,0,0,-1,1490,1226,0,0
273,-202,0,0,0,0,0,0,0,0,0,-1,1497,1226,0,0
280,-202,0,0,0,0,0,0,0,0,0,-1,1504,1226,0,0
287,-202,0,0,0,0,0,0,0,0,0,-1,1511,1226,0,0
294,-202,0,0,0,0,0,0,0,0,0,-1,1518,1226,0,0
301,-202,0,0,0,0,0,0,0,0,0,-1,1525,1226,0,0
308,-202,0,0,0,0,0,0,0,0,0,-1,1532,1226,0,0
315,-202,0,0,0,0,0,0,0,0,0,-1,1539,1226,0,0
322,-202,0,0,0,0,0,0,0,0,0,-1,1546,1226,0,0
329,-202,0,0,0,0,0,0,0,0,0,-1,1553,1226,0,0
336,-202,0,0,0,0,0,0,0,0,0,-1,1560,1226,0,0
343,-202,0,0,0,0,0,0,0,0,0,-1,1567,1226,0,0
350,-202,0,0,0,0,0,0,0,0,0,-1,1574,1226,0,0
357,-202,0,0,0,0,0,0,0,0,0,-1,1581,1226,0,0
364,-202,0,0,0,0,0,0,0,0,0,-1,1588,1226,0,0
371,-202,0,0,0,0,0,0,0,0,0,-1,1595,1226,0,0
378,-202,0,0,0,0,0,0,0,0,0,-1,1602,1226,0,0
385,-202,0,0,0,0,0,0,0,0,0,-1,1609,1226,0,0
392,-202,0,0,0,0,0,0,0,0,0,-1,1616,1226,0,0
399,-202,0,0,0,0,0,0,0,0,0,-1,1623,1226,0,0
406,-202,0,0,0,0,0,0,0,0,0,-1,1630,1226,0,0
413,-202,0,0,0,0,0,0,0,0,0,-1,1637,1226,0,0
420,-202,0,0,0,0,0,0,0,0,0,-1,1644,1226,0,0
427,-202,0,0,0,0,0,0,0,0,0,-1,1651,1226,0,0
434,-202,0,0,0,0,0,0,0,0,0,-1,1658,1226,0,0
441,-202,0,0,0,0,0,0,0,0,0,-1,1665,1226,0,0
448,-202,0,0,0,0,0,0,0,0,0,-1,1672,1226,0,0
455,-202,0,0,0,0,0,0,0,0,0,-1,1679,1226,0,0
462,-202,0,0,0,0,0,0,0,0,0,-1,1686,1226,0,0
469,-202,0,0,0,0,0,0,0,0,0,-1,1693,1226,0,0
476,-202,0,0,0,0,0,0,0,0,0,-1,1700,1226,0,0
483,-202,0,0,0,0,0,0,0,0,0,-1,1707,1226,0,0
490,-202,0,0,0,0,0,0,0,0,0,-1,1714,1226,0,0
497,-202,0,0,0,0,0,0,0,0,0,-1,1721,1226,0,0
504,-202,0,0,0,0,0,0,0,0,0,-1,1728,1226,0,0
511,-202,0,0,0,0,0,0,0,0,0,-1,1735,1226,0,0
518,-202,0,0,0,0,0,0,0,0,0,-1,1742,1226,0,0
525,-202,0,0,0,0,0,0,0,0,0,-1,1749,1226,0,0
532,-202,0,0,0,0,0,0,0,0,0,-1,1756,1226,0,0
539,-202,0,0,0,0,0,0,0,0,0,-1,1763,1226,0,0
546,-202,0,0,0,0,0,0,0,0,0,-1,1770,1226,0,0
553,-202,0,0,0,0,0,0,0,0,0,-1,1777,1226,0,0
560,-202,0,0,0,0,0,0,0,0,0,-1,1784,1226,0,0
567,-202,0,0,0,0,0,0,0,0,0,-1,1791,1226,0,0
574,-202,0,0,0,0,0,0,0,0,0,-1,1798,1226,0,0
581,-202,0,0,0,0,0,0,0,0,0,-1,1805,1226,0,0
588,-202,0,0,0,0,0,0,0,0,0,-1,1812,1226,0,0
595,-202,0,0,0,0,0,0,0,0,0,-1,1819,1226,0,0
602,-202,0,0,0,0,0,0,0,0,0,-1,1826,1226,0,0
609,-202,0,0,0,0,0,0,0,0,0,-1,1833,1226,0,0
616,-202,0,0,0,0,0,0,0,0,0,-1,1840,1226,0,0
623,-202,0,0,0,0,0,0,0,0,0,-1,1847,1226,0,0
630,-202,46.5131,2.68152,-0.000425467,0.00198207,0.00364878,0.00462052,-0.00306392,0.944731,0.00446685,0.0397218,1854,1226,46.5131,-2.68154
637,-202,46.6117,2.80969,-0.000354969,0.00265933,0.00154461,0.00331027,-0.0010059,1.17196,0.00260764,0.0379351,1861,1226,46.6117,-2.80971
644,-202,46.5903,2.77576,0.000396237,0.0032814,-0.000556131,0.00338488,0.000292751,-1.38682,0.00216561,0.034771,1868,1226,46.5904,-2.77572
651,-202,46.5691,2.7561,0.00120788,0.00328798,-0.00189518,0.00440974,8.6122e-05,-1.03635,0.00291154,0.0274271,1875,1226,46.569,-2.75609
658,-202,46.5355,2.76904,0.00186752,0.00267775,-0.00266488,0.00496814,-0.000422867,-0.860831,0.00346167,0.0232713,1882,1226,46.5356,-2.76908
665,-202,46.5499,2.66064,0.00226283,0.00176424,-0.0029139,0.00493808,-0.000911013,-0.742726,0.00363399,0.0228533,1889,1226,46.5499,-2.66062
672,-202,46.6549,2.53552,0.0018713,0.00082744,-0.00250808,0.00391118,-0.00121244,-0.682812,0.00309188,0.0456236,1896,1226,46.655,-2.53555
679,-202,46.8436,2.4668,0,0,0,0,0,0,0,-1,1903,1226,46.8436,-2.46685
686,-202,45.6957,1.97473,0,0,0,0,0,0,0,-1,1910,1226,45.6956,-1.97469
693,-202,37.7367,9.58582,0,0,0,0,0,0,0,-1,1917,1226,37.7367,-9.58581
700,-202,37.8436,8.89929,0.000792235,-0.00154559,-0.00120081,0.00129912,-0.00205247,-0.399429,0.00195127,0.0445967,1924,1226,37.8436,-8.89931
707,-202,37.9338,8.17261,0.000424538,-0.00150524,-0.000953639,0.000816276,-0.00189698,-0.389767,0.00160739,0.0334193,1931,1226,37.9338,-8.17265
714,-202,37.9153,7.76099,-0.000366376,-0.00171916,-0.000438771,-0.000236526,-0.00184901,-0.287729,0.00116188,0.0256063,1938,1226,37.9152,-7.761
721,-202,37.9541,7.49866,-0.00131685,-0.00202771,0.000552774,-0.0010151,-0.00232947,0.499679,0.00134861,0.0151241,1945,1226,37.9541,-7.49863
728,-202,37.9199,7.11414,-0.00159625,-0.00211886,0.00119953,-0.000629893,-0.00308521,0.678154,0.00188231,0.0117406,1952,1226,37.9199,-7.11419
735,-202,37.8931,6.70117,-0.00112142,-0.00167458,0.00129358,-7.51883e-05,-0.00272082,0.680079,0.00178934,0.0119825,1959,1226,37.893,-6.70113
742,-202,37.885,6.28577,-6.20189e-05,-0.00123837,0.00122727,0.00071074,-0.00201113,0.561941,0.00163016,0.0126951,1966,1226,37.885,-6.28575
749,-202,37.8691,5.87122,0.00145095,-0.000410143,0.000219837,0.00147657,-0.000435758,0.115995,0.00115731,0.0127916,1973,1226,37.8692,-5.87118
756,-202,37.8752,5.48035,0.00338037,0.0013094,-0.00225025,0.00482195,-0.00013218,-0.56976,0.00325959,0.0122,1980,1226,37.8753,-5.48032
763,-202,37.917,5.10889,0.00585672,0.00331721,-0.00575952,0.0104848,-0.00131087,-0.676903,0.00746528,0.0199324,1987,1226,37.917,-5.10883
770,-202,37.7964,4.81726,0.00867427,0.0065388,-0.0114094,0.0190658,-0.00385274,-0.738742,0.0141705,0.0467462,1994,1226,37.7964,-4.81722
777,-202,37.6846,4.50256,0,0,0,0,0,0,0,-1,2001,1226,37.6846,-4.50255
784,-202,37.9491,-2.1272,0,0,0,0,0,0,0,-1,2008,1226,37.9491,2.12721
791,-202,41.6821,1.56946,0,0,0,0,0,0,0,-1,2015,1226,41.6821,-1.56946
798,-202,41.7263,3.20728,0,0,0,0,0,0,0,-1,2022,1226,41.7262,-3.20725
805,-202,0,0,0,0,0,0,0,0,0,-1,2029,1226,0,0
812,-202,0,0,0,0,0,0,0,0,0,-1,2036,1226,0,0
-700,-209,0,0,0,0,0,0,0,0,0,-1,524,1233,0,0
-693,-209,0,0,0,0,0,0,0,0,0,-1,531,1233,0,0
-686,-209,0,0,0,0,0,0,0,0,0,-1,538,1233,0,0
-679,-209,-32.7926,-9.18481,0,0,0,0,0,0,0,-1,545,1233,-32.7926,9.18476
-672,-209,-32.4476,-8.01477,0,0,0,0,0,0,0,-1,552,1233,-32.4476,8.01477
-665,-209,-26.5978,1.91943,0,0,0,0,0,0,0,-1,559,1233,-26.5978,-1.9194
-658,-209,-25.1855,1.61511,0,0,0,0,0,0,0,-1,566,1233,-25.1856,-1.61511
-651,-209,-23.7733,1.31079,0,0,0,0,0,0,0,-1,573,1233,-23.7733,-1.31082
-644,-209,-24.5661,1.40002,0,0,0,0,0,0,0,-1,580,1233,-24.5661,-1.39998
-637,-209,-24.6164,1.7356,0.0337345,0.00285824,-0.00922378,0.0362801,0.000312652,-0.269278,0.0240832,0.0488115,587,1233,-24.6164,-1.73558
-630,-209,-24.6589,2.35315,0.0246311,0.00486521,-0.00579764,0.0262061,0.00329018,-0.265265,0.0164839,0.0258584,594,1233,-24.6589,-2.35317
-623,-209,-24.7579,2.85583,0.0172665,0.00528876,-0.00357927,0.0182546,0.00430069,-0.269346,0.0110195,0.0129472,601,1233,-24.7579,-2.85586
-616,-209,-24.7928,3.33228,0.0114523,0.00407685,-0.00226671,0.0120932,0.00343591,-0.275567,0.00719567,0.0121778,608,1233,-24.7928,-3.33222
-609,-209,-24.8238,3.79688,0.00635471,0.00278883,-0.00130644,0.00678213,0.00236141,-0.316183,0.00397538,0.0142814,615,1233,-24.8238,-3.79691
-602,-209,-24.8483,4.26782,0.00348895,0.00149987,-0.00127881,0.00411443,0.000874394,-0.454899,0.00250293,0.0160786,622,1233,-24.8483,-4.26779
-595,-209,-24.8304,4.71143,0.00247628,0.000395424,-0.00141168,0.00318951,-0.00031781,-0.467829,0.00223981,0.0113678,629,1233,-24.8304,-4.71148
-588,-209,-24.7906,5.1969,0.00273937,0.00114661,-0.00113374,0.00332848,0.000557501,-0.479218,0.00205847,0.0166767,636,1233,-24.7906,-5.19694
-581,-209,-24.5291,5.74377,0.00285922,0.00182587,-0.000768675,0.00326873,0.00141636,-0.489497,0.00189279,0.0462307,643,1233,-24.529,-5.74372
-574,-209,-24.7799,6.23413,0,0,0,0,0,0,0,-1,650,1233,-24.7799,-6.23417
-567,-209,-24.9373,6.49768,0,0,0,0,0,0,0,-1,657,1233,-24.9372,-6.49766
-560,-209,-13.9294,4.16626,0,0,0,0,0,0,0,-1,664,1233,-13.9294,-4.16621
-553,-209,-22.7542,0.748779,0,0,0,0,0,0,0,-1,671,1233,-22.7541,-0.748796
-546,-209,-34.7021,0.725708,0,0,0,0,0,0,0,-1,678,1233,-34.7021,-0.725748
-539,-209,-34.4382,0.782227,0.00062902,0.00650981,0.00113192,0.00672016,0.000418676,1.38706,0.00434727,0.0411471,685,1233,-34.4382,-0.782176
-532,-209,-34.27,0.920532,-0.000117225,0.00694473,0.0013146,0.0071815,-0.000354001,1.39259,0.00490992,0.03395,692,1233,-34.27,-0.920562
-525,-209,-34.5797,1.27405,-0.00084043,0.0066749,0.00119447,0.00686017,-0.00102571,1.41691,0.0049509,0.0336868,699,1233,-34.5796,-1.274
-518,-209,-34.6563,1.30811,-0.0012416,0.00446792,0.000438147,0.00450134,-0.00127503,1.49465,0.0035041,0.0405763,706,1233,-34.6563,-1.30811
-511,-209,-34.403,1.05493,0.00108262,-0.0019999,-0.00102635,0.00139308,-0.00231036,-0.29374,0.00215993,0.0436073,713,1233,-34.403,-1.05496
-504,-209,0,0,0,0,0,0,0,0,0,-1,720,1233,0,0
-497,-209,0,0,0,0,0,0,0,0,0,-1,727,1233,0,0
-490,-209,0,0,0,0,0,0,0,0,0,-1,734,1233,0,0
-483,-209,0,0,0,0,0,0,0,0,0,-1,741,1233,0,0
-476,-209,0,0,0,0,0,0,0,0,0,-1,748,1233,0,0
-469,-209,0,0,0,0,0,0,0,0,0,-1,755,1233,0,0
-462,-209,0,0,0,0,0,0,0,0,0,-1,762,1233,0,0
-455,-209,0,0,0,0,0,0,0,0,0,-1,769,1233,0,0
-448,-209,0,0,0,0,0,0,0,0,0,-1,776,1233,0,0
-441,-209,0,0,0,0,0,0,0,0,0,-1,783,1233,0,0
-434,-209,0,0,0,0,0,0,0,0,0,-1,790,1233,0,0
-427,-209,0,0,0,0,0,0,0,0,0,-1,797,1233,0,0
-420,-209,0,0,0,0,0,0,0,0,0,-1,804,1233,0,0
-413,-209,0,0,0,0,0,0,0,0,0,-1,811,1233,0,0
-406,-209,0,0,0,0,0,0,0,0,0,-1,818,1233,0,0
-399,-209,0,0,0,0,0,0,0,0,0,-1,825,1233,0,0
-392,-209,0,0,0,0,0,0,0,0,0,-1,832,1233,0,0
-385,-209,0,0,0,0,0,0,0,0,0,-1,839,1233,0,0
-378,-209,0,0,0,0,0,0,0,0,0,-1,846,1233,0,0
-371,-209,0,0,0,0,0,0,0,0,0,-1,853,1233,0,0
-364,-209,0,0,0,0,0,0,0,0,0,-1,860,1233,0,0
-357,-209,0,0,0,0,0,0,0,0,0,-1,867,1233,0,0
-350,-209,0,0,0,0,0,0,0,0,0,-1,874,1233,0,0
-343,-209,0,0,0,0,0,0,0,0,0,-1,881,1233,0,0
-336,-209,0,0,0,0,0,0,0,0,0,-1,888,1233,0,0
-329,-209,0,0,0,0,0,0,0,0,0,-1,895,1233,0,0
-322,-209,0,0,0,0,0,0,0,0,0,-1,902,1233,0,0
-315,-209,0,0,0,0,0,0,0,0,0,-1,909,1233,0,0
-308,-209,0,0,0,0,0,0,0,0,0,-1,916,1233,0,0
-301,-209,0,0,0,0,0,0,0,0,0,-1,923,1233,0,0
-294,-209,0,0,0,0,0,0,0,0,0,-1,930,1233,0,0
-287,-209,0,0,0,0,0,0,0,0,0,-1,937,1233,0,0
-280,-209,0,0,0,0,0,0,0,0,0,-1,944,1233,0,0
-273,-209,0,0,0,0,0,0,0,0,0,-1,951,1233,0,0
-266,-209,0,0,0,0,0,0,0,0,0,-1,958,1233,0,0
-259,-209,0,0,0,0,0,0,0,0,0,-1,965,1233,0,0
-252,-209,0,0,0,0,0,0,0,0,0,-1,972,1233,0,0
-245,-209,0,0,0,0,0,0,0,0,0,-1,979,1233,0,0
-238,-209,0,0,0,0,0,0,0,0,0,-1,986,1233,0,0
-231,-209,0,0,0,0,0,0,0,0,0,-1,993,1233,0,0
-224,-209,0,0,0,0,0,0,0,0,0,-1,1000,1233,0,0
-217,-209,0,0,0,0,0,0,0,0,0,-1,1007,1233,0,0
-210,-209,0,0,0,0,0,0,0,0,0,-1,1014,1233,0,0
-203,-209,0,0,0,0,0,0,0,0,0,-1,1021,1233,0,0
-196,-209,0,0,0,0,0,0,0,0,0,-1,1028,1233,0,0
-189,-209,0,0,0,0,0,0,0,0,0,-1,1035,1233,0,0
-182,-209,0,0,0,0,0,0,0,0,0,-1,1042,1233,0,0
-175,-209,0,0,0,0,0,0,0,0,0,-1,1049,1233,0,0
-168,-209,0,0,0,0,0,0,0,0,0,-1,1056,1233,0,0
-161,-209,0,0,0,0,0,0,0,0,0,-1,1063,1233,0,0
-154,-209,0,0,0,0,0,0,0,0,0,-1,1070,1233,0,0
-147,-209,0,0,0,0,0,0,0,0,0,-1,1077,1233,0,0
-140,-209,0,0,0,0,0,0,0,0,0,-1,1084,1233,0,0
-133,-209,0,0,0,0,0,0,0,0,0,-1,1091,1233,0,0
-126,-209,0,0,0,0,0,0,0,0,0,-1,1098,1233,0,0
-119,-209,0,0,0,0,0,0,0,0,0,-1,1105,1233,0,0
-112,-209,0,0,0,0,0,0,0,0,0,-1,1112,1233,0,0
-105,-209,0,0,0,0,0,0,0,0,0,-1,1119,1233,0,0
-98,-209,0,0,0,0,0,0,0,0,0,-1,1126,1233,0,0
-91,-209,0,0,0,0,0,0,0,0,0,-1,1133,1233,0,0
-84,-209,0,0,0,0,0,0,0,0,0,-1,1140,1233,0,0
-77,-209,0,0,0,0,0,0,0,0,0,-1,1147,1233,0,0
-70,-209,0,0,0,0,0,0,0,0,0,-1,1154,1233,0,0
-63,-209,0,0,0,0,0,0,0,0,0,-1,1161,1233,0,0
-56,-209,0,0,0,0,0,0,0,0,0,-1,1168,1233,0,0
-49,-209,0,0,0,0,0,0,0,0,0,-1,1175,1233,0,0
-42,-209,0,0,0,0,0,0,0,0,0,-1,1182,1233,0,0
-35,-209,0,0,0,0,0,0,0,0,0,-1,1189,1233,0,0
-28,-209,0,0,0,0,0,0,0,0,0,-1,1196,1233,0,0
-21,-209,0,0,0,0,0,0,0,0,0,-1,1203,1233,0,0
-14,-209,0,0,0,0,0,0,0,0,0,-1,1210,1233,0,0
-7,-209,0,0,0,0,0,0,0,0,0,-1,1217,1233,0,0
0,-209,0,0,0,0,0,0,0,0,0,-1,1224,1233,0,0
7,-209,0,0,0,0,0,0,0,0,0,-1,1231,1233,0,0
14,-209,0,0,0,0,0,0,0,0,0,-1,1238,1233,0,0
21,-209,0,0,0,0,0,0,0,0,0,-1,1245,1233,0,0
28,-209,0,0,0,0,0,0,0,0,0,-1,1252,1233,0,0
35,-209,0,0,0,0,0,0,0,0,0,-1,1259,1233,0,0
42,-209,0,0,0,0,0,0,0,0,0,-1,1266,1233,0,0
49,-209,0,0,0,0,0,0,0,0,0,-1,1273,1233,0,0
56,-209,0,0,0,0,0,0,0,0,0,-1,1280,1233,0,0
63,-209,0,0,0,0,0,0,0,0,0,-1,1287,1233,0,0
70,-209,0,0,0,0,0,0,0,0,0,-1,1294,1233,0,0
77,-209,0,0,0,0,0,0,0,0,0,-1,1301,1233,0,0
84,-209,0,0,0,0,0,0,0,0,0,-1,1308,1233,0,0
91,-209,0,0,0,0,0,0,0,0,0,-1,1315,1233,0,0
98,-209,0,0,0,0,0,0,0,0,0,-1,1322,1233,0,0
105,-209,0,0,0,0,0,0,0,0,0,-1,1329,1233,0,0
112,-209,0,0,0,0,0,0,0,0,0,-1,1336,1233,0,0
119,-209,0,0,0,0,0,0,0,0,0,-1,1343,1233,0,0
126,-209,0,0,0,0,0,0,0,0,0,-1,1350,1233,0,0
133,-209,0,0,0,0,0,0,0,0,0,-1,1357,1233,0,0
140,-209,0,0,0,0,0,0,0,0,0,-1,1364,1233,0,0
147,-209,0,0,0,0,0,0,0,0,0,-1,1371,1233,0,0
154,-209,0,0,0,0,0,0,0,0,0,-1,1378,1233,0,0
161,-209,0,0,0,0,0,0,0,0,0,-1,1385,1233,0,0
168,-209,0,0,0,0,0,0,0,0,0,-1,1392,1233,0,0
175,-209,0,0,0,0,0,0,0,0,0,-1,1399,1233,0,0
182,-209,0,0,0,0,0,0,0,0,0,-1,1406,1233,0,0
189,-209,0,0,0,0,0,0,0,0,0,-1,1413,1233,0,0
196,-209,0,0,0,0,0,0,0,0,0,-1,1420,1233,0,0
203,-209,0,0,0,0,0,0,0,0,0,-1,1427,1233,0,0
210,-209,0,0,0,0,0,0,0,0,0,-1,1434,1233,0,0
217,-209,0,0,0,0,0,0,0,0,0,-1,1441,1233,0,0
224,-209,0,0,0,0,0,0,0,0,0,-1,1448,1233,0,0
231,-209,0,0,0,0,0,0,0,0,0,-1,1455,1233,0,0
238,-209,0,0,0,0,0,0,0,0,0,-1,1462,1233,0,0
245,-209,0,0,0,0,0,0,0,0,0,-1,1469,1233,0,0
252,-209,0,0,0,0,0,0,0,0,0,-1,1476,1233,0,0
259,-209,0,0,0,0,0,0,0,0,0,-1,1483,1233,0,0
266,-209,0,0,0,0,0,0,0,0,0,-1,1490,1233,0,0
273,-209,0,0,0,0,0,0,0,0,0,-1,1497,1233,0,0
280,-209,0,0,0,0,0,0,0,0,0,-1,1504,1233,0,0
287,-209,0,0,0,0,0,0,0,0,0,-1,1511,1233,0,0
294,-209,0,0,0,0,0,0,0,0,0,-1,1518,1233,0,0
301,-209,0,0,0,0,0,0,0,0,0,-1,1525,1233,0,0
308,-209,0,0,0,0,0,0,0,0,0,-1,1532,1233,0,0
315,-209,0,0,0,0,0,0,0,0,0,-1,1539,1233,0,0
322,-209,0,0,0,0,0,0,0,0,0,-1,1546,1233,0,0
329,-209,0,0,0,0,0,0,0,0,0,-1,1553,1233,0,0
336,-209,0,0,0,0,0,0,0,0,0,-1,1560,1233,0,0
343,-209,0,0,0,0,0,0,0,0,0,-1,1567,1233,0,0
350,-209,0,0,0,0,0,0,0,0,0,-1,1574,1233,0,0
357,-209,0,0,0,0,0,0,0,0,0,-1,1581,1233,0,0
364,-209,0,0,0,0,0,0,0,0,0,-1,1588,1233,0,0
371,-209,0,0,0,0,0,0,0,0,0,-1,1595,1233,0,0
378,-209,0,0,0,0,0,0,0,0,0,-1,1602,1233,0,0
385,-209,0,0,0,0,0,0,0,0,0,-1,1609,1233,0,0
392,-209,0,0,0,0,0,0,0,0,0,-1,1616,1233,0,0
399,-209,0,0,0,0,0,0,0,0,0,-1,1623,1233,0,0
406,-209,0,0,0,0,0,0,0,0,0,-1,1630,1233,0,0
413,-209,0,0,0,0,0,0,0,0,0,-1,1637,1233,0,0
420,-209,0,0,0,0,0,0,0,0,0,-1,1644,1233,0,0
427,-209,0,0,0,0,0,0,0,0,0,-1,1651,1233,0,0
434,-209,0,0,0,0,0,0,0,0,0,-1,1658,1233,0,0
441,-209,0,0,0,0,0,0,0,0,0,-1,1665,1233,0,0
448,-209,0,0,0,0,0,0,0,0,0,-1,1672,1233,0,0
455,-209,0,0,0,0,0,0,0,0,0,-1,1679,1233,0,0
462,-209,0,0,0,0,0,0,0,0,0,-1,1686,1233,0,0
469,-209,0,0,0,0,0,0,0,0,0,-1,1693,1233,0,0
476,-209,0,0,0,0,0,0,0,0,0,-1,1700,1233,0,0
483,-209,0,0,0,0,0,0,0,0,0,-1,1707,1233,0,0
490,-209,0,0,0,0,0,0,0,0,0,-1,1714,1233,0,0
497,-209,0,0,0,0,0,0,0,0,0,-1,1721,1233,0,0
504,-209,0,0,0,0,0,0,0,0,0,-1,1728,1233,0,0
511,-209,0,0,0,0,0,0,0,0,0,-1,1735,1233,0,0
518,-209,0,0,0,0,0,0,0,0,0,-1,1742,1233,0,0
525,-209,0,0,0,0,0,0,0,0,0,-1,1749,1233,0,0
532,-209,0,0,0,0,0,0,0,0,0,-1,1756,1233,0,0
539,-209,0,0,0,0,0,0,0,0,0,-1,1763,1233,0,0
546,-209,0,0,0,0,0,0,0,0,0,-1,1770,1233,0,0
553,-209,0,0,0,0,0,0,0,0,0,-1,1777,1233,0,0
560,-209,0,0,0,0,0,0,0,0,0,-1,1784,1233,0,0
567,-209,0,0,0,0,0,0,0,0,0,-1,1791,1233,0,0
574,-209,0,0,0,0,0,0,0,0,0,-1,1798,1233,0,0
581,-209,0,0,0,0,0,0,0,0,0,-1,1805,1233,0,0
588,-209,0,0,0,0,0,0,0,0,0,-1,1812,1233,0,0
595,-209,0,0,0,0,0,0,0,0,0,-1,1819,1233,0,0
602,-209,0,0,0,0,0,0,0,0,0,-1,1826,1233,0,0
609,-209,0,0,0,0,0,0,0,0,0,-1,1833,1233,0,0
616,-209,0,0,0,0,0,0,0,0,0,-1,1840,1233,0,0
623,-209,46.4224,2.52612,0.00196273,0.000655769,0.00611763,0.00746168,-0.00484318,0.73219,0.00715763,0.0360515,1847,1233,46.4224,-2.52616
630,-209,46.4785,2.54871,0.000699982,0.0018822,0.00368189,0.00502012,-0.00243794,0.864991,0.0043911,0.0387111,1854,1233,46.4785,-2.54867
637,-209,46.6371,2.72827,0.000312733,0.00295546,0.0011977,0.00341749,-0.000149297,1.20262,0.00232969,0.0375158,1861,1233,46.6371,-2.72827
644,-209,46.6274,2.73352,0.000603004,0.0037208,-0.000985588,0.00400623,0.000317574,-1.2889,0.00257151,0.0303824,1868,1233,46.6274,-2.73357
651,-209,46.5695,2.73059,0.00117141,0.00366445,-0.00217878,0.00492809,-9.22289e-05,-1.04523,0.00331657,0.0250775,1875,1233,46.5695,-2.73059
658,-209,46.5514,2.72803,0.00170967,0.00294179,-0.0027273,0.00512175,-0.00047029,-0.896477,0.00358157,0.0224797,1882,1233,46.5514,-2.72799
665,-209,46.6377,2.58545,0.00204955,0.00200072,-0.00281128,0.00483652,-0.000786246,-0.781055,0.00351586,0.0383602,1889,1233,46.6377,-2.58546
672,-209,46.7902,2.354,0,0,0,0,0,0,0,-1,1896,1233,46.7902,-2.35396
679,-209,45.97,2.90613,0,0,0,0,0,0,0,-1,1903,1233,45.97,-2.90613
686,-209,33.3711,3.89856,0,0,0,0,0,0,0,-1,1910,1233,33.3711,-3.89855
693,-209,37.3137,9.69678,0,0,0,0,0,0,0,-1,1917,1233,37.3137,-9.69679
700,-209,37.4036,8.9928,0.00126353,-0.0015892,-0.00131355,0.00177622,-0.00210189,-0.372124,0.00224166,0.0416205,1924,1233,37.4035,-8.99284
707,-209,37.4863,8.33215,0.000782056,-0.00166402,-0.00101411,0.00114781,-0.00202977,-0.346141,0.00185798,0.0334532,1931,1233,37.4864,-8.33213
714,-209,37.511,7.9447,-9.76225e-05,-0.00188303,-0.000378683,-2.06247e-05,-0.00196003,-0.200596,0.00129986,0.0184857,1938,1233,37.5109,-7.94466
721,-209,37.527,7.53857,-0.00105196,-0.00214515,0.000642756,-0.000754808,-0.0024423,0.433036,0.00144393,0.0135369,1945,1233,37.527,-7.53856
728,-209,37.5377,7.13489,-0.00123816,-0.00214353,0.00122499,-0.000384891,-0.0029968,0.608409,0.00188273,0.0136043,1952,1233,37.5378,-7.13486
735,-209,37.5082,6.72253,-0.000739914,-0.0017803,0.00133155,0.000169444,-0.00268965,0.599181,0.00185217,0.0151773,1959,1233,37.5081,-6.72248
742,-209,37.4877,6.30249,0.000204279,-0.00150989,0.00132852,0.000928197,-0.00223381,0.498922,0.00187674,0.0148927,1966,1233,37.4877,-6.30253
749,-209,37.4587,5.89038,0.00153875,-0.000983968,0.000558781,0.00165698,-0.0011022,0.208509,0.00160371,0.0133814,1973,1233,37.4588,-5.89034
756,-209,37.441,5.50464,0.0033574,0.000248877,-0.0014986,0.00396219,-0.000355916,-0.383583,0.00276774,0.0119144,1980,1233,37.4411,-5.5046
763,-209,37.4147,5.14404,0.00579511,0.00162662,-0.00449163,0.00866252,-0.00124078,-0.568169,0.00622993,0.0217709,1987,1233,37.4147,-5.14399
770,-209,37.3701,4.85156,0,0,0,0,0,0,0,-1,1994,1233,37.3702,-4.85157
777,-209,37.1479,4.35083,0,0,0,0,0,0,0,-1,2001,1233,37.1479,-4.35087
784,-209,40.3342,-2.14001,0,0,0,0,0,0,0,-1,2008,1233,40.3342,2.13997
791,-209,41.8398,1.573,0,0,0,0,0,0,0,-1,2015,1233,41.8399,-1.57295
798,-209,41.8267,2.67419,0,0,0,0,0,0,0,-1,2022,1233,41.8267,-2.67425
805,-209,0,0,0,0,0,0,0,0,0,-1,2029,1233,0,0
812,-209,0,0,0,0,0,0,0,0,0,-1,2036,1233,0,0
-700,-216,0,0,0,0,0,0,0,0,0,-1,524,1240,0,0
-693,-216,0,0,0,0,0,0,0,0,0,-1,531,1240,0,0
-686,-216,0,0,0,0,0,0,0,0,0,-1,538,1240,0,0
-679,-216,-33.5384,-10.4229,0,0,0,0,0,0,0,-1,545,1240,-33.5384,10.4228
-672,-216,-33.6284,-9.24805,0,0,0,0,0,0,0,-1,552,1240,-33.6284,9.24804
-665,-216,-29.1888,-11.118,0,0,0,0,0,0,0,-1,559,1240,-29.1888,11.1181
-658,-216,-24.8481,1.77917,0,0,0,0,0,0,0,-1,566,1240,-24.8481,-1.77914
-651,-216,-28.3902,-11.2539,0,0,0,0,0,0,0,-1,573,1240,-28.3902,11.254
-644,-216,-24.2487,0.854858,0,0,0,0,0,0,0,-1,580,1240,-24.2487,-0.854917
-637,-216,-24.154,1.68091,0,0,0,0,0,0,0,-1,587,1240,-24.154,-1.6809
-630,-216,-24.1936,2.31433,0.0267174,0.00711961,-0.00554366,0.0281768,0.00566016,-0.257425,0.0172109,0.0313191,594,1240,-24.1936,-2.3143
-623,-216,-24.2562,2.89563,0.0190045,0.00674907,-0.00324242,0.0198095,0.00594409,-0.243344,0.0117378,0.0141337,601,1240,-24.2562,-2.89569
-616,-216,-24.3259,3.36829,0.0129614,0.00507638,-0.00187056,0.0133827,0.00465514,-0.221503,0.00784483,0.0144445,608,1240,-24.3258,-3.36834
-609,-216,-24.346,3.83752,0.0077924,0.00338392,-0.00074356,0.00791444,0.00326189,-0.162672,0.00459286,0.0141472,615,1240,-24.346,-3.8375
-602,-216,-24.3551,4.24939,0.00467206,0.00186666,-0.000657837,0.00481865,0.00172006,-0.219262,0.00281974,0.0130931,622,1240,-24.3551,-4.24939
-595,-216,-24.3368,4.68945,0.00327644,0.000506956,-0.000887565,0.00353647,0.000246924,-0.284997,0.0022798,0.0171524,629,1240,-24.3368,-4.68948
-588,-216,-24.3304,5.18726,0.00319747,0.000968764,-0.000722923,0.00341143,0.000754811,-0.287743,0.0020691,0.0207128,636,1240,-24.3304,-5.1873
-581,-216,-24.3035,5.71826,0.00310156,0.00157566,-0.000356798,0.00318086,0.00149635,-0.21872,0.00183754,0.0330271,643,1240,-24.3036,-5.71829
-574,-216,-24.1445,6.21362,0,0,0,0,0,0,0,-1,650,1240,-24.1444,-6.21368
-567,-216,-24.5098,7.12354,0,0,0,0,0,0,0,-1,657,1240,-24.5098,-7.12358
-560,-216,-16.5087,5.4574,0,0,0,0,0,0,0,-1,664,1240,-16.5087,-5.45746
-553,-216,-16.2355,1.22351,0,0,0,0,0,0,0,-1,671,1240,-16.2356,-1.22356
-546,-216,-34.6869,0.175171,0,0,0,0,0,0,0,-1,678,1240,-34.6869,-0.175206
-539,-216,-34.1744,0.329834,0.000222636,0.00682985,0.00157723,0.00718705,-0.000134559,1.34808,0.00483684,0.0451259,685,1240,-34.1744,-0.329848
-532,-216,-34.0881,0.848267,-0.000517716,0.00727552,0.0016702,0.00761838,-0.000860579,1.36833,0.00538874,0.0471026,692,1240,-34.0881,-0.848234
-525,-216,-34.36,1.12146,-0.00118533,0.00726754,0.00154737,0.00754189,-0.00145968,1.39532,0.00557851,0.0462059,699,1240,-34.36,-1.12141
-518,-216,-34.5463,1.15723,-0.00178178,0.0060527,0.00105161,0.0061914,-0.00192048,1.43966,0.00489499,0.0428425,706,1240,-34.5463,-1.15718
-511,-216,-34.5234,1.04944,-0.00101279,0.0020255,9.12274e-05,0.00202824,-0.00101553,1.54081,0.00178945,0.0440452,713,1240,-34.5235,-1.04944
-504,-216,-34.3746,1.02295,0.00451056,-0.01152,-0.00198899,0.00475365,-0.0117631,-0.121618,0.00981804,0.0448625,720,1240,-34.3746,-1.02292
-497,-216,0,0,0,0,0,0,0,0,0,-1,727,1240,0,0
-490,-216,0,0,0,0,0,0,0,0,0,-1,734,1240,0,0
-483,-216,0,0,0,0,0,0,0,0,0,-1,741,1240,0,0
-476,-216,0,0,0,0,0,0,0,0,0,-1,748,1240,0,0
-469,-216,0,0,0,0,0,0,0,0,0,-1,755,1240,0,0
-462,-216,0,0,0,0,0,0,0,0,0,-1,762,1240,0,0
-455,-216,0,0,0,0,0,0,0,0,0,-1,769,1240,0,0
-448,-216,0,0,0,0,0,0,0,0,0,-1,776,1240,0,0
-441,-216,0,0,0,0,0,0,0,0,0,-1,783,1240,0,0
-434,-216,0,0,0,0,0,0,0,0,0,-1,790,1240,0,0
-427,-216,0,0,0,0,0,0,0,0,0,-1,797,1240,0,0
-420,-216,0,0,0,0,0,0,0,0,0,-1,804,1240,0,0
-413,-216,0,0,0,0,0,0,0,0,0,-1,811,1240,0,0
-406,-216,0,0,0,0,0,0,0,0,0,-1,818,1240,0,0
-399,-216,0,0,0,0,0,0,0,0,0,-1,825,1240,0,0
-392,-216,0,0,0,0,0,0,0,0,0,-1,832,1240,0,0
-385,-216,0,0,0,0,0,0,0,0,0,-1,839,1240,0,0
-378,-216,0,0,0,0,0,0,0,0,0,-1,846,1240,0,0
-371,-216,0,0,0,0,0,0,0,0,0,-1,853,1240,0,0
-364,-216,0,0,0,0,0,0,0,0,0,-1,860,1240,0,0
-357,-216,0,0,0,0,0,0,0,0,0,-1,867,1240,0,0
-350,-216,0,0,0,0,0,0,0,0,0,-1,874,1240,0,0
-343,-216,0,0,0,0,0,0,0,0,0,-1,881,1240,0,0
-336,-216,0,0,0,0,0,0,0,0,0,-1,888,1240,0,0
-329,-216,0,0,0,0,0,0,0,0,0,-1,895,1240,0,0
-322,-216,0,0,0,0,0,0,0,0,0,-1,902,1240,0,0
-315,-216,0,0,0,0,0,0,0,0,0,-1,909,1240,0,0
-308,-216,0,0,0,0,0,0,0,0,0,-1,916,1240,0,0
-301,-216,0,0,0,0,0,0,0,0,0,-1,923,1240,0,0
-294,-216,0,0,0,0,0,0,0,0,0,-1,930,1240,0,0
-287,-216,0,0,0,0,0,0,0,0,0,-1,937,1240,0,0
-280,-216,0,0,0,0,0,0,0,0,0,-1,944,1240,0,0
-273,-216,0,0,0,0,0,0,0,0,0,-1,951,1240,0,0
-266,-216,0,0,0,0,0,0,0,0,0,-1,958,1240,0,0
-259,-216,0,0,0,0,0,0,0,0,0,-1,965,1240,0,0
-252,-216,0,0,0,0,0,0,0,0,0,-1,972,1240,0,0
-245,-216,0,0,0,0,0,0,0,0,0,-1,979,1240,0,0
-238,-216,0,0,0,0,0,0,0,0,0,-1,986,1240,0,0
-231,-216,0,0,0,0,0,0,0,0,0,-1,993,1240,0,0
-224,-216,0,0,0,0,0,0,0,0,0,-1,1000,1240,0,0
-217,-216,0,0,0,0,0,0,0,0,0,-1,1007,1240,0,0
-210,-216,0,0,0,0,0,0,0,0,0,-1,1014,1240,0,0
-203,-216,0,0,0,0,0,0,0,0,0,-1,1021,1240,0,0
-196,-216,0,0,0,0,0,0,0,0,0,-1,1028,1240,0,0
-189,-216,0,0,0,0,0,0,0,0,0,-1,1035,1240,0,0
-182,-216,0,0,0,0,0,0,0,0,0,-1,1042,1240,0,0
-175,-216,0,0,0,0,0,0,0,0,0,-1,1049,1240,0,0
-168,-216,0,0,0,0,0,0,0,0,0,-1,1056,1240,0,0
-161,-216,0,0,0,0,0,0,0,0,0,-1,1063,1240,0,0
-154,-216,0,0,0,0,0,0,0,0,0,-1,1070,1240,0,0
-147,-216,0,0,0,0,0,0,0,0,0,-1,1077,1240,0,0
-140,-216,0,0,0,0,0,0,0,0,0,-1,1084,1240,0,0
-133,-216,0,0,0,0,0,0,0,0,0,-1,1091,1240,0,0
-126,-216,0,0,0,0,0,0,0,0,0,-1,1098,1240,0,0
-119,-216,0,0,0,0,0,0,0,0,0,-1,1105,1240,0,0
-112,-216,0,0,0,0,0,0,0,0,0,-1,1112,1240,0,0
-105,-216,0,0,0,0,0,0,0,0,0,-1,1119,1240,0,0
-98,-216,0,0,0,0,0,0,0,0,0,-1,1126,1240,0,0
-91,-216,0,0,0,0,0,0,0,0,0,-1,1133,1240,0,0
-84,-216,0,0,0,0,0,0,0,0,0,-1,1140,1240,0,0
-77,-216,0,0,0,0,0,0,0,0,0,-1,1147,1240,0,0
-70,-216,0,0,0,0,0,0,0,0,0,-1,1154,1240,0,0
-63,-216,0,0,0,0,0,0,0,0,0,-1,1161,1240,0,0
-56,-216,0,0,0,0,0,0,0,0,0,-1,1168,1240,0,0
-49,-216,0,0,0,0,0,0,0,0,0,-1,1175,1240,0,0
-42,-216,0,0,0,0,0,0,0,0,0,-1,1182,1240,0,0
-35,-216,0,0,0,0,0,0,0,0,0,-1,1189,1240,0,0
-28,-216,0,0,0,0,0,0,0,0,0,-1,1196,1240,0,0
-21,-216,0,0,0,0,0,0,0,0,0,-1,1203,1240,0,0
-14,-216,0,0,0,0,0,0,0,0,0,-1,1210,1240,0,0
-7,-216,0,0,0,0,0,0,0,0,0,-1,1217,1240,0,0
0,-216,0,0,0,0,0,0,0,0,0,-1,1224,1240,0,0
7,-216,0,0,0,0,0,0,0,0,0,-1,1231,1240,0,0
14,-216,0,0,0,0,0,0,0,0,0,-1,1238,1240,0,0
21,-216,0,0,0,0,0,0,0,0,0,-1,1245,1240,0,0
28,-216,0,0,0,0,0,0,0,0,0,-1,1252,1240,0,0
35,-216,0,0,0,0,0,0,0,0,0,-1,1259,1240,0,0
42,-216,0,0,0,0,0,0,0,0,0,-1,1266,1240,0,0
49,-216,0,0,0,0,0,0,0,0,0,-1,1273,1240,0,0
56,-216,0,0,0,0,0,0,0,0,0,-1,1280,1240,0,0
63,-216,0,0,0,0,0,0,0,0,0,-1,1287,1240,0,0
70,-216,0,0,0,0,0,0,0,0,0,-1,1294,1240,0,0
77,-216,0,0,0,0,0,0,0,0,0,-1,1301,1240,0,0
84,-216,0,0,0,0,0,0,0,0,0,-1,1308,1240,0,0
91,-216,0,0,0,0,0,0,0,0,0,-1,1315,1240,0,0
98,-216,0,0,0,0,0,0,0,0,0,-1,1322,1240,0,0
105,-216,0,0,0,0,0,0,0,0,0,-1,1329,1240,0,0
112,-216,0,0,0,0,0,0,0,0,0,-1,1336,1240,0,0
119,-216,0,0,0,0,0,0,0,0,0,-1,1343,1240,0,0
126,-216,0,0,0,0,0,0,0,0,0,-1,1350,1240,0,0
133,-216,0,0,0,0,0,0,0,0,0,-1,1357,1240,0,0
140,-216,0,0,0,0,0,0,0,0,0,-1,1364,1240,0,0
147,-216,0,0,0,0,0,0,0,0,0,-1,1371,1240,0,0
154,-216,0,0,0,0,0,0,0,0,0,-1,1378,1240,0,0
161,-216,0,0,0,0,0,0,0,0,0,-1,1385,1240,0,0
168,-216,0,0,0,0,0,0,0,0,0,-1,1392,1240,0,0
175,-216,0,0,0,0,0,0,0,0,0,-1,1399,1240,0,0
182,-216,0,0,0,0,0,0,0,0,0,-1,1406,1240,0,0
189,-216,0,0,0,0,0,0,0,0,0,-1,1413,1240,0,0
196,-216,0,0,0,0,0,0,0,0,0,-1,1420,1240,0,0
203,-216,0,0,0,0,0,0,0,0,0,-1,1427,1240,0,0
210,-216,0,0,0,0,0,0,0,0,0,-1,1434,1240,0,0
217,-216,0,0,0,0,0,0,0,0,0,-1,1441,1240,0,0
224,-216,0,0,0,0,0,0,0,0,0,-1,1448,1240,0,0
231,-216,0,0,0,0,0,0,0,0,0,-1,1455,1240,0,0
238,-216,0,0,0,0,0,0,0,0,0,-1,1462,1240,0,0
245,-216,0,0,0,0,0,0,0,0,0,-1,1469,1240,0,0
252,-216,0,0,0,0,0,0,0,0,0,-1,1476,1240,0,0
259,-216,0,0,0,0,0,0,0,0,0,-1,1483,1240,0,0
266,-216,0,0,0,0,0,0,0,0,0,-1,1490,1240,0,0
273,-216,0,0,0,0,0,0,0,0,0,-1,1497,1240,0,0
280,-216,0,0,0,0,0,0,0,0,0,-1,1504,1240,0,0
287,-216,0,0,0,0,0,0,0,0,0,-1,1511,1240,0,0
294,-216,0,0,0,0,0,0,0,0,0,-1,1518,1240,0,0
301,-216,0,0,0,0,0,0,0,0,0,-1,1525,1240,0,0
308,-216,0,0,0,0,0,0,0,0,0,-1,1532,1240,0,0
315,-216,0,0,0,0,0,0,0,0,0,-1,1539,1240,0,0
322,-216,0,0,0,0,0,0,0,0,0,-1,1546,1240,0,0
329,-216,0,0,0,0,0,0,0,0,0,-1,1553,1240,0,0
336,-216,0,0,0,0,0,0,0,0,0,-1,1560,1240,0,0
343,-216,0,0,0,0,0,0,0,0,0,-1,1567,1240,0,0
350,-216,0,0,0,0,0,0,0,0,0,-1,1574,1240,0,0
357,-216,0,0,0,0,0,0,0,0,0,-1,1581,1240,0,0
364,-216,0,0,0,0,0,0,0,0,0,-1,1588,1240,0,0
371,-216,0,0,0,0,0,0,0,0,0,-1,1595,1240,0,0
378,-216,0,0,0,0,0,0,0,0,0,-1,1602,1240,0,0
385,-216,0,0,0,0,0,0,0,0,0,-1,1609,1240,0,0
392,-216,0,0,0,0,0,0,0,0,0,-1,1616,1240,0,0
399,-216,0,0,0,0,0,0,0,0,0,-1,1623,1240,0,0
406,-216,0,0,0,0,0,0,0,0,0,-1,1630,1240,0,0
413,-216,0,0,0,0,0,0,0,0,0,-1,1637,1240,0,0
420,-216,0,0,0,0,0,0,0,0,0,-1,1644,1240,0,0
427,-216,0,0,0,0,0,0,0,0,0,-1,1651,1240,0,0
434,-216,0,0,0,0,0,0,0,0,0,-1,1658,1240,0,0
441,-216,0,0,0,0,0,0,0,0,0,-1,1665,1240,0,0
448,-216,0,0,0,0,0,0,0,0,0,-1,1672,1240,0,0
455,-216,0,0,0,0,0,0,0,0,0,-1,1679,1240,0,0
462,-216,0,0,0,0,0,0,0,0,0,-1,1686,1240,0,0
469,-216,0,0,0,0,0,0,0,0,0,-1,1693,1240,0,0
476,-216,0,0,0,0,0,0,0,0,0,-1,1700,1240,0,0
483,-216,0,0,0,0,0,0,0,0,0,-1,1707,1240,0,0
490,-216,0,0,0,0,0,0,0,0,0,-1,1714,1240,0,0
497,-216,0,0,0,0,0,0,0,0,0,-1,1721,1240,0,0
504,-216,0,0,0,0,0,0,0,0,0,-1,1728,1240,0,0
511,-216,0,0,0,0,0,0,0,0,0,-1,1735,1240,0,0
518,-216,0,0,0,0,0,0,0,0,0,-1,1742,1240,0,0
525,-216,0,0,0,0,0,0,0,0,0,-1,1749,1240,0,0
532,-216,0,0,0,0,0,0,0,0,0,-1,1756,1240,0,0
539,-216,0,0,0,0,0,0,0,0,0,-1,1763,1240,0,0
546,-216,0,0,0,0,0,0,0,0,0,-1,1770,1240,0,0
553,-216,0,0,0,0,0,0,0,0,0,-1,1777,1240,0,0
560,-216,0,0,0,0,0,0,0,0,0,-1,1784,1240,0,0
567,-216,0,0,0,0,0,0,0,0,0,-1,1791,1240,0,0
574,-216,0,0,0,0,0,0,0,0,0,-1,1798,1240,0,0
581,-216,0,0,0,0,0,0,0,0,0,-1,1805,1240,0,0
588,-216,0,0,0,0,0,0,0,0,0,-1,1812,1240,0,0
595,-216,0,0,0,0,0,0,0,0,0,-1,1819,1240,0,0
602,-216,0,0,0,0,0,0,0,0,0,-1,1826,1240,0,0
609,-216,0,0,0,0,0,0,0,0,0,-1,1833,1240,0,0
616,-216,0,0,0,0,0,0,0,0,0,-1,1840,1240,0,0
623,-216,46.2279,2.5824,0.00397764,0.000568593,0.00586055,0.00837651,-0.00383028,0.643879,0.00720868,0.03964,1847,1240,46.2279,-2.58243
630,-216,46.3945,2.73181,0.00171843,0.0022042,0.0032248,0.00519525,-0.00127262,0.822986,0.00395653,0.0375149,1854,1240,46.3946,-2.73177
637,-216,46.5204,2.83325,0.000372469,0.00370847,0.000461936,0.00377125,0.000309687,1.43571,0.00241756,0.0333623,1861,1240,46.5204,-2.83323
644,-216,46.5325,2.77075,3.40902e-05,0.00437883,-0.00138205,0.00478119,-0.000368272,-1.28749,0.00331704,0.0253139,1868,1240,46.5325,-2.77074
651,-216,46.5431,2.76086,0.000472107,0.00414617,-0.00225964,0.0052213,-0.000603019,-1.1267,0.0036983,0.0230672,1875,1240,46.5431,-2.76081
658,-216,46.6068,2.77332,0.00103157,0.00330624,-0.00257095,0.00498019,-0.000642376,-0.993647,0.00355365,0.0343076,1882,1240,46.6068,-2.77331
665,-216,46.9369,2.66406,0.00142771,0.00236856,-0.00253753,0.0044789,-0.000682624,-0.877051,0.00323755,0.0469329,1889,1240,46.9368,-2.66409
672,-216,47.3079,2.58105,0,0,0,0,0,0,0,-1,1896,1240,47.3078,-2.58102
679,-216,44.4913,2.29272,0,0,0,0,0,0,0,-1,1903,1240,44.4913,-2.2927
686,-216,21.5172,6.19458,0,0,0,0,0,0,0,-1,1910,1240,21.5172,-6.19453
693,-216,37.7119,8.95056,0,0,0,0,0,0,0,-1,1917,1240,37.7119,-8.95059
700,-216,37.1116,8.94373,0.00171536,-0.00147501,-0.0013082,0.00218319,-0.00194283,-0.343436,0.0023835,0.0386733,1924,1240,37.1115,-8.94373
707,-216,37.0997,8.41138,0.00112166,-0.00166936,-0.00096182,0.00142101,-0.00196871,-0.301729,0.00196555,0.0307172,1931,1240,37.0997,-8.41142
714,-216,37.1383,7.97021,0.000202798,-0.00188731,-0.000249422,0.000232151,-0.00191667,-0.117143,0.00136177,0.0141487,1938,1240,37.1383,-7.9702
721,-216,37.1335,7.5719,-0.000682823,-0.00205475,0.000717923,-0.000375832,-0.00236174,0.40408,0.00146537,0.013402,1945,1240,37.1336,-7.57195
728,-216,37.1461,7.14502,-0.000806961,-0.00197027,0.0011997,-5.53499e-05,-0.00272188,0.559678,0.00179642,0.0127843,1952,1240,37.1461,-7.145
735,-216,37.1316,6.74048,-0.000370721,-0.00169894,0.00131441,0.000437824,-0.00250749,0.551477,0.00183509,0.0136017,1959,1240,37.1316,-6.74045
742,-216,37.0742,6.34668,0.000422484,-0.00157645,0.00135645,0.00110792,-0.00226189,0.467891,0.00198322,0.0151785,1966,1240,37.0742,-6.3467
749,-216,37.0476,5.91223,0.00156708,-0.00132214,0.000826544,0.00178682,-0.00154188,0.259848,0.00192356,0.0121349,1973,1240,37.0477,-5.91228
756,-216,37.0079,5.50525,0.0032336,-0.000551817,-0.000784227,0.00338963,-0.000707853,-0.196404,0.00252895,0.0111872,1980,1240,37.0079,-5.50521
763,-216,36.9891,5.13855,0.00553499,0.000225543,-0.00318292,0.00702496,-0.00126443,-0.437817,0.00515672,0.0186221,1987,1240,36.9892,-5.13855
770,-216,37.145,4.74377,0.008379,0.00184775,-0.0073286,0.0131366,-0.00290988,-0.575804,0.00987172,0.0410195,1994,1240,37.145,-4.74382
777,-216,37.3469,4.34204,0,0,0,0,0,0,0,-1,2001,1240,37.3469,-4.34207
784,-216,42.4829,-1.97656,0,0,0,0,0,0,0,-1,2008,1240,42.4828,1.97653
791,-216,41.0908,0.603882,0,0,0,0,0,0,0,-1,2015,1240,41.0908,-0.603931
798,-216,0,0,0,0,0,0,0,0,0,-1,2022,1240,0,0
805,-216,0,0,0,0,0,0,0,0,0,-1,2029,1240,0,0
812,-216,0,0,0,0,0,0,0,0,0,-1,2036,1240,0,0
-700,-223,0,0,0,0,0,0,0,0,0,-1,524,1247,0,0
-693,-223,0,0,0,0,0,0,0,0,0,-1,531,1247,0,0
-686,-223,0,0,0,0,0,0,0,0,0,-1,538,1247,0,0
-679,-223,0,0,0,0,0,0,0,0,0,-1,545,1247,0,0
-672,-223,-29.7585,-12.3416,0,0,0,0,0,0,0,-1,552,1247,-29.7585,12.3416
-665,-223,-29.5582,-12.22,0,0,0,0,0,0,0,-1,559,1247,-29.5581,12.22
-658,-223,-29.2791,-12.3606,0,0,0,0,0,0,0,-1,566,1247,-29.2791,12.3606
-651,-223,-28.8952,-12.516,0,0,0,0,0,0,0,-1,573,1247,-28.8952,12.516
-644,-223,-23.5477,0.646973,0,0,0,0,0,0,0,-1,580,1247,-23.5477,-0.647005
-637,-223,-25.0761,1.88098,0,0,0,0,0,0,0,-1,587,1247,-25.0761,-1.88097
-630,-223,-24.4099,2.39331,0.0295091,0.00928541,-0.00401058,0.0302754,0.0085191,-0.188795,0.0180278,0.0457361,594,1247,-24.4099,-2.39327
-623,-223,-23.8539,2.89185,0.0211828,0.00811057,-0.00199224,0.0214797,0.00781369,-0.14793,0.0125538,0.0227691,601,1247,-23.854,-2.89189
-616,-223,-23.8749,3.36536,0.0146804,0.00605517,-0.000889604,0.0147712,0.00596437,-0.101713,0.00858064,0.015709,608,1247,-23.8749,-3.36533
-609,-223,-23.8764,3.84009,0.00926808,0.0041326,2.56093e-05,0.00926821,0.00413247,0.00498657,0.00536144,0.0119192,615,1247,-23.8764,-3.84013
-602,-223,-23.8828,4.26282,0.00584865,0.00239479,2.38357e-05,0.00584882,0.00239462,0.00690074,0.00339524,0.0143705,622,1247,-23.8827,-4.26279
-595,-223,-23.8686,4.73193,0.00409832,0.000792828,-0.000275281,0.00412109,0.000770059,-0.0825223,0.00253008,0.0198878,629,1247,-23.8686,-4.73195
-588,-223,-23.863,5.2124,0.00364723,0.000972242,-0.000198475,0.00366188,0.000957596,-0.0736588,0.00219289,0.0232635,636,1247,-23.863,-5.21238
-581,-223,-23.9066,5.68286,0.00334182,0.00148585,0.000142669,0.00335273,0.00147495,0.0762733,0.00194035,0.0226117,643,1247,-23.9066,-5.6829
-574,-223,-23.9399,6.19543,0.00269017,0.00276918,0.000784474,0.00351514,0.00194421,0.810556,0.00203328,0.0245981,650,1247,-23.9399,-6.19541
-567,-223,-23.7957,6.80383,0.00209535,0.00460488,0.00105229,0.00498772,0.00171251,1.22187,0.00292639,0.0391136,657,1247,-23.7957,-6.80383
-560,-223,-23.8456,7.45044,0,0,0,0,0,0,0,-1,664,1247,-23.8456,-7.4504
-553,-223,-11.4025,4.14722,0,0,0,0,0,0,0,-1,671,1247,-11.4025,-4.14719
-546,-223,-26.9034,-0.148682,0,0,0,0,0,0,0,-1,678,1247,-26.9034,0.14867
-539,-223,-33.6382,-0.0754395,0,0,0,0,0,0,0,-1,685,1247,-33.6382,0.07543
-532,-223,-33.91,0.675781,0,0,0,0,0,0,0,-1,692,1247,-33.9101,-0.675807
-525,-223,-34.2103,0.875977,0,0,0,0,0,0,0,-1,699,1247,-34.2103,-0.876027
-518,-223,-34.3779,0.926392,0,0,0,0,0,0,0,-1,706,1247,-34.3779,-0.926435
-511,-223,-34.5434,1.1062,-0.00138526,0.00363584,0.00052545,0.00369024,-0.00143966,1.46764,0.00305528,0.0418449,713,1247,-34.5434,-1.10622
-504,-223,-34.4868,1.15234,0.00135274,-0.0037756,-0.00091028,0.00150952,-0.00393238,-0.170561,0.00324402,0.0420306,720,1247,-34.4868,-1.15236
-497,-223,0,0,0,0,0,0,0,0,0,-1,727,1247,0,0
-490,-223,0,0,0,0,0,0,0,0,0,-1,734,1247,0,0
-483,-223,0,0,0,0,0,0,0,0,0,-1,741,1247,0,0
-476,-223,0,0,0,0,0,0,0,0,0,-1,748,1247,0,0
-469,-223,0,0,0,0,0,0,0,0,0,-1,755,1247,0,0
-462,-223,0,0,0,0,0,0,0,0,0,-1,762,1247,0,0
-455,-223,0,0,0,0,0,0,0,0,0,-1,769,1247,0,0
-448,-223,0,0,0,0,0,0,0,0,0,-1,776,1247,0,0
-441,-223,0,0,0,0,0,0,0,0,0,-1,783,1247,0,0
-434,-223,0,0,0,0,0,0,0,0,0,-1,790,1247,0,0
-427,-223,0,0,0,0,0,0,0,0,0,-1,797,1247,0,0
-420,-223,0,0,0,0,0,0,0,0,0,-1,804,1247,0,0
-413,-223,0,0,0,0,0,0,0,0,0,-1,811,1247,0,0
-406,-223,0,0,0,0,0,0,0,0,0,-1,818,1247,0,0
-399,-223,0,0,0,0,0,0,0,0,0,-1,825,1247,0,0
-392,-223,0,0,0,0,0,0,0,0,0,-1,832,1247,0,0
-385,-223,0,0,0,0,0,0,0,0,0,-1,839,1247,0,0
-378,-223,0,0,0,0,0,0,0,0,0,-1,846,1247,0,0
-371,-223,0,0,0,0,0,0,0,0,0,-1,853,1247,0,0
-364,-223,0,0,0,0,0,0,0,0,0,-1,860,1247,0,0
-357,-223,0,0,0,0,0,0,0,0,0,-1,867,1247,0,0
-350,-223,0,0,0,0,0,0,0,0,0,-1,874,1247,0,0
-343,-223,0,0,0,0,0,0,0,0,0,-1,881,1247,0,0
-336,-223,0,0,0,0,0,0,0,0,0,-1,888,1247,0,0
-329,-223,0,0,0,0,0,0,0,0,0,-1,895,1247,0,0
-322,-223,0,0,0,0,0,0,0,0,0,-1,902,1247,0,0
-315,-223,0,0,0,0,0,0,0,0,0,-1,909,1247,0,0
-308,-223,0,0,0,0,0,0,0,0,0,-1,916,1247,0,0
-301,-223,0,0,0,0,0,0,0,0,0,-1,923,1247,0,0
-294,-223,0,0,0,0,0,0,0,0,0,-1,930,1247,0,0
-287,-223,0,0,0,0,0,0,0,0,0,-1,937,1247,0,0
-280,-223,0,0,0,0,0,0,0,0,0,-1,944,1247,0,0
-273,-223,0,0,0,0,0,0,0,0,0,-1,951,1247,0,0
-266,-223,0,0,0,0,0,0,0,0,0,-1,958,1247,0,0
-259,-223,0,0,0,0,0,0,0,0,0,-1,965,1247,0,0
-252,-223,0,0,0,0,0,0,0,0,0,-1,972,1247,0,0
-245,-223,0,0,0,0,0,0,0,0,0,-1,979,1247,0,0
-238,-223,0,0,0,0,0,0,0,0,0,-1,986,1247,0,0
-231,-223,0,0,0,0,0,0,0,0,0,-1,993,1247,0,0
-224,-223,0,0,0,0,0,0,0,0,0,-1,1000,1247,0,0
-217,-223,0,0,0,0,0,0,0,0,0,-1,1007,1247,0,0
-210,-223,0,0,0,0,0,0,0,0,0,-1,1014,1247,0,0
-203,-223,0,0,0,0,0,0,0,0,0,-1,1021,1247,0,0
-196,-223,0,0,0,0,0,0,0,0,0,-1,1028,1247,0,0
-189,-223,0,0,0,0,0,0,0,0,0,-1,1035,1247,0,0
-182,-223,0,0,0,0,0,0,0,0,0,-1,1042,1247,0,0
-175,-223,0,0,0,0,0,0,0,0,0,-1,1049,1247,0,0
-168,-223,0,0,0,0,0,0,0,0,0,-1,1056,1247,0,0
-161,-223,0,0,0,0,0,0,0,0,0,-1,1063,1247,0,0
-154,-223,0,0,0,0,0,0,0,0,0,-1,1070,1247,0,0
-147,-223,0,0,0,0,0,0,0,0,0,-1,1077,1247,0,0
-140,-223,0,0,0,0,0,0,0,0,0,-1,1084,1247,0,0
-133,-223,0,0,0,0,0,0,0,0,0,-1,1091,1247,0,0
-126,-223,0,0,0,0,0,0,0,0,0,-1,1098,1247,0,0
-119,-223,0,0,0,0,0,0,0,0,0,-1,1105,1247,0,0
-112,-223,0,0,0,0,0,0,0,0,0,-1,1112,1247,0,0
-105,-223,0,0,0,0,0,0,0,0,0,-1,1119,1247,0,0
-98,-223,0,0,0,0,0,0,0,0,0,-1,1126,1247,0,0
-91,-223,0,0,0,0,0,0,0,0,0,-1,1133,1247,0,0
-84,-223,0,0,0,0,0,0,0,0,0,-1,1140,1247,0,0
-77,-223,0,0,0,0,0,0,0,0,0,-1,1147,1247,0,0
-70,-223,0,0,0,0,0,0,0,0,0,-1,1154,1247,0,0
-63,-223,0,0,0,0,0,0,0,0,0,-1,1161,1247,0,0
-56,-223,0,0,0,0,0,0,0,0,0,-1,1168,1247,0,0
-49,-223,0,0,0,0,0,0,0,0,0,-1,1175,1247,0,0
-42,-223,0,0,0,0,0,0,0,0,0,-1,1182,1247,0,0
-35,-223,0,0,0,0,0,0,0,0,0,-1,1189,1247,0,0
-28,-223,0,0,0,0,0,0,0,0,0,-1,1196,1247,0,0
-21,-223,0,0,0,0,0,0,0,0,0,-1,1203,1247,0,0
-14,-223,0,0,0,0,0,0,0,0,0,-1,1210,1247,0,0
-7,-223,0,0,0,0,0,0,0,0,0,-1,1217,1247,0,0
0,-223,0,0,0,0,0,0,0,0,0,-1,1224,1247,0,0
7,-223,0,0,0,0,0,0,0,0,0,-1,1231,1247,0,0
14,-223,0,0,0,0,0,0,0,0,0,-1,1238,1247,0,0
21,-223,0,0,0,0,0,0,0,0,0,-1,1245,1247,0,0
28,-223,0,0,0,0,0,0,0,0,0,-1,1252,1247,0,0
35,-223,0,0,0,0,0,0,0,0,0,-1,1259,1247,0,0
42,-223,0,0,0,0,0,0,0,0,0,-1,1266,1247,0,0
49,-223,0,0,0,0,0,0,0,0,0,-1,1273,1247,0,0
56,-223,0,0,0,0,0,0,0,0,0,-1,1280,1247,0,0
63,-223,0,0,0,0,0,0,0,0,0,-1,1287,1247,0,0
70,-223,0,0,0,0,0,0,0,0,0,-1,1294,1247,0,0
77,-223,0,0,0,0,0,0,0,0,0,-1,1301,1247,0,0
84,-223,0,0,0,0,0,0,0,0,0,-1,1308,1247,0,0
91,-223,0,0,0,0,0,0,0,0,0,-1,1315,1247,0,0
98,-223,0,0,0,0,0,0,0,0,0,-1,1322,1247,0,0
105,-223,0,0,0,0,0,0,0,0,0,-1,1329,1247,0,0
112,-223,0,0,0,0,0,0,0,0,0,-1,1336,1247,0,0
119,-223,0,0,0,0,0,0,0,0,0,-1,1343,1247,0,0
126,-223,0,0,0,0,0,0,0,0,0,-1,1350,1247,0,0
133,-223,0,0,0,0,0,0,0,0,0,-1,1357,1247,0,0
140,-223,0,0,0,0,0,0,0,0,0,-1,1364,1247,0,0
147,-223,0,0,0,0,0,0,0,0,0,-1,1371,1247,0,0
154,-223,0,0,0,0,0,0,0,0,0,-1,1378,1247,0,0
161,-223,0,0,0,0,0,0,0,0,0,-1,1385,1247,0,0
168,-223,0,0,0,0,0,0,0,0,0,-1,1392,1247,0,0
175,-223,0,0,0,0,0,0,0,0,0,-1,1399,1247,0,0
182,-223,0,0,0,0,0,0,0,0,0,-1,1406,1247,0,0
189,-223,0,0,0,0,0,0,0,0,0,-1,1413,1247,0,0
196,-223,0,0,0,0,0,0,0,0,0,-1,1420,1247,0,0
203,-223,0,0,0,0,0,0,0,0,0,-1,1427,1247,0,0
210,-223,0,0,0,0,0,0,0,0,0,-1,1434,1247,0,0
217,-223,0,0,0,0,0,0,0,0,0,-1,1441,1247,0,0
224,-223,0,0,0,0,0,0,0,0,0,-1,1448,1247,0,0
231,-223,0,0,0,0,0,0,0,0,0,-1,1455,1247,0,0
238,-223,0,0,0,0,0,0,0,0,0,-1,1462,1247,0,0
245,-223,0,0,0,0,0,0,0,0,0,-1,1469,1247,0,0
252,-223,0,0,0,0,0,0,0,0,0,-1,1476,1247,0,0
259,-223,0,0,0,0,0,0,0,0,0,-1,1483,1247,0,0
266,-223,0,0,0,0,0,0,0,0,0,-1,1490,1247,0,0
273,-223,0,0,0,0,0,0,0,0,0,-1,1497,1247,0,0
280,-223,0,0,0,0,0,0,0,0,0,-1,1504,1247,0,0
287,-223,0,0,0,0,0,0,0,0,0,-1,1511,1247,0,0
294,-223,0,0,0,0,0,0,0,0,0,-1,1518,1247,0,0
301,-223,0,0,0,0,0,0,0,0,0,-1,1525,1247,0,0
308,-223,0,0,0,0,0,0,0,0,0,-1,1532,1247,0,0
315,-223,0,0,0,0,0,0,0,0,0,-1,1539,1247,0,0
322,-223,0,0,0,0,0,0,0,0,0,-1,1546,1247,0,0
329,-223,0,0,0,0,0,0,0,0,0,-1,1553,1247,0,0
336,-223,0,0,0,0,0,0,0,0,0,-1,1560,1247,0,0
343,-223,0,0,0,0,0,0,0,0,0,-1,1567,1247,0,0
350,-223,0,0,0,0,0,0,0,0,0,-1,1574,1247,0,0
357,-223,0,0,0,0,0,0,0,0,0,-1,1581,1247,0,0
364,-223,0,0,0,0,0,0,0,0,0,-1,1588,1247,0,0
371,-223,0,0,0,0,0,0,0,0,0,-1,1595,1247,0,0
378,-223,0,0,0,0,0,0,0,0,0,-1,1602,1247,0,0
385,-223,0,0,0,0,0,0,0,0,0,-1,1609,1247,0,0
392,-223,0,0,0,0,0,0,0,0,0,-1,1616,1247,0,0
399,-223,0,0,0,0,0,0,0,0,0,-1,1623,1247,0,0
406,-223,0,0,0,0,0,0,0,0,0,-1,1630,1247,0,0
413,-223,0,0,0,0,0,0,0,0,0,-1,1637,1247,0,0
420,-223,0,0,0,0,0,0,0,0,0,-1,1644,1247,0,0
427,-223,0,0,0,0,0,0,0,0,0,-1,1651,1247,0,0
434,-223,0,0,0,0,0,0,0,0,0,-1,1658,1247,0,0
441,-223,0,0,0,0,0,0,0,0,0,-1,1665,1247,0,0
448,-223,0,0,0,0,0,0,0,0,0,-1,1672,1247,0,0
455,-223,0,0,0,0,0,0,0,0,0,-1,1679,1247,0,0
462,-223,0,0,0,0,0,0,0,0,0,-1,1686,1247,0,0
469,-223,0,0,0,0,0,0,0,0,0,-1,1693,1247,0,0
476,-223,0,0,0,0,0,0,0,0,0,-1,1700,1247,0,0
483,-223,0,0,0,0,0,0,0,0,0,-1,1707,1247,0,0
490,-223,0,0,0,0,0,0,0,0,0,-1,1714,1247,0,0
497,-223,0,0,0,0,0,0,0,0,0,-1,1721,1247,0,0
504,-223,0,0,0,0,0,0,0,0,0,-1,1728,1247,0,0
511,-223,0,0,0,0,0,0,0,0,0,-1,1735,1247,0,0
518,-223,0,0,0,0,0,0,0,0,0,-1,1742,1247,0,0
525,-223,0,0,0,0,0,0,0,0,0,-1,1749,1247,0,0
532,-223,0,0,0,0,0,0,0,0,0,-1,1756,1247,0,0
539,-223,0,0,0,0,0,0,0,0,0,-1,1763,1247,0,0
546,-223,0,0,0,0,0,0,0,0,0,-1,1770,1247,0,0
553,-223,0,0,0,0,0,0,0,0,0,-1,1777,1247,0,0
560,-223,0,0,0,0,0,0,0,0,0,-1,1784,1247,0,0
567,-223,0,0,0,0,0,0,0,0,0,-1,1791,1247,0,0
574,-223,0,0,0,0,0,0,0,0,0,-1,1798,1247,0,0
581,-223,0,0,0,0,0,0,0,0,0,-1,1805,1247,0,0
588,-223,0,0,0,0,0,0,0,0,0,-1,1812,1247,0,0
595,-223,0,0,0,0,0,0,0,0,0,-1,1819,1247,0,0
602,-223,0,0,0,0,0,0,0,0,0,-1,1826,1247,0,0
609,-223,0,0,0,0,0,0,0,0,0,-1,1833,1247,0,0
616,-223,0,0,0,0,0,0,0,0,0,-1,1840,1247,0,0
623,-223,46.3175,2.85547,0.00478905,0.00114948,0.00475776,0.00806317,-0.00212464,0.602738,0.0062061,0.0380814,1847,1247,46.3175,-2.85549
630,-223,46.3943,3.02283,0.00175505,0.00309011,0.00207392,0.00460128,0.000243879,0.941097,0.00298954,0.0350877,1854,1247,46.3943,-3.02281
637,-223,46.3948,2.89746,-0.000364305,0.00483046,-0.000691122,0.00492084,-0.000454681,-1.44077,0.00344214,0.0288057,1861,1247,46.3948,-2.89746
644,-223,46.4165,2.73096,-0.000827928,0.00508548,-0.00183619,0.00560925,-0.0013517,-1.29293,0.00426212,0.0221989,1868,1247,46.4166,-2.7309
651,-223,46.4928,2.72302,-0.000304036,0.00460875,-0.00232802,0.00553666,-0.00123195,-1.19151,0.00416297,0.0293687,1875,1247,46.4929,-2.72306
658,-223,46.6648,2.7915,0,0,0,0,0,0,0,-1,1882,1247,46.6648,-2.79156
665,-223,47.0682,2.52551,0,0,0,0,0,0,0,-1,1889,1247,47.0682,-2.52547
672,-223,47.5319,2.40662,0,0,0,0,0,0,0,-1,1896,1247,47.5318,-2.40657
679,-223,43.2783,2.46973,0,0,0,0,0,0,0,-1,1903,1247,43.2784,-2.46978
686,-223,37.1777,9.42188,0,0,0,0,0,0,0,-1,1910,1247,37.1777,-9.42183
693,-223,37.0293,9.1073,0.00152149,0.000140426,-0.001658,0.00262702,-0.000965096,-0.58808,0.00214662,0.0446536,1917,1247,37.0293,-9.10731
700,-223,36.8077,8.76379,0.0020154,-0.00134357,-0.00121132,0.00240666,-0.00173483,-0.312421,0.00240155,0.0237524,1924,1247,36.8077,-8.76382
707,-223,36.717,8.3833,0.00130609,-0.00166205,-0.000800503,0.00150822,-0.00186418,-0.247333,0.00195067,0.0183881,1931,1247,36.717,-8.38333
714,-223,36.7152,7.98425,0.000384521,-0.00186116,-4.88723e-05,0.000385584,-0.00186222,-0.0217491,0.00138798,0.0117522,1938,1247,36.7153,-7.98425
721,-223,36.7002,7.57642,-0.000422552,-0.00195263,0.000809638,-7.36793e-05,-0.0023015,0.406857,0.00151037,0.0146258,1945,1247,36.7002,-7.57641
728,-223,36.6735,7.15662,-0.000545527,-0.00184664,0.00120709,0.000175151,-0.00256732,0.538239,0.00177282,0.0172718,1952,1247,36.6734,-7.15656
735,-223,36.665,6.77222,-0.000233508,-0.0017118,0.00135715,0.000572727,-0.00251803,0.536043,0.00189861,0.0168719,1959,1247,36.665,-6.77223
742,-223,36.604,6.39783,0.000376173,-0.00176631,0.00144739,0.00110563,-0.00249576,0.466825,0.00213027,0.0150975,1966,1247,36.604,-6.39784
749,-223,36.5894,5.92517,0.00131995,-0.00190253,0.00129076,0.00177321,-0.00235579,0.337705,0.00239178,0.012751,1973,1247,36.5893,-5.92513
756,-223,36.5552,5.50122,0.00283098,-0.00191271,0.000493623,0.0028818,-0.00196353,0.102594,0.00281415,0.0149675,1980,1247,36.5552,-5.50118
763,-223,36.5455,5.15222,0.00499393,-0.00216482,-0.000771794,0.00507619,-0.00224708,-0.106186,0.00433199,0.0202182,1987,1247,36.5456,-5.15225
770,-223,36.5371,4.71875,0.00782808,-0.00215335,-0.00300375,0.00866229,-0.00298756,-0.270896,0.00698697,0.044372,1994,1247,36.5371,-4.71876
777,-223,36.5199,4.25256,0,0,0,0,0,0,0,-1,2001,1247,36.5199,-4.25258
784,-223,35.1801,2.14172,0,0,0,0,0,0,0,-1,2008,1247,35.1801,-2.14178
791,-223,34.7136,2.92554,0,0,0,0,0,0,0,-1,2015,1247,34.7137,-2.92555
798,-223,0,0,0,0,0,0,0,0,0,-1,2022,1247,0,0
805,-223,0,0,0,0,0,0,0,0,0,-1,2029,1247,0,0
812,-223,0,0,0,0,0,0,0,0,0,-1,2036,1247,0,0
-700,-230,0,0,0,0,0,0,0,0,0,-1,524,1254,0,0
-693,-230,0,0,0,0,0,0,0,0,0,-1,531,1254,0,0
-686,-230,0,0,0,0,0,0,0,0,0,-1,538,1254,0,0
-679,-230,0,0,0,0,0,0,0,0,0,-1,545,1254,0,0
-672,-230,-29.5114,-13.923,0,0,0,0,0,0,0,-1,552,1254,-29.5114,13.9229
-665,-230,-29.7886,-13.2142,0,0,0,0,0,0,0,-1,559,1254,-29.7885,13.2142
-658,-230,-29.6566,-13.4025,0,0,0,0,0,0,0,-1,566,1254,-29.6566,13.4025
-651,-230,-29.1981,-13.4294,0,0,0,0,0,0,0,-1,573,1254,-29.1981,13.4295
-644,-230,-22.1688,1.23816,0,0,0,0,0,0,0,-1,580,1254,-22.1688,-1.23818
-637,-230,-25.0955,2.2384,0,0,0,0,0,0,0,-1,587,1254,-25.0955,-2.23838
-630,-230,-24.2619,2.50842,0.0325272,0.0119324,-0.00207589,0.0327343,0.0117253,-0.099464,0.0191509,0.0497383,594,1254,-24.2619,-2.5084
-623,-230,-23.413,2.85779,0.0234211,0.00980233,-0.000338481,0.0234295,0.00979392,-0.0248336,0.0135875,0.0297312,601,1254,-23.413,-2.85775
-616,-230,-23.4018,3.37976,0.0163535,0.00725791,0.000427231,0.0163735,0.00723789,0.0468337,0.00947441,0.0163477,608,1254,-23.4018,-3.37974
-609,-230,-23.4113,3.83923,0.0107188,0.00509207,0.0010149,0.0108963,0.00491461,0.173106,0.00630103,0.0115832,615,1254,-23.4113,-3.83923
-602,-230,-23.4014,4.30017,0.00703066,0.00313477,0.000823823,0.0071977,0.00296773,0.200053,0.00417684,0.0119677,622,1254,-23.4014,-4.30014
-595,-230,-23.4026,4.7804,0.00494256,0.00131746,0.000346136,0.00497531,0.0012847,0.0943472,0.00298235,0.0194043,629,1254,-23.4026,-4.78043
-588,-230,-23.3886,5.21313,0.00412134,0.00107722,0.000248429,0.00414148,0.00105708,0.080896,0.00248475,0.0262577,636,1254,-23.3886,-5.2131
-581,-230,-23.4185,5.73145,0.0036516,0.00132657,0.000459243,0.00373902,0.00123915,0.188113,0.00219925,0.0240039,643,1254,-23.4185,-5.73149
-574,-230,-23.4449,6.17749,0.00304413,0.00248631,0.000990841,0.00379457,0.00173587,0.648206,0.00219344,0.0196007,650,1254,-23.4449,-6.17753
-567,-230,-23.2992,6.64319,0.0025947,0.00429443,0.00123965,0.00494756,0.00194157,1.08589,0.00287843,0.0373452,657,1254,-23.2992,-6.64313
-560,-230,-23.1545,7.13379,0,0,0,0,0,0,0,-1,664,1254,-23.1545,-7.13385
-553,-230,-13.1939,4.9718,0,0,0,0,0,0,0,-1,671,1254,-13.1939,-4.97175
-546,-230,-15.23,0.453979,0,0,0,0,0,0,0,-1,678,1254,-15.23,-0.453996
-539,-230,-25.8232,0.512817,0,0,0,0,0,0,0,-1,685,1254,-25.8232,-0.512878
-532,-230,-21.1644,1.52966,0,0,0,0,0,0,0,-1,692,1254,-21.1644,-1.52969
-525,-230,-29.4775,0.731445,0,0,0,0,0,0,0,-1,699,1254,-29.4775,-0.731432
-518,-230,-34.3555,0.97876,0,0,0,0,0,0,0,-1,706,1254,-34.3554,-0.978755
-511,-230,-34.4838,1.11646,-0.00105708,0.00158802,0.00049707,0.00167834,-0.0011474,1.39104,0.00164102,0.040891,713,1254,-34.4838,-1.11644
-504,-230,-34.5383,1.20483,-0.0004678,-0.00160672,-6.79832e-06,-0.000467759,-0.00160676,-0.0059688,0.000954267,0.0378953,720,1254,-34.5383,-1.2048
-497,-230,0,0,0,0,0,0,0,0,0,-1,727,1254,0,0
-490,-230,0,0,0,0,0,0,0,0,0,-1,734,1254,0,0
-483,-230,0,0,0,0,0,0,0,0,0,-1,741,1254,0,0
-476,-230,0,0,0,0,0,0,0,0,0,-1,748,1254,0,0
-469,-230,0,0,0,0,0,0,0,0,0,-1,755,1254,0,0
-462,-230,0,0,0,0,0,0,0,0,0,-1,762,1254,0,0
-455,-230,0,0,0,0,0,0,0,0,0,-1,769,1254,0,0
-448,-230,0,0,0,0,0,0,0,0,0,-1,776,1254,0,0
-441,-230,0,0,0,0,0,0,0,0,0,-1,783,1254,0,0
-434,-230,0,0,0,0,0,0,0,0,0,-1,790,1254,0,0
-427,-230,0,0,0,0,0,0,0,0,0,-1,797,1254,0,0
-420,-230,0,0,0,0,0,0,0,0,0,-1,804,1254,0,0
-413,-230,0,0,0,0,0,0,0,0,0,-1,811,1254,0,0
-406,-230,0,0,0,0,0,0,0,0,0,-1,818,1254,0,0
-399,-230,0,0,0,0,0,0,0,0,0,-1,825,1254,0,0
-392,-230,0,0,0,0,0,0,0,0,0,-1,832,1254,0,0
-385,-230,0,0,0,0,0,0,0,0,0,-1,839,1254,0,0
-378,-230,0,0,0,0,0,0,0,0,0,-1,846,1254,0,0
-371,-230,0,0,0,0,0,0,0,0,0,-1,853,1254,0,0
-364,-230,0,0,0,0,0,0,0,0,0,-1,860,1254,0,0
-357,-230,0,0,0,0,0,0,0,0,0,-1,867,1254,0,0
-350,-230,0,0,0,0,0,0,0,0,0,-1,874,1254,0,0
-343,-230,0,0,0,0,0,0,0,0,0,-1,881,1254,0,0
-336,-230,0,0,0,0,0,0,0,0,0,-1,888,1254,0,0
-329,-230,0,0,0,0,0,0,0,0,0,-1,895,1254,0,0
-322,-230,0,0,0,0,0,0,0,0,0,-1,902,1254,0,0
-315,-230,0,0,0,0,0,0,0,0,0,-1,909,1254,0,0
-308,-230,0,0,0,0,0,0,0,0,0,-1,916,1254,0,0
-301,-230,0,0,0,0,0,0,0,0,0,-1,923,1254,0,0
-294,-230,0,0,0,0,0,0,0,0,0,-1,930,1254,0,0
-287,-230,0,0,0,0,0,0,0,0,0,-1,937,1254,0,0
-280,-230,0,0,0,0,0,0,0,0,0,-1,944,1254,0,0
-273,-230,0,0,0,0,0,0,0,0,0,-1,951,1254,0,0
-266,-230,0,0,0,0,0,0,0,0,0,-1,958,1254,0,0
-259,-230,0,0,0,0,0,0,0,0,0,-1,965,1254,0,0
-252,-230,0,0,0,0,0,0,0,0,0,-1,972,1254,0,0
-245,-230,0,0,0,0,0,0,0,0,0,-1,979,1254,0,0
-238,-230,0,0,0,0,0,0,0,0,0,-1,986,1254,0,0
-231,-230,0,0,0,0,0,0,0,0,0,-1,993,1254,0,0
-224,-230,0,0,0,0,0,0,0,0,0,-1,1000,1254,0,0
-217,-230,0,0,0,0,0,0,0,0,0,-1,1007,1254,0,0
-210,-230,0,0,0,0,0,0,0,0,0,-1,1014,1254,0,0
-203,-230,0,0,0,0,0,0,0,0,0,-1,1021,1254,0,0
-196,-230,0,0,0,0,0,0,0,0,0,-1,1028,1254,0,0
-189,-230,0,0,0,0,0,0,0,0,0,-1,1035,1254,0,0
-182,-230,0,0,0,0,0,0,0,0,0,-1,1042,1254,0,0
-175,-230,0,0,0,0,0,0,0,0,0,-1,1049,1254,0,0
-168,-230,0,0,0,0,0,0,0,0,0,-1,1056,1254,0,0
-161,-230,0,0,0,0,0,0,0,0,0,-1,1063,1254,0,0
-154,-230,0,0,0,0,0,0,0,0,0,-1,1070,1254,0,0
-147,-230,0,0,0,0,0,0,0,0,0,-1,1077,1254,0,0
-140,-230,0,0,0,0,0,0,0,0,0,-1,1084,1254,0,0
-133,-230,0,0,0,0,0,0,0,0,0,-1,1091,1254,0,0
-126,-230,0,0,0,0,0,0,0,0,0,-1,1098,1254,0,0
-119,-230,0,0,0,0,0,0,0,0,0,-1,1105,1254,0,0
-112,-230,0,0,0,0,0,0,0,0,0,-1,1112,1254,0,0
-105,-230,0,0,0,0,0,0,0,0,0,-1,1119,1254,0,0
-98,-230,0,0,0,0,0,0,0,0,0,-1,1126,1254,0,0
-91,-230,0,0,0,0,0,0,0,0,0,-1,1133,1254,0,0
-84,-230,0,0,0,0,0,0,0,0,0,-1,1140,1254,0,0
-77,-230,0,0,0,0,0,0,0,0,0,-1,1147,1254,0,0
-70,-230,0,0,0,0,0,0,0,0,0,-1,1154,1254,0,0
-63,-230,0,0,0,0,0,0,0,0,0,-1,1161,1254,0,0
-56,-230,0,0,0,0,0,0,0,0,0,-1,1168,1254,0,0
-49,-230,0,0,0,0,0,0,0,0,0,-1,1175,1254,0,0
-42,-230,0,0,0,0,0,0,0,0,0,-1,1182,1254,0,0
-35,-230,0,0,0,0,0,0,0,0,0,-1,1189,1254,0,0
-28,-230,0,0,0,0,0,0,0,0,0,-1,1196,1254,0,0
-21,-230,0,0,0,0,0,0,0,0,0,-1,1203,1254,0,0
-14,-230,0,0,0,0,0,0,0,0,0,-1,1210,1254,0,0
-7,-230,0,0,0,0,0,0,0,0,0,-1,1217,1254,0,0
0,-230,0,0,0,0,0,0,0,0,0,-1,1224,1254,0,0
7,-230,0,0,0,0,0,0,0,0,0,-1,1231,1254,0,0
14,-230,0,0,0,0,0,0,0,0,0,-1,1238,1254,0,0
21,-230,0,0,0,0,0,0,0,0,0,-1,1245,1254,0,0
28,-230,0,0,0,0,0,0,0,0,0,-1,1252,1254,0,0
35,-230,0,0,0,0,0,0,0,0,0,-1,1259,1254,0,0
42,-230,0,0,0,0,0,0,0,0,0,-1,1266,1254,0,0
49,-230,0,0,0,0,0,0,0,0,0,-1,1273,1254,0,0
56,-230,0,0,0,0,0,0,0,0,0,-1,1280,1254,0,0
63,-230,0,0,0,0,0,0,0,0,0,-1,1287,1254,0,0
70,-230,0,0,0,0,0,0,0,0,0,-1,1294,1254,0,0
77,-230,0,0,0,0,0,0,0,0,0,-1,1301,1254,0,0
84,-230,0,0,0,0,0,0,0,0,0,-1,1308,1254,0,0
91,-230,0,0,0,0,0,0,0,0,0,-1,1315,1254,0,0
98,-230,0,0,0,0,0,0,0,0,0,-1,1322,1254,0,0
105,-230,0,0,0,0,0,0,0,0,0,-1,1329,1254,0,0
112,-230,0,0,0,0,0,0,0,0,0,-1,1336,1254,0,0
119,-230,0,0,0,0,0,0,0,0,0,-1,1343,1254,0,0
126,-230,0,0,0,0,0,0,0,0,0,-1,1350,1254,0,0
133,-230,0,0,0,0,0,0,0,0,0,-1,1357,1254,0,0
140,-230,0,0,0,0,0,0,0,0,0,-1,1364,1254,0,0
147,-230,0,0,0,0,0,0,0,0,0,-1,1371,1254,0,0
154,-230,0,0,0,0,0,0,0,0,0,-1,1378,1254,0,0
161,-230,0,0,0,0,0,0,0,0,0,-1,1385,1254,0,0
168,-230,0,0,0,0,0,0,0,0,0,-1,1392,1254,0,0
175,-230,0,0,0,0,0,0,0,0,0,-1,1399,1254,0,0
182,-230,0,0,0,0,0,0,0,0,0,-1,1406,1254,0,0
189,-230,0,0,0,0,0,0,0,0,0,-1,1413,1254,0,0
196,-230,0,0,0,0,0,0,0,0,0,-1,1420,1254,0,0
203,-230,0,0,0,0,0,0,0,0,0,-1,1427,1254,0,0
210,-230,0,0,0,0,0,0,0,0,0,-1,1434,1254,0,0
217,-230,0,0,0,0,0,0,0,0,0,-1,1441,1254,0,0
224,-230,0,0,0,0,0,0,0,0,0,-1,1448,1254,0,0
231,-230,0,0,0,0,0,0,0,0,0,-1,1455,1254,0,0
238,-230,0,0,0,0,0,0,0,0,0,-1,1462,1254,0,0
245,-230,0,0,0,0,0,0,0,0,0,-1,1469,1254,0,0
252,-230,0,0,0,0,0,0,0,0,0,-1,1476,1254,0,0
259,-230,0,0,0,0,0,0,0,0,0,-1,1483,1254,0,0
266,-230,0,0,0,0,0,0,0,0,0,-1,1490,1254,0,0
273,-230,0,0,0,0,0,0,0,0,0,-1,1497,1254,0,0
280,-230,0,0,0,0,0,0,0,0,0,-1,1504,1254,0,0
287,-230,0,0,0,0,0,0,0,0,0,-1,1511,1254,0,0
294,-230,0,0,0,0,0,0,0,0,0,-1,1518,1254,0,0
301,-230,0,0,0,0,0,0,0,0,0,-1,1525,1254,0,0
308,-230,0,0,0,0,0,0,0,0,0,-1,1532,1254,0,0
315,-230,0,0,0,0,0,0,0,0,0,-1,1539,1254,0,0
322,-230,0,0,0,0,0,0,0,0,0,-1,1546,1254,0,0
329,-230,0,0,0,0,0,0,0,0,0,-1,1553,1254,0,0
336,-230,0,0,0,0,0,0,0,0,0,-1,1560,1254,0,0
343,-230,0,0,0,0,0,0,0,0,0,-1,1567,1254,0,0
350,-230,0,0,0,0,0,0,0,0,0,-1,1574,1254,0,0
357,-230,0,0,0,0,0,0,0,0,0,-1,1581,1254,0,0
364,-230,0,0,0,0,0,0,0,0,0,-1,1588,1254,0,0
371,-230,0,0,0,0,0,0,0,0,0,-1,1595,1254,0,0
378,-230,0,0,0,0,0,0,0,0,0,-1,1602,1254,0,0
385,-230,0,0,0,0,0,0,0,0,0,-1,1609,1254,0,0
392,-230,0,0,0,0,0,0,0,0,0,-1,1616,1254,0,0
399,-230,0,0,0,0,0,0,0,0,0,-1,1623,1254,0,0
406,-230,0,0,0,0,0,0,0,0,0,-1,1630,1254,0,0
413,-230,0,0,0,0,0,0,0,0,0,-1,1637,1254,0,0
420,-230,0,0,0,0,0,0,0,0,0,-1,1644,1254,0,0
427,-230,0,0,0,0,0,0,0,0,0,-1,1651,1254,0,0
434,-230,0,0,0,0,0,0,0,0,0,-1,1658,1254,0,0
441,-230,0,0,0,0,0,0,0,0,0,-1,1665,1254,0,0
448,-230,0,0,0,0,0,0,0,0,0,-1,1672,1254,0,0
455,-230,0,0,0,0,0,0,0,0,0,-1,1679,1254,0,0
462,-230,0,0,0,0,0,0,0,0,0,-1,1686,1254,0,0
469,-230,0,0,0,0,0,0,0,0,0,-1,1693,1254,0,0
476,-230,0,0,0,0,0,0,0,0,0,-1,1700,1254,0,0
483,-230,0,0,0,0,0,0,0,0,0,-1,1707,1254,0,0
490,-230,0,0,0,0,0,0,0,0,0,-1,1714,1254,0,0
497,-230,0,0,0,0,0,0,0,0,0,-1,1721,1254,0,0
504,-230,0,0,0,0,0,0,0,0,0,-1,1728,1254,0,0
511,-230,0,0,0,0,0,0,0,0,0,-1,1735,1254,0,0
518,-230,0,0,0,0,0,0,0,0,0,-1,1742,1254,0,0
525,-230,0,0,0,0,0,0,0,0,0,-1,1749,1254,0,0
532,-230,0,0,0,0,0,0,0,0,0,-1,1756,1254,0,0
539,-230,0,0,0,0,0,0,0,0,0,-1,1763,1254,0,0
546,-230,0,0,0,0,0,0,0,0,0,-1,1770,1254,0,0
553,-230,0,0,0,0,0,0,0,0,0,-1,1777,1254,0,0
560,-230,0,0,0,0,0,0,0,0,0,-1,1784,1254,0,0
567,-230,0,0,0,0,0,0,0,0,0,-1,1791,1254,0,0
574,-230,0,0,0,0,0,0,0,0,0,-1,1798,1254,0,0
581,-230,0,0,0,0,0,0,0,0,0,-1,1805,1254,0,0
588,-230,0,0,0,0,0,0,0,0,0,-1,1812,1254,0,0
595,-230,0,0,0,0,0,0,0,0,0,-1,1819,1254,0,0
602,-230,0,0,0,0,0,0,0,0,0,-1,1826,1254,0,0
609,-230,0,0,0,0,0,0,0,0,0,-1,1833,1254,0,0
616,-230,46.5187,2.88928,0.00798186,-0.000427477,0.00562991,0.0108039,-0.00324955,0.464659,0.00849555,0.0350823,1840,1254,46.5187,-2.8893
623,-230,46.5726,2.92188,0.00338312,0.00191137,0.00327996,0.00600875,-0.000714252,0.675048,0.0042639,0.0352786,1847,1254,46.5726,-2.92182
630,-230,46.5616,2.92358,-0.000202367,0.00411349,0.000685876,0.00421987,-0.000308744,1.41693,0.0029216,0.0322215,1854,1254,46.5616,-2.92364
637,-230,46.4537,2.83948,-0.00254618,0.00586514,-0.00173615,0.0062094,-0.00289044,-1.37505,0.00536902,0.0292341,1861,1254,46.4537,-2.83943
644,-230,46.3717,2.66345,-0.00251211,0.00556489,-0.00209046,0.00607386,-0.00302108,-1.33197,0.00534866,0.0235663,1868,1254,46.3717,-2.66343
651,-230,46.3837,2.59167,-0.00170112,0.00488593,-0.00225376,0.00558323,-0.00239843,-1.27074,0.00472892,0.0479837,1875,1254,46.3837,-2.59173
658,-230,46.4247,2.58789,0,0,0,0,0,0,0,-1,1882,1254,46.4246,-2.58792
665,-230,47.1116,2.37756,0,0,0,0,0,0,0,-1,1889,1254,47.1115,-2.37754
672,-230,43.0962,2.78699,0,0,0,0,0,0,0,-1,1896,1254,43.0962,-2.78698
679,-230,27.9967,2.37708,0,0,0,0,0,0,0,-1,1903,1254,27.9967,-2.3771
686,-230,36.2544,9.38684,0,0,0,0,0,0,0,-1,1910,1254,36.2544,-9.38685
693,-230,36.2777,9.16479,0.00137742,0.000446682,-0.0015345,0.00251557,-0.000691466,-0.638171,0.00194886,0.0464112,1917,1254,36.2777,-9.16482
700,-230,36.3213,8.86279,0.00212502,-0.00122397,-0.00103328,0.00241816,-0.00151712,-0.276439,0.0022918,0.0187071,1924,1254,36.3213,-8.86278
707,-230,36.2762,8.44409,0.00133502,-0.00163644,-0.000564953,0.00143881,-0.00174023,-0.181684,0.00183816,0.0104635,1931,1254,36.2762,-8.44406
714,-230,36.2394,8.02393,0.000437356,-0.00176755,0.000145031,0.000446854,-0.00177705,0.0654007,0.00135838,0.0129932,1938,1254,36.2393,-8.0239
721,-230,36.2476,7.5918,-0.000255178,-0.00183975,0.000855967,0.000118897,-0.00221382,0.412008,0.00151707,0.0130396,1945,1254,36.2476,-7.59181
728,-230,36.2191,7.18835,-0.00034404,-0.00181403,0.00114842,0.000284446,-0.00244252,0.500739,0.00173097,0.0144158,1952,1254,36.2191,-7.1884
735,-230,36.2045,6.79297,-7.28004e-05,-0.00186129,0.0012517,0.000571274,-0.00250536,0.475228,0.00188967,0.0152,1959,1254,36.2044,-6.793
742,-230,36.1907,6.36426,0.00048005,-0.00212838,0.00129082,0.00101083,-0.00265916,0.390118,0.00218895,0.0114665,1966,1254,36.1906,-6.36423
749,-230,36.1626,5.92749,0.00136022,-0.00268732,0.00132747,0.00175674,-0.00308384,0.29027,0.00282951,0.0110434,1973,1254,36.1626,-5.9275
756,-230,36.1353,5.52112,0.00283702,-0.00354069,0.00110164,0.00302195,-0.00372561,0.166315,0.00390276,0.0158758,1980,1254,36.1353,-5.52118
763,-230,36.1512,5.0332,0.00504889,-0.00501396,0.000698916,0.0050972,-0.00506227,0.0690135,0.00586558,0.0349223,1987,1254,36.1513,-5.03318
770,-230,36.4406,4.48767,0,0,0,0,0,0,0,-1,1994,1254,36.4405,-4.48766
777,-230,36.1682,4.11133,0,0,0,0,0,0,0,-1,2001,1254,36.1682,-4.1113
784,-230,35.8896,1.80334,0,0,0,0,0,0,0,-1,2008,1254,35.8897,-1.80338
791,-230,35.6028,2.20642,0,0,0,0,0,0,0,-1,2015,1254,35.6027,-2.2064
798,-230,0,0,0,0,0,0,0,0,0,-1,2022,1254,0,0
805,-230,0,0,0,0,0,0,0,0,0,-1,2029,1254,0,0
812,-230,0,0,0,0,0,0,0,0,0,-1,2036,1254,0,0
-700,-237,0,0,0,0,0,0,0,0,0,-1,524,1261,0,0
-693,-237,0,0,0,0,0,0,0,0,0,-1,531,1261,0,0
-686,-237,0,0,0,0,0,0,0,0,0,-1,538,1261,0,0
-679,-237,0,0,0,0,0,0,0,0,0,-1,545,1261,0,0
-672,-237,-29.3025,-15.5063,0,0,0,0,0,0,0,-1,552,1261,-29.3025,15.5064
-665,-237,-29.1047,-11.6073,0,0,0,0,0,0,0,-1,559,1261,-29.1047,11.6073
-658,-237,-29.7421,-14.4137,0,0,0,0,0,0,0,-1,566,1261,-29.7421,14.4137
-651,-237,-37.2526,1.15991,0,0,0,0,0,0,0,-1,573,1261,-37.2526,-1.15996
-644,-237,-22.7836,6.22681,0,0,0,0,0,0,0,-1,580,1261,-22.7836,-6.22677
-637,-237,-23.5365,0.484985,0,0,0,0,0,0,0,-1,587,1261,-23.5365,-0.484983
-630,-237,-23.3225,1.71472,0.0356535,0.0149931,0.000203739,0.0356555,0.0149911,0.00986005,0.0206724,0.0495024,594,1261,-23.3225,-1.71478
-623,-237,-22.9008,2.92346,0.0254324,0.0116373,0.00135938,0.025565,0.0115047,0.0972945,0.0147846,0.0335094,601,1261,-22.9008,-2.92348
-616,-237,-22.8773,3.38611,0.0176705,0.00846415,0.00159581,0.0179392,0.00819538,0.166855,0.0103701,0.0146001,608,1261,-22.8773,-3.38613
-609,-237,-22.9039,3.83289,0.0118268,0.00599611,0.00177606,0.0123252,0.00549772,0.273581,0.00712976,0.0159591,615,1261,-22.9039,-3.83291
-602,-237,-22.9274,4.30615,0.00795202,0.00382073,0.0014431,0.00840618,0.00336656,0.3049,0.00488525,0.0127997,622,1261,-22.9273,-4.30614
-595,-237,-22.9488,4.79456,0.00561955,0.00184127,0.000867144,0.00580906,0.00165176,0.215163,0.00345629,0.016518,629,1261,-22.9488,-4.79456
-588,-237,-22.9457,5.27795,0.00450627,0.00114005,0.000607129,0.00461242,0.00103389,0.173096,0.00279481,0.0285114,636,1261,-22.9458,-5.27791
-581,-237,-22.956,5.77515,0.00390238,0.00102622,0.000649484,0.00404224,0.000886359,0.212106,0.00245334,0.0259234,643,1261,-22.956,-5.77514
-574,-237,-22.9745,6.26123,0.0032973,0.00185059,0.000975849,0.00378866,0.00135923,0.466456,0.00221628,0.0161177,650,1261,-22.9745,-6.2612
-567,-237,-22.9444,6.75732,0.00296411,0.00343084,0.00112276,0.00434423,0.00205072,0.887864,0.00250945,0.0255937,657,1261,-22.9444,-6.75737
-560,-237,-22.7985,7.15942,0,0,0,0,0,0,0,-1,664,1261,-22.7985,-7.15946
-553,-237,-20.6102,6.92139,0,0,0,0,0,0,0,-1,671,1261,-20.6102,-6.92138
-546,-237,-11.192,1.14014,0,0,0,0,0,0,0,-1,678,1261,-11.192,-1.14011
-539,-237,-16.512,1.53455,0,0,0,0,0,0,0,-1,685,1261,-16.512,-1.53457
-532,-237,-29.7025,1.23621,0,0,0,0,0,0,0,-1,692,1261,-29.7025,-1.23618
-525,-237,-33.0974,1.11963,0,0,0,0,0,0,0,-1,699,1261,-33.0974,-1.11964
-518,-237,-34.2955,0.943237,0,0,0,0,0,0,0,-1,706,1261,-34.2955,-0.943227
-511,-237,-34.3788,1.09094,-0.00088919,-0.00123192,0.000201027,-0.000796399,-0.00132471,0.432444,0.000770023,0.045067,713,1261,-34.3788,-1.09095
-504,-237,-34.4604,1.20984,-0.000743872,-0.00386144,4.02007e-05,-0.000743353,-0.00386196,0.0128921,0.0023661,0.041149,720,1261,-34.4604,-1.20989
-497,-237,-34.4952,1.20923,0.000278907,-0.00741243,-5.93225e-05,0.000279365,-0.00741289,-0.00771228,0.00503763,0.0472571,727,1261,-34.4952,-1.2092
-490,-237,0,0,0,0,0,0,0,0,0,-1,734,1261,0,0
-483,-237,0,0,0,0,0,0,0,0,0,-1,741,1261,0,0
-476,-237,0,0,0,0,0,0,0,0,0,-1,748,1261,0,0
-469,-237,0,0,0,0,0,0,0,0,0,-1,755,1261,0,0
-462,-237,0,0,0,0,0,0,0,0,0,-1,762,1261,0,0
-455,-237,0,0,0,0,0,0,0,0,0,-1,769,1261,0,0
-448,-237,0,0,0,0,0,0,0,0,0,-1,776,1261,0,0
-441,-237,0,0,0,0,0,0,0,0,0,-1,783,1261,0,0
-434,-237,0,0,0,0,0,0,0,0,0,-1,790,1261,0,0
-427,-237,0,0,0,0,0,0,0,0,0,-1,797,1261,0,0
-420,-237,0,0,0,0,0,0,0,0,0,-1,804,1261,0,0
-413,-237,0,0,0,0,0,0,0,0,0,-1,811,1261,0,0
-406,-237,0,0,0,0,0,0,0,0,0,-1,818,1261,0,0
-399,-237,0,0,0,0,0,0,0,0,0,-1,825,1261,0,0
-392,-237,0,0,0,0,0,0,0,0,0,-1,832,1261,0,0
-385,-237,0,0,0,0,0,0,0,0,0,-1,839,1261,0,0
-378,-237,0,0,0,0,0,0,0,0,0,-1,846,1261,0,0
-371,-237,0,0,0,0,0,0,0,0,0,-1,853,1261,0,0
-364,-237,0,0,0,0,0,0,0,0,0,-1,860,1261,0,0
-357,-237,0,0,0,0,0,0,0,0,0,-1,867,1261,0,0
-350,-237,0,0,0,0,0,0,0,0,0,-1,874,1261,0,0
-343,-237,0,0,0,0,0,0,0,0,0,-1,881,1261,0,0
-336,-237,0,0,0,0,0,0,0,0,0,-1,888,1261,0,0
-329,-237,0,0,0,0,0,0,0,0,0,-1,895,1261,0,0
-322,-237,0,0,0,0,0,0,0,0,0,-1,902,1261,0,0
-315,-237,0,0,0,0,0,0,0,0,0,-1,909,1261,0,0
-308,-237,0,0,0,0,0,0,0,0,0,-1,916,1261,0,0
-301,-237,0,0,0,0,0,0,0,0,0,-1,923,1261,0,0
-294,-237,0,0,0,0,0,0,0,0,0,-1,930,1261,0,0
-287,-237,0,0,0,0,0,0,0,0,0,-1,937,1261,0,0
-280,-237,0,0,0,0,0,0,0,0,0,-1,944,1261,0,0
-273,-237,0,0,0,0,0,0,0,0,0,-1,951,1261,0,0
-266,-237,0,0,0,0,0,0,0,0,0,-1,958,1261,0,0
-259,-237,0,0,0,0,0,0,0,0,0,-1,965,1261,0,0
-252,-237,0,0,0,0,0,0,0,0,0,-1,972,1261,0,0
-245,-237,0,0,0,0,0,0,0,0,0,-1,979,1261,0,0
-238,-237,0,0,0,0,0,0,0,0,0,-1,986,1261,0,0
-231,-237,0,0,0,0,0,0,0,0,0,-1,993,1261,0,0
-224,-237,0,0,0,0,0,0,0,0,0,-1,1000,1261,0,0
-217,-237,0,0,0,0,0,0,0,0,0,-1,1007,1261,0,0
-210,-237,0,0,0,0,0,0,0,0,0,-1,1014,1261,0,0
-203,-237,0,0,0,0,0,0,0,0,0,-1,1021,1261,0,0
-196,-237,0,0,0,0,0,0,0,0,0,-1,1028,1261,0,0
-189,-237,0,0,0,0,0,0,0,0,0,-1,1035,1261,0,0
-182,-237,0,0,0,0,0,0,0,0,0,-1,1042,1261,0,0
-175,-237,0,0,0,0,0,0,0,0,0,-1,1049,1261,0,0
-168,-237,0,0,0,0,0,0,0,0,0,-1,1056,1261,0,0
-161,-237,0,0,0,0,0,0,0,0,0,-1,1063,1261,0,0
-154,-237,0,0,0,0,0,0,0,0,0,-1,1070,1261,0,0
-147,-237,0,0,0,0,0,0,0,0,0,-1,1077,1261,0,0
-140,-237,0,0,0,0,0,0,0,0,0,-1,1084,1261,0,0
-133,-237,0,0,0,0,0,0,0,0,0,-1,1091,1261,0,0
-126,-237,0,0,0,0,0,0,0,0,0,-1,1098,1261,0,0
-119,-237,0,0,0,0,0,0,0,0,0,-1,1105,1261,0,0
-112,-237,0,0,0,0,0,0,0,0,0,-1,1112,1261,0,0
-105,-237,0,0,0,0,0,0,0,0,0,-1,1119,1261,0,0
-98,-237,0,0,0,0,0,0,0,0,0,-1,1126,1261,0,0
-91,-237,0,0,0,0,0,0,0,0,0,-1,1133,1261,0,0
-84,-237,0,0,0,0,0,0,0,0,0,-1,1140,1261,0,0
-77,-237,0,0,0,0,0,0,0,0,0,-1,1147,1261,0,0
-70,-237,0,0,0,0,0,0,0,0,0,-1,1154,1261,0,0
-63,-237,0,0,0,0,0,0,0,0,0,-1,1161,1261,0,0
-56,-237,0,0,0,0,0,0,0,0,0,-1,1168,1261,0,0
-49,-237,0,0,0,0,0,0,0,0,0,-1,1175,1261,0,0
-42,-237,0,0,0,0,0,0,0,0,0,-1,1182,1261,0,0
-35,-237,0,0,0,0,0,0,0,0,0,-1,1189,1261,0,0
-28,-237,0,0,0,0,0,0,0,0,0,-1,1196,1261,0,0
-21,-237,0,0,0,0,0,0,0,0,0,-1,1203,1261,0,0
-14,-237,0,0,0,0,0,0,0,0,0,-1,1210,1261,0,0
-7,-237,0,0,0,0,0,0,0,0,0,-1,1217,1261,0,0
0,-237,0,0,0,0,0,0,0,0,0,-1,1224,1261,0,0
7,-237,0,0,0,0,0,0,0,0,0,-1,1231,1261,0,0
14,-237,0,0,0,0,0,0,0,0,0,-1,1238,1261,0,0
21,-237,0,0,0,0,0,0,0,0,0,-1,1245,1261,0,0
28,-237,0,0,0,0,0,0,0,0,0,-1,1252,1261,0,0
35,-237,0,0,0,0,0,0,0,0,0,-1,1259,1261,0,0
42,-237,0,0,0,0,0,0,0,0,0,-1,1266,1261,0,0
49,-237,0,0,0,0,0,0,0,0,0,-1,1273,1261,0,0
56,-237,0,0,0,0,0,0,0,0,0,-1,1280,1261,0,0
63,-237,0,0,0,0,0,0,0,0,0,-1,1287,1261,0,0
70,-237,0,0,0,0,0,0,0,0,0,-1,1294,1261,0,0
77,-237,0,0,0,0,0,0,0,0,0,-1,1301,1261,0,0
84,-237,0,0,0,0,0,0,0,0,0,-1,1308,1261,0,0
91,-237,0,0,0,0,0,0,0,0,0,-1,1315,1261,0,0
98,-237,0,0,0,0,0,0,0,0,0,-1,1322,1261,0,0
105,-237,0,0,0,0,0,0,0,0,0,-1,1329,1261,0,0
112,-237,0,0,0,0,0,0,0,0,0,-1,1336,1261,0,0
119,-237,0,0,0,0,0,0,0,0,0,-1,1343,1261,0,0
126,-237,0,0,0,0,0,0,0,0,0,-1,1350,1261,0,0
133,-237,0,0,0,0,0,0,0,0,0,-1,1357,1261,0,0
140,-237,0,0,0,0,0,0,0,0,0,-1,1364,1261,0,0
147,-237,0,0,0,0,0,0,0,0,0,-1,1371,1261,0,0
154,-237,0,0,0,0,0,0,0,0,0,-1,1378,1261,0,0
161,-237,0,0,0,0,0,0,0,0,0,-1,1385,1261,0,0
168,-237,0,0,0,0,0,0,0,0,0,-1,1392,1261,0,0
175,-237,0,0,0,0,0,0,0,0,0,-1,1399,1261,0,0
182,-237,0,0,0,0,0,0,0,0,0,-1,1406,1261,0,0
189,-237,0,0,0,0,0,0,0,0,0,-1,1413,1261,0,0
196,-237,0,0,0,0,0,0,0,0,0,-1,1420,1261,0,0
203,-237,0,0,0,0,0,0,0,0,0,-1,1427,1261,0,0
210,-237,0,0,0,0,0,0,0,0,0,-1,1434,1261,0,0
217,-237,0,0,0,0,0,0,0,0,0,-1,1441,1261,0,0
224,-237,0,0,0,0,0,0,0,0,0,-1,1448,1261,0,0
231,-237,0,0,0,0,0,0,0,0,0,-1,1455,1261,0,0
238,-237,0,0,0,0,0,0,0,0,0,-1,1462,1261,0,0
245,-237,0,0,0,0,0,0,0,0,0,-1,1469,1261,0,0
252,-237,0,0,0,0,0,0,0,0,0,-1,1476,1261,0,0
259,-237,0,0,0,0,0,0,0,0,0,-1,1483,1261,0,0
266,-237,0,0,0,0,0,0,0,0,0,-1,1490,1261,0,0
273,-237,0,0,0,0,0,0,0,0,0,-1,1497,1261,0,0
280,-237,0,0,0,0,0,0,0,0,0,-1,1504,1261,0,0
287,-237,0,0,0,0,0,0,0,0,0,-1,1511,1261,0,0
294,-237,0,0,0,0,0,0,0,0,0,-1,1518,1261,0,0
301,-237,0,0,0,0,0,0,0,0,0,-1,1525,1261,0,0
308,-237,0,0,0,0,0,0,0,0,0,-1,1532,1261,0,0
315,-237,0,0,0,0,0,0,0,0,0,-1,1539,1261,0,0
322,-237,0,0,0,0,0,0,0,0,0,-1,1546,1261,0,0
329,-237,0,0,0,0,0,0,0,0,0,-1,1553,1261,0,0
336,-237,0,0,0,0,0,0,0,0,0,-1,1560,1261,0,0
343,-237,0,0,0,0,0,0,0,0,0,-1,1567,1261,0,0
350,-237,0,0,0,0,0,0,0,0,0,-1,1574,1261,0,0
357,-237,0,0,0,0,0,0,0,0,0,-1,1581,1261,0,0
364,-237,0,0,0,0,0,0,0,0,0,-1,1588,1261,0,0
371,-237,0,0,0,0,0,0,0,0,0,-1,1595,1261,0,0
378,-237,0,0,0,0,0,0,0,0,0,-1,1602,1261,0,0
385,-237,0,0,0,0,0,0,0,0,0,-1,1609,1261,0,0
392,-237,0,0,0,0,0,0,0,0,0,-1,1616,1261,0,0
399,-237,0,0,0,0,0,0,0,0,0,-1,1623,1261,0,0
406,-237,0,0,0,0,0,0,0,0,0,-1,1630,1261,0,0
413,-237,0,0,0,0,0,0,0,0,0,-1,1637,1261,0,0
420,-237,0,0,0,0,0,0,0,0,0,-1,1644,1261,0,0
427,-237,0,0,0,0,0,0,0,0,0,-1,1651,1261,0,0
434,-237,0,0,0,0,0,0,0,0,0,-1,1658,1261,0,0
441,-237,0,0,0,0,0,0,0,0,0,-1,1665,1261,0,0
448,-237,0,0,0,0,0,0,0,0,0,-1,1672,1261,0,0
455,-237,0,0,0,0,0,0,0,0,0,-1,1679,1261,0,0
462,-237,0,0,0,0,0,0,0,0,0,-1,1686,1261,0,0
469,-237,0,0,0,0,0,0,0,0,0,-1,1693,1261,0,0
476,-237,0,0,0,0,0,0,0,0,0,-1,1700,1261,0,0
483,-237,0,0,0,0,0,0,0,0,0,-1,1707,1261,0,0
490,-237,0,0,0,0,0,0,0,0,0,-1,1714,1261,0,0
497,-237,0,0,0,0,0,0,0,0,0,-1,1721,1261,0,0
504,-237,0,0,0,0,0,0,0,0,0,-1,1728,1261,0,0
511,-237,0,0,0,0,0,0,0,0,0,-1,1735,1261,0,0
518,-237,0,0,0,0,0,0,0,0,0,-1,1742,1261,0,0
525,-237,0,0,0,0,0,0,0,0,0,-1,1749,1261,0,0
532,-237,0,0,0,0,0,0,0,0,0,-1,1756,1261,0,0
539,-237,0,0,0,0,0,0,0,0,0,-1,1763,1261,0,0
546,-237,0,0,0,0,0,0,0,0,0,-1,1770,1261,0,0
553,-237,0,0,0,0,0,0,0,0,0,-1,1777,1261,0,0
560,-237,0,0,0,0,0,0,0,0,0,-1,1784,1261,0,0
567,-237,0,0,0,0,0,0,0,0,0,-1,1791,1261,0,0
574,-237,0,0,0,0,0,0,0,0,0,-1,1798,1261,0,0
581,-237,0,0,0,0,0,0,0,0,0,-1,1805,1261,0,0
588,-237,0,0,0,0,0,0,0,0,0,-1,1812,1261,0,0
595,-237,0,0,0,0,0,0,0,0,0,-1,1819,1261,0,0
602,-237,0,0,0,0,0,0,0,0,0,-1,1826,1261,0,0
609,-237,0,0,0,0,0,0,0,0,0,-1,1833,1261,0,0
616,-237,46.5441,2.71899,0.00652626,0.000171844,0.00457269,0.00891719,-0.00221908,0.481776,0.00680616,0.0369527,1840,1261,46.5441,-2.71904
623,-237,46.5875,2.76892,0.00138204,0.00296165,0.00246844,0.00476357,-0.00041987,0.940232,0.00332452,0.0342929,1847,1261,46.5876,-2.76893
630,-237,46.5795,2.79944,-0.00294768,0.00563406,7.61596e-05,0.00563474,-0.00294835,1.56192,0.0050357,0.0291648,1854,1261,46.5795,-2.7995
637,-237,46.3977,2.69202,-0.00516836,0.00717258,-0.00183839,0.00744062,-0.0054364,-1.42602,0.00746451,0.0244674,1861,1261,46.3977,-2.69208
644,-237,45.922,2.10962,-0.00436916,0.00615409,-0.00170662,0.00642394,-0.00463902,-1.41397,0.00641485,0.0466426,1868,1261,45.922,-2.10962
651,-237,46.3297,2.55176,0,0,0,0,0,0,0,-1,1875,1261,46.3297,-2.55172
658,-237,45.7885,2.45154,0,0,0,0,0,0,0,-1,1882,1261,45.7885,-2.45158
665,-237,45.5405,2.30652,0,0,0,0,0,0,0,-1,1889,1261,45.5406,-2.30653
672,-237,45.3922,1.95618,0,0,0,0,0,0,0,-1,1896,1261,45.3922,-1.95623
679,-237,23.1501,7.37488,0,0,0,0,0,0,0,-1,1903,1261,23.1502,-7.37493
686,-237,35.7424,9.78296,0,0,0,0,0,0,0,-1,1910,1261,35.7424,-9.783
693,-237,35.7551,9.3208,0.00119932,0.000610234,-0.00136505,0.00230124,-0.000491687,-0.67914,0.00172162,0.0499154,1917,1261,35.7552,-9.32085
700,-237,35.8429,8.89868,0.0022216,-0.00111159,-0.000794611,0.00240134,-0.00129133,-0.222453,0.00216383,0.0128797,1924,1261,35.843,-8.89866
707,-237,35.8411,8.47888,0.00143493,-0.00151208,-0.000375941,0.00148213,-0.00155929,-0.124902,0.00175615,0.0100646,1931,1261,35.841,-8.47887
714,-237,35.8179,8.04016,0.000608896,-0.00152747,0.000227504,0.000632855,-0.00155142,0.104924,0.00129773,0.0151005,1938,1261,35.8179,-8.04017
721,-237,35.7788,7.62329,2.90463e-05,-0.00158936,0.000791429,0.000351731,-0.00191204,0.387148,0.00140667,0.0167502,1945,1261,35.7788,-7.62329
728,-237,35.804,7.19141,-5.72708e-05,-0.00165919,0.00100428,0.000426339,-0.0021428,0.448777,0.00158982,0.0150557,1952,1261,35.804,-7.1914
735,-237,35.7881,6.7478,0.000140196,-0.00188355,0.00107584,0.000605251,-0.00234861,0.408014,0.0018017,0.0190709,1959,1261,35.7881,-6.74785
742,-237,35.7798,6.35376,0.000608826,-0.00236335,0.00107311,0.000955776,-0.0027103,0.312704,0.00219592,0.0143191,1966,1261,35.7798,-6.35382
749,-237,35.7372,5.95947,0.00143648,-0.00321983,0.00105292,0.0016635,-0.00344686,0.212363,0.00300976,0.0101088,1973,1261,35.7371,-5.95949
756,-237,35.677,5.5448,0.00292585,-0.00446881,0.000669839,0.00298604,-0.00452899,0.0896122,0.00436918,0.0165462,1980,1261,35.677,-5.54475
763,-237,35.5349,5.021,0.00525697,-0.00651931,2.09743e-05,0.00525701,-0.00651935,0.00178105,0.00681209,0.0350445,1987,1261,35.535,-5.02094
770,-237,35.6907,4.28601,0,0,0,0,0,0,0,-1,1994,1261,35.6907,-4.28597
777,-237,35.8915,3.59094,0,0,0,0,0,0,0,-1,2001,1261,35.8915,-3.59099
784,-237,36.3441,1.68591,0,0,0,0,0,0,0,-1,2008,1261,36.3441,-1.68592
791,-237,32.3025,6.03235,0,0,0,0,0,0,0,-1,2015,1261,32.3025,-6.03229
798,-237,0,0,0,0,0,0,0,0,0,-1,2022,1261,0,0
805,-237,0,0,0,0,0,0,0,0,0,-1,2029,1261,0,0
812,-237,0,0,0,0,0,0,0,0,0,-1,2036,1261,0,0
-700,-244,0,0,0,0,0,0,0,0,0,-1,524,1268,0,0
-693,-244,0,0,0,0,0,0,0,0,0,-1,531,1268,0,0
-686,-244,0,0,0,0,0,0,0,0,0,-1,538,1268,0,0
-679,-244,0,0,0,0,0,0,0,0,0,-1,545,1268,0,0
-672,-244,-29.0622,-13.5513,0,0,0,0,0,0,0,-1,552,1268,-29.0622,13.5513
-665,-244,-23.669,1.3938,0,0,0,0,0,0,0,-1,559,1268,-23.669,-1.39374
-658,-244,-23.6096,2.91895,0,0,0,0,0,0,0,-1,566,1268,-23.6096,-2.91896
-651,-244,-23.5394,4.41724,0,0,0,0,0,0,0,-1,573,1268,-23.5394,-4.41721
-644,-244,-20.4261,0.428345,0,0,0,0,0,0,0,-1,580,1268,-20.4261,-0.428352
-637,-244,-22.5397,3.29333,0,0,0,0,0,0,0,-1,587,1268,-22.5397,-3.29337
-630,-244,-22.9061,2.51965,0,0,0,0,0,0,0,-1,594,1268,-22.9061,-2.51968
-623,-244,-22.6189,2.9845,0.0256552,0.0137661,0.00328848,0.0265041,0.0129171,0.252646,0.0153038,0.0353329,601,1268,-22.6189,-2.98449
-616,-244,-22.4114,3.42029,0.0177,0.00986307,0.00286204,0.0186339,0.00892915,0.315418,0.0107614,0.0176217,608,1268,-22.4114,-3.42024
-609,-244,-22.4171,3.84814,0.0120355,0.00699083,0.00251836,0.0130775,0.00594886,0.392303,0.00756053,0.0141835,615,1268,-22.4171,-3.84817
-602,-244,-22.4449,4.31348,0.00825496,0.00453186,0.00196972,0.0091036,0.00368321,0.406811,0.00528777,0.0155033,622,1268,-22.4449,-4.31347
-595,-244,-22.4745,4.81165,0.00588777,0.00241294,0.00132202,0.00633355,0.00196716,0.325223,0.00374311,0.017263,629,1268,-22.4745,-4.8117
-588,-244,-22.4785,5.29602,0.00460393,0.00128686,0.000938215,0.00485091,0.00103988,0.257404,0.00294907,0.0234579,636,1268,-22.4784,-5.29601
-581,-244,-22.4838,5.77893,0.00391101,0.000795155,0.000837058,0.00412164,0.000584523,0.246516,0.00257513,0.0202202,643,1268,-22.4838,-5.77892
-574,-244,-22.5107,6.27234,0.00331719,0.00119327,0.000980302,0.00370048,0.000809981,0.372718,0.00224621,0.0136109,650,1268,-22.5107,-6.27237
-567,-244,-22.5018,6.74927,0.00310131,0.0024376,0.00104109,0.00386215,0.00167676,0.631108,0.00223625,0.0142333,657,1268,-22.5018,-6.74928
-560,-244,-22.4207,7.19092,0.00278825,0.00330451,0.00109141,0.0041679,0.00192486,0.90152,0.00240867,0.0369849,664,1268,-22.4207,-7.19093
-553,-244,-22.3186,7.62903,0,0,0,0,0,0,0,-1,671,1268,-22.3186,-7.62901
-546,-244,-11.2686,4.41772,0,0,0,0,0,0,0,-1,678,1268,-11.2686,-4.41767
-539,-244,-12.8706,0.3302,0,0,0,0,0,0,0,-1,685,1268,-12.8706,-0.330156
-532,-244,-18.1502,0.816528,0,0,0,0,0,0,0,-1,692,1268,-18.1502,-0.816514
-525,-244,-33.0835,0.693604,0,0,0,0,0,0,0,-1,699,1268,-33.0835,-0.69365
-518,-244,-33.1169,0.668091,0,0,0,0,0,0,0,-1,706,1268,-33.1169,-0.668103
-511,-244,-34.4677,1.20056,0,0,0,0,0,0,0,-1,713,1268,-34.4677,-1.20061
-504,-244,-34.5222,1.23181,0,0,0,0,0,0,0,-1,720,1268,-34.5222,-1.23182
-497,-244,-34.471,1.11523,0,0,0,0,0,0,0,-1,727,1268,-34.471,-1.11518
-490,-244,0,0,0,0,0,0,0,0,0,-1,734,1268,0,0
-483,-244,0,0,0,0,0,0,0,0,0,-1,741,1268,0,0
-476,-244,0,0,0,0,0,0,0,0,0,-1,748,1268,0,0
-469,-244,0,0,0,0,0,0,0,0,0,-1,755,1268,0,0
-462,-244,0,0,0,0,0,0,0,0,0,-1,762,1268,0,0
-455,-244,0,0,0,0,0,0,0,0,0,-1,769,1268,0,0
-448,-244,0,0,0,0,0,0,0,0,0,-1,776,1268,0,0
-441,-244,0,0,0,0,0,0,0,0,0,-1,783,1268,0,0
-434,-244,0,0,0,0,0,0,0,0,0,-1,790,1268,0,0
-427,-244,0,0,0,0,0,0,0,0,0,-1,797,1268,0,0
-420,-244,0,0,0,0,0,0,0,0,0,-1,804,1268,0,0
-413,-244,0,0,0,0,0,0,0,0,0,-1,811,1268,0,0
-406,-244,0,0,0,0,0,0,0,0,0,-1,818,1268,0,0
-399,-244,0,0,0,0,0,0,0,0,0,-1,825,1268,0,0
-392,-244,0,0,0,0,0,0,0,0,0,-1,832,1268,0,0
-385,-244,0,0,0,0,0,0,0,0,0,-1,839,1268,0,0
-378,-244,0,0,0,0,0,0,0,0,0,-1,846,1268,0,0
-371,-244,0,0,0,0,0,0,0,0,0,-1,853,1268,0,0
-364,-244,0,0,0,0,0,0,0,0,0,-1,860,1268,0,0
-357,-244,0,0,0,0,0,0,0,0,0,-1,867,1268,0,0
-350,-244,0,0,0,0,0,0,0,0,0,-1,874,1268,0,0
-343,-244,0,0,0,0,0,0,0,0,0,-1,881,1268,0,0
-336,-244,0,0,0,0,0,0,0,0,0,-1,888,1268,0,0
-329,-244,0,0,0,0,0,0,0,0,0,-1,895,1268,0,0
-322,-244,0,0,0,0,0,0,0,0,0,-1,902,1268,0,0
-315,-244,0,0,0,0,0,0,0,0,0,-1,909,1268,0,0
-308,-244,0,0,0,0,0,0,0,0,0,-1,916,1268,0,0
-301,-244,0,0,0,0,0,0,0,0,0,-1,923,1268,0,0
-294,-244,0,0,0,0,0,0,0,0,0,-1,930,1268,0,0
-287,-244,0,0,0,0,0,0,0,0,0,-1,937,1268,0,0
-280,-244,0,0,0,0,0,0,0,0,0,-1,944,1268,0,0
-273,-244,0,0,0,0,0,0,0,0,0,-1,951,1268,0,0
-266,-244,0,0,0,0,0,0,0,0,0,-1,958,1268,0,0
-259,-244,0,0,0,0,0,0,0,0,0,-1,965,1268,0,0
-252,-244,0,0,0,0,0,0,0,0,0,-1,972,1268,0,0
-245,-244,0,0,0,0,0,0,0,0,0,-1,979,1268,0,0
-238,-244,0,0,0,0,0,0,0,0,0,-1,986,1268,0,0
-231,-244,0,0,0,0,0,0,0,0,0,-1,993,1268,0,0
-224,-244,0,0,0,0,0,0,0,0,0,-1,1000,1268,0,0
-217,-244,0,0,0,0,0,0,0,0,0,-1,1007,1268,0,0
-210,-244,0,0,0,0,0,0,0,0,0,-1,1014,1268,0,0
-203,-244,0,0,0,0,0,0,0,0,0,-1,1021,1268,0,0
-196,-244,0,0,0,0,0,0,0,0,0,-1,1028,1268,0,0
-189,-244,0,0,0,0,0,0,0,0,0,-1,1035,1268,0,0
-182,-244,0,0,0,0,0,0,0,0,0,-1,1042,1268,0,0
-175,-244,0,0,0,0,0,0,0,0,0,-1,1049,1268,0,0
-168,-244,0,0,0,0,0,0,0,0,0,-1,1056,1268,0,0
-161,-244,0,0,0,0,0,0,0,0,0,-1,1063,1268,0,0
-154,-244,0,0,0,0,0,0,0,0,0,-1,1070,1268,0,0
-147,-244,0,0,0,0,0,0,0,0,0,-1,1077,1268,0,0
-140,-244,0,0,0,0,0,0,0,0,0,-1,1084,1268,0,0
-133,-244,0,0,0,0,0,0,0,0,0,-1,1091,1268,0,0
-126,-244,0,0,0,0,0,0,0,0,0,-1,1098,1268,0,0
-119,-244,0,0,0,0,0,0,0,0,0,-1,1105,1268,0,0
-112,-244,0,0,0,0,0,0,0,0,0,-1,1112,1268,0,0
-105,-244,0,0,0,0,0,0,0,0,0,-1,1119,1268,0,0
-98,-244,0,0,0,0,0,0,0,0,0,-1,1126,1268,0,0
-91,-244,0,0,0,0,0,0,0,0,0,-1,1133,1268,0,0
-84,-244,0,0,0,0,0,0,0,0,0,-1,1140,1268,0,0
-77,-244,0,0,0,0,0,0,0,0,0,-1,1147,1268,0,0
-70,-244,0,0,0,0,0,0,0,0,0,-1,1154,1268,0,0
-63,-244,0,0,0,0,0,0,0,0,0,-1,1161,1268,0,0
-56,-244,0,0,0,0,0,0,0,0,0,-1,1168,1268,0,0
-49,-244,0,0,0,0,0,0,0,0,0,-1,1175,1268,0,0
-42,-244,0,0,0,0,0,0,0,0,0,-1,1182,1268,0,0
-35,-244,0,0,0,0,0,0,0,0,0,-1,1189,1268,0,0
-28,-244,0,0,0,0,0,0,0,0,0,-1,1196,1268,0,0
-21,-244,0,0,0,0,0,0,0,0,0,-1,1203,1268,0,0
-14,-244,0,0,0,0,0,0,0,0,0,-1,1210,1268,0,0
-7,-244,0,0,0,0,0,0,0,0,0,-1,1217,1268,0,0
0,-244,0,0,0,0,0,0,0,0,0,-1,1224,1268,0,0
7,-244,0,0,0,0,0,0,0,0,0,-1,1231,1268,0,0
14,-244,0,0,0,0,0,0,0,0,0,-1,1238,1268,0,0
21,-244,0,0,0,0,0,0,0,0,0,-1,1245,1268,0,0
28,-244,0,0,0,0,0,0,0,0,0,-1,1252,1268,0,0
35,-244,0,0,0,0,0,0,0,0,0,-1,1259,1268,0,0
42,-244,0,0,0,0,0,0,0,0,0,-1,1266,1268,0,0
49,-244,0,0,0,0,0,0,0,0,0,-1,1273,1268,0,0
56,-244,0,0,0,0,0,0,0,0,0,-1,1280,1268,0,0
63,-244,0,0,0,0,0,0,0,0,0,-1,1287,1268,0,0
70,-244,0,0,0,0,0,0,0,0,0,-1,1294,1268,0,0
77,-244,0,0,0,0,0,0,0,0,0,-1,1301,1268,0,0
84,-244,0,0,0,0,0,0,0,0,0,-1,1308,1268,0,0
91,-244,0,0,0,0,0,0,0,0,0,-1,1315,1268,0,0
98,-244,0,0,0,0,0,0,0,0,0,-1,1322,1268,0,0
105,-244,0,0,0,0,0,0,0,0,0,-1,1329,1268,0,0
112,-244,0,0,0,0,0,0,0,0,0,-1,1336,1268,0,0
119,-244,0,0,0,0,0,0,0,0,0,-1,1343,1268,0,0
126,-244,0,0,0,0,0,0,0,0,0,-1,1350,1268,0,0
133,-244,0,0,0,0,0,0,0,0,0,-1,1357,1268,0,0
140,-244,0,0,0,0,0,0,0,0,0,-1,1364,1268,0,0
147,-244,0,0,0,0,0,0,0,0,0,-1,1371,1268,0,0
154,-244,0,0,0,0,0,0,0,0,0,-1,1378,1268,0,0
161,-244,0,0,0,0,0,0,0,0,0,-1,1385,1268,0,0
168,-244,0,0,0,0,0,0,0,0,0,-1,1392,1268,0,0
175,-244,0,0,0,0,0,0,0,0,0,-1,1399,1268,0,0
182,-244,0,0,0,0,0,0,0,0,0,-1,1406,1268,0,0
189,-244,0,0,0,0,0,0,0,0,0,-1,1413,1268,0,0
196,-244,0,0,0,0,0,0,0,0,0,-1,1420,1268,0,0
203,-244,0,0,0,0,0,0,0,0,0,-1,1427,1268,0,0
210,-244,0,0,0,0,0,0,0,0,0,-1,1434,1268,0,0
217,-244,0,0,0,0,0,0,0,0,0,-1,1441,1268,0,0
224,-244,0,0,0,0,0,0,0,0,0,-1,1448,1268,0,0
231,-244,0,0,0,0,0,0,0,0,0,-1,1455,1268,0,0
238,-244,0,0,0,0,0,0,0,0,0,-1,1462,1268,0,0
245,-244,0,0,0,0,0,0,0,0,0,-1,1469,1268,0,0
252,-244,0,0,0,0,0,0,0,0,0,-1,1476,1268,0,0
259,-244,0,0,0,0,0,0,0,0,0,-1,1483,1268,0,0
266,-244,0,0,0,0,0,0,0,0,0,-1,1490,1268,0,0
273,-244,0,0,0,0,0,0,0,0,0,-1,1497,1268,0,0
280,-244,0,0,0,0,0,0,0,0,0,-1,1504,1268,0,0
287,-244,0,0,0,0,0,0,0,0,0,-1,1511,1268,0,0
294,-244,0,0,0,0,0,0,0,0,0,-1,1518,1268,0,0
301,-244,0,0,0,0,0,0,0,0,0,-1,1525,1268,0,0
308,-244,0,0,0,0,0,0,0,0,0,-1,1532,1268,0,0
315,-244,0,0,0,0,0,0,0,0,0,-1,1539,1268,0,0
322,-244,0,0,0,0,0,0,0,0,0,-1,1546,1268,0,0
329,-244,0,0,0,0,0,0,0,0,0,-1,1553,1268,0,0
336,-244,0,0,0,0,0,0,0,0,0,-1,1560,1268,0,0
343,-244,0,0,0,0,0,0,0,0,0,-1,1567,1268,0,0
350,-244,0,0,0,0,0,0,0,0,0,-1,1574,1268,0,0
357,-244,0,0,0,0,0,0,0,0,0,-1,1581,1268,0,0
364,-244,0,0,0,0,0,0,0,0,0,-1,1588,1268,0,0
371,-244,0,0,0,0,0,0,0,0,0,-1,1595,1268,0,0
378,-244,0,0,0,0,0,0,0,0,0,-1,1602,1268,0,0
385,-244,0,0,0,0,0,0,0,0,0,-1,1609,1268,0,0
392,-244,0,0,0,0,0,0,0,0,0,-1,1616,1268,0,0
399,-244,0,0,0,0,0,0,0,0,0,-1,1623,1268,0,0
406,-244,0,0,0,0,0,0,0,0,0,-1,1630,1268,0,0
413,-244,0,0,0,0,0,0,0,0,0,-1,1637,1268,0,0
420,-244,0,0,0,0,0,0,0,0,0,-1,1644,1268,0,0
427,-244,0,0,0,0,0,0,0,0,0,-1,1651,1268,0,0
434,-244,0,0,0,0,0,0,0,0,0,-1,1658,1268,0,0
441,-244,0,0,0,0,0,0,0,0,0,-1,1665,1268,0,0
448,-244,0,0,0,0,0,0,0,0,0,-1,1672,1268,0,0
455,-244,0,0,0,0,0,0,0,0,0,-1,1679,1268,0,0
462,-244,0,0,0,0,0,0,0,0,0,-1,1686,1268,0,0
469,-244,0,0,0,0,0,0,0,0,0,-1,1693,1268,0,0
476,-244,0,0,0,0,0,0,0,0,0,-1,1700,1268,0,0
483,-244,0,0,0,0,0,0,0,0,0,-1,1707,1268,0,0
490,-244,0,0,0,0,0,0,0,0,0,-1,1714,1268,0,0
497,-244,0,0,0,0,0,0,0,0,0,-1,1721,1268,0,0
504,-244,0,0,0,0,0,0,0,0,0,-1,1728,1268,0,0
511,-244,0,0,0,0,0,0,0,0,0,-1,1735,1268,0,0
518,-244,0,0,0,0,0,0,0,0,0,-1,1742,1268,0,0
525,-244,0,0,0,0,0,0,0,0,0,-1,1749,1268,0,0
532,-244,0,0,0,0,0,0,0,0,0,-1,1756,1268,0,0
539,-244,0,0,0,0,0,0,0,0,0,-1,1763,1268,0,0
546,-244,0,0,0,0,0,0,0,0,0,-1,1770,1268,0,0
553,-244,0,0,0,0,0,0,0,0,0,-1,1777,1268,0,0
560,-244,0,0,0,0,0,0,0,0,0,-1,1784,1268,0,0
567,-244,0,0,0,0,0,0,0,0,0,-1,1791,1268,0,0
574,-244,0,0,0,0,0,0,0,0,0,-1,1798,1268,0,0
581,-244,0,0,0,0,0,0,0,0,0,-1,1805,1268,0,0
588,-244,0,0,0,0,0,0,0,0,0,-1,1812,1268,0,0
595,-244,0,0,0,0,0,0,0,0,0,-1,1819,1268,0,0
602,-244,0,0,0,0,0,0,0,0,0,-1,1826,1268,0,0
609,-244,0,0,0,0,0,0,0,0,0,-1,1833,1268,0,0
616,-244,46.532,2.64136,0.00457122,0.00139902,0.00391171,0.00720616,-0.00123592,0.592789,0.00526466,0.0345822,1840,1268,46.532,-2.6413
623,-244,46.5271,2.68262,-0.00135996,0.00447873,0.00191147,0.00504884,-0.00193007,1.28094,0.00416123,0.0299439,1847,1268,46.5272,-2.68257
630,-244,46.4935,2.7561,-0.00603592,0.00700127,-0.000171011,0.00700351,-0.00603816,-1.55768,0.00753649,0.0285173,1854,1268,46.4935,-2.75606
637,-244,46.4467,2.71509,-0.00718887,0.00750594,-0.00141493,0.00764094,-0.00732387,-1.47567,0.00864058,0.0444721,1861,1268,46.4466,-2.71503
644,-244,46.3409,2.56689,0,0,0,0,0,0,0,-1,1868,1268,46.341,-2.56685
651,-244,45.4495,2.85559,0,0,0,0,0,0,0,-1,1875,1268,45.4495,-2.85561
658,-244,45.3628,3.20337,0,0,0,0,0,0,0,-1,1882,1268,45.3628,-3.20342
665,-244,45.4065,2.51697,0,0,0,0,0,0,0,-1,1889,1268,45.4065,-2.51693
672,-244,32.224,3.6123,0,0,0,0,0,0,0,-1,1896,1268,32.224,-3.6123
679,-244,27.2593,7.90649,0,0,0,0,0,0,0,-1,1903,1268,27.2592,-7.9065
686,-244,35.3951,10,0,0,0,0,0,0,0,-1,1910,1268,35.3952,-10
693,-244,35.3728,9.46289,0.000879112,0.000423777,-0.00108064,0.00175581,-0.000452916,-0.681577,0.00134713,0.0256087,1917,1268,35.3728,-9.46293
700,-244,35.3926,8.9364,0.00199185,-0.00122237,-0.000459551,0.00205626,-0.00128678,-0.139258,0.00194707,0.00924771,1924,1268,35.3925,-8.93645
707,-244,35.4126,8.51282,0.00121188,-0.00143884,-7.99593e-05,0.00121429,-0.00144125,-0.0301286,0.00153504,0.0106397,1931,1268,35.4127,-8.51277
714,-244,35.4342,8.0686,0.000475497,-0.00134294,0.000400322,0.000559725,-0.00142717,0.207375,0.00118302,0.0141653,1938,1268,35.4342,-8.06864
721,-244,35.3621,7.66724,1.52524e-05,-0.00136042,0.00080451,0.000385883,-0.00173106,0.43171,0.00130187,0.0186873,1945,1268,35.3621,-7.66719
728,-244,35.3514,7.20288,-3.42077e-05,-0.001466,0.000921555,0.000416846,-0.00191705,0.45517,0.00143728,0.0234696,1952,1268,35.3514,-7.20293
735,-244,35.3348,6.68579,0.000171198,-0.00180093,0.000926053,0.000537871,-0.0021676,0.377012,0.00165378,0.025182,1959,1268,35.3348,-6.68574
742,-244,35.3038,6.37756,0.000668562,-0.00242854,0.000830897,0.000877396,-0.00263737,0.246235,0.00211235,0.0159499,1966,1268,35.3039,-6.37761
749,-244,35.198,6.04993,0.00158334,-0.00353334,0.000684948,0.00167344,-0.00362345,0.130798,0.00312648,0.0237344,1973,1268,35.198,-6.04987
756,-244,35.0842,5.72839,0.00326585,-0.005136,5.01494e-05,0.00326615,-0.0051363,0.00596858,0.00489104,0.0323476,1980,1268,35.0843,-5.72838
763,-244,35.2484,5.17322,0.00596223,-0.00774319,-0.000984139,0.00603253,-0.00781349,-0.071319,0.00801602,0.0435114,1987,1268,35.2484,-5.17324
770,-244,35.3475,4.18811,0,0,0,0,0,0,0,-1,1994,1268,35.3475,-4.18813
777,-244,34.8073,2.93054,0,0,0,0,0,0,0,-1,2001,1268,34.8073,-2.93058
784,-244,31.7908,5.20081,0,0,0,0,0,0,0,-1,2008,1268,31.7907,-5.20083
791,-244,0,0,0,0,0,0,0,0,0,-1,2015,1268,0,0
798,-244,0,0,0,0,0,0,0,0,0,-1,2022,1268,0,0
805,-244,0,0,0,0,0,0,0,0,0,-1,2029,1268,0,0
812,-244,0,0,0,0,0,0,0,0,0,-1,2036,1268,0,0
-700,-251,0,0,0,0,0,0,0,0,0,-1,524,1275,0,0
-693,-251,0,0,0,0,0,0,0,0,0,-1,531,1275,0,0
-686,-251,0,0,0,0,0,0,0,0,0,-1,538,1275,0,0
-679,-251,0,0,0,0,0,0,0,0,0,-1,545,1275,0,0
-672,-251,0,0,0,0,0,0,0,0,0,-1,552,1275,0,0
-665,-251,-20.993,4.27515,0,0,0,0,0,0,0,-1,559,1275,-20.993,-4.2752
-658,-251,-23.7194,2.79553,0,0,0,0,0,0,0,-1,566,1275,-23.7194,-2.79554
-651,-251,-20.6763,-0.483032,0,0,0,0,0,0,0,-1,573,1275,-20.6763,0.483012
-644,-251,-20.5963,0.301636,0,0,0,0,0,0,0,-1,580,1275,-20.5963,-0.30168
-637,-251,-21.3829,1.58545,0,0,0,0,0,0,0,-1,587,1275,-21.3829,-1.58549
-630,-251,-22.4614,2.37122,0,0,0,0,0,0,0,-1,594,1275,-22.4614,-2.37119
-623,-251,-22.1965,2.89832,0.026028,0.0160564,0.00561493,0.0285512,0.0135332,0.422339,0.0164915,0.040216,601,1275,-22.1965,-2.89833
-616,-251,-21.8855,3.39026,0.0177407,0.0112365,0.00425704,0.0198457,0.00913149,0.459217,0.0114701,0.0203746,608,1275,-21.8855,-3.39024
-609,-251,-21.945,3.85168,0.0121145,0.00788836,0.00328752,0.0139094,0.00609337,0.499767,0.00805113,0.0188339,615,1275,-21.945,-3.85171
-602,-251,-21.9623,4.34302,0.00839022,0.00516389,0.00244781,0.00970862,0.00384549,0.494051,0.00564548,0.0141619,622,1275,-21.9623,-4.34306
-595,-251,-21.9816,4.8136,0.00600134,0.0029334,0.00169665,0.00675465,0.00218008,0.417856,0.00398064,0.0130856,629,1275,-21.9816,-4.81356
-588,-251,-21.9969,5.28308,0.00461018,0.00147823,0.00121985,0.00502923,0.00105918,0.330893,0.00306145,0.0165723,636,1275,-21.9969,-5.28307
-581,-251,-22.0016,5.78931,0.00385362,0.000651852,0.00100274,0.00414174,0.000363738,0.27979,0.00264825,0.0156412,643,1275,-22.0016,-5.78926
-574,-251,-22.0039,6.31396,0.00328277,0.000567649,0.000995091,0.00360841,0.000242006,0.316266,0.00232913,0.0130331,650,1275,-22.0039,-6.31395
-567,-251,-22.019,6.78162,0.00319889,0.00134159,0.000990475,0.00362797,0.000912508,0.408801,0.00217912,0.0129396,657,1275,-22.019,-6.78168
-560,-251,-21.9483,7.35352,0.00299208,0.00209618,0.00100552,0.00364491,0.00144335,0.575849,0.00211951,0.0342652,664,1275,-21.9483,-7.3535
-553,-251,-21.7887,7.85925,0,0,0,0,0,0,0,-1,671,1275,-21.7887,-7.85931
-546,-251,-12.995,4.5675,0,0,0,0,0,0,0,-1,678,1275,-12.995,-4.56745
-539,-251,-10.7916,0.366333,0,0,0,0,0,0,0,-1,685,1275,-10.7916,-0.366282
-532,-251,-10.7391,-0.00769043,0,0,0,0,0,0,0,-1,692,1275,-10.7391,0.00773227
-525,-251,-29.4286,-0.250244,0,0,0,0,0,0,0,-1,699,1275,-29.4286,0.250266
-518,-251,-32.6981,0.678833,0,0,0,0,0,0,0,-1,706,1275,-32.6981,-0.678787
-511,-251,-29.4731,0.637085,0,0,0,0,0,0,0,-1,713,1275,-29.4731,-0.637025
-504,-251,-30.6428,0.792358,0,0,0,0,0,0,0,-1,720,1275,-30.6427,-0.792335
-497,-251,-34.4248,1.11841,0,0,0,0,0,0,0,-1,727,1275,-34.4248,-1.11835
-490,-251,0,0,0,0,0,0,0,0,0,-1,734,1275,0,0
-483,-251,0,0,0,0,0,0,0,0,0,-1,741,1275,0,0
-476,-251,0,0,0,0,0,0,0,0,0,-1,748,1275,0,0
-469,-251,0,0,0,0,0,0,0,0,0,-1,755,1275,0,0
-462,-251,0,0,0,0,0,0,0,0,0,-1,762,1275,0,0
-455,-251,0,0,0,0,0,0,0,0,0,-1,769,1275,0,0
-448,-251,0,0,0,0,0,0,0,0,0,-1,776,1275,0,0
-441,-251,0,0,0,0,0,0,0,0,0,-1,783,1275,0,0
-434,-251,0,0,0,0,0,0,0,0,0,-1,790,1275,0,0
-427,-251,0,0,0,0,0,0,0,0,0,-1,797,1275,0,0
-420,-251,0,0,0,0,0,0,0,0,0,-1,804,1275,0,0
-413,-251,0,0,0,0,0,0,0,0,0,-1,811,1275,0,0
-406,-251,0,0,0,0,0,0,0,0,0,-1,818,1275,0,0
-399,-251,0,0,0,0,0,0,0,0,0,-1,825,1275,0,0
-392,-251,0,0,0,0,0,0,0,0,0,-1,832,1275,0,0
-385,-251,0,0,0,0,0,0,0,0,0,-1,839,1275,0,0
-378,-251,0,0,0,0,0,0,0,0,0,-1,846,1275,0,0
-371,-251,0,0,0,0,0,0,0,0,0,-1,853,1275,0,0
-364,-251,0,0,0,0,0,0,0,0,0,-1,860,1275,0,0
-357,-251,0,0,0,0,0,0,0,0,0,-1,867,1275,0,0
-350,-251,0,0,0,0,0,0,0,0,0,-1,874,1275,0,0
-343,-251,0,0,0,0,0,0,0,0,0,-1,881,1275,0,0
-336,-251,0,0,0,0,0,0,0,0,0,-1,888,1275,0,0
-329,-251,0,0,0,0,0,0,0,0,0,-1,895,1275,0,0
-322,-251,0,0,0,0,0,0,0,0,0,-1,902,1275,0,0
-315,-251,0,0,0,0,0,0,0,0,0,-1,909,1275,0,0
-308,-251,0,0,0,0,0,0,0,0,0,-1,916,1275,0,0
-301,-251,0,0,0,0,0,0,0,0,0,-1,923,1275,0,0
-294,-251,0,0,0,0,0,0,0,0,0,-1,930,1275,0,0
-287,-251,0,0,0,0,0,0,0,0,0,-1,937,1275,0,0
-280,-251,0,0,0,0,0,0,0,0,0,-1,944,1275,0,0
-273,-251,0,0,0,0,0,0,0,0,0,-1,951,1275,0,0
-266,-251,0,0,0,0,0,0,0,0,0,-1,958,1275,0,0
-259,-251,0,0,0,0,0,0,0,0,0,-1,965,1275,0,0
-252,-251,0,0,0,0,0,0,0,0,0,-1,972,1275,0,0
-245,-251,0,0,0,0,0,0,0,0,0,-1,979,1275,0,0
-238,-251,0,0,0,0,0,0,0,0,0,-1,986,1275,0,0
-231,-251,0,0,0,0,0,0,0,0,0,-1,993,1275,0,0
-224,-251,0,0,0,0,0,0,0,0,0,-1,1000,1275,0,0
-217,-251,0,0,0,0,0,0,0,0,0,-1,1007,1275,0,0
-210,-251,0,0,0,0,0,0,0,0,0,-1,1014,1275,0,0
-203,-251,0,0,0,0,0,0,0,0,0,-1,1021,1275,0,0
-196,-251,0,0,0,0,0,0,0,0,0,-1,1028,1275,0,0
-189,-251,0,0,0,0,0,0,0,0,0,-1,1035,1275,0,0
-182,-251,0,0,0,0,0,0,0,0,0,-1,1042,1275,0,0
-175,-251,0,0,0,0,0,0,0,0,0,-1,1049,1275,0,0
-168,-251,0,0,0,0,0,0,0,0,0,-1,1056,1275,0,0
-161,-251,0,0,0,0,0,0,0,0,0,-1,1063,1275,0,0
-154,-251,0,0,0,0,0,0,0,0,0,-1,1070,1275,0,0
-147,-251,0,0,0,0,0,0,0,0,0,-1,1077,1275,0,0
-140,-251,0,0,0,0,0,0,0,0,0,-1,1084,1275,0,0
-133,-251,0,0,0,0,0,0,0,0,0,-1,1091,1275,0,0
-126,-251,0,0,0,0,0,0,0,0,0,-1,1098,1275,0,0
-119,-251,0,0,0,0,0,0,0,0,0,-1,1105,1275,0,0
-112,-251,0,0,0,0,0,0,0,0,0,-1,1112,1275,0,0
-105,-251,0,0,0,0,0,0,0,0,0,-1,1119,1275,0,0
-98,-251,0,0,0,0,0,0,0,0,0,-1,1126,1275,0,0
-91,-251,0,0,0,0,0,0,0,0,0,-1,1133,1275,0,0
-84,-251,0,0,0,0,0,0,0,0,0,-1,1140,1275,0,0
-77,-251,0,0,0,0,0,0,0,0,0,-1,1147,1275,0,0
-70,-251,0,0,0,0,0,0,0,0,0,-1,1154,1275,0,0
-63,-251,0,0,0,0,0,0,0,0,0,-1,1161,1275,0,0
-56,-251,0,0,0,0,0,0,0,0,0,-1,1168,1275,0,0
-49,-251,0,0,0,0,0,0,0,0,0,-1,1175,1275,0,0
-42,-251,0,0,0,0,0,0,0,0,0,-1,1182,1275,0,0
-35,-251,0,0,0,0,0,0,0,0,0,-1,1189,1275,0,0
-28,-251,0,0,0,0,0,0,0,0,0,-1,1196,1275,0,0
-21,-251,0,0,0,0,0,0,0,0,0,-1,1203,1275,0,0
-14,-251,0,0,0,0,0,0,0,0,0,-1,1210,1275,0,0
-7,-251,0,0,0,0,0,0,0,0,0,-1,1217,1275,0,0
0,-251,0,0,0,0,0,0,0,0,0,-1,1224,1275,0,0
7,-251,0,0,0,0,0,0,0,0,0,-1,1231,1275,0,0
14,-251,0,0,0,0,0,0,0,0,0,-1,1238,1275,0,0
21,-251,0,0,0,0,0,0,0,0,0,-1,1245,1275,0,0
28,-251,0,0,0,0,0,0,0,0,0,-1,1252,1275,0,0
35,-251,0,0,0,0,0,0,0,0,0,-1,1259,1275,0,0
42,-251,0,0,0,0,0,0,0,0,0,-1,1266,1275,0,0
49,-251,0,0,0,0,0,0,0,0,0,-1,1273,1275,0,0
56,-251,0,0,0,0,0,0,0,0,0,-1,1280,1275,0,0
63,-251,0,0,0,0,0,0,0,0,0,-1,1287,1275,0,0
70,-251,0,0,0,0,0,0,0,0,0,-1,1294,1275,0,0
77,-251,0,0,0,0,0,0,0,0,0,-1,1301,1275,0,0
84,-251,0,0,0,0,0,0,0,0,0,-1,1308,1275,0,0
91,-251,0,0,0,0,0,0,0,0,0,-1,1315,1275,0,0
98,-251,0,0,0,0,0,0,0,0,0,-1,1322,1275,0,0
105,-251,0,0,0,0,0,0,0,0,0,-1,1329,1275,0,0
112,-251,0,0,0,0,0,0,0,0,0,-1,1336,1275,0,0
119,-251,0,0,0,0,0,0,0,0,0,-1,1343,1275,0,0
126,-251,0,0,0,0,0,0,0,0,0,-1,1350,1275,0,0
133,-251,0,0,0,0,0,0,0,0,0,-1,1357,1275,0,0
140,-251,0,0,0,0,0,0,0,0,0,-1,1364,1275,0,0
147,-251,0,0,0,0,0,0,0,0,0,-1,1371,1275,0,0
154,-251,0,0,0,0,0,0,0,0,0,-1,1378,1275,0,0
161,-251,0,0,0,0,0,0,0,0,0,-1,1385,1275,0,0
168,-251,0,0,0,0,0,0,0,0,0,-1,1392,1275,0,0
175,-251,0,0,0,0,0,0,0,0,0,-1,1399,1275,0,0
182,-251,0,0,0,0,0,0,0,0,0,-1,1406,1275,0,0
189,-251,0,0,0,0,0,0,0,0,0,-1,1413,1275,0,0
196,-251,0,0,0,0,0,0,0,0,0,-1,1420,1275,0,0
203,-251,0,0,0,0,0,0,0,0,0,-1,1427,1275,0,0
210,-251,0,0,0,0,0,0,0,0,0,-1,1434,1275,0,0
217,-251,0,0,0,0,0,0,0,0,0,-1,1441,1275,0,0
224,-251,0,0,0,0,0,0,0,0,0,-1,1448,1275,0,0
231,-251,0,0,0,0,0,0,0,0,0,-1,1455,1275,0,0
238,-251,0,0,0,0,0,0,0,0,0,-1,1462,1275,0,0
245,-251,0,0,0,0,0,0,0,0,0,-1,1469,1275,0,0
252,-251,0,0,0,0,0,0,0,0,0,-1,1476,1275,0,0
259,-251,0,0,0,0,0,0,0,0,0,-1,1483,1275,0,0
266,-251,0,0,0,0,0,0,0,0,0,-1,1490,1275,0,0
273,-251,0,0,0,0,0,0,0,0,0,-1,1497,1275,0,0
280,-251,0,0,0,0,0,0,0,0,0,-1,1504,1275,0,0
287,-251,0,0,0,0,0,0,0,0,0,-1,1511,1275,0,0
294,-251,0,0,0,0,0,0,0,0,0,-1,1518,1275,0,0
301,-251,0,0,0,0,0,0,0,0,0,-1,1525,1275,0,0
308,-251,0,0,0,0,0,0,0,0,0,-1,1532,1275,0,0
315,-251,0,0,0,0,0,0,0,0,0,-1,1539,1275,0,0
322,-251,0,0,0,0,0,0,0,0,0,-1,1546,1275,0,0
329,-251,0,0,0,0,0,0,0,0,0,-1,1553,1275,0,0
336,-251,0,0,0,0,0,0,0,0,0,-1,1560,1275,0,0
343,-251,0,0,0,0,0,0,0,0,0,-1,1567,1275,0,0
350,-251,0,0,0,0,0,0,0,0,0,-1,1574,1275,0,0
357,-251,0,0,0,0,0,0,0,0,0,-1,1581,1275,0,0
364,-251,0,0,0,0,0,0,0,0,0,-1,1588,1275,0,0
371,-251,0,0,0,0,0,0,0,0,0,-1,1595,1275,0,0
378,-251,0,0,0,0,0,0,0,0,0,-1,1602,1275,0,0
385,-251,0,0,0,0,0,0,0,0,0,-1,1609,1275,0,0
392,-251,0,0,0,0,0,0,0,0,0,-1,1616,1275,0,0
399,-251,0,0,0,0,0,0,0,0,0,-1,1623,1275,0,0
406,-251,0,0,0,0,0,0,0,0,0,-1,1630,1275,0,0
413,-251,0,0,0,0,0,0,0,0,0,-1,1637,1275,0,0
420,-251,0,0,0,0,0,0,0,0,0,-1,1644,1275,0,0
427,-251,0,0,0,0,0,0,0,0,0,-1,1651,1275,0,0
434,-251,0,0,0,0,0,0,0,0,0,-1,1658,1275,0,0
441,-251,0,0,0,0,0,0,0,0,0,-1,1665,1275,0,0
448,-251,0,0,0,0,0,0,0,0,0,-1,1672,1275,0,0
455,-251,0,0,0,0,0,0,0,0,0,-1,1679,1275,0,0
462,-251,0,0,0,0,0,0,0,0,0,-1,1686,1275,0,0
469,-251,0,0,0,0,0,0,0,0,0,-1,1693,1275,0,0
476,-251,0,0,0,0,0,0,0,0,0,-1,1700,1275,0,0
483,-251,0,0,0,0,0,0,0,0,0,-1,1707,1275,0,0
490,-251,0,0,0,0,0,0,0,0,0,-1,1714,1275,0,0
497,-251,0,0,0,0,0,0,0,0,0,-1,1721,1275,0,0
504,-251,0,0,0,0,0,0,0,0,0,-1,1728,1275,0,0
511,-251,0,0,0,0,0,0,0,0,0,-1,1735,1275,0,0
518,-251,0,0,0,0,0,0,0,0,0,-1,1742,1275,0,0
525,-251,0,0,0,0,0,0,0,0,0,-1,1749,1275,0,0
532,-251,0,0,0,0,0,0,0,0,0,-1,1756,1275,0,0
539,-251,0,0,0,0,0,0,0,0,0,-1,1763,1275,0,0
546,-251,0,0,0,0,0,0,0,0,0,-1,1770,1275,0,0
553,-251,0,0,0,0,0,0,0,0,0,-1,1777,1275,0,0
560,-251,0,0,0,0,0,0,0,0,0,-1,1784,1275,0,0
567,-251,0,0,0,0,0,0,0,0,0,-1,1791,1275,0,0
574,-251,0,0,0,0,0,0,0,0,0,-1,1798,1275,0,0
581,-251,0,0,0,0,0,0,0,0,0,-1,1805,1275,0,0
588,-251,0,0,0,0,0,0,0,0,0,-1,1812,1275,0,0
595,-251,0,0,0,0,0,0,0,0,0,-1,1819,1275,0,0
602,-251,0,0,0,0,0,0,0,0,0,-1,1826,1275,0,0
609,-251,46.4714,2.6814,0.0097959,0.00111332,0.00526291,0.012277,-0.00136777,0.440533,0.0086766,0.0304561,1833,1275,46.4714,-2.68134
616,-251,46.4915,2.69409,0.0031057,0.00450616,0.00426483,0.00812786,-0.000516001,0.866766,0.00559851,0.0275379,1840,1275,46.4915,-2.69413
623,-251,46.4652,2.73682,-0.00262941,0.00746129,0.00266312,0.00812101,-0.00328912,1.32796,0.00678168,0.0254479,1847,1275,46.4652,-2.73677
630,-251,46.4696,2.71777,-0.00662979,0.00909935,0.000963832,0.0091582,-0.00668863,1.50982,0.00918613,0.0391895,1854,1275,46.4696,-2.71778
637,-251,46.5905,2.68457,-0.00694386,0.00830799,-4.3663e-05,0.00830812,-0.00694399,-1.56793,0.00881754,0.0435942,1861,1275,46.5904,-2.68454
644,-251,46.2314,2.38562,-0.00567036,0.00654226,-6.32413e-05,0.00654259,-0.00567069,-1.56562,0.00705733,0.0453795,1868,1275,46.2315,-2.38566
651,-251,46.1387,2.23181,0,0,0,0,0,0,0,-1,1875,1275,46.1387,-2.23183
658,-251,45.1494,3.24536,0,0,0,0,0,0,0,-1,1882,1275,45.1494,-3.24541
665,-251,32.9579,2.60229,0,0,0,0,0,0,0,-1,1889,1275,32.9579,-2.60231
672,-251,26.0721,4.53064,0,0,0,0,0,0,0,-1,1896,1275,26.0721,-4.53063
679,-251,29.1344,8.63782,0,0,0,0,0,0,0,-1,1903,1275,29.1344,-8.63778
686,-251,35.0244,9.89893,0,0,0,0,0,0,0,-1,1910,1275,35.0245,-9.8989
693,-251,34.9885,9.44775,0.00061994,0.000271875,-0.000734972,0.0012012,-0.000309388,-0.669146,0.000921411,0.0140301,1917,1275,34.9885,-9.44775
700,-251,34.9708,8.98193,0.00177135,-0.00127876,-9.84964e-05,0.00177453,-0.00128194,-0.0322479,0.00177228,0.00939079,1924,1275,34.9708,-8.98198
707,-251,34.9956,8.52478,0.000974161,-0.0013279,0.000210434,0.000993239,-0.00134697,0.0904129,0.00135626,0.0120861,1931,1275,34.9957,-8.52483
714,-251,35.0005,8.07751,0.000327553,-0.00117989,0.00053962,0.000500808,-0.00135314,0.310672,0.00110744,0.014589,1938,1275,35.0004,-8.0775
721,-251,34.9073,7.66821,-3.74977e-05,-0.00117395,0.000788578,0.000366252,-0.0015777,0.473199,0.00119278,0.0194151,1945,1275,34.9073,-7.66826
728,-251,34.8917,7.26892,-6.15099e-05,-0.00132024,0.00082361,0.000345674,-0.00172743,0.459148,0.00128247,0.0222519,1952,1275,34.8918,-7.26887
735,-251,34.8984,6.75073,0.000170621,-0.00173252,0.00076223,0.000438263,-0.00200016,0.337682,0.00150101,0.0188537,1959,1275,34.8984,-6.75074
742,-251,34.8444,6.39771,0.000727131,-0.0024655,0.000572859,0.000826808,-0.00256517,0.172275,0.00204229,0.0177714,1966,1275,34.8444,-6.39771
749,-251,34.6587,6.14868,0.00177546,-0.00376419,0.000285665,0.00179015,-0.00377888,0.0513857,0.00328291,0.0349028,1973,1275,34.6587,-6.14863
756,-251,34.865,6.02954,0.00371788,-0.00564641,-0.000620649,0.00375884,-0.00568737,-0.0658941,0.00549153,0.0496525,1980,1275,34.865,-6.02959
763,-251,35.1381,5.5387,0.00688941,-0.00871823,-0.00208955,0.00716431,-0.00899314,-0.130811,0.00934841,0.047864,1987,1275,35.138,-5.53864
770,-251,35.9182,4.84326,0,0,0,0,0,0,0,-1,1994,1275,35.9183,-4.84329
777,-251,31.5731,4.33252,0,0,0,0,0,0,0,-1,2001,1275,31.5731,-4.33251
784,-251,32.0776,5.78247,0,0,0,0,0,0,0,-1,2008,1275,32.0776,-5.78247
791,-251,0,0,0,0,0,0,0,0,0,-1,2015,1275,0,0
798,-251,0,0,0,0,0,0,0,0,0,-1,2022,1275,0,0
805,-251,0,0,0,0,0,0,0,0,0,-1,2029,1275,0,0
812,-251,0,0,0,0,0,0,0,0,0,-1,2036,1275,0,0
-700,-258,0,0,0,0,0,0,0,0,0,-1,524,1282,0,0
-693,-258,0,0,0,0,0,0,0,0,0,-1,531,1282,0,0
-686,-258,0,0,0,0,0,0,0,0,0,-1,538,1282,0,0
-679,-258,0,0,0,0,0,0,0,0,0,-1,545,1282,0,0
-672,-258,0,0,0,0,0,0,0,0,0,-1,552,1282,0,0
-665,-258,-20.7346,4.88318,0,0,0,0,0,0,0,-1,559,1282,-20.7345,-4.88316
-658,-258,-21.545,6.01331,0,0,0,0,0,0,0,-1,566,1282,-21.545,-6.01331
-651,-258,-21.2513,-0.901245,0,0,0,0,0,0,0,-1,573,1282,-21.2513,0.901221
-644,-258,-20.8941,-0.0340576,0,0,0,0,0,0,0,-1,580,1282,-20.8941,0.0340716
-637,-258,-20.7496,0.923828,0,0,0,0,0,0,0,-1,587,1282,-20.7496,-0.92382
-630,-258,-21.0684,2.14075,0,0,0,0,0,0,0,-1,594,1282,-21.0684,-2.14074
-623,-258,-21.8214,2.82837,0,0,0,0,0,0,0,-1,601,1282,-21.8214,-2.82838
-616,-258,-21.3812,3.34912,0.0175837,0.0124664,0.00558148,0.021165,0.00888504,0.570483,0.0122719,0.0342435,608,1282,-21.3812,-3.34906
-609,-258,-21.4015,3.87732,0.0120724,0.00865069,0.00398843,0.0147014,0.00602165,0.582792,0.00853399,0.0168269,615,1282,-21.4015,-3.87728
-602,-258,-21.463,4.35645,0.00841557,0.00573038,0.00287014,0.0102416,0.00390434,0.566627,0.00596835,0.013563,622,1282,-21.463,-4.35646
-595,-258,-21.4835,4.83984,0.00593352,0.00343388,0.00203439,0.00707133,0.00229607,0.509947,0.00416543,0.0112853,629,1282,-21.4835,-4.83979
-588,-258,-21.4998,5.32117,0.0044222,0.00174478,0.00144784,0.00505539,0.00111159,0.41227,0.00306761,0.0124772,636,1282,-21.4998,-5.3212
-581,-258,-21.506,5.80798,0.00360956,0.000610138,0.00111437,0.00397826,0.000241438,0.319522,0.00257547,0.0147688,643,1282,-21.506,-5.80801
-574,-258,-21.4871,6.30237,0.00313939,5.16651e-05,0.000952477,0.00340956,-0.000218507,0.276393,0.00234927,0.0145313,650,1282,-21.4871,-6.30232
-567,-258,-21.5365,6.78125,0.00337089,0.00026639,0.000876385,0.00360121,3.60779e-05,0.256988,0.00238887,0.0138362,657,1282,-21.5365,-6.78131
-560,-258,-21.5136,7.26501,0.00348695,0.000796936,0.00086229,0.00373963,0.000544261,0.285048,0.00233293,0.0365403,664,1282,-21.5136,-7.26496
-553,-258,-21.407,7.76221,0,0,0,0,0,0,0,-1,671,1282,-21.407,-7.76224
-546,-258,-14.2231,5.92029,0,0,0,0,0,0,0,-1,678,1282,-14.2231,-5.92028
-539,-258,-10.2228,4.05823,0,0,0,0,0,0,0,-1,685,1282,-10.2228,-4.05823
-532,-258,-10.2173,-0.353882,0,0,0,0,0,0,0,-1,692,1282,-10.2173,0.353836
-525,-258,-21.8661,-1.5929,0,0,0,0,0,0,0,-1,699,1282,-21.8661,1.59285
-518,-258,-29.2484,0.123169,0,0,0,0,0,0,0,-1,706,1282,-29.2484,-0.123186
-511,-258,-23.5061,1.16833,0,0,0,0,0,0,0,-1,713,1282,-23.5061,-1.16833
-504,-258,-22.9178,0.484131,0,0,0,0,0,0,0,-1,720,1282,-22.9178,-0.484106
-497,-258,-17.8047,0.730469,0,0,0,0,0,0,0,-1,727,1282,-17.8048,-0.730489
-490,-258,-15.4346,0.632935,0,0,0,0,0,0,0,-1,734,1282,-15.4346,-0.632917
-483,-258,0,0,0,0,0,0,0,0,0,-1,741,1282,0,0
-476,-258,0,0,0,0,0,0,0,0,0,-1,748,1282,0,0
-469,-258,0,0,0,0,0,0,0,0,0,-1,755,1282,0,0
-462,-258,0,0,0,0,0,0,0,0,0,-1,762,1282,0,0
-455,-258,0,0,0,0,0,0,0,0,0,-1,769,1282,0,0
-448,-258,0,0,0,0,0,0,0,0,0,-1,776,1282,0,0
-441,-258,0,0,0,0,0,0,0,0,0,-1,783,1282,0,0
-434,-258,0,0,0,0,0,0,0,0,0,-1,790,1282,0,0
-427,-258,0,0,0,0,0,0,0,0,0,-1,797,1282,0,0
-420,-258,0,0,0,0,0,0,0,0,0,-1,804,1282,0,0
-413,-258,0,0,0,0,0,0,0,0,0,-1,811,1282,0,0
-406,-258,0,0,0,0,0,0,0,0,0,-1,818,1282,0,0
-399,-258,0,0,0,0,0,0,0,0,0,-1,825,1282,0,0
-392,-258,0,0,0,0,0,0,0,0,0,-1,832,1282,0,0
-385,-258,0,0,0,0,0,0,0,0,0,-1,839,1282,0,0
-378,-258,0,0,0,0,0,0,0,0,0,-1,846,1282,0,0
-371,-258,0,0,0,0,0,0,0,0,0,-1,853,1282,0,0
-364,-258,0,0,0,0,0,0,0,0,0,-1,860,1282,0,0
-357,-258,0,0,0,0,0,0,0,0,0,-1,867,1282,0,0
-350,-258,0,0,0,0,0,0,0,0,0,-1,874,1282,0,0
-343,-258,0,0,0,0,0,0,0,0,0,-1,881,1282,0,0
-336,-258,0,0,0,0,0,0,0,0,0,-1,888,1282,0,0
-329,-258,0,0,0,0,0,0,0,0,0,-1,895,1282,0,0
-322,-258,0,0,0,0,0,0,0,0,0,-1,902,1282,0,0
-315,-258,0,0,0,0,0,0,0,0,0,-1,909,1282,0,0
-308,-258,0,0,0,0,0,0,0,0,0,-1,916,1282,0,0
-301,-258,0,0,0,0,0,0,0,0,0,-1,923,1282,0,0
-294,-258,0,0,0,0,0,0,0,0,0,-1,930,1282,0,0
-287,-258,0,0,0,0,0,0,0,0,0,-1,937,1282,0,0
-280,-258,0,0,0,0,0,0,0,0,0,-1,944,1282,0,0
-273,-258,0,0,0,0,0,0,0,0,0,-1,951,1282,0,0
-266,-258,0,0,0,0,0,0,0,0,0,-1,958,1282,0,0
-259,-258,0,0,0,0,0,0,0,0,0,-1,965,1282,0,0
-252,-258,0,0,0,0,0,0,0,0,0,-1,972,1282,0,0
-245,-258,0,0,0,0,0,0,0,0,0,-1,979,1282,0,0
-238,-258,0,0,0,0,0,0,0,0,0,-1,986,1282,0,0
-231,-258,0,0,0,0,0,0,0,0,0,-1,993,1282,0,0
-224,-258,0,0,0,0,0,0,0,0,0,-1,1000,1282,0,0
-217,-258,0,0,0,0,0,0,0,0,0,-1,1007,1282,0,0
-210,-258,0,0,0,0,0,0,0,0,0,-1,1014,1282,0,0
-203,-258,0,0,0,0,0,0,0,0,0,-1,1021,1282,0,0
-196,-258,0,0,0,0,0,0,0,0,0,-1,1028,1282,0,0
-189,-258,0,0,0,0,0,0,0,0,0,-1,1035,1282,0,0
-182,-258,0,0,0,0,0,0,0,0,0,-1,1042,1282,0,0
-175,-258,0,0,0,0,0,0,0,0,0,-1,1049,1282,0,0
-168,-258,0,0,0,0,0,0,0,0,0,-1,1056,1282,0,0
-161,-258,0,0,0,0,0,0,0,0,0,-1,1063,1282,0,0
-154,-258,0,0,0,0,0,0,0,0,0,-1,1070,1282,0,0
-147,-258,0,0,0,0,0,0,0,0,0,-1,1077,1282,0,0
-140,-258,0,0,0,0,0,0,0,0,0,-1,1084,1282,0,0
-133,-258,0,0,0,0,0,0,0,0,0,-1,1091,1282,0,0
-126,-258,0,0,0,0,0,0,0,0,0,-1,1098,1282,0,0
-119,-258,0,0,0,0,0,0,0,0,0,-1,1105,1282,0,0
-112,-258,0,0,0,0,0,0,0,0,0,-1,1112,1282,0,0
-105,-258,0,0,0,0,0,0,0,0,0,-1,1119,1282,0,0
-98,-258,0,0,0,0,0,0,0,0,0,-1,1126,1282,0,0
-91,-258,0,0,0,0,0,0,0,0,0,-1,1133,1282,0,0
-84,-258,0,0,0,0,0,0,0,0,0,-1,1140,1282,0,0
-77,-258,0,0,0,0,0,0,0,0,0,-1,1147,1282,0,0
-70,-258,0,0,0,0,0,0,0,0,0,-1,1154,1282,0,0
-63,-258,0,0,0,0,0,0,0,0,0,-1,1161,1282,0,0
-56,-258,0,0,0,0,0,0,0,0,0,-1,1168,1282,0,0
-49,-258,0,0,0,0,0,0,0,0,0,-1,1175,1282,0,0
-42,-258,0,0,0,0,0,0,0,0,0,-1,1182,1282,0,0
-35,-258,0,0,0,0,0,0,0,0,0,-1,1189,1282,0,0
-28,-258,0,0,0,0,0,0,0,0,0,-1,1196,1282,0,0
-21,-258,0,0,0,0,0,0,0,0,0,-1,1203,1282,0,0
-14,-258,0,0,0,0,0,0,0,0,0,-1,1210,1282,0,0
-7,-258,0,0,0,0,0,0,0,0,0,-1,1217,1282,0,0
0,-258,0,0,0,0,0,0,0,0,0,-1,1224,1282,0,0
7,-258,0,0,0,0,0,0,0,0,0,-1,1231,1282,0,0
14,-258,0,0,0,0,0,0,0,0,0,-1,1238,1282,0,0
21,-258,0,0,0,0,0,0,0,0,0,-1,1245,1282,0,0
28,-258,0,0,0,0,0,0,0,0,0,-1,1252,1282,0,0
35,-258,0,0,0,0,0,0,0,0,0,-1,1259,1282,0,0
42,-258,0,0,0,0,0,0,0,0,0,-1,1266,1282,0,0
49,-258,0,0,0,0,0,0,0,0,0,-1,1273,1282,0,0
56,-258,0,0,0,0,0,0,0,0,0,-1,1280,1282,0,0
63,-258,0,0,0,0,0,0,0,0,0,-1,1287,1282,0,0
70,-258,0,0,0,0,0,0,0,0,0,-1,1294,1282,0,0
77,-258,0,0,0,0,0,0,0,0,0,-1,1301,1282,0,0
84,-258,0,0,0,0,0,0,0,0,0,-1,1308,1282,0,0
91,-258,0,0,0,0,0,0,0,0,0,-1,1315,1282,0,0
98,-258,0,0,0,0,0,0,0,0,0,-1,1322,1282,0,0
105,-258,0,0,0,0,0,0,0,0,0,-1,1329,1282,0,0
112,-258,0,0,0,0,0,0,0,0,0,-1,1336,1282,0,0
119,-258,0,0,0,0,0,0,0,0,0,-1,1343,1282,0,0
126,-258,0,0,0,0,0,0,0,0,0,-1,1350,1282,0,0
133,-258,0,0,0,0,0,0,0,0,0,-1,1357,1282,0,0
140,-258,0,0,0,0,0,0,0,0,0,-1,1364,1282,0,0
147,-258,0,0,0,0,0,0,0,0,0,-1,1371,1282,0,0
154,-258,0,0,0,0,0,0,0,0,0,-1,1378,1282,0,0
161,-258,0,0,0,0,0,0,0,0,0,-1,1385,1282,0,0
168,-258,0,0,0,0,0,0,0,0,0,-1,1392,1282,0,0
175,-258,0,0,0,0,0,0,0,0,0,-1,1399,1282,0,0
182,-258,0,0,0,0,0,0,0,0,0,-1,1406,1282,0,0
189,-258,0,0,0,0,0,0,0,0,0,-1,1413,1282,0,0
196,-258,0,0,0,0,0,0,0,0,0,-1,1420,1282,0,0
203,-258,0,0,0,0,0,0,0,0,0,-1,1427,1282,0,0
210,-258,0,0,0,0,0,0,0,0,0,-1,1434,1282,0,0
217,-258,0,0,0,0,0,0,0,0,0,-1,1441,1282,0,0
224,-258,0,0,0,0,0,0,0,0,0,-1,1448,1282,0,0
231,-258,0,0,0,0,0,0,0,0,0,-1,1455,1282,0,0
238,-258,0,0,0,0,0,0,0,0,0,-1,1462,1282,0,0
245,-258,0,0,0,0,0,0,0,0,0,-1,1469,1282,0,0
252,-258,0,0,0,0,0,0,0,0,0,-1,1476,1282,0,0
259,-258,0,0,0,0,0,0,0,0,0,-1,1483,1282,0,0
266,-258,0,0,0,0,0,0,0,0,0,-1,1490,1282,0,0
273,-258,0,0,0,0,0,0,0,0,0,-1,1497,1282,0,0
280,-258,0,0,0,0,0,0,0,0,0,-1,1504,1282,0,0
287,-258,0,0,0,0,0,0,0,0,0,-1,1511,1282,0,0
294,-258,0,0,0,0,0,0,0,0,0,-1,1518,1282,0,0
301,-258,0,0,0,0,0,0,0,0,0,-1,1525,1282,0,0
308,-258,0,0,0,0,0,0,0,0,0,-1,1532,1282,0,0
315,-258,0,0,0,0,0,0,0,0,0,-1,1539,1282,0,0
322,-258,0,0,0,0,0,0,0,0,0,-1,1546,1282,0,0
329,-258,0,0,0,0,0,0,0,0,0,-1,1553,1282,0,0
336,-258,0,0,0,0,0,0,0,0,0,-1,1560,1282,0,0
343,-258,0,0,0,0,0,0,0,0,0,-1,1567,1282,0,0
350,-258,0,0,0,0,0,0,0,0,0,-1,1574,1282,0,0
357,-258,0,0,0,0,0,0,0,0,0,-1,1581,1282,0,0
364,-258,0,0,0,0,0,0,0,0,0,-1,1588,1282,0,0
371,-258,0,0,0,0,0,0,0,0,0,-1,1595,1282,0,0
378,-258,0,0,0,0,0,0,0,0,0,-1,1602,1282,0,0
385,-258,0,0,0,0,0,0,0,0,0,-1,1609,1282,0,0
392,-258,0,0,0,0,0,0,0,0,0,-1,1616,1282,0,0
399,-258,0,0,0,0,0,0,0,0,0,-1,1623,1282,0,0
406,-258,0,0,0,0,0,0,0,0,0,-1,1630,1282,0,0
413,-258,0,0,0,0,0,0,0,0,0,-1,1637,1282,0,0
420,-258,0,0,0,0,0,0,0,0,0,-1,1644,1282,0,0
427,-258,0,0,0,0,0,0,0,0,0,-1,1651,1282,0,0
434,-258,0,0,0,0,0,0,0,0,0,-1,1658,1282,0,0
441,-258,0,0,0,0,0,0,0,0,0,-1,1665,1282,0,0
448,-258,0,0,0,0,0,0,0,0,0,-1,1672,1282,0,0
455,-258,0,0,0,0,0,0,0,0,0,-1,1679,1282,0,0
462,-258,0,0,0,0,0,0,0,0,0,-1,1686,1282,0,0
469,-258,0,0,0,0,0,0,0,0,0,-1,1693,1282,0,0
476,-258,0,0,0,0,0,0,0,0,0,-1,1700,1282,0,0
483,-258,0,0,0,0,0,0,0,0,0,-1,1707,1282,0,0
490,-258,0,0,0,0,0,0,0,0,0,-1,1714,1282,0,0
497,-258,0,0,0,0,0,0,0,0,0,-1,1721,1282,0,0
504,-258,0,0,0,0,0,0,0,0,0,-1,1728,1282,0,0
511,-258,0,0,0,0,0,0,0,0,0,-1,1735,1282,0,0
518,-258,0,0,0,0,0,0,0,0,0,-1,1742,1282,0,0
525,-258,0,0,0,0,0,0,0,0,0,-1,1749,1282,0,0
532,-258,0,0,0,0,0,0,0,0,0,-1,1756,1282,0,0
539,-258,0,0,0,0,0,0,0,0,0,-1,1763,1282,0,0
546,-258,0,0,0,0,0,0,0,0,0,-1,1770,1282,0,0
553,-258,0,0,0,0,0,0,0,0,0,-1,1777,1282,0,0
560,-258,0,0,0,0,0,0,0,0,0,-1,1784,1282,0,0
567,-258,0,0,0,0,0,0,0,0,0,-1,1791,1282,0,0
574,-258,0,0,0,0,0,0,0,0,0,-1,1798,1282,0,0
581,-258,0,0,0,0,0,0,0,0,0,-1,1805,1282,0,0
588,-258,0,0,0,0,0,0,0,0,0,-1,1812,1282,0,0
595,-258,0,0,0,0,0,0,0,0,0,-1,1819,1282,0,0
602,-258,0,0,0,0,0,0,0,0,0,-1,1826,1282,0,0
609,-258,46.4862,2.73425,0.00871769,0.0048739,0.00636784,0.0134473,0.000144251,0.638839,0.0089172,0.026091,1833,1282,46.4861,-2.73425
616,-258,46.4543,2.74866,0.00219334,0.00864418,0.00583987,0.0120901,-0.00125263,1.03771,0.00850843,0.0267752,1840,1282,46.4543,-2.7486
623,-258,46.4374,2.78235,-0.00298978,0.0107718,0.00462256,0.0121804,-0.00439834,1.27502,0.00991699,0.0385304,1847,1282,46.4374,-2.78239
630,-258,46.4176,2.6405,-0.00621054,0.0109126,0.0030405,0.0114365,-0.00673441,1.40018,0.0106074,0.0474851,1854,1282,46.4176,-2.64046
637,-258,46.3452,2.54504,-0.00632637,0.00903694,0.00178842,0.00924238,-0.00653181,1.45643,0.00915194,0.0446008,1861,1282,46.3452,-2.54501
644,-258,46.2491,2.43005,-0.00543721,0.00710222,0.00128313,0.00723217,-0.00556716,1.46986,0.00741051,0.0472315,1868,1282,46.2491,-2.43002
651,-258,46.2543,2.31812,0,0,0,0,0,0,0,-1,1875,1282,46.2543,-2.31813
658,-258,44.3086,3.68384,0,0,0,0,0,0,0,-1,1882,1282,44.3086,-3.68387
665,-258,35.4747,1.1864,0,0,0,0,0,0,0,-1,1889,1282,35.4747,-1.18637
672,-258,22.703,2.80957,0,0,0,0,0,0,0,-1,1896,1282,22.703,-2.80962
679,-258,26.8693,8.19543,0,0,0,0,0,0,0,-1,1903,1282,26.8692,-8.19548
686,-258,34.6218,9.89014,0,0,0,0,0,0,0,-1,1910,1282,34.6218,-9.89014
693,-258,34.5742,9.43713,0.000198841,0.000181678,-0.000284644,0.000475033,-9.45136e-05,-0.770329,0.000352443,0.0137416,1917,1282,34.5742,-9.43714
700,-258,34.5367,8.97754,0.0013056,-0.00111299,0.000324474,0.00134837,-0.00115576,0.131072,0.00144719,0.00971001,1924,1282,34.5368,-8.97749
707,-258,34.5554,8.51514,0.000587785,-0.00102858,0.000540376,0.000751798,-0.0011926,0.29468,0.00113217,0.0115356,1931,1282,34.5554,-8.51518
714,-258,34.5493,8.09424,9.81763e-05,-0.000908135,0.000724654,0.000477228,-0.00128719,0.48194,0.00105386,0.0117564,1938,1282,34.5493,-8.09421
721,-258,34.4984,7.66553,-0.000141414,-0.000941858,0.000844126,0.000392562,-0.00147583,0.564031,0.00113755,0.0174819,1945,1282,34.4984,-7.66551
728,-258,34.4526,7.2655,-0.000123972,-0.0011833,0.000813112,0.000316775,-0.00162404,0.496719,0.00120228,0.017121,1952,1282,34.4527,-7.26555
735,-258,34.4799,6.8175,0.000141945,-0.00169925,0.000675654,0.000363279,-0.00192059,0.316568,0.00141709,0.0171127,1959,1282,34.4798,-6.81747
742,-258,34.452,6.40442,0.000765307,-0.00256102,0.000372918,0.000806603,-0.00260232,0.110287,0.00205715,0.019134,1966,1282,34.4521,-6.40446
749,-258,34.3545,6.09497,0.00197163,-0.00408356,-0.00010772,0.00197355,-0.00408548,-0.0177822,0.00356831,0.038661,1973,1282,34.3545,-6.09501
756,-258,34.4677,6.12744,0,0,0,0,0,0,0,-1,1980,1282,34.4677,-6.12749
763,-258,35.0758,5.61963,0,0,0,0,0,0,0,-1,1987,1282,35.0759,-5.61965
770,-258,35.0776,4.69446,0,0,0,0,0,0,0,-1,1994,1282,35.0776,-4.6944
777,-258,31.912,4.83093,0,0,0,0,0,0,0,-1,2001,1282,31.912,-4.8309
784,-258,32.6525,6.43091,0,0,0,0,0,0,0,-1,2008,1282,32.6525,-6.43091
791,-258,0,0,0,0,0,0,0,0,0,-1,2015,1282,0,0
798,-258,0,0,0,0,0,0,0,0,0,-1,2022,1282,0,0
805,-258,0,0,0,0,0,0,0,0,0,-1,2029,1282,0,0
812,-258,0,0,0,0,0,0,0,0,0,-1,2036,1282,0,0
-700,-265,0,0,0,0,0,0,0,0,0,-1,524,1289,0,0
-693,-265,0,0,0,0,0,0,0,0,0,-1,531,1289,0,0
-686,-265,0,0,0,0,0,0,0,0,0,-1,538,1289,0,0
-679,-265,0,0,0,0,0,0,0,0,0,-1,545,1289,0,0
-672,-265,0,0,0,0,0,0,0,0,0,-1,552,1289,0,0
-665,-265,-21.8043,0.183594,0,0,0,0,0,0,0,-1,559,1289,-21.8042,-0.183562
-658,-265,-18.9856,-0.2948,0,0,0,0,0,0,0,-1,566,1289,-18.9856,0.294797
-651,-265,-18.8685,0.415161,0,0,0,0,0,0,0,-1,573,1289,-18.8685,-0.415106
-644,-265,-21.1107,-0.415527,0,0,0,0,0,0,0,-1,580,1289,-21.1106,0.415535
-637,-265,-20.9237,0.733765,0,0,0,0,0,0,0,-1,587,1289,-20.9237,-0.733739
-630,-265,-19.4874,2.06287,0,0,0,0,0,0,0,-1,594,1289,-19.4874,-2.06282
-623,-265,-20.9653,2.44836,0,0,0,0,0,0,0,-1,601,1289,-20.9653,-2.44834
-616,-265,-20.9103,3.125,0.0177165,0.0134162,0.00625365,0.0221793,0.00895341,0.619819,0.0128842,0.0432528,608,1289,-20.9103,-3.12504
-609,-265,-20.9023,3.85437,0.0119563,0.00938023,0.00448737,0.0153368,0.0059997,0.645637,0.00892434,0.0184542,615,1289,-20.9023,-3.85435
-602,-265,-20.954,4.3728,0.00823389,0.0063484,0.00325551,0.0106804,0.00390188,0.644461,0.00624045,0.0147792,622,1289,-20.954,-4.3728
-595,-265,-20.9854,4.88306,0.00573266,0.00397621,0.00231188,0.0073275,0.00238137,0.603878,0.00431605,0.0123502,629,1289,-20.9854,-4.88301
-588,-265,-20.992,5.37329,0.0041675,0.00213018,0.00160183,0.00504714,0.00125054,0.502185,0.00303504,0.0107592,636,1289,-20.992,-5.37331
-581,-265,-21.0064,5.84839,0.00328221,0.000749075,0.00111518,0.00370319,0.000328091,0.360962,0.00236702,0.0129512,643,1289,-21.0064,-5.84839
-574,-265,-21.0417,6.36804,0.00279857,-0.00025649,0.000780184,0.00298627,-0.000444196,0.236105,0.00215424,0.0145551,650,1289,-21.0418,-6.36805
-567,-265,-21.0997,6.83228,0.00299879,-0.000658247,0.000619765,0.00310097,-0.000760424,0.163395,0.00236195,0.0191286,657,1289,-21.0997,-6.83224
-560,-265,-21.115,7.32666,0.00317494,-0.000569038,0.000625439,0.00327665,-0.000670755,0.161222,0.00243896,0.020935,664,1289,-21.115,-7.32667
-553,-265,-21.0807,7.83643,0,0,0,0,0,0,0,-1,671,1289,-21.0808,-7.83647
-546,-265,-19.0402,7.96277,0,0,0,0,0,0,0,-1,678,1289,-19.0402,-7.96282
-539,-265,-13.7668,6.39917,0,0,0,0,0,0,0,-1,685,1289,-13.7668,-6.39915
-532,-265,-8.53998,3.41467,0,0,0,0,0,0,0,-1,692,1289,-8.53996,-3.41473
-525,-265,-12.1317,0.514648,0,0,0,0,0,0,0,-1,699,1289,-12.1317,-0.514634
-518,-265,-24.1604,0.712402,0,0,0,0,0,0,0,-1,706,1289,-24.1604,-0.712425
-511,-265,-23.233,0.791626,0,0,0,0,0,0,0,-1,713,1289,-23.233,-0.791617
-504,-265,-22.3056,0.87085,0,0,0,0,0,0,0,-1,720,1289,-22.3056,-0.87081
-497,-265,-18.689,-0.278442,0,0,0,0,0,0,0,-1,727,1289,-18.689,0.278423
-490,-265,-15.1696,0.492676,0,0,0,0,0,0,0,-1,734,1289,-15.1696,-0.492688
-483,-265,0,0,0,0,0,0,0,0,0,-1,741,1289,0,0
-476,-265,0,0,0,0,0,0,0,0,0,-1,748,1289,0,0
-469,-265,0,0,0,0,0,0,0,0,0,-1,755,1289,0,0
-462,-265,0,0,0,0,0,0,0,0,0,-1,762,1289,0,0
-455,-265,0,0,0,0,0,0,0,0,0,-1,769,1289,0,0
-448,-265,0,0,0,0,0,0,0,0,0,-1,776,1289,0,0
-441,-265,0,0,0,0,0,0,0,0,0,-1,783,1289,0,0
-434,-265,0,0,0,0,0,0,0,0,0,-1,790,1289,0,0
-427,-265,0,0,0,0,0,0,0,0,0,-1,797,1289,0,0
-420,-265,0,0,0,0,0,0,0,0,0,-1,804,1289,0,0
-413,-265,0,0,0,0,0,0,0,0,0,-1,811,1289,0,0
-406,-265,0,0,0,0,0,0,0,0,0,-1,818,1289,0,0
-399,-265,0,0,0,0,0,0,0,0,0,-1,825,1289,0,0
-392,-265,0,0,0,0,0,0,0,0,0,-1,832,1289,0,0
-385,-265,0,0,0,0,0,0,0,0,0,-1,839,1289,0,0
-378,-265,0,0,0,0,0,0,0,0,0,-1,846,1289,0,0
-371,-265,0,0,0,0,0,0,0,0,0,-1,853,1289,0,0
-364,-265,0,0,0,0,0,0,0,0,0,-1,860,1289,0,0
-357,-265,0,0,0,0,0,0,0,0,0,-1,867,1289,0,0
-350,-265,0,0,0,0,0,0,0,0,0,-1,874,1289,0,0
-343,-265,0,0,0,0,0,0,0,0,0,-1,881,1289,0,0
-336,-265,0,0,0,0,0,0,0,0,0,-1,888,1289,0,0
-329,-265,0,0,0,0,0,0,0,0,0,-1,895,1289,0,0
-322,-265,0,0,0,0,0,0,0,0,0,-1,902,1289,0,0
-315,-265,0,0,0,0,0,0,0,0,0,-1,909,1289,0,0
-308,-265,0,0,0,0,0,0,0,0,0,-1,916,1289,0,0
-301,-265,0,0,0,0,0,0,0,0,0,-1,923,1289,0,0
-294,-265,0,0,0,0,0,0,0,0,0,-1,930,1289,0,0
-287,-265,0,0,0,0,0,0,0,0,0,-1,937,1289,0,0
-280,-265,0,0,0,0,0,0,0,0,0,-1,944,1289,0,0
-273,-265,0,0,0,0,0,0,0,0,0,-1,951,1289,0,0
-266,-265,0,0,0,0,0,0,0,0,0,-1,958,1289,0,0
-259,-265,0,0,0,0,0,0,0,0,0,-1,965,1289,0,0
-252,-265,0,0,0,0,0,0,0,0,0,-1,972,1289,0,0
-245,-265,0,0,0,0,0,0,0,0,0,-1,979,1289,0,0
-238,-265,0,0,0,0,0,0,0,0,0,-1,986,1289,0,0
-231,-265,0,0,0,0,0,0,0,0,0,-1,993,1289,0,0
-224,-265,0,0,0,0,0,0,0,0,0,-1,1000,1289,0,0
-217,-265,0,0,0,0,0,0,0,0,0,-1,1007,1289,0,0
-210,-265,0,0,0,0,0,0,0,0,0,-1,1014,1289,0,0
-203,-265,0,0,0,0,0,0,0,0,0,-1,1021,1289,0,0
-196,-265,0,0,0,0,0,0,0,0,0,-1,1028,1289,0,0
-189,-265,0,0,0,0,0,0,0,0,0,-1,1035,1289,0,0
-182,-265,0,0,0,0,0,0,0,0,0,-1,1042,1289,0,0
-175,-265,0,0,0,0,0,0,0,0,0,-1,1049,1289,0,0
-168,-265,0,0,0,0,0,0,0,0,0,-1,1056,1289,0,0
-161,-265,0,0,0,0,0,0,0,0,0,-1,1063,1289,0,0
-154,-265,0,0,0,0,0,0,0,0,0,-1,1070,1289,0,0
-147,-265,0,0,0,0,0,0,0,0,0,-1,1077,1289,0,0
-140,-265,0,0,0,0,0,0,0,0,0,-1,1084,1289,0,0
-133,-265,0,0,0,0,0,0,0,0,0,-1,1091,1289,0,0
-126,-265,0,0,0,0,0,0,0,0,0,-1,1098,1289,0,0
-119,-265,0,0,0,0,0,0,0,0,0,-1,1105,1289,0,0
-112,-265,0,0,0,0,0,0,0,0,0,-1,1112,1289,0,0
-105,-265,0,0,0,0,0,0,0,0,0,-1,1119,1289,0,0
-98,-265,0,0,0,0,0,0,0,0,0,-1,1126,1289,0,0
-91,-265,0,0,0,0,0,0,0,0,0,-1,1133,1289,0,0
-84,-265,0,0,0,0,0,0,0,0,0,-1,1140,1289,0,0
-77,-265,0,0,0,0,0,0,0,0,0,-1,1147,1289,0,0
-70,-265,0,0,0,0,0,0,0,0,0,-1,1154,1289,0,0
-63,-265,0,0,0,0,0,0,0,0,0,-1,1161,1289,0,0
-56,-265,0,0,0,0,0,0,0,0,0,-1,1168,1289,0,0
-49,-265,0,0,0,0,0,0,0,0,0,-1,1175,1289,0,0
-42,-265,0,0,0,0,0,0,0,0,0,-1,1182,1289,0,0
-35,-265,0,0,0,0,0,0,0,0,0,-1,1189,1289,0,0
-28,-265,0,0,0,0,0,0,0,0,0,-1,1196,1289,0,0
-21,-265,0,0,0,0,0,0,0,0,0,-1,1203,1289,0,0
-14,-265,0,0,0,0,0,0,0,0,0,-1,1210,1289,0,0
-7,-265,0,0,0,0,0,0,0,0,0,-1,1217,1289,0,0
0,-265,0,0,0,0,0,0,0,0,0,-1,1224,1289,0,0
7,-265,0,0,0,0,0,0,0,0,0,-1,1231,1289,0,0
14,-265,0,0,0,0,0,0,0,0,0,-1,1238,1289,0,0
21,-265,0,0,0,0,0,0,0,0,0,-1,1245,1289,0,0
28,-265,0,0,0,0,0,0,0,0,0,-1,1252,1289,0,0
35,-265,0,0,0,0,0,0,0,0,0,-1,1259,1289,0,0
42,-265,0,0,0,0,0,0,0,0,0,-1,1266,1289,0,0
49,-265,0,0,0,0,0,0,0,0,0,-1,1273,1289,0,0
56,-265,0,0,0,0,0,0,0,0,0,-1,1280,1289,0,0
63,-265,0,0,0,0,0,0,0,0,0,-1,1287,1289,0,0
70,-265,0,0,0,0,0,0,0,0,0,-1,1294,1289,0,0
77,-265,0,0,0,0,0,0,0,0,0,-1,1301,1289,0,0
84,-265,0,0,0,0,0,0,0,0,0,-1,1308,1289,0,0
91,-265,0,0,0,0,0,0,0,0,0,-1,1315,1289,0,0
98,-265,0,0,0,0,0,0,0,0,0,-1,1322,1289,0,0
105,-265,0,0,0,0,0,0,0,0,0,-1,1329,1289,0,0
112,-265,0,0,0,0,0,0,0,0,0,-1,1336,1289,0,0
119,-265,0,0,0,0,0,0,0,0,0,-1,1343,1289,0,0
126,-265,0,0,0,0,0,0,0,0,0,-1,1350,1289,0,0
133,-265,0,0,0,0,0,0,0,0,0,-1,1357,1289,0,0
140,-265,0,0,0,0,0,0,0,0,0,-1,1364,1289,0,0
147,-265,0,0,0,0,0,0,0,0,0,-1,1371,1289,0,0
154,-265,0,0,0,0,0,0,0,0,0,-1,1378,1289,0,0
161,-265,0,0,0,0,0,0,0,0,0,-1,1385,1289,0,0
168,-265,0,0,0,0,0,0,0,0,0,-1,1392,1289,0,0
175,-265,0,0,0,0,0,0,0,0,0,-1,1399,1289,0,0
182,-265,0,0,0,0,0,0,0,0,0,-1,1406,1289,0,0
189,-265,0,0,0,0,0,0,0,0,0,-1,1413,1289,0,0
196,-265,0,0,0,0,0,0,0,0,0,-1,1420,1289,0,0
203,-265,0,0,0,0,0,0,0,0,0,-1,1427,1289,0,0
210,-265,0,0,0,0,0,0,0,0,0,-1,1434,1289,0,0
217,-265,0,0,0,0,0,0,0,0,0,-1,1441,1289,0,0
224,-265,0,0,0,0,0,0,0,0,0,-1,1448,1289,0,0
231,-265,0,0,0,0,0,0,0,0,0,-1,1455,1289,0,0
238,-265,0,0,0,0,0,0,0,0,0,-1,1462,1289,0,0
245,-265,0,0,0,0,0,0,0,0,0,-1,1469,1289,0,0
252,-265,0,0,0,0,0,0,0,0,0,-1,1476,1289,0,0
259,-265,0,0,0,0,0,0,0,0,0,-1,1483,1289,0,0
266,-265,0,0,0,0,0,0,0,0,0,-1,1490,1289,0,0
273,-265,0,0,0,0,0,0,0,0,0,-1,1497,1289,0,0
280,-265,0,0,0,0,0,0,0,0,0,-1,1504,1289,0,0
287,-265,0,0,0,0,0,0,0,0,0,-1,1511,1289,0,0
294,-265,0,0,0,0,0,0,0,0,0,-1,1518,1289,0,0
301,-265,0,0,0,0,0,0,0,0,0,-1,1525,1289,0,0
308,-265,0,0,0,0,0,0,0,0,0,-1,1532,1289,0,0
315,-265,0,0,0,0,0,0,0,0,0,-1,1539,1289,0,0
322,-265,0,0,0,0,0,0,0,0,0,-1,1546,1289,0,0
329,-265,0,0,0,0,0,0,0,0,0,-1,1553,1289,0,0
336,-265,0,0,0,0,0,0,0,0,0,-1,1560,1289,0,0
343,-265,0,0,0,0,0,0,0,0,0,-1,1567,1289,0,0
350,-265,0,0,0,0,0,0,0,0,0,-1,1574,1289,0,0
357,-265,0,0,0,0,0,0,0,0,0,-1,1581,1289,0,0
364,-265,0,0,0,0,0,0,0,0,0,-1,1588,1289,0,0
371,-265,0,0,0,0,0,0,0,0,0,-1,1595,1289,0,0
378,-265,0,0,0,0,0,0,0,0,0,-1,1602,1289,0,0
385,-265,0,0,0,0,0,0,0,0,0,-1,1609,1289,0,0
392,-265,0,0,0,0,0,0,0,0,0,-1,1616,1289,0,0
399,-265,0,0,0,0,0,0,0,0,0,-1,1623,1289,0,0
406,-265,0,0,0,0,0,0,0,0,0,-1,1630,1289,0,0
413,-265,0,0,0,0,0,0,0,0,0,-1,1637,1289,0,0
420,-265,0,0,0,0,0,0,0,0,0,-1,1644,1289,0,0
427,-265,0,0,0,0,0,0,0,0,0,-1,1651,1289,0,0
434,-265,0,0,0,0,0,0,0,0,0,-1,1658,1289,0,0
441,-265,0,0,0,0,0,0,0,0,0,-1,1665,1289,0,0
448,-265,0,0,0,0,0,0,0,0,0,-1,1672,1289,0,0
455,-265,0,0,0,0,0,0,0,0,0,-1,1679,1289,0,0
462,-265,0,0,0,0,0,0,0,0,0,-1,1686,1289,0,0
469,-265,0,0,0,0,0,0,0,0,0,-1,1693,1289,0,0
476,-265,0,0,0,0,0,0,0,0,0,-1,1700,1289,0,0
483,-265,0,0,0,0,0,0,0,0,0,-1,1707,1289,0,0
490,-265,0,0,0,0,0,0,0,0,0,-1,1714,1289,0,0
497,-265,0,0,0,0,0,0,0,0,0,-1,1721,1289,0,0
504,-265,0,0,0,0,0,0,0,0,0,-1,1728,1289,0,0
511,-265,0,0,0,0,0,0,0,0,0,-1,1735,1289,0,0
518,-265,0,0,0,0,0,0,0,0,0,-1,1742,1289,0,0
525,-265,0,0,0,0,0,0,0,0,0,-1,1749,1289,0,0
532,-265,0,0,0,0,0,0,0,0,0,-1,1756,1289,0,0
539,-265,0,0,0,0,0,0,0,0,0,-1,1763,1289,0,0
546,-265,0,0,0,0,0,0,0,0,0,-1,1770,1289,0,0
553,-265,0,0,0,0,0,0,0,0,0,-1,1777,1289,0,0
560,-265,0,0,0,0,0,0,0,0,0,-1,1784,1289,0,0
567,-265,0,0,0,0,0,0,0,0,0,-1,1791,1289,0,0
574,-265,0,0,0,0,0,0,0,0,0,-1,1798,1289,0,0
581,-265,0,0,0,0,0,0,0,0,0,-1,1805,1289,0,0
588,-265,0,0,0,0,0,0,0,0,0,-1,1812,1289,0,0
595,-265,0,0,0,0,0,0,0,0,0,-1,1819,1289,0,0
602,-265,46.4435,2.72876,0.0146899,0.00562657,0.00815898,0.0194912,0.000825234,0.531901,0.012728,0.0268975,1826,1289,46.4435,-2.72882
609,-265,46.4685,2.70862,0.0088247,0.00986448,0.00862746,0.0179877,0.000701482,0.815492,0.0117649,0.0290532,1833,1289,46.4685,-2.70858
616,-265,46.5964,2.81531,0.00251729,0.0133946,0.00847106,0.0180226,-0.00211073,1.07077,0.0127769,0.0373882,1840,1289,46.5965,-2.81525
623,-265,46.4198,2.77734,0,0,0,0,0,0,0,-1,1847,1289,46.4198,-2.77732
630,-265,46.4391,2.59436,-0.00460496,0.0122451,0.00518145,0.0137109,-0.00607077,1.29511,0.0117014,0.0479548,1854,1289,46.4391,-2.59437
637,-265,46.0452,2.51843,-0.00500913,0.00971154,0.00349163,0.0104977,-0.00579533,1.34932,0.00953651,0.0445747,1861,1289,46.0452,-2.51846
644,-265,46.2175,2.45605,0,0,0,0,0,0,0,-1,1868,1289,46.2176,-2.4561
651,-265,43.1907,3.83337,0,0,0,0,0,0,0,-1,1875,1289,43.1907,-3.8334
658,-265,41.7163,3.71619,0,0,0,0,0,0,0,-1,1882,1289,41.7163,-3.71624
665,-265,34.7902,1.43164,0,0,0,0,0,0,0,-1,1889,1289,34.7901,-1.43162
672,-265,20.0045,6.62671,0,0,0,0,0,0,0,-1,1896,1289,20.0045,-6.62668
679,-265,34.1343,10.3337,0,0,0,0,0,0,0,-1,1903,1289,34.1343,-10.3337
686,-265,34.1287,9.87048,-0.00207569,0.000997102,-0.000304292,0.00102695,-0.00210553,-1.47303,0.00184393,0.0357128,1910,1289,34.1287,-9.87049
693,-265,34.1185,9.42175,-2.76102e-05,1.19548e-05,5.77669e-05,5.32326e-05,-6.8888e-05,0.950366,7.06992e-05,0.0105688,1917,1289,34.1185,-9.42174
700,-265,34.0947,8.97888,0.000928122,-0.000960374,0.000624352,0.00111587,-0.00114812,0.29211,0.00130716,0.0106677,1924,1289,34.0948,-8.9789
707,-265,34.1008,8.52917,0.000313132,-0.000795587,0.000767616,0.000705635,-0.00118809,0.472669,0.00110511,0.0104917,1931,1289,34.1008,-8.52919
714,-265,34.0769,8.09949,-3.49455e-05,-0.000706525,0.000839099,0.000533058,-0.00127453,0.595068,0.00107248,0.0120377,1938,1289,34.0769,-8.09944
721,-265,34.0056,7.66858,-0.000208112,-0.000748598,0.000879547,0.000441772,-0.00139848,0.636349,0.0011093,0.0138593,1945,1289,34.0056,-7.66853
728,-265,33.9943,7.25708,-0.000190297,-0.00101596,0.000816122,0.000311468,-0.00151772,0.551243,0.00113004,0.0148269,1952,1289,33.9943,-7.25704
735,-265,34.0345,6.83423,7.08162e-05,-0.00156546,0.000624007,0.000281626,-0.00177627,0.325794,0.00128836,0.0175816,1959,1289,34.0346,-6.83418
742,-265,34.0242,6.39771,0.00070828,-0.00249935,0.0002293,0.000724588,-0.00251566,0.0710045,0.00196372,0.0217504,1966,1289,34.0241,-6.39773
749,-265,34.0502,5.85034,0.00199202,-0.00419271,-0.000436193,0.00202264,-0.00422332,-0.0700651,0.00367996,0.0468301,1973,1289,34.0501,-5.85028
756,-265,34.2571,5.27209,0,0,0,0,0,0,0,-1,1980,1289,34.2571,-5.27212
763,-265,34.2904,5.52454,0,0,0,0,0,0,0,-1,1987,1289,34.2905,-5.52454
770,-265,35.1674,5.07715,0,0,0,0,0,0,0,-1,1994,1289,35.1673,-5.07718
777,-265,32.1664,5.3457,0,0,0,0,0,0,0,-1,2001,1289,32.1664,-5.34568
784,-265,0,0,0,0,0,0,0,0,0,-1,2008,1289,0,0
791,-265,0,0,0,0,0,0,0,0,0,-1,2015,1289,0,0
798,-265,0,0,0,0,0,0,0,0,0,-1,2022,1289,0,0
805,-265,0,0,0,0,0,0,0,0,0,-1,2029,1289,0,0
812,-265,0,0,0,0,0,0,0,0,0,-1,2036,1289,0,0
-700,-272,0,0,0,0,0,0,0,0,0,-1,524,1296,0,0
-693,-272,0,0,0,0,0,0,0,0,0,-1,531,1296,0,0
-686,-272,0,0,0,0,0,0,0,0,0,-1,538,1296,0,0
-679,-272,0,0,0,0,0,0,0,0,0,-1,545,1296,0,0
-672,-272,0,0,0,0,0,0,0,0,0,-1,552,1296,0,0
-665,-272,0,0,0,0,0,0,0,0,0,-1,559,1296,0,0
-658,-272,-18.6953,0.101318,0,0,0,0,0,0,0,-1,566,1296,-18.6953,-0.101268
-651,-272,-19.5643,1.76074,0,0,0,0,0,0,0,-1,573,1296,-19.5643,-1.76073
-644,-272,-19.5433,1.52747,0,0,0,0,0,0,0,-1,580,1296,-19.5433,-1.52742
-637,-272,-19.4523,1.22437,0,0,0,0,0,0,0,-1,587,1296,-19.4523,-1.22431
-630,-272,-19.5844,0.638184,0,0,0,0,0,0,0,-1,594,1296,-19.5844,-0.638227
-623,-272,-19.3821,2.36462,0,0,0,0,0,0,0,-1,601,1296,-19.3821,-2.36459
-616,-272,-20.3777,4.47717,0,0,0,0,0,0,0,-1,608,1296,-20.3777,-4.47723
-609,-272,-20.3961,4.02039,0.0117759,0.010244,0.00513767,0.0162044,0.00581549,0.711404,0.009479,0.0260123,615,1296,-20.3961,-4.02033
-602,-272,-20.4504,4.37891,0.00810025,0.0070375,0.0037735,0.0113796,0.00375815,0.71545,0.00669503,0.0152634,622,1296,-20.4504,-4.37896
-595,-272,-20.4895,4.896,0.00564493,0.00454502,0.0027009,0.0078513,0.00233865,0.684962,0.00465478,0.0114085,629,1296,-20.4895,-4.89596
-588,-272,-20.4944,5.39368,0.00408302,0.00259466,0.00185851,0.00534081,0.00133688,0.594964,0.00320912,0.0105334,636,1296,-20.4945,-5.3937
-581,-272,-20.5151,5.88293,0.0031636,0.00101706,0.00119042,0.00369314,0.000487513,0.418553,0.00231675,0.00974761,643,1296,-20.5151,-5.88297
-574,-272,-20.5638,6.38574,0.00264353,-0.000351201,0.000655101,0.00278056,-0.000488235,0.206207,0.00203606,0.0154148,650,1296,-20.5638,-6.38572
-567,-272,-20.5997,6.85913,0.00280802,-0.00131731,0.000268495,0.00282542,-0.00133471,0.0647207,0.00245271,0.020559,657,1296,-20.5996,-6.85915
-560,-272,-20.6378,7.36938,0.00314989,-0.00185395,8.3556e-05,0.00315129,-0.00185535,0.0166922,0.00292268,0.0194881,664,1296,-20.6378,-7.36939
-553,-272,-20.5396,7.84448,0.00340465,-0.00215945,0.000169842,0.00340983,-0.00216463,0.0304869,0.00324507,0.0223364,671,1296,-20.5396,-7.84444
-546,-272,-20.4634,8.31384,0,0,0,0,0,0,0,-1,678,1296,-20.4634,-8.31382
-539,-272,-18.9283,8.57861,0,0,0,0,0,0,0,-1,685,1296,-18.9283,-8.57865
-532,-272,-10.5572,4.53943,0,0,0,0,0,0,0,-1,692,1296,-10.5572,-4.53943
-525,-272,-11.9599,0.0393066,0,0,0,0,0,0,0,-1,699,1296,-11.9599,-0.0393577
-518,-272,-21.1357,-1.41382,0,0,0,0,0,0,0,-1,706,1296,-21.1357,1.41379
-511,-272,-23.2565,0.226318,0,0,0,0,0,0,0,-1,713,1296,-23.2565,-0.22626
-504,-272,-19.7397,0.114746,0,0,0,0,0,0,0,-1,720,1296,-19.7397,-0.114701
-497,-272,-19.2225,1.71301,0,0,0,0,0,0,0,-1,727,1296,-19.2225,-1.71302
-490,-272,-20.1948,2.4032,0,0,0,0,0,0,0,-1,734,1296,-20.1948,-2.40322
-483,-272,-15.3736,0.792603,0,0,0,0,0,0,0,-1,741,1296,-15.3736,-0.79263
-476,-272,0,0,0,0,0,0,0,0,0,-1,748,1296,0,0
-469,-272,0,0,0,0,0,0,0,0,0,-1,755,1296,0,0
-462,-272,0,0,0,0,0,0,0,0,0,-1,762,1296,0,0
-455,-272,0,0,0,0,0,0,0,0,0,-1,769,1296,0,0
-448,-272,0,0,0,0,0,0,0,0,0,-1,776,1296,0,0
-441,-272,0,0,0,0,0,0,0,0,0,-1,783,1296,0,0
-434,-272,0,0,0,0,0,0,0,0,0,-1,790,1296,0,0
-427,-272,0,0,0,0,0,0,0,0,0,-1,797,1296,0,0
-420,-272,0,0,0,0,0,0,0,0,0,-1,804,1296,0,0
-413,-272,0,0,0,0,0,0,0,0,0,-1,811,1296,0,0
-406,-272,0,0,0,0,0,0,0,0,0,-1,818,1296,0,0
-399,-272,0,0,0,0,0,0,0,0,0,-1,825,1296,0,0
-392,-272,0,0,0,0,0,0,0,0,0,-1,832,1296,0,0
-385,-272,0,0,0,0,0,0,0,0,0,-1,839,1296,0,0
-378,-272,0,0,0,0,0,0,0,0,0,-1,846,1296,0,0
-371,-272,0,0,0,0,0,0,0,0,0,-1,853,1296,0,0
-364,-272,0,0,0,0,0,0,0,0,0,-1,860,1296,0,0
-357,-272,0,0,0,0,0,0,0,0,0,-1,867,1296,0,0
-350,-272,0,0,0,0,0,0,0,0,0,-1,874,1296,0,0
-343,-272,0,0,0,0,0,0,0,0,0,-1,881,1296,0,0
-336,-272,0,0,0,0,0,0,0,0,0,-1,888,1296,0,0
-329,-272,0,0,0,0,0,0,0,0,0,-1,895,1296,0,0
-322,-272,0,0,0,0,0,0,0,0,0,-1,902,1296,0,0
-315,-272,0,0,0,0,0,0,0,0,0,-1,909,1296,0,0
-308,-272,0,0,0,0,0,0,0,0,0,-1,916,1296,0,0
-301,-272,0,0,0,0,0,0,0,0,0,-1,923,1296,0,0
-294,-272,0,0,0,0,0,0,0,0,0,-1,930,1296,0,0
-287,-272,0,0,0,0,0,0,0,0,0,-1,937,1296,0,0
-280,-272,0,0,0,0,0,0,0,0,0,-1,944,1296,0,0
-273,-272,0,0,0,0,0,0,0,0,0,-1,951,1296,0,0
-266,-272,0,0,0,0,0,0,0,0,0,-1,958,1296,0,0
-259,-272,0,0,0,0,0,0,0,0,0,-1,965,1296,0,0
-252,-272,0,0,0,0,0,0,0,0,0,-1,972,1296,0,0
-245,-272,0,0,0,0,0,0,0,0,0,-1,979,1296,0,0
-238,-272,0,0,0,0,0,0,0,0,0,-1,986,1296,0,0
-231,-272,0,0,0,0,0,0,0,0,0,-1,993,1296,0,0
-224,-272,0,0,0,0,0,0,0,0,0,-1,1000,1296,0,0
-217,-272,0,0,0,0,0,0,0,0,0,-1,1007,1296,0,0
-210,-272,0,0,0,0,0,0,0,0,0,-1,1014,1296,0,0
-203,-272,0,0,0,0,0,0,0,0,0,-1,1021,1296,0,0
-196,-272,0,0,0,0,0,0,0,0,0,-1,1028,1296,0,0
-189,-272,0,0,0,0,0,0,0,0,0,-1,1035,1296,0,0
-182,-272,0,0,0,0,0,0,0,0,0,-1,1042,1296,0,0
-175,-272,0,0,0,0,0,0,0,0,0,-1,1049,1296,0,0
-168,-272,0,0,0,0,0,0,0,0,0,-1,1056,1296,0,0
-161,-272,0,0,0,0,0,0,0,0,0,-1,1063,1296,0,0
-154,-272,0,0,0,0,0,0,0,0,0,-1,1070,1296,0,0
-147,-272,0,0,0,0,0,0,0,0,0,-1,1077,1296,0,0
-140,-272,0,0,0,0,0,0,0,0,0,-1,1084,1296,0,0
-133,-272,0,0,0,0,0,0,0,0,0,-1,1091,1296,0,0
-126,-272,0,0,0,0,0,0,0,0,0,-1,1098,1296,0,0
-119,-272,0,0,0,0,0,0,0,0,0,-1,1105,1296,0,0
-112,-272,0,0,0,0,0,0,0,0,0,-1,1112,1296,0,0
-105,-272,0,0,0,0,0,0,0,0,0,-1,1119,1296,0,0
-98,-272,0,0,0,0,0,0,0,0,0,-1,1126,1296,0,0
-91,-272,0,0,0,0,0,0,0,0,0,-1,1133,1296,0,0
-84,-272,0,0,0,0,0,0,0,0,0,-1,1140,1296,0,0
-77,-272,0,0,0,0,0,0,0,0,0,-1,1147,1296,0,0
-70,-272,0,0,0,0,0,0,0,0,0,-1,1154,1296,0,0
-63,-272,0,0,0,0,0,0,0,0,0,-1,1161,1296,0,0
-56,-272,0,0,0,0,0,0,0,0,0,-1,1168,1296,0,0
-49,-272,0,0,0,0,0,0,0,0,0,-1,1175,1296,0,0
-42,-272,0,0,0,0,0,0,0,0,0,-1,1182,1296,0,0
-35,-272,0,0,0,0,0,0,0,0,0,-1,1189,1296,0,0
-28,-272,0,0,0,0,0,0,0,0,0,-1,1196,1296,0,0
-21,-272,0,0,0,0,0,0,0,0,0,-1,1203,1296,0,0
-14,-272,0,0,0,0,0,0,0,0,0,-1,1210,1296,0,0
-7,-272,0,0,0,0,0,0,0,0,0,-1,1217,1296,0,0
0,-272,0,0,0,0,0,0,0,0,0,-1,1224,1296,0,0
7,-272,0,0,0,0,0,0,0,0,0,-1,1231,1296,0,0
14,-272,0,0,0,0,0,0,0,0,0,-1,1238,1296,0,0
21,-272,0,0,0,0,0,0,0,0,0,-1,1245,1296,0,0
28,-272,0,0,0,0,0,0,0,0,0,-1,1252,1296,0,0
35,-272,0,0,0,0,0,0,0,0,0,-1,1259,1296,0,0
42,-272,0,0,0,0,0,0,0,0,0,-1,1266,1296,0,0
49,-272,0,0,0,0,0,0,0,0,0,-1,1273,1296,0,0
56,-272,0,0,0,0,0,0,0,0,0,-1,1280,1296,0,0
63,-272,0,0,0,0,0,0,0,0,0,-1,1287,1296,0,0
70,-272,0,0,0,0,0,0,0,0,0,-1,1294,1296,0,0
77,-272,0,0,0,0,0,0,0,0,0,-1,1301,1296,0,0
84,-272,0,0,0,0,0,0,0,0,0,-1,1308,1296,0,0
91,-272,0,0,0,0,0,0,0,0,0,-1,1315,1296,0,0
98,-272,0,0,0,0,0,0,0,0,0,-1,1322,1296,0,0
105,-272,0,0,0,0,0,0,0,0,0,-1,1329,1296,0,0
112,-272,0,0,0,0,0,0,0,0,0,-1,1336,1296,0,0
119,-272,0,0,0,0,0,0,0,0,0,-1,1343,1296,0,0
126,-272,0,0,0,0,0,0,0,0,0,-1,1350,1296,0,0
133,-272,0,0,0,0,0,0,0,0,0,-1,1357,1296,0,0
140,-272,0,0,0,0,0,0,0,0,0,-1,1364,1296,0,0
147,-272,0,0,0,0,0,0,0,0,0,-1,1371,1296,0,0
154,-272,0,0,0,0,0,0,0,0,0,-1,1378,1296,0,0
161,-272,0,0,0,0,0,0,0,0,0,-1,1385,1296,0,0
168,-272,0,0,0,0,0,0,0,0,0,-1,1392,1296,0,0
175,-272,0,0,0,0,0,0,0,0,0,-1,1399,1296,0,0
182,-272,0,0,0,0,0,0,0,0,0,-1,1406,1296,0,0
189,-272,0,0,0,0,0,0,0,0,0,-1,1413,1296,0,0
196,-272,0,0,0,0,0,0,0,0,0,-1,1420,1296,0,0
203,-272,0,0,0,0,0,0,0,0,0,-1,1427,1296,0,0
210,-272,0,0,0,0,0,0,0,0,0,-1,1434,1296,0,0
217,-272,0,0,0,0,0,0,0,0,0,-1,1441,1296,0,0
224,-272,0,0,0,0,0,0,0,0,0,-1,1448,1296,0,0
231,-272,0,0,0,0,0,0,0,0,0,-1,1455,1296,0,0
238,-272,0,0,0,0,0,0,0,0,0,-1,1462,1296,0,0
245,-272,0,0,0,0,0,0,0,0,0,-1,1469,1296,0,0
252,-272,0,0,0,0,0,0,0,0,0,-1,1476,1296,0,0
259,-272,0,0,0,0,0,0,0,0,0,-1,1483,1296,0,0
266,-272,0,0,0,0,0,0,0,0,0,-1,1490,1296,0,0
273,-272,0,0,0,0,0,0,0,0,0,-1,1497,1296,0,0
280,-272,0,0,0,0,0,0,0,0,0,-1,1504,1296,0,0
287,-272,0,0,0,0,0,0,0,0,0,-1,1511,1296,0,0
294,-272,0,0,0,0,0,0,0,0,0,-1,1518,1296,0,0
301,-272,0,0,0,0,0,0,0,0,0,-1,1525,1296,0,0
308,-272,0,0,0,0,0,0,0,0,0,-1,1532,1296,0,0
315,-272,0,0,0,0,0,0,0,0,0,-1,1539,1296,0,0
322,-272,0,0,0,0,0,0,0,0,0,-1,1546,1296,0,0
329,-272,0,0,0,0,0,0,0,0,0,-1,1553,1296,0,0
336,-272,0,0,0,0,0,0,0,0,0,-1,1560,1296,0,0
343,-272,0,0,0,0,0,0,0,0,0,-1,1567,1296,0,0
350,-272,0,0,0,0,0,0,0,0,0,-1,1574,1296,0,0
357,-272,0,0,0,0,0,0,0,0,0,-1,1581,1296,0,0
364,-272,0,0,0,0,0,0,0,0,0,-1,1588,1296,0,0
371,-272,0,0,0,0,0,0,0,0,0,-1,1595,1296,0,0
378,-272,0,0,0,0,0,0,0,0,0,-1,1602,1296,0,0
385,-272,0,0,0,0,0,0,0,0,0,-1,1609,1296,0,0
392,-272,0,0,0,0,0,0,0,0,0,-1,1616,1296,0,0
399,-272,0,0,0,0,0,0,0,0,0,-1,1623,1296,0,0
406,-272,0,0,0,0,0,0,0,0,0,-1,1630,1296,0,0
413,-272,0,0,0,0,0,0,0,0,0,-1,1637,1296,0,0
420,-272,0,0,0,0,0,0,0,0,0,-1,1644,1296,0,0
427,-272,0,0,0,0,0,0,0,0,0,-1,1651,1296,0,0
434,-272,0,0,0,0,0,0,0,0,0,-1,1658,1296,0,0
441,-272,0,0,0,0,0,0,0,0,0,-1,1665,1296,0,0
448,-272,0,0,0,0,0,0,0,0,0,-1,1672,1296,0,0
455,-272,0,0,0,0,0,0,0,0,0,-1,1679,1296,0,0
462,-272,0,0,0,0,0,0,0,0,0,-1,1686,1296,0,0
469,-272,0,0,0,0,0,0,0,0,0,-1,1693,1296,0,0
476,-272,0,0,0,0,0,0,0,0,0,-1,1700,1296,0,0
483,-272,0,0,0,0,0,0,0,0,0,-1,1707,1296,0,0
490,-272,0,0,0,0,0,0,0,0,0,-1,1714,1296,0,0
497,-272,0,0,0,0,0,0,0,0,0,-1,1721,1296,0,0
504,-272,0,0,0,0,0,0,0,0,0,-1,1728,1296,0,0
511,-272,0,0,0,0,0,0,0,0,0,-1,1735,1296,0,0
518,-272,0,0,0,0,0,0,0,0,0,-1,1742,1296,0,0
525,-272,0,0,0,0,0,0,0,0,0,-1,1749,1296,0,0
532,-272,0,0,0,0,0,0,0,0,0,-1,1756,1296,0,0
539,-272,0,0,0,0,0,0,0,0,0,-1,1763,1296,0,0
546,-272,0,0,0,0,0,0,0,0,0,-1,1770,1296,0,0
553,-272,0,0,0,0,0,0,0,0,0,-1,1777,1296,0,0
560,-272,0,0,0,0,0,0,0,0,0,-1,1784,1296,0,0
567,-272,0,0,0,0,0,0,0,0,0,-1,1791,1296,0,0
574,-272,0,0,0,0,0,0,0,0,0,-1,1798,1296,0,0
581,-272,0,0,0,0,0,0,0,0,0,-1,1805,1296,0,0
588,-272,0,0,0,0,0,0,0,0,0,-1,1812,1296,0,0
595,-272,0,0,0,0,0,0,0,0,0,-1,1819,1296,0,0
602,-272,46.4218,2.67419,0.0162607,0.0119603,0.0115721,0.0258807,0.00234028,0.693543,0.016529,0.0314014,1826,1296,46.4218,-2.67425
609,-272,46.3925,2.67053,0.0107116,0.0162429,0.0124963,0.026276,0.000678521,0.894302,0.0172956,0.0393169,1833,1296,46.3924,-2.67054
616,-272,46.5645,2.76233,0.00486449,0.0187072,0.0122943,0.0258945,-0.00232285,1.04177,0.0180871,0.044719,1840,1296,46.5645,-2.76231
623,-272,46.7128,2.54749,0,0,0,0,0,0,0,-1,1847,1296,46.7128,-2.54745
630,-272,46.5142,2.39795,0,0,0,0,0,0,0,-1,1854,1296,46.5142,-2.39794
637,-272,45.8207,2.41846,0,0,0,0,0,0,0,-1,1861,1296,45.8206,-2.41843
644,-272,44.7203,2.98547,0,0,0,0,0,0,0,-1,1868,1296,44.7203,-2.98543
651,-272,41.9225,4.27161,0,0,0,0,0,0,0,-1,1875,1296,41.9225,-4.27157
658,-272,35.1527,2.10571,0,0,0,0,0,0,0,-1,1882,1296,35.1527,-2.10573
665,-272,22.0238,4.14417,0,0,0,0,0,0,0,-1,1889,1296,22.0238,-4.14421
672,-272,22.661,7.21765,0,0,0,0,0,0,0,-1,1896,1296,22.661,-7.21761
679,-272,33.6145,10.3964,0,0,0,0,0,0,0,-1,1903,1296,33.6145,-10.3964
686,-272,33.6255,9.92175,-0.00248385,0.000595723,-7.68455e-05,0.000597639,-0.00248576,-1.54586,0.00188818,0.0228087,1910,1296,33.6254,-9.92173
693,-272,33.6394,9.45764,-0.000375015,-0.000328842,0.000256684,-9.42084e-05,-0.000609649,0.830249,0.000378953,0.0123653,1917,1296,33.6394,-9.4576
700,-272,33.6432,9.00781,0.000506979,-0.00096072,0.000752408,0.000824154,-0.0012779,0.398942,0.00122301,0.0125133,1924,1296,33.6432,-9.00783
707,-272,33.6401,8.54126,7.62172e-05,-0.000719998,0.000853001,0.000619438,-0.00126322,0.567065,0.00110793,0.0117507,1931,1296,33.6402,-8.54129
714,-272,33.6162,8.09827,-0.000161054,-0.000618079,0.000867421,0.000507449,-0.00128658,0.656605,0.00106785,0.0129344,1938,1296,33.6162,-8.09826
721,-272,33.582,7.68262,-0.000364797,-0.00061689,0.000878428,0.000396581,-0.00137827,0.714139,0.00107569,0.0166676,1945,1296,33.582,-7.68261
728,-272,33.5867,7.22498,-0.000438992,-0.000844896,0.000806752,0.000189944,-0.00147383,0.662172,0.0010516,0.0181417,1952,1296,33.5867,-7.22502
735,-272,33.5784,6.82153,-0.00028656,-0.00135723,0.000581985,-3.11421e-05,-0.00161265,0.413563,0.00106487,0.016208,1959,1296,33.5784,-6.82154
742,-272,33.4946,6.42053,0.000242985,-0.00230139,0.000110188,0.000247748,-0.00230616,0.0431986,0.00162632,0.0278673,1966,1296,33.4946,-6.42059
749,-272,33.5055,5.62415,0,0,0,0,0,0,0,-1,1973,1296,33.5055,-5.62415
756,-272,32.9099,5.30151,0,0,0,0,0,0,0,-1,1980,1296,32.9099,-5.30156
763,-272,34.3995,5.88416,0,0,0,0,0,0,0,-1,1987,1296,34.3996,-5.88419
770,-272,25.9485,3.67749,0,0,0,0,0,0,0,-1,1994,1296,25.9485,-3.67744
777,-272,32.3619,6.13257,0,0,0,0,0,0,0,-1,2001,1296,32.362,-6.1326
784,-272,0,0,0,0,0,0,0,0,0,-1,2008,1296,0,0
791,-272,0,0,0,0,0,0,0,0,0,-1,2015,1296,0,0
798,-272,0,0,0,0,0,0,0,0,0,-1,2022,1296,0,0
805,-272,0,0,0,0,0,0,0,0,0,-1,2029,1296,0,0
812,-272,0,0,0,0,0,0,0,0,0,-1,2036,1296,0,0
-700,-279,0,0,0,0,0,0,0,0,0,-1,524,1303,0,0
-693,-279,0,0,0,0,0,0,0,0,0,-1,531,1303,0,0
-686,-279,0,0,0,0,0,0,0,0,0,-1,538,1303,0,0
-679,-279,0,0,0,0,0,0,0,0,0,-1,545,1303,0,0
-672,-279,0,0,0,0,0,0,0,0,0,-1,552,1303,0,0
-665,-279,0,0,0,0,0,0,0,0,0,-1,559,1303,0,0
-658,-279,-18.0391,1.31946,0,0,0,0,0,0,0,-1,566,1303,-18.0391,-1.31942
-651,-279,-18.2878,1.5625,0,0,0,0,0,0,0,-1,573,1303,-18.2879,-1.56247
-644,-279,-19.7198,0.645874,0,0,0,0,0,0,0,-1,580,1303,-19.7198,-0.645909
-637,-279,-19.5298,0.346313,0,0,0,0,0,0,0,-1,587,1303,-19.5298,-0.346318
-630,-279,-19.8475,-0.60144,0,0,0,0,0,0,0,-1,594,1303,-19.8475,0.60148
-623,-279,-20.3243,3.43665,0,0,0,0,0,0,0,-1,601,1303,-20.3243,-3.43661
-616,-279,-20.4101,3.59741,0,0,0,0,0,0,0,-1,608,1303,-20.4101,-3.59747
-609,-279,-20.2426,3.76184,0.0108585,0.0111911,0.00585572,0.0168829,0.00516671,0.799597,0.00998882,0.0464115,615,1303,-20.2425,-3.76178
-602,-279,-19.9482,4.37537,0.00748598,0.00774353,0.00433588,0.0119525,0.00327696,0.800243,0.00713158,0.0154323,622,1303,-19.9482,-4.37541
-595,-279,-19.985,4.89551,0.00525422,0.0050934,0.00312358,0.00829843,0.0020492,0.772529,0.00499146,0.0103741,629,1303,-19.985,-4.8955
-588,-279,-19.9827,5.40527,0.00381511,0.00304713,0.00216079,0.00562576,0.00123648,0.697462,0.00341382,0.0115151,636,1303,-19.9826,-5.40529
-581,-279,-20.005,5.88318,0.00294494,0.00139831,0.00138471,0.00375764,0.000585617,0.530739,0.0023345,0.0123751,643,1303,-20.005,-5.88315
-574,-279,-20.0489,6.37793,0.00241277,-4.30572e-05,0.000764294,0.0026312,-0.00026149,0.278376,0.00184748,0.0122052,650,1303,-20.0489,-6.37796
-567,-279,-20.0874,6.86829,0.00237878,-0.0010775,0.000274133,0.00240038,-0.00109911,0.0786593,0.00206647,0.0162085,657,1303,-20.0874,-6.86832
-560,-279,-20.099,7.39771,0.00261024,-0.00179381,-2.62064e-05,0.0026104,-0.00179396,-0.00595024,0.00255738,0.0161924,664,1303,-20.099,-7.39772
-553,-279,-20.0832,7.9021,0.00292333,-0.00219679,-8.88269e-05,0.00292487,-0.00219833,-0.0173417,0.00296778,0.013197,671,1303,-20.0832,-7.90208
-546,-279,-20.0494,8.37439,0.00293637,-0.0021692,-0.00014728,0.00294062,-0.00217345,-0.028815,0.00296366,0.0245747,678,1303,-20.0495,-8.37437
-539,-279,-20.0552,8.7677,0,0,0,0,0,0,0,-1,685,1303,-20.0552,-8.76766
-532,-279,-14.9813,7.89917,0,0,0,0,0,0,0,-1,692,1303,-14.9813,-7.89918
-525,-279,-11.7063,-0.539185,0,0,0,0,0,0,0,-1,699,1303,-11.7063,0.539166
-518,-279,-16.8138,1.11963,0,0,0,0,0,0,0,-1,706,1303,-16.8138,-1.11968
-511,-279,-20.1063,-1.37915,0,0,0,0,0,0,0,-1,713,1303,-20.1062,1.37918
-504,-279,-18.3766,1.04578,0,0,0,0,0,0,0,-1,720,1303,-18.3767,-1.04577
-497,-279,-19.0046,2.08911,0,0,0,0,0,0,0,-1,727,1303,-19.0046,-2.08905
-490,-279,-20.0176,2.55188,0,0,0,0,0,0,0,-1,734,1303,-20.0176,-2.55183
-483,-279,-20.8064,2.99792,0,0,0,0,0,0,0,-1,741,1303,-20.8064,-2.99797
-476,-279,0,0,0,0,0,0,0,0,0,-1,748,1303,0,0
-469,-279,0,0,0,0,0,0,0,0,0,-1,755,1303,0,0
-462,-279,0,0,0,0,0,0,0,0,0,-1,762,1303,0,0
-455,-279,0,0,0,0,0,0,0,0,0,-1,769,1303,0,0
-448,-279,0,0,0,0,0,0,0,0,0,-1,776,1303,0,0
-441,-279,0,0,0,0,0,0,0,0,0,-1,783,1303,0,0
-434,-279,0,0,0,0,0,0,0,0,0,-1,790,1303,0,0
-427,-279,0,0,0,0,0,0,0,0,0,-1,797,1303,0,0
-420,-279,0,0,0,0,0,0,0,0,0,-1,804,1303,0,0
-413,-279,0,0,0,0,0,0,0,0,0,-1,811,1303,0,0
-406,-279,0,0,0,0,0,0,0,0,0,-1,818,1303,0,0
-399,-279,0,0,0,0,0,0,0,0,0,-1,825,1303,0,0
-392,-279,0,0,0,0,0,0,0,0,0,-1,832,1303,0,0
-385,-279,0,0,0,0,0,0,0,0,0,-1,839,1303,0,0
-378,-279,0,0,0,0,0,0,0,0,0,-1,846,1303,0,0
-371,-279,0,0,0,0,0,0,0,0,0,-1,853,1303,0,0
-364,-279,0,0,0,0,0,0,0,0,0,-1,860,1303,0,0
-357,-279,0,0,0,0,0,0,0,0,0,-1,867,1303,0,0
-350,-279,0,0,0,0,0,0,0,0,0,-1,874,1303,0,0
-343,-279,0,0,0,0,0,0,0,0,0,-1,881,1303,0,0
-336,-279,0,0,0,0,0,0,0,0,0,-1,888,1303,0,0
-329,-279,0,0,0,0,0,0,0,0,0,-1,895,1303,0,0
-322,-279,0,0,0,0,0,0,0,0,0,-1,902,1303,0,0
-315,-279,0,0,0,0,0,0,0,0,0,-1,909,1303,0,0
-308,-279,0,0,0,0,0,0,0,0,0,-1,916,1303,0,0
-301,-279,0,0,0,0,0,0,0,0,0,-1,923,1303,0,0
-294,-279,0,0,0,0,0,0,0,0,0,-1,930,1303,0,0
-287,-279,0,0,0,0,0,0,0,0,0,-1,937,1303,0,0
-280,-279,0,0,0,0,0,0,0,0,0,-1,944,1303,0,0
-273,-279,0,0,0,0,0,0,0,0,0,-1,951,1303,0,0
-266,-279,0,0,0,0,0,0,0,0,0,-1,958,1303,0,0
-259,-279,0,0,0,0,0,0,0,0,0,-1,965,1303,0,0
-252,-279,0,0,0,0,0,0,0,0,0,-1,972,1303,0,0
-245,-279,0,0,0,0,0,0,0,0,0,-1,979,1303,0,0
-238,-279,0,0,0,0,0,0,0,0,0,-1,986,1303,0,0
-231,-279,0,0,0,0,0,0,0,0,0,-1,993,1303,0,0
-224,-279,0,0,0,0,0,0,0,0,0,-1,1000,1303,0,0
-217,-279,0,0,0,0,0,0,0,0,0,-1,1007,1303,0,0
-210,-279,0,0,0,0,0,0,0,0,0,-1,1014,1303,0,0
-203,-279,0,0,0,0,0,0,0,0,0,-1,1021,1303,0,0
-196,-279,0,0,0,0,0,0,0,0,0,-1,1028,1303,0,0
-189,-279,0,0,0,0,0,0,0,0,0,-1,1035,1303,0,0
-182,-279,0,0,0,0,0,0,0,0,0,-1,1042,1303,0,0
-175,-279,0,0,0,0,0,0,0,0,0,-1,1049,1303,0,0
-168,-279,0,0,0,0,0,0,0,0,0,-1,1056,1303,0,0
-161,-279,0,0,0,0,0,0,0,0,0,-1,1063,1303,0,0
-154,-279,0,0,0,0,0,0,0,0,0,-1,1070,1303,0,0
-147,-279,0,0,0,0,0,0,0,0,0,-1,1077,1303,0,0
-140,-279,0,0,0,0,0,0,0,0,0,-1,1084,1303,0,0
-133,-279,0,0,0,0,0,0,0,0,0,-1,1091,1303,0,0
-126,-279,0,0,0,0,0,0,0,0,0,-1,1098,1303,0,0
-119,-279,0,0,0,0,0,0,0,0,0,-1,1105,1303,0,0
-112,-279,0,0,0,0,0,0,0,0,0,-1,1112,1303,0,0
-105,-279,0,0,0,0,0,0,0,0,0,-1,1119,1303,0,0
-98,-279,0,0,0,0,0,0,0,0,0,-1,1126,1303,0,0
-91,-279,0,0,0,0,0,0,0,0,0,-1,1133,1303,0,0
-84,-279,0,0,0,0,0,0,0,0,0,-1,1140,1303,0,0
-77,-279,0,0,0,0,0,0,0,0,0,-1,1147,1303,0,0
-70,-279,0,0,0,0,0,0,0,0,0,-1,1154,1303,0,0
-63,-279,0,0,0,0,0,0,0,0,0,-1,1161,1303,0,0
-56,-279,0,0,0,0,0,0,0,0,0,-1,1168,1303,0,0
-49,-279,0,0,0,0,0,0,0,0,0,-1,1175,1303,0,0
-42,-279,0,0,0,0,0,0,0,0,0,-1,1182,1303,0,0
-35,-279,0,0,0,0,0,0,0,0,0,-1,1189,1303,0,0
-28,-279,0,0,0,0,0,0,0,0,0,-1,1196,1303,0,0
-21,-279,0,0,0,0,0,0,0,0,0,-1,1203,1303,0,0
-14,-279,0,0,0,0,0,0,0,0,0,-1,1210,1303,0,0
-7,-279,0,0,0,0,0,0,0,0,0,-1,1217,1303,0,0
0,-279,0,0,0,0,0,0,0,0,0,-1,1224,1303,0,0
7,-279,0,0,0,0,0,0,0,0,0,-1,1231,1303,0,0
14,-279,0,0,0,0,0,0,0,0,0,-1,1238,1303,0,0
21,-279,0,0,0,0,0,0,0,0,0,-1,1245,1303,0,0
28,-279,0,0,0,0,0,0,0,0,0,-1,1252,1303,0,0
35,-279,0,0,0,0,0,0,0,0,0,-1,1259,1303,0,0
42,-279,0,0,0,0,0,0,0,0,0,-1,1266,1303,0,0
49,-279,0,0,0,0,0,0,0,0,0,-1,1273,1303,0,0
56,-279,0,0,0,0,0,0,0,0,0,-1,1280,1303,0,0
63,-279,0,0,0,0,0,0,0,0,0,-1,1287,1303,0,0
70,-279,0,0,0,0,0,0,0,0,0,-1,1294,1303,0,0
77,-279,0,0,0,0,0,0,0,0,0,-1,1301,1303,0,0
84,-279,0,0,0,0,0,0,0,0,0,-1,1308,1303,0,0
91,-279,0,0,0,0,0,0,0,0,0,-1,1315,1303,0,0
98,-279,0,0,0,0,0,0,0,0,0,-1,1322,1303,0,0
105,-279,0,0,0,0,0,0,0,0,0,-1,1329,1303,0,0
112,-279,0,0,0,0,0,0,0,0,0,-1,1336,1303,0,0
119,-279,0,0,0,0,0,0,0,0,0,-1,1343,1303,0,0
126,-279,0,0,0,0,0,0,0,0,0,-1,1350,1303,0,0
133,-279,0,0,0,0,0,0,0,0,0,-1,1357,1303,0,0
140,-279,0,0,0,0,0,0,0,0,0,-1,1364,1303,0,0
147,-279,0,0,0,0,0,0,0,0,0,-1,1371,1303,0,0
154,-279,0,0,0,0,0,0,0,0,0,-1,1378,1303,0,0
161,-279,0,0,0,0,0,0,0,0,0,-1,1385,1303,0,0
168,-279,0,0,0,0,0,0,0,0,0,-1,1392,1303,0,0
175,-279,0,0,0,0,0,0,0,0,0,-1,1399,1303,0,0
182,-279,0,0,0,0,0,0,0,0,0,-1,1406,1303,0,0
189,-279,0,0,0,0,0,0,0,0,0,-1,1413,1303,0,0
196,-279,0,0,0,0,0,0,0,0,0,-1,1420,1303,0,0
203,-279,0,0,0,0,0,0,0,0,0,-1,1427,1303,0,0
210,-279,0,0,0,0,0,0,0,0,0,-1,1434,1303,0,0
217,-279,0,0,0,0,0,0,0,0,0,-1,1441,1303,0,0
224,-279,0,0,0,0,0,0,0,0,0,-1,1448,1303,0,0
231,-279,0,0,0,0,0,0,0,0,0,-1,1455,1303,0,0
238,-279,0,0,0,0,0,0,0,0,0,-1,1462,1303,0,0
245,-279,0,0,0,0,0,0,0,0,0,-1,1469,1303,0,0
252,-279,0,0,0,0,0,0,0,0,0,-1,1476,1303,0,0
259,-279,0,0,0,0,0,0,0,0,0,-1,1483,1303,0,0
266,-279,0,0,0,0,0,0,0,0,0,-1,1490,1303,0,0
273,-279,0,0,0,0,0,0,0,0,0,-1,1497,1303,0,0
280,-279,0,0,0,0,0,0,0,0,0,-1,1504,1303,0,0
287,-279,0,0,0,0,0,0,0,0,0,-1,1511,1303,0,0
294,-279,0,0,0,0,0,0,0,0,0,-1,1518,1303,0,0
301,-279,0,0,0,0,0,0,0,0,0,-1,1525,1303,0,0
308,-279,0,0,0,0,0,0,0,0,0,-1,1532,1303,0,0
315,-279,0,0,0,0,0,0,0,0,0,-1,1539,1303,0,0
322,-279,0,0,0,0,0,0,0,0,0,-1,1546,1303,0,0
329,-279,0,0,0,0,0,0,0,0,0,-1,1553,1303,0,0
336,-279,0,0,0,0,0,0,0,0,0,-1,1560,1303,0,0
343,-279,0,0,0,0,0,0,0,0,0,-1,1567,1303,0,0
350,-279,0,0,0,0,0,0,0,0,0,-1,1574,1303,0,0
357,-279,0,0,0,0,0,0,0,0,0,-1,1581,1303,0,0
364,-279,0,0,0,0,0,0,0,0,0,-1,1588,1303,0,0
371,-279,0,0,0,0,0,0,0,0,0,-1,1595,1303,0,0
378,-279,0,0,0,0,0,0,0,0,0,-1,1602,1303,0,0
385,-279,0,0,0,0,0,0,0,0,0,-1,1609,1303,0,0
392,-279,0,0,0,0,0,0,0,0,0,-1,1616,1303,0,0
399,-279,0,0,0,0,0,0,0,0,0,-1,1623,1303,0,0
406,-279,0,0,0,0,0,0,0,0,0,-1,1630,1303,0,0
413,-279,0,0,0,0,0,0,0,0,0,-1,1637,1303,0,0
420,-279,0,0,0,0,0,0,0,0,0,-1,1644,1303,0,0
427,-279,0,0,0,0,0,0,0,0,0,-1,1651,1303,0,0
434,-279,0,0,0,0,0,0,0,0,0,-1,1658,1303,0,0
441,-279,0,0,0,0,0,0,0,0,0,-1,1665,1303,0,0
448,-279,0,0,0,0,0,0,0,0,0,-1,1672,1303,0,0
455,-279,0,0,0,0,0,0,0,0,0,-1,1679,1303,0,0
462,-279,0,0,0,0,0,0,0,0,0,-1,1686,1303,0,0
469,-279,0,0,0,0,0,0,0,0,0,-1,1693,1303,0,0
476,-279,0,0,0,0,0,0,0,0,0,-1,1700,1303,0,0
483,-279,0,0,0,0,0,0,0,0,0,-1,1707,1303,0,0
490,-279,0,0,0,0,0,0,0,0,0,-1,1714,1303,0,0
497,-279,0,0,0,0,0,0,0,0,0,-1,1721,1303,0,0
504,-279,0,0,0,0,0,0,0,0,0,-1,1728,1303,0,0
511,-279,0,0,0,0,0,0,0,0,0,-1,1735,1303,0,0
518,-279,0,0,0,0,0,0,0,0,0,-1,1742,1303,0,0
525,-279,0,0,0,0,0,0,0,0,0,-1,1749,1303,0,0
532,-279,0,0,0,0,0,0,0,0,0,-1,1756,1303,0,0
539,-279,0,0,0,0,0,0,0,0,0,-1,1763,1303,0,0
546,-279,0,0,0,0,0,0,0,0,0,-1,1770,1303,0,0
553,-279,0,0,0,0,0,0,0,0,0,-1,1777,1303,0,0
560,-279,0,0,0,0,0,0,0,0,0,-1,1784,1303,0,0
567,-279,0,0,0,0,0,0,0,0,0,-1,1791,1303,0,0
574,-279,0,0,0,0,0,0,0,0,0,-1,1798,1303,0,0
581,-279,0,0,0,0,0,0,0,0,0,-1,1805,1303,0,0
588,-279,0,0,0,0,0,0,0,0,0,-1,1812,1303,0,0
595,-279,0,0,0,0,0,0,0,0,0,-1,1819,1303,0,0
602,-279,46.4618,2.67822,0,0,0,0,0,0,0,-1,1826,1303,46.4618,-2.67817
609,-279,46.3262,2.64612,0,0,0,0,0,0,0,-1,1833,1303,46.3262,-2.64607
616,-279,46.4512,2.74146,0,0,0,0,0,0,0,-1,1840,1303,46.4512,-2.74144
623,-279,46.8412,2.33862,0,0,0,0,0,0,0,-1,1847,1303,46.8412,-2.33861
630,-279,46.3394,2.40747,0,0,0,0,0,0,0,-1,1854,1303,46.3393,-2.40744
637,-279,45.8374,2.47632,0,0,0,0,0,0,0,-1,1861,1303,45.8374,-2.47626
644,-279,33.5021,3.40234,0,0,0,0,0,0,0,-1,1868,1303,33.5021,-3.40237
651,-279,29.8456,2.3562,0,0,0,0,0,0,0,-1,1875,1303,29.8455,-2.35615
658,-279,21.5076,7.65649,0,0,0,0,0,0,0,-1,1882,1303,21.5076,-7.65648
665,-279,18.9794,6.09607,0,0,0,0,0,0,0,-1,1889,1303,18.9793,-6.09601
672,-279,23.5206,8.32507,0,0,0,0,0,0,0,-1,1896,1303,23.5206,-8.32512
679,-279,33.1025,10.3987,0,0,0,0,0,0,0,-1,1903,1303,33.1025,-10.3986
686,-279,33.163,9.95032,-0.00175469,5.82876e-05,-0.00024367,9.04663e-05,-0.00178687,-1.4395,0.00122252,0.0260017,1910,1303,33.163,-9.95029
693,-279,33.1748,9.49146,0.00011941,-0.000611343,-7.93514e-06,0.000119496,-0.000611429,-0.0108571,0.000452739,0.0172568,1917,1303,33.1748,-9.4914
700,-279,33.1809,9.03906,0.000678129,-0.000861493,0.000463656,0.000806976,-0.000990339,0.271054,0.00103948,0.0127839,1924,1303,33.181,-9.03908
707,-279,33.1614,8.57751,0.000204263,-0.00058749,0.000666298,0.000583417,-0.000966643,0.517347,0.000903999,0.00984324,1931,1303,33.1614,-8.57748
714,-279,33.1442,8.12305,-0.000127094,-0.000503286,0.000767622,0.000475141,-0.00110552,0.665247,0.000936475,0.0104809,1938,1303,33.1442,-8.12305
721,-279,33.1799,7.67041,-0.00045783,-0.000498742,0.000867358,0.000389314,-0.00134588,0.773608,0.00105134,0.014375,1945,1303,33.18,-7.67043
728,-279,33.1896,7.2373,-0.000675406,-0.000712186,0.000882101,0.000188497,-0.00157609,0.774976,0.00111886,0.0163999,1952,1303,33.1895,-7.2373
735,-279,33.1346,6.84875,-0.000679568,-0.00120015,0.000722577,-0.000171831,-0.00170789,0.612519,0.00108586,0.0160217,1959,1303,33.1347,-6.84872
742,-279,33,6.4729,-0.000309644,-0.00216299,0.000280585,-0.000268097,-0.00220454,0.147006,0.00138898,0.0316123,1966,1303,33,-6.47286
749,-279,32.9967,6.05151,0,0,0,0,0,0,0,-1,1973,1303,32.9967,-6.05156
756,-279,23.2091,4.43433,0,0,0,0,0,0,0,-1,1980,1303,23.2092,-4.43432
763,-279,27.1613,3.46265,0,0,0,0,0,0,0,-1,1987,1303,27.1613,-3.4627
770,-279,21.5828,3.54199,0,0,0,0,0,0,0,-1,1994,1303,21.5827,-3.54198
777,-279,32.5369,6.99609,0,0,0,0,0,0,0,-1,2001,1303,32.5369,-6.99608
784,-279,0,0,0,0,0,0,0,0,0,-1,2008,1303,0,0
791,-279,0,0,0,0,0,0,0,0,0,-1,2015,1303,0,0
798,-279,0,0,0,0,0,0,0,0,0,-1,2022,1303,0,0
805,-279,0,0,0,0,0,0,0,0,0,-1,2029,1303,0,0
812,-279,0,0,0,0,0,0,0,0,0,-1,2036,1303,0,0
-700,-286,0,0,0,0,0,0,0,0,0,-1,524,1310,0,0
-693,-286,0,0,0,0,0,0,0,0,0,-1,531,1310,0,0
-686,-286,0,0,0,0,0,0,0,0,0,-1,538,1310,0,0
-679,-286,0,0,0,0,0,0,0,0,0,-1,545,1310,0,0
-672,-286,0,0,0,0,0,0,0,0,0,-1,552,1310,0,0
-665,-286,0,0,0,0,0,0,0,0,0,-1,559,1310,0,0
-658,-286,-18.8017,-0.794922,0,0,0,0,0,0,0,-1,566,1310,-18.8017,0.79496
-651,-286,-18.798,0.594727,0,0,0,0,0,0,0,-1,573,1310,-18.798,-0.594671
-644,-286,-19.1089,1.80017,0,0,0,0,0,0,0,-1,580,1310,-19.1089,-1.80021
-637,-286,-19.4593,2.65125,0,0,0,0,0,0,0,-1,587,1310,-19.4593,-2.65124
-630,-286,-19.6556,3.39246,0,0,0,0,0,0,0,-1,594,1310,-19.6556,-3.39242
-623,-286,-20.1415,-1.72998,0,0,0,0,0,0,0,-1,601,1310,-20.1415,1.72995
-616,-286,-20.4424,2.71765,0,0,0,0,0,0,0,-1,608,1310,-20.4424,-2.71771
-609,-286,-19.5375,3.61365,0,0,0,0,0,0,0,-1,615,1310,-19.5375,-3.61362
-602,-286,-19.4722,4.30872,0.006715,0.00791523,0.00516094,0.0125108,0.0021194,0.843278,0.00773153,0.0207819,622,1310,-19.4722,-4.30874
-595,-286,-19.5095,4.91382,0.00481911,0.00532075,0.00369747,0.0087759,0.00136396,0.819264,0.0054531,0.0120109,629,1310,-19.5095,-4.91376
-588,-286,-19.497,5.42017,0.00355589,0.00335085,0.002564,0.00601942,0.00088732,0.765417,0.00375231,0.0134517,636,1310,-19.497,-5.42011
-581,-286,-19.482,5.8927,0.0027676,0.00177915,0.00167186,0.00401676,0.000529991,0.641684,0.00251982,0.0147548,643,1310,-19.482,-5.8927
-574,-286,-19.5228,6.39355,0.00229275,0.000431105,0.00095745,0.00269727,2.65853e-05,0.399749,0.00178939,0.0144072,650,1310,-19.5228,-6.39354
-567,-286,-19.5629,6.89758,0.00214525,-0.000598063,0.000400266,0.00220246,-0.000655271,0.141964,0.00172864,0.0139147,657,1310,-19.5629,-6.8976
-560,-286,-19.5792,7.41406,0.00230274,-0.00142241,1.56947e-05,0.00230281,-0.00142248,0.00421306,0.00217072,0.0131231,664,1310,-19.5792,-7.41405
-553,-286,-19.5778,7.92615,0.00270257,-0.00199021,-0.000178186,0.00270933,-0.00199697,-0.0378974,0.00272754,0.00994707,671,1310,-19.5778,-7.9262
-546,-286,-19.5601,8.42761,0.00302346,-0.00222657,-0.000303408,0.00304094,-0.00224405,-0.0575363,0.00306283,0.0188083,678,1310,-19.5601,-8.42767
-539,-286,-19.5664,8.85596,0.00356072,-0.00247717,-0.000234731,0.00356983,-0.00248628,-0.0387983,0.0035151,0.0443364,685,1310,-19.5664,-8.85595
-532,-286,-19.4692,9.25854,0,0,0,0,0,0,0,-1,692,1310,-19.4692,-9.25858
-525,-286,-11.4528,-1.11768,0,0,0,0,0,0,0,-1,699,1310,-11.4528,1.11769
-518,-286,-11.0701,1.37329,0,0,0,0,0,0,0,-1,706,1310,-11.0701,-1.37332
-511,-286,-17.7545,-0.0791016,0,0,0,0,0,0,0,-1,713,1310,-17.7544,0.0791606
-504,-286,-18.0455,1.29602,0,0,0,0,0,0,0,-1,720,1310,-18.0455,-1.29601
-497,-286,-18.3367,2.67114,0,0,0,0,0,0,0,-1,727,1310,-18.3366,-2.67118
-490,-286,-19.5795,2.47266,0,0,0,0,0,0,0,-1,734,1310,-19.5795,-2.4727
-483,-286,-19.7277,2.74744,0,0,0,0,0,0,0,-1,741,1310,-19.7277,-2.74747
-476,-286,-20.0391,3.06177,0,0,0,0,0,0,0,-1,748,1310,-20.0391,-3.06178
-469,-286,0,0,0,0,0,0,0,0,0,-1,755,1310,0,0
-462,-286,0,0,0,0,0,0,0,0,0,-1,762,1310,0,0
-455,-286,0,0,0,0,0,0,0,0,0,-1,769,1310,0,0
-448,-286,0,0,0,0,0,0,0,0,0,-1,776,1310,0,0
-441,-286,0,0,0,0,0,0,0,0,0,-1,783,1310,0,0
-434,-286,0,0,0,0,0,0,0,0,0,-1,790,1310,0,0
-427,-286,0,0,0,0,0,0,0,0,0,-1,797,1310,0,0
-420,-286,0,0,0,0,0,0,0,0,0,-1,804,1310,0,0
-413,-286,0,0,0,0,0,0,0,0,0,-1,811,1310,0,0
-406,-286,0,0,0,0,0,0,0,0,0,-1,818,1310,0,0
-399,-286,0,0,0,0,0,0,0,0,0,-1,825,1310,0,0
-392,-286,0,0,0,0,0,0,0,0,0,-1,832,1310,0,0
-385,-286,0,0,0,0,0,0,0,0,0,-1,839,1310,0,0
-378,-286,0,0,0,0,0,0,0,0,0,-1,846,1310,0,0
-371,-286,0,0,0,0,0,0,0,0,0,-1,853,1310,0,0
-364,-286,0,0,0,0,0,0,0,0,0,-1,860,1310,0,0
-357,-286,0,0,0,0,0,0,0,0,0,-1,867,1310,0,0
-350,-286,0,0,0,0,0,0,0,0,0,-1,874,1310,0,0
-343,-286,0,0,0,0,0,0,0,0,0,-1,881,1310,0,0
-336,-286,0,0,0,0,0,0,0,0,0,-1,888,1310,0,0
-329,-286,0,0,0,0,0,0,0,0,0,-1,895,1310,0,0
-322,-286,0,0,0,0,0,0,0,0,0,-1,902,1310,0,0
-315,-286,0,0,0,0,0,0,0,0,0,-1,909,1310,0,0
-308,-286,0,0,0,0,0,0,0,0,0,-1,916,1310,0,0
-301,-286,0,0,0,0,0,0,0,0,0,-1,923,1310,0,0
-294,-286,0,0,0,0,0,0,0,0,0,-1,930,1310,0,0
-287,-286,0,0,0,0,0,0,0,0,0,-1,937,1310,0,0
-280,-286,0,0,0,0,0,0,0,0,0,-1,944,1310,0,0
-273,-286,0,0,0,0,0,0,0,0,0,-1,951,1310,0,0
-266,-286,0,0,0,0,0,0,0,0,0,-1,958,1310,0,0
-259,-286,0,0,0,0,0,0,0,0,0,-1,965,1310,0,0
-252,-286,0,0,0,0,0,0,0,0,0,-1,972,1310,0,0
-245,-286,0,0,0,0,0,0,0,0,0,-1,979,1310,0,0
-238,-286,0,0,0,0,0,0,0,0,0,-1,986,1310,0,0
-231,-286,0,0,0,0,0,0,0,0,0,-1,993,1310,0,0
-224,-286,0,0,0,0,0,0,0,0,0,-1,1000,1310,0,0
-217,-286,0,0,0,0,0,0,0,0,0,-1,1007,1310,0,0
-210,-286,0,0,0,0,0,0,0,0,0,-1,1014,1310,0,0
-203,-286,0,0,0,0,0,0,0,0,0,-1,1021,1310,0,0
-196,-286,0,0,0,0,0,0,0,0,0,-1,1028,1310,0,0
-189,-286,0,0,0,0,0,0,0,0,0,-1,1035,1310,0,0
-182,-286,0,0,0,0,0,0,0,0,0,-1,1042,1310,0,0
-175,-286,0,0,0,0,0,0,0,0,0,-1,1049,1310,0,0
-168,-286,0,0,0,0,0,0,0,0,0,-1,1056,1310,0,0
-161,-286,0,0,0,0,0,0,0,0,0,-1,1063,1310,0,0
-154,-286,0,0,0,0,0,0,0,0,0,-1,1070,1310,0,0
-147,-286,0,0,0,0,0,0,0,0,0,-1,1077,1310,0,0
-140,-286,0,0,0,0,0,0,0,0,0,-1,1084,1310,0,0
-133,-286,0,0,0,0,0,0,0,0,0,-1,1091,1310,0,0
-126,-286,0,0,0,0,0,0,0,0,0,-1,1098,1310,0,0
-119,-286,0,0,0,0,0,0,0,0,0,-1,1105,1310,0,0
-112,-286,0,0,0,0,0,0,0,0,0,-1,1112,1310,0,0
-105,-286,0,0,0,0,0,0,0,0,0,-1,1119,1310,0,0
-98,-286,0,0,0,0,0,0,0,0,0,-1,1126,1310,0,0
-91,-286,0,0,0,0,0,0,0,0,0,-1,1133,1310,0,0
-84,-286,0,0,0,0,0,0,0,0,0,-1,1140,1310,0,0
-77,-286,0,0,0,0,0,0,0,0,0,-1,1147,1310,0,0
-70,-286,0,0,0,0,0,0,0,0,0,-1,1154,1310,0,0
-63,-286,0,0,0,0,0,0,0,0,0,-1,1161,1310,0,0
-56,-286,0,0,0,0,0,0,0,0,0,-1,1168,1310,0,0
-49,-286,0,0,0,0,0,0,0,0,0,-1,1175,1310,0,0
-42,-286,0,0,0,0,0,0,0,0,0,-1,1182,1310,0,0
-35,-286,0,0,0,0,0,0,0,0,0,-1,1189,1310,0,0
-28,-286,0,0,0,0,0,0,0,0,0,-1,1196,1310,0,0
-21,-286,0,0,0,0,0,0,0,0,0,-1,1203,1310,0,0
-14,-286,0,0,0,0,0,0,0,0,0,-1,1210,1310,0,0
-7,-286,0,0,0,0,0,0,0,0,0,-1,1217,1310,0,0
0,-286,0,0,0,0,0,0,0,0,0,-1,1224,1310,0,0
7,-286,0,0,0,0,0,0,0,0,0,-1,1231,1310,0,0
14,-286,0,0,0,0,0,0,0,0,0,-1,1238,1310,0,0
21,-286,0,0,0,0,0,0,0,0,0,-1,1245,1310,0,0
28,-286,0,0,0,0,0,0,0,0,0,-1,1252,1310,0,0
35,-286,0,0,0,0,0,0,0,0,0,-1,1259,1310,0,0
42,-286,0,0,0,0,0,0,0,0,0,-1,1266,1310,0,0
49,-286,0,0,0,0,0,0,0,0,0,-1,1273,1310,0,0
56,-286,0,0,0,0,0,0,0,0,0,-1,1280,1310,0,0
63,-286,0,0,0,0,0,0,0,0,0,-1,1287,1310,0,0
70,-286,0,0,0,0,0,0,0,0,0,-1,1294,1310,0,0
77,-286,0,0,0,0,0,0,0,0,0,-1,1301,1310,0,0
84,-286,0,0,0,0,0,0,0,0,0,-1,1308,1310,0,0
91,-286,0,0,0,0,0,0,0,0,0,-1,1315,1310,0,0
98,-286,0,0,0,0,0,0,0,0,0,-1,1322,1310,0,0
105,-286,0,0,0,0,0,0,0,0,0,-1,1329,1310,0,0
112,-286,0,0,0,0,0,0,0,0,0,-1,1336,1310,0,0
119,-286,0,0,0,0,0,0,0,0,0,-1,1343,1310,0,0
126,-286,0,0,0,0,0,0,0,0,0,-1,1350,1310,0,0
133,-286,0,0,0,0,0,0,0,0,0,-1,1357,1310,0,0
140,-286,0,0,0,0,0,0,0,0,0,-1,1364,1310,0,0
147,-286,0,0,0,0,0,0,0,0,0,-1,1371,1310,0,0
154,-286,0,0,0,0,0,0,0,0,0,-1,1378,1310,0,0
161,-286,0,0,0,0,0,0,0,0,0,-1,1385,1310,0,0
168,-286,0,0,0,0,0,0,0,0,0,-1,1392,1310,0,0
175,-286,0,0,0,0,0,0,0,0,0,-1,1399,1310,0,0
182,-286,0,0,0,0,0,0,0,0,0,-1,1406,1310,0,0
189,-286,0,0,0,0,0,0,0,0,0,-1,1413,1310,0,0
196,-286,0,0,0,0,0,0,0,0,0,-1,1420,1310,0,0
203,-286,0,0,0,0,0,0,0,0,0,-1,1427,1310,0,0
210,-286,0,0,0,0,0,0,0,0,0,-1,1434,1310,0,0
217,-286,0,0,0,0,0,0,0,0,0,-1,1441,1310,0,0
224,-286,0,0,0,0,0,0,0,0,0,-1,1448,1310,0,0
231,-286,0,0,0,0,0,0,0,0,0,-1,1455,1310,0,0
238,-286,0,0,0,0,0,0,0,0,0,-1,1462,1310,0,0
245,-286,0,0,0,0,0,0,0,0,0,-1,1469,1310,0,0
252,-286,0,0,0,0,0,0,0,0,0,-1,1476,1310,0,0
259,-286,0,0,0,0,0,0,0,0,0,-1,1483,1310,0,0
266,-286,0,0,0,0,0,0,0,0,0,-1,1490,1310,0,0
273,-286,0,0,0,0,0,0,0,0,0,-1,1497,1310,0,0
280,-286,0,0,0,0,0,0,0,0,0,-1,1504,1310,0,0
287,-286,0,0,0,0,0,0,0,0,0,-1,1511,1310,0,0
294,-286,0,0,0,0,0,0,0,0,0,-1,1518,1310,0,0
301,-286,0,0,0,0,0,0,0,0,0,-1,1525,1310,0,0
308,-286,0,0,0,0,0,0,0,0,0,-1,1532,1310,0,0
315,-286,0,0,0,0,0,0,0,0,0,-1,1539,1310,0,0
322,-286,0,0,0,0,0,0,0,0,0,-1,1546,1310,0,0
329,-286,0,0,0,0,0,0,0,0,0,-1,1553,1310,0,0
336,-286,0,0,0,0,0,0,0,0,0,-1,1560,1310,0,0
343,-286,0,0,0,0,0,0,0,0,0,-1,1567,1310,0,0
350,-286,0,0,0,0,0,0,0,0,0,-1,1574,1310,0,0
357,-286,0,0,0,0,0,0,0,0,0,-1,1581,1310,0,0
364,-286,0,0,0,0,0,0,0,0,0,-1,1588,1310,0,0
371,-286,0,0,0,0,0,0,0,0,0,-1,1595,1310,0,0
378,-286,0,0,0,0,0,0,0,0,0,-1,1602,1310,0,0
385,-286,0,0,0,0,0,0,0,0,0,-1,1609,1310,0,0
392,-286,0,0,0,0,0,0,0,0,0,-1,1616,1310,0,0
399,-286,0,0,0,0,0,0,0,0,0,-1,1623,1310,0,0
406,-286,0,0,0,0,0,0,0,0,0,-1,1630,1310,0,0
413,-286,0,0,0,0,0,0,0,0,0,-1,1637,1310,0,0
420,-286,0,0,0,0,0,0,0,0,0,-1,1644,1310,0,0
427,-286,0,0,0,0,0,0,0,0,0,-1,1651,1310,0,0
434,-286,0,0,0,0,0,0,0,0,0,-1,1658,1310,0,0
441,-286,0,0,0,0,0,0,0,0,0,-1,1665,1310,0,0
448,-286,0,0,0,0,0,0,0,0,0,-1,1672,1310,0,0
455,-286,0,0,0,0,0,0,0,0,0,-1,1679,1310,0,0
462,-286,0,0,0,0,0,0,0,0,0,-1,1686,1310,0,0
469,-286,0,0,0,0,0,0,0,0,0,-1,1693,1310,0,0
476,-286,0,0,0,0,0,0,0,0,0,-1,1700,1310,0,0
483,-286,0,0,0,0,0,0,0,0,0,-1,1707,1310,0,0
490,-286,0,0,0,0,0,0,0,0,0,-1,1714,1310,0,0
497,-286,0,0,0,0,0,0,0,0,0,-1,1721,1310,0,0
504,-286,0,0,0,0,0,0,0,0,0,-1,1728,1310,0,0
511,-286,0,0,0,0,0,0,0,0,0,-1,1735,1310,0,0
518,-286,0,0,0,0,0,0,0,0,0,-1,1742,1310,0,0
525,-286,0,0,0,0,0,0,0,0,0,-1,1749,1310,0,0
532,-286,0,0,0,0,0,0,0,0,0,-1,1756,1310,0,0
539,-286,0,0,0,0,0,0,0,0,0,-1,1763,1310,0,0
546,-286,0,0,0,0,0,0,0,0,0,-1,1770,1310,0,0
553,-286,0,0,0,0,0,0,0,0,0,-1,1777,1310,0,0
560,-286,0,0,0,0,0,0,0,0,0,-1,1784,1310,0,0
567,-286,0,0,0,0,0,0,0,0,0,-1,1791,1310,0,0
574,-286,0,0,0,0,0,0,0,0,0,-1,1798,1310,0,0
581,-286,0,0,0,0,0,0,0,0,0,-1,1805,1310,0,0
588,-286,0,0,0,0,0,0,0,0,0,-1,1812,1310,0,0
595,-286,46.6823,2.80042,0,0,0,0,0,0,0,-1,1819,1310,46.6822,-2.80042
602,-286,46.7357,2.52808,0,0,0,0,0,0,0,-1,1826,1310,46.7357,-2.52813
609,-286,46.7108,2.19055,0,0,0,0,0,0,0,-1,1833,1310,46.7108,-2.19054
616,-286,46.4409,2.58655,0.0131411,0.0294534,0.019928,0.0428297,-0.000235224,0.979639,0.0286319,0.0451038,1840,1310,46.4409,-2.58656
623,-286,46.1984,2.9137,0,0,0,0,0,0,0,-1,1847,1310,46.1984,-2.91364
630,-286,46.1753,2.48596,0,0,0,0,0,0,0,-1,1854,1310,46.1753,-2.486
637,-286,42.8304,1.58423,0,0,0,0,0,0,0,-1,1861,1310,42.8305,-1.58421
644,-286,25.6433,1.33862,0,0,0,0,0,0,0,-1,1868,1310,25.6433,-1.33858
651,-286,25.2507,1.88245,0,0,0,0,0,0,0,-1,1875,1310,25.2508,-1.88245
658,-286,25.9475,9.43689,0,0,0,0,0,0,0,-1,1882,1310,25.9475,-9.43693
665,-286,24.9838,8.03101,0,0,0,0,0,0,0,-1,1889,1310,24.9837,-8.03104
672,-286,32.9706,10.7134,0,0,0,0,0,0,0,-1,1896,1310,32.9706,-10.7134
679,-286,32.7758,10.4343,0,0,0,0,0,0,0,-1,1903,1310,32.7758,-10.4344
686,-286,32.7573,9.95251,-0.00114519,-0.00048927,-0.000358607,-0.000331271,-0.00130319,-1.15579,0.000782116,0.0217688,1910,1310,32.7573,-9.95255
693,-286,32.7406,9.50623,0.000263836,-0.000766673,-0.000163056,0.000289021,-0.000791858,-0.153243,0.000646163,0.0161042,1917,1310,32.7407,-9.50618
700,-286,32.729,9.04517,0.000521124,-0.000652232,0.000294335,0.000590818,-0.000721926,0.232502,0.000759172,0.0114484,1924,1310,32.729,-9.04522
707,-286,32.7094,8.61365,8.96611e-05,-0.000394602,0.000565691,0.000462862,-0.000767803,0.583182,0.000717758,0.00876797,1931,1310,32.7094,-8.61363
714,-286,32.6985,8.16052,-0.000238354,-0.000355147,0.000744058,0.000449595,-0.0010431,0.746237,0.000884222,0.00947904,1938,1310,32.6985,-8.16051
721,-286,32.7258,7.7135,-0.000598702,-0.000371572,0.000937944,0.000459658,-0.00142993,0.845644,0.00113789,0.0122428,1945,1310,32.7259,-7.7135
728,-286,32.7109,7.2843,-0.000885355,-0.000591167,0.00105766,0.000329581,-0.0018061,0.854492,0.00132764,0.0152698,1952,1310,32.7109,-7.28432
735,-286,32.6997,6.85059,-0.00100297,-0.00105804,0.00100056,-2.95736e-05,-0.00203144,0.771642,0.00134455,0.0192909,1959,1310,32.6997,-6.85054
742,-286,32.6842,6.4917,-0.00080016,-0.00201915,0.000663429,-0.000508754,-0.00231055,0.413872,0.0014019,0.0447966,1966,1310,32.6842,-6.49176
749,-286,32.8457,6.09387,0,0,0,0,0,0,0,-1,1973,1310,32.8457,-6.09382
756,-286,24.8226,4.43481,0,0,0,0,0,0,0,-1,1980,1310,24.8227,-4.43479
763,-286,20.6671,3.99683,0,0,0,0,0,0,0,-1,1987,1310,20.6671,-3.99683
770,-286,23.9147,4.45679,0,0,0,0,0,0,0,-1,1994,1310,23.9146,-4.45675
777,-286,0,0,0,0,0,0,0,0,0,-1,2001,1310,0,0
784,-286,0,0,0,0,0,0,0,0,0,-1,2008,1310,0,0
791,-286,0,0,0,0,0,0,0,0,0,-1,2015,1310,0,0
798,-286,0,0,0,0,0,0,0,0,0,-1,2022,1310,0,0
805,-286,0,0,0,0,0,0,0,0,0,-1,2029,1310,0,0
812,-286,0,0,0,0,0,0,0,0,0,-1,2036,1310,0,0
-700,-293,0,0,0,0,0,0,0,0,0,-1,524,1317,0,0
-693,-293,0,0,0,0,0,0,0,0,0,-1,531,1317,0,0
-686,-293,0,0,0,0,0,0,0,0,0,-1,538,1317,0,0
-679,-293,0,0,0,0,0,0,0,0,0,-1,545,1317,0,0
-672,-293,0,0,0,0,0,0,0,0,0,-1,552,1317,0,0
-665,-293,0,0,0,0,0,0,0,0,0,-1,559,1317,0,0
-658,-293,0,0,0,0,0,0,0,0,0,-1,566,1317,0,0
-651,-293,-19.3986,0.230591,0,0,0,0,0,0,0,-1,573,1317,-19.3986,-0.230615
-644,-293,-19.6501,1.56128,0,0,0,0,0,0,0,-1,580,1317,-19.6502,-1.56126
-637,-293,-19.9641,2.40369,0,0,0,0,0,0,0,-1,587,1317,-19.9641,-2.4037
-630,-293,-20.2918,3.08264,0,0,0,0,0,0,0,-1,594,1317,-20.2918,-3.08267
-623,-293,-15.6058,0.229614,0,0,0,0,0,0,0,-1,601,1317,-15.6058,-0.229666
-616,-293,-15.5056,2.17737,0,0,0,0,0,0,0,-1,608,1317,-15.5055,-2.17742
-609,-293,-18.8859,3.54199,0,0,0,0,0,0,0,-1,615,1317,-18.8859,-3.54205
-602,-293,-18.8666,4.24658,0.0066198,0.00762662,0.0056198,0.0127655,0.00148091,0.830068,0.00806217,0.0465847,622,1317,-18.8666,-4.24664
-595,-293,-19.0318,4.92102,0.00489644,0.00529448,0.00405215,0.0091525,0.00103843,0.809936,0.00578666,0.0189112,629,1317,-19.0318,-4.92099
-588,-293,-19.0143,5.43127,0.0036829,0.00352185,0.00283753,0.00644104,0.000763705,0.771212,0.00406345,0.0162722,636,1317,-19.0143,-5.43129
-581,-293,-18.996,5.91162,0.0028914,0.00209939,0.0018898,0.00442624,0.000564551,0.682118,0.0027818,0.0179161,643,1317,-18.996,-5.91159
-574,-293,-19.0038,6.42444,0.00240984,0.000926852,0.00114129,0.00302936,0.000307332,0.497317,0.00192533,0.0171969,650,1317,-19.0038,-6.42449
-567,-293,-19.053,6.93787,0.00216882,-8.91517e-05,0.00055102,0.00229611,-0.000216443,0.227028,0.00160775,0.0172483,657,1317,-19.053,-6.93781
-560,-293,-19.0729,7.44397,0.00223868,-0.00096653,0.000103932,0.00224204,-0.000969897,0.0323805,0.00190228,0.0166032,664,1317,-19.073,-7.44398
-553,-293,-19.0703,7.93323,0.00262817,-0.00166316,-0.000161105,0.00263421,-0.0016692,-0.0374717,0.00250531,0.0111544,671,1317,-19.0702,-7.93317
-546,-293,-19.0742,8.44727,0.00319484,-0.00225955,-0.00030816,0.0032122,-0.0022769,-0.056259,0.00318443,0.0120579,678,1317,-19.0742,-8.44728
-539,-293,-19.0342,8.92712,0.00428489,-0.00299038,-0.000229711,0.00429213,-0.00299763,-0.0315324,0.00423081,0.0341639,685,1317,-19.0342,-8.92717
-532,-293,-18.975,9.34497,0,0,0,0,0,0,0,-1,692,1317,-18.9751,-9.345
-525,-293,-8.20642,3.62256,0,0,0,0,0,0,0,-1,699,1317,-8.20639,-3.6226
-518,-293,-10.1053,0.314209,0,0,0,0,0,0,0,-1,706,1317,-10.1053,-0.314234
-511,-293,-11.6276,0.235352,0,0,0,0,0,0,0,-1,713,1317,-11.6276,-0.235372
-504,-293,-17.9086,1.25427,0,0,0,0,0,0,0,-1,720,1317,-17.9086,-1.25423
-497,-293,-18.8006,1.62122,0,0,0,0,0,0,0,-1,727,1317,-18.8006,-1.62119
-490,-293,-18.8961,1.99255,0,0,0,0,0,0,0,-1,734,1317,-18.8961,-1.99251
-483,-293,-19.0831,2.35498,0,0,0,0,0,0,0,-1,741,1317,-19.0831,-2.35497
-476,-293,-19.5228,2.61243,0,0,0,0,0,0,0,-1,748,1317,-19.5228,-2.61237
-469,-293,0,0,0,0,0,0,0,0,0,-1,755,1317,0,0
-462,-293,0,0,0,0,0,0,0,0,0,-1,762,1317,0,0
-455,-293,0,0,0,0,0,0,0,0,0,-1,769,1317,0,0
-448,-293,0,0,0,0,0,0,0,0,0,-1,776,1317,0,0
-441,-293,0,0,0,0,0,0,0,0,0,-1,783,1317,0,0
-434,-293,0,0,0,0,0,0,0,0,0,-1,790,1317,0,0
-427,-293,0,0,0,0,0,0,0,0,0,-1,797,1317,0,0
-420,-293,0,0,0,0,0,0,0,0,0,-1,804,1317,0,0
-413,-293,0,0,0,0,0,0,0,0,0,-1,811,1317,0,0
-406,-293,0,0,0,0,0,0,0,0,0,-1,818,1317,0,0
-399,-293,0,0,0,0,0,0,0,0,0,-1,825,1317,0,0
-392,-293,0,0,0,0,0,0,0,0,0,-1,832,1317,0,0
-385,-293,0,0,0,0,0,0,0,0,0,-1,839,1317,0,0
-378,-293,0,0,0,0,0,0,0,0,0,-1,846,1317,0,0
-371,-293,0,0,0,0,0,0,0,0,0,-1,853,1317,0,0
-364,-293,0,0,0,0,0,0,0,0,0,-1,860,1317,0,0
-357,-293,0,0,0,0,0,0,0,0,0,-1,867,1317,0,0
-350,-293,0,0,0,0,0,0,0,0,0,-1,874,1317,0,0
-343,-293,0,0,0,0,0,0,0,0,0,-1,881,1317,0,0
-336,-293,0,0,0,0,0,0,0,0,0,-1,888,1317,0,0
-329,-293,0,0,0,0,0,0,0,0,0,-1,895,1317,0,0
-322,-293,0,0,0,0,0,0,0,0,0,-1,902,1317,0,0
-315,-293,0,0,0,0,0,0,0,0,0,-1,909,1317,0,0
-308,-293,0,0,0,0,0,0,0,0,0,-1,916,1317,0,0
-301,-293,0,0,0,0,0,0,0,0,0,-1,923,1317,0,0
-294,-293,0,0,0,0,0,0,0,0,0,-1,930,1317,0,0
-287,-293,0,0,0,0,0,0,0,0,0,-1,937,1317,0,0
-280,-293,0,0,0,0,0,0,0,0,0,-1,944,1317,0,0
-273,-293,0,0,0,0,0,0,0,0,0,-1,951,1317,0,0
-266,-293,0,0,0,0,0,0,0,0,0,-1,958,1317,0,0
-259,-293,0,0,0,0,0,0,0,0,0,-1,965,1317,0,0
-252,-293,0,0,0,0,0,0,0,0,0,-1,972,1317,0,0
-245,-293,0,0,0,0,0,0,0,0,0,-1,979,1317,0,0
-238,-293,0,0,0,0,0,0,0,0,0,-1,986,1317,0,0
-231,-293,0,0,0,0,0,0,0,0,0,-1,993,1317,0,0
-224,-293,0,0,0,0,0,0,0,0,0,-1,1000,1317,0,0
-217,-293,0,0,0,0,0,0,0,0,0,-1,1007,1317,0,0
-210,-293,0,0,0,0,0,0,0,0,0,-1,1014,1317,0,0
-203,-293,0,0,0,0,0,0,0,0,0,-1,1021,1317,0,0
-196,-293,0,0,0,0,0,0,0,0,0,-1,1028,1317,0,0
-189,-293,0,0,0,0,0,0,0,0,0,-1,1035,1317,0,0
-182,-293,0,0,0,0,0,0,0,0,0,-1,1042,1317,0,0
-175,-293,0,0,0,0,0,0,0,0,0,-1,1049,1317,0,0
-168,-293,0,0,0,0,0,0,0,0,0,-1,1056,1317,0,0
-161,-293,0,0,0,0,0,0,0,0,0,-1,1063,1317,0,0
-154,-293,0,0,0,0,0,0,0,0,0,-1,1070,1317,0,0
-147,-293,0,0,0,0,0,0,0,0,0,-1,1077,1317,0,0
-140,-293,0,0,0,0,0,0,0,0,0,-1,1084,1317,0,0
-133,-293,0,0,0,0,0,0,0,0,0,-1,1091,1317,0,0
-126,-293,0,0,0,0,0,0,0,0,0,-1,1098,1317,0,0
-119,-293,0,0,0,0,0,0,0,0,0,-1,1105,1317,0,0
-112,-293,0,0,0,0,0,0,0,0,0,-1,1112,1317,0,0
-105,-293,0,0,0,0,0,0,0,0,0,-1,1119,1317,0,0
-98,-293,0,0,0,0,0,0,0,0,0,-1,1126,1317,0,0
-91,-293,0,0,0,0,0,0,0,0,0,-1,1133,1317,0,0
-84,-293,0,0,0,0,0,0,0,0,0,-1,1140,1317,0,0
-77,-293,0,0,0,0,0,0,0,0,0,-1,1147,1317,0,0
-70,-293,0,0,0,0,0,0,0,0,0,-1,1154,1317,0,0
-63,-293,0,0,0,0,0,0,0,0,0,-1,1161,1317,0,0
-56,-293,0,0,0,0,0,0,0,0,0,-1,1168,1317,0,0
-49,-293,0,0,0,0,0,0,0,0,0,-1,1175,1317,0,0
-42,-293,0,0,0,0,0,0,0,0,0,-1,1182,1317,0,0
-35,-293,0,0,0,0,0,0,0,0,0,-1,1189,1317,0,0
-28,-293,0,0,0,0,0,0,0,0,0,-1,1196,1317,0,0
-21,-293,0,0,0,0,0,0,0,0,0,-1,1203,1317,0,0
-14,-293,0,0,0,0,0,0,0,0,0,-1,1210,1317,0,0
-7,-293,0,0,0,0,0,0,0,0,0,-1,1217,1317,0,0
0,-293,0,0,0,0,0,0,0,0,0,-1,1224,1317,0,0
7,-293,0,0,0,0,0,0,0,0,0,-1,1231,1317,0,0
14,-293,0,0,0,0,0,0,0,0,0,-1,1238,1317,0,0
21,-293,0,0,0,0,0,0,0,0,0,-1,1245,1317,0,0
28,-293,0,0,0,0,0,0,0,0,0,-1,1252,1317,0,0
35,-293,0,0,0,0,0,0,0,0,0,-1,1259,1317,0,0
42,-293,0,0,0,0,0,0,0,0,0,-1,1266,1317,0,0
49,-293,0,0,0,0,0,0,0,0,0,-1,1273,1317,0,0
56,-293,0,0,0,0,0,0,0,0,0,-1,1280,1317,0,0
63,-293,0,0,0,0,0,0,0,0,0,-1,1287,1317,0,0
70,-293,0,0,0,0,0,0,0,0,0,-1,1294,1317,0,0
77,-293,0,0,0,0,0,0,0,0,0,-1,1301,1317,0,0
84,-293,0,0,0,0,0,0,0,0,0,-1,1308,1317,0,0
91,-293,0,0,0,0,0,0,0,0,0,-1,1315,1317,0,0
98,-293,0,0,0,0,0,0,0,0,0,-1,1322,1317,0,0
105,-293,0,0,0,0,0,0,0,0,0,-1,1329,1317,0,0
112,-293,0,0,0,0,0,0,0,0,0,-1,1336,1317,0,0
119,-293,0,0,0,0,0,0,0,0,0,-1,1343,1317,0,0
126,-293,0,0,0,0,0,0,0,0,0,-1,1350,1317,0,0
133,-293,0,0,0,0,0,0,0,0,0,-1,1357,1317,0,0
140,-293,0,0,0,0,0,0,0,0,0,-1,1364,1317,0,0
147,-293,0,0,0,0,0,0,0,0,0,-1,1371,1317,0,0
154,-293,0,0,0,0,0,0,0,0,0,-1,1378,1317,0,0
161,-293,0,0,0,0,0,0,0,0,0,-1,1385,1317,0,0
168,-293,0,0,0,0,0,0,0,0,0,-1,1392,1317,0,0
175,-293,0,0,0,0,0,0,0,0,0,-1,1399,1317,0,0
182,-293,0,0,0,0,0,0,0,0,0,-1,1406,1317,0,0
189,-293,0,0,0,0,0,0,0,0,0,-1,1413,1317,0,0
196,-293,0,0,0,0,0,0,0,0,0,-1,1420,1317,0,0
203,-293,0,0,0,0,0,0,0,0,0,-1,1427,1317,0,0
210,-293,0,0,0,0,0,0,0,0,0,-1,1434,1317,0,0
217,-293,0,0,0,0,0,0,0,0,0,-1,1441,1317,0,0
224,-293,0,0,0,0,0,0,0,0,0,-1,1448,1317,0,0
231,-293,0,0,0,0,0,0,0,0,0,-1,1455,1317,0,0
238,-293,0,0,0,0,0,0,0,0,0,-1,1462,1317,0,0
245,-293,0,0,0,0,0,0,0,0,0,-1,1469,1317,0,0
252,-293,0,0,0,0,0,0,0,0,0,-1,1476,1317,0,0
259,-293,0,0,0,0,0,0,0,0,0,-1,1483,1317,0,0
266,-293,0,0,0,0,0,0,0,0,0,-1,1490,1317,0,0
273,-293,0,0,0,0,0,0,0,0,0,-1,1497,1317,0,0
280,-293,0,0,0,0,0,0,0,0,0,-1,1504,1317,0,0
287,-293,0,0,0,0,0,0,0,0,0,-1,1511,1317,0,0
294,-293,0,0,0,0,0,0,0,0,0,-1,1518,1317,0,0
301,-293,0,0,0,0,0,0,0,0,0,-1,1525,1317,0,0
308,-293,0,0,0,0,0,0,0,0,0,-1,1532,1317,0,0
315,-293,0,0,0,0,0,0,0,0,0,-1,1539,1317,0,0
322,-293,0,0,0,0,0,0,0,0,0,-1,1546,1317,0,0
329,-293,0,0,0,0,0,0,0,0,0,-1,1553,1317,0,0
336,-293,0,0,0,0,0,0,0,0,0,-1,1560,1317,0,0
343,-293,0,0,0,0,0,0,0,0,0,-1,1567,1317,0,0
350,-293,0,0,0,0,0,0,0,0,0,-1,1574,1317,0,0
357,-293,0,0,0,0,0,0,0,0,0,-1,1581,1317,0,0
364,-293,0,0,0,0,0,0,0,0,0,-1,1588,1317,0,0
371,-293,0,0,0,0,0,0,0,0,0,-1,1595,1317,0,0
378,-293,0,0,0,0,0,0,0,0,0,-1,1602,1317,0,0
385,-293,0,0,0,0,0,0,0,0,0,-1,1609,1317,0,0
392,-293,0,0,0,0,0,0,0,0,0,-1,1616,1317,0,0
399,-293,0,0,0,0,0,0,0,0,0,-1,1623,1317,0,0
406,-293,0,0,0,0,0,0,0,0,0,-1,1630,1317,0,0
413,-293,0,0,0,0,0,0,0,0,0,-1,1637,1317,0,0
420,-293,0,0,0,0,0,0,0,0,0,-1,1644,1317,0,0
427,-293,0,0,0,0,0,0,0,0,0,-1,1651,1317,0,0
434,-293,0,0,0,0,0,0,0,0,0,-1,1658,1317,0,0
441,-293,0,0,0,0,0,0,0,0,0,-1,1665,1317,0,0
448,-293,0,0,0,0,0,0,0,0,0,-1,1672,1317,0,0
455,-293,0,0,0,0,0,0,0,0,0,-1,1679,1317,0,0
462,-293,0,0,0,0,0,0,0,0,0,-1,1686,1317,0,0
469,-293,0,0,0,0,0,0,0,0,0,-1,1693,1317,0,0
476,-293,0,0,0,0,0,0,0,0,0,-1,1700,1317,0,0
483,-293,0,0,0,0,0,0,0,0,0,-1,1707,1317,0,0
490,-293,0,0,0,0,0,0,0,0,0,-1,1714,1317,0,0
497,-293,0,0,0,0,0,0,0,0,0,-1,1721,1317,0,0
504,-293,0,0,0,0,0,0,0,0,0,-1,1728,1317,0,0
511,-293,0,0,0,0,0,0,0,0,0,-1,1735,1317,0,0
518,-293,0,0,0,0,0,0,0,0,0,-1,1742,1317,0,0
525,-293,0,0,0,0,0,0,0,0,0,-1,1749,1317,0,0
532,-293,0,0,0,0,0,0,0,0,0,-1,1756,1317,0,0
539,-293,0,0,0,0,0,0,0,0,0,-1,1763,1317,0,0
546,-293,0,0,0,0,0,0,0,0,0,-1,1770,1317,0,0
553,-293,0,0,0,0,0,0,0,0,0,-1,1777,1317,0,0
560,-293,0,0,0,0,0,0,0,0,0,-1,1784,1317,0,0
567,-293,0,0,0,0,0,0,0,0,0,-1,1791,1317,0,0
574,-293,0,0,0,0,0,0,0,0,0,-1,1798,1317,0,0
581,-293,0,0,0,0,0,0,0,0,0,-1,1805,1317,0,0
588,-293,0,0,0,0,0,0,0,0,0,-1,1812,1317,0,0
595,-293,46.9194,2.67334,0,0,0,0,0,0,0,-1,1819,1317,46.9194,-2.6733
602,-293,47.0129,2.36853,0,0,0,0,0,0,0,-1,1826,1317,47.0129,-2.36848
609,-293,46.9874,2.02771,0,0,0,0,0,0,0,-1,1833,1317,46.9874,-2.02772
616,-293,45.8042,1.96912,0,0,0,0,0,0,0,-1,1840,1317,45.8042,-1.96912
623,-293,46.2932,2.03247,0,0,0,0,0,0,0,-1,1847,1317,46.2933,-2.0325
630,-293,43.121,1.28076,0,0,0,0,0,0,0,-1,1854,1317,43.121,-1.28071
637,-293,42.7729,4.95544,0,0,0,0,0,0,0,-1,1861,1317,42.773,-4.95546
644,-293,24.4565,0.520752,0,0,0,0,0,0,0,-1,1868,1317,24.4566,-0.520709
651,-293,25.8926,9.51245,0,0,0,0,0,0,0,-1,1875,1317,25.8926,-9.51246
658,-293,25.4904,9.10205,0,0,0,0,0,0,0,-1,1882,1317,25.4904,-9.10209
665,-293,32.6166,11.0896,0,0,0,0,0,0,0,-1,1889,1317,32.6166,-11.0897
672,-293,32.373,10.9004,-0.00294834,-0.000363746,-0.000398739,-0.000303629,-0.00300845,-1.42115,0.00191248,0.0371546,1896,1317,32.373,-10.9004
679,-293,32.3406,10.4493,-0.00164115,-0.000454742,-0.00035507,-0.000356595,-0.0017393,-1.30112,0.00106084,0.0148318,1903,1317,32.3406,-10.4494
686,-293,32.3467,9.99353,-0.00033288,-0.000812502,-0.00013857,-0.000295724,-0.000849659,-0.261979,0.000498044,0.0164187,1910,1317,32.3467,-9.99349
693,-293,32.3145,9.53821,0.000393939,-0.000789963,-2.74885e-05,0.000394576,-0.000790601,-0.0232019,0.000696879,0.0123548,1917,1317,32.3145,-9.53826
700,-293,32.2712,9.06421,0.000316746,-0.000456297,0.00032475,0.000435063,-0.000574613,0.349384,0.00058479,0.0108127,1924,1317,32.2712,-9.06421
707,-293,32.2651,8.62842,-5.06582e-05,-0.0002742,0.000604507,0.000452325,-0.000777183,0.693983,0.000718068,0.0116427,1931,1317,32.2651,-8.62837
714,-293,32.259,8.18127,-0.000365525,-0.000244148,0.00081692,0.000514335,-0.00112401,0.822475,0.000967482,0.00855196,1938,1317,32.259,-8.18131
721,-293,32.2686,7.71606,-0.000736607,-0.00025514,0.00106234,0.000593402,-0.00158515,0.89682,0.0013005,0.00997082,1945,1317,32.2685,-7.71601
728,-293,32.2419,7.26196,-0.00106757,-0.000436876,0.00125861,0.000545288,-0.00204974,0.908148,0.00157994,0.0126384,1952,1317,32.2419,-7.26195
735,-293,32.2202,6.79749,-0.00127382,-0.000815214,0.0012934,0.000269055,-0.00235809,0.87313,0.00166899,0.0243352,1959,1317,32.2202,-6.79745
742,-293,32.3214,6.31201,0,0,0,0,0,0,0,-1,1966,1317,32.3215,-6.312
749,-293,29.439,5.35339,0,0,0,0,0,0,0,-1,1973,1317,29.4389,-5.35334
756,-293,24.978,3.9718,0,0,0,0,0,0,0,-1,1980,1317,24.978,-3.97186
763,-293,26.6713,4.74097,0,0,0,0,0,0,0,-1,1987,1317,26.6713,-4.74098
770,-293,24.1349,4.69153,0,0,0,0,0,0,0,-1,1994,1317,24.1348,-4.69159
777,-293,0,0,0,0,0,0,0,0,0,-1,2001,1317,0,0
784,-293,0,0,0,0,0,0,0,0,0,-1,2008,1317,0,0
791,-293,0,0,0,0,0,0,0,0,0,-1,2015,1317,0,0
798,-293,0,0,0,0,0,0,0,0,0,-1,2022,1317,0,0
805,-293,0,0,0,0,0,0,0,0,0,-1,2029,1317,0,0
812,-293,0,0,0,0,0,0,0,0,0,-1,2036,1317,0,0
-700,-300,0,0,0,0,0,0,0,0,0,-1,524,1324,0,0
-693,-300,0,0,0,0,0,0,0,0,0,-1,531,1324,0,0
-686,-300,0,0,0,0,0,0,0,0,0,-1,538,1324,0,0
-679,-300,0,0,0,0,0,0,0,0,0,-1,545,1324,0,0
-672,-300,0,0,0,0,0,0,0,0,0,-1,552,1324,0,0
-665,-300,0,0,0,0,0,0,0,0,0,-1,559,1324,0,0
-658,-300,0,0,0,0,0,0,0,0,0,-1,566,1324,0,0
-651,-300,-20.1143,0.203857,0,0,0,0,0,0,0,-1,573,1324,-20.1142,-0.203872
-644,-300,-20.4374,1.17224,0,0,0,0,0,0,0,-1,580,1324,-20.4375,-1.17226
-637,-300,-20.7362,1.82813,0,0,0,0,0,0,0,-1,587,1324,-20.7362,-1.8281
-630,-300,-21.1108,2.26306,0,0,0,0,0,0,0,-1,594,1324,-21.1109,-2.2631
-623,-300,-12.7067,1.48462,0,0,0,0,0,0,0,-1,601,1324,-12.7067,-1.48462
-616,-300,-14.9988,1.68628,0,0,0,0,0,0,0,-1,608,1324,-14.9988,-1.68627
-609,-300,-15.5027,3.29907,0,0,0,0,0,0,0,-1,615,1324,-15.5027,-3.29902
-602,-300,-18.4162,4.19434,0,0,0,0,0,0,0,-1,622,1324,-18.4162,-4.1943
-595,-300,-18.5772,4.90625,0.00535402,0.00550939,0.00452696,0.00995933,0.000904074,0.793978,0.00635965,0.0328985,629,1324,-18.5772,-4.90625
-588,-300,-18.4963,5.46008,0.00400959,0.00372056,0.00316102,0.0070294,0.000700753,0.762555,0.00447102,0.0200427,636,1324,-18.4963,-5.46011
-581,-300,-18.5042,5.97632,0.0031082,0.00234385,0.0021376,0.00489752,0.00055453,0.696939,0.00309677,0.0195727,643,1324,-18.5042,-5.97634
-574,-300,-18.5048,6.46497,0.00251805,0.0012326,0.00134907,0.00336967,0.000380981,0.563095,0.00213084,0.0163417,650,1324,-18.5048,-6.46495
-567,-300,-18.5417,6.94666,0.00218724,0.000287556,0.000749556,0.00244737,2.74249e-05,0.334042,0.00162251,0.0173813,657,1324,-18.5417,-6.94665
-560,-300,-18.5736,7.45715,0.00213969,-0.000531687,0.00030106,0.0021732,-0.000565196,0.110846,0.0016694,0.0153717,664,1324,-18.5736,-7.45713
-553,-300,-18.5751,7.94751,0.00238533,-0.00119463,2.8666e-05,0.00238556,-0.00119486,0.00800668,0.00210491,0.0104421,671,1324,-18.5751,-7.94752
-546,-300,-18.5871,8.43591,0.00287296,-0.00176225,-8.75176e-05,0.00287461,-0.00176391,-0.0188721,0.00270352,0.00925623,678,1324,-18.5871,-8.43586
-539,-300,-18.5663,8.95386,0.00383867,-0.00241086,6.11338e-06,0.00383868,-0.00241087,0.000978211,0.00363943,0.0203169,685,1324,-18.5664,-8.9539
-532,-300,-18.5234,9.44519,0,0,0,0,0,0,0,-1,692,1324,-18.5235,-9.44524
-525,-300,-13.5115,6.27783,0,0,0,0,0,0,0,-1,699,1324,-13.5115,-6.2778
-518,-300,-9.8349,-0.537109,0,0,0,0,0,0,0,-1,706,1324,-9.83487,0.537068
-511,-300,-12.8644,0.081665,0,0,0,0,0,0,0,-1,713,1324,-12.8644,-0.0817016
-504,-300,-13.4829,-0.165527,0,0,0,0,0,0,0,-1,720,1324,-13.4829,0.165544
-497,-300,-18.1063,0.956543,0,0,0,0,0,0,0,-1,727,1324,-18.1063,-0.9565
-490,-300,-18.2293,1.53625,0,0,0,0,0,0,0,-1,734,1324,-18.2293,-1.53626
-483,-300,-18.3522,1.61084,0,0,0,0,0,0,0,-1,741,1324,-18.3522,-1.6108
-476,-300,-18.7489,1.96387,0,0,0,0,0,0,0,-1,748,1324,-18.7489,-1.96387
-469,-300,0,0,0,0,0,0,0,0,0,-1,755,1324,0,0
-462,-300,0,0,0,0,0,0,0,0,0,-1,762,1324,0,0
-455,-300,0,0,0,0,0,0,0,0,0,-1,769,1324,0,0
-448,-300,0,0,0,0,0,0,0,0,0,-1,776,1324,0,0
-441,-300,0,0,0,0,0,0,0,0,0,-1,783,1324,0,0
-434,-300,0,0,0,0,0,0,0,0,0,-1,790,1324,0,0
-427,-300,0,0,0,0,0,0,0,0,0,-1,797,1324,0,0
-420,-300,0,0,0,0,0,0,0,0,0,-1,804,1324,0,0
-413,-300,0,0,0,0,0,0,0,0,0,-1,811,1324,0,0
-406,-300,0,0,0,0,0,0,0,0,0,-1,818,1324,0,0
-399,-300,0,0,0,0,0,0,0,0,0,-1,825,1324,0,0
-392,-300,0,0,0,0,0,0,0,0,0,-1,832,1324,0,0
-385,-300,0,0,0,0,0,0,0,0,0,-1,839,1324,0,0
-378,-300,0,0,0,0,0,0,0,0,0,-1,846,1324,0,0
-371,-300,0,0,0,0,0,0,0,0,0,-1,853,1324,0,0
-364,-300,0,0,0,0,0,0,0,0,0,-1,860,1324,0,0
-357,-300,0,0,0,0,0,0,0,0,0,-1,867,1324,0,0
-350,-300,0,0,0,0,0,0,0,0,0,-1,874,1324,0,0
-343,-300,0,0,0,0,0,0,0,0,0,-1,881,1324,0,0
-336,-300,0,0,0,0,0,0,0,0,0,-1,888,1324,0,0
-329,-300,0,0,0,0,0,0,0,0,0,-1,895,1324,0,0
-322,-300,0,0,0,0,0,0,0,0,0,-1,902,1324,0,0
-315,-300,0,0,0,0,0,0,0,0,0,-1,909,1324,0,0
-308,-300,0,0,0,0,0,0,0,0,0,-1,916,1324,0,0
-301,-300,0,0,0,0,0,0,0,0,0,-1,923,1324,0,0
-294,-300,0,0,0,0,0,0,0,0,0,-1,930,1324,0,0
-287,-300,0,0,0,0,0,0,0,0,0,-1,937,1324,0,0
-280,-300,0,0,0,0,0,0,0,0,0,-1,944,1324,0,0
-273,-300,0,0,0,0,0,0,0,0,0,-1,951,1324,0,0
-266,-300,0,0,0,0,0,0,0,0,0,-1,958,1324,0,0
-259,-300,0,0,0,0,0,0,0,0,0,-1,965,1324,0,0
-252,-300,0,0,0,0,0,0,0,0,0,-1,972,1324,0,0
-245,-300,0,0,0,0,0,0,0,0,0,-1,979,1324,0,0
-238,-300,0,0,0,0,0,0,0,0,0,-1,986,1324,0,0
-231,-300,0,0,0,0,0,0,0,0,0,-1,993,1324,0,0
-224,-300,0,0,0,0,0,0,0,0,0,-1,1000,1324,0,0
-217,-300,0,0,0,0,0,0,0,0,0,-1,1007,1324,0,0
-210,-300,0,0,0,0,0,0,0,0,0,-1,1014,1324,0,0
-203,-300,0,0,0,0,0,0,0,0,0,-1,1021,1324,0,0
-196,-300,0,0,0,0,0,0,0,0,0,-1,1028,1324,0,0
-189,-300,0,0,0,0,0,0,0,0,0,-1,1035,1324,0,0
-182,-300,0,0,0,0,0,0,0,0,0,-1,1042,1324,0,0
-175,-300,0,0,0,0,0,0,0,0,0,-1,1049,1324,0,0
-168,-300,0,0,0,0,0,0,0,0,0,-1,1056,1324,0,0
-161,-300,0,0,0,0,0,0,0,0,0,-1,1063,1324,0,0
-154,-300,0,0,0,0,0,0,0,0,0,-1,1070,1324,0,0
-147,-300,0,0,0,0,0,0,0,0,0,-1,1077,1324,0,0
-140,-300,0,0,0,0,0,0,0,0,0,-1,1084,1324,0,0
-133,-300,0,0,0,0,0,0,0,0,0,-1,1091,1324,0,0
-126,-300,0,0,0,0,0,0,0,0,0,-1,1098,1324,0,0
-119,-300,0,0,0,0,0,0,0,0,0,-1,1105,1324,0,0
-112,-300,0,0,0,0,0,0,0,0,0,-1,1112,1324,0,0
-105,-300,0,0,0,0,0,0,0,0,0,-1,1119,1324,0,0
-98,-300,0,0,0,0,0,0,0,0,0,-1,1126,1324,0,0
-91,-300,0,0,0,0,0,0,0,0,0,-1,1133,1324,0,0
-84,-300,0,0,0,0,0,0,0,0,0,-1,1140,1324,0,0
-77,-300,0,0,0,0,0,0,0,0,0,-1,1147,1324,0,0
-70,-300,0,0,0,0,0,0,0,0,0,-1,1154,1324,0,0
-63,-300,0,0,0,0,0,0,0,0,0,-1,1161,1324,0,0
-56,-300,0,0,0,0,0,0,0,0,0,-1,1168,1324,0,0
-49,-300,0,0,0,0,0,0,0,0,0,-1,1175,1324,0,0
-42,-300,0,0,0,0,0,0,0,0,0,-1,1182,1324,0,0
-35,-300,0,0,0,0,0,0,0,0,0,-1,1189,1324,0,0
-28,-300,0,0,0,0,0,0,0,0,0,-1,1196,1324,0,0
-21,-300,0,0,0,0,0,0,0,0,0,-1,1203,1324,0,0
-14,-300,0,0,0,0,0,0,0,0,0,-1,1210,1324,0,0
-7,-300,0,0,0,0,0,0,0,0,0,-1,1217,1324,0,0
0,-300,0,0,0,0,0,0,0,0,0,-1,1224,1324,0,0
7,-300,0,0,0,0,0,0,0,0,0,-1,1231,1324,0,0
14,-300,0,0,0,0,0,0,0,0,0,-1,1238,1324,0,0
21,-300,0,0,0,0,0,0,0,0,0,-1,1245,1324,0,0
28,-300,0,0,0,0,0,0,0,0,0,-1,1252,1324,0,0
35,-300,0,0,0,0,0,0,0,0,0,-1,1259,1324,0,0
42,-300,0,0,0,0,0,0,0,0,0,-1,1266,1324,0,0
49,-300,0,0,0,0,0,0,0,0,0,-1,1273,1324,0,0
56,-300,0,0,0,0,0,0,0,0,0,-1,1280,1324,0,0
63,-300,0,0,0,0,0,0,0,0,0,-1,1287,1324,0,0
70,-300,0,0,0,0,0,0,0,0,0,-1,1294,1324,0,0
77,-300,0,0,0,0,0,0,0,0,0,-1,1301,1324,0,0
84,-300,0,0,0,0,0,0,0,0,0,-1,1308,1324,0,0
91,-300,0,0,0,0,0,0,0,0,0,-1,1315,1324,0,0
98,-300,0,0,0,0,0,0,0,0,0,-1,1322,1324,0,0
105,-300,0,0,0,0,0,0,0,0,0,-1,1329,1324,0,0
112,-300,0,0,0,0,0,0,0,0,0,-1,1336,1324,0,0
119,-300,0,0,0,0,0,0,0,0,0,-1,1343,1324,0,0
126,-300,0,0,0,0,0,0,0,0,0,-1,1350,1324,0,0
133,-300,0,0,0,0,0,0,0,0,0,-1,1357,1324,0,0
140,-300,0,0,0,0,0,0,0,0,0,-1,1364,1324,0,0
147,-300,0,0,0,0,0,0,0,0,0,-1,1371,1324,0,0
154,-300,0,0,0,0,0,0,0,0,0,-1,1378,1324,0,0
161,-300,0,0,0,0,0,0,0,0,0,-1,1385,1324,0,0
168,-300,0,0,0,0,0,0,0,0,0,-1,1392,1324,0,0
175,-300,0,0,0,0,0,0,0,0,0,-1,1399,1324,0,0
182,-300,0,0,0,0,0,0,0,0,0,-1,1406,1324,0,0
189,-300,0,0,0,0,0,0,0,0,0,-1,1413,1324,0,0
196,-300,0,0,0,0,0,0,0,0,0,-1,1420,1324,0,0
203,-300,0,0,0,0,0,0,0,0,0,-1,1427,1324,0,0
210,-300,0,0,0,0,0,0,0,0,0,-1,1434,1324,0,0
217,-300,0,0,0,0,0,0,0,0,0,-1,1441,1324,0,0
224,-300,0,0,0,0,0,0,0,0,0,-1,1448,1324,0,0
231,-300,0,0,0,0,0,0,0,0,0,-1,1455,1324,0,0
238,-300,0,0,0,0,0,0,0,0,0,-1,1462,1324,0,0
245,-300,0,0,0,0,0,0,0,0,0,-1,1469,1324,0,0
252,-300,0,0,0,0,0,0,0,0,0,-1,1476,1324,0,0
259,-300,0,0,0,0,0,0,0,0,0,-1,1483,1324,0,0
266,-300,0,0,0,0,0,0,0,0,0,-1,1490,1324,0,0
273,-300,0,0,0,0,0,0,0,0,0,-1,1497,1324,0,0
280,-300,0,0,0,0,0,0,0,0,0,-1,1504,1324,0,0
287,-300,0,0,0,0,0,0,0,0,0,-1,1511,1324,0,0
294,-300,0,0,0,0,0,0,0,0,0,-1,1518,1324,0,0
301,-300,0,0,0,0,0,0,0,0,0,-1,1525,1324,0,0
308,-300,0,0,0,0,0,0,0,0,0,-1,1532,1324,0,0
315,-300,0,0,0,0,0,0,0,0,0,-1,1539,1324,0,0
322,-300,0,0,0,0,0,0,0,0,0,-1,1546,1324,0,0
329,-300,0,0,0,0,0,0,0,0,0,-1,1553,1324,0,0
336,-300,0,0,0,0,0,0,0,0,0,-1,1560,1324,0,0
343,-300,0,0,0,0,0,0,0,0,0,-1,1567,1324,0,0
350,-300,0,0,0,0,0,0,0,0,0,-1,1574,1324,0,0
357,-300,0,0,0,0,0,0,0,0,0,-1,1581,1324,0,0
364,-300,0,0,0,0,0,0,0,0,0,-1,1588,1324,0,0
371,-300,0,0,0,0,0,0,0,0,0,-1,1595,1324,0,0
378,-300,0,0,0,0,0,0,0,0,0,-1,1602,1324,0,0
385,-300,0,0,0,0,0,0,0,0,0,-1,1609,1324,0,0
392,-300,0,0,0,0,0,0,0,0,0,-1,1616,1324,0,0
399,-300,0,0,0,0,0,0,0,0,0,-1,1623,1324,0,0
406,-300,0,0,0,0,0,0,0,0,0,-1,1630,1324,0,0
413,-300,0,0,0,0,0,0,0,0,0,-1,1637,1324,0,0
420,-300,0,0,0,0,0,0,0,0,0,-1,1644,1324,0,0
427,-300,0,0,0,0,0,0,0,0,0,-1,1651,1324,0,0
434,-300,0,0,0,0,0,0,0,0,0,-1,1658,1324,0,0
441,-300,0,0,0,0,0,0,0,0,0,-1,1665,1324,0,0
448,-300,0,0,0,0,0,0,0,0,0,-1,1672,1324,0,0
455,-300,0,0,0,0,0,0,0,0,0,-1,1679,1324,0,0
462,-300,0,0,0,0,0,0,0,0,0,-1,1686,1324,0,0
469,-300,0,0,0,0,0,0,0,0,0,-1,1693,1324,0,0
476,-300,0,0,0,0,0,0,0,0,0,-1,1700,1324,0,0
483,-300,0,0,0,0,0,0,0,0,0,-1,1707,1324,0,0
490,-300,0,0,0,0,0,0,0,0,0,-1,1714,1324,0,0
497,-300,0,0,0,0,0,0,0,0,0,-1,1721,1324,0,0
504,-300,0,0,0,0,0,0,0,0,0,-1,1728,1324,0,0
511,-300,0,0,0,0,0,0,0,0,0,-1,1735,1324,0,0
518,-300,0,0,0,0,0,0,0,0,0,-1,1742,1324,0,0
525,-300,0,0,0,0,0,0,0,0,0,-1,1749,1324,0,0
532,-300,0,0,0,0,0,0,0,0,0,-1,1756,1324,0,0
539,-300,0,0,0,0,0,0,0,0,0,-1,1763,1324,0,0
546,-300,0,0,0,0,0,0,0,0,0,-1,1770,1324,0,0
553,-300,0,0,0,0,0,0,0,0,0,-1,1777,1324,0,0
560,-300,0,0,0,0,0,0,0,0,0,-1,1784,1324,0,0
567,-300,0,0,0,0,0,0,0,0,0,-1,1791,1324,0,0
574,-300,0,0,0,0,0,0,0,0,0,-1,1798,1324,0,0
581,-300,0,0,0,0,0,0,0,0,0,-1,1805,1324,0,0
588,-300,47.0767,3.70276,0,0,0,0,0,0,0,-1,1812,1324,47.0766,-3.70277
595,-300,43.6869,2.22852,0,0,0,0,0,0,0,-1,1819,1324,43.6869,-2.22849
602,-300,44.2072,1.66504,0,0,0,0,0,0,0,-1,1826,1324,44.2072,-1.66498
609,-300,44.7556,1.59265,0.0269262,0.0472135,0.0297184,0.0684717,0.00566792,0.949861,0.0438807,0.0478165,1833,1324,44.7556,-1.59261
616,-300,45.1951,1.50403,0.020454,0.0397435,0.0249187,0.0568188,0.00337866,0.970044,0.0368047,0.0471633,1840,1324,45.1951,-1.50402
623,-300,45.5935,1.52209,0,0,0,0,0,0,0,-1,1847,1324,45.5935,-1.52212
630,-300,42.4099,3.9165,0,0,0,0,0,0,0,-1,1854,1324,42.4099,-3.91649
637,-300,31.1719,4.6366,0,0,0,0,0,0,0,-1,1861,1324,31.1718,-4.63665
644,-300,22.9836,3.44934,0,0,0,0,0,0,0,-1,1868,1324,22.9836,-3.4493
651,-300,25.5004,9.11853,0,0,0,0,0,0,0,-1,1875,1324,25.5004,-9.11851
658,-300,25.4012,9.20032,0,0,0,0,0,0,0,-1,1882,1324,25.4012,-9.20036
665,-300,31.9554,11.3855,0,0,0,0,0,0,0,-1,1889,1324,31.9555,-11.3855
672,-300,31.8433,10.9696,-0.0022214,-0.000503135,-0.000272484,-0.000460959,-0.00226357,-1.41723,0.00138128,0.0211923,1896,1324,31.8433,-10.9696
679,-300,31.8744,10.4694,-0.00103728,-0.000519716,-0.000171223,-0.000468199,-0.0010888,-1.27854,0.000630667,0.0126168,1903,1324,31.8744,-10.4693
686,-300,31.8729,10.0089,-5.58539e-05,-0.000716123,2.82986e-05,-5.46433e-05,-0.000717334,0.0427547,0.000461089,0.0132482,1910,1324,31.8729,-10.009
693,-300,31.8267,9.55908,0.000371144,-0.000638266,0.000119893,0.000385189,-0.000652311,0.116614,0.000605582,0.0116142,1917,1324,31.8267,-9.55913
700,-300,31.8054,9.08826,0.000250774,-0.000340487,0.000368458,0.000427539,-0.000517253,0.447313,0.000546295,0.0127183,1924,1324,31.8055,-9.08824
707,-300,31.812,8.60852,-4.50388e-05,-0.00015765,0.000598862,0.000500159,-0.000702848,0.738525,0.000697835,0.00938968,1931,1324,31.812,-8.60853
714,-300,31.8206,8.17859,-0.000372154,-4.65842e-05,0.000811356,0.000618156,-0.00103689,0.8844,0.000965685,0.0111858,1938,1324,31.8206,-8.17859
721,-300,31.8145,7.73145,-0.000785832,3.10216e-05,0.00107829,0.000775643,-0.00153045,0.966435,0.00135499,0.0125154,1945,1324,31.8144,-7.73139
728,-300,31.7971,7.25549,-0.00122746,5.74485e-06,0.00133544,0.000860061,-0.00208178,1.00168,0.00174661,0.0162642,1952,1324,31.7971,-7.25554
735,-300,31.8496,6.79468,0,0,0,0,0,0,0,-1,1959,1324,31.8497,-6.79463
742,-300,31.6326,6.68945,0,0,0,0,0,0,0,-1,1966,1324,31.6326,-6.68944
749,-300,27.4065,5.9718,0,0,0,0,0,0,0,-1,1973,1324,27.4065,-5.97181
756,-300,22.1423,3.45642,0,0,0,0,0,0,0,-1,1980,1324,22.1423,-3.45638
763,-300,22.6136,5.1571,0,0,0,0,0,0,0,-1,1987,1324,22.6136,-5.15706
770,-300,24.859,4.77979,0,0,0,0,0,0,0,-1,1994,1324,24.859,-4.77972
777,-300,0,0,0,0,0,0,0,0,0,-1,2001,1324,0,0
784,-300,0,0,0,0,0,0,0,0,0,-1,2008,1324,0,0
791,-300,0,0,0,0,0,0,0,0,0,-1,2015,1324,0,0
798,-300,0,0,0,0,0,0,0,0,0,-1,2022,1324,0,0
805,-300,0,0,0,0,0,0,0,0,0,-1,2029,1324,0,0
812,-300,0,0,0,0,0,0,0,0,0,-1,2036,1324,0,0
-700,-307,0,0,0,0,0,0,0,0,0,-1,524,1331,0,0
-693,-307,0,0,0,0,0,0,0,0,0,-1,531,1331,0,0
-686,-307,0,0,0,0,0,0,0,0,0,-1,538,1331,0,0
-679,-307,0,0,0,0,0,0,0,0,0,-1,545,1331,0,0
-672,-307,0,0,0,0,0,0,0,0,0,-1,552,1331,0,0
-665,-307,0,0,0,0,0,0,0,0,0,-1,559,1331,0,0
-658,-307,0,0,0,0,0,0,0,0,0,-1,566,1331,0,0
-651,-307,-20.2972,-0.0720215,0,0,0,0,0,0,0,-1,573,1331,-20.2973,0.0720287
-644,-307,-20.7615,0.556152,0,0,0,0,0,0,0,-1,580,1331,-20.7615,-0.556159
-637,-307,-21.0822,1.21277,0,0,0,0,0,0,0,-1,587,1331,-21.0821,-1.21273
-630,-307,-12.0005,0.767212,0,0,0,0,0,0,0,-1,594,1331,-12.0005,-0.767266
-623,-307,-12.2128,2.93811,0,0,0,0,0,0,0,-1,601,1331,-12.2128,-2.93813
-616,-307,-12.6612,2.08289,0,0,0,0,0,0,0,-1,608,1331,-12.6612,-2.08293
-609,-307,-12.2767,1.83228,0,0,0,0,0,0,0,-1,615,1331,-12.2768,-1.83224
-602,-307,-17.9941,4.27075,0,0,0,0,0,0,0,-1,622,1331,-17.9942,-4.27069
-595,-307,-18.0919,4.91431,0.00583262,0.00562969,0.00504963,0.0107818,0.000680506,0.775353,0.00697211,0.0423927,629,1331,-18.0919,-4.91433
-588,-307,-17.994,5.49707,0.00436767,0.00384916,0.00349316,0.00761118,0.000605646,0.748357,0.00488477,0.0208938,636,1331,-17.994,-5.4971
-581,-307,-18.0016,6.00171,0.00335437,0.00252576,0.00237336,0.00534932,0.000530812,0.698987,0.0034031,0.0154231,643,1331,-18.0016,-6.00172
-574,-307,-18.0374,6.47229,0.00265581,0.00146193,0.00152733,0.0036987,0.000419029,0.599105,0.00233867,0.0130806,650,1331,-18.0373,-6.4723
-567,-307,-18.05,6.9812,0.00226955,0.000573851,0.000902399,0.00265991,0.000183487,0.408278,0.00171539,0.0137143,657,1331,-18.0501,-6.98119
-560,-307,-18.0494,7.49792,0.00218433,-0.00019461,0.000465714,0.00227225,-0.000282531,0.186592,0.00161726,0.0143759,664,1331,-18.0494,-7.49791
-553,-307,-18.0615,7.96973,0.00238376,-0.000836875,0.000199832,0.00239611,-0.000849226,0.0617318,0.00194335,0.010828,671,1331,-18.0615,-7.96976
-546,-307,-18.0817,8.45581,0.00292546,-0.00138142,0.000129701,0.00292936,-0.00138533,0.0300784,0.0025437,0.010807,678,1331,-18.0817,-8.45582
-539,-307,-18.0865,8.98743,0.00396942,-0.00194791,0.000278387,0.00398248,-0.00196098,0.046908,0.003497,0.0156547,685,1331,-18.0865,-8.98747
-532,-307,-18.0841,9.51721,0,0,0,0,0,0,0,-1,692,1331,-18.0841,-9.51727
-525,-307,-13.2009,6.91309,0,0,0,0,0,0,0,-1,699,1331,-13.2009,-6.9131
-518,-307,-9.77777,-1.56653,0,0,0,0,0,0,0,-1,706,1331,-9.77777,1.56651
-511,-307,-12.5226,0.26709,0,0,0,0,0,0,0,-1,713,1331,-12.5226,-0.267038
-504,-307,-12.5913,-0.308105,0,0,0,0,0,0,0,-1,720,1331,-12.5913,0.308124
-497,-307,-13.8586,-0.115845,0,0,0,0,0,0,0,-1,727,1331,-13.8587,0.115861
-490,-307,-17.9429,0.982178,0,0,0,0,0,0,0,-1,734,1331,-17.9429,-0.982198
-483,-307,-18.1066,0.927612,0,0,0,0,0,0,0,-1,741,1331,-18.1066,-0.927609
-476,-307,-18.1288,1.1228,0,0,0,0,0,0,0,-1,748,1331,-18.1289,-1.12286
-469,-307,-18.2028,0.798584,0,0,0,0,0,0,0,-1,755,1331,-18.2027,-0.798546
-462,-307,0,0,0,0,0,0,0,0,0,-1,762,1331,0,0
-455,-307,0,0,0,0,0,0,0,0,0,-1,769,1331,0,0
-448,-307,0,0,0,0,0,0,0,0,0,-1,776,1331,0,0
-441,-307,0,0,0,0,0,0,0,0,0,-1,783,1331,0,0
-434,-307,0,0,0,0,0,0,0,0,0,-1,790,1331,0,0
-427,-307,0,0,0,0,0,0,0,0,0,-1,797,1331,0,0
-420,-307,0,0,0,0,0,0,0,0,0,-1,804,1331,0,0
-413,-307,0,0,0,0,0,0,0,0,0,-1,811,1331,0,0
-406,-307,0,0,0,0,0,0,0,0,0,-1,818,1331,0,0
-399,-307,0,0,0,0,0,0,0,0,0,-1,825,1331,0,0
-392,-307,0,0,0,0,0,0,0,0,0,-1,832,1331,0,0
-385,-307,0,0,0,0,0,0,0,0,0,-1,839,1331,0,0
-378,-307,0,0,0,0,0,0,0,0,0,-1,846,1331,0,0
-371,-307,0,0,0,0,0,0,0,0,0,-1,853,1331,0,0
-364,-307,0,0,0,0,0,0,0,0,0,-1,860,1331,0,0
-357,-307,0,0,0,0,0,0,0,0,0,-1,867,1331,0,0
-350,-307,0,0,0,0,0,0,0,0,0,-1,874,1331,0,0
-343,-307,0,0,0,0,0,0,0,0,0,-1,881,1331,0,0
-336,-307,0,0,0,0,0,0,0,0,0,-1,888,1331,0,0
-329,-307,0,0,0,0,0,0,0,0,0,-1,895,1331,0,0
-322,-307,0,0,0,0,0,0,0,0,0,-1,902,1331,0,0
-315,-307,0,0,0,0,0,0,0,0,0,-1,909,1331,0,0
-308,-307,0,0,0,0,0,0,0,0,0,-1,916,1331,0,0
-301,-307,0,0,0,0,0,0,0,0,0,-1,923,1331,0,0
-294,-307,0,0,0,0,0,0,0,0,0,-1,930,1331,0,0
-287,-307,0,0,0,0,0,0,0,0,0,-1,937,1331,0,0
-280,-307,0,0,0,0,0,0,0,0,0,-1,944,1331,0,0
-273,-307,0,0,0,0,0,0,0,0,0,-1,951,1331,0,0
-266,-307,0,0,0,0,0,0,0,0,0,-1,958,1331,0,0
-259,-307,0,0,0,0,0,0,0,0,0,-1,965,1331,0,0
-252,-307,0,0,0,0,0,0,0,0,0,-1,972,1331,0,0
-245,-307,0,0,0,0,0,0,0,0,0,-1,979,1331,0,0
-238,-307,0,0,0,0,0,0,0,0,0,-1,986,1331,0,0
-231,-307,0,0,0,0,0,0,0,0,0,-1,993,1331,0,0
-224,-307,0,0,0,0,0,0,0,0,0,-1,1000,1331,0,0
-217,-307,0,0,0,0,0,0,0,0,0,-1,1007,1331,0,0
-210,-307,0,0,0,0,0,0,0,0,0,-1,1014,1331,0,0
-203,-307,0,0,0,0,0,0,0,0,0,-1,1021,1331,0,0
-196,-307,0,0,0,0,0,0,0,0,0,-1,1028,1331,0,0
-189,-307,0,0,0,0,0,0,0,0,0,-1,1035,1331,0,0
-182,-307,0,0,0,0,0,0,0,0,0,-1,1042,1331,0,0
-175,-307,0,0,0,0,0,0,0,0,0,-1,1049,1331,0,0
-168,-307,0,0,0,0,0,0,0,0,0,-1,1056,1331,0,0
-161,-307,0,0,0,0,0,0,0,0,0,-1,1063,1331,0,0
-154,-307,0,0,0,0,0,0,0,0,0,-1,1070,1331,0,0
-147,-307,0,0,0,0,0,0,0,0,0,-1,1077,1331,0,0
-140,-307,0,0,0,0,0,0,0,0,0,-1,1084,1331,0,0
-133,-307,0,0,0,0,0,0,0,0,0,-1,1091,1331,0,0
-126,-307,0,0,0,0,0,0,0,0,0,-1,1098,1331,0,0
-119,-307,0,0,0,0,0,0,0,0,0,-1,1105,1331,0,0
-112,-307,0,0,0,0,0,0,0,0,0,-1,1112,1331,0,0
-105,-307,0,0,0,0,0,0,0,0,0,-1,1119,1331,0,0
-98,-307,0,0,0,0,0,0,0,0,0,-1,1126,1331,0,0
-91,-307,0,0,0,0,0,0,0,0,0,-1,1133,1331,0,0
-84,-307,0,0,0,0,0,0,0,0,0,-1,1140,1331,0,0
-77,-307,0,0,0,0,0,0,0,0,0,-1,1147,1331,0,0
-70,-307,0,0,0,0,0,0,0,0,0,-1,1154,1331,0,0
-63,-307,0,0,0,0,0,0,0,0,0,-1,1161,1331,0,0
-56,-307,0,0,0,0,0,0,0,0,0,-1,1168,1331,0,0
-49,-307,0,0,0,0,0,0,0,0,0,-1,1175,1331,0,0
-42,-307,0,0,0,0,0,0,0,0,0,-1,1182,1331,0,0
-35,-307,0,0,0,0,0,0,0,0,0,-1,1189,1331,0,0
-28,-307,0,0,0,0,0,0,0,0,0,-1,1196,1331,0,0
-21,-307,0,0,0,0,0,0,0,0,0,-1,1203,1331,0,0
-14,-307,0,0,0,0,0,0,0,0,0,-1,1210,1331,0,0
-7,-307,0,0,0,0,0,0,0,0,0,-1,1217,1331,0,0
0,-307,0,0,0,0,0,0,0,0,0,-1,1224,1331,0,0
7,-307,0,0,0,0,0,0,0,0,0,-1,1231,1331,0,0
14,-307,0,0,0,0,0,0,0,0,0,-1,1238,1331,0,0
21,-307,0,0,0,0,0,0,0,0,0,-1,1245,1331,0,0
28,-307,0,0,0,0,0,0,0,0,0,-1,1252,1331,0,0
35,-307,0,0,0,0,0,0,0,0,0,-1,1259,1331,0,0
42,-307,0,0,0,0,0,0,0,0,0,-1,1266,1331,0,0
49,-307,0,0,0,0,0,0,0,0,0,-1,1273,1331,0,0
56,-307,0,0,0,0,0,0,0,0,0,-1,1280,1331,0,0
63,-307,0,0,0,0,0,0,0,0,0,-1,1287,1331,0,0
70,-307,0,0,0,0,0,0,0,0,0,-1,1294,1331,0,0
77,-307,0,0,0,0,0,0,0,0,0,-1,1301,1331,0,0
84,-307,0,0,0,0,0,0,0,0,0,-1,1308,1331,0,0
91,-307,0,0,0,0,0,0,0,0,0,-1,1315,1331,0,0
98,-307,0,0,0,0,0,0,0,0,0,-1,1322,1331,0,0
105,-307,0,0,0,0,0,0,0,0,0,-1,1329,1331,0,0
112,-307,0,0,0,0,0,0,0,0,0,-1,1336,1331,0,0
119,-307,0,0,0,0,0,0,0,0,0,-1,1343,1331,0,0
126,-307,0,0,0,0,0,0,0,0,0,-1,1350,1331,0,0
133,-307,0,0,0,0,0,0,0,0,0,-1,1357,1331,0,0
140,-307,0,0,0,0,0,0,0,0,0,-1,1364,1331,0,0
147,-307,0,0,0,0,0,0,0,0,0,-1,1371,1331,0,0
154,-307,0,0,0,0,0,0,0,0,0,-1,1378,1331,0,0
161,-307,0,0,0,0,0,0,0,0,0,-1,1385,1331,0,0
168,-307,0,0,0,0,0,0,0,0,0,-1,1392,1331,0,0
175,-307,0,0,0,0,0,0,0,0,0,-1,1399,1331,0,0
182,-307,0,0,0,0,0,0,0,0,0,-1,1406,1331,0,0
189,-307,0,0,0,0,0,0,0,0,0,-1,1413,1331,0,0
196,-307,0,0,0,0,0,0,0,0,0,-1,1420,1331,0,0
203,-307,0,0,0,0,0,0,0,0,0,-1,1427,1331,0,0
210,-307,0,0,0,0,0,0,0,0,0,-1,1434,1331,0,0
217,-307,0,0,0,0,0,0,0,0,0,-1,1441,1331,0,0
224,-307,0,0,0,0,0,0,0,0,0,-1,1448,1331,0,0
231,-307,0,0,0,0,0,0,0,0,0,-1,1455,1331,0,0
238,-307,0,0,0,0,0,0,0,0,0,-1,1462,1331,0,0
245,-307,0,0,0,0,0,0,0,0,0,-1,1469,1331,0,0
252,-307,0,0,0,0,0,0,0,0,0,-1,1476,1331,0,0
259,-307,0,0,0,0,0,0,0,0,0,-1,1483,1331,0,0
266,-307,0,0,0,0,0,0,0,0,0,-1,1490,1331,0,0
273,-307,0,0,0,0,0,0,0,0,0,-1,1497,1331,0,0
280,-307,0,0,0,0,0,0,0,0,0,-1,1504,1331,0,0
287,-307,0,0,0,0,0,0,0,0,0,-1,1511,1331,0,0
294,-307,0,0,0,0,0,0,0,0,0,-1,1518,1331,0,0
301,-307,0,0,0,0,0,0,0,0,0,-1,1525,1331,0,0
308,-307,0,0,0,0,0,0,0,0,0,-1,1532,1331,0,0
315,-307,0,0,0,0,0,0,0,0,0,-1,1539,1331,0,0
322,-307,0,0,0,0,0,0,0,0,0,-1,1546,1331,0,0
329,-307,0,0,0,0,0,0,0,0,0,-1,1553,1331,0,0
336,-307,0,0,0,0,0,0,0,0,0,-1,1560,1331,0,0
343,-307,0,0,0,0,0,0,0,0,0,-1,1567,1331,0,0
350,-307,0,0,0,0,0,0,0,0,0,-1,1574,1331,0,0
357,-307,0,0,0,0,0,0,0,0,0,-1,1581,1331,0,0
364,-307,0,0,0,0,0,0,0,0,0,-1,1588,1331,0,0
371,-307,0,0,0,0,0,0,0,0,0,-1,1595,1331,0,0
378,-307,0,0,0,0,0,0,0,0,0,-1,1602,1331,0,0
385,-307,0,0,0,0,0,0,0,0,0,-1,1609,1331,0,0
392,-307,0,0,0,0,0,0,0,0,0,-1,1616,1331,0,0
399,-307,0,0,0,0,0,0,0,0,0,-1,1623,1331,0,0
406,-307,0,0,0,0,0,0,0,0,0,-1,1630,1331,0,0
413,-307,0,0,0,0,0,0,0,0,0,-1,1637,1331,0,0
420,-307,0,0,0,0,0,0,0,0,0,-1,1644,1331,0,0
427,-307,0,0,0,0,0,0,0,0,0,-1,1651,1331,0,0
434,-307,0,0,0,0,0,0,0,0,0,-1,1658,1331,0,0
441,-307,0,0,0,0,0,0,0,0,0,-1,1665,1331,0,0
448,-307,0,0,0,0,0,0,0,0,0,-1,1672,1331,0,0
455,-307,0,0,0,0,0,0,0,0,0,-1,1679,1331,0,0
462,-307,0,0,0,0,0,0,0,0,0,-1,1686,1331,0,0
469,-307,0,0,0,0,0,0,0,0,0,-1,1693,1331,0,0
476,-307,0,0,0,0,0,0,0,0,0,-1,1700,1331,0,0
483,-307,0,0,0,0,0,0,0,0,0,-1,1707,1331,0,0
490,-307,0,0,0,0,0,0,0,0,0,-1,1714,1331,0,0
497,-307,0,0,0,0,0,0,0,0,0,-1,1721,1331,0,0
504,-307,0,0,0,0,0,0,0,0,0,-1,1728,1331,0,0
511,-307,0,0,0,0,0,0,0,0,0,-1,1735,1331,0,0
518,-307,0,0,0,0,0,0,0,0,0,-1,1742,1331,0,0
525,-307,0,0,0,0,0,0,0,0,0,-1,1749,1331,0,0
532,-307,0,0,0,0,0,0,0,0,0,-1,1756,1331,0,0
539,-307,0,0,0,0,0,0,0,0,0,-1,1763,1331,0,0
546,-307,0,0,0,0,0,0,0,0,0,-1,1770,1331,0,0
553,-307,0,0,0,0,0,0,0,0,0,-1,1777,1331,0,0
560,-307,0,0,0,0,0,0,0,0,0,-1,1784,1331,0,0
567,-307,0,0,0,0,0,0,0,0,0,-1,1791,1331,0,0
574,-307,0,0,0,0,0,0,0,0,0,-1,1798,1331,0,0
581,-307,0,0,0,0,0,0,0,0,0,-1,1805,1331,0,0
588,-307,43.0215,1.94336,0,0,0,0,0,0,0,-1,1812,1331,43.0215,-1.94336
595,-307,43.5874,1.73145,0,0,0,0,0,0,0,-1,1819,1331,43.5875,-1.73144
602,-307,43.9133,1.6084,0,0,0,0,0,0,0,-1,1826,1331,43.9134,-1.6084
609,-307,44.4078,1.23438,0.031809,0.053983,0.032656,0.0773827,0.00840926,0.949048,0.0490264,0.0472557,1833,1331,44.4079,-1.23441
616,-307,44.4607,1.15173,0.0233611,0.0444163,0.0266835,0.0625739,0.00520353,0.973292,0.0400942,0.0496029,1840,1331,44.4607,-1.15176
623,-307,44.6255,1.22668,0,0,0,0,0,0,0,-1,1847,1331,44.6255,-1.22666
630,-307,29.8116,1.51184,0,0,0,0,0,0,0,-1,1854,1331,29.8116,-1.51188
637,-307,24.6407,4.09106,0,0,0,0,0,0,0,-1,1861,1331,24.6407,-4.09103
644,-307,22.6885,5.80408,0,0,0,0,0,0,0,-1,1868,1331,22.6884,-5.80408
651,-307,17.5013,5.80078,0,0,0,0,0,0,0,-1,1875,1331,17.5014,-5.80072
658,-307,31.7504,11.9451,0,0,0,0,0,0,0,-1,1882,1331,31.7504,-11.9451
665,-307,31.4945,11.3827,-0.000228385,0.00377863,0.0033437,0.00567312,-0.00212287,1.05531,0.00465399,0.0407733,1889,1331,31.4945,-11.3827
672,-307,31.4216,10.9495,-0.00103679,-0.000697476,3.06933e-05,-0.000694722,-0.00103955,1.48131,0.000611409,0.014165,1896,1331,31.4217,-10.9495
679,-307,31.4059,10.4825,-0.000215339,-0.000652428,3.93179e-05,-0.000211831,-0.000655937,0.0890019,0.000386539,0.0100804,1903,1331,31.4059,-10.4825
686,-307,31.3839,10.0155,0.000361449,-0.000690798,0.000137962,0.000379236,-0.000708586,0.128225,0.000637577,0.00996648,1910,1331,31.3839,-10.0155
693,-307,31.3588,9.55884,0.000469098,-0.000543105,0.000181974,0.000500819,-0.000574826,0.172583,0.000621514,0.0116231,1917,1331,31.3587,-9.5589
700,-307,31.3589,9.07495,0.00025053,-0.000261043,0.000332534,0.000414273,-0.000424787,0.457559,0.000484444,0.0133999,1924,1331,31.3589,-9.07501
707,-307,31.3582,8.60229,-5.27514e-05,-2.59096e-05,0.00053142,0.000492258,-0.000570919,0.798023,0.000614386,0.0148549,1931,1331,31.3582,-8.60224
714,-307,31.371,8.19202,-0.00047447,0.000228376,0.000764257,0.000718135,-0.000964229,1.00089,0.000974771,0.014146,1938,1331,31.371,-8.19196
721,-307,31.3936,7.75757,-0.0010346,0.000463939,0.00107961,0.00102881,-0.00159947,1.08875,0.00152932,0.017941,1945,1331,31.3936,-7.75755
728,-307,31.3333,7.46851,-0.00177273,0.000716396,0.00143988,0.00137504,-0.00243137,1.14178,0.00222566,0.0432625,1952,1331,31.3333,-7.46854
735,-307,31.3698,6.90125,0,0,0,0,0,0,0,-1,1959,1331,31.3698,-6.90121
742,-307,26.677,6.09192,0,0,0,0,0,0,0,-1,1966,1331,26.677,-6.0919
749,-307,26.7727,5.9032,0,0,0,0,0,0,0,-1,1973,1331,26.7727,-5.90323
756,-307,27.1556,5.74756,0,0,0,0,0,0,0,-1,1980,1331,27.1557,-5.7475
763,-307,18.7522,3.55298,0,0,0,0,0,0,0,-1,1987,1331,18.7522,-3.55301
770,-307,0,0,0,0,0,0,0,0,0,-1,1994,1331,0,0
777,-307,0,0,0,0,0,0,0,0,0,-1,2001,1331,0,0
784,-307,0,0,0,0,0,0,0,0,0,-1,2008,1331,0,0
791,-307,0,0,0,0,0,0,0,0,0,-1,2015,1331,0,0
798,-307,0,0,0,0,0,0,0,0,0,-1,2022,1331,0,0
805,-307,0,0,0,0,0,0,0,0,0,-1,2029,1331,0,0
812,-307,0,0,0,0,0,0,0,0,0,-1,2036,1331,0,0
-700,-314,0,0,0,0,0,0,0,0,0,-1,524,1338,0,0
-693,-314,0,0,0,0,0,0,0,0,0,-1,531,1338,0,0
-686,-314,0,0,0,0,0,0,0,0,0,-1,538,1338,0,0
-679,-314,0,0,0,0,0,0,0,0,0,-1,545,1338,0,0
-672,-314,0,0,0,0,0,0,0,0,0,-1,552,1338,0,0
-665,-314,0,0,0,0,0,0,0,0,0,-1,559,1338,0,0
-658,-314,0,0,0,0,0,0,0,0,0,-1,566,1338,0,0
-651,-314,0,0,0,0,0,0,0,0,0,-1,573,1338,0,0
-644,-314,-20.9896,-0.0299072,0,0,0,0,0,0,0,-1,580,1338,-20.9896,0.0299587
-637,-314,-18.8677,6.62646,0,0,0,0,0,0,0,-1,587,1338,-18.8677,-6.62651
-630,-314,-13.2771,2.98938,0,0,0,0,0,0,0,-1,594,1338,-13.2771,-2.98943
-623,-314,-13.3542,3.00903,0,0,0,0,0,0,0,-1,601,1338,-13.3542,-3.00907
-616,-314,-9.93311,1.15088,0,0,0,0,0,0,0,-1,608,1338,-9.93308,-1.15093
-609,-314,-9.4361,2.86292,0,0,0,0,0,0,0,-1,615,1338,-9.43612,-2.86286
-602,-314,-11.8027,2.42798,0,0,0,0,0,0,0,-1,622,1338,-11.8027,-2.42802
-595,-314,-17.5416,4.58386,0,0,0,0,0,0,0,-1,629,1338,-17.5416,-4.58391
-588,-314,-17.5486,5.44141,0.00503593,0.0037743,0.00350783,0.00796921,0.000841023,0.696434,0.00505584,0.0307244,636,1338,-17.5486,-5.44144
-581,-314,-17.491,5.97876,0.00378883,0.00255666,0.00235004,0.0056022,0.000743293,0.657204,0.00351334,0.013134,643,1338,-17.491,-5.97876
-574,-314,-17.5362,6.45984,0.00292069,0.00157298,0.00150777,0.00389833,0.000595338,0.575253,0.00242492,0.0128303,650,1338,-17.5362,-6.45983
-567,-314,-17.5359,6.99255,0.00242178,0.000769156,0.000918549,0.00283099,0.000359942,0.419106,0.00177952,0.0141514,657,1338,-17.5359,-6.99258
-560,-314,-17.5148,7.52881,0.00227727,8.74275e-05,0.000549805,0.00240756,-4.2861e-05,0.23268,0.00161951,0.0148217,664,1338,-17.5148,-7.52881
-553,-314,-17.5377,7.99976,0.0024267,-0.000506953,0.000346988,0.00246718,-0.000547435,0.116143,0.0018544,0.0181159,671,1338,-17.5377,-7.99977
-546,-314,-17.5898,8.50195,0.00296504,-0.00100845,0.000357705,0.00299698,-0.00104039,0.0890686,0.0024205,0.0193582,678,1338,-17.5898,-8.50194
-539,-314,-17.6017,9.02661,0.00397151,-0.00149124,0.000582278,0.00403289,-0.00155262,0.105018,0.00332909,0.0185409,685,1338,-17.6017,-9.02664
-532,-314,-17.5748,9.49109,0,0,0,0,0,0,0,-1,692,1338,-17.5747,-9.49104
-525,-314,-13.3017,7.50671,0,0,0,0,0,0,0,-1,699,1338,-13.3017,-7.50669
-518,-314,-8.52753,4.70032,0,0,0,0,0,0,0,-1,706,1338,-8.52755,-4.70034
-511,-314,-11.8597,0.384888,0,0,0,0,0,0,0,-1,713,1338,-11.8597,-0.384927
-504,-314,-11.4322,-0.187378,0,0,0,0,0,0,0,-1,720,1338,-11.4322,0.187381
-497,-314,-11.0047,-0.759644,0,0,0,0,0,0,0,-1,727,1338,-11.0047,0.759689
-490,-314,-18.5143,0.471069,0,0,0,0,0,0,0,-1,734,1338,-18.5143,-0.47103
-483,-314,-17.8528,0.577271,0,0,0,0,0,0,0,-1,741,1338,-17.8528,-0.577327
-476,-314,-17.714,0.665405,0,0,0,0,0,0,0,-1,748,1338,-17.714,-0.665388
-469,-314,-17.7246,0.794678,0,0,0,0,0,0,0,-1,755,1338,-17.7246,-0.794645
-462,-314,0,0,0,0,0,0,0,0,0,-1,762,1338,0,0
-455,-314,0,0,0,0,0,0,0,0,0,-1,769,1338,0,0
-448,-314,0,0,0,0,0,0,0,0,0,-1,776,1338,0,0
-441,-314,0,0,0,0,0,0,0,0,0,-1,783,1338,0,0
-434,-314,0,0,0,0,0,0,0,0,0,-1,790,1338,0,0
-427,-314,0,0,0,0,0,0,0,0,0,-1,797,1338,0,0
-420,-314,0,0,0,0,0,0,0,0,0,-1,804,1338,0,0
-413,-314,0,0,0,0,0,0,0,0,0,-1,811,1338,0,0
-406,-314,0,0,0,0,0,0,0,0,0,-1,818,1338,0,0
-399,-314,0,0,0,0,0,0,0,0,0,-1,825,1338,0,0
-392,-314,0,0,0,0,0,0,0,0,0,-1,832,1338,0,0
-385,-314,0,0,0,0,0,0,0,0,0,-1,839,1338,0,0
-378,-314,0,0,0,0,0,0,0,0,0,-1,846,1338,0,0
-371,-314,0,0,0,0,0,0,0,0,0,-1,853,1338,0,0
-364,-314,0,0,0,0,0,0,0,0,0,-1,860,1338,0,0
-357,-314,0,0,0,0,0,0,0,0,0,-1,867,1338,0,0
-350,-314,0,0,0,0,0,0,0,0,0,-1,874,1338,0,0
-343,-314,0,0,0,0,0,0,0,0,0,-1,881,1338,0,0
-336,-314,0,0,0,0,0,0,0,0,0,-1,888,1338,0,0
-329,-314,0,0,0,0,0,0,0,0,0,-1,895,1338,0,0
-322,-314,0,0,0,0,0,0,0,0,0,-1,902,1338,0,0
-315,-314,0,0,0,0,0,0,0,0,0,-1,909,1338,0,0
-308,-314,0,0,0,0,0,0,0,0,0,-1,916,1338,0,0
-301,-314,0,0,0,0,0,0,0,0,0,-1,923,1338,0,0
-294,-314,0,0,0,0,0,0,0,0,0,-1,930,1338,0,0
-287,-314,0,0,0,0,0,0,0,0,0,-1,937,1338,0,0
-280,-314,0,0,0,0,0,0,0,0,0,-1,944,1338,0,0
-273,-314,0,0,0,0,0,0,0,0,0,-1,951,1338,0,0
-266,-314,0,0,0,0,0,0,0,0,0,-1,958,1338,0,0
-259,-314,0,0,0,0,0,0,0,0,0,-1,965,1338,0,0
-252,-314,0,0,0,0,0,0,0,0,0,-1,972,1338,0,0
-245,-314,0,0,0,0,0,0,0,0,0,-1,979,1338,0,0
-238,-314,0,0,0,0,0,0,0,0,0,-1,986,1338,0,0
-231,-314,0,0,0,0,0,0,0,0,0,-1,993,1338,0,0
-224,-314,0,0,0,0,0,0,0,0,0,-1,1000,1338,0,0
-217,-314,0,0,0,0,0,0,0,0,0,-1,1007,1338,0,0
-210,-314,0,0,0,0,0,0,0,0,0,-1,1014,1338,0,0
-203,-314,0,0,0,0,0,0,0,0,0,-1,1021,1338,0,0
-196,-314,0,0,0,0,0,0,0,0,0,-1,1028,1338,0,0
-189,-314,0,0,0,0,0,0,0,0,0,-1,1035,1338,0,0
-182,-314,0,0,0,0,0,0,0,0,0,-1,1042,1338,0,0
-175,-314,0,0,0,0,0,0,0,0,0,-1,1049,1338,0,0
-168,-314,0,0,0,0,0,0,0,0,0,-1,1056,1338,0,0
-161,-314,0,0,0,0,0,0,0,0,0,-1,1063,1338,0,0
-154,-314,0,0,0,0,0,0,0,0,0,-1,1070,1338,0,0
-147,-314,0,0,0,0,0,0,0,0,0,-1,1077,1338,0,0
-140,-314,0,0,0,0,0,0,0,0,0,-1,1084,1338,0,0
-133,-314,0,0,0,0,0,0,0,0,0,-1,1091,1338,0,0
-126,-314,0,0,0,0,0,0,0,0,0,-1,1098,1338,0,0
-119,-314,0,0,0,0,0,0,0,0,0,-1,1105,1338,0,0
-112,-314,0,0,0,0,0,0,0,0,0,-1,1112,1338,0,0
-105,-314,0,0,0,0,0,0,0,0,0,-1,1119,1338,0,0
-98,-314,0,0,0,0,0,0,0,0,0,-1,1126,1338,0,0
-91,-314,0,0,0,0,0,0,0,0,0,-1,1133,1338,0,0
-84,-314,0,0,0,0,0,0,0,0,0,-1,1140,1338,0,0
-77,-314,0,0,0,0,0,0,0,0,0,-1,1147,1338,0,0
-70,-314,0,0,0,0,0,0,0,0,0,-1,1154,1338,0,0
-63,-314,0,0,0,0,0,0,0,0,0,-1,1161,1338,0,0
-56,-314,0,0,0,0,0,0,0,0,0,-1,1168,1338,0,0
-49,-314,0,0,0,0,0,0,0,0,0,-1,1175,1338,0,0
-42,-314,0,0,0,0,0,0,0,0,0,-1,1182,1338,0,0
-35,-314,0,0,0,0,0,0,0,0,0,-1,1189,1338,0,0
-28,-314,0,0,0,0,0,0,0,0,0,-1,1196,1338,0,0
-21,-314,0,0,0,0,0,0,0,0,0,-1,1203,1338,0,0
-14,-314,0,0,0,0,0,0,0,0,0,-1,1210,1338,0,0
-7,-314,0,0,0,0,0,0,0,0,0,-1,1217,1338,0,0
0,-314,0,0,0,0,0,0,0,0,0,-1,1224,1338,0,0
7,-314,0,0,0,0,0,0,0,0,0,-1,1231,1338,0,0
14,-314,0,0,0,0,0,0,0,0,0,-1,1238,1338,0,0
21,-314,0,0,0,0,0,0,0,0,0,-1,1245,1338,0,0
28,-314,0,0,0,0,0,0,0,0,0,-1,1252,1338,0,0
35,-314,0,0,0,0,0,0,0,0,0,-1,1259,1338,0,0
42,-314,0,0,0,0,0,0,0,0,0,-1,1266,1338,0,0
49,-314,0,0,0,0,0,0,0,0,0,-1,1273,1338,0,0
56,-314,0,0,0,0,0,0,0,0,0,-1,1280,1338,0,0
63,-314,0,0,0,0,0,0,0,0,0,-1,1287,1338,0,0
70,-314,0,0,0,0,0,0,0,0,0,-1,1294,1338,0,0
77,-314,0,0,0,0,0,0,0,0,0,-1,1301,1338,0,0
84,-314,0,0,0,0,0,0,0,0,0,-1,1308,1338,0,0
91,-314,0,0,0,0,0,0,0,0,0,-1,1315,1338,0,0
98,-314,0,0,0,0,0,0,0,0,0,-1,1322,1338,0,0
105,-314,0,0,0,0,0,0,0,0,0,-1,1329,1338,0,0
112,-314,0,0,0,0,0,0,0,0,0,-1,1336,1338,0,0
119,-314,0,0,0,0,0,0,0,0,0,-1,1343,1338,0,0
126,-314,0,0,0,0,0,0,0,0,0,-1,1350,1338,0,0
133,-314,0,0,0,0,0,0,0,0,0,-1,1357,1338,0,0
140,-314,0,0,0,0,0,0,0,0,0,-1,1364,1338,0,0
147,-314,0,0,0,0,0,0,0,0,0,-1,1371,1338,0,0
154,-314,0,0,0,0,0,0,0,0,0,-1,1378,1338,0,0
161,-314,0,0,0,0,0,0,0,0,0,-1,1385,1338,0,0
168,-314,0,0,0,0,0,0,0,0,0,-1,1392,1338,0,0
175,-314,0,0,0,0,0,0,0,0,0,-1,1399,1338,0,0
182,-314,0,0,0,0,0,0,0,0,0,-1,1406,1338,0,0
189,-314,0,0,0,0,0,0,0,0,0,-1,1413,1338,0,0
196,-314,0,0,0,0,0,0,0,0,0,-1,1420,1338,0,0
203,-314,0,0,0,0,0,0,0,0,0,-1,1427,1338,0,0
210,-314,0,0,0,0,0,0,0,0,0,-1,1434,1338,0,0
217,-314,0,0,0,0,0,0,0,0,0,-1,1441,1338,0,0
224,-314,0,0,0,0,0,0,0,0,0,-1,1448,1338,0,0
231,-314,0,0,0,0,0,0,0,0,0,-1,1455,1338,0,0
238,-314,0,0,0,0,0,0,0,0,0,-1,1462,1338,0,0
245,-314,0,0,0,0,0,0,0,0,0,-1,1469,1338,0,0
252,-314,0,0,0,0,0,0,0,0,0,-1,1476,1338,0,0
259,-314,0,0,0,0,0,0,0,0,0,-1,1483,1338,0,0
266,-314,0,0,0,0,0,0,0,0,0,-1,1490,1338,0,0
273,-314,0,0,0,0,0,0,0,0,0,-1,1497,1338,0,0
280,-314,0,0,0,0,0,0,0,0,0,-1,1504,1338,0,0
287,-314,0,0,0,0,0,0,0,0,0,-1,1511,1338,0,0
294,-314,0,0,0,0,0,0,0,0,0,-1,1518,1338,0,0
301,-314,0,0,0,0,0,0,0,0,0,-1,1525,1338,0,0
308,-314,0,0,0,0,0,0,0,0,0,-1,1532,1338,0,0
315,-314,0,0,0,0,0,0,0,0,0,-1,1539,1338,0,0
322,-314,0,0,0,0,0,0,0,0,0,-1,1546,1338,0,0
329,-314,0,0,0,0,0,0,0,0,0,-1,1553,1338,0,0
336,-314,0,0,0,0,0,0,0,0,0,-1,1560,1338,0,0
343,-314,0,0,0,0,0,0,0,0,0,-1,1567,1338,0,0
350,-314,0,0,0,0,0,0,0,0,0,-1,1574,1338,0,0
357,-314,0,0,0,0,0,0,0,0,0,-1,1581,1338,0,0
364,-314,0,0,0,0,0,0,0,0,0,-1,1588,1338,0,0
371,-314,0,0,0,0,0,0,0,0,0,-1,1595,1338,0,0
378,-314,0,0,0,0,0,0,0,0,0,-1,1602,1338,0,0
385,-314,0,0,0,0,0,0,0,0,0,-1,1609,1338,0,0
392,-314,0,0,0,0,0,0,0,0,0,-1,1616,1338,0,0
399,-314,0,0,0,0,0,0,0,0,0,-1,1623,1338,0,0
406,-314,0,0,0,0,0,0,0,0,0,-1,1630,1338,0,0
413,-314,0,0,0,0,0,0,0,0,0,-1,1637,1338,0,0
420,-314,0,0,0,0,0,0,0,0,0,-1,1644,1338,0,0
427,-314,0,0,0,0,0,0,0,0,0,-1,1651,1338,0,0
434,-314,0,0,0,0,0,0,0,0,0,-1,1658,1338,0,0
441,-314,0,0,0,0,0,0,0,0,0,-1,1665,1338,0,0
448,-314,0,0,0,0,0,0,0,0,0,-1,1672,1338,0,0
455,-314,0,0,0,0,0,0,0,0,0,-1,1679,1338,0,0
462,-314,0,0,0,0,0,0,0,0,0,-1,1686,1338,0,0
469,-314,0,0,0,0,0,0,0,0,0,-1,1693,1338,0,0
476,-314,0,0,0,0,0,0,0,0,0,-1,1700,1338,0,0
483,-314,0,0,0,0,0,0,0,0,0,-1,1707,1338,0,0
490,-314,0,0,0,0,0,0,0,0,0,-1,1714,1338,0,0
497,-314,0,0,0,0,0,0,0,0,0,-1,1721,1338,0,0
504,-314,0,0,0,0,0,0,0,0,0,-1,1728,1338,0,0
511,-314,0,0,0,0,0,0,0,0,0,-1,1735,1338,0,0
518,-314,0,0,0,0,0,0,0,0,0,-1,1742,1338,0,0
525,-314,0,0,0,0,0,0,0,0,0,-1,1749,1338,0,0
532,-314,0,0,0,0,0,0,0,0,0,-1,1756,1338,0,0
539,-314,0,0,0,0,0,0,0,0,0,-1,1763,1338,0,0
546,-314,0,0,0,0,0,0,0,0,0,-1,1770,1338,0,0
553,-314,0,0,0,0,0,0,0,0,0,-1,1777,1338,0,0
560,-314,0,0,0,0,0,0,0,0,0,-1,1784,1338,0,0
567,-314,0,0,0,0,0,0,0,0,0,-1,1791,1338,0,0
574,-314,0,0,0,0,0,0,0,0,0,-1,1798,1338,0,0
581,-314,45.8688,3.97046,0,0,0,0,0,0,0,-1,1805,1338,45.8688,-3.9704
588,-314,46.0762,3.99866,0,0,0,0,0,0,0,-1,1812,1338,46.0761,-3.9987
595,-314,43.488,1.23438,0,0,0,0,0,0,0,-1,1819,1338,43.488,-1.23439
602,-314,43.83,1.1582,0,0,0,0,0,0,0,-1,1826,1338,43.8299,-1.15822
609,-314,44.0597,0.952026,0,0,0,0,0,0,0,-1,1833,1338,44.0597,-0.951975
616,-314,43.797,0.602051,0,0,0,0,0,0,0,-1,1840,1338,43.797,-0.602025
623,-314,38.7728,2.71741,0,0,0,0,0,0,0,-1,1847,1338,38.7728,-2.71737
630,-314,29.4308,6.23206,0,0,0,0,0,0,0,-1,1854,1338,29.4308,-6.23202
637,-314,22.1349,5.16418,0,0,0,0,0,0,0,-1,1861,1338,22.1349,-5.16414
644,-314,18.7517,6.2605,0,0,0,0,0,0,0,-1,1868,1338,18.7517,-6.26053
651,-314,23.1317,8.005,0,0,0,0,0,0,0,-1,1875,1338,23.1317,-8.00506
658,-314,31.0007,11.9189,0,0,0,0,0,0,0,-1,1882,1338,31.0007,-11.919
665,-314,30.937,11.4581,0.000565752,0.00360248,0.00324368,0.00566558,-0.00149735,1.0043,0.00436268,0.0265758,1889,1338,30.937,-11.4581
672,-314,30.9427,11.0037,-0.000291418,-0.000799483,-3.29669e-05,-0.000289288,-0.000801613,-0.0645265,0.000468745,0.013811,1896,1338,30.9427,-11.0037
679,-314,30.9443,10.5023,0.000252401,-0.00069245,-3.07172e-05,0.000253398,-0.000693448,-0.0324644,0.000565999,0.0112434,1903,1338,30.9443,-10.5023
686,-314,30.9236,10.0271,0.000581851,-0.000610183,3.71122e-05,0.000583005,-0.000611337,0.0310934,0.000689619,0.0127105,1910,1338,30.9236,-10.0272
693,-314,30.9048,9.5647,0.000597373,-0.00042356,9.88863e-05,0.000606863,-0.00043305,0.0956737,0.000603183,0.0125904,1917,1338,30.9048,-9.56472
700,-314,30.8824,9.09558,0.00044473,-0.000171305,0.000212203,0.000510751,-0.000237325,0.301629,0.000441414,0.0146614,1924,1338,30.8824,-9.09557
707,-314,30.8977,8.63892,0.00021851,6.42637e-05,0.000377908,0.000527084,-0.000244311,0.684741,0.00045523,0.0138977,1931,1338,30.8977,-8.63897
714,-314,30.8943,8.19617,-0.000121156,0.000305258,0.000586821,0.000716403,-0.000532302,0.959646,0.000723547,0.0123778,1938,1338,30.8943,-8.19614
721,-314,30.865,7.78467,-0.0006157,0.000496473,0.000923122,0.00101806,-0.00113729,1.05649,0.00124503,0.0256541,1945,1338,30.865,-7.78466
728,-314,31.121,7.65796,0,0,0,0,0,0,0,-1,1952,1338,31.121,-7.65798
735,-314,26.3665,6.21582,0,0,0,0,0,0,0,-1,1959,1338,26.3664,-6.21581
742,-314,26.2235,6.0166,0,0,0,0,0,0,0,-1,1966,1338,26.2235,-6.01662
749,-314,26.2223,5.47046,0,0,0,0,0,0,0,-1,1973,1338,26.2223,-5.47041
756,-314,24.2521,5.93408,0,0,0,0,0,0,0,-1,1980,1338,24.252,-5.93413
763,-314,19.2207,4.07239,0,0,0,0,0,0,0,-1,1987,1338,19.2206,-4.07239
770,-314,0,0,0,0,0,0,0,0,0,-1,1994,1338,0,0
777,-314,0,0,0,0,0,0,0,0,0,-1,2001,1338,0,0
784,-314,0,0,0,0,0,0,0,0,0,-1,2008,1338,0,0
791,-314,0,0,0,0,0,0,0,0,0,-1,2015,1338,0,0
798,-314,0,0,0,0,0,0,0,0,0,-1,2022,1338,0,0
805,-314,0,0,0,0,0,0,0,0,0,-1,2029,1338,0,0
812,-314,0,0,0,0,0,0,0,0,0,-1,2036,1338,0,0
-700,-321,0,0,0,0,0,0,0,0,0,-1,524,1345,0,0
-693,-321,0,0,0,0,0,0,0,0,0,-1,531,1345,0,0
-686,-321,0,0,0,0,0,0,0,0,0,-1,538,1345,0,0
-679,-321,0,0,0,0,0,0,0,0,0,-1,545,1345,0,0
-672,-321,0,0,0,0,0,0,0,0,0,-1,552,1345,0,0
-665,-321,0,0,0,0,0,0,0,0,0,-1,559,1345,0,0
-658,-321,0,0,0,0,0,0,0,0,0,-1,566,1345,0,0
-651,-321,0,0,0,0,0,0,0,0,0,-1,573,1345,0,0
-644,-321,-17.2769,5.65454,0,0,0,0,0,0,0,-1,580,1345,-17.2768,-5.65454
-637,-321,-13.3991,3.59241,0,0,0,0,0,0,0,-1,587,1345,-13.3991,-3.59236
-630,-321,-13.2958,3.65039,0,0,0,0,0,0,0,-1,594,1345,-13.2958,-3.65042
-623,-321,-13.2242,3.14148,0,0,0,0,0,0,0,-1,601,1345,-13.2243,-3.14146
-616,-321,-11.6754,3.13794,0,0,0,0,0,0,0,-1,608,1345,-11.6754,-3.13789
-609,-321,-7.95209,1.14758,0,0,0,0,0,0,0,-1,615,1345,-7.95208,-1.14757
-602,-321,-8.85791,2.50049,0,0,0,0,0,0,0,-1,622,1345,-8.85791,-2.50048
-595,-321,-17.5667,4.76807,0,0,0,0,0,0,0,-1,629,1345,-17.5666,-4.76804
-588,-321,-17.1198,5.35229,0.00504894,0.00337637,0.00305657,0.00738157,0.00104374,0.651866,0.00461266,0.0462902,636,1345,-17.1198,-5.35232
-581,-321,-17.0054,5.99316,0.00365652,0.00233822,0.00196429,0.0050693,0.000925443,0.623518,0.00311719,0.0146603,643,1345,-17.0054,-5.99312
-574,-321,-17.0349,6.47961,0.00272657,0.00148611,0.0012146,0.00347014,0.00074254,0.549335,0.00210993,0.0156727,650,1345,-17.0349,-6.47967
-567,-321,-17.0374,6.99231,0.00222952,0.000818631,0.000734404,0.00254241,0.000505743,0.402755,0.00155403,0.0206786,657,1345,-17.0373,-6.99234
-560,-321,-17.0211,7.56458,0.0021432,0.000269348,0.000492719,0.00226486,0.000147689,0.242072,0.00146316,0.0242141,664,1345,-17.021,-7.56458
-553,-321,-17.0126,8.01477,0.00236427,-0.000238459,0.00039907,0.00242408,-0.000298273,0.148776,0.0017241,0.0277391,671,1345,-17.0126,-8.01471
-546,-321,-17.0615,8.51392,0.00299219,-0.000657493,0.000509506,0.00306199,-0.000727287,0.136136,0.00232204,0.02755,678,1345,-17.0615,-8.51398
-539,-321,-17.1165,9.01782,0.00404693,-0.0010369,0.000812885,0.00417374,-0.00116371,0.154757,0.00324081,0.02452,685,1345,-17.1165,-9.0178
-532,-321,-17.0616,9.48889,0.00578426,-0.00129964,0.00141623,0.0060569,-0.00157229,0.190186,0.00465147,0.0321819,692,1345,-17.0617,-9.48888
-525,-321,-17.0272,9.9635,0,0,0,0,0,0,0,-1,699,1345,-17.0272,-9.96349
-518,-321,-10.3564,6.75696,0,0,0,0,0,0,0,-1,706,1345,-10.3564,-6.75694
-511,-321,-9.3302,5.29297,0,0,0,0,0,0,0,-1,713,1345,-9.33023,-5.29294
-504,-321,-10.4713,0.0145264,0,0,0,0,0,0,0,-1,720,1345,-10.4713,-0.0145296
-497,-321,-9.96771,0.313599,0,0,0,0,0,0,0,-1,727,1345,-9.96769,-0.313618
-490,-321,-10.7631,0.973511,0,0,0,0,0,0,0,-1,734,1345,-10.7631,-0.97353
-483,-321,-17.5908,0.2323,0,0,0,0,0,0,0,-1,741,1345,-17.5908,-0.232355
-476,-321,-17.2915,0.297363,0,0,0,0,0,0,0,-1,748,1345,-17.2915,-0.297342
-469,-321,-17.2441,0.478027,0,0,0,0,0,0,0,-1,755,1345,-17.2441,-0.477994
-462,-321,-17.1672,0.526489,0,0,0,0,0,0,0,-1,762,1345,-17.1672,-0.526533
-455,-321,0,0,0,0,0,0,0,0,0,-1,769,1345,0,0
-448,-321,0,0,0,0,0,0,0,0,0,-1,776,1345,0,0
-441,-321,0,0,0,0,0,0,0,0,0,-1,783,1345,0,0
-434,-321,0,0,0,0,0,0,0,0,0,-1,790,1345,0,0
-427,-321,0,0,0,0,0,0,0,0,0,-1,797,1345,0,0
-420,-321,0,0,0,0,0,0,0,0,0,-1,804,1345,0,0
-413,-321,0,0,0,0,0,0,0,0,0,-1,811,1345,0,0
-406,-321,0,0,0,0,0,0,0,0,0,-1,818,1345,0,0
-399,-321,0,0,0,0,0,0,0,0,0,-1,825,1345,0,0
-392,-321,0,0,0,0,0,0,0,0,0,-1,832,1345,0,0
-385,-321,0,0,0,0,0,0,0,0,0,-1,839,1345,0,0
-378,-321,0,0,0,0,0,0,0,0,0,-1,846,1345,0,0
-371,-321,0,0,0,0,0,0,0,0,0,-1,853,1345,0,0
-364,-321,0,0,0,0,0,0,0,0,0,-1,860,1345,0,0
-357,-321,0,0,0,0,0,0,0,0,0,-1,867,1345,0,0
-350,-321,0,0,0,0,0,0,0,0,0,-1,874,1345,0,0
-343,-321,0,0,0,0,0,0,0,0,0,-1,881,1345,0,0
-336,-321,0,0,0,0,0,0,0,0,0,-1,888,1345,0,0
-329,-321,0,0,0,0,0,0,0,0,0,-1,895,1345,0,0
-322,-321,0,0,0,0,0,0,0,0,0,-1,902,1345,0,0
-315,-321,0,0,0,0,0,0,0,0,0,-1,909,1345,0,0
-308,-321,0,0,0,0,0,0,0,0,0,-1,916,1345,0,0
-301,-321,0,0,0,0,0,0,0,0,0,-1,923,1345,0,0
-294,-321,0,0,0,0,0,0,0,0,0,-1,930,1345,0,0
-287,-321,0,0,0,0,0,0,0,0,0,-1,937,1345,0,0
-280,-321,0,0,0,0,0,0,0,0,0,-1,944,1345,0,0
-273,-321,0,0,0,0,0,0,0,0,0,-1,951,1345,0,0
-266,-321,0,0,0,0,0,0,0,0,0,-1,958,1345,0,0
-259,-321,0,0,0,0,0,0,0,0,0,-1,965,1345,0,0
-252,-321,0,0,0,0,0,0,0,0,0,-1,972,1345,0,0
-245,-321,0,0,0,0,0,0,0,0,0,-1,979,1345,0,0
-238,-321,0,0,0,0,0,0,0,0,0,-1,986,1345,0,0
-231,-321,0,0,0,0,0,0,0,0,0,-1,993,1345,0,0
-224,-321,0,0,0,0,0,0,0,0,0,-1,1000,1345,0,0
-217,-321,0,0,0,0,0,0,0,0,0,-1,1007,1345,0,0
-210,-321,0,0,0,0,0,0,0,0,0,-1,1014,1345,0,0
-203,-321,0,0,0,0,0,0,0,0,0,-1,1021,1345,0,0
-196,-321,0,0,0,0,0,0,0,0,0,-1,1028,1345,0,0
-189,-321,0,0,0,0,0,0,0,0,0,-1,1035,1345,0,0
-182,-321,0,0,0,0,0,0,0,0,0,-1,1042,1345,0,0
-175,-321,0,0,0,0,0,0,0,0,0,-1,1049,1345,0,0
-168,-321,0,0,0,0,0,0,0,0,0,-1,1056,1345,0,0
-161,-321,0,0,0,0,0,0,0,0,0,-1,1063,1345,0,0
-154,-321,0,0,0,0,0,0,0,0,0,-1,1070,1345,0,0
-147,-321,0,0,0,0,0,0,0,0,0,-1,1077,1345,0,0
-140,-321,0,0,0,0,0,0,0,0,0,-1,1084,1345,0,0
-133,-321,0,0,0,0,0,0,0,0,0,-1,1091,1345,0,0
-126,-321,0,0,0,0,0,0,0,0,0,-1,1098,1345,0,0
-119,-321,0,0,0,0,0,0,0,0,0,-1,1105,1345,0,0
-112,-321,0,0,0,0,0,0,0,0,0,-1,1112,1345,0,0
-105,-321,0,0,0,0,0,0,0,0,0,-1,1119,1345,0,0
-98,-321,0,0,0,0,0,0,0,0,0,-1,1126,1345,0,0
-91,-321,0,0,0,0,0,0,0,0,0,-1,1133,1345,0,0
-84,-321,0,0,0,0,0,0,0,0,0,-1,1140,1345,0,0
-77,-321,0,0,0,0,0,0,0,0,0,-1,1147,1345,0,0
-70,-321,0,0,0,0,0,0,0,0,0,-1,1154,1345,0,0
-63,-321,0,0,0,0,0,0,0,0,0,-1,1161,1345,0,0
-56,-321,0,0,0,0,0,0,0,0,0,-1,1168,1345,0,0
-49,-321,0,0,0,0,0,0,0,0,0,-1,1175,1345,0,0
-42,-321,0,0,0,0,0,0,0,0,0,-1,1182,1345,0,0
-35,-321,0,0,0,0,0,0,0,0,0,-1,1189,1345,0,0
-28,-321,0,0,0,0,0,0,0,0,0,-1,1196,1345,0,0
-21,-321,0,0,0,0,0,0,0,0,0,-1,1203,1345,0,0
-14,-321,0,0,0,0,0,0,0,0,0,-1,1210,1345,0,0
-7,-321,0,0,0,0,0,0,0,0,0,-1,1217,1345,0,0
0,-321,0,0,0,0,0,0,0,0,0,-1,1224,1345,0,0
7,-321,0,0,0,0,0,0,0,0,0,-1,1231,1345,0,0
14,-321,0,0,0,0,0,0,0,0,0,-1,1238,1345,0,0
21,-321,0,0,0,0,0,0,0,0,0,-1,1245,1345,0,0
28,-321,0,0,0,0,0,0,0,0,0,-1,1252,1345,0,0
35,-321,0,0,0,0,0,0,0,0,0,-1,1259,1345,0,0
42,-321,0,0,0,0,0,0,0,0,0,-1,1266,1345,0,0
49,-321,0,0,0,0,0,0,0,0,0,-1,1273,1345,0,0
56,-321,0,0,0,0,0,0,0,0,0,-1,1280,1345,0,0
63,-321,0,0,0,0,0,0,0,0,0,-1,1287,1345,0,0
70,-321,0,0,0,0,0,0,0,0,0,-1,1294,1345,0,0
77,-321,0,0,0,0,0,0,0,0,0,-1,1301,1345,0,0
84,-321,0,0,0,0,0,0,0,0,0,-1,1308,1345,0,0
91,-321,0,0,0,0,0,0,0,0,0,-1,1315,1345,0,0
98,-321,0,0,0,0,0,0,0,0,0,-1,1322,1345,0,0
105,-321,0,0,0,0,0,0,0,0,0,-1,1329,1345,0,0
112,-321,0,0,0,0,0,0,0,0,0,-1,1336,1345,0,0
119,-321,0,0,0,0,0,0,0,0,0,-1,1343,1345,0,0
126,-321,0,0,0,0,0,0,0,0,0,-1,1350,1345,0,0
133,-321,0,0,0,0,0,0,0,0,0,-1,1357,1345,0,0
140,-321,0,0,0,0,0,0,0,0,0,-1,1364,1345,0,0
147,-321,0,0,0,0,0,0,0,0,0,-1,1371,1345,0,0
154,-321,0,0,0,0,0,0,0,0,0,-1,1378,1345,0,0
161,-321,0,0,0,0,0,0,0,0,0,-1,1385,1345,0,0
168,-321,0,0,0,0,0,0,0,0,0,-1,1392,1345,0,0
175,-321,0,0,0,0,0,0,0,0,0,-1,1399,1345,0,0
182,-321,0,0,0,0,0,0,0,0,0,-1,1406,1345,0,0
189,-321,0,0,0,0,0,0,0,0,0,-1,1413,1345,0,0
196,-321,0,0,0,0,0,0,0,0,0,-1,1420,1345,0,0
203,-321,0,0,0,0,0,0,0,0,0,-1,1427,1345,0,0
210,-321,0,0,0,0,0,0,0,0,0,-1,1434,1345,0,0
217,-321,0,0,0,0,0,0,0,0,0,-1,1441,1345,0,0
224,-321,0,0,0,0,0,0,0,0,0,-1,1448,1345,0,0
231,-321,0,0,0,0,0,0,0,0,0,-1,1455,1345,0,0
238,-321,0,0,0,0,0,0,0,0,0,-1,1462,1345,0,0
245,-321,0,0,0,0,0,0,0,0,0,-1,1469,1345,0,0
252,-321,0,0,0,0,0,0,0,0,0,-1,1476,1345,0,0
259,-321,0,0,0,0,0,0,0,0,0,-1,1483,1345,0,0
266,-321,0,0,0,0,0,0,0,0,0,-1,1490,1345,0,0
273,-321,0,0,0,0,0,0,0,0,0,-1,1497,1345,0,0
280,-321,0,0,0,0,0,0,0,0,0,-1,1504,1345,0,0
287,-321,0,0,0,0,0,0,0,0,0,-1,1511,1345,0,0
294,-321,0,0,0,0,0,0,0,0,0,-1,1518,1345,0,0
301,-321,0,0,0,0,0,0,0,0,0,-1,1525,1345,0,0
308,-321,0,0,0,0,0,0,0,0,0,-1,1532,1345,0,0
315,-321,0,0,0,0,0,0,0,0,0,-1,1539,1345,0,0
322,-321,0,0,0,0,0,0,0,0,0,-1,1546,1345,0,0
329,-321,0,0,0,0,0,0,0,0,0,-1,1553,1345,0,0
336,-321,0,0,0,0,0,0,0,0,0,-1,1560,1345,0,0
343,-321,0,0,0,0,0,0,0,0,0,-1,1567,1345,0,0
350,-321,0,0,0,0,0,0,0,0,0,-1,1574,1345,0,0
357,-321,0,0,0,0,0,0,0,0,0,-1,1581,1345,0,0
364,-321,0,0,0,0,0,0,0,0,0,-1,1588,1345,0,0
371,-321,0,0,0,0,0,0,0,0,0,-1,1595,1345,0,0
378,-321,0,0,0,0,0,0,0,0,0,-1,1602,1345,0,0
385,-321,0,0,0,0,0,0,0,0,0,-1,1609,1345,0,0
392,-321,0,0,0,0,0,0,0,0,0,-1,1616,1345,0,0
399,-321,0,0,0,0,0,0,0,0,0,-1,1623,1345,0,0
406,-321,0,0,0,0,0,0,0,0,0,-1,1630,1345,0,0
413,-321,0,0,0,0,0,0,0,0,0,-1,1637,1345,0,0
420,-321,0,0,0,0,0,0,0,0,0,-1,1644,1345,0,0
427,-321,0,0,0,0,0,0,0,0,0,-1,1651,1345,0,0
434,-321,0,0,0,0,0,0,0,0,0,-1,1658,1345,0,0
441,-321,0,0,0,0,0,0,0,0,0,-1,1665,1345,0,0
448,-321,0,0,0,0,0,0,0,0,0,-1,1672,1345,0,0
455,-321,0,0,0,0,0,0,0,0,0,-1,1679,1345,0,0
462,-321,0,0,0,0,0,0,0,0,0,-1,1686,1345,0,0
469,-321,0,0,0,0,0,0,0,0,0,-1,1693,1345,0,0
476,-321,0,0,0,0,0,0,0,0,0,-1,1700,1345,0,0
483,-321,0,0,0,0,0,0,0,0,0,-1,1707,1345,0,0
490,-321,0,0,0,0,0,0,0,0,0,-1,1714,1345,0,0
497,-321,0,0,0,0,0,0,0,0,0,-1,1721,1345,0,0
504,-321,0,0,0,0,0,0,0,0,0,-1,1728,1345,0,0
511,-321,0,0,0,0,0,0,0,0,0,-1,1735,1345,0,0
518,-321,0,0,0,0,0,0,0,0,0,-1,1742,1345,0,0
525,-321,0,0,0,0,0,0,0,0,0,-1,1749,1345,0,0
532,-321,0,0,0,0,0,0,0,0,0,-1,1756,1345,0,0
539,-321,0,0,0,0,0,0,0,0,0,-1,1763,1345,0,0
546,-321,0,0,0,0,0,0,0,0,0,-1,1770,1345,0,0
553,-321,0,0,0,0,0,0,0,0,0,-1,1777,1345,0,0
560,-321,0,0,0,0,0,0,0,0,0,-1,1784,1345,0,0
567,-321,0,0,0,0,0,0,0,0,0,-1,1791,1345,0,0
574,-321,0,0,0,0,0,0,0,0,0,-1,1798,1345,0,0
581,-321,45.3884,5.0686,0,0,0,0,0,0,0,-1,1805,1345,45.3884,-5.06858
588,-321,46.0454,4.33325,0,0,0,0,0,0,0,-1,1812,1345,46.0455,-4.33326
595,-321,46.4561,4.422,0,0,0,0,0,0,0,-1,1819,1345,46.456,-4.42204
602,-321,46.9861,4.7251,0,0,0,0,0,0,0,-1,1826,1345,46.9861,-4.72509
609,-321,43.7571,0.604126,0,0,0,0,0,0,0,-1,1833,1345,43.7571,-0.60415
616,-321,37.8107,2.58704,0,0,0,0,0,0,0,-1,1840,1345,37.8106,-2.58705
623,-321,37.6854,3.68933,0,0,0,0,0,0,0,-1,1847,1345,37.6854,-3.68931
630,-321,23.6674,4.34106,0,0,0,0,0,0,0,-1,1854,1345,23.6674,-4.34112
637,-321,21.7925,6.79224,0,0,0,0,0,0,0,-1,1861,1345,21.7925,-6.7922
644,-321,16.8844,6.71973,0,0,0,0,0,0,0,-1,1868,1345,16.8844,-6.71971
651,-321,27.4924,10.0319,0,0,0,0,0,0,0,-1,1875,1345,27.4924,-10.0319
658,-321,30.6533,11.9943,0,0,0,0,0,0,0,-1,1882,1345,30.6533,-11.9942
665,-321,30.4597,11.505,0.00150491,0.0029066,0.00243253,0.00473724,-0.000325726,0.925656,0.00327214,0.0213202,1889,1345,30.4597,-11.505
672,-321,30.4919,11.0034,0.000579718,-0.000724229,-0.000278584,0.000636743,-0.000781254,-0.201906,0.000820097,0.0146113,1896,1345,30.492,-11.0034
679,-321,30.5028,10.5209,0.000734889,-0.000597483,-0.000204394,0.000765539,-0.000628133,-0.148847,0.00080594,0.0125013,1903,1345,30.5028,-10.5208
686,-321,30.465,10.0551,0.000828152,-0.00046465,-0.000121784,0.000839524,-0.000476023,-0.0931105,0.000769135,0.0130368,1910,1345,30.4649,-10.0551
693,-321,30.4414,9.60498,0.00085048,-0.000303441,-3.43131e-05,0.000851499,-0.00030446,-0.0297011,0.000691856,0.0128723,1917,1345,30.4413,-9.60499
700,-321,30.4318,9.13586,0.000822892,-0.000123513,8.55097e-05,0.000830556,-0.000131176,0.0893876,0.000602211,0.0124533,1924,1345,30.4318,-9.13583
707,-321,30.4485,8.65393,0.000691937,7.64257e-05,0.000241884,0.000775616,-7.25343e-06,0.33306,0.000519512,0.0138535,1931,1345,30.4485,-8.6539
714,-321,30.4254,8.19409,0.000444872,0.000254292,0.000463695,0.000822967,-0.000123804,0.684058,0.000594227,0.013287,1938,1345,30.4254,-8.19413
721,-321,30.3073,7.73938,8.98707e-06,0.000334715,0.00088542,0.00107213,-0.000728423,0.876351,0.00104584,0.0397029,1945,1345,30.3072,-7.73942
728,-321,30.257,7.3656,0,0,0,0,0,0,0,-1,1952,1345,30.2569,-7.36557
735,-321,22.0081,5.65479,0,0,0,0,0,0,0,-1,1959,1345,22.008,-5.65481
742,-321,24.5398,5.05725,0,0,0,0,0,0,0,-1,1966,1345,24.5398,-5.05729
749,-321,24.0675,5.4458,0,0,0,0,0,0,0,-1,1973,1345,24.0675,-5.44581
756,-321,19.6251,4.98315,0,0,0,0,0,0,0,-1,1980,1345,19.6251,-4.98311
763,-321,19.6747,4.61438,0,0,0,0,0,0,0,-1,1987,1345,19.6747,-4.61436
770,-321,0,0,0,0,0,0,0,0,0,-1,1994,1345,0,0
777,-321,0,0,0,0,0,0,0,0,0,-1,2001,1345,0,0
784,-321,0,0,0,0,0,0,0,0,0,-1,2008,1345,0,0
791,-321,0,0,0,0,0,0,0,0,0,-1,2015,1345,0,0
798,-321,0,0,0,0,0,0,0,0,0,-1,2022,1345,0,0
805,-321,0,0,0,0,0,0,0,0,0,-1,2029,1345,0,0
812,-321,0,0,0,0,0,0,0,0,0,-1,2036,1345,0,0
-700,-328,0,0,0,0,0,0,0,0,0,-1,524,1352,0,0
-693,-328,0,0,0,0,0,0,0,0,0,-1,531,1352,0,0
-686,-328,0,0,0,0,0,0,0,0,0,-1,538,1352,0,0
-679,-328,0,0,0,0,0,0,0,0,0,-1,545,1352,0,0
-672,-328,0,0,0,0,0,0,0,0,0,-1,552,1352,0,0
-665,-328,0,0,0,0,0,0,0,0,0,-1,559,1352,0,0
-658,-328,0,0,0,0,0,0,0,0,0,-1,566,1352,0,0
-651,-328,0,0,0,0,0,0,0,0,0,-1,573,1352,0,0
-644,-328,0,0,0,0,0,0,0,0,0,-1,580,1352,0,0
-637,-328,-12.0695,1.02014,0,0,0,0,0,0,0,-1,587,1352,-12.0694,-1.02017
-630,-328,-13.3971,4.54578,0,0,0,0,0,0,0,-1,594,1352,-13.3971,-4.54572
-623,-328,-10.7739,4.55042,0,0,0,0,0,0,0,-1,601,1352,-10.7739,-4.55041
-616,-328,-8.22198,-0.25708,0,0,0,0,0,0,0,-1,608,1352,-8.22201,0.257067
-609,-328,-7.87439,0.192871,0,0,0,0,0,0,0,-1,615,1352,-7.87441,-0.192822
-602,-328,-7.63062,1.31665,0,0,0,0,0,0,0,-1,622,1352,-7.63064,-1.3166
-595,-328,-9.42639,2.93494,0,0,0,0,0,0,0,-1,629,1352,-9.42638,-2.93499
-588,-328,-16.736,4.99182,0,0,0,0,0,0,0,-1,636,1352,-16.7359,-4.99179
-581,-328,-16.5201,5.96997,0.00270818,0.00216291,0.00147522,0.00393574,0.00093535,0.694024,0.00237428,0.0253657,643,1352,-16.5201,-5.96997
-574,-328,-16.5037,6.50623,0.00180898,0.0013902,0.000821735,0.00244758,0.000751594,0.660646,0.00144775,0.0149627,650,1352,-16.5037,-6.50619
-567,-328,-16.5374,7.02808,0.00142684,0.000826191,0.00046096,0.00167668,0.000576353,0.496677,0.000983661,0.0188765,657,1352,-16.5374,-7.02811
-560,-328,-16.5423,7.58752,0.00151772,0.000355354,0.000340905,0.00161032,0.000262749,0.265244,0.000997566,0.0261132,664,1352,-16.5423,-7.58755
-553,-328,-16.5198,8.0564,0.00193545,-6.79034e-05,0.000374767,0.00200326,-0.000135716,0.179008,0.00138297,0.0288561,671,1352,-16.5198,-8.05638
-546,-328,-16.5662,8.52881,0.00275604,-0.000421042,0.000590808,0.00286235,-0.000527351,0.178033,0.00210614,0.0276736,678,1352,-16.5662,-8.52885
-539,-328,-16.6364,9.00806,0.00394547,-0.000727147,0.000970259,0.00413893,-0.000920609,0.196811,0.00311188,0.0238075,685,1352,-16.6364,-9.00801
-532,-328,-16.6082,9.52869,0.00568866,-0.000946684,0.00159347,0.00605149,-0.00130951,0.223881,0.00453431,0.0184059,692,1352,-16.6082,-9.52874
-525,-328,-16.5651,10.1147,0.00799703,-0.0012711,0.00236418,0.00856526,-0.00183933,0.235877,0.00641184,0.0290133,699,1352,-16.5651,-10.1148
-518,-328,-16.6188,10.5153,0,0,0,0,0,0,0,-1,706,1352,-16.6188,-10.5153
-511,-328,-9.39868,7.16113,0,0,0,0,0,0,0,-1,713,1352,-9.39869,-7.16113
-504,-328,-8.60626,-0.905762,0,0,0,0,0,0,0,-1,720,1352,-8.60623,0.905787
-497,-328,-9.29102,-0.0517578,0,0,0,0,0,0,0,-1,727,1352,-9.29104,0.0518175
-490,-328,-10.0663,0.882813,0,0,0,0,0,0,0,-1,734,1352,-10.0663,-0.882795
-483,-328,-10.8181,1.72375,0,0,0,0,0,0,0,-1,741,1352,-10.8181,-1.72374
-476,-328,-16.8951,-0.150757,0,0,0,0,0,0,0,-1,748,1352,-16.8951,0.150795
-469,-328,-16.8412,0.00158691,0,0,0,0,0,0,0,-1,755,1352,-16.8412,-0.00161515
-462,-328,-16.3546,-0.203491,0,0,0,0,0,0,0,-1,762,1352,-16.3545,0.203532
-455,-328,0,0,0,0,0,0,0,0,0,-1,769,1352,0,0
-448,-328,0,0,0,0,0,0,0,0,0,-1,776,1352,0,0
-441,-328,0,0,0,0,0,0,0,0,0,-1,783,1352,0,0
-434,-328,0,0,0,0,0,0,0,0,0,-1,790,1352,0,0
-427,-328,0,0,0,0,0,0,0,0,0,-1,797,1352,0,0
-420,-328,0,0,0,0,0,0,0,0,0,-1,804,1352,0,0
-413,-328,0,0,0,0,0,0,0,0,0,-1,811,1352,0,0
-406,-328,0,0,0,0,0,0,0,0,0,-1,818,1352,0,0
-399,-328,0,0,0,0,0,0,0,0,0,-1,825,1352,0,0
-392,-328,0,0,0,0,0,0,0,0,0,-1,832,1352,0,0
-385,-328,0,0,0,0,0,0,0,0,0,-1,839,1352,0,0
-378,-328,0,0,0,0,0,0,0,0,0,-1,846,1352,0,0
-371,-328,0,0,0,0,0,0,0,0,0,-1,853,1352,0,0
-364,-328,0,0,0,0,0,0,0,0,0,-1,860,1352,0,0
-357,-328,0,0,0,0,0,0,0,0,0,-1,867,1352,0,0
-350,-328,0,0,0,0,0,0,0,0,0,-1,874,1352,0,0
-343,-328,0,0,0,0,0,0,0,0,0,-1,881,1352,0,0
-336,-328,0,0,0,0,0,0,0,0,0,-1,888,1352,0,0
-329,-328,0,0,0,0,0,0,0,0,0,-1,895,1352,0,0
-322,-328,0,0,0,0,0,0,0,0,0,-1,902,1352,0,0
-315,-328,0,0,0,0,0,0,0,0,0,-1,909,1352,0,0
-308,-328,0,0,0,0,0,0,0,0,0,-1,916,1352,0,0
-301,-328,0,0,0,0,0,0,0,0,0,-1,923,1352,0,0
-294,-328,0,0,0,0,0,0,0,0,0,-1,930,1352,0,0
-287,-328,0,0,0,0,0,0,0,0,0,-1,937,1352,0,0
-280,-328,0,0,0,0,0,0,0,0,0,-1,944,1352,0,0
-273,-328,0,0,0,0,0,0,0,0,0,-1,951,1352,0,0
-266,-328,0,0,0,0,0,0,0,0,0,-1,958,1352,0,0
-259,-328,0,0,0,0,0,0,0,0,0,-1,965,1352,0,0
-252,-328,0,0,0,0,0,0,0,0,0,-1,972,1352,0,0
-245,-328,0,0,0,0,0,0,0,0,0,-1,979,1352,0,0
-238,-328,0,0,0,0,0,0,0,0,0,-1,986,1352,0,0
-231,-328,0,0,0,0,0,0,0,0,0,-1,993,1352,0,0
-224,-328,0,0,0,0,0,0,0,0,0,-1,1000,1352,0,0
-217,-328,0,0,0,0,0,0,0,0,0,-1,1007,1352,0,0
-210,-328,0,0,0,0,0,0,0,0,0,-1,1014,1352,0,0
-203,-328,0,0,0,0,0,0,0,0,0,-1,1021,1352,0,0
-196,-328,0,0,0,0,0,0,0,0,0,-1,1028,1352,0,0
-189,-328,0,0,0,0,0,0,0,0,0,-1,1035,1352,0,0
-182,-328,0,0,0,0,0,0,0,0,0,-1,1042,1352,0,0
-175,-328,0,0,0,0,0,0,0,0,0,-1,1049,1352,0,0
-168,-328,0,0,0,0,0,0,0,0,0,-1,1056,1352,0,0
-161,-328,0,0,0,0,0,0,0,0,0,-1,1063,1352,0,0
-154,-328,0,0,0,0,0,0,0,0,0,-1,1070,1352,0,0
-147,-328,0,0,0,0,0,0,0,0,0,-1,1077,1352,0,0
-140,-328,0,0,0,0,0,0,0,0,0,-1,1084,1352,0,0
-133,-328,0,0,0,0,0,0,0,0,0,-1,1091,1352,0,0
-126,-328,0,0,0,0,0,0,0,0,0,-1,1098,1352,0,0
-119,-328,0,0,0,0,0,0,0,0,0,-1,1105,1352,0,0
-112,-328,0,0,0,0,0,0,0,0,0,-1,1112,1352,0,0
-105,-328,0,0,0,0,0,0,0,0,0,-1,1119,1352,0,0
-98,-328,0,0,0,0,0,0,0,0,0,-1,1126,1352,0,0
-91,-328,0,0,0,0,0,0,0,0,0,-1,1133,1352,0,0
-84,-328,0,0,0,0,0,0,0,0,0,-1,1140,1352,0,0
-77,-328,0,0,0,0,0,0,0,0,0,-1,1147,1352,0,0
-70,-328,0,0,0,0,0,0,0,0,0,-1,1154,1352,0,0
-63,-328,0,0,0,0,0,0,0,0,0,-1,1161,1352,0,0
-56,-328,0,0,0,0,0,0,0,0,0,-1,1168,1352,0,0
-49,-328,0,0,0,0,0,0,0,0,0,-1,1175,1352,0,0
-42,-328,0,0,0,0,0,0,0,0,0,-1,1182,1352,0,0
-35,-328,0,0,0,0,0,0,0,0,0,-1,1189,1352,0,0
-28,-328,0,0,0,0,0,0,0,0,0,-1,1196,1352,0,0
-21,-328,0,0,0,0,0,0,0,0,0,-1,1203,1352,0,0
-14,-328,0,0,0,0,0,0,0,0,0,-1,1210,1352,0,0
-7,-328,0,0,0,0,0,0,0,0,0,-1,1217,1352,0,0
0,-328,0,0,0,0,0,0,0,0,0,-1,1224,1352,0,0
7,-328,0,0,0,0,0,0,0,0,0,-1,1231,1352,0,0
14,-328,0,0,0,0,0,0,0,0,0,-1,1238,1352,0,0
21,-328,0,0,0,0,0,0,0,0,0,-1,1245,1352,0,0
28,-328,0,0,0,0,0,0,0,0,0,-1,1252,1352,0,0
35,-328,0,0,0,0,0,0,0,0,0,-1,1259,1352,0,0
42,-328,0,0,0,0,0,0,0,0,0,-1,1266,1352,0,0
49,-328,0,0,0,0,0,0,0,0,0,-1,1273,1352,0,0
56,-328,0,0,0,0,0,0,0,0,0,-1,1280,1352,0,0
63,-328,0,0,0,0,0,0,0,0,0,-1,1287,1352,0,0
70,-328,0,0,0,0,0,0,0,0,0,-1,1294,1352,0,0
77,-328,0,0,0,0,0,0,0,0,0,-1,1301,1352,0,0
84,-328,0,0,0,0,0,0,0,0,0,-1,1308,1352,0,0
91,-328,0,0,0,0,0,0,0,0,0,-1,1315,1352,0,0
98,-328,0,0,0,0,0,0,0,0,0,-1,1322,1352,0,0
105,-328,0,0,0,0,0,0,0,0,0,-1,1329,1352,0,0
112,-328,0,0,0,0,0,0,0,0,0,-1,1336,1352,0,0
119,-328,0,0,0,0,0,0,0,0,0,-1,1343,1352,0,0
126,-328,0,0,0,0,0,0,0,0,0,-1,1350,1352,0,0
133,-328,0,0,0,0,0,0,0,0,0,-1,1357,1352,0,0
140,-328,0,0,0,0,0,0,0,0,0,-1,1364,1352,0,0
147,-328,0,0,0,0,0,0,0,0,0,-1,1371,1352,0,0
154,-328,0,0,0,0,0,0,0,0,0,-1,1378,1352,0,0
161,-328,0,0,0,0,0,0,0,0,0,-1,1385,1352,0,0
168,-328,0,0,0,0,0,0,0,0,0,-1,1392,1352,0,0
175,-328,0,0,0,0,0,0,0,0,0,-1,1399,1352,0,0
182,-328,0,0,0,0,0,0,0,0,0,-1,1406,1352,0,0
189,-328,0,0,0,0,0,0,0,0,0,-1,1413,1352,0,0
196,-328,0,0,0,0,0,0,0,0,0,-1,1420,1352,0,0
203,-328,0,0,0,0,0,0,0,0,0,-1,1427,1352,0,0
210,-328,0,0,0,0,0,0,0,0,0,-1,1434,1352,0,0
217,-328,0,0,0,0,0,0,0,0,0,-1,1441,1352,0,0
224,-328,0,0,0,0,0,0,0,0,0,-1,1448,1352,0,0
231,-328,0,0,0,0,0,0,0,0,0,-1,1455,1352,0,0
238,-328,0,0,0,0,0,0,0,0,0,-1,1462,1352,0,0
245,-328,0,0,0,0,0,0,0,0,0,-1,1469,1352,0,0
252,-328,0,0,0,0,0,0,0,0,0,-1,1476,1352,0,0
259,-328,0,0,0,0,0,0,0,0,0,-1,1483,1352,0,0
266,-328,0,0,0,0,0,0,0,0,0,-1,1490,1352,0,0
273,-328,0,0,0,0,0,0,0,0,0,-1,1497,1352,0,0
280,-328,0,0,0,0,0,0,0,0,0,-1,1504,1352,0,0
287,-328,0,0,0,0,0,0,0,0,0,-1,1511,1352,0,0
294,-328,0,0,0,0,0,0,0,0,0,-1,1518,1352,0,0
301,-328,0,0,0,0,0,0,0,0,0,-1,1525,1352,0,0
308,-328,0,0,0,0,0,0,0,0,0,-1,1532,1352,0,0
315,-328,0,0,0,0,0,0,0,0,0,-1,1539,1352,0,0
322,-328,0,0,0,0,0,0,0,0,0,-1,1546,1352,0,0
329,-328,0,0,0,0,0,0,0,0,0,-1,1553,1352,0,0
336,-328,0,0,0,0,0,0,0,0,0,-1,1560,1352,0,0
343,-328,0,0,0,0,0,0,0,0,0,-1,1567,1352,0,0
350,-328,0,0,0,0,0,0,0,0,0,-1,1574,1352,0,0
357,-328,0,0,0,0,0,0,0,0,0,-1,1581,1352,0,0
364,-328,0,0,0,0,0,0,0,0,0,-1,1588,1352,0,0
371,-328,0,0,0,0,0,0,0,0,0,-1,1595,1352,0,0
378,-328,0,0,0,0,0,0,0,0,0,-1,1602,1352,0,0
385,-328,0,0,0,0,0,0,0,0,0,-1,1609,1352,0,0
392,-328,0,0,0,0,0,0,0,0,0,-1,1616,1352,0,0
399,-328,0,0,0,0,0,0,0,0,0,-1,1623,1352,0,0
406,-328,0,0,0,0,0,0,0,0,0,-1,1630,1352,0,0
413,-328,0,0,0,0,0,0,0,0,0,-1,1637,1352,0,0
420,-328,0,0,0,0,0,0,0,0,0,-1,1644,1352,0,0
427,-328,0,0,0,0,0,0,0,0,0,-1,1651,1352,0,0
434,-328,0,0,0,0,0,0,0,0,0,-1,1658,1352,0,0
441,-328,0,0,0,0,0,0,0,0,0,-1,1665,1352,0,0
448,-328,0,0,0,0,0,0,0,0,0,-1,1672,1352,0,0
455,-328,0,0,0,0,0,0,0,0,0,-1,1679,1352,0,0
462,-328,0,0,0,0,0,0,0,0,0,-1,1686,1352,0,0
469,-328,0,0,0,0,0,0,0,0,0,-1,1693,1352,0,0
476,-328,0,0,0,0,0,0,0,0,0,-1,1700,1352,0,0
483,-328,0,0,0,0,0,0,0,0,0,-1,1707,1352,0,0
490,-328,0,0,0,0,0,0,0,0,0,-1,1714,1352,0,0
497,-328,0,0,0,0,0,0,0,0,0,-1,1721,1352,0,0
504,-328,0,0,0,0,0,0,0,0,0,-1,1728,1352,0,0
511,-328,0,0,0,0,0,0,0,0,0,-1,1735,1352,0,0
518,-328,0,0,0,0,0,0,0,0,0,-1,1742,1352,0,0
525,-328,0,0,0,0,0,0,0,0,0,-1,1749,1352,0,0
532,-328,0,0,0,0,0,0,0,0,0,-1,1756,1352,0,0
539,-328,0,0,0,0,0,0,0,0,0,-1,1763,1352,0,0
546,-328,0,0,0,0,0,0,0,0,0,-1,1770,1352,0,0
553,-328,0,0,0,0,0,0,0,0,0,-1,1777,1352,0,0
560,-328,0,0,0,0,0,0,0,0,0,-1,1784,1352,0,0
567,-328,0,0,0,0,0,0,0,0,0,-1,1791,1352,0,0
574,-328,44.8926,5.11475,0,0,0,0,0,0,0,-1,1798,1352,44.8926,-5.11469
581,-328,45.0055,5.88647,0,0,0,0,0,0,0,-1,1805,1352,45.0055,-5.88644
588,-328,45.2971,6.46729,0,0,0,0,0,0,0,-1,1812,1352,45.2971,-6.46723
595,-328,46.5374,4.38489,0,0,0,0,0,0,0,-1,1819,1352,46.5374,-4.3849
602,-328,47.1033,5.10815,0,0,0,0,0,0,0,-1,1826,1352,47.1032,-5.10816
609,-328,37.0468,1.17407,0,0,0,0,0,0,0,-1,1833,1352,37.0468,-1.17407
616,-328,36.999,2.42859,0,0,0,0,0,0,0,-1,1840,1352,36.999,-2.42862
623,-328,34.345,5.14722,0,0,0,0,0,0,0,-1,1847,1352,34.3449,-5.14718
630,-328,22.0211,5.026,0,0,0,0,0,0,0,-1,1854,1352,22.0212,-5.02603
637,-328,21.15,5.53699,0,0,0,0,0,0,0,-1,1861,1352,21.15,-5.53704
644,-328,16.9579,6.3396,0,0,0,0,0,0,0,-1,1868,1352,16.9579,-6.33959
651,-328,30.1838,12.394,0,0,0,0,0,0,0,-1,1875,1352,30.1839,-12.394
658,-328,30.0286,11.9556,0.00282823,0.00624869,0.00335744,0.00830639,0.000770525,1.02096,0.00529946,0.0418475,1882,1352,30.0285,-11.9556
665,-328,30.0681,11.4761,0.00113543,0.00226167,0.00141221,0.00321889,0.00017821,0.975113,0.00208906,0.0144612,1889,1352,30.0681,-11.476
672,-328,30.0492,11.0291,0.000605427,-0.000373511,-0.000444686,0.000777264,-0.000545348,-0.368747,0.000767513,0.0127164,1896,1352,30.0492,-11.0291
679,-328,30.048,10.5604,0.000816254,-0.000393567,-0.000283428,0.000879361,-0.000456675,-0.219084,0.000784123,0.0146045,1903,1352,30.048,-10.5604
686,-328,30.0148,10.0826,0.000996956,-0.000355511,-0.000147803,0.00101292,-0.000371475,-0.107592,0.000827385,0.0142761,1910,1352,30.0148,-10.0826
693,-328,29.9803,9.62732,0.00113049,-0.000278029,-2.90044e-05,0.00113108,-0.000278626,-0.0205806,0.000862072,0.00952678,1917,1352,29.9803,-9.62734
700,-328,29.9648,9.16565,0.00123698,-0.000160536,9.85639e-05,0.0012439,-0.000167454,0.0700656,0.000890347,0.0130294,1924,1352,29.9648,-9.16566
707,-328,29.9878,8.6748,0.00122397,1.71585e-05,0.000236351,0.00126861,-2.7479e-05,0.186663,0.000855047,0.015209,1931,1352,29.9878,-8.67477
714,-328,29.9637,8.19348,0.00114292,0.000170098,0.000433168,0.00130784,5.18007e-06,0.363781,0.000870173,0.016173,1938,1352,29.9638,-8.19348
721,-328,29.9015,7.78772,0,0,0,0,0,0,0,-1,1945,1352,29.9015,-7.78775
728,-328,29.2787,6.74695,0,0,0,0,0,0,0,-1,1952,1352,29.2787,-6.74693
735,-328,20.8927,5.23523,0,0,0,0,0,0,0,-1,1959,1352,20.8927,-5.23528
742,-328,20.3547,4.11316,0,0,0,0,0,0,0,-1,1966,1352,20.3547,-4.11321
749,-328,20.0669,5.66321,0,0,0,0,0,0,0,-1,1973,1352,20.0669,-5.66319
756,-328,19.9543,5.50464,0,0,0,0,0,0,0,-1,1980,1352,19.9543,-5.50463
763,-328,0,0,0,0,0,0,0,0,0,-1,1987,1352,0,0
770,-328,0,0,0,0,0,0,0,0,0,-1,1994,1352,0,0
777,-328,0,0,0,0,0,0,0,0,0,-1,2001,1352,0,0
784,-328,0,0,0,0,0,0,0,0,0,-1,2008,1352,0,0
791,-328,0,0,0,0,0,0,0,0,0,-1,2015,1352,0,0
798,-328,0,0,0,0,0,0,0,0,0,-1,2022,1352,0,0
805,-328,0,0,0,0,0,0,0,0,0,-1,2029,1352,0,0
812,-328,0,0,0,0,0,0,0,0,0,-1,2036,1352,0,0
-700,-335,0,0,0,0,0,0,0,0,0,-1,524,1359,0,0
-693,-335,0,0,0,0,0,0,0,0,0,-1,531,1359,0,0
-686,-335,0,0,0,0,0,0,0,0,0,-1,538,1359,0,0
-679,-335,0,0,0,0,0,0,0,0,0,-1,545,1359,0,0
-672,-335,0,0,0,0,0,0,0,0,0,-1,552,1359,0,0
-665,-335,0,0,0,0,0,0,0,0,0,-1,559,1359,0,0
-658,-335,0,0,0,0,0,0,0,0,0,-1,566,1359,0,0
-651,-335,0,0,0,0,0,0,0,0,0,-1,573,1359,0,0
-644,-335,0,0,0,0,0,0,0,0,0,-1,580,1359,0,0
-637,-335,-9.64746,3.53809,0,0,0,0,0,0,0,-1,587,1359,-9.64744,-3.53803
-630,-335,-6.07397,-2.99902,0,0,0,0,0,0,0,-1,594,1359,-6.07397,2.99902
-623,-335,-8.43304,1.09509,0,0,0,0,0,0,0,-1,601,1359,-8.43301,-1.09507
-616,-335,-7.80927,-0.485352,0,0,0,0,0,0,0,-1,608,1359,-7.80926,0.485291
-609,-335,-7.12256,-2.03601,0,0,0,0,0,0,0,-1,615,1359,-7.12253,2.03601
-602,-335,-9.39935,2.25146,0,0,0,0,0,0,0,-1,622,1359,-9.39935,-2.25145
-595,-335,-9.54767,3.01917,0,0,0,0,0,0,0,-1,629,1359,-9.54768,-3.01911
-588,-335,-16.1459,5.27148,0,0,0,0,0,0,0,-1,636,1359,-16.146,-5.27145
-581,-335,-16.0001,6.04688,0.00139693,0.00161817,0.000612159,0.00212963,0.00088548,0.874784,0.00123534,0.0402596,643,1359,-16.0001,-6.04686
-574,-335,-16.0018,6.50769,0.000727524,0.0010486,0.000202505,0.00114648,0.000629643,1.12056,0.00066299,0.0126732,650,1359,-16.0018,-6.50773
-567,-335,-15.9881,7.05945,0.000558061,0.00066958,4.54219e-05,0.000685739,0.000541902,1.22901,0.000417555,0.0156521,657,1359,-15.9881,-7.05948
-560,-335,-16.0004,7.5459,0.000851363,0.000313972,7.84847e-05,0.000862591,0.000302744,0.142095,0.000505337,0.023913,664,1359,-16.0004,-7.54587
-553,-335,-16.0319,8.05225,0.00148819,1.73923e-05,0.000272607,0.00153709,-3.15086e-05,0.177494,0.00103539,0.027611,671,1359,-16.0319,-8.05221
-546,-335,-16.0889,8.54883,0.00244686,-0.000250015,0.00059093,0.00257066,-0.000373815,0.206512,0.001851,0.0256498,678,1359,-16.0889,-8.54877
-539,-335,-16.1516,9.02332,0.00369452,-0.00047632,0.0010345,0.00393702,-0.000718811,0.230247,0.00289419,0.0217183,685,1359,-16.1516,-9.02335
-532,-335,-16.1387,9.57458,0.00537105,-0.000639027,0.00166519,0.00580158,-0.00106956,0.253006,0.00426913,0.016449,692,1359,-16.1387,-9.57462
-525,-335,-16.0672,10.1244,0.00751027,-0.000833586,0.0024399,0.00817137,-0.00149468,0.264598,0.0060081,0.0120058,699,1359,-16.0672,-10.1244
-518,-335,-15.9982,10.5553,0.0102601,-0.00101077,0.00337249,0.0111922,-0.00194282,0.269636,0.00818627,0.0449993,706,1359,-15.9982,-10.5553
-511,-335,-15.8878,10.9214,0,0,0,0,0,0,0,-1,713,1359,-15.8878,-10.9214
-504,-335,-9.35767,5.99695,0,0,0,0,0,0,0,-1,720,1359,-9.35767,-5.99694
-497,-335,-8.75024,-0.650513,0,0,0,0,0,0,0,-1,727,1359,-8.75024,0.650521
-490,-335,-9.51971,0.417603,0,0,0,0,0,0,0,-1,734,1359,-9.51974,-0.41765
-483,-335,-10.2883,1.29224,0,0,0,0,0,0,0,-1,741,1359,-10.2883,-1.2922
-476,-335,-11.9938,-0.173462,0,0,0,0,0,0,0,-1,748,1359,-11.9938,0.173429
-469,-335,-12.8704,-0.204102,0,0,0,0,0,0,0,-1,755,1359,-12.8704,0.204117
-462,-335,-13.486,0.0218506,0,0,0,0,0,0,0,-1,762,1359,-13.4859,-0.0217908
-455,-335,-14.1504,0.549561,0,0,0,0,0,0,0,-1,769,1359,-14.1504,-0.549583
-448,-335,0,0,0,0,0,0,0,0,0,-1,776,1359,0,0
-441,-335,0,0,0,0,0,0,0,0,0,-1,783,1359,0,0
-434,-335,0,0,0,0,0,0,0,0,0,-1,790,1359,0,0
-427,-335,0,0,0,0,0,0,0,0,0,-1,797,1359,0,0
-420,-335,0,0,0,0,0,0,0,0,0,-1,804,1359,0,0
-413,-335,0,0,0,0,0,0,0,0,0,-1,811,1359,0,0
-406,-335,0,0,0,0,0,0,0,0,0,-1,818,1359,0,0
-399,-335,0,0,0,0,0,0,0,0,0,-1,825,1359,0,0
-392,-335,0,0,0,0,0,0,0,0,0,-1,832,1359,0,0
-385,-335,0,0,0,0,0,0,0,0,0,-1,839,1359,0,0
-378,-335,0,0,0,0,0,0,0,0,0,-1,846,1359,0,0
-371,-335,0,0,0,0,0,0,0,0,0,-1,853,1359,0,0
-364,-335,0,0,0,0,0,0,0,0,0,-1,860,1359,0,0
-357,-335,0,0,0,0,0,0,0,0,0,-1,867,1359,0,0
-350,-335,0,0,0,0,0,0,0,0,0,-1,874,1359,0,0
-343,-335,0,0,0,0,0,0,0,0,0,-1,881,1359,0,0
-336,-335,0,0,0,0,0,0,0,0,0,-1,888,1359,0,0
-329,-335,0,0,0,0,0,0,0,0,0,-1,895,1359,0,0
-322,-335,0,0,0,0,0,0,0,0,0,-1,902,1359,0,0
-315,-335,0,0,0,0,0,0,0,0,0,-1,909,1359,0,0
-308,-335,0,0,0,0,0,0,0,0,0,-1,916,1359,0,0
-301,-335,0,0,0,0,0,0,0,0,0,-1,923,1359,0,0
-294,-335,0,0,0,0,0,0,0,0,0,-1,930,1359,0,0
-287,-335,0,0,0,0,0,0,0,0,0,-1,937,1359,0,0
-280,-335,0,0,0,0,0,0,0,0,0,-1,944,1359,0,0
-273,-335,0,0,0,0,0,0,0,0,0,-1,951,1359,0,0
-266,-335,0,0,0,0,0,0,0,0,0,-1,958,1359,0,0
-259,-335,0,0,0,0,0,0,0,0,0,-1,965,1359,0,0
-252,-335,0,0,0,0,0,0,0,0,0,-1,972,1359,0,0
-245,-335,0,0,0,0,0,0,0,0,0,-1,979,1359,0,0
-238,-335,0,0,0,0,0,0,0,0,0,-1,986,1359,0,0
-231,-335,0,0,0,0,0,0,0,0,0,-1,993,1359,0,0
-224,-335,0,0,0,0,0,0,0,0,0,-1,1000,1359,0,0
-217,-335,0,0,0,0,0,0,0,0,0,-1,1007,1359,0,0
-210,-335,0,0,0,0,0,0,0,0,0,-1,1014,1359,0,0
-203,-335,0,0,0,0,0,0,0,0,0,-1,1021,1359,0,0
-196,-335,0,0,0,0,0,0,0,0,0,-1,1028,1359,0,0
-189,-335,0,0,0,0,0,0,0,0,0,-1,1035,1359,0,0
-182,-335,0,0,0,0,0,0,0,0,0,-1,1042,1359,0,0
-175,-335,0,0,0,0,0,0,0,0,0,-1,1049,1359,0,0
-168,-335,0,0,0,0,0,0,0,0,0,-1,1056,1359,0,0
-161,-335,0,0,0,0,0,0,0,0,0,-1,1063,1359,0,0
-154,-335,0,0,0,0,0,0,0,0,0,-1,1070,1359,0,0
-147,-335,0,0,0,0,0,0,0,0,0,-1,1077,1359,0,0
-140,-335,0,0,0,0,0,0,0,0,0,-1,1084,1359,0,0
-133,-335,0,0,0,0,0,0,0,0,0,-1,1091,1359,0,0
-126,-335,0,0,0,0,0,0,0,0,0,-1,1098,1359,0,0
-119,-335,0,0,0,0,0,0,0,0,0,-1,1105,1359,0,0
-112,-335,0,0,0,0,0,0,0,0,0,-1,1112,1359,0,0
-105,-335,0,0,0,0,0,0,0,0,0,-1,1119,1359,0,0
-98,-335,0,0,0,0,0,0,0,0,0,-1,1126,1359,0,0
-91,-335,0,0,0,0,0,0,0,0,0,-1,1133,1359,0,0
-84,-335,0,0,0,0,0,0,0,0,0,-1,1140,1359,0,0
-77,-335,0,0,0,0,0,0,0,0,0,-1,1147,1359,0,0
-70,-335,0,0,0,0,0,0,0,0,0,-1,1154,1359,0,0
-63,-335,0,0,0,0,0,0,0,0,0,-1,1161,1359,0,0
-56,-335,0,0,0,0,0,0,0,0,0,-1,1168,1359,0,0
-49,-335,0,0,0,0,0,0,0,0,0,-1,1175,1359,0,0
-42,-335,0,0,0,0,0,0,0,0,0,-1,1182,1359,0,0
-35,-335,0,0,0,0,0,0,0,0,0,-1,1189,1359,0,0
-28,-335,0,0,0,0,0,0,0,0,0,-1,1196,1359,0,0
-21,-335,0,0,0,0,0,0,0,0,0,-1,1203,1359,0,0
-14,-335,0,0,0,0,0,0,0,0,0,-1,1210,1359,0,0
-7,-335,0,0,0,0,0,0,0,0,0,-1,1217,1359,0,0
0,-335,0,0,0,0,0,0,0,0,0,-1,1224,1359,0,0
7,-335,0,0,0,0,0,0,0,0,0,-1,1231,1359,0,0
14,-335,0,0,0,0,0,0,0,0,0,-1,1238,1359,0,0
21,-335,0,0,0,0,0,0,0,0,0,-1,1245,1359,0,0
28,-335,0,0,0,0,0,0,0,0,0,-1,1252,1359,0,0
35,-335,0,0,0,0,0,0,0,0,0,-1,1259,1359,0,0
42,-335,0,0,0,0,0,0,0,0,0,-1,1266,1359,0,0
49,-335,0,0,0,0,0,0,0,0,0,-1,1273,1359,0,0
56,-335,0,0,0,0,0,0,0,0,0,-1,1280,1359,0,0
63,-335,0,0,0,0,0,0,0,0,0,-1,1287,1359,0,0
70,-335,0,0,0,0,0,0,0,0,0,-1,1294,1359,0,0
77,-335,0,0,0,0,0,0,0,0,0,-1,1301,1359,0,0
84,-335,0,0,0,0,0,0,0,0,0,-1,1308,1359,0,0
91,-335,0,0,0,0,0,0,0,0,0,-1,1315,1359,0,0
98,-335,0,0,0,0,0,0,0,0,0,-1,1322,1359,0,0
105,-335,0,0,0,0,0,0,0,0,0,-1,1329,1359,0,0
112,-335,0,0,0,0,0,0,0,0,0,-1,1336,1359,0,0
119,-335,0,0,0,0,0,0,0,0,0,-1,1343,1359,0,0
126,-335,0,0,0,0,0,0,0,0,0,-1,1350,1359,0,0
133,-335,0,0,0,0,0,0,0,0,0,-1,1357,1359,0,0
140,-335,0,0,0,0,0,0,0,0,0,-1,1364,1359,0,0
147,-335,0,0,0,0,0,0,0,0,0,-1,1371,1359,0,0
154,-335,0,0,0,0,0,0,0,0,0,-1,1378,1359,0,0
161,-335,0,0,0,0,0,0,0,0,0,-1,1385,1359,0,0
168,-335,0,0,0,0,0,0,0,0,0,-1,1392,1359,0,0
175,-335,0,0,0,0,0,0,0,0,0,-1,1399,1359,0,0
182,-335,0,0,0,0,0,0,0,0,0,-1,1406,1359,0,0
189,-335,0,0,0,0,0,0,0,0,0,-1,1413,1359,0,0
196,-335,0,0,0,0,0,0,0,0,0,-1,1420,1359,0,0
203,-335,0,0,0,0,0,0,0,0,0,-1,1427,1359,0,0
210,-335,0,0,0,0,0,0,0,0,0,-1,1434,1359,0,0
217,-335,0,0,0,0,0,0,0,0,0,-1,1441,1359,0,0
224,-335,0,0,0,0,0,0,0,0,0,-1,1448,1359,0,0
231,-335,0,0,0,0,0,0,0,0,0,-1,1455,1359,0,0
238,-335,0,0,0,0,0,0,0,0,0,-1,1462,1359,0,0
245,-335,0,0,0,0,0,0,0,0,0,-1,1469,1359,0,0
252,-335,0,0,0,0,0,0,0,0,0,-1,1476,1359,0,0
259,-335,0,0,0,0,0,0,0,0,0,-1,1483,1359,0,0
266,-335,0,0,0,0,0,0,0,0,0,-1,1490,1359,0,0
273,-335,0,0,0,0,0,0,0,0,0,-1,1497,1359,0,0
280,-335,0,0,0,0,0,0,0,0,0,-1,1504,1359,0,0
287,-335,0,0,0,0,0,0,0,0,0,-1,1511,1359,0,0
294,-335,0,0,0,0,0,0,0,0,0,-1,1518,1359,0,0
301,-335,0,0,0,0,0,0,0,0,0,-1,1525,1359,0,0
308,-335,0,0,0,0,0,0,0,0,0,-1,1532,1359,0,0
315,-335,0,0,0,0,0,0,0,0,0,-1,1539,1359,0,0
322,-335,0,0,0,0,0,0,0,0,0,-1,1546,1359,0,0
329,-335,0,0,0,0,0,0,0,0,0,-1,1553,1359,0,0
336,-335,0,0,0,0,0,0,0,0,0,-1,1560,1359,0,0
343,-335,0,0,0,0,0,0,0,0,0,-1,1567,1359,0,0
350,-335,0,0,0,0,0,0,0,0,0,-1,1574,1359,0,0
357,-335,0,0,0,0,0,0,0,0,0,-1,1581,1359,0,0
364,-335,0,0,0,0,0,0,0,0,0,-1,1588,1359,0,0
371,-335,0,0,0,0,0,0,0,0,0,-1,1595,1359,0,0
378,-335,0,0,0,0,0,0,0,0,0,-1,1602,1359,0,0
385,-335,0,0,0,0,0,0,0,0,0,-1,1609,1359,0,0
392,-335,0,0,0,0,0,0,0,0,0,-1,1616,1359,0,0
399,-335,0,0,0,0,0,0,0,0,0,-1,1623,1359,0,0
406,-335,0,0,0,0,0,0,0,0,0,-1,1630,1359,0,0
413,-335,0,0,0,0,0,0,0,0,0,-1,1637,1359,0,0
420,-335,0,0,0,0,0,0,0,0,0,-1,1644,1359,0,0
427,-335,0,0,0,0,0,0,0,0,0,-1,1651,1359,0,0
434,-335,0,0,0,0,0,0,0,0,0,-1,1658,1359,0,0
441,-335,0,0,0,0,0,0,0,0,0,-1,1665,1359,0,0
448,-335,0,0,0,0,0,0,0,0,0,-1,1672,1359,0,0
455,-335,0,0,0,0,0,0,0,0,0,-1,1679,1359,0,0
462,-335,0,0,0,0,0,0,0,0,0,-1,1686,1359,0,0
469,-335,0,0,0,0,0,0,0,0,0,-1,1693,1359,0,0
476,-335,0,0,0,0,0,0,0,0,0,-1,1700,1359,0,0
483,-335,0,0,0,0,0,0,0,0,0,-1,1707,1359,0,0
490,-335,0,0,0,0,0,0,0,0,0,-1,1714,1359,0,0
497,-335,0,0,0,0,0,0,0,0,0,-1,1721,1359,0,0
504,-335,0,0,0,0,0,0,0,0,0,-1,1728,1359,0,0
511,-335,0,0,0,0,0,0,0,0,0,-1,1735,1359,0,0
518,-335,0,0,0,0,0,0,0,0,0,-1,1742,1359,0,0
525,-335,0,0,0,0,0,0,0,0,0,-1,1749,1359,0,0
532,-335,0,0,0,0,0,0,0,0,0,-1,1756,1359,0,0
539,-335,0,0,0,0,0,0,0,0,0,-1,1763,1359,0,0
546,-335,0,0,0,0,0,0,0,0,0,-1,1770,1359,0,0
553,-335,0,0,0,0,0,0,0,0,0,-1,1777,1359,0,0
560,-335,0,0,0,0,0,0,0,0,0,-1,1784,1359,0,0
567,-335,0,0,0,0,0,0,0,0,0,-1,1791,1359,0,0
574,-335,44.5405,5.74219,0,0,0,0,0,0,0,-1,1798,1359,44.5406,-5.74224
581,-335,44.1571,6.41992,0,0,0,0,0,0,0,-1,1805,1359,44.1571,-6.41989
588,-335,44.5253,7.03552,0,0,0,0,0,0,0,-1,1812,1359,44.5252,-7.03551
595,-335,44.9108,7.65088,0,0,0,0,0,0,0,-1,1819,1359,44.9108,-7.65084
602,-335,36.5643,0.0861816,0,0,0,0,0,0,0,-1,1826,1359,36.5643,-0.0862283
609,-335,36.2933,0.993896,0,0,0,0,0,0,0,-1,1833,1359,36.2934,-0.993911
616,-335,34.6969,4.82666,0,0,0,0,0,0,0,-1,1840,1359,34.6969,-4.82667
623,-335,26.6051,6.54333,0,0,0,0,0,0,0,-1,1847,1359,26.6051,-6.54339
630,-335,19.1707,1.00952,0,0,0,0,0,0,0,-1,1854,1359,19.1707,-1.00953
637,-335,18.2009,6.65454,0,0,0,0,0,0,0,-1,1861,1359,18.2009,-6.6546
644,-335,28.1042,12.067,0,0,0,0,0,0,0,-1,1868,1359,28.1042,-12.067
651,-335,29.4003,12.4911,0,0,0,0,0,0,0,-1,1875,1359,29.4002,-12.4911
658,-335,29.5566,12.0148,0.00199646,0.00473617,0.00200469,0.00579433,0.000938293,1.08512,0.00359122,0.026589,1882,1359,29.5566,-12.0148
665,-335,29.615,11.4935,0.00086554,0.00167753,0.000663785,0.00204964,0.000493434,1.05986,0.00123525,0.0151841,1889,1359,29.615,-11.4936
672,-335,29.5991,11.0162,0.000631588,-0.000171612,-0.000466465,0.000845514,-0.000385539,-0.429992,0.000727098,0.0176965,1896,1359,29.5991,-11.0163
679,-335,29.5767,10.583,0.000954281,-0.000298893,-0.000272263,0.00101088,-0.000355489,-0.204952,0.000818562,0.0152178,1903,1359,29.5767,-10.583
686,-335,29.574,10.1078,0.00127202,-0.000333227,-0.000131621,0.00128274,-0.000343947,-0.0812707,0.000989933,0.0125139,1910,1359,29.574,-10.1078
693,-335,29.5359,9.62439,0.00157639,-0.000311373,-2.60961e-05,0.00157675,-0.000311734,-0.0138203,0.00116902,0.0104324,1917,1359,29.5359,-9.62442
700,-335,29.4879,9.19019,0.00186691,-0.000224606,6.40006e-05,0.00186886,-0.000226562,0.030562,0.00132789,0.0111718,1924,1359,29.4879,-9.19024
707,-335,29.4856,8.71301,0.00201804,-2.61046e-05,0.000133693,0.00202674,-3.48116e-05,0.0650336,0.00136291,0.0144989,1931,1359,29.4855,-8.71299
714,-335,29.5134,8.1438,0.00219242,0.000144198,0.000254995,0.00222369,0.00011293,0.122014,0.00144629,0.0334392,1938,1359,29.5135,-8.14385
721,-335,29.4727,7.48352,0,0,0,0,0,0,0,-1,1945,1359,29.4726,-7.48357
728,-335,20.8126,5.21167,0,0,0,0,0,0,0,-1,1952,1359,20.8127,-5.21172
735,-335,20.2725,5.34729,0,0,0,0,0,0,0,-1,1959,1359,20.2724,-5.34734
742,-335,19.8624,4.72229,0,0,0,0,0,0,0,-1,1966,1359,19.8624,-4.72225
749,-335,20.5887,6.05322,0,0,0,0,0,0,0,-1,1973,1359,20.5887,-6.05322
756,-335,20.7832,6.00452,0,0,0,0,0,0,0,-1,1980,1359,20.7832,-6.00447
763,-335,0,0,0,0,0,0,0,0,0,-1,1987,1359,0,0
770,-335,0,0,0,0,0,0,0,0,0,-1,1994,1359,0,0
777,-335,0,0,0,0,0,0,0,0,0,-1,2001,1359,0,0
784,-335,0,0,0,0,0,0,0,0,0,-1,2008,1359,0,0
791,-335,0,0,0,0,0,0,0,0,0,-1,2015,1359,0,0
798,-335,0,0,0,0,0,0,0,0,0,-1,2022,1359,0,0
805,-335,0,0,0,0,0,0,0,0,0,-1,2029,1359,0,0
812,-335,0,0,0,0,0,0,0,0,0,-1,2036,1359,0,0
-700,-342,0,0,0,0,0,0,0,0,0,-1,524,1366,0,0
-693,-342,0,0,0,0,0,0,0,0,0,-1,531,1366,0,0
-686,-342,0,0,0,0,0,0,0,0,0,-1,538,1366,0,0
-679,-342,0,0,0,0,0,0,0,0,0,-1,545,1366,0,0
-672,-342,0,0,0,0,0,0,0,0,0,-1,552,1366,0,0
-665,-342,0,0,0,0,0,0,0,0,0,-1,559,1366,0,0
-658,-342,0,0,0,0,0,0,0,0,0,-1,566,1366,0,0
-651,-342,0,0,0,0,0,0,0,0,0,-1,573,1366,0,0
-644,-342,0,0,0,0,0,0,0,0,0,-1,580,1366,0,0
-637,-342,-8.67786,-4.58557,0,0,0,0,0,0,0,-1,587,1366,-8.67788,4.5856
-630,-342,-8.60132,2.71777,0,0,0,0,0,0,0,-1,594,1366,-8.60135,-2.71779
-623,-342,-8.41168,0.662476,0,0,0,0,0,0,0,-1,601,1366,-8.41168,-0.662442
-616,-342,-6.625,-1.28015,0,0,0,0,0,0,0,-1,608,1366,-6.62499,1.28011
-609,-342,-7.83154,0.674561,0,0,0,0,0,0,0,-1,615,1366,-7.83155,-0.674598
-602,-342,-9.65765,2.25195,0,0,0,0,0,0,0,-1,622,1366,-9.65767,-2.25192
-595,-342,-9.47687,3.00671,0,0,0,0,0,0,0,-1,629,1366,-9.47686,-3.00668
-588,-342,-9.78467,3.57727,0,0,0,0,0,0,0,-1,636,1366,-9.78468,-3.57723
-581,-342,-15.5632,5.87476,0,0,0,0,0,0,0,-1,643,1366,-15.5632,-5.87474
-574,-342,-15.5318,6.52063,-0.000522582,0.000743907,-0.00055169,0.00095052,-0.000729195,-1.21246,0.000972586,0.014618,650,1366,-15.5318,-6.5206
-567,-342,-15.4554,7.04578,-0.000481609,0.000501336,-0.000499784,0.000710813,-0.000691086,-1.1739,0.000809413,0.0156851,657,1366,-15.4554,-7.04573
-560,-342,-15.5172,7.54248,1.97404e-05,0.000222287,-0.00031597,0.000452817,-0.00021079,-0.940484,0.000391535,0.0253088,664,1366,-15.5172,-7.54254
-553,-342,-15.5563,8.03052,0.000872148,1.93575e-05,3.22928e-05,0.000873369,1.81365e-05,0.0377951,0.000576296,0.0287904,671,1366,-15.5564,-8.03056
-546,-342,-15.5697,8.4917,0.00198817,-0.000147883,0.000476302,0.00208956,-0.000249278,0.209747,0.00148313,0.028364,678,1366,-15.5697,-8.49176
-539,-342,-15.6136,9.05432,0.00332179,-0.00028282,0.00100646,0.00358377,-0.000544795,0.254645,0.00258995,0.0249016,685,1366,-15.6136,-9.05429
-532,-342,-15.6134,9.62024,0.00495852,-0.000367835,0.00166364,0.00543544,-0.000844754,0.279185,0.00393555,0.0198755,692,1366,-15.6134,-9.6202
-525,-342,-15.5612,10.1467,0.00694217,-0.000429593,0.00244512,0.00767944,-0.00116687,0.29286,0.00554963,0.0137056,699,1366,-15.5612,-10.1468
-518,-342,-15.5014,10.6659,0.00937081,-0.000451188,0.00334786,0.0104034,-0.00148376,0.299171,0.0074794,0.0292598,706,1366,-15.5014,-10.6659
-511,-342,-15.5079,11.1718,0,0,0,0,0,0,0,-1,713,1366,-15.5079,-11.1718
-504,-342,-8.95709,6.5719,0,0,0,0,0,0,0,-1,720,1366,-8.95707,-6.57192
-497,-342,-8.26587,-0.943604,0,0,0,0,0,0,0,-1,727,1366,-8.26586,0.943543
-490,-342,-9.07153,-0.0227051,0,0,0,0,0,0,0,-1,734,1366,-9.07155,0.0227087
-483,-342,-9.87726,0.898071,0,0,0,0,0,0,0,-1,741,1366,-9.87724,-0.898125
-476,-342,-11.6371,-0.736328,0,0,0,0,0,0,0,-1,748,1366,-11.6371,0.736281
-469,-342,-12.6245,-0.987549,0,0,0,0,0,0,0,-1,755,1366,-12.6245,0.987553
-462,-342,-13.0912,-0.533203,0,0,0,0,0,0,0,-1,762,1366,-13.0912,0.533224
-455,-342,-13.7612,0.122925,0,0,0,0,0,0,0,-1,769,1366,-13.7612,-0.122896
-448,-342,-14.5278,0.826904,0,0,0,0,0,0,0,-1,776,1366,-14.5277,-0.826861
-441,-342,0,0,0,0,0,0,0,0,0,-1,783,1366,0,0
-434,-342,0,0,0,0,0,0,0,0,0,-1,790,1366,0,0
-427,-342,0,0,0,0,0,0,0,0,0,-1,797,1366,0,0
-420,-342,0,0,0,0,0,0,0,0,0,-1,804,1366,0,0
-413,-342,0,0,0,0,0,0,0,0,0,-1,811,1366,0,0
-406,-342,0,0,0,0,0,0,0,0,0,-1,818,1366,0,0
-399,-342,0,0,0,0,0,0,0,0,0,-1,825,1366,0,0
-392,-342,0,0,0,0,0,0,0,0,0,-1,832,1366,0,0
-385,-342,0,0,0,0,0,0,0,0,0,-1,839,1366,0,0
-378,-342,0,0,0,0,0,0,0,0,0,-1,846,1366,0,0
-371,-342,0,0,0,0,0,0,0,0,0,-1,853,1366,0,0
-364,-342,0,0,0,0,0,0,0,0,0,-1,860,1366,0,0
-357,-342,0,0,0,0,0,0,0,0,0,-1,867,1366,0,0
-350,-342,0,0,0,0,0,0,0,0,0,-1,874,1366,0,0
-343,-342,0,0,0,0,0,0,0,0,0,-1,881,1366,0,0
-336,-342,0,0,0,0,0,0,0,0,0,-1,888,1366,0,0
-329,-342,0,0,0,0,0,0,0,0,0,-1,895,1366,0,0
-322,-342,0,0,0,0,0,0,0,0,0,-1,902,1366,0,0
-315,-342,0,0,0,0,0,0,0,0,0,-1,909,1366,0,0
-308,-342,0,0,0,0,0,0,0,0,0,-1,916,1366,0,0
-301,-342,0,0,0,0,0,0,0,0,0,-1,923,1366,0,0
-294,-342,0,0,0,0,0,0,0,0,0,-1,930,1366,0,0
-287,-342,0,0,0,0,0,0,0,0,0,-1,937,1366,0,0
-280,-342,0,0,0,0,0,0,0,0,0,-1,944,1366,0,0
-273,-342,0,0,0,0,0,0,0,0,0,-1,951,1366,0,0
-266,-342,0,0,0,0,0,0,0,0,0,-1,958,1366,0,0
-259,-342,0,0,0,0,0,0,0,0,0,-1,965,1366,0,0
-252,-342,0,0,0,0,0,0,0,0,0,-1,972,1366,0,0
-245,-342,0,0,0,0,0,0,0,0,0,-1,979,1366,0,0
-238,-342,0,0,0,0,0,0,0,0,0,-1,986,1366,0,0
-231,-342,0,0,0,0,0,0,0,0,0,-1,993,1366,0,0
-224,-342,0,0,0,0,0,0,0,0,0,-1,1000,1366,0,0
-217,-342,0,0,0,0,0,0,0,0,0,-1,1007,1366,0,0
-210,-342,0,0,0,0,0,0,0,0,0,-1,1014,1366,0,0
-203,-342,0,0,0,0,0,0,0,0,0,-1,1021,1366,0,0
-196,-342,0,0,0,0,0,0,0,0,0,-1,1028,1366,0,0
-189,-342,0,0,0,0,0,0,0,0,0,-1,1035,1366,0,0
-182,-342,0,0,0,0,0,0,0,0,0,-1,1042,1366,0,0
-175,-342,0,0,0,0,0,0,0,0,0,-1,1049,1366,0,0
-168,-342,0,0,0,0,0,0,0,0,0,-1,1056,1366,0,0
-161,-342,0,0,0,0,0,0,0,0,0,-1,1063,1366,0,0
-154,-342,0,0,0,0,0,0,0,0,0,-1,1070,1366,0,0
-147,-342,0,0,0,0,0,0,0,0,0,-1,1077,1366,0,0
-140,-342,0,0,0,0,0,0,0,0,0,-1,1084,1366,0,0
-133,-342,0,0,0,0,0,0,0,0,0,-1,1091,1366,0,0
-126,-342,0,0,0,0,0,0,0,0,0,-1,1098,1366,0,0
-119,-342,0,0,0,0,0,0,0,0,0,-1,1105,1366,0,0
-112,-342,0,0,0,0,0,0,0,0,0,-1,1112,1366,0,0
-105,-342,0,0,0,0,0,0,0,0,0,-1,1119,1366,0,0
-98,-342,0,0,0,0,0,0,0,0,0,-1,1126,1366,0,0
-91,-342,0,0,0,0,0,0,0,0,0,-1,1133,1366,0,0
-84,-342,0,0,0,0,0,0,0,0,0,-1,1140,1366,0,0
-77,-342,0,0,0,0,0,0,0,0,0,-1,1147,1366,0,0
-70,-342,0,0,0,0,0,0,0,0,0,-1,1154,1366,0,0
-63,-342,0,0,0,0,0,0,0,0,0,-1,1161,1366,0,0
-56,-342,0,0,0,0,0,0,0,0,0,-1,1168,1366,0,0
-49,-342,0,0,0,0,0,0,0,0,0,-1,1175,1366,0,0
-42,-342,0,0,0,0,0,0,0,0,0,-1,1182,1366,0,0
-35,-342,0,0,0,0,0,0,0,0,0,-1,1189,1366,0,0
-28,-342,0,0,0,0,0,0,0,0,0,-1,1196,1366,0,0
-21,-342,0,0,0,0,0,0,0,0,0,-1,1203,1366,0,0
-14,-342,0,0,0,0,0,0,0,0,0,-1,1210,1366,0,0
-7,-342,0,0,0,0,0,0,0,0,0,-1,1217,1366,0,0
0,-342,0,0,0,0,0,0,0,0,0,-1,1224,1366,0,0
7,-342,0,0,0,0,0,0,0,0,0,-1,1231,1366,0,0
14,-342,0,0,0,0,0,0,0,0,0,-1,1238,1366,0,0
21,-342,0,0,0,0,0,0,0,0,0,-1,1245,1366,0,0
28,-342,0,0,0,0,0,0,0,0,0,-1,1252,1366,0,0
35,-342,0,0,0,0,0,0,0,0,0,-1,1259,1366,0,0
42,-342,0,0,0,0,0,0,0,0,0,-1,1266,1366,0,0
49,-342,0,0,0,0,0,0,0,0,0,-1,1273,1366,0,0
56,-342,0,0,0,0,0,0,0,0,0,-1,1280,1366,0,0
63,-342,0,0,0,0,0,0,0,0,0,-1,1287,1366,0,0
70,-342,0,0,0,0,0,0,0,0,0,-1,1294,1366,0,0
77,-342,0,0,0,0,0,0,0,0,0,-1,1301,1366,0,0
84,-342,0,0,0,0,0,0,0,0,0,-1,1308,1366,0,0
91,-342,0,0,0,0,0,0,0,0,0,-1,1315,1366,0,0
98,-342,0,0,0,0,0,0,0,0,0,-1,1322,1366,0,0
105,-342,0,0,0,0,0,0,0,0,0,-1,1329,1366,0,0
112,-342,0,0,0,0,0,0,0,0,0,-1,1336,1366,0,0
119,-342,0,0,0,0,0,0,0,0,0,-1,1343,1366,0,0
126,-342,0,0,0,0,0,0,0,0,0,-1,1350,1366,0,0
133,-342,0,0,0,0,0,0,0,0,0,-1,1357,1366,0,0
140,-342,0,0,0,0,0,0,0,0,0,-1,1364,1366,0,0
147,-342,0,0,0,0,0,0,0,0,0,-1,1371,1366,0,0
154,-342,0,0,0,0,0,0,0,0,0,-1,1378,1366,0,0
161,-342,0,0,0,0,0,0,0,0,0,-1,1385,1366,0,0
168,-342,0,0,0,0,0,0,0,0,0,-1,1392,1366,0,0
175,-342,0,0,0,0,0,0,0,0,0,-1,1399,1366,0,0
182,-342,0,0,0,0,0,0,0,0,0,-1,1406,1366,0,0
189,-342,0,0,0,0,0,0,0,0,0,-1,1413,1366,0,0
196,-342,0,0,0,0,0,0,0,0,0,-1,1420,1366,0,0
203,-342,0,0,0,0,0,0,0,0,0,-1,1427,1366,0,0
210,-342,0,0,0,0,0,0,0,0,0,-1,1434,1366,0,0
217,-342,0,0,0,0,0,0,0,0,0,-1,1441,1366,0,0
224,-342,0,0,0,0,0,0,0,0,0,-1,1448,1366,0,0
231,-342,0,0,0,0,0,0,0,0,0,-1,1455,1366,0,0
238,-342,0,0,0,0,0,0,0,0,0,-1,1462,1366,0,0
245,-342,0,0,0,0,0,0,0,0,0,-1,1469,1366,0,0
252,-342,0,0,0,0,0,0,0,0,0,-1,1476,1366,0,0
259,-342,0,0,0,0,0,0,0,0,0,-1,1483,1366,0,0
266,-342,0,0,0,0,0,0,0,0,0,-1,1490,1366,0,0
273,-342,0,0,0,0,0,0,0,0,0,-1,1497,1366,0,0
280,-342,0,0,0,0,0,0,0,0,0,-1,1504,1366,0,0
287,-342,0,0,0,0,0,0,0,0,0,-1,1511,1366,0,0
294,-342,0,0,0,0,0,0,0,0,0,-1,1518,1366,0,0
301,-342,0,0,0,0,0,0,0,0,0,-1,1525,1366,0,0
308,-342,0,0,0,0,0,0,0,0,0,-1,1532,1366,0,0
315,-342,0,0,0,0,0,0,0,0,0,-1,1539,1366,0,0
322,-342,0,0,0,0,0,0,0,0,0,-1,1546,1366,0,0
329,-342,0,0,0,0,0,0,0,0,0,-1,1553,1366,0,0
336,-342,0,0,0,0,0,0,0,0,0,-1,1560,1366,0,0
343,-342,0,0,0,0,0,0,0,0,0,-1,1567,1366,0,0
350,-342,0,0,0,0,0,0,0,0,0,-1,1574,1366,0,0
357,-342,0,0,0,0,0,0,0,0,0,-1,1581,1366,0,0
364,-342,0,0,0,0,0,0,0,0,0,-1,1588,1366,0,0
371,-342,0,0,0,0,0,0,0,0,0,-1,1595,1366,0,0
378,-342,0,0,0,0,0,0,0,0,0,-1,1602,1366,0,0
385,-342,0,0,0,0,0,0,0,0,0,-1,1609,1366,0,0
392,-342,0,0,0,0,0,0,0,0,0,-1,1616,1366,0,0
399,-342,0,0,0,0,0,0,0,0,0,-1,1623,1366,0,0
406,-342,0,0,0,0,0,0,0,0,0,-1,1630,1366,0,0
413,-342,0,0,0,0,0,0,0,0,0,-1,1637,1366,0,0
420,-342,0,0,0,0,0,0,0,0,0,-1,1644,1366,0,0
427,-342,0,0,0,0,0,0,0,0,0,-1,1651,1366,0,0
434,-342,0,0,0,0,0,0,0,0,0,-1,1658,1366,0,0
441,-342,0,0,0,0,0,0,0,0,0,-1,1665,1366,0,0
448,-342,0,0,0,0,0,0,0,0,0,-1,1672,1366,0,0
455,-342,0,0,0,0,0,0,0,0,0,-1,1679,1366,0,0
462,-342,0,0,0,0,0,0,0,0,0,-1,1686,1366,0,0
469,-342,0,0,0,0,0,0,0,0,0,-1,1693,1366,0,0
476,-342,0,0,0,0,0,0,0,0,0,-1,1700,1366,0,0
483,-342,0,0,0,0,0,0,0,0,0,-1,1707,1366,0,0
490,-342,0,0,0,0,0,0,0,0,0,-1,1714,1366,0,0
497,-342,0,0,0,0,0,0,0,0,0,-1,1721,1366,0,0
504,-342,0,0,0,0,0,0,0,0,0,-1,1728,1366,0,0
511,-342,0,0,0,0,0,0,0,0,0,-1,1735,1366,0,0
518,-342,0,0,0,0,0,0,0,0,0,-1,1742,1366,0,0
525,-342,0,0,0,0,0,0,0,0,0,-1,1749,1366,0,0
532,-342,0,0,0,0,0,0,0,0,0,-1,1756,1366,0,0
539,-342,0,0,0,0,0,0,0,0,0,-1,1763,1366,0,0
546,-342,0,0,0,0,0,0,0,0,0,-1,1770,1366,0,0
553,-342,0,0,0,0,0,0,0,0,0,-1,1777,1366,0,0
560,-342,0,0,0,0,0,0,0,0,0,-1,1784,1366,0,0
567,-342,42.6652,5.53748,0,0,0,0,0,0,0,-1,1791,1366,42.6652,-5.53752
574,-342,43.0466,5.95728,0,0,0,0,0,0,0,-1,1798,1366,43.0466,-5.9573
581,-342,43.4904,6.59937,0,0,0,0,0,0,0,-1,1805,1366,43.4903,-6.59938
588,-342,43.9108,7.22559,0,0,0,0,0,0,0,-1,1812,1366,43.9107,-7.22554
595,-342,35.7993,0.709961,0,0,0,0,0,0,0,-1,1819,1366,35.7993,-0.709913
602,-342,36.3618,3.28723,0,0,0,0,0,0,0,-1,1826,1366,36.3619,-3.28719
609,-342,35.3777,4.14978,0,0,0,0,0,0,0,-1,1833,1366,35.3777,-4.14976
616,-342,34.199,5.8158,0,0,0,0,0,0,0,-1,1840,1366,34.199,-5.81579
623,-342,26.0299,6.86865,0,0,0,0,0,0,0,-1,1847,1366,26.0299,-6.86863
630,-342,17.3431,0.773071,0,0,0,0,0,0,0,-1,1854,1366,17.3432,-0.773095
637,-342,16.196,6.76172,0,0,0,0,0,0,0,-1,1861,1366,16.1961,-6.76174
644,-342,28.9957,12.9648,0,0,0,0,0,0,0,-1,1868,1366,28.9957,-12.9648
651,-342,29.1277,12.5527,0.00243134,0.00552167,0.00170661,0.00627868,0.00167432,1.15329,0.00375427,0.0445363,1875,1366,29.1277,-12.5528
658,-342,29.079,12.0029,0.00138702,0.00291811,0.000714371,0.00319965,0.00110548,1.19538,0.00187648,0.0222568,1882,1366,29.0789,-12.003
665,-342,29.1113,11.4857,0.000722111,0.000886712,3.96022e-05,0.000895745,0.000713078,1.34655,0.000546546,0.0180026,1889,1366,29.1114,-11.4857
672,-342,29.1154,11.0369,0.000707125,-0.000141781,-0.000362364,0.000840765,-0.000275421,-0.353325,0.000671419,0.0134579,1896,1366,29.1154,-11.0369
679,-342,29.0983,10.6143,0.00115584,-0.000363644,-0.000137351,0.00116815,-0.00037596,-0.0894276,0.000929781,0.013474,1903,1366,29.0982,-10.6143
686,-342,29.1042,10.1598,0.0016132,-0.000487676,1.81088e-05,0.00161336,-0.000487832,0.0086188,0.00126981,0.0118129,1910,1366,29.1042,-10.1598
693,-342,29.0654,9.66809,0.00205675,-0.000560682,0.000140772,0.0020643,-0.000568231,0.0535764,0.00159962,0.0119876,1917,1366,29.0654,-9.66805
700,-342,29.0179,9.20557,0.00249295,-0.000552025,0.000223309,0.00250924,-0.000568314,0.0728178,0.00189095,0.0136361,1924,1366,29.0179,-9.20551
707,-342,29.0181,8.71875,0.00273778,-0.00038662,0.00025157,0.00275791,-0.000406747,0.0798324,0.00198811,0.0136102,1931,1366,29.018,-8.71881
714,-342,29.1104,8.08289,0,0,0,0,0,0,0,-1,1938,1366,29.1104,-8.08284
721,-342,22.4666,6.08679,0,0,0,0,0,0,0,-1,1945,1366,22.4666,-6.08678
728,-342,19.8912,5.26636,0,0,0,0,0,0,0,-1,1952,1366,19.8913,-5.26636
735,-342,19.481,4.41968,0,0,0,0,0,0,0,-1,1959,1366,19.4809,-4.41962
742,-342,19.309,2.66943,0,0,0,0,0,0,0,-1,1966,1366,19.3089,-2.66948
749,-342,21.0934,6.47729,0,0,0,0,0,0,0,-1,1973,1366,21.0934,-6.4773
756,-342,0,0,0,0,0,0,0,0,0,-1,1980,1366,0,0
763,-342,0,0,0,0,0,0,0,0,0,-1,1987,1366,0,0
770,-342,0,0,0,0,0,0,0,0,0,-1,1994,1366,0,0
777,-342,0,0,0,0,0,0,0,0,0,-1,2001,1366,0,0
784,-342,0,0,0,0,0,0,0,0,0,-1,2008,1366,0,0
791,-342,0,0,0,0,0,0,0,0,0,-1,2015,1366,0,0
798,-342,0,0,0,0,0,0,0,0,0,-1,2022,1366,0,0
805,-342,0,0,0,0,0,0,0,0,0,-1,2029,1366,0,0
812,-342,0,0,0,0,0,0,0,0,0,-1,2036,1366,0,0
-700,-349,0,0,0,0,0,0,0,0,0,-1,524,1373,0,0
-693,-349,0,0,0,0,0,0,0,0,0,-1,531,1373,0,0
-686,-349,0,0,0,0,0,0,0,0,0,-1,538,1373,0,0
-679,-349,0,0,0,0,0,0,0,0,0,-1,545,1373,0,0
-672,-349,0,0,0,0,0,0,0,0,0,-1,552,1373,0,0
-665,-349,0,0,0,0,0,0,0,0,0,-1,559,1373,0,0
-658,-349,0,0,0,0,0,0,0,0,0,-1,566,1373,0,0
-651,-349,0,0,0,0,0,0,0,0,0,-1,573,1373,0,0
-644,-349,0,0,0,0,0,0,0,0,0,-1,580,1373,0,0
-637,-349,0,0,0,0,0,0,0,0,0,-1,587,1373,0,0
-630,-349,-7.64117,-5.06177,0,0,0,0,0,0,0,-1,594,1373,-7.64118,5.0618
-623,-349,-8.63507,0.51123,0,0,0,0,0,0,0,-1,601,1373,-8.63505,-0.511275
-616,-349,-5.2066,-0.188232,0,0,0,0,0,0,0,-1,608,1373,-5.20659,0.188211
-609,-349,-7.12073,1.37048,0,0,0,0,0,0,0,-1,615,1373,-7.12072,-1.37044
-602,-349,-9.00623,3.39587,0,0,0,0,0,0,0,-1,622,1373,-9.0062,-3.39591
-595,-349,-9.50568,2.96912,0,0,0,0,0,0,0,-1,629,1373,-9.50569,-2.96906
-588,-349,-8.60046,3.56042,0,0,0,0,0,0,0,-1,636,1373,-8.60046,-3.56047
-581,-349,-14.9484,6.03064,0,0,0,0,0,0,0,-1,643,1373,-14.9484,-6.03068
-574,-349,-14.9791,6.48596,-0.00202426,0.000434834,-0.00145735,0.00111203,-0.00270145,-1.13581,0.00226456,0.0321405,650,1373,-14.9791,-6.48601
-567,-349,-15.0096,7.04749,-0.00171009,0.000327149,-0.00114573,0.000841592,-0.00222454,-1.14877,0.00182927,0.0169032,657,1373,-15.0096,-7.04745
-560,-349,-14.9962,7.55945,-0.000981684,0.000102499,-0.000811253,0.00053611,-0.0014153,-1.07993,0.00116414,0.0212664,664,1373,-14.9962,-7.55942
-553,-349,-15.0422,8.03064,9.78732e-05,-2.30792e-05,-0.000315802,0.000358938,-0.000284144,-0.690793,0.000372119,0.0268921,671,1373,-15.0422,-8.03067
-546,-349,-15.0606,8.53186,0.00135042,-0.000112804,0.000232793,0.00138656,-0.000148948,0.154032,0.000977811,0.0290979,678,1373,-15.0606,-8.53191
-539,-349,-15.0955,9.09204,0.0027405,-0.000181186,0.000820384,0.00295509,-0.000395781,0.255846,0.00211437,0.0250238,685,1373,-15.0955,-9.09205
-532,-349,-15.0876,9.64331,0.00431276,-0.000213911,0.00147426,0.00475056,-0.000651712,0.288668,0.00340513,0.018757,692,1373,-15.0876,-9.64329
-525,-349,-15.0602,10.163,0.00610105,-0.000194084,0.0022205,0.00680547,-0.000898505,0.307193,0.00486422,0.0142128,699,1373,-15.0603,-10.163
-518,-349,-15.062,10.7032,0.00815558,-0.000131513,0.00304328,0.0091531,-0.00112903,0.316741,0.00651112,0.0195046,706,1373,-15.062,-10.7033
-511,-349,-15.0275,11.2701,0,0,0,0,0,0,0,-1,713,1373,-15.0276,-11.2702
-504,-349,-9.60516,7.88831,0,0,0,0,0,0,0,-1,720,1373,-9.60519,-7.88825
-497,-349,-7.9339,5.58789,0,0,0,0,0,0,0,-1,727,1373,-7.93388,-5.58785
-490,-349,-8.73969,-0.503784,0,0,0,0,0,0,0,-1,734,1373,-8.73966,0.503752
-483,-349,-5.66974,3.7395,0,0,0,0,0,0,0,-1,741,1373,-5.66975,-3.73949
-476,-349,-10.8496,1.15759,0,0,0,0,0,0,0,-1,748,1373,-10.8496,-1.15756
-469,-349,-12.3314,-1.74878,0,0,0,0,0,0,0,-1,755,1373,-12.3314,1.74882
-462,-349,-12.6559,-0.995361,0,0,0,0,0,0,0,-1,762,1373,-12.656,0.995351
-455,-349,-13.2897,-0.234253,0,0,0,0,0,0,0,-1,769,1373,-13.2897,0.234261
-448,-349,-14.045,0.712891,0,0,0,0,0,0,0,-1,776,1373,-14.045,-0.712838
-441,-349,0,0,0,0,0,0,0,0,0,-1,783,1373,0,0
-434,-349,0,0,0,0,0,0,0,0,0,-1,790,1373,0,0
-427,-349,0,0,0,0,0,0,0,0,0,-1,797,1373,0,0
-420,-349,0,0,0,0,0,0,0,0,0,-1,804,1373,0,0
-413,-349,0,0,0,0,0,0,0,0,0,-1,811,1373,0,0
-406,-349,0,0,0,0,0,0,0,0,0,-1,818,1373,0,0
-399,-349,0,0,0,0,0,0,0,0,0,-1,825,1373,0,0
-392,-349,0,0,0,0,0,0,0,0,0,-1,832,1373,0,0
-385,-349,0,0,0,0,0,0,0,0,0,-1,839,1373,0,0
-378,-349,0,0,0,0,0,0,0,0,0,-1,846,1373,0,0
-371,-349,0,0,0,0,0,0,0,0,0,-1,853,1373,0,0
-364,-349,0,0,0,0,0,0,0,0,0,-1,860,1373,0,0
-357,-349,0,0,0,0,0,0,0,0,0,-1,867,1373,0,0
-350,-349,0,0,0,0,0,0,0,0,0,-1,874,1373,0,0
-343,-349,0,0,0,0,0,0,0,0,0,-1,881,1373,0,0
-336,-349,0,0,0,0,0,0,0,0,0,-1,888,1373,0,0
-329,-349,0,0,0,0,0,0,0,0,0,-1,895,1373,0,0
-322,-349,0,0,0,0,0,0,0,0,0,-1,902,1373,0,0
-315,-349,0,0,0,0,0,0,0,0,0,-1,909,1373,0,0
-308,-349,0,0,0,0,0,0,0,0,0,-1,916,1373,0,0
-301,-349,0,0,0,0,0,0,0,0,0,-1,923,1373,0,0
-294,-349,0,0,0,0,0,0,0,0,0,-1,930,1373,0,0
-287,-349,0,0,0,0,0,0,0,0,0,-1,937,1373,0,0
-280,-349,0,0,0,0,0,0,0,0,0,-1,944,1373,0,0
-273,-349,0,0,0,0,0,0,0,0,0,-1,951,1373,0,0
-266,-349,0,0,0,0,0,0,0,0,0,-1,958,1373,0,0
-259,-349,0,0,0,0,0,0,0,0,0,-1,965,1373,0,0
-252,-349,0,0,0,0,0,0,0,0,0,-1,972,1373,0,0
-245,-349,0,0,0,0,0,0,0,0,0,-1,979,1373,0,0
-238,-349,0,0,0,0,0,0,0,0,0,-1,986,1373,0,0
-231,-349,0,0,0,0,0,0,0,0,0,-1,993,1373,0,0
-224,-349,0,0,0,0,0,0,0,0,0,-1,1000,1373,0,0
-217,-349,0,0,0,0,0,0,0,0,0,-1,1007,1373,0,0
-210,-349,0,0,0,0,0,0,0,0,0,-1,1014,1373,0,0
-203,-349,0,0,0,0,0,0,0,0,0,-1,1021,1373,0,0
-196,-349,0,0,0,0,0,0,0,0,0,-1,1028,1373,0,0
-189,-349,0,0,0,0,0,0,0,0,0,-1,1035,1373,0,0
-182,-349,0,0,0,0,0,0,0,0,0,-1,1042,1373,0,0
-175,-349,0,0,0,0,0,0,0,0,0,-1,1049,1373,0,0
-168,-349,0,0,0,0,0,0,0,0,0,-1,1056,1373,0,0
-161,-349,0,0,0,0,0,0,0,0,0,-1,1063,1373,0,0
-154,-349,0,0,0,0,0,0,0,0,0,-1,1070,1373,0,0
-147,-349,0,0,0,0,0,0,0,0,0,-1,1077,1373,0,0
-140,-349,0,0,0,0,0,0,0,0,0,-1,1084,1373,0,0
-133,-349,0,0,0,0,0,0,0,0,0,-1,1091,1373,0,0
-126,-349,0,0,0,0,0,0,0,0,0,-1,1098,1373,0,0
-119,-349,0,0,0,0,0,0,0,0,0,-1,1105,1373,0,0
-112,-349,0,0,0,0,0,0,0,0,0,-1,1112,1373,0,0
-105,-349,0,0,0,0,0,0,0,0,0,-1,1119,1373,0,0
-98,-349,0,0,0,0,0,0,0,0,0,-1,1126,1373,0,0
-91,-349,0,0,0,0,0,0,0,0,0,-1,1133,1373,0,0
-84,-349,0,0,0,0,0,0,0,0,0,-1,1140,1373,0,0
-77,-349,0,0,0,0,0,0,0,0,0,-1,1147,1373,0,0
-70,-349,0,0,0,0,0,0,0,0,0,-1,1154,1373,0,0
-63,-349,0,0,0,0,0,0,0,0,0,-1,1161,1373,0,0
-56,-349,0,0,0,0,0,0,0,0,0,-1,1168,1373,0,0
-49,-349,0,0,0,0,0,0,0,0,0,-1,1175,1373,0,0
-42,-349,0,0,0,0,0,0,0,0,0,-1,1182,1373,0,0
-35,-349,0,0,0,0,0,0,0,0,0,-1,1189,1373,0,0
-28,-349,0,0,0,0,0,0,0,0,0,-1,1196,1373,0,0
-21,-349,0,0,0,0,0,0,0,0,0,-1,1203,1373,0,0
-14,-349,0,0,0,0,0,0,0,0,0,-1,1210,1373,0,0
-7,-349,0,0,0,0,0,0,0,0,0,-1,1217,1373,0,0
0,-349,0,0,0,0,0,0,0,0,0,-1,1224,1373,0,0
7,-349,0,0,0,0,0,0,0,0,0,-1,1231,1373,0,0
14,-349,0,0,0,0,0,0,0,0,0,-1,1238,1373,0,0
21,-349,0,0,0,0,0,0,0,0,0,-1,1245,1373,0,0
28,-349,0,0,0,0,0,0,0,0,0,-1,1252,1373,0,0
35,-349,0,0,0,0,0,0,0,0,0,-1,1259,1373,0,0
42,-349,0,0,0,0,0,0,0,0,0,-1,1266,1373,0,0
49,-349,0,0,0,0,0,0,0,0,0,-1,1273,1373,0,0
56,-349,0,0,0,0,0,0,0,0,0,-1,1280,1373,0,0
63,-349,0,0,0,0,0,0,0,0,0,-1,1287,1373,0,0
70,-349,0,0,0,0,0,0,0,0,0,-1,1294,1373,0,0
77,-349,0,0,0,0,0,0,0,0,0,-1,1301,1373,0,0
84,-349,0,0,0,0,0,0,0,0,0,-1,1308,1373,0,0
91,-349,0,0,0,0,0,0,0,0,0,-1,1315,1373,0,0
98,-349,0,0,0,0,0,0,0,0,0,-1,1322,1373,0,0
105,-349,0,0,0,0,0,0,0,0,0,-1,1329,1373,0,0
112,-349,0,0,0,0,0,0,0,0,0,-1,1336,1373,0,0
119,-349,0,0,0,0,0,0,0,0,0,-1,1343,1373,0,0
126,-349,0,0,0,0,0,0,0,0,0,-1,1350,1373,0,0
133,-349,0,0,0,0,0,0,0,0,0,-1,1357,1373,0,0
140,-349,0,0,0,0,0,0,0,0,0,-1,1364,1373,0,0
147,-349,0,0,0,0,0,0,0,0,0,-1,1371,1373,0,0
154,-349,0,0,0,0,0,0,0,0,0,-1,1378,1373,0,0
161,-349,0,0,0,0,0,0,0,0,0,-1,1385,1373,0,0
168,-349,0,0,0,0,0,0,0,0,0,-1,1392,1373,0,0
175,-349,0,0,0,0,0,0,0,0,0,-1,1399,1373,0,0
182,-349,0,0,0,0,0,0,0,0,0,-1,1406,1373,0,0
189,-349,0,0,0,0,0,0,0,0,0,-1,1413,1373,0,0
196,-349,0,0,0,0,0,0,0,0,0,-1,1420,1373,0,0
203,-349,0,0,0,0,0,0,0,0,0,-1,1427,1373,0,0
210,-349,0,0,0,0,0,0,0,0,0,-1,1434,1373,0,0
217,-349,0,0,0,0,0,0,0,0,0,-1,1441,1373,0,0
224,-349,0,0,0,0,0,0,0,0,0,-1,1448,1373,0,0
231,-349,0,0,0,0,0,0,0,0,0,-1,1455,1373,0,0
238,-349,0,0,0,0,0,0,0,0,0,-1,1462,1373,0,0
245,-349,0,0,0,0,0,0,0,0,0,-1,1469,1373,0,0
252,-349,0,0,0,0,0,0,0,0,0,-1,1476,1373,0,0
259,-349,0,0,0,0,0,0,0,0,0,-1,1483,1373,0,0
266,-349,0,0,0,0,0,0,0,0,0,-1,1490,1373,0,0
273,-349,0,0,0,0,0,0,0,0,0,-1,1497,1373,0,0
280,-349,0,0,0,0,0,0,0,0,0,-1,1504,1373,0,0
287,-349,0,0,0,0,0,0,0,0,0,-1,1511,1373,0,0
294,-349,0,0,0,0,0,0,0,0,0,-1,1518,1373,0,0
301,-349,0,0,0,0,0,0,0,0,0,-1,1525,1373,0,0
308,-349,0,0,0,0,0,0,0,0,0,-1,1532,1373,0,0
315,-349,0,0,0,0,0,0,0,0,0,-1,1539,1373,0,0
322,-349,0,0,0,0,0,0,0,0,0,-1,1546,1373,0,0
329,-349,0,0,0,0,0,0,0,0,0,-1,1553,1373,0,0
336,-349,0,0,0,0,0,0,0,0,0,-1,1560,1373,0,0
343,-349,0,0,0,0,0,0,0,0,0,-1,1567,1373,0,0
350,-349,0,0,0,0,0,0,0,0,0,-1,1574,1373,0,0
357,-349,0,0,0,0,0,0,0,0,0,-1,1581,1373,0,0
364,-349,0,0,0,0,0,0,0,0,0,-1,1588,1373,0,0
371,-349,0,0,0,0,0,0,0,0,0,-1,1595,1373,0,0
378,-349,0,0,0,0,0,0,0,0,0,-1,1602,1373,0,0
385,-349,0,0,0,0,0,0,0,0,0,-1,1609,1373,0,0
392,-349,0,0,0,0,0,0,0,0,0,-1,1616,1373,0,0
399,-349,0,0,0,0,0,0,0,0,0,-1,1623,1373,0,0
406,-349,0,0,0,0,0,0,0,0,0,-1,1630,1373,0,0
413,-349,0,0,0,0,0,0,0,0,0,-1,1637,1373,0,0
420,-349,0,0,0,0,0,0,0,0,0,-1,1644,1373,0,0
427,-349,0,0,0,0,0,0,0,0,0,-1,1651,1373,0,0
434,-349,0,0,0,0,0,0,0,0,0,-1,1658,1373,0,0
441,-349,0,0,0,0,0,0,0,0,0,-1,1665,1373,0,0
448,-349,0,0,0,0,0,0,0,0,0,-1,1672,1373,0,0
455,-349,0,0,0,0,0,0,0,0,0,-1,1679,1373,0,0
462,-349,0,0,0,0,0,0,0,0,0,-1,1686,1373,0,0
469,-349,0,0,0,0,0,0,0,0,0,-1,1693,1373,0,0
476,-349,0,0,0,0,0,0,0,0,0,-1,1700,1373,0,0
483,-349,0,0,0,0,0,0,0,0,0,-1,1707,1373,0,0
490,-349,0,0,0,0,0,0,0,0,0,-1,1714,1373,0,0
497,-349,0,0,0,0,0,0,0,0,0,-1,1721,1373,0,0
504,-349,0,0,0,0,0,0,0,0,0,-1,1728,1373,0,0
511,-349,0,0,0,0,0,0,0,0,0,-1,1735,1373,0,0
518,-349,0,0,0,0,0,0,0,0,0,-1,1742,1373,0,0
525,-349,0,0,0,0,0,0,0,0,0,-1,1749,1373,0,0
532,-349,0,0,0,0,0,0,0,0,0,-1,1756,1373,0,0
539,-349,0,0,0,0,0,0,0,0,0,-1,1763,1373,0,0
546,-349,0,0,0,0,0,0,0,0,0,-1,1770,1373,0,0
553,-349,0,0,0,0,0,0,0,0,0,-1,1777,1373,0,0
560,-349,45.6893,3.53845,0,0,0,0,0,0,0,-1,1784,1373,45.6893,-3.5385
567,-349,41.9424,6.03833,0,0,0,0,0,0,0,-1,1791,1373,41.9423,-6.03834
574,-349,42.4165,6.17078,0,0,0,0,0,0,0,-1,1798,1373,42.4165,-6.17072
581,-349,42.8947,6.78381,0,0,0,0,0,0,0,-1,1805,1373,42.8946,-6.78376
588,-349,44.8121,5.06213,0,0,0,0,0,0,0,-1,1812,1373,44.8121,-5.06215
595,-349,44.4338,6.14099,0,0,0,0,0,0,0,-1,1819,1373,44.4338,-6.14095
602,-349,35.6641,3.26465,0,0,0,0,0,0,0,-1,1826,1373,35.6641,-3.26468
609,-349,34.7175,4.401,0,0,0,0,0,0,0,-1,1833,1373,34.7175,-4.40096
616,-349,27.1451,6.68274,0,0,0,0,0,0,0,-1,1840,1373,27.1451,-6.6828
623,-349,18.8478,2.75769,0,0,0,0,0,0,0,-1,1847,1373,18.8478,-2.75774
630,-349,15.4948,6.47644,0,0,0,0,0,0,0,-1,1854,1373,15.4947,-6.4765
637,-349,16.5161,6.92639,0,0,0,0,0,0,0,-1,1861,1373,16.5161,-6.92636
644,-349,28.7632,12.9326,0,0,0,0,0,0,0,-1,1868,1373,28.7631,-12.9326
651,-349,28.76,12.4661,0.00137249,0.00390234,0.000660493,0.0040644,0.00121043,1.33019,0.00240969,0.0350126,1875,1373,28.76,-12.4661
658,-349,28.597,12.0159,0.000861409,0.00201347,0.000163885,0.00203633,0.000838549,1.4322,0.00118176,0.0285587,1882,1373,28.597,-12.0159
665,-349,28.6189,11.5201,0.00063283,0.000543398,-0.000121073,0.000717181,0.000459047,-0.608503,0.000419445,0.0214336,1889,1373,28.6189,-11.5201
672,-349,28.6234,11.053,0.000829023,-0.000262835,-0.000176158,0.00085674,-0.000290552,-0.156064,0.000688752,0.0151737,1896,1373,28.6235,-11.053
679,-349,28.6053,10.6287,0.00131693,-0.000604582,0.000155868,0.00132949,-0.000617144,0.0804167,0.0011487,0.0159434,1903,1373,28.6053,-10.6287
686,-349,28.6401,10.187,0.00182953,-0.000873837,0.000424295,0.00189456,-0.000938866,0.152081,0.00166661,0.0165225,1910,1373,28.6401,-10.187
693,-349,28.583,9.70801,0.00234738,-0.0011071,0.000658421,0.00246861,-0.00122834,0.182097,0.00217411,0.017924,1917,1373,28.583,-9.70802
700,-349,28.5454,9.23694,0.0028798,-0.00126207,0.00083644,0.00304233,-0.00142461,0.19193,0.00263476,0.0169686,1924,1373,28.5454,-9.23696
707,-349,28.6198,8.71362,0.00317872,-0.00125353,0.000938265,0.00336916,-0.00144397,0.200249,0.002852,0.0348377,1931,1373,28.6198,-8.71357
714,-349,28.7777,8.13965,0,0,0,0,0,0,0,-1,1938,1373,28.7777,-8.13969
721,-349,19.6688,5.93604,0,0,0,0,0,0,0,-1,1945,1373,19.6688,-5.93606
728,-349,18.6333,3.73218,0,0,0,0,0,0,0,-1,1952,1373,18.6333,-3.73214
735,-349,18.1918,3.39954,0,0,0,0,0,0,0,-1,1959,1373,18.1918,-3.3995
742,-349,20.7345,2.07483,0,0,0,0,0,0,0,-1,1966,1373,20.7345,-2.07485
749,-349,21.9037,1.45789,0,0,0,0,0,0,0,-1,1973,1373,21.9037,-1.45788
756,-349,0,0,0,0,0,0,0,0,0,-1,1980,1373,0,0
763,-349,0,0,0,0,0,0,0,0,0,-1,1987,1373,0,0
770,-349,0,0,0,0,0,0,0,0,0,-1,1994,1373,0,0
777,-349,0,0,0,0,0,0,0,0,0,-1,2001,1373,0,0
784,-349,0,0,0,0,0,0,0,0,0,-1,2008,1373,0,0
791,-349,0,0,0,0,0,0,0,0,0,-1,2015,1373,0,0
798,-349,0,0,0,0,0,0,0,0,0,-1,2022,1373,0,0
805,-349,0,0,0,0,0,0,0,0,0,-1,2029,1373,0,0
812,-349,0,0,0,0,0,0,0,0,0,-1,2036,1373,0,0
-700,-356,0,0,0,0,0,0,0,0,0,-1,524,1380,0,0
-693,-356,0,0,0,0,0,0,0,0,0,-1,531,1380,0,0
-686,-356,0,0,0,0,0,0,0,0,0,-1,538,1380,0,0
-679,-356,0,0,0,0,0,0,0,0,0,-1,545,1380,0,0
-672,-356,0,0,0,0,0,0,0,0,0,-1,552,1380,0,0
-665,-356,0,0,0,0,0,0,0,0,0,-1,559,1380,0,0
-658,-356,0,0,0,0,0,0,0,0,0,-1,566,1380,0,0
-651,-356,0,0,0,0,0,0,0,0,0,-1,573,1380,0,0
-644,-356,0,0,0,0,0,0,0,0,0,-1,580,1380,0,0
-637,-356,0,0,0,0,0,0,0,0,0,-1,587,1380,0,0
-630,-356,-8.23126,-5.01917,0,0,0,0,0,0,0,-1,594,1380,-8.23124,5.0192
-623,-356,-0.263855,-0.675781,0,0,0,0,0,0,0,-1,601,1380,-0.263835,0.675841
-616,-356,-8.26532,-3.43945,0,0,0,0,0,0,0,-1,608,1380,-8.2653,3.43948
-609,-356,-4.88483,0.734497,0,0,0,0,0,0,0,-1,615,1380,-4.88485,-0.734532
-602,-356,-9.06635,2.4021,0,0,0,0,0,0,0,-1,622,1380,-9.06634,-2.40206
-595,-356,-8.45703,3.61853,0,0,0,0,0,0,0,-1,629,1380,-8.45706,-3.61848
-588,-356,-9.31738,4.14258,0,0,0,0,0,0,0,-1,636,1380,-9.31736,-4.14255
-581,-356,-14.3957,6.35889,0,0,0,0,0,0,0,-1,643,1380,-14.3957,-6.35889
-574,-356,-14.2419,6.7052,0,0,0,0,0,0,0,-1,650,1380,-14.242,-6.70524
-567,-356,-14.0883,7.05164,0,0,0,0,0,0,0,-1,657,1380,-14.0882,-7.05159
-560,-356,-14.4685,7.58728,-0.00228165,6.00204e-05,-0.00131869,0.000652646,-0.00287428,-1.14844,0.00216675,0.0179105,664,1380,-14.4685,-7.58729
-553,-356,-14.4883,8.09119,-0.000862798,-2.22808e-05,-0.000687606,0.000363326,-0.0012484,-1.0597,0.000976182,0.0205334,671,1380,-14.4883,-8.09124
-546,-356,-14.5522,8.59131,0.000595445,-7.7526e-05,-5.56577e-05,0.000600017,-8.20981e-05,-0.0819623,0.000429998,0.0230029,678,1380,-14.5522,-8.59133
-539,-356,-14.5726,9.13855,0.00207984,-0.000110155,0.000578069,0.00222306,-0.000253375,0.242866,0.00157332,0.016795,685,1380,-14.5726,-9.13854
-532,-356,-14.569,9.66833,0.00361262,-9.99418e-05,0.0012389,0.00398808,-0.000475399,0.294259,0.00283052,0.0154761,692,1380,-14.569,-9.66834
-525,-356,-14.5688,10.1855,0.00523642,-2.70382e-05,0.00195926,0.00588565,-0.000676268,0.319978,0.00416752,0.012961,699,1380,-14.5688,-10.1856
-518,-356,-14.5629,10.7085,0.00697957,9.7679e-05,0.00273175,0.00793209,-0.000854841,0.335503,0.00559482,0.0124717,706,1380,-14.5629,-10.7085
-511,-356,-14.3133,11.3364,0.0080851,0.000361774,0.00324585,0.00926803,-0.000821164,0.349486,0.0064698,0.0484722,713,1380,-14.3133,-11.3364
-504,-356,-14.0657,12.0914,0,0,0,0,0,0,0,-1,720,1380,-14.0657,-12.0914
-497,-356,-5.68604,4.96387,0,0,0,0,0,0,0,-1,727,1380,-5.68605,-4.96385
-490,-356,-7.95288,5.5625,0,0,0,0,0,0,0,-1,734,1380,-7.95285,-5.56246
-483,-356,-7.2627,4.07446,0,0,0,0,0,0,0,-1,741,1380,-7.2627,-4.07441
-476,-356,-5.1936,4.16016,0,0,0,0,0,0,0,-1,748,1380,-5.1936,-4.16012
-469,-356,-10.0883,0.536011,0,0,0,0,0,0,0,-1,755,1380,-10.0883,-0.535989
-462,-356,-12.3481,-0.215698,0,0,0,0,0,0,0,-1,762,1380,-12.3481,0.215641
-455,-356,-13.1367,-0.264648,0,0,0,0,0,0,0,-1,769,1380,-13.1367,0.264647
-448,-356,-13.9116,-0.310181,0,0,0,0,0,0,0,-1,776,1380,-13.9115,0.310207
-441,-356,-13.1602,3.05603,0,0,0,0,0,0,0,-1,783,1380,-13.1602,-3.05609
-434,-356,0,0,0,0,0,0,0,0,0,-1,790,1380,0,0
-427,-356,0,0,0,0,0,0,0,0,0,-1,797,1380,0,0
-420,-356,0,0,0,0,0,0,0,0,0,-1,804,1380,0,0
-413,-356,0,0,0,0,0,0,0,0,0,-1,811,1380,0,0
-406,-356,0,0,0,0,0,0,0,0,0,-1,818,1380,0,0
-399,-356,0,0,0,0,0,0,0,0,0,-1,825,1380,0,0
-392,-356,0,0,0,0,0,0,0,0,0,-1,832,1380,0,0
-385,-356,0,0,0,0,0,0,0,0,0,-1,839,1380,0,0
-378,-356,0,0,0,0,0,0,0,0,0,-1,846,1380,0,0
-371,-356,0,0,0,0,0,0,0,0,0,-1,853,1380,0,0
-364,-356,0,0,0,0,0,0,0,0,0,-1,860,1380,0,0
-357,-356,0,0,0,0,0,0,0,0,0,-1,867,1380,0,0
-350,-356,0,0,0,0,0,0,0,0,0,-1,874,1380,0,0
-343,-356,0,0,0,0,0,0,0,0,0,-1,881,1380,0,0
-336,-356,0,0,0,0,0,0,0,0,0,-1,888,1380,0,0
-329,-356,0,0,0,0,0,0,0,0,0,-1,895,1380,0,0
-322,-356,0,0,0,0,0,0,0,0,0,-1,902,1380,0,0
-315,-356,0,0,0,0,0,0,0,0,0,-1,909,1380,0,0
-308,-356,0,0,0,0,0,0,0,0,0,-1,916,1380,0,0
-301,-356,0,0,0,0,0,0,0,0,0,-1,923,1380,0,0
-294,-356,0,0,0,0,0,0,0,0,0,-1,930,1380,0,0
-287,-356,0,0,0,0,0,0,0,0,0,-1,937,1380,0,0
-280,-356,0,0,0,0,0,0,0,0,0,-1,944,1380,0,0
-273,-356,0,0,0,0,0,0,0,0,0,-1,951,1380,0,0
-266,-356,0,0,0,0,0,0,0,0,0,-1,958,1380,0,0
-259,-356,0,0,0,0,0,0,0,0,0,-1,965,1380,0,0
-252,-356,0,0,0,0,0,0,0,0,0,-1,972,1380,0,0
-245,-356,0,0,0,0,0,0,0,0,0,-1,979,1380,0,0
-238,-356,0,0,0,0,0,0,0,0,0,-1,986,1380,0,0
-231,-356,0,0,0,0,0,0,0,0,0,-1,993,1380,0,0
-224,-356,0,0,0,0,0,0,0,0,0,-1,1000,1380,0,0
-217,-356,0,0,0,0,0,0,0,0,0,-1,1007,1380,0,0
-210,-356,0,0,0,0,0,0,0,0,0,-1,1014,1380,0,0
-203,-356,0,0,0,0,0,0,0,0,0,-1,1021,1380,0,0
-196,-356,0,0,0,0,0,0,0,0,0,-1,1028,1380,0,0
-189,-356,0,0,0,0,0,0,0,0,0,-1,1035,1380,0,0
-182,-356,0,0,0,0,0,0,0,0,0,-1,1042,1380,0,0
-175,-356,0,0,0,0,0,0,0,0,0,-1,1049,1380,0,0
-168,-356,0,0,0,0,0,0,0,0,0,-1,1056,1380,0,0
-161,-356,0,0,0,0,0,0,0,0,0,-1,1063,1380,0,0
-154,-356,0,0,0,0,0,0,0,0,0,-1,1070,1380,0,0
-147,-356,0,0,0,0,0,0,0,0,0,-1,1077,1380,0,0
-140,-356,0,0,0,0,0,0,0,0,0,-1,1084,1380,0,0
-133,-356,0,0,0,0,0,0,0,0,0,-1,1091,1380,0,0
-126,-356,0,0,0,0,0,0,0,0,0,-1,1098,1380,0,0
-119,-356,0,0,0,0,0,0,0,0,0,-1,1105,1380,0,0
-112,-356,0,0,0,0,0,0,0,0,0,-1,1112,1380,0,0
-105,-356,0,0,0,0,0,0,0,0,0,-1,1119,1380,0,0
-98,-356,0,0,0,0,0,0,0,0,0,-1,1126,1380,0,0
-91,-356,0,0,0,0,0,0,0,0,0,-1,1133,1380,0,0
-84,-356,0,0,0,0,0,0,0,0,0,-1,1140,1380,0,0
-77,-356,0,0,0,0,0,0,0,0,0,-1,1147,1380,0,0
-70,-356,0,0,0,0,0,0,0,0,0,-1,1154,1380,0,0
-63,-356,0,0,0,0,0,0,0,0,0,-1,1161,1380,0,0
-56,-356,0,0,0,0,0,0,0,0,0,-1,1168,1380,0,0
-49,-356,0,0,0,0,0,0,0,0,0,-1,1175,1380,0,0
-42,-356,0,0,0,0,0,0,0,0,0,-1,1182,1380,0,0
-35,-356,0,0,0,0,0,0,0,0,0,-1,1189,1380,0,0
-28,-356,0,0,0,0,0,0,0,0,0,-1,1196,1380,0,0
-21,-356,0,0,0,0,0,0,0,0,0,-1,1203,1380,0,0
-14,-356,0,0,0,0,0,0,0,0,0,-1,1210,1380,0,0
-7,-356,0,0,0,0,0,0,0,0,0,-1,1217,1380,0,0
0,-356,0,0,0,0,0,0,0,0,0,-1,1224,1380,0,0
7,-356,0,0,0,0,0,0,0,0,0,-1,1231,1380,0,0
14,-356,0,0,0,0,0,0,0,0,0,-1,1238,1380,0,0
21,-356,0,0,0,0,0,0,0,0,0,-1,1245,1380,0,0
28,-356,0,0,0,0,0,0,0,0,0,-1,1252,1380,0,0
35,-356,0,0,0,0,0,0,0,0,0,-1,1259,1380,0,0
42,-356,0,0,0,0,0,0,0,0,0,-1,1266,1380,0,0
49,-356,0,0,0,0,0,0,0,0,0,-1,1273,1380,0,0
56,-356,0,0,0,0,0,0,0,0,0,-1,1280,1380,0,0
63,-356,0,0,0,0,0,0,0,0,0,-1,1287,1380,0,0
70,-356,0,0,0,0,0,0,0,0,0,-1,1294,1380,0,0
77,-356,0,0,0,0,0,0,0,0,0,-1,1301,1380,0,0
84,-356,0,0,0,0,0,0,0,0,0,-1,1308,1380,0,0
91,-356,0,0,0,0,0,0,0,0,0,-1,1315,1380,0,0
98,-356,0,0,0,0,0,0,0,0,0,-1,1322,1380,0,0
105,-356,0,0,0,0,0,0,0,0,0,-1,1329,1380,0,0
112,-356,0,0,0,0,0,0,0,0,0,-1,1336,1380,0,0
119,-356,0,0,0,0,0,0,0,0,0,-1,1343,1380,0,0
126,-356,0,0,0,0,0,0,0,0,0,-1,1350,1380,0,0
133,-356,0,0,0,0,0,0,0,0,0,-1,1357,1380,0,0
140,-356,0,0,0,0,0,0,0,0,0,-1,1364,1380,0,0
147,-356,0,0,0,0,0,0,0,0,0,-1,1371,1380,0,0
154,-356,0,0,0,0,0,0,0,0,0,-1,1378,1380,0,0
161,-356,0,0,0,0,0,0,0,0,0,-1,1385,1380,0,0
168,-356,0,0,0,0,0,0,0,0,0,-1,1392,1380,0,0
175,-356,0,0,0,0,0,0,0,0,0,-1,1399,1380,0,0
182,-356,0,0,0,0,0,0,0,0,0,-1,1406,1380,0,0
189,-356,0,0,0,0,0,0,0,0,0,-1,1413,1380,0,0
196,-356,0,0,0,0,0,0,0,0,0,-1,1420,1380,0,0
203,-356,0,0,0,0,0,0,0,0,0,-1,1427,1380,0,0
210,-356,0,0,0,0,0,0,0,0,0,-1,1434,1380,0,0
217,-356,0,0,0,0,0,0,0,0,0,-1,1441,1380,0,0
224,-356,0,0,0,0,0,0,0,0,0,-1,1448,1380,0,0
231,-356,0,0,0,0,0,0,0,0,0,-1,1455,1380,0,0
238,-356,0,0,0,0,0,0,0,0,0,-1,1462,1380,0,0
245,-356,0,0,0,0,0,0,0,0,0,-1,1469,1380,0,0
252,-356,0,0,0,0,0,0,0,0,0,-1,1476,1380,0,0
259,-356,0,0,0,0,0,0,0,0,0,-1,1483,1380,0,0
266,-356,0,0,0,0,0,0,0,0,0,-1,1490,1380,0,0
273,-356,0,0,0,0,0,0,0,0,0,-1,1497,1380,0,0
280,-356,0,0,0,0,0,0,0,0,0,-1,1504,1380,0,0
287,-356,0,0,0,0,0,0,0,0,0,-1,1511,1380,0,0
294,-356,0,0,0,0,0,0,0,0,0,-1,1518,1380,0,0
301,-356,0,0,0,0,0,0,0,0,0,-1,1525,1380,0,0
308,-356,0,0,0,0,0,0,0,0,0,-1,1532,1380,0,0
315,-356,0,0,0,0,0,0,0,0,0,-1,1539,1380,0,0
322,-356,0,0,0,0,0,0,0,0,0,-1,1546,1380,0,0
329,-356,0,0,0,0,0,0,0,0,0,-1,1553,1380,0,0
336,-356,0,0,0,0,0,0,0,0,0,-1,1560,1380,0,0
343,-356,0,0,0,0,0,0,0,0,0,-1,1567,1380,0,0
350,-356,0,0,0,0,0,0,0,0,0,-1,1574,1380,0,0
357,-356,0,0,0,0,0,0,0,0,0,-1,1581,1380,0,0
364,-356,0,0,0,0,0,0,0,0,0,-1,1588,1380,0,0
371,-356,0,0,0,0,0,0,0,0,0,-1,1595,1380,0,0
378,-356,0,0,0,0,0,0,0,0,0,-1,1602,1380,0,0
385,-356,0,0,0,0,0,0,0,0,0,-1,1609,1380,0,0
392,-356,0,0,0,0,0,0,0,0,0,-1,1616,1380,0,0
399,-356,0,0,0,0,0,0,0,0,0,-1,1623,1380,0,0
406,-356,0,0,0,0,0,0,0,0,0,-1,1630,1380,0,0
413,-356,0,0,0,0,0,0,0,0,0,-1,1637,1380,0,0
420,-356,0,0,0,0,0,0,0,0,0,-1,1644,1380,0,0
427,-356,0,0,0,0,0,0,0,0,0,-1,1651,1380,0,0
434,-356,0,0,0,0,0,0,0,0,0,-1,1658,1380,0,0
441,-356,0,0,0,0,0,0,0,0,0,-1,1665,1380,0,0
448,-356,0,0,0,0,0,0,0,0,0,-1,1672,1380,0,0
455,-356,0,0,0,0,0,0,0,0,0,-1,1679,1380,0,0
462,-356,0,0,0,0,0,0,0,0,0,-1,1686,1380,0,0
469,-356,0,0,0,0,0,0,0,0,0,-1,1693,1380,0,0
476,-356,0,0,0,0,0,0,0,0,0,-1,1700,1380,0,0
483,-356,0,0,0,0,0,0,0,0,0,-1,1707,1380,0,0
490,-356,0,0,0,0,0,0,0,0,0,-1,1714,1380,0,0
497,-356,0,0,0,0,0,0,0,0,0,-1,1721,1380,0,0
504,-356,0,0,0,0,0,0,0,0,0,-1,1728,1380,0,0
511,-356,0,0,0,0,0,0,0,0,0,-1,1735,1380,0,0
518,-356,0,0,0,0,0,0,0,0,0,-1,1742,1380,0,0
525,-356,0,0,0,0,0,0,0,0,0,-1,1749,1380,0,0
532,-356,0,0,0,0,0,0,0,0,0,-1,1756,1380,0,0
539,-356,0,0,0,0,0,0,0,0,0,-1,1763,1380,0,0
546,-356,0,0,0,0,0,0,0,0,0,-1,1770,1380,0,0
553,-356,0,0,0,0,0,0,0,0,0,-1,1777,1380,0,0
560,-356,45.7938,3.65295,0,0,0,0,0,0,0,-1,1784,1380,45.7938,-3.65294
567,-356,45.6788,3.51428,0,0,0,0,0,0,0,-1,1791,1380,45.6788,-3.51422
574,-356,45.5742,3.39575,0,0,0,0,0,0,0,-1,1798,1380,45.5742,-3.39574
581,-356,45.6708,3.64172,0,0,0,0,0,0,0,-1,1805,1380,45.6707,-3.64175
588,-356,44.4739,4.87085,0,0,0,0,0,0,0,-1,1812,1380,44.4739,-4.87086
595,-356,32.0834,5.86084,0,0,0,0,0,0,0,-1,1819,1380,32.0834,-5.86079
602,-356,30.1604,6.07104,0,0,0,0,0,0,0,-1,1826,1380,30.1604,-6.07104
609,-356,28.3435,6.48901,0,0,0,0,0,0,0,-1,1833,1380,28.3435,-6.48899
616,-356,26.9358,6.80872,0,0,0,0,0,0,0,-1,1840,1380,26.9358,-6.80877
623,-356,16.1803,1.07532,0,0,0,0,0,0,0,-1,1847,1380,16.1803,-1.07529
630,-356,16.4138,6.91553,0,0,0,0,0,0,0,-1,1854,1380,16.4138,-6.9155
637,-356,24.8021,12.0151,0,0,0,0,0,0,0,-1,1861,1380,24.8022,-12.0151
644,-356,28.2729,13.0214,0,0,0,0,0,0,0,-1,1868,1380,28.273,-13.0213
651,-356,28.2334,12.4845,-0.000225692,0.00214494,-0.000645593,0.00230935,-0.000390103,-1.32143,0.00168473,0.0178444,1875,1380,28.2334,-12.4845
658,-356,28.1757,11.9946,6.87607e-05,0.00101617,-0.000447039,0.00119381,-0.000108871,-1.19258,0.000834532,0.01492,1882,1380,28.1756,-11.9946
665,-356,28.161,11.5536,0.000466236,0.000123854,-0.000225043,0.000577801,1.22893e-05,-0.46024,0.00038117,0.0145725,1889,1380,28.161,-11.5536
672,-356,28.1377,11.1112,0.000921318,-0.000495,9.00018e-05,0.000927014,-0.000500696,0.0632075,0.000836449,0.0150893,1896,1380,28.1377,-11.1112
679,-356,28.1285,10.6316,0.00145244,-0.000925265,0.000496111,0.00155181,-0.00102463,0.197666,0.00149785,0.0179885,1903,1380,28.1286,-10.6316
686,-356,28.1313,10.167,0.00202951,-0.00130266,0.000850889,0.00223421,-0.00150736,0.23609,0.00217374,0.0184888,1910,1380,28.1314,-10.167
693,-356,28.1145,9.72754,0.00264228,-0.0016466,0.00117328,0.00294227,-0.00194659,0.250317,0.00284203,0.0154481,1917,1380,28.1145,-9.7275
700,-356,28.1235,9.24805,0.00329959,-0.00190291,0.00143906,0.00367111,-0.00227443,0.252655,0.00346409,0.0214633,1924,1380,28.1235,-9.24808
707,-356,28.2385,8.54114,0,0,0,0,0,0,0,-1,1931,1380,28.2385,-8.54116
714,-356,19.6907,5.82129,0,0,0,0,0,0,0,-1,1938,1380,19.6907,-5.82132
721,-356,17.2948,4.1958,0,0,0,0,0,0,0,-1,1945,1380,17.2948,-4.19584
728,-356,19.1846,2.31519,0,0,0,0,0,0,0,-1,1952,1380,19.1846,-2.31514
735,-356,20.0731,2.50842,0,0,0,0,0,0,0,-1,1959,1380,20.0731,-2.50844
742,-356,21.0111,2.43762,0,0,0,0,0,0,0,-1,1966,1380,21.0112,-2.43762
749,-356,22.1411,1.83276,0,0,0,0,0,0,0,-1,1973,1380,22.1411,-1.83275
756,-356,0,0,0,0,0,0,0,0,0,-1,1980,1380,0,0
763,-356,0,0,0,0,0,0,0,0,0,-1,1987,1380,0,0
770,-356,0,0,0,0,0,0,0,0,0,-1,1994,1380,0,0
777,-356,0,0,0,0,0,0,0,0,0,-1,2001,1380,0,0
784,-356,0,0,0,0,0,0,0,0,0,-1,2008,1380,0,0
791,-356,0,0,0,0,0,0,0,0,0,-1,2015,1380,0,0
798,-356,0,0,0,0,0,0,0,0,0,-1,2022,1380,0,0
805,-356,0,0,0,0,0,0,0,0,0,-1,2029,1380,0,0
812,-356,0,0,0,0,0,0,0,0,0,-1,2036,1380,0,0
-700,-363,0,0,0,0,0,0,0,0,0,-1,524,1387,0,0
-693,-363,0,0,0,0,0,0,0,0,0,-1,531,1387,0,0
-686,-363,0,0,0,0,0,0,0,0,0,-1,538,1387,0,0
-679,-363,0,0,0,0,0,0,0,0,0,-1,545,1387,0,0
-672,-363,0,0,0,0,0,0,0,0,0,-1,552,1387,0,0
-665,-363,0,0,0,0,0,0,0,0,0,-1,559,1387,0,0
-658,-363,0,0,0,0,0,0,0,0,0,-1,566,1387,0,0
-651,-363,0,0,0,0,0,0,0,0,0,-1,573,1387,0,0
-644,-363,0,0,0,0,0,0,0,0,0,-1,580,1387,0,0
-637,-363,0,0,0,0,0,0,0,0,0,-1,587,1387,0,0
-630,-363,0,0,0,0,0,0,0,0,0,-1,594,1387,0,0
-623,-363,-9.67566,-5.91846,0,0,0,0,0,0,0,-1,601,1387,-9.67563,5.91847
-616,-363,-9.02985,-2.98083,0,0,0,0,0,0,0,-1,608,1387,-9.02987,2.98079
-609,-363,-4.90265,0.195679,0,0,0,0,0,0,0,-1,615,1387,-4.90263,-0.195721
-602,-363,-9.65009,3.5321,0,0,0,0,0,0,0,-1,622,1387,-9.65007,-3.53211
-595,-363,-8.00256,3.48853,0,0,0,0,0,0,0,-1,629,1387,-8.00256,-3.48855
-588,-363,-10.8846,4.49768,0,0,0,0,0,0,0,-1,636,1387,-10.8846,-4.49773
-581,-363,-11.7469,5.15161,0,0,0,0,0,0,0,-1,643,1387,-11.747,-5.15167
-574,-363,-13.7692,6.81421,0,0,0,0,0,0,0,-1,650,1387,-13.7692,-6.81417
-567,-363,-14.0038,7.11218,-0.00545267,0.000103373,-0.0025084,0.00106827,-0.00641757,-1.20358,0.00467533,0.038217,657,1387,-14.0038,-7.11224
-560,-363,-14.0024,7.58923,-0.00377488,-8.10821e-05,-0.00186106,0.000693963,-0.00454993,-1.17619,0.0032891,0.0142263,664,1387,-14.0024,-7.58917
-553,-363,-13.9991,8.13013,-0.0019562,-9.87464e-05,-0.00108004,0.000396963,-0.00245191,-1.14051,0.00178173,0.0140551,671,1387,-13.9991,-8.1301
-546,-363,-14.0114,8.62732,-0.000264226,-0.000103817,-0.000363393,0.000188117,-0.00055616,-0.894012,0.000446878,0.0139977,678,1387,-14.0114,-8.62734
-539,-363,-13.9944,9.12683,0.00132652,-8.43125e-05,0.000311389,0.00139219,-0.000149984,0.207851,0.000981945,0.0159059,685,1387,-13.9945,-9.12684
-532,-363,-14.0246,9.66284,0.00284251,-1.85539e-05,0.000977118,0.00314437,-0.000320413,0.299628,0.00221081,0.0136842,692,1387,-14.0246,-9.66289
-525,-363,-14.0364,10.1989,0.00436823,0.00014745,0.00170298,0.00496964,-0.000453968,0.339483,0.00347432,0.011877,699,1387,-14.0365,-10.1989
-518,-363,-14.0448,10.7157,0.0059073,0.000366119,0.00246023,0.00684197,-0.000568544,0.363067,0.00476215,0.0102461,706,1387,-14.0448,-10.7158
-511,-363,-13.983,11.2783,0.00690321,0.000751071,0.00304131,0.00815285,-0.000498568,0.389858,0.00560881,0.0245299,713,1387,-13.9831,-11.2784
-504,-363,-13.8854,11.8804,0,0,0,0,0,0,0,-1,720,1387,-13.8854,-11.8804
-497,-363,-7.18842,7.29944,0,0,0,0,0,0,0,-1,727,1387,-7.18839,-7.29945
-490,-363,-5.42413,4.6958,0,0,0,0,0,0,0,-1,734,1387,-5.42412,-4.69583
-483,-363,-6.28375,4.1394,0,0,0,0,0,0,0,-1,741,1387,-6.28374,-4.13944
-476,-363,-5.83807,4.31018,0,0,0,0,0,0,0,-1,748,1387,-5.8381,-4.31013
-469,-363,-10.7125,0.697754,0,0,0,0,0,0,0,-1,755,1387,-10.7125,-0.697811
-462,-363,-9.55951,-0.0830078,0,0,0,0,0,0,0,-1,762,1387,-9.55949,0.0830163
-455,-363,-13.1008,-0.290894,0,0,0,0,0,0,0,-1,769,1387,-13.1008,0.290921
-448,-363,-11.7324,2.46606,0,0,0,0,0,0,0,-1,776,1387,-11.7324,-2.46605
-441,-363,-12.4464,2.5354,0,0,0,0,0,0,0,-1,783,1387,-12.4463,-2.53537
-434,-363,-13.6918,2.14661,0,0,0,0,0,0,0,-1,790,1387,-13.6918,-2.14662
-427,-363,0,0,0,0,0,0,0,0,0,-1,797,1387,0,0
-420,-363,0,0,0,0,0,0,0,0,0,-1,804,1387,0,0
-413,-363,0,0,0,0,0,0,0,0,0,-1,811,1387,0,0
-406,-363,0,0,0,0,0,0,0,0,0,-1,818,1387,0,0
-399,-363,0,0,0,0,0,0,0,0,0,-1,825,1387,0,0
-392,-363,0,0,0,0,0,0,0,0,0,-1,832,1387,0,0
-385,-363,0,0,0,0,0,0,0,0,0,-1,839,1387,0,0
-378,-363,0,0,0,0,0,0,0,0,0,-1,846,1387,0,0
-371,-363,0,0,0,0,0,0,0,0,0,-1,853,1387,0,0
-364,-363,0,0,0,0,0,0,0,0,0,-1,860,1387,0,0
-357,-363,0,0,0,0,0,0,0,0,0,-1,867,1387,0,0
-350,-363,0,0,0,0,0,0,0,0,0,-1,874,1387,0,0
-343,-363,0,0,0,0,0,0,0,0,0,-1,881,1387,0,0
-336,-363,0,0,0,0,0,0,0,0,0,-1,888,1387,0,0
-329,-363,0,0,0,0,0,0,0,0,0,-1,895,1387,0,0
-322,-363,0,0,0,0,0,0,0,0,0,-1,902,1387,0,0
-315,-363,0,0,0,0,0,0,0,0,0,-1,909,1387,0,0
-308,-363,0,0,0,0,0,0,0,0,0,-1,916,1387,0,0
-301,-363,0,0,0,0,0,0,0,0,0,-1,923,1387,0,0
-294,-363,0,0,0,0,0,0,0,0,0,-1,930,1387,0,0
-287,-363,0,0,0,0,0,0,0,0,0,-1,937,1387,0,0
-280,-363,0,0,0,0,0,0,0,0,0,-1,944,1387,0,0
-273,-363,0,0,0,0,0,0,0,0,0,-1,951,1387,0,0
-266,-363,0,0,0,0,0,0,0,0,0,-1,958,1387,0,0
-259,-363,0,0,0,0,0,0,0,0,0,-1,965,1387,0,0
-252,-363,0,0,0,0,0,0,0,0,0,-1,972,1387,0,0
-245,-363,0,0,0,0,0,0,0,0,0,-1,979,1387,0,0
-238,-363,0,0,0,0,0,0,0,0,0,-1,986,1387,0,0
-231,-363,0,0,0,0,0,0,0,0,0,-1,993,1387,0,0
-224,-363,0,0,0,0,0,0,0,0,0,-1,1000,1387,0,0
-217,-363,0,0,0,0,0,0,0,0,0,-1,1007,1387,0,0
-210,-363,0,0,0,0,0,0,0,0,0,-1,1014,1387,0,0
-203,-363,0,0,0,0,0,0,0,0,0,-1,1021,1387,0,0
-196,-363,0,0,0,0,0,0,0,0,0,-1,1028,1387,0,0
-189,-363,0,0,0,0,0,0,0,0,0,-1,1035,1387,0,0
-182,-363,0,0,0,0,0,0,0,0,0,-1,1042,1387,0,0
-175,-363,0,0,0,0,0,0,0,0,0,-1,1049,1387,0,0
-168,-363,0,0,0,0,0,0,0,0,0,-1,1056,1387,0,0
-161,-363,0,0,0,0,0,0,0,0,0,-1,1063,1387,0,0
-154,-363,0,0,0,0,0,0,0,0,0,-1,1070,1387,0,0
-147,-363,0,0,0,0,0,0,0,0,0,-1,1077,1387,0,0
-140,-363,0,0,0,0,0,0,0,0,0,-1,1084,1387,0,0
-133,-363,0,0,0,0,0,0,0,0,0,-1,1091,1387,0,0
-126,-363,0,0,0,0,0,0,0,0,0,-1,1098,1387,0,0
-119,-363,0,0,0,0,0,0,0,0,0,-1,1105,1387,0,0
-112,-363,0,0,0,0,0,0,0,0,0,-1,1112,1387,0,0
-105,-363,0,0,0,0,0,0,0,0,0,-1,1119,1387,0,0
-98,-363,0,0,0,0,0,0,0,0,0,-1,1126,1387,0,0
-91,-363,0,0,0,0,0,0,0,0,0,-1,1133,1387,0,0
-84,-363,0,0,0,0,0,0,0,0,0,-1,1140,1387,0,0
-77,-363,0,0,0,0,0,0,0,0,0,-1,1147,1387,0,0
-70,-363,0,0,0,0,0,0,0,0,0,-1,1154,1387,0,0
-63,-363,0,0,0,0,0,0,0,0,0,-1,1161,1387,0,0
-56,-363,0,0,0,0,0,0,0,0,0,-1,1168,1387,0,0
-49,-363,0,0,0,0,0,0,0,0,0,-1,1175,1387,0,0
-42,-363,0,0,0,0,0,0,0,0,0,-1,1182,1387,0,0
-35,-363,0,0,0,0,0,0,0,0,0,-1,1189,1387,0,0
-28,-363,0,0,0,0,0,0,0,0,0,-1,1196,1387,0,0
-21,-363,0,0,0,0,0,0,0,0,0,-1,1203,1387,0,0
-14,-363,0,0,0,0,0,0,0,0,0,-1,1210,1387,0,0
-7,-363,0,0,0,0,0,0,0,0,0,-1,1217,1387,0,0
0,-363,0,0,0,0,0,0,0,0,0,-1,1224,1387,0,0
7,-363,0,0,0,0,0,0,0,0,0,-1,1231,1387,0,0
14,-363,0,0,0,0,0,0,0,0,0,-1,1238,1387,0,0
21,-363,0,0,0,0,0,0,0,0,0,-1,1245,1387,0,0
28,-363,0,0,0,0,0,0,0,0,0,-1,1252,1387,0,0
35,-363,0,0,0,0,0,0,0,0,0,-1,1259,1387,0,0
42,-363,0,0,0,0,0,0,0,0,0,-1,1266,1387,0,0
49,-363,0,0,0,0,0,0,0,0,0,-1,1273,1387,0,0
56,-363,0,0,0,0,0,0,0,0,0,-1,1280,1387,0,0
63,-363,0,0,0,0,0,0,0,0,0,-1,1287,1387,0,0
70,-363,0,0,0,0,0,0,0,0,0,-1,1294,1387,0,0
77,-363,0,0,0,0,0,0,0,0,0,-1,1301,1387,0,0
84,-363,0,0,0,0,0,0,0,0,0,-1,1308,1387,0,0
91,-363,0,0,0,0,0,0,0,0,0,-1,1315,1387,0,0
98,-363,0,0,0,0,0,0,0,0,0,-1,1322,1387,0,0
105,-363,0,0,0,0,0,0,0,0,0,-1,1329,1387,0,0
112,-363,0,0,0,0,0,0,0,0,0,-1,1336,1387,0,0
119,-363,0,0,0,0,0,0,0,0,0,-1,1343,1387,0,0
126,-363,0,0,0,0,0,0,0,0,0,-1,1350,1387,0,0
133,-363,0,0,0,0,0,0,0,0,0,-1,1357,1387,0,0
140,-363,0,0,0,0,0,0,0,0,0,-1,1364,1387,0,0
147,-363,0,0,0,0,0,0,0,0,0,-1,1371,1387,0,0
154,-363,0,0,0,0,0,0,0,0,0,-1,1378,1387,0,0
161,-363,0,0,0,0,0,0,0,0,0,-1,1385,1387,0,0
168,-363,0,0,0,0,0,0,0,0,0,-1,1392,1387,0,0
175,-363,0,0,0,0,0,0,0,0,0,-1,1399,1387,0,0
182,-363,0,0,0,0,0,0,0,0,0,-1,1406,1387,0,0
189,-363,0,0,0,0,0,0,0,0,0,-1,1413,1387,0,0
196,-363,0,0,0,0,0,0,0,0,0,-1,1420,1387,0,0
203,-363,0,0,0,0,0,0,0,0,0,-1,1427,1387,0,0
210,-363,0,0,0,0,0,0,0,0,0,-1,1434,1387,0,0
217,-363,0,0,0,0,0,0,0,0,0,-1,1441,1387,0,0
224,-363,0,0,0,0,0,0,0,0,0,-1,1448,1387,0,0
231,-363,0,0,0,0,0,0,0,0,0,-1,1455,1387,0,0
238,-363,0,0,0,0,0,0,0,0,0,-1,1462,1387,0,0
245,-363,0,0,0,0,0,0,0,0,0,-1,1469,1387,0,0
252,-363,0,0,0,0,0,0,0,0,0,-1,1476,1387,0,0
259,-363,0,0,0,0,0,0,0,0,0,-1,1483,1387,0,0
266,-363,0,0,0,0,0,0,0,0,0,-1,1490,1387,0,0
273,-363,0,0,0,0,0,0,0,0,0,-1,1497,1387,0,0
280,-363,0,0,0,0,0,0,0,0,0,-1,1504,1387,0,0
287,-363,0,0,0,0,0,0,0,0,0,-1,1511,1387,0,0
294,-363,0,0,0,0,0,0,0,0,0,-1,1518,1387,0,0
301,-363,0,0,0,0,0,0,0,0,0,-1,1525,1387,0,0
308,-363,0,0,0,0,0,0,0,0,0,-1,1532,1387,0,0
315,-363,0,0,0,0,0,0,0,0,0,-1,1539,1387,0,0
322,-363,0,0,0,0,0,0,0,0,0,-1,1546,1387,0,0
329,-363,0,0,0,0,0,0,0,0,0,-1,1553,1387,0,0
336,-363,0,0,0,0,0,0,0,0,0,-1,1560,1387,0,0
343,-363,0,0,0,0,0,0,0,0,0,-1,1567,1387,0,0
350,-363,0,0,0,0,0,0,0,0,0,-1,1574,1387,0,0
357,-363,0,0,0,0,0,0,0,0,0,-1,1581,1387,0,0
364,-363,0,0,0,0,0,0,0,0,0,-1,1588,1387,0,0
371,-363,0,0,0,0,0,0,0,0,0,-1,1595,1387,0,0
378,-363,0,0,0,0,0,0,0,0,0,-1,1602,1387,0,0
385,-363,0,0,0,0,0,0,0,0,0,-1,1609,1387,0,0
392,-363,0,0,0,0,0,0,0,0,0,-1,1616,1387,0,0
399,-363,0,0,0,0,0,0,0,0,0,-1,1623,1387,0,0
406,-363,0,0,0,0,0,0,0,0,0,-1,1630,1387,0,0
413,-363,0,0,0,0,0,0,0,0,0,-1,1637,1387,0,0
420,-363,0,0,0,0,0,0,0,0,0,-1,1644,1387,0,0
427,-363,0,0,0,0,0,0,0,0,0,-1,1651,1387,0,0
434,-363,0,0,0,0,0,0,0,0,0,-1,1658,1387,0,0
441,-363,0,0,0,0,0,0,0,0,0,-1,1665,1387,0,0
448,-363,0,0,0,0,0,0,0,0,0,-1,1672,1387,0,0
455,-363,0,0,0,0,0,0,0,0,0,-1,1679,1387,0,0
462,-363,0,0,0,0,0,0,0,0,0,-1,1686,1387,0,0
469,-363,0,0,0,0,0,0,0,0,0,-1,1693,1387,0,0
476,-363,0,0,0,0,0,0,0,0,0,-1,1700,1387,0,0
483,-363,0,0,0,0,0,0,0,0,0,-1,1707,1387,0,0
490,-363,0,0,0,0,0,0,0,0,0,-1,1714,1387,0,0
497,-363,0,0,0,0,0,0,0,0,0,-1,1721,1387,0,0
504,-363,0,0,0,0,0,0,0,0,0,-1,1728,1387,0,0
511,-363,0,0,0,0,0,0,0,0,0,-1,1735,1387,0,0
518,-363,0,0,0,0,0,0,0,0,0,-1,1742,1387,0,0
525,-363,0,0,0,0,0,0,0,0,0,-1,1749,1387,0,0
532,-363,0,0,0,0,0,0,0,0,0,-1,1756,1387,0,0
539,-363,0,0,0,0,0,0,0,0,0,-1,1763,1387,0,0
546,-363,0,0,0,0,0,0,0,0,0,-1,1770,1387,0,0
553,-363,45.9076,3.64331,0,0,0,0,0,0,0,-1,1777,1387,45.9076,-3.64336
560,-363,45.9459,3.6875,0,0,0,0,0,0,0,-1,1784,1387,45.9459,-3.68756
567,-363,45.9266,3.32825,0,0,0,0,0,0,0,-1,1791,1387,45.9266,-3.32824
574,-363,45.7261,2.8075,0,0,0,0,0,0,0,-1,1798,1387,45.7261,-2.80754
581,-363,39.2413,1.97632,0,0,0,0,0,0,0,-1,1805,1387,39.2413,-1.97636
588,-363,32.5608,6.72131,0,0,0,0,0,0,0,-1,1812,1387,32.5608,-6.72131
595,-363,31.4688,6.95435,0,0,0,0,0,0,0,-1,1819,1387,31.4688,-6.95431
602,-363,25.7437,5.33667,0,0,0,0,0,0,0,-1,1826,1387,25.7437,-5.33667
609,-363,27.7048,7.06885,0,0,0,0,0,0,0,-1,1833,1387,27.7048,-7.06882
616,-363,16.229,1.08704,0,0,0,0,0,0,0,-1,1840,1387,16.229,-1.08706
623,-363,15.7283,7.16663,0,0,0,0,0,0,0,-1,1847,1387,15.7282,-7.16665
630,-363,18.3192,9.27844,0,0,0,0,0,0,0,-1,1854,1387,18.3192,-9.27843
637,-363,27.6755,13.6499,0,0,0,0,0,0,0,-1,1861,1387,27.6755,-13.6499
644,-363,27.7223,13.0476,-0.000225581,0.00163105,-0.00203513,0.00293959,-0.00153412,-0.999375,0.00262504,0.015706,1868,1387,27.7222,-13.0476
651,-363,27.7242,12.4973,-0.000178505,0.00101821,-0.00135172,0.00189809,-0.00105838,-0.993766,0.00172971,0.0113057,1875,1387,27.7243,-12.4973
658,-363,27.7035,12.0018,0.000196953,0.000380248,-0.000723927,0.00101831,-0.000441104,-0.848362,0.000864278,0.0116494,1882,1387,27.7035,-12.0018
665,-363,27.6777,11.5864,0.000637089,-0.000198033,-0.000176715,0.000672943,-0.000233887,-0.200175,0.000543629,0.0117335,1889,1387,27.6778,-11.5864
672,-363,27.6652,11.1403,0.00111626,-0.000755237,0.000353629,0.00118085,-0.000819828,0.18066,0.00116134,0.0133849,1896,1387,27.6651,-11.1402
679,-363,27.6333,10.6445,0.00167491,-0.00126322,0.000829974,0.00189316,-0.00148146,0.257131,0.00195316,0.0147627,1903,1387,27.6333,-10.6445
686,-363,27.6456,10.1826,0.00229048,-0.00176076,0.00128118,0.00266164,-0.00213192,0.281982,0.00277319,0.0147016,1910,1387,27.6456,-10.1826
693,-363,27.6549,9.71228,0.00297908,-0.00222883,0.00169587,0.00348262,-0.00273237,0.288633,0.00359693,0.0133674,1917,1387,27.6549,-9.71229
700,-363,27.7874,9.22461,0.00375361,-0.00260539,0.00204728,0.00435572,-0.0032075,0.286038,0.00438337,0.0242004,1924,1387,27.7873,-9.22467
707,-363,28.0413,8.776,0,0,0,0,0,0,0,-1,1931,1387,28.0413,-8.776
714,-363,16.5782,5.3147,0,0,0,0,0,0,0,-1,1938,1387,16.5783,-5.31472
721,-363,14.4045,4.51685,0,0,0,0,0,0,0,-1,1945,1387,14.4045,-4.51685
728,-363,19.9756,0.853027,0,0,0,0,0,0,0,-1,1952,1387,19.9756,-0.853059
735,-363,21.4297,1.2981,0,0,0,0,0,0,0,-1,1959,1387,21.4297,-1.29811
742,-363,21.3621,2.79663,0,0,0,0,0,0,0,-1,1966,1387,21.362,-2.7966
749,-363,0,0,0,0,0,0,0,0,0,-1,1973,1387,0,0
756,-363,0,0,0,0,0,0,0,0,0,-1,1980,1387,0,0
763,-363,0,0,0,0,0,0,0,0,0,-1,1987,1387,0,0
770,-363,0,0,0,0,0,0,0,0,0,-1,1994,1387,0,0
777,-363,0,0,0,0,0,0,0,0,0,-1,2001,1387,0,0
784,-363,0,0,0,0,0,0,0,0,0,-1,2008,1387,0,0
791,-363,0,0,0,0,0,0,0,0,0,-1,2015,1387,0,0
798,-363,0,0,0,0,0,0,0,0,0,-1,2022,1387,0,0
805,-363,0,0,0,0,0,0,0,0,0,-1,2029,1387,0,0
812,-363,0,0,0,0,0,0,0,0,0,-1,2036,1387,0,0
-700,-370,0,0,0,0,0,0,0,0,0,-1,524,1394,0,0
-693,-370,0,0,0,0,0,0,0,0,0,-1,531,1394,0,0
-686,-370,0,0,0,0,0,0,0,0,0,-1,538,1394,0,0
-679,-370,0,0,0,0,0,0,0,0,0,-1,545,1394,0,0
-672,-370,0,0,0,0,0,0,0,0,0,-1,552,1394,0,0
-665,-370,0,0,0,0,0,0,0,0,0,-1,559,1394,0,0
-658,-370,0,0,0,0,0,0,0,0,0,-1,566,1394,0,0
-651,-370,0,0,0,0,0,0,0,0,0,-1,573,1394,0,0
-644,-370,0,0,0,0,0,0,0,0,0,-1,580,1394,0,0
-637,-370,0,0,0,0,0,0,0,0,0,-1,587,1394,0,0
-630,-370,0,0,0,0,0,0,0,0,0,-1,594,1394,0,0
-623,-370,-10.1758,-7.10486,0,0,0,0,0,0,0,-1,601,1394,-10.1758,7.10483
-616,-370,-8.85925,-1.61475,0,0,0,0,0,0,0,-1,608,1394,-8.85925,1.61476
-609,-370,-5.39325,0.0421143,0,0,0,0,0,0,0,-1,615,1394,-5.39328,-0.0421372
-602,-370,-12.3151,3.44592,0,0,0,0,0,0,0,-1,622,1394,-12.3151,-3.44595
-595,-370,-7.53284,5.44214,0,0,0,0,0,0,0,-1,629,1394,-7.53284,-5.44216
-588,-370,-11.2422,4.50598,0,0,0,0,0,0,0,-1,636,1394,-11.2422,-4.50596
-581,-370,-13.1575,5.84888,0,0,0,0,0,0,0,-1,643,1394,-13.1575,-5.84887
-574,-370,-13.0107,6.69861,0,0,0,0,0,0,0,-1,650,1394,-13.0108,-6.69866
-567,-370,-13.265,7.2052,-0.00780269,-0.000153346,-0.0033004,0.00107379,-0.00902983,-1.21482,0.00640787,0.0494416,657,1394,-13.265,-7.20519
-560,-370,-13.5311,7.56628,-0.00552832,-0.000299472,-0.00248045,0.000689973,-0.00651776,-1.19124,0.00459247,0.0243178,664,1394,-13.5311,-7.56623
-553,-370,-13.4931,8.13745,-0.00328236,-0.000248585,-0.00155317,0.000405539,-0.00393648,-1.17219,0.00276942,0.0114349,671,1394,-13.4931,-8.13743
-546,-370,-13.473,8.64563,-0.0013323,-0.000204247,-0.000754767,0.000173959,-0.0017105,-1.10628,0.00120252,0.0152442,678,1394,-13.4729,-8.6456
-539,-370,-13.4481,9.18823,0.000385378,-0.000131574,-4.04549e-05,0.000388525,-0.000134721,-0.0776267,0.000313719,0.0196011,685,1394,-13.4481,-9.18828
-532,-370,-13.5045,9.72021,0.00193925,-9.1861e-06,0.000639717,0.00213051,-0.000200446,0.290517,0.00149165,0.0217524,692,1394,-13.5045,-9.72026
-525,-370,-13.5078,10.2097,0.00342717,0.000231088,0.00137171,0.00393515,-0.000276892,0.354666,0.00272043,0.0175798,699,1394,-13.5078,-10.2097
-518,-370,-13.5294,10.7003,0.00487023,0.000591681,0.00215918,0.00577046,-0.000308543,0.395014,0.00395383,0.0125985,706,1394,-13.5294,-10.7004
-511,-370,-13.5308,11.2303,0.00591282,0.00111644,0.0028506,0.00723984,-0.000210586,0.43569,0.00489827,0.0145835,713,1394,-13.5308,-11.2303
-504,-370,-13.5209,11.7916,0,0,0,0,0,0,0,-1,720,1394,-13.5209,-11.7917
-497,-370,-12.3546,11.7982,0,0,0,0,0,0,0,-1,727,1394,-12.3546,-11.7983
-490,-370,-5.30695,4.5271,0,0,0,0,0,0,0,-1,734,1394,-5.30698,-4.52704
-483,-370,-6.02997,4.59253,0,0,0,0,0,0,0,-1,741,1394,-6.02994,-4.5925
-476,-370,-6.75293,4.65796,0,0,0,0,0,0,0,-1,748,1394,-6.7529,-4.65795
-469,-370,-10.584,1.14294,0,0,0,0,0,0,0,-1,755,1394,-10.584,-1.14293
-462,-370,-9.54462,0.387207,0,0,0,0,0,0,0,-1,762,1394,-9.5446,-0.387176
-455,-370,-8.50525,-0.36853,0,0,0,0,0,0,0,-1,769,1394,-8.50523,0.368582
-448,-370,-10.9543,2.28833,0,0,0,0,0,0,0,-1,776,1394,-10.9543,-2.28835
-441,-370,-11.8699,1.8313,0,0,0,0,0,0,0,-1,783,1394,-11.8699,-1.83127
-434,-370,-12.7855,1.37415,0,0,0,0,0,0,0,-1,790,1394,-12.7855,-1.37419
-427,-370,0,0,0,0,0,0,0,0,0,-1,797,1394,0,0
-420,-370,0,0,0,0,0,0,0,0,0,-1,804,1394,0,0
-413,-370,0,0,0,0,0,0,0,0,0,-1,811,1394,0,0
-406,-370,0,0,0,0,0,0,0,0,0,-1,818,1394,0,0
-399,-370,0,0,0,0,0,0,0,0,0,-1,825,1394,0,0
-392,-370,0,0,0,0,0,0,0,0,0,-1,832,1394,0,0
-385,-370,0,0,0,0,0,0,0,0,0,-1,839,1394,0,0
-378,-370,0,0,0,0,0,0,0,0,0,-1,846,1394,0,0
-371,-370,0,0,0,0,0,0,0,0,0,-1,853,1394,0,0
-364,-370,0,0,0,0,0,0,0,0,0,-1,860,1394,0,0
-357,-370,0,0,0,0,0,0,0,0,0,-1,867,1394,0,0
-350,-370,0,0,0,0,0,0,0,0,0,-1,874,1394,0,0
-343,-370,0,0,0,0,0,0,0,0,0,-1,881,1394,0,0
-336,-370,0,0,0,0,0,0,0,0,0,-1,888,1394,0,0
-329,-370,0,0,0,0,0,0,0,0,0,-1,895,1394,0,0
-322,-370,0,0,0,0,0,0,0,0,0,-1,902,1394,0,0
-315,-370,0,0,0,0,0,0,0,0,0,-1,909,1394,0,0
-308,-370,0,0,0,0,0,0,0,0,0,-1,916,1394,0,0
-301,-370,0,0,0,0,0,0,0,0,0,-1,923,1394,0,0
-294,-370,0,0,0,0,0,0,0,0,0,-1,930,1394,0,0
-287,-370,0,0,0,0,0,0,0,0,0,-1,937,1394,0,0
-280,-370,0,0,0,0,0,0,0,0,0,-1,944,1394,0,0
-273,-370,0,0,0,0,0,0,0,0,0,-1,951,1394,0,0
-266,-370,0,0,0,0,0,0,0,0,0,-1,958,1394,0,0
-259,-370,0,0,0,0,0,0,0,0,0,-1,965,1394,0,0
-252,-370,0,0,0,0,0,0,0,0,0,-1,972,1394,0,0
-245,-370,0,0,0,0,0,0,0,0,0,-1,979,1394,0,0
-238,-370,0,0,0,0,0,0,0,0,0,-1,986,1394,0,0
-231,-370,0,0,0,0,0,0,0,0,0,-1,993,1394,0,0
-224,-370,0,0,0,0,0,0,0,0,0,-1,1000,1394,0,0
-217,-370,0,0,0,0,0,0,0,0,0,-1,1007,1394,0,0
-210,-370,0,0,0,0,0,0,0,0,0,-1,1014,1394,0,0
-203,-370,0,0,0,0,0,0,0,0,0,-1,1021,1394,0,0
-196,-370,0,0,0,0,0,0,0,0,0,-1,1028,1394,0,0
-189,-370,0,0,0,0,0,0,0,0,0,-1,1035,1394,0,0
-182,-370,0,0,0,0,0,0,0,0,0,-1,1042,1394,0,0
-175,-370,0,0,0,0,0,0,0,0,0,-1,1049,1394,0,0
-168,-370,0,0,0,0,0,0,0,0,0,-1,1056,1394,0,0
-161,-370,0,0,0,0,0,0,0,0,0,-1,1063,1394,0,0
-154,-370,0,0,0,0,0,0,0,0,0,-1,1070,1394,0,0
-147,-370,0,0,0,0,0,0,0,0,0,-1,1077,1394,0,0
-140,-370,0,0,0,0,0,0,0,0,0,-1,1084,1394,0,0
-133,-370,0,0,0,0,0,0,0,0,0,-1,1091,1394,0,0
-126,-370,0,0,0,0,0,0,0,0,0,-1,1098,1394,0,0
-119,-370,0,0,0,0,0,0,0,0,0,-1,1105,1394,0,0
-112,-370,0,0,0,0,0,0,0,0,0,-1,1112,1394,0,0
-105,-370,0,0,0,0,0,0,0,0,0,-1,1119,1394,0,0
-98,-370,0,0,0,0,0,0,0,0,0,-1,1126,1394,0,0
-91,-370,0,0,0,0,0,0,0,0,0,-1,1133,1394,0,0
-84,-370,0,0,0,0,0,0,0,0,0,-1,1140,1394,0,0
-77,-370,0,0,0,0,0,0,0,0,0,-1,1147,1394,0,0
-70,-370,0,0,0,0,0,0,0,0,0,-1,1154,1394,0,0
-63,-370,0,0,0,0,0,0,0,0,0,-1,1161,1394,0,0
-56,-370,0,0,0,0,0,0,0,0,0,-1,1168,1394,0,0
-49,-370,0,0,0,0,0,0,0,0,0,-1,1175,1394,0,0
-42,-370,0,0,0,0,0,0,0,0,0,-1,1182,1394,0,0
-35,-370,0,0,0,0,0,0,0,0,0,-1,1189,1394,0,0
-28,-370,0,0,0,0,0,0,0,0,0,-1,1196,1394,0,0
-21,-370,0,0,0,0,0,0,0,0,0,-1,1203,1394,0,0
-14,-370,0,0,0,0,0,0,0,0,0,-1,1210,1394,0,0
-7,-370,0,0,0,0,0,0,0,0,0,-1,1217,1394,0,0
0,-370,0,0,0,0,0,0,0,0,0,-1,1224,1394,0,0
7,-370,0,0,0,0,0,0,0,0,0,-1,1231,1394,0,0
14,-370,0,0,0,0,0,0,0,0,0,-1,1238,1394,0,0
21,-370,0,0,0,0,0,0,0,0,0,-1,1245,1394,0,0
28,-370,0,0,0,0,0,0,0,0,0,-1,1252,1394,0,0
35,-370,0,0,0,0,0,0,0,0,0,-1,1259,1394,0,0
42,-370,0,0,0,0,0,0,0,0,0,-1,1266,1394,0,0
49,-370,0,0,0,0,0,0,0,0,0,-1,1273,1394,0,0
56,-370,0,0,0,0,0,0,0,0,0,-1,1280,1394,0,0
63,-370,0,0,0,0,0,0,0,0,0,-1,1287,1394,0,0
70,-370,0,0,0,0,0,0,0,0,0,-1,1294,1394,0,0
77,-370,0,0,0,0,0,0,0,0,0,-1,1301,1394,0,0
84,-370,0,0,0,0,0,0,0,0,0,-1,1308,1394,0,0
91,-370,0,0,0,0,0,0,0,0,0,-1,1315,1394,0,0
98,-370,0,0,0,0,0,0,0,0,0,-1,1322,1394,0,0
105,-370,0,0,0,0,0,0,0,0,0,-1,1329,1394,0,0
112,-370,0,0,0,0,0,0,0,0,0,-1,1336,1394,0,0
119,-370,0,0,0,0,0,0,0,0,0,-1,1343,1394,0,0
126,-370,0,0,0,0,0,0,0,0,0,-1,1350,1394,0,0
133,-370,0,0,0,0,0,0,0,0,0,-1,1357,1394,0,0
140,-370,0,0,0,0,0,0,0,0,0,-1,1364,1394,0,0
147,-370,0,0,0,0,0,0,0,0,0,-1,1371,1394,0,0
154,-370,0,0,0,0,0,0,0,0,0,-1,1378,1394,0,0
161,-370,0,0,0,0,0,0,0,0,0,-1,1385,1394,0,0
168,-370,0,0,0,0,0,0,0,0,0,-1,1392,1394,0,0
175,-370,0,0,0,0,0,0,0,0,0,-1,1399,1394,0,0
182,-370,0,0,0,0,0,0,0,0,0,-1,1406,1394,0,0
189,-370,0,0,0,0,0,0,0,0,0,-1,1413,1394,0,0
196,-370,0,0,0,0,0,0,0,0,0,-1,1420,1394,0,0
203,-370,0,0,0,0,0,0,0,0,0,-1,1427,1394,0,0
210,-370,0,0,0,0,0,0,0,0,0,-1,1434,1394,0,0
217,-370,0,0,0,0,0,0,0,0,0,-1,1441,1394,0,0
224,-370,0,0,0,0,0,0,0,0,0,-1,1448,1394,0,0
231,-370,0,0,0,0,0,0,0,0,0,-1,1455,1394,0,0
238,-370,0,0,0,0,0,0,0,0,0,-1,1462,1394,0,0
245,-370,0,0,0,0,0,0,0,0,0,-1,1469,1394,0,0
252,-370,0,0,0,0,0,0,0,0,0,-1,1476,1394,0,0
259,-370,0,0,0,0,0,0,0,0,0,-1,1483,1394,0,0
266,-370,0,0,0,0,0,0,0,0,0,-1,1490,1394,0,0
273,-370,0,0,0,0,0,0,0,0,0,-1,1497,1394,0,0
280,-370,0,0,0,0,0,0,0,0,0,-1,1504,1394,0,0
287,-370,0,0,0,0,0,0,0,0,0,-1,1511,1394,0,0
294,-370,0,0,0,0,0,0,0,0,0,-1,1518,1394,0,0
301,-370,0,0,0,0,0,0,0,0,0,-1,1525,1394,0,0
308,-370,0,0,0,0,0,0,0,0,0,-1,1532,1394,0,0
315,-370,0,0,0,0,0,0,0,0,0,-1,1539,1394,0,0
322,-370,0,0,0,0,0,0,0,0,0,-1,1546,1394,0,0
329,-370,0,0,0,0,0,0,0,0,0,-1,1553,1394,0,0
336,-370,0,0,0,0,0,0,0,0,0,-1,1560,1394,0,0
343,-370,0,0,0,0,0,0,0,0,0,-1,1567,1394,0,0
350,-370,0,0,0,0,0,0,0,0,0,-1,1574,1394,0,0
357,-370,0,0,0,0,0,0,0,0,0,-1,1581,1394,0,0
364,-370,0,0,0,0,0,0,0,0,0,-1,1588,1394,0,0
371,-370,0,0,0,0,0,0,0,0,0,-1,1595,1394,0,0
378,-370,0,0,0,0,0,0,0,0,0,-1,1602,1394,0,0
385,-370,0,0,0,0,0,0,0,0,0,-1,1609,1394,0,0
392,-370,0,0,0,0,0,0,0,0,0,-1,1616,1394,0,0
399,-370,0,0,0,0,0,0,0,0,0,-1,1623,1394,0,0
406,-370,0,0,0,0,0,0,0,0,0,-1,1630,1394,0,0
413,-370,0,0,0,0,0,0,0,0,0,-1,1637,1394,0,0
420,-370,0,0,0,0,0,0,0,0,0,-1,1644,1394,0,0
427,-370,0,0,0,0,0,0,0,0,0,-1,1651,1394,0,0
434,-370,0,0,0,0,0,0,0,0,0,-1,1658,1394,0,0
441,-370,0,0,0,0,0,0,0,0,0,-1,1665,1394,0,0
448,-370,0,0,0,0,0,0,0,0,0,-1,1672,1394,0,0
455,-370,0,0,0,0,0,0,0,0,0,-1,1679,1394,0,0
462,-370,0,0,0,0,0,0,0,0,0,-1,1686,1394,0,0
469,-370,0,0,0,0,0,0,0,0,0,-1,1693,1394,0,0
476,-370,0,0,0,0,0,0,0,0,0,-1,1700,1394,0,0
483,-370,0,0,0,0,0,0,0,0,0,-1,1707,1394,0,0
490,-370,0,0,0,0,0,0,0,0,0,-1,1714,1394,0,0
497,-370,0,0,0,0,0,0,0,0,0,-1,1721,1394,0,0
504,-370,0,0,0,0,0,0,0,0,0,-1,1728,1394,0,0
511,-370,0,0,0,0,0,0,0,0,0,-1,1735,1394,0,0
518,-370,0,0,0,0,0,0,0,0,0,-1,1742,1394,0,0
525,-370,0,0,0,0,0,0,0,0,0,-1,1749,1394,0,0
532,-370,0,0,0,0,0,0,0,0,0,-1,1756,1394,0,0
539,-370,0,0,0,0,0,0,0,0,0,-1,1763,1394,0,0
546,-370,27.4949,2.81201,0,0,0,0,0,0,0,-1,1770,1394,27.4948,-2.81198
553,-370,26.5985,1.99329,0,0,0,0,0,0,0,-1,1777,1394,26.5985,-1.99327
560,-370,46.0132,3.65686,0,0,0,0,0,0,0,-1,1784,1394,46.0132,-3.65689
567,-370,46.1089,3.11719,0,0,0,0,0,0,0,-1,1791,1394,46.1089,-3.1172
574,-370,38.8953,1.49353,0,0,0,0,0,0,0,-1,1798,1394,38.8952,-1.49348
581,-370,39.178,2.86145,0,0,0,0,0,0,0,-1,1805,1394,39.1779,-2.86145
588,-370,39.2102,4.27661,0,0,0,0,0,0,0,-1,1812,1394,39.2102,-4.27657
595,-370,25.793,4.5271,0,0,0,0,0,0,0,-1,1819,1394,25.793,-4.52711
602,-370,25.1077,5.34937,0,0,0,0,0,0,0,-1,1826,1394,25.1077,-5.34932
609,-370,16.712,0.993286,0,0,0,0,0,0,0,-1,1833,1394,16.7121,-0.99323
616,-370,16.7764,7.23315,0,0,0,0,0,0,0,-1,1840,1394,16.7764,-7.23313
623,-370,17.6625,8.94263,0,0,0,0,0,0,0,-1,1847,1394,17.6624,-8.94258
630,-370,20.9681,11.1785,0,0,0,0,0,0,0,-1,1854,1394,20.9681,-11.1784
637,-370,27.2611,13.5186,0,0,0,0,0,0,0,-1,1861,1394,27.2611,-13.5186
644,-370,27.2744,13.026,-0.00011217,0.00121102,-0.00158422,0.00226624,-0.00116739,-0.983198,0.00201596,0.0132166,1868,1394,27.2744,-13.026
651,-370,27.2565,12.528,-3.17273e-05,0.000681019,-0.000989445,0.00137631,-0.000727021,-0.958253,0.0012335,0.0123523,1875,1394,27.2565,-12.5279
658,-370,27.2277,12.0742,0.000312588,0.000108636,-0.000406444,0.000629654,-0.00020843,-0.662486,0.000503828,0.0126653,1882,1394,27.2276,-12.0742
665,-370,27.2186,11.6183,0.000713863,-0.000451271,0.000151674,0.000733284,-0.000470692,0.12735,0.000700605,0.0138937,1889,1394,27.2186,-11.6182
672,-370,27.2046,11.1266,0.00117802,-0.00104722,0.00072965,0.00139594,-0.00126513,0.290218,0.00153699,0.015167,1896,1394,27.2046,-11.1266
679,-370,27.1996,10.6577,0.00173751,-0.00164206,0.00129302,0.00217546,-0.00208001,0.326578,0.0024571,0.0144151,1903,1394,27.1996,-10.6577
686,-370,27.1997,10.2001,0.00236676,-0.00230286,0.00187753,0.00302802,-0.00296412,0.338633,0.00345963,0.0138626,1910,1394,27.1997,-10.2
693,-370,27.1969,9.70776,0.00310293,-0.00299249,0.00244991,0.00396554,-0.00385509,0.338543,0.00451539,0.0126439,1917,1394,27.1969,-9.70781
700,-370,27.3687,9.2157,0.00395803,-0.00368483,0.00300609,0.00499869,-0.00472549,0.333271,0.005615,0.0327323,1924,1394,27.3687,-9.21573
707,-370,27.708,8.67224,0,0,0,0,0,0,0,-1,1931,1394,27.708,-8.67223
714,-370,16.9116,5.93018,0,0,0,0,0,0,0,-1,1938,1394,16.9116,-5.93014
721,-370,17.2007,4.69153,0,0,0,0,0,0,0,-1,1945,1394,17.2007,-4.69158
728,-370,20.5315,-0.313354,0,0,0,0,0,0,0,-1,1952,1394,20.5315,0.313332
735,-370,22.3652,0.233398,0,0,0,0,0,0,0,-1,1959,1394,22.3652,-0.233355
742,-370,24.1989,0.780029,0,0,0,0,0,0,0,-1,1966,1394,24.1989,-0.780041
749,-370,0,0,0,0,0,0,0,0,0,-1,1973,1394,0,0
756,-370,0,0,0,0,0,0,0,0,0,-1,1980,1394,0,0
763,-370,0,0,0,0,0,0,0,0,0,-1,1987,1394,0,0
770,-370,0,0,0,0,0,0,0,0,0,-1,1994,1394,0,0
777,-370,0,0,0,0,0,0,0,0,0,-1,2001,1394,0,0
784,-370,0,0,0,0,0,0,0,0,0,-1,2008,1394,0,0
791,-370,0,0,0,0,0,0,0,0,0,-1,2015,1394,0,0
798,-370,0,0,0,0,0,0,0,0,0,-1,2022,1394,0,0
805,-370,0,0,0,0,0,0,0,0,0,-1,2029,1394,0,0
812,-370,0,0,0,0,0,0,0,0,0,-1,2036,1394,0,0
-700,-377,0,0,0,0,0,0,0,0,0,-1,524,1401,0,0
-693,-377,0,0,0,0,0,0,0,0,0,-1,531,1401,0,0
-686,-377,0,0,0,0,0,0,0,0,0,-1,538,1401,0,0
-679,-377,0,0,0,0,0,0,0,0,0,-1,545,1401,0,0
-672,-377,0,0,0,0,0,0,0,0,0,-1,552,1401,0,0
-665,-377,0,0,0,0,0,0,0,0,0,-1,559,1401,0,0
-658,-377,0,0,0,0,0,0,0,0,0,-1,566,1401,0,0
-651,-377,0,0,0,0,0,0,0,0,0,-1,573,1401,0,0
-644,-377,0,0,0,0,0,0,0,0,0,-1,580,1401,0,0
-637,-377,0,0,0,0,0,0,0,0,0,-1,587,1401,0,0
-630,-377,0,0,0,0,0,0,0,0,0,-1,594,1401,0,0
-623,-377,0,0,0,0,0,0,0,0,0,-1,601,1401,0,0
-616,-377,-9.43915,-2.4906,0,0,0,0,0,0,0,-1,608,1401,-9.43915,2.49062
-609,-377,-7.2821,-1.35278,0,0,0,0,0,0,0,-1,615,1401,-7.28208,1.35279
-602,-377,-14.9736,3.98279,0,0,0,0,0,0,0,-1,622,1401,-14.9737,-3.98276
-595,-377,-6.9082,1.18201,0,0,0,0,0,0,0,-1,629,1401,-6.90822,-1.18204
-588,-377,-12.8003,3.44751,0,0,0,0,0,0,0,-1,636,1401,-12.8003,-3.44754
-581,-377,-11.8243,6.21521,0,0,0,0,0,0,0,-1,643,1401,-11.8244,-6.21519
-574,-377,-12.2761,6.60547,0,0,0,0,0,0,0,-1,650,1401,-12.2761,-6.60552
-567,-377,-12.5818,7.31348,-0.0103906,-0.000314593,-0.00422502,0.00122253,-0.0119277,-1.22187,0.00838907,0.0485439,657,1401,-12.5818,-7.3135
-560,-377,-13.0936,7.66272,-0.00734572,-0.00044194,-0.00315717,0.000784128,-0.00857178,-1.20038,0.00599302,0.0466357,664,1401,-13.0936,-7.66266
-553,-377,-12.9804,8.11926,-0.00460871,-0.000343619,-0.00205203,0.000483324,-0.00543565,-1.18772,0.00379515,0.0152804,671,1401,-12.9804,-8.11923
-546,-377,-12.9979,8.72388,-0.00238883,-0.000278589,-0.00116294,0.000236545,-0.00290397,-1.15381,0.00201945,0.0173025,678,1401,-12.9979,-8.72393
-539,-377,-12.9613,9.21704,-0.000557598,-0.000179647,-0.000409391,8.22797e-05,-0.000819525,-1.00163,0.00057574,0.0227809,685,1401,-12.9613,-9.21706
-532,-377,-13.0196,9.68237,0.00101988,-2.67885e-05,0.000282559,0.00109129,-9.81963e-05,0.247536,0.000762368,0.0212559,692,1401,-13.0196,-9.68239
-525,-377,-12.9708,10.2417,0.00245244,0.000246009,0.001001,0.00283889,-0.000140437,0.368431,0.0019411,0.0223222,699,1401,-12.9708,-10.2417
-518,-377,-13.0206,10.7283,0.00381163,0.000679023,0.0017859,0.00462077,-0.00013012,0.425407,0.00312479,0.0144974,706,1401,-13.0207,-10.7283
-511,-377,-13.0322,11.2432,0.00491012,0.00125961,0.00254048,0.00621306,-4.33254e-05,0.473891,0.00415656,0.0117743,713,1401,-13.0322,-11.2431
-504,-377,-13.0695,11.7885,0.0060578,0.00202706,0.00354911,0.00812384,-3.8974e-05,0.527175,0.00542893,0.01499,720,1401,-13.0695,-11.7885
-497,-377,-13.0916,12.3164,0,0,0,0,0,0,0,-1,727,1401,-13.0916,-12.3165
-490,-377,-8.88409,10.1245,0,0,0,0,0,0,0,-1,734,1401,-8.8841,-10.1245
-483,-377,-5.6524,5.07324,0,0,0,0,0,0,0,-1,741,1401,-5.6524,-5.07325
-476,-377,-6.11682,5.10535,0,0,0,0,0,0,0,-1,748,1401,-6.11681,-5.10537
-469,-377,-10.3211,1.9281,0,0,0,0,0,0,0,-1,755,1401,-10.3211,-1.92808
-462,-377,-9.2204,1.0022,0,0,0,0,0,0,0,-1,762,1401,-9.22039,-1.00218
-455,-377,-8.11969,0.0762939,0,0,0,0,0,0,0,-1,769,1401,-8.11968,-0.0762759
-448,-377,-9.05334,0.877319,0,0,0,0,0,0,0,-1,776,1401,-9.05332,-0.877324
-441,-377,-11.212,0.763428,0,0,0,0,0,0,0,-1,783,1401,-11.212,-0.763415
-434,-377,-11.0984,0.996216,0,0,0,0,0,0,0,-1,790,1401,-11.0984,-0.996265
-427,-377,-11.1733,1.25732,0,0,0,0,0,0,0,-1,797,1401,-11.1733,-1.25732
-420,-377,0,0,0,0,0,0,0,0,0,-1,804,1401,0,0
-413,-377,0,0,0,0,0,0,0,0,0,-1,811,1401,0,0
-406,-377,0,0,0,0,0,0,0,0,0,-1,818,1401,0,0
-399,-377,0,0,0,0,0,0,0,0,0,-1,825,1401,0,0
-392,-377,0,0,0,0,0,0,0,0,0,-1,832,1401,0,0
-385,-377,0,0,0,0,0,0,0,0,0,-1,839,1401,0,0
-378,-377,0,0,0,0,0,0,0,0,0,-1,846,1401,0,0
-371,-377,0,0,0,0,0,0,0,0,0,-1,853,1401,0,0
-364,-377,0,0,0,0,0,0,0,0,0,-1,860,1401,0,0
-357,-377,0,0,0,0,0,0,0,0,0,-1,867,1401,0,0
-350,-377,0,0,0,0,0,0,0,0,0,-1,874,1401,0,0
-343,-377,0,0,0,0,0,0,0,0,0,-1,881,1401,0,0
-336,-377,0,0,0,0,0,0,0,0,0,-1,888,1401,0,0
-329,-377,0,0,0,0,0,0,0,0,0,-1,895,1401,0,0
-322,-377,0,0,0,0,0,0,0,0,0,-1,902,1401,0,0
-315,-377,0,0,0,0,0,0,0,0,0,-1,909,1401,0,0
-308,-377,0,0,0,0,0,0,0,0,0,-1,916,1401,0,0
-301,-377,0,0,0,0,0,0,0,0,0,-1,923,1401,0,0
-294,-377,0,0,0,0,0,0,0,0,0,-1,930,1401,0,0
-287,-377,0,0,0,0,0,0,0,0,0,-1,937,1401,0,0
-280,-377,0,0,0,0,0,0,0,0,0,-1,944,1401,0,0
-273,-377,0,0,0,0,0,0,0,0,0,-1,951,1401,0,0
-266,-377,0,0,0,0,0,0,0,0,0,-1,958,1401,0,0
-259,-377,0,0,0,0,0,0,0,0,0,-1,965,1401,0,0
-252,-377,0,0,0,0,0,0,0,0,0,-1,972,1401,0,0
-245,-377,0,0,0,0,0,0,0,0,0,-1,979,1401,0,0
-238,-377,0,0,0,0,0,0,0,0,0,-1,986,1401,0,0
-231,-377,0,0,0,0,0,0,0,0,0,-1,993,1401,0,0
-224,-377,0,0,0,0,0,0,0,0,0,-1,1000,1401,0,0
-217,-377,0,0,0,0,0,0,0,0,0,-1,1007,1401,0,0
-210,-377,0,0,0,0,0,0,0,0,0,-1,1014,1401,0,0
-203,-377,0,0,0,0,0,0,0,0,0,-1,1021,1401,0,0
-196,-377,0,0,0,0,0,0,0,0,0,-1,1028,1401,0,0
-189,-377,0,0,0,0,0,0,0,0,0,-1,1035,1401,0,0
-182,-377,0,0,0,0,0,0,0,0,0,-1,1042,1401,0,0
-175,-377,0,0,0,0,0,0,0,0,0,-1,1049,1401,0,0
-168,-377,0,0,0,0,0,0,0,0,0,-1,1056,1401,0,0
-161,-377,0,0,0,0,0,0,0,0,0,-1,1063,1401,0,0
-154,-377,0,0,0,0,0,0,0,0,0,-1,1070,1401,0,0
-147,-377,0,0,0,0,0,0,0,0,0,-1,1077,1401,0,0
-140,-377,0,0,0,0,0,0,0,0,0,-1,1084,1401,0,0
-133,-377,0,0,0,0,0,0,0,0,0,-1,1091,1401,0,0
-126,-377,0,0,0,0,0,0,0,0,0,-1,1098,1401,0,0
-119,-377,0,0,0,0,0,0,0,0,0,-1,1105,1401,0,0
-112,-377,0,0,0,0,0,0,0,0,0,-1,1112,1401,0,0
-105,-377,0,0,0,0,0,0,0,0,0,-1,1119,1401,0,0
-98,-377,0,0,0,0,0,0,0,0,0,-1,1126,1401,0,0
-91,-377,0,0,0,0,0,0,0,0,0,-1,1133,1401,0,0
-84,-377,0,0,0,0,0,0,0,0,0,-1,1140,1401,0,0
-77,-377,0,0,0,0,0,0,0,0,0,-1,1147,1401,0,0
-70,-377,0,0,0,0,0,0,0,0,0,-1,1154,1401,0,0
-63,-377,0,0,0,0,0,0,0,0,0,-1,1161,1401,0,0
-56,-377,0,0,0,0,0,0,0,0,0,-1,1168,1401,0,0
-49,-377,0,0,0,0,0,0,0,0,0,-1,1175,1401,0,0
-42,-377,0,0,0,0,0,0,0,0,0,-1,1182,1401,0,0
-35,-377,0,0,0,0,0,0,0,0,0,-1,1189,1401,0,0
-28,-377,0,0,0,0,0,0,0,0,0,-1,1196,1401,0,0
-21,-377,0,0,0,0,0,0,0,0,0,-1,1203,1401,0,0
-14,-377,0,0,0,0,0,0,0,0,0,-1,1210,1401,0,0
-7,-377,0,0,0,0,0,0,0,0,0,-1,1217,1401,0,0
0,-377,0,0,0,0,0,0,0,0,0,-1,1224,1401,0,0
7,-377,0,0,0,0,0,0,0,0,0,-1,1231,1401,0,0
14,-377,0,0,0,0,0,0,0,0,0,-1,1238,1401,0,0
21,-377,0,0,0,0,0,0,0,0,0,-1,1245,1401,0,0
28,-377,0,0,0,0,0,0,0,0,0,-1,1252,1401,0,0
35,-377,0,0,0,0,0,0,0,0,0,-1,1259,1401,0,0
42,-377,0,0,0,0,0,0,0,0,0,-1,1266,1401,0,0
49,-377,0,0,0,0,0,0,0,0,0,-1,1273,1401,0,0
56,-377,0,0,0,0,0,0,0,0,0,-1,1280,1401,0,0
63,-377,0,0,0,0,0,0,0,0,0,-1,1287,1401,0,0
70,-377,0,0,0,0,0,0,0,0,0,-1,1294,1401,0,0
77,-377,0,0,0,0,0,0,0,0,0,-1,1301,1401,0,0
84,-377,0,0,0,0,0,0,0,0,0,-1,1308,1401,0,0
91,-377,0,0,0,0,0,0,0,0,0,-1,1315,1401,0,0
98,-377,0,0,0,0,0,0,0,0,0,-1,1322,1401,0,0
105,-377,0,0,0,0,0,0,0,0,0,-1,1329,1401,0,0
112,-377,0,0,0,0,0,0,0,0,0,-1,1336,1401,0,0
119,-377,0,0,0,0,0,0,0,0,0,-1,1343,1401,0,0
126,-377,0,0,0,0,0,0,0,0,0,-1,1350,1401,0,0
133,-377,0,0,0,0,0,0,0,0,0,-1,1357,1401,0,0
140,-377,0,0,0,0,0,0,0,0,0,-1,1364,1401,0,0
147,-377,0,0,0,0,0,0,0,0,0,-1,1371,1401,0,0
154,-377,0,0,0,0,0,0,0,0,0,-1,1378,1401,0,0
161,-377,0,0,0,0,0,0,0,0,0,-1,1385,1401,0,0
168,-377,0,0,0,0,0,0,0,0,0,-1,1392,1401,0,0
175,-377,0,0,0,0,0,0,0,0,0,-1,1399,1401,0,0
182,-377,0,0,0,0,0,0,0,0,0,-1,1406,1401,0,0
189,-377,0,0,0,0,0,0,0,0,0,-1,1413,1401,0,0
196,-377,0,0,0,0,0,0,0,0,0,-1,1420,1401,0,0
203,-377,0,0,0,0,0,0,0,0,0,-1,1427,1401,0,0
210,-377,0,0,0,0,0,0,0,0,0,-1,1434,1401,0,0
217,-377,0,0,0,0,0,0,0,0,0,-1,1441,1401,0,0
224,-377,0,0,0,0,0,0,0,0,0,-1,1448,1401,0,0
231,-377,0,0,0,0,0,0,0,0,0,-1,1455,1401,0,0
238,-377,0,0,0,0,0,0,0,0,0,-1,1462,1401,0,0
245,-377,0,0,0,0,0,0,0,0,0,-1,1469,1401,0,0
252,-377,0,0,0,0,0,0,0,0,0,-1,1476,1401,0,0
259,-377,0,0,0,0,0,0,0,0,0,-1,1483,1401,0,0
266,-377,0,0,0,0,0,0,0,0,0,-1,1490,1401,0,0
273,-377,0,0,0,0,0,0,0,0,0,-1,1497,1401,0,0
280,-377,0,0,0,0,0,0,0,0,0,-1,1504,1401,0,0
287,-377,0,0,0,0,0,0,0,0,0,-1,1511,1401,0,0
294,-377,0,0,0,0,0,0,0,0,0,-1,1518,1401,0,0
301,-377,0,0,0,0,0,0,0,0,0,-1,1525,1401,0,0
308,-377,0,0,0,0,0,0,0,0,0,-1,1532,1401,0,0
315,-377,0,0,0,0,0,0,0,0,0,-1,1539,1401,0,0
322,-377,0,0,0,0,0,0,0,0,0,-1,1546,1401,0,0
329,-377,0,0,0,0,0,0,0,0,0,-1,1553,1401,0,0
336,-377,0,0,0,0,0,0,0,0,0,-1,1560,1401,0,0
343,-377,0,0,0,0,0,0,0,0,0,-1,1567,1401,0,0
350,-377,0,0,0,0,0,0,0,0,0,-1,1574,1401,0,0
357,-377,0,0,0,0,0,0,0,0,0,-1,1581,1401,0,0
364,-377,0,0,0,0,0,0,0,0,0,-1,1588,1401,0,0
371,-377,0,0,0,0,0,0,0,0,0,-1,1595,1401,0,0
378,-377,0,0,0,0,0,0,0,0,0,-1,1602,1401,0,0
385,-377,0,0,0,0,0,0,0,0,0,-1,1609,1401,0,0
392,-377,0,0,0,0,0,0,0,0,0,-1,1616,1401,0,0
399,-377,0,0,0,0,0,0,0,0,0,-1,1623,1401,0,0
406,-377,0,0,0,0,0,0,0,0,0,-1,1630,1401,0,0
413,-377,0,0,0,0,0,0,0,0,0,-1,1637,1401,0,0
420,-377,0,0,0,0,0,0,0,0,0,-1,1644,1401,0,0
427,-377,0,0,0,0,0,0,0,0,0,-1,1651,1401,0,0
434,-377,0,0,0,0,0,0,0,0,0,-1,1658,1401,0,0
441,-377,0,0,0,0,0,0,0,0,0,-1,1665,1401,0,0
448,-377,0,0,0,0,0,0,0,0,0,-1,1672,1401,0,0
455,-377,0,0,0,0,0,0,0,0,0,-1,1679,1401,0,0
462,-377,0,0,0,0,0,0,0,0,0,-1,1686,1401,0,0
469,-377,0,0,0,0,0,0,0,0,0,-1,1693,1401,0,0
476,-377,0,0,0,0,0,0,0,0,0,-1,1700,1401,0,0
483,-377,0,0,0,0,0,0,0,0,0,-1,1707,1401,0,0
490,-377,0,0,0,0,0,0,0,0,0,-1,1714,1401,0,0
497,-377,0,0,0,0,0,0,0,0,0,-1,1721,1401,0,0
504,-377,0,0,0,0,0,0,0,0,0,-1,1728,1401,0,0
511,-377,0,0,0,0,0,0,0,0,0,-1,1735,1401,0,0
518,-377,0,0,0,0,0,0,0,0,0,-1,1742,1401,0,0
525,-377,0,0,0,0,0,0,0,0,0,-1,1749,1401,0,0
532,-377,0,0,0,0,0,0,0,0,0,-1,1756,1401,0,0
539,-377,0,0,0,0,0,0,0,0,0,-1,1763,1401,0,0
546,-377,27.8485,2.34094,0,0,0,0,0,0,0,-1,1770,1401,27.8486,-2.34091
553,-377,27.2189,2.42493,0,0,0,0,0,0,0,-1,1777,1401,27.2188,-2.42498
560,-377,38.3577,-2.15015,0,0,0,0,0,0,0,-1,1784,1401,38.3576,2.1501
567,-377,38.4889,-0.285645,0,0,0,0,0,0,0,-1,1791,1401,38.4889,0.2857
574,-377,38.6221,1.61694,0,0,0,0,0,0,0,-1,1798,1401,38.6221,-1.61689
581,-377,39.1818,3.76367,0,0,0,0,0,0,0,-1,1805,1401,39.1818,-3.76366
588,-377,25.882,4.35217,0,0,0,0,0,0,0,-1,1812,1401,25.8819,-4.3522
595,-377,25.5392,5.11804,0,0,0,0,0,0,0,-1,1819,1401,25.5392,-5.11808
602,-377,24.816,5.79126,0,0,0,0,0,0,0,-1,1826,1401,24.816,-5.79124
609,-377,15.0223,4.76135,0,0,0,0,0,0,0,-1,1833,1401,15.0224,-4.76129
616,-377,14.1842,5.78992,0,0,0,0,0,0,0,-1,1840,1401,14.1842,-5.78987
623,-377,15.8248,8.76721,0,0,0,0,0,0,0,-1,1847,1401,15.8248,-8.76725
630,-377,26.4447,14.2776,0,0,0,0,0,0,0,-1,1854,1401,26.4447,-14.2775
637,-377,26.7202,13.5463,6.93125e-06,0.000920173,-0.00141519,0.00195058,-0.00102348,-0.941454,0.00174466,0.0312123,1861,1401,26.7202,-13.5462
644,-377,26.8101,13.0269,3.27954e-05,0.000748849,-0.00110137,0.00154893,-0.000767281,-0.942547,0.00136241,0.0123696,1868,1401,26.8101,-13.0269
651,-377,26.7769,12.55,0.000128528,0.000321283,-0.000582735,0.000815557,-0.000365745,-0.867351,0.000698312,0.0133102,1875,1401,26.7769,-12.5501
658,-377,26.7462,12.1105,0.000417184,-0.000160131,-4.14588e-05,0.000420147,-0.000163093,-0.0713253,0.000347464,0.0149925,1882,1401,26.7462,-12.1105
665,-377,26.7739,11.6091,0.000776885,-0.000689137,0.000516836,0.000940772,-0.000853024,0.307066,0.00103606,0.0180773,1889,1401,26.7739,-11.6092
672,-377,26.7747,11.1058,0.00122378,-0.00131528,0.00113833,0.00165939,-0.00175089,0.365482,0.00196916,0.017914,1896,1401,26.7746,-11.1058
679,-377,26.7312,10.6725,0.00176826,-0.00200043,0.00179966,0.00248958,-0.00272175,0.381207,0.00300976,0.0169704,1903,1401,26.7312,-10.6725
686,-377,26.71,10.229,0.00239107,-0.00285456,0.00255594,0.00343049,-0.00389398,0.386243,0.00423161,0.0141254,1910,1401,26.71,-10.229
693,-377,26.7478,9.72681,0.00315767,-0.00382246,0.00335409,0.00450811,-0.0051729,0.382767,0.00559372,0.0150569,1917,1401,26.7478,-9.72686
700,-377,26.7401,9.38806,0.00408579,-0.00494678,0.00423851,0.0057632,-0.00662419,0.37684,0.00715762,0.0468827,1924,1401,26.7401,-9.3881
707,-377,26.9497,8.95923,0,0,0,0,0,0,0,-1,1931,1401,26.9497,-8.95922
714,-377,16.5369,5.45959,0,0,0,0,0,0,0,-1,1938,1401,16.5369,-5.4596
721,-377,17.0913,5.42529,0,0,0,0,0,0,0,-1,1945,1401,17.0914,-5.42529
728,-377,14.5396,2.79724,0,0,0,0,0,0,0,-1,1952,1401,14.5396,-2.7972
735,-377,23.2977,-0.991089,0,0,0,0,0,0,0,-1,1959,1401,23.2978,0.991076
742,-377,0,0,0,0,0,0,0,0,0,-1,1966,1401,0,0
749,-377,0,0,0,0,0,0,0,0,0,-1,1973,1401,0,0
756,-377,0,0,0,0,0,0,0,0,0,-1,1980,1401,0,0
763,-377,0,0,0,0,0,0,0,0,0,-1,1987,1401,0,0
770,-377,0,0,0,0,0,0,0,0,0,-1,1994,1401,0,0
777,-377,0,0,0,0,0,0,0,0,0,-1,2001,1401,0,0
784,-377,0,0,0,0,0,0,0,0,0,-1,2008,1401,0,0
791,-377,0,0,0,0,0,0,0,0,0,-1,2015,1401,0,0
798,-377,0,0,0,0,0,0,0,0,0,-1,2022,1401,0,0
805,-377,0,0,0,0,0,0,0,0,0,-1,2029,1401,0,0
812,-377,0,0,0,0,0,0,0,0,0,-1,2036,1401,0,0
-700,-384,0,0,0,0,0,0,0,0,0,-1,524,1408,0,0
-693,-384,0,0,0,0,0,0,0,0,0,-1,531,1408,0,0
-686,-384,0,0,0,0,0,0,0,0,0,-1,538,1408,0,0
-679,-384,0,0,0,0,0,0,0,0,0,-1,545,1408,0,0
-672,-384,0,0,0,0,0,0,0,0,0,-1,552,1408,0,0
-665,-384,0,0,0,0,0,0,0,0,0,-1,559,1408,0,0
-658,-384,0,0,0,0,0,0,0,0,0,-1,566,1408,0,0
-651,-384,0,0,0,0,0,0,0,0,0,-1,573,1408,0,0
-644,-384,0,0,0,0,0,0,0,0,0,-1,580,1408,0,0
-637,-384,0,0,0,0,0,0,0,0,0,-1,587,1408,0,0
-630,-384,0,0,0,0,0,0,0,0,0,-1,594,1408,0,0
-623,-384,0,0,0,0,0,0,0,0,0,-1,601,1408,0,0
-616,-384,-10.019,-3.36646,0,0,0,0,0,0,0,-1,608,1408,-10.019,3.36648
-609,-384,-7.72357,-2.3418,0,0,0,0,0,0,0,-1,615,1408,-7.72358,2.34182
-602,-384,-11.7632,-2.85156,0,0,0,0,0,0,0,-1,622,1408,-11.7632,2.85157
-595,-384,-10.2217,2.8855,0,0,0,0,0,0,0,-1,629,1408,-10.2218,-2.88548
-588,-384,-12.1653,2.29041,0,0,0,0,0,0,0,-1,636,1408,-12.1654,-2.29038
-581,-384,-11.9297,3.60376,0,0,0,0,0,0,0,-1,643,1408,-11.9298,-3.6038
-574,-384,-11.8677,6.02722,0,0,0,0,0,0,0,-1,650,1408,-11.8677,-6.02722
-567,-384,-12.0743,7.04639,0,0,0,0,0,0,0,-1,657,1408,-12.0743,-7.04641
-560,-384,-12.5109,7.58972,0,0,0,0,0,0,0,-1,664,1408,-12.5109,-7.58976
-553,-384,-12.4967,8.13245,-0.00568056,-0.000354362,-0.00236157,0.000541906,-0.00657683,-1.20807,0.0045759,0.0351954,671,1408,-12.4967,-8.13247
-546,-384,-12.4959,8.71655,-0.00325027,-0.00032327,-0.00145383,0.000276107,-0.00384965,-1.17975,0.00266325,0.0151299,678,1408,-12.4959,-8.71654
-539,-384,-12.5078,9.21777,-0.0013555,-0.000232525,-0.000715738,0.000115685,-0.00170371,-1.118,0.00117626,0.0166516,685,1408,-12.5078,-9.21778
-532,-384,-12.4878,9.67725,0.000193762,-8.67265e-05,-6.75287e-05,0.000209173,-0.000102138,-0.224372,0.000183242,0.0225964,692,1408,-12.4878,-9.6773
-525,-384,-12.4724,10.2725,0.00155747,0.00019641,0.000606489,0.00178851,-3.46246e-05,0.363966,0.00120405,0.0229222,699,1408,-12.4724,-10.2725
-518,-384,-12.5306,10.7712,0.00281758,0.00066378,0.00135209,0.00346922,1.21334e-05,0.449107,0.00230878,0.0137828,706,1408,-12.5307,-10.7713
-511,-384,-12.5359,11.2806,0.00394068,0.00126465,0.00212574,0.00511445,9.08806e-05,0.504507,0.00337975,0.0110613,713,1408,-12.5359,-11.2806
-504,-384,-12.5277,11.8204,0.0050363,0.00207215,0.0030704,0.00696361,0.000144839,0.560543,0.00459489,0.0122008,720,1408,-12.5277,-11.8204
-497,-384,-12.5084,12.3739,0.00648926,0.00324311,0.00435482,0.00951364,0.000218733,0.607018,0.00627079,0.0369065,727,1408,-12.5084,-12.3739
-490,-384,-12.3663,13.014,0,0,0,0,0,0,0,-1,734,1408,-12.3663,-13.014
-483,-384,-6.26471,7.61194,0,0,0,0,0,0,0,-1,741,1408,-6.26469,-7.61191
-476,-384,-6.02734,5.67761,0,0,0,0,0,0,0,-1,748,1408,-6.02736,-5.6776
-469,-384,-10.206,2.63721,0,0,0,0,0,0,0,-1,755,1408,-10.206,-2.6372
-462,-384,-9.04291,1.43542,0,0,0,0,0,0,0,-1,762,1408,-9.04293,-1.43545
-455,-384,-7.87988,0.233765,0,0,0,0,0,0,0,-1,769,1408,-7.87986,-0.233709
-448,-384,-9.35529,7.19226,0,0,0,0,0,0,0,-1,776,1408,-9.35531,-7.19226
-441,-384,-10.4697,1.79004,0,0,0,0,0,0,0,-1,783,1408,-10.4697,-1.79003
-434,-384,-10.6449,0.552246,0,0,0,0,0,0,0,-1,790,1408,-10.6449,-0.552216
-427,-384,-10.968,1.10583,0,0,0,0,0,0,0,-1,797,1408,-10.968,-1.10588
-420,-384,-12.5607,4.54858,0,0,0,0,0,0,0,-1,804,1408,-12.5607,-4.54859
-413,-384,0,0,0,0,0,0,0,0,0,-1,811,1408,0,0
-406,-384,0,0,0,0,0,0,0,0,0,-1,818,1408,0,0
-399,-384,0,0,0,0,0,0,0,0,0,-1,825,1408,0,0
-392,-384,0,0,0,0,0,0,0,0,0,-1,832,1408,0,0
-385,-384,0,0,0,0,0,0,0,0,0,-1,839,1408,0,0
-378,-384,0,0,0,0,0,0,0,0,0,-1,846,1408,0,0
-371,-384,0,0,0,0,0,0,0,0,0,-1,853,1408,0,0
-364,-384,0,0,0,0,0,0,0,0,0,-1,860,1408,0,0
-357,-384,0,0,0,0,0,0,0,0,0,-1,867,1408,0,0
-350,-384,0,0,0,0,0,0,0,0,0,-1,874,1408,0,0
-343,-384,0,0,0,0,0,0,0,0,0,-1,881,1408,0,0
-336,-384,0,0,0,0,0,0,0,0,0,-1,888,1408,0,0
-329,-384,0,0,0,0,0,0,0,0,0,-1,895,1408,0,0
-322,-384,0,0,0,0,0,0,0,0,0,-1,902,1408,0,0
-315,-384,0,0,0,0,0,0,0,0,0,-1,909,1408,0,0
-308,-384,0,0,0,0,0,0,0,0,0,-1,916,1408,0,0
-301,-384,0,0,0,0,0,0,0,0,0,-1,923,1408,0,0
-294,-384,0,0,0,0,0,0,0,0,0,-1,930,1408,0,0
-287,-384,0,0,0,0,0,0,0,0,0,-1,937,1408,0,0
-280,-384,0,0,0,0,0,0,0,0,0,-1,944,1408,0,0
-273,-384,0,0,0,0,0,0,0,0,0,-1,951,1408,0,0
-266,-384,0,0,0,0,0,0,0,0,0,-1,958,1408,0,0
-259,-384,0,0,0,0,0,0,0,0,0,-1,965,1408,0,0
-252,-384,0,0,0,0,0,0,0,0,0,-1,972,1408,0,0
-245,-384,0,0,0,0,0,0,0,0,0,-1,979,1408,0,0
-238,-384,0,0,0,0,0,0,0,0,0,-1,986,1408,0,0
-231,-384,0,0,0,0,0,0,0,0,0,-1,993,1408,0,0
-224,-384,0,0,0,0,0,0,0,0,0,-1,1000,1408,0,0
-217,-384,0,0,0,0,0,0,0,0,0,-1,1007,1408,0,0
-210,-384,0,0,0,0,0,0,0,0,0,-1,1014,1408,0,0
-203,-384,0,0,0,0,0,0,0,0,0,-1,1021,1408,0,0
-196,-384,0,0,0,0,0,0,0,0,0,-1,1028,1408,0,0
-189,-384,0,0,0,0,0,0,0,0,0,-1,1035,1408,0,0
-182,-384,0,0,0,0,0,0,0,0,0,-1,1042,1408,0,0
-175,-384,0,0,0,0,0,0,0,0,0,-1,1049,1408,0,0
-168,-384,0,0,0,0,0,0,0,0,0,-1,1056,1408,0,0
-161,-384,0,0,0,0,0,0,0,0,0,-1,1063,1408,0,0
-154,-384,0,0,0,0,0,0,0,0,0,-1,1070,1408,0,0
-147,-384,0,0,0,0,0,0,0,0,0,-1,1077,1408,0,0
-140,-384,0,0,0,0,0,0,0,0,0,-1,1084,1408,0,0
-133,-384,0,0,0,0,0,0,0,0,0,-1,1091,1408,0,0
-126,-384,0,0,0,0,0,0,0,0,0,-1,1098,1408,0,0
-119,-384,0,0,0,0,0,0,0,0,0,-1,1105,1408,0,0
-112,-384,0,0,0,0,0,0,0,0,0,-1,1112,1408,0,0
-105,-384,0,0,0,0,0,0,0,0,0,-1,1119,1408,0,0
-98,-384,0,0,0,0,0,0,0,0,0,-1,1126,1408,0,0
-91,-384,0,0,0,0,0,0,0,0,0,-1,1133,1408,0,0
-84,-384,0,0,0,0,0,0,0,0,0,-1,1140,1408,0,0
-77,-384,0,0,0,0,0,0,0,0,0,-1,1147,1408,0,0
-70,-384,0,0,0,0,0,0,0,0,0,-1,1154,1408,0,0
-63,-384,0,0,0,0,0,0,0,0,0,-1,1161,1408,0,0
-56,-384,0,0,0,0,0,0,0,0,0,-1,1168,1408,0,0
-49,-384,0,0,0,0,0,0,0,0,0,-1,1175,1408,0,0
-42,-384,0,0,0,0,0,0,0,0,0,-1,1182,1408,0,0
-35,-384,0,0,0,0,0,0,0,0,0,-1,1189,1408,0,0
-28,-384,0,0,0,0,0,0,0,0,0,-1,1196,1408,0,0
-21,-384,0,0,0,0,0,0,0,0,0,-1,1203,1408,0,0
-14,-384,0,0,0,0,0,0,0,0,0,-1,1210,1408,0,0
-7,-384,0,0,0,0,0,0,0,0,0,-1,1217,1408,0,0
0,-384,0,0,0,0,0,0,0,0,0,-1,1224,1408,0,0
7,-384,0,0,0,0,0,0,0,0,0,-1,1231,1408,0,0
14,-384,0,0,0,0,0,0,0,0,0,-1,1238,1408,0,0
21,-384,0,0,0,0,0,0,0,0,0,-1,1245,1408,0,0
28,-384,0,0,0,0,0,0,0,0,0,-1,1252,1408,0,0
35,-384,0,0,0,0,0,0,0,0,0,-1,1259,1408,0,0
42,-384,0,0,0,0,0,0,0,0,0,-1,1266,1408,0,0
49,-384,0,0,0,0,0,0,0,0,0,-1,1273,1408,0,0
56,-384,0,0,0,0,0,0,0,0,0,-1,1280,1408,0,0
63,-384,0,0,0,0,0,0,0,0,0,-1,1287,1408,0,0
70,-384,0,0,0,0,0,0,0,0,0,-1,1294,1408,0,0
77,-384,0,0,0,0,0,0,0,0,0,-1,1301,1408,0,0
84,-384,0,0,0,0,0,0,0,0,0,-1,1308,1408,0,0
91,-384,0,0,0,0,0,0,0,0,0,-1,1315,1408,0,0
98,-384,0,0,0,0,0,0,0,0,0,-1,1322,1408,0,0
105,-384,0,0,0,0,0,0,0,0,0,-1,1329,1408,0,0
112,-384,0,0,0,0,0,0,0,0,0,-1,1336,1408,0,0
119,-384,0,0,0,0,0,0,0,0,0,-1,1343,1408,0,0
126,-384,0,0,0,0,0,0,0,0,0,-1,1350,1408,0,0
133,-384,0,0,0,0,0,0,0,0,0,-1,1357,1408,0,0
140,-384,0,0,0,0,0,0,0,0,0,-1,1364,1408,0,0
147,-384,0,0,0,0,0,0,0,0,0,-1,1371,1408,0,0
154,-384,0,0,0,0,0,0,0,0,0,-1,1378,1408,0,0
161,-384,0,0,0,0,0,0,0,0,0,-1,1385,1408,0,0
168,-384,0,0,0,0,0,0,0,0,0,-1,1392,1408,0,0
175,-384,0,0,0,0,0,0,0,0,0,-1,1399,1408,0,0
182,-384,0,0,0,0,0,0,0,0,0,-1,1406,1408,0,0
189,-384,0,0,0,0,0,0,0,0,0,-1,1413,1408,0,0
196,-384,0,0,0,0,0,0,0,0,0,-1,1420,1408,0,0
203,-384,0,0,0,0,0,0,0,0,0,-1,1427,1408,0,0
210,-384,0,0,0,0,0,0,0,0,0,-1,1434,1408,0,0
217,-384,0,0,0,0,0,0,0,0,0,-1,1441,1408,0,0
224,-384,0,0,0,0,0,0,0,0,0,-1,1448,1408,0,0
231,-384,0,0,0,0,0,0,0,0,0,-1,1455,1408,0,0
238,-384,0,0,0,0,0,0,0,0,0,-1,1462,1408,0,0
245,-384,0,0,0,0,0,0,0,0,0,-1,1469,1408,0,0
252,-384,0,0,0,0,0,0,0,0,0,-1,1476,1408,0,0
259,-384,0,0,0,0,0,0,0,0,0,-1,1483,1408,0,0
266,-384,0,0,0,0,0,0,0,0,0,-1,1490,1408,0,0
273,-384,0,0,0,0,0,0,0,0,0,-1,1497,1408,0,0
280,-384,0,0,0,0,0,0,0,0,0,-1,1504,1408,0,0
287,-384,0,0,0,0,0,0,0,0,0,-1,1511,1408,0,0
294,-384,0,0,0,0,0,0,0,0,0,-1,1518,1408,0,0
301,-384,0,0,0,0,0,0,0,0,0,-1,1525,1408,0,0
308,-384,0,0,0,0,0,0,0,0,0,-1,1532,1408,0,0
315,-384,0,0,0,0,0,0,0,0,0,-1,1539,1408,0,0
322,-384,0,0,0,0,0,0,0,0,0,-1,1546,1408,0,0
329,-384,0,0,0,0,0,0,0,0,0,-1,1553,1408,0,0
336,-384,0,0,0,0,0,0,0,0,0,-1,1560,1408,0,0
343,-384,0,0,0,0,0,0,0,0,0,-1,1567,1408,0,0
350,-384,0,0,0,0,0,0,0,0,0,-1,1574,1408,0,0
357,-384,0,0,0,0,0,0,0,0,0,-1,1581,1408,0,0
364,-384,0,0,0,0,0,0,0,0,0,-1,1588,1408,0,0
371,-384,0,0,0,0,0,0,0,0,0,-1,1595,1408,0,0
378,-384,0,0,0,0,0,0,0,0,0,-1,1602,1408,0,0
385,-384,0,0,0,0,0,0,0,0,0,-1,1609,1408,0,0
392,-384,0,0,0,0,0,0,0,0,0,-1,1616,1408,0,0
399,-384,0,0,0,0,0,0,0,0,0,-1,1623,1408,0,0
406,-384,0,0,0,0,0,0,0,0,0,-1,1630,1408,0,0
413,-384,0,0,0,0,0,0,0,0,0,-1,1637,1408,0,0
420,-384,0,0,0,0,0,0,0,0,0,-1,1644,1408,0,0
427,-384,0,0,0,0,0,0,0,0,0,-1,1651,1408,0,0
434,-384,0,0,0,0,0,0,0,0,0,-1,1658,1408,0,0
441,-384,0,0,0,0,0,0,0,0,0,-1,1665,1408,0,0
448,-384,0,0,0,0,0,0,0,0,0,-1,1672,1408,0,0
455,-384,0,0,0,0,0,0,0,0,0,-1,1679,1408,0,0
462,-384,0,0,0,0,0,0,0,0,0,-1,1686,1408,0,0
469,-384,0,0,0,0,0,0,0,0,0,-1,1693,1408,0,0
476,-384,0,0,0,0,0,0,0,0,0,-1,1700,1408,0,0
483,-384,0,0,0,0,0,0,0,0,0,-1,1707,1408,0,0
490,-384,0,0,0,0,0,0,0,0,0,-1,1714,1408,0,0
497,-384,0,0,0,0,0,0,0,0,0,-1,1721,1408,0,0
504,-384,0,0,0,0,0,0,0,0,0,-1,1728,1408,0,0
511,-384,0,0,0,0,0,0,0,0,0,-1,1735,1408,0,0
518,-384,0,0,0,0,0,0,0,0,0,-1,1742,1408,0,0
525,-384,0,0,0,0,0,0,0,0,0,-1,1749,1408,0,0
532,-384,0,0,0,0,0,0,0,0,0,-1,1756,1408,0,0
539,-384,27.6886,2.85803,0,0,0,0,0,0,0,-1,1763,1408,27.6886,-2.85807
546,-384,27.5044,2.9425,0,0,0,0,0,0,0,-1,1770,1408,27.5044,-2.94255
553,-384,27.3052,2.78394,0,0,0,0,0,0,0,-1,1777,1408,27.3051,-2.78394
560,-384,26.833,3.19812,0,0,0,0,0,0,0,-1,1784,1408,26.833,-3.19816
567,-384,38.2566,0.109985,0,0,0,0,0,0,0,-1,1791,1408,38.2566,-0.110044
574,-384,38.4003,2.05945,0,0,0,0,0,0,0,-1,1798,1408,38.4003,-2.05949
581,-384,25.819,3.91846,0,0,0,0,0,0,0,-1,1805,1408,25.8189,-3.91848
588,-384,23.3721,4.25439,0,0,0,0,0,0,0,-1,1812,1408,23.3721,-4.25442
595,-384,24.981,5.59595,0,0,0,0,0,0,0,-1,1819,1408,24.981,-5.59598
602,-384,20.6605,4.17261,0,0,0,0,0,0,0,-1,1826,1408,20.6606,-4.17265
609,-384,14.158,5.49475,0,0,0,0,0,0,0,-1,1833,1408,14.158,-5.49474
616,-384,14.7997,7.6908,0,0,0,0,0,0,0,-1,1840,1408,14.7996,-7.69079
623,-384,16.4293,9.58899,0,0,0,0,0,0,0,-1,1847,1408,16.4294,-9.58901
630,-384,26.3093,14.0591,0,0,0,0,0,0,0,-1,1854,1408,26.3094,-14.0591
637,-384,26.3414,13.5199,0.00013833,0.000646308,-0.00103386,0.00145692,-0.000672278,-0.905849,0.00125681,0.0206134,1861,1408,26.3414,-13.5199
644,-384,26.3032,13.0631,0.000142915,0.000465766,-0.000738886,0.00106065,-0.000451974,-0.892944,0.000896575,0.0163845,1868,1408,26.3033,-13.0632
651,-384,26.2827,12.5629,0.00024543,6.59641e-05,-0.000269201,0.00043946,-0.000128065,-0.624524,0.000343709,0.0159105,1875,1408,26.2827,-12.5629
658,-384,26.2627,12.0848,0.000476213,-0.000372816,0.000254963,0.000546894,-0.000443497,0.270429,0.00057284,0.0159773,1882,1408,26.2627,-12.0849
665,-384,26.2966,11.6473,0.000770429,-0.000901404,0.000833203,0.00111476,-0.00124573,0.391886,0.00136353,0.0172607,1889,1408,26.2967,-11.6474
672,-384,26.3043,11.1619,0.00114507,-0.00156328,0.00151956,0.0018263,-0.00224451,0.421442,0.00235441,0.0149597,1896,1408,26.3044,-11.1619
679,-384,26.2467,10.692,0.00160284,-0.00234755,0.00231157,0.00266816,-0.00341288,0.431854,0.00351965,0.0151307,1903,1408,26.2467,-10.692
686,-384,26.2213,10.2451,0.00211068,-0.00341196,0.00330094,0.00365298,-0.00495426,0.437089,0.00498828,0.0126682,1910,1408,26.2213,-10.2452
693,-384,26.2723,9.78662,0.00274356,-0.00467726,0.00442681,0.00480929,-0.00674299,0.436606,0.00670078,0.022008,1917,1408,26.2723,-9.78661
700,-384,26.3519,9.34534,0,0,0,0,0,0,0,-1,1924,1408,26.352,-9.34539
707,-384,17.0566,6.62842,0,0,0,0,0,0,0,-1,1931,1408,17.0567,-6.62848
714,-384,16.038,5.0282,0,0,0,0,0,0,0,-1,1938,1408,16.038,-5.02819
721,-384,13.8843,2.8717,0,0,0,0,0,0,0,-1,1945,1408,13.8843,-2.87171
728,-384,15.4409,6.25745,0,0,0,0,0,0,0,-1,1952,1408,15.4409,-6.2574
735,-384,16.7598,6.71289,0,0,0,0,0,0,0,-1,1959,1408,16.7598,-6.71287
742,-384,0,0,0,0,0,0,0,0,0,-1,1966,1408,0,0
749,-384,0,0,0,0,0,0,0,0,0,-1,1973,1408,0,0
756,-384,0,0,0,0,0,0,0,0,0,-1,1980,1408,0,0
763,-384,0,0,0,0,0,0,0,0,0,-1,1987,1408,0,0
770,-384,0,0,0,0,0,0,0,0,0,-1,1994,1408,0,0
777,-384,0,0,0,0,0,0,0,0,0,-1,2001,1408,0,0
784,-384,0,0,0,0,0,0,0,0,0,-1,2008,1408,0,0
791,-384,0,0,0,0,0,0,0,0,0,-1,2015,1408,0,0
798,-384,0,0,0,0,0,0,0,0,0,-1,2022,1408,0,0
805,-384,0,0,0,0,0,0,0,0,0,-1,2029,1408,0,0
812,-384,0,0,0,0,0,0,0,0,0,-1,2036,1408,0,0
-700,-391,0,0,0,0,0,0,0,0,0,-1,524,1415,0,0
-693,-391,0,0,0,0,0,0,0,0,0,-1,531,1415,0,0
-686,-391,0,0,0,0,0,0,0,0,0,-1,538,1415,0,0
-679,-391,0,0,0,0,0,0,0,0,0,-1,545,1415,0,0
-672,-391,0,0,0,0,0,0,0,0,0,-1,552,1415,0,0
-665,-391,0,0,0,0,0,0,0,0,0,-1,559,1415,0,0
-658,-391,0,0,0,0,0,0,0,0,0,-1,566,1415,0,0
-651,-391,0,0,0,0,0,0,0,0,0,-1,573,1415,0,0
-644,-391,0,0,0,0,0,0,0,0,0,-1,580,1415,0,0
-637,-391,0,0,0,0,0,0,0,0,0,-1,587,1415,0,0
-630,-391,0,0,0,0,0,0,0,0,0,-1,594,1415,0,0
-623,-391,0,0,0,0,0,0,0,0,0,-1,601,1415,0,0
-616,-391,0,0,0,0,0,0,0,0,0,-1,608,1415,0,0
-609,-391,-7.71753,-3.69763,0,0,0,0,0,0,0,-1,615,1415,-7.71751,3.69759
-602,-391,-13.9493,-4.12805,0,0,0,0,0,0,0,-1,622,1415,-13.9493,4.12803
-595,-391,-10.8315,1.76172,0,0,0,0,0,0,0,-1,629,1415,-10.8315,-1.76171
-588,-391,-10.265,2.16431,0,0,0,0,0,0,0,-1,636,1415,-10.265,-2.16431
-581,-391,-11.3325,2.44836,0,0,0,0,0,0,0,-1,643,1415,-11.3325,-2.44842
-574,-391,-11.1471,6.19983,0,0,0,0,0,0,0,-1,650,1415,-11.1471,-6.19981
-567,-391,-11.5172,6.82458,0,0,0,0,0,0,0,-1,657,1415,-11.5171,-6.82454
-560,-391,-11.2459,7.37195,0,0,0,0,0,0,0,-1,664,1415,-11.2459,-7.37191
-553,-391,-12.0307,8.03027,0,0,0,0,0,0,0,-1,671,1415,-12.0307,-8.03023
-546,-391,-11.9889,8.69373,-0.00396392,-0.00038179,-0.00171861,0.000309389,-0.0046551,-1.18842,0.0032115,0.0149208,678,1415,-11.9889,-8.69375
-539,-391,-11.932,9.24207,-0.00201844,-0.000292135,-0.000974401,0.000146439,-0.00245701,-1.14786,0.00168894,0.0135277,685,1415,-11.932,-9.24211
-532,-391,-11.9353,9.76587,-0.000518282,-0.000150837,-0.000354302,6.45441e-05,-0.000733663,-1.02459,0.000511981,0.023071,692,1415,-11.9353,-9.76583
-525,-391,-11.9678,10.3004,0.000760109,0.000137529,0.000285229,0.000871024,2.66136e-05,0.370869,0.000572018,0.0224015,699,1415,-11.9677,-10.3004
-518,-391,-12.0491,10.7899,0.00192159,0.000636444,0.0010077,0.00247416,8.38771e-05,0.501571,0.0016222,0.0146571,706,1415,-12.0491,-10.7899
-511,-391,-12.0264,11.3055,0.00305154,0.00124828,0.00179332,0.00415713,0.000142693,0.552467,0.0027251,0.014239,713,1415,-12.0265,-11.3056
-504,-391,-12.0192,11.8398,0.00412803,0.00208677,0.00271417,0.00600712,0.000207674,0.605558,0.00393735,0.0127654,720,1415,-12.0192,-11.8398
-497,-391,-12.0314,12.3494,0.00542884,0.00321625,0.00390573,0.00838193,0.000263153,0.647389,0.00550234,0.0133201,727,1415,-12.0314,-12.3494
-490,-391,-11.9938,12.8678,0,0,0,0,0,0,0,-1,734,1415,-11.9938,-12.8678
-483,-391,-11.1018,12.9382,0,0,0,0,0,0,0,-1,741,1415,-11.1018,-12.9382
-476,-391,-6.05731,6.85303,0,0,0,0,0,0,0,-1,748,1415,-6.05728,-6.85304
-469,-391,-3.88953,5.0979,0,0,0,0,0,0,0,-1,755,1415,-3.88955,-5.09794
-462,-391,-8.67688,2.03125,0,0,0,0,0,0,0,-1,762,1415,-8.67685,-2.03121
-455,-391,-8.65576,6.46997,0,0,0,0,0,0,0,-1,769,1415,-8.65579,-6.46999
-448,-391,-8.39618,4.38403,0,0,0,0,0,0,0,-1,776,1415,-8.39617,-4.38405
-441,-391,-9.77704,2.5946,0,0,0,0,0,0,0,-1,783,1415,-9.77702,-2.5946
-434,-391,-11.5403,2.12878,0,0,0,0,0,0,0,-1,790,1415,-11.5403,-2.12881
-427,-391,-10.5311,2.50403,0,0,0,0,0,0,0,-1,797,1415,-10.5311,-2.504
-420,-391,-14.7087,1.24365,0,0,0,0,0,0,0,-1,804,1415,-14.7088,-1.24365
-413,-391,0,0,0,0,0,0,0,0,0,-1,811,1415,0,0
-406,-391,0,0,0,0,0,0,0,0,0,-1,818,1415,0,0
-399,-391,0,0,0,0,0,0,0,0,0,-1,825,1415,0,0
-392,-391,0,0,0,0,0,0,0,0,0,-1,832,1415,0,0
-385,-391,0,0,0,0,0,0,0,0,0,-1,839,1415,0,0
-378,-391,0,0,0,0,0,0,0,0,0,-1,846,1415,0,0
-371,-391,0,0,0,0,0,0,0,0,0,-1,853,1415,0,0
-364,-391,0,0,0,0,0,0,0,0,0,-1,860,1415,0,0
-357,-391,0,0,0,0,0,0,0,0,0,-1,867,1415,0,0
-350,-391,0,0,0,0,0,0,0,0,0,-1,874,1415,0,0
-343,-391,0,0,0,0,0,0,0,0,0,-1,881,1415,0,0
-336,-391,0,0,0,0,0,0,0,0,0,-1,888,1415,0,0
-329,-391,0,0,0,0,0,0,0,0,0,-1,895,1415,0,0
-322,-391,0,0,0,0,0,0,0,0,0,-1,902,1415,0,0
-315,-391,0,0,0,0,0,0,0,0,0,-1,909,1415,0,0
-308,-391,0,0,0,0,0,0,0,0,0,-1,916,1415,0,0
-301,-391,0,0,0,0,0,0,0,0,0,-1,923,1415,0,0
-294,-391,0,0,0,0,0,0,0,0,0,-1,930,1415,0,0
-287,-391,0,0,0,0,0,0,0,0,0,-1,937,1415,0,0
-280,-391,0,0,0,0,0,0,0,0,0,-1,944,1415,0,0
-273,-391,0,0,0,0,0,0,0,0,0,-1,951,1415,0,0
-266,-391,0,0,0,0,0,0,0,0,0,-1,958,1415,0,0
-259,-391,0,0,0,0,0,0,0,0,0,-1,965,1415,0,0
-252,-391,0,0,0,0,0,0,0,0,0,-1,972,1415,0,0
-245,-391,0,0,0,0,0,0,0,0,0,-1,979,1415,0,0
-238,-391,0,0,0,0,0,0,0,0,0,-1,986,1415,0,0
-231,-391,0,0,0,0,0,0,0,0,0,-1,993,1415,0,0
-224,-391,0,0,0,0,0,0,0,0,0,-1,1000,1415,0,0
-217,-391,0,0,0,0,0,0,0,0,0,-1,1007,1415,0,0
-210,-391,0,0,0,0,0,0,0,0,0,-1,1014,1415,0,0
-203,-391,0,0,0,0,0,0,0,0,0,-1,1021,1415,0,0
-196,-391,0,0,0,0,0,0,0,0,0,-1,1028,1415,0,0
-189,-391,0,0,0,0,0,0,0,0,0,-1,1035,1415,0,0
-182,-391,0,0,0,0,0,0,0,0,0,-1,1042,1415,0,0
-175,-391,0,0,0,0,0,0,0,0,0,-1,1049,1415,0,0
-168,-391,0,0,0,0,0,0,0,0,0,-1,1056,1415,0,0
-161,-391,0,0,0,0,0,0,0,0,0,-1,1063,1415,0,0
-154,-391,0,0,0,0,0,0,0,0,0,-1,1070,1415,0,0
-147,-391,0,0,0,0,0,0,0,0,0,-1,1077,1415,0,0
-140,-391,0,0,0,0,0,0,0,0,0,-1,1084,1415,0,0
-133,-391,0,0,0,0,0,0,0,0,0,-1,1091,1415,0,0
-126,-391,0,0,0,0,0,0,0,0,0,-1,1098,1415,0,0
-119,-391,0,0,0,0,0,0,0,0,0,-1,1105,1415,0,0
-112,-391,0,0,0,0,0,0,0,0,0,-1,1112,1415,0,0
-105,-391,0,0,0,0,0,0,0,0,0,-1,1119,1415,0,0
-98,-391,0,0,0,0,0,0,0,0,0,-1,1126,1415,0,0
-91,-391,0,0,0,0,0,0,0,0,0,-1,1133,1415,0,0
-84,-391,0,0,0,0,0,0,0,0,0,-1,1140,1415,0,0
-77,-391,0,0,0,0,0,0,0,0,0,-1,1147,1415,0,0
-70,-391,0,0,0,0,0,0,0,0,0,-1,1154,1415,0,0
-63,-391,0,0,0,0,0,0,0,0,0,-1,1161,1415,0,0
-56,-391,0,0,0,0,0,0,0,0,0,-1,1168,1415,0,0
-49,-391,0,0,0,0,0,0,0,0,0,-1,1175,1415,0,0
-42,-391,0,0,0,0,0,0,0,0,0,-1,1182,1415,0,0
-35,-391,0,0,0,0,0,0,0,0,0,-1,1189,1415,0,0
-28,-391,0,0,0,0,0,0,0,0,0,-1,1196,1415,0,0
-21,-391,0,0,0,0,0,0,0,0,0,-1,1203,1415,0,0
-14,-391,0,0,0,0,0,0,0,0,0,-1,1210,1415,0,0
-7,-391,0,0,0,0,0,0,0,0,0,-1,1217,1415,0,0
0,-391,0,0,0,0,0,0,0,0,0,-1,1224,1415,0,0
7,-391,0,0,0,0,0,0,0,0,0,-1,1231,1415,0,0
14,-391,0,0,0,0,0,0,0,0,0,-1,1238,1415,0,0
21,-391,0,0,0,0,0,0,0,0,0,-1,1245,1415,0,0
28,-391,0,0,0,0,0,0,0,0,0,-1,1252,1415,0,0
35,-391,0,0,0,0,0,0,0,0,0,-1,1259,1415,0,0
42,-391,0,0,0,0,0,0,0,0,0,-1,1266,1415,0,0
49,-391,0,0,0,0,0,0,0,0,0,-1,1273,1415,0,0
56,-391,0,0,0,0,0,0,0,0,0,-1,1280,1415,0,0
63,-391,0,0,0,0,0,0,0,0,0,-1,1287,1415,0,0
70,-391,0,0,0,0,0,0,0,0,0,-1,1294,1415,0,0
77,-391,0,0,0,0,0,0,0,0,0,-1,1301,1415,0,0
84,-391,0,0,0,0,0,0,0,0,0,-1,1308,1415,0,0
91,-391,0,0,0,0,0,0,0,0,0,-1,1315,1415,0,0
98,-391,0,0,0,0,0,0,0,0,0,-1,1322,1415,0,0
105,-391,0,0,0,0,0,0,0,0,0,-1,1329,1415,0,0
112,-391,0,0,0,0,0,0,0,0,0,-1,1336,1415,0,0
119,-391,0,0,0,0,0,0,0,0,0,-1,1343,1415,0,0
126,-391,0,0,0,0,0,0,0,0,0,-1,1350,1415,0,0
133,-391,0,0,0,0,0,0,0,0,0,-1,1357,1415,0,0
140,-391,0,0,0,0,0,0,0,0,0,-1,1364,1415,0,0
147,-391,0,0,0,0,0,0,0,0,0,-1,1371,1415,0,0
154,-391,0,0,0,0,0,0,0,0,0,-1,1378,1415,0,0
161,-391,0,0,0,0,0,0,0,0,0,-1,1385,1415,0,0
168,-391,0,0,0,0,0,0,0,0,0,-1,1392,1415,0,0
175,-391,0,0,0,0,0,0,0,0,0,-1,1399,1415,0,0
182,-391,0,0,0,0,0,0,0,0,0,-1,1406,1415,0,0
189,-391,0,0,0,0,0,0,0,0,0,-1,1413,1415,0,0
196,-391,0,0,0,0,0,0,0,0,0,-1,1420,1415,0,0
203,-391,0,0,0,0,0,0,0,0,0,-1,1427,1415,0,0
210,-391,0,0,0,0,0,0,0,0,0,-1,1434,1415,0,0
217,-391,0,0,0,0,0,0,0,0,0,-1,1441,1415,0,0
224,-391,0,0,0,0,0,0,0,0,0,-1,1448,1415,0,0
231,-391,0,0,0,0,0,0,0,0,0,-1,1455,1415,0,0
238,-391,0,0,0,0,0,0,0,0,0,-1,1462,1415,0,0
245,-391,0,0,0,0,0,0,0,0,0,-1,1469,1415,0,0
252,-391,0,0,0,0,0,0,0,0,0,-1,1476,1415,0,0
259,-391,0,0,0,0,0,0,0,0,0,-1,1483,1415,0,0
266,-391,0,0,0,0,0,0,0,0,0,-1,1490,1415,0,0
273,-391,0,0,0,0,0,0,0,0,0,-1,1497,1415,0,0
280,-391,0,0,0,0,0,0,0,0,0,-1,1504,1415,0,0
287,-391,0,0,0,0,0,0,0,0,0,-1,1511,1415,0,0
294,-391,0,0,0,0,0,0,0,0,0,-1,1518,1415,0,0
301,-391,0,0,0,0,0,0,0,0,0,-1,1525,1415,0,0
308,-391,0,0,0,0,0,0,0,0,0,-1,1532,1415,0,0
315,-391,0,0,0,0,0,0,0,0,0,-1,1539,1415,0,0
322,-391,0,0,0,0,0,0,0,0,0,-1,1546,1415,0,0
329,-391,0,0,0,0,0,0,0,0,0,-1,1553,1415,0,0
336,-391,0,0,0,0,0,0,0,0,0,-1,1560,1415,0,0
343,-391,0,0,0,0,0,0,0,0,0,-1,1567,1415,0,0
350,-391,0,0,0,0,0,0,0,0,0,-1,1574,1415,0,0
357,-391,0,0,0,0,0,0,0,0,0,-1,1581,1415,0,0
364,-391,0,0,0,0,0,0,0,0,0,-1,1588,1415,0,0
371,-391,0,0,0,0,0,0,0,0,0,-1,1595,1415,0,0
378,-391,0,0,0,0,0,0,0,0,0,-1,1602,1415,0,0
385,-391,0,0,0,0,0,0,0,0,0,-1,1609,1415,0,0
392,-391,0,0,0,0,0,0,0,0,0,-1,1616,1415,0,0
399,-391,0,0,0,0,0,0,0,0,0,-1,1623,1415,0,0
406,-391,0,0,0,0,0,0,0,0,0,-1,1630,1415,0,0
413,-391,0,0,0,0,0,0,0,0,0,-1,1637,1415,0,0
420,-391,0,0,0,0,0,0,0,0,0,-1,1644,1415,0,0
427,-391,0,0,0,0,0,0,0,0,0,-1,1651,1415,0,0
434,-391,0,0,0,0,0,0,0,0,0,-1,1658,1415,0,0
441,-391,0,0,0,0,0,0,0,0,0,-1,1665,1415,0,0
448,-391,0,0,0,0,0,0,0,0,0,-1,1672,1415,0,0
455,-391,0,0,0,0,0,0,0,0,0,-1,1679,1415,0,0
462,-391,0,0,0,0,0,0,0,0,0,-1,1686,1415,0,0
469,-391,0,0,0,0,0,0,0,0,0,-1,1693,1415,0,0
476,-391,0,0,0,0,0,0,0,0,0,-1,1700,1415,0,0
483,-391,0,0,0,0,0,0,0,0,0,-1,1707,1415,0,0
490,-391,0,0,0,0,0,0,0,0,0,-1,1714,1415,0,0
497,-391,0,0,0,0,0,0,0,0,0,-1,1721,1415,0,0
504,-391,0,0,0,0,0,0,0,0,0,-1,1728,1415,0,0
511,-391,0,0,0,0,0,0,0,0,0,-1,1735,1415,0,0
518,-391,0,0,0,0,0,0,0,0,0,-1,1742,1415,0,0
525,-391,0,0,0,0,0,0,0,0,0,-1,1749,1415,0,0
532,-391,28.5959,3.02356,0,0,0,0,0,0,0,-1,1756,1415,28.596,-3.02358
539,-391,27.5881,3.25012,0,0,0,0,0,0,0,-1,1763,1415,27.5882,-3.25016
546,-391,27.2837,3.28064,0,0,0,0,0,0,0,-1,1770,1415,27.2837,-3.28064
553,-391,32.5952,5.04553,0,0,0,0,0,0,0,-1,1777,1415,32.5952,-5.04551
560,-391,31.2947,5.67017,0,0,0,0,0,0,0,-1,1784,1415,31.2947,-5.67011
567,-391,30.1473,6.17603,0,0,0,0,0,0,0,-1,1791,1415,30.1473,-6.17602
574,-391,27.5656,5.6842,0,0,0,0,0,0,0,-1,1798,1415,27.5655,-5.68422
581,-391,25.8883,5.76123,0,0,0,0,0,0,0,-1,1805,1415,25.8883,-5.76124
588,-391,24.2717,5.47986,0,0,0,0,0,0,0,-1,1812,1415,24.2717,-5.47982
595,-391,22.8827,6.1991,0,0,0,0,0,0,0,-1,1819,1415,22.8827,-6.19909
602,-391,15.1635,5.69849,0,0,0,0,0,0,0,-1,1826,1415,15.1635,-5.69847
609,-391,14.8285,7.50476,0,0,0,0,0,0,0,-1,1833,1415,14.8285,-7.50479
616,-391,20.7952,12.0503,0,0,0,0,0,0,0,-1,1840,1415,20.7952,-12.0503
623,-391,25.8654,14.3724,0,0,0,0,0,0,0,-1,1847,1415,25.8654,-14.3724
630,-391,25.9744,13.8827,0.000418704,0.000827938,-0.00105658,0.00169953,-0.000452888,-0.881044,0.00131034,0.0372659,1854,1415,25.9744,-13.8827
637,-391,25.8649,13.5009,0.000287147,0.000460482,-0.000755894,0.00113466,-0.000387031,-0.842477,0.000913211,0.0167374,1861,1415,25.8649,-13.5008
644,-391,25.8323,13.0529,0.000263851,0.000245536,-0.000461198,0.000715982,-0.000206596,-0.775472,0.000559059,0.0175508,1868,1415,25.8322,-13.0529
651,-391,25.8048,12.605,0.000353866,-0.000129427,-3.26018e-05,0.000356055,-0.000131617,-0.0670528,0.000291327,0.0176998,1875,1415,25.8048,-12.6049
658,-391,25.7969,12.1249,0.000528347,-0.000524373,0.000467684,0.000706105,-0.000702131,0.36322,0.000813047,0.0176109,1882,1415,25.7969,-12.1249
665,-391,25.8051,11.6737,0.000752917,-0.00104022,0.00106386,0.00124762,-0.00153492,0.435264,0.00160936,0.0141001,1889,1415,25.8051,-11.6738
672,-391,25.7975,11.2,0.00103803,-0.00171497,0.00181225,0.00193727,-0.00261421,0.460605,0.00263747,0.0118632,1896,1415,25.7974,-11.2
679,-391,25.7622,10.7252,0.00137049,-0.00258361,0.00274527,0.00277652,-0.00398964,0.473332,0.00392732,0.0122341,1903,1415,25.7622,-10.7252
686,-391,25.7751,10.2561,0.00169233,-0.00386957,0.00400861,0.00379018,-0.00596741,0.482141,0.0056801,0.0146797,1910,1415,25.7751,-10.2561
693,-391,25.7617,9.92615,0.00206888,-0.00546478,0.00554685,0.00500701,-0.00840291,0.48712,0.00782454,0.0332478,1917,1415,25.7617,-9.92612
700,-391,25.7938,9.60803,0,0,0,0,0,0,0,-1,1924,1415,25.7939,-9.60799
707,-391,12.9524,5.96851,0,0,0,0,0,0,0,-1,1931,1415,12.9524,-5.96849
714,-391,15.6875,7.67896,0,0,0,0,0,0,0,-1,1938,1415,15.6875,-7.67893
721,-391,14.1808,8.08435,0,0,0,0,0,0,0,-1,1945,1415,14.1808,-8.08439
728,-391,13.8102,7.28174,0,0,0,0,0,0,0,-1,1952,1415,13.8102,-7.28174
735,-391,0,0,0,0,0,0,0,0,0,-1,1959,1415,0,0
742,-391,0,0,0,0,0,0,0,0,0,-1,1966,1415,0,0
749,-391,0,0,0,0,0,0,0,0,0,-1,1973,1415,0,0
756,-391,0,0,0,0,0,0,0,0,0,-1,1980,1415,0,0
763,-391,0,0,0,0,0,0,0,0,0,-1,1987,1415,0,0
770,-391,0,0,0,0,0,0,0,0,0,-1,1994,1415,0,0
777,-391,0,0,0,0,0,0,0,0,0,-1,2001,1415,0,0
784,-391,0,0,0,0,0,0,0,0,0,-1,2008,1415,0,0
791,-391,0,0,0,0,0,0,0,0,0,-1,2015,1415,0,0
798,-391,0,0,0,0,0,0,0,0,0,-1,2022,1415,0,0
805,-391,0,0,0,0,0,0,0,0,0,-1,2029,1415,0,0
812,-391,0,0,0,0,0,0,0,0,0,-1,2036,1415,0,0
-700,-398,0,0,0,0,0,0,0,0,0,-1,524,1422,0,0
-693,-398,0,0,0,0,0,0,0,0,0,-1,531,1422,0,0
-686,-398,0,0,0,0,0,0,0,0,0,-1,538,1422,0,0
-679,-398,0,0,0,0,0,0,0,0,0,-1,545,1422,0,0
-672,-398,0,0,0,0,0,0,0,0,0,-1,552,1422,0,0
-665,-398,0,0,0,0,0,0,0,0,0,-1,559,1422,0,0
-658,-398,0,0,0,0,0,0,0,0,0,-1,566,1422,0,0
-651,-398,0,0,0,0,0,0,0,0,0,-1,573,1422,0,0
-644,-398,0,0,0,0,0,0,0,0,0,-1,580,1422,0,0
-637,-398,0,0,0,0,0,0,0,0,0,-1,587,1422,0,0
-630,-398,0,0,0,0,0,0,0,0,0,-1,594,1422,0,0
-623,-398,0,0,0,0,0,0,0,0,0,-1,601,1422,0,0
-616,-398,0,0,0,0,0,0,0,0,0,-1,608,1422,0,0
-609,-398,-7.47125,-4.05322,0,0,0,0,0,0,0,-1,615,1422,-7.47128,4.05317
-602,-398,-4.58868,-2.77026,0,0,0,0,0,0,0,-1,622,1422,-4.58869,2.77023
-595,-398,-12.2224,-1.82007,0,0,0,0,0,0,0,-1,629,1422,-12.2224,1.82006
-588,-398,-10.6939,1.32336,0,0,0,0,0,0,0,-1,636,1422,-10.6939,-1.32337
-581,-398,-10.433,3.1123,0,0,0,0,0,0,0,-1,643,1422,-10.433,-3.11233
-574,-398,-10.4475,5.89807,0,0,0,0,0,0,0,-1,650,1422,-10.4475,-5.89802
-567,-398,-10.4904,6.80115,0,0,0,0,0,0,0,-1,657,1422,-10.4904,-6.80115
-560,-398,-10.5333,7.70435,0,0,0,0,0,0,0,-1,664,1422,-10.5333,-7.70429
-553,-398,-11.4868,8.10864,0,0,0,0,0,0,0,-1,671,1422,-11.4868,-8.10866
-546,-398,-11.4752,8.72632,-0.00464981,-0.000448511,-0.00192999,0.000303485,-0.00540181,-1.19926,0.00370651,0.0250271,678,1422,-11.4752,-8.72636
-539,-398,-11.4037,9.29431,-0.00265015,-0.000349552,-0.00118972,0.000155026,-0.00315473,-1.16968,0.00215669,0.0121187,685,1422,-11.4037,-9.29431
-532,-398,-11.43,9.81335,-0.00118993,-0.000224842,-0.000619712,7.80383e-05,-0.00149281,-1.11619,0.00102221,0.0193227,692,1422,-11.43,-9.81332
-525,-398,-11.4729,10.2983,2.09565e-05,4.17056e-05,-4.20896e-05,7.46804e-05,-1.20183e-05,-0.906233,5.42387e-05,0.0182794,699,1422,-11.4729,-10.2983
-518,-398,-11.489,10.798,0.0011238,0.000527887,0.000627469,0.00152046,0.000131226,0.563732,0.000972856,0.0171795,706,1422,-11.489,-10.798
-511,-398,-11.4908,11.3113,0.00224714,0.00111391,0.00138399,0.00317602,0.00018504,0.591104,0.00205844,0.0145679,713,1422,-11.4908,-11.3113
-504,-398,-11.4833,11.8485,0.00329042,0.0019297,0.00224668,0.0049575,0.000262617,0.638373,0.00322103,0.0143659,720,1422,-11.4833,-11.8486
-497,-398,-11.508,12.36,0.00452499,0.00301529,0.00336904,0.00722271,0.000317569,0.675191,0.00471285,0.0101262,727,1422,-11.508,-12.36
-490,-398,-11.53,12.885,0.00618078,0.0044959,0.0048433,0.0102544,0.000422322,0.69929,0.0066999,0.0177386,734,1422,-11.53,-12.885
-483,-398,-11.5197,13.4436,0,0,0,0,0,0,0,-1,741,1422,-11.5196,-13.4436
-476,-398,-8.64392,11.9448,0,0,0,0,0,0,0,-1,748,1422,-8.6439,-11.9448
-469,-398,-8.91699,10.6276,0,0,0,0,0,0,0,-1,755,1422,-8.91697,-10.6275
-462,-398,-9.59753,9.32532,0,0,0,0,0,0,0,-1,762,1422,-9.59753,-9.32531
-455,-398,-8.08331,6.75024,0,0,0,0,0,0,0,-1,769,1422,-8.08333,-6.75022
-448,-398,-7.4505,5.25293,0,0,0,0,0,0,0,-1,776,1422,-7.4505,-5.25291
-441,-398,-7.61639,3.32141,0,0,0,0,0,0,0,-1,783,1422,-7.61637,-3.32145
-434,-398,-10.7618,3.297,0,0,0,0,0,0,0,-1,790,1422,-10.7618,-3.29704
-427,-398,-11.9061,2.24939,0,0,0,0,0,0,0,-1,797,1422,-11.9061,-2.24941
-420,-398,-13.467,2.32788,0,0,0,0,0,0,0,-1,804,1422,-13.467,-2.32787
-413,-398,-14.7983,2.15515,0,0,0,0,0,0,0,-1,811,1422,-14.7983,-2.15516
-406,-398,0,0,0,0,0,0,0,0,0,-1,818,1422,0,0
-399,-398,0,0,0,0,0,0,0,0,0,-1,825,1422,0,0
-392,-398,0,0,0,0,0,0,0,0,0,-1,832,1422,0,0
-385,-398,0,0,0,0,0,0,0,0,0,-1,839,1422,0,0
-378,-398,0,0,0,0,0,0,0,0,0,-1,846,1422,0,0
-371,-398,0,0,0,0,0,0,0,0,0,-1,853,1422,0,0
-364,-398,0,0,0,0,0,0,0,0,0,-1,860,1422,0,0
-357,-398,0,0,0,0,0,0,0,0,0,-1,867,1422,0,0
-350,-398,0,0,0,0,0,0,0,0,0,-1,874,1422,0,0
-343,-398,0,0,0,0,0,0,0,0,0,-1,881,1422,0,0
-336,-398,0,0,0,0,0,0,0,0,0,-1,888,1422,0,0
-329,-398,0,0,0,0,0,0,0,0,0,-1,895,1422,0,0
-322,-398,0,0,0,0,0,0,0,0,0,-1,902,1422,0,0
-315,-398,0,0,0,0,0,0,0,0,0,-1,909,1422,0,0
-308,-398,0,0,0,0,0,0,0,0,0,-1,916,1422,0,0
-301,-398,0,0,0,0,0,0,0,0,0,-1,923,1422,0,0
-294,-398,0,0,0,0,0,0,0,0,0,-1,930,1422,0,0
-287,-398,0,0,0,0,0,0,0,0,0,-1,937,1422,0,0
-280,-398,0,0,0,0,0,0,0,0,0,-1,944,1422,0,0
-273,-398,0,0,0,0,0,0,0,0,0,-1,951,1422,0,0
-266,-398,0,0,0,0,0,0,0,0,0,-1,958,1422,0,0
-259,-398,0,0,0,0,0,0,0,0,0,-1,965,1422,0,0
-252,-398,0,0,0,0,0,0,0,0,0,-1,972,1422,0,0
-245,-398,0,0,0,0,0,0,0,0,0,-1,979,1422,0,0
-238,-398,0,0,0,0,0,0,0,0,0,-1,986,1422,0,0
-231,-398,0,0,0,0,0,0,0,0,0,-1,993,1422,0,0
-224,-398,0,0,0,0,0,0,0,0,0,-1,1000,1422,0,0
-217,-398,0,0,0,0,0,0,0,0,0,-1,1007,1422,0,0
-210,-398,0,0,0,0,0,0,0,0,0,-1,1014,1422,0,0
-203,-398,0,0,0,0,0,0,0,0,0,-1,1021,1422,0,0
-196,-398,0,0,0,0,0,0,0,0,0,-1,1028,1422,0,0
-189,-398,0,0,0,0,0,0,0,0,0,-1,1035,1422,0,0
-182,-398,0,0,0,0,0,0,0,0,0,-1,1042,1422,0,0
-175,-398,0,0,0,0,0,0,0,0,0,-1,1049,1422,0,0
-168,-398,0,0,0,0,0,0,0,0,0,-1,1056,1422,0,0
-161,-398,0,0,0,0,0,0,0,0,0,-1,1063,1422,0,0
-154,-398,0,0,0,0,0,0,0,0,0,-1,1070,1422,0,0
-147,-398,0,0,0,0,0,0,0,0,0,-1,1077,1422,0,0
-140,-398,0,0,0,0,0,0,0,0,0,-1,1084,1422,0,0
-133,-398,0,0,0,0,0,0,0,0,0,-1,1091,1422,0,0
-126,-398,0,0,0,0,0,0,0,0,0,-1,1098,1422,0,0
-119,-398,0,0,0,0,0,0,0,0,0,-1,1105,1422,0,0
-112,-398,0,0,0,0,0,0,0,0,0,-1,1112,1422,0,0
-105,-398,0,0,0,0,0,0,0,0,0,-1,1119,1422,0,0
-98,-398,0,0,0,0,0,0,0,0,0,-1,1126,1422,0,0
-91,-398,0,0,0,0,0,0,0,0,0,-1,1133,1422,0,0
-84,-398,0,0,0,0,0,0,0,0,0,-1,1140,1422,0,0
-77,-398,0,0,0,0,0,0,0,0,0,-1,1147,1422,0,0
-70,-398,0,0,0,0,0,0,0,0,0,-1,1154,1422,0,0
-63,-398,0,0,0,0,0,0,0,0,0,-1,1161,1422,0,0
-56,-398,0,0,0,0,0,0,0,0,0,-1,1168,1422,0,0
-49,-398,0,0,0,0,0,0,0,0,0,-1,1175,1422,0,0
-42,-398,0,0,0,0,0,0,0,0,0,-1,1182,1422,0,0
-35,-398,0,0,0,0,0,0,0,0,0,-1,1189,1422,0,0
-28,-398,0,0,0,0,0,0,0,0,0,-1,1196,1422,0,0
-21,-398,0,0,0,0,0,0,0,0,0,-1,1203,1422,0,0
-14,-398,0,0,0,0,0,0,0,0,0,-1,1210,1422,0,0
-7,-398,0,0,0,0,0,0,0,0,0,-1,1217,1422,0,0
0,-398,0,0,0,0,0,0,0,0,0,-1,1224,1422,0,0
7,-398,0,0,0,0,0,0,0,0,0,-1,1231,1422,0,0
14,-398,0,0,0,0,0,0,0,0,0,-1,1238,1422,0,0
21,-398,0,0,0,0,0,0,0,0,0,-1,1245,1422,0,0
28,-398,0,0,0,0,0,0,0,0,0,-1,1252,1422,0,0
35,-398,0,0,0,0,0,0,0,0,0,-1,1259,1422,0,0
42,-398,0,0,0,0,0,0,0,0,0,-1,1266,1422,0,0
49,-398,0,0,0,0,0,0,0,0,0,-1,1273,1422,0,0
56,-398,0,0,0,0,0,0,0,0,0,-1,1280,1422,0,0
63,-398,0,0,0,0,0,0,0,0,0,-1,1287,1422,0,0
70,-398,0,0,0,0,0,0,0,0,0,-1,1294,1422,0,0
77,-398,0,0,0,0,0,0,0,0,0,-1,1301,1422,0,0
84,-398,0,0,0,0,0,0,0,0,0,-1,1308,1422,0,0
91,-398,0,0,0,0,0,0,0,0,0,-1,1315,1422,0,0
98,-398,0,0,0,0,0,0,0,0,0,-1,1322,1422,0,0
105,-398,0,0,0,0,0,0,0,0,0,-1,1329,1422,0,0
112,-398,0,0,0,0,0,0,0,0,0,-1,1336,1422,0,0
119,-398,0,0,0,0,0,0,0,0,0,-1,1343,1422,0,0
126,-398,0,0,0,0,0,0,0,0,0,-1,1350,1422,0,0
133,-398,0,0,0,0,0,0,0,0,0,-1,1357,1422,0,0
140,-398,0,0,0,0,0,0,0,0,0,-1,1364,1422,0,0
147,-398,0,0,0,0,0,0,0,0,0,-1,1371,1422,0,0
154,-398,0,0,0,0,0,0,0,0,0,-1,1378,1422,0,0
161,-398,0,0,0,0,0,0,0,0,0,-1,1385,1422,0,0
168,-398,0,0,0,0,0,0,0,0,0,-1,1392,1422,0,0
175,-398,0,0,0,0,0,0,0,0,0,-1,1399,1422,0,0
182,-398,0,0,0,0,0,0,0,0,0,-1,1406,1422,0,0
189,-398,0,0,0,0,0,0,0,0,0,-1,1413,1422,0,0
196,-398,0,0,0,0,0,0,0,0,0,-1,1420,1422,0,0
203,-398,0,0,0,0,0,0,0,0,0,-1,1427,1422,0,0
210,-398,0,0,0,0,0,0,0,0,0,-1,1434,1422,0,0
217,-398,0,0,0,0,0,0,0,0,0,-1,1441,1422,0,0
224,-398,0,0,0,0,0,0,0,0,0,-1,1448,1422,0,0
231,-398,0,0,0,0,0,0,0,0,0,-1,1455,1422,0,0
238,-398,0,0,0,0,0,0,0,0,0,-1,1462,1422,0,0
245,-398,0,0,0,0,0,0,0,0,0,-1,1469,1422,0,0
252,-398,0,0,0,0,0,0,0,0,0,-1,1476,1422,0,0
259,-398,0,0,0,0,0,0,0,0,0,-1,1483,1422,0,0
266,-398,0,0,0,0,0,0,0,0,0,-1,1490,1422,0,0
273,-398,0,0,0,0,0,0,0,0,0,-1,1497,1422,0,0
280,-398,0,0,0,0,0,0,0,0,0,-1,1504,1422,0,0
287,-398,0,0,0,0,0,0,0,0,0,-1,1511,1422,0,0
294,-398,0,0,0,0,0,0,0,0,0,-1,1518,1422,0,0
301,-398,0,0,0,0,0,0,0,0,0,-1,1525,1422,0,0
308,-398,0,0,0,0,0,0,0,0,0,-1,1532,1422,0,0
315,-398,0,0,0,0,0,0,0,0,0,-1,1539,1422,0,0
322,-398,0,0,0,0,0,0,0,0,0,-1,1546,1422,0,0
329,-398,0,0,0,0,0,0,0,0,0,-1,1553,1422,0,0
336,-398,0,0,0,0,0,0,0,0,0,-1,1560,1422,0,0
343,-398,0,0,0,0,0,0,0,0,0,-1,1567,1422,0,0
350,-398,0,0,0,0,0,0,0,0,0,-1,1574,1422,0,0
357,-398,0,0,0,0,0,0,0,0,0,-1,1581,1422,0,0
364,-398,0,0,0,0,0,0,0,0,0,-1,1588,1422,0,0
371,-398,0,0,0,0,0,0,0,0,0,-1,1595,1422,0,0
378,-398,0,0,0,0,0,0,0,0,0,-1,1602,1422,0,0
385,-398,0,0,0,0,0,0,0,0,0,-1,1609,1422,0,0
392,-398,0,0,0,0,0,0,0,0,0,-1,1616,1422,0,0
399,-398,0,0,0,0,0,0,0,0,0,-1,1623,1422,0,0
406,-398,0,0,0,0,0,0,0,0,0,-1,1630,1422,0,0
413,-398,0,0,0,0,0,0,0,0,0,-1,1637,1422,0,0
420,-398,0,0,0,0,0,0,0,0,0,-1,1644,1422,0,0
427,-398,0,0,0,0,0,0,0,0,0,-1,1651,1422,0,0
434,-398,0,0,0,0,0,0,0,0,0,-1,1658,1422,0,0
441,-398,0,0,0,0,0,0,0,0,0,-1,1665,1422,0,0
448,-398,0,0,0,0,0,0,0,0,0,-1,1672,1422,0,0
455,-398,0,0,0,0,0,0,0,0,0,-1,1679,1422,0,0
462,-398,0,0,0,0,0,0,0,0,0,-1,1686,1422,0,0
469,-398,0,0,0,0,0,0,0,0,0,-1,1693,1422,0,0
476,-398,0,0,0,0,0,0,0,0,0,-1,1700,1422,0,0
483,-398,0,0,0,0,0,0,0,0,0,-1,1707,1422,0,0
490,-398,0,0,0,0,0,0,0,0,0,-1,1714,1422,0,0
497,-398,0,0,0,0,0,0,0,0,0,-1,1721,1422,0,0
504,-398,0,0,0,0,0,0,0,0,0,-1,1728,1422,0,0
511,-398,0,0,0,0,0,0,0,0,0,-1,1735,1422,0,0
518,-398,0,0,0,0,0,0,0,0,0,-1,1742,1422,0,0
525,-398,0,0,0,0,0,0,0,0,0,-1,1749,1422,0,0
532,-398,28.4558,3.84094,0,0,0,0,0,0,0,-1,1756,1422,28.4558,-3.8409
539,-398,27.0594,3.33887,0,0,0,0,0,0,0,-1,1763,1422,27.0595,-3.3389
546,-398,31.6873,5.58582,0,0,0,0,0,0,0,-1,1770,1422,31.6872,-5.58585
553,-398,30.4392,5.92383,0,0,0,0,0,0,0,-1,1777,1422,30.4392,-5.92386
560,-398,29.1621,6.30469,0,0,0,0,0,0,0,-1,1784,1422,29.1621,-6.30469
567,-398,27.8411,6.55029,0,0,0,0,0,0,0,-1,1791,1422,27.8411,-6.55033
574,-398,26.411,6.8916,0,0,0,0,0,0,0,-1,1798,1422,26.411,-6.8916
581,-398,24.75,7.11145,0,0,0,0,0,0,0,-1,1805,1422,24.7499,-7.11142
588,-398,23.1649,7.67969,0,0,0,0,0,0,0,-1,1812,1422,23.1649,-7.67975
595,-398,21.4253,7.86023,0,0,0,0,0,0,0,-1,1819,1422,21.4253,-7.86029
602,-398,19.6857,8.04077,0,0,0,0,0,0,0,-1,1826,1422,19.6856,-8.04083
609,-398,21.1835,13.2628,0,0,0,0,0,0,0,-1,1833,1422,21.1835,-13.2628
616,-398,25.0879,15.3718,0,0,0,0,0,0,0,-1,1840,1422,25.0879,-15.3719
623,-398,25.4288,14.4908,0,0,0,0,0,0,0,-1,1847,1422,25.4288,-14.4909
630,-398,25.4237,13.999,0.000673613,0.000677249,-0.00087338,0.00154881,-0.000197951,-0.786439,0.00110446,0.0134459,1854,1422,25.4237,-13.999
637,-398,25.4166,13.5187,0.000488468,0.000280405,-0.00054749,0.000941723,-0.00017285,-0.69151,0.000692659,0.0146288,1861,1422,25.4166,-13.5186
644,-398,25.3182,13.0857,0.000442177,4.71013e-05,-0.000249472,0.000562849,-7.3571e-05,-0.450531,0.000402007,0.020756,1868,1422,25.3183,-13.0857
651,-398,25.3138,12.6791,0.000526514,-0.000264859,0.000118623,0.000543913,-0.000282258,0.145633,0.000484898,0.0288623,1875,1422,25.3139,-12.6791
658,-398,25.3456,12.1959,0.000649107,-0.000578692,0.000569363,0.000872492,-0.000802078,0.373889,0.000967098,0.0238654,1882,1422,25.3456,-12.1959
665,-398,25.3186,11.6853,0.000799343,-0.0010238,0.00114386,0.00135043,-0.00157489,0.448966,0.00169059,0.0156294,1889,1422,25.3186,-11.6853
672,-398,25.3025,11.2101,0.000975323,-0.00164015,0.00191179,0.00198386,-0.00264868,0.485433,0.00268377,0.0128752,1896,1422,25.3025,-11.2101
679,-398,25.287,10.7352,0.00114621,-0.00252697,0.00294683,0.00278192,-0.00416268,0.506731,0.00403579,0.0122191,1903,1422,25.287,-10.7352
686,-398,25.3169,10.2858,0.00121272,-0.0039825,0.00446539,0.00378109,-0.00655086,0.521963,0.00603618,0.019373,1910,1422,25.3169,-10.2858
693,-398,25.1405,10.161,0.00120125,-0.00584923,0.00641286,0.00499394,-0.00964191,0.534086,0.00859088,0.0477714,1917,1422,25.1405,-10.161
700,-398,24.9576,10.1238,0,0,0,0,0,0,0,-1,1924,1422,24.9576,-10.1238
707,-398,10.9731,5.479,0,0,0,0,0,0,0,-1,1931,1422,10.9732,-5.47896
714,-398,11.7313,6.17346,0,0,0,0,0,0,0,-1,1938,1422,11.7313,-6.17348
721,-398,13.9371,8.05103,0,0,0,0,0,0,0,-1,1945,1422,13.9372,-8.05102
728,-398,14.786,7.0282,0,0,0,0,0,0,0,-1,1952,1422,14.786,-7.0282
735,-398,0,0,0,0,0,0,0,0,0,-1,1959,1422,0,0
742,-398,0,0,0,0,0,0,0,0,0,-1,1966,1422,0,0
749,-398,0,0,0,0,0,0,0,0,0,-1,1973,1422,0,0
756,-398,0,0,0,0,0,0,0,0,0,-1,1980,1422,0,0
763,-398,0,0,0,0,0,0,0,0,0,-1,1987,1422,0,0
770,-398,0,0,0,0,0,0,0,0,0,-1,1994,1422,0,0
777,-398,0,0,0,0,0,0,0,0,0,-1,2001,1422,0,0
784,-398,0,0,0,0,0,0,0,0,0,-1,2008,1422,0,0
791,-398,0,0,0,0,0,0,0,0,0,-1,2015,1422,0,0
798,-398,0,0,0,0,0,0,0,0,0,-1,2022,1422,0,0
805,-398,0,0,0,0,0,0,0,0,0,-1,2029,1422,0,0
812,-398,0,0,0,0,0,0,0,0,0,-1,2036,1422,0,0
-700,-405,0,0,0,0,0,0,0,0,0,-1,524,1429,0,0
-693,-405,0,0,0,0,0,0,0,0,0,-1,531,1429,0,0
-686,-405,0,0,0,0,0,0,0,0,0,-1,538,1429,0,0
-679,-405,0,0,0,0,0,0,0,0,0,-1,545,1429,0,0
-672,-405,0,0,0,0,0,0,0,0,0,-1,552,1429,0,0
-665,-405,0,0,0,0,0,0,0,0,0,-1,559,1429,0,0
-658,-405,0,0,0,0,0,0,0,0,0,-1,566,1429,0,0
-651,-405,0,0,0,0,0,0,0,0,0,-1,573,1429,0,0
-644,-405,0,0,0,0,0,0,0,0,0,-1,580,1429,0,0
-637,-405,0,0,0,0,0,0,0,0,0,-1,587,1429,0,0
-630,-405,0,0,0,0,0,0,0,0,0,-1,594,1429,0,0
-623,-405,0,0,0,0,0,0,0,0,0,-1,601,1429,0,0
-616,-405,0,0,0,0,0,0,0,0,0,-1,608,1429,0,0
-609,-405,0,0,0,0,0,0,0,0,0,-1,615,1429,0,0
-602,-405,-5.80988,-3.46594,0,0,0,0,0,0,0,-1,622,1429,-5.80987,3.46592
-595,-405,-9.35413,2.01477,0,0,0,0,0,0,0,-1,629,1429,-9.35411,-2.01476
-588,-405,-7.35693,0.507202,0,0,0,0,0,0,0,-1,636,1429,-7.35696,-0.507187
-581,-405,-10.1284,1.62927,0,0,0,0,0,0,0,-1,643,1429,-10.1284,-1.62922
-574,-405,-9.32074,3.05896,0,0,0,0,0,0,0,-1,650,1429,-9.32077,-3.0589
-567,-405,-9.68781,6.92163,0,0,0,0,0,0,0,-1,657,1429,-9.68782,-6.92166
-560,-405,-9.28674,7.20886,0,0,0,0,0,0,0,-1,664,1429,-9.28675,-7.20885
-553,-405,-10.9382,8.17639,0,0,0,0,0,0,0,-1,671,1429,-10.9382,-8.17644
-546,-405,-10.9373,8.71619,-0.00518202,-0.000431541,-0.00207189,0.000345125,-0.00595869,-1.21215,0.00409235,0.0380936,678,1429,-10.9373,-8.71617
-539,-405,-10.9267,9.26294,-0.00311009,-0.00036164,-0.0013301,0.000176635,-0.00364836,-1.18625,0.00249321,0.0127664,685,1429,-10.9267,-9.26299
-532,-405,-10.9417,9.79285,-0.00167644,-0.000291985,-0.000816485,8.622e-05,-0.00205465,-1.13701,0.00139939,0.0156435,692,1429,-10.9417,-9.79287
-525,-405,-10.9573,10.3319,-0.000525121,-8.76824e-05,-0.000312973,7.54234e-05,-0.000688227,-1.09037,0.000485914,0.0146832,699,1429,-10.9573,-10.3319
-518,-405,-10.9458,10.8436,0.000516652,0.000341161,0.00028947,0.000731383,0.00012643,0.638237,0.000451386,0.0157498,706,1429,-10.9458,-10.8437
-511,-405,-10.9604,11.3341,0.00160447,0.000891629,0.00100016,0.00230982,0.00018628,0.614231,0.0014817,0.0164484,713,1429,-10.9604,-11.3341
-504,-405,-10.9827,11.8596,0.00258182,0.001665,0.00178604,0.00396735,0.000279478,0.659779,0.00255683,0.0172662,720,1429,-10.9826,-11.8596
-497,-405,-10.9784,12.3973,0.00372523,0.00268551,0.00281531,0.00606828,0.000342464,0.694099,0.00393634,0.0136965,727,1429,-10.9784,-12.3974
-490,-405,-11.0064,12.9119,0.00526017,0.00408782,0.00419637,0.00891111,0.00043688,0.716004,0.0058006,0.0134235,734,1429,-11.0064,-12.9118
-483,-405,-10.9633,13.4902,0.00699553,0.00583434,0.0058761,0.0123196,0.000510221,0.736155,0.00804842,0.0220732,741,1429,-10.9632,-13.4903
-476,-405,-10.8055,14.1923,0,0,0,0,0,0,0,-1,748,1429,-10.8056,-14.1922
-469,-405,-9.65692,12.8171,0,0,0,0,0,0,0,-1,755,1429,-9.65691,-12.8172
-462,-405,-9.14862,11.3597,0,0,0,0,0,0,0,-1,762,1429,-9.14865,-11.3597
-455,-405,-9.021,9.51111,0,0,0,0,0,0,0,-1,769,1429,-9.021,-9.51109
-448,-405,-8.4649,6.82813,0,0,0,0,0,0,0,-1,776,1429,-8.46492,-6.82817
-441,-405,-6.6712,4.23767,0,0,0,0,0,0,0,-1,783,1429,-6.67121,-4.23764
-434,-405,-9.62549,3.94189,0,0,0,0,0,0,0,-1,790,1429,-9.62546,-3.94191
-427,-405,-10.9764,3.73926,0,0,0,0,0,0,0,-1,797,1429,-10.9764,-3.73923
-420,-405,-12.1187,3.68506,0,0,0,0,0,0,0,-1,804,1429,-12.1187,-3.68512
-413,-405,-13.5353,3.75659,0,0,0,0,0,0,0,-1,811,1429,-13.5353,-3.75655
-406,-405,-14.7374,3.99817,0,0,0,0,0,0,0,-1,818,1429,-14.7374,-3.99814
-399,-405,0,0,0,0,0,0,0,0,0,-1,825,1429,0,0
-392,-405,0,0,0,0,0,0,0,0,0,-1,832,1429,0,0
-385,-405,0,0,0,0,0,0,0,0,0,-1,839,1429,0,0
-378,-405,0,0,0,0,0,0,0,0,0,-1,846,1429,0,0
-371,-405,0,0,0,0,0,0,0,0,0,-1,853,1429,0,0
-364,-405,0,0,0,0,0,0,0,0,0,-1,860,1429,0,0
-357,-405,0,0,0,0,0,0,0,0,0,-1,867,1429,0,0
-350,-405,0,0,0,0,0,0,0,0,0,-1,874,1429,0,0
-343,-405,0,0,0,0,0,0,0,0,0,-1,881,1429,0,0
-336,-405,0,0,0,0,0,0,0,0,0,-1,888,1429,0,0
-329,-405,0,0,0,0,0,0,0,0,0,-1,895,1429,0,0
-322,-405,0,0,0,0,0,0,0,0,0,-1,902,1429,0,0
-315,-405,0,0,0,0,0,0,0,0,0,-1,909,1429,0,0
-308,-405,0,0,0,0,0,0,0,0,0,-1,916,1429,0,0
-301,-405,0,0,0,0,0,0,0,0,0,-1,923,1429,0,0
-294,-405,0,0,0,0,0,0,0,0,0,-1,930,1429,0,0
-287,-405,0,0,0,0,0,0,0,0,0,-1,937,1429,0,0
-280,-405,0,0,0,0,0,0,0,0,0,-1,944,1429,0,0
-273,-405,0,0,0,0,0,0,0,0,0,-1,951,1429,0,0
-266,-405,0,0,0,0,0,0,0,0,0,-1,958,1429,0,0
-259,-405,0,0,0,0,0,0,0,0,0,-1,965,1429,0,0
-252,-405,0,0,0,0,0,0,0,0,0,-1,972,1429,0,0
-245,-405,0,0,0,0,0,0,0,0,0,-1,979,1429,0,0
-238,-405,0,0,0,0,0,0,0,0,0,-1,986,1429,0,0
-231,-405,0,0,0,0,0,0,0,0,0,-1,993,1429,0,0
-224,-405,0,0,0,0,0,0,0,0,0,-1,1000,1429,0,0
-217,-405,0,0,0,0,0,0,0,0,0,-1,1007,1429,0,0
-210,-405,0,0,0,0,0,0,0,0,0,-1,1014,1429,0,0
-203,-405,0,0,0,0,0,0,0,0,0,-1,1021,1429,0,0
-196,-405,0,0,0,0,0,0,0,0,0,-1,1028,1429,0,0
-189,-405,0,0,0,0,0,0,0,0,0,-1,1035,1429,0,0
-182,-405,0,0,0,0,0,0,0,0,0,-1,1042,1429,0,0
-175,-405,0,0,0,0,0,0,0,0,0,-1,1049,1429,0,0
-168,-405,0,0,0,0,0,0,0,0,0,-1,1056,1429,0,0
-161,-405,0,0,0,0,0,0,0,0,0,-1,1063,1429,0,0
-154,-405,0,0,0,0,0,0,0,0,0,-1,1070,1429,0,0
-147,-405,0,0,0,0,0,0,0,0,0,-1,1077,1429,0,0
-140,-405,0,0,0,0,0,0,0,0,0,-1,1084,1429,0,0
-133,-405,0,0,0,0,0,0,0,0,0,-1,1091,1429,0,0
-126,-405,0,0,0,0,0,0,0,0,0,-1,1098,1429,0,0
-119,-405,0,0,0,0,0,0,0,0,0,-1,1105,1429,0,0
-112,-405,0,0,0,0,0,0,0,0,0,-1,1112,1429,0,0
-105,-405,0,0,0,0,0,0,0,0,0,-1,1119,1429,0,0
-98,-405,0,0,0,0,0,0,0,0,0,-1,1126,1429,0,0
-91,-405,0,0,0,0,0,0,0,0,0,-1,1133,1429,0,0
-84,-405,0,0,0,0,0,0,0,0,0,-1,1140,1429,0,0
-77,-405,0,0,0,0,0,0,0,0,0,-1,1147,1429,0,0
-70,-405,0,0,0,0,0,0,0,0,0,-1,1154,1429,0,0
-63,-405,0,0,0,0,0,0,0,0,0,-1,1161,1429,0,0
-56,-405,0,0,0,0,0,0,0,0,0,-1,1168,1429,0,0
-49,-405,0,0,0,0,0,0,0,0,0,-1,1175,1429,0,0
-42,-405,0,0,0,0,0,0,0,0,0,-1,1182,1429,0,0
-35,-405,0,0,0,0,0,0,0,0,0,-1,1189,1429,0,0
-28,-405,0,0,0,0,0,0,0,0,0,-1,1196,1429,0,0
-21,-405,0,0,0,0,0,0,0,0,0,-1,1203,1429,0,0
-14,-405,0,0,0,0,0,0,0,0,0,-1,1210,1429,0,0
-7,-405,0,0,0,0,0,0,0,0,0,-1,1217,1429,0,0
0,-405,0,0,0,0,0,0,0,0,0,-1,1224,1429,0,0
7,-405,0,0,0,0,0,0,0,0,0,-1,1231,1429,0,0
14,-405,0,0,0,0,0,0,0,0,0,-1,1238,1429,0,0
21,-405,0,0,0,0,0,0,0,0,0,-1,1245,1429,0,0
28,-405,0,0,0,0,0,0,0,0,0,-1,1252,1429,0,0
35,-405,0,0,0,0,0,0,0,0,0,-1,1259,1429,0,0
42,-405,0,0,0,0,0,0,0,0,0,-1,1266,1429,0,0
49,-405,0,0,0,0,0,0,0,0,0,-1,1273,1429,0,0
56,-405,0,0,0,0,0,0,0,0,0,-1,1280,1429,0,0
63,-405,0,0,0,0,0,0,0,0,0,-1,1287,1429,0,0
70,-405,0,0,0,0,0,0,0,0,0,-1,1294,1429,0,0
77,-405,0,0,0,0,0,0,0,0,0,-1,1301,1429,0,0
84,-405,0,0,0,0,0,0,0,0,0,-1,1308,1429,0,0
91,-405,0,0,0,0,0,0,0,0,0,-1,1315,1429,0,0
98,-405,0,0,0,0,0,0,0,0,0,-1,1322,1429,0,0
105,-405,0,0,0,0,0,0,0,0,0,-1,1329,1429,0,0
112,-405,0,0,0,0,0,0,0,0,0,-1,1336,1429,0,0
119,-405,0,0,0,0,0,0,0,0,0,-1,1343,1429,0,0
126,-405,0,0,0,0,0,0,0,0,0,-1,1350,1429,0,0
133,-405,0,0,0,0,0,0,0,0,0,-1,1357,1429,0,0
140,-405,0,0,0,0,0,0,0,0,0,-1,1364,1429,0,0
147,-405,0,0,0,0,0,0,0,0,0,-1,1371,1429,0,0
154,-405,0,0,0,0,0,0,0,0,0,-1,1378,1429,0,0
161,-405,0,0,0,0,0,0,0,0,0,-1,1385,1429,0,0
168,-405,0,0,0,0,0,0,0,0,0,-1,1392,1429,0,0
175,-405,0,0,0,0,0,0,0,0,0,-1,1399,1429,0,0
182,-405,0,0,0,0,0,0,0,0,0,-1,1406,1429,0,0
189,-405,0,0,0,0,0,0,0,0,0,-1,1413,1429,0,0
196,-405,0,0,0,0,0,0,0,0,0,-1,1420,1429,0,0
203,-405,0,0,0,0,0,0,0,0,0,-1,1427,1429,0,0
210,-405,0,0,0,0,0,0,0,0,0,-1,1434,1429,0,0
217,-405,0,0,0,0,0,0,0,0,0,-1,1441,1429,0,0
224,-405,0,0,0,0,0,0,0,0,0,-1,1448,1429,0,0
231,-405,0,0,0,0,0,0,0,0,0,-1,1455,1429,0,0
238,-405,0,0,0,0,0,0,0,0,0,-1,1462,1429,0,0
245,-405,0,0,0,0,0,0,0,0,0,-1,1469,1429,0,0
252,-405,0,0,0,0,0,0,0,0,0,-1,1476,1429,0,0
259,-405,0,0,0,0,0,0,0,0,0,-1,1483,1429,0,0
266,-405,0,0,0,0,0,0,0,0,0,-1,1490,1429,0,0
273,-405,0,0,0,0,0,0,0,0,0,-1,1497,1429,0,0
280,-405,0,0,0,0,0,0,0,0,0,-1,1504,1429,0,0
287,-405,0,0,0,0,0,0,0,0,0,-1,1511,1429,0,0
294,-405,0,0,0,0,0,0,0,0,0,-1,1518,1429,0,0
301,-405,0,0,0,0,0,0,0,0,0,-1,1525,1429,0,0
308,-405,0,0,0,0,0,0,0,0,0,-1,1532,1429,0,0
315,-405,0,0,0,0,0,0,0,0,0,-1,1539,1429,0,0
322,-405,0,0,0,0,0,0,0,0,0,-1,1546,1429,0,0
329,-405,0,0,0,0,0,0,0,0,0,-1,1553,1429,0,0
336,-405,0,0,0,0,0,0,0,0,0,-1,1560,1429,0,0
343,-405,0,0,0,0,0,0,0,0,0,-1,1567,1429,0,0
350,-405,0,0,0,0,0,0,0,0,0,-1,1574,1429,0,0
357,-405,0,0,0,0,0,0,0,0,0,-1,1581,1429,0,0
364,-405,0,0,0,0,0,0,0,0,0,-1,1588,1429,0,0
371,-405,0,0,0,0,0,0,0,0,0,-1,1595,1429,0,0
378,-405,0,0,0,0,0,0,0,0,0,-1,1602,1429,0,0
385,-405,0,0,0,0,0,0,0,0,0,-1,1609,1429,0,0
392,-405,0,0,0,0,0,0,0,0,0,-1,1616,1429,0,0
399,-405,0,0,0,0,0,0,0,0,0,-1,1623,1429,0,0
406,-405,0,0,0,0,0,0,0,0,0,-1,1630,1429,0,0
413,-405,0,0,0,0,0,0,0,0,0,-1,1637,1429,0,0
420,-405,0,0,0,0,0,0,0,0,0,-1,1644,1429,0,0
427,-405,0,0,0,0,0,0,0,0,0,-1,1651,1429,0,0
434,-405,0,0,0,0,0,0,0,0,0,-1,1658,1429,0,0
441,-405,0,0,0,0,0,0,0,0,0,-1,1665,1429,0,0
448,-405,0,0,0,0,0,0,0,0,0,-1,1672,1429,0,0
455,-405,0,0,0,0,0,0,0,0,0,-1,1679,1429,0,0
462,-405,0,0,0,0,0,0,0,0,0,-1,1686,1429,0,0
469,-405,0,0,0,0,0,0,0,0,0,-1,1693,1429,0,0
476,-405,0,0,0,0,0,0,0,0,0,-1,1700,1429,0,0
483,-405,0,0,0,0,0,0,0,0,0,-1,1707,1429,0,0
490,-405,0,0,0,0,0,0,0,0,0,-1,1714,1429,0,0
497,-405,0,0,0,0,0,0,0,0,0,-1,1721,1429,0,0
504,-405,0,0,0,0,0,0,0,0,0,-1,1728,1429,0,0
511,-405,0,0,0,0,0,0,0,0,0,-1,1735,1429,0,0
518,-405,0,0,0,0,0,0,0,0,0,-1,1742,1429,0,0
525,-405,31.1563,-1.40942,0,0,0,0,0,0,0,-1,1749,1429,31.1563,1.40937
532,-405,28.156,4.8783,0,0,0,0,0,0,0,-1,1756,1429,28.1561,-4.87833
539,-405,26.5133,3.02454,0,0,0,0,0,0,0,-1,1763,1429,26.5133,-3.0246
546,-405,29.5735,6.53052,0,0,0,0,0,0,0,-1,1770,1429,29.5735,-6.53049
553,-405,28.2911,6.70654,0,0,0,0,0,0,0,-1,1777,1429,28.2912,-6.70656
560,-405,26.9299,7.08472,0,0,0,0,0,0,0,-1,1784,1429,26.9299,-7.08469
567,-405,25.804,7.14661,0,0,0,0,0,0,0,-1,1791,1429,25.8039,-7.14665
574,-405,25.1151,8.07971,0,0,0,0,0,0,0,-1,1798,1429,25.1151,-8.07965
581,-405,23.5055,8.505,0,0,0,0,0,0,0,-1,1805,1429,23.5054,-8.50501
588,-405,21.7491,8.98254,0,0,0,0,0,0,0,-1,1812,1429,21.7491,-8.98254
595,-405,21.6327,10.7795,0,0,0,0,0,0,0,-1,1819,1429,21.6327,-10.7796
602,-405,21.6461,13.9199,0,0,0,0,0,0,0,-1,1826,1429,21.6461,-13.92
609,-405,24.6504,15.7338,0,0,0,0,0,0,0,-1,1833,1429,24.6504,-15.7337
616,-405,24.8743,15.1635,0.00202686,0.00247085,-0.00217697,0.00443711,6.05998e-05,-0.83621,0.00293808,0.0346375,1840,1429,24.8743,-15.1635
623,-405,24.9172,14.5686,0.00138377,0.00136116,-0.00138848,0.00276099,-1.60588e-05,-0.781328,0.00184604,0.0125316,1847,1429,24.9172,-14.5686
630,-405,24.9304,14.0441,0.000999721,0.000694978,-0.000865179,0.00172584,-3.11444e-05,-0.698234,0.00116108,0.0107129,1854,1429,24.9304,-14.044
637,-405,24.9252,13.5596,0.000785293,0.000265731,-0.000534602,0.00111989,-6.8867e-05,-0.559233,0.000770576,0.0117249,1861,1429,24.9252,-13.5595
644,-405,24.7816,13.1639,0.000697201,4.12787e-07,-0.000227623,0.000764968,-6.73551e-05,-0.289363,0.000533849,0.0288992,1868,1429,24.7816,-13.1639
651,-405,24.708,12.7853,0.000735602,-0.000261646,9.92191e-05,0.000745377,-0.000271422,0.0982101,0.000607936,0.0327967,1875,1429,24.708,-12.7853
658,-405,24.8306,12.2284,0.000768708,-0.000506767,0.000517827,0.000952465,-0.000690525,0.341,0.000952591,0.0247972,1882,1429,24.8305,-12.2284
665,-405,24.8468,11.7178,0.000808175,-0.000874571,0.00107894,0.00133502,-0.00140142,0.454243,0.00158004,0.0194314,1889,1429,24.8468,-11.7178
672,-405,24.8589,11.2488,0.000828213,-0.00139869,0.00186524,0.00188706,-0.00245754,0.516312,0.00251556,0.0233884,1896,1429,24.8589,-11.2488
679,-405,24.8499,10.7485,0.000774218,-0.00227041,0.00300243,0.00261821,-0.00411441,0.550771,0.00391894,0.022576,1903,1429,24.8498,-10.7485
686,-405,24.7454,10.3669,0.000481894,-0.00387145,0.00479794,0.00357382,-0.00696337,0.572448,0.00618768,0.039364,1910,1429,24.7453,-10.3669
693,-405,24.5155,10.0371,0,0,0,0,0,0,0,-1,1917,1429,24.5156,-10.0371
700,-405,9.1958,4.02026,0,0,0,0,0,0,0,-1,1924,1429,9.19579,-4.02025
707,-405,7.40308,3.83191,0,0,0,0,0,0,0,-1,1931,1429,7.40311,-3.83194
714,-405,7.33252,3.47388,0,0,0,0,0,0,0,-1,1938,1429,7.33255,-3.47383
721,-405,9.23523,0.993896,0,0,0,0,0,0,0,-1,1945,1429,9.23523,-0.993884
728,-405,0,0,0,0,0,0,0,0,0,-1,1952,1429,0,0
735,-405,0,0,0,0,0,0,0,0,0,-1,1959,1429,0,0
742,-405,0,0,0,0,0,0,0,0,0,-1,1966,1429,0,0
749,-405,0,0,0,0,0,0,0,0,0,-1,1973,1429,0,0
756,-405,0,0,0,0,0,0,0,0,0,-1,1980,1429,0,0
763,-405,0,0,0,0,0,0,0,0,0,-1,1987,1429,0,0
770,-405,0,0,0,0,0,0,0,0,0,-1,1994,1429,0,0
777,-405,0,0,0,0,0,0,0,0,0,-1,2001,1429,0,0
784,-405,0,0,0,0,0,0,0,0,0,-1,2008,1429,0,0
791,-405,0,0,0,0,0,0,0,0,0,-1,2015,1429,0,0
798,-405,0,0,0,0,0,0,0,0,0,-1,2022,1429,0,0
805,-405,0,0,0,0,0,0,0,0,0,-1,2029,1429,0,0
812,-405,0,0,0,0,0,0,0,0,0,-1,2036,1429,0,0
-700,-412,0,0,0,0,0,0,0,0,0,-1,524,1436,0,0
-693,-412,0,0,0,0,0,0,0,0,0,-1,531,1436,0,0
-686,-412,0,0,0,0,0,0,0,0,0,-1,538,1436,0,0
-679,-412,0,0,0,0,0,0,0,0,0,-1,545,1436,0,0
-672,-412,0,0,0,0,0,0,0,0,0,-1,552,1436,0,0
-665,-412,0,0,0,0,0,0,0,0,0,-1,559,1436,0,0
-658,-412,0,0,0,0,0,0,0,0,0,-1,566,1436,0,0
-651,-412,0,0,0,0,0,0,0,0,0,-1,573,1436,0,0
-644,-412,0,0,0,0,0,0,0,0,0,-1,580,1436,0,0
-637,-412,0,0,0,0,0,0,0,0,0,-1,587,1436,0,0
-630,-412,0,0,0,0,0,0,0,0,0,-1,594,1436,0,0
-623,-412,0,0,0,0,0,0,0,0,0,-1,601,1436,0,0
-616,-412,0,0,0,0,0,0,0,0,0,-1,608,1436,0,0
-609,-412,0,0,0,0,0,0,0,0,0,-1,615,1436,0,0
-602,-412,-3.72766,-3.50012,0,0,0,0,0,0,0,-1,622,1436,-3.72764,3.50017
-595,-412,-10.3706,0.65564,0,0,0,0,0,0,0,-1,629,1436,-10.3706,-0.655672
-588,-412,-8.17957,1.94934,0,0,0,0,0,0,0,-1,636,1436,-8.17956,-1.94939
-581,-412,-6.60065,-0.0554199,0,0,0,0,0,0,0,-1,643,1436,-6.60063,0.0554733
-574,-412,-8.34131,5.25012,0,0,0,0,0,0,0,-1,650,1436,-8.34129,-5.25012
-567,-412,-7.50354,3.65454,0,0,0,0,0,0,0,-1,657,1436,-7.50356,-3.65452
-560,-412,-8.52448,7.39014,0,0,0,0,0,0,0,-1,664,1436,-8.52447,-7.39019
-553,-412,-7.36761,6.54651,0,0,0,0,0,0,0,-1,671,1436,-7.36763,-6.54654
-546,-412,-10.3817,8.76123,0,0,0,0,0,0,0,-1,678,1436,-10.3817,-8.76125
-539,-412,-10.3655,9.22046,-0.00350826,-0.000541675,-0.0015598,0.000127501,-0.00417743,-1.16553,0.00282841,0.0227161,685,1436,-10.3656,-9.22047
-532,-412,-10.3969,9.82861,-0.00220138,-0.000528683,-0.00111166,2.61089e-05,-0.00275617,-1.1079,0.00184621,0.0146035,692,1436,-10.3969,-9.82857
-525,-412,-10.4257,10.3668,-0.00117912,-0.00039019,-0.000689145,9.39984e-06,-0.00157871,-1.04534,0.00105562,0.0155169,699,1436,-10.4257,-10.3668
-518,-412,-10.4233,10.8589,-0.000234032,-1.57698e-05,-0.00014835,5.92658e-05,-0.000309068,-1.10252,0.000228378,0.0166472,706,1436,-10.4234,-10.8589
-511,-412,-10.459,11.3534,0.000784276,0.000518683,0.000520324,0.00118848,0.000114476,0.660456,0.000757053,0.0199976,713,1436,-10.459,-11.3534
-504,-412,-10.4976,11.8955,0.00170681,0.00127235,0.00126315,0.00277127,0.000207892,0.700245,0.00178226,0.0193944,720,1436,-10.4976,-11.8956
-497,-412,-10.5056,12.428,0.00279655,0.0022525,0.00222938,0.00477044,0.000278614,0.724689,0.00309161,0.0147093,727,1436,-10.5056,-12.428
-490,-412,-10.5161,12.9265,0.00422649,0.00359164,0.0035194,0.00744275,0.000375376,0.740423,0.00484156,0.0137283,734,1436,-10.5161,-12.9266
-483,-412,-10.5315,13.4143,0.00588532,0.00521862,0.00507293,0.0106358,0.000468104,0.752589,0.00693979,0.0104726,741,1436,-10.5315,-13.4143
-476,-412,-10.3925,14.1239,0.0079131,0.007304,0.0070648,0.0146799,0.000537183,0.763857,0.00961255,0.0316734,748,1436,-10.3925,-14.1239
-469,-412,-10.3063,14.8513,0,0,0,0,0,0,0,-1,755,1436,-10.3063,-14.8513
-462,-412,-8.94659,13.3385,0,0,0,0,0,0,0,-1,762,1436,-8.94657,-13.3385
-455,-412,-8.25006,11.2572,0,0,0,0,0,0,0,-1,769,1436,-8.25007,-11.2572
-448,-412,-7.38086,8.78186,0,0,0,0,0,0,0,-1,776,1436,-7.38088,-8.78183
-441,-412,-8.79523,9.05286,0,0,0,0,0,0,0,-1,783,1436,-8.79521,-9.0529
-434,-412,-10.6305,8.03577,0,0,0,0,0,0,0,-1,790,1436,-10.6305,-8.0358
-427,-412,-10.0004,5.15271,0,0,0,0,0,0,0,-1,797,1436,-10.0004,-5.15266
-420,-412,-10.4468,4.9043,0,0,0,0,0,0,0,-1,804,1436,-10.4468,-4.90429
-413,-412,-11.5704,4.97766,0,0,0,0,0,0,0,-1,811,1436,-11.5704,-4.97771
-406,-412,-13.1968,5.70093,0,0,0,0,0,0,0,-1,818,1436,-13.1968,-5.70096
-399,-412,-10.5506,0.771973,0,0,0,0,0,0,0,-1,825,1436,-10.5506,-0.771954
-392,-412,0,0,0,0,0,0,0,0,0,-1,832,1436,0,0
-385,-412,0,0,0,0,0,0,0,0,0,-1,839,1436,0,0
-378,-412,0,0,0,0,0,0,0,0,0,-1,846,1436,0,0
-371,-412,0,0,0,0,0,0,0,0,0,-1,853,1436,0,0
-364,-412,0,0,0,0,0,0,0,0,0,-1,860,1436,0,0
-357,-412,0,0,0,0,0,0,0,0,0,-1,867,1436,0,0
-350,-412,0,0,0,0,0,0,0,0,0,-1,874,1436,0,0
-343,-412,0,0,0,0,0,0,0,0,0,-1,881,1436,0,0
-336,-412,0,0,0,0,0,0,0,0,0,-1,888,1436,0,0
-329,-412,0,0,0,0,0,0,0,0,0,-1,895,1436,0,0
-322,-412,0,0,0,0,0,0,0,0,0,-1,902,1436,0,0
-315,-412,0,0,0,0,0,0,0,0,0,-1,909,1436,0,0
-308,-412,0,0,0,0,0,0,0,0,0,-1,916,1436,0,0
-301,-412,0,0,0,0,0,0,0,0,0,-1,923,1436,0,0
-294,-412,0,0,0,0,0,0,0,0,0,-1,930,1436,0,0
-287,-412,0,0,0,0,0,0,0,0,0,-1,937,1436,0,0
-280,-412,0,0,0,0,0,0,0,0,0,-1,944,1436,0,0
-273,-412,0,0,0,0,0,0,0,0,0,-1,951,1436,0,0
-266,-412,0,0,0,0,0,0,0,0,0,-1,958,1436,0,0
-259,-412,0,0,0,0,0,0,0,0,0,-1,965,1436,0,0
-252,-412,0,0,0,0,0,0,0,0,0,-1,972,1436,0,0
-245,-412,0,0,0,0,0,0,0,0,0,-1,979,1436,0,0
-238,-412,0,0,0,0,0,0,0,0,0,-1,986,1436,0,0
-231,-412,0,0,0,0,0,0,0,0,0,-1,993,1436,0,0
-224,-412,0,0,0,0,0,0,0,0,0,-1,1000,1436,0,0
-217,-412,0,0,0,0,0,0,0,0,0,-1,1007,1436,0,0
-210,-412,0,0,0,0,0,0,0,0,0,-1,1014,1436,0,0
-203,-412,0,0,0,0,0,0,0,0,0,-1,1021,1436,0,0
-196,-412,0,0,0,0,0,0,0,0,0,-1,1028,1436,0,0
-189,-412,0,0,0,0,0,0,0,0,0,-1,1035,1436,0,0
-182,-412,0,0,0,0,0,0,0,0,0,-1,1042,1436,0,0
-175,-412,0,0,0,0,0,0,0,0,0,-1,1049,1436,0,0
-168,-412,0,0,0,0,0,0,0,0,0,-1,1056,1436,0,0
-161,-412,0,0,0,0,0,0,0,0,0,-1,1063,1436,0,0
-154,-412,0,0,0,0,0,0,0,0,0,-1,1070,1436,0,0
-147,-412,0,0,0,0,0,0,0,0,0,-1,1077,1436,0,0
-140,-412,0,0,0,0,0,0,0,0,0,-1,1084,1436,0,0
-133,-412,0,0,0,0,0,0,0,0,0,-1,1091,1436,0,0
-126,-412,0,0,0,0,0,0,0,0,0,-1,1098,1436,0,0
-119,-412,0,0,0,0,0,0,0,0,0,-1,1105,1436,0,0
-112,-412,0,0,0,0,0,0,0,0,0,-1,1112,1436,0,0
-105,-412,0,0,0,0,0,0,0,0,0,-1,1119,1436,0,0
-98,-412,0,0,0,0,0,0,0,0,0,-1,1126,1436,0,0
-91,-412,0,0,0,0,0,0,0,0,0,-1,1133,1436,0,0
-84,-412,0,0,0,0,0,0,0,0,0,-1,1140,1436,0,0
-77,-412,0,0,0,0,0,0,0,0,0,-1,1147,1436,0,0
-70,-412,0,0,0,0,0,0,0,0,0,-1,1154,1436,0,0
-63,-412,0,0,0,0,0,0,0,0,0,-1,1161,1436,0,0
-56,-412,0,0,0,0,0,0,0,0,0,-1,1168,1436,0,0
-49,-412,0,0,0,0,0,0,0,0,0,-1,1175,1436,0,0
-42,-412,0,0,0,0,0,0,0,0,0,-1,1182,1436,0,0
-35,-412,0,0,0,0,0,0,0,0,0,-1,1189,1436,0,0
-28,-412,0,0,0,0,0,0,0,0,0,-1,1196,1436,0,0
-21,-412,0,0,0,0,0,0,0,0,0,-1,1203,1436,0,0
-14,-412,0,0,0,0,0,0,0,0,0,-1,1210,1436,0,0
-7,-412,0,0,0,0,0,0,0,0,0,-1,1217,1436,0,0
0,-412,0,0,0,0,0,0,0,0,0,-1,1224,1436,0,0
7,-412,0,0,0,0,0,0,0,0,0,-1,1231,1436,0,0
14,-412,0,0,0,0,0,0,0,0,0,-1,1238,1436,0,0
21,-412,0,0,0,0,0,0,0,0,0,-1,1245,1436,0,0
28,-412,0,0,0,0,0,0,0,0,0,-1,1252,1436,0,0
35,-412,0,0,0,0,0,0,0,0,0,-1,1259,1436,0,0
42,-412,0,0,0,0,0,0,0,0,0,-1,1266,1436,0,0
49,-412,0,0,0,0,0,0,0,0,0,-1,1273,1436,0,0
56,-412,0,0,0,0,0,0,0,0,0,-1,1280,1436,0,0
63,-412,0,0,0,0,0,0,0,0,0,-1,1287,1436,0,0
70,-412,0,0,0,0,0,0,0,0,0,-1,1294,1436,0,0
77,-412,0,0,0,0,0,0,0,0,0,-1,1301,1436,0,0
84,-412,0,0,0,0,0,0,0,0,0,-1,1308,1436,0,0
91,-412,0,0,0,0,0,0,0,0,0,-1,1315,1436,0,0
98,-412,0,0,0,0,0,0,0,0,0,-1,1322,1436,0,0
105,-412,0,0,0,0,0,0,0,0,0,-1,1329,1436,0,0
112,-412,0,0,0,0,0,0,0,0,0,-1,1336,1436,0,0
119,-412,0,0,0,0,0,0,0,0,0,-1,1343,1436,0,0
126,-412,0,0,0,0,0,0,0,0,0,-1,1350,1436,0,0
133,-412,0,0,0,0,0,0,0,0,0,-1,1357,1436,0,0
140,-412,0,0,0,0,0,0,0,0,0,-1,1364,1436,0,0
147,-412,0,0,0,0,0,0,0,0,0,-1,1371,1436,0,0
154,-412,0,0,0,0,0,0,0,0,0,-1,1378,1436,0,0
161,-412,0,0,0,0,0,0,0,0,0,-1,1385,1436,0,0
168,-412,0,0,0,0,0,0,0,0,0,-1,1392,1436,0,0
175,-412,0,0,0,0,0,0,0,0,0,-1,1399,1436,0,0
182,-412,0,0,0,0,0,0,0,0,0,-1,1406,1436,0,0
189,-412,0,0,0,0,0,0,0,0,0,-1,1413,1436,0,0
196,-412,0,0,0,0,0,0,0,0,0,-1,1420,1436,0,0
203,-412,0,0,0,0,0,0,0,0,0,-1,1427,1436,0,0
210,-412,0,0,0,0,0,0,0,0,0,-1,1434,1436,0,0
217,-412,0,0,0,0,0,0,0,0,0,-1,1441,1436,0,0
224,-412,0,0,0,0,0,0,0,0,0,-1,1448,1436,0,0
231,-412,0,0,0,0,0,0,0,0,0,-1,1455,1436,0,0
238,-412,0,0,0,0,0,0,0,0,0,-1,1462,1436,0,0
245,-412,0,0,0,0,0,0,0,0,0,-1,1469,1436,0,0
252,-412,0,0,0,0,0,0,0,0,0,-1,1476,1436,0,0
259,-412,0,0,0,0,0,0,0,0,0,-1,1483,1436,0,0
266,-412,0,0,0,0,0,0,0,0,0,-1,1490,1436,0,0
273,-412,0,0,0,0,0,0,0,0,0,-1,1497,1436,0,0
280,-412,0,0,0,0,0,0,0,0,0,-1,1504,1436,0,0
287,-412,0,0,0,0,0,0,0,0,0,-1,1511,1436,0,0
294,-412,0,0,0,0,0,0,0,0,0,-1,1518,1436,0,0
301,-412,0,0,0,0,0,0,0,0,0,-1,1525,1436,0,0
308,-412,0,0,0,0,0,0,0,0,0,-1,1532,1436,0,0
315,-412,0,0,0,0,0,0,0,0,0,-1,1539,1436,0,0
322,-412,0,0,0,0,0,0,0,0,0,-1,1546,1436,0,0
329,-412,0,0,0,0,0,0,0,0,0,-1,1553,1436,0,0
336,-412,0,0,0,0,0,0,0,0,0,-1,1560,1436,0,0
343,-412,0,0,0,0,0,0,0,0,0,-1,1567,1436,0,0
350,-412,0,0,0,0,0,0,0,0,0,-1,1574,1436,0,0
357,-412,0,0,0,0,0,0,0,0,0,-1,1581,1436,0,0
364,-412,0,0,0,0,0,0,0,0,0,-1,1588,1436,0,0
371,-412,0,0,0,0,0,0,0,0,0,-1,1595,1436,0,0
378,-412,0,0,0,0,0,0,0,0,0,-1,1602,1436,0,0
385,-412,0,0,0,0,0,0,0,0,0,-1,1609,1436,0,0
392,-412,0,0,0,0,0,0,0,0,0,-1,1616,1436,0,0
399,-412,0,0,0,0,0,0,0,0,0,-1,1623,1436,0,0
406,-412,0,0,0,0,0,0,0,0,0,-1,1630,1436,0,0
413,-412,0,0,0,0,0,0,0,0,0,-1,1637,1436,0,0
420,-412,0,0,0,0,0,0,0,0,0,-1,1644,1436,0,0
427,-412,0,0,0,0,0,0,0,0,0,-1,1651,1436,0,0
434,-412,0,0,0,0,0,0,0,0,0,-1,1658,1436,0,0
441,-412,0,0,0,0,0,0,0,0,0,-1,1665,1436,0,0
448,-412,0,0,0,0,0,0,0,0,0,-1,1672,1436,0,0
455,-412,0,0,0,0,0,0,0,0,0,-1,1679,1436,0,0
462,-412,0,0,0,0,0,0,0,0,0,-1,1686,1436,0,0
469,-412,0,0,0,0,0,0,0,0,0,-1,1693,1436,0,0
476,-412,0,0,0,0,0,0,0,0,0,-1,1700,1436,0,0
483,-412,0,0,0,0,0,0,0,0,0,-1,1707,1436,0,0
490,-412,0,0,0,0,0,0,0,0,0,-1,1714,1436,0,0
497,-412,0,0,0,0,0,0,0,0,0,-1,1721,1436,0,0
504,-412,0,0,0,0,0,0,0,0,0,-1,1728,1436,0,0
511,-412,0,0,0,0,0,0,0,0,0,-1,1735,1436,0,0
518,-412,30.1038,-2.43384,0,0,0,0,0,0,0,-1,1742,1436,30.1038,2.43383
525,-412,29.5283,-1.42493,0,0,0,0,0,0,0,-1,1749,1436,29.5283,1.42495
532,-412,28.8533,-0.386597,0,0,0,0,0,0,0,-1,1756,1436,28.8533,0.386632
539,-412,25.8654,2.74683,0,0,0,0,0,0,0,-1,1763,1436,25.8654,-2.74685
546,-412,25.4265,2.4342,0,0,0,0,0,0,0,-1,1770,1436,25.4265,-2.4342
553,-412,26.3595,7.49255,0,0,0,0,0,0,0,-1,1777,1436,26.3595,-7.4925
560,-412,24.9116,7.94324,0,0,0,0,0,0,0,-1,1784,1436,24.9116,-7.94327
567,-412,23.668,7.94531,0,0,0,0,0,0,0,-1,1791,1436,23.6679,-7.94534
574,-412,23.0142,9.17236,0,0,0,0,0,0,0,-1,1798,1436,23.0141,-9.17235
581,-412,22.2615,10.0349,0,0,0,0,0,0,0,-1,1805,1436,22.2615,-10.0349
588,-412,21.6893,10.8069,0,0,0,0,0,0,0,-1,1812,1436,21.6893,-10.8069
595,-412,21.5137,14.3157,0,0,0,0,0,0,0,-1,1819,1436,21.5137,-14.3157
602,-412,24.2916,16.2505,0,0,0,0,0,0,0,-1,1826,1436,24.2916,-16.2505
609,-412,24.431,15.5485,0.00270952,0.00379589,-0.00297691,0.00627877,0.000226646,-0.875638,0.00411238,0.0271036,1833,1436,24.4311,-15.5484
616,-412,24.4775,15.0405,0.00196176,0.00230732,-0.00200637,0.00414833,0.000120749,-0.828351,0.0027262,0.0109961,1840,1436,24.4775,-15.0405
623,-412,24.4482,14.5603,0.00146171,0.00137191,-0.00135691,0.00277446,5.91628e-05,-0.768858,0.00183024,0.00930461,1847,1436,24.4482,-14.5603
630,-412,24.4625,14.0457,0.00115575,0.000739326,-0.000909909,0.00188097,1.41121e-05,-0.672921,0.0012493,0.0115371,1854,1436,24.4625,-14.0456
637,-412,24.4581,13.5742,0.000956661,0.000312704,-0.000576366,0.00129489,-2.55203e-05,-0.530674,0.000871888,0.0139534,1861,1436,24.4581,-13.5742
644,-412,24.4382,13.105,0.0008713,3.32594e-05,-0.000267215,0.000949253,-4.46928e-05,-0.283844,0.000648246,0.0154864,1868,1436,24.4382,-13.105
651,-412,24.3635,12.6637,0.000906101,-0.00017917,2.18149e-05,0.00090654,-0.000179608,0.02009,0.000672275,0.0275974,1875,1436,24.3635,-12.6637
658,-412,24.3842,12.1984,0.000919,-0.000354428,0.0003862,0.00102697,-0.000462398,0.272612,0.00088024,0.0191949,1882,1436,24.3842,-12.1983
665,-412,24.3802,11.7684,0.000918204,-0.000630253,0.000902428,0.00133301,-0.00104506,0.430855,0.00137633,0.0238631,1889,1436,24.3803,-11.7685
672,-412,24.4023,11.2802,0.000856144,-0.00101766,0.00165229,0.00181868,-0.00198019,0.527486,0.00219394,0.0283594,1896,1436,24.4024,-11.2801
679,-412,24.4296,10.7643,0.000651025,-0.00181643,0.00281825,0.00249376,-0.00365916,0.579083,0.00357357,0.0415297,1903,1436,24.4295,-10.7643
686,-412,24.2268,10.33,0,0,0,0,0,0,0,-1,1910,1436,24.2269,-10.3299
693,-412,11.9346,6.02344,0,0,0,0,0,0,0,-1,1917,1436,11.9346,-6.02343
700,-412,8.82764,5.8844,0,0,0,0,0,0,0,-1,1924,1436,8.82761,-5.88444
707,-412,6.59998,1.68994,0,0,0,0,0,0,0,-1,1931,1436,6.60002,-1.68995
714,-412,4.77283,-2.39832,0,0,0,0,0,0,0,-1,1938,1436,4.77288,2.39835
721,-412,0,0,0,0,0,0,0,0,0,-1,1945,1436,0,0
728,-412,0,0,0,0,0,0,0,0,0,-1,1952,1436,0,0
735,-412,0,0,0,0,0,0,0,0,0,-1,1959,1436,0,0
742,-412,0,0,0,0,0,0,0,0,0,-1,1966,1436,0,0
749,-412,0,0,0,0,0,0,0,0,0,-1,1973,1436,0,0
756,-412,0,0,0,0,0,0,0,0,0,-1,1980,1436,0,0
763,-412,0,0,0,0,0,0,0,0,0,-1,1987,1436,0,0
770,-412,0,0,0,0,0,0,0,0,0,-1,1994,1436,0,0
777,-412,0,0,0,0,0,0,0,0,0,-1,2001,1436,0,0
784,-412,0,0,0,0,0,0,0,0,0,-1,2008,1436,0,0
791,-412,0,0,0,0,0,0,0,0,0,-1,2015,1436,0,0
798,-412,0,0,0,0,0,0,0,0,0,-1,2022,1436,0,0
805,-412,0,0,0,0,0,0,0,0,0,-1,2029,1436,0,0
812,-412,0,0,0,0,0,0,0,0,0,-1,2036,1436,0,0
-700,-419,0,0,0,0,0,0,0,0,0,-1,524,1443,0,0
-693,-419,0,0,0,0,0,0,0,0,0,-1,531,1443,0,0
-686,-419,0,0,0,0,0,0,0,0,0,-1,538,1443,0,0
-679,-419,0,0,0,0,0,0,0,0,0,-1,545,1443,0,0
-672,-419,0,0,0,0,0,0,0,0,0,-1,552,1443,0,0
-665,-419,0,0,0,0,0,0,0,0,0,-1,559,1443,0,0
-658,-419,0,0,0,0,0,0,0,0,0,-1,566,1443,0,0
-651,-419,0,0,0,0,0,0,0,0,0,-1,573,1443,0,0
-644,-419,0,0,0,0,0,0,0,0,0,-1,580,1443,0,0
-637,-419,0,0,0,0,0,0,0,0,0,-1,587,1443,0,0
-630,-419,0,0,0,0,0,0,0,0,0,-1,594,1443,0,0
-623,-419,0,0,0,0,0,0,0,0,0,-1,601,1443,0,0
-616,-419,0,0,0,0,0,0,0,0,0,-1,608,1443,0,0
-609,-419,0,0,0,0,0,0,0,0,0,-1,615,1443,0,0
-602,-419,0,0,0,0,0,0,0,0,0,-1,622,1443,0,0
-595,-419,-11.4904,-0.622681,0,0,0,0,0,0,0,-1,629,1443,-11.4903,0.622714
-588,-419,-9.09369,0.742432,0,0,0,0,0,0,0,-1,636,1443,-9.09366,-0.742482
-581,-419,-6.39172,2.14673,0,0,0,0,0,0,0,-1,643,1443,-6.39175,-2.14668
-574,-419,-4.09772,3.54773,0,0,0,0,0,0,0,-1,650,1443,-4.09772,-3.54767
-567,-419,-6.14038,3.22498,0,0,0,0,0,0,0,-1,657,1443,-6.14037,-3.22497
-560,-419,-4.52814,5.22253,0,0,0,0,0,0,0,-1,664,1443,-4.52816,-5.22251
-553,-419,-5.08331,6.11829,0,0,0,0,0,0,0,-1,671,1443,-5.08331,-6.1183
-546,-419,-9.54596,8.8158,0,0,0,0,0,0,0,-1,678,1443,-9.54596,-8.8158
-539,-419,-9.66138,9.34143,-0.00417716,-0.000758327,-0.00164167,-9.7686e-05,-0.0048378,-1.1882,0.00319314,0.0477215,685,1443,-9.66135,-9.34138
-532,-419,-9.89087,9.83008,-0.00282731,-0.000807482,-0.00125857,-0.000203725,-0.00343107,-1.12351,0.00222258,0.021108,692,1443,-9.89089,-9.83003
-525,-419,-9.89606,10.3861,-0.0018065,-0.000747172,-0.000924048,-0.000211751,-0.00234193,-1.04564,0.0014957,0.014318,699,1443,-9.89603,-10.3862
-518,-419,-9.89819,10.8735,-0.000859489,-0.000444739,-0.000456211,-0.000150982,-0.00115325,-0.998717,0.000723772,0.0174801,706,1443,-9.8982,-10.8735
-511,-419,-9.94025,11.38,0.000154925,6.93012e-05,0.000146523,0.000264763,-4.05365e-05,0.643262,0.000191457,0.0191529,713,1443,-9.94027,-11.38
-504,-419,-9.98926,11.9199,0.00106697,0.000793529,0.000826688,0.00176817,9.2332e-05,0.703448,0.00114924,0.0188712,720,1443,-9.98929,-11.92
-497,-419,-10.0042,12.4309,0.00213521,0.00172637,0.00170639,0.00364938,0.000212196,0.725784,0.00236536,0.013358,727,1443,-10.0042,-12.4309
-490,-419,-10.0065,12.9174,0.00349242,0.00298299,0.00287255,0.00612153,0.000353888,0.741178,0.00396832,0.0115952,734,1443,-10.0065,-12.9174
-483,-419,-10.0143,13.4398,0.00508647,0.00448483,0.00425999,0.00905624,0.000515055,0.750149,0.00587334,0.00989925,741,1443,-10.0143,-13.4399
-476,-419,-9.99878,13.9928,0.00703051,0.00632557,0.00599434,0.0126827,0.000673344,0.756032,0.00823988,0.0134799,748,1443,-9.9988,-13.9928
-469,-419,-9.9248,14.6886,0.00967759,0.00865276,0.0082783,0.0174593,0.000871027,0.754488,0.0113603,0.0328902,755,1443,-9.92478,-14.6886
-462,-419,-9.76648,15.3826,0,0,0,0,0,0,0,-1,762,1443,-9.76647,-15.3826
-455,-419,-7.35645,11.9451,0,0,0,0,0,0,0,-1,769,1443,-7.35646,-11.9451
-448,-419,-7.49109,9.92444,0,0,0,0,0,0,0,-1,776,1443,-7.49109,-9.92442
-441,-419,-7.65527,8.75574,0,0,0,0,0,0,0,-1,783,1443,-7.65525,-8.75568
-434,-419,-11.3724,12.3643,0,0,0,0,0,0,0,-1,790,1443,-11.3724,-12.3643
-427,-419,-8.23193,7.89404,0,0,0,0,0,0,0,-1,797,1443,-8.23193,-7.89404
-420,-419,-8.74091,6.36597,0,0,0,0,0,0,0,-1,804,1443,-8.74089,-6.366
-413,-419,-9.88391,6.53955,0,0,0,0,0,0,0,-1,811,1443,-9.8839,-6.53955
-406,-419,-10.3372,2.75195,0,0,0,0,0,0,0,-1,818,1443,-10.3372,-2.75201
-399,-419,-11.5999,1.40002,0,0,0,0,0,0,0,-1,825,1443,-11.5999,-1.39998
-392,-419,0,0,0,0,0,0,0,0,0,-1,832,1443,0,0
-385,-419,0,0,0,0,0,0,0,0,0,-1,839,1443,0,0
-378,-419,0,0,0,0,0,0,0,0,0,-1,846,1443,0,0
-371,-419,0,0,0,0,0,0,0,0,0,-1,853,1443,0,0
-364,-419,0,0,0,0,0,0,0,0,0,-1,860,1443,0,0
-357,-419,0,0,0,0,0,0,0,0,0,-1,867,1443,0,0
-350,-419,0,0,0,0,0,0,0,0,0,-1,874,1443,0,0
-343,-419,0,0,0,0,0,0,0,0,0,-1,881,1443,0,0
-336,-419,0,0,0,0,0,0,0,0,0,-1,888,1443,0,0
-329,-419,0,0,0,0,0,0,0,0,0,-1,895,1443,0,0
-322,-419,0,0,0,0,0,0,0,0,0,-1,902,1443,0,0
-315,-419,0,0,0,0,0,0,0,0,0,-1,909,1443,0,0
-308,-419,0,0,0,0,0,0,0,0,0,-1,916,1443,0,0
-301,-419,0,0,0,0,0,0,0,0,0,-1,923,1443,0,0
-294,-419,0,0,0,0,0,0,0,0,0,-1,930,1443,0,0
-287,-419,0,0,0,0,0,0,0,0,0,-1,937,1443,0,0
-280,-419,0,0,0,0,0,0,0,0,0,-1,944,1443,0,0
-273,-419,0,0,0,0,0,0,0,0,0,-1,951,1443,0,0
-266,-419,0,0,0,0,0,0,0,0,0,-1,958,1443,0,0
-259,-419,0,0,0,0,0,0,0,0,0,-1,965,1443,0,0
-252,-419,0,0,0,0,0,0,0,0,0,-1,972,1443,0,0
-245,-419,0,0,0,0,0,0,0,0,0,-1,979,1443,0,0
-238,-419,0,0,0,0,0,0,0,0,0,-1,986,1443,0,0
-231,-419,0,0,0,0,0,0,0,0,0,-1,993,1443,0,0
-224,-419,0,0,0,0,0,0,0,0,0,-1,1000,1443,0,0
-217,-419,0,0,0,0,0,0,0,0,0,-1,1007,1443,0,0
-210,-419,0,0,0,0,0,0,0,0,0,-1,1014,1443,0,0
-203,-419,0,0,0,0,0,0,0,0,0,-1,1021,1443,0,0
-196,-419,0,0,0,0,0,0,0,0,0,-1,1028,1443,0,0
-189,-419,0,0,0,0,0,0,0,0,0,-1,1035,1443,0,0
-182,-419,0,0,0,0,0,0,0,0,0,-1,1042,1443,0,0
-175,-419,0,0,0,0,0,0,0,0,0,-1,1049,1443,0,0
-168,-419,0,0,0,0,0,0,0,0,0,-1,1056,1443,0,0
-161,-419,0,0,0,0,0,0,0,0,0,-1,1063,1443,0,0
-154,-419,0,0,0,0,0,0,0,0,0,-1,1070,1443,0,0
-147,-419,0,0,0,0,0,0,0,0,0,-1,1077,1443,0,0
-140,-419,0,0,0,0,0,0,0,0,0,-1,1084,1443,0,0
-133,-419,0,0,0,0,0,0,0,0,0,-1,1091,1443,0,0
-126,-419,0,0,0,0,0,0,0,0,0,-1,1098,1443,0,0
-119,-419,0,0,0,0,0,0,0,0,0,-1,1105,1443,0,0
-112,-419,0,0,0,0,0,0,0,0,0,-1,1112,1443,0,0
-105,-419,0,0,0,0,0,0,0,0,0,-1,1119,1443,0,0
-98,-419,0,0,0,0,0,0,0,0,0,-1,1126,1443,0,0
-91,-419,0,0,0,0,0,0,0,0,0,-1,1133,1443,0,0
-84,-419,0,0,0,0,0,0,0,0,0,-1,1140,1443,0,0
-77,-419,0,0,0,0,0,0,0,0,0,-1,1147,1443,0,0
-70,-419,0,0,0,0,0,0,0,0,0,-1,1154,1443,0,0
-63,-419,0,0,0,0,0,0,0,0,0,-1,1161,1443,0,0
-56,-419,0,0,0,0,0,0,0,0,0,-1,1168,1443,0,0
-49,-419,0,0,0,0,0,0,0,0,0,-1,1175,1443,0,0
-42,-419,0,0,0,0,0,0,0,0,0,-1,1182,1443,0,0
-35,-419,0,0,0,0,0,0,0,0,0,-1,1189,1443,0,0
-28,-419,0,0,0,0,0,0,0,0,0,-1,1196,1443,0,0
-21,-419,0,0,0,0,0,0,0,0,0,-1,1203,1443,0,0
-14,-419,0,0,0,0,0,0,0,0,0,-1,1210,1443,0,0
-7,-419,0,0,0,0,0,0,0,0,0,-1,1217,1443,0,0
0,-419,0,0,0,0,0,0,0,0,0,-1,1224,1443,0,0
7,-419,0,0,0,0,0,0,0,0,0,-1,1231,1443,0,0
14,-419,0,0,0,0,0,0,0,0,0,-1,1238,1443,0,0
21,-419,0,0,0,0,0,0,0,0,0,-1,1245,1443,0,0
28,-419,0,0,0,0,0,0,0,0,0,-1,1252,1443,0,0
35,-419,0,0,0,0,0,0,0,0,0,-1,1259,1443,0,0
42,-419,0,0,0,0,0,0,0,0,0,-1,1266,1443,0,0
49,-419,0,0,0,0,0,0,0,0,0,-1,1273,1443,0,0
56,-419,0,0,0,0,0,0,0,0,0,-1,1280,1443,0,0
63,-419,0,0,0,0,0,0,0,0,0,-1,1287,1443,0,0
70,-419,0,0,0,0,0,0,0,0,0,-1,1294,1443,0,0
77,-419,0,0,0,0,0,0,0,0,0,-1,1301,1443,0,0
84,-419,0,0,0,0,0,0,0,0,0,-1,1308,1443,0,0
91,-419,0,0,0,0,0,0,0,0,0,-1,1315,1443,0,0
98,-419,0,0,0,0,0,0,0,0,0,-1,1322,1443,0,0
105,-419,0,0,0,0,0,0,0,0,0,-1,1329,1443,0,0
112,-419,0,0,0,0,0,0,0,0,0,-1,1336,1443,0,0
119,-419,0,0,0,0,0,0,0,0,0,-1,1343,1443,0,0
126,-419,0,0,0,0,0,0,0,0,0,-1,1350,1443,0,0
133,-419,0,0,0,0,0,0,0,0,0,-1,1357,1443,0,0
140,-419,0,0,0,0,0,0,0,0,0,-1,1364,1443,0,0
147,-419,0,0,0,0,0,0,0,0,0,-1,1371,1443,0,0
154,-419,0,0,0,0,0,0,0,0,0,-1,1378,1443,0,0
161,-419,0,0,0,0,0,0,0,0,0,-1,1385,1443,0,0
168,-419,0,0,0,0,0,0,0,0,0,-1,1392,1443,0,0
175,-419,0,0,0,0,0,0,0,0,0,-1,1399,1443,0,0
182,-419,0,0,0,0,0,0,0,0,0,-1,1406,1443,0,0
189,-419,0,0,0,0,0,0,0,0,0,-1,1413,1443,0,0
196,-419,0,0,0,0,0,0,0,0,0,-1,1420,1443,0,0
203,-419,0,0,0,0,0,0,0,0,0,-1,1427,1443,0,0
210,-419,0,0,0,0,0,0,0,0,0,-1,1434,1443,0,0
217,-419,0,0,0,0,0,0,0,0,0,-1,1441,1443,0,0
224,-419,0,0,0,0,0,0,0,0,0,-1,1448,1443,0,0
231,-419,0,0,0,0,0,0,0,0,0,-1,1455,1443,0,0
238,-419,0,0,0,0,0,0,0,0,0,-1,1462,1443,0,0
245,-419,0,0,0,0,0,0,0,0,0,-1,1469,1443,0,0
252,-419,0,0,0,0,0,0,0,0,0,-1,1476,1443,0,0
259,-419,0,0,0,0,0,0,0,0,0,-1,1483,1443,0,0
266,-419,0,0,0,0,0,0,0,0,0,-1,1490,1443,0,0
273,-419,0,0,0,0,0,0,0,0,0,-1,1497,1443,0,0
280,-419,0,0,0,0,0,0,0,0,0,-1,1504,1443,0,0
287,-419,0,0,0,0,0,0,0,0,0,-1,1511,1443,0,0
294,-419,0,0,0,0,0,0,0,0,0,-1,1518,1443,0,0
301,-419,0,0,0,0,0,0,0,0,0,-1,1525,1443,0,0
308,-419,0,0,0,0,0,0,0,0,0,-1,1532,1443,0,0
315,-419,0,0,0,0,0,0,0,0,0,-1,1539,1443,0,0
322,-419,0,0,0,0,0,0,0,0,0,-1,1546,1443,0,0
329,-419,0,0,0,0,0,0,0,0,0,-1,1553,1443,0,0
336,-419,0,0,0,0,0,0,0,0,0,-1,1560,1443,0,0
343,-419,0,0,0,0,0,0,0,0,0,-1,1567,1443,0,0
350,-419,0,0,0,0,0,0,0,0,0,-1,1574,1443,0,0
357,-419,0,0,0,0,0,0,0,0,0,-1,1581,1443,0,0
364,-419,0,0,0,0,0,0,0,0,0,-1,1588,1443,0,0
371,-419,0,0,0,0,0,0,0,0,0,-1,1595,1443,0,0
378,-419,0,0,0,0,0,0,0,0,0,-1,1602,1443,0,0
385,-419,0,0,0,0,0,0,0,0,0,-1,1609,1443,0,0
392,-419,0,0,0,0,0,0,0,0,0,-1,1616,1443,0,0
399,-419,0,0,0,0,0,0,0,0,0,-1,1623,1443,0,0
406,-419,0,0,0,0,0,0,0,0,0,-1,1630,1443,0,0
413,-419,0,0,0,0,0,0,0,0,0,-1,1637,1443,0,0
420,-419,0,0,0,0,0,0,0,0,0,-1,1644,1443,0,0
427,-419,0,0,0,0,0,0,0,0,0,-1,1651,1443,0,0
434,-419,0,0,0,0,0,0,0,0,0,-1,1658,1443,0,0
441,-419,0,0,0,0,0,0,0,0,0,-1,1665,1443,0,0
448,-419,0,0,0,0,0,0,0,0,0,-1,1672,1443,0,0
455,-419,0,0,0,0,0,0,0,0,0,-1,1679,1443,0,0
462,-419,0,0,0,0,0,0,0,0,0,-1,1686,1443,0,0
469,-419,0,0,0,0,0,0,0,0,0,-1,1693,1443,0,0
476,-419,0,0,0,0,0,0,0,0,0,-1,1700,1443,0,0
483,-419,0,0,0,0,0,0,0,0,0,-1,1707,1443,0,0
490,-419,0,0,0,0,0,0,0,0,0,-1,1714,1443,0,0
497,-419,0,0,0,0,0,0,0,0,0,-1,1721,1443,0,0
504,-419,0,0,0,0,0,0,0,0,0,-1,1728,1443,0,0
511,-419,20.3005,3.7959,0,0,0,0,0,0,0,-1,1735,1443,20.3005,-3.79584
518,-419,21.3154,2.03027,0,0,0,0,0,0,0,-1,1742,1443,21.3155,-2.03029
525,-419,28.3439,-1.24475,0,0,0,0,0,0,0,-1,1749,1443,28.3438,1.24471
532,-419,27.5902,-0.272583,0,0,0,0,0,0,0,-1,1756,1443,27.5902,0.272526
539,-419,26.5278,1.60583,0,0,0,0,0,0,0,-1,1763,1443,26.5279,-1.60579
546,-419,24.9509,2.77539,0,0,0,0,0,0,0,-1,1770,1443,24.9509,-2.77537
553,-419,24.118,3.75525,0,0,0,0,0,0,0,-1,1777,1443,24.1181,-3.75526
560,-419,11.8199,8.26343,0,0,0,0,0,0,0,-1,1784,1443,11.82,-8.26341
567,-419,21.5143,8.74719,0,0,0,0,0,0,0,-1,1791,1443,21.5143,-8.74722
574,-419,19.5886,6.46155,0,0,0,0,0,0,0,-1,1798,1443,19.5886,-6.46157
581,-419,20.7926,11.4265,0,0,0,0,0,0,0,-1,1805,1443,20.7926,-11.4265
588,-419,19.4242,12.5363,0,0,0,0,0,0,0,-1,1812,1443,19.4242,-12.5362
595,-419,22.9375,16.0151,0,0,0,0,0,0,0,-1,1819,1443,22.9375,-16.0152
602,-419,23.9918,16.0573,0,0,0,0,0,0,0,-1,1826,1443,23.9919,-16.0572
609,-419,24.0029,15.5293,0.00237601,0.00317498,-0.00257158,0.00537792,0.000173072,-0.862455,0.003529,0.0182047,1833,1443,24.0029,-15.5293
616,-419,23.9965,15.0557,0.00185414,0.00205608,-0.00183277,0.00379066,0.000119565,-0.812916,0.00248821,0.0120187,1840,1443,23.9965,-15.0556
623,-419,23.9867,14.5748,0.00148767,0.0012829,-0.00127804,0.00266742,0.000103156,-0.745428,0.00174491,0.0102269,1847,1443,23.9867,-14.5748
630,-419,24.009,14.0729,0.00127632,0.000719775,-0.000893332,0.00193372,6.23796e-05,-0.63441,0.00126886,0.0121741,1854,1443,24.009,-14.0729
637,-419,23.9805,13.6128,0.00113135,0.000334295,-0.000575682,0.00143299,3.26553e-05,-0.482639,0.000944629,0.0133531,1861,1443,23.9804,-13.6129
644,-419,23.9579,13.1691,0.00108521,8.26421e-05,-0.00028986,0.00116298,4.87093e-06,-0.262132,0.000773701,0.0126351,1868,1443,23.9579,-13.169
651,-419,23.9265,12.7167,0.0011416,-5.32519e-05,-5.55205e-05,0.00114418,-5.58263e-05,-0.0463332,0.000782059,0.0125079,1875,1443,23.9265,-12.7167
658,-419,23.9073,12.2394,0.00117825,-0.000138885,0.000224915,0.00121559,-0.000176232,0.164551,0.000875075,0.0145114,1882,1443,23.9073,-12.2393
665,-419,23.9159,11.7761,0.00118386,-0.000292365,0.000656581,0.00143363,-0.000542134,0.363503,0.00117878,0.0219143,1889,1443,23.9159,-11.7762
672,-419,23.8859,11.2183,0.00108575,-0.000490682,0.00131197,0.00182807,-0.001233,0.514899,0.00177841,0.0292444,1896,1443,23.8859,-11.2182
679,-419,23.9827,10.6881,0,0,0,0,0,0,0,-1,1903,1443,23.9826,-10.6881
686,-419,17.4127,8.03076,0,0,0,0,0,0,0,-1,1910,1443,17.4127,-8.03071
693,-419,8.76086,5.60535,0,0,0,0,0,0,0,-1,1917,1443,8.76091,-5.6054
700,-419,11.0498,4.85156,0,0,0,0,0,0,0,-1,1924,1443,11.0498,-4.85153
707,-419,9.5752,1.80042,0,0,0,0,0,0,0,-1,1931,1443,9.57523,-1.80037
714,-419,5.77576,-1.25061,0,0,0,0,0,0,0,-1,1938,1443,5.7757,1.25056
721,-419,0,0,0,0,0,0,0,0,0,-1,1945,1443,0,0
728,-419,0,0,0,0,0,0,0,0,0,-1,1952,1443,0,0
735,-419,0,0,0,0,0,0,0,0,0,-1,1959,1443,0,0
742,-419,0,0,0,0,0,0,0,0,0,-1,1966,1443,0,0
749,-419,0,0,0,0,0,0,0,0,0,-1,1973,1443,0,0
756,-419,0,0,0,0,0,0,0,0,0,-1,1980,1443,0,0
763,-419,0,0,0,0,0,0,0,0,0,-1,1987,1443,0,0
770,-419,0,0,0,0,0,0,0,0,0,-1,1994,1443,0,0
777,-419,0,0,0,0,0,0,0,0,0,-1,2001,1443,0,0
784,-419,0,0,0,0,0,0,0,0,0,-1,2008,1443,0,0
791,-419,0,0,0,0,0,0,0,0,0,-1,2015,1443,0,0
798,-419,0,0,0,0,0,0,0,0,0,-1,2022,1443,0,0
805,-419,0,0,0,0,0,0,0,0,0,-1,2029,1443,0,0
812,-419,0,0,0,0,0,0,0,0,0,-1,2036,1443,0,0
-700,-426,0,0,0,0,0,0,0,0,0,-1,524,1450,0,0
-693,-426,0,0,0,0,0,0,0,0,0,-1,531,1450,0,0
-686,-426,0,0,0,0,0,0,0,0,0,-1,538,1450,0,0
-679,-426,0,0,0,0,0,0,0,0,0,-1,545,1450,0,0
-672,-426,0,0,0,0,0,0,0,0,0,-1,552,1450,0,0
-665,-426,0,0,0,0,0,0,0,0,0,-1,559,1450,0,0
-658,-426,0,0,0,0,0,0,0,0,0,-1,566,1450,0,0
-651,-426,0,0,0,0,0,0,0,0,0,-1,573,1450,0,0
-644,-426,0,0,0,0,0,0,0,0,0,-1,580,1450,0,0
-637,-426,0,0,0,0,0,0,0,0,0,-1,587,1450,0,0
-630,-426,0,0,0,0,0,0,0,0,0,-1,594,1450,0,0
-623,-426,0,0,0,0,0,0,0,0,0,-1,601,1450,0,0
-616,-426,0,0,0,0,0,0,0,0,0,-1,608,1450,0,0
-609,-426,0,0,0,0,0,0,0,0,0,-1,615,1450,0,0
-602,-426,0,0,0,0,0,0,0,0,0,-1,622,1450,0,0
-595,-426,0,0,0,0,0,0,0,0,0,-1,629,1450,0,0
-588,-426,-10.184,-0.554321,0,0,0,0,0,0,0,-1,636,1450,-10.184,0.554321
-581,-426,-7.3349,1.48157,0,0,0,0,0,0,0,-1,643,1450,-7.33491,-1.48152
-574,-426,-5.02856,2.89319,0,0,0,0,0,0,0,-1,650,1450,-5.02858,-2.89319
-567,-426,-3.04797,1.72644,0,0,0,0,0,0,0,-1,657,1450,-3.04797,-1.72639
-560,-426,-5.55682,3.44397,0,0,0,0,0,0,0,-1,664,1450,-5.55684,-3.44399
-553,-426,-4.67017,6.66614,0,0,0,0,0,0,0,-1,671,1450,-4.67015,-6.66619
-546,-426,-7.58752,8.28882,0,0,0,0,0,0,0,-1,678,1450,-7.58752,-8.28878
-539,-426,-9.01111,9.46069,0,0,0,0,0,0,0,-1,685,1450,-9.0111,-9.46072
-532,-426,-9.26984,9.87903,-0.00330686,-0.00128653,-0.00146097,-0.000520506,-0.00407289,-1.08788,0.00255946,0.0439798,692,1450,-9.26982,-9.87898
-525,-426,-9.40985,10.3424,-0.00233369,-0.00127961,-0.00119773,-0.000498093,-0.0031152,-0.992666,0.00193229,0.0183152,699,1450,-9.40986,-10.3424
-518,-426,-9.3822,10.8981,-0.00140629,-0.00102674,-0.000785547,-0.000408368,-0.00202466,-0.903921,0.00123634,0.016734,706,1450,-9.38218,-10.898
-511,-426,-9.40631,11.4189,-0.000434918,-0.000499846,-0.00022822,-0.000236864,-0.0006979,-0.714748,0.000409803,0.0149026,713,1450,-9.40631,-11.4189
-504,-426,-9.45483,11.9233,0.000455139,0.000210991,0.000403083,0.000754227,-8.80974e-05,0.638363,0.000534609,0.0141758,720,1450,-9.45482,-11.9234
-497,-426,-9.46265,12.4229,0.00149813,0.00111133,0.00121031,0.0025304,7.90635e-05,0.706172,0.0016612,0.0117576,727,1450,-9.46265,-12.4229
-490,-426,-9.48035,12.9253,0.00278679,0.00229488,0.00227158,0.00482569,0.000255972,0.731471,0.00313529,0.0122447,734,1450,-9.48033,-12.9254
-483,-426,-9.49652,13.4534,0.00429588,0.00367679,0.00352083,0.00752074,0.000451921,0.741552,0.00487018,0.0119534,741,1450,-9.49654,-13.4533
-476,-426,-9.49896,13.9707,0.00612462,0.00530495,0.00505405,0.0107854,0.000644153,0.744941,0.00698547,0.00921653,748,1450,-9.49897,-13.9707
-469,-426,-9.52643,14.4858,0.00849287,0.00718154,0.00698685,0.0148548,0.000819649,0.738614,0.00964157,0.00940882,755,1450,-9.52641,-14.4858
-462,-426,-9.33386,15.2141,0,0,0,0,0,0,0,-1,762,1450,-9.33389,-15.2142
-455,-426,-9.09827,16.0308,0,0,0,0,0,0,0,-1,769,1450,-9.09824,-16.0308
-448,-426,-6.46545,10.1322,0,0,0,0,0,0,0,-1,776,1450,-6.46543,-10.1322
-441,-426,-10.9547,11.4747,0,0,0,0,0,0,0,-1,783,1450,-10.9546,-11.4748
-434,-426,-10.4998,13.6189,0,0,0,0,0,0,0,-1,790,1450,-10.4997,-13.6189
-427,-426,-9.36627,13.7396,0,0,0,0,0,0,0,-1,797,1450,-9.36628,-13.7396
-420,-426,-5.33765,7.95044,0,0,0,0,0,0,0,-1,804,1450,-5.33766,-7.95041
-413,-426,-10.1148,5.0415,0,0,0,0,0,0,0,-1,811,1450,-10.1148,-5.04152
-406,-426,-11.4199,3.6438,0,0,0,0,0,0,0,-1,818,1450,-11.4198,-3.64382
-399,-426,-12.7595,2.29004,0,0,0,0,0,0,0,-1,825,1450,-12.7595,-2.29003
-392,-426,-12.4147,0.537354,0,0,0,0,0,0,0,-1,832,1450,-12.4147,-0.53731
-385,-426,0,0,0,0,0,0,0,0,0,-1,839,1450,0,0
-378,-426,0,0,0,0,0,0,0,0,0,-1,846,1450,0,0
-371,-426,0,0,0,0,0,0,0,0,0,-1,853,1450,0,0
-364,-426,0,0,0,0,0,0,0,0,0,-1,860,1450,0,0
-357,-426,0,0,0,0,0,0,0,0,0,-1,867,1450,0,0
-350,-426,0,0,0,0,0,0,0,0,0,-1,874,1450,0,0
-343,-426,0,0,0,0,0,0,0,0,0,-1,881,1450,0,0
-336,-426,0,0,0,0,0,0,0,0,0,-1,888,1450,0,0
-329,-426,0,0,0,0,0,0,0,0,0,-1,895,1450,0,0
-322,-426,0,0,0,0,0,0,0,0,0,-1,902,1450,0,0
-315,-426,0,0,0,0,0,0,0,0,0,-1,909,1450,0,0
-308,-426,0,0,0,0,0,0,0,0,0,-1,916,1450,0,0
-301,-426,0,0,0,0,0,0,0,0,0,-1,923,1450,0,0
-294,-426,0,0,0,0,0,0,0,0,0,-1,930,1450,0,0
-287,-426,0,0,0,0,0,0,0,0,0,-1,937,1450,0,0
-280,-426,0,0,0,0,0,0,0,0,0,-1,944,1450,0,0
-273,-426,0,0,0,0,0,0,0,0,0,-1,951,1450,0,0
-266,-426,0,0,0,0,0,0,0,0,0,-1,958,1450,0,0
-259,-426,0,0,0,0,0,0,0,0,0,-1,965,1450,0,0
-252,-426,0,0,0,0,0,0,0,0,0,-1,972,1450,0,0
-245,-426,0,0,0,0,0,0,0,0,0,-1,979,1450,0,0
-238,-426,0,0,0,0,0,0,0,0,0,-1,986,1450,0,0
-231,-426,0,0,0,0,0,0,0,0,0,-1,993,1450,0,0
-224,-426,0,0,0,0,0,0,0,0,0,-1,1000,1450,0,0
-217,-426,0,0,0,0,0,0,0,0,0,-1,1007,1450,0,0
-210,-426,0,0,0,0,0,0,0,0,0,-1,1014,1450,0,0
-203,-426,0,0,0,0,0,0,0,0,0,-1,1021,1450,0,0
-196,-426,0,0,0,0,0,0,0,0,0,-1,1028,1450,0,0
-189,-426,0,0,0,0,0,0,0,0,0,-1,1035,1450,0,0
-182,-426,0,0,0,0,0,0,0,0,0,-1,1042,1450,0,0
-175,-426,0,0,0,0,0,0,0,0,0,-1,1049,1450,0,0
-168,-426,0,0,0,0,0,0,0,0,0,-1,1056,1450,0,0
-161,-426,0,0,0,0,0,0,0,0,0,-1,1063,1450,0,0
-154,-426,0,0,0,0,0,0,0,0,0,-1,1070,1450,0,0
-147,-426,0,0,0,0,0,0,0,0,0,-1,1077,1450,0,0
-140,-426,0,0,0,0,0,0,0,0,0,-1,1084,1450,0,0
-133,-426,0,0,0,0,0,0,0,0,0,-1,1091,1450,0,0
-126,-426,0,0,0,0,0,0,0,0,0,-1,1098,1450,0,0
-119,-426,0,0,0,0,0,0,0,0,0,-1,1105,1450,0,0
-112,-426,0,0,0,0,0,0,0,0,0,-1,1112,1450,0,0
-105,-426,0,0,0,0,0,0,0,0,0,-1,1119,1450,0,0
-98,-426,0,0,0,0,0,0,0,0,0,-1,1126,1450,0,0
-91,-426,0,0,0,0,0,0,0,0,0,-1,1133,1450,0,0
-84,-426,0,0,0,0,0,0,0,0,0,-1,1140,1450,0,0
-77,-426,0,0,0,0,0,0,0,0,0,-1,1147,1450,0,0
-70,-426,0,0,0,0,0,0,0,0,0,-1,1154,1450,0,0
-63,-426,0,0,0,0,0,0,0,0,0,-1,1161,1450,0,0
-56,-426,0,0,0,0,0,0,0,0,0,-1,1168,1450,0,0
-49,-426,0,0,0,0,0,0,0,0,0,-1,1175,1450,0,0
-42,-426,0,0,0,0,0,0,0,0,0,-1,1182,1450,0,0
-35,-426,0,0,0,0,0,0,0,0,0,-1,1189,1450,0,0
-28,-426,0,0,0,0,0,0,0,0,0,-1,1196,1450,0,0
-21,-426,0,0,0,0,0,0,0,0,0,-1,1203,1450,0,0
-14,-426,0,0,0,0,0,0,0,0,0,-1,1210,1450,0,0
-7,-426,0,0,0,0,0,0,0,0,0,-1,1217,1450,0,0
0,-426,0,0,0,0,0,0,0,0,0,-1,1224,1450,0,0
7,-426,0,0,0,0,0,0,0,0,0,-1,1231,1450,0,0
14,-426,0,0,0,0,0,0,0,0,0,-1,1238,1450,0,0
21,-426,0,0,0,0,0,0,0,0,0,-1,1245,1450,0,0
28,-426,0,0,0,0,0,0,0,0,0,-1,1252,1450,0,0
35,-426,0,0,0,0,0,0,0,0,0,-1,1259,1450,0,0
42,-426,0,0,0,0,0,0,0,0,0,-1,1266,1450,0,0
49,-426,0,0,0,0,0,0,0,0,0,-1,1273,1450,0,0
56,-426,0,0,0,0,0,0,0,0,0,-1,1280,1450,0,0
63,-426,0,0,0,0,0,0,0,0,0,-1,1287,1450,0,0
70,-426,0,0,0,0,0,0,0,0,0,-1,1294,1450,0,0
77,-426,0,0,0,0,0,0,0,0,0,-1,1301,1450,0,0
84,-426,0,0,0,0,0,0,0,0,0,-1,1308,1450,0,0
91,-426,0,0,0,0,0,0,0,0,0,-1,1315,1450,0,0
98,-426,0,0,0,0,0,0,0,0,0,-1,1322,1450,0,0
105,-426,0,0,0,0,0,0,0,0,0,-1,1329,1450,0,0
112,-426,0,0,0,0,0,0,0,0,0,-1,1336,1450,0,0
119,-426,0,0,0,0,0,0,0,0,0,-1,1343,1450,0,0
126,-426,0,0,0,0,0,0,0,0,0,-1,1350,1450,0,0
133,-426,0,0,0,0,0,0,0,0,0,-1,1357,1450,0,0
140,-426,0,0,0,0,0,0,0,0,0,-1,1364,1450,0,0
147,-426,0,0,0,0,0,0,0,0,0,-1,1371,1450,0,0
154,-426,0,0,0,0,0,0,0,0,0,-1,1378,1450,0,0
161,-426,0,0,0,0,0,0,0,0,0,-1,1385,1450,0,0
168,-426,0,0,0,0,0,0,0,0,0,-1,1392,1450,0,0
175,-426,0,0,0,0,0,0,0,0,0,-1,1399,1450,0,0
182,-426,0,0,0,0,0,0,0,0,0,-1,1406,1450,0,0
189,-426,0,0,0,0,0,0,0,0,0,-1,1413,1450,0,0
196,-426,0,0,0,0,0,0,0,0,0,-1,1420,1450,0,0
203,-426,0,0,0,0,0,0,0,0,0,-1,1427,1450,0,0
210,-426,0,0,0,0,0,0,0,0,0,-1,1434,1450,0,0
217,-426,0,0,0,0,0,0,0,0,0,-1,1441,1450,0,0
224,-426,0,0,0,0,0,0,0,0,0,-1,1448,1450,0,0
231,-426,0,0,0,0,0,0,0,0,0,-1,1455,1450,0,0
238,-426,0,0,0,0,0,0,0,0,0,-1,1462,1450,0,0
245,-426,0,0,0,0,0,0,0,0,0,-1,1469,1450,0,0
252,-426,0,0,0,0,0,0,0,0,0,-1,1476,1450,0,0
259,-426,0,0,0,0,0,0,0,0,0,-1,1483,1450,0,0
266,-426,0,0,0,0,0,0,0,0,0,-1,1490,1450,0,0
273,-426,0,0,0,0,0,0,0,0,0,-1,1497,1450,0,0
280,-426,0,0,0,0,0,0,0,0,0,-1,1504,1450,0,0
287,-426,0,0,0,0,0,0,0,0,0,-1,1511,1450,0,0
294,-426,0,0,0,0,0,0,0,0,0,-1,1518,1450,0,0
301,-426,0,0,0,0,0,0,0,0,0,-1,1525,1450,0,0
308,-426,0,0,0,0,0,0,0,0,0,-1,1532,1450,0,0
315,-426,0,0,0,0,0,0,0,0,0,-1,1539,1450,0,0
322,-426,0,0,0,0,0,0,0,0,0,-1,1546,1450,0,0
329,-426,0,0,0,0,0,0,0,0,0,-1,1553,1450,0,0
336,-426,0,0,0,0,0,0,0,0,0,-1,1560,1450,0,0
343,-426,0,0,0,0,0,0,0,0,0,-1,1567,1450,0,0
350,-426,0,0,0,0,0,0,0,0,0,-1,1574,1450,0,0
357,-426,0,0,0,0,0,0,0,0,0,-1,1581,1450,0,0
364,-426,0,0,0,0,0,0,0,0,0,-1,1588,1450,0,0
371,-426,0,0,0,0,0,0,0,0,0,-1,1595,1450,0,0
378,-426,0,0,0,0,0,0,0,0,0,-1,1602,1450,0,0
385,-426,0,0,0,0,0,0,0,0,0,-1,1609,1450,0,0
392,-426,0,0,0,0,0,0,0,0,0,-1,1616,1450,0,0
399,-426,0,0,0,0,0,0,0,0,0,-1,1623,1450,0,0
406,-426,0,0,0,0,0,0,0,0,0,-1,1630,1450,0,0
413,-426,0,0,0,0,0,0,0,0,0,-1,1637,1450,0,0
420,-426,0,0,0,0,0,0,0,0,0,-1,1644,1450,0,0
427,-426,0,0,0,0,0,0,0,0,0,-1,1651,1450,0,0
434,-426,0,0,0,0,0,0,0,0,0,-1,1658,1450,0,0
441,-426,0,0,0,0,0,0,0,0,0,-1,1665,1450,0,0
448,-426,0,0,0,0,0,0,0,0,0,-1,1672,1450,0,0
455,-426,0,0,0,0,0,0,0,0,0,-1,1679,1450,0,0
462,-426,0,0,0,0,0,0,0,0,0,-1,1686,1450,0,0
469,-426,0,0,0,0,0,0,0,0,0,-1,1693,1450,0,0
476,-426,0,0,0,0,0,0,0,0,0,-1,1700,1450,0,0
483,-426,0,0,0,0,0,0,0,0,0,-1,1707,1450,0,0
490,-426,0,0,0,0,0,0,0,0,0,-1,1714,1450,0,0
497,-426,0,0,0,0,0,0,0,0,0,-1,1721,1450,0,0
504,-426,20.6873,3.38367,0,0,0,0,0,0,0,-1,1728,1450,20.6873,-3.38361
511,-426,19.6676,3.53748,0,0,0,0,0,0,0,-1,1735,1450,19.6676,-3.53749
518,-426,18.6853,3.32288,0,0,0,0,0,0,0,-1,1742,1450,18.6853,-3.3229
525,-426,18.9552,2.71033,0,0,0,0,0,0,0,-1,1749,1450,18.9552,-2.71034
532,-426,19.4333,2.70764,0,0,0,0,0,0,0,-1,1756,1450,19.4334,-2.70764
539,-426,25.1482,2.56287,0,0,0,0,0,0,0,-1,1763,1450,25.1482,-2.56286
546,-426,24.1136,3.75659,0,0,0,0,0,0,0,-1,1770,1450,24.1136,-3.7566
553,-426,23.0791,4.95032,0,0,0,0,0,0,0,-1,1777,1450,23.0791,-4.95034
560,-426,12.9688,11.8289,0,0,0,0,0,0,0,-1,1784,1450,12.9688,-11.8288
567,-426,13.6388,11.5623,0,0,0,0,0,0,0,-1,1791,1450,13.6388,-11.5623
574,-426,14.3943,11.0286,0,0,0,0,0,0,0,-1,1798,1450,14.3942,-11.0285
581,-426,16.3879,11.4653,0,0,0,0,0,0,0,-1,1805,1450,16.3879,-11.4653
588,-426,18.1212,12.5547,0,0,0,0,0,0,0,-1,1812,1450,18.1212,-12.5547
595,-426,23.3978,16.5428,0,0,0,0,0,0,0,-1,1819,1450,23.3979,-16.5429
602,-426,23.4805,16.0481,0.00259844,0.0036547,-0.00294543,0.00611898,0.000134165,-0.874108,0.00403534,0.0298795,1826,1450,23.4805,-16.0481
609,-426,23.524,15.5382,0.00222026,0.00270479,-0.00223672,0.00471232,0.000212723,-0.839344,0.00307309,0.0126193,1833,1450,23.524,-15.5382
616,-426,23.5137,15.0631,0.0018555,0.00180414,-0.00165109,0.00348111,0.000178528,-0.777621,0.00226358,0.0140517,1840,1450,23.5136,-15.0631
623,-426,23.5187,14.5908,0.0015745,0.00113847,-0.00118059,0.00255704,0.000155942,-0.694093,0.00165516,0.0122156,1847,1450,23.5187,-14.5909
630,-426,23.5361,14.1172,0.00144324,0.00063206,-0.000864379,0.00199245,8.28432e-05,-0.566035,0.00130157,0.0125651,1854,1450,23.5361,-14.1172
637,-426,23.5095,13.6532,0.00135124,0.000294749,-0.000590283,0.00161513,3.08592e-05,-0.420403,0.00106662,0.0132623,1861,1450,23.5096,-13.6533
644,-426,23.4734,13.1913,0.00134076,8.94047e-05,-0.000353393,0.00143366,-3.49886e-06,-0.257073,0.000956945,0.0135392,1868,1450,23.4734,-13.1913
651,-426,23.4373,12.7281,0.00140808,5.60476e-05,-0.000196547,0.00143607,2.80547e-05,-0.141472,0.000948166,0.0129585,1875,1450,23.4372,-12.7282
658,-426,23.4343,12.2039,0.00147212,7.97708e-05,-2.56615e-05,0.00147259,7.9298e-05,-0.018422,0.00095639,0.0124423,1882,1450,23.4343,-12.2038
665,-426,23.4546,11.6418,0.00149651,8.93347e-05,0.000288781,0.00155347,3.23764e-05,0.194737,0.00102502,0.0224397,1889,1450,23.4546,-11.6419
672,-426,23.5139,11.0762,0,0,0,0,0,0,0,-1,1896,1450,23.514,-11.0762
679,-426,17.1522,8.15784,0,0,0,0,0,0,0,-1,1903,1450,17.1522,-8.15784
686,-426,13.5326,8.03711,0,0,0,0,0,0,0,-1,1910,1450,13.5326,-8.03717
693,-426,11.8607,6.45215,0,0,0,0,0,0,0,-1,1917,1450,11.8607,-6.45215
700,-426,9.24304,2.95447,0,0,0,0,0,0,0,-1,1924,1450,9.24305,-2.95442
707,-426,8.44519,-1.21448,0,0,0,0,0,0,0,-1,1931,1450,8.44514,1.21454
714,-426,0,0,0,0,0,0,0,0,0,-1,1938,1450,0,0
721,-426,0,0,0,0,0,0,0,0,0,-1,1945,1450,0,0
728,-426,0,0,0,0,0,0,0,0,0,-1,1952,1450,0,0
735,-426,0,0,0,0,0,0,0,0,0,-1,1959,1450,0,0
742,-426,0,0,0,0,0,0,0,0,0,-1,1966,1450,0,0
749,-426,0,0,0,0,0,0,0,0,0,-1,1973,1450,0,0
756,-426,0,0,0,0,0,0,0,0,0,-1,1980,1450,0,0
763,-426,0,0,0,0,0,0,0,0,0,-1,1987,1450,0,0
770,-426,0,0,0,0,0,0,0,0,0,-1,1994,1450,0,0
777,-426,0,0,0,0,0,0,0,0,0,-1,2001,1450,0,0
784,-426,0,0,0,0,0,0,0,0,0,-1,2008,1450,0,0
791,-426,0,0,0,0,0,0,0,0,0,-1,2015,1450,0,0
798,-426,0,0,0,0,0,0,0,0,0,-1,2022,1450,0,0
805,-426,0,0,0,0,0,0,0,0,0,-1,2029,1450,0,0
812,-426,0,0,0,0,0,0,0,0,0,-1,2036,1450,0,0
-700,-433,0,0,0,0,0,0,0,0,0,-1,524,1457,0,0
-693,-433,0,0,0,0,0,0,0,0,0,-1,531,1457,0,0
-686,-433,0,0,0,0,0,0,0,0,0,-1,538,1457,0,0
-679,-433,0,0,0,0,0,0,0,0,0,-1,545,1457,0,0
-672,-433,0,0,0,0,0,0,0,0,0,-1,552,1457,0,0
-665,-433,0,0,0,0,0,0,0,0,0,-1,559,1457,0,0
-658,-433,0,0,0,0,0,0,0,0,0,-1,566,1457,0,0
-651,-433,0,0,0,0,0,0,0,0,0,-1,573,1457,0,0
-644,-433,0,0,0,0,0,0,0,0,0,-1,580,1457,0,0
-637,-433,0,0,0,0,0,0,0,0,0,-1,587,1457,0,0
-630,-433,0,0,0,0,0,0,0,0,0,-1,594,1457,0,0
-623,-433,0,0,0,0,0,0,0,0,0,-1,601,1457,0,0
-616,-433,0,0,0,0,0,0,0,0,0,-1,608,1457,0,0
-609,-433,0,0,0,0,0,0,0,0,0,-1,615,1457,0,0
-602,-433,0,0,0,0,0,0,0,0,0,-1,622,1457,0,0
-595,-433,0,0,0,0,0,0,0,0,0,-1,629,1457,0,0
-588,-433,-10.3756,-0.467041,0,0,0,0,0,0,0,-1,636,1457,-10.3756,0.467081
-581,-433,-8.12201,0.884033,0,0,0,0,0,0,0,-1,643,1457,-8.12204,-0.884056
-574,-433,-5.86847,2.23523,0,0,0,0,0,0,0,-1,650,1457,-5.86844,-2.23519
-567,-433,-5.42255,1.16833,0,0,0,0,0,0,0,-1,657,1457,-5.42254,-1.1683
-560,-433,-6.84027,1.86414,0,0,0,0,0,0,0,-1,664,1457,-6.84026,-1.86412
-553,-433,-5.74017,1.79163,0,0,0,0,0,0,0,-1,671,1457,-5.74015,-1.79166
-546,-433,-6.9668,8.25073,0,0,0,0,0,0,0,-1,678,1457,-6.96679,-8.25074
-539,-433,-7.3136,8.75659,0,0,0,0,0,0,0,-1,685,1457,-7.31362,-8.75659
-532,-433,-8.79895,9.72437,0,0,0,0,0,0,0,-1,692,1457,-8.79895,-9.72433
-525,-433,-8.84967,10.4286,-0.00285716,-0.00191729,-0.00160327,-0.000716505,-0.00405795,-0.92796,0.00250091,0.0352214,699,1457,-8.84966,-10.4286
-518,-433,-8.87506,10.9202,-0.00200126,-0.00165106,-0.00122024,-0.000593422,-0.0030589,-0.85666,0.00187306,0.018185,706,1457,-8.87507,-10.9201
-511,-433,-8.89996,11.4482,-0.00111602,-0.00104981,-0.000669983,-0.000412112,-0.00175371,-0.810085,0.00105885,0.0161708,713,1457,-8.89998,-11.4482
-504,-433,-8.90295,11.9353,-0.000240007,-0.000359118,-7.26923e-05,-0.000205589,-0.000393536,-0.442204,0.000227284,0.0122085,720,1457,-8.90295,-11.9353
-497,-433,-8.90894,12.431,0.000794322,0.00049503,0.000682022,0.00134292,-5.35704e-05,0.677402,0.000913662,0.0128443,727,1457,-8.90893,-12.4311
-490,-433,-8.95386,12.9385,0.00204289,0.00158891,0.00166713,0.00349841,0.000133389,0.717736,0.00228911,0.0152562,734,1457,-8.95387,-12.9385
-483,-433,-8.97321,13.4668,0.00349437,0.00283825,0.00281421,0.00599958,0.00033304,0.727374,0.00389346,0.0158292,741,1457,-8.97319,-13.4668
-476,-433,-8.98651,13.989,0.00523703,0.00426125,0.0042069,0.00898423,0.000514047,0.727669,0.0058257,0.0105662,748,1457,-8.98651,-13.989
-469,-433,-9.01318,14.5035,0.00740391,0.00579704,0.0059351,0.0125897,0.000611243,0.718122,0.00819699,0.0109551,755,1457,-9.01319,-14.5036
-462,-433,-9.0329,15.0232,0,0,0,0,0,0,0,-1,762,1457,-9.03287,-15.0231
-455,-433,-8.60645,15.7941,0,0,0,0,0,0,0,-1,769,1457,-8.60644,-15.7941
-448,-433,-6.94812,14.5563,0,0,0,0,0,0,0,-1,776,1457,-6.94809,-14.5562
-441,-433,-9.97485,14.0258,0,0,0,0,0,0,0,-1,783,1457,-9.97488,-14.0257
-434,-433,-9.41205,14.2297,0,0,0,0,0,0,0,-1,790,1457,-9.41205,-14.2297
-427,-433,-8.67419,13.6827,0,0,0,0,0,0,0,-1,797,1457,-8.67422,-13.6827
-420,-433,-5.74658,9.49121,0,0,0,0,0,0,0,-1,804,1457,-5.7466,-9.49119
-413,-433,-3.63074,5.5813,0,0,0,0,0,0,0,-1,811,1457,-3.63072,-5.58129
-406,-433,-12.3472,4.69373,0,0,0,0,0,0,0,-1,818,1457,-12.3472,-4.69374
-399,-433,-12.055,2.83594,0,0,0,0,0,0,0,-1,825,1457,-12.055,-2.83594
-392,-433,-12.9772,1.6228,0,0,0,0,0,0,0,-1,832,1457,-12.9772,-1.62282
-385,-433,-13.7999,0.514771,0,0,0,0,0,0,0,-1,839,1457,-13.7999,-0.514788
-378,-433,0,0,0,0,0,0,0,0,0,-1,846,1457,0,0
-371,-433,0,0,0,0,0,0,0,0,0,-1,853,1457,0,0
-364,-433,0,0,0,0,0,0,0,0,0,-1,860,1457,0,0
-357,-433,0,0,0,0,0,0,0,0,0,-1,867,1457,0,0
-350,-433,0,0,0,0,0,0,0,0,0,-1,874,1457,0,0
-343,-433,0,0,0,0,0,0,0,0,0,-1,881,1457,0,0
-336,-433,0,0,0,0,0,0,0,0,0,-1,888,1457,0,0
-329,-433,0,0,0,0,0,0,0,0,0,-1,895,1457,0,0
-322,-433,0,0,0,0,0,0,0,0,0,-1,902,1457,0,0
-315,-433,0,0,0,0,0,0,0,0,0,-1,909,1457,0,0
-308,-433,0,0,0,0,0,0,0,0,0,-1,916,1457,0,0
-301,-433,0,0,0,0,0,0,0,0,0,-1,923,1457,0,0
-294,-433,0,0,0,0,0,0,0,0,0,-1,930,1457,0,0
-287,-433,0,0,0,0,0,0,0,0,0,-1,937,1457,0,0
-280,-433,0,0,0,0,0,0,0,0,0,-1,944,1457,0,0
-273,-433,0,0,0,0,0,0,0,0,0,-1,951,1457,0,0
-266,-433,0,0,0,0,0,0,0,0,0,-1,958,1457,0,0
-259,-433,0,0,0,0,0,0,0,0,0,-1,965,1457,0,0
-252,-433,0,0,0,0,0,0,0,0,0,-1,972,1457,0,0
-245,-433,0,0,0,0,0,0,0,0,0,-1,979,1457,0,0
-238,-433,0,0,0,0,0,0,0,0,0,-1,986,1457,0,0
-231,-433,0,0,0,0,0,0,0,0,0,-1,993,1457,0,0
-224,-433,0,0,0,0,0,0,0,0,0,-1,1000,1457,0,0
-217,-433,0,0,0,0,0,0,0,0,0,-1,1007,1457,0,0
-210,-433,0,0,0,0,0,0,0,0,0,-1,1014,1457,0,0
-203,-433,0,0,0,0,0,0,0,0,0,-1,1021,1457,0,0
-196,-433,0,0,0,0,0,0,0,0,0,-1,1028,1457,0,0
-189,-433,0,0,0,0,0,0,0,0,0,-1,1035,1457,0,0
-182,-433,0,0,0,0,0,0,0,0,0,-1,1042,1457,0,0
-175,-433,0,0,0,0,0,0,0,0,0,-1,1049,1457,0,0
-168,-433,0,0,0,0,0,0,0,0,0,-1,1056,1457,0,0
-161,-433,0,0,0,0,0,0,0,0,0,-1,1063,1457,0,0
-154,-433,0,0,0,0,0,0,0,0,0,-1,1070,1457,0,0
-147,-433,0,0,0,0,0,0,0,0,0,-1,1077,1457,0,0
-140,-433,0,0,0,0,0,0,0,0,0,-1,1084,1457,0,0
-133,-433,0,0,0,0,0,0,0,0,0,-1,1091,1457,0,0
-126,-433,0,0,0,0,0,0,0,0,0,-1,1098,1457,0,0
-119,-433,0,0,0,0,0,0,0,0,0,-1,1105,1457,0,0
-112,-433,0,0,0,0,0,0,0,0,0,-1,1112,1457,0,0
-105,-433,0,0,0,0,0,0,0,0,0,-1,1119,1457,0,0
-98,-433,0,0,0,0,0,0,0,0,0,-1,1126,1457,0,0
-91,-433,0,0,0,0,0,0,0,0,0,-1,1133,1457,0,0
-84,-433,0,0,0,0,0,0,0,0,0,-1,1140,1457,0,0
-77,-433,0,0,0,0,0,0,0,0,0,-1,1147,1457,0,0
-70,-433,0,0,0,0,0,0,0,0,0,-1,1154,1457,0,0
-63,-433,0,0,0,0,0,0,0,0,0,-1,1161,1457,0,0
-56,-433,0,0,0,0,0,0,0,0,0,-1,1168,1457,0,0
-49,-433,0,0,0,0,0,0,0,0,0,-1,1175,1457,0,0
-42,-433,0,0,0,0,0,0,0,0,0,-1,1182,1457,0,0
-35,-433,0,0,0,0,0,0,0,0,0,-1,1189,1457,0,0
-28,-433,0,0,0,0,0,0,0,0,0,-1,1196,1457,0,0
-21,-433,0,0,0,0,0,0,0,0,0,-1,1203,1457,0,0
-14,-433,0,0,0,0,0,0,0,0,0,-1,1210,1457,0,0
-7,-433,0,0,0,0,0,0,0,0,0,-1,1217,1457,0,0
0,-433,0,0,0,0,0,0,0,0,0,-1,1224,1457,0,0
7,-433,0,0,0,0,0,0,0,0,0,-1,1231,1457,0,0
14,-433,0,0,0,0,0,0,0,0,0,-1,1238,1457,0,0
21,-433,0,0,0,0,0,0,0,0,0,-1,1245,1457,0,0
28,-433,0,0,0,0,0,0,0,0,0,-1,1252,1457,0,0
35,-433,0,0,0,0,0,0,0,0,0,-1,1259,1457,0,0
42,-433,0,0,0,0,0,0,0,0,0,-1,1266,1457,0,0
49,-433,0,0,0,0,0,0,0,0,0,-1,1273,1457,0,0
56,-433,0,0,0,0,0,0,0,0,0,-1,1280,1457,0,0
63,-433,0,0,0,0,0,0,0,0,0,-1,1287,1457,0,0
70,-433,0,0,0,0,0,0,0,0,0,-1,1294,1457,0,0
77,-433,0,0,0,0,0,0,0,0,0,-1,1301,1457,0,0
84,-433,0,0,0,0,0,0,0,0,0,-1,1308,1457,0,0
91,-433,0,0,0,0,0,0,0,0,0,-1,1315,1457,0,0
98,-433,0,0,0,0,0,0,0,0,0,-1,1322,1457,0,0
105,-433,0,0,0,0,0,0,0,0,0,-1,1329,1457,0,0
112,-433,0,0,0,0,0,0,0,0,0,-1,1336,1457,0,0
119,-433,0,0,0,0,0,0,0,0,0,-1,1343,1457,0,0
126,-433,0,0,0,0,0,0,0,0,0,-1,1350,1457,0,0
133,-433,0,0,0,0,0,0,0,0,0,-1,1357,1457,0,0
140,-433,0,0,0,0,0,0,0,0,0,-1,1364,1457,0,0
147,-433,0,0,0,0,0,0,0,0,0,-1,1371,1457,0,0
154,-433,0,0,0,0,0,0,0,0,0,-1,1378,1457,0,0
161,-433,0,0,0,0,0,0,0,0,0,-1,1385,1457,0,0
168,-433,0,0,0,0,0,0,0,0,0,-1,1392,1457,0,0
175,-433,0,0,0,0,0,0,0,0,0,-1,1399,1457,0,0
182,-433,0,0,0,0,0,0,0,0,0,-1,1406,1457,0,0
189,-433,0,0,0,0,0,0,0,0,0,-1,1413,1457,0,0
196,-433,0,0,0,0,0,0,0,0,0,-1,1420,1457,0,0
203,-433,0,0,0,0,0,0,0,0,0,-1,1427,1457,0,0
210,-433,0,0,0,0,0,0,0,0,0,-1,1434,1457,0,0
217,-433,0,0,0,0,0,0,0,0,0,-1,1441,1457,0,0
224,-433,0,0,0,0,0,0,0,0,0,-1,1448,1457,0,0
231,-433,0,0,0,0,0,0,0,0,0,-1,1455,1457,0,0
238,-433,0,0,0,0,0,0,0,0,0,-1,1462,1457,0,0
245,-433,0,0,0,0,0,0,0,0,0,-1,1469,1457,0,0
252,-433,0,0,0,0,0,0,0,0,0,-1,1476,1457,0,0
259,-433,0,0,0,0,0,0,0,0,0,-1,1483,1457,0,0
266,-433,0,0,0,0,0,0,0,0,0,-1,1490,1457,0,0
273,-433,0,0,0,0,0,0,0,0,0,-1,1497,1457,0,0
280,-433,0,0,0,0,0,0,0,0,0,-1,1504,1457,0,0
287,-433,0,0,0,0,0,0,0,0,0,-1,1511,1457,0,0
294,-433,0,0,0,0,0,0,0,0,0,-1,1518,1457,0,0
301,-433,0,0,0,0,0,0,0,0,0,-1,1525,1457,0,0
308,-433,0,0,0,0,0,0,0,0,0,-1,1532,1457,0,0
315,-433,0,0,0,0,0,0,0,0,0,-1,1539,1457,0,0
322,-433,0,0,0,0,0,0,0,0,0,-1,1546,1457,0,0
329,-433,0,0,0,0,0,0,0,0,0,-1,1553,1457,0,0
336,-433,0,0,0,0,0,0,0,0,0,-1,1560,1457,0,0
343,-433,0,0,0,0,0,0,0,0,0,-1,1567,1457,0,0
350,-433,0,0,0,0,0,0,0,0,0,-1,1574,1457,0,0
357,-433,0,0,0,0,0,0,0,0,0,-1,1581,1457,0,0
364,-433,0,0,0,0,0,0,0,0,0,-1,1588,1457,0,0
371,-433,0,0,0,0,0,0,0,0,0,-1,1595,1457,0,0
378,-433,0,0,0,0,0,0,0,0,0,-1,1602,1457,0,0
385,-433,0,0,0,0,0,0,0,0,0,-1,1609,1457,0,0
392,-433,0,0,0,0,0,0,0,0,0,-1,1616,1457,0,0
399,-433,0,0,0,0,0,0,0,0,0,-1,1623,1457,0,0
406,-433,0,0,0,0,0,0,0,0,0,-1,1630,1457,0,0
413,-433,0,0,0,0,0,0,0,0,0,-1,1637,1457,0,0
420,-433,0,0,0,0,0,0,0,0,0,-1,1644,1457,0,0
427,-433,0,0,0,0,0,0,0,0,0,-1,1651,1457,0,0
434,-433,0,0,0,0,0,0,0,0,0,-1,1658,1457,0,0
441,-433,0,0,0,0,0,0,0,0,0,-1,1665,1457,0,0
448,-433,0,0,0,0,0,0,0,0,0,-1,1672,1457,0,0
455,-433,0,0,0,0,0,0,0,0,0,-1,1679,1457,0,0
462,-433,0,0,0,0,0,0,0,0,0,-1,1686,1457,0,0
469,-433,0,0,0,0,0,0,0,0,0,-1,1693,1457,0,0
476,-433,0,0,0,0,0,0,0,0,0,-1,1700,1457,0,0
483,-433,0,0,0,0,0,0,0,0,0,-1,1707,1457,0,0
490,-433,0,0,0,0,0,0,0,0,0,-1,1714,1457,0,0
497,-433,0,0,0,0,0,0,0,0,0,-1,1721,1457,0,0
504,-433,19.9058,3.03662,0,0,0,0,0,0,0,-1,1728,1457,19.9058,-3.03656
511,-433,19.0145,3.07837,0,0,0,0,0,0,0,-1,1735,1457,19.0146,-3.07834
518,-433,18.071,3.06433,0,0,0,0,0,0,0,-1,1742,1457,18.071,-3.06432
525,-433,17.2048,3.37085,0,0,0,0,0,0,0,-1,1749,1457,17.2049,-3.37083
532,-433,16.5637,3.36646,0,0,0,0,0,0,0,-1,1756,1457,16.5637,-3.36643
539,-433,15.9193,3.30396,0,0,0,0,0,0,0,-1,1763,1457,15.9193,-3.30394
546,-433,23.1903,4.81775,0,0,0,0,0,0,0,-1,1770,1457,23.1903,-4.81775
553,-433,13.9674,11.5781,0,0,0,0,0,0,0,-1,1777,1457,13.9674,-11.5781
560,-433,13.9855,11.7341,0,0,0,0,0,0,0,-1,1784,1457,13.9855,-11.7341
567,-433,13.9264,11.3364,0,0,0,0,0,0,0,-1,1791,1457,13.9263,-11.3364
574,-433,15.5305,12.3673,0,0,0,0,0,0,0,-1,1798,1457,15.5305,-12.3673
581,-433,16.6405,12.1898,0,0,0,0,0,0,0,-1,1805,1457,16.6405,-12.1898
588,-433,23.207,17.3341,0,0,0,0,0,0,0,-1,1812,1457,23.207,-17.3341
595,-433,23.1008,16.6162,0.00258574,0.00386409,-0.00316894,0.00645767,-7.84453e-06,-0.884913,0.00430773,0.0390979,1819,1457,23.1009,-16.6163
602,-433,23.0754,16.0823,0.00228602,0.00300906,-0.0024531,0.00512714,0.000167944,-0.858558,0.00336351,0.0225713,1826,1457,23.0754,-16.0823
609,-433,23.0518,15.532,0.00203856,0.0022346,-0.00188953,0.00402865,0.000244508,-0.811313,0.00260809,0.0158436,1833,1457,23.0518,-15.532
616,-433,23.0514,15.0756,0.00177484,0.00147088,-0.00141296,0.00304397,0.000201752,-0.731824,0.00196552,0.0140694,1840,1457,23.0514,-15.0756
623,-433,23.0297,14.5945,0.00157903,0.000880623,-0.00101332,0.00230163,0.000158026,-0.619464,0.00148455,0.0114569,1847,1457,23.0297,-14.5945
630,-433,23.0365,14.1382,0.00154018,0.000413753,-0.000754925,0.00191884,3.50949e-05,-0.464913,0.00126769,0.0145441,1854,1457,23.0364,-14.1382
637,-433,23.0321,13.6814,0.00154145,0.000126499,-0.000538728,0.00172322,-5.52659e-05,-0.325403,0.00116767,0.0154048,1861,1457,23.0321,-13.6814
644,-433,23.0052,13.2181,0.00163004,-2.1567e-05,-0.000375641,0.00171146,-0.000102988,-0.213452,0.00117681,0.0159328,1868,1457,23.0052,-13.2181
651,-433,22.9757,12.7097,0.00181398,7.89059e-05,-0.000342792,0.00187925,1.36371e-05,-0.188151,0.00124831,0.0127318,1875,1457,22.9757,-12.7097
658,-433,22.9312,12.1816,0.00202766,0.000243819,-0.000340168,0.00209032,0.000181152,-0.18218,0.00133726,0.0248185,1882,1457,22.9311,-12.1817
665,-433,22.986,11.5573,0,0,0,0,0,0,0,-1,1889,1457,22.986,-11.5573
672,-433,18.115,8.7207,0,0,0,0,0,0,0,-1,1896,1457,18.115,-8.72074
679,-433,17.2969,9.6355,0,0,0,0,0,0,0,-1,1903,1457,17.2968,-9.63548
686,-433,13.6356,8.61694,0,0,0,0,0,0,0,-1,1910,1457,13.6356,-8.61694
693,-433,13.4081,8.39624,0,0,0,0,0,0,0,-1,1917,1457,13.4081,-8.39624
700,-433,7.16809,-1.5166,0,0,0,0,0,0,0,-1,1924,1457,7.16806,1.51656
707,-433,8.68359,-2.82202,0,0,0,0,0,0,0,-1,1931,1457,8.68359,2.82197
714,-433,0,0,0,0,0,0,0,0,0,-1,1938,1457,0,0
721,-433,0,0,0,0,0,0,0,0,0,-1,1945,1457,0,0
728,-433,0,0,0,0,0,0,0,0,0,-1,1952,1457,0,0
735,-433,0,0,0,0,0,0,0,0,0,-1,1959,1457,0,0
742,-433,0,0,0,0,0,0,0,0,0,-1,1966,1457,0,0
749,-433,0,0,0,0,0,0,0,0,0,-1,1973,1457,0,0
756,-433,0,0,0,0,0,0,0,0,0,-1,1980,1457,0,0
763,-433,0,0,0,0,0,0,0,0,0,-1,1987,1457,0,0
770,-433,0,0,0,0,0,0,0,0,0,-1,1994,1457,0,0
777,-433,0,0,0,0,0,0,0,0,0,-1,2001,1457,0,0
784,-433,0,0,0,0,0,0,0,0,0,-1,2008,1457,0,0
791,-433,0,0,0,0,0,0,0,0,0,-1,2015,1457,0,0
798,-433,0,0,0,0,0,0,0,0,0,-1,2022,1457,0,0
805,-433,0,0,0,0,0,0,0,0,0,-1,2029,1457,0,0
812,-433,0,0,0,0,0,0,0,0,0,-1,2036,1457,0,0
-700,-440,0,0,0,0,0,0,0,0,0,-1,524,1464,0,0
-693,-440,0,0,0,0,0,0,0,0,0,-1,531,1464,0,0
-686,-440,0,0,0,0,0,0,0,0,0,-1,538,1464,0,0
-679,-440,0,0,0,0,0,0,0,0,0,-1,545,1464,0,0
-672,-440,0,0,0,0,0,0,0,0,0,-1,552,1464,0,0
-665,-440,0,0,0,0,0,0,0,0,0,-1,559,1464,0,0
-658,-440,0,0,0,0,0,0,0,0,0,-1,566,1464,0,0
-651,-440,0,0,0,0,0,0,0,0,0,-1,573,1464,0,0
-644,-440,0,0,0,0,0,0,0,0,0,-1,580,1464,0,0
-637,-440,0,0,0,0,0,0,0,0,0,-1,587,1464,0,0
-630,-440,0,0,0,0,0,0,0,0,0,-1,594,1464,0,0
-623,-440,0,0,0,0,0,0,0,0,0,-1,601,1464,0,0
-616,-440,0,0,0,0,0,0,0,0,0,-1,608,1464,0,0
-609,-440,0,0,0,0,0,0,0,0,0,-1,615,1464,0,0
-602,-440,0,0,0,0,0,0,0,0,0,-1,622,1464,0,0
-595,-440,0,0,0,0,0,0,0,0,0,-1,629,1464,0,0
-588,-440,0,0,0,0,0,0,0,0,0,-1,636,1464,0,0
-581,-440,-8.97278,0.254517,0,0,0,0,0,0,0,-1,643,1464,-8.97276,-0.254526
-574,-440,-7.00818,-0.918579,0,0,0,0,0,0,0,-1,650,1464,-7.00817,0.918538
-567,-440,-6.12152,-0.0766602,0,0,0,0,0,0,0,-1,657,1464,-6.12151,0.0767097
-560,-440,-5.46747,0.82251,0,0,0,0,0,0,0,-1,664,1464,-5.46748,-0.822551
-553,-440,-6.84729,0.0831299,0,0,0,0,0,0,0,-1,671,1464,-6.84732,-0.083136
-546,-440,-5.63446,-0.153198,0,0,0,0,0,0,0,-1,678,1464,-5.63447,0.153147
-539,-440,-6.80017,8.58252,0,0,0,0,0,0,0,-1,685,1464,-6.80015,-8.58257
-532,-440,-8.08698,9.79199,0,0,0,0,0,0,0,-1,692,1464,-8.08695,-9.79195
-525,-440,-8.4007,10.4612,-0.00381951,-0.0028677,-0.00205245,-0.0012367,-0.0054505,-0.89932,0.00329961,0.0407216,699,1464,-8.40067,-10.4612
-518,-440,-8.42719,10.8798,-0.00287212,-0.00255906,-0.00166443,-0.00104381,-0.00438736,-0.832282,0.0026465,0.0207341,706,1464,-8.4272,-10.8797
-511,-440,-8.38159,11.4652,-0.00192279,-0.00187184,-0.00109174,-0.000805283,-0.00298935,-0.797063,0.00178605,0.0163135,713,1464,-8.38157,-11.4652
-504,-440,-8.38538,11.9908,-0.00105172,-0.00115123,-0.000537122,-0.000562054,-0.0016409,-0.739217,0.000962906,0.0190592,720,1464,-8.38537,-11.9909
-497,-440,-8.40265,12.5056,-5.21999e-05,-0.000308237,0.000154926,2.07563e-05,-0.000381193,0.440106,0.000261323,0.0217877,727,1464,-8.40267,-12.5056
-490,-440,-8.41028,12.953,0.00115445,0.0007466,0.00105174,0.00202186,-0.000120802,0.689639,0.00138992,0.0225411,734,1464,-8.41027,-12.953
-483,-440,-8.45575,13.4679,0.00256068,0.00193618,0.00209647,0.00436802,0.000128837,0.711471,0.00287003,0.0201444,741,1464,-8.45577,-13.4679
-476,-440,-8.47485,13.9779,0.00422543,0.00324706,0.0033543,0.00712602,0.000346462,0.712989,0.00463951,0.0132449,748,1464,-8.47486,-13.9779
-469,-440,-8.48895,14.5023,0.00620528,0.00462509,0.00489606,0.0103746,0.000455793,0.705401,0.00676958,0.0126321,755,1464,-8.48895,-14.5023
-462,-440,-8.52661,15.0042,0.00856914,0.0062568,0.0067324,0.0142439,0.000582017,0.700362,0.00930801,0.0163227,762,1464,-8.52663,-15.0042
-455,-440,-8.40399,15.6045,0.0115088,0.00798187,0.00893965,0.0188573,0.000633432,0.688016,0.0123658,0.0360956,769,1464,-8.40399,-15.6045
-448,-440,-7.92053,16.3239,0,0,0,0,0,0,0,-1,776,1464,-7.92053,-16.3239
-441,-440,-7.28583,14.7465,0,0,0,0,0,0,0,-1,783,1464,-7.28584,-14.7464
-434,-440,-8.33636,14.5024,0,0,0,0,0,0,0,-1,790,1464,-8.33638,-14.5025
-427,-440,-8.28094,14.2512,0,0,0,0,0,0,0,-1,797,1464,-8.28094,-14.2512
-420,-440,-6.86603,8.09216,0,0,0,0,0,0,0,-1,804,1464,-6.86602,-8.09222
-413,-440,-3.46796,5.72278,0,0,0,0,0,0,0,-1,811,1464,-3.46797,-5.72276
-406,-440,-5.2887,5.20264,0,0,0,0,0,0,0,-1,818,1464,-5.2887,-5.20261
-399,-440,-12.7318,3.94421,0,0,0,0,0,0,0,-1,825,1464,-12.7318,-3.94419
-392,-440,-13.5565,2.51855,0,0,0,0,0,0,0,-1,832,1464,-13.5565,-2.51861
-385,-440,-14.6741,1.39795,0,0,0,0,0,0,0,-1,839,1464,-14.6741,-1.39801
-378,-440,-15.8063,0.293457,0,0,0,0,0,0,0,-1,846,1464,-15.8063,-0.293412
-371,-440,0,0,0,0,0,0,0,0,0,-1,853,1464,0,0
-364,-440,0,0,0,0,0,0,0,0,0,-1,860,1464,0,0
-357,-440,0,0,0,0,0,0,0,0,0,-1,867,1464,0,0
-350,-440,0,0,0,0,0,0,0,0,0,-1,874,1464,0,0
-343,-440,0,0,0,0,0,0,0,0,0,-1,881,1464,0,0
-336,-440,0,0,0,0,0,0,0,0,0,-1,888,1464,0,0
-329,-440,0,0,0,0,0,0,0,0,0,-1,895,1464,0,0
-322,-440,0,0,0,0,0,0,0,0,0,-1,902,1464,0,0
-315,-440,0,0,0,0,0,0,0,0,0,-1,909,1464,0,0
-308,-440,0,0,0,0,0,0,0,0,0,-1,916,1464,0,0
-301,-440,0,0,0,0,0,0,0,0,0,-1,923,1464,0,0
-294,-440,0,0,0,0,0,0,0,0,0,-1,930,1464,0,0
-287,-440,0,0,0,0,0,0,0,0,0,-1,937,1464,0,0
-280,-440,0,0,0,0,0,0,0,0,0,-1,944,1464,0,0
-273,-440,0,0,0,0,0,0,0,0,0,-1,951,1464,0,0
-266,-440,0,0,0,0,0,0,0,0,0,-1,958,1464,0,0
-259,-440,0,0,0,0,0,0,0,0,0,-1,965,1464,0,0
-252,-440,0,0,0,0,0,0,0,0,0,-1,972,1464,0,0
-245,-440,0,0,0,0,0,0,0,0,0,-1,979,1464,0,0
-238,-440,0,0,0,0,0,0,0,0,0,-1,986,1464,0,0
-231,-440,0,0,0,0,0,0,0,0,0,-1,993,1464,0,0
-224,-440,0,0,0,0,0,0,0,0,0,-1,1000,1464,0,0
-217,-440,0,0,0,0,0,0,0,0,0,-1,1007,1464,0,0
-210,-440,0,0,0,0,0,0,0,0,0,-1,1014,1464,0,0
-203,-440,0,0,0,0,0,0,0,0,0,-1,1021,1464,0,0
-196,-440,0,0,0,0,0,0,0,0,0,-1,1028,1464,0,0
-189,-440,0,0,0,0,0,0,0,0,0,-1,1035,1464,0,0
-182,-440,0,0,0,0,0,0,0,0,0,-1,1042,1464,0,0
-175,-440,0,0,0,0,0,0,0,0,0,-1,1049,1464,0,0
-168,-440,0,0,0,0,0,0,0,0,0,-1,1056,1464,0,0
-161,-440,0,0,0,0,0,0,0,0,0,-1,1063,1464,0,0
-154,-440,0,0,0,0,0,0,0,0,0,-1,1070,1464,0,0
-147,-440,0,0,0,0,0,0,0,0,0,-1,1077,1464,0,0
-140,-440,0,0,0,0,0,0,0,0,0,-1,1084,1464,0,0
-133,-440,0,0,0,0,0,0,0,0,0,-1,1091,1464,0,0
-126,-440,0,0,0,0,0,0,0,0,0,-1,1098,1464,0,0
-119,-440,0,0,0,0,0,0,0,0,0,-1,1105,1464,0,0
-112,-440,0,0,0,0,0,0,0,0,0,-1,1112,1464,0,0
-105,-440,0,0,0,0,0,0,0,0,0,-1,1119,1464,0,0
-98,-440,0,0,0,0,0,0,0,0,0,-1,1126,1464,0,0
-91,-440,0,0,0,0,0,0,0,0,0,-1,1133,1464,0,0
-84,-440,0,0,0,0,0,0,0,0,0,-1,1140,1464,0,0
-77,-440,0,0,0,0,0,0,0,0,0,-1,1147,1464,0,0
-70,-440,0,0,0,0,0,0,0,0,0,-1,1154,1464,0,0
-63,-440,0,0,0,0,0,0,0,0,0,-1,1161,1464,0,0
-56,-440,0,0,0,0,0,0,0,0,0,-1,1168,1464,0,0
-49,-440,0,0,0,0,0,0,0,0,0,-1,1175,1464,0,0
-42,-440,0,0,0,0,0,0,0,0,0,-1,1182,1464,0,0
-35,-440,0,0,0,0,0,0,0,0,0,-1,1189,1464,0,0
-28,-440,0,0,0,0,0,0,0,0,0,-1,1196,1464,0,0
-21,-440,0,0,0,0,0,0,0,0,0,-1,1203,1464,0,0
-14,-440,0,0,0,0,0,0,0,0,0,-1,1210,1464,0,0
-7,-440,0,0,0,0,0,0,0,0,0,-1,1217,1464,0,0
0,-440,0,0,0,0,0,0,0,0,0,-1,1224,1464,0,0
7,-440,0,0,0,0,0,0,0,0,0,-1,1231,1464,0,0
14,-440,0,0,0,0,0,0,0,0,0,-1,1238,1464,0,0
21,-440,0,0,0,0,0,0,0,0,0,-1,1245,1464,0,0
28,-440,0,0,0,0,0,0,0,0,0,-1,1252,1464,0,0
35,-440,0,0,0,0,0,0,0,0,0,-1,1259,1464,0,0
42,-440,0,0,0,0,0,0,0,0,0,-1,1266,1464,0,0
49,-440,0,0,0,0,0,0,0,0,0,-1,1273,1464,0,0
56,-440,0,0,0,0,0,0,0,0,0,-1,1280,1464,0,0
63,-440,0,0,0,0,0,0,0,0,0,-1,1287,1464,0,0
70,-440,0,0,0,0,0,0,0,0,0,-1,1294,1464,0,0
77,-440,0,0,0,0,0,0,0,0,0,-1,1301,1464,0,0
84,-440,0,0,0,0,0,0,0,0,0,-1,1308,1464,0,0
91,-440,0,0,0,0,0,0,0,0,0,-1,1315,1464,0,0
98,-440,0,0,0,0,0,0,0,0,0,-1,1322,1464,0,0
105,-440,0,0,0,0,0,0,0,0,0,-1,1329,1464,0,0
112,-440,0,0,0,0,0,0,0,0,0,-1,1336,1464,0,0
119,-440,0,0,0,0,0,0,0,0,0,-1,1343,1464,0,0
126,-440,0,0,0,0,0,0,0,0,0,-1,1350,1464,0,0
133,-440,0,0,0,0,0,0,0,0,0,-1,1357,1464,0,0
140,-440,0,0,0,0,0,0,0,0,0,-1,1364,1464,0,0
147,-440,0,0,0,0,0,0,0,0,0,-1,1371,1464,0,0
154,-440,0,0,0,0,0,0,0,0,0,-1,1378,1464,0,0
161,-440,0,0,0,0,0,0,0,0,0,-1,1385,1464,0,0
168,-440,0,0,0,0,0,0,0,0,0,-1,1392,1464,0,0
175,-440,0,0,0,0,0,0,0,0,0,-1,1399,1464,0,0
182,-440,0,0,0,0,0,0,0,0,0,-1,1406,1464,0,0
189,-440,0,0,0,0,0,0,0,0,0,-1,1413,1464,0,0
196,-440,0,0,0,0,0,0,0,0,0,-1,1420,1464,0,0
203,-440,0,0,0,0,0,0,0,0,0,-1,1427,1464,0,0
210,-440,0,0,0,0,0,0,0,0,0,-1,1434,1464,0,0
217,-440,0,0,0,0,0,0,0,0,0,-1,1441,1464,0,0
224,-440,0,0,0,0,0,0,0,0,0,-1,1448,1464,0,0
231,-440,0,0,0,0,0,0,0,0,0,-1,1455,1464,0,0
238,-440,0,0,0,0,0,0,0,0,0,-1,1462,1464,0,0
245,-440,0,0,0,0,0,0,0,0,0,-1,1469,1464,0,0
252,-440,0,0,0,0,0,0,0,0,0,-1,1476,1464,0,0
259,-440,0,0,0,0,0,0,0,0,0,-1,1483,1464,0,0
266,-440,0,0,0,0,0,0,0,0,0,-1,1490,1464,0,0
273,-440,0,0,0,0,0,0,0,0,0,-1,1497,1464,0,0
280,-440,0,0,0,0,0,0,0,0,0,-1,1504,1464,0,0
287,-440,0,0,0,0,0,0,0,0,0,-1,1511,1464,0,0
294,-440,0,0,0,0,0,0,0,0,0,-1,1518,1464,0,0
301,-440,0,0,0,0,0,0,0,0,0,-1,1525,1464,0,0
308,-440,0,0,0,0,0,0,0,0,0,-1,1532,1464,0,0
315,-440,0,0,0,0,0,0,0,0,0,-1,1539,1464,0,0
322,-440,0,0,0,0,0,0,0,0,0,-1,1546,1464,0,0
329,-440,0,0,0,0,0,0,0,0,0,-1,1553,1464,0,0
336,-440,0,0,0,0,0,0,0,0,0,-1,1560,1464,0,0
343,-440,0,0,0,0,0,0,0,0,0,-1,1567,1464,0,0
350,-440,0,0,0,0,0,0,0,0,0,-1,1574,1464,0,0
357,-440,0,0,0,0,0,0,0,0,0,-1,1581,1464,0,0
364,-440,0,0,0,0,0,0,0,0,0,-1,1588,1464,0,0
371,-440,0,0,0,0,0,0,0,0,0,-1,1595,1464,0,0
378,-440,0,0,0,0,0,0,0,0,0,-1,1602,1464,0,0
385,-440,0,0,0,0,0,0,0,0,0,-1,1609,1464,0,0
392,-440,0,0,0,0,0,0,0,0,0,-1,1616,1464,0,0
399,-440,0,0,0,0,0,0,0,0,0,-1,1623,1464,0,0
406,-440,0,0,0,0,0,0,0,0,0,-1,1630,1464,0,0
413,-440,0,0,0,0,0,0,0,0,0,-1,1637,1464,0,0
420,-440,0,0,0,0,0,0,0,0,0,-1,1644,1464,0,0
427,-440,0,0,0,0,0,0,0,0,0,-1,1651,1464,0,0
434,-440,0,0,0,0,0,0,0,0,0,-1,1658,1464,0,0
441,-440,0,0,0,0,0,0,0,0,0,-1,1665,1464,0,0
448,-440,0,0,0,0,0,0,0,0,0,-1,1672,1464,0,0
455,-440,0,0,0,0,0,0,0,0,0,-1,1679,1464,0,0
462,-440,0,0,0,0,0,0,0,0,0,-1,1686,1464,0,0
469,-440,0,0,0,0,0,0,0,0,0,-1,1693,1464,0,0
476,-440,0,0,0,0,0,0,0,0,0,-1,1700,1464,0,0
483,-440,0,0,0,0,0,0,0,0,0,-1,1707,1464,0,0
490,-440,0,0,0,0,0,0,0,0,0,-1,1714,1464,0,0
497,-440,16.965,-0.528442,0,0,0,0,0,0,0,-1,1721,1464,16.965,0.528492
504,-440,15.8052,0.670166,0,0,0,0,0,0,0,-1,1728,1464,15.8052,-0.670145
511,-440,17.5754,2.77832,0,0,0,0,0,0,0,-1,1735,1464,17.5754,-2.77826
518,-440,16.9017,3.07861,0,0,0,0,0,0,0,-1,1742,1464,16.9018,-3.07859
525,-440,18.4495,12.0867,0,0,0,0,0,0,0,-1,1749,1464,18.4495,-12.0867
532,-440,15.4319,3.64392,0,0,0,0,0,0,0,-1,1756,1464,15.4318,-3.64391
539,-440,14.8214,3.41321,0,0,0,0,0,0,0,-1,1763,1464,14.8214,-3.4132
546,-440,14.8651,10.7683,0,0,0,0,0,0,0,-1,1770,1464,14.8651,-10.7683
553,-440,15.1213,11.4121,0,0,0,0,0,0,0,-1,1777,1464,15.1213,-11.4121
560,-440,17.4325,12.5394,0,0,0,0,0,0,0,-1,1784,1464,17.4325,-12.5394
567,-440,16.9025,12.4249,0,0,0,0,0,0,0,-1,1791,1464,16.9025,-12.425
574,-440,19.2841,14.8679,0,0,0,0,0,0,0,-1,1798,1464,19.2841,-14.868
581,-440,22.4442,17.9713,0,0,0,0,0,0,0,-1,1805,1464,22.4442,-17.9713
588,-440,22.4224,17.1222,0,0,0,0,0,0,0,-1,1812,1464,22.4224,-17.1222
595,-440,22.5537,16.5869,0.00226991,0.00293968,-0.00247552,0.00510286,0.000106726,-0.852629,0.0033669,0.0236709,1819,1464,22.5537,-16.587
602,-440,22.6028,16.0458,0.00212055,0.00229008,-0.001987,0.00419412,0.000216502,-0.806715,0.00272678,0.0192223,1826,1464,22.6028,-16.0458
609,-440,22.5863,15.5543,0.0019636,0.00169839,-0.00154545,0.00338213,0.000279867,-0.742601,0.00216749,0.0165574,1833,1464,22.5863,-15.5544
616,-440,22.5762,15.0839,0.00178352,0.00108447,-0.00117655,0.00266137,0.00020663,-0.641011,0.00170953,0.0182354,1840,1464,22.5761,-15.0839
623,-440,22.5731,14.6003,0.00166239,0.000583626,-0.000852603,0.0021319,0.000114114,-0.503365,0.00138479,0.0143008,1847,1464,22.5731,-14.6004
630,-440,22.5518,14.1273,0.00169644,0.000175656,-0.000650897,0.00193698,-6.48824e-05,-0.353983,0.00131348,0.0120277,1854,1464,22.5518,-14.1274
637,-440,22.549,13.7217,0.00177796,-3.41352e-05,-0.000504424,0.00190891,-0.000165086,-0.253998,0.00133105,0.0165211,1861,1464,22.549,-13.7216
644,-440,22.5385,13.2513,0.00193766,-0.000101684,-0.000416965,0.00201961,-0.000183643,-0.194087,0.00141161,0.0145467,1868,1464,22.5384,-13.2513
651,-440,22.5533,12.7174,0.00220323,0.000110626,-0.000461558,0.00230051,1.33443e-05,-0.207728,0.00152924,0.0184827,1875,1464,22.5534,-12.7174
658,-440,22.6266,12.1008,0,0,0,0,0,0,0,-1,1882,1464,22.6266,-12.1008
665,-440,21.4609,11.3298,0,0,0,0,0,0,0,-1,1889,1464,21.4609,-11.3298
672,-440,18.9385,9.6394,0,0,0,0,0,0,0,-1,1896,1464,18.9384,-9.63939
679,-440,16.9508,10.2336,0,0,0,0,0,0,0,-1,1903,1464,16.9508,-10.2337
686,-440,15.2556,8.44177,0,0,0,0,0,0,0,-1,1910,1464,15.2556,-8.44177
693,-440,9.88635,2.89795,0,0,0,0,0,0,0,-1,1917,1464,9.88638,-2.89798
700,-440,7.07825,-2.62061,0,0,0,0,0,0,0,-1,1924,1464,7.07829,2.62057
707,-440,0,0,0,0,0,0,0,0,0,-1,1931,1464,0,0
714,-440,0,0,0,0,0,0,0,0,0,-1,1938,1464,0,0
721,-440,0,0,0,0,0,0,0,0,0,-1,1945,1464,0,0
728,-440,0,0,0,0,0,0,0,0,0,-1,1952,1464,0,0
735,-440,0,0,0,0,0,0,0,0,0,-1,1959,1464,0,0
742,-440,0,0,0,0,0,0,0,0,0,-1,1966,1464,0,0
749,-440,0,0,0,0,0,0,0,0,0,-1,1973,1464,0,0
756,-440,0,0,0,0,0,0,0,0,0,-1,1980,1464,0,0
763,-440,0,0,0,0,0,0,0,0,0,-1,1987,1464,0,0
770,-440,0,0,0,0,0,0,0,0,0,-1,1994,1464,0,0
777,-440,0,0,0,0,0,0,0,0,0,-1,2001,1464,0,0
784,-440,0,0,0,0,0,0,0,0,0,-1,2008,1464,0,0
791,-440,0,0,0,0,0,0,0,0,0,-1,2015,1464,0,0
798,-440,0,0,0,0,0,0,0,0,0,-1,2022,1464,0,0
805,-440,0,0,0,0,0,0,0,0,0,-1,2029,1464,0,0
812,-440,0,0,0,0,0,0,0,0,0,-1,2036,1464,0,0
-700,-447,0,0,0,0,0,0,0,0,0,-1,524,1471,0,0
-693,-447,0,0,0,0,0,0,0,0,0,-1,531,1471,0,0
-686,-447,0,0,0,0,0,0,0,0,0,-1,538,1471,0,0
-679,-447,0,0,0,0,0,0,0,0,0,-1,545,1471,0,0
-672,-447,0,0,0,0,0,0,0,0,0,-1,552,1471,0,0
-665,-447,0,0,0,0,0,0,0,0,0,-1,559,1471,0,0
-658,-447,0,0,0,0,0,0,0,0,0,-1,566,1471,0,0
-651,-447,0,0,0,0,0,0,0,0,0,-1,573,1471,0,0
-644,-447,0,0,0,0,0,0,0,0,0,-1,580,1471,0,0
-637,-447,0,0,0,0,0,0,0,0,0,-1,587,1471,0,0
-630,-447,0,0,0,0,0,0,0,0,0,-1,594,1471,0,0
-623,-447,0,0,0,0,0,0,0,0,0,-1,601,1471,0,0
-616,-447,0,0,0,0,0,0,0,0,0,-1,608,1471,0,0
-609,-447,0,0,0,0,0,0,0,0,0,-1,615,1471,0,0
-602,-447,0,0,0,0,0,0,0,0,0,-1,622,1471,0,0
-595,-447,0,0,0,0,0,0,0,0,0,-1,629,1471,0,0
-588,-447,0,0,0,0,0,0,0,0,0,-1,636,1471,0,0
-581,-447,-7.06482,-1.50476,0,0,0,0,0,0,0,-1,643,1471,-7.0648,1.50474
-574,-447,-6.88092,-0.00585938,0,0,0,0,0,0,0,-1,650,1471,-6.88095,0.00589852
-567,-447,-6.8205,-1.32178,0,0,0,0,0,0,0,-1,657,1471,-6.82047,1.32172
-560,-447,-8.85748,2.80774,0,0,0,0,0,0,0,-1,664,1471,-8.85748,-2.80775
-553,-447,-7.60486,3.26794,0,0,0,0,0,0,0,-1,671,1471,-7.60487,-3.26799
-546,-447,-3.94501,1.8656,0,0,0,0,0,0,0,-1,678,1471,-3.945,-1.86554
-539,-447,-5.35492,4.50024,0,0,0,0,0,0,0,-1,685,1471,-5.35492,-4.50018
-532,-447,-6.12781,8.81091,0,0,0,0,0,0,0,-1,692,1471,-6.12781,-8.81094
-525,-447,-7.84351,10.4532,0,0,0,0,0,0,0,-1,699,1471,-7.84352,-10.4533
-518,-447,-7.92615,10.7422,0,0,0,0,0,0,0,-1,706,1471,-7.92614,-10.7422
-511,-447,-7.8877,11.4213,-0.00273491,-0.00304203,-0.00164236,-0.00123894,-0.004538,-0.738784,0.00270851,0.0202819,713,1471,-7.88767,-11.4212
-504,-447,-7.86743,12.0361,-0.00185166,-0.00225682,-0.00111109,-0.000924835,-0.00318365,-0.695227,0.0018911,0.0204877,720,1471,-7.86744,-12.0362
-497,-447,-7.90424,12.5593,-0.000897416,-0.00138752,-0.000470367,-0.000612095,-0.00167284,-0.545251,0.000977327,0.0252043,727,1471,-7.90426,-12.5594
-490,-447,-7.85992,13.0004,0.000261817,-0.00033035,0.000361342,0.000432888,-0.000501421,0.442169,0.000539907,0.025398,734,1471,-7.85991,-13.0004
-483,-447,-7.94818,13.4816,0.00161126,0.000862956,0.00134177,0.00263007,-0.00015585,0.649427,0.00180757,0.0225294,741,1471,-7.94817,-13.4816
-476,-447,-7.96582,13.9801,0.00317544,0.00214447,0.00250688,0.00521929,0.000100626,0.683998,0.00344647,0.0142951,748,1471,-7.96582,-13.9801
-469,-447,-7.96558,14.5116,0.00498231,0.00346449,0.00390714,0.00820356,0.000243243,0.689474,0.00538979,0.0129494,755,1471,-7.96558,-14.5115
-462,-447,-7.99225,15.0365,0.00709338,0.00496798,0.0055336,0.0116654,0.000395963,0.690531,0.00764836,0.0142366,762,1471,-7.99222,-15.0365
-455,-447,-8.0528,15.5507,0.00962074,0.00653282,0.00743369,0.0156691,0.000484447,0.683005,0.0102884,0.0207652,769,1471,-8.0528,-15.5507
-448,-447,-7.88031,16.2101,0.0126305,0.00821189,0.00981061,0.0204775,0.000364904,0.674647,0.0135317,0.0436308,776,1471,-7.88034,-16.2101
-441,-447,-7.60767,17.036,0,0,0,0,0,0,0,-1,783,1471,-7.60767,-17.036
-434,-447,-7.43402,15.6273,0,0,0,0,0,0,0,-1,790,1471,-7.43404,-15.6274
-427,-447,-7.21832,14.691,0,0,0,0,0,0,0,-1,797,1471,-7.21834,-14.6911
-420,-447,-8.0545,12.8055,0,0,0,0,0,0,0,-1,804,1471,-8.05452,-12.8055
-413,-447,-4.27393,6.59705,0,0,0,0,0,0,0,-1,811,1471,-4.27392,-6.59707
-406,-447,-1.04279,6.18591,0,0,0,0,0,0,0,-1,818,1471,-1.04276,-6.18586
-399,-447,0.0134888,0.687622,0,0,0,0,0,0,0,-1,825,1471,0.0134841,-0.68767
-392,-447,-14.0646,3.76147,0,0,0,0,0,0,0,-1,832,1471,-14.0646,-3.7615
-385,-447,-15.1695,2.61865,0,0,0,0,0,0,0,-1,839,1471,-15.1695,-2.61871
-378,-447,-15.9424,1.49316,0,0,0,0,0,0,0,-1,846,1471,-15.9424,-1.49313
-371,-447,-17.3655,0.73291,0,0,0,0,0,0,0,-1,853,1471,-17.3655,-0.732946
-364,-447,0,0,0,0,0,0,0,0,0,-1,860,1471,0,0
-357,-447,0,0,0,0,0,0,0,0,0,-1,867,1471,0,0
-350,-447,0,0,0,0,0,0,0,0,0,-1,874,1471,0,0
-343,-447,0,0,0,0,0,0,0,0,0,-1,881,1471,0,0
-336,-447,0,0,0,0,0,0,0,0,0,-1,888,1471,0,0
-329,-447,0,0,0,0,0,0,0,0,0,-1,895,1471,0,0
-322,-447,0,0,0,0,0,0,0,0,0,-1,902,1471,0,0
-315,-447,0,0,0,0,0,0,0,0,0,-1,909,1471,0,0
-308,-447,0,0,0,0,0,0,0,0,0,-1,916,1471,0,0
-301,-447,0,0,0,0,0,0,0,0,0,-1,923,1471,0,0
-294,-447,0,0,0,0,0,0,0,0,0,-1,930,1471,0,0
-287,-447,0,0,0,0,0,0,0,0,0,-1,937,1471,0,0
-280,-447,0,0,0,0,0,0,0,0,0,-1,944,1471,0,0
-273,-447,0,0,0,0,0,0,0,0,0,-1,951,1471,0,0
-266,-447,0,0,0,0,0,0,0,0,0,-1,958,1471,0,0
-259,-447,0,0,0,0,0,0,0,0,0,-1,965,1471,0,0
-252,-447,0,0,0,0,0,0,0,0,0,-1,972,1471,0,0
-245,-447,0,0,0,0,0,0,0,0,0,-1,979,1471,0,0
-238,-447,0,0,0,0,0,0,0,0,0,-1,986,1471,0,0
-231,-447,0,0,0,0,0,0,0,0,0,-1,993,1471,0,0
-224,-447,0,0,0,0,0,0,0,0,0,-1,1000,1471,0,0
-217,-447,0,0,0,0,0,0,0,0,0,-1,1007,1471,0,0
-210,-447,0,0,0,0,0,0,0,0,0,-1,1014,1471,0,0
-203,-447,0,0,0,0,0,0,0,0,0,-1,1021,1471,0,0
-196,-447,0,0,0,0,0,0,0,0,0,-1,1028,1471,0,0
-189,-447,0,0,0,0,0,0,0,0,0,-1,1035,1471,0,0
-182,-447,0,0,0,0,0,0,0,0,0,-1,1042,1471,0,0
-175,-447,0,0,0,0,0,0,0,0,0,-1,1049,1471,0,0
-168,-447,0,0,0,0,0,0,0,0,0,-1,1056,1471,0,0
-161,-447,0,0,0,0,0,0,0,0,0,-1,1063,1471,0,0
-154,-447,0,0,0,0,0,0,0,0,0,-1,1070,1471,0,0
-147,-447,0,0,0,0,0,0,0,0,0,-1,1077,1471,0,0
-140,-447,0,0,0,0,0,0,0,0,0,-1,1084,1471,0,0
-133,-447,0,0,0,0,0,0,0,0,0,-1,1091,1471,0,0
-126,-447,0,0,0,0,0,0,0,0,0,-1,1098,1471,0,0
-119,-447,0,0,0,0,0,0,0,0,0,-1,1105,1471,0,0
-112,-447,0,0,0,0,0,0,0,0,0,-1,1112,1471,0,0
-105,-447,0,0,0,0,0,0,0,0,0,-1,1119,1471,0,0
-98,-447,0,0,0,0,0,0,0,0,0,-1,1126,1471,0,0
-91,-447,0,0,0,0,0,0,0,0,0,-1,1133,1471,0,0
-84,-447,0,0,0,0,0,0,0,0,0,-1,1140,1471,0,0
-77,-447,0,0,0,0,0,0,0,0,0,-1,1147,1471,0,0
-70,-447,0,0,0,0,0,0,0,0,0,-1,1154,1471,0,0
-63,-447,0,0,0,0,0,0,0,0,0,-1,1161,1471,0,0
-56,-447,0,0,0,0,0,0,0,0,0,-1,1168,1471,0,0
-49,-447,0,0,0,0,0,0,0,0,0,-1,1175,1471,0,0
-42,-447,0,0,0,0,0,0,0,0,0,-1,1182,1471,0,0
-35,-447,0,0,0,0,0,0,0,0,0,-1,1189,1471,0,0
-28,-447,0,0,0,0,0,0,0,0,0,-1,1196,1471,0,0
-21,-447,0,0,0,0,0,0,0,0,0,-1,1203,1471,0,0
-14,-447,0,0,0,0,0,0,0,0,0,-1,1210,1471,0,0
-7,-447,0,0,0,0,0,0,0,0,0,-1,1217,1471,0,0
0,-447,0,0,0,0,0,0,0,0,0,-1,1224,1471,0,0
7,-447,0,0,0,0,0,0,0,0,0,-1,1231,1471,0,0
14,-447,0,0,0,0,0,0,0,0,0,-1,1238,1471,0,0
21,-447,0,0,0,0,0,0,0,0,0,-1,1245,1471,0,0
28,-447,0,0,0,0,0,0,0,0,0,-1,1252,1471,0,0
35,-447,0,0,0,0,0,0,0,0,0,-1,1259,1471,0,0
42,-447,0,0,0,0,0,0,0,0,0,-1,1266,1471,0,0
49,-447,0,0,0,0,0,0,0,0,0,-1,1273,1471,0,0
56,-447,0,0,0,0,0,0,0,0,0,-1,1280,1471,0,0
63,-447,0,0,0,0,0,0,0,0,0,-1,1287,1471,0,0
70,-447,0,0,0,0,0,0,0,0,0,-1,1294,1471,0,0
77,-447,0,0,0,0,0,0,0,0,0,-1,1301,1471,0,0
84,-447,0,0,0,0,0,0,0,0,0,-1,1308,1471,0,0
91,-447,0,0,0,0,0,0,0,0,0,-1,1315,1471,0,0
98,-447,0,0,0,0,0,0,0,0,0,-1,1322,1471,0,0
105,-447,0,0,0,0,0,0,0,0,0,-1,1329,1471,0,0
112,-447,0,0,0,0,0,0,0,0,0,-1,1336,1471,0,0
119,-447,0,0,0,0,0,0,0,0,0,-1,1343,1471,0,0
126,-447,0,0,0,0,0,0,0,0,0,-1,1350,1471,0,0
133,-447,0,0,0,0,0,0,0,0,0,-1,1357,1471,0,0
140,-447,0,0,0,0,0,0,0,0,0,-1,1364,1471,0,0
147,-447,0,0,0,0,0,0,0,0,0,-1,1371,1471,0,0
154,-447,0,0,0,0,0,0,0,0,0,-1,1378,1471,0,0
161,-447,0,0,0,0,0,0,0,0,0,-1,1385,1471,0,0
168,-447,0,0,0,0,0,0,0,0,0,-1,1392,1471,0,0
175,-447,0,0,0,0,0,0,0,0,0,-1,1399,1471,0,0
182,-447,0,0,0,0,0,0,0,0,0,-1,1406,1471,0,0
189,-447,0,0,0,0,0,0,0,0,0,-1,1413,1471,0,0
196,-447,0,0,0,0,0,0,0,0,0,-1,1420,1471,0,0
203,-447,0,0,0,0,0,0,0,0,0,-1,1427,1471,0,0
210,-447,0,0,0,0,0,0,0,0,0,-1,1434,1471,0,0
217,-447,0,0,0,0,0,0,0,0,0,-1,1441,1471,0,0
224,-447,0,0,0,0,0,0,0,0,0,-1,1448,1471,0,0
231,-447,0,0,0,0,0,0,0,0,0,-1,1455,1471,0,0
238,-447,0,0,0,0,0,0,0,0,0,-1,1462,1471,0,0
245,-447,0,0,0,0,0,0,0,0,0,-1,1469,1471,0,0
252,-447,0,0,0,0,0,0,0,0,0,-1,1476,1471,0,0
259,-447,0,0,0,0,0,0,0,0,0,-1,1483,1471,0,0
266,-447,0,0,0,0,0,0,0,0,0,-1,1490,1471,0,0
273,-447,0,0,0,0,0,0,0,0,0,-1,1497,1471,0,0
280,-447,0,0,0,0,0,0,0,0,0,-1,1504,1471,0,0
287,-447,0,0,0,0,0,0,0,0,0,-1,1511,1471,0,0
294,-447,0,0,0,0,0,0,0,0,0,-1,1518,1471,0,0
301,-447,0,0,0,0,0,0,0,0,0,-1,1525,1471,0,0
308,-447,0,0,0,0,0,0,0,0,0,-1,1532,1471,0,0
315,-447,0,0,0,0,0,0,0,0,0,-1,1539,1471,0,0
322,-447,0,0,0,0,0,0,0,0,0,-1,1546,1471,0,0
329,-447,0,0,0,0,0,0,0,0,0,-1,1553,1471,0,0
336,-447,0,0,0,0,0,0,0,0,0,-1,1560,1471,0,0
343,-447,0,0,0,0,0,0,0,0,0,-1,1567,1471,0,0
350,-447,0,0,0,0,0,0,0,0,0,-1,1574,1471,0,0
357,-447,0,0,0,0,0,0,0,0,0,-1,1581,1471,0,0
364,-447,0,0,0,0,0,0,0,0,0,-1,1588,1471,0,0
371,-447,0,0,0,0,0,0,0,0,0,-1,1595,1471,0,0
378,-447,0,0,0,0,0,0,0,0,0,-1,1602,1471,0,0
385,-447,0,0,0,0,0,0,0,0,0,-1,1609,1471,0,0
392,-447,0,0,0,0,0,0,0,0,0,-1,1616,1471,0,0
399,-447,0,0,0,0,0,0,0,0,0,-1,1623,1471,0,0
406,-447,0,0,0,0,0,0,0,0,0,-1,1630,1471,0,0
413,-447,0,0,0,0,0,0,0,0,0,-1,1637,1471,0,0
420,-447,0,0,0,0,0,0,0,0,0,-1,1644,1471,0,0
427,-447,0,0,0,0,0,0,0,0,0,-1,1651,1471,0,0
434,-447,0,0,0,0,0,0,0,0,0,-1,1658,1471,0,0
441,-447,0,0,0,0,0,0,0,0,0,-1,1665,1471,0,0
448,-447,0,0,0,0,0,0,0,0,0,-1,1672,1471,0,0
455,-447,0,0,0,0,0,0,0,0,0,-1,1679,1471,0,0
462,-447,0,0,0,0,0,0,0,0,0,-1,1686,1471,0,0
469,-447,0,0,0,0,0,0,0,0,0,-1,1693,1471,0,0
476,-447,0,0,0,0,0,0,0,0,0,-1,1700,1471,0,0
483,-447,0,0,0,0,0,0,0,0,0,-1,1707,1471,0,0
490,-447,18.2214,-0.810303,0,0,0,0,0,0,0,-1,1714,1471,18.2215,0.810307
497,-447,17.0237,0.352417,0,0,0,0,0,0,0,-1,1721,1471,17.0237,-0.352442
504,-447,15.8998,1.53479,0,0,0,0,0,0,0,-1,1728,1471,15.8997,-1.53478
511,-447,14.7201,2.76111,0,0,0,0,0,0,0,-1,1735,1471,14.7201,-2.76107
518,-447,17.7618,13.2864,0,0,0,0,0,0,0,-1,1742,1471,17.7619,-13.2863
525,-447,17.1191,11.9014,0,0,0,0,0,0,0,-1,1749,1471,17.1191,-11.9013
532,-447,16.3959,10.0455,0,0,0,0,0,0,0,-1,1756,1471,16.3959,-10.0456
539,-447,14.1699,10.0204,0,0,0,0,0,0,0,-1,1763,1471,14.1699,-10.0204
546,-447,16.3715,11.8046,0,0,0,0,0,0,0,-1,1770,1471,16.3714,-11.8046
553,-447,17.5106,13.4012,0,0,0,0,0,0,0,-1,1777,1471,17.5107,-13.4012
560,-447,17.0187,13.168,0,0,0,0,0,0,0,-1,1784,1471,17.0187,-13.168
567,-447,18.9286,15.1703,0,0,0,0,0,0,0,-1,1791,1471,18.9286,-15.1703
574,-447,21.7612,18.2354,0,0,0,0,0,0,0,-1,1798,1471,21.7612,-18.2353
581,-447,22.0526,17.681,0.0013773,0.00372545,-0.00200499,0.00487483,0.000227922,-1.05027,0.00317664,0.0371044,1805,1471,22.0526,-17.681
588,-447,22.1381,17.0233,0.00170642,0.0030318,-0.00195794,0.00443615,0.000302064,-0.948578,0.00286206,0.0211212,1812,1471,22.138,-17.0233
595,-447,22.1449,16.53,0.00197832,0.00223936,-0.00192431,0.00403757,0.000180106,-0.819259,0.00263373,0.0137803,1819,1471,22.1449,-16.5301
602,-447,22.1201,16.0443,0.0019761,0.00171145,-0.00160108,0.00345032,0.000237237,-0.744169,0.00222535,0.0121929,1826,1471,22.1201,-16.0443
609,-447,22.1022,15.5677,0.00192372,0.00123192,-0.00126568,0.00288991,0.000265727,-0.652011,0.00184442,0.0129101,1833,1471,22.1022,-15.5677
616,-447,22.1003,15.0886,0.0018501,0.000702399,-0.000982312,0.0024139,0.000138603,-0.521043,0.00156511,0.0143151,1840,1471,22.1003,-15.0887
623,-447,22.123,14.6412,0.00182202,0.000233955,-0.000710748,0.00209366,-3.76811e-05,-0.365053,0.0014085,0.015402,1847,1471,22.123,-14.6412
630,-447,22.1057,14.1572,0.00193414,-0.000159253,-0.000535939,0.00206337,-0.000288484,-0.236613,0.00148113,0.00980801,1854,1471,22.1057,-14.1573
637,-447,22.0912,13.699,0.00210749,-0.000325654,-0.000440118,0.00218465,-0.000402818,-0.173561,0.00160762,0.0109947,1861,1471,22.0912,-13.699
644,-447,22.0826,13.2444,0.00235344,-0.000340352,-0.000423211,0.00241836,-0.000405276,-0.152222,0.00176293,0.0116493,1868,1471,22.0827,-13.2443
651,-447,22.1552,12.7523,0.0027,-4.90374e-05,-0.000527961,0.0027979,-0.000146947,-0.183365,0.00191613,0.0456798,1875,1471,22.1552,-12.7523
658,-447,22.3676,12.1726,0,0,0,0,0,0,0,-1,1882,1471,22.3676,-12.1726
665,-447,18.4946,9.79919,0,0,0,0,0,0,0,-1,1889,1471,18.4946,-9.79922
672,-447,18.9784,9.66077,0,0,0,0,0,0,0,-1,1896,1471,18.9784,-9.66081
679,-447,14.844,7.4248,0,0,0,0,0,0,0,-1,1903,1471,14.844,-7.42477
686,-447,9.81079,4.30859,0,0,0,0,0,0,0,-1,1910,1471,9.8108,-4.30864
693,-447,10.48,2.08643,0,0,0,0,0,0,0,-1,1917,1471,10.48,-2.08642
700,-447,0,0,0,0,0,0,0,0,0,-1,1924,1471,0,0
707,-447,0,0,0,0,0,0,0,0,0,-1,1931,1471,0,0
714,-447,0,0,0,0,0,0,0,0,0,-1,1938,1471,0,0
721,-447,0,0,0,0,0,0,0,0,0,-1,1945,1471,0,0
728,-447,0,0,0,0,0,0,0,0,0,-1,1952,1471,0,0
735,-447,0,0,0,0,0,0,0,0,0,-1,1959,1471,0,0
742,-447,0,0,0,0,0,0,0,0,0,-1,1966,1471,0,0
749,-447,0,0,0,0,0,0,0,0,0,-1,1973,1471,0,0
756,-447,0,0,0,0,0,0,0,0,0,-1,1980,1471,0,0
763,-447,0,0,0,0,0,0,0,0,0,-1,1987,1471,0,0
770,-447,0,0,0,0,0,0,0,0,0,-1,1994,1471,0,0
777,-447,0,0,0,0,0,0,0,0,0,-1,2001,1471,0,0
784,-447,0,0,0,0,0,0,0,0,0,-1,2008,1471,0,0
791,-447,0,0,0,0,0,0,0,0,0,-1,2015,1471,0,0
798,-447,0,0,0,0,0,0,0,0,0,-1,2022,1471,0,0
805,-447,0,0,0,0,0,0,0,0,0,-1,2029,1471,0,0
812,-447,0,0,0,0,0,0,0,0,0,-1,2036,1471,0,0
-700,-454,0,0,0,0,0,0,0,0,0,-1,524,1478,0,0
-693,-454,0,0,0,0,0,0,0,0,0,-1,531,1478,0,0
-686,-454,0,0,0,0,0,0,0,0,0,-1,538,1478,0,0
-679,-454,0,0,0,0,0,0,0,0,0,-1,545,1478,0,0
-672,-454,0,0,0,0,0,0,0,0,0,-1,552,1478,0,0
-665,-454,0,0,0,0,0,0,0,0,0,-1,559,1478,0,0
-658,-454,0,0,0,0,0,0,0,0,0,-1,566,1478,0,0
-651,-454,0,0,0,0,0,0,0,0,0,-1,573,1478,0,0
-644,-454,0,0,0,0,0,0,0,0,0,-1,580,1478,0,0
-637,-454,0,0,0,0,0,0,0,0,0,-1,587,1478,0,0
-630,-454,0,0,0,0,0,0,0,0,0,-1,594,1478,0,0
-623,-454,0,0,0,0,0,0,0,0,0,-1,601,1478,0,0
-616,-454,0,0,0,0,0,0,0,0,0,-1,608,1478,0,0
-609,-454,0,0,0,0,0,0,0,0,0,-1,615,1478,0,0
-602,-454,0,0,0,0,0,0,0,0,0,-1,622,1478,0,0
-595,-454,0,0,0,0,0,0,0,0,0,-1,629,1478,0,0
-588,-454,0,0,0,0,0,0,0,0,0,-1,636,1478,0,0
-581,-454,0,0,0,0,0,0,0,0,0,-1,643,1478,0,0
-574,-454,-8.4881,-0.465942,0,0,0,0,0,0,0,-1,650,1478,-8.4881,0.465885
-567,-454,-8.10046,0.922974,0,0,0,0,0,0,0,-1,657,1478,-8.10047,-0.923034
-560,-454,-10.656,3.51172,0,0,0,0,0,0,0,-1,664,1478,-10.656,-3.51176
-553,-454,-9.01129,3.95251,0,0,0,0,0,0,0,-1,671,1478,-9.0113,-3.95256
-546,-454,-9.61896,6.05237,0,0,0,0,0,0,0,-1,678,1478,-9.61897,-6.05239
-539,-454,-7.72589,4.96533,0,0,0,0,0,0,0,-1,685,1478,-7.72592,-4.96532
-532,-454,-7.03931,7.59985,0,0,0,0,0,0,0,-1,692,1478,-7.03929,-7.59981
-525,-454,-5.78723,9.677,0,0,0,0,0,0,0,-1,699,1478,-5.78722,-9.67703
-518,-454,-7.28937,10.8765,0,0,0,0,0,0,0,-1,706,1478,-7.28934,-10.8765
-511,-454,-7.45264,11.3766,-0.00381173,-0.00433108,-0.00239217,-0.00166519,-0.00647763,-0.731334,0.00388422,0.0387727,713,1478,-7.45261,-11.3766
-504,-454,-7.3725,11.999,-0.00286802,-0.00342271,-0.00185232,-0.00127239,-0.00501834,-0.711087,0.00301237,0.0165619,720,1478,-7.3725,-11.9991
-497,-454,-7.37335,12.548,-0.00192826,-0.0024926,-0.00124044,-0.000938302,-0.00348256,-0.673562,0.0020807,0.0195035,727,1478,-7.37335,-12.5479
-490,-454,-7.37927,13.0476,-0.00078362,-0.00142386,-0.000453807,-0.000548387,-0.00165909,-0.478224,0.000976046,0.0191961,734,1478,-7.37925,-13.0476
-483,-454,-7.43976,13.5438,0.000551205,-0.000218356,0.000496052,0.000794217,-0.000461368,0.455529,0.000733353,0.0172388,741,1478,-7.43975,-13.5438
-476,-454,-7.47455,14.0287,0.00205875,0.00104125,0.00160478,0.00323349,-0.000133494,0.631898,0.00220151,0.0135943,748,1478,-7.47458,-14.0287
-469,-454,-7.48743,14.5352,0.00375625,0.002301,0.00291606,0.00603409,2.31557e-05,0.663133,0.00401503,0.0100296,755,1478,-7.48743,-14.5351
-462,-454,-7.51001,15.0594,0.0056856,0.00368191,0.00439926,0.00919564,0.000171866,0.673442,0.00607395,0.0112653,762,1478,-7.50999,-15.0595
-455,-454,-7.52112,15.5634,0.0079167,0.00509023,0.00609634,0.0127615,0.000245465,0.671501,0.00842701,0.0127906,769,1478,-7.52113,-15.5633
-448,-454,-7.52814,16.0867,0.0105145,0.00659833,0.00818488,0.0169723,0.00014058,0.667988,0.0112683,0.0181543,776,1478,-7.52816,-16.0866
-441,-454,-7.25055,16.8623,0.013488,0.0082171,0.0105454,0.0217223,-1.72202e-05,0.66295,0.0144873,0.0435805,783,1478,-7.25054,-16.8622
-434,-454,-6.81451,17.6771,0,0,0,0,0,0,0,-1,790,1478,-6.81448,-17.6772
-427,-454,-6.00183,15.8636,0,0,0,0,0,0,0,-1,797,1478,-6.00184,-15.8637
-420,-454,-6.28088,15.2135,0,0,0,0,0,0,0,-1,804,1478,-6.28087,-15.2135
-413,-454,-5.4408,13.674,0,0,0,0,0,0,0,-1,811,1478,-5.44079,-13.6739
-406,-454,-2.38208,10.0308,0,0,0,0,0,0,0,-1,818,1478,-2.38209,-10.0308
-399,-454,-1.21033,6.95447,0,0,0,0,0,0,0,-1,825,1478,-1.21035,-6.95452
-392,-454,0.0967407,0.985474,0,0,0,0,0,0,0,-1,832,1478,0.0967364,-0.985529
-385,-454,2.38629,3.297,0,0,0,0,0,0,0,-1,839,1478,2.38629,-3.29702
-378,-454,-15.9756,2.83997,0,0,0,0,0,0,0,-1,846,1478,-15.9756,-2.83994
-371,-454,-17.2753,2.01453,0,0,0,0,0,0,0,-1,853,1478,-17.2753,-2.01455
-364,-454,1.08124,0.819458,0,0,0,0,0,0,0,-1,860,1478,1.08124,-0.819513
-357,-454,0,0,0,0,0,0,0,0,0,-1,867,1478,0,0
-350,-454,0,0,0,0,0,0,0,0,0,-1,874,1478,0,0
-343,-454,0,0,0,0,0,0,0,0,0,-1,881,1478,0,0
-336,-454,0,0,0,0,0,0,0,0,0,-1,888,1478,0,0
-329,-454,0,0,0,0,0,0,0,0,0,-1,895,1478,0,0
-322,-454,0,0,0,0,0,0,0,0,0,-1,902,1478,0,0
-315,-454,0,0,0,0,0,0,0,0,0,-1,909,1478,0,0
-308,-454,0,0,0,0,0,0,0,0,0,-1,916,1478,0,0
-301,-454,0,0,0,0,0,0,0,0,0,-1,923,1478,0,0
-294,-454,0,0,0,0,0,0,0,0,0,-1,930,1478,0,0
-287,-454,0,0,0,0,0,0,0,0,0,-1,937,1478,0,0
-280,-454,0,0,0,0,0,0,0,0,0,-1,944,1478,0,0
-273,-454,0,0,0,0,0,0,0,0,0,-1,951,1478,0,0
-266,-454,0,0,0,0,0,0,0,0,0,-1,958,1478,0,0
-259,-454,0,0,0,0,0,0,0,0,0,-1,965,1478,0,0
-252,-454,0,0,0,0,0,0,0,0,0,-1,972,1478,0,0
-245,-454,0,0,0,0,0,0,0,0,0,-1,979,1478,0,0
-238,-454,0,0,0,0,0,0,0,0,0,-1,986,1478,0,0
-231,-454,0,0,0,0,0,0,0,0,0,-1,993,1478,0,0
-224,-454,0,0,0,0,0,0,0,0,0,-1,1000,1478,0,0
-217,-454,0,0,0,0,0,0,0,0,0,-1,1007,1478,0,0
-210,-454,0,0,0,0,0,0,0,0,0,-1,1014,1478,0,0
-203,-454,0,0,0,0,0,0,0,0,0,-1,1021,1478,0,0
-196,-454,0,0,0,0,0,0,0,0,0,-1,1028,1478,0,0
-189,-454,0,0,0,0,0,0,0,0,0,-1,1035,1478,0,0
-182,-454,0,0,0,0,0,0,0,0,0,-1,1042,1478,0,0
-175,-454,0,0,0,0,0,0,0,0,0,-1,1049,1478,0,0
-168,-454,0,0,0,0,0,0,0,0,0,-1,1056,1478,0,0
-161,-454,0,0,0,0,0,0,0,0,0,-1,1063,1478,0,0
-154,-454,0,0,0,0,0,0,0,0,0,-1,1070,1478,0,0
-147,-454,0,0,0,0,0,0,0,0,0,-1,1077,1478,0,0
-140,-454,0,0,0,0,0,0,0,0,0,-1,1084,1478,0,0
-133,-454,0,0,0,0,0,0,0,0,0,-1,1091,1478,0,0
-126,-454,0,0,0,0,0,0,0,0,0,-1,1098,1478,0,0
-119,-454,0,0,0,0,0,0,0,0,0,-1,1105,1478,0,0
-112,-454,0,0,0,0,0,0,0,0,0,-1,1112,1478,0,0
-105,-454,0,0,0,0,0,0,0,0,0,-1,1119,1478,0,0
-98,-454,0,0,0,0,0,0,0,0,0,-1,1126,1478,0,0
-91,-454,0,0,0,0,0,0,0,0,0,-1,1133,1478,0,0
-84,-454,0,0,0,0,0,0,0,0,0,-1,1140,1478,0,0
-77,-454,0,0,0,0,0,0,0,0,0,-1,1147,1478,0,0
-70,-454,0,0,0,0,0,0,0,0,0,-1,1154,1478,0,0
-63,-454,0,0,0,0,0,0,0,0,0,-1,1161,1478,0,0
-56,-454,0,0,0,0,0,0,0,0,0,-1,1168,1478,0,0
-49,-454,0,0,0,0,0,0,0,0,0,-1,1175,1478,0,0
-42,-454,0,0,0,0,0,0,0,0,0,-1,1182,1478,0,0
-35,-454,0,0,0,0,0,0,0,0,0,-1,1189,1478,0,0
-28,-454,0,0,0,0,0,0,0,0,0,-1,1196,1478,0,0
-21,-454,0,0,0,0,0,0,0,0,0,-1,1203,1478,0,0
-14,-454,0,0,0,0,0,0,0,0,0,-1,1210,1478,0,0
-7,-454,0,0,0,0,0,0,0,0,0,-1,1217,1478,0,0
0,-454,0,0,0,0,0,0,0,0,0,-1,1224,1478,0,0
7,-454,0,0,0,0,0,0,0,0,0,-1,1231,1478,0,0
14,-454,0,0,0,0,0,0,0,0,0,-1,1238,1478,0,0
21,-454,0,0,0,0,0,0,0,0,0,-1,1245,1478,0,0
28,-454,0,0,0,0,0,0,0,0,0,-1,1252,1478,0,0
35,-454,0,0,0,0,0,0,0,0,0,-1,1259,1478,0,0
42,-454,0,0,0,0,0,0,0,0,0,-1,1266,1478,0,0
49,-454,0,0,0,0,0,0,0,0,0,-1,1273,1478,0,0
56,-454,0,0,0,0,0,0,0,0,0,-1,1280,1478,0,0
63,-454,0,0,0,0,0,0,0,0,0,-1,1287,1478,0,0
70,-454,0,0,0,0,0,0,0,0,0,-1,1294,1478,0,0
77,-454,0,0,0,0,0,0,0,0,0,-1,1301,1478,0,0
84,-454,0,0,0,0,0,0,0,0,0,-1,1308,1478,0,0
91,-454,0,0,0,0,0,0,0,0,0,-1,1315,1478,0,0
98,-454,0,0,0,0,0,0,0,0,0,-1,1322,1478,0,0
105,-454,0,0,0,0,0,0,0,0,0,-1,1329,1478,0,0
112,-454,0,0,0,0,0,0,0,0,0,-1,1336,1478,0,0
119,-454,0,0,0,0,0,0,0,0,0,-1,1343,1478,0,0
126,-454,0,0,0,0,0,0,0,0,0,-1,1350,1478,0,0
133,-454,0,0,0,0,0,0,0,0,0,-1,1357,1478,0,0
140,-454,0,0,0,0,0,0,0,0,0,-1,1364,1478,0,0
147,-454,0,0,0,0,0,0,0,0,0,-1,1371,1478,0,0
154,-454,0,0,0,0,0,0,0,0,0,-1,1378,1478,0,0
161,-454,0,0,0,0,0,0,0,0,0,-1,1385,1478,0,0
168,-454,0,0,0,0,0,0,0,0,0,-1,1392,1478,0,0
175,-454,0,0,0,0,0,0,0,0,0,-1,1399,1478,0,0
182,-454,0,0,0,0,0,0,0,0,0,-1,1406,1478,0,0
189,-454,0,0,0,0,0,0,0,0,0,-1,1413,1478,0,0
196,-454,0,0,0,0,0,0,0,0,0,-1,1420,1478,0,0
203,-454,0,0,0,0,0,0,0,0,0,-1,1427,1478,0,0
210,-454,0,0,0,0,0,0,0,0,0,-1,1434,1478,0,0
217,-454,0,0,0,0,0,0,0,0,0,-1,1441,1478,0,0
224,-454,0,0,0,0,0,0,0,0,0,-1,1448,1478,0,0
231,-454,0,0,0,0,0,0,0,0,0,-1,1455,1478,0,0
238,-454,0,0,0,0,0,0,0,0,0,-1,1462,1478,0,0
245,-454,0,0,0,0,0,0,0,0,0,-1,1469,1478,0,0
252,-454,0,0,0,0,0,0,0,0,0,-1,1476,1478,0,0
259,-454,0,0,0,0,0,0,0,0,0,-1,1483,1478,0,0
266,-454,0,0,0,0,0,0,0,0,0,-1,1490,1478,0,0
273,-454,0,0,0,0,0,0,0,0,0,-1,1497,1478,0,0
280,-454,0,0,0,0,0,0,0,0,0,-1,1504,1478,0,0
287,-454,0,0,0,0,0,0,0,0,0,-1,1511,1478,0,0
294,-454,0,0,0,0,0,0,0,0,0,-1,1518,1478,0,0
301,-454,0,0,0,0,0,0,0,0,0,-1,1525,1478,0,0
308,-454,0,0,0,0,0,0,0,0,0,-1,1532,1478,0,0
315,-454,0,0,0,0,0,0,0,0,0,-1,1539,1478,0,0
322,-454,0,0,0,0,0,0,0,0,0,-1,1546,1478,0,0
329,-454,0,0,0,0,0,0,0,0,0,-1,1553,1478,0,0
336,-454,0,0,0,0,0,0,0,0,0,-1,1560,1478,0,0
343,-454,0,0,0,0,0,0,0,0,0,-1,1567,1478,0,0
350,-454,0,0,0,0,0,0,0,0,0,-1,1574,1478,0,0
357,-454,0,0,0,0,0,0,0,0,0,-1,1581,1478,0,0
364,-454,0,0,0,0,0,0,0,0,0,-1,1588,1478,0,0
371,-454,0,0,0,0,0,0,0,0,0,-1,1595,1478,0,0
378,-454,0,0,0,0,0,0,0,0,0,-1,1602,1478,0,0
385,-454,0,0,0,0,0,0,0,0,0,-1,1609,1478,0,0
392,-454,0,0,0,0,0,0,0,0,0,-1,1616,1478,0,0
399,-454,0,0,0,0,0,0,0,0,0,-1,1623,1478,0,0
406,-454,0,0,0,0,0,0,0,0,0,-1,1630,1478,0,0
413,-454,0,0,0,0,0,0,0,0,0,-1,1637,1478,0,0
420,-454,0,0,0,0,0,0,0,0,0,-1,1644,1478,0,0
427,-454,0,0,0,0,0,0,0,0,0,-1,1651,1478,0,0
434,-454,0,0,0,0,0,0,0,0,0,-1,1658,1478,0,0
441,-454,0,0,0,0,0,0,0,0,0,-1,1665,1478,0,0
448,-454,0,0,0,0,0,0,0,0,0,-1,1672,1478,0,0
455,-454,0,0,0,0,0,0,0,0,0,-1,1679,1478,0,0
462,-454,0,0,0,0,0,0,0,0,0,-1,1686,1478,0,0
469,-454,0,0,0,0,0,0,0,0,0,-1,1693,1478,0,0
476,-454,0,0,0,0,0,0,0,0,0,-1,1700,1478,0,0
483,-454,14.2399,3.97498,0,0,0,0,0,0,0,-1,1707,1478,14.2399,-3.97502
490,-454,18.1821,-0.175781,0,0,0,0,0,0,0,-1,1714,1478,18.1821,0.175822
497,-454,16.8854,1.01208,0,0,0,0,0,0,0,-1,1721,1478,16.8854,-1.01209
504,-454,15.587,2.05994,0,0,0,0,0,0,0,-1,1728,1478,15.5871,-2.05998
511,-454,17.0273,14.5258,0,0,0,0,0,0,0,-1,1735,1478,17.0273,-14.5258
518,-454,16.4158,13.1039,0,0,0,0,0,0,0,-1,1742,1478,16.4157,-13.1038
525,-454,15.7842,11.6628,0,0,0,0,0,0,0,-1,1749,1478,15.7841,-11.6629
532,-454,15.1094,10.2476,0,0,0,0,0,0,0,-1,1756,1478,15.1094,-10.2475
539,-454,13.7905,10.9373,0,0,0,0,0,0,0,-1,1763,1478,13.7906,-10.9372
546,-454,16.2002,13.2458,0,0,0,0,0,0,0,-1,1770,1478,16.2002,-13.2459
553,-454,15.6747,12.1868,0,0,0,0,0,0,0,-1,1777,1478,15.6747,-12.1868
560,-454,16.3895,14.0527,0,0,0,0,0,0,0,-1,1784,1478,16.3895,-14.0528
567,-454,21.7981,18.448,0,0,0,0,0,0,0,-1,1791,1478,21.7981,-18.448
574,-454,21.6995,17.9863,-0.000173344,0.00339629,-0.000892006,0.00360678,-0.000383833,-1.33906,0.00254214,0.0323379,1798,1478,21.6994,-17.9864
581,-454,21.6636,17.4795,0.00071661,0.0029027,-0.00121172,0.00344153,0.000177778,-1.15237,0.00223745,0.0195373,1805,1478,21.6636,-17.4795
588,-454,21.7052,16.9849,0.00117492,0.00231599,-0.00127689,0.00314401,0.000346895,-0.995499,0.00199048,0.012273,1812,1478,21.7052,-16.9848
595,-454,21.6716,16.5273,0.0016545,0.00158496,-0.00139477,0.00301493,0.000224523,-0.772936,0.00193945,0.0122546,1819,1478,21.6717,-16.5274
602,-454,21.6437,16.0538,0.00182785,0.00110851,-0.00123592,0.00275538,0.000180988,-0.643802,0.00177966,0.00959255,1826,1478,21.6437,-16.0538
609,-454,21.6489,15.5945,0.00192917,0.00066093,-0.00102521,0.00250051,8.95803e-05,-0.508432,0.00163797,0.0110116,1833,1478,21.649,-15.5945
616,-454,21.6438,15.1487,0.00201123,0.0001396,-0.000839065,0.0023323,-0.000181478,-0.365471,0.00161876,0.0137529,1840,1478,21.6438,-15.1486
623,-454,21.6641,14.6746,0.00212895,-0.000354718,-0.000636404,0.00228252,-0.000508292,-0.236787,0.00171639,0.0132628,1847,1478,21.6641,-14.6746
630,-454,21.6555,14.1965,0.00236845,-0.000771115,-0.000502764,0.002447,-0.000849661,-0.154977,0.0019764,0.0133228,1854,1478,21.6555,-14.1965
637,-454,21.6017,13.7374,0.00271044,-0.000910831,-0.000492273,0.00277617,-0.000976557,-0.132731,0.00224814,0.0120724,1861,1478,21.6017,-13.7374
644,-454,21.6489,13.24,0.00317571,-0.000871167,-0.000616259,0.00326747,-0.00096293,-0.147818,0.00256038,0.0232313,1868,1478,21.6489,-13.24
651,-454,21.8329,12.6381,0,0,0,0,0,0,0,-1,1875,1478,21.8329,-12.6381
658,-454,17.2583,10.0765,0,0,0,0,0,0,0,-1,1882,1478,17.2583,-10.0765
665,-454,17.683,9.67566,0,0,0,0,0,0,0,-1,1889,1478,17.683,-9.67572
672,-454,16.5476,6.41931,0,0,0,0,0,0,0,-1,1896,1478,16.5476,-6.41929
679,-454,14.2161,5.45007,0,0,0,0,0,0,0,-1,1903,1478,14.2161,-5.45013
686,-454,10.3767,2.12842,0,0,0,0,0,0,0,-1,1910,1478,10.3767,-2.12839
693,-454,11.1857,1.48486,0,0,0,0,0,0,0,-1,1917,1478,11.1857,-1.48487
700,-454,0,0,0,0,0,0,0,0,0,-1,1924,1478,0,0
707,-454,0,0,0,0,0,0,0,0,0,-1,1931,1478,0,0
714,-454,0,0,0,0,0,0,0,0,0,-1,1938,1478,0,0
721,-454,0,0,0,0,0,0,0,0,0,-1,1945,1478,0,0
728,-454,0,0,0,0,0,0,0,0,0,-1,1952,1478,0,0
735,-454,0,0,0,0,0,0,0,0,0,-1,1959,1478,0,0
742,-454,0,0,0,0,0,0,0,0,0,-1,1966,1478,0,0
749,-454,0,0,0,0,0,0,0,0,0,-1,1973,1478,0,0
756,-454,0,0,0,0,0,0,0,0,0,-1,1980,1478,0,0
763,-454,0,0,0,0,0,0,0,0,0,-1,1987,1478,0,0
770,-454,0,0,0,0,0,0,0,0,0,-1,1994,1478,0,0
777,-454,0,0,0,0,0,0,0,0,0,-1,2001,1478,0,0
784,-454,0,0,0,0,0,0,0,0,0,-1,2008,1478,0,0
791,-454,0,0,0,0,0,0,0,0,0,-1,2015,1478,0,0
798,-454,0,0,0,0,0,0,0,0,0,-1,2022,1478,0,0
805,-454,0,0,0,0,0,0,0,0,0,-1,2029,1478,0,0
812,-454,0,0,0,0,0,0,0,0,0,-1,2036,1478,0,0
-700,-461,0,0,0,0,0,0,0,0,0,-1,524,1485,0,0
-693,-461,0,0,0,0,0,0,0,0,0,-1,531,1485,0,0
-686,-461,0,0,0,0,0,0,0,0,0,-1,538,1485,0,0
-679,-461,0,0,0,0,0,0,0,0,0,-1,545,1485,0,0
-672,-461,0,0,0,0,0,0,0,0,0,-1,552,1485,0,0
-665,-461,0,0,0,0,0,0,0,0,0,-1,559,1485,0,0
-658,-461,0,0,0,0,0,0,0,0,0,-1,566,1485,0,0
-651,-461,0,0,0,0,0,0,0,0,0,-1,573,1485,0,0
-644,-461,0,0,0,0,0,0,0,0,0,-1,580,1485,0,0
-637,-461,0,0,0,0,0,0,0,0,0,-1,587,1485,0,0
-630,-461,0,0,0,0,0,0,0,0,0,-1,594,1485,0,0
-623,-461,0,0,0,0,0,0,0,0,0,-1,601,1485,0,0
-616,-461,0,0,0,0,0,0,0,0,0,-1,608,1485,0,0
-609,-461,0,0,0,0,0,0,0,0,0,-1,615,1485,0,0
-602,-461,0,0,0,0,0,0,0,0,0,-1,622,1485,0,0
-595,-461,0,0,0,0,0,0,0,0,0,-1,629,1485,0,0
-588,-461,0,0,0,0,0,0,0,0,0,-1,636,1485,0,0
-581,-461,0,0,0,0,0,0,0,0,0,-1,643,1485,0,0
-574,-461,0,0,0,0,0,0,0,0,0,-1,650,1485,0,0
-567,-461,-9.69031,0.513306,0,0,0,0,0,0,0,-1,657,1485,-9.69032,-0.513305
-560,-461,-7.28815,1.54004,0,0,0,0,0,0,0,-1,664,1485,-7.28817,-1.54005
-553,-461,-11.9607,5.27783,0,0,0,0,0,0,0,-1,671,1485,-11.9607,-5.27778
-546,-461,-11.4215,4.44666,0,0,0,0,0,0,0,-1,678,1485,-11.4215,-4.4467
-539,-461,-9.36493,5.23438,0,0,0,0,0,0,0,-1,685,1485,-9.3649,-5.23432
-532,-461,-7.82898,6.78357,0,0,0,0,0,0,0,-1,692,1485,-7.829,-6.78363
-525,-461,-6.37878,8.75659,0,0,0,0,0,0,0,-1,699,1485,-6.3788,-8.75659
-518,-461,-6.49695,10.886,0,0,0,0,0,0,0,-1,706,1485,-6.49696,-10.8859
-511,-461,-6.76044,11.5898,-0.00511599,-0.00582063,-0.00316104,-0.0022877,-0.00864893,-0.729899,0.00517479,0.0445699,713,1485,-6.76044,-11.5899
-504,-461,-6.93988,11.968,-0.00410718,-0.00470485,-0.00261547,-0.00177353,-0.0070385,-0.728517,0.00422705,0.0235098,720,1485,-6.93991,-11.968
-497,-461,-6.87128,12.564,-0.00318582,-0.00366164,-0.00203749,-0.0013724,-0.00547506,-0.727279,0.00328943,0.0115194,727,1485,-6.87126,-12.564
-490,-461,-6.90564,13.072,-0.0020555,-0.00255399,-0.00130427,-0.000976877,-0.00363262,-0.690986,0.00217067,0.013349,734,1485,-6.90563,-13.072
-483,-461,-6.94501,13.5726,-0.000710587,-0.00131441,-0.000386598,-0.000521978,-0.00150301,-0.453894,0.000881154,0.0129209,741,1485,-6.94503,-13.5726
-476,-461,-6.97894,14.0732,0.000771451,-6.309e-05,0.000660957,0.00113583,-0.000427471,0.503835,0.000932947,0.0112761,748,1485,-6.97894,-14.0733
-469,-461,-6.99744,14.5748,0.00240883,0.00115161,0.00188417,0.00376648,-0.000206042,0.624389,0.00258241,0.0130215,755,1485,-6.99745,-14.5749
-462,-461,-6.99097,15.0616,0.0042222,0.00243088,0.00323517,0.0066834,-3.03255e-05,0.650355,0.00446574,0.0184314,762,1485,-6.99096,-15.0616
-455,-461,-7.04297,15.5784,0.00624059,0.00371137,0.00474741,0.00988893,6.30314e-05,0.655231,0.00657171,0.021538,769,1485,-7.04297,-15.5784
-448,-461,-7.0351,16.1016,0.00854287,0.00506534,0.00656687,0.0135973,1.0937e-05,0.655979,0.00906121,0.018236,776,1485,-7.03509,-16.1015
-441,-461,-6.95911,16.6459,0.0111187,0.00649592,0.00863356,0.0177449,-0.000130286,0.654604,0.0118736,0.0228062,783,1485,-6.9591,-16.6459
-434,-461,-6.88934,17.2186,0,0,0,0,0,0,0,-1,790,1485,-6.88936,-17.2187
-427,-461,-6.56573,17.741,0,0,0,0,0,0,0,-1,797,1485,-6.56574,-17.7409
-420,-461,-5.70355,16.6116,0,0,0,0,0,0,0,-1,804,1485,-5.70353,-16.6115
-413,-461,-5.98798,16.0605,0,0,0,0,0,0,0,-1,811,1485,-5.98796,-16.0605
-406,-461,-5.52667,14.839,0,0,0,0,0,0,0,-1,818,1485,-5.52666,-14.839
-399,-461,-1.93439,9.82849,0,0,0,0,0,0,0,-1,825,1485,-1.9344,-9.82846
-392,-461,-0.357544,5.55225,0,0,0,0,0,0,0,-1,832,1485,-0.357536,-5.55228
-385,-461,1.71509,3.35254,0,0,0,0,0,0,0,-1,839,1485,1.71511,-3.35255
-378,-461,1.95996,3.01111,0,0,0,0,0,0,0,-1,846,1485,1.95993,-3.01111
-371,-461,0.702881,2.33459,0,0,0,0,0,0,0,-1,853,1485,0.702859,-2.33459
-364,-461,-1.93097,2.56458,0,0,0,0,0,0,0,-1,860,1485,-1.93095,-2.56456
-357,-461,-2.41516,3.49487,0,0,0,0,0,0,0,-1,867,1485,-2.41517,-3.49487
-350,-461,0,0,0,0,0,0,0,0,0,-1,874,1485,0,0
-343,-461,0,0,0,0,0,0,0,0,0,-1,881,1485,0,0
-336,-461,0,0,0,0,0,0,0,0,0,-1,888,1485,0,0
-329,-461,0,0,0,0,0,0,0,0,0,-1,895,1485,0,0
-322,-461,0,0,0,0,0,0,0,0,0,-1,902,1485,0,0
-315,-461,0,0,0,0,0,0,0,0,0,-1,909,1485,0,0
-308,-461,0,0,0,0,0,0,0,0,0,-1,916,1485,0,0
-301,-461,0,0,0,0,0,0,0,0,0,-1,923,1485,0,0
-294,-461,0,0,0,0,0,0,0,0,0,-1,930,1485,0,0
-287,-461,0,0,0,0,0,0,0,0,0,-1,937,1485,0,0
-280,-461,0,0,0,0,0,0,0,0,0,-1,944,1485,0,0
-273,-461,0,0,0,0,0,0,0,0,0,-1,951,1485,0,0
-266,-461,0,0,0,0,0,0,0,0,0,-1,958,1485,0,0
-259,-461,0,0,0,0,0,0,0,0,0,-1,965,1485,0,0
-252,-461,0,0,0,0,0,0,0,0,0,-1,972,1485,0,0
-245,-461,0,0,0,0,0,0,0,0,0,-1,979,1485,0,0
-238,-461,0,0,0,0,0,0,0,0,0,-1,986,1485,0,0
-231,-461,0,0,0,0,0,0,0,0,0,-1,993,1485,0,0
-224,-461,0,0,0,0,0,0,0,0,0,-1,1000,1485,0,0
-217,-461,0,0,0,0,0,0,0,0,0,-1,1007,1485,0,0
-210,-461,0,0,0,0,0,0,0,0,0,-1,1014,1485,0,0
-203,-461,0,0,0,0,0,0,0,0,0,-1,1021,1485,0,0
-196,-461,0,0,0,0,0,0,0,0,0,-1,1028,1485,0,0
-189,-461,0,0,0,0,0,0,0,0,0,-1,1035,1485,0,0
-182,-461,0,0,0,0,0,0,0,0,0,-1,1042,1485,0,0
-175,-461,0,0,0,0,0,0,0,0,0,-1,1049,1485,0,0
-168,-461,0,0,0,0,0,0,0,0,0,-1,1056,1485,0,0
-161,-461,0,0,0,0,0,0,0,0,0,-1,1063,1485,0,0
-154,-461,0,0,0,0,0,0,0,0,0,-1,1070,1485,0,0
-147,-461,0,0,0,0,0,0,0,0,0,-1,1077,1485,0,0
-140,-461,0,0,0,0,0,0,0,0,0,-1,1084,1485,0,0
-133,-461,0,0,0,0,0,0,0,0,0,-1,1091,1485,0,0
-126,-461,0,0,0,0,0,0,0,0,0,-1,1098,1485,0,0
-119,-461,0,0,0,0,0,0,0,0,0,-1,1105,1485,0,0
-112,-461,0,0,0,0,0,0,0,0,0,-1,1112,1485,0,0
-105,-461,0,0,0,0,0,0,0,0,0,-1,1119,1485,0,0
-98,-461,0,0,0,0,0,0,0,0,0,-1,1126,1485,0,0
-91,-461,0,0,0,0,0,0,0,0,0,-1,1133,1485,0,0
-84,-461,0,0,0,0,0,0,0,0,0,-1,1140,1485,0,0
-77,-461,0,0,0,0,0,0,0,0,0,-1,1147,1485,0,0
-70,-461,0,0,0,0,0,0,0,0,0,-1,1154,1485,0,0
-63,-461,0,0,0,0,0,0,0,0,0,-1,1161,1485,0,0
-56,-461,0,0,0,0,0,0,0,0,0,-1,1168,1485,0,0
-49,-461,0,0,0,0,0,0,0,0,0,-1,1175,1485,0,0
-42,-461,0,0,0,0,0,0,0,0,0,-1,1182,1485,0,0
-35,-461,0,0,0,0,0,0,0,0,0,-1,1189,1485,0,0
-28,-461,0,0,0,0,0,0,0,0,0,-1,1196,1485,0,0
-21,-461,0,0,0,0,0,0,0,0,0,-1,1203,1485,0,0
-14,-461,0,0,0,0,0,0,0,0,0,-1,1210,1485,0,0
-7,-461,0,0,0,0,0,0,0,0,0,-1,1217,1485,0,0
0,-461,0,0,0,0,0,0,0,0,0,-1,1224,1485,0,0
7,-461,0,0,0,0,0,0,0,0,0,-1,1231,1485,0,0
14,-461,0,0,0,0,0,0,0,0,0,-1,1238,1485,0,0
21,-461,0,0,0,0,0,0,0,0,0,-1,1245,1485,0,0
28,-461,0,0,0,0,0,0,0,0,0,-1,1252,1485,0,0
35,-461,0,0,0,0,0,0,0,0,0,-1,1259,1485,0,0
42,-461,0,0,0,0,0,0,0,0,0,-1,1266,1485,0,0
49,-461,0,0,0,0,0,0,0,0,0,-1,1273,1485,0,0
56,-461,0,0,0,0,0,0,0,0,0,-1,1280,1485,0,0
63,-461,0,0,0,0,0,0,0,0,0,-1,1287,1485,0,0
70,-461,0,0,0,0,0,0,0,0,0,-1,1294,1485,0,0
77,-461,0,0,0,0,0,0,0,0,0,-1,1301,1485,0,0
84,-461,0,0,0,0,0,0,0,0,0,-1,1308,1485,0,0
91,-461,0,0,0,0,0,0,0,0,0,-1,1315,1485,0,0
98,-461,0,0,0,0,0,0,0,0,0,-1,1322,1485,0,0
105,-461,0,0,0,0,0,0,0,0,0,-1,1329,1485,0,0
112,-461,0,0,0,0,0,0,0,0,0,-1,1336,1485,0,0
119,-461,0,0,0,0,0,0,0,0,0,-1,1343,1485,0,0
126,-461,0,0,0,0,0,0,0,0,0,-1,1350,1485,0,0
133,-461,0,0,0,0,0,0,0,0,0,-1,1357,1485,0,0
140,-461,0,0,0,0,0,0,0,0,0,-1,1364,1485,0,0
147,-461,0,0,0,0,0,0,0,0,0,-1,1371,1485,0,0
154,-461,0,0,0,0,0,0,0,0,0,-1,1378,1485,0,0
161,-461,0,0,0,0,0,0,0,0,0,-1,1385,1485,0,0
168,-461,0,0,0,0,0,0,0,0,0,-1,1392,1485,0,0
175,-461,0,0,0,0,0,0,0,0,0,-1,1399,1485,0,0
182,-461,0,0,0,0,0,0,0,0,0,-1,1406,1485,0,0
189,-461,0,0,0,0,0,0,0,0,0,-1,1413,1485,0,0
196,-461,0,0,0,0,0,0,0,0,0,-1,1420,1485,0,0
203,-461,0,0,0,0,0,0,0,0,0,-1,1427,1485,0,0
210,-461,0,0,0,0,0,0,0,0,0,-1,1434,1485,0,0
217,-461,0,0,0,0,0,0,0,0,0,-1,1441,1485,0,0
224,-461,0,0,0,0,0,0,0,0,0,-1,1448,1485,0,0
231,-461,0,0,0,0,0,0,0,0,0,-1,1455,1485,0,0
238,-461,0,0,0,0,0,0,0,0,0,-1,1462,1485,0,0
245,-461,0,0,0,0,0,0,0,0,0,-1,1469,1485,0,0
252,-461,0,0,0,0,0,0,0,0,0,-1,1476,1485,0,0
259,-461,0,0,0,0,0,0,0,0,0,-1,1483,1485,0,0
266,-461,0,0,0,0,0,0,0,0,0,-1,1490,1485,0,0
273,-461,0,0,0,0,0,0,0,0,0,-1,1497,1485,0,0
280,-461,0,0,0,0,0,0,0,0,0,-1,1504,1485,0,0
287,-461,0,0,0,0,0,0,0,0,0,-1,1511,1485,0,0
294,-461,0,0,0,0,0,0,0,0,0,-1,1518,1485,0,0
301,-461,0,0,0,0,0,0,0,0,0,-1,1525,1485,0,0
308,-461,0,0,0,0,0,0,0,0,0,-1,1532,1485,0,0
315,-461,0,0,0,0,0,0,0,0,0,-1,1539,1485,0,0
322,-461,0,0,0,0,0,0,0,0,0,-1,1546,1485,0,0
329,-461,0,0,0,0,0,0,0,0,0,-1,1553,1485,0,0
336,-461,0,0,0,0,0,0,0,0,0,-1,1560,1485,0,0
343,-461,0,0,0,0,0,0,0,0,0,-1,1567,1485,0,0
350,-461,0,0,0,0,0,0,0,0,0,-1,1574,1485,0,0
357,-461,0,0,0,0,0,0,0,0,0,-1,1581,1485,0,0
364,-461,0,0,0,0,0,0,0,0,0,-1,1588,1485,0,0
371,-461,0,0,0,0,0,0,0,0,0,-1,1595,1485,0,0
378,-461,0,0,0,0,0,0,0,0,0,-1,1602,1485,0,0
385,-461,0,0,0,0,0,0,0,0,0,-1,1609,1485,0,0
392,-461,0,0,0,0,0,0,0,0,0,-1,1616,1485,0,0
399,-461,0,0,0,0,0,0,0,0,0,-1,1623,1485,0,0
406,-461,0,0,0,0,0,0,0,0,0,-1,1630,1485,0,0
413,-461,0,0,0,0,0,0,0,0,0,-1,1637,1485,0,0
420,-461,0,0,0,0,0,0,0,0,0,-1,1644,1485,0,0
427,-461,0,0,0,0,0,0,0,0,0,-1,1651,1485,0,0
434,-461,0,0,0,0,0,0,0,0,0,-1,1658,1485,0,0
441,-461,0,0,0,0,0,0,0,0,0,-1,1665,1485,0,0
448,-461,0,0,0,0,0,0,0,0,0,-1,1672,1485,0,0
455,-461,0,0,0,0,0,0,0,0,0,-1,1679,1485,0,0
462,-461,0,0,0,0,0,0,0,0,0,-1,1686,1485,0,0
469,-461,0,0,0,0,0,0,0,0,0,-1,1693,1485,0,0
476,-461,14.1906,0.690552,0,0,0,0,0,0,0,-1,1700,1485,14.1906,-0.690525
483,-461,10.6361,3.09106,0,0,0,0,0,0,0,-1,1707,1485,10.6361,-3.091
490,-461,17.9972,0.665894,0,0,0,0,0,0,0,-1,1714,1485,17.9972,-0.665876
497,-461,16.6829,1.87732,0,0,0,0,0,0,0,-1,1721,1485,16.6828,-1.87736
504,-461,15.3884,3.09216,0,0,0,0,0,0,0,-1,1728,1485,15.3885,-3.09212
511,-461,15.4292,14.3512,0,0,0,0,0,0,0,-1,1735,1485,15.4292,-14.3512
518,-461,14.8081,10.0085,0,0,0,0,0,0,0,-1,1742,1485,14.8081,-10.0086
525,-461,14.0022,10.8033,0,0,0,0,0,0,0,-1,1749,1485,14.0022,-10.8033
532,-461,17.1704,14.077,0,0,0,0,0,0,0,-1,1756,1485,17.1704,-14.077
539,-461,17.0229,14.7386,0,0,0,0,0,0,0,-1,1763,1485,17.0229,-14.7387
546,-461,16.2106,14.1372,0,0,0,0,0,0,0,-1,1770,1485,16.2106,-14.1372
553,-461,20.8104,19.1533,0,0,0,0,0,0,0,-1,1777,1485,20.8104,-19.1533
560,-461,21.1144,18.5776,0,0,0,0,0,0,0,-1,1784,1485,21.1144,-18.5777
567,-461,21.2463,18.3364,-0.00183035,0.00281036,0.00033095,0.00283384,-0.00185384,1.49996,0.00272608,0.0308059,1791,1485,21.2463,-18.3364
574,-461,21.2477,17.9264,-0.000498543,0.00238156,-0.000284176,0.00240934,-0.000526314,-1.47338,0.00180739,0.0252486,1798,1485,21.2477,-17.9263
581,-461,21.2584,17.4525,0.000386673,0.00198359,-0.000662483,0.00222264,0.000147625,-1.2245,0.00143508,0.0160639,1805,1485,21.2584,-17.4525
588,-461,21.2351,17.0101,0.000921378,0.00150496,-0.000801639,0.00206626,0.000360077,-0.959942,0.00127455,0.0105584,1812,1485,21.2351,-17.0101
595,-461,21.1934,16.5524,0.00153378,0.000863461,-0.00100723,0.00226015,0.00013709,-0.624785,0.00146321,0.00902893,1819,1485,21.1933,-16.5523
602,-461,21.1934,16.0615,0.00182662,0.000450288,-0.000956556,0.00231683,-3.99217e-05,-0.473577,0.00155803,0.00991822,1826,1485,21.1933,-16.0615
609,-461,21.1971,15.5919,0.00202782,4.43213e-05,-0.000830278,0.00232949,-0.000257347,-0.348504,0.0016455,0.0109365,1833,1485,21.1971,-15.5919
616,-461,21.1902,15.1453,0.00221911,-0.000448293,-0.000705689,0.0023943,-0.000623484,-0.243336,0.00183959,0.01301,1840,1485,21.1902,-15.1453
623,-461,21.1927,14.7012,0.00245331,-0.000943541,-0.000550065,0.00254016,-0.00103039,-0.156604,0.002122,0.0153779,1847,1485,21.1928,-14.7012
630,-461,21.1641,14.2505,0.00281082,-0.00135212,-0.000446405,0.00285815,-0.00139945,-0.105633,0.00250576,0.0157777,1854,1485,21.1641,-14.2505
637,-461,21.1394,13.7826,0.00333865,-0.00141985,-0.00052004,0.00339482,-0.00147602,-0.107594,0.002884,0.0150679,1861,1485,21.1394,-13.7826
644,-461,21.1947,13.3647,0.00397984,-0.00136302,-0.000687592,0.00406691,-0.00145009,-0.12596,0.00330252,0.0302847,1868,1485,21.1946,-13.3648
651,-461,21.2871,12.9119,0,0,0,0,0,0,0,-1,1875,1485,21.2871,-12.9119
658,-461,16.8987,10.1084,0,0,0,0,0,0,0,-1,1882,1485,16.8986,-10.1084
665,-461,17.2638,9.81384,0,0,0,0,0,0,0,-1,1889,1485,17.2638,-9.81385
672,-461,14.4877,6.89429,0,0,0,0,0,0,0,-1,1896,1485,14.4876,-6.89431
679,-461,10.0535,2.16321,0,0,0,0,0,0,0,-1,1903,1485,10.0535,-2.16317
686,-461,10.8195,1.84192,0,0,0,0,0,0,0,-1,1910,1485,10.8194,-1.84195
693,-461,0,0,0,0,0,0,0,0,0,-1,1917,1485,0,0
700,-461,0,0,0,0,0,0,0,0,0,-1,1924,1485,0,0
707,-461,0,0,0,0,0,0,0,0,0,-1,1931,1485,0,0
714,-461,0,0,0,0,0,0,0,0,0,-1,1938,1485,0,0
721,-461,0,0,0,0,0,0,0,0,0,-1,1945,1485,0,0
728,-461,0,0,0,0,0,0,0,0,0,-1,1952,1485,0,0
735,-461,0,0,0,0,0,0,0,0,0,-1,1959,1485,0,0
742,-461,0,0,0,0,0,0,0,0,0,-1,1966,1485,0,0
749,-461,0,0,0,0,0,0,0,0,0,-1,1973,1485,0,0
756,-461,0,0,0,0,0,0,0,0,0,-1,1980,1485,0,0
763,-461,0,0,0,0,0,0,0,0,0,-1,1987,1485,0,0
770,-461,0,0,0,0,0,0,0,0,0,-1,1994,1485,0,0
777,-461,0,0,0,0,0,0,0,0,0,-1,2001,1485,0,0
784,-461,0,0,0,0,0,0,0,0,0,-1,2008,1485,0,0
791,-461,0,0,0,0,0,0,0,0,0,-1,2015,1485,0,0
798,-461,0,0,0,0,0,0,0,0,0,-1,2022,1485,0,0
805,-461,0,0,0,0,0,0,0,0,0,-1,2029,1485,0,0
812,-461,0,0,0,0,0,0,0,0,0,-1,2036,1485,0,0
-700,-468,0,0,0,0,0,0,0,0,0,-1,524,1492,0,0
-693,-468,0,0,0,0,0,0,0,0,0,-1,531,1492,0,0
-686,-468,0,0,0,0,0,0,0,0,0,-1,538,1492,0,0
-679,-468,0,0,0,0,0,0,0,0,0,-1,545,1492,0,0
-672,-468,0,0,0,0,0,0,0,0,0,-1,552,1492,0,0
-665,-468,0,0,0,0,0,0,0,0,0,-1,559,1492,0,0
-658,-468,0,0,0,0,0,0,0,0,0,-1,566,1492,0,0
-651,-468,0,0,0,0,0,0,0,0,0,-1,573,1492,0,0
-644,-468,0,0,0,0,0,0,0,0,0,-1,580,1492,0,0
-637,-468,0,0,0,0,0,0,0,0,0,-1,587,1492,0,0
-630,-468,0,0,0,0,0,0,0,0,0,-1,594,1492,0,0
-623,-468,0,0,0,0,0,0,0,0,0,-1,601,1492,0,0
-616,-468,0,0,0,0,0,0,0,0,0,-1,608,1492,0,0
-609,-468,0,0,0,0,0,0,0,0,0,-1,615,1492,0,0
-602,-468,0,0,0,0,0,0,0,0,0,-1,622,1492,0,0
-595,-468,0,0,0,0,0,0,0,0,0,-1,629,1492,0,0
-588,-468,0,0,0,0,0,0,0,0,0,-1,636,1492,0,0
-581,-468,0,0,0,0,0,0,0,0,0,-1,643,1492,0,0
-574,-468,0,0,0,0,0,0,0,0,0,-1,650,1492,0,0
-567,-468,-11.2603,1.8042,0,0,0,0,0,0,0,-1,657,1492,-11.2603,-1.80424
-560,-468,-8.77441,2.23694,0,0,0,0,0,0,0,-1,664,1492,-8.77443,-2.23692
-553,-468,-5.94061,9.26318,0,0,0,0,0,0,0,-1,671,1492,-5.94062,-9.26322
-546,-468,-10.47,5.43237,0,0,0,0,0,0,0,-1,678,1492,-10.47,-5.4324
-539,-468,-10.2468,5.45203,0,0,0,0,0,0,0,-1,685,1492,-10.2468,-5.45197
-532,-468,-8.39795,6.02783,0,0,0,0,0,0,0,-1,692,1492,-8.39793,-6.02789
-525,-468,-6.59332,7.15405,0,0,0,0,0,0,0,-1,699,1492,-6.59331,-7.15411
-518,-468,-6.33588,8.65393,0,0,0,0,0,0,0,-1,706,1492,-6.33588,-8.65397
-511,-468,-5.95654,11.3572,0,0,0,0,0,0,0,-1,713,1492,-5.95654,-11.3571
-504,-468,-6.30664,12.0168,-0.0056151,-0.00628075,-0.00334447,-0.00258694,-0.00930891,-0.735804,0.00554843,0.0361818,720,1492,-6.30665,-12.0168
-497,-468,-6.40302,12.5405,-0.00471854,-0.00511418,-0.00278817,-0.00212118,-0.00771153,-0.749983,0.00459998,0.0164932,727,1492,-6.40301,-12.5406
-490,-468,-6.39301,13.101,-0.00359752,-0.00395929,-0.00210306,-0.00166758,-0.00588923,-0.742499,0.00350511,0.00842218,734,1492,-6.39301,-13.1009
-483,-468,-6.43976,13.5953,-0.00220941,-0.00265357,-0.0012134,-0.00119793,-0.00366504,-0.69489,0.00215789,0.00866719,741,1492,-6.43976,-13.5954
-476,-468,-6.46063,14.0953,-0.000719082,-0.00135359,-0.000228704,-0.00064524,-0.00142743,-0.312304,0.000825389,0.00958239,748,1492,-6.46061,-14.0953
-469,-468,-6.47095,14.6066,0.000899521,-0.000105414,0.00089842,0.00142644,-0.000632331,0.530428,0.00121775,0.0137431,755,1492,-6.47092,-14.6066
-462,-468,-6.46692,15.0858,0.00265327,0.00116846,0.00211758,0.00415481,-0.000333082,0.616797,0.00288731,0.0226867,762,1492,-6.46693,-15.0858
-455,-468,-6.50916,15.5648,0.00453921,0.00243064,0.00345545,0.00709764,-0.000127783,0.63733,0.00477492,0.0221633,769,1492,-6.50918,-15.5648
-448,-468,-6.5296,16.0784,0.00663069,0.00375235,0.00501983,0.0104136,-3.05371e-05,0.645794,0.00695259,0.0138597,776,1492,-6.52961,-16.0784
-441,-468,-6.521,16.6017,0.00890716,0.00513064,0.0068065,0.0140825,-4.46704e-05,0.650091,0.00940324,0.013873,783,1492,-6.521,-16.6016
-434,-468,-6.47986,17.1527,0.0114185,0.0064176,0.00887399,0.0181376,-0.000301508,0.648073,0.0121935,0.0200648,790,1492,-6.47987,-17.1527
-427,-468,-6.38483,17.6829,0.0142351,0.00779122,0.0111475,0.0226169,-0.000590575,0.644717,0.0152786,0.035532,797,1492,-6.38483,-17.6829
-420,-468,-5.96313,18.2101,0,0,0,0,0,0,0,-1,804,1492,-5.96314,-18.21
-413,-468,-5.30328,17.3519,0,0,0,0,0,0,0,-1,811,1492,-5.30329,-17.352
-406,-468,-2.2356,9.396,0,0,0,0,0,0,0,-1,818,1492,-2.2356,-9.396
-399,-468,-0.940369,8.1936,0,0,0,0,0,0,0,-1,825,1492,-0.940365,-8.19357
-392,-468,-0.35144,8.14673,0,0,0,0,0,0,0,-1,832,1492,-0.351449,-8.14674
-385,-468,0.465759,5.35864,0,0,0,0,0,0,0,-1,839,1492,0.465732,-5.35864
-378,-468,1.99835,3.25391,0,0,0,0,0,0,0,-1,846,1492,1.99837,-3.2539
-371,-468,-0.31842,3.1532,0,0,0,0,0,0,0,-1,853,1492,-0.318441,-3.15324
-364,-468,-0.966736,2.14563,0,0,0,0,0,0,0,-1,860,1492,-0.966735,-2.14557
-357,-468,-3.06787,3.22742,0,0,0,0,0,0,0,-1,867,1492,-3.06784,-3.2274
-350,-468,-3.18658,4.12659,0,0,0,0,0,0,0,-1,874,1492,-3.18659,-4.12658
-343,-468,0,0,0,0,0,0,0,0,0,-1,881,1492,0,0
-336,-468,0,0,0,0,0,0,0,0,0,-1,888,1492,0,0
-329,-468,0,0,0,0,0,0,0,0,0,-1,895,1492,0,0
-322,-468,0,0,0,0,0,0,0,0,0,-1,902,1492,0,0
-315,-468,0,0,0,0,0,0,0,0,0,-1,909,1492,0,0
-308,-468,0,0,0,0,0,0,0,0,0,-1,916,1492,0,0
-301,-468,0,0,0,0,0,0,0,0,0,-1,923,1492,0,0
-294,-468,0,0,0,0,0,0,0,0,0,-1,930,1492,0,0
-287,-468,0,0,0,0,0,0,0,0,0,-1,937,1492,0,0
-280,-468,0,0,0,0,0,0,0,0,0,-1,944,1492,0,0
-273,-468,0,0,0,0,0,0,0,0,0,-1,951,1492,0,0
-266,-468,0,0,0,0,0,0,0,0,0,-1,958,1492,0,0
-259,-468,0,0,0,0,0,0,0,0,0,-1,965,1492,0,0
-252,-468,0,0,0,0,0,0,0,0,0,-1,972,1492,0,0
-245,-468,0,0,0,0,0,0,0,0,0,-1,979,1492,0,0
-238,-468,0,0,0,0,0,0,0,0,0,-1,986,1492,0,0
-231,-468,0,0,0,0,0,0,0,0,0,-1,993,1492,0,0
-224,-468,0,0,0,0,0,0,0,0,0,-1,1000,1492,0,0
-217,-468,0,0,0,0,0,0,0,0,0,-1,1007,1492,0,0
-210,-468,0,0,0,0,0,0,0,0,0,-1,1014,1492,0,0
-203,-468,0,0,0,0,0,0,0,0,0,-1,1021,1492,0,0
-196,-468,0,0,0,0,0,0,0,0,0,-1,1028,1492,0,0
-189,-468,0,0,0,0,0,0,0,0,0,-1,1035,1492,0,0
-182,-468,0,0,0,0,0,0,0,0,0,-1,1042,1492,0,0
-175,-468,0,0,0,0,0,0,0,0,0,-1,1049,1492,0,0
-168,-468,0,0,0,0,0,0,0,0,0,-1,1056,1492,0,0
-161,-468,0,0,0,0,0,0,0,0,0,-1,1063,1492,0,0
-154,-468,0,0,0,0,0,0,0,0,0,-1,1070,1492,0,0
-147,-468,0,0,0,0,0,0,0,0,0,-1,1077,1492,0,0
-140,-468,0,0,0,0,0,0,0,0,0,-1,1084,1492,0,0
-133,-468,0,0,0,0,0,0,0,0,0,-1,1091,1492,0,0
-126,-468,0,0,0,0,0,0,0,0,0,-1,1098,1492,0,0
-119,-468,0,0,0,0,0,0,0,0,0,-1,1105,1492,0,0
-112,-468,0,0,0,0,0,0,0,0,0,-1,1112,1492,0,0
-105,-468,0,0,0,0,0,0,0,0,0,-1,1119,1492,0,0
-98,-468,0,0,0,0,0,0,0,0,0,-1,1126,1492,0,0
-91,-468,0,0,0,0,0,0,0,0,0,-1,1133,1492,0,0
-84,-468,0,0,0,0,0,0,0,0,0,-1,1140,1492,0,0
-77,-468,0,0,0,0,0,0,0,0,0,-1,1147,1492,0,0
-70,-468,0,0,0,0,0,0,0,0,0,-1,1154,1492,0,0
-63,-468,0,0,0,0,0,0,0,0,0,-1,1161,1492,0,0
-56,-468,0,0,0,0,0,0,0,0,0,-1,1168,1492,0,0
-49,-468,0,0,0,0,0,0,0,0,0,-1,1175,1492,0,0
-42,-468,0,0,0,0,0,0,0,0,0,-1,1182,1492,0,0
-35,-468,0,0,0,0,0,0,0,0,0,-1,1189,1492,0,0
-28,-468,0,0,0,0,0,0,0,0,0,-1,1196,1492,0,0
-21,-468,0,0,0,0,0,0,0,0,0,-1,1203,1492,0,0
-14,-468,0,0,0,0,0,0,0,0,0,-1,1210,1492,0,0
-7,-468,0,0,0,0,0,0,0,0,0,-1,1217,1492,0,0
0,-468,0,0,0,0,0,0,0,0,0,-1,1224,1492,0,0
7,-468,0,0,0,0,0,0,0,0,0,-1,1231,1492,0,0
14,-468,0,0,0,0,0,0,0,0,0,-1,1238,1492,0,0
21,-468,0,0,0,0,0,0,0,0,0,-1,1245,1492,0,0
28,-468,0,0,0,0,0,0,0,0,0,-1,1252,1492,0,0
35,-468,0,0,0,0,0,0,0,0,0,-1,1259,1492,0,0
42,-468,0,0,0,0,0,0,0,0,0,-1,1266,1492,0,0
49,-468,0,0,0,0,0,0,0,0,0,-1,1273,1492,0,0
56,-468,0,0,0,0,0,0,0,0,0,-1,1280,1492,0,0
63,-468,0,0,0,0,0,0,0,0,0,-1,1287,1492,0,0
70,-468,0,0,0,0,0,0,0,0,0,-1,1294,1492,0,0
77,-468,0,0,0,0,0,0,0,0,0,-1,1301,1492,0,0
84,-468,0,0,0,0,0,0,0,0,0,-1,1308,1492,0,0
91,-468,0,0,0,0,0,0,0,0,0,-1,1315,1492,0,0
98,-468,0,0,0,0,0,0,0,0,0,-1,1322,1492,0,0
105,-468,0,0,0,0,0,0,0,0,0,-1,1329,1492,0,0
112,-468,0,0,0,0,0,0,0,0,0,-1,1336,1492,0,0
119,-468,0,0,0,0,0,0,0,0,0,-1,1343,1492,0,0
126,-468,0,0,0,0,0,0,0,0,0,-1,1350,1492,0,0
133,-468,0,0,0,0,0,0,0,0,0,-1,1357,1492,0,0
140,-468,0,0,0,0,0,0,0,0,0,-1,1364,1492,0,0
147,-468,0,0,0,0,0,0,0,0,0,-1,1371,1492,0,0
154,-468,0,0,0,0,0,0,0,0,0,-1,1378,1492,0,0
161,-468,0,0,0,0,0,0,0,0,0,-1,1385,1492,0,0
168,-468,0,0,0,0,0,0,0,0,0,-1,1392,1492,0,0
175,-468,0,0,0,0,0,0,0,0,0,-1,1399,1492,0,0
182,-468,0,0,0,0,0,0,0,0,0,-1,1406,1492,0,0
189,-468,0,0,0,0,0,0,0,0,0,-1,1413,1492,0,0
196,-468,0,0,0,0,0,0,0,0,0,-1,1420,1492,0,0
203,-468,0,0,0,0,0,0,0,0,0,-1,1427,1492,0,0
210,-468,0,0,0,0,0,0,0,0,0,-1,1434,1492,0,0
217,-468,0,0,0,0,0,0,0,0,0,-1,1441,1492,0,0
224,-468,0,0,0,0,0,0,0,0,0,-1,1448,1492,0,0
231,-468,0,0,0,0,0,0,0,0,0,-1,1455,1492,0,0
238,-468,0,0,0,0,0,0,0,0,0,-1,1462,1492,0,0
245,-468,0,0,0,0,0,0,0,0,0,-1,1469,1492,0,0
252,-468,0,0,0,0,0,0,0,0,0,-1,1476,1492,0,0
259,-468,0,0,0,0,0,0,0,0,0,-1,1483,1492,0,0
266,-468,0,0,0,0,0,0,0,0,0,-1,1490,1492,0,0
273,-468,0,0,0,0,0,0,0,0,0,-1,1497,1492,0,0
280,-468,0,0,0,0,0,0,0,0,0,-1,1504,1492,0,0
287,-468,0,0,0,0,0,0,0,0,0,-1,1511,1492,0,0
294,-468,0,0,0,0,0,0,0,0,0,-1,1518,1492,0,0
301,-468,0,0,0,0,0,0,0,0,0,-1,1525,1492,0,0
308,-468,0,0,0,0,0,0,0,0,0,-1,1532,1492,0,0
315,-468,0,0,0,0,0,0,0,0,0,-1,1539,1492,0,0
322,-468,0,0,0,0,0,0,0,0,0,-1,1546,1492,0,0
329,-468,0,0,0,0,0,0,0,0,0,-1,1553,1492,0,0
336,-468,0,0,0,0,0,0,0,0,0,-1,1560,1492,0,0
343,-468,0,0,0,0,0,0,0,0,0,-1,1567,1492,0,0
350,-468,0,0,0,0,0,0,0,0,0,-1,1574,1492,0,0
357,-468,0,0,0,0,0,0,0,0,0,-1,1581,1492,0,0
364,-468,0,0,0,0,0,0,0,0,0,-1,1588,1492,0,0
371,-468,0,0,0,0,0,0,0,0,0,-1,1595,1492,0,0
378,-468,0,0,0,0,0,0,0,0,0,-1,1602,1492,0,0
385,-468,0,0,0,0,0,0,0,0,0,-1,1609,1492,0,0
392,-468,0,0,0,0,0,0,0,0,0,-1,1616,1492,0,0
399,-468,0,0,0,0,0,0,0,0,0,-1,1623,1492,0,0
406,-468,0,0,0,0,0,0,0,0,0,-1,1630,1492,0,0
413,-468,0,0,0,0,0,0,0,0,0,-1,1637,1492,0,0
420,-468,0,0,0,0,0,0,0,0,0,-1,1644,1492,0,0
427,-468,0,0,0,0,0,0,0,0,0,-1,1651,1492,0,0
434,-468,0,0,0,0,0,0,0,0,0,-1,1658,1492,0,0
441,-468,0,0,0,0,0,0,0,0,0,-1,1665,1492,0,0
448,-468,0,0,0,0,0,0,0,0,0,-1,1672,1492,0,0
455,-468,0,0,0,0,0,0,0,0,0,-1,1679,1492,0,0
462,-468,0,0,0,0,0,0,0,0,0,-1,1686,1492,0,0
469,-468,15.6879,1.2677,0,0,0,0,0,0,0,-1,1693,1492,15.6879,-1.26772
476,-468,14.9318,1.61865,0,0,0,0,0,0,0,-1,1700,1492,14.9318,-1.61869
483,-468,11.265,4.64795,0,0,0,0,0,0,0,-1,1707,1492,11.265,-4.64798
490,-468,12.1316,3.51624,0,0,0,0,0,0,0,-1,1714,1492,12.1316,-3.51628
497,-468,16.5355,3.14587,0,0,0,0,0,0,0,-1,1721,1492,16.5356,-3.14583
504,-468,15.0642,4.10437,0,0,0,0,0,0,0,-1,1728,1492,15.0643,-4.10431
511,-468,15.6877,9.4801,0,0,0,0,0,0,0,-1,1735,1492,15.6878,-9.48007
518,-468,13.759,11.0887,0,0,0,0,0,0,0,-1,1742,1492,13.759,-11.0887
525,-468,16.6531,14.2238,0,0,0,0,0,0,0,-1,1749,1492,16.653,-14.2237
532,-468,16.9696,15.9641,0,0,0,0,0,0,0,-1,1756,1492,16.9696,-15.9641
539,-468,21.5308,20.7551,0,0,0,0,0,0,0,-1,1763,1492,21.5308,-20.7551
546,-468,20.9214,19.9684,0,0,0,0,0,0,0,-1,1770,1492,20.9214,-19.9684
553,-468,20.8268,19.1991,-0.0048944,0.00307104,0.00226069,0.00366792,-0.00549129,1.31266,0.00532289,0.0465289,1777,1492,20.8268,-19.1991
560,-468,20.7952,18.8448,-0.00289016,0.00234635,0.00124119,0.00262565,-0.00316945,1.34946,0.00335071,0.0370438,1784,1492,20.7951,-18.8448
567,-468,20.7678,18.4424,-0.00153197,0.00206646,0.000543927,0.00214688,-0.00161239,1.42401,0.00217772,0.0208144,1791,1492,20.7678,-18.4424
574,-468,20.7957,17.9355,-0.000398635,0.00166435,-3.38342e-05,0.0016649,-0.000399189,-1.5544,0.00126419,0.0157282,1798,1492,20.7957,-17.9355
581,-468,20.7959,17.4821,0.000366982,0.00128845,-0.000401612,0.00143892,0.000216514,-1.21232,0.00089587,0.0160884,1805,1492,20.7959,-17.482
588,-468,20.7662,17.0366,0.000887722,0.00086735,-0.000581673,0.0014593,0.000295774,-0.776644,0.000890795,0.012581,1812,1492,20.7662,-17.0366
595,-468,20.7473,16.5721,0.00154173,0.000287635,-0.000829654,0.00195464,-0.000125275,-0.461798,0.0013468,0.0105367,1819,1492,20.7474,-16.5722
602,-468,20.7452,16.092,0.00191394,-0.000108592,-0.000851019,0.00222438,-0.000419026,-0.34978,0.00164053,0.00957993,1826,1492,20.7453,-16.0921
609,-468,20.7216,15.6167,0.00220359,-0.000522075,-0.000789369,0.00241569,-0.000734176,-0.262497,0.00190299,0.0097839,1833,1492,20.7215,-15.6168
616,-468,20.7115,15.1498,0.00250527,-0.00103392,-0.000703224,0.00263988,-0.00116853,-0.189128,0.00225282,0.00995341,1840,1492,20.7115,-15.1497
623,-468,20.7137,14.6987,0.00287673,-0.00158676,-0.000577361,0.0029502,-0.00166023,-0.126577,0.00269634,0.0113043,1847,1492,20.7137,-14.6987
630,-468,20.7047,14.2429,0.00335971,-0.00204203,-0.000472871,0.0034008,-0.00208312,-0.0866621,0.00319646,0.0121973,1854,1492,20.7047,-14.2429
637,-468,20.6832,13.7813,0.00405166,-0.00212508,-0.00056197,0.00410238,-0.00217579,-0.0899969,0.00368115,0.0148966,1861,1492,20.6832,-13.7812
644,-468,20.759,13.4105,0.0048448,-0.00215846,-0.000686972,0.00491155,-0.00222521,-0.0968629,0.00421659,0.0392332,1868,1492,20.7591,-13.4105
651,-468,20.9677,13.0229,0,0,0,0,0,0,0,-1,1875,1492,20.9676,-13.0229
658,-468,16.4969,10.0774,0,0,0,0,0,0,0,-1,1882,1492,16.497,-10.0774
665,-468,15.4673,8.59546,0,0,0,0,0,0,0,-1,1889,1492,15.4672,-8.59548
672,-468,9.96814,3.61133,0,0,0,0,0,0,0,-1,1896,1492,9.96817,-3.61139
679,-468,11.2191,1.91968,0,0,0,0,0,0,0,-1,1903,1492,11.2191,-1.91965
686,-468,11.9252,1.42285,0,0,0,0,0,0,0,-1,1910,1492,11.9252,-1.42291
693,-468,0,0,0,0,0,0,0,0,0,-1,1917,1492,0,0
700,-468,0,0,0,0,0,0,0,0,0,-1,1924,1492,0,0
707,-468,0,0,0,0,0,0,0,0,0,-1,1931,1492,0,0
714,-468,0,0,0,0,0,0,0,0,0,-1,1938,1492,0,0
721,-468,0,0,0,0,0,0,0,0,0,-1,1945,1492,0,0
728,-468,0,0,0,0,0,0,0,0,0,-1,1952,1492,0,0
735,-468,0,0,0,0,0,0,0,0,0,-1,1959,1492,0,0
742,-468,0,0,0,0,0,0,0,0,0,-1,1966,1492,0,0
749,-468,0,0,0,0,0,0,0,0,0,-1,1973,1492,0,0
756,-468,0,0,0,0,0,0,0,0,0,-1,1980,1492,0,0
763,-468,0,0,0,0,0,0,0,0,0,-1,1987,1492,0,0
770,-468,0,0,0,0,0,0,0,0,0,-1,1994,1492,0,0
777,-468,0,0,0,0,0,0,0,0,0,-1,2001,1492,0,0
784,-468,0,0,0,0,0,0,0,0,0,-1,2008,1492,0,0
791,-468,0,0,0,0,0,0,0,0,0,-1,2015,1492,0,0
798,-468,0,0,0,0,0,0,0,0,0,-1,2022,1492,0,0
805,-468,0,0,0,0,0,0,0,0,0,-1,2029,1492,0,0
812,-468,0,0,0,0,0,0,0,0,0,-1,2036,1492,0,0
-700,-475,0,0,0,0,0,0,0,0,0,-1,524,1499,0,0
-693,-475,0,0,0,0,0,0,0,0,0,-1,531,1499,0,0
-686,-475,0,0,0,0,0,0,0,0,0,-1,538,1499,0,0
-679,-475,0,0,0,0,0,0,0,0,0,-1,545,1499,0,0
-672,-475,0,0,0,0,0,0,0,0,0,-1,552,1499,0,0
-665,-475,0,0,0,0,0,0,0,0,0,-1,559,1499,0,0
-658,-475,0,0,0,0,0,0,0,0,0,-1,566,1499,0,0
-651,-475,0,0,0,0,0,0,0,0,0,-1,573,1499,0,0
-644,-475,0,0,0,0,0,0,0,0,0,-1,580,1499,0,0
-637,-475,0,0,0,0,0,0,0,0,0,-1,587,1499,0,0
-630,-475,0,0,0,0,0,0,0,0,0,-1,594,1499,0,0
-623,-475,0,0,0,0,0,0,0,0,0,-1,601,1499,0,0
-616,-475,0,0,0,0,0,0,0,0,0,-1,608,1499,0,0
-609,-475,0,0,0,0,0,0,0,0,0,-1,615,1499,0,0
-602,-475,0,0,0,0,0,0,0,0,0,-1,622,1499,0,0
-595,-475,0,0,0,0,0,0,0,0,0,-1,629,1499,0,0
-588,-475,0,0,0,0,0,0,0,0,0,-1,636,1499,0,0
-581,-475,0,0,0,0,0,0,0,0,0,-1,643,1499,0,0
-574,-475,0,0,0,0,0,0,0,0,0,-1,650,1499,0,0
-567,-475,0,0,0,0,0,0,0,0,0,-1,657,1499,0,0
-560,-475,-9.42731,9.29517,0,0,0,0,0,0,0,-1,664,1499,-9.42731,-9.29519
-553,-475,-8.15131,8.78369,0,0,0,0,0,0,0,-1,671,1499,-8.15131,-8.78367
-546,-475,-8.41254,8.20654,0,0,0,0,0,0,0,-1,678,1499,-8.41251,-8.20655
-539,-475,-4.7345,4.17419,0,0,0,0,0,0,0,-1,685,1499,-4.73449,-4.17418
-532,-475,-7.07379,4.25024,0,0,0,0,0,0,0,-1,692,1499,-7.07378,-4.2503
-525,-475,-6.13147,5.82166,0,0,0,0,0,0,0,-1,699,1499,-6.1315,-5.8216
-518,-475,-7.28784,9.31506,0,0,0,0,0,0,0,-1,706,1499,-7.28782,-9.315
-511,-475,-5.95642,11.4213,0,0,0,0,0,0,0,-1,713,1499,-5.95642,-11.4213
-504,-475,-5.82532,12.1783,-0.00732022,-0.00836313,-0.00368485,-0.00412011,-0.0115632,-0.715108,0.00676731,0.0443341,720,1499,-5.82534,-12.1783
-497,-475,-5.90918,12.6561,-0.00642935,-0.00703856,-0.00316381,-0.00355552,-0.00991239,-0.737408,0.0057986,0.0302987,727,1499,-5.90919,-12.6561
-490,-475,-5.91174,13.0964,-0.00525961,-0.0057952,-0.00254638,-0.00296698,-0.00808783,-0.733008,0.00472438,0.010738,734,1499,-5.91172,-13.0965
-483,-475,-5.92188,13.6261,-0.00378103,-0.00438065,-0.00172263,-0.00233231,-0.00582937,-0.699241,0.00338791,0.00863611,741,1499,-5.92188,-13.6262
-476,-475,-5.93658,14.1104,-0.00222217,-0.00296498,-0.000840796,-0.0016744,-0.00351275,-0.577421,0.00202882,0.0101603,748,1499,-5.93656,-14.1104
-469,-475,-5.94897,14.6238,-0.000573723,-0.0016018,0.000149969,-0.000552293,-0.00162323,0.141934,0.000952985,0.012528,755,1499,-5.94895,-14.6238
-462,-475,-5.93628,15.1125,0.00115544,-0.000246595,0.00120498,0.00184848,-0.000939634,0.521945,0.00163798,0.0175219,762,1499,-5.93627,-15.1125
-455,-475,-5.97791,15.5831,0.00294177,0.00108965,0.00234774,0.00453949,-0.000508072,0.597543,0.00320912,0.0149514,769,1499,-5.97792,-15.5832
-448,-475,-6.02686,16.0883,0.00485456,0.00248605,0.0036637,0.00752064,-0.000180039,0.629079,0.00507484,0.0133431,776,1499,-6.02685,-16.0883
-441,-475,-6.01215,16.6078,0.00686715,0.00391106,0.00517905,0.0107749,3.27686e-06,0.646399,0.0071822,0.0175253,783,1499,-6.01216,-16.6078
-434,-475,-6.00812,17.0979,0.00901273,0.0053553,0.00694111,0.014362,6.04847e-06,0.656594,0.00957264,0.0114105,790,1499,-6.00812,-17.0979
-427,-475,-5.9765,17.6863,0.0113505,0.00699175,0.00892812,0.0183614,-1.91526e-05,0.665689,0.0122473,0.0257165,797,1499,-5.97648,-17.6862
-420,-475,-5.85956,18.2179,0.0136463,0.00892182,0.0115895,0.0231118,-0.000543724,0.684863,0.0155923,0.0440759,804,1499,-5.85956,-18.2179
-413,-475,-5.57526,18.842,0,0,0,0,0,0,0,-1,811,1499,-5.57525,-18.842
-406,-475,-2.56116,12.4956,0,0,0,0,0,0,0,-1,818,1499,-2.56116,-12.4956
-399,-475,-1.39667,6.1615,0,0,0,0,0,0,0,-1,825,1499,-1.39664,-6.16155
-392,-475,0.217163,8.61389,0,0,0,0,0,0,0,-1,832,1499,0.217167,-8.6139
-385,-475,1.18372,2.73999,0,0,0,0,0,0,0,-1,839,1499,1.18372,-2.73995
-378,-475,1.31409,2.90149,0,0,0,0,0,0,0,-1,846,1499,1.31411,-2.90151
-371,-475,2.3476,3.31116,0,0,0,0,0,0,0,-1,853,1499,2.34761,-3.31121
-364,-475,1.04462,9.05823,0,0,0,0,0,0,0,-1,860,1499,1.04461,-9.05825
-357,-475,-0.262756,7.97205,0,0,0,0,0,0,0,-1,867,1499,-0.262784,-7.97205
-350,-475,-2.77173,4.35486,0,0,0,0,0,0,0,-1,874,1499,-2.77175,-4.35491
-343,-475,-6.81641,-1.95203,0,0,0,0,0,0,0,-1,881,1499,-6.81643,1.95198
-336,-475,0,0,0,0,0,0,0,0,0,-1,888,1499,0,0
-329,-475,0,0,0,0,0,0,0,0,0,-1,895,1499,0,0
-322,-475,0,0,0,0,0,0,0,0,0,-1,902,1499,0,0
-315,-475,0,0,0,0,0,0,0,0,0,-1,909,1499,0,0
-308,-475,0,0,0,0,0,0,0,0,0,-1,916,1499,0,0
-301,-475,0,0,0,0,0,0,0,0,0,-1,923,1499,0,0
-294,-475,0,0,0,0,0,0,0,0,0,-1,930,1499,0,0
-287,-475,0,0,0,0,0,0,0,0,0,-1,937,1499,0,0
-280,-475,0,0,0,0,0,0,0,0,0,-1,944,1499,0,0
-273,-475,0,0,0,0,0,0,0,0,0,-1,951,1499,0,0
-266,-475,0,0,0,0,0,0,0,0,0,-1,958,1499,0,0
-259,-475,0,0,0,0,0,0,0,0,0,-1,965,1499,0,0
-252,-475,0,0,0,0,0,0,0,0,0,-1,972,1499,0,0
-245,-475,0,0,0,0,0,0,0,0,0,-1,979,1499,0,0
-238,-475,0,0,0,0,0,0,0,0,0,-1,986,1499,0,0
-231,-475,0,0,0,0,0,0,0,0,0,-1,993,1499,0,0
-224,-475,0,0,0,0,0,0,0,0,0,-1,1000,1499,0,0
-217,-475,0,0,0,0,0,0,0,0,0,-1,1007,1499,0,0
-210,-475,0,0,0,0,0,0,0,0,0,-1,1014,1499,0,0
-203,-475,0,0,0,0,0,0,0,0,0,-1,1021,1499,0,0
-196,-475,0,0,0,0,0,0,0,0,0,-1,1028,1499,0,0
-189,-475,0,0,0,0,0,0,0,0,0,-1,1035,1499,0,0
-182,-475,0,0,0,0,0,0,0,0,0,-1,1042,1499,0,0
-175,-475,0,0,0,0,0,0,0,0,0,-1,1049,1499,0,0
-168,-475,0,0,0,0,0,0,0,0,0,-1,1056,1499,0,0
-161,-475,0,0,0,0,0,0,0,0,0,-1,1063,1499,0,0
-154,-475,0,0,0,0,0,0,0,0,0,-1,1070,1499,0,0
-147,-475,0,0,0,0,0,0,0,0,0,-1,1077,1499,0,0
-140,-475,0,0,0,0,0,0,0,0,0,-1,1084,1499,0,0
-133,-475,0,0,0,0,0,0,0,0,0,-1,1091,1499,0,0
-126,-475,0,0,0,0,0,0,0,0,0,-1,1098,1499,0,0
-119,-475,0,0,0,0,0,0,0,0,0,-1,1105,1499,0,0
-112,-475,0,0,0,0,0,0,0,0,0,-1,1112,1499,0,0
-105,-475,0,0,0,0,0,0,0,0,0,-1,1119,1499,0,0
-98,-475,0,0,0,0,0,0,0,0,0,-1,1126,1499,0,0
-91,-475,0,0,0,0,0,0,0,0,0,-1,1133,1499,0,0
-84,-475,0,0,0,0,0,0,0,0,0,-1,1140,1499,0,0
-77,-475,0,0,0,0,0,0,0,0,0,-1,1147,1499,0,0
-70,-475,0,0,0,0,0,0,0,0,0,-1,1154,1499,0,0
-63,-475,0,0,0,0,0,0,0,0,0,-1,1161,1499,0,0
-56,-475,0,0,0,0,0,0,0,0,0,-1,1168,1499,0,0
-49,-475,0,0,0,0,0,0,0,0,0,-1,1175,1499,0,0
-42,-475,0,0,0,0,0,0,0,0,0,-1,1182,1499,0,0
-35,-475,0,0,0,0,0,0,0,0,0,-1,1189,1499,0,0
-28,-475,0,0,0,0,0,0,0,0,0,-1,1196,1499,0,0
-21,-475,0,0,0,0,0,0,0,0,0,-1,1203,1499,0,0
-14,-475,0,0,0,0,0,0,0,0,0,-1,1210,1499,0,0
-7,-475,0,0,0,0,0,0,0,0,0,-1,1217,1499,0,0
0,-475,0,0,0,0,0,0,0,0,0,-1,1224,1499,0,0
7,-475,0,0,0,0,0,0,0,0,0,-1,1231,1499,0,0
14,-475,0,0,0,0,0,0,0,0,0,-1,1238,1499,0,0
21,-475,0,0,0,0,0,0,0,0,0,-1,1245,1499,0,0
28,-475,0,0,0,0,0,0,0,0,0,-1,1252,1499,0,0
35,-475,0,0,0,0,0,0,0,0,0,-1,1259,1499,0,0
42,-475,0,0,0,0,0,0,0,0,0,-1,1266,1499,0,0
49,-475,0,0,0,0,0,0,0,0,0,-1,1273,1499,0,0
56,-475,0,0,0,0,0,0,0,0,0,-1,1280,1499,0,0
63,-475,0,0,0,0,0,0,0,0,0,-1,1287,1499,0,0
70,-475,0,0,0,0,0,0,0,0,0,-1,1294,1499,0,0
77,-475,0,0,0,0,0,0,0,0,0,-1,1301,1499,0,0
84,-475,0,0,0,0,0,0,0,0,0,-1,1308,1499,0,0
91,-475,0,0,0,0,0,0,0,0,0,-1,1315,1499,0,0
98,-475,0,0,0,0,0,0,0,0,0,-1,1322,1499,0,0
105,-475,0,0,0,0,0,0,0,0,0,-1,1329,1499,0,0
112,-475,0,0,0,0,0,0,0,0,0,-1,1336,1499,0,0
119,-475,0,0,0,0,0,0,0,0,0,-1,1343,1499,0,0
126,-475,0,0,0,0,0,0,0,0,0,-1,1350,1499,0,0
133,-475,0,0,0,0,0,0,0,0,0,-1,1357,1499,0,0
140,-475,0,0,0,0,0,0,0,0,0,-1,1364,1499,0,0
147,-475,0,0,0,0,0,0,0,0,0,-1,1371,1499,0,0
154,-475,0,0,0,0,0,0,0,0,0,-1,1378,1499,0,0
161,-475,0,0,0,0,0,0,0,0,0,-1,1385,1499,0,0
168,-475,0,0,0,0,0,0,0,0,0,-1,1392,1499,0,0
175,-475,0,0,0,0,0,0,0,0,0,-1,1399,1499,0,0
182,-475,0,0,0,0,0,0,0,0,0,-1,1406,1499,0,0
189,-475,0,0,0,0,0,0,0,0,0,-1,1413,1499,0,0
196,-475,0,0,0,0,0,0,0,0,0,-1,1420,1499,0,0
203,-475,0,0,0,0,0,0,0,0,0,-1,1427,1499,0,0
210,-475,0,0,0,0,0,0,0,0,0,-1,1434,1499,0,0
217,-475,0,0,0,0,0,0,0,0,0,-1,1441,1499,0,0
224,-475,0,0,0,0,0,0,0,0,0,-1,1448,1499,0,0
231,-475,0,0,0,0,0,0,0,0,0,-1,1455,1499,0,0
238,-475,0,0,0,0,0,0,0,0,0,-1,1462,1499,0,0
245,-475,0,0,0,0,0,0,0,0,0,-1,1469,1499,0,0
252,-475,0,0,0,0,0,0,0,0,0,-1,1476,1499,0,0
259,-475,0,0,0,0,0,0,0,0,0,-1,1483,1499,0,0
266,-475,0,0,0,0,0,0,0,0,0,-1,1490,1499,0,0
273,-475,0,0,0,0,0,0,0,0,0,-1,1497,1499,0,0
280,-475,0,0,0,0,0,0,0,0,0,-1,1504,1499,0,0
287,-475,0,0,0,0,0,0,0,0,0,-1,1511,1499,0,0
294,-475,0,0,0,0,0,0,0,0,0,-1,1518,1499,0,0
301,-475,0,0,0,0,0,0,0,0,0,-1,1525,1499,0,0
308,-475,0,0,0,0,0,0,0,0,0,-1,1532,1499,0,0
315,-475,0,0,0,0,0,0,0,0,0,-1,1539,1499,0,0
322,-475,0,0,0,0,0,0,0,0,0,-1,1546,1499,0,0
329,-475,0,0,0,0,0,0,0,0,0,-1,1553,1499,0,0
336,-475,0,0,0,0,0,0,0,0,0,-1,1560,1499,0,0
343,-475,0,0,0,0,0,0,0,0,0,-1,1567,1499,0,0
350,-475,0,0,0,0,0,0,0,0,0,-1,1574,1499,0,0
357,-475,0,0,0,0,0,0,0,0,0,-1,1581,1499,0,0
364,-475,0,0,0,0,0,0,0,0,0,-1,1588,1499,0,0
371,-475,0,0,0,0,0,0,0,0,0,-1,1595,1499,0,0
378,-475,0,0,0,0,0,0,0,0,0,-1,1602,1499,0,0
385,-475,0,0,0,0,0,0,0,0,0,-1,1609,1499,0,0
392,-475,0,0,0,0,0,0,0,0,0,-1,1616,1499,0,0
399,-475,0,0,0,0,0,0,0,0,0,-1,1623,1499,0,0
406,-475,0,0,0,0,0,0,0,0,0,-1,1630,1499,0,0
413,-475,0,0,0,0,0,0,0,0,0,-1,1637,1499,0,0
420,-475,0,0,0,0,0,0,0,0,0,-1,1644,1499,0,0
427,-475,0,0,0,0,0,0,0,0,0,-1,1651,1499,0,0
434,-475,0,0,0,0,0,0,0,0,0,-1,1658,1499,0,0
441,-475,0,0,0,0,0,0,0,0,0,-1,1665,1499,0,0
448,-475,0,0,0,0,0,0,0,0,0,-1,1672,1499,0,0
455,-475,0,0,0,0,0,0,0,0,0,-1,1679,1499,0,0
462,-475,12.6372,0.275391,0,0,0,0,0,0,0,-1,1686,1499,12.6372,-0.27536
469,-475,15.6437,2.28296,0,0,0,0,0,0,0,-1,1693,1499,15.6437,-2.28293
476,-475,15.3302,2.71436,0,0,0,0,0,0,0,-1,1700,1499,15.3303,-2.7143
483,-475,10.7461,5.91479,0,0,0,0,0,0,0,-1,1707,1499,10.7461,-5.91476
490,-475,11.9305,4.4364,0,0,0,0,0,0,0,-1,1714,1499,11.9305,-4.43644
497,-475,15.3451,4.3479,0,0,0,0,0,0,0,-1,1721,1499,15.3451,-4.34789
504,-475,16.9646,7.71265,0,0,0,0,0,0,0,-1,1728,1499,16.9646,-7.71265
511,-475,18.941,12.7572,0,0,0,0,0,0,0,-1,1735,1499,18.941,-12.7572
518,-475,17.0021,13.8564,0,0,0,0,0,0,0,-1,1742,1499,17.0021,-13.8564
525,-475,17.5637,15.2103,0,0,0,0,0,0,0,-1,1749,1499,17.5637,-15.2103
532,-475,20.8623,20.8413,0,0,0,0,0,0,0,-1,1756,1499,20.8623,-20.8413
539,-475,20.7845,20.4777,-0.00780705,0.0055625,0.00375663,0.00654574,-0.00879029,1.3148,0.00888582,0.0470239,1763,1499,20.7845,-20.4777
546,-475,20.4524,19.8799,-0.00568608,0.00373869,0.00285335,0.00453523,-0.00648262,1.29857,0.00639419,0.0440671,1770,1499,20.4524,-19.8798
553,-475,20.4893,19.3625,-0.0037734,0.00261491,0.00192519,0.00315023,-0.00430872,1.29959,0.0043237,0.0317435,1777,1499,20.4892,-19.3625
560,-475,20.2035,19.004,-0.00223523,0.00187972,0.00113135,0.00217026,-0.00252576,1.31942,0.00271384,0.0248555,1784,1499,20.2034,-19.004
567,-475,20.3633,18.4427,-0.00110426,0.00152538,0.000522457,0.00162537,-0.00120426,1.38168,0.00163971,0.0148895,1791,1499,20.3633,-18.4428
574,-475,20.3348,17.9697,-0.000131744,0.00113218,-3.86261e-06,0.0011322,-0.000131756,-1.56774,0.000802329,0.0148398,1798,1499,20.3349,-17.9698
581,-475,20.3082,17.519,0.000565728,0.000764964,-0.000361326,0.00104015,0.000290539,-0.919907,0.000619723,0.0124255,1805,1499,20.3082,-17.519
588,-475,20.2885,17.0472,0.00109439,0.00038246,-0.000579387,0.00141843,5.8425e-05,-0.509934,0.000926757,0.0102488,1812,1499,20.2885,-17.0472
595,-475,20.2937,16.5747,0.00177253,-0.000137889,-0.000858855,0.00210187,-0.000467224,-0.366166,0.00158018,0.0103725,1819,1499,20.2936,-16.5747
602,-475,20.283,16.1118,0.00221794,-0.000538317,-0.000953934,0.00251589,-0.000836264,-0.302734,0.00201472,0.0122937,1826,1499,20.283,-16.1119
609,-475,20.2529,15.662,0.00259313,-0.00099919,-0.000960107,0.00283363,-0.00123969,-0.245446,0.002411,0.011857,1833,1499,20.2529,-15.662
616,-475,20.2307,15.2023,0.00300661,-0.00158511,-0.000902423,0.0031776,-0.0017561,-0.187257,0.00288761,0.0114471,1840,1499,20.2307,-15.2022
623,-475,20.2344,14.7051,0.00353357,-0.00227157,-0.00079424,0.00364027,-0.00237827,-0.133548,0.00350018,0.011343,1847,1499,20.2344,-14.705
630,-475,20.2446,14.2363,0.0041493,-0.0028601,-0.000679114,0.00421449,-0.00292529,-0.0957002,0.00414449,0.0131097,1854,1499,20.2446,-14.2363
637,-475,20.2407,13.7631,0.00501299,-0.00309314,-0.000742724,0.00508048,-0.00316063,-0.0906195,0.00480085,0.025005,1861,1499,20.2407,-13.7631
644,-475,20.2675,13.3062,0,0,0,0,0,0,0,-1,1868,1499,20.2675,-13.3062
651,-475,11.7965,7.57593,0,0,0,0,0,0,0,-1,1875,1499,11.7965,-7.5759
658,-475,14.6708,8.80322,0,0,0,0,0,0,0,-1,1882,1499,14.6708,-8.8032
665,-475,9.33435,5.43335,0,0,0,0,0,0,0,-1,1889,1499,9.33439,-5.43332
672,-475,9.38635,1.10474,0,0,0,0,0,0,0,-1,1896,1499,9.38629,-1.10475
679,-475,12.2594,1.31079,0,0,0,0,0,0,0,-1,1903,1499,12.2594,-1.31077
686,-475,0,0,0,0,0,0,0,0,0,-1,1910,1499,0,0
693,-475,0,0,0,0,0,0,0,0,0,-1,1917,1499,0,0
700,-475,0,0,0,0,0,0,0,0,0,-1,1924,1499,0,0
707,-475,0,0,0,0,0,0,0,0,0,-1,1931,1499,0,0
714,-475,0,0,0,0,0,0,0,0,0,-1,1938,1499,0,0
721,-475,0,0,0,0,0,0,0,0,0,-1,1945,1499,0,0
728,-475,0,0,0,0,0,0,0,0,0,-1,1952,1499,0,0
735,-475,0,0,0,0,0,0,0,0,0,-1,1959,1499,0,0
742,-475,0,0,0,0,0,0,0,0,0,-1,1966,1499,0,0
749,-475,0,0,0,0,0,0,0,0,0,-1,1973,1499,0,0
756,-475,0,0,0,0,0,0,0,0,0,-1,1980,1499,0,0
763,-475,0,0,0,0,0,0,0,0,0,-1,1987,1499,0,0
770,-475,0,0,0,0,0,0,0,0,0,-1,1994,1499,0,0
777,-475,0,0,0,0,0,0,0,0,0,-1,2001,1499,0,0
784,-475,0,0,0,0,0,0,0,0,0,-1,2008,1499,0,0
791,-475,0,0,0,0,0,0,0,0,0,-1,2015,1499,0,0
798,-475,0,0,0,0,0,0,0,0,0,-1,2022,1499,0,0
805,-475,0,0,0,0,0,0,0,0,0,-1,2029,1499,0,0
812,-475,0,0,0,0,0,0,0,0,0,-1,2036,1499,0,0
-700,-482,0,0,0,0,0,0,0,0,0,-1,524,1506,0,0
-693,-482,0,0,0,0,0,0,0,0,0,-1,531,1506,0,0
-686,-482,0,0,0,0,0,0,0,0,0,-1,538,1506,0,0
-679,-482,0,0,0,0,0,0,0,0,0,-1,545,1506,0,0
-672,-482,0,0,0,0,0,0,0,0,0,-1,552,1506,0,0
-665,-482,0,0,0,0,0,0,0,0,0,-1,559,1506,0,0
-658,-482,0,0,0,0,0,0,0,0,0,-1,566,1506,0,0
-651,-482,0,0,0,0,0,0,0,0,0,-1,573,1506,0,0
-644,-482,0,0,0,0,0,0,0,0,0,-1,580,1506,0,0
-637,-482,0,0,0,0,0,0,0,0,0,-1,587,1506,0,0
-630,-482,0,0,0,0,0,0,0,0,0,-1,594,1506,0,0
-623,-482,0,0,0,0,0,0,0,0,0,-1,601,1506,0,0
-616,-482,0,0,0,0,0,0,0,0,0,-1,608,1506,0,0
-609,-482,0,0,0,0,0,0,0,0,0,-1,615,1506,0,0
-602,-482,0,0,0,0,0,0,0,0,0,-1,622,1506,0,0
-595,-482,0,0,0,0,0,0,0,0,0,-1,629,1506,0,0
-588,-482,0,0,0,0,0,0,0,0,0,-1,636,1506,0,0
-581,-482,0,0,0,0,0,0,0,0,0,-1,643,1506,0,0
-574,-482,0,0,0,0,0,0,0,0,0,-1,650,1506,0,0
-567,-482,0,0,0,0,0,0,0,0,0,-1,657,1506,0,0
-560,-482,0,0,0,0,0,0,0,0,0,-1,664,1506,0,0
-553,-482,-9.06055,9.34314,0,0,0,0,0,0,0,-1,671,1506,-9.06056,-9.34312
-546,-482,-4.08624,8.34241,0,0,0,0,0,0,0,-1,678,1506,-4.08624,-8.3424
-539,-482,-4.29877,2.73499,0,0,0,0,0,0,0,-1,685,1506,-4.29879,-2.73494
-532,-482,-3.63611,4.23987,0,0,0,0,0,0,0,-1,692,1506,-3.63609,-4.23983
-525,-482,-6.19116,5.24927,0,0,0,0,0,0,0,-1,699,1506,-6.19117,-5.24927
-518,-482,-5.92957,6.39807,0,0,0,0,0,0,0,-1,706,1506,-5.92958,-6.39806
-511,-482,-6.59045,10.6016,0,0,0,0,0,0,0,-1,713,1506,-6.59044,-10.6015
-504,-482,-5.58527,12.2935,0,0,0,0,0,0,0,-1,720,1506,-5.5853,-12.2934
-497,-482,-5.29877,12.6716,-0.00697635,-0.00934595,-0.00377583,-0.00420379,-0.0121185,-0.633371,0.00710513,0.0432316,727,1506,-5.29876,-12.6716
-490,-482,-5.45276,13.0657,-0.00569282,-0.00786992,-0.00313587,-0.00346195,-0.0101008,-0.618341,0.00592707,0.0278294,734,1506,-5.45276,-13.0656
-483,-482,-5.42126,13.6228,-0.00412513,-0.00624013,-0.00229618,-0.00265464,-0.00771062,-0.569603,0.00452312,0.00913995,741,1506,-5.42129,-13.6228
-476,-482,-5.4342,14.1228,-0.00262244,-0.00464238,-0.00146527,-0.00185279,-0.00541203,-0.483653,0.00317599,0.00949491,748,1506,-5.43423,-14.1228
-469,-482,-5.46265,14.6409,-0.00112825,-0.00311997,-0.000551122,-0.00098592,-0.0032623,-0.25273,0.00193198,0.011401,755,1506,-5.46265,-14.6409
-462,-482,-5.4754,15.1563,0.000364834,-0.00165335,0.000414852,0.000446782,-0.0017353,0.195025,0.00133103,0.0125442,762,1506,-5.47538,-15.1563
-455,-482,-5.47821,15.6302,0.00183155,-0.000229158,0.0014406,0.00257234,-0.000969954,0.474964,0.00211374,0.0121879,769,1506,-5.47823,-15.6303
-448,-482,-5.49597,16.1271,0.00335671,0.00123926,0.00260123,0.00510642,-0.00051045,0.592132,0.00358656,0.0134443,776,1506,-5.496,-16.1271
-441,-482,-5.49829,16.6327,0.00492244,0.00270373,0.00394863,0.00791459,-0.000288417,0.648455,0.00537511,0.0138795,783,1506,-5.49829,-16.6327
-434,-482,-5.52563,17.1285,0.00655064,0.00424826,0.00550198,0.0110206,-0.000221682,0.68227,0.00742205,0.0158671,790,1506,-5.52565,-17.1286
-427,-482,-5.56366,17.6597,0.00831702,0.00600015,0.00725956,0.01451,-0.000192822,0.706279,0.00973824,0.0183366,797,1506,-5.56367,-17.6597
-420,-482,-5.45569,18.3788,0.0100009,0.00800693,0.00954878,0.0186046,-0.00059677,0.733382,0.0126067,0.0441961,804,1506,-5.45571,-18.3788
-413,-482,-5.17188,19.0221,0,0,0,0,0,0,0,-1,811,1506,-5.17185,-19.0221
-406,-482,-2.51373,12.7556,0,0,0,0,0,0,0,-1,818,1506,-2.51376,-12.7556
-399,-482,-1.3822,9.22595,0,0,0,0,0,0,0,-1,825,1506,-1.38221,-9.22598
-392,-482,-1.06836,9.22729,0,0,0,0,0,0,0,-1,832,1506,-1.06835,-9.2273
-385,-482,0.0647583,8.90649,0,0,0,0,0,0,0,-1,839,1506,0.0647778,-8.90644
-378,-482,0.215698,5.96948,0,0,0,0,0,0,0,-1,846,1506,0.215681,-5.9695
-371,-482,-0.10907,8.10437,0,0,0,0,0,0,0,-1,853,1506,-0.109063,-8.10433
-364,-482,-0.154968,10.5032,0,0,0,0,0,0,0,-1,860,1506,-0.154976,-10.5032
-357,-482,2.14807,4.60144,0,0,0,0,0,0,0,-1,867,1506,2.14807,-4.60144
-350,-482,-7.5813,-1.45935,0,0,0,0,0,0,0,-1,874,1506,-7.58133,1.45937
-343,-482,-7.19983,-1.26416,0,0,0,0,0,0,0,-1,881,1506,-7.19981,1.26414
-336,-482,-6.78491,-1.18127,0,0,0,0,0,0,0,-1,888,1506,-6.78488,1.18125
-329,-482,0,0,0,0,0,0,0,0,0,-1,895,1506,0,0
-322,-482,0,0,0,0,0,0,0,0,0,-1,902,1506,0,0
-315,-482,0,0,0,0,0,0,0,0,0,-1,909,1506,0,0
-308,-482,0,0,0,0,0,0,0,0,0,-1,916,1506,0,0
-301,-482,0,0,0,0,0,0,0,0,0,-1,923,1506,0,0
-294,-482,0,0,0,0,0,0,0,0,0,-1,930,1506,0,0
-287,-482,0,0,0,0,0,0,0,0,0,-1,937,1506,0,0
-280,-482,0,0,0,0,0,0,0,0,0,-1,944,1506,0,0
-273,-482,0,0,0,0,0,0,0,0,0,-1,951,1506,0,0
-266,-482,0,0,0,0,0,0,0,0,0,-1,958,1506,0,0
-259,-482,0,0,0,0,0,0,0,0,0,-1,965,1506,0,0
-252,-482,0,0,0,0,0,0,0,0,0,-1,972,1506,0,0
-245,-482,0,0,0,0,0,0,0,0,0,-1,979,1506,0,0
-238,-482,0,0,0,0,0,0,0,0,0,-1,986,1506,0,0
-231,-482,0,0,0,0,0,0,0,0,0,-1,993,1506,0,0
-224,-482,0,0,0,0,0,0,0,0,0,-1,1000,1506,0,0
-217,-482,0,0,0,0,0,0,0,0,0,-1,1007,1506,0,0
-210,-482,0,0,0,0,0,0,0,0,0,-1,1014,1506,0,0
-203,-482,0,0,0,0,0,0,0,0,0,-1,1021,1506,0,0
-196,-482,0,0,0,0,0,0,0,0,0,-1,1028,1506,0,0
-189,-482,0,0,0,0,0,0,0,0,0,-1,1035,1506,0,0
-182,-482,0,0,0,0,0,0,0,0,0,-1,1042,1506,0,0
-175,-482,0,0,0,0,0,0,0,0,0,-1,1049,1506,0,0
-168,-482,0,0,0,0,0,0,0,0,0,-1,1056,1506,0,0
-161,-482,0,0,0,0,0,0,0,0,0,-1,1063,1506,0,0
-154,-482,0,0,0,0,0,0,0,0,0,-1,1070,1506,0,0
-147,-482,0,0,0,0,0,0,0,0,0,-1,1077,1506,0,0
-140,-482,0,0,0,0,0,0,0,0,0,-1,1084,1506,0,0
-133,-482,0,0,0,0,0,0,0,0,0,-1,1091,1506,0,0
-126,-482,0,0,0,0,0,0,0,0,0,-1,1098,1506,0,0
-119,-482,0,0,0,0,0,0,0,0,0,-1,1105,1506,0,0
-112,-482,0,0,0,0,0,0,0,0,0,-1,1112,1506,0,0
-105,-482,0,0,0,0,0,0,0,0,0,-1,1119,1506,0,0
-98,-482,0,0,0,0,0,0,0,0,0,-1,1126,1506,0,0
-91,-482,0,0,0,0,0,0,0,0,0,-1,1133,1506,0,0
-84,-482,0,0,0,0,0,0,0,0,0,-1,1140,1506,0,0
-77,-482,0,0,0,0,0,0,0,0,0,-1,1147,1506,0,0
-70,-482,0,0,0,0,0,0,0,0,0,-1,1154,1506,0,0
-63,-482,0,0,0,0,0,0,0,0,0,-1,1161,1506,0,0
-56,-482,0,0,0,0,0,0,0,0,0,-1,1168,1506,0,0
-49,-482,0,0,0,0,0,0,0,0,0,-1,1175,1506,0,0
-42,-482,0,0,0,0,0,0,0,0,0,-1,1182,1506,0,0
-35,-482,0,0,0,0,0,0,0,0,0,-1,1189,1506,0,0
-28,-482,0,0,0,0,0,0,0,0,0,-1,1196,1506,0,0
-21,-482,0,0,0,0,0,0,0,0,0,-1,1203,1506,0,0
-14,-482,0,0,0,0,0,0,0,0,0,-1,1210,1506,0,0
-7,-482,0,0,0,0,0,0,0,0,0,-1,1217,1506,0,0
0,-482,0,0,0,0,0,0,0,0,0,-1,1224,1506,0,0
7,-482,0,0,0,0,0,0,0,0,0,-1,1231,1506,0,0
14,-482,0,0,0,0,0,0,0,0,0,-1,1238,1506,0,0
21,-482,0,0,0,0,0,0,0,0,0,-1,1245,1506,0,0
28,-482,0,0,0,0,0,0,0,0,0,-1,1252,1506,0,0
35,-482,0,0,0,0,0,0,0,0,0,-1,1259,1506,0,0
42,-482,0,0,0,0,0,0,0,0,0,-1,1266,1506,0,0
49,-482,0,0,0,0,0,0,0,0,0,-1,1273,1506,0,0
56,-482,0,0,0,0,0,0,0,0,0,-1,1280,1506,0,0
63,-482,0,0,0,0,0,0,0,0,0,-1,1287,1506,0,0
70,-482,0,0,0,0,0,0,0,0,0,-1,1294,1506,0,0
77,-482,0,0,0,0,0,0,0,0,0,-1,1301,1506,0,0
84,-482,0,0,0,0,0,0,0,0,0,-1,1308,1506,0,0
91,-482,0,0,0,0,0,0,0,0,0,-1,1315,1506,0,0
98,-482,0,0,0,0,0,0,0,0,0,-1,1322,1506,0,0
105,-482,0,0,0,0,0,0,0,0,0,-1,1329,1506,0,0
112,-482,0,0,0,0,0,0,0,0,0,-1,1336,1506,0,0
119,-482,0,0,0,0,0,0,0,0,0,-1,1343,1506,0,0
126,-482,0,0,0,0,0,0,0,0,0,-1,1350,1506,0,0
133,-482,0,0,0,0,0,0,0,0,0,-1,1357,1506,0,0
140,-482,0,0,0,0,0,0,0,0,0,-1,1364,1506,0,0
147,-482,0,0,0,0,0,0,0,0,0,-1,1371,1506,0,0
154,-482,0,0,0,0,0,0,0,0,0,-1,1378,1506,0,0
161,-482,0,0,0,0,0,0,0,0,0,-1,1385,1506,0,0
168,-482,0,0,0,0,0,0,0,0,0,-1,1392,1506,0,0
175,-482,0,0,0,0,0,0,0,0,0,-1,1399,1506,0,0
182,-482,0,0,0,0,0,0,0,0,0,-1,1406,1506,0,0
189,-482,0,0,0,0,0,0,0,0,0,-1,1413,1506,0,0
196,-482,0,0,0,0,0,0,0,0,0,-1,1420,1506,0,0
203,-482,0,0,0,0,0,0,0,0,0,-1,1427,1506,0,0
210,-482,0,0,0,0,0,0,0,0,0,-1,1434,1506,0,0
217,-482,0,0,0,0,0,0,0,0,0,-1,1441,1506,0,0
224,-482,0,0,0,0,0,0,0,0,0,-1,1448,1506,0,0
231,-482,0,0,0,0,0,0,0,0,0,-1,1455,1506,0,0
238,-482,0,0,0,0,0,0,0,0,0,-1,1462,1506,0,0
245,-482,0,0,0,0,0,0,0,0,0,-1,1469,1506,0,0
252,-482,0,0,0,0,0,0,0,0,0,-1,1476,1506,0,0
259,-482,0,0,0,0,0,0,0,0,0,-1,1483,1506,0,0
266,-482,0,0,0,0,0,0,0,0,0,-1,1490,1506,0,0
273,-482,0,0,0,0,0,0,0,0,0,-1,1497,1506,0,0
280,-482,0,0,0,0,0,0,0,0,0,-1,1504,1506,0,0
287,-482,0,0,0,0,0,0,0,0,0,-1,1511,1506,0,0
294,-482,0,0,0,0,0,0,0,0,0,-1,1518,1506,0,0
301,-482,0,0,0,0,0,0,0,0,0,-1,1525,1506,0,0
308,-482,0,0,0,0,0,0,0,0,0,-1,1532,1506,0,0
315,-482,0,0,0,0,0,0,0,0,0,-1,1539,1506,0,0
322,-482,0,0,0,0,0,0,0,0,0,-1,1546,1506,0,0
329,-482,0,0,0,0,0,0,0,0,0,-1,1553,1506,0,0
336,-482,0,0,0,0,0,0,0,0,0,-1,1560,1506,0,0
343,-482,0,0,0,0,0,0,0,0,0,-1,1567,1506,0,0
350,-482,0,0,0,0,0,0,0,0,0,-1,1574,1506,0,0
357,-482,0,0,0,0,0,0,0,0,0,-1,1581,1506,0,0
364,-482,0,0,0,0,0,0,0,0,0,-1,1588,1506,0,0
371,-482,0,0,0,0,0,0,0,0,0,-1,1595,1506,0,0
378,-482,0,0,0,0,0,0,0,0,0,-1,1602,1506,0,0
385,-482,0,0,0,0,0,0,0,0,0,-1,1609,1506,0,0
392,-482,0,0,0,0,0,0,0,0,0,-1,1616,1506,0,0
399,-482,0,0,0,0,0,0,0,0,0,-1,1623,1506,0,0
406,-482,0,0,0,0,0,0,0,0,0,-1,1630,1506,0,0
413,-482,0,0,0,0,0,0,0,0,0,-1,1637,1506,0,0
420,-482,0,0,0,0,0,0,0,0,0,-1,1644,1506,0,0
427,-482,0,0,0,0,0,0,0,0,0,-1,1651,1506,0,0
434,-482,0,0,0,0,0,0,0,0,0,-1,1658,1506,0,0
441,-482,0,0,0,0,0,0,0,0,0,-1,1665,1506,0,0
448,-482,4.24146,1.55383,0,0,0,0,0,0,0,-1,1672,1506,4.24149,-1.55381
455,-482,12.4122,1.09729,0,0,0,0,0,0,0,-1,1679,1506,12.4122,-1.09734
462,-482,15.0673,3.13135,0,0,0,0,0,0,0,-1,1686,1506,15.0672,-3.13134
469,-482,15.3793,3.46301,0,0,0,0,0,0,0,-1,1693,1506,15.3793,-3.46307
476,-482,8.69751,9.18738,0,0,0,0,0,0,0,-1,1700,1506,8.69753,-9.18739
483,-482,10.0902,7.17432,0,0,0,0,0,0,0,-1,1707,1506,10.0902,-7.1743
490,-482,11.6289,5.4928,0,0,0,0,0,0,0,-1,1714,1506,11.6289,-5.49283
497,-482,15.9539,7.40222,0,0,0,0,0,0,0,-1,1721,1506,15.9538,-7.40219
504,-482,20.4233,12.006,0,0,0,0,0,0,0,-1,1728,1506,20.4233,-12.006
511,-482,18.4937,12.9175,0,0,0,0,0,0,0,-1,1735,1506,18.4936,-12.9174
518,-482,16.6002,13.9679,0,0,0,0,0,0,0,-1,1742,1506,16.6003,-13.9679
525,-482,18.495,15.9618,0,0,0,0,0,0,0,-1,1749,1506,18.495,-15.9618
532,-482,19.8025,20.6044,0,0,0,0,0,0,0,-1,1756,1506,19.8025,-20.6044
539,-482,19.9965,20.2479,-0.0050745,0.00497224,0.00242577,0.00552728,-0.00562953,1.34586,0.00644148,0.043465,1763,1506,19.9965,-20.2479
546,-482,19.9309,19.9105,-0.00384238,0.00333891,0.00199553,0.00385617,-0.00435964,1.31717,0.00474636,0.0249166,1770,1506,19.9309,-19.9106
553,-482,19.8424,19.3074,-0.00258334,0.00229,0.00142403,0.0026756,-0.00296894,1.30636,0.00326034,0.0240827,1777,1506,19.8424,-19.3073
560,-482,19.8186,18.9066,-0.00149705,0.00157182,0.000873154,0.00180285,-0.00172809,1.31212,0.00203874,0.0153433,1784,1506,19.8186,-18.9066
567,-482,19.8933,18.434,-0.000571133,0.00116612,0.000355163,0.00123592,-0.000640937,1.37673,0.00110161,0.0161372,1791,1506,19.8934,-18.4339
574,-482,19.8818,18.0005,0.000269939,0.000788017,-0.000129409,0.000818543,0.000239413,-1.33914,0.000485963,0.0148816,1798,1506,19.8819,-18.0005
581,-482,19.8403,17.5356,0.000925633,0.000424491,-0.000489787,0.00122522,0.000124901,-0.548959,0.000778528,0.0101279,1805,1506,19.8404,-17.5356
588,-482,19.8142,17.0559,0.00148562,6.26798e-05,-0.000757215,0.00181317,-0.000264871,-0.408268,0.00130605,0.0104929,1812,1506,19.8142,-17.0559
595,-482,19.8181,16.5822,0.00219563,-0.000407705,-0.00106919,0.00257846,-0.00079053,-0.343828,0.00203434,0.0154818,1819,1506,19.8182,-16.5821
602,-482,19.8195,16.121,0.00273545,-0.00084396,-0.00125256,0.00313022,-0.00123873,-0.305318,0.00260002,0.0198657,1826,1506,19.8194,-16.1209
609,-482,19.793,15.6884,0.00322436,-0.00141214,-0.0013493,0.00358844,-0.00177622,-0.263553,0.00315565,0.0159191,1833,1506,19.793,-15.6884
616,-482,19.764,15.2311,0.00378622,-0.00214454,-0.00133468,0.00407274,-0.00243106,-0.211463,0.00379464,0.0116126,1840,1506,19.7641,-15.231
623,-482,19.7396,14.7598,0.00452157,-0.00302815,-0.00126644,0.00472834,-0.00323493,-0.161847,0.00462447,0.0151682,1847,1506,19.7397,-14.7597
630,-482,19.7382,14.3134,0.00530433,-0.00383906,-0.00115831,0.00544878,-0.00398352,-0.124072,0.0054676,0.0294406,1854,1506,19.7381,-14.3133
637,-482,19.79,13.7126,0,0,0,0,0,0,0,-1,1861,1506,19.79,-13.7127
644,-482,17.5909,11.6163,0,0,0,0,0,0,0,-1,1868,1506,17.5909,-11.6163
651,-482,4.03845,7.05273,0,0,0,0,0,0,0,-1,1875,1506,4.03843,-7.05279
658,-482,10.0278,5.87903,0,0,0,0,0,0,0,-1,1882,1506,10.0279,-5.87902
665,-482,8.15198,3.22229,0,0,0,0,0,0,0,-1,1889,1506,8.15199,-3.22232
672,-482,9.87415,1.3147,0,0,0,0,0,0,0,-1,1896,1506,9.87416,-1.31473
679,-482,0,0,0,0,0,0,0,0,0,-1,1903,1506,0,0
686,-482,0,0,0,0,0,0,0,0,0,-1,1910,1506,0,0
693,-482,0,0,0,0,0,0,0,0,0,-1,1917,1506,0,0
700,-482,0,0,0,0,0,0,0,0,0,-1,1924,1506,0,0
707,-482,0,0,0,0,0,0,0,0,0,-1,1931,1506,0,0
714,-482,0,0,0,0,0,0,0,0,0,-1,1938,1506,0,0
721,-482,0,0,0,0,0,0,0,0,0,-1,1945,1506,0,0
728,-482,0,0,0,0,0,0,0,0,0,-1,1952,1506,0,0
735,-482,0,0,0,0,0,0,0,0,0,-1,1959,1506,0,0
742,-482,0,0,0,0,0,0,0,0,0,-1,1966,1506,0,0
749,-482,0,0,0,0,0,0,0,0,0,-1,1973,1506,0,0
756,-482,0,0,0,0,0,0,0,0,0,-1,1980,1506,0,0
763,-482,0,0,0,0,0,0,0,0,0,-1,1987,1506,0,0
770,-482,0,0,0,0,0,0,0,0,0,-1,1994,1506,0,0
777,-482,0,0,0,0,0,0,0,0,0,-1,2001,1506,0,0
784,-482,0,0,0,0,0,0,0,0,0,-1,2008,1506,0,0
791,-482,0,0,0,0,0,0,0,0,0,-1,2015,1506,0,0
798,-482,0,0,0,0,0,0,0,0,0,-1,2022,1506,0,0
805,-482,0,0,0,0,0,0,0,0,0,-1,2029,1506,0,0
812,-482,0,0,0,0,0,0,0,0,0,-1,2036,1506,0,0
-700,-489,0,0,0,0,0,0,0,0,0,-1,524,1513,0,0
-693,-489,0,0,0,0,0,0,0,0,0,-1,531,1513,0,0
-686,-489,0,0,0,0,0,0,0,0,0,-1,538,1513,0,0
-679,-489,0,0,0,0,0,0,0,0,0,-1,545,1513,0,0
-672,-489,0,0,0,0,0,0,0,0,0,-1,552,1513,0,0
-665,-489,0,0,0,0,0,0,0,0,0,-1,559,1513,0,0
-658,-489,0,0,0,0,0,0,0,0,0,-1,566,1513,0,0
-651,-489,0,0,0,0,0,0,0,0,0,-1,573,1513,0,0
-644,-489,0,0,0,0,0,0,0,0,0,-1,580,1513,0,0
-637,-489,0,0,0,0,0,0,0,0,0,-1,587,1513,0,0
-630,-489,0,0,0,0,0,0,0,0,0,-1,594,1513,0,0
-623,-489,0,0,0,0,0,0,0,0,0,-1,601,1513,0,0
-616,-489,0,0,0,0,0,0,0,0,0,-1,608,1513,0,0
-609,-489,0,0,0,0,0,0,0,0,0,-1,615,1513,0,0
-602,-489,0,0,0,0,0,0,0,0,0,-1,622,1513,0,0
-595,-489,0,0,0,0,0,0,0,0,0,-1,629,1513,0,0
-588,-489,0,0,0,0,0,0,0,0,0,-1,636,1513,0,0
-581,-489,0,0,0,0,0,0,0,0,0,-1,643,1513,0,0
-574,-489,0,0,0,0,0,0,0,0,0,-1,650,1513,0,0
-567,-489,0,0,0,0,0,0,0,0,0,-1,657,1513,0,0
-560,-489,0,0,0,0,0,0,0,0,0,-1,664,1513,0,0
-553,-489,-9.42206,8.5116,0,0,0,0,0,0,0,-1,671,1513,-9.42205,-8.51158
-546,-489,-7.80951,8.18506,0,0,0,0,0,0,0,-1,678,1513,-7.8095,-8.18503
-539,-489,-3.06879,2.82349,0,0,0,0,0,0,0,-1,685,1513,-3.06881,-2.82354
-532,-489,-3.14215,2.5835,0,0,0,0,0,0,0,-1,692,1513,-3.14213,-2.58353
-525,-489,-2.604,4.06274,0,0,0,0,0,0,0,-1,699,1513,-2.60399,-4.06274
-518,-489,-5.43774,7.48059,0,0,0,0,0,0,0,-1,706,1513,-5.43777,-7.48058
-511,-489,-7.06586,10.2677,0,0,0,0,0,0,0,-1,713,1513,-7.06587,-10.2677
-504,-489,-6.63806,11.2616,0,0,0,0,0,0,0,-1,720,1513,-6.63806,-11.2616
-497,-489,-4.69,12.3698,0,0,0,0,0,0,0,-1,727,1513,-4.68997,-12.3698
-490,-489,-4.7879,13.165,-0.00208889,-0.0101307,-0.00453077,-5.21191e-05,-0.0121675,-0.422473,0.00809435,0.0378701,734,1513,-4.7879,-13.165
-483,-489,-4.95764,13.5934,-0.000682039,-0.00817004,-0.00359194,0.000762364,-0.00961445,-0.382336,0.00667827,0.0162419,741,1513,-4.95766,-13.5934
-476,-489,-4.95361,14.1355,0.000383975,-0.0063088,-0.00270462,0.00134029,-0.00726512,-0.339867,0.00534647,0.00900768,748,1513,-4.95362,-14.1355
-469,-489,-4.96411,14.6462,0.0012388,-0.00457926,-0.0017559,0.00172766,-0.00506812,-0.271533,0.00407849,0.00976043,755,1513,-4.96414,-14.6462
-462,-489,-4.97113,15.1533,0.00194905,-0.00297188,-0.000743071,0.00205881,-0.00308164,-0.146647,0.00298736,0.0147273,762,1513,-4.97115,-15.1534
-455,-489,-5.00391,15.6584,0.00253158,-0.00145656,0.000317944,0.00255677,-0.00148175,0.0790569,0.00235901,0.0185187,769,1513,-5.00389,-15.6585
-448,-489,-5.03247,16.1346,0.0031269,6.03948e-05,0.00148761,0.00372997,-0.000542672,0.385146,0.00268587,0.0173168,776,1513,-5.03248,-16.1347
-441,-489,-5.00391,16.6382,0.00375522,0.00153225,0.00283336,0.00568731,-0.000399839,0.598479,0.0039316,0.0153578,783,1513,-5.00392,-16.6382
-434,-489,-5.04675,17.1326,0.00447388,0.00311701,0.00434904,0.00819708,-0.000606194,0.708024,0.00567758,0.0171496,790,1513,-5.04673,-17.1325
-427,-489,-5.09302,17.6505,0.00537641,0.00486233,0.00603716,0.011162,-0.000923255,0.764122,0.00776739,0.0193696,797,1513,-5.09303,-17.6505
-420,-489,-5.1264,18.2858,0.00627885,0.0067786,0.00811028,0.0146428,-0.0015854,0.800798,0.010331,0.0241189,804,1513,-5.12642,-18.2857
-413,-489,-4.69415,18.8761,0,0,0,0,0,0,0,-1,811,1513,-4.69413,-18.8761
-406,-489,-3.10559,15.8143,0,0,0,0,0,0,0,-1,818,1513,-3.10556,-15.8143
-399,-489,-1.41241,9.10718,0,0,0,0,0,0,0,-1,825,1513,-1.41244,-9.10722
-392,-489,-1.0368,9.30469,0,0,0,0,0,0,0,-1,832,1513,-1.03682,-9.30466
-385,-489,-1.75165,10.6559,0,0,0,0,0,0,0,-1,839,1513,-1.75165,-10.6559
-378,-489,-0.401428,9.87048,0,0,0,0,0,0,0,-1,846,1513,-0.401415,-9.87047
-371,-489,-1.11633,10.6606,0,0,0,0,0,0,0,-1,853,1513,-1.11633,-10.6606
-364,-489,-0.503113,8.98486,0,0,0,0,0,0,0,-1,860,1513,-0.503097,-8.98482
-357,-489,-0.609924,10.9606,0,0,0,0,0,0,0,-1,867,1513,-0.609947,-10.9605
-350,-489,-7.94659,-0.358887,0,0,0,0,0,0,0,-1,874,1513,-7.94657,0.358912
-343,-489,-7.49323,-0.437866,0,0,0,0,0,0,0,-1,881,1513,-7.49322,0.437823
-336,-489,-7.02332,-0.53125,0,0,0,0,0,0,0,-1,888,1513,-7.0233,0.531295
-329,-489,-7.89191,1.49182,0,0,0,0,0,0,0,-1,895,1513,-7.89194,-1.49185
-322,-489,0,0,0,0,0,0,0,0,0,-1,902,1513,0,0
-315,-489,0,0,0,0,0,0,0,0,0,-1,909,1513,0,0
-308,-489,0,0,0,0,0,0,0,0,0,-1,916,1513,0,0
-301,-489,0,0,0,0,0,0,0,0,0,-1,923,1513,0,0
-294,-489,0,0,0,0,0,0,0,0,0,-1,930,1513,0,0
-287,-489,0,0,0,0,0,0,0,0,0,-1,937,1513,0,0
-280,-489,0,0,0,0,0,0,0,0,0,-1,944,1513,0,0
-273,-489,0,0,0,0,0,0,0,0,0,-1,951,1513,0,0
-266,-489,0,0,0,0,0,0,0,0,0,-1,958,1513,0,0
-259,-489,0,0,0,0,0,0,0,0,0,-1,965,1513,0,0
-252,-489,0,0,0,0,0,0,0,0,0,-1,972,1513,0,0
-245,-489,0,0,0,0,0,0,0,0,0,-1,979,1513,0,0
-238,-489,0,0,0,0,0,0,0,0,0,-1,986,1513,0,0
-231,-489,0,0,0,0,0,0,0,0,0,-1,993,1513,0,0
-224,-489,0,0,0,0,0,0,0,0,0,-1,1000,1513,0,0
-217,-489,0,0,0,0,0,0,0,0,0,-1,1007,1513,0,0
-210,-489,0,0,0,0,0,0,0,0,0,-1,1014,1513,0,0
-203,-489,0,0,0,0,0,0,0,0,0,-1,1021,1513,0,0
-196,-489,0,0,0,0,0,0,0,0,0,-1,1028,1513,0,0
-189,-489,0,0,0,0,0,0,0,0,0,-1,1035,1513,0,0
-182,-489,0,0,0,0,0,0,0,0,0,-1,1042,1513,0,0
-175,-489,0,0,0,0,0,0,0,0,0,-1,1049,1513,0,0
-168,-489,0,0,0,0,0,0,0,0,0,-1,1056,1513,0,0
-161,-489,0,0,0,0,0,0,0,0,0,-1,1063,1513,0,0
-154,-489,0,0,0,0,0,0,0,0,0,-1,1070,1513,0,0
-147,-489,0,0,0,0,0,0,0,0,0,-1,1077,1513,0,0
-140,-489,0,0,0,0,0,0,0,0,0,-1,1084,1513,0,0
-133,-489,0,0,0,0,0,0,0,0,0,-1,1091,1513,0,0
-126,-489,0,0,0,0,0,0,0,0,0,-1,1098,1513,0,0
-119,-489,0,0,0,0,0,0,0,0,0,-1,1105,1513,0,0
-112,-489,0,0,0,0,0,0,0,0,0,-1,1112,1513,0,0
-105,-489,0,0,0,0,0,0,0,0,0,-1,1119,1513,0,0
-98,-489,0,0,0,0,0,0,0,0,0,-1,1126,1513,0,0
-91,-489,0,0,0,0,0,0,0,0,0,-1,1133,1513,0,0
-84,-489,0,0,0,0,0,0,0,0,0,-1,1140,1513,0,0
-77,-489,0,0,0,0,0,0,0,0,0,-1,1147,1513,0,0
-70,-489,0,0,0,0,0,0,0,0,0,-1,1154,1513,0,0
-63,-489,0,0,0,0,0,0,0,0,0,-1,1161,1513,0,0
-56,-489,0,0,0,0,0,0,0,0,0,-1,1168,1513,0,0
-49,-489,0,0,0,0,0,0,0,0,0,-1,1175,1513,0,0
-42,-489,0,0,0,0,0,0,0,0,0,-1,1182,1513,0,0
-35,-489,0,0,0,0,0,0,0,0,0,-1,1189,1513,0,0
-28,-489,0,0,0,0,0,0,0,0,0,-1,1196,1513,0,0
-21,-489,0,0,0,0,0,0,0,0,0,-1,1203,1513,0,0
-14,-489,0,0,0,0,0,0,0,0,0,-1,1210,1513,0,0
-7,-489,0,0,0,0,0,0,0,0,0,-1,1217,1513,0,0
0,-489,0,0,0,0,0,0,0,0,0,-1,1224,1513,0,0
7,-489,0,0,0,0,0,0,0,0,0,-1,1231,1513,0,0
14,-489,0,0,0,0,0,0,0,0,0,-1,1238,1513,0,0
21,-489,0,0,0,0,0,0,0,0,0,-1,1245,1513,0,0
28,-489,0,0,0,0,0,0,0,0,0,-1,1252,1513,0,0
35,-489,0,0,0,0,0,0,0,0,0,-1,1259,1513,0,0
42,-489,0,0,0,0,0,0,0,0,0,-1,1266,1513,0,0
49,-489,0,0,0,0,0,0,0,0,0,-1,1273,1513,0,0
56,-489,0,0,0,0,0,0,0,0,0,-1,1280,1513,0,0
63,-489,0,0,0,0,0,0,0,0,0,-1,1287,1513,0,0
70,-489,0,0,0,0,0,0,0,0,0,-1,1294,1513,0,0
77,-489,0,0,0,0,0,0,0,0,0,-1,1301,1513,0,0
84,-489,0,0,0,0,0,0,0,0,0,-1,1308,1513,0,0
91,-489,0,0,0,0,0,0,0,0,0,-1,1315,1513,0,0
98,-489,0,0,0,0,0,0,0,0,0,-1,1322,1513,0,0
105,-489,0,0,0,0,0,0,0,0,0,-1,1329,1513,0,0
112,-489,0,0,0,0,0,0,0,0,0,-1,1336,1513,0,0
119,-489,0,0,0,0,0,0,0,0,0,-1,1343,1513,0,0
126,-489,0,0,0,0,0,0,0,0,0,-1,1350,1513,0,0
133,-489,0,0,0,0,0,0,0,0,0,-1,1357,1513,0,0
140,-489,0,0,0,0,0,0,0,0,0,-1,1364,1513,0,0
147,-489,0,0,0,0,0,0,0,0,0,-1,1371,1513,0,0
154,-489,0,0,0,0,0,0,0,0,0,-1,1378,1513,0,0
161,-489,0,0,0,0,0,0,0,0,0,-1,1385,1513,0,0
168,-489,0,0,0,0,0,0,0,0,0,-1,1392,1513,0,0
175,-489,0,0,0,0,0,0,0,0,0,-1,1399,1513,0,0
182,-489,0,0,0,0,0,0,0,0,0,-1,1406,1513,0,0
189,-489,0,0,0,0,0,0,0,0,0,-1,1413,1513,0,0
196,-489,0,0,0,0,0,0,0,0,0,-1,1420,1513,0,0
203,-489,0,0,0,0,0,0,0,0,0,-1,1427,1513,0,0
210,-489,0,0,0,0,0,0,0,0,0,-1,1434,1513,0,0
217,-489,0,0,0,0,0,0,0,0,0,-1,1441,1513,0,0
224,-489,0,0,0,0,0,0,0,0,0,-1,1448,1513,0,0
231,-489,0,0,0,0,0,0,0,0,0,-1,1455,1513,0,0
238,-489,0,0,0,0,0,0,0,0,0,-1,1462,1513,0,0
245,-489,0,0,0,0,0,0,0,0,0,-1,1469,1513,0,0
252,-489,0,0,0,0,0,0,0,0,0,-1,1476,1513,0,0
259,-489,0,0,0,0,0,0,0,0,0,-1,1483,1513,0,0
266,-489,0,0,0,0,0,0,0,0,0,-1,1490,1513,0,0
273,-489,0,0,0,0,0,0,0,0,0,-1,1497,1513,0,0
280,-489,0,0,0,0,0,0,0,0,0,-1,1504,1513,0,0
287,-489,0,0,0,0,0,0,0,0,0,-1,1511,1513,0,0
294,-489,0,0,0,0,0,0,0,0,0,-1,1518,1513,0,0
301,-489,0,0,0,0,0,0,0,0,0,-1,1525,1513,0,0
308,-489,0,0,0,0,0,0,0,0,0,-1,1532,1513,0,0
315,-489,0,0,0,0,0,0,0,0,0,-1,1539,1513,0,0
322,-489,0,0,0,0,0,0,0,0,0,-1,1546,1513,0,0
329,-489,0,0,0,0,0,0,0,0,0,-1,1553,1513,0,0
336,-489,0,0,0,0,0,0,0,0,0,-1,1560,1513,0,0
343,-489,0,0,0,0,0,0,0,0,0,-1,1567,1513,0,0
350,-489,0,0,0,0,0,0,0,0,0,-1,1574,1513,0,0
357,-489,0,0,0,0,0,0,0,0,0,-1,1581,1513,0,0
364,-489,0,0,0,0,0,0,0,0,0,-1,1588,1513,0,0
371,-489,0,0,0,0,0,0,0,0,0,-1,1595,1513,0,0
378,-489,0,0,0,0,0,0,0,0,0,-1,1602,1513,0,0
385,-489,0,0,0,0,0,0,0,0,0,-1,1609,1513,0,0
392,-489,0,0,0,0,0,0,0,0,0,-1,1616,1513,0,0
399,-489,0,0,0,0,0,0,0,0,0,-1,1623,1513,0,0
406,-489,0,0,0,0,0,0,0,0,0,-1,1630,1513,0,0
413,-489,0,0,0,0,0,0,0,0,0,-1,1637,1513,0,0
420,-489,0,0,0,0,0,0,0,0,0,-1,1644,1513,0,0
427,-489,0,0,0,0,0,0,0,0,0,-1,1651,1513,0,0
434,-489,0,0,0,0,0,0,0,0,0,-1,1658,1513,0,0
441,-489,11.4602,2.56787,0,0,0,0,0,0,0,-1,1665,1513,11.4602,-2.56786
448,-489,12.4425,1.72351,0,0,0,0,0,0,0,-1,1672,1513,12.4425,-1.72349
455,-489,12.5575,1.37463,0,0,0,0,0,0,0,-1,1679,1513,12.5575,-1.37469
462,-489,14.9784,3.84888,0,0,0,0,0,0,0,-1,1686,1513,14.9784,-3.84892
469,-489,15.1367,4.53101,0,0,0,0,0,0,0,-1,1693,1513,15.1368,-4.531
476,-489,15.5536,5.09338,0,0,0,0,0,0,0,-1,1700,1513,15.5536,-5.09339
483,-489,8.96912,8.37805,0,0,0,0,0,0,0,-1,1707,1513,8.96909,-8.37809
490,-489,10.5366,7.49561,0,0,0,0,0,0,0,-1,1714,1513,10.5367,-7.49558
497,-489,14.6051,11.8397,0,0,0,0,0,0,0,-1,1721,1513,14.6051,-11.8397
504,-489,16.7527,14.1735,0,0,0,0,0,0,0,-1,1728,1513,16.7527,-14.1735
511,-489,17.83,17.7993,0,0,0,0,0,0,0,-1,1735,1513,17.83,-17.7993
518,-489,16.4751,14.3682,0,0,0,0,0,0,0,-1,1742,1513,16.4751,-14.3682
525,-489,17.2606,17.4949,0,0,0,0,0,0,0,-1,1749,1513,17.2606,-17.4949
532,-489,19.2271,20.6411,0,0,0,0,0,0,0,-1,1756,1513,19.227,-20.6411
539,-489,19.5028,20.1567,-0.00287945,0.00440396,0.00125264,0.00461338,-0.00308887,1.40515,0.00447584,0.0316652,1763,1513,19.5028,-20.1567
546,-489,19.41,19.9688,-0.00225386,0.00300483,0.00115315,0.00324658,-0.00249562,1.36414,0.0033247,0.0208338,1770,1513,19.41,-19.9687
553,-489,19.4055,19.4176,-0.00148268,0.00205085,0.000867026,0.00225213,-0.00168396,1.34269,0.00228038,0.0179874,1777,1513,19.4055,-19.4176
560,-489,19.4114,18.9019,-0.000716717,0.0013914,0.000505748,0.00150645,-0.000831769,1.34711,0.00136857,0.0141213,1784,1513,19.4114,-18.9018
567,-489,19.4343,18.4443,7.21472e-05,0.000948946,6.3653e-05,0.000953543,6.75503e-05,1.4987,0.000614418,0.016339,1791,1513,19.4343,-18.4443
574,-489,19.3827,18.0188,0.000822049,0.000581703,-0.000379309,0.00109977,0.000303985,-0.63199,0.000655771,0.0161292,1798,1513,19.3827,-18.0188
581,-489,19.3848,17.5471,0.00146191,0.000210403,-0.000740374,0.00180555,-0.000133236,-0.434552,0.00125048,0.0110071,1805,1513,19.3847,-17.5471
588,-489,19.3667,17.0948,0.00207085,-0.000145722,-0.00106067,0.00249662,-0.00057149,-0.381724,0.00188403,0.0128827,1812,1513,19.3666,-17.0949
595,-489,19.3584,16.6481,0.00281152,-0.00057458,-0.00139964,0.00331515,-0.00107821,-0.345404,0.00264384,0.0188086,1819,1513,19.3583,-16.6481
602,-489,19.351,16.1779,0.00345703,-0.00106332,-0.00167449,0.00400973,-0.00161603,-0.318815,0.00334461,0.0250052,1826,1513,19.3509,-16.1779
609,-489,19.3356,15.707,0.00409021,-0.00177621,-0.0018882,0.00464541,-0.00233141,-0.285979,0.00410126,0.0180131,1833,1513,19.3356,-15.707
616,-489,19.338,15.2284,0.00483903,-0.00266987,-0.00196849,0.00532379,-0.00315462,-0.241453,0.00494812,0.0163839,1840,1513,19.338,-15.2284
623,-489,19.2886,14.762,0.00584893,-0.00376599,-0.0020028,0.00624943,-0.00416649,-0.197368,0.00605359,0.0342243,1847,1513,19.2885,-14.7619
630,-489,19.2371,14.1797,0,0,0,0,0,0,0,-1,1854,1513,19.237,-14.1797
637,-489,17.2048,11.8091,0,0,0,0,0,0,0,-1,1861,1513,17.2048,-11.8091
644,-489,9.67578,8.45874,0,0,0,0,0,0,0,-1,1868,1513,9.67576,-8.45879
651,-489,6.13818,6.85095,0,0,0,0,0,0,0,-1,1875,1513,6.13823,-6.85097
658,-489,5.43848,7.75513,0,0,0,0,0,0,0,-1,1882,1513,5.43844,-7.75509
665,-489,5.48438,8.59912,0,0,0,0,0,0,0,-1,1889,1513,5.48434,-8.59907
672,-489,0,0,0,0,0,0,0,0,0,-1,1896,1513,0,0
679,-489,0,0,0,0,0,0,0,0,0,-1,1903,1513,0,0
686,-489,0,0,0,0,0,0,0,0,0,-1,1910,1513,0,0
693,-489,0,0,0,0,0,0,0,0,0,-1,1917,1513,0,0
700,-489,0,0,0,0,0,0,0,0,0,-1,1924,1513,0,0
707,-489,0,0,0,0,0,0,0,0,0,-1,1931,1513,0,0
714,-489,0,0,0,0,0,0,0,0,0,-1,1938,1513,0,0
721,-489,0,0,0,0,0,0,0,0,0,-1,1945,1513,0,0
728,-489,0,0,0,0,0,0,0,0,0,-1,1952,1513,0,0
735,-489,0,0,0,0,0,0,0,0,0,-1,1959,1513,0,0
742,-489,0,0,0,0,0,0,0,0,0,-1,1966,1513,0,0
749,-489,0,0,0,0,0,0,0,0,0,-1,1973,1513,0,0
756,-489,0,0,0,0,0,0,0,0,0,-1,1980,1513,0,0
763,-489,0,0,0,0,0,0,0,0,0,-1,1987,1513,0,0
770,-489,0,0,0,0,0,0,0,0,0,-1,1994,1513,0,0
777,-489,0,0,0,0,0,0,0,0,0,-1,2001,1513,0,0
784,-489,0,0,0,0,0,0,0,0,0,-1,2008,1513,0,0
791,-489,0,0,0,0,0,0,0,0,0,-1,2015,1513,0,0
798,-489,0,0,0,0,0,0,0,0,0,-1,2022,1513,0,0
805,-489,0,0,0,0,0,0,0,0,0,-1,2029,1513,0,0
812,-489,0,0,0,0,0,0,0,0,0,-1,2036,1513,0,0
-700,-496,0,0,0,0,0,0,0,0,0,-1,524,1520,0,0
-693,-496,0,0,0,0,0,0,0,0,0,-1,531,1520,0,0
-686,-496,0,0,0,0,0,0,0,0,0,-1,538,1520,0,0
-679,-496,0,0,0,0,0,0,0,0,0,-1,545,1520,0,0
-672,-496,0,0,0,0,0,0,0,0,0,-1,552,1520,0,0
-665,-496,0,0,0,0,0,0,0,0,0,-1,559,1520,0,0
-658,-496,0,0,0,0,0,0,0,0,0,-1,566,1520,0,0
-651,-496,0,0,0,0,0,0,0,0,0,-1,573,1520,0,0
-644,-496,0,0,0,0,0,0,0,0,0,-1,580,1520,0,0
-637,-496,0,0,0,0,0,0,0,0,0,-1,587,1520,0,0
-630,-496,0,0,0,0,0,0,0,0,0,-1,594,1520,0,0
-623,-496,0,0,0,0,0,0,0,0,0,-1,601,1520,0,0
-616,-496,0,0,0,0,0,0,0,0,0,-1,608,1520,0,0
-609,-496,0,0,0,0,0,0,0,0,0,-1,615,1520,0,0
-602,-496,0,0,0,0,0,0,0,0,0,-1,622,1520,0,0
-595,-496,0,0,0,0,0,0,0,0,0,-1,629,1520,0,0
-588,-496,0,0,0,0,0,0,0,0,0,-1,636,1520,0,0
-581,-496,0,0,0,0,0,0,0,0,0,-1,643,1520,0,0
-574,-496,0,0,0,0,0,0,0,0,0,-1,650,1520,0,0
-567,-496,0,0,0,0,0,0,0,0,0,-1,657,1520,0,0
-560,-496,0,0,0,0,0,0,0,0,0,-1,664,1520,0,0
-553,-496,0,0,0,0,0,0,0,0,0,-1,671,1520,0,0
-546,-496,-8.09711,7.94836,0,0,0,0,0,0,0,-1,678,1520,-8.09712,-7.94842
-539,-496,-3.20129,1.16052,0,0,0,0,0,0,0,-1,685,1520,-3.20131,-1.16054
-532,-496,-2.98279,2.62146,0,0,0,0,0,0,0,-1,692,1520,-2.98278,-2.62151
-525,-496,-2.75201,4.08032,0,0,0,0,0,0,0,-1,699,1520,-2.75201,-4.08031
-518,-496,-2.6333,5.36072,0,0,0,0,0,0,0,-1,706,1520,-2.63328,-5.36077
-511,-496,-7.92126,9.68604,0,0,0,0,0,0,0,-1,713,1520,-7.92127,-9.68598
-504,-496,-7.39478,10.7325,0,0,0,0,0,0,0,-1,720,1520,-7.39475,-10.7326
-497,-496,-4.44342,13.1451,0,0,0,0,0,0,0,-1,727,1520,-4.44343,-13.1451
-490,-496,-4.36664,13.4514,0.000256259,-0.0128038,-0.00544496,0.00222852,-0.0147761,-0.347517,0.0106714,0.0463818,734,1520,-4.36661,-13.4515
-483,-496,-4.40723,13.7603,0.00156161,-0.0103371,-0.00440993,0.00301782,-0.0117933,-0.318937,0.00903769,0.0290238,741,1520,-4.40724,-13.7603
-476,-496,-4.47601,14.1432,0.00231602,-0.00808028,-0.00350037,0.00338471,-0.00914897,-0.29632,0.00748707,0.0133287,748,1520,-4.476,-14.1432
-469,-496,-4.47589,14.6693,0.00274185,-0.00604793,-0.00257929,0.00344282,-0.0067489,-0.265359,0.0059865,0.00968967,755,1520,-4.47588,-14.6693
-462,-496,-4.49139,15.165,0.00297747,-0.00423557,-0.00159575,0.00331473,-0.00457283,-0.208284,0.00457315,0.0148276,762,1520,-4.49138,-15.165
-455,-496,-4.54529,15.665,0.00306019,-0.00258416,-0.000588042,0.0031208,-0.00264477,-0.102713,0.00333254,0.0202935,769,1520,-4.54532,-15.665
-448,-496,-4.56573,16.1931,0.00316445,-0.00100168,0.000494022,0.00322223,-0.00105946,0.11643,0.00257501,0.0193628,776,1520,-4.56575,-16.1931
-441,-496,-4.51929,16.675,0.00334634,0.000484809,0.00173481,0.00416428,-0.000333129,0.440576,0.00289363,0.0147165,783,1520,-4.51928,-16.6751
-434,-496,-4.5426,17.1544,0.00368085,0.00208265,0.00311631,0.00609889,-0.000335388,0.659891,0.00418221,0.0133761,790,1520,-4.54262,-17.1545
-427,-496,-4.57141,17.6503,0.00425105,0.00378796,0.00465456,0.00867982,-0.000640806,0.760546,0.00601155,0.0181185,797,1520,-4.57142,-17.6502
-420,-496,-4.59186,18.1487,0.00495354,0.00556475,0.00644742,0.0117138,-0.00119552,0.80908,0.00823668,0.0202278,804,1520,-4.59188,-18.1487
-413,-496,-4.51654,18.7023,0.00725631,0.00720258,0.00873544,0.0159649,-0.00150603,0.783861,0.0111792,0.0283017,811,1520,-4.51657,-18.7023
-406,-496,-4.36621,19.2363,0,0,0,0,0,0,0,-1,818,1520,-4.36621,-19.2363
-399,-496,-4.06946,20.1833,0,0,0,0,0,0,0,-1,825,1520,-4.06947,-20.1834
-392,-496,-1.49786,12.387,0,0,0,0,0,0,0,-1,832,1520,-1.49788,-12.387
-385,-496,-1.72437,11.4985,0,0,0,0,0,0,0,-1,839,1520,-1.72436,-11.4985
-378,-496,-1.45532,14.0719,0,0,0,0,0,0,0,-1,846,1520,-1.45533,-14.0719
-371,-496,0.0877075,12.5299,0,0,0,0,0,0,0,-1,853,1520,0.0876896,-12.5299
-364,-496,0.0881348,10.6422,0,0,0,0,0,0,0,-1,860,1520,0.0881368,-10.6423
-357,-496,0.323792,7.56812,0,0,0,0,0,0,0,-1,867,1520,0.323782,-7.56806
-350,-496,2.1535,7.18945,0,0,0,0,0,0,0,-1,874,1520,2.15348,-7.1894
-343,-496,-7.56244,0.335327,0,0,0,0,0,0,0,-1,881,1520,-7.56242,-0.335322
-336,-496,-3.99249,6.02222,0,0,0,0,0,0,0,-1,888,1520,-3.99246,-6.0222
-329,-496,-6.93689,-0.100342,0,0,0,0,0,0,0,-1,895,1520,-6.93686,0.1003
-322,-496,-6.17505,0.494385,0,0,0,0,0,0,0,-1,902,1520,-6.17507,-0.49437
-315,-496,-7.539,5.78638,0,0,0,0,0,0,0,-1,909,1520,-7.53898,-5.78633
-308,-496,0,0,0,0,0,0,0,0,0,-1,916,1520,0,0
-301,-496,0,0,0,0,0,0,0,0,0,-1,923,1520,0,0
-294,-496,0,0,0,0,0,0,0,0,0,-1,930,1520,0,0
-287,-496,0,0,0,0,0,0,0,0,0,-1,937,1520,0,0
-280,-496,0,0,0,0,0,0,0,0,0,-1,944,1520,0,0
-273,-496,0,0,0,0,0,0,0,0,0,-1,951,1520,0,0
-266,-496,0,0,0,0,0,0,0,0,0,-1,958,1520,0,0
-259,-496,0,0,0,0,0,0,0,0,0,-1,965,1520,0,0
-252,-496,0,0,0,0,0,0,0,0,0,-1,972,1520,0,0
-245,-496,0,0,0,0,0,0,0,0,0,-1,979,1520,0,0
-238,-496,0,0,0,0,0,0,0,0,0,-1,986,1520,0,0
-231,-496,0,0,0,0,0,0,0,0,0,-1,993,1520,0,0
-224,-496,0,0,0,0,0,0,0,0,0,-1,1000,1520,0,0
-217,-496,0,0,0,0,0,0,0,0,0,-1,1007,1520,0,0
-210,-496,0,0,0,0,0,0,0,0,0,-1,1014,1520,0,0
-203,-496,0,0,0,0,0,0,0,0,0,-1,1021,1520,0,0
-196,-496,0,0,0,0,0,0,0,0,0,-1,1028,1520,0,0
-189,-496,0,0,0,0,0,0,0,0,0,-1,1035,1520,0,0
-182,-496,0,0,0,0,0,0,0,0,0,-1,1042,1520,0,0
-175,-496,0,0,0,0,0,0,0,0,0,-1,1049,1520,0,0
-168,-496,0,0,0,0,0,0,0,0,0,-1,1056,1520,0,0
-161,-496,0,0,0,0,0,0,0,0,0,-1,1063,1520,0,0
-154,-496,0,0,0,0,0,0,0,0,0,-1,1070,1520,0,0
-147,-496,0,0,0,0,0,0,0,0,0,-1,1077,1520,0,0
-140,-496,0,0,0,0,0,0,0,0,0,-1,1084,1520,0,0
-133,-496,0,0,0,0,0,0,0,0,0,-1,1091,1520,0,0
-126,-496,0,0,0,0,0,0,0,0,0,-1,1098,1520,0,0
-119,-496,0,0,0,0,0,0,0,0,0,-1,1105,1520,0,0
-112,-496,0,0,0,0,0,0,0,0,0,-1,1112,1520,0,0
-105,-496,0,0,0,0,0,0,0,0,0,-1,1119,1520,0,0
-98,-496,0,0,0,0,0,0,0,0,0,-1,1126,1520,0,0
-91,-496,0,0,0,0,0,0,0,0,0,-1,1133,1520,0,0
-84,-496,0,0,0,0,0,0,0,0,0,-1,1140,1520,0,0
-77,-496,0,0,0,0,0,0,0,0,0,-1,1147,1520,0,0
-70,-496,0,0,0,0,0,0,0,0,0,-1,1154,1520,0,0
-63,-496,0,0,0,0,0,0,0,0,0,-1,1161,1520,0,0
-56,-496,0,0,0,0,0,0,0,0,0,-1,1168,1520,0,0
-49,-496,0,0,0,0,0,0,0,0,0,-1,1175,1520,0,0
-42,-496,0,0,0,0,0,0,0,0,0,-1,1182,1520,0,0
-35,-496,0,0,0,0,0,0,0,0,0,-1,1189,1520,0,0
-28,-496,0,0,0,0,0,0,0,0,0,-1,1196,1520,0,0
-21,-496,0,0,0,0,0,0,0,0,0,-1,1203,1520,0,0
-14,-496,0,0,0,0,0,0,0,0,0,-1,1210,1520,0,0
-7,-496,0,0,0,0,0,0,0,0,0,-1,1217,1520,0,0
0,-496,0,0,0,0,0,0,0,0,0,-1,1224,1520,0,0
7,-496,0,0,0,0,0,0,0,0,0,-1,1231,1520,0,0
14,-496,0,0,0,0,0,0,0,0,0,-1,1238,1520,0,0
21,-496,0,0,0,0,0,0,0,0,0,-1,1245,1520,0,0
28,-496,0,0,0,0,0,0,0,0,0,-1,1252,1520,0,0
35,-496,0,0,0,0,0,0,0,0,0,-1,1259,1520,0,0
42,-496,0,0,0,0,0,0,0,0,0,-1,1266,1520,0,0
49,-496,0,0,0,0,0,0,0,0,0,-1,1273,1520,0,0
56,-496,0,0,0,0,0,0,0,0,0,-1,1280,1520,0,0
63,-496,0,0,0,0,0,0,0,0,0,-1,1287,1520,0,0
70,-496,0,0,0,0,0,0,0,0,0,-1,1294,1520,0,0
77,-496,0,0,0,0,0,0,0,0,0,-1,1301,1520,0,0
84,-496,0,0,0,0,0,0,0,0,0,-1,1308,1520,0,0
91,-496,0,0,0,0,0,0,0,0,0,-1,1315,1520,0,0
98,-496,0,0,0,0,0,0,0,0,0,-1,1322,1520,0,0
105,-496,0,0,0,0,0,0,0,0,0,-1,1329,1520,0,0
112,-496,0,0,0,0,0,0,0,0,0,-1,1336,1520,0,0
119,-496,0,0,0,0,0,0,0,0,0,-1,1343,1520,0,0
126,-496,0,0,0,0,0,0,0,0,0,-1,1350,1520,0,0
133,-496,0,0,0,0,0,0,0,0,0,-1,1357,1520,0,0
140,-496,0,0,0,0,0,0,0,0,0,-1,1364,1520,0,0
147,-496,0,0,0,0,0,0,0,0,0,-1,1371,1520,0,0
154,-496,0,0,0,0,0,0,0,0,0,-1,1378,1520,0,0
161,-496,0,0,0,0,0,0,0,0,0,-1,1385,1520,0,0
168,-496,0,0,0,0,0,0,0,0,0,-1,1392,1520,0,0
175,-496,0,0,0,0,0,0,0,0,0,-1,1399,1520,0,0
182,-496,0,0,0,0,0,0,0,0,0,-1,1406,1520,0,0
189,-496,0,0,0,0,0,0,0,0,0,-1,1413,1520,0,0
196,-496,0,0,0,0,0,0,0,0,0,-1,1420,1520,0,0
203,-496,0,0,0,0,0,0,0,0,0,-1,1427,1520,0,0
210,-496,0,0,0,0,0,0,0,0,0,-1,1434,1520,0,0
217,-496,0,0,0,0,0,0,0,0,0,-1,1441,1520,0,0
224,-496,0,0,0,0,0,0,0,0,0,-1,1448,1520,0,0
231,-496,0,0,0,0,0,0,0,0,0,-1,1455,1520,0,0
238,-496,0,0,0,0,0,0,0,0,0,-1,1462,1520,0,0
245,-496,0,0,0,0,0,0,0,0,0,-1,1469,1520,0,0
252,-496,0,0,0,0,0,0,0,0,0,-1,1476,1520,0,0
259,-496,0,0,0,0,0,0,0,0,0,-1,1483,1520,0,0
266,-496,0,0,0,0,0,0,0,0,0,-1,1490,1520,0,0
273,-496,0,0,0,0,0,0,0,0,0,-1,1497,1520,0,0
280,-496,0,0,0,0,0,0,0,0,0,-1,1504,1520,0,0
287,-496,0,0,0,0,0,0,0,0,0,-1,1511,1520,0,0
294,-496,0,0,0,0,0,0,0,0,0,-1,1518,1520,0,0
301,-496,0,0,0,0,0,0,0,0,0,-1,1525,1520,0,0
308,-496,0,0,0,0,0,0,0,0,0,-1,1532,1520,0,0
315,-496,0,0,0,0,0,0,0,0,0,-1,1539,1520,0,0
322,-496,0,0,0,0,0,0,0,0,0,-1,1546,1520,0,0
329,-496,0,0,0,0,0,0,0,0,0,-1,1553,1520,0,0
336,-496,0,0,0,0,0,0,0,0,0,-1,1560,1520,0,0
343,-496,0,0,0,0,0,0,0,0,0,-1,1567,1520,0,0
350,-496,0,0,0,0,0,0,0,0,0,-1,1574,1520,0,0
357,-496,0,0,0,0,0,0,0,0,0,-1,1581,1520,0,0
364,-496,0,0,0,0,0,0,0,0,0,-1,1588,1520,0,0
371,-496,0,0,0,0,0,0,0,0,0,-1,1595,1520,0,0
378,-496,0,0,0,0,0,0,0,0,0,-1,1602,1520,0,0
385,-496,0,0,0,0,0,0,0,0,0,-1,1609,1520,0,0
392,-496,0,0,0,0,0,0,0,0,0,-1,1616,1520,0,0
399,-496,0,0,0,0,0,0,0,0,0,-1,1623,1520,0,0
406,-496,0,0,0,0,0,0,0,0,0,-1,1630,1520,0,0
413,-496,0,0,0,0,0,0,0,0,0,-1,1637,1520,0,0
420,-496,0,0,0,0,0,0,0,0,0,-1,1644,1520,0,0
427,-496,0,0,0,0,0,0,0,0,0,-1,1651,1520,0,0
434,-496,11.0457,3.37732,0,0,0,0,0,0,0,-1,1658,1520,11.0456,-3.37736
441,-496,11.788,2.75488,0,0,0,0,0,0,0,-1,1665,1520,11.7879,-2.75485
448,-496,12.2146,2.18494,0,0,0,0,0,0,0,-1,1672,1520,12.2146,-2.18489
455,-496,12.3489,1.65173,0,0,0,0,0,0,0,-1,1679,1520,12.3489,-1.65178
462,-496,12.1912,1.32361,0,0,0,0,0,0,0,-1,1686,1520,12.1911,-1.32357
469,-496,14.8138,5.77954,0,0,0,0,0,0,0,-1,1693,1520,14.8138,-5.77958
476,-496,15.2449,6.27942,0,0,0,0,0,0,0,-1,1700,1520,15.2449,-6.27936
483,-496,9.19812,6.88367,0,0,0,0,0,0,0,-1,1707,1520,9.19812,-6.88361
490,-496,10.2123,7.97144,0,0,0,0,0,0,0,-1,1714,1520,10.2122,-7.97145
497,-496,13.9297,12.2981,0,0,0,0,0,0,0,-1,1721,1520,13.9297,-12.2982
504,-496,16.3271,16.6501,0,0,0,0,0,0,0,-1,1728,1520,16.3272,-16.6502
511,-496,17.6753,18.0685,0,0,0,0,0,0,0,-1,1735,1520,17.6753,-18.0685
518,-496,17.0537,17.3118,0,0,0,0,0,0,0,-1,1742,1520,17.0538,-17.3118
525,-496,18.2721,19.3259,0,0,0,0,0,0,0,-1,1749,1520,18.2721,-19.3259
532,-496,18.6824,21.1355,0,0,0,0,0,0,0,-1,1756,1520,18.6824,-21.1355
539,-496,18.9658,20.3994,-0.00125074,0.00393286,0.000392472,0.00396241,-0.00128029,1.49565,0.00315615,0.0293907,1763,1520,18.9658,-20.3994
546,-496,18.8806,19.9063,-0.000974768,0.00272726,0.000474857,0.0027872,-0.00103471,1.44523,0.00228259,0.0148313,1770,1520,18.8806,-19.9063
553,-496,18.9702,19.3748,-0.000532498,0.00187278,0.00034389,0.00192098,-0.000580699,1.43154,0.00151186,0.0159981,1777,1520,18.9702,-19.3747
560,-496,18.9608,18.9408,-3.99196e-08,0.00128871,9.31694e-05,0.00129541,-6.74068e-06,1.499,0.000865863,0.0144968,1784,1520,18.9609,-18.9408
567,-496,18.9436,18.4768,0.000699898,0.000823174,-0.000314686,0.0010822,0.00044087,-0.88211,0.000628372,0.0121806,1791,1520,18.9435,-18.4769
574,-496,18.9258,18.0145,0.00139252,0.000474254,-0.000745248,0.00180871,5.80591e-05,-0.509319,0.00118693,0.0127514,1798,1520,18.9258,-18.0145
581,-496,18.911,17.5708,0.00205027,0.000106035,-0.00113295,0.002571,-0.000414692,-0.430826,0.00186764,0.0135459,1805,1520,18.911,-17.5709
588,-496,18.918,17.1158,0.00274709,-0.000239839,-0.00153499,0.00339527,-0.000888018,-0.399555,0.00261036,0.0159533,1812,1520,18.9179,-17.1159
595,-496,18.9052,16.6719,0.00355247,-0.000627098,-0.00191915,0.00429999,-0.00137462,-0.37143,0.00341828,0.0169948,1819,1520,18.9052,-16.6718
602,-496,18.8837,16.1975,0.00435236,-0.0011686,-0.00230963,0.00519114,-0.00200738,-0.348355,0.00428942,0.0184721,1826,1520,18.8837,-16.1975
609,-496,18.8881,15.6902,0.00520362,-0.00203535,-0.00267725,0.00608618,-0.00291791,-0.318431,0.0053047,0.0170249,1833,1520,18.8881,-15.6902
616,-496,18.9449,15.139,0.006247,-0.00311898,-0.0029013,0.00707291,-0.00394488,-0.277332,0.00644601,0.0321802,1840,1520,18.9449,-15.139
623,-496,18.9448,14.6702,0,0,0,0,0,0,0,-1,1847,1520,18.9448,-14.6702
630,-496,18.5656,13.8966,0,0,0,0,0,0,0,-1,1854,1520,18.5655,-13.8967
637,-496,14.6411,10.1016,0,0,0,0,0,0,0,-1,1861,1520,14.6411,-10.1016
644,-496,12.4537,10.087,0,0,0,0,0,0,0,-1,1868,1520,12.4537,-10.0871
651,-496,8.18506,5.47803,0,0,0,0,0,0,0,-1,1875,1520,8.18505,-5.47806
658,-496,7.79993,4.02563,0,0,0,0,0,0,0,-1,1882,1520,7.79997,-4.02568
665,-496,5.47583,7.90625,0,0,0,0,0,0,0,-1,1889,1520,5.47581,-7.90628
672,-496,0,0,0,0,0,0,0,0,0,-1,1896,1520,0,0
679,-496,0,0,0,0,0,0,0,0,0,-1,1903,1520,0,0
686,-496,0,0,0,0,0,0,0,0,0,-1,1910,1520,0,0
693,-496,0,0,0,0,0,0,0,0,0,-1,1917,1520,0,0
700,-496,0,0,0,0,0,0,0,0,0,-1,1924,1520,0,0
707,-496,0,0,0,0,0,0,0,0,0,-1,1931,1520,0,0
714,-496,0,0,0,0,0,0,0,0,0,-1,1938,1520,0,0
721,-496,0,0,0,0,0,0,0,0,0,-1,1945,1520,0,0
728,-496,0,0,0,0,0,0,0,0,0,-1,1952,1520,0,0
735,-496,0,0,0,0,0,0,0,0,0,-1,1959,1520,0,0
742,-496,0,0,0,0,0,0,0,0,0,-1,1966,1520,0,0
749,-496,0,0,0,0,0,0,0,0,0,-1,1973,1520,0,0
756,-496,0,0,0,0,0,0,0,0,0,-1,1980,1520,0,0
763,-496,0,0,0,0,0,0,0,0,0,-1,1987,1520,0,0
770,-496,0,0,0,0,0,0,0,0,0,-1,1994,1520,0,0
777,-496,0,0,0,0,0,0,0,0,0,-1,2001,1520,0,0
784,-496,0,0,0,0,0,0,0,0,0,-1,2008,1520,0,0
791,-496,0,0,0,0,0,0,0,0,0,-1,2015,1520,0,0
798,-496,0,0,0,0,0,0,0,0,0,-1,2022,1520,0,0
805,-496,0,0,0,0,0,0,0,0,0,-1,2029,1520,0,0
812,-496,0,0,0,0,0,0,0,0,0,-1,2036,1520,0,0
-700,-503,0,0,0,0,0,0,0,0,0,-1,524,1527,0,0
-693,-503,0,0,0,0,0,0,0,0,0,-1,531,1527,0,0
-686,-503,0,0,0,0,0,0,0,0,0,-1,538,1527,0,0
-679,-503,0,0,0,0,0,0,0,0,0,-1,545,1527,0,0
-672,-503,0,0,0,0,0,0,0,0,0,-1,552,1527,0,0
-665,-503,0,0,0,0,0,0,0,0,0,-1,559,1527,0,0
-658,-503,0,0,0,0,0,0,0,0,0,-1,566,1527,0,0
-651,-503,0,0,0,0,0,0,0,0,0,-1,573,1527,0,0
-644,-503,0,0,0,0,0,0,0,0,0,-1,580,1527,0,0
-637,-503,0,0,0,0,0,0,0,0,0,-1,587,1527,0,0
-630,-503,0,0,0,0,0,0,0,0,0,-1,594,1527,0,0
-623,-503,0,0,0,0,0,0,0,0,0,-1,601,1527,0,0
-616,-503,0,0,0,0,0,0,0,0,0,-1,608,1527,0,0
-609,-503,0,0,0,0,0,0,0,0,0,-1,615,1527,0,0
-602,-503,0,0,0,0,0,0,0,0,0,-1,622,1527,0,0
-595,-503,0,0,0,0,0,0,0,0,0,-1,629,1527,0,0
-588,-503,0,0,0,0,0,0,0,0,0,-1,636,1527,0,0
-581,-503,0,0,0,0,0,0,0,0,0,-1,643,1527,0,0
-574,-503,0,0,0,0,0,0,0,0,0,-1,650,1527,0,0
-567,-503,0,0,0,0,0,0,0,0,0,-1,657,1527,0,0
-560,-503,0,0,0,0,0,0,0,0,0,-1,664,1527,0,0
-553,-503,0,0,0,0,0,0,0,0,0,-1,671,1527,0,0
-546,-503,0,0,0,0,0,0,0,0,0,-1,678,1527,0,0
-539,-503,3.50177,4.26428,0,0,0,0,0,0,0,-1,685,1527,3.50177,-4.26424
-532,-503,-3.13196,1.05298,0,0,0,0,0,0,0,-1,692,1527,-3.13194,-1.05299
-525,-503,-2.94293,2.59314,0,0,0,0,0,0,0,-1,699,1527,-2.94296,-2.59314
-518,-503,-2.7395,4.05872,0,0,0,0,0,0,0,-1,706,1527,-2.73948,-4.05871
-511,-503,-1.60022,7.23877,0,0,0,0,0,0,0,-1,713,1527,-1.60023,-7.23872
-504,-503,-8.1402,10.1541,0,0,0,0,0,0,0,-1,720,1527,-8.14017,-10.1541
-497,-503,-4.37592,13.5675,0,0,0,0,0,0,0,-1,727,1527,-4.37592,-13.5675
-490,-503,-3.92273,13.6947,0,0,0,0,0,0,0,-1,734,1527,-3.92271,-13.6947
-483,-503,-3.76782,13.9064,0.00588218,-0.0125639,-0.00508182,0.00718954,-0.0138713,-0.251802,0.0123618,0.0476572,741,1527,-3.76784,-13.9063
-476,-503,-3.89313,14.2391,0.00590324,-0.00978971,-0.00416205,0.00693876,-0.0108252,-0.243849,0.0103375,0.0240315,748,1527,-3.89314,-14.2391
-469,-503,-3.98352,14.6953,0.0055415,-0.00738042,-0.00327199,0.00632277,-0.0081617,-0.234387,0.00838505,0.0108505,755,1527,-3.98354,-14.6954
-462,-503,-4.00049,15.2018,0.00502235,-0.00532602,-0.00232231,0.00551961,-0.00582329,-0.210939,0.00654961,0.011606,762,1527,-4.0005,-15.2018
-455,-503,-4.03363,15.7073,0.00438881,-0.00351485,-0.00136407,0.00461761,-0.00374364,-0.166185,0.00483615,0.0173357,769,1527,-4.03362,-15.7073
-448,-503,-4.02112,16.2253,0.00383324,-0.00187822,-0.000372358,0.00385742,-0.00190239,-0.0648292,0.00338868,0.0166808,776,1527,-4.02112,-16.2253
-441,-503,-4.00299,16.6964,0.00345197,-0.00040175,0.0007557,0.00359486,-0.000544642,0.186879,0.00259723,0.0133963,783,1527,-4.00301,-16.6964
-434,-503,-4.04382,17.1689,0.00333161,0.0011554,0.00200119,0.00452139,-3.43791e-05,0.53639,0.00302578,0.0112838,790,1527,-4.04381,-17.169
-427,-503,-4.06842,17.6354,0.00353626,0.00276959,0.00338784,0.00656238,-0.000256535,0.729063,0.00446289,0.0179689,797,1527,-4.0684,-17.6353
-420,-503,-4.08661,18.123,0.00405092,0.00438346,0.00492153,0.00914153,-0.000707141,0.802284,0.00634322,0.0200381,804,1527,-4.08661,-18.1231
-413,-503,-4.10577,18.6469,0.00576095,0.00591837,0.00678642,0.0126265,-0.000947219,0.791197,0.00875054,0.0172617,811,1527,-4.10578,-18.6469
-406,-503,-4.0752,19.1326,0.00845568,0.00825914,0.00838412,0.0167421,-2.72812e-05,0.779538,0.0111705,0.0242721,818,1527,-4.07517,-19.1326
-399,-503,-3.93927,19.816,0.0102336,0.0105726,0.0103211,0.0207256,8.0565e-05,0.79361,0.0137903,0.0388913,825,1527,-3.93927,-19.816
-392,-503,-3.66931,20.6603,0,0,0,0,0,0,0,-1,832,1527,-3.6693,-20.6603
-385,-503,-2.00403,14.1218,0,0,0,0,0,0,0,-1,839,1527,-2.00403,-14.1218
-378,-503,-2.07043,13.8632,0,0,0,0,0,0,0,-1,846,1527,-2.07043,-13.8631
-371,-503,-1.67285,13.8081,0,0,0,0,0,0,0,-1,853,1527,-1.67285,-13.8081
-364,-503,0.181396,12.3768,0,0,0,0,0,0,0,-1,860,1527,0.18138,-12.3768
-357,-503,0.558533,9.25452,0,0,0,0,0,0,0,-1,867,1527,0.558542,-9.25446
-350,-503,0.219971,6.84827,0,0,0,0,0,0,0,-1,874,1527,0.21996,-6.84831
-343,-503,-3.5802,4.43274,0,0,0,0,0,0,0,-1,881,1527,-3.58018,-4.43276
-336,-503,-3.2384,6.40637,0,0,0,0,0,0,0,-1,888,1527,-3.2384,-6.40643
-329,-503,-1.70691,11.886,0,0,0,0,0,0,0,-1,895,1527,-1.70689,-11.886
-322,-503,-3.31317,8.81519,0,0,0,0,0,0,0,-1,902,1527,-3.31315,-8.81524
-315,-503,-3.90265,7.73853,0,0,0,0,0,0,0,-1,909,1527,-3.90264,-7.73854
-308,-503,-1.70264,7.35413,0,0,0,0,0,0,0,-1,916,1527,-1.70262,-7.35416
-301,-503,0,0,0,0,0,0,0,0,0,-1,923,1527,0,0
-294,-503,0,0,0,0,0,0,0,0,0,-1,930,1527,0,0
-287,-503,0,0,0,0,0,0,0,0,0,-1,937,1527,0,0
-280,-503,0,0,0,0,0,0,0,0,0,-1,944,1527,0,0
-273,-503,0,0,0,0,0,0,0,0,0,-1,951,1527,0,0
-266,-503,0,0,0,0,0,0,0,0,0,-1,958,1527,0,0
-259,-503,0,0,0,0,0,0,0,0,0,-1,965,1527,0,0
-252,-503,0,0,0,0,0,0,0,0,0,-1,972,1527,0,0
-245,-503,0,0,0,0,0,0,0,0,0,-1,979,1527,0,0
-238,-503,0,0,0,0,0,0,0,0,0,-1,986,1527,0,0
-231,-503,0,0,0,0,0,0,0,0,0,-1,993,1527,0,0
-224,-503,0,0,0,0,0,0,0,0,0,-1,1000,1527,0,0
-217,-503,0,0,0,0,0,0,0,0,0,-1,1007,1527,0,0
-210,-503,0,0,0,0,0,0,0,0,0,-1,1014,1527,0,0
-203,-503,0,0,0,0,0,0,0,0,0,-1,1021,1527,0,0
-196,-503,0,0,0,0,0,0,0,0,0,-1,1028,1527,0,0
-189,-503,0,0,0,0,0,0,0,0,0,-1,1035,1527,0,0
-182,-503,0,0,0,0,0,0,0,0,0,-1,1042,1527,0,0
-175,-503,0,0,0,0,0,0,0,0,0,-1,1049,1527,0,0
-168,-503,0,0,0,0,0,0,0,0,0,-1,1056,1527,0,0
-161,-503,0,0,0,0,0,0,0,0,0,-1,1063,1527,0,0
-154,-503,0,0,0,0,0,0,0,0,0,-1,1070,1527,0,0
-147,-503,0,0,0,0,0,0,0,0,0,-1,1077,1527,0,0
-140,-503,0,0,0,0,0,0,0,0,0,-1,1084,1527,0,0
-133,-503,0,0,0,0,0,0,0,0,0,-1,1091,1527,0,0
-126,-503,0,0,0,0,0,0,0,0,0,-1,1098,1527,0,0
-119,-503,0,0,0,0,0,0,0,0,0,-1,1105,1527,0,0
-112,-503,0,0,0,0,0,0,0,0,0,-1,1112,1527,0,0
-105,-503,0,0,0,0,0,0,0,0,0,-1,1119,1527,0,0
-98,-503,0,0,0,0,0,0,0,0,0,-1,1126,1527,0,0
-91,-503,0,0,0,0,0,0,0,0,0,-1,1133,1527,0,0
-84,-503,0,0,0,0,0,0,0,0,0,-1,1140,1527,0,0
-77,-503,0,0,0,0,0,0,0,0,0,-1,1147,1527,0,0
-70,-503,0,0,0,0,0,0,0,0,0,-1,1154,1527,0,0
-63,-503,0,0,0,0,0,0,0,0,0,-1,1161,1527,0,0
-56,-503,0,0,0,0,0,0,0,0,0,-1,1168,1527,0,0
-49,-503,0,0,0,0,0,0,0,0,0,-1,1175,1527,0,0
-42,-503,0,0,0,0,0,0,0,0,0,-1,1182,1527,0,0
-35,-503,0,0,0,0,0,0,0,0,0,-1,1189,1527,0,0
-28,-503,0,0,0,0,0,0,0,0,0,-1,1196,1527,0,0
-21,-503,0,0,0,0,0,0,0,0,0,-1,1203,1527,0,0
-14,-503,0,0,0,0,0,0,0,0,0,-1,1210,1527,0,0
-7,-503,0,0,0,0,0,0,0,0,0,-1,1217,1527,0,0
0,-503,0,0,0,0,0,0,0,0,0,-1,1224,1527,0,0
7,-503,0,0,0,0,0,0,0,0,0,-1,1231,1527,0,0
14,-503,0,0,0,0,0,0,0,0,0,-1,1238,1527,0,0
21,-503,0,0,0,0,0,0,0,0,0,-1,1245,1527,0,0
28,-503,0,0,0,0,0,0,0,0,0,-1,1252,1527,0,0
35,-503,0,0,0,0,0,0,0,0,0,-1,1259,1527,0,0
42,-503,0,0,0,0,0,0,0,0,0,-1,1266,1527,0,0
49,-503,0,0,0,0,0,0,0,0,0,-1,1273,1527,0,0
56,-503,0,0,0,0,0,0,0,0,0,-1,1280,1527,0,0
63,-503,0,0,0,0,0,0,0,0,0,-1,1287,1527,0,0
70,-503,0,0,0,0,0,0,0,0,0,-1,1294,1527,0,0
77,-503,0,0,0,0,0,0,0,0,0,-1,1301,1527,0,0
84,-503,0,0,0,0,0,0,0,0,0,-1,1308,1527,0,0
91,-503,0,0,0,0,0,0,0,0,0,-1,1315,1527,0,0
98,-503,0,0,0,0,0,0,0,0,0,-1,1322,1527,0,0
105,-503,0,0,0,0,0,0,0,0,0,-1,1329,1527,0,0
112,-503,0,0,0,0,0,0,0,0,0,-1,1336,1527,0,0
119,-503,0,0,0,0,0,0,0,0,0,-1,1343,1527,0,0
126,-503,0,0,0,0,0,0,0,0,0,-1,1350,1527,0,0
133,-503,0,0,0,0,0,0,0,0,0,-1,1357,1527,0,0
140,-503,0,0,0,0,0,0,0,0,0,-1,1364,1527,0,0
147,-503,0,0,0,0,0,0,0,0,0,-1,1371,1527,0,0
154,-503,0,0,0,0,0,0,0,0,0,-1,1378,1527,0,0
161,-503,0,0,0,0,0,0,0,0,0,-1,1385,1527,0,0
168,-503,0,0,0,0,0,0,0,0,0,-1,1392,1527,0,0
175,-503,0,0,0,0,0,0,0,0,0,-1,1399,1527,0,0
182,-503,0,0,0,0,0,0,0,0,0,-1,1406,1527,0,0
189,-503,0,0,0,0,0,0,0,0,0,-1,1413,1527,0,0
196,-503,0,0,0,0,0,0,0,0,0,-1,1420,1527,0,0
203,-503,0,0,0,0,0,0,0,0,0,-1,1427,1527,0,0
210,-503,0,0,0,0,0,0,0,0,0,-1,1434,1527,0,0
217,-503,0,0,0,0,0,0,0,0,0,-1,1441,1527,0,0
224,-503,0,0,0,0,0,0,0,0,0,-1,1448,1527,0,0
231,-503,0,0,0,0,0,0,0,0,0,-1,1455,1527,0,0
238,-503,0,0,0,0,0,0,0,0,0,-1,1462,1527,0,0
245,-503,0,0,0,0,0,0,0,0,0,-1,1469,1527,0,0
252,-503,0,0,0,0,0,0,0,0,0,-1,1476,1527,0,0
259,-503,0,0,0,0,0,0,0,0,0,-1,1483,1527,0,0
266,-503,0,0,0,0,0,0,0,0,0,-1,1490,1527,0,0
273,-503,0,0,0,0,0,0,0,0,0,-1,1497,1527,0,0
280,-503,0,0,0,0,0,0,0,0,0,-1,1504,1527,0,0
287,-503,0,0,0,0,0,0,0,0,0,-1,1511,1527,0,0
294,-503,0,0,0,0,0,0,0,0,0,-1,1518,1527,0,0
301,-503,0,0,0,0,0,0,0,0,0,-1,1525,1527,0,0
308,-503,0,0,0,0,0,0,0,0,0,-1,1532,1527,0,0
315,-503,0,0,0,0,0,0,0,0,0,-1,1539,1527,0,0
322,-503,0,0,0,0,0,0,0,0,0,-1,1546,1527,0,0
329,-503,0,0,0,0,0,0,0,0,0,-1,1553,1527,0,0
336,-503,0,0,0,0,0,0,0,0,0,-1,1560,1527,0,0
343,-503,0,0,0,0,0,0,0,0,0,-1,1567,1527,0,0
350,-503,0,0,0,0,0,0,0,0,0,-1,1574,1527,0,0
357,-503,0,0,0,0,0,0,0,0,0,-1,1581,1527,0,0
364,-503,0,0,0,0,0,0,0,0,0,-1,1588,1527,0,0
371,-503,0,0,0,0,0,0,0,0,0,-1,1595,1527,0,0
378,-503,0,0,0,0,0,0,0,0,0,-1,1602,1527,0,0
385,-503,0,0,0,0,0,0,0,0,0,-1,1609,1527,0,0
392,-503,0,0,0,0,0,0,0,0,0,-1,1616,1527,0,0
399,-503,0,0,0,0,0,0,0,0,0,-1,1623,1527,0,0
406,-503,0,0,0,0,0,0,0,0,0,-1,1630,1527,0,0
413,-503,0,0,0,0,0,0,0,0,0,-1,1637,1527,0,0
420,-503,0,0,0,0,0,0,0,0,0,-1,1644,1527,0,0
427,-503,10.5968,4.9856,0,0,0,0,0,0,0,-1,1651,1527,10.5969,-4.98563
434,-503,11.4329,3.97217,0,0,0,0,0,0,0,-1,1658,1527,11.4328,-3.97222
441,-503,12.0957,2.96509,0,0,0,0,0,0,0,-1,1665,1527,12.0957,-2.96512
448,-503,12.3259,2.53894,0,0,0,0,0,0,0,-1,1672,1527,12.326,-2.53895
455,-503,12.1669,2.18762,0,0,0,0,0,0,0,-1,1679,1527,12.1668,-2.18767
462,-503,11.59,2.60791,0,0,0,0,0,0,0,-1,1686,1527,11.5899,-2.60794
469,-503,11.1625,1.61853,0,0,0,0,0,0,0,-1,1693,1527,11.1625,-1.61856
476,-503,9.07703,5.81042,0,0,0,0,0,0,0,-1,1700,1527,9.07699,-5.81047
483,-503,9.74414,6.92432,0,0,0,0,0,0,0,-1,1707,1527,9.74417,-6.9243
490,-503,10.5033,10.1071,0,0,0,0,0,0,0,-1,1714,1527,10.5032,-10.107
497,-503,15.0057,17.9476,0,0,0,0,0,0,0,-1,1721,1527,15.0058,-17.9476
504,-503,16.4764,18.4486,0,0,0,0,0,0,0,-1,1728,1527,16.4764,-18.4486
511,-503,16.8276,18.3271,0,0,0,0,0,0,0,-1,1735,1527,16.8276,-18.3272
518,-503,17.2533,18.2738,0,0,0,0,0,0,0,-1,1742,1527,17.2533,-18.2738
525,-503,17.8375,21.536,0,0,0,0,0,0,0,-1,1749,1527,17.8375,-21.536
532,-503,18.3677,20.9114,5.14823e-05,0.00496777,-0.000661821,0.00505531,-3.60522e-05,-1.4393,0.00338229,0.0345466,1756,1527,18.3677,-20.9113
539,-503,18.4662,20.3583,-7.82347e-05,0.0034427,-0.000225731,0.00345712,-9.26474e-05,-1.50703,0.00233624,0.0178788,1763,1527,18.4662,-20.3583
546,-503,18.4711,19.8571,-3.58961e-05,0.00239715,-3.97859e-05,0.0023978,-3.65466e-05,-1.55445,0.00161085,0.0135816,1770,1527,18.471,-19.8571
553,-503,18.5015,19.412,0.000180317,0.00163609,-6.33289e-05,0.00163884,0.000177568,-1.5274,0.00103845,0.0145783,1777,1527,18.5015,-19.412
560,-503,18.459,18.9634,0.000554457,0.00112549,-0.000236379,0.00121064,0.000469306,-1.22504,0.000704823,0.0136282,1784,1527,18.4589,-18.9633
567,-503,18.4524,18.4941,0.00121531,0.00066013,-0.000634335,0.00163013,0.000245305,-0.579148,0.00101492,0.0123765,1791,1527,18.4524,-18.4941
574,-503,18.4773,18.0311,0.0019,0.000357433,-0.00108324,0.00245849,-0.000201053,-0.476026,0.00170995,0.0124746,1798,1527,18.4773,-18.0312
581,-503,18.454,17.5903,0.00263331,3.79914e-05,-0.00154089,0.00335016,-0.000678858,-0.435438,0.00249076,0.014004,1805,1527,18.454,-17.5903
588,-503,18.4291,17.1384,0.00348825,-0.000242075,-0.00208504,0.00442062,-0.00117445,-0.420501,0.00340673,0.0177136,1812,1527,18.4291,-17.1384
595,-503,18.4382,16.6854,0.00443113,-0.000534925,-0.00258571,0.00553298,-0.00163677,-0.402827,0.00433841,0.0135082,1819,1527,18.4382,-16.6854
602,-503,18.491,16.1704,0.00546884,-0.00106373,-0.00318437,0.00676422,-0.00235911,-0.38635,0.0054682,0.02544,1826,1527,18.491,-16.1704
609,-503,18.5392,15.5289,0,0,0,0,0,0,0,-1,1833,1527,18.5392,-15.529
616,-503,18.3008,15.5109,0.00819869,-0.00331643,-0.00436975,0.00966914,-0.00478688,-0.324605,0.00850337,0.046307,1840,1527,18.3008,-15.5108
623,-503,18.5251,14.4973,0,0,0,0,0,0,0,-1,1847,1527,18.5252,-14.4973
630,-503,18.9611,13.516,0,0,0,0,0,0,0,-1,1854,1527,18.9611,-13.516
637,-503,14.5564,9.20496,0,0,0,0,0,0,0,-1,1861,1527,14.5564,-9.2049
644,-503,11.4802,7.57214,0,0,0,0,0,0,0,-1,1868,1527,11.4802,-7.57215
651,-503,11.5718,6.5448,0,0,0,0,0,0,0,-1,1875,1527,11.5718,-6.54476
658,-503,8.25635,3.10498,0,0,0,0,0,0,0,-1,1882,1527,8.2563,-3.10493
665,-503,0,0,0,0,0,0,0,0,0,-1,1889,1527,0,0
672,-503,0,0,0,0,0,0,0,0,0,-1,1896,1527,0,0
679,-503,0,0,0,0,0,0,0,0,0,-1,1903,1527,0,0
686,-503,0,0,0,0,0,0,0,0,0,-1,1910,1527,0,0
693,-503,0,0,0,0,0,0,0,0,0,-1,1917,1527,0,0
700,-503,0,0,0,0,0,0,0,0,0,-1,1924,1527,0,0
707,-503,0,0,0,0,0,0,0,0,0,-1,1931,1527,0,0
714,-503,0,0,0,0,0,0,0,0,0,-1,1938,1527,0,0
721,-503,0,0,0,0,0,0,0,0,0,-1,1945,1527,0,0
728,-503,0,0,0,0,0,0,0,0,0,-1,1952,1527,0,0
735,-503,0,0,0,0,0,0,0,0,0,-1,1959,1527,0,0
742,-503,0,0,0,0,0,0,0,0,0,-1,1966,1527,0,0
749,-503,0,0,0,0,0,0,0,0,0,-1,1973,1527,0,0
756,-503,0,0,0,0,0,0,0,0,0,-1,1980,1527,0,0
763,-503,0,0,0,0,0,0,0,0,0,-1,1987,1527,0,0
770,-503,0,0,0,0,0,0,0,0,0,-1,1994,1527,0,0
777,-503,0,0,0,0,0,0,0,0,0,-1,2001,1527,0,0
784,-503,0,0,0,0,0,0,0,0,0,-1,2008,1527,0,0
791,-503,0,0,0,0,0,0,0,0,0,-1,2015,1527,0,0
798,-503,0,0,0,0,0,0,0,0,0,-1,2022,1527,0,0
805,-503,0,0,0,0,0,0,0,0,0,-1,2029,1527,0,0
812,-503,0,0,0,0,0,0,0,0,0,-1,2036,1527,0,0
-700,-510,0,0,0,0,0,0,0,0,0,-1,524,1534,0,0
-693,-510,0,0,0,0,0,0,0,0,0,-1,531,1534,0,0
-686,-510,0,0,0,0,0,0,0,0,0,-1,538,1534,0,0
-679,-510,0,0,0,0,0,0,0,0,0,-1,545,1534,0,0
-672,-510,0,0,0,0,0,0,0,0,0,-1,552,1534,0,0
-665,-510,0,0,0,0,0,0,0,0,0,-1,559,1534,0,0
-658,-510,0,0,0,0,0,0,0,0,0,-1,566,1534,0,0
-651,-510,0,0,0,0,0,0,0,0,0,-1,573,1534,0,0
-644,-510,0,0,0,0,0,0,0,0,0,-1,580,1534,0,0
-637,-510,0,0,0,0,0,0,0,0,0,-1,587,1534,0,0
-630,-510,0,0,0,0,0,0,0,0,0,-1,594,1534,0,0
-623,-510,0,0,0,0,0,0,0,0,0,-1,601,1534,0,0
-616,-510,0,0,0,0,0,0,0,0,0,-1,608,1534,0,0
-609,-510,0,0,0,0,0,0,0,0,0,-1,615,1534,0,0
-602,-510,0,0,0,0,0,0,0,0,0,-1,622,1534,0,0
-595,-510,0,0,0,0,0,0,0,0,0,-1,629,1534,0,0
-588,-510,0,0,0,0,0,0,0,0,0,-1,636,1534,0,0
-581,-510,0,0,0,0,0,0,0,0,0,-1,643,1534,0,0
-574,-510,0,0,0,0,0,0,0,0,0,-1,650,1534,0,0
-567,-510,0,0,0,0,0,0,0,0,0,-1,657,1534,0,0
-560,-510,0,0,0,0,0,0,0,0,0,-1,664,1534,0,0
-553,-510,0,0,0,0,0,0,0,0,0,-1,671,1534,0,0
-546,-510,0,0,0,0,0,0,0,0,0,-1,678,1534,0,0
-539,-510,0,0,0,0,0,0,0,0,0,-1,685,1534,0,0
-532,-510,-3.95129,4.52014,0,0,0,0,0,0,0,-1,692,1534,-3.95131,-4.5202
-525,-510,-2.77411,0.316772,0,0,0,0,0,0,0,-1,699,1534,-2.77409,-0.3168
-518,-510,-2.86847,2.71423,0,0,0,0,0,0,0,-1,706,1534,-2.86849,-2.71424
-511,-510,-2.28571,4.48083,0,0,0,0,0,0,0,-1,713,1534,-2.28571,-4.48086
-504,-510,-4.86731,10.8224,0,0,0,0,0,0,0,-1,720,1534,-4.8673,-10.8224
-497,-510,-1.32062,12.9915,0,0,0,0,0,0,0,-1,727,1534,-1.32063,-12.9914
-490,-510,-1.88959,13.2687,0,0,0,0,0,0,0,-1,734,1534,-1.8896,-13.2687
-483,-510,-2.50842,13.681,0,0,0,0,0,0,0,-1,741,1534,-2.50844,-13.681
-476,-510,-3.23383,14.2589,0.0117855,-0.0117169,-0.00495825,0.0127887,-0.0127201,-0.199637,0.0147275,0.03664,748,1534,-3.23384,-14.2589
-469,-510,-3.48035,14.7408,0.0100297,-0.00885842,-0.0041197,0.0108891,-0.00971787,-0.205668,0.0119039,0.0142176,755,1534,-3.48035,-14.7408
-462,-510,-3.48535,15.2242,0.00827706,-0.00651157,-0.00320008,0.00893982,-0.00717433,-0.204219,0.0093221,0.0112369,762,1534,-3.48538,-15.2242
-455,-510,-3.51483,15.7374,0.0065398,-0.00450908,-0.00227286,0.00698908,-0.00495836,-0.195156,0.00693099,0.0138887,769,1534,-3.51484,-15.7374
-448,-510,-3.5097,16.2343,0.00502414,-0.00278699,-0.00133383,0.00524563,-0.00300847,-0.164551,0.0048235,0.0133243,776,1534,-3.50971,-16.2343
-441,-510,-3.51721,16.6832,0.00387577,-0.00128707,-0.00027305,0.00389017,-0.00130148,-0.0526915,0.00311914,0.0142127,783,1534,-3.51723,-16.6832
-434,-510,-3.55292,17.1803,0.0031907,0.000251935,0.000893818,0.0034412,1.43563e-06,0.273248,0.00229366,0.0152023,790,1534,-3.55289,-17.1804
-427,-510,-3.59247,17.6411,0.00300015,0.00180623,0.00219254,0.00467554,0.000130832,0.652485,0.00307435,0.023348,797,1534,-3.59249,-17.6411
-420,-510,-3.61359,18.1268,0.00335262,0.00331936,0.00355747,0.0068935,-0.00022152,0.783061,0.00467126,0.0227006,804,1534,-3.6136,-18.1269
-413,-510,-3.61273,18.6512,0.00452228,0.00483963,0.0051375,0.00982091,-0.000458996,0.800836,0.00670551,0.0118376,811,1534,-3.61271,-18.6513
-406,-510,-3.62085,19.1324,0.00663689,0.0068451,0.00658781,0.0133296,0.000152366,0.793299,0.00883606,0.0104707,818,1534,-3.62087,-19.1325
-399,-510,-3.62115,19.6,0.00820895,0.00888748,0.00814787,0.0167031,0.000393275,0.806205,0.0110067,0.0141074,825,1534,-3.62116,-19.6
-392,-510,-3.47327,20.2942,0.00959626,0.0120057,0.00974854,0.0206237,0.0009783,0.846877,0.0134349,0.040056,832,1534,-3.47327,-20.2941
-385,-510,-3.35071,21.0808,0,0,0,0,0,0,0,-1,839,1534,-3.3507,-21.0808
-378,-510,-1.78308,13.8044,0,0,0,0,0,0,0,-1,846,1534,-1.78309,-13.8044
-371,-510,-1.74982,13.8027,0,0,0,0,0,0,0,-1,853,1534,-1.74981,-13.8028
-364,-510,-1.3479,13.7771,0,0,0,0,0,0,0,-1,860,1534,-1.34791,-13.7771
-357,-510,-0.254395,8.89575,0,0,0,0,0,0,0,-1,867,1534,-0.254397,-8.89569
-350,-510,0.471191,6.06458,0,0,0,0,0,0,0,-1,874,1534,0.47118,-6.06453
-343,-510,-2.94617,5.00989,0,0,0,0,0,0,0,-1,881,1534,-2.94615,-5.00992
-336,-510,-1.85938,19.839,0,0,0,0,0,0,0,-1,888,1534,-1.85937,-19.839
-329,-510,-4.87781,20.6893,0,0,0,0,0,0,0,-1,895,1534,-4.87782,-20.6894
-322,-510,-0.251526,11.973,0,0,0,0,0,0,0,-1,902,1534,-0.251497,-11.9731
-315,-510,-1.73047,10.9796,0,0,0,0,0,0,0,-1,909,1534,-1.73049,-10.9796
-308,-510,-2.05328,9.72034,0,0,0,0,0,0,0,-1,916,1534,-2.05327,-9.72036
-301,-510,-1.85437,11.5869,0,0,0,0,0,0,0,-1,923,1534,-1.85437,-11.5869
-294,-510,0,0,0,0,0,0,0,0,0,-1,930,1534,0,0
-287,-510,0,0,0,0,0,0,0,0,0,-1,937,1534,0,0
-280,-510,0,0,0,0,0,0,0,0,0,-1,944,1534,0,0
-273,-510,0,0,0,0,0,0,0,0,0,-1,951,1534,0,0
-266,-510,0,0,0,0,0,0,0,0,0,-1,958,1534,0,0
-259,-510,0,0,0,0,0,0,0,0,0,-1,965,1534,0,0
-252,-510,0,0,0,0,0,0,0,0,0,-1,972,1534,0,0
-245,-510,0,0,0,0,0,0,0,0,0,-1,979,1534,0,0
-238,-510,0,0,0,0,0,0,0,0,0,-1,986,1534,0,0
-231,-510,0,0,0,0,0,0,0,0,0,-1,993,1534,0,0
-224,-510,0,0,0,0,0,0,0,0,0,-1,1000,1534,0,0
-217,-510,0,0,0,0,0,0,0,0,0,-1,1007,1534,0,0
-210,-510,0,0,0,0,0,0,0,0,0,-1,1014,1534,0,0
-203,-510,0,0,0,0,0,0,0,0,0,-1,1021,1534,0,0
-196,-510,0,0,0,0,0,0,0,0,0,-1,1028,1534,0,0
-189,-510,0,0,0,0,0,0,0,0,0,-1,1035,1534,0,0
-182,-510,0,0,0,0,0,0,0,0,0,-1,1042,1534,0,0
-175,-510,0,0,0,0,0,0,0,0,0,-1,1049,1534,0,0
-168,-510,0,0,0,0,0,0,0,0,0,-1,1056,1534,0,0
-161,-510,0,0,0,0,0,0,0,0,0,-1,1063,1534,0,0
-154,-510,0,0,0,0,0,0,0,0,0,-1,1070,1534,0,0
-147,-510,0,0,0,0,0,0,0,0,0,-1,1077,1534,0,0
-140,-510,0,0,0,0,0,0,0,0,0,-1,1084,1534,0,0
-133,-510,0,0,0,0,0,0,0,0,0,-1,1091,1534,0,0
-126,-510,0,0,0,0,0,0,0,0,0,-1,1098,1534,0,0
-119,-510,0,0,0,0,0,0,0,0,0,-1,1105,1534,0,0
-112,-510,0,0,0,0,0,0,0,0,0,-1,1112,1534,0,0
-105,-510,0,0,0,0,0,0,0,0,0,-1,1119,1534,0,0
-98,-510,0,0,0,0,0,0,0,0,0,-1,1126,1534,0,0
-91,-510,0,0,0,0,0,0,0,0,0,-1,1133,1534,0,0
-84,-510,0,0,0,0,0,0,0,0,0,-1,1140,1534,0,0
-77,-510,0,0,0,0,0,0,0,0,0,-1,1147,1534,0,0
-70,-510,0,0,0,0,0,0,0,0,0,-1,1154,1534,0,0
-63,-510,0,0,0,0,0,0,0,0,0,-1,1161,1534,0,0
-56,-510,0,0,0,0,0,0,0,0,0,-1,1168,1534,0,0
-49,-510,0,0,0,0,0,0,0,0,0,-1,1175,1534,0,0
-42,-510,0,0,0,0,0,0,0,0,0,-1,1182,1534,0,0
-35,-510,0,0,0,0,0,0,0,0,0,-1,1189,1534,0,0
-28,-510,0,0,0,0,0,0,0,0,0,-1,1196,1534,0,0
-21,-510,0,0,0,0,0,0,0,0,0,-1,1203,1534,0,0
-14,-510,0,0,0,0,0,0,0,0,0,-1,1210,1534,0,0
-7,-510,0,0,0,0,0,0,0,0,0,-1,1217,1534,0,0
0,-510,0,0,0,0,0,0,0,0,0,-1,1224,1534,0,0
7,-510,0,0,0,0,0,0,0,0,0,-1,1231,1534,0,0
14,-510,0,0,0,0,0,0,0,0,0,-1,1238,1534,0,0
21,-510,0,0,0,0,0,0,0,0,0,-1,1245,1534,0,0
28,-510,0,0,0,0,0,0,0,0,0,-1,1252,1534,0,0
35,-510,0,0,0,0,0,0,0,0,0,-1,1259,1534,0,0
42,-510,0,0,0,0,0,0,0,0,0,-1,1266,1534,0,0
49,-510,0,0,0,0,0,0,0,0,0,-1,1273,1534,0,0
56,-510,0,0,0,0,0,0,0,0,0,-1,1280,1534,0,0
63,-510,0,0,0,0,0,0,0,0,0,-1,1287,1534,0,0
70,-510,0,0,0,0,0,0,0,0,0,-1,1294,1534,0,0
77,-510,0,0,0,0,0,0,0,0,0,-1,1301,1534,0,0
84,-510,0,0,0,0,0,0,0,0,0,-1,1308,1534,0,0
91,-510,0,0,0,0,0,0,0,0,0,-1,1315,1534,0,0
98,-510,0,0,0,0,0,0,0,0,0,-1,1322,1534,0,0
105,-510,0,0,0,0,0,0,0,0,0,-1,1329,1534,0,0
112,-510,0,0,0,0,0,0,0,0,0,-1,1336,1534,0,0
119,-510,0,0,0,0,0,0,0,0,0,-1,1343,1534,0,0
126,-510,0,0,0,0,0,0,0,0,0,-1,1350,1534,0,0
133,-510,0,0,0,0,0,0,0,0,0,-1,1357,1534,0,0
140,-510,0,0,0,0,0,0,0,0,0,-1,1364,1534,0,0
147,-510,0,0,0,0,0,0,0,0,0,-1,1371,1534,0,0
154,-510,0,0,0,0,0,0,0,0,0,-1,1378,1534,0,0
161,-510,0,0,0,0,0,0,0,0,0,-1,1385,1534,0,0
168,-510,0,0,0,0,0,0,0,0,0,-1,1392,1534,0,0
175,-510,0,0,0,0,0,0,0,0,0,-1,1399,1534,0,0
182,-510,0,0,0,0,0,0,0,0,0,-1,1406,1534,0,0
189,-510,0,0,0,0,0,0,0,0,0,-1,1413,1534,0,0
196,-510,0,0,0,0,0,0,0,0,0,-1,1420,1534,0,0
203,-510,0,0,0,0,0,0,0,0,0,-1,1427,1534,0,0
210,-510,0,0,0,0,0,0,0,0,0,-1,1434,1534,0,0
217,-510,0,0,0,0,0,0,0,0,0,-1,1441,1534,0,0
224,-510,0,0,0,0,0,0,0,0,0,-1,1448,1534,0,0
231,-510,0,0,0,0,0,0,0,0,0,-1,1455,1534,0,0
238,-510,0,0,0,0,0,0,0,0,0,-1,1462,1534,0,0
245,-510,0,0,0,0,0,0,0,0,0,-1,1469,1534,0,0
252,-510,0,0,0,0,0,0,0,0,0,-1,1476,1534,0,0
259,-510,0,0,0,0,0,0,0,0,0,-1,1483,1534,0,0
266,-510,0,0,0,0,0,0,0,0,0,-1,1490,1534,0,0
273,-510,0,0,0,0,0,0,0,0,0,-1,1497,1534,0,0
280,-510,0,0,0,0,0,0,0,0,0,-1,1504,1534,0,0
287,-510,0,0,0,0,0,0,0,0,0,-1,1511,1534,0,0
294,-510,0,0,0,0,0,0,0,0,0,-1,1518,1534,0,0
301,-510,0,0,0,0,0,0,0,0,0,-1,1525,1534,0,0
308,-510,0,0,0,0,0,0,0,0,0,-1,1532,1534,0,0
315,-510,0,0,0,0,0,0,0,0,0,-1,1539,1534,0,0
322,-510,0,0,0,0,0,0,0,0,0,-1,1546,1534,0,0
329,-510,0,0,0,0,0,0,0,0,0,-1,1553,1534,0,0
336,-510,0,0,0,0,0,0,0,0,0,-1,1560,1534,0,0
343,-510,0,0,0,0,0,0,0,0,0,-1,1567,1534,0,0
350,-510,0,0,0,0,0,0,0,0,0,-1,1574,1534,0,0
357,-510,0,0,0,0,0,0,0,0,0,-1,1581,1534,0,0
364,-510,0,0,0,0,0,0,0,0,0,-1,1588,1534,0,0
371,-510,0,0,0,0,0,0,0,0,0,-1,1595,1534,0,0
378,-510,0,0,0,0,0,0,0,0,0,-1,1602,1534,0,0
385,-510,0,0,0,0,0,0,0,0,0,-1,1609,1534,0,0
392,-510,0,0,0,0,0,0,0,0,0,-1,1616,1534,0,0
399,-510,0,0,0,0,0,0,0,0,0,-1,1623,1534,0,0
406,-510,0,0,0,0,0,0,0,0,0,-1,1630,1534,0,0
413,-510,0,0,0,0,0,0,0,0,0,-1,1637,1534,0,0
420,-510,14.1888,6.71936,0,0,0,0,0,0,0,-1,1644,1534,14.1889,-6.71939
427,-510,10.2134,5.59485,0,0,0,0,0,0,0,-1,1651,1534,10.2134,-5.59485
434,-510,11.8219,4.07898,0,0,0,0,0,0,0,-1,1658,1534,11.8219,-4.07895
441,-510,12.6812,3.02991,0,0,0,0,0,0,0,-1,1665,1534,12.6811,-3.0299
448,-510,13.2379,2.2804,0,0,0,0,0,0,0,-1,1672,1534,13.2379,-2.28037
455,-510,9.76892,2.20642,0,0,0,0,0,0,0,-1,1679,1534,9.76894,-2.20647
462,-510,9.84692,2.49182,0,0,0,0,0,0,0,-1,1686,1534,9.84695,-2.49185
469,-510,16.6072,7.26941,0,0,0,0,0,0,0,-1,1693,1534,16.6072,-7.26945
476,-510,15.9199,7.8645,0,0,0,0,0,0,0,-1,1700,1534,15.9199,-7.86455
483,-510,13.0833,8.10938,0,0,0,0,0,0,0,-1,1707,1534,13.0833,-8.10932
490,-510,13.0841,15.3286,0,0,0,0,0,0,0,-1,1714,1534,13.0841,-15.3286
497,-510,15.5652,18.823,0,0,0,0,0,0,0,-1,1721,1534,15.5652,-18.823
504,-510,15.998,18.7478,0,0,0,0,0,0,0,-1,1728,1534,15.998,-18.7478
511,-510,15.9443,18.0476,0,0,0,0,0,0,0,-1,1735,1534,15.9443,-18.0476
518,-510,17.9249,21.9351,0,0,0,0,0,0,0,-1,1742,1534,17.9249,-21.9351
525,-510,17.8046,21.4529,0,0,0,0,0,0,0,-1,1749,1534,17.8046,-21.4529
532,-510,18.0323,20.8163,0.00104813,0.00425453,-0.00120394,0.00465625,0.000646409,-1.24874,0.0029127,0.0213205,1756,1534,18.0323,-20.8163
539,-510,18.0776,20.2831,0.000754521,0.00295437,-0.000697615,0.00315694,0.000551948,-1.28819,0.0019469,0.0143291,1763,1534,18.0776,-20.2831
546,-510,18.0374,19.8785,0.00066302,0.00206533,-0.000444177,0.00219418,0.000534169,-1.28845,0.00132123,0.0134476,1770,1534,18.0373,-19.8786
553,-510,18.0469,19.4218,0.000733824,0.00140099,-0.000384888,0.00157674,0.000558077,-1.14245,0.000923185,0.0132183,1777,1534,18.0469,-19.4218
560,-510,18.0173,18.9509,0.0010088,0.000969684,-0.000494932,0.00148456,0.000493922,-0.765652,0.000872956,0.0133545,1784,1534,18.0173,-18.9509
567,-510,18.0063,18.4919,0.00165981,0.000523269,-0.000884259,0.00214266,4.04239e-05,-0.499802,0.00141516,0.0126428,1791,1534,18.0063,-18.492
574,-510,18.0148,18.0563,0.00235637,0.000272558,-0.00135004,0.0030198,-0.00039087,-0.456756,0.00215533,0.0125998,1798,1534,18.0148,-18.0563
581,-510,17.9868,17.636,0.00318678,1.03718e-05,-0.00188382,0.00406255,-0.000865401,-0.435168,0.0030382,0.0123003,1805,1534,17.9868,-17.636
588,-510,17.9591,17.1819,0.0042246,-0.000190487,-0.00258122,0.00541352,-0.00137941,-0.431637,0.00414603,0.0139226,1812,1534,17.9591,-17.1819
595,-510,18.0972,16.5911,0.00532209,-0.000381197,-0.00320515,0.00676053,-0.00181964,-0.421849,0.00522037,0.025302,1819,1534,18.0971,-16.5911
602,-510,18.1508,16.0322,0,0,0,0,0,0,0,-1,1826,1534,18.1508,-16.0323
609,-510,17.2866,14.8556,0,0,0,0,0,0,0,-1,1833,1534,17.2866,-14.8556
616,-510,17.7806,15.6615,0,0,0,0,0,0,0,-1,1840,1534,17.7806,-15.6615
623,-510,18.0868,14.2141,0,0,0,0,0,0,0,-1,1847,1534,18.0868,-14.2141
630,-510,13.7461,9.30334,0,0,0,0,0,0,0,-1,1854,1534,13.7461,-9.30335
637,-510,11.0155,7.38464,0,0,0,0,0,0,0,-1,1861,1534,11.0155,-7.38463
644,-510,11.5809,7.17126,0,0,0,0,0,0,0,-1,1868,1534,11.5809,-7.17123
651,-510,8.70471,3.5061,0,0,0,0,0,0,0,-1,1875,1534,8.70475,-3.50611
658,-510,0,0,0,0,0,0,0,0,0,-1,1882,1534,0,0
665,-510,0,0,0,0,0,0,0,0,0,-1,1889,1534,0,0
672,-510,0,0,0,0,0,0,0,0,0,-1,1896,1534,0,0
679,-510,0,0,0,0,0,0,0,0,0,-1,1903,1534,0,0
686,-510,0,0,0,0,0,0,0,0,0,-1,1910,1534,0,0
693,-510,0,0,0,0,0,0,0,0,0,-1,1917,1534,0,0
700,-510,0,0,0,0,0,0,0,0,0,-1,1924,1534,0,0
707,-510,0,0,0,0,0,0,0,0,0,-1,1931,1534,0,0
714,-510,0,0,0,0,0,0,0,0,0,-1,1938,1534,0,0
721,-510,0,0,0,0,0,0,0,0,0,-1,1945,1534,0,0
728,-510,0,0,0,0,0,0,0,0,0,-1,1952,1534,0,0
735,-510,0,0,0,0,0,0,0,0,0,-1,1959,1534,0,0
742,-510,0,0,0,0,0,0,0,0,0,-1,1966,1534,0,0
749,-510,0,0,0,0,0,0,0,0,0,-1,1973,1534,0,0
756,-510,0,0,0,0,0,0,0,0,0,-1,1980,1534,0,0
763,-510,0,0,0,0,0,0,0,0,0,-1,1987,1534,0,0
770,-510,0,0,0,0,0,0,0,0,0,-1,1994,1534,0,0
777,-510,0,0,0,0,0,0,0,0,0,-1,2001,1534,0,0
784,-510,0,0,0,0,0,0,0,0,0,-1,2008,1534,0,0
791,-510,0,0,0,0,0,0,0,0,0,-1,2015,1534,0,0
798,-510,0,0,0,0,0,0,0,0,0,-1,2022,1534,0,0
805,-510,0,0,0,0,0,0,0,0,0,-1,2029,1534,0,0
812,-510,0,0,0,0,0,0,0,0,0,-1,2036,1534,0,0
-700,-517,0,0,0,0,0,0,0,0,0,-1,524,1541,0,0
-693,-517,0,0,0,0,0,0,0,0,0,-1,531,1541,0,0
-686,-517,0,0,0,0,0,0,0,0,0,-1,538,1541,0,0
-679,-517,0,0,0,0,0,0,0,0,0,-1,545,1541,0,0
-672,-517,0,0,0,0,0,0,0,0,0,-1,552,1541,0,0
-665,-517,0,0,0,0,0,0,0,0,0,-1,559,1541,0,0
-658,-517,0,0,0,0,0,0,0,0,0,-1,566,1541,0,0
-651,-517,0,0,0,0,0,0,0,0,0,-1,573,1541,0,0
-644,-517,0,0,0,0,0,0,0,0,0,-1,580,1541,0,0
-637,-517,0,0,0,0,0,0,0,0,0,-1,587,1541,0,0
-630,-517,0,0,0,0,0,0,0,0,0,-1,594,1541,0,0
-623,-517,0,0,0,0,0,0,0,0,0,-1,601,1541,0,0
-616,-517,0,0,0,0,0,0,0,0,0,-1,608,1541,0,0
-609,-517,0,0,0,0,0,0,0,0,0,-1,615,1541,0,0
-602,-517,0,0,0,0,0,0,0,0,0,-1,622,1541,0,0
-595,-517,0,0,0,0,0,0,0,0,0,-1,629,1541,0,0
-588,-517,0,0,0,0,0,0,0,0,0,-1,636,1541,0,0
-581,-517,0,0,0,0,0,0,0,0,0,-1,643,1541,0,0
-574,-517,0,0,0,0,0,0,0,0,0,-1,650,1541,0,0
-567,-517,0,0,0,0,0,0,0,0,0,-1,657,1541,0,0
-560,-517,0,0,0,0,0,0,0,0,0,-1,664,1541,0,0
-553,-517,0,0,0,0,0,0,0,0,0,-1,671,1541,0,0
-546,-517,0,0,0,0,0,0,0,0,0,-1,678,1541,0,0
-539,-517,0,0,0,0,0,0,0,0,0,-1,685,1541,0,0
-532,-517,0,0,0,0,0,0,0,0,0,-1,692,1541,0,0
-525,-517,-3.62903,4.3606,0,0,0,0,0,0,0,-1,699,1541,-3.62904,-4.36056
-518,-517,-1.664,2.27209,0,0,0,0,0,0,0,-1,706,1541,-1.66399,-2.27207
-511,-517,-0.999146,5.52063,0,0,0,0,0,0,0,-1,713,1541,-0.999126,-5.52059
-504,-517,-1.06946,8.67432,0,0,0,0,0,0,0,-1,720,1541,-1.06947,-8.6743
-497,-517,-2.00299,12.8037,0,0,0,0,0,0,0,-1,727,1541,-2.003,-12.8038
-490,-517,-2.08875,13.4569,0,0,0,0,0,0,0,-1,734,1541,-2.08874,-13.4569
-483,-517,-2.34222,13.881,0,0,0,0,0,0,0,-1,741,1541,-2.3422,-13.8809
-476,-517,-2.63501,14.3235,0.0207778,-0.013634,-0.00577188,0.0217201,-0.0145763,-0.161831,0.0210906,0.0445687,748,1541,-2.635,-14.3235
-469,-517,-2.92273,14.7791,0.0169236,-0.0102359,-0.00496563,0.017803,-0.0111153,-0.17528,0.0168442,0.0198658,755,1541,-2.92273,-14.779
-462,-517,-3.0155,15.2426,0.0134037,-0.00753317,-0.00403313,0.0141537,-0.00828321,-0.18387,0.0131009,0.0184054,762,1541,-3.01549,-15.2426
-455,-517,-3.0224,15.7618,0.0101336,-0.0053023,-0.0030991,0.0107326,-0.00590127,-0.190919,0.00973764,0.0147414,769,1541,-3.02239,-15.7618
-448,-517,-3.03754,16.2455,0.00734669,-0.00347785,-0.00216564,0.00776389,-0.00389505,-0.190312,0.00685371,0.0139309,776,1541,-3.03752,-16.2455
-441,-517,-3.04724,16.7107,0.00520325,-0.00194823,-0.00113343,0.00537858,-0.00212356,-0.15348,0.0044652,0.0125246,783,1541,-3.04726,-16.7107
-434,-517,-3.04022,17.2048,0.00376773,-0.000449369,-2.23365e-05,0.00376784,-0.000449487,-0.00529645,0.00267435,0.0145391,790,1541,-3.04025,-17.2048
-427,-517,-3.06714,17.686,0.00301676,0.00101693,0.00119839,0.0035776,0.000456088,0.437721,0.00224851,0.0141529,797,1541,-3.06714,-17.686
-420,-517,-3.13086,18.1906,0.00303874,0.0024151,0.00240787,0.00515489,0.000298944,0.721006,0.00334141,0.0199799,804,1541,-3.13085,-18.1906
-413,-517,-3.1236,18.6637,0.00347048,0.00390645,0.0037363,0.00743112,-5.41836e-05,0.814537,0.00497224,0.0107287,811,1541,-3.12359,-18.6637
-406,-517,-3.13416,19.1458,0.0049013,0.00556015,0.0050888,0.0103302,0.000131272,0.817721,0.00684345,0.0108931,818,1541,-3.13418,-19.1457
-399,-517,-3.13715,19.6261,0.00624192,0.0073348,0.00633882,0.0131507,0.000426032,0.828395,0.00862862,0.0112759,825,1541,-3.13717,-19.626
-392,-517,-3.14276,20.1294,0.00734057,0.00989375,0.00752981,0.0162544,0.000979905,0.869369,0.0105249,0.0164565,832,1541,-3.14275,-20.1294
-385,-517,-3.04657,20.881,0.00840916,0.0123282,0.00885638,0.0194392,0.0012981,0.894271,0.0125492,0.0357143,839,1541,-3.04656,-20.881
-378,-517,-2.90509,21.7393,0,0,0,0,0,0,0,-1,846,1541,-2.90511,-21.7393
-371,-517,-1.37585,13.2646,0,0,0,0,0,0,0,-1,853,1541,-1.37586,-13.2647
-364,-517,-1.26245,12.6289,0,0,0,0,0,0,0,-1,860,1541,-1.26243,-12.6289
-357,-517,-1.23889,12.979,0,0,0,0,0,0,0,-1,867,1541,-1.23891,-12.979
-350,-517,0.722412,10.0829,0,0,0,0,0,0,0,-1,874,1541,0.722399,-10.0828
-343,-517,-2.89331,17.5468,0,0,0,0,0,0,0,-1,881,1541,-2.89334,-17.5468
-336,-517,-2.69617,24.7594,0,0,0,0,0,0,0,-1,888,1541,-2.69619,-24.7593
-329,-517,-0.463623,21.0862,0,0,0,0,0,0,0,-1,895,1541,-0.463643,-21.0862
-322,-517,-4.21246,19.5819,0,0,0,0,0,0,0,-1,902,1541,-4.21244,-19.5819
-315,-517,-0.987976,7.29749,0,0,0,0,0,0,0,-1,909,1541,-0.987993,-7.29743
-308,-517,3.27911,17.621,0,0,0,0,0,0,0,-1,916,1541,3.27913,-17.621
-301,-517,-1.69141,8.87488,0,0,0,0,0,0,0,-1,923,1541,-1.69141,-8.87485
-294,-517,-1.72583,9.92566,0,0,0,0,0,0,0,-1,930,1541,-1.72584,-9.92571
-287,-517,-3.09045,12.1472,0,0,0,0,0,0,0,-1,937,1541,-3.09043,-12.1472
-280,-517,0,0,0,0,0,0,0,0,0,-1,944,1541,0,0
-273,-517,0,0,0,0,0,0,0,0,0,-1,951,1541,0,0
-266,-517,0,0,0,0,0,0,0,0,0,-1,958,1541,0,0
-259,-517,0,0,0,0,0,0,0,0,0,-1,965,1541,0,0
-252,-517,0,0,0,0,0,0,0,0,0,-1,972,1541,0,0
-245,-517,0,0,0,0,0,0,0,0,0,-1,979,1541,0,0
-238,-517,0,0,0,0,0,0,0,0,0,-1,986,1541,0,0
-231,-517,0,0,0,0,0,0,0,0,0,-1,993,1541,0,0
-224,-517,0,0,0,0,0,0,0,0,0,-1,1000,1541,0,0
-217,-517,0,0,0,0,0,0,0,0,0,-1,1007,1541,0,0
-210,-517,0,0,0,0,0,0,0,0,0,-1,1014,1541,0,0
-203,-517,0,0,0,0,0,0,0,0,0,-1,1021,1541,0,0
-196,-517,0,0,0,0,0,0,0,0,0,-1,1028,1541,0,0
-189,-517,0,0,0,0,0,0,0,0,0,-1,1035,1541,0,0
-182,-517,0,0,0,0,0,0,0,0,0,-1,1042,1541,0,0
-175,-517,0,0,0,0,0,0,0,0,0,-1,1049,1541,0,0
-168,-517,0,0,0,0,0,0,0,0,0,-1,1056,1541,0,0
-161,-517,0,0,0,0,0,0,0,0,0,-1,1063,1541,0,0
-154,-517,0,0,0,0,0,0,0,0,0,-1,1070,1541,0,0
-147,-517,0,0,0,0,0,0,0,0,0,-1,1077,1541,0,0
-140,-517,0,0,0,0,0,0,0,0,0,-1,1084,1541,0,0
-133,-517,0,0,0,0,0,0,0,0,0,-1,1091,1541,0,0
-126,-517,0,0,0,0,0,0,0,0,0,-1,1098,1541,0,0
-119,-517,0,0,0,0,0,0,0,0,0,-1,1105,1541,0,0
-112,-517,0,0,0,0,0,0,0,0,0,-1,1112,1541,0,0
-105,-517,0,0,0,0,0,0,0,0,0,-1,1119,1541,0,0
-98,-517,0,0,0,0,0,0,0,0,0,-1,1126,1541,0,0
-91,-517,0,0,0,0,0,0,0,0,0,-1,1133,1541,0,0
-84,-517,0,0,0,0,0,0,0,0,0,-1,1140,1541,0,0
-77,-517,0,0,0,0,0,0,0,0,0,-1,1147,1541,0,0
-70,-517,0,0,0,0,0,0,0,0,0,-1,1154,1541,0,0
-63,-517,0,0,0,0,0,0,0,0,0,-1,1161,1541,0,0
-56,-517,0,0,0,0,0,0,0,0,0,-1,1168,1541,0,0
-49,-517,0,0,0,0,0,0,0,0,0,-1,1175,1541,0,0
-42,-517,0,0,0,0,0,0,0,0,0,-1,1182,1541,0,0
-35,-517,0,0,0,0,0,0,0,0,0,-1,1189,1541,0,0
-28,-517,0,0,0,0,0,0,0,0,0,-1,1196,1541,0,0
-21,-517,0,0,0,0,0,0,0,0,0,-1,1203,1541,0,0
-14,-517,0,0,0,0,0,0,0,0,0,-1,1210,1541,0,0
-7,-517,0,0,0,0,0,0,0,0,0,-1,1217,1541,0,0
0,-517,0,0,0,0,0,0,0,0,0,-1,1224,1541,0,0
7,-517,0,0,0,0,0,0,0,0,0,-1,1231,1541,0,0
14,-517,0,0,0,0,0,0,0,0,0,-1,1238,1541,0,0
21,-517,0,0,0,0,0,0,0,0,0,-1,1245,1541,0,0
28,-517,0,0,0,0,0,0,0,0,0,-1,1252,1541,0,0
35,-517,0,0,0,0,0,0,0,0,0,-1,1259,1541,0,0
42,-517,0,0,0,0,0,0,0,0,0,-1,1266,1541,0,0
49,-517,0,0,0,0,0,0,0,0,0,-1,1273,1541,0,0
56,-517,0,0,0,0,0,0,0,0,0,-1,1280,1541,0,0
63,-517,0,0,0,0,0,0,0,0,0,-1,1287,1541,0,0
70,-517,0,0,0,0,0,0,0,0,0,-1,1294,1541,0,0
77,-517,0,0,0,0,0,0,0,0,0,-1,1301,1541,0,0
84,-517,0,0,0,0,0,0,0,0,0,-1,1308,1541,0,0
91,-517,0,0,0,0,0,0,0,0,0,-1,1315,1541,0,0
98,-517,0,0,0,0,0,0,0,0,0,-1,1322,1541,0,0
105,-517,0,0,0,0,0,0,0,0,0,-1,1329,1541,0,0
112,-517,0,0,0,0,0,0,0,0,0,-1,1336,1541,0,0
119,-517,0,0,0,0,0,0,0,0,0,-1,1343,1541,0,0
126,-517,0,0,0,0,0,0,0,0,0,-1,1350,1541,0,0
133,-517,0,0,0,0,0,0,0,0,0,-1,1357,1541,0,0
140,-517,0,0,0,0,0,0,0,0,0,-1,1364,1541,0,0
147,-517,0,0,0,0,0,0,0,0,0,-1,1371,1541,0,0
154,-517,0,0,0,0,0,0,0,0,0,-1,1378,1541,0,0
161,-517,0,0,0,0,0,0,0,0,0,-1,1385,1541,0,0
168,-517,0,0,0,0,0,0,0,0,0,-1,1392,1541,0,0
175,-517,0,0,0,0,0,0,0,0,0,-1,1399,1541,0,0
182,-517,0,0,0,0,0,0,0,0,0,-1,1406,1541,0,0
189,-517,0,0,0,0,0,0,0,0,0,-1,1413,1541,0,0
196,-517,0,0,0,0,0,0,0,0,0,-1,1420,1541,0,0
203,-517,0,0,0,0,0,0,0,0,0,-1,1427,1541,0,0
210,-517,0,0,0,0,0,0,0,0,0,-1,1434,1541,0,0
217,-517,0,0,0,0,0,0,0,0,0,-1,1441,1541,0,0
224,-517,0,0,0,0,0,0,0,0,0,-1,1448,1541,0,0
231,-517,0,0,0,0,0,0,0,0,0,-1,1455,1541,0,0
238,-517,0,0,0,0,0,0,0,0,0,-1,1462,1541,0,0
245,-517,0,0,0,0,0,0,0,0,0,-1,1469,1541,0,0
252,-517,0,0,0,0,0,0,0,0,0,-1,1476,1541,0,0
259,-517,0,0,0,0,0,0,0,0,0,-1,1483,1541,0,0
266,-517,0,0,0,0,0,0,0,0,0,-1,1490,1541,0,0
273,-517,0,0,0,0,0,0,0,0,0,-1,1497,1541,0,0
280,-517,0,0,0,0,0,0,0,0,0,-1,1504,1541,0,0
287,-517,0,0,0,0,0,0,0,0,0,-1,1511,1541,0,0
294,-517,0,0,0,0,0,0,0,0,0,-1,1518,1541,0,0
301,-517,0,0,0,0,0,0,0,0,0,-1,1525,1541,0,0
308,-517,0,0,0,0,0,0,0,0,0,-1,1532,1541,0,0
315,-517,0,0,0,0,0,0,0,0,0,-1,1539,1541,0,0
322,-517,0,0,0,0,0,0,0,0,0,-1,1546,1541,0,0
329,-517,0,0,0,0,0,0,0,0,0,-1,1553,1541,0,0
336,-517,0,0,0,0,0,0,0,0,0,-1,1560,1541,0,0
343,-517,0,0,0,0,0,0,0,0,0,-1,1567,1541,0,0
350,-517,0,0,0,0,0,0,0,0,0,-1,1574,1541,0,0
357,-517,0,0,0,0,0,0,0,0,0,-1,1581,1541,0,0
364,-517,0,0,0,0,0,0,0,0,0,-1,1588,1541,0,0
371,-517,0,0,0,0,0,0,0,0,0,-1,1595,1541,0,0
378,-517,0,0,0,0,0,0,0,0,0,-1,1602,1541,0,0
385,-517,0,0,0,0,0,0,0,0,0,-1,1609,1541,0,0
392,-517,0,0,0,0,0,0,0,0,0,-1,1616,1541,0,0
399,-517,0,0,0,0,0,0,0,0,0,-1,1623,1541,0,0
406,-517,13.1395,7.01978,0,0,0,0,0,0,0,-1,1630,1541,13.1396,-7.01981
413,-517,12.8859,6.31592,0,0,0,0,0,0,0,-1,1637,1541,12.8858,-6.31588
420,-517,12.4789,6.20337,0,0,0,0,0,0,0,-1,1644,1541,12.4789,-6.20333
427,-517,11.647,4.66516,0,0,0,0,0,0,0,-1,1651,1541,11.647,-4.66519
434,-517,12.3719,3.92773,0,0,0,0,0,0,0,-1,1658,1541,12.3719,-3.92776
441,-517,13.146,3.14124,0,0,0,0,0,0,0,-1,1665,1541,13.146,-3.14121
448,-517,13.8861,2.36682,0,0,0,0,0,0,0,-1,1672,1541,13.8861,-2.36684
455,-517,13.6012,4.06335,0,0,0,0,0,0,0,-1,1679,1541,13.6012,-4.06335
462,-517,14.8956,7.0752,0,0,0,0,0,0,0,-1,1686,1541,14.8956,-7.07525
469,-517,13.6292,6.87744,0,0,0,0,0,0,0,-1,1693,1541,13.6292,-6.87739
476,-517,17.1632,14.1487,0,0,0,0,0,0,0,-1,1700,1541,17.1632,-14.1487
483,-517,16.5157,15.0776,0,0,0,0,0,0,0,-1,1707,1541,16.5157,-15.0777
490,-517,15.5439,18.0258,0,0,0,0,0,0,0,-1,1714,1541,15.5439,-18.0258
497,-517,16.0292,18.7786,0,0,0,0,0,0,0,-1,1721,1541,16.0291,-18.7786
504,-517,17.3815,22.3873,0,0,0,0,0,0,0,-1,1728,1541,17.3814,-22.3873
511,-517,16.9674,21.8491,0,0,0,0,0,0,0,-1,1735,1541,16.9674,-21.8491
518,-517,17.6539,21.6635,0,0,0,0,0,0,0,-1,1742,1541,17.6539,-21.6635
525,-517,17.5068,21.2666,0.0022402,0.00497455,-0.00216419,0.00616723,0.00104751,-1.06711,0.00381062,0.0223991,1749,1541,17.5068,-21.2666
532,-517,17.6471,20.7233,0.00153098,0.00363409,-0.00144465,0.00436937,0.000795698,-1.1,0.00268724,0.0124974,1756,1541,17.6471,-20.7233
539,-517,17.6514,20.2729,0.00121864,0.00252677,-0.000978676,0.00304982,0.000695582,-1.07997,0.00184558,0.0134336,1763,1541,17.6514,-20.273
546,-517,17.6345,19.8544,0.00108676,0.0017823,-0.000734788,0.00224746,0.000621596,-1.00643,0.00134006,0.0138359,1770,1541,17.6345,-19.8543
553,-517,17.6135,19.4207,0.0010997,0.00121784,-0.000658688,0.0018201,0.000497439,-0.830117,0.00108624,0.0172785,1777,1541,17.6135,-19.4207
560,-517,17.6074,18.9817,0.00135029,0.000873166,-0.000757838,0.00190623,0.00031723,-0.632911,0.00117938,0.016858,1784,1541,17.6074,-18.9817
567,-517,17.6097,18.55,0.00203682,0.000451842,-0.00116017,0.00264933,-0.000160674,-0.485759,0.00182214,0.0132538,1791,1541,17.6097,-18.5501
574,-517,17.5825,18.0829,0.00278858,0.000240813,-0.00165242,0.00360115,-0.000571754,-0.45702,0.00261229,0.014065,1798,1541,17.5825,-18.0829
581,-517,17.5364,17.6145,0.003763,1.5336e-05,-0.00227094,0.00483338,-0.00105505,-0.440458,0.00362547,0.0161406,1805,1541,17.5364,-17.6146
588,-517,17.5231,17.1483,0.00504328,-0.00014053,-0.00313546,0.00651943,-0.00161668,-0.44001,0.00497355,0.0170697,1812,1541,17.5231,-17.1484
595,-517,17.5341,16.6404,0,0,0,0,0,0,0,-1,1819,1541,17.534,-16.6403
602,-517,15.8027,13.5498,0,0,0,0,0,0,0,-1,1826,1541,15.8027,-13.5498
609,-517,12.6417,10.8751,0,0,0,0,0,0,0,-1,1833,1541,12.6417,-10.8751
616,-517,14.205,10.3193,0,0,0,0,0,0,0,-1,1840,1541,14.205,-10.3194
623,-517,12.578,10.0779,0,0,0,0,0,0,0,-1,1847,1541,12.578,-10.0779
630,-517,11.7035,7.47815,0,0,0,0,0,0,0,-1,1854,1541,11.7035,-7.47812
637,-517,11.5172,5.79822,0,0,0,0,0,0,0,-1,1861,1541,11.5173,-5.79825
644,-517,11.4232,3.30579,0,0,0,0,0,0,0,-1,1868,1541,11.4232,-3.30574
651,-517,0,0,0,0,0,0,0,0,0,-1,1875,1541,0,0
658,-517,0,0,0,0,0,0,0,0,0,-1,1882,1541,0,0
665,-517,0,0,0,0,0,0,0,0,0,-1,1889,1541,0,0
672,-517,0,0,0,0,0,0,0,0,0,-1,1896,1541,0,0
679,-517,0,0,0,0,0,0,0,0,0,-1,1903,1541,0,0
686,-517,0,0,0,0,0,0,0,0,0,-1,1910,1541,0,0
693,-517,0,0,0,0,0,0,0,0,0,-1,1917,1541,0,0
700,-517,0,0,0,0,0,0,0,0,0,-1,1924,1541,0,0
707,-517,0,0,0,0,0,0,0,0,0,-1,1931,1541,0,0
714,-517,0,0,0,0,0,0,0,0,0,-1,1938,1541,0,0
721,-517,0,0,0,0,0,0,0,0,0,-1,1945,1541,0,0
728,-517,0,0,0,0,0,0,0,0,0,-1,1952,1541,0,0
735,-517,0,0,0,0,0,0,0,0,0,-1,1959,1541,0,0
742,-517,0,0,0,0,0,0,0,0,0,-1,1966,1541,0,0
749,-517,0,0,0,0,0,0,0,0,0,-1,1973,1541,0,0
756,-517,0,0,0,0,0,0,0,0,0,-1,1980,1541,0,0
763,-517,0,0,0,0,0,0,0,0,0,-1,1987,1541,0,0
770,-517,0,0,0,0,0,0,0,0,0,-1,1994,1541,0,0
777,-517,0,0,0,0,0,0,0,0,0,-1,2001,1541,0,0
784,-517,0,0,0,0,0,0,0,0,0,-1,2008,1541,0,0
791,-517,0,0,0,0,0,0,0,0,0,-1,2015,1541,0,0
798,-517,0,0,0,0,0,0,0,0,0,-1,2022,1541,0,0
805,-517,0,0,0,0,0,0,0,0,0,-1,2029,1541,0,0
812,-517,0,0,0,0,0,0,0,0,0,-1,2036,1541,0,0
-700,-524,0,0,0,0,0,0,0,0,0,-1,524,1548,0,0
-693,-524,0,0,0,0,0,0,0,0,0,-1,531,1548,0,0
-686,-524,0,0,0,0,0,0,0,0,0,-1,538,1548,0,0
-679,-524,0,0,0,0,0,0,0,0,0,-1,545,1548,0,0
-672,-524,0,0,0,0,0,0,0,0,0,-1,552,1548,0,0
-665,-524,0,0,0,0,0,0,0,0,0,-1,559,1548,0,0
-658,-524,0,0,0,0,0,0,0,0,0,-1,566,1548,0,0
-651,-524,0,0,0,0,0,0,0,0,0,-1,573,1548,0,0
-644,-524,0,0,0,0,0,0,0,0,0,-1,580,1548,0,0
-637,-524,0,0,0,0,0,0,0,0,0,-1,587,1548,0,0
-630,-524,0,0,0,0,0,0,0,0,0,-1,594,1548,0,0
-623,-524,0,0,0,0,0,0,0,0,0,-1,601,1548,0,0
-616,-524,0,0,0,0,0,0,0,0,0,-1,608,1548,0,0
-609,-524,0,0,0,0,0,0,0,0,0,-1,615,1548,0,0
-602,-524,0,0,0,0,0,0,0,0,0,-1,622,1548,0,0
-595,-524,0,0,0,0,0,0,0,0,0,-1,629,1548,0,0
-588,-524,0,0,0,0,0,0,0,0,0,-1,636,1548,0,0
-581,-524,0,0,0,0,0,0,0,0,0,-1,643,1548,0,0
-574,-524,0,0,0,0,0,0,0,0,0,-1,650,1548,0,0
-567,-524,0,0,0,0,0,0,0,0,0,-1,657,1548,0,0
-560,-524,0,0,0,0,0,0,0,0,0,-1,664,1548,0,0
-553,-524,0,0,0,0,0,0,0,0,0,-1,671,1548,0,0
-546,-524,0,0,0,0,0,0,0,0,0,-1,678,1548,0,0
-539,-524,0,0,0,0,0,0,0,0,0,-1,685,1548,0,0
-532,-524,0,0,0,0,0,0,0,0,0,-1,692,1548,0,0
-525,-524,-0.215515,3.97131,0,0,0,0,0,0,0,-1,699,1548,-0.215501,-3.97136
-518,-524,-0.806274,4.35632,0,0,0,0,0,0,0,-1,706,1548,-0.806259,-4.35633
-511,-524,-1.08301,4.29004,0,0,0,0,0,0,0,-1,713,1548,-1.08301,-4.29006
-504,-524,-1.28821,3.98145,0,0,0,0,0,0,0,-1,720,1548,-1.28822,-3.98151
-497,-524,-0.328491,8.63416,0,0,0,0,0,0,0,-1,727,1548,-0.328487,-8.63411
-490,-524,-2.18744,13.5383,0,0,0,0,0,0,0,-1,734,1548,-2.18744,-13.5384
-483,-524,-2.17596,14.0808,0,0,0,0,0,0,0,-1,741,1548,-2.17596,-14.0809
-476,-524,-2.34369,14.4968,0.0337509,-0.0154922,-0.00690322,0.0347003,-0.0164417,-0.136677,0.0301476,0.0460663,748,1548,-2.34368,-14.4968
-469,-524,-2.67877,15.1725,0.0265547,-0.0114019,-0.00601636,0.0274855,-0.0123327,-0.153496,0.0235374,0.0369106,755,1548,-2.67878,-15.1724
-462,-524,-2.49707,15.4403,0.0203914,-0.00827178,-0.00498906,0.0212349,-0.00911534,-0.167498,0.0179824,0.0301855,762,1548,-2.49708,-15.4403
-455,-524,-2.57556,15.8121,0.0149468,-0.00577554,-0.00395937,0.0156776,-0.00650627,-0.182506,0.0131676,0.0226211,769,1548,-2.57556,-15.8121
-448,-524,-2.56091,16.2896,0.0103999,-0.0038774,-0.00298471,0.0109987,-0.00447624,-0.198009,0.00919521,0.0137181,776,1548,-2.56091,-16.2896
-441,-524,-2.55719,16.7477,0.00694756,-0.00235511,-0.0019523,0.00734066,-0.00274822,-0.198698,0.00602261,0.0113831,783,1548,-2.55718,-16.7477
-434,-524,-2.53741,17.2061,0.0045745,-0.000946573,-0.000874822,0.0047098,-0.00108187,-0.153445,0.00355578,0.0129162,790,1548,-2.5374,-17.2061
-427,-524,-2.5545,17.7009,0.00315875,0.000384242,0.000282347,0.00318719,0.000355801,0.100394,0.00201668,0.0130809,797,1548,-2.55449,-17.7009
-420,-524,-2.61377,18.2018,0.00278569,0.00164328,0.00136417,0.00369342,0.000735554,0.587128,0.0022574,0.0111012,804,1548,-2.61374,-18.2018
-413,-524,-2.62665,18.6805,0.00245417,0.00308748,0.00248947,0.00528036,0.0002613,0.848657,0.00343645,0.0105797,811,1548,-2.62662,-18.6806
-406,-524,-2.64429,19.1605,0.00325551,0.004383,0.00379215,0.00765307,-1.45659e-05,0.859188,0.00510691,0.0110546,818,1548,-2.64426,-19.1606
-399,-524,-2.66406,19.6229,0.00445754,0.00589668,0.00479029,0.0100211,0.000333083,0.859948,0.00657255,0.0091365,825,1548,-2.66408,-19.6229
-392,-524,-2.66022,20.103,0.00539058,0.00792455,0.00565233,0.0124502,0.000864974,0.895652,0.00802733,0.0105322,832,1548,-2.6602,-20.1031
-385,-524,-2.67957,20.6243,0.00629017,0.00985247,0.0066017,0.0149091,0.00123356,0.917162,0.00955478,0.0157706,839,1548,-2.67956,-20.6243
-378,-524,-2.6087,21.3854,0.00689333,0.0121189,0.00723464,0.0171981,0.00181414,0.958685,0.0109111,0.0472731,846,1548,-2.60871,-21.3854
-371,-524,-2.31598,22.0989,0,0,0,0,0,0,0,-1,853,1548,-2.31599,-22.0988
-364,-524,-0.712097,14.9871,0,0,0,0,0,0,0,-1,860,1548,-0.712116,-14.9871
-357,-524,-1.34052,14.7448,0,0,0,0,0,0,0,-1,867,1548,-1.34054,-14.7447
-350,-524,-2.63245,12.7522,0,0,0,0,0,0,0,-1,874,1548,-2.63245,-12.7522
-343,-524,-2.41333,23.0717,0,0,0,0,0,0,0,-1,881,1548,-2.41331,-23.0716
-336,-524,-2.01569,24.4056,0,0,0,0,0,0,0,-1,888,1548,-2.01571,-24.4056
-329,-524,-1.6181,25.7396,0,0,0,0,0,0,0,-1,895,1548,-1.61811,-25.7396
-322,-524,-3.79669,23.8302,0,0,0,0,0,0,0,-1,902,1548,-3.7967,-23.8303
-315,-524,-1.90839,19.4824,0,0,0,0,0,0,0,-1,909,1548,-1.90838,-19.4824
-308,-524,-2.36938,19.3059,0,0,0,0,0,0,0,-1,916,1548,-2.3694,-19.3058
-301,-524,2.72394,17.7618,0,0,0,0,0,0,0,-1,923,1548,2.72396,-17.7619
-294,-524,-1.52515,9.05408,0,0,0,0,0,0,0,-1,930,1548,-1.52512,-9.05411
-287,-524,-0.962219,10.3199,0,0,0,0,0,0,0,-1,937,1548,-0.962241,-10.32
-280,-524,-1.36255,10.3859,0,0,0,0,0,0,0,-1,944,1548,-1.36253,-10.3859
-273,-524,0,0,0,0,0,0,0,0,0,-1,951,1548,0,0
-266,-524,0,0,0,0,0,0,0,0,0,-1,958,1548,0,0
-259,-524,0,0,0,0,0,0,0,0,0,-1,965,1548,0,0
-252,-524,0,0,0,0,0,0,0,0,0,-1,972,1548,0,0
-245,-524,0,0,0,0,0,0,0,0,0,-1,979,1548,0,0
-238,-524,0,0,0,0,0,0,0,0,0,-1,986,1548,0,0
-231,-524,0,0,0,0,0,0,0,0,0,-1,993,1548,0,0
-224,-524,0,0,0,0,0,0,0,0,0,-1,1000,1548,0,0
-217,-524,0,0,0,0,0,0,0,0,0,-1,1007,1548,0,0
-210,-524,0,0,0,0,0,0,0,0,0,-1,1014,1548,0,0
-203,-524,0,0,0,0,0,0,0,0,0,-1,1021,1548,0,0
-196,-524,0,0,0,0,0,0,0,0,0,-1,1028,1548,0,0
-189,-524,0,0,0,0,0,0,0,0,0,-1,1035,1548,0,0
-182,-524,0,0,0,0,0,0,0,0,0,-1,1042,1548,0,0
-175,-524,0,0,0,0,0,0,0,0,0,-1,1049,1548,0,0
-168,-524,0,0,0,0,0,0,0,0,0,-1,1056,1548,0,0
-161,-524,0,0,0,0,0,0,0,0,0,-1,1063,1548,0,0
-154,-524,0,0,0,0,0,0,0,0,0,-1,1070,1548,0,0
-147,-524,0,0,0,0,0,0,0,0,0,-1,1077,1548,0,0
-140,-524,0,0,0,0,0,0,0,0,0,-1,1084,1548,0,0
-133,-524,0,0,0,0,0,0,0,0,0,-1,1091,1548,0,0
-126,-524,0,0,0,0,0,0,0,0,0,-1,1098,1548,0,0
-119,-524,0,0,0,0,0,0,0,0,0,-1,1105,1548,0,0
-112,-524,0,0,0,0,0,0,0,0,0,-1,1112,1548,0,0
-105,-524,0,0,0,0,0,0,0,0,0,-1,1119,1548,0,0
-98,-524,0,0,0,0,0,0,0,0,0,-1,1126,1548,0,0
-91,-524,0,0,0,0,0,0,0,0,0,-1,1133,1548,0,0
-84,-524,0,0,0,0,0,0,0,0,0,-1,1140,1548,0,0
-77,-524,0,0,0,0,0,0,0,0,0,-1,1147,1548,0,0
-70,-524,0,0,0,0,0,0,0,0,0,-1,1154,1548,0,0
-63,-524,0,0,0,0,0,0,0,0,0,-1,1161,1548,0,0
-56,-524,0,0,0,0,0,0,0,0,0,-1,1168,1548,0,0
-49,-524,0,0,0,0,0,0,0,0,0,-1,1175,1548,0,0
-42,-524,0,0,0,0,0,0,0,0,0,-1,1182,1548,0,0
-35,-524,0,0,0,0,0,0,0,0,0,-1,1189,1548,0,0
-28,-524,0,0,0,0,0,0,0,0,0,-1,1196,1548,0,0
-21,-524,0,0,0,0,0,0,0,0,0,-1,1203,1548,0,0
-14,-524,0,0,0,0,0,0,0,0,0,-1,1210,1548,0,0
-7,-524,0,0,0,0,0,0,0,0,0,-1,1217,1548,0,0
0,-524,0,0,0,0,0,0,0,0,0,-1,1224,1548,0,0
7,-524,0,0,0,0,0,0,0,0,0,-1,1231,1548,0,0
14,-524,0,0,0,0,0,0,0,0,0,-1,1238,1548,0,0
21,-524,0,0,0,0,0,0,0,0,0,-1,1245,1548,0,0
28,-524,0,0,0,0,0,0,0,0,0,-1,1252,1548,0,0
35,-524,0,0,0,0,0,0,0,0,0,-1,1259,1548,0,0
42,-524,0,0,0,0,0,0,0,0,0,-1,1266,1548,0,0
49,-524,0,0,0,0,0,0,0,0,0,-1,1273,1548,0,0
56,-524,0,0,0,0,0,0,0,0,0,-1,1280,1548,0,0
63,-524,0,0,0,0,0,0,0,0,0,-1,1287,1548,0,0
70,-524,0,0,0,0,0,0,0,0,0,-1,1294,1548,0,0
77,-524,0,0,0,0,0,0,0,0,0,-1,1301,1548,0,0
84,-524,0,0,0,0,0,0,0,0,0,-1,1308,1548,0,0
91,-524,0,0,0,0,0,0,0,0,0,-1,1315,1548,0,0
98,-524,0,0,0,0,0,0,0,0,0,-1,1322,1548,0,0
105,-524,0,0,0,0,0,0,0,0,0,-1,1329,1548,0,0
112,-524,0,0,0,0,0,0,0,0,0,-1,1336,1548,0,0
119,-524,0,0,0,0,0,0,0,0,0,-1,1343,1548,0,0
126,-524,0,0,0,0,0,0,0,0,0,-1,1350,1548,0,0
133,-524,0,0,0,0,0,0,0,0,0,-1,1357,1548,0,0
140,-524,0,0,0,0,0,0,0,0,0,-1,1364,1548,0,0
147,-524,0,0,0,0,0,0,0,0,0,-1,1371,1548,0,0
154,-524,0,0,0,0,0,0,0,0,0,-1,1378,1548,0,0
161,-524,0,0,0,0,0,0,0,0,0,-1,1385,1548,0,0
168,-524,0,0,0,0,0,0,0,0,0,-1,1392,1548,0,0
175,-524,0,0,0,0,0,0,0,0,0,-1,1399,1548,0,0
182,-524,0,0,0,0,0,0,0,0,0,-1,1406,1548,0,0
189,-524,0,0,0,0,0,0,0,0,0,-1,1413,1548,0,0
196,-524,0,0,0,0,0,0,0,0,0,-1,1420,1548,0,0
203,-524,0,0,0,0,0,0,0,0,0,-1,1427,1548,0,0
210,-524,0,0,0,0,0,0,0,0,0,-1,1434,1548,0,0
217,-524,0,0,0,0,0,0,0,0,0,-1,1441,1548,0,0
224,-524,0,0,0,0,0,0,0,0,0,-1,1448,1548,0,0
231,-524,0,0,0,0,0,0,0,0,0,-1,1455,1548,0,0
238,-524,0,0,0,0,0,0,0,0,0,-1,1462,1548,0,0
245,-524,0,0,0,0,0,0,0,0,0,-1,1469,1548,0,0
252,-524,0,0,0,0,0,0,0,0,0,-1,1476,1548,0,0
259,-524,0,0,0,0,0,0,0,0,0,-1,1483,1548,0,0
266,-524,0,0,0,0,0,0,0,0,0,-1,1490,1548,0,0
273,-524,0,0,0,0,0,0,0,0,0,-1,1497,1548,0,0
280,-524,0,0,0,0,0,0,0,0,0,-1,1504,1548,0,0
287,-524,0,0,0,0,0,0,0,0,0,-1,1511,1548,0,0
294,-524,0,0,0,0,0,0,0,0,0,-1,1518,1548,0,0
301,-524,0,0,0,0,0,0,0,0,0,-1,1525,1548,0,0
308,-524,0,0,0,0,0,0,0,0,0,-1,1532,1548,0,0
315,-524,0,0,0,0,0,0,0,0,0,-1,1539,1548,0,0
322,-524,0,0,0,0,0,0,0,0,0,-1,1546,1548,0,0
329,-524,0,0,0,0,0,0,0,0,0,-1,1553,1548,0,0
336,-524,0,0,0,0,0,0,0,0,0,-1,1560,1548,0,0
343,-524,0,0,0,0,0,0,0,0,0,-1,1567,1548,0,0
350,-524,0,0,0,0,0,0,0,0,0,-1,1574,1548,0,0
357,-524,0,0,0,0,0,0,0,0,0,-1,1581,1548,0,0
364,-524,0,0,0,0,0,0,0,0,0,-1,1588,1548,0,0
371,-524,0,0,0,0,0,0,0,0,0,-1,1595,1548,0,0
378,-524,0,0,0,0,0,0,0,0,0,-1,1602,1548,0,0
385,-524,0,0,0,0,0,0,0,0,0,-1,1609,1548,0,0
392,-524,0,0,0,0,0,0,0,0,0,-1,1616,1548,0,0
399,-524,8.81848,5.05774,0,0,0,0,0,0,0,-1,1623,1548,8.81843,-5.05769
406,-524,8.64294,6.06799,0,0,0,0,0,0,0,-1,1630,1548,8.6429,-6.06805
413,-524,11.677,6.41858,0,0,0,0,0,0,0,-1,1637,1548,11.677,-6.41864
420,-524,11.4913,6.36401,0,0,0,0,0,0,0,-1,1644,1548,11.4913,-6.36402
427,-524,7.68335,6.17249,0,0,0,0,0,0,0,-1,1651,1548,7.68341,-6.17245
434,-524,10.432,11.6801,0,0,0,0,0,0,0,-1,1658,1548,10.432,-11.68
441,-524,8.78552,4.12305,0,0,0,0,0,0,0,-1,1665,1548,8.78553,-4.12301
448,-524,14.1854,4.78674,0,0,0,0,0,0,0,-1,1672,1548,14.1854,-4.78674
455,-524,12.4784,3.65576,0,0,0,0,0,0,0,-1,1679,1548,12.4784,-3.65572
462,-524,14.7551,9.29395,0,0,0,0,0,0,0,-1,1686,1548,14.7552,-9.29397
469,-524,16.3314,14.3779,0,0,0,0,0,0,0,-1,1693,1548,16.3314,-14.3779
476,-524,15.9106,15.1875,0,0,0,0,0,0,0,-1,1700,1548,15.9107,-15.1876
483,-524,15.2776,16.2268,0,0,0,0,0,0,0,-1,1707,1548,15.2776,-16.2269
490,-524,15.2563,18.5848,0,0,0,0,0,0,0,-1,1714,1548,15.2564,-18.5848
497,-524,17.5173,22.6123,0,0,0,0,0,0,0,-1,1721,1548,17.5174,-22.6123
504,-524,16.8802,22.8333,0,0,0,0,0,0,0,-1,1728,1548,16.8803,-22.8333
511,-524,17.233,22.0846,0,0,0,0,0,0,0,-1,1735,1548,17.233,-22.0846
518,-524,17.2255,21.6329,0.00356763,0.00610933,-0.00316723,0.00825116,0.00142579,-0.976189,0.00509248,0.0251832,1742,1548,17.2255,-21.6329
525,-524,17.213,21.2152,0.00251266,0.00439331,-0.00219147,0.00583768,0.00106829,-0.98806,0.00358908,0.0150175,1749,1548,17.213,-21.2152
532,-524,17.2065,20.7498,0.00173532,0.00316324,-0.00152225,0.00413064,0.000767919,-1.00468,0.00253683,0.0105537,1756,1548,17.2066,-20.7498
539,-524,17.1879,20.2849,0.00135745,0.00216096,-0.0010938,0.00292445,0.000593955,-0.961399,0.0017849,0.0106471,1763,1548,17.1879,-20.2849
546,-524,17.1633,19.8593,0.00114168,0.00147442,-0.000850611,0.00217478,0.000441321,-0.881974,0.00132743,0.0146725,1770,1548,17.1634,-19.8592
553,-524,17.1638,19.4808,0.00107974,0.000939539,-0.000758466,0.00177134,0.000247942,-0.739316,0.00110754,0.0254519,1777,1548,17.1638,-19.4809
560,-524,17.2034,19.0481,0.00130451,0.000618433,-0.00084978,0.00187788,4.50643e-05,-0.593562,0.00123717,0.0342734,1784,1548,17.2033,-19.0481
567,-524,17.1487,18.5658,0.00202004,0.000177607,-0.00125465,0.00265535,-0.000457702,-0.468727,0.00194088,0.0189121,1791,1548,17.1486,-18.5658
574,-524,17.1316,18.0857,0.00283982,-4.69937e-05,-0.00176475,0.00367627,-0.00088345,-0.442615,0.00279231,0.0142925,1798,1548,17.1316,-18.0858
581,-524,17.1296,17.5986,0.00400192,-0.000275822,-0.00247499,0.00513419,-0.00140809,-0.42906,0.00397615,0.0157985,1805,1548,17.1297,-17.5986
588,-524,17.1729,17.1383,0.00560969,-0.000423357,-0.00353725,0.00724199,-0.00205566,-0.432343,0.00563951,0.0281994,1812,1548,17.1729,-17.1384
595,-524,17.2356,16.4762,0,0,0,0,0,0,0,-1,1819,1548,17.2356,-16.4762
602,-524,13.837,12.0682,0,0,0,0,0,0,0,-1,1826,1548,13.837,-12.0683
609,-524,13.0056,10.5138,0,0,0,0,0,0,0,-1,1833,1548,13.0056,-10.5138
616,-524,11.6941,8.65515,0,0,0,0,0,0,0,-1,1840,1548,11.6941,-8.65514
623,-524,9.38452,5.15356,0,0,0,0,0,0,0,-1,1847,1548,9.38456,-5.15359
630,-524,11.0541,3.57434,0,0,0,0,0,0,0,-1,1854,1548,11.0541,-3.57438
637,-524,11.6067,3.20728,0,0,0,0,0,0,0,-1,1861,1548,11.6067,-3.20724
644,-524,12.2134,0.727173,0,0,0,0,0,0,0,-1,1868,1548,12.2134,-0.727222
651,-524,0,0,0,0,0,0,0,0,0,-1,1875,1548,0,0
658,-524,0,0,0,0,0,0,0,0,0,-1,1882,1548,0,0
665,-524,0,0,0,0,0,0,0,0,0,-1,1889,1548,0,0
672,-524,0,0,0,0,0,0,0,0,0,-1,1896,1548,0,0
679,-524,0,0,0,0,0,0,0,0,0,-1,1903,1548,0,0
686,-524,0,0,0,0,0,0,0,0,0,-1,1910,1548,0,0
693,-524,0,0,0,0,0,0,0,0,0,-1,1917,1548,0,0
700,-524,0,0,0,0,0,0,0,0,0,-1,1924,1548,0,0
707,-524,0,0,0,0,0,0,0,0,0,-1,1931,1548,0,0
714,-524,0,0,0,0,0,0,0,0,0,-1,1938,1548,0,0
721,-524,0,0,0,0,0,0,0,0,0,-1,1945,1548,0,0
728,-524,0,0,0,0,0,0,0,0,0,-1,1952,1548,0,0
735,-524,0,0,0,0,0,0,0,0,0,-1,1959,1548,0,0
742,-524,0,0,0,0,0,0,0,0,0,-1,1966,1548,0,0
749,-524,0,0,0,0,0,0,0,0,0,-1,1973,1548,0,0
756,-524,0,0,0,0,0,0,0,0,0,-1,1980,1548,0,0
763,-524,0,0,0,0,0,0,0,0,0,-1,1987,1548,0,0
770,-524,0,0,0,0,0,0,0,0,0,-1,1994,1548,0,0
777,-524,0,0,0,0,0,0,0,0,0,-1,2001,1548,0,0
784,-524,0,0,0,0,0,0,0,0,0,-1,2008,1548,0,0
791,-524,0,0,0,0,0,0,0,0,0,-1,2015,1548,0,0
798,-524,0,0,0,0,0,0,0,0,0,-1,2022,1548,0,0
805,-524,0,0,0,0,0,0,0,0,0,-1,2029,1548,0,0
812,-524,0,0,0,0,0,0,0,0,0,-1,2036,1548,0,0
-700,-531,0,0,0,0,0,0,0,0,0,-1,524,1555,0,0
-693,-531,0,0,0,0,0,0,0,0,0,-1,531,1555,0,0
-686,-531,0,0,0,0,0,0,0,0,0,-1,538,1555,0,0
-679,-531,0,0,0,0,0,0,0,0,0,-1,545,1555,0,0
-672,-531,0,0,0,0,0,0,0,0,0,-1,552,1555,0,0
-665,-531,0,0,0,0,0,0,0,0,0,-1,559,1555,0,0
-658,-531,0,0,0,0,0,0,0,0,0,-1,566,1555,0,0
-651,-531,0,0,0,0,0,0,0,0,0,-1,573,1555,0,0
-644,-531,0,0,0,0,0,0,0,0,0,-1,580,1555,0,0
-637,-531,0,0,0,0,0,0,0,0,0,-1,587,1555,0,0
-630,-531,0,0,0,0,0,0,0,0,0,-1,594,1555,0,0
-623,-531,0,0,0,0,0,0,0,0,0,-1,601,1555,0,0
-616,-531,0,0,0,0,0,0,0,0,0,-1,608,1555,0,0
-609,-531,0,0,0,0,0,0,0,0,0,-1,615,1555,0,0
-602,-531,0,0,0,0,0,0,0,0,0,-1,622,1555,0,0
-595,-531,0,0,0,0,0,0,0,0,0,-1,629,1555,0,0
-588,-531,0,0,0,0,0,0,0,0,0,-1,636,1555,0,0
-581,-531,0,0,0,0,0,0,0,0,0,-1,643,1555,0,0
-574,-531,0,0,0,0,0,0,0,0,0,-1,650,1555,0,0
-567,-531,0,0,0,0,0,0,0,0,0,-1,657,1555,0,0
-560,-531,0,0,0,0,0,0,0,0,0,-1,664,1555,0,0
-553,-531,0,0,0,0,0,0,0,0,0,-1,671,1555,0,0
-546,-531,0,0,0,0,0,0,0,0,0,-1,678,1555,0,0
-539,-531,0,0,0,0,0,0,0,0,0,-1,685,1555,0,0
-532,-531,0,0,0,0,0,0,0,0,0,-1,692,1555,0,0
-525,-531,0,0,0,0,0,0,0,0,0,-1,699,1555,0,0
-518,-531,-1.63983,4.03821,0,0,0,0,0,0,0,-1,706,1555,-1.63982,-4.03821
-511,-531,-2.9682,8.07483,0,0,0,0,0,0,0,-1,713,1555,-2.9682,-8.07479
-504,-531,-2.95978,0.557861,0,0,0,0,0,0,0,-1,720,1555,-2.95978,-0.557917
-497,-531,-2.46039,8.07422,0,0,0,0,0,0,0,-1,727,1555,-2.46039,-8.07423
-490,-531,-0.423462,7.92065,0,0,0,0,0,0,0,-1,734,1555,-0.42344,-7.92066
-483,-531,-2.32495,13.3652,0,0,0,0,0,0,0,-1,741,1555,-2.32493,-13.3653
-476,-531,-2.20154,14.8774,0,0,0,0,0,0,0,-1,748,1555,-2.20156,-14.8774
-469,-531,-2.82532,15.5305,0.0393736,-0.0123015,-0.00720252,0.0403587,-0.0132867,-0.13593,0.03226,0.043116,755,1555,-2.82532,-15.5305
-462,-531,-1.94208,15.5824,0.0293957,-0.00867113,-0.00602947,0.0303279,-0.00960332,-0.153391,0.024067,0.0444705,762,1555,-1.94211,-15.5823
-455,-531,-2.08575,15.9948,0.0209922,-0.00589779,-0.0048592,0.0218434,-0.00674894,-0.173403,0.0172575,0.0355742,769,1555,-2.08576,-15.9948
-448,-531,-2.02136,16.2885,0.0141395,-0.00395957,-0.00382254,0.0149138,-0.00473377,-0.199834,0.0118402,0.0162705,776,1555,-2.02137,-16.2885
-441,-531,-2.08447,16.7512,0.00905352,-0.00247361,-0.00278835,0.00969257,-0.00311267,-0.225298,0.00771159,0.0122635,783,1555,-2.0845,-16.7512
-434,-531,-2.0788,17.2552,0.00555918,-0.00119676,-0.00173718,0.0059797,-0.00161727,-0.237498,0.00462088,0.0120254,790,1555,-2.07877,-17.2553
-427,-531,-2.09772,17.7382,0.00338181,-4.25155e-05,-0.00063821,0.00349689,-0.000157595,-0.178399,0.00238553,0.0134302,797,1555,-2.09771,-17.7382
-420,-531,-2.14154,18.2391,0.00254767,0.00105924,0.000340792,0.00262198,0.000984923,0.214711,0.00152933,0.012543,804,1555,-2.14157,-18.2392
-413,-531,-2.16638,18.7114,0.00144959,0.00243931,0.00131344,0.00334802,0.000540885,0.965557,0.00207535,0.0106783,811,1555,-2.1664,-18.7115
-406,-531,-2.17938,19.1658,0.00168861,0.00338492,0.00261456,0.00528545,-0.000211926,0.942242,0.00359636,0.0112662,818,1555,-2.17938,-19.1658
-399,-531,-2.16913,19.6328,0.00281979,0.00464605,0.00343768,0.00728981,0.000176028,0.915213,0.00480227,0.0126069,825,1555,-2.16911,-19.6329
-392,-531,-2.16345,20.1152,0.00367276,0.00617997,0.00407003,0.00918508,0.000667646,0.934792,0.00591341,0.0169553,832,1555,-2.16346,-20.1152
-385,-531,-2.22528,20.6261,0.00448483,0.00767562,0.00477619,0.0111158,0.00104462,0.946588,0.00708805,0.0153062,839,1555,-2.22527,-20.6261
-378,-531,-2.24463,21.0376,0.00505618,0.0094505,0.00526268,0.0129563,0.00155042,0.983148,0.00816989,0.0170136,846,1555,-2.24462,-21.0376
-371,-531,-2.14056,21.6519,0.00533653,0.0110511,0.00552471,0.0144137,0.00197397,1.02405,0.00902339,0.0333433,853,1555,-2.14054,-21.6518
-364,-531,-1.87872,22.5553,0,0,0,0,0,0,0,-1,860,1555,-1.87873,-22.5553
-357,-531,-2.11029,22.6307,0,0,0,0,0,0,0,-1,867,1555,-2.1103,-22.6307
-350,-531,-2.56384,23.3032,0,0,0,0,0,0,0,-1,874,1555,-2.56384,-23.3032
-343,-531,-2.61292,23.8396,0,0,0,0,0,0,0,-1,881,1555,-2.6129,-23.8396
-336,-531,-2.78046,24.5206,0,0,0,0,0,0,0,-1,888,1555,-2.78047,-24.5206
-329,-531,-2.70654,24.9875,0,0,0,0,0,0,0,-1,895,1555,-2.70654,-24.9876
-322,-531,-0.392944,23.2938,0,0,0,0,0,0,0,-1,902,1555,-0.392955,-23.2939
-315,-531,-3.1756,23.0961,0,0,0,0,0,0,0,-1,909,1555,-3.17559,-23.096
-308,-531,-1.66455,19.0624,0,0,0,0,0,0,0,-1,916,1555,-1.66455,-19.0623
-301,-531,-2.02405,18.8912,0,0,0,0,0,0,0,-1,923,1555,-2.02407,-18.8913
-294,-531,-1.3244,8.1825,0,0,0,0,0,0,0,-1,930,1555,-1.3244,-8.18251
-287,-531,-1.78192,10.1661,0,0,0,0,0,0,0,-1,937,1555,-1.78192,-10.1661
-280,-531,-2.14508,10.3945,0,0,0,0,0,0,0,-1,944,1555,-2.14506,-10.3945
-273,-531,-2.50818,10.6229,0,0,0,0,0,0,0,-1,951,1555,-2.5082,-10.6229
-266,-531,-4.97742,17.9215,0,0,0,0,0,0,0,-1,958,1555,-4.97744,-17.9215
-259,-531,0,0,0,0,0,0,0,0,0,-1,965,1555,0,0
-252,-531,0,0,0,0,0,0,0,0,0,-1,972,1555,0,0
-245,-531,0,0,0,0,0,0,0,0,0,-1,979,1555,0,0
-238,-531,0,0,0,0,0,0,0,0,0,-1,986,1555,0,0
-231,-531,0,0,0,0,0,0,0,0,0,-1,993,1555,0,0
-224,-531,0,0,0,0,0,0,0,0,0,-1,1000,1555,0,0
-217,-531,0,0,0,0,0,0,0,0,0,-1,1007,1555,0,0
-210,-531,0,0,0,0,0,0,0,0,0,-1,1014,1555,0,0
-203,-531,0,0,0,0,0,0,0,0,0,-1,1021,1555,0,0
-196,-531,0,0,0,0,0,0,0,0,0,-1,1028,1555,0,0
-189,-531,0,0,0,0,0,0,0,0,0,-1,1035,1555,0,0
-182,-531,0,0,0,0,0,0,0,0,0,-1,1042,1555,0,0
-175,-531,0,0,0,0,0,0,0,0,0,-1,1049,1555,0,0
-168,-531,0,0,0,0,0,0,0,0,0,-1,1056,1555,0,0
-161,-531,0,0,0,0,0,0,0,0,0,-1,1063,1555,0,0
-154,-531,0,0,0,0,0,0,0,0,0,-1,1070,1555,0,0
-147,-531,0,0,0,0,0,0,0,0,0,-1,1077,1555,0,0
-140,-531,0,0,0,0,0,0,0,0,0,-1,1084,1555,0,0
-133,-531,0,0,0,0,0,0,0,0,0,-1,1091,1555,0,0
-126,-531,0,0,0,0,0,0,0,0,0,-1,1098,1555,0,0
-119,-531,0,0,0,0,0,0,0,0,0,-1,1105,1555,0,0
-112,-531,0,0,0,0,0,0,0,0,0,-1,1112,1555,0,0
-105,-531,0,0,0,0,0,0,0,0,0,-1,1119,1555,0,0
-98,-531,0,0,0,0,0,0,0,0,0,-1,1126,1555,0,0
-91,-531,0,0,0,0,0,0,0,0,0,-1,1133,1555,0,0
-84,-531,0,0,0,0,0,0,0,0,0,-1,1140,1555,0,0
-77,-531,0,0,0,0,0,0,0,0,0,-1,1147,1555,0,0
-70,-531,0,0,0,0,0,0,0,0,0,-1,1154,1555,0,0
-63,-531,0,0,0,0,0,0,0,0,0,-1,1161,1555,0,0
-56,-531,0,0,0,0,0,0,0,0,0,-1,1168,1555,0,0
-49,-531,0,0,0,0,0,0,0,0,0,-1,1175,1555,0,0
-42,-531,0,0,0,0,0,0,0,0,0,-1,1182,1555,0,0
-35,-531,0,0,0,0,0,0,0,0,0,-1,1189,1555,0,0
-28,-531,0,0,0,0,0,0,0,0,0,-1,1196,1555,0,0
-21,-531,0,0,0,0,0,0,0,0,0,-1,1203,1555,0,0
-14,-531,0,0,0,0,0,0,0,0,0,-1,1210,1555,0,0
-7,-531,0,0,0,0,0,0,0,0,0,-1,1217,1555,0,0
0,-531,0,0,0,0,0,0,0,0,0,-1,1224,1555,0,0
7,-531,0,0,0,0,0,0,0,0,0,-1,1231,1555,0,0
14,-531,0,0,0,0,0,0,0,0,0,-1,1238,1555,0,0
21,-531,0,0,0,0,0,0,0,0,0,-1,1245,1555,0,0
28,-531,0,0,0,0,0,0,0,0,0,-1,1252,1555,0,0
35,-531,0,0,0,0,0,0,0,0,0,-1,1259,1555,0,0
42,-531,0,0,0,0,0,0,0,0,0,-1,1266,1555,0,0
49,-531,0,0,0,0,0,0,0,0,0,-1,1273,1555,0,0
56,-531,0,0,0,0,0,0,0,0,0,-1,1280,1555,0,0
63,-531,0,0,0,0,0,0,0,0,0,-1,1287,1555,0,0
70,-531,0,0,0,0,0,0,0,0,0,-1,1294,1555,0,0
77,-531,0,0,0,0,0,0,0,0,0,-1,1301,1555,0,0
84,-531,0,0,0,0,0,0,0,0,0,-1,1308,1555,0,0
91,-531,0,0,0,0,0,0,0,0,0,-1,1315,1555,0,0
98,-531,0,0,0,0,0,0,0,0,0,-1,1322,1555,0,0
105,-531,0,0,0,0,0,0,0,0,0,-1,1329,1555,0,0
112,-531,0,0,0,0,0,0,0,0,0,-1,1336,1555,0,0
119,-531,0,0,0,0,0,0,0,0,0,-1,1343,1555,0,0
126,-531,0,0,0,0,0,0,0,0,0,-1,1350,1555,0,0
133,-531,0,0,0,0,0,0,0,0,0,-1,1357,1555,0,0
140,-531,0,0,0,0,0,0,0,0,0,-1,1364,1555,0,0
147,-531,0,0,0,0,0,0,0,0,0,-1,1371,1555,0,0
154,-531,0,0,0,0,0,0,0,0,0,-1,1378,1555,0,0
161,-531,0,0,0,0,0,0,0,0,0,-1,1385,1555,0,0
168,-531,0,0,0,0,0,0,0,0,0,-1,1392,1555,0,0
175,-531,0,0,0,0,0,0,0,0,0,-1,1399,1555,0,0
182,-531,0,0,0,0,0,0,0,0,0,-1,1406,1555,0,0
189,-531,0,0,0,0,0,0,0,0,0,-1,1413,1555,0,0
196,-531,0,0,0,0,0,0,0,0,0,-1,1420,1555,0,0
203,-531,0,0,0,0,0,0,0,0,0,-1,1427,1555,0,0
210,-531,0,0,0,0,0,0,0,0,0,-1,1434,1555,0,0
217,-531,0,0,0,0,0,0,0,0,0,-1,1441,1555,0,0
224,-531,0,0,0,0,0,0,0,0,0,-1,1448,1555,0,0
231,-531,0,0,0,0,0,0,0,0,0,-1,1455,1555,0,0
238,-531,0,0,0,0,0,0,0,0,0,-1,1462,1555,0,0
245,-531,0,0,0,0,0,0,0,0,0,-1,1469,1555,0,0
252,-531,0,0,0,0,0,0,0,0,0,-1,1476,1555,0,0
259,-531,0,0,0,0,0,0,0,0,0,-1,1483,1555,0,0
266,-531,0,0,0,0,0,0,0,0,0,-1,1490,1555,0,0
273,-531,0,0,0,0,0,0,0,0,0,-1,1497,1555,0,0
280,-531,0,0,0,0,0,0,0,0,0,-1,1504,1555,0,0
287,-531,0,0,0,0,0,0,0,0,0,-1,1511,1555,0,0
294,-531,0,0,0,0,0,0,0,0,0,-1,1518,1555,0,0
301,-531,0,0,0,0,0,0,0,0,0,-1,1525,1555,0,0
308,-531,0,0,0,0,0,0,0,0,0,-1,1532,1555,0,0
315,-531,0,0,0,0,0,0,0,0,0,-1,1539,1555,0,0
322,-531,0,0,0,0,0,0,0,0,0,-1,1546,1555,0,0
329,-531,0,0,0,0,0,0,0,0,0,-1,1553,1555,0,0
336,-531,0,0,0,0,0,0,0,0,0,-1,1560,1555,0,0
343,-531,0,0,0,0,0,0,0,0,0,-1,1567,1555,0,0
350,-531,0,0,0,0,0,0,0,0,0,-1,1574,1555,0,0
357,-531,0,0,0,0,0,0,0,0,0,-1,1581,1555,0,0
364,-531,0,0,0,0,0,0,0,0,0,-1,1588,1555,0,0
371,-531,0,0,0,0,0,0,0,0,0,-1,1595,1555,0,0
378,-531,0,0,0,0,0,0,0,0,0,-1,1602,1555,0,0
385,-531,3.48169,1.78625,0,0,0,0,0,0,0,-1,1609,1555,3.48165,-1.78624
392,-531,10.8781,9.09204,0,0,0,0,0,0,0,-1,1616,1555,10.8781,-9.09205
399,-531,8.26306,5.29602,0,0,0,0,0,0,0,-1,1623,1555,8.26302,-5.29607
406,-531,8.26147,5.42712,0,0,0,0,0,0,0,-1,1630,1555,8.26145,-5.42716
413,-531,8.20618,5.75012,0,0,0,0,0,0,0,-1,1637,1555,8.20619,-5.75017
420,-531,7.64868,7.09558,0,0,0,0,0,0,0,-1,1644,1555,7.64867,-7.09564
427,-531,9.93054,11.8412,0,0,0,0,0,0,0,-1,1651,1555,9.93059,-11.8412
434,-531,10.244,11.7072,0,0,0,0,0,0,0,-1,1658,1555,10.244,-11.7071
441,-531,11.4528,12.9397,0,0,0,0,0,0,0,-1,1665,1555,11.4528,-12.9397
448,-531,11.928,18.8029,0,0,0,0,0,0,0,-1,1672,1555,11.928,-18.8028
455,-531,14.4877,9.67065,0,0,0,0,0,0,0,-1,1679,1555,14.4876,-9.67066
462,-531,13.5253,12.2002,0,0,0,0,0,0,0,-1,1686,1555,13.5252,-12.2002
469,-531,15.5087,15.7894,0,0,0,0,0,0,0,-1,1693,1555,15.5086,-15.7895
476,-531,14.6582,16.2264,0,0,0,0,0,0,0,-1,1700,1555,14.6582,-16.2264
483,-531,14.755,18.5994,0,0,0,0,0,0,0,-1,1707,1555,14.7551,-18.5994
490,-531,15.4741,22.5215,0,0,0,0,0,0,0,-1,1714,1555,15.4741,-22.5214
497,-531,16.5469,23.302,0,0,0,0,0,0,0,-1,1721,1555,16.5469,-23.302
504,-531,16.6654,22.6276,0.00572797,0.00917358,-0.00537695,0.013097,0.00180456,-0.940434,0.00819629,0.0328436,1728,1555,16.6654,-22.6276
511,-531,16.7643,22.0917,0.00468198,0.00686338,-0.00409452,0.01001,0.00153538,-0.915566,0.00622497,0.0155172,1735,1555,16.7643,-22.0917
518,-531,16.7778,21.6284,0.00366663,0.00492599,-0.00295578,0.00731842,0.0012742,-0.890346,0.00451455,0.0140999,1742,1555,16.7779,-21.6285
525,-531,16.7715,21.2184,0.00266321,0.00337389,-0.00203498,0.00508432,0.000952785,-0.871835,0.00312082,0.0141748,1749,1555,16.7715,-21.2184
532,-531,16.7793,20.7756,0.00190689,0.00227419,-0.0014153,0.0035177,0.000663379,-0.849919,0.00215826,0.0110693,1756,1555,16.7793,-20.7756
539,-531,16.7407,20.3187,0.00149579,0.00141091,-0.00102392,0.00247815,0.000428546,-0.764687,0.0015294,0.0121055,1763,1555,16.7407,-20.3187
546,-531,16.6759,19.8756,0.00119047,0.000826783,-0.000780726,0.00181025,0.000207005,-0.670979,0.00114409,0.015583,1770,1555,16.6759,-19.8756
553,-531,16.6854,19.5359,0.00103045,0.000389456,-0.000680188,0.00146187,-4.19602e-05,-0.565231,0.000988862,0.032528,1777,1555,16.6854,-19.5359
560,-531,16.7498,19.1049,0.00118244,0.00017267,-0.000779402,0.0016062,-0.000251087,-0.49799,0.00116356,0.0382561,1784,1555,16.7498,-19.1048
567,-531,16.675,18.5414,0.00184988,-0.000190436,-0.00119095,0.00239787,-0.000738428,-0.431245,0.00189334,0.0209522,1791,1555,16.675,-18.5414
574,-531,16.6644,18.1056,0.0026642,-0.000334813,-0.00172693,0.00345179,-0.0011224,-0.427884,0.00275269,0.0147211,1798,1555,16.6644,-18.1056
581,-531,16.7051,17.6254,0.00397267,-0.000445792,-0.0025708,0.00515308,-0.00162621,-0.430448,0.00408677,0.0189093,1805,1555,16.705,-17.6254
588,-531,16.7683,17.0811,0.00591784,-0.000450718,-0.00389805,0.00776689,-0.00229977,-0.44292,0.006091,0.0351436,1812,1555,16.7684,-17.081
595,-531,16.7844,16.4734,0,0,0,0,0,0,0,-1,1819,1555,16.7844,-16.4733
602,-531,13.701,11.8346,0,0,0,0,0,0,0,-1,1826,1555,13.701,-11.8347
609,-531,10.9072,8.50903,0,0,0,0,0,0,0,-1,1833,1555,10.9073,-8.50902
616,-531,10.5723,7.17859,0,0,0,0,0,0,0,-1,1840,1555,10.5723,-7.17855
623,-531,10.0674,5.08984,0,0,0,0,0,0,0,-1,1847,1555,10.0674,-5.08981
630,-531,11.672,3.18909,0,0,0,0,0,0,0,-1,1854,1555,11.672,-3.18904
637,-531,13.2546,1.38965,0,0,0,0,0,0,0,-1,1861,1555,13.2547,-1.3896
644,-531,0,0,0,0,0,0,0,0,0,-1,1868,1555,0,0
651,-531,0,0,0,0,0,0,0,0,0,-1,1875,1555,0,0
658,-531,0,0,0,0,0,0,0,0,0,-1,1882,1555,0,0
665,-531,0,0,0,0,0,0,0,0,0,-1,1889,1555,0,0
672,-531,0,0,0,0,0,0,0,0,0,-1,1896,1555,0,0
679,-531,0,0,0,0,0,0,0,0,0,-1,1903,1555,0,0
686,-531,0,0,0,0,0,0,0,0,0,-1,1910,1555,0,0
693,-531,0,0,0,0,0,0,0,0,0,-1,1917,1555,0,0
700,-531,0,0,0,0,0,0,0,0,0,-1,1924,1555,0,0
707,-531,0,0,0,0,0,0,0,0,0,-1,1931,1555,0,0
714,-531,0,0,0,0,0,0,0,0,0,-1,1938,1555,0,0
721,-531,0,0,0,0,0,0,0,0,0,-1,1945,1555,0,0
728,-531,0,0,0,0,0,0,0,0,0,-1,1952,1555,0,0
735,-531,0,0,0,0,0,0,0,0,0,-1,1959,1555,0,0
742,-531,0,0,0,0,0,0,0,0,0,-1,1966,1555,0,0
749,-531,0,0,0,0,0,0,0,0,0,-1,1973,1555,0,0
756,-531,0,0,0,0,0,0,0,0,0,-1,1980,1555,0,0
763,-531,0,0,0,0,0,0,0,0,0,-1,1987,1555,0,0
770,-531,0,0,0,0,0,0,0,0,0,-1,1994,1555,0,0
777,-531,0,0,0,0,0,0,0,0,0,-1,2001,1555,0,0
784,-531,0,0,0,0,0,0,0,0,0,-1,2008,1555,0,0
791,-531,0,0,0,0,0,0,0,0,0,-1,2015,1555,0,0
798,-531,0,0,0,0,0,0,0,0,0,-1,2022,1555,0,0
805,-531,0,0,0,0,0,0,0,0,0,-1,2029,1555,0,0
812,-531,0,0,0,0,0,0,0,0,0,-1,2036,1555,0,0
-700,-538,0,0,0,0,0,0,0,0,0,-1,524,1562,0,0
-693,-538,0,0,0,0,0,0,0,0,0,-1,531,1562,0,0
-686,-538,0,0,0,0,0,0,0,0,0,-1,538,1562,0,0
-679,-538,0,0,0,0,0,0,0,0,0,-1,545,1562,0,0
-672,-538,0,0,0,0,0,0,0,0,0,-1,552,1562,0,0
-665,-538,0,0,0,0,0,0,0,0,0,-1,559,1562,0,0
-658,-538,0,0,0,0,0,0,0,0,0,-1,566,1562,0,0
-651,-538,0,0,0,0,0,0,0,0,0,-1,573,1562,0,0
-644,-538,0,0,0,0,0,0,0,0,0,-1,580,1562,0,0
-637,-538,0,0,0,0,0,0,0,0,0,-1,587,1562,0,0
-630,-538,0,0,0,0,0,0,0,0,0,-1,594,1562,0,0
-623,-538,0,0,0,0,0,0,0,0,0,-1,601,1562,0,0
-616,-538,0,0,0,0,0,0,0,0,0,-1,608,1562,0,0
-609,-538,0,0,0,0,0,0,0,0,0,-1,615,1562,0,0
-602,-538,0,0,0,0,0,0,0,0,0,-1,622,1562,0,0
-595,-538,0,0,0,0,0,0,0,0,0,-1,629,1562,0,0
-588,-538,0,0,0,0,0,0,0,0,0,-1,636,1562,0,0
-581,-538,0,0,0,0,0,0,0,0,0,-1,643,1562,0,0
-574,-538,0,0,0,0,0,0,0,0,0,-1,650,1562,0,0
-567,-538,0,0,0,0,0,0,0,0,0,-1,657,1562,0,0
-560,-538,0,0,0,0,0,0,0,0,0,-1,664,1562,0,0
-553,-538,0,0,0,0,0,0,0,0,0,-1,671,1562,0,0
-546,-538,0,0,0,0,0,0,0,0,0,-1,678,1562,0,0
-539,-538,0,0,0,0,0,0,0,0,0,-1,685,1562,0,0
-532,-538,0,0,0,0,0,0,0,0,0,-1,692,1562,0,0
-525,-538,0,0,0,0,0,0,0,0,0,-1,699,1562,0,0
-518,-538,0,0,0,0,0,0,0,0,0,-1,706,1562,0,0
-511,-538,-2.6582,-1.54321,0,0,0,0,0,0,0,-1,713,1562,-2.65821,1.54327
-504,-538,-2.66455,-0.71167,0,0,0,0,0,0,0,-1,720,1562,-2.66456,0.711667
-497,-538,-0.763855,6.77747,0,0,0,0,0,0,0,-1,727,1562,-0.76385,-6.77743
-490,-538,-2.70453,8.01465,0,0,0,0,0,0,0,-1,734,1562,-2.70451,-8.0147
-483,-538,-0.933533,7.84644,0,0,0,0,0,0,0,-1,741,1562,-0.933548,-7.84638
-476,-538,-3.03552,15.3466,0,0,0,0,0,0,0,-1,748,1562,-3.03552,-15.3466
-469,-538,-3.18683,16.0001,0.0554386,-0.0124469,-0.00833029,0.0564459,-0.0134541,-0.120333,0.0428256,0.049714,755,1562,-3.18682,-16.0002
-462,-538,-1.35126,15.2233,0.0401904,-0.00836431,-0.00699006,0.0411767,-0.00935058,-0.140171,0.031041,0.0456538,762,1562,-1.35127,-15.2232
-455,-538,-1.64099,16.1615,0,0,0,0,0,0,0,-1,769,1562,-1.64098,-16.1615
-448,-538,-1.48364,16.3494,0.018233,-0.00357224,-0.00460615,0.0191661,-0.00450532,-0.199867,0.0145141,0.018952,776,1562,-1.48363,-16.3494
-441,-538,-1.58081,16.8667,0.0111822,-0.002218,-0.00361124,0.0120935,-0.00312924,-0.247172,0.00928289,0.0205501,783,1562,-1.58081,-16.8667
-434,-538,-1.64148,17.2842,0.0064121,-0.00120443,-0.00261036,0.00722086,-0.00201318,-0.300446,0.00560677,0.0130949,790,1562,-1.64149,-17.2841
-427,-538,-1.66022,17.785,0.003425,-0.000325493,-0.00158261,0.00400357,-0.00090406,-0.350484,0.00301591,0.013459,797,1562,-1.66025,-17.785
-420,-538,-1.70209,18.2745,0.00210619,0.000555963,-0.000701288,0.00237635,0.000285798,-0.367718,0.00149809,0.0175579,804,1562,-1.7021,-18.2745
-413,-538,-1.74182,18.7354,0.000309131,0.00181645,0.000149246,0.00183109,0.000294496,1.47305,0.00113536,0.018199,811,1562,-1.7418,-18.7353
-406,-538,-1.70691,19.1947,0.000114633,0.00240765,0.00146354,0.00312029,-0.000598006,1.11766,0.00230553,0.0148681,818,1562,-1.70693,-19.1947
-399,-538,-1.69971,19.6711,0.00127706,0.00341414,0.00216942,0.00476389,-7.26916e-05,1.01423,0.00320043,0.0133142,825,1562,-1.69969,-19.6712
-392,-538,-1.70886,20.1355,0.00216864,0.00449955,0.00265199,0.00623087,0.00043732,0.992427,0.00401609,0.0146983,832,1562,-1.70886,-20.1355
-385,-538,-1.74524,20.6171,0.00301088,0.00563992,0.00321568,0.00779938,0.000851419,0.979427,0.0049403,0.0129281,839,1562,-1.74526,-20.6171
-378,-538,-1.75079,21.0837,0.00368433,0.00703295,0.00366559,0.00938851,0.00132876,0.99963,0.00586646,0.0101721,846,1562,-1.75078,-21.0837
-371,-538,-1.76129,21.5306,0.00407533,0.00827145,0.00387944,0.0105838,0.00176295,1.03328,0.00654782,0.0135332,853,1562,-1.76129,-21.5307
-364,-538,-1.70697,22.0472,0.0043413,0.00951261,0.00388681,0.0115952,0.00225866,1.0789,0.00709809,0.0173482,860,1562,-1.70699,-22.0473
-357,-538,-1.70081,22.567,0.00449455,0.0108676,0.00370314,0.0125664,0.00279566,1.14067,0.00761868,0.0360256,867,1562,-1.70083,-22.567
-350,-538,-1.88586,22.9978,0.00458588,0.0123205,0.00337929,0.0135889,0.00331746,1.21172,0.00818082,0.0419599,874,1562,-1.88584,-22.9978
-343,-538,-1.95557,23.5654,0.00445182,0.0137415,0.00258528,0.0144125,0.00378082,1.31685,0.00862872,0.0425951,881,1562,-1.95556,-23.5655
-336,-538,-2.05243,24.0812,0,0,0,0,0,0,0,-1,888,1562,-2.05244,-24.0812
-329,-538,-2.09265,24.276,0,0,0,0,0,0,0,-1,895,1562,-2.09264,-24.276
-322,-538,-2.18591,24.3525,0,0,0,0,0,0,0,-1,902,1562,-2.18594,-24.3525
-315,-538,-2.25354,22.3262,0,0,0,0,0,0,0,-1,909,1562,-2.25351,-22.3262
-308,-538,-2.52136,21.9954,0,0,0,0,0,0,0,-1,916,1562,-2.52134,-21.9954
-301,-538,-0.452393,18.5101,0,0,0,0,0,0,0,-1,923,1562,-0.452367,-18.5102
-294,-538,1.23138,14.0757,0,0,0,0,0,0,0,-1,930,1562,1.23137,-14.0757
-287,-538,-2.60419,10.2361,0,0,0,0,0,0,0,-1,937,1562,-2.6042,-10.2361
-280,-538,-2.93475,10.5106,0,0,0,0,0,0,0,-1,944,1562,-2.93475,-10.5106
-273,-538,-3.26532,10.785,0,0,0,0,0,0,0,-1,951,1562,-3.26531,-10.785
-266,-538,-5.03412,15.9951,0,0,0,0,0,0,0,-1,958,1562,-5.03409,-15.9951
-259,-538,-5.89642,16.5184,0,0,0,0,0,0,0,-1,965,1562,-5.89644,-16.5184
-252,-538,0,0,0,0,0,0,0,0,0,-1,972,1562,0,0
-245,-538,0,0,0,0,0,0,0,0,0,-1,979,1562,0,0
-238,-538,0,0,0,0,0,0,0,0,0,-1,986,1562,0,0
-231,-538,0,0,0,0,0,0,0,0,0,-1,993,1562,0,0
-224,-538,0,0,0,0,0,0,0,0,0,-1,1000,1562,0,0
-217,-538,0,0,0,0,0,0,0,0,0,-1,1007,1562,0,0
-210,-538,0,0,0,0,0,0,0,0,0,-1,1014,1562,0,0
-203,-538,0,0,0,0,0,0,0,0,0,-1,1021,1562,0,0
-196,-538,0,0,0,0,0,0,0,0,0,-1,1028,1562,0,0
-189,-538,0,0,0,0,0,0,0,0,0,-1,1035,1562,0,0
-182,-538,0,0,0,0,0,0,0,0,0,-1,1042,1562,0,0
-175,-538,0,0,0,0,0,0,0,0,0,-1,1049,1562,0,0
-168,-538,0,0,0,0,0,0,0,0,0,-1,1056,1562,0,0
-161,-538,0,0,0,0,0,0,0,0,0,-1,1063,1562,0,0
-154,-538,0,0,0,0,0,0,0,0,0,-1,1070,1562,0,0
-147,-538,0,0,0,0,0,0,0,0,0,-1,1077,1562,0,0
-140,-538,0,0,0,0,0,0,0,0,0,-1,1084,1562,0,0
-133,-538,0,0,0,0,0,0,0,0,0,-1,1091,1562,0,0
-126,-538,0,0,0,0,0,0,0,0,0,-1,1098,1562,0,0
-119,-538,0,0,0,0,0,0,0,0,0,-1,1105,1562,0,0
-112,-538,0,0,0,0,0,0,0,0,0,-1,1112,1562,0,0
-105,-538,0,0,0,0,0,0,0,0,0,-1,1119,1562,0,0
-98,-538,0,0,0,0,0,0,0,0,0,-1,1126,1562,0,0
-91,-538,0,0,0,0,0,0,0,0,0,-1,1133,1562,0,0
-84,-538,0,0,0,0,0,0,0,0,0,-1,1140,1562,0,0
-77,-538,0,0,0,0,0,0,0,0,0,-1,1147,1562,0,0
-70,-538,0,0,0,0,0,0,0,0,0,-1,1154,1562,0,0
-63,-538,0,0,0,0,0,0,0,0,0,-1,1161,1562,0,0
-56,-538,0,0,0,0,0,0,0,0,0,-1,1168,1562,0,0
-49,-538,0,0,0,0,0,0,0,0,0,-1,1175,1562,0,0
-42,-538,0,0,0,0,0,0,0,0,0,-1,1182,1562,0,0
-35,-538,0,0,0,0,0,0,0,0,0,-1,1189,1562,0,0
-28,-538,0,0,0,0,0,0,0,0,0,-1,1196,1562,0,0
-21,-538,0,0,0,0,0,0,0,0,0,-1,1203,1562,0,0
-14,-538,0,0,0,0,0,0,0,0,0,-1,1210,1562,0,0
-7,-538,0,0,0,0,0,0,0,0,0,-1,1217,1562,0,0
0,-538,0,0,0,0,0,0,0,0,0,-1,1224,1562,0,0
7,-538,0,0,0,0,0,0,0,0,0,-1,1231,1562,0,0
14,-538,0,0,0,0,0,0,0,0,0,-1,1238,1562,0,0
21,-538,0,0,0,0,0,0,0,0,0,-1,1245,1562,0,0
28,-538,0,0,0,0,0,0,0,0,0,-1,1252,1562,0,0
35,-538,0,0,0,0,0,0,0,0,0,-1,1259,1562,0,0
42,-538,0,0,0,0,0,0,0,0,0,-1,1266,1562,0,0
49,-538,0,0,0,0,0,0,0,0,0,-1,1273,1562,0,0
56,-538,0,0,0,0,0,0,0,0,0,-1,1280,1562,0,0
63,-538,0,0,0,0,0,0,0,0,0,-1,1287,1562,0,0
70,-538,0,0,0,0,0,0,0,0,0,-1,1294,1562,0,0
77,-538,0,0,0,0,0,0,0,0,0,-1,1301,1562,0,0
84,-538,0,0,0,0,0,0,0,0,0,-1,1308,1562,0,0
91,-538,0,0,0,0,0,0,0,0,0,-1,1315,1562,0,0
98,-538,0,0,0,0,0,0,0,0,0,-1,1322,1562,0,0
105,-538,0,0,0,0,0,0,0,0,0,-1,1329,1562,0,0
112,-538,0,0,0,0,0,0,0,0,0,-1,1336,1562,0,0
119,-538,0,0,0,0,0,0,0,0,0,-1,1343,1562,0,0
126,-538,0,0,0,0,0,0,0,0,0,-1,1350,1562,0,0
133,-538,0,0,0,0,0,0,0,0,0,-1,1357,1562,0,0
140,-538,0,0,0,0,0,0,0,0,0,-1,1364,1562,0,0
147,-538,0,0,0,0,0,0,0,0,0,-1,1371,1562,0,0
154,-538,0,0,0,0,0,0,0,0,0,-1,1378,1562,0,0
161,-538,0,0,0,0,0,0,0,0,0,-1,1385,1562,0,0
168,-538,0,0,0,0,0,0,0,0,0,-1,1392,1562,0,0
175,-538,0,0,0,0,0,0,0,0,0,-1,1399,1562,0,0
182,-538,0,0,0,0,0,0,0,0,0,-1,1406,1562,0,0
189,-538,0,0,0,0,0,0,0,0,0,-1,1413,1562,0,0
196,-538,0,0,0,0,0,0,0,0,0,-1,1420,1562,0,0
203,-538,0,0,0,0,0,0,0,0,0,-1,1427,1562,0,0
210,-538,0,0,0,0,0,0,0,0,0,-1,1434,1562,0,0
217,-538,0,0,0,0,0,0,0,0,0,-1,1441,1562,0,0
224,-538,0,0,0,0,0,0,0,0,0,-1,1448,1562,0,0
231,-538,0,0,0,0,0,0,0,0,0,-1,1455,1562,0,0
238,-538,0,0,0,0,0,0,0,0,0,-1,1462,1562,0,0
245,-538,0,0,0,0,0,0,0,0,0,-1,1469,1562,0,0
252,-538,0,0,0,0,0,0,0,0,0,-1,1476,1562,0,0
259,-538,0,0,0,0,0,0,0,0,0,-1,1483,1562,0,0
266,-538,0,0,0,0,0,0,0,0,0,-1,1490,1562,0,0
273,-538,0,0,0,0,0,0,0,0,0,-1,1497,1562,0,0
280,-538,0,0,0,0,0,0,0,0,0,-1,1504,1562,0,0
287,-538,0,0,0,0,0,0,0,0,0,-1,1511,1562,0,0
294,-538,0,0,0,0,0,0,0,0,0,-1,1518,1562,0,0
301,-538,0,0,0,0,0,0,0,0,0,-1,1525,1562,0,0
308,-538,0,0,0,0,0,0,0,0,0,-1,1532,1562,0,0
315,-538,0,0,0,0,0,0,0,0,0,-1,1539,1562,0,0
322,-538,0,0,0,0,0,0,0,0,0,-1,1546,1562,0,0
329,-538,0,0,0,0,0,0,0,0,0,-1,1553,1562,0,0
336,-538,0,0,0,0,0,0,0,0,0,-1,1560,1562,0,0
343,-538,0,0,0,0,0,0,0,0,0,-1,1567,1562,0,0
350,-538,0,0,0,0,0,0,0,0,0,-1,1574,1562,0,0
357,-538,0,0,0,0,0,0,0,0,0,-1,1581,1562,0,0
364,-538,0,0,0,0,0,0,0,0,0,-1,1588,1562,0,0
371,-538,0,0,0,0,0,0,0,0,0,-1,1595,1562,0,0
378,-538,9.65479,5.82434,0,0,0,0,0,0,0,-1,1602,1562,9.6548,-5.82439
385,-538,10.5449,7.9502,0,0,0,0,0,0,0,-1,1609,1562,10.5449,-7.95014
392,-538,8.20361,7.07214,0,0,0,0,0,0,0,-1,1616,1562,8.20362,-7.07211
399,-538,7.85425,4.70508,0,0,0,0,0,0,0,-1,1623,1562,7.85425,-4.70512
406,-538,7.77734,4.96094,0,0,0,0,0,0,0,-1,1630,1562,7.77729,-4.96097
413,-538,13.0446,13.1765,0,0,0,0,0,0,0,-1,1637,1562,13.0446,-13.1765
420,-538,9.96216,12.7653,0,0,0,0,0,0,0,-1,1644,1562,9.96221,-12.7653
427,-538,10.1732,14.5863,0,0,0,0,0,0,0,-1,1651,1562,10.1732,-14.5863
434,-538,9.64331,14.7745,0,0,0,0,0,0,0,-1,1658,1562,9.64326,-14.7746
441,-538,11.5039,20.5195,0,0,0,0,0,0,0,-1,1665,1562,11.5039,-20.5195
448,-538,12.8766,22.4932,0,0,0,0,0,0,0,-1,1672,1562,12.8766,-22.4932
455,-538,12.5693,17.4128,0,0,0,0,0,0,0,-1,1679,1562,12.5694,-17.4128
462,-538,12.1389,17.017,0,0,0,0,0,0,0,-1,1686,1562,12.1389,-17.017
469,-538,14.3802,16.6945,0,0,0,0,0,0,0,-1,1693,1562,14.3803,-16.6945
476,-538,13.724,19.0608,0,0,0,0,0,0,0,-1,1700,1562,13.724,-19.0608
483,-538,16.0903,24.2487,0,0,0,0,0,0,0,-1,1707,1562,16.0904,-24.2486
490,-538,16.1588,23.5366,0,0,0,0,0,0,0,-1,1714,1562,16.1588,-23.5366
497,-538,16.2555,23.0938,0.00551317,0.0103438,-0.00611367,0.014502,0.00135501,-0.973523,0.00924947,0.0327835,1721,1562,16.2555,-23.0937
504,-538,16.3427,22.5116,0.00467848,0.00754541,-0.00466802,0.0109951,0.00122879,-0.934369,0.00695674,0.0154072,1728,1562,16.3426,-22.5116
511,-538,16.3351,22.0769,0.00382443,0.00552473,-0.00356806,0.00834252,0.00100664,-0.902351,0.00525835,0.0100391,1735,1562,16.3351,-22.0769
518,-538,16.3254,21.652,0.00297605,0.00379977,-0.00258814,0.00600862,0.000767202,-0.864303,0.00377608,0.010757,1742,1562,16.3254,-21.652
525,-538,16.3057,21.2113,0.00215737,0.00241869,-0.00177751,0.00407033,0.000505727,-0.822087,0.00256168,0.0125898,1749,1562,16.3057,-21.2113
532,-538,16.3112,20.7795,0.00156796,0.00144155,-0.00123701,0.00274338,0.000266128,-0.759875,0.00174698,0.0142748,1756,1562,16.3112,-20.7796
539,-538,16.2877,20.361,0.0012532,0.000702508,-0.000891851,0.00191124,4.44663e-05,-0.635672,0.0012596,0.016175,1763,1562,16.2877,-20.3609
546,-538,16.2487,19.9122,0.000991834,0.00019466,-0.000647617,0.00135369,-0.000167199,-0.50954,0.000963046,0.0170251,1770,1562,16.2487,-19.9122
553,-538,16.2264,19.4569,0.000871441,-0.000163292,-0.00053185,0.00109605,-0.000387904,-0.399601,0.000888686,0.02882,1777,1562,16.2264,-19.457
560,-538,16.2389,19.0729,0.00106881,-0.000295973,-0.000620398,0.00130868,-0.000535835,-0.368924,0.00109564,0.0325281,1784,1562,16.2389,-19.0729
567,-538,16.2086,18.5574,0.00176699,-0.000594156,-0.000991153,0.00212789,-0.000955055,-0.349198,0.00182237,0.0226993,1791,1562,16.2086,-18.5573
574,-538,16.1903,18.115,0.00264599,-0.000670612,-0.00150105,0.00322446,-0.00124907,-0.367833,0.00266541,0.0234702,1798,1562,16.1904,-18.115
581,-538,16.2611,17.6604,0.00418689,-0.000631996,-0.00246046,0.00522118,-0.00166628,-0.397937,0.00414928,0.0307955,1805,1562,16.2611,-17.6604
588,-538,16.5026,17.1794,0,0,0,0,0,0,0,-1,1812,1562,16.5025,-17.1794
595,-538,15.9808,16.0894,0,0,0,0,0,0,0,-1,1819,1562,15.9808,-16.0893
602,-538,10.314,8.94238,0,0,0,0,0,0,0,-1,1826,1562,10.314,-8.94238
609,-538,10.1046,7.05713,0,0,0,0,0,0,0,-1,1833,1562,10.1046,-7.05719
616,-538,9.92249,5.43506,0,0,0,0,0,0,0,-1,1840,1562,9.92254,-5.43507
623,-538,11.1711,4.31604,0,0,0,0,0,0,0,-1,1847,1562,11.1711,-4.316
630,-538,12.6112,2.61633,0,0,0,0,0,0,0,-1,1854,1562,12.6112,-2.61637
637,-538,0,0,0,0,0,0,0,0,0,-1,1861,1562,0,0
644,-538,0,0,0,0,0,0,0,0,0,-1,1868,1562,0,0
651,-538,0,0,0,0,0,0,0,0,0,-1,1875,1562,0,0
658,-538,0,0,0,0,0,0,0,0,0,-1,1882,1562,0,0
665,-538,0,0,0,0,0,0,0,0,0,-1,1889,1562,0,0
672,-538,0,0,0,0,0,0,0,0,0,-1,1896,1562,0,0
679,-538,0,0,0,0,0,0,0,0,0,-1,1903,1562,0,0
686,-538,0,0,0,0,0,0,0,0,0,-1,1910,1562,0,0
693,-538,0,0,0,0,0,0,0,0,0,-1,1917,1562,0,0
700,-538,0,0,0,0,0,0,0,0,0,-1,1924,1562,0,0
707,-538,0,0,0,0,0,0,0,0,0,-1,1931,1562,0,0
714,-538,0,0,0,0,0,0,0,0,0,-1,1938,1562,0,0
721,-538,0,0,0,0,0,0,0,0,0,-1,1945,1562,0,0
728,-538,0,0,0,0,0,0,0,0,0,-1,1952,1562,0,0
735,-538,0,0,0,0,0,0,0,0,0,-1,1959,1562,0,0
742,-538,0,0,0,0,0,0,0,0,0,-1,1966,1562,0,0
749,-538,0,0,0,0,0,0,0,0,0,-1,1973,1562,0,0
756,-538,0,0,0,0,0,0,0,0,0,-1,1980,1562,0,0
763,-538,0,0,0,0,0,0,0,0,0,-1,1987,1562,0,0
770,-538,0,0,0,0,0,0,0,0,0,-1,1994,1562,0,0
777,-538,0,0,0,0,0,0,0,0,0,-1,2001,1562,0,0
784,-538,0,0,0,0,0,0,0,0,0,-1,2008,1562,0,0
791,-538,0,0,0,0,0,0,0,0,0,-1,2015,1562,0,0
798,-538,0,0,0,0,0,0,0,0,0,-1,2022,1562,0,0
805,-538,0,0,0,0,0,0,0,0,0,-1,2029,1562,0,0
812,-538,0,0,0,0,0,0,0,0,0,-1,2036,1562,0,0
-700,-545,0,0,0,0,0,0,0,0,0,-1,524,1569,0,0
-693,-545,0,0,0,0,0,0,0,0,0,-1,531,1569,0,0
-686,-545,0,0,0,0,0,0,0,0,0,-1,538,1569,0,0
-679,-545,0,0,0,0,0,0,0,0,0,-1,545,1569,0,0
-672,-545,0,0,0,0,0,0,0,0,0,-1,552,1569,0,0
-665,-545,0,0,0,0,0,0,0,0,0,-1,559,1569,0,0
-658,-545,0,0,0,0,0,0,0,0,0,-1,566,1569,0,0
-651,-545,0,0,0,0,0,0,0,0,0,-1,573,1569,0,0
-644,-545,0,0,0,0,0,0,0,0,0,-1,580,1569,0,0
-637,-545,0,0,0,0,0,0,0,0,0,-1,587,1569,0,0
-630,-545,0,0,0,0,0,0,0,0,0,-1,594,1569,0,0
-623,-545,0,0,0,0,0,0,0,0,0,-1,601,1569,0,0
-616,-545,0,0,0,0,0,0,0,0,0,-1,608,1569,0,0
-609,-545,0,0,0,0,0,0,0,0,0,-1,615,1569,0,0
-602,-545,0,0,0,0,0,0,0,0,0,-1,622,1569,0,0
-595,-545,0,0,0,0,0,0,0,0,0,-1,629,1569,0,0
-588,-545,0,0,0,0,0,0,0,0,0,-1,636,1569,0,0
-581,-545,0,0,0,0,0,0,0,0,0,-1,643,1569,0,0
-574,-545,0,0,0,0,0,0,0,0,0,-1,650,1569,0,0
-567,-545,0,0,0,0,0,0,0,0,0,-1,657,1569,0,0
-560,-545,0,0,0,0,0,0,0,0,0,-1,664,1569,0,0
-553,-545,0,0,0,0,0,0,0,0,0,-1,671,1569,0,0
-546,-545,0,0,0,0,0,0,0,0,0,-1,678,1569,0,0
-539,-545,0,0,0,0,0,0,0,0,0,-1,685,1569,0,0
-532,-545,0,0,0,0,0,0,0,0,0,-1,692,1569,0,0
-525,-545,0,0,0,0,0,0,0,0,0,-1,699,1569,0,0
-518,-545,0,0,0,0,0,0,0,0,0,-1,706,1569,0,0
-511,-545,0,0,0,0,0,0,0,0,0,-1,713,1569,0,0
-504,-545,-3.55237,-2.5354,0,0,0,0,0,0,0,-1,720,1569,-3.55236,2.53545
-497,-545,2.26575,5.69214,0,0,0,0,0,0,0,-1,727,1569,2.26573,-5.6922
-490,-545,-2.17334,7.81396,0,0,0,0,0,0,0,-1,734,1569,-2.17334,-7.81399
-483,-545,-1.88336,5.8446,0,0,0,0,0,0,0,-1,741,1569,-1.88334,-5.84466
-476,-545,-1.13147,6.5741,0,0,0,0,0,0,0,-1,748,1569,-1.13149,-6.57405
-469,-545,-3.65411,16.1852,0,0,0,0,0,0,0,-1,755,1569,-3.65412,-16.1851
-462,-545,-0.918884,15.1608,0,0,0,0,0,0,0,-1,762,1569,-0.918911,-15.1608
-455,-545,-0.773254,15.3079,0,0,0,0,0,0,0,-1,769,1569,-0.773273,-15.3079
-448,-545,-0.877991,16.1802,0.0221366,-0.00244744,-0.00531061,0.0232347,-0.00354558,-0.203908,0.0167969,0.0321065,776,1569,-0.877969,-16.1802
-441,-545,-1.00024,16.9553,0.0130403,-0.00143892,-0.00432778,0.0142352,-0.00263386,-0.269398,0.010479,0.0254135,783,1569,-1.00024,-16.9553
-434,-545,-1.21747,17.3466,0.00697207,-0.000862661,-0.00339062,0.00823564,-0.00212623,-0.356722,0.00631954,0.0216896,790,1569,-1.21744,-17.3466
-427,-545,-1.18372,17.7886,0.00322759,-0.00040366,-0.00243395,0.00444851,-0.00162458,-0.464944,0.00363046,0.0182871,797,1569,-1.18371,-17.7886
-420,-545,-1.20068,18.2709,0.0014859,0.000187977,-0.00162939,0.0025908,-0.00091693,-0.595885,0.00210065,0.0218618,804,1569,-1.20068,-18.2708
-413,-545,-1.24414,18.7394,-0.000880125,0.00127469,-0.000868198,0.00158096,-0.0011864,-1.23166,0.00160314,0.0219597,811,1569,-1.24415,-18.7393
-406,-545,-1.22833,19.2106,-0.00137001,0.00152519,0.000458289,0.001596,-0.00144082,1.4175,0.00175407,0.0171138,818,1569,-1.22831,-19.2105
-399,-545,-1.2207,19.6741,-0.00012091,0.0022986,0.00108108,0.00271126,-0.000533573,1.20615,0.00200912,0.0114039,825,1569,-1.22069,-19.674
-392,-545,-1.24072,20.1404,0.000851249,0.00300896,0.00146524,0.00374969,0.000110526,1.10274,0.00246378,0.0115832,832,1569,-1.2407,-20.1404
-385,-545,-1.25146,20.6257,0.0017395,0.00389607,0.0019438,0.00504063,0.000594936,1.03863,0.00318071,0.0101542,839,1569,-1.25145,-20.6257
-378,-545,-1.27484,21.1002,0.00251481,0.0050239,0.00240474,0.00648167,0.00105704,1.02583,0.00401541,0.0118426,846,1569,-1.27487,-21.1002
-371,-545,-1.28729,21.58,0.00298828,0.00603522,0.00261835,0.00754106,0.00148244,1.04888,0.00461332,0.0140688,853,1569,-1.28728,-21.58
-364,-545,-1.29236,22.006,0.00332108,0.0070325,0.00266318,0.00842274,0.00193083,1.08969,0.005095,0.0101134,860,1569,-1.29238,-22.0059
-357,-545,-1.24329,22.5502,0.00360236,0.00814581,0.00259313,0.00932156,0.00242661,1.14511,0.00558411,0.0168803,867,1569,-1.24331,-22.5501
-350,-545,-1.21967,23.0593,0.00390332,0.00933022,0.0024544,0.0102756,0.00295795,1.20314,0.006108,0.0243273,874,1569,-1.21969,-23.0594
-343,-545,-1.2428,23.4164,0.00412553,0.0106127,0.00207133,0.0112177,0.00352058,1.28664,0.00662447,0.0377333,881,1569,-1.24278,-23.4163
-336,-545,-1.19598,23.6948,0,0,0,0,0,0,0,-1,888,1569,-1.19596,-23.6949
-329,-545,-1.47876,23.5645,0,0,0,0,0,0,0,-1,895,1569,-1.47873,-23.5645
-322,-545,-0.992737,21.5034,0,0,0,0,0,0,0,-1,902,1569,-0.992735,-21.5034
-315,-545,-1.29688,21.5935,0,0,0,0,0,0,0,-1,909,1569,-1.2969,-21.5935
-308,-545,-1.54358,21.4457,0,0,0,0,0,0,0,-1,916,1569,-1.54357,-21.4457
-301,-545,1.52191,17.5009,0,0,0,0,0,0,0,-1,923,1569,1.52192,-17.5008
-294,-545,-2.69287,8.42102,0,0,0,0,0,0,0,-1,930,1569,-2.69287,-8.42097
-287,-545,-3.47784,9.96021,0,0,0,0,0,0,0,-1,937,1569,-3.47785,-9.96021
-280,-545,-3.7879,10.5448,0,0,0,0,0,0,0,-1,944,1569,-3.78793,-10.5448
-273,-545,-5.10333,12.864,0,0,0,0,0,0,0,-1,951,1569,-5.10331,-12.864
-266,-545,-5.78955,13.3704,0,0,0,0,0,0,0,-1,958,1569,-5.78952,-13.3703
-259,-545,-6.32184,13.8101,0,0,0,0,0,0,0,-1,965,1569,-6.32182,-13.81
-252,-545,0.369263,7.54053,0,0,0,0,0,0,0,-1,972,1569,0.369276,-7.54056
-245,-545,-0.236633,6.65564,0,0,0,0,0,0,0,-1,979,1569,-0.236605,-6.65566
-238,-545,0,0,0,0,0,0,0,0,0,-1,986,1569,0,0
-231,-545,0,0,0,0,0,0,0,0,0,-1,993,1569,0,0
-224,-545,0,0,0,0,0,0,0,0,0,-1,1000,1569,0,0
-217,-545,0,0,0,0,0,0,0,0,0,-1,1007,1569,0,0
-210,-545,0,0,0,0,0,0,0,0,0,-1,1014,1569,0,0
-203,-545,0,0,0,0,0,0,0,0,0,-1,1021,1569,0,0
-196,-545,0,0,0,0,0,0,0,0,0,-1,1028,1569,0,0
-189,-545,0,0,0,0,0,0,0,0,0,-1,1035,1569,0,0
-182,-545,0,0,0,0,0,0,0,0,0,-1,1042,1569,0,0
-175,-545,0,0,0,0,0,0,0,0,0,-1,1049,1569,0,0
-168,-545,0,0,0,0,0,0,0,0,0,-1,1056,1569,0,0
-161,-545,0,0,0,0,0,0,0,0,0,-1,1063,1569,0,0
-154,-545,0,0,0,0,0,0,0,0,0,-1,1070,1569,0,0
-147,-545,0,0,0,0,0,0,0,0,0,-1,1077,1569,0,0
-140,-545,0,0,0,0,0,0,0,0,0,-1,1084,1569,0,0
-133,-545,0,0,0,0,0,0,0,0,0,-1,1091,1569,0,0
-126,-545,0,0,0,0,0,0,0,0,0,-1,1098,1569,0,0
-119,-545,0,0,0,0,0,0,0,0,0,-1,1105,1569,0,0
-112,-545,0,0,0,0,0,0,0,0,0,-1,1112,1569,0,0
-105,-545,0,0,0,0,0,0,0,0,0,-1,1119,1569,0,0
-98,-545,0,0,0,0,0,0,0,0,0,-1,1126,1569,0,0
-91,-545,0,0,0,0,0,0,0,0,0,-1,1133,1569,0,0
-84,-545,0,0,0,0,0,0,0,0,0,-1,1140,1569,0,0
-77,-545,0,0,0,0,0,0,0,0,0,-1,1147,1569,0,0
-70,-545,0,0,0,0,0,0,0,0,0,-1,1154,1569,0,0
-63,-545,0,0,0,0,0,0,0,0,0,-1,1161,1569,0,0
-56,-545,0,0,0,0,0,0,0,0,0,-1,1168,1569,0,0
-49,-545,0,0,0,0,0,0,0,0,0,-1,1175,1569,0,0
-42,-545,0,0,0,0,0,0,0,0,0,-1,1182,1569,0,0
-35,-545,0,0,0,0,0,0,0,0,0,-1,1189,1569,0,0
-28,-545,0,0,0,0,0,0,0,0,0,-1,1196,1569,0,0
-21,-545,0,0,0,0,0,0,0,0,0,-1,1203,1569,0,0
-14,-545,0,0,0,0,0,0,0,0,0,-1,1210,1569,0,0
-7,-545,0,0,0,0,0,0,0,0,0,-1,1217,1569,0,0
0,-545,0,0,0,0,0,0,0,0,0,-1,1224,1569,0,0
7,-545,0,0,0,0,0,0,0,0,0,-1,1231,1569,0,0
14,-545,0,0,0,0,0,0,0,0,0,-1,1238,1569,0,0
21,-545,0,0,0,0,0,0,0,0,0,-1,1245,1569,0,0
28,-545,0,0,0,0,0,0,0,0,0,-1,1252,1569,0,0
35,-545,0,0,0,0,0,0,0,0,0,-1,1259,1569,0,0
42,-545,0,0,0,0,0,0,0,0,0,-1,1266,1569,0,0
49,-545,0,0,0,0,0,0,0,0,0,-1,1273,1569,0,0
56,-545,0,0,0,0,0,0,0,0,0,-1,1280,1569,0,0
63,-545,0,0,0,0,0,0,0,0,0,-1,1287,1569,0,0
70,-545,0,0,0,0,0,0,0,0,0,-1,1294,1569,0,0
77,-545,0,0,0,0,0,0,0,0,0,-1,1301,1569,0,0
84,-545,0,0,0,0,0,0,0,0,0,-1,1308,1569,0,0
91,-545,0,0,0,0,0,0,0,0,0,-1,1315,1569,0,0
98,-545,0,0,0,0,0,0,0,0,0,-1,1322,1569,0,0
105,-545,0,0,0,0,0,0,0,0,0,-1,1329,1569,0,0
112,-545,0,0,0,0,0,0,0,0,0,-1,1336,1569,0,0
119,-545,0,0,0,0,0,0,0,0,0,-1,1343,1569,0,0
126,-545,0,0,0,0,0,0,0,0,0,-1,1350,1569,0,0
133,-545,0,0,0,0,0,0,0,0,0,-1,1357,1569,0,0
140,-545,0,0,0,0,0,0,0,0,0,-1,1364,1569,0,0
147,-545,0,0,0,0,0,0,0,0,0,-1,1371,1569,0,0
154,-545,0,0,0,0,0,0,0,0,0,-1,1378,1569,0,0
161,-545,0,0,0,0,0,0,0,0,0,-1,1385,1569,0,0
168,-545,0,0,0,0,0,0,0,0,0,-1,1392,1569,0,0
175,-545,0,0,0,0,0,0,0,0,0,-1,1399,1569,0,0
182,-545,0,0,0,0,0,0,0,0,0,-1,1406,1569,0,0
189,-545,0,0,0,0,0,0,0,0,0,-1,1413,1569,0,0
196,-545,0,0,0,0,0,0,0,0,0,-1,1420,1569,0,0
203,-545,0,0,0,0,0,0,0,0,0,-1,1427,1569,0,0
210,-545,0,0,0,0,0,0,0,0,0,-1,1434,1569,0,0
217,-545,0,0,0,0,0,0,0,0,0,-1,1441,1569,0,0
224,-545,0,0,0,0,0,0,0,0,0,-1,1448,1569,0,0
231,-545,0,0,0,0,0,0,0,0,0,-1,1455,1569,0,0
238,-545,0,0,0,0,0,0,0,0,0,-1,1462,1569,0,0
245,-545,0,0,0,0,0,0,0,0,0,-1,1469,1569,0,0
252,-545,0,0,0,0,0,0,0,0,0,-1,1476,1569,0,0
259,-545,0,0,0,0,0,0,0,0,0,-1,1483,1569,0,0
266,-545,0,0,0,0,0,0,0,0,0,-1,1490,1569,0,0
273,-545,0,0,0,0,0,0,0,0,0,-1,1497,1569,0,0
280,-545,0,0,0,0,0,0,0,0,0,-1,1504,1569,0,0
287,-545,0,0,0,0,0,0,0,0,0,-1,1511,1569,0,0
294,-545,0,0,0,0,0,0,0,0,0,-1,1518,1569,0,0
301,-545,0,0,0,0,0,0,0,0,0,-1,1525,1569,0,0
308,-545,0,0,0,0,0,0,0,0,0,-1,1532,1569,0,0
315,-545,0,0,0,0,0,0,0,0,0,-1,1539,1569,0,0
322,-545,0,0,0,0,0,0,0,0,0,-1,1546,1569,0,0
329,-545,0,0,0,0,0,0,0,0,0,-1,1553,1569,0,0
336,-545,0,0,0,0,0,0,0,0,0,-1,1560,1569,0,0
343,-545,0,0,0,0,0,0,0,0,0,-1,1567,1569,0,0
350,-545,0,0,0,0,0,0,0,0,0,-1,1574,1569,0,0
357,-545,0,0,0,0,0,0,0,0,0,-1,1581,1569,0,0
364,-545,7.19495,4.88098,0,0,0,0,0,0,0,-1,1588,1569,7.19497,-4.88095
371,-545,7.82324,3.84302,0,0,0,0,0,0,0,-1,1595,1569,7.82324,-3.84307
378,-545,7.65674,5.52673,0,0,0,0,0,0,0,-1,1602,1569,7.6567,-5.52667
385,-545,8.58447,1.16125,0,0,0,0,0,0,0,-1,1609,1569,8.5845,-1.1612
392,-545,12.5654,3.89526,0,0,0,0,0,0,0,-1,1616,1569,12.5655,-3.89532
399,-545,11.5869,5.6333,0,0,0,0,0,0,0,-1,1623,1569,11.5869,-5.63326
406,-545,11.234,6.36414,0,0,0,0,0,0,0,-1,1630,1569,11.234,-6.3641
413,-545,12.1521,13.4817,0,0,0,0,0,0,0,-1,1637,1569,12.1521,-13.4817
420,-545,11.1954,13.6047,0,0,0,0,0,0,0,-1,1644,1569,11.1954,-13.6047
427,-545,9.61072,14.9135,0,0,0,0,0,0,0,-1,1651,1569,9.61076,-14.9134
434,-545,13.1598,23.9921,0,0,0,0,0,0,0,-1,1658,1569,13.1598,-23.992
441,-545,12.2833,22.2238,0,0,0,0,0,0,0,-1,1665,1569,12.2833,-22.2237
448,-545,13.0082,21.941,0,0,0,0,0,0,0,-1,1672,1569,13.0082,-21.941
455,-545,13.733,21.6583,0,0,0,0,0,0,0,-1,1679,1569,13.733,-21.6583
462,-545,12.449,20.7413,0,0,0,0,0,0,0,-1,1686,1569,12.4489,-20.7413
469,-545,12.7837,17.7919,0,0,0,0,0,0,0,-1,1693,1569,12.7837,-17.7919
476,-545,15.7562,24.8708,0,0,0,0,0,0,0,-1,1700,1569,15.7563,-24.8709
483,-545,15.9481,23.9307,0.00545348,0.0152746,-0.00788733,0.0196551,0.001073,-1.06383,0.0127608,0.04786,1707,1569,15.9481,-23.9306
490,-545,15.8445,23.4434,0.00489832,0.0115118,-0.00626886,0.0152926,0.00111753,-1.0281,0.00984372,0.0254686,1714,1569,15.8444,-23.4434
497,-545,15.8529,22.9965,0.00457185,0.00855357,-0.00512528,0.0120611,0.00106435,-0.970648,0.00771046,0.0216067,1721,1569,15.8529,-22.9965
504,-545,15.9365,22.53,0.00387518,0.00615648,-0.00393032,0.00910832,0.000923338,-0.926628,0.00578903,0.0153379,1728,1569,15.9365,-22.5301
511,-545,15.9164,22.0846,0.00310444,0.00438474,-0.00297017,0.00678296,0.000706218,-0.891537,0.00430592,0.0111289,1735,1569,15.9164,-22.0846
518,-545,15.8994,21.6605,0.00234019,0.00284167,-0.00212113,0.00472683,0.000455028,-0.84423,0.00301102,0.0129984,1742,1569,15.8994,-21.6606
525,-545,15.8716,21.2202,0.00161789,0.00159889,-0.00140556,0.00301398,0.000202792,-0.782019,0.00194525,0.0147569,1749,1569,15.8716,-21.2202
532,-545,15.8571,20.7921,0.00111249,0.000700494,-0.000923998,0.00185317,-4.01909e-05,-0.675721,0.00124906,0.0149543,1756,1569,15.8571,-20.7921
539,-545,15.8506,20.3759,0.000820424,3.0667e-05,-0.000600627,0.00114435,-0.000293261,-0.494603,0.000877151,0.0165269,1763,1569,15.8506,-20.3758
546,-545,15.8268,19.9133,0.000558001,-0.000469918,-0.000337083,0.000658679,-0.000570596,-0.29024,0.00071033,0.0182518,1770,1569,15.8268,-19.9133
553,-545,15.8558,19.446,0.000458884,-0.000823356,-0.000191237,0.000486798,-0.00085127,-0.144942,0.000782029,0.0273025,1777,1569,15.8558,-19.4461
560,-545,15.8197,18.9557,0.000681319,-0.000970712,-0.00024676,0.00071739,-0.00100678,-0.145148,0.00100011,0.0284723,1784,1569,15.8197,-18.9557
567,-545,15.7576,18.3705,0,0,0,0,0,0,0,-1,1791,1569,15.7576,-18.3705
574,-545,15.9003,17.9924,0,0,0,0,0,0,0,-1,1798,1569,15.9003,-17.9925
581,-545,15.9263,17.5746,0,0,0,0,0,0,0,-1,1805,1569,15.9262,-17.5746
588,-545,15.4786,16.7035,0,0,0,0,0,0,0,-1,1812,1569,15.4786,-16.7035
595,-545,10.2859,9.11218,0,0,0,0,0,0,0,-1,1819,1569,10.2858,-9.11215
602,-545,8.82117,6.32214,0,0,0,0,0,0,0,-1,1826,1569,8.82121,-6.32217
609,-545,10.2406,5.22351,0,0,0,0,0,0,0,-1,1833,1569,10.2406,-5.22353
616,-545,11.701,3.93188,0,0,0,0,0,0,0,-1,1840,1569,11.701,-3.93191
623,-545,13.2139,2.32043,0,0,0,0,0,0,0,-1,1847,1569,13.2139,-2.32042
630,-545,0,0,0,0,0,0,0,0,0,-1,1854,1569,0,0
637,-545,0,0,0,0,0,0,0,0,0,-1,1861,1569,0,0
644,-545,0,0,0,0,0,0,0,0,0,-1,1868,1569,0,0
651,-545,0,0,0,0,0,0,0,0,0,-1,1875,1569,0,0
658,-545,0,0,0,0,0,0,0,0,0,-1,1882,1569,0,0
665,-545,0,0,0,0,0,0,0,0,0,-1,1889,1569,0,0
672,-545,0,0,0,0,0,0,0,0,0,-1,1896,1569,0,0
679,-545,0,0,0,0,0,0,0,0,0,-1,1903,1569,0,0
686,-545,0,0,0,0,0,0,0,0,0,-1,1910,1569,0,0
693,-545,0,0,0,0,0,0,0,0,0,-1,1917,1569,0,0
700,-545,0,0,0,0,0,0,0,0,0,-1,1924,1569,0,0
707,-545,0,0,0,0,0,0,0,0,0,-1,1931,1569,0,0
714,-545,0,0,0,0,0,0,0,0,0,-1,1938,1569,0,0
721,-545,0,0,0,0,0,0,0,0,0,-1,1945,1569,0,0
728,-545,0,0,0,0,0,0,0,0,0,-1,1952,1569,0,0
735,-545,0,0,0,0,0,0,0,0,0,-1,1959,1569,0,0
742,-545,0,0,0,0,0,0,0,0,0,-1,1966,1569,0,0
749,-545,0,0,0,0,0,0,0,0,0,-1,1973,1569,0,0
756,-545,0,0,0,0,0,0,0,0,0,-1,1980,1569,0,0
763,-545,0,0,0,0,0,0,0,0,0,-1,1987,1569,0,0
770,-545,0,0,0,0,0,0,0,0,0,-1,1994,1569,0,0
777,-545,0,0,0,0,0,0,0,0,0,-1,2001,1569,0,0
784,-545,0,0,0,0,0,0,0,0,0,-1,2008,1569,0,0
791,-545,0,0,0,0,0,0,0,0,0,-1,2015,1569,0,0
798,-545,0,0,0,0,0,0,0,0,0,-1,2022,1569,0,0
805,-545,0,0,0,0,0,0,0,0,0,-1,2029,1569,0,0
812,-545,0,0,0,0,0,0,0,0,0,-1,2036,1569,0,0
-700,-552,0,0,0,0,0,0,0,0,0,-1,524,1576,0,0
-693,-552,0,0,0,0,0,0,0,0,0,-1,531,1576,0,0
-686,-552,0,0,0,0,0,0,0,0,0,-1,538,1576,0,0
-679,-552,0,0,0,0,0,0,0,0,0,-1,545,1576,0,0
-672,-552,0,0,0,0,0,0,0,0,0,-1,552,1576,0,0
-665,-552,0,0,0,0,0,0,0,0,0,-1,559,1576,0,0
-658,-552,0,0,0,0,0,0,0,0,0,-1,566,1576,0,0
-651,-552,0,0,0,0,0,0,0,0,0,-1,573,1576,0,0
-644,-552,0,0,0,0,0,0,0,0,0,-1,580,1576,0,0
-637,-552,0,0,0,0,0,0,0,0,0,-1,587,1576,0,0
-630,-552,0,0,0,0,0,0,0,0,0,-1,594,1576,0,0
-623,-552,0,0,0,0,0,0,0,0,0,-1,601,1576,0,0
-616,-552,0,0,0,0,0,0,0,0,0,-1,608,1576,0,0
-609,-552,0,0,0,0,0,0,0,0,0,-1,615,1576,0,0
-602,-552,0,0,0,0,0,0,0,0,0,-1,622,1576,0,0
-595,-552,0,0,0,0,0,0,0,0,0,-1,629,1576,0,0
-588,-552,0,0,0,0,0,0,0,0,0,-1,636,1576,0,0
-581,-552,0,0,0,0,0,0,0,0,0,-1,643,1576,0,0
-574,-552,0,0,0,0,0,0,0,0,0,-1,650,1576,0,0
-567,-552,0,0,0,0,0,0,0,0,0,-1,657,1576,0,0
-560,-552,0,0,0,0,0,0,0,0,0,-1,664,1576,0,0
-553,-552,0,0,0,0,0,0,0,0,0,-1,671,1576,0,0
-546,-552,0,0,0,0,0,0,0,0,0,-1,678,1576,0,0
-539,-552,0,0,0,0,0,0,0,0,0,-1,685,1576,0,0
-532,-552,0,0,0,0,0,0,0,0,0,-1,692,1576,0,0
-525,-552,0,0,0,0,0,0,0,0,0,-1,699,1576,0,0
-518,-552,0,0,0,0,0,0,0,0,0,-1,706,1576,0,0
-511,-552,0,0,0,0,0,0,0,0,0,-1,713,1576,0,0
-504,-552,0,0,0,0,0,0,0,0,0,-1,720,1576,0,0
-497,-552,1.51282,3.96924,0,0,0,0,0,0,0,-1,727,1576,1.5128,-3.96924
-490,-552,-3.82312,6.32104,0,0,0,0,0,0,0,-1,734,1576,-3.82314,-6.3211
-483,-552,-3.50586,6.47986,0,0,0,0,0,0,0,-1,741,1576,-3.50587,-6.47983
-476,-552,-1.95129,4.43054,0,0,0,0,0,0,0,-1,748,1576,-1.95128,-4.43054
-469,-552,-1.40491,7.9895,0,0,0,0,0,0,0,-1,755,1576,-1.40491,-7.98947
-462,-552,-1.99573,11.4446,0,0,0,0,0,0,0,-1,762,1576,-1.99571,-11.4445
-455,-552,-0.204468,15.0979,0,0,0,0,0,0,0,-1,769,1576,-0.204474,-15.098
-448,-552,-0.3526,15.9243,0.0257925,-0.000543135,-0.00602793,0.0271066,-0.00185728,-0.214651,0.0187209,0.0498991,776,1576,-0.352577,-15.9243
-441,-552,-0.478882,16.8326,0.0144785,-6.93734e-05,-0.00505839,0.0160644,-0.00165532,-0.303821,0.0113019,0.0437718,783,1576,-0.478904,-16.8327
-434,-552,-0.531128,17.4598,0.00709616,-1.64862e-05,-0.00411979,0.00898227,-0.0019026,-0.429336,0.00671287,0.0316252,790,1576,-0.531155,-17.4598
-427,-552,-0.747559,17.731,0.00263886,-0.000112648,-0.0032037,0.00474971,-0.0022235,-0.582591,0.00411311,0.0273519,797,1576,-0.747568,-17.7309
-420,-552,-0.713318,18.2788,0.000517413,0.000159515,-0.00243952,0.00278453,-0.00210761,-0.748787,0.00283348,0.0198752,804,1576,-0.713325,-18.2788
-413,-552,-0.737,18.7539,-0.00228698,0.00105415,-0.00171095,0.00177485,-0.00300768,-1.17213,0.00279161,0.0157755,811,1576,-0.737029,-18.7539
-406,-552,-0.754333,19.2084,-0.00293607,0.000998366,-0.000357541,0.00103059,-0.0029683,-1.4809,0.00239741,0.0130822,818,1576,-0.754322,-19.2084
-399,-552,-0.764648,19.6711,-0.00155205,0.00155475,0.000226835,0.00157123,-0.00156852,1.4983,0.00181274,0.0136833,825,1576,-0.764669,-19.6712
-392,-552,-0.790955,20.1523,-0.00045415,0.00193883,0.000558471,0.00206274,-0.000578069,1.35244,0.00160298,0.0150978,832,1576,-0.79097,-20.1524
-385,-552,-0.802856,20.6444,0.000519108,0.00261041,0.000978635,0.00299693,0.000132588,1.19464,0.00195526,0.0145658,839,1576,-0.802867,-20.6445
-378,-552,-0.827759,21.0952,0.00142778,0.00348821,0.00144926,0.00423611,0.000679876,1.09438,0.00262694,0.0160798,846,1576,-0.827738,-21.0952
-371,-552,-0.831604,21.5706,0.00201844,0.0042849,0.00165793,0.0051599,0.00114345,1.08519,0.00312921,0.0185252,853,1576,-0.831603,-21.5705
-364,-552,-0.818115,22.0311,0.00245426,0.00503414,0.00171778,0.00589239,0.00159602,1.10745,0.00351904,0.014328,860,1576,-0.818093,-22.0311
-357,-552,-0.820923,22.4622,0.00286664,0.00589802,0.0017331,0.00668471,0.00207994,1.14469,0.00395012,0.0104926,867,1576,-0.82093,-22.4621
-350,-552,-0.80603,22.9531,0.00333363,0.00680088,0.00171482,0.00750571,0.0026288,1.18082,0.00439774,0.0126541,874,1576,-0.806051,-22.9531
-343,-552,-0.813965,23.3705,0.00378397,0.00784802,0.00159088,0.0083967,0.0032353,1.23868,0.00489017,0.0160506,881,1576,-0.81399,-23.3704
-336,-552,-0.740967,23.7146,0.00430012,0.00907883,0.00149428,0.00950761,0.00387133,1.29136,0.00552066,0.0298794,888,1576,-0.740977,-23.7147
-329,-552,-0.568481,24.2206,0,0,0,0,0,0,0,-1,895,1576,-0.568493,-24.2206
-322,-552,-0.509277,23.9327,0,0,0,0,0,0,0,-1,902,1576,-0.509305,-23.9327
-315,-552,0.692627,25.5389,0,0,0,0,0,0,0,-1,909,1576,0.692649,-25.539
-308,-552,1.48743,24.9044,0,0,0,0,0,0,0,-1,916,1576,1.48745,-24.9045
-301,-552,1.39453,18.4995,0,0,0,0,0,0,0,-1,923,1576,1.3945,-18.4995
-294,-552,0.842163,13.7863,0,0,0,0,0,0,0,-1,930,1576,0.842149,-13.7863
-287,-552,-0.663757,13.3474,0,0,0,0,0,0,0,-1,937,1576,-0.663744,-13.3474
-280,-552,-5.47241,8.96765,0,0,0,0,0,0,0,-1,944,1576,-5.47239,-8.96766
-273,-552,1.64587,10.6685,0,0,0,0,0,0,0,-1,951,1576,1.6459,-10.6685
-266,-552,-1.32678,8.05688,0,0,0,0,0,0,0,-1,958,1576,-1.32677,-8.05683
-259,-552,-5.54321,8.31213,0,0,0,0,0,0,0,-1,965,1576,-5.54324,-8.31214
-252,-552,-1.93445,7.81543,0,0,0,0,0,0,0,-1,972,1576,-1.93445,-7.81546
-245,-552,-2.53613,6.92212,0,0,0,0,0,0,0,-1,979,1576,-2.53614,-6.92216
-238,-552,-6.5365,2.81885,0,0,0,0,0,0,0,-1,986,1576,-6.53649,-2.8188
-231,-552,-4.32239,4.34583,0,0,0,0,0,0,0,-1,993,1576,-4.32239,-4.34587
-224,-552,0,0,0,0,0,0,0,0,0,-1,1000,1576,0,0
-217,-552,0,0,0,0,0,0,0,0,0,-1,1007,1576,0,0
-210,-552,0,0,0,0,0,0,0,0,0,-1,1014,1576,0,0
-203,-552,0,0,0,0,0,0,0,0,0,-1,1021,1576,0,0
-196,-552,0,0,0,0,0,0,0,0,0,-1,1028,1576,0,0
-189,-552,0,0,0,0,0,0,0,0,0,-1,1035,1576,0,0
-182,-552,0,0,0,0,0,0,0,0,0,-1,1042,1576,0,0
-175,-552,0,0,0,0,0,0,0,0,0,-1,1049,1576,0,0
-168,-552,0,0,0,0,0,0,0,0,0,-1,1056,1576,0,0
-161,-552,0,0,0,0,0,0,0,0,0,-1,1063,1576,0,0
-154,-552,0,0,0,0,0,0,0,0,0,-1,1070,1576,0,0
-147,-552,0,0,0,0,0,0,0,0,0,-1,1077,1576,0,0
-140,-552,0,0,0,0,0,0,0,0,0,-1,1084,1576,0,0
-133,-552,0,0,0,0,0,0,0,0,0,-1,1091,1576,0,0
-126,-552,0,0,0,0,0,0,0,0,0,-1,1098,1576,0,0
-119,-552,0,0,0,0,0,0,0,0,0,-1,1105,1576,0,0
-112,-552,0,0,0,0,0,0,0,0,0,-1,1112,1576,0,0
-105,-552,0,0,0,0,0,0,0,0,0,-1,1119,1576,0,0
-98,-552,0,0,0,0,0,0,0,0,0,-1,1126,1576,0,0
-91,-552,0,0,0,0,0,0,0,0,0,-1,1133,1576,0,0
-84,-552,0,0,0,0,0,0,0,0,0,-1,1140,1576,0,0
-77,-552,0,0,0,0,0,0,0,0,0,-1,1147,1576,0,0
-70,-552,0,0,0,0,0,0,0,0,0,-1,1154,1576,0,0
-63,-552,0,0,0,0,0,0,0,0,0,-1,1161,1576,0,0
-56,-552,0,0,0,0,0,0,0,0,0,-1,1168,1576,0,0
-49,-552,0,0,0,0,0,0,0,0,0,-1,1175,1576,0,0
-42,-552,0,0,0,0,0,0,0,0,0,-1,1182,1576,0,0
-35,-552,0,0,0,0,0,0,0,0,0,-1,1189,1576,0,0
-28,-552,0,0,0,0,0,0,0,0,0,-1,1196,1576,0,0
-21,-552,0,0,0,0,0,0,0,0,0,-1,1203,1576,0,0
-14,-552,0,0,0,0,0,0,0,0,0,-1,1210,1576,0,0
-7,-552,0,0,0,0,0,0,0,0,0,-1,1217,1576,0,0
0,-552,0,0,0,0,0,0,0,0,0,-1,1224,1576,0,0
7,-552,0,0,0,0,0,0,0,0,0,-1,1231,1576,0,0
14,-552,0,0,0,0,0,0,0,0,0,-1,1238,1576,0,0
21,-552,0,0,0,0,0,0,0,0,0,-1,1245,1576,0,0
28,-552,0,0,0,0,0,0,0,0,0,-1,1252,1576,0,0
35,-552,0,0,0,0,0,0,0,0,0,-1,1259,1576,0,0
42,-552,0,0,0,0,0,0,0,0,0,-1,1266,1576,0,0
49,-552,0,0,0,0,0,0,0,0,0,-1,1273,1576,0,0
56,-552,0,0,0,0,0,0,0,0,0,-1,1280,1576,0,0
63,-552,0,0,0,0,0,0,0,0,0,-1,1287,1576,0,0
70,-552,0,0,0,0,0,0,0,0,0,-1,1294,1576,0,0
77,-552,0,0,0,0,0,0,0,0,0,-1,1301,1576,0,0
84,-552,0,0,0,0,0,0,0,0,0,-1,1308,1576,0,0
91,-552,0,0,0,0,0,0,0,0,0,-1,1315,1576,0,0
98,-552,0,0,0,0,0,0,0,0,0,-1,1322,1576,0,0
105,-552,0,0,0,0,0,0,0,0,0,-1,1329,1576,0,0
112,-552,0,0,0,0,0,0,0,0,0,-1,1336,1576,0,0
119,-552,0,0,0,0,0,0,0,0,0,-1,1343,1576,0,0
126,-552,0,0,0,0,0,0,0,0,0,-1,1350,1576,0,0
133,-552,0,0,0,0,0,0,0,0,0,-1,1357,1576,0,0
140,-552,0,0,0,0,0,0,0,0,0,-1,1364,1576,0,0
147,-552,0,0,0,0,0,0,0,0,0,-1,1371,1576,0,0
154,-552,0,0,0,0,0,0,0,0,0,-1,1378,1576,0,0
161,-552,0,0,0,0,0,0,0,0,0,-1,1385,1576,0,0
168,-552,0,0,0,0,0,0,0,0,0,-1,1392,1576,0,0
175,-552,0,0,0,0,0,0,0,0,0,-1,1399,1576,0,0
182,-552,0,0,0,0,0,0,0,0,0,-1,1406,1576,0,0
189,-552,0,0,0,0,0,0,0,0,0,-1,1413,1576,0,0
196,-552,0,0,0,0,0,0,0,0,0,-1,1420,1576,0,0
203,-552,0,0,0,0,0,0,0,0,0,-1,1427,1576,0,0
210,-552,0,0,0,0,0,0,0,0,0,-1,1434,1576,0,0
217,-552,0,0,0,0,0,0,0,0,0,-1,1441,1576,0,0
224,-552,0,0,0,0,0,0,0,0,0,-1,1448,1576,0,0
231,-552,0,0,0,0,0,0,0,0,0,-1,1455,1576,0,0
238,-552,0,0,0,0,0,0,0,0,0,-1,1462,1576,0,0
245,-552,0,0,0,0,0,0,0,0,0,-1,1469,1576,0,0
252,-552,0,0,0,0,0,0,0,0,0,-1,1476,1576,0,0
259,-552,0,0,0,0,0,0,0,0,0,-1,1483,1576,0,0
266,-552,0,0,0,0,0,0,0,0,0,-1,1490,1576,0,0
273,-552,0,0,0,0,0,0,0,0,0,-1,1497,1576,0,0
280,-552,0,0,0,0,0,0,0,0,0,-1,1504,1576,0,0
287,-552,0,0,0,0,0,0,0,0,0,-1,1511,1576,0,0
294,-552,0,0,0,0,0,0,0,0,0,-1,1518,1576,0,0
301,-552,0,0,0,0,0,0,0,0,0,-1,1525,1576,0,0
308,-552,0,0,0,0,0,0,0,0,0,-1,1532,1576,0,0
315,-552,0,0,0,0,0,0,0,0,0,-1,1539,1576,0,0
322,-552,0,0,0,0,0,0,0,0,0,-1,1546,1576,0,0
329,-552,0,0,0,0,0,0,0,0,0,-1,1553,1576,0,0
336,-552,0,0,0,0,0,0,0,0,0,-1,1560,1576,0,0
343,-552,0,0,0,0,0,0,0,0,0,-1,1567,1576,0,0
350,-552,4.97876,4.09888,0,0,0,0,0,0,0,-1,1574,1576,4.97875,-4.09883
357,-552,5.18469,4.10706,0,0,0,0,0,0,0,-1,1581,1576,5.1847,-4.10702
364,-552,5.80872,5.07031,0,0,0,0,0,0,0,-1,1588,1576,5.80874,-5.07037
371,-552,7.10657,5.64783,0,0,0,0,0,0,0,-1,1595,1576,7.10651,-5.64786
378,-552,6.44446,4.91492,0,0,0,0,0,0,0,-1,1602,1576,6.44448,-4.91496
385,-552,12.8276,3.16504,0,0,0,0,0,0,0,-1,1609,1576,12.8276,-3.16503
392,-552,12.1301,4.3363,0,0,0,0,0,0,0,-1,1616,1576,12.1302,-4.33631
399,-552,11.3486,5.6012,0,0,0,0,0,0,0,-1,1623,1576,11.3486,-5.60115
406,-552,10.7863,6.42542,0,0,0,0,0,0,0,-1,1630,1576,10.7863,-6.42536
413,-552,8.39307,10.365,0,0,0,0,0,0,0,-1,1637,1576,8.3931,-10.365
420,-552,10.2306,12.7225,0,0,0,0,0,0,0,-1,1644,1576,10.2305,-12.7226
427,-552,9.73267,14.783,0,0,0,0,0,0,0,-1,1651,1576,9.73269,-14.783
434,-552,12.0377,20.1364,0,0,0,0,0,0,0,-1,1658,1576,12.0377,-20.1364
441,-552,12.4963,21.5277,0,0,0,0,0,0,0,-1,1665,1576,12.4964,-21.5277
448,-552,12.9141,21.5482,0,0,0,0,0,0,0,-1,1672,1576,12.9141,-21.5482
455,-552,13.3318,21.5687,0,0,0,0,0,0,0,-1,1679,1576,13.3317,-21.5687
462,-552,12.745,20.5947,0,0,0,0,0,0,0,-1,1686,1576,12.745,-20.5947
469,-552,14.8177,25.229,0,0,0,0,0,0,0,-1,1693,1576,14.8178,-25.229
476,-552,15.3925,24.4386,0,0,0,0,0,0,0,-1,1700,1576,15.3925,-24.4386
483,-552,15.5261,23.764,0.00430796,0.0126078,-0.00625356,0.0159631,0.000952628,-1.07834,0.0103392,0.0302477,1707,1576,15.5261,-23.764
490,-552,15.4839,23.373,0.00397206,0.0094675,-0.00500136,0.0124262,0.00101333,-1.03659,0.00796788,0.014611,1714,1576,15.4839,-23.3731
497,-552,15.526,22.9589,0.00368454,0.00688412,-0.00409762,0.00968318,0.000885484,-0.971509,0.00618147,0.021652,1721,1576,15.5259,-22.9588
504,-552,15.522,22.5417,0.003076,0.00477824,-0.00309898,0.00714086,0.000713387,-0.919416,0.00454149,0.0222719,1728,1576,15.522,-22.5418
511,-552,15.4988,22.0753,0.00237194,0.00318636,-0.00224984,0.00506554,0.000492759,-0.874926,0.00322535,0.0161531,1735,1576,15.4988,-22.0753
518,-552,15.4976,21.641,0.00168456,0.00178562,-0.00151691,0.00325283,0.00021734,-0.802048,0.00209986,0.0152374,1742,1576,15.4976,-21.6409
525,-552,15.4541,21.224,0.00105475,0.000657012,-0.00090409,0.00178158,-6.98222e-05,-0.677139,0.00121167,0.0158153,1749,1576,15.454,-21.224
532,-552,15.4343,20.8007,0.00062871,-0.000184047,-0.00049437,0.000862289,-0.000417625,-0.441388,0.000753678,0.0151903,1756,1576,15.4344,-20.8007
539,-552,15.4309,20.3669,0.000347754,-0.000805921,-0.000208854,0.000384399,-0.000842566,-0.173692,0.000724665,0.018002,1763,1576,15.4309,-20.3669
546,-552,15.3995,19.936,8.85949e-05,-0.00131554,4.46048e-05,9.00103e-05,-0.00131695,0.0317241,0.000909459,0.0224164,1770,1576,15.3996,-19.936
553,-552,15.4319,19.4551,2.96624e-05,-0.00168048,0.000191053,5.07463e-05,-0.00170157,0.109912,0.00115167,0.0261893,1777,1576,15.4318,-19.455
560,-552,15.3599,19.0519,0.000281456,-0.00186613,0.000142577,0.000290881,-0.00187555,0.0660036,0.00135775,0.0425206,1784,1576,15.3599,-19.0518
567,-552,15.3342,18.3333,0,0,0,0,0,0,0,-1,1791,1576,15.3343,-18.3332
574,-552,12.8835,14.8463,0,0,0,0,0,0,0,-1,1798,1576,12.8836,-14.8463
581,-552,9.74841,9.98645,0,0,0,0,0,0,0,-1,1805,1576,9.74847,-9.9864
588,-552,10.5619,9.34924,0,0,0,0,0,0,0,-1,1812,1576,10.5619,-9.34921
595,-552,5.36194,6.62744,0,0,0,0,0,0,0,-1,1819,1576,5.36193,-6.62742
602,-552,10.6863,4.31616,0,0,0,0,0,0,0,-1,1826,1576,10.6862,-4.31619
609,-552,12.146,3.18286,0,0,0,0,0,0,0,-1,1833,1576,12.1459,-3.18281
616,-552,13.8762,2.08167,0,0,0,0,0,0,0,-1,1840,1576,13.8763,-2.08167
623,-552,0,0,0,0,0,0,0,0,0,-1,1847,1576,0,0
630,-552,0,0,0,0,0,0,0,0,0,-1,1854,1576,0,0
637,-552,0,0,0,0,0,0,0,0,0,-1,1861,1576,0,0
644,-552,0,0,0,0,0,0,0,0,0,-1,1868,1576,0,0
651,-552,0,0,0,0,0,0,0,0,0,-1,1875,1576,0,0
658,-552,0,0,0,0,0,0,0,0,0,-1,1882,1576,0,0
665,-552,0,0,0,0,0,0,0,0,0,-1,1889,1576,0,0
672,-552,0,0,0,0,0,0,0,0,0,-1,1896,1576,0,0
679,-552,0,0,0,0,0,0,0,0,0,-1,1903,1576,0,0
686,-552,0,0,0,0,0,0,0,0,0,-1,1910,1576,0,0
693,-552,0,0,0,0,0,0,0,0,0,-1,1917,1576,0,0
700,-552,0,0,0,0,0,0,0,0,0,-1,1924,1576,0,0
707,-552,0,0,0,0,0,0,0,0,0,-1,1931,1576,0,0
714,-552,0,0,0,0,0,0,0,0,0,-1,1938,1576,0,0
721,-552,0,0,0,0,0,0,0,0,0,-1,1945,1576,0,0
728,-552,0,0,0,0,0,0,0,0,0,-1,1952,1576,0,0
735,-552,0,0,0,0,0,0,0,0,0,-1,1959,1576,0,0
742,-552,0,0,0,0,0,0,0,0,0,-1,1966,1576,0,0
749,-552,0,0,0,0,0,0,0,0,0,-1,1973,1576,0,0
756,-552,0,0,0,0,0,0,0,0,0,-1,1980,1576,0,0
763,-552,0,0,0,0,0,0,0,0,0,-1,1987,1576,0,0
770,-552,0,0,0,0,0,0,0,0,0,-1,1994,1576,0,0
777,-552,0,0,0,0,0,0,0,0,0,-1,2001,1576,0,0
784,-552,0,0,0,0,0,0,0,0,0,-1,2008,1576,0,0
791,-552,0,0,0,0,0,0,0,0,0,-1,2015,1576,0,0
798,-552,0,0,0,0,0,0,0,0,0,-1,2022,1576,0,0
805,-552,0,0,0,0,0,0,0,0,0,-1,2029,1576,0,0
812,-552,0,0,0,0,0,0,0,0,0,-1,2036,1576,0,0
-700,-559,0,0,0,0,0,0,0,0,0,-1,524,1583,0,0
-693,-559,0,0,0,0,0,0,0,0,0,-1,531,1583,0,0
-686,-559,0,0,0,0,0,0,0,0,0,-1,538,1583,0,0
-679,-559,0,0,0,0,0,0,0,0,0,-1,545,1583,0,0
-672,-559,0,0,0,0,0,0,0,0,0,-1,552,1583,0,0
-665,-559,0,0,0,0,0,0,0,0,0,-1,559,1583,0,0
-658,-559,0,0,0,0,0,0,0,0,0,-1,566,1583,0,0
-651,-559,0,0,0,0,0,0,0,0,0,-1,573,1583,0,0
-644,-559,0,0,0,0,0,0,0,0,0,-1,580,1583,0,0
-637,-559,0,0,0,0,0,0,0,0,0,-1,587,1583,0,0
-630,-559,0,0,0,0,0,0,0,0,0,-1,594,1583,0,0
-623,-559,0,0,0,0,0,0,0,0,0,-1,601,1583,0,0
-616,-559,0,0,0,0,0,0,0,0,0,-1,608,1583,0,0
-609,-559,0,0,0,0,0,0,0,0,0,-1,615,1583,0,0
-602,-559,0,0,0,0,0,0,0,0,0,-1,622,1583,0,0
-595,-559,0,0,0,0,0,0,0,0,0,-1,629,1583,0,0
-588,-559,0,0,0,0,0,0,0,0,0,-1,636,1583,0,0
-581,-559,0,0,0,0,0,0,0,0,0,-1,643,1583,0,0
-574,-559,0,0,0,0,0,0,0,0,0,-1,650,1583,0,0
-567,-559,0,0,0,0,0,0,0,0,0,-1,657,1583,0,0
-560,-559,0,0,0,0,0,0,0,0,0,-1,664,1583,0,0
-553,-559,0,0,0,0,0,0,0,0,0,-1,671,1583,0,0
-546,-559,0,0,0,0,0,0,0,0,0,-1,678,1583,0,0
-539,-559,0,0,0,0,0,0,0,0,0,-1,685,1583,0,0
-532,-559,0,0,0,0,0,0,0,0,0,-1,692,1583,0,0
-525,-559,0,0,0,0,0,0,0,0,0,-1,699,1583,0,0
-518,-559,0,0,0,0,0,0,0,0,0,-1,706,1583,0,0
-511,-559,0,0,0,0,0,0,0,0,0,-1,713,1583,0,0
-504,-559,0,0,0,0,0,0,0,0,0,-1,720,1583,0,0
-497,-559,0,0,0,0,0,0,0,0,0,-1,727,1583,0,0
-490,-559,-5.49835,4.47424,0,0,0,0,0,0,0,-1,734,1583,-5.49833,-4.4743
-483,-559,-5.24078,4.74561,0,0,0,0,0,0,0,-1,741,1583,-5.24079,-4.74563
-476,-559,-4.98022,4.99316,0,0,0,0,0,0,0,-1,748,1583,-4.98024,-4.99321
-469,-559,-4.6424,5.38062,0,0,0,0,0,0,0,-1,755,1583,-4.64237,-5.38058
-462,-559,-0.161865,6.49438,0,0,0,0,0,0,0,-1,762,1583,-0.161835,-6.49444
-455,-559,1.08826,7.02527,0,0,0,0,0,0,0,-1,769,1583,1.08823,-7.02529
-448,-559,0.159729,15.7843,0,0,0,0,0,0,0,-1,776,1583,0.159731,-15.7844
-441,-559,-0.00616455,16.6371,0,0,0,0,0,0,0,-1,783,1583,-0.00614339,-16.637
-434,-559,0.30365,17.4438,0.0068358,0.00138689,-0.00476912,0.0096038,-0.00138111,-0.525885,0.00690908,0.0455821,790,1583,0.303625,-17.4439
-427,-559,-0.106934,17.9376,0.00173973,0.00057463,-0.00390922,0.00510957,-0.00279521,-0.711433,0.00462857,0.0374681,797,1583,-0.106936,-17.9376
-420,-559,-0.319153,18.2859,-0.000699522,0.000437495,-0.00319693,0.00311607,-0.0033781,-0.873393,0.00375043,0.041314,804,1583,-0.319128,-18.2859
-413,-559,-0.269043,18.7673,-0.00379108,0.00102349,-0.00248151,0.0020735,-0.00484109,-1.17051,0.00409735,0.0160624,811,1583,-0.26903,-18.7673
-406,-559,-0.288757,19.2399,-0.00446281,0.000624851,-0.00112792,0.000863697,-0.00470165,-1.36212,0.00345847,0.00983041,818,1583,-0.288746,-19.2398
-399,-559,-0.299561,19.714,-0.00291777,0.000942146,-0.000556035,0.00102065,-0.00299627,-1.43054,0.00241085,0.0128306,825,1583,-0.299588,-19.714
-392,-559,-0.339966,20.1874,-0.00168427,0.00103416,-0.000233434,0.00105406,-0.00170417,-1.48576,0.00160714,0.016145,832,1583,-0.339939,-20.1874
-385,-559,-0.352051,20.6533,-0.000631548,0.00154225,0.000173779,0.00155606,-0.000645353,1.49152,0.00130674,0.017036,839,1583,-0.352021,-20.6533
-378,-559,-0.362122,21.108,0.000390681,0.00223037,0.000685114,0.00245747,0.000163575,1.25071,0.0015866,0.0153787,846,1583,-0.362112,-21.108
-371,-559,-0.367249,21.5906,0.00108324,0.00289764,0.00092595,0.00328674,0.000694141,1.17298,0.00200034,0.0211853,853,1583,-0.367262,-21.5906
-364,-559,-0.363831,22.0343,0.00159845,0.00349798,0.00103309,0.00395154,0.00114489,1.1571,0.0023477,0.0197467,860,1583,-0.363801,-22.0343
-357,-559,-0.381042,22.4717,0.00209826,0.00423158,0.00112813,0.00471748,0.00161236,1.1641,0.00276872,0.0121362,867,1583,-0.381014,-22.4716
-350,-559,-0.38324,22.9081,0.00268695,0.0049835,0.00120347,0.00549862,0.00217183,1.16636,0.00319789,0.00966854,874,1583,-0.383231,-22.9081
-343,-559,-0.379822,23.349,0.00328827,0.00592995,0.00126366,0.00643708,0.00278114,1.18916,0.00372787,0.010714,881,1583,-0.379793,-23.349
-336,-559,-0.429626,23.7542,0.0039198,0.0069613,0.00131318,0.00744981,0.00343129,1.21465,0.0043056,0.0201851,888,1583,-0.429622,-23.7542
-329,-559,-0.329834,24.399,0.00455092,0.00815033,0.00160859,0.00876444,0.00393681,1.2061,0.00506886,0.0362355,895,1583,-0.329835,-24.399
-322,-559,0.017395,25.1486,0,0,0,0,0,0,0,-1,902,1583,0.0173789,-25.1486
-315,-559,0.290222,25.2178,0,0,0,0,0,0,0,-1,909,1583,0.290193,-25.2178
-308,-559,0.233093,25.8513,0,0,0,0,0,0,0,-1,916,1583,0.233073,-25.8514
-301,-559,1.97064,24.717,0,0,0,0,0,0,0,-1,923,1583,1.97066,-24.717
-294,-559,0.945129,18.5165,0,0,0,0,0,0,0,-1,930,1583,0.945117,-18.5165
-287,-559,-0.11792,15.4912,0,0,0,0,0,0,0,-1,937,1583,-0.117939,-15.4912
-280,-559,0.191467,13.5093,0,0,0,0,0,0,0,-1,944,1583,0.191441,-13.5093
-273,-559,2.12836,10.3059,0,0,0,0,0,0,0,-1,951,1583,2.12839,-10.3059
-266,-559,-0.597046,6.68933,0,0,0,0,0,0,0,-1,958,1583,-0.597031,-6.68937
-259,-559,-7.00311,8.62756,0,0,0,0,0,0,0,-1,965,1583,-7.00312,-8.6275
-252,-559,-9.4483,2.87805,0,0,0,0,0,0,0,-1,972,1583,-9.44829,-2.87805
-245,-559,-4.80804,7.1803,0,0,0,0,0,0,0,-1,979,1583,-4.80804,-7.18027
-238,-559,-8.45764,2.54858,0,0,0,0,0,0,0,-1,986,1583,-8.45763,-2.54862
-231,-559,-5.86914,4.34021,0,0,0,0,0,0,0,-1,993,1583,-5.86914,-4.34019
-224,-559,-3.30505,6.22864,0,0,0,0,0,0,0,-1,1000,1583,-3.30505,-6.22859
-217,-559,0,0,0,0,0,0,0,0,0,-1,1007,1583,0,0
-210,-559,0,0,0,0,0,0,0,0,0,-1,1014,1583,0,0
-203,-559,0,0,0,0,0,0,0,0,0,-1,1021,1583,0,0
-196,-559,0,0,0,0,0,0,0,0,0,-1,1028,1583,0,0
-189,-559,0,0,0,0,0,0,0,0,0,-1,1035,1583,0,0
-182,-559,0,0,0,0,0,0,0,0,0,-1,1042,1583,0,0
-175,-559,0,0,0,0,0,0,0,0,0,-1,1049,1583,0,0
-168,-559,0,0,0,0,0,0,0,0,0,-1,1056,1583,0,0
-161,-559,0,0,0,0,0,0,0,0,0,-1,1063,1583,0,0
-154,-559,0,0,0,0,0,0,0,0,0,-1,1070,1583,0,0
-147,-559,0,0,0,0,0,0,0,0,0,-1,1077,1583,0,0
-140,-559,0,0,0,0,0,0,0,0,0,-1,1084,1583,0,0
-133,-559,0,0,0,0,0,0,0,0,0,-1,1091,1583,0,0
-126,-559,0,0,0,0,0,0,0,0,0,-1,1098,1583,0,0
-119,-559,0,0,0,0,0,0,0,0,0,-1,1105,1583,0,0
-112,-559,0,0,0,0,0,0,0,0,0,-1,1112,1583,0,0
-105,-559,0,0,0,0,0,0,0,0,0,-1,1119,1583,0,0
-98,-559,0,0,0,0,0,0,0,0,0,-1,1126,1583,0,0
-91,-559,0,0,0,0,0,0,0,0,0,-1,1133,1583,0,0
-84,-559,0,0,0,0,0,0,0,0,0,-1,1140,1583,0,0
-77,-559,0,0,0,0,0,0,0,0,0,-1,1147,1583,0,0
-70,-559,0,0,0,0,0,0,0,0,0,-1,1154,1583,0,0
-63,-559,0,0,0,0,0,0,0,0,0,-1,1161,1583,0,0
-56,-559,0,0,0,0,0,0,0,0,0,-1,1168,1583,0,0
-49,-559,0,0,0,0,0,0,0,0,0,-1,1175,1583,0,0
-42,-559,0,0,0,0,0,0,0,0,0,-1,1182,1583,0,0
-35,-559,0,0,0,0,0,0,0,0,0,-1,1189,1583,0,0
-28,-559,0,0,0,0,0,0,0,0,0,-1,1196,1583,0,0
-21,-559,0,0,0,0,0,0,0,0,0,-1,1203,1583,0,0
-14,-559,0,0,0,0,0,0,0,0,0,-1,1210,1583,0,0
-7,-559,0,0,0,0,0,0,0,0,0,-1,1217,1583,0,0
0,-559,0,0,0,0,0,0,0,0,0,-1,1224,1583,0,0
7,-559,0,0,0,0,0,0,0,0,0,-1,1231,1583,0,0
14,-559,0,0,0,0,0,0,0,0,0,-1,1238,1583,0,0
21,-559,0,0,0,0,0,0,0,0,0,-1,1245,1583,0,0
28,-559,0,0,0,0,0,0,0,0,0,-1,1252,1583,0,0
35,-559,0,0,0,0,0,0,0,0,0,-1,1259,1583,0,0
42,-559,0,0,0,0,0,0,0,0,0,-1,1266,1583,0,0
49,-559,0,0,0,0,0,0,0,0,0,-1,1273,1583,0,0
56,-559,0,0,0,0,0,0,0,0,0,-1,1280,1583,0,0
63,-559,0,0,0,0,0,0,0,0,0,-1,1287,1583,0,0
70,-559,0,0,0,0,0,0,0,0,0,-1,1294,1583,0,0
77,-559,0,0,0,0,0,0,0,0,0,-1,1301,1583,0,0
84,-559,0,0,0,0,0,0,0,0,0,-1,1308,1583,0,0
91,-559,0,0,0,0,0,0,0,0,0,-1,1315,1583,0,0
98,-559,0,0,0,0,0,0,0,0,0,-1,1322,1583,0,0
105,-559,0,0,0,0,0,0,0,0,0,-1,1329,1583,0,0
112,-559,0,0,0,0,0,0,0,0,0,-1,1336,1583,0,0
119,-559,0,0,0,0,0,0,0,0,0,-1,1343,1583,0,0
126,-559,0,0,0,0,0,0,0,0,0,-1,1350,1583,0,0
133,-559,0,0,0,0,0,0,0,0,0,-1,1357,1583,0,0
140,-559,0,0,0,0,0,0,0,0,0,-1,1364,1583,0,0
147,-559,0,0,0,0,0,0,0,0,0,-1,1371,1583,0,0
154,-559,0,0,0,0,0,0,0,0,0,-1,1378,1583,0,0
161,-559,0,0,0,0,0,0,0,0,0,-1,1385,1583,0,0
168,-559,0,0,0,0,0,0,0,0,0,-1,1392,1583,0,0
175,-559,0,0,0,0,0,0,0,0,0,-1,1399,1583,0,0
182,-559,0,0,0,0,0,0,0,0,0,-1,1406,1583,0,0
189,-559,0,0,0,0,0,0,0,0,0,-1,1413,1583,0,0
196,-559,0,0,0,0,0,0,0,0,0,-1,1420,1583,0,0
203,-559,0,0,0,0,0,0,0,0,0,-1,1427,1583,0,0
210,-559,0,0,0,0,0,0,0,0,0,-1,1434,1583,0,0
217,-559,0,0,0,0,0,0,0,0,0,-1,1441,1583,0,0
224,-559,0,0,0,0,0,0,0,0,0,-1,1448,1583,0,0
231,-559,0,0,0,0,0,0,0,0,0,-1,1455,1583,0,0
238,-559,0,0,0,0,0,0,0,0,0,-1,1462,1583,0,0
245,-559,0,0,0,0,0,0,0,0,0,-1,1469,1583,0,0
252,-559,0,0,0,0,0,0,0,0,0,-1,1476,1583,0,0
259,-559,0,0,0,0,0,0,0,0,0,-1,1483,1583,0,0
266,-559,0,0,0,0,0,0,0,0,0,-1,1490,1583,0,0
273,-559,0,0,0,0,0,0,0,0,0,-1,1497,1583,0,0
280,-559,0,0,0,0,0,0,0,0,0,-1,1504,1583,0,0
287,-559,0,0,0,0,0,0,0,0,0,-1,1511,1583,0,0
294,-559,0,0,0,0,0,0,0,0,0,-1,1518,1583,0,0
301,-559,0,0,0,0,0,0,0,0,0,-1,1525,1583,0,0
308,-559,0,0,0,0,0,0,0,0,0,-1,1532,1583,0,0
315,-559,0,0,0,0,0,0,0,0,0,-1,1539,1583,0,0
322,-559,0,0,0,0,0,0,0,0,0,-1,1546,1583,0,0
329,-559,0,0,0,0,0,0,0,0,0,-1,1553,1583,0,0
336,-559,5.97668,3.09827,0,0,0,0,0,0,0,-1,1560,1583,5.97667,-3.09824
343,-559,5.44824,2.88696,0,0,0,0,0,0,0,-1,1567,1583,5.44819,-2.88693
350,-559,4.69775,3.27051,0,0,0,0,0,0,0,-1,1574,1583,4.69771,-3.27048
357,-559,3.88025,3.60999,0,0,0,0,0,0,0,-1,1581,1583,3.88027,-3.60998
364,-559,5.00928,5.32605,0,0,0,0,0,0,0,-1,1588,1583,5.00928,-5.32607
371,-559,1.84436,2.52441,0,0,0,0,0,0,0,-1,1595,1583,1.84441,-2.52447
378,-559,6.34753,1.53137,0,0,0,0,0,0,0,-1,1602,1583,6.34752,-1.53139
385,-559,6.95911,1.48181,0,0,0,0,0,0,0,-1,1609,1583,6.95916,-1.48175
392,-559,11.6949,4.77734,0,0,0,0,0,0,0,-1,1616,1583,11.6949,-4.77731
399,-559,11.1104,5.56909,0,0,0,0,0,0,0,-1,1623,1583,11.1103,-5.56905
406,-559,10.3385,6.48657,0,0,0,0,0,0,0,-1,1630,1583,10.3385,-6.48661
413,-559,9.76147,6.97571,0,0,0,0,0,0,0,-1,1637,1583,9.76143,-6.97574
420,-559,7.77124,10.5851,0,0,0,0,0,0,0,-1,1644,1583,7.77128,-10.585
427,-559,10.1022,12.5565,0,0,0,0,0,0,0,-1,1651,1583,10.1021,-12.5565
434,-559,9.62769,14.6309,0,0,0,0,0,0,0,-1,1658,1583,9.62771,-14.6309
441,-559,12.6149,21.3678,0,0,0,0,0,0,0,-1,1665,1583,12.6149,-21.3678
448,-559,13.7046,22.6677,0,0,0,0,0,0,0,-1,1672,1583,13.7046,-22.6677
455,-559,13.9427,23.0509,0,0,0,0,0,0,0,-1,1679,1583,13.9427,-23.0509
462,-559,14.8973,25.5504,0,0,0,0,0,0,0,-1,1686,1583,14.8974,-25.5504
469,-559,14.8043,24.941,0.00236039,0.0168116,-0.00599711,0.0189762,0.000195866,-1.22442,0.012586,0.0407074,1693,1583,14.8043,-24.941
476,-559,15.0021,24.3386,0.0029689,0.0133506,-0.00544997,0.0156862,0.000633334,-1.16593,0.0102529,0.0183569,1700,1583,15.0021,-24.3386
483,-559,15.0911,23.792,0.00344306,0.0101759,-0.00493421,0.0127827,0.00083628,-1.08476,0.00825718,0.0132325,1707,1583,15.0911,-23.792
490,-559,15.0656,23.3625,0.00317061,0.00748576,-0.00390974,0.00979374,0.000862626,-1.03753,0.00626146,0.0153703,1714,1583,15.0655,-23.3626
497,-559,15.0854,22.9775,0.00283167,0.00522207,-0.00315338,0.00739916,0.000654591,-0.966544,0.0047297,0.0181549,1721,1583,15.0855,-22.9775
504,-559,15.082,22.5505,0.00224132,0.00335812,-0.00229069,0.00515749,0.000441954,-0.904952,0.00330088,0.0223405,1728,1583,15.0821,-22.5505
511,-559,15.0526,22.0931,0.00155688,0.00190949,-0.00151357,0.00325699,0.000209373,-0.843378,0.00210501,0.0198482,1735,1583,15.0526,-22.0932
518,-559,15.0791,21.6621,0.000918075,0.000636017,-0.000869856,0.00165826,-0.000104169,-0.705033,0.00114181,0.0137877,1742,1583,15.0792,-21.6621
525,-559,15.0466,21.2374,0.000372912,-0.000380967,-0.000351976,0.000511696,-0.000519751,-0.375582,0.000595512,0.0136072,1749,1583,15.0466,-21.2375
532,-559,15.0107,20.8124,3.46421e-05,-0.0011632,-9.49174e-06,3.47173e-05,-0.00116327,-0.00792337,0.000787344,0.0144027,1756,1583,15.0107,-20.8124
539,-559,14.9972,20.3816,-0.000215159,-0.00173449,0.00023711,-0.000179015,-0.00177064,0.151271,0.00112551,0.018308,1763,1583,14.9972,-20.3816
546,-559,14.9667,19.9491,-0.000431267,-0.00224569,0.000470933,-0.000316319,-0.00236064,0.239405,0.00147963,0.0169081,1770,1583,14.9667,-19.9491
553,-559,15.033,19.463,-0.000388067,-0.00259682,0.000599857,-0.000235671,-0.00274922,0.24879,0.00175952,0.0205385,1777,1583,15.0329,-19.463
560,-559,14.9423,19.1165,-7.99036e-06,-0.00279319,0.00052281,8.69129e-05,-0.00288809,0.17957,0.00195501,0.0398006,1784,1583,14.9422,-19.1165
567,-559,14.7847,18.6069,0,0,0,0,0,0,0,-1,1791,1583,14.7847,-18.6069
574,-559,10.5109,10.7317,0,0,0,0,0,0,0,-1,1798,1583,10.5108,-10.7317
581,-559,5.97095,5.96179,0,0,0,0,0,0,0,-1,1805,1583,5.97093,-5.96181
588,-559,5.79102,5.89954,0,0,0,0,0,0,0,-1,1812,1583,5.79098,-5.89949
595,-559,5.79089,6.24231,0,0,0,0,0,0,0,-1,1819,1583,5.7909,-6.24227
602,-559,12.478,2.35669,0,0,0,0,0,0,0,-1,1826,1583,12.4781,-2.35675
609,-559,14.0479,1.22681,0,0,0,0,0,0,0,-1,1833,1583,14.0479,-1.22681
616,-559,0,0,0,0,0,0,0,0,0,-1,1840,1583,0,0
623,-559,0,0,0,0,0,0,0,0,0,-1,1847,1583,0,0
630,-559,0,0,0,0,0,0,0,0,0,-1,1854,1583,0,0
637,-559,0,0,0,0,0,0,0,0,0,-1,1861,1583,0,0
644,-559,0,0,0,0,0,0,0,0,0,-1,1868,1583,0,0
651,-559,0,0,0,0,0,0,0,0,0,-1,1875,1583,0,0
658,-559,0,0,0,0,0,0,0,0,0,-1,1882,1583,0,0
665,-559,0,0,0,0,0,0,0,0,0,-1,1889,1583,0,0
672,-559,0,0,0,0,0,0,0,0,0,-1,1896,1583,0,0
679,-559,0,0,0,0,0,0,0,0,0,-1,1903,1583,0,0
686,-559,0,0,0,0,0,0,0,0,0,-1,1910,1583,0,0
693,-559,0,0,0,0,0,0,0,0,0,-1,1917,1583,0,0
700,-559,0,0,0,0,0,0,0,0,0,-1,1924,1583,0,0
707,-559,0,0,0,0,0,0,0,0,0,-1,1931,1583,0,0
714,-559,0,0,0,0,0,0,0,0,0,-1,1938,1583,0,0
721,-559,0,0,0,0,0,0,0,0,0,-1,1945,1583,0,0
728,-559,0,0,0,0,0,0,0,0,0,-1,1952,1583,0,0
735,-559,0,0,0,0,0,0,0,0,0,-1,1959,1583,0,0
742,-559,0,0,0,0,0,0,0,0,0,-1,1966,1583,0,0
749,-559,0,0,0,0,0,0,0,0,0,-1,1973,1583,0,0
756,-559,0,0,0,0,0,0,0,0,0,-1,1980,1583,0,0
763,-559,0,0,0,0,0,0,0,0,0,-1,1987,1583,0,0
770,-559,0,0,0,0,0,0,0,0,0,-1,1994,1583,0,0
777,-559,0,0,0,0,0,0,0,0,0,-1,2001,1583,0,0
784,-559,0,0,0,0,0,0,0,0,0,-1,2008,1583,0,0
791,-559,0,0,0,0,0,0,0,0,0,-1,2015,1583,0,0
798,-559,0,0,0,0,0,0,0,0,0,-1,2022,1583,0,0
805,-559,0,0,0,0,0,0,0,0,0,-1,2029,1583,0,0
812,-559,0,0,0,0,0,0,0,0,0,-1,2036,1583,0,0
-700,-566,0,0,0,0,0,0,0,0,0,-1,524,1590,0,0
-693,-566,0,0,0,0,0,0,0,0,0,-1,531,1590,0,0
-686,-566,0,0,0,0,0,0,0,0,0,-1,538,1590,0,0
-679,-566,0,0,0,0,0,0,0,0,0,-1,545,1590,0,0
-672,-566,0,0,0,0,0,0,0,0,0,-1,552,1590,0,0
-665,-566,0,0,0,0,0,0,0,0,0,-1,559,1590,0,0
-658,-566,0,0,0,0,0,0,0,0,0,-1,566,1590,0,0
-651,-566,0,0,0,0,0,0,0,0,0,-1,573,1590,0,0
-644,-566,0,0,0,0,0,0,0,0,0,-1,580,1590,0,0
-637,-566,0,0,0,0,0,0,0,0,0,-1,587,1590,0,0
-630,-566,0,0,0,0,0,0,0,0,0,-1,594,1590,0,0
-623,-566,0,0,0,0,0,0,0,0,0,-1,601,1590,0,0
-616,-566,0,0,0,0,0,0,0,0,0,-1,608,1590,0,0
-609,-566,0,0,0,0,0,0,0,0,0,-1,615,1590,0,0
-602,-566,0,0,0,0,0,0,0,0,0,-1,622,1590,0,0
-595,-566,0,0,0,0,0,0,0,0,0,-1,629,1590,0,0
-588,-566,0,0,0,0,0,0,0,0,0,-1,636,1590,0,0
-581,-566,0,0,0,0,0,0,0,0,0,-1,643,1590,0,0
-574,-566,0,0,0,0,0,0,0,0,0,-1,650,1590,0,0
-567,-566,0,0,0,0,0,0,0,0,0,-1,657,1590,0,0
-560,-566,0,0,0,0,0,0,0,0,0,-1,664,1590,0,0
-553,-566,0,0,0,0,0,0,0,0,0,-1,671,1590,0,0
-546,-566,0,0,0,0,0,0,0,0,0,-1,678,1590,0,0
-539,-566,0,0,0,0,0,0,0,0,0,-1,685,1590,0,0
-532,-566,0,0,0,0,0,0,0,0,0,-1,692,1590,0,0
-525,-566,0,0,0,0,0,0,0,0,0,-1,699,1590,0,0
-518,-566,0,0,0,0,0,0,0,0,0,-1,706,1590,0,0
-511,-566,0,0,0,0,0,0,0,0,0,-1,713,1590,0,0
-504,-566,0,0,0,0,0,0,0,0,0,-1,720,1590,0,0
-497,-566,0,0,0,0,0,0,0,0,0,-1,727,1590,0,0
-490,-566,0,0,0,0,0,0,0,0,0,-1,734,1590,0,0
-483,-566,-7.17084,2.78613,0,0,0,0,0,0,0,-1,741,1590,-7.17083,-2.78618
-476,-566,-7.13971,2.87183,0,0,0,0,0,0,0,-1,748,1590,-7.13971,-2.87184
-469,-566,-6.43829,3.2998,0,0,0,0,0,0,0,-1,755,1590,-6.43829,-3.2998
-462,-566,-0.459106,3.89343,0,0,0,0,0,0,0,-1,762,1590,-0.459095,-3.89341
-455,-566,0.280212,4.74023,0,0,0,0,0,0,0,-1,769,1590,0.280207,-4.74023
-448,-566,0.436951,5.51306,0,0,0,0,0,0,0,-1,776,1590,0.436971,-5.51301
-441,-566,-0.440735,12.4063,0,0,0,0,0,0,0,-1,783,1590,-0.440753,-12.4062
-434,-566,0.842957,17.5281,0,0,0,0,0,0,0,-1,790,1590,0.842929,-17.528
-427,-566,0.343262,18.066,0,0,0,0,0,0,0,-1,797,1590,0.343266,-18.066
-420,-566,0.086731,18.2194,0,0,0,0,0,0,0,-1,804,1590,0.0867529,-18.2194
-413,-566,0.1922,18.7859,-0.00531478,0.00117087,-0.00317153,0.00246396,-0.00660787,-1.18365,0.0054167,0.0257669,811,1590,0.192216,-18.7859
-406,-566,0.180054,19.2688,-0.00582958,0.000367049,-0.00183958,0.000872012,-0.00633454,-1.3029,0.00454169,0.0109692,818,1590,0.180073,-19.2688
-399,-566,0.159851,19.7433,-0.00409038,0.000410607,-0.00125411,0.000736451,-0.00441622,-1.3166,0.00321784,0.0101476,825,1590,0.159836,-19.7433
-392,-566,0.132019,20.1971,-0.00269909,0.000216651,-0.000907918,0.00047625,-0.00295868,-1.2923,0.00214887,0.0132114,832,1590,0.132038,-20.1972
-385,-566,0.141907,20.6727,-0.00156427,0.000567412,-0.000492448,0.000675676,-0.00167253,-1.35439,0.00139586,0.0158238,839,1590,0.141918,-20.6727
-378,-566,0.128784,21.157,-0.000456058,0.00107145,5.64315e-05,0.00107353,-0.000458139,1.53392,0.000907789,0.0156863,846,1590,0.128811,-21.157
-371,-566,0.0750122,21.6271,0.000307815,0.00163143,0.000337571,0.00171255,0.000226693,1.33496,0.00107414,0.0212424,853,1590,0.0750345,-21.627
-364,-566,0.0621948,22.0684,0.000864094,0.00213097,0.000504737,0.00230748,0.000687592,1.2344,0.00136799,0.0218284,860,1590,0.0621866,-22.0683
-357,-566,0.0488892,22.4707,0.001395,0.00279775,0.000680114,0.00307335,0.0011194,1.18579,0.00179608,0.0177845,867,1590,0.0488743,-22.4707
-350,-566,0.0369873,22.91,0.00201547,0.00349441,0.000839958,0.00387402,0.00163586,1.14633,0.00224566,0.0198956,874,1590,0.0370119,-22.91
-343,-566,0.0679321,23.3195,0.00264878,0.00439912,0.00103836,0.00488194,0.00216597,1.13556,0.00282454,0.0240878,881,1590,0.0679349,-23.3194
-336,-566,-0.00958252,23.791,0.00331614,0.00534951,0.00122803,0.0059271,0.00273855,1.13116,0.0034253,0.0280815,888,1590,-0.00956436,-23.7911
-329,-566,0.0631714,24.1428,0.0039477,0.00641799,0.00158375,0.00719129,0.0031744,1.11657,0.00416138,0.023443,895,1590,0.0631572,-24.1428
-322,-566,0.134583,24.7367,0.00464373,0.0073742,0.00205115,0.00847293,0.00354501,1.07903,0.00491352,0.0302219,902,1590,0.13457,-24.7366
-315,-566,0.0449219,25.1273,0,0,0,0,0,0,0,-1,909,1590,0.0449508,-25.1274
-308,-566,0.315552,25.7393,0,0,0,0,0,0,0,-1,916,1590,0.315561,-25.7393
-301,-566,0.679993,26.4414,0,0,0,0,0,0,0,-1,923,1590,0.679997,-26.4414
-294,-566,0.741455,25.3229,0,0,0,0,0,0,0,-1,930,1590,0.741475,-25.3229
-287,-566,1.25391,23.4589,0,0,0,0,0,0,0,-1,937,1590,1.2539,-23.4589
-280,-566,1.59406,17.8762,0,0,0,0,0,0,0,-1,944,1590,1.59405,-17.8762
-273,-566,0.49762,11.2427,0,0,0,0,0,0,0,-1,951,1590,0.497591,-11.2426
-266,-566,0.392151,6.90295,0,0,0,0,0,0,0,-1,958,1590,0.392151,-6.90294
-259,-566,0.343628,6.47437,0,0,0,0,0,0,0,-1,965,1590,0.34363,-6.47438
-252,-566,-7.68311,1.01343,0,0,0,0,0,0,0,-1,972,1590,-7.68308,-1.01348
-245,-566,-11.1835,1.97522,0,0,0,0,0,0,0,-1,979,1590,-11.1835,-1.97527
-238,-566,-10.4883,2.40491,0,0,0,0,0,0,0,-1,986,1590,-10.4883,-2.40487
-231,-566,-7.41827,4.22803,0,0,0,0,0,0,0,-1,993,1590,-7.41827,-4.22803
-224,-566,-4.67188,6.30859,0,0,0,0,0,0,0,-1,1000,1590,-4.67185,-6.30853
-217,-566,-2.82867,7.52527,0,0,0,0,0,0,0,-1,1007,1590,-2.82869,-7.52531
-210,-566,-1.03436,8.67737,0,0,0,0,0,0,0,-1,1014,1590,-1.03439,-8.67733
-203,-566,0,0,0,0,0,0,0,0,0,-1,1021,1590,0,0
-196,-566,0,0,0,0,0,0,0,0,0,-1,1028,1590,0,0
-189,-566,0,0,0,0,0,0,0,0,0,-1,1035,1590,0,0
-182,-566,0,0,0,0,0,0,0,0,0,-1,1042,1590,0,0
-175,-566,0,0,0,0,0,0,0,0,0,-1,1049,1590,0,0
-168,-566,0,0,0,0,0,0,0,0,0,-1,1056,1590,0,0
-161,-566,0,0,0,0,0,0,0,0,0,-1,1063,1590,0,0
-154,-566,0,0,0,0,0,0,0,0,0,-1,1070,1590,0,0
-147,-566,0,0,0,0,0,0,0,0,0,-1,1077,1590,0,0
-140,-566,0,0,0,0,0,0,0,0,0,-1,1084,1590,0,0
-133,-566,0,0,0,0,0,0,0,0,0,-1,1091,1590,0,0
-126,-566,0,0,0,0,0,0,0,0,0,-1,1098,1590,0,0
-119,-566,0,0,0,0,0,0,0,0,0,-1,1105,1590,0,0
-112,-566,0,0,0,0,0,0,0,0,0,-1,1112,1590,0,0
-105,-566,0,0,0,0,0,0,0,0,0,-1,1119,1590,0,0
-98,-566,0,0,0,0,0,0,0,0,0,-1,1126,1590,0,0
-91,-566,0,0,0,0,0,0,0,0,0,-1,1133,1590,0,0
-84,-566,0,0,0,0,0,0,0,0,0,-1,1140,1590,0,0
-77,-566,0,0,0,0,0,0,0,0,0,-1,1147,1590,0,0
-70,-566,0,0,0,0,0,0,0,0,0,-1,1154,1590,0,0
-63,-566,0,0,0,0,0,0,0,0,0,-1,1161,1590,0,0
-56,-566,0,0,0,0,0,0,0,0,0,-1,1168,1590,0,0
-49,-566,0,0,0,0,0,0,0,0,0,-1,1175,1590,0,0
-42,-566,0,0,0,0,0,0,0,0,0,-1,1182,1590,0,0
-35,-566,0,0,0,0,0,0,0,0,0,-1,1189,1590,0,0
-28,-566,0,0,0,0,0,0,0,0,0,-1,1196,1590,0,0
-21,-566,0,0,0,0,0,0,0,0,0,-1,1203,1590,0,0
-14,-566,0,0,0,0,0,0,0,0,0,-1,1210,1590,0,0
-7,-566,0,0,0,0,0,0,0,0,0,-1,1217,1590,0,0
0,-566,0,0,0,0,0,0,0,0,0,-1,1224,1590,0,0
7,-566,0,0,0,0,0,0,0,0,0,-1,1231,1590,0,0
14,-566,0,0,0,0,0,0,0,0,0,-1,1238,1590,0,0
21,-566,0,0,0,0,0,0,0,0,0,-1,1245,1590,0,0
28,-566,0,0,0,0,0,0,0,0,0,-1,1252,1590,0,0
35,-566,0,0,0,0,0,0,0,0,0,-1,1259,1590,0,0
42,-566,0,0,0,0,0,0,0,0,0,-1,1266,1590,0,0
49,-566,0,0,0,0,0,0,0,0,0,-1,1273,1590,0,0
56,-566,0,0,0,0,0,0,0,0,0,-1,1280,1590,0,0
63,-566,0,0,0,0,0,0,0,0,0,-1,1287,1590,0,0
70,-566,0,0,0,0,0,0,0,0,0,-1,1294,1590,0,0
77,-566,0,0,0,0,0,0,0,0,0,-1,1301,1590,0,0
84,-566,0,0,0,0,0,0,0,0,0,-1,1308,1590,0,0
91,-566,0,0,0,0,0,0,0,0,0,-1,1315,1590,0,0
98,-566,0,0,0,0,0,0,0,0,0,-1,1322,1590,0,0
105,-566,0,0,0,0,0,0,0,0,0,-1,1329,1590,0,0
112,-566,0,0,0,0,0,0,0,0,0,-1,1336,1590,0,0
119,-566,0,0,0,0,0,0,0,0,0,-1,1343,1590,0,0
126,-566,0,0,0,0,0,0,0,0,0,-1,1350,1590,0,0
133,-566,0,0,0,0,0,0,0,0,0,-1,1357,1590,0,0
140,-566,0,0,0,0,0,0,0,0,0,-1,1364,1590,0,0
147,-566,0,0,0,0,0,0,0,0,0,-1,1371,1590,0,0
154,-566,0,0,0,0,0,0,0,0,0,-1,1378,1590,0,0
161,-566,0,0,0,0,0,0,0,0,0,-1,1385,1590,0,0
168,-566,0,0,0,0,0,0,0,0,0,-1,1392,1590,0,0
175,-566,0,0,0,0,0,0,0,0,0,-1,1399,1590,0,0
182,-566,0,0,0,0,0,0,0,0,0,-1,1406,1590,0,0
189,-566,0,0,0,0,0,0,0,0,0,-1,1413,1590,0,0
196,-566,0,0,0,0,0,0,0,0,0,-1,1420,1590,0,0
203,-566,0,0,0,0,0,0,0,0,0,-1,1427,1590,0,0
210,-566,0,0,0,0,0,0,0,0,0,-1,1434,1590,0,0
217,-566,0,0,0,0,0,0,0,0,0,-1,1441,1590,0,0
224,-566,0,0,0,0,0,0,0,0,0,-1,1448,1590,0,0
231,-566,0,0,0,0,0,0,0,0,0,-1,1455,1590,0,0
238,-566,0,0,0,0,0,0,0,0,0,-1,1462,1590,0,0
245,-566,0,0,0,0,0,0,0,0,0,-1,1469,1590,0,0
252,-566,0,0,0,0,0,0,0,0,0,-1,1476,1590,0,0
259,-566,0,0,0,0,0,0,0,0,0,-1,1483,1590,0,0
266,-566,0,0,0,0,0,0,0,0,0,-1,1490,1590,0,0
273,-566,0,0,0,0,0,0,0,0,0,-1,1497,1590,0,0
280,-566,0,0,0,0,0,0,0,0,0,-1,1504,1590,0,0
287,-566,0,0,0,0,0,0,0,0,0,-1,1511,1590,0,0
294,-566,0,0,0,0,0,0,0,0,0,-1,1518,1590,0,0
301,-566,0,0,0,0,0,0,0,0,0,-1,1525,1590,0,0
308,-566,0,0,0,0,0,0,0,0,0,-1,1532,1590,0,0
315,-566,0,0,0,0,0,0,0,0,0,-1,1539,1590,0,0
322,-566,6.07983,4.44873,0,0,0,0,0,0,0,-1,1546,1590,6.07983,-4.44873
329,-566,5.77026,3.47534,0,0,0,0,0,0,0,-1,1553,1590,5.77026,-3.47535
336,-566,5.41138,2.62915,0,0,0,0,0,0,0,-1,1560,1590,5.41138,-2.62909
343,-566,4.81873,1.79089,0,0,0,0,0,0,0,-1,1567,1590,4.81878,-1.79095
350,-566,4.41663,2.44214,0,0,0,0,0,0,0,-1,1574,1590,4.41666,-2.44214
357,-566,6.34058,5.18579,0,0,0,0,0,0,0,-1,1581,1590,6.34059,-5.1858
364,-566,6.06262,4.20251,0,0,0,0,0,0,0,-1,1588,1590,6.06259,-4.20246
371,-566,5.78455,3.21912,0,0,0,0,0,0,0,-1,1595,1590,5.7846,-3.21912
378,-566,5.7439,0.695557,0,0,0,0,0,0,0,-1,1602,1590,5.74392,-0.695531
385,-566,5.67615,-0.573975,0,0,0,0,0,0,0,-1,1609,1590,5.67612,0.573956
392,-566,5.78638,1.82434,0,0,0,0,0,0,0,-1,1616,1590,5.78637,-1.82439
399,-566,5.36621,1.7373,0,0,0,0,0,0,0,-1,1623,1590,5.36627,-1.7373
406,-566,4.30359,5.26868,0,0,0,0,0,0,0,-1,1630,1590,4.30364,-5.26867
413,-566,4.27124,5.79492,0,0,0,0,0,0,0,-1,1637,1590,4.27123,-5.7949
420,-566,7.19812,8.25146,0,0,0,0,0,0,0,-1,1644,1590,7.19817,-8.25149
427,-566,17.3438,26.1176,0,0,0,0,0,0,0,-1,1651,1590,17.3437,-26.1175
434,-566,9.18567,14.3304,0,0,0,0,0,0,0,-1,1658,1590,9.18571,-14.3305
441,-566,15.219,26.9211,0,0,0,0,0,0,0,-1,1665,1590,15.2189,-26.9211
448,-566,14.7393,26.5862,0,0,0,0,0,0,0,-1,1672,1590,14.7392,-26.5861
455,-566,14.3737,25.8899,0,0,0,0,0,0,0,-1,1679,1590,14.3737,-25.8898
462,-566,14.5056,25.2931,0.000721628,0.0162286,-0.00470877,0.0175464,-0.000596222,-1.29791,0.0119013,0.0330103,1686,1590,14.5056,-25.2931
469,-566,14.5911,24.6578,0.00165868,0.0134273,-0.00455241,0.0149827,0.000103262,-1.24156,0.00995426,0.0154329,1693,1590,14.5911,-24.6578
476,-566,14.6565,24.2216,0.00211432,0.0106086,-0.00415512,0.0123031,0.000419801,-1.18357,0.00806578,0.0101825,1700,1590,14.6565,-24.2216
483,-566,14.6537,23.8038,0.00252076,0.00790853,-0.00376135,0.00984117,0.000588124,-1.09616,0.00637379,0.0110253,1707,1590,14.6536,-23.8038
490,-566,14.6205,23.3868,0.00234474,0.00560519,-0.00292151,0.00732054,0.000629392,-1.03988,0.00468468,0.0120666,1714,1590,14.6205,-23.3868
497,-566,14.6748,22.9841,0.00199996,0.00362866,-0.00228167,0.00523695,0.000391674,-0.956807,0.00336834,0.0151287,1721,1590,14.6748,-22.9841
504,-566,14.6658,22.5737,0.00146947,0.0019869,-0.00154182,0.00329155,0.000164808,-0.868523,0.00214155,0.0195239,1728,1590,14.6658,-22.5737
511,-566,14.6329,22.1531,0.000853831,0.000674813,-0.000841279,0.00161035,-8.17055e-05,-0.732399,0.00110181,0.0194919,1735,1590,14.633,-22.1531
518,-566,14.6295,21.7268,0.000307406,-0.000466511,-0.00028833,0.000403015,-0.00056212,-0.320185,0.000559739,0.012328,1742,1590,14.6295,-21.7268
525,-566,14.6024,21.2744,-0.000123329,-0.00137069,0.000131332,-0.000109651,-0.00138437,0.103772,0.000888619,0.0124742,1749,1590,14.6025,-21.2745
532,-566,14.5884,20.8168,-0.000371218,-0.0021063,0.000418123,-0.000275715,-0.00220181,0.224557,0.00138514,0.014761,1756,1590,14.5883,-20.8168
539,-566,14.5757,20.3773,-0.000621105,-0.00265643,0.000648531,-0.000432024,-0.00284551,0.283689,0.00177065,0.0178892,1763,1590,14.5756,-20.3773
546,-566,14.6022,19.9022,-0.000855259,-0.00322036,0.000899617,-0.000551965,-0.00352366,0.32517,0.00218844,0.0202715,1770,1590,14.6022,-19.9022
553,-566,14.6128,19.6835,0,0,0,0,0,0,0,-1,1777,1590,14.6128,-19.6834
560,-566,13.9725,19.4017,0,0,0,0,0,0,0,-1,1784,1590,13.9725,-19.4017
567,-566,13.5153,19.13,0,0,0,0,0,0,0,-1,1791,1590,13.5152,-19.13
574,-566,7.99548,3.14514,0,0,0,0,0,0,0,-1,1798,1590,7.99543,-3.14511
581,-566,2.54102,5.1311,0,0,0,0,0,0,0,-1,1805,1590,2.54099,-5.13111
588,-566,-1.91321,8.39197,0,0,0,0,0,0,0,-1,1812,1590,-1.91316,-8.39199
595,-566,9.0271,4.66467,0,0,0,0,0,0,0,-1,1819,1590,9.02705,-4.66468
602,-566,9.953,3.54895,0,0,0,0,0,0,0,-1,1826,1590,9.953,-3.54898
609,-566,0,0,0,0,0,0,0,0,0,-1,1833,1590,0,0
616,-566,0,0,0,0,0,0,0,0,0,-1,1840,1590,0,0
623,-566,0,0,0,0,0,0,0,0,0,-1,1847,1590,0,0
630,-566,0,0,0,0,0,0,0,0,0,-1,1854,1590,0,0
637,-566,0,0,0,0,0,0,0,0,0,-1,1861,1590,0,0
644,-566,0,0,0,0,0,0,0,0,0,-1,1868,1590,0,0
651,-566,0,0,0,0,0,0,0,0,0,-1,1875,1590,0,0
658,-566,0,0,0,0,0,0,0,0,0,-1,1882,1590,0,0
665,-566,0,0,0,0,0,0,0,0,0,-1,1889,1590,0,0
672,-566,0,0,0,0,0,0,0,0,0,-1,1896,1590,0,0
679,-566,0,0,0,0,0,0,0,0,0,-1,1903,1590,0,0
686,-566,0,0,0,0,0,0,0,0,0,-1,1910,1590,0,0
693,-566,0,0,0,0,0,0,0,0,0,-1,1917,1590,0,0
700,-566,0,0,0,0,0,0,0,0,0,-1,1924,1590,0,0
707,-566,0,0,0,0,0,0,0,0,0,-1,1931,1590,0,0
714,-566,0,0,0,0,0,0,0,0,0,-1,1938,1590,0,0
721,-566,0,0,0,0,0,0,0,0,0,-1,1945,1590,0,0
728,-566,0,0,0,0,0,0,0,0,0,-1,1952,1590,0,0
735,-566,0,0,0,0,0,0,0,0,0,-1,1959,1590,0,0
742,-566,0,0,0,0,0,0,0,0,0,-1,1966,1590,0,0
749,-566,0,0,0,0,0,0,0,0,0,-1,1973,1590,0,0
756,-566,0,0,0,0,0,0,0,0,0,-1,1980,1590,0,0
763,-566,0,0,0,0,0,0,0,0,0,-1,1987,1590,0,0
770,-566,0,0,0,0,0,0,0,0,0,-1,1994,1590,0,0
777,-566,0,0,0,0,0,0,0,0,0,-1,2001,1590,0,0
784,-566,0,0,0,0,0,0,0,0,0,-1,2008,1590,0,0
791,-566,0,0,0,0,0,0,0,0,0,-1,2015,1590,0,0
798,-566,0,0,0,0,0,0,0,0,0,-1,2022,1590,0,0
805,-566,0,0,0,0,0,0,0,0,0,-1,2029,1590,0,0
812,-566,0,0,0,0,0,0,0,0,0,-1,2036,1590,0,0
-700,-573,0,0,0,0,0,0,0,0,0,-1,524,1597,0,0
-693,-573,0,0,0,0,0,0,0,0,0,-1,531,1597,0,0
-686,-573,0,0,0,0,0,0,0,0,0,-1,538,1597,0,0
-679,-573,0,0,0,0,0,0,0,0,0,-1,545,1597,0,0
-672,-573,0,0,0,0,0,0,0,0,0,-1,552,1597,0,0
-665,-573,0,0,0,0,0,0,0,0,0,-1,559,1597,0,0
-658,-573,0,0,0,0,0,0,0,0,0,-1,566,1597,0,0
-651,-573,0,0,0,0,0,0,0,0,0,-1,573,1597,0,0
-644,-573,0,0,0,0,0,0,0,0,0,-1,580,1597,0,0
-637,-573,0,0,0,0,0,0,0,0,0,-1,587,1597,0,0
-630,-573,0,0,0,0,0,0,0,0,0,-1,594,1597,0,0
-623,-573,0,0,0,0,0,0,0,0,0,-1,601,1597,0,0
-616,-573,0,0,0,0,0,0,0,0,0,-1,608,1597,0,0
-609,-573,0,0,0,0,0,0,0,0,0,-1,615,1597,0,0
-602,-573,0,0,0,0,0,0,0,0,0,-1,622,1597,0,0
-595,-573,0,0,0,0,0,0,0,0,0,-1,629,1597,0,0
-588,-573,0,0,0,0,0,0,0,0,0,-1,636,1597,0,0
-581,-573,0,0,0,0,0,0,0,0,0,-1,643,1597,0,0
-574,-573,0,0,0,0,0,0,0,0,0,-1,650,1597,0,0
-567,-573,0,0,0,0,0,0,0,0,0,-1,657,1597,0,0
-560,-573,0,0,0,0,0,0,0,0,0,-1,664,1597,0,0
-553,-573,0,0,0,0,0,0,0,0,0,-1,671,1597,0,0
-546,-573,0,0,0,0,0,0,0,0,0,-1,678,1597,0,0
-539,-573,0,0,0,0,0,0,0,0,0,-1,685,1597,0,0
-532,-573,0,0,0,0,0,0,0,0,0,-1,692,1597,0,0
-525,-573,0,0,0,0,0,0,0,0,0,-1,699,1597,0,0
-518,-573,0,0,0,0,0,0,0,0,0,-1,706,1597,0,0
-511,-573,0,0,0,0,0,0,0,0,0,-1,713,1597,0,0
-504,-573,0,0,0,0,0,0,0,0,0,-1,720,1597,0,0
-497,-573,0,0,0,0,0,0,0,0,0,-1,727,1597,0,0
-490,-573,0,0,0,0,0,0,0,0,0,-1,734,1597,0,0
-483,-573,0,0,0,0,0,0,0,0,0,-1,741,1597,0,0
-476,-573,-9.3327,0.972778,0,0,0,0,0,0,0,-1,748,1597,-9.33268,-0.972776
-469,-573,-1.41681,1.13379,0,0,0,0,0,0,0,-1,755,1597,-1.41681,-1.13382
-462,-573,-0.748535,2.02588,0,0,0,0,0,0,0,-1,762,1597,-0.748533,-2.02584
-455,-573,-0.112976,2.70703,0,0,0,0,0,0,0,-1,769,1597,-0.112988,-2.70697
-448,-573,-1.26172,3.33252,0,0,0,0,0,0,0,-1,776,1597,-1.26173,-3.33248
-441,-573,0.108582,5.06726,0,0,0,0,0,0,0,-1,783,1597,0.108584,-5.06721
-434,-573,1.61768,7.05444,0,0,0,0,0,0,0,-1,790,1597,1.61767,-7.05446
-427,-573,0.693726,18.1992,0,0,0,0,0,0,0,-1,797,1597,0.693708,-18.1993
-420,-573,1.06628,17.4988,0,0,0,0,0,0,0,-1,804,1597,1.06625,-17.4988
-413,-573,0.614502,18.5719,0,0,0,0,0,0,0,-1,811,1597,0.614525,-18.5719
-406,-573,0.650208,19.2393,-0.00730521,0.000519839,-0.00247433,0.00123659,-0.00802196,-1.28884,0.00580425,0.0269084,818,1597,0.650216,-19.2393
-399,-573,0.597351,19.7656,-0.00531405,0.000248378,-0.00183403,0.000798655,-0.00586433,-1.27931,0.00420115,0.0132099,825,1597,0.597333,-19.7657
-392,-573,0.609802,20.2325,-0.00372814,-0.000255961,-0.00142419,0.000253462,-0.00423756,-1.22728,0.00291321,0.0125328,832,1597,0.609832,-20.2325
-385,-573,0.593689,20.702,-0.00248833,-9.23117e-05,-0.000980113,0.000257532,-0.00283817,-1.22795,0.00198354,0.0145639,839,1597,0.593663,-20.7021
-378,-573,0.568909,21.1617,-0.0012913,0.000187902,-0.000404238,0.000291164,-0.00139456,-1.3207,0.00104043,0.0154616,846,1597,0.568905,-21.1617
-371,-573,0.548523,21.6187,-0.000444021,0.000600927,-8.88742e-05,0.000608431,-0.000451526,-1.48655,0.000614198,0.0162179,853,1597,0.548495,-21.6186
-364,-573,0.517883,22.0546,0.000170641,0.00097018,0.000123374,0.000988784,0.000152037,1.42113,0.000614809,0.0184465,860,1597,0.517874,-22.0546
-357,-573,0.521667,22.4729,0.000746591,0.00153006,0.000345232,0.00166048,0.000616175,1.20961,0.00096924,0.0212392,867,1597,0.521693,-22.4729
-350,-573,0.511414,22.9313,0.00140221,0.00213719,0.000544353,0.00242648,0.00111291,1.0823,0.00140253,0.017018,874,1597,0.511387,-22.9313
-343,-573,0.522339,23.3704,0.00205474,0.00294809,0.000802962,0.00342025,0.00158257,1.03923,0.00197652,0.0207134,881,1597,0.522355,-23.3703
-336,-573,0.50293,23.8254,0.0027286,0.00378132,0.00102847,0.0044103,0.00209962,1.02191,0.00254726,0.0167359,888,1597,0.502935,-23.8255
-329,-573,0.505005,24.2338,0.00337845,0.0047407,0.00138632,0.00560419,0.00251497,1.01374,0.00324124,0.0178663,895,1597,0.505029,-24.2337
-322,-573,0.512268,24.7001,0.00402213,0.00561806,0.00178392,0.00677436,0.00286584,0.995705,0.00392659,0.0162814,902,1597,0.51224,-24.7001
-315,-573,0.193909,24.9266,0,0,0,0,0,0,0,-1,909,1597,0.193906,-24.9266
-308,-573,0.633667,25.5858,0,0,0,0,0,0,0,-1,916,1597,0.63364,-25.5858
-301,-573,0.761353,26.2284,0,0,0,0,0,0,0,-1,923,1597,0.761346,-26.2284
-294,-573,1.00702,24.802,0,0,0,0,0,0,0,-1,930,1597,1.00701,-24.802
-287,-573,1.38068,27.6692,0,0,0,0,0,0,0,-1,937,1597,1.38071,-27.6692
-280,-573,1.19684,26.4906,0,0,0,0,0,0,0,-1,944,1597,1.19685,-26.4906
-273,-573,2.24805,25.4375,0,0,0,0,0,0,0,-1,951,1597,2.24803,-25.4374
-266,-573,1.31116,7.1814,0,0,0,0,0,0,0,-1,958,1597,1.31118,-7.18142
-259,-573,1.2514,6.70959,0,0,0,0,0,0,0,-1,965,1597,1.25137,-6.70965
-252,-573,2.07874,5.27161,0,0,0,0,0,0,0,-1,972,1597,2.07875,-5.27157
-245,-573,-10.2592,1.09827,0,0,0,0,0,0,0,-1,979,1597,-10.2592,-1.09823
-238,-573,-11.5463,4.44141,0,0,0,0,0,0,0,-1,986,1597,-11.5463,-4.44146
-231,-573,-9.23431,4.14539,0,0,0,0,0,0,0,-1,993,1597,-9.23431,-4.14534
-224,-573,-6.70044,7.40857,0,0,0,0,0,0,0,-1,1000,1597,-6.70045,-7.40851
-217,-573,-4.25824,8.59119,0,0,0,0,0,0,0,-1,1007,1597,-4.25824,-8.59122
-210,-573,-2.39661,9.73914,0,0,0,0,0,0,0,-1,1014,1597,-2.39658,-9.73915
-203,-573,-0.557373,10.9005,0,0,0,0,0,0,0,-1,1021,1597,-0.557387,-10.9006
-196,-573,-1.65344,9.02246,0,0,0,0,0,0,0,-1,1028,1597,-1.65349,-9.02241
-189,-573,-6.12915,6.66882,0,0,0,0,0,0,0,-1,1035,1597,-6.12913,-6.66884
-182,-573,0,0,0,0,0,0,0,0,0,-1,1042,1597,0,0
-175,-573,0,0,0,0,0,0,0,0,0,-1,1049,1597,0,0
-168,-573,0,0,0,0,0,0,0,0,0,-1,1056,1597,0,0
-161,-573,0,0,0,0,0,0,0,0,0,-1,1063,1597,0,0
-154,-573,0,0,0,0,0,0,0,0,0,-1,1070,1597,0,0
-147,-573,0,0,0,0,0,0,0,0,0,-1,1077,1597,0,0
-140,-573,0,0,0,0,0,0,0,0,0,-1,1084,1597,0,0
-133,-573,0,0,0,0,0,0,0,0,0,-1,1091,1597,0,0
-126,-573,0,0,0,0,0,0,0,0,0,-1,1098,1597,0,0
-119,-573,0,0,0,0,0,0,0,0,0,-1,1105,1597,0,0
-112,-573,0,0,0,0,0,0,0,0,0,-1,1112,1597,0,0
-105,-573,0,0,0,0,0,0,0,0,0,-1,1119,1597,0,0
-98,-573,0,0,0,0,0,0,0,0,0,-1,1126,1597,0,0
-91,-573,0,0,0,0,0,0,0,0,0,-1,1133,1597,0,0
-84,-573,0,0,0,0,0,0,0,0,0,-1,1140,1597,0,0
-77,-573,0,0,0,0,0,0,0,0,0,-1,1147,1597,0,0
-70,-573,0,0,0,0,0,0,0,0,0,-1,1154,1597,0,0
-63,-573,0,0,0,0,0,0,0,0,0,-1,1161,1597,0,0
-56,-573,0,0,0,0,0,0,0,0,0,-1,1168,1597,0,0
-49,-573,0,0,0,0,0,0,0,0,0,-1,1175,1597,0,0
-42,-573,0,0,0,0,0,0,0,0,0,-1,1182,1597,0,0
-35,-573,0,0,0,0,0,0,0,0,0,-1,1189,1597,0,0
-28,-573,0,0,0,0,0,0,0,0,0,-1,1196,1597,0,0
-21,-573,0,0,0,0,0,0,0,0,0,-1,1203,1597,0,0
-14,-573,0,0,0,0,0,0,0,0,0,-1,1210,1597,0,0
-7,-573,0,0,0,0,0,0,0,0,0,-1,1217,1597,0,0
0,-573,0,0,0,0,0,0,0,0,0,-1,1224,1597,0,0
7,-573,0,0,0,0,0,0,0,0,0,-1,1231,1597,0,0
14,-573,0,0,0,0,0,0,0,0,0,-1,1238,1597,0,0
21,-573,0,0,0,0,0,0,0,0,0,-1,1245,1597,0,0
28,-573,0,0,0,0,0,0,0,0,0,-1,1252,1597,0,0
35,-573,0,0,0,0,0,0,0,0,0,-1,1259,1597,0,0
42,-573,0,0,0,0,0,0,0,0,0,-1,1266,1597,0,0
49,-573,0,0,0,0,0,0,0,0,0,-1,1273,1597,0,0
56,-573,0,0,0,0,0,0,0,0,0,-1,1280,1597,0,0
63,-573,0,0,0,0,0,0,0,0,0,-1,1287,1597,0,0
70,-573,0,0,0,0,0,0,0,0,0,-1,1294,1597,0,0
77,-573,0,0,0,0,0,0,0,0,0,-1,1301,1597,0,0
84,-573,0,0,0,0,0,0,0,0,0,-1,1308,1597,0,0
91,-573,0,0,0,0,0,0,0,0,0,-1,1315,1597,0,0
98,-573,0,0,0,0,0,0,0,0,0,-1,1322,1597,0,0
105,-573,0,0,0,0,0,0,0,0,0,-1,1329,1597,0,0
112,-573,0,0,0,0,0,0,0,0,0,-1,1336,1597,0,0
119,-573,0,0,0,0,0,0,0,0,0,-1,1343,1597,0,0
126,-573,0,0,0,0,0,0,0,0,0,-1,1350,1597,0,0
133,-573,0,0,0,0,0,0,0,0,0,-1,1357,1597,0,0
140,-573,0,0,0,0,0,0,0,0,0,-1,1364,1597,0,0
147,-573,0,0,0,0,0,0,0,0,0,-1,1371,1597,0,0
154,-573,0,0,0,0,0,0,0,0,0,-1,1378,1597,0,0
161,-573,0,0,0,0,0,0,0,0,0,-1,1385,1597,0,0
168,-573,0,0,0,0,0,0,0,0,0,-1,1392,1597,0,0
175,-573,0,0,0,0,0,0,0,0,0,-1,1399,1597,0,0
182,-573,0,0,0,0,0,0,0,0,0,-1,1406,1597,0,0
189,-573,0,0,0,0,0,0,0,0,0,-1,1413,1597,0,0
196,-573,0,0,0,0,0,0,0,0,0,-1,1420,1597,0,0
203,-573,0,0,0,0,0,0,0,0,0,-1,1427,1597,0,0
210,-573,0,0,0,0,0,0,0,0,0,-1,1434,1597,0,0
217,-573,0,0,0,0,0,0,0,0,0,-1,1441,1597,0,0
224,-573,0,0,0,0,0,0,0,0,0,-1,1448,1597,0,0
231,-573,0,0,0,0,0,0,0,0,0,-1,1455,1597,0,0
238,-573,0,0,0,0,0,0,0,0,0,-1,1462,1597,0,0
245,-573,0,0,0,0,0,0,0,0,0,-1,1469,1597,0,0
252,-573,0,0,0,0,0,0,0,0,0,-1,1476,1597,0,0
259,-573,0,0,0,0,0,0,0,0,0,-1,1483,1597,0,0
266,-573,0,0,0,0,0,0,0,0,0,-1,1490,1597,0,0
273,-573,0,0,0,0,0,0,0,0,0,-1,1497,1597,0,0
280,-573,0,0,0,0,0,0,0,0,0,-1,1504,1597,0,0
287,-573,0,0,0,0,0,0,0,0,0,-1,1511,1597,0,0
294,-573,0,0,0,0,0,0,0,0,0,-1,1518,1597,0,0
301,-573,0,0,0,0,0,0,0,0,0,-1,1525,1597,0,0
308,-573,5.93042,9.71143,0,0,0,0,0,0,0,-1,1532,1597,5.93046,-9.71144
315,-573,4.34204,11.719,0,0,0,0,0,0,0,-1,1539,1597,4.34205,-11.719
322,-573,10.3269,7.77563,0,0,0,0,0,0,0,-1,1546,1597,10.327,-7.77565
329,-573,4.99573,3.80273,0,0,0,0,0,0,0,-1,1553,1597,4.9957,-3.80273
336,-573,4.85693,2.53455,0,0,0,0,0,0,0,-1,1560,1597,4.8569,-2.53459
343,-573,5.5946,2.15894,0,0,0,0,0,0,0,-1,1567,1597,5.59456,-2.1589
350,-573,2.53748,1.56433,0,0,0,0,0,0,0,-1,1574,1597,2.53753,-1.5643
357,-573,7.40247,4.03613,0,0,0,0,0,0,0,-1,1581,1597,7.40244,-4.03614
364,-573,7.14551,3.02087,0,0,0,0,0,0,0,-1,1588,1597,7.14556,-3.02084
371,-573,6.88867,2.00549,0,0,0,0,0,0,0,-1,1595,1597,6.88868,-2.00553
378,-573,8.62012,6.09106,0,0,0,0,0,0,0,-1,1602,1597,8.62012,-6.09103
385,-573,6.54346,-0.951904,0,0,0,0,0,0,0,-1,1609,1597,6.54349,0.951901
392,-573,6.41833,-2.18225,0,0,0,0,0,0,0,-1,1616,1597,6.41831,2.18228
399,-573,4.26282,4.73657,0,0,0,0,0,0,0,-1,1623,1597,4.26285,-4.73652
406,-573,6.82715,10.823,0,0,0,0,0,0,0,-1,1630,1597,6.82719,-10.823
413,-573,8.90552,13.1737,0,0,0,0,0,0,0,-1,1637,1597,8.90553,-13.1737
420,-573,16.317,26.6865,0,0,0,0,0,0,0,-1,1644,1597,16.317,-26.6866
427,-573,16.01,26.6381,0,0,0,0,0,0,0,-1,1651,1597,16.01,-26.638
434,-573,14.7212,26.8807,0,0,0,0,0,0,0,-1,1658,1597,14.7212,-26.8808
441,-573,14.5052,26.5082,-0.00342087,0.0187846,-0.00161507,0.0189014,-0.00353772,-1.49857,0.0139307,0.0498526,1665,1597,14.5053,-26.5082
448,-573,14.1891,26.1403,-0.00239339,0.0164529,-0.00243689,0.0167629,-0.00270338,-1.44427,0.0121768,0.0409019,1672,1597,14.1891,-26.1403
455,-573,14.1696,25.5735,-0.00102899,0.0140313,-0.00305894,0.0146289,-0.00162659,-1.37787,0.0103375,0.0294224,1679,1597,14.1696,-25.5734
462,-573,14.2373,24.9943,0.000267574,0.0124345,-0.00333867,0.0132904,-0.000588364,-1.31983,0.00906275,0.0206653,1686,1597,14.2373,-24.9943
469,-573,14.2482,24.5912,0.00101027,0.0102975,-0.00330065,0.0113511,-4.32488e-05,-1.26183,0.00758184,0.0143205,1693,1597,14.2482,-24.5912
476,-573,14.255,24.2076,0.00132179,0.00805807,-0.00301216,0.0092085,0.000171359,-1.20596,0.00608269,0.01319,1700,1597,14.255,-24.2077
483,-573,14.2526,23.8254,0.00164491,0.00582515,-0.00271893,0.00716448,0.000305572,-1.11309,0.00467779,0.0118923,1707,1597,14.2526,-23.8255
490,-573,14.2086,23.4183,0.0015398,0.00390661,-0.00204786,0.0050884,0.000358007,-1.04739,0.00327945,0.0129695,1714,1597,14.2086,-23.4183
497,-573,14.2524,22.9758,0.0011836,0.00221957,-0.00150601,0.00329419,0.000108992,-0.951034,0.00216071,0.0196866,1721,1597,14.2524,-22.9758
504,-573,14.2274,22.5631,0.000710343,0.000802148,-0.000881852,0.00163929,-0.0001268,-0.811401,0.00113749,0.0182871,1728,1597,14.2275,-22.5631
511,-573,14.2069,22.1228,0.000172373,-0.000380414,-0.000262959,0.000277478,-0.000485518,-0.380247,0.000445941,0.0201627,1735,1597,14.207,-22.1228
518,-573,14.1885,21.734,-0.000264519,-0.00140018,0.000199109,-0.000230623,-0.00143407,0.168626,0.000889201,0.0152699,1742,1597,14.1885,-21.734
525,-573,14.1981,21.3055,-0.000553545,-0.00221431,0.000524125,-0.00040197,-0.00236589,0.281517,0.00146181,0.0179892,1749,1597,14.1981,-21.3056
532,-573,14.1639,20.849,-0.000670888,-0.00293903,0.000771629,-0.000433271,-0.00317664,0.298727,0.00198913,0.0166004,1756,1597,14.164,-20.849
539,-573,14.1416,20.417,-0.000853053,-0.00356827,0.00100074,-0.000524073,-0.00389725,0.317608,0.00244229,0.0221751,1763,1597,14.1416,-20.417
546,-573,14.1637,20.0028,-0.000992832,-0.00422759,0.00126788,-0.000555113,-0.00466531,0.332426,0.00294267,0.0385521,1770,1597,14.1636,-20.0028
553,-573,13.4618,19.7976,0,0,0,0,0,0,0,-1,1777,1597,13.4618,-19.7976
560,-573,12.6393,19.7756,0,0,0,0,0,0,0,-1,1784,1597,12.6393,-19.7757
567,-573,11.9315,19.6708,0,0,0,0,0,0,0,-1,1791,1597,11.9315,-19.6708
574,-573,0.83374,5.7041,0,0,0,0,0,0,0,-1,1798,1597,0.833718,-5.70405
581,-573,-0.224854,7.41602,0,0,0,0,0,0,0,-1,1805,1597,-0.224904,-7.41596
588,-573,-0.134033,7.67065,0,0,0,0,0,0,0,-1,1812,1597,-0.134037,-7.67063
595,-573,-0.0825195,8.35083,0,0,0,0,0,0,0,-1,1819,1597,-0.0824684,-8.35088
602,-573,0,0,0,0,0,0,0,0,0,-1,1826,1597,0,0
609,-573,0,0,0,0,0,0,0,0,0,-1,1833,1597,0,0
616,-573,0,0,0,0,0,0,0,0,0,-1,1840,1597,0,0
623,-573,0,0,0,0,0,0,0,0,0,-1,1847,1597,0,0
630,-573,0,0,0,0,0,0,0,0,0,-1,1854,1597,0,0
637,-573,0,0,0,0,0,0,0,0,0,-1,1861,1597,0,0
644,-573,0,0,0,0,0,0,0,0,0,-1,1868,1597,0,0
651,-573,0,0,0,0,0,0,0,0,0,-1,1875,1597,0,0
658,-573,0,0,0,0,0,0,0,0,0,-1,1882,1597,0,0
665,-573,0,0,0,0,0,0,0,0,0,-1,1889,1597,0,0
672,-573,0,0,0,0,0,0,0,0,0,-1,1896,1597,0,0
679,-573,0,0,0,0,0,0,0,0,0,-1,1903,1597,0,0
686,-573,0,0,0,0,0,0,0,0,0,-1,1910,1597,0,0
693,-573,0,0,0,0,0,0,0,0,0,-1,1917,1597,0,0
700,-573,0,0,0,0,0,0,0,0,0,-1,1924,1597,0,0
707,-573,0,0,0,0,0,0,0,0,0,-1,1931,1597,0,0
714,-573,0,0,0,0,0,0,0,0,0,-1,1938,1597,0,0
721,-573,0,0,0,0,0,0,0,0,0,-1,1945,1597,0,0
728,-573,0,0,0,0,0,0,0,0,0,-1,1952,1597,0,0
735,-573,0,0,0,0,0,0,0,0,0,-1,1959,1597,0,0
742,-573,0,0,0,0,0,0,0,0,0,-1,1966,1597,0,0
749,-573,0,0,0,0,0,0,0,0,0,-1,1973,1597,0,0
756,-573,0,0,0,0,0,0,0,0,0,-1,1980,1597,0,0
763,-573,0,0,0,0,0,0,0,0,0,-1,1987,1597,0,0
770,-573,0,0,0,0,0,0,0,0,0,-1,1994,1597,0,0
777,-573,0,0,0,0,0,0,0,0,0,-1,2001,1597,0,0
784,-573,0,0,0,0,0,0,0,0,0,-1,2008,1597,0,0
791,-573,0,0,0,0,0,0,0,0,0,-1,2015,1597,0,0
798,-573,0,0,0,0,0,0,0,0,0,-1,2022,1597,0,0
805,-573,0,0,0,0,0,0,0,0,0,-1,2029,1597,0,0
812,-573,0,0,0,0,0,0,0,0,0,-1,2036,1597,0,0
-700,-580,0,0,0,0,0,0,0,0,0,-1,524,1604,0,0
-693,-580,0,0,0,0,0,0,0,0,0,-1,531,1604,0,0
-686,-580,0,0,0,0,0,0,0,0,0,-1,538,1604,0,0
-679,-580,0,0,0,0,0,0,0,0,0,-1,545,1604,0,0
-672,-580,0,0,0,0,0,0,0,0,0,-1,552,1604,0,0
-665,-580,0,0,0,0,0,0,0,0,0,-1,559,1604,0,0
-658,-580,0,0,0,0,0,0,0,0,0,-1,566,1604,0,0
-651,-580,0,0,0,0,0,0,0,0,0,-1,573,1604,0,0
-644,-580,0,0,0,0,0,0,0,0,0,-1,580,1604,0,0
-637,-580,0,0,0,0,0,0,0,0,0,-1,587,1604,0,0
-630,-580,0,0,0,0,0,0,0,0,0,-1,594,1604,0,0
-623,-580,0,0,0,0,0,0,0,0,0,-1,601,1604,0,0
-616,-580,0,0,0,0,0,0,0,0,0,-1,608,1604,0,0
-609,-580,0,0,0,0,0,0,0,0,0,-1,615,1604,0,0
-602,-580,0,0,0,0,0,0,0,0,0,-1,622,1604,0,0
-595,-580,0,0,0,0,0,0,0,0,0,-1,629,1604,0,0
-588,-580,0,0,0,0,0,0,0,0,0,-1,636,1604,0,0
-581,-580,0,0,0,0,0,0,0,0,0,-1,643,1604,0,0
-574,-580,0,0,0,0,0,0,0,0,0,-1,650,1604,0,0
-567,-580,0,0,0,0,0,0,0,0,0,-1,657,1604,0,0
-560,-580,0,0,0,0,0,0,0,0,0,-1,664,1604,0,0
-553,-580,0,0,0,0,0,0,0,0,0,-1,671,1604,0,0
-546,-580,0,0,0,0,0,0,0,0,0,-1,678,1604,0,0
-539,-580,0,0,0,0,0,0,0,0,0,-1,685,1604,0,0
-532,-580,0,0,0,0,0,0,0,0,0,-1,692,1604,0,0
-525,-580,0,0,0,0,0,0,0,0,0,-1,699,1604,0,0
-518,-580,0,0,0,0,0,0,0,0,0,-1,706,1604,0,0
-511,-580,0,0,0,0,0,0,0,0,0,-1,713,1604,0,0
-504,-580,0,0,0,0,0,0,0,0,0,-1,720,1604,0,0
-497,-580,0,0,0,0,0,0,0,0,0,-1,727,1604,0,0
-490,-580,0,0,0,0,0,0,0,0,0,-1,734,1604,0,0
-483,-580,0,0,0,0,0,0,0,0,0,-1,741,1604,0,0
-476,-580,0,0,0,0,0,0,0,0,0,-1,748,1604,0,0
-469,-580,-1.69189,-0.38916,0,0,0,0,0,0,0,-1,755,1604,-1.69192,0.389188
-462,-580,-0.859863,0.675293,0,0,0,0,0,0,0,-1,762,1604,-0.859834,-0.675245
-455,-580,-0.730164,0.651978,0,0,0,0,0,0,0,-1,769,1604,-0.730153,-0.651957
-448,-580,-3.31891,2.07544,0,0,0,0,0,0,0,-1,776,1604,-3.3189,-2.07539
-441,-580,-1.63843,3.9469,0,0,0,0,0,0,0,-1,783,1604,-1.63842,-3.94695
-434,-580,0.23291,5.97876,0,0,0,0,0,0,0,-1,790,1604,0.232901,-5.97878
-427,-580,1.62756,8.05493,0,0,0,0,0,0,0,-1,797,1604,1.62758,-8.05488
-420,-580,0.986572,11.2383,0,0,0,0,0,0,0,-1,804,1604,0.986544,-11.2382
-413,-580,1.26447,18.3064,0,0,0,0,0,0,0,-1,811,1604,1.26444,-18.3064
-406,-580,1.04303,19.3223,0,0,0,0,0,0,0,-1,818,1604,1.04303,-19.3223
-399,-580,1.06226,19.795,-0.00658011,0.000380832,-0.00231733,0.00108171,-0.00728099,-1.27709,0.00525183,0.0283284,825,1604,1.06225,-19.795
-392,-580,1.05994,20.2527,-0.00473863,-0.000511968,-0.00181691,0.000161697,-0.0054123,-1.21574,0.00366329,0.014727,832,1604,1.05992,-20.2527
-385,-580,1.05377,20.7104,-0.00335236,-0.000585876,-0.00132891,-5.09487e-05,-0.00388728,-1.18811,0.00257471,0.0123317,839,1604,1.05378,-20.7105
-378,-580,1.02545,21.1636,-0.00205973,-0.000569746,-0.000740305,-0.00026447,-0.00236501,-1.17968,0.00149633,0.0155614,846,1604,1.02546,-21.1636
-371,-580,0.991882,21.6382,-0.00112545,-0.000327678,-0.000400311,-0.000161446,-0.00129168,-1.17721,0.00081267,0.0140649,853,1604,0.991875,-21.6382
-364,-580,0.962402,22.0714,-0.000451424,-8.69853e-05,-0.000155621,-2.95763e-05,-0.000508833,-1.21738,0.000329805,0.0192009,860,1604,0.962402,-22.0715
-357,-580,0.993591,22.4847,0.000161077,0.000365226,9.24319e-05,0.000400857,0.000125446,1.20286,0.000236772,0.0134608,867,1604,0.993582,-22.4847
-350,-580,0.991272,22.9596,0.000830298,0.000899172,0.000309786,0.00117643,0.000553041,0.840753,0.000679616,0.0106264,874,1604,0.991264,-22.9596
-343,-580,0.974915,23.3955,0.00147648,0.0016323,0.000601131,0.00216055,0.000948233,0.849839,0.0012505,0.0110593,881,1604,0.974902,-23.3955
-336,-580,0.964905,23.8059,0.00212075,0.00237104,0.000827152,0.00308246,0.00140933,0.860475,0.00178183,0.0189601,888,1604,0.964898,-23.8059
-329,-580,0.95636,24.2488,0.0027432,0.0032224,0.00114558,0.00415317,0.00181243,0.888489,0.00240429,0.0185219,895,1604,0.956374,-24.2488
-322,-580,0.959656,24.718,0.00331811,0.00409169,0.00149643,0.00525051,0.00215929,0.911868,0.00304726,0.0206141,902,1604,0.959631,-24.718
-315,-580,0.964172,25.1443,0.00408554,0.00497983,0.00178915,0.00637686,0.00268851,0.90785,0.00369674,0.0213988,909,1604,0.964152,-25.1442
-308,-580,1.02069,25.7119,0.00527451,0.00567674,0.0021577,0.00764267,0.00330857,0.831868,0.00442572,0.03019,916,1604,1.02068,-25.712
-301,-580,1.11981,26.0073,0.00661448,0.00586773,0.00244409,0.00871355,0.00376866,0.709601,0.00504603,0.0279629,923,1604,1.11982,-26.0073
-294,-580,1.0976,26.4135,0,0,0,0,0,0,0,-1,930,1604,1.09759,-26.4135
-287,-580,1.38251,27.1248,0,0,0,0,0,0,0,-1,937,1604,1.38251,-27.1248
-280,-580,1.79675,28.4565,0,0,0,0,0,0,0,-1,944,1604,1.79676,-28.4566
-273,-580,1.39575,28.6672,0,0,0,0,0,0,0,-1,951,1604,1.39577,-28.6672
-266,-580,1.71777,25.6515,0,0,0,0,0,0,0,-1,958,1604,1.71775,-25.6515
-259,-580,1.31091,9.11536,0,0,0,0,0,0,0,-1,965,1604,1.31092,-9.11539
-252,-580,1.07629,7.74097,0,0,0,0,0,0,0,-1,972,1604,1.07627,-7.74101
-245,-580,3.80304,9.16028,0,0,0,0,0,0,0,-1,979,1604,3.80306,-9.16034
-238,-580,-10.3588,1.57556,0,0,0,0,0,0,0,-1,986,1604,-10.3588,-1.5755
-231,-580,-10.576,6.43787,0,0,0,0,0,0,0,-1,993,1604,-10.576,-6.43783
-224,-580,-8.27435,7.58972,0,0,0,0,0,0,0,-1,1000,1604,-8.27435,-7.5897
-217,-580,-5.85632,9.51221,0,0,0,0,0,0,0,-1,1007,1604,-5.85632,-9.5122
-210,-580,-3.6684,11.1569,0,0,0,0,0,0,0,-1,1014,1604,-3.66839,-11.1569
-203,-580,-1.92474,12.7845,0,0,0,0,0,0,0,-1,1021,1604,-1.92477,-12.7845
-196,-580,-2.28552,10.3289,0,0,0,0,0,0,0,-1,1028,1604,-2.28552,-10.3288
-189,-580,-4.58252,7.59058,0,0,0,0,0,0,0,-1,1035,1604,-4.58256,-7.59057
-182,-580,-5.45874,7.65942,0,0,0,0,0,0,0,-1,1042,1604,-5.45876,-7.65939
-175,-580,-6.38977,7.55005,0,0,0,0,0,0,0,-1,1049,1604,-6.38981,-7.5501
-168,-580,0,0,0,0,0,0,0,0,0,-1,1056,1604,0,0
-161,-580,0,0,0,0,0,0,0,0,0,-1,1063,1604,0,0
-154,-580,0,0,0,0,0,0,0,0,0,-1,1070,1604,0,0
-147,-580,0,0,0,0,0,0,0,0,0,-1,1077,1604,0,0
-140,-580,0,0,0,0,0,0,0,0,0,-1,1084,1604,0,0
-133,-580,0,0,0,0,0,0,0,0,0,-1,1091,1604,0,0
-126,-580,0,0,0,0,0,0,0,0,0,-1,1098,1604,0,0
-119,-580,0,0,0,0,0,0,0,0,0,-1,1105,1604,0,0
-112,-580,0,0,0,0,0,0,0,0,0,-1,1112,1604,0,0
-105,-580,0,0,0,0,0,0,0,0,0,-1,1119,1604,0,0
-98,-580,0,0,0,0,0,0,0,0,0,-1,1126,1604,0,0
-91,-580,0,0,0,0,0,0,0,0,0,-1,1133,1604,0,0
-84,-580,0,0,0,0,0,0,0,0,0,-1,1140,1604,0,0
-77,-580,0,0,0,0,0,0,0,0,0,-1,1147,1604,0,0
-70,-580,0,0,0,0,0,0,0,0,0,-1,1154,1604,0,0
-63,-580,0,0,0,0,0,0,0,0,0,-1,1161,1604,0,0
-56,-580,0,0,0,0,0,0,0,0,0,-1,1168,1604,0,0
-49,-580,0,0,0,0,0,0,0,0,0,-1,1175,1604,0,0
-42,-580,0,0,0,0,0,0,0,0,0,-1,1182,1604,0,0
-35,-580,0,0,0,0,0,0,0,0,0,-1,1189,1604,0,0
-28,-580,0,0,0,0,0,0,0,0,0,-1,1196,1604,0,0
-21,-580,0,0,0,0,0,0,0,0,0,-1,1203,1604,0,0
-14,-580,0,0,0,0,0,0,0,0,0,-1,1210,1604,0,0
-7,-580,0,0,0,0,0,0,0,0,0,-1,1217,1604,0,0
0,-580,0,0,0,0,0,0,0,0,0,-1,1224,1604,0,0
7,-580,0,0,0,0,0,0,0,0,0,-1,1231,1604,0,0
14,-580,0,0,0,0,0,0,0,0,0,-1,1238,1604,0,0
21,-580,0,0,0,0,0,0,0,0,0,-1,1245,1604,0,0
28,-580,0,0,0,0,0,0,0,0,0,-1,1252,1604,0,0
35,-580,0,0,0,0,0,0,0,0,0,-1,1259,1604,0,0
42,-580,0,0,0,0,0,0,0,0,0,-1,1266,1604,0,0
49,-580,0,0,0,0,0,0,0,0,0,-1,1273,1604,0,0
56,-580,0,0,0,0,0,0,0,0,0,-1,1280,1604,0,0
63,-580,0,0,0,0,0,0,0,0,0,-1,1287,1604,0,0
70,-580,0,0,0,0,0,0,0,0,0,-1,1294,1604,0,0
77,-580,0,0,0,0,0,0,0,0,0,-1,1301,1604,0,0
84,-580,0,0,0,0,0,0,0,0,0,-1,1308,1604,0,0
91,-580,0,0,0,0,0,0,0,0,0,-1,1315,1604,0,0
98,-580,0,0,0,0,0,0,0,0,0,-1,1322,1604,0,0
105,-580,0,0,0,0,0,0,0,0,0,-1,1329,1604,0,0
112,-580,0,0,0,0,0,0,0,0,0,-1,1336,1604,0,0
119,-580,0,0,0,0,0,0,0,0,0,-1,1343,1604,0,0
126,-580,0,0,0,0,0,0,0,0,0,-1,1350,1604,0,0
133,-580,0,0,0,0,0,0,0,0,0,-1,1357,1604,0,0
140,-580,0,0,0,0,0,0,0,0,0,-1,1364,1604,0,0
147,-580,0,0,0,0,0,0,0,0,0,-1,1371,1604,0,0
154,-580,0,0,0,0,0,0,0,0,0,-1,1378,1604,0,0
161,-580,0,0,0,0,0,0,0,0,0,-1,1385,1604,0,0
168,-580,0,0,0,0,0,0,0,0,0,-1,1392,1604,0,0
175,-580,0,0,0,0,0,0,0,0,0,-1,1399,1604,0,0
182,-580,0,0,0,0,0,0,0,0,0,-1,1406,1604,0,0
189,-580,0,0,0,0,0,0,0,0,0,-1,1413,1604,0,0
196,-580,0,0,0,0,0,0,0,0,0,-1,1420,1604,0,0
203,-580,0,0,0,0,0,0,0,0,0,-1,1427,1604,0,0
210,-580,0,0,0,0,0,0,0,0,0,-1,1434,1604,0,0
217,-580,0,0,0,0,0,0,0,0,0,-1,1441,1604,0,0
224,-580,0,0,0,0,0,0,0,0,0,-1,1448,1604,0,0
231,-580,0,0,0,0,0,0,0,0,0,-1,1455,1604,0,0
238,-580,0,0,0,0,0,0,0,0,0,-1,1462,1604,0,0
245,-580,0,0,0,0,0,0,0,0,0,-1,1469,1604,0,0
252,-580,0,0,0,0,0,0,0,0,0,-1,1476,1604,0,0
259,-580,0,0,0,0,0,0,0,0,0,-1,1483,1604,0,0
266,-580,0,0,0,0,0,0,0,0,0,-1,1490,1604,0,0
273,-580,0,0,0,0,0,0,0,0,0,-1,1497,1604,0,0
280,-580,0,0,0,0,0,0,0,0,0,-1,1504,1604,0,0
287,-580,0,0,0,0,0,0,0,0,0,-1,1511,1604,0,0
294,-580,4.0437,0.177368,0,0,0,0,0,0,0,-1,1518,1604,4.04369,-0.177371
301,-580,7.55164,8.05798,0,0,0,0,0,0,0,-1,1525,1604,7.55158,-8.05802
308,-580,5.9126,9.99341,0,0,0,0,0,0,0,-1,1532,1604,5.91255,-9.99337
315,-580,4.27356,11.9287,0,0,0,0,0,0,0,-1,1539,1604,4.27352,-11.9287
322,-580,10.2366,7.50281,0,0,0,0,0,0,0,-1,1546,1604,10.2366,-7.50282
329,-580,10.5962,8.69641,0,0,0,0,0,0,0,-1,1553,1604,10.5962,-8.69642
336,-580,3.66431,1.58862,0,0,0,0,0,0,0,-1,1560,1604,3.6643,-1.58864
343,-580,3.32227,1.39636,0,0,0,0,0,0,0,-1,1567,1604,3.32222,-1.39633
350,-580,8.71277,4.0564,0,0,0,0,0,0,0,-1,1574,1604,8.71271,-4.05638
357,-580,8.52332,3.08154,0,0,0,0,0,0,0,-1,1581,1604,8.52332,-3.08157
364,-580,8.25818,2.07605,0,0,0,0,0,0,0,-1,1588,1604,8.25812,-2.07608
371,-580,7.42114,7.14282,0,0,0,0,0,0,0,-1,1595,1604,7.42119,-7.14281
378,-580,7.9718,6.6731,0,0,0,0,0,0,0,-1,1602,1604,7.9718,-6.67307
385,-580,8.52246,6.20337,0,0,0,0,0,0,0,-1,1609,1604,8.52241,-6.20334
392,-580,14.4536,30.236,0,0,0,0,0,0,0,-1,1616,1604,14.4537,-30.2359
399,-580,13.967,27.3584,0,0,0,0,0,0,0,-1,1623,1604,13.967,-27.3585
406,-580,13.7356,27.6707,0,0,0,0,0,0,0,-1,1630,1604,13.7356,-27.6706
413,-580,13.7668,27.4935,0,0,0,0,0,0,0,-1,1637,1604,13.7668,-27.4935
420,-580,13.7848,27.4412,0,0,0,0,0,0,0,-1,1644,1604,13.7848,-27.4412
427,-580,14.4391,27.2694,-0.00345679,0.0179008,0.000634437,0.0179196,-0.00347562,1.54113,0.0132577,0.039356,1651,1604,14.4391,-27.2695
434,-580,13.8923,26.8226,-0.00295621,0.0156431,1.92975e-06,0.0156431,-0.00295621,1.57069,0.0115411,0.0318297,1658,1604,13.8923,-26.8226
441,-580,13.7761,26.2758,-0.00223907,0.0139724,-0.000746418,0.0140067,-0.00227337,-1.52488,0.0101806,0.0175597,1665,1604,13.7761,-26.2758
448,-580,13.8308,25.814,-0.00173245,0.0121999,-0.00140599,0.0123404,-0.00187292,-1.47122,0.00891704,0.0148364,1672,1604,13.8308,-25.814
455,-580,13.8729,25.42,-0.000863502,0.0103706,-0.00197354,0.0107072,-0.00120011,-1.40186,0.00756995,0.0196829,1679,1604,13.873,-25.42
462,-580,13.8528,25.0071,3.20581e-05,0.00922726,-0.00227144,0.00975775,-0.000498435,-1.34136,0.00667752,0.0230308,1686,1604,13.8528,-25.007
469,-580,13.8611,24.5979,0.000534381,0.00764327,-0.00234773,0.00834863,-0.000170978,-1.27893,0.00562361,0.0196002,1693,1604,13.8611,-24.5979
476,-580,13.838,24.199,0.000673442,0.0059126,-0.00218448,0.00670391,-0.000117867,-1.22326,0.00450907,0.0145027,1700,1604,13.838,-24.199
483,-580,13.8143,23.8256,0.000843987,0.00412111,-0.00198362,0.00505541,-9.03131e-05,-1.13061,0.00340078,0.0132151,1707,1604,13.8143,-23.8256
490,-580,13.7748,23.4524,0.000728537,0.00256381,-0.00146646,0.00337608,-8.37309e-05,-1.06497,0.00227914,0.017326,1714,1604,13.7748,-23.4524
497,-580,13.7816,23.0128,0.000313458,0.00115331,-0.00100022,0.00181817,-0.000351406,-0.984142,0.00134465,0.0137097,1721,1604,13.7817,-23.0128
504,-580,13.7798,22.5712,-0.000139587,-5.6603e-05,-0.00046361,0.000367368,-0.000563558,-0.830028,0.000541434,0.0178767,1728,1604,13.7797,-22.5712
511,-580,13.7657,22.1517,-0.000617112,-0.00113749,0.000100863,-0.000598247,-0.00115636,0.184907,0.000667759,0.0190959,1735,1604,13.7657,-22.1518
518,-580,13.7614,21.7306,-0.000952918,-0.0020792,0.000514735,-0.000753117,-0.002279,0.37026,0.00134076,0.0170572,1742,1604,13.7614,-21.7306
525,-580,13.76,21.3297,-0.00111702,-0.00286103,0.00079987,-0.000805733,-0.00317232,0.37114,0.001904,0.0179766,1749,1604,13.76,-21.3298
532,-580,13.7189,20.9143,-0.00111759,-0.00364868,0.0011007,-0.000705889,-0.00406038,0.357922,0.002505,0.017614,1756,1604,13.7189,-20.9142
539,-580,13.7816,20.6047,-0.00123107,-0.00456348,0.00146493,-0.000678656,-0.00511589,0.360602,0.00320839,0.0289979,1763,1604,13.7816,-20.6048
546,-580,14.1122,20.171,0,0,0,0,0,0,0,-1,1770,1604,14.1122,-20.171
553,-580,12.3108,19.9119,0,0,0,0,0,0,0,-1,1777,1604,12.3108,-19.9118
560,-580,11.4615,20.0251,0,0,0,0,0,0,0,-1,1784,1604,11.4615,-20.0252
567,-580,3.87708,4.0647,0,0,0,0,0,0,0,-1,1791,1604,3.87711,-4.06471
574,-580,2.31653,5.62952,0,0,0,0,0,0,0,-1,1798,1604,2.31654,-5.62947
581,-580,1.60876,6.67664,0,0,0,0,0,0,0,-1,1805,1604,1.60873,-6.67667
588,-580,1.38684,7.14441,0,0,0,0,0,0,0,-1,1812,1604,1.38689,-7.14443
595,-580,0,0,0,0,0,0,0,0,0,-1,1819,1604,0,0
602,-580,0,0,0,0,0,0,0,0,0,-1,1826,1604,0,0
609,-580,0,0,0,0,0,0,0,0,0,-1,1833,1604,0,0
616,-580,0,0,0,0,0,0,0,0,0,-1,1840,1604,0,0
623,-580,0,0,0,0,0,0,0,0,0,-1,1847,1604,0,0
630,-580,0,0,0,0,0,0,0,0,0,-1,1854,1604,0,0
637,-580,0,0,0,0,0,0,0,0,0,-1,1861,1604,0,0
644,-580,0,0,0,0,0,0,0,0,0,-1,1868,1604,0,0
651,-580,0,0,0,0,0,0,0,0,0,-1,1875,1604,0,0
658,-580,0,0,0,0,0,0,0,0,0,-1,1882,1604,0,0
665,-580,0,0,0,0,0,0,0,0,0,-1,1889,1604,0,0
672,-580,0,0,0,0,0,0,0,0,0,-1,1896,1604,0,0
679,-580,0,0,0,0,0,0,0,0,0,-1,1903,1604,0,0
686,-580,0,0,0,0,0,0,0,0,0,-1,1910,1604,0,0
693,-580,0,0,0,0,0,0,0,0,0,-1,1917,1604,0,0
700,-580,0,0,0,0,0,0,0,0,0,-1,1924,1604,0,0
707,-580,0,0,0,0,0,0,0,0,0,-1,1931,1604,0,0
714,-580,0,0,0,0,0,0,0,0,0,-1,1938,1604,0,0
721,-580,0,0,0,0,0,0,0,0,0,-1,1945,1604,0,0
728,-580,0,0,0,0,0,0,0,0,0,-1,1952,1604,0,0
735,-580,0,0,0,0,0,0,0,0,0,-1,1959,1604,0,0
742,-580,0,0,0,0,0,0,0,0,0,-1,1966,1604,0,0
749,-580,0,0,0,0,0,0,0,0,0,-1,1973,1604,0,0
756,-580,0,0,0,0,0,0,0,0,0,-1,1980,1604,0,0
763,-580,0,0,0,0,0,0,0,0,0,-1,1987,1604,0,0
770,-580,0,0,0,0,0,0,0,0,0,-1,1994,1604,0,0
777,-580,0,0,0,0,0,0,0,0,0,-1,2001,1604,0,0
784,-580,0,0,0,0,0,0,0,0,0,-1,2008,1604,0,0
791,-580,0,0,0,0,0,0,0,0,0,-1,2015,1604,0,0
798,-580,0,0,0,0,0,0,0,0,0,-1,2022,1604,0,0
805,-580,0,0,0,0,0,0,0,0,0,-1,2029,1604,0,0
812,-580,0,0,0,0,0,0,0,0,0,-1,2036,1604,0,0
-700,-587,0,0,0,0,0,0,0,0,0,-1,524,1611,0,0
-693,-587,0,0,0,0,0,0,0,0,0,-1,531,1611,0,0
-686,-587,0,0,0,0,0,0,0,0,0,-1,538,1611,0,0
-679,-587,0,0,0,0,0,0,0,0,0,-1,545,1611,0,0
-672,-587,0,0,0,0,0,0,0,0,0,-1,552,1611,0,0
-665,-587,0,0,0,0,0,0,0,0,0,-1,559,1611,0,0
-658,-587,0,0,0,0,0,0,0,0,0,-1,566,1611,0,0
-651,-587,0,0,0,0,0,0,0,0,0,-1,573,1611,0,0
-644,-587,0,0,0,0,0,0,0,0,0,-1,580,1611,0,0
-637,-587,0,0,0,0,0,0,0,0,0,-1,587,1611,0,0
-630,-587,0,0,0,0,0,0,0,0,0,-1,594,1611,0,0
-623,-587,0,0,0,0,0,0,0,0,0,-1,601,1611,0,0
-616,-587,0,0,0,0,0,0,0,0,0,-1,608,1611,0,0
-609,-587,0,0,0,0,0,0,0,0,0,-1,615,1611,0,0
-602,-587,0,0,0,0,0,0,0,0,0,-1,622,1611,0,0
-595,-587,0,0,0,0,0,0,0,0,0,-1,629,1611,0,0
-588,-587,0,0,0,0,0,0,0,0,0,-1,636,1611,0,0
-581,-587,0,0,0,0,0,0,0,0,0,-1,643,1611,0,0
-574,-587,0,0,0,0,0,0,0,0,0,-1,650,1611,0,0
-567,-587,0,0,0,0,0,0,0,0,0,-1,657,1611,0,0
-560,-587,0,0,0,0,0,0,0,0,0,-1,664,1611,0,0
-553,-587,0,0,0,0,0,0,0,0,0,-1,671,1611,0,0
-546,-587,0,0,0,0,0,0,0,0,0,-1,678,1611,0,0
-539,-587,0,0,0,0,0,0,0,0,0,-1,685,1611,0,0
-532,-587,0,0,0,0,0,0,0,0,0,-1,692,1611,0,0
-525,-587,0,0,0,0,0,0,0,0,0,-1,699,1611,0,0
-518,-587,0,0,0,0,0,0,0,0,0,-1,706,1611,0,0
-511,-587,0,0,0,0,0,0,0,0,0,-1,713,1611,0,0
-504,-587,0,0,0,0,0,0,0,0,0,-1,720,1611,0,0
-497,-587,0,0,0,0,0,0,0,0,0,-1,727,1611,0,0
-490,-587,0,0,0,0,0,0,0,0,0,-1,734,1611,0,0
-483,-587,0,0,0,0,0,0,0,0,0,-1,741,1611,0,0
-476,-587,0,0,0,0,0,0,0,0,0,-1,748,1611,0,0
-469,-587,0,0,0,0,0,0,0,0,0,-1,755,1611,0,0
-462,-587,-0.714355,-0.418457,0,0,0,0,0,0,0,-1,762,1611,-0.714359,0.418483
-455,-587,-0.619812,-0.522461,0,0,0,0,0,0,0,-1,769,1611,-0.619802,0.522515
-448,-587,-0.461731,-0.686523,0,0,0,0,0,0,0,-1,776,1611,-0.461739,0.686559
-441,-587,-3.56555,2.72253,0,0,0,0,0,0,0,-1,783,1611,-3.56555,-2.72259
-434,-587,-1.77319,4.76318,0,0,0,0,0,0,0,-1,790,1611,-1.77318,-4.76323
-427,-587,0.0346069,6.92944,0,0,0,0,0,0,0,-1,797,1611,0.034587,-6.92941
-420,-587,-0.647156,10.1157,0,0,0,0,0,0,0,-1,804,1611,-0.647128,-10.1158
-413,-587,2.13971,10.3901,0,0,0,0,0,0,0,-1,811,1611,2.13971,-10.3902
-406,-587,1.99756,19.3094,0,0,0,0,0,0,0,-1,818,1611,1.99753,-19.3095
-399,-587,1.77557,19.8086,-0.00788906,0.000512917,-0.00288937,0.00141063,-0.00878677,-1.26956,0.00638025,0.0476988,825,1611,1.77556,-19.8086
-392,-587,1.67047,20.158,-0.00574104,-0.000722835,-0.00222254,0.00011997,-0.00658384,-1.20834,0.00442976,0.0391388,832,1611,1.67046,-20.158
-385,-587,1.45441,20.6622,-0.0041326,-0.00100778,-0.00161936,-0.000319981,-0.0048204,-1.16915,0.00311243,0.0203516,839,1611,1.45442,-20.6623
-378,-587,1.44476,21.1731,-0.00272161,-0.00121398,-0.000988215,-0.000724895,-0.0032107,-1.11122,0.00194441,0.0139026,846,1611,1.44477,-21.1731
-371,-587,1.41766,21.6749,-0.00168983,-0.00112206,-0.000602806,-0.000739635,-0.00207225,-1.00546,0.00121263,0.0141008,853,1611,1.41765,-21.6749
-364,-587,1.42163,22.109,-0.000947325,-0.000983215,-0.000318047,-0.000646717,-0.00128382,-0.757217,0.000741222,0.0170508,860,1611,1.42163,-22.1091
-357,-587,1.42975,22.5037,-0.000298338,-0.000623959,-5.17256e-05,-0.000290319,-0.000631979,-0.153809,0.000365274,0.0161666,867,1611,1.42975,-22.5037
-350,-587,1.41296,22.9611,0.000370557,-0.000144635,0.000172027,0.000422717,-0.000196795,0.294399,0.000365518,0.00966386,874,1611,1.41295,-22.9611
-343,-587,1.38397,23.4001,0.000993347,0.0005177,0.000474514,0.0012863,0.000224747,0.553097,0.000793301,0.0117818,881,1611,1.38395,-23.4002
-336,-587,1.36499,23.8257,0.00158496,0.00118067,0.000681358,0.00209353,0.000672106,0.641196,0.00123424,0.012195,888,1611,1.36501,-23.8257
-329,-587,1.35913,24.2634,0.00214939,0.00192742,0.000930951,0.00297595,0.00110086,0.726071,0.00173744,0.0155977,895,1611,1.35911,-24.2634
-322,-587,1.37872,24.703,0.00262324,0.00275578,0.00119845,0.00388979,0.00148923,0.813018,0.00226622,0.0187321,902,1611,1.37875,-24.703
-315,-587,1.35181,25.1312,0.00324538,0.00353255,0.00142907,0.00482522,0.0019527,0.835468,0.00280267,0.0144382,909,1611,1.35181,-25.1312
-308,-587,1.3327,25.5548,0.00417856,0.00415627,0.0016857,0.00585315,0.00248167,0.782092,0.00339231,0.0145559,916,1611,1.33271,-25.5548
-301,-587,1.41431,25.9783,0.00523918,0.00432832,0.00188516,0.00672314,0.00284436,0.666876,0.00389689,0.0153789,923,1611,1.41432,-25.9783
-294,-587,1.48334,26.438,0.00647728,0.0039491,0.00210503,0.00766861,0.00275777,0.515001,0.00448526,0.0267146,930,1611,1.48336,-26.438
-287,-587,1.4646,26.882,0,0,0,0,0,0,0,-1,937,1611,1.46462,-26.8819
-280,-587,1.75726,27.4557,0,0,0,0,0,0,0,-1,944,1611,1.75729,-27.4557
-273,-587,1.52985,28.0834,0,0,0,0,0,0,0,-1,951,1611,1.52985,-28.0833
-266,-587,1.57312,28.3103,0,0,0,0,0,0,0,-1,958,1611,1.57311,-28.3104
-259,-587,1.76306,28.5784,0,0,0,0,0,0,0,-1,965,1611,1.76307,-28.5784
-252,-587,1.30188,10.3103,0,0,0,0,0,0,0,-1,972,1611,1.30188,-10.3104
-245,-587,1.52075,27.4791,0,0,0,0,0,0,0,-1,979,1611,1.52076,-27.4791
-238,-587,2.87799,9.53821,0,0,0,0,0,0,0,-1,986,1611,2.87797,-9.53823
-231,-587,2.49548,9.14465,0,0,0,0,0,0,0,-1,993,1611,2.49551,-9.14468
-224,-587,-9.72528,9.21069,0,0,0,0,0,0,0,-1,1000,1611,-9.72529,-9.21072
-217,-587,-7.07495,10.7847,0,0,0,0,0,0,0,-1,1007,1611,-7.07495,-10.7847
-210,-587,-4.72308,12.5889,0,0,0,0,0,0,0,-1,1014,1611,-4.72307,-12.5888
-203,-587,-3.2583,13.7289,0,0,0,0,0,0,0,-1,1021,1611,-3.25828,-13.7289
-196,-587,-1.953,14.8145,0,0,0,0,0,0,0,-1,1028,1611,-1.95302,-14.8144
-189,-587,-3.04138,8.66638,0,0,0,0,0,0,0,-1,1035,1611,-3.04136,-8.66635
-182,-587,-3.97095,9.7146,0,0,0,0,0,0,0,-1,1042,1611,-3.97093,-9.71461
-175,-587,-4.80969,8.37878,0,0,0,0,0,0,0,-1,1049,1611,-4.80964,-8.37883
-168,-587,-5.91394,8.72546,0,0,0,0,0,0,0,-1,1056,1611,-5.91398,-8.72542
-161,-587,-7.06946,8.88501,0,0,0,0,0,0,0,-1,1063,1611,-7.06947,-8.885
-154,-587,-2.24731,6.56519,0,0,0,0,0,0,0,-1,1070,1611,-2.24728,-6.56517
-147,-587,0,0,0,0,0,0,0,0,0,-1,1077,1611,0,0
-140,-587,0,0,0,0,0,0,0,0,0,-1,1084,1611,0,0
-133,-587,0,0,0,0,0,0,0,0,0,-1,1091,1611,0,0
-126,-587,0,0,0,0,0,0,0,0,0,-1,1098,1611,0,0
-119,-587,0,0,0,0,0,0,0,0,0,-1,1105,1611,0,0
-112,-587,0,0,0,0,0,0,0,0,0,-1,1112,1611,0,0
-105,-587,0,0,0,0,0,0,0,0,0,-1,1119,1611,0,0
-98,-587,0,0,0,0,0,0,0,0,0,-1,1126,1611,0,0
-91,-587,0,0,0,0,0,0,0,0,0,-1,1133,1611,0,0
-84,-587,0,0,0,0,0,0,0,0,0,-1,1140,1611,0,0
-77,-587,0,0,0,0,0,0,0,0,0,-1,1147,1611,0,0
-70,-587,0,0,0,0,0,0,0,0,0,-1,1154,1611,0,0
-63,-587,0,0,0,0,0,0,0,0,0,-1,1161,1611,0,0
-56,-587,0,0,0,0,0,0,0,0,0,-1,1168,1611,0,0
-49,-587,0,0,0,0,0,0,0,0,0,-1,1175,1611,0,0
-42,-587,0,0,0,0,0,0,0,0,0,-1,1182,1611,0,0
-35,-587,0,0,0,0,0,0,0,0,0,-1,1189,1611,0,0
-28,-587,0,0,0,0,0,0,0,0,0,-1,1196,1611,0,0
-21,-587,0,0,0,0,0,0,0,0,0,-1,1203,1611,0,0
-14,-587,0,0,0,0,0,0,0,0,0,-1,1210,1611,0,0
-7,-587,0,0,0,0,0,0,0,0,0,-1,1217,1611,0,0
0,-587,0,0,0,0,0,0,0,0,0,-1,1224,1611,0,0
7,-587,0,0,0,0,0,0,0,0,0,-1,1231,1611,0,0
14,-587,0,0,0,0,0,0,0,0,0,-1,1238,1611,0,0
21,-587,0,0,0,0,0,0,0,0,0,-1,1245,1611,0,0
28,-587,0,0,0,0,0,0,0,0,0,-1,1252,1611,0,0
35,-587,0,0,0,0,0,0,0,0,0,-1,1259,1611,0,0
42,-587,0,0,0,0,0,0,0,0,0,-1,1266,1611,0,0
49,-587,0,0,0,0,0,0,0,0,0,-1,1273,1611,0,0
56,-587,0,0,0,0,0,0,0,0,0,-1,1280,1611,0,0
63,-587,0,0,0,0,0,0,0,0,0,-1,1287,1611,0,0
70,-587,0,0,0,0,0,0,0,0,0,-1,1294,1611,0,0
77,-587,0,0,0,0,0,0,0,0,0,-1,1301,1611,0,0
84,-587,0,0,0,0,0,0,0,0,0,-1,1308,1611,0,0
91,-587,0,0,0,0,0,0,0,0,0,-1,1315,1611,0,0
98,-587,0,0,0,0,0,0,0,0,0,-1,1322,1611,0,0
105,-587,0,0,0,0,0,0,0,0,0,-1,1329,1611,0,0
112,-587,0,0,0,0,0,0,0,0,0,-1,1336,1611,0,0
119,-587,0,0,0,0,0,0,0,0,0,-1,1343,1611,0,0
126,-587,0,0,0,0,0,0,0,0,0,-1,1350,1611,0,0
133,-587,0,0,0,0,0,0,0,0,0,-1,1357,1611,0,0
140,-587,0,0,0,0,0,0,0,0,0,-1,1364,1611,0,0
147,-587,0,0,0,0,0,0,0,0,0,-1,1371,1611,0,0
154,-587,0,0,0,0,0,0,0,0,0,-1,1378,1611,0,0
161,-587,0,0,0,0,0,0,0,0,0,-1,1385,1611,0,0
168,-587,0,0,0,0,0,0,0,0,0,-1,1392,1611,0,0
175,-587,0,0,0,0,0,0,0,0,0,-1,1399,1611,0,0
182,-587,0,0,0,0,0,0,0,0,0,-1,1406,1611,0,0
189,-587,0,0,0,0,0,0,0,0,0,-1,1413,1611,0,0
196,-587,0,0,0,0,0,0,0,0,0,-1,1420,1611,0,0
203,-587,0,0,0,0,0,0,0,0,0,-1,1427,1611,0,0
210,-587,0,0,0,0,0,0,0,0,0,-1,1434,1611,0,0
217,-587,0,0,0,0,0,0,0,0,0,-1,1441,1611,0,0
224,-587,0,0,0,0,0,0,0,0,0,-1,1448,1611,0,0
231,-587,0,0,0,0,0,0,0,0,0,-1,1455,1611,0,0
238,-587,0,0,0,0,0,0,0,0,0,-1,1462,1611,0,0
245,-587,0,0,0,0,0,0,0,0,0,-1,1469,1611,0,0
252,-587,0,0,0,0,0,0,0,0,0,-1,1476,1611,0,0
259,-587,0,0,0,0,0,0,0,0,0,-1,1483,1611,0,0
266,-587,0,0,0,0,0,0,0,0,0,-1,1490,1611,0,0
273,-587,10.2936,6.35083,0,0,0,0,0,0,0,-1,1497,1611,10.2936,-6.35087
280,-587,2.09204,1.1217,0,0,0,0,0,0,0,-1,1504,1611,2.092,-1.12176
287,-587,3.2865,0.671509,0,0,0,0,0,0,0,-1,1511,1611,3.28656,-0.671538
294,-587,4.24646,1.58765,0,0,0,0,0,0,0,-1,1518,1611,4.24648,-1.58761
301,-587,7.60474,8.37085,0,0,0,0,0,0,0,-1,1525,1611,7.60478,-8.37084
308,-587,5.99316,10.2291,0,0,0,0,0,0,0,-1,1532,1611,5.99315,-10.2291
315,-587,4.34558,12.3289,0,0,0,0,0,0,0,-1,1539,1611,4.34556,-12.3288
322,-587,10.4526,6.38245,0,0,0,0,0,0,0,-1,1546,1611,10.4526,-6.38245
329,-587,10.7738,8.42444,0,0,0,0,0,0,0,-1,1553,1611,10.7738,-8.42438
336,-587,7.5531,5.96619,0,0,0,0,0,0,0,-1,1560,1611,7.55311,-5.96617
343,-587,9.57495,4.38391,0,0,0,0,0,0,0,-1,1567,1611,9.57494,-4.38397
350,-587,9.50378,3.45093,0,0,0,0,0,0,0,-1,1574,1611,9.50376,-3.4509
357,-587,9.40027,2.50806,0,0,0,0,0,0,0,-1,1581,1611,9.40022,-2.50803
364,-587,9.26477,1.34131,0,0,0,0,0,0,0,-1,1588,1611,9.26479,-1.34126
371,-587,6.98926,7.87561,0,0,0,0,0,0,0,-1,1595,1611,6.98928,-7.87564
378,-587,9.25146,13.8358,0,0,0,0,0,0,0,-1,1602,1611,9.2515,-13.8359
385,-587,13.9305,30.3229,0,0,0,0,0,0,0,-1,1609,1611,13.9305,-30.3228
392,-587,13.512,29.5345,0,0,0,0,0,0,0,-1,1616,1611,13.5119,-29.5346
399,-587,14.0684,29.1423,0,0,0,0,0,0,0,-1,1623,1611,14.0684,-29.1424
406,-587,13.4604,27.8947,0.00130476,0.0182853,0.00185932,0.0184865,0.00110355,1.463,0.0119735,0.0435004,1630,1611,13.4604,-27.8947
413,-587,13.4252,27.6824,-0.000574844,0.0163153,0.00168219,0.0164812,-0.000740755,1.47249,0.0112425,0.0353751,1637,1611,13.4251,-27.6824
420,-587,13.4325,27.4248,-0.00150656,0.0147744,0.00113609,0.0148533,-0.00158545,1.50146,0.0104708,0.0304394,1644,1611,13.4325,-27.4248
427,-587,13.4866,27.0826,-0.00182977,0.0134727,0.000591632,0.0134955,-0.00185261,1.53221,0.00967387,0.0232463,1651,1611,13.4866,-27.0827
434,-587,13.4609,26.5903,-0.00179082,0.0116557,0.000185186,0.0116582,-0.00179336,1.55703,0.00843373,0.0179174,1658,1611,13.4609,-26.5903
441,-587,13.4603,26.1613,-0.00148389,0.0103924,-0.000387849,0.010405,-0.00149654,-1.53819,0.00748556,0.0197589,1665,1611,13.4603,-26.1612
448,-587,13.4769,25.8201,-0.00132255,0.00901937,-0.000904194,0.00909782,-0.00140101,-1.48424,0.00658211,0.0153529,1672,1611,13.4769,-25.82
455,-587,13.4644,25.4315,-0.000820056,0.00761237,-0.00138232,0.00783318,-0.00104087,-1.41239,0.00560141,0.0147087,1679,1611,13.4643,-25.4315
462,-587,13.4583,25.0409,-0.00024103,0.00674891,-0.00163579,0.00711277,-0.000604898,-1.35192,0.0049558,0.0185763,1686,1611,13.4583,-25.0408
469,-587,13.455,24.651,7.38554e-05,0.0055162,-0.0017272,0.00601807,-0.000428013,-1.28802,0.00416206,0.0162262,1693,1611,13.455,-24.651
476,-587,13.4313,24.245,8.63259e-05,0.00412807,-0.00160382,0.00468715,-0.000472757,-1.23537,0.00329368,0.0105638,1700,1611,13.4313,-24.245
483,-587,13.3838,23.8483,0.000118811,0.00265074,-0.00141218,0.00328133,-0.000511779,-1.15083,0.00237659,0.0143185,1707,1611,13.3838,-23.8483
490,-587,13.3517,23.4482,-1.80558e-05,0.00135662,-0.000981152,0.00186724,-0.000528671,-1.09094,0.00145346,0.0169672,1714,1611,13.3517,-23.4482
497,-587,13.3627,23.0281,-0.000492057,0.000161498,-0.000538787,0.000464859,-0.000795419,-1.05799,0.000735918,0.0128977,1721,1611,13.3627,-23.0281
504,-587,13.3455,22.6375,-0.000934526,-0.000880868,-5.76315e-05,-0.000844127,-0.000971267,-1.00324,0.000609567,0.0124353,1728,1611,13.3455,-22.6375
511,-587,13.3422,22.1998,-0.00135672,-0.00188281,0.000464549,-0.00108592,-0.00215362,0.527786,0.00124341,0.0150029,1735,1611,13.3422,-22.1998
518,-587,13.3663,21.7633,-0.00159745,-0.00274814,0.000841612,-0.00115332,-0.00319227,0.485574,0.00186655,0.0146428,1742,1611,13.3663,-21.7633
525,-587,13.3481,21.382,-0.00163518,-0.00349279,0.00109255,-0.00112999,-0.00399799,0.433115,0.00237983,0.016893,1749,1611,13.3481,-21.3819
532,-587,13.318,20.981,-0.00151953,-0.00433328,0.0014555,-0.000902111,-0.0049507,0.401192,0.00304464,0.0260101,1756,1611,13.318,-20.9809
539,-587,13.5137,20.569,-0.00152931,-0.00555524,0.00196694,-0.000727865,-0.00635668,0.386917,0.00401721,0.0483682,1763,1611,13.5137,-20.5689
546,-587,13.7972,20.1709,0,0,0,0,0,0,0,-1,1770,1611,13.7973,-20.1709
553,-587,7.5813,8.45068,0,0,0,0,0,0,0,-1,1777,1611,7.58125,-8.45068
560,-587,4.21179,5.23547,0,0,0,0,0,0,0,-1,1784,1611,4.21185,-5.23553
567,-587,4.03711,5.46387,0,0,0,0,0,0,0,-1,1791,1611,4.03715,-5.46382
574,-587,3.83142,5.68884,0,0,0,0,0,0,0,-1,1798,1611,3.83141,-5.68881
581,-587,3.47168,6.00977,0,0,0,0,0,0,0,-1,1805,1611,3.47167,-6.00983
588,-587,0,0,0,0,0,0,0,0,0,-1,1812,1611,0,0
595,-587,0,0,0,0,0,0,0,0,0,-1,1819,1611,0,0
602,-587,0,0,0,0,0,0,0,0,0,-1,1826,1611,0,0
609,-587,0,0,0,0,0,0,0,0,0,-1,1833,1611,0,0
616,-587,0,0,0,0,0,0,0,0,0,-1,1840,1611,0,0
623,-587,0,0,0,0,0,0,0,0,0,-1,1847,1611,0,0
630,-587,0,0,0,0,0,0,0,0,0,-1,1854,1611,0,0
637,-587,0,0,0,0,0,0,0,0,0,-1,1861,1611,0,0
644,-587,0,0,0,0,0,0,0,0,0,-1,1868,1611,0,0
651,-587,0,0,0,0,0,0,0,0,0,-1,1875,1611,0,0
658,-587,0,0,0,0,0,0,0,0,0,-1,1882,1611,0,0
665,-587,0,0,0,0,0,0,0,0,0,-1,1889,1611,0,0
672,-587,0,0,0,0,0,0,0,0,0,-1,1896,1611,0,0
679,-587,0,0,0,0,0,0,0,0,0,-1,1903,1611,0,0
686,-587,0,0,0,0,0,0,0,0,0,-1,1910,1611,0,0
693,-587,0,0,0,0,0,0,0,0,0,-1,1917,1611,0,0
700,-587,0,0,0,0,0,0,0,0,0,-1,1924,1611,0,0
707,-587,0,0,0,0,0,0,0,0,0,-1,1931,1611,0,0
714,-587,0,0,0,0,0,0,0,0,0,-1,1938,1611,0,0
721,-587,0,0,0,0,0,0,0,0,0,-1,1945,1611,0,0
728,-587,0,0,0,0,0,0,0,0,0,-1,1952,1611,0,0
735,-587,0,0,0,0,0,0,0,0,0,-1,1959,1611,0,0
742,-587,0,0,0,0,0,0,0,0,0,-1,1966,1611,0,0
749,-587,0,0,0,0,0,0,0,0,0,-1,1973,1611,0,0
756,-587,0,0,0,0,0,0,0,0,0,-1,1980,1611,0,0
763,-587,0,0,0,0,0,0,0,0,0,-1,1987,1611,0,0
770,-587,0,0,0,0,0,0,0,0,0,-1,1994,1611,0,0
777,-587,0,0,0,0,0,0,0,0,0,-1,2001,1611,0,0
784,-587,0,0,0,0,0,0,0,0,0,-1,2008,1611,0,0
791,-587,0,0,0,0,0,0,0,0,0,-1,2015,1611,0,0
798,-587,0,0,0,0,0,0,0,0,0,-1,2022,1611,0,0
805,-587,0,0,0,0,0,0,0,0,0,-1,2029,1611,0,0
812,-587,0,0,0,0,0,0,0,0,0,-1,2036,1611,0,0
-700,-594,0,0,0,0,0,0,0,0,0,-1,524,1618,0,0
-693,-594,0,0,0,0,0,0,0,0,0,-1,531,1618,0,0
-686,-594,0,0,0,0,0,0,0,0,0,-1,538,1618,0,0
-679,-594,0,0,0,0,0,0,0,0,0,-1,545,1618,0,0
-672,-594,0,0,0,0,0,0,0,0,0,-1,552,1618,0,0
-665,-594,0,0,0,0,0,0,0,0,0,-1,559,1618,0,0
-658,-594,0,0,0,0,0,0,0,0,0,-1,566,1618,0,0
-651,-594,0,0,0,0,0,0,0,0,0,-1,573,1618,0,0
-644,-594,0,0,0,0,0,0,0,0,0,-1,580,1618,0,0
-637,-594,0,0,0,0,0,0,0,0,0,-1,587,1618,0,0
-630,-594,0,0,0,0,0,0,0,0,0,-1,594,1618,0,0
-623,-594,0,0,0,0,0,0,0,0,0,-1,601,1618,0,0
-616,-594,0,0,0,0,0,0,0,0,0,-1,608,1618,0,0
-609,-594,0,0,0,0,0,0,0,0,0,-1,615,1618,0,0
-602,-594,0,0,0,0,0,0,0,0,0,-1,622,1618,0,0
-595,-594,0,0,0,0,0,0,0,0,0,-1,629,1618,0,0
-588,-594,0,0,0,0,0,0,0,0,0,-1,636,1618,0,0
-581,-594,0,0,0,0,0,0,0,0,0,-1,643,1618,0,0
-574,-594,0,0,0,0,0,0,0,0,0,-1,650,1618,0,0
-567,-594,0,0,0,0,0,0,0,0,0,-1,657,1618,0,0
-560,-594,0,0,0,0,0,0,0,0,0,-1,664,1618,0,0
-553,-594,0,0,0,0,0,0,0,0,0,-1,671,1618,0,0
-546,-594,0,0,0,0,0,0,0,0,0,-1,678,1618,0,0
-539,-594,0,0,0,0,0,0,0,0,0,-1,685,1618,0,0
-532,-594,0,0,0,0,0,0,0,0,0,-1,692,1618,0,0
-525,-594,0,0,0,0,0,0,0,0,0,-1,699,1618,0,0
-518,-594,0,0,0,0,0,0,0,0,0,-1,706,1618,0,0
-511,-594,0,0,0,0,0,0,0,0,0,-1,713,1618,0,0
-504,-594,0,0,0,0,0,0,0,0,0,-1,720,1618,0,0
-497,-594,0,0,0,0,0,0,0,0,0,-1,727,1618,0,0
-490,-594,0,0,0,0,0,0,0,0,0,-1,734,1618,0,0
-483,-594,0,0,0,0,0,0,0,0,0,-1,741,1618,0,0
-476,-594,0,0,0,0,0,0,0,0,0,-1,748,1618,0,0
-469,-594,0,0,0,0,0,0,0,0,0,-1,755,1618,0,0
-462,-594,0,0,0,0,0,0,0,0,0,-1,762,1618,0,0
-455,-594,-0.509216,-1.58411,0,0,0,0,0,0,0,-1,769,1618,-0.509245,1.58415
-448,-594,-7.71887,-0.0559082,0,0,0,0,0,0,0,-1,776,1618,-7.71885,0.055939
-441,-594,-5.78473,1.18298,0,0,0,0,0,0,0,-1,783,1618,-5.78474,-1.18295
-434,-594,-3.93628,3.06213,0,0,0,0,0,0,0,-1,790,1618,-3.93631,-3.06208
-427,-594,-3.97693,6.77759,0,0,0,0,0,0,0,-1,797,1618,-3.97695,-6.77764
-420,-594,-2.53046,7.71606,0,0,0,0,0,0,0,-1,804,1618,-2.53047,-7.71609
-413,-594,-0.860413,8.00391,0,0,0,0,0,0,0,-1,811,1618,-0.860423,-8.00389
-406,-594,2.45746,13.6218,0,0,0,0,0,0,0,-1,818,1618,2.45747,-13.6218
-399,-594,2.44409,19.8262,0,0,0,0,0,0,0,-1,825,1618,2.44409,-19.8262
-392,-594,2.40643,20.0674,0,0,0,0,0,0,0,-1,832,1618,2.40642,-20.0674
-385,-594,1.96417,20.876,-0.00514772,-0.00157629,-0.0020344,-0.00065506,-0.00606895,-1.14559,0.00384626,0.0337212,839,1618,1.9642,-20.876
-378,-594,1.85919,21.2064,-0.00353163,-0.0019325,-0.00127036,-0.00123102,-0.00423311,-1.06627,0.00251427,0.0152211,846,1618,1.85919,-21.2064
-371,-594,1.88373,21.6875,-0.0023271,-0.00194857,-0.000775579,-0.0013395,-0.00293617,-0.905075,0.00169737,0.0114554,853,1618,1.88376,-21.6874
-364,-594,1.87903,22.1097,-0.00145213,-0.00185997,-0.000415341,-0.00119335,-0.00211875,-0.557195,0.00122652,0.0103522,860,1618,1.87903,-22.1097
-357,-594,1.85828,22.5408,-0.000712106,-0.00155088,-0.000107165,-0.00069863,-0.00156435,-0.125088,0.000904895,0.0107149,867,1618,1.85827,-22.5408
-350,-594,1.83215,22.9994,-7.23172e-06,-0.00108757,0.000143245,1.14388e-05,-0.00110624,0.129609,0.000741336,0.0152525,874,1618,1.83215,-22.9994
-343,-594,1.80359,23.4534,0.000625577,-0.000465275,0.000463555,0.000795953,-0.000635651,0.352217,0.000828262,0.0163947,881,1618,1.80361,-23.4533
-336,-594,1.76569,23.8855,0.00119921,0.000159226,0.000655857,0.0015162,-0.000157764,0.450217,0.00106728,0.0138662,888,1618,1.76569,-23.8855
-329,-594,1.77362,24.3035,0.00174267,0.000834748,0.00084118,0.00224457,0.000332851,0.537959,0.00139869,0.014737,895,1618,1.77359,-24.3034
-322,-594,1.8114,24.7214,0.00214695,0.00162801,0.00102674,0.0029465,0.000828458,0.661635,0.00175463,0.0172596,902,1618,1.81139,-24.7215
-315,-594,1.81287,25.1451,0.00264244,0.00231828,0.0011838,0.0036752,0.00128552,0.717364,0.00215356,0.0161661,909,1618,1.81288,-25.1452
-308,-594,1.78546,25.557,0.00336915,0.00291486,0.00134577,0.00450681,0.0017772,0.701795,0.0026213,0.014528,916,1618,1.78544,-25.557
-301,-594,1.76489,25.9307,0.00419843,0.00309328,0.00147075,0.00521698,0.00207473,0.605702,0.00303297,0.0121827,923,1618,1.76487,-25.9307
-294,-594,1.81207,26.3138,0.00516779,0.00275005,0.00154741,0.00592255,0.00199529,0.453805,0.0034795,0.0140737,930,1618,1.81207,-26.3138
-287,-594,1.76129,26.6982,0.00627497,0.00273607,0.00174655,0.00699176,0.00201928,0.389444,0.00415499,0.0244259,937,1618,1.7613,-26.6982
-280,-594,1.86487,27.1501,0.00757474,0.00256117,0.00182133,0.00816654,0.00196937,0.314165,0.00492106,0.031392,944,1618,1.86485,-27.1501
-273,-594,1.78986,27.6322,0.00891463,0.00166131,0.00170346,0.00929477,0.00128117,0.219559,0.00581668,0.0377611,951,1618,1.78988,-27.6322
-266,-594,1.84338,28.0433,0.0104992,0.000542737,0.00156496,0.0107394,0.000302551,0.152289,0.0070609,0.0439841,958,1618,1.84336,-28.0433
-259,-594,2.02686,28.356,0.0121307,-0.000939831,0.00138022,0.0122749,-0.00108399,0.104068,0.00856747,0.0485043,965,1618,2.02686,-28.3559
-252,-594,2.14063,28.3654,0,0,0,0,0,0,0,-1,972,1618,2.14063,-28.3654
-245,-594,1.88403,28.1007,0,0,0,0,0,0,0,-1,979,1618,1.88402,-28.1007
-238,-594,2.09015,28.0121,0,0,0,0,0,0,0,-1,986,1618,2.09012,-28.0121
-231,-594,1.93774,9.35388,0,0,0,0,0,0,0,-1,993,1618,1.93776,-9.35393
-224,-594,1.81824,8.62744,0,0,0,0,0,0,0,-1,1000,1618,1.81822,-8.62745
-217,-594,-8.24066,12.0752,0,0,0,0,0,0,0,-1,1007,1618,-8.24068,-12.0751
-210,-594,-5.61438,14.2119,0,0,0,0,0,0,0,-1,1014,1618,-5.6144,-14.212
-203,-594,-3.94507,15.5768,0,0,0,0,0,0,0,-1,1021,1618,-3.94506,-15.5768
-196,-594,2.78613,10.5815,0,0,0,0,0,0,0,-1,1028,1618,2.78612,-10.5815
-189,-594,2.60913,9.48865,0,0,0,0,0,0,0,-1,1035,1618,2.6091,-9.48871
-182,-594,1.2395,9.38806,0,0,0,0,0,0,0,-1,1042,1618,1.23951,-9.38804
-175,-594,0.234863,8.73792,0,0,0,0,0,0,0,-1,1049,1618,0.234812,-8.73786
-168,-594,-0.495483,8.46289,0,0,0,0,0,0,0,-1,1056,1618,-0.495513,-8.46285
-161,-594,-1.39734,8.28699,0,0,0,0,0,0,0,-1,1063,1618,-1.39729,-8.28699
-154,-594,-0.000854492,7.68445,0,0,0,0,0,0,0,-1,1070,1618,-0.000805755,-7.6845
-147,-594,0.348267,9.3385,0,0,0,0,0,0,0,-1,1077,1618,0.348237,-9.33849
-140,-594,0.675171,11.5884,0,0,0,0,0,0,0,-1,1084,1618,0.675204,-11.5884
-133,-594,0,0,0,0,0,0,0,0,0,-1,1091,1618,0,0
-126,-594,0,0,0,0,0,0,0,0,0,-1,1098,1618,0,0
-119,-594,0,0,0,0,0,0,0,0,0,-1,1105,1618,0,0
-112,-594,0,0,0,0,0,0,0,0,0,-1,1112,1618,0,0
-105,-594,0,0,0,0,0,0,0,0,0,-1,1119,1618,0,0
-98,-594,0,0,0,0,0,0,0,0,0,-1,1126,1618,0,0
-91,-594,0,0,0,0,0,0,0,0,0,-1,1133,1618,0,0
-84,-594,0,0,0,0,0,0,0,0,0,-1,1140,1618,0,0
-77,-594,0,0,0,0,0,0,0,0,0,-1,1147,1618,0,0
-70,-594,0,0,0,0,0,0,0,0,0,-1,1154,1618,0,0
-63,-594,0,0,0,0,0,0,0,0,0,-1,1161,1618,0,0
-56,-594,0,0,0,0,0,0,0,0,0,-1,1168,1618,0,0
-49,-594,0,0,0,0,0,0,0,0,0,-1,1175,1618,0,0
-42,-594,0,0,0,0,0,0,0,0,0,-1,1182,1618,0,0
-35,-594,0,0,0,0,0,0,0,0,0,-1,1189,1618,0,0
-28,-594,0,0,0,0,0,0,0,0,0,-1,1196,1618,0,0
-21,-594,0,0,0,0,0,0,0,0,0,-1,1203,1618,0,0
-14,-594,0,0,0,0,0,0,0,0,0,-1,1210,1618,0,0
-7,-594,0,0,0,0,0,0,0,0,0,-1,1217,1618,0,0
0,-594,0,0,0,0,0,0,0,0,0,-1,1224,1618,0,0
7,-594,0,0,0,0,0,0,0,0,0,-1,1231,1618,0,0
14,-594,0,0,0,0,0,0,0,0,0,-1,1238,1618,0,0
21,-594,0,0,0,0,0,0,0,0,0,-1,1245,1618,0,0
28,-594,0,0,0,0,0,0,0,0,0,-1,1252,1618,0,0
35,-594,0,0,0,0,0,0,0,0,0,-1,1259,1618,0,0
42,-594,0,0,0,0,0,0,0,0,0,-1,1266,1618,0,0
49,-594,0,0,0,0,0,0,0,0,0,-1,1273,1618,0,0
56,-594,0,0,0,0,0,0,0,0,0,-1,1280,1618,0,0
63,-594,0,0,0,0,0,0,0,0,0,-1,1287,1618,0,0
70,-594,0,0,0,0,0,0,0,0,0,-1,1294,1618,0,0
77,-594,0,0,0,0,0,0,0,0,0,-1,1301,1618,0,0
84,-594,0,0,0,0,0,0,0,0,0,-1,1308,1618,0,0
91,-594,0,0,0,0,0,0,0,0,0,-1,1315,1618,0,0
98,-594,0,0,0,0,0,0,0,0,0,-1,1322,1618,0,0
105,-594,0,0,0,0,0,0,0,0,0,-1,1329,1618,0,0
112,-594,0,0,0,0,0,0,0,0,0,-1,1336,1618,0,0
119,-594,0,0,0,0,0,0,0,0,0,-1,1343,1618,0,0
126,-594,0,0,0,0,0,0,0,0,0,-1,1350,1618,0,0
133,-594,0,0,0,0,0,0,0,0,0,-1,1357,1618,0,0
140,-594,0,0,0,0,0,0,0,0,0,-1,1364,1618,0,0
147,-594,0,0,0,0,0,0,0,0,0,-1,1371,1618,0,0
154,-594,0,0,0,0,0,0,0,0,0,-1,1378,1618,0,0
161,-594,0,0,0,0,0,0,0,0,0,-1,1385,1618,0,0
168,-594,0,0,0,0,0,0,0,0,0,-1,1392,1618,0,0
175,-594,0,0,0,0,0,0,0,0,0,-1,1399,1618,0,0
182,-594,0,0,0,0,0,0,0,0,0,-1,1406,1618,0,0
189,-594,0,0,0,0,0,0,0,0,0,-1,1413,1618,0,0
196,-594,0,0,0,0,0,0,0,0,0,-1,1420,1618,0,0
203,-594,0,0,0,0,0,0,0,0,0,-1,1427,1618,0,0
210,-594,0,0,0,0,0,0,0,0,0,-1,1434,1618,0,0
217,-594,0,0,0,0,0,0,0,0,0,-1,1441,1618,0,0
224,-594,0,0,0,0,0,0,0,0,0,-1,1448,1618,0,0
231,-594,0,0,0,0,0,0,0,0,0,-1,1455,1618,0,0
238,-594,0,0,0,0,0,0,0,0,0,-1,1462,1618,0,0
245,-594,0,0,0,0,0,0,0,0,0,-1,1469,1618,0,0
252,-594,3.03674,1.20996,0,0,0,0,0,0,0,-1,1476,1618,3.0368,-1.20999
259,-594,4.79834,1.53113,0,0,0,0,0,0,0,-1,1483,1618,4.79837,-1.53118
266,-594,3.71606,2.68152,0,0,0,0,0,0,0,-1,1490,1618,3.71609,-2.68149
273,-594,9.7655,6.33557,0,0,0,0,0,0,0,-1,1497,1618,9.76555,-6.33554
280,-594,3.13281,0.911255,0,0,0,0,0,0,0,-1,1504,1618,3.13277,-0.911207
287,-594,4.42749,1.51563,0,0,0,0,0,0,0,-1,1511,1618,4.42747,-1.51564
294,-594,5.36475,3.34937,0,0,0,0,0,0,0,-1,1518,1618,5.36475,-3.3494
301,-594,7.97144,9.04333,0,0,0,0,0,0,0,-1,1525,1618,7.9714,-9.04328
308,-594,6.30347,10.4633,0,0,0,0,0,0,0,-1,1532,1618,6.30351,-10.4633
315,-594,4.62012,11.934,0,0,0,0,0,0,0,-1,1539,1618,4.62006,-11.934
322,-594,2.91528,13.3134,0,0,0,0,0,0,0,-1,1546,1618,2.91523,-13.3133
329,-594,4.19861,9.77258,0,0,0,0,0,0,0,-1,1553,1618,4.19865,-9.77264
336,-594,10.1353,4.66528,0,0,0,0,0,0,0,-1,1560,1618,10.1353,-4.66533
343,-594,10.5729,3.71228,0,0,0,0,0,0,0,-1,1567,1618,10.5729,-3.71232
350,-594,10.219,2.98792,0,0,0,0,0,0,0,-1,1574,1618,10.219,-2.98797
357,-594,9.83154,1.96326,0,0,0,0,0,0,0,-1,1581,1618,9.8315,-1.96321
364,-594,9.74939,0.700562,0,0,0,0,0,0,0,-1,1588,1618,9.74939,-0.700615
371,-594,8.54297,14.3988,0,0,0,0,0,0,0,-1,1595,1618,8.54296,-14.3989
378,-594,12.8971,31.8892,0,0,0,0,0,0,0,-1,1602,1618,12.8971,-31.8892
385,-594,12.5582,29.4193,0,0,0,0,0,0,0,-1,1609,1618,12.5582,-29.4193
392,-594,12.9139,29.2456,0.00764918,0.0211424,-0.000752339,0.0211842,0.00760736,-1.51527,0.0123915,0.0489994,1616,1618,12.9139,-29.2455
399,-594,13.2865,28.8723,0.00478386,0.0177467,0.00023814,0.0177511,0.00477948,1.55243,0.0106062,0.0440561,1623,1618,13.2865,-28.8723
406,-594,13.1262,28.1927,0.00245223,0.0149484,0.000813794,0.0150011,0.00239945,1.50604,0.00930465,0.027877,1630,1618,13.1263,-28.1928
413,-594,13.0603,27.8226,0.000821309,0.013031,0.000878511,0.0130939,0.000758422,1.49933,0.00848775,0.0191818,1637,1618,13.0603,-27.8227
420,-594,13.0555,27.4252,-0.000176421,0.0114288,0.000705809,0.0114716,-0.000219189,1.51028,0.00772181,0.0149126,1644,1618,13.0555,-27.4252
427,-594,13.0728,27.0515,-0.000700426,0.0101777,0.000383653,0.0101912,-0.000713939,1.53559,0.00704417,0.0121812,1651,1618,13.0728,-27.0515
434,-594,13.0685,26.6624,-0.000917109,0.00864847,0.000136356,0.00865041,-0.000919052,1.55655,0.00609643,0.0169473,1658,1618,13.0685,-26.6623
441,-594,13.0593,26.246,-0.000863478,0.00761568,-0.000286983,0.00762538,-0.00087318,-1.537,0.00539824,0.0159136,1665,1618,13.0593,-26.246
448,-594,13.0801,25.8374,-0.000933774,0.00648516,-0.000660141,0.00654344,-0.000992056,-1.48274,0.0047278,0.0168207,1672,1618,13.0801,-25.8374
455,-594,13.0697,25.4374,-0.000689548,0.00535245,-0.00103859,0.005526,-0.000863093,-1.40523,0.00400283,0.0127875,1679,1618,13.0697,-25.4374
462,-594,13.0565,25.0499,-0.000377117,0.00463147,-0.00121549,0.00491086,-0.000656506,-1.34486,0.00351325,0.0135522,1686,1618,13.0565,-25.0499
469,-594,13.0519,24.6671,-0.000240569,0.003632,-0.00127605,0.00401466,-0.000623226,-1.27945,0.00290654,0.0121531,1693,1618,13.0519,-24.6672
476,-594,13.0295,24.2797,-0.000358066,0.00250546,-0.00114863,0.00290926,-0.000761864,-1.23274,0.00223713,0.0124553,1700,1618,13.0295,-24.2796
483,-594,13.0166,23.8636,-0.000490794,0.00129952,-0.000927689,0.00169352,-0.000884789,-1.16917,0.0015128,0.0163659,1707,1618,13.0166,-23.8636
490,-594,12.9863,23.442,-0.00070047,0.000242049,-0.000550965,0.000495805,-0.000954226,-1.13919,0.000851007,0.0143724,1714,1618,12.9863,-23.442
497,-594,12.9648,23.0349,-0.00126368,-0.000741606,-0.000105957,-0.000720921,-0.00128436,-1.378,0.000743383,0.0105684,1721,1618,12.9648,-23.035
504,-594,12.9707,22.6295,-0.00173634,-0.0016071,0.000344873,-0.00132085,-0.0020226,0.878007,0.00118584,0.0109337,1728,1618,12.9707,-22.6295
511,-594,12.9771,22.175,-0.00215855,-0.00252567,0.000828882,-0.00149315,-0.00319107,0.676427,0.00184363,0.0149715,1735,1618,12.9771,-22.1751
518,-594,12.9573,21.7512,-0.00237106,-0.00327654,0.00117678,-0.00156293,-0.00408466,0.601762,0.00237984,0.0200085,1742,1618,12.9572,-21.7512
525,-594,12.9034,21.3848,-0.00231418,-0.0039998,0.00141372,-0.0015111,-0.00480288,0.516602,0.00283576,0.0316361,1749,1618,12.9035,-21.3848
532,-594,12.8992,20.9888,0,0,0,0,0,0,0,-1,1756,1618,12.8991,-20.9887
539,-594,13.1895,20.521,0,0,0,0,0,0,0,-1,1763,1618,13.1894,-20.521
546,-594,7.48645,8.54785,0,0,0,0,0,0,0,-1,1770,1618,7.48639,-8.54789
553,-594,3.69714,5.68762,0,0,0,0,0,0,0,-1,1777,1618,3.69715,-5.68764
560,-594,6.06616,4.44482,0,0,0,0,0,0,0,-1,1784,1618,6.06621,-4.44477
567,-594,5.97266,4.73303,0,0,0,0,0,0,0,-1,1791,1618,5.97271,-4.73309
574,-594,5.9906,4.96326,0,0,0,0,0,0,0,-1,1798,1618,5.99065,-4.96326
581,-594,0,0,0,0,0,0,0,0,0,-1,1805,1618,0,0
588,-594,0,0,0,0,0,0,0,0,0,-1,1812,1618,0,0
595,-594,0,0,0,0,0,0,0,0,0,-1,1819,1618,0,0
602,-594,0,0,0,0,0,0,0,0,0,-1,1826,1618,0,0
609,-594,0,0,0,0,0,0,0,0,0,-1,1833,1618,0,0
616,-594,0,0,0,0,0,0,0,0,0,-1,1840,1618,0,0
623,-594,0,0,0,0,0,0,0,0,0,-1,1847,1618,0,0
630,-594,0,0,0,0,0,0,0,0,0,-1,1854,1618,0,0
637,-594,0,0,0,0,0,0,0,0,0,-1,1861,1618,0,0
644,-594,0,0,0,0,0,0,0,0,0,-1,1868,1618,0,0
651,-594,0,0,0,0,0,0,0,0,0,-1,1875,1618,0,0
658,-594,0,0,0,0,0,0,0,0,0,-1,1882,1618,0,0
665,-594,0,0,0,0,0,0,0,0,0,-1,1889,1618,0,0
672,-594,0,0,0,0,0,0,0,0,0,-1,1896,1618,0,0
679,-594,0,0,0,0,0,0,0,0,0,-1,1903,1618,0,0
686,-594,0,0,0,0,0,0,0,0,0,-1,1910,1618,0,0
693,-594,0,0,0,0,0,0,0,0,0,-1,1917,1618,0,0
700,-594,0,0,0,0,0,0,0,0,0,-1,1924,1618,0,0
707,-594,0,0,0,0,0,0,0,0,0,-1,1931,1618,0,0
714,-594,0,0,0,0,0,0,0,0,0,-1,1938,1618,0,0
721,-594,0,0,0,0,0,0,0,0,0,-1,1945,1618,0,0
728,-594,0,0,0,0,0,0,0,0,0,-1,1952,1618,0,0
735,-594,0,0,0,0,0,0,0,0,0,-1,1959,1618,0,0
742,-594,0,0,0,0,0,0,0,0,0,-1,1966,1618,0,0
749,-594,0,0,0,0,0,0,0,0,0,-1,1973,1618,0,0
756,-594,0,0,0,0,0,0,0,0,0,-1,1980,1618,0,0
763,-594,0,0,0,0,0,0,0,0,0,-1,1987,1618,0,0
770,-594,0,0,0,0,0,0,0,0,0,-1,1994,1618,0,0
777,-594,0,0,0,0,0,0,0,0,0,-1,2001,1618,0,0
784,-594,0,0,0,0,0,0,0,0,0,-1,2008,1618,0,0
791,-594,0,0,0,0,0,0,0,0,0,-1,2015,1618,0,0
798,-594,0,0,0,0,0,0,0,0,0,-1,2022,1618,0,0
805,-594,0,0,0,0,0,0,0,0,0,-1,2029,1618,0,0
812,-594,0,0,0,0,0,0,0,0,0,-1,2036,1618,0,0
-700,-601,0,0,0,0,0,0,0,0,0,-1,524,1625,0,0
-693,-601,0,0,0,0,0,0,0,0,0,-1,531,1625,0,0
-686,-601,0,0,0,0,0,0,0,0,0,-1,538,1625,0,0
-679,-601,0,0,0,0,0,0,0,0,0,-1,545,1625,0,0
-672,-601,0,0,0,0,0,0,0,0,0,-1,552,1625,0,0
-665,-601,0,0,0,0,0,0,0,0,0,-1,559,1625,0,0
-658,-601,0,0,0,0,0,0,0,0,0,-1,566,1625,0,0
-651,-601,0,0,0,0,0,0,0,0,0,-1,573,1625,0,0
-644,-601,0,0,0,0,0,0,0,0,0,-1,580,1625,0,0
-637,-601,0,0,0,0,0,0,0,0,0,-1,587,1625,0,0
-630,-601,0,0,0,0,0,0,0,0,0,-1,594,1625,0,0
-623,-601,0,0,0,0,0,0,0,0,0,-1,601,1625,0,0
-616,-601,0,0,0,0,0,0,0,0,0,-1,608,1625,0,0
-609,-601,0,0,0,0,0,0,0,0,0,-1,615,1625,0,0
-602,-601,0,0,0,0,0,0,0,0,0,-1,622,1625,0,0
-595,-601,0,0,0,0,0,0,0,0,0,-1,629,1625,0,0
-588,-601,0,0,0,0,0,0,0,0,0,-1,636,1625,0,0
-581,-601,0,0,0,0,0,0,0,0,0,-1,643,1625,0,0
-574,-601,0,0,0,0,0,0,0,0,0,-1,650,1625,0,0
-567,-601,0,0,0,0,0,0,0,0,0,-1,657,1625,0,0
-560,-601,0,0,0,0,0,0,0,0,0,-1,664,1625,0,0
-553,-601,0,0,0,0,0,0,0,0,0,-1,671,1625,0,0
-546,-601,0,0,0,0,0,0,0,0,0,-1,678,1625,0,0
-539,-601,0,0,0,0,0,0,0,0,0,-1,685,1625,0,0
-532,-601,0,0,0,0,0,0,0,0,0,-1,692,1625,0,0
-525,-601,0,0,0,0,0,0,0,0,0,-1,699,1625,0,0
-518,-601,0,0,0,0,0,0,0,0,0,-1,706,1625,0,0
-511,-601,0,0,0,0,0,0,0,0,0,-1,713,1625,0,0
-504,-601,0,0,0,0,0,0,0,0,0,-1,720,1625,0,0
-497,-601,0,0,0,0,0,0,0,0,0,-1,727,1625,0,0
-490,-601,0,0,0,0,0,0,0,0,0,-1,734,1625,0,0
-483,-601,0,0,0,0,0,0,0,0,0,-1,741,1625,0,0
-476,-601,0,0,0,0,0,0,0,0,0,-1,748,1625,0,0
-469,-601,0,0,0,0,0,0,0,0,0,-1,755,1625,0,0
-462,-601,0,0,0,0,0,0,0,0,0,-1,762,1625,0,0
-455,-601,0,0,0,0,0,0,0,0,0,-1,769,1625,0,0
-448,-601,-7.07623,2.7616,0,0,0,0,0,0,0,-1,776,1625,-7.07626,-2.76161
-441,-601,-6.06689,3.33447,0,0,0,0,0,0,0,-1,783,1625,-6.06691,-3.33448
-434,-601,-5.02655,3.8468,0,0,0,0,0,0,0,-1,790,1625,-5.02657,-3.84674
-427,-601,-5.78601,4.2406,0,0,0,0,0,0,0,-1,797,1625,-5.786,-4.24058
-420,-601,-5.5191,5.60364,0,0,0,0,0,0,0,-1,804,1625,-5.51907,-5.60368
-413,-601,-4.30756,5.86047,0,0,0,0,0,0,0,-1,811,1625,-4.30757,-5.86046
-406,-601,-1.67493,7.20422,0,0,0,0,0,0,0,-1,818,1625,-1.67493,-7.20428
-399,-601,1.40094,15.3108,0,0,0,0,0,0,0,-1,825,1625,1.40096,-15.3107
-392,-601,2.54358,19.9835,0,0,0,0,0,0,0,-1,832,1625,2.54358,-19.9835
-385,-601,2.50848,20.6971,-0.00590545,-0.00238667,-0.00248936,-0.00109773,-0.00719439,-1.09302,0.00447546,0.0497753,839,1625,2.50849,-20.6971
-378,-601,2.33612,21.3435,-0.00412062,-0.00286087,-0.00160104,-0.00177026,-0.00521123,-0.972808,0.00305981,0.0420621,846,1625,2.33612,-21.3435
-371,-601,2.32129,21.6389,-0.00277903,-0.00294568,-0.00100008,-0.0018588,-0.0038659,-0.743834,0.00223253,0.0223063,853,1625,2.32126,-21.6389
-364,-601,2.30035,22.0991,-0.00181715,-0.00287176,-0.000643253,-0.00151269,-0.00317621,-0.442065,0.00183448,0.0125868,860,1625,2.30037,-22.0991
-357,-601,2.25555,22.5505,-0.00104042,-0.00259314,-0.000340494,-0.000969034,-0.00266453,-0.206657,0.00155731,0.0102815,867,1625,2.25554,-22.5505
-350,-601,2.26837,23.047,-0.000357534,-0.00211618,-7.75661e-05,-0.000354119,-0.00211959,-0.0439918,0.00131106,0.0206836,874,1625,2.2684,-23.047
-343,-601,2.22839,23.5249,0.000243069,-0.00150575,0.000247576,0.000277443,-0.00154013,0.137957,0.00113064,0.0228415,881,1625,2.22837,-23.5249
-336,-601,2.18384,23.9404,0.000769415,-0.00087305,0.000431665,0.000875952,-0.000979587,0.241971,0.00107185,0.0189496,888,1625,2.18382,-23.9404
-329,-601,2.20728,24.3429,0.00127391,-0.000219165,0.000581177,0.00147346,-0.000418717,0.330745,0.00114763,0.0159428,895,1625,2.20725,-24.3428
-322,-601,2.21924,24.7356,0.00160679,0.000592181,0.000740516,0.0019971,0.000201865,0.485081,0.00126948,0.0132796,902,1625,2.21924,-24.7356
-315,-601,2.23956,25.1219,0.00198502,0.00126104,0.000887602,0.00258161,0.000664454,0.591779,0.00154788,0.0129634,909,1625,2.23954,-25.1219
-308,-601,2.20538,25.5402,0.00253497,0.0019035,0.00102582,0.00329255,0.00114592,0.636106,0.00193,0.0120276,916,1625,2.20537,-25.5402
-301,-601,2.19751,25.9598,0.00321138,0.00217105,0.00116194,0.00396427,0.00141816,0.57494,0.00231945,0.0104309,923,1625,2.19752,-25.9598
-294,-601,2.19531,26.3329,0.00401933,0.00196842,0.00121363,0.00458272,0.00140503,0.434621,0.00271102,0.011174,930,1625,2.19529,-26.3329
-287,-601,2.1665,26.7462,0.00488813,0.00207856,0.00133305,0.00541995,0.00154674,0.379601,0.00322387,0.0115542,937,1625,2.16652,-26.7462
-280,-601,2.18463,27.1642,0.00591699,0.00200073,0.0014118,0.00637288,0.00154485,0.312338,0.00383869,0.0156625,944,1625,2.18464,-27.1642
-273,-601,2.17719,27.6091,0.00699968,0.00143346,0.00137447,0.00732058,0.00111256,0.229362,0.00455505,0.0171013,951,1625,2.17721,-27.6091
-266,-601,2.21692,28.0111,0.00823657,0.000704749,0.0013084,0.00845739,0.000483932,0.167193,0.00548407,0.0196799,958,1625,2.21694,-28.0111
-259,-601,2.27155,28.2664,0.00955022,-0.000223999,0.00113885,0.00968116,-0.000354939,0.114473,0.00657562,0.027408,965,1625,2.27155,-28.2663
-252,-601,2.4082,28.5021,0.010872,-0.00146382,0.000934878,0.0109425,-0.00153427,0.075213,0.00785649,0.0408894,972,1625,2.40819,-28.5021
-245,-601,2.43713,28.7329,0.012072,-0.00263033,0.000842963,0.0121202,-0.0026785,0.057086,0.00910524,0.0434916,979,1625,2.43712,-28.7329
-238,-601,2.56732,29.0497,0,0,0,0,0,0,0,-1,986,1625,2.56735,-29.0497
-231,-601,2.66772,13.7051,0,0,0,0,0,0,0,-1,993,1625,2.6677,-13.7051
-224,-601,-0.0305176,9.13684,0,0,0,0,0,0,0,-1,1000,1625,-0.030498,-9.13681
-217,-601,3.39429,10.3898,0,0,0,0,0,0,0,-1,1007,1625,3.39431,-10.3898
-210,-601,-6.53699,15.7931,0,0,0,0,0,0,0,-1,1014,1625,-6.53697,-15.7931
-203,-601,2.69348,15.9099,0,0,0,0,0,0,0,-1,1021,1625,2.69351,-15.91
-196,-601,2.66992,16.1815,0,0,0,0,0,0,0,-1,1028,1625,2.66995,-16.1815
-189,-601,2.849,16.6105,0,0,0,0,0,0,0,-1,1035,1625,2.84902,-16.6104
-182,-601,1.82153,13.9752,0,0,0,0,0,0,0,-1,1042,1625,1.82155,-13.9752
-175,-601,0.544922,9.28687,0,0,0,0,0,0,0,-1,1049,1625,0.544879,-9.28685
-168,-601,-0.247559,8.97461,0,0,0,0,0,0,0,-1,1056,1625,-0.247598,-8.97466
-161,-601,-1.16833,8.80078,0,0,0,0,0,0,0,-1,1063,1625,-1.16837,-8.80081
-154,-601,1.12756,7.94861,0,0,0,0,0,0,0,-1,1070,1625,1.12762,-7.94855
-147,-601,1.35352,9.55432,0,0,0,0,0,0,0,-1,1077,1625,1.35351,-9.55429
-140,-601,1.72437,11.1498,0,0,0,0,0,0,0,-1,1084,1625,1.72432,-11.1498
-133,-601,2.13281,12.8347,0,0,0,0,0,0,0,-1,1091,1625,2.13287,-12.8348
-126,-601,3.09534,15.427,0,0,0,0,0,0,0,-1,1098,1625,3.0953,-15.4271
-119,-601,1.22485,9.43457,0,0,0,0,0,0,0,-1,1105,1625,1.22489,-9.43456
-112,-601,0,0,0,0,0,0,0,0,0,-1,1112,1625,0,0
-105,-601,0,0,0,0,0,0,0,0,0,-1,1119,1625,0,0
-98,-601,0,0,0,0,0,0,0,0,0,-1,1126,1625,0,0
-91,-601,0,0,0,0,0,0,0,0,0,-1,1133,1625,0,0
-84,-601,0,0,0,0,0,0,0,0,0,-1,1140,1625,0,0
-77,-601,0,0,0,0,0,0,0,0,0,-1,1147,1625,0,0
-70,-601,0,0,0,0,0,0,0,0,0,-1,1154,1625,0,0
-63,-601,0,0,0,0,0,0,0,0,0,-1,1161,1625,0,0
-56,-601,0,0,0,0,0,0,0,0,0,-1,1168,1625,0,0
-49,-601,0,0,0,0,0,0,0,0,0,-1,1175,1625,0,0
-42,-601,0,0,0,0,0,0,0,0,0,-1,1182,1625,0,0
-35,-601,0,0,0,0,0,0,0,0,0,-1,1189,1625,0,0
-28,-601,0,0,0,0,0,0,0,0,0,-1,1196,1625,0,0
-21,-601,0,0,0,0,0,0,0,0,0,-1,1203,1625,0,0
-14,-601,0,0,0,0,0,0,0,0,0,-1,1210,1625,0,0
-7,-601,0,0,0,0,0,0,0,0,0,-1,1217,1625,0,0
0,-601,0,0,0,0,0,0,0,0,0,-1,1224,1625,0,0
7,-601,0,0,0,0,0,0,0,0,0,-1,1231,1625,0,0
14,-601,0,0,0,0,0,0,0,0,0,-1,1238,1625,0,0
21,-601,0,0,0,0,0,0,0,0,0,-1,1245,1625,0,0
28,-601,0,0,0,0,0,0,0,0,0,-1,1252,1625,0,0
35,-601,0,0,0,0,0,0,0,0,0,-1,1259,1625,0,0
42,-601,0,0,0,0,0,0,0,0,0,-1,1266,1625,0,0
49,-601,0,0,0,0,0,0,0,0,0,-1,1273,1625,0,0
56,-601,0,0,0,0,0,0,0,0,0,-1,1280,1625,0,0
63,-601,0,0,0,0,0,0,0,0,0,-1,1287,1625,0,0
70,-601,0,0,0,0,0,0,0,0,0,-1,1294,1625,0,0
77,-601,0,0,0,0,0,0,0,0,0,-1,1301,1625,0,0
84,-601,0,0,0,0,0,0,0,0,0,-1,1308,1625,0,0
91,-601,0,0,0,0,0,0,0,0,0,-1,1315,1625,0,0
98,-601,0,0,0,0,0,0,0,0,0,-1,1322,1625,0,0
105,-601,0,0,0,0,0,0,0,0,0,-1,1329,1625,0,0
112,-601,0,0,0,0,0,0,0,0,0,-1,1336,1625,0,0
119,-601,0,0,0,0,0,0,0,0,0,-1,1343,1625,0,0
126,-601,0,0,0,0,0,0,0,0,0,-1,1350,1625,0,0
133,-601,0,0,0,0,0,0,0,0,0,-1,1357,1625,0,0
140,-601,0,0,0,0,0,0,0,0,0,-1,1364,1625,0,0
147,-601,0,0,0,0,0,0,0,0,0,-1,1371,1625,0,0
154,-601,0,0,0,0,0,0,0,0,0,-1,1378,1625,0,0
161,-601,0,0,0,0,0,0,0,0,0,-1,1385,1625,0,0
168,-601,0,0,0,0,0,0,0,0,0,-1,1392,1625,0,0
175,-601,0,0,0,0,0,0,0,0,0,-1,1399,1625,0,0
182,-601,0,0,0,0,0,0,0,0,0,-1,1406,1625,0,0
189,-601,0,0,0,0,0,0,0,0,0,-1,1413,1625,0,0
196,-601,0,0,0,0,0,0,0,0,0,-1,1420,1625,0,0
203,-601,0,0,0,0,0,0,0,0,0,-1,1427,1625,0,0
210,-601,0,0,0,0,0,0,0,0,0,-1,1434,1625,0,0
217,-601,0,0,0,0,0,0,0,0,0,-1,1441,1625,0,0
224,-601,0,0,0,0,0,0,0,0,0,-1,1448,1625,0,0
231,-601,-0.0371094,0.525879,0,0,0,0,0,0,0,-1,1455,1625,-0.0371518,-0.525824
238,-601,2.03369,-1.32861,0,0,0,0,0,0,0,-1,1462,1625,2.03364,1.32858
245,-601,2.71375,2.44983,0,0,0,0,0,0,0,-1,1469,1625,2.71371,-2.44979
252,-601,4.66943,2.28381,0,0,0,0,0,0,0,-1,1476,1625,4.66947,-2.28376
259,-601,6.42712,2.61987,0,0,0,0,0,0,0,-1,1483,1625,6.42711,-2.61985
266,-601,6.75317,1.68701,0,0,0,0,0,0,0,-1,1490,1625,6.75323,-1.687
273,-601,5.4314,2.92053,0,0,0,0,0,0,0,-1,1497,1625,5.43144,-2.92051
280,-601,4.64722,1.17786,0,0,0,0,0,0,0,-1,1504,1625,4.64722,-1.1779
287,-601,5.32532,2.6217,0,0,0,0,0,0,0,-1,1511,1625,5.32535,-2.62171
294,-601,5.97693,4.22693,0,0,0,0,0,0,0,-1,1518,1625,5.97697,-4.22694
301,-601,7.28162,9.50024,0,0,0,0,0,0,0,-1,1525,1625,7.28162,-9.50025
308,-601,6.53528,10.3927,0,0,0,0,0,0,0,-1,1532,1625,6.53529,-10.3927
315,-601,4.88013,11.7184,0,0,0,0,0,0,0,-1,1539,1625,4.88015,-11.7184
322,-601,3.38098,12.7864,0,0,0,0,0,0,0,-1,1546,1625,3.38104,-12.7864
329,-601,1.8772,13.8768,0,0,0,0,0,0,0,-1,1553,1625,1.87716,-13.8768
336,-601,4.67847,9.53308,0,0,0,0,0,0,0,-1,1560,1625,4.67848,-9.53309
343,-601,11.1404,3.14575,0,0,0,0,0,0,0,-1,1567,1625,11.1404,-3.1458
350,-601,10.9462,2.37769,0,0,0,0,0,0,0,-1,1574,1625,10.9461,-2.37764
357,-601,10.7518,1.6095,0,0,0,0,0,0,0,-1,1581,1625,10.7518,-1.60948
364,-601,5.33643,9.74426,0,0,0,0,0,0,0,-1,1588,1625,5.33637,-9.74429
371,-601,12.7218,31.0232,0,0,0,0,0,0,0,-1,1595,1625,12.7218,-31.0232
378,-601,12.5404,30.423,0,0,0,0,0,0,0,-1,1602,1625,12.5404,-30.423
385,-601,12.6409,29.6005,0,0,0,0,0,0,0,-1,1609,1625,12.6408,-29.6005
392,-601,12.4329,28.9626,0.00675762,0.017185,-0.00124839,0.0173324,0.00661025,-1.45329,0.0101003,0.0414799,1616,1625,12.4328,-28.9626
399,-601,12.6456,28.5118,0.00471145,0.0143861,-0.000412672,0.0144036,0.00469388,-1.52824,0.00848235,0.0222187,1623,1625,12.6456,-28.5119
406,-601,12.6935,28.1187,0.00291239,0.0120088,0.00011951,0.0120104,0.00291082,1.55766,0.00723456,0.0143475,1630,1625,12.6935,-28.1186
413,-601,12.6744,27.7594,0.00154701,0.0102651,0.000285291,0.0102744,0.00153768,1.53812,0.00639893,0.0128212,1637,1625,12.6744,-27.7594
420,-601,12.6713,27.3757,0.00061938,0.00867875,0.000332676,0.00869246,0.000605671,1.52961,0.005604,0.0109058,1644,1625,12.6713,-27.3757
427,-601,12.6737,27.0256,4.16584e-05,0.00745654,0.00018615,0.00746121,3.69882e-05,1.54571,0.00496186,0.014277,1651,1625,12.6737,-27.0257
434,-601,12.6771,26.6342,-0.000299595,0.00612208,6.06788e-05,0.00612265,-0.000300169,1.56135,0.00418541,0.0147094,1658,1625,12.6771,-26.6342
441,-601,12.6759,26.2292,-0.000387181,0.00521323,-0.000227598,0.00522247,-0.000396415,-1.53025,0.00362102,0.0174711,1665,1625,12.6759,-26.2293
448,-601,12.6825,25.8378,-0.00056684,0.00422407,-0.000479983,0.00427169,-0.000614454,-1.47192,0.00307315,0.0154643,1672,1625,12.6825,-25.8378
455,-601,12.6866,25.4354,-0.000490628,0.00327292,-0.000764927,0.00342245,-0.000640156,-1.37775,0.00252224,0.0134329,1679,1625,12.6866,-25.4354
462,-601,12.6758,25.0424,-0.00038786,0.00262222,-0.000865577,0.00285338,-0.000619014,-1.30983,0.00213866,0.0116311,1686,1625,12.6758,-25.0423
469,-601,12.657,24.6627,-0.000403193,0.00179405,-0.000893218,0.00211134,-0.000720484,-1.22948,0.00169942,0.0113237,1693,1625,12.657,-24.6627
476,-601,12.6393,24.2876,-0.000644199,0.000896864,-0.000761648,0.00120976,-0.0009571,-1.181,0.00125387,0.0137755,1700,1625,12.6392,-24.2876
483,-601,12.6169,23.8838,-0.000964918,-3.45631e-05,-0.000511301,0.000191504,-0.00119098,-1.1545,0.00086492,0.0168734,1707,1625,12.6169,-23.8838
490,-601,12.6025,23.4639,-0.00130929,-0.000832693,-0.000185895,-0.000768761,-0.00137322,-1.23955,0.000794719,0.0126574,1714,1625,12.6025,-23.4638
497,-601,12.5867,23.0554,-0.00202859,-0.00154356,0.000259105,-0.00143118,-0.00214097,1.16157,0.00125926,0.0103603,1721,1625,12.5867,-23.0554
504,-601,12.6095,22.6178,-0.00261717,-0.00215139,0.000688855,-0.00165712,-0.00311144,0.948409,0.00179766,0.0195755,1728,1625,12.6095,-22.6178
511,-601,12.536,22.2559,-0.00315986,-0.00288746,0.00111945,-0.00189595,-0.00415137,0.845936,0.00239979,0.0335275,1735,1625,12.5361,-22.2559
518,-601,12.4865,21.7933,-0.00353862,-0.00335005,0.00140963,-0.00203156,-0.00485711,0.818792,0.00281672,0.0438482,1742,1625,12.4864,-21.7934
525,-601,12.4825,21.3685,0,0,0,0,0,0,0,-1,1749,1625,12.4826,-21.3685
532,-601,13.3634,19.6084,0,0,0,0,0,0,0,-1,1756,1625,13.3634,-19.6085
539,-601,7.77112,11.4299,0,0,0,0,0,0,0,-1,1763,1625,7.77116,-11.4299
546,-601,6.56873,3.62354,0,0,0,0,0,0,0,-1,1770,1625,6.56867,-3.62352
553,-601,7.03015,4.25049,0,0,0,0,0,0,0,-1,1777,1625,7.03011,-4.25048
560,-601,7.50745,4.83374,0,0,0,0,0,0,0,-1,1784,1625,7.50744,-4.83376
567,-601,7.82043,3.83301,0,0,0,0,0,0,0,-1,1791,1625,7.82041,-3.83303
574,-601,0,0,0,0,0,0,0,0,0,-1,1798,1625,0,0
581,-601,0,0,0,0,0,0,0,0,0,-1,1805,1625,0,0
588,-601,0,0,0,0,0,0,0,0,0,-1,1812,1625,0,0
595,-601,0,0,0,0,0,0,0,0,0,-1,1819,1625,0,0
602,-601,0,0,0,0,0,0,0,0,0,-1,1826,1625,0,0
609,-601,0,0,0,0,0,0,0,0,0,-1,1833,1625,0,0
616,-601,0,0,0,0,0,0,0,0,0,-1,1840,1625,0,0
623,-601,0,0,0,0,0,0,0,0,0,-1,1847,1625,0,0
630,-601,0,0,0,0,0,0,0,0,0,-1,1854,1625,0,0
637,-601,0,0,0,0,0,0,0,0,0,-1,1861,1625,0,0
644,-601,0,0,0,0,0,0,0,0,0,-1,1868,1625,0,0
651,-601,0,0,0,0,0,0,0,0,0,-1,1875,1625,0,0
658,-601,0,0,0,0,0,0,0,0,0,-1,1882,1625,0,0
665,-601,0,0,0,0,0,0,0,0,0,-1,1889,1625,0,0
672,-601,0,0,0,0,0,0,0,0,0,-1,1896,1625,0,0
679,-601,0,0,0,0,0,0,0,0,0,-1,1903,1625,0,0
686,-601,0,0,0,0,0,0,0,0,0,-1,1910,1625,0,0
693,-601,0,0,0,0,0,0,0,0,0,-1,1917,1625,0,0
700,-601,0,0,0,0,0,0,0,0,0,-1,1924,1625,0,0
707,-601,0,0,0,0,0,0,0,0,0,-1,1931,1625,0,0
714,-601,0,0,0,0,0,0,0,0,0,-1,1938,1625,0,0
721,-601,0,0,0,0,0,0,0,0,0,-1,1945,1625,0,0
728,-601,0,0,0,0,0,0,0,0,0,-1,1952,1625,0,0
735,-601,0,0,0,0,0,0,0,0,0,-1,1959,1625,0,0
742,-601,0,0,0,0,0,0,0,0,0,-1,1966,1625,0,0
749,-601,0,0,0,0,0,0,0,0,0,-1,1973,1625,0,0
756,-601,0,0,0,0,0,0,0,0,0,-1,1980,1625,0,0
763,-601,0,0,0,0,0,0,0,0,0,-1,1987,1625,0,0
770,-601,0,0,0,0,0,0,0,0,0,-1,1994,1625,0,0
777,-601,0,0,0,0,0,0,0,0,0,-1,2001,1625,0,0
784,-601,0,0,0,0,0,0,0,0,0,-1,2008,1625,0,0
791,-601,0,0,0,0,0,0,0,0,0,-1,2015,1625,0,0
798,-601,0,0,0,0,0,0,0,0,0,-1,2022,1625,0,0
805,-601,0,0,0,0,0,0,0,0,0,-1,2029,1625,0,0
812,-601,0,0,0,0,0,0,0,0,0,-1,2036,1625,0,0
-700,-608,0,0,0,0,0,0,0,0,0,-1,524,1632,0,0
-693,-608,0,0,0,0,0,0,0,0,0,-1,531,1632,0,0
-686,-608,0,0,0,0,0,0,0,0,0,-1,538,1632,0,0
-679,-608,0,0,0,0,0,0,0,0,0,-1,545,1632,0,0
-672,-608,0,0,0,0,0,0,0,0,0,-1,552,1632,0,0
-665,-608,0,0,0,0,0,0,0,0,0,-1,559,1632,0,0
-658,-608,0,0,0,0,0,0,0,0,0,-1,566,1632,0,0
-651,-608,0,0,0,0,0,0,0,0,0,-1,573,1632,0,0
-644,-608,0,0,0,0,0,0,0,0,0,-1,580,1632,0,0
-637,-608,0,0,0,0,0,0,0,0,0,-1,587,1632,0,0
-630,-608,0,0,0,0,0,0,0,0,0,-1,594,1632,0,0
-623,-608,0,0,0,0,0,0,0,0,0,-1,601,1632,0,0
-616,-608,0,0,0,0,0,0,0,0,0,-1,608,1632,0,0
-609,-608,0,0,0,0,0,0,0,0,0,-1,615,1632,0,0
-602,-608,0,0,0,0,0,0,0,0,0,-1,622,1632,0,0
-595,-608,0,0,0,0,0,0,0,0,0,-1,629,1632,0,0
-588,-608,0,0,0,0,0,0,0,0,0,-1,636,1632,0,0
-581,-608,0,0,0,0,0,0,0,0,0,-1,643,1632,0,0
-574,-608,0,0,0,0,0,0,0,0,0,-1,650,1632,0,0
-567,-608,0,0,0,0,0,0,0,0,0,-1,657,1632,0,0
-560,-608,0,0,0,0,0,0,0,0,0,-1,664,1632,0,0
-553,-608,0,0,0,0,0,0,0,0,0,-1,671,1632,0,0
-546,-608,0,0,0,0,0,0,0,0,0,-1,678,1632,0,0
-539,-608,0,0,0,0,0,0,0,0,0,-1,685,1632,0,0
-532,-608,0,0,0,0,0,0,0,0,0,-1,692,1632,0,0
-525,-608,0,0,0,0,0,0,0,0,0,-1,699,1632,0,0
-518,-608,0,0,0,0,0,0,0,0,0,-1,706,1632,0,0
-511,-608,0,0,0,0,0,0,0,0,0,-1,713,1632,0,0
-504,-608,0,0,0,0,0,0,0,0,0,-1,720,1632,0,0
-497,-608,0,0,0,0,0,0,0,0,0,-1,727,1632,0,0
-490,-608,0,0,0,0,0,0,0,0,0,-1,734,1632,0,0
-483,-608,0,0,0,0,0,0,0,0,0,-1,741,1632,0,0
-476,-608,0,0,0,0,0,0,0,0,0,-1,748,1632,0,0
-469,-608,0,0,0,0,0,0,0,0,0,-1,755,1632,0,0
-462,-608,0,0,0,0,0,0,0,0,0,-1,762,1632,0,0
-455,-608,0,0,0,0,0,0,0,0,0,-1,769,1632,0,0
-448,-608,0,0,0,0,0,0,0,0,0,-1,776,1632,0,0
-441,-608,-7.34601,2.78052,0,0,0,0,0,0,0,-1,783,1632,-7.346,-2.78056
-434,-608,-6.34558,3.27405,0,0,0,0,0,0,0,-1,790,1632,-6.34555,-3.27406
-427,-608,-7.74335,4.17688,0,0,0,0,0,0,0,-1,797,1632,-7.74334,-4.17693
-420,-608,-6.82794,4.34839,0,0,0,0,0,0,0,-1,804,1632,-6.82794,-4.34838
-413,-608,-5.41919,5.66138,0,0,0,0,0,0,0,-1,811,1632,-5.41917,-5.66133
-406,-608,-4.79681,4.98999,0,0,0,0,0,0,0,-1,818,1632,-4.79684,-4.98997
-399,-608,-2.60645,6.34167,0,0,0,0,0,0,0,-1,825,1632,-2.60643,-6.34169
-392,-608,2.08356,15.437,0,0,0,0,0,0,0,-1,832,1632,2.08354,-15.437
-385,-608,3.0108,20.571,0,0,0,0,0,0,0,-1,839,1632,3.0108,-20.571
-378,-608,2.81189,21.3757,0,0,0,0,0,0,0,-1,846,1632,2.81189,-21.3757
-371,-608,2.85138,21.5414,0,0,0,0,0,0,0,-1,853,1632,2.85137,-21.5414
-364,-608,2.75751,22.0164,-0.0020978,-0.00406887,-0.000950768,-0.00171394,-0.00445273,-0.383722,0.00259338,0.0301649,860,1632,2.75749,-22.0163
-357,-608,2.68085,22.5031,-0.00147236,-0.00379946,-0.0007577,-0.0012474,-0.00402442,-0.288608,0.00237879,0.0201097,867,1632,2.68088,-22.5031
-350,-608,2.6936,23.0076,-0.000956179,-0.00326569,-0.000525438,-0.000842256,-0.00337961,-0.213511,0.00203139,0.0184083,874,1632,2.69361,-23.0075
-343,-608,2.66595,23.4948,-0.000465467,-0.00261555,-0.00024766,-0.000437309,-0.00264371,-0.113211,0.0016363,0.023366,881,1632,2.66593,-23.4948
-336,-608,2.64563,23.9357,-3.54963e-05,-0.00192581,-0.000100718,-3.01452e-05,-0.00193117,-0.0530808,0.00127751,0.0159822,888,1632,2.64562,-23.9356
-329,-608,2.63593,24.365,0.000413077,-0.00125439,6.7813e-06,0.000413105,-0.00125442,0.00406673,0.00100276,0.0147112,895,1632,2.6359,-24.365
-322,-608,2.63214,24.752,0.000706367,-0.000404463,0.000153159,0.000727097,-0.000425193,0.134534,0.000672843,0.0152322,902,1632,2.63214,-24.7519
-315,-608,2.65076,25.1204,0.00104309,0.000271772,0.000319393,0.00115818,0.000156687,0.345843,0.00072555,0.0139369,909,1632,2.65074,-25.1204
-308,-608,2.61719,25.562,0.00152216,0.000970762,0.00047601,0.00179655,0.000696375,0.522909,0.00104594,0.0141857,916,1632,2.61718,-25.562
-301,-608,2.5968,25.9825,0.00217144,0.0013303,0.000672549,0.00254409,0.00095765,0.505979,0.00148371,0.0111727,923,1632,2.59679,-25.9826
-294,-608,2.60413,26.3472,0.00295555,0.00127753,0.000786453,0.00326651,0.000966562,0.376538,0.00193759,0.0113966,930,1632,2.60414,-26.3472
-287,-608,2.5816,26.7456,0.00375707,0.00149048,0.000942812,0.00409797,0.00114958,0.346952,0.00244076,0.0108315,937,1632,2.5816,-26.7456
-280,-608,2.59015,27.1389,0.00466129,0.00152658,0.00108456,0.00499994,0.00118793,0.302657,0.00301633,0.00863716,944,1632,2.59016,-27.139
-273,-608,2.58307,27.5466,0.00560353,0.00122142,0.00114767,0.00588591,0.000939041,0.241252,0.0036514,0.00975928,951,1632,2.58308,-27.5467
-266,-608,2.60181,27.9725,0.00660769,0.000838742,0.00117337,0.00683721,0.000609217,0.193172,0.00436925,0.0104167,958,1632,2.6018,-27.9725
-259,-608,2.65393,28.3435,0.00761497,0.000348817,0.00106104,0.00776674,0.000197048,0.142074,0.00511341,0.0134603,965,1632,2.6539,-28.3435
-252,-608,2.73608,28.6797,0.00856591,-0.000358362,0.000911245,0.008658,-0.000450457,0.100724,0.00592786,0.026721,972,1632,2.73608,-28.6797
-245,-608,2.88361,29.0885,0.0094047,-0.000982727,0.000893722,0.00948103,-0.00105906,0.0852043,0.00670166,0.0367317,979,1632,2.88362,-29.0885
-238,-608,3.06342,29.5549,0,0,0,0,0,0,0,-1,986,1632,3.06339,-29.5549
-231,-608,3.26025,27.5262,0,0,0,0,0,0,0,-1,993,1632,3.26023,-27.5263
-224,-608,2.51642,15.3452,0,0,0,0,0,0,0,-1,1000,1632,2.5164,-15.3452
-217,-608,1.04419,12.8451,0,0,0,0,0,0,0,-1,1007,1632,1.04418,-12.8451
-210,-608,2.75903,15.9414,0,0,0,0,0,0,0,-1,1014,1632,2.75903,-15.9414
-203,-608,2.76776,16.217,0,0,0,0,0,0,0,-1,1021,1632,2.76773,-16.217
-196,-608,1.53955,18.6058,0,0,0,0,0,0,0,-1,1028,1632,1.53959,-18.6058
-189,-608,1.37634,19.119,0,0,0,0,0,0,0,-1,1035,1632,1.37634,-19.1191
-182,-608,2.89221,16.7092,0,0,0,0,0,0,0,-1,1042,1632,2.89224,-16.7093
-175,-608,0.219116,15.1643,0,0,0,0,0,0,0,-1,1049,1632,0.219173,-15.1644
-168,-608,0.000366211,9.48645,0,0,0,0,0,0,0,-1,1056,1632,0.000317105,-9.48648
-161,-608,2.27832,15.4423,0,0,0,0,0,0,0,-1,1063,1632,2.27826,-15.4423
-154,-608,1.3999,16.4037,0,0,0,0,0,0,0,-1,1070,1632,1.39987,-16.4037
-147,-608,2.4386,9.50317,0,0,0,0,0,0,0,-1,1077,1632,2.43858,-9.50313
-140,-608,2.60132,10.8401,0,0,0,0,0,0,0,-1,1084,1632,2.60134,-10.8401
-133,-608,3.2312,12.4738,0,0,0,0,0,0,0,-1,1091,1632,3.23116,-12.4738
-126,-608,3.76465,13.9644,0,0,0,0,0,0,0,-1,1098,1632,3.76466,-13.9644
-119,-608,4.28906,15.4196,0,0,0,0,0,0,0,-1,1105,1632,4.28911,-15.4195
-112,-608,0.745117,10.5587,0,0,0,0,0,0,0,-1,1112,1632,0.745145,-10.5587
-105,-608,-0.252319,1.42419,0,0,0,0,0,0,0,-1,1119,1632,-0.252331,-1.42418
-98,-608,-2.8595,3.0863,0,0,0,0,0,0,0,-1,1126,1632,-2.85948,-3.08625
-91,-608,-3.71948,1.73608,0,0,0,0,0,0,0,-1,1133,1632,-3.7195,-1.73607
-84,-608,0,0,0,0,0,0,0,0,0,-1,1140,1632,0,0
-77,-608,0,0,0,0,0,0,0,0,0,-1,1147,1632,0,0
-70,-608,0,0,0,0,0,0,0,0,0,-1,1154,1632,0,0
-63,-608,0,0,0,0,0,0,0,0,0,-1,1161,1632,0,0
-56,-608,0,0,0,0,0,0,0,0,0,-1,1168,1632,0,0
-49,-608,0,0,0,0,0,0,0,0,0,-1,1175,1632,0,0
-42,-608,0,0,0,0,0,0,0,0,0,-1,1182,1632,0,0
-35,-608,0,0,0,0,0,0,0,0,0,-1,1189,1632,0,0
-28,-608,0,0,0,0,0,0,0,0,0,-1,1196,1632,0,0
-21,-608,0,0,0,0,0,0,0,0,0,-1,1203,1632,0,0
-14,-608,0,0,0,0,0,0,0,0,0,-1,1210,1632,0,0
-7,-608,0,0,0,0,0,0,0,0,0,-1,1217,1632,0,0
0,-608,0,0,0,0,0,0,0,0,0,-1,1224,1632,0,0
7,-608,0,0,0,0,0,0,0,0,0,-1,1231,1632,0,0
14,-608,0,0,0,0,0,0,0,0,0,-1,1238,1632,0,0
21,-608,0,0,0,0,0,0,0,0,0,-1,1245,1632,0,0
28,-608,0,0,0,0,0,0,0,0,0,-1,1252,1632,0,0
35,-608,0,0,0,0,0,0,0,0,0,-1,1259,1632,0,0
42,-608,0,0,0,0,0,0,0,0,0,-1,1266,1632,0,0
49,-608,0,0,0,0,0,0,0,0,0,-1,1273,1632,0,0
56,-608,0,0,0,0,0,0,0,0,0,-1,1280,1632,0,0
63,-608,0,0,0,0,0,0,0,0,0,-1,1287,1632,0,0
70,-608,0,0,0,0,0,0,0,0,0,-1,1294,1632,0,0
77,-608,0,0,0,0,0,0,0,0,0,-1,1301,1632,0,0
84,-608,0,0,0,0,0,0,0,0,0,-1,1308,1632,0,0
91,-608,0,0,0,0,0,0,0,0,0,-1,1315,1632,0,0
98,-608,0,0,0,0,0,0,0,0,0,-1,1322,1632,0,0
105,-608,0,0,0,0,0,0,0,0,0,-1,1329,1632,0,0
112,-608,0,0,0,0,0,0,0,0,0,-1,1336,1632,0,0
119,-608,0,0,0,0,0,0,0,0,0,-1,1343,1632,0,0
126,-608,0,0,0,0,0,0,0,0,0,-1,1350,1632,0,0
133,-608,0,0,0,0,0,0,0,0,0,-1,1357,1632,0,0
140,-608,0,0,0,0,0,0,0,0,0,-1,1364,1632,0,0
147,-608,0,0,0,0,0,0,0,0,0,-1,1371,1632,0,0
154,-608,0,0,0,0,0,0,0,0,0,-1,1378,1632,0,0
161,-608,0,0,0,0,0,0,0,0,0,-1,1385,1632,0,0
168,-608,0,0,0,0,0,0,0,0,0,-1,1392,1632,0,0
175,-608,0,0,0,0,0,0,0,0,0,-1,1399,1632,0,0
182,-608,0,0,0,0,0,0,0,0,0,-1,1406,1632,0,0
189,-608,0,0,0,0,0,0,0,0,0,-1,1413,1632,0,0
196,-608,0,0,0,0,0,0,0,0,0,-1,1420,1632,0,0
203,-608,0,0,0,0,0,0,0,0,0,-1,1427,1632,0,0
210,-608,5.7157,-0.333008,0,0,0,0,0,0,0,-1,1434,1632,5.71566,0.333004
217,-608,4.49402,-0.831787,0,0,0,0,0,0,0,-1,1441,1632,4.49396,0.831738
224,-608,4.18018,-1.11792,0,0,0,0,0,0,0,-1,1448,1632,4.1802,1.11796
231,-608,0.361816,0.825195,0,0,0,0,0,0,0,-1,1455,1632,0.36185,-0.825226
238,-608,2.85388,-0.28833,0,0,0,0,0,0,0,-1,1462,1632,2.85391,0.288282
245,-608,3.87537,4.02173,0,0,0,0,0,0,0,-1,1469,1632,3.87538,-4.02168
252,-608,5.66956,3.5282,0,0,0,0,0,0,0,-1,1476,1632,5.6696,-3.52815
259,-608,7.47437,3.07178,0,0,0,0,0,0,0,-1,1483,1632,7.4744,-3.07172
266,-608,9.46936,2.34766,0,0,0,0,0,0,0,-1,1490,1632,9.46932,-2.34764
273,-608,6.03003,3.34241,0,0,0,0,0,0,0,-1,1497,1632,6.02997,-3.34245
280,-608,5.72461,2.0769,0,0,0,0,0,0,0,-1,1504,1632,5.72457,-2.07688
287,-608,6.20581,3.59338,0,0,0,0,0,0,0,-1,1511,1632,6.20585,-3.59341
294,-608,6.94922,5.17151,0,0,0,0,0,0,0,-1,1518,1632,6.94925,-5.17151
301,-608,7.60083,6.68018,0,0,0,0,0,0,0,-1,1525,1632,7.60086,-6.68013
308,-608,7.64746,9.93848,0,0,0,0,0,0,0,-1,1532,1632,7.64745,-9.93842
315,-608,5.30688,11.2054,0,0,0,0,0,0,0,-1,1539,1632,5.30694,-11.2054
322,-608,5.32617,13.7581,0,0,0,0,0,0,0,-1,1546,1632,5.32613,-13.758
329,-608,7.12231,13.9607,0,0,0,0,0,0,0,-1,1553,1632,7.12231,-13.9607
336,-608,5.48633,7.82446,0,0,0,0,0,0,0,-1,1560,1632,5.48634,-7.82446
343,-608,5.47192,5.61047,0,0,0,0,0,0,0,-1,1567,1632,5.47192,-5.61045
350,-608,11.6957,1.71387,0,0,0,0,0,0,0,-1,1574,1632,11.6957,-1.71388
357,-608,3.77002,5.10046,0,0,0,0,0,0,0,-1,1581,1632,3.77002,-5.10043
364,-608,12.0791,31.9941,0,0,0,0,0,0,0,-1,1588,1632,12.0791,-31.9942
371,-608,12.2705,30.5001,0,0,0,0,0,0,0,-1,1595,1632,12.2705,-30.5002
378,-608,12.1989,30.0006,0.00899229,0.0186639,-0.00302491,0.019532,0.00812414,-1.29131,0.0113298,0.041687,1602,1632,12.1989,-30.0006
385,-608,12.2697,29.3459,0.00730648,0.0159732,-0.00221288,0.0165056,0.00677416,-1.33473,0.00958034,0.0379899,1609,1632,12.2696,-29.3459
392,-608,12.2545,28.8486,0.00571346,0.0135679,-0.00143685,0.0138225,0.00545886,-1.39543,0.00803895,0.0226756,1616,1632,12.2545,-28.8486
399,-608,12.2937,28.4401,0.00424333,0.0113081,-0.000771417,0.0113913,0.00416007,-1.46329,0.00665598,0.0116919,1623,1632,12.2936,-28.4401
406,-608,12.2986,28.0686,0.00287648,0.00931957,-0.000278948,0.00933162,0.00286443,-1.52761,0.00551984,0.00979646,1630,1632,12.2986,-28.0686
413,-608,12.2845,27.7201,0.00179941,0.00773637,-4.66591e-05,0.00773673,0.00179905,-1.56294,0.00467499,0.0103884,1637,1632,12.2846,-27.7201
420,-608,12.2672,27.377,0.00100153,0.00622407,0.000120358,0.00622685,0.000998753,1.54777,0.00386161,0.0178267,1644,1632,12.2673,-27.3769
427,-608,12.2875,26.9991,0.000460213,0.00505101,8.14967e-05,0.00505245,0.000458767,1.55305,0.00322627,0.0186238,1651,1632,12.2875,-26.9992
434,-608,12.2788,26.6018,7.21187e-05,0.00391198,1.76787e-05,0.00391206,7.20375e-05,1.56619,0.00258436,0.0147383,1658,1632,12.2788,-26.6018
441,-608,12.2845,26.2208,-8.48735e-05,0.00310938,-0.00018662,0.00312025,-9.57395e-05,-1.51264,0.0021128,0.0149018,1665,1632,12.2846,-26.2209
448,-608,12.2977,25.8575,-0.000304642,0.00225884,-0.000363302,0.00230934,-0.000355135,-1.4327,0.00167057,0.0172182,1672,1632,12.2978,-25.8575
455,-608,12.3163,25.4528,-0.000340791,0.00148617,-0.000587235,0.00165864,-0.000513262,-1.28513,0.00131078,0.0123013,1679,1632,12.3163,-25.4528
462,-608,12.2894,25.0597,-0.000415846,0.000914186,-0.000642251,0.00117369,-0.000675348,-1.1868,0.00108039,0.0112926,1686,1632,12.2894,-25.0597
469,-608,12.2543,24.6709,-0.000572284,0.000260568,-0.000657502,0.000622422,-0.000934138,-1.06769,0.000904667,0.00887224,1693,1632,12.2542,-24.6709
476,-608,12.2273,24.2958,-0.000933203,-0.000405133,-0.000533922,-7.35277e-05,-0.00126481,-1.01503,0.000819796,0.00907054,1700,1632,12.2273,-24.2957
483,-608,12.2234,23.8982,-0.00144978,-0.00106153,-0.000256207,-0.000934208,-0.0015771,-1.1096,0.000915701,0.00864579,1707,1632,12.2234,-23.8982
490,-608,12.2207,23.4862,-0.00195442,-0.00160599,2.75379e-05,-0.00160383,-0.00195659,1.49241,0.00120415,0.00931203,1714,1632,12.2207,-23.4862
497,-608,12.2251,23.0616,-0.00283707,-0.00202035,0.000479283,-0.00179905,-0.00305837,1.13823,0.00177489,0.0198087,1721,1632,12.2251,-23.0617
504,-608,12.1777,22.699,-0.00358333,-0.00240211,0.000938747,-0.00188364,-0.00410181,1.06619,0.0023708,0.0466395,1728,1632,12.1777,-22.6989
511,-608,11.9274,22.3707,-0.00430735,-0.0029702,0.00136972,-0.00211459,-0.00516295,1.01245,0.00299704,0.0489613,1735,1632,11.9274,-22.3708
518,-608,11.7296,21.9918,0,0,0,0,0,0,0,-1,1742,1632,11.7296,-21.9919
525,-608,11.2109,16.2579,0,0,0,0,0,0,0,-1,1749,1632,11.2109,-16.2579
532,-608,8.27917,11.6693,0,0,0,0,0,0,0,-1,1756,1632,8.27919,-11.6694
539,-608,9.40796,1.43457,0,0,0,0,0,0,0,-1,1763,1632,9.40801,-1.43463
546,-608,9.94031,2.1134,0,0,0,0,0,0,0,-1,1770,1632,9.94031,-2.11346
553,-608,10.363,2.81335,0,0,0,0,0,0,0,-1,1777,1632,10.3631,-2.81333
560,-608,9.23999,4.5636,0,0,0,0,0,0,0,-1,1784,1632,9.24,-4.56354
567,-608,0,0,0,0,0,0,0,0,0,-1,1791,1632,0,0
574,-608,0,0,0,0,0,0,0,0,0,-1,1798,1632,0,0
581,-608,0,0,0,0,0,0,0,0,0,-1,1805,1632,0,0
588,-608,0,0,0,0,0,0,0,0,0,-1,1812,1632,0,0
595,-608,0,0,0,0,0,0,0,0,0,-1,1819,1632,0,0
602,-608,0,0,0,0,0,0,0,0,0,-1,1826,1632,0,0
609,-608,0,0,0,0,0,0,0,0,0,-1,1833,1632,0,0
616,-608,0,0,0,0,0,0,0,0,0,-1,1840,1632,0,0
623,-608,0,0,0,0,0,0,0,0,0,-1,1847,1632,0,0
630,-608,0,0,0,0,0,0,0,0,0,-1,1854,1632,0,0
637,-608,0,0,0,0,0,0,0,0,0,-1,1861,1632,0,0
644,-608,0,0,0,0,0,0,0,0,0,-1,1868,1632,0,0
651,-608,0,0,0,0,0,0,0,0,0,-1,1875,1632,0,0
658,-608,0,0,0,0,0,0,0,0,0,-1,1882,1632,0,0
665,-608,0,0,0,0,0,0,0,0,0,-1,1889,1632,0,0
672,-608,0,0,0,0,0,0,0,0,0,-1,1896,1632,0,0
679,-608,0,0,0,0,0,0,0,0,0,-1,1903,1632,0,0
686,-608,0,0,0,0,0,0,0,0,0,-1,1910,1632,0,0
693,-608,0,0,0,0,0,0,0,0,0,-1,1917,1632,0,0
700,-608,0,0,0,0,0,0,0,0,0,-1,1924,1632,0,0
707,-608,0,0,0,0,0,0,0,0,0,-1,1931,1632,0,0
714,-608,0,0,0,0,0,0,0,0,0,-1,1938,1632,0,0
721,-608,0,0,0,0,0,0,0,0,0,-1,1945,1632,0,0
728,-608,0,0,0,0,0,0,0,0,0,-1,1952,1632,0,0
735,-608,0,0,0,0,0,0,0,0,0,-1,1959,1632,0,0
742,-608,0,0,0,0,0,0,0,0,0,-1,1966,1632,0,0
749,-608,0,0,0,0,0,0,0,0,0,-1,1973,1632,0,0
756,-608,0,0,0,0,0,0,0,0,0,-1,1980,1632,0,0
763,-608,0,0,0,0,0,0,0,0,0,-1,1987,1632,0,0
770,-608,0,0,0,0,0,0,0,0,0,-1,1994,1632,0,0
777,-608,0,0,0,0,0,0,0,0,0,-1,2001,1632,0,0
784,-608,0,0,0,0,0,0,0,0,0,-1,2008,1632,0,0
791,-608,0,0,0,0,0,0,0,0,0,-1,2015,1632,0,0
798,-608,0,0,0,0,0,0,0,0,0,-1,2022,1632,0,0
805,-608,0,0,0,0,0,0,0,0,0,-1,2029,1632,0,0
812,-608,0,0,0,0,0,0,0,0,0,-1,2036,1632,0,0
-700,-615,0,0,0,0,0,0,0,0,0,-1,524,1639,0,0
-693,-615,0,0,0,0,0,0,0,0,0,-1,531,1639,0,0
-686,-615,0,0,0,0,0,0,0,0,0,-1,538,1639,0,0
-679,-615,0,0,0,0,0,0,0,0,0,-1,545,1639,0,0
-672,-615,0,0,0,0,0,0,0,0,0,-1,552,1639,0,0
-665,-615,0,0,0,0,0,0,0,0,0,-1,559,1639,0,0
-658,-615,0,0,0,0,0,0,0,0,0,-1,566,1639,0,0
-651,-615,0,0,0,0,0,0,0,0,0,-1,573,1639,0,0
-644,-615,0,0,0,0,0,0,0,0,0,-1,580,1639,0,0
-637,-615,0,0,0,0,0,0,0,0,0,-1,587,1639,0,0
-630,-615,0,0,0,0,0,0,0,0,0,-1,594,1639,0,0
-623,-615,0,0,0,0,0,0,0,0,0,-1,601,1639,0,0
-616,-615,0,0,0,0,0,0,0,0,0,-1,608,1639,0,0
-609,-615,0,0,0,0,0,0,0,0,0,-1,615,1639,0,0
-602,-615,0,0,0,0,0,0,0,0,0,-1,622,1639,0,0
-595,-615,0,0,0,0,0,0,0,0,0,-1,629,1639,0,0
-588,-615,0,0,0,0,0,0,0,0,0,-1,636,1639,0,0
-581,-615,0,0,0,0,0,0,0,0,0,-1,643,1639,0,0
-574,-615,0,0,0,0,0,0,0,0,0,-1,650,1639,0,0
-567,-615,0,0,0,0,0,0,0,0,0,-1,657,1639,0,0
-560,-615,0,0,0,0,0,0,0,0,0,-1,664,1639,0,0
-553,-615,0,0,0,0,0,0,0,0,0,-1,671,1639,0,0
-546,-615,0,0,0,0,0,0,0,0,0,-1,678,1639,0,0
-539,-615,0,0,0,0,0,0,0,0,0,-1,685,1639,0,0
-532,-615,0,0,0,0,0,0,0,0,0,-1,692,1639,0,0
-525,-615,0,0,0,0,0,0,0,0,0,-1,699,1639,0,0
-518,-615,0,0,0,0,0,0,0,0,0,-1,706,1639,0,0
-511,-615,0,0,0,0,0,0,0,0,0,-1,713,1639,0,0
-504,-615,0,0,0,0,0,0,0,0,0,-1,720,1639,0,0
-497,-615,0,0,0,0,0,0,0,0,0,-1,727,1639,0,0
-490,-615,0,0,0,0,0,0,0,0,0,-1,734,1639,0,0
-483,-615,0,0,0,0,0,0,0,0,0,-1,741,1639,0,0
-476,-615,0,0,0,0,0,0,0,0,0,-1,748,1639,0,0
-469,-615,0,0,0,0,0,0,0,0,0,-1,755,1639,0,0
-462,-615,0,0,0,0,0,0,0,0,0,-1,762,1639,0,0
-455,-615,0,0,0,0,0,0,0,0,0,-1,769,1639,0,0
-448,-615,0,0,0,0,0,0,0,0,0,-1,776,1639,0,0
-441,-615,0,0,0,0,0,0,0,0,0,-1,783,1639,0,0
-434,-615,-7.64508,2.98596,0,0,0,0,0,0,0,-1,790,1639,-7.64505,-2.98594
-427,-615,-9.0011,2.89404,0,0,0,0,0,0,0,-1,797,1639,-9.00107,-2.89399
-420,-615,-8.07568,3.0752,0,0,0,0,0,0,0,-1,804,1639,-8.07569,-3.07514
-413,-615,-7.09149,3.396,0,0,0,0,0,0,0,-1,811,1639,-7.09147,-3.39599
-406,-615,-6.21368,3.7312,0,0,0,0,0,0,0,-1,818,1639,-6.21366,-3.73114
-399,-615,-4.84875,3.91907,0,0,0,0,0,0,0,-1,825,1639,-4.84877,-3.91901
-392,-615,1.7395,13.3127,0,0,0,0,0,0,0,-1,832,1639,1.73953,-13.3128
-385,-615,3.42297,14.9401,0,0,0,0,0,0,0,-1,839,1639,3.42296,-14.94
-378,-615,2.54102,17.2609,0,0,0,0,0,0,0,-1,846,1639,2.54099,-17.2608
-371,-615,3.16669,21.8352,0,0,0,0,0,0,0,-1,853,1639,3.16671,-21.8351
-364,-615,3.07513,22.368,-0.00207764,-0.00536817,-0.00106577,-0.00176261,-0.0056832,-0.287407,0.00335912,0.0425493,860,1639,3.07511,-22.368
-357,-615,3.26367,22.7334,-0.00159298,-0.00503273,-0.00100821,-0.00131925,-0.00530646,-0.265109,0.00319015,0.0432304,867,1639,3.26369,-22.7333
-350,-615,3.11804,23.0422,-0.0012509,-0.00439083,-0.000829056,-0.00104544,-0.00459629,-0.242926,0.00278198,0.0328383,874,1639,3.11806,-23.0423
-343,-615,3.06665,23.4646,-0.000932491,-0.0036239,-0.000659272,-0.000779676,-0.00377672,-0.227771,0.00230235,0.0182053,881,1639,3.06665,-23.4646
-336,-615,3.06567,23.9083,-0.000663665,-0.00281515,-0.000600492,-0.000507412,-0.0029714,-0.254563,0.00183533,0.0101714,888,1639,3.06567,-23.9083
-329,-615,3.0495,24.3344,-0.000336729,-0.00211746,-0.000582091,-0.000163336,-0.00229085,-0.28951,0.0014758,0.0105495,895,1639,3.04948,-24.3343
-322,-615,3.05273,24.7544,-0.000148538,-0.00124298,-0.000492774,4.0636e-05,-0.00143215,-0.366548,0.000968596,0.0116213,902,1639,3.05273,-24.7543
-315,-615,3.04626,25.1705,7.38127e-05,-0.000570817,-0.000352013,0.000228782,-0.000725786,-0.414706,0.000575482,0.0138398,909,1639,3.04626,-25.1705
-308,-615,2.9986,25.5968,0.000417546,0.00015955,-0.000209044,0.00053419,4.29063e-05,-0.508954,0.000342721,0.0204735,916,1639,2.99861,-25.5968
-301,-615,2.99902,25.9812,0.000979814,0.000572812,1.48538e-05,0.000980355,0.000572271,0.036431,0.000568648,0.0129736,923,1639,2.99901,-25.9812
-294,-615,3.00433,26.3702,0.00170217,0.000624511,0.0001762,0.00173025,0.000596433,0.158022,0.00101489,0.0106638,930,1639,3.00433,-26.3702
-287,-615,2.98846,26.7708,0.0024313,0.000890294,0.000376099,0.00251819,0.000803402,0.22705,0.00148528,0.00805378,937,1639,2.98844,-26.7707
-280,-615,2.99005,27.1554,0.00324073,0.00100198,0.000590203,0.0033868,0.000855916,0.242609,0.00203352,0.00890581,944,1639,2.99006,-27.1554
-273,-615,2.98444,27.5494,0.00411061,0.000882824,0.000757032,0.00427934,0.000714092,0.2193,0.00264716,0.0103552,951,1639,2.98443,-27.5495
-266,-615,2.95856,27.939,0.00499373,0.000727234,0.00087238,0.00516522,0.00055575,0.194096,0.00327399,0.0106361,958,1639,2.95857,-27.939
-259,-615,2.97131,28.3136,0.00588578,0.000537352,0.000907068,0.00603542,0.000387705,0.163506,0.00390081,0.0115485,965,1639,2.97131,-28.3135
-252,-615,3.00232,28.7075,0.00670151,0.000237836,0.000877912,0.00681863,0.000120718,0.132622,0.00450605,0.0152325,972,1639,3.00229,-28.7076
-245,-615,3.09271,29.1626,0.00738939,1.96412e-05,0.000918561,0.00750215,-9.31225e-05,0.12215,0.00503276,0.0226112,979,1639,3.09271,-29.1626
-238,-615,3.10278,29.5745,0.00810118,-0.000234976,0.000922532,0.00820205,-0.000335848,0.108911,0.00558335,0.0326049,986,1639,3.1028,-29.5745
-231,-615,3.10614,30.0818,0,0,0,0,0,0,0,-1,993,1639,3.10611,-30.0818
-224,-615,3.30988,30.0768,0,0,0,0,0,0,0,-1,1000,1639,3.30988,-30.0768
-217,-615,3.99097,27.3737,0,0,0,0,0,0,0,-1,1007,1639,3.99096,-27.3736
-210,-615,2.48901,18.9324,0,0,0,0,0,0,0,-1,1014,1639,2.48902,-18.9323
-203,-615,2.13684,18.6173,0,0,0,0,0,0,0,-1,1021,1639,2.13683,-18.6173
-196,-615,4.27161,21.3264,0,0,0,0,0,0,0,-1,1028,1639,4.27165,-21.3264
-189,-615,1.8269,19.6761,0,0,0,0,0,0,0,-1,1035,1639,1.82691,-19.6761
-182,-615,1.63489,20.2278,0,0,0,0,0,0,0,-1,1042,1639,1.63492,-20.2277
-175,-615,-0.609985,13.8434,0,0,0,0,0,0,0,-1,1049,1639,-0.610016,-13.8434
-168,-615,3.85754,15.472,0,0,0,0,0,0,0,-1,1056,1639,3.85757,-15.472
-161,-615,2.44141,28.2932,0,0,0,0,0,0,0,-1,1063,1639,2.44135,-28.2933
-154,-615,2.42737,24.3593,0,0,0,0,0,0,0,-1,1070,1639,2.42742,-24.3593
-147,-615,1.52502,17.3442,0,0,0,0,0,0,0,-1,1077,1639,1.52501,-17.3442
-140,-615,3.73401,10.2349,0,0,0,0,0,0,0,-1,1084,1639,3.73402,-10.2348
-133,-615,2.6178,17.45,0,0,0,0,0,0,0,-1,1091,1639,2.61776,-17.4499
-126,-615,4.43408,12.5017,0,0,0,0,0,0,0,-1,1098,1639,4.43403,-12.5018
-119,-615,4.82983,13.9279,0,0,0,0,0,0,0,-1,1105,1639,4.82986,-13.9278
-112,-615,3.65698,14.4874,0,0,0,0,0,0,0,-1,1112,1639,3.65695,-14.4875
-105,-615,0.958496,2.45398,0,0,0,0,0,0,0,-1,1119,1639,0.958452,-2.45398
-98,-615,-0.647705,2.12109,0,0,0,0,0,0,0,-1,1126,1639,-0.647756,-2.12105
-91,-615,-3.07983,2.97375,0,0,0,0,0,0,0,-1,1133,1639,-3.07989,-2.97376
-84,-615,-2.46509,0.703247,0,0,0,0,0,0,0,-1,1140,1639,-2.46505,-0.703273
-77,-615,-3.17859,1.23755,0,0,0,0,0,0,0,-1,1147,1639,-3.17865,-1.23752
-70,-615,-4.03943,1.43335,0,0,0,0,0,0,0,-1,1154,1639,-4.03942,-1.43339
-63,-615,-4.8877,1.45544,0,0,0,0,0,0,0,-1,1161,1639,-4.88766,-1.45549
-56,-615,0,0,0,0,0,0,0,0,0,-1,1168,1639,0,0
-49,-615,0,0,0,0,0,0,0,0,0,-1,1175,1639,0,0
-42,-615,0,0,0,0,0,0,0,0,0,-1,1182,1639,0,0
-35,-615,0,0,0,0,0,0,0,0,0,-1,1189,1639,0,0
-28,-615,0,0,0,0,0,0,0,0,0,-1,1196,1639,0,0
-21,-615,0,0,0,0,0,0,0,0,0,-1,1203,1639,0,0
-14,-615,0,0,0,0,0,0,0,0,0,-1,1210,1639,0,0
-7,-615,0,0,0,0,0,0,0,0,0,-1,1217,1639,0,0
0,-615,0,0,0,0,0,0,0,0,0,-1,1224,1639,0,0
7,-615,0,0,0,0,0,0,0,0,0,-1,1231,1639,0,0
14,-615,0,0,0,0,0,0,0,0,0,-1,1238,1639,0,0
21,-615,0,0,0,0,0,0,0,0,0,-1,1245,1639,0,0
28,-615,0,0,0,0,0,0,0,0,0,-1,1252,1639,0,0
35,-615,0,0,0,0,0,0,0,0,0,-1,1259,1639,0,0
42,-615,0,0,0,0,0,0,0,0,0,-1,1266,1639,0,0
49,-615,0,0,0,0,0,0,0,0,0,-1,1273,1639,0,0
56,-615,0,0,0,0,0,0,0,0,0,-1,1280,1639,0,0
63,-615,0,0,0,0,0,0,0,0,0,-1,1287,1639,0,0
70,-615,0,0,0,0,0,0,0,0,0,-1,1294,1639,0,0
77,-615,0,0,0,0,0,0,0,0,0,-1,1301,1639,0,0
84,-615,0,0,0,0,0,0,0,0,0,-1,1308,1639,0,0
91,-615,0,0,0,0,0,0,0,0,0,-1,1315,1639,0,0
98,-615,0,0,0,0,0,0,0,0,0,-1,1322,1639,0,0
105,-615,0,0,0,0,0,0,0,0,0,-1,1329,1639,0,0
112,-615,0,0,0,0,0,0,0,0,0,-1,1336,1639,0,0
119,-615,0,0,0,0,0,0,0,0,0,-1,1343,1639,0,0
126,-615,0,0,0,0,0,0,0,0,0,-1,1350,1639,0,0
133,-615,0,0,0,0,0,0,0,0,0,-1,1357,1639,0,0
140,-615,0,0,0,0,0,0,0,0,0,-1,1364,1639,0,0
147,-615,0,0,0,0,0,0,0,0,0,-1,1371,1639,0,0
154,-615,0,0,0,0,0,0,0,0,0,-1,1378,1639,0,0
161,-615,0,0,0,0,0,0,0,0,0,-1,1385,1639,0,0
168,-615,0,0,0,0,0,0,0,0,0,-1,1392,1639,0,0
175,-615,5.39648,-2.00879,0,0,0,0,0,0,0,-1,1399,1639,5.3965,2.00881
182,-615,5.65393,-1.51025,0,0,0,0,0,0,0,-1,1406,1639,5.65388,1.51028
189,-615,5.58972,-1.35608,0,0,0,0,0,0,0,-1,1413,1639,5.58967,1.35607
196,-615,5.49915,-0.693604,0,0,0,0,0,0,0,-1,1420,1639,5.4991,0.693602
203,-615,5.33411,-0.226685,0,0,0,0,0,0,0,-1,1427,1639,5.33414,0.226689
210,-615,5.60278,0.108276,0,0,0,0,0,0,0,-1,1434,1639,5.60284,-0.10831
217,-615,6.26331,-0.307373,0,0,0,0,0,0,0,-1,1441,1639,6.26331,0.307372
224,-615,5.45422,-0.333984,0,0,0,0,0,0,0,-1,1448,1639,5.45422,0.333992
231,-615,4.92542,1.80298,0,0,0,0,0,0,0,-1,1455,1639,4.92537,-1.80297
238,-615,4.76355,1.96729,0,0,0,0,0,0,0,-1,1462,1639,4.76357,-1.96734
245,-615,4.08643,3.15906,0,0,0,0,0,0,0,-1,1469,1639,4.08638,-3.159
252,-615,6.37805,3.73889,0,0,0,0,0,0,0,-1,1476,1639,6.37806,-3.73891
259,-615,8.35974,3.16443,0,0,0,0,0,0,0,-1,1483,1639,8.35975,-3.16444
266,-615,10.3414,2.58997,0,0,0,0,0,0,0,-1,1490,1639,10.3414,-2.58996
273,-615,6.57043,1.84766,0,0,0,0,0,0,0,-1,1497,1639,6.5704,-1.84771
280,-615,7.10449,3.23438,0,0,0,0,0,0,0,-1,1504,1639,7.10447,-3.23435
287,-615,7.35779,4.68542,0,0,0,0,0,0,0,-1,1511,1639,7.35776,-4.68546
294,-615,7.63733,6.29114,0,0,0,0,0,0,0,-1,1518,1639,7.63735,-6.29109
301,-615,8.47925,11.452,0,0,0,0,0,0,0,-1,1525,1639,8.47922,-11.452
308,-615,6.8114,10.9059,0,0,0,0,0,0,0,-1,1532,1639,6.81137,-10.9058
315,-615,5.1427,14.7251,0,0,0,0,0,0,0,-1,1539,1639,5.14269,-14.7251
322,-615,7.17981,17.6864,0,0,0,0,0,0,0,-1,1546,1639,7.17985,-17.6864
329,-615,7.62134,20.4354,0,0,0,0,0,0,0,-1,1553,1639,7.62139,-20.4354
336,-615,6.45007,14.1138,0,0,0,0,0,0,0,-1,1560,1639,6.45011,-14.1138
343,-615,2.40491,6.50134,0,0,0,0,0,0,0,-1,1567,1639,2.40489,-6.50137
350,-615,6.4458,15.4594,0,0,0,0,0,0,0,-1,1574,1639,6.44578,-15.4593
357,-615,11.8376,32.1808,0,0,0,0,0,0,0,-1,1581,1639,11.8376,-32.1807
364,-615,11.683,31.3793,0,0,0,0,0,0,0,-1,1588,1639,11.683,-31.3792
371,-615,11.5283,30.5776,0,0,0,0,0,0,0,-1,1595,1639,11.5283,-30.5777
378,-615,11.9302,29.4948,0.00691382,0.0142911,-0.00249736,0.015057,0.00614792,-1.27322,0.00874173,0.0229626,1602,1639,11.9301,-29.4948
385,-615,11.8937,29.1421,0.00577551,0.0123482,-0.00195631,0.0128864,0.00523731,-1.30233,0.0074833,0.0120775,1609,1639,11.8937,-29.1421
392,-615,11.9204,28.7913,0.00468815,0.0104966,-0.00143004,0.0108296,0.00435516,-1.34202,0.00629225,0.0106355,1616,1639,11.9204,-28.7913
399,-615,11.924,28.4426,0.00361628,0.00863368,-0.000913006,0.00879465,0.00345531,-1.39628,0.00511628,0.0117606,1623,1639,11.9239,-28.4426
406,-615,11.9296,28.088,0.00257788,0.00694039,-0.000474907,0.00699149,0.00252678,-1.46361,0.0040879,0.0116799,1630,1639,11.9296,-28.088
413,-615,11.9374,27.7504,0.00175635,0.0054811,-0.000220724,0.00549414,0.00174331,-1.51181,0.00324186,0.0129014,1637,1639,11.9374,-27.7504
420,-615,11.9392,27.3976,0.00109124,0.00402093,1.9687e-05,0.00402107,0.0010911,1.56408,0.00240112,0.0142108,1644,1639,11.9392,-27.3976
427,-615,11.9296,26.9935,0.000617537,0.00286626,5.95206e-05,0.00286783,0.000615963,1.54435,0.00174323,0.0153198,1651,1639,11.9296,-26.9936
434,-615,11.9246,26.5978,0.000223402,0.0018896,3.75752e-05,0.00189044,0.000222555,1.54826,0.00119305,0.0142338,1658,1639,11.9246,-26.5978
441,-615,11.9309,26.2196,4.83609e-05,0.00114982,-9.63289e-05,0.00115818,3.99998e-05,-1.48422,0.000759139,0.0154748,1665,1639,11.931,-26.2196
448,-615,11.9236,25.8574,-0.000161913,0.000400144,-0.000209289,0.000469513,-0.000231283,-1.25074,0.000412324,0.0166114,1672,1639,11.9236,-25.8574
455,-615,11.9198,25.4968,-0.000259208,-0.000222417,-0.000380563,0.000140194,-0.00062182,-0.809549,0.000468325,0.0145764,1679,1639,11.9198,-25.4968
462,-615,11.8904,25.103,-0.000453409,-0.000717617,-0.000409981,-0.000154774,-0.00101625,-0.629541,0.000632256,0.0145667,1686,1639,11.8904,-25.103
469,-615,11.86,24.6901,-0.000692478,-0.00117659,-0.000444876,-0.000428071,-0.001441,-0.536247,0.000854497,0.0128558,1693,1639,11.8599,-24.6901
476,-615,11.8463,24.296,-0.00110591,-0.00158803,-0.000374169,-0.000901873,-0.00179207,-0.499237,0.00103466,0.0113265,1700,1639,11.8463,-24.2961
483,-615,11.8503,23.8579,-0.0017368,-0.00191906,-0.00013017,-0.00166903,-0.00198683,-0.480001,0.00123236,0.0180236,1707,1639,11.8504,-23.8579
490,-615,11.8337,23.4701,-0.00233734,-0.00215115,5.4895e-05,-0.00213617,-0.00235232,1.3044,0.00150136,0.0260883,1714,1639,11.8337,-23.47
497,-615,11.7708,23.1816,-0.00331163,-0.00221105,0.000455319,-0.0020471,-0.00347558,1.22518,0.00201719,0.0374493,1721,1639,11.7708,-23.1816
504,-615,11.8059,22.816,0,0,0,0,0,0,0,-1,1728,1639,11.8059,-22.8161
511,-615,11.3564,22.4218,0,0,0,0,0,0,0,-1,1735,1639,11.3564,-22.4217
518,-615,13.2416,9.81812,0,0,0,0,0,0,0,-1,1742,1639,13.2416,-9.81813
525,-615,4.37524,3.90491,0,0,0,0,0,0,0,-1,1749,1639,4.37518,-3.90495
532,-615,7.3645,0.848145,0,0,0,0,0,0,0,-1,1756,1639,7.36451,-0.848093
539,-615,12.8112,-0.0476074,0,0,0,0,0,0,0,-1,1763,1639,12.8111,0.0475553
546,-615,8.33813,2.94556,0,0,0,0,0,0,0,-1,1770,1639,8.33813,-2.9455
553,-615,5.82532,-2.04199,0,0,0,0,0,0,0,-1,1777,1639,5.82534,2.04195
560,-615,0,0,0,0,0,0,0,0,0,-1,1784,1639,0,0
567,-615,0,0,0,0,0,0,0,0,0,-1,1791,1639,0,0
574,-615,0,0,0,0,0,0,0,0,0,-1,1798,1639,0,0
581,-615,0,0,0,0,0,0,0,0,0,-1,1805,1639,0,0
588,-615,0,0,0,0,0,0,0,0,0,-1,1812,1639,0,0
595,-615,0,0,0,0,0,0,0,0,0,-1,1819,1639,0,0
602,-615,0,0,0,0,0,0,0,0,0,-1,1826,1639,0,0
609,-615,0,0,0,0,0,0,0,0,0,-1,1833,1639,0,0
616,-615,0,0,0,0,0,0,0,0,0,-1,1840,1639,0,0
623,-615,0,0,0,0,0,0,0,0,0,-1,1847,1639,0,0
630,-615,0,0,0,0,0,0,0,0,0,-1,1854,1639,0,0
637,-615,0,0,0,0,0,0,0,0,0,-1,1861,1639,0,0
644,-615,0,0,0,0,0,0,0,0,0,-1,1868,1639,0,0
651,-615,0,0,0,0,0,0,0,0,0,-1,1875,1639,0,0
658,-615,0,0,0,0,0,0,0,0,0,-1,1882,1639,0,0
665,-615,0,0,0,0,0,0,0,0,0,-1,1889,1639,0,0
672,-615,0,0,0,0,0,0,0,0,0,-1,1896,1639,0,0
679,-615,0,0,0,0,0,0,0,0,0,-1,1903,1639,0,0
686,-615,0,0,0,0,0,0,0,0,0,-1,1910,1639,0,0
693,-615,0,0,0,0,0,0,0,0,0,-1,1917,1639,0,0
700,-615,0,0,0,0,0,0,0,0,0,-1,1924,1639,0,0
707,-615,0,0,0,0,0,0,0,0,0,-1,1931,1639,0,0
714,-615,0,0,0,0,0,0,0,0,0,-1,1938,1639,0,0
721,-615,0,0,0,0,0,0,0,0,0,-1,1945,1639,0,0
728,-615,0,0,0,0,0,0,0,0,0,-1,1952,1639,0,0
735,-615,0,0,0,0,0,0,0,0,0,-1,1959,1639,0,0
742,-615,0,0,0,0,0,0,0,0,0,-1,1966,1639,0,0
749,-615,0,0,0,0,0,0,0,0,0,-1,1973,1639,0,0
756,-615,0,0,0,0,0,0,0,0,0,-1,1980,1639,0,0
763,-615,0,0,0,0,0,0,0,0,0,-1,1987,1639,0,0
770,-615,0,0,0,0,0,0,0,0,0,-1,1994,1639,0,0
777,-615,0,0,0,0,0,0,0,0,0,-1,2001,1639,0,0
784,-615,0,0,0,0,0,0,0,0,0,-1,2008,1639,0,0
791,-615,0,0,0,0,0,0,0,0,0,-1,2015,1639,0,0
798,-615,0,0,0,0,0,0,0,0,0,-1,2022,1639,0,0
805,-615,0,0,0,0,0,0,0,0,0,-1,2029,1639,0,0
812,-615,0,0,0,0,0,0,0,0,0,-1,2036,1639,0,0
-700,-622,0,0,0,0,0,0,0,0,0,-1,524,1646,0,0
-693,-622,0,0,0,0,0,0,0,0,0,-1,531,1646,0,0
-686,-622,0,0,0,0,0,0,0,0,0,-1,538,1646,0,0
-679,-622,0,0,0,0,0,0,0,0,0,-1,545,1646,0,0
-672,-622,0,0,0,0,0,0,0,0,0,-1,552,1646,0,0
-665,-622,0,0,0,0,0,0,0,0,0,-1,559,1646,0,0
-658,-622,0,0,0,0,0,0,0,0,0,-1,566,1646,0,0
-651,-622,0,0,0,0,0,0,0,0,0,-1,573,1646,0,0
-644,-622,0,0,0,0,0,0,0,0,0,-1,580,1646,0,0
-637,-622,0,0,0,0,0,0,0,0,0,-1,587,1646,0,0
-630,-622,0,0,0,0,0,0,0,0,0,-1,594,1646,0,0
-623,-622,0,0,0,0,0,0,0,0,0,-1,601,1646,0,0
-616,-622,0,0,0,0,0,0,0,0,0,-1,608,1646,0,0
-609,-622,0,0,0,0,0,0,0,0,0,-1,615,1646,0,0
-602,-622,0,0,0,0,0,0,0,0,0,-1,622,1646,0,0
-595,-622,0,0,0,0,0,0,0,0,0,-1,629,1646,0,0
-588,-622,0,0,0,0,0,0,0,0,0,-1,636,1646,0,0
-581,-622,0,0,0,0,0,0,0,0,0,-1,643,1646,0,0
-574,-622,0,0,0,0,0,0,0,0,0,-1,650,1646,0,0
-567,-622,0,0,0,0,0,0,0,0,0,-1,657,1646,0,0
-560,-622,0,0,0,0,0,0,0,0,0,-1,664,1646,0,0
-553,-622,0,0,0,0,0,0,0,0,0,-1,671,1646,0,0
-546,-622,0,0,0,0,0,0,0,0,0,-1,678,1646,0,0
-539,-622,0,0,0,0,0,0,0,0,0,-1,685,1646,0,0
-532,-622,0,0,0,0,0,0,0,0,0,-1,692,1646,0,0
-525,-622,0,0,0,0,0,0,0,0,0,-1,699,1646,0,0
-518,-622,0,0,0,0,0,0,0,0,0,-1,706,1646,0,0
-511,-622,0,0,0,0,0,0,0,0,0,-1,713,1646,0,0
-504,-622,0,0,0,0,0,0,0,0,0,-1,720,1646,0,0
-497,-622,0,0,0,0,0,0,0,0,0,-1,727,1646,0,0
-490,-622,0,0,0,0,0,0,0,0,0,-1,734,1646,0,0
-483,-622,0,0,0,0,0,0,0,0,0,-1,741,1646,0,0
-476,-622,0,0,0,0,0,0,0,0,0,-1,748,1646,0,0
-469,-622,0,0,0,0,0,0,0,0,0,-1,755,1646,0,0
-462,-622,0,0,0,0,0,0,0,0,0,-1,762,1646,0,0
-455,-622,0,0,0,0,0,0,0,0,0,-1,769,1646,0,0
-448,-622,0,0,0,0,0,0,0,0,0,-1,776,1646,0,0
-441,-622,0,0,0,0,0,0,0,0,0,-1,783,1646,0,0
-434,-622,0,0,0,0,0,0,0,0,0,-1,790,1646,0,0
-427,-622,-7.62891,3.48096,0,0,0,0,0,0,0,-1,797,1646,-7.62892,-3.48092
-420,-622,-9.35791,1.77185,0,0,0,0,0,0,0,-1,804,1646,-9.35789,-1.77183
-413,-622,-8.46075,1.96777,0,0,0,0,0,0,0,-1,811,1646,-8.46074,-1.96774
-406,-622,-4.44318,2.16858,0,0,0,0,0,0,0,-1,818,1646,-4.44315,-2.16859
-399,-622,-7.06976,1.51001,0,0,0,0,0,0,0,-1,825,1646,-7.06976,-1.51005
-392,-622,3.89551,5.85376,0,0,0,0,0,0,0,-1,832,1646,3.8955,-5.85379
-385,-622,2.00543,14.0448,0,0,0,0,0,0,0,-1,839,1646,2.00544,-14.0448
-378,-622,1.49036,15.3436,0,0,0,0,0,0,0,-1,846,1646,1.49033,-15.3436
-371,-622,3.23883,20.4496,0,0,0,0,0,0,0,-1,853,1646,3.23886,-20.4496
-364,-622,3.19537,22.4248,0,0,0,0,0,0,0,-1,860,1646,3.19539,-22.4248
-357,-622,3.67596,22.6827,0,0,0,0,0,0,0,-1,867,1646,3.67597,-22.6827
-350,-622,3.50299,23.0248,0,0,0,0,0,0,0,-1,874,1646,3.503,-23.0247
-343,-622,3.50549,23.4946,-0.00153998,-0.00464975,-0.00131756,-0.00105682,-0.00513291,-0.351483,0.00312972,0.025858,881,1646,3.50549,-23.4946
-336,-622,3.48401,23.9285,-0.00150128,-0.00353989,-0.00129919,-0.000869254,-0.00417191,-0.452768,0.00254156,0.00988607,888,1646,3.48403,-23.9285
-329,-622,3.45013,24.3369,-0.00134587,-0.00275317,-0.0013183,-0.000555189,-0.00354386,-0.540255,0.00220098,0.00822356,895,1646,3.45015,-24.3369
-322,-622,3.44177,24.7609,-0.00129059,-0.00182035,-0.00125264,-0.000275133,-0.00283581,-0.681203,0.00180583,0.0100699,902,1646,3.44179,-24.7609
-315,-622,3.42731,25.1904,-0.00119287,-0.00112644,-0.00111328,-4.58794e-05,-0.00227343,-0.800313,0.00150056,0.0143862,909,1646,3.42729,-25.1904
-308,-622,3.41528,25.5797,-0.000974845,-0.000365636,-0.00095923,0.000336192,-0.00167667,-0.939138,0.00124507,0.014675,916,1646,3.41529,-25.5797
-301,-622,3.41327,25.9644,-0.000483676,8.84559e-05,-0.000693475,0.00055255,-0.000947771,-0.981021,0.000876172,0.0140828,923,1646,3.41328,-25.9643
-294,-622,3.40375,26.3789,0.000203558,0.000217566,-0.000472515,0.000683128,-0.000262005,-0.792809,0.000563439,0.0107769,930,1646,3.40374,-26.3789
-287,-622,3.39465,26.7772,0.000911729,0.00049655,-0.000215917,0.00100366,0.000404618,-0.40253,0.000583077,0.0082126,937,1646,3.39463,-26.7772
-280,-622,3.38696,27.1488,0.00168761,0.000641337,6.16887e-05,0.00169124,0.000637712,0.0586893,0.000986223,0.00918911,944,1646,3.38698,-27.1488
-273,-622,3.38525,27.5098,0.00254726,0.000604388,0.000305492,0.00259417,0.000557486,0.152341,0.00157682,0.0132841,951,1646,3.38525,-27.5098
-266,-622,3.35052,27.9147,0.00340669,0.000599893,0.000506812,0.0034954,0.000511184,0.173279,0.00217994,0.0123637,958,1646,3.35053,-27.9146
-259,-622,3.33386,28.3215,0.00428983,0.000601606,0.000675318,0.00440959,0.000481843,0.175518,0.002793,0.0109917,965,1646,3.33388,-28.3215
-252,-622,3.35828,28.6667,0.00508199,0.000566448,0.000743935,0.0052014,0.000447043,0.159148,0.0033286,0.0127214,972,1646,3.35829,-28.6668
-245,-622,3.41888,29.0269,0.00573185,0.00060513,0.000819959,0.0058598,0.00047718,0.154796,0.00375759,0.0109811,979,1646,3.41889,-29.0268
-238,-622,3.41522,29.4058,0.00633634,0.000670146,0.000841442,0.00645865,0.00054783,0.144353,0.00413527,0.0129999,986,1646,3.41523,-29.4058
-231,-622,3.47113,29.8456,0.00691376,0.00112354,0.00122496,0.00716225,0.00087505,0.200136,0.00451153,0.0233993,993,1646,3.47116,-29.8455
-224,-622,3.55139,30.0796,0.00710126,0.00199306,0.0019134,0.00773848,0.00135583,0.321478,0.00477169,0.0386393,1000,1646,3.55137,-30.0796
-217,-622,3.62799,30.3846,0,0,0,0,0,0,0,-1,1007,1646,3.62796,-30.3846
-210,-622,3.87927,28.0903,0,0,0,0,0,0,0,-1,1014,1646,3.87925,-28.0903
-203,-622,4.21375,20.9574,0,0,0,0,0,0,0,-1,1021,1646,4.21375,-20.9574
-196,-622,4.18518,21.2491,0,0,0,0,0,0,0,-1,1028,1646,4.18521,-21.2491
-189,-622,4.98254,25.8979,0,0,0,0,0,0,0,-1,1035,1646,4.98255,-25.8979
-182,-622,2.21411,20.6752,0,0,0,0,0,0,0,-1,1042,1646,2.21416,-20.6751
-175,-622,2.56091,11.0195,0,0,0,0,0,0,0,-1,1049,1646,2.56095,-11.0195
-168,-622,3.31055,28.6663,0,0,0,0,0,0,0,-1,1056,1646,3.31055,-28.6663
-161,-622,3.46545,31.1064,0,0,0,0,0,0,0,-1,1063,1646,3.46549,-31.1064
-154,-622,3.02039,29.4987,0,0,0,0,0,0,0,-1,1070,1646,3.02035,-29.4986
-147,-622,3.7146,25.5477,0,0,0,0,0,0,0,-1,1077,1646,3.71464,-25.5478
-140,-622,3.27515,16.0353,0,0,0,0,0,0,0,-1,1084,1646,3.27519,-16.0353
-133,-622,3.09644,17.677,0,0,0,0,0,0,0,-1,1091,1646,3.09638,-17.677
-126,-622,3.5061,19.5251,0,0,0,0,0,0,0,-1,1098,1646,3.50616,-19.5252
-119,-622,4.06384,13.1715,0,0,0,0,0,0,0,-1,1105,1646,4.06379,-13.1716
-112,-622,4.33276,14.6605,0,0,0,0,0,0,0,-1,1112,1646,4.33281,-14.6605
-105,-622,0.306519,4.38159,0,0,0,0,0,0,0,-1,1119,1646,0.306536,-4.38159
-98,-622,-0.510376,3.5033,0,0,0,0,0,0,0,-1,1126,1646,-0.510393,-3.50324
-91,-622,-1.146,0.975952,0,0,0,0,0,0,0,-1,1133,1646,-1.14599,-0.97597
-84,-622,-2.04895,1.31787,0,0,0,0,0,0,0,-1,1140,1646,-2.0489,-1.31781
-77,-622,-1.80627,0.332275,0,0,0,0,0,0,0,-1,1147,1646,-1.80622,-0.33223
-70,-622,-3.65588,2.28149,0,0,0,0,0,0,0,-1,1154,1646,-3.65589,-2.28155
-63,-622,-2.49683,1.27087,0,0,0,0,0,0,0,-1,1161,1646,-2.49679,-1.27093
-56,-622,-2.44238,-0.575562,0,0,0,0,0,0,0,-1,1168,1646,-2.44242,0.575508
-49,-622,-2.41089,1.38818,0,0,0,0,0,0,0,-1,1175,1646,-2.41088,-1.38815
-42,-622,-2.71497,2.85242,0,0,0,0,0,0,0,-1,1182,1646,-2.71491,-2.85247
-35,-622,-3.0177,4.25842,0,0,0,0,0,0,0,-1,1189,1646,-3.01773,-4.25838
-28,-622,-0.896606,0.678833,0,0,0,0,0,0,0,-1,1196,1646,-0.89661,-0.678835
-21,-622,16.4141,36.2849,0,0,0,0,0,0,0,-1,1203,1646,16.4141,-36.285
-14,-622,16.0095,36.9204,0,0,0,0,0,0,0,-1,1210,1646,16.0095,-36.9204
-7,-622,15.2998,37.5618,0,0,0,0,0,0,0,-1,1217,1646,15.2998,-37.5618
0,-622,0,0,0,0,0,0,0,0,0,-1,1224,1646,0,0
7,-622,0,0,0,0,0,0,0,0,0,-1,1231,1646,0,0
14,-622,0,0,0,0,0,0,0,0,0,-1,1238,1646,0,0
21,-622,0,0,0,0,0,0,0,0,0,-1,1245,1646,0,0
28,-622,0,0,0,0,0,0,0,0,0,-1,1252,1646,0,0
35,-622,0,0,0,0,0,0,0,0,0,-1,1259,1646,0,0
42,-622,0,0,0,0,0,0,0,0,0,-1,1266,1646,0,0
49,-622,0,0,0,0,0,0,0,0,0,-1,1273,1646,0,0
56,-622,0,0,0,0,0,0,0,0,0,-1,1280,1646,0,0
63,-622,0,0,0,0,0,0,0,0,0,-1,1287,1646,0,0
70,-622,0,0,0,0,0,0,0,0,0,-1,1294,1646,0,0
77,-622,0,0,0,0,0,0,0,0,0,-1,1301,1646,0,0
84,-622,0,0,0,0,0,0,0,0,0,-1,1308,1646,0,0
91,-622,0,0,0,0,0,0,0,0,0,-1,1315,1646,0,0
98,-622,0,0,0,0,0,0,0,0,0,-1,1322,1646,0,0
105,-622,0,0,0,0,0,0,0,0,0,-1,1329,1646,0,0
112,-622,0,0,0,0,0,0,0,0,0,-1,1336,1646,0,0
119,-622,0,0,0,0,0,0,0,0,0,-1,1343,1646,0,0
126,-622,4.02527,34.905,-0.0261733,0.0264454,-0.0631409,0.0685389,-0.0682668,-0.982798,0.0789849,0.0476881,1350,1646,4.02528,-34.9051
133,-622,3.68555,34.3883,0,0,0,0,0,0,0,-1,1357,1646,3.6856,-34.3883
140,-622,3.4303,33.9139,-0.0164063,0.0268024,-0.0817685,0.0897725,-0.0793764,-0.914554,0.0977196,0.0474487,1364,1646,3.43032,-33.914
147,-622,3.37219,32.8273,0,0,0,0,0,0,0,-1,1371,1646,3.37223,-32.8273
154,-622,3.34119,31.8622,0,0,0,0,0,0,0,-1,1378,1646,3.34117,-31.8622
161,-622,10.6884,6.46448,0,0,0,0,0,0,0,-1,1385,1646,10.6883,-6.46442
168,-622,12.2402,5.18091,0,0,0,0,0,0,0,-1,1392,1646,12.2403,-5.1809
175,-622,5.64355,-1.77075,0,0,0,0,0,0,0,-1,1399,1646,5.64351,1.77077
182,-622,5.88586,-1.32251,0,0,0,0,0,0,0,-1,1406,1646,5.88587,1.32256
189,-622,5.97986,-1.18005,0,0,0,0,0,0,0,-1,1413,1646,5.97986,1.18003
196,-622,5.85022,-0.244507,0,0,0,0,0,0,0,-1,1420,1646,5.85026,0.244478
203,-622,5.25159,0.138794,0,0,0,0,0,0,0,-1,1427,1646,5.25162,-0.138822
210,-622,6.66833,0.0397949,0,0,0,0,0,0,0,-1,1434,1646,6.6684,-0.0398278
217,-622,6.12061,0.0506592,0,0,0,0,0,0,0,-1,1441,1646,6.12058,-0.0507181
224,-622,5.57275,0.0616455,0,0,0,0,0,0,0,-1,1448,1646,5.57276,-0.0616084
231,-622,5.31348,1.3949,0,0,0,0,0,0,0,-1,1455,1646,5.31342,-1.39495
238,-622,3.76477,2.90686,0,0,0,0,0,0,0,-1,1462,1646,3.7648,-2.90686
245,-622,5.13794,2.67993,0,0,0,0,0,0,0,-1,1469,1646,5.13796,-2.67992
252,-622,6.66528,2.53992,0,0,0,0,0,0,0,-1,1476,1646,6.66522,-2.53991
259,-622,8.93787,3.31458,0,0,0,0,0,0,0,-1,1483,1646,8.93791,-3.31454
266,-622,5.72644,3.11926,0,0,0,0,0,0,0,-1,1490,1646,5.72647,-3.1192
273,-622,7.28076,3.61218,0,0,0,0,0,0,0,-1,1497,1646,7.28071,-3.61212
280,-622,8.43127,4.4447,0,0,0,0,0,0,0,-1,1504,1646,8.43123,-4.44467
287,-622,8.60315,5.94617,0,0,0,0,0,0,0,-1,1511,1646,8.60319,-5.94622
294,-622,7.62756,11.5143,0,0,0,0,0,0,0,-1,1518,1646,7.62762,-11.5143
301,-622,7.36548,11.6569,0,0,0,0,0,0,0,-1,1525,1646,7.36549,-11.6569
308,-622,7.10339,11.7994,0,0,0,0,0,0,0,-1,1532,1646,7.10335,-11.7995
315,-622,8.28687,16.5842,0,0,0,0,0,0,0,-1,1539,1646,8.28689,-16.5843
322,-622,7.43689,20.5786,0,0,0,0,0,0,0,-1,1546,1646,7.43685,-20.5786
329,-622,9.76477,26.4202,0,0,0,0,0,0,0,-1,1553,1646,9.7648,-26.4202
336,-622,10.4526,28.8552,0,0,0,0,0,0,0,-1,1560,1646,10.4526,-28.8552
343,-622,10.7522,30.2819,0,0,0,0,0,0,0,-1,1567,1646,10.7522,-30.2818
350,-622,11.4385,30.9811,0,0,0,0,0,0,0,-1,1574,1646,11.4385,-30.981
357,-622,11.6068,30.4945,0,0,0,0,0,0,0,-1,1581,1646,11.6068,-30.4945
364,-622,11.3677,30.4355,0.00685207,0.01372,-0.00302432,0.0148619,0.00571016,-1.20977,0.00865688,0.0418262,1588,1646,11.3677,-30.4355
371,-622,11.5094,29.8857,0.00623496,0.0122532,-0.00259817,0.0132197,0.00526849,-1.21467,0.00768458,0.0247344,1595,1646,11.5094,-29.8857
378,-622,11.5433,29.4941,0.00531821,0.0109265,-0.00205981,0.0116017,0.00464298,-1.25402,0.0067426,0.0108466,1602,1646,11.5433,-29.4942
385,-622,11.5281,29.1528,0.00452225,0.00938953,-0.0017049,0.0099273,0.00398448,-1.26525,0.00576858,0.00928173,1609,1646,11.5281,-29.1529
392,-622,11.5321,28.8162,0.0037442,0.00780722,-0.00133776,0.00820812,0.0033433,-1.27963,0.00476603,0.011035,1616,1646,11.5321,-28.8162
399,-622,11.541,28.4552,0.00292555,0.00613855,-0.000923204,0.00638492,0.00267917,-1.31,0.00370218,0.010927,1623,1646,11.5411,-28.4552
406,-622,11.5527,28.0918,0.00211986,0.00459095,-0.000518167,0.0046952,0.0020156,-1.37224,0.0027198,0.0144278,1630,1646,11.5528,-28.0918
413,-622,11.5764,27.745,0.00149183,0.00314923,-0.000222265,0.00317852,0.00146254,-1.43977,0.00183706,0.0166032,1637,1646,11.5764,-27.745
420,-622,11.5815,27.3885,0.000971901,0.00172768,5.45896e-05,0.0017316,0.000967978,1.49906,0.00100206,0.0163124,1644,1646,11.5816,-27.3886
427,-622,11.5641,26.9923,0.000606641,0.000579496,0.00014519,0.000738892,0.000447245,0.738794,0.000429741,0.0134375,1651,1646,11.564,-26.9923
434,-622,11.5671,26.6113,0.000254225,-0.000250759,0.000144667,0.000292733,-0.000289266,0.260148,0.000336019,0.0139988,1658,1646,11.5671,-26.6113
441,-622,11.5574,26.2316,0.000117199,-0.000933251,6.38019e-05,0.00012106,-0.000937112,0.0604416,0.000668757,0.0142488,1665,1646,11.5573,-26.2316
448,-622,11.5231,25.8844,-2.11273e-05,-0.00157633,-3.85909e-06,-2.11177e-05,-0.00157634,-0.00248139,0.00104392,0.0134938,1672,1646,11.5231,-25.8845
455,-622,11.5095,25.5035,-0.000113009,-0.0020284,-0.000138307,-0.000103073,-0.00203833,-0.0717125,0.00132587,0.0159352,1679,1646,11.5095,-25.5035
462,-622,11.5033,25.1179,-0.000355944,-0.00239753,-0.000176069,-0.000340871,-0.0024126,-0.0854012,0.00150768,0.0174506,1686,1646,11.5033,-25.1179
469,-622,11.4785,24.7328,-0.000621559,-0.00258391,-0.000274397,-0.000583912,-0.00262155,-0.136348,0.00158923,0.0184829,1693,1646,11.4785,-24.7328
476,-622,11.541,24.3412,-0.00106941,-0.00272273,-0.000274805,-0.00102493,-0.00276721,-0.160468,0.00161544,0.0219256,1700,1646,11.541,-24.3412
483,-622,11.4139,23.9374,-0.00181666,-0.00268178,-8.84763e-05,-0.00180771,-0.00269074,-0.100879,0.00158378,0.0328868,1707,1646,11.414,-23.9374
490,-622,11.4624,23.4376,-0.00255418,-0.00252692,-1.6603e-05,-0.00251907,-0.00256203,-1.12909,0.00169388,0.0397341,1714,1646,11.4624,-23.4376
497,-622,11.4517,23.443,0,0,0,0,0,0,0,-1,1721,1646,11.4517,-23.4429
504,-622,10.8306,19.8021,0,0,0,0,0,0,0,-1,1728,1646,10.8306,-19.8022
511,-622,5.29004,4.14587,0,0,0,0,0,0,0,-1,1735,1646,5.29008,-4.14589
518,-622,5.6001,1.55359,0,0,0,0,0,0,0,-1,1742,1646,5.60015,-1.5536
525,-622,5.83093,2.01807,0,0,0,0,0,0,0,-1,1749,1646,5.83097,-2.01802
532,-622,5.44202,0.57373,0,0,0,0,0,0,0,-1,1756,1646,5.44196,-0.573705
539,-622,9.32129,1.06116,0,0,0,0,0,0,0,-1,1763,1646,9.32131,-1.0612
546,-622,6.50977,-3.45618,0,0,0,0,0,0,0,-1,1770,1646,6.50981,3.4562
553,-622,0,0,0,0,0,0,0,0,0,-1,1777,1646,0,0
560,-622,0,0,0,0,0,0,0,0,0,-1,1784,1646,0,0
567,-622,0,0,0,0,0,0,0,0,0,-1,1791,1646,0,0
574,-622,0,0,0,0,0,0,0,0,0,-1,1798,1646,0,0
581,-622,0,0,0,0,0,0,0,0,0,-1,1805,1646,0,0
588,-622,0,0,0,0,0,0,0,0,0,-1,1812,1646,0,0
595,-622,0,0,0,0,0,0,0,0,0,-1,1819,1646,0,0
602,-622,0,0,0,0,0,0,0,0,0,-1,1826,1646,0,0
609,-622,0,0,0,0,0,0,0,0,0,-1,1833,1646,0,0
616,-622,0,0,0,0,0,0,0,0,0,-1,1840,1646,0,0
623,-622,0,0,0,0,0,0,0,0,0,-1,1847,1646,0,0
630,-622,0,0,0,0,0,0,0,0,0,-1,1854,1646,0,0
637,-622,0,0,0,0,0,0,0,0,0,-1,1861,1646,0,0
644,-622,0,0,0,0,0,0,0,0,0,-1,1868,1646,0,0
651,-622,0,0,0,0,0,0,0,0,0,-1,1875,1646,0,0
658,-622,0,0,0,0,0,0,0,0,0,-1,1882,1646,0,0
665,-622,0,0,0,0,0,0,0,0,0,-1,1889,1646,0,0
672,-622,0,0,0,0,0,0,0,0,0,-1,1896,1646,0,0
679,-622,0,0,0,0,0,0,0,0,0,-1,1903,1646,0,0
686,-622,0,0,0,0,0,0,0,0,0,-1,1910,1646,0,0
693,-622,0,0,0,0,0,0,0,0,0,-1,1917,1646,0,0
700,-622,0,0,0,0,0,0,0,0,0,-1,1924,1646,0,0
707,-622,0,0,0,0,0,0,0,0,0,-1,1931,1646,0,0
714,-622,0,0,0,0,0,0,0,0,0,-1,1938,1646,0,0
721,-622,0,0,0,0,0,0,0,0,0,-1,1945,1646,0,0
728,-622,0,0,0,0,0,0,0,0,0,-1,1952,1646,0,0
735,-622,0,0,0,0,0,0,0,0,0,-1,1959,1646,0,0
742,-622,0,0,0,0,0,0,0,0,0,-1,1966,1646,0,0
749,-622,0,0,0,0,0,0,0,0,0,-1,1973,1646,0,0
756,-622,0,0,0,0,0,0,0,0,0,-1,1980,1646,0,0
763,-622,0,0,0,0,0,0,0,0,0,-1,1987,1646,0,0
770,-622,0,0,0,0,0,0,0,0,0,-1,1994,1646,0,0
777,-622,0,0,0,0,0,0,0,0,0,-1,2001,1646,0,0
784,-622,0,0,0,0,0,0,0,0,0,-1,2008,1646,0,0
791,-622,0,0,0,0,0,0,0,0,0,-1,2015,1646,0,0
798,-622,0,0,0,0,0,0,0,0,0,-1,2022,1646,0,0
805,-622,0,0,0,0,0,0,0,0,0,-1,2029,1646,0,0
812,-622,0,0,0,0,0,0,0,0,0,-1,2036,1646,0,0
-700,-629,0,0,0,0,0,0,0,0,0,-1,524,1653,0,0
-693,-629,0,0,0,0,0,0,0,0,0,-1,531,1653,0,0
-686,-629,0,0,0,0,0,0,0,0,0,-1,538,1653,0,0
-679,-629,0,0,0,0,0,0,0,0,0,-1,545,1653,0,0
-672,-629,0,0,0,0,0,0,0,0,0,-1,552,1653,0,0
-665,-629,0,0,0,0,0,0,0,0,0,-1,559,1653,0,0
-658,-629,0,0,0,0,0,0,0,0,0,-1,566,1653,0,0
-651,-629,0,0,0,0,0,0,0,0,0,-1,573,1653,0,0
-644,-629,0,0,0,0,0,0,0,0,0,-1,580,1653,0,0
-637,-629,0,0,0,0,0,0,0,0,0,-1,587,1653,0,0
-630,-629,0,0,0,0,0,0,0,0,0,-1,594,1653,0,0
-623,-629,0,0,0,0,0,0,0,0,0,-1,601,1653,0,0
-616,-629,0,0,0,0,0,0,0,0,0,-1,608,1653,0,0
-609,-629,0,0,0,0,0,0,0,0,0,-1,615,1653,0,0
-602,-629,0,0,0,0,0,0,0,0,0,-1,622,1653,0,0
-595,-629,0,0,0,0,0,0,0,0,0,-1,629,1653,0,0
-588,-629,0,0,0,0,0,0,0,0,0,-1,636,1653,0,0
-581,-629,0,0,0,0,0,0,0,0,0,-1,643,1653,0,0
-574,-629,0,0,0,0,0,0,0,0,0,-1,650,1653,0,0
-567,-629,0,0,0,0,0,0,0,0,0,-1,657,1653,0,0
-560,-629,0,0,0,0,0,0,0,0,0,-1,664,1653,0,0
-553,-629,0,0,0,0,0,0,0,0,0,-1,671,1653,0,0
-546,-629,0,0,0,0,0,0,0,0,0,-1,678,1653,0,0
-539,-629,0,0,0,0,0,0,0,0,0,-1,685,1653,0,0
-532,-629,0,0,0,0,0,0,0,0,0,-1,692,1653,0,0
-525,-629,0,0,0,0,0,0,0,0,0,-1,699,1653,0,0
-518,-629,0,0,0,0,0,0,0,0,0,-1,706,1653,0,0
-511,-629,0,0,0,0,0,0,0,0,0,-1,713,1653,0,0
-504,-629,0,0,0,0,0,0,0,0,0,-1,720,1653,0,0
-497,-629,0,0,0,0,0,0,0,0,0,-1,727,1653,0,0
-490,-629,0,0,0,0,0,0,0,0,0,-1,734,1653,0,0
-483,-629,0,0,0,0,0,0,0,0,0,-1,741,1653,0,0
-476,-629,0,0,0,0,0,0,0,0,0,-1,748,1653,0,0
-469,-629,0,0,0,0,0,0,0,0,0,-1,755,1653,0,0
-462,-629,0,0,0,0,0,0,0,0,0,-1,762,1653,0,0
-455,-629,0,0,0,0,0,0,0,0,0,-1,769,1653,0,0
-448,-629,0,0,0,0,0,0,0,0,0,-1,776,1653,0,0
-441,-629,0,0,0,0,0,0,0,0,0,-1,783,1653,0,0
-434,-629,0,0,0,0,0,0,0,0,0,-1,790,1653,0,0
-427,-629,0,0,0,0,0,0,0,0,0,-1,797,1653,0,0
-420,-629,-3.87103,3.37634,0,0,0,0,0,0,0,-1,804,1653,-3.87101,-3.37633
-413,-629,-5.69751,1.33582,0,0,0,0,0,0,0,-1,811,1653,-5.69754,-1.3358
-406,-629,2.85406,6.01501,0,0,0,0,0,0,0,-1,818,1653,2.85405,-6.01507
-399,-629,-0.455627,10.8687,0,0,0,0,0,0,0,-1,825,1653,-0.455625,-10.8687
-392,-629,1.15369,11.1295,0,0,0,0,0,0,0,-1,832,1653,1.1537,-11.1295
-385,-629,1.81976,11.6935,0,0,0,0,0,0,0,-1,839,1653,1.81975,-11.6935
-378,-629,2.19452,14.7941,0,0,0,0,0,0,0,-1,846,1653,2.19451,-14.7941
-371,-629,3.60114,14.7299,0,0,0,0,0,0,0,-1,853,1653,3.60113,-14.7299
-364,-629,3.26898,21.0801,0,0,0,0,0,0,0,-1,860,1653,3.26895,-21.08
-357,-629,4.38782,16.3444,0,0,0,0,0,0,0,-1,867,1653,4.38783,-16.3443
-350,-629,3.87909,23.1901,0,0,0,0,0,0,0,-1,874,1653,3.87907,-23.1901
-343,-629,3.84351,23.6167,-0.00232195,-0.0059002,-0.00231664,-0.001184,-0.00703816,-0.45659,0.00435147,0.0445838,881,1653,3.8435,-23.6167
-336,-629,3.83215,23.9523,-0.00252499,-0.00441816,-0.00230592,-0.000978923,-0.00596423,-0.590635,0.00369334,0.021745,888,1653,3.83216,-23.9523
-329,-629,3.88,24.3533,-0.00260207,-0.00352655,-0.00233897,-0.000680106,-0.00544852,-0.687842,0.00342821,0.0122007,895,1653,3.88002,-24.3533
-322,-629,3.85614,24.7643,-0.0026939,-0.00254013,-0.00226138,-0.000354329,-0.0048797,-0.802392,0.00314169,0.0119205,902,1653,3.85616,-24.7642
-315,-629,3.8175,25.1943,-0.00271166,-0.00178863,-0.00209623,-0.000103717,-0.00439657,-0.893751,0.0028971,0.0163697,909,1653,3.81747,-25.1944
-308,-629,3.80884,25.6018,-0.00260044,-0.000974406,-0.00189897,0.000278266,-0.00385311,-0.98766,0.00266634,0.0134159,916,1653,3.80887,-25.6018
-301,-629,3.82281,26.0128,-0.0021633,-0.000465175,-0.00156583,0.00046698,-0.00309546,-1.03383,0.00223561,0.0118457,923,1653,3.8228,-26.0129
-294,-629,3.80945,26.4008,-0.00149541,-0.000240645,-0.00125846,0.000538146,-0.0022742,-1.01663,0.00172375,0.0127823,930,1653,3.80943,-26.4008
-287,-629,3.7843,26.7869,-0.000781402,6.79576e-05,-0.000920891,0.000657375,-0.00137082,-1.00145,0.00119488,0.00976156,937,1653,3.78432,-26.7869
-280,-629,3.77924,27.1714,-7.57698e-06,0.000260662,-0.000558979,0.000701386,-0.000448302,-0.90314,0.000669112,0.0102298,944,1653,3.77922,-27.1714
-273,-629,3.76428,27.5411,0.000870027,0.000295903,-0.000229839,0.000950702,0.000215228,-0.337572,0.000575631,0.0133526,951,1653,3.7643,-27.5411
-266,-629,3.74829,27.9293,0.00175609,0.000412799,6.30463e-05,0.00175904,0.000409846,0.0467971,0.00106275,0.0129894,958,1653,3.74828,-27.9293
-259,-629,3.73389,28.3173,0.00267629,0.000549429,0.000374479,0.0027403,0.00048542,0.169291,0.00168848,0.0134344,965,1653,3.73388,-28.3173
-252,-629,3.73816,28.678,0.00349392,0.000684329,0.000548136,0.00359707,0.000581177,0.18601,0.00222971,0.0113193,972,1653,3.73816,-28.678
-245,-629,3.75757,29.035,0.00415716,0.00086584,0.000674051,0.00428985,0.000733146,0.194375,0.00264955,0.0086457,979,1653,3.75757,-29.0351
-238,-629,3.7619,29.3918,0.0047672,0.00103886,0.000772082,0.00492076,0.000885295,0.19633,0.00302885,0.0111157,986,1653,3.76191,-29.3918
-231,-629,3.74689,29.7507,0.0053225,0.00151751,0.00112725,0.00563138,0.00120863,0.267448,0.00342325,0.0158028,993,1653,3.74692,-29.7507
-224,-629,3.83551,30.199,0.00547703,0.00233667,0.00167388,0.00620191,0.00161179,0.408677,0.00371576,0.0193498,1000,1653,3.83549,-30.199
-217,-629,3.78687,30.4918,0.00521502,0.00341774,0.0020475,0.00655241,0.00208036,0.578608,0.00386613,0.0332252,1007,1653,3.78689,-30.4918
-210,-629,3.9704,30.9296,0,0,0,0,0,0,0,-1,1014,1653,3.97041,-30.9295
-203,-629,4.29041,31.3134,0,0,0,0,0,0,0,-1,1021,1653,4.29035,-31.3134
-196,-629,4.29175,31.6393,0,0,0,0,0,0,0,-1,1028,1653,4.29179,-31.6392
-189,-629,4.22876,31.6991,0,0,0,0,0,0,0,-1,1035,1653,4.22874,-31.6992
-182,-629,4.37036,32.3717,0,0,0,0,0,0,0,-1,1042,1653,4.37033,-32.3717
-175,-629,4.69446,33.0199,0,0,0,0,0,0,0,-1,1049,1653,4.69444,-33.0199
-168,-629,4.07959,33.3278,0,0,0,0,0,0,0,-1,1056,1653,4.07961,-33.3278
-161,-629,6.3905,31.4457,0,0,0,0,0,0,0,-1,1063,1653,6.39045,-31.4457
-154,-629,3.87708,31.2505,0,0,0,0,0,0,0,-1,1070,1653,3.87706,-31.2505
-147,-629,4.46606,30.7166,0,0,0,0,0,0,0,-1,1077,1653,4.46604,-30.7166
-140,-629,2.34851,19.2911,0,0,0,0,0,0,0,-1,1084,1653,2.34853,-19.2911
-133,-629,3.41248,17.6686,0,0,0,0,0,0,0,-1,1091,1653,3.41243,-17.6686
-126,-629,4.01025,19.5328,0,0,0,0,0,0,0,-1,1098,1653,4.01022,-19.5328
-119,-629,4.94177,13.5525,0,0,0,0,0,0,0,-1,1105,1653,4.94172,-13.5525
-112,-629,5.63123,15.9187,0,0,0,0,0,0,0,-1,1112,1653,5.63118,-15.9187
-105,-629,2.15881,4.38342,0,0,0,0,0,0,0,-1,1119,1653,2.15878,-4.38347
-98,-629,0.825806,4.19385,0,0,0,0,0,0,0,-1,1126,1653,0.825779,-4.1939
-91,-629,-0.452271,3.64465,0,0,0,0,0,0,0,-1,1133,1653,-0.452278,-3.6446
-84,-629,-2.6084,0.466797,0,0,0,0,0,0,0,-1,1140,1653,-2.6084,-0.466786
-77,-629,-3.50903,2.10706,0,0,0,0,0,0,0,-1,1147,1653,-3.509,-2.10707
-70,-629,-1.20886,2.52502,0,0,0,0,0,0,0,-1,1154,1653,-1.20886,-2.525
-63,-629,-0.960693,4.30212,0,0,0,0,0,0,0,-1,1161,1653,-0.960691,-4.30215
-56,-629,-1.31934,5.64343,0,0,0,0,0,0,0,-1,1168,1653,-1.31928,-5.6434
-49,-629,-2.15662,2.57458,0,0,0,0,0,0,0,-1,1175,1653,-2.15656,-2.57459
-42,-629,-2.46326,3.91467,0,0,0,0,0,0,0,-1,1182,1653,-2.4633,-3.91466
-35,-629,-2.67261,5.24292,0,0,0,0,0,0,0,-1,1189,1653,-2.67257,-5.24298
-28,-629,-0.402954,-0.866577,0,0,0,0,0,0,0,-1,1196,1653,-0.402943,0.866612
-21,-629,3.45508,27.0596,0,0,0,0,0,0,0,-1,1203,1653,3.45508,-27.0596
-14,-629,16.1852,37.2787,0,0,0,0,0,0,0,-1,1210,1653,16.1852,-37.2786
-7,-629,15.3369,37.8655,0.257297,0.0824498,0.181553,0.371378,-0.0316318,0.561016,0.258775,0.0483604,1217,1653,15.3369,-37.8655
0,-629,14.5107,38.4677,0.167531,0.0759694,0.150318,0.278885,-0.0353847,0.637581,0.198771,0.0493488,1224,1653,14.5108,-38.4676
7,-629,13.6534,38.9209,0.0939262,0.0721291,0.12116,0.204677,-0.0386217,0.740543,0.150981,0.0456237,1231,1653,13.6534,-38.9209
14,-629,12.4904,40.4739,0,0,0,0,0,0,0,-1,1238,1653,12.4904,-40.4739
21,-629,10.8717,40.8262,-0.00495102,0.0763483,0.0711202,0.117616,-0.0462189,1.04502,0.0975382,0.0476861,1245,1653,10.8717,-40.8262
28,-629,9.4823,41.0974,-0.034389,0.0820449,0.052272,0.102068,-0.0544126,1.20497,0.0917303,0.0444425,1252,1653,9.48228,-41.0974
35,-629,7.92505,41.5468,-0.0519208,0.08852,0.036541,0.0974586,-0.0608594,1.33089,0.0922155,0.0437263,1259,1653,7.92505,-41.5467
42,-629,6.24927,42.2412,-0.0588672,0.0968653,0.0237823,0.100416,-0.062418,1.42258,0.0948618,0.0458495,1266,1653,6.24925,-42.2412
49,-629,4.53442,42.9801,0,0,0,0,0,0,0,-1,1273,1653,4.53448,-42.9801
56,-629,7.65344,44.5381,0,0,0,0,0,0,0,-1,1280,1653,7.65345,-44.5381
63,-629,7.09363,43.3435,0,0,0,0,0,0,0,-1,1287,1653,7.09359,-43.3435
70,-629,6.89624,42.2599,0,0,0,0,0,0,0,-1,1294,1653,6.89627,-42.2598
77,-629,6.93201,41.4998,-0.0369899,0.0974405,-0.0114878,0.0984152,-0.0379645,-1.48616,0.0812763,0.0469222,1301,1653,6.93198,-41.4998
84,-629,6.20276,41.701,-0.030269,0.0880834,-0.017747,0.0906873,-0.0328729,-1.42511,0.0738947,0.0474189,1308,1653,6.20278,-41.701
91,-629,6.03638,40.4424,0,0,0,0,0,0,0,-1,1315,1653,6.03639,-40.4424
98,-629,5.40295,39.1368,0,0,0,0,0,0,0,-1,1322,1653,5.40298,-39.1368
105,-629,4.44067,36.2329,0,0,0,0,0,0,0,-1,1329,1653,4.44071,-36.2329
112,-629,4.47217,35.7433,0,0,0,0,0,0,0,-1,1336,1653,4.47214,-35.7432
119,-629,4.42664,35.3926,-0.0188475,0.0461269,-0.061524,0.0832142,-0.0559349,-1.02831,0.0808508,0.0463526,1343,1653,4.4266,-35.3925
126,-629,4.35767,35.0109,-0.0204585,0.0425239,-0.0684057,0.086339,-0.0642736,-1.00112,0.0872667,0.0481654,1350,1653,4.35766,-35.0108
133,-629,2.7002,35.6377,0,0,0,0,0,0,0,-1,1357,1653,2.70021,-35.6377
140,-629,3.64319,33.6718,0,0,0,0,0,0,0,-1,1364,1653,3.64315,-33.6717
147,-629,3.01489,34.6106,0,0,0,0,0,0,0,-1,1371,1653,3.01487,-34.6106
154,-629,11.7258,38.2805,0,0,0,0,0,0,0,-1,1378,1653,11.7258,-38.2805
161,-629,10.5461,6.83752,0,0,0,0,0,0,0,-1,1385,1653,10.5461,-6.83758
168,-629,12.0059,5.56348,0,0,0,0,0,0,0,-1,1392,1653,12.0059,-5.56352
175,-629,5.84485,-1.78845,0,0,0,0,0,0,0,-1,1399,1653,5.84479,1.7884
182,-629,5.99036,-1.27783,0,0,0,0,0,0,0,-1,1406,1653,5.99041,1.27778
189,-629,5.97668,-0.748535,0,0,0,0,0,0,0,-1,1413,1653,5.97671,0.748544
196,-629,4.52869,9.24695,0,0,0,0,0,0,0,-1,1420,1653,4.52869,-9.2469
203,-629,3.75085,6.88037,0,0,0,0,0,0,0,-1,1427,1653,3.75087,-6.88032
210,-629,3.5907,6.52637,0,0,0,0,0,0,0,-1,1434,1653,3.59067,-6.52642
217,-629,2.4585,4.84448,0,0,0,0,0,0,0,-1,1441,1653,2.45855,-4.84448
224,-629,1.31982,3.68481,0,0,0,0,0,0,0,-1,1448,1653,1.31986,-3.68487
231,-629,3.63025,1.73499,0,0,0,0,0,0,0,-1,1455,1653,3.6303,-1.735
238,-629,4.26428,2.11255,0,0,0,0,0,0,0,-1,1462,1653,4.26429,-2.11253
245,-629,5.61816,1.95361,0,0,0,0,0,0,0,-1,1469,1653,5.61815,-1.95359
252,-629,7.27136,2.18982,0,0,0,0,0,0,0,-1,1476,1653,7.27131,-2.18985
259,-629,8.67334,2.18628,0,0,0,0,0,0,0,-1,1483,1653,8.6733,-2.18633
266,-629,6.86475,3.72058,0,0,0,0,0,0,0,-1,1490,1653,6.86479,-3.72063
273,-629,7.9021,3.8717,0,0,0,0,0,0,0,-1,1497,1653,7.90205,-3.87171
280,-629,9.70837,4.39087,0,0,0,0,0,0,0,-1,1504,1653,9.7084,-4.39082
287,-629,9.82947,7.19348,0,0,0,0,0,0,0,-1,1511,1653,9.8295,-7.19347
294,-629,6.56555,11.6359,0,0,0,0,0,0,0,-1,1518,1653,6.5656,-11.6358
301,-629,6.93835,15.6102,0,0,0,0,0,0,0,-1,1525,1653,6.93835,-15.6103
308,-629,6.08264,12.1423,0,0,0,0,0,0,0,-1,1532,1653,6.08263,-12.1423
315,-629,6.82043,18.2764,0,0,0,0,0,0,0,-1,1539,1653,6.82049,-18.2764
322,-629,10.3922,29.9829,0,0,0,0,0,0,0,-1,1546,1653,10.3922,-29.9829
329,-629,11.1282,31.9159,0,0,0,0,0,0,0,-1,1553,1653,11.1281,-31.9158
336,-629,11.2917,31.4869,0,0,0,0,0,0,0,-1,1560,1653,11.2918,-31.4869
343,-629,11.1815,31.1812,0,0,0,0,0,0,0,-1,1567,1653,11.1815,-31.1811
350,-629,11.1035,30.9181,0.00595577,0.0116224,-0.00236081,0.012477,0.00510112,-1.22346,0.00724343,0.0308949,1574,1653,11.1035,-30.9181
357,-629,11.203,30.4857,0.00553109,0.0109062,-0.00233912,0.0117816,0.00465572,-1.2127,0.00685176,0.0179593,1581,1653,11.203,-30.4858
364,-629,11.1484,30.1287,0.00517529,0.0101887,-0.00231818,0.0110963,0.00426769,-1.19763,0.00646309,0.014864,1588,1653,11.1485,-30.1286
371,-629,11.1693,29.8206,0.00470004,0.00906649,-0.00204317,0.00987342,0.00389311,-1.19466,0.00574272,0.0113931,1595,1653,11.1693,-29.8205
378,-629,11.1827,29.48,0.00403263,0.00795765,-0.0016809,0.0085791,0.00341118,-1.21667,0.00498764,0.0101261,1602,1653,11.1828,-29.48
385,-629,11.1912,29.1561,0.00343622,0.00659194,-0.00140396,0.00712613,0.00290204,-1.20722,0.0041378,0.0120361,1609,1653,11.1911,-29.1562
392,-629,11.1909,28.8265,0.00285749,0.00505829,-0.00110401,0.00551665,0.00239913,-1.17728,0.00319403,0.0110743,1616,1653,11.191,-28.8266
399,-629,11.1898,28.4623,0.0021956,0.00339972,-0.000716668,0.00373365,0.00186166,-1.13475,0.00215563,0.0105092,1623,1653,11.1898,-28.4622
406,-629,11.199,28.104,0.00154005,0.0018568,-0.000290229,0.00202905,0.0013678,-1.03516,0.00119491,0.014698,1630,1653,11.199,-28.104
413,-629,11.192,27.7479,0.00106292,0.000371107,5.2169e-05,0.00106684,0.000367195,0.0748445,0.000625827,0.024151,1637,1653,11.192,-27.748
420,-629,11.167,27.4231,0.000669663,-0.00102768,0.000349009,0.000738624,-0.00109664,0.19508,0.00106629,0.0217568,1644,1653,11.1669,-27.4231
427,-629,11.1757,27.0465,0.000414375,-0.00216299,0.000475271,0.000499223,-0.00224784,0.176664,0.00168973,0.0140362,1651,1653,11.1757,-27.0466
434,-629,11.1781,26.652,0.000114223,-0.00283185,0.000477824,0.000189784,-0.00290741,0.156836,0.00200453,0.0114308,1658,1653,11.1781,-26.652
441,-629,11.1794,26.2681,2.90781e-05,-0.00341286,0.000426341,8.1101e-05,-0.00346489,0.121422,0.00233743,0.014988,1665,1653,11.1794,-26.2681
448,-629,11.1588,25.894,-2.02603e-05,-0.0038915,0.000379872,1.66632e-05,-0.00392842,0.0968955,0.00262452,0.0147615,1672,1653,11.1588,-25.894
455,-629,11.1367,25.4941,-6.79535e-05,-0.00410184,0.00027232,-4.96528e-05,-0.00412014,0.0671022,0.00273036,0.0146943,1679,1653,11.1367,-25.4941
462,-629,11.1432,25.147,-0.000306257,-0.00420926,0.000196889,-0.000296349,-0.00421917,0.0502755,0.00271938,0.0181561,1686,1653,11.1431,-25.1469
469,-629,11.1207,24.7533,-0.000565236,-0.0039476,-2.83419e-06,-0.000565234,-0.0039476,-0.000837931,0.00246502,0.0208591,1693,1653,11.1208,-24.7532
476,-629,11.2229,24.4058,-0.00108536,-0.00378762,-4.49018e-05,-0.00108461,-0.00378837,-0.0166102,0.00225282,0.0331845,1700,1653,11.2229,-24.4058
483,-629,10.8794,23.483,-0.00200263,-0.00331258,0.000108694,-0.00199367,-0.00332154,0.0822264,0.00193049,0.0481355,1707,1653,10.8793,-23.483
490,-629,10.5527,22.4506,0,0,0,0,0,0,0,-1,1714,1653,10.5528,-22.4506
497,-629,10.3662,19.8605,0,0,0,0,0,0,0,-1,1721,1653,10.3662,-19.8605
504,-629,7.89453,15.5316,0,0,0,0,0,0,0,-1,1728,1653,7.89447,-15.5316
511,-629,6.29138,3.40295,0,0,0,0,0,0,0,-1,1735,1653,6.29137,-3.403
518,-629,5.84387,1.41858,0,0,0,0,0,0,0,-1,1742,1653,5.84391,-1.4186
525,-629,6.4729,1.02319,0,0,0,0,0,0,0,-1,1749,1653,6.47284,-1.02316
532,-629,6.86511,0.903687,0,0,0,0,0,0,0,-1,1756,1653,6.86514,-0.903691
539,-629,6.60803,0.746704,0,0,0,0,0,0,0,-1,1763,1653,6.60809,-0.746691
546,-629,0,0,0,0,0,0,0,0,0,-1,1770,1653,0,0
553,-629,0,0,0,0,0,0,0,0,0,-1,1777,1653,0,0
560,-629,0,0,0,0,0,0,0,0,0,-1,1784,1653,0,0
567,-629,0,0,0,0,0,0,0,0,0,-1,1791,1653,0,0
574,-629,0,0,0,0,0,0,0,0,0,-1,1798,1653,0,0
581,-629,0,0,0,0,0,0,0,0,0,-1,1805,1653,0,0
588,-629,0,0,0,0,0,0,0,0,0,-1,1812,1653,0,0
595,-629,0,0,0,0,0,0,0,0,0,-1,1819,1653,0,0
602,-629,0,0,0,0,0,0,0,0,0,-1,1826,1653,0,0
609,-629,0,0,0,0,0,0,0,0,0,-1,1833,1653,0,0
616,-629,0,0,0,0,0,0,0,0,0,-1,1840,1653,0,0
623,-629,0,0,0,0,0,0,0,0,0,-1,1847,1653,0,0
630,-629,0,0,0,0,0,0,0,0,0,-1,1854,1653,0,0
637,-629,0,0,0,0,0,0,0,0,0,-1,1861,1653,0,0
644,-629,0,0,0,0,0,0,0,0,0,-1,1868,1653,0,0
651,-629,0,0,0,0,0,0,0,0,0,-1,1875,1653,0,0
658,-629,0,0,0,0,0,0,0,0,0,-1,1882,1653,0,0
665,-629,0,0,0,0,0,0,0,0,0,-1,1889,1653,0,0
672,-629,0,0,0,0,0,0,0,0,0,-1,1896,1653,0,0
679,-629,0,0,0,0,0,0,0,0,0,-1,1903,1653,0,0
686,-629,0,0,0,0,0,0,0,0,0,-1,1910,1653,0,0
693,-629,0,0,0,0,0,0,0,0,0,-1,1917,1653,0,0
700,-629,0,0,0,0,0,0,0,0,0,-1,1924,1653,0,0
707,-629,0,0,0,0,0,0,0,0,0,-1,1931,1653,0,0
714,-629,0,0,0,0,0,0,0,0,0,-1,1938,1653,0,0
721,-629,0,0,0,0,0,0,0,0,0,-1,1945,1653,0,0
728,-629,0,0,0,0,0,0,0,0,0,-1,1952,1653,0,0
735,-629,0,0,0,0,0,0,0,0,0,-1,1959,1653,0,0
742,-629,0,0,0,0,0,0,0,0,0,-1,1966,1653,0,0
749,-629,0,0,0,0,0,0,0,0,0,-1,1973,1653,0,0
756,-629,0,0,0,0,0,0,0,0,0,-1,1980,1653,0,0
763,-629,0,0,0,0,0,0,0,0,0,-1,1987,1653,0,0
770,-629,0,0,0,0,0,0,0,0,0,-1,1994,1653,0,0
777,-629,0,0,0,0,0,0,0,0,0,-1,2001,1653,0,0
784,-629,0,0,0,0,0,0,0,0,0,-1,2008,1653,0,0
791,-629,0,0,0,0,0,0,0,0,0,-1,2015,1653,0,0
798,-629,0,0,0,0,0,0,0,0,0,-1,2022,1653,0,0
805,-629,0,0,0,0,0,0,0,0,0,-1,2029,1653,0,0
812,-629,0,0,0,0,0,0,0,0,0,-1,2036,1653,0,0
-700,-636,0,0,0,0,0,0,0,0,0,-1,524,1660,0,0
-693,-636,0,0,0,0,0,0,0,0,0,-1,531,1660,0,0
-686,-636,0,0,0,0,0,0,0,0,0,-1,538,1660,0,0
-679,-636,0,0,0,0,0,0,0,0,0,-1,545,1660,0,0
-672,-636,0,0,0,0,0,0,0,0,0,-1,552,1660,0,0
-665,-636,0,0,0,0,0,0,0,0,0,-1,559,1660,0,0
-658,-636,0,0,0,0,0,0,0,0,0,-1,566,1660,0,0
-651,-636,0,0,0,0,0,0,0,0,0,-1,573,1660,0,0
-644,-636,0,0,0,0,0,0,0,0,0,-1,580,1660,0,0
-637,-636,0,0,0,0,0,0,0,0,0,-1,587,1660,0,0
-630,-636,0,0,0,0,0,0,0,0,0,-1,594,1660,0,0
-623,-636,0,0,0,0,0,0,0,0,0,-1,601,1660,0,0
-616,-636,0,0,0,0,0,0,0,0,0,-1,608,1660,0,0
-609,-636,0,0,0,0,0,0,0,0,0,-1,615,1660,0,0
-602,-636,0,0,0,0,0,0,0,0,0,-1,622,1660,0,0
-595,-636,0,0,0,0,0,0,0,0,0,-1,629,1660,0,0
-588,-636,0,0,0,0,0,0,0,0,0,-1,636,1660,0,0
-581,-636,0,0,0,0,0,0,0,0,0,-1,643,1660,0,0
-574,-636,0,0,0,0,0,0,0,0,0,-1,650,1660,0,0
-567,-636,0,0,0,0,0,0,0,0,0,-1,657,1660,0,0
-560,-636,0,0,0,0,0,0,0,0,0,-1,664,1660,0,0
-553,-636,0,0,0,0,0,0,0,0,0,-1,671,1660,0,0
-546,-636,0,0,0,0,0,0,0,0,0,-1,678,1660,0,0
-539,-636,0,0,0,0,0,0,0,0,0,-1,685,1660,0,0
-532,-636,0,0,0,0,0,0,0,0,0,-1,692,1660,0,0
-525,-636,0,0,0,0,0,0,0,0,0,-1,699,1660,0,0
-518,-636,0,0,0,0,0,0,0,0,0,-1,706,1660,0,0
-511,-636,0,0,0,0,0,0,0,0,0,-1,713,1660,0,0
-504,-636,0,0,0,0,0,0,0,0,0,-1,720,1660,0,0
-497,-636,0,0,0,0,0,0,0,0,0,-1,727,1660,0,0
-490,-636,0,0,0,0,0,0,0,0,0,-1,734,1660,0,0
-483,-636,0,0,0,0,0,0,0,0,0,-1,741,1660,0,0
-476,-636,0,0,0,0,0,0,0,0,0,-1,748,1660,0,0
-469,-636,0,0,0,0,0,0,0,0,0,-1,755,1660,0,0
-462,-636,0,0,0,0,0,0,0,0,0,-1,762,1660,0,0
-455,-636,0,0,0,0,0,0,0,0,0,-1,769,1660,0,0
-448,-636,0,0,0,0,0,0,0,0,0,-1,776,1660,0,0
-441,-636,0,0,0,0,0,0,0,0,0,-1,783,1660,0,0
-434,-636,0,0,0,0,0,0,0,0,0,-1,790,1660,0,0
-427,-636,0,0,0,0,0,0,0,0,0,-1,797,1660,0,0
-420,-636,0,0,0,0,0,0,0,0,0,-1,804,1660,0,0
-413,-636,0,0,0,0,0,0,0,0,0,-1,811,1660,0,0
-406,-636,-0.591125,10.6943,0,0,0,0,0,0,0,-1,818,1660,-0.59115,-10.6943
-399,-636,0.0766602,11.2408,0,0,0,0,0,0,0,-1,825,1660,0.076685,-11.2409
-392,-636,0.75946,11.9233,0,0,0,0,0,0,0,-1,832,1660,0.759481,-11.9233
-385,-636,1.68878,12.517,0,0,0,0,0,0,0,-1,839,1660,1.6888,-12.5169
-378,-636,2.22107,13.0013,0,0,0,0,0,0,0,-1,846,1660,2.22107,-13.0014
-371,-636,2.52185,11.9684,0,0,0,0,0,0,0,-1,853,1660,2.52184,-11.9684
-364,-636,4.51947,14.8503,0,0,0,0,0,0,0,-1,860,1660,4.51949,-14.8504
-357,-636,4.55682,15.8809,0,0,0,0,0,0,0,-1,867,1660,4.55681,-15.8808
-350,-636,2.63104,14.4946,0,0,0,0,0,0,0,-1,874,1660,2.63102,-14.4946
-343,-636,4.19641,23.8322,0,0,0,0,0,0,0,-1,881,1660,4.1964,-23.8322
-336,-636,4.15527,23.9867,-0.00387471,-0.00515333,-0.00373759,-0.000722144,-0.00830589,-0.700694,0.00531293,0.0358308,888,1660,4.15526,-23.9867
-329,-636,4.28021,24.3463,-0.00423605,-0.00414843,-0.00376051,-0.000431479,-0.007953,-0.791223,0.00516419,0.0202964,895,1660,4.28022,-24.3463
-322,-636,4.25366,24.7755,-0.00449058,-0.00312321,-0.00363801,-0.000105198,-0.00750859,-0.878279,0.00497103,0.0122536,902,1660,4.25366,-24.7755
-315,-636,4.19855,25.1985,-0.00460382,-0.0022598,-0.00339278,0.000157703,-0.00702132,-0.951702,0.00473432,0.0135018,909,1660,4.19856,-25.1985
-308,-636,4.1969,25.6195,-0.00455095,-0.00135862,-0.00308081,0.000514965,-0.00642453,-1.02441,0.00446459,0.0123181,916,1660,4.19687,-25.6195
-301,-636,4.21057,26.0353,-0.00411923,-0.000790179,-0.00261512,0.000645217,-0.00555462,-1.06881,0.00393582,0.0114926,923,1660,4.21055,-26.0353
-294,-636,4.19781,26.4603,-0.00341719,-0.000470946,-0.00216866,0.000677609,-0.00456575,-1.08374,0.00329302,0.0148359,930,1660,4.19784,-26.4603
-287,-636,4.17639,26.8118,-0.0026427,-0.000140316,-0.00170972,0.000727133,-0.00351015,-1.10128,0.00261638,0.0127995,937,1660,4.1764,-26.8118
-280,-636,4.16132,27.1864,-0.00182175,7.37155e-05,-0.00123662,0.000684002,-0.00243203,-1.11235,0.00189105,0.0121616,944,1660,4.16131,-27.1864
-273,-636,4.13892,27.5621,-0.000880985,0.000142335,-0.000807215,0.00058639,-0.00132504,-1.06787,0.0011307,0.0123694,951,1660,4.13889,-27.5621
-266,-636,4.14014,27.9474,7.68477e-05,0.000303479,-0.000419571,0.000624767,-0.00024444,-0.917289,0.000517603,0.0129147,958,1660,4.14013,-27.9474
-259,-636,4.14471,28.3304,0.00107728,0.000472072,2.97142e-05,0.00107873,0.000470616,0.048941,0.00062449,0.0139948,965,1660,4.14474,-28.3304
-252,-636,4.12244,28.6948,0.00196139,0.000655849,0.000290744,0.00202321,0.000594027,0.209511,0.00120082,0.0109816,972,1660,4.12244,-28.6948
-245,-636,4.13013,29.0724,0.00267534,0.000849529,0.000444708,0.00277789,0.000746973,0.226652,0.00165994,0.00997038,979,1660,4.13016,-29.0724
-238,-636,4.15063,29.4058,0.0033274,0.00099652,0.000598126,0.00347192,0.000851996,0.237083,0.00208935,0.0115331,986,1660,4.15063,-29.4058
-231,-636,4.15155,29.7526,0.00390122,0.00140294,0.000920713,0.00420387,0.00110028,0.31759,0.00251729,0.0117795,993,1660,4.15153,-29.7526
-224,-636,4.15918,30.1053,0.00412332,0.00216054,0.00136935,0.00482664,0.00145722,0.474481,0.00285863,0.00995891,1000,1660,4.1592,-30.1054
-217,-636,4.13953,30.4962,0.00399857,0.00311125,0.00165512,0.00526846,0.00184136,0.654449,0.00308733,0.0174876,1007,1660,4.1395,-30.4962
-210,-636,4.13684,30.8522,0.00407318,0.00409268,0.00205451,0.00613746,0.0020284,0.787772,0.0036107,0.0292593,1014,1660,4.13682,-30.8522
-203,-636,4.1311,31.2437,0,0,0,0,0,0,0,-1,1021,1660,4.13111,-31.2436
-196,-636,4.33643,31.4707,0.00376021,0.00685766,0.0030793,0.00875576,0.00186211,1.0184,0.0053261,0.0349308,1028,1660,4.3364,-31.4707
-189,-636,4.36938,31.6896,0.00335814,0.00921255,0.00376628,0.0110554,0.00151529,1.11574,0.00692069,0.0326809,1035,1660,4.36944,-31.6896
-182,-636,4.5022,32.1538,0.0030944,0.0106067,0.00425615,0.0125271,0.00117398,1.14694,0.0079889,0.0463135,1042,1660,4.50219,-32.1538
-175,-636,4.62122,32.7029,0.00261821,0.0123049,0.00469405,0.0142064,0.000716778,1.18592,0.00924125,0.0489788,1049,1660,4.62127,-32.7029
-168,-636,4.35071,32.9324,0.0021696,0.0146051,0.00516203,0.0164687,0.000306075,1.22435,0.0108785,0.0452203,1056,1660,4.35067,-32.9324
-161,-636,4.49768,33.0156,0,0,0,0,0,0,0,-1,1063,1660,4.49768,-33.0157
-154,-636,4.56799,33.314,0,0,0,0,0,0,0,-1,1070,1660,4.568,-33.3139
-147,-636,4.32129,31.4845,0,0,0,0,0,0,0,-1,1077,1660,4.32127,-31.4845
-140,-636,3.4729,27.1271,0,0,0,0,0,0,0,-1,1084,1660,3.47287,-27.1271
-133,-636,4.68311,18.0922,0,0,0,0,0,0,0,-1,1091,1660,4.68316,-18.0921
-126,-636,3.79028,18.2225,0,0,0,0,0,0,0,-1,1098,1660,3.79025,-18.2226
-119,-636,1.8667,13.8916,0,0,0,0,0,0,0,-1,1105,1660,1.86668,-13.8916
-112,-636,-1.24963,9.7998,0,0,0,0,0,0,0,-1,1112,1660,-1.24968,-9.79978
-105,-636,3.51624,4.72791,0,0,0,0,0,0,0,-1,1119,1660,3.51618,-4.7279
-98,-636,1.54504,5.11914,0,0,0,0,0,0,0,-1,1126,1660,1.54503,-5.11912
-91,-636,-1.87964,-2.25012,0,0,0,0,0,0,0,-1,1133,1660,-1.87966,2.25016
-84,-636,-2.84143,0.133667,0,0,0,0,0,0,0,-1,1140,1660,-2.84144,-0.133701
-77,-636,-3.57349,2.45935,0,0,0,0,0,0,0,-1,1147,1660,-3.57345,-2.45939
-70,-636,-4.23682,4.82312,0,0,0,0,0,0,0,-1,1154,1660,-4.23681,-4.82307
-63,-636,-2.21033,6.97168,0,0,0,0,0,0,0,-1,1161,1660,-2.21034,-6.97165
-56,-636,-2.51917,8.80359,0,0,0,0,0,0,0,-1,1168,1660,-2.51916,-8.80361
-49,-636,-3.13,10.4113,0,0,0,0,0,0,0,-1,1175,1660,-3.12996,-10.4112
-42,-636,-2.27771,4.90173,0,0,0,0,0,0,0,-1,1182,1660,-2.27775,-4.90173
-35,-636,-2.27698,5.89685,0,0,0,0,0,0,0,-1,1189,1660,-2.27695,-5.89686
-28,-636,-1.70654,4.83936,0,0,0,0,0,0,0,-1,1196,1660,-1.70656,-4.8393
-21,-636,4.24683,27.7834,0,0,0,0,0,0,0,-1,1203,1660,4.24687,-27.7835
-14,-636,8.78833,42.0781,0,0,0,0,0,0,0,-1,1210,1660,8.78833,-42.0781
-7,-636,8.07263,42.0011,0.21828,0.0909565,0.150951,0.318445,-0.0092081,0.585846,0.215432,0.0467134,1217,1660,8.07265,-42.0011
0,-636,14.5219,38.6729,0.144891,0.0845482,0.126925,0.245182,-0.0157423,0.668708,0.168947,0.0476344,1224,1660,14.5218,-38.6729
7,-636,13.7446,39.1754,0.0839014,0.0807084,0.103007,0.185324,-0.0207145,0.777649,0.131001,0.0451137,1231,1660,13.7447,-39.1754
14,-636,12.843,39.9325,0.0373341,0.0817662,0.0810381,0.143578,-0.024478,0.919183,0.104835,0.0442347,1238,1660,12.8431,-39.9325
21,-636,11.2019,40.3402,0.00227049,0.0831123,0.060219,0.115218,-0.0298357,1.08098,0.0884511,0.0456244,1245,1660,11.2019,-40.3402
28,-636,9.6189,40.6654,-0.0217642,0.0874426,0.043132,0.102423,-0.0367446,1.23652,0.0832776,0.0456052,1252,1660,9.61894,-40.6654
35,-636,8.06104,40.9835,-0.0352579,0.0930264,0.0282583,0.0989753,-0.0412068,1.36331,0.0831934,0.0434417,1259,1660,8.06104,-40.9835
42,-636,6.35242,41.4613,-0.0386442,0.101081,0.0165923,0.103024,-0.0405875,1.45421,0.0854864,0.0469252,1266,1660,6.35247,-41.4613
49,-636,5.56152,40.8121,-0.0460396,0.107896,0.00232475,0.107931,-0.0460747,1.5557,0.0912747,0.0498332,1273,1660,5.56149,-40.8122
56,-636,4.5249,39.9436,0,0,0,0,0,0,0,-1,1280,1660,4.52489,-39.9436
63,-636,7.22583,43.064,-0.0326623,0.119449,-0.0109613,0.120235,-0.0334481,-1.49923,0.0933256,0.0417602,1287,1660,7.22582,-43.0639
70,-636,6.84802,41.8557,-0.0155856,0.118982,-0.0145892,0.120545,-0.0171492,-1.46403,0.0866474,0.0440777,1294,1660,6.84808,-41.8557
77,-636,6.59155,40.7212,-0.00766216,0.10943,-0.0194094,0.112564,-0.0107956,-1.41074,0.0788877,0.0481311,1301,1660,6.59159,-40.7212
84,-636,6.5437,41.0603,-0.00280829,0.101604,-0.0255253,0.10751,-0.00871427,-1.34342,0.0747479,0.04629,1308,1660,6.5437,-41.0603
91,-636,6.29346,39.7711,0,0,0,0,0,0,0,-1,1315,1660,6.29352,-39.7711
98,-636,5.77234,38.6566,0,0,0,0,0,0,0,-1,1322,1660,5.77228,-38.6566
105,-636,5.31213,37.5421,0,0,0,0,0,0,0,-1,1329,1660,5.3121,-37.5421
112,-636,4.75122,36.3105,0,0,0,0,0,0,0,-1,1336,1660,4.75124,-36.3105
119,-636,4.47473,35.5851,0,0,0,0,0,0,0,-1,1343,1660,4.47476,-35.585
126,-636,3.62952,35.3582,0,0,0,0,0,0,0,-1,1350,1660,3.62954,-35.3582
133,-636,3.48157,35.1893,-0.0168557,0.0425152,-0.0768401,0.0952046,-0.0695451,-0.96973,0.0955021,0.04898,1357,1660,3.48155,-35.1893
140,-636,3.4281,34.7488,-0.0184388,0.038938,-0.081325,0.0964864,-0.0759872,-0.954965,0.0998118,0.0433589,1364,1660,3.42811,-34.7488
147,-636,3.48608,34.1222,-0.00549883,0.061047,-0.0767427,0.111419,-0.0558712,-0.989949,0.098344,0.0444939,1371,1660,3.48612,-34.1222
154,-636,3.41345,33.6395,0,0,0,0,0,0,0,-1,1378,1660,3.41341,-33.6395
161,-636,10.2961,7.13025,0,0,0,0,0,0,0,-1,1385,1660,10.2961,-7.13021
168,-636,11.7659,5.83899,0,0,0,0,0,0,0,-1,1392,1660,11.7658,-5.83899
175,-636,5.94592,-1.72888,0,0,0,0,0,0,0,-1,1399,1660,5.94598,1.72886
182,-636,5.93994,-1.11938,0,0,0,0,0,0,0,-1,1406,1660,5.93998,1.11936
189,-636,5.32544,11.9595,0,0,0,0,0,0,0,-1,1413,1660,5.32542,-11.9595
196,-636,5.3623,9.38025,0,0,0,0,0,0,0,-1,1420,1660,5.36225,-9.38027
203,-636,5.18542,9.02429,0,0,0,0,0,0,0,-1,1427,1660,5.18547,-9.0243
210,-636,4.09167,7.17041,0,0,0,0,0,0,0,-1,1434,1660,4.09173,-7.17041
217,-636,2.94897,5.28992,0,0,0,0,0,0,0,-1,1441,1660,2.94899,-5.28991
224,-636,1.49194,3.63916,0,0,0,0,0,0,0,-1,1448,1660,1.49197,-3.63918
231,-636,0.17749,2.24854,0,0,0,0,0,0,0,-1,1455,1660,0.177501,-2.24855
238,-636,-0.764648,1.00598,0,0,0,0,0,0,0,-1,1462,1660,-0.764704,-1.00595
245,-636,6.21204,1.18005,0,0,0,0,0,0,0,-1,1469,1660,6.21206,-1.18001
252,-636,7.70251,0.865723,0,0,0,0,0,0,0,-1,1476,1660,7.7025,-0.865692
259,-636,9.03601,0.787231,0,0,0,0,0,0,0,-1,1483,1660,9.03598,-0.787243
266,-636,10.1071,3.24109,0,0,0,0,0,0,0,-1,1490,1660,10.1071,-3.24103
273,-636,8.48535,5.02466,0,0,0,0,0,0,0,-1,1497,1660,8.48533,-5.02472
280,-636,11.908,32.0698,0,0,0,0,0,0,0,-1,1504,1660,11.9079,-32.0698
287,-636,6.08606,11.49,0,0,0,0,0,0,0,-1,1511,1660,6.08606,-11.49
294,-636,6.69592,15.9669,0,0,0,0,0,0,0,-1,1518,1660,6.69595,-15.9669
301,-636,8.25903,23.0582,0,0,0,0,0,0,0,-1,1525,1660,8.25903,-23.0583
308,-636,10.7478,33.1339,0,0,0,0,0,0,0,-1,1532,1660,10.7478,-33.134
315,-636,10.647,32.8215,0,0,0,0,0,0,0,-1,1539,1660,10.647,-32.8216
322,-636,10.6453,31.9088,0,0,0,0,0,0,0,-1,1546,1660,10.6452,-31.9088
329,-636,10.8326,31.675,0.00446262,0.00772657,-0.000859477,0.00793906,0.00425013,-1.32843,0.00458743,0.0356009,1553,1660,10.8326,-31.675
336,-636,10.8728,31.3887,0.00424617,0.00779895,-0.00116383,0.00814625,0.00389887,-1.2808,0.00470467,0.0266326,1560,1660,10.8727,-31.3887
343,-636,10.8054,31.2067,0.004359,0.00779713,-0.00140702,0.00829953,0.0038566,-1.22784,0.00479572,0.0243965,1567,1660,10.8054,-31.2066
350,-636,10.7968,30.8541,0.00426281,0.00787772,-0.00150524,0.00842242,0.00371811,-1.22359,0.00487379,0.0133681,1574,1660,10.7968,-30.8541
357,-636,10.8214,30.4773,0.00397139,0.00745389,-0.00158653,0.00806827,0.00335701,-1.20133,0.00468004,0.0113422,1581,1660,10.8214,-30.4773
364,-636,10.8273,30.1567,0.00371458,0.0068851,-0.00162144,0.00756747,0.00303222,-1.17246,0.00439771,0.0117311,1588,1660,10.8272,-30.1568
371,-636,10.8406,29.8291,0.0033651,0.00599089,-0.00144332,0.00662911,0.00272687,-1.15445,0.00384732,0.00989338,1595,1660,10.8405,-29.8291
378,-636,10.848,29.4796,0.00297442,0.00503962,-0.00122776,0.00561128,0.00240276,-1.13504,0.00325079,0.00957477,1602,1660,10.848,-29.4796
385,-636,10.8739,29.1519,0.00261246,0.00382128,-0.00101814,0.0044009,0.00203284,-1.05326,0.00254331,0.014368,1609,1660,10.8739,-29.1519
392,-636,10.8712,28.8146,0.0021997,0.00237299,-0.0007605,0.00305177,0.00152093,-0.842117,0.00176194,0.0156139,1616,1660,10.8712,-28.8146
399,-636,10.8484,28.4861,0.00167387,0.000791824,-0.00041821,0.00184063,0.000625063,-0.379426,0.00108076,0.0116305,1623,1660,10.8484,-28.4861
406,-636,10.8468,28.1418,0.00115567,-0.000697687,-5.46234e-06,0.00115569,-0.000697703,-0.00294723,0.00108089,0.0143177,1630,1660,10.8469,-28.1419
413,-636,10.8597,27.7516,0.000799898,-0.00219,0.000360297,0.000842703,-0.0022328,0.11825,0.00183511,0.0226858,1637,1660,10.8597,-27.7516
420,-636,10.8179,27.4161,0.000480959,-0.00354396,0.000666031,0.000588309,-0.00365131,0.159804,0.00265215,0.0228996,1644,1660,10.8178,-27.4162
427,-636,10.7875,27.0552,0.000270957,-0.00467115,0.000843599,0.000410989,-0.00481118,0.164493,0.00335286,0.0144045,1651,1660,10.7875,-27.0552
434,-636,10.7889,26.6688,-4.3246e-05,-0.00522186,0.000873317,0.000100063,-0.00536517,0.162648,0.0036106,0.0119226,1658,1660,10.7889,-26.6688
441,-636,10.8065,26.2802,-0.000147669,-0.00575321,0.000883127,-1.18283e-05,-0.00588905,0.152622,0.0039221,0.011561,1665,1660,10.8065,-26.2802
448,-636,10.8184,25.9299,-0.000181893,-0.00618525,0.000903201,-4.89515e-05,-0.00631819,0.146141,0.00419591,0.0137373,1672,1660,10.8183,-25.9299
455,-636,10.7683,25.5532,-0.000236896,-0.00624417,0.000898517,-0.000105383,-0.00637568,0.145335,0.00421577,0.0154726,1679,1660,10.7684,-25.5533
462,-636,10.7688,25.171,-0.000444202,-0.0061819,0.000851831,-0.000320409,-0.0063057,0.144316,0.00410117,0.0213163,1686,1660,10.7688,-25.171
469,-636,10.7687,24.774,-0.000652901,-0.00554553,0.00061676,-0.000576351,-0.00562208,0.123486,0.00357147,0.030633,1693,1660,10.7687,-24.774
476,-636,10.8439,24.3246,-0.00120372,-0.00518876,0.000601313,-0.00111496,-0.00527752,0.146547,0.00321186,0.0471532,1700,1660,10.8439,-24.3246
483,-636,10.2462,22.9528,0,0,0,0,0,0,0,-1,1707,1660,10.2463,-22.9528
490,-636,10.8951,23.9569,0,0,0,0,0,0,0,-1,1714,1660,10.8951,-23.9569
497,-636,9.55579,18.0111,0,0,0,0,0,0,0,-1,1721,1660,9.55574,-18.0111
504,-636,6.26428,19.4268,0,0,0,0,0,0,0,-1,1728,1660,6.26433,-19.4268
511,-636,5.65466,9.23218,0,0,0,0,0,0,0,-1,1735,1660,5.65461,-9.23216
518,-636,6.72791,1.07605,0,0,0,0,0,0,0,-1,1742,1660,6.7279,-1.0761
525,-636,7.04309,0.93335,0,0,0,0,0,0,0,-1,1749,1660,7.04308,-0.933298
532,-636,0,0,0,0,0,0,0,0,0,-1,1756,1660,0,0
539,-636,0,0,0,0,0,0,0,0,0,-1,1763,1660,0,0
546,-636,0,0,0,0,0,0,0,0,0,-1,1770,1660,0,0
553,-636,0,0,0,0,0,0,0,0,0,-1,1777,1660,0,0
560,-636,0,0,0,0,0,0,0,0,0,-1,1784,1660,0,0
567,-636,0,0,0,0,0,0,0,0,0,-1,1791,1660,0,0
574,-636,0,0,0,0,0,0,0,0,0,-1,1798,1660,0,0
581,-636,0,0,0,0,0,0,0,0,0,-1,1805,1660,0,0
588,-636,0,0,0,0,0,0,0,0,0,-1,1812,1660,0,0
595,-636,0,0,0,0,0,0,0,0,0,-1,1819,1660,0,0
602,-636,0,0,0,0,0,0,0,0,0,-1,1826,1660,0,0
609,-636,0,0,0,0,0,0,0,0,0,-1,1833,1660,0,0
616,-636,0,0,0,0,0,0,0,0,0,-1,1840,1660,0,0
623,-636,0,0,0,0,0,0,0,0,0,-1,1847,1660,0,0
630,-636,0,0,0,0,0,0,0,0,0,-1,1854,1660,0,0
637,-636,0,0,0,0,0,0,0,0,0,-1,1861,1660,0,0
644,-636,0,0,0,0,0,0,0,0,0,-1,1868,1660,0,0
651,-636,0,0,0,0,0,0,0,0,0,-1,1875,1660,0,0
658,-636,0,0,0,0,0,0,0,0,0,-1,1882,1660,0,0
665,-636,0,0,0,0,0,0,0,0,0,-1,1889,1660,0,0
672,-636,0,0,0,0,0,0,0,0,0,-1,1896,1660,0,0
679,-636,0,0,0,0,0,0,0,0,0,-1,1903,1660,0,0
686,-636,0,0,0,0,0,0,0,0,0,-1,1910,1660,0,0
693,-636,0,0,0,0,0,0,0,0,0,-1,1917,1660,0,0
700,-636,0,0,0,0,0,0,0,0,0,-1,1924,1660,0,0
707,-636,0,0,0,0,0,0,0,0,0,-1,1931,1660,0,0
714,-636,0,0,0,0,0,0,0,0,0,-1,1938,1660,0,0
721,-636,0,0,0,0,0,0,0,0,0,-1,1945,1660,0,0
728,-636,0,0,0,0,0,0,0,0,0,-1,1952,1660,0,0
735,-636,0,0,0,0,0,0,0,0,0,-1,1959,1660,0,0
742,-636,0,0,0,0,0,0,0,0,0,-1,1966,1660,0,0
749,-636,0,0,0,0,0,0,0,0,0,-1,1973,1660,0,0
756,-636,0,0,0,0,0,0,0,0,0,-1,1980,1660,0,0
763,-636,0,0,0,0,0,0,0,0,0,-1,1987,1660,0,0
770,-636,0,0,0,0,0,0,0,0,0,-1,1994,1660,0,0
777,-636,0,0,0,0,0,0,0,0,0,-1,2001,1660,0,0
784,-636,0,0,0,0,0,0,0,0,0,-1,2008,1660,0,0
791,-636,0,0,0,0,0,0,0,0,0,-1,2015,1660,0,0
798,-636,0,0,0,0,0,0,0,0,0,-1,2022,1660,0,0
805,-636,0,0,0,0,0,0,0,0,0,-1,2029,1660,0,0
812,-636,0,0,0,0,0,0,0,0,0,-1,2036,1660,0,0
-700,-643,0,0,0,0,0,0,0,0,0,-1,524,1667,0,0
-693,-643,0,0,0,0,0,0,0,0,0,-1,531,1667,0,0
-686,-643,0,0,0,0,0,0,0,0,0,-1,538,1667,0,0
-679,-643,0,0,0,0,0,0,0,0,0,-1,545,1667,0,0
-672,-643,0,0,0,0,0,0,0,0,0,-1,552,1667,0,0
-665,-643,0,0,0,0,0,0,0,0,0,-1,559,1667,0,0
-658,-643,0,0,0,0,0,0,0,0,0,-1,566,1667,0,0
-651,-643,0,0,0,0,0,0,0,0,0,-1,573,1667,0,0
-644,-643,0,0,0,0,0,0,0,0,0,-1,580,1667,0,0
-637,-643,0,0,0,0,0,0,0,0,0,-1,587,1667,0,0
-630,-643,0,0,0,0,0,0,0,0,0,-1,594,1667,0,0
-623,-643,0,0,0,0,0,0,0,0,0,-1,601,1667,0,0
-616,-643,0,0,0,0,0,0,0,0,0,-1,608,1667,0,0
-609,-643,0,0,0,0,0,0,0,0,0,-1,615,1667,0,0
-602,-643,0,0,0,0,0,0,0,0,0,-1,622,1667,0,0
-595,-643,0,0,0,0,0,0,0,0,0,-1,629,1667,0,0
-588,-643,0,0,0,0,0,0,0,0,0,-1,636,1667,0,0
-581,-643,0,0,0,0,0,0,0,0,0,-1,643,1667,0,0
-574,-643,0,0,0,0,0,0,0,0,0,-1,650,1667,0,0
-567,-643,0,0,0,0,0,0,0,0,0,-1,657,1667,0,0
-560,-643,0,0,0,0,0,0,0,0,0,-1,664,1667,0,0
-553,-643,0,0,0,0,0,0,0,0,0,-1,671,1667,0,0
-546,-643,0,0,0,0,0,0,0,0,0,-1,678,1667,0,0
-539,-643,0,0,0,0,0,0,0,0,0,-1,685,1667,0,0
-532,-643,0,0,0,0,0,0,0,0,0,-1,692,1667,0,0
-525,-643,0,0,0,0,0,0,0,0,0,-1,699,1667,0,0
-518,-643,0,0,0,0,0,0,0,0,0,-1,706,1667,0,0
-511,-643,0,0,0,0,0,0,0,0,0,-1,713,1667,0,0
-504,-643,0,0,0,0,0,0,0,0,0,-1,720,1667,0,0
-497,-643,0,0,0,0,0,0,0,0,0,-1,727,1667,0,0
-490,-643,0,0,0,0,0,0,0,0,0,-1,734,1667,0,0
-483,-643,0,0,0,0,0,0,0,0,0,-1,741,1667,0,0
-476,-643,0,0,0,0,0,0,0,0,0,-1,748,1667,0,0
-469,-643,0,0,0,0,0,0,0,0,0,-1,755,1667,0,0
-462,-643,0,0,0,0,0,0,0,0,0,-1,762,1667,0,0
-455,-643,0,0,0,0,0,0,0,0,0,-1,769,1667,0,0
-448,-643,0,0,0,0,0,0,0,0,0,-1,776,1667,0,0
-441,-643,0,0,0,0,0,0,0,0,0,-1,783,1667,0,0
-434,-643,0,0,0,0,0,0,0,0,0,-1,790,1667,0,0
-427,-643,0,0,0,0,0,0,0,0,0,-1,797,1667,0,0
-420,-643,0,0,0,0,0,0,0,0,0,-1,804,1667,0,0
-413,-643,0,0,0,0,0,0,0,0,0,-1,811,1667,0,0
-406,-643,0,0,0,0,0,0,0,0,0,-1,818,1667,0,0
-399,-643,0.589417,11.6465,0,0,0,0,0,0,0,-1,825,1667,0.58939,-11.6465
-392,-643,0.865295,12.6523,0,0,0,0,0,0,0,-1,832,1667,0.865315,-12.6523
-385,-643,1.72968,13.2692,0,0,0,0,0,0,0,-1,839,1667,1.72967,-13.2692
-378,-643,2.66522,13.8193,0,0,0,0,0,0,0,-1,846,1667,2.66524,-13.8193
-371,-643,0.466125,3.35095,0,0,0,0,0,0,0,-1,853,1667,0.466148,-3.351
-364,-643,1.69513,9.922,0,0,0,0,0,0,0,-1,860,1667,1.69511,-9.92205
-357,-643,1.14227,10.8429,0,0,0,0,0,0,0,-1,867,1667,1.14228,-10.8429
-350,-643,2.50061,9.96948,0,0,0,0,0,0,0,-1,874,1667,2.50059,-9.96954
-343,-643,2.61505,6.17407,0,0,0,0,0,0,0,-1,881,1667,2.61504,-6.17412
-336,-643,4.54022,24.0016,0,0,0,0,0,0,0,-1,888,1667,4.54021,-24.0016
-329,-643,4.65668,24.2985,-0.00658402,-0.00462092,-0.00572203,0.000203138,-0.0114081,-0.870341,0.007674,0.0408256,895,1667,4.65668,-24.2984
-322,-643,4.6427,24.8536,-0.00695487,-0.00355311,-0.00547517,0.00047929,-0.0109873,-0.935999,0.00748973,0.0272175,902,1667,4.64271,-24.8536
-315,-643,4.58789,25.2534,-0.00708346,-0.00258,-0.00507378,0.000719264,-0.0103827,-0.99424,0.0071736,0.0184485,909,1667,4.58791,-25.2535
-308,-643,4.59735,25.614,-0.00699952,-0.00162188,-0.00457376,0.000994863,-0.00961627,-1.05113,0.00676689,0.0133186,916,1667,4.59732,-25.614
-301,-643,4.60486,26.0115,-0.00649357,-0.00102665,-0.00391731,0.00101662,-0.00853684,-1.09002,0.0060586,0.0137668,923,1667,4.60488,-26.0115
-294,-643,4.58777,26.4274,-0.00565205,-0.000660081,-0.00327952,0.000965242,-0.00727738,-1.11068,0.00520326,0.0132133,930,1667,4.58779,-26.4274
-287,-643,4.56671,26.8037,-0.00472119,-0.000348694,-0.00265764,0.000906383,-0.00597627,-1.12959,0.00431813,0.010911,937,1667,4.56674,-26.8038
-280,-643,4.54193,27.1783,-0.00377745,-0.000136387,-0.00202772,0.000768151,-0.00468198,-1.1512,0.00340637,0.0145933,944,1667,4.54191,-27.1783
-273,-643,4.5238,27.5508,-0.00271085,-4.581e-05,-0.00146759,0.000603948,-0.00336061,-1.154,0.0024665,0.0125719,951,1667,4.52377,-27.5508
-266,-643,4.51056,27.9479,-0.00162248,0.000146791,-0.000960316,0.000567829,-0.00204352,-1.1576,0.00158588,0.0117945,958,1667,4.51059,-27.9479
-259,-643,4.5072,28.3297,-0.000492322,0.000337463,-0.000358097,0.00047063,-0.00062549,-1.21477,0.000634947,0.0114449,965,1667,4.50721,-28.3297
-252,-643,4.4986,28.7065,0.00049588,0.000555435,1.85803e-06,0.000555493,0.000495822,1.53964,0.000352128,0.0127227,972,1667,4.49861,-28.7066
-245,-643,4.50323,29.0884,0.00128681,0.000760833,0.000202317,0.00135562,0.000692016,0.32787,0.000782728,0.0114064,979,1667,4.50327,-29.0884
-238,-643,4.54065,29.4097,0.00200696,0.00087623,0.00042006,0.00214593,0.00073726,0.319499,0.00125901,0.014878,986,1667,4.54067,-29.4096
-231,-643,4.51453,29.762,0.00261658,0.0011925,0.000711907,0.00291143,0.000897655,0.392651,0.00172159,0.0114773,993,1667,4.51456,-29.7619
-224,-643,4.50232,30.0928,0.00292098,0.00186304,0.00107348,0.00358874,0.00119528,0.556478,0.0021101,0.00931314,1000,1667,4.50231,-30.0928
-217,-643,4.49353,30.3899,0.00292675,0.00265136,0.00128494,0.00408135,0.00149676,0.732022,0.0023841,0.00836317,1007,1667,4.49356,-30.3899
-210,-643,4.48669,30.7559,0.00309724,0.0034021,0.00156224,0.00481933,0.00168001,0.834029,0.00282464,0.0111221,1014,1667,4.48672,-30.7558
-203,-643,4.48621,31.174,0.00319838,0.00424905,0.00182856,0.00562624,0.00182119,0.925278,0.00331494,0.0155913,1021,1667,4.48618,-31.1739
-196,-643,4.50464,31.4854,0.00312866,0.00539237,0.00223818,0.00676862,0.00175242,1.0195,0.00405647,0.0163752,1028,1667,4.50469,-31.4854
-189,-643,4.6134,31.7588,0.00295942,0.00704265,0.00267625,0.00836712,0.00163495,1.11124,0.00512085,0.0157843,1035,1667,4.61345,-31.7588
-182,-643,4.67932,32.0992,0.0028731,0.00821216,0.00299233,0.00955268,0.00153259,1.14962,0.00592404,0.0218701,1042,1667,4.67934,-32.0993
-175,-643,4.67151,32.4852,0.00265063,0.00959051,0.00333039,0.0109301,0.001311,1.18836,0.00689146,0.0319787,1049,1667,4.67148,-32.4852
-168,-643,4.67798,32.7386,0.00246538,0.0113922,0.00372168,0.0127403,0.00111734,1.22328,0.00814664,0.0361901,1056,1667,4.67804,-32.7386
-161,-643,4.69678,32.9678,0.00244352,0.0132693,0.0040615,0.0146236,0.0010892,1.24894,0.00940706,0.043027,1063,1667,4.69678,-32.9677
-154,-643,4.73938,33.1903,0.00235129,0.0155121,0.00434479,0.0168171,0.00104634,1.27902,0.0108794,0.0499327,1070,1667,4.73937,-33.1903
-147,-643,4.58704,33.376,0,0,0,0,0,0,0,-1,1077,1667,4.58703,-33.376
-140,-643,4.30322,22.9166,0,0,0,0,0,0,0,-1,1084,1667,4.30327,-22.9167
-133,-643,3.66748,21.6034,0,0,0,0,0,0,0,-1,1091,1667,3.66743,-21.6034
-126,-643,3.13904,17.689,0,0,0,0,0,0,0,-1,1098,1667,3.13909,-17.689
-119,-643,3.76282,14.1458,0,0,0,0,0,0,0,-1,1105,1667,3.76283,-14.1458
-112,-643,3.81458,16.2069,0,0,0,0,0,0,0,-1,1112,1667,3.81463,-16.2069
-105,-643,-2.23413,10.0996,0,0,0,0,0,0,0,-1,1119,1667,-2.23415,-10.0996
-98,-643,3.11035,4.68066,0,0,0,0,0,0,0,-1,1126,1667,3.11041,-4.68071
-91,-643,-1.74146,-2.5885,0,0,0,0,0,0,0,-1,1133,1667,-1.74146,2.58856
-84,-643,-3.07446,-0.199341,0,0,0,0,0,0,0,-1,1140,1667,-3.07449,0.199383
-77,-643,-3.63794,2.81165,0,0,0,0,0,0,0,-1,1147,1667,-3.63791,-2.8117
-70,-643,-3.36938,4.45203,0,0,0,0,0,0,0,-1,1154,1667,-3.36941,-4.452
-63,-643,-3.67822,6.26855,0,0,0,0,0,0,0,-1,1161,1667,-3.67823,-6.26856
-56,-643,-3.95142,8.1073,0,0,0,0,0,0,0,-1,1168,1667,-3.95139,-8.10732
-49,-643,-4.23535,9.90552,0,0,0,0,0,0,0,-1,1175,1667,-4.23537,-9.90557
-42,-643,-4.25195,10.7059,0,0,0,0,0,0,0,-1,1182,1667,-4.25192,-10.706
-35,-643,-4.10986,11.6588,0,0,0,0,0,0,0,-1,1189,1667,-4.10982,-11.6589
-28,-643,-1.38513,5.604,0,0,0,0,0,0,0,-1,1196,1667,-1.3851,-5.60403
-21,-643,1.61011,23.1276,0,0,0,0,0,0,0,-1,1203,1667,1.61011,-23.1275
-14,-643,8.7179,41.1743,0,0,0,0,0,0,0,-1,1210,1667,8.71795,-41.1743
-7,-643,8.45288,40.9789,0.174019,0.0906481,0.1216,0.26088,0.00378637,0.620273,0.172672,0.0498683,1217,1667,8.45292,-40.9789
0,-643,8.08337,40.8715,0.116144,0.0860249,0.103722,0.205894,-0.00372484,0.713305,0.138521,0.0443283,1224,1667,8.08332,-40.8715
7,-643,14.3071,38.6764,0.0672332,0.0833351,0.084566,0.160233,-0.00966425,0.832856,0.110184,0.0412778,1231,1667,14.3071,-38.6764
14,-643,12.9681,39.5431,0.0298374,0.0843963,0.0661997,0.128717,-0.0144832,0.980836,0.0910239,0.0423149,1238,1667,12.9681,-39.5431
21,-643,7.67383,40.9302,0,0,0,0,0,0,0,-1,1245,1667,7.67377,-40.9301
28,-643,9.97803,40.2051,0,0,0,0,0,0,0,-1,1252,1667,9.97807,-40.2051
35,-643,7.23987,40.9598,0,0,0,0,0,0,0,-1,1259,1667,7.2399,-40.9599
42,-643,6.53723,40.798,-0.0245057,0.103265,0.00946947,0.103963,-0.0252037,1.49722,0.0790609,0.0453181,1266,1667,6.53722,-40.798
49,-643,5.51331,40.1313,-0.0269453,0.110659,-0.00291717,0.110721,-0.0270071,-1.54961,0.0842715,0.0471254,1273,1667,5.51337,-40.1313
56,-643,3.68774,39.595,-0.0225126,0.116919,-0.0133112,0.118178,-0.023772,-1.47646,0.0877888,0.0456991,1280,1667,3.6877,-39.595
63,-643,7.21143,42.5869,-0.0107919,0.122506,-0.0175183,0.12477,-0.0130558,-1.44228,0.087856,0.041697,1287,1667,7.21144,-42.5869
70,-643,6.76733,41.5582,0.00541443,0.124607,-0.0217426,0.12845,0.00157211,-1.39588,0.085114,0.0424964,1294,1667,6.76731,-41.5582
77,-643,7.44922,41.5195,0,0,0,0,0,0,0,-1,1301,1667,7.44923,-41.5195
84,-643,7.0072,40.2888,0,0,0,0,0,0,0,-1,1308,1667,7.00716,-40.2888
91,-643,10.511,41.5442,0,0,0,0,0,0,0,-1,1315,1667,10.511,-41.5442
98,-643,6.0835,38.2605,0,0,0,0,0,0,0,-1,1322,1667,6.08347,-38.2605
105,-643,5.57727,37.2085,0.0159328,0.0875509,-0.0501624,0.113374,-0.00989058,-1.09538,0.0790861,0.0467221,1329,1667,5.57722,-37.2085
112,-643,5.08801,36.0785,0.00650274,0.0753589,-0.0562911,0.106916,-0.0250539,-1.05985,0.0809315,0.0474443,1336,1667,5.08798,-36.0785
119,-643,4.52332,35.3794,0,0,0,0,0,0,0,-1,1343,1667,4.52329,-35.3794
126,-643,4.30859,35.0242,-0.00936372,0.0522052,-0.0682448,0.0962875,-0.0534461,-0.997278,0.0876203,0.0464547,1350,1667,4.30861,-35.0241
133,-643,4.27734,34.6439,-0.0131765,0.042459,-0.0728459,0.0926178,-0.0633353,-0.967789,0.0905671,0.0459554,1357,1667,4.2773,-34.6439
140,-643,4.14587,34.1801,-0.0158684,0.0363238,-0.0756638,0.0902652,-0.0698099,-0.951458,0.0926706,0.0405009,1364,1667,4.14582,-34.1801
147,-643,3.9812,33.6877,-0.00761229,0.0500835,-0.0716977,0.0985193,-0.056048,-0.976666,0.0903554,0.0426523,1371,1667,3.98124,-33.6877
154,-643,3.88074,33.2162,0,0,0,0,0,0,0,-1,1378,1667,3.88068,-33.2162
161,-643,5.57935,26.2754,0,0,0,0,0,0,0,-1,1385,1667,5.57931,-26.2754
168,-643,10.5563,10.9818,0,0,0,0,0,0,0,-1,1392,1667,10.5562,-10.9819
175,-643,5.88525,-1.1698,0,0,0,0,0,0,0,-1,1399,1667,5.88526,1.16977
182,-643,5.80945,-0.418701,0,0,0,0,0,0,0,-1,1406,1667,5.80949,0.418712
189,-643,5.42297,12.9208,0,0,0,0,0,0,0,-1,1413,1667,5.42298,-12.9208
196,-643,5.51953,11.2415,0,0,0,0,0,0,0,-1,1420,1667,5.51948,-11.2414
203,-643,5.60828,9.82153,0,0,0,0,0,0,0,-1,1427,1667,5.60833,-9.82148
210,-643,4.73218,7.58728,0,0,0,0,0,0,0,-1,1434,1667,4.73222,-7.58728
217,-643,3.8031,5.28955,0,0,0,0,0,0,0,-1,1441,1667,3.80305,-5.28955
224,-643,2.96436,2.97095,0,0,0,0,0,0,0,-1,1448,1667,2.96432,-2.97095
231,-643,2.13403,1.08472,0,0,0,0,0,0,0,-1,1455,1667,2.13403,-1.08467
238,-643,1.18152,-0.261963,0,0,0,0,0,0,0,-1,1462,1667,1.18152,0.26192
245,-643,-0.157471,-1.79016,0,0,0,0,0,0,0,-1,1469,1667,-0.157517,1.7901
252,-643,8.08789,0.0202637,0,0,0,0,0,0,0,-1,1476,1667,8.08791,-0.0203056
259,-643,9.02979,-0.46936,0,0,0,0,0,0,0,-1,1483,1667,9.02974,0.46933
266,-643,4.55066,5.17554,0,0,0,0,0,0,0,-1,1490,1667,4.55063,-5.17556
273,-643,10.74,31.432,0,0,0,0,0,0,0,-1,1497,1667,10.7399,-31.4319
280,-643,9.7832,32.3064,0,0,0,0,0,0,0,-1,1504,1667,9.78315,-32.3064
287,-643,10.3735,32.7236,0,0,0,0,0,0,0,-1,1511,1667,10.3735,-32.7237
294,-643,10.5649,32.8489,0,0,0,0,0,0,0,-1,1518,1667,10.5649,-32.8488
301,-643,10.394,32.802,0,0,0,0,0,0,0,-1,1525,1667,10.394,-32.802
308,-643,10.432,32.7186,0.0039598,0.00534235,0.000196894,0.00536985,0.00393231,1.43206,0.00320987,0.0485713,1532,1667,10.432,-32.7186
315,-643,10.3893,32.422,0.00382558,0.0053973,-3.32406e-05,0.005398,0.00382488,-1.54966,0.00320565,0.0417094,1539,1667,10.3893,-32.4221
322,-643,10.4893,31.9513,0.00364791,0.00511251,-8.5714e-05,0.00511751,0.00364291,-1.51254,0.00304171,0.0283495,1546,1667,10.4893,-31.9513
329,-643,10.5355,31.6375,0.00347043,0.00536237,-0.000376524,0.00543455,0.00339825,-1.38139,0.00317031,0.0177441,1553,1667,10.5355,-31.6375
336,-643,10.4454,31.4257,0.00325861,0.00534996,-0.000595575,0.00550767,0.0031009,-1.31193,0.00318826,0.014,1560,1667,10.4455,-31.4257
343,-643,10.458,31.161,0.00321039,0.00527462,-0.000797649,0.00554692,0.00293809,-1.24182,0.0032044,0.0136884,1567,1667,10.4579,-31.161
350,-643,10.5209,30.8112,0.00309907,0.00522672,-0.000944015,0.00558518,0.00274061,-1.2079,0.00322479,0.0127099,1574,1667,10.5209,-30.8111
357,-643,10.5056,30.491,0.00290321,0.00491893,-0.00106653,0.00537847,0.00244367,-1.16396,0.00310958,0.0109386,1581,1667,10.5056,-30.4909
364,-643,10.5016,30.17,0.00271157,0.00434222,-0.00110596,0.0049009,0.00215288,-1.10303,0.00283648,0.0100027,1588,1667,10.5016,-30.17
371,-643,10.5111,29.8517,0.00244617,0.00352503,-0.000981416,0.0041055,0.0018657,-1.03668,0.00237359,0.00827372,1595,1667,10.5111,-29.8517
378,-643,10.5076,29.5234,0.00214803,0.00260188,-0.000824879,0.00323048,0.00151943,-0.919628,0.00186621,0.00932567,1602,1667,10.5075,-29.5234
385,-643,10.5292,29.1803,0.00185798,0.00141421,-0.000637915,0.0023115,0.000960692,-0.61803,0.00134086,0.0145538,1609,1667,10.5291,-29.1803
392,-643,10.5267,28.8389,0.00147972,-5.72428e-05,-0.00037346,0.00156566,-0.000143183,-0.22618,0.00109463,0.0153658,1616,1667,10.5268,-28.8389
399,-643,10.5004,28.5282,0.000981359,-0.00165927,-3.62522e-05,0.000981856,-0.00165977,-0.0137251,0.00154179,0.0135645,1623,1667,10.5004,-28.5282
406,-643,10.4979,28.1472,0.000513274,-0.00320196,0.000400069,0.000555867,-0.00324455,0.106064,0.00237015,0.0127928,1630,1667,10.4979,-28.1473
413,-643,10.5228,27.7444,0.000220964,-0.00482545,0.00082982,0.000353916,-0.0049584,0.158866,0.00342966,0.0182291,1637,1667,10.5229,-27.7444
420,-643,10.4856,27.3868,-5.75528e-05,-0.00625857,0.00118205,0.000160128,-0.00647625,0.182116,0.00437186,0.0176968,1644,1667,10.4856,-27.3868
427,-643,10.4618,27.0537,-0.000221465,-0.00752221,0.0014679,6.26191e-05,-0.0078063,0.191168,0.0052252,0.0153406,1651,1667,10.4618,-27.0537
434,-643,10.4553,26.6885,-0.000485462,-0.00812118,0.00158538,-0.000169379,-0.00843726,0.196793,0.00556924,0.0158056,1658,1667,10.4554,-26.6884
441,-643,10.4567,26.3136,-0.000517842,-0.00877268,0.00171804,-0.00017455,-0.00911597,0.197218,0.00601997,0.0148354,1665,1667,10.4567,-26.3136
448,-643,10.3871,25.9457,-0.000415576,-0.00934201,0.00187328,-3.83938e-05,-0.00971919,0.198693,0.0064667,0.0205319,1672,1667,10.3871,-25.9457
455,-643,10.3931,25.5006,-0.000324889,-0.009443,0.00205533,0.000116993,-0.00988488,0.21177,0.00662926,0.0286816,1679,1667,10.393,-25.5006
462,-643,10.4641,25.1742,-0.000299623,-0.00925257,0.00206954,0.000155617,-0.00970781,0.216523,0.00652437,0.0416479,1686,1667,10.4641,-25.1742
469,-643,10.3954,24.8262,0,0,0,0,0,0,0,-1,1693,1667,10.3954,-24.8261
476,-643,10.4354,24.4749,-0.000732451,-0.00786841,0.00185333,-0.000279818,-0.00832104,0.239537,0.00545648,0.0484705,1700,1667,10.4354,-24.4748
483,-643,10.4502,24.3062,0,0,0,0,0,0,0,-1,1707,1667,10.4502,-24.3062
490,-643,10.6885,24.1522,0,0,0,0,0,0,0,-1,1714,1667,10.6884,-24.1522
497,-643,10.9073,23.9465,0,0,0,0,0,0,0,-1,1721,1667,10.9074,-23.9465
504,-643,8.05591,19.0656,0,0,0,0,0,0,0,-1,1728,1667,8.0559,-19.0655
511,-643,7.74719,18.1564,0,0,0,0,0,0,0,-1,1735,1667,7.74724,-18.1563
518,-643,7.40564,0.922607,0,0,0,0,0,0,0,-1,1742,1667,7.4057,-0.922598
525,-643,0,0,0,0,0,0,0,0,0,-1,1749,1667,0,0
532,-643,0,0,0,0,0,0,0,0,0,-1,1756,1667,0,0
539,-643,0,0,0,0,0,0,0,0,0,-1,1763,1667,0,0
546,-643,0,0,0,0,0,0,0,0,0,-1,1770,1667,0,0
553,-643,0,0,0,0,0,0,0,0,0,-1,1777,1667,0,0
560,-643,0,0,0,0,0,0,0,0,0,-1,1784,1667,0,0
567,-643,0,0,0,0,0,0,0,0,0,-1,1791,1667,0,0
574,-643,0,0,0,0,0,0,0,0,0,-1,1798,1667,0,0
581,-643,0,0,0,0,0,0,0,0,0,-1,1805,1667,0,0
588,-643,0,0,0,0,0,0,0,0,0,-1,1812,1667,0,0
595,-643,0,0,0,0,0,0,0,0,0,-1,1819,1667,0,0
602,-643,0,0,0,0,0,0,0,0,0,-1,1826,1667,0,0
609,-643,0,0,0,0,0,0,0,0,0,-1,1833,1667,0,0
616,-643,0,0,0,0,0,0,0,0,0,-1,1840,1667,0,0
623,-643,0,0,0,0,0,0,0,0,0,-1,1847,1667,0,0
630,-643,0,0,0,0,0,0,0,0,0,-1,1854,1667,0,0
637,-643,0,0,0,0,0,0,0,0,0,-1,1861,1667,0,0
644,-643,0,0,0,0,0,0,0,0,0,-1,1868,1667,0,0
651,-643,0,0,0,0,0,0,0,0,0,-1,1875,1667,0,0
658,-643,0,0,0,0,0,0,0,0,0,-1,1882,1667,0,0
665,-643,0,0,0,0,0,0,0,0,0,-1,1889,1667,0,0
672,-643,0,0,0,0,0,0,0,0,0,-1,1896,1667,0,0
679,-643,0,0,0,0,0,0,0,0,0,-1,1903,1667,0,0
686,-643,0,0,0,0,0,0,0,0,0,-1,1910,1667,0,0
693,-643,0,0,0,0,0,0,0,0,0,-1,1917,1667,0,0
700,-643,0,0,0,0,0,0,0,0,0,-1,1924,1667,0,0
707,-643,0,0,0,0,0,0,0,0,0,-1,1931,1667,0,0
714,-643,0,0,0,0,0,0,0,0,0,-1,1938,1667,0,0
721,-643,0,0,0,0,0,0,0,0,0,-1,1945,1667,0,0
728,-643,0,0,0,0,0,0,0,0,0,-1,1952,1667,0,0
735,-643,0,0,0,0,0,0,0,0,0,-1,1959,1667,0,0
742,-643,0,0,0,0,0,0,0,0,0,-1,1966,1667,0,0
749,-643,0,0,0,0,0,0,0,0,0,-1,1973,1667,0,0
756,-643,0,0,0,0,0,0,0,0,0,-1,1980,1667,0,0
763,-643,0,0,0,0,0,0,0,0,0,-1,1987,1667,0,0
770,-643,0,0,0,0,0,0,0,0,0,-1,1994,1667,0,0
777,-643,0,0,0,0,0,0,0,0,0,-1,2001,1667,0,0
784,-643,0,0,0,0,0,0,0,0,0,-1,2008,1667,0,0
791,-643,0,0,0,0,0,0,0,0,0,-1,2015,1667,0,0
798,-643,0,0,0,0,0,0,0,0,0,-1,2022,1667,0,0
805,-643,0,0,0,0,0,0,0,0,0,-1,2029,1667,0,0
812,-643,0,0,0,0,0,0,0,0,0,-1,2036,1667,0,0
-700,-650,0,0,0,0,0,0,0,0,0,-1,524,1674,0,0
-693,-650,0,0,0,0,0,0,0,0,0,-1,531,1674,0,0
-686,-650,0,0,0,0,0,0,0,0,0,-1,538,1674,0,0
-679,-650,0,0,0,0,0,0,0,0,0,-1,545,1674,0,0
-672,-650,0,0,0,0,0,0,0,0,0,-1,552,1674,0,0
-665,-650,0,0,0,0,0,0,0,0,0,-1,559,1674,0,0
-658,-650,0,0,0,0,0,0,0,0,0,-1,566,1674,0,0
-651,-650,0,0,0,0,0,0,0,0,0,-1,573,1674,0,0
-644,-650,0,0,0,0,0,0,0,0,0,-1,580,1674,0,0
-637,-650,0,0,0,0,0,0,0,0,0,-1,587,1674,0,0
-630,-650,0,0,0,0,0,0,0,0,0,-1,594,1674,0,0
-623,-650,0,0,0,0,0,0,0,0,0,-1,601,1674,0,0
-616,-650,0,0,0,0,0,0,0,0,0,-1,608,1674,0,0
-609,-650,0,0,0,0,0,0,0,0,0,-1,615,1674,0,0
-602,-650,0,0,0,0,0,0,0,0,0,-1,622,1674,0,0
-595,-650,0,0,0,0,0,0,0,0,0,-1,629,1674,0,0
-588,-650,0,0,0,0,0,0,0,0,0,-1,636,1674,0,0
-581,-650,0,0,0,0,0,0,0,0,0,-1,643,1674,0,0
-574,-650,0,0,0,0,0,0,0,0,0,-1,650,1674,0,0
-567,-650,0,0,0,0,0,0,0,0,0,-1,657,1674,0,0
-560,-650,0,0,0,0,0,0,0,0,0,-1,664,1674,0,0
-553,-650,0,0,0,0,0,0,0,0,0,-1,671,1674,0,0
-546,-650,0,0,0,0,0,0,0,0,0,-1,678,1674,0,0
-539,-650,0,0,0,0,0,0,0,0,0,-1,685,1674,0,0
-532,-650,0,0,0,0,0,0,0,0,0,-1,692,1674,0,0
-525,-650,0,0,0,0,0,0,0,0,0,-1,699,1674,0,0
-518,-650,0,0,0,0,0,0,0,0,0,-1,706,1674,0,0
-511,-650,0,0,0,0,0,0,0,0,0,-1,713,1674,0,0
-504,-650,0,0,0,0,0,0,0,0,0,-1,720,1674,0,0
-497,-650,0,0,0,0,0,0,0,0,0,-1,727,1674,0,0
-490,-650,0,0,0,0,0,0,0,0,0,-1,734,1674,0,0
-483,-650,0,0,0,0,0,0,0,0,0,-1,741,1674,0,0
-476,-650,0,0,0,0,0,0,0,0,0,-1,748,1674,0,0
-469,-650,0,0,0,0,0,0,0,0,0,-1,755,1674,0,0
-462,-650,0,0,0,0,0,0,0,0,0,-1,762,1674,0,0
-455,-650,0,0,0,0,0,0,0,0,0,-1,769,1674,0,0
-448,-650,0,0,0,0,0,0,0,0,0,-1,776,1674,0,0
-441,-650,0,0,0,0,0,0,0,0,0,-1,783,1674,0,0
-434,-650,0,0,0,0,0,0,0,0,0,-1,790,1674,0,0
-427,-650,0,0,0,0,0,0,0,0,0,-1,797,1674,0,0
-420,-650,0,0,0,0,0,0,0,0,0,-1,804,1674,0,0
-413,-650,0,0,0,0,0,0,0,0,0,-1,811,1674,0,0
-406,-650,0,0,0,0,0,0,0,0,0,-1,818,1674,0,0
-399,-650,0,0,0,0,0,0,0,0,0,-1,825,1674,0,0
-392,-650,5.44415,6.85669,0,0,0,0,0,0,0,-1,832,1674,5.44414,-6.85674
-385,-650,1.74451,14.0183,0,0,0,0,0,0,0,-1,839,1674,1.74453,-14.0183
-378,-650,0.997986,4.11108,0,0,0,0,0,0,0,-1,846,1674,0.998006,-4.11113
-371,-650,-1.80096,3.78625,0,0,0,0,0,0,0,-1,853,1674,-1.80094,-3.78625
-364,-650,-2.95679,2.57507,0,0,0,0,0,0,0,-1,860,1674,-2.95681,-2.57506
-357,-650,1.97833,10.8362,0,0,0,0,0,0,0,-1,867,1674,1.97835,-10.8362
-350,-650,-5.30243,0.159912,0,0,0,0,0,0,0,-1,874,1674,-5.30244,-0.159866
-343,-650,-6.21338,-1.4425,0,0,0,0,0,0,0,-1,881,1674,-6.21341,1.44248
-336,-650,5.03357,23.2888,0,0,0,0,0,0,0,-1,888,1674,5.03359,-23.2888
-329,-650,4.99591,24.265,0,0,0,0,0,0,0,-1,895,1674,4.9959,-24.2651
-322,-650,5.0224,24.9308,-0.0105621,-0.00402366,-0.0081343,0.00147379,-0.0160596,-0.976473,0.0112299,0.0444774,902,1674,5.02237,-24.9308
-315,-650,5.03461,25.2794,-0.0105258,-0.00279862,-0.00740558,0.00169064,-0.015015,-1.02583,0.0106185,0.041225,909,1674,5.03464,-25.2794
-308,-650,5.01257,25.5663,-0.0102179,-0.00169212,-0.00653989,0.00185156,-0.0137616,-1.07423,0.00984974,0.024105,916,1674,5.01255,-25.5663
-301,-650,4.99408,26.0228,-0.00947699,-0.00105162,-0.00554402,0.00169866,-0.0122273,-1.11029,0.00877273,0.0133461,923,1674,4.9941,-26.0229
-294,-650,4.95721,26.4095,-0.00834905,-0.000649759,-0.00460262,0.00150092,-0.0104997,-1.13367,0.00755001,0.0120673,930,1674,4.95724,-26.4095
-287,-650,4.92542,26.7982,-0.00713589,-0.000384054,-0.00373709,0.00127617,-0.00879611,-1.15273,0.00633247,0.0146395,937,1674,4.92539,-26.7982
-280,-650,4.90704,27.1722,-0.00592484,-0.000179279,-0.00285835,0.00100047,-0.00710459,-1.17936,0.00510269,0.0154095,944,1674,4.90707,-27.1723
-273,-650,4.88629,27.5634,-0.00461509,-7.85696e-05,-0.00211129,0.00075197,-0.00544563,-1.19601,0.00390529,0.0139643,951,1674,4.88627,-27.5634
-266,-650,4.87085,27.9685,-0.00330944,0.000118779,-0.00144535,0.000646816,-0.00383748,-1.22053,0.00279895,0.0111663,958,1674,4.87086,-27.9685
-259,-650,4.87427,28.3115,-0.0019825,0.00028088,-0.000657092,0.000457812,-0.00215943,-1.30777,0.00161402,0.0140526,965,1674,4.87425,-28.3116
-252,-650,4.85895,28.6859,-0.000840816,0.000477887,-0.000176137,0.000501008,-0.000863937,-1.44028,0.000797283,0.0132386,972,1674,4.85896,-28.6859
-245,-650,4.8736,29.0543,6.06783e-05,0.000651681,8.34276e-05,0.000663232,4.91272e-05,1.43321,0.000426722,0.0118556,979,1674,4.87363,-29.0543
-238,-650,4.86859,29.4165,0.000870163,0.000685788,0.000368567,0.0011579,0.000398054,0.66285,0.000679303,0.0137545,986,1674,4.86857,-29.4165
-231,-650,4.82251,29.8008,0.00152257,0.000885718,0.000628876,0.00190904,0.000499247,0.551043,0.00114321,0.0182088,993,1674,4.82253,-29.8007
-224,-650,4.82568,30.1277,0.00189428,0.00146676,0.000905397,0.0026108,0.000750228,0.669474,0.00155212,0.0136598,1000,1674,4.82567,-30.1276
-217,-650,4.84448,30.4152,0.00198074,0.00211026,0.00103714,0.00308466,0.00100635,0.816579,0.00181642,0.00943683,1007,1674,4.8445,-30.4151
-210,-650,4.83972,30.7365,0.00219748,0.00266274,0.00119802,0.00365051,0.00120971,0.881293,0.0021472,0.0092551,1014,1674,4.83969,-30.7364
-203,-650,4.85522,31.0751,0.00238973,0.00328666,0.00133802,0.00424937,0.00142702,0.9471,0.00249707,0.0141589,1021,1674,4.85525,-31.075
-196,-650,4.86816,31.3868,0.00241709,0.00411719,0.00157718,0.00505881,0.00147547,1.03257,0.00300403,0.0137289,1028,1674,4.86819,-31.3868
-189,-650,4.86877,31.7107,0.00237178,0.00532085,0.00183596,0.0062011,0.00149154,1.12373,0.00373744,0.0117177,1035,1674,4.86874,-31.7107
-182,-650,4.92578,32.0784,0.00240369,0.00627727,0.00201438,0.00713492,0.00154604,1.16828,0.00433418,0.0107532,1042,1674,4.92576,-32.0783
-175,-650,4.93262,32.3578,0.00240459,0.00738723,0.00226469,0.00826273,0.00152909,1.20191,0.00507615,0.0156152,1049,1674,4.93267,-32.3578
-168,-650,4.90222,32.6254,0.00244376,0.00881764,0.00258758,0.00973584,0.00152556,1.22981,0.00604653,0.0202531,1056,1674,4.90217,-32.6254
-161,-650,4.94531,32.9342,0.00257693,0.0104298,0.00289639,0.0113825,0.00162422,1.25302,0.00710903,0.0287222,1063,1674,4.94537,-32.9342
-154,-650,5.02844,33.1379,0.00267829,0.0123161,0.00321799,0.0132918,0.0017026,1.27641,0.00835169,0.0334009,1070,1674,5.02846,-33.1379
-147,-650,5.03308,33.5793,0,0,0,0,0,0,0,-1,1077,1674,5.03313,-33.5794
-140,-650,4.80322,34.4532,0,0,0,0,0,0,0,-1,1084,1674,4.80319,-34.4533
-133,-650,4.58545,33.1974,0,0,0,0,0,0,0,-1,1091,1674,4.58549,-33.1974
-126,-650,5.66772,34.7155,0,0,0,0,0,0,0,-1,1098,1674,5.66768,-34.7155
-119,-650,5.16663,20.6232,0,0,0,0,0,0,0,-1,1105,1674,5.16665,-20.6232
-112,-650,3.86292,14.4513,0,0,0,0,0,0,0,-1,1112,1674,3.8629,-14.4513
-105,-650,4.9259,12.0626,0,0,0,0,0,0,0,-1,1119,1674,4.92591,-12.0626
-98,-650,3.3761,6.78003,0,0,0,0,0,0,0,-1,1126,1674,3.37611,-6.78009
-91,-650,3.66809,7.04443,0,0,0,0,0,0,0,-1,1133,1674,3.66806,-7.04439
-84,-650,-3.82666,-1.59521,0,0,0,0,0,0,0,-1,1140,1674,-3.82661,1.59517
-77,-650,-4.70557,1.90198,0,0,0,0,0,0,0,-1,1147,1674,-4.7056,-1.90194
-70,-650,-4.88171,3.81653,0,0,0,0,0,0,0,-1,1154,1674,-4.88176,-3.81651
-63,-650,-5.14612,5.56543,0,0,0,0,0,0,0,-1,1161,1674,-5.14612,-5.56547
-56,-650,-5.38367,7.41101,0,0,0,0,0,0,0,-1,1168,1674,-5.38361,-7.41102
-49,-650,-5.11316,8.23706,0,0,0,0,0,0,0,-1,1175,1674,-5.11317,-8.23708
-42,-650,-4.99487,9.6792,0,0,0,0,0,0,0,-1,1182,1674,-4.99484,-9.67921
-35,-650,-4.77771,11.3369,0,0,0,0,0,0,0,-1,1189,1674,-4.77769,-11.3369
-28,-650,-4.1936,13.1501,0,0,0,0,0,0,0,-1,1196,1674,-4.19358,-13.1501
-21,-650,14.001,37.6479,0,0,0,0,0,0,0,-1,1203,1674,14.0009,-37.6479
-14,-650,8.60999,40.032,0,0,0,0,0,0,0,-1,1210,1674,8.60993,-40.032
-7,-650,8.49316,40.0032,0,0,0,0,0,0,0,-1,1217,1674,8.49319,-40.0032
0,-650,8.43665,39.8259,0,0,0,0,0,0,0,-1,1224,1674,8.43666,-39.8259
7,-650,8.20813,40.0201,0,0,0,0,0,0,0,-1,1231,1674,8.20811,-40.0202
14,-650,7.96094,40.1968,0,0,0,0,0,0,0,-1,1238,1674,7.96088,-40.1968
21,-650,7.63953,40.3936,0,0,0,0,0,0,0,-1,1245,1674,7.63956,-40.3936
28,-650,7.31824,40.5903,0,0,0,0,0,0,0,-1,1252,1674,7.31825,-40.5904
35,-650,7.33264,40.4037,-0.0178001,0.0924088,0.0134017,0.0940151,-0.0194063,1.45151,0.0700474,0.041904,1259,1674,7.3326,-40.4037
42,-650,6.60303,40.0939,-0.0156169,0.10024,0.00461941,0.100424,-0.0158008,1.53101,0.0727902,0.0398606,1266,1674,6.60303,-40.0939
49,-650,5.3468,39.2793,-0.0150419,0.107318,-0.00588012,0.1076,-0.0153239,-1.52289,0.0773492,0.0421032,1273,1674,5.34679,-39.2793
56,-650,4.49707,38.5294,-0.00963885,0.112756,-0.0156126,0.114717,-0.011599,-1.4459,0.0806226,0.0457616,1280,1674,4.49713,-38.5294
63,-650,3.81323,37.7628,0.0009347,0.117788,-0.0201708,0.121172,-0.00244911,-1.40459,0.0816101,0.0470102,1287,1674,3.81328,-37.7628
70,-650,6.79053,41.1047,0.0149187,0.120543,-0.024342,0.125883,0.00957888,-1.35485,0.0809183,0.0472029,1294,1674,6.79056,-41.1047
77,-650,7.24683,40.4115,0.0217578,0.116612,-0.0287952,0.124669,0.0137007,-1.29797,0.078943,0.045443,1301,1674,7.24685,-40.4115
84,-650,7.39429,39.6251,0.0240794,0.11123,-0.0338996,0.122864,0.0124462,-1.24022,0.0780916,0.0464423,1308,1674,7.39426,-39.6251
91,-650,9.57617,39.8916,0.0238745,0.102937,-0.0397463,0.119464,0.0073478,-1.17674,0.0773097,0.0493073,1315,1674,9.57622,-39.8916
98,-650,10.2672,39.0459,0,0,0,0,0,0,0,-1,1322,1674,10.2673,-39.046
105,-650,5.90149,36.9597,0.0192553,0.0848647,-0.0479279,0.11014,-0.00601957,-1.08551,0.0755129,0.0469246,1329,1674,5.90154,-36.9597
112,-650,5.30139,35.9459,0.0101564,0.0725821,-0.0525144,0.102459,-0.0197208,-1.05353,0.0757406,0.0436053,1336,1674,5.30137,-35.9459
119,-650,4.82556,34.8542,0,0,0,0,0,0,0,-1,1343,1674,4.82562,-34.8542
126,-650,5.02649,34.6487,-0.00564924,0.0487812,-0.0618938,0.089179,-0.046047,-0.99253,0.0793855,0.0457081,1350,1674,5.02653,-34.6487
133,-650,5.06323,34.1384,-0.0095883,0.0389109,-0.0651076,0.0841383,-0.0548156,-0.963667,0.0808183,0.0461482,1357,1674,5.06322,-34.1384
140,-650,4.85242,33.7645,-0.0124348,0.0325932,-0.0667564,0.0805299,-0.0603715,-0.948037,0.0816265,0.042416,1364,1674,4.85242,-33.7645
147,-650,4.4884,33.2736,-0.0088677,0.0397721,-0.0643585,0.0842524,-0.0533481,-0.966045,0.0801088,0.0469034,1371,1674,4.48837,-33.2735
154,-650,4.39148,32.8792,0,0,0,0,0,0,0,-1,1378,1674,4.39149,-32.8792
161,-650,4.09106,30.3021,0,0,0,0,0,0,0,-1,1385,1674,4.09104,-30.3021
168,-650,11.2113,7.87231,0,0,0,0,0,0,0,-1,1392,1674,11.2113,-7.87236
175,-650,5.62537,-0.230713,0,0,0,0,0,0,0,-1,1399,1674,5.62538,0.230745
182,-650,5.56006,0.421631,0,0,0,0,0,0,0,-1,1406,1674,5.56,-0.421652
189,-650,4.81543,11.0654,0,0,0,0,0,0,0,-1,1413,1674,4.81542,-11.0654
196,-650,5.39575,11.9077,0,0,0,0,0,0,0,-1,1420,1674,5.39575,-11.9078
203,-650,3.93628,11.8215,0,0,0,0,0,0,0,-1,1427,1674,3.93624,-11.8216
210,-650,5.40955,8.08594,0,0,0,0,0,0,0,-1,1434,1674,5.40958,-8.086
217,-650,5.12451,4.69739,0,0,0,0,0,0,0,-1,1441,1674,5.12451,-4.69738
224,-650,4.79041,1.45813,0,0,0,0,0,0,0,-1,1448,1674,4.79046,-1.45816
231,-650,4.04102,-0.642212,0,0,0,0,0,0,0,-1,1455,1674,4.04101,0.642209
238,-650,3.23022,-1.43396,0,0,0,0,0,0,0,-1,1462,1674,3.23023,1.43394
245,-650,1.65894,-2.55042,0,0,0,0,0,0,0,-1,1469,1674,1.65889,2.55036
252,-650,8.75342,0.355103,0,0,0,0,0,0,0,-1,1476,1674,8.75337,-0.355147
259,-650,5.61255,3.17566,0,0,0,0,0,0,0,-1,1483,1674,5.61257,-3.17572
266,-650,4.00403,6.10229,0,0,0,0,0,0,0,-1,1490,1674,4.00401,-6.10225
273,-650,9.68835,32.4965,0,0,0,0,0,0,0,-1,1497,1674,9.6883,-32.4965
280,-650,9.89685,33.1758,0,0,0,0,0,0,0,-1,1504,1674,9.8969,-33.1758
287,-650,9.96484,33.1436,0,0,0,0,0,0,0,-1,1511,1674,9.9649,-33.1436
294,-650,10.0627,33.1233,0.00378417,0.00389112,9.48744e-05,0.00394655,0.00372874,1.04202,0.00256152,0.0437515,1518,1674,10.0627,-33.1233
301,-650,10.0378,32.8699,0.00371352,0.0037726,8.9189e-05,0.00383701,0.00364911,0.945307,0.00249773,0.0341466,1525,1674,10.0378,-32.8698
308,-650,10.1252,32.5701,0.00349502,0.003476,0.00013278,0.00361863,0.00335239,0.749641,0.00232875,0.0208545,1532,1674,10.1252,-32.57
315,-650,10.1449,32.3065,0.00327508,0.0035832,-3.7879e-05,0.00358779,0.00327049,-1.45025,0.00229342,0.0173668,1539,1674,10.1449,-32.3066
322,-650,10.1552,32.0219,0.00302064,0.0034422,-5.9565e-05,0.00345045,0.00301239,-1.43309,0.00216908,0.014316,1546,1674,10.1552,-32.0219
329,-650,10.2031,31.6683,0.00279685,0.00354875,-0.000232159,0.00361465,0.00273094,-1.29419,0.00217586,0.0167143,1553,1674,10.2032,-31.6683
336,-650,10.181,31.3936,0.00257281,0.00350798,-0.000361212,0.00363125,0.00244954,-1.24192,0.00213867,0.0146004,1560,1674,10.181,-31.3935
343,-650,10.1748,31.1128,0.00236355,0.00336622,-0.000494676,0.00356918,0.00216058,-1.18144,0.00207586,0.0140578,1567,1674,10.1748,-31.1128
350,-650,10.2002,30.8273,0.00219346,0.00316465,-0.000630572,0.00347493,0.00188318,-1.11351,0.0020086,0.015732,1574,1674,10.2002,-30.8273
357,-650,10.1851,30.4971,0.00199443,0.00277028,-0.00069941,0.00318214,0.00158257,-1.0386,0.00183722,0.0129327,1581,1674,10.1851,-30.4971
364,-650,10.1793,30.1689,0.00178187,0.00200377,-0.000654103,0.00255627,0.00122937,-0.869407,0.00147622,0.00931214,1588,1674,10.1793,-30.1689
371,-650,10.1809,29.8597,0.00154448,0.00110998,-0.00050929,0.00188092,0.000773538,-0.583798,0.00109164,0.0114791,1595,1674,10.1809,-29.8597
378,-650,10.1787,29.5219,0.00130001,8.5748e-05,-0.000329153,0.0013835,2.26375e-06,-0.248396,0.000921578,0.0119866,1602,1674,10.1787,-29.5219
385,-650,10.184,29.1818,0.00105811,-0.00119446,-0.000104729,0.00106297,-0.00119931,-0.0463597,0.00130692,0.0126306,1609,1674,10.1839,-29.1817
392,-650,10.1858,28.8462,0.000707868,-0.00280412,0.000219691,0.000721558,-0.00281781,0.0622312,0.00215962,0.0158832,1616,1674,10.1858,-28.8461
399,-650,10.1731,28.5214,0.000248407,-0.00452425,0.000596702,0.000321879,-0.00459772,0.122513,0.00317788,0.0154851,1623,1674,10.1731,-28.5213
406,-650,10.1497,28.1525,-0.000147403,-0.00619911,0.00109175,4.353e-05,-0.00639005,0.173135,0.00427461,0.0141481,1630,1674,10.1497,-28.1525
413,-650,10.151,27.7637,-0.000356592,-0.0080202,0.00160586,-3.36999e-05,-0.00834309,0.198426,0.00555086,0.0144112,1637,1674,10.151,-27.7636
420,-650,10.1245,27.4415,-0.000583277,-0.00957457,0.00201046,-0.000154213,-0.0100036,0.210262,0.00661828,0.0152829,1644,1674,10.1245,-27.4415
427,-650,10.1208,27.103,-0.000698706,-0.0110476,0.00243407,-0.0001548,-0.0115915,0.219844,0.00767661,0.014488,1651,1674,10.1208,-27.103
434,-650,10.1112,26.7477,-0.000912508,-0.0118039,0.00267374,-0.000291531,-0.0124248,0.228204,0.00818779,0.0173022,1658,1674,10.1112,-26.7476
441,-650,10.0732,26.4271,-0.000879042,-0.0126869,0.00296302,-0.000177225,-0.0133887,0.232573,0.00886732,0.0282636,1665,1674,10.0732,-26.4271
448,-650,10.0011,26.1118,-0.000740865,-0.0136195,0.00327901,4.59324e-05,-0.0144063,0.235497,0.00961955,0.0439729,1672,1674,10.0011,-26.1119
455,-650,9.85828,25.6963,-0.000527239,-0.0140328,0.00371238,0.00042594,-0.014986,0.251328,0.0101356,0.0457954,1679,1674,9.85829,-25.6963
462,-650,10.0143,25.5444,-8.22396e-05,-0.0137562,0.0038617,0.000932981,-0.0147714,0.257078,0.0101728,0.0480432,1686,1674,10.0142,-25.5444
469,-650,10.4359,25.5629,0,0,0,0,0,0,0,-1,1693,1674,10.4359,-25.5629
476,-650,10.0289,24.4348,0,0,0,0,0,0,0,-1,1700,1674,10.0289,-24.4349
483,-650,10.2426,24.5127,0,0,0,0,0,0,0,-1,1707,1674,10.2425,-24.5127
490,-650,10.4818,24.3475,0,0,0,0,0,0,0,-1,1714,1674,10.4818,-24.3475
497,-650,10.4985,20.1362,0,0,0,0,0,0,0,-1,1721,1674,10.4986,-20.1362
504,-650,9.69458,18.7721,0,0,0,0,0,0,0,-1,1728,1674,9.6946,-18.772
511,-650,9.37158,17.7506,0,0,0,0,0,0,0,-1,1735,1674,9.37159,-17.7506
518,-650,0,0,0,0,0,0,0,0,0,-1,1742,1674,0,0
525,-650,0,0,0,0,0,0,0,0,0,-1,1749,1674,0,0
532,-650,0,0,0,0,0,0,0,0,0,-1,1756,1674,0,0
539,-650,0,0,0,0,0,0,0,0,0,-1,1763,1674,0,0
546,-650,0,0,0,0,0,0,0,0,0,-1,1770,1674,0,0
553,-650,0,0,0,0,0,0,0,0,0,-1,1777,1674,0,0
560,-650,0,0,0,0,0,0,0,0,0,-1,1784,1674,0,0
567,-650,0,0,0,0,0,0,0,0,0,-1,1791,1674,0,0
574,-650,0,0,0,0,0,0,0,0,0,-1,1798,1674,0,0
581,-650,0,0,0,0,0,0,0,0,0,-1,1805,1674,0,0
588,-650,0,0,0,0,0,0,0,0,0,-1,1812,1674,0,0
595,-650,0,0,0,0,0,0,0,0,0,-1,1819,1674,0,0
602,-650,0,0,0,0,0,0,0,0,0,-1,1826,1674,0,0
609,-650,0,0,0,0,0,0,0,0,0,-1,1833,1674,0,0
616,-650,0,0,0,0,0,0,0,0,0,-1,1840,1674,0,0
623,-650,0,0,0,0,0,0,0,0,0,-1,1847,1674,0,0
630,-650,0,0,0,0,0,0,0,0,0,-1,1854,1674,0,0
637,-650,0,0,0,0,0,0,0,0,0,-1,1861,1674,0,0
644,-650,0,0,0,0,0,0,0,0,0,-1,1868,1674,0,0
651,-650,0,0,0,0,0,0,0,0,0,-1,1875,1674,0,0
658,-650,0,0,0,0,0,0,0,0,0,-1,1882,1674,0,0
665,-650,0,0,0,0,0,0,0,0,0,-1,1889,1674,0,0
672,-650,0,0,0,0,0,0,0,0,0,-1,1896,1674,0,0
679,-650,0,0,0,0,0,0,0,0,0,-1,1903,1674,0,0
686,-650,0,0,0,0,0,0,0,0,0,-1,1910,1674,0,0
693,-650,0,0,0,0,0,0,0,0,0,-1,1917,1674,0,0
700,-650,0,0,0,0,0,0,0,0,0,-1,1924,1674,0,0
707,-650,0,0,0,0,0,0,0,0,0,-1,1931,1674,0,0
714,-650,0,0,0,0,0,0,0,0,0,-1,1938,1674,0,0
721,-650,0,0,0,0,0,0,0,0,0,-1,1945,1674,0,0
728,-650,0,0,0,0,0,0,0,0,0,-1,1952,1674,0,0
735,-650,0,0,0,0,0,0,0,0,0,-1,1959,1674,0,0
742,-650,0,0,0,0,0,0,0,0,0,-1,1966,1674,0,0
749,-650,0,0,0,0,0,0,0,0,0,-1,1973,1674,0,0
756,-650,0,0,0,0,0,0,0,0,0,-1,1980,1674,0,0
763,-650,0,0,0,0,0,0,0,0,0,-1,1987,1674,0,0
770,-650,0,0,0,0,0,0,0,0,0,-1,1994,1674,0,0
777,-650,0,0,0,0,0,0,0,0,0,-1,2001,1674,0,0
784,-650,0,0,0,0,0,0,0,0,0,-1,2008,1674,0,0
791,-650,0,0,0,0,0,0,0,0,0,-1,2015,1674,0,0
798,-650,0,0,0,0,0,0,0,0,0,-1,2022,1674,0,0
805,-650,0,0,0,0,0,0,0,0,0,-1,2029,1674,0,0
812,-650,0,0,0,0,0,0,0,0,0,-1,2036,1674,0,0
-700,-657,0,0,0,0,0,0,0,0,0,-1,524,1681,0,0
-693,-657,0,0,0,0,0,0,0,0,0,-1,531,1681,0,0
-686,-657,0,0,0,0,0,0,0,0,0,-1,538,1681,0,0
-679,-657,0,0,0,0,0,0,0,0,0,-1,545,1681,0,0
-672,-657,0,0,0,0,0,0,0,0,0,-1,552,1681,0,0
-665,-657,0,0,0,0,0,0,0,0,0,-1,559,1681,0,0
-658,-657,0,0,0,0,0,0,0,0,0,-1,566,1681,0,0
-651,-657,0,0,0,0,0,0,0,0,0,-1,573,1681,0,0
-644,-657,0,0,0,0,0,0,0,0,0,-1,580,1681,0,0
-637,-657,0,0,0,0,0,0,0,0,0,-1,587,1681,0,0
-630,-657,0,0,0,0,0,0,0,0,0,-1,594,1681,0,0
-623,-657,0,0,0,0,0,0,0,0,0,-1,601,1681,0,0
-616,-657,0,0,0,0,0,0,0,0,0,-1,608,1681,0,0
-609,-657,0,0,0,0,0,0,0,0,0,-1,615,1681,0,0
-602,-657,0,0,0,0,0,0,0,0,0,-1,622,1681,0,0
-595,-657,0,0,0,0,0,0,0,0,0,-1,629,1681,0,0
-588,-657,0,0,0,0,0,0,0,0,0,-1,636,1681,0,0
-581,-657,0,0,0,0,0,0,0,0,0,-1,643,1681,0,0
-574,-657,0,0,0,0,0,0,0,0,0,-1,650,1681,0,0
-567,-657,0,0,0,0,0,0,0,0,0,-1,657,1681,0,0
-560,-657,0,0,0,0,0,0,0,0,0,-1,664,1681,0,0
-553,-657,0,0,0,0,0,0,0,0,0,-1,671,1681,0,0
-546,-657,0,0,0,0,0,0,0,0,0,-1,678,1681,0,0
-539,-657,0,0,0,0,0,0,0,0,0,-1,685,1681,0,0
-532,-657,0,0,0,0,0,0,0,0,0,-1,692,1681,0,0
-525,-657,0,0,0,0,0,0,0,0,0,-1,699,1681,0,0
-518,-657,0,0,0,0,0,0,0,0,0,-1,706,1681,0,0
-511,-657,0,0,0,0,0,0,0,0,0,-1,713,1681,0,0
-504,-657,0,0,0,0,0,0,0,0,0,-1,720,1681,0,0
-497,-657,0,0,0,0,0,0,0,0,0,-1,727,1681,0,0
-490,-657,0,0,0,0,0,0,0,0,0,-1,734,1681,0,0
-483,-657,0,0,0,0,0,0,0,0,0,-1,741,1681,0,0
-476,-657,0,0,0,0,0,0,0,0,0,-1,748,1681,0,0
-469,-657,0,0,0,0,0,0,0,0,0,-1,755,1681,0,0
-462,-657,0,0,0,0,0,0,0,0,0,-1,762,1681,0,0
-455,-657,0,0,0,0,0,0,0,0,0,-1,769,1681,0,0
-448,-657,0,0,0,0,0,0,0,0,0,-1,776,1681,0,0
-441,-657,0,0,0,0,0,0,0,0,0,-1,783,1681,0,0
-434,-657,0,0,0,0,0,0,0,0,0,-1,790,1681,0,0
-427,-657,0,0,0,0,0,0,0,0,0,-1,797,1681,0,0
-420,-657,0,0,0,0,0,0,0,0,0,-1,804,1681,0,0
-413,-657,0,0,0,0,0,0,0,0,0,-1,811,1681,0,0
-406,-657,0,0,0,0,0,0,0,0,0,-1,818,1681,0,0
-399,-657,0,0,0,0,0,0,0,0,0,-1,825,1681,0,0
-392,-657,0,0,0,0,0,0,0,0,0,-1,832,1681,0,0
-385,-657,1.09814,6.18896,0,0,0,0,0,0,0,-1,839,1681,1.09814,-6.18894
-378,-657,0.31488,4.46753,0,0,0,0,0,0,0,-1,846,1681,0.31487,-4.46755
-371,-657,-0.519043,2.69421,0,0,0,0,0,0,0,-1,853,1681,-0.519064,-2.69422
-364,-657,-3.42017,4.18323,0,0,0,0,0,0,0,-1,860,1681,-3.42019,-4.18319
-357,-657,-4.41913,2.97168,0,0,0,0,0,0,0,-1,867,1681,-4.41913,-2.97165
-350,-657,-5.42291,1.70276,0,0,0,0,0,0,0,-1,874,1681,-5.42291,-1.70277
-343,-657,-6.51294,0.397339,0,0,0,0,0,0,0,-1,881,1681,-6.51295,-0.397335
-336,-657,7.12177,22.8324,0,0,0,0,0,0,0,-1,888,1681,7.12179,-22.8324
-329,-657,5.40112,23.7924,0,0,0,0,0,0,0,-1,895,1681,5.40112,-23.7924
-322,-657,5.51843,25.0067,0,0,0,0,0,0,0,-1,902,1681,5.51844,-25.0067
-315,-657,6.21814,25.5162,-0.0152689,-0.00281372,-0.0105728,0.00322922,-0.0213119,-1.05155,0.0153976,0.041469,909,1681,6.21815,-25.5163
-308,-657,5.84009,25.8209,-0.0145268,-0.00152435,-0.00916258,0.00320914,-0.0192603,-1.09395,0.0140328,0.0389394,916,1681,5.84012,-25.8209
-301,-657,5.39941,26.1602,-0.01334,-0.000895403,-0.00768499,0.00277047,-0.0170059,-1.1257,0.0123647,0.0320366,923,1681,5.39941,-26.1601
-294,-657,5.31805,26.5023,-0.011724,-0.000544449,-0.00633033,0.00231082,-0.0145792,-1.14707,0.0105743,0.0214124,930,1681,5.31803,-26.5023
-287,-657,5.28619,26.8494,-0.010035,-0.000336344,-0.0051029,0.00185389,-0.0122253,-1.16536,0.00883324,0.0148327,937,1681,5.28619,-26.8494
-280,-657,5.25391,27.1934,-0.00840294,-0.000145999,-0.00388499,0.00139452,-0.00994345,-1.19328,0.00713935,0.01502,944,1681,5.25394,-27.1934
-273,-657,5.24683,27.5945,-0.006727,-3.44442e-05,-0.00287656,0.00103201,-0.00779345,-1.21577,0.00557159,0.0107442,951,1681,5.24685,-27.5944
-266,-657,5.22571,27.9822,-0.00515826,0.000178773,-0.00195272,0.000816933,-0.00579642,-1.25493,0.0041634,0.0143906,958,1681,5.22568,-27.9822
-259,-657,5.21948,28.3146,-0.00358916,0.000275521,-0.000887187,0.000469455,-0.00378309,-1.35559,0.00269222,0.018342,965,1681,5.21951,-28.3145
-252,-657,5.19666,28.6893,-0.00223788,0.00043317,-0.000206389,0.000449023,-0.00225373,-1.49413,0.00167238,0.0129774,972,1681,5.19668,-28.6893
-245,-657,5.22125,29.0526,-0.00118741,0.000568171,0.000171189,0.000584707,-0.00120395,1.47449,0.00105311,0.0153393,979,1681,5.22125,-29.0526
-238,-657,5.21698,29.401,-0.000253446,0.000511217,0.000578635,0.000822424,-0.000564653,1.07735,0.000805426,0.020877,986,1681,5.21701,-29.401
-231,-657,5.19147,29.7837,0.000486747,0.000605708,0.000858909,0.00140719,-0.000314739,0.819969,0.00105875,0.0205416,993,1681,5.19147,-29.7836
-224,-657,5.18573,30.1355,0.000979787,0.00111738,0.00109043,0.00214119,-4.40164e-05,0.816903,0.00144235,0.0149341,1000,1681,5.18575,-30.1355
-217,-657,5.18945,30.4631,0.00118763,0.00163475,0.00116874,0.00260112,0.000221261,0.879899,0.00166523,0.0100969,1007,1681,5.18947,-30.4631
-210,-657,5.19025,30.7772,0.00146501,0.00200728,0.00123742,0.00300292,0.000469368,0.893249,0.00186528,0.0108155,1014,1681,5.19026,-30.7772
-203,-657,5.1969,31.0934,0.00172193,0.002437,0.0012557,0.00338507,0.000773851,0.924093,0.00204809,0.0127905,1021,1681,5.19688,-31.0934
-196,-657,5.21509,31.3915,0.001833,0.00303087,0.00132696,0.00388781,0.000976071,0.99739,0.00233552,0.0135728,1028,1681,5.21514,-31.3915
-189,-657,5.21704,31.7233,0.00186837,0.00389268,0.00140688,0.00461367,0.00114739,1.09722,0.00277359,0.0104106,1035,1681,5.21702,-31.7232
-182,-657,5.21753,32.0354,0.00197168,0.00468356,0.0014436,0.00530817,0.00134707,1.16245,0.00318613,0.00851556,1042,1681,5.21751,-32.0354
-175,-657,5.21948,32.329,0.00208254,0.00555489,0.00154168,0.00614058,0.00149685,1.20773,0.00369719,0.0108624,1049,1681,5.21948,-32.3289
-168,-657,5.2002,32.6351,0.00222209,0.00668608,0.00175533,0.00729362,0.00161455,1.23759,0.00442356,0.0132951,1056,1681,5.20015,-32.6351
-161,-657,5.21484,32.9343,0.00236962,0.00807627,0.00201882,0.00871824,0.00172765,1.26291,0.00533043,0.0129157,1063,1681,5.21488,-32.9343
-154,-657,5.28394,33.1924,0.00255159,0.00965265,0.00235056,0.0103602,0.00184402,1.2784,0.00638157,0.0129379,1070,1681,5.28389,-33.1924
-147,-657,5.29248,33.5055,0.00276437,0.0115075,0.00255486,0.0121993,0.00207255,1.30635,0.00753761,0.0244466,1077,1681,5.29247,-33.5055
-140,-657,5.21118,34.0343,0.00298566,0.0136071,0.00281032,0.0143049,0.00228791,1.32744,0.00887282,0.0478214,1084,1681,5.2112,-34.0344
-133,-657,5.27197,34.6222,0,0,0,0,0,0,0,-1,1091,1681,5.27203,-34.6221
-126,-657,5.42749,34.8584,0,0,0,0,0,0,0,-1,1098,1681,5.42755,-34.8584
-119,-657,5.47937,35.3042,0,0,0,0,0,0,0,-1,1105,1681,5.47931,-35.3043
-112,-657,4.6051,21.3439,0,0,0,0,0,0,0,-1,1112,1681,4.60512,-21.3438
-105,-657,3.82434,14.4906,0,0,0,0,0,0,0,-1,1119,1681,3.8244,-14.4906
-98,-657,3.78662,8.16785,0,0,0,0,0,0,0,-1,1126,1681,3.78663,-8.16786
-91,-657,3.6521,16.6017,0,0,0,0,0,0,0,-1,1133,1681,3.65215,-16.6017
-84,-657,4.08008,10.4579,0,0,0,0,0,0,0,-1,1140,1681,4.08006,-10.4579
-77,-657,-5.29846,0.396606,0,0,0,0,0,0,0,-1,1147,1681,-5.29842,-0.396573
-70,-657,-4.14893,2.14575,0,0,0,0,0,0,0,-1,1154,1681,-4.14893,-2.1458
-63,-657,-4.1239,3.177,0,0,0,0,0,0,0,-1,1161,1681,-4.12391,-3.17698
-56,-657,-6.40576,5.73987,0,0,0,0,0,0,0,-1,1168,1681,-6.40577,-5.7399
-49,-657,-5.98462,7.54053,0,0,0,0,0,0,0,-1,1175,1681,-5.98466,-7.5405
-42,-657,-5.71948,9.28955,0,0,0,0,0,0,0,-1,1182,1681,-5.71951,-9.2895
-35,-657,-5.44556,11.015,0,0,0,0,0,0,0,-1,1189,1681,-5.44555,-11.015
-28,-657,-1.3446,8.92847,0,0,0,0,0,0,0,-1,1196,1681,-1.34459,-8.92848
-21,-657,8.87,38.6543,0,0,0,0,0,0,0,-1,1203,1681,8.87003,-38.6543
-14,-657,8.76648,38.7965,0.116447,0.07904,0.0796887,0.179598,0.0158893,0.670131,0.114802,0.0485071,1210,1681,8.76643,-38.7965
-7,-657,8.60962,38.9297,0.0900574,0.0769511,0.0726674,0.156467,0.010542,0.74043,0.100981,0.0471825,1217,1681,8.60962,-38.9297
0,-657,8.31836,39.1823,0.0610003,0.0758029,0.0640454,0.132873,0.00392994,0.842925,0.0873016,0.0479693,1224,1681,8.31839,-39.1822
7,-657,8.09302,39.426,0.0342379,0.0754828,0.0532185,0.111935,-0.00221416,0.970242,0.0753721,0.0471702,1231,1681,8.09298,-39.4261
14,-657,7.86572,39.605,0.0132981,0.0769209,0.0417351,0.097586,-0.00736701,1.11104,0.0676469,0.045847,1238,1681,7.86578,-39.605
21,-657,7.59802,39.735,-0.00143599,0.0787752,0.0299368,0.0887163,-0.0113771,1.25018,0.0632784,0.049,1245,1681,7.59807,-39.735
28,-657,7.35693,39.9147,0,0,0,0,0,0,0,-1,1252,1681,7.35687,-39.9147
35,-657,7.58984,39.7979,-0.0131879,0.0864294,0.00882239,0.0872047,-0.0139632,1.48314,0.0633063,0.040495,1259,1681,7.5899,-39.7978
42,-657,6.37744,41.4537,-0.00993366,0.0936142,0.00143636,0.0936342,-0.00995359,1.55693,0.0659913,0.0438099,1266,1681,6.37743,-41.4537
49,-657,5.92505,38.656,-0.00770615,0.0999481,-0.00728586,0.100439,-0.008197,-1.50353,0.0698521,0.0432266,1273,1681,5.92507,-38.6559
56,-657,5.09961,37.8771,-0.00222992,0.10442,-0.0159893,0.106766,-0.00457549,-1.42514,0.0727502,0.0471925,1280,1681,5.09962,-37.8771
63,-657,7.02625,41.2087,0.00676373,0.108589,-0.0204538,0.112544,0.00280877,-1.37979,0.074111,0.0498647,1287,1681,7.02619,-41.2087
70,-657,6.89844,40.2815,0.0182861,0.111261,-0.024298,0.117228,0.0123191,-1.32998,0.0743865,0.0483412,1294,1681,6.89838,-40.2814
77,-657,7.08472,39.3203,0.024161,0.108513,-0.0282139,0.11708,0.0155941,-1.276,0.0734093,0.0443966,1301,1681,7.08477,-39.3203
84,-657,7.43347,38.4791,0.0259375,0.1038,-0.0324284,0.115537,0.0142008,-1.22353,0.0727542,0.0467394,1308,1681,7.43344,-38.4792
91,-657,8.68237,38.1276,0.0253038,0.0959345,-0.0371911,0.111906,0.0093322,-1.16517,0.0716961,0.0466914,1315,1681,8.68235,-38.1276
98,-657,9.31458,37.2677,0,0,0,0,0,0,0,-1,1322,1681,9.31454,-37.2676
105,-657,5.66187,36.7947,0.0200261,0.0780752,-0.0435134,0.101356,-0.0032546,-1.07952,0.0686812,0.0444092,1329,1681,5.66186,-36.7946
112,-657,5.43054,35.8551,0.01188,0.0665171,-0.0469179,0.0934903,-0.0150932,-1.04904,0.0679192,0.0424913,1336,1681,5.43053,-35.855
119,-657,4.94165,34.9583,0,0,0,0,0,0,0,-1,1343,1681,4.9417,-34.9582
126,-657,4.63464,34.0018,0,0,0,0,0,0,0,-1,1350,1681,4.63464,-34.0018
133,-657,5.7688,33.7339,-0.00632993,0.0345086,-0.0566232,0.0742818,-0.0461031,-0.958449,0.0701361,0.0464539,1357,1681,5.76881,-33.7339
140,-657,5.76404,33.6748,-0.00915869,0.028427,-0.0577205,0.0703369,-0.0510686,-0.942778,0.0703872,0.0440947,1364,1681,5.76398,-33.6749
147,-657,5.00366,32.8431,0,0,0,0,0,0,0,-1,1371,1681,5.00362,-32.8431
154,-657,8.67053,33.0646,0,0,0,0,0,0,0,-1,1378,1681,8.67055,-33.0646
161,-657,4.2926,24.9226,0,0,0,0,0,0,0,-1,1385,1681,4.29264,-24.9226
168,-657,5.21643,0.70105,0,0,0,0,0,0,0,-1,1392,1681,5.21648,-0.7011
175,-657,5.52771,0.649048,0,0,0,0,0,0,0,-1,1399,1681,5.52774,-0.649019
182,-657,5.73999,1.02612,0,0,0,0,0,0,0,-1,1406,1681,5.73995,-1.02611
189,-657,5.92126,1.44116,0,0,0,0,0,0,0,-1,1413,1681,5.92126,-1.44115
196,-657,4.92834,9.59021,0,0,0,0,0,0,0,-1,1420,1681,4.9284,-9.59018
203,-657,6.26343,5.16492,0,0,0,0,0,0,0,-1,1427,1681,6.26345,-5.16488
210,-657,3.9856,5.28088,0,0,0,0,0,0,0,-1,1434,1681,3.98555,-5.28084
217,-657,3.95178,5.2843,0,0,0,0,0,0,0,-1,1441,1681,3.95174,-5.28431
224,-657,6.66736,-0.250244,0,0,0,0,0,0,0,-1,1448,1681,6.66737,0.250229
231,-657,6.85498,-1.70752,0,0,0,0,0,0,0,-1,1455,1681,6.855,1.70758
238,-657,5.34143,-2.89819,0,0,0,0,0,0,0,-1,1462,1681,5.34143,2.89813
245,-657,8.66003,-0.102783,0,0,0,0,0,0,0,-1,1469,1681,8.66,0.102824
252,-657,4.78955,0.623779,0,0,0,0,0,0,0,-1,1476,1681,4.7895,-0.623826
259,-657,2.61523,4.31909,0,0,0,0,0,0,0,-1,1483,1681,2.61523,-4.31908
266,-657,5.35437,11.4742,0,0,0,0,0,0,0,-1,1490,1681,5.35441,-11.4742
273,-657,10.3086,34.0651,0,0,0,0,0,0,0,-1,1497,1681,10.3085,-34.065
280,-657,9.85767,33.8123,0,0,0,0,0,0,0,-1,1504,1681,9.85769,-33.8122
287,-657,9.61841,33.3627,0,0,0,0,0,0,0,-1,1511,1681,9.61843,-33.3627
294,-657,9.77625,33.1106,0.00333393,0.00204532,0.000198106,0.0033637,0.00201555,0.14915,0.00195473,0.0328545,1518,1681,9.77619,-33.1106
301,-657,9.78284,32.8561,0.00315473,0.00203854,0.000127884,0.00316919,0.00202408,0.112627,0.00185304,0.0191253,1525,1681,9.78282,-32.8561
308,-657,9.81104,32.5977,0.00290488,0.00196181,0.000105379,0.00291651,0.00195018,0.109934,0.00171549,0.0136321,1532,1681,9.81101,-32.5977
315,-657,9.83508,32.2877,0.00263978,0.0021249,-1.46076e-05,0.0026402,0.00212448,-0.0283401,0.0016159,0.0117765,1539,1681,9.83507,-32.2878
322,-657,9.86768,31.9659,0.00235364,0.00214538,-4.10232e-05,0.00236143,0.00213759,-0.187643,0.00150523,0.013456,1546,1681,9.86763,-31.966
329,-657,9.88354,31.6357,0.00211054,0.00225945,-0.000159386,0.00236091,0.00200908,-1.0039,0.00147076,0.0192602,1553,1681,9.88356,-31.6358
336,-657,9.88586,31.363,0.00189332,0.0022558,-0.000236217,0.0023723,0.00177682,-1.11263,0.00142513,0.0171243,1560,1681,9.8859,-31.3631
343,-657,9.88721,31.1079,0.00167123,0.0021431,-0.000295865,0.00228559,0.00152875,-1.12199,0.00134444,0.0137744,1567,1681,9.88726,-31.1079
350,-657,9.87036,30.8279,0.00151091,0.00187964,-0.000398229,0.00213411,0.00125644,-1.00219,0.00123858,0.0150482,1574,1681,9.87036,-30.8278
357,-657,9.86414,30.5044,0.00131895,0.00134895,-0.000407536,0.00174176,0.000926139,-0.803796,0.00100628,0.0140554,1581,1681,9.86417,-30.5045
364,-657,9.88062,30.1718,0.00109911,0.000307421,-0.000251368,0.00117218,0.000234353,-0.282884,0.000716232,0.0111167,1588,1681,9.88063,-30.1718
371,-657,9.87146,29.8718,0.000904173,-0.0007675,-6.08383e-05,0.000906384,-0.000769711,-0.0363296,0.000968766,0.0155959,1595,1681,9.87149,-29.8719
378,-657,9.84485,29.5273,0.000710334,-0.00204028,0.00018334,0.0007225,-0.00205244,0.0662637,0.00166232,0.0145904,1602,1681,9.8449,-29.5273
385,-657,9.83557,29.1848,0.000499653,-0.00357232,0.000492382,0.000558345,-0.00363102,0.118642,0.00262665,0.0124657,1609,1681,9.8356,-29.1848
392,-657,9.83655,28.8589,0.000159817,-0.00550872,0.000922265,0.000306094,-0.005655,0.157296,0.00387606,0.0126929,1616,1681,9.83654,-28.8589
399,-657,9.84851,28.5095,-0.000288622,-0.00754627,0.00137521,-3.67803e-05,-0.00779811,0.181123,0.00518652,0.0129216,1623,1681,9.84849,-28.5096
406,-657,9.8313,28.168,-0.000654466,-0.00954553,0.00196892,-0.00023796,-0.00996203,0.208467,0.00656347,0.0138992,1630,1681,9.83131,-28.1679
413,-657,9.80176,27.7854,-0.000819181,-0.0117126,0.00262473,-0.000219745,-0.012312,0.224529,0.00813575,0.0135679,1637,1681,9.80181,-27.7854
420,-657,9.81482,27.4286,-0.0010317,-0.0135414,0.00315107,-0.000282803,-0.0142903,0.233334,0.00943401,0.0156261,1644,1681,9.8148,-27.4286
427,-657,9.80798,27.0599,-0.00113366,-0.0153725,0.00380092,-0.000182569,-0.0163236,0.245192,0.010822,0.0205718,1651,1681,9.80801,-27.0599
434,-657,9.84546,26.7495,-0.00130589,-0.0164583,0.00426441,-0.000188181,-0.017576,0.256335,0.0116551,0.029359,1658,1681,9.8455,-26.7496
441,-657,9.77026,26.6549,-0.00122124,-0.0177279,0.00482266,8.44849e-05,-0.0190336,0.264409,0.0127173,0.0486511,1665,1681,9.77023,-26.655
448,-657,9.73462,26.517,0,0,0,0,0,0,0,-1,1672,1681,9.73461,-26.517
455,-657,9.28943,25.8259,0,0,0,0,0,0,0,-1,1679,1681,9.2894,-25.826
462,-657,9.10596,25.4651,0,0,0,0,0,0,0,-1,1686,1681,9.10594,-25.465
469,-657,9.70483,21.9269,0,0,0,0,0,0,0,-1,1693,1681,9.70488,-21.9269
476,-657,8.9519,20.5712,0,0,0,0,0,0,0,-1,1700,1681,8.95194,-20.5712
483,-657,10.0663,21.8628,0,0,0,0,0,0,0,-1,1707,1681,10.0663,-21.8628
490,-657,11.6039,21.2185,0,0,0,0,0,0,0,-1,1714,1681,11.6038,-21.2185
497,-657,9.20862,17.8127,0,0,0,0,0,0,0,-1,1721,1681,9.2086,-17.8127
504,-657,0,0,0,0,0,0,0,0,0,-1,1728,1681,0,0
511,-657,0,0,0,0,0,0,0,0,0,-1,1735,1681,0,0
518,-657,0,0,0,0,0,0,0,0,0,-1,1742,1681,0,0
525,-657,0,0,0,0,0,0,0,0,0,-1,1749,1681,0,0
532,-657,0,0,0,0,0,0,0,0,0,-1,1756,1681,0,0
539,-657,0,0,0,0,0,0,0,0,0,-1,1763,1681,0,0
546,-657,0,0,0,0,0,0,0,0,0,-1,1770,1681,0,0
553,-657,0,0,0,0,0,0,0,0,0,-1,1777,1681,0,0
560,-657,0,0,0,0,0,0,0,0,0,-1,1784,1681,0,0
567,-657,0,0,0,0,0,0,0,0,0,-1,1791,1681,0,0
574,-657,0,0,0,0,0,0,0,0,0,-1,1798,1681,0,0
581,-657,0,0,0,0,0,0,0,0,0,-1,1805,1681,0,0
588,-657,0,0,0,0,0,0,0,0,0,-1,1812,1681,0,0
595,-657,0,0,0,0,0,0,0,0,0,-1,1819,1681,0,0
602,-657,0,0,0,0,0,0,0,0,0,-1,1826,1681,0,0
609,-657,0,0,0,0,0,0,0,0,0,-1,1833,1681,0,0
616,-657,0,0,0,0,0,0,0,0,0,-1,1840,1681,0,0
623,-657,0,0,0,0,0,0,0,0,0,-1,1847,1681,0,0
630,-657,0,0,0,0,0,0,0,0,0,-1,1854,1681,0,0
637,-657,0,0,0,0,0,0,0,0,0,-1,1861,1681,0,0
644,-657,0,0,0,0,0,0,0,0,0,-1,1868,1681,0,0
651,-657,0,0,0,0,0,0,0,0,0,-1,1875,1681,0,0
658,-657,0,0,0,0,0,0,0,0,0,-1,1882,1681,0,0
665,-657,0,0,0,0,0,0,0,0,0,-1,1889,1681,0,0
672,-657,0,0,0,0,0,0,0,0,0,-1,1896,1681,0,0
679,-657,0,0,0,0,0,0,0,0,0,-1,1903,1681,0,0
686,-657,0,0,0,0,0,0,0,0,0,-1,1910,1681,0,0
693,-657,0,0,0,0,0,0,0,0,0,-1,1917,1681,0,0
700,-657,0,0,0,0,0,0,0,0,0,-1,1924,1681,0,0
707,-657,0,0,0,0,0,0,0,0,0,-1,1931,1681,0,0
714,-657,0,0,0,0,0,0,0,0,0,-1,1938,1681,0,0
721,-657,0,0,0,0,0,0,0,0,0,-1,1945,1681,0,0
728,-657,0,0,0,0,0,0,0,0,0,-1,1952,1681,0,0
735,-657,0,0,0,0,0,0,0,0,0,-1,1959,1681,0,0
742,-657,0,0,0,0,0,0,0,0,0,-1,1966,1681,0,0
749,-657,0,0,0,0,0,0,0,0,0,-1,1973,1681,0,0
756,-657,0,0,0,0,0,0,0,0,0,-1,1980,1681,0,0
763,-657,0,0,0,0,0,0,0,0,0,-1,1987,1681,0,0
770,-657,0,0,0,0,0,0,0,0,0,-1,1994,1681,0,0
777,-657,0,0,0,0,0,0,0,0,0,-1,2001,1681,0,0
784,-657,0,0,0,0,0,0,0,0,0,-1,2008,1681,0,0
791,-657,0,0,0,0,0,0,0,0,0,-1,2015,1681,0,0
798,-657,0,0,0,0,0,0,0,0,0,-1,2022,1681,0,0
805,-657,0,0,0,0,0,0,0,0,0,-1,2029,1681,0,0
812,-657,0,0,0,0,0,0,0,0,0,-1,2036,1681,0,0
-700,-664,0,0,0,0,0,0,0,0,0,-1,524,1688,0,0
-693,-664,0,0,0,0,0,0,0,0,0,-1,531,1688,0,0
-686,-664,0,0,0,0,0,0,0,0,0,-1,538,1688,0,0
-679,-664,0,0,0,0,0,0,0,0,0,-1,545,1688,0,0
-672,-664,0,0,0,0,0,0,0,0,0,-1,552,1688,0,0
-665,-664,0,0,0,0,0,0,0,0,0,-1,559,1688,0,0
-658,-664,0,0,0,0,0,0,0,0,0,-1,566,1688,0,0
-651,-664,0,0,0,0,0,0,0,0,0,-1,573,1688,0,0
-644,-664,0,0,0,0,0,0,0,0,0,-1,580,1688,0,0
-637,-664,0,0,0,0,0,0,0,0,0,-1,587,1688,0,0
-630,-664,0,0,0,0,0,0,0,0,0,-1,594,1688,0,0
-623,-664,0,0,0,0,0,0,0,0,0,-1,601,1688,0,0
-616,-664,0,0,0,0,0,0,0,0,0,-1,608,1688,0,0
-609,-664,0,0,0,0,0,0,0,0,0,-1,615,1688,0,0
-602,-664,0,0,0,0,0,0,0,0,0,-1,622,1688,0,0
-595,-664,0,0,0,0,0,0,0,0,0,-1,629,1688,0,0
-588,-664,0,0,0,0,0,0,0,0,0,-1,636,1688,0,0
-581,-664,0,0,0,0,0,0,0,0,0,-1,643,1688,0,0
-574,-664,0,0,0,0,0,0,0,0,0,-1,650,1688,0,0
-567,-664,0,0,0,0,0,0,0,0,0,-1,657,1688,0,0
-560,-664,0,0,0,0,0,0,0,0,0,-1,664,1688,0,0
-553,-664,0,0,0,0,0,0,0,0,0,-1,671,1688,0,0
-546,-664,0,0,0,0,0,0,0,0,0,-1,678,1688,0,0
-539,-664,0,0,0,0,0,0,0,0,0,-1,685,1688,0,0
-532,-664,0,0,0,0,0,0,0,0,0,-1,692,1688,0,0
-525,-664,0,0,0,0,0,0,0,0,0,-1,699,1688,0,0
-518,-664,0,0,0,0,0,0,0,0,0,-1,706,1688,0,0
-511,-664,0,0,0,0,0,0,0,0,0,-1,713,1688,0,0
-504,-664,0,0,0,0,0,0,0,0,0,-1,720,1688,0,0
-497,-664,0,0,0,0,0,0,0,0,0,-1,727,1688,0,0
-490,-664,0,0,0,0,0,0,0,0,0,-1,734,1688,0,0
-483,-664,0,0,0,0,0,0,0,0,0,-1,741,1688,0,0
-476,-664,0,0,0,0,0,0,0,0,0,-1,748,1688,0,0
-469,-664,0,0,0,0,0,0,0,0,0,-1,755,1688,0,0
-462,-664,0,0,0,0,0,0,0,0,0,-1,762,1688,0,0
-455,-664,0,0,0,0,0,0,0,0,0,-1,769,1688,0,0
-448,-664,0,0,0,0,0,0,0,0,0,-1,776,1688,0,0
-441,-664,0,0,0,0,0,0,0,0,0,-1,783,1688,0,0
-434,-664,0,0,0,0,0,0,0,0,0,-1,790,1688,0,0
-427,-664,0,0,0,0,0,0,0,0,0,-1,797,1688,0,0
-420,-664,0,0,0,0,0,0,0,0,0,-1,804,1688,0,0
-413,-664,0,0,0,0,0,0,0,0,0,-1,811,1688,0,0
-406,-664,0,0,0,0,0,0,0,0,0,-1,818,1688,0,0
-399,-664,0,0,0,0,0,0,0,0,0,-1,825,1688,0,0
-392,-664,0,0,0,0,0,0,0,0,0,-1,832,1688,0,0
-385,-664,0,0,0,0,0,0,0,0,0,-1,839,1688,0,0
-378,-664,0,0,0,0,0,0,0,0,0,-1,846,1688,0,0
-371,-664,-1.61676,5.92737,0,0,0,0,0,0,0,-1,853,1688,-1.61675,-5.92735
-364,-664,-3.901,5.87024,0,0,0,0,0,0,0,-1,860,1688,-3.90097,-5.87027
-357,-664,-4.81012,4.53479,0,0,0,0,0,0,0,-1,867,1688,-4.81012,-4.5348
-350,-664,-5.7193,3.19934,0,0,0,0,0,0,0,-1,874,1688,-5.71927,-3.19932
-343,-664,7.80219,22.6451,0,0,0,0,0,0,0,-1,881,1688,7.80219,-22.6451
-336,-664,7.38434,23.2649,0,0,0,0,0,0,0,-1,888,1688,7.38432,-23.2649
-329,-664,6.86603,23.8273,0,0,0,0,0,0,0,-1,895,1688,6.86605,-23.8272
-322,-664,7.29065,25.3516,0,0,0,0,0,0,0,-1,902,1688,7.29064,-25.3516
-315,-664,7.16907,25.5598,0,0,0,0,0,0,0,-1,909,1688,7.16909,-25.5598
-308,-664,6.48975,26.1215,0,0,0,0,0,0,0,-1,916,1688,6.48975,-26.1214
-301,-664,5.79535,26.2732,0,0,0,0,0,0,0,-1,923,1688,5.79536,-26.2732
-294,-664,6.02069,26.4677,-0.0158473,-0.000169271,-0.00840349,0.00348383,-0.0195004,-1.16073,0.0143037,0.0475225,930,1688,6.0207,-26.4676
-287,-664,5.79706,26.8942,-0.0134502,-9.25033e-05,-0.00670825,0.00269478,-0.0162375,-1.177,0.011826,0.0347054,937,1688,5.79706,-26.8941
-280,-664,5.6272,27.2255,-0.0112039,3.79506e-05,-0.0050533,0.00197551,-0.0131415,-1.20466,0.00948829,0.0228259,944,1688,5.62719,-27.2255
-273,-664,5.59979,27.6016,-0.00901946,0.000116105,-0.00372859,0.00144468,-0.010348,-1.2285,0.00742723,0.0161075,951,1688,5.59977,-27.6016
-266,-664,5.58618,27.9774,-0.00707654,0.000289466,-0.00252496,0.00107188,-0.00785895,-1.27031,0.0056307,0.0212789,958,1688,5.58621,-27.9774
-259,-664,5.55719,28.342,-0.00519643,0.000196242,-0.00116827,0.000438459,-0.00543864,-1.36636,0.0037804,0.0185482,965,1688,5.55718,-28.342
-252,-664,5.56079,28.7073,-0.00360423,0.000228298,-0.000259198,0.000245748,-0.00362168,-1.50357,0.0025004,0.0160541,972,1688,5.56081,-28.7073
-245,-664,5.54962,29.0607,-0.00238632,0.000267877,0.000255405,0.00029223,-0.00241068,1.47573,0.00171286,0.0215005,979,1688,5.54962,-29.0607
-238,-664,5.54462,29.4257,-0.00132289,7.00887e-05,0.000802646,0.000436302,-0.00168911,1.14275,0.00129622,0.0249868,986,1688,5.54463,-29.4257
-231,-664,5.52979,29.7634,-0.000503966,1.17113e-06,0.00113471,0.000911083,-0.00141388,0.894905,0.00135274,0.0197826,993,1688,5.52979,-29.7635
-224,-664,5.53662,30.1377,9.68821e-05,0.000419987,0.0013739,0.0016418,-0.00112494,0.843923,0.00160664,0.0137537,1000,1688,5.53665,-30.1377
-217,-664,5.52338,30.4753,0.00040115,0.000800286,0.00145733,0.00207165,-0.000870217,0.853445,0.00174506,0.0107453,1007,1688,5.52335,-30.4754
-210,-664,5.51538,30.7944,0.000712952,0.00099994,0.00150563,0.0023689,-0.000656006,0.832907,0.00183739,0.0114978,1014,1688,5.51536,-30.7945
-203,-664,5.51392,31.103,0.0010056,0.00127944,0.00146349,0.0026124,-0.000327365,0.832041,0.00186035,0.0132461,1021,1688,5.51386,-31.103
-196,-664,5.52881,31.3972,0.00117926,0.00174367,0.00142875,0.00291782,5.10935e-06,0.882903,0.00194351,0.0136826,1028,1688,5.52887,-31.3973
-189,-664,5.51746,31.7356,0.00128804,0.00242446,0.00139373,0.00336135,0.000351147,0.978957,0.00213351,0.0102708,1035,1688,5.5174,-31.7355
-182,-664,5.51953,32.0237,0.00145056,0.00311037,0.00130345,0.00382569,0.000735238,1.06888,0.00234414,0.00966331,1042,1688,5.51948,-32.0237
-175,-664,5.53357,32.2848,0.00164216,0.00384019,0.00125217,0.00440724,0.00107511,1.14557,0.00265341,0.0126434,1049,1688,5.53362,-32.2848
-168,-664,5.52771,32.5853,0.00185508,0.00480928,0.00134769,0.0053317,0.00133266,1.20099,0.00320401,0.0135716,1056,1688,5.52775,-32.5854
-161,-664,5.52319,32.8849,0.00207562,0.0060583,0.00149402,0.00655645,0.00157747,1.24896,0.00395153,0.0105202,1063,1688,5.52314,-32.8849
-154,-664,5.57092,33.1534,0.0023334,0.00749233,0.00172387,0.00801535,0.00181039,1.27623,0.00485397,0.0110224,1070,1688,5.57094,-33.1534
-147,-664,5.57446,33.4387,0.00260523,0.00912283,0.00188573,0.0096291,0.00209896,1.30851,0.00584671,0.0158763,1077,1688,5.57451,-33.4387
-140,-664,5.59521,33.7628,0.00290486,0.0108988,0.00206495,0.0114007,0.00240297,1.33237,0.00693957,0.0207308,1084,1688,5.5952,-33.7628
-133,-664,5.54663,34.1045,0.00313576,0.0126853,0.0022168,0.0131748,0.00264625,1.35347,0.00804749,0.024624,1091,1688,5.54666,-34.1045
-126,-664,5.64844,34.3093,0,0,0,0,0,0,0,-1,1098,1688,5.64843,-34.3093
-119,-664,5.75098,34.843,0,0,0,0,0,0,0,-1,1105,1688,5.75098,-34.8431
-112,-664,5.74133,35.0913,0,0,0,0,0,0,0,-1,1112,1688,5.74139,-35.0913
-105,-664,4.48108,21.4276,0,0,0,0,0,0,0,-1,1119,1688,4.48104,-21.4276
-98,-664,6.6134,34.241,0,0,0,0,0,0,0,-1,1126,1688,6.61343,-34.241
-91,-664,5.41931,25.6302,0,0,0,0,0,0,0,-1,1133,1688,5.41932,-25.6302
-84,-664,3.48389,16.6913,0,0,0,0,0,0,0,-1,1140,1688,3.4839,-16.6913
-77,-664,4.52014,11.2122,0,0,0,0,0,0,0,-1,1147,1688,4.5202,-11.2122
-70,-664,4.20374,8.24524,0,0,0,0,0,0,0,-1,1154,1688,4.20379,-8.24519
-63,-664,-4.677,2.40503,0,0,0,0,0,0,0,-1,1161,1688,-4.67702,-2.40498
-56,-664,-4.66504,3.32727,0,0,0,0,0,0,0,-1,1168,1688,-4.6651,-3.32724
-49,-664,-2.54297,3.31848,0,0,0,0,0,0,0,-1,1175,1688,-2.54297,-3.31852
-42,-664,-0.359253,4.38684,0,0,0,0,0,0,0,-1,1182,1688,-0.359261,-4.38685
-35,-664,-0.705566,3.55017,0,0,0,0,0,0,0,-1,1189,1688,-0.705567,-3.55023
-28,-664,-1.54236,10.2538,0,0,0,0,0,0,0,-1,1196,1688,-1.54236,-10.2538
-21,-664,9.04651,37.6359,0,0,0,0,0,0,0,-1,1203,1688,9.04653,-37.6359
-14,-664,8.96362,37.8281,0.0786831,0.0693796,0.0595021,0.133715,0.0143477,0.746389,0.0847665,0.0470835,1210,1688,8.96365,-37.8282
-7,-664,8.94226,38.11,0.0604495,0.0679725,0.0547966,0.119137,0.00928541,0.819667,0.0765173,0.0479441,1217,1688,8.94227,-38.11
0,-664,8.39124,38.2452,0.0403321,0.0674946,0.0487243,0.104495,0.00333167,0.921316,0.0685798,0.048622,1224,1688,8.39126,-38.2453
7,-664,7.98608,38.8257,0.0215844,0.0678128,0.0408384,0.0916246,-0.00222733,1.04292,0.0618389,0.0484906,1231,1688,7.98608,-38.8257
14,-664,7.59863,38.911,0.00697129,0.0693389,0.0321909,0.0829735,-0.00666326,1.17015,0.0576652,0.045589,1238,1688,7.59865,-38.911
21,-664,7.51648,39.0958,-0.00310262,0.0713577,0.0229519,0.077864,-0.00960887,1.29457,0.0553908,0.0477927,1245,1688,7.51651,-39.0958
28,-664,7.35461,39.2729,0,0,0,0,0,0,0,-1,1252,1688,7.35459,-39.273
35,-664,7.30432,39.3519,-0.00986293,0.0782018,0.00564787,0.0785626,-0.0102237,1.50701,0.0560944,0.0410716,1259,1688,7.30436,-39.3519
42,-664,6.34009,40.373,-0.0062645,0.0845982,-0.000467148,0.0846006,-0.00626691,-1.56566,0.0586012,0.0437966,1266,1688,6.34013,-40.373
49,-664,6.35168,40.2609,-0.00334067,0.090022,-0.0075865,0.0906345,-0.00395312,-1.49024,0.0617829,0.045845,1273,1688,6.35166,-40.2609
56,-664,5.66101,37.4296,0.00171931,0.093587,-0.015136,0.0960166,-0.000710223,-1.41164,0.0642491,0.0490396,1280,1688,5.66096,-37.4296
63,-664,6.45313,39.8773,0,0,0,0,0,0,0,-1,1287,1688,6.45316,-39.8773
70,-664,6.60559,39.1229,0.0183245,0.0991993,-0.0226921,0.105131,0.0123926,-1.31511,0.0663436,0.0451831,1294,1688,6.60556,-39.1229
77,-664,6.78125,38.3185,0.0233063,0.0972714,-0.0260706,0.105537,0.0150408,-1.26378,0.0659188,0.0409298,1301,1688,6.78122,-38.3185
84,-664,7.13904,37.2123,0.0248757,0.0933063,-0.0294776,0.104253,0.0139289,-1.21522,0.0653558,0.0453446,1308,1688,7.13909,-37.2123
91,-664,7.46521,36.2549,0.0243683,0.086207,-0.0333353,0.100755,0.00982067,-1.15931,0.0641472,0.0459849,1315,1688,7.46521,-36.2549
98,-664,7.90332,35.3971,0,0,0,0,0,0,0,-1,1322,1688,7.90328,-35.397
105,-664,6.33008,39.1539,0,0,0,0,0,0,0,-1,1329,1688,6.33008,-39.154
112,-664,6.64221,39.0719,0,0,0,0,0,0,0,-1,1336,1688,6.64216,-39.0719
119,-664,7.46545,38.3358,0,0,0,0,0,0,0,-1,1343,1688,7.46546,-38.3358
126,-664,5.53357,35.8264,0,0,0,0,0,0,0,-1,1350,1688,5.53356,-35.8264
133,-664,6.51611,33.3295,0,0,0,0,0,0,0,-1,1357,1688,6.51607,-33.3295
140,-664,8.65076,36.5355,0,0,0,0,0,0,0,-1,1364,1688,8.65075,-36.5355
147,-664,7.83179,35.7971,0,0,0,0,0,0,0,-1,1371,1688,7.83184,-35.7971
154,-664,4.76721,26.2594,0,0,0,0,0,0,0,-1,1378,1688,4.76723,-26.2594
161,-664,4.60132,1.56238,0,0,0,0,0,0,0,-1,1385,1688,4.60134,-1.56233
168,-664,5.172,1.25488,0,0,0,0,0,0,0,-1,1392,1688,5.17203,-1.25484
175,-664,5.58313,1.16467,0,0,0,0,0,0,0,-1,1399,1688,5.58317,-1.16466
182,-664,5.74268,1.41113,0,0,0,0,0,0,0,-1,1406,1688,5.74263,-1.41115
189,-664,5.87744,1.87061,0,0,0,0,0,0,0,-1,1413,1688,5.87745,-1.87065
196,-664,6.7594,5.97473,0,0,0,0,0,0,0,-1,1420,1688,6.75943,-5.97478
203,-664,5.38452,5.22034,0,0,0,0,0,0,0,-1,1427,1688,5.38453,-5.2203
210,-664,5.25549,6.45715,0,0,0,0,0,0,0,-1,1434,1688,5.25549,-6.45721
217,-664,5.72009,6.73975,0,0,0,0,0,0,0,-1,1441,1688,5.72014,-6.73972
224,-664,5.05725,7.42908,0,0,0,0,0,0,0,-1,1448,1688,5.05723,-7.42912
231,-664,5.13318,7.60864,0,0,0,0,0,0,0,-1,1455,1688,5.13313,-7.60862
238,-664,4.23193,6.45471,0,0,0,0,0,0,0,-1,1462,1688,4.23197,-6.45476
245,-664,4.42004,6.80896,0,0,0,0,0,0,0,-1,1469,1688,4.4201,-6.80901
252,-664,3.67346,6.85461,0,0,0,0,0,0,0,-1,1476,1688,3.6734,-6.85462
259,-664,4.55823,11.7435,0,0,0,0,0,0,0,-1,1483,1688,4.55826,-11.7435
266,-664,9.22888,33.7457,0,0,0,0,0,0,0,-1,1490,1688,9.22889,-33.7457
273,-664,9.42615,33.7726,0,0,0,0,0,0,0,-1,1497,1688,9.4261,-33.7726
280,-664,9.43079,33.6128,0.00320097,0.000718978,-0.000150028,0.00321,0.000709942,-0.0601549,0.00194699,0.0312846,1504,1688,9.43077,-33.6128
287,-664,9.41626,33.35,0.00286786,0.000654484,9.14803e-05,0.00287163,0.000650709,0.0412369,0.0017386,0.0232727,1511,1688,9.41624,-33.35
294,-664,9.48047,33.1036,0.00260744,0.000840939,0.000123268,0.002616,0.000832378,0.0693331,0.00154327,0.0166069,1518,1688,9.48053,-33.1036
301,-664,9.53076,32.8475,0.00243433,0.00105555,3.76124e-05,0.00243535,0.00105453,0.0272525,0.00141025,0.0115887,1525,1688,9.53078,-32.8475
308,-664,9.55676,32.5769,0.00222273,0.001197,-1.89051e-05,0.00222308,0.00119665,-0.0184224,0.00128475,0.012042,1532,1688,9.55678,-32.5769
315,-664,9.56494,32.2786,0.00198986,0.00143782,-0.000101074,0.00200778,0.0014199,-0.175509,0.00119191,0.0123156,1539,1688,9.56496,-32.2785
322,-664,9.58691,31.9945,0.00173739,0.00157698,-0.000133035,0.00181253,0.00150184,-0.514122,0.00111926,0.0147756,1546,1688,9.58692,-31.9945
329,-664,9.578,31.7017,0.00150802,0.00163925,-0.000188353,0.00177309,0.00137418,-0.952996,0.00107407,0.0172052,1553,1688,9.578,-31.7016
336,-664,9.57043,31.4028,0.0013168,0.00157755,-0.000201811,0.00168744,0.00120691,-1.07219,0.00100388,0.0142879,1560,1688,9.57042,-31.4028
343,-664,9.55872,31.1198,0.00114222,0.00141815,-0.000184826,0.00151083,0.00104955,-1.10602,0.000894046,0.0108138,1567,1688,9.55872,-31.1197
350,-664,9.54443,30.8315,0.00103291,0.00102253,-0.00022233,0.00125011,0.000805328,-0.773728,0.000731689,0.0124802,1574,1688,9.54438,-30.8315
357,-664,9.54773,30.5068,0.000862858,0.000268376,-0.00014094,0.000894579,0.000236654,-0.221382,0.000535235,0.0130667,1581,1688,9.54776,-30.5069
364,-664,9.57104,30.1628,0.000644951,-0.00112561,0.000147928,0.000657225,-0.00113789,0.0827835,0.00104872,0.0118621,1588,1688,9.57108,-30.1628
371,-664,9.57007,29.8606,0.000490139,-0.00245125,0.000398433,0.000543155,-0.00250426,0.132282,0.00187694,0.01473,1595,1688,9.57013,-29.8606
378,-664,9.53992,29.5382,0.000326476,-0.00407095,0.000759785,0.00045405,-0.00419853,0.166356,0.00296199,0.0134128,1602,1688,9.53993,-29.5382
385,-664,9.52161,29.2075,0.000144746,-0.00591791,0.00116759,0.000361836,-0.006135,0.183831,0.00421579,0.0138043,1609,1688,9.52163,-29.2076
392,-664,9.47913,28.8875,-0.000203701,-0.00826247,0.00171925,0.000147757,-0.00861393,0.201646,0.0057925,0.016285,1616,1688,9.47914,-28.8874
399,-664,9.49072,28.5217,-0.000672318,-0.0107461,0.00227622,-0.000181872,-0.0112365,0.212221,0.00743115,0.0141023,1623,1688,9.49077,-28.5217
406,-664,9.50269,28.1746,-0.00105425,-0.0132557,0.00300046,-0.000356329,-0.0139536,0.228541,0.00918596,0.0133632,1630,1688,9.50269,-28.1745
413,-664,9.50159,27.7803,-0.00123409,-0.0160051,0.00383793,-0.000296405,-0.0169428,0.239625,0.0111977,0.0153329,1637,1688,9.50157,-27.7803
420,-664,9.52356,27.4622,-0.00150828,-0.0183782,0.00454112,-0.000363566,-0.019523,0.246934,0.0128958,0.0367891,1644,1688,9.52351,-27.4621
427,-664,9.58386,27.1426,0,0,0,0,0,0,0,-1,1651,1688,9.5839,-27.1425
434,-664,9.57397,26.6617,0,0,0,0,0,0,0,-1,1658,1688,9.57399,-26.6618
441,-664,9.33459,26.7552,0,0,0,0,0,0,0,-1,1665,1688,9.33462,-26.7553
448,-664,7.27502,19.7417,0,0,0,0,0,0,0,-1,1672,1688,7.27505,-19.7417
455,-664,7.53198,11.3838,0,0,0,0,0,0,0,-1,1679,1688,7.53195,-11.3838
462,-664,4.3147,4.25439,0,0,0,0,0,0,0,-1,1686,1688,4.31467,-4.25435
469,-664,6.05469,7.49341,0,0,0,0,0,0,0,-1,1693,1688,6.05474,-7.49339
476,-664,10.2377,22.7128,0,0,0,0,0,0,0,-1,1700,1688,10.2377,-22.7128
483,-664,8.41895,10.9768,0,0,0,0,0,0,0,-1,1707,1688,8.41897,-10.9769
490,-664,3.90771,13.2842,0,0,0,0,0,0,0,-1,1714,1688,3.90776,-13.2841
497,-664,0,0,0,0,0,0,0,0,0,-1,1721,1688,0,0
504,-664,0,0,0,0,0,0,0,0,0,-1,1728,1688,0,0
511,-664,0,0,0,0,0,0,0,0,0,-1,1735,1688,0,0
518,-664,0,0,0,0,0,0,0,0,0,-1,1742,1688,0,0
525,-664,0,0,0,0,0,0,0,0,0,-1,1749,1688,0,0
532,-664,0,0,0,0,0,0,0,0,0,-1,1756,1688,0,0
539,-664,0,0,0,0,0,0,0,0,0,-1,1763,1688,0,0
546,-664,0,0,0,0,0,0,0,0,0,-1,1770,1688,0,0
553,-664,0,0,0,0,0,0,0,0,0,-1,1777,1688,0,0
560,-664,0,0,0,0,0,0,0,0,0,-1,1784,1688,0,0
567,-664,0,0,0,0,0,0,0,0,0,-1,1791,1688,0,0
574,-664,0,0,0,0,0,0,0,0,0,-1,1798,1688,0,0
581,-664,0,0,0,0,0,0,0,0,0,-1,1805,1688,0,0
588,-664,0,0,0,0,0,0,0,0,0,-1,1812,1688,0,0
595,-664,0,0,0,0,0,0,0,0,0,-1,1819,1688,0,0
602,-664,0,0,0,0,0,0,0,0,0,-1,1826,1688,0,0
609,-664,0,0,0,0,0,0,0,0,0,-1,1833,1688,0,0
616,-664,0,0,0,0,0,0,0,0,0,-1,1840,1688,0,0
623,-664,0,0,0,0,0,0,0,0,0,-1,1847,1688,0,0
630,-664,0,0,0,0,0,0,0,0,0,-1,1854,1688,0,0
637,-664,0,0,0,0,0,0,0,0,0,-1,1861,1688,0,0
644,-664,0,0,0,0,0,0,0,0,0,-1,1868,1688,0,0
651,-664,0,0,0,0,0,0,0,0,0,-1,1875,1688,0,0
658,-664,0,0,0,0,0,0,0,0,0,-1,1882,1688,0,0
665,-664,0,0,0,0,0,0,0,0,0,-1,1889,1688,0,0
672,-664,0,0,0,0,0,0,0,0,0,-1,1896,1688,0,0
679,-664,0,0,0,0,0,0,0,0,0,-1,1903,1688,0,0
686,-664,0,0,0,0,0,0,0,0,0,-1,1910,1688,0,0
693,-664,0,0,0,0,0,0,0,0,0,-1,1917,1688,0,0
700,-664,0,0,0,0,0,0,0,0,0,-1,1924,1688,0,0
707,-664,0,0,0,0,0,0,0,0,0,-1,1931,1688,0,0
714,-664,0,0,0,0,0,0,0,0,0,-1,1938,1688,0,0
721,-664,0,0,0,0,0,0,0,0,0,-1,1945,1688,0,0
728,-664,0,0,0,0,0,0,0,0,0,-1,1952,1688,0,0
735,-664,0,0,0,0,0,0,0,0,0,-1,1959,1688,0,0
742,-664,0,0,0,0,0,0,0,0,0,-1,1966,1688,0,0
749,-664,0,0,0,0,0,0,0,0,0,-1,1973,1688,0,0
756,-664,0,0,0,0,0,0,0,0,0,-1,1980,1688,0,0
763,-664,0,0,0,0,0,0,0,0,0,-1,1987,1688,0,0
770,-664,0,0,0,0,0,0,0,0,0,-1,1994,1688,0,0
777,-664,0,0,0,0,0,0,0,0,0,-1,2001,1688,0,0
784,-664,0,0,0,0,0,0,0,0,0,-1,2008,1688,0,0
791,-664,0,0,0,0,0,0,0,0,0,-1,2015,1688,0,0
798,-664,0,0,0,0,0,0,0,0,0,-1,2022,1688,0,0
805,-664,0,0,0,0,0,0,0,0,0,-1,2029,1688,0,0
812,-664,0,0,0,0,0,0,0,0,0,-1,2036,1688,0,0
-700,-671,0,0,0,0,0,0,0,0,0,-1,524,1695,0,0
-693,-671,0,0,0,0,0,0,0,0,0,-1,531,1695,0,0
-686,-671,0,0,0,0,0,0,0,0,0,-1,538,1695,0,0
-679,-671,0,0,0,0,0,0,0,0,0,-1,545,1695,0,0
-672,-671,0,0,0,0,0,0,0,0,0,-1,552,1695,0,0
-665,-671,0,0,0,0,0,0,0,0,0,-1,559,1695,0,0
-658,-671,0,0,0,0,0,0,0,0,0,-1,566,1695,0,0
-651,-671,0,0,0,0,0,0,0,0,0,-1,573,1695,0,0
-644,-671,0,0,0,0,0,0,0,0,0,-1,580,1695,0,0
-637,-671,0,0,0,0,0,0,0,0,0,-1,587,1695,0,0
-630,-671,0,0,0,0,0,0,0,0,0,-1,594,1695,0,0
-623,-671,0,0,0,0,0,0,0,0,0,-1,601,1695,0,0
-616,-671,0,0,0,0,0,0,0,0,0,-1,608,1695,0,0
-609,-671,0,0,0,0,0,0,0,0,0,-1,615,1695,0,0
-602,-671,0,0,0,0,0,0,0,0,0,-1,622,1695,0,0
-595,-671,0,0,0,0,0,0,0,0,0,-1,629,1695,0,0
-588,-671,0,0,0,0,0,0,0,0,0,-1,636,1695,0,0
-581,-671,0,0,0,0,0,0,0,0,0,-1,643,1695,0,0
-574,-671,0,0,0,0,0,0,0,0,0,-1,650,1695,0,0
-567,-671,0,0,0,0,0,0,0,0,0,-1,657,1695,0,0
-560,-671,0,0,0,0,0,0,0,0,0,-1,664,1695,0,0
-553,-671,0,0,0,0,0,0,0,0,0,-1,671,1695,0,0
-546,-671,0,0,0,0,0,0,0,0,0,-1,678,1695,0,0
-539,-671,0,0,0,0,0,0,0,0,0,-1,685,1695,0,0
-532,-671,0,0,0,0,0,0,0,0,0,-1,692,1695,0,0
-525,-671,0,0,0,0,0,0,0,0,0,-1,699,1695,0,0
-518,-671,0,0,0,0,0,0,0,0,0,-1,706,1695,0,0
-511,-671,0,0,0,0,0,0,0,0,0,-1,713,1695,0,0
-504,-671,0,0,0,0,0,0,0,0,0,-1,720,1695,0,0
-497,-671,0,0,0,0,0,0,0,0,0,-1,727,1695,0,0
-490,-671,0,0,0,0,0,0,0,0,0,-1,734,1695,0,0
-483,-671,0,0,0,0,0,0,0,0,0,-1,741,1695,0,0
-476,-671,0,0,0,0,0,0,0,0,0,-1,748,1695,0,0
-469,-671,0,0,0,0,0,0,0,0,0,-1,755,1695,0,0
-462,-671,0,0,0,0,0,0,0,0,0,-1,762,1695,0,0
-455,-671,0,0,0,0,0,0,0,0,0,-1,769,1695,0,0
-448,-671,0,0,0,0,0,0,0,0,0,-1,776,1695,0,0
-441,-671,0,0,0,0,0,0,0,0,0,-1,783,1695,0,0
-434,-671,0,0,0,0,0,0,0,0,0,-1,790,1695,0,0
-427,-671,0,0,0,0,0,0,0,0,0,-1,797,1695,0,0
-420,-671,0,0,0,0,0,0,0,0,0,-1,804,1695,0,0
-413,-671,0,0,0,0,0,0,0,0,0,-1,811,1695,0,0
-406,-671,0,0,0,0,0,0,0,0,0,-1,818,1695,0,0
-399,-671,0,0,0,0,0,0,0,0,0,-1,825,1695,0,0
-392,-671,0,0,0,0,0,0,0,0,0,-1,832,1695,0,0
-385,-671,0,0,0,0,0,0,0,0,0,-1,839,1695,0,0
-378,-671,0,0,0,0,0,0,0,0,0,-1,846,1695,0,0
-371,-671,0,0,0,0,0,0,0,0,0,-1,853,1695,0,0
-364,-671,-4.18738,7.51416,0,0,0,0,0,0,0,-1,860,1695,-4.18739,-7.51419
-357,-671,-5.02393,6.07129,0,0,0,0,0,0,0,-1,867,1695,-5.0239,-6.07135
-350,-671,-5.72333,4.58386,0,0,0,0,0,0,0,-1,874,1695,-5.72333,-4.58386
-343,-671,8.04773,23.1034,0,0,0,0,0,0,0,-1,881,1695,8.04774,-23.1034
-336,-671,7.64795,23.7375,0,0,0,0,0,0,0,-1,888,1695,7.64792,-23.7375
-329,-671,7.2774,24.0865,0,0,0,0,0,0,0,-1,895,1695,7.27738,-24.0866
-322,-671,6.66992,24.359,0,0,0,0,0,0,0,-1,902,1695,6.66993,-24.359
-315,-671,8.08167,25.5764,0,0,0,0,0,0,0,-1,909,1695,8.08167,-25.5764
-308,-671,5.76251,23.4701,0,0,0,0,0,0,0,-1,916,1695,5.76252,-23.4701
-301,-671,6.99878,26.1143,0,0,0,0,0,0,0,-1,923,1695,6.9988,-26.1142
-294,-671,6.75122,26.238,-0.0210237,0.000867261,-0.0108177,0.00531094,-0.0254674,-1.18103,0.0189977,0.0494811,930,1695,6.75123,-26.2381
-287,-671,6.4469,26.5803,-0.0176413,0.00075086,-0.00853625,0.00410212,-0.0209925,-1.19669,0.0155439,0.0479067,937,1695,6.44689,-26.5804
-280,-671,6.17914,27.3875,-0.0144837,0.000734792,-0.00629848,0.00300338,-0.0167523,-1.22508,0.0122922,0.0397386,944,1695,6.17914,-27.3874
-273,-671,6.02472,27.698,-0.0115658,0.000693464,-0.00457097,0.00221015,-0.0130825,-1.25042,0.00954406,0.0321661,951,1695,6.02473,-27.698
-266,-671,5.98254,28.042,-0.00911555,0.000741773,-0.00300919,0.00158779,-0.00996157,-1.29673,0.00722867,0.0229123,958,1695,5.98257,-28.042
-259,-671,5.90295,28.3811,-0.00682637,0.000341518,-0.00131478,0.000575075,-0.00705992,-1.39499,0.00490955,0.0222505,965,1695,5.90292,-28.3811
-252,-671,5.89185,28.7239,-0.00491613,0.000154438,-0.000152956,0.000159048,-0.00492074,-1.54067,0.00333478,0.0176506,972,1695,5.89184,-28.7239
-245,-671,5.88153,29.0804,-0.00348377,2.59748e-05,0.000519113,0.000101145,-0.00355894,1.42699,0.00240705,0.0212777,979,1695,5.8815,-29.0805
-238,-671,5.88617,29.4543,-0.00226827,-0.000360982,0.00121352,0.000228768,-0.00285801,1.11842,0.001986,0.0221781,986,1695,5.88619,-29.4544
-231,-671,5.86945,29.8087,-0.00136188,-0.000701941,0.00159813,0.000599931,-0.00266375,0.887203,0.00200594,0.0158298,993,1695,5.86947,-29.8088
-224,-671,5.8443,30.137,-0.0006565,-0.000426968,0.00185981,0.00132161,-0.00240508,0.816213,0.0021817,0.0120011,1000,1695,5.84429,-30.1369
-217,-671,5.8446,30.457,-0.000286688,-0.00026258,0.00196339,0.00168879,-0.00223806,0.788468,0.00227455,0.0120965,1007,1695,5.84458,-30.457
-210,-671,5.83289,30.797,4.16459e-05,-0.000294808,0.00201277,0.0018932,-0.00214637,0.743705,0.00233377,0.0115537,1014,1695,5.83291,-30.797
-203,-671,5.81445,31.1058,0.000347583,-0.000186605,0.00192376,0.00202271,-0.00186173,0.71642,0.00224332,0.0189492,1021,1695,5.81441,-31.1059
-196,-671,5.81519,31.4296,0.000547845,0.000152257,0.00179835,0.00215925,-0.00145915,0.730625,0.00210207,0.0160859,1028,1695,5.81515,-31.4295
-189,-671,5.82825,31.7728,0.000688588,0.000701254,0.00166701,0.00236194,-0.000972098,0.787298,0.00197987,0.0125176,1035,1695,5.82828,-31.7728
-182,-671,5.81042,32.0476,0.00088709,0.00130547,0.00146816,0.00257927,-0.000386712,0.856163,0.00186185,0.0102974,1042,1695,5.81043,-32.0476
-175,-671,5.81555,32.3082,0.00112002,0.00194389,0.0012757,0.00287251,0.0001914,0.941568,0.0018545,0.0133425,1049,1695,5.81558,-32.3082
-168,-671,5.81592,32.5912,0.00135993,0.00283691,0.00125068,0.00355086,0.00064598,1.05209,0.00218399,0.0136049,1056,1695,5.81594,-32.5911
-161,-671,5.81116,32.8866,0.00161335,0.00403131,0.00126558,0.00457256,0.0010721,1.16666,0.00276128,0.00916436,1063,1695,5.81115,-32.8866
-154,-671,5.83435,33.1528,0.001895,0.00546453,0.00134392,0.00591394,0.0014456,1.24809,0.00355998,0.00912029,1070,1695,5.83439,-33.1529
-147,-671,5.84167,33.4414,0.00216839,0.00697757,0.00137754,0.0073442,0.00180176,1.31068,0.00441971,0.0109397,1077,1695,5.84164,-33.4414
-140,-671,5.87659,33.7052,0.00247235,0.00852305,0.00145628,0.0088553,0.0021401,1.34648,0.00533521,0.0134214,1084,1695,5.87661,-33.7052
-133,-671,5.88403,33.9355,0.00273732,0.00998364,0.00150886,0.0102853,0.00243569,1.37349,0.00620636,0.0174205,1091,1695,5.88403,-33.9356
-126,-671,5.93567,34.2642,0.00302571,0.0113088,0.00149539,0.0115705,0.00276401,1.39755,0.00697729,0.0242322,1098,1695,5.93564,-34.2642
-119,-671,6.03406,34.7017,0.00352499,0.0124634,0.00139803,0.012677,0.00331143,1.41921,0.00759217,0.0450525,1105,1695,6.03407,-34.7016
-112,-671,6.07361,35.2113,0,0,0,0,0,0,0,-1,1112,1695,6.07365,-35.2113
-105,-671,6.16614,35.4161,0,0,0,0,0,0,0,-1,1119,1695,6.16614,-35.4161
-98,-671,5.92981,35.472,0,0,0,0,0,0,0,-1,1126,1695,5.92983,-35.472
-91,-671,6.43408,34.7406,0,0,0,0,0,0,0,-1,1133,1695,6.43406,-34.7406
-84,-671,5.4209,26.2415,0,0,0,0,0,0,0,-1,1140,1695,5.42096,-26.2414
-77,-671,4.31763,16.489,0,0,0,0,0,0,0,-1,1147,1695,4.31757,-16.489
-70,-671,3.06067,10.7737,0,0,0,0,0,0,0,-1,1154,1695,3.0607,-10.7737
-63,-671,2.94592,6.90198,0,0,0,0,0,0,0,-1,1161,1695,2.94594,-6.90198
-56,-671,-3.07678,2.87976,0,0,0,0,0,0,0,-1,1168,1695,-3.07675,-2.87979
-49,-671,-1.05957,4.76917,0,0,0,0,0,0,0,-1,1175,1695,-1.05958,-4.76921
-42,-671,0.539307,3.7865,0,0,0,0,0,0,0,-1,1182,1695,0.539266,-3.78648
-35,-671,-0.272461,0.347534,0,0,0,0,0,0,0,-1,1189,1695,-0.272434,-0.347569
-28,-671,-10.4878,17.2009,0,0,0,0,0,0,0,-1,1196,1695,-10.4878,-17.2009
-21,-671,6.30005,36.1368,0,0,0,0,0,0,0,-1,1203,1695,6.3,-36.1369
-14,-671,6.34473,36.7742,0,0,0,0,0,0,0,-1,1210,1695,6.34472,-36.7741
-7,-671,6.63672,36.9309,0,0,0,0,0,0,0,-1,1217,1695,6.63674,-36.9308
0,-671,8.71533,37.0397,0.0248283,0.0580707,0.0362635,0.0813407,0.00155828,1.00028,0.0537152,0.0456612,1224,1695,8.71539,-37.0397
7,-671,7.51941,38.1238,0.0122324,0.0588207,0.0306678,0.074038,-0.00298489,1.1102,0.0503831,0.0457384,1231,1695,7.51937,-38.1238
14,-671,7.46094,38.3655,0.00255437,0.0603829,0.0243861,0.0692934,-0.00635615,1.22047,0.0484535,0.0454611,1238,1695,7.4609,-38.3655
21,-671,7.38135,38.6055,-0.00396671,0.062517,0.017367,0.0667802,-0.00822994,1.33008,0.0475017,0.045076,1245,1695,7.38139,-38.6055
28,-671,7.3009,38.8167,-0.007464,0.0653772,0.0104649,0.0668508,-0.00893764,1.4309,0.0478256,0.0437576,1252,1695,7.30095,-38.8167
35,-671,7.09131,39.1046,-0.00732026,0.0685861,0.0035739,0.068754,-0.00748816,1.52385,0.0485251,0.0434268,1259,1695,7.09126,-39.1046
42,-671,6.32153,39.327,-0.00387399,0.0741352,-0.00142152,0.0741611,-0.00389989,-1.55258,0.0507906,0.0434377,1266,1695,6.32158,-39.3271
49,-671,6.48059,39.2361,-0.000882569,0.0786351,-0.00713874,0.0792709,-0.00151837,-1.48197,0.0533606,0.0443566,1273,1695,6.48061,-39.236
56,-671,6.66553,39.2166,0,0,0,0,0,0,0,-1,1280,1695,6.66557,-39.2166
63,-671,5.67981,37.7264,0,0,0,0,0,0,0,-1,1287,1695,5.67986,-37.7265
70,-671,6.27319,37.9471,0.0166405,0.085831,-0.0201999,0.0912966,0.0111749,-1.30655,0.0575025,0.0429236,1294,1695,6.27321,-37.9472
77,-671,6.48096,37.2283,0.0208083,0.0844755,-0.0230742,0.0919585,0.0133252,-1.2572,0.057382,0.0408122,1301,1695,6.48102,-37.2283
84,-671,6.81677,36.4235,0.0223088,0.0812672,-0.0257839,0.0909521,0.0126239,-1.21148,0.0568956,0.0464971,1308,1695,6.81677,-36.4234
91,-671,6.16248,34.4154,0.0221505,0.0751129,-0.0288806,0.0878152,0.00944817,-1.15644,0.055662,0.0492067,1315,1695,6.16249,-34.4154
98,-671,6.70605,33.5892,0,0,0,0,0,0,0,-1,1322,1695,6.70611,-33.5892
105,-671,7.5022,38.8005,0.0180659,0.0599784,-0.0325093,0.0777006,0.00034374,-1.07169,0.0516862,0.0459118,1329,1695,7.50219,-38.8005
112,-671,7.67029,38.3751,0,0,0,0,0,0,0,-1,1336,1695,7.67025,-38.3751
119,-671,7.61536,38.1482,0,0,0,0,0,0,0,-1,1343,1695,7.6153,-38.1482
126,-671,7.51367,37.3878,0,0,0,0,0,0,0,-1,1350,1695,7.51365,-37.3878
133,-671,8.28259,36.9618,0,0,0,0,0,0,0,-1,1357,1695,8.28253,-36.9618
140,-671,8.44312,36.6451,-0.0035615,0.019374,-0.0402399,0.0497483,-0.0339358,-0.92421,0.0486017,0.0490996,1364,1695,8.44311,-36.6451
147,-671,8.15344,35.9961,-0.00533011,0.0164664,-0.0404775,0.0474871,-0.0363509,-0.916901,0.048546,0.0461731,1371,1695,8.15342,-35.9961
154,-671,8.69739,36.1693,0,0,0,0,0,0,0,-1,1378,1695,8.69743,-36.1693
161,-671,4.49292,4.91272,0,0,0,0,0,0,0,-1,1385,1695,4.49297,-4.91273
168,-671,5.17639,6.1416,0,0,0,0,0,0,0,-1,1392,1695,5.1764,-6.14164
175,-671,5.6731,1.64685,0,0,0,0,0,0,0,-1,1399,1695,5.67313,-1.64691
182,-671,5.56812,1.71692,0,0,0,0,0,0,0,-1,1406,1695,5.56809,-1.71686
189,-671,6.98315,6.36169,0,0,0,0,0,0,0,-1,1413,1695,6.98312,-6.36175
196,-671,5.38123,5.69775,0,0,0,0,0,0,0,-1,1420,1695,5.38125,-5.69769
203,-671,5.95117,8.11658,0,0,0,0,0,0,0,-1,1427,1695,5.9512,-8.11662
210,-671,4.73596,8.39624,0,0,0,0,0,0,0,-1,1434,1695,4.736,-8.39618
217,-671,5.37097,11.863,0,0,0,0,0,0,0,-1,1441,1695,5.37094,-11.863
224,-671,5.08167,13.6694,0,0,0,0,0,0,0,-1,1448,1695,5.08165,-13.6695
231,-671,5.66663,15.3348,0,0,0,0,0,0,0,-1,1455,1695,5.66667,-15.3349
238,-671,6.32959,16.2036,0,0,0,0,0,0,0,-1,1462,1695,6.32961,-16.2037
245,-671,9.39502,32.9545,0,0,0,0,0,0,0,-1,1469,1695,9.39502,-32.9544
252,-671,9.12476,34.3306,0,0,0,0,0,0,0,-1,1476,1695,9.1248,-34.3306
259,-671,9.1355,34.4076,0,0,0,0,0,0,0,-1,1483,1695,9.13555,-34.4075
266,-671,9.15259,34.0618,0.00370784,-0.000368145,-0.000499189,0.00376809,-0.000428391,-0.120106,0.00266635,0.0364999,1490,1695,9.15264,-34.0618
273,-671,9.20007,33.8558,0.00343635,-0.000364648,-0.000430599,0.00348452,-0.000412818,-0.111405,0.00247213,0.012429,1497,1695,9.20002,-33.8559
280,-671,9.20874,33.6284,0.00309865,-8.41401e-05,-0.000366086,0.00314021,-0.000125705,-0.113054,0.00213661,0.00967455,1504,1695,9.20878,-33.6284
287,-671,9.21387,33.3259,0.00267017,4.17763e-05,-0.000185543,0.00268321,2.87432e-05,-0.0701284,0.0017793,0.0103331,1511,1695,9.21382,-33.3259
294,-671,9.21509,33.0511,0.00227014,0.000397893,-0.00013535,0.00227987,0.000388159,-0.0717952,0.00140847,0.0103455,1518,1695,9.21513,-33.0511
301,-671,9.24329,32.8365,0.00191367,0.00077317,-0.000168091,0.00193792,0.000748912,-0.143325,0.00112844,0.0106094,1525,1695,9.24334,-32.8365
308,-671,9.26172,32.5892,0.00156166,0.00106187,-0.000179936,0.0016197,0.00100383,-0.312027,0.000944036,0.0125227,1532,1695,9.26171,-32.5892
315,-671,9.2771,32.2909,0.00122722,0.00133514,-0.000173325,0.00146271,0.00109965,-0.936305,0.000879465,0.0138492,1539,1695,9.27706,-32.2909
322,-671,9.28345,32.0266,0.000923776,0.00153022,-0.00016806,0.00157368,0.000880317,-1.31775,0.000910699,0.0151769,1546,1695,9.2835,-32.0266
329,-671,9.25085,31.7649,0.000677398,0.00159236,-0.000179259,0.00162622,0.000643531,-1.38407,0.000945683,0.0143184,1553,1695,9.25082,-31.7649
336,-671,9.2627,31.4446,0.000511897,0.00148043,-0.000153623,0.00150422,0.000488114,-1.4172,0.000886113,0.0110485,1560,1695,9.26266,-31.4446
343,-671,9.28052,31.12,0.00040603,0.00127099,-9.59427e-05,0.0012815,0.000395515,-1.46164,0.000757722,0.0100144,1567,1695,9.28051,-31.12
350,-671,9.25781,30.8472,0.000392664,0.000726709,-8.85715e-05,0.00074874,0.000370632,-1.327,0.000432293,0.0104315,1574,1695,9.25777,-30.8472
357,-671,9.23486,30.5029,0.000322621,-0.000278864,6.61736e-05,0.000329815,-0.000286058,0.108291,0.000355874,0.0101866,1581,1695,9.2349,-30.5029
364,-671,9.24194,30.1665,0.000203636,-0.00205317,0.000458429,0.000293203,-0.00214274,0.192947,0.00153559,0.0129942,1588,1695,9.24197,-30.1665
371,-671,9.22351,29.8789,0.000179539,-0.00371154,0.00075172,0.000319714,-0.00385171,0.184356,0.00268074,0.0151285,1595,1695,9.22356,-29.8789
378,-671,9.21851,29.5541,5.0148e-05,-0.00579376,0.00128574,0.00032052,-0.00606413,0.207265,0.00415372,0.0124948,1602,1695,9.21846,-29.5541
385,-671,9.21655,29.2007,-0.000112855,-0.00813049,0.00188122,0.000306601,-0.00854995,0.219382,0.00580487,0.0148014,1609,1695,9.21661,-29.2007
392,-671,9.16992,28.8961,-0.000482298,-0.0111113,0.00266154,0.000146911,-0.0117405,0.232146,0.00787645,0.0184872,1616,1695,9.16991,-28.8961
399,-671,9.13586,28.5509,-0.000990647,-0.0143313,0.00344652,-0.000152863,-0.0151691,0.238457,0.0100622,0.0154626,1623,1695,9.13587,-28.5509
406,-671,9.17029,28.1816,-0.00142306,-0.0176964,0.00444007,-0.000290452,-0.0188291,0.249762,0.012457,0.0251627,1630,1695,9.17034,-28.1816
413,-671,9.09399,28.0482,-0.00166527,-0.0213868,0.00559929,-0.000186422,-0.0228656,0.258217,0.015182,0.0423937,1637,1695,9.09399,-28.0482
420,-671,9.20398,27.6685,0,0,0,0,0,0,0,-1,1644,1695,9.204,-27.6684
427,-671,9.31738,21.7188,0,0,0,0,0,0,0,-1,1651,1695,9.31735,-21.7187
434,-671,9.66528,26.177,0,0,0,0,0,0,0,-1,1658,1695,9.66528,-26.177
441,-671,8.34961,20.6522,0,0,0,0,0,0,0,-1,1665,1695,8.34964,-20.6522
448,-671,7.44873,20.2306,0,0,0,0,0,0,0,-1,1672,1695,7.44872,-20.2306
455,-671,6.62805,19.8612,0,0,0,0,0,0,0,-1,1679,1695,6.62811,-19.8612
462,-671,5.86255,4.47961,0,0,0,0,0,0,0,-1,1686,1695,5.8625,-4.4796
469,-671,3.71301,3.76978,0,0,0,0,0,0,0,-1,1693,1695,3.71297,-3.76974
476,-671,3.75574,3.18848,0,0,0,0,0,0,0,-1,1700,1695,3.7558,-3.18847
483,-671,7.81824,12.1041,0,0,0,0,0,0,0,-1,1707,1695,7.81826,-12.1041
490,-671,0,0,0,0,0,0,0,0,0,-1,1714,1695,0,0
497,-671,0,0,0,0,0,0,0,0,0,-1,1721,1695,0,0
504,-671,0,0,0,0,0,0,0,0,0,-1,1728,1695,0,0
511,-671,0,0,0,0,0,0,0,0,0,-1,1735,1695,0,0
518,-671,0,0,0,0,0,0,0,0,0,-1,1742,1695,0,0
525,-671,0,0,0,0,0,0,0,0,0,-1,1749,1695,0,0
532,-671,0,0,0,0,0,0,0,0,0,-1,1756,1695,0,0
539,-671,0,0,0,0,0,0,0,0,0,-1,1763,1695,0,0
546,-671,0,0,0,0,0,0,0,0,0,-1,1770,1695,0,0
553,-671,0,0,0,0,0,0,0,0,0,-1,1777,1695,0,0
560,-671,0,0,0,0,0,0,0,0,0,-1,1784,1695,0,0
567,-671,0,0,0,0,0,0,0,0,0,-1,1791,1695,0,0
574,-671,0,0,0,0,0,0,0,0,0,-1,1798,1695,0,0
581,-671,0,0,0,0,0,0,0,0,0,-1,1805,1695,0,0
588,-671,0,0,0,0,0,0,0,0,0,-1,1812,1695,0,0
595,-671,0,0,0,0,0,0,0,0,0,-1,1819,1695,0,0
602,-671,0,0,0,0,0,0,0,0,0,-1,1826,1695,0,0
609,-671,0,0,0,0,0,0,0,0,0,-1,1833,1695,0,0
616,-671,0,0,0,0,0,0,0,0,0,-1,1840,1695,0,0
623,-671,0,0,0,0,0,0,0,0,0,-1,1847,1695,0,0
630,-671,0,0,0,0,0,0,0,0,0,-1,1854,1695,0,0
637,-671,0,0,0,0,0,0,0,0,0,-1,1861,1695,0,0
644,-671,0,0,0,0,0,0,0,0,0,-1,1868,1695,0,0
651,-671,0,0,0,0,0,0,0,0,0,-1,1875,1695,0,0
658,-671,0,0,0,0,0,0,0,0,0,-1,1882,1695,0,0
665,-671,0,0,0,0,0,0,0,0,0,-1,1889,1695,0,0
672,-671,0,0,0,0,0,0,0,0,0,-1,1896,1695,0,0
679,-671,0,0,0,0,0,0,0,0,0,-1,1903,1695,0,0
686,-671,0,0,0,0,0,0,0,0,0,-1,1910,1695,0,0
693,-671,0,0,0,0,0,0,0,0,0,-1,1917,1695,0,0
700,-671,0,0,0,0,0,0,0,0,0,-1,1924,1695,0,0
707,-671,0,0,0,0,0,0,0,0,0,-1,1931,1695,0,0
714,-671,0,0,0,0,0,0,0,0,0,-1,1938,1695,0,0
721,-671,0,0,0,0,0,0,0,0,0,-1,1945,1695,0,0
728,-671,0,0,0,0,0,0,0,0,0,-1,1952,1695,0,0
735,-671,0,0,0,0,0,0,0,0,0,-1,1959,1695,0,0
742,-671,0,0,0,0,0,0,0,0,0,-1,1966,1695,0,0
749,-671,0,0,0,0,0,0,0,0,0,-1,1973,1695,0,0
756,-671,0,0,0,0,0,0,0,0,0,-1,1980,1695,0,0
763,-671,0,0,0,0,0,0,0,0,0,-1,1987,1695,0,0
770,-671,0,0,0,0,0,0,0,0,0,-1,1994,1695,0,0
777,-671,0,0,0,0,0,0,0,0,0,-1,2001,1695,0,0
784,-671,0,0,0,0,0,0,0,0,0,-1,2008,1695,0,0
791,-671,0,0,0,0,0,0,0,0,0,-1,2015,1695,0,0
798,-671,0,0,0,0,0,0,0,0,0,-1,2022,1695,0,0
805,-671,0,0,0,0,0,0,0,0,0,-1,2029,1695,0,0
812,-671,0,0,0,0,0,0,0,0,0,-1,2036,1695,0,0
-700,-678,0,0,0,0,0,0,0,0,0,-1,524,1702,0,0
-693,-678,0,0,0,0,0,0,0,0,0,-1,531,1702,0,0
-686,-678,0,0,0,0,0,0,0,0,0,-1,538,1702,0,0
-679,-678,0,0,0,0,0,0,0,0,0,-1,545,1702,0,0
-672,-678,0,0,0,0,0,0,0,0,0,-1,552,1702,0,0
-665,-678,0,0,0,0,0,0,0,0,0,-1,559,1702,0,0
-658,-678,0,0,0,0,0,0,0,0,0,-1,566,1702,0,0
-651,-678,0,0,0,0,0,0,0,0,0,-1,573,1702,0,0
-644,-678,0,0,0,0,0,0,0,0,0,-1,580,1702,0,0
-637,-678,0,0,0,0,0,0,0,0,0,-1,587,1702,0,0
-630,-678,0,0,0,0,0,0,0,0,0,-1,594,1702,0,0
-623,-678,0,0,0,0,0,0,0,0,0,-1,601,1702,0,0
-616,-678,0,0,0,0,0,0,0,0,0,-1,608,1702,0,0
-609,-678,0,0,0,0,0,0,0,0,0,-1,615,1702,0,0
-602,-678,0,0,0,0,0,0,0,0,0,-1,622,1702,0,0
-595,-678,0,0,0,0,0,0,0,0,0,-1,629,1702,0,0
-588,-678,0,0,0,0,0,0,0,0,0,-1,636,1702,0,0
-581,-678,0,0,0,0,0,0,0,0,0,-1,643,1702,0,0
-574,-678,0,0,0,0,0,0,0,0,0,-1,650,1702,0,0
-567,-678,0,0,0,0,0,0,0,0,0,-1,657,1702,0,0
-560,-678,0,0,0,0,0,0,0,0,0,-1,664,1702,0,0
-553,-678,0,0,0,0,0,0,0,0,0,-1,671,1702,0,0
-546,-678,0,0,0,0,0,0,0,0,0,-1,678,1702,0,0
-539,-678,0,0,0,0,0,0,0,0,0,-1,685,1702,0,0
-532,-678,0,0,0,0,0,0,0,0,0,-1,692,1702,0,0
-525,-678,0,0,0,0,0,0,0,0,0,-1,699,1702,0,0
-518,-678,0,0,0,0,0,0,0,0,0,-1,706,1702,0,0
-511,-678,0,0,0,0,0,0,0,0,0,-1,713,1702,0,0
-504,-678,0,0,0,0,0,0,0,0,0,-1,720,1702,0,0
-497,-678,0,0,0,0,0,0,0,0,0,-1,727,1702,0,0
-490,-678,0,0,0,0,0,0,0,0,0,-1,734,1702,0,0
-483,-678,0,0,0,0,0,0,0,0,0,-1,741,1702,0,0
-476,-678,0,0,0,0,0,0,0,0,0,-1,748,1702,0,0
-469,-678,0,0,0,0,0,0,0,0,0,-1,755,1702,0,0
-462,-678,0,0,0,0,0,0,0,0,0,-1,762,1702,0,0
-455,-678,0,0,0,0,0,0,0,0,0,-1,769,1702,0,0
-448,-678,0,0,0,0,0,0,0,0,0,-1,776,1702,0,0
-441,-678,0,0,0,0,0,0,0,0,0,-1,783,1702,0,0
-434,-678,0,0,0,0,0,0,0,0,0,-1,790,1702,0,0
-427,-678,0,0,0,0,0,0,0,0,0,-1,797,1702,0,0
-420,-678,0,0,0,0,0,0,0,0,0,-1,804,1702,0,0
-413,-678,0,0,0,0,0,0,0,0,0,-1,811,1702,0,0
-406,-678,0,0,0,0,0,0,0,0,0,-1,818,1702,0,0
-399,-678,0,0,0,0,0,0,0,0,0,-1,825,1702,0,0
-392,-678,0,0,0,0,0,0,0,0,0,-1,832,1702,0,0
-385,-678,0,0,0,0,0,0,0,0,0,-1,839,1702,0,0
-378,-678,0,0,0,0,0,0,0,0,0,-1,846,1702,0,0
-371,-678,0,0,0,0,0,0,0,0,0,-1,853,1702,0,0
-364,-678,0,0,0,0,0,0,0,0,0,-1,860,1702,0,0
-357,-678,0,0,0,0,0,0,0,0,0,-1,867,1702,0,0
-350,-678,-5.79944,6.11865,0,0,0,0,0,0,0,-1,874,1702,-5.79942,-6.11864
-343,-678,-6.44891,4.52759,0,0,0,0,0,0,0,-1,881,1702,-6.4489,-4.52758
-336,-678,7.92682,24.1683,0,0,0,0,0,0,0,-1,888,1702,7.92682,-24.1684
-329,-678,-7.14575,1.29761,0,0,0,0,0,0,0,-1,895,1702,-7.14577,-1.29755
-322,-678,3.78455,20.3917,0,0,0,0,0,0,0,-1,902,1702,3.78457,-20.3917
-315,-678,4.74176,22.3245,0,0,0,0,0,0,0,-1,909,1702,4.74178,-22.3244
-308,-678,8.02203,23.7128,0,0,0,0,0,0,0,-1,916,1702,8.02202,-23.7127
-301,-678,7.6629,24.095,0,0,0,0,0,0,0,-1,923,1702,7.66288,-24.0949
-294,-678,7.12097,25.9415,0,0,0,0,0,0,0,-1,930,1702,7.121,-25.9415
-287,-678,7.01447,26.3575,0,0,0,0,0,0,0,-1,937,1702,7.01445,-26.3575
-280,-678,6.64227,27.6062,-0.0182613,0.00208824,-0.00774301,0.00469941,-0.0208724,-1.24554,0.0157174,0.048831,944,1702,6.64226,-27.6062
-273,-678,6.35632,27.8831,-0.0143723,0.00182145,-0.0055143,0.00352084,-0.0160717,-1.27185,0.0120606,0.0428586,951,1702,6.35632,-27.883
-266,-678,6.34143,28.1729,-0.0112861,0.00168332,-0.00345208,0.00254492,-0.0121477,-1.3262,0.00906661,0.0348818,958,1702,6.34144,-28.1729
-259,-678,6.25665,28.4659,-0.00850013,0.000799871,-0.00129699,0.000977364,-0.00867763,-1.43479,0.00613687,0.0236632,965,1702,6.25667,-28.466
-252,-678,6.24792,28.7627,-0.00621181,0.000287974,0.000219676,0.00029539,-0.00621923,1.53705,0.00424804,0.0188518,972,1702,6.24792,-28.7626
-245,-678,6.25507,29.0955,-0.00453818,-7.53929e-05,0.00110838,0.000184724,-0.00479829,1.34029,0.00326218,0.0194056,979,1702,6.25505,-29.0955
-238,-678,6.22156,29.4446,-0.0031713,-0.000702013,0.00197526,0.000392724,-0.00426604,1.06472,0.00298356,0.0162036,986,1702,6.22153,-29.4446
-231,-678,6.16449,29.8221,-0.0021871,-0.00134725,0.00242552,0.000694427,-0.00422877,0.871113,0.00307689,0.012929,993,1702,6.16449,-29.8221
-224,-678,6.14209,30.1406,-0.00138931,-0.00124834,0.00271706,0.00139915,-0.0040368,0.798366,0.00325928,0.0123422,1000,1702,6.1421,-30.1406
-217,-678,6.1532,30.4656,-0.00098692,-0.00135806,0.00283205,0.00166563,-0.00401061,0.752682,0.00336911,0.0138254,1007,1702,6.15319,-30.4656
-210,-678,6.13947,30.8213,-0.000676533,-0.00167673,0.00287203,0.00173862,-0.00409188,0.699199,0.00345643,0.0146299,1014,1702,6.13948,-30.8213
-203,-678,6.13062,31.1361,-0.000380559,-0.00176186,0.00271593,0.00173117,-0.00387358,0.66089,0.00331377,0.0186817,1021,1702,6.13064,-31.1361
-196,-678,6.12512,31.4498,-0.000174449,-0.00156852,0.00248054,0.00170513,-0.0034481,0.648429,0.00303141,0.0183046,1028,1702,6.12517,-31.4499
-189,-678,6.11462,31.7627,-6.0095e-06,-0.00113466,0.00224315,0.00174271,-0.00288338,0.662167,0.0026978,0.0106307,1035,1702,6.1146,-31.7627
-182,-678,6.12061,32.0616,0.000224952,-0.000618987,0.00192649,0.00177515,-0.00216918,0.677583,0.00228105,0.0101878,1042,1702,6.12055,-32.0617
-175,-678,6.1123,32.354,0.000486316,-4.63882e-05,0.0015903,0.00183242,-0.00139249,0.702426,0.00186767,0.0120544,1049,1702,6.11234,-32.354
-168,-678,6.09937,32.6298,0.000750683,0.000787732,0.00143584,0.00220517,-0.000666752,0.791849,0.00173559,0.0111252,1056,1702,6.09933,-32.6298
-161,-678,6.08972,32.9045,0.00104718,0.00194143,0.00131154,0.00287997,0.000108641,0.949677,0.00188481,0.00871425,1063,1702,6.08973,-32.9046
-154,-678,6.09753,33.172,0.00135601,0.00339274,0.00123176,0.0039726,0.000776157,1.13082,0.00243133,0.00840683,1070,1702,6.09752,-33.1721
-147,-678,6.10339,33.446,0.001637,0.00481732,0.00113829,0.00518274,0.00127157,1.26016,0.00311894,0.0110559,1077,1702,6.10335,-33.4461
-140,-678,6.12695,33.7189,0.00194737,0.00618554,0.00112363,0.00646501,0.0016679,1.32702,0.00387558,0.0123721,1084,1702,6.1269,-33.7189
-133,-678,6.15088,33.9576,0.00222909,0.00739789,0.00108343,0.00761581,0.00201118,1.37231,0.00455722,0.0121034,1091,1702,6.1509,-33.9576
-126,-678,6.16492,34.2295,0.00251931,0.00845755,0.00100784,0.00862394,0.00235292,1.40718,0.00514747,0.0114385,1098,1702,6.16489,-34.2295
-119,-678,6.22156,34.6686,0.00293201,0.00930955,0.000899049,0.00943386,0.0028077,1.43339,0.00559339,0.0309097,1105,1702,6.22153,-34.6686
-112,-678,6.26624,34.9779,0.00331877,0.00984047,0.000891257,0.00996008,0.00319916,1.43739,0.00587174,0.0480811,1112,1702,6.26621,-34.9779
-105,-678,6.30664,35.2126,0.0033799,0.0102501,0.000826039,0.010348,0.00328198,1.4528,0.00610615,0.0486632,1119,1702,6.30666,-35.2127
-98,-678,6.23743,35.2484,0.00350282,0.0105618,0.000642629,0.0106198,0.0034448,1.48075,0.00625614,0.0283361,1126,1702,6.23743,-35.2484
-91,-678,6.30225,35.2042,0,0,0,0,0,0,0,-1,1133,1702,6.30219,-35.2042
-84,-678,6.47107,35.6843,0,0,0,0,0,0,0,-1,1140,1702,6.47103,-35.6844
-77,-678,5.95154,29.1879,0,0,0,0,0,0,0,-1,1147,1702,5.95156,-29.1878
-70,-678,4.75891,19.6552,0,0,0,0,0,0,0,-1,1154,1702,4.75895,-19.6551
-63,-678,3.41687,11.0365,0,0,0,0,0,0,0,-1,1161,1702,3.41682,-11.0365
-56,-678,1.72388,6.13159,0,0,0,0,0,0,0,-1,1168,1702,1.72388,-6.13157
-49,-678,-0.241699,5.29895,0,0,0,0,0,0,0,-1,1175,1702,-0.241682,-5.29897
-42,-678,0.297119,3.90649,0,0,0,0,0,0,0,-1,1182,1702,0.297139,-3.90655
-35,-678,0.498413,3.64038,0,0,0,0,0,0,0,-1,1189,1702,0.498471,-3.64038
-28,-678,0.132446,3.55994,0,0,0,0,0,0,0,-1,1196,1702,0.132432,-3.55993
-21,-678,6.69763,36.7373,0,0,0,0,0,0,0,-1,1203,1702,6.69764,-36.7373
-14,-678,6.69812,36.8289,0.03118,0.0478082,0.0310444,0.0716326,0.00735562,0.916234,0.0455018,0.0416472,1210,1702,6.69812,-36.8289
-7,-678,6.95813,36.8894,0.0229301,0.0476763,0.0292671,0.0670783,0.00352805,0.985386,0.0435905,0.044605,1217,1702,6.9581,-36.8894
0,-678,7.31995,36.8566,0.0141098,0.0481451,0.0263898,0.0625284,-0.000273554,1.07177,0.0417771,0.0450867,1224,1702,7.31989,-36.8566
7,-678,7.51147,37.1533,0.0060154,0.0491957,0.022551,0.0588254,-0.00361434,1.16722,0.0404755,0.0441101,1231,1702,7.51153,-37.1534
14,-678,7.42749,37.8921,-5.37565e-05,0.0507582,0.0181646,0.0565839,-0.00587944,1.26044,0.0398274,0.0444411,1238,1702,7.42748,-37.892
21,-678,7.35217,38.051,-0.00403377,0.0529401,0.013006,0.0557687,-0.00686236,1.35665,0.0396649,0.0427864,1245,1702,7.35222,-38.051
28,-678,7.25269,38.2178,-0.00595635,0.0555342,0.00775422,0.056497,-0.00691911,1.44727,0.0401701,0.0428227,1252,1702,7.25271,-38.2177
35,-678,6.92078,38.4304,-0.0052902,0.0582692,0.00232488,0.0583541,-0.00537513,1.53428,0.0408126,0.0418414,1259,1702,6.92079,-38.4305
42,-678,6.34363,38.3029,-0.00229703,0.0629522,-0.00169911,0.0629964,-0.00234125,-1.54478,0.0427994,0.0415466,1266,1702,6.34368,-38.3029
49,-678,6.29407,38.0765,0.000393359,0.066576,-0.00621099,0.0671538,-0.000184473,-1.47803,0.0448308,0.0437277,1273,1702,6.29401,-38.0765
56,-678,6.02222,37.2548,0,0,0,0,0,0,0,-1,1280,1702,6.02222,-37.2547
63,-678,5.70959,36.7347,0,0,0,0,0,0,0,-1,1287,1702,5.70957,-36.7347
70,-678,5.94312,36.9114,0.0141807,0.0720201,-0.017236,0.0767668,0.00943397,-1.30206,0.0483411,0.046164,1294,1702,5.94315,-36.9114
77,-678,6.0332,36.6935,0.0177178,0.0712497,-0.0196443,0.0776848,0.0112826,-1.25423,0.0484688,0.0440224,1301,1702,6.03325,-36.6935
84,-678,6.16077,36.1467,0,0,0,0,0,0,0,-1,1308,1702,6.16079,-36.1467
91,-678,4.89771,32.6688,0,0,0,0,0,0,0,-1,1315,1702,4.89765,-32.6688
98,-678,8.77747,38.462,0,0,0,0,0,0,0,-1,1322,1702,8.77743,-38.462
105,-678,8.80872,38.2195,0,0,0,0,0,0,0,-1,1329,1702,8.80873,-38.2194
112,-678,7.89941,38.6621,0,0,0,0,0,0,0,-1,1336,1702,7.89945,-38.6621
119,-678,7.74768,37.9359,0,0,0,0,0,0,0,-1,1343,1702,7.74763,-37.9359
126,-678,7.64697,37.1539,0.00316314,0.0270634,-0.0311637,0.0484897,-0.0182631,-0.968483,0.039835,0.0461413,1350,1702,7.64699,-37.154
133,-678,7.56152,36.3485,0,0,0,0,0,0,0,-1,1357,1702,7.56147,-36.3485
140,-678,8.24194,36.8021,-0.00126241,0.0153316,-0.0321523,0.0402401,-0.026171,-0.91167,0.0386282,0.0465204,1364,1702,8.24189,-36.8022
147,-678,8.47156,36.5339,-0.0032794,0.0111106,-0.032436,0.03714,-0.0293088,-0.894542,0.0384529,0.0431494,1371,1702,8.47158,-36.5339
154,-678,8.75757,36.3466,0,0,0,0,0,0,0,-1,1378,1702,8.7576,-36.3465
161,-678,8.81226,34.8624,0,0,0,0,0,0,0,-1,1385,1702,8.81229,-34.8624
168,-678,4.21863,5.25781,0,0,0,0,0,0,0,-1,1392,1702,4.21865,-5.25781
175,-678,5.21899,5.9635,0,0,0,0,0,0,0,-1,1399,1702,5.21894,-5.96346
182,-678,7.31262,6.75122,0,0,0,0,0,0,0,-1,1406,1702,7.3126,-6.75123
189,-678,5.96021,6.36853,0,0,0,0,0,0,0,-1,1413,1702,5.96018,-6.36851
196,-678,5.01599,8.15771,0,0,0,0,0,0,0,-1,1420,1702,5.01596,-8.15767
203,-678,4.64771,13.0559,0,0,0,0,0,0,0,-1,1427,1702,4.64766,-13.0559
210,-678,5.6532,18.5957,0,0,0,0,0,0,0,-1,1434,1702,5.65318,-18.5958
217,-678,6.88049,23.4835,0,0,0,0,0,0,0,-1,1441,1702,6.88047,-23.4835
224,-678,8.521,32.0977,0,0,0,0,0,0,0,-1,1448,1702,8.52098,-32.0977
231,-678,8.68359,35.3563,0,0,0,0,0,0,0,-1,1455,1702,8.68364,-35.3564
238,-678,8.78918,35.0479,0,0,0,0,0,0,0,-1,1462,1702,8.78913,-35.0478
245,-678,8.88416,34.7677,0,0,0,0,0,0,0,-1,1469,1702,8.88418,-34.7677
252,-678,8.91663,34.5784,0.00295892,-0.00104172,0.000270766,0.00297717,-0.00105996,0.0672716,0.00241686,0.0290078,1476,1702,8.91659,-34.5783
259,-678,8.92554,34.3794,0.00316558,-0.000701882,-7.06499e-05,0.00316687,-0.000703172,-0.0182596,0.00238051,0.0170955,1483,1702,8.92552,-34.3794
266,-678,8.97412,34.1155,0.00320266,-0.000472187,-0.000481643,0.00326473,-0.000534265,-0.128181,0.0023747,0.0121542,1490,1702,8.9741,-34.1155
273,-678,8.97144,33.881,0.00290999,-0.000385177,-0.000460781,0.00297321,-0.000448398,-0.136352,0.00214727,0.0112609,1497,1702,8.97148,-33.881
280,-678,8.95129,33.6473,0.00249416,-0.000123244,-0.000419367,0.00255971,-0.000188795,-0.155053,0.00177276,0.0112562,1504,1702,8.95127,-33.6473
287,-678,8.97888,33.3633,0.00197305,6.84149e-05,-0.000270571,0.00201074,3.07236e-05,-0.138412,0.00133037,0.0104957,1511,1702,8.97892,-33.3633
294,-678,8.98596,33.0803,0.00143471,0.000484602,-0.00019918,0.00147477,0.000444536,-0.198508,0.000873557,0.0111077,1518,1702,8.98598,-33.0803
301,-678,8.97058,32.8439,0.000907016,0.000923409,-0.000190849,0.00110624,0.000724187,-0.80686,0.000648789,0.0117928,1525,1702,8.97062,-32.8439
308,-678,8.97192,32.5933,0.000413105,0.00128539,-0.000165894,0.00131588,0.00038262,-1.38906,0.000781579,0.0136194,1532,1702,8.9719,-32.5933
315,-678,8.97607,32.3047,-1.9575e-05,0.00153495,-8.04094e-05,0.00153909,-2.37232e-05,-1.51925,0.00103406,0.0149756,1539,1702,8.97611,-32.3047
322,-678,8.96729,32.0658,-0.000354915,0.00175557,-5.23913e-05,0.00175687,-0.000356215,-1.54599,0.00130628,0.0175074,1546,1702,8.96733,-32.0658
329,-678,8.94983,31.7657,-0.00059748,0.00184929,-3.53181e-05,0.0018498,-0.00059799,-1.55637,0.00147355,0.015477,1553,1702,8.94984,-31.7657
336,-678,8.95154,31.4451,-0.000691577,0.00170563,9.68488e-06,0.00170567,-0.000691616,1.56676,0.00142475,0.0129748,1560,1702,8.9515,-31.4451
343,-678,8.96667,31.1382,-0.000667288,0.0014665,8.72845e-05,0.00147006,-0.000670853,1.52998,0.00126444,0.0120998,1567,1702,8.96672,-31.1382
350,-678,8.96021,30.8394,-0.000513116,0.000797629,0.000123095,0.000809089,-0.000524576,1.47797,0.00077581,0.0116689,1574,1702,8.96022,-30.8394
357,-678,8.94788,30.5262,-0.000412658,-0.000438212,0.000338804,-8.63903e-05,-0.00076448,0.766551,0.000483436,0.00938932,1581,1702,8.94786,-30.5262
364,-678,8.95007,30.202,-0.000253793,-0.00257387,0.000805065,-1.80455e-06,-0.00282586,0.303343,0.0018833,0.0116131,1588,1702,8.9501,-30.2021
371,-678,8.90698,29.8893,-2.53351e-05,-0.00462041,0.00110993,0.00022872,-0.00487447,0.225017,0.00332851,0.0126483,1595,1702,8.90696,-29.8893
378,-678,8.87646,29.5463,-8.67636e-05,-0.00729819,0.00186107,0.000365201,-0.00775016,0.23824,0.00529271,0.0130046,1602,1702,8.87649,-29.5463
385,-678,8.90039,29.2156,-0.000176983,-0.010297,0.00268889,0.00049309,-0.0109671,0.244226,0.00748117,0.0147188,1609,1702,8.90043,-29.2156
392,-678,8.94519,28.9918,-0.000509452,-0.014177,0.00376203,0.000457632,-0.015144,0.251616,0.010252,0.0256597,1616,1702,8.94518,-28.9918
399,-678,8.95361,28.8434,-0.00101377,-0.018502,0.00486539,0.000248698,-0.0197644,0.25388,0.01326,0.0357976,1623,1702,8.95361,-28.8433
406,-678,8.8125,28.7383,-0.00147961,-0.023197,0.00626154,0.000196368,-0.024873,0.261532,0.0166478,0.0455757,1630,1702,8.81254,-28.7383
413,-678,8.61499,28.8702,-0.00180238,-0.0283515,0.00791143,0.000376367,-0.0305302,0.268731,0.0204801,0.0491315,1637,1702,8.61505,-28.8703
420,-678,8.32544,28.8313,0,0,0,0,0,0,0,-1,1644,1702,8.3255,-28.8313
427,-678,4.57483,10.1555,0,0,0,0,0,0,0,-1,1651,1702,4.57485,-10.1555
434,-678,9.48169,21.6665,0,0,0,0,0,0,0,-1,1658,1702,9.48169,-21.6665
441,-678,8.64539,21.1864,0,0,0,0,0,0,0,-1,1665,1702,8.64536,-21.1865
448,-678,7.62244,20.7195,0,0,0,0,0,0,0,-1,1672,1702,7.6224,-20.7195
455,-678,5.44678,5.54297,0,0,0,0,0,0,0,-1,1679,1702,5.44676,-5.54294
462,-678,3.86792,2.87402,0,0,0,0,0,0,0,-1,1686,1702,3.86796,-2.87406
469,-678,2.26587,1.98755,0,0,0,0,0,0,0,-1,1693,1702,2.26592,-1.98755
476,-678,0,0,0,0,0,0,0,0,0,-1,1700,1702,0,0
483,-678,0,0,0,0,0,0,0,0,0,-1,1707,1702,0,0
490,-678,0,0,0,0,0,0,0,0,0,-1,1714,1702,0,0
497,-678,0,0,0,0,0,0,0,0,0,-1,1721,1702,0,0
504,-678,0,0,0,0,0,0,0,0,0,-1,1728,1702,0,0
511,-678,0,0,0,0,0,0,0,0,0,-1,1735,1702,0,0
518,-678,0,0,0,0,0,0,0,0,0,-1,1742,1702,0,0
525,-678,0,0,0,0,0,0,0,0,0,-1,1749,1702,0,0
532,-678,0,0,0,0,0,0,0,0,0,-1,1756,1702,0,0
539,-678,0,0,0,0,0,0,0,0,0,-1,1763,1702,0,0
546,-678,0,0,0,0,0,0,0,0,0,-1,1770,1702,0,0
553,-678,0,0,0,0,0,0,0,0,0,-1,1777,1702,0,0
560,-678,0,0,0,0,0,0,0,0,0,-1,1784,1702,0,0
567,-678,0,0,0,0,0,0,0,0,0,-1,1791,1702,0,0
574,-678,0,0,0,0,0,0,0,0,0,-1,1798,1702,0,0
581,-678,0,0,0,0,0,0,0,0,0,-1,1805,1702,0,0
588,-678,0,0,0,0,0,0,0,0,0,-1,1812,1702,0,0
595,-678,0,0,0,0,0,0,0,0,0,-1,1819,1702,0,0
602,-678,0,0,0,0,0,0,0,0,0,-1,1826,1702,0,0
609,-678,0,0,0,0,0,0,0,0,0,-1,1833,1702,0,0
616,-678,0,0,0,0,0,0,0,0,0,-1,1840,1702,0,0
623,-678,0,0,0,0,0,0,0,0,0,-1,1847,1702,0,0
630,-678,0,0,0,0,0,0,0,0,0,-1,1854,1702,0,0
637,-678,0,0,0,0,0,0,0,0,0,-1,1861,1702,0,0
644,-678,0,0,0,0,0,0,0,0,0,-1,1868,1702,0,0
651,-678,0,0,0,0,0,0,0,0,0,-1,1875,1702,0,0
658,-678,0,0,0,0,0,0,0,0,0,-1,1882,1702,0,0
665,-678,0,0,0,0,0,0,0,0,0,-1,1889,1702,0,0
672,-678,0,0,0,0,0,0,0,0,0,-1,1896,1702,0,0
679,-678,0,0,0,0,0,0,0,0,0,-1,1903,1702,0,0
686,-678,0,0,0,0,0,0,0,0,0,-1,1910,1702,0,0
693,-678,0,0,0,0,0,0,0,0,0,-1,1917,1702,0,0
700,-678,0,0,0,0,0,0,0,0,0,-1,1924,1702,0,0
707,-678,0,0,0,0,0,0,0,0,0,-1,1931,1702,0,0
714,-678,0,0,0,0,0,0,0,0,0,-1,1938,1702,0,0
721,-678,0,0,0,0,0,0,0,0,0,-1,1945,1702,0,0
728,-678,0,0,0,0,0,0,0,0,0,-1,1952,1702,0,0
735,-678,0,0,0,0,0,0,0,0,0,-1,1959,1702,0,0
742,-678,0,0,0,0,0,0,0,0,0,-1,1966,1702,0,0
749,-678,0,0,0,0,0,0,0,0,0,-1,1973,1702,0,0
756,-678,0,0,0,0,0,0,0,0,0,-1,1980,1702,0,0
763,-678,0,0,0,0,0,0,0,0,0,-1,1987,1702,0,0
770,-678,0,0,0,0,0,0,0,0,0,-1,1994,1702,0,0
777,-678,0,0,0,0,0,0,0,0,0,-1,2001,1702,0,0
784,-678,0,0,0,0,0,0,0,0,0,-1,2008,1702,0,0
791,-678,0,0,0,0,0,0,0,0,0,-1,2015,1702,0,0
798,-678,0,0,0,0,0,0,0,0,0,-1,2022,1702,0,0
805,-678,0,0,0,0,0,0,0,0,0,-1,2029,1702,0,0
812,-678,0,0,0,0,0,0,0,0,0,-1,2036,1702,0,0
-700,-685,0,0,0,0,0,0,0,0,0,-1,524,1709,0,0
-693,-685,0,0,0,0,0,0,0,0,0,-1,531,1709,0,0
-686,-685,0,0,0,0,0,0,0,0,0,-1,538,1709,0,0
-679,-685,0,0,0,0,0,0,0,0,0,-1,545,1709,0,0
-672,-685,0,0,0,0,0,0,0,0,0,-1,552,1709,0,0
-665,-685,0,0,0,0,0,0,0,0,0,-1,559,1709,0,0
-658,-685,0,0,0,0,0,0,0,0,0,-1,566,1709,0,0
-651,-685,0,0,0,0,0,0,0,0,0,-1,573,1709,0,0
-644,-685,0,0,0,0,0,0,0,0,0,-1,580,1709,0,0
-637,-685,0,0,0,0,0,0,0,0,0,-1,587,1709,0,0
-630,-685,0,0,0,0,0,0,0,0,0,-1,594,1709,0,0
-623,-685,0,0,0,0,0,0,0,0,0,-1,601,1709,0,0
-616,-685,0,0,0,0,0,0,0,0,0,-1,608,1709,0,0
-609,-685,0,0,0,0,0,0,0,0,0,-1,615,1709,0,0
-602,-685,0,0,0,0,0,0,0,0,0,-1,622,1709,0,0
-595,-685,0,0,0,0,0,0,0,0,0,-1,629,1709,0,0
-588,-685,0,0,0,0,0,0,0,0,0,-1,636,1709,0,0
-581,-685,0,0,0,0,0,0,0,0,0,-1,643,1709,0,0
-574,-685,0,0,0,0,0,0,0,0,0,-1,650,1709,0,0
-567,-685,0,0,0,0,0,0,0,0,0,-1,657,1709,0,0
-560,-685,0,0,0,0,0,0,0,0,0,-1,664,1709,0,0
-553,-685,0,0,0,0,0,0,0,0,0,-1,671,1709,0,0
-546,-685,0,0,0,0,0,0,0,0,0,-1,678,1709,0,0
-539,-685,0,0,0,0,0,0,0,0,0,-1,685,1709,0,0
-532,-685,0,0,0,0,0,0,0,0,0,-1,692,1709,0,0
-525,-685,0,0,0,0,0,0,0,0,0,-1,699,1709,0,0
-518,-685,0,0,0,0,0,0,0,0,0,-1,706,1709,0,0
-511,-685,0,0,0,0,0,0,0,0,0,-1,713,1709,0,0
-504,-685,0,0,0,0,0,0,0,0,0,-1,720,1709,0,0
-497,-685,0,0,0,0,0,0,0,0,0,-1,727,1709,0,0
-490,-685,0,0,0,0,0,0,0,0,0,-1,734,1709,0,0
-483,-685,0,0,0,0,0,0,0,0,0,-1,741,1709,0,0
-476,-685,0,0,0,0,0,0,0,0,0,-1,748,1709,0,0
-469,-685,0,0,0,0,0,0,0,0,0,-1,755,1709,0,0
-462,-685,0,0,0,0,0,0,0,0,0,-1,762,1709,0,0
-455,-685,0,0,0,0,0,0,0,0,0,-1,769,1709,0,0
-448,-685,0,0,0,0,0,0,0,0,0,-1,776,1709,0,0
-441,-685,0,0,0,0,0,0,0,0,0,-1,783,1709,0,0
-434,-685,0,0,0,0,0,0,0,0,0,-1,790,1709,0,0
-427,-685,0,0,0,0,0,0,0,0,0,-1,797,1709,0,0
-420,-685,0,0,0,0,0,0,0,0,0,-1,804,1709,0,0
-413,-685,0,0,0,0,0,0,0,0,0,-1,811,1709,0,0
-406,-685,0,0,0,0,0,0,0,0,0,-1,818,1709,0,0
-399,-685,0,0,0,0,0,0,0,0,0,-1,825,1709,0,0
-392,-685,0,0,0,0,0,0,0,0,0,-1,832,1709,0,0
-385,-685,0,0,0,0,0,0,0,0,0,-1,839,1709,0,0
-378,-685,0,0,0,0,0,0,0,0,0,-1,846,1709,0,0
-371,-685,0,0,0,0,0,0,0,0,0,-1,853,1709,0,0
-364,-685,0,0,0,0,0,0,0,0,0,-1,860,1709,0,0
-357,-685,0,0,0,0,0,0,0,0,0,-1,867,1709,0,0
-350,-685,0,0,0,0,0,0,0,0,0,-1,874,1709,0,0
-343,-685,-5.98505,6.56335,0,0,0,0,0,0,0,-1,881,1709,-5.98505,-6.56329
-336,-685,-6.51312,5.10571,0,0,0,0,0,0,0,-1,888,1709,-6.51311,-5.10575
-329,-685,-6.81384,3.34106,0,0,0,0,0,0,0,-1,895,1709,-6.81385,-3.341
-322,-685,3.83191,16.7219,0,0,0,0,0,0,0,-1,902,1709,3.8319,-16.7219
-315,-685,5.15784,21.4388,0,0,0,0,0,0,0,-1,909,1709,5.15783,-21.4389
-308,-685,6.36969,21.0303,0,0,0,0,0,0,0,-1,916,1709,6.36968,-21.0302
-301,-685,7.26794,24.7709,0,0,0,0,0,0,0,-1,923,1709,7.26793,-24.7709
-294,-685,6.35797,25.969,0,0,0,0,0,0,0,-1,930,1709,6.35799,-25.969
-287,-685,6.71106,26.5927,0,0,0,0,0,0,0,-1,937,1709,6.71104,-26.5926
-280,-685,7.17035,27.834,0,0,0,0,0,0,0,-1,944,1709,7.17037,-27.834
-273,-685,6.75238,28.025,0,0,0,0,0,0,0,-1,951,1709,6.75235,-28.0251
-266,-685,6.81641,27.8895,-0.0137034,0.00310142,-0.0038042,0.00392248,-0.0145245,-1.35823,0.0112214,0.0453276,958,1709,6.81641,-27.8895
-259,-685,6.72113,28.2645,-0.0103358,0.00149402,-0.0010419,0.00158509,-0.0104268,-1.48362,0.00753535,0.0435059,965,1709,6.72113,-28.2646
-252,-685,6.63782,28.8539,-0.00759431,0.000539405,0.000947155,0.000648243,-0.00770315,1.45639,0.00536458,0.0372783,972,1709,6.63785,-28.8539
-245,-685,6.59192,29.1659,-0.00562842,-0.000124633,0.00210709,0.000589414,-0.00634247,1.24406,0.00443785,0.0350203,979,1709,6.59189,-29.1659
-238,-685,6.61615,29.4839,-0.00408825,-0.0010451,0.00316001,0.000940581,-0.00607394,1.00977,0.00439649,0.0277767,986,1709,6.61615,-29.4838
-231,-685,6.51715,29.8751,-0.00301101,-0.0020921,0.00366813,0.00114524,-0.00624835,0.847702,0.00459513,0.0178233,993,1709,6.51712,-29.8751
-224,-685,6.47443,30.1622,-0.00211084,-0.00222587,0.00398419,0.00181625,-0.00615297,0.778181,0.00482277,0.0149114,1000,1709,6.4744,-30.1622
-217,-685,6.46924,30.4849,-0.00167574,-0.00265378,0.00408213,0.00194655,-0.00627608,0.725785,0.00496185,0.0110588,1007,1709,6.46925,-30.4849
-210,-685,6.4585,30.8427,-0.00137765,-0.00326919,0.00407959,0.00186437,-0.0065112,0.671496,0.00507766,0.015281,1014,1709,6.45847,-30.8426
-203,-685,6.45667,31.153,-0.00109105,-0.00354497,0.00381832,0.0016926,-0.00632862,0.629941,0.00488208,0.014942,1021,1709,6.4567,-31.1529
-196,-685,6.43665,31.4547,-0.000883317,-0.00349118,0.0034417,0.00149318,-0.00586767,0.604322,0.00449299,0.0125874,1028,1709,6.43661,-31.4547
-189,-685,6.42102,31.7499,-0.000696942,-0.00315817,0.00306766,0.00137774,-0.00523285,0.594647,0.00402715,0.00914172,1035,1709,6.42108,-31.7499
-182,-685,6.42114,32.0542,-0.000484911,-0.00269939,0.00258134,0.00121664,-0.00440094,0.582797,0.00341258,0.0140844,1042,1709,6.4212,-32.0542
-175,-685,6.41235,32.3558,-0.000266357,-0.00213689,0.00206169,0.00106229,-0.00346553,0.57246,0.00273412,0.01471,1049,1709,6.41238,-32.3559
-168,-685,6.39758,32.6479,-2.86894e-05,-0.00131231,0.0017559,0.00119902,-0.00254002,0.610182,0.00220453,0.0113175,1056,1709,6.39762,-32.6479
-161,-685,6.38855,32.9429,0.000276224,-0.000175996,0.00147481,0.00154215,-0.00144192,0.709333,0.00172318,0.0110428,1063,1709,6.38859,-32.9429
-154,-685,6.40759,33.2124,0.000582095,0.00133576,0.00123087,0.00224619,-0.000328337,0.933943,0.00161805,0.00999226,1070,1709,6.40757,-33.2124
-147,-685,6.39392,33.4552,0.000857627,0.00273641,0.00102694,0.0031888,0.000405237,1.15585,0.00200449,0.00934886,1077,1709,6.39395,-33.4553
-140,-685,6.3739,33.7002,0.00119156,0.00403102,0.000967451,0.00432931,0.000893268,1.27172,0.00263933,0.012729,1084,1709,6.37394,-33.7002
-133,-685,6.40881,33.9615,0.00153587,0.00514203,0.00089917,0.0053538,0.00132411,1.3395,0.0032199,0.0120661,1091,1709,6.40885,-33.9615
-126,-685,6.41858,34.2269,0.00189724,0.0061182,0.000828439,0.00627497,0.00174046,1.38377,0.00374065,0.00939604,1098,1709,6.41854,-34.2269
-119,-685,6.4353,34.4396,0.00233277,0.00682462,0.00076122,0.00695011,0.00220727,1.40741,0.00410069,0.0129313,1105,1709,6.43534,-34.4395
-112,-685,6.43835,34.6738,0.00273347,0.00723431,0.00075368,0.00735716,0.00261062,1.40921,0.00430691,0.0132298,1112,1709,6.43837,-34.6738
-105,-685,6.43323,34.9113,0.00290838,0.00737591,0.000698853,0.00748268,0.00280161,1.41919,0.00436532,0.0136636,1119,1709,6.43319,-34.9113
-98,-685,6.50916,35.0902,0.00309693,0.00733331,0.000553604,0.00740445,0.00302578,1.44298,0.00429868,0.0180805,1126,1709,6.50914,-35.0902
-91,-685,6.50891,35.2242,0.00340111,0.00691583,0.000211247,0.00692848,0.00338846,1.51098,0.00400048,0.0277554,1133,1709,6.50896,-35.2242
-84,-685,6.52344,35.3882,0.00384164,0.00615725,-0.000201759,0.0061747,0.0038242,-1.48453,0.00359865,0.0470475,1140,1709,6.52342,-35.3882
-77,-685,6.59424,35.7719,0,0,0,0,0,0,0,-1,1147,1709,6.59425,-35.7719
-70,-685,6.66272,36.1609,0,0,0,0,0,0,0,-1,1154,1709,6.66269,-36.1609
-63,-685,6.03015,29.7728,0,0,0,0,0,0,0,-1,1161,1709,6.0302,-29.7728
-56,-685,3.93909,15.8704,0,0,0,0,0,0,0,-1,1168,1709,3.93905,-15.8704
-49,-685,3.07471,9.86011,0,0,0,0,0,0,0,-1,1175,1709,3.07467,-9.86009
-42,-685,2.70618,7.54504,0,0,0,0,0,0,0,-1,1182,1709,2.7062,-7.54504
-35,-685,2.95264,7.91516,0,0,0,0,0,0,0,-1,1189,1709,2.95262,-7.91517
-28,-685,6.90735,36.9023,0,0,0,0,0,0,0,-1,1196,1709,6.90739,-36.9023
-21,-685,7.03577,36.6335,0,0,0,0,0,0,0,-1,1203,1709,7.03582,-36.6336
-14,-685,7.04309,36.8732,0.0223586,0.0388213,0.0194596,0.0517188,0.00946104,0.985484,0.0317982,0.0324658,1210,1709,7.04303,-36.8732
-7,-685,7.10291,37.0413,0.0167167,0.0392068,0.0189843,0.0500266,0.00589696,1.05278,0.0315695,0.0428599,1217,1709,7.10289,-37.0412
0,-685,7.25085,37.1066,0.0107076,0.0399371,0.0174288,0.0480678,0.00257692,1.1343,0.0312217,0.043987,1224,1709,7.25091,-37.1066
7,-685,7.33374,37.1892,0.00538507,0.0410478,0.0151643,0.0466239,-0.000191094,1.21843,0.0311465,0.0425562,1231,1709,7.3337,-37.1892
14,-685,7.38977,37.6586,0.00153993,0.0424455,0.0124498,0.0459367,-0.00195125,1.2974,0.0312952,0.0458952,1238,1709,7.38976,-37.6586
21,-685,7.38074,37.7178,-0.00100005,0.0444379,0.00893007,0.04613,-0.0026921,1.38354,0.0316888,0.0410384,1245,1709,7.38078,-37.7178
28,-685,7.30908,37.7898,-0.00213822,0.046635,0.00512378,0.0471675,-0.00267068,1.46725,0.0323719,0.043905,1252,1709,7.30912,-37.7898
35,-685,7.43091,37.6454,-0.00144869,0.0488484,0.000992638,0.048868,-0.00146827,1.55107,0.033079,0.0455332,1259,1709,7.43088,-37.6453
42,-685,7.57507,37.7671,0,0,0,0,0,0,0,-1,1266,1709,7.57512,-37.7671
49,-685,6.3114,37.0775,0,0,0,0,0,0,0,-1,1273,1709,6.31143,-37.0775
56,-685,6.0321,36.3514,0,0,0,0,0,0,0,-1,1280,1709,6.03212,-36.3514
63,-685,5.73926,35.7429,0,0,0,0,0,0,0,-1,1287,1709,5.73928,-35.7429
70,-685,5.65735,36.2526,0,0,0,0,0,0,0,-1,1294,1709,5.6573,-36.2525
77,-685,5.44556,36.5286,0,0,0,0,0,0,0,-1,1301,1709,5.44556,-36.5286
84,-685,7.68018,37.5822,0.0172607,0.0570009,-0.018353,0.0641799,0.0100817,-1.19793,0.0398534,0.0456113,1308,1709,7.68023,-37.5821
91,-685,7.49109,37.5804,0.0175586,0.0528818,-0.0201987,0.0620515,0.00838888,-1.14464,0.0388742,0.0466499,1315,1709,7.49106,-37.5804
98,-685,7.6283,37.5576,0,0,0,0,0,0,0,-1,1322,1709,7.62827,-37.5577
105,-685,7.68335,37.4496,0,0,0,0,0,0,0,-1,1329,1709,7.68331,-37.4496
112,-685,8.02478,37.2917,0,0,0,0,0,0,0,-1,1336,1709,8.02477,-37.2917
119,-685,7.9707,37.1465,0,0,0,0,0,0,0,-1,1343,1709,7.97066,-37.1464
126,-685,8.09912,36.9888,0,0,0,0,0,0,0,-1,1350,1709,8.0991,-36.9887
133,-685,8.22754,36.8311,0,0,0,0,0,0,0,-1,1357,1709,8.22754,-36.8311
140,-685,8.20593,36.951,0.000532938,0.0112687,-0.0245694,0.0310498,-0.0192482,-0.892947,0.0293048,0.0456658,1364,1709,8.20598,-36.951
147,-685,8.34167,36.832,-0.00122226,0.00661125,-0.0246153,0.0276194,-0.0222304,-0.864296,0.0288368,0.0459339,1371,1709,8.34169,-36.8321
154,-685,8.45984,36.6302,0,0,0,0,0,0,0,-1,1378,1709,8.45988,-36.6302
161,-685,8.59888,36.8522,0,0,0,0,0,0,0,-1,1385,1709,8.59892,-36.8521
168,-685,4.37524,10.8778,0,0,0,0,0,0,0,-1,1392,1709,4.37525,-10.8778
175,-685,3.97522,8.94324,0,0,0,0,0,0,0,-1,1399,1709,3.97519,-8.94328
182,-685,3.98218,9.19739,0,0,0,0,0,0,0,-1,1406,1709,3.98221,-9.1974
189,-685,4.53479,15.2343,0,0,0,0,0,0,0,-1,1413,1709,4.53474,-15.2343
196,-685,8.47437,36.3511,0,0,0,0,0,0,0,-1,1420,1709,8.4744,-36.3511
203,-685,8.50513,36.0223,0,0,0,0,0,0,0,-1,1427,1709,8.50509,-36.0223
210,-685,8.68481,35.797,0,0,0,0,0,0,0,-1,1434,1709,8.68486,-35.797
217,-685,8.62085,35.5197,0,0,0,0,0,0,0,-1,1441,1709,8.6208,-35.5197
224,-685,8.59277,35.3772,0,0,0,0,0,0,0,-1,1448,1709,8.59282,-35.3772
231,-685,8.62488,35.2764,0.00299423,-0.00132598,0.000709901,0.00310789,-0.00143964,0.158761,0.00268376,0.0351835,1455,1709,8.62485,-35.2763
238,-685,8.66174,34.9481,0.00272212,-0.00113938,0.000361716,0.00275571,-0.00117297,0.092599,0.00232877,0.0193973,1462,1709,8.66174,-34.9481
245,-685,8.68481,34.7295,0.00239207,-0.000961731,0.000230921,0.00240789,-0.000977556,0.0684232,0.0020119,0.0202278,1469,1709,8.68476,-34.7295
252,-685,8.68909,34.5857,0.00222679,-0.000862558,7.12515e-05,0.00222844,-0.0008642,0.0230472,0.00184253,0.0155766,1476,1709,8.68905,-34.5857
259,-685,8.69629,34.3685,0.00228845,-0.000590528,-0.000176469,0.00229923,-0.000601304,-0.0609914,0.00176768,0.0119382,1483,1709,8.69626,-34.3686
266,-685,8.73511,34.1232,0.0021868,-0.000380098,-0.00041501,0.00225223,-0.000445528,-0.156372,0.00166992,0.0130991,1490,1709,8.73514,-34.1232
273,-685,8.73364,33.8726,0.00184165,-0.000200585,-0.000391988,0.0019143,-0.000273239,-0.183267,0.00137635,0.0142828,1497,1709,8.73367,-33.8725
280,-685,8.71167,33.6383,0.00135241,7.16635e-05,-0.000339775,0.00143696,-1.28945e-05,-0.24391,0.000962303,0.0154703,1504,1709,8.71171,-33.6383
287,-685,8.72046,33.3962,0.000775037,0.000358696,-0.000207916,0.000861085,0.000272649,-0.392394,0.000508169,0.0119902,1511,1709,8.72043,-33.3963
294,-685,8.72351,33.123,0.000169033,0.000872868,-0.000123345,0.000893858,0.000148043,-1.40224,0.000553201,0.0103647,1518,1709,8.72354,-33.123
301,-685,8.71704,32.8633,-0.000445261,0.00139445,-8.68026e-05,0.00139853,-0.000449348,-1.52375,0.0011128,0.0125471,1525,1709,8.717,-32.8633
308,-685,8.71729,32.6033,-0.00100661,0.00184165,-4.18927e-05,0.00184227,-0.00100722,-1.55609,0.00166854,0.0132225,1532,1709,8.71731,-32.6033
315,-685,8.73193,32.3302,-0.00144619,0.002125,7.59131e-05,0.00212662,-0.0014478,1.54955,0.00207606,0.0119192,1539,1709,8.73192,-32.3302
322,-685,8.72229,32.0469,-0.00173583,0.00241181,8.74603e-05,0.00241365,-0.00173768,1.54972,0.00240734,0.0204503,1546,1709,8.72227,-32.0468
329,-685,8.68188,31.7538,-0.00192202,0.00255895,0.000111563,0.00256173,-0.00192479,1.54592,0.00259898,0.0201133,1553,1709,8.68184,-31.7538
336,-685,8.67163,31.4401,-0.00190927,0.00240267,0.00015878,0.00240851,-0.00191511,1.53404,0.00250166,0.0136915,1560,1709,8.67158,-31.4401
343,-685,8.66357,31.1353,-0.0017343,0.00214305,0.000247849,0.00215882,-0.00175008,1.50722,0.00226091,0.0119872,1567,1709,8.66357,-31.1352
350,-685,8.65881,30.8169,-0.00139852,0.0013506,0.000320939,0.00138757,-0.00143549,1.45611,0.00162997,0.0116985,1574,1709,8.65887,-30.8169
357,-685,8.64795,30.5404,-0.0011005,-0.000126863,0.000616255,0.000171661,-0.00139902,1.11969,0.000994849,0.00995724,1581,1709,8.64796,-30.5405
364,-685,8.62463,30.2382,-0.000627935,-0.00263587,0.00116803,-9.16907e-05,-0.00317212,0.430396,0.00208485,0.0101221,1588,1709,8.62465,-30.2382
371,-685,8.61865,29.9066,-9.70986e-05,-0.0051505,0.00149877,0.000313978,-0.00556158,0.267693,0.00381669,0.016644,1595,1709,8.61868,-29.9067
378,-685,8.59106,29.5753,-0.000105746,-0.008617,0.00258154,0.000616049,-0.00933879,0.272636,0.00644104,0.0215185,1602,1709,8.59103,-29.5754
385,-685,8.57861,29.3573,-0.000114232,-0.0125047,0.00375434,0.000934565,-0.0135535,0.272411,0.00936276,0.035546,1609,1709,8.57861,-29.3573
392,-685,8.6731,29.1102,-0.000397059,-0.0176264,0.00525729,0.00108043,-0.0191038,0.27397,0.0131109,0.0404624,1616,1709,8.67305,-29.1102
399,-685,8.83899,28.9535,-0.000902375,-0.0235358,0.00683945,0.00100385,-0.025442,0.271812,0.0173056,0.0472301,1623,1709,8.83894,-28.9535
406,-685,8.9751,28.7988,0,0,0,0,0,0,0,-1,1630,1709,8.97512,-28.7988
413,-685,8.44324,29.6392,0,0,0,0,0,0,0,-1,1637,1709,8.44324,-29.6391
420,-685,4.84631,10.3781,0,0,0,0,0,0,0,-1,1644,1709,4.84634,-10.378
427,-685,6.05151,9.21155,0,0,0,0,0,0,0,-1,1651,1709,6.05156,-9.21156
434,-685,4.87769,8.91418,0,0,0,0,0,0,0,-1,1658,1709,4.87768,-8.91413
441,-685,5.62,8.75549,0,0,0,0,0,0,0,-1,1665,1709,5.61996,-8.75545
448,-685,6.4043,8.58972,0,0,0,0,0,0,0,-1,1672,1709,6.40435,-8.58971
455,-685,2.31958,4.09802,0,0,0,0,0,0,0,-1,1679,1709,2.31957,-4.09803
462,-685,0,0,0,0,0,0,0,0,0,-1,1686,1709,0,0
469,-685,0,0,0,0,0,0,0,0,0,-1,1693,1709,0,0
476,-685,0,0,0,0,0,0,0,0,0,-1,1700,1709,0,0
483,-685,0,0,0,0,0,0,0,0,0,-1,1707,1709,0,0
490,-685,0,0,0,0,0,0,0,0,0,-1,1714,1709,0,0
497,-685,0,0,0,0,0,0,0,0,0,-1,1721,1709,0,0
504,-685,0,0,0,0,0,0,0,0,0,-1,1728,1709,0,0
511,-685,0,0,0,0,0,0,0,0,0,-1,1735,1709,0,0
518,-685,0,0,0,0,0,0,0,0,0,-1,1742,1709,0,0
525,-685,0,0,0,0,0,0,0,0,0,-1,1749,1709,0,0
532,-685,0,0,0,0,0,0,0,0,0,-1,1756,1709,0,0
539,-685,0,0,0,0,0,0,0,0,0,-1,1763,1709,0,0
546,-685,0,0,0,0,0,0,0,0,0,-1,1770,1709,0,0
553,-685,0,0,0,0,0,0,0,0,0,-1,1777,1709,0,0
560,-685,0,0,0,0,0,0,0,0,0,-1,1784,1709,0,0
567,-685,0,0,0,0,0,0,0,0,0,-1,1791,1709,0,0
574,-685,0,0,0,0,0,0,0,0,0,-1,1798,1709,0,0
581,-685,0,0,0,0,0,0,0,0,0,-1,1805,1709,0,0
588,-685,0,0,0,0,0,0,0,0,0,-1,1812,1709,0,0
595,-685,0,0,0,0,0,0,0,0,0,-1,1819,1709,0,0
602,-685,0,0,0,0,0,0,0,0,0,-1,1826,1709,0,0
609,-685,0,0,0,0,0,0,0,0,0,-1,1833,1709,0,0
616,-685,0,0,0,0,0,0,0,0,0,-1,1840,1709,0,0
623,-685,0,0,0,0,0,0,0,0,0,-1,1847,1709,0,0
630,-685,0,0,0,0,0,0,0,0,0,-1,1854,1709,0,0
637,-685,0,0,0,0,0,0,0,0,0,-1,1861,1709,0,0
644,-685,0,0,0,0,0,0,0,0,0,-1,1868,1709,0,0
651,-685,0,0,0,0,0,0,0,0,0,-1,1875,1709,0,0
658,-685,0,0,0,0,0,0,0,0,0,-1,1882,1709,0,0
665,-685,0,0,0,0,0,0,0,0,0,-1,1889,1709,0,0
672,-685,0,0,0,0,0,0,0,0,0,-1,1896,1709,0,0
679,-685,0,0,0,0,0,0,0,0,0,-1,1903,1709,0,0
686,-685,0,0,0,0,0,0,0,0,0,-1,1910,1709,0,0
693,-685,0,0,0,0,0,0,0,0,0,-1,1917,1709,0,0
700,-685,0,0,0,0,0,0,0,0,0,-1,1924,1709,0,0
707,-685,0,0,0,0,0,0,0,0,0,-1,1931,1709,0,0
714,-685,0,0,0,0,0,0,0,0,0,-1,1938,1709,0,0
721,-685,0,0,0,0,0,0,0,0,0,-1,1945,1709,0,0
728,-685,0,0,0,0,0,0,0,0,0,-1,1952,1709,0,0
735,-685,0,0,0,0,0,0,0,0,0,-1,1959,1709,0,0
742,-685,0,0,0,0,0,0,0,0,0,-1,1966,1709,0,0
749,-685,0,0,0,0,0,0,0,0,0,-1,1973,1709,0,0
756,-685,0,0,0,0,0,0,0,0,0,-1,1980,1709,0,0
763,-685,0,0,0,0,0,0,0,0,0,-1,1987,1709,0,0
770,-685,0,0,0,0,0,0,0,0,0,-1,1994,1709,0,0
777,-685,0,0,0,0,0,0,0,0,0,-1,2001,1709,0,0
784,-685,0,0,0,0,0,0,0,0,0,-1,2008,1709,0,0
791,-685,0,0,0,0,0,0,0,0,0,-1,2015,1709,0,0
798,-685,0,0,0,0,0,0,0,0,0,-1,2022,1709,0,0
805,-685,0,0,0,0,0,0,0,0,0,-1,2029,1709,0,0
812,-685,0,0,0,0,0,0,0,0,0,-1,2036,1709,0,0
-700,-692,0,0,0,0,0,0,0,0,0,-1,524,1716,0,0
-693,-692,0,0,0,0,0,0,0,0,0,-1,531,1716,0,0
-686,-692,0,0,0,0,0,0,0,0,0,-1,538,1716,0,0
-679,-692,0,0,0,0,0,0,0,0,0,-1,545,1716,0,0
-672,-692,0,0,0,0,0,0,0,0,0,-1,552,1716,0,0
-665,-692,0,0,0,0,0,0,0,0,0,-1,559,1716,0,0
-658,-692,0,0,0,0,0,0,0,0,0,-1,566,1716,0,0
-651,-692,0,0,0,0,0,0,0,0,0,-1,573,1716,0,0
-644,-692,0,0,0,0,0,0,0,0,0,-1,580,1716,0,0
-637,-692,0,0,0,0,0,0,0,0,0,-1,587,1716,0,0
-630,-692,0,0,0,0,0,0,0,0,0,-1,594,1716,0,0
-623,-692,0,0,0,0,0,0,0,0,0,-1,601,1716,0,0
-616,-692,0,0,0,0,0,0,0,0,0,-1,608,1716,0,0
-609,-692,0,0,0,0,0,0,0,0,0,-1,615,1716,0,0
-602,-692,0,0,0,0,0,0,0,0,0,-1,622,1716,0,0
-595,-692,0,0,0,0,0,0,0,0,0,-1,629,1716,0,0
-588,-692,0,0,0,0,0,0,0,0,0,-1,636,1716,0,0
-581,-692,0,0,0,0,0,0,0,0,0,-1,643,1716,0,0
-574,-692,0,0,0,0,0,0,0,0,0,-1,650,1716,0,0
-567,-692,0,0,0,0,0,0,0,0,0,-1,657,1716,0,0
-560,-692,0,0,0,0,0,0,0,0,0,-1,664,1716,0,0
-553,-692,0,0,0,0,0,0,0,0,0,-1,671,1716,0,0
-546,-692,0,0,0,0,0,0,0,0,0,-1,678,1716,0,0
-539,-692,0,0,0,0,0,0,0,0,0,-1,685,1716,0,0
-532,-692,0,0,0,0,0,0,0,0,0,-1,692,1716,0,0
-525,-692,0,0,0,0,0,0,0,0,0,-1,699,1716,0,0
-518,-692,0,0,0,0,0,0,0,0,0,-1,706,1716,0,0
-511,-692,0,0,0,0,0,0,0,0,0,-1,713,1716,0,0
-504,-692,0,0,0,0,0,0,0,0,0,-1,720,1716,0,0
-497,-692,0,0,0,0,0,0,0,0,0,-1,727,1716,0,0
-490,-692,0,0,0,0,0,0,0,0,0,-1,734,1716,0,0
-483,-692,0,0,0,0,0,0,0,0,0,-1,741,1716,0,0
-476,-692,0,0,0,0,0,0,0,0,0,-1,748,1716,0,0
-469,-692,0,0,0,0,0,0,0,0,0,-1,755,1716,0,0
-462,-692,0,0,0,0,0,0,0,0,0,-1,762,1716,0,0
-455,-692,0,0,0,0,0,0,0,0,0,-1,769,1716,0,0
-448,-692,0,0,0,0,0,0,0,0,0,-1,776,1716,0,0
-441,-692,0,0,0,0,0,0,0,0,0,-1,783,1716,0,0
-434,-692,0,0,0,0,0,0,0,0,0,-1,790,1716,0,0
-427,-692,0,0,0,0,0,0,0,0,0,-1,797,1716,0,0
-420,-692,0,0,0,0,0,0,0,0,0,-1,804,1716,0,0
-413,-692,0,0,0,0,0,0,0,0,0,-1,811,1716,0,0
-406,-692,0,0,0,0,0,0,0,0,0,-1,818,1716,0,0
-399,-692,0,0,0,0,0,0,0,0,0,-1,825,1716,0,0
-392,-692,0,0,0,0,0,0,0,0,0,-1,832,1716,0,0
-385,-692,0,0,0,0,0,0,0,0,0,-1,839,1716,0,0
-378,-692,0,0,0,0,0,0,0,0,0,-1,846,1716,0,0
-371,-692,0,0,0,0,0,0,0,0,0,-1,853,1716,0,0
-364,-692,0,0,0,0,0,0,0,0,0,-1,860,1716,0,0
-357,-692,0,0,0,0,0,0,0,0,0,-1,867,1716,0,0
-350,-692,0,0,0,0,0,0,0,0,0,-1,874,1716,0,0
-343,-692,0,0,0,0,0,0,0,0,0,-1,881,1716,0,0
-336,-692,0,0,0,0,0,0,0,0,0,-1,888,1716,0,0
-329,-692,3.03107,4.10266,0,0,0,0,0,0,0,-1,895,1716,3.03105,-4.10267
-322,-692,4.43713,18.5242,0,0,0,0,0,0,0,-1,902,1716,4.43711,-18.5241
-315,-692,5.38965,17.975,0,0,0,0,0,0,0,-1,909,1716,5.38963,-17.975
-308,-692,5.86938,17.4392,0,0,0,0,0,0,0,-1,916,1716,5.86937,-17.4392
-301,-692,8.65558,20.7662,0,0,0,0,0,0,0,-1,923,1716,8.65556,-20.7663
-294,-692,7.04529,27.412,0,0,0,0,0,0,0,-1,930,1716,7.04529,-27.412
-287,-692,7.18573,26.4318,0,0,0,0,0,0,0,-1,937,1716,7.1857,-26.4318
-280,-692,6.84235,26.2404,0,0,0,0,0,0,0,-1,944,1716,6.84233,-26.2403
-273,-692,7.43402,27.4434,0,0,0,0,0,0,0,-1,951,1716,7.43402,-27.4434
-266,-692,7.44745,27.3096,0,0,0,0,0,0,0,-1,958,1716,7.44743,-27.3096
-259,-692,7.2323,28.0563,0,0,0,0,0,0,0,-1,965,1716,7.23232,-28.0562
-252,-692,7.03442,28.9792,0,0,0,0,0,0,0,-1,972,1716,7.03445,-28.9792
-245,-692,6.98639,29.2261,-0.00676902,-3.99452e-05,0.00368266,0.00158371,-0.00839268,1.15554,0.00619092,0.0472689,979,1716,6.98637,-29.226
-238,-692,7.04297,29.5178,-0.00504279,-0.00140099,0.00494856,0.00205105,-0.00849483,0.961693,0.00645643,0.0462458,986,1716,7.04296,-29.5178
-231,-692,6.98224,29.9039,-0.00385004,-0.00302642,0.00553196,0.00210903,-0.00898549,0.82255,0.0068032,0.0409913,993,1716,6.98224,-29.904
-224,-692,6.7865,30.1903,-0.00286266,-0.00345932,0.00588843,0.00273499,-0.00905697,0.760088,0.00712678,0.019765,1000,1716,6.78653,-30.1903
-217,-692,6.76501,30.4906,-0.0024546,-0.0042958,0.00591382,0.00260984,-0.00936024,0.708183,0.00726802,0.0119687,1007,1716,6.76504,-30.4907
-210,-692,6.76813,30.8246,-0.00218114,-0.00526485,0.00580361,0.00228193,-0.00972793,0.655562,0.00736473,0.0131541,1014,1716,6.76815,-30.8246
-203,-692,6.76807,31.1372,-0.0019027,-0.00574165,0.0053559,0.0018673,-0.00951165,0.613335,0.00704649,0.0148815,1021,1716,6.76807,-31.1372
-196,-692,6.72864,31.4587,-0.00168767,-0.00582598,0.00476599,0.00143895,-0.0089526,0.580601,0.00650135,0.0167235,1028,1716,6.72862,-31.4587
-189,-692,6.70166,31.7465,-0.00146865,-0.00554285,0.00419455,0.0011573,-0.0081688,0.559345,0.00586979,0.00906213,1035,1716,6.70171,-31.7465
-182,-692,6.69385,32.0449,-0.00125613,-0.0050858,0.00348705,0.000807236,-0.00714917,0.534312,0.00505671,0.0138134,1042,1716,6.69385,-32.045
-175,-692,6.67847,32.3583,-0.00106475,-0.00448365,0.00274476,0.000459369,-0.00600777,0.506888,0.00416675,0.0149754,1049,1716,6.67843,-32.3582
-168,-692,6.68481,32.6617,-0.000836837,-0.00361317,0.00225626,0.000424096,-0.00487411,0.509619,0.0033996,0.011883,1056,1716,6.68485,-32.6617
-161,-692,6.7019,32.9583,-0.000497077,-0.00244753,0.00179679,0.000572083,-0.00351669,0.536764,0.00255658,0.0139133,1063,1716,6.70186,-32.9583
-154,-692,6.70142,33.2377,-0.000194398,-0.000812466,0.00136668,0.000897755,-0.00190462,0.674208,0.00165239,0.0146676,1070,1716,6.70147,-33.2376
-147,-692,6.67639,33.4763,5.71443e-05,0.000629136,0.00103194,0.00141397,-0.000727693,0.920578,0.00125747,0.013345,1077,1716,6.67637,-33.4763
-140,-692,6.65979,33.7153,0.000377159,0.00193663,0.000911496,0.0023564,-4.26101e-05,1.13922,0.00158533,0.010787,1084,1716,6.65976,-33.7153
-133,-692,6.66895,33.972,0.000724595,0.0030627,0.000791872,0.00330565,0.000481647,1.27311,0.00206205,0.010291,1091,1716,6.66896,-33.9721
-126,-692,6.67053,34.2172,0.0010806,0.00411329,0.000697305,0.00426594,0.000927949,1.35529,0.00259065,0.00757867,1098,1716,6.6705,-34.2172
-119,-692,6.66504,34.4432,0.00146056,0.00482283,0.000633404,0.00493819,0.00134519,1.39063,0.00294788,0.0110257,1105,1716,6.66501,-34.4432
-112,-692,6.66602,34.6819,0.00180089,0.00531259,0.000587563,0.00540829,0.00170519,1.40934,0.00319271,0.0112407,1112,1716,6.66606,-34.6819
-105,-692,6.6864,34.9147,0.00202707,0.00544518,0.00052252,0.00552327,0.00194898,1.42244,0.00323456,0.0154039,1119,1716,6.68646,-34.9147
-98,-692,6.75122,35.0789,0.00224935,0.00535892,0.00042406,0.00541572,0.00219256,1.43766,0.00314558,0.0168082,1126,1716,6.75122,-35.0789
-91,-692,6.73572,35.2507,0.00255006,0.00503171,0.000207756,0.00504899,0.00253279,1.48785,0.00291504,0.0189922,1133,1716,6.73571,-35.2508
-84,-692,6.76221,35.4675,0.00291978,0.00447257,-6.37533e-05,0.00447518,0.00291717,-1.52983,0.00262317,0.0225283,1140,1716,6.7622,-35.4675
-77,-692,6.76538,35.7073,0.00317277,0.00402353,-0.0006142,0.00434527,0.00285103,-1.08826,0.00254918,0.0183712,1147,1716,6.76539,-35.7072
-70,-692,6.81482,35.924,0.0031883,0.00340833,-0.00112055,0.00442426,0.00217237,-0.834332,0.00255448,0.0345989,1154,1716,6.81482,-35.924
-63,-692,6.82788,36.0244,0,0,0,0,0,0,0,-1,1161,1716,6.8279,-36.0244
-56,-692,6.80713,36.1538,0,0,0,0,0,0,0,-1,1168,1716,6.80716,-36.1538
-49,-692,6.82959,36.347,0,0,0,0,0,0,0,-1,1175,1716,6.82958,-36.347
-42,-692,6.87695,36.6521,0,0,0,0,0,0,0,-1,1182,1716,6.8769,-36.6521
-35,-692,6.9353,36.7958,0,0,0,0,0,0,0,-1,1189,1716,6.93529,-36.7958
-28,-692,6.98206,36.8728,0.00496165,0.0253061,0.00914692,0.0288138,0.00145394,1.20461,0.0187433,0.0470922,1196,1716,6.982,-36.8728
-21,-692,7.07068,36.8143,0.00462609,0.0269343,0.0101077,0.0308327,0.000727633,1.20269,0.020317,0.0336194,1203,1716,7.07062,-36.8143
-14,-692,7.08887,36.9115,0.00314299,0.0281937,0.0111216,0.0324187,-0.00108199,1.20774,0.021982,0.0182196,1210,1716,7.08883,-36.9114
-7,-692,7.11755,37.078,0.0014188,0.0293235,0.0114369,0.0334119,-0.00266962,1.22747,0.0232157,0.0170921,1217,1716,7.11752,-37.0781
0,-692,7.17358,37.1653,-0.000476391,0.0305975,0.0108443,0.0340077,-0.00388661,1.26612,0.0240721,0.0189073,1224,1716,7.17361,-37.1653
7,-692,7.20569,37.2321,-0.00197922,0.031983,0.00967648,0.0345465,-0.00454274,1.31182,0.024685,0.0237938,1231,1716,7.2057,-37.2321
14,-692,7.28162,37.4315,-0.00259416,0.0334654,0.00823741,0.035258,-0.00438679,1.35652,0.0250957,0.0265426,1238,1716,7.28161,-37.4315
21,-692,7.3645,37.5059,-0.00264699,0.0354885,0.00608808,0.0364369,-0.00359533,1.41627,0.0255741,0.026745,1245,1716,7.36448,-37.5058
28,-692,7.35156,37.4432,-0.00211929,0.0375055,0.00356239,0.0378233,-0.00243701,1.48184,0.0260659,0.0283061,1252,1716,7.35151,-37.4432
35,-692,7.3949,37.5225,-0.000626987,0.0394191,0.00066249,0.0394301,-0.000637941,1.55426,0.0265019,0.0268192,1259,1716,7.39488,-37.5224
42,-692,7.53894,37.6959,0.00171269,0.0425781,-0.00165333,0.0426449,0.00164591,-1.53043,0.0278975,0.0246206,1266,1716,7.539,-37.6959
49,-692,7.58447,37.7076,0.00432677,0.0447978,-0.0039824,0.0451859,0.00393862,-1.47364,0.0289007,0.0301571,1273,1716,7.58452,-37.7076
56,-692,7.40991,37.6597,0.00677935,0.0459083,-0.00735325,0.0472445,0.00544313,-1.39104,0.0298478,0.0369043,1280,1716,7.40995,-37.6596
63,-692,7.46277,37.677,0.00912727,0.0466983,-0.00955541,0.0489889,0.0068367,-1.33552,0.0306357,0.0344945,1287,1716,7.46273,-37.677
70,-692,7.62097,37.7228,0.0119804,0.0473162,-0.0112465,0.0505919,0.00870465,-1.28737,0.0312334,0.0296961,1294,1716,7.62101,-37.7228
77,-692,7.7251,37.6555,0.0137739,0.0466683,-0.0128088,0.0510676,0.00937465,-1.23996,0.0313903,0.0361768,1301,1716,7.7251,-37.6556
84,-692,7.66296,37.5243,0.0145302,0.0449908,-0.0139489,0.0504132,0.00910779,-1.20004,0.0310218,0.0437239,1308,1716,7.663,-37.5243
91,-692,7.65894,37.525,0.0147712,0.0414597,-0.0152766,0.0483995,0.0078314,-1.14439,0.0299986,0.0392162,1315,1716,7.65889,-37.525
98,-692,7.7605,37.5288,0.0140224,0.0364228,-0.0161091,0.0448427,0.00560251,-1.08917,0.0282136,0.0307066,1322,1716,7.7605,-37.5288
105,-692,7.76782,37.4554,0.012664,0.0316375,-0.0162255,0.0409461,0.00335542,-1.04994,0.0262505,0.0396689,1329,1716,7.76787,-37.4554
112,-692,7.93982,37.3427,0.0100442,0.0262826,-0.0163398,0.0364092,-8.24127e-05,-1.01598,0.0243003,0.0444806,1336,1716,7.93984,-37.3427
119,-692,7.96313,37.2653,0.00670095,0.0205605,-0.0170027,0.0319914,-0.00472996,-0.978905,0.0230665,0.0364861,1343,1716,7.96316,-37.2653
126,-692,8.01807,37.1639,0.00454856,0.0145901,-0.0173338,0.0276156,-0.00847691,-0.926367,0.0217927,0.0340789,1350,1716,8.01809,-37.1639
133,-692,8.10645,37.1191,0.00305713,0.00958649,-0.0171747,0.0238041,-0.0111605,-0.879321,0.020622,0.0253321,1357,1716,8.10646,-37.1191
140,-692,8.12109,37.1145,0.00168009,0.00567169,-0.0166017,0.0203972,-0.0130454,-0.845219,0.019463,0.0294676,1364,1716,8.12109,-37.1145
147,-692,8.17358,37.0427,0.00035072,0.00126585,-0.0162948,0.0171095,-0.015493,-0.799435,0.0188308,0.0333683,1371,1716,8.17356,-37.0427
154,-692,8.14807,36.9136,0.000598878,0.00113733,-0.0150529,0.0159234,-0.0141872,-0.79434,0.017394,0.0287432,1378,1716,8.14808,-36.9136
161,-692,8.32642,36.8369,0.00106414,0.00102424,-0.0130621,0.0141063,-0.0120179,-0.784634,0.0150989,0.0387016,1385,1716,8.32636,-36.8369
168,-692,8.50781,36.7692,0,0,0,0,0,0,0,-1,1392,1716,8.5078,-36.7692
175,-692,8.31506,36.55,0,0,0,0,0,0,0,-1,1399,1716,8.31504,-36.55
182,-692,8.29395,36.3838,0,0,0,0,0,0,0,-1,1406,1716,8.29392,-36.3838
189,-692,8.30908,36.248,0,0,0,0,0,0,0,-1,1413,1716,8.30914,-36.248
196,-692,8.34558,36.1011,0.0031575,-0.00207437,-0.00130167,0.00346346,-0.00238033,-0.23086,0.00339317,0.036785,1420,1716,8.34553,-36.1011
203,-692,8.37646,35.9658,0.0038953,-0.00084974,0.001881,0.00455049,-0.00150493,0.335176,0.00364051,0.0244377,1427,1716,8.37642,-35.9658
210,-692,8.44031,35.797,0.00331569,-0.000938563,0.00152638,0.00380667,-0.00142954,0.311213,0.00312525,0.0195803,1434,1716,8.44029,-35.797
217,-692,8.427,35.5792,0.00272768,-0.00108061,0.000941149,0.00294757,-0.0013005,0.229524,0.00251333,0.016351,1441,1716,8.42704,-35.5792
224,-692,8.42029,35.4012,0.00243197,-0.00096528,0.000698895,0.00257013,-0.00110344,0.195168,0.00217656,0.0128489,1448,1716,8.42029,-35.4013
231,-692,8.41602,35.2133,0.00213238,-0.000829762,0.000401599,0.00218586,-0.000883245,0.132394,0.00182437,0.0113939,1455,1716,8.41596,-35.2133
238,-692,8.42224,34.9633,0.00190202,-0.000685079,0.000140382,0.00190962,-0.000692674,0.0540506,0.00155623,0.0181342,1462,1716,8.4222,-34.9632
245,-692,8.44421,34.7366,0.00165148,-0.000550095,1.33259e-05,0.00165156,-0.000550176,0.0060526,0.00132313,0.021236,1469,1716,8.44427,-34.7365
252,-692,8.46387,34.5632,0.00147918,-0.000444665,-0.000127775,0.00148763,-0.000453115,-0.0660301,0.00117235,0.0201643,1476,1716,8.46392,-34.5632
259,-692,8.453,34.3761,0.0013579,-0.00026128,-0.000270521,0.0014019,-0.000305281,-0.161241,0.00105124,0.0112727,1483,1716,8.45304,-34.3761
266,-692,8.46375,34.1439,0.00105869,-7.71126e-05,-0.000322619,0.00114393,-0.000162354,-0.258313,0.000822099,0.0106926,1490,1716,8.46369,-34.1439
273,-692,8.4718,33.8849,0.000622225,0.000190115,-0.000288811,0.000766852,4.5488e-05,-0.464262,0.000496767,0.0142093,1497,1716,8.47185,-33.8848
280,-692,8.48486,33.6361,7.809e-06,0.000484124,-0.0002085,0.000562496,-7.05633e-05,-1.21125,0.000400595,0.0143272,1504,1716,8.48491,-33.6361
287,-692,8.48242,33.4109,-0.000682012,0.000891002,-7.78095e-05,0.000894842,-0.000685852,-1.52149,0.000915269,0.0118924,1511,1716,8.48244,-33.4109
294,-692,8.46936,33.144,-0.00139869,0.00152869,3.75111e-05,0.00152917,-0.00139917,1.55799,0.00169123,0.0106556,1518,1716,8.46933,-33.144
301,-692,8.46912,32.8866,-0.00212004,0.00216509,0.000113609,0.0021681,-0.00212305,1.54431,0.00247754,0.0130832,1525,1716,8.4691,-32.8865
308,-692,8.45947,32.6292,-0.00277834,0.00272823,0.000195845,0.00273518,-0.00278529,1.53529,0.00318729,0.0158595,1532,1716,8.45951,-32.6291
315,-692,8.46326,32.3535,-0.00325197,0.00309001,0.000356893,0.00311003,-0.00327199,1.51476,0.00368506,0.0150554,1539,1716,8.46324,-32.3535
322,-692,8.43274,32.0513,-0.00351433,0.00348151,0.000367986,0.00350081,-0.00353363,1.51839,0.00406135,0.0213283,1546,1716,8.43269,-32.0512
329,-692,8.3877,31.7439,-0.00365182,0.0037229,0.000414049,0.00374608,-0.00367499,1.51489,0.00428462,0.0188832,1553,1716,8.38766,-31.7439
336,-692,8.39233,31.4564,-0.00352636,0.00359066,0.000472531,0.00362189,-0.0035576,1.50479,0.00414514,0.012611,1560,1716,8.39237,-31.4564
343,-692,8.39612,31.1696,-0.00319017,0.00333301,0.000585605,0.00338516,-0.00324233,1.48197,0.00382668,0.0129029,1567,1716,8.39606,-31.1696
350,-692,8.37988,30.85,-0.00264978,0.00242099,0.000725519,0.00252275,-0.00275154,1.43144,0.00304607,0.014992,1574,1716,8.37985,-30.85
357,-692,8.33655,30.5155,-0.00209249,0.000674026,0.00113669,0.00108115,-0.00249962,1.22686,0.00212074,0.0197368,1581,1716,8.33652,-30.5155
364,-692,8.32275,30.1746,-0.00112204,-0.00223595,0.00177506,0.000181392,-0.00353938,0.633379,0.00242232,0.0252684,1588,1716,8.32277,-30.1746
371,-692,8.4574,29.9358,-0.000109325,-0.00535974,0.00210145,0.000628174,-0.00609724,0.337519,0.00428958,0.0373923,1595,1716,8.45736,-29.9358
378,-692,8.52832,29.6238,0,0,0,0,0,0,0,-1,1602,1716,8.52834,-29.6237
385,-692,8.25208,29.5242,0,0,0,0,0,0,0,-1,1609,1716,8.25213,-29.5242
392,-692,8.32581,28.7672,0,0,0,0,0,0,0,-1,1616,1716,8.32577,-28.7672
399,-692,8.49011,28.8525,0,0,0,0,0,0,0,-1,1623,1716,8.49008,-28.8525
406,-692,7.84009,28.0695,0,0,0,0,0,0,0,-1,1630,1716,7.8401,-28.0694
413,-692,4.25085,10.5685,0,0,0,0,0,0,0,-1,1637,1716,4.2508,-10.5685
420,-692,5.48901,10.4845,0,0,0,0,0,0,0,-1,1644,1716,5.48906,-10.4845
427,-692,3.79578,8.60339,0,0,0,0,0,0,0,-1,1651,1716,3.79577,-8.6034
434,-692,4.78516,8.64636,0,0,0,0,0,0,0,-1,1658,1716,4.78512,-8.64634
441,-692,5.8208,8.74036,0,0,0,0,0,0,0,-1,1665,1716,5.82084,-8.7404
448,-692,6.73792,8.51013,0,0,0,0,0,0,0,-1,1672,1716,6.73793,-8.5101
455,-692,0,0,0,0,0,0,0,0,0,-1,1679,1716,0,0
462,-692,0,0,0,0,0,0,0,0,0,-1,1686,1716,0,0
469,-692,0,0,0,0,0,0,0,0,0,-1,1693,1716,0,0
476,-692,0,0,0,0,0,0,0,0,0,-1,1700,1716,0,0
483,-692,0,0,0,0,0,0,0,0,0,-1,1707,1716,0,0
490,-692,0,0,0,0,0,0,0,0,0,-1,1714,1716,0,0
497,-692,0,0,0,0,0,0,0,0,0,-1,1721,1716,0,0
504,-692,0,0,0,0,0,0,0,0,0,-1,1728,1716,0,0
511,-692,0,0,0,0,0,0,0,0,0,-1,1735,1716,0,0
518,-692,0,0,0,0,0,0,0,0,0,-1,1742,1716,0,0
525,-692,0,0,0,0,0,0,0,0,0,-1,1749,1716,0,0
532,-692,0,0,0,0,0,0,0,0,0,-1,1756,1716,0,0
539,-692,0,0,0,0,0,0,0,0,0,-1,1763,1716,0,0
546,-692,0,0,0,0,0,0,0,0,0,-1,1770,1716,0,0
553,-692,0,0,0,0,0,0,0,0,0,-1,1777,1716,0,0
560,-692,0,0,0,0,0,0,0,0,0,-1,1784,1716,0,0
567,-692,0,0,0,0,0,0,0,0,0,-1,1791,1716,0,0
574,-692,0,0,0,0,0,0,0,0,0,-1,1798,1716,0,0
581,-692,0,0,0,0,0,0,0,0,0,-1,1805,1716,0,0
588,-692,0,0,0,0,0,0,0,0,0,-1,1812,1716,0,0
595,-692,0,0,0,0,0,0,0,0,0,-1,1819,1716,0,0
602,-692,0,0,0,0,0,0,0,0,0,-1,1826,1716,0,0
609,-692,0,0,0,0,0,0,0,0,0,-1,1833,1716,0,0
616,-692,0,0,0,0,0,0,0,0,0,-1,1840,1716,0,0
623,-692,0,0,0,0,0,0,0,0,0,-1,1847,1716,0,0
630,-692,0,0,0,0,0,0,0,0,0,-1,1854,1716,0,0
637,-692,0,0,0,0,0,0,0,0,0,-1,1861,1716,0,0
644,-692,0,0,0,0,0,0,0,0,0,-1,1868,1716,0,0
651,-692,0,0,0,0,0,0,0,0,0,-1,1875,1716,0,0
658,-692,0,0,0,0,0,0,0,0,0,-1,1882,1716,0,0
665,-692,0,0,0,0,0,0,0,0,0,-1,1889,1716,0,0
672,-692,0,0,0,0,0,0,0,0,0,-1,1896,1716,0,0
679,-692,0,0,0,0,0,0,0,0,0,-1,1903,1716,0,0
686,-692,0,0,0,0,0,0,0,0,0,-1,1910,1716,0,0
693,-692,0,0,0,0,0,0,0,0,0,-1,1917,1716,0,0
700,-692,0,0,0,0,0,0,0,0,0,-1,1924,1716,0,0
707,-692,0,0,0,0,0,0,0,0,0,-1,1931,1716,0,0
714,-692,0,0,0,0,0,0,0,0,0,-1,1938,1716,0,0
721,-692,0,0,0,0,0,0,0,0,0,-1,1945,1716,0,0
728,-692,0,0,0,0,0,0,0,0,0,-1,1952,1716,0,0
735,-692,0,0,0,0,0,0,0,0,0,-1,1959,1716,0,0
742,-692,0,0,0,0,0,0,0,0,0,-1,1966,1716,0,0
749,-692,0,0,0,0,0,0,0,0,0,-1,1973,1716,0,0
756,-692,0,0,0,0,0,0,0,0,0,-1,1980,1716,0,0
763,-692,0,0,0,0,0,0,0,0,0,-1,1987,1716,0,0
770,-692,0,0,0,0,0,0,0,0,0,-1,1994,1716,0,0
777,-692,0,0,0,0,0,0,0,0,0,-1,2001,1716,0,0
784,-692,0,0,0,0,0,0,0,0,0,-1,2008,1716,0,0
791,-692,0,0,0,0,0,0,0,0,0,-1,2015,1716,0,0
798,-692,0,0,0,0,0,0,0,0,0,-1,2022,1716,0,0
805,-692,0,0,0,0,0,0,0,0,0,-1,2029,1716,0,0
812,-692,0,0,0,0,0,0,0,0,0,-1,2036,1716,0,0
-700,-699,0,0,0,0,0,0,0,0,0,-1,524,1723,0,0
-693,-699,0,0,0,0,0,0,0,0,0,-1,531,1723,0,0
-686,-699,0,0,0,0,0,0,0,0,0,-1,538,1723,0,0
-679,-699,0,0,0,0,0,0,0,0,0,-1,545,1723,0,0
-672,-699,0,0,0,0,0,0,0,0,0,-1,552,1723,0,0
-665,-699,0,0,0,0,0,0,0,0,0,-1,559,1723,0,0
-658,-699,0,0,0,0,0,0,0,0,0,-1,566,1723,0,0
-651,-699,0,0,0,0,0,0,0,0,0,-1,573,1723,0,0
-644,-699,0,0,0,0,0,0,0,0,0,-1,580,1723,0,0
-637,-699,0,0,0,0,0,0,0,0,0,-1,587,1723,0,0
-630,-699,0,0,0,0,0,0,0,0,0,-1,594,1723,0,0
-623,-699,0,0,0,0,0,0,0,0,0,-1,601,1723,0,0
-616,-699,0,0,0,0,0,0,0,0,0,-1,608,1723,0,0
-609,-699,0,0,0,0,0,0,0,0,0,-1,615,1723,0,0
-602,-699,0,0,0,0,0,0,0,0,0,-1,622,1723,0,0
-595,-699,0,0,0,0,0,0,0,0,0,-1,629,1723,0,0
-588,-699,0,0,0,0,0,0,0,0,0,-1,636,1723,0,0
-581,-699,0,0,0,0,0,0,0,0,0,-1,643,1723,0,0
-574,-699,0,0,0,0,0,0,0,0,0,-1,650,1723,0,0
-567,-699,0,0,0,0,0,0,0,0,0,-1,657,1723,0,0
-560,-699,0,0,0,0,0,0,0,0,0,-1,664,1723,0,0
-553,-699,0,0,0,0,0,0,0,0,0,-1,671,1723,0,0
-546,-699,0,0,0,0,0,0,0,0,0,-1,678,1723,0,0
-539,-699,0,0,0,0,0,0,0,0,0,-1,685,1723,0,0
-532,-699,0,0,0,0,0,0,0,0,0,-1,692,1723,0,0
-525,-699,0,0,0,0,0,0,0,0,0,-1,699,1723,0,0
-518,-699,0,0,0,0,0,0,0,0,0,-1,706,1723,0,0
-511,-699,0,0,0,0,0,0,0,0,0,-1,713,1723,0,0
-504,-699,0,0,0,0,0,0,0,0,0,-1,720,1723,0,0
-497,-699,0,0,0,0,0,0,0,0,0,-1,727,1723,0,0
-490,-699,0,0,0,0,0,0,0,0,0,-1,734,1723,0,0
-483,-699,0,0,0,0,0,0,0,0,0,-1,741,1723,0,0
-476,-699,0,0,0,0,0,0,0,0,0,-1,748,1723,0,0
-469,-699,0,0,0,0,0,0,0,0,0,-1,755,1723,0,0
-462,-699,0,0,0,0,0,0,0,0,0,-1,762,1723,0,0
-455,-699,0,0,0,0,0,0,0,0,0,-1,769,1723,0,0
-448,-699,0,0,0,0,0,0,0,0,0,-1,776,1723,0,0
-441,-699,0,0,0,0,0,0,0,0,0,-1,783,1723,0,0
-434,-699,0,0,0,0,0,0,0,0,0,-1,790,1723,0,0
-427,-699,0,0,0,0,0,0,0,0,0,-1,797,1723,0,0
-420,-699,0,0,0,0,0,0,0,0,0,-1,804,1723,0,0
-413,-699,0,0,0,0,0,0,0,0,0,-1,811,1723,0,0
-406,-699,0,0,0,0,0,0,0,0,0,-1,818,1723,0,0
-399,-699,0,0,0,0,0,0,0,0,0,-1,825,1723,0,0
-392,-699,0,0,0,0,0,0,0,0,0,-1,832,1723,0,0
-385,-699,0,0,0,0,0,0,0,0,0,-1,839,1723,0,0
-378,-699,0,0,0,0,0,0,0,0,0,-1,846,1723,0,0
-371,-699,0,0,0,0,0,0,0,0,0,-1,853,1723,0,0
-364,-699,0,0,0,0,0,0,0,0,0,-1,860,1723,0,0
-357,-699,0,0,0,0,0,0,0,0,0,-1,867,1723,0,0
-350,-699,0,0,0,0,0,0,0,0,0,-1,874,1723,0,0
-343,-699,0,0,0,0,0,0,0,0,0,-1,881,1723,0,0
-336,-699,0,0,0,0,0,0,0,0,0,-1,888,1723,0,0
-329,-699,0,0,0,0,0,0,0,0,0,-1,895,1723,0,0
-322,-699,0,0,0,0,0,0,0,0,0,-1,902,1723,0,0
-315,-699,6.20001,19.5193,0,0,0,0,0,0,0,-1,909,1723,6.20001,-19.5193
-308,-699,6.98151,18.9218,0,0,0,0,0,0,0,-1,916,1723,6.98151,-18.9217
-301,-699,4.72729,12.8752,0,0,0,0,0,0,0,-1,923,1723,4.72732,-12.8752
-294,-699,6.90332,19.8601,0,0,0,0,0,0,0,-1,930,1723,6.90332,-19.8601
-287,-699,7.71405,27.0637,0,0,0,0,0,0,0,-1,937,1723,7.71407,-27.0637
-280,-699,7.39789,26.2758,0,0,0,0,0,0,0,-1,944,1723,7.39789,-26.2758
-273,-699,7.48419,26.1683,0,0,0,0,0,0,0,-1,951,1723,7.48418,-26.1684
-266,-699,6.81915,20.8951,0,0,0,0,0,0,0,-1,958,1723,6.81914,-20.8952
-259,-699,5.39758,14.5466,0,0,0,0,0,0,0,-1,965,1723,5.39759,-14.5466
-252,-699,7.9483,28.2317,0,0,0,0,0,0,0,-1,972,1723,7.94833,-28.2317
-245,-699,7.47284,29.361,0,0,0,0,0,0,0,-1,979,1723,7.47286,-29.3609
-238,-699,7.4646,29.6355,0,0,0,0,0,0,0,-1,986,1723,7.46457,-29.6355
-231,-699,6.8681,29.7196,-0.0047485,-0.00423257,0.00819134,0.00370487,-0.0126859,0.801139,0.00992547,0.0440155,993,1723,6.8681,-29.7196
-224,-699,6.99713,30.0575,-0.00366981,-0.00506557,0.00855652,0.00421724,-0.0129526,0.744708,0.0103318,0.0398627,1000,1723,6.99712,-30.0575
-217,-699,7.07697,30.4604,-0.00329556,-0.00643981,0.00844556,0.00372295,-0.0134583,0.693377,0.0104369,0.0266722,1007,1723,7.07698,-30.4605
-210,-699,7.08936,30.8425,-0.00306307,-0.00783507,0.00817016,0.00306237,-0.0139605,0.64333,0.010478,0.0172044,1014,1723,7.08937,-30.8425
-203,-699,7.06921,31.1304,-0.0027968,-0.00853058,0.00746795,0.00233564,-0.013663,0.602126,0.00997876,0.0195918,1021,1723,7.06922,-31.1304
-196,-699,7.03308,31.4457,-0.00258249,-0.0087575,0.00660484,0.00162087,-0.0129609,0.566759,0.00922843,0.0166061,1028,1723,7.03312,-31.4456
-189,-699,6.99573,31.7692,-0.0023322,-0.00845562,0.00578542,0.00115172,-0.0119395,0.542027,0.00837005,0.00901644,1035,1723,6.99571,-31.7691
-182,-699,6.97803,32.0718,-0.00215348,-0.0079132,0.00479071,0.000556339,-0.010623,0.514772,0.00727455,0.0120142,1042,1723,6.97806,-32.0718
-175,-699,6.9762,32.3961,-0.00203431,-0.00715952,0.00377835,-3.15229e-05,-0.00916231,0.487414,0.00609773,0.0142273,1049,1723,6.97616,-32.3961
-168,-699,6.9718,32.6846,-0.00184147,-0.00614795,0.00306254,-0.000250972,-0.00773845,0.479,0.00507738,0.0158351,1056,1723,6.97186,-32.6846
-161,-699,6.95422,32.9512,-0.00147997,-0.00485729,0.0023871,-0.000244619,-0.00609264,0.477557,0.00398272,0.0141227,1063,1723,6.95418,-32.9512
-154,-699,6.9353,33.2339,-0.00119574,-0.00299886,0.00173919,-0.00013832,-0.00405627,0.546277,0.00265928,0.0141135,1070,1723,6.93525,-33.2339
-147,-699,6.92419,33.4813,-0.000977867,-0.00141216,0.00124279,6.66061e-05,-0.00245664,0.698908,0.0016604,0.0152069,1077,1723,6.92416,-33.4813
-140,-699,6.9043,33.7142,-0.000670721,1.49593e-05,0.00103692,0.000764247,-0.00142001,0.945057,0.00127988,0.0104841,1084,1723,6.90431,-33.7142
-133,-699,6.90601,33.9702,-0.00031633,0.0012555,0.000841046,0.00162068,-0.000681509,1.16116,0.00136554,0.00928343,1091,1723,6.90603,-33.9702
-126,-699,6.9165,34.2025,3.64562e-05,0.00246515,0.000685323,0.00264519,-0.000143581,1.3139,0.00181322,0.01087,1098,1723,6.91649,-34.2025
-119,-699,6.91467,34.4437,0.000407132,0.00319878,0.000583047,0.00331566,0.000290253,1.37296,0.00212032,0.0160638,1105,1723,6.91465,-34.4438
-112,-699,6.89026,34.6844,0.000786102,0.00382124,0.000505378,0.00390318,0.000704164,1.41006,0.00240205,0.0115275,1112,1723,6.89022,-34.6844
-105,-699,6.90247,34.9211,0.00106414,0.00401537,0.000422751,0.00407473,0.00100478,1.43129,0.00245119,0.0115926,1119,1723,6.90251,-34.9212
-98,-699,6.95117,35.1077,0.00131629,0.00393677,0.000372372,0.00398866,0.00126441,1.43235,0.0023537,0.0135741,1126,1723,6.95116,-35.1077
-91,-699,6.95581,35.2902,0.00162938,0.00371064,0.000260587,0.00374277,0.00159725,1.44811,0.0021686,0.0201,1133,1723,6.95575,-35.2901
-84,-699,6.96924,35.5228,0.00195773,0.00330456,0.000103621,0.00331249,0.0019498,1.49446,0.00192245,0.0235802,1140,1723,6.96919,-35.5228
-77,-699,6.96167,35.6876,0.00222072,0.00298419,-0.00023957,0.00305313,0.00215177,-1.29057,0.00181134,0.0156669,1147,1723,6.96166,-35.6876
-70,-699,6.97168,35.8661,0.00231468,0.00250688,-0.000579269,0.00299796,0.00182359,-0.867599,0.00174435,0.0170614,1154,1723,6.97164,-35.866
-63,-699,6.99402,36.0563,0.00257301,0.00393821,-0.000904657,0.0043889,0.00212232,-1.1086,0.00253439,0.0152402,1161,1723,6.99404,-36.0563
-56,-699,6.98279,36.2041,0.00278277,0.00516294,-0.00102878,0.00554597,0.00239974,-1.21438,0.00321162,0.0110927,1168,1723,6.98277,-36.2041
-49,-699,7.00256,36.3828,0.00165157,0.00767062,0.000648006,0.0077396,0.00158259,1.46476,0.00472145,0.0239886,1175,1723,7.00254,-36.3829
-42,-699,7.04175,36.5804,0.000867516,0.0102664,0.00235723,0.0108244,0.000309458,1.33833,0.00711538,0.0288147,1182,1723,7.04176,-36.5805
-35,-699,7.05676,36.6969,0.000392225,0.0127486,0.0034229,0.0136334,-0.000492609,1.31783,0.00925751,0.0260415,1189,1723,7.05678,-36.6969
-28,-699,7.12524,36.7932,-0.000109985,0.0149874,0.00419462,0.0160746,-0.00119712,1.3172,0.0111369,0.0202199,1196,1723,7.12524,-36.7932
-21,-699,7.13477,36.8444,-0.000626025,0.0165748,0.00492481,0.017885,-0.00193626,1.31077,0.0126184,0.0138015,1203,1723,7.13472,-36.8444
-14,-699,7.13965,36.9611,-0.00175283,0.018071,0.00583092,0.0196589,-0.00334073,1.30492,0.0143497,0.0124622,1210,1723,7.1397,-36.961
-7,-699,7.17029,37.085,-0.0027247,0.019563,0.00639703,0.0212685,-0.00443027,1.31024,0.0158633,0.00945806,1217,1723,7.17033,-37.0849
0,-699,7.22131,37.1687,-0.00359358,0.0211627,0.00632802,0.0226864,-0.00511732,1.3345,0.0170874,0.0103847,1224,1723,7.22126,-37.1687
7,-699,7.2644,37.2407,-0.0043228,0.0226788,0.00582724,0.0238827,-0.0055267,1.36706,0.0180483,0.0164486,1231,1723,7.26435,-37.2407
14,-699,7.32703,37.3373,-0.00450162,0.0238643,0.00498768,0.0247158,-0.00535307,1.40172,0.0185212,0.01849,1238,1723,7.327,-37.3373
21,-699,7.37537,37.3685,-0.00409145,0.0256741,0.00372189,0.0261324,-0.00454978,1.44827,0.0191195,0.0167781,1245,1723,7.37537,-37.3686
28,-699,7.39648,37.3879,-0.00334296,0.0273054,0.00207277,0.027445,-0.00348251,1.50357,0.0195611,0.0161071,1252,1723,7.39645,-37.3879
35,-699,7.4248,37.4823,-0.00199524,0.0287467,3.59408e-05,0.0287468,-0.00199528,1.56963,0.019863,0.013969,1259,1723,7.42483,-37.4823
42,-699,7.46924,37.5308,-0.000154084,0.0310783,-0.00169692,0.0311702,-0.00024601,-1.51668,0.0208626,0.0134114,1266,1723,7.46919,-37.5308
49,-699,7.49707,37.5684,0.00179394,0.0325757,-0.00345908,0.0329596,0.00141002,-1.46026,0.0215185,0.0160845,1273,1723,7.49712,-37.5684
56,-699,7.52881,37.6104,0.00405785,0.0333587,-0.00574754,0.0344458,0.00297077,-1.38387,0.0220404,0.0164864,1280,1723,7.52879,-37.6104
63,-699,7.58081,37.5892,0.0061463,0.0338559,-0.00753544,0.0357726,0.00422966,-1.32173,0.022571,0.0134892,1287,1723,7.58079,-37.5892
70,-699,7.62891,37.5861,0.00810236,0.0341029,-0.00878128,0.0367908,0.00541448,-1.27376,0.0229364,0.0113351,1294,1723,7.62892,-37.5861
77,-699,7.63879,37.5557,0.00959192,0.0336044,-0.00986904,0.03714,0.00605637,-1.22679,0.0230085,0.0117604,1301,1723,7.63875,-37.5557
84,-699,7.65417,37.4944,0.0104608,0.0324207,-0.0104915,0.0366273,0.00625428,-1.18947,0.0226235,0.0138113,1308,1723,7.65413,-37.4944
91,-699,7.72827,37.4984,0.0110528,0.0297643,-0.0112067,0.0350072,0.00580991,-1.13321,0.0216628,0.0126972,1315,1723,7.72824,-37.4984
98,-699,7.79224,37.5105,0.0107525,0.0257619,-0.0115058,0.0319941,0.00452024,-1.07438,0.0199937,0.011183,1322,1723,7.79219,-37.5105
105,-699,7.81396,37.4882,0.00995773,0.0219804,-0.0111783,0.0286612,0.00327693,-1.0321,0.0181142,0.0157435,1329,1723,7.81398,-37.4882
112,-699,7.83118,37.4167,0.00856055,0.0178916,-0.0107514,0.0249461,0.00150606,-0.99011,0.0161521,0.0218327,1336,1723,7.83119,-37.4167
119,-699,7.8667,37.3428,0.00658902,0.0137771,-0.0106419,0.0214155,-0.00104938,-0.948247,0.0146394,0.0167419,1343,1723,7.86665,-37.3427
126,-699,7.91797,37.2675,0.00507392,0.00873729,-0.0106146,0.0176771,-0.0038659,-0.870838,0.0132625,0.0177607,1350,1723,7.91793,-37.2675
133,-699,7.97034,37.2028,0.00406967,0.00456722,-0.0102267,0.0145482,-0.00591128,-0.797559,0.012158,0.0152021,1357,1723,7.97035,-37.2028
140,-699,8.00024,37.1161,0.00314431,0.00131696,-0.00951979,0.0117942,-0.00733291,-0.737557,0.0111427,0.0165794,1364,1723,8.00021,-37.1161
147,-699,8.00403,37.0189,0.00221666,-0.00235006,-0.009038,0.00925527,-0.00938867,-0.661667,0.0107642,0.0139665,1371,1723,8.00405,-37.019
154,-699,7.98999,36.9221,0.00233508,-0.00236805,-0.00803555,0.00835608,-0.00838905,-0.64305,0.00966781,0.0129914,1378,1723,7.98994,-36.9222
161,-699,8.06042,36.8049,0.00253909,-0.0023363,-0.00647594,0.00702094,-0.00681815,-0.605389,0.00799029,0.0098199,1385,1723,8.06043,-36.8049
168,-699,8.09692,36.6912,0.00276785,-0.00216446,-0.0053003,0.00614764,-0.00554426,-0.567652,0.00675331,0.011498,1392,1723,8.09687,-36.6912
175,-699,8.14526,36.5656,0.00266511,-0.0018364,-0.00434963,0.00531182,-0.00448312,-0.54664,0.00566185,0.0137361,1399,1723,8.14523,-36.5655
182,-699,8.15356,36.41,0.00263006,-0.00172923,-0.0028368,0.00402789,-0.00312705,-0.457828,0.0041418,0.0146412,1406,1723,8.15359,-36.4101
189,-699,8.15405,36.252,0.0026227,-0.00195043,-0.0016718,0.00316867,-0.0024964,-0.31566,0.0032784,0.0169006,1413,1723,8.15407,-36.252
196,-699,8.18188,36.1165,0.00272377,-0.00160362,-9.98095e-05,0.00272607,-0.00160592,-0.0230483,0.00252879,0.0164118,1420,1723,8.18186,-36.1164
203,-699,8.19519,35.9739,0.00272569,-0.000334375,0.00120142,0.00314101,-0.000749698,0.332833,0.00238354,0.0140205,1427,1723,8.19521,-35.9739
210,-699,8.21582,35.8097,0.00226522,-0.000369772,0.000916096,0.00255241,-0.000656965,0.303793,0.00195769,0.0144714,1434,1723,8.21586,-35.8097
217,-699,8.21326,35.6259,0.00180496,-0.000432464,0.000477701,0.00190268,-0.000530187,0.201786,0.00147725,0.0145264,1441,1723,8.21323,-35.6258
224,-699,8.20117,35.4272,0.00155269,-0.000332206,0.000264495,0.0015891,-0.000368617,0.136804,0.00120128,0.0157684,1448,1723,8.20118,-35.4273
231,-699,8.22314,35.212,0.00128738,-0.000231551,3.92867e-05,0.00128839,-0.000232566,0.0258417,0.000946027,0.011942,1455,1723,8.22309,-35.212
238,-699,8.21387,34.9965,0.00109852,-0.000131861,-0.000139162,0.00111406,-0.000147404,-0.111232,0.000796404,0.0107938,1462,1723,8.21393,-34.9965
245,-699,8.22449,34.7889,0.000920924,-2.84459e-05,-0.000251475,0.000983422,-9.09439e-05,-0.24359,0.000687936,0.0127074,1469,1723,8.22448,-34.789
252,-699,8.21533,34.6041,0.00073722,9.30624e-05,-0.000371783,0.000907033,-7.67506e-05,-0.428455,0.000631828,0.0114028,1476,1723,8.21531,-34.6041
259,-699,8.2135,34.3844,0.00037464,0.000188542,-0.000385289,0.000677957,-0.000114775,-0.666915,0.000494688,0.0117093,1483,1723,8.21344,-34.3844
266,-699,8.21204,34.1539,-0.000187665,0.000357682,-0.000210445,0.000429448,-0.00025943,-1.24215,0.000401741,0.0132326,1490,1723,8.21207,-34.1539
273,-699,8.23096,33.9052,-0.000759855,0.000725805,-0.000142286,0.00073931,-0.00077336,-1.47617,0.000873414,0.0125815,1497,1723,8.23092,-33.9051
280,-699,8.25378,33.6415,-0.00155542,0.00106714,-2.40071e-06,0.00106714,-0.00155542,-1.56988,0.00152286,0.0130309,1504,1723,8.25379,-33.6415
287,-699,8.23853,33.3718,-0.00243366,0.00161869,0.000171575,0.00162594,-0.00244092,1.52856,0.00236366,0.0112086,1511,1723,8.23851,-33.3719
294,-699,8.22095,33.1169,-0.00334505,0.00242319,0.000355825,0.00244505,-0.00336692,1.50942,0.00336959,0.0111675,1518,1723,8.22092,-33.117
301,-699,8.2063,32.885,-0.00425082,0.00322104,0.000505626,0.0032551,-0.00428488,1.50353,0.00436672,0.0121531,1525,1723,8.20628,-32.885
308,-699,8.20996,32.6534,-0.00508843,0.00395509,0.00065878,0.00400283,-0.00513616,1.49846,0.0052899,0.0166416,1532,1723,8.21,-32.6534
315,-699,8.19958,32.3677,-0.00567098,0.00446486,0.000887863,0.00454204,-0.00574817,1.48408,0.00595464,0.019354,1539,1723,8.19963,-32.3677
322,-699,8.16968,32.0641,-0.00596603,0.00504483,0.000917084,0.00512069,-0.00604189,1.48827,0.00645203,0.0207254,1546,1723,8.16962,-32.0641
329,-699,8.12598,31.7739,-0.0060833,0.0054561,0.000998564,0.00554187,-0.00616907,1.48511,0.00676455,0.0178437,1553,1723,8.12592,-31.774
336,-699,8.11719,31.5013,-0.00583744,0.0054122,0.00106596,0.00551232,-0.00593755,1.47715,0.0066121,0.0199435,1560,1723,8.11721,-31.5013
343,-699,8.14563,31.2089,-0.0053103,0.0051974,0.00120052,0.00533281,-0.00544572,1.45847,0.0062231,0.0263278,1567,1723,8.14557,-31.2089
350,-699,8.09387,30.8763,-0.00451129,0.00417883,0.00142644,0.00440698,-0.00473944,1.41219,0.00528185,0.0349959,1574,1723,8.09387,-30.8764
357,-699,7.95081,30.531,-0.00358096,0.00213674,0.001983,0.00275716,-0.00420137,1.26758,0.00404625,0.0407003,1581,1723,7.95085,-30.5311
364,-699,7.90662,30.3876,-0.00177641,-0.00119583,0.002669,0.00119862,-0.00417086,0.839567,0.00325454,0.0428969,1588,1723,7.90664,-30.3876
371,-699,8.26758,30.1055,0,0,0,0,0,0,0,-1,1595,1723,8.26762,-30.1054
378,-699,7.3009,26.9484,0,0,0,0,0,0,0,-1,1602,1723,7.30092,-26.9483
385,-699,6.32727,24.7136,0,0,0,0,0,0,0,-1,1609,1723,6.32725,-24.7136
392,-699,7.6582,28.4188,0,0,0,0,0,0,0,-1,1616,1723,7.65826,-28.4188
399,-699,7.28809,29.0607,0,0,0,0,0,0,0,-1,1623,1723,7.28812,-29.0606
406,-699,5.50757,21.6672,0,0,0,0,0,0,0,-1,1630,1723,5.50755,-21.6672
413,-699,9.31396,23.2781,0,0,0,0,0,0,0,-1,1637,1723,9.31396,-23.278
420,-699,2.15076,7.65527,0,0,0,0,0,0,0,-1,1644,1723,2.15079,-7.65522
427,-699,3.36328,8.2428,0,0,0,0,0,0,0,-1,1651,1723,3.36332,-8.24283
434,-699,4.66455,8.90222,0,0,0,0,0,0,0,-1,1658,1723,4.66456,-8.90223
441,-699,0,0,0,0,0,0,0,0,0,-1,1665,1723,0,0
448,-699,0,0,0,0,0,0,0,0,0,-1,1672,1723,0,0
455,-699,0,0,0,0,0,0,0,0,0,-1,1679,1723,0,0
462,-699,0,0,0,0,0,0,0,0,0,-1,1686,1723,0,0
469,-699,0,0,0,0,0,0,0,0,0,-1,1693,1723,0,0
476,-699,0,0,0,0,0,0,0,0,0,-1,1700,1723,0,0
483,-699,0,0,0,0,0,0,0,0,0,-1,1707,1723,0,0
490,-699,0,0,0,0,0,0,0,0,0,-1,1714,1723,0,0
497,-699,0,0,0,0,0,0,0,0,0,-1,1721,1723,0,0
504,-699,0,0,0,0,0,0,0,0,0,-1,1728,1723,0,0
511,-699,0,0,0,0,0,0,0,0,0,-1,1735,1723,0,0
518,-699,0,0,0,0,0,0,0,0,0,-1,1742,1723,0,0
525,-699,0,0,0,0,0,0,0,0,0,-1,1749,1723,0,0
532,-699,0,0,0,0,0,0,0,0,0,-1,1756,1723,0,0
539,-699,0,0,0,0,0,0,0,0,0,-1,1763,1723,0,0
546,-699,0,0,0,0,0,0,0,0,0,-1,1770,1723,0,0
553,-699,0,0,0,0,0,0,0,0,0,-1,1777,1723,0,0
560,-699,0,0,0,0,0,0,0,0,0,-1,1784,1723,0,0
567,-699,0,0,0,0,0,0,0,0,0,-1,1791,1723,0,0
574,-699,0,0,0,0,0,0,0,0,0,-1,1798,1723,0,0
581,-699,0,0,0,0,0,0,0,0,0,-1,1805,1723,0,0
588,-699,0,0,0,0,0,0,0,0,0,-1,1812,1723,0,0
595,-699,0,0,0,0,0,0,0,0,0,-1,1819,1723,0,0
602,-699,0,0,0,0,0,0,0,0,0,-1,1826,1723,0,0
609,-699,0,0,0,0,0,0,0,0,0,-1,1833,1723,0,0
616,-699,0,0,0,0,0,0,0,0,0,-1,1840,1723,0,0
623,-699,0,0,0,0,0,0,0,0,0,-1,1847,1723,0,0
630,-699,0,0,0,0,0,0,0,0,0,-1,1854,1723,0,0
637,-699,0,0,0,0,0,0,0,0,0,-1,1861,1723,0,0
644,-699,0,0,0,0,0,0,0,0,0,-1,1868,1723,0,0
651,-699,0,0,0,0,0,0,0,0,0,-1,1875,1723,0,0
658,-699,0,0,0,0,0,0,0,0,0,-1,1882,1723,0,0
665,-699,0,0,0,0,0,0,0,0,0,-1,1889,1723,0,0
672,-699,0,0,0,0,0,0,0,0,0,-1,1896,1723,0,0
679,-699,0,0,0,0,0,0,0,0,0,-1,1903,1723,0,0
686,-699,0,0,0,0,0,0,0,0,0,-1,1910,1723,0,0
693,-699,0,0,0,0,0,0,0,0,0,-1,1917,1723,0,0
700,-699,0,0,0,0,0,0,0,0,0,-1,1924,1723,0,0
707,-699,0,0,0,0,0,0,0,0,0,-1,1931,1723,0,0
714,-699,0,0,0,0,0,0,0,0,0,-1,1938,1723,0,0
721,-699,0,0,0,0,0,0,0,0,0,-1,1945,1723,0,0
728,-699,0,0,0,0,0,0,0,0,0,-1,1952,1723,0,0
735,-699,0,0,0,0,0,0,0,0,0,-1,1959,1723,0,0
742,-699,0,0,0,0,0,0,0,0,0,-1,1966,1723,0,0
749,-699,0,0,0,0,0,0,0,0,0,-1,1973,1723,0,0
756,-699,0,0,0,0,0,0,0,0,0,-1,1980,1723,0,0
763,-699,0,0,0,0,0,0,0,0,0,-1,1987,1723,0,0
770,-699,0,0,0,0,0,0,0,0,0,-1,1994,1723,0,0
777,-699,0,0,0,0,0,0,0,0,0,-1,2001,1723,0,0
784,-699,0,0,0,0,0,0,0,0,0,-1,2008,1723,0,0
791,-699,0,0,0,0,0,0,0,0,0,-1,2015,1723,0,0
798,-699,0,0,0,0,0,0,0,0,0,-1,2022,1723,0,0
805,-699,0,0,0,0,0,0,0,0,0,-1,2029,1723,0,0
812,-699,0,0,0,0,0,0,0,0,0,-1,2036,1723,0,0
-700,-706,0,0,0,0,0,0,0,0,0,-1,524,1730,0,0
-693,-706,0,0,0,0,0,0,0,0,0,-1,531,1730,0,0
-686,-706,0,0,0,0,0,0,0,0,0,-1,538,1730,0,0
-679,-706,0,0,0,0,0,0,0,0,0,-1,545,1730,0,0
-672,-706,0,0,0,0,0,0,0,0,0,-1,552,1730,0,0
-665,-706,0,0,0,0,0,0,0,0,0,-1,559,1730,0,0
-658,-706,0,0,0,0,0,0,0,0,0,-1,566,1730,0,0
-651,-706,0,0,0,0,0,0,0,0,0,-1,573,1730,0,0
-644,-706,0,0,0,0,0,0,0,0,0,-1,580,1730,0,0
-637,-706,0,0,0,0,0,0,0,0,0,-1,587,1730,0,0
-630,-706,0,0,0,0,0,0,0,0,0,-1,594,1730,0,0
-623,-706,0,0,0,0,0,0,0,0,0,-1,601,1730,0,0
-616,-706,0,0,0,0,0,0,0,0,0,-1,608,1730,0,0
-609,-706,0,0,0,0,0,0,0,0,0,-1,615,1730,0,0
-602,-706,0,0,0,0,0,0,0,0,0,-1,622,1730,0,0
-595,-706,0,0,0,0,0,0,0,0,0,-1,629,1730,0,0
-588,-706,0,0,0,0,0,0,0,0,0,-1,636,1730,0,0
-581,-706,0,0,0,0,0,0,0,0,0,-1,643,1730,0,0
-574,-706,0,0,0,0,0,0,0,0,0,-1,650,1730,0,0
-567,-706,0,0,0,0,0,0,0,0,0,-1,657,1730,0,0
-560,-706,0,0,0,0,0,0,0,0,0,-1,664,1730,0,0
-553,-706,0,0,0,0,0,0,0,0,0,-1,671,1730,0,0
-546,-706,0,0,0,0,0,0,0,0,0,-1,678,1730,0,0
-539,-706,0,0,0,0,0,0,0,0,0,-1,685,1730,0,0
-532,-706,0,0,0,0,0,0,0,0,0,-1,692,1730,0,0
-525,-706,0,0,0,0,0,0,0,0,0,-1,699,1730,0,0
-518,-706,0,0,0,0,0,0,0,0,0,-1,706,1730,0,0
-511,-706,0,0,0,0,0,0,0,0,0,-1,713,1730,0,0
-504,-706,0,0,0,0,0,0,0,0,0,-1,720,1730,0,0
-497,-706,0,0,0,0,0,0,0,0,0,-1,727,1730,0,0
-490,-706,0,0,0,0,0,0,0,0,0,-1,734,1730,0,0
-483,-706,0,0,0,0,0,0,0,0,0,-1,741,1730,0,0
-476,-706,0,0,0,0,0,0,0,0,0,-1,748,1730,0,0
-469,-706,0,0,0,0,0,0,0,0,0,-1,755,1730,0,0
-462,-706,0,0,0,0,0,0,0,0,0,-1,762,1730,0,0
-455,-706,0,0,0,0,0,0,0,0,0,-1,769,1730,0,0
-448,-706,0,0,0,0,0,0,0,0,0,-1,776,1730,0,0
-441,-706,0,0,0,0,0,0,0,0,0,-1,783,1730,0,0
-434,-706,0,0,0,0,0,0,0,0,0,-1,790,1730,0,0
-427,-706,0,0,0,0,0,0,0,0,0,-1,797,1730,0,0
-420,-706,0,0,0,0,0,0,0,0,0,-1,804,1730,0,0
-413,-706,0,0,0,0,0,0,0,0,0,-1,811,1730,0,0
-406,-706,0,0,0,0,0,0,0,0,0,-1,818,1730,0,0
-399,-706,0,0,0,0,0,0,0,0,0,-1,825,1730,0,0
-392,-706,0,0,0,0,0,0,0,0,0,-1,832,1730,0,0
-385,-706,0,0,0,0,0,0,0,0,0,-1,839,1730,0,0
-378,-706,0,0,0,0,0,0,0,0,0,-1,846,1730,0,0
-371,-706,0,0,0,0,0,0,0,0,0,-1,853,1730,0,0
-364,-706,0,0,0,0,0,0,0,0,0,-1,860,1730,0,0
-357,-706,0,0,0,0,0,0,0,0,0,-1,867,1730,0,0
-350,-706,0,0,0,0,0,0,0,0,0,-1,874,1730,0,0
-343,-706,0,0,0,0,0,0,0,0,0,-1,881,1730,0,0
-336,-706,0,0,0,0,0,0,0,0,0,-1,888,1730,0,0
-329,-706,0,0,0,0,0,0,0,0,0,-1,895,1730,0,0
-322,-706,0,0,0,0,0,0,0,0,0,-1,902,1730,0,0
-315,-706,0,0,0,0,0,0,0,0,0,-1,909,1730,0,0
-308,-706,5.08191,14.6245,0,0,0,0,0,0,0,-1,916,1730,5.08188,-14.6245
-301,-706,7.45007,21.1975,0,0,0,0,0,0,0,-1,923,1730,7.45005,-21.1976
-294,-706,11.8603,21.026,0,0,0,0,0,0,0,-1,930,1730,11.8603,-21.026
-287,-706,10.3292,20.8425,0,0,0,0,0,0,0,-1,937,1730,10.3292,-20.8425
-280,-706,7.9162,21.8951,0,0,0,0,0,0,0,-1,944,1730,7.9162,-21.8952
-273,-706,7.38953,20.6355,0,0,0,0,0,0,0,-1,951,1730,7.38955,-20.6355
-266,-706,9.66724,22.8231,0,0,0,0,0,0,0,-1,958,1730,9.66722,-22.8231
-259,-706,3.47852,20.7363,0,0,0,0,0,0,0,-1,965,1730,3.47851,-20.7364
-252,-706,3.84259,20.1979,0,0,0,0,0,0,0,-1,972,1730,3.84256,-20.1979
-245,-706,4.698,19.2992,0,0,0,0,0,0,0,-1,979,1730,4.69799,-19.2991
-238,-706,7.07745,28.6687,0,0,0,0,0,0,0,-1,986,1730,7.07745,-28.6687
-231,-706,7.02509,29.459,0,0,0,0,0,0,0,-1,993,1730,7.02511,-29.4589
-224,-706,7.23505,29.9641,0,0,0,0,0,0,0,-1,1000,1730,7.23504,-29.9642
-217,-706,7.40485,30.387,-0.00433434,-0.00962524,0.0117382,0.00505281,-0.0190124,0.674564,0.0146525,0.0480031,1007,1730,7.40486,-30.387
-210,-706,7.0127,31.1479,-0.00413444,-0.0114804,0.0112089,0.00398794,-0.0196028,0.627069,0.0145808,0.0365368,1014,1730,7.0127,-31.148
-203,-706,7.15637,31.306,-0.00384622,-0.01238,0.0101593,0.00290586,-0.0191321,0.586584,0.0138255,0.0291982,1021,1730,7.15639,-31.3061
-196,-706,7.30432,31.4771,-0.00361094,-0.0127103,0.00894006,0.00187054,-0.0181918,0.550023,0.012797,0.0244607,1028,1730,7.3043,-31.477
-189,-706,7.25317,31.7856,-0.00329225,-0.0122473,0.00780779,0.00123076,-0.0167703,0.525056,0.0116122,0.0192942,1035,1730,7.25312,-31.7857
-182,-706,7.23059,32.0997,-0.0031574,-0.0114594,0.00643667,0.000350671,-0.0149675,0.499007,0.0100973,0.0157819,1042,1730,7.23063,-32.0997
-175,-706,7.26624,32.4027,-0.00313331,-0.0103701,0.00509752,-0.00050051,-0.0130029,0.47675,0.00850668,0.0163584,1049,1730,7.26624,-32.4027
-168,-706,7.26233,32.6764,-0.0029767,-0.0090689,0.00410538,-0.000910767,-0.0111348,0.466224,0.00713902,0.0168101,1056,1730,7.2623,-32.6763
-161,-706,7.20605,32.9467,-0.00258909,-0.00751486,0.00317379,-0.00103467,-0.00906928,0.455429,0.00573251,0.0138466,1063,1730,7.20606,-32.9466
-154,-706,7.17444,33.2272,-0.00232854,-0.00530204,0.00227401,-0.00109839,-0.00653219,0.495877,0.00403876,0.0135668,1070,1730,7.1744,-33.2272
-147,-706,7.16296,33.4735,-0.00214901,-0.00344557,0.00158481,-0.00108502,-0.00450956,0.591253,0.00271788,0.0128849,1077,1730,7.16299,-33.4735
-140,-706,7.16394,33.7328,-0.00186005,-0.00177321,0.0012676,-0.000548287,-0.00308498,0.802518,0.00190044,0.0117164,1084,1730,7.16396,-33.7328
-133,-706,7.15942,33.9574,-0.00150177,-0.000310853,0.00097456,0.000235766,-0.00204838,1.05963,0.00145058,0.00917274,1091,1730,7.15943,-33.9574
-126,-706,7.15869,34.1937,-0.00114398,0.00114982,0.000739268,0.00136743,-0.0013616,1.28452,0.0015756,0.0132154,1098,1730,7.1587,-34.1938
-119,-706,7.12927,34.431,-0.000764747,0.00194398,0.000577909,0.00206212,-0.000882892,1.36914,0.00174515,0.0170541,1105,1730,7.1293,-34.431
-112,-706,7.1178,34.6802,-0.000325173,0.00276366,0.000469036,0.00283332,-0.000394825,1.42337,0.0020333,0.0116562,1112,1730,7.11784,-34.6802
-105,-706,7.12769,34.9298,1.75852e-05,0.00308729,0.000371345,0.00313158,-2.66979e-05,1.45211,0.00209667,0.00874922,1119,1730,7.12769,-34.9298
-98,-706,7.14758,35.1158,0.000308139,0.00305475,0.000379852,0.00310631,0.000256574,1.43587,0.00199087,0.0109685,1126,1730,7.14763,-35.1158
-91,-706,7.15869,35.3198,0.00065218,0.0029326,0.000357813,0.00298743,0.000597355,1.41876,0.00182538,0.0143195,1133,1730,7.15866,-35.3198
-84,-706,7.13904,35.5195,0.000963792,0.00263425,0.000294487,0.00268465,0.000913397,1.40131,0.00157614,0.0164932,1140,1730,7.13898,-35.5195
-77,-706,7.1145,35.6637,0.00127809,0.00242552,0.000148335,0.00244438,0.00125922,1.44429,0.00141148,0.0154307,1147,1730,7.11455,-35.6637
-70,-706,7.12402,35.865,0.00145931,0.00204561,-6.29491e-05,0.00205229,0.00145263,-1.46503,0.00121853,0.018057,1154,1730,7.12405,-35.865
-63,-706,7.13757,36.0526,0.00171903,0.00250807,-0.00030587,0.00261276,0.00161435,-1.24105,0.00152238,0.0138696,1161,1730,7.1376,-36.0526
-56,-706,7.15698,36.2195,0.00201133,0.0029282,-0.000431856,0.00309957,0.00183995,-1.19302,0.00179996,0.0130907,1168,1730,7.15703,-36.2195
-49,-706,7.15894,36.403,0.00157477,0.00410824,0.000449932,0.00418577,0.00149724,1.40015,0.00244906,0.0137768,1175,1730,7.1589,-36.4029
-42,-706,7.18933,36.5422,0.00125897,0.00552092,0.00146384,0.00597527,0.000804624,1.26984,0.00374423,0.0193214,1182,1730,7.18939,-36.5423
-35,-706,7.21631,36.661,0.00106121,0.00706767,0.00216386,0.00776602,0.000362859,1.25862,0.00506073,0.0173866,1189,1730,7.21629,-36.661
-28,-706,7.2467,36.7858,0.000761524,0.00863482,0.00271411,0.00947976,-8.34181e-05,1.26899,0.00634783,0.0107331,1196,1730,7.24668,-36.7857
-21,-706,7.2301,36.879,0.000391699,0.00988399,0.00325681,0.0108939,-0.00061826,1.27009,0.00747724,0.0110562,1203,1730,7.23008,-36.879
-14,-706,7.23926,36.9751,-0.000319893,0.0111638,0.00396369,0.012399,-0.00155513,1.2687,0.00883014,0.0109884,1210,1730,7.2393,-36.9751
-7,-706,7.27356,37.0852,-0.000959246,0.0125556,0.00447418,0.0139026,-0.00230621,1.27838,0.0101251,0.00878687,1217,1730,7.2735,-37.0851
0,-706,7.31689,37.1796,-0.00151987,0.0140696,0.00461659,0.0153341,-0.00278442,1.30344,0.0112662,0.0112459,1224,1730,7.31694,-37.1796
7,-706,7.33826,37.2527,-0.00197331,0.0154581,0.00448265,0.0165433,-0.0030585,1.33328,0.0121771,0.0142064,1231,1730,7.33829,-37.2527
14,-706,7.36365,37.33,-0.00221884,0.0164198,0.00401449,0.0172477,-0.00304673,1.36742,0.012637,0.0155721,1238,1730,7.36368,-37.3299
21,-706,7.41187,37.381,-0.00218058,0.0178922,0.00317795,0.0183833,-0.0026717,1.41747,0.0132363,0.0124991,1245,1730,7.41184,-37.3809
28,-706,7.42993,37.4401,-0.00184025,0.0191121,0.00208412,0.0193174,-0.00204555,1.47261,0.0136114,0.0127878,1252,1730,7.42996,-37.44
35,-706,7.4436,37.5055,-0.00124021,0.0200864,0.000622255,0.0201046,-0.00125835,1.54165,0.0138416,0.0146334,1259,1730,7.44357,-37.5055
42,-706,7.48535,37.5505,-0.000480839,0.0215389,-0.000790469,0.0215672,-0.000509177,-1.53496,0.0145509,0.0127136,1266,1730,7.48534,-37.5505
49,-706,7.51392,37.5709,0.000413432,0.0223352,-0.0021857,0.022551,0.000197632,-1.47238,0.0149685,0.0149106,1273,1730,7.5139,-37.5709
56,-706,7.55408,37.5894,0.00161797,0.0226552,-0.00401337,0.0233948,0.00087832,-1.38855,0.0153122,0.0146275,1280,1730,7.55414,-37.5893
63,-706,7.58704,37.5848,0.00272457,0.0227234,-0.00544643,0.0241105,0.00133751,-1.32142,0.0156469,0.0123034,1287,1730,7.58703,-37.5849
70,-706,7.59973,37.5831,0.00371702,0.0225154,-0.00647873,0.0245319,0.00170049,-1.26905,0.0158183,0.0124028,1294,1730,7.59969,-37.5831
77,-706,7.6156,37.5626,0.00453587,0.0218407,-0.00729986,0.0245088,0.00186786,-1.22039,0.0157535,0.0107927,1301,1730,7.61565,-37.5626
84,-706,7.64307,37.5332,0.00509024,0.0207434,-0.00766485,0.0238715,0.00196213,-1.18332,0.0153023,0.00911506,1308,1730,7.64305,-37.5332
91,-706,7.70154,37.5363,0.00564855,0.0186366,-0.00800094,0.0224473,0.00183783,-1.1263,0.0143914,0.0100819,1315,1730,7.70159,-37.5362
98,-706,7.72913,37.5288,0.00571817,0.0154431,-0.00794404,0.0198947,0.00126659,-1.06003,0.0128617,0.0135375,1322,1730,7.7291,-37.5288
105,-706,7.74915,37.5162,0.00549034,0.0125951,-0.00738335,0.0172362,0.00084925,-1.00962,0.0112185,0.0157029,1329,1730,7.74913,-37.5162
112,-706,7.74878,37.468,0.0049879,0.00972138,-0.00670035,0.0144607,0.000248578,-0.955172,0.00955869,0.0151485,1336,1730,7.74882,-37.468
119,-706,7.78503,37.4161,0.0043633,0.00704024,-0.00612027,0.0119667,-0.000563143,-0.893051,0.00817197,0.0136589,1343,1730,7.78504,-37.4161
126,-706,7.81165,37.3361,0.00400582,0.00333151,-0.00564419,0.00932292,-0.00198558,-0.755566,0.00697203,0.0151037,1350,1730,7.8116,-37.336
133,-706,7.84692,37.2208,0.00366386,0.000475515,-0.0051048,0.00741762,-0.00327824,-0.634052,0.00632753,0.01237,1357,1730,7.84687,-37.2208
140,-706,7.88074,37.0967,0.00344817,-0.00158539,-0.00437024,0.00597452,-0.00411174,-0.524146,0.00585632,0.0118049,1364,1730,7.8808,-37.0967
147,-706,7.90063,36.9869,0.00324831,-0.00374848,-0.00374621,0.00487562,-0.00537579,-0.409796,0.005921,0.020295,1371,1730,7.90059,-36.9869
154,-706,7.92932,36.9189,0.00317912,-0.00357116,-0.00313094,0.00440771,-0.00479975,-0.37394,0.00531754,0.0191534,1378,1730,7.92935,-36.9189
161,-706,7.93298,36.8164,0.00307229,-0.00328799,-0.00219833,0.00375815,-0.00397385,-0.302421,0.00446465,0.0105931,1385,1730,7.93292,-36.8163
168,-706,7.94287,36.6908,0.00293121,-0.0028058,-0.00166269,0.00337825,-0.00325284,-0.262656,0.00382869,0.0106629,1392,1730,7.94285,-36.6908
175,-706,7.97412,36.5558,0.00268655,-0.00222363,-0.00125273,0.00298769,-0.00252477,-0.23591,0.00318636,0.0107164,1399,1730,7.97412,-36.5558
182,-706,7.98962,36.4114,0.00245247,-0.00167992,-0.000654716,0.00255372,-0.00178117,-0.153431,0.00251596,0.0113691,1406,1730,7.98963,-36.4113
189,-706,8.00208,36.2466,0.00216912,-0.00132915,-0.000364454,0.00220668,-0.00136672,-0.102712,0.00208202,0.0141017,1413,1730,8.00208,-36.2466
196,-706,8.0155,36.0891,0.00190106,-0.000788289,0.000144815,0.00190884,-0.000796064,0.053641,0.00160512,0.0123857,1420,1730,8.01551,-36.0891
203,-706,8.01257,35.9587,0.00159433,0.000201453,0.000509812,0.00176099,3.47958e-05,0.315949,0.00116257,0.0139605,1427,1730,8.01254,-35.9588
210,-706,8.01709,35.7998,0.00125394,0.000280759,0.000275645,0.00132659,0.000208108,0.257705,0.000823833,0.0137672,1434,1730,8.01712,-35.7998
217,-706,8.0083,35.635,0.000911768,0.000309302,-3.62488e-05,0.000913941,0.000307129,-0.0598794,0.000537037,0.0141762,1441,1730,8.00836,-35.635
224,-706,7.99927,35.4456,0.000699183,0.000404528,-0.000215484,0.00081289,0.000290821,-0.485545,0.00047561,0.0197084,1448,1730,7.99921,-35.4456
231,-706,8.02405,35.2177,0.000458795,0.000473406,-0.000368873,0.000835046,9.71553e-05,-0.795299,0.000527304,0.0141719,1455,1730,8.02401,-35.2177
238,-706,8.02295,35.004,0.000311773,0.000526055,-0.000467402,0.000898439,-6.061e-05,-0.898065,0.00062015,0.00924259,1462,1730,8.02292,-35.0041
245,-706,8.02759,34.7928,0.00020912,0.000598968,-0.000556993,0.00099416,-0.000186072,-0.953717,0.000732715,0.0119147,1469,1730,8.02757,-34.7929
252,-706,8.01538,34.595,1.13862e-05,0.000738495,-0.000652397,0.0011218,-0.000371915,-1.0396,0.000897889,0.011457,1476,1730,8.01541,-34.5949
259,-706,8.01733,34.3809,-0.000673286,0.000787041,-0.00051702,0.000951555,-0.0008378,-1.26273,0.00103378,0.0130226,1483,1730,8.01733,-34.3809
266,-706,8.00244,34.1593,-0.00157384,0.000983526,-9.24187e-05,0.000986862,-0.00157718,-1.53472,0.00149337,0.0129905,1490,1730,8.0025,-34.1593
273,-706,7.9978,33.9183,-0.00233981,0.00146331,3.45434e-05,0.00146363,-0.00234012,1.56171,0.00221544,0.0121757,1497,1730,7.9978,-33.9183
280,-706,7.99976,33.6461,-0.00340812,0.0018783,0.00027646,0.00189272,-0.00342253,1.51869,0.00311084,0.00982567,1504,1730,7.99978,-33.6461
287,-706,7.97522,33.3821,-0.00458915,0.00260838,0.000544281,0.0026493,-0.00463007,1.49574,0.0042543,0.0107247,1511,1730,7.97527,-33.382
294,-706,7.96985,33.1411,-0.00581703,0.00362877,0.000849396,0.00370454,-0.0058928,1.48182,0.00558883,0.0113337,1518,1730,7.9698,-33.1411
301,-706,7.94299,32.8851,-0.00703272,0.00463619,0.00113497,0.00474556,-0.00714209,1.47473,0.00690967,0.0104263,1525,1730,7.94302,-32.8852
308,-706,7.94348,32.6388,-0.00818597,0.00560145,0.00142393,0.00574697,-0.00833149,1.46895,0.00817373,0.0121355,1532,1730,7.94354,-32.6388
315,-706,7.92993,32.3723,-0.00899961,0.00634194,0.00177864,0.00654545,-0.00920312,1.45687,0.00913549,0.019852,1539,1730,7.92993,-32.3723
322,-706,7.87109,32.14,-0.00942761,0.00721075,0.00187912,0.00742034,-0.0096372,1.45972,0.00987586,0.0303509,1546,1730,7.87112,-32.1401
329,-706,7.92566,31.7587,-0.00957301,0.00787871,0.0020416,0.00811437,-0.00980867,1.45588,0.0103633,0.0298546,1553,1730,7.92561,-31.7587
336,-706,7.84619,31.291,-0.00920425,0.00800134,0.00214191,0.00826398,-0.00946688,1.44879,0.0102448,0.0397398,1560,1730,7.8462,-31.291
343,-706,7.75769,30.9694,-0.00845671,0.00789125,0.00231938,0.00821395,-0.0087794,1.43255,0.00981293,0.0402099,1567,1730,7.75763,-30.9693
350,-706,7.76404,30.7543,-0.0073277,0.00679831,0.00265585,0.00728114,-0.00781053,1.39096,0.00871497,0.0460834,1574,1730,7.76405,-30.7542
357,-706,7.99829,30.4519,0,0,0,0,0,0,0,-1,1581,1730,7.99824,-30.4519
364,-706,7.39465,30.6104,0,0,0,0,0,0,0,-1,1588,1730,7.39467,-30.6104
371,-706,6.27881,24.0759,0,0,0,0,0,0,0,-1,1595,1730,6.27883,-24.0759
378,-706,4.80444,25.0989,0,0,0,0,0,0,0,-1,1602,1730,4.80445,-25.0989
385,-706,5.55212,24.9753,0,0,0,0,0,0,0,-1,1609,1730,5.55214,-24.9753
392,-706,6.2998,24.8518,0,0,0,0,0,0,0,-1,1616,1730,6.29983,-24.8518
399,-706,3.9502,25.5428,0,0,0,0,0,0,0,-1,1623,1730,3.95019,-25.5428
406,-706,6.04211,18.8085,0,0,0,0,0,0,0,-1,1630,1730,6.04216,-18.8085
413,-706,6.23413,20.7725,0,0,0,0,0,0,0,-1,1637,1730,6.23413,-20.7725
420,-706,6.51294,21.9171,0,0,0,0,0,0,0,-1,1644,1730,6.51292,-21.9171
427,-706,0,0,0,0,0,0,0,0,0,-1,1651,1730,0,0
434,-706,0,0,0,0,0,0,0,0,0,-1,1658,1730,0,0
441,-706,0,0,0,0,0,0,0,0,0,-1,1665,1730,0,0
448,-706,0,0,0,0,0,0,0,0,0,-1,1672,1730,0,0
455,-706,0,0,0,0,0,0,0,0,0,-1,1679,1730,0,0
462,-706,0,0,0,0,0,0,0,0,0,-1,1686,1730,0,0
469,-706,0,0,0,0,0,0,0,0,0,-1,1693,1730,0,0
476,-706,0,0,0,0,0,0,0,0,0,-1,1700,1730,0,0
483,-706,0,0,0,0,0,0,0,0,0,-1,1707,1730,0,0
490,-706,0,0,0,0,0,0,0,0,0,-1,1714,1730,0,0
497,-706,0,0,0,0,0,0,0,0,0,-1,1721,1730,0,0
504,-706,0,0,0,0,0,0,0,0,0,-1,1728,1730,0,0
511,-706,0,0,0,0,0,0,0,0,0,-1,1735,1730,0,0
518,-706,0,0,0,0,0,0,0,0,0,-1,1742,1730,0,0
525,-706,0,0,0,0,0,0,0,0,0,-1,1749,1730,0,0
532,-706,0,0,0,0,0,0,0,0,0,-1,1756,1730,0,0
539,-706,0,0,0,0,0,0,0,0,0,-1,1763,1730,0,0
546,-706,0,0,0,0,0,0,0,0,0,-1,1770,1730,0,0
553,-706,0,0,0,0,0,0,0,0,0,-1,1777,1730,0,0
560,-706,0,0,0,0,0,0,0,0,0,-1,1784,1730,0,0
567,-706,0,0,0,0,0,0,0,0,0,-1,1791,1730,0,0
574,-706,0,0,0,0,0,0,0,0,0,-1,1798,1730,0,0
581,-706,0,0,0,0,0,0,0,0,0,-1,1805,1730,0,0
588,-706,0,0,0,0,0,0,0,0,0,-1,1812,1730,0,0
595,-706,0,0,0,0,0,0,0,0,0,-1,1819,1730,0,0
602,-706,0,0,0,0,0,0,0,0,0,-1,1826,1730,0,0
609,-706,0,0,0,0,0,0,0,0,0,-1,1833,1730,0,0
616,-706,0,0,0,0,0,0,0,0,0,-1,1840,1730,0,0
623,-706,0,0,0,0,0,0,0,0,0,-1,1847,1730,0,0
630,-706,0,0,0,0,0,0,0,0,0,-1,1854,1730,0,0
637,-706,0,0,0,0,0,0,0,0,0,-1,1861,1730,0,0
644,-706,0,0,0,0,0,0,0,0,0,-1,1868,1730,0,0
651,-706,0,0,0,0,0,0,0,0,0,-1,1875,1730,0,0
658,-706,0,0,0,0,0,0,0,0,0,-1,1882,1730,0,0
665,-706,0,0,0,0,0,0,0,0,0,-1,1889,1730,0,0
672,-706,0,0,0,0,0,0,0,0,0,-1,1896,1730,0,0
679,-706,0,0,0,0,0,0,0,0,0,-1,1903,1730,0,0
686,-706,0,0,0,0,0,0,0,0,0,-1,1910,1730,0,0
693,-706,0,0,0,0,0,0,0,0,0,-1,1917,1730,0,0
700,-706,0,0,0,0,0,0,0,0,0,-1,1924,1730,0,0
707,-706,0,0,0,0,0,0,0,0,0,-1,1931,1730,0,0
714,-706,0,0,0,0,0,0,0,0,0,-1,1938,1730,0,0
721,-706,0,0,0,0,0,0,0,0,0,-1,1945,1730,0,0
728,-706,0,0,0,0,0,0,0,0,0,-1,1952,1730,0,0
735,-706,0,0,0,0,0,0,0,0,0,-1,1959,1730,0,0
742,-706,0,0,0,0,0,0,0,0,0,-1,1966,1730,0,0
749,-706,0,0,0,0,0,0,0,0,0,-1,1973,1730,0,0
756,-706,0,0,0,0,0,0,0,0,0,-1,1980,1730,0,0
763,-706,0,0,0,0,0,0,0,0,0,-1,1987,1730,0,0
770,-706,0,0,0,0,0,0,0,0,0,-1,1994,1730,0,0
777,-706,0,0,0,0,0,0,0,0,0,-1,2001,1730,0,0
784,-706,0,0,0,0,0,0,0,0,0,-1,2008,1730,0,0
791,-706,0,0,0,0,0,0,0,0,0,-1,2015,1730,0,0
798,-706,0,0,0,0,0,0,0,0,0,-1,2022,1730,0,0
805,-706,0,0,0,0,0,0,0,0,0,-1,2029,1730,0,0
812,-706,0,0,0,0,0,0,0,0,0,-1,2036,1730,0,0
-700,-713,0,0,0,0,0,0,0,0,0,-1,524,1737,0,0
-693,-713,0,0,0,0,0,0,0,0,0,-1,531,1737,0,0
-686,-713,0,0,0,0,0,0,0,0,0,-1,538,1737,0,0
-679,-713,0,0,0,0,0,0,0,0,0,-1,545,1737,0,0
-672,-713,0,0,0,0,0,0,0,0,0,-1,552,1737,0,0
-665,-713,0,0,0,0,0,0,0,0,0,-1,559,1737,0,0
-658,-713,0,0,0,0,0,0,0,0,0,-1,566,1737,0,0
-651,-713,0,0,0,0,0,0,0,0,0,-1,573,1737,0,0
-644,-713,0,0,0,0,0,0,0,0,0,-1,580,1737,0,0
-637,-713,0,0,0,0,0,0,0,0,0,-1,587,1737,0,0
-630,-713,0,0,0,0,0,0,0,0,0,-1,594,1737,0,0
-623,-713,0,0,0,0,0,0,0,0,0,-1,601,1737,0,0
-616,-713,0,0,0,0,0,0,0,0,0,-1,608,1737,0,0
-609,-713,0,0,0,0,0,0,0,0,0,-1,615,1737,0,0
-602,-713,0,0,0,0,0,0,0,0,0,-1,622,1737,0,0
-595,-713,0,0,0,0,0,0,0,0,0,-1,629,1737,0,0
-588,-713,0,0,0,0,0,0,0,0,0,-1,636,1737,0,0
-581,-713,0,0,0,0,0,0,0,0,0,-1,643,1737,0,0
-574,-713,0,0,0,0,0,0,0,0,0,-1,650,1737,0,0
-567,-713,0,0,0,0,0,0,0,0,0,-1,657,1737,0,0
-560,-713,0,0,0,0,0,0,0,0,0,-1,664,1737,0,0
-553,-713,0,0,0,0,0,0,0,0,0,-1,671,1737,0,0
-546,-713,0,0,0,0,0,0,0,0,0,-1,678,1737,0,0
-539,-713,0,0,0,0,0,0,0,0,0,-1,685,1737,0,0
-532,-713,0,0,0,0,0,0,0,0,0,-1,692,1737,0,0
-525,-713,0,0,0,0,0,0,0,0,0,-1,699,1737,0,0
-518,-713,0,0,0,0,0,0,0,0,0,-1,706,1737,0,0
-511,-713,0,0,0,0,0,0,0,0,0,-1,713,1737,0,0
-504,-713,0,0,0,0,0,0,0,0,0,-1,720,1737,0,0
-497,-713,0,0,0,0,0,0,0,0,0,-1,727,1737,0,0
-490,-713,0,0,0,0,0,0,0,0,0,-1,734,1737,0,0
-483,-713,0,0,0,0,0,0,0,0,0,-1,741,1737,0,0
-476,-713,0,0,0,0,0,0,0,0,0,-1,748,1737,0,0
-469,-713,0,0,0,0,0,0,0,0,0,-1,755,1737,0,0
-462,-713,0,0,0,0,0,0,0,0,0,-1,762,1737,0,0
-455,-713,0,0,0,0,0,0,0,0,0,-1,769,1737,0,0
-448,-713,0,0,0,0,0,0,0,0,0,-1,776,1737,0,0
-441,-713,0,0,0,0,0,0,0,0,0,-1,783,1737,0,0
-434,-713,0,0,0,0,0,0,0,0,0,-1,790,1737,0,0
-427,-713,0,0,0,0,0,0,0,0,0,-1,797,1737,0,0
-420,-713,0,0,0,0,0,0,0,0,0,-1,804,1737,0,0
-413,-713,0,0,0,0,0,0,0,0,0,-1,811,1737,0,0
-406,-713,0,0,0,0,0,0,0,0,0,-1,818,1737,0,0
-399,-713,0,0,0,0,0,0,0,0,0,-1,825,1737,0,0
-392,-713,0,0,0,0,0,0,0,0,0,-1,832,1737,0,0
-385,-713,0,0,0,0,0,0,0,0,0,-1,839,1737,0,0
-378,-713,0,0,0,0,0,0,0,0,0,-1,846,1737,0,0
-371,-713,0,0,0,0,0,0,0,0,0,-1,853,1737,0,0
-364,-713,0,0,0,0,0,0,0,0,0,-1,860,1737,0,0
-357,-713,0,0,0,0,0,0,0,0,0,-1,867,1737,0,0
-350,-713,0,0,0,0,0,0,0,0,0,-1,874,1737,0,0
-343,-713,0,0,0,0,0,0,0,0,0,-1,881,1737,0,0
-336,-713,0,0,0,0,0,0,0,0,0,-1,888,1737,0,0
-329,-713,0,0,0,0,0,0,0,0,0,-1,895,1737,0,0
-322,-713,0,0,0,0,0,0,0,0,0,-1,902,1737,0,0
-315,-713,0,0,0,0,0,0,0,0,0,-1,909,1737,0,0
-308,-713,0,0,0,0,0,0,0,0,0,-1,916,1737,0,0
-301,-713,0,0,0,0,0,0,0,0,0,-1,923,1737,0,0
-294,-713,7.17883,22.0453,0,0,0,0,0,0,0,-1,930,1737,7.17881,-22.0453
-287,-713,11.8916,21.5834,0,0,0,0,0,0,0,-1,937,1737,11.8916,-21.5833
-280,-713,10.2786,21.3551,0,0,0,0,0,0,0,-1,944,1737,10.2787,-21.3551
-273,-713,11.1981,23.8683,0,0,0,0,0,0,0,-1,951,1737,11.198,-23.8683
-266,-713,3.17981,19.8851,0,0,0,0,0,0,0,-1,958,1737,3.17983,-19.8851
-259,-713,3.5921,19.6868,0,0,0,0,0,0,0,-1,965,1737,3.59207,-19.6868
-252,-713,4.55469,20.5758,0,0,0,0,0,0,0,-1,972,1737,4.55466,-20.5758
-245,-713,3.89014,25.9825,0,0,0,0,0,0,0,-1,979,1737,3.89013,-25.9826
-238,-713,6.62506,30.5463,0,0,0,0,0,0,0,-1,986,1737,6.62509,-30.5462
-231,-713,7.10999,28.2686,0,0,0,0,0,0,0,-1,993,1737,7.10999,-28.2685
-224,-713,7.59491,25.9907,0,0,0,0,0,0,0,-1,1000,1737,7.59488,-25.9908
-217,-713,7.75787,30.218,0,0,0,0,0,0,0,-1,1007,1737,7.75788,-30.218
-210,-713,6.74078,31.5157,-0.00553321,-0.0168592,0.0150682,0.00490101,-0.0272934,0.605652,0.0200302,0.0482229,1014,1737,6.74077,-31.5158
-203,-713,6.67786,31.4601,-0.00519887,-0.0179094,0.0135389,0.00340214,-0.0265105,0.565959,0.01891,0.0434332,1021,1737,6.67789,-31.4601
-196,-713,7.44861,31.5668,0,0,0,0,0,0,0,-1,1028,1737,7.44859,-31.5668
-189,-713,7.44885,31.8832,-0.00452664,-0.0173374,0.0104138,0.00129398,-0.0231581,0.509677,0.0158876,0.044872,1035,1737,7.44886,-31.8832
-182,-713,7.39966,32.1125,-0.00444917,-0.0160384,0.00853613,7.33444e-05,-0.0205609,0.487209,0.0137318,0.0302177,1042,1737,7.39962,-32.1126
-175,-713,7.56763,32.4348,0,0,0,0,0,0,0,-1,1049,1737,7.56765,-32.4348
-168,-713,7.59363,32.6788,0,0,0,0,0,0,0,-1,1056,1737,7.59358,-32.6789
-161,-713,7.53186,32.9346,-0.0039694,-0.0104839,0.00420415,-0.00190833,-0.012545,0.455814,0.00780536,0.019856,1063,1737,7.53185,-32.9346
-154,-713,7.43408,33.2371,-0.00371296,-0.00774059,0.00300633,-0.00210829,-0.00934527,0.490294,0.00565986,0.0134294,1070,1737,7.43412,-33.237
-147,-713,7.41882,33.5327,-0.00354514,-0.00545945,0.00207823,-0.00221424,-0.00679034,0.569596,0.00399867,0.0191891,1077,1737,7.41887,-33.5327
-140,-713,7.43823,33.7943,-0.00324544,-0.003407,0.00160821,-0.00171598,-0.00493646,0.760304,0.00289385,0.0184975,1084,1737,7.43821,-33.7943
-133,-713,7.39819,33.9944,-0.00285983,-0.0016196,0.00118638,-0.000901043,-0.00357839,1.02622,0.00214916,0.0122156,1091,1737,7.39825,-33.9944
-126,-713,7.38123,34.1892,-0.00247379,0.000174458,0.000852421,0.000425112,-0.00272444,1.28481,0.00197332,0.018147,1098,1737,7.38122,-34.1892
-119,-713,7.35242,34.4005,-0.00205741,0.00107576,0.000616429,0.00119268,-0.00217432,1.38336,0.00197129,0.024683,1105,1737,7.35239,-34.4005
-112,-713,7.35498,34.6992,-0.0015295,0.00216409,0.000469795,0.00222291,-0.00158832,1.44625,0.00221056,0.0125054,1112,1737,7.35496,-34.6992
-105,-713,7.35535,34.9207,-0.00110841,0.00266699,0.000356343,0.00270033,-0.00114175,1.47751,0.00227826,0.0103829,1119,1737,7.3554,-34.9206
-98,-713,7.34863,35.1179,-0.000769648,0.0027033,0.00042891,0.00275549,-0.000821834,1.44972,0.00216361,0.0104964,1126,1737,7.34868,-35.1179
-91,-713,7.32861,35.3087,-0.000371499,0.00267842,0.000487829,0.00275455,-0.000447626,1.41599,0.00200232,0.0103728,1133,1737,7.32864,-35.3088
-84,-713,7.30811,35.501,-5.38411e-05,0.00244724,0.000504906,0.00254532,-0.000151923,1.37893,0.00174972,0.00967252,1140,1737,7.30813,-35.501
-77,-713,7.32336,35.7017,0.000351576,0.00232484,0.000550329,0.00246794,0.000208471,1.3164,0.00158039,0.0126177,1147,1737,7.32341,-35.7017
-70,-713,7.31616,35.8873,0.000635383,0.00198906,0.000443635,0.00212149,0.000502948,1.2807,0.00128005,0.0146428,1154,1737,7.31617,-35.8874
-63,-713,7.30774,36.0571,0.000845325,0.00182735,0.000248587,0.00188669,0.000785984,1.33647,0.00109432,0.0132443,1161,1737,7.30776,-36.0571
-56,-713,7.32959,36.2195,0.00113337,0.0016159,0.000107553,0.00163878,0.00111049,1.36112,0.000965849,0.0129539,1168,1737,7.32956,-36.2194
-49,-713,7.28992,36.3739,0.00115467,0.0017081,0.000405568,0.00192236,0.000940411,1.08477,0.00110996,0.0156239,1175,1737,7.28992,-36.3739
-42,-713,7.32703,36.5082,0.00119097,0.00206224,0.000877874,0.00260662,0.000646584,1.01571,0.00156733,0.0181329,1182,1737,7.32702,-36.5082
-35,-713,7.3634,36.6421,0.00124139,0.00267007,0.00126379,0.00340743,0.000504028,1.04263,0.00212364,0.0148077,1189,1737,7.36345,-36.6421
-28,-713,7.38025,36.7847,0.00116455,0.00346534,0.0016204,0.00430217,0.00032771,1.09408,0.00276536,0.0134744,1196,1737,7.3803,-36.7847
-21,-713,7.35034,36.9025,0.000974946,0.00423413,0.00202182,0.00520133,7.74488e-06,1.12459,0.00346498,0.00963033,1203,1737,7.35035,-36.9025
-14,-713,7.33557,36.994,0.000622489,0.00512339,0.00249091,0.00622989,-0.000484017,1.15276,0.00432364,0.0110061,1210,1737,7.33553,-36.994
-7,-713,7.37561,37.1021,0.000235684,0.00617067,0.00288813,0.00734411,-0.000937751,1.18487,0.00523672,0.0096172,1217,1737,7.37561,-37.1021
0,-713,7.41907,37.1803,-0.000129889,0.00752051,0.00312534,0.00863494,-0.00124432,1.22827,0.00621307,0.013524,1224,1737,7.41903,-37.1803
7,-713,7.43896,37.2417,-0.000521814,0.00878722,0.0030977,0.00972379,-0.00145838,1.27719,0.00701934,0.0177025,1231,1737,7.43898,-37.2417
14,-713,7.4458,37.3195,-0.000844532,0.00998197,0.0029549,0.010736,-0.00159851,1.32096,0.00774532,0.0135259,1238,1737,7.44581,-37.3195
21,-713,7.45642,37.4087,-0.000946473,0.0114184,0.00252022,0.0119123,-0.00144041,1.37726,0.00846265,0.0110789,1245,1737,7.45643,-37.4088
28,-713,7.46277,37.4783,-0.000891179,0.0126411,0.00190569,0.0129044,-0.00115443,1.43353,0.00901242,0.0114005,1252,1737,7.46274,-37.4783
35,-713,7.48206,37.5212,-0.000740255,0.0136244,0.00102328,0.0136969,-0.000812782,1.50004,0.00941391,0.0110445,1259,1737,7.48203,-37.5212
42,-713,7.51746,37.568,-0.000578183,0.0147951,9.38917e-05,0.0147957,-0.000578756,1.56469,0.0100623,0.0112448,1266,1737,7.51743,-37.568
49,-713,7.53333,37.5643,-0.000289294,0.0154797,-0.000792735,0.0155195,-0.000329047,-1.52069,0.0104577,0.0116386,1273,1737,7.53333,-37.5643
56,-713,7.55688,37.5537,0.0002463,0.015871,-0.0020166,0.016127,-9.77516e-06,-1.44449,0.0107546,0.0122188,1280,1737,7.55694,-37.5537
63,-713,7.56909,37.582,0.000745611,0.0159254,-0.00299357,0.0164944,0.000176583,-1.38295,0.0109379,0.0128163,1287,1737,7.56903,-37.5821
70,-713,7.58374,37.6082,0.00120435,0.0155849,-0.00367844,0.0164712,0.000318056,-1.33436,0.0108763,0.0119733,1294,1737,7.58374,-37.6081
77,-713,7.60376,37.5986,0.00163337,0.014857,-0.00424246,0.016101,0.000389325,-1.28555,0.0106066,0.011643,1301,1737,7.60374,-37.5986
84,-713,7.63611,37.5898,0.00198975,0.0137685,-0.00448881,0.0152841,0.000474117,-1.24517,0.0100351,0.0125507,1308,1737,7.63614,-37.5898
91,-713,7.65149,37.5826,0.00238466,0.0120422,-0.00461973,0.0138962,0.000530697,-1.18916,0.00909239,0.0128054,1315,1737,7.65153,-37.5826
98,-713,7.65857,37.5459,0.00257542,0.00955338,-0.00460875,0.0118448,0.000283956,-1.10939,0.00780363,0.0121067,1322,1737,7.65852,-37.5459
105,-713,7.68005,37.4993,0.00262267,0.0073397,-0.00426926,0.0098586,0.000103768,-1.03776,0.00653808,0.0134737,1329,1737,7.68008,-37.4992
112,-713,7.68799,37.4567,0.00263792,0.00538219,-0.00369797,0.00795439,6.57188e-05,-0.96305,0.00528115,0.0140324,1336,1737,7.688,-37.4567
119,-713,7.71875,37.4052,0.00255031,0.00338222,-0.00336522,0.00635709,-0.000424562,-0.846888,0.00438643,0.0150438,1343,1737,7.71877,-37.4051
126,-713,7.72351,37.3562,0.00247354,0.00102753,-0.00293836,0.00477654,-0.00127546,-0.664765,0.00368386,0.014092,1350,1737,7.72355,-37.3562
133,-713,7.729,37.2427,0.00241162,-0.000693496,-0.00247631,0.00378183,-0.0020637,-0.505392,0.00342316,0.0124162,1357,1737,7.72899,-37.2427
140,-713,7.77039,37.1084,0.00243112,-0.00183602,-0.00191662,0.00316557,-0.00257047,-0.365942,0.00331764,0.0130562,1364,1737,7.77035,-37.1083
147,-713,7.79639,36.986,0.00242163,-0.00287119,-0.00140339,0.00277071,-0.00322027,-0.243796,0.00346214,0.0138592,1371,1737,7.79635,-36.9859
154,-713,7.79431,36.9108,0.00227743,-0.00274972,-0.00105267,0.00248896,-0.00296124,-0.198302,0.00315061,0.0137517,1378,1737,7.79426,-36.9108
161,-713,7.81152,36.8068,0.0020764,-0.00253968,-0.000609289,0.00215547,-0.00261875,-0.129049,0.00276072,0.0108338,1385,1737,7.81153,-36.8067
168,-713,7.802,36.6833,0.00183219,-0.00204078,-0.000432451,0.00187989,-0.00208848,-0.109856,0.00229219,0.0105415,1392,1737,7.80196,-36.6833
175,-713,7.81787,36.5507,0.00158404,-0.0014504,-0.000331661,0.00161987,-0.00148623,-0.107606,0.00179386,0.0135671,1399,1737,7.81783,-36.5507
182,-713,7.83679,36.4353,0.0013273,-0.000879178,-0.000175483,0.00134117,-0.000893047,-0.0788701,0.00129854,0.012582,1406,1737,7.83678,-36.4353
189,-713,7.84644,36.2609,0.00104031,-0.000410876,-0.000234306,0.0010772,-0.000447768,-0.156173,0.000905094,0.0114673,1413,1737,7.84647,-36.2609
196,-713,7.8573,36.1018,0.000762586,8.90539e-05,-0.000220641,0.000828429,2.32111e-05,-0.290003,0.000544714,0.0131084,1420,1737,7.85736,-36.1019
203,-713,7.83655,35.9779,0.000511386,0.000745481,-0.00019951,0.000859744,0.000397123,-1.05068,0.000496853,0.0178234,1427,1737,7.83649,-35.9779
210,-713,7.83008,35.7965,0.000278354,0.00101134,-0.000396654,0.00118489,0.000104799,-1.15835,0.000757415,0.0146102,1434,1737,7.83012,-35.7965
217,-713,7.85193,35.606,4.3082e-05,0.00113946,-0.000595923,0.00140098,-0.000218443,-1.15725,0.00101467,0.0114139,1441,1737,7.8519,-35.606
224,-713,7.83936,35.442,-0.000132918,0.00124418,-0.000735902,0.00156342,-0.000452164,-1.16148,0.00122123,0.0125198,1448,1737,7.83941,-35.442
231,-713,7.84351,35.2367,-0.000354174,0.00128828,-0.000815993,0.00162475,-0.000690642,-1.1797,0.00137258,0.011553,1455,1737,7.84356,-35.2367
238,-713,7.82544,35.0204,-0.000458535,0.00129326,-0.000835645,0.00162794,-0.000793216,-1.18985,0.00142528,0.00873663,1462,1737,7.82541,-35.0203
245,-713,7.82141,34.8202,-0.000496404,0.00134593,-0.000893888,0.00170834,-0.00085882,-1.18561,0.00150896,0.0113292,1469,1737,7.82146,-34.8202
252,-713,7.81824,34.608,-0.000710279,0.00151279,-0.000962053,0.00187131,-0.0010688,-1.21408,0.00171842,0.0116564,1476,1737,7.81823,-34.608
259,-713,7.81592,34.379,-0.00177734,0.0015231,-0.000656681,0.00164895,-0.00190319,-1.38143,0.00205258,0.0125792,1483,1737,7.81598,-34.379
266,-713,7.78149,34.1599,-0.0030971,0.00176376,5.58844e-05,0.0017644,-0.00309774,1.5593,0.00284213,0.0115675,1490,1737,7.78146,-34.1599
273,-713,7.76294,33.9301,-0.00413844,0.00235844,0.000282027,0.00237066,-0.00415066,1.5275,0.00381155,0.00925336,1497,1737,7.76295,-33.9301
280,-713,7.73926,33.6708,-0.00558962,0.00286132,0.000679236,0.00291556,-0.00564386,1.4911,0.00502477,0.0097051,1504,1737,7.73923,-33.6708
287,-713,7.71753,33.4329,-0.00721565,0.00379305,0.00110091,0.00390207,-0.00732467,1.47209,0.00658139,0.0110325,1511,1737,7.71751,-33.4328
294,-713,7.7262,33.2074,-0.00892924,0.00506358,0.00159447,0.00524297,-0.00910863,1.45876,0.00838549,0.0189205,1518,1737,7.72618,-33.2074
301,-713,7.72351,32.9431,-0.0106407,0.00631362,0.00210138,0.00657019,-0.0108972,1.4493,0.0101874,0.0231252,1525,1737,7.72357,-32.9432
308,-713,7.73267,32.6531,-0.0123163,0.00755795,0.00261558,0.00789641,-0.0126548,1.44211,0.0119708,0.0237762,1532,1737,7.73265,-32.6531
315,-713,7.66113,32.3022,-0.0135643,0.00861411,0.00317865,0.00906069,-0.0140109,1.43122,0.0134222,0.029706,1539,1737,7.66112,-32.3022
322,-713,7.83838,31.7809,-0.0143166,0.00988565,0.00343379,0.0103634,-0.0147943,1.43255,0.0145997,0.043029,1546,1737,7.83837,-31.7809
329,-713,8.13708,31.5063,0,0,0,0,0,0,0,-1,1553,1737,8.13703,-31.5064
336,-713,7.79321,31.2086,0,0,0,0,0,0,0,-1,1560,1737,7.79324,-31.2086
343,-713,7.1842,30.8628,0,0,0,0,0,0,0,-1,1567,1737,7.18424,-30.8628
350,-713,7.14148,30.6411,0,0,0,0,0,0,0,-1,1574,1737,7.14154,-30.6411
357,-713,7.04224,30.0194,0,0,0,0,0,0,0,-1,1581,1737,7.0422,-30.0194
364,-713,7.35474,20.9537,0,0,0,0,0,0,0,-1,1588,1737,7.35472,-20.9537
371,-713,3.07507,25.4108,0,0,0,0,0,0,0,-1,1595,1737,3.07502,-25.4107
378,-713,4.21838,25.306,0,0,0,0,0,0,0,-1,1602,1737,4.21837,-25.306
385,-713,5.078,25.3104,0,0,0,0,0,0,0,-1,1609,1737,5.07795,-25.3104
392,-713,5.92114,25.3118,0,0,0,0,0,0,0,-1,1616,1737,5.92112,-25.3118
399,-713,3.14368,25.2808,0,0,0,0,0,0,0,-1,1623,1737,3.14369,-25.2808
406,-713,1.82678,26.7354,0,0,0,0,0,0,0,-1,1630,1737,1.82679,-26.7354
413,-713,3.24731,18.2787,0,0,0,0,0,0,0,-1,1637,1737,3.24726,-18.2787
420,-713,0,0,0,0,0,0,0,0,0,-1,1644,1737,0,0
427,-713,0,0,0,0,0,0,0,0,0,-1,1651,1737,0,0
434,-713,0,0,0,0,0,0,0,0,0,-1,1658,1737,0,0
441,-713,0,0,0,0,0,0,0,0,0,-1,1665,1737,0,0
448,-713,0,0,0,0,0,0,0,0,0,-1,1672,1737,0,0
455,-713,0,0,0,0,0,0,0,0,0,-1,1679,1737,0,0
462,-713,0,0,0,0,0,0,0,0,0,-1,1686,1737,0,0
469,-713,0,0,0,0,0,0,0,0,0,-1,1693,1737,0,0
476,-713,0,0,0,0,0,0,0,0,0,-1,1700,1737,0,0
483,-713,0,0,0,0,0,0,0,0,0,-1,1707,1737,0,0
490,-713,0,0,0,0,0,0,0,0,0,-1,1714,1737,0,0
497,-713,0,0,0,0,0,0,0,0,0,-1,1721,1737,0,0
504,-713,0,0,0,0,0,0,0,0,0,-1,1728,1737,0,0
511,-713,0,0,0,0,0,0,0,0,0,-1,1735,1737,0,0
518,-713,0,0,0,0,0,0,0,0,0,-1,1742,1737,0,0
525,-713,0,0,0,0,0,0,0,0,0,-1,1749,1737,0,0
532,-713,0,0,0,0,0,0,0,0,0,-1,1756,1737,0,0
539,-713,0,0,0,0,0,0,0,0,0,-1,1763,1737,0,0
546,-713,0,0,0,0,0,0,0,0,0,-1,1770,1737,0,0
553,-713,0,0,0,0,0,0,0,0,0,-1,1777,1737,0,0
560,-713,0,0,0,0,0,0,0,0,0,-1,1784,1737,0,0
567,-713,0,0,0,0,0,0,0,0,0,-1,1791,1737,0,0
574,-713,0,0,0,0,0,0,0,0,0,-1,1798,1737,0,0
581,-713,0,0,0,0,0,0,0,0,0,-1,1805,1737,0,0
588,-713,0,0,0,0,0,0,0,0,0,-1,1812,1737,0,0
595,-713,0,0,0,0,0,0,0,0,0,-1,1819,1737,0,0
602,-713,0,0,0,0,0,0,0,0,0,-1,1826,1737,0,0
609,-713,0,0,0,0,0,0,0,0,0,-1,1833,1737,0,0
616,-713,0,0,0,0,0,0,0,0,0,-1,1840,1737,0,0
623,-713,0,0,0,0,0,0,0,0,0,-1,1847,1737,0,0
630,-713,0,0,0,0,0,0,0,0,0,-1,1854,1737,0,0
637,-713,0,0,0,0,0,0,0,0,0,-1,1861,1737,0,0
644,-713,0,0,0,0,0,0,0,0,0,-1,1868,1737,0,0
651,-713,0,0,0,0,0,0,0,0,0,-1,1875,1737,0,0
658,-713,0,0,0,0,0,0,0,0,0,-1,1882,1737,0,0
665,-713,0,0,0,0,0,0,0,0,0,-1,1889,1737,0,0
672,-713,0,0,0,0,0,0,0,0,0,-1,1896,1737,0,0
679,-713,0,0,0,0,0,0,0,0,0,-1,1903,1737,0,0
686,-713,0,0,0,0,0,0,0,0,0,-1,1910,1737,0,0
693,-713,0,0,0,0,0,0,0,0,0,-1,1917,1737,0,0
700,-713,0,0,0,0,0,0,0,0,0,-1,1924,1737,0,0
707,-713,0,0,0,0,0,0,0,0,0,-1,1931,1737,0,0
714,-713,0,0,0,0,0,0,0,0,0,-1,1938,1737,0,0
721,-713,0,0,0,0,0,0,0,0,0,-1,1945,1737,0,0
728,-713,0,0,0,0,0,0,0,0,0,-1,1952,1737,0,0
735,-713,0,0,0,0,0,0,0,0,0,-1,1959,1737,0,0
742,-713,0,0,0,0,0,0,0,0,0,-1,1966,1737,0,0
749,-713,0,0,0,0,0,0,0,0,0,-1,1973,1737,0,0
756,-713,0,0,0,0,0,0,0,0,0,-1,1980,1737,0,0
763,-713,0,0,0,0,0,0,0,0,0,-1,1987,1737,0,0
770,-713,0,0,0,0,0,0,0,0,0,-1,1994,1737,0,0
777,-713,0,0,0,0,0,0,0,0,0,-1,2001,1737,0,0
784,-713,0,0,0,0,0,0,0,0,0,-1,2008,1737,0,0
791,-713,0,0,0,0,0,0,0,0,0,-1,2015,1737,0,0
798,-713,0,0,0,0,0,0,0,0,0,-1,2022,1737,0,0
805,-713,0,0,0,0,0,0,0,0,0,-1,2029,1737,0,0
812,-713,0,0,0,0,0,0,0,0,0,-1,2036,1737,0,0
-700,-720,0,0,0,0,0,0,0,0,0,-1,524,1744,0,0
-693,-720,0,0,0,0,0,0,0,0,0,-1,531,1744,0,0
-686,-720,0,0,0,0,0,0,0,0,0,-1,538,1744,0,0
-679,-720,0,0,0,0,0,0,0,0,0,-1,545,1744,0,0
-672,-720,0,0,0,0,0,0,0,0,0,-1,552,1744,0,0
-665,-720,0,0,0,0,0,0,0,0,0,-1,559,1744,0,0
-658,-720,0,0,0,0,0,0,0,0,0,-1,566,1744,0,0
-651,-720,0,0,0,0,0,0,0,0,0,-1,573,1744,0,0
-644,-720,0,0,0,0,0,0,0,0,0,-1,580,1744,0,0
-637,-720,0,0,0,0,0,0,0,0,0,-1,587,1744,0,0
-630,-720,0,0,0,0,0,0,0,0,0,-1,594,1744,0,0
-623,-720,0,0,0,0,0,0,0,0,0,-1,601,1744,0,0
-616,-720,0,0,0,0,0,0,0,0,0,-1,608,1744,0,0
-609,-720,0,0,0,0,0,0,0,0,0,-1,615,1744,0,0
-602,-720,0,0,0,0,0,0,0,0,0,-1,622,1744,0,0
-595,-720,0,0,0,0,0,0,0,0,0,-1,629,1744,0,0
-588,-720,0,0,0,0,0,0,0,0,0,-1,636,1744,0,0
-581,-720,0,0,0,0,0,0,0,0,0,-1,643,1744,0,0
-574,-720,0,0,0,0,0,0,0,0,0,-1,650,1744,0,0
-567,-720,0,0,0,0,0,0,0,0,0,-1,657,1744,0,0
-560,-720,0,0,0,0,0,0,0,0,0,-1,664,1744,0,0
-553,-720,0,0,0,0,0,0,0,0,0,-1,671,1744,0,0
-546,-720,0,0,0,0,0,0,0,0,0,-1,678,1744,0,0
-539,-720,0,0,0,0,0,0,0,0,0,-1,685,1744,0,0
-532,-720,0,0,0,0,0,0,0,0,0,-1,692,1744,0,0
-525,-720,0,0,0,0,0,0,0,0,0,-1,699,1744,0,0
-518,-720,0,0,0,0,0,0,0,0,0,-1,706,1744,0,0
-511,-720,0,0,0,0,0,0,0,0,0,-1,713,1744,0,0
-504,-720,0,0,0,0,0,0,0,0,0,-1,720,1744,0,0
-497,-720,0,0,0,0,0,0,0,0,0,-1,727,1744,0,0
-490,-720,0,0,0,0,0,0,0,0,0,-1,734,1744,0,0
-483,-720,0,0,0,0,0,0,0,0,0,-1,741,1744,0,0
-476,-720,0,0,0,0,0,0,0,0,0,-1,748,1744,0,0
-469,-720,0,0,0,0,0,0,0,0,0,-1,755,1744,0,0
-462,-720,0,0,0,0,0,0,0,0,0,-1,762,1744,0,0
-455,-720,0,0,0,0,0,0,0,0,0,-1,769,1744,0,0
-448,-720,0,0,0,0,0,0,0,0,0,-1,776,1744,0,0
-441,-720,0,0,0,0,0,0,0,0,0,-1,783,1744,0,0
-434,-720,0,0,0,0,0,0,0,0,0,-1,790,1744,0,0
-427,-720,0,0,0,0,0,0,0,0,0,-1,797,1744,0,0
-420,-720,0,0,0,0,0,0,0,0,0,-1,804,1744,0,0
-413,-720,0,0,0,0,0,0,0,0,0,-1,811,1744,0,0
-406,-720,0,0,0,0,0,0,0,0,0,-1,818,1744,0,0
-399,-720,0,0,0,0,0,0,0,0,0,-1,825,1744,0,0
-392,-720,0,0,0,0,0,0,0,0,0,-1,832,1744,0,0
-385,-720,0,0,0,0,0,0,0,0,0,-1,839,1744,0,0
-378,-720,0,0,0,0,0,0,0,0,0,-1,846,1744,0,0
-371,-720,0,0,0,0,0,0,0,0,0,-1,853,1744,0,0
-364,-720,0,0,0,0,0,0,0,0,0,-1,860,1744,0,0
-357,-720,0,0,0,0,0,0,0,0,0,-1,867,1744,0,0
-350,-720,0,0,0,0,0,0,0,0,0,-1,874,1744,0,0
-343,-720,0,0,0,0,0,0,0,0,0,-1,881,1744,0,0
-336,-720,0,0,0,0,0,0,0,0,0,-1,888,1744,0,0
-329,-720,0,0,0,0,0,0,0,0,0,-1,895,1744,0,0
-322,-720,0,0,0,0,0,0,0,0,0,-1,902,1744,0,0
-315,-720,0,0,0,0,0,0,0,0,0,-1,909,1744,0,0
-308,-720,0,0,0,0,0,0,0,0,0,-1,916,1744,0,0
-301,-720,0,0,0,0,0,0,0,0,0,-1,923,1744,0,0
-294,-720,0,0,0,0,0,0,0,0,0,-1,930,1744,0,0
-287,-720,0,0,0,0,0,0,0,0,0,-1,937,1744,0,0
-280,-720,6.46796,22.6417,0,0,0,0,0,0,0,-1,944,1744,6.46793,-22.6417
-273,-720,8.54633,13.262,0,0,0,0,0,0,0,-1,951,1744,8.54636,-13.2619
-266,-720,7.28027,13.3165,0,0,0,0,0,0,0,-1,958,1744,7.28026,-13.3166
-259,-720,3.70563,18.6372,0,0,0,0,0,0,0,-1,965,1744,3.70564,-18.6372
-252,-720,4.00989,18.5059,0,0,0,0,0,0,0,-1,972,1744,4.00988,-18.5058
-245,-720,4.63318,20.3199,0,0,0,0,0,0,0,-1,979,1744,4.6332,-20.32
-238,-720,5.02216,24.1455,0,0,0,0,0,0,0,-1,986,1744,5.02217,-24.1455
-231,-720,7.35455,28.3225,0,0,0,0,0,0,0,-1,993,1744,7.35453,-28.3225
-224,-720,7.65991,19.4061,0,0,0,0,0,0,0,-1,1000,1744,7.6599,-19.4061
-217,-720,4.77637,30.7196,0,0,0,0,0,0,0,-1,1007,1744,4.77636,-30.7197
-210,-720,6.59039,31.7783,0,0,0,0,0,0,0,-1,1014,1744,6.59038,-31.7783
-203,-720,6.224,31.7343,0,0,0,0,0,0,0,-1,1021,1744,6.22402,-31.7342
-196,-720,7.84167,31.2902,0,0,0,0,0,0,0,-1,1028,1744,7.84166,-31.2902
-189,-720,7.68701,32.1204,0,0,0,0,0,0,0,-1,1035,1744,7.68699,-32.1204
-182,-720,7.5658,32.6384,-0.00609715,-0.0220651,0.0110765,-0.00042708,-0.0277352,0.473122,0.0183494,0.0453495,1042,1744,7.56584,-32.6384
-175,-720,7.53979,32.8011,0,0,0,0,0,0,0,-1,1049,1744,7.53984,-32.8012
-168,-720,7.65466,32.7678,-0.00622585,-0.0166409,0.00702831,-0.00268606,-0.0201807,0.466561,0.0126538,0.047752,1056,1744,7.65472,-32.7679
-161,-720,7.5575,32.9868,-0.00571858,-0.0138407,0.00540402,-0.00301977,-0.0165395,0.463173,0.0101703,0.0416117,1063,1744,7.55744,-32.9868
-154,-720,7.72253,33.3214,-0.00545547,-0.0103163,0.00386784,-0.00331785,-0.012454,0.504889,0.00744727,0.0324038,1070,1744,7.72256,-33.3214
-147,-720,7.65283,33.6458,-0.00527688,-0.00738678,0.0026666,-0.00346413,-0.00919953,0.597038,0.00536504,0.0282257,1077,1744,7.65288,-33.6457
-140,-720,7.67163,33.8718,-0.00494018,-0.0047659,0.00201429,-0.00283687,-0.00686921,0.807015,0.00398591,0.0214106,1084,1744,7.67157,-33.8718
-133,-720,7.6261,34.0194,-0.00449922,-0.00252342,0.00144484,-0.00176103,-0.00526161,1.08526,0.00309264,0.0147591,1091,1744,7.62606,-34.0194
-126,-720,7.61108,34.2336,-0.00405166,-0.000313724,0.00100425,-6.10056e-05,-0.00430437,1.32427,0.00284947,0.0137365,1098,1744,7.61105,-34.2336
-119,-720,7.58777,34.4677,-0.00355821,0.00073748,0.000683152,0.000843506,-0.00366424,1.41682,0.00276718,0.0147633,1105,1744,7.5878,-34.4676
-112,-720,7.5592,34.6968,-0.00289885,0.00214882,0.000501885,0.00219824,-0.00294827,1.47265,0.00298184,0.0137817,1112,1744,7.5592,-34.6967
-105,-720,7.55408,34.9192,-0.0023658,0.0028491,0.000379444,0.00287657,-0.00239327,1.49854,0.0030468,0.0136055,1119,1744,7.55405,-34.9192
-98,-720,7.53174,35.1082,-0.00194639,0.00294304,0.000518789,0.00299748,-0.00200083,1.46624,0.00290484,0.0108112,1126,1744,7.5317,-35.1081
-91,-720,7.50342,35.3119,-0.00145563,0.00298471,0.000650951,0.00307817,-0.00154909,1.42819,0.00271974,0.00990523,1133,1744,7.50339,-35.3118
-84,-720,7.49146,35.5267,-0.00109365,0.00274145,0.000733004,0.00287677,-0.00122897,1.38824,0.00243326,0.010854,1140,1744,7.49147,-35.5267
-77,-720,7.50525,35.7484,-0.000551503,0.00265766,0.000966183,0.0029261,-0.000819938,1.2998,0.00227387,0.0129155,1147,1744,7.50527,-35.7484
-70,-720,7.50842,35.9055,-0.000147087,0.00230012,0.000944947,0.00262252,-0.000469488,1.242,0.00192403,0.0115074,1154,1744,7.50844,-35.9055
-63,-720,7.4668,36.0663,-9.0434e-05,0.00208442,0.000776433,0.00233316,-0.000339175,1.26076,0.00167995,0.0110659,1161,1744,7.46677,-36.0663
-56,-720,7.47485,36.2327,8.32433e-06,0.00176405,0.000606385,0.00195312,-0.000180745,1.26855,0.00136632,0.0129452,1168,1744,7.47481,-36.2327
-49,-720,7.43945,36.3789,0.000235436,0.00136413,0.000545766,0.00158486,1.47049e-05,1.18647,0.00105171,0.0191698,1175,1744,7.4395,-36.379
-42,-720,7.45886,36.4873,0.000479555,0.00093954,0.000652552,0.00140144,1.76512e-05,0.954826,0.000928468,0.0205039,1182,1744,7.4588,-36.4873
-35,-720,7.48804,36.6183,0.00072552,0.000686985,0.000802211,0.0015087,-9.61904e-05,0.773392,0.00103935,0.0175542,1189,1744,7.48799,-36.6183
-28,-720,7.49329,36.7677,0.000875232,0.000632188,0.000984533,0.00174572,-0.000238295,0.723993,0.00125083,0.0110746,1196,1744,7.49326,-36.7677
-21,-720,7.48071,36.9272,0.000913548,0.00077654,0.00127686,0.00212374,-0.000433648,0.758598,0.00158033,0.00956365,1203,1744,7.48066,-36.9272
-14,-720,7.46301,37.0217,0.000914333,0.00108605,0.00163349,0.00263594,-0.000635559,0.811654,0.00200304,0.0120252,1210,1744,7.46301,-37.0217
-7,-720,7.48584,37.1179,0.000839738,0.00149141,0.0019124,0.00310554,-0.000774391,0.869778,0.00237102,0.0126114,1217,1744,7.48583,-37.1179
0,-720,7.50195,37.2155,0.000707649,0.00237032,0.0021645,0.00385765,-0.000779675,0.968751,0.00286721,0.0127128,1224,1744,7.50198,-37.2155
7,-720,7.52063,37.264,0.000513102,0.00330238,0.00230226,0.00459948,-0.000783993,1.05772,0.00335829,0.0155628,1231,1744,7.52059,-37.264
14,-720,7.53662,37.3318,0.00033328,0.00428153,0.00228671,0.00532836,-0.000713557,1.14148,0.00381242,0.0145699,1238,1744,7.53664,-37.3318
21,-720,7.51953,37.4187,0.00025034,0.00541131,0.00208441,0.006148,-0.00048635,1.23107,0.00427003,0.0111103,1245,1744,7.51949,-37.4186
28,-720,7.50928,37.4891,0.000204029,0.00639927,0.00174825,0.00685856,-0.000255263,1.31389,0.00465979,0.0107924,1252,1744,7.50931,-37.4891
35,-720,7.52954,37.5326,0.0001666,0.00725353,0.00123924,0.00746398,-4.38478e-05,1.40258,0.00499067,0.0106887,1259,1744,7.52948,-37.5326
42,-720,7.54114,37.5731,0.000131818,0.00815289,0.000656293,0.00820623,7.84737e-05,1.48969,0.00544485,0.0114502,1266,1744,7.54111,-37.5731
49,-720,7.5459,37.5743,0.000214842,0.00881106,8.66189e-05,0.00881193,0.000213969,1.56072,0.00580461,0.0120787,1273,1744,7.54593,-37.5743
56,-720,7.55847,37.5785,0.000511601,0.00931503,-0.0008112,0.00938915,0.000437476,-1.47967,0.00611882,0.010848,1280,1744,7.55843,-37.5785
63,-720,7.57275,37.5903,0.000858106,0.00962255,-0.00164198,0.00992007,0.000560589,-1.39155,0.00643466,0.0129685,1287,1744,7.57278,-37.5904
70,-720,7.60266,37.6224,0.00114213,0.00951032,-0.00222541,0.0100653,0.000587121,-1.32639,0.00652332,0.0139594,1294,1744,7.60262,-37.6225
77,-720,7.60376,37.6162,0.00145349,0.00917273,-0.0027563,0.0100559,0.000570342,-1.26072,0.00652213,0.0157351,1301,1744,7.60377,-37.6162
84,-720,7.61646,37.5852,0.00173837,0.00852639,-0.00310527,0.00973259,0.000532163,-1.2003,0.00631848,0.0158094,1308,1744,7.61651,-37.5852
91,-720,7.61902,37.5675,0.0020003,0.00757693,-0.00334514,0.00914345,0.000433772,-1.13283,0.00595631,0.0143919,1315,1744,7.61899,-37.5675
98,-720,7.61243,37.5348,0.00219589,0.00627358,-0.00350409,0.00828881,0.00018065,-1.04888,0.00546665,0.0123039,1322,1744,7.61239,-37.5348
105,-720,7.62488,37.4955,0.00231297,0.00499645,-0.00347061,0.00737566,-6.62319e-05,-0.969849,0.00493933,0.0114302,1329,1744,7.62486,-37.4954
112,-720,7.6366,37.4392,0.00236849,0.00396745,-0.0032794,0.00654342,-0.000207476,-0.90496,0.00443306,0.0112075,1336,1744,7.63656,-37.4392
119,-720,7.64819,37.3871,0.00228908,0.00279976,-0.00301679,0.00557199,-0.000483153,-0.827617,0.00388574,0.0115429,1343,1744,7.64815,-37.3871
126,-720,7.66296,37.3181,0.00217826,0.00143644,-0.00262673,0.00446014,-0.000845438,-0.715259,0.00329163,0.0110516,1350,1744,7.66295,-37.3182
133,-720,7.66138,37.2302,0.00203632,0.000377925,-0.00215751,0.00351848,-0.00110424,-0.601935,0.00278762,0.0126782,1357,1744,7.66136,-37.2302
140,-720,7.69165,37.1554,0.00187362,-0.00042752,-0.00162929,0.00271764,-0.00127154,-0.477968,0.00235306,0.0191945,1364,1744,7.69165,-37.1554
147,-720,7.69409,37.032,0.00164664,-0.0010803,-0.00111263,0.002043,-0.00147666,-0.342219,0.00204083,0.0194956,1371,1744,7.69407,-37.032
154,-720,7.69702,36.9102,0.00131926,-0.00132073,-0.00073693,0.00151104,-0.0015125,-0.25459,0.00174564,0.0130657,1378,1744,7.69705,-36.9102
161,-720,7.70166,36.7987,0.000946225,-0.00141051,-0.000364103,0.0010012,-0.00146548,-0.149842,0.00143252,0.010108,1385,1744,7.70169,-36.7987
168,-720,7.68079,36.6853,0.000559148,-0.00133084,-9.76681e-05,0.000564182,-0.00133587,-0.0514939,0.00112675,0.0101709,1392,1744,7.68077,-36.6854
175,-720,7.68457,36.5469,0.000343965,-0.000787915,-0.000187482,0.00037421,-0.000818161,-0.159948,0.000704142,0.0155475,1399,1744,7.68451,-36.5469
182,-720,7.70117,36.4347,0.000105664,-0.00022205,-0.000318427,0.00029992,-0.000416306,-0.547775,0.000415329,0.0152661,1406,1744,7.70118,-36.4347
189,-720,7.71106,36.287,-0.000120529,0.000217882,-0.000496793,0.000573495,-0.000476141,-0.949534,0.000606876,0.0130985,1413,1744,7.71108,-36.287
196,-720,7.70142,36.1031,-0.000346917,0.000716701,-0.000716982,0.00107758,-0.000707792,-1.10449,0.00103813,0.0144184,1420,1744,7.70146,-36.1032
203,-720,7.67358,35.9469,-0.000533602,0.00130061,-0.000923039,0.00168469,-0.000917681,-1.17649,0.00152408,0.0170433,1427,1744,7.67352,-35.9469
210,-720,7.66235,35.7931,-0.000667908,0.00181053,-0.00109795,0.00222695,-0.00108433,-1.20828,0.00194934,0.0151513,1434,1744,7.66236,-35.7931
217,-720,7.66077,35.5942,-0.000805529,0.00205229,-0.00119763,0.00248781,-0.00124105,-1.22201,0.0021926,0.0137611,1441,1744,7.66078,-35.5942
224,-720,7.65381,35.4076,-0.000947603,0.00218534,-0.00129272,0.00264986,-0.00141213,-1.22582,0.00238121,0.00975877,1448,1744,7.65381,-35.4076
231,-720,7.65662,35.2124,-0.00115493,0.00221641,-0.00129833,0.00265845,-0.00159697,-1.24264,0.00248221,0.00954704,1455,1744,7.65664,-35.2124
238,-720,7.63135,35.0114,-0.0012164,0.00217877,-0.00124082,0.00258391,-0.00162154,-1.2552,0.00244911,0.00851493,1462,1744,7.6313,-35.0113
245,-720,7.61816,34.8324,-0.00118732,0.00221732,-0.00126034,0.0026331,-0.0016031,-1.25214,0.00246975,0.0111152,1469,1744,7.61811,-34.8325
252,-720,7.61035,34.6226,-0.00141521,0.00241643,-0.00129712,0.00281424,-0.00181302,-1.27321,0.00269232,0.0116429,1476,1744,7.61031,-34.6226
259,-720,7.59119,34.3971,-0.00292312,0.00238773,-0.000807894,0.0025079,-0.0030433,-1.42312,0.00320996,0.0105501,1483,1744,7.59117,-34.3971
266,-720,7.5564,34.1603,-0.00474355,0.00267911,0.000223341,0.00268583,-0.00475027,1.54074,0.00434803,0.00900394,1490,1744,7.55645,-34.1603
273,-720,7.54138,33.9153,-0.00616467,0.0033838,0.000594841,0.00342071,-0.00620158,1.50882,0.00563224,0.0149484,1497,1744,7.54133,-33.9152
280,-720,7.4541,33.6782,-0.00814775,0.00398369,0.00121245,0.00410368,-0.00826774,1.47215,0.00727626,0.0218826,1504,1744,7.45408,-33.6782
287,-720,7.40283,33.3862,-0.0104223,0.00513544,0.00187067,0.00535721,-0.0106441,1.4528,0.00940492,0.0379876,1511,1744,7.40288,-33.3863
294,-720,7.5426,33.0372,-0.0128853,0.00669103,0.00265547,0.00704484,-0.0132391,1.43834,0.0118916,0.0396562,1518,1744,7.54263,-33.0372
301,-720,7.53467,32.7277,-0.0153993,0.00821698,0.00352113,0.0087308,-0.0159131,1.4259,0.0144282,0.040795,1525,1744,7.53466,-32.7276
308,-720,7.09778,32.5627,-0.0179478,0.00979212,0.00441399,0.0104775,-0.0186332,1.41674,0.0170255,0.0399362,1532,1744,7.09776,-32.5628
315,-720,6.59998,32.2526,-0.019985,0.0112624,0.00533737,0.0121489,-0.0208715,1.4062,0.0192848,0.0385402,1539,1744,6.60003,-32.2525
322,-720,7.90247,31.328,0,0,0,0,0,0,0,-1,1546,1744,7.9025,-31.3281
329,-720,7.79773,28.8168,0,0,0,0,0,0,0,-1,1553,1744,7.79771,-28.8167
336,-720,6.14148,26.5682,0,0,0,0,0,0,0,-1,1560,1744,6.14151,-26.5683
343,-720,6.78552,21.3625,0,0,0,0,0,0,0,-1,1567,1744,6.78551,-21.3625
350,-720,4.0741,11.1836,0,0,0,0,0,0,0,-1,1574,1744,4.07412,-11.1836
357,-720,6.90833,21.4504,0,0,0,0,0,0,0,-1,1581,1744,6.90827,-21.4505
364,-720,5.83777,24.1599,0,0,0,0,0,0,0,-1,1588,1744,5.83773,-24.1599
371,-720,5.46997,23.6176,0,0,0,0,0,0,0,-1,1595,1744,5.47001,-23.6176
378,-720,3.88257,25.5404,0,0,0,0,0,0,0,-1,1602,1744,3.88262,-25.5404
385,-720,4.63611,25.6746,0,0,0,0,0,0,0,-1,1609,1744,4.63612,-25.6746
392,-720,3.49377,23.5042,0,0,0,0,0,0,0,-1,1616,1744,3.4938,-23.5042
399,-720,2.37317,24.7166,0,0,0,0,0,0,0,-1,1623,1744,2.37317,-24.7166
406,-720,0,0,0,0,0,0,0,0,0,-1,1630,1744,0,0
413,-720,0,0,0,0,0,0,0,0,0,-1,1637,1744,0,0
420,-720,0,0,0,0,0,0,0,0,0,-1,1644,1744,0,0
427,-720,0,0,0,0,0,0,0,0,0,-1,1651,1744,0,0
434,-720,0,0,0,0,0,0,0,0,0,-1,1658,1744,0,0
441,-720,0,0,0,0,0,0,0,0,0,-1,1665,1744,0,0
448,-720,0,0,0,0,0,0,0,0,0,-1,1672,1744,0,0
455,-720,0,0,0,0,0,0,0,0,0,-1,1679,1744,0,0
462,-720,0,0,0,0,0,0,0,0,0,-1,1686,1744,0,0
469,-720,0,0,0,0,0,0,0,0,0,-1,1693,1744,0,0
476,-720,0,0,0,0,0,0,0,0,0,-1,1700,1744,0,0
483,-720,0,0,0,0,0,0,0,0,0,-1,1707,1744,0,0
490,-720,0,0,0,0,0,0,0,0,0,-1,1714,1744,0,0
497,-720,0,0,0,0,0,0,0,0,0,-1,1721,1744,0,0
504,-720,0,0,0,0,0,0,0,0,0,-1,1728,1744,0,0
511,-720,0,0,0,0,0,0,0,0,0,-1,1735,1744,0,0
518,-720,0,0,0,0,0,0,0,0,0,-1,1742,1744,0,0
525,-720,0,0,0,0,0,0,0,0,0,-1,1749,1744,0,0
532,-720,0,0,0,0,0,0,0,0,0,-1,1756,1744,0,0
539,-720,0,0,0,0,0,0,0,0,0,-1,1763,1744,0,0
546,-720,0,0,0,0,0,0,0,0,0,-1,1770,1744,0,0
553,-720,0,0,0,0,0,0,0,0,0,-1,1777,1744,0,0
560,-720,0,0,0,0,0,0,0,0,0,-1,1784,1744,0,0
567,-720,0,0,0,0,0,0,0,0,0,-1,1791,1744,0,0
574,-720,0,0,0,0,0,0,0,0,0,-1,1798,1744,0,0
581,-720,0,0,0,0,0,0,0,0,0,-1,1805,1744,0,0
588,-720,0,0,0,0,0,0,0,0,0,-1,1812,1744,0,0
595,-720,0,0,0,0,0,0,0,0,0,-1,1819,1744,0,0
602,-720,0,0,0,0,0,0,0,0,0,-1,1826,1744,0,0
609,-720,0,0,0,0,0,0,0,0,0,-1,1833,1744,0,0
616,-720,0,0,0,0,0,0,0,0,0,-1,1840,1744,0,0
623,-720,0,0,0,0,0,0,0,0,0,-1,1847,1744,0,0
630,-720,0,0,0,0,0,0,0,0,0,-1,1854,1744,0,0
637,-720,0,0,0,0,0,0,0,0,0,-1,1861,1744,0,0
644,-720,0,0,0,0,0,0,0,0,0,-1,1868,1744,0,0
651,-720,0,0,0,0,0,0,0,0,0,-1,1875,1744,0,0
658,-720,0,0,0,0,0,0,0,0,0,-1,1882,1744,0,0
665,-720,0,0,0,0,0,0,0,0,0,-1,1889,1744,0,0
672,-720,0,0,0,0,0,0,0,0,0,-1,1896,1744,0,0
679,-720,0,0,0,0,0,0,0,0,0,-1,1903,1744,0,0
686,-720,0,0,0,0,0,0,0,0,0,-1,1910,1744,0,0
693,-720,0,0,0,0,0,0,0,0,0,-1,1917,1744,0,0
700,-720,0,0,0,0,0,0,0,0,0,-1,1924,1744,0,0
707,-720,0,0,0,0,0,0,0,0,0,-1,1931,1744,0,0
714,-720,0,0,0,0,0,0,0,0,0,-1,1938,1744,0,0
721,-720,0,0,0,0,0,0,0,0,0,-1,1945,1744,0,0
728,-720,0,0,0,0,0,0,0,0,0,-1,1952,1744,0,0
735,-720,0,0,0,0,0,0,0,0,0,-1,1959,1744,0,0
742,-720,0,0,0,0,0,0,0,0,0,-1,1966,1744,0,0
749,-720,0,0,0,0,0,0,0,0,0,-1,1973,1744,0,0
756,-720,0,0,0,0,0,0,0,0,0,-1,1980,1744,0,0
763,-720,0,0,0,0,0,0,0,0,0,-1,1987,1744,0,0
770,-720,0,0,0,0,0,0,0,0,0,-1,1994,1744,0,0
777,-720,0,0,0,0,0,0,0,0,0,-1,2001,1744,0,0
784,-720,0,0,0,0,0,0,0,0,0,-1,2008,1744,0,0
791,-720,0,0,0,0,0,0,0,0,0,-1,2015,1744,0,0
798,-720,0,0,0,0,0,0,0,0,0,-1,2022,1744,0,0
805,-720,0,0,0,0,0,0,0,0,0,-1,2029,1744,0,0
812,-720,0,0,0,0,0,0,0,0,0,-1,2036,1744,0,0
-700,-727,0,0,0,0,0,0,0,0,0,-1,524,1751,0,0
-693,-727,0,0,0,0,0,0,0,0,0,-1,531,1751,0,0
-686,-727,0,0,0,0,0,0,0,0,0,-1,538,1751,0,0
-679,-727,0,0,0,0,0,0,0,0,0,-1,545,1751,0,0
-672,-727,0,0,0,0,0,0,0,0,0,-1,552,1751,0,0
-665,-727,0,0,0,0,0,0,0,0,0,-1,559,1751,0,0
-658,-727,0,0,0,0,0,0,0,0,0,-1,566,1751,0,0
-651,-727,0,0,0,0,0,0,0,0,0,-1,573,1751,0,0
-644,-727,0,0,0,0,0,0,0,0,0,-1,580,1751,0,0
-637,-727,0,0,0,0,0,0,0,0,0,-1,587,1751,0,0
-630,-727,0,0,0,0,0,0,0,0,0,-1,594,1751,0,0
-623,-727,0,0,0,0,0,0,0,0,0,-1,601,1751,0,0
-616,-727,0,0,0,0,0,0,0,0,0,-1,608,1751,0,0
-609,-727,0,0,0,0,0,0,0,0,0,-1,615,1751,0,0
-602,-727,0,0,0,0,0,0,0,0,0,-1,622,1751,0,0
-595,-727,0,0,0,0,0,0,0,0,0,-1,629,1751,0,0
-588,-727,0,0,0,0,0,0,0,0,0,-1,636,1751,0,0
-581,-727,0,0,0,0,0,0,0,0,0,-1,643,1751,0,0
-574,-727,0,0,0,0,0,0,0,0,0,-1,650,1751,0,0
-567,-727,0,0,0,0,0,0,0,0,0,-1,657,1751,0,0
-560,-727,0,0,0,0,0,0,0,0,0,-1,664,1751,0,0
-553,-727,0,0,0,0,0,0,0,0,0,-1,671,1751,0,0
-546,-727,0,0,0,0,0,0,0,0,0,-1,678,1751,0,0
-539,-727,0,0,0,0,0,0,0,0,0,-1,685,1751,0,0
-532,-727,0,0,0,0,0,0,0,0,0,-1,692,1751,0,0
-525,-727,0,0,0,0,0,0,0,0,0,-1,699,1751,0,0
-518,-727,0,0,0,0,0,0,0,0,0,-1,706,1751,0,0
-511,-727,0,0,0,0,0,0,0,0,0,-1,713,1751,0,0
-504,-727,0,0,0,0,0,0,0,0,0,-1,720,1751,0,0
-497,-727,0,0,0,0,0,0,0,0,0,-1,727,1751,0,0
-490,-727,0,0,0,0,0,0,0,0,0,-1,734,1751,0,0
-483,-727,0,0,0,0,0,0,0,0,0,-1,741,1751,0,0
-476,-727,0,0,0,0,0,0,0,0,0,-1,748,1751,0,0
-469,-727,0,0,0,0,0,0,0,0,0,-1,755,1751,0,0
-462,-727,0,0,0,0,0,0,0,0,0,-1,762,1751,0,0
-455,-727,0,0,0,0,0,0,0,0,0,-1,769,1751,0,0
-448,-727,0,0,0,0,0,0,0,0,0,-1,776,1751,0,0
-441,-727,0,0,0,0,0,0,0,0,0,-1,783,1751,0,0
-434,-727,0,0,0,0,0,0,0,0,0,-1,790,1751,0,0
-427,-727,0,0,0,0,0,0,0,0,0,-1,797,1751,0,0
-420,-727,0,0,0,0,0,0,0,0,0,-1,804,1751,0,0
-413,-727,0,0,0,0,0,0,0,0,0,-1,811,1751,0,0
-406,-727,0,0,0,0,0,0,0,0,0,-1,818,1751,0,0
-399,-727,0,0,0,0,0,0,0,0,0,-1,825,1751,0,0
-392,-727,0,0,0,0,0,0,0,0,0,-1,832,1751,0,0
-385,-727,0,0,0,0,0,0,0,0,0,-1,839,1751,0,0
-378,-727,0,0,0,0,0,0,0,0,0,-1,846,1751,0,0
-371,-727,0,0,0,0,0,0,0,0,0,-1,853,1751,0,0
-364,-727,0,0,0,0,0,0,0,0,0,-1,860,1751,0,0
-357,-727,0,0,0,0,0,0,0,0,0,-1,867,1751,0,0
-350,-727,0,0,0,0,0,0,0,0,0,-1,874,1751,0,0
-343,-727,0,0,0,0,0,0,0,0,0,-1,881,1751,0,0
-336,-727,0,0,0,0,0,0,0,0,0,-1,888,1751,0,0
-329,-727,0,0,0,0,0,0,0,0,0,-1,895,1751,0,0
-322,-727,0,0,0,0,0,0,0,0,0,-1,902,1751,0,0
-315,-727,0,0,0,0,0,0,0,0,0,-1,909,1751,0,0
-308,-727,0,0,0,0,0,0,0,0,0,-1,916,1751,0,0
-301,-727,0,0,0,0,0,0,0,0,0,-1,923,1751,0,0
-294,-727,0,0,0,0,0,0,0,0,0,-1,930,1751,0,0
-287,-727,0,0,0,0,0,0,0,0,0,-1,937,1751,0,0
-280,-727,0,0,0,0,0,0,0,0,0,-1,944,1751,0,0
-273,-727,0,0,0,0,0,0,0,0,0,-1,951,1751,0,0
-266,-727,4.24805,7.61145,0,0,0,0,0,0,0,-1,958,1751,4.24802,-7.6115
-259,-727,3.65228,5.4082,0,0,0,0,0,0,0,-1,965,1751,3.65229,-5.40818
-252,-727,6.35193,19.5046,0,0,0,0,0,0,0,-1,972,1751,6.35193,-19.5046
-245,-727,6.6543,20.9005,0,0,0,0,0,0,0,-1,979,1751,6.65433,-20.9005
-238,-727,4.31769,18.0181,0,0,0,0,0,0,0,-1,986,1751,4.31766,-18.018
-231,-727,6.50403,21.7985,0,0,0,0,0,0,0,-1,993,1751,6.50403,-21.7985
-224,-727,7.89355,29.2025,0,0,0,0,0,0,0,-1,1000,1751,7.89356,-29.2026
-217,-727,4.66821,31.8496,0,0,0,0,0,0,0,-1,1007,1751,4.66824,-31.8496
-210,-727,5.05951,32.1201,0,0,0,0,0,0,0,-1,1014,1751,5.0595,-32.1201
-203,-727,5.51245,32.3544,0,0,0,0,0,0,0,-1,1021,1751,5.51242,-32.3544
-196,-727,6.16858,32.8782,0,0,0,0,0,0,0,-1,1028,1751,6.16862,-32.8782
-189,-727,7.86157,29.6465,0,0,0,0,0,0,0,-1,1035,1751,7.86159,-29.6465
-182,-727,7.71802,33.3044,0,0,0,0,0,0,0,-1,1042,1751,7.71803,-33.3044
-175,-727,7.58398,33.4982,0,0,0,0,0,0,0,-1,1049,1751,7.58394,-33.4982
-168,-727,7.63757,33.1046,-0.00840217,-0.0222654,0.00906948,-0.00391876,-0.0267488,0.459109,0.0166804,0.0486567,1056,1751,7.63756,-33.1047
-161,-727,7.51111,33.3044,-0.00777214,-0.0182303,0.00697473,-0.004284,-0.0217185,0.463738,0.0132833,0.0468163,1063,1751,7.51108,-33.3045
-154,-727,7.97327,33.3136,0,0,0,0,0,0,0,-1,1070,1751,7.97324,-33.3136
-147,-727,8.00049,33.6632,0,0,0,0,0,0,0,-1,1077,1751,8.00045,-33.6633
-140,-727,7.78784,33.6252,-0.0068275,-0.0060886,0.00259854,-0.00383338,-0.00908272,0.856013,0.00526511,0.0344038,1084,1751,7.78784,-33.6253
-133,-727,7.88,33.9077,-0.00630014,-0.00317484,0.00183761,-0.00232529,-0.00714969,1.13775,0.00421109,0.0240925,1091,1751,7.88003,-33.9077
-126,-727,7.79187,34.1862,-0.00575428,-0.000417962,0.00126851,-0.000131771,-0.00604047,1.3489,0.00398378,0.0155213,1098,1751,7.79188,-34.1862
-119,-727,7.7793,34.4709,-0.00514344,0.000859283,0.000841751,0.000975086,-0.00525925,1.43408,0.00387233,0.012424,1105,1751,7.77925,-34.471
-112,-727,7.77576,34.6708,-0.0043101,0.00267078,0.000631961,0.00272752,-0.00436685,1.48124,0.00413223,0.014476,1112,1751,7.77573,-34.6708
-105,-727,7.73767,34.8949,-0.00363406,0.00359407,0.000511654,0.00363011,-0.0036701,1.50048,0.0042148,0.0144516,1119,1751,7.73766,-34.8949
-98,-727,7.71606,35.1205,-0.00310854,0.00373639,0.000717911,0.00381087,-0.00318303,1.46741,0.00404335,0.0117175,1126,1751,7.71612,-35.1205
-91,-727,7.71533,35.3108,-0.00250557,0.00381834,0.000918014,0.0039489,-0.00263613,1.42951,0.00382697,0.0108433,1133,1751,7.71534,-35.3107
-84,-727,7.67578,35.5181,-0.00209269,0.0035226,0.0010488,0.00371209,-0.00228219,1.39205,0.00349347,0.0115193,1140,1751,7.67581,-35.5181
-77,-727,7.66528,35.7268,-0.00139143,0.00340997,0.00144574,0.00381168,-0.00179315,1.29977,0.00330516,0.0123077,1147,1751,7.66522,-35.7268
-70,-727,7.67419,35.9161,-0.000866139,0.00294488,0.00146526,0.00344311,-0.00136436,1.24303,0.00286078,0.0129231,1154,1751,7.67422,-35.9162
-63,-727,7.6543,36.0886,-0.000994506,0.00273979,0.00127356,0.00313277,-0.00138749,1.27149,0.00267383,0.0108591,1161,1751,7.65428,-36.0887
-56,-727,7.62622,36.2367,-0.00112164,0.00242728,0.00107423,0.00272711,-0.00142147,1.29861,0.0024344,0.0109301,1168,1751,7.62623,-36.2366
-49,-727,7.59729,36.3838,-0.000988825,0.00195574,0.00105502,0.00229472,-0.00132781,1.25991,0.00211616,0.0135477,1175,1751,7.59728,-36.3838
-42,-727,7.62793,36.5239,-0.000736296,0.00112139,0.00113271,0.00165739,-0.0012723,1.12881,0.00169632,0.0158416,1182,1751,7.62798,-36.5239
-35,-727,7.61096,36.6395,-0.000391102,0.000323604,0.00113252,0.00115381,-0.00122131,0.938223,0.00137146,0.0139522,1189,1751,7.61096,-36.6395
-28,-727,7.58728,36.766,-6.41258e-05,-0.000346768,0.00113077,0.000934122,-0.00134502,0.723232,0.00132297,0.00881198,1196,1751,7.58722,-36.766
-21,-727,7.58411,36.9093,0.000169703,-0.000703066,0.00126537,0.00107182,-0.00160519,0.619351,0.00155576,0.0105204,1203,1751,7.58409,-36.9093
-14,-727,7.58313,37.016,0.000431096,-0.000939199,0.00149084,0.00138669,-0.0018948,0.570006,0.00190212,0.0122901,1210,1751,7.58315,-37.016
-7,-727,7.59375,37.0966,0.000618131,-0.00114849,0.0015832,0.00154776,-0.00207812,0.530944,0.00210085,0.0154121,1217,1751,7.5938,-37.0966
0,-727,7.58252,37.2015,0.000699272,-0.000905566,0.00169766,0.0017746,-0.00198089,0.564629,0.00216933,0.0147076,1224,1751,7.5825,-37.2016
7,-727,7.5752,37.2708,0.000673829,-0.000456367,0.00173311,0.00193164,-0.00171418,0.627803,0.00210616,0.01439,1231,1751,7.57521,-37.2708
14,-727,7.59399,37.3468,0.000674442,0.000155356,0.00166938,0.00210433,-0.00127454,0.708279,0.0019703,0.0140689,1238,1751,7.59405,-37.3468
21,-727,7.57068,37.4299,0.000708333,0.000887688,0.0014686,0.00226934,-0.00067332,0.815892,0.00178029,0.0118387,1245,1751,7.57069,-37.4299
28,-727,7.56946,37.48,0.000666984,0.00156934,0.00116233,0.00236498,-0.000128659,0.970531,0.00162124,0.0114757,1252,1751,7.56949,-37.48
35,-727,7.60364,37.5148,0.000624311,0.00230011,0.000755497,0.00259042,0.000334004,1.20393,0.00162708,0.0123533,1259,1751,7.60366,-37.5148
42,-727,7.59436,37.5507,0.00060513,0.00303918,0.000310255,0.0030781,0.000566206,1.44599,0.00189179,0.0127239,1266,1751,7.59436,-37.5506
49,-727,7.56812,37.578,0.000783879,0.00392992,-0.000206194,0.00394337,0.000770422,-1.50563,0.00241345,0.011373,1273,1751,7.56811,-37.5779
56,-727,7.55933,37.6094,0.00119779,0.0048611,-0.000932661,0.00508488,0.000974012,-1.33531,0.00311641,0.0102125,1280,1751,7.55928,-37.6094
63,-727,7.57654,37.6252,0.00176188,0.00588274,-0.00176169,0.00653321,0.00111142,-1.2171,0.00403633,0.0123129,1287,1751,7.57654,-37.6253
70,-727,7.61719,37.6091,0.00239212,0.00657056,-0.00235856,0.00763215,0.00133052,-1.14786,0.00470769,0.0145637,1294,1751,7.61725,-37.6091
77,-727,7.62,37.6217,0.00319667,0.00717451,-0.00293047,0.00872727,0.00164392,-1.08354,0.00535499,0.017392,1301,1751,7.61997,-37.6217
84,-727,7.60522,37.5901,0.00388012,0.00745921,-0.00338485,0.00949846,0.00184087,-1.02857,0.00581661,0.0182632,1308,1751,7.60525,-37.59
91,-727,7.59888,37.5389,0.00456275,0.00761068,-0.00376947,0.0101526,0.00202083,-0.977498,0.00620545,0.018101,1315,1751,7.59883,-37.5389
98,-727,7.59717,37.5116,0.00523893,0.00760108,-0.00407292,0.0106607,0.0021793,-0.926519,0.00650358,0.014073,1322,1751,7.59715,-37.5116
105,-727,7.58899,37.4827,0.00578298,0.00740321,-0.00423134,0.0109013,0.0022849,-0.879981,0.00663829,0.0125408,1329,1751,7.58903,-37.4826
112,-727,7.58691,37.4347,0.00613616,0.00710042,-0.00422204,0.0108678,0.00236881,-0.842248,0.00659886,0.0110032,1336,1751,7.58693,-37.4347
119,-727,7.60107,37.3856,0.00618394,0.0065001,-0.00410362,0.0104487,0.00223536,-0.80465,0.00635314,0.00891422,1343,1751,7.60109,-37.3856
126,-727,7.62109,37.2926,0.00603945,0.00563661,-0.00377486,0.00961826,0.00205779,-0.758744,0.00584819,0.00987743,1350,1751,7.62109,-37.2926
133,-727,7.61768,37.2141,0.00567719,0.00468744,-0.00326958,0.00848914,0.0018755,-0.71029,0.0051494,0.0148775,1357,1751,7.61772,-37.2142
140,-727,7.62109,37.1548,0.00505824,0.00363791,-0.002677,0.00711767,0.00157848,-0.655743,0.00431626,0.0215557,1364,1751,7.6211,-37.1548
147,-727,7.61304,37.0616,0.00425465,0.0025697,-0.00205891,0.00563678,0.00118756,-0.591199,0.0034312,0.0185589,1371,1751,7.61306,-37.0617
154,-727,7.60522,36.9126,0.00317169,0.00144704,-0.00149177,0.00403244,0.000586292,-0.523335,0.00251574,0.011811,1378,1751,7.60519,-36.9126
161,-727,7.5824,36.8079,0.00188271,0.000458679,-0.000939031,0.00234914,-7.75547e-06,-0.46102,0.00156869,0.00974762,1385,1751,7.5824,-36.8078
168,-727,7.5647,36.6969,0.000690847,-0.000442325,-0.000397256,0.000816238,-0.000567716,-0.305745,0.000803309,0.0127523,1392,1751,7.56472,-36.6969
175,-727,7.57654,36.5583,-0.000189861,-0.00038896,-0.000497797,0.000218243,-0.000797064,-0.68671,0.000617124,0.0178822,1399,1751,7.57654,-36.5583
182,-727,7.58752,36.4242,-0.00119843,-9.73497e-05,-0.000717621,0.000256585,-0.00155236,-1.1126,0.00113019,0.0193126,1406,1751,7.58755,-36.4242
189,-727,7.54468,36.2666,-0.00135256,0.000405547,-0.00100057,0.000858362,-0.00180537,-1.14582,0.00156997,0.012186,1413,1751,7.54466,-36.2666
196,-727,7.53064,36.1122,-0.00146859,0.00105097,-0.00137317,0.00165469,-0.00207232,-1.15658,0.00215629,0.0142195,1420,1751,7.53059,-36.1122
203,-727,7.51807,35.9454,-0.00154546,0.00184568,-0.00165574,0.00252001,-0.00221979,-1.18404,0.00273835,0.0176324,1427,1751,7.51811,-35.9454
210,-727,7.51379,35.7838,-0.00159045,0.00266716,-0.00182509,0.00334242,-0.00226571,-1.21643,0.00325768,0.0175704,1434,1751,7.51374,-35.7838
217,-727,7.48145,35.6022,-0.00163398,0.00303707,-0.00184353,0.00367699,-0.0022739,-1.23669,0.00346744,0.0138718,1441,1751,7.4815,-35.6022
224,-727,7.46484,35.3953,-0.00174199,0.00322251,-0.00189102,0.00386076,-0.00238024,-1.24529,0.00363688,0.0130531,1448,1751,7.46483,-35.3952
231,-727,7.45679,35.1992,-0.00193624,0.00325787,-0.00182345,0.00383409,-0.00251246,-1.26472,0.00369057,0.0095983,1455,1751,7.4568,-35.1992
238,-727,7.45386,34.9894,-0.00195301,0.00318576,-0.00169428,0.00369409,-0.00246134,-1.27931,0.00357752,0.00997426,1462,1751,7.4538,-34.9894
245,-727,7.4375,34.8087,-0.00185053,0.00320816,-0.00166906,0.00370922,-0.00235159,-1.27915,0.00352835,0.0105195,1469,1751,7.4375,-34.8087
252,-727,7.40601,34.6018,-0.0020809,0.00343034,-0.00166579,0.00389471,-0.00254526,-1.29893,0.00374523,0.0124937,1476,1751,7.40602,-34.6018
259,-727,7.39966,34.371,-0.00408421,0.00334601,-0.000976172,0.00347212,-0.00421032,-1.44232,0.00444228,0.0160072,1483,1751,7.39967,-34.3709
266,-727,7.41931,34.1671,-0.00650582,0.00367183,0.000415301,0.00368875,-0.00652274,1.53008,0.00597081,0.0210363,1490,1751,7.4193,-34.1671
273,-727,7.44446,33.9734,-0.00846504,0.00444866,0.00101055,0.00452726,-0.00854364,1.49317,0.00766432,0.0377759,1497,1751,7.44447,-33.9734
280,-727,7.13049,33.7268,0,0,0,0,0,0,0,-1,1504,1751,7.13044,-33.7268
287,-727,7.06982,33.3496,0,0,0,0,0,0,0,-1,1511,1751,7.0698,-33.3496
294,-727,7.21765,32.8511,0,0,0,0,0,0,0,-1,1518,1751,7.21766,-32.8511
301,-727,7.20764,32.6176,0,0,0,0,0,0,0,-1,1525,1751,7.20763,-32.6175
308,-727,6.35315,32.6804,-0.025897,0.0121305,0.00721469,0.0134533,-0.0272198,1.38946,0.0239268,0.0497537,1532,1751,6.35319,-32.6805
315,-727,5.60718,32.2692,-0.029324,0.0141306,0.00876523,0.015832,-0.0310254,1.37907,0.0275231,0.0450751,1539,1751,5.60714,-32.2692
322,-727,5.46021,31.5459,0,0,0,0,0,0,0,-1,1546,1751,5.4602,-31.5458
329,-727,5.54419,31.0325,0,0,0,0,0,0,0,-1,1553,1751,5.54425,-31.0325
336,-727,5.55823,20.2439,0,0,0,0,0,0,0,-1,1560,1751,5.55829,-20.2438
343,-727,2.41699,8.72095,0,0,0,0,0,0,0,-1,1567,1751,2.41702,-8.72098
350,-727,3.89783,7.50195,0,0,0,0,0,0,0,-1,1574,1751,3.89782,-7.50193
357,-727,4.48462,10.2948,0,0,0,0,0,0,0,-1,1581,1751,4.48464,-10.2948
364,-727,6.96729,17.2365,0,0,0,0,0,0,0,-1,1588,1751,6.96732,-17.2365
371,-727,5.04565,23.2227,0,0,0,0,0,0,0,-1,1595,1751,5.04564,-23.2227
378,-727,4.56726,23.0574,0,0,0,0,0,0,0,-1,1602,1751,4.56727,-23.0574
385,-727,3.52307,22.6431,0,0,0,0,0,0,0,-1,1609,1751,3.52303,-22.643
392,-727,0,0,0,0,0,0,0,0,0,-1,1616,1751,0,0
399,-727,0,0,0,0,0,0,0,0,0,-1,1623,1751,0,0
406,-727,0,0,0,0,0,0,0,0,0,-1,1630,1751,0,0
413,-727,0,0,0,0,0,0,0,0,0,-1,1637,1751,0,0
420,-727,0,0,0,0,0,0,0,0,0,-1,1644,1751,0,0
427,-727,0,0,0,0,0,0,0,0,0,-1,1651,1751,0,0
434,-727,0,0,0,0,0,0,0,0,0,-1,1658,1751,0,0
441,-727,0,0,0,0,0,0,0,0,0,-1,1665,1751,0,0
448,-727,0,0,0,0,0,0,0,0,0,-1,1672,1751,0,0
455,-727,0,0,0,0,0,0,0,0,0,-1,1679,1751,0,0
462,-727,0,0,0,0,0,0,0,0,0,-1,1686,1751,0,0
469,-727,0,0,0,0,0,0,0,0,0,-1,1693,1751,0,0
476,-727,0,0,0,0,0,0,0,0,0,-1,1700,1751,0,0
483,-727,0,0,0,0,0,0,0,0,0,-1,1707,1751,0,0
490,-727,0,0,0,0,0,0,0,0,0,-1,1714,1751,0,0
497,-727,0,0,0,0,0,0,0,0,0,-1,1721,1751,0,0
504,-727,0,0,0,0,0,0,0,0,0,-1,1728,1751,0,0
511,-727,0,0,0,0,0,0,0,0,0,-1,1735,1751,0,0
518,-727,0,0,0,0,0,0,0,0,0,-1,1742,1751,0,0
525,-727,0,0,0,0,0,0,0,0,0,-1,1749,1751,0,0
532,-727,0,0,0,0,0,0,0,0,0,-1,1756,1751,0,0
539,-727,0,0,0,0,0,0,0,0,0,-1,1763,1751,0,0
546,-727,0,0,0,0,0,0,0,0,0,-1,1770,1751,0,0
553,-727,0,0,0,0,0,0,0,0,0,-1,1777,1751,0,0
560,-727,0,0,0,0,0,0,0,0,0,-1,1784,1751,0,0
567,-727,0,0,0,0,0,0,0,0,0,-1,1791,1751,0,0
574,-727,0,0,0,0,0,0,0,0,0,-1,1798,1751,0,0
581,-727,0,0,0,0,0,0,0,0,0,-1,1805,1751,0,0
588,-727,0,0,0,0,0,0,0,0,0,-1,1812,1751,0,0
595,-727,0,0,0,0,0,0,0,0,0,-1,1819,1751,0,0
602,-727,0,0,0,0,0,0,0,0,0,-1,1826,1751,0,0
609,-727,0,0,0,0,0,0,0,0,0,-1,1833,1751,0,0
616,-727,0,0,0,0,0,0,0,0,0,-1,1840,1751,0,0
623,-727,0,0,0,0,0,0,0,0,0,-1,1847,1751,0,0
630,-727,0,0,0,0,0,0,0,0,0,-1,1854,1751,0,0
637,-727,0,0,0,0,0,0,0,0,0,-1,1861,1751,0,0
644,-727,0,0,0,0,0,0,0,0,0,-1,1868,1751,0,0
651,-727,0,0,0,0,0,0,0,0,0,-1,1875,1751,0,0
658,-727,0,0,0,0,0,0,0,0,0,-1,1882,1751,0,0
665,-727,0,0,0,0,0,0,0,0,0,-1,1889,1751,0,0
672,-727,0,0,0,0,0,0,0,0,0,-1,1896,1751,0,0
679,-727,0,0,0,0,0,0,0,0,0,-1,1903,1751,0,0
686,-727,0,0,0,0,0,0,0,0,0,-1,1910,1751,0,0
693,-727,0,0,0,0,0,0,0,0,0,-1,1917,1751,0,0
700,-727,0,0,0,0,0,0,0,0,0,-1,1924,1751,0,0
707,-727,0,0,0,0,0,0,0,0,0,-1,1931,1751,0,0
714,-727,0,0,0,0,0,0,0,0,0,-1,1938,1751,0,0
721,-727,0,0,0,0,0,0,0,0,0,-1,1945,1751,0,0
728,-727,0,0,0,0,0,0,0,0,0,-1,1952,1751,0,0
735,-727,0,0,0,0,0,0,0,0,0,-1,1959,1751,0,0
742,-727,0,0,0,0,0,0,0,0,0,-1,1966,1751,0,0
749,-727,0,0,0,0,0,0,0,0,0,-1,1973,1751,0,0
756,-727,0,0,0,0,0,0,0,0,0,-1,1980,1751,0,0
763,-727,0,0,0,0,0,0,0,0,0,-1,1987,1751,0,0
770,-727,0,0,0,0,0,0,0,0,0,-1,1994,1751,0,0
777,-727,0,0,0,0,0,0,0,0,0,-1,2001,1751,0,0
784,-727,0,0,0,0,0,0,0,0,0,-1,2008,1751,0,0
791,-727,0,0,0,0,0,0,0,0,0,-1,2015,1751,0,0
798,-727,0,0,0,0,0,0,0,0,0,-1,2022,1751,0,0
805,-727,0,0,0,0,0,0,0,0,0,-1,2029,1751,0,0
812,-727,0,0,0,0,0,0,0,0,0,-1,2036,1751,0,0
-700,-734,0,0,0,0,0,0,0,0,0,-1,524,1758,0,0
-693,-734,0,0,0,0,0,0,0,0,0,-1,531,1758,0,0
-686,-734,0,0,0,0,0,0,0,0,0,-1,538,1758,0,0
-679,-734,0,0,0,0,0,0,0,0,0,-1,545,1758,0,0
-672,-734,0,0,0,0,0,0,0,0,0,-1,552,1758,0,0
-665,-734,0,0,0,0,0,0,0,0,0,-1,559,1758,0,0
-658,-734,0,0,0,0,0,0,0,0,0,-1,566,1758,0,0
-651,-734,0,0,0,0,0,0,0,0,0,-1,573,1758,0,0
-644,-734,0,0,0,0,0,0,0,0,0,-1,580,1758,0,0
-637,-734,0,0,0,0,0,0,0,0,0,-1,587,1758,0,0
-630,-734,0,0,0,0,0,0,0,0,0,-1,594,1758,0,0
-623,-734,0,0,0,0,0,0,0,0,0,-1,601,1758,0,0
-616,-734,0,0,0,0,0,0,0,0,0,-1,608,1758,0,0
-609,-734,0,0,0,0,0,0,0,0,0,-1,615,1758,0,0
-602,-734,0,0,0,0,0,0,0,0,0,-1,622,1758,0,0
-595,-734,0,0,0,0,0,0,0,0,0,-1,629,1758,0,0
-588,-734,0,0,0,0,0,0,0,0,0,-1,636,1758,0,0
-581,-734,0,0,0,0,0,0,0,0,0,-1,643,1758,0,0
-574,-734,0,0,0,0,0,0,0,0,0,-1,650,1758,0,0
-567,-734,0,0,0,0,0,0,0,0,0,-1,657,1758,0,0
-560,-734,0,0,0,0,0,0,0,0,0,-1,664,1758,0,0
-553,-734,0,0,0,0,0,0,0,0,0,-1,671,1758,0,0
-546,-734,0,0,0,0,0,0,0,0,0,-1,678,1758,0,0
-539,-734,0,0,0,0,0,0,0,0,0,-1,685,1758,0,0
-532,-734,0,0,0,0,0,0,0,0,0,-1,692,1758,0,0
-525,-734,0,0,0,0,0,0,0,0,0,-1,699,1758,0,0
-518,-734,0,0,0,0,0,0,0,0,0,-1,706,1758,0,0
-511,-734,0,0,0,0,0,0,0,0,0,-1,713,1758,0,0
-504,-734,0,0,0,0,0,0,0,0,0,-1,720,1758,0,0
-497,-734,0,0,0,0,0,0,0,0,0,-1,727,1758,0,0
-490,-734,0,0,0,0,0,0,0,0,0,-1,734,1758,0,0
-483,-734,0,0,0,0,0,0,0,0,0,-1,741,1758,0,0
-476,-734,0,0,0,0,0,0,0,0,0,-1,748,1758,0,0
-469,-734,0,0,0,0,0,0,0,0,0,-1,755,1758,0,0
-462,-734,0,0,0,0,0,0,0,0,0,-1,762,1758,0,0
-455,-734,0,0,0,0,0,0,0,0,0,-1,769,1758,0,0
-448,-734,0,0,0,0,0,0,0,0,0,-1,776,1758,0,0
-441,-734,0,0,0,0,0,0,0,0,0,-1,783,1758,0,0
-434,-734,0,0,0,0,0,0,0,0,0,-1,790,1758,0,0
-427,-734,0,0,0,0,0,0,0,0,0,-1,797,1758,0,0
-420,-734,0,0,0,0,0,0,0,0,0,-1,804,1758,0,0
-413,-734,0,0,0,0,0,0,0,0,0,-1,811,1758,0,0
-406,-734,0,0,0,0,0,0,0,0,0,-1,818,1758,0,0
-399,-734,0,0,0,0,0,0,0,0,0,-1,825,1758,0,0
-392,-734,0,0,0,0,0,0,0,0,0,-1,832,1758,0,0
-385,-734,0,0,0,0,0,0,0,0,0,-1,839,1758,0,0
-378,-734,0,0,0,0,0,0,0,0,0,-1,846,1758,0,0
-371,-734,0,0,0,0,0,0,0,0,0,-1,853,1758,0,0
-364,-734,0,0,0,0,0,0,0,0,0,-1,860,1758,0,0
-357,-734,0,0,0,0,0,0,0,0,0,-1,867,1758,0,0
-350,-734,0,0,0,0,0,0,0,0,0,-1,874,1758,0,0
-343,-734,0,0,0,0,0,0,0,0,0,-1,881,1758,0,0
-336,-734,0,0,0,0,0,0,0,0,0,-1,888,1758,0,0
-329,-734,0,0,0,0,0,0,0,0,0,-1,895,1758,0,0
-322,-734,0,0,0,0,0,0,0,0,0,-1,902,1758,0,0
-315,-734,0,0,0,0,0,0,0,0,0,-1,909,1758,0,0
-308,-734,0,0,0,0,0,0,0,0,0,-1,916,1758,0,0
-301,-734,0,0,0,0,0,0,0,0,0,-1,923,1758,0,0
-294,-734,0,0,0,0,0,0,0,0,0,-1,930,1758,0,0
-287,-734,0,0,0,0,0,0,0,0,0,-1,937,1758,0,0
-280,-734,0,0,0,0,0,0,0,0,0,-1,944,1758,0,0
-273,-734,0,0,0,0,0,0,0,0,0,-1,951,1758,0,0
-266,-734,0,0,0,0,0,0,0,0,0,-1,958,1758,0,0
-259,-734,0,0,0,0,0,0,0,0,0,-1,965,1758,0,0
-252,-734,6.93439,18.351,0,0,0,0,0,0,0,-1,972,1758,6.93438,-18.3509
-245,-734,6.95746,19.5341,0,0,0,0,0,0,0,-1,979,1758,6.95746,-19.5341
-238,-734,6.216,17.1718,0,0,0,0,0,0,0,-1,986,1758,6.216,-17.1717
-231,-734,7.25604,16.8156,0,0,0,0,0,0,0,-1,993,1758,7.25602,-16.8156
-224,-734,3.8869,32.9818,0,0,0,0,0,0,0,-1,1000,1758,3.88689,-32.9818
-217,-734,4.49084,32.9758,0,0,0,0,0,0,0,-1,1007,1758,4.49084,-32.9758
-210,-734,4.90692,33.2808,0,0,0,0,0,0,0,-1,1014,1758,4.90692,-33.2808
-203,-734,5.19104,33.1826,0,0,0,0,0,0,0,-1,1021,1758,5.19104,-33.1827
-196,-734,5.69165,33.9451,0,0,0,0,0,0,0,-1,1028,1758,5.69166,-33.945
-189,-734,8.22449,30.4427,0,0,0,0,0,0,0,-1,1035,1758,8.22453,-30.4428
-182,-734,8.14197,31.3351,0,0,0,0,0,0,0,-1,1042,1758,8.14194,-31.3351
-175,-734,7.94153,31.2831,0,0,0,0,0,0,0,-1,1049,1758,7.94155,-31.2831
-168,-734,7.67529,33.5055,0,0,0,0,0,0,0,-1,1056,1758,7.67527,-33.5055
-161,-734,7.58398,33.7576,0,0,0,0,0,0,0,-1,1063,1758,7.58397,-33.7575
-154,-734,9.19348,32.4099,0,0,0,0,0,0,0,-1,1070,1758,9.19347,-32.41
-147,-734,8.76331,32.8,0,0,0,0,0,0,0,-1,1077,1758,8.76332,-32.8001
-140,-734,8.09277,33.6272,0,0,0,0,0,0,0,-1,1084,1758,8.0928,-33.6272
-133,-734,8.25635,33.96,-0.00869614,-0.00264272,0.0022456,-0.00190065,-0.00943821,1.25164,0.00576401,0.0469137,1091,1758,8.25633,-33.96
-126,-734,7.98706,34.0427,-0.00798416,0.000907973,0.00150969,0.0011573,-0.00823348,1.40713,0.00591263,0.0398819,1098,1758,7.98707,-34.0428
-119,-734,7.94531,34.5895,0,0,0,0,0,0,0,-1,1105,1758,7.94526,-34.5895
-112,-734,7.94775,34.647,-0.00608653,0.00490395,0.000722615,0.00495126,-0.00613383,1.50542,0.00641211,0.0370917,1112,1758,7.94776,-34.647
-105,-734,7.93286,34.8815,-0.005198,0.00608438,0.000631519,0.00611962,-0.00523324,1.51505,0.00656123,0.0274566,1119,1758,7.93282,-34.8815
-98,-734,7.95496,35.0111,-0.00450281,0.00621826,0.00092105,0.00629682,-0.00458137,1.48572,0.0063065,0.0301877,1126,1758,7.95492,-35.0111
-91,-734,7.93616,35.2086,-0.0037325,0.00621797,0.00119748,0.00636005,-0.00387458,1.4527,0.00596677,0.0410733,1133,1758,7.93615,-35.2086
-84,-734,7.87085,35.4884,0,0,0,0,0,0,0,-1,1140,1758,7.87085,-35.4884
-77,-734,7.83728,35.7151,0,0,0,0,0,0,0,-1,1147,1758,7.83725,-35.7151
-70,-734,7.84717,35.9403,0,0,0,0,0,0,0,-1,1154,1758,7.84716,-35.9404
-63,-734,7.74695,35.8346,-0.00183521,0.00383784,0.00165022,0.00428295,-0.00228032,1.30734,0.00384765,0.03092,1161,1758,7.74689,-35.8346
-56,-734,7.78796,36.1862,-0.00203979,0.00324592,0.00139825,0.00359301,-0.00238689,1.32748,0.00347583,0.0168488,1168,1758,7.78799,-36.1862
-49,-734,7.76001,36.4006,-0.00179436,0.00255539,0.00169007,0.00313487,-0.00237383,1.24049,0.00319055,0.0127958,1175,1758,7.76002,-36.4007
-42,-734,7.74023,36.5466,-0.001534,0.00137904,0.00200226,0.0023985,-0.00255346,1.09985,0.00285948,0.0131287,1182,1758,7.74017,-36.5466
-35,-734,7.74927,36.6462,-0.00121097,0.000141656,0.00203851,0.00161311,-0.00268243,0.945569,0.00250552,0.0135567,1189,1758,7.74926,-36.6462
-28,-734,7.72046,36.7655,-0.000910189,-0.00098863,0.00196083,0.00101181,-0.00291063,0.775398,0.00235141,0.0093508,1196,1758,7.72049,-36.7655
-21,-734,7.72693,36.8976,-0.000735446,-0.00157715,0.00196247,0.000850789,-0.00316338,0.679773,0.00244242,0.0144498,1203,1758,7.72699,-36.8976
-14,-734,7.69495,37.0394,-0.000486258,-0.00212888,0.00202772,0.00088017,-0.00349531,0.592976,0.00267235,0.0153003,1210,1758,7.69489,-37.0395
-7,-734,7.68896,37.1122,-0.000256292,-0.00270638,0.00185871,0.000744767,-0.00370744,0.494031,0.00275366,0.0175228,1217,1758,7.68902,-37.1122
0,-734,7.65894,37.1901,-8.84165e-05,-0.00287073,0.00177125,0.000772678,-0.00373182,0.452508,0.00278145,0.0172938,1224,1758,7.6589,-37.19
7,-734,7.63782,37.2728,-1.48832e-05,-0.00277126,0.00163507,0.000745356,-0.0035315,0.435222,0.00263812,0.0136776,1231,1758,7.63781,-37.2729
14,-734,7.64343,37.3623,0.000243818,-0.00236153,0.00143887,0.000882099,-0.00299982,0.417518,0.00234976,0.0140413,1238,1758,7.64346,-37.3623
21,-734,7.61084,37.4233,0.000617604,-0.0018174,0.00108216,0.00102902,-0.00222882,0.363306,0.00192296,0.011865,1245,1758,7.61089,-37.4233
28,-734,7.6106,37.4728,0.000964836,-0.00126666,0.00061644,0.0011238,-0.00142562,0.252377,0.00147534,0.0119047,1252,1758,7.61061,-37.4727
35,-734,7.63892,37.5289,0.00119825,-0.000506939,0.000108505,0.00120513,-0.000513816,0.0632918,0.00101883,0.014808,1259,1758,7.63886,-37.5289
42,-734,7.64233,37.5457,0.00167703,0.000361006,-0.000682243,0.00196688,7.11596e-05,-0.401738,0.00128819,0.0124391,1266,1758,7.6423,-37.5456
49,-734,7.59802,37.572,0.00244648,0.00187739,-0.00159611,0.00378321,0.000540652,-0.697188,0.00236263,0.010187,1273,1758,7.598,-37.5721
56,-734,7.56946,37.6177,0.00354121,0.0036323,-0.00270283,0.00628997,0.000883541,-0.793823,0.00393203,0.00971559,1280,1758,7.56941,-37.6176
63,-734,7.58154,37.6311,0.00484797,0.0058021,-0.00403112,0.00938429,0.00126578,-0.844297,0.00587986,0.0122639,1287,1758,7.58151,-37.6311
70,-734,7.58142,37.6337,0.0063198,0.00778654,-0.00513414,0.0122394,0.00186691,-0.856339,0.00761399,0.0119594,1294,1758,7.58144,-37.6337
77,-734,7.5946,37.6718,0.00811267,0.00980147,-0.00616385,0.0151785,0.00273565,-0.85347,0.0093416,0.0160958,1301,1758,7.59455,-37.6717
84,-734,7.56799,37.6323,0.00964654,0.0114129,-0.00709142,0.0176759,0.00338353,-0.847351,0.0108337,0.0174176,1308,1758,7.56796,-37.6323
91,-734,7.55786,37.5861,0.011122,0.0129115,-0.00788273,0.0199501,0.0040834,-0.84191,0.0121695,0.0199741,1315,1758,7.5579,-37.5861
98,-734,7.57568,37.541,0.0125514,0.0141518,-0.00846816,0.0218575,0.00484571,-0.832507,0.013255,0.0141808,1322,1758,7.57567,-37.5411
105,-734,7.56824,37.4822,0.0136671,0.0148513,-0.00879195,0.0230711,0.00544734,-0.81902,0.0139247,0.0137784,1329,1758,7.5683,-37.4822
112,-734,7.57153,37.4155,0.0143867,0.0150213,-0.00879536,0.0235051,0.00590291,-0.803429,0.0141199,0.0125148,1336,1758,7.57151,-37.4155
119,-734,7.57471,37.3378,0.0145804,0.014659,-0.00861,0.0232298,0.00600959,-0.787681,0.0139226,0.0137368,1343,1758,7.57473,-37.3378
126,-734,7.57373,37.2719,0.0143456,0.0138182,-0.00805361,0.0221399,0.00602401,-0.769032,0.0132177,0.0155819,1350,1758,7.57371,-37.2719
133,-734,7.54187,37.1866,0.013599,0.0125439,-0.00720121,0.020292,0.00585094,-0.748837,0.0120604,0.013961,1357,1758,7.54182,-37.1867
140,-734,7.51965,37.0902,0.0125059,0.0108312,-0.00625259,0.017977,0.00536013,-0.718831,0.0106571,0.0183849,1364,1758,7.51969,-37.0902
147,-734,7.51538,37.0132,0.0108508,0.00898448,-0.00499948,0.0150035,0.00483183,-0.693132,0.00884326,0.0137639,1371,1758,7.51535,-37.0132
154,-734,7.49402,36.9298,0.00865109,0.00633166,-0.00382567,0.011489,0.00349379,-0.63823,0.00680074,0.0104233,1378,1758,7.49408,-36.9298
161,-734,7.45911,36.8221,0.00596129,0.00384955,-0.00282365,0.00792002,0.00189081,-0.606479,0.00477618,0.00964781,1385,1758,7.45906,-36.8222
168,-734,7.42529,36.699,0.00320754,0.00125128,-0.00164099,0.0041398,0.000319017,-0.51664,0.00265991,0.0148188,1392,1758,7.42534,-36.699
175,-734,7.44263,36.5635,0.000671841,0.00013381,-0.00139648,0.00182498,-0.00101933,-0.690245,0.00166398,0.0175188,1399,1758,7.44264,-36.5635
182,-734,7.46143,36.4111,-0.00227141,-0.000532595,-0.00125638,0.000125861,-0.00292987,-1.08806,0.00199652,0.0153678,1406,1758,7.4614,-36.4111
189,-734,7.40894,36.2582,-0.00235681,0.000152032,-0.00161227,0.000940403,-0.00314518,-1.116,0.00247065,0.0115094,1413,1758,7.40898,-36.2582
196,-734,7.37769,36.1287,-0.00245242,0.00110881,-0.00209181,0.00207524,-0.00341885,-1.138,0.00320348,0.0142542,1420,1758,7.37775,-36.1286
203,-734,7.41528,35.9504,-0.00253135,0.00235376,-0.00239149,0.00332959,-0.00350717,-1.18338,0.00394765,0.0197384,1427,1758,7.4153,-35.9504
210,-734,7.41296,35.7448,-0.0024976,0.00357768,-0.00257906,0.00452486,-0.00344478,-1.21883,0.00461534,0.0282352,1434,1758,7.41299,-35.7448
217,-734,7.35828,35.5112,-0.00245195,0.00411525,-0.00254221,0.00498434,-0.00332104,-1.24139,0.00482706,0.0293229,1441,1758,7.35834,-35.5112
224,-734,7.37769,35.2885,-0.00253796,0.00440628,-0.00254307,0.00523798,-0.00336965,-1.25472,0.00500849,0.0314294,1448,1758,7.37767,-35.2885
231,-734,7.3252,35.1541,-0.00272173,0.00448745,-0.0024005,0.00521362,-0.00344789,-1.27704,0.00503524,0.0266864,1455,1758,7.32525,-35.154
238,-734,7.21362,35.0277,-0.00269287,0.00439947,-0.00219755,0.00502518,-0.00331857,-1.29341,0.00485074,0.0236606,1462,1758,7.21368,-35.0278
245,-734,7.23035,34.7533,-0.00251934,0.00440073,-0.00211549,0.0049962,-0.00311481,-1.29641,0.0047247,0.0284732,1469,1758,7.23032,-34.7533
252,-734,7.21936,34.5043,-0.00274863,0.00463354,-0.00205614,0.0051676,-0.00328269,-1.31667,0.00491907,0.0308603,1476,1758,7.21933,-34.5042
259,-734,7.25684,34.333,-0.0053251,0.00447195,-0.00114275,0.00460348,-0.00545663,-1.4562,0.00581516,0.0389989,1483,1758,7.2568,-34.333
266,-734,7.19702,34.2212,-0.00850973,0.00479937,0.000667699,0.00483279,-0.00854314,1.5208,0.007821,0.047707,1490,1758,7.19706,-34.2212
273,-734,7.34167,34.1188,0,0,0,0,0,0,0,-1,1497,1758,7.34167,-34.1188
280,-734,5.95288,32.8356,0,0,0,0,0,0,0,-1,1504,1758,5.95285,-32.8356
287,-734,6.61206,32.918,0,0,0,0,0,0,0,-1,1511,1758,6.61205,-32.9179
294,-734,7.27124,33.0002,0,0,0,0,0,0,0,-1,1518,1758,7.27125,-33.0003
301,-734,7.6272,33.2617,0,0,0,0,0,0,0,-1,1525,1758,7.62722,-33.2617
308,-734,5.55383,33.1089,0,0,0,0,0,0,0,-1,1532,1758,5.5538,-33.1089
315,-734,4.82104,32.1361,0,0,0,0,0,0,0,-1,1539,1758,4.82107,-32.1361
322,-734,4.52051,30.7097,0,0,0,0,0,0,0,-1,1546,1758,4.52051,-30.7097
329,-734,5.45972,12.4125,0,0,0,0,0,0,0,-1,1553,1758,5.45969,-12.4125
336,-734,5.92188,13.8751,0,0,0,0,0,0,0,-1,1560,1758,5.92183,-13.8751
343,-734,5.54968,5.14221,0,0,0,0,0,0,0,-1,1567,1758,5.54973,-5.14225
350,-734,5.07397,6.73242,0,0,0,0,0,0,0,-1,1574,1758,5.07402,-6.73243
357,-734,5.05542,7.19189,0,0,0,0,0,0,0,-1,1581,1758,5.05541,-7.19184
364,-734,4.43896,10.4904,0,0,0,0,0,0,0,-1,1588,1758,4.43893,-10.4904
371,-734,7.36975,17.4751,0,0,0,0,0,0,0,-1,1595,1758,7.36972,-17.4752
378,-734,0,0,0,0,0,0,0,0,0,-1,1602,1758,0,0
385,-734,0,0,0,0,0,0,0,0,0,-1,1609,1758,0,0
392,-734,0,0,0,0,0,0,0,0,0,-1,1616,1758,0,0
399,-734,0,0,0,0,0,0,0,0,0,-1,1623,1758,0,0
406,-734,0,0,0,0,0,0,0,0,0,-1,1630,1758,0,0
413,-734,0,0,0,0,0,0,0,0,0,-1,1637,1758,0,0
420,-734,0,0,0,0,0,0,0,0,0,-1,1644,1758,0,0
427,-734,0,0,0,0,0,0,0,0,0,-1,1651,1758,0,0
434,-734,0,0,0,0,0,0,0,0,0,-1,1658,1758,0,0
441,-734,0,0,0,0,0,0,0,0,0,-1,1665,1758,0,0
448,-734,0,0,0,0,0,0,0,0,0,-1,1672,1758,0,0
455,-734,0,0,0,0,0,0,0,0,0,-1,1679,1758,0,0
462,-734,0,0,0,0,0,0,0,0,0,-1,1686,1758,0,0
469,-734,0,0,0,0,0,0,0,0,0,-1,1693,1758,0,0
476,-734,0,0,0,0,0,0,0,0,0,-1,1700,1758,0,0
483,-734,0,0,0,0,0,0,0,0,0,-1,1707,1758,0,0
490,-734,0,0,0,0,0,0,0,0,0,-1,1714,1758,0,0
497,-734,0,0,0,0,0,0,0,0,0,-1,1721,1758,0,0
504,-734,0,0,0,0,0,0,0,0,0,-1,1728,1758,0,0
511,-734,0,0,0,0,0,0,0,0,0,-1,1735,1758,0,0
518,-734,0,0,0,0,0,0,0,0,0,-1,1742,1758,0,0
525,-734,0,0,0,0,0,0,0,0,0,-1,1749,1758,0,0
532,-734,0,0,0,0,0,0,0,0,0,-1,1756,1758,0,0
539,-734,0,0,0,0,0,0,0,0,0,-1,1763,1758,0,0
546,-734,0,0,0,0,0,0,0,0,0,-1,1770,1758,0,0
553,-734,0,0,0,0,0,0,0,0,0,-1,1777,1758,0,0
560,-734,0,0,0,0,0,0,0,0,0,-1,1784,1758,0,0
567,-734,0,0,0,0,0,0,0,0,0,-1,1791,1758,0,0
574,-734,0,0,0,0,0,0,0,0,0,-1,1798,1758,0,0
581,-734,0,0,0,0,0,0,0,0,0,-1,1805,1758,0,0
588,-734,0,0,0,0,0,0,0,0,0,-1,1812,1758,0,0
595,-734,0,0,0,0,0,0,0,0,0,-1,1819,1758,0,0
602,-734,0,0,0,0,0,0,0,0,0,-1,1826,1758,0,0
609,-734,0,0,0,0,0,0,0,0,0,-1,1833,1758,0,0
616,-734,0,0,0,0,0,0,0,0,0,-1,1840,1758,0,0
623,-734,0,0,0,0,0,0,0,0,0,-1,1847,1758,0,0
630,-734,0,0,0,0,0,0,0,0,0,-1,1854,1758,0,0
637,-734,0,0,0,0,0,0,0,0,0,-1,1861,1758,0,0
644,-734,0,0,0,0,0,0,0,0,0,-1,1868,1758,0,0
651,-734,0,0,0,0,0,0,0,0,0,-1,1875,1758,0,0
658,-734,0,0,0,0,0,0,0,0,0,-1,1882,1758,0,0
665,-734,0,0,0,0,0,0,0,0,0,-1,1889,1758,0,0
672,-734,0,0,0,0,0,0,0,0,0,-1,1896,1758,0,0
679,-734,0,0,0,0,0,0,0,0,0,-1,1903,1758,0,0
686,-734,0,0,0,0,0,0,0,0,0,-1,1910,1758,0,0
693,-734,0,0,0,0,0,0,0,0,0,-1,1917,1758,0,0
700,-734,0,0,0,0,0,0,0,0,0,-1,1924,1758,0,0
707,-734,0,0,0,0,0,0,0,0,0,-1,1931,1758,0,0
714,-734,0,0,0,0,0,0,0,0,0,-1,1938,1758,0,0
721,-734,0,0,0,0,0,0,0,0,0,-1,1945,1758,0,0
728,-734,0,0,0,0,0,0,0,0,0,-1,1952,1758,0,0
735,-734,0,0,0,0,0,0,0,0,0,-1,1959,1758,0,0
742,-734,0,0,0,0,0,0,0,0,0,-1,1966,1758,0,0
749,-734,0,0,0,0,0,0,0,0,0,-1,1973,1758,0,0
756,-734,0,0,0,0,0,0,0,0,0,-1,1980,1758,0,0
763,-734,0,0,0,0,0,0,0,0,0,-1,1987,1758,0,0
770,-734,0,0,0,0,0,0,0,0,0,-1,1994,1758,0,0
777,-734,0,0,0,0,0,0,0,0,0,-1,2001,1758,0,0
784,-734,0,0,0,0,0,0,0,0,0,-1,2008,1758,0,0
791,-734,0,0,0,0,0,0,0,0,0,-1,2015,1758,0,0
798,-734,0,0,0,0,0,0,0,0,0,-1,2022,1758,0,0
805,-734,0,0,0,0,0,0,0,0,0,-1,2029,1758,0,0
812,-734,0,0,0,0,0,0,0,0,0,-1,2036,1758,0,0
-700,-741,0,0,0,0,0,0,0,0,0,-1,524,1765,0,0
-693,-741,0,0,0,0,0,0,0,0,0,-1,531,1765,0,0
-686,-741,0,0,0,0,0,0,0,0,0,-1,538,1765,0,0
-679,-741,0,0,0,0,0,0,0,0,0,-1,545,1765,0,0
-672,-741,0,0,0,0,0,0,0,0,0,-1,552,1765,0,0
-665,-741,0,0,0,0,0,0,0,0,0,-1,559,1765,0,0
-658,-741,0,0,0,0,0,0,0,0,0,-1,566,1765,0,0
-651,-741,0,0,0,0,0,0,0,0,0,-1,573,1765,0,0
-644,-741,0,0,0,0,0,0,0,0,0,-1,580,1765,0,0
-637,-741,0,0,0,0,0,0,0,0,0,-1,587,1765,0,0
-630,-741,0,0,0,0,0,0,0,0,0,-1,594,1765,0,0
-623,-741,0,0,0,0,0,0,0,0,0,-1,601,1765,0,0
-616,-741,0,0,0,0,0,0,0,0,0,-1,608,1765,0,0
-609,-741,0,0,0,0,0,0,0,0,0,-1,615,1765,0,0
-602,-741,0,0,0,0,0,0,0,0,0,-1,622,1765,0,0
-595,-741,0,0,0,0,0,0,0,0,0,-1,629,1765,0,0
-588,-741,0,0,0,0,0,0,0,0,0,-1,636,1765,0,0
-581,-741,0,0,0,0,0,0,0,0,0,-1,643,1765,0,0
-574,-741,0,0,0,0,0,0,0,0,0,-1,650,1765,0,0
-567,-741,0,0,0,0,0,0,0,0,0,-1,657,1765,0,0
-560,-741,0,0,0,0,0,0,0,0,0,-1,664,1765,0,0
-553,-741,0,0,0,0,0,0,0,0,0,-1,671,1765,0,0
-546,-741,0,0,0,0,0,0,0,0,0,-1,678,1765,0,0
-539,-741,0,0,0,0,0,0,0,0,0,-1,685,1765,0,0
-532,-741,0,0,0,0,0,0,0,0,0,-1,692,1765,0,0
-525,-741,0,0,0,0,0,0,0,0,0,-1,699,1765,0,0
-518,-741,0,0,0,0,0,0,0,0,0,-1,706,1765,0,0
-511,-741,0,0,0,0,0,0,0,0,0,-1,713,1765,0,0
-504,-741,0,0,0,0,0,0,0,0,0,-1,720,1765,0,0
-497,-741,0,0,0,0,0,0,0,0,0,-1,727,1765,0,0
-490,-741,0,0,0,0,0,0,0,0,0,-1,734,1765,0,0
-483,-741,0,0,0,0,0,0,0,0,0,-1,741,1765,0,0
-476,-741,0,0,0,0,0,0,0,0,0,-1,748,1765,0,0
-469,-741,0,0,0,0,0,0,0,0,0,-1,755,1765,0,0
-462,-741,0,0,0,0,0,0,0,0,0,-1,762,1765,0,0
-455,-741,0,0,0,0,0,0,0,0,0,-1,769,1765,0,0
-448,-741,0,0,0,0,0,0,0,0,0,-1,776,1765,0,0
-441,-741,0,0,0,0,0,0,0,0,0,-1,783,1765,0,0
-434,-741,0,0,0,0,0,0,0,0,0,-1,790,1765,0,0
-427,-741,0,0,0,0,0,0,0,0,0,-1,797,1765,0,0
-420,-741,0,0,0,0,0,0,0,0,0,-1,804,1765,0,0
-413,-741,0,0,0,0,0,0,0,0,0,-1,811,1765,0,0
-406,-741,0,0,0,0,0,0,0,0,0,-1,818,1765,0,0
-399,-741,0,0,0,0,0,0,0,0,0,-1,825,1765,0,0
-392,-741,0,0,0,0,0,0,0,0,0,-1,832,1765,0,0
-385,-741,0,0,0,0,0,0,0,0,0,-1,839,1765,0,0
-378,-741,0,0,0,0,0,0,0,0,0,-1,846,1765,0,0
-371,-741,0,0,0,0,0,0,0,0,0,-1,853,1765,0,0
-364,-741,0,0,0,0,0,0,0,0,0,-1,860,1765,0,0
-357,-741,0,0,0,0,0,0,0,0,0,-1,867,1765,0,0
-350,-741,0,0,0,0,0,0,0,0,0,-1,874,1765,0,0
-343,-741,0,0,0,0,0,0,0,0,0,-1,881,1765,0,0
-336,-741,0,0,0,0,0,0,0,0,0,-1,888,1765,0,0
-329,-741,0,0,0,0,0,0,0,0,0,-1,895,1765,0,0
-322,-741,0,0,0,0,0,0,0,0,0,-1,902,1765,0,0
-315,-741,0,0,0,0,0,0,0,0,0,-1,909,1765,0,0
-308,-741,0,0,0,0,0,0,0,0,0,-1,916,1765,0,0
-301,-741,0,0,0,0,0,0,0,0,0,-1,923,1765,0,0
-294,-741,0,0,0,0,0,0,0,0,0,-1,930,1765,0,0
-287,-741,0,0,0,0,0,0,0,0,0,-1,937,1765,0,0
-280,-741,0,0,0,0,0,0,0,0,0,-1,944,1765,0,0
-273,-741,0,0,0,0,0,0,0,0,0,-1,951,1765,0,0
-266,-741,0,0,0,0,0,0,0,0,0,-1,958,1765,0,0
-259,-741,0,0,0,0,0,0,0,0,0,-1,965,1765,0,0
-252,-741,0,0,0,0,0,0,0,0,0,-1,972,1765,0,0
-245,-741,0,0,0,0,0,0,0,0,0,-1,979,1765,0,0
-238,-741,4.71777,14.9655,0,0,0,0,0,0,0,-1,986,1765,4.71776,-14.9654
-231,-741,6.49927,15.5663,0,0,0,0,0,0,0,-1,993,1765,6.49927,-15.5663
-224,-741,6.26501,16.5385,0,0,0,0,0,0,0,-1,1000,1765,6.26501,-16.5384
-217,-741,4.33527,34.0656,0,0,0,0,0,0,0,-1,1007,1765,4.33525,-34.0655
-210,-741,4.74048,34.3195,0,0,0,0,0,0,0,-1,1014,1765,4.7405,-34.3194
-203,-741,4.63757,33.5281,0,0,0,0,0,0,0,-1,1021,1765,4.63754,-33.5281
-196,-741,5.0509,34.1676,0,0,0,0,0,0,0,-1,1028,1765,5.05086,-34.1676
-189,-741,7.14319,22.3441,0,0,0,0,0,0,0,-1,1035,1765,7.1432,-22.3441
-182,-741,7.4458,23.6536,0,0,0,0,0,0,0,-1,1042,1765,7.44582,-23.6536
-175,-741,7.26477,24.616,0,0,0,0,0,0,0,-1,1049,1765,7.26471,-24.616
-168,-741,5.4801,16.3933,0,0,0,0,0,0,0,-1,1056,1765,5.4801,-16.3933
-161,-741,3.73047,14.4974,0,0,0,0,0,0,0,-1,1063,1765,3.73043,-14.4974
-154,-741,2.46143,9.75415,0,0,0,0,0,0,0,-1,1070,1765,2.46145,-9.75416
-147,-741,9.35718,33.0258,0,0,0,0,0,0,0,-1,1077,1765,9.35718,-33.0258
-140,-741,8.56543,32.2886,0,0,0,0,0,0,0,-1,1084,1765,8.56541,-32.2886
-133,-741,8.75037,34.2042,0,0,0,0,0,0,0,-1,1091,1765,8.75034,-34.2042
-126,-741,8.23889,33.9962,0,0,0,0,0,0,0,-1,1098,1765,8.23887,-33.9963
-119,-741,8.17175,34.0013,0,0,0,0,0,0,0,-1,1105,1765,8.17172,-34.0013
-112,-741,8.08765,34.6268,0,0,0,0,0,0,0,-1,1112,1765,8.0877,-34.6269
-105,-741,8.16272,34.8477,0,0,0,0,0,0,0,-1,1119,1765,8.1627,-34.8476
-98,-741,8.19214,34.9526,0,0,0,0,0,0,0,-1,1126,1765,8.19215,-34.9527
-91,-741,8.03906,35.1135,0,0,0,0,0,0,0,-1,1133,1765,8.03912,-35.1136
-84,-741,7.83875,34.3082,0,0,0,0,0,0,0,-1,1140,1765,7.83872,-34.3083
-77,-741,7.73303,34.1174,0,0,0,0,0,0,0,-1,1147,1765,7.73304,-34.1174
-70,-741,7.5437,32.0275,0,0,0,0,0,0,0,-1,1154,1765,7.5437,-32.0275
-63,-741,7.68054,35.4069,0,0,0,0,0,0,0,-1,1161,1765,7.68057,-35.4069
-56,-741,7.97705,36.0867,0,0,0,0,0,0,0,-1,1168,1765,7.97699,-36.0866
-49,-741,7.91956,36.4521,0,0,0,0,0,0,0,-1,1175,1765,7.9195,-36.4522
-42,-741,7.81189,36.5753,0,0,0,0,0,0,0,-1,1182,1765,7.81185,-36.5753
-35,-741,7.84924,36.6378,-0.00182778,-0.00056174,0.00375429,0.00261253,-0.00500205,0.868919,0.00446785,0.0240658,1189,1765,7.84919,-36.6378
-28,-741,7.84656,36.7719,-0.00147557,-0.00210994,0.0036649,0.00188584,-0.00547136,0.742232,0.00441262,0.0142306,1196,1765,7.84659,-36.7718
-21,-741,7.83716,36.901,-0.00123139,-0.00276418,0.00356887,0.00165245,-0.00564802,0.679633,0.00442034,0.016733,1203,1765,7.83717,-36.901
-14,-741,7.79187,37.0189,-0.000942838,-0.00345003,0.00340912,0.00143587,-0.00582874,0.609213,0.00444248,0.0177031,1210,1765,7.7919,-37.0189
-7,-741,7.78186,37.1014,-0.000863773,-0.00381533,0.00299916,0.00100304,-0.00568214,0.556759,0.00416292,0.0155605,1217,1765,7.7818,-37.1014
0,-741,7.75024,37.1713,-0.000998664,-0.00399014,0.0024992,0.000418195,-0.005407,0.515745,0.00375184,0.0156606,1224,1765,7.75022,-37.1713
7,-741,7.72327,37.2443,-0.00107993,-0.00384411,0.00208153,3.65609e-05,-0.00496061,0.492329,0.00331933,0.0181926,1231,1765,7.72332,-37.2442
14,-741,7.70679,37.3364,-0.000673191,-0.00314777,0.00161571,0.000124566,-0.00394553,0.458635,0.00267284,0.0172872,1238,1765,7.70674,-37.3365
21,-741,7.6731,37.3914,-2.59768e-05,-0.0022715,0.000948528,0.000321057,-0.00261853,0.350739,0.00186196,0.0130064,1245,1765,7.67315,-37.3913
28,-741,7.65515,37.4811,0.000698501,-0.00143475,0.000201772,0.000717418,-0.00145366,0.0934801,0.00127727,0.0129924,1252,1765,7.65521,-37.481
35,-741,7.66418,37.511,0.00135027,-0.000436078,-0.000481615,0.00147185,-0.000557651,-0.247264,0.00121071,0.0142117,1259,1765,7.66423,-37.511
42,-741,7.65344,37.5347,0.00245482,0.000686487,-0.00162893,0.00342407,-0.000282766,-0.536753,0.00238257,0.0150739,1266,1765,7.65345,-37.5347
49,-741,7.61389,37.5767,0.00398369,0.00277067,-0.00289599,0.006336,0.000418363,-0.682175,0.00409168,0.0102925,1273,1765,7.61394,-37.5767
56,-741,7.58081,37.6146,0.00619374,0.00528448,-0.00442185,0.0101843,0.00129395,-0.734171,0.00640194,0.0102915,1280,1765,7.58081,-37.6146
63,-741,7.59387,37.6172,0.00878195,0.00844603,-0.00627887,0.0148951,0.00233287,-0.772026,0.00925103,0.0140503,1287,1765,7.59384,-37.6171
70,-741,7.56567,37.6418,0.0116644,0.0114996,-0.00786673,0.0194491,0.0037148,-0.780162,0.0119223,0.0149232,1294,1765,7.56565,-37.6419
77,-741,7.53418,37.6626,0.0150092,0.0147063,-0.00941393,0.0242729,0.00544261,-0.777356,0.0147073,0.0127704,1301,1765,7.53421,-37.6626
84,-741,7.51929,37.6382,0.017947,0.0174333,-0.0108937,0.0285869,0.00679346,-0.773611,0.0172454,0.0161969,1308,1765,7.51935,-37.6381
91,-741,7.51001,37.6107,0.0207714,0.020114,-0.0121986,0.0326457,0.00823966,-0.771929,0.0196032,0.0150766,1315,1765,7.50996,-37.6107
98,-741,7.52307,37.547,0.0234866,0.022331,-0.0132513,0.0361727,0.00964495,-0.763611,0.0216292,0.0113523,1322,1765,7.52302,-37.5469
105,-741,7.53455,37.4766,0.0256973,0.0240017,-0.0138809,0.0387563,0.0109427,-0.754899,0.0230718,0.0106895,1329,1765,7.5345,-37.4765
112,-741,7.54968,37.4087,0.0270904,0.0248735,-0.0141604,0.0401857,0.0117782,-0.74634,0.0238542,0.0111613,1336,1765,7.54971,-37.4086
119,-741,7.5011,37.3201,0.0277427,0.0250055,-0.0141944,0.0406344,0.0121139,-0.737338,0.0240893,0.0144863,1343,1765,7.50115,-37.3201
126,-741,7.47754,37.2363,0.0277194,0.0244029,-0.0136554,0.0398169,0.0123054,-0.724976,0.0235405,0.0193214,1350,1765,7.47753,-37.2363
133,-741,7.45007,37.179,0.0268442,0.0230878,-0.0126654,0.0377699,0.012162,-0.711788,0.0222623,0.0146371,1357,1765,7.45011,-37.1789
140,-741,7.42578,37.0955,0.02543,0.0210855,-0.0115373,0.0349978,0.0115178,-0.692346,0.0205957,0.0110649,1364,1765,7.42581,-37.0955
147,-741,7.41211,37.0093,0.0231097,0.0186917,-0.00968486,0.0308343,0.0109671,-0.673272,0.0180477,0.0104097,1371,1765,7.41207,-37.0092
154,-741,7.39038,36.9279,0.0197939,0.014559,-0.00787361,0.0254737,0.00887919,-0.624928,0.0149304,0.00934069,1378,1765,7.39032,-36.9278
161,-741,7.35217,36.8337,0.0150315,0.0101966,-0.00617567,0.019246,0.00598205,-0.598843,0.0113737,0.0116203,1385,1765,7.35218,-36.8337
168,-741,7.33972,36.7198,0.00964717,0.00511261,-0.0039276,0.0119149,0.00284485,-0.52363,0.00718525,0.0254413,1392,1765,7.33973,-36.7199
175,-741,7.28076,36.5623,0,0,0,0,0,0,0,-1,1399,1765,7.28075,-36.5623
182,-741,7.3147,36.4241,0,0,0,0,0,0,0,-1,1406,1765,7.31476,-36.424
189,-741,7.25024,36.3062,0,0,0,0,0,0,0,-1,1413,1765,7.25023,-36.3062
196,-741,7.22119,36.1515,0,0,0,0,0,0,0,-1,1420,1765,7.22123,-36.1514
203,-741,7.2417,35.9014,0,0,0,0,0,0,0,-1,1427,1765,7.24175,-35.9013
210,-741,7.23438,35.5331,0,0,0,0,0,0,0,-1,1434,1765,7.23441,-35.533
217,-741,7.51587,35.1884,0,0,0,0,0,0,0,-1,1441,1765,7.5159,-35.1884
224,-741,7.45789,34.9882,0,0,0,0,0,0,0,-1,1448,1765,7.45787,-34.9882
231,-741,7.19287,35.0836,0,0,0,0,0,0,0,-1,1455,1765,7.19282,-35.0837
238,-741,6.95557,35.0571,0,0,0,0,0,0,0,-1,1462,1765,6.95558,-35.0572
245,-741,7.00745,34.6553,0,0,0,0,0,0,0,-1,1469,1765,7.00744,-34.6552
252,-741,7.01648,34.3723,0,0,0,0,0,0,0,-1,1476,1765,7.01651,-34.3723
259,-741,7.02405,34.1776,0,0,0,0,0,0,0,-1,1483,1765,7.02406,-34.1776
266,-741,6.92017,34.3926,0,0,0,0,0,0,0,-1,1490,1765,6.92014,-34.3926
273,-741,7.03821,33.8081,0,0,0,0,0,0,0,-1,1497,1765,7.0382,-33.8081
280,-741,16.2363,9.84546,0,0,0,0,0,0,0,-1,1504,1765,16.2363,-9.84547
287,-741,5.92065,32.9744,0,0,0,0,0,0,0,-1,1511,1765,5.9207,-32.9744
294,-741,5.17139,33.598,0,0,0,0,0,0,0,-1,1518,1765,5.17134,-33.5981
301,-741,6.8833,30.6382,0,0,0,0,0,0,0,-1,1525,1765,6.8833,-30.6382
308,-741,8.59521,27.6783,0,0,0,0,0,0,0,-1,1532,1765,8.59526,-27.6784
315,-741,9.70715,6.86963,0,0,0,0,0,0,0,-1,1539,1765,9.70712,-6.86963
322,-741,9.21252,8.54858,0,0,0,0,0,0,0,-1,1546,1765,9.21251,-8.54858
329,-741,8.5603,10.1146,0,0,0,0,0,0,0,-1,1553,1765,8.56033,-10.1146
336,-741,4.74475,14.6453,0,0,0,0,0,0,0,-1,1560,1765,4.7447,-14.6452
343,-741,5.42297,5.93701,0,0,0,0,0,0,0,-1,1567,1765,5.42296,-5.937
350,-741,4.90369,5.44666,0,0,0,0,0,0,0,-1,1574,1765,4.90368,-5.44664
357,-741,4.02063,5.16626,0,0,0,0,0,0,0,-1,1581,1765,4.02058,-5.1662
364,-741,0,0,0,0,0,0,0,0,0,-1,1588,1765,0,0
371,-741,0,0,0,0,0,0,0,0,0,-1,1595,1765,0,0
378,-741,0,0,0,0,0,0,0,0,0,-1,1602,1765,0,0
385,-741,0,0,0,0,0,0,0,0,0,-1,1609,1765,0,0
392,-741,0,0,0,0,0,0,0,0,0,-1,1616,1765,0,0
399,-741,0,0,0,0,0,0,0,0,0,-1,1623,1765,0,0
406,-741,0,0,0,0,0,0,0,0,0,-1,1630,1765,0,0
413,-741,0,0,0,0,0,0,0,0,0,-1,1637,1765,0,0
420,-741,0,0,0,0,0,0,0,0,0,-1,1644,1765,0,0
427,-741,0,0,0,0,0,0,0,0,0,-1,1651,1765,0,0
434,-741,0,0,0,0,0,0,0,0,0,-1,1658,1765,0,0
441,-741,0,0,0,0,0,0,0,0,0,-1,1665,1765,0,0
448,-741,0,0,0,0,0,0,0,0,0,-1,1672,1765,0,0
455,-741,0,0,0,0,0,0,0,0,0,-1,1679,1765,0,0
462,-741,0,0,0,0,0,0,0,0,0,-1,1686,1765,0,0
469,-741,0,0,0,0,0,0,0,0,0,-1,1693,1765,0,0
476,-741,0,0,0,0,0,0,0,0,0,-1,1700,1765,0,0
483,-741,0,0,0,0,0,0,0,0,0,-1,1707,1765,0,0
490,-741,0,0,0,0,0,0,0,0,0,-1,1714,1765,0,0
497,-741,0,0,0,0,0,0,0,0,0,-1,1721,1765,0,0
504,-741,0,0,0,0,0,0,0,0,0,-1,1728,1765,0,0
511,-741,0,0,0,0,0,0,0,0,0,-1,1735,1765,0,0
518,-741,0,0,0,0,0,0,0,0,0,-1,1742,1765,0,0
525,-741,0,0,0,0,0,0,0,0,0,-1,1749,1765,0,0
532,-741,0,0,0,0,0,0,0,0,0,-1,1756,1765,0,0
539,-741,0,0,0,0,0,0,0,0,0,-1,1763,1765,0,0
546,-741,0,0,0,0,0,0,0,0,0,-1,1770,1765,0,0
553,-741,0,0,0,0,0,0,0,0,0,-1,1777,1765,0,0
560,-741,0,0,0,0,0,0,0,0,0,-1,1784,1765,0,0
567,-741,0,0,0,0,0,0,0,0,0,-1,1791,1765,0,0
574,-741,0,0,0,0,0,0,0,0,0,-1,1798,1765,0,0
581,-741,0,0,0,0,0,0,0,0,0,-1,1805,1765,0,0
588,-741,0,0,0,0,0,0,0,0,0,-1,1812,1765,0,0
595,-741,0,0,0,0,0,0,0,0,0,-1,1819,1765,0,0
602,-741,0,0,0,0,0,0,0,0,0,-1,1826,1765,0,0
609,-741,0,0,0,0,0,0,0,0,0,-1,1833,1765,0,0
616,-741,0,0,0,0,0,0,0,0,0,-1,1840,1765,0,0
623,-741,0,0,0,0,0,0,0,0,0,-1,1847,1765,0,0
630,-741,0,0,0,0,0,0,0,0,0,-1,1854,1765,0,0
637,-741,0,0,0,0,0,0,0,0,0,-1,1861,1765,0,0
644,-741,0,0,0,0,0,0,0,0,0,-1,1868,1765,0,0
651,-741,0,0,0,0,0,0,0,0,0,-1,1875,1765,0,0
658,-741,0,0,0,0,0,0,0,0,0,-1,1882,1765,0,0
665,-741,0,0,0,0,0,0,0,0,0,-1,1889,1765,0,0
672,-741,0,0,0,0,0,0,0,0,0,-1,1896,1765,0,0
679,-741,0,0,0,0,0,0,0,0,0,-1,1903,1765,0,0
686,-741,0,0,0,0,0,0,0,0,0,-1,1910,1765,0,0
693,-741,0,0,0,0,0,0,0,0,0,-1,1917,1765,0,0
700,-741,0,0,0,0,0,0,0,0,0,-1,1924,1765,0,0
707,-741,0,0,0,0,0,0,0,0,0,-1,1931,1765,0,0
714,-741,0,0,0,0,0,0,0,0,0,-1,1938,1765,0,0
721,-741,0,0,0,0,0,0,0,0,0,-1,1945,1765,0,0
728,-741,0,0,0,0,0,0,0,0,0,-1,1952,1765,0,0
735,-741,0,0,0,0,0,0,0,0,0,-1,1959,1765,0,0
742,-741,0,0,0,0,0,0,0,0,0,-1,1966,1765,0,0
749,-741,0,0,0,0,0,0,0,0,0,-1,1973,1765,0,0
756,-741,0,0,0,0,0,0,0,0,0,-1,1980,1765,0,0
763,-741,0,0,0,0,0,0,0,0,0,-1,1987,1765,0,0
770,-741,0,0,0,0,0,0,0,0,0,-1,1994,1765,0,0
777,-741,0,0,0,0,0,0,0,0,0,-1,2001,1765,0,0
784,-741,0,0,0,0,0,0,0,0,0,-1,2008,1765,0,0
791,-741,0,0,0,0,0,0,0,0,0,-1,2015,1765,0,0
798,-741,0,0,0,0,0,0,0,0,0,-1,2022,1765,0,0
805,-741,0,0,0,0,0,0,0,0,0,-1,2029,1765,0,0
812,-741,0,0,0,0,0,0,0,0,0,-1,2036,1765,0,0
-700,-748,0,0,0,0,0,0,0,0,0,-1,524,1772,0,0
-693,-748,0,0,0,0,0,0,0,0,0,-1,531,1772,0,0
-686,-748,0,0,0,0,0,0,0,0,0,-1,538,1772,0,0
-679,-748,0,0,0,0,0,0,0,0,0,-1,545,1772,0,0
-672,-748,0,0,0,0,0,0,0,0,0,-1,552,1772,0,0
-665,-748,0,0,0,0,0,0,0,0,0,-1,559,1772,0,0
-658,-748,0,0,0,0,0,0,0,0,0,-1,566,1772,0,0
-651,-748,0,0,0,0,0,0,0,0,0,-1,573,1772,0,0
-644,-748,0,0,0,0,0,0,0,0,0,-1,580,1772,0,0
-637,-748,0,0,0,0,0,0,0,0,0,-1,587,1772,0,0
-630,-748,0,0,0,0,0,0,0,0,0,-1,594,1772,0,0
-623,-748,0,0,0,0,0,0,0,0,0,-1,601,1772,0,0
-616,-748,0,0,0,0,0,0,0,0,0,-1,608,1772,0,0
-609,-748,0,0,0,0,0,0,0,0,0,-1,615,1772,0,0
-602,-748,0,0,0,0,0,0,0,0,0,-1,622,1772,0,0
-595,-748,0,0,0,0,0,0,0,0,0,-1,629,1772,0,0
-588,-748,0,0,0,0,0,0,0,0,0,-1,636,1772,0,0
-581,-748,0,0,0,0,0,0,0,0,0,-1,643,1772,0,0
-574,-748,0,0,0,0,0,0,0,0,0,-1,650,1772,0,0
-567,-748,0,0,0,0,0,0,0,0,0,-1,657,1772,0,0
-560,-748,0,0,0,0,0,0,0,0,0,-1,664,1772,0,0
-553,-748,0,0,0,0,0,0,0,0,0,-1,671,1772,0,0
-546,-748,0,0,0,0,0,0,0,0,0,-1,678,1772,0,0
-539,-748,0,0,0,0,0,0,0,0,0,-1,685,1772,0,0
-532,-748,0,0,0,0,0,0,0,0,0,-1,692,1772,0,0
-525,-748,0,0,0,0,0,0,0,0,0,-1,699,1772,0,0
-518,-748,0,0,0,0,0,0,0,0,0,-1,706,1772,0,0
-511,-748,0,0,0,0,0,0,0,0,0,-1,713,1772,0,0
-504,-748,0,0,0,0,0,0,0,0,0,-1,720,1772,0,0
-497,-748,0,0,0,0,0,0,0,0,0,-1,727,1772,0,0
-490,-748,0,0,0,0,0,0,0,0,0,-1,734,1772,0,0
-483,-748,0,0,0,0,0,0,0,0,0,-1,741,1772,0,0
-476,-748,0,0,0,0,0,0,0,0,0,-1,748,1772,0,0
-469,-748,0,0,0,0,0,0,0,0,0,-1,755,1772,0,0
-462,-748,0,0,0,0,0,0,0,0,0,-1,762,1772,0,0
-455,-748,0,0,0,0,0,0,0,0,0,-1,769,1772,0,0
-448,-748,0,0,0,0,0,0,0,0,0,-1,776,1772,0,0
-441,-748,0,0,0,0,0,0,0,0,0,-1,783,1772,0,0
-434,-748,0,0,0,0,0,0,0,0,0,-1,790,1772,0,0
-427,-748,0,0,0,0,0,0,0,0,0,-1,797,1772,0,0
-420,-748,0,0,0,0,0,0,0,0,0,-1,804,1772,0,0
-413,-748,0,0,0,0,0,0,0,0,0,-1,811,1772,0,0
-406,-748,0,0,0,0,0,0,0,0,0,-1,818,1772,0,0
-399,-748,0,0,0,0,0,0,0,0,0,-1,825,1772,0,0
-392,-748,0,0,0,0,0,0,0,0,0,-1,832,1772,0,0
-385,-748,0,0,0,0,0,0,0,0,0,-1,839,1772,0,0
-378,-748,0,0,0,0,0,0,0,0,0,-1,846,1772,0,0
-371,-748,0,0,0,0,0,0,0,0,0,-1,853,1772,0,0
-364,-748,0,0,0,0,0,0,0,0,0,-1,860,1772,0,0
-357,-748,0,0,0,0,0,0,0,0,0,-1,867,1772,0,0
-350,-748,0,0,0,0,0,0,0,0,0,-1,874,1772,0,0
-343,-748,0,0,0,0,0,0,0,0,0,-1,881,1772,0,0
-336,-748,0,0,0,0,0,0,0,0,0,-1,888,1772,0,0
-329,-748,0,0,0,0,0,0,0,0,0,-1,895,1772,0,0
-322,-748,0,0,0,0,0,0,0,0,0,-1,902,1772,0,0
-315,-748,0,0,0,0,0,0,0,0,0,-1,909,1772,0,0
-308,-748,0,0,0,0,0,0,0,0,0,-1,916,1772,0,0
-301,-748,0,0,0,0,0,0,0,0,0,-1,923,1772,0,0
-294,-748,0,0,0,0,0,0,0,0,0,-1,930,1772,0,0
-287,-748,0,0,0,0,0,0,0,0,0,-1,937,1772,0,0
-280,-748,0,0,0,0,0,0,0,0,0,-1,944,1772,0,0
-273,-748,0,0,0,0,0,0,0,0,0,-1,951,1772,0,0
-266,-748,0,0,0,0,0,0,0,0,0,-1,958,1772,0,0
-259,-748,0,0,0,0,0,0,0,0,0,-1,965,1772,0,0
-252,-748,0,0,0,0,0,0,0,0,0,-1,972,1772,0,0
-245,-748,0,0,0,0,0,0,0,0,0,-1,979,1772,0,0
-238,-748,0,0,0,0,0,0,0,0,0,-1,986,1772,0,0
-231,-748,0,0,0,0,0,0,0,0,0,-1,993,1772,0,0
-224,-748,0,0,0,0,0,0,0,0,0,-1,1000,1772,0,0
-217,-748,6.45807,16.5496,0,0,0,0,0,0,0,-1,1007,1772,6.45805,-16.5495
-210,-748,8.08215,31.9536,0,0,0,0,0,0,0,-1,1014,1772,8.08215,-31.9537
-203,-748,4.06995,33.8441,0,0,0,0,0,0,0,-1,1021,1772,4.0699,-33.8441
-196,-748,5.15344,22.8755,0,0,0,0,0,0,0,-1,1028,1772,5.15342,-22.8754
-189,-748,7.13208,21.4095,0,0,0,0,0,0,0,-1,1035,1772,7.13211,-21.4095
-182,-748,3.94958,20.8662,0,0,0,0,0,0,0,-1,1042,1772,3.94959,-20.8662
-175,-748,3.56726,19.4518,0,0,0,0,0,0,0,-1,1049,1772,3.5673,-19.4518
-168,-748,3.04858,18.0109,0,0,0,0,0,0,0,-1,1056,1772,3.04853,-18.0108
-161,-748,3.50562,13.2729,0,0,0,0,0,0,0,-1,1063,1772,3.5056,-13.2729
-154,-748,-3.38562,10.6989,0,0,0,0,0,0,0,-1,1070,1772,-3.38564,-10.6989
-147,-748,-6.38733,11.0702,0,0,0,0,0,0,0,-1,1077,1772,-6.38731,-11.0702
-140,-748,7.42126,23.8113,0,0,0,0,0,0,0,-1,1084,1772,7.42133,-23.8113
-133,-748,7.44727,22.0308,0,0,0,0,0,0,0,-1,1091,1772,7.44728,-22.0308
-126,-748,5.98035,22.6067,0,0,0,0,0,0,0,-1,1098,1772,5.9803,-22.6067
-119,-748,6.63342,26.309,0,0,0,0,0,0,0,-1,1105,1772,6.6334,-26.3089
-112,-748,6.91333,24.923,0,0,0,0,0,0,0,-1,1112,1772,6.91339,-24.923
-105,-748,6.83313,25.0537,0,0,0,0,0,0,0,-1,1119,1772,6.83311,-25.0537
-98,-748,8.13623,30.8743,0,0,0,0,0,0,0,-1,1126,1772,8.13628,-30.8742
-91,-748,4.85352,15.3033,0,0,0,0,0,0,0,-1,1133,1772,4.85351,-15.3033
-84,-748,-0.192017,7.26196,0,0,0,0,0,0,0,-1,1140,1772,-0.192047,-7.26201
-77,-748,4.42615,13.5537,0,0,0,0,0,0,0,-1,1147,1772,4.4261,-13.5538
-70,-748,4.46191,13.7446,0,0,0,0,0,0,0,-1,1154,1772,4.4619,-13.7446
-63,-748,4.49768,13.9355,0,0,0,0,0,0,0,-1,1161,1772,4.49769,-13.9355
-56,-748,3.05762,7.87817,0,0,0,0,0,0,0,-1,1168,1772,3.05768,-7.87822
-49,-748,3.04102,7.82471,0,0,0,0,0,0,0,-1,1175,1772,3.04096,-7.82468
-42,-748,0.793457,14.9474,0,0,0,0,0,0,0,-1,1182,1772,0.793413,-14.9474
-35,-748,8.00647,36.5739,0,0,0,0,0,0,0,-1,1189,1772,8.00644,-36.5739
-28,-748,7.97815,36.8011,-0.0016371,-0.00352661,0.00606929,0.00356052,-0.00872423,0.708187,0.00729848,0.0497282,1196,1772,7.97811,-36.8012
-21,-748,7.96814,36.9221,-0.00134475,-0.00425522,0.00583071,0.00320958,-0.00880955,0.663106,0.00718593,0.0240135,1203,1772,7.96814,-36.9221
-14,-748,7.9032,36.9829,-0.00103327,-0.00510726,0.00542286,0.00272255,-0.00886308,0.605736,0.00699513,0.0186383,1210,1772,7.90316,-36.9829
-7,-748,7.87,37.0758,-0.000546493,-0.00456043,0.00494118,0.00277975,-0.00788668,0.59249,0.00638922,0.0173275,1217,1772,7.87004,-37.0758
0,-748,7.81897,37.1696,-0.000415158,-0.00452111,0.00404382,0.00206697,-0.00700324,0.550511,0.00548911,0.0163086,1224,1772,7.81896,-37.1695
7,-748,7.80347,37.2167,-0.00011596,-0.00401135,0.00330745,0.00177467,-0.00590198,0.519297,0.00464074,0.0152754,1231,1772,7.80345,-37.2167
14,-748,7.76904,37.3208,0.000973746,-0.00267937,0.00254962,0.00228357,-0.0039892,0.474573,0.00366594,0.0163623,1238,1772,7.76909,-37.3208
21,-748,7.74231,37.3905,0.00242153,-0.00117905,0.00157543,0.00301352,-0.00177105,0.359444,0.00279325,0.0123783,1245,1772,7.74236,-37.3905
28,-748,7.70276,37.4823,0.0040064,0.000186902,0.000581033,0.00409284,0.000100469,0.147674,0.00269569,0.012188,1252,1772,7.70276,-37.4823
35,-748,7.67175,37.5168,0.00543682,0.00146108,-0.00022787,0.00544984,0.00144806,-0.0570661,0.00325958,0.0127523,1259,1772,7.67181,-37.5168
42,-748,7.6521,37.5408,0.00735069,0.00283047,-0.00166734,0.00789915,0.002282,-0.317799,0.00469412,0.0139373,1266,1772,7.65204,-37.5408
49,-748,7.64819,37.5541,0.00966994,0.00539938,-0.00326781,0.0114383,0.00363107,-0.496008,0.006749,0.0107436,1273,1772,7.64818,-37.5541
56,-748,7.60742,37.5868,0.0127801,0.00844392,-0.00516302,0.0162118,0.00501224,-0.586616,0.0095844,0.0108986,1280,1772,7.60748,-37.5868
63,-748,7.60608,37.5819,0.016275,0.0122775,-0.00750079,0.0220388,0.00651369,-0.655188,0.0130738,0.0127704,1287,1772,7.60607,-37.5819
70,-748,7.56775,37.606,0.0200882,0.0160758,-0.0095909,0.0278805,0.00828351,-0.682296,0.0165326,0.0138892,1294,1772,7.56775,-37.606
77,-748,7.54016,37.608,0.0244773,0.020178,-0.0117153,0.0342385,0.0104168,-0.694662,0.0202664,0.0123875,1301,1772,7.54018,-37.6081
84,-748,7.51099,37.5924,0.0284533,0.0238635,-0.0138481,0.0401953,0.0121214,-0.703285,0.0238082,0.0141978,1308,1772,7.51103,-37.5924
91,-748,7.49548,37.5844,0.0323647,0.0276506,-0.0158297,0.0460118,0.0140034,-0.71149,0.0272344,0.0131137,1315,1772,7.49545,-37.5843
98,-748,7.47888,37.5234,0.0361602,0.030839,-0.0176409,0.0513399,0.0156592,-0.710552,0.0303832,0.0118745,1322,1772,7.47882,-37.5234
105,-748,7.47632,37.4595,0.0393921,0.0336801,-0.0188384,0.0555898,0.0174824,-0.710169,0.0328229,0.0123248,1329,1772,7.47633,-37.4594
112,-748,7.47803,37.4185,0.0416567,0.0354972,-0.019627,0.0584441,0.0187098,-0.707576,0.0344628,0.0154742,1336,1772,7.47799,-37.4185
119,-748,7.44324,37.354,0.0431604,0.0363879,-0.0201108,0.0601681,0.0193803,-0.70199,0.0354634,0.014259,1343,1772,7.44318,-37.354
126,-748,7.40735,37.2897,0.0438115,0.0363252,-0.0198407,0.0602591,0.0198777,-0.692163,0.0354556,0.016033,1350,1772,7.40733,-37.2897
133,-748,7.35791,37.215,0.0433249,0.0352791,-0.018967,0.0586909,0.019913,-0.680897,0.0344638,0.00999548,1357,1772,7.35787,-37.2149
140,-748,7.34644,37.1416,0.0421129,0.0334734,-0.0178961,0.0562033,0.0193831,-0.666973,0.0329654,0.0125122,1364,1772,7.34638,-37.1416
147,-748,7.33447,37.0414,0.039557,0.0308932,-0.015551,0.0513682,0.0190821,-0.649561,0.0299822,0.0140571,1371,1772,7.33448,-37.0414
154,-748,7.29004,36.944,0.0352461,0.0251195,-0.0129257,0.0440648,0.0163007,-0.598723,0.0257262,0.0126118,1378,1772,7.29004,-36.944
161,-748,7.25232,36.8611,0.0284364,0.0187964,-0.0104341,0.03511,0.0121228,-0.569026,0.0205917,0.0186747,1385,1772,7.25232,-36.8611
168,-748,7.27502,36.7559,0,0,0,0,0,0,0,-1,1392,1772,7.27497,-36.7559
175,-748,11.6235,16.8242,0,0,0,0,0,0,0,-1,1399,1772,11.6236,-16.8242
182,-748,7.62476,10.3058,0,0,0,0,0,0,0,-1,1406,1772,7.62476,-10.3058
189,-748,6.15857,6.95898,0,0,0,0,0,0,0,-1,1413,1772,6.15862,-6.95896
196,-748,3.9425,8.46021,0,0,0,0,0,0,0,-1,1420,1772,3.9425,-8.46026
203,-748,3.9668,12.9835,0,0,0,0,0,0,0,-1,1427,1772,3.96678,-12.9836
210,-748,4.71472,16.8318,0,0,0,0,0,0,0,-1,1434,1772,4.71471,-16.8317
217,-748,5.38452,21.5551,0,0,0,0,0,0,0,-1,1441,1772,5.38455,-21.555
224,-748,6.14258,25.2345,0,0,0,0,0,0,0,-1,1448,1772,6.14263,-25.2345
231,-748,6.46045,29.7867,0,0,0,0,0,0,0,-1,1455,1772,6.46049,-29.7867
238,-748,7.41565,32.8574,0,0,0,0,0,0,0,-1,1462,1772,7.41562,-32.8574
245,-748,7.84912,32.0914,0,0,0,0,0,0,0,-1,1469,1772,7.84914,-32.0914
252,-748,6.81824,34.2231,0,0,0,0,0,0,0,-1,1476,1772,6.81823,-34.2232
259,-748,7.04028,33.1046,0,0,0,0,0,0,0,-1,1483,1772,7.04023,-33.1046
266,-748,7.0072,32.5728,0,0,0,0,0,0,0,-1,1490,1772,7.00718,-32.5728
273,-748,16.4131,7.57129,0,0,0,0,0,0,0,-1,1497,1772,16.413,-7.57125
280,-748,15.2177,7.24829,0,0,0,0,0,0,0,-1,1504,1772,15.2176,-7.24833
287,-748,14.161,8.32813,0,0,0,0,0,0,0,-1,1511,1772,14.161,-8.32808
294,-748,12.2117,7.453,0,0,0,0,0,0,0,-1,1518,1772,12.2116,-7.45297
301,-748,6.65857,30.0533,0,0,0,0,0,0,0,-1,1525,1772,6.65853,-30.0534
308,-748,9.92456,7.80225,0,0,0,0,0,0,0,-1,1532,1772,9.92453,-7.80224
315,-748,8.91541,8.29773,0,0,0,0,0,0,0,-1,1539,1772,8.91544,-8.29773
322,-748,7.83618,8.87122,0,0,0,0,0,0,0,-1,1546,1772,7.83613,-8.87124
329,-748,3.48315,14.6533,0,0,0,0,0,0,0,-1,1553,1772,3.48316,-14.6534
336,-748,3.76001,15.8163,0,0,0,0,0,0,0,-1,1560,1772,3.75995,-15.8163
343,-748,0,0,0,0,0,0,0,0,0,-1,1567,1772,0,0
350,-748,0,0,0,0,0,0,0,0,0,-1,1574,1772,0,0
357,-748,0,0,0,0,0,0,0,0,0,-1,1581,1772,0,0
364,-748,0,0,0,0,0,0,0,0,0,-1,1588,1772,0,0
371,-748,0,0,0,0,0,0,0,0,0,-1,1595,1772,0,0
378,-748,0,0,0,0,0,0,0,0,0,-1,1602,1772,0,0
385,-748,0,0,0,0,0,0,0,0,0,-1,1609,1772,0,0
392,-748,0,0,0,0,0,0,0,0,0,-1,1616,1772,0,0
399,-748,0,0,0,0,0,0,0,0,0,-1,1623,1772,0,0
406,-748,0,0,0,0,0,0,0,0,0,-1,1630,1772,0,0
413,-748,0,0,0,0,0,0,0,0,0,-1,1637,1772,0,0
420,-748,0,0,0,0,0,0,0,0,0,-1,1644,1772,0,0
427,-748,0,0,0,0,0,0,0,0,0,-1,1651,1772,0,0
434,-748,0,0,0,0,0,0,0,0,0,-1,1658,1772,0,0
441,-748,0,0,0,0,0,0,0,0,0,-1,1665,1772,0,0
448,-748,0,0,0,0,0,0,0,0,0,-1,1672,1772,0,0
455,-748,0,0,0,0,0,0,0,0,0,-1,1679,1772,0,0
462,-748,0,0,0,0,0,0,0,0,0,-1,1686,1772,0,0
469,-748,0,0,0,0,0,0,0,0,0,-1,1693,1772,0,0
476,-748,0,0,0,0,0,0,0,0,0,-1,1700,1772,0,0
483,-748,0,0,0,0,0,0,0,0,0,-1,1707,1772,0,0
490,-748,0,0,0,0,0,0,0,0,0,-1,1714,1772,0,0
497,-748,0,0,0,0,0,0,0,0,0,-1,1721,1772,0,0
504,-748,0,0,0,0,0,0,0,0,0,-1,1728,1772,0,0
511,-748,0,0,0,0,0,0,0,0,0,-1,1735,1772,0,0
518,-748,0,0,0,0,0,0,0,0,0,-1,1742,1772,0,0
525,-748,0,0,0,0,0,0,0,0,0,-1,1749,1772,0,0
532,-748,0,0,0,0,0,0,0,0,0,-1,1756,1772,0,0
539,-748,0,0,0,0,0,0,0,0,0,-1,1763,1772,0,0
546,-748,0,0,0,0,0,0,0,0,0,-1,1770,1772,0,0
553,-748,0,0,0,0,0,0,0,0,0,-1,1777,1772,0,0
560,-748,0,0,0,0,0,0,0,0,0,-1,1784,1772,0,0
567,-748,0,0,0,0,0,0,0,0,0,-1,1791,1772,0,0
574,-748,0,0,0,0,0,0,0,0,0,-1,1798,1772,0,0
581,-748,0,0,0,0,0,0,0,0,0,-1,1805,1772,0,0
588,-748,0,0,0,0,0,0,0,0,0,-1,1812,1772,0,0
595,-748,0,0,0,0,0,0,0,0,0,-1,1819,1772,0,0
602,-748,0,0,0,0,0,0,0,0,0,-1,1826,1772,0,0
609,-748,0,0,0,0,0,0,0,0,0,-1,1833,1772,0,0
616,-748,0,0,0,0,0,0,0,0,0,-1,1840,1772,0,0
623,-748,0,0,0,0,0,0,0,0,0,-1,1847,1772,0,0
630,-748,0,0,0,0,0,0,0,0,0,-1,1854,1772,0,0
637,-748,0,0,0,0,0,0,0,0,0,-1,1861,1772,0,0
644,-748,0,0,0,0,0,0,0,0,0,-1,1868,1772,0,0
651,-748,0,0,0,0,0,0,0,0,0,-1,1875,1772,0,0
658,-748,0,0,0,0,0,0,0,0,0,-1,1882,1772,0,0
665,-748,0,0,0,0,0,0,0,0,0,-1,1889,1772,0,0
672,-748,0,0,0,0,0,0,0,0,0,-1,1896,1772,0,0
679,-748,0,0,0,0,0,0,0,0,0,-1,1903,1772,0,0
686,-748,0,0,0,0,0,0,0,0,0,-1,1910,1772,0,0
693,-748,0,0,0,0,0,0,0,0,0,-1,1917,1772,0,0
700,-748,0,0,0,0,0,0,0,0,0,-1,1924,1772,0,0
707,-748,0,0,0,0,0,0,0,0,0,-1,1931,1772,0,0
714,-748,0,0,0,0,0,0,0,0,0,-1,1938,1772,0,0
721,-748,0,0,0,0,0,0,0,0,0,-1,1945,1772,0,0
728,-748,0,0,0,0,0,0,0,0,0,-1,1952,1772,0,0
735,-748,0,0,0,0,0,0,0,0,0,-1,1959,1772,0,0
742,-748,0,0,0,0,0,0,0,0,0,-1,1966,1772,0,0
749,-748,0,0,0,0,0,0,0,0,0,-1,1973,1772,0,0
756,-748,0,0,0,0,0,0,0,0,0,-1,1980,1772,0,0
763,-748,0,0,0,0,0,0,0,0,0,-1,1987,1772,0,0
770,-748,0,0,0,0,0,0,0,0,0,-1,1994,1772,0,0
777,-748,0,0,0,0,0,0,0,0,0,-1,2001,1772,0,0
784,-748,0,0,0,0,0,0,0,0,0,-1,2008,1772,0,0
791,-748,0,0,0,0,0,0,0,0,0,-1,2015,1772,0,0
798,-748,0,0,0,0,0,0,0,0,0,-1,2022,1772,0,0
805,-748,0,0,0,0,0,0,0,0,0,-1,2029,1772,0,0
812,-748,0,0,0,0,0,0,0,0,0,-1,2036,1772,0,0
-700,-755,0,0,0,0,0,0,0,0,0,-1,524,1779,0,0
-693,-755,0,0,0,0,0,0,0,0,0,-1,531,1779,0,0
-686,-755,0,0,0,0,0,0,0,0,0,-1,538,1779,0,0
-679,-755,0,0,0,0,0,0,0,0,0,-1,545,1779,0,0
-672,-755,0,0,0,0,0,0,0,0,0,-1,552,1779,0,0
-665,-755,0,0,0,0,0,0,0,0,0,-1,559,1779,0,0
-658,-755,0,0,0,0,0,0,0,0,0,-1,566,1779,0,0
-651,-755,0,0,0,0,0,0,0,0,0,-1,573,1779,0,0
-644,-755,0,0,0,0,0,0,0,0,0,-1,580,1779,0,0
-637,-755,0,0,0,0,0,0,0,0,0,-1,587,1779,0,0
-630,-755,0,0,0,0,0,0,0,0,0,-1,594,1779,0,0
-623,-755,0,0,0,0,0,0,0,0,0,-1,601,1779,0,0
-616,-755,0,0,0,0,0,0,0,0,0,-1,608,1779,0,0
-609,-755,0,0,0,0,0,0,0,0,0,-1,615,1779,0,0
-602,-755,0,0,0,0,0,0,0,0,0,-1,622,1779,0,0
-595,-755,0,0,0,0,0,0,0,0,0,-1,629,1779,0,0
-588,-755,0,0,0,0,0,0,0,0,0,-1,636,1779,0,0
-581,-755,0,0,0,0,0,0,0,0,0,-1,643,1779,0,0
-574,-755,0,0,0,0,0,0,0,0,0,-1,650,1779,0,0
-567,-755,0,0,0,0,0,0,0,0,0,-1,657,1779,0,0
-560,-755,0,0,0,0,0,0,0,0,0,-1,664,1779,0,0
-553,-755,0,0,0,0,0,0,0,0,0,-1,671,1779,0,0
-546,-755,0,0,0,0,0,0,0,0,0,-1,678,1779,0,0
-539,-755,0,0,0,0,0,0,0,0,0,-1,685,1779,0,0
-532,-755,0,0,0,0,0,0,0,0,0,-1,692,1779,0,0
-525,-755,0,0,0,0,0,0,0,0,0,-1,699,1779,0,0
-518,-755,0,0,0,0,0,0,0,0,0,-1,706,1779,0,0
-511,-755,0,0,0,0,0,0,0,0,0,-1,713,1779,0,0
-504,-755,0,0,0,0,0,0,0,0,0,-1,720,1779,0,0
-497,-755,0,0,0,0,0,0,0,0,0,-1,727,1779,0,0
-490,-755,0,0,0,0,0,0,0,0,0,-1,734,1779,0,0
-483,-755,0,0,0,0,0,0,0,0,0,-1,741,1779,0,0
-476,-755,0,0,0,0,0,0,0,0,0,-1,748,1779,0,0
-469,-755,0,0,0,0,0,0,0,0,0,-1,755,1779,0,0
-462,-755,0,0,0,0,0,0,0,0,0,-1,762,1779,0,0
-455,-755,0,0,0,0,0,0,0,0,0,-1,769,1779,0,0
-448,-755,0,0,0,0,0,0,0,0,0,-1,776,1779,0,0
-441,-755,0,0,0,0,0,0,0,0,0,-1,783,1779,0,0
-434,-755,0,0,0,0,0,0,0,0,0,-1,790,1779,0,0
-427,-755,0,0,0,0,0,0,0,0,0,-1,797,1779,0,0
-420,-755,0,0,0,0,0,0,0,0,0,-1,804,1779,0,0
-413,-755,0,0,0,0,0,0,0,0,0,-1,811,1779,0,0
-406,-755,0,0,0,0,0,0,0,0,0,-1,818,1779,0,0
-399,-755,0,0,0,0,0,0,0,0,0,-1,825,1779,0,0
-392,-755,0,0,0,0,0,0,0,0,0,-1,832,1779,0,0
-385,-755,0,0,0,0,0,0,0,0,0,-1,839,1779,0,0
-378,-755,0,0,0,0,0,0,0,0,0,-1,846,1779,0,0
-371,-755,0,0,0,0,0,0,0,0,0,-1,853,1779,0,0
-364,-755,0,0,0,0,0,0,0,0,0,-1,860,1779,0,0
-357,-755,0,0,0,0,0,0,0,0,0,-1,867,1779,0,0
-350,-755,0,0,0,0,0,0,0,0,0,-1,874,1779,0,0
-343,-755,0,0,0,0,0,0,0,0,0,-1,881,1779,0,0
-336,-755,0,0,0,0,0,0,0,0,0,-1,888,1779,0,0
-329,-755,0,0,0,0,0,0,0,0,0,-1,895,1779,0,0
-322,-755,0,0,0,0,0,0,0,0,0,-1,902,1779,0,0
-315,-755,0,0,0,0,0,0,0,0,0,-1,909,1779,0,0
-308,-755,0,0,0,0,0,0,0,0,0,-1,916,1779,0,0
-301,-755,0,0,0,0,0,0,0,0,0,-1,923,1779,0,0
-294,-755,0,0,0,0,0,0,0,0,0,-1,930,1779,0,0
-287,-755,0,0,0,0,0,0,0,0,0,-1,937,1779,0,0
-280,-755,0,0,0,0,0,0,0,0,0,-1,944,1779,0,0
-273,-755,0,0,0,0,0,0,0,0,0,-1,951,1779,0,0
-266,-755,0,0,0,0,0,0,0,0,0,-1,958,1779,0,0
-259,-755,0,0,0,0,0,0,0,0,0,-1,965,1779,0,0
-252,-755,0,0,0,0,0,0,0,0,0,-1,972,1779,0,0
-245,-755,0,0,0,0,0,0,0,0,0,-1,979,1779,0,0
-238,-755,0,0,0,0,0,0,0,0,0,-1,986,1779,0,0
-231,-755,0,0,0,0,0,0,0,0,0,-1,993,1779,0,0
-224,-755,0,0,0,0,0,0,0,0,0,-1,1000,1779,0,0
-217,-755,0,0,0,0,0,0,0,0,0,-1,1007,1779,0,0
-210,-755,0,0,0,0,0,0,0,0,0,-1,1014,1779,0,0
-203,-755,5.47998,25.527,0,0,0,0,0,0,0,-1,1021,1779,5.47993,-25.527
-196,-755,5.18445,23.9307,0,0,0,0,0,0,0,-1,1028,1779,5.1844,-23.9306
-189,-755,4.8175,22.4788,0,0,0,0,0,0,0,-1,1035,1779,4.81745,-22.4788
-182,-755,4.021,20.8032,0,0,0,0,0,0,0,-1,1042,1779,4.02094,-20.8032
-175,-755,3.79993,18.8242,0,0,0,0,0,0,0,-1,1049,1779,3.79995,-18.8242
-168,-755,3.14294,16.9865,0,0,0,0,0,0,0,-1,1056,1779,3.14291,-16.9864
-161,-755,-2.85889,11.5868,0,0,0,0,0,0,0,-1,1063,1779,-2.85887,-11.5868
-154,-755,-5.39026,8.51416,0,0,0,0,0,0,0,-1,1070,1779,-5.3903,-8.51417
-147,-755,-6.45593,10.2422,0,0,0,0,0,0,0,-1,1077,1779,-6.45594,-10.2422
-140,-755,1.33521,21.3856,0,0,0,0,0,0,0,-1,1084,1779,1.33522,-21.3857
-133,-755,2.89417,21.0964,0,0,0,0,0,0,0,-1,1091,1779,2.89422,-21.0964
-126,-755,3.26404,20.9304,0,0,0,0,0,0,0,-1,1098,1779,3.26399,-20.9305
-119,-755,5.17761,21.9325,0,0,0,0,0,0,0,-1,1105,1779,5.17761,-21.9325
-112,-755,5.40247,24.5646,0,0,0,0,0,0,0,-1,1112,1779,5.40244,-24.5646
-105,-755,7.01294,20.1539,0,0,0,0,0,0,0,-1,1119,1779,7.01295,-20.154
-98,-755,5.50708,16.9628,0,0,0,0,0,0,0,-1,1126,1779,5.5071,-16.9628
-91,-755,5.51025,12.0438,0,0,0,0,0,0,0,-1,1133,1779,5.51022,-12.0439
-84,-755,0.169312,8.66443,0,0,0,0,0,0,0,-1,1140,1779,0.16932,-8.66446
-77,-755,-0.0491943,6.87439,0,0,0,0,0,0,0,-1,1147,1779,-0.0491385,-6.87443
-70,-755,4.5686,13.2169,0,0,0,0,0,0,0,-1,1154,1779,4.56865,-13.2169
-63,-755,-1.36316,7.3147,0,0,0,0,0,0,0,-1,1161,1779,-1.36312,-7.31473
-56,-755,0.0483398,5.06079,0,0,0,0,0,0,0,-1,1168,1779,0.0483138,-5.06084
-49,-755,-1.32263,5.33716,0,0,0,0,0,0,0,-1,1175,1779,-1.32264,-5.33718
-42,-755,-2.03613,4.01672,0,0,0,0,0,0,0,-1,1182,1779,-2.0361,-4.01671
-35,-755,-2.72498,2.37476,0,0,0,0,0,0,0,-1,1189,1779,-2.72502,-2.37473
-28,-755,7.98572,36.8748,0,0,0,0,0,0,0,-1,1196,1779,7.98577,-36.8748
-21,-755,8.01892,37.0166,0,0,0,0,0,0,0,-1,1203,1779,8.01894,-37.0166
-14,-755,8.03076,36.9835,-0.000678862,-0.0072736,0.0082067,0.00486812,-0.0128206,0.594374,0.010551,0.0394066,1210,1779,8.0308,-36.9835
-7,-755,7.90625,37.059,0.000474349,-0.00519493,0.00737572,0.00554138,-0.010262,0.60194,0.00925875,0.0273492,1217,1779,7.90626,-37.059
0,-755,7.87976,37.1473,0.00110251,-0.00473543,0.00586574,0.00473543,-0.00836835,0.554523,0.00766178,0.0154678,1224,1779,7.87972,-37.1473
7,-755,7.88257,37.2297,0.00207546,-0.00362438,0.00457537,0.00461591,-0.00616483,0.50686,0.00624564,0.0127906,1231,1779,7.88257,-37.2298
14,-755,7.85107,37.3276,0.00415933,-0.00139259,0.00333482,0.00572238,-0.00295563,0.438299,0.00509442,0.0118013,1238,1779,7.85103,-37.3277
21,-755,7.77942,37.4218,0.00671465,0.000940137,0.00191755,0.00729341,0.000361382,0.293126,0.0047464,0.0172105,1245,1779,7.7794,-37.4217
28,-755,7.74475,37.4426,0.00942795,0.00303345,0.000545279,0.00947412,0.00298728,0.0844605,0.00559289,0.0197448,1252,1779,7.74475,-37.4426
35,-755,7.72437,37.5342,0.011738,0.0047258,-0.000503439,0.011774,0.00468984,-0.0713073,0.00684439,0.0197725,1259,1779,7.72431,-37.5342
42,-755,7.68188,37.5526,0.0145228,0.00639888,-0.00232265,0.01514,0.00578172,-0.259715,0.008822,0.0145435,1266,1779,7.68185,-37.5526
49,-755,7.68774,37.5309,0.0177387,0.00949535,-0.00432043,0.0195881,0.0076459,-0.404469,0.0113995,0.00995443,1273,1779,7.6877,-37.5309
56,-755,7.63464,37.5605,0.0218621,0.0131155,-0.00663797,0.0254379,0.00953969,-0.494119,0.0148387,0.0101989,1280,1779,7.6346,-37.5605
63,-755,7.61499,37.5768,0.0264286,0.0176926,-0.00951334,0.0325288,0.0115924,-0.570181,0.019037,0.0109801,1287,1779,7.61498,-37.5768
70,-755,7.60315,37.5891,0.031373,0.0223545,-0.012206,0.0398761,0.0138514,-0.608459,0.0233773,0.0135492,1294,1779,7.60312,-37.5891
77,-755,7.56702,37.5593,0.0370809,0.0275173,-0.0150277,0.0480693,0.016529,-0.631364,0.0282003,0.01189,1301,1779,7.56699,-37.5593
84,-755,7.54822,37.5458,0.0424612,0.0323979,-0.0179619,0.0560829,0.0187762,-0.648834,0.0329634,0.0124672,1308,1779,7.54818,-37.5457
91,-755,7.51294,37.5143,0.0478786,0.0375766,-0.0207899,0.0641461,0.0213091,-0.663961,0.0377236,0.0131763,1315,1779,7.51292,-37.5143
98,-755,7.44312,37.4794,0.0532535,0.0420543,-0.0235001,0.0718119,0.0234959,-0.668439,0.0422781,0.0137339,1322,1779,7.44311,-37.4794
105,-755,7.40344,37.4574,0.0580189,0.0464141,-0.0254465,0.0783161,0.0261168,-0.673303,0.0460441,0.0168906,1329,1779,7.40346,-37.4574
112,-755,7.36584,37.4041,0.0616672,0.0495329,-0.0268852,0.0831613,0.0280388,-0.674423,0.0488546,0.0228577,1336,1779,7.36586,-37.404
119,-755,7.32837,37.3483,0.0644975,0.0514708,-0.0279269,0.0866605,0.0293078,-0.670832,0.0508993,0.0235314,1343,1779,7.32838,-37.3483
126,-755,7.33679,37.3722,0.066268,0.0521969,-0.0280127,0.0881151,0.0303498,-0.662366,0.0516875,0.0274698,1350,1779,7.33683,-37.3722
133,-755,7.25793,37.2922,0.0666184,0.0516125,-0.0273063,0.0874338,0.0307971,-0.651322,0.0512095,0.028326,1357,1779,7.25798,-37.2922
140,-755,7.1615,37.2402,0.0660382,0.0501484,-0.0262616,0.0855303,0.0306563,-0.63851,0.0500364,0.0335767,1364,1779,7.16155,-37.2402
147,-755,7.22034,37.1737,0.0638396,0.0479002,-0.0234713,0.0806574,0.0310824,-0.621731,0.0469738,0.0354558,1371,1779,7.22036,-37.1737
154,-755,7.22168,37.0782,0.0590647,0.0408906,-0.0201201,0.0720546,0.0279007,-0.573289,0.0419521,0.035068,1378,1779,7.22168,-37.0782
161,-755,7.16638,36.9174,0,0,0,0,0,0,0,-1,1385,1779,7.16644,-36.9173
168,-755,3.98181,7.35901,0,0,0,0,0,0,0,-1,1392,1779,3.98184,-7.35904
175,-755,8.17065,1.34363,0,0,0,0,0,0,0,-1,1399,1779,8.1706,-1.34368
182,-755,8.09216,2.96924,0,0,0,0,0,0,0,-1,1406,1779,8.09213,-2.9693
189,-755,8.04419,4.68042,0,0,0,0,0,0,0,-1,1413,1779,8.04419,-4.68046
196,-755,7.74841,7.4541,0,0,0,0,0,0,0,-1,1420,1779,7.74842,-7.45405
203,-755,4.80554,6.88696,0,0,0,0,0,0,0,-1,1427,1779,4.80554,-6.88697
210,-755,25.1694,7.35693,0,0,0,0,0,0,0,-1,1434,1779,25.1694,-7.35688
217,-755,5.01648,16.411,0,0,0,0,0,0,0,-1,1441,1779,5.01646,-16.411
224,-755,5.18103,22.6283,0,0,0,0,0,0,0,-1,1448,1779,5.18101,-22.6283
231,-755,5.7489,30.15,0,0,0,0,0,0,0,-1,1455,1779,5.74885,-30.15
238,-755,6.56323,29.2726,0,0,0,0,0,0,0,-1,1462,1779,6.56327,-29.2726
245,-755,5.76453,29.2085,0,0,0,0,0,0,0,-1,1469,1779,5.76455,-29.2085
252,-755,5.57678,29.0841,0,0,0,0,0,0,0,-1,1476,1779,5.57682,-29.0841
259,-755,5.37292,29.1577,0,0,0,0,0,0,0,-1,1483,1779,5.37293,-29.1577
266,-755,17.255,7.86096,0,0,0,0,0,0,0,-1,1490,1779,17.255,-7.86092
273,-755,15.7932,7.59778,0,0,0,0,0,0,0,-1,1497,1779,15.7932,-7.59777
280,-755,14.6255,7.34802,0,0,0,0,0,0,0,-1,1504,1779,14.6254,-7.34806
287,-755,13.8279,7.83105,0,0,0,0,0,0,0,-1,1511,1779,13.8279,-7.83104
294,-755,12.5695,7.96814,0,0,0,0,0,0,0,-1,1518,1779,12.5694,-7.9682
301,-755,11.2659,8.27087,0,0,0,0,0,0,0,-1,1525,1779,11.2658,-8.27087
308,-755,9.94434,8.55811,0,0,0,0,0,0,0,-1,1532,1779,9.94428,-8.55806
315,-755,8.64502,9.04492,0,0,0,0,0,0,0,-1,1539,1779,8.64497,-9.04488
322,-755,0,0,0,0,0,0,0,0,0,-1,1546,1779,0,0
329,-755,0,0,0,0,0,0,0,0,0,-1,1553,1779,0,0
336,-755,0,0,0,0,0,0,0,0,0,-1,1560,1779,0,0
343,-755,0,0,0,0,0,0,0,0,0,-1,1567,1779,0,0
350,-755,0,0,0,0,0,0,0,0,0,-1,1574,1779,0,0
357,-755,0,0,0,0,0,0,0,0,0,-1,1581,1779,0,0
364,-755,0,0,0,0,0,0,0,0,0,-1,1588,1779,0,0
371,-755,0,0,0,0,0,0,0,0,0,-1,1595,1779,0,0
378,-755,0,0,0,0,0,0,0,0,0,-1,1602,1779,0,0
385,-755,0,0,0,0,0,0,0,0,0,-1,1609,1779,0,0
392,-755,0,0,0,0,0,0,0,0,0,-1,1616,1779,0,0
399,-755,0,0,0,0,0,0,0,0,0,-1,1623,1779,0,0
406,-755,0,0,0,0,0,0,0,0,0,-1,1630,1779,0,0
413,-755,0,0,0,0,0,0,0,0,0,-1,1637,1779,0,0
420,-755,0,0,0,0,0,0,0,0,0,-1,1644,1779,0,0
427,-755,0,0,0,0,0,0,0,0,0,-1,1651,1779,0,0
434,-755,0,0,0,0,0,0,0,0,0,-1,1658,1779,0,0
441,-755,0,0,0,0,0,0,0,0,0,-1,1665,1779,0,0
448,-755,0,0,0,0,0,0,0,0,0,-1,1672,1779,0,0
455,-755,0,0,0,0,0,0,0,0,0,-1,1679,1779,0,0
462,-755,0,0,0,0,0,0,0,0,0,-1,1686,1779,0,0
469,-755,0,0,0,0,0,0,0,0,0,-1,1693,1779,0,0
476,-755,0,0,0,0,0,0,0,0,0,-1,1700,1779,0,0
483,-755,0,0,0,0,0,0,0,0,0,-1,1707,1779,0,0
490,-755,0,0,0,0,0,0,0,0,0,-1,1714,1779,0,0
497,-755,0,0,0,0,0,0,0,0,0,-1,1721,1779,0,0
504,-755,0,0,0,0,0,0,0,0,0,-1,1728,1779,0,0
511,-755,0,0,0,0,0,0,0,0,0,-1,1735,1779,0,0
518,-755,0,0,0,0,0,0,0,0,0,-1,1742,1779,0,0
525,-755,0,0,0,0,0,0,0,0,0,-1,1749,1779,0,0
532,-755,0,0,0,0,0,0,0,0,0,-1,1756,1779,0,0
539,-755,0,0,0,0,0,0,0,0,0,-1,1763,1779,0,0
546,-755,0,0,0,0,0,0,0,0,0,-1,1770,1779,0,0
553,-755,0,0,0,0,0,0,0,0,0,-1,1777,1779,0,0
560,-755,0,0,0,0,0,0,0,0,0,-1,1784,1779,0,0
567,-755,0,0,0,0,0,0,0,0,0,-1,1791,1779,0,0
574,-755,0,0,0,0,0,0,0,0,0,-1,1798,1779,0,0
581,-755,0,0,0,0,0,0,0,0,0,-1,1805,1779,0,0
588,-755,0,0,0,0,0,0,0,0,0,-1,1812,1779,0,0
595,-755,0,0,0,0,0,0,0,0,0,-1,1819,1779,0,0
602,-755,0,0,0,0,0,0,0,0,0,-1,1826,1779,0,0
609,-755,0,0,0,0,0,0,0,0,0,-1,1833,1779,0,0
616,-755,0,0,0,0,0,0,0,0,0,-1,1840,1779,0,0
623,-755,0,0,0,0,0,0,0,0,0,-1,1847,1779,0,0
630,-755,0,0,0,0,0,0,0,0,0,-1,1854,1779,0,0
637,-755,0,0,0,0,0,0,0,0,0,-1,1861,1779,0,0
644,-755,0,0,0,0,0,0,0,0,0,-1,1868,1779,0,0
651,-755,0,0,0,0,0,0,0,0,0,-1,1875,1779,0,0
658,-755,0,0,0,0,0,0,0,0,0,-1,1882,1779,0,0
665,-755,0,0,0,0,0,0,0,0,0,-1,1889,1779,0,0
672,-755,0,0,0,0,0,0,0,0,0,-1,1896,1779,0,0
679,-755,0,0,0,0,0,0,0,0,0,-1,1903,1779,0,0
686,-755,0,0,0,0,0,0,0,0,0,-1,1910,1779,0,0
693,-755,0,0,0,0,0,0,0,0,0,-1,1917,1779,0,0
700,-755,0,0,0,0,0,0,0,0,0,-1,1924,1779,0,0
707,-755,0,0,0,0,0,0,0,0,0,-1,1931,1779,0,0
714,-755,0,0,0,0,0,0,0,0,0,-1,1938,1779,0,0
721,-755,0,0,0,0,0,0,0,0,0,-1,1945,1779,0,0
728,-755,0,0,0,0,0,0,0,0,0,-1,1952,1779,0,0
735,-755,0,0,0,0,0,0,0,0,0,-1,1959,1779,0,0
742,-755,0,0,0,0,0,0,0,0,0,-1,1966,1779,0,0
749,-755,0,0,0,0,0,0,0,0,0,-1,1973,1779,0,0
756,-755,0,0,0,0,0,0,0,0,0,-1,1980,1779,0,0
763,-755,0,0,0,0,0,0,0,0,0,-1,1987,1779,0,0
770,-755,0,0,0,0,0,0,0,0,0,-1,1994,1779,0,0
777,-755,0,0,0,0,0,0,0,0,0,-1,2001,1779,0,0
784,-755,0,0,0,0,0,0,0,0,0,-1,2008,1779,0,0
791,-755,0,0,0,0,0,0,0,0,0,-1,2015,1779,0,0
798,-755,0,0,0,0,0,0,0,0,0,-1,2022,1779,0,0
805,-755,0,0,0,0,0,0,0,0,0,-1,2029,1779,0,0
812,-755,0,0,0,0,0,0,0,0,0,-1,2036,1779,0,0
-700,-762,0,0,0,0,0,0,0,0,0,-1,524,1786,0,0
-693,-762,0,0,0,0,0,0,0,0,0,-1,531,1786,0,0
-686,-762,0,0,0,0,0,0,0,0,0,-1,538,1786,0,0
-679,-762,0,0,0,0,0,0,0,0,0,-1,545,1786,0,0
-672,-762,0,0,0,0,0,0,0,0,0,-1,552,1786,0,0
-665,-762,0,0,0,0,0,0,0,0,0,-1,559,1786,0,0
-658,-762,0,0,0,0,0,0,0,0,0,-1,566,1786,0,0
-651,-762,0,0,0,0,0,0,0,0,0,-1,573,1786,0,0
-644,-762,0,0,0,0,0,0,0,0,0,-1,580,1786,0,0
-637,-762,0,0,0,0,0,0,0,0,0,-1,587,1786,0,0
-630,-762,0,0,0,0,0,0,0,0,0,-1,594,1786,0,0
-623,-762,0,0,0,0,0,0,0,0,0,-1,601,1786,0,0
-616,-762,0,0,0,0,0,0,0,0,0,-1,608,1786,0,0
-609,-762,0,0,0,0,0,0,0,0,0,-1,615,1786,0,0
-602,-762,0,0,0,0,0,0,0,0,0,-1,622,1786,0,0
-595,-762,0,0,0,0,0,0,0,0,0,-1,629,1786,0,0
-588,-762,0,0,0,0,0,0,0,0,0,-1,636,1786,0,0
-581,-762,0,0,0,0,0,0,0,0,0,-1,643,1786,0,0
-574,-762,0,0,0,0,0,0,0,0,0,-1,650,1786,0,0
-567,-762,0,0,0,0,0,0,0,0,0,-1,657,1786,0,0
-560,-762,0,0,0,0,0,0,0,0,0,-1,664,1786,0,0
-553,-762,0,0,0,0,0,0,0,0,0,-1,671,1786,0,0
-546,-762,0,0,0,0,0,0,0,0,0,-1,678,1786,0,0
-539,-762,0,0,0,0,0,0,0,0,0,-1,685,1786,0,0
-532,-762,0,0,0,0,0,0,0,0,0,-1,692,1786,0,0
-525,-762,0,0,0,0,0,0,0,0,0,-1,699,1786,0,0
-518,-762,0,0,0,0,0,0,0,0,0,-1,706,1786,0,0
-511,-762,0,0,0,0,0,0,0,0,0,-1,713,1786,0,0
-504,-762,0,0,0,0,0,0,0,0,0,-1,720,1786,0,0
-497,-762,0,0,0,0,0,0,0,0,0,-1,727,1786,0,0
-490,-762,0,0,0,0,0,0,0,0,0,-1,734,1786,0,0
-483,-762,0,0,0,0,0,0,0,0,0,-1,741,1786,0,0
-476,-762,0,0,0,0,0,0,0,0,0,-1,748,1786,0,0
-469,-762,0,0,0,0,0,0,0,0,0,-1,755,1786,0,0
-462,-762,0,0,0,0,0,0,0,0,0,-1,762,1786,0,0
-455,-762,0,0,0,0,0,0,0,0,0,-1,769,1786,0,0
-448,-762,0,0,0,0,0,0,0,0,0,-1,776,1786,0,0
-441,-762,0,0,0,0,0,0,0,0,0,-1,783,1786,0,0
-434,-762,0,0,0,0,0,0,0,0,0,-1,790,1786,0,0
-427,-762,0,0,0,0,0,0,0,0,0,-1,797,1786,0,0
-420,-762,0,0,0,0,0,0,0,0,0,-1,804,1786,0,0
-413,-762,0,0,0,0,0,0,0,0,0,-1,811,1786,0,0
-406,-762,0,0,0,0,0,0,0,0,0,-1,818,1786,0,0
-399,-762,0,0,0,0,0,0,0,0,0,-1,825,1786,0,0
-392,-762,0,0,0,0,0,0,0,0,0,-1,832,1786,0,0
-385,-762,0,0,0,0,0,0,0,0,0,-1,839,1786,0,0
-378,-762,0,0,0,0,0,0,0,0,0,-1,846,1786,0,0
-371,-762,0,0,0,0,0,0,0,0,0,-1,853,1786,0,0
-364,-762,0,0,0,0,0,0,0,0,0,-1,860,1786,0,0
-357,-762,0,0,0,0,0,0,0,0,0,-1,867,1786,0,0
-350,-762,0,0,0,0,0,0,0,0,0,-1,874,1786,0,0
-343,-762,0,0,0,0,0,0,0,0,0,-1,881,1786,0,0
-336,-762,0,0,0,0,0,0,0,0,0,-1,888,1786,0,0
-329,-762,0,0,0,0,0,0,0,0,0,-1,895,1786,0,0
-322,-762,0,0,0,0,0,0,0,0,0,-1,902,1786,0,0
-315,-762,0,0,0,0,0,0,0,0,0,-1,909,1786,0,0
-308,-762,0,0,0,0,0,0,0,0,0,-1,916,1786,0,0
-301,-762,0,0,0,0,0,0,0,0,0,-1,923,1786,0,0
-294,-762,0,0,0,0,0,0,0,0,0,-1,930,1786,0,0
-287,-762,0,0,0,0,0,0,0,0,0,-1,937,1786,0,0
-280,-762,0,0,0,0,0,0,0,0,0,-1,944,1786,0,0
-273,-762,0,0,0,0,0,0,0,0,0,-1,951,1786,0,0
-266,-762,0,0,0,0,0,0,0,0,0,-1,958,1786,0,0
-259,-762,0,0,0,0,0,0,0,0,0,-1,965,1786,0,0
-252,-762,0,0,0,0,0,0,0,0,0,-1,972,1786,0,0
-245,-762,0,0,0,0,0,0,0,0,0,-1,979,1786,0,0
-238,-762,0,0,0,0,0,0,0,0,0,-1,986,1786,0,0
-231,-762,0,0,0,0,0,0,0,0,0,-1,993,1786,0,0
-224,-762,0,0,0,0,0,0,0,0,0,-1,1000,1786,0,0
-217,-762,0,0,0,0,0,0,0,0,0,-1,1007,1786,0,0
-210,-762,0,0,0,0,0,0,0,0,0,-1,1014,1786,0,0
-203,-762,0,0,0,0,0,0,0,0,0,-1,1021,1786,0,0
-196,-762,0,0,0,0,0,0,0,0,0,-1,1028,1786,0,0
-189,-762,0,0,0,0,0,0,0,0,0,-1,1035,1786,0,0
-182,-762,4.44226,13.2462,0,0,0,0,0,0,0,-1,1042,1786,4.44227,-13.2462
-175,-762,4.3219,18.3975,0,0,0,0,0,0,0,-1,1049,1786,4.32192,-18.3974
-168,-762,-2.08618,13.0768,0,0,0,0,0,0,0,-1,1056,1786,-2.08623,-13.0768
-161,-762,-3.29077,11.9508,0,0,0,0,0,0,0,-1,1063,1786,-3.29076,-11.9508
-154,-762,-4.55823,11.1176,0,0,0,0,0,0,0,-1,1070,1786,-4.55828,-11.1175
-147,-762,-6.52454,9.41418,0,0,0,0,0,0,0,-1,1077,1786,-6.52458,-9.41419
-140,-762,4.99792,5.28589,0,0,0,0,0,0,0,-1,1084,1786,4.99793,-5.28587
-133,-762,0.689819,19.2172,0,0,0,0,0,0,0,-1,1091,1786,0.689867,-19.2171
-126,-762,1.48743,19.9288,0,0,0,0,0,0,0,-1,1098,1786,1.48738,-19.9289
-119,-762,2.65637,20.208,0,0,0,0,0,0,0,-1,1105,1786,2.65632,-20.208
-112,-762,6.84705,25.5554,0,0,0,0,0,0,0,-1,1112,1786,6.84706,-25.5554
-105,-762,5.57947,21.618,0,0,0,0,0,0,0,-1,1119,1786,5.57948,-21.618
-98,-762,5.0636,17.9901,0,0,0,0,0,0,0,-1,1126,1786,5.06361,-17.9901
-91,-762,4.54773,14.3622,0,0,0,0,0,0,0,-1,1133,1786,4.54774,-14.3622
-84,-762,3.96375,10.4547,0,0,0,0,0,0,0,-1,1140,1786,3.96371,-10.4548
-77,-762,0.305054,8.49365,0,0,0,0,0,0,0,-1,1147,1786,0.305008,-8.49362
-70,-762,0.183716,6.74622,0,0,0,0,0,0,0,-1,1154,1786,0.183696,-6.74621
-63,-762,-0.883057,9.08813,0,0,0,0,0,0,0,-1,1161,1786,-0.88311,-9.08808
-56,-762,-0.578979,5.10254,0,0,0,0,0,0,0,-1,1168,1786,-0.578951,-5.10249
-49,-762,-2.04541,3.66321,0,0,0,0,0,0,0,-1,1175,1786,-2.0454,-3.66319
-42,-762,-2.23462,3.474,0,0,0,0,0,0,0,-1,1182,1786,-2.23459,-3.47399
-35,-762,-3.28992,1.68164,0,0,0,0,0,0,0,-1,1189,1786,-3.28998,-1.68164
-28,-762,-3.75378,1.37769,0,0,0,0,0,0,0,-1,1196,1786,-3.75373,-1.37767
-21,-762,8.27515,33.7308,0,0,0,0,0,0,0,-1,1203,1786,8.27517,-33.7308
-14,-762,8.13086,36.998,0,0,0,0,0,0,0,-1,1210,1786,8.13089,-36.998
-7,-762,7.86536,37.0507,0,0,0,0,0,0,0,-1,1217,1786,7.86534,-37.0507
0,-762,7.88477,37.2424,0.00312807,-0.0046912,0.00842767,0.00850881,-0.0100719,0.56822,0.0107402,0.0369287,1224,1786,7.88471,-37.2425
7,-762,7.93884,37.2606,0.00474968,-0.00281662,0.00642078,0.00841896,-0.0064859,0.519176,0.00862941,0.0202487,1231,1786,7.93883,-37.2606
14,-762,7.88013,37.5417,0.00780197,0.000465225,0.00454747,0.00997623,-0.00170904,0.445996,0.00728761,0.033975,1238,1786,7.88018,-37.5418
21,-762,7.92102,37.7389,0.0114319,0.00375523,0.00255936,0.0122069,0.00298019,0.294045,0.0073488,0.0451017,1245,1786,7.921,-37.7388
28,-762,7.6405,37.448,0.0152672,0.00663297,0.000725359,0.0153277,0.00657245,0.0832323,0.00887932,0.0431153,1252,1786,7.64047,-37.4479
35,-762,7.6449,37.5916,0.0185646,0.00873699,-0.000612177,0.0186025,0.008699,-0.0619725,0.0107477,0.0451566,1259,1786,7.64484,-37.5915
42,-762,7.82861,37.5977,0.0223769,0.0106652,-0.00289909,0.0230553,0.00998682,-0.229849,0.0133506,0.0456138,1266,1786,7.82859,-37.5976
49,-762,7.77209,37.5736,0.0267158,0.0142777,-0.00539421,0.0287293,0.0122643,-0.357245,0.0166459,0.0366976,1273,1786,7.77214,-37.5735
56,-762,7.70374,37.5868,0.0321458,0.0184656,-0.00822924,0.0360065,0.0146049,-0.43866,0.0209115,0.0278788,1280,1786,7.70375,-37.5868
63,-762,7.6853,37.6018,0.038182,0.0238178,-0.0117564,0.0447765,0.0172233,-0.511197,0.02608,0.0249996,1287,1786,7.68536,-37.6018
70,-762,7.65845,37.6377,0.0447266,0.0294253,-0.0152038,0.0540963,0.0200557,-0.552294,0.0315785,0.024406,1294,1786,7.6584,-37.6377
77,-762,7.63562,37.5975,0.0522882,0.035797,-0.0188896,0.0646535,0.0234318,-0.579607,0.0377958,0.0317401,1301,1786,7.63564,-37.5976
84,-762,7.68066,37.5699,0.0596641,0.0420998,-0.0228163,0.0753301,0.0264338,-0.601684,0.0441317,0.0376685,1308,1786,7.68066,-37.5699
91,-762,7.64258,37.5781,0.0672147,0.0489986,-0.0266998,0.0863173,0.0298961,-0.621024,0.0506136,0.0465534,1315,1786,7.64253,-37.5782
98,-762,7.44873,37.5812,0.0748068,0.0551155,-0.0305456,0.0970543,0.032868,-0.629492,0.0569985,0.0463241,1322,1786,7.4487,-37.5811
105,-762,7.36768,37.5427,0.0817687,0.0614761,-0.0334275,0.106556,0.036689,-0.638051,0.0625062,0.043599,1329,1786,7.36767,-37.5427
112,-762,7.06787,37.3615,0.0874596,0.0664182,-0.0356974,0.114154,0.0397234,-0.642095,0.0669148,0.046654,1336,1786,7.06789,-37.3615
119,-762,6.87305,37.2291,0,0,0,0,0,0,0,-1,1343,1786,6.87306,-37.2291
126,-762,7.26013,37.4728,0,0,0,0,0,0,0,-1,1350,1786,7.26012,-37.4727
133,-762,7.18005,37.4071,0,0,0,0,0,0,0,-1,1357,1786,7.18003,-37.4071
140,-762,6.98706,37.3229,0,0,0,0,0,0,0,-1,1364,1786,6.987,-37.3228
147,-762,7.0094,37.2717,0,0,0,0,0,0,0,-1,1371,1786,7.00941,-37.2718
154,-762,7.09778,37.2678,0,0,0,0,0,0,0,-1,1378,1786,7.09783,-37.2678
161,-762,8.65051,34.8102,0,0,0,0,0,0,0,-1,1385,1786,8.65054,-34.8101
168,-762,8.19287,0.880615,0,0,0,0,0,0,0,-1,1392,1786,8.19291,-0.880603
175,-762,8.33997,1.95947,0,0,0,0,0,0,0,-1,1399,1786,8.33997,-1.95942
182,-762,8.28418,3.56482,0,0,0,0,0,0,0,-1,1406,1786,8.28415,-3.56485
189,-762,8.21179,5.23389,0,0,0,0,0,0,0,-1,1413,1786,8.21183,-5.23383
196,-762,8.05969,6.95483,0,0,0,0,0,0,0,-1,1420,1786,8.05972,-6.9548
203,-762,24.0077,7.10425,0,0,0,0,0,0,0,-1,1427,1786,24.0077,-7.10426
210,-762,23.8073,7.6499,0,0,0,0,0,0,0,-1,1434,1786,23.8073,-7.64987
217,-762,23.3193,8.24426,0,0,0,0,0,0,0,-1,1441,1786,23.3194,-8.2442
224,-762,2.65149,20.6106,0,0,0,0,0,0,0,-1,1448,1786,2.65153,-20.6106
231,-762,5.46655,23.521,0,0,0,0,0,0,0,-1,1455,1786,5.46653,-23.521
238,-762,5.35632,29.7203,0,0,0,0,0,0,0,-1,1462,1786,5.35629,-29.7203
245,-762,5.84509,28.6954,0,0,0,0,0,0,0,-1,1469,1786,5.84509,-28.6954
252,-762,5.82837,27.7246,0,0,0,0,0,0,0,-1,1476,1786,5.82839,-27.7247
259,-762,10.7311,18.3031,0,0,0,0,0,0,0,-1,1483,1786,10.7311,-18.3031
266,-762,16.451,7.67773,0,0,0,0,0,0,0,-1,1490,1786,16.4511,-7.67773
273,-762,15.287,7.5304,0,0,0,0,0,0,0,-1,1497,1786,15.2869,-7.53044
280,-762,14.1501,7.38379,0,0,0,0,0,0,0,-1,1504,1786,14.1502,-7.38376
287,-762,12.6891,7.99133,0,0,0,0,0,0,0,-1,1511,1786,12.6891,-7.99135
294,-762,12.6959,8.30371,0,0,0,0,0,0,0,-1,1518,1786,12.6959,-8.30368
301,-762,11.4222,8.84143,0,0,0,0,0,0,0,-1,1525,1786,11.4223,-8.84149
308,-762,0,0,0,0,0,0,0,0,0,-1,1532,1786,0,0
315,-762,0,0,0,0,0,0,0,0,0,-1,1539,1786,0,0
322,-762,0,0,0,0,0,0,0,0,0,-1,1546,1786,0,0
329,-762,0,0,0,0,0,0,0,0,0,-1,1553,1786,0,0
336,-762,0,0,0,0,0,0,0,0,0,-1,1560,1786,0,0
343,-762,0,0,0,0,0,0,0,0,0,-1,1567,1786,0,0
350,-762,0,0,0,0,0,0,0,0,0,-1,1574,1786,0,0
357,-762,0,0,0,0,0,0,0,0,0,-1,1581,1786,0,0
364,-762,0,0,0,0,0,0,0,0,0,-1,1588,1786,0,0
371,-762,0,0,0,0,0,0,0,0,0,-1,1595,1786,0,0
378,-762,0,0,0,0,0,0,0,0,0,-1,1602,1786,0,0
385,-762,0,0,0,0,0,0,0,0,0,-1,1609,1786,0,0
392,-762,0,0,0,0,0,0,0,0,0,-1,1616,1786,0,0
399,-762,0,0,0,0,0,0,0,0,0,-1,1623,1786,0,0
406,-762,0,0,0,0,0,0,0,0,0,-1,1630,1786,0,0
413,-762,0,0,0,0,0,0,0,0,0,-1,1637,1786,0,0
420,-762,0,0,0,0,0,0,0,0,0,-1,1644,1786,0,0
427,-762,0,0,0,0,0,0,0,0,0,-1,1651,1786,0,0
434,-762,0,0,0,0,0,0,0,0,0,-1,1658,1786,0,0
441,-762,0,0,0,0,0,0,0,0,0,-1,1665,1786,0,0
448,-762,0,0,0,0,0,0,0,0,0,-1,1672,1786,0,0
455,-762,0,0,0,0,0,0,0,0,0,-1,1679,1786,0,0
462,-762,0,0,0,0,0,0,0,0,0,-1,1686,1786,0,0
469,-762,0,0,0,0,0,0,0,0,0,-1,1693,1786,0,0
476,-762,0,0,0,0,0,0,0,0,0,-1,1700,1786,0,0
483,-762,0,0,0,0,0,0,0,0,0,-1,1707,1786,0,0
490,-762,0,0,0,0,0,0,0,0,0,-1,1714,1786,0,0
497,-762,0,0,0,0,0,0,0,0,0,-1,1721,1786,0,0
504,-762,0,0,0,0,0,0,0,0,0,-1,1728,1786,0,0
511,-762,0,0,0,0,0,0,0,0,0,-1,1735,1786,0,0
518,-762,0,0,0,0,0,0,0,0,0,-1,1742,1786,0,0
525,-762,0,0,0,0,0,0,0,0,0,-1,1749,1786,0,0
532,-762,0,0,0,0,0,0,0,0,0,-1,1756,1786,0,0
539,-762,0,0,0,0,0,0,0,0,0,-1,1763,1786,0,0
546,-762,0,0,0,0,0,0,0,0,0,-1,1770,1786,0,0
553,-762,0,0,0,0,0,0,0,0,0,-1,1777,1786,0,0
560,-762,0,0,0,0,0,0,0,0,0,-1,1784,1786,0,0
567,-762,0,0,0,0,0,0,0,0,0,-1,1791,1786,0,0
574,-762,0,0,0,0,0,0,0,0,0,-1,1798,1786,0,0
581,-762,0,0,0,0,0,0,0,0,0,-1,1805,1786,0,0
588,-762,0,0,0,0,0,0,0,0,0,-1,1812,1786,0,0
595,-762,0,0,0,0,0,0,0,0,0,-1,1819,1786,0,0
602,-762,0,0,0,0,0,0,0,0,0,-1,1826,1786,0,0
609,-762,0,0,0,0,0,0,0,0,0,-1,1833,1786,0,0
616,-762,0,0,0,0,0,0,0,0,0,-1,1840,1786,0,0
623,-762,0,0,0,0,0,0,0,0,0,-1,1847,1786,0,0
630,-762,0,0,0,0,0,0,0,0,0,-1,1854,1786,0,0
637,-762,0,0,0,0,0,0,0,0,0,-1,1861,1786,0,0
644,-762,0,0,0,0,0,0,0,0,0,-1,1868,1786,0,0
651,-762,0,0,0,0,0,0,0,0,0,-1,1875,1786,0,0
658,-762,0,0,0,0,0,0,0,0,0,-1,1882,1786,0,0
665,-762,0,0,0,0,0,0,0,0,0,-1,1889,1786,0,0
672,-762,0,0,0,0,0,0,0,0,0,-1,1896,1786,0,0
679,-762,0,0,0,0,0,0,0,0,0,-1,1903,1786,0,0
686,-762,0,0,0,0,0,0,0,0,0,-1,1910,1786,0,0
693,-762,0,0,0,0,0,0,0,0,0,-1,1917,1786,0,0
700,-762,0,0,0,0,0,0,0,0,0,-1,1924,1786,0,0
707,-762,0,0,0,0,0,0,0,0,0,-1,1931,1786,0,0
714,-762,0,0,0,0,0,0,0,0,0,-1,1938,1786,0,0
721,-762,0,0,0,0,0,0,0,0,0,-1,1945,1786,0,0
728,-762,0,0,0,0,0,0,0,0,0,-1,1952,1786,0,0
735,-762,0,0,0,0,0,0,0,0,0,-1,1959,1786,0,0
742,-762,0,0,0,0,0,0,0,0,0,-1,1966,1786,0,0
749,-762,0,0,0,0,0,0,0,0,0,-1,1973,1786,0,0
756,-762,0,0,0,0,0,0,0,0,0,-1,1980,1786,0,0
763,-762,0,0,0,0,0,0,0,0,0,-1,1987,1786,0,0
770,-762,0,0,0,0,0,0,0,0,0,-1,1994,1786,0,0
777,-762,0,0,0,0,0,0,0,0,0,-1,2001,1786,0,0
784,-762,0,0,0,0,0,0,0,0,0,-1,2008,1786,0,0
791,-762,0,0,0,0,0,0,0,0,0,-1,2015,1786,0,0
798,-762,0,0,0,0,0,0,0,0,0,-1,2022,1786,0,0
805,-762,0,0,0,0,0,0,0,0,0,-1,2029,1786,0,0
812,-762,0,0,0,0,0,0,0,0,0,-1,2036,1786,0,0
-700,-769,0,0,0,0,0,0,0,0,0,-1,524,1793,0,0
-693,-769,0,0,0,0,0,0,0,0,0,-1,531,1793,0,0
-686,-769,0,0,0,0,0,0,0,0,0,-1,538,1793,0,0
-679,-769,0,0,0,0,0,0,0,0,0,-1,545,1793,0,0
-672,-769,0,0,0,0,0,0,0,0,0,-1,552,1793,0,0
-665,-769,0,0,0,0,0,0,0,0,0,-1,559,1793,0,0
-658,-769,0,0,0,0,0,0,0,0,0,-1,566,1793,0,0
-651,-769,0,0,0,0,0,0,0,0,0,-1,573,1793,0,0
-644,-769,0,0,0,0,0,0,0,0,0,-1,580,1793,0,0
-637,-769,0,0,0,0,0,0,0,0,0,-1,587,1793,0,0
-630,-769,0,0,0,0,0,0,0,0,0,-1,594,1793,0,0
-623,-769,0,0,0,0,0,0,0,0,0,-1,601,1793,0,0
-616,-769,0,0,0,0,0,0,0,0,0,-1,608,1793,0,0
-609,-769,0,0,0,0,0,0,0,0,0,-1,615,1793,0,0
-602,-769,0,0,0,0,0,0,0,0,0,-1,622,1793,0,0
-595,-769,0,0,0,0,0,0,0,0,0,-1,629,1793,0,0
-588,-769,0,0,0,0,0,0,0,0,0,-1,636,1793,0,0
-581,-769,0,0,0,0,0,0,0,0,0,-1,643,1793,0,0
-574,-769,0,0,0,0,0,0,0,0,0,-1,650,1793,0,0
-567,-769,0,0,0,0,0,0,0,0,0,-1,657,1793,0,0
-560,-769,0,0,0,0,0,0,0,0,0,-1,664,1793,0,0
-553,-769,0,0,0,0,0,0,0,0,0,-1,671,1793,0,0
-546,-769,0,0,0,0,0,0,0,0,0,-1,678,1793,0,0
-539,-769,0,0,0,0,0,0,0,0,0,-1,685,1793,0,0
-532,-769,0,0,0,0,0,0,0,0,0,-1,692,1793,0,0
-525,-769,0,0,0,0,0,0,0,0,0,-1,699,1793,0,0
-518,-769,0,0,0,0,0,0,0,0,0,-1,706,1793,0,0
-511,-769,0,0,0,0,0,0,0,0,0,-1,713,1793,0,0
-504,-769,0,0,0,0,0,0,0,0,0,-1,720,1793,0,0
-497,-769,0,0,0,0,0,0,0,0,0,-1,727,1793,0,0
-490,-769,0,0,0,0,0,0,0,0,0,-1,734,1793,0,0
-483,-769,0,0,0,0,0,0,0,0,0,-1,741,1793,0,0
-476,-769,0,0,0,0,0,0,0,0,0,-1,748,1793,0,0
-469,-769,0,0,0,0,0,0,0,0,0,-1,755,1793,0,0
-462,-769,0,0,0,0,0,0,0,0,0,-1,762,1793,0,0
-455,-769,0,0,0,0,0,0,0,0,0,-1,769,1793,0,0
-448,-769,0,0,0,0,0,0,0,0,0,-1,776,1793,0,0
-441,-769,0,0,0,0,0,0,0,0,0,-1,783,1793,0,0
-434,-769,0,0,0,0,0,0,0,0,0,-1,790,1793,0,0
-427,-769,0,0,0,0,0,0,0,0,0,-1,797,1793,0,0
-420,-769,0,0,0,0,0,0,0,0,0,-1,804,1793,0,0
-413,-769,0,0,0,0,0,0,0,0,0,-1,811,1793,0,0
-406,-769,0,0,0,0,0,0,0,0,0,-1,818,1793,0,0
-399,-769,0,0,0,0,0,0,0,0,0,-1,825,1793,0,0
-392,-769,0,0,0,0,0,0,0,0,0,-1,832,1793,0,0
-385,-769,0,0,0,0,0,0,0,0,0,-1,839,1793,0,0
-378,-769,0,0,0,0,0,0,0,0,0,-1,846,1793,0,0
-371,-769,0,0,0,0,0,0,0,0,0,-1,853,1793,0,0
-364,-769,0,0,0,0,0,0,0,0,0,-1,860,1793,0,0
-357,-769,0,0,0,0,0,0,0,0,0,-1,867,1793,0,0
-350,-769,0,0,0,0,0,0,0,0,0,-1,874,1793,0,0
-343,-769,0,0,0,0,0,0,0,0,0,-1,881,1793,0,0
-336,-769,0,0,0,0,0,0,0,0,0,-1,888,1793,0,0
-329,-769,0,0,0,0,0,0,0,0,0,-1,895,1793,0,0
-322,-769,0,0,0,0,0,0,0,0,0,-1,902,1793,0,0
-315,-769,0,0,0,0,0,0,0,0,0,-1,909,1793,0,0
-308,-769,0,0,0,0,0,0,0,0,0,-1,916,1793,0,0
-301,-769,0,0,0,0,0,0,0,0,0,-1,923,1793,0,0
-294,-769,0,0,0,0,0,0,0,0,0,-1,930,1793,0,0
-287,-769,0,0,0,0,0,0,0,0,0,-1,937,1793,0,0
-280,-769,0,0,0,0,0,0,0,0,0,-1,944,1793,0,0
-273,-769,0,0,0,0,0,0,0,0,0,-1,951,1793,0,0
-266,-769,0,0,0,0,0,0,0,0,0,-1,958,1793,0,0
-259,-769,0,0,0,0,0,0,0,0,0,-1,965,1793,0,0
-252,-769,0,0,0,0,0,0,0,0,0,-1,972,1793,0,0
-245,-769,0,0,0,0,0,0,0,0,0,-1,979,1793,0,0
-238,-769,0,0,0,0,0,0,0,0,0,-1,986,1793,0,0
-231,-769,0,0,0,0,0,0,0,0,0,-1,993,1793,0,0
-224,-769,0,0,0,0,0,0,0,0,0,-1,1000,1793,0,0
-217,-769,0,0,0,0,0,0,0,0,0,-1,1007,1793,0,0
-210,-769,0,0,0,0,0,0,0,0,0,-1,1014,1793,0,0
-203,-769,0,0,0,0,0,0,0,0,0,-1,1021,1793,0,0
-196,-769,0,0,0,0,0,0,0,0,0,-1,1028,1793,0,0
-189,-769,0,0,0,0,0,0,0,0,0,-1,1035,1793,0,0
-182,-769,0,0,0,0,0,0,0,0,0,-1,1042,1793,0,0
-175,-769,0,0,0,0,0,0,0,0,0,-1,1049,1793,0,0
-168,-769,0,0,0,0,0,0,0,0,0,-1,1056,1793,0,0
-161,-769,-3.61145,12.4761,0,0,0,0,0,0,0,-1,1063,1793,-3.6114,-12.476
-154,-769,-0.813232,5.32874,0,0,0,0,0,0,0,-1,1070,1793,-0.813269,-5.32872
-147,-769,4.26587,4.7002,0,0,0,0,0,0,0,-1,1077,1793,4.26593,-4.70022
-140,-769,4.10376,5.28589,0,0,0,0,0,0,0,-1,1084,1793,4.10371,-5.28584
-133,-769,6.422,8.21777,0,0,0,0,0,0,0,-1,1091,1793,6.42198,-8.21773
-126,-769,-0.352295,19.326,0,0,0,0,0,0,0,-1,1098,1793,-0.352235,-19.326
-119,-769,6.01685,16.2577,0,0,0,0,0,0,0,-1,1105,1793,6.01689,-16.2576
-112,-769,5.76416,27.2615,0,0,0,0,0,0,0,-1,1112,1793,5.7642,-27.2615
-105,-769,4.97009,22.8479,0,0,0,0,0,0,0,-1,1119,1793,4.97006,-22.8479
-98,-769,4.69373,18.9142,0,0,0,0,0,0,0,-1,1126,1793,4.69376,-18.9142
-91,-769,4.41748,14.9805,0,0,0,0,0,0,0,-1,1133,1793,4.41746,-14.9805
-84,-769,3.2207,12.4565,0,0,0,0,0,0,0,-1,1140,1793,3.22066,-12.4565
-77,-769,2.48816,8.98486,0,0,0,0,0,0,0,-1,1147,1793,2.48815,-8.98489
-70,-769,1.04944,11.9852,0,0,0,0,0,0,0,-1,1154,1793,1.04947,-11.9852
-63,-769,-2.39709,9.60339,0,0,0,0,0,0,0,-1,1161,1793,-2.39706,-9.6034
-56,-769,-5.84363,7.22156,0,0,0,0,0,0,0,-1,1168,1793,-5.84359,-7.22157
-49,-769,-2.41443,3.95471,0,0,0,0,0,0,0,-1,1175,1793,-2.41446,-3.95471
-42,-769,-3.1991,2.64941,0,0,0,0,0,0,0,-1,1182,1793,-3.19914,-2.64944
-35,-769,-3.50183,1.73389,0,0,0,0,0,0,0,-1,1189,1793,-3.50189,-1.7339
-28,-769,-3.96985,1.14075,0,0,0,0,0,0,0,-1,1196,1793,-3.96985,-1.14078
-21,-769,7.97278,33.8591,0,0,0,0,0,0,0,-1,1203,1793,7.97275,-33.8592
-14,-769,7.47253,36.8923,0,0,0,0,0,0,0,-1,1210,1793,7.47258,-36.8923
-7,-769,7.44836,36.7139,0,0,0,0,0,0,0,-1,1217,1793,7.44837,-36.7139
0,-769,7.62085,37.1584,0.0064427,-0.00350306,0.0117765,0.0142532,-0.0113136,0.58562,0.0147935,0.0468435,1224,1793,7.62089,-37.1584
7,-769,7.77783,37.5245,0.00906166,-0.000601846,0.00879703,0.0142665,-0.0058067,0.534265,0.0119274,0.0439748,1231,1793,7.77787,-37.5246
14,-769,7.93469,37.9554,0.0133354,0.00392891,0.00609043,0.0163272,0.000937096,0.456609,0.0105863,0.0431799,1238,1793,7.93473,-37.9554
21,-769,8.17395,38.5463,0.0182626,0.00831006,0.0034185,0.0193236,0.00724899,0.30096,0.0112719,0.0440936,1245,1793,8.17391,-38.5463
28,-769,7.49133,37.382,0,0,0,0,0,0,0,-1,1252,1793,7.49133,-37.382
35,-769,8.03381,37.6597,0,0,0,0,0,0,0,-1,1259,1793,8.03387,-37.6596
42,-769,7.98376,37.6707,0.0330182,0.0166678,-0.00332383,0.033668,0.0160179,-0.193081,0.0194459,0.0460835,1266,1793,7.98371,-37.6707
49,-769,8.05225,37.3989,0.038681,0.0205866,-0.00628986,0.0406526,0.018615,-0.303758,0.0234985,0.0448441,1273,1793,8.05227,-37.399
56,-769,7.80957,37.4723,0.045581,0.0251229,-0.00960919,0.0493866,0.0213173,-0.377081,0.028602,0.0441573,1280,1793,7.80956,-37.4723
63,-769,7.59583,37.428,0.0533095,0.0310398,-0.0137646,0.0598791,0.0244702,-0.445311,0.034763,0.0436965,1287,1793,7.59584,-37.428
70,-769,7.78455,37.6255,0.0617046,0.0374522,-0.0180273,0.0713046,0.0278522,-0.489329,0.0414949,0.0444354,1294,1793,7.78457,-37.6255
77,-769,7.86536,37.6821,0.0713946,0.0449722,-0.0226813,0.0844318,0.031935,-0.521683,0.0492262,0.047661,1301,1793,7.86541,-37.6821
84,-769,7.56763,37.3024,0.0811197,0.0527625,-0.0277446,0.0980987,0.0357835,-0.549178,0.0573237,0.0437531,1308,1793,7.56763,-37.3024
91,-769,7.50488,36.8481,0.091209,0.0615718,-0.0328808,0.112456,0.0403247,-0.57369,0.0657865,0.0427794,1315,1793,7.50483,-36.8482
98,-769,7.97925,36.3793,0.10145,0.0695877,-0.0381239,0.126837,0.0442002,-0.587487,0.074342,0.04732,1322,1793,7.97919,-36.3792
105,-769,8.99451,36.1477,0.111127,0.078472,-0.0422172,0.140064,0.049535,-0.600883,0.0820124,0.0431225,1329,1793,8.99455,-36.1477
112,-769,10.4758,36.2267,0.119466,0.0858725,-0.0456082,0.151272,0.0540665,-0.608962,0.088513,0.0460053,1336,1793,10.4758,-36.2267
119,-769,11.5996,36.3833,0,0,0,0,0,0,0,-1,1343,1793,11.5996,-36.3833
126,-769,13.4028,36.27,0,0,0,0,0,0,0,-1,1350,1793,13.4028,-36.27
133,-769,7.05908,36.7024,0,0,0,0,0,0,0,-1,1357,1793,7.05902,-36.7024
140,-769,6.88428,37.3943,0,0,0,0,0,0,0,-1,1364,1793,6.88431,-37.3943
147,-769,6.92297,36.667,0,0,0,0,0,0,0,-1,1371,1793,6.923,-36.667
154,-769,7.76904,34.4832,0,0,0,0,0,0,0,-1,1378,1793,7.7691,-34.4832
161,-769,6.57019,1.53223,0,0,0,0,0,0,0,-1,1385,1793,6.57019,-1.53226
168,-769,8.27637,0.756958,0,0,0,0,0,0,0,-1,1392,1793,8.27639,-0.756944
175,-769,8.47144,2.41174,0,0,0,0,0,0,0,-1,1399,1793,8.47147,-2.4118
182,-769,8.41479,4.05994,0,0,0,0,0,0,0,-1,1406,1793,8.41479,-4.05997
189,-769,8.25049,5.68433,0,0,0,0,0,0,0,-1,1413,1793,8.25054,-5.68428
196,-769,7.97729,7.42847,0,0,0,0,0,0,0,-1,1420,1793,7.9773,-7.42848
203,-769,22.0977,6.73889,0,0,0,0,0,0,0,-1,1427,1793,22.0977,-6.7389
210,-769,22.1115,7.77246,0,0,0,0,0,0,0,-1,1434,1793,22.1115,-7.77248
217,-769,22.4723,8.79102,0,0,0,0,0,0,0,-1,1441,1793,22.4723,-8.79099
224,-769,22.1348,9.35278,0,0,0,0,0,0,0,-1,1448,1793,22.1348,-9.35283
231,-769,3.13318,19.7184,0,0,0,0,0,0,0,-1,1455,1793,3.13323,-19.7184
238,-769,5.74512,18.6597,0,0,0,0,0,0,0,-1,1462,1793,5.74512,-18.6596
245,-769,5.80798,22.87,0,0,0,0,0,0,0,-1,1469,1793,5.80796,-22.87
252,-769,8.39099,20.3199,0,0,0,0,0,0,0,-1,1476,1793,8.39098,-20.3199
259,-769,10.974,17.7698,0,0,0,0,0,0,0,-1,1483,1793,10.974,-17.7698
266,-769,15.8488,7.3905,0,0,0,0,0,0,0,-1,1490,1793,15.8488,-7.39046
273,-769,14.8075,7.56152,0,0,0,0,0,0,0,-1,1497,1793,14.8075,-7.56152
280,-769,13.6519,7.43054,0,0,0,0,0,0,0,-1,1504,1793,13.6518,-7.43058
287,-769,0,0,0,0,0,0,0,0,0,-1,1511,1793,0,0
294,-769,0,0,0,0,0,0,0,0,0,-1,1518,1793,0,0
301,-769,0,0,0,0,0,0,0,0,0,-1,1525,1793,0,0
308,-769,0,0,0,0,0,0,0,0,0,-1,1532,1793,0,0
315,-769,0,0,0,0,0,0,0,0,0,-1,1539,1793,0,0
322,-769,0,0,0,0,0,0,0,0,0,-1,1546,1793,0,0
329,-769,0,0,0,0,0,0,0,0,0,-1,1553,1793,0,0
336,-769,0,0,0,0,0,0,0,0,0,-1,1560,1793,0,0
343,-769,0,0,0,0,0,0,0,0,0,-1,1567,1793,0,0
350,-769,0,0,0,0,0,0,0,0,0,-1,1574,1793,0,0
357,-769,0,0,0,0,0,0,0,0,0,-1,1581,1793,0,0
364,-769,0,0,0,0,0,0,0,0,0,-1,1588,1793,0,0
371,-769,0,0,0,0,0,0,0,0,0,-1,1595,1793,0,0
378,-769,0,0,0,0,0,0,0,0,0,-1,1602,1793,0,0
385,-769,0,0,0,0,0,0,0,0,0,-1,1609,1793,0,0
392,-769,0,0,0,0,0,0,0,0,0,-1,1616,1793,0,0
399,-769,0,0,0,0,0,0,0,0,0,-1,1623,1793,0,0
406,-769,0,0,0,0,0,0,0,0,0,-1,1630,1793,0,0
413,-769,0,0,0,0,0,0,0,0,0,-1,1637,1793,0,0
420,-769,0,0,0,0,0,0,0,0,0,-1,1644,1793,0,0
427,-769,0,0,0,0,0,0,0,0,0,-1,1651,1793,0,0
434,-769,0,0,0,0,0,0,0,0,0,-1,1658,1793,0,0
441,-769,0,0,0,0,0,0,0,0,0,-1,1665,1793,0,0
448,-769,0,0,0,0,0,0,0,0,0,-1,1672,1793,0,0
455,-769,0,0,0,0,0,0,0,0,0,-1,1679,1793,0,0
462,-769,0,0,0,0,0,0,0,0,0,-1,1686,1793,0,0
469,-769,0,0,0,0,0,0,0,0,0,-1,1693,1793,0,0
476,-769,0,0,0,0,0,0,0,0,0,-1,1700,1793,0,0
483,-769,0,0,0,0,0,0,0,0,0,-1,1707,1793,0,0
490,-769,0,0,0,0,0,0,0,0,0,-1,1714,1793,0,0
497,-769,0,0,0,0,0,0,0,0,0,-1,1721,1793,0,0
504,-769,0,0,0,0,0,0,0,0,0,-1,1728,1793,0,0
511,-769,0,0,0,0,0,0,0,0,0,-1,1735,1793,0,0
518,-769,0,0,0,0,0,0,0,0,0,-1,1742,1793,0,0
525,-769,0,0,0,0,0,0,0,0,0,-1,1749,1793,0,0
532,-769,0,0,0,0,0,0,0,0,0,-1,1756,1793,0,0
539,-769,0,0,0,0,0,0,0,0,0,-1,1763,1793,0,0
546,-769,0,0,0,0,0,0,0,0,0,-1,1770,1793,0,0
553,-769,0,0,0,0,0,0,0,0,0,-1,1777,1793,0,0
560,-769,0,0,0,0,0,0,0,0,0,-1,1784,1793,0,0
567,-769,0,0,0,0,0,0,0,0,0,-1,1791,1793,0,0
574,-769,0,0,0,0,0,0,0,0,0,-1,1798,1793,0,0
581,-769,0,0,0,0,0,0,0,0,0,-1,1805,1793,0,0
588,-769,0,0,0,0,0,0,0,0,0,-1,1812,1793,0,0
595,-769,0,0,0,0,0,0,0,0,0,-1,1819,1793,0,0
602,-769,0,0,0,0,0,0,0,0,0,-1,1826,1793,0,0
609,-769,0,0,0,0,0,0,0,0,0,-1,1833,1793,0,0
616,-769,0,0,0,0,0,0,0,0,0,-1,1840,1793,0,0
623,-769,0,0,0,0,0,0,0,0,0,-1,1847,1793,0,0
630,-769,0,0,0,0,0,0,0,0,0,-1,1854,1793,0,0
637,-769,0,0,0,0,0,0,0,0,0,-1,1861,1793,0,0
644,-769,0,0,0,0,0,0,0,0,0,-1,1868,1793,0,0
651,-769,0,0,0,0,0,0,0,0,0,-1,1875,1793,0,0
658,-769,0,0,0,0,0,0,0,0,0,-1,1882,1793,0,0
665,-769,0,0,0,0,0,0,0,0,0,-1,1889,1793,0,0
672,-769,0,0,0,0,0,0,0,0,0,-1,1896,1793,0,0
679,-769,0,0,0,0,0,0,0,0,0,-1,1903,1793,0,0
686,-769,0,0,0,0,0,0,0,0,0,-1,1910,1793,0,0
693,-769,0,0,0,0,0,0,0,0,0,-1,1917,1793,0,0
700,-769,0,0,0,0,0,0,0,0,0,-1,1924,1793,0,0
707,-769,0,0,0,0,0,0,0,0,0,-1,1931,1793,0,0
714,-769,0,0,0,0,0,0,0,0,0,-1,1938,1793,0,0
721,-769,0,0,0,0,0,0,0,0,0,-1,1945,1793,0,0
728,-769,0,0,0,0,0,0,0,0,0,-1,1952,1793,0,0
735,-769,0,0,0,0,0,0,0,0,0,-1,1959,1793,0,0
742,-769,0,0,0,0,0,0,0,0,0,-1,1966,1793,0,0
749,-769,0,0,0,0,0,0,0,0,0,-1,1973,1793,0,0
756,-769,0,0,0,0,0,0,0,0,0,-1,1980,1793,0,0
763,-769,0,0,0,0,0,0,0,0,0,-1,1987,1793,0,0
770,-769,0,0,0,0,0,0,0,0,0,-1,1994,1793,0,0
777,-769,0,0,0,0,0,0,0,0,0,-1,2001,1793,0,0
784,-769,0,0,0,0,0,0,0,0,0,-1,2008,1793,0,0
791,-769,0,0,0,0,0,0,0,0,0,-1,2015,1793,0,0
798,-769,0,0,0,0,0,0,0,0,0,-1,2022,1793,0,0
805,-769,0,0,0,0,0,0,0,0,0,-1,2029,1793,0,0
812,-769,0,0,0,0,0,0,0,0,0,-1,2036,1793,0,0
-700,-776,0,0,0,0,0,0,0,0,0,-1,524,1800,0,0
-693,-776,0,0,0,0,0,0,0,0,0,-1,531,1800,0,0
-686,-776,0,0,0,0,0,0,0,0,0,-1,538,1800,0,0
-679,-776,0,0,0,0,0,0,0,0,0,-1,545,1800,0,0
-672,-776,0,0,0,0,0,0,0,0,0,-1,552,1800,0,0
-665,-776,0,0,0,0,0,0,0,0,0,-1,559,1800,0,0
-658,-776,0,0,0,0,0,0,0,0,0,-1,566,1800,0,0
-651,-776,0,0,0,0,0,0,0,0,0,-1,573,1800,0,0
-644,-776,0,0,0,0,0,0,0,0,0,-1,580,1800,0,0
-637,-776,0,0,0,0,0,0,0,0,0,-1,587,1800,0,0
-630,-776,0,0,0,0,0,0,0,0,0,-1,594,1800,0,0
-623,-776,0,0,0,0,0,0,0,0,0,-1,601,1800,0,0
-616,-776,0,0,0,0,0,0,0,0,0,-1,608,1800,0,0
-609,-776,0,0,0,0,0,0,0,0,0,-1,615,1800,0,0
-602,-776,0,0,0,0,0,0,0,0,0,-1,622,1800,0,0
-595,-776,0,0,0,0,0,0,0,0,0,-1,629,1800,0,0
-588,-776,0,0,0,0,0,0,0,0,0,-1,636,1800,0,0
-581,-776,0,0,0,0,0,0,0,0,0,-1,643,1800,0,0
-574,-776,0,0,0,0,0,0,0,0,0,-1,650,1800,0,0
-567,-776,0,0,0,0,0,0,0,0,0,-1,657,1800,0,0
-560,-776,0,0,0,0,0,0,0,0,0,-1,664,1800,0,0
-553,-776,0,0,0,0,0,0,0,0,0,-1,671,1800,0,0
-546,-776,0,0,0,0,0,0,0,0,0,-1,678,1800,0,0
-539,-776,0,0,0,0,0,0,0,0,0,-1,685,1800,0,0
-532,-776,0,0,0,0,0,0,0,0,0,-1,692,1800,0,0
-525,-776,0,0,0,0,0,0,0,0,0,-1,699,1800,0,0
-518,-776,0,0,0,0,0,0,0,0,0,-1,706,1800,0,0
-511,-776,0,0,0,0,0,0,0,0,0,-1,713,1800,0,0
-504,-776,0,0,0,0,0,0,0,0,0,-1,720,1800,0,0
-497,-776,0,0,0,0,0,0,0,0,0,-1,727,1800,0,0
-490,-776,0,0,0,0,0,0,0,0,0,-1,734,1800,0,0
-483,-776,0,0,0,0,0,0,0,0,0,-1,741,1800,0,0
-476,-776,0,0,0,0,0,0,0,0,0,-1,748,1800,0,0
-469,-776,0,0,0,0,0,0,0,0,0,-1,755,1800,0,0
-462,-776,0,0,0,0,0,0,0,0,0,-1,762,1800,0,0
-455,-776,0,0,0,0,0,0,0,0,0,-1,769,1800,0,0
-448,-776,0,0,0,0,0,0,0,0,0,-1,776,1800,0,0
-441,-776,0,0,0,0,0,0,0,0,0,-1,783,1800,0,0
-434,-776,0,0,0,0,0,0,0,0,0,-1,790,1800,0,0
-427,-776,0,0,0,0,0,0,0,0,0,-1,797,1800,0,0
-420,-776,0,0,0,0,0,0,0,0,0,-1,804,1800,0,0
-413,-776,0,0,0,0,0,0,0,0,0,-1,811,1800,0,0
-406,-776,0,0,0,0,0,0,0,0,0,-1,818,1800,0,0
-399,-776,0,0,0,0,0,0,0,0,0,-1,825,1800,0,0
-392,-776,0,0,0,0,0,0,0,0,0,-1,832,1800,0,0
-385,-776,0,0,0,0,0,0,0,0,0,-1,839,1800,0,0
-378,-776,0,0,0,0,0,0,0,0,0,-1,846,1800,0,0
-371,-776,0,0,0,0,0,0,0,0,0,-1,853,1800,0,0
-364,-776,0,0,0,0,0,0,0,0,0,-1,860,1800,0,0
-357,-776,0,0,0,0,0,0,0,0,0,-1,867,1800,0,0
-350,-776,0,0,0,0,0,0,0,0,0,-1,874,1800,0,0
-343,-776,0,0,0,0,0,0,0,0,0,-1,881,1800,0,0
-336,-776,0,0,0,0,0,0,0,0,0,-1,888,1800,0,0
-329,-776,0,0,0,0,0,0,0,0,0,-1,895,1800,0,0
-322,-776,0,0,0,0,0,0,0,0,0,-1,902,1800,0,0
-315,-776,0,0,0,0,0,0,0,0,0,-1,909,1800,0,0
-308,-776,0,0,0,0,0,0,0,0,0,-1,916,1800,0,0
-301,-776,0,0,0,0,0,0,0,0,0,-1,923,1800,0,0
-294,-776,0,0,0,0,0,0,0,0,0,-1,930,1800,0,0
-287,-776,0,0,0,0,0,0,0,0,0,-1,937,1800,0,0
-280,-776,0,0,0,0,0,0,0,0,0,-1,944,1800,0,0
-273,-776,0,0,0,0,0,0,0,0,0,-1,951,1800,0,0
-266,-776,0,0,0,0,0,0,0,0,0,-1,958,1800,0,0
-259,-776,0,0,0,0,0,0,0,0,0,-1,965,1800,0,0
-252,-776,0,0,0,0,0,0,0,0,0,-1,972,1800,0,0
-245,-776,0,0,0,0,0,0,0,0,0,-1,979,1800,0,0
-238,-776,0,0,0,0,0,0,0,0,0,-1,986,1800,0,0
-231,-776,0,0,0,0,0,0,0,0,0,-1,993,1800,0,0
-224,-776,0,0,0,0,0,0,0,0,0,-1,1000,1800,0,0
-217,-776,0,0,0,0,0,0,0,0,0,-1,1007,1800,0,0
-210,-776,0,0,0,0,0,0,0,0,0,-1,1014,1800,0,0
-203,-776,0,0,0,0,0,0,0,0,0,-1,1021,1800,0,0
-196,-776,0,0,0,0,0,0,0,0,0,-1,1028,1800,0,0
-189,-776,0,0,0,0,0,0,0,0,0,-1,1035,1800,0,0
-182,-776,0,0,0,0,0,0,0,0,0,-1,1042,1800,0,0
-175,-776,0,0,0,0,0,0,0,0,0,-1,1049,1800,0,0
-168,-776,0,0,0,0,0,0,0,0,0,-1,1056,1800,0,0
-161,-776,0,0,0,0,0,0,0,0,0,-1,1063,1800,0,0
-154,-776,0,0,0,0,0,0,0,0,0,-1,1070,1800,0,0
-147,-776,0,0,0,0,0,0,0,0,0,-1,1077,1800,0,0
-140,-776,2.98499,5.20911,0,0,0,0,0,0,0,-1,1084,1800,2.98493,-5.2091
-133,-776,6.72363,9.35828,0,0,0,0,0,0,0,-1,1091,1800,6.72358,-9.35824
-126,-776,6.55029,13.7832,0,0,0,0,0,0,0,-1,1098,1800,6.55029,-13.7832
-119,-776,5.72107,13.7787,0,0,0,0,0,0,0,-1,1105,1800,5.72106,-13.7787
-112,-776,6.84998,20.4421,0,0,0,0,0,0,0,-1,1112,1800,6.84993,-20.4421
-105,-776,4.46863,24.6742,0,0,0,0,0,0,0,-1,1119,1800,4.46868,-24.6742
-98,-776,4.31616,19.7659,0,0,0,0,0,0,0,-1,1126,1800,4.31619,-19.7659
-91,-776,3.30225,18.134,0,0,0,0,0,0,0,-1,1133,1800,3.30222,-18.134
-84,-776,2.67932,14.3162,0,0,0,0,0,0,0,-1,1140,1800,2.67926,-14.3161
-77,-776,0.580078,11.1272,0,0,0,0,0,0,0,-1,1147,1800,0.58002,-11.1272
-70,-776,-0.562866,12.3163,0,0,0,0,0,0,0,-1,1154,1800,-0.562897,-12.3163
-63,-776,-3.96106,9.97656,0,0,0,0,0,0,0,-1,1161,1800,-3.961,-9.97654
-56,-776,-7.35913,7.63672,0,0,0,0,0,0,0,-1,1168,1800,-7.3591,-7.63676
-49,-776,-7.62952,3.1908,0,0,0,0,0,0,0,-1,1175,1800,-7.62955,-3.19076
-42,-776,-3.41272,3.0249,0,0,0,0,0,0,0,-1,1182,1800,-3.41269,-3.02488
-35,-776,-3.71753,1.63635,0,0,0,0,0,0,0,-1,1189,1800,-3.71755,-1.63631
-28,-776,-4.03979,0.716064,0,0,0,0,0,0,0,-1,1196,1800,-4.03977,-0.716055
-21,-776,8.56567,36.7518,0,0,0,0,0,0,0,-1,1203,1800,8.56565,-36.7518
-14,-776,8.22424,37.1102,0,0,0,0,0,0,0,-1,1210,1800,8.22421,-37.1102
-7,-776,7.48315,36.9683,0,0,0,0,0,0,0,-1,1217,1800,7.48319,-36.9682
0,-776,7.66809,37.2111,0.0113758,-0.000515229,0.0161284,0.0226197,-0.0117591,0.608808,0.020176,0.0454784,1224,1800,7.66809,-37.211
7,-776,7.61511,37.7445,0.0154427,0.00362534,0.011854,0.022779,-0.00371096,0.554193,0.0165621,0.0480794,1231,1800,7.61509,-37.7445
14,-776,7.83435,38.114,0,0,0,0,0,0,0,-1,1238,1800,7.83432,-38.114
21,-776,8.38672,38.7535,0,0,0,0,0,0,0,-1,1245,1800,8.38671,-38.7535
28,-776,8.73474,39.1945,0,0,0,0,0,0,0,-1,1252,1800,8.73471,-39.1945
35,-776,8.12048,37.733,0,0,0,0,0,0,0,-1,1259,1800,8.12046,-37.733
42,-776,8.0769,37.7089,0.0467475,0.0247803,-0.00346236,0.0472803,0.0242475,-0.152685,0.0273003,0.0439745,1266,1800,8.07685,-37.7089
49,-776,8.06787,37.6887,0.0539249,0.0286648,-0.00680867,0.0556432,0.0269465,-0.247212,0.0321309,0.0469598,1273,1800,8.06785,-37.6888
56,-776,7.84375,37.2577,0,0,0,0,0,0,0,-1,1280,1800,7.84374,-37.2577
63,-776,7.4762,37.2565,0.0720534,0.0393518,-0.0152296,0.0780473,0.0333579,-0.374955,0.0452187,0.047938,1287,1800,7.47622,-37.2565
70,-776,7.98083,37.5101,0.0825333,0.046307,-0.0203178,0.0916396,0.0372007,-0.421352,0.0532193,0.0470375,1294,1800,7.98081,-37.5101
77,-776,8.02478,37.545,0,0,0,0,0,0,0,-1,1301,1800,8.02477,-37.5451
84,-776,7.49951,37.0382,0.106934,0.0640156,-0.0322861,0.124242,0.0467078,-0.492091,0.0724635,0.0490236,1308,1800,7.49955,-37.0382
91,-776,7.58691,36.428,0.119889,0.0748023,-0.0388333,0.142248,0.0524431,-0.522415,0.0830657,0.0440805,1315,1800,7.58685,-36.428
98,-776,7.49915,35.6771,0.13313,0.0848918,-0.0457211,0.160704,0.0573181,-0.542685,0.0940445,0.0458091,1322,1800,7.49914,-35.6772
105,-776,9.67603,34.96,0.145991,0.0968083,-0.0513257,0.178312,0.0644868,-0.561995,0.104254,0.0423287,1329,1800,9.67606,-34.9599
112,-776,11.0674,34.9825,0.15758,0.10736,-0.0561708,0.193998,0.0709425,-0.575209,0.113344,0.0436494,1336,1800,11.0674,-34.9826
119,-776,12.2916,35.1718,0.168332,0.115879,-0.0598567,0.207455,0.0767549,-0.578917,0.121117,0.0441355,1343,1800,12.2917,-35.1717
126,-776,14.3658,35.1176,0.177593,0.122109,-0.0617156,0.217515,0.0821872,-0.574174,0.126826,0.0451502,1350,1800,14.3659,-35.1175
133,-776,15.9774,35.4365,0,0,0,0,0,0,0,-1,1357,1800,15.9774,-35.4365
140,-776,16.3987,36.0317,0,0,0,0,0,0,0,-1,1364,1800,16.3987,-36.0317
147,-776,4.38184,33.3923,0,0,0,0,0,0,0,-1,1371,1800,4.38185,-33.3923
154,-776,38.4338,21.854,0,0,0,0,0,0,0,-1,1378,1800,38.4339,-21.854
161,-776,6.50293,1.1731,0,0,0,0,0,0,0,-1,1385,1800,6.5029,-1.17313
168,-776,8.44971,1.22913,0,0,0,0,0,0,0,-1,1392,1800,8.44974,-1.22915
175,-776,8.61523,2.87061,0,0,0,0,0,0,0,-1,1399,1800,8.6152,-2.87063
182,-776,8.54065,4.60645,0,0,0,0,0,0,0,-1,1406,1800,8.5407,-4.60643
189,-776,8.35303,6.28223,0,0,0,0,0,0,0,-1,1413,1800,8.35297,-6.28225
196,-776,8.0387,8.21704,0,0,0,0,0,0,0,-1,1420,1800,8.03865,-8.217
203,-776,7.91736,9.79919,0,0,0,0,0,0,0,-1,1427,1800,7.91735,-9.79922
210,-776,20.2479,7.85718,0,0,0,0,0,0,0,-1,1434,1800,20.248,-7.85719
217,-776,21.5171,9.3418,0,0,0,0,0,0,0,-1,1441,1800,21.5171,-9.34182
224,-776,3.09253,14.9313,0,0,0,0,0,0,0,-1,1448,1800,3.09254,-14.9313
231,-776,20.8671,9.21057,0,0,0,0,0,0,0,-1,1455,1800,20.867,-9.21054
238,-776,20.7511,9.05847,0,0,0,0,0,0,0,-1,1462,1800,20.7511,-9.05848
245,-776,3.80823,15.4108,0,0,0,0,0,0,0,-1,1469,1800,3.80826,-15.4108
252,-776,8.57837,20.2009,0,0,0,0,0,0,0,-1,1476,1800,8.57841,-20.2009
259,-776,14.1882,7.69055,0,0,0,0,0,0,0,-1,1483,1800,14.1882,-7.69061
266,-776,0,0,0,0,0,0,0,0,0,-1,1490,1800,0,0
273,-776,0,0,0,0,0,0,0,0,0,-1,1497,1800,0,0
280,-776,0,0,0,0,0,0,0,0,0,-1,1504,1800,0,0
287,-776,0,0,0,0,0,0,0,0,0,-1,1511,1800,0,0
294,-776,0,0,0,0,0,0,0,0,0,-1,1518,1800,0,0
301,-776,0,0,0,0,0,0,0,0,0,-1,1525,1800,0,0
308,-776,0,0,0,0,0,0,0,0,0,-1,1532,1800,0,0
315,-776,0,0,0,0,0,0,0,0,0,-1,1539,1800,0,0
322,-776,0,0,0,0,0,0,0,0,0,-1,1546,1800,0,0
329,-776,0,0,0,0,0,0,0,0,0,-1,1553,1800,0,0
336,-776,0,0,0,0,0,0,0,0,0,-1,1560,1800,0,0
343,-776,0,0,0,0,0,0,0,0,0,-1,1567,1800,0,0
350,-776,0,0,0,0,0,0,0,0,0,-1,1574,1800,0,0
357,-776,0,0,0,0,0,0,0,0,0,-1,1581,1800,0,0
364,-776,0,0,0,0,0,0,0,0,0,-1,1588,1800,0,0
371,-776,0,0,0,0,0,0,0,0,0,-1,1595,1800,0,0
378,-776,0,0,0,0,0,0,0,0,0,-1,1602,1800,0,0
385,-776,0,0,0,0,0,0,0,0,0,-1,1609,1800,0,0
392,-776,0,0,0,0,0,0,0,0,0,-1,1616,1800,0,0
399,-776,0,0,0,0,0,0,0,0,0,-1,1623,1800,0,0
406,-776,0,0,0,0,0,0,0,0,0,-1,1630,1800,0,0
413,-776,0,0,0,0,0,0,0,0,0,-1,1637,1800,0,0
420,-776,0,0,0,0,0,0,0,0,0,-1,1644,1800,0,0
427,-776,0,0,0,0,0,0,0,0,0,-1,1651,1800,0,0
434,-776,0,0,0,0,0,0,0,0,0,-1,1658,1800,0,0
441,-776,0,0,0,0,0,0,0,0,0,-1,1665,1800,0,0
448,-776,0,0,0,0,0,0,0,0,0,-1,1672,1800,0,0
455,-776,0,0,0,0,0,0,0,0,0,-1,1679,1800,0,0
462,-776,0,0,0,0,0,0,0,0,0,-1,1686,1800,0,0
469,-776,0,0,0,0,0,0,0,0,0,-1,1693,1800,0,0
476,-776,0,0,0,0,0,0,0,0,0,-1,1700,1800,0,0
483,-776,0,0,0,0,0,0,0,0,0,-1,1707,1800,0,0
490,-776,0,0,0,0,0,0,0,0,0,-1,1714,1800,0,0
497,-776,0,0,0,0,0,0,0,0,0,-1,1721,1800,0,0
504,-776,0,0,0,0,0,0,0,0,0,-1,1728,1800,0,0
511,-776,0,0,0,0,0,0,0,0,0,-1,1735,1800,0,0
518,-776,0,0,0,0,0,0,0,0,0,-1,1742,1800,0,0
525,-776,0,0,0,0,0,0,0,0,0,-1,1749,1800,0,0
532,-776,0,0,0,0,0,0,0,0,0,-1,1756,1800,0,0
539,-776,0,0,0,0,0,0,0,0,0,-1,1763,1800,0,0
546,-776,0,0,0,0,0,0,0,0,0,-1,1770,1800,0,0
553,-776,0,0,0,0,0,0,0,0,0,-1,1777,1800,0,0
560,-776,0,0,0,0,0,0,0,0,0,-1,1784,1800,0,0
567,-776,0,0,0,0,0,0,0,0,0,-1,1791,1800,0,0
574,-776,0,0,0,0,0,0,0,0,0,-1,1798,1800,0,0
581,-776,0,0,0,0,0,0,0,0,0,-1,1805,1800,0,0
588,-776,0,0,0,0,0,0,0,0,0,-1,1812,1800,0,0
595,-776,0,0,0,0,0,0,0,0,0,-1,1819,1800,0,0
602,-776,0,0,0,0,0,0,0,0,0,-1,1826,1800,0,0
609,-776,0,0,0,0,0,0,0,0,0,-1,1833,1800,0,0
616,-776,0,0,0,0,0,0,0,0,0,-1,1840,1800,0,0
623,-776,0,0,0,0,0,0,0,0,0,-1,1847,1800,0,0
630,-776,0,0,0,0,0,0,0,0,0,-1,1854,1800,0,0
637,-776,0,0,0,0,0,0,0,0,0,-1,1861,1800,0,0
644,-776,0,0,0,0,0,0,0,0,0,-1,1868,1800,0,0
651,-776,0,0,0,0,0,0,0,0,0,-1,1875,1800,0,0
658,-776,0,0,0,0,0,0,0,0,0,-1,1882,1800,0,0
665,-776,0,0,0,0,0,0,0,0,0,-1,1889,1800,0,0
672,-776,0,0,0,0,0,0,0,0,0,-1,1896,1800,0,0
679,-776,0,0,0,0,0,0,0,0,0,-1,1903,1800,0,0
686,-776,0,0,0,0,0,0,0,0,0,-1,1910,1800,0,0
693,-776,0,0,0,0,0,0,0,0,0,-1,1917,1800,0,0
700,-776,0,0,0,0,0,0,0,0,0,-1,1924,1800,0,0
707,-776,0,0,0,0,0,0,0,0,0,-1,1931,1800,0,0
714,-776,0,0,0,0,0,0,0,0,0,-1,1938,1800,0,0
721,-776,0,0,0,0,0,0,0,0,0,-1,1945,1800,0,0
728,-776,0,0,0,0,0,0,0,0,0,-1,1952,1800,0,0
735,-776,0,0,0,0,0,0,0,0,0,-1,1959,1800,0,0
742,-776,0,0,0,0,0,0,0,0,0,-1,1966,1800,0,0
749,-776,0,0,0,0,0,0,0,0,0,-1,1973,1800,0,0
756,-776,0,0,0,0,0,0,0,0,0,-1,1980,1800,0,0
763,-776,0,0,0,0,0,0,0,0,0,-1,1987,1800,0,0
770,-776,0,0,0,0,0,0,0,0,0,-1,1994,1800,0,0
777,-776,0,0,0,0,0,0,0,0,0,-1,2001,1800,0,0
784,-776,0,0,0,0,0,0,0,0,0,-1,2008,1800,0,0
791,-776,0,0,0,0,0,0,0,0,0,-1,2015,1800,0,0
798,-776,0,0,0,0,0,0,0,0,0,-1,2022,1800,0,0
805,-776,0,0,0,0,0,0,0,0,0,-1,2029,1800,0,0
812,-776,0,0,0,0,0,0,0,0,0,-1,2036,1800,0,0
-700,-783,0,0,0,0,0,0,0,0,0,-1,524,1807,0,0
-693,-783,0,0,0,0,0,0,0,0,0,-1,531,1807,0,0
-686,-783,0,0,0,0,0,0,0,0,0,-1,538,1807,0,0
-679,-783,0,0,0,0,0,0,0,0,0,-1,545,1807,0,0
-672,-783,0,0,0,0,0,0,0,0,0,-1,552,1807,0,0
-665,-783,0,0,0,0,0,0,0,0,0,-1,559,1807,0,0
-658,-783,0,0,0,0,0,0,0,0,0,-1,566,1807,0,0
-651,-783,0,0,0,0,0,0,0,0,0,-1,573,1807,0,0
-644,-783,0,0,0,0,0,0,0,0,0,-1,580,1807,0,0
-637,-783,0,0,0,0,0,0,0,0,0,-1,587,1807,0,0
-630,-783,0,0,0,0,0,0,0,0,0,-1,594,1807,0,0
-623,-783,0,0,0,0,0,0,0,0,0,-1,601,1807,0,0
-616,-783,0,0,0,0,0,0,0,0,0,-1,608,1807,0,0
-609,-783,0,0,0,0,0,0,0,0,0,-1,615,1807,0,0
-602,-783,0,0,0,0,0,0,0,0,0,-1,622,1807,0,0
-595,-783,0,0,0,0,0,0,0,0,0,-1,629,1807,0,0
-588,-783,0,0,0,0,0,0,0,0,0,-1,636,1807,0,0
-581,-783,0,0,0,0,0,0,0,0,0,-1,643,1807,0,0
-574,-783,0,0,0,0,0,0,0,0,0,-1,650,1807,0,0
-567,-783,0,0,0,0,0,0,0,0,0,-1,657,1807,0,0
-560,-783,0,0,0,0,0,0,0,0,0,-1,664,1807,0,0
-553,-783,0,0,0,0,0,0,0,0,0,-1,671,1807,0,0
-546,-783,0,0,0,0,0,0,0,0,0,-1,678,1807,0,0
-539,-783,0,0,0,0,0,0,0,0,0,-1,685,1807,0,0
-532,-783,0,0,0,0,0,0,0,0,0,-1,692,1807,0,0
-525,-783,0,0,0,0,0,0,0,0,0,-1,699,1807,0,0
-518,-783,0,0,0,0,0,0,0,0,0,-1,706,1807,0,0
-511,-783,0,0,0,0,0,0,0,0,0,-1,713,1807,0,0
-504,-783,0,0,0,0,0,0,0,0,0,-1,720,1807,0,0
-497,-783,0,0,0,0,0,0,0,0,0,-1,727,1807,0,0
-490,-783,0,0,0,0,0,0,0,0,0,-1,734,1807,0,0
-483,-783,0,0,0,0,0,0,0,0,0,-1,741,1807,0,0
-476,-783,0,0,0,0,0,0,0,0,0,-1,748,1807,0,0
-469,-783,0,0,0,0,0,0,0,0,0,-1,755,1807,0,0
-462,-783,0,0,0,0,0,0,0,0,0,-1,762,1807,0,0
-455,-783,0,0,0,0,0,0,0,0,0,-1,769,1807,0,0
-448,-783,0,0,0,0,0,0,0,0,0,-1,776,1807,0,0
-441,-783,0,0,0,0,0,0,0,0,0,-1,783,1807,0,0
-434,-783,0,0,0,0,0,0,0,0,0,-1,790,1807,0,0
-427,-783,0,0,0,0,0,0,0,0,0,-1,797,1807,0,0
-420,-783,0,0,0,0,0,0,0,0,0,-1,804,1807,0,0
-413,-783,0,0,0,0,0,0,0,0,0,-1,811,1807,0,0
-406,-783,0,0,0,0,0,0,0,0,0,-1,818,1807,0,0
-399,-783,0,0,0,0,0,0,0,0,0,-1,825,1807,0,0
-392,-783,0,0,0,0,0,0,0,0,0,-1,832,1807,0,0
-385,-783,0,0,0,0,0,0,0,0,0,-1,839,1807,0,0
-378,-783,0,0,0,0,0,0,0,0,0,-1,846,1807,0,0
-371,-783,0,0,0,0,0,0,0,0,0,-1,853,1807,0,0
-364,-783,0,0,0,0,0,0,0,0,0,-1,860,1807,0,0
-357,-783,0,0,0,0,0,0,0,0,0,-1,867,1807,0,0
-350,-783,0,0,0,0,0,0,0,0,0,-1,874,1807,0,0
-343,-783,0,0,0,0,0,0,0,0,0,-1,881,1807,0,0
-336,-783,0,0,0,0,0,0,0,0,0,-1,888,1807,0,0
-329,-783,0,0,0,0,0,0,0,0,0,-1,895,1807,0,0
-322,-783,0,0,0,0,0,0,0,0,0,-1,902,1807,0,0
-315,-783,0,0,0,0,0,0,0,0,0,-1,909,1807,0,0
-308,-783,0,0,0,0,0,0,0,0,0,-1,916,1807,0,0
-301,-783,0,0,0,0,0,0,0,0,0,-1,923,1807,0,0
-294,-783,0,0,0,0,0,0,0,0,0,-1,930,1807,0,0
-287,-783,0,0,0,0,0,0,0,0,0,-1,937,1807,0,0
-280,-783,0,0,0,0,0,0,0,0,0,-1,944,1807,0,0
-273,-783,0,0,0,0,0,0,0,0,0,-1,951,1807,0,0
-266,-783,0,0,0,0,0,0,0,0,0,-1,958,1807,0,0
-259,-783,0,0,0,0,0,0,0,0,0,-1,965,1807,0,0
-252,-783,0,0,0,0,0,0,0,0,0,-1,972,1807,0,0
-245,-783,0,0,0,0,0,0,0,0,0,-1,979,1807,0,0
-238,-783,0,0,0,0,0,0,0,0,0,-1,986,1807,0,0
-231,-783,0,0,0,0,0,0,0,0,0,-1,993,1807,0,0
-224,-783,0,0,0,0,0,0,0,0,0,-1,1000,1807,0,0
-217,-783,0,0,0,0,0,0,0,0,0,-1,1007,1807,0,0
-210,-783,0,0,0,0,0,0,0,0,0,-1,1014,1807,0,0
-203,-783,0,0,0,0,0,0,0,0,0,-1,1021,1807,0,0
-196,-783,0,0,0,0,0,0,0,0,0,-1,1028,1807,0,0
-189,-783,0,0,0,0,0,0,0,0,0,-1,1035,1807,0,0
-182,-783,0,0,0,0,0,0,0,0,0,-1,1042,1807,0,0
-175,-783,0,0,0,0,0,0,0,0,0,-1,1049,1807,0,0
-168,-783,0,0,0,0,0,0,0,0,0,-1,1056,1807,0,0
-161,-783,0,0,0,0,0,0,0,0,0,-1,1063,1807,0,0
-154,-783,0,0,0,0,0,0,0,0,0,-1,1070,1807,0,0
-147,-783,0,0,0,0,0,0,0,0,0,-1,1077,1807,0,0
-140,-783,0,0,0,0,0,0,0,0,0,-1,1084,1807,0,0
-133,-783,0,0,0,0,0,0,0,0,0,-1,1091,1807,0,0
-126,-783,0,0,0,0,0,0,0,0,0,-1,1098,1807,0,0
-119,-783,0,0,0,0,0,0,0,0,0,-1,1105,1807,0,0
-112,-783,5.33936,14.7699,0,0,0,0,0,0,0,-1,1112,1807,5.33931,-14.7699
-105,-783,6.44263,21.2224,0,0,0,0,0,0,0,-1,1119,1807,6.44263,-21.2224
-98,-783,5.54773,20.5695,0,0,0,0,0,0,0,-1,1126,1807,5.54772,-20.5695
-91,-783,2.6106,20.2491,0,0,0,0,0,0,0,-1,1133,1807,2.61056,-20.2492
-84,-783,-0.0491943,14.5743,0,0,0,0,0,0,0,-1,1140,1807,-0.0491562,-14.5743
-77,-783,0.332764,12.7788,0,0,0,0,0,0,0,-1,1147,1807,0.332743,-12.7788
-70,-783,-1.93176,5.12817,0,0,0,0,0,0,0,-1,1154,1807,-1.93171,-5.12813
-63,-783,-5.31702,10.54,0,0,0,0,0,0,0,-1,1161,1807,-5.31703,-10.54
-56,-783,-6.26135,6.9679,0,0,0,0,0,0,0,-1,1168,1807,-6.26136,-6.96785
-49,-783,-3.17688,4.59705,0,0,0,0,0,0,0,-1,1175,1807,-3.17685,-4.5971
-42,-783,-3.72876,3.1405,0,0,0,0,0,0,0,-1,1182,1807,-3.72874,-3.14055
-35,-783,-3.97046,1.59399,0,0,0,0,0,0,0,-1,1189,1807,-3.97041,-1.59401
-28,-783,-4.12195,0.270386,0,0,0,0,0,0,0,-1,1196,1807,-4.12197,-0.270408
-21,-783,11.986,37.0266,0,0,0,0,0,0,0,-1,1203,1807,11.986,-37.0266
-14,-783,9.01587,37.3499,0,0,0,0,0,0,0,-1,1210,1807,9.01585,-37.3499
-7,-783,8.58435,37.6764,0,0,0,0,0,0,0,-1,1217,1807,8.5844,-37.6763
0,-783,7.73425,37.0564,0,0,0,0,0,0,0,-1,1224,1807,7.73431,-37.0564
7,-783,7.49072,37.9097,0,0,0,0,0,0,0,-1,1231,1807,7.49068,-37.9096
14,-783,8.93372,38.6089,0,0,0,0,0,0,0,-1,1238,1807,8.93375,-38.6088
21,-783,8.60461,39.0349,0,0,0,0,0,0,0,-1,1245,1807,8.60458,-39.035
28,-783,8.41187,38.5999,0.0478758,0.0301314,0.00253589,0.0482311,0.0297761,0.139201,0.0281008,0.0476069,1252,1807,8.41185,-38.5999
35,-783,8.37207,38.1318,0.0557598,0.0333564,7.19643e-05,0.05576,0.0333562,0.00321217,0.0323994,0.0458917,1259,1807,8.37204,-38.1318
42,-783,8.27966,37.7333,0.0638598,0.0353925,-0.00314538,0.0642032,0.0350492,-0.108743,0.0371198,0.0429767,1266,1807,8.27969,-37.7333
49,-783,6.84338,36.2942,0,0,0,0,0,0,0,-1,1273,1807,6.84336,-36.2942
56,-783,7.27893,36.5375,0,0,0,0,0,0,0,-1,1280,1807,7.27891,-36.5375
63,-783,7.68347,36.9572,0.0946294,0.0487152,-0.0157937,0.0995375,0.0438071,-0.301302,0.0576053,0.0497488,1287,1807,7.68347,-36.9572
70,-783,8.46216,37.0923,0.107393,0.0558087,-0.0216458,0.115272,0.0479292,-0.349108,0.0668663,0.0451541,1294,1807,8.46219,-37.0923
77,-783,9.8186,36.8275,0.121956,0.0649302,-0.0283219,0.133632,0.0532546,-0.391017,0.0776804,0.0469787,1301,1807,9.81855,-36.8275
84,-783,7.54175,36.8308,0,0,0,0,0,0,0,-1,1308,1807,7.54177,-36.8308
91,-783,7.7146,36.1364,0.153085,0.0879743,-0.0438674,0.175157,0.0659018,-0.466176,0.102155,0.0447573,1315,1807,7.71458,-36.1363
98,-783,9.12366,33.7919,0.169544,0.100141,-0.0525841,0.197845,0.0718405,-0.49374,0.115644,0.0438277,1322,1807,9.12364,-33.7918
105,-783,10.3534,33.7178,0.185948,0.115476,-0.0599917,0.220286,0.0811379,-0.519867,0.128644,0.0454491,1329,1807,10.3534,-33.7178
112,-783,11.6866,33.8831,0.201327,0.129834,-0.0666454,0.241207,0.0899533,-0.539239,0.140752,0.0438788,1336,1807,11.6867,-33.883
119,-783,13.3325,33.8864,0.215975,0.142064,-0.0717307,0.259711,0.098329,-0.547532,0.15141,0.0424081,1343,1807,13.3325,-33.8864
126,-783,15.1069,34.2369,0.229096,0.151606,-0.0745788,0.274394,0.106308,-0.545828,0.159754,0.044404,1350,1807,15.1069,-34.2369
133,-783,16.8555,34.3535,0,0,0,0,0,0,0,-1,1357,1807,16.8555,-34.3535
140,-783,18.3468,35.1345,0,0,0,0,0,0,0,-1,1364,1807,18.3468,-35.1345
147,-783,19.5115,35.8862,0,0,0,0,0,0,0,-1,1371,1807,19.5115,-35.8862
154,-783,38.2109,17.545,0,0,0,0,0,0,0,-1,1378,1807,38.2109,-17.545
161,-783,39.5087,17.5449,0,0,0,0,0,0,0,-1,1385,1807,39.5087,-17.545
168,-783,8.62561,1.79944,0,0,0,0,0,0,0,-1,1392,1807,8.62561,-1.79946
175,-783,8.78699,3.40857,0,0,0,0,0,0,0,-1,1399,1807,8.78697,-3.40854
182,-783,8.70984,5.14661,0,0,0,0,0,0,0,-1,1406,1807,8.70989,-5.14666
189,-783,8.55762,6.79871,0,0,0,0,0,0,0,-1,1413,1807,8.55766,-6.79872
196,-783,8.25488,8.66626,0,0,0,0,0,0,0,-1,1420,1807,8.25492,-8.66628
203,-783,7.86755,10.5735,0,0,0,0,0,0,0,-1,1427,1807,7.8676,-10.5734
210,-783,5.6969,8.99231,0,0,0,0,0,0,0,-1,1434,1807,5.69693,-8.99234
217,-783,5.28503,3.80872,0,0,0,0,0,0,0,-1,1441,1807,5.285,-3.80868
224,-783,3.22571,6.62903,0,0,0,0,0,0,0,-1,1448,1807,3.2257,-6.62907
231,-783,4.27942,4.56262,0,0,0,0,0,0,0,-1,1455,1807,4.27948,-4.56267
238,-783,0,0,0,0,0,0,0,0,0,-1,1462,1807,0,0
245,-783,0,0,0,0,0,0,0,0,0,-1,1469,1807,0,0
252,-783,0,0,0,0,0,0,0,0,0,-1,1476,1807,0,0
259,-783,0,0,0,0,0,0,0,0,0,-1,1483,1807,0,0
266,-783,0,0,0,0,0,0,0,0,0,-1,1490,1807,0,0
273,-783,0,0,0,0,0,0,0,0,0,-1,1497,1807,0,0
280,-783,0,0,0,0,0,0,0,0,0,-1,1504,1807,0,0
287,-783,0,0,0,0,0,0,0,0,0,-1,1511,1807,0,0
294,-783,0,0,0,0,0,0,0,0,0,-1,1518,1807,0,0
301,-783,0,0,0,0,0,0,0,0,0,-1,1525,1807,0,0
308,-783,0,0,0,0,0,0,0,0,0,-1,1532,1807,0,0
315,-783,0,0,0,0,0,0,0,0,0,-1,1539,1807,0,0
322,-783,0,0,0,0,0,0,0,0,0,-1,1546,1807,0,0
329,-783,0,0,0,0,0,0,0,0,0,-1,1553,1807,0,0
336,-783,0,0,0,0,0,0,0,0,0,-1,1560,1807,0,0
343,-783,0,0,0,0,0,0,0,0,0,-1,1567,1807,0,0
350,-783,0,0,0,0,0,0,0,0,0,-1,1574,1807,0,0
357,-783,0,0,0,0,0,0,0,0,0,-1,1581,1807,0,0
364,-783,0,0,0,0,0,0,0,0,0,-1,1588,1807,0,0
371,-783,0,0,0,0,0,0,0,0,0,-1,1595,1807,0,0
378,-783,0,0,0,0,0,0,0,0,0,-1,1602,1807,0,0
385,-783,0,0,0,0,0,0,0,0,0,-1,1609,1807,0,0
392,-783,0,0,0,0,0,0,0,0,0,-1,1616,1807,0,0
399,-783,0,0,0,0,0,0,0,0,0,-1,1623,1807,0,0
406,-783,0,0,0,0,0,0,0,0,0,-1,1630,1807,0,0
413,-783,0,0,0,0,0,0,0,0,0,-1,1637,1807,0,0
420,-783,0,0,0,0,0,0,0,0,0,-1,1644,1807,0,0
427,-783,0,0,0,0,0,0,0,0,0,-1,1651,1807,0,0
434,-783,0,0,0,0,0,0,0,0,0,-1,1658,1807,0,0
441,-783,0,0,0,0,0,0,0,0,0,-1,1665,1807,0,0
448,-783,0,0,0,0,0,0,0,0,0,-1,1672,1807,0,0
455,-783,0,0,0,0,0,0,0,0,0,-1,1679,1807,0,0
462,-783,0,0,0,0,0,0,0,0,0,-1,1686,1807,0,0
469,-783,0,0,0,0,0,0,0,0,0,-1,1693,1807,0,0
476,-783,0,0,0,0,0,0,0,0,0,-1,1700,1807,0,0
483,-783,0,0,0,0,0,0,0,0,0,-1,1707,1807,0,0
490,-783,0,0,0,0,0,0,0,0,0,-1,1714,1807,0,0
497,-783,0,0,0,0,0,0,0,0,0,-1,1721,1807,0,0
504,-783,0,0,0,0,0,0,0,0,0,-1,1728,1807,0,0
511,-783,0,0,0,0,0,0,0,0,0,-1,1735,1807,0,0
518,-783,0,0,0,0,0,0,0,0,0,-1,1742,1807,0,0
525,-783,0,0,0,0,0,0,0,0,0,-1,1749,1807,0,0
532,-783,0,0,0,0,0,0,0,0,0,-1,1756,1807,0,0
539,-783,0,0,0,0,0,0,0,0,0,-1,1763,1807,0,0
546,-783,0,0,0,0,0,0,0,0,0,-1,1770,1807,0,0
553,-783,0,0,0,0,0,0,0,0,0,-1,1777,1807,0,0
560,-783,0,0,0,0,0,0,0,0,0,-1,1784,1807,0,0
567,-783,0,0,0,0,0,0,0,0,0,-1,1791,1807,0,0
574,-783,0,0,0,0,0,0,0,0,0,-1,1798,1807,0,0
581,-783,0,0,0,0,0,0,0,0,0,-1,1805,1807,0,0
588,-783,0,0,0,0,0,0,0,0,0,-1,1812,1807,0,0
595,-783,0,0,0,0,0,0,0,0,0,-1,1819,1807,0,0
602,-783,0,0,0,0,0,0,0,0,0,-1,1826,1807,0,0
609,-783,0,0,0,0,0,0,0,0,0,-1,1833,1807,0,0
616,-783,0,0,0,0,0,0,0,0,0,-1,1840,1807,0,0
623,-783,0,0,0,0,0,0,0,0,0,-1,1847,1807,0,0
630,-783,0,0,0,0,0,0,0,0,0,-1,1854,1807,0,0
637,-783,0,0,0,0,0,0,0,0,0,-1,1861,1807,0,0
644,-783,0,0,0,0,0,0,0,0,0,-1,1868,1807,0,0
651,-783,0,0,0,0,0,0,0,0,0,-1,1875,1807,0,0
658,-783,0,0,0,0,0,0,0,0,0,-1,1882,1807,0,0
665,-783,0,0,0,0,0,0,0,0,0,-1,1889,1807,0,0
672,-783,0,0,0,0,0,0,0,0,0,-1,1896,1807,0,0
679,-783,0,0,0,0,0,0,0,0,0,-1,1903,1807,0,0
686,-783,0,0,0,0,0,0,0,0,0,-1,1910,1807,0,0
693,-783,0,0,0,0,0,0,0,0,0,-1,1917,1807,0,0
700,-783,0,0,0,0,0,0,0,0,0,-1,1924,1807,0,0
707,-783,0,0,0,0,0,0,0,0,0,-1,1931,1807,0,0
714,-783,0,0,0,0,0,0,0,0,0,-1,1938,1807,0,0
721,-783,0,0,0,0,0,0,0,0,0,-1,1945,1807,0,0
728,-783,0,0,0,0,0,0,0,0,0,-1,1952,1807,0,0
735,-783,0,0,0,0,0,0,0,0,0,-1,1959,1807,0,0
742,-783,0,0,0,0,0,0,0,0,0,-1,1966,1807,0,0
749,-783,0,0,0,0,0,0,0,0,0,-1,1973,1807,0,0
756,-783,0,0,0,0,0,0,0,0,0,-1,1980,1807,0,0
763,-783,0,0,0,0,0,0,0,0,0,-1,1987,1807,0,0
770,-783,0,0,0,0,0,0,0,0,0,-1,1994,1807,0,0
777,-783,0,0,0,0,0,0,0,0,0,-1,2001,1807,0,0
784,-783,0,0,0,0,0,0,0,0,0,-1,2008,1807,0,0
791,-783,0,0,0,0,0,0,0,0,0,-1,2015,1807,0,0
798,-783,0,0,0,0,0,0,0,0,0,-1,2022,1807,0,0
805,-783,0,0,0,0,0,0,0,0,0,-1,2029,1807,0,0
812,-783,0,0,0,0,0,0,0,0,0,-1,2036,1807,0,0
-700,-790,0,0,0,0,0,0,0,0,0,-1,524,1814,0,0
-693,-790,0,0,0,0,0,0,0,0,0,-1,531,1814,0,0
-686,-790,0,0,0,0,0,0,0,0,0,-1,538,1814,0,0
-679,-790,0,0,0,0,0,0,0,0,0,-1,545,1814,0,0
-672,-790,0,0,0,0,0,0,0,0,0,-1,552,1814,0,0
-665,-790,0,0,0,0,0,0,0,0,0,-1,559,1814,0,0
-658,-790,0,0,0,0,0,0,0,0,0,-1,566,1814,0,0
-651,-790,0,0,0,0,0,0,0,0,0,-1,573,1814,0,0
-644,-790,0,0,0,0,0,0,0,0,0,-1,580,1814,0,0
-637,-790,0,0,0,0,0,0,0,0,0,-1,587,1814,0,0
-630,-790,0,0,0,0,0,0,0,0,0,-1,594,1814,0,0
-623,-790,0,0,0,0,0,0,0,0,0,-1,601,1814,0,0
-616,-790,0,0,0,0,0,0,0,0,0,-1,608,1814,0,0
-609,-790,0,0,0,0,0,0,0,0,0,-1,615,1814,0,0
-602,-790,0,0,0,0,0,0,0,0,0,-1,622,1814,0,0
-595,-790,0,0,0,0,0,0,0,0,0,-1,629,1814,0,0
-588,-790,0,0,0,0,0,0,0,0,0,-1,636,1814,0,0
-581,-790,0,0,0,0,0,0,0,0,0,-1,643,1814,0,0
-574,-790,0,0,0,0,0,0,0,0,0,-1,650,1814,0,0
-567,-790,0,0,0,0,0,0,0,0,0,-1,657,1814,0,0
-560,-790,0,0,0,0,0,0,0,0,0,-1,664,1814,0,0
-553,-790,0,0,0,0,0,0,0,0,0,-1,671,1814,0,0
-546,-790,0,0,0,0,0,0,0,0,0,-1,678,1814,0,0
-539,-790,0,0,0,0,0,0,0,0,0,-1,685,1814,0,0
-532,-790,0,0,0,0,0,0,0,0,0,-1,692,1814,0,0
-525,-790,0,0,0,0,0,0,0,0,0,-1,699,1814,0,0
-518,-790,0,0,0,0,0,0,0,0,0,-1,706,1814,0,0
-511,-790,0,0,0,0,0,0,0,0,0,-1,713,1814,0,0
-504,-790,0,0,0,0,0,0,0,0,0,-1,720,1814,0,0
-497,-790,0,0,0,0,0,0,0,0,0,-1,727,1814,0,0
-490,-790,0,0,0,0,0,0,0,0,0,-1,734,1814,0,0
-483,-790,0,0,0,0,0,0,0,0,0,-1,741,1814,0,0
-476,-790,0,0,0,0,0,0,0,0,0,-1,748,1814,0,0
-469,-790,0,0,0,0,0,0,0,0,0,-1,755,1814,0,0
-462,-790,0,0,0,0,0,0,0,0,0,-1,762,1814,0,0
-455,-790,0,0,0,0,0,0,0,0,0,-1,769,1814,0,0
-448,-790,0,0,0,0,0,0,0,0,0,-1,776,1814,0,0
-441,-790,0,0,0,0,0,0,0,0,0,-1,783,1814,0,0
-434,-790,0,0,0,0,0,0,0,0,0,-1,790,1814,0,0
-427,-790,0,0,0,0,0,0,0,0,0,-1,797,1814,0,0
-420,-790,0,0,0,0,0,0,0,0,0,-1,804,1814,0,0
-413,-790,0,0,0,0,0,0,0,0,0,-1,811,1814,0,0
-406,-790,0,0,0,0,0,0,0,0,0,-1,818,1814,0,0
-399,-790,0,0,0,0,0,0,0,0,0,-1,825,1814,0,0
-392,-790,0,0,0,0,0,0,0,0,0,-1,832,1814,0,0
-385,-790,0,0,0,0,0,0,0,0,0,-1,839,1814,0,0
-378,-790,0,0,0,0,0,0,0,0,0,-1,846,1814,0,0
-371,-790,0,0,0,0,0,0,0,0,0,-1,853,1814,0,0
-364,-790,0,0,0,0,0,0,0,0,0,-1,860,1814,0,0
-357,-790,0,0,0,0,0,0,0,0,0,-1,867,1814,0,0
-350,-790,0,0,0,0,0,0,0,0,0,-1,874,1814,0,0
-343,-790,0,0,0,0,0,0,0,0,0,-1,881,1814,0,0
-336,-790,0,0,0,0,0,0,0,0,0,-1,888,1814,0,0
-329,-790,0,0,0,0,0,0,0,0,0,-1,895,1814,0,0
-322,-790,0,0,0,0,0,0,0,0,0,-1,902,1814,0,0
-315,-790,0,0,0,0,0,0,0,0,0,-1,909,1814,0,0
-308,-790,0,0,0,0,0,0,0,0,0,-1,916,1814,0,0
-301,-790,0,0,0,0,0,0,0,0,0,-1,923,1814,0,0
-294,-790,0,0,0,0,0,0,0,0,0,-1,930,1814,0,0
-287,-790,0,0,0,0,0,0,0,0,0,-1,937,1814,0,0
-280,-790,0,0,0,0,0,0,0,0,0,-1,944,1814,0,0
-273,-790,0,0,0,0,0,0,0,0,0,-1,951,1814,0,0
-266,-790,0,0,0,0,0,0,0,0,0,-1,958,1814,0,0
-259,-790,0,0,0,0,0,0,0,0,0,-1,965,1814,0,0
-252,-790,0,0,0,0,0,0,0,0,0,-1,972,1814,0,0
-245,-790,0,0,0,0,0,0,0,0,0,-1,979,1814,0,0
-238,-790,0,0,0,0,0,0,0,0,0,-1,986,1814,0,0
-231,-790,0,0,0,0,0,0,0,0,0,-1,993,1814,0,0
-224,-790,0,0,0,0,0,0,0,0,0,-1,1000,1814,0,0
-217,-790,0,0,0,0,0,0,0,0,0,-1,1007,1814,0,0
-210,-790,0,0,0,0,0,0,0,0,0,-1,1014,1814,0,0
-203,-790,0,0,0,0,0,0,0,0,0,-1,1021,1814,0,0
-196,-790,0,0,0,0,0,0,0,0,0,-1,1028,1814,0,0
-189,-790,0,0,0,0,0,0,0,0,0,-1,1035,1814,0,0
-182,-790,0,0,0,0,0,0,0,0,0,-1,1042,1814,0,0
-175,-790,0,0,0,0,0,0,0,0,0,-1,1049,1814,0,0
-168,-790,0,0,0,0,0,0,0,0,0,-1,1056,1814,0,0
-161,-790,0,0,0,0,0,0,0,0,0,-1,1063,1814,0,0
-154,-790,0,0,0,0,0,0,0,0,0,-1,1070,1814,0,0
-147,-790,0,0,0,0,0,0,0,0,0,-1,1077,1814,0,0
-140,-790,0,0,0,0,0,0,0,0,0,-1,1084,1814,0,0
-133,-790,0,0,0,0,0,0,0,0,0,-1,1091,1814,0,0
-126,-790,0,0,0,0,0,0,0,0,0,-1,1098,1814,0,0
-119,-790,0,0,0,0,0,0,0,0,0,-1,1105,1814,0,0
-112,-790,0,0,0,0,0,0,0,0,0,-1,1112,1814,0,0
-105,-790,0,0,0,0,0,0,0,0,0,-1,1119,1814,0,0
-98,-790,0,0,0,0,0,0,0,0,0,-1,1126,1814,0,0
-91,-790,0,0,0,0,0,0,0,0,0,-1,1133,1814,0,0
-84,-790,0,0,0,0,0,0,0,0,0,-1,1140,1814,0,0
-77,-790,-0.969238,5.30847,0,0,0,0,0,0,0,-1,1147,1814,-0.969277,-5.3085
-70,-790,-1.23169,4.98914,0,0,0,0,0,0,0,-1,1154,1814,-1.23163,-4.98916
-63,-790,-1.69128,4.32263,0,0,0,0,0,0,0,-1,1161,1814,-1.69128,-4.32258
-56,-790,-2.24756,3.75305,0,0,0,0,0,0,0,-1,1168,1814,-2.24758,-3.75302
-49,-790,-3.11011,3.35779,0,0,0,0,0,0,0,-1,1175,1814,-3.11006,-3.35781
-42,-790,0.593262,1.19165,0,0,0,0,0,0,0,-1,1182,1814,0.593225,-1.19165
-35,-790,0.307129,-0.20105,0,0,0,0,0,0,0,-1,1189,1814,0.307178,0.201006
-28,-790,-2.78467,0.785156,0,0,0,0,0,0,0,-1,1196,1814,-2.78471,-0.785183
-21,-790,12.1554,36.9773,0,0,0,0,0,0,0,-1,1203,1814,12.1553,-36.9773
-14,-790,11.3674,36.8364,0,0,0,0,0,0,0,-1,1210,1814,11.3675,-36.8365
-7,-790,8.42688,39.7313,0,0,0,0,0,0,0,-1,1217,1814,8.42687,-39.7313
0,-790,8.33606,39.3484,0,0,0,0,0,0,0,-1,1224,1814,8.336,-39.3484
7,-790,8.34778,38.9459,0.0364925,0.0204074,0.0212938,0.0512119,0.005688,0.604833,0.0324121,0.0434705,1231,1814,8.3478,-38.946
14,-790,8.23889,38.7664,0,0,0,0,0,0,0,-1,1238,1814,8.23891,-38.7663
21,-790,8.20288,38.5498,0,0,0,0,0,0,0,-1,1245,1814,8.20293,-38.5498
28,-790,8.34229,38.4534,0.0647256,0.0436262,0.00400817,0.0654614,0.0428905,0.181544,0.0383963,0.0466185,1252,1814,8.34228,-38.4534
35,-790,8.54114,38.1843,0.0747568,0.0472021,0.000984977,0.0747919,0.047167,0.0356856,0.0436697,0.0478642,1259,1814,8.5411,-38.1843
42,-790,8.38135,37.7845,0.0847282,0.0489722,-0.00212782,0.0848544,0.0488461,-0.0592309,0.0491772,0.0439615,1266,1814,8.38135,-37.7846
49,-790,6.11743,35.5515,0.0954239,0.0511208,-0.0056699,0.096138,0.0504067,-0.12529,0.0555272,0.046965,1273,1814,6.11748,-35.5515
56,-790,7.44031,36.1921,0,0,0,0,0,0,0,-1,1280,1814,7.4403,-36.1922
63,-790,7.77686,36.2848,0.121293,0.0590309,-0.0149758,0.124708,0.0556161,-0.224189,0.0721401,0.0458723,1287,1814,7.77688,-36.2848
70,-790,9.00317,36.4779,0.136459,0.0656678,-0.0214181,0.142434,0.0596921,-0.272084,0.0825927,0.0425742,1294,1814,9.00318,-36.4779
77,-790,10.251,36.7117,0.153555,0.0748741,-0.0289351,0.16305,0.065379,-0.31708,0.0947504,0.0422022,1301,1814,10.2509,-36.7117
84,-790,11.3864,37.1388,0.171398,0.086015,-0.0375322,0.18555,0.0718625,-0.360589,0.108031,0.0460858,1308,1814,11.3864,-37.1388
91,-790,11.8772,38.9949,0.190404,0.100078,-0.0469696,0.210401,0.0800807,-0.402503,0.122624,0.0423852,1315,1814,11.8772,-38.9948
98,-790,12.3837,39.6825,0,0,0,0,0,0,0,-1,1322,1814,12.3836,-39.6825
105,-790,11.1836,32.6537,0.230166,0.132969,-0.0669696,0.264313,0.0988226,-0.471522,0.154211,0.0471058,1329,1814,11.1835,-32.6537
112,-790,12.9104,32.7104,0.249726,0.151629,-0.0757399,0.290912,0.110443,-0.498059,0.169572,0.0452231,1336,1814,12.9104,-32.7104
119,-790,14.6158,32.8313,0.268889,0.168535,-0.0826213,0.315376,0.122047,-0.512508,0.183626,0.0420888,1343,1814,14.6159,-32.8313
126,-790,16.1692,32.9454,0.286667,0.182664,-0.0869017,0.335937,0.133393,-0.51578,0.195318,0.0449214,1350,1814,16.1692,-32.9454
133,-790,17.6439,33.3041,0,0,0,0,0,0,0,-1,1357,1814,17.644,-33.3041
140,-790,20.295,34.2373,0,0,0,0,0,0,0,-1,1364,1814,20.295,-34.2373
147,-790,8.41113,33.3976,0,0,0,0,0,0,0,-1,1371,1814,8.41108,-33.3976
154,-790,40.215,13.2396,0,0,0,0,0,0,0,-1,1378,1814,40.2149,-13.2396
161,-790,39.3429,13.0336,0,0,0,0,0,0,0,-1,1385,1814,39.3429,-13.0336
168,-790,7.04077,2.23279,0,0,0,0,0,0,0,-1,1392,1814,7.04082,-2.23275
175,-790,9.03918,3.98535,0,0,0,0,0,0,0,-1,1399,1814,9.0392,-3.98535
182,-790,8.96997,5.67896,0,0,0,0,0,0,0,-1,1406,1814,8.97001,-5.6789
189,-790,8.59729,6.86975,0,0,0,0,0,0,0,-1,1413,1814,8.59728,-6.86972
196,-790,8.21924,9.29053,0,0,0,0,0,0,0,-1,1420,1814,8.21924,-9.29048
203,-790,0,0,0,0,0,0,0,0,0,-1,1427,1814,0,0
210,-790,0,0,0,0,0,0,0,0,0,-1,1434,1814,0,0
217,-790,0,0,0,0,0,0,0,0,0,-1,1441,1814,0,0
224,-790,0,0,0,0,0,0,0,0,0,-1,1448,1814,0,0
231,-790,0,0,0,0,0,0,0,0,0,-1,1455,1814,0,0
238,-790,0,0,0,0,0,0,0,0,0,-1,1462,1814,0,0
245,-790,0,0,0,0,0,0,0,0,0,-1,1469,1814,0,0
252,-790,0,0,0,0,0,0,0,0,0,-1,1476,1814,0,0
259,-790,0,0,0,0,0,0,0,0,0,-1,1483,1814,0,0
266,-790,0,0,0,0,0,0,0,0,0,-1,1490,1814,0,0
273,-790,0,0,0,0,0,0,0,0,0,-1,1497,1814,0,0
280,-790,0,0,0,0,0,0,0,0,0,-1,1504,1814,0,0
287,-790,0,0,0,0,0,0,0,0,0,-1,1511,1814,0,0
294,-790,0,0,0,0,0,0,0,0,0,-1,1518,1814,0,0
301,-790,0,0,0,0,0,0,0,0,0,-1,1525,1814,0,0
308,-790,0,0,0,0,0,0,0,0,0,-1,1532,1814,0,0
315,-790,0,0,0,0,0,0,0,0,0,-1,1539,1814,0,0
322,-790,0,0,0,0,0,0,0,0,0,-1,1546,1814,0,0
329,-790,0,0,0,0,0,0,0,0,0,-1,1553,1814,0,0
336,-790,0,0,0,0,0,0,0,0,0,-1,1560,1814,0,0
343,-790,0,0,0,0,0,0,0,0,0,-1,1567,1814,0,0
350,-790,0,0,0,0,0,0,0,0,0,-1,1574,1814,0,0
357,-790,0,0,0,0,0,0,0,0,0,-1,1581,1814,0,0
364,-790,0,0,0,0,0,0,0,0,0,-1,1588,1814,0,0
371,-790,0,0,0,0,0,0,0,0,0,-1,1595,1814,0,0
378,-790,0,0,0,0,0,0,0,0,0,-1,1602,1814,0,0
385,-790,0,0,0,0,0,0,0,0,0,-1,1609,1814,0,0
392,-790,0,0,0,0,0,0,0,0,0,-1,1616,1814,0,0
399,-790,0,0,0,0,0,0,0,0,0,-1,1623,1814,0,0
406,-790,0,0,0,0,0,0,0,0,0,-1,1630,1814,0,0
413,-790,0,0,0,0,0,0,0,0,0,-1,1637,1814,0,0
420,-790,0,0,0,0,0,0,0,0,0,-1,1644,1814,0,0
427,-790,0,0,0,0,0,0,0,0,0,-1,1651,1814,0,0
434,-790,0,0,0,0,0,0,0,0,0,-1,1658,1814,0,0
441,-790,0,0,0,0,0,0,0,0,0,-1,1665,1814,0,0
448,-790,0,0,0,0,0,0,0,0,0,-1,1672,1814,0,0
455,-790,0,0,0,0,0,0,0,0,0,-1,1679,1814,0,0
462,-790,0,0,0,0,0,0,0,0,0,-1,1686,1814,0,0
469,-790,0,0,0,0,0,0,0,0,0,-1,1693,1814,0,0
476,-790,0,0,0,0,0,0,0,0,0,-1,1700,1814,0,0
483,-790,0,0,0,0,0,0,0,0,0,-1,1707,1814,0,0
490,-790,0,0,0,0,0,0,0,0,0,-1,1714,1814,0,0
497,-790,0,0,0,0,0,0,0,0,0,-1,1721,1814,0,0
504,-790,0,0,0,0,0,0,0,0,0,-1,1728,1814,0,0
511,-790,0,0,0,0,0,0,0,0,0,-1,1735,1814,0,0
518,-790,0,0,0,0,0,0,0,0,0,-1,1742,1814,0,0
525,-790,0,0,0,0,0,0,0,0,0,-1,1749,1814,0,0
532,-790,0,0,0,0,0,0,0,0,0,-1,1756,1814,0,0
539,-790,0,0,0,0,0,0,0,0,0,-1,1763,1814,0,0
546,-790,0,0,0,0,0,0,0,0,0,-1,1770,1814,0,0
553,-790,0,0,0,0,0,0,0,0,0,-1,1777,1814,0,0
560,-790,0,0,0,0,0,0,0,0,0,-1,1784,1814,0,0
567,-790,0,0,0,0,0,0,0,0,0,-1,1791,1814,0,0
574,-790,0,0,0,0,0,0,0,0,0,-1,1798,1814,0,0
581,-790,0,0,0,0,0,0,0,0,0,-1,1805,1814,0,0
588,-790,0,0,0,0,0,0,0,0,0,-1,1812,1814,0,0
595,-790,0,0,0,0,0,0,0,0,0,-1,1819,1814,0,0
602,-790,0,0,0,0,0,0,0,0,0,-1,1826,1814,0,0
609,-790,0,0,0,0,0,0,0,0,0,-1,1833,1814,0,0
616,-790,0,0,0,0,0,0,0,0,0,-1,1840,1814,0,0
623,-790,0,0,0,0,0,0,0,0,0,-1,1847,1814,0,0
630,-790,0,0,0,0,0,0,0,0,0,-1,1854,1814,0,0
637,-790,0,0,0,0,0,0,0,0,0,-1,1861,1814,0,0
644,-790,0,0,0,0,0,0,0,0,0,-1,1868,1814,0,0
651,-790,0,0,0,0,0,0,0,0,0,-1,1875,1814,0,0
658,-790,0,0,0,0,0,0,0,0,0,-1,1882,1814,0,0
665,-790,0,0,0,0,0,0,0,0,0,-1,1889,1814,0,0
672,-790,0,0,0,0,0,0,0,0,0,-1,1896,1814,0,0
679,-790,0,0,0,0,0,0,0,0,0,-1,1903,1814,0,0
686,-790,0,0,0,0,0,0,0,0,0,-1,1910,1814,0,0
693,-790,0,0,0,0,0,0,0,0,0,-1,1917,1814,0,0
700,-790,0,0,0,0,0,0,0,0,0,-1,1924,1814,0,0
707,-790,0,0,0,0,0,0,0,0,0,-1,1931,1814,0,0
714,-790,0,0,0,0,0,0,0,0,0,-1,1938,1814,0,0
721,-790,0,0,0,0,0,0,0,0,0,-1,1945,1814,0,0
728,-790,0,0,0,0,0,0,0,0,0,-1,1952,1814,0,0
735,-790,0,0,0,0,0,0,0,0,0,-1,1959,1814,0,0
742,-790,0,0,0,0,0,0,0,0,0,-1,1966,1814,0,0
749,-790,0,0,0,0,0,0,0,0,0,-1,1973,1814,0,0
756,-790,0,0,0,0,0,0,0,0,0,-1,1980,1814,0,0
763,-790,0,0,0,0,0,0,0,0,0,-1,1987,1814,0,0
770,-790,0,0,0,0,0,0,0,0,0,-1,1994,1814,0,0
777,-790,0,0,0,0,0,0,0,0,0,-1,2001,1814,0,0
784,-790,0,0,0,0,0,0,0,0,0,-1,2008,1814,0,0
791,-790,0,0,0,0,0,0,0,0,0,-1,2015,1814,0,0
798,-790,0,0,0,0,0,0,0,0,0,-1,2022,1814,0,0
805,-790,0,0,0,0,0,0,0,0,0,-1,2029,1814,0,0
812,-790,0,0,0,0,0,0,0,0,0,-1,2036,1814,0,0
-700,-797,0,0,0,0,0,0,0,0,0,-1,524,1821,0,0
-693,-797,0,0,0,0,0,0,0,0,0,-1,531,1821,0,0
-686,-797,0,0,0,0,0,0,0,0,0,-1,538,1821,0,0
-679,-797,0,0,0,0,0,0,0,0,0,-1,545,1821,0,0
-672,-797,0,0,0,0,0,0,0,0,0,-1,552,1821,0,0
-665,-797,0,0,0,0,0,0,0,0,0,-1,559,1821,0,0
-658,-797,0,0,0,0,0,0,0,0,0,-1,566,1821,0,0
-651,-797,0,0,0,0,0,0,0,0,0,-1,573,1821,0,0
-644,-797,0,0,0,0,0,0,0,0,0,-1,580,1821,0,0
-637,-797,0,0,0,0,0,0,0,0,0,-1,587,1821,0,0
-630,-797,0,0,0,0,0,0,0,0,0,-1,594,1821,0,0
-623,-797,0,0,0,0,0,0,0,0,0,-1,601,1821,0,0
-616,-797,0,0,0,0,0,0,0,0,0,-1,608,1821,0,0
-609,-797,0,0,0,0,0,0,0,0,0,-1,615,1821,0,0
-602,-797,0,0,0,0,0,0,0,0,0,-1,622,1821,0,0
-595,-797,0,0,0,0,0,0,0,0,0,-1,629,1821,0,0
-588,-797,0,0,0,0,0,0,0,0,0,-1,636,1821,0,0
-581,-797,0,0,0,0,0,0,0,0,0,-1,643,1821,0,0
-574,-797,0,0,0,0,0,0,0,0,0,-1,650,1821,0,0
-567,-797,0,0,0,0,0,0,0,0,0,-1,657,1821,0,0
-560,-797,0,0,0,0,0,0,0,0,0,-1,664,1821,0,0
-553,-797,0,0,0,0,0,0,0,0,0,-1,671,1821,0,0
-546,-797,0,0,0,0,0,0,0,0,0,-1,678,1821,0,0
-539,-797,0,0,0,0,0,0,0,0,0,-1,685,1821,0,0
-532,-797,0,0,0,0,0,0,0,0,0,-1,692,1821,0,0
-525,-797,0,0,0,0,0,0,0,0,0,-1,699,1821,0,0
-518,-797,0,0,0,0,0,0,0,0,0,-1,706,1821,0,0
-511,-797,0,0,0,0,0,0,0,0,0,-1,713,1821,0,0
-504,-797,0,0,0,0,0,0,0,0,0,-1,720,1821,0,0
-497,-797,0,0,0,0,0,0,0,0,0,-1,727,1821,0,0
-490,-797,0,0,0,0,0,0,0,0,0,-1,734,1821,0,0
-483,-797,0,0,0,0,0,0,0,0,0,-1,741,1821,0,0
-476,-797,0,0,0,0,0,0,0,0,0,-1,748,1821,0,0
-469,-797,0,0,0,0,0,0,0,0,0,-1,755,1821,0,0
-462,-797,0,0,0,0,0,0,0,0,0,-1,762,1821,0,0
-455,-797,0,0,0,0,0,0,0,0,0,-1,769,1821,0,0
-448,-797,0,0,0,0,0,0,0,0,0,-1,776,1821,0,0
-441,-797,0,0,0,0,0,0,0,0,0,-1,783,1821,0,0
-434,-797,0,0,0,0,0,0,0,0,0,-1,790,1821,0,0
-427,-797,0,0,0,0,0,0,0,0,0,-1,797,1821,0,0
-420,-797,0,0,0,0,0,0,0,0,0,-1,804,1821,0,0
-413,-797,0,0,0,0,0,0,0,0,0,-1,811,1821,0,0
-406,-797,0,0,0,0,0,0,0,0,0,-1,818,1821,0,0
-399,-797,0,0,0,0,0,0,0,0,0,-1,825,1821,0,0
-392,-797,0,0,0,0,0,0,0,0,0,-1,832,1821,0,0
-385,-797,0,0,0,0,0,0,0,0,0,-1,839,1821,0,0
-378,-797,0,0,0,0,0,0,0,0,0,-1,846,1821,0,0
-371,-797,0,0,0,0,0,0,0,0,0,-1,853,1821,0,0
-364,-797,0,0,0,0,0,0,0,0,0,-1,860,1821,0,0
-357,-797,0,0,0,0,0,0,0,0,0,-1,867,1821,0,0
-350,-797,0,0,0,0,0,0,0,0,0,-1,874,1821,0,0
-343,-797,0,0,0,0,0,0,0,0,0,-1,881,1821,0,0
-336,-797,0,0,0,0,0,0,0,0,0,-1,888,1821,0,0
-329,-797,0,0,0,0,0,0,0,0,0,-1,895,1821,0,0
-322,-797,0,0,0,0,0,0,0,0,0,-1,902,1821,0,0
-315,-797,0,0,0,0,0,0,0,0,0,-1,909,1821,0,0
-308,-797,0,0,0,0,0,0,0,0,0,-1,916,1821,0,0
-301,-797,0,0,0,0,0,0,0,0,0,-1,923,1821,0,0
-294,-797,0,0,0,0,0,0,0,0,0,-1,930,1821,0,0
-287,-797,0,0,0,0,0,0,0,0,0,-1,937,1821,0,0
-280,-797,0,0,0,0,0,0,0,0,0,-1,944,1821,0,0
-273,-797,0,0,0,0,0,0,0,0,0,-1,951,1821,0,0
-266,-797,0,0,0,0,0,0,0,0,0,-1,958,1821,0,0
-259,-797,0,0,0,0,0,0,0,0,0,-1,965,1821,0,0
-252,-797,0,0,0,0,0,0,0,0,0,-1,972,1821,0,0
-245,-797,0,0,0,0,0,0,0,0,0,-1,979,1821,0,0
-238,-797,0,0,0,0,0,0,0,0,0,-1,986,1821,0,0
-231,-797,0,0,0,0,0,0,0,0,0,-1,993,1821,0,0
-224,-797,0,0,0,0,0,0,0,0,0,-1,1000,1821,0,0
-217,-797,0,0,0,0,0,0,0,0,0,-1,1007,1821,0,0
-210,-797,0,0,0,0,0,0,0,0,0,-1,1014,1821,0,0
-203,-797,0,0,0,0,0,0,0,0,0,-1,1021,1821,0,0
-196,-797,0,0,0,0,0,0,0,0,0,-1,1028,1821,0,0
-189,-797,0,0,0,0,0,0,0,0,0,-1,1035,1821,0,0
-182,-797,0,0,0,0,0,0,0,0,0,-1,1042,1821,0,0
-175,-797,0,0,0,0,0,0,0,0,0,-1,1049,1821,0,0
-168,-797,0,0,0,0,0,0,0,0,0,-1,1056,1821,0,0
-161,-797,0,0,0,0,0,0,0,0,0,-1,1063,1821,0,0
-154,-797,0,0,0,0,0,0,0,0,0,-1,1070,1821,0,0
-147,-797,0,0,0,0,0,0,0,0,0,-1,1077,1821,0,0
-140,-797,0,0,0,0,0,0,0,0,0,-1,1084,1821,0,0
-133,-797,0,0,0,0,0,0,0,0,0,-1,1091,1821,0,0
-126,-797,0,0,0,0,0,0,0,0,0,-1,1098,1821,0,0
-119,-797,0,0,0,0,0,0,0,0,0,-1,1105,1821,0,0
-112,-797,0,0,0,0,0,0,0,0,0,-1,1112,1821,0,0
-105,-797,0,0,0,0,0,0,0,0,0,-1,1119,1821,0,0
-98,-797,0,0,0,0,0,0,0,0,0,-1,1126,1821,0,0
-91,-797,0,0,0,0,0,0,0,0,0,-1,1133,1821,0,0
-84,-797,0,0,0,0,0,0,0,0,0,-1,1140,1821,0,0
-77,-797,0,0,0,0,0,0,0,0,0,-1,1147,1821,0,0
-70,-797,0,0,0,0,0,0,0,0,0,-1,1154,1821,0,0
-63,-797,0,0,0,0,0,0,0,0,0,-1,1161,1821,0,0
-56,-797,0,0,0,0,0,0,0,0,0,-1,1168,1821,0,0
-49,-797,0,0,0,0,0,0,0,0,0,-1,1175,1821,0,0
-42,-797,0.579834,0.692871,0,0,0,0,0,0,0,-1,1182,1821,0.579856,-0.692816
-35,-797,-0.185425,5.55396,0,0,0,0,0,0,0,-1,1189,1821,-0.18542,-5.55396
-28,-797,-0.310181,4.71509,0,0,0,0,0,0,0,-1,1196,1821,-0.310228,-4.71503
-21,-797,6.22522,29.062,0,0,0,0,0,0,0,-1,1203,1821,6.22523,-29.062
-14,-797,11.6418,36.8258,0,0,0,0,0,0,0,-1,1210,1821,11.6418,-36.8258
-7,-797,10.5654,37.0282,0,0,0,0,0,0,0,-1,1217,1821,10.5654,-37.0282
0,-797,7.79773,39.5842,0,0,0,0,0,0,0,-1,1224,1821,7.79773,-39.5843
7,-797,7.53564,39.1927,0,0,0,0,0,0,0,-1,1231,1821,7.53564,-39.1928
14,-797,7.58447,38.9227,0,0,0,0,0,0,0,-1,1238,1821,7.58451,-38.9227
21,-797,7.83215,38.5398,0,0,0,0,0,0,0,-1,1245,1821,7.83213,-38.5398
28,-797,7.59656,38.5199,0,0,0,0,0,0,0,-1,1252,1821,7.59661,-38.52
35,-797,8.71924,38.3335,0,0,0,0,0,0,0,-1,1259,1821,8.71928,-38.3335
42,-797,4.16736,35.7687,0.109907,0.0662481,-0.000130632,0.109908,0.0662477,-0.00299206,0.0639004,0.0476932,1266,1821,4.16733,-35.7687
49,-797,5.7561,35.4729,0.122501,0.0662361,-0.00327614,0.122691,0.066046,-0.0579662,0.0709049,0.0463972,1273,1821,5.75615,-35.4729
56,-797,6.98572,35.527,0.136282,0.0671258,-0.00705833,0.136995,0.0664128,-0.10068,0.0791064,0.0450278,1280,1821,6.98573,-35.5269
63,-797,7.93286,35.5494,0.152363,0.0702303,-0.012111,0.154111,0.0684817,-0.143393,0.0891597,0.0422084,1287,1821,7.9329,-35.5495
70,-797,9.323,36.0397,0.169878,0.0755505,-0.0187924,0.173484,0.0719444,-0.189585,0.100646,0.0431788,1294,1821,9.32299,-36.0397
77,-797,10.3009,36.8081,0.18927,0.0840037,-0.0267841,0.195693,0.0775806,-0.235364,0.113788,0.0430837,1301,1821,10.3009,-36.8082
84,-797,11.3782,38.0587,0.209436,0.0950813,-0.0360986,0.219878,0.0846394,-0.281575,0.128062,0.0463232,1308,1821,11.3782,-38.0587
91,-797,12.1671,39.0386,0.231007,0.10974,-0.0466128,0.246854,0.0938936,-0.3277,0.143875,0.0417069,1315,1821,12.1671,-39.0386
98,-797,12.7635,39.6752,0,0,0,0,0,0,0,-1,1322,1821,12.7636,-39.6752
105,-797,13.5677,40.251,0,0,0,0,0,0,0,-1,1329,1821,13.5678,-40.2509
112,-797,13.7002,31.6871,0,0,0,0,0,0,0,-1,1336,1821,13.7002,-31.6872
119,-797,15.1581,31.8512,0,0,0,0,0,0,0,-1,1343,1821,15.1581,-31.8512
126,-797,17.1769,31.7454,0,0,0,0,0,0,0,-1,1350,1821,17.1769,-31.7454
133,-797,18.5913,32.1627,0,0,0,0,0,0,0,-1,1357,1821,18.5913,-32.1628
140,-797,18.6843,33.724,0,0,0,0,0,0,0,-1,1364,1821,18.6843,-33.724
147,-797,20.1085,33.3856,0,0,0,0,0,0,0,-1,1371,1821,20.1085,-33.3856
154,-797,40.2623,8.88733,0,0,0,0,0,0,0,-1,1378,1821,40.2623,-8.88731
161,-797,42.2798,8.17371,0,0,0,0,0,0,0,-1,1385,1821,42.2798,-8.17367
168,-797,0,0,0,0,0,0,0,0,0,-1,1392,1821,0,0
175,-797,0,0,0,0,0,0,0,0,0,-1,1399,1821,0,0
182,-797,0,0,0,0,0,0,0,0,0,-1,1406,1821,0,0
189,-797,0,0,0,0,0,0,0,0,0,-1,1413,1821,0,0
196,-797,0,0,0,0,0,0,0,0,0,-1,1420,1821,0,0
203,-797,0,0,0,0,0,0,0,0,0,-1,1427,1821,0,0
210,-797,0,0,0,0,0,0,0,0,0,-1,1434,1821,0,0
217,-797,0,0,0,0,0,0,0,0,0,-1,1441,1821,0,0
224,-797,0,0,0,0,0,0,0,0,0,-1,1448,1821,0,0
231,-797,0,0,0,0,0,0,0,0,0,-1,1455,1821,0,0
238,-797,0,0,0,0,0,0,0,0,0,-1,1462,1821,0,0
245,-797,0,0,0,0,0,0,0,0,0,-1,1469,1821,0,0
252,-797,0,0,0,0,0,0,0,0,0,-1,1476,1821,0,0
259,-797,0,0,0,0,0,0,0,0,0,-1,1483,1821,0,0
266,-797,0,0,0,0,0,0,0,0,0,-1,1490,1821,0,0
273,-797,0,0,0,0,0,0,0,0,0,-1,1497,1821,0,0
280,-797,0,0,0,0,0,0,0,0,0,-1,1504,1821,0,0
287,-797,0,0,0,0,0,0,0,0,0,-1,1511,1821,0,0
294,-797,0,0,0,0,0,0,0,0,0,-1,1518,1821,0,0
301,-797,0,0,0,0,0,0,0,0,0,-1,1525,1821,0,0
308,-797,0,0,0,0,0,0,0,0,0,-1,1532,1821,0,0
315,-797,0,0,0,0,0,0,0,0,0,-1,1539,1821,0,0
322,-797,0,0,0,0,0,0,0,0,0,-1,1546,1821,0,0
329,-797,0,0,0,0,0,0,0,0,0,-1,1553,1821,0,0
336,-797,0,0,0,0,0,0,0,0,0,-1,1560,1821,0,0
343,-797,0,0,0,0,0,0,0,0,0,-1,1567,1821,0,0
350,-797,0,0,0,0,0,0,0,0,0,-1,1574,1821,0,0
357,-797,0,0,0,0,0,0,0,0,0,-1,1581,1821,0,0
364,-797,0,0,0,0,0,0,0,0,0,-1,1588,1821,0,0
371,-797,0,0,0,0,0,0,0,0,0,-1,1595,1821,0,0
378,-797,0,0,0,0,0,0,0,0,0,-1,1602,1821,0,0
385,-797,0,0,0,0,0,0,0,0,0,-1,1609,1821,0,0
392,-797,0,0,0,0,0,0,0,0,0,-1,1616,1821,0,0
399,-797,0,0,0,0,0,0,0,0,0,-1,1623,1821,0,0
406,-797,0,0,0,0,0,0,0,0,0,-1,1630,1821,0,0
413,-797,0,0,0,0,0,0,0,0,0,-1,1637,1821,0,0
420,-797,0,0,0,0,0,0,0,0,0,-1,1644,1821,0,0
427,-797,0,0,0,0,0,0,0,0,0,-1,1651,1821,0,0
434,-797,0,0,0,0,0,0,0,0,0,-1,1658,1821,0,0
441,-797,0,0,0,0,0,0,0,0,0,-1,1665,1821,0,0
448,-797,0,0,0,0,0,0,0,0,0,-1,1672,1821,0,0
455,-797,0,0,0,0,0,0,0,0,0,-1,1679,1821,0,0
462,-797,0,0,0,0,0,0,0,0,0,-1,1686,1821,0,0
469,-797,0,0,0,0,0,0,0,0,0,-1,1693,1821,0,0
476,-797,0,0,0,0,0,0,0,0,0,-1,1700,1821,0,0
483,-797,0,0,0,0,0,0,0,0,0,-1,1707,1821,0,0
490,-797,0,0,0,0,0,0,0,0,0,-1,1714,1821,0,0
497,-797,0,0,0,0,0,0,0,0,0,-1,1721,1821,0,0
504,-797,0,0,0,0,0,0,0,0,0,-1,1728,1821,0,0
511,-797,0,0,0,0,0,0,0,0,0,-1,1735,1821,0,0
518,-797,0,0,0,0,0,0,0,0,0,-1,1742,1821,0,0
525,-797,0,0,0,0,0,0,0,0,0,-1,1749,1821,0,0
532,-797,0,0,0,0,0,0,0,0,0,-1,1756,1821,0,0
539,-797,0,0,0,0,0,0,0,0,0,-1,1763,1821,0,0
546,-797,0,0,0,0,0,0,0,0,0,-1,1770,1821,0,0
553,-797,0,0,0,0,0,0,0,0,0,-1,1777,1821,0,0
560,-797,0,0,0,0,0,0,0,0,0,-1,1784,1821,0,0
567,-797,0,0,0,0,0,0,0,0,0,-1,1791,1821,0,0
574,-797,0,0,0,0,0,0,0,0,0,-1,1798,1821,0,0
581,-797,0,0,0,0,0,0,0,0,0,-1,1805,1821,0,0
588,-797,0,0,0,0,0,0,0,0,0,-1,1812,1821,0,0
595,-797,0,0,0,0,0,0,0,0,0,-1,1819,1821,0,0
602,-797,0,0,0,0,0,0,0,0,0,-1,1826,1821,0,0
609,-797,0,0,0,0,0,0,0,0,0,-1,1833,1821,0,0
616,-797,0,0,0,0,0,0,0,0,0,-1,1840,1821,0,0
623,-797,0,0,0,0,0,0,0,0,0,-1,1847,1821,0,0
630,-797,0,0,0,0,0,0,0,0,0,-1,1854,1821,0,0
637,-797,0,0,0,0,0,0,0,0,0,-1,1861,1821,0,0
644,-797,0,0,0,0,0,0,0,0,0,-1,1868,1821,0,0
651,-797,0,0,0,0,0,0,0,0,0,-1,1875,1821,0,0
658,-797,0,0,0,0,0,0,0,0,0,-1,1882,1821,0,0
665,-797,0,0,0,0,0,0,0,0,0,-1,1889,1821,0,0
672,-797,0,0,0,0,0,0,0,0,0,-1,1896,1821,0,0
679,-797,0,0,0,0,0,0,0,0,0,-1,1903,1821,0,0
686,-797,0,0,0,0,0,0,0,0,0,-1,1910,1821,0,0
693,-797,0,0,0,0,0,0,0,0,0,-1,1917,1821,0,0
700,-797,0,0,0,0,0,0,0,0,0,-1,1924,1821,0,0
707,-797,0,0,0,0,0,0,0,0,0,-1,1931,1821,0,0
714,-797,0,0,0,0,0,0,0,0,0,-1,1938,1821,0,0
721,-797,0,0,0,0,0,0,0,0,0,-1,1945,1821,0,0
728,-797,0,0,0,0,0,0,0,0,0,-1,1952,1821,0,0
735,-797,0,0,0,0,0,0,0,0,0,-1,1959,1821,0,0
742,-797,0,0,0,0,0,0,0,0,0,-1,1966,1821,0,0
749,-797,0,0,0,0,0,0,0,0,0,-1,1973,1821,0,0
756,-797,0,0,0,0,0,0,0,0,0,-1,1980,1821,0,0
763,-797,0,0,0,0,0,0,0,0,0,-1,1987,1821,0,0
770,-797,0,0,0,0,0,0,0,0,0,-1,1994,1821,0,0
777,-797,0,0,0,0,0,0,0,0,0,-1,2001,1821,0,0
784,-797,0,0,0,0,0,0,0,0,0,-1,2008,1821,0,0
791,-797,0,0,0,0,0,0,0,0,0,-1,2015,1821,0,0
798,-797,0,0,0,0,0,0,0,0,0,-1,2022,1821,0,0
805,-797,0,0,0,0,0,0,0,0,0,-1,2029,1821,0,0
812,-797,0,0,0,0,0,0,0,0,0,-1,2036,1821,0,0
-700,-804,0,0,0,0,0,0,0,0,0,-1,524,1828,0,0
-693,-804,0,0,0,0,0,0,0,0,0,-1,531,1828,0,0
-686,-804,0,0,0,0,0,0,0,0,0,-1,538,1828,0,0
-679,-804,0,0,0,0,0,0,0,0,0,-1,545,1828,0,0
-672,-804,0,0,0,0,0,0,0,0,0,-1,552,1828,0,0
-665,-804,0,0,0,0,0,0,0,0,0,-1,559,1828,0,0
-658,-804,0,0,0,0,0,0,0,0,0,-1,566,1828,0,0
-651,-804,0,0,0,0,0,0,0,0,0,-1,573,1828,0,0
-644,-804,0,0,0,0,0,0,0,0,0,-1,580,1828,0,0
-637,-804,0,0,0,0,0,0,0,0,0,-1,587,1828,0,0
-630,-804,0,0,0,0,0,0,0,0,0,-1,594,1828,0,0
-623,-804,0,0,0,0,0,0,0,0,0,-1,601,1828,0,0
-616,-804,0,0,0,0,0,0,0,0,0,-1,608,1828,0,0
-609,-804,0,0,0,0,0,0,0,0,0,-1,615,1828,0,0
-602,-804,0,0,0,0,0,0,0,0,0,-1,622,1828,0,0
-595,-804,0,0,0,0,0,0,0,0,0,-1,629,1828,0,0
-588,-804,0,0,0,0,0,0,0,0,0,-1,636,1828,0,0
-581,-804,0,0,0,0,0,0,0,0,0,-1,643,1828,0,0
-574,-804,0,0,0,0,0,0,0,0,0,-1,650,1828,0,0
-567,-804,0,0,0,0,0,0,0,0,0,-1,657,1828,0,0
-560,-804,0,0,0,0,0,0,0,0,0,-1,664,1828,0,0
-553,-804,0,0,0,0,0,0,0,0,0,-1,671,1828,0,0
-546,-804,0,0,0,0,0,0,0,0,0,-1,678,1828,0,0
-539,-804,0,0,0,0,0,0,0,0,0,-1,685,1828,0,0
-532,-804,0,0,0,0,0,0,0,0,0,-1,692,1828,0,0
-525,-804,0,0,0,0,0,0,0,0,0,-1,699,1828,0,0
-518,-804,0,0,0,0,0,0,0,0,0,-1,706,1828,0,0
-511,-804,0,0,0,0,0,0,0,0,0,-1,713,1828,0,0
-504,-804,0,0,0,0,0,0,0,0,0,-1,720,1828,0,0
-497,-804,0,0,0,0,0,0,0,0,0,-1,727,1828,0,0
-490,-804,0,0,0,0,0,0,0,0,0,-1,734,1828,0,0
-483,-804,0,0,0,0,0,0,0,0,0,-1,741,1828,0,0
-476,-804,0,0,0,0,0,0,0,0,0,-1,748,1828,0,0
-469,-804,0,0,0,0,0,0,0,0,0,-1,755,1828,0,0
-462,-804,0,0,0,0,0,0,0,0,0,-1,762,1828,0,0
-455,-804,0,0,0,0,0,0,0,0,0,-1,769,1828,0,0
-448,-804,0,0,0,0,0,0,0,0,0,-1,776,1828,0,0
-441,-804,0,0,0,0,0,0,0,0,0,-1,783,1828,0,0
-434,-804,0,0,0,0,0,0,0,0,0,-1,790,1828,0,0
-427,-804,0,0,0,0,0,0,0,0,0,-1,797,1828,0,0
-420,-804,0,0,0,0,0,0,0,0,0,-1,804,1828,0,0
-413,-804,0,0,0,0,0,0,0,0,0,-1,811,1828,0,0
-406,-804,0,0,0,0,0,0,0,0,0,-1,818,1828,0,0
-399,-804,0,0,0,0,0,0,0,0,0,-1,825,1828,0,0
-392,-804,0,0,0,0,0,0,0,0,0,-1,832,1828,0,0
-385,-804,0,0,0,0,0,0,0,0,0,-1,839,1828,0,0
-378,-804,0,0,0,0,0,0,0,0,0,-1,846,1828,0,0
-371,-804,0,0,0,0,0,0,0,0,0,-1,853,1828,0,0
-364,-804,0,0,0,0,0,0,0,0,0,-1,860,1828,0,0
-357,-804,0,0,0,0,0,0,0,0,0,-1,867,1828,0,0
-350,-804,0,0,0,0,0,0,0,0,0,-1,874,1828,0,0
-343,-804,0,0,0,0,0,0,0,0,0,-1,881,1828,0,0
-336,-804,0,0,0,0,0,0,0,0,0,-1,888,1828,0,0
-329,-804,0,0,0,0,0,0,0,0,0,-1,895,1828,0,0
-322,-804,0,0,0,0,0,0,0,0,0,-1,902,1828,0,0
-315,-804,0,0,0,0,0,0,0,0,0,-1,909,1828,0,0
-308,-804,0,0,0,0,0,0,0,0,0,-1,916,1828,0,0
-301,-804,0,0,0,0,0,0,0,0,0,-1,923,1828,0,0
-294,-804,0,0,0,0,0,0,0,0,0,-1,930,1828,0,0
-287,-804,0,0,0,0,0,0,0,0,0,-1,937,1828,0,0
-280,-804,0,0,0,0,0,0,0,0,0,-1,944,1828,0,0
-273,-804,0,0,0,0,0,0,0,0,0,-1,951,1828,0,0
-266,-804,0,0,0,0,0,0,0,0,0,-1,958,1828,0,0
-259,-804,0,0,0,0,0,0,0,0,0,-1,965,1828,0,0
-252,-804,0,0,0,0,0,0,0,0,0,-1,972,1828,0,0
-245,-804,0,0,0,0,0,0,0,0,0,-1,979,1828,0,0
-238,-804,0,0,0,0,0,0,0,0,0,-1,986,1828,0,0
-231,-804,0,0,0,0,0,0,0,0,0,-1,993,1828,0,0
-224,-804,0,0,0,0,0,0,0,0,0,-1,1000,1828,0,0
-217,-804,0,0,0,0,0,0,0,0,0,-1,1007,1828,0,0
-210,-804,0,0,0,0,0,0,0,0,0,-1,1014,1828,0,0
-203,-804,0,0,0,0,0,0,0,0,0,-1,1021,1828,0,0
-196,-804,0,0,0,0,0,0,0,0,0,-1,1028,1828,0,0
-189,-804,0,0,0,0,0,0,0,0,0,-1,1035,1828,0,0
-182,-804,0,0,0,0,0,0,0,0,0,-1,1042,1828,0,0
-175,-804,0,0,0,0,0,0,0,0,0,-1,1049,1828,0,0
-168,-804,0,0,0,0,0,0,0,0,0,-1,1056,1828,0,0
-161,-804,0,0,0,0,0,0,0,0,0,-1,1063,1828,0,0
-154,-804,0,0,0,0,0,0,0,0,0,-1,1070,1828,0,0
-147,-804,0,0,0,0,0,0,0,0,0,-1,1077,1828,0,0
-140,-804,0,0,0,0,0,0,0,0,0,-1,1084,1828,0,0
-133,-804,0,0,0,0,0,0,0,0,0,-1,1091,1828,0,0
-126,-804,0,0,0,0,0,0,0,0,0,-1,1098,1828,0,0
-119,-804,0,0,0,0,0,0,0,0,0,-1,1105,1828,0,0
-112,-804,0,0,0,0,0,0,0,0,0,-1,1112,1828,0,0
-105,-804,0,0,0,0,0,0,0,0,0,-1,1119,1828,0,0
-98,-804,0,0,0,0,0,0,0,0,0,-1,1126,1828,0,0
-91,-804,0,0,0,0,0,0,0,0,0,-1,1133,1828,0,0
-84,-804,0,0,0,0,0,0,0,0,0,-1,1140,1828,0,0
-77,-804,0,0,0,0,0,0,0,0,0,-1,1147,1828,0,0
-70,-804,0,0,0,0,0,0,0,0,0,-1,1154,1828,0,0
-63,-804,0,0,0,0,0,0,0,0,0,-1,1161,1828,0,0
-56,-804,0,0,0,0,0,0,0,0,0,-1,1168,1828,0,0
-49,-804,0,0,0,0,0,0,0,0,0,-1,1175,1828,0,0
-42,-804,0,0,0,0,0,0,0,0,0,-1,1182,1828,0,0
-35,-804,0,0,0,0,0,0,0,0,0,-1,1189,1828,0,0
-28,-804,0,0,0,0,0,0,0,0,0,-1,1196,1828,0,0
-21,-804,0,0,0,0,0,0,0,0,0,-1,1203,1828,0,0
-14,-804,0,0,0,0,0,0,0,0,0,-1,1210,1828,0,0
-7,-804,0,0,0,0,0,0,0,0,0,-1,1217,1828,0,0
0,-804,0,0,0,0,0,0,0,0,0,-1,1224,1828,0,0
7,-804,0,0,0,0,0,0,0,0,0,-1,1231,1828,0,0
14,-804,0,0,0,0,0,0,0,0,0,-1,1238,1828,0,0
21,-804,0,0,0,0,0,0,0,0,0,-1,1245,1828,0,0
28,-804,0,0,0,0,0,0,0,0,0,-1,1252,1828,0,0
35,-804,4.08179,34.6862,0,0,0,0,0,0,0,-1,1259,1828,4.08177,-34.6861
42,-804,4.92261,34.8774,0.140358,0.0881464,0.00321302,0.140555,0.0879494,0.0612301,0.0820004,0.0460782,1266,1828,4.92257,-34.8774
49,-804,5.92188,35.3173,0.154703,0.0846055,0.00104499,0.154719,0.08459,0.0149031,0.089457,0.0451907,1273,1828,5.92184,-35.3172
56,-804,7.11487,35.1589,0.170122,0.0821232,-0.00195736,0.170165,0.0820797,-0.0222284,0.0982655,0.0469098,1280,1828,7.11491,-35.1589
63,-804,8.10791,34.8303,0.188192,0.0819688,-0.00616078,0.188548,0.0816127,-0.0577404,0.109185,0.0463087,1287,1828,8.10794,-34.8304
70,-804,9.703,35.4091,0.207623,0.0846977,-0.0124219,0.208866,0.083455,-0.0997094,0.121397,0.0483199,1294,1828,9.70305,-35.409
77,-804,11.0294,36.0021,0.228535,0.0910596,-0.0201527,0.231428,0.0881662,-0.142595,0.134871,0.0476139,1301,1828,11.0294,-36.0021
84,-804,12.6481,36.8806,0,0,0,0,0,0,0,-1,1308,1828,12.6481,-36.8806
91,-804,0,0,0,0,0,0,0,0,0,-1,1315,1828,0,0
98,-804,0,0,0,0,0,0,0,0,0,-1,1322,1828,0,0
105,-804,0,0,0,0,0,0,0,0,0,-1,1329,1828,0,0
112,-804,0,0,0,0,0,0,0,0,0,-1,1336,1828,0,0
119,-804,0,0,0,0,0,0,0,0,0,-1,1343,1828,0,0
126,-804,0,0,0,0,0,0,0,0,0,-1,1350,1828,0,0
133,-804,0,0,0,0,0,0,0,0,0,-1,1357,1828,0,0
140,-804,0,0,0,0,0,0,0,0,0,-1,1364,1828,0,0
147,-804,0,0,0,0,0,0,0,0,0,-1,1371,1828,0,0
154,-804,0,0,0,0,0,0,0,0,0,-1,1378,1828,0,0
161,-804,0,0,0,0,0,0,0,0,0,-1,1385,1828,0,0
168,-804,0,0,0,0,0,0,0,0,0,-1,1392,1828,0,0
175,-804,0,0,0,0,0,0,0,0,0,-1,1399,1828,0,0
182,-804,0,0,0,0,0,0,0,0,0,-1,1406,1828,0,0
189,-804,0,0,0,0,0,0,0,0,0,-1,1413,1828,0,0
196,-804,0,0,0,0,0,0,0,0,0,-1,1420,1828,0,0
203,-804,0,0,0,0,0,0,0,0,0,-1,1427,1828,0,0
210,-804,0,0,0,0,0,0,0,0,0,-1,1434,1828,0,0
217,-804,0,0,0,0,0,0,0,0,0,-1,1441,1828,0,0
224,-804,0,0,0,0,0,0,0,0,0,-1,1448,1828,0,0
231,-804,0,0,0,0,0,0,0,0,0,-1,1455,1828,0,0
238,-804,0,0,0,0,0,0,0,0,0,-1,1462,1828,0,0
245,-804,0,0,0,0,0,0,0,0,0,-1,1469,1828,0,0
252,-804,0,0,0,0,0,0,0,0,0,-1,1476,1828,0,0
259,-804,0,0,0,0,0,0,0,0,0,-1,1483,1828,0,0
266,-804,0,0,0,0,0,0,0,0,0,-1,1490,1828,0,0
273,-804,0,0,0,0,0,0,0,0,0,-1,1497,1828,0,0
280,-804,0,0,0,0,0,0,0,0,0,-1,1504,1828,0,0
287,-804,0,0,0,0,0,0,0,0,0,-1,1511,1828,0,0
294,-804,0,0,0,0,0,0,0,0,0,-1,1518,1828,0,0
301,-804,0,0,0,0,0,0,0,0,0,-1,1525,1828,0,0
308,-804,0,0,0,0,0,0,0,0,0,-1,1532,1828,0,0
315,-804,0,0,0,0,0,0,0,0,0,-1,1539,1828,0,0
322,-804,0,0,0,0,0,0,0,0,0,-1,1546,1828,0,0
329,-804,0,0,0,0,0,0,0,0,0,-1,1553,1828,0,0
336,-804,0,0,0,0,0,0,0,0,0,-1,1560,1828,0,0
343,-804,0,0,0,0,0,0,0,0,0,-1,1567,1828,0,0
350,-804,0,0,0,0,0,0,0,0,0,-1,1574,1828,0,0
357,-804,0,0,0,0,0,0,0,0,0,-1,1581,1828,0,0
364,-804,0,0,0,0,0,0,0,0,0,-1,1588,1828,0,0
371,-804,0,0,0,0,0,0,0,0,0,-1,1595,1828,0,0
378,-804,0,0,0,0,0,0,0,0,0,-1,1602,1828,0,0
385,-804,0,0,0,0,0,0,0,0,0,-1,1609,1828,0,0
392,-804,0,0,0,0,0,0,0,0,0,-1,1616,1828,0,0
399,-804,0,0,0,0,0,0,0,0,0,-1,1623,1828,0,0
406,-804,0,0,0,0,0,0,0,0,0,-1,1630,1828,0,0
413,-804,0,0,0,0,0,0,0,0,0,-1,1637,1828,0,0
420,-804,0,0,0,0,0,0,0,0,0,-1,1644,1828,0,0
427,-804,0,0,0,0,0,0,0,0,0,-1,1651,1828,0,0
434,-804,0,0,0,0,0,0,0,0,0,-1,1658,1828,0,0
441,-804,0,0,0,0,0,0,0,0,0,-1,1665,1828,0,0
448,-804,0,0,0,0,0,0,0,0,0,-1,1672,1828,0,0
455,-804,0,0,0,0,0,0,0,0,0,-1,1679,1828,0,0
462,-804,0,0,0,0,0,0,0,0,0,-1,1686,1828,0,0
469,-804,0,0,0,0,0,0,0,0,0,-1,1693,1828,0,0
476,-804,0,0,0,0,0,0,0,0,0,-1,1700,1828,0,0
483,-804,0,0,0,0,0,0,0,0,0,-1,1707,1828,0,0
490,-804,0,0,0,0,0,0,0,0,0,-1,1714,1828,0,0
497,-804,0,0,0,0,0,0,0,0,0,-1,1721,1828,0,0
504,-804,0,0,0,0,0,0,0,0,0,-1,1728,1828,0,0
511,-804,0,0,0,0,0,0,0,0,0,-1,1735,1828,0,0
518,-804,0,0,0,0,0,0,0,0,0,-1,1742,1828,0,0
525,-804,0,0,0,0,0,0,0,0,0,-1,1749,1828,0,0
532,-804,0,0,0,0,0,0,0,0,0,-1,1756,1828,0,0
539,-804,0,0,0,0,0,0,0,0,0,-1,1763,1828,0,0
546,-804,0,0,0,0,0,0,0,0,0,-1,1770,1828,0,0
553,-804,0,0,0,0,0,0,0,0,0,-1,1777,1828,0,0
560,-804,0,0,0,0,0,0,0,0,0,-1,1784,1828,0,0
567,-804,0,0,0,0,0,0,0,0,0,-1,1791,1828,0,0
574,-804,0,0,0,0,0,0,0,0,0,-1,1798,1828,0,0
581,-804,0,0,0,0,0,0,0,0,0,-1,1805,1828,0,0
588,-804,0,0,0,0,0,0,0,0,0,-1,1812,1828,0,0
595,-804,0,0,0,0,0,0,0,0,0,-1,1819,1828,0,0
602,-804,0,0,0,0,0,0,0,0,0,-1,1826,1828,0,0
609,-804,0,0,0,0,0,0,0,0,0,-1,1833,1828,0,0
616,-804,0,0,0,0,0,0,0,0,0,-1,1840,1828,0,0
623,-804,0,0,0,0,0,0,0,0,0,-1,1847,1828,0,0
630,-804,0,0,0,0,0,0,0,0,0,-1,1854,1828,0,0
637,-804,0,0,0,0,0,0,0,0,0,-1,1861,1828,0,0
644,-804,0,0,0,0,0,0,0,0,0,-1,1868,1828,0,0
651,-804,0,0,0,0,0,0,0,0,0,-1,1875,1828,0,0
658,-804,0,0,0,0,0,0,0,0,0,-1,1882,1828,0,0
665,-804,0,0,0,0,0,0,0,0,0,-1,1889,1828,0,0
672,-804,0,0,0,0,0,0,0,0,0,-1,1896,1828,0,0
679,-804,0,0,0,0,0,0,0,0,0,-1,1903,1828,0,0
686,-804,0,0,0,0,0,0,0,0,0,-1,1910,1828,0,0
693,-804,0,0,0,0,0,0,0,0,0,-1,1917,1828,0,0
700,-804,0,0,0,0,0,0,0,0,0,-1,1924,1828,0,0
707,-804,0,0,0,0,0,0,0,0,0,-1,1931,1828,0,0
714,-804,0,0,0,0,0,0,0,0,0,-1,1938,1828,0,0
721,-804,0,0,0,0,0,0,0,0,0,-1,1945,1828,0,0
728,-804,0,0,0,0,0,0,0,0,0,-1,1952,1828,0,0
735,-804,0,0,0,0,0,0,0,0,0,-1,1959,1828,0,0
742,-804,0,0,0,0,0,0,0,0,0,-1,1966,1828,0,0
749,-804,0,0,0,0,0,0,0,0,0,-1,1973,1828,0,0
756,-804,0,0,0,0,0,0,0,0,0,-1,1980,1828,0,0
763,-804,0,0,0,0,0,0,0,0,0,-1,1987,1828,0,0
770,-804,0,0,0,0,0,0,0,0,0,-1,1994,1828,0,0
777,-804,0,0,0,0,0,0,0,0,0,-1,2001,1828,0,0
784,-804,0,0,0,0,0,0,0,0,0,-1,2008,1828,0,0
791,-804,0,0,0,0,0,0,0,0,0,-1,2015,1828,0,0
798,-804,0,0,0,0,0,0,0,0,0,-1,2022,1828,0,0
805,-804,0,0,0,0,0,0,0,0,0,-1,2029,1828,0,0
812,-804,0,0,0,0,0,0,0,0,0,-1,2036,1828,0,0

