 "x_c",  "y_c",  "u_c",  "v_c",  "exx",  "eyy",  "exy",  "e1",  "e2",  "gamma",  "e_vonmises",  "sigma",  "x",  "y",  "u",  "v"
-700,715,0,0,0,0,0,0,0,0,0,-1,524,309,0,0
-693,715,0,0,0,0,0,0,0,0,0,-1,531,309,0,0
-686,715,0,0,0,0,0,0,0,0,0,-1,538,309,0,0
-679,715,0,0,0,0,0,0,0,0,0,-1,545,309,0,0
-672,715,0,0,0,0,0,0,0,0,0,-1,552,309,0,0
-665,715,0,0,0,0,0,0,0,0,0,-1,559,309,0,0
-658,715,0,0,0,0,0,0,0,0,0,-1,566,309,0,0
-651,715,0,0,0,0,0,0,0,0,0,-1,573,309,0,0
-644,715,0,0,0,0,0,0,0,0,0,-1,580,309,0,0
-637,715,0,0,0,0,0,0,0,0,0,-1,587,309,0,0
-630,715,0,0,0,0,0,0,0,0,0,-1,594,309,0,0
-623,715,0,0,0,0,0,0,0,0,0,-1,601,309,0,0
-616,715,0,0,0,0,0,0,0,0,0,-1,608,309,0,0
-609,715,0,0,0,0,0,0,0,0,0,-1,615,309,0,0
-602,715,0,0,0,0,0,0,0,0,0,-1,622,309,0,0
-595,715,0,0,0,0,0,0,0,0,0,-1,629,309,0,0
-588,715,0,0,0,0,0,0,0,0,0,-1,636,309,0,0
-581,715,0,0,0,0,0,0,0,0,0,-1,643,309,0,0
-574,715,0,0,0,0,0,0,0,0,0,-1,650,309,0,0
-567,715,0,0,0,0,0,0,0,0,0,-1,657,309,0,0
-560,715,0,0,0,0,0,0,0,0,0,-1,664,309,0,0
-553,715,0,0,0,0,0,0,0,0,0,-1,671,309,0,0
-546,715,0,0,0,0,0,0,0,0,0,-1,678,309,0,0
-539,715,0,0,0,0,0,0,0,0,0,-1,685,309,0,0
-532,715,0,0,0,0,0,0,0,0,0,-1,692,309,0,0
-525,715,0,0,0,0,0,0,0,0,0,-1,699,309,0,0
-518,715,0,0,0,0,0,0,0,0,0,-1,706,309,0,0
-511,715,0,0,0,0,0,0,0,0,0,-1,713,309,0,0
-504,715,0,0,0,0,0,0,0,0,0,-1,720,309,0,0
-497,715,0,0,0,0,0,0,0,0,0,-1,727,309,0,0
-490,715,0,0,0,0,0,0,0,0,0,-1,734,309,0,0
-483,715,0,0,0,0,0,0,0,0,0,-1,741,309,0,0
-476,715,0,0,0,0,0,0,0,0,0,-1,748,309,0,0
-469,715,0,0,0,0,0,0,0,0,0,-1,755,309,0,0
-462,715,0,0,0,0,0,0,0,0,0,-1,762,309,0,0
-455,715,0,0,0,0,0,0,0,0,0,-1,769,309,0,0
-448,715,0,0,0,0,0,0,0,0,0,-1,776,309,0,0
-441,715,0,0,0,0,0,0,0,0,0,-1,783,309,0,0
-434,715,0,0,0,0,0,0,0,0,0,-1,790,309,0,0
-427,715,0,0,0,0,0,0,0,0,0,-1,797,309,0,0
-420,715,0,0,0,0,0,0,0,0,0,-1,804,309,0,0
-413,715,0,0,0,0,0,0,0,0,0,-1,811,309,0,0
-406,715,0,0,0,0,0,0,0,0,0,-1,818,309,0,0
-399,715,0,0,0,0,0,0,0,0,0,-1,825,309,0,0
-392,715,0,0,0,0,0,0,0,0,0,-1,832,309,0,0
-385,715,0,0,0,0,0,0,0,0,0,-1,839,309,0,0
-378,715,0,0,0,0,0,0,0,0,0,-1,846,309,0,0
-371,715,0,0,0,0,0,0,0,0,0,-1,853,309,0,0
-364,715,0,0,0,0,0,0,0,0,0,-1,860,309,0,0
-357,715,0,0,0,0,0,0,0,0,0,-1,867,309,0,0
-350,715,0,0,0,0,0,0,0,0,0,-1,874,309,0,0
-343,715,0,0,0,0,0,0,0,0,0,-1,881,309,0,0
-336,715,0,0,0,0,0,0,0,0,0,-1,888,309,0,0
-329,715,0,0,0,0,0,0,0,0,0,-1,895,309,0,0
-322,715,0,0,0,0,0,0,0,0,0,-1,902,309,0,0
-315,715,0,0,0,0,0,0,0,0,0,-1,909,309,0,0
-308,715,0,0,0,0,0,0,0,0,0,-1,916,309,0,0
-301,715,0,0,0,0,0,0,0,0,0,-1,923,309,0,0
-294,715,0,0,0,0,0,0,0,0,0,-1,930,309,0,0
-287,715,0,0,0,0,0,0,0,0,0,-1,937,309,0,0
-280,715,0,0,0,0,0,0,0,0,0,-1,944,309,0,0
-273,715,0,0,0,0,0,0,0,0,0,-1,951,309,0,0
-266,715,0,0,0,0,0,0,0,0,0,-1,958,309,0,0
-259,715,0,0,0,0,0,0,0,0,0,-1,965,309,0,0
-252,715,0,0,0,0,0,0,0,0,0,-1,972,309,0,0
-245,715,0,0,0,0,0,0,0,0,0,-1,979,309,0,0
-238,715,0,0,0,0,0,0,0,0,0,-1,986,309,0,0
-231,715,0,0,0,0,0,0,0,0,0,-1,993,309,0,0
-224,715,0,0,0,0,0,0,0,0,0,-1,1000,309,0,0
-217,715,0,0,0,0,0,0,0,0,0,-1,1007,309,0,0
-210,715,0,0,0,0,0,0,0,0,0,-1,1014,309,0,0
-203,715,0,0,0,0,0,0,0,0,0,-1,1021,309,0,0
-196,715,0,0,0,0,0,0,0,0,0,-1,1028,309,0,0
-189,715,0,0,0,0,0,0,0,0,0,-1,1035,309,0,0
-182,715,0,0,0,0,0,0,0,0,0,-1,1042,309,0,0
-175,715,0,0,0,0,0,0,0,0,0,-1,1049,309,0,0
-168,715,0,0,0,0,0,0,0,0,0,-1,1056,309,0,0
-161,715,0,0,0,0,0,0,0,0,0,-1,1063,309,0,0
-154,715,0,0,0,0,0,0,0,0,0,-1,1070,309,0,0
-147,715,0,0,0,0,0,0,0,0,0,-1,1077,309,0,0
-140,715,0,0,0,0,0,0,0,0,0,-1,1084,309,0,0
-133,715,0,0,0,0,0,0,0,0,0,-1,1091,309,0,0
-126,715,0,0,0,0,0,0,0,0,0,-1,1098,309,0,0
-119,715,0,0,0,0,0,0,0,0,0,-1,1105,309,0,0
-112,715,0,0,0,0,0,0,0,0,0,-1,1112,309,0,0
-105,715,0,0,0,0,0,0,0,0,0,-1,1119,309,0,0
-98,715,0,0,0,0,0,0,0,0,0,-1,1126,309,0,0
-91,715,0,0,0,0,0,0,0,0,0,-1,1133,309,0,0
-84,715,0,0,0,0,0,0,0,0,0,-1,1140,309,0,0
-77,715,0,0,0,0,0,0,0,0,0,-1,1147,309,0,0
-70,715,0,0,0,0,0,0,0,0,0,-1,1154,309,0,0
-63,715,0,0,0,0,0,0,0,0,0,-1,1161,309,0,0
-56,715,0,0,0,0,0,0,0,0,0,-1,1168,309,0,0
-49,715,0,0,0,0,0,0,0,0,0,-1,1175,309,0,0
-42,715,0,0,0,0,0,0,0,0,0,-1,1182,309,0,0
-35,715,0,0,0,0,0,0,0,0,0,-1,1189,309,0,0
-28,715,0,0,0,0,0,0,0,0,0,-1,1196,309,0,0
-21,715,0,0,0,0,0,0,0,0,0,-1,1203,309,0,0
-14,715,0,0,0,0,0,0,0,0,0,-1,1210,309,0,0
-7,715,0,0,0,0,0,0,0,0,0,-1,1217,309,0,0
0,715,0,0,0,0,0,0,0,0,0,-1,1224,309,0,0
7,715,0,0,0,0,0,0,0,0,0,-1,1231,309,0,0
14,715,0,0,0,0,0,0,0,0,0,-1,1238,309,0,0
21,715,0,0,0,0,0,0,0,0,0,-1,1245,309,0,0
28,715,0,0,0,0,0,0,0,0,0,-1,1252,309,0,0
35,715,0,0,0,0,0,0,0,0,0,-1,1259,309,0,0
42,715,0,0,0,0,0,0,0,0,0,-1,1266,309,0,0
49,715,0,0,0,0,0,0,0,0,0,-1,1273,309,0,0
56,715,0,0,0,0,0,0,0,0,0,-1,1280,309,0,0
63,715,3.56335,-26.603,0,0,0,0,0,0,0,-1,1287,309,3.56332,26.603
70,715,2.6665,-26.1266,0,0,0,0,0,0,0,-1,1294,309,2.66649,26.1267
77,715,0,0,0,0,0,0,0,0,0,-1,1301,309,0,0
84,715,0,0,0,0,0,0,0,0,0,-1,1308,309,0,0
91,715,0,0,0,0,0,0,0,0,0,-1,1315,309,0,0
98,715,0,0,0,0,0,0,0,0,0,-1,1322,309,0,0
105,715,0,0,0,0,0,0,0,0,0,-1,1329,309,0,0
112,715,0,0,0,0,0,0,0,0,0,-1,1336,309,0,0
119,715,0,0,0,0,0,0,0,0,0,-1,1343,309,0,0
126,715,0,0,0,0,0,0,0,0,0,-1,1350,309,0,0
133,715,0,0,0,0,0,0,0,0,0,-1,1357,309,0,0
140,715,0,0,0,0,0,0,0,0,0,-1,1364,309,0,0
147,715,0,0,0,0,0,0,0,0,0,-1,1371,309,0,0
154,715,0,0,0,0,0,0,0,0,0,-1,1378,309,0,0
161,715,0,0,0,0,0,0,0,0,0,-1,1385,309,0,0
168,715,0,0,0,0,0,0,0,0,0,-1,1392,309,0,0
175,715,0,0,0,0,0,0,0,0,0,-1,1399,309,0,0
182,715,0,0,0,0,0,0,0,0,0,-1,1406,309,0,0
189,715,0,0,0,0,0,0,0,0,0,-1,1413,309,0,0
196,715,0,0,0,0,0,0,0,0,0,-1,1420,309,0,0
203,715,0,0,0,0,0,0,0,0,0,-1,1427,309,0,0
210,715,0,0,0,0,0,0,0,0,0,-1,1434,309,0,0
217,715,0,0,0,0,0,0,0,0,0,-1,1441,309,0,0
224,715,0,0,0,0,0,0,0,0,0,-1,1448,309,0,0
231,715,0,0,0,0,0,0,0,0,0,-1,1455,309,0,0
238,715,0,0,0,0,0,0,0,0,0,-1,1462,309,0,0
245,715,0,0,0,0,0,0,0,0,0,-1,1469,309,0,0
252,715,0,0,0,0,0,0,0,0,0,-1,1476,309,0,0
259,715,0,0,0,0,0,0,0,0,0,-1,1483,309,0,0
266,715,0,0,0,0,0,0,0,0,0,-1,1490,309,0,0
273,715,0,0,0,0,0,0,0,0,0,-1,1497,309,0,0
280,715,0,0,0,0,0,0,0,0,0,-1,1504,309,0,0
287,715,0,0,0,0,0,0,0,0,0,-1,1511,309,0,0
294,715,0,0,0,0,0,0,0,0,0,-1,1518,309,0,0
301,715,0,0,0,0,0,0,0,0,0,-1,1525,309,0,0
308,715,0,0,0,0,0,0,0,0,0,-1,1532,309,0,0
315,715,0,0,0,0,0,0,0,0,0,-1,1539,309,0,0
322,715,0,0,0,0,0,0,0,0,0,-1,1546,309,0,0
329,715,0,0,0,0,0,0,0,0,0,-1,1553,309,0,0
336,715,0,0,0,0,0,0,0,0,0,-1,1560,309,0,0
343,715,0,0,0,0,0,0,0,0,0,-1,1567,309,0,0
350,715,0,0,0,0,0,0,0,0,0,-1,1574,309,0,0
357,715,0,0,0,0,0,0,0,0,0,-1,1581,309,0,0
364,715,0,0,0,0,0,0,0,0,0,-1,1588,309,0,0
371,715,0,0,0,0,0,0,0,0,0,-1,1595,309,0,0
378,715,0,0,0,0,0,0,0,0,0,-1,1602,309,0,0
385,715,0,0,0,0,0,0,0,0,0,-1,1609,309,0,0
392,715,0,0,0,0,0,0,0,0,0,-1,1616,309,0,0
399,715,0,0,0,0,0,0,0,0,0,-1,1623,309,0,0
406,715,0,0,0,0,0,0,0,0,0,-1,1630,309,0,0
413,715,0,0,0,0,0,0,0,0,0,-1,1637,309,0,0
420,715,0,0,0,0,0,0,0,0,0,-1,1644,309,0,0
427,715,0,0,0,0,0,0,0,0,0,-1,1651,309,0,0
434,715,0,0,0,0,0,0,0,0,0,-1,1658,309,0,0
441,715,0,0,0,0,0,0,0,0,0,-1,1665,309,0,0
448,715,0,0,0,0,0,0,0,0,0,-1,1672,309,0,0
455,715,0,0,0,0,0,0,0,0,0,-1,1679,309,0,0
462,715,0,0,0,0,0,0,0,0,0,-1,1686,309,0,0
469,715,0,0,0,0,0,0,0,0,0,-1,1693,309,0,0
476,715,0,0,0,0,0,0,0,0,0,-1,1700,309,0,0
483,715,0,0,0,0,0,0,0,0,0,-1,1707,309,0,0
490,715,0,0,0,0,0,0,0,0,0,-1,1714,309,0,0
497,715,0,0,0,0,0,0,0,0,0,-1,1721,309,0,0
504,715,0,0,0,0,0,0,0,0,0,-1,1728,309,0,0
511,715,0,0,0,0,0,0,0,0,0,-1,1735,309,0,0
518,715,0,0,0,0,0,0,0,0,0,-1,1742,309,0,0
525,715,0,0,0,0,0,0,0,0,0,-1,1749,309,0,0
532,715,0,0,0,0,0,0,0,0,0,-1,1756,309,0,0
539,715,0,0,0,0,0,0,0,0,0,-1,1763,309,0,0
546,715,0,0,0,0,0,0,0,0,0,-1,1770,309,0,0
553,715,0,0,0,0,0,0,0,0,0,-1,1777,309,0,0
560,715,0,0,0,0,0,0,0,0,0,-1,1784,309,0,0
567,715,0,0,0,0,0,0,0,0,0,-1,1791,309,0,0
574,715,0,0,0,0,0,0,0,0,0,-1,1798,309,0,0
581,715,0,0,0,0,0,0,0,0,0,-1,1805,309,0,0
588,715,0,0,0,0,0,0,0,0,0,-1,1812,309,0,0
595,715,0,0,0,0,0,0,0,0,0,-1,1819,309,0,0
602,715,0,0,0,0,0,0,0,0,0,-1,1826,309,0,0
609,715,0,0,0,0,0,0,0,0,0,-1,1833,309,0,0
616,715,0,0,0,0,0,0,0,0,0,-1,1840,309,0,0
623,715,0,0,0,0,0,0,0,0,0,-1,1847,309,0,0
630,715,0,0,0,0,0,0,0,0,0,-1,1854,309,0,0
637,715,0,0,0,0,0,0,0,0,0,-1,1861,309,0,0
644,715,0,0,0,0,0,0,0,0,0,-1,1868,309,0,0
651,715,0,0,0,0,0,0,0,0,0,-1,1875,309,0,0
658,715,0,0,0,0,0,0,0,0,0,-1,1882,309,0,0
665,715,0,0,0,0,0,0,0,0,0,-1,1889,309,0,0
672,715,0,0,0,0,0,0,0,0,0,-1,1896,309,0,0
679,715,0,0,0,0,0,0,0,0,0,-1,1903,309,0,0
686,715,0,0,0,0,0,0,0,0,0,-1,1910,309,0,0
693,715,0,0,0,0,0,0,0,0,0,-1,1917,309,0,0
700,715,0,0,0,0,0,0,0,0,0,-1,1924,309,0,0
707,715,0,0,0,0,0,0,0,0,0,-1,1931,309,0,0
714,715,0,0,0,0,0,0,0,0,0,-1,1938,309,0,0
721,715,0,0,0,0,0,0,0,0,0,-1,1945,309,0,0
728,715,0,0,0,0,0,0,0,0,0,-1,1952,309,0,0
735,715,0,0,0,0,0,0,0,0,0,-1,1959,309,0,0
742,715,0,0,0,0,0,0,0,0,0,-1,1966,309,0,0
749,715,0,0,0,0,0,0,0,0,0,-1,1973,309,0,0
756,715,0,0,0,0,0,0,0,0,0,-1,1980,309,0,0
763,715,0,0,0,0,0,0,0,0,0,-1,1987,309,0,0
770,715,0,0,0,0,0,0,0,0,0,-1,1994,309,0,0
777,715,0,0,0,0,0,0,0,0,0,-1,2001,309,0,0
784,715,0,0,0,0,0,0,0,0,0,-1,2008,309,0,0
791,715,0,0,0,0,0,0,0,0,0,-1,2015,309,0,0
798,715,0,0,0,0,0,0,0,0,0,-1,2022,309,0,0
805,715,0,0,0,0,0,0,0,0,0,-1,2029,309,0,0
812,715,0,0,0,0,0,0,0,0,0,-1,2036,309,0,0
-700,708,0,0,0,0,0,0,0,0,0,-1,524,316,0,0
-693,708,0,0,0,0,0,0,0,0,0,-1,531,316,0,0
-686,708,0,0,0,0,0,0,0,0,0,-1,538,316,0,0
-679,708,0,0,0,0,0,0,0,0,0,-1,545,316,0,0
-672,708,0,0,0,0,0,0,0,0,0,-1,552,316,0,0
-665,708,0,0,0,0,0,0,0,0,0,-1,559,316,0,0
-658,708,0,0,0,0,0,0,0,0,0,-1,566,316,0,0
-651,708,0,0,0,0,0,0,0,0,0,-1,573,316,0,0
-644,708,0,0,0,0,0,0,0,0,0,-1,580,316,0,0
-637,708,0,0,0,0,0,0,0,0,0,-1,587,316,0,0
-630,708,0,0,0,0,0,0,0,0,0,-1,594,316,0,0
-623,708,0,0,0,0,0,0,0,0,0,-1,601,316,0,0
-616,708,0,0,0,0,0,0,0,0,0,-1,608,316,0,0
-609,708,0,0,0,0,0,0,0,0,0,-1,615,316,0,0
-602,708,0,0,0,0,0,0,0,0,0,-1,622,316,0,0
-595,708,0,0,0,0,0,0,0,0,0,-1,629,316,0,0
-588,708,0,0,0,0,0,0,0,0,0,-1,636,316,0,0
-581,708,0,0,0,0,0,0,0,0,0,-1,643,316,0,0
-574,708,0,0,0,0,0,0,0,0,0,-1,650,316,0,0
-567,708,0,0,0,0,0,0,0,0,0,-1,657,316,0,0
-560,708,0,0,0,0,0,0,0,0,0,-1,664,316,0,0
-553,708,0,0,0,0,0,0,0,0,0,-1,671,316,0,0
-546,708,0,0,0,0,0,0,0,0,0,-1,678,316,0,0
-539,708,0,0,0,0,0,0,0,0,0,-1,685,316,0,0
-532,708,0,0,0,0,0,0,0,0,0,-1,692,316,0,0
-525,708,0,0,0,0,0,0,0,0,0,-1,699,316,0,0
-518,708,0,0,0,0,0,0,0,0,0,-1,706,316,0,0
-511,708,0,0,0,0,0,0,0,0,0,-1,713,316,0,0
-504,708,0,0,0,0,0,0,0,0,0,-1,720,316,0,0
-497,708,0,0,0,0,0,0,0,0,0,-1,727,316,0,0
-490,708,0,0,0,0,0,0,0,0,0,-1,734,316,0,0
-483,708,0,0,0,0,0,0,0,0,0,-1,741,316,0,0
-476,708,0,0,0,0,0,0,0,0,0,-1,748,316,0,0
-469,708,0,0,0,0,0,0,0,0,0,-1,755,316,0,0
-462,708,0,0,0,0,0,0,0,0,0,-1,762,316,0,0
-455,708,0,0,0,0,0,0,0,0,0,-1,769,316,0,0
-448,708,0,0,0,0,0,0,0,0,0,-1,776,316,0,0
-441,708,0,0,0,0,0,0,0,0,0,-1,783,316,0,0
-434,708,0,0,0,0,0,0,0,0,0,-1,790,316,0,0
-427,708,0,0,0,0,0,0,0,0,0,-1,797,316,0,0
-420,708,0,0,0,0,0,0,0,0,0,-1,804,316,0,0
-413,708,0,0,0,0,0,0,0,0,0,-1,811,316,0,0
-406,708,0,0,0,0,0,0,0,0,0,-1,818,316,0,0
-399,708,0,0,0,0,0,0,0,0,0,-1,825,316,0,0
-392,708,0,0,0,0,0,0,0,0,0,-1,832,316,0,0
-385,708,0,0,0,0,0,0,0,0,0,-1,839,316,0,0
-378,708,0,0,0,0,0,0,0,0,0,-1,846,316,0,0
-371,708,0,0,0,0,0,0,0,0,0,-1,853,316,0,0
-364,708,0,0,0,0,0,0,0,0,0,-1,860,316,0,0
-357,708,0,0,0,0,0,0,0,0,0,-1,867,316,0,0
-350,708,0,0,0,0,0,0,0,0,0,-1,874,316,0,0
-343,708,0,0,0,0,0,0,0,0,0,-1,881,316,0,0
-336,708,0,0,0,0,0,0,0,0,0,-1,888,316,0,0
-329,708,0,0,0,0,0,0,0,0,0,-1,895,316,0,0
-322,708,0,0,0,0,0,0,0,0,0,-1,902,316,0,0
-315,708,0,0,0,0,0,0,0,0,0,-1,909,316,0,0
-308,708,0,0,0,0,0,0,0,0,0,-1,916,316,0,0
-301,708,0,0,0,0,0,0,0,0,0,-1,923,316,0,0
-294,708,0,0,0,0,0,0,0,0,0,-1,930,316,0,0
-287,708,0,0,0,0,0,0,0,0,0,-1,937,316,0,0
-280,708,0,0,0,0,0,0,0,0,0,-1,944,316,0,0
-273,708,0,0,0,0,0,0,0,0,0,-1,951,316,0,0
-266,708,0,0,0,0,0,0,0,0,0,-1,958,316,0,0
-259,708,0,0,0,0,0,0,0,0,0,-1,965,316,0,0
-252,708,0,0,0,0,0,0,0,0,0,-1,972,316,0,0
-245,708,0,0,0,0,0,0,0,0,0,-1,979,316,0,0
-238,708,0,0,0,0,0,0,0,0,0,-1,986,316,0,0
-231,708,0,0,0,0,0,0,0,0,0,-1,993,316,0,0
-224,708,0,0,0,0,0,0,0,0,0,-1,1000,316,0,0
-217,708,0,0,0,0,0,0,0,0,0,-1,1007,316,0,0
-210,708,0,0,0,0,0,0,0,0,0,-1,1014,316,0,0
-203,708,0,0,0,0,0,0,0,0,0,-1,1021,316,0,0
-196,708,0,0,0,0,0,0,0,0,0,-1,1028,316,0,0
-189,708,0,0,0,0,0,0,0,0,0,-1,1035,316,0,0
-182,708,0,0,0,0,0,0,0,0,0,-1,1042,316,0,0
-175,708,0,0,0,0,0,0,0,0,0,-1,1049,316,0,0
-168,708,0,0,0,0,0,0,0,0,0,-1,1056,316,0,0
-161,708,0,0,0,0,0,0,0,0,0,-1,1063,316,0,0
-154,708,0,0,0,0,0,0,0,0,0,-1,1070,316,0,0
-147,708,0,0,0,0,0,0,0,0,0,-1,1077,316,0,0
-140,708,0,0,0,0,0,0,0,0,0,-1,1084,316,0,0
-133,708,0,0,0,0,0,0,0,0,0,-1,1091,316,0,0
-126,708,0,0,0,0,0,0,0,0,0,-1,1098,316,0,0
-119,708,0,0,0,0,0,0,0,0,0,-1,1105,316,0,0
-112,708,0,0,0,0,0,0,0,0,0,-1,1112,316,0,0
-105,708,0,0,0,0,0,0,0,0,0,-1,1119,316,0,0
-98,708,0,0,0,0,0,0,0,0,0,-1,1126,316,0,0
-91,708,0,0,0,0,0,0,0,0,0,-1,1133,316,0,0
-84,708,0,0,0,0,0,0,0,0,0,-1,1140,316,0,0
-77,708,0,0,0,0,0,0,0,0,0,-1,1147,316,0,0
-70,708,0,0,0,0,0,0,0,0,0,-1,1154,316,0,0
-63,708,0,0,0,0,0,0,0,0,0,-1,1161,316,0,0
-56,708,0,0,0,0,0,0,0,0,0,-1,1168,316,0,0
-49,708,0,0,0,0,0,0,0,0,0,-1,1175,316,0,0
-42,708,0,0,0,0,0,0,0,0,0,-1,1182,316,0,0
-35,708,-2.71204,-6.31558,0,0,0,0,0,0,0,-1,1189,316,-2.712,6.3156
-28,708,-2.92371,-5.53253,0,0,0,0,0,0,0,-1,1196,316,-2.92375,5.53254
-21,708,-0.417969,-24.5911,0,0,0,0,0,0,0,-1,1203,316,-0.418022,24.5911
-14,708,1.20435,-24.5539,0,0,0,0,0,0,0,-1,1210,316,1.20435,24.5539
-7,708,1.41797,-25.729,0.0458371,0.0588941,-0.0872657,0.139875,-0.0351439,-0.822734,0.106908,0.0478326,1217,316,1.41799,25.729
0,708,1.44836,-26.8181,0,0,0,0,0,0,0,-1,1224,316,1.44831,26.8181
7,708,1.56274,-27.7037,0.0301844,0.0539046,-0.0831219,0.126008,-0.0419193,-0.856261,0.100923,0.0411773,1231,316,1.56271,27.7037
14,708,1.89221,-28.4585,0.0240432,0.0522428,-0.0761459,0.115583,-0.0392973,-0.876945,0.0929657,0.0392635,1238,316,1.89225,28.4585
21,708,2.2854,-28.5398,0.0187555,0.0524651,-0.0666896,0.104397,-0.0331761,-0.909174,0.0828998,0.0392126,1245,316,2.28544,28.5398
28,708,2.39685,-28.6705,0.0144035,0.054039,-0.0560083,0.0936323,-0.0251898,-0.955442,0.072296,0.0434707,1252,316,2.39686,28.6705
35,708,2.33594,-28.8187,0.0120565,0.0595855,-0.0448674,0.0865934,-0.0149514,-1.02895,0.063304,0.0438113,1259,316,2.33599,28.8187
42,708,2.44556,-28.9706,0.011806,0.0686452,-0.0346083,0.0850074,-0.00455624,-1.12916,0.0582498,0.0455934,1266,316,2.44556,28.9707
49,708,2.61401,-29.4013,0.013563,0.0790648,-0.0251753,0.0876227,0.00500506,-1.24312,0.0568203,0.0445697,1273,316,2.61403,29.4014
56,708,3.06677,-27.4712,0.0186279,0.0946419,-0.0185486,0.0989265,0.0143433,-1.34378,0.0617279,0.0450237,1280,316,3.06674,27.4712
63,708,3.09851,-27.2156,0.0243635,0.109245,-0.0115499,0.110788,0.02282,-1.43794,0.0675496,0.0451702,1287,316,3.09849,27.2156
70,708,2.85742,-26.7709,0.0291825,0.127133,-0.00707401,0.127641,0.0286743,-1.49907,0.0773289,0.0465827,1294,316,2.85738,26.7709
77,708,2.9248,-26.5854,0,0,0,0,0,0,0,-1,1301,316,2.92481,26.5854
84,708,4.64624,-20.4832,0.0395705,0.159321,-0.00408068,0.15946,0.0394316,-1.53677,0.0959042,0.0441108,1308,316,4.64622,20.4832
91,708,4.88074,-21.3446,0.0454769,0.172913,-0.00329711,0.172998,0.0453916,-1.54495,0.103572,0.0461673,1315,316,4.88072,21.3446
98,708,5.09216,-22.1813,0,0,0,0,0,0,0,-1,1322,316,5.09212,22.1813
105,708,5.99109,-22.4781,0.0492695,0.193622,-0.00505859,0.193799,0.0490925,-1.53581,0.11634,0.0490787,1329,316,5.99105,22.4782
112,708,6.95532,-23.0264,0.0473667,0.195136,-0.00470418,0.195285,0.0472171,-1.539,0.117653,0.0473426,1336,316,6.95529,23.0264
119,708,7.5741,-23.5152,0,0,0,0,0,0,0,-1,1343,316,7.57404,23.5152
126,708,3.89856,-25.5037,0,0,0,0,0,0,0,-1,1350,316,3.89855,25.5037
133,708,3.72449,-25.086,0,0,0,0,0,0,0,-1,1357,316,3.72453,25.086
140,708,3.56689,-24.7008,0,0,0,0,0,0,0,-1,1364,316,3.56692,24.7008
147,708,3.69531,-23.4325,0,0,0,0,0,0,0,-1,1371,316,3.69532,23.4325
154,708,0,0,0,0,0,0,0,0,0,-1,1378,316,0,0
161,708,0,0,0,0,0,0,0,0,0,-1,1385,316,0,0
168,708,0,0,0,0,0,0,0,0,0,-1,1392,316,0,0
175,708,0,0,0,0,0,0,0,0,0,-1,1399,316,0,0
182,708,0,0,0,0,0,0,0,0,0,-1,1406,316,0,0
189,708,0,0,0,0,0,0,0,0,0,-1,1413,316,0,0
196,708,0,0,0,0,0,0,0,0,0,-1,1420,316,0,0
203,708,0,0,0,0,0,0,0,0,0,-1,1427,316,0,0
210,708,0,0,0,0,0,0,0,0,0,-1,1434,316,0,0
217,708,0,0,0,0,0,0,0,0,0,-1,1441,316,0,0
224,708,0,0,0,0,0,0,0,0,0,-1,1448,316,0,0
231,708,0,0,0,0,0,0,0,0,0,-1,1455,316,0,0
238,708,0,0,0,0,0,0,0,0,0,-1,1462,316,0,0
245,708,0,0,0,0,0,0,0,0,0,-1,1469,316,0,0
252,708,0,0,0,0,0,0,0,0,0,-1,1476,316,0,0
259,708,0,0,0,0,0,0,0,0,0,-1,1483,316,0,0
266,708,0,0,0,0,0,0,0,0,0,-1,1490,316,0,0
273,708,0,0,0,0,0,0,0,0,0,-1,1497,316,0,0
280,708,0,0,0,0,0,0,0,0,0,-1,1504,316,0,0
287,708,0,0,0,0,0,0,0,0,0,-1,1511,316,0,0
294,708,0,0,0,0,0,0,0,0,0,-1,1518,316,0,0
301,708,0,0,0,0,0,0,0,0,0,-1,1525,316,0,0
308,708,0,0,0,0,0,0,0,0,0,-1,1532,316,0,0
315,708,0,0,0,0,0,0,0,0,0,-1,1539,316,0,0
322,708,0,0,0,0,0,0,0,0,0,-1,1546,316,0,0
329,708,0,0,0,0,0,0,0,0,0,-1,1553,316,0,0
336,708,0,0,0,0,0,0,0,0,0,-1,1560,316,0,0
343,708,0,0,0,0,0,0,0,0,0,-1,1567,316,0,0
350,708,0,0,0,0,0,0,0,0,0,-1,1574,316,0,0
357,708,0,0,0,0,0,0,0,0,0,-1,1581,316,0,0
364,708,0,0,0,0,0,0,0,0,0,-1,1588,316,0,0
371,708,0,0,0,0,0,0,0,0,0,-1,1595,316,0,0
378,708,0,0,0,0,0,0,0,0,0,-1,1602,316,0,0
385,708,0,0,0,0,0,0,0,0,0,-1,1609,316,0,0
392,708,0,0,0,0,0,0,0,0,0,-1,1616,316,0,0
399,708,0,0,0,0,0,0,0,0,0,-1,1623,316,0,0
406,708,0,0,0,0,0,0,0,0,0,-1,1630,316,0,0
413,708,0,0,0,0,0,0,0,0,0,-1,1637,316,0,0
420,708,0,0,0,0,0,0,0,0,0,-1,1644,316,0,0
427,708,0,0,0,0,0,0,0,0,0,-1,1651,316,0,0
434,708,0,0,0,0,0,0,0,0,0,-1,1658,316,0,0
441,708,0,0,0,0,0,0,0,0,0,-1,1665,316,0,0
448,708,0,0,0,0,0,0,0,0,0,-1,1672,316,0,0
455,708,0,0,0,0,0,0,0,0,0,-1,1679,316,0,0
462,708,0,0,0,0,0,0,0,0,0,-1,1686,316,0,0
469,708,0,0,0,0,0,0,0,0,0,-1,1693,316,0,0
476,708,0,0,0,0,0,0,0,0,0,-1,1700,316,0,0
483,708,0,0,0,0,0,0,0,0,0,-1,1707,316,0,0
490,708,0,0,0,0,0,0,0,0,0,-1,1714,316,0,0
497,708,0,0,0,0,0,0,0,0,0,-1,1721,316,0,0
504,708,0,0,0,0,0,0,0,0,0,-1,1728,316,0,0
511,708,0,0,0,0,0,0,0,0,0,-1,1735,316,0,0
518,708,0,0,0,0,0,0,0,0,0,-1,1742,316,0,0
525,708,0,0,0,0,0,0,0,0,0,-1,1749,316,0,0
532,708,0,0,0,0,0,0,0,0,0,-1,1756,316,0,0
539,708,0,0,0,0,0,0,0,0,0,-1,1763,316,0,0
546,708,0,0,0,0,0,0,0,0,0,-1,1770,316,0,0
553,708,0,0,0,0,0,0,0,0,0,-1,1777,316,0,0
560,708,0,0,0,0,0,0,0,0,0,-1,1784,316,0,0
567,708,0,0,0,0,0,0,0,0,0,-1,1791,316,0,0
574,708,0,0,0,0,0,0,0,0,0,-1,1798,316,0,0
581,708,0,0,0,0,0,0,0,0,0,-1,1805,316,0,0
588,708,0,0,0,0,0,0,0,0,0,-1,1812,316,0,0
595,708,0,0,0,0,0,0,0,0,0,-1,1819,316,0,0
602,708,0,0,0,0,0,0,0,0,0,-1,1826,316,0,0
609,708,0,0,0,0,0,0,0,0,0,-1,1833,316,0,0
616,708,0,0,0,0,0,0,0,0,0,-1,1840,316,0,0
623,708,0,0,0,0,0,0,0,0,0,-1,1847,316,0,0
630,708,0,0,0,0,0,0,0,0,0,-1,1854,316,0,0
637,708,0,0,0,0,0,0,0,0,0,-1,1861,316,0,0
644,708,0,0,0,0,0,0,0,0,0,-1,1868,316,0,0
651,708,0,0,0,0,0,0,0,0,0,-1,1875,316,0,0
658,708,0,0,0,0,0,0,0,0,0,-1,1882,316,0,0
665,708,0,0,0,0,0,0,0,0,0,-1,1889,316,0,0
672,708,0,0,0,0,0,0,0,0,0,-1,1896,316,0,0
679,708,0,0,0,0,0,0,0,0,0,-1,1903,316,0,0
686,708,0,0,0,0,0,0,0,0,0,-1,1910,316,0,0
693,708,0,0,0,0,0,0,0,0,0,-1,1917,316,0,0
700,708,0,0,0,0,0,0,0,0,0,-1,1924,316,0,0
707,708,0,0,0,0,0,0,0,0,0,-1,1931,316,0,0
714,708,0,0,0,0,0,0,0,0,0,-1,1938,316,0,0
721,708,0,0,0,0,0,0,0,0,0,-1,1945,316,0,0
728,708,0,0,0,0,0,0,0,0,0,-1,1952,316,0,0
735,708,0,0,0,0,0,0,0,0,0,-1,1959,316,0,0
742,708,0,0,0,0,0,0,0,0,0,-1,1966,316,0,0
749,708,0,0,0,0,0,0,0,0,0,-1,1973,316,0,0
756,708,0,0,0,0,0,0,0,0,0,-1,1980,316,0,0
763,708,0,0,0,0,0,0,0,0,0,-1,1987,316,0,0
770,708,0,0,0,0,0,0,0,0,0,-1,1994,316,0,0
777,708,0,0,0,0,0,0,0,0,0,-1,2001,316,0,0
784,708,0,0,0,0,0,0,0,0,0,-1,2008,316,0,0
791,708,0,0,0,0,0,0,0,0,0,-1,2015,316,0,0
798,708,0,0,0,0,0,0,0,0,0,-1,2022,316,0,0
805,708,0,0,0,0,0,0,0,0,0,-1,2029,316,0,0
812,708,0,0,0,0,0,0,0,0,0,-1,2036,316,0,0
-700,701,0,0,0,0,0,0,0,0,0,-1,524,323,0,0
-693,701,0,0,0,0,0,0,0,0,0,-1,531,323,0,0
-686,701,0,0,0,0,0,0,0,0,0,-1,538,323,0,0
-679,701,0,0,0,0,0,0,0,0,0,-1,545,323,0,0
-672,701,0,0,0,0,0,0,0,0,0,-1,552,323,0,0
-665,701,0,0,0,0,0,0,0,0,0,-1,559,323,0,0
-658,701,0,0,0,0,0,0,0,0,0,-1,566,323,0,0
-651,701,0,0,0,0,0,0,0,0,0,-1,573,323,0,0
-644,701,0,0,0,0,0,0,0,0,0,-1,580,323,0,0
-637,701,0,0,0,0,0,0,0,0,0,-1,587,323,0,0
-630,701,0,0,0,0,0,0,0,0,0,-1,594,323,0,0
-623,701,0,0,0,0,0,0,0,0,0,-1,601,323,0,0
-616,701,0,0,0,0,0,0,0,0,0,-1,608,323,0,0
-609,701,0,0,0,0,0,0,0,0,0,-1,615,323,0,0
-602,701,0,0,0,0,0,0,0,0,0,-1,622,323,0,0
-595,701,0,0,0,0,0,0,0,0,0,-1,629,323,0,0
-588,701,0,0,0,0,0,0,0,0,0,-1,636,323,0,0
-581,701,0,0,0,0,0,0,0,0,0,-1,643,323,0,0
-574,701,0,0,0,0,0,0,0,0,0,-1,650,323,0,0
-567,701,0,0,0,0,0,0,0,0,0,-1,657,323,0,0
-560,701,0,0,0,0,0,0,0,0,0,-1,664,323,0,0
-553,701,0,0,0,0,0,0,0,0,0,-1,671,323,0,0
-546,701,0,0,0,0,0,0,0,0,0,-1,678,323,0,0
-539,701,0,0,0,0,0,0,0,0,0,-1,685,323,0,0
-532,701,0,0,0,0,0,0,0,0,0,-1,692,323,0,0
-525,701,0,0,0,0,0,0,0,0,0,-1,699,323,0,0
-518,701,0,0,0,0,0,0,0,0,0,-1,706,323,0,0
-511,701,0,0,0,0,0,0,0,0,0,-1,713,323,0,0
-504,701,0,0,0,0,0,0,0,0,0,-1,720,323,0,0
-497,701,0,0,0,0,0,0,0,0,0,-1,727,323,0,0
-490,701,0,0,0,0,0,0,0,0,0,-1,734,323,0,0
-483,701,0,0,0,0,0,0,0,0,0,-1,741,323,0,0
-476,701,0,0,0,0,0,0,0,0,0,-1,748,323,0,0
-469,701,0,0,0,0,0,0,0,0,0,-1,755,323,0,0
-462,701,0,0,0,0,0,0,0,0,0,-1,762,323,0,0
-455,701,0,0,0,0,0,0,0,0,0,-1,769,323,0,0
-448,701,0,0,0,0,0,0,0,0,0,-1,776,323,0,0
-441,701,0,0,0,0,0,0,0,0,0,-1,783,323,0,0
-434,701,0,0,0,0,0,0,0,0,0,-1,790,323,0,0
-427,701,0,0,0,0,0,0,0,0,0,-1,797,323,0,0
-420,701,0,0,0,0,0,0,0,0,0,-1,804,323,0,0
-413,701,0,0,0,0,0,0,0,0,0,-1,811,323,0,0
-406,701,0,0,0,0,0,0,0,0,0,-1,818,323,0,0
-399,701,0,0,0,0,0,0,0,0,0,-1,825,323,0,0
-392,701,0,0,0,0,0,0,0,0,0,-1,832,323,0,0
-385,701,0,0,0,0,0,0,0,0,0,-1,839,323,0,0
-378,701,0,0,0,0,0,0,0,0,0,-1,846,323,0,0
-371,701,0,0,0,0,0,0,0,0,0,-1,853,323,0,0
-364,701,0,0,0,0,0,0,0,0,0,-1,860,323,0,0
-357,701,0,0,0,0,0,0,0,0,0,-1,867,323,0,0
-350,701,0,0,0,0,0,0,0,0,0,-1,874,323,0,0
-343,701,0,0,0,0,0,0,0,0,0,-1,881,323,0,0
-336,701,0,0,0,0,0,0,0,0,0,-1,888,323,0,0
-329,701,0,0,0,0,0,0,0,0,0,-1,895,323,0,0
-322,701,0,0,0,0,0,0,0,0,0,-1,902,323,0,0
-315,701,0,0,0,0,0,0,0,0,0,-1,909,323,0,0
-308,701,0,0,0,0,0,0,0,0,0,-1,916,323,0,0
-301,701,0,0,0,0,0,0,0,0,0,-1,923,323,0,0
-294,701,0,0,0,0,0,0,0,0,0,-1,930,323,0,0
-287,701,0,0,0,0,0,0,0,0,0,-1,937,323,0,0
-280,701,0,0,0,0,0,0,0,0,0,-1,944,323,0,0
-273,701,0,0,0,0,0,0,0,0,0,-1,951,323,0,0
-266,701,0,0,0,0,0,0,0,0,0,-1,958,323,0,0
-259,701,0,0,0,0,0,0,0,0,0,-1,965,323,0,0
-252,701,0,0,0,0,0,0,0,0,0,-1,972,323,0,0
-245,701,0,0,0,0,0,0,0,0,0,-1,979,323,0,0
-238,701,0,0,0,0,0,0,0,0,0,-1,986,323,0,0
-231,701,0,0,0,0,0,0,0,0,0,-1,993,323,0,0
-224,701,0,0,0,0,0,0,0,0,0,-1,1000,323,0,0
-217,701,0,0,0,0,0,0,0,0,0,-1,1007,323,0,0
-210,701,0,0,0,0,0,0,0,0,0,-1,1014,323,0,0
-203,701,0,0,0,0,0,0,0,0,0,-1,1021,323,0,0
-196,701,0,0,0,0,0,0,0,0,0,-1,1028,323,0,0
-189,701,0,0,0,0,0,0,0,0,0,-1,1035,323,0,0
-182,701,0,0,0,0,0,0,0,0,0,-1,1042,323,0,0
-175,701,0,0,0,0,0,0,0,0,0,-1,1049,323,0,0
-168,701,0,0,0,0,0,0,0,0,0,-1,1056,323,0,0
-161,701,0,0,0,0,0,0,0,0,0,-1,1063,323,0,0
-154,701,0,0,0,0,0,0,0,0,0,-1,1070,323,0,0
-147,701,0,0,0,0,0,0,0,0,0,-1,1077,323,0,0
-140,701,0,0,0,0,0,0,0,0,0,-1,1084,323,0,0
-133,701,0,0,0,0,0,0,0,0,0,-1,1091,323,0,0
-126,701,0,0,0,0,0,0,0,0,0,-1,1098,323,0,0
-119,701,0,0,0,0,0,0,0,0,0,-1,1105,323,0,0
-112,701,0,0,0,0,0,0,0,0,0,-1,1112,323,0,0
-105,701,0,0,0,0,0,0,0,0,0,-1,1119,323,0,0
-98,701,0,0,0,0,0,0,0,0,0,-1,1126,323,0,0
-91,701,0,0,0,0,0,0,0,0,0,-1,1133,323,0,0
-84,701,0,0,0,0,0,0,0,0,0,-1,1140,323,0,0
-77,701,0,0,0,0,0,0,0,0,0,-1,1147,323,0,0
-70,701,-11.5446,-19.509,0,0,0,0,0,0,0,-1,1154,323,-11.5445,19.509
-63,701,-17.0184,-14.0584,0,0,0,0,0,0,0,-1,1161,323,-17.0185,14.0584
-56,701,-0.420166,-0.101776,0,0,0,0,0,0,0,-1,1168,323,-0.420119,0.101777
-49,701,-1.09021,-0.155762,0,0,0,0,0,0,0,-1,1175,323,-1.09024,0.155768
-42,701,-0.210327,-0.299133,0,0,0,0,0,0,0,-1,1182,323,-0.210379,0.29914
-35,701,-2.9635,-7.98676,0,0,0,0,0,0,0,-1,1189,323,-2.9635,7.98676
-28,701,-6.64417,-5.4917,0,0,0,0,0,0,0,-1,1196,323,-6.64411,5.4917
-21,701,-0.402222,-22.8892,0,0,0,0,0,0,0,-1,1203,323,-0.402179,22.8892
-14,701,0.571655,-24.6793,0,0,0,0,0,0,0,-1,1210,323,0.57163,24.6793
-7,701,1.52209,-26.5248,0,0,0,0,0,0,0,-1,1217,323,1.52209,26.5248
0,701,2.27393,-28.4741,0,0,0,0,0,0,0,-1,1224,323,2.27391,28.474
7,701,2.58752,-28.4402,0.0201998,0.0488388,-0.0622165,0.0983624,-0.0293238,-0.898507,0.0772281,0.0483433,1231,323,2.58749,28.4402
14,701,2.89404,-28.4258,0.0149178,0.0483709,-0.0573942,0.0914262,-0.0281376,-0.927187,0.0721818,0.0459843,1238,323,2.89407,28.4257
21,701,3.09448,-28.3199,0.0103985,0.0491686,-0.050779,0.0841369,-0.0245698,-0.967737,0.0658278,0.0446561,1245,323,3.09443,28.3199
28,701,3.12061,-28.586,0.00664435,0.0508656,-0.0431847,0.0772709,-0.019761,-1.022,0.0592105,0.0451721,1252,323,3.12056,28.586
35,701,3.08838,-29.4189,0.00448838,0.0556439,-0.0350148,0.073428,-0.0132958,-1.10084,0.053933,0.0422506,1259,323,3.08841,29.4189
42,701,2.81982,-29.2221,0.00404989,0.0632607,-0.0275426,0.0740914,-0.00678078,-1.19614,0.0518027,0.0449123,1266,323,2.81986,29.2221
49,701,2.979,-29.5454,0.00562417,0.0722747,-0.0206221,0.0781392,-0.000240404,-1.29373,0.0521731,0.0461167,1273,323,2.97904,29.5454
56,701,3.28735,-28.8024,0.00983184,0.0857011,-0.0157584,0.088844,0.00668894,-1.37394,0.0571303,0.0431742,1280,323,3.28738,28.8024
63,701,2.98792,-27.7639,0.0145953,0.0986124,-0.0105698,0.0999217,0.0132859,-1.44755,0.0626571,0.0469325,1287,323,2.9879,27.7639
70,701,2.98352,-27.3659,0.0184972,0.114015,-0.00727663,0.114567,0.017946,-1.4952,0.0711541,0.0484846,1294,323,2.9835,27.3659
77,701,2.96899,-27.1674,0,0,0,0,0,0,0,-1,1301,323,2.96895,27.1674
84,701,4.06287,-21.6251,0.0257745,0.141474,-0.00522141,0.141709,0.0255393,-1.52579,0.0872152,0.0442201,1308,323,4.06282,21.6251
91,701,4.41711,-22.46,0.0301991,0.153306,-0.00474123,0.153489,0.0300168,-1.53236,0.0939327,0.0428803,1315,323,4.41715,22.46
98,701,5.13501,-23.1885,0.032643,0.163788,-0.00538341,0.164009,0.0324224,-1.52984,0.100294,0.0441642,1322,323,5.13497,23.1886
105,701,5.56128,-23.684,0.0320852,0.17024,-0.00632158,0.170529,0.0317965,-1.52517,0.104709,0.0463176,1329,323,5.56131,23.684
112,701,6.12659,-24.1698,0.030313,0.172043,-0.00656684,0.172347,0.0300094,-1.52459,0.106316,0.0423853,1336,323,6.12662,24.1698
119,701,6.54724,-24.6971,0,0,0,0,0,0,0,-1,1343,323,6.54719,24.6971
126,701,4.01208,-26.2187,0.0210759,0.165405,-3.44985e-05,0.165405,0.0210759,-1.57056,0.103959,0.0469817,1350,323,4.01207,26.2187
133,701,3.71692,-25.8926,0,0,0,0,0,0,0,-1,1357,323,3.71692,25.8926
140,701,3.5238,-25.3145,0.00558526,0.142215,0.0110058,0.143095,0.00470441,1.49093,0.0938681,0.049954,1364,323,3.5238,25.3145
147,701,3.59241,-24.2083,0,0,0,0,0,0,0,-1,1371,323,3.59246,24.2084
154,701,3.57336,-23.198,0,0,0,0,0,0,0,-1,1378,323,3.5734,23.198
161,701,3.53076,-22.2278,0,0,0,0,0,0,0,-1,1385,323,3.53082,22.2277
168,701,30.7272,1.76184,0,0,0,0,0,0,0,-1,1392,323,30.7272,-1.76184
175,701,31.5035,2.25711,0,0,0,0,0,0,0,-1,1399,323,31.5036,-2.25712
182,701,8.80652,5.42807,0,0,0,0,0,0,0,-1,1406,323,8.8065,-5.42808
189,701,8.58081,4.24493,0,0,0,0,0,0,0,-1,1413,323,8.58082,-4.24494
196,701,0,0,0,0,0,0,0,0,0,-1,1420,323,0,0
203,701,0,0,0,0,0,0,0,0,0,-1,1427,323,0,0
210,701,0,0,0,0,0,0,0,0,0,-1,1434,323,0,0
217,701,0,0,0,0,0,0,0,0,0,-1,1441,323,0,0
224,701,0,0,0,0,0,0,0,0,0,-1,1448,323,0,0
231,701,0,0,0,0,0,0,0,0,0,-1,1455,323,0,0
238,701,0,0,0,0,0,0,0,0,0,-1,1462,323,0,0
245,701,0,0,0,0,0,0,0,0,0,-1,1469,323,0,0
252,701,0,0,0,0,0,0,0,0,0,-1,1476,323,0,0
259,701,0,0,0,0,0,0,0,0,0,-1,1483,323,0,0
266,701,0,0,0,0,0,0,0,0,0,-1,1490,323,0,0
273,701,0,0,0,0,0,0,0,0,0,-1,1497,323,0,0
280,701,0,0,0,0,0,0,0,0,0,-1,1504,323,0,0
287,701,0,0,0,0,0,0,0,0,0,-1,1511,323,0,0
294,701,0,0,0,0,0,0,0,0,0,-1,1518,323,0,0
301,701,0,0,0,0,0,0,0,0,0,-1,1525,323,0,0
308,701,0,0,0,0,0,0,0,0,0,-1,1532,323,0,0
315,701,0,0,0,0,0,0,0,0,0,-1,1539,323,0,0
322,701,0,0,0,0,0,0,0,0,0,-1,1546,323,0,0
329,701,0,0,0,0,0,0,0,0,0,-1,1553,323,0,0
336,701,0,0,0,0,0,0,0,0,0,-1,1560,323,0,0
343,701,0,0,0,0,0,0,0,0,0,-1,1567,323,0,0
350,701,0,0,0,0,0,0,0,0,0,-1,1574,323,0,0
357,701,0,0,0,0,0,0,0,0,0,-1,1581,323,0,0
364,701,0,0,0,0,0,0,0,0,0,-1,1588,323,0,0
371,701,0,0,0,0,0,0,0,0,0,-1,1595,323,0,0
378,701,0,0,0,0,0,0,0,0,0,-1,1602,323,0,0
385,701,0,0,0,0,0,0,0,0,0,-1,1609,323,0,0
392,701,0,0,0,0,0,0,0,0,0,-1,1616,323,0,0
399,701,0,0,0,0,0,0,0,0,0,-1,1623,323,0,0
406,701,0,0,0,0,0,0,0,0,0,-1,1630,323,0,0
413,701,0,0,0,0,0,0,0,0,0,-1,1637,323,0,0
420,701,0,0,0,0,0,0,0,0,0,-1,1644,323,0,0
427,701,0,0,0,0,0,0,0,0,0,-1,1651,323,0,0
434,701,0,0,0,0,0,0,0,0,0,-1,1658,323,0,0
441,701,0,0,0,0,0,0,0,0,0,-1,1665,323,0,0
448,701,0,0,0,0,0,0,0,0,0,-1,1672,323,0,0
455,701,0,0,0,0,0,0,0,0,0,-1,1679,323,0,0
462,701,0,0,0,0,0,0,0,0,0,-1,1686,323,0,0
469,701,0,0,0,0,0,0,0,0,0,-1,1693,323,0,0
476,701,0,0,0,0,0,0,0,0,0,-1,1700,323,0,0
483,701,0,0,0,0,0,0,0,0,0,-1,1707,323,0,0
490,701,0,0,0,0,0,0,0,0,0,-1,1714,323,0,0
497,701,0,0,0,0,0,0,0,0,0,-1,1721,323,0,0
504,701,0,0,0,0,0,0,0,0,0,-1,1728,323,0,0
511,701,0,0,0,0,0,0,0,0,0,-1,1735,323,0,0
518,701,0,0,0,0,0,0,0,0,0,-1,1742,323,0,0
525,701,0,0,0,0,0,0,0,0,0,-1,1749,323,0,0
532,701,0,0,0,0,0,0,0,0,0,-1,1756,323,0,0
539,701,0,0,0,0,0,0,0,0,0,-1,1763,323,0,0
546,701,0,0,0,0,0,0,0,0,0,-1,1770,323,0,0
553,701,0,0,0,0,0,0,0,0,0,-1,1777,323,0,0
560,701,0,0,0,0,0,0,0,0,0,-1,1784,323,0,0
567,701,0,0,0,0,0,0,0,0,0,-1,1791,323,0,0
574,701,0,0,0,0,0,0,0,0,0,-1,1798,323,0,0
581,701,0,0,0,0,0,0,0,0,0,-1,1805,323,0,0
588,701,0,0,0,0,0,0,0,0,0,-1,1812,323,0,0
595,701,0,0,0,0,0,0,0,0,0,-1,1819,323,0,0
602,701,0,0,0,0,0,0,0,0,0,-1,1826,323,0,0
609,701,0,0,0,0,0,0,0,0,0,-1,1833,323,0,0
616,701,0,0,0,0,0,0,0,0,0,-1,1840,323,0,0
623,701,0,0,0,0,0,0,0,0,0,-1,1847,323,0,0
630,701,0,0,0,0,0,0,0,0,0,-1,1854,323,0,0
637,701,0,0,0,0,0,0,0,0,0,-1,1861,323,0,0
644,701,0,0,0,0,0,0,0,0,0,-1,1868,323,0,0
651,701,0,0,0,0,0,0,0,0,0,-1,1875,323,0,0
658,701,0,0,0,0,0,0,0,0,0,-1,1882,323,0,0
665,701,0,0,0,0,0,0,0,0,0,-1,1889,323,0,0
672,701,0,0,0,0,0,0,0,0,0,-1,1896,323,0,0
679,701,0,0,0,0,0,0,0,0,0,-1,1903,323,0,0
686,701,0,0,0,0,0,0,0,0,0,-1,1910,323,0,0
693,701,0,0,0,0,0,0,0,0,0,-1,1917,323,0,0
700,701,0,0,0,0,0,0,0,0,0,-1,1924,323,0,0
707,701,0,0,0,0,0,0,0,0,0,-1,1931,323,0,0
714,701,0,0,0,0,0,0,0,0,0,-1,1938,323,0,0
721,701,0,0,0,0,0,0,0,0,0,-1,1945,323,0,0
728,701,0,0,0,0,0,0,0,0,0,-1,1952,323,0,0
735,701,0,0,0,0,0,0,0,0,0,-1,1959,323,0,0
742,701,0,0,0,0,0,0,0,0,0,-1,1966,323,0,0
749,701,0,0,0,0,0,0,0,0,0,-1,1973,323,0,0
756,701,0,0,0,0,0,0,0,0,0,-1,1980,323,0,0
763,701,0,0,0,0,0,0,0,0,0,-1,1987,323,0,0
770,701,0,0,0,0,0,0,0,0,0,-1,1994,323,0,0
777,701,0,0,0,0,0,0,0,0,0,-1,2001,323,0,0
784,701,0,0,0,0,0,0,0,0,0,-1,2008,323,0,0
791,701,0,0,0,0,0,0,0,0,0,-1,2015,323,0,0
798,701,0,0,0,0,0,0,0,0,0,-1,2022,323,0,0
805,701,0,0,0,0,0,0,0,0,0,-1,2029,323,0,0
812,701,0,0,0,0,0,0,0,0,0,-1,2036,323,0,0
-700,694,0,0,0,0,0,0,0,0,0,-1,524,330,0,0
-693,694,0,0,0,0,0,0,0,0,0,-1,531,330,0,0
-686,694,0,0,0,0,0,0,0,0,0,-1,538,330,0,0
-679,694,0,0,0,0,0,0,0,0,0,-1,545,330,0,0
-672,694,0,0,0,0,0,0,0,0,0,-1,552,330,0,0
-665,694,0,0,0,0,0,0,0,0,0,-1,559,330,0,0
-658,694,0,0,0,0,0,0,0,0,0,-1,566,330,0,0
-651,694,0,0,0,0,0,0,0,0,0,-1,573,330,0,0
-644,694,0,0,0,0,0,0,0,0,0,-1,580,330,0,0
-637,694,0,0,0,0,0,0,0,0,0,-1,587,330,0,0
-630,694,0,0,0,0,0,0,0,0,0,-1,594,330,0,0
-623,694,0,0,0,0,0,0,0,0,0,-1,601,330,0,0
-616,694,0,0,0,0,0,0,0,0,0,-1,608,330,0,0
-609,694,0,0,0,0,0,0,0,0,0,-1,615,330,0,0
-602,694,0,0,0,0,0,0,0,0,0,-1,622,330,0,0
-595,694,0,0,0,0,0,0,0,0,0,-1,629,330,0,0
-588,694,0,0,0,0,0,0,0,0,0,-1,636,330,0,0
-581,694,0,0,0,0,0,0,0,0,0,-1,643,330,0,0
-574,694,0,0,0,0,0,0,0,0,0,-1,650,330,0,0
-567,694,0,0,0,0,0,0,0,0,0,-1,657,330,0,0
-560,694,0,0,0,0,0,0,0,0,0,-1,664,330,0,0
-553,694,0,0,0,0,0,0,0,0,0,-1,671,330,0,0
-546,694,0,0,0,0,0,0,0,0,0,-1,678,330,0,0
-539,694,0,0,0,0,0,0,0,0,0,-1,685,330,0,0
-532,694,0,0,0,0,0,0,0,0,0,-1,692,330,0,0
-525,694,0,0,0,0,0,0,0,0,0,-1,699,330,0,0
-518,694,0,0,0,0,0,0,0,0,0,-1,706,330,0,0
-511,694,0,0,0,0,0,0,0,0,0,-1,713,330,0,0
-504,694,0,0,0,0,0,0,0,0,0,-1,720,330,0,0
-497,694,0,0,0,0,0,0,0,0,0,-1,727,330,0,0
-490,694,0,0,0,0,0,0,0,0,0,-1,734,330,0,0
-483,694,0,0,0,0,0,0,0,0,0,-1,741,330,0,0
-476,694,0,0,0,0,0,0,0,0,0,-1,748,330,0,0
-469,694,0,0,0,0,0,0,0,0,0,-1,755,330,0,0
-462,694,0,0,0,0,0,0,0,0,0,-1,762,330,0,0
-455,694,0,0,0,0,0,0,0,0,0,-1,769,330,0,0
-448,694,0,0,0,0,0,0,0,0,0,-1,776,330,0,0
-441,694,0,0,0,0,0,0,0,0,0,-1,783,330,0,0
-434,694,0,0,0,0,0,0,0,0,0,-1,790,330,0,0
-427,694,0,0,0,0,0,0,0,0,0,-1,797,330,0,0
-420,694,0,0,0,0,0,0,0,0,0,-1,804,330,0,0
-413,694,0,0,0,0,0,0,0,0,0,-1,811,330,0,0
-406,694,0,0,0,0,0,0,0,0,0,-1,818,330,0,0
-399,694,0,0,0,0,0,0,0,0,0,-1,825,330,0,0
-392,694,0,0,0,0,0,0,0,0,0,-1,832,330,0,0
-385,694,0,0,0,0,0,0,0,0,0,-1,839,330,0,0
-378,694,0,0,0,0,0,0,0,0,0,-1,846,330,0,0
-371,694,0,0,0,0,0,0,0,0,0,-1,853,330,0,0
-364,694,0,0,0,0,0,0,0,0,0,-1,860,330,0,0
-357,694,0,0,0,0,0,0,0,0,0,-1,867,330,0,0
-350,694,0,0,0,0,0,0,0,0,0,-1,874,330,0,0
-343,694,0,0,0,0,0,0,0,0,0,-1,881,330,0,0
-336,694,0,0,0,0,0,0,0,0,0,-1,888,330,0,0
-329,694,0,0,0,0,0,0,0,0,0,-1,895,330,0,0
-322,694,0,0,0,0,0,0,0,0,0,-1,902,330,0,0
-315,694,0,0,0,0,0,0,0,0,0,-1,909,330,0,0
-308,694,0,0,0,0,0,0,0,0,0,-1,916,330,0,0
-301,694,0,0,0,0,0,0,0,0,0,-1,923,330,0,0
-294,694,0,0,0,0,0,0,0,0,0,-1,930,330,0,0
-287,694,0,0,0,0,0,0,0,0,0,-1,937,330,0,0
-280,694,0,0,0,0,0,0,0,0,0,-1,944,330,0,0
-273,694,0,0,0,0,0,0,0,0,0,-1,951,330,0,0
-266,694,0,0,0,0,0,0,0,0,0,-1,958,330,0,0
-259,694,0,0,0,0,0,0,0,0,0,-1,965,330,0,0
-252,694,0,0,0,0,0,0,0,0,0,-1,972,330,0,0
-245,694,0,0,0,0,0,0,0,0,0,-1,979,330,0,0
-238,694,0,0,0,0,0,0,0,0,0,-1,986,330,0,0
-231,694,0,0,0,0,0,0,0,0,0,-1,993,330,0,0
-224,694,0,0,0,0,0,0,0,0,0,-1,1000,330,0,0
-217,694,0,0,0,0,0,0,0,0,0,-1,1007,330,0,0
-210,694,0,0,0,0,0,0,0,0,0,-1,1014,330,0,0
-203,694,0,0,0,0,0,0,0,0,0,-1,1021,330,0,0
-196,694,0,0,0,0,0,0,0,0,0,-1,1028,330,0,0
-189,694,0,0,0,0,0,0,0,0,0,-1,1035,330,0,0
-182,694,0,0,0,0,0,0,0,0,0,-1,1042,330,0,0
-175,694,0,0,0,0,0,0,0,0,0,-1,1049,330,0,0
-168,694,0,0,0,0,0,0,0,0,0,-1,1056,330,0,0
-161,694,0,0,0,0,0,0,0,0,0,-1,1063,330,0,0
-154,694,0,0,0,0,0,0,0,0,0,-1,1070,330,0,0
-147,694,0,0,0,0,0,0,0,0,0,-1,1077,330,0,0
-140,694,0,0,0,0,0,0,0,0,0,-1,1084,330,0,0
-133,694,0,0,0,0,0,0,0,0,0,-1,1091,330,0,0
-126,694,0,0,0,0,0,0,0,0,0,-1,1098,330,0,0
-119,694,0,0,0,0,0,0,0,0,0,-1,1105,330,0,0
-112,694,0,0,0,0,0,0,0,0,0,-1,1112,330,0,0
-105,694,2.5188,-19.3963,0,0,0,0,0,0,0,-1,1119,330,2.51882,19.3963
-98,694,1.34875,-10.1051,0,0,0,0,0,0,0,-1,1126,330,1.34874,10.1051
-91,694,6.86755,-33.359,0,0,0,0,0,0,0,-1,1133,330,6.86759,33.359
-84,694,1.17896,-28.0219,0,0,0,0,0,0,0,-1,1140,330,1.17896,28.0219
-77,694,-4.61255,-22.77,0,0,0,0,0,0,0,-1,1147,330,-4.61256,22.77
-70,694,-10.2438,-17.4885,0,0,0,0,0,0,0,-1,1154,330,-10.2437,17.4885
-63,694,-15.7178,-11.9616,0,0,0,0,0,0,0,-1,1161,330,-15.7178,11.9616
-56,694,-6.50623,-0.649139,0,0,0,0,0,0,0,-1,1168,330,-6.5062,0.649126
-49,694,-1.11426,0.0341797,0,0,0,0,0,0,0,-1,1175,330,-1.11424,-0.0341846
-42,694,-0.346313,-0.709595,0,0,0,0,0,0,0,-1,1182,330,-0.346298,0.709581
-35,694,-0.459106,-1.24713,0,0,0,0,0,0,0,-1,1189,330,-0.459142,1.24714
-28,694,-6.48413,-3.95972,0,0,0,0,0,0,0,-1,1196,330,-6.48414,3.9597
-21,694,3.00366,-26.7859,0,0,0,0,0,0,0,-1,1203,330,3.00368,26.7859
-14,694,0.354248,-25.6728,0,0,0,0,0,0,0,-1,1210,330,0.354236,25.6728
-7,694,5.14502,-29.0285,0,0,0,0,0,0,0,-1,1217,330,5.14503,29.0285
0,694,3.09949,-28.8279,0,0,0,0,0,0,0,-1,1224,330,3.0995,28.8279
7,694,3.58655,-28.6289,0.0125547,0.0432178,-0.0452231,0.0756375,-0.019865,-0.948828,0.0581882,0.0449506,1231,330,3.58655,28.6289
14,694,3.83923,-28.3304,0.0082394,0.0435235,-0.0420288,0.0714628,-0.0197,-0.98411,0.0553889,0.0479959,1238,330,3.83919,28.3305
21,694,4.01111,-28.1934,0.00453868,0.0446682,-0.0375812,0.0672056,-0.0179987,-1.0306,0.0518551,0.048489,1245,330,4.01109,28.1934
28,694,4.28174,-29.3562,0.00142331,0.046386,-0.0323781,0.0633223,-0.015513,-1.08886,0.0482249,0.0473155,1252,330,4.28177,29.3562
35,694,3.52905,-29.3641,-0.000449241,0.0504453,-0.026607,0.0618151,-0.011819,-1.16696,0.0456625,0.0455861,1259,330,3.52907,29.3641
42,694,3.19543,-29.3785,-0.000982006,0.0567344,-0.0213787,0.0637906,-0.00803825,-1.252,0.0454441,0.045809,1266,330,3.19539,29.3785
49,694,2.91077,-29.3961,0,0,0,0,0,0,0,-1,1273,330,2.91072,29.3961
56,694,3.53345,-29.0192,0.00375481,0.0754545,-0.0130284,0.0777485,0.00146085,-1.39651,0.0513523,0.0413069,1280,330,3.53342,29.0192
63,694,3.24231,-28.0512,0.00761423,0.0864614,-0.00926066,0.0875345,0.00654117,-1.45544,0.0563027,0.0448096,1287,330,3.24232,28.0512
70,694,3.19629,-27.8449,0.0107422,0.0993341,-0.00687342,0.0998642,0.0102121,-1.49382,0.0634466,0.0457916,1294,330,3.19627,27.8449
77,694,3.08899,-27.6532,0,0,0,0,0,0,0,-1,1301,330,3.08899,27.6532
84,694,3.04468,-27.3978,0,0,0,0,0,0,0,-1,1308,330,3.04463,27.3978
91,694,4.24939,-23.7464,0.0191713,0.132072,-0.00517127,0.132308,0.0189349,-1.52512,0.0826202,0.0467439,1315,330,4.2494,23.7464
98,694,4.70679,-24.2892,0.0208403,0.14057,-0.00565653,0.140837,0.0205736,-1.52369,0.0878402,0.0441954,1322,330,4.70684,24.2892
105,694,5.1759,-24.8242,0.0200386,0.145561,-0.00650158,0.145897,0.0197027,-1.51918,0.0914078,0.0437071,1329,330,5.17595,24.8243
112,694,5.31104,-25.5511,0.0185482,0.147287,-0.00701909,0.147669,0.0181666,-1.51649,0.0929838,0.0436918,1336,330,5.31103,25.5511
119,694,5.48328,-26.1629,0.0158524,0.146772,-0.0056861,0.147019,0.0156059,-1.52747,0.0932468,0.0424779,1343,330,5.48325,26.1629
126,694,4.09399,-26.8162,0.0117571,0.142662,-0.00298423,0.14273,0.0116891,-1.54802,0.0915059,0.0461793,1350,330,4.09401,26.8162
133,694,3.7948,-26.6602,0,0,0,0,0,0,0,-1,1357,330,3.79485,26.6603
140,694,3.49988,-26.0679,0,0,0,0,0,0,0,-1,1364,330,3.4999,26.0679
147,694,3.18469,-25.476,0,0,0,0,0,0,0,-1,1371,330,3.18474,25.476
154,694,3.41248,-24.0177,0,0,0,0,0,0,0,-1,1378,330,3.41242,24.0177
161,694,3.92969,-26.2193,0,0,0,0,0,0,0,-1,1385,330,3.92966,26.2193
168,694,30.451,0.196686,0,0,0,0,0,0,0,-1,1392,330,30.4511,-0.196674
175,694,31.0701,0.869873,0,0,0,0,0,0,0,-1,1399,330,31.07,-0.869874
182,694,8.29028,5.75238,0,0,0,0,0,0,0,-1,1406,330,8.29034,-5.75237
189,694,7.9801,4.46118,0,0,0,0,0,0,0,-1,1413,330,7.9801,-4.46118
196,694,7.39331,3.32632,0,0,0,0,0,0,0,-1,1420,330,7.39329,-3.32633
203,694,7.04492,2.20529,0,0,0,0,0,0,0,-1,1427,330,7.04496,-2.20529
210,694,6.44714,0.646912,0,0,0,0,0,0,0,-1,1434,330,6.44717,-0.646903
217,694,7.12061,-0.644958,0,0,0,0,0,0,0,-1,1441,330,7.12059,0.644961
224,694,6.74011,-1.70544,0,0,0,0,0,0,0,-1,1448,330,6.74013,1.70546
231,694,0,0,0,0,0,0,0,0,0,-1,1455,330,0,0
238,694,0,0,0,0,0,0,0,0,0,-1,1462,330,0,0
245,694,0,0,0,0,0,0,0,0,0,-1,1469,330,0,0
252,694,0,0,0,0,0,0,0,0,0,-1,1476,330,0,0
259,694,0,0,0,0,0,0,0,0,0,-1,1483,330,0,0
266,694,0,0,0,0,0,0,0,0,0,-1,1490,330,0,0
273,694,0,0,0,0,0,0,0,0,0,-1,1497,330,0,0
280,694,0,0,0,0,0,0,0,0,0,-1,1504,330,0,0
287,694,0,0,0,0,0,0,0,0,0,-1,1511,330,0,0
294,694,0,0,0,0,0,0,0,0,0,-1,1518,330,0,0
301,694,0,0,0,0,0,0,0,0,0,-1,1525,330,0,0
308,694,0,0,0,0,0,0,0,0,0,-1,1532,330,0,0
315,694,0,0,0,0,0,0,0,0,0,-1,1539,330,0,0
322,694,0,0,0,0,0,0,0,0,0,-1,1546,330,0,0
329,694,0,0,0,0,0,0,0,0,0,-1,1553,330,0,0
336,694,0,0,0,0,0,0,0,0,0,-1,1560,330,0,0
343,694,0,0,0,0,0,0,0,0,0,-1,1567,330,0,0
350,694,0,0,0,0,0,0,0,0,0,-1,1574,330,0,0
357,694,0,0,0,0,0,0,0,0,0,-1,1581,330,0,0
364,694,0,0,0,0,0,0,0,0,0,-1,1588,330,0,0
371,694,0,0,0,0,0,0,0,0,0,-1,1595,330,0,0
378,694,0,0,0,0,0,0,0,0,0,-1,1602,330,0,0
385,694,0,0,0,0,0,0,0,0,0,-1,1609,330,0,0
392,694,0,0,0,0,0,0,0,0,0,-1,1616,330,0,0
399,694,0,0,0,0,0,0,0,0,0,-1,1623,330,0,0
406,694,0,0,0,0,0,0,0,0,0,-1,1630,330,0,0
413,694,0,0,0,0,0,0,0,0,0,-1,1637,330,0,0
420,694,0,0,0,0,0,0,0,0,0,-1,1644,330,0,0
427,694,0,0,0,0,0,0,0,0,0,-1,1651,330,0,0
434,694,0,0,0,0,0,0,0,0,0,-1,1658,330,0,0
441,694,0,0,0,0,0,0,0,0,0,-1,1665,330,0,0
448,694,0,0,0,0,0,0,0,0,0,-1,1672,330,0,0
455,694,0,0,0,0,0,0,0,0,0,-1,1679,330,0,0
462,694,0,0,0,0,0,0,0,0,0,-1,1686,330,0,0
469,694,0,0,0,0,0,0,0,0,0,-1,1693,330,0,0
476,694,0,0,0,0,0,0,0,0,0,-1,1700,330,0,0
483,694,0,0,0,0,0,0,0,0,0,-1,1707,330,0,0
490,694,0,0,0,0,0,0,0,0,0,-1,1714,330,0,0
497,694,0,0,0,0,0,0,0,0,0,-1,1721,330,0,0
504,694,0,0,0,0,0,0,0,0,0,-1,1728,330,0,0
511,694,0,0,0,0,0,0,0,0,0,-1,1735,330,0,0
518,694,0,0,0,0,0,0,0,0,0,-1,1742,330,0,0
525,694,0,0,0,0,0,0,0,0,0,-1,1749,330,0,0
532,694,0,0,0,0,0,0,0,0,0,-1,1756,330,0,0
539,694,0,0,0,0,0,0,0,0,0,-1,1763,330,0,0
546,694,0,0,0,0,0,0,0,0,0,-1,1770,330,0,0
553,694,0,0,0,0,0,0,0,0,0,-1,1777,330,0,0
560,694,0,0,0,0,0,0,0,0,0,-1,1784,330,0,0
567,694,0,0,0,0,0,0,0,0,0,-1,1791,330,0,0
574,694,0,0,0,0,0,0,0,0,0,-1,1798,330,0,0
581,694,0,0,0,0,0,0,0,0,0,-1,1805,330,0,0
588,694,0,0,0,0,0,0,0,0,0,-1,1812,330,0,0
595,694,0,0,0,0,0,0,0,0,0,-1,1819,330,0,0
602,694,0,0,0,0,0,0,0,0,0,-1,1826,330,0,0
609,694,0,0,0,0,0,0,0,0,0,-1,1833,330,0,0
616,694,0,0,0,0,0,0,0,0,0,-1,1840,330,0,0
623,694,0,0,0,0,0,0,0,0,0,-1,1847,330,0,0
630,694,0,0,0,0,0,0,0,0,0,-1,1854,330,0,0
637,694,0,0,0,0,0,0,0,0,0,-1,1861,330,0,0
644,694,0,0,0,0,0,0,0,0,0,-1,1868,330,0,0
651,694,0,0,0,0,0,0,0,0,0,-1,1875,330,0,0
658,694,0,0,0,0,0,0,0,0,0,-1,1882,330,0,0
665,694,0,0,0,0,0,0,0,0,0,-1,1889,330,0,0
672,694,0,0,0,0,0,0,0,0,0,-1,1896,330,0,0
679,694,0,0,0,0,0,0,0,0,0,-1,1903,330,0,0
686,694,0,0,0,0,0,0,0,0,0,-1,1910,330,0,0
693,694,0,0,0,0,0,0,0,0,0,-1,1917,330,0,0
700,694,0,0,0,0,0,0,0,0,0,-1,1924,330,0,0
707,694,0,0,0,0,0,0,0,0,0,-1,1931,330,0,0
714,694,0,0,0,0,0,0,0,0,0,-1,1938,330,0,0
721,694,0,0,0,0,0,0,0,0,0,-1,1945,330,0,0
728,694,0,0,0,0,0,0,0,0,0,-1,1952,330,0,0
735,694,0,0,0,0,0,0,0,0,0,-1,1959,330,0,0
742,694,0,0,0,0,0,0,0,0,0,-1,1966,330,0,0
749,694,0,0,0,0,0,0,0,0,0,-1,1973,330,0,0
756,694,0,0,0,0,0,0,0,0,0,-1,1980,330,0,0
763,694,0,0,0,0,0,0,0,0,0,-1,1987,330,0,0
770,694,0,0,0,0,0,0,0,0,0,-1,1994,330,0,0
777,694,0,0,0,0,0,0,0,0,0,-1,2001,330,0,0
784,694,0,0,0,0,0,0,0,0,0,-1,2008,330,0,0
791,694,0,0,0,0,0,0,0,0,0,-1,2015,330,0,0
798,694,0,0,0,0,0,0,0,0,0,-1,2022,330,0,0
805,694,0,0,0,0,0,0,0,0,0,-1,2029,330,0,0
812,694,0,0,0,0,0,0,0,0,0,-1,2036,330,0,0
-700,687,0,0,0,0,0,0,0,0,0,-1,524,337,0,0
-693,687,0,0,0,0,0,0,0,0,0,-1,531,337,0,0
-686,687,0,0,0,0,0,0,0,0,0,-1,538,337,0,0
-679,687,0,0,0,0,0,0,0,0,0,-1,545,337,0,0
-672,687,0,0,0,0,0,0,0,0,0,-1,552,337,0,0
-665,687,0,0,0,0,0,0,0,0,0,-1,559,337,0,0
-658,687,0,0,0,0,0,0,0,0,0,-1,566,337,0,0
-651,687,0,0,0,0,0,0,0,0,0,-1,573,337,0,0
-644,687,0,0,0,0,0,0,0,0,0,-1,580,337,0,0
-637,687,0,0,0,0,0,0,0,0,0,-1,587,337,0,0
-630,687,0,0,0,0,0,0,0,0,0,-1,594,337,0,0
-623,687,0,0,0,0,0,0,0,0,0,-1,601,337,0,0
-616,687,0,0,0,0,0,0,0,0,0,-1,608,337,0,0
-609,687,0,0,0,0,0,0,0,0,0,-1,615,337,0,0
-602,687,0,0,0,0,0,0,0,0,0,-1,622,337,0,0
-595,687,0,0,0,0,0,0,0,0,0,-1,629,337,0,0
-588,687,0,0,0,0,0,0,0,0,0,-1,636,337,0,0
-581,687,0,0,0,0,0,0,0,0,0,-1,643,337,0,0
-574,687,0,0,0,0,0,0,0,0,0,-1,650,337,0,0
-567,687,0,0,0,0,0,0,0,0,0,-1,657,337,0,0
-560,687,0,0,0,0,0,0,0,0,0,-1,664,337,0,0
-553,687,0,0,0,0,0,0,0,0,0,-1,671,337,0,0
-546,687,0,0,0,0,0,0,0,0,0,-1,678,337,0,0
-539,687,0,0,0,0,0,0,0,0,0,-1,685,337,0,0
-532,687,0,0,0,0,0,0,0,0,0,-1,692,337,0,0
-525,687,0,0,0,0,0,0,0,0,0,-1,699,337,0,0
-518,687,0,0,0,0,0,0,0,0,0,-1,706,337,0,0
-511,687,0,0,0,0,0,0,0,0,0,-1,713,337,0,0
-504,687,0,0,0,0,0,0,0,0,0,-1,720,337,0,0
-497,687,0,0,0,0,0,0,0,0,0,-1,727,337,0,0
-490,687,0,0,0,0,0,0,0,0,0,-1,734,337,0,0
-483,687,0,0,0,0,0,0,0,0,0,-1,741,337,0,0
-476,687,0,0,0,0,0,0,0,0,0,-1,748,337,0,0
-469,687,0,0,0,0,0,0,0,0,0,-1,755,337,0,0
-462,687,0,0,0,0,0,0,0,0,0,-1,762,337,0,0
-455,687,0,0,0,0,0,0,0,0,0,-1,769,337,0,0
-448,687,0,0,0,0,0,0,0,0,0,-1,776,337,0,0
-441,687,0,0,0,0,0,0,0,0,0,-1,783,337,0,0
-434,687,0,0,0,0,0,0,0,0,0,-1,790,337,0,0
-427,687,0,0,0,0,0,0,0,0,0,-1,797,337,0,0
-420,687,0,0,0,0,0,0,0,0,0,-1,804,337,0,0
-413,687,0,0,0,0,0,0,0,0,0,-1,811,337,0,0
-406,687,0,0,0,0,0,0,0,0,0,-1,818,337,0,0
-399,687,0,0,0,0,0,0,0,0,0,-1,825,337,0,0
-392,687,0,0,0,0,0,0,0,0,0,-1,832,337,0,0
-385,687,0,0,0,0,0,0,0,0,0,-1,839,337,0,0
-378,687,0,0,0,0,0,0,0,0,0,-1,846,337,0,0
-371,687,0,0,0,0,0,0,0,0,0,-1,853,337,0,0
-364,687,0,0,0,0,0,0,0,0,0,-1,860,337,0,0
-357,687,0,0,0,0,0,0,0,0,0,-1,867,337,0,0
-350,687,0,0,0,0,0,0,0,0,0,-1,874,337,0,0
-343,687,0,0,0,0,0,0,0,0,0,-1,881,337,0,0
-336,687,0,0,0,0,0,0,0,0,0,-1,888,337,0,0
-329,687,0,0,0,0,0,0,0,0,0,-1,895,337,0,0
-322,687,0,0,0,0,0,0,0,0,0,-1,902,337,0,0
-315,687,0,0,0,0,0,0,0,0,0,-1,909,337,0,0
-308,687,0,0,0,0,0,0,0,0,0,-1,916,337,0,0
-301,687,0,0,0,0,0,0,0,0,0,-1,923,337,0,0
-294,687,0,0,0,0,0,0,0,0,0,-1,930,337,0,0
-287,687,0,0,0,0,0,0,0,0,0,-1,937,337,0,0
-280,687,0,0,0,0,0,0,0,0,0,-1,944,337,0,0
-273,687,0,0,0,0,0,0,0,0,0,-1,951,337,0,0
-266,687,0,0,0,0,0,0,0,0,0,-1,958,337,0,0
-259,687,0,0,0,0,0,0,0,0,0,-1,965,337,0,0
-252,687,0,0,0,0,0,0,0,0,0,-1,972,337,0,0
-245,687,0,0,0,0,0,0,0,0,0,-1,979,337,0,0
-238,687,0,0,0,0,0,0,0,0,0,-1,986,337,0,0
-231,687,0,0,0,0,0,0,0,0,0,-1,993,337,0,0
-224,687,0,0,0,0,0,0,0,0,0,-1,1000,337,0,0
-217,687,0,0,0,0,0,0,0,0,0,-1,1007,337,0,0
-210,687,0,0,0,0,0,0,0,0,0,-1,1014,337,0,0
-203,687,0,0,0,0,0,0,0,0,0,-1,1021,337,0,0
-196,687,0,0,0,0,0,0,0,0,0,-1,1028,337,0,0
-189,687,0,0,0,0,0,0,0,0,0,-1,1035,337,0,0
-182,687,0,0,0,0,0,0,0,0,0,-1,1042,337,0,0
-175,687,0,0,0,0,0,0,0,0,0,-1,1049,337,0,0
-168,687,0,0,0,0,0,0,0,0,0,-1,1056,337,0,0
-161,687,0,0,0,0,0,0,0,0,0,-1,1063,337,0,0
-154,687,0,0,0,0,0,0,0,0,0,-1,1070,337,0,0
-147,687,0,0,0,0,0,0,0,0,0,-1,1077,337,0,0
-140,687,0,0,0,0,0,0,0,0,0,-1,1084,337,0,0
-133,687,5.48694,-30.6584,0,0,0,0,0,0,0,-1,1091,337,5.48691,30.6584
-126,687,4.7146,-29.808,0,0,0,0,0,0,0,-1,1098,337,4.71456,29.808
-119,687,3.94788,-28.6101,0,0,0,0,0,0,0,-1,1105,337,3.94783,28.6101
-112,687,2.64551,-27.4768,0,0,0,0,0,0,0,-1,1112,337,2.64556,27.4768
-105,687,1.83191,-26.4939,0,0,0,0,0,0,0,-1,1119,337,1.8319,26.4939
-98,687,13.0936,-35.7905,0,0,0,0,0,0,0,-1,1126,337,13.0936,35.7905
-91,687,7.62842,-30.6922,0,0,0,0,0,0,0,-1,1133,337,7.62845,30.6922
-84,687,2.10876,-25.7283,0,0,0,0,0,0,0,-1,1140,337,2.10882,25.7283
-77,687,-3.47437,-20.7021,0,0,0,0,0,0,0,-1,1147,337,-3.47434,20.7021
-70,687,-9.14441,-16.702,0,0,0,0,0,0,0,-1,1154,337,-9.14439,16.702
-63,687,-13.5193,-4.61572,0,0,0,0,0,0,0,-1,1161,337,-13.5193,4.61573
-56,687,-18.104,7.81931,0,0,0,0,0,0,0,-1,1168,337,-18.104,-7.81931
-49,687,-15.6449,-9.94391,0,0,0,0,0,0,0,-1,1175,337,-15.6449,9.94392
-42,687,-4.2019,-0.405609,0,0,0,0,0,0,0,-1,1182,337,-4.20192,0.405614
-35,687,-4.42273,-0.688171,0,0,0,0,0,0,0,-1,1189,337,-4.42276,0.688178
-28,687,-1.14038,-1.39072,0,0,0,0,0,0,0,-1,1196,337,-1.14035,1.3907
-21,687,4.83374,-26.9541,0,0,0,0,0,0,0,-1,1203,337,4.83377,26.9541
-14,687,5.02295,-29.0582,0,0,0,0,0,0,0,-1,1210,337,5.0229,29.0582
-7,687,5.01318,-29.1417,0,0,0,0,0,0,0,-1,1217,337,5.01317,29.1417
0,687,5.00342,-29.2253,0,0,0,0,0,0,0,-1,1224,337,5.00343,29.2253
7,687,6.04736,-28.9398,0.00691298,0.0373987,-0.0317563,0.057381,-0.0130693,-1.00916,0.0432733,0.046616,1231,337,6.04737,28.9398
14,687,4.63074,-28.2352,0.00353871,0.0381652,-0.0297813,0.0553001,-0.0135962,-1.04869,0.0421365,0.0475108,1238,337,4.63078,28.2352
21,687,5.20386,-28.234,0.0006184,0.0394867,-0.0269437,0.0532738,-0.0131687,-1.09783,0.0406233,0.047285,1245,337,5.20389,28.234
28,687,4.33313,-29.1298,0,0,0,0,0,0,0,-1,1252,337,4.3331,29.1298
35,687,4.16553,-28.9586,-0.00344035,0.0445546,-0.0196376,0.0515655,-0.0104512,-1.22789,0.0383385,0.0462719,1259,337,4.16553,28.9586
42,687,3.51233,-29.3611,-0.0040141,0.0496597,-0.0161519,0.0541453,-0.00849976,-1.29991,0.0392382,0.0463968,1266,337,3.51236,29.3612
49,687,4.00684,-29.3388,0,0,0,0,0,0,0,-1,1273,337,4.00679,29.3389
56,687,3.77625,-29.27,-0.000277104,0.0648224,-0.0104864,0.0664698,-0.00192457,-1.41496,0.0449685,0.0437871,1280,337,3.77624,29.27
63,687,3.52966,-28.4346,0.0027557,0.0739152,-0.00782893,0.0747664,0.00190455,-1.4625,0.0492217,0.0427282,1287,337,3.52972,28.4346
70,687,3.4873,-28.3877,0.00521635,0.084392,-0.00613761,0.084865,0.0047434,-1.49389,0.0550637,0.0435928,1294,337,3.48726,28.3877
77,687,3.35278,-28.1664,0.00618018,0.0935583,-0.00535386,0.0938851,0.00585335,-1.50983,0.0607331,0.0473885,1301,337,3.35283,28.1664
84,687,3.23828,-27.9205,0.00871931,0.102896,-0.00516727,0.103179,0.00843665,-1.51615,0.0661532,0.0472961,1308,337,3.23834,27.9205
91,687,3.11438,-27.7543,0,0,0,0,0,0,0,-1,1315,337,3.11436,27.7543
98,687,4.72461,-25.6056,0.0123639,0.11774,-0.00535962,0.118012,0.012092,-1.52011,0.0749699,0.0465451,1322,337,4.72461,25.6056
105,687,5.4187,-26.663,0.0115391,0.121493,-0.00608054,0.121828,0.0112038,-1.51572,0.0777535,0.0432783,1329,337,5.41868,26.663
112,687,4.77161,-26.6671,0.0103483,0.122957,-0.00667802,0.123351,0.00995368,-1.51177,0.0791254,0.0452313,1336,337,4.77156,26.667
119,687,4.22229,-27.325,0.00832693,0.122509,-0.00592171,0.122815,0.00802064,-1.51912,0.0793386,0.0433554,1343,337,4.22235,27.325
126,687,4.14124,-27.4183,0.00540517,0.119334,-0.00418735,0.119488,0.00525148,-1.53411,0.0779669,0.0445939,1350,337,4.1413,27.4183
133,687,3.87866,-27.3205,0,0,0,0,0,0,0,-1,1357,337,3.87868,27.3205
140,687,3.66931,-27.2213,0,0,0,0,0,0,0,-1,1364,337,3.66932,27.2213
147,687,2.87878,-27.9245,0,0,0,0,0,0,0,-1,1371,337,2.87876,27.9245
154,687,2.88904,-28.1656,0,0,0,0,0,0,0,-1,1378,337,2.88902,28.1656
161,687,29.3895,-1.90628,0,0,0,0,0,0,0,-1,1385,337,29.3895,1.90628
168,687,29.8564,-1.19434,0,0,0,0,0,0,0,-1,1392,337,29.8564,1.19434
175,687,30.3419,-0.453583,0,0,0,0,0,0,0,-1,1399,337,30.3419,0.45357
182,687,6.67249,0.289917,0,0,0,0,0,0,0,-1,1406,337,6.67247,-0.289916
189,687,7.76062,4.53635,0,0,0,0,0,0,0,-1,1413,337,7.76064,-4.53636
196,687,6.99048,3.2966,0,0,0,0,0,0,0,-1,1420,337,6.99046,-3.2966
203,687,6.36499,2.1445,0,0,0,0,0,0,0,-1,1427,337,6.36499,-2.14451
210,687,6.68066,0.674652,0,0,0,0,0,0,0,-1,1434,337,6.68062,-0.674655
217,687,5.99683,-0.630493,0,0,0,0,0,0,0,-1,1441,337,5.99684,0.630497
224,687,5.52917,0.524902,0,0,0,0,0,0,0,-1,1448,337,5.5292,-0.524915
231,687,5.85583,-1.73651,0,0,0,0,0,0,0,-1,1455,337,5.85577,1.73651
238,687,5.96582,-2.96774,0,0,0,0,0,0,0,-1,1462,337,5.96577,2.96773
245,687,1.28259,2.32211,0,0,0,0,0,0,0,-1,1469,337,1.28258,-2.32211
252,687,1.97278,3.88422,0,0,0,0,0,0,0,-1,1476,337,1.97281,-3.88421
259,687,0,0,0,0,0,0,0,0,0,-1,1483,337,0,0
266,687,0,0,0,0,0,0,0,0,0,-1,1490,337,0,0
273,687,0,0,0,0,0,0,0,0,0,-1,1497,337,0,0
280,687,0,0,0,0,0,0,0,0,0,-1,1504,337,0,0
287,687,0,0,0,0,0,0,0,0,0,-1,1511,337,0,0
294,687,0,0,0,0,0,0,0,0,0,-1,1518,337,0,0
301,687,0,0,0,0,0,0,0,0,0,-1,1525,337,0,0
308,687,0,0,0,0,0,0,0,0,0,-1,1532,337,0,0
315,687,0,0,0,0,0,0,0,0,0,-1,1539,337,0,0
322,687,0,0,0,0,0,0,0,0,0,-1,1546,337,0,0
329,687,0,0,0,0,0,0,0,0,0,-1,1553,337,0,0
336,687,0,0,0,0,0,0,0,0,0,-1,1560,337,0,0
343,687,0,0,0,0,0,0,0,0,0,-1,1567,337,0,0
350,687,0,0,0,0,0,0,0,0,0,-1,1574,337,0,0
357,687,0,0,0,0,0,0,0,0,0,-1,1581,337,0,0
364,687,0,0,0,0,0,0,0,0,0,-1,1588,337,0,0
371,687,0,0,0,0,0,0,0,0,0,-1,1595,337,0,0
378,687,0,0,0,0,0,0,0,0,0,-1,1602,337,0,0
385,687,0,0,0,0,0,0,0,0,0,-1,1609,337,0,0
392,687,0,0,0,0,0,0,0,0,0,-1,1616,337,0,0
399,687,0,0,0,0,0,0,0,0,0,-1,1623,337,0,0
406,687,0,0,0,0,0,0,0,0,0,-1,1630,337,0,0
413,687,0,0,0,0,0,0,0,0,0,-1,1637,337,0,0
420,687,0,0,0,0,0,0,0,0,0,-1,1644,337,0,0
427,687,0,0,0,0,0,0,0,0,0,-1,1651,337,0,0
434,687,0,0,0,0,0,0,0,0,0,-1,1658,337,0,0
441,687,0,0,0,0,0,0,0,0,0,-1,1665,337,0,0
448,687,0,0,0,0,0,0,0,0,0,-1,1672,337,0,0
455,687,0,0,0,0,0,0,0,0,0,-1,1679,337,0,0
462,687,0,0,0,0,0,0,0,0,0,-1,1686,337,0,0
469,687,0,0,0,0,0,0,0,0,0,-1,1693,337,0,0
476,687,0,0,0,0,0,0,0,0,0,-1,1700,337,0,0
483,687,0,0,0,0,0,0,0,0,0,-1,1707,337,0,0
490,687,0,0,0,0,0,0,0,0,0,-1,1714,337,0,0
497,687,0,0,0,0,0,0,0,0,0,-1,1721,337,0,0
504,687,0,0,0,0,0,0,0,0,0,-1,1728,337,0,0
511,687,0,0,0,0,0,0,0,0,0,-1,1735,337,0,0
518,687,0,0,0,0,0,0,0,0,0,-1,1742,337,0,0
525,687,0,0,0,0,0,0,0,0,0,-1,1749,337,0,0
532,687,0,0,0,0,0,0,0,0,0,-1,1756,337,0,0
539,687,0,0,0,0,0,0,0,0,0,-1,1763,337,0,0
546,687,0,0,0,0,0,0,0,0,0,-1,1770,337,0,0
553,687,0,0,0,0,0,0,0,0,0,-1,1777,337,0,0
560,687,0,0,0,0,0,0,0,0,0,-1,1784,337,0,0
567,687,0,0,0,0,0,0,0,0,0,-1,1791,337,0,0
574,687,0,0,0,0,0,0,0,0,0,-1,1798,337,0,0
581,687,0,0,0,0,0,0,0,0,0,-1,1805,337,0,0
588,687,0,0,0,0,0,0,0,0,0,-1,1812,337,0,0
595,687,0,0,0,0,0,0,0,0,0,-1,1819,337,0,0
602,687,0,0,0,0,0,0,0,0,0,-1,1826,337,0,0
609,687,0,0,0,0,0,0,0,0,0,-1,1833,337,0,0
616,687,0,0,0,0,0,0,0,0,0,-1,1840,337,0,0
623,687,0,0,0,0,0,0,0,0,0,-1,1847,337,0,0
630,687,0,0,0,0,0,0,0,0,0,-1,1854,337,0,0
637,687,0,0,0,0,0,0,0,0,0,-1,1861,337,0,0
644,687,0,0,0,0,0,0,0,0,0,-1,1868,337,0,0
651,687,0,0,0,0,0,0,0,0,0,-1,1875,337,0,0
658,687,0,0,0,0,0,0,0,0,0,-1,1882,337,0,0
665,687,0,0,0,0,0,0,0,0,0,-1,1889,337,0,0
672,687,0,0,0,0,0,0,0,0,0,-1,1896,337,0,0
679,687,0,0,0,0,0,0,0,0,0,-1,1903,337,0,0
686,687,0,0,0,0,0,0,0,0,0,-1,1910,337,0,0
693,687,0,0,0,0,0,0,0,0,0,-1,1917,337,0,0
700,687,0,0,0,0,0,0,0,0,0,-1,1924,337,0,0
707,687,0,0,0,0,0,0,0,0,0,-1,1931,337,0,0
714,687,0,0,0,0,0,0,0,0,0,-1,1938,337,0,0
721,687,0,0,0,0,0,0,0,0,0,-1,1945,337,0,0
728,687,0,0,0,0,0,0,0,0,0,-1,1952,337,0,0
735,687,0,0,0,0,0,0,0,0,0,-1,1959,337,0,0
742,687,0,0,0,0,0,0,0,0,0,-1,1966,337,0,0
749,687,0,0,0,0,0,0,0,0,0,-1,1973,337,0,0
756,687,0,0,0,0,0,0,0,0,0,-1,1980,337,0,0
763,687,0,0,0,0,0,0,0,0,0,-1,1987,337,0,0
770,687,0,0,0,0,0,0,0,0,0,-1,1994,337,0,0
777,687,0,0,0,0,0,0,0,0,0,-1,2001,337,0,0
784,687,0,0,0,0,0,0,0,0,0,-1,2008,337,0,0
791,687,0,0,0,0,0,0,0,0,0,-1,2015,337,0,0
798,687,0,0,0,0,0,0,0,0,0,-1,2022,337,0,0
805,687,0,0,0,0,0,0,0,0,0,-1,2029,337,0,0
812,687,0,0,0,0,0,0,0,0,0,-1,2036,337,0,0
-700,680,0,0,0,0,0,0,0,0,0,-1,524,344,0,0
-693,680,0,0,0,0,0,0,0,0,0,-1,531,344,0,0
-686,680,0,0,0,0,0,0,0,0,0,-1,538,344,0,0
-679,680,0,0,0,0,0,0,0,0,0,-1,545,344,0,0
-672,680,0,0,0,0,0,0,0,0,0,-1,552,344,0,0
-665,680,0,0,0,0,0,0,0,0,0,-1,559,344,0,0
-658,680,0,0,0,0,0,0,0,0,0,-1,566,344,0,0
-651,680,0,0,0,0,0,0,0,0,0,-1,573,344,0,0
-644,680,0,0,0,0,0,0,0,0,0,-1,580,344,0,0
-637,680,0,0,0,0,0,0,0,0,0,-1,587,344,0,0
-630,680,0,0,0,0,0,0,0,0,0,-1,594,344,0,0
-623,680,0,0,0,0,0,0,0,0,0,-1,601,344,0,0
-616,680,0,0,0,0,0,0,0,0,0,-1,608,344,0,0
-609,680,0,0,0,0,0,0,0,0,0,-1,615,344,0,0
-602,680,0,0,0,0,0,0,0,0,0,-1,622,344,0,0
-595,680,0,0,0,0,0,0,0,0,0,-1,629,344,0,0
-588,680,0,0,0,0,0,0,0,0,0,-1,636,344,0,0
-581,680,0,0,0,0,0,0,0,0,0,-1,643,344,0,0
-574,680,0,0,0,0,0,0,0,0,0,-1,650,344,0,0
-567,680,0,0,0,0,0,0,0,0,0,-1,657,344,0,0
-560,680,0,0,0,0,0,0,0,0,0,-1,664,344,0,0
-553,680,0,0,0,0,0,0,0,0,0,-1,671,344,0,0
-546,680,0,0,0,0,0,0,0,0,0,-1,678,344,0,0
-539,680,0,0,0,0,0,0,0,0,0,-1,685,344,0,0
-532,680,0,0,0,0,0,0,0,0,0,-1,692,344,0,0
-525,680,0,0,0,0,0,0,0,0,0,-1,699,344,0,0
-518,680,0,0,0,0,0,0,0,0,0,-1,706,344,0,0
-511,680,0,0,0,0,0,0,0,0,0,-1,713,344,0,0
-504,680,0,0,0,0,0,0,0,0,0,-1,720,344,0,0
-497,680,0,0,0,0,0,0,0,0,0,-1,727,344,0,0
-490,680,0,0,0,0,0,0,0,0,0,-1,734,344,0,0
-483,680,0,0,0,0,0,0,0,0,0,-1,741,344,0,0
-476,680,0,0,0,0,0,0,0,0,0,-1,748,344,0,0
-469,680,0,0,0,0,0,0,0,0,0,-1,755,344,0,0
-462,680,0,0,0,0,0,0,0,0,0,-1,762,344,0,0
-455,680,0,0,0,0,0,0,0,0,0,-1,769,344,0,0
-448,680,0,0,0,0,0,0,0,0,0,-1,776,344,0,0
-441,680,0,0,0,0,0,0,0,0,0,-1,783,344,0,0
-434,680,0,0,0,0,0,0,0,0,0,-1,790,344,0,0
-427,680,0,0,0,0,0,0,0,0,0,-1,797,344,0,0
-420,680,0,0,0,0,0,0,0,0,0,-1,804,344,0,0
-413,680,0,0,0,0,0,0,0,0,0,-1,811,344,0,0
-406,680,0,0,0,0,0,0,0,0,0,-1,818,344,0,0
-399,680,0,0,0,0,0,0,0,0,0,-1,825,344,0,0
-392,680,0,0,0,0,0,0,0,0,0,-1,832,344,0,0
-385,680,0,0,0,0,0,0,0,0,0,-1,839,344,0,0
-378,680,0,0,0,0,0,0,0,0,0,-1,846,344,0,0
-371,680,0,0,0,0,0,0,0,0,0,-1,853,344,0,0
-364,680,0,0,0,0,0,0,0,0,0,-1,860,344,0,0
-357,680,0,0,0,0,0,0,0,0,0,-1,867,344,0,0
-350,680,0,0,0,0,0,0,0,0,0,-1,874,344,0,0
-343,680,0,0,0,0,0,0,0,0,0,-1,881,344,0,0
-336,680,0,0,0,0,0,0,0,0,0,-1,888,344,0,0
-329,680,0,0,0,0,0,0,0,0,0,-1,895,344,0,0
-322,680,0,0,0,0,0,0,0,0,0,-1,902,344,0,0
-315,680,0,0,0,0,0,0,0,0,0,-1,909,344,0,0
-308,680,0,0,0,0,0,0,0,0,0,-1,916,344,0,0
-301,680,0,0,0,0,0,0,0,0,0,-1,923,344,0,0
-294,680,0,0,0,0,0,0,0,0,0,-1,930,344,0,0
-287,680,0,0,0,0,0,0,0,0,0,-1,937,344,0,0
-280,680,0,0,0,0,0,0,0,0,0,-1,944,344,0,0
-273,680,0,0,0,0,0,0,0,0,0,-1,951,344,0,0
-266,680,0,0,0,0,0,0,0,0,0,-1,958,344,0,0
-259,680,0,0,0,0,0,0,0,0,0,-1,965,344,0,0
-252,680,0,0,0,0,0,0,0,0,0,-1,972,344,0,0
-245,680,0,0,0,0,0,0,0,0,0,-1,979,344,0,0
-238,680,0,0,0,0,0,0,0,0,0,-1,986,344,0,0
-231,680,0,0,0,0,0,0,0,0,0,-1,993,344,0,0
-224,680,0,0,0,0,0,0,0,0,0,-1,1000,344,0,0
-217,680,0,0,0,0,0,0,0,0,0,-1,1007,344,0,0
-210,680,0,0,0,0,0,0,0,0,0,-1,1014,344,0,0
-203,680,0,0,0,0,0,0,0,0,0,-1,1021,344,0,0
-196,680,0,0,0,0,0,0,0,0,0,-1,1028,344,0,0
-189,680,0,0,0,0,0,0,0,0,0,-1,1035,344,0,0
-182,680,0,0,0,0,0,0,0,0,0,-1,1042,344,0,0
-175,680,0,0,0,0,0,0,0,0,0,-1,1049,344,0,0
-168,680,0,0,0,0,0,0,0,0,0,-1,1056,344,0,0
-161,680,0,0,0,0,0,0,0,0,0,-1,1063,344,0,0
-154,680,1.28381,-29.7635,0,0,0,0,0,0,0,-1,1070,344,1.28375,29.7636
-147,680,5.88147,-30.576,0,0,0,0,0,0,0,-1,1077,344,5.88146,30.576
-140,680,5.78455,-30.1305,-0.0626192,-0.0362399,0.0320908,-0.0147339,-0.0841252,0.980379,0.0518744,0.0409611,1084,344,5.78453,30.1305
-133,680,5.52283,-29.9818,0,0,0,0,0,0,0,-1,1091,344,5.52286,29.9818
-126,680,4.97009,-29.394,0,0,0,0,0,0,0,-1,1098,344,4.97011,29.394
-119,680,4.24475,-28.3808,-0.0753865,-0.0248401,0.0322705,-0.009124,-0.0911026,1.11759,0.0579337,0.0436583,1105,344,4.24479,28.3808
-112,680,3.27454,-27.2468,-0.0791149,-0.0228439,0.0339631,-0.00687615,-0.0950827,1.13131,0.0612253,0.0431059,1112,344,3.27448,27.2468
-105,680,2.41931,-26.1147,0,0,0,0,0,0,0,-1,1119,344,2.41929,26.1147
-98,680,1.72107,-24.6609,0,0,0,0,0,0,0,-1,1126,344,1.72106,24.661
-91,680,8.26062,-28.3457,0,0,0,0,0,0,0,-1,1133,344,8.26058,28.3457
-84,680,2.97107,-23.7054,0,0,0,0,0,0,0,-1,1140,344,2.97105,23.7053
-77,680,-2.72839,-20.1797,0,0,0,0,0,0,0,-1,1147,344,-2.72841,20.1797
-70,680,-8.13635,-13.6907,0,0,0,0,0,0,0,-1,1154,344,-8.13641,13.6907
-63,680,-15.1622,-0.873932,0,0,0,0,0,0,0,-1,1161,344,-15.1623,0.873926
-56,680,-6.96912,-8.83356,0,0,0,0,0,0,0,-1,1168,344,-6.96907,8.83354
-49,680,-6.7677,-2.24063,0,0,0,0,0,0,0,-1,1175,344,-6.76772,2.24063
-42,680,-1.02368,0.618805,0,0,0,0,0,0,0,-1,1182,344,-1.0237,-0.618797
-35,680,-0.947876,-0.942719,0,0,0,0,0,0,0,-1,1189,344,-0.947842,0.942731
-28,680,-1.46118,-1.10574,0,0,0,0,0,0,0,-1,1196,344,-1.4612,1.10575
-21,680,4.02612,-29.6909,0,0,0,0,0,0,0,-1,1203,344,4.0261,29.6908
-14,680,4.39587,-29.7275,0.0106687,0.0278304,-0.0209792,0.0419158,-0.00341667,-0.979526,0.0291496,0.0438892,1210,344,4.39588,29.7275
-7,680,4.86084,-29.3248,0.00803275,0.0291737,-0.0214567,0.0425223,-0.00531593,-1.01427,0.0302762,0.0449783,1217,344,4.8609,29.3248
0,680,4.93604,-29.468,0.00546631,0.0301693,-0.0218587,0.0429248,-0.0072892,-1.04256,0.0313302,0.0475523,1224,344,4.93602,29.468
7,680,5.2998,-29.3505,0.00297993,0.0315953,-0.0214199,0.0430465,-0.00847126,-1.07985,0.0318986,0.0451806,1231,344,5.29983,29.3505
14,680,5.74182,-29.2862,0.000445878,0.0326003,-0.0203204,0.0424345,-0.00938824,-1.12007,0.0318832,0.0425793,1238,344,5.74178,29.2862
21,680,4.04163,-29.4525,-0.00178112,0.0339685,-0.0186344,0.0419152,-0.00972781,-1.1677,0.0316877,0.0476149,1245,344,4.04165,29.4525
28,680,4.34668,-29.4749,-0.0037173,0.035526,-0.0165215,0.0415552,-0.00974656,-1.22088,0.0314597,0.0453664,1252,344,4.3467,29.4749
35,680,4.32471,-29.6274,-0.00497331,0.0383368,-0.0140293,0.0424842,-0.00912063,-1.28336,0.031802,0.0453944,1259,344,4.32473,29.6274
42,680,4.06384,-29.5759,-0.00555176,0.0424118,-0.0118396,0.0451751,-0.0083151,-1.3415,0.033237,0.0449506,1266,344,4.06383,29.5759
49,680,4.07996,-29.5689,-0.00472953,0.0472376,-0.00970056,0.0489893,-0.00648126,-1.39214,0.0350205,0.0415339,1273,344,4.07991,29.5689
56,680,3.97473,-29.473,-0.00273087,0.0543479,-0.00820344,0.0555035,-0.00388648,-1.43085,0.0383635,0.0418387,1280,344,3.97479,29.473
63,680,3.87476,-29.2446,-0.000430487,0.0616317,-0.00639698,0.0622842,-0.00108299,-1.46915,0.0418884,0.0402342,1287,344,3.87474,29.2446
70,680,3.79126,-29.0122,0.0014548,0.0699315,-0.0052322,0.0703289,0.00105732,-1.49497,0.0465375,0.0405252,1294,344,3.79122,29.0122
77,680,3.56311,-28.7547,0.00206649,0.0772736,-0.00466082,0.0775613,0.00177874,-1.50914,0.051125,0.0449003,1301,344,3.56312,28.7547
84,680,3.26123,-28.4577,0.00379406,0.0846057,-0.00456494,0.0848628,0.00353702,-1.51455,0.0554338,0.0461515,1308,344,3.26117,28.4577
91,680,3.13892,-29.0831,0,0,0,0,0,0,0,-1,1315,344,3.13886,29.0831
98,680,4.98645,-26.8958,0,0,0,0,0,0,0,-1,1322,344,4.98641,26.8958
105,680,3.60327,-29.4553,0,0,0,0,0,0,0,-1,1329,344,3.60331,29.4553
112,680,4.30469,-27.5104,0.00475276,0.100117,-0.00587816,0.100477,0.0043918,-1.50947,0.0655701,0.0462604,1336,344,4.30474,27.5104
119,680,4.17004,-28.0318,0.00326294,0.0995965,-0.00545056,0.0999039,0.00295553,-1.51446,0.0656396,0.0445384,1343,344,4.17008,28.0318
126,680,4.17651,-28.089,0.00120041,0.0969693,-0.00432225,0.097164,0.00100573,-1.52579,0.0644434,0.0430637,1350,344,4.17647,28.089
133,680,3.10132,-28.5744,0,0,0,0,0,0,0,-1,1357,344,3.10137,28.5744
140,680,3.0553,-28.4221,0,0,0,0,0,0,0,-1,1364,344,3.05527,28.4221
147,680,3.12085,-28.2624,-0.0065342,0.0789675,0.000552279,0.0789711,-0.00653777,1.56434,0.0549564,0.0480917,1371,344,3.12083,28.2624
154,680,2.9657,-28.2765,-0.00847696,0.0718179,0.00198973,0.0718672,-0.00852624,1.54604,0.0509917,0.0490933,1378,344,2.96568,28.2764
161,680,2.63611,-28.338,0,0,0,0,0,0,0,-1,1385,344,2.63616,28.3381
168,680,29.4142,-2.51651,0,0,0,0,0,0,0,-1,1392,344,29.4142,2.51652
175,680,6.66541,0.942078,0,0,0,0,0,0,0,-1,1399,344,6.66538,-0.942088
182,680,6.52917,0.532379,0,0,0,0,0,0,0,-1,1406,344,6.52922,-0.532385
189,680,7.55884,4.77695,0,0,0,0,0,0,0,-1,1413,344,7.55886,-4.77694
196,680,6.55627,3.35254,0,0,0,0,0,0,0,-1,1420,344,6.55622,-3.35255
203,680,5.7334,1.90753,0,0,0,0,0,0,0,-1,1427,344,5.73341,-1.90754
210,680,5.27515,0.493622,0,0,0,0,0,0,0,-1,1434,344,5.27514,-0.493632
217,680,6.56384,-0.374176,0,0,0,0,0,0,0,-1,1441,344,6.56379,0.374176
224,680,3.9491,-0.640228,0,0,0,0,0,0,0,-1,1448,344,3.94908,0.64024
231,680,4.24866,-1.96881,0,0,0,0,0,0,0,-1,1455,344,4.2486,1.96882
238,680,4.29333,-3.23984,0,0,0,0,0,0,0,-1,1462,344,4.29332,3.23984
245,680,2.44397,0.985382,0,0,0,0,0,0,0,-1,1469,344,2.44402,-0.985394
252,680,3.07349,2.18951,0,0,0,0,0,0,0,-1,1476,344,3.0735,-2.18952
259,680,2.82971,1.30682,0,0,0,0,0,0,0,-1,1483,344,2.82972,-1.30684
266,680,2.67554,1.44067,0,0,0,0,0,0,0,-1,1490,344,2.67551,-1.44066
273,680,2.46411,1.54666,0,0,0,0,0,0,0,-1,1497,344,2.46407,-1.54666
280,680,0,0,0,0,0,0,0,0,0,-1,1504,344,0,0
287,680,0,0,0,0,0,0,0,0,0,-1,1511,344,0,0
294,680,0,0,0,0,0,0,0,0,0,-1,1518,344,0,0
301,680,0,0,0,0,0,0,0,0,0,-1,1525,344,0,0
308,680,0,0,0,0,0,0,0,0,0,-1,1532,344,0,0
315,680,0,0,0,0,0,0,0,0,0,-1,1539,344,0,0
322,680,0,0,0,0,0,0,0,0,0,-1,1546,344,0,0
329,680,0,0,0,0,0,0,0,0,0,-1,1553,344,0,0
336,680,0,0,0,0,0,0,0,0,0,-1,1560,344,0,0
343,680,0,0,0,0,0,0,0,0,0,-1,1567,344,0,0
350,680,0,0,0,0,0,0,0,0,0,-1,1574,344,0,0
357,680,0,0,0,0,0,0,0,0,0,-1,1581,344,0,0
364,680,0,0,0,0,0,0,0,0,0,-1,1588,344,0,0
371,680,0,0,0,0,0,0,0,0,0,-1,1595,344,0,0
378,680,0,0,0,0,0,0,0,0,0,-1,1602,344,0,0
385,680,0,0,0,0,0,0,0,0,0,-1,1609,344,0,0
392,680,0,0,0,0,0,0,0,0,0,-1,1616,344,0,0
399,680,0,0,0,0,0,0,0,0,0,-1,1623,344,0,0
406,680,0,0,0,0,0,0,0,0,0,-1,1630,344,0,0
413,680,0,0,0,0,0,0,0,0,0,-1,1637,344,0,0
420,680,0,0,0,0,0,0,0,0,0,-1,1644,344,0,0
427,680,0,0,0,0,0,0,0,0,0,-1,1651,344,0,0
434,680,0,0,0,0,0,0,0,0,0,-1,1658,344,0,0
441,680,0,0,0,0,0,0,0,0,0,-1,1665,344,0,0
448,680,0,0,0,0,0,0,0,0,0,-1,1672,344,0,0
455,680,0,0,0,0,0,0,0,0,0,-1,1679,344,0,0
462,680,0,0,0,0,0,0,0,0,0,-1,1686,344,0,0
469,680,0,0,0,0,0,0,0,0,0,-1,1693,344,0,0
476,680,0,0,0,0,0,0,0,0,0,-1,1700,344,0,0
483,680,0,0,0,0,0,0,0,0,0,-1,1707,344,0,0
490,680,0,0,0,0,0,0,0,0,0,-1,1714,344,0,0
497,680,0,0,0,0,0,0,0,0,0,-1,1721,344,0,0
504,680,0,0,0,0,0,0,0,0,0,-1,1728,344,0,0
511,680,0,0,0,0,0,0,0,0,0,-1,1735,344,0,0
518,680,0,0,0,0,0,0,0,0,0,-1,1742,344,0,0
525,680,0,0,0,0,0,0,0,0,0,-1,1749,344,0,0
532,680,0,0,0,0,0,0,0,0,0,-1,1756,344,0,0
539,680,0,0,0,0,0,0,0,0,0,-1,1763,344,0,0
546,680,0,0,0,0,0,0,0,0,0,-1,1770,344,0,0
553,680,0,0,0,0,0,0,0,0,0,-1,1777,344,0,0
560,680,0,0,0,0,0,0,0,0,0,-1,1784,344,0,0
567,680,0,0,0,0,0,0,0,0,0,-1,1791,344,0,0
574,680,0,0,0,0,0,0,0,0,0,-1,1798,344,0,0
581,680,0,0,0,0,0,0,0,0,0,-1,1805,344,0,0
588,680,0,0,0,0,0,0,0,0,0,-1,1812,344,0,0
595,680,0,0,0,0,0,0,0,0,0,-1,1819,344,0,0
602,680,0,0,0,0,0,0,0,0,0,-1,1826,344,0,0
609,680,0,0,0,0,0,0,0,0,0,-1,1833,344,0,0
616,680,0,0,0,0,0,0,0,0,0,-1,1840,344,0,0
623,680,0,0,0,0,0,0,0,0,0,-1,1847,344,0,0
630,680,0,0,0,0,0,0,0,0,0,-1,1854,344,0,0
637,680,0,0,0,0,0,0,0,0,0,-1,1861,344,0,0
644,680,0,0,0,0,0,0,0,0,0,-1,1868,344,0,0
651,680,0,0,0,0,0,0,0,0,0,-1,1875,344,0,0
658,680,0,0,0,0,0,0,0,0,0,-1,1882,344,0,0
665,680,0,0,0,0,0,0,0,0,0,-1,1889,344,0,0
672,680,0,0,0,0,0,0,0,0,0,-1,1896,344,0,0
679,680,0,0,0,0,0,0,0,0,0,-1,1903,344,0,0
686,680,0,0,0,0,0,0,0,0,0,-1,1910,344,0,0
693,680,0,0,0,0,0,0,0,0,0,-1,1917,344,0,0
700,680,0,0,0,0,0,0,0,0,0,-1,1924,344,0,0
707,680,0,0,0,0,0,0,0,0,0,-1,1931,344,0,0
714,680,0,0,0,0,0,0,0,0,0,-1,1938,344,0,0
721,680,0,0,0,0,0,0,0,0,0,-1,1945,344,0,0
728,680,0,0,0,0,0,0,0,0,0,-1,1952,344,0,0
735,680,0,0,0,0,0,0,0,0,0,-1,1959,344,0,0
742,680,0,0,0,0,0,0,0,0,0,-1,1966,344,0,0
749,680,0,0,0,0,0,0,0,0,0,-1,1973,344,0,0
756,680,0,0,0,0,0,0,0,0,0,-1,1980,344,0,0
763,680,0,0,0,0,0,0,0,0,0,-1,1987,344,0,0
770,680,0,0,0,0,0,0,0,0,0,-1,1994,344,0,0
777,680,0,0,0,0,0,0,0,0,0,-1,2001,344,0,0
784,680,0,0,0,0,0,0,0,0,0,-1,2008,344,0,0
791,680,0,0,0,0,0,0,0,0,0,-1,2015,344,0,0
798,680,0,0,0,0,0,0,0,0,0,-1,2022,344,0,0
805,680,0,0,0,0,0,0,0,0,0,-1,2029,344,0,0
812,680,0,0,0,0,0,0,0,0,0,-1,2036,344,0,0
-700,673,0,0,0,0,0,0,0,0,0,-1,524,351,0,0
-693,673,0,0,0,0,0,0,0,0,0,-1,531,351,0,0
-686,673,0,0,0,0,0,0,0,0,0,-1,538,351,0,0
-679,673,0,0,0,0,0,0,0,0,0,-1,545,351,0,0
-672,673,0,0,0,0,0,0,0,0,0,-1,552,351,0,0
-665,673,0,0,0,0,0,0,0,0,0,-1,559,351,0,0
-658,673,0,0,0,0,0,0,0,0,0,-1,566,351,0,0
-651,673,0,0,0,0,0,0,0,0,0,-1,573,351,0,0
-644,673,0,0,0,0,0,0,0,0,0,-1,580,351,0,0
-637,673,0,0,0,0,0,0,0,0,0,-1,587,351,0,0
-630,673,0,0,0,0,0,0,0,0,0,-1,594,351,0,0
-623,673,0,0,0,0,0,0,0,0,0,-1,601,351,0,0
-616,673,0,0,0,0,0,0,0,0,0,-1,608,351,0,0
-609,673,0,0,0,0,0,0,0,0,0,-1,615,351,0,0
-602,673,0,0,0,0,0,0,0,0,0,-1,622,351,0,0
-595,673,0,0,0,0,0,0,0,0,0,-1,629,351,0,0
-588,673,0,0,0,0,0,0,0,0,0,-1,636,351,0,0
-581,673,0,0,0,0,0,0,0,0,0,-1,643,351,0,0
-574,673,0,0,0,0,0,0,0,0,0,-1,650,351,0,0
-567,673,0,0,0,0,0,0,0,0,0,-1,657,351,0,0
-560,673,0,0,0,0,0,0,0,0,0,-1,664,351,0,0
-553,673,0,0,0,0,0,0,0,0,0,-1,671,351,0,0
-546,673,0,0,0,0,0,0,0,0,0,-1,678,351,0,0
-539,673,0,0,0,0,0,0,0,0,0,-1,685,351,0,0
-532,673,0,0,0,0,0,0,0,0,0,-1,692,351,0,0
-525,673,0,0,0,0,0,0,0,0,0,-1,699,351,0,0
-518,673,0,0,0,0,0,0,0,0,0,-1,706,351,0,0
-511,673,0,0,0,0,0,0,0,0,0,-1,713,351,0,0
-504,673,0,0,0,0,0,0,0,0,0,-1,720,351,0,0
-497,673,0,0,0,0,0,0,0,0,0,-1,727,351,0,0
-490,673,0,0,0,0,0,0,0,0,0,-1,734,351,0,0
-483,673,0,0,0,0,0,0,0,0,0,-1,741,351,0,0
-476,673,0,0,0,0,0,0,0,0,0,-1,748,351,0,0
-469,673,0,0,0,0,0,0,0,0,0,-1,755,351,0,0
-462,673,0,0,0,0,0,0,0,0,0,-1,762,351,0,0
-455,673,0,0,0,0,0,0,0,0,0,-1,769,351,0,0
-448,673,0,0,0,0,0,0,0,0,0,-1,776,351,0,0
-441,673,0,0,0,0,0,0,0,0,0,-1,783,351,0,0
-434,673,0,0,0,0,0,0,0,0,0,-1,790,351,0,0
-427,673,0,0,0,0,0,0,0,0,0,-1,797,351,0,0
-420,673,0,0,0,0,0,0,0,0,0,-1,804,351,0,0
-413,673,0,0,0,0,0,0,0,0,0,-1,811,351,0,0
-406,673,0,0,0,0,0,0,0,0,0,-1,818,351,0,0
-399,673,0,0,0,0,0,0,0,0,0,-1,825,351,0,0
-392,673,0,0,0,0,0,0,0,0,0,-1,832,351,0,0
-385,673,0,0,0,0,0,0,0,0,0,-1,839,351,0,0
-378,673,0,0,0,0,0,0,0,0,0,-1,846,351,0,0
-371,673,0,0,0,0,0,0,0,0,0,-1,853,351,0,0
-364,673,0,0,0,0,0,0,0,0,0,-1,860,351,0,0
-357,673,0,0,0,0,0,0,0,0,0,-1,867,351,0,0
-350,673,0,0,0,0,0,0,0,0,0,-1,874,351,0,0
-343,673,0,0,0,0,0,0,0,0,0,-1,881,351,0,0
-336,673,0,0,0,0,0,0,0,0,0,-1,888,351,0,0
-329,673,0,0,0,0,0,0,0,0,0,-1,895,351,0,0
-322,673,0,0,0,0,0,0,0,0,0,-1,902,351,0,0
-315,673,0,0,0,0,0,0,0,0,0,-1,909,351,0,0
-308,673,0,0,0,0,0,0,0,0,0,-1,916,351,0,0
-301,673,0,0,0,0,0,0,0,0,0,-1,923,351,0,0
-294,673,0,0,0,0,0,0,0,0,0,-1,930,351,0,0
-287,673,0,0,0,0,0,0,0,0,0,-1,937,351,0,0
-280,673,0,0,0,0,0,0,0,0,0,-1,944,351,0,0
-273,673,0,0,0,0,0,0,0,0,0,-1,951,351,0,0
-266,673,0,0,0,0,0,0,0,0,0,-1,958,351,0,0
-259,673,0,0,0,0,0,0,0,0,0,-1,965,351,0,0
-252,673,0,0,0,0,0,0,0,0,0,-1,972,351,0,0
-245,673,0,0,0,0,0,0,0,0,0,-1,979,351,0,0
-238,673,0,0,0,0,0,0,0,0,0,-1,986,351,0,0
-231,673,0,0,0,0,0,0,0,0,0,-1,993,351,0,0
-224,673,0,0,0,0,0,0,0,0,0,-1,1000,351,0,0
-217,673,0,0,0,0,0,0,0,0,0,-1,1007,351,0,0
-210,673,0,0,0,0,0,0,0,0,0,-1,1014,351,0,0
-203,673,0,0,0,0,0,0,0,0,0,-1,1021,351,0,0
-196,673,0,0,0,0,0,0,0,0,0,-1,1028,351,0,0
-189,673,0,0,0,0,0,0,0,0,0,-1,1035,351,0,0
-182,673,0,0,0,0,0,0,0,0,0,-1,1042,351,0,0
-175,673,1.60974,-23.5722,0,0,0,0,0,0,0,-1,1049,351,1.60975,23.5722
-168,673,6.62671,-27.0157,0,0,0,0,0,0,0,-1,1056,351,6.62669,27.0158
-161,673,7.53357,-28.8507,0,0,0,0,0,0,0,-1,1063,351,7.53361,28.8507
-154,673,5.28796,-30.492,0,0,0,0,0,0,0,-1,1070,351,5.28798,30.492
-147,673,5.50378,-30.2619,0,0,0,0,0,0,0,-1,1077,351,5.50384,30.2619
-140,673,5.5863,-29.8901,0,0,0,0,0,0,0,-1,1084,351,5.58634,29.8901
-133,673,3.1637,-27.6247,0,0,0,0,0,0,0,-1,1091,351,3.16368,27.6247
-126,673,5.02722,-29.1686,0,0,0,0,0,0,0,-1,1098,351,5.02723,29.1686
-119,673,4.43677,-28.2543,-0.0557465,-0.0153091,0.0204876,-0.00674346,-0.0643121,1.1748,0.0408131,0.0430418,1105,351,4.43679,28.2543
-112,673,3.87781,-27.1186,-0.0582621,-0.0137154,0.0213951,-0.00510425,-0.0668733,1.18815,0.0429819,0.0408999,1112,351,3.87783,27.1186
-105,673,3.40576,-25.9772,0,0,0,0,0,0,0,-1,1119,351,3.40575,25.9772
-98,673,4.19348,-22.9196,0,0,0,0,0,0,0,-1,1126,351,4.19349,22.9196
-91,673,8.84436,-25.6321,0,0,0,0,0,0,0,-1,1133,351,8.8443,25.6321
-84,673,3.66992,-23.3761,0,0,0,0,0,0,0,-1,1140,351,3.66988,23.3761
-77,673,-1.69958,-17.2119,0,0,0,0,0,0,0,-1,1147,351,-1.69959,17.212
-70,673,-7.15796,-10.6591,0,0,0,0,0,0,0,-1,1154,351,-7.15792,10.6591
-63,673,-12.606,-3.97971,0,0,0,0,0,0,0,-1,1161,351,-12.606,3.97969
-56,673,-18.0282,2.79053,0,0,0,0,0,0,0,-1,1168,351,-18.0283,-2.79052
-49,673,-0.926758,-0.115448,0,0,0,0,0,0,0,-1,1175,351,-0.926732,0.115444
-42,673,-1.15015,0.289917,0,0,0,0,0,0,0,-1,1182,351,-1.15017,-0.289932
-35,673,-0.919556,-1.00711,0,0,0,0,0,0,0,-1,1189,351,-0.919514,1.00711
-28,673,3.19104,-25.0986,0,0,0,0,0,0,0,-1,1196,351,3.19099,25.0986
-21,673,4.75122,-29.0989,0,0,0,0,0,0,0,-1,1203,351,4.75118,29.0989
-14,673,4.32739,-29.605,0.00580569,0.0221536,-0.0124798,0.028898,-0.000938767,-1.07533,0.0195858,0.0453065,1210,351,4.32736,29.605
-7,673,4.6427,-29.4351,0.00392207,0.0235018,-0.0132623,0.0301962,-0.00277231,-1.10334,0.0211156,0.0410558,1217,351,4.64264,29.4351
0,673,4.61975,-29.5396,0.00221183,0.0246015,-0.0138703,0.0312311,-0.00441779,-1.12493,0.0224388,0.0458769,1224,351,4.6198,29.5396
7,673,4.57458,-29.5413,0.000474136,0.0260158,-0.0137877,0.0320385,-0.00554854,-1.15896,0.0234285,0.0488492,1231,351,4.5746,29.5413
14,673,4.5791,-29.4858,-0.00135352,0.0270968,-0.0132776,0.0323305,-0.00658727,-1.19532,0.024052,0.0400003,1238,351,4.57906,29.4858
21,673,4.36584,-29.6359,-0.00299537,0.0284142,-0.0123697,0.0327007,-0.00728185,-1.23722,0.0245898,0.0282207,1245,351,4.36583,29.6359
28,673,4.37073,-29.7162,-0.00444685,0.0298212,-0.0111492,0.0331293,-0.00775494,-1.28236,0.0250741,0.0201071,1252,351,4.37076,29.7162
35,673,4.34668,-29.754,-0.00542614,0.0321035,-0.00966353,0.0344456,-0.00776825,-1.33302,0.0259438,0.029394,1259,351,4.34674,29.754
42,673,4.20789,-29.7397,-0.00598065,0.0352952,-0.00838951,0.0369353,-0.00762069,-1.37774,0.0275178,0.0300518,1266,351,4.2079,29.7397
49,673,4.15784,-29.7476,-0.00539593,0.0389984,-0.00710884,0.040109,-0.00650648,-1.41583,0.0291512,0.0176662,1273,351,4.15788,29.7476
56,673,4.12781,-29.7378,-0.00395527,0.0444136,-0.00622226,0.0452012,-0.00474289,-1.44489,0.0318331,0.015122,1280,351,4.12782,29.7378
63,673,4.16565,-29.6391,-0.00228185,0.0500555,-0.00505256,0.0505388,-0.00276516,-1.47543,0.0346511,0.0192966,1287,351,4.16566,29.6391
70,673,4.05774,-29.5623,-0.000887099,0.056432,-0.00427918,0.0567497,-0.0012048,-1.49669,0.0382411,0.0296838,1294,351,4.05775,29.5624
77,673,3.97815,-29.1512,-0.000516455,0.0621725,-0.00386011,0.0624093,-0.00075325,-1.50953,0.0418595,0.0383362,1301,351,3.97811,29.1512
84,673,3.74866,-29.2399,0.000605298,0.0677677,-0.0038171,0.067984,0.000389058,-1.51421,0.0451935,0.0424197,1308,351,3.74867,29.2399
91,673,3.54504,-29.4869,0.00190508,0.0727307,-0.00379363,0.0729333,0.00170247,-1.51744,0.0480648,0.0490054,1315,351,3.54509,29.4869
98,673,3.45203,-29.5129,0,0,0,0,0,0,0,-1,1322,351,3.45209,29.5129
105,673,3.69092,-29.6327,0,0,0,0,0,0,0,-1,1329,351,3.69086,29.6327
112,673,3.65588,-29.5601,0,0,0,0,0,0,0,-1,1336,351,3.65589,29.5601
119,673,3.7666,-28.7859,0,0,0,0,0,0,0,-1,1343,351,3.76661,28.7859
126,673,3.88464,-28.832,-0.00135792,0.0764896,-0.00384324,0.0766788,-0.0015472,-1.52159,0.0516427,0.0433755,1350,351,3.88467,28.832
133,673,3.36267,-28.8655,-0.00302996,0.0724499,-0.00277618,0.0725518,-0.00313194,-1.53408,0.049445,0.0432669,1357,351,3.36273,28.8655
140,673,3.26978,-28.8405,-0.00469139,0.0675533,-0.00164383,0.0675907,-0.00472878,-1.54806,0.0467166,0.0436996,1364,351,3.26978,28.8405
147,673,3.33337,-28.6387,-0.00649264,0.0619378,-0.000408978,0.0619402,-0.00649509,-1.56482,0.04362,0.0409617,1371,351,3.33338,28.6387
154,673,3.37549,-28.4352,-0.0079817,0.0560443,0.000658404,0.056051,-0.00798847,1.56051,0.040295,0.0405633,1378,351,3.37553,28.4352
161,673,3.31433,-28.1546,0,0,0,0,0,0,0,-1,1385,351,3.31427,28.1546
168,673,6.87061,1.83954,0,0,0,0,0,0,0,-1,1392,351,6.87063,-1.83953
175,673,6.6228,1.1459,0,0,0,0,0,0,0,-1,1399,351,6.62276,-1.14591
182,673,6.37244,0.796112,0,0,0,0,0,0,0,-1,1406,351,6.3724,-0.796102
189,673,6.12097,0.265472,0,0,0,0,0,0,0,-1,1413,351,6.121,-0.265482
196,673,6.02173,3.12717,0,0,0,0,0,0,0,-1,1420,351,6.02176,-3.12717
203,673,5.04456,1.6351,0,0,0,0,0,0,0,-1,1427,351,5.04455,-1.63509
210,673,4.79224,0.447479,0,0,0,0,0,0,0,-1,1434,351,4.79229,-0.447469
217,673,2.01648,0.972687,0,0,0,0,0,0,0,-1,1441,351,2.01644,-0.972691
224,673,2.3689,-1.80539,0,0,0,0,0,0,0,-1,1448,351,2.36896,1.80539
231,673,2.65857,-2.18497,0,0,0,0,0,0,0,-1,1455,351,2.65852,2.18496
238,673,3.77844,-2.06088,0,0,0,0,0,0,0,-1,1462,351,3.77839,2.06088
245,673,3.5376,-0.190399,0,0,0,0,0,0,0,-1,1469,351,3.53759,0.1904
252,673,3.80518,0.55603,0,0,0,0,0,0,0,-1,1476,351,3.80519,-0.556022
259,673,3.88562,1.29617,0,0,0,0,0,0,0,-1,1483,351,3.88562,-1.29618
266,673,4.22424,2.04834,0,0,0,0,0,0,0,-1,1490,351,4.22429,-2.04834
273,673,6.07886,0.385895,0,0,0,0,0,0,0,-1,1497,351,6.0789,-0.385906
280,673,6.97534,-0.0820007,0,0,0,0,0,0,0,-1,1504,351,6.97536,0.0820122
287,673,7.66968,-0.348541,0,0,0,0,0,0,0,-1,1511,351,7.66969,0.348534
294,673,8.20996,0.28537,0,0,0,0,0,0,0,-1,1518,351,8.20993,-0.28536
301,673,0,0,0,0,0,0,0,0,0,-1,1525,351,0,0
308,673,0,0,0,0,0,0,0,0,0,-1,1532,351,0,0
315,673,0,0,0,0,0,0,0,0,0,-1,1539,351,0,0
322,673,0,0,0,0,0,0,0,0,0,-1,1546,351,0,0
329,673,0,0,0,0,0,0,0,0,0,-1,1553,351,0,0
336,673,0,0,0,0,0,0,0,0,0,-1,1560,351,0,0
343,673,0,0,0,0,0,0,0,0,0,-1,1567,351,0,0
350,673,0,0,0,0,0,0,0,0,0,-1,1574,351,0,0
357,673,0,0,0,0,0,0,0,0,0,-1,1581,351,0,0
364,673,0,0,0,0,0,0,0,0,0,-1,1588,351,0,0
371,673,0,0,0,0,0,0,0,0,0,-1,1595,351,0,0
378,673,0,0,0,0,0,0,0,0,0,-1,1602,351,0,0
385,673,0,0,0,0,0,0,0,0,0,-1,1609,351,0,0
392,673,0,0,0,0,0,0,0,0,0,-1,1616,351,0,0
399,673,0,0,0,0,0,0,0,0,0,-1,1623,351,0,0
406,673,0,0,0,0,0,0,0,0,0,-1,1630,351,0,0
413,673,0,0,0,0,0,0,0,0,0,-1,1637,351,0,0
420,673,0,0,0,0,0,0,0,0,0,-1,1644,351,0,0
427,673,0,0,0,0,0,0,0,0,0,-1,1651,351,0,0
434,673,0,0,0,0,0,0,0,0,0,-1,1658,351,0,0
441,673,0,0,0,0,0,0,0,0,0,-1,1665,351,0,0
448,673,0,0,0,0,0,0,0,0,0,-1,1672,351,0,0
455,673,0,0,0,0,0,0,0,0,0,-1,1679,351,0,0
462,673,0,0,0,0,0,0,0,0,0,-1,1686,351,0,0
469,673,0,0,0,0,0,0,0,0,0,-1,1693,351,0,0
476,673,0,0,0,0,0,0,0,0,0,-1,1700,351,0,0
483,673,0,0,0,0,0,0,0,0,0,-1,1707,351,0,0
490,673,0,0,0,0,0,0,0,0,0,-1,1714,351,0,0
497,673,0,0,0,0,0,0,0,0,0,-1,1721,351,0,0
504,673,0,0,0,0,0,0,0,0,0,-1,1728,351,0,0
511,673,0,0,0,0,0,0,0,0,0,-1,1735,351,0,0
518,673,0,0,0,0,0,0,0,0,0,-1,1742,351,0,0
525,673,0,0,0,0,0,0,0,0,0,-1,1749,351,0,0
532,673,0,0,0,0,0,0,0,0,0,-1,1756,351,0,0
539,673,0,0,0,0,0,0,0,0,0,-1,1763,351,0,0
546,673,0,0,0,0,0,0,0,0,0,-1,1770,351,0,0
553,673,0,0,0,0,0,0,0,0,0,-1,1777,351,0,0
560,673,0,0,0,0,0,0,0,0,0,-1,1784,351,0,0
567,673,0,0,0,0,0,0,0,0,0,-1,1791,351,0,0
574,673,0,0,0,0,0,0,0,0,0,-1,1798,351,0,0
581,673,0,0,0,0,0,0,0,0,0,-1,1805,351,0,0
588,673,0,0,0,0,0,0,0,0,0,-1,1812,351,0,0
595,673,0,0,0,0,0,0,0,0,0,-1,1819,351,0,0
602,673,0,0,0,0,0,0,0,0,0,-1,1826,351,0,0
609,673,0,0,0,0,0,0,0,0,0,-1,1833,351,0,0
616,673,0,0,0,0,0,0,0,0,0,-1,1840,351,0,0
623,673,0,0,0,0,0,0,0,0,0,-1,1847,351,0,0
630,673,0,0,0,0,0,0,0,0,0,-1,1854,351,0,0
637,673,0,0,0,0,0,0,0,0,0,-1,1861,351,0,0
644,673,0,0,0,0,0,0,0,0,0,-1,1868,351,0,0
651,673,0,0,0,0,0,0,0,0,0,-1,1875,351,0,0
658,673,0,0,0,0,0,0,0,0,0,-1,1882,351,0,0
665,673,0,0,0,0,0,0,0,0,0,-1,1889,351,0,0
672,673,0,0,0,0,0,0,0,0,0,-1,1896,351,0,0
679,673,0,0,0,0,0,0,0,0,0,-1,1903,351,0,0
686,673,0,0,0,0,0,0,0,0,0,-1,1910,351,0,0
693,673,0,0,0,0,0,0,0,0,0,-1,1917,351,0,0
700,673,0,0,0,0,0,0,0,0,0,-1,1924,351,0,0
707,673,0,0,0,0,0,0,0,0,0,-1,1931,351,0,0
714,673,0,0,0,0,0,0,0,0,0,-1,1938,351,0,0
721,673,0,0,0,0,0,0,0,0,0,-1,1945,351,0,0
728,673,0,0,0,0,0,0,0,0,0,-1,1952,351,0,0
735,673,0,0,0,0,0,0,0,0,0,-1,1959,351,0,0
742,673,0,0,0,0,0,0,0,0,0,-1,1966,351,0,0
749,673,0,0,0,0,0,0,0,0,0,-1,1973,351,0,0
756,673,0,0,0,0,0,0,0,0,0,-1,1980,351,0,0
763,673,0,0,0,0,0,0,0,0,0,-1,1987,351,0,0
770,673,0,0,0,0,0,0,0,0,0,-1,1994,351,0,0
777,673,0,0,0,0,0,0,0,0,0,-1,2001,351,0,0
784,673,0,0,0,0,0,0,0,0,0,-1,2008,351,0,0
791,673,0,0,0,0,0,0,0,0,0,-1,2015,351,0,0
798,673,0,0,0,0,0,0,0,0,0,-1,2022,351,0,0
805,673,0,0,0,0,0,0,0,0,0,-1,2029,351,0,0
812,673,0,0,0,0,0,0,0,0,0,-1,2036,351,0,0
-700,666,0,0,0,0,0,0,0,0,0,-1,524,358,0,0
-693,666,0,0,0,0,0,0,0,0,0,-1,531,358,0,0
-686,666,0,0,0,0,0,0,0,0,0,-1,538,358,0,0
-679,666,0,0,0,0,0,0,0,0,0,-1,545,358,0,0
-672,666,0,0,0,0,0,0,0,0,0,-1,552,358,0,0
-665,666,0,0,0,0,0,0,0,0,0,-1,559,358,0,0
-658,666,0,0,0,0,0,0,0,0,0,-1,566,358,0,0
-651,666,0,0,0,0,0,0,0,0,0,-1,573,358,0,0
-644,666,0,0,0,0,0,0,0,0,0,-1,580,358,0,0
-637,666,0,0,0,0,0,0,0,0,0,-1,587,358,0,0
-630,666,0,0,0,0,0,0,0,0,0,-1,594,358,0,0
-623,666,0,0,0,0,0,0,0,0,0,-1,601,358,0,0
-616,666,0,0,0,0,0,0,0,0,0,-1,608,358,0,0
-609,666,0,0,0,0,0,0,0,0,0,-1,615,358,0,0
-602,666,0,0,0,0,0,0,0,0,0,-1,622,358,0,0
-595,666,0,0,0,0,0,0,0,0,0,-1,629,358,0,0
-588,666,0,0,0,0,0,0,0,0,0,-1,636,358,0,0
-581,666,0,0,0,0,0,0,0,0,0,-1,643,358,0,0
-574,666,0,0,0,0,0,0,0,0,0,-1,650,358,0,0
-567,666,0,0,0,0,0,0,0,0,0,-1,657,358,0,0
-560,666,0,0,0,0,0,0,0,0,0,-1,664,358,0,0
-553,666,0,0,0,0,0,0,0,0,0,-1,671,358,0,0
-546,666,0,0,0,0,0,0,0,0,0,-1,678,358,0,0
-539,666,0,0,0,0,0,0,0,0,0,-1,685,358,0,0
-532,666,0,0,0,0,0,0,0,0,0,-1,692,358,0,0
-525,666,0,0,0,0,0,0,0,0,0,-1,699,358,0,0
-518,666,0,0,0,0,0,0,0,0,0,-1,706,358,0,0
-511,666,0,0,0,0,0,0,0,0,0,-1,713,358,0,0
-504,666,0,0,0,0,0,0,0,0,0,-1,720,358,0,0
-497,666,0,0,0,0,0,0,0,0,0,-1,727,358,0,0
-490,666,0,0,0,0,0,0,0,0,0,-1,734,358,0,0
-483,666,0,0,0,0,0,0,0,0,0,-1,741,358,0,0
-476,666,0,0,0,0,0,0,0,0,0,-1,748,358,0,0
-469,666,0,0,0,0,0,0,0,0,0,-1,755,358,0,0
-462,666,0,0,0,0,0,0,0,0,0,-1,762,358,0,0
-455,666,0,0,0,0,0,0,0,0,0,-1,769,358,0,0
-448,666,0,0,0,0,0,0,0,0,0,-1,776,358,0,0
-441,666,0,0,0,0,0,0,0,0,0,-1,783,358,0,0
-434,666,0,0,0,0,0,0,0,0,0,-1,790,358,0,0
-427,666,0,0,0,0,0,0,0,0,0,-1,797,358,0,0
-420,666,0,0,0,0,0,0,0,0,0,-1,804,358,0,0
-413,666,0,0,0,0,0,0,0,0,0,-1,811,358,0,0
-406,666,0,0,0,0,0,0,0,0,0,-1,818,358,0,0
-399,666,0,0,0,0,0,0,0,0,0,-1,825,358,0,0
-392,666,0,0,0,0,0,0,0,0,0,-1,832,358,0,0
-385,666,0,0,0,0,0,0,0,0,0,-1,839,358,0,0
-378,666,0,0,0,0,0,0,0,0,0,-1,846,358,0,0
-371,666,0,0,0,0,0,0,0,0,0,-1,853,358,0,0
-364,666,0,0,0,0,0,0,0,0,0,-1,860,358,0,0
-357,666,0,0,0,0,0,0,0,0,0,-1,867,358,0,0
-350,666,0,0,0,0,0,0,0,0,0,-1,874,358,0,0
-343,666,0,0,0,0,0,0,0,0,0,-1,881,358,0,0
-336,666,0,0,0,0,0,0,0,0,0,-1,888,358,0,0
-329,666,0,0,0,0,0,0,0,0,0,-1,895,358,0,0
-322,666,0,0,0,0,0,0,0,0,0,-1,902,358,0,0
-315,666,0,0,0,0,0,0,0,0,0,-1,909,358,0,0
-308,666,0,0,0,0,0,0,0,0,0,-1,916,358,0,0
-301,666,0,0,0,0,0,0,0,0,0,-1,923,358,0,0
-294,666,0,0,0,0,0,0,0,0,0,-1,930,358,0,0
-287,666,0,0,0,0,0,0,0,0,0,-1,937,358,0,0
-280,666,0,0,0,0,0,0,0,0,0,-1,944,358,0,0
-273,666,0,0,0,0,0,0,0,0,0,-1,951,358,0,0
-266,666,0,0,0,0,0,0,0,0,0,-1,958,358,0,0
-259,666,0,0,0,0,0,0,0,0,0,-1,965,358,0,0
-252,666,0,0,0,0,0,0,0,0,0,-1,972,358,0,0
-245,666,0,0,0,0,0,0,0,0,0,-1,979,358,0,0
-238,666,0,0,0,0,0,0,0,0,0,-1,986,358,0,0
-231,666,0,0,0,0,0,0,0,0,0,-1,993,358,0,0
-224,666,0,0,0,0,0,0,0,0,0,-1,1000,358,0,0
-217,666,0,0,0,0,0,0,0,0,0,-1,1007,358,0,0
-210,666,0,0,0,0,0,0,0,0,0,-1,1014,358,0,0
-203,666,0,0,0,0,0,0,0,0,0,-1,1021,358,0,0
-196,666,6.83093,-24.8537,0,0,0,0,0,0,0,-1,1028,358,6.8309,24.8537
-189,666,7.09094,-25.2655,0,0,0,0,0,0,0,-1,1035,358,7.09098,25.2655
-182,666,7.23523,-25.5973,0,0,0,0,0,0,0,-1,1042,358,7.2352,25.5973
-175,666,7.39246,-25.2423,0,0,0,0,0,0,0,-1,1049,358,7.3924,25.2423
-168,666,6.18872,-26.2563,0,0,0,0,0,0,0,-1,1056,358,6.18873,26.2563
-161,666,4.93958,-26.986,0,0,0,0,0,0,0,-1,1063,358,4.93955,26.9859
-154,666,3.67993,-27.3075,0,0,0,0,0,0,0,-1,1070,358,3.67997,27.3075
-147,666,5.21143,-29.8526,0,0,0,0,0,0,0,-1,1077,358,5.21138,29.8526
-140,666,3.67285,-27.1469,0,0,0,0,0,0,0,-1,1084,358,3.67284,27.147
-133,666,3.58813,-26.8639,-0.0349101,-0.0110692,0.011675,-0.00630425,-0.0396751,1.1833,0.0246192,0.0414965,1091,358,3.58815,26.8639
-126,666,3.20251,-26.9521,0,0,0,0,0,0,0,-1,1098,358,3.20249,26.952
-119,666,4.31042,-26.8332,0,0,0,0,0,0,0,-1,1105,358,4.31043,26.8332
-112,666,4.0957,-26.8546,0,0,0,0,0,0,0,-1,1112,358,4.09572,26.8546
-105,666,3.73071,-25.8934,0,0,0,0,0,0,0,-1,1119,358,3.73068,25.8934
-98,666,3.5968,-23.5447,0,0,0,0,0,0,0,-1,1126,358,3.59686,23.5447
-91,666,9.36877,-22.9226,0,0,0,0,0,0,0,-1,1133,358,9.36872,22.9226
-84,666,4.49243,-18.558,0,0,0,0,0,0,0,-1,1140,358,4.49245,18.558
-77,666,-0.874268,-14.3246,0,0,0,0,0,0,0,-1,1147,358,-0.87424,14.3246
-70,666,-6.32251,-7.67145,0,0,0,0,0,0,0,-1,1154,358,-6.3225,7.67145
-63,666,-11.7778,-0.975189,0,0,0,0,0,0,0,-1,1161,358,-11.7778,0.97519
-56,666,0.424683,-2.04132,0,0,0,0,0,0,0,-1,1168,358,0.424665,2.04132
-49,666,0.754395,-2.23169,0,0,0,0,0,0,0,-1,1175,358,0.754383,2.23169
-42,666,1.34473,-3.53897,0,0,0,0,0,0,0,-1,1182,358,1.34476,3.53896
-35,666,4.36816,-29.3545,0,0,0,0,0,0,0,-1,1189,358,4.36812,29.3545
-28,666,4.63647,-29.1576,0,0,0,0,0,0,0,-1,1196,358,4.63646,29.1576
-21,666,4.59937,-29.2881,0.00374479,0.0157241,-0.00582973,0.0180928,0.00137612,-1.18486,0.0116303,0.0334356,1203,358,4.59942,29.2881
-14,666,4.51526,-29.4169,0.0026269,0.0172247,-0.00676243,0.0198759,-2.42973e-05,-1.19716,0.0132587,0.0290087,1210,358,4.51522,29.4169
-7,666,4.4469,-29.5079,0.00136315,0.0184814,-0.00761229,0.0213768,-0.00153223,-1.20734,0.0147884,0.0191612,1217,358,4.44687,29.5079
0,666,4.44299,-29.5914,0.00028028,0.0195387,-0.0082615,0.022597,-0.00277807,-1.21625,0.0160709,0.0132741,1224,358,4.44299,29.5914
7,666,4.36853,-29.65,-0.000878027,0.0208214,-0.00839989,0.023693,-0.00374963,-1.24139,0.0171821,0.0164535,1231,358,4.36847,29.65
14,666,4.33289,-29.6791,-0.00214398,0.0218523,-0.00825573,0.0244182,-0.00470993,-1.26945,0.0180547,0.0157769,1238,358,4.33286,29.6791
21,666,4.2937,-29.8012,-0.00331534,0.0230388,-0.00784165,0.0251955,-0.00547212,-1.30239,0.0188872,0.012537,1245,358,4.29365,29.8012
28,666,4.23645,-29.8802,-0.00436469,0.0242563,-0.00720247,0.0259666,-0.00607499,-1.33765,0.0196516,0.0135417,1252,358,4.23651,29.8802
35,666,4.23975,-29.8727,-0.00510446,0.0260611,-0.00639687,0.027323,-0.00636635,-1.37603,0.020667,0.0127539,1259,358,4.23972,29.8727
42,666,4.1991,-29.9086,-0.00560976,0.0284987,-0.00573172,0.0294361,-0.00654718,-1.40868,0.0221317,0.0129067,1266,358,4.1991,29.9086
49,666,4.14453,-29.9224,-0.00522223,0.0312501,-0.00503739,0.0319331,-0.00590518,-1.43604,0.0235057,0.0108244,1273,358,4.14457,29.9224
56,666,4.1123,-29.935,-0.00423065,0.035233,-0.00456922,0.0357551,-0.00475278,-1.45702,0.0255687,0.0122526,1280,358,4.11231,29.935
63,666,4.06494,-29.9666,-0.00306941,0.0394412,-0.00385753,0.0397884,-0.00341662,-1.48103,0.0277347,0.0150472,1287,358,4.06492,29.9666
70,666,4.05042,-29.9393,-0.00208092,0.044172,-0.00336782,0.0444159,-0.00232486,-1.49849,0.0304152,0.0149827,1294,358,4.05043,29.9393
77,666,4.02039,-29.8618,-0.00187751,0.0485319,-0.00306131,0.0487171,-0.00206274,-1.51036,0.033187,0.0188553,1301,358,4.02037,29.8618
84,666,4.1239,-29.8281,0,0,0,0,0,0,0,-1,1308,358,4.12391,29.8281
91,666,3.96643,-29.8868,-0.000314288,0.0563642,-0.00305437,0.0565284,-0.000478411,-1.51711,0.0378461,0.0236475,1315,358,3.96646,29.8868
98,666,3.83801,-29.8134,1.89944e-05,0.0592162,-0.00314351,0.0593827,-0.000147464,-1.51789,0.0396377,0.0202101,1322,358,3.838,29.8134
105,666,3.80334,-29.7169,-0.000437352,0.0605393,-0.00346322,0.0607353,-0.000633419,-1.51424,0.040703,0.0226536,1329,358,3.80333,29.7169
112,666,3.81372,-29.4878,-0.000928049,0.0610084,-0.00378645,0.061239,-0.00115867,-1.50996,0.0412177,0.046297,1336,358,3.81368,29.4878
119,666,3.74988,-29.2676,-0.00167663,0.0603307,-0.00360712,0.0605398,-0.00188576,-1.51288,0.0410029,0.0489049,1343,358,3.74993,29.2676
126,666,3.65625,-29.2281,-0.002627,0.0584159,-0.00308643,0.0585716,-0.00278266,-1.52041,0.0400075,0.0287832,1350,358,3.6563,29.2281
133,666,3.62842,-29.1579,-0.0036653,0.0552599,-0.00235876,0.0553541,-0.00375956,-1.53085,0.0382176,0.0261847,1357,358,3.62846,29.1579
140,666,3.59082,-29.1504,-0.00469342,0.0513182,-0.00153035,0.05136,-0.0047352,-1.5435,0.0359226,0.0243181,1364,358,3.59087,29.1504
147,666,3.53174,-29.0261,-0.00582954,0.0469391,-0.000620449,0.0469464,-0.00583684,-1.55904,0.0334136,0.0215341,1371,358,3.53174,29.0261
154,666,3.54419,-28.7532,-0.00684909,0.0423002,0.000160154,0.0423008,-0.00684962,1.56754,0.0307392,0.0201356,1378,358,3.54424,28.7532
161,666,3.61072,-28.6059,-0.00767355,0.0369718,0.000922174,0.0369909,-0.00769259,1.55015,0.0275847,0.0281038,1385,358,3.61073,28.6059
168,666,3.64905,-28.445,0,0,0,0,0,0,0,-1,1392,358,3.6491,28.445
175,666,3.68555,-28.6071,0,0,0,0,0,0,0,-1,1399,358,3.6855,28.6071
182,666,2.60876,-5.17068,0,0,0,0,0,0,0,-1,1406,358,2.6088,5.17068
189,666,2.46973,-5.49979,0,0,0,0,0,0,0,-1,1413,358,2.46975,5.49979
196,666,2.32458,-5.23651,0,0,0,0,0,0,0,-1,1420,358,2.32461,5.23653
203,666,2.28064,-3.88004,0,0,0,0,0,0,0,-1,1427,358,2.28059,3.88003
210,666,3.02576,-5.83548,0,0,0,0,0,0,0,-1,1434,358,3.02581,5.83547
217,666,2.30444,-5.36011,0,0,0,0,0,0,0,-1,1441,358,2.30447,5.3601
224,666,1.82324,-6.03101,0,0,0,0,0,0,0,-1,1448,358,1.82322,6.031
231,666,2.29797,-10.1093,0,0,0,0,0,0,0,-1,1455,358,2.29801,10.1093
238,666,2.52429,-6.10568,0,0,0,0,0,0,0,-1,1462,358,2.52423,6.10567
245,666,4.53345,-1.38205,0,0,0,0,0,0,0,-1,1469,358,4.53349,1.38204
252,666,4.77405,-0.246979,0,0,0,0,0,0,0,-1,1476,358,4.77405,0.246993
259,666,4.83655,1.14087,0,0,0,0,0,0,0,-1,1483,358,4.83652,-1.14087
266,666,6.14148,0.749512,0,0,0,0,0,0,0,-1,1490,358,6.14144,-0.749519
273,666,2.61304,-1.53772,0,0,0,0,0,0,0,-1,1497,358,2.613,1.53773
280,666,8.70898,-0.836975,0,0,0,0,0,0,0,-1,1504,358,8.70894,0.836988
287,666,-7.06934,-20.3464,0,0,0,0,0,0,0,-1,1511,358,-7.06933,20.3464
294,666,-5.98657,-22.7841,0,0,0,0,0,0,0,-1,1518,358,-5.98659,22.7842
301,666,-6.94861,-23.4221,0,0,0,0,0,0,0,-1,1525,358,-6.94857,23.4221
308,666,1.08496,-1.87576,0,0,0,0,0,0,0,-1,1532,358,1.08491,1.87575
315,666,1.76294,-0.284027,0,0,0,0,0,0,0,-1,1539,358,1.76291,0.284016
322,666,0,0,0,0,0,0,0,0,0,-1,1546,358,0,0
329,666,0,0,0,0,0,0,0,0,0,-1,1553,358,0,0
336,666,0,0,0,0,0,0,0,0,0,-1,1560,358,0,0
343,666,0,0,0,0,0,0,0,0,0,-1,1567,358,0,0
350,666,0,0,0,0,0,0,0,0,0,-1,1574,358,0,0
357,666,0,0,0,0,0,0,0,0,0,-1,1581,358,0,0
364,666,0,0,0,0,0,0,0,0,0,-1,1588,358,0,0
371,666,0,0,0,0,0,0,0,0,0,-1,1595,358,0,0
378,666,0,0,0,0,0,0,0,0,0,-1,1602,358,0,0
385,666,0,0,0,0,0,0,0,0,0,-1,1609,358,0,0
392,666,0,0,0,0,0,0,0,0,0,-1,1616,358,0,0
399,666,0,0,0,0,0,0,0,0,0,-1,1623,358,0,0
406,666,0,0,0,0,0,0,0,0,0,-1,1630,358,0,0
413,666,0,0,0,0,0,0,0,0,0,-1,1637,358,0,0
420,666,0,0,0,0,0,0,0,0,0,-1,1644,358,0,0
427,666,0,0,0,0,0,0,0,0,0,-1,1651,358,0,0
434,666,0,0,0,0,0,0,0,0,0,-1,1658,358,0,0
441,666,0,0,0,0,0,0,0,0,0,-1,1665,358,0,0
448,666,0,0,0,0,0,0,0,0,0,-1,1672,358,0,0
455,666,0,0,0,0,0,0,0,0,0,-1,1679,358,0,0
462,666,0,0,0,0,0,0,0,0,0,-1,1686,358,0,0
469,666,0,0,0,0,0,0,0,0,0,-1,1693,358,0,0
476,666,0,0,0,0,0,0,0,0,0,-1,1700,358,0,0
483,666,0,0,0,0,0,0,0,0,0,-1,1707,358,0,0
490,666,0,0,0,0,0,0,0,0,0,-1,1714,358,0,0
497,666,0,0,0,0,0,0,0,0,0,-1,1721,358,0,0
504,666,0,0,0,0,0,0,0,0,0,-1,1728,358,0,0
511,666,0,0,0,0,0,0,0,0,0,-1,1735,358,0,0
518,666,0,0,0,0,0,0,0,0,0,-1,1742,358,0,0
525,666,0,0,0,0,0,0,0,0,0,-1,1749,358,0,0
532,666,0,0,0,0,0,0,0,0,0,-1,1756,358,0,0
539,666,0,0,0,0,0,0,0,0,0,-1,1763,358,0,0
546,666,0,0,0,0,0,0,0,0,0,-1,1770,358,0,0
553,666,0,0,0,0,0,0,0,0,0,-1,1777,358,0,0
560,666,0,0,0,0,0,0,0,0,0,-1,1784,358,0,0
567,666,0,0,0,0,0,0,0,0,0,-1,1791,358,0,0
574,666,0,0,0,0,0,0,0,0,0,-1,1798,358,0,0
581,666,0,0,0,0,0,0,0,0,0,-1,1805,358,0,0
588,666,0,0,0,0,0,0,0,0,0,-1,1812,358,0,0
595,666,0,0,0,0,0,0,0,0,0,-1,1819,358,0,0
602,666,0,0,0,0,0,0,0,0,0,-1,1826,358,0,0
609,666,0,0,0,0,0,0,0,0,0,-1,1833,358,0,0
616,666,0,0,0,0,0,0,0,0,0,-1,1840,358,0,0
623,666,0,0,0,0,0,0,0,0,0,-1,1847,358,0,0
630,666,0,0,0,0,0,0,0,0,0,-1,1854,358,0,0
637,666,0,0,0,0,0,0,0,0,0,-1,1861,358,0,0
644,666,0,0,0,0,0,0,0,0,0,-1,1868,358,0,0
651,666,0,0,0,0,0,0,0,0,0,-1,1875,358,0,0
658,666,0,0,0,0,0,0,0,0,0,-1,1882,358,0,0
665,666,0,0,0,0,0,0,0,0,0,-1,1889,358,0,0
672,666,0,0,0,0,0,0,0,0,0,-1,1896,358,0,0
679,666,0,0,0,0,0,0,0,0,0,-1,1903,358,0,0
686,666,0,0,0,0,0,0,0,0,0,-1,1910,358,0,0
693,666,0,0,0,0,0,0,0,0,0,-1,1917,358,0,0
700,666,0,0,0,0,0,0,0,0,0,-1,1924,358,0,0
707,666,0,0,0,0,0,0,0,0,0,-1,1931,358,0,0
714,666,0,0,0,0,0,0,0,0,0,-1,1938,358,0,0
721,666,0,0,0,0,0,0,0,0,0,-1,1945,358,0,0
728,666,0,0,0,0,0,0,0,0,0,-1,1952,358,0,0
735,666,0,0,0,0,0,0,0,0,0,-1,1959,358,0,0
742,666,0,0,0,0,0,0,0,0,0,-1,1966,358,0,0
749,666,0,0,0,0,0,0,0,0,0,-1,1973,358,0,0
756,666,0,0,0,0,0,0,0,0,0,-1,1980,358,0,0
763,666,0,0,0,0,0,0,0,0,0,-1,1987,358,0,0
770,666,0,0,0,0,0,0,0,0,0,-1,1994,358,0,0
777,666,0,0,0,0,0,0,0,0,0,-1,2001,358,0,0
784,666,0,0,0,0,0,0,0,0,0,-1,2008,358,0,0
791,666,0,0,0,0,0,0,0,0,0,-1,2015,358,0,0
798,666,0,0,0,0,0,0,0,0,0,-1,2022,358,0,0
805,666,0,0,0,0,0,0,0,0,0,-1,2029,358,0,0
812,666,0,0,0,0,0,0,0,0,0,-1,2036,358,0,0
-700,659,0,0,0,0,0,0,0,0,0,-1,524,365,0,0
-693,659,0,0,0,0,0,0,0,0,0,-1,531,365,0,0
-686,659,0,0,0,0,0,0,0,0,0,-1,538,365,0,0
-679,659,0,0,0,0,0,0,0,0,0,-1,545,365,0,0
-672,659,0,0,0,0,0,0,0,0,0,-1,552,365,0,0
-665,659,0,0,0,0,0,0,0,0,0,-1,559,365,0,0
-658,659,0,0,0,0,0,0,0,0,0,-1,566,365,0,0
-651,659,0,0,0,0,0,0,0,0,0,-1,573,365,0,0
-644,659,0,0,0,0,0,0,0,0,0,-1,580,365,0,0
-637,659,0,0,0,0,0,0,0,0,0,-1,587,365,0,0
-630,659,0,0,0,0,0,0,0,0,0,-1,594,365,0,0
-623,659,0,0,0,0,0,0,0,0,0,-1,601,365,0,0
-616,659,0,0,0,0,0,0,0,0,0,-1,608,365,0,0
-609,659,0,0,0,0,0,0,0,0,0,-1,615,365,0,0
-602,659,0,0,0,0,0,0,0,0,0,-1,622,365,0,0
-595,659,0,0,0,0,0,0,0,0,0,-1,629,365,0,0
-588,659,0,0,0,0,0,0,0,0,0,-1,636,365,0,0
-581,659,0,0,0,0,0,0,0,0,0,-1,643,365,0,0
-574,659,0,0,0,0,0,0,0,0,0,-1,650,365,0,0
-567,659,0,0,0,0,0,0,0,0,0,-1,657,365,0,0
-560,659,0,0,0,0,0,0,0,0,0,-1,664,365,0,0
-553,659,0,0,0,0,0,0,0,0,0,-1,671,365,0,0
-546,659,0,0,0,0,0,0,0,0,0,-1,678,365,0,0
-539,659,0,0,0,0,0,0,0,0,0,-1,685,365,0,0
-532,659,0,0,0,0,0,0,0,0,0,-1,692,365,0,0
-525,659,0,0,0,0,0,0,0,0,0,-1,699,365,0,0
-518,659,0,0,0,0,0,0,0,0,0,-1,706,365,0,0
-511,659,0,0,0,0,0,0,0,0,0,-1,713,365,0,0
-504,659,0,0,0,0,0,0,0,0,0,-1,720,365,0,0
-497,659,0,0,0,0,0,0,0,0,0,-1,727,365,0,0
-490,659,0,0,0,0,0,0,0,0,0,-1,734,365,0,0
-483,659,0,0,0,0,0,0,0,0,0,-1,741,365,0,0
-476,659,0,0,0,0,0,0,0,0,0,-1,748,365,0,0
-469,659,0,0,0,0,0,0,0,0,0,-1,755,365,0,0
-462,659,0,0,0,0,0,0,0,0,0,-1,762,365,0,0
-455,659,0,0,0,0,0,0,0,0,0,-1,769,365,0,0
-448,659,0,0,0,0,0,0,0,0,0,-1,776,365,0,0
-441,659,0,0,0,0,0,0,0,0,0,-1,783,365,0,0
-434,659,0,0,0,0,0,0,0,0,0,-1,790,365,0,0
-427,659,0,0,0,0,0,0,0,0,0,-1,797,365,0,0
-420,659,0,0,0,0,0,0,0,0,0,-1,804,365,0,0
-413,659,0,0,0,0,0,0,0,0,0,-1,811,365,0,0
-406,659,0,0,0,0,0,0,0,0,0,-1,818,365,0,0
-399,659,0,0,0,0,0,0,0,0,0,-1,825,365,0,0
-392,659,0,0,0,0,0,0,0,0,0,-1,832,365,0,0
-385,659,0,0,0,0,0,0,0,0,0,-1,839,365,0,0
-378,659,0,0,0,0,0,0,0,0,0,-1,846,365,0,0
-371,659,0,0,0,0,0,0,0,0,0,-1,853,365,0,0
-364,659,0,0,0,0,0,0,0,0,0,-1,860,365,0,0
-357,659,0,0,0,0,0,0,0,0,0,-1,867,365,0,0
-350,659,0,0,0,0,0,0,0,0,0,-1,874,365,0,0
-343,659,0,0,0,0,0,0,0,0,0,-1,881,365,0,0
-336,659,0,0,0,0,0,0,0,0,0,-1,888,365,0,0
-329,659,0,0,0,0,0,0,0,0,0,-1,895,365,0,0
-322,659,0,0,0,0,0,0,0,0,0,-1,902,365,0,0
-315,659,0,0,0,0,0,0,0,0,0,-1,909,365,0,0
-308,659,0,0,0,0,0,0,0,0,0,-1,916,365,0,0
-301,659,0,0,0,0,0,0,0,0,0,-1,923,365,0,0
-294,659,0,0,0,0,0,0,0,0,0,-1,930,365,0,0
-287,659,0,0,0,0,0,0,0,0,0,-1,937,365,0,0
-280,659,0,0,0,0,0,0,0,0,0,-1,944,365,0,0
-273,659,0,0,0,0,0,0,0,0,0,-1,951,365,0,0
-266,659,0,0,0,0,0,0,0,0,0,-1,958,365,0,0
-259,659,0,0,0,0,0,0,0,0,0,-1,965,365,0,0
-252,659,0,0,0,0,0,0,0,0,0,-1,972,365,0,0
-245,659,0,0,0,0,0,0,0,0,0,-1,979,365,0,0
-238,659,0,0,0,0,0,0,0,0,0,-1,986,365,0,0
-231,659,0,0,0,0,0,0,0,0,0,-1,993,365,0,0
-224,659,0,0,0,0,0,0,0,0,0,-1,1000,365,0,0
-217,659,1.58905,-25.7653,0,0,0,0,0,0,0,-1,1007,365,1.58908,25.7652
-210,659,2.664,-25.0039,0,0,0,0,0,0,0,-1,1014,365,2.664,25.0039
-203,659,3.64746,-23.8298,0,0,0,0,0,0,0,-1,1021,365,3.64742,23.8298
-196,659,4.5022,-23.0318,0,0,0,0,0,0,0,-1,1028,365,4.50215,23.0318
-189,659,5.55908,-23.1929,0,0,0,0,0,0,0,-1,1035,365,5.55905,23.1929
-182,659,7.68726,-23.745,0,0,0,0,0,0,0,-1,1042,365,7.6872,23.745
-175,659,6.72241,-24.4272,0,0,0,0,0,0,0,-1,1049,365,6.72236,24.4272
-168,659,5.5863,-25.2993,0,0,0,0,0,0,0,-1,1056,365,5.58625,25.2993
-161,659,3.69727,-26.0738,0,0,0,0,0,0,0,-1,1063,365,3.69721,26.0738
-154,659,4.13757,-26.3811,0,0,0,0,0,0,0,-1,1070,365,4.13763,26.3811
-147,659,4.0885,-27.355,0,0,0,0,0,0,0,-1,1077,365,4.08854,27.355
-140,659,3.95862,-26.7327,0,0,0,0,0,0,0,-1,1084,365,3.95867,26.7327
-133,659,3.97961,-26.1737,0,0,0,0,0,0,0,-1,1091,365,3.97963,26.1737
-126,659,4.84326,-26.3396,0,0,0,0,0,0,0,-1,1098,365,4.84328,26.3396
-119,659,4.65173,-26.6576,-0.027136,-0.00192543,0.00579586,-0.000656812,-0.0284046,1.35531,0.0187213,0.0434321,1105,365,4.65172,26.6576
-112,659,4.34485,-27.0324,-0.0281924,-0.00107908,0.0059821,0.00018211,-0.0294536,1.36301,0.0196967,0.0391305,1112,365,4.34489,27.0324
-105,659,4.75513,-26.6245,0,0,0,0,0,0,0,-1,1119,365,4.75516,26.6245
-98,659,4.68042,-26.2438,0,0,0,0,0,0,0,-1,1126,365,4.68041,26.2438
-91,659,4.20776,-20.8654,0,0,0,0,0,0,0,-1,1133,365,4.20777,20.8654
-84,659,2.8584,-17.8303,0,0,0,0,0,0,0,-1,1140,365,2.85836,17.8303
-77,659,2.80139,-15.3457,0,0,0,0,0,0,0,-1,1147,365,2.80139,15.3457
-70,659,2.9353,-12.7028,0,0,0,0,0,0,0,-1,1154,365,2.93533,12.7028
-63,659,2.11267,-9.7796,0,0,0,0,0,0,0,-1,1161,365,2.11266,9.7796
-56,659,2.11182,-9.91541,0,0,0,0,0,0,0,-1,1168,365,2.11178,9.91541
-49,659,4.63733,-29.0193,0,0,0,0,0,0,0,-1,1175,365,4.63727,29.0193
-42,659,4.26953,-29.325,0,0,0,0,0,0,0,-1,1182,365,4.26948,29.325
-35,659,4.46802,-29.2589,0.000865016,0.00905366,-0.000544982,0.00908977,0.000828905,-1.50463,0.00580331,0.0441073,1189,365,4.46802,29.2588
-28,659,4.49158,-29.3188,0.00135919,0.0103836,-0.00152673,0.0106349,0.0011079,-1.40766,0.00675098,0.0157009,1196,365,4.49163,29.3188
-21,659,4.46057,-29.4235,0.00144775,0.0118668,-0.00244621,0.0124126,0.000902013,-1.35129,0.00799137,0.0120069,1203,365,4.46055,29.4235
-14,659,4.41064,-29.5589,0.000795542,0.0131033,-0.00321236,0.0138913,7.55908e-06,-1.33025,0.00925834,0.00983727,1210,365,4.41066,29.5589
-7,659,4.3634,-29.6369,2.47241e-05,0.0141005,-0.00396524,0.0151407,-0.00101544,-1.31426,0.0104487,0.00950068,1217,365,4.36338,29.6369
0,659,4.34705,-29.7158,-0.000611463,0.0149334,-0.00454873,0.0161666,-0.00184468,-1.30605,0.0114423,0.00864905,1224,365,4.34703,29.7158
7,659,4.32581,-29.7934,-0.00133503,0.0159412,-0.00479951,0.017185,-0.00257883,-1.31722,0.012406,0.00778054,1231,365,4.32577,29.7934
14,659,4.30798,-29.8257,-0.00217348,0.016776,-0.00485768,0.0179487,-0.00334617,-1.33392,0.0132231,0.00971,1238,365,4.30793,29.8257
21,659,4.27307,-29.8871,-0.00298494,0.0177388,-0.00473087,0.0187677,-0.00401383,-1.35665,0.0140423,0.0108127,1245,365,4.27304,29.8871
28,659,4.22119,-29.9435,-0.00371561,0.0187236,-0.00444541,0.0195722,-0.0045642,-1.38218,0.0148059,0.0103454,1252,365,4.22123,29.9435
35,659,4.20825,-29.9842,-0.00425249,0.0201017,-0.00406761,0.0207631,-0.0049139,-1.4096,0.0157379,0.0108902,1259,365,4.20823,29.9842
42,659,4.18506,-30.0164,-0.00468654,0.0219173,-0.00377178,0.0224417,-0.00521095,-1.43265,0.016967,0.0114626,1266,365,4.18504,30.0164
49,659,4.12988,-30.0199,-0.00444787,0.0239164,-0.0034437,0.0243285,-0.00485998,-1.45169,0.0180583,0.011252,1273,365,4.12993,30.0199
56,659,4.07397,-30.0176,-0.00379765,0.0267648,-0.00323982,0.0271044,-0.00413731,-1.46634,0.0195949,0.0150158,1280,365,4.07397,30.0176
63,659,4.07617,-30.0464,-0.00303349,0.0298054,-0.00284127,0.0300494,-0.00327751,-1.48512,0.02121,0.0169885,1287,365,4.07622,30.0464
70,659,4.03711,-30.0319,-0.0023668,0.0332073,-0.00255234,0.0333895,-0.00254899,-1.49954,0.0231561,0.0169516,1294,365,4.03713,30.0319
77,659,3.9729,-29.9922,-0.00227322,0.0364164,-0.0023365,0.036557,-0.00241381,-1.5107,0.0252145,0.0169899,1301,365,3.97292,29.9922
84,659,3.97522,-29.9943,-0.00189537,0.0393728,-0.00234715,0.0395059,-0.00202844,-1.51416,0.0270388,0.012725,1308,365,3.97519,29.9943
91,659,3.92761,-29.9453,-0.00133833,0.0420136,-0.00237802,0.0421437,-0.00146838,-1.51616,0.0285978,0.0108803,1315,365,3.92758,29.9453
98,659,3.901,-29.8848,-0.0011477,0.0440103,-0.00242615,0.0441403,-0.00127767,-1.51728,0.0298618,0.00773699,1322,365,3.90101,29.8848
105,659,3.90173,-29.7908,-0.00147651,0.0448818,-0.00264356,0.0450321,-0.00162677,-1.51402,0.0305781,0.00903033,1329,365,3.90177,29.7908
112,659,3.87427,-29.6996,-0.00181339,0.0451246,-0.00284437,0.0452964,-0.00198513,-1.51049,0.0308806,0.0135132,1336,365,3.87433,29.6996
119,659,3.81958,-29.5996,-0.0023131,0.0444672,-0.00269634,0.0446221,-0.002468,-1.51341,0.0306039,0.0154211,1343,365,3.81964,29.5996
126,659,3.78076,-29.4806,-0.00291531,0.0429127,-0.00232098,0.0430299,-0.00303256,-1.52032,0.029749,0.0133904,1350,365,3.78077,29.4806
133,659,3.74878,-29.3722,-0.0035256,0.0405591,-0.0018102,0.0406333,-0.00359981,-1.52983,0.028365,0.0125618,1357,365,3.74883,29.3722
140,659,3.71655,-29.2832,-0.00410859,0.0375842,-0.00118371,0.0376177,-0.00414217,-1.54244,0.0265671,0.00990639,1364,365,3.71658,29.2832
147,659,3.68677,-29.1477,-0.00475942,0.0344078,-0.00050139,0.0344142,-0.00476584,-1.558,0.0246853,0.00889683,1371,365,3.68673,29.1477
154,659,3.64722,-28.9865,-0.0053949,0.0310548,8.12493e-05,0.031055,-0.00539508,1.56857,0.0227162,0.010161,1378,365,3.64726,28.9866
161,659,3.63525,-28.8297,-0.00580333,0.0272674,0.000645887,0.02728,-0.00581594,1.55128,0.0204035,0.0118445,1385,365,3.6352,28.8297
168,659,3.64209,-28.6677,-0.00600857,0.0235263,0.000688418,0.0235423,-0.00602461,1.5475,0.0180416,0.0191658,1392,365,3.64213,28.6677
175,659,3.62488,-28.5236,-0.00535321,0.0199141,0.000642328,0.0199304,-0.00536953,1.5454,0.0153922,0.0421335,1399,365,3.62483,28.5236
182,659,3.49609,-28.409,0,0,0,0,0,0,0,-1,1406,365,3.49613,28.409
189,659,3.53162,-28.0593,0,0,0,0,0,0,0,-1,1413,365,3.53167,28.0593
196,659,2.41248,-13.4371,0,0,0,0,0,0,0,-1,1420,365,2.41243,13.4371
203,659,2.38623,-12.2163,0,0,0,0,0,0,0,-1,1427,365,2.38617,12.2163
210,659,2.20789,-13.9792,0,0,0,0,0,0,0,-1,1434,365,2.20794,13.9792
217,659,2.24121,-13.487,0,0,0,0,0,0,0,-1,1441,365,2.24116,13.487
224,659,2.3479,-15.2926,0,0,0,0,0,0,0,-1,1448,365,2.34793,15.2926
231,659,2.47974,-17.8629,0,0,0,0,0,0,0,-1,1455,365,2.47976,17.8628
238,659,3.57886,-21.1258,0,0,0,0,0,0,0,-1,1462,365,3.57889,21.1258
245,659,3.29883,-25.0283,0,0,0,0,0,0,0,-1,1469,365,3.29889,25.0283
252,659,2.81909,-24.1604,0,0,0,0,0,0,0,-1,1476,365,2.81905,24.1604
259,659,2.33069,-3.36703,0,0,0,0,0,0,0,-1,1483,365,2.33073,3.36702
266,659,1.72681,-17.183,0,0,0,0,0,0,0,-1,1490,365,1.72683,17.183
273,659,2.4375,-14.5841,0,0,0,0,0,0,0,-1,1497,365,2.43748,14.5841
280,659,-6.90784,-17.1906,0,0,0,0,0,0,0,-1,1504,365,-6.90789,17.1906
287,659,-5.92737,-19.4511,0,0,0,0,0,0,0,-1,1511,365,-5.92734,19.4511
294,659,-4.90845,-21.6836,0,0,0,0,0,0,0,-1,1518,365,-4.90846,21.6836
301,659,-4.41272,-23.132,0,0,0,0,0,0,0,-1,1525,365,-4.41267,23.132
308,659,-3.77832,-24.1487,0,0,0,0,0,0,0,-1,1532,365,-3.77827,24.1487
315,659,2.17102,-2.98474,0,0,0,0,0,0,0,-1,1539,365,2.171,2.98473
322,659,0.382813,-2.2424,0,0,0,0,0,0,0,-1,1546,365,0.382801,2.2424
329,659,0.604004,-1.75998,0,0,0,0,0,0,0,-1,1553,365,0.603966,1.75998
336,659,4.55933,-25.2647,0,0,0,0,0,0,0,-1,1560,365,4.55935,25.2647
343,659,0,0,0,0,0,0,0,0,0,-1,1567,365,0,0
350,659,0,0,0,0,0,0,0,0,0,-1,1574,365,0,0
357,659,0,0,0,0,0,0,0,0,0,-1,1581,365,0,0
364,659,0,0,0,0,0,0,0,0,0,-1,1588,365,0,0
371,659,0,0,0,0,0,0,0,0,0,-1,1595,365,0,0
378,659,0,0,0,0,0,0,0,0,0,-1,1602,365,0,0
385,659,0,0,0,0,0,0,0,0,0,-1,1609,365,0,0
392,659,0,0,0,0,0,0,0,0,0,-1,1616,365,0,0
399,659,0,0,0,0,0,0,0,0,0,-1,1623,365,0,0
406,659,0,0,0,0,0,0,0,0,0,-1,1630,365,0,0
413,659,0,0,0,0,0,0,0,0,0,-1,1637,365,0,0
420,659,0,0,0,0,0,0,0,0,0,-1,1644,365,0,0
427,659,0,0,0,0,0,0,0,0,0,-1,1651,365,0,0
434,659,0,0,0,0,0,0,0,0,0,-1,1658,365,0,0
441,659,0,0,0,0,0,0,0,0,0,-1,1665,365,0,0
448,659,0,0,0,0,0,0,0,0,0,-1,1672,365,0,0
455,659,0,0,0,0,0,0,0,0,0,-1,1679,365,0,0
462,659,0,0,0,0,0,0,0,0,0,-1,1686,365,0,0
469,659,0,0,0,0,0,0,0,0,0,-1,1693,365,0,0
476,659,0,0,0,0,0,0,0,0,0,-1,1700,365,0,0
483,659,0,0,0,0,0,0,0,0,0,-1,1707,365,0,0
490,659,0,0,0,0,0,0,0,0,0,-1,1714,365,0,0
497,659,0,0,0,0,0,0,0,0,0,-1,1721,365,0,0
504,659,0,0,0,0,0,0,0,0,0,-1,1728,365,0,0
511,659,0,0,0,0,0,0,0,0,0,-1,1735,365,0,0
518,659,0,0,0,0,0,0,0,0,0,-1,1742,365,0,0
525,659,0,0,0,0,0,0,0,0,0,-1,1749,365,0,0
532,659,0,0,0,0,0,0,0,0,0,-1,1756,365,0,0
539,659,0,0,0,0,0,0,0,0,0,-1,1763,365,0,0
546,659,0,0,0,0,0,0,0,0,0,-1,1770,365,0,0
553,659,0,0,0,0,0,0,0,0,0,-1,1777,365,0,0
560,659,0,0,0,0,0,0,0,0,0,-1,1784,365,0,0
567,659,0,0,0,0,0,0,0,0,0,-1,1791,365,0,0
574,659,0,0,0,0,0,0,0,0,0,-1,1798,365,0,0
581,659,0,0,0,0,0,0,0,0,0,-1,1805,365,0,0
588,659,0,0,0,0,0,0,0,0,0,-1,1812,365,0,0
595,659,0,0,0,0,0,0,0,0,0,-1,1819,365,0,0
602,659,0,0,0,0,0,0,0,0,0,-1,1826,365,0,0
609,659,0,0,0,0,0,0,0,0,0,-1,1833,365,0,0
616,659,0,0,0,0,0,0,0,0,0,-1,1840,365,0,0
623,659,0,0,0,0,0,0,0,0,0,-1,1847,365,0,0
630,659,0,0,0,0,0,0,0,0,0,-1,1854,365,0,0
637,659,0,0,0,0,0,0,0,0,0,-1,1861,365,0,0
644,659,0,0,0,0,0,0,0,0,0,-1,1868,365,0,0
651,659,0,0,0,0,0,0,0,0,0,-1,1875,365,0,0
658,659,0,0,0,0,0,0,0,0,0,-1,1882,365,0,0
665,659,0,0,0,0,0,0,0,0,0,-1,1889,365,0,0
672,659,0,0,0,0,0,0,0,0,0,-1,1896,365,0,0
679,659,0,0,0,0,0,0,0,0,0,-1,1903,365,0,0
686,659,0,0,0,0,0,0,0,0,0,-1,1910,365,0,0
693,659,0,0,0,0,0,0,0,0,0,-1,1917,365,0,0
700,659,0,0,0,0,0,0,0,0,0,-1,1924,365,0,0
707,659,0,0,0,0,0,0,0,0,0,-1,1931,365,0,0
714,659,0,0,0,0,0,0,0,0,0,-1,1938,365,0,0
721,659,0,0,0,0,0,0,0,0,0,-1,1945,365,0,0
728,659,0,0,0,0,0,0,0,0,0,-1,1952,365,0,0
735,659,0,0,0,0,0,0,0,0,0,-1,1959,365,0,0
742,659,0,0,0,0,0,0,0,0,0,-1,1966,365,0,0
749,659,0,0,0,0,0,0,0,0,0,-1,1973,365,0,0
756,659,0,0,0,0,0,0,0,0,0,-1,1980,365,0,0
763,659,0,0,0,0,0,0,0,0,0,-1,1987,365,0,0
770,659,0,0,0,0,0,0,0,0,0,-1,1994,365,0,0
777,659,0,0,0,0,0,0,0,0,0,-1,2001,365,0,0
784,659,0,0,0,0,0,0,0,0,0,-1,2008,365,0,0
791,659,0,0,0,0,0,0,0,0,0,-1,2015,365,0,0
798,659,0,0,0,0,0,0,0,0,0,-1,2022,365,0,0
805,659,0,0,0,0,0,0,0,0,0,-1,2029,365,0,0
812,659,0,0,0,0,0,0,0,0,0,-1,2036,365,0,0
-700,652,0,0,0,0,0,0,0,0,0,-1,524,372,0,0
-693,652,0,0,0,0,0,0,0,0,0,-1,531,372,0,0
-686,652,0,0,0,0,0,0,0,0,0,-1,538,372,0,0
-679,652,0,0,0,0,0,0,0,0,0,-1,545,372,0,0
-672,652,0,0,0,0,0,0,0,0,0,-1,552,372,0,0
-665,652,0,0,0,0,0,0,0,0,0,-1,559,372,0,0
-658,652,0,0,0,0,0,0,0,0,0,-1,566,372,0,0
-651,652,0,0,0,0,0,0,0,0,0,-1,573,372,0,0
-644,652,0,0,0,0,0,0,0,0,0,-1,580,372,0,0
-637,652,0,0,0,0,0,0,0,0,0,-1,587,372,0,0
-630,652,0,0,0,0,0,0,0,0,0,-1,594,372,0,0
-623,652,0,0,0,0,0,0,0,0,0,-1,601,372,0,0
-616,652,0,0,0,0,0,0,0,0,0,-1,608,372,0,0
-609,652,0,0,0,0,0,0,0,0,0,-1,615,372,0,0
-602,652,0,0,0,0,0,0,0,0,0,-1,622,372,0,0
-595,652,0,0,0,0,0,0,0,0,0,-1,629,372,0,0
-588,652,0,0,0,0,0,0,0,0,0,-1,636,372,0,0
-581,652,0,0,0,0,0,0,0,0,0,-1,643,372,0,0
-574,652,0,0,0,0,0,0,0,0,0,-1,650,372,0,0
-567,652,0,0,0,0,0,0,0,0,0,-1,657,372,0,0
-560,652,0,0,0,0,0,0,0,0,0,-1,664,372,0,0
-553,652,0,0,0,0,0,0,0,0,0,-1,671,372,0,0
-546,652,0,0,0,0,0,0,0,0,0,-1,678,372,0,0
-539,652,0,0,0,0,0,0,0,0,0,-1,685,372,0,0
-532,652,0,0,0,0,0,0,0,0,0,-1,692,372,0,0
-525,652,0,0,0,0,0,0,0,0,0,-1,699,372,0,0
-518,652,0,0,0,0,0,0,0,0,0,-1,706,372,0,0
-511,652,0,0,0,0,0,0,0,0,0,-1,713,372,0,0
-504,652,0,0,0,0,0,0,0,0,0,-1,720,372,0,0
-497,652,0,0,0,0,0,0,0,0,0,-1,727,372,0,0
-490,652,0,0,0,0,0,0,0,0,0,-1,734,372,0,0
-483,652,0,0,0,0,0,0,0,0,0,-1,741,372,0,0
-476,652,0,0,0,0,0,0,0,0,0,-1,748,372,0,0
-469,652,0,0,0,0,0,0,0,0,0,-1,755,372,0,0
-462,652,0,0,0,0,0,0,0,0,0,-1,762,372,0,0
-455,652,0,0,0,0,0,0,0,0,0,-1,769,372,0,0
-448,652,0,0,0,0,0,0,0,0,0,-1,776,372,0,0
-441,652,0,0,0,0,0,0,0,0,0,-1,783,372,0,0
-434,652,0,0,0,0,0,0,0,0,0,-1,790,372,0,0
-427,652,0,0,0,0,0,0,0,0,0,-1,797,372,0,0
-420,652,0,0,0,0,0,0,0,0,0,-1,804,372,0,0
-413,652,0,0,0,0,0,0,0,0,0,-1,811,372,0,0
-406,652,0,0,0,0,0,0,0,0,0,-1,818,372,0,0
-399,652,0,0,0,0,0,0,0,0,0,-1,825,372,0,0
-392,652,0,0,0,0,0,0,0,0,0,-1,832,372,0,0
-385,652,0,0,0,0,0,0,0,0,0,-1,839,372,0,0
-378,652,0,0,0,0,0,0,0,0,0,-1,846,372,0,0
-371,652,0,0,0,0,0,0,0,0,0,-1,853,372,0,0
-364,652,0,0,0,0,0,0,0,0,0,-1,860,372,0,0
-357,652,0,0,0,0,0,0,0,0,0,-1,867,372,0,0
-350,652,0,0,0,0,0,0,0,0,0,-1,874,372,0,0
-343,652,0,0,0,0,0,0,0,0,0,-1,881,372,0,0
-336,652,0,0,0,0,0,0,0,0,0,-1,888,372,0,0
-329,652,0,0,0,0,0,0,0,0,0,-1,895,372,0,0
-322,652,0,0,0,0,0,0,0,0,0,-1,902,372,0,0
-315,652,0,0,0,0,0,0,0,0,0,-1,909,372,0,0
-308,652,0,0,0,0,0,0,0,0,0,-1,916,372,0,0
-301,652,0,0,0,0,0,0,0,0,0,-1,923,372,0,0
-294,652,0,0,0,0,0,0,0,0,0,-1,930,372,0,0
-287,652,0,0,0,0,0,0,0,0,0,-1,937,372,0,0
-280,652,0,0,0,0,0,0,0,0,0,-1,944,372,0,0
-273,652,0,0,0,0,0,0,0,0,0,-1,951,372,0,0
-266,652,0,0,0,0,0,0,0,0,0,-1,958,372,0,0
-259,652,0,0,0,0,0,0,0,0,0,-1,965,372,0,0
-252,652,0,0,0,0,0,0,0,0,0,-1,972,372,0,0
-245,652,0,0,0,0,0,0,0,0,0,-1,979,372,0,0
-238,652,0,0,0,0,0,0,0,0,0,-1,986,372,0,0
-231,652,8.68457,-21.315,0,0,0,0,0,0,0,-1,993,372,8.68455,21.315
-224,652,9.47449,-18.002,0,0,0,0,0,0,0,-1,1000,372,9.47449,18.002
-217,652,1.80139,-26.709,0,0,0,0,0,0,0,-1,1007,372,1.80137,26.709
-210,652,2.70807,-25.7509,0,0,0,0,0,0,0,-1,1014,372,2.70809,25.7509
-203,652,3.66467,-24.6504,0.0637878,0.0446949,0.0410656,0.0964019,0.0120807,0.671193,0.0606435,0.0410399,1021,372,3.66463,24.6504
-196,652,4.50012,-23.3835,0,0,0,0,0,0,0,-1,1028,372,4.50007,23.3835
-189,652,3.79956,-23.898,0,0,0,0,0,0,0,-1,1035,372,3.79959,23.898
-182,652,3.62219,-23.8901,0,0,0,0,0,0,0,-1,1042,372,3.62221,23.8901
-175,652,6.42456,-23.5061,0,0,0,0,0,0,0,-1,1049,372,6.42452,23.5061
-168,652,4.64087,-24.3798,0,0,0,0,0,0,0,-1,1056,372,4.6409,24.3798
-161,652,5.08704,-25.6055,0,0,0,0,0,0,0,-1,1063,372,5.087,25.6055
-154,652,5.9209,-25.8676,0,0,0,0,0,0,0,-1,1070,372,5.92087,25.8677
-147,652,6.33325,-25.7277,0,0,0,0,0,0,0,-1,1077,372,6.33329,25.7277
-140,652,4.3678,-25.9964,0,0,0,0,0,0,0,-1,1084,372,4.36774,25.9964
-133,652,4.13049,-26.1365,-0.0150158,0.00056212,0.00197946,0.000809712,-0.0152634,1.44636,0.0104559,0.0403777,1091,372,4.13052,26.1365
-126,652,4.68872,-26.3068,-0.0166083,0.00116244,0.00188852,0.00136091,-0.0168068,1.46608,0.0116846,0.0408991,1098,372,4.68873,26.3068
-119,652,4.77625,-26.6658,-0.0177379,0.00178231,0.00199247,0.00198361,-0.0179392,1.47011,0.0126725,0.0361498,1105,372,4.77619,26.6658
-112,652,4.73999,-26.9603,-0.0184185,0.00230223,0.00208086,0.00250913,-0.0186254,1.47169,0.0133323,0.028921,1112,372,4.73994,26.9603
-105,652,4.65234,-27.0129,-0.0188577,0.00285781,0.00219278,0.00307702,-0.0190769,1.47116,0.0138579,0.0310518,1119,372,4.65232,27.0129
-98,652,4.68188,-26.9307,0,0,0,0,0,0,0,-1,1126,372,4.68192,26.9307
-91,652,4.73792,-27.366,0,0,0,0,0,0,0,-1,1133,372,4.73796,27.366
-84,652,4.68848,-27.6141,0,0,0,0,0,0,0,-1,1140,372,4.68853,27.6141
-77,652,4.52307,-28.1328,0,0,0,0,0,0,0,-1,1147,372,4.52306,28.1329
-70,652,4.52844,-28.3825,0,0,0,0,0,0,0,-1,1154,372,4.52843,28.3825
-63,652,4.51685,-28.5801,0,0,0,0,0,0,0,-1,1161,372,4.51688,28.5801
-56,652,4.45776,-28.7515,0,0,0,0,0,0,0,-1,1168,372,4.45776,28.7515
-49,652,4.57642,-29.0356,-0.00111062,0.00344703,0.00168576,0.00400278,-0.00166637,1.25234,0.00336447,0.0362762,1175,372,4.57639,29.0356
-42,652,4.40332,-29.0514,-0.00079359,0.00470859,0.00168636,0.00518431,-0.00126931,1.29584,0.00394792,0.0122418,1182,372,4.4033,29.0514
-35,652,4.39099,-29.1945,-0.000782445,0.00577922,0.0015032,0.00610719,-0.00111042,1.35598,0.00448763,0.00923485,1189,372,4.39097,29.1945
-28,652,4.37512,-29.3199,-0.00041471,0.00689066,0.0011114,0.007056,-0.00058005,1.42311,0.00490879,0.00734339,1196,372,4.37515,29.32
-21,652,4.33398,-29.4569,-0.000185635,0.00800322,0.000646793,0.00805399,-0.000236406,1.49246,0.00544984,0.00769731,1203,372,4.33397,29.4569
-14,652,4.31641,-29.5732,-0.000508839,0.0088871,0.000141523,0.00888923,-0.00051097,1.55574,0.00610361,0.00964944,1210,372,4.31642,29.5732
-7,652,4.28125,-29.6655,-0.000942704,0.00963564,-0.000464749,0.00965602,-0.000963083,-1.52697,0.00678121,0.0121604,1217,372,4.28123,29.6655
0,652,4.24878,-29.7413,-0.0013188,0.0102821,-0.00102244,0.0103715,-0.00140822,-1.48356,0.00742837,0.0121481,1224,372,4.24881,29.7413
7,652,4.2373,-29.7849,-0.00179068,0.0109789,-0.00143999,0.0111392,-0.00195105,-1.45988,0.00815468,0.0125447,1231,372,4.23729,29.7849
14,652,4.23218,-29.8647,-0.0023523,0.0116045,-0.0017396,0.0118181,-0.00256585,-1.44864,0.00885876,0.0106457,1238,372,4.23213,29.8647
21,652,4.20972,-29.9487,-0.00291206,0.0123294,-0.00191885,0.0125673,-0.00314992,-1.44746,0.00960196,0.0098791,1245,372,4.20967,29.9487
28,652,4.19067,-30.0129,-0.00341807,0.0130855,-0.00198226,0.0133202,-0.00365282,-1.45292,0.0103156,0.00921035,1252,372,4.19062,30.0129
35,652,4.16028,-30.0429,-0.00382415,0.014067,-0.0019939,0.0142865,-0.00404367,-1.46114,0.0111201,0.0100631,1259,372,4.16031,30.0429
42,652,4.13086,-30.062,-0.00419038,0.0153231,-0.00204052,0.0155342,-0.00440147,-1.46771,0.0120933,0.0115512,1266,372,4.13089,30.062
49,652,4.13147,-30.0699,-0.00398842,0.0167289,-0.00207401,0.0169344,-0.00419401,-1.47199,0.0129166,0.0137745,1273,372,4.13153,30.0699
56,652,4.0929,-30.0524,-0.00360202,0.0186288,-0.00212886,0.0188308,-0.00380404,-1.47618,0.0139953,0.0157521,1280,372,4.09292,30.0524
63,652,4.07776,-30.0731,-0.00317474,0.0206784,-0.00205828,0.0208547,-0.00335104,-1.48535,0.0151443,0.0193415,1287,372,4.0778,30.0731
70,652,4.05823,-30.0432,-0.00276013,0.0229624,-0.0019707,0.0231125,-0.00291024,-1.49477,0.0164644,0.0162741,1294,372,4.05817,30.0432
77,652,4.00781,-30.0343,-0.00277323,0.0251446,-0.00184796,0.0252664,-0.00289502,-1.50499,0.0178875,0.0160263,1301,372,4.00778,30.0343
84,652,4.02576,-30.0082,-0.00264865,0.0271075,-0.0018908,0.0272272,-0.00276832,-1.50759,0.0191411,0.0135144,1308,372,4.02576,30.0082
91,652,3.9801,-30.0028,-0.00237004,0.0289201,-0.00195133,0.0290414,-0.00249126,-1.50875,0.0202425,0.0159641,1315,372,3.98005,30.0028
98,652,3.96875,-29.9301,-0.00231541,0.0302689,-0.00197788,0.0303886,-0.00243503,-1.51039,0.0211176,0.0127133,1322,372,3.96875,29.9301
105,652,3.95728,-29.8202,-0.002541,0.0308158,-0.00209102,0.0309464,-0.00267157,-1.50844,0.0215767,0.0105232,1329,372,3.95723,29.8202
112,652,3.93921,-29.7348,-0.00275592,0.0310021,-0.00216887,0.0311409,-0.00289469,-1.5069,0.0217897,0.00948077,1336,372,3.93921,29.7348
119,652,3.91931,-29.6463,-0.00307852,0.0304477,-0.00202881,0.03057,-0.00320084,-1.51058,0.0215264,0.0103021,1343,372,3.91928,29.6463
126,652,3.89075,-29.5404,-0.0034085,0.0292858,-0.00174886,0.029379,-0.00350179,-1.51751,0.0208515,0.0117825,1350,372,3.89073,29.5404
133,652,3.85449,-29.4301,-0.0036673,0.0276829,-0.00139568,0.0277449,-0.00372931,-1.52639,0.0198568,0.0128452,1357,372,3.85452,29.4301
140,652,3.81799,-29.3113,-0.0038442,0.0257005,-0.000927257,0.0257296,-0.00387327,-1.53945,0.0185792,0.00975032,1364,372,3.81799,29.3113
147,652,3.79883,-29.1638,-0.00405022,0.0237104,-0.000427024,0.0237169,-0.00405679,-1.55542,0.0173226,0.00905665,1371,372,3.79886,29.1638
154,652,3.79626,-29.0266,-0.00431344,0.0216084,2.78151e-05,0.0216084,-0.00431347,1.56972,0.016038,0.00966795,1378,372,3.79627,29.0265
161,652,3.77344,-28.8745,-0.004255,0.0193852,0.000471254,0.0193945,-0.00426439,1.55087,0.0145608,0.0109409,1385,372,3.77346,28.8745
168,652,3.73792,-28.7073,-0.00409526,0.0171845,0.000635263,0.0172034,-0.0041142,1.54098,0.0130582,0.0123075,1392,372,3.73797,28.7073
175,652,3.70935,-28.518,-0.00378098,0.0148078,0.000722803,0.0148359,-0.00380904,1.53199,0.0113749,0.0125418,1399,372,3.70931,28.518
182,652,3.67639,-28.3512,-0.00289581,0.0125398,0.000999288,0.0126042,-0.00296023,1.50642,0.00954383,0.018077,1406,372,3.67645,28.3512
189,652,3.67468,-28.166,-0.0029,0.0114963,0.00139144,0.0116295,-0.00303325,1.47532,0.00893736,0.0295028,1413,372,3.67473,28.166
196,652,3.65576,-27.9504,0,0,0,0,0,0,0,-1,1420,372,3.65574,27.9505
203,652,3.59973,-27.7152,0,0,0,0,0,0,0,-1,1427,372,3.59976,27.7152
210,652,3.67188,-27.4313,0,0,0,0,0,0,0,-1,1434,372,3.67191,27.4313
217,652,3.60547,-27.2602,0,0,0,0,0,0,0,-1,1441,372,3.60547,27.2602
224,652,3.40601,-27.0542,0,0,0,0,0,0,0,-1,1448,372,3.40599,27.0542
231,652,3.5603,-26.4246,0,0,0,0,0,0,0,-1,1455,372,3.56027,26.4246
238,652,3.56653,-26.2199,0,0,0,0,0,0,0,-1,1462,372,3.56649,26.2199
245,652,3.48792,-26.1433,0,0,0,0,0,0,0,-1,1469,372,3.48797,26.1433
252,652,3.48584,-25.8716,0,0,0,0,0,0,0,-1,1476,372,3.48584,25.8716
259,652,3.25146,-25.243,0,0,0,0,0,0,0,-1,1483,372,3.25148,25.243
266,652,2.98047,-25.1779,0,0,0,0,0,0,0,-1,1490,372,2.98045,25.1779
273,652,3.10327,-24.9547,0,0,0,0,0,0,0,-1,1497,372,3.10322,24.9547
280,652,3.29565,-24.6326,0,0,0,0,0,0,0,-1,1504,372,3.29569,24.6326
287,652,-4.71191,-19.5709,0,0,0,0,0,0,0,-1,1511,372,-4.71192,19.5709
294,652,-2.90796,-20.8954,0,0,0,0,0,0,0,-1,1518,372,-2.90793,20.8954
301,652,-2.31116,-21.7727,0,0,0,0,0,0,0,-1,1525,372,-2.31119,21.7727
308,652,-1.71448,-22.65,0,0,0,0,0,0,0,-1,1532,372,-1.71444,22.65
315,652,1.57373,-26.1443,0,0,0,0,0,0,0,-1,1539,372,1.5737,26.1442
322,652,1.47742,-24.1089,0,0,0,0,0,0,0,-1,1546,372,1.47736,24.1089
329,652,3.6593,-22.1693,0,0,0,0,0,0,0,-1,1553,372,3.65935,22.1693
336,652,4.33569,-23.2715,0,0,0,0,0,0,0,-1,1560,372,4.33567,23.2715
343,652,4.85767,-24.4762,0,0,0,0,0,0,0,-1,1567,372,4.85772,24.4762
350,652,5.28394,-25.6715,0,0,0,0,0,0,0,-1,1574,372,5.28393,25.6715
357,652,0,0,0,0,0,0,0,0,0,-1,1581,372,0,0
364,652,0,0,0,0,0,0,0,0,0,-1,1588,372,0,0
371,652,0,0,0,0,0,0,0,0,0,-1,1595,372,0,0
378,652,0,0,0,0,0,0,0,0,0,-1,1602,372,0,0
385,652,0,0,0,0,0,0,0,0,0,-1,1609,372,0,0
392,652,0,0,0,0,0,0,0,0,0,-1,1616,372,0,0
399,652,0,0,0,0,0,0,0,0,0,-1,1623,372,0,0
406,652,0,0,0,0,0,0,0,0,0,-1,1630,372,0,0
413,652,0,0,0,0,0,0,0,0,0,-1,1637,372,0,0
420,652,0,0,0,0,0,0,0,0,0,-1,1644,372,0,0
427,652,0,0,0,0,0,0,0,0,0,-1,1651,372,0,0
434,652,0,0,0,0,0,0,0,0,0,-1,1658,372,0,0
441,652,0,0,0,0,0,0,0,0,0,-1,1665,372,0,0
448,652,0,0,0,0,0,0,0,0,0,-1,1672,372,0,0
455,652,0,0,0,0,0,0,0,0,0,-1,1679,372,0,0
462,652,0,0,0,0,0,0,0,0,0,-1,1686,372,0,0
469,652,0,0,0,0,0,0,0,0,0,-1,1693,372,0,0
476,652,0,0,0,0,0,0,0,0,0,-1,1700,372,0,0
483,652,0,0,0,0,0,0,0,0,0,-1,1707,372,0,0
490,652,0,0,0,0,0,0,0,0,0,-1,1714,372,0,0
497,652,0,0,0,0,0,0,0,0,0,-1,1721,372,0,0
504,652,0,0,0,0,0,0,0,0,0,-1,1728,372,0,0
511,652,0,0,0,0,0,0,0,0,0,-1,1735,372,0,0
518,652,0,0,0,0,0,0,0,0,0,-1,1742,372,0,0
525,652,0,0,0,0,0,0,0,0,0,-1,1749,372,0,0
532,652,0,0,0,0,0,0,0,0,0,-1,1756,372,0,0
539,652,0,0,0,0,0,0,0,0,0,-1,1763,372,0,0
546,652,0,0,0,0,0,0,0,0,0,-1,1770,372,0,0
553,652,0,0,0,0,0,0,0,0,0,-1,1777,372,0,0
560,652,0,0,0,0,0,0,0,0,0,-1,1784,372,0,0
567,652,0,0,0,0,0,0,0,0,0,-1,1791,372,0,0
574,652,0,0,0,0,0,0,0,0,0,-1,1798,372,0,0
581,652,0,0,0,0,0,0,0,0,0,-1,1805,372,0,0
588,652,0,0,0,0,0,0,0,0,0,-1,1812,372,0,0
595,652,0,0,0,0,0,0,0,0,0,-1,1819,372,0,0
602,652,0,0,0,0,0,0,0,0,0,-1,1826,372,0,0
609,652,0,0,0,0,0,0,0,0,0,-1,1833,372,0,0
616,652,0,0,0,0,0,0,0,0,0,-1,1840,372,0,0
623,652,0,0,0,0,0,0,0,0,0,-1,1847,372,0,0
630,652,0,0,0,0,0,0,0,0,0,-1,1854,372,0,0
637,652,0,0,0,0,0,0,0,0,0,-1,1861,372,0,0
644,652,0,0,0,0,0,0,0,0,0,-1,1868,372,0,0
651,652,0,0,0,0,0,0,0,0,0,-1,1875,372,0,0
658,652,0,0,0,0,0,0,0,0,0,-1,1882,372,0,0
665,652,0,0,0,0,0,0,0,0,0,-1,1889,372,0,0
672,652,0,0,0,0,0,0,0,0,0,-1,1896,372,0,0
679,652,0,0,0,0,0,0,0,0,0,-1,1903,372,0,0
686,652,0,0,0,0,0,0,0,0,0,-1,1910,372,0,0
693,652,0,0,0,0,0,0,0,0,0,-1,1917,372,0,0
700,652,0,0,0,0,0,0,0,0,0,-1,1924,372,0,0
707,652,0,0,0,0,0,0,0,0,0,-1,1931,372,0,0
714,652,0,0,0,0,0,0,0,0,0,-1,1938,372,0,0
721,652,0,0,0,0,0,0,0,0,0,-1,1945,372,0,0
728,652,0,0,0,0,0,0,0,0,0,-1,1952,372,0,0
735,652,0,0,0,0,0,0,0,0,0,-1,1959,372,0,0
742,652,0,0,0,0,0,0,0,0,0,-1,1966,372,0,0
749,652,0,0,0,0,0,0,0,0,0,-1,1973,372,0,0
756,652,0,0,0,0,0,0,0,0,0,-1,1980,372,0,0
763,652,0,0,0,0,0,0,0,0,0,-1,1987,372,0,0
770,652,0,0,0,0,0,0,0,0,0,-1,1994,372,0,0
777,652,0,0,0,0,0,0,0,0,0,-1,2001,372,0,0
784,652,0,0,0,0,0,0,0,0,0,-1,2008,372,0,0
791,652,0,0,0,0,0,0,0,0,0,-1,2015,372,0,0
798,652,0,0,0,0,0,0,0,0,0,-1,2022,372,0,0
805,652,0,0,0,0,0,0,0,0,0,-1,2029,372,0,0
812,652,0,0,0,0,0,0,0,0,0,-1,2036,372,0,0
-700,645,0,0,0,0,0,0,0,0,0,-1,524,379,0,0
-693,645,0,0,0,0,0,0,0,0,0,-1,531,379,0,0
-686,645,0,0,0,0,0,0,0,0,0,-1,538,379,0,0
-679,645,0,0,0,0,0,0,0,0,0,-1,545,379,0,0
-672,645,0,0,0,0,0,0,0,0,0,-1,552,379,0,0
-665,645,0,0,0,0,0,0,0,0,0,-1,559,379,0,0
-658,645,0,0,0,0,0,0,0,0,0,-1,566,379,0,0
-651,645,0,0,0,0,0,0,0,0,0,-1,573,379,0,0
-644,645,0,0,0,0,0,0,0,0,0,-1,580,379,0,0
-637,645,0,0,0,0,0,0,0,0,0,-1,587,379,0,0
-630,645,0,0,0,0,0,0,0,0,0,-1,594,379,0,0
-623,645,0,0,0,0,0,0,0,0,0,-1,601,379,0,0
-616,645,0,0,0,0,0,0,0,0,0,-1,608,379,0,0
-609,645,0,0,0,0,0,0,0,0,0,-1,615,379,0,0
-602,645,0,0,0,0,0,0,0,0,0,-1,622,379,0,0
-595,645,0,0,0,0,0,0,0,0,0,-1,629,379,0,0
-588,645,0,0,0,0,0,0,0,0,0,-1,636,379,0,0
-581,645,0,0,0,0,0,0,0,0,0,-1,643,379,0,0
-574,645,0,0,0,0,0,0,0,0,0,-1,650,379,0,0
-567,645,0,0,0,0,0,0,0,0,0,-1,657,379,0,0
-560,645,0,0,0,0,0,0,0,0,0,-1,664,379,0,0
-553,645,0,0,0,0,0,0,0,0,0,-1,671,379,0,0
-546,645,0,0,0,0,0,0,0,0,0,-1,678,379,0,0
-539,645,0,0,0,0,0,0,0,0,0,-1,685,379,0,0
-532,645,0,0,0,0,0,0,0,0,0,-1,692,379,0,0
-525,645,0,0,0,0,0,0,0,0,0,-1,699,379,0,0
-518,645,0,0,0,0,0,0,0,0,0,-1,706,379,0,0
-511,645,0,0,0,0,0,0,0,0,0,-1,713,379,0,0
-504,645,0,0,0,0,0,0,0,0,0,-1,720,379,0,0
-497,645,0,0,0,0,0,0,0,0,0,-1,727,379,0,0
-490,645,0,0,0,0,0,0,0,0,0,-1,734,379,0,0
-483,645,0,0,0,0,0,0,0,0,0,-1,741,379,0,0
-476,645,0,0,0,0,0,0,0,0,0,-1,748,379,0,0
-469,645,0,0,0,0,0,0,0,0,0,-1,755,379,0,0
-462,645,0,0,0,0,0,0,0,0,0,-1,762,379,0,0
-455,645,0,0,0,0,0,0,0,0,0,-1,769,379,0,0
-448,645,0,0,0,0,0,0,0,0,0,-1,776,379,0,0
-441,645,0,0,0,0,0,0,0,0,0,-1,783,379,0,0
-434,645,0,0,0,0,0,0,0,0,0,-1,790,379,0,0
-427,645,0,0,0,0,0,0,0,0,0,-1,797,379,0,0
-420,645,0,0,0,0,0,0,0,0,0,-1,804,379,0,0
-413,645,0,0,0,0,0,0,0,0,0,-1,811,379,0,0
-406,645,0,0,0,0,0,0,0,0,0,-1,818,379,0,0
-399,645,0,0,0,0,0,0,0,0,0,-1,825,379,0,0
-392,645,0,0,0,0,0,0,0,0,0,-1,832,379,0,0
-385,645,0,0,0,0,0,0,0,0,0,-1,839,379,0,0
-378,645,0,0,0,0,0,0,0,0,0,-1,846,379,0,0
-371,645,0,0,0,0,0,0,0,0,0,-1,853,379,0,0
-364,645,0,0,0,0,0,0,0,0,0,-1,860,379,0,0
-357,645,0,0,0,0,0,0,0,0,0,-1,867,379,0,0
-350,645,0,0,0,0,0,0,0,0,0,-1,874,379,0,0
-343,645,0,0,0,0,0,0,0,0,0,-1,881,379,0,0
-336,645,0,0,0,0,0,0,0,0,0,-1,888,379,0,0
-329,645,0,0,0,0,0,0,0,0,0,-1,895,379,0,0
-322,645,0,0,0,0,0,0,0,0,0,-1,902,379,0,0
-315,645,0,0,0,0,0,0,0,0,0,-1,909,379,0,0
-308,645,0,0,0,0,0,0,0,0,0,-1,916,379,0,0
-301,645,0,0,0,0,0,0,0,0,0,-1,923,379,0,0
-294,645,0,0,0,0,0,0,0,0,0,-1,930,379,0,0
-287,645,0,0,0,0,0,0,0,0,0,-1,937,379,0,0
-280,645,0,0,0,0,0,0,0,0,0,-1,944,379,0,0
-273,645,0,0,0,0,0,0,0,0,0,-1,951,379,0,0
-266,645,0,0,0,0,0,0,0,0,0,-1,958,379,0,0
-259,645,0,0,0,0,0,0,0,0,0,-1,965,379,0,0
-252,645,7.61414,-21.9233,0,0,0,0,0,0,0,-1,972,379,7.61413,21.9233
-245,645,8.70581,-21.8434,0,0,0,0,0,0,0,-1,979,379,8.70582,21.8434
-238,645,9.94202,-21.534,0,0,0,0,0,0,0,-1,986,379,9.94199,21.534
-231,645,11.1202,-20.9215,0,0,0,0,0,0,0,-1,993,379,11.1202,20.9215
-224,645,9.92029,-21.3227,0,0,0,0,0,0,0,-1,1000,379,9.92026,21.3227
-217,645,8.09961,-19.0991,0,0,0,0,0,0,0,-1,1007,379,8.0996,19.0991
-210,645,3.58685,-26.664,0,0,0,0,0,0,0,-1,1014,379,3.58685,26.664
-203,645,3.70166,-25.3203,0,0,0,0,0,0,0,-1,1021,379,3.70166,25.3203
-196,645,3.98962,-24.5246,0,0,0,0,0,0,0,-1,1028,379,3.98963,24.5246
-189,645,3.8988,-23.8797,0.0248472,0.024678,0.0153505,0.0401133,0.0094119,0.782643,0.0242223,0.0412565,1035,379,3.89886,23.8797
-182,645,3.7688,-23.3811,0,0,0,0,0,0,0,-1,1042,379,3.76878,23.3811
-175,645,4.59521,-24.747,0,0,0,0,0,0,0,-1,1049,379,4.59524,24.747
-168,645,4.49866,-24.9576,0,0,0,0,0,0,0,-1,1056,379,4.4986,24.9576
-161,645,4.73425,-25.3766,0.00116491,0.00638721,0.00285109,0.00764217,-9.00521e-05,1.15615,0.00512506,0.0487262,1063,379,4.73431,25.3766
-154,645,5.21008,-25.6095,-0.0022593,0.00491294,0.00173517,0.00531067,-0.00265703,1.34547,0.00468442,0.0399235,1070,379,5.21002,25.6095
-147,645,5.4624,-25.6862,-0.00651835,0.00298937,-1.17547e-05,0.00298938,-0.00651837,-1.56956,0.00561392,0.0381437,1077,379,5.46245,25.6862
-140,645,4.42798,-25.9872,-0.00790692,0.00291155,-3.89671e-05,0.00291169,-0.00790706,-1.56719,0.00646434,0.0390458,1084,379,4.42799,25.9872
-133,645,4.35925,-26.2383,-0.00916576,0.0032607,-0.000191801,0.00326366,-0.00916872,-1.55537,0.00744284,0.039702,1091,379,4.35928,26.2384
-126,645,4.57898,-26.4745,-0.0103173,0.00350918,-0.000252598,0.00351379,-0.010322,-1.55254,0.00830418,0.0299973,1098,379,4.57894,26.4745
-119,645,4.57422,-26.7941,-0.0110851,0.00384274,-0.000152304,0.0038443,-0.0110867,-1.5606,0.00895204,0.0182036,1105,379,4.57424,26.7941
-112,645,4.54224,-27.0911,-0.0115029,0.00411627,-9.44138e-05,0.00411684,-0.0115035,-1.56475,0.0093485,0.0126941,1112,379,4.54221,27.0911
-105,645,4.5105,-27.3101,-0.0118408,0.00445145,-3.52859e-05,0.00445152,-0.0118409,-1.56863,0.00972356,0.0142408,1119,379,4.51053,27.3101
-98,645,4.45801,-27.4844,-0.0117408,0.00427604,0.000102173,0.00427669,-0.0117414,1.56442,0.00957695,0.0195205,1126,379,4.45796,27.4844
-91,645,4.46167,-27.7205,-0.01093,0.00401765,9.52078e-05,0.00401825,-0.0109306,1.56443,0.00893301,0.028109,1133,379,4.46161,27.7205
-84,645,4.49365,-27.9506,-0.00962459,0.00377885,0.000240184,0.00378315,-0.00962889,1.55288,0.00798486,0.0344108,1140,379,4.49369,27.9506
-77,645,4.37341,-28.2166,-0.00907568,0.00394908,0.000887562,0.00400928,-0.00913588,1.50307,0.00777937,0.0232526,1147,379,4.37345,28.2166
-70,645,4.36572,-28.4334,-0.00835034,0.00359903,0.000822644,0.0036554,-0.00840671,1.50238,0.00714188,0.0136899,1154,379,4.3657,28.4334
-63,645,4.34729,-28.5809,-0.00485918,0.00339777,0.000300836,0.00340872,-0.00487013,1.53443,0.00480455,0.0118864,1161,379,4.34735,28.5809
-56,645,4.32129,-28.7209,-0.00196887,0.00387081,0.000584189,0.00392868,-0.00202674,1.47206,0.00349632,0.0124253,1168,379,4.32125,28.7209
-49,645,4.31116,-28.8806,-0.00120836,0.0029752,0.000891013,0.00315706,-0.00139022,1.36945,0.00269062,0.0104801,1175,379,4.3111,28.8806
-42,645,4.28442,-29.0488,-0.000971545,0.00332877,0.00122378,0.00365264,-0.00129542,1.31208,0.00296285,0.00979939,1182,379,4.28445,29.0488
-35,645,4.25903,-29.2226,-0.000964434,0.00381705,0.0013994,0.0041965,-0.00134389,1.30601,0.00333708,0.00984885,1189,379,4.25903,29.2226
-28,645,4.2334,-29.3745,-0.000699005,0.00443291,0.00140258,0.00479122,-0.00105732,1.32068,0.00359874,0.00829596,1196,379,4.23338,29.3745
-21,645,4.20361,-29.485,-0.000480258,0.00493673,0.00135076,0.00525487,-0.000798396,1.33949,0.00379746,0.00980796,1203,379,4.20361,29.485
-14,645,4.20935,-29.5951,-0.00062121,0.00534798,0.00117172,0.00556974,-0.000842972,1.38375,0.00402369,0.0104401,1210,379,4.2094,29.5951
-7,645,4.21045,-29.6988,-0.000840817,0.00569283,0.000851262,0.00580192,-0.000949906,1.44334,0.00422036,0.0142533,1217,379,4.21039,29.6988
0,645,4.16687,-29.7685,-0.00105165,0.00600814,0.00051953,0.00604617,-0.00108968,1.49773,0.00443881,0.0244173,1224,379,4.16691,29.7685
7,645,4.15076,-29.8513,-0.00134652,0.00635979,0.000193565,0.00636465,-0.00135138,1.5457,0.00475797,0.0165093,1231,379,4.15081,29.8513
14,645,4.15784,-29.9069,-0.00173347,0.00673108,-9.11295e-05,0.00673206,-0.00173445,-1.56003,0.00516421,0.0153861,1238,379,4.1578,29.9069
21,645,4.13354,-29.9703,-0.00217549,0.00723081,-0.000338383,0.00724296,-0.00218764,-1.53488,0.00569956,0.0100704,1245,379,4.13352,29.9703
28,645,4.13696,-30.0266,-0.00259315,0.00783228,-0.000573936,0.00786378,-0.00262465,-1.51597,0.00630229,0.00919325,1252,379,4.137,30.0266
35,645,4.12585,-30.0579,-0.00296384,0.00856071,-0.000778274,0.00861303,-0.00301616,-1.50367,0.00696849,0.00931184,1259,379,4.12579,30.0579
42,645,4.10681,-30.1053,-0.00336407,0.00942041,-0.00100048,0.00949823,-0.00344189,-1.49317,0.00773893,0.00907796,1266,379,4.10679,30.1052
49,645,4.13452,-30.1201,-0.00337313,0.0103776,-0.00120778,0.0104828,-0.0034784,-1.48385,0.00839186,0.0122987,1273,379,4.13447,30.1202
56,645,4.11829,-30.1037,-0.00325524,0.0116161,-0.00142096,0.0117507,-0.00338979,-1.47638,0.00917487,0.0123018,1280,379,4.11834,30.1037
63,645,4.09753,-30.1078,-0.00311187,0.0129052,-0.00154747,0.0130534,-0.00326001,-1.47536,0.00996822,0.0116015,1287,379,4.09758,30.1078
70,645,4.06921,-30.0906,-0.00292339,0.0143241,-0.00159426,0.0144702,-0.00306951,-1.47939,0.0108161,0.0154822,1294,379,4.0692,30.0906
77,645,4.05042,-30.0645,-0.00297502,0.015668,-0.00155591,0.015797,-0.00310398,-1.4881,0.011704,0.0185223,1301,379,4.05042,30.0646
84,645,4.0708,-30.0321,-0.00294674,0.0167652,-0.00164478,0.0169015,-0.00308304,-1.48812,0.0124235,0.0132308,1308,379,4.07077,30.0321
91,645,4.03552,-30.0108,-0.00281804,0.0177026,-0.00176503,0.0178533,-0.00296875,-1.48562,0.0130052,0.0150001,1315,379,4.03558,30.0108
98,645,4.01831,-29.9216,-0.00278793,0.0183914,-0.00178398,0.0185406,-0.00293714,-1.48735,0.0134468,0.0134669,1322,379,4.01833,29.9216
105,645,4.01526,-29.8243,-0.002816,0.0185707,-0.00183831,0.0187276,-0.00297287,-1.48567,0.0135849,0.0100181,1329,379,4.01525,29.8243
112,645,4.00671,-29.7533,-0.00278793,0.0186037,-0.0018563,0.0187636,-0.00294782,-1.48488,0.0135986,0.00909978,1336,379,4.00668,29.7533
119,645,4.0072,-29.6576,-0.00281928,0.0181483,-0.00174274,0.0182922,-0.00296315,-1.48843,0.0132931,0.00872918,1343,379,4.00717,29.6576
126,645,3.99292,-29.5531,-0.00283031,0.0173743,-0.00156364,0.0174946,-0.00295061,-1.49402,0.0127608,0.0106227,1350,379,3.99287,29.5531
133,645,3.96875,-29.4452,-0.00283295,0.0164061,-0.00134397,0.0164995,-0.00292638,-1.50139,0.0120938,0.0124058,1357,379,3.96877,29.4452
140,645,3.93896,-29.3155,-0.00278289,0.0153055,-0.00105132,0.0153664,-0.00284378,-1.51293,0.011312,0.0123629,1364,379,3.939,29.3155
147,645,3.90796,-29.1858,-0.00275763,0.0142889,-0.000738779,0.0143208,-0.00278958,-1.52757,0.0106001,0.0124048,1371,379,3.90799,29.1858
154,645,3.93628,-29.0641,-0.00280095,0.013234,-0.000437567,0.013246,-0.00281288,-1.54354,0.00990236,0.011219,1378,379,3.93632,29.0641
161,645,3.93774,-28.9204,-0.00267729,0.0122009,-0.00010568,0.0122017,-0.00267805,-1.56369,0.00915859,0.0132235,1385,379,3.93772,28.9204
168,645,3.89844,-28.739,-0.00253424,0.0112034,9.01754e-05,0.011204,-0.00253483,1.56423,0.0084421,0.0156228,1392,379,3.89849,28.739
175,645,3.8988,-28.5534,-0.00246244,0.00991807,0.000223409,0.0099221,-0.00246647,1.55276,0.007572,0.0142084,1399,379,3.89876,28.5534
182,645,3.86707,-28.3732,-0.00211251,0.00879412,0.000489214,0.00881602,-0.00213441,1.52606,0.00670306,0.0106255,1406,379,3.86705,28.3732
189,645,3.84753,-28.1618,-0.00219412,0.00830792,0.000858716,0.00837767,-0.00226387,1.48975,0.00647307,0.0108516,1413,379,3.84757,28.1618
196,645,3.80359,-27.972,-0.00242873,0.00772971,0.00122053,0.0078743,-0.00257332,1.45288,0.00628542,0.0106851,1420,379,3.80355,27.972
203,645,3.76318,-27.7505,-0.0027537,0.00698294,0.00164143,0.00725221,-0.00302297,1.4082,0.00609758,0.0113733,1427,379,3.76323,27.7505
210,645,3.81604,-27.4701,-0.00327429,0.00671406,0.00210835,0.00714085,-0.00370108,1.37106,0.00636374,0.019115,1434,379,3.81603,27.4701
217,645,3.78174,-27.3071,-0.00373264,0.00687101,0.00187888,0.00719409,-0.00405572,1.40051,0.00657879,0.0301088,1441,379,3.7818,27.3071
224,645,3.69226,-27.2323,-0.0035899,0.00778964,0.0018722,0.00808975,-0.00389,1.41185,0.00705676,0.0336748,1448,379,3.69228,27.2323
231,645,3.6593,-26.7873,0,0,0,0,0,0,0,-1,1455,379,3.65929,26.7873
238,645,3.66724,-26.483,-0.00237181,0.0104654,0.00298598,0.011126,-0.00303237,1.35308,0.00860802,0.0162053,1462,379,3.66727,26.483
245,645,3.64771,-26.2327,-0.00187536,0.0119717,0.00357115,0.0128384,-0.00274211,1.33269,0.00960437,0.0154155,1469,379,3.64767,26.2327
252,645,3.64893,-25.8723,-0.000977167,0.0134797,0.00432575,0.0146751,-0.00217265,1.30116,0.0105823,0.0237413,1476,379,3.64898,25.8723
259,645,3.56763,-25.4797,0.000138092,0.0153957,0.00528318,0.0170465,-0.00151268,1.26795,0.0119006,0.0418392,1483,379,3.56762,25.4797
266,645,3.37195,-25.3311,0.00132466,0.01752,0.00627948,0.0196694,-0.000824829,1.24099,0.0133964,0.031331,1490,379,3.372,25.3311
273,645,3.44812,-25.0684,0.00277443,0.0196901,0.00749449,0.0225328,-6.82864e-05,1.20826,0.0150447,0.0261643,1497,379,3.44815,25.0684
280,645,3.64294,-24.7009,0.00710701,0.0209456,0.0104363,0.026548,0.00150462,1.07813,0.017219,0.047957,1504,379,3.64295,24.7009
287,645,3.9231,-24.1697,0,0,0,0,0,0,0,-1,1511,379,3.92311,24.1697
294,645,3.38354,-24.5271,0,0,0,0,0,0,0,-1,1518,379,3.38359,24.5271
301,645,-0.209717,-20.4134,0,0,0,0,0,0,0,-1,1525,379,-0.209698,20.4134
308,645,3.44702,-25.8757,0,0,0,0,0,0,0,-1,1532,379,3.44706,25.8757
315,645,2.99146,-24.325,0,0,0,0,0,0,0,-1,1539,379,2.99144,24.325
322,645,2.67651,-22.614,0,0,0,0,0,0,0,-1,1546,379,2.67648,22.6139
329,645,4.31592,-22.8494,0,0,0,0,0,0,0,-1,1553,379,4.31587,22.8494
336,645,4.67188,-22.4373,0,0,0,0,0,0,0,-1,1560,379,4.67193,22.4374
343,645,4.9165,-22.1625,0,0,0,0,0,0,0,-1,1567,379,4.91647,22.1625
350,645,4.76404,-22.1987,0,0,0,0,0,0,0,-1,1574,379,4.76399,22.1987
357,645,4.61316,-21.967,0,0,0,0,0,0,0,-1,1581,379,4.61316,21.967
364,645,-0.0794678,-3.22021,0,0,0,0,0,0,0,-1,1588,379,-0.0794987,3.22021
371,645,0,0,0,0,0,0,0,0,0,-1,1595,379,0,0
378,645,0,0,0,0,0,0,0,0,0,-1,1602,379,0,0
385,645,0,0,0,0,0,0,0,0,0,-1,1609,379,0,0
392,645,0,0,0,0,0,0,0,0,0,-1,1616,379,0,0
399,645,0,0,0,0,0,0,0,0,0,-1,1623,379,0,0
406,645,0,0,0,0,0,0,0,0,0,-1,1630,379,0,0
413,645,0,0,0,0,0,0,0,0,0,-1,1637,379,0,0
420,645,0,0,0,0,0,0,0,0,0,-1,1644,379,0,0
427,645,0,0,0,0,0,0,0,0,0,-1,1651,379,0,0
434,645,0,0,0,0,0,0,0,0,0,-1,1658,379,0,0
441,645,0,0,0,0,0,0,0,0,0,-1,1665,379,0,0
448,645,0,0,0,0,0,0,0,0,0,-1,1672,379,0,0
455,645,0,0,0,0,0,0,0,0,0,-1,1679,379,0,0
462,645,0,0,0,0,0,0,0,0,0,-1,1686,379,0,0
469,645,0,0,0,0,0,0,0,0,0,-1,1693,379,0,0
476,645,0,0,0,0,0,0,0,0,0,-1,1700,379,0,0
483,645,0,0,0,0,0,0,0,0,0,-1,1707,379,0,0
490,645,0,0,0,0,0,0,0,0,0,-1,1714,379,0,0
497,645,0,0,0,0,0,0,0,0,0,-1,1721,379,0,0
504,645,0,0,0,0,0,0,0,0,0,-1,1728,379,0,0
511,645,0,0,0,0,0,0,0,0,0,-1,1735,379,0,0
518,645,0,0,0,0,0,0,0,0,0,-1,1742,379,0,0
525,645,0,0,0,0,0,0,0,0,0,-1,1749,379,0,0
532,645,0,0,0,0,0,0,0,0,0,-1,1756,379,0,0
539,645,0,0,0,0,0,0,0,0,0,-1,1763,379,0,0
546,645,0,0,0,0,0,0,0,0,0,-1,1770,379,0,0
553,645,0,0,0,0,0,0,0,0,0,-1,1777,379,0,0
560,645,0,0,0,0,0,0,0,0,0,-1,1784,379,0,0
567,645,0,0,0,0,0,0,0,0,0,-1,1791,379,0,0
574,645,0,0,0,0,0,0,0,0,0,-1,1798,379,0,0
581,645,0,0,0,0,0,0,0,0,0,-1,1805,379,0,0
588,645,0,0,0,0,0,0,0,0,0,-1,1812,379,0,0
595,645,0,0,0,0,0,0,0,0,0,-1,1819,379,0,0
602,645,0,0,0,0,0,0,0,0,0,-1,1826,379,0,0
609,645,0,0,0,0,0,0,0,0,0,-1,1833,379,0,0
616,645,0,0,0,0,0,0,0,0,0,-1,1840,379,0,0
623,645,0,0,0,0,0,0,0,0,0,-1,1847,379,0,0
630,645,0,0,0,0,0,0,0,0,0,-1,1854,379,0,0
637,645,0,0,0,0,0,0,0,0,0,-1,1861,379,0,0
644,645,0,0,0,0,0,0,0,0,0,-1,1868,379,0,0
651,645,0,0,0,0,0,0,0,0,0,-1,1875,379,0,0
658,645,0,0,0,0,0,0,0,0,0,-1,1882,379,0,0
665,645,0,0,0,0,0,0,0,0,0,-1,1889,379,0,0
672,645,0,0,0,0,0,0,0,0,0,-1,1896,379,0,0
679,645,0,0,0,0,0,0,0,0,0,-1,1903,379,0,0
686,645,0,0,0,0,0,0,0,0,0,-1,1910,379,0,0
693,645,0,0,0,0,0,0,0,0,0,-1,1917,379,0,0
700,645,0,0,0,0,0,0,0,0,0,-1,1924,379,0,0
707,645,0,0,0,0,0,0,0,0,0,-1,1931,379,0,0
714,645,0,0,0,0,0,0,0,0,0,-1,1938,379,0,0
721,645,0,0,0,0,0,0,0,0,0,-1,1945,379,0,0
728,645,0,0,0,0,0,0,0,0,0,-1,1952,379,0,0
735,645,0,0,0,0,0,0,0,0,0,-1,1959,379,0,0
742,645,0,0,0,0,0,0,0,0,0,-1,1966,379,0,0
749,645,0,0,0,0,0,0,0,0,0,-1,1973,379,0,0
756,645,0,0,0,0,0,0,0,0,0,-1,1980,379,0,0
763,645,0,0,0,0,0,0,0,0,0,-1,1987,379,0,0
770,645,0,0,0,0,0,0,0,0,0,-1,1994,379,0,0
777,645,0,0,0,0,0,0,0,0,0,-1,2001,379,0,0
784,645,0,0,0,0,0,0,0,0,0,-1,2008,379,0,0
791,645,0,0,0,0,0,0,0,0,0,-1,2015,379,0,0
798,645,0,0,0,0,0,0,0,0,0,-1,2022,379,0,0
805,645,0,0,0,0,0,0,0,0,0,-1,2029,379,0,0
812,645,0,0,0,0,0,0,0,0,0,-1,2036,379,0,0
-700,638,0,0,0,0,0,0,0,0,0,-1,524,386,0,0
-693,638,0,0,0,0,0,0,0,0,0,-1,531,386,0,0
-686,638,0,0,0,0,0,0,0,0,0,-1,538,386,0,0
-679,638,0,0,0,0,0,0,0,0,0,-1,545,386,0,0
-672,638,0,0,0,0,0,0,0,0,0,-1,552,386,0,0
-665,638,0,0,0,0,0,0,0,0,0,-1,559,386,0,0
-658,638,0,0,0,0,0,0,0,0,0,-1,566,386,0,0
-651,638,0,0,0,0,0,0,0,0,0,-1,573,386,0,0
-644,638,0,0,0,0,0,0,0,0,0,-1,580,386,0,0
-637,638,0,0,0,0,0,0,0,0,0,-1,587,386,0,0
-630,638,0,0,0,0,0,0,0,0,0,-1,594,386,0,0
-623,638,0,0,0,0,0,0,0,0,0,-1,601,386,0,0
-616,638,0,0,0,0,0,0,0,0,0,-1,608,386,0,0
-609,638,0,0,0,0,0,0,0,0,0,-1,615,386,0,0
-602,638,0,0,0,0,0,0,0,0,0,-1,622,386,0,0
-595,638,0,0,0,0,0,0,0,0,0,-1,629,386,0,0
-588,638,0,0,0,0,0,0,0,0,0,-1,636,386,0,0
-581,638,0,0,0,0,0,0,0,0,0,-1,643,386,0,0
-574,638,0,0,0,0,0,0,0,0,0,-1,650,386,0,0
-567,638,0,0,0,0,0,0,0,0,0,-1,657,386,0,0
-560,638,0,0,0,0,0,0,0,0,0,-1,664,386,0,0
-553,638,0,0,0,0,0,0,0,0,0,-1,671,386,0,0
-546,638,0,0,0,0,0,0,0,0,0,-1,678,386,0,0
-539,638,0,0,0,0,0,0,0,0,0,-1,685,386,0,0
-532,638,0,0,0,0,0,0,0,0,0,-1,692,386,0,0
-525,638,0,0,0,0,0,0,0,0,0,-1,699,386,0,0
-518,638,0,0,0,0,0,0,0,0,0,-1,706,386,0,0
-511,638,0,0,0,0,0,0,0,0,0,-1,713,386,0,0
-504,638,0,0,0,0,0,0,0,0,0,-1,720,386,0,0
-497,638,0,0,0,0,0,0,0,0,0,-1,727,386,0,0
-490,638,0,0,0,0,0,0,0,0,0,-1,734,386,0,0
-483,638,0,0,0,0,0,0,0,0,0,-1,741,386,0,0
-476,638,0,0,0,0,0,0,0,0,0,-1,748,386,0,0
-469,638,0,0,0,0,0,0,0,0,0,-1,755,386,0,0
-462,638,0,0,0,0,0,0,0,0,0,-1,762,386,0,0
-455,638,0,0,0,0,0,0,0,0,0,-1,769,386,0,0
-448,638,0,0,0,0,0,0,0,0,0,-1,776,386,0,0
-441,638,0,0,0,0,0,0,0,0,0,-1,783,386,0,0
-434,638,0,0,0,0,0,0,0,0,0,-1,790,386,0,0
-427,638,0,0,0,0,0,0,0,0,0,-1,797,386,0,0
-420,638,0,0,0,0,0,0,0,0,0,-1,804,386,0,0
-413,638,0,0,0,0,0,0,0,0,0,-1,811,386,0,0
-406,638,0,0,0,0,0,0,0,0,0,-1,818,386,0,0
-399,638,0,0,0,0,0,0,0,0,0,-1,825,386,0,0
-392,638,0,0,0,0,0,0,0,0,0,-1,832,386,0,0
-385,638,0,0,0,0,0,0,0,0,0,-1,839,386,0,0
-378,638,0,0,0,0,0,0,0,0,0,-1,846,386,0,0
-371,638,0,0,0,0,0,0,0,0,0,-1,853,386,0,0
-364,638,0,0,0,0,0,0,0,0,0,-1,860,386,0,0
-357,638,0,0,0,0,0,0,0,0,0,-1,867,386,0,0
-350,638,0,0,0,0,0,0,0,0,0,-1,874,386,0,0
-343,638,0,0,0,0,0,0,0,0,0,-1,881,386,0,0
-336,638,0,0,0,0,0,0,0,0,0,-1,888,386,0,0
-329,638,0,0,0,0,0,0,0,0,0,-1,895,386,0,0
-322,638,0,0,0,0,0,0,0,0,0,-1,902,386,0,0
-315,638,0,0,0,0,0,0,0,0,0,-1,909,386,0,0
-308,638,0,0,0,0,0,0,0,0,0,-1,916,386,0,0
-301,638,0,0,0,0,0,0,0,0,0,-1,923,386,0,0
-294,638,0,0,0,0,0,0,0,0,0,-1,930,386,0,0
-287,638,0,0,0,0,0,0,0,0,0,-1,937,386,0,0
-280,638,0,0,0,0,0,0,0,0,0,-1,944,386,0,0
-273,638,0,0,0,0,0,0,0,0,0,-1,951,386,0,0
-266,638,1.94666,-22.1545,0,0,0,0,0,0,0,-1,958,386,1.94668,22.1545
-259,638,5.78125,-22.0906,0,0,0,0,0,0,0,-1,965,386,5.78124,22.0906
-252,638,6.48108,-21.9329,0,0,0,0,0,0,0,-1,972,386,6.48107,21.9329
-245,638,7.14435,-22.0479,0,0,0,0,0,0,0,-1,979,386,7.14438,22.0479
-238,638,7.8316,-22.0596,0,0,0,0,0,0,0,-1,986,386,7.83158,22.0596
-231,638,8.15698,-21.6695,0,0,0,0,0,0,0,-1,993,386,8.157,21.6695
-224,638,8.3988,-21.4053,0,0,0,0,0,0,0,-1,1000,386,8.39878,21.4053
-217,638,3.34961,-27.6036,0,0,0,0,0,0,0,-1,1007,386,3.3496,27.6036
-210,638,3.4826,-26.5204,0,0,0,0,0,0,0,-1,1014,386,3.48262,26.5204
-203,638,3.61267,-25.3666,0,0,0,0,0,0,0,-1,1021,386,3.61262,25.3666
-196,638,3.92346,-24.3737,0,0,0,0,0,0,0,-1,1028,386,3.92344,24.3737
-189,638,4.1333,-23.6895,0,0,0,0,0,0,0,-1,1035,386,4.13334,23.6895
-182,638,3.99365,-23.1547,0,0,0,0,0,0,0,-1,1042,386,3.99369,23.1547
-175,638,4.35107,-24.5849,0.00884984,0.0129407,0.00215035,0.013863,0.00792748,1.16559,0.00803131,0.0426625,1049,386,4.35102,24.5849
-168,638,4.42224,-24.9114,0.00472171,0.00991589,0.00124163,0.0101974,0.00444017,1.34781,0.00590384,0.0346343,1056,386,4.42225,24.9114
-161,638,4.48511,-25.2771,0.00126677,0.00742016,0.000433095,0.0074505,0.00123644,1.50087,0.00461045,0.0313524,1063,386,4.48511,25.2771
-154,638,4.54895,-25.5421,-0.000881915,0.0062219,-0.00014996,0.00622506,-0.000885079,-1.5497,0.00447435,0.0259252,1070,386,4.549,25.5421
-147,638,4.51074,-25.7892,-0.00366217,0.00473644,-0.00122863,0.00491249,-0.00383821,-1.42848,0.0050649,0.0221459,1077,386,4.5107,25.7891
-140,638,4.42676,-26.0711,-0.00453059,0.00441633,-0.00117385,0.00456778,-0.00468204,-1.44249,0.00534052,0.0185968,1084,386,4.42673,26.0711
-133,638,4.39404,-26.4173,-0.00533815,0.00447685,-0.00124104,0.00463134,-0.00549264,-1.44695,0.00585213,0.0159908,1091,386,4.39399,26.4173
-126,638,4.38208,-26.643,-0.00610259,0.00449743,-0.00127195,0.00464792,-0.00625308,-1.45303,0.0063164,0.0151402,1098,386,4.38202,26.643
-119,638,4.36011,-26.9043,-0.00657001,0.00463914,-0.00116893,0.00475975,-0.00669061,-1.46799,0.00664212,0.0151825,1105,386,4.36007,26.9043
-112,638,4.33167,-27.1694,-0.00678373,0.00474741,-0.00111421,0.00485408,-0.00689041,-1.47535,0.00681458,0.0142839,1112,386,4.33163,27.1694
-105,638,4.29639,-27.4151,-0.00700807,0.00492654,-0.00107217,0.00502209,-0.00710362,-1.48191,0.00703508,0.0160004,1119,386,4.29639,27.4151
-98,638,4.25647,-27.6277,-0.00693131,0.00469066,-0.000989111,0.00477424,-0.00701489,-1.4865,0.00684731,0.0157427,1126,386,4.25648,27.6277
-91,638,4.2168,-27.8441,-0.00630709,0.00434773,-0.000968452,0.00443504,-0.0063944,-1.48088,0.0062864,0.0131548,1133,386,4.21685,27.8441
-84,638,4.20972,-28.0442,-0.00543115,0.00396103,-0.000676183,0.00400946,-0.00547958,-1.49929,0.00550037,0.0152845,1140,386,4.20971,28.0442
-77,638,4.21167,-28.2452,-0.00521803,0.00379441,-7.89976e-05,0.0037951,-0.00521872,-1.56203,0.00522572,0.0119162,1147,386,4.21172,28.2453
-70,638,4.20129,-28.4344,-0.00487137,0.00323307,5.11663e-05,0.00323339,-0.0048717,1.56448,0.00471123,0.0118069,1154,386,4.20126,28.4344
-63,638,4.18982,-28.6094,-0.00294204,0.00282343,-4.58221e-05,0.0028238,-0.00294241,-1.56285,0.00332936,0.0118996,1161,386,4.18986,28.6094
-56,638,4.17932,-28.7668,-0.00134728,0.00281323,0.000260111,0.00282943,-0.00136348,1.5086,0.0024696,0.0133355,1168,386,4.17926,28.7668
-49,638,4.15564,-28.9164,-0.000853822,0.00202756,0.000492545,0.00210943,-0.000935692,1.40608,0.00180111,0.0119705,1175,386,4.15569,28.9164
-42,638,4.15198,-29.0764,-0.000642594,0.00186725,0.000918335,0.00216738,-0.000942718,1.25493,0.00184143,0.0113951,1182,386,4.15203,29.0764
-35,638,4.13574,-29.2403,-0.00061721,0.00184158,0.00117145,0.00231034,-0.00108596,1.19016,0.00200288,0.0112291,1189,386,4.13575,29.2403
-28,638,4.12183,-29.3839,-0.000342818,0.00185041,0.00140022,0.00253233,-0.00102473,1.1176,0.00211426,0.0110608,1196,386,4.12186,29.3838
-21,638,4.09131,-29.4827,0.000111407,0.00181381,0.00172119,0.00288277,-0.00095756,1.01503,0.00230822,0.0116425,1203,386,4.09136,29.4827
-14,638,4.0907,-29.5973,0.000482818,0.00190759,0.00195716,0.00327798,-0.000887578,0.959939,0.00253355,0.0114598,1210,386,4.09071,29.5973
-7,638,4.10376,-29.7321,0.000878302,0.00198849,0.00211589,0.00362089,-0.0007541,0.913679,0.00270062,0.0178143,1217,386,4.10373,29.7321
0,638,4.11316,-29.7329,0.00123136,0.00211433,0.00221381,0.00393025,-0.000584555,0.883819,0.00283518,0.0313169,1224,386,4.11315,29.7329
7,638,4.08374,-29.8522,0.00139558,0.00233497,0.00222303,0.00413738,-0.000406832,0.88951,0.00290338,0.0229728,1231,386,4.08373,29.8522
14,638,4.07336,-29.9348,0.00136262,0.00262574,0.0021709,0.00425508,-0.000266728,0.926952,0.00292968,0.0123123,1238,386,4.07337,29.9347
21,638,4.07983,-29.9894,0.00113307,0.00305355,0.00201149,0.00432224,-0.000135633,1.00809,0.00292775,0.010675,1245,386,4.07987,29.9894
28,638,4.09229,-30.0439,0.000774661,0.00363916,0.00167548,0.00441113,2.69292e-06,1.13904,0.00293986,0.00928556,1252,386,4.0923,30.0439
35,638,4.09631,-30.0676,0.000356205,0.00429611,0.00127995,0.00467541,-2.30954e-05,1.2827,0.00312467,0.0110795,1259,386,4.09632,30.0676
42,638,4.10486,-30.1049,-0.000223229,0.00491852,0.000770671,0.00503155,-0.000336256,1.42517,0.00347188,0.00959304,1266,386,4.10481,30.1049
49,638,4.1228,-30.1193,-0.000613041,0.00563701,0.000210108,0.00564406,-0.000620096,1.53723,0.00398552,0.0082628,1273,386,4.12277,30.1193
56,638,4.10889,-30.104,-0.00093751,0.00646585,-0.000379057,0.0064852,-0.000956868,-1.51977,0.00467518,0.0110823,1280,386,4.10894,30.104
63,638,4.09351,-30.1105,-0.00117391,0.0072634,-0.000858445,0.00734985,-0.00126036,-1.47042,0.00536956,0.0137044,1287,386,4.09352,30.1105
70,638,4.07947,-30.1125,-0.00147504,0.00803628,-0.00126413,0.00820143,-0.00164019,-1.44089,0.00608844,0.0185765,1294,386,4.07948,30.1125
77,638,4.08167,-30.0991,-0.00187177,0.00854734,-0.00163105,0.0087967,-0.00212113,-1.41909,0.00668465,0.0182225,1301,386,4.08172,30.0991
84,638,4.11377,-30.047,-0.00195716,0.0089894,-0.00179497,0.00927622,-0.00224397,-1.41235,0.00705216,0.0123307,1308,386,4.1138,30.047
91,638,4.10107,-29.9882,-0.0020305,0.00915152,-0.00189899,0.00946521,-0.0023442,-1.40708,0.00721954,0.0138035,1315,386,4.10104,29.9882
98,638,4.08179,-29.9155,-0.00210119,0.00923646,-0.00189447,0.00954464,-0.00240937,-1.40954,0.00729998,0.0132931,1322,386,4.08175,29.9155
105,638,4.07996,-29.8382,-0.00211059,0.00898946,-0.00184777,0.00928897,-0.00241009,-1.4101,0.00713305,0.00984814,1329,386,4.07994,29.8382
112,638,4.09351,-29.7804,-0.0020021,0.00863207,-0.00174792,0.00891201,-0.00228204,-1.41199,0.0068303,0.00949798,1336,386,4.09347,29.7804
119,638,4.10046,-29.6799,-0.00190814,0.00802979,-0.00154678,0.00826497,-0.00214332,-1.41991,0.00634623,0.0112039,1343,386,4.10051,29.6799
126,638,4.09802,-29.5582,-0.00177726,0.0073656,-0.00130997,0.00754959,-0.00196125,-1.43126,0.00579845,0.014224,1350,386,4.09806,29.5582
133,638,4.07813,-29.435,-0.00164488,0.00671013,-0.00102997,0.00683522,-0.00176998,-1.44993,0.00524728,0.0155401,1357,386,4.07815,29.435
140,638,4.05591,-29.3193,-0.00149426,0.00621315,-0.00075934,0.00628725,-0.00156836,-1.47352,0.00480046,0.0168057,1364,386,4.05588,29.3193
147,638,4.05286,-29.2065,-0.00130936,0.0059621,-0.000509998,0.0059977,-0.00134496,-1.50111,0.00451408,0.0176919,1371,386,4.05281,29.2064
154,638,4.08081,-29.0966,-0.00114783,0.00577844,-0.000303137,0.00579168,-0.00116107,-1.52714,0.00430071,0.0157541,1378,386,4.0808,29.0966
161,638,4.08618,-28.9632,-0.000926778,0.00577798,-8.9699e-05,0.00577918,-0.000927978,-1.55742,0.00419645,0.0182024,1385,386,4.08617,28.9632
168,638,4.07971,-28.778,-0.000794393,0.00579023,5.05335e-05,0.00579062,-0.000794781,1.56312,0.00415078,0.022893,1392,386,4.07967,28.778
175,638,4.08777,-28.57,-0.000868566,0.00557839,0.000171059,0.00558293,-0.000873101,1.54429,0.00404452,0.0190089,1399,386,4.08771,28.57
182,638,4.04456,-28.3918,-0.000941572,0.00537364,0.000298341,0.0053877,-0.000955635,1.52369,0.00394908,0.0129695,1406,386,4.04456,28.3918
189,638,4.02368,-28.1833,-0.00113096,0.0053581,0.000587026,0.00541077,-0.00118364,1.4813,0.00405966,0.0105235,1413,386,4.02373,28.1833
196,638,3.99634,-27.9827,-0.00144582,0.00518407,0.000891649,0.00530189,-0.00156365,1.43942,0.00415507,0.0121294,1420,386,3.99638,27.9827
203,638,3.9718,-27.8008,-0.00176947,0.00496742,0.00121481,0.00517978,-0.00198183,1.39773,0.00426996,0.019538,1427,386,3.97181,27.8008
210,638,3.98755,-27.5882,-0.00222479,0.00504995,0.00153086,0.00535897,-0.00253381,1.37161,0.00465319,0.016541,1434,386,3.9875,27.5882
217,638,3.96411,-27.3598,-0.00259929,0.00533851,0.00142942,0.00558807,-0.00284885,1.39795,0.0049559,0.0121954,1441,386,3.96411,27.3598
224,638,3.927,-27.093,-0.00255564,0.00605985,0.00149076,0.00631051,-0.00280629,1.40421,0.00539164,0.0110652,1448,386,3.92703,27.093
231,638,3.87939,-26.8201,-0.00213368,0.0069431,0.00184627,0.00730427,-0.00249485,1.37761,0.00588027,0.0113635,1455,386,3.87937,26.8201
238,638,3.85803,-26.5744,-0.00170932,0.00809936,0.00247875,0.00869018,-0.00230014,1.33681,0.00669323,0.0123573,1462,386,3.85806,26.5744
245,638,3.86206,-26.3062,-0.00138241,0.00924505,0.00296817,0.0100178,-0.0021552,1.31609,0.00750089,0.0141206,1469,386,3.86205,26.3062
252,638,3.8501,-26.0156,-0.000772658,0.0104343,0.00358042,0.0114805,-0.00181886,1.28651,0.00832647,0.0166704,1476,386,3.85014,26.0156
259,638,3.8208,-25.7652,-2.89265e-05,0.0119968,0.00435663,0.0134092,-0.00144134,1.25729,0.0094566,0.016871,1483,386,3.82085,25.7652
266,638,3.74353,-25.442,0.000734676,0.0137134,0.00513154,0.0154972,-0.00104908,1.23626,0.0106983,0.0130183,1490,386,3.74355,25.4419
273,638,3.73572,-25.1608,0.00169219,0.015404,0.00605394,0.0176943,-0.000598138,1.20912,0.0120006,0.0114778,1497,386,3.73571,25.1608
280,638,3.81018,-24.8045,0.00480879,0.0164834,0.00828473,0.0207807,0.000511463,1.0923,0.0136865,0.0206019,1504,386,3.81018,24.8045
287,638,3.98071,-24.2943,0.00897365,0.0176221,0.0112923,0.0253898,0.00120596,0.968253,0.0165392,0.0393538,1511,386,3.98071,24.2943
294,638,4.04834,-23.8513,0,0,0,0,0,0,0,-1,1518,386,4.04836,23.8512
301,638,3.41272,-23.6567,0,0,0,0,0,0,0,-1,1525,386,3.41276,23.6567
308,638,3.71606,-22.7956,0,0,0,0,0,0,0,-1,1532,386,3.71603,22.7956
315,638,3.75378,-22.5835,0,0,0,0,0,0,0,-1,1539,386,3.75384,22.5835
322,638,4.11511,-23.1765,0,0,0,0,0,0,0,-1,1546,386,4.11505,23.1765
329,638,4.43799,-22.539,0.0445579,0.0195063,0.0360012,0.0701501,-0.00608588,0.617985,0.0489217,0.0479924,1553,386,4.43793,22.539
336,638,4.90613,-21.7845,0.0519357,0.0184316,0.0408185,0.079306,-0.00893873,0.590677,0.0560882,0.0471434,1560,386,4.90613,21.7845
343,638,5.6084,-21.1612,0,0,0,0,0,0,0,-1,1567,386,5.60839,21.1612
350,638,5.91162,-19.0222,0,0,0,0,0,0,0,-1,1574,386,5.91165,19.0222
357,638,0.387329,-3.01077,0,0,0,0,0,0,0,-1,1581,386,0.387332,3.01077
364,638,3.78149,-6.45215,0,0,0,0,0,0,0,-1,1588,386,3.78155,6.45216
371,638,4.18604,-6.71164,0,0,0,0,0,0,0,-1,1595,386,4.18598,6.71164
378,638,4.59045,-6.97113,0,0,0,0,0,0,0,-1,1602,386,4.5904,6.97112
385,638,0,0,0,0,0,0,0,0,0,-1,1609,386,0,0
392,638,0,0,0,0,0,0,0,0,0,-1,1616,386,0,0
399,638,0,0,0,0,0,0,0,0,0,-1,1623,386,0,0
406,638,0,0,0,0,0,0,0,0,0,-1,1630,386,0,0
413,638,0,0,0,0,0,0,0,0,0,-1,1637,386,0,0
420,638,0,0,0,0,0,0,0,0,0,-1,1644,386,0,0
427,638,0,0,0,0,0,0,0,0,0,-1,1651,386,0,0
434,638,0,0,0,0,0,0,0,0,0,-1,1658,386,0,0
441,638,0,0,0,0,0,0,0,0,0,-1,1665,386,0,0
448,638,0,0,0,0,0,0,0,0,0,-1,1672,386,0,0
455,638,0,0,0,0,0,0,0,0,0,-1,1679,386,0,0
462,638,0,0,0,0,0,0,0,0,0,-1,1686,386,0,0
469,638,0,0,0,0,0,0,0,0,0,-1,1693,386,0,0
476,638,0,0,0,0,0,0,0,0,0,-1,1700,386,0,0
483,638,0,0,0,0,0,0,0,0,0,-1,1707,386,0,0
490,638,0,0,0,0,0,0,0,0,0,-1,1714,386,0,0
497,638,0,0,0,0,0,0,0,0,0,-1,1721,386,0,0
504,638,0,0,0,0,0,0,0,0,0,-1,1728,386,0,0
511,638,0,0,0,0,0,0,0,0,0,-1,1735,386,0,0
518,638,0,0,0,0,0,0,0,0,0,-1,1742,386,0,0
525,638,0,0,0,0,0,0,0,0,0,-1,1749,386,0,0
532,638,0,0,0,0,0,0,0,0,0,-1,1756,386,0,0
539,638,0,0,0,0,0,0,0,0,0,-1,1763,386,0,0
546,638,0,0,0,0,0,0,0,0,0,-1,1770,386,0,0
553,638,0,0,0,0,0,0,0,0,0,-1,1777,386,0,0
560,638,0,0,0,0,0,0,0,0,0,-1,1784,386,0,0
567,638,0,0,0,0,0,0,0,0,0,-1,1791,386,0,0
574,638,0,0,0,0,0,0,0,0,0,-1,1798,386,0,0
581,638,0,0,0,0,0,0,0,0,0,-1,1805,386,0,0
588,638,0,0,0,0,0,0,0,0,0,-1,1812,386,0,0
595,638,0,0,0,0,0,0,0,0,0,-1,1819,386,0,0
602,638,0,0,0,0,0,0,0,0,0,-1,1826,386,0,0
609,638,0,0,0,0,0,0,0,0,0,-1,1833,386,0,0
616,638,0,0,0,0,0,0,0,0,0,-1,1840,386,0,0
623,638,0,0,0,0,0,0,0,0,0,-1,1847,386,0,0
630,638,0,0,0,0,0,0,0,0,0,-1,1854,386,0,0
637,638,0,0,0,0,0,0,0,0,0,-1,1861,386,0,0
644,638,0,0,0,0,0,0,0,0,0,-1,1868,386,0,0
651,638,0,0,0,0,0,0,0,0,0,-1,1875,386,0,0
658,638,0,0,0,0,0,0,0,0,0,-1,1882,386,0,0
665,638,0,0,0,0,0,0,0,0,0,-1,1889,386,0,0
672,638,0,0,0,0,0,0,0,0,0,-1,1896,386,0,0
679,638,0,0,0,0,0,0,0,0,0,-1,1903,386,0,0
686,638,0,0,0,0,0,0,0,0,0,-1,1910,386,0,0
693,638,0,0,0,0,0,0,0,0,0,-1,1917,386,0,0
700,638,0,0,0,0,0,0,0,0,0,-1,1924,386,0,0
707,638,0,0,0,0,0,0,0,0,0,-1,1931,386,0,0
714,638,0,0,0,0,0,0,0,0,0,-1,1938,386,0,0
721,638,0,0,0,0,0,0,0,0,0,-1,1945,386,0,0
728,638,0,0,0,0,0,0,0,0,0,-1,1952,386,0,0
735,638,0,0,0,0,0,0,0,0,0,-1,1959,386,0,0
742,638,0,0,0,0,0,0,0,0,0,-1,1966,386,0,0
749,638,0,0,0,0,0,0,0,0,0,-1,1973,386,0,0
756,638,0,0,0,0,0,0,0,0,0,-1,1980,386,0,0
763,638,0,0,0,0,0,0,0,0,0,-1,1987,386,0,0
770,638,0,0,0,0,0,0,0,0,0,-1,1994,386,0,0
777,638,0,0,0,0,0,0,0,0,0,-1,2001,386,0,0
784,638,0,0,0,0,0,0,0,0,0,-1,2008,386,0,0
791,638,0,0,0,0,0,0,0,0,0,-1,2015,386,0,0
798,638,0,0,0,0,0,0,0,0,0,-1,2022,386,0,0
805,638,0,0,0,0,0,0,0,0,0,-1,2029,386,0,0
812,638,0,0,0,0,0,0,0,0,0,-1,2036,386,0,0
-700,631,0,0,0,0,0,0,0,0,0,-1,524,393,0,0
-693,631,0,0,0,0,0,0,0,0,0,-1,531,393,0,0
-686,631,0,0,0,0,0,0,0,0,0,-1,538,393,0,0
-679,631,0,0,0,0,0,0,0,0,0,-1,545,393,0,0
-672,631,0,0,0,0,0,0,0,0,0,-1,552,393,0,0
-665,631,0,0,0,0,0,0,0,0,0,-1,559,393,0,0
-658,631,0,0,0,0,0,0,0,0,0,-1,566,393,0,0
-651,631,0,0,0,0,0,0,0,0,0,-1,573,393,0,0
-644,631,0,0,0,0,0,0,0,0,0,-1,580,393,0,0
-637,631,0,0,0,0,0,0,0,0,0,-1,587,393,0,0
-630,631,0,0,0,0,0,0,0,0,0,-1,594,393,0,0
-623,631,0,0,0,0,0,0,0,0,0,-1,601,393,0,0
-616,631,0,0,0,0,0,0,0,0,0,-1,608,393,0,0
-609,631,0,0,0,0,0,0,0,0,0,-1,615,393,0,0
-602,631,0,0,0,0,0,0,0,0,0,-1,622,393,0,0
-595,631,0,0,0,0,0,0,0,0,0,-1,629,393,0,0
-588,631,0,0,0,0,0,0,0,0,0,-1,636,393,0,0
-581,631,0,0,0,0,0,0,0,0,0,-1,643,393,0,0
-574,631,0,0,0,0,0,0,0,0,0,-1,650,393,0,0
-567,631,0,0,0,0,0,0,0,0,0,-1,657,393,0,0
-560,631,0,0,0,0,0,0,0,0,0,-1,664,393,0,0
-553,631,0,0,0,0,0,0,0,0,0,-1,671,393,0,0
-546,631,0,0,0,0,0,0,0,0,0,-1,678,393,0,0
-539,631,0,0,0,0,0,0,0,0,0,-1,685,393,0,0
-532,631,0,0,0,0,0,0,0,0,0,-1,692,393,0,0
-525,631,0,0,0,0,0,0,0,0,0,-1,699,393,0,0
-518,631,0,0,0,0,0,0,0,0,0,-1,706,393,0,0
-511,631,0,0,0,0,0,0,0,0,0,-1,713,393,0,0
-504,631,0,0,0,0,0,0,0,0,0,-1,720,393,0,0
-497,631,0,0,0,0,0,0,0,0,0,-1,727,393,0,0
-490,631,0,0,0,0,0,0,0,0,0,-1,734,393,0,0
-483,631,0,0,0,0,0,0,0,0,0,-1,741,393,0,0
-476,631,0,0,0,0,0,0,0,0,0,-1,748,393,0,0
-469,631,0,0,0,0,0,0,0,0,0,-1,755,393,0,0
-462,631,0,0,0,0,0,0,0,0,0,-1,762,393,0,0
-455,631,0,0,0,0,0,0,0,0,0,-1,769,393,0,0
-448,631,0,0,0,0,0,0,0,0,0,-1,776,393,0,0
-441,631,0,0,0,0,0,0,0,0,0,-1,783,393,0,0
-434,631,0,0,0,0,0,0,0,0,0,-1,790,393,0,0
-427,631,0,0,0,0,0,0,0,0,0,-1,797,393,0,0
-420,631,0,0,0,0,0,0,0,0,0,-1,804,393,0,0
-413,631,0,0,0,0,0,0,0,0,0,-1,811,393,0,0
-406,631,0,0,0,0,0,0,0,0,0,-1,818,393,0,0
-399,631,0,0,0,0,0,0,0,0,0,-1,825,393,0,0
-392,631,0,0,0,0,0,0,0,0,0,-1,832,393,0,0
-385,631,0,0,0,0,0,0,0,0,0,-1,839,393,0,0
-378,631,0,0,0,0,0,0,0,0,0,-1,846,393,0,0
-371,631,0,0,0,0,0,0,0,0,0,-1,853,393,0,0
-364,631,0,0,0,0,0,0,0,0,0,-1,860,393,0,0
-357,631,0,0,0,0,0,0,0,0,0,-1,867,393,0,0
-350,631,0,0,0,0,0,0,0,0,0,-1,874,393,0,0
-343,631,0,0,0,0,0,0,0,0,0,-1,881,393,0,0
-336,631,0,0,0,0,0,0,0,0,0,-1,888,393,0,0
-329,631,0,0,0,0,0,0,0,0,0,-1,895,393,0,0
-322,631,0,0,0,0,0,0,0,0,0,-1,902,393,0,0
-315,631,0,0,0,0,0,0,0,0,0,-1,909,393,0,0
-308,631,0,0,0,0,0,0,0,0,0,-1,916,393,0,0
-301,631,0,0,0,0,0,0,0,0,0,-1,923,393,0,0
-294,631,0,0,0,0,0,0,0,0,0,-1,930,393,0,0
-287,631,0,0,0,0,0,0,0,0,0,-1,937,393,0,0
-280,631,1.55042,-14.0146,0,0,0,0,0,0,0,-1,944,393,1.55041,14.0146
-273,631,0.083313,-20.814,0,0,0,0,0,0,0,-1,951,393,0.0832872,20.814
-266,631,1.76367,-20.7468,0,0,0,0,0,0,0,-1,958,393,1.76366,20.7468
-259,631,3.44403,-20.6796,0,0,0,0,0,0,0,-1,965,393,3.44404,20.6796
-252,631,5.59918,-22.1391,0,0,0,0,0,0,0,-1,972,393,5.5992,22.1391
-245,631,6.03522,-22.0255,0,0,0,0,0,0,0,-1,979,393,6.0352,22.0254
-238,631,6.32037,-21.8974,0,0,0,0,0,0,0,-1,986,393,6.32038,21.8974
-231,631,6.25067,-21.6809,0,0,0,0,0,0,0,-1,993,393,6.25064,21.6809
-224,631,6.83575,-19.7909,0,0,0,0,0,0,0,-1,1000,393,6.83575,19.7909
-217,631,5.05188,-18.3867,0,0,0,0,0,0,0,-1,1007,393,5.0519,18.3866
-210,631,3.37842,-26.3769,0,0,0,0,0,0,0,-1,1014,393,3.37839,26.3769
-203,631,3.45398,-25.2315,0,0,0,0,0,0,0,-1,1021,393,3.45396,25.2315
-196,631,4.26416,-23.3224,0,0,0,0,0,0,0,-1,1028,393,4.26414,23.3224
-189,631,4.0094,-23.5709,0,0,0,0,0,0,0,-1,1035,393,4.00946,23.5709
-182,631,4.23621,-23.951,0,0,0,0,0,0,0,-1,1042,393,4.23623,23.951
-175,631,4.35291,-24.5527,0.00517666,0.0116729,-0.000171995,0.0116774,0.00517211,-1.54434,0.00675661,0.0365195,1049,393,4.35294,24.5527
-168,631,4.27637,-24.9617,0.00293794,0.00937406,-0.000534836,0.0094182,0.00289379,-1.48845,0.00557064,0.0184999,1056,393,4.27632,24.9617
-161,631,4.24304,-25.331,0.000972093,0.00738963,-0.000874612,0.00750669,0.000855032,-1.43774,0.0047452,0.00933996,1063,393,4.24302,25.331
-154,631,4.21472,-25.6551,-0.000282815,0.00635332,-0.00108431,0.00652599,-0.000455492,-1.41287,0.00451017,0.00955253,1070,393,4.21467,25.6551
-147,631,4.20081,-25.9149,-0.00197511,0.00515029,-0.0016763,0.00552495,-0.00234977,-1.35091,0.00466804,0.0105929,1077,393,4.20076,25.9149
-140,631,4.17529,-26.1848,-0.00243771,0.00466259,-0.00156151,0.00499083,-0.00276594,-1.36361,0.00453936,0.00991495,1084,393,4.17532,26.1849
-133,631,4.14978,-26.4438,-0.00288491,0.0044964,-0.00155696,0.00481138,-0.00319988,-1.37119,0.00465639,0.00796354,1091,393,4.14984,26.4438
-126,631,4.14221,-26.6753,-0.00333228,0.00434847,-0.00155999,0.00465322,-0.00363703,-1.37787,0.00479835,0.0116777,1098,393,4.14218,26.6753
-119,631,4.11902,-26.919,-0.00355488,0.00434921,-0.00145704,0.00460925,-0.00381491,-1.39419,0.00487089,0.015326,1105,393,4.11899,26.919
-112,631,4.09937,-27.1738,-0.00359743,0.00435057,-0.00139989,0.00458993,-0.00383679,-1.40145,0.00487164,0.0147261,1112,393,4.09941,27.1738
-105,631,4.13013,-27.4108,-0.00368042,0.00442973,-0.00136448,0.00465314,-0.00390383,-1.4085,0.00494668,0.0196734,1119,393,4.13013,27.4108
-98,631,4.07739,-27.6306,-0.00355955,0.00418825,-0.00130602,0.00440248,-0.00377378,-1.40821,0.00472522,0.0169699,1126,393,4.07738,27.6306
-91,631,4.03979,-27.8463,-0.00305315,0.00385499,-0.00126175,0.00407824,-0.00327639,-1.39568,0.0042546,0.0180195,1133,393,4.0398,27.8463
-84,631,4.04333,-28.0534,-0.00244986,0.00343554,-0.000950444,0.00358522,-0.00259954,-1.41459,0.00358586,0.017203,1140,393,4.04337,28.0534
-77,631,4.03052,-28.2471,-0.00233523,0.00310444,-0.000483812,0.00314714,-0.00237793,-1.48278,0.00320019,0.0110534,1147,393,4.0305,28.2471
-70,631,4.03784,-28.4244,-0.00214046,0.00243252,-0.000280214,0.00244963,-0.00215757,-1.50982,0.00266175,0.012532,1154,393,4.03785,28.4244
-63,631,4.03967,-28.6094,-0.00117629,0.00195781,-0.000149588,0.00196494,-0.00118341,-1.52321,0.00183628,0.0129105,1161,393,4.03962,28.6094
-56,631,4.00305,-28.8019,-0.000397463,0.00166065,0.000135289,0.0016695,-0.000406318,1.50544,0.00127029,0.0131435,1168,393,4.003,28.8019
-49,631,3.98425,-28.9526,-0.000127133,0.00101448,0.000315835,0.00109603,-0.000208685,1.3181,0.000809267,0.0107075,1175,393,3.98424,28.9526
-42,631,4.00012,-29.0926,9.96507e-05,0.000530382,0.000536093,0.000892751,-0.000262719,0.976397,0.000699387,0.00934862,1182,393,4.00009,29.0926
-35,631,4.00635,-29.2341,0.000393046,-8.95039e-06,0.000782243,0.000999702,-0.000615606,0.659643,0.000941346,0.0105459,1189,393,4.00632,29.2341
-28,631,4.00757,-29.3675,0.00101221,-0.000120307,0.00125469,0.0018225,-0.000930602,0.573426,0.00161707,0.0140741,1196,393,4.00758,29.3675
-21,631,3.98877,-29.4821,0.00164355,-0.000443232,0.00166019,0.002561,-0.00136068,0.50485,0.00229926,0.0120174,1203,393,3.98879,29.4821
-14,631,3.97693,-29.5961,0.00240085,-0.000533146,0.00210029,0.00349575,-0.00162804,0.480547,0.00302302,0.0130957,1210,393,3.97695,29.5961
-7,631,4.01196,-29.7238,0.00321982,-0.000534025,0.0024717,0.00444647,-0.00176068,0.460665,0.00369383,0.0201649,1217,393,4.01198,29.7238
0,631,4.02332,-29.7794,0.00396312,-0.000472581,0.00276673,0.0052912,-0.00180067,0.447536,0.0042566,0.0228756,1224,393,4.02334,29.7794
7,631,4.01294,-29.843,0.0044241,-0.000312483,0.00299495,0.005874,-0.00176238,0.450857,0.00461698,0.0176387,1231,393,4.01292,29.843
14,631,4.00757,-29.9334,0.00461973,-4.81177e-05,0.0031452,0.00620237,-0.00163076,0.466199,0.0047723,0.0102918,1238,393,4.00753,29.9335
21,631,4.04199,-29.998,0.00453827,0.000364796,0.00313004,0.0062134,-0.00131033,0.491392,0.00464112,0.0127076,1245,393,4.04195,29.998
28,631,4.04236,-30.0412,0.00422876,0.000970289,0.00284029,0.00587392,-0.000674866,0.525001,0.00415919,0.0144887,1252,393,4.0424,30.0412
35,631,4.05579,-30.072,0.00377703,0.00160485,0.00244882,0.00536981,1.20739e-05,0.576674,0.00357586,0.0136493,1259,393,4.05578,30.0719
42,631,4.08936,-30.0923,0.00313536,0.00203715,0.00182067,0.00448793,0.000684582,0.638939,0.00279188,0.0120332,1266,393,4.08941,30.0923
49,631,4.10669,-30.1108,0.00245802,0.00265801,0.00105985,0.00362257,0.00149346,0.832433,0.0021022,0.0108878,1273,393,4.10674,30.1108
56,631,4.11621,-30.1234,0.00180838,0.00321975,0.000217839,0.0032526,0.00177553,1.42109,0.00188052,0.0124327,1280,393,4.11617,30.1234
63,631,4.10425,-30.1445,0.00125841,0.00375285,-0.000509665,0.00385297,0.00115829,-1.37683,0.0022827,0.0152944,1287,393,4.10429,30.1445
70,631,4.1051,-30.1059,0.000551242,0.00415658,-0.00120252,0.00452086,0.000186959,-1.27665,0.00295356,0.0153113,1294,393,4.10506,30.1059
77,631,4.10767,-30.0849,-0.000203267,0.00390275,-0.00193434,0.00467047,-0.000970987,-1.19297,0.00348272,0.0145606,1301,393,4.10766,30.0849
84,631,4.12781,-30.0665,-0.000634851,0.00379768,-0.00226404,0.00474964,-0.00158682,-1.17277,0.00380724,0.0122369,1308,393,4.12786,30.0665
91,631,4.13757,-30.0085,-0.00113324,0.00325867,-0.0025106,0.00439818,-0.00227275,-1.14472,0.00391608,0.0148791,1315,393,4.13757,30.0085
98,631,4.13745,-29.9404,-0.00148162,0.00266727,-0.00252868,0.00386353,-0.00267788,-1.12892,0.00379731,0.0130795,1322,393,4.13744,29.9404
105,631,4.14368,-29.8673,-0.00164722,0.00184061,-0.00241037,0.00307178,-0.00287838,-1.09856,0.00343593,0.0107888,1329,393,4.14364,29.8674
112,631,4.16675,-29.7917,-0.00161623,0.000959762,-0.00223527,0.00225157,-0.00290803,-1.04677,0.00298692,0.0108964,1336,393,4.16674,29.7917
119,631,4.18152,-29.7087,-0.00159171,9.81247e-07,-0.00195075,0.00131167,-0.0029024,-0.979186,0.00249011,0.011782,1343,393,4.18152,29.7087
126,631,4.19141,-29.5786,-0.00151465,-0.000858228,-0.00161659,0.000463128,-0.00283601,-0.885551,0.00206246,0.0169719,1350,393,4.19147,29.5786
133,631,4.19385,-29.449,-0.00141224,-0.00157046,-0.00121241,-0.00027636,-0.00270633,-0.752819,0.00171952,0.0187041,1357,393,4.19387,29.449
140,631,4.18811,-29.3484,-0.00123695,-0.00182193,-0.0008796,-0.000602488,-0.0024564,-0.624887,0.00147828,0.0193903,1364,393,4.18817,29.3484
147,631,4.17896,-29.2345,-0.00100279,-0.00177132,-0.000574204,-0.000696136,-0.00207798,-0.490515,0.0012213,0.0218824,1371,393,4.17897,29.2345
154,631,4.20447,-29.0919,-0.000640262,-0.00149154,-0.000377259,-0.000497137,-0.00163467,-0.362607,0.000967616,0.021543,1378,393,4.20441,29.0919
161,631,4.20447,-28.9221,-0.000256003,-0.000833967,-0.000188247,-0.000200097,-0.000889873,-0.288685,0.000539074,0.0235444,1385,393,4.20446,28.9221
168,631,4.22034,-28.7534,-4.61313e-05,-2.28512e-05,-0.000108831,7.49605e-05,-0.000143943,-0.838673,0.000128459,0.0273142,1392,393,4.22039,28.7534
175,631,4.24048,-28.5819,1.99582e-05,0.000688708,-6.50336e-05,0.000694974,1.36926e-05,-1.47475,0.00045882,0.0207601,1399,393,4.24045,28.5819
182,631,4.21021,-28.4186,-5.28776e-06,0.00147938,1.06675e-05,0.00147945,-5.36448e-06,1.56361,0.000988095,0.0115125,1406,393,4.21025,28.4186
189,631,4.20471,-28.2025,-0.000158008,0.00221679,0.00020613,0.00223455,-0.000175767,1.48485,0.00155161,0.0100437,1413,393,4.20475,28.2024
196,631,4.19202,-27.9993,-0.00040447,0.00270225,0.000448726,0.00276577,-0.000467984,1.43019,0.00201801,0.0102334,1420,393,4.192,27.9993
203,631,4.18994,-27.815,-0.000745294,0.00302642,0.000716523,0.00315795,-0.000876827,1.38925,0.00245044,0.0136978,1427,393,4.18998,27.815
210,631,4.19006,-27.601,-0.0011617,0.00347682,0.000963678,0.00366907,-0.00135394,1.37389,0.00300095,0.0160651,1434,393,4.19002,27.601
217,631,4.18542,-27.3789,-0.00148862,0.00391508,0.000988464,0.00409022,-0.00166375,1.39544,0.0034191,0.016654,1441,393,4.18547,27.3789
224,631,4.14978,-27.1389,-0.00154054,0.00451917,0.00111613,0.00471822,-0.00173958,1.39432,0.00385835,0.0133652,1448,393,4.14982,27.1389
231,631,4.11365,-26.8639,-0.00129919,0.00522067,0.00145341,0.00552999,-0.00160851,1.3611,0.00432374,0.0105886,1455,393,4.11363,26.8639
238,631,4.09729,-26.5859,-0.00102234,0.00613735,0.00198184,0.00664932,-0.00153431,1.31799,0.00502304,0.0161314,1462,393,4.09725,26.5859
245,631,4.11353,-26.3326,-0.000820855,0.00704139,0.00238432,0.00770795,-0.00148741,1.2982,0.00569951,0.0178729,1469,393,4.11353,26.3325
252,631,4.07568,-26.0769,-0.000425586,0.00800174,0.00287563,0.00888947,-0.00131331,1.27137,0.00640909,0.017172,1476,393,4.07573,26.0769
259,631,4.04675,-25.7802,4.83678e-05,0.00926695,0.00349623,0.0104429,-0.00112759,1.24633,0.00736663,0.0125598,1483,393,4.04679,25.7802
266,631,4.05237,-25.4968,0.000524076,0.0106371,0.00409417,0.0120868,-0.000925603,1.23049,0.00838345,0.011521,1490,393,4.05238,25.4968
273,631,4.02454,-25.1928,0.00114666,0.0119426,0.00478913,0.0137608,-0.000671596,1.20794,0.00940574,0.0139401,1497,393,4.02457,25.1928
280,631,4.00244,-24.8631,0.00335976,0.0128418,0.00646626,0.0161189,8.26912e-05,1.10173,0.0107185,0.0120216,1504,393,4.00241,24.8631
287,631,3.98547,-24.5379,0.00632983,0.013846,0.00874787,0.0196089,0.000566962,0.988278,0.0128877,0.0129572,1511,393,3.98551,24.5379
294,631,3.92908,-24.1667,0.00891305,0.0148268,0.0107719,0.0230403,0.000699565,0.919349,0.0151324,0.0167166,1518,393,3.92903,24.1667
301,631,3.82275,-23.7694,0.0121745,0.0156525,0.0132178,0.0272452,0.00058179,0.850806,0.0179727,0.0270698,1525,393,3.82269,23.7694
308,631,3.99048,-23.1605,0.0161809,0.0163209,0.0160694,0.0323204,0.000181394,0.787575,0.0214867,0.0385611,1532,393,3.99053,23.1605
315,631,3.99219,-22.8737,0.020957,0.0165549,0.0194438,0.038324,-0.000811987,0.729038,0.0258242,0.0424138,1539,393,3.9922,22.8737
322,631,3.88403,-22.6414,0,0,0,0,0,0,0,-1,1546,393,3.88399,22.6414
329,631,4.37512,-22.3798,0.0313947,0.0165697,0.0270447,0.0520243,-0.00405987,0.651641,0.0361123,0.0439151,1553,393,4.37514,22.3798
336,631,4.97034,-21.857,0.0365298,0.0160319,0.0305784,0.0585311,-0.0059694,0.623697,0.0411551,0.044545,1560,393,4.9704,21.857
343,631,5.5929,-21.0674,0,0,0,0,0,0,0,-1,1567,393,5.5929,21.0673
350,631,2.1344,-9.23401,0,0,0,0,0,0,0,-1,1574,393,2.13439,9.23401
357,631,2.6449,-9.60303,0,0,0,0,0,0,0,-1,1581,393,2.64491,9.60304
364,631,3.39136,-5.7594,0,0,0,0,0,0,0,-1,1588,393,3.39137,5.75939
371,631,3.72839,-6.0574,0,0,0,0,0,0,0,-1,1595,393,3.72845,6.05742
378,631,4.06555,-6.35544,0,0,0,0,0,0,0,-1,1602,393,4.06553,6.35544
385,631,3.90442,-3.58298,0,0,0,0,0,0,0,-1,1609,393,3.90437,3.58299
392,631,0.352295,-2.21301,0,0,0,0,0,0,0,-1,1616,393,0.352345,2.213
399,631,0,0,0,0,0,0,0,0,0,-1,1623,393,0,0
406,631,0,0,0,0,0,0,0,0,0,-1,1630,393,0,0
413,631,0,0,0,0,0,0,0,0,0,-1,1637,393,0,0
420,631,0,0,0,0,0,0,0,0,0,-1,1644,393,0,0
427,631,0,0,0,0,0,0,0,0,0,-1,1651,393,0,0
434,631,0,0,0,0,0,0,0,0,0,-1,1658,393,0,0
441,631,0,0,0,0,0,0,0,0,0,-1,1665,393,0,0
448,631,0,0,0,0,0,0,0,0,0,-1,1672,393,0,0
455,631,0,0,0,0,0,0,0,0,0,-1,1679,393,0,0
462,631,0,0,0,0,0,0,0,0,0,-1,1686,393,0,0
469,631,0,0,0,0,0,0,0,0,0,-1,1693,393,0,0
476,631,0,0,0,0,0,0,0,0,0,-1,1700,393,0,0
483,631,0,0,0,0,0,0,0,0,0,-1,1707,393,0,0
490,631,0,0,0,0,0,0,0,0,0,-1,1714,393,0,0
497,631,0,0,0,0,0,0,0,0,0,-1,1721,393,0,0
504,631,0,0,0,0,0,0,0,0,0,-1,1728,393,0,0
511,631,0,0,0,0,0,0,0,0,0,-1,1735,393,0,0
518,631,0,0,0,0,0,0,0,0,0,-1,1742,393,0,0
525,631,0,0,0,0,0,0,0,0,0,-1,1749,393,0,0
532,631,0,0,0,0,0,0,0,0,0,-1,1756,393,0,0
539,631,0,0,0,0,0,0,0,0,0,-1,1763,393,0,0
546,631,0,0,0,0,0,0,0,0,0,-1,1770,393,0,0
553,631,0,0,0,0,0,0,0,0,0,-1,1777,393,0,0
560,631,0,0,0,0,0,0,0,0,0,-1,1784,393,0,0
567,631,0,0,0,0,0,0,0,0,0,-1,1791,393,0,0
574,631,0,0,0,0,0,0,0,0,0,-1,1798,393,0,0
581,631,0,0,0,0,0,0,0,0,0,-1,1805,393,0,0
588,631,0,0,0,0,0,0,0,0,0,-1,1812,393,0,0
595,631,0,0,0,0,0,0,0,0,0,-1,1819,393,0,0
602,631,0,0,0,0,0,0,0,0,0,-1,1826,393,0,0
609,631,0,0,0,0,0,0,0,0,0,-1,1833,393,0,0
616,631,0,0,0,0,0,0,0,0,0,-1,1840,393,0,0
623,631,0,0,0,0,0,0,0,0,0,-1,1847,393,0,0
630,631,0,0,0,0,0,0,0,0,0,-1,1854,393,0,0
637,631,0,0,0,0,0,0,0,0,0,-1,1861,393,0,0
644,631,0,0,0,0,0,0,0,0,0,-1,1868,393,0,0
651,631,0,0,0,0,0,0,0,0,0,-1,1875,393,0,0
658,631,0,0,0,0,0,0,0,0,0,-1,1882,393,0,0
665,631,0,0,0,0,0,0,0,0,0,-1,1889,393,0,0
672,631,0,0,0,0,0,0,0,0,0,-1,1896,393,0,0
679,631,0,0,0,0,0,0,0,0,0,-1,1903,393,0,0
686,631,0,0,0,0,0,0,0,0,0,-1,1910,393,0,0
693,631,0,0,0,0,0,0,0,0,0,-1,1917,393,0,0
700,631,0,0,0,0,0,0,0,0,0,-1,1924,393,0,0
707,631,0,0,0,0,0,0,0,0,0,-1,1931,393,0,0
714,631,0,0,0,0,0,0,0,0,0,-1,1938,393,0,0
721,631,0,0,0,0,0,0,0,0,0,-1,1945,393,0,0
728,631,0,0,0,0,0,0,0,0,0,-1,1952,393,0,0
735,631,0,0,0,0,0,0,0,0,0,-1,1959,393,0,0
742,631,0,0,0,0,0,0,0,0,0,-1,1966,393,0,0
749,631,0,0,0,0,0,0,0,0,0,-1,1973,393,0,0
756,631,0,0,0,0,0,0,0,0,0,-1,1980,393,0,0
763,631,0,0,0,0,0,0,0,0,0,-1,1987,393,0,0
770,631,0,0,0,0,0,0,0,0,0,-1,1994,393,0,0
777,631,0,0,0,0,0,0,0,0,0,-1,2001,393,0,0
784,631,0,0,0,0,0,0,0,0,0,-1,2008,393,0,0
791,631,0,0,0,0,0,0,0,0,0,-1,2015,393,0,0
798,631,0,0,0,0,0,0,0,0,0,-1,2022,393,0,0
805,631,0,0,0,0,0,0,0,0,0,-1,2029,393,0,0
812,631,0,0,0,0,0,0,0,0,0,-1,2036,393,0,0
-700,624,0,0,0,0,0,0,0,0,0,-1,524,400,0,0
-693,624,0,0,0,0,0,0,0,0,0,-1,531,400,0,0
-686,624,0,0,0,0,0,0,0,0,0,-1,538,400,0,0
-679,624,0,0,0,0,0,0,0,0,0,-1,545,400,0,0
-672,624,0,0,0,0,0,0,0,0,0,-1,552,400,0,0
-665,624,0,0,0,0,0,0,0,0,0,-1,559,400,0,0
-658,624,0,0,0,0,0,0,0,0,0,-1,566,400,0,0
-651,624,0,0,0,0,0,0,0,0,0,-1,573,400,0,0
-644,624,0,0,0,0,0,0,0,0,0,-1,580,400,0,0
-637,624,0,0,0,0,0,0,0,0,0,-1,587,400,0,0
-630,624,0,0,0,0,0,0,0,0,0,-1,594,400,0,0
-623,624,0,0,0,0,0,0,0,0,0,-1,601,400,0,0
-616,624,0,0,0,0,0,0,0,0,0,-1,608,400,0,0
-609,624,0,0,0,0,0,0,0,0,0,-1,615,400,0,0
-602,624,0,0,0,0,0,0,0,0,0,-1,622,400,0,0
-595,624,0,0,0,0,0,0,0,0,0,-1,629,400,0,0
-588,624,0,0,0,0,0,0,0,0,0,-1,636,400,0,0
-581,624,0,0,0,0,0,0,0,0,0,-1,643,400,0,0
-574,624,0,0,0,0,0,0,0,0,0,-1,650,400,0,0
-567,624,0,0,0,0,0,0,0,0,0,-1,657,400,0,0
-560,624,0,0,0,0,0,0,0,0,0,-1,664,400,0,0
-553,624,0,0,0,0,0,0,0,0,0,-1,671,400,0,0
-546,624,0,0,0,0,0,0,0,0,0,-1,678,400,0,0
-539,624,0,0,0,0,0,0,0,0,0,-1,685,400,0,0
-532,624,0,0,0,0,0,0,0,0,0,-1,692,400,0,0
-525,624,0,0,0,0,0,0,0,0,0,-1,699,400,0,0
-518,624,0,0,0,0,0,0,0,0,0,-1,706,400,0,0
-511,624,0,0,0,0,0,0,0,0,0,-1,713,400,0,0
-504,624,0,0,0,0,0,0,0,0,0,-1,720,400,0,0
-497,624,0,0,0,0,0,0,0,0,0,-1,727,400,0,0
-490,624,0,0,0,0,0,0,0,0,0,-1,734,400,0,0
-483,624,0,0,0,0,0,0,0,0,0,-1,741,400,0,0
-476,624,0,0,0,0,0,0,0,0,0,-1,748,400,0,0
-469,624,0,0,0,0,0,0,0,0,0,-1,755,400,0,0
-462,624,0,0,0,0,0,0,0,0,0,-1,762,400,0,0
-455,624,0,0,0,0,0,0,0,0,0,-1,769,400,0,0
-448,624,0,0,0,0,0,0,0,0,0,-1,776,400,0,0
-441,624,0,0,0,0,0,0,0,0,0,-1,783,400,0,0
-434,624,0,0,0,0,0,0,0,0,0,-1,790,400,0,0
-427,624,0,0,0,0,0,0,0,0,0,-1,797,400,0,0
-420,624,0,0,0,0,0,0,0,0,0,-1,804,400,0,0
-413,624,0,0,0,0,0,0,0,0,0,-1,811,400,0,0
-406,624,0,0,0,0,0,0,0,0,0,-1,818,400,0,0
-399,624,0,0,0,0,0,0,0,0,0,-1,825,400,0,0
-392,624,0,0,0,0,0,0,0,0,0,-1,832,400,0,0
-385,624,0,0,0,0,0,0,0,0,0,-1,839,400,0,0
-378,624,0,0,0,0,0,0,0,0,0,-1,846,400,0,0
-371,624,0,0,0,0,0,0,0,0,0,-1,853,400,0,0
-364,624,0,0,0,0,0,0,0,0,0,-1,860,400,0,0
-357,624,0,0,0,0,0,0,0,0,0,-1,867,400,0,0
-350,624,0,0,0,0,0,0,0,0,0,-1,874,400,0,0
-343,624,0,0,0,0,0,0,0,0,0,-1,881,400,0,0
-336,624,0,0,0,0,0,0,0,0,0,-1,888,400,0,0
-329,624,0,0,0,0,0,0,0,0,0,-1,895,400,0,0
-322,624,0,0,0,0,0,0,0,0,0,-1,902,400,0,0
-315,624,0,0,0,0,0,0,0,0,0,-1,909,400,0,0
-308,624,0,0,0,0,0,0,0,0,0,-1,916,400,0,0
-301,624,0,0,0,0,0,0,0,0,0,-1,923,400,0,0
-294,624,-0.912903,-12.9461,0,0,0,0,0,0,0,-1,930,400,-0.912926,12.9461
-287,624,0.12146,-15.0862,0,0,0,0,0,0,0,-1,937,400,0.121451,15.0862
-280,624,1.51831,-12.2324,0,0,0,0,0,0,0,-1,944,400,1.51834,12.2324
-273,624,-0.136536,-19.7625,0,0,0,0,0,0,0,-1,951,400,-0.136554,19.7626
-266,624,1.67944,-19.7028,0,0,0,0,0,0,0,-1,958,400,1.67945,19.7028
-259,624,4.19537,-21.6596,0,0,0,0,0,0,0,-1,965,400,4.19537,21.6596
-252,624,4.69324,-21.7945,0,0,0,0,0,0,0,-1,972,400,4.69323,21.7945
-245,624,5.10236,-21.7495,0,0,0,0,0,0,0,-1,979,400,5.10236,21.7495
-238,624,5.48181,-21.7511,0,0,0,0,0,0,0,-1,986,400,5.48179,21.7511
-231,624,4.95148,-20.7456,0,0,0,0,0,0,0,-1,993,400,4.95146,20.7456
-224,624,4.41779,-21.5072,0,0,0,0,0,0,0,-1,1000,400,4.4178,21.5072
-217,624,4.45667,-22.3157,0,0,0,0,0,0,0,-1,1007,400,4.45668,22.3157
-210,624,4.40552,-22.9144,0,0,0,0,0,0,0,-1,1014,400,4.40554,22.9144
-203,624,4.09106,-23.1422,0,0,0,0,0,0,0,-1,1021,400,4.09101,23.1421
-196,624,4.04993,-23.5226,0.00526014,0.016571,0.000209996,0.0165749,0.00525624,1.55224,0.00978059,0.0413089,1028,400,4.04996,23.5225
-189,624,3.91785,-23.8311,0.00430545,0.0144954,-0.000199549,0.0144993,0.00430154,-1.55122,0.00859882,0.0381417,1035,400,3.91784,23.8311
-182,624,4.01074,-24.2288,0.00363872,0.0125437,-0.00100203,0.0126551,0.00352736,-1.46012,0.00754112,0.0313125,1042,400,4.01078,24.2288
-175,624,4.08032,-24.6779,0.00303469,0.0102344,-0.0014473,0.0105144,0.00275464,-1.37966,0.00629561,0.0208425,1049,400,4.08031,24.678
-168,624,4.01477,-25.0424,0.00207361,0.00844865,-0.00157037,0.00881449,0.00170778,-1.34192,0.00539788,0.0131444,1056,400,4.0148,25.0424
-161,624,3.98328,-25.3775,0.00118238,0.00683217,-0.00169813,0.00730329,0.000711265,-1.30017,0.00464994,0.0106437,1063,400,3.98323,25.3775
-154,624,3.9646,-25.6631,0.000589836,0.00587697,-0.00173078,0.00639316,7.36474e-05,-1.28095,0.00423777,0.010482,1070,400,3.96463,25.6632
-147,624,3.94983,-25.9282,-0.000305494,0.00483951,-0.00205321,0.00555843,-0.00102441,-1.23399,0.00409008,0.011028,1077,400,3.94989,25.9282
-140,624,3.91516,-26.1971,-0.000427466,0.00423135,-0.00193575,0.00493069,-0.0011268,-1.22412,0.00372005,0.0098698,1084,400,3.91516,26.197
-133,624,3.90063,-26.4514,-0.000570299,0.00387811,-0.00190306,0.00458115,-0.00127333,-1.21692,0.00355538,0.0104487,1091,400,3.90069,26.4514
-126,624,3.89319,-26.6884,-0.000768322,0.00357825,-0.00188743,0.00428343,-0.0014735,-1.21324,0.00345322,0.0117734,1098,400,3.89323,26.6883
-119,624,3.87793,-26.9333,-0.000818794,0.0034376,-0.0017754,0.00408091,-0.0014621,-1.22316,0.00331718,0.0143191,1105,400,3.87789,26.9333
-112,624,3.88354,-27.1581,-0.00077361,0.00332603,-0.00168291,0.00392837,-0.00137595,-1.22709,0.00317844,0.0173068,1112,400,3.88357,27.1581
-105,624,3.90198,-27.4044,-0.000791622,0.00329655,-0.00160081,0.00384878,-0.00134386,-1.23861,0.00311208,0.0134941,1119,400,3.90199,27.4044
-98,624,3.86707,-27.6315,-0.000696401,0.00302483,-0.00148085,0.0035422,-0.00121377,-1.23468,0.00285344,0.0142582,1126,400,3.86702,27.6315
-91,624,3.86182,-27.8411,-0.000367398,0.00271164,-0.00134156,0.00321416,-0.000869911,-1.2124,0.00248404,0.020235,1133,400,3.86179,27.8411
-84,624,3.88623,-28.0527,-3.81383e-05,0.00229031,-0.00100177,0.00266197,-0.000409803,-1.21553,0.00192584,0.0184006,1140,400,3.88627,28.0527
-77,624,3.88647,-28.2663,3.48083e-05,0.00193048,-0.000650426,0.00213219,-0.000166898,-1.27009,0.00148023,0.0131237,1147,400,3.8865,28.2663
-70,624,3.87476,-28.4255,0.000161053,0.00123489,-0.00040598,0.0013711,2.48442e-05,-1.24709,0.000905901,0.0146029,1154,400,3.87473,28.4255
-63,624,3.87927,-28.5877,0.000491382,0.000998279,-0.000153965,0.00104138,0.000448282,-1.29785,0.000603175,0.0159052,1161,400,3.87924,28.5877
-56,624,3.85266,-28.7846,0.000734599,0.000629765,0.000116034,0.000809506,0.000554858,0.57325,0.000477962,0.0129104,1168,400,3.85268,28.7846
-49,624,3.85498,-28.9701,0.000741301,0.000188538,0.000182365,0.000796045,0.000133794,0.291628,0.000492198,0.0103615,1175,400,3.85502,28.9701
-42,624,3.87268,-29.0942,0.000585594,-0.000706655,0.00021138,0.000619291,-0.000740353,0.158088,0.000786028,0.0101905,1182,400,3.87263,29.0942
-35,624,3.87976,-29.2234,0.000945237,-0.00190687,0.000472624,0.00102152,-0.00198315,0.160014,0.00176411,0.015213,1189,400,3.87974,29.2234
-28,624,3.85828,-29.3949,0.00189766,-0.00204314,0.00129059,0.0022827,-0.00242818,0.289937,0.00272026,0.0196287,1196,400,3.85829,29.3949
-21,624,3.85913,-29.5004,0.00273598,-0.00288711,0.0018496,0.00328981,-0.00344094,0.29094,0.00388633,0.0143989,1203,400,3.85911,29.5004
-14,624,3.90991,-29.5973,0.00392086,-0.00329337,0.00248971,0.00469667,-0.00406917,0.302067,0.00506528,0.0151707,1210,400,3.90987,29.5973
-7,624,3.9292,-29.6883,0.00512753,-0.0034901,0.00298493,0.00606044,-0.00442301,0.302922,0.00607718,0.0187199,1217,400,3.92919,29.6883
0,624,3.95056,-29.7567,0.00627071,-0.00361147,0.00342385,0.00734103,-0.00468179,0.302984,0.00699775,0.0193456,1224,400,3.95052,29.7567
7,624,3.92334,-29.8297,0.00705504,-0.00357668,0.00383562,0.00829436,-0.004816,0.312519,0.00765756,0.0146493,1231,400,3.92338,29.8297
14,624,3.95386,-29.9479,0.00754194,-0.00333437,0.0041576,0.00894916,-0.00474159,0.326366,0.00802782,0.0119575,1238,400,3.95386,29.9479
21,624,3.9812,-29.9977,0.00769426,-0.00286668,0.00425864,0.00919755,-0.00436997,0.339343,0.00799679,0.0122678,1245,400,3.9812,29.9977
28,624,3.99219,-30.0472,0.00751007,-0.0021115,0.00399269,0.0089511,-0.00355254,0.346368,0.00743989,0.0112382,1252,400,3.99224,30.0472
35,624,4.00586,-30.0705,0.00709194,-0.00134492,0.00355663,0.00839119,-0.00264417,0.350243,0.00665304,0.0147672,1259,400,4.00589,30.0705
42,624,4.06982,-30.0913,0.00641884,-0.000834009,0.00282826,0.00739133,-0.0018065,0.331183,0.00562722,0.0172143,1266,400,4.06983,30.0913
49,624,4.08484,-30.0893,0.00551287,3.19201e-05,0.00178267,0.00604166,-0.000496871,0.288362,0.0042032,0.0188222,1273,400,4.08485,30.0893
56,624,4.11731,-30.1144,0.00457885,0.000790531,0.000586477,0.00466757,0.000701815,0.150131,0.00290616,0.0185621,1280,400,4.1173,30.1144
63,624,4.1427,-30.1226,0.00377392,0.00152534,-0.000494269,0.00387777,0.00142149,-0.207097,0.00226525,0.0145861,1287,400,4.14271,30.1226
70,624,4.13403,-30.1206,0.00260154,0.001963,-0.00155113,0.00386591,0.000698623,-0.6839,0.00237885,0.0125555,1294,400,4.13407,30.1206
77,624,4.13733,-30.0868,0.00127945,0.00132084,-0.00272867,0.00402889,-0.0014286,-0.78919,0.00326793,0.0134849,1301,400,4.1373,30.0868
84,624,4.14417,-30.0776,0.000337693,0.00092088,-0.00329213,0.00393431,-0.00267573,-0.829569,0.0038393,0.012791,1308,400,4.14415,30.0776
91,624,4.18481,-30.0031,-0.00072516,-0.000195373,-0.00373216,0.00328128,-0.00420182,-0.820827,0.00433125,0.0127926,1315,400,4.18482,30.0031
98,624,4.21497,-29.9444,-0.00142568,-0.00146839,-0.00375792,0.00231094,-0.00520501,-0.782557,0.00444528,0.0126613,1322,400,4.21496,29.9444
105,624,4.2301,-29.8919,-0.00180838,-0.00300672,-0.00353181,0.00117472,-0.00598982,-0.701374,0.00443693,0.0141322,1329,400,4.23004,29.892
112,624,4.25354,-29.8179,-0.00190166,-0.00459494,-0.00322654,0.000247981,-0.00674458,-0.587706,0.00458129,0.0143191,1336,400,4.25353,29.8179
119,624,4.27002,-29.7346,-0.00201296,-0.00619419,-0.00275246,-0.00064717,-0.00755997,-0.460607,0.00483871,0.0144319,1343,400,4.26997,29.7346
126,624,4.2782,-29.5972,-0.00204598,-0.00760255,-0.00217881,-0.00129353,-0.008355,-0.332524,0.00519281,0.0182176,1350,400,4.27817,29.5972
133,624,4.31543,-29.4594,-0.00198767,-0.00875933,-0.00151145,-0.00166562,-0.00908138,-0.20993,0.00558249,0.0194744,1357,400,4.3154,29.4594
140,624,4.32532,-29.3477,-0.00174933,-0.00913977,-0.000974396,-0.00162302,-0.00926608,-0.128911,0.00571374,0.0187567,1364,400,4.32531,29.3477
147,624,4.31592,-29.2242,-0.0013974,-0.00914648,-0.000556654,-0.00135762,-0.00918627,-0.0713466,0.00572555,0.0218829,1371,400,4.31596,29.2243
154,624,4.34949,-29.0971,-0.000825419,-0.00887749,-0.00024756,-0.000817815,-0.0088851,-0.0307062,0.00567048,0.0241431,1378,400,4.34943,29.0971
161,624,4.37354,-28.9302,-0.000184631,-0.00802757,-1.29512e-05,-0.00018461,-0.00802759,-0.00165131,0.00529127,0.0218428,1385,400,4.37359,28.9302
168,624,4.39514,-28.7735,0.00026172,-0.00663524,-4.56346e-05,0.000262022,-0.00663554,-0.00661624,0.00451357,0.0211662,1392,400,4.39516,28.7735
175,624,4.40332,-28.625,0.000603229,-0.00520868,-0.000161801,0.00060773,-0.00521318,-0.0278108,0.00369473,0.0175847,1399,400,4.40332,28.625
182,624,4.38416,-28.449,0.000829085,-0.00350019,-0.000179304,0.000836498,-0.0035076,-0.0413222,0.00266142,0.0111999,1406,400,4.38415,28.449
189,624,4.38135,-28.2236,0.000912865,-0.00185893,-0.000136499,0.00091957,-0.00186564,-0.0490872,0.00163867,0.0102549,1413,400,4.38132,28.2236
196,624,4.37732,-28.0201,0.000869339,-0.000470442,4.49497e-05,0.000870846,-0.000471949,0.0334998,0.000786582,0.0105726,1420,400,4.37732,28.0202
203,624,4.40576,-27.8217,0.000492873,0.000628963,0.000250049,0.00082006,0.000301776,0.918244,0.000478931,0.0145752,1427,400,4.40582,27.8217
210,624,4.42078,-27.6134,-2.28826e-05,0.00177123,0.000425408,0.00186699,-0.000118642,1.34939,0.00128603,0.0184167,1434,400,4.42078,27.6134
217,624,4.40332,-27.3625,-0.000447128,0.00264572,0.00052094,0.00273111,-0.000532514,1.40833,0.00202176,0.0204857,1441,400,4.40329,27.3625
224,624,4.38403,-27.1078,-0.000609926,0.00323699,0.000718479,0.0033668,-0.000739734,1.39205,0.00252746,0.0163517,1448,400,4.384,27.1079
231,624,4.37585,-26.8854,-0.000551492,0.0038778,0.00105251,0.00411518,-0.000788873,1.34897,0.00304071,0.0116681,1455,400,4.37582,26.8854
238,624,4.35461,-26.6364,-0.000411025,0.00465993,0.00149984,0.00507033,-0.00082142,1.30371,0.00368467,0.0163304,1462,400,4.35463,26.6364
245,624,4.36462,-26.39,-0.000308502,0.00542748,0.00183751,0.00596563,-0.000846657,1.28589,0.00428727,0.0174531,1469,400,4.36462,26.39
252,624,4.32117,-26.0895,-8.21737e-05,0.00624148,0.00223799,0.00695338,-0.000794071,1.26282,0.00492167,0.013159,1476,400,4.32122,26.0895
259,624,4.31689,-25.804,0.000185024,0.00727553,0.00273675,0.00820896,-0.000748406,1.2421,0.0057384,0.00941672,1483,400,4.31686,25.804
266,624,4.33337,-25.5089,0.000459952,0.00837657,0.00320568,0.00951185,-0.000675325,1.23043,0.00657791,0.0131956,1490,400,4.33337,25.5089
273,624,4.30334,-25.2019,0.00085294,0.00941464,0.00373981,0.0108181,-0.00055056,1.21177,0.00740244,0.0156341,1497,400,4.30336,25.2019
280,624,4.26709,-24.9037,0.00238937,0.0101821,0.00499806,0.0126231,-5.1633e-05,1.11648,0.00843268,0.0140203,1504,400,4.26713,24.9037
287,624,4.26013,-24.6148,0.00449379,0.0110471,0.00673271,0.0152582,0.000282727,1.01186,0.0100792,0.0111394,1511,400,4.26014,24.6148
294,624,4.22559,-24.2877,0.0062802,0.0118663,0.00823396,0.017768,0.00037846,0.948914,0.0117212,0.00956626,1518,400,4.22558,24.2877
301,624,4.20557,-23.9297,0.00854527,0.0125774,0.0100449,0.0208066,0.0003161,0.884436,0.0137669,0.0108357,1525,400,4.20556,23.9297
308,624,4.22949,-23.5483,0.0113196,0.0131877,0.0121548,0.0244443,6.299e-05,0.823745,0.0162753,0.0156611,1532,400,4.22945,23.5483
315,624,4.22021,-23.2208,0.0146036,0.0134972,0.0146153,0.0286761,-0.000575365,0.766482,0.0193121,0.0190016,1539,400,4.2202,23.2208
322,624,4.18384,-22.891,0.0181483,0.0137728,0.0173617,0.0334596,-0.00153843,0.722724,0.0228365,0.0287896,1546,400,4.18387,22.891
329,624,4.29468,-22.4401,0.0216151,0.0137442,0.0200217,0.0380845,-0.00272518,0.688357,0.0263451,0.0413238,1553,400,4.29468,22.4401
336,624,4.46082,-22.1339,0.0249007,0.0134886,0.0224564,0.0423646,-0.0039753,0.660984,0.0296571,0.0413218,1560,400,4.46082,22.1339
343,624,4.55103,-21.682,0,0,0,0,0,0,0,-1,1567,400,4.55108,21.682
350,624,1.99194,-7.29742,0,0,0,0,0,0,0,-1,1574,400,1.99198,7.29741
357,624,2.64075,-3.13092,0,0,0,0,0,0,0,-1,1581,400,2.64076,3.13091
364,624,3.16565,-4.9458,0,0,0,0,0,0,0,-1,1588,400,3.16564,4.94579
371,624,3.37561,-5.23529,0,0,0,0,0,0,0,-1,1595,400,3.37563,5.23529
378,624,1.50439,-5.22165,0,0,0,0,0,0,0,-1,1602,400,1.50438,5.22164
385,624,1.2301,-10.5866,0,0,0,0,0,0,0,-1,1609,400,1.2301,10.5866
392,624,4.26819,-5.14236,0,0,0,0,0,0,0,-1,1616,400,4.26818,5.14236
399,624,3.86841,-2.36917,0,0,0,0,0,0,0,-1,1623,400,3.86838,2.36916
406,624,4.35376,-2.6962,0,0,0,0,0,0,0,-1,1630,400,4.35373,2.69619
413,624,0,0,0,0,0,0,0,0,0,-1,1637,400,0,0
420,624,0,0,0,0,0,0,0,0,0,-1,1644,400,0,0
427,624,0,0,0,0,0,0,0,0,0,-1,1651,400,0,0
434,624,0,0,0,0,0,0,0,0,0,-1,1658,400,0,0
441,624,0,0,0,0,0,0,0,0,0,-1,1665,400,0,0
448,624,0,0,0,0,0,0,0,0,0,-1,1672,400,0,0
455,624,0,0,0,0,0,0,0,0,0,-1,1679,400,0,0
462,624,0,0,0,0,0,0,0,0,0,-1,1686,400,0,0
469,624,0,0,0,0,0,0,0,0,0,-1,1693,400,0,0
476,624,0,0,0,0,0,0,0,0,0,-1,1700,400,0,0
483,624,0,0,0,0,0,0,0,0,0,-1,1707,400,0,0
490,624,0,0,0,0,0,0,0,0,0,-1,1714,400,0,0
497,624,0,0,0,0,0,0,0,0,0,-1,1721,400,0,0
504,624,0,0,0,0,0,0,0,0,0,-1,1728,400,0,0
511,624,0,0,0,0,0,0,0,0,0,-1,1735,400,0,0
518,624,0,0,0,0,0,0,0,0,0,-1,1742,400,0,0
525,624,0,0,0,0,0,0,0,0,0,-1,1749,400,0,0
532,624,0,0,0,0,0,0,0,0,0,-1,1756,400,0,0
539,624,0,0,0,0,0,0,0,0,0,-1,1763,400,0,0
546,624,0,0,0,0,0,0,0,0,0,-1,1770,400,0,0
553,624,0,0,0,0,0,0,0,0,0,-1,1777,400,0,0
560,624,0,0,0,0,0,0,0,0,0,-1,1784,400,0,0
567,624,0,0,0,0,0,0,0,0,0,-1,1791,400,0,0
574,624,0,0,0,0,0,0,0,0,0,-1,1798,400,0,0
581,624,0,0,0,0,0,0,0,0,0,-1,1805,400,0,0
588,624,0,0,0,0,0,0,0,0,0,-1,1812,400,0,0
595,624,0,0,0,0,0,0,0,0,0,-1,1819,400,0,0
602,624,0,0,0,0,0,0,0,0,0,-1,1826,400,0,0
609,624,0,0,0,0,0,0,0,0,0,-1,1833,400,0,0
616,624,0,0,0,0,0,0,0,0,0,-1,1840,400,0,0
623,624,0,0,0,0,0,0,0,0,0,-1,1847,400,0,0
630,624,0,0,0,0,0,0,0,0,0,-1,1854,400,0,0
637,624,0,0,0,0,0,0,0,0,0,-1,1861,400,0,0
644,624,0,0,0,0,0,0,0,0,0,-1,1868,400,0,0
651,624,0,0,0,0,0,0,0,0,0,-1,1875,400,0,0
658,624,0,0,0,0,0,0,0,0,0,-1,1882,400,0,0
665,624,0,0,0,0,0,0,0,0,0,-1,1889,400,0,0
672,624,0,0,0,0,0,0,0,0,0,-1,1896,400,0,0
679,624,0,0,0,0,0,0,0,0,0,-1,1903,400,0,0
686,624,0,0,0,0,0,0,0,0,0,-1,1910,400,0,0
693,624,0,0,0,0,0,0,0,0,0,-1,1917,400,0,0
700,624,0,0,0,0,0,0,0,0,0,-1,1924,400,0,0
707,624,0,0,0,0,0,0,0,0,0,-1,1931,400,0,0
714,624,0,0,0,0,0,0,0,0,0,-1,1938,400,0,0
721,624,0,0,0,0,0,0,0,0,0,-1,1945,400,0,0
728,624,0,0,0,0,0,0,0,0,0,-1,1952,400,0,0
735,624,0,0,0,0,0,0,0,0,0,-1,1959,400,0,0
742,624,0,0,0,0,0,0,0,0,0,-1,1966,400,0,0
749,624,0,0,0,0,0,0,0,0,0,-1,1973,400,0,0
756,624,0,0,0,0,0,0,0,0,0,-1,1980,400,0,0
763,624,0,0,0,0,0,0,0,0,0,-1,1987,400,0,0
770,624,0,0,0,0,0,0,0,0,0,-1,1994,400,0,0
777,624,0,0,0,0,0,0,0,0,0,-1,2001,400,0,0
784,624,0,0,0,0,0,0,0,0,0,-1,2008,400,0,0
791,624,0,0,0,0,0,0,0,0,0,-1,2015,400,0,0
798,624,0,0,0,0,0,0,0,0,0,-1,2022,400,0,0
805,624,0,0,0,0,0,0,0,0,0,-1,2029,400,0,0
812,624,0,0,0,0,0,0,0,0,0,-1,2036,400,0,0
-700,617,0,0,0,0,0,0,0,0,0,-1,524,407,0,0
-693,617,0,0,0,0,0,0,0,0,0,-1,531,407,0,0
-686,617,0,0,0,0,0,0,0,0,0,-1,538,407,0,0
-679,617,0,0,0,0,0,0,0,0,0,-1,545,407,0,0
-672,617,0,0,0,0,0,0,0,0,0,-1,552,407,0,0
-665,617,0,0,0,0,0,0,0,0,0,-1,559,407,0,0
-658,617,0,0,0,0,0,0,0,0,0,-1,566,407,0,0
-651,617,0,0,0,0,0,0,0,0,0,-1,573,407,0,0
-644,617,0,0,0,0,0,0,0,0,0,-1,580,407,0,0
-637,617,0,0,0,0,0,0,0,0,0,-1,587,407,0,0
-630,617,0,0,0,0,0,0,0,0,0,-1,594,407,0,0
-623,617,0,0,0,0,0,0,0,0,0,-1,601,407,0,0
-616,617,0,0,0,0,0,0,0,0,0,-1,608,407,0,0
-609,617,0,0,0,0,0,0,0,0,0,-1,615,407,0,0
-602,617,0,0,0,0,0,0,0,0,0,-1,622,407,0,0
-595,617,0,0,0,0,0,0,0,0,0,-1,629,407,0,0
-588,617,0,0,0,0,0,0,0,0,0,-1,636,407,0,0
-581,617,0,0,0,0,0,0,0,0,0,-1,643,407,0,0
-574,617,0,0,0,0,0,0,0,0,0,-1,650,407,0,0
-567,617,0,0,0,0,0,0,0,0,0,-1,657,407,0,0
-560,617,0,0,0,0,0,0,0,0,0,-1,664,407,0,0
-553,617,0,0,0,0,0,0,0,0,0,-1,671,407,0,0
-546,617,0,0,0,0,0,0,0,0,0,-1,678,407,0,0
-539,617,0,0,0,0,0,0,0,0,0,-1,685,407,0,0
-532,617,0,0,0,0,0,0,0,0,0,-1,692,407,0,0
-525,617,0,0,0,0,0,0,0,0,0,-1,699,407,0,0
-518,617,0,0,0,0,0,0,0,0,0,-1,706,407,0,0
-511,617,0,0,0,0,0,0,0,0,0,-1,713,407,0,0
-504,617,0,0,0,0,0,0,0,0,0,-1,720,407,0,0
-497,617,0,0,0,0,0,0,0,0,0,-1,727,407,0,0
-490,617,0,0,0,0,0,0,0,0,0,-1,734,407,0,0
-483,617,0,0,0,0,0,0,0,0,0,-1,741,407,0,0
-476,617,0,0,0,0,0,0,0,0,0,-1,748,407,0,0
-469,617,0,0,0,0,0,0,0,0,0,-1,755,407,0,0
-462,617,0,0,0,0,0,0,0,0,0,-1,762,407,0,0
-455,617,0,0,0,0,0,0,0,0,0,-1,769,407,0,0
-448,617,0,0,0,0,0,0,0,0,0,-1,776,407,0,0
-441,617,0,0,0,0,0,0,0,0,0,-1,783,407,0,0
-434,617,0,0,0,0,0,0,0,0,0,-1,790,407,0,0
-427,617,0,0,0,0,0,0,0,0,0,-1,797,407,0,0
-420,617,0,0,0,0,0,0,0,0,0,-1,804,407,0,0
-413,617,0,0,0,0,0,0,0,0,0,-1,811,407,0,0
-406,617,0,0,0,0,0,0,0,0,0,-1,818,407,0,0
-399,617,0,0,0,0,0,0,0,0,0,-1,825,407,0,0
-392,617,0,0,0,0,0,0,0,0,0,-1,832,407,0,0
-385,617,0,0,0,0,0,0,0,0,0,-1,839,407,0,0
-378,617,0,0,0,0,0,0,0,0,0,-1,846,407,0,0
-371,617,0,0,0,0,0,0,0,0,0,-1,853,407,0,0
-364,617,0,0,0,0,0,0,0,0,0,-1,860,407,0,0
-357,617,0,0,0,0,0,0,0,0,0,-1,867,407,0,0
-350,617,0,0,0,0,0,0,0,0,0,-1,874,407,0,0
-343,617,0,0,0,0,0,0,0,0,0,-1,881,407,0,0
-336,617,0,0,0,0,0,0,0,0,0,-1,888,407,0,0
-329,617,0,0,0,0,0,0,0,0,0,-1,895,407,0,0
-322,617,0,0,0,0,0,0,0,0,0,-1,902,407,0,0
-315,617,0,0,0,0,0,0,0,0,0,-1,909,407,0,0
-308,617,0,0,0,0,0,0,0,0,0,-1,916,407,0,0
-301,617,3.0321,-13.8866,0,0,0,0,0,0,0,-1,923,407,3.03209,13.8866
-294,617,-0.867493,-11.1655,0,0,0,0,0,0,0,-1,930,407,-0.867487,11.1655
-287,617,-0.212524,-10.7744,0,0,0,0,0,0,0,-1,937,407,-0.212541,10.7743
-280,617,2.19739,-11.6377,0,0,0,0,0,0,0,-1,944,407,2.19737,11.6377
-273,617,2.42114,-9.26978,0,0,0,0,0,0,0,-1,951,407,2.42112,9.26979
-266,617,1.25659,-18.489,0,0,0,0,0,0,0,-1,958,407,1.25662,18.489
-259,617,2.80859,-20.0673,0,0,0,0,0,0,0,-1,965,407,2.80857,20.0673
-252,617,4.02313,-21.229,0,0,0,0,0,0,0,-1,972,407,4.02315,21.229
-245,617,4.33319,-21.4263,0,0,0,0,0,0,0,-1,979,407,4.33318,21.4263
-238,617,3.45142,-22.4685,0,0,0,0,0,0,0,-1,986,407,3.45139,22.4685
-231,617,3.99384,-21.3207,0,0,0,0,0,0,0,-1,993,407,3.99386,21.3207
-224,617,3.83673,-22.119,0,0,0,0,0,0,0,-1,1000,407,3.83673,22.119
-217,617,4.00623,-22.5139,0.00194734,0.0178475,-0.0024725,0.0182231,0.00157173,-1.42004,0.0116602,0.0425135,1007,407,4.00625,22.514
-210,617,3.98193,-23.0711,0.00255904,0.0163766,-0.00219297,0.0167163,0.00221935,-1.41712,0.010483,0.0282741,1014,407,3.98193,23.0711
-203,617,3.85767,-23.4412,0.00258848,0.0145137,-0.00174861,0.0147648,0.00233737,-1.42816,0.00916398,0.0206155,1021,407,3.85763,23.4412
-196,617,3.8075,-23.7639,0.00209239,0.0130788,-0.0014093,0.0132567,0.00191449,-1.44523,0.00827379,0.0160282,1028,407,3.80747,23.7639
-189,617,3.75562,-24.1151,0.00181516,0.0114875,-0.00140859,0.0116885,0.0016142,-1.42909,0.00731386,0.0137235,1035,407,3.75562,24.1151
-182,617,3.76355,-24.4437,0.0017042,0.0100851,-0.00166738,0.0104046,0.00138465,-1.38145,0.00652401,0.0148298,1042,407,3.76355,24.4437
-175,617,3.76563,-24.7224,0.00153582,0.00812032,-0.0017626,0.00856246,0.00109368,-1.32502,0.00538093,0.0138378,1049,407,3.76561,24.7224
-168,617,3.73645,-25.0592,0.00120085,0.00662076,-0.00172615,0.00712382,0.00069779,-1.28722,0.00453455,0.0104466,1056,407,3.73649,25.0592
-161,617,3.70972,-25.4015,0.000880122,0.00523555,-0.00173541,0.00584245,0.00027322,-1.23437,0.00380716,0.0114943,1063,407,3.70973,25.4015
-154,617,3.68481,-25.6938,0.000684657,0.00432013,-0.00168071,0.00497806,2.67217e-05,-1.19767,0.00330984,0.0121281,1070,407,3.68481,25.6938
-147,617,3.66638,-25.9523,0.000301976,0.00339782,-0.00182057,0.00423957,-0.000539774,-1.13772,0.00302242,0.0156993,1077,407,3.66643,25.9523
-140,617,3.66553,-26.2206,0.000382723,0.00273895,-0.00171239,0.00363935,-0.000517684,-1.08671,0.00261593,0.0117722,1084,407,3.66558,26.2206
-133,617,3.67163,-26.4575,0.000434494,0.00226815,-0.00165698,0.00324503,-0.00054239,-1.03809,0.00236497,0.0136895,1091,407,3.67168,26.4575
-126,617,3.65723,-26.6935,0.000422683,0.00189157,-0.00162571,0.00294104,-0.000626781,-0.997561,0.00219959,0.0134014,1098,407,3.65727,26.6935
-119,617,3.62781,-26.9625,0.000512309,0.00166138,-0.00151261,0.00270489,-0.000531201,-0.966898,0.00200394,0.0133119,1105,407,3.62785,26.9625
-112,617,3.61804,-27.188,0.000656965,0.00149044,-0.00139484,0.00252947,-0.000382063,-0.930563,0.00182703,0.0142858,1112,407,3.61799,27.188
-105,617,3.61621,-27.3927,0.000755174,0.00139601,-0.00126941,0.00238482,-0.000233639,-0.909022,0.0016732,0.0158497,1119,407,3.61616,27.3927
-98,617,3.61865,-27.6233,0.000916792,0.00112146,-0.00106708,0.00209111,-5.28538e-05,-0.833202,0.00141202,0.0135616,1126,407,3.61869,27.6233
-91,617,3.63354,-27.8369,0.00118258,0.000900591,-0.000859577,0.00191265,0.000170523,-0.704107,0.00122223,0.0189036,1133,407,3.63355,27.8369
-84,617,3.66821,-28.0624,0.00140757,0.000594152,-0.000590154,0.00171759,0.000284137,-0.483691,0.00106308,0.0181509,1140,407,3.66822,28.0625
-77,617,3.69421,-28.2701,0.00160362,0.000309304,-0.000398046,0.00171623,0.00019669,-0.275713,0.00108455,0.0137332,1147,407,3.69416,28.2701
-70,617,3.70593,-28.4405,0.00183294,-0.00038519,-0.000187527,0.00184868,-0.000400932,-0.0837508,0.00138557,0.015455,1154,407,3.7059,28.4405
-63,617,3.70825,-28.6165,0.00205592,-0.000122639,2.61504e-05,0.00205624,-0.000122953,0.0120012,0.00141359,0.0177727,1161,407,3.7082,28.6165
-56,617,3.69934,-28.8012,0.0021778,-0.000374443,0.000256289,0.00220328,-0.000399924,0.0990987,0.00161871,0.0131487,1168,407,3.69935,28.8012
-49,617,3.70813,-28.9674,0.00195082,-0.000519202,0.00019397,0.00196596,-0.000534341,0.0778934,0.00152038,0.00998106,1175,407,3.70817,28.9674
-42,617,3.73303,-29.1308,0.00120608,-0.00227895,-3.45292e-05,0.00120643,-0.00227929,-0.00990655,0.00204401,0.0118734,1182,407,3.733,29.1308
-35,617,3.7677,-29.2547,0.00152159,-0.004436,0.000214203,0.00152928,-0.00444369,0.0358928,0.00358272,0.0168725,1189,407,3.76767,29.2547
-28,617,3.7417,-29.3855,0.00278987,-0.00448167,0.00142922,0.0030607,-0.0047525,0.187272,0.00454606,0.0184148,1196,407,3.74165,29.3855
-21,617,3.77148,-29.4878,0.00383873,-0.00586217,0.00213336,0.00428715,-0.00631059,0.207181,0.00615568,0.0134246,1203,407,3.7715,29.4878
-14,617,3.81665,-29.5899,0.00557064,-0.00647588,0.00292115,0.00624161,-0.00714685,0.225779,0.00773572,0.0154633,1210,407,3.81671,29.5899
-7,617,3.82922,-29.666,0.00721274,-0.00672337,0.00345897,0.00802403,-0.00753467,0.230384,0.0089843,0.0184689,1217,407,3.82925,29.666
0,617,3.84619,-29.7415,0.00873768,-0.0068334,0.00397902,0.00969555,-0.00779127,0.236236,0.010116,0.016144,1224,407,3.84619,29.7415
7,617,3.87354,-29.86,0.00980819,-0.0067066,0.00452612,0.0109673,-0.0078657,0.250703,0.0109223,0.0114095,1231,407,3.87359,29.86
14,617,3.89832,-29.9351,0.0105423,-0.00624831,0.0049749,0.0119056,-0.00761163,0.267474,0.0113588,0.0131986,1238,407,3.89836,29.9351
21,617,3.92432,-29.9887,0.0109075,-0.00553008,0.0051652,0.0123958,-0.0070184,0.280543,0.0113512,0.0118653,1245,407,3.92429,29.9887
28,617,3.95789,-30.0594,0.0108672,-0.0044229,0.00492456,0.012316,-0.00587169,0.286125,0.0107182,0.0106159,1252,407,3.95783,30.0593
35,617,3.9762,-30.0963,0.010515,-0.00334222,0.0044974,0.0118467,-0.00467388,0.287873,0.00983327,0.0133262,1259,407,3.97618,30.0963
42,617,4.05298,-30.0715,0.00982399,-0.00263372,0.00371493,0.0108477,-0.0036574,0.268887,0.00871073,0.019393,1266,407,4.05293,30.0715
49,617,4.05615,-30.0725,0.00874187,-0.00143862,0.00247427,0.00931136,-0.00200811,0.226225,0.00697399,0.0200652,1273,407,4.05621,30.0725
56,617,4.07495,-30.0773,0.00757973,-0.000417836,0.00101075,0.0077055,-0.000543599,0.123789,0.00532745,0.0146559,1280,407,4.07495,30.0773
63,617,4.13025,-30.1085,0.00663204,0.000684501,-0.000320566,0.00664927,0.000667273,-0.0536916,0.00422801,0.0105696,1287,407,4.13028,30.1085
70,617,4.13513,-30.1199,0.00510973,0.00124565,-0.00166694,0.00572945,0.000625935,-0.355936,0.00362903,0.0150907,1294,407,4.13508,30.1199
77,617,4.18945,-30.0909,0.00332488,0.000220915,-0.00330662,0.00542563,-0.00187983,-0.565982,0.00438028,0.0138482,1301,407,4.1894,30.0909
84,617,4.21448,-30.0606,0.00205703,-0.000575552,-0.00410405,0.00505071,-0.00356923,-0.630215,0.00500116,0.011005,1308,407,4.21445,30.0606
91,617,4.24438,-29.991,0.000443554,-0.00241554,-0.00475335,0.00397767,-0.00594966,-0.639328,0.00576912,0.0104225,1315,407,4.24441,29.991
98,617,4.31189,-29.9304,-0.000641978,-0.00453169,-0.00485193,0.00264038,-0.00781404,-0.594782,0.0062774,0.0114983,1322,407,4.31183,29.9303
105,617,4.33667,-29.8729,-0.00120473,-0.0069299,-0.00464575,0.00138955,-0.00952418,-0.509285,0.00685971,0.0131271,1329,407,4.33668,29.8729
112,617,4.35608,-29.7889,-0.00134453,-0.00926499,-0.00435207,0.000579457,-0.011189,-0.416252,0.00765978,0.016029,1336,407,4.35611,29.7889
119,617,4.36646,-29.6898,-0.00156907,-0.0116622,-0.00379858,-0.000299228,-0.012932,-0.322615,0.00852337,0.0182491,1343,407,4.36641,29.6898
126,617,4.36719,-29.6042,-0.00171407,-0.0137028,-0.00304841,-0.000983472,-0.0144334,-0.23523,0.0093118,0.0207035,1350,407,4.36713,29.6042
133,617,4.39856,-29.4743,-0.00180499,-0.0154146,-0.00220442,-0.00145683,-0.0157628,-0.156641,0.0100582,0.0194356,1357,407,4.3986,29.4743
140,617,4.45874,-29.3451,-0.00160582,-0.0159746,-0.00153838,-0.00144296,-0.0161375,-0.105471,0.0103111,0.0171646,1364,407,4.4587,29.345
147,617,4.45435,-29.1824,-0.0012075,-0.0160241,-0.00102889,-0.00113639,-0.0160953,-0.0689999,0.0103721,0.0188822,1371,407,4.45431,29.1824
154,617,4.47205,-29.0673,-0.000523159,-0.0157515,-0.000630656,-0.000497086,-0.0157776,-0.0413189,0.0103567,0.0212199,1378,407,4.47205,29.0673
161,617,4.54224,-28.9474,0.000262362,-0.0147394,-0.000352761,0.000270653,-0.0147477,-0.0234973,0.00992325,0.0217819,1385,407,4.54225,28.9474
168,617,4.59009,-28.8304,0.000832381,-0.0128991,-0.000460282,0.000847793,-0.0129145,-0.03347,0.00890576,0.0204261,1392,407,4.59004,28.8304
175,617,4.56592,-28.6841,0.00135738,-0.0109294,-0.000677773,0.00139465,-0.0109667,-0.0549406,0.00781758,0.0182027,1399,407,4.5659,28.6841
182,617,4.57617,-28.4661,0.00178968,-0.00852817,-0.000738642,0.00184229,-0.00858078,-0.0711054,0.0064233,0.0122016,1406,407,4.57622,28.4661
189,617,4.573,-28.2306,0.00197264,-0.00606663,-0.00080176,0.00205182,-0.00614581,-0.0984386,0.00492572,0.0114128,1413,407,4.57302,28.2306
196,617,4.57642,-28.0292,0.00217239,-0.00375295,-0.000607631,0.00223406,-0.00381462,-0.101145,0.00353172,0.0148319,1420,407,4.57642,28.0292
203,617,4.59924,-27.8359,0.0018542,-0.00183598,-0.000376236,0.00189217,-0.00187395,-0.100577,0.00217438,0.0156046,1427,407,4.59927,27.8359
210,617,4.64075,-27.613,0.00118374,9.23859e-05,-0.000152515,0.00120466,7.14731e-05,-0.13627,0.000780372,0.0149631,1434,407,4.6407,27.613
217,617,4.63428,-27.3574,0.000551048,0.00148668,2.55684e-05,0.00148737,0.00055035,1.5435,0.000868355,0.0187762,1441,407,4.63426,27.3574
224,617,4.62427,-27.1249,0.000277438,0.00212405,0.000296553,0.00217051,0.000230982,1.41541,0.00137649,0.0186046,1448,407,4.62426,27.1249
231,617,4.63147,-26.9079,0.000167763,0.00276491,0.000642615,0.00291521,1.74587e-05,1.34103,0.00193768,0.0145266,1455,407,4.63146,26.9079
238,617,4.61731,-26.6625,0.000199286,0.003464,0.00103228,0.00376302,-9.97286e-05,1.28885,0.00254257,0.0142729,1462,407,4.61735,26.6625
245,617,4.62537,-26.4113,0.000231475,0.00412008,0.0013177,0.00452453,-0.000172977,1.27299,0.00307563,0.0124339,1469,407,4.62533,26.4114
252,617,4.60034,-26.0963,0.000323575,0.00479549,0.00164771,0.00533702,-0.000217957,1.25326,0.00363285,0.0139556,1476,407,4.60036,26.0963
259,617,4.58569,-25.8079,0.000427484,0.00559726,0.00204246,0.00630681,-0.000282059,1.23644,0.00430164,0.0118916,1483,407,4.58567,25.8079
266,617,4.59045,-25.5152,0.000557833,0.00643546,0.00240629,0.00729491,-0.000301621,1.22775,0.00496687,0.0140008,1490,407,4.59041,25.5152
273,617,4.57349,-25.2094,0.000789602,0.00723664,0.00281607,0.00829346,-0.000267221,1.21178,0.00562016,0.0143464,1497,407,4.57351,25.2094
280,617,4.55432,-24.9149,0.00178163,0.00787697,0.00373058,0.00964651,1.20956e-05,1.12789,0.00642698,0.0128077,1504,407,4.55428,24.9149
287,617,4.55188,-24.6065,0.00320337,0.00860052,0.00501414,0.0115961,0.000207744,1.03226,0.00766245,0.0121436,1511,407,4.55192,24.6065
294,617,4.51758,-24.2901,0.00440958,0.00927492,0.00611699,0.0134252,0.000259284,0.974655,0.00886498,0.0104519,1518,407,4.51761,24.2901
301,617,4.50037,-23.9745,0.00594866,0.00989025,0.00745197,0.0156276,0.000211285,0.914671,0.0103487,0.00830497,1525,407,4.50032,23.9745
308,617,4.48608,-23.6367,0.00783677,0.0104397,0.00901309,0.0182448,3.16594e-05,0.857101,0.0121527,0.00781638,1532,407,4.4861,23.6367
315,617,4.46082,-23.2947,0.010052,0.0107915,0.0107978,0.0212259,-0.00038234,0.802512,0.0142797,0.00935065,1539,407,4.46078,23.2948
322,617,4.45227,-22.9531,0.0123972,0.0111176,0.0127521,0.0245255,-0.00101077,0.760334,0.0166975,0.0125373,1546,407,4.45225,22.9531
329,617,4.43408,-22.5902,0.0146112,0.0112014,0.0146094,0.0276149,-0.00180225,0.727312,0.0190391,0.0133215,1553,407,4.43404,22.5903
336,617,4.43445,-22.1945,0.016611,0.0111258,0.0162627,0.0303607,-0.0026239,0.701863,0.0211694,0.0255056,1560,407,4.4345,22.1946
343,617,4.46814,-21.7705,0,0,0,0,0,0,0,-1,1567,407,4.46815,21.7705
350,617,2.88098,-10.0063,0,0,0,0,0,0,0,-1,1574,407,2.88098,10.0063
357,617,2.1748,-7.16504,0,0,0,0,0,0,0,-1,1581,407,2.1748,7.16505
364,617,2.30127,-7.60257,0,0,0,0,0,0,0,-1,1588,407,2.30125,7.60258
371,617,2.60266,-6.20667,0,0,0,0,0,0,0,-1,1595,407,2.60261,6.20668
378,617,1.56921,-10.3601,0,0,0,0,0,0,0,-1,1602,407,1.56918,10.3601
385,617,1.74146,-10.3561,0,0,0,0,0,0,0,-1,1609,407,1.7414,10.3561
392,617,1.91357,-10.3521,0,0,0,0,0,0,0,-1,1616,407,1.91362,10.3521
399,617,3.25,-2.14835,0,0,0,0,0,0,0,-1,1623,407,3.25006,2.14836
406,617,3.02429,-3.19577,0,0,0,0,0,0,0,-1,1630,407,3.02431,3.19577
413,617,2.92786,-3.80649,0,0,0,0,0,0,0,-1,1637,407,2.92788,3.8065
420,617,3.42737,-4.47391,0,0,0,0,0,0,0,-1,1644,407,3.42737,4.47391
427,617,0,0,0,0,0,0,0,0,0,-1,1651,407,0,0
434,617,0,0,0,0,0,0,0,0,0,-1,1658,407,0,0
441,617,0,0,0,0,0,0,0,0,0,-1,1665,407,0,0
448,617,0,0,0,0,0,0,0,0,0,-1,1672,407,0,0
455,617,0,0,0,0,0,0,0,0,0,-1,1679,407,0,0
462,617,0,0,0,0,0,0,0,0,0,-1,1686,407,0,0
469,617,0,0,0,0,0,0,0,0,0,-1,1693,407,0,0
476,617,0,0,0,0,0,0,0,0,0,-1,1700,407,0,0
483,617,0,0,0,0,0,0,0,0,0,-1,1707,407,0,0
490,617,0,0,0,0,0,0,0,0,0,-1,1714,407,0,0
497,617,0,0,0,0,0,0,0,0,0,-1,1721,407,0,0
504,617,0,0,0,0,0,0,0,0,0,-1,1728,407,0,0
511,617,0,0,0,0,0,0,0,0,0,-1,1735,407,0,0
518,617,0,0,0,0,0,0,0,0,0,-1,1742,407,0,0
525,617,0,0,0,0,0,0,0,0,0,-1,1749,407,0,0
532,617,0,0,0,0,0,0,0,0,0,-1,1756,407,0,0
539,617,0,0,0,0,0,0,0,0,0,-1,1763,407,0,0
546,617,0,0,0,0,0,0,0,0,0,-1,1770,407,0,0
553,617,0,0,0,0,0,0,0,0,0,-1,1777,407,0,0
560,617,0,0,0,0,0,0,0,0,0,-1,1784,407,0,0
567,617,0,0,0,0,0,0,0,0,0,-1,1791,407,0,0
574,617,0,0,0,0,0,0,0,0,0,-1,1798,407,0,0
581,617,0,0,0,0,0,0,0,0,0,-1,1805,407,0,0
588,617,0,0,0,0,0,0,0,0,0,-1,1812,407,0,0
595,617,0,0,0,0,0,0,0,0,0,-1,1819,407,0,0
602,617,0,0,0,0,0,0,0,0,0,-1,1826,407,0,0
609,617,0,0,0,0,0,0,0,0,0,-1,1833,407,0,0
616,617,0,0,0,0,0,0,0,0,0,-1,1840,407,0,0
623,617,0,0,0,0,0,0,0,0,0,-1,1847,407,0,0
630,617,0,0,0,0,0,0,0,0,0,-1,1854,407,0,0
637,617,0,0,0,0,0,0,0,0,0,-1,1861,407,0,0
644,617,0,0,0,0,0,0,0,0,0,-1,1868,407,0,0
651,617,0,0,0,0,0,0,0,0,0,-1,1875,407,0,0
658,617,0,0,0,0,0,0,0,0,0,-1,1882,407,0,0
665,617,0,0,0,0,0,0,0,0,0,-1,1889,407,0,0
672,617,0,0,0,0,0,0,0,0,0,-1,1896,407,0,0
679,617,0,0,0,0,0,0,0,0,0,-1,1903,407,0,0
686,617,0,0,0,0,0,0,0,0,0,-1,1910,407,0,0
693,617,0,0,0,0,0,0,0,0,0,-1,1917,407,0,0
700,617,0,0,0,0,0,0,0,0,0,-1,1924,407,0,0
707,617,0,0,0,0,0,0,0,0,0,-1,1931,407,0,0
714,617,0,0,0,0,0,0,0,0,0,-1,1938,407,0,0
721,617,0,0,0,0,0,0,0,0,0,-1,1945,407,0,0
728,617,0,0,0,0,0,0,0,0,0,-1,1952,407,0,0
735,617,0,0,0,0,0,0,0,0,0,-1,1959,407,0,0
742,617,0,0,0,0,0,0,0,0,0,-1,1966,407,0,0
749,617,0,0,0,0,0,0,0,0,0,-1,1973,407,0,0
756,617,0,0,0,0,0,0,0,0,0,-1,1980,407,0,0
763,617,0,0,0,0,0,0,0,0,0,-1,1987,407,0,0
770,617,0,0,0,0,0,0,0,0,0,-1,1994,407,0,0
777,617,0,0,0,0,0,0,0,0,0,-1,2001,407,0,0
784,617,0,0,0,0,0,0,0,0,0,-1,2008,407,0,0
791,617,0,0,0,0,0,0,0,0,0,-1,2015,407,0,0
798,617,0,0,0,0,0,0,0,0,0,-1,2022,407,0,0
805,617,0,0,0,0,0,0,0,0,0,-1,2029,407,0,0
812,617,0,0,0,0,0,0,0,0,0,-1,2036,407,0,0
-700,610,0,0,0,0,0,0,0,0,0,-1,524,414,0,0
-693,610,0,0,0,0,0,0,0,0,0,-1,531,414,0,0
-686,610,0,0,0,0,0,0,0,0,0,-1,538,414,0,0
-679,610,0,0,0,0,0,0,0,0,0,-1,545,414,0,0
-672,610,0,0,0,0,0,0,0,0,0,-1,552,414,0,0
-665,610,0,0,0,0,0,0,0,0,0,-1,559,414,0,0
-658,610,0,0,0,0,0,0,0,0,0,-1,566,414,0,0
-651,610,0,0,0,0,0,0,0,0,0,-1,573,414,0,0
-644,610,0,0,0,0,0,0,0,0,0,-1,580,414,0,0
-637,610,0,0,0,0,0,0,0,0,0,-1,587,414,0,0
-630,610,0,0,0,0,0,0,0,0,0,-1,594,414,0,0
-623,610,0,0,0,0,0,0,0,0,0,-1,601,414,0,0
-616,610,0,0,0,0,0,0,0,0,0,-1,608,414,0,0
-609,610,0,0,0,0,0,0,0,0,0,-1,615,414,0,0
-602,610,0,0,0,0,0,0,0,0,0,-1,622,414,0,0
-595,610,0,0,0,0,0,0,0,0,0,-1,629,414,0,0
-588,610,0,0,0,0,0,0,0,0,0,-1,636,414,0,0
-581,610,0,0,0,0,0,0,0,0,0,-1,643,414,0,0
-574,610,0,0,0,0,0,0,0,0,0,-1,650,414,0,0
-567,610,0,0,0,0,0,0,0,0,0,-1,657,414,0,0
-560,610,0,0,0,0,0,0,0,0,0,-1,664,414,0,0
-553,610,0,0,0,0,0,0,0,0,0,-1,671,414,0,0
-546,610,0,0,0,0,0,0,0,0,0,-1,678,414,0,0
-539,610,0,0,0,0,0,0,0,0,0,-1,685,414,0,0
-532,610,0,0,0,0,0,0,0,0,0,-1,692,414,0,0
-525,610,0,0,0,0,0,0,0,0,0,-1,699,414,0,0
-518,610,0,0,0,0,0,0,0,0,0,-1,706,414,0,0
-511,610,0,0,0,0,0,0,0,0,0,-1,713,414,0,0
-504,610,0,0,0,0,0,0,0,0,0,-1,720,414,0,0
-497,610,0,0,0,0,0,0,0,0,0,-1,727,414,0,0
-490,610,0,0,0,0,0,0,0,0,0,-1,734,414,0,0
-483,610,0,0,0,0,0,0,0,0,0,-1,741,414,0,0
-476,610,0,0,0,0,0,0,0,0,0,-1,748,414,0,0
-469,610,0,0,0,0,0,0,0,0,0,-1,755,414,0,0
-462,610,0,0,0,0,0,0,0,0,0,-1,762,414,0,0
-455,610,0,0,0,0,0,0,0,0,0,-1,769,414,0,0
-448,610,0,0,0,0,0,0,0,0,0,-1,776,414,0,0
-441,610,0,0,0,0,0,0,0,0,0,-1,783,414,0,0
-434,610,0,0,0,0,0,0,0,0,0,-1,790,414,0,0
-427,610,0,0,0,0,0,0,0,0,0,-1,797,414,0,0
-420,610,0,0,0,0,0,0,0,0,0,-1,804,414,0,0
-413,610,0,0,0,0,0,0,0,0,0,-1,811,414,0,0
-406,610,0,0,0,0,0,0,0,0,0,-1,818,414,0,0
-399,610,0,0,0,0,0,0,0,0,0,-1,825,414,0,0
-392,610,0,0,0,0,0,0,0,0,0,-1,832,414,0,0
-385,610,0,0,0,0,0,0,0,0,0,-1,839,414,0,0
-378,610,0,0,0,0,0,0,0,0,0,-1,846,414,0,0
-371,610,0,0,0,0,0,0,0,0,0,-1,853,414,0,0
-364,610,0,0,0,0,0,0,0,0,0,-1,860,414,0,0
-357,610,0,0,0,0,0,0,0,0,0,-1,867,414,0,0
-350,610,0,0,0,0,0,0,0,0,0,-1,874,414,0,0
-343,610,0,0,0,0,0,0,0,0,0,-1,881,414,0,0
-336,610,0,0,0,0,0,0,0,0,0,-1,888,414,0,0
-329,610,0,0,0,0,0,0,0,0,0,-1,895,414,0,0
-322,610,0,0,0,0,0,0,0,0,0,-1,902,414,0,0
-315,610,4.10345,-18.3749,0,0,0,0,0,0,0,-1,909,414,4.10345,18.3749
-308,610,4.0119,-18.398,0,0,0,0,0,0,0,-1,916,414,4.0119,18.398
-301,610,5.73285,-14.3911,0,0,0,0,0,0,0,-1,923,414,5.73285,14.3911
-294,610,2.37964,-12.4347,0,0,0,0,0,0,0,-1,930,414,2.37964,12.4347
-287,610,2.08557,-11.9136,0,0,0,0,0,0,0,-1,937,414,2.08555,11.9136
-280,610,2.25854,-11.0924,0,0,0,0,0,0,0,-1,944,414,2.25856,11.0924
-273,610,4.5705,-19.8972,0,0,0,0,0,0,0,-1,951,414,4.57051,19.8972
-266,610,4.94086,-19.9552,0,0,0,0,0,0,0,-1,958,414,4.94088,19.9552
-259,610,2.89453,-20.1189,0,0,0,0,0,0,0,-1,965,414,2.89454,20.1189
-252,610,3.69653,-21.0994,0,0,0,0,0,0,0,-1,972,414,3.69655,21.0994
-245,610,3.88458,-21.3029,-0.00181751,0.0118757,-0.00565977,0.0139121,-0.00385399,-1.2254,0.0107913,0.0455467,979,414,3.88458,21.3029
-238,610,3.52429,-22.0977,-0.00280052,0.0149168,-0.0052503,0.0163558,-0.00423951,-1.30329,0.0125579,0.0473522,986,414,3.52429,22.0978
-231,610,3.64307,-21.6917,-0.00166864,0.0149957,-0.00426371,0.0160232,-0.00269618,-1.33431,0.011685,0.0410638,993,414,3.64305,21.6917
-224,610,3.59204,-22.3041,-0.000893297,0.0144317,-0.00374636,0.0152985,-0.0017601,-1.34342,0.0108335,0.0285136,1000,414,3.59207,22.3041
-217,610,3.61548,-22.7614,2.76619e-06,0.0136286,-0.00338779,0.0144245,-0.000793055,-1.34007,0.00989127,0.0180725,1007,414,3.61549,22.7614
-210,610,3.59155,-23.1808,0.000590119,0.0125671,-0.00292129,0.0132416,-8.44216e-05,-1.34387,0.00885602,0.0117079,1014,414,3.59152,23.1808
-203,610,3.56506,-23.52,0.000764185,0.0111421,-0.00240274,0.0116714,0.000234887,-1.35397,0.00770383,0.013622,1021,414,3.56507,23.52
-196,610,3.54382,-23.8262,0.000621666,0.0100109,-0.00199495,0.0104172,0.000215377,-1.36989,0.00687413,0.0137798,1028,414,3.54387,23.8262
-189,610,3.50183,-24.1699,0.000673999,0.00872402,-0.00181568,0.00911459,0.000283424,-1.35891,0.00598416,0.0111727,1035,414,3.50181,24.1699
-182,610,3.48596,-24.4772,0.000862515,0.00773078,-0.00176191,0.00815639,0.000436907,-1.33378,0.00529796,0.0121474,1042,414,3.48597,24.4772
-175,610,3.47742,-24.7548,0.000912588,0.00603814,-0.00165934,0.00652844,0.000422296,-1.2835,0.00421858,0.01311,1049,414,3.47747,24.7548
-168,610,3.44214,-25.0583,0.0008383,0.00470948,-0.0014582,0.00519728,0.000350495,-1.24797,0.00335413,0.0114712,1056,414,3.44217,25.0582
-161,610,3.43652,-25.4165,0.000765106,0.00344368,-0.00132073,0.00398535,0.000223432,-1.18159,0.00258564,0.0110568,1063,414,3.43655,25.4165
-154,610,3.42786,-25.6832,0.000778794,0.00251848,-0.00117105,0.0031074,0.000189873,-1.10483,0.0020113,0.0146855,1070,414,3.42784,25.6832
-147,610,3.4325,-25.9163,0.000699687,0.00161834,-0.00114325,0.00239109,-7.30589e-05,-0.976415,0.00161896,0.0147479,1077,414,3.43255,25.9163
-140,610,3.42261,-26.2053,0.000877147,0.000865826,-0.00100589,0.00187739,-0.000134418,-0.782585,0.00129872,0.0111813,1084,414,3.42258,26.2053
-133,610,3.42273,-26.4511,0.0010364,0.000229673,-0.000908679,0.00162722,-0.000361147,-0.576513,0.0012231,0.0134129,1091,414,3.42267,26.4511
-126,610,3.42883,-26.6902,0.00115084,-0.00029249,-0.00086668,0.00155697,-0.000698626,-0.438223,0.00133333,0.0124778,1098,414,3.42883,26.6901
-119,610,3.38733,-26.9438,0.00135089,-0.000674391,-0.000788884,0.00162191,-0.000945409,-0.330913,0.0014993,0.0107514,1105,414,3.38734,26.9439
-112,610,3.38123,-27.1743,0.00159314,-0.000935553,-0.000712697,0.00178017,-0.00112259,-0.256646,0.00169018,0.0181759,1112,414,3.38123,27.1743
-105,610,3.38989,-27.3933,0.00183619,-0.00109425,-0.00063336,0.00196722,-0.00122528,-0.204003,0.00185971,0.0191412,1119,414,3.38987,27.3933
-98,610,3.39575,-27.6151,0.00212204,-0.00135324,-0.000441353,0.00217722,-0.00140842,-0.124368,0.00208597,0.0129697,1126,414,3.39575,27.6152
-91,610,3.41675,-27.8259,0.00240545,-0.00142383,-0.0002673,0.00242402,-0.0014424,-0.0693559,0.00225613,0.0131171,1133,414,3.41679,27.8259
-84,610,3.45447,-28.0472,0.00261246,-0.00155927,-0.000143532,0.00261739,-0.00156421,-0.0343516,0.00243964,0.0140526,1140,414,3.45447,28.0472
-77,610,3.46558,-28.2689,0.00302602,-0.00159222,-0.000120362,0.00302915,-0.00159536,-0.0260388,0.0027124,0.0114368,1147,414,3.46553,28.2689
-70,610,3.50342,-28.4642,0.00338076,-0.00230889,4.50789e-05,0.00338112,-0.00230925,0.00792229,0.00330471,0.0136359,1154,414,3.50338,28.4642
-63,610,3.51611,-28.6429,0.00360768,-0.00125757,0.000194334,0.00361543,-0.00126532,0.0398586,0.00292477,0.0136614,1161,414,3.51607,28.643
-56,610,3.5249,-28.8056,0.00366297,-0.00119281,0.000402546,0.00369612,-0.00122596,0.082153,0.00295864,0.0119451,1168,414,3.52494,28.8056
-49,610,3.54919,-28.9505,0.00306359,-0.000824231,8.76019e-05,0.00306557,-0.000826203,0.0225171,0.00236766,0.0116388,1175,414,3.5492,28.9505
-42,610,3.56226,-29.1227,0.00113824,-0.00387766,-0.000628651,0.00121583,-0.00395525,-0.122801,0.00312205,0.0141076,1182,414,3.56224,29.1227
-35,610,3.58484,-29.2699,0.00105918,-0.00740547,-0.000456132,0.00108369,-0.00742998,-0.0536795,0.00535125,0.014849,1189,414,3.5849,29.2699
-28,610,3.61816,-29.38,0.00261926,-0.007222,0.00123,0.00277066,-0.0073734,0.122475,0.0060543,0.0127177,1196,414,3.61813,29.38
-21,610,3.66516,-29.4624,0.003936,-0.00914167,0.00223323,0.00430684,-0.00951251,0.164556,0.00816512,0.0108009,1203,414,3.66514,29.4624
-14,610,3.69849,-29.5563,0.00641701,-0.0098658,0.00327995,0.00705288,-0.0105017,0.19149,0.0102001,0.0130135,1210,414,3.69848,29.5563
-7,610,3.73755,-29.644,0.00870569,-0.00999959,0.00392865,0.00949732,-0.0107912,0.198839,0.0117215,0.015593,1217,414,3.73755,29.644
0,610,3.76331,-29.7498,0.010813,-0.00989734,0.0046158,0.0117952,-0.0108795,0.209657,0.0130948,0.011931,1224,414,3.76335,29.7497
7,610,3.80444,-29.8505,0.0124308,-0.00954825,0.00538266,0.0136782,-0.0107957,0.227727,0.0141626,0.0120892,1231,414,3.80441,29.8505
14,610,3.87732,-29.8867,0.0136718,-0.00874356,0.00602022,0.0151863,-0.0102581,0.246463,0.0147819,0.0148689,1238,414,3.87738,29.8867
21,610,3.92615,-29.9189,0.0144653,-0.00761433,0.00633851,0.0161555,-0.00930456,0.260598,0.0148757,0.0138284,1245,414,3.92614,29.9189
28,610,3.91052,-30.0049,0.0147282,-0.00596832,0.00613029,0.0164077,-0.00764782,0.267406,0.0141921,0.0143803,1252,414,3.91051,30.0049
35,610,3.98206,-30.0503,0.0145593,-0.00431961,0.00567666,0.0161347,-0.00589505,0.270716,0.0131689,0.0173691,1259,414,3.98201,30.0503
42,610,4.02966,-30.028,0.0138975,-0.00320745,0.00475469,0.0151304,-0.00444027,0.253697,0.0118477,0.0155935,1266,414,4.02972,30.028
49,610,4.06055,-30.0616,0.0126427,-0.00150599,0.0032129,0.0133381,-0.0022014,0.213155,0.00970941,0.0155694,1273,414,4.06053,30.0616
56,610,4.12402,-30.0466,0.0112247,-7.60195e-05,0.00137235,0.011389,-0.000240288,0.119132,0.00767403,0.0149041,1280,414,4.12399,30.0466
63,610,4.09155,-30.0057,0.0101348,0.00150654,-0.000307227,0.0101457,0.00149562,-0.0355472,0.00632449,0.0198637,1287,414,4.09151,30.0057
70,610,4.10657,-30.0089,0.00822619,0.0022414,-0.00200225,0.00883427,0.00163332,-0.294847,0.00542762,0.0287181,1294,414,4.10653,30.0089
77,610,4.16272,-29.9906,0.00579396,0.000770176,-0.00411169,0.00810032,-0.00153619,-0.511195,0.00597843,0.0349249,1301,414,4.16267,29.9906
84,610,4.31348,-29.9888,0.0038762,-0.000614047,-0.00521391,0.00730782,-0.00404567,-0.582095,0.00664452,0.0319256,1308,414,4.31349,29.9888
91,610,4.39221,-29.937,0.0014064,-0.00341349,-0.00608437,0.00554072,-0.00754781,-0.596834,0.00758623,0.0259222,1315,414,4.39223,29.937
98,610,4.48926,-29.924,-0.000322797,-0.00659257,-0.00623574,0.00352171,-0.0104371,-0.552484,0.00838229,0.0235275,1322,414,4.4892,29.9241
105,610,4.46008,-29.8449,-0.00120498,-0.0100987,-0.00612717,0.00191895,-0.0132226,-0.471495,0.00951942,0.0183438,1329,414,4.46004,29.8449
112,610,4.44971,-29.7583,-0.00145311,-0.0130657,-0.00604913,0.0011254,-0.0156442,-0.402939,0.0108241,0.012464,1336,414,4.44966,29.7583
119,610,4.44202,-29.6651,-0.00187075,-0.016347,-0.00554589,9.64943e-06,-0.0182274,-0.326896,0.0121548,0.0176655,1343,414,4.44198,29.6651
126,610,4.49109,-29.5864,-0.00216579,-0.0191136,-0.00477003,-0.000915489,-0.0203639,-0.25635,0.0132813,0.0256155,1350,414,4.49104,29.5864
133,610,4.53992,-29.4688,-0.00241108,-0.0214723,-0.00392055,-0.0016362,-0.0222472,-0.195132,0.0143173,0.0215556,1357,414,4.53997,29.4688
140,610,4.60596,-29.3493,-0.00216086,-0.022236,-0.00327021,-0.00164158,-0.0227553,-0.157476,0.0146537,0.0174537,1364,414,4.60598,29.3493
147,610,4.60046,-29.1685,-0.00152656,-0.0221726,-0.00278258,-0.00115811,-0.0225411,-0.131647,0.0146566,0.0172067,1371,414,4.60041,29.1686
154,610,4.5979,-29.0349,-0.00052032,-0.0216857,-0.00243597,-0.000243575,-0.0219624,-0.113122,0.0145611,0.0217619,1378,414,4.59792,29.035
161,610,4.67126,-28.9151,0.000609785,-0.0202912,-0.00224088,0.000847339,-0.0205288,-0.105615,0.0139768,0.0257425,1385,414,4.67127,28.9151
168,610,4.71863,-28.7742,0.00146918,-0.0178586,-0.00247527,0.00178115,-0.0181705,-0.125373,0.0127489,0.0254639,1392,414,4.71866,28.7742
175,610,4.7489,-28.6288,0.00227087,-0.0153084,-0.00278511,0.00270157,-0.0157391,-0.153427,0.0114995,0.0207568,1399,414,4.74886,28.6288
182,610,4.78857,-28.4288,0.00299918,-0.0123186,-0.00281972,0.00350175,-0.0128211,-0.176382,0.00992282,0.0153048,1406,414,4.78859,28.4288
189,610,4.79028,-28.2075,0.00340691,-0.0091112,-0.00280132,0.0040052,-0.00970949,-0.210413,0.00814328,0.014261,1413,414,4.79033,28.2075
196,610,4.78796,-28.0297,0.00393045,-0.00595439,-0.00240426,0.00448421,-0.00650815,-0.226376,0.0063822,0.0137953,1420,414,4.788,28.0297
203,610,4.80847,-27.841,0.00359476,-0.0034305,-0.00192393,0.00408714,-0.00392288,-0.250545,0.00462491,0.0141917,1427,414,4.80851,27.841
210,610,4.82983,-27.6222,0.00255899,-0.000788968,-0.00127536,0.00298948,-0.00121945,-0.325529,0.00250063,0.0107182,1434,414,4.82983,27.6222
217,610,4.8291,-27.3673,0.00149481,0.00046834,-0.000494699,0.00169441,0.000268737,-0.383506,0.00105154,0.0156967,1441,414,4.82905,27.3673
224,610,4.83301,-27.1472,0.00110993,0.00121008,-0.000145383,0.00131377,0.00100624,-0.951252,0.000793457,0.0192076,1448,414,4.83299,27.1472
231,610,4.85718,-26.9301,0.000846891,0.00190784,0.000229963,0.00195554,0.00079919,1.36627,0.00113529,0.0154618,1455,414,4.85721,26.9301
238,610,4.86121,-26.6512,0.000796483,0.00257057,0.000586126,0.00274673,0.000620329,1.27884,0.00166339,0.0108757,1462,414,4.86121,26.6512
245,610,4.85925,-26.3704,0.000784905,0.00313832,0.000833108,0.00340339,0.00051984,1.26276,0.00211703,0.0118464,1469,414,4.85921,26.3704
252,610,4.85974,-26.0909,0.000802208,0.00364242,0.00110951,0.00402446,0.000420171,1.23918,0.00255446,0.0136737,1476,414,4.85973,26.0909
259,610,4.849,-25.813,0.000801257,0.00418747,0.00140447,0.00469416,0.000294561,1.22455,0.00303602,0.0122824,1483,414,4.84899,25.813
266,610,4.86597,-25.5363,0.000838889,0.00475004,0.00167175,0.00536721,0.000221719,1.21714,0.00350657,0.0122062,1490,414,4.86595,25.5363
273,610,4.854,-25.2338,0.000961746,0.00531804,0.00197832,0.00608236,0.00019743,1.20212,0.00399072,0.0100354,1497,414,4.85404,25.2338
280,610,4.85144,-24.9168,0.00151746,0.00579586,0.00260452,0.00702708,0.000286241,1.12921,0.00459228,0.00957371,1504,414,4.85144,24.9169
287,610,4.8385,-24.5898,0.00239558,0.00635036,0.00351085,0.00840238,0.000343555,1.04187,0.00549065,0.0119801,1511,414,4.83854,24.5897
294,610,4.8219,-24.2868,0.00316334,0.00687256,0.00430753,0.00970777,0.000328127,0.988679,0.00636529,0.0110751,1518,414,4.82195,24.2868
301,610,4.83264,-24.0001,0.00415169,0.00739209,0.00528691,0.0113015,0.000242295,0.934082,0.00745487,0.0105996,1525,414,4.8327,24.0001
308,610,4.81348,-23.6653,0.00538125,0.00786998,0.00644712,0.0131917,5.95064e-05,0.880731,0.00877472,0.0115316,1532,414,4.8135,23.6653
315,610,4.77222,-23.3377,0.00680894,0.00824316,0.00774514,0.0153043,-0.000252218,0.831561,0.010288,0.0123247,1539,414,4.77219,23.3377
322,610,4.75623,-22.9894,0.00827525,0.00861484,0.00914232,0.0175889,-0.000698853,0.794683,0.0119657,0.0112035,1546,414,4.75625,22.9895
329,610,4.73169,-22.6264,0.00959052,0.00880235,0.0104485,0.0196524,-0.00125954,0.766549,0.013541,0.0106754,1553,414,4.73174,22.6264
336,610,4.7356,-22.2524,0.0107079,0.00887615,0.0115806,0.0214088,-0.00182471,0.745936,0.014918,0.0107394,1560,414,4.73562,22.2524
343,610,4.72925,-21.8592,0.0117147,0.00903081,0.012658,0.0231017,-0.00235617,0.732588,0.0162436,0.0203626,1567,414,4.72929,21.8592
350,610,4.7489,-21.4683,0,0,0,0,0,0,0,-1,1574,414,4.74885,21.4683
357,610,4.81482,-20.8253,0,0,0,0,0,0,0,-1,1581,414,4.81481,20.8253
364,610,4.34302,-15.9496,0,0,0,0,0,0,0,-1,1588,414,4.34299,15.9496
371,610,3.54138,-13.3788,0,0,0,0,0,0,0,-1,1595,414,3.54137,13.3788
378,610,3.5752,-12.1958,0,0,0,0,0,0,0,-1,1602,414,3.57517,12.1958
385,610,2.57104,-10.3878,0,0,0,0,0,0,0,-1,1609,414,2.57109,10.3878
392,610,2.35229,-10.3207,0,0,0,0,0,0,0,-1,1616,414,2.35227,10.3207
399,610,3.03833,-2.82547,0,0,0,0,0,0,0,-1,1623,414,3.03827,2.82546
406,610,2.91687,-2.9166,0,0,0,0,0,0,0,-1,1630,414,2.91688,2.91659
413,610,3.01929,-3.20306,0,0,0,0,0,0,0,-1,1637,414,3.01929,3.20306
420,610,4.78149,-3.64041,0,0,0,0,0,0,0,-1,1644,414,4.78152,3.64042
427,610,5.20764,-4.67545,0,0,0,0,0,0,0,-1,1651,414,5.20759,4.67545
434,610,5.39233,-5.45441,0,0,0,0,0,0,0,-1,1658,414,5.39228,5.4544
441,610,0,0,0,0,0,0,0,0,0,-1,1665,414,0,0
448,610,0,0,0,0,0,0,0,0,0,-1,1672,414,0,0
455,610,0,0,0,0,0,0,0,0,0,-1,1679,414,0,0
462,610,0,0,0,0,0,0,0,0,0,-1,1686,414,0,0
469,610,0,0,0,0,0,0,0,0,0,-1,1693,414,0,0
476,610,0,0,0,0,0,0,0,0,0,-1,1700,414,0,0
483,610,0,0,0,0,0,0,0,0,0,-1,1707,414,0,0
490,610,0,0,0,0,0,0,0,0,0,-1,1714,414,0,0
497,610,0,0,0,0,0,0,0,0,0,-1,1721,414,0,0
504,610,0,0,0,0,0,0,0,0,0,-1,1728,414,0,0
511,610,0,0,0,0,0,0,0,0,0,-1,1735,414,0,0
518,610,0,0,0,0,0,0,0,0,0,-1,1742,414,0,0
525,610,0,0,0,0,0,0,0,0,0,-1,1749,414,0,0
532,610,0,0,0,0,0,0,0,0,0,-1,1756,414,0,0
539,610,0,0,0,0,0,0,0,0,0,-1,1763,414,0,0
546,610,0,0,0,0,0,0,0,0,0,-1,1770,414,0,0
553,610,0,0,0,0,0,0,0,0,0,-1,1777,414,0,0
560,610,0,0,0,0,0,0,0,0,0,-1,1784,414,0,0
567,610,0,0,0,0,0,0,0,0,0,-1,1791,414,0,0
574,610,0,0,0,0,0,0,0,0,0,-1,1798,414,0,0
581,610,0,0,0,0,0,0,0,0,0,-1,1805,414,0,0
588,610,0,0,0,0,0,0,0,0,0,-1,1812,414,0,0
595,610,0,0,0,0,0,0,0,0,0,-1,1819,414,0,0
602,610,0,0,0,0,0,0,0,0,0,-1,1826,414,0,0
609,610,0,0,0,0,0,0,0,0,0,-1,1833,414,0,0
616,610,0,0,0,0,0,0,0,0,0,-1,1840,414,0,0
623,610,0,0,0,0,0,0,0,0,0,-1,1847,414,0,0
630,610,0,0,0,0,0,0,0,0,0,-1,1854,414,0,0
637,610,0,0,0,0,0,0,0,0,0,-1,1861,414,0,0
644,610,0,0,0,0,0,0,0,0,0,-1,1868,414,0,0
651,610,0,0,0,0,0,0,0,0,0,-1,1875,414,0,0
658,610,0,0,0,0,0,0,0,0,0,-1,1882,414,0,0
665,610,0,0,0,0,0,0,0,0,0,-1,1889,414,0,0
672,610,0,0,0,0,0,0,0,0,0,-1,1896,414,0,0
679,610,0,0,0,0,0,0,0,0,0,-1,1903,414,0,0
686,610,0,0,0,0,0,0,0,0,0,-1,1910,414,0,0
693,610,0,0,0,0,0,0,0,0,0,-1,1917,414,0,0
700,610,0,0,0,0,0,0,0,0,0,-1,1924,414,0,0
707,610,0,0,0,0,0,0,0,0,0,-1,1931,414,0,0
714,610,0,0,0,0,0,0,0,0,0,-1,1938,414,0,0
721,610,0,0,0,0,0,0,0,0,0,-1,1945,414,0,0
728,610,0,0,0,0,0,0,0,0,0,-1,1952,414,0,0
735,610,0,0,0,0,0,0,0,0,0,-1,1959,414,0,0
742,610,0,0,0,0,0,0,0,0,0,-1,1966,414,0,0
749,610,0,0,0,0,0,0,0,0,0,-1,1973,414,0,0
756,610,0,0,0,0,0,0,0,0,0,-1,1980,414,0,0
763,610,0,0,0,0,0,0,0,0,0,-1,1987,414,0,0
770,610,0,0,0,0,0,0,0,0,0,-1,1994,414,0,0
777,610,0,0,0,0,0,0,0,0,0,-1,2001,414,0,0
784,610,0,0,0,0,0,0,0,0,0,-1,2008,414,0,0
791,610,0,0,0,0,0,0,0,0,0,-1,2015,414,0,0
798,610,0,0,0,0,0,0,0,0,0,-1,2022,414,0,0
805,610,0,0,0,0,0,0,0,0,0,-1,2029,414,0,0
812,610,0,0,0,0,0,0,0,0,0,-1,2036,414,0,0
-700,603,0,0,0,0,0,0,0,0,0,-1,524,421,0,0
-693,603,0,0,0,0,0,0,0,0,0,-1,531,421,0,0
-686,603,0,0,0,0,0,0,0,0,0,-1,538,421,0,0
-679,603,0,0,0,0,0,0,0,0,0,-1,545,421,0,0
-672,603,0,0,0,0,0,0,0,0,0,-1,552,421,0,0
-665,603,0,0,0,0,0,0,0,0,0,-1,559,421,0,0
-658,603,0,0,0,0,0,0,0,0,0,-1,566,421,0,0
-651,603,0,0,0,0,0,0,0,0,0,-1,573,421,0,0
-644,603,0,0,0,0,0,0,0,0,0,-1,580,421,0,0
-637,603,0,0,0,0,0,0,0,0,0,-1,587,421,0,0
-630,603,0,0,0,0,0,0,0,0,0,-1,594,421,0,0
-623,603,0,0,0,0,0,0,0,0,0,-1,601,421,0,0
-616,603,0,0,0,0,0,0,0,0,0,-1,608,421,0,0
-609,603,0,0,0,0,0,0,0,0,0,-1,615,421,0,0
-602,603,0,0,0,0,0,0,0,0,0,-1,622,421,0,0
-595,603,0,0,0,0,0,0,0,0,0,-1,629,421,0,0
-588,603,0,0,0,0,0,0,0,0,0,-1,636,421,0,0
-581,603,0,0,0,0,0,0,0,0,0,-1,643,421,0,0
-574,603,0,0,0,0,0,0,0,0,0,-1,650,421,0,0
-567,603,0,0,0,0,0,0,0,0,0,-1,657,421,0,0
-560,603,0,0,0,0,0,0,0,0,0,-1,664,421,0,0
-553,603,0,0,0,0,0,0,0,0,0,-1,671,421,0,0
-546,603,0,0,0,0,0,0,0,0,0,-1,678,421,0,0
-539,603,0,0,0,0,0,0,0,0,0,-1,685,421,0,0
-532,603,0,0,0,0,0,0,0,0,0,-1,692,421,0,0
-525,603,0,0,0,0,0,0,0,0,0,-1,699,421,0,0
-518,603,0,0,0,0,0,0,0,0,0,-1,706,421,0,0
-511,603,0,0,0,0,0,0,0,0,0,-1,713,421,0,0
-504,603,0,0,0,0,0,0,0,0,0,-1,720,421,0,0
-497,603,0,0,0,0,0,0,0,0,0,-1,727,421,0,0
-490,603,0,0,0,0,0,0,0,0,0,-1,734,421,0,0
-483,603,0,0,0,0,0,0,0,0,0,-1,741,421,0,0
-476,603,0,0,0,0,0,0,0,0,0,-1,748,421,0,0
-469,603,0,0,0,0,0,0,0,0,0,-1,755,421,0,0
-462,603,0,0,0,0,0,0,0,0,0,-1,762,421,0,0
-455,603,0,0,0,0,0,0,0,0,0,-1,769,421,0,0
-448,603,0,0,0,0,0,0,0,0,0,-1,776,421,0,0
-441,603,0,0,0,0,0,0,0,0,0,-1,783,421,0,0
-434,603,0,0,0,0,0,0,0,0,0,-1,790,421,0,0
-427,603,0,0,0,0,0,0,0,0,0,-1,797,421,0,0
-420,603,0,0,0,0,0,0,0,0,0,-1,804,421,0,0
-413,603,0,0,0,0,0,0,0,0,0,-1,811,421,0,0
-406,603,0,0,0,0,0,0,0,0,0,-1,818,421,0,0
-399,603,0,0,0,0,0,0,0,0,0,-1,825,421,0,0
-392,603,0,0,0,0,0,0,0,0,0,-1,832,421,0,0
-385,603,0,0,0,0,0,0,0,0,0,-1,839,421,0,0
-378,603,0,0,0,0,0,0,0,0,0,-1,846,421,0,0
-371,603,0,0,0,0,0,0,0,0,0,-1,853,421,0,0
-364,603,0,0,0,0,0,0,0,0,0,-1,860,421,0,0
-357,603,0,0,0,0,0,0,0,0,0,-1,867,421,0,0
-350,603,0,0,0,0,0,0,0,0,0,-1,874,421,0,0
-343,603,0,0,0,0,0,0,0,0,0,-1,881,421,0,0
-336,603,0,0,0,0,0,0,0,0,0,-1,888,421,0,0
-329,603,4.09686,-17.9702,0,0,0,0,0,0,0,-1,895,421,4.09687,17.9702
-322,603,3.75189,-17.8196,0,0,0,0,0,0,0,-1,902,421,3.75191,17.8196
-315,603,3.48389,-17.7861,0,0,0,0,0,0,0,-1,909,421,3.48386,17.7861
-308,603,3.47455,-18.197,0,0,0,0,0,0,0,-1,916,421,3.47453,18.197
-301,603,3.13489,-18.5771,0,0,0,0,0,0,0,-1,923,421,3.13487,18.5771
-294,603,4.06561,-21.0285,0,0,0,0,0,0,0,-1,930,421,4.06558,21.0285
-287,603,5.0614,-21.4882,0,0,0,0,0,0,0,-1,937,421,5.06138,21.4881
-280,603,4.0448,-18.8199,0,0,0,0,0,0,0,-1,944,421,4.04479,18.8199
-273,603,3.66473,-19.5326,0,0,0,0,0,0,0,-1,951,421,3.66475,19.5326
-266,603,2.6698,-20.149,0,0,0,0,0,0,0,-1,958,421,2.66979,20.1489
-259,603,3.08899,-20.1893,0,0,0,0,0,0,0,-1,965,421,3.089,20.1893
-252,603,3.39777,-20.998,-0.00172858,0.00674357,-0.00609174,0.00992731,-0.00491233,-1.08921,0.00872923,0.0437293,972,421,3.39778,20.998
-245,603,3.45337,-21.3121,-0.00202245,0.00928013,-0.00540045,0.0114456,-0.00418793,-1.18944,0.00934462,0.0329319,979,421,3.45334,21.3121
-238,603,3.39392,-21.6714,-0.00286501,0.0117194,-0.00511309,0.0133333,-0.00447898,-1.26504,0.0106991,0.022646,986,421,3.39392,21.6714
-231,603,3.32013,-22.0866,-0.0020747,0.0115801,-0.00431133,0.0128274,-0.00332201,-1.28918,0.00984753,0.0143901,993,421,3.32011,22.0866
-224,603,3.29175,-22.4757,-0.00146727,0.0110467,-0.00375797,0.0120885,-0.00250907,-1.30036,0.00901251,0.0140282,1000,421,3.29174,22.4757
-217,603,3.28119,-22.8268,-0.000686213,0.0102827,-0.00333755,0.0112184,-0.00162192,-1.29746,0.00807404,0.0126788,1007,421,3.28121,22.8268
-210,603,3.27222,-23.1942,-0.000183277,0.00935009,-0.00280948,0.0101164,-0.000949626,-1.3045,0.00708209,0.0105501,1014,421,3.27222,23.1942
-203,603,3.26501,-23.5621,3.33263e-05,0.00811792,-0.00231122,0.00873201,-0.00058076,-1.3111,0.00602426,0.0164632,1021,421,3.26506,23.5621
-196,603,3.27625,-23.9014,7.7641e-05,0.00709608,-0.00190508,0.00757985,-0.000406125,-1.32212,0.0051939,0.0187672,1028,421,3.27627,23.9014
-189,603,3.24121,-24.1761,0.00029091,0.00595195,-0.00165329,0.00639941,-0.000156557,-1.30648,0.00431941,0.0158164,1035,421,3.24124,24.1762
-182,603,3.19849,-24.4776,0.000558186,0.00501872,-0.00147417,0.00546189,0.000115017,-1.27877,0.00360353,0.0115898,1042,421,3.19852,24.4776
-175,603,3.19275,-24.7737,0.00070542,0.00348216,-0.00128578,0.00398609,0.000201487,-1.19727,0.00259284,0.0119701,1049,421,3.19272,24.7737
-168,603,3.16553,-25.0603,0.00078629,0.00224398,-0.00102116,0.00276972,0.000260551,-1.09534,0.00176605,0.0142679,1056,421,3.16553,25.0603
-161,603,3.13977,-25.3902,0.000878941,0.00105129,-0.000816264,0.00178592,0.000144316,-0.83799,0.00114554,0.0133232,1063,421,3.13977,25.3902
-154,603,3.14832,-25.6782,0.00102837,0.000103331,-0.000641904,0.00135703,-0.000225329,-0.473208,0.000988394,0.0129383,1070,421,3.14828,25.6782
-147,603,3.17468,-25.9184,0.00115992,-0.00078049,-0.000538605,0.0012994,-0.000919966,-0.253393,0.00128758,0.0132236,1077,421,3.17468,25.9184
-140,603,3.18335,-26.1781,0.00140534,-0.00158711,-0.000423741,0.00146419,-0.00164596,-0.13799,0.00179667,0.0108961,1084,421,3.18335,26.1781
-133,603,3.16614,-26.4399,0.00164319,-0.00234507,-0.000321501,0.00166894,-0.00237083,-0.079924,0.00234406,0.0124554,1091,421,3.16619,26.4399
-126,603,3.17188,-26.6776,0.0018707,-0.00298866,-0.000292327,0.00188822,-0.00300618,-0.0598697,0.00285025,0.0111215,1098,421,3.17187,26.6776
-119,603,3.18738,-26.9214,0.00216855,-0.0034936,-0.000278147,0.00218218,-0.00350723,-0.0489668,0.00331434,0.0112568,1105,421,3.18737,26.9214
-112,603,3.18726,-27.1626,0.00249358,-0.00380278,-0.00028165,0.00250615,-0.00381535,-0.0446134,0.00367572,0.0163614,1112,421,3.18721,27.1626
-105,603,3.18127,-27.4252,0.0028464,-0.00397599,-0.000296437,0.00285925,-0.00398884,-0.0433418,0.00397164,0.0166247,1119,421,3.18132,27.4252
-98,603,3.18677,-27.6302,0.00321676,-0.00419893,-0.000152113,0.00321988,-0.00420205,-0.0205008,0.00429754,0.0128772,1126,421,3.18673,27.6303
-91,603,3.21509,-27.833,0.00349833,-0.00408763,-6.19959e-05,0.00349884,-0.00408814,-0.00817173,0.00438475,0.00867156,1133,421,3.21507,27.833
-84,603,3.25354,-28.0523,0.00367259,-0.00404769,-8.59549e-05,0.00367355,-0.00404865,-0.0111318,0.00446017,0.00960278,1140,421,3.25357,28.0523
-77,603,3.28455,-28.3114,0.00426609,-0.0038764,-0.000207668,0.00427138,-0.00388169,-0.0254822,0.00470897,0.0163452,1147,421,3.28459,28.3114
-70,603,3.31323,-28.5727,0,0,0,0,0,0,0,-1,1154,421,3.31323,28.5726
-63,603,3.29248,-28.6048,0,0,0,0,0,0,0,-1,1161,421,3.2925,28.6048
-56,603,3.3175,-28.7862,0,0,0,0,0,0,0,-1,1168,421,3.31745,28.7862
-49,603,3.40625,-28.927,0,0,0,0,0,0,0,-1,1175,421,3.40624,28.927
-42,603,3.41101,-29.0663,0,0,0,0,0,0,0,-1,1182,421,3.41099,29.0663
-35,603,3.41064,-29.1674,-8.53552e-05,-0.0110107,-0.00166504,0.000162765,-0.0112589,-0.147929,0.00756075,0.0410401,1189,421,3.4107,29.1674
-28,603,3.43726,-29.2755,0.00166727,-0.010533,0.000455407,0.00168424,-0.01055,0.0372585,0.00765672,0.0258215,1196,421,3.4372,29.2755
-21,603,3.50562,-29.4065,0.00350655,-0.0129574,0.00182398,0.0037062,-0.0131571,0.109024,0.010233,0.0227983,1203,421,3.50562,29.4065
-14,603,3.58984,-29.4919,0.00721333,-0.0136401,0.0031122,0.00766789,-0.0140947,0.145032,0.012746,0.0228244,1210,421,3.5899,29.4919
-7,603,3.62622,-29.5796,0.0105436,-0.0134479,0.00385535,0.0111479,-0.0140522,0.155483,0.0145815,0.026006,1217,421,3.62617,29.5796
0,603,3.66663,-29.6912,0.0135568,-0.0129251,0.00475614,0.014385,-0.0137534,0.172423,0.0162471,0.0301358,1224,421,3.66669,29.6912
7,603,3.79285,-29.635,0.0160587,-0.0121953,0.00580085,0.0172033,-0.0133399,0.194814,0.0176811,0.0366771,1231,421,3.79286,29.635
14,603,3.92993,-29.5297,0.0181082,-0.0108737,0.00668452,0.0195756,-0.0123411,0.216101,0.0185843,0.0337466,1238,421,3.92991,29.5297
21,603,3.9137,-29.5976,0.0195794,-0.00913206,0.00718573,0.0212774,-0.01083,0.232043,0.0188615,0.0258658,1245,421,3.91375,29.5976
28,603,3.96265,-29.6793,0.0202772,-0.00675674,0.00706502,0.0220122,-0.00849175,0.240812,0.018179,0.0317012,1252,421,3.96262,29.6793
35,603,3.97803,-29.6498,0.020315,-0.00437402,0.00657931,0.0219589,-0.00601787,0.244839,0.017004,0.0409402,1259,421,3.97799,29.6498
42,603,4.02795,-29.8531,0.0196336,-0.00267847,0.00550885,0.0209196,-0.00396448,0.229338,0.0154385,0.0357327,1266,421,4.02797,29.8531
49,603,4.11157,-29.9813,0.0180614,-0.00035907,0.00363461,0.0187526,-0.00105029,0.187933,0.0128661,0.0183243,1273,421,4.11161,29.9813
56,603,4.01807,-29.8712,0.0162118,0.00153474,0.00137189,0.0163389,0.00140761,0.0924054,0.010455,0.0355169,1280,421,4.01806,29.8712
63,603,3.8562,-29.2488,0,0,0,0,0,0,0,-1,1287,421,3.85623,29.2488
70,603,2.8573,-28.8885,0,0,0,0,0,0,0,-1,1294,421,2.85729,28.8885
77,603,4.11572,-29.886,0,0,0,0,0,0,0,-1,1301,421,4.11573,29.8859
84,603,4.40527,-29.9171,0,0,0,0,0,0,0,-1,1308,421,4.40531,29.9171
91,603,4.323,-29.7568,0.00258892,-0.00386557,-0.00763542,0.00765111,-0.00892776,-0.585451,0.00958127,0.0496048,1315,421,4.32299,29.7568
98,603,4.47559,-29.9054,3.44829e-05,-0.0085835,-0.00767858,0.00453049,-0.0130795,-0.529709,0.0105589,0.0476255,1322,421,4.47555,29.9054
105,603,4.74231,-29.7285,-0.00119288,-0.0135784,-0.00753278,0.00236594,-0.0171372,-0.44136,0.0122896,0.0414183,1329,421,4.74233,29.7285
112,603,4.66626,-29.5757,-0.00148288,-0.017475,-0.007526,0.00150184,-0.0204598,-0.377561,0.014167,0.0347083,1336,421,4.66622,29.5757
119,603,4.68457,-29.4647,-0.00202616,-0.0219775,-0.00692686,0.00014294,-0.0241466,-0.30347,0.0161456,0.0365773,1343,421,4.68453,29.4647
126,603,4.72925,-29.2438,-0.00242771,-0.0258194,-0.00593683,-0.0010072,-0.0272399,-0.234855,0.0178337,0.0433041,1350,421,4.72921,29.2439
133,603,4.74072,-29.1081,-0.00276641,-0.0291454,-0.00488531,-0.00189073,-0.0300211,-0.177363,0.0194145,0.0378485,1357,421,4.74076,29.1081
140,603,4.8374,-29.0589,-0.0023895,-0.0303816,-0.0040725,-0.00180904,-0.0309621,-0.141578,0.0200656,0.0278171,1364,421,4.83746,29.0589
147,603,4.75891,-29.0258,-0.00146067,-0.0304515,-0.00351655,-0.00104022,-0.030872,-0.119,0.0202435,0.0223962,1371,421,4.75887,29.0259
154,603,4.72253,-28.9743,-0.000102817,-0.0298895,-0.00320629,0.000238405,-0.0302308,-0.106023,0.0202338,0.0292394,1378,421,4.72251,28.9743
161,603,4.78967,-28.8651,0.00135094,-0.0281727,-0.00314791,0.00168285,-0.0285046,-0.10505,0.0195882,0.0297808,1385,421,4.78967,28.8651
168,603,4.89771,-28.7018,0.00244834,-0.0251905,-0.00357877,0.00290421,-0.0256464,-0.1267,0.0181433,0.030719,1392,421,4.89769,28.7018
175,603,5.10303,-28.547,0.00341292,-0.0220705,-0.00403786,0.00403742,-0.022695,-0.153444,0.0166399,0.0340406,1399,421,5.10298,28.547
182,603,5.18652,-28.367,0.00432972,-0.0184744,-0.00415428,0.00506294,-0.0192077,-0.174698,0.0147846,0.0408546,1406,421,5.18657,28.367
189,603,5.10486,-28.1481,0.00478198,-0.0143805,-0.00424058,0.00567846,-0.0152769,-0.208339,0.0125145,0.0365222,1413,421,5.10482,28.1481
196,603,5.02441,-27.9299,0.00561158,-0.00999678,-0.00378553,0.00648124,-0.0108664,-0.225814,0.0101218,0.0279779,1420,421,5.02445,27.9299
203,603,5.01245,-27.7985,0.0054088,-0.0059072,-0.00335741,0.00632995,-0.00682835,-0.267773,0.00759876,0.0167253,1427,421,5.01245,27.7985
210,603,5.04102,-27.6424,0.00404208,-0.00158709,-0.0024663,0.00496975,-0.00251477,-0.359771,0.00439799,0.0127854,1434,421,5.04105,27.6424
217,603,5.05933,-27.3717,0.00237422,-0.000376452,-0.0010305,0.00271745,-0.000719685,-0.321517,0.00209319,0.0132779,1441,421,5.05933,27.3717
224,603,5.08069,-27.1256,0.00187451,0.000526529,-0.000600806,0.00210342,0.000297618,-0.364026,0.00131435,0.0162692,1448,421,5.08073,27.1256
231,603,5.09546,-26.8964,0.00147172,0.00133532,-0.000178771,0.00159486,0.00121218,-0.603172,0.000961411,0.0141691,1455,421,5.09543,26.8964
238,603,5.1073,-26.6403,0.00136964,0.00200474,0.000171601,0.00204814,0.00132624,1.32308,0.00119953,0.010655,1462,421,5.10727,26.6403
245,603,5.1084,-26.3802,0.00133978,0.00249378,0.000393771,0.00261534,0.00121822,1.27137,0.00151114,0.0111351,1469,421,5.10843,26.3802
252,603,5.12549,-26.1074,0.00131503,0.00281401,0.000633876,0.00304611,0.00108292,1.21979,0.00178298,0.0102982,1476,421,5.12547,26.1074
259,603,5.13013,-25.824,0.00124667,0.00309012,0.000841647,0.00341658,0.000920215,1.20079,0.00204133,0.0106776,1483,421,5.13018,25.824
266,603,5.13843,-25.5441,0.00122933,0.00336848,0.00102522,0.00378048,0.000817328,1.18868,0.00229687,0.0120538,1490,421,5.13837,25.5441
273,603,5.14746,-25.2458,0.00128278,0.00369829,0.0012453,0.00422532,0.000755761,1.17044,0.00260181,0.0107309,1497,421,5.14748,25.2458
280,603,5.15076,-24.9148,0.00148797,0.00394479,0.00161318,0.00474402,0.000688735,1.1108,0.00295993,0.0115614,1504,421,5.15076,24.9148
287,603,5.15515,-24.5935,0.00193289,0.00428391,0.0021869,0.00559121,0.000625582,1.032,0.00353743,0.0108791,1511,421,5.15517,24.5935
294,603,5.14429,-24.3085,0.00237928,0.00463409,0.00272704,0.00645758,0.000555796,0.981408,0.00413227,0.0104108,1518,421,5.14425,24.3085
301,603,5.14832,-24.0107,0.00296833,0.00504396,0.003423,0.00758301,0.000429278,0.932588,0.0049185,0.0123862,1525,421,5.14832,24.0107
308,603,5.12671,-23.6648,0.00373852,0.00542895,0.00427602,0.00894248,0.000224981,0.882973,0.00588809,0.0164884,1532,421,5.12671,23.6648
315,603,5.09363,-23.3313,0.0046326,0.005799,0.00521979,0.0104681,-3.64617e-05,0.841032,0.0069909,0.0141201,1539,421,5.09359,23.3313
322,603,5.08154,-23.0011,0.00552704,0.00620503,0.00624031,0.0121155,-0.00038348,0.812533,0.00820784,0.0134891,1546,421,5.08158,23.0011
329,603,5.05688,-22.6448,0.00629392,0.00648681,0.00720704,0.0135981,-0.000817325,0.792089,0.00934973,0.0102875,1553,421,5.05686,22.6448
336,603,5.0542,-22.2877,0.0069086,0.00668738,0.00804814,0.0148469,-0.00125091,0.778527,0.0103401,0.00956479,1560,421,5.0542,22.2877
343,603,5.06775,-21.9274,0.00742782,0.00698046,0.00885827,0.0160652,-0.00165695,0.772775,0.011303,0.0119197,1567,421,5.0678,21.9274
350,603,5.03735,-21.5487,0.00773001,0.00756373,0.00962396,0.0172712,-0.00197745,0.781079,0.0122267,0.0223479,1574,421,5.03734,21.5487
357,603,5.06091,-21.0506,0.00778736,0.00795187,0.010326,0.018196,-0.00245673,0.789381,0.013027,0.0357658,1581,421,5.06088,21.0506
364,603,5.14453,-20.4905,0,0,0,0,0,0,0,-1,1588,421,5.14457,20.4905
371,603,4.98438,-20.1628,0,0,0,0,0,0,0,-1,1595,421,4.98436,20.1628
378,603,4.86841,-20.0621,0,0,0,0,0,0,0,-1,1602,421,4.86843,20.0621
385,603,4.6676,-19.5425,0,0,0,0,0,0,0,-1,1609,421,4.66758,19.5425
392,603,4.88013,-18.8603,0,0,0,0,0,0,0,-1,1616,421,4.88011,18.8603
399,603,2.38013,-5.37076,0,0,0,0,0,0,0,-1,1623,421,2.38016,5.37075
406,603,3.01917,-2.37219,0,0,0,0,0,0,0,-1,1630,421,3.01915,2.37219
413,603,2.38928,-2.41275,0,0,0,0,0,0,0,-1,1637,421,2.38926,2.41274
420,603,2.74866,-2.30066,0,0,0,0,0,0,0,-1,1644,421,2.74867,2.30065
427,603,7.11548,-3.35352,0,0,0,0,0,0,0,-1,1651,421,7.11549,3.35351
434,603,7.32153,-4.50525,0,0,0,0,0,0,0,-1,1658,421,7.32149,4.50525
441,603,3.18213,-0.250946,0,0,0,0,0,0,0,-1,1665,421,3.18212,0.250944
448,603,2.95667,-0.066925,0,0,0,0,0,0,0,-1,1672,421,2.95662,0.0669226
455,603,0,0,0,0,0,0,0,0,0,-1,1679,421,0,0
462,603,0,0,0,0,0,0,0,0,0,-1,1686,421,0,0
469,603,0,0,0,0,0,0,0,0,0,-1,1693,421,0,0
476,603,0,0,0,0,0,0,0,0,0,-1,1700,421,0,0
483,603,0,0,0,0,0,0,0,0,0,-1,1707,421,0,0
490,603,0,0,0,0,0,0,0,0,0,-1,1714,421,0,0
497,603,0,0,0,0,0,0,0,0,0,-1,1721,421,0,0
504,603,0,0,0,0,0,0,0,0,0,-1,1728,421,0,0
511,603,0,0,0,0,0,0,0,0,0,-1,1735,421,0,0
518,603,0,0,0,0,0,0,0,0,0,-1,1742,421,0,0
525,603,0,0,0,0,0,0,0,0,0,-1,1749,421,0,0
532,603,0,0,0,0,0,0,0,0,0,-1,1756,421,0,0
539,603,0,0,0,0,0,0,0,0,0,-1,1763,421,0,0
546,603,0,0,0,0,0,0,0,0,0,-1,1770,421,0,0
553,603,0,0,0,0,0,0,0,0,0,-1,1777,421,0,0
560,603,0,0,0,0,0,0,0,0,0,-1,1784,421,0,0
567,603,0,0,0,0,0,0,0,0,0,-1,1791,421,0,0
574,603,0,0,0,0,0,0,0,0,0,-1,1798,421,0,0
581,603,0,0,0,0,0,0,0,0,0,-1,1805,421,0,0
588,603,0,0,0,0,0,0,0,0,0,-1,1812,421,0,0
595,603,0,0,0,0,0,0,0,0,0,-1,1819,421,0,0
602,603,0,0,0,0,0,0,0,0,0,-1,1826,421,0,0
609,603,0,0,0,0,0,0,0,0,0,-1,1833,421,0,0
616,603,0,0,0,0,0,0,0,0,0,-1,1840,421,0,0
623,603,0,0,0,0,0,0,0,0,0,-1,1847,421,0,0
630,603,0,0,0,0,0,0,0,0,0,-1,1854,421,0,0
637,603,0,0,0,0,0,0,0,0,0,-1,1861,421,0,0
644,603,0,0,0,0,0,0,0,0,0,-1,1868,421,0,0
651,603,0,0,0,0,0,0,0,0,0,-1,1875,421,0,0
658,603,0,0,0,0,0,0,0,0,0,-1,1882,421,0,0
665,603,0,0,0,0,0,0,0,0,0,-1,1889,421,0,0
672,603,0,0,0,0,0,0,0,0,0,-1,1896,421,0,0
679,603,0,0,0,0,0,0,0,0,0,-1,1903,421,0,0
686,603,0,0,0,0,0,0,0,0,0,-1,1910,421,0,0
693,603,0,0,0,0,0,0,0,0,0,-1,1917,421,0,0
700,603,0,0,0,0,0,0,0,0,0,-1,1924,421,0,0
707,603,0,0,0,0,0,0,0,0,0,-1,1931,421,0,0
714,603,0,0,0,0,0,0,0,0,0,-1,1938,421,0,0
721,603,0,0,0,0,0,0,0,0,0,-1,1945,421,0,0
728,603,0,0,0,0,0,0,0,0,0,-1,1952,421,0,0
735,603,0,0,0,0,0,0,0,0,0,-1,1959,421,0,0
742,603,0,0,0,0,0,0,0,0,0,-1,1966,421,0,0
749,603,0,0,0,0,0,0,0,0,0,-1,1973,421,0,0
756,603,0,0,0,0,0,0,0,0,0,-1,1980,421,0,0
763,603,0,0,0,0,0,0,0,0,0,-1,1987,421,0,0
770,603,0,0,0,0,0,0,0,0,0,-1,1994,421,0,0
777,603,0,0,0,0,0,0,0,0,0,-1,2001,421,0,0
784,603,0,0,0,0,0,0,0,0,0,-1,2008,421,0,0
791,603,0,0,0,0,0,0,0,0,0,-1,2015,421,0,0
798,603,0,0,0,0,0,0,0,0,0,-1,2022,421,0,0
805,603,0,0,0,0,0,0,0,0,0,-1,2029,421,0,0
812,603,0,0,0,0,0,0,0,0,0,-1,2036,421,0,0
-700,596,0,0,0,0,0,0,0,0,0,-1,524,428,0,0
-693,596,0,0,0,0,0,0,0,0,0,-1,531,428,0,0
-686,596,0,0,0,0,0,0,0,0,0,-1,538,428,0,0
-679,596,0,0,0,0,0,0,0,0,0,-1,545,428,0,0
-672,596,0,0,0,0,0,0,0,0,0,-1,552,428,0,0
-665,596,0,0,0,0,0,0,0,0,0,-1,559,428,0,0
-658,596,0,0,0,0,0,0,0,0,0,-1,566,428,0,0
-651,596,0,0,0,0,0,0,0,0,0,-1,573,428,0,0
-644,596,0,0,0,0,0,0,0,0,0,-1,580,428,0,0
-637,596,0,0,0,0,0,0,0,0,0,-1,587,428,0,0
-630,596,0,0,0,0,0,0,0,0,0,-1,594,428,0,0
-623,596,0,0,0,0,0,0,0,0,0,-1,601,428,0,0
-616,596,0,0,0,0,0,0,0,0,0,-1,608,428,0,0
-609,596,0,0,0,0,0,0,0,0,0,-1,615,428,0,0
-602,596,0,0,0,0,0,0,0,0,0,-1,622,428,0,0
-595,596,0,0,0,0,0,0,0,0,0,-1,629,428,0,0
-588,596,0,0,0,0,0,0,0,0,0,-1,636,428,0,0
-581,596,0,0,0,0,0,0,0,0,0,-1,643,428,0,0
-574,596,0,0,0,0,0,0,0,0,0,-1,650,428,0,0
-567,596,0,0,0,0,0,0,0,0,0,-1,657,428,0,0
-560,596,0,0,0,0,0,0,0,0,0,-1,664,428,0,0
-553,596,0,0,0,0,0,0,0,0,0,-1,671,428,0,0
-546,596,0,0,0,0,0,0,0,0,0,-1,678,428,0,0
-539,596,0,0,0,0,0,0,0,0,0,-1,685,428,0,0
-532,596,0,0,0,0,0,0,0,0,0,-1,692,428,0,0
-525,596,0,0,0,0,0,0,0,0,0,-1,699,428,0,0
-518,596,0,0,0,0,0,0,0,0,0,-1,706,428,0,0
-511,596,0,0,0,0,0,0,0,0,0,-1,713,428,0,0
-504,596,0,0,0,0,0,0,0,0,0,-1,720,428,0,0
-497,596,0,0,0,0,0,0,0,0,0,-1,727,428,0,0
-490,596,0,0,0,0,0,0,0,0,0,-1,734,428,0,0
-483,596,0,0,0,0,0,0,0,0,0,-1,741,428,0,0
-476,596,0,0,0,0,0,0,0,0,0,-1,748,428,0,0
-469,596,0,0,0,0,0,0,0,0,0,-1,755,428,0,0
-462,596,0,0,0,0,0,0,0,0,0,-1,762,428,0,0
-455,596,0,0,0,0,0,0,0,0,0,-1,769,428,0,0
-448,596,0,0,0,0,0,0,0,0,0,-1,776,428,0,0
-441,596,0,0,0,0,0,0,0,0,0,-1,783,428,0,0
-434,596,0,0,0,0,0,0,0,0,0,-1,790,428,0,0
-427,596,0,0,0,0,0,0,0,0,0,-1,797,428,0,0
-420,596,0,0,0,0,0,0,0,0,0,-1,804,428,0,0
-413,596,0,0,0,0,0,0,0,0,0,-1,811,428,0,0
-406,596,0,0,0,0,0,0,0,0,0,-1,818,428,0,0
-399,596,0,0,0,0,0,0,0,0,0,-1,825,428,0,0
-392,596,0,0,0,0,0,0,0,0,0,-1,832,428,0,0
-385,596,0,0,0,0,0,0,0,0,0,-1,839,428,0,0
-378,596,0,0,0,0,0,0,0,0,0,-1,846,428,0,0
-371,596,0,0,0,0,0,0,0,0,0,-1,853,428,0,0
-364,596,0,0,0,0,0,0,0,0,0,-1,860,428,0,0
-357,596,0,0,0,0,0,0,0,0,0,-1,867,428,0,0
-350,596,0,0,0,0,0,0,0,0,0,-1,874,428,0,0
-343,596,0,0,0,0,0,0,0,0,0,-1,881,428,0,0
-336,596,-0.823181,-19.3383,0,0,0,0,0,0,0,-1,888,428,-0.823181,19.3383
-329,596,3.336,-17.6245,0,0,0,0,0,0,0,-1,895,428,3.33598,17.6245
-322,596,3.06299,-17.1667,0,0,0,0,0,0,0,-1,902,428,3.06296,17.1667
-315,596,2.78992,-16.7089,0,0,0,0,0,0,0,-1,909,428,2.78994,16.7089
-308,596,1.96661,-17.6277,0,0,0,0,0,0,0,-1,916,428,1.96661,17.6277
-301,596,2.60614,-19.5515,0,0,0,0,0,0,0,-1,923,428,2.60614,19.5516
-294,596,3.28784,-19.9214,0.011853,-0.00504993,-0.0143643,0.0200677,-0.0132646,-0.519488,0.0193776,0.0447213,930,428,3.28787,19.9214
-287,596,4.02582,-20.2588,0,0,0,0,0,0,0,-1,937,428,4.02584,20.2588
-280,596,3.06824,-19.4678,0,0,0,0,0,0,0,-1,944,428,3.06823,19.4678
-273,596,3.22009,-19.7169,0.00236852,-0.000364307,-0.00901125,0.0101164,-0.00811215,-0.710154,0.0105454,0.044547,951,428,3.22012,19.7169
-266,596,2.68909,-20.2133,0.000455805,0.0014362,-0.00751401,0.00847599,-0.00658398,-0.817971,0.00871772,0.0401888,958,428,2.68908,20.2133
-259,596,2.8786,-20.4238,-0.00107912,0.00315709,-0.00627033,0.0076574,-0.00557942,-0.94828,0.00767361,0.0360836,965,428,2.87863,20.4238
-252,596,3.03601,-21.0045,-0.00183905,0.00519088,-0.00561095,0.00829692,-0.00494509,-1.06522,0.00772649,0.0173933,972,428,3.03602,21.0045
-245,596,3.05603,-21.4351,-0.00208171,0.00699936,-0.00510258,0.00928911,-0.00437146,-1.14899,0.00805548,0.0134188,979,428,3.05606,21.4351
-238,596,3.04114,-21.7894,-0.00281037,0.00871716,-0.00491234,0.0105265,-0.00461972,-1.21789,0.0089636,0.0126011,986,428,3.04116,21.7894
-231,596,2.97791,-22.162,-0.00233361,0.00831029,-0.00426936,0.00981114,-0.00383445,-1.23275,0.00812628,0.0131992,993,428,2.97792,22.162
-224,596,2.9552,-22.5239,-0.00193119,0.0076541,-0.00371815,0.00892727,-0.00320435,-1.24089,0.00725933,0.0134514,1000,428,2.95518,22.5239
-217,596,2.95081,-22.8658,-0.00132428,0.0067956,-0.00324854,0.00793529,-0.00246396,-1.23338,0.0062749,0.0135781,1007,428,2.95081,22.8658
-210,596,2.96063,-23.2099,-0.000919714,0.00583431,-0.00265477,0.00675288,-0.00183828,-1.23768,0.00522364,0.0120158,1014,428,2.96064,23.2099
-203,596,2.94739,-23.5525,-0.000679599,0.00468472,-0.00213247,0.00542914,-0.00142402,-1.23494,0.00417583,0.0163808,1021,428,2.94738,23.5525
-196,596,2.95142,-23.8669,-0.000496977,0.00371374,-0.00166387,0.00429185,-0.00107509,-1.2364,0.00327888,0.0161155,1028,428,2.95146,23.8669
-189,596,2.92517,-24.1772,-0.000149527,0.00269041,-0.00130938,0.00320197,-0.000661082,-1.19835,0.00238573,0.0130503,1035,428,2.92519,24.1772
-182,596,2.89417,-24.4732,0.000184274,0.00183166,-0.000985802,0.00229259,-0.000276664,-1.13342,0.00162847,0.0119899,1042,428,2.89411,24.4732
-175,596,2.90344,-24.7664,0.000434824,0.000489564,-0.000700735,0.00116346,-0.000239076,-0.804917,0.0008664,0.014011,1049,428,2.90344,24.7664
-168,596,2.89954,-25.079,0.000643324,-0.000621177,-0.000416348,0.000768099,-0.000745951,-0.29117,0.000874168,0.0168208,1056,428,2.89949,25.079
-161,596,2.88245,-25.3866,0.000878564,-0.00170586,-0.000231982,0.000899222,-0.00172652,-0.0888155,0.00154085,0.0155183,1063,428,2.88241,25.3866
-154,596,2.86841,-25.6595,0.00117506,-0.0026283,-0.000112631,0.00117839,-0.00263164,-0.0295789,0.00225243,0.0131909,1070,428,2.8684,25.6595
-147,596,2.91431,-25.8925,0.00152676,-0.00343617,-3.24797e-05,0.00152697,-0.00343638,-0.0065441,0.00293542,0.0137544,1077,428,2.91433,25.8925
-140,596,2.93579,-26.1516,0.00192338,-0.00425663,-1.71964e-05,0.00192343,-0.00425668,-0.00278255,0.00365187,0.0140536,1084,428,2.93579,26.1516
-133,596,2.9314,-26.4422,0.00227089,-0.00515864,3.92349e-05,0.0022711,-0.00515885,0.00528074,0.00439635,0.0154457,1091,428,2.93141,26.4422
-126,596,2.92529,-26.6859,0.0026634,-0.00596209,1.98766e-05,0.00266344,-0.00596214,0.00230438,0.00509993,0.0115959,1098,428,2.9253,26.6859
-119,596,2.9519,-26.9455,0.00314804,-0.00662236,-5.99003e-05,0.00314841,-0.00662273,-0.00613048,0.00575902,0.0141442,1105,428,2.95192,26.9455
-112,596,2.93286,-27.1857,0.00367259,-0.00698346,-0.000160256,0.003675,-0.00698587,-0.0150345,0.00625322,0.0158228,1112,428,2.93284,27.1857
-105,596,2.92737,-27.4361,0.00426944,-0.00713679,-0.000270259,0.00427584,-0.00714319,-0.0236762,0.0066617,0.0159036,1119,428,2.92741,27.4361
-98,596,2.98975,-27.6297,0.00486813,-0.00727549,-0.000138317,0.0048697,-0.00727706,-0.0113881,0.0070587,0.0112099,1126,428,2.9897,27.6297
-91,596,3.02356,-27.9001,0.00526164,-0.00689316,-9.8944e-05,0.00526244,-0.00689397,-0.0081396,0.00703954,0.0216518,1133,428,3.02352,27.9001
-84,596,3.17053,-28.3436,0,0,0,0,0,0,0,-1,1140,428,3.17052,28.3436
-77,596,3.13428,-28.4033,0,0,0,0,0,0,0,-1,1147,428,3.13428,28.4033
-70,596,3.1272,-28.0384,0,0,0,0,0,0,0,-1,1154,428,3.12723,28.0384
-63,596,1.95569,-12.2758,0,0,0,0,0,0,0,-1,1161,428,1.95563,12.2759
-56,596,1.60107,-10.5827,0,0,0,0,0,0,0,-1,1168,428,1.60108,10.5827
-49,596,1.59473,-10.0393,0,0,0,0,0,0,0,-1,1175,428,1.59472,10.0393
-42,596,1.99585,-6.6246,0,0,0,0,0,0,0,-1,1182,428,1.99586,6.62459
-35,596,3.09802,-28.9261,0,0,0,0,0,0,0,-1,1189,428,3.09805,28.9261
-28,596,3.27368,-29.1446,0,0,0,0,0,0,0,-1,1196,428,3.27368,29.1446
-21,596,3.15161,-28.8908,0.001239,-0.0173898,0.000470685,0.00125088,-0.0174017,0.025245,0.0120398,0.0497626,1203,428,3.15155,28.8908
-14,596,3.09253,-29.2068,0.00629745,-0.017969,0.00207318,0.0064733,-0.0181448,0.0846169,0.0147361,0.0484721,1210,428,3.0925,29.2069
-7,596,3.50317,-29.4734,0,0,0,0,0,0,0,-1,1217,428,3.50314,29.4733
0,596,3.55994,-29.5983,0,0,0,0,0,0,0,-1,1224,428,3.55996,29.5983
7,596,2.24609,-32.109,0,0,0,0,0,0,0,-1,1231,428,2.24614,32.109
14,596,4.02722,-29.0905,0,0,0,0,0,0,0,-1,1238,428,4.02721,29.0904
21,596,3.953,-29.036,0.0242385,-0.0107891,0.00808908,0.0260163,-0.0125669,0.21634,0.0227227,0.0480326,1245,428,3.95302,29.036
28,596,3.72949,-29.3471,0.0255782,-0.00748296,0.00816534,0.0274849,-0.00938965,0.229399,0.0221275,0.0471683,1252,428,3.72954,29.3471
35,596,3.64893,-29.489,0.0259564,-0.00420277,0.00771247,0.0278142,-0.0060606,0.236383,0.0208586,0.046335,1259,428,3.64891,29.489
42,596,3.72668,-29.6048,0.025348,-0.00177167,0.00652854,0.0268378,-0.00326145,0.224354,0.0190722,0.0469391,1266,428,3.72665,29.6048
49,596,4.30713,-29.8117,0.02352,0.00130835,0.00429675,0.0243222,0.000506138,0.184578,0.0160487,0.0460303,1273,428,4.30716,29.8117
56,596,4.16211,-29.4046,0.0212832,0.00376106,0.0015659,0.021422,0.00362222,0.0884334,0.0132401,0.0400977,1280,428,4.16207,29.4046
63,596,3.97009,-29.0675,0.0195339,0.00642478,-0.00101622,0.0196122,0.00634647,-0.076908,0.0115556,0.0470457,1287,428,3.97003,29.0675
70,596,3.43799,-28.8516,0.0165474,0.00747778,-0.00338102,0.0176691,0.00635611,-0.320329,0.0103342,0.0482889,1294,428,3.43798,28.8516
77,596,2.88306,-28.3965,0.0123679,0.00483993,-0.00636725,0.0160005,0.00120734,-0.518455,0.0102882,0.0477784,1301,428,2.88304,28.3966
84,596,2.35791,-27.9537,0,0,0,0,0,0,0,-1,1308,428,2.35785,27.9537
91,596,4.17114,-29.6427,0,0,0,0,0,0,0,-1,1315,428,4.17119,29.6427
98,596,4.45227,-29.9219,0,0,0,0,0,0,0,-1,1322,428,4.45222,29.9219
105,596,4.99377,-29.6418,0,0,0,0,0,0,0,-1,1329,428,4.99383,29.6418
112,596,4.97864,-29.3012,0,0,0,0,0,0,0,-1,1336,428,4.97859,29.3012
119,596,4.95203,-29.3308,0,0,0,0,0,0,0,-1,1343,428,4.95197,29.3308
126,596,4.97998,-28.5319,0,0,0,0,0,0,0,-1,1350,428,4.98001,28.5319
133,596,4.80591,-28.3477,0,0,0,0,0,0,0,-1,1357,428,4.80593,28.3477
140,596,4.63208,-28.191,0,0,0,0,0,0,0,-1,1364,428,4.63212,28.191
147,596,4.9021,-28.6257,0,0,0,0,0,0,0,-1,1371,428,4.90205,28.6257
154,596,4.729,-28.435,0.000443701,-0.0373571,-0.00456337,0.000986794,-0.0379002,-0.118454,0.0256021,0.0482092,1378,428,4.72905,28.435
161,596,4.84009,-28.3898,0.00236831,-0.035086,-0.00479879,0.00297337,-0.035691,-0.125425,0.0248445,0.046302,1385,428,4.84012,28.3898
168,596,5.15637,-28.4524,0,0,0,0,0,0,0,-1,1392,428,5.15635,28.4524
175,596,5.41382,-28.2547,0,0,0,0,0,0,0,-1,1399,428,5.41377,28.2547
182,596,5.51086,-28.2441,0,0,0,0,0,0,0,-1,1406,428,5.5109,28.2441
189,596,5.38611,-28.0963,0,0,0,0,0,0,0,-1,1413,428,5.38605,28.0963
196,596,5.29724,-27.7135,0,0,0,0,0,0,0,-1,1420,428,5.2972,27.7135
203,596,5.19824,-27.7293,0,0,0,0,0,0,0,-1,1427,428,5.1982,27.7293
210,596,5.24097,-27.6831,0,0,0,0,0,0,0,-1,1434,428,5.24101,27.6831
217,596,5.31226,-27.4736,0,0,0,0,0,0,0,-1,1441,428,5.31221,27.4736
224,596,5.33252,-27.1742,0.00255871,0.000112399,-0.00106524,0.00295754,-0.000286434,-0.35825,0.00207377,0.0339264,1448,428,5.33247,27.1741
231,596,5.38831,-26.8917,0.00202756,0.00107967,-0.000577335,0.00230057,0.00080666,-0.441715,0.00134784,0.0158356,1455,428,5.38825,26.8917
238,596,5.39136,-26.6351,0.00190569,0.00179354,-0.000200892,0.00205818,0.00164104,-0.649301,0.00125638,0.0141398,1462,428,5.39139,26.6351
245,596,5.4032,-26.371,0.00188122,0.00219812,9.11527e-06,0.00219838,0.00188095,1.54206,0.00137207,0.0124997,1469,428,5.40314,26.371
252,596,5.42261,-26.0961,0.00186312,0.00228346,0.00022906,0.00238416,0.00176242,1.15661,0.00142804,0.010119,1476,428,5.42264,26.0961
259,596,5.43213,-25.806,0.00177506,0.00225949,0.000354522,0.00244664,0.00158791,1.08509,0.00143333,0.00941181,1483,428,5.43216,25.806
266,596,5.42615,-25.524,0.00174194,0.00223616,0.000460372,0.00251155,0.00146655,1.03171,0.00145684,0.0111055,1490,428,5.42609,25.524
273,596,5.43103,-25.2476,0.00176307,0.00231758,0.000606978,0.00270763,0.00137302,0.999639,0.0015633,0.0123997,1497,428,5.43108,25.2476
280,596,5.45105,-24.9428,0.00170248,0.00229942,0.000757066,0.00281473,0.00118717,0.973167,0.0016317,0.0124033,1504,428,5.45107,24.9428
287,596,5.46106,-24.6264,0.00181204,0.00239829,0.00104819,0.00319357,0.00101676,0.921741,0.00188392,0.0113308,1511,428,5.46105,24.6264
294,596,5.44946,-24.3214,0.00200268,0.00259039,0.00137641,0.00370397,0.000889107,0.890566,0.00223275,0.0100112,1518,428,5.44949,24.3214
301,596,5.44299,-24.0042,0.00227663,0.00286768,0.00184608,0.00444174,0.000702567,0.864766,0.00275697,0.0108867,1525,428,5.44297,24.0042
308,596,5.45386,-23.6624,0.00269794,0.0031372,0.00245568,0.00538305,0.000452085,0.829998,0.0034479,0.0157164,1532,428,5.45381,23.6625
315,596,5.42529,-23.3187,0.00319275,0.00347828,0.00312826,0.00646703,0.000203998,0.808201,0.00424499,0.0149285,1539,428,5.42526,23.3187
322,596,5.41882,-22.9633,0.0036711,0.00389579,0.00387311,0.00765819,-9.12966e-05,0.799897,0.00513616,0.0128182,1546,428,5.41878,22.9633
329,596,5.40344,-22.6326,0.00406666,0.00425049,0.00460641,0.00876591,-0.000448751,0.795374,0.00599912,0.0102679,1553,428,5.40342,22.6326
336,596,5.37708,-22.2985,0.00437587,0.00455217,0.00525919,0.00972395,-0.000795909,0.793778,0.00676357,0.00949403,1560,428,5.37708,22.2985
343,596,5.39136,-21.9473,0.00461964,0.00494836,0.00589485,0.0106811,-0.00111314,0.799335,0.00751932,0.0123622,1567,428,5.39139,21.9473
350,596,5.38721,-21.5559,0.00471191,0.00560862,0.00650192,0.0116776,-0.00135709,0.819822,0.00827463,0.0127682,1574,428,5.38718,21.5559
357,596,5.36548,-21.1637,0.00461541,0.00612697,0.00705062,0.0124622,-0.00171982,0.838791,0.00893674,0.00983299,1581,428,5.36547,21.1637
364,596,5.35388,-20.7514,0.00422869,0.00679145,0.00740805,0.0130281,-0.00200798,0.871037,0.0094263,0.0160929,1588,428,5.35385,20.7514
371,596,5.34558,-20.3857,0.00375393,0.00750294,0.00771275,0.0135657,-0.00230883,0.904607,0.00990353,0.0242053,1595,428,5.34557,20.3857
378,596,5.26062,-20.0802,0.00303732,0.00865616,0.00788539,0.0142177,-0.00252417,0.956528,0.0104222,0.0312059,1602,428,5.26065,20.0802
385,596,5.15137,-19.6202,0.00110074,0.00974578,0.00719537,0.0138172,-0.00297064,1.05588,0.0103448,0.0413374,1609,428,5.15135,19.6202
392,596,5.23828,-18.9908,-0.00116305,0.0105279,0.00623731,0.0132307,-0.00386588,1.16189,0.0103526,0.0491671,1616,428,5.23822,18.9908
399,596,5.1582,-18.6217,0,0,0,0,0,0,0,-1,1623,428,5.15823,18.6217
406,596,3.60034,-10.1525,0,0,0,0,0,0,0,-1,1630,428,3.60028,10.1525
413,596,3.39124,-2.63528,0,0,0,0,0,0,0,-1,1637,428,3.39122,2.6353
420,596,2.6344,-3.06308,0,0,0,0,0,0,0,-1,1644,428,2.63439,3.06308
427,596,2.99329,-1.90512,0,0,0,0,0,0,0,-1,1651,428,2.99327,1.90512
434,596,3.80896,-0.253998,0,0,0,0,0,0,0,-1,1658,428,3.80902,0.254004
441,596,3.86401,-0.131622,0,0,0,0,0,0,0,-1,1665,428,3.86406,0.131613
448,596,1.0769,0.0083313,0,0,0,0,0,0,0,-1,1672,428,1.07684,-0.00832231
455,596,2.00769,-1.43329,0,0,0,0,0,0,0,-1,1679,428,2.00765,1.4333
462,596,0,0,0,0,0,0,0,0,0,-1,1686,428,0,0
469,596,0,0,0,0,0,0,0,0,0,-1,1693,428,0,0
476,596,0,0,0,0,0,0,0,0,0,-1,1700,428,0,0
483,596,0,0,0,0,0,0,0,0,0,-1,1707,428,0,0
490,596,0,0,0,0,0,0,0,0,0,-1,1714,428,0,0
497,596,0,0,0,0,0,0,0,0,0,-1,1721,428,0,0
504,596,0,0,0,0,0,0,0,0,0,-1,1728,428,0,0
511,596,0,0,0,0,0,0,0,0,0,-1,1735,428,0,0
518,596,0,0,0,0,0,0,0,0,0,-1,1742,428,0,0
525,596,0,0,0,0,0,0,0,0,0,-1,1749,428,0,0
532,596,0,0,0,0,0,0,0,0,0,-1,1756,428,0,0
539,596,0,0,0,0,0,0,0,0,0,-1,1763,428,0,0
546,596,0,0,0,0,0,0,0,0,0,-1,1770,428,0,0
553,596,0,0,0,0,0,0,0,0,0,-1,1777,428,0,0
560,596,0,0,0,0,0,0,0,0,0,-1,1784,428,0,0
567,596,0,0,0,0,0,0,0,0,0,-1,1791,428,0,0
574,596,0,0,0,0,0,0,0,0,0,-1,1798,428,0,0
581,596,0,0,0,0,0,0,0,0,0,-1,1805,428,0,0
588,596,0,0,0,0,0,0,0,0,0,-1,1812,428,0,0
595,596,0,0,0,0,0,0,0,0,0,-1,1819,428,0,0
602,596,0,0,0,0,0,0,0,0,0,-1,1826,428,0,0
609,596,0,0,0,0,0,0,0,0,0,-1,1833,428,0,0
616,596,0,0,0,0,0,0,0,0,0,-1,1840,428,0,0
623,596,0,0,0,0,0,0,0,0,0,-1,1847,428,0,0
630,596,0,0,0,0,0,0,0,0,0,-1,1854,428,0,0
637,596,0,0,0,0,0,0,0,0,0,-1,1861,428,0,0
644,596,0,0,0,0,0,0,0,0,0,-1,1868,428,0,0
651,596,0,0,0,0,0,0,0,0,0,-1,1875,428,0,0
658,596,0,0,0,0,0,0,0,0,0,-1,1882,428,0,0
665,596,0,0,0,0,0,0,0,0,0,-1,1889,428,0,0
672,596,0,0,0,0,0,0,0,0,0,-1,1896,428,0,0
679,596,0,0,0,0,0,0,0,0,0,-1,1903,428,0,0
686,596,0,0,0,0,0,0,0,0,0,-1,1910,428,0,0
693,596,0,0,0,0,0,0,0,0,0,-1,1917,428,0,0
700,596,0,0,0,0,0,0,0,0,0,-1,1924,428,0,0
707,596,0,0,0,0,0,0,0,0,0,-1,1931,428,0,0
714,596,0,0,0,0,0,0,0,0,0,-1,1938,428,0,0
721,596,0,0,0,0,0,0,0,0,0,-1,1945,428,0,0
728,596,0,0,0,0,0,0,0,0,0,-1,1952,428,0,0
735,596,0,0,0,0,0,0,0,0,0,-1,1959,428,0,0
742,596,0,0,0,0,0,0,0,0,0,-1,1966,428,0,0
749,596,0,0,0,0,0,0,0,0,0,-1,1973,428,0,0
756,596,0,0,0,0,0,0,0,0,0,-1,1980,428,0,0
763,596,0,0,0,0,0,0,0,0,0,-1,1987,428,0,0
770,596,0,0,0,0,0,0,0,0,0,-1,1994,428,0,0
777,596,0,0,0,0,0,0,0,0,0,-1,2001,428,0,0
784,596,0,0,0,0,0,0,0,0,0,-1,2008,428,0,0
791,596,0,0,0,0,0,0,0,0,0,-1,2015,428,0,0
798,596,0,0,0,0,0,0,0,0,0,-1,2022,428,0,0
805,596,0,0,0,0,0,0,0,0,0,-1,2029,428,0,0
812,596,0,0,0,0,0,0,0,0,0,-1,2036,428,0,0
-700,589,0,0,0,0,0,0,0,0,0,-1,524,435,0,0
-693,589,0,0,0,0,0,0,0,0,0,-1,531,435,0,0
-686,589,0,0,0,0,0,0,0,0,0,-1,538,435,0,0
-679,589,0,0,0,0,0,0,0,0,0,-1,545,435,0,0
-672,589,0,0,0,0,0,0,0,0,0,-1,552,435,0,0
-665,589,0,0,0,0,0,0,0,0,0,-1,559,435,0,0
-658,589,0,0,0,0,0,0,0,0,0,-1,566,435,0,0
-651,589,0,0,0,0,0,0,0,0,0,-1,573,435,0,0
-644,589,0,0,0,0,0,0,0,0,0,-1,580,435,0,0
-637,589,0,0,0,0,0,0,0,0,0,-1,587,435,0,0
-630,589,0,0,0,0,0,0,0,0,0,-1,594,435,0,0
-623,589,0,0,0,0,0,0,0,0,0,-1,601,435,0,0
-616,589,0,0,0,0,0,0,0,0,0,-1,608,435,0,0
-609,589,0,0,0,0,0,0,0,0,0,-1,615,435,0,0
-602,589,0,0,0,0,0,0,0,0,0,-1,622,435,0,0
-595,589,0,0,0,0,0,0,0,0,0,-1,629,435,0,0
-588,589,0,0,0,0,0,0,0,0,0,-1,636,435,0,0
-581,589,0,0,0,0,0,0,0,0,0,-1,643,435,0,0
-574,589,0,0,0,0,0,0,0,0,0,-1,650,435,0,0
-567,589,0,0,0,0,0,0,0,0,0,-1,657,435,0,0
-560,589,0,0,0,0,0,0,0,0,0,-1,664,435,0,0
-553,589,0,0,0,0,0,0,0,0,0,-1,671,435,0,0
-546,589,0,0,0,0,0,0,0,0,0,-1,678,435,0,0
-539,589,0,0,0,0,0,0,0,0,0,-1,685,435,0,0
-532,589,0,0,0,0,0,0,0,0,0,-1,692,435,0,0
-525,589,0,0,0,0,0,0,0,0,0,-1,699,435,0,0
-518,589,0,0,0,0,0,0,0,0,0,-1,706,435,0,0
-511,589,0,0,0,0,0,0,0,0,0,-1,713,435,0,0
-504,589,0,0,0,0,0,0,0,0,0,-1,720,435,0,0
-497,589,0,0,0,0,0,0,0,0,0,-1,727,435,0,0
-490,589,0,0,0,0,0,0,0,0,0,-1,734,435,0,0
-483,589,0,0,0,0,0,0,0,0,0,-1,741,435,0,0
-476,589,0,0,0,0,0,0,0,0,0,-1,748,435,0,0
-469,589,0,0,0,0,0,0,0,0,0,-1,755,435,0,0
-462,589,0,0,0,0,0,0,0,0,0,-1,762,435,0,0
-455,589,0,0,0,0,0,0,0,0,0,-1,769,435,0,0
-448,589,0,0,0,0,0,0,0,0,0,-1,776,435,0,0
-441,589,0,0,0,0,0,0,0,0,0,-1,783,435,0,0
-434,589,0,0,0,0,0,0,0,0,0,-1,790,435,0,0
-427,589,0,0,0,0,0,0,0,0,0,-1,797,435,0,0
-420,589,0,0,0,0,0,0,0,0,0,-1,804,435,0,0
-413,589,0,0,0,0,0,0,0,0,0,-1,811,435,0,0
-406,589,0,0,0,0,0,0,0,0,0,-1,818,435,0,0
-399,589,0,0,0,0,0,0,0,0,0,-1,825,435,0,0
-392,589,0,0,0,0,0,0,0,0,0,-1,832,435,0,0
-385,589,0,0,0,0,0,0,0,0,0,-1,839,435,0,0
-378,589,0,0,0,0,0,0,0,0,0,-1,846,435,0,0
-371,589,0,0,0,0,0,0,0,0,0,-1,853,435,0,0
-364,589,0,0,0,0,0,0,0,0,0,-1,860,435,0,0
-357,589,0,0,0,0,0,0,0,0,0,-1,867,435,0,0
-350,589,-0.799927,-20.664,0,0,0,0,0,0,0,-1,874,435,-0.799952,20.664
-343,589,-0.370911,-19.1543,0,0,0,0,0,0,0,-1,881,435,-0.370922,19.1543
-336,589,-0.623535,-17.9999,0,0,0,0,0,0,0,-1,888,435,-0.623509,17.9999
-329,589,2.58252,-16.902,0,0,0,0,0,0,0,-1,895,435,2.58251,16.902
-322,589,2.31152,-16.4142,0,0,0,0,0,0,0,-1,902,435,2.31153,16.4142
-315,589,2.8205,-18.262,0,0,0,0,0,0,0,-1,909,435,2.82051,18.262
-308,589,2.58453,-18.0357,0,0,0,0,0,0,0,-1,916,435,2.58454,18.0358
-301,589,2.58539,-18.7114,0.0111411,0.00238794,-0.0160314,0.0233826,-0.00985356,-0.652144,0.0197117,0.0466458,923,435,2.58537,18.7114
-294,589,2.57953,-19.1266,0.00811728,0.000700471,-0.0131546,0.0180762,-0.00925848,-0.648009,0.0160531,0.0473405,930,435,2.57951,19.1266
-287,589,2.68201,-19.0838,0,0,0,0,0,0,0,-1,937,435,2.68203,19.0838
-280,589,2.77356,-19.4363,0.00330161,0.000580027,-0.00894148,0.0109853,-0.00710362,-0.709883,0.0105235,0.034425,944,435,2.77356,19.4363
-273,589,2.76581,-19.9074,0.00184936,0.0011915,-0.00786525,0.00939255,-0.0063517,-0.7645,0.00914629,0.0201645,951,435,2.76584,19.9074
-266,589,2.72943,-20.2845,0.000492821,0.00185692,-0.00638428,0.00759548,-0.00524574,-0.838612,0.00745514,0.0172539,958,435,2.72943,20.2845
-259,589,2.69409,-20.6507,-0.000650591,0.00272952,-0.00516075,0.0064699,-0.00439097,-0.943636,0.0063087,0.0154006,965,435,2.6941,20.6507
-252,589,2.711,-21.0901,-0.00120118,0.00400952,-0.00449896,0.00660306,-0.00379472,-1.04785,0.00607571,0.0105958,972,435,2.71102,21.09
-245,589,2.71985,-21.4747,-0.00134425,0.00511801,-0.00397598,0.00701022,-0.00323646,-1.12661,0.00604818,0.0111466,979,435,2.71983,21.4747
-238,589,2.69666,-21.8309,-0.00183382,0.00622561,-0.00375471,0.00770374,-0.00331196,-1.19575,0.00652623,0.0148812,986,435,2.69665,21.8309
-231,589,2.65601,-22.1621,-0.00147757,0.00560467,-0.00314104,0.00679701,-0.00266991,-1.208,0.0056362,0.0149053,993,435,2.65601,22.1621
-224,589,2.61896,-22.5323,-0.00117404,0.00481402,-0.00256013,0.00575935,-0.00211936,-1.21708,0.00470782,0.0144296,1000,435,2.61894,22.5324
-217,589,2.62115,-22.8863,-0.000701976,0.00384788,-0.00204979,0.00463513,-0.00148923,-1.2041,0.00368812,0.0147302,1007,435,2.62113,22.8863
-210,589,2.62317,-23.213,-0.000450971,0.00283286,-0.00147025,0.00339493,-0.00101303,-1.20565,0.00266591,0.014211,1014,435,2.62315,23.213
-203,589,2.62109,-23.5256,-0.000298306,0.00173827,-0.00106068,0.00219034,-0.000750372,-1.1679,0.00176437,0.0114746,1021,435,2.62106,23.5257
-196,589,2.62158,-23.8555,-0.000106176,0.000758445,-0.000689883,0.00114028,-0.00048801,-1.06529,0.000964908,0.0129264,1028,435,2.62158,23.8555
-189,589,2.60059,-24.2108,0.000238747,-0.000218068,-0.00038971,0.000462052,-0.000441373,-0.520332,0.000521638,0.01656,1035,435,2.60056,24.2108
-182,589,2.59253,-24.4617,0.000560643,-0.00110302,-9.61631e-05,0.000566183,-0.00110856,-0.0575467,0.000983668,0.0131809,1042,435,2.59258,24.4617
-175,589,2.61108,-24.7451,0.000830254,-0.00234876,0.000155366,0.00083783,-0.00235634,0.0487177,0.00191236,0.0162154,1049,435,2.61109,24.7451
-168,589,2.61633,-25.0754,0.00109134,-0.00343787,0.000334531,0.00111592,-0.00346244,0.0733305,0.00275661,0.0137757,1056,435,2.61628,25.0754
-161,589,2.6156,-25.3738,0.00141556,-0.00451526,0.000411958,0.00144404,-0.00454373,0.0690189,0.00360815,0.0130919,1063,435,2.61554,25.3738
-154,589,2.62402,-25.6268,0.00180451,-0.00547752,0.000435108,0.00183042,-0.00550342,0.0594689,0.00440765,0.0135548,1070,435,2.62403,25.6268
-147,589,2.6438,-25.8868,0.00228376,-0.00629066,0.000448392,0.00230714,-0.00631404,0.0521048,0.00515353,0.0136585,1077,435,2.64381,25.8868
-140,589,2.65576,-26.148,0.00279991,-0.00714741,0.00036745,0.00281346,-0.00716096,0.0368727,0.00593828,0.0138858,1084,435,2.65573,26.148
-133,589,2.67322,-26.4253,0.00320549,-0.00818585,0.00037419,0.00321777,-0.00819813,0.0328015,0.00679683,0.0145176,1091,435,2.67324,26.4253
-126,589,2.68384,-26.6833,0.00369564,-0.00920765,0.00032031,0.00370359,-0.0092156,0.0248035,0.00768186,0.0113531,1098,435,2.68385,26.6833
-119,589,2.68213,-26.9362,0.00428943,-0.0100827,0.000153981,0.00429108,-0.0100843,0.0107123,0.00852134,0.0171409,1105,435,2.68214,26.9363
-112,589,2.70203,-27.1568,0.00491916,-0.0105222,-3.72768e-05,0.00491925,-0.0105223,-0.00241407,0.00910871,0.0184555,1112,435,2.70202,27.1568
-105,589,2.71326,-27.3913,0.00553987,-0.0105985,-0.000242108,0.0055435,-0.0106022,-0.0149975,0.00947298,0.0201505,1119,435,2.71327,27.3913
-98,589,2.82434,-27.6215,0.00617387,-0.0106235,-0.000165187,0.00617549,-0.0106252,-0.00983284,0.00981261,0.0302516,1126,435,2.8243,27.6215
-91,589,2.88916,-28.0928,0,0,0,0,0,0,0,-1,1133,435,2.88921,28.0928
-84,589,2.76538,-22.6013,0,0,0,0,0,0,0,-1,1140,435,2.76539,22.6014
-77,589,2.18152,-14.8023,0,0,0,0,0,0,0,-1,1147,435,2.18155,14.8023
-70,589,1.48267,-9.90961,0,0,0,0,0,0,0,-1,1154,435,1.48264,9.9096
-63,589,0.880127,-5.50586,0,0,0,0,0,0,0,-1,1161,435,0.880186,5.50587
-56,589,-2.78052,-7.28082,0,0,0,0,0,0,0,-1,1168,435,-2.78053,7.28082
-49,589,-0.525757,-2.76703,0,0,0,0,0,0,0,-1,1175,435,-0.525771,2.76702
-42,589,-2.7738,-2.87921,0,0,0,0,0,0,0,-1,1182,435,-2.77383,2.87922
-35,589,-2.55225,-3.27551,0,0,0,0,0,0,0,-1,1189,435,-2.55223,3.27552
-28,589,-0.0632324,-3.42938,0,0,0,0,0,0,0,-1,1196,435,-0.063241,3.42938
-21,589,2.82275,-28.3785,0,0,0,0,0,0,0,-1,1203,435,2.8227,28.3785
-14,589,2.54041,-29.4529,0,0,0,0,0,0,0,-1,1210,435,2.54036,29.4529
-7,589,2.47156,-29.9016,0,0,0,0,0,0,0,-1,1217,435,2.47154,29.9016
0,589,2.47083,-30.4419,0,0,0,0,0,0,0,-1,1224,435,2.47085,30.4419
7,589,2.38916,-31.4476,0.0202216,-0.0192628,0.00512916,0.020877,-0.0199182,0.127094,0.0235553,0.0472493,1231,435,2.38916,31.4476
14,589,2.10352,-31.8711,0.025079,-0.0163524,0.00702471,0.0262376,-0.0175111,0.163466,0.0254252,0.0467455,1238,435,2.10352,31.8711
21,589,4.27332,-28.1603,0.0288577,-0.0127008,0.00833128,0.0304657,-0.0143087,0.190659,0.0264056,0.0429277,1245,435,4.27328,28.1603
28,589,3.57031,-29.2392,0,0,0,0,0,0,0,-1,1252,435,3.57026,29.2392
35,589,3.6947,-29.7586,0,0,0,0,0,0,0,-1,1259,435,3.69467,29.7586
42,589,3.44922,-29.624,0,0,0,0,0,0,0,-1,1266,435,3.44924,29.624
49,589,4.47058,-29.7155,0,0,0,0,0,0,0,-1,1273,435,4.47058,29.7155
56,589,4.29553,-29.3622,0.027293,0.00683062,0.00158155,0.0274146,0.0067091,0.0766836,0.0165011,0.0393844,1280,435,4.29558,29.3622
63,589,4.20007,-29.1144,0.0252604,0.0101721,-0.00144998,0.0253984,0.010034,-0.0949417,0.0147711,0.0410953,1287,435,4.20008,29.1144
70,589,4.36865,-28.8727,0.0218078,0.0113818,-0.004075,0.0232115,0.0099781,-0.331742,0.013445,0.0447012,1294,435,4.36867,28.8727
77,589,4.55981,-28.4193,0.0166995,0.00812516,-0.00738205,0.020949,0.00387568,-0.522323,0.0128701,0.0422303,1301,435,4.5598,28.4192
84,589,4.59241,-28.0822,0,0,0,0,0,0,0,-1,1308,435,4.5924,28.0822
91,589,4.58887,-27.4668,0.00588618,-0.00346651,-0.0103625,0.0125786,-0.0101589,-0.573441,0.0131523,0.0431896,1315,435,4.5889,27.4668
98,589,4.68494,-26.7902,0.00141997,-0.0115942,-0.010199,0.00701085,-0.0171851,-0.501446,0.0143753,0.0477651,1322,435,4.68488,26.7902
105,589,4.60266,-26.3574,-0.000550342,-0.0196122,-0.0102364,0.00390523,-0.0240678,-0.410536,0.0174928,0.0489843,1329,435,4.60263,26.3574
112,589,5.17383,-29.2918,0,0,0,0,0,0,0,-1,1336,435,5.17385,29.2918
119,589,5.87231,-28.4669,-0.001998,-0.032158,-0.0102625,0.00116277,-0.0353188,-0.298773,0.0239429,0.0425289,1343,435,5.87234,28.4669
126,589,5.34851,-27.8733,-0.00284788,-0.0383355,-0.00902165,-0.000686085,-0.0404973,-0.235188,0.0267724,0.046288,1350,435,5.34846,27.8732
133,589,5.0354,-27.3018,-0.00362373,-0.0438445,-0.00775892,-0.00217887,-0.0452893,-0.18411,0.0294934,0.0472899,1357,435,5.03535,27.3018
140,589,4.35559,-26.758,-0.00289295,-0.0460607,-0.00671947,-0.00187119,-0.0470825,-0.150904,0.0307836,0.0469413,1364,435,4.35554,26.758
147,589,3.48132,-25.9614,0,0,0,0,0,0,0,-1,1371,435,3.48136,25.9614
154,589,3.7002,-25.2388,0,0,0,0,0,0,0,-1,1378,435,3.70015,25.2388
161,589,4.10156,-24.059,0,0,0,0,0,0,0,-1,1385,435,4.10157,24.059
168,589,4.82312,-27.0392,0,0,0,0,0,0,0,-1,1392,435,4.82309,27.0392
175,589,8.66992,-7.65527,0,0,0,0,0,0,0,-1,1399,435,8.66994,7.65528
182,589,3.8136,-2.45389,0,0,0,0,0,0,0,-1,1406,435,3.81363,2.4539
189,589,3.69983,-3.68149,0,0,0,0,0,0,0,-1,1413,435,3.69987,3.68147
196,589,3.31055,-5.31677,0,0,0,0,0,0,0,-1,1420,435,3.31059,5.31678
203,589,2.72559,-8.84338,0,0,0,0,0,0,0,-1,1427,435,2.72558,8.84338
210,589,3.62378,-14.4032,0,0,0,0,0,0,0,-1,1434,435,3.62378,14.4032
217,589,4.65601,-22.3745,0,0,0,0,0,0,0,-1,1441,435,4.65607,22.3745
224,589,5.63586,-27.2717,0,0,0,0,0,0,0,-1,1448,435,5.63581,27.2717
231,589,5.69006,-26.9128,0,0,0,0,0,0,0,-1,1455,435,5.69011,26.9128
238,589,5.67139,-26.6793,0.00238609,0.00260364,-0.000556087,0.00306149,0.00192824,-0.881984,0.00178731,0.0350336,1462,435,5.67136,26.6793
245,589,5.67749,-26.3148,0.00245028,0.00279965,-0.000332119,0.00300022,0.00224971,-1.0275,0.00180282,0.0244923,1469,435,5.67746,26.3148
252,589,5.71021,-26.0682,0.00253711,0.00241729,-0.00010811,0.0026008,0.0023536,-0.532369,0.00165762,0.0141546,1476,435,5.71017,26.0682
259,589,5.71265,-25.8111,0.00249563,0.0019044,-6.95756e-05,0.00250371,0.00189632,-0.115576,0.00150802,0.00956091,1483,435,5.71269,25.8111
266,589,5.71765,-25.5101,0.0024804,0.00144631,-3.88712e-05,0.00248186,0.00144485,-0.0375191,0.00143934,0.00974519,1490,435,5.71768,25.5101
273,589,5.74353,-25.2449,0.00248351,0.0011916,4.68541e-05,0.00248521,0.00118991,0.0362039,0.00143527,0.0118687,1497,435,5.7435,25.2449
280,589,5.75891,-24.9633,0.00219551,0.000805073,5.74027e-06,0.00219553,0.00080505,0.0041283,0.00128252,0.0126753,1504,435,5.75896,24.9633
287,589,5.76843,-24.6668,0.00202647,0.00061379,6.0139e-05,0.00202902,0.000611235,0.0424685,0.00120191,0.0117531,1511,435,5.76848,24.6668
294,589,5.76709,-24.3293,0.00200947,0.000631745,0.000219106,0.00204348,0.000597739,0.153975,0.00121319,0.010832,1518,435,5.76708,24.3293
301,589,5.75842,-23.9873,0.00203161,0.00069803,0.000481715,0.00218741,0.000542228,0.312813,0.00131533,0.0105554,1525,435,5.75837,23.9873
308,589,5.76147,-23.644,0.00217892,0.000806744,0.000874307,0.00260419,0.000381468,0.452721,0.00162398,0.0100904,1532,435,5.76146,23.6439
315,589,5.7594,-23.2999,0.00236045,0.00109084,0.00131506,0.0031859,0.000265382,0.560534,0.00204123,0.0099979,1539,435,5.7594,23.2999
322,589,5.77307,-22.9579,0.00252765,0.00150067,0.0018418,0.0039262,0.000102124,0.649452,0.0025841,0.0108717,1546,435,5.77303,22.9579
329,589,5.76624,-22.6315,0.00267013,0.00192851,0.00241458,0.00474221,-0.000143567,0.709208,0.0032104,0.0103905,1553,435,5.76624,22.6315
336,589,5.7428,-22.3044,0.00278723,0.00234951,0.00296355,0.00553998,-0.000403252,0.74854,0.00383481,0.00993013,1560,435,5.74278,22.3044
343,589,5.74011,-21.9582,0.00285245,0.00287692,0.00351582,0.00638053,-0.000651154,0.787138,0.00448651,0.0118602,1567,435,5.74017,21.9582
350,589,5.72302,-21.5733,0.00283536,0.00366674,0.00408002,0.00735219,-0.000850086,0.836165,0.005208,0.0175464,1574,435,5.72307,21.5733
357,589,5.71289,-21.1667,0.00267962,0.00439005,0.00461243,0.00822588,-0.00115621,0.877065,0.00590716,0.0125796,1581,435,5.71287,21.1667
364,589,5.7135,-20.782,0.00232846,0.00523518,0.00502778,0.00901545,-0.0014518,0.926096,0.0065481,0.0106214,1588,435,5.71348,20.782
371,589,5.69055,-20.4053,0.00192436,0.00607864,0.00539494,0.0097825,-0.00177949,0.96916,0.00718863,0.0115316,1595,435,5.69057,20.4053
378,589,5.66919,-19.9992,0.00138182,0.00716061,0.00565294,0.0106198,-0.00207735,1.02165,0.0078643,0.0130066,1602,435,5.6692,19.9992
385,589,5.66089,-19.5708,0.000202852,0.008078,0.00535931,0.0107907,-0.00250989,1.10222,0.00816015,0.0152464,1609,435,5.66085,19.5708
392,589,5.61548,-19.0792,-0.000999582,0.00880643,0.00502658,0.0109252,-0.0031184,1.17188,0.00851546,0.0190161,1616,435,5.61547,19.0792
399,589,5.57605,-18.5412,-0.00115071,0.0101658,0.00569705,0.012537,-0.00352191,1.17639,0.00974644,0.0324284,1623,435,5.57608,18.5412
406,589,5.57446,-18.143,0,0,0,0,0,0,0,-1,1630,435,5.57448,18.143
413,589,5.375,-17.7285,0,0,0,0,0,0,0,-1,1637,435,5.37498,17.7285
420,589,2.79724,-5.79956,0,0,0,0,0,0,0,-1,1644,435,2.7973,5.79955
427,589,5.27356,-17.2913,0,0,0,0,0,0,0,-1,1651,435,5.27356,17.2912
434,589,2.52734,-2.73029,0,0,0,0,0,0,0,-1,1658,435,2.52736,2.73029
441,589,3.17639,-2.02435,0,0,0,0,0,0,0,-1,1665,435,3.17643,2.02435
448,589,0.453735,-3.2868,0,0,0,0,0,0,0,-1,1672,435,0.453701,3.28681
455,589,0.664307,-3.46848,0,0,0,0,0,0,0,-1,1679,435,0.66425,3.46846
462,589,3.46716,-4.41891,0,0,0,0,0,0,0,-1,1686,435,3.4672,4.41891
469,589,0.0238037,-3.81497,0,0,0,0,0,0,0,-1,1693,435,0.0237965,3.81498
476,589,0,0,0,0,0,0,0,0,0,-1,1700,435,0,0
483,589,0,0,0,0,0,0,0,0,0,-1,1707,435,0,0
490,589,0,0,0,0,0,0,0,0,0,-1,1714,435,0,0
497,589,0,0,0,0,0,0,0,0,0,-1,1721,435,0,0
504,589,0,0,0,0,0,0,0,0,0,-1,1728,435,0,0
511,589,0,0,0,0,0,0,0,0,0,-1,1735,435,0,0
518,589,0,0,0,0,0,0,0,0,0,-1,1742,435,0,0
525,589,0,0,0,0,0,0,0,0,0,-1,1749,435,0,0
532,589,0,0,0,0,0,0,0,0,0,-1,1756,435,0,0
539,589,0,0,0,0,0,0,0,0,0,-1,1763,435,0,0
546,589,0,0,0,0,0,0,0,0,0,-1,1770,435,0,0
553,589,0,0,0,0,0,0,0,0,0,-1,1777,435,0,0
560,589,0,0,0,0,0,0,0,0,0,-1,1784,435,0,0
567,589,0,0,0,0,0,0,0,0,0,-1,1791,435,0,0
574,589,0,0,0,0,0,0,0,0,0,-1,1798,435,0,0
581,589,0,0,0,0,0,0,0,0,0,-1,1805,435,0,0
588,589,0,0,0,0,0,0,0,0,0,-1,1812,435,0,0
595,589,0,0,0,0,0,0,0,0,0,-1,1819,435,0,0
602,589,0,0,0,0,0,0,0,0,0,-1,1826,435,0,0
609,589,0,0,0,0,0,0,0,0,0,-1,1833,435,0,0
616,589,0,0,0,0,0,0,0,0,0,-1,1840,435,0,0
623,589,0,0,0,0,0,0,0,0,0,-1,1847,435,0,0
630,589,0,0,0,0,0,0,0,0,0,-1,1854,435,0,0
637,589,0,0,0,0,0,0,0,0,0,-1,1861,435,0,0
644,589,0,0,0,0,0,0,0,0,0,-1,1868,435,0,0
651,589,0,0,0,0,0,0,0,0,0,-1,1875,435,0,0
658,589,0,0,0,0,0,0,0,0,0,-1,1882,435,0,0
665,589,0,0,0,0,0,0,0,0,0,-1,1889,435,0,0
672,589,0,0,0,0,0,0,0,0,0,-1,1896,435,0,0
679,589,0,0,0,0,0,0,0,0,0,-1,1903,435,0,0
686,589,0,0,0,0,0,0,0,0,0,-1,1910,435,0,0
693,589,0,0,0,0,0,0,0,0,0,-1,1917,435,0,0
700,589,0,0,0,0,0,0,0,0,0,-1,1924,435,0,0
707,589,0,0,0,0,0,0,0,0,0,-1,1931,435,0,0
714,589,0,0,0,0,0,0,0,0,0,-1,1938,435,0,0
721,589,0,0,0,0,0,0,0,0,0,-1,1945,435,0,0
728,589,0,0,0,0,0,0,0,0,0,-1,1952,435,0,0
735,589,0,0,0,0,0,0,0,0,0,-1,1959,435,0,0
742,589,0,0,0,0,0,0,0,0,0,-1,1966,435,0,0
749,589,0,0,0,0,0,0,0,0,0,-1,1973,435,0,0
756,589,0,0,0,0,0,0,0,0,0,-1,1980,435,0,0
763,589,0,0,0,0,0,0,0,0,0,-1,1987,435,0,0
770,589,0,0,0,0,0,0,0,0,0,-1,1994,435,0,0
777,589,0,0,0,0,0,0,0,0,0,-1,2001,435,0,0
784,589,0,0,0,0,0,0,0,0,0,-1,2008,435,0,0
791,589,0,0,0,0,0,0,0,0,0,-1,2015,435,0,0
798,589,0,0,0,0,0,0,0,0,0,-1,2022,435,0,0
805,589,0,0,0,0,0,0,0,0,0,-1,2029,435,0,0
812,589,0,0,0,0,0,0,0,0,0,-1,2036,435,0,0
-700,582,0,0,0,0,0,0,0,0,0,-1,524,442,0,0
-693,582,0,0,0,0,0,0,0,0,0,-1,531,442,0,0
-686,582,0,0,0,0,0,0,0,0,0,-1,538,442,0,0
-679,582,0,0,0,0,0,0,0,0,0,-1,545,442,0,0
-672,582,0,0,0,0,0,0,0,0,0,-1,552,442,0,0
-665,582,0,0,0,0,0,0,0,0,0,-1,559,442,0,0
-658,582,0,0,0,0,0,0,0,0,0,-1,566,442,0,0
-651,582,0,0,0,0,0,0,0,0,0,-1,573,442,0,0
-644,582,0,0,0,0,0,0,0,0,0,-1,580,442,0,0
-637,582,0,0,0,0,0,0,0,0,0,-1,587,442,0,0
-630,582,0,0,0,0,0,0,0,0,0,-1,594,442,0,0
-623,582,0,0,0,0,0,0,0,0,0,-1,601,442,0,0
-616,582,0,0,0,0,0,0,0,0,0,-1,608,442,0,0
-609,582,0,0,0,0,0,0,0,0,0,-1,615,442,0,0
-602,582,0,0,0,0,0,0,0,0,0,-1,622,442,0,0
-595,582,0,0,0,0,0,0,0,0,0,-1,629,442,0,0
-588,582,0,0,0,0,0,0,0,0,0,-1,636,442,0,0
-581,582,0,0,0,0,0,0,0,0,0,-1,643,442,0,0
-574,582,0,0,0,0,0,0,0,0,0,-1,650,442,0,0
-567,582,0,0,0,0,0,0,0,0,0,-1,657,442,0,0
-560,582,0,0,0,0,0,0,0,0,0,-1,664,442,0,0
-553,582,0,0,0,0,0,0,0,0,0,-1,671,442,0,0
-546,582,0,0,0,0,0,0,0,0,0,-1,678,442,0,0
-539,582,0,0,0,0,0,0,0,0,0,-1,685,442,0,0
-532,582,0,0,0,0,0,0,0,0,0,-1,692,442,0,0
-525,582,0,0,0,0,0,0,0,0,0,-1,699,442,0,0
-518,582,0,0,0,0,0,0,0,0,0,-1,706,442,0,0
-511,582,0,0,0,0,0,0,0,0,0,-1,713,442,0,0
-504,582,0,0,0,0,0,0,0,0,0,-1,720,442,0,0
-497,582,0,0,0,0,0,0,0,0,0,-1,727,442,0,0
-490,582,0,0,0,0,0,0,0,0,0,-1,734,442,0,0
-483,582,0,0,0,0,0,0,0,0,0,-1,741,442,0,0
-476,582,0,0,0,0,0,0,0,0,0,-1,748,442,0,0
-469,582,0,0,0,0,0,0,0,0,0,-1,755,442,0,0
-462,582,0,0,0,0,0,0,0,0,0,-1,762,442,0,0
-455,582,0,0,0,0,0,0,0,0,0,-1,769,442,0,0
-448,582,0,0,0,0,0,0,0,0,0,-1,776,442,0,0
-441,582,0,0,0,0,0,0,0,0,0,-1,783,442,0,0
-434,582,0,0,0,0,0,0,0,0,0,-1,790,442,0,0
-427,582,0,0,0,0,0,0,0,0,0,-1,797,442,0,0
-420,582,0,0,0,0,0,0,0,0,0,-1,804,442,0,0
-413,582,0,0,0,0,0,0,0,0,0,-1,811,442,0,0
-406,582,0,0,0,0,0,0,0,0,0,-1,818,442,0,0
-399,582,0,0,0,0,0,0,0,0,0,-1,825,442,0,0
-392,582,0,0,0,0,0,0,0,0,0,-1,832,442,0,0
-385,582,0,0,0,0,0,0,0,0,0,-1,839,442,0,0
-378,582,0,0,0,0,0,0,0,0,0,-1,846,442,0,0
-371,582,0,0,0,0,0,0,0,0,0,-1,853,442,0,0
-364,582,0,0,0,0,0,0,0,0,0,-1,860,442,0,0
-357,582,-1.4903,-21.5295,0,0,0,0,0,0,0,-1,867,442,-1.49031,21.5295
-350,582,-0.880859,-19.7966,0,0,0,0,0,0,0,-1,874,442,-0.880885,19.7966
-343,582,-0.208557,-18.0078,0,0,0,0,0,0,0,-1,881,442,-0.208576,18.0078
-336,582,-0.167114,-18.7637,0,0,0,0,0,0,0,-1,888,442,-0.167108,18.7637
-329,582,2.20691,-15.373,0,0,0,0,0,0,0,-1,895,442,2.20692,15.3731
-322,582,1.74054,-15.2043,0,0,0,0,0,0,0,-1,902,442,1.74053,15.2043
-315,582,1.94525,-16.0684,0,0,0,0,0,0,0,-1,909,442,1.94526,16.0684
-308,582,2.45782,-17.718,0,0,0,0,0,0,0,-1,916,442,2.45784,17.718
-301,582,2.34546,-18.4487,0.00725955,0.00645059,-0.0140744,0.0209352,-0.0072251,-0.771033,0.0168885,0.0451347,923,442,2.34545,18.4487
-294,582,2.34717,-18.8972,0.0054199,0.00398175,-0.0115363,0.0162595,-0.00685782,-0.754273,0.0137098,0.0437324,930,442,2.34718,18.8972
-287,582,2.40521,-19.1086,0.00366936,0.00227064,-0.0094354,0.0124313,-0.00649129,-0.748405,0.0111029,0.035077,937,442,2.40522,19.1085
-280,582,2.45972,-19.4461,0.00232974,0.00224424,-0.00773913,0.0100262,-0.00545225,-0.782636,0.00906564,0.0170665,944,442,2.45973,19.4461
-273,582,2.45264,-19.8781,0.00146127,0.00201662,-0.00670853,0.00845322,-0.00497533,-0.806082,0.00783917,0.0109103,951,442,2.45265,19.8782
-266,582,2.42047,-20.2991,0.00051607,0.0018632,-0.00527575,0.00650821,-0.00412894,-0.848891,0.00619236,0.0100735,958,442,2.42046,20.2991
-259,582,2.38611,-20.7062,-0.000311324,0.00203741,-0.00407109,0.00510013,-0.00337405,-0.925819,0.00492629,0.00873738,965,442,2.38608,20.7062
-252,582,2.36725,-21.1011,-0.000697093,0.00264495,-0.0033923,0.00475546,-0.00280761,-1.01425,0.00441455,0.00889059,972,442,2.36725,21.1011
-245,582,2.36938,-21.4559,-0.000772688,0.0031094,-0.00282716,0.00459771,-0.002261,-1.08623,0.00403576,0.01229,979,442,2.36939,21.4559
-238,582,2.35449,-21.8123,-0.00108263,0.0035387,-0.00249836,0.00463112,-0.00217505,-1.15859,0.00401392,0.0158503,986,442,2.35452,21.8123
-231,582,2.33661,-22.1592,-0.000817142,0.00265845,-0.00187661,0.00347831,-0.001637,-1.1589,0.00301643,0.0124421,993,442,2.33659,22.1592
-224,582,2.31812,-22.5227,-0.000598694,0.00168488,-0.0012445,0.00223201,-0.00114583,-1.15659,0.00198352,0.0100458,1000,442,2.31811,22.5227
-217,582,2.30054,-22.8899,-0.000255552,0.000572046,-0.000677379,0.000952018,-0.000635523,-1.05959,0.000922619,0.0117462,1007,442,2.30054,22.8899
-210,582,2.302,-23.1989,-5.30036e-05,-0.000563971,-9.38556e-05,-3.63094e-05,-0.000580666,-0.17603,0.000375593,0.0123439,1014,442,2.30202,23.1989
-203,582,2.3103,-23.5178,0.000118191,-0.00164784,0.000250633,0.000153072,-0.00168272,0.138282,0.00117617,0.0100851,1021,442,2.31033,23.5178
-196,582,2.3114,-23.8691,0.000332379,-0.00264426,0.000577138,0.000440363,-0.00275224,0.184963,0.00199786,0.0147714,1028,442,2.3114,23.8691
-189,582,2.28833,-24.1955,0.000663714,-0.00356899,0.000817905,0.000816264,-0.00372154,0.184394,0.00279316,0.0218243,1035,442,2.28829,24.1955
-182,582,2.2771,-24.4905,0.00100052,-0.00447229,0.00105719,0.00119764,-0.0046694,0.184339,0.00357957,0.0159899,1042,442,2.27704,24.4905
-175,582,2.30249,-24.7607,0.00134182,-0.00559504,0.00125461,0.00156176,-0.00581498,0.17354,0.00448873,0.0137255,1049,442,2.30249,24.7607
-168,582,2.31897,-25.0639,0.00168353,-0.00662901,0.00127307,0.00187413,-0.00681961,0.148614,0.00528311,0.0115519,1056,442,2.31896,25.0639
-161,582,2.32483,-25.3406,0.00206871,-0.00771345,0.00120666,0.00221536,-0.0078601,0.120938,0.00611381,0.0128999,1063,442,2.32481,25.3406
-154,582,2.34485,-25.6105,0.00253381,-0.00874848,0.00108036,0.00263633,-0.008851,0.0946113,0.00694821,0.012796,1070,442,2.34481,25.6105
-147,582,2.36169,-25.8883,0.00315875,-0.00949636,0.000967041,0.00323222,-0.00956983,0.0758283,0.00768724,0.0121193,1077,442,2.36166,25.8883
-140,582,2.35461,-26.1431,0.00383,-0.0103512,0.000708902,0.00386535,-0.0103866,0.0498233,0.00851062,0.0131166,1084,442,2.35463,26.1431
-133,582,2.41162,-26.3952,0.0042576,-0.0115722,0.000634617,0.004283,-0.0115976,0.0400044,0.00948734,0.0158147,1091,442,2.41158,26.3952
-126,582,2.42175,-26.5878,0.00483968,-0.0129395,0.000526532,0.00485526,-0.0129551,0.0295805,0.0106314,0.0140207,1098,442,2.42171,26.5878
-119,582,2.39929,-26.7687,0.00552576,-0.0141572,0.000279031,0.00552971,-0.0141611,0.0141725,0.0117269,0.0173822,1105,442,2.39924,26.7687
-112,582,2.40051,-27.0095,0.00623395,-0.0148191,5.67426e-06,0.00623395,-0.0148191,0.000269522,0.0124873,0.0273378,1112,442,2.4005,27.0095
-105,582,2.51709,-27.276,0.00693677,-0.0149721,-0.000290694,0.00694062,-0.014976,-0.0132652,0.0129339,0.0424093,1119,442,2.51703,27.276
-98,582,2.52686,-27.5916,0,0,0,0,0,0,0,-1,1126,442,2.5269,27.5916
-91,582,2.16492,-24.1119,0,0,0,0,0,0,0,-1,1133,442,2.16496,24.1119
-84,582,2.10278,-16.7533,0,0,0,0,0,0,0,-1,1140,442,2.10279,16.7533
-77,582,2.30212,-11.4907,0,0,0,0,0,0,0,-1,1147,442,2.30207,11.4907
-70,582,1.49255,-6.36548,0,0,0,0,0,0,0,-1,1154,442,1.49251,6.36549
-63,582,-4.62915,-4.0347,0,0,0,0,0,0,0,-1,1161,442,-4.6292,4.03471
-56,582,-5.81714,-5.24149,0,0,0,0,0,0,0,-1,1168,442,-5.81718,5.24149
-49,582,-3.88672,-10.1064,0,0,0,0,0,0,0,-1,1175,442,-3.88678,10.1064
-42,582,-0.948975,1.13968,0,0,0,0,0,0,0,-1,1182,442,-0.949003,-1.13969
-35,582,-2.58435,-3.86911,0,0,0,0,0,0,0,-1,1189,442,-2.58437,3.86912
-28,582,-0.825317,-3.45941,0,0,0,0,0,0,0,-1,1196,442,-0.825377,3.45942
-21,582,2.32227,-29.5568,0,0,0,0,0,0,0,-1,1203,442,2.32232,29.5568
-14,582,2.23901,-29.968,-0.00437078,-0.0303667,-0.00594907,-0.00307404,-0.0316634,-0.214616,0.0201625,0.0452403,1210,442,2.23895,29.968
-7,582,2.3728,-30.416,0,0,0,0,0,0,0,-1,1217,442,2.37284,30.416
0,582,2.62585,-30.5997,0.0117458,-0.027446,-0.000306608,0.0117482,-0.0274484,-0.00782263,0.0232274,0.0497326,1224,442,2.62585,30.5997
7,582,2.45361,-30.9628,0.0201238,-0.024515,0.00285181,0.0203053,-0.0246964,0.0635421,0.0260229,0.0469417,1231,442,2.45357,30.9628
14,582,2.24609,-31.2265,0.0274227,-0.0203146,0.00556579,0.028063,-0.0209549,0.114545,0.0283996,0.0474766,1238,442,2.24609,31.2265
21,582,2.16248,-31.6506,0.0331928,-0.0151346,0.00754317,0.0343428,-0.0162846,0.151292,0.0298431,0.0444917,1245,442,2.16245,31.6506
28,582,1.93518,-32.2337,0.0370233,-0.00900181,0.00848575,0.038538,-0.0105165,0.176638,0.0298221,0.0442454,1252,442,1.93514,32.2337
35,582,3.5697,-29.7612,0.0389455,-0.00309055,0.00846102,0.0405847,-0.00472967,0.191356,0.0287629,0.0476922,1259,442,3.56969,29.7612
42,582,3.77026,-29.5238,0.0391142,0.00166569,0.00737932,0.0405159,0.000264041,0.187707,0.026923,0.0477883,1266,442,3.77028,29.5238
49,582,4.18201,-29.7861,0.0372196,0.00681332,0.00472573,0.0379371,0.00609578,0.150686,0.0235242,0.0448775,1273,442,4.18206,29.7861
56,582,4.26904,-29.6519,0.034425,0.0107258,0.00128427,0.0344944,0.0106564,0.0539799,0.0203943,0.0423038,1280,442,4.26909,29.6519
63,582,4.2666,-29.3494,0.0321626,0.0148116,-0.00209978,0.032413,0.0145611,-0.118734,0.0187458,0.0400913,1287,442,4.26659,29.3494
70,582,4.11401,-29.0629,0.028363,0.0161843,-0.00481496,0.0300366,0.0145106,-0.334528,0.0173449,0.0447906,1294,442,4.11398,29.0629
77,582,4.37073,-28.8848,0.0223204,0.0123424,-0.00822368,0.0269501,0.00771272,-0.512746,0.0160268,0.0471242,1301,442,4.37068,28.8848
84,582,4.53552,-28.7534,0,0,0,0,0,0,0,-1,1308,442,4.53556,28.7535
91,582,5.84106,-27.2661,0.0090729,-0.00275933,-0.0111576,0.0157858,-0.00947222,-0.541628,0.0147338,0.0469802,1315,442,5.84109,27.2661
98,582,6.15881,-26.9424,0.00339084,-0.0129593,-0.0107804,0.0087453,-0.0183137,-0.460993,0.0159448,0.0488617,1322,442,6.15882,26.9424
105,582,6.02502,-26.548,0.00102039,-0.0226599,-0.0110487,0.00537478,-0.0270142,-0.375417,0.0200428,0.0472402,1329,442,6.02507,26.548
112,582,6.96631,-28.7419,0,0,0,0,0,0,0,-1,1336,442,6.96634,28.7419
119,582,6.33081,-28.0832,-0.000803563,-0.0371248,-0.0118824,0.00273833,-0.0406667,-0.289694,0.0280685,0.0448333,1343,442,6.33085,28.0832
126,582,6.01257,-27.2207,-0.00201622,-0.0445526,-0.0106704,0.0005104,-0.0470792,-0.232506,0.0315576,0.0456852,1350,442,6.01263,27.2207
133,582,5.47021,-26.5153,-0.00320111,-0.0512766,-0.0094703,-0.00140284,-0.0530749,-0.187651,0.034925,0.0460404,1357,442,5.47016,26.5153
140,582,4.6543,-25.9457,-0.00232541,-0.0540242,-0.00841833,-0.000989154,-0.0553604,-0.157418,0.0365817,0.0463685,1364,442,4.65424,25.9457
147,582,4.38,-25.1817,0.000404168,-0.0537611,-0.00808651,0.00158566,-0.0549426,-0.14508,0.0371682,0.0476092,1371,442,4.38006,25.1817
154,582,4.48291,-24.4961,0.00388343,-0.0513444,-0.00881214,0.0052554,-0.0527164,-0.154452,0.0370206,0.0437728,1378,442,4.48296,24.4961
161,582,4.75354,-23.5409,0.00718959,-0.0464474,-0.0104854,0.00916651,-0.0484243,-0.186352,0.0357324,0.0454354,1385,442,4.75351,23.5409
168,582,5.26526,-22.6048,0,0,0,0,0,0,0,-1,1392,442,5.26523,22.6048
175,582,6.50549,-2.00424,0,0,0,0,0,0,0,-1,1399,442,6.50546,2.00425
182,582,5.18958,-2.18652,0,0,0,0,0,0,0,-1,1406,442,5.1896,2.18652
189,582,6.19751,-0.880951,0,0,0,0,0,0,0,-1,1413,442,6.19754,0.88096
196,582,4.87354,-2.22327,0,0,0,0,0,0,0,-1,1420,442,4.87348,2.22325
203,582,3.11401,-4.48257,0,0,0,0,0,0,0,-1,1427,442,3.11404,4.48259
210,582,2.93115,-11.0731,0,0,0,0,0,0,0,-1,1434,442,2.93113,11.0731
217,582,4.94092,-16.5476,0,0,0,0,0,0,0,-1,1441,442,4.94087,16.5476
224,582,5.21008,-20.9908,0,0,0,0,0,0,0,-1,1448,442,5.21006,20.9908
231,582,5.70032,-25.622,0,0,0,0,0,0,0,-1,1455,442,5.70026,25.6221
238,582,5.94397,-26.8598,0,0,0,0,0,0,0,-1,1462,442,5.94401,26.8598
245,582,6.05017,-26.5348,0,0,0,0,0,0,0,-1,1469,442,6.05012,26.5348
252,582,6.05847,-26.2053,0.00347402,0.0032133,-1.85226e-05,0.00347533,0.00321199,-0.0705711,0.00223428,0.0353668,1476,442,6.05843,26.2053
259,582,5.96753,-25.9315,0.00354914,0.0020117,-0.000130198,0.00356009,0.00200075,-0.0838886,0.00206068,0.027397,1483,442,5.96751,25.9315
266,582,5.96655,-25.6233,0.00357613,0.000994531,-0.000234317,0.00359722,0.000973435,-0.0897866,0.00214848,0.0193192,1490,442,5.96655,25.6233
273,582,6.04736,-25.2867,0.00356894,0.000323867,-0.000254473,0.00358877,0.000304033,-0.0777846,0.00229789,0.0157911,1497,442,6.0474,25.2867
280,582,6.05408,-25.0014,0.00317943,-0.000587291,-0.000457931,0.0032343,-0.000642164,-0.119259,0.00239908,0.0129557,1504,442,6.05402,25.0014
287,582,6.07263,-24.6638,0.00283462,-0.00113956,-0.000624324,0.00293039,-0.00123533,-0.152212,0.00247056,0.0116099,1511,442,6.07258,24.6638
294,582,6.09595,-24.3289,0.00260948,-0.00130545,-0.000655868,0.00271644,-0.0014124,-0.161652,0.00242309,0.00936694,1518,442,6.09589,24.329
301,582,6.09424,-23.9863,0.00236913,-0.00145354,-0.000613867,0.00246529,-0.0015497,-0.155383,0.00233806,0.00962895,1525,442,6.09429,23.9863
308,582,6.09253,-23.638,0.00222929,-0.00149812,-0.000451307,0.00228315,-0.00155199,-0.118791,0.00222759,0.0121591,1532,442,6.09247,23.638
315,582,6.08496,-23.2981,0.0020365,-0.00125757,-0.000262289,0.00205726,-0.00127832,-0.0789616,0.00194322,0.0129308,1539,442,6.08498,23.2981
322,582,6.10413,-22.9661,0.00183162,-0.00081241,5.2501e-05,0.00183266,-0.000813452,0.019846,0.00156505,0.010393,1546,442,6.10415,22.9661
329,582,6.10425,-22.6378,0.00167019,-0.000271822,0.000465974,0.00177621,-0.000377841,0.223714,0.00132813,0.0101013,1553,442,6.10428,22.6378
336,582,6.09106,-22.2983,0.00155838,0.000280551,0.000902516,0.00202524,-0.000186313,0.477385,0.00141636,0.0102297,1560,442,6.09109,22.2983
343,582,6.09619,-21.93,0.00144905,0.000920123,0.00136871,0.00257862,-0.00020944,0.689963,0.00179297,0.0132885,1567,442,6.09617,21.93
350,582,6.08777,-21.5618,0.00134905,0.00177787,0.00188608,0.00346169,-0.000334772,0.841996,0.00242709,0.0170854,1574,442,6.08781,21.5618
357,582,6.06763,-21.1594,0.00118226,0.00261029,0.00240341,0.00440351,-0.000610957,0.929787,0.00315908,0.0136062,1581,442,6.06761,21.1594
364,582,6.05786,-20.7727,0.000932463,0.00350262,0.00288204,0.00537311,-0.000938023,0.995114,0.00393222,0.0105067,1588,442,6.05781,20.7727
371,582,6.04907,-20.3937,0.000685183,0.0043559,0.00333167,0.0063243,-0.00128322,1.03716,0.00470266,0.0152421,1595,442,6.04909,20.3937
378,582,6.0459,-20.0197,0.000370026,0.00533403,0.00369307,0.00730164,-0.00159759,1.08127,0.00547849,0.0168507,1602,442,6.04586,20.0198
385,582,6.03235,-19.6271,-0.000183092,0.00610057,0.00374877,0.00785,-0.00193251,1.13417,0.00598246,0.0120687,1609,442,6.03233,19.6271
392,582,5.98267,-19.2051,-0.00067545,0.0067603,0.00383118,0.00838101,-0.00229617,1.17059,0.00648958,0.0103281,1616,442,5.9827,19.2051
399,582,5.94543,-18.823,-0.000803939,0.00785407,0.00442753,0.00971726,-0.00266713,1.17247,0.00752643,0.0172637,1623,442,5.94546,18.823
406,582,5.97034,-18.2831,-0.00105792,0.00921494,0.00500999,0.0112537,-0.00309664,1.18433,0.00871991,0.0305753,1630,442,5.97031,18.2831
413,582,5.88831,-17.752,-0.00141959,0.0100943,0.00533906,0.012189,-0.00351427,1.19692,0.00951623,0.049097,1637,442,5.88828,17.7521
420,582,5.82043,-17.2525,0,0,0,0,0,0,0,-1,1644,442,5.82044,17.2525
427,582,5.7666,-17.1901,0,0,0,0,0,0,0,-1,1651,442,5.76659,17.1901
434,582,5.5802,-16.8319,0,0,0,0,0,0,0,-1,1658,442,5.58025,16.8319
441,582,4.53979,-12.7726,0,0,0,0,0,0,0,-1,1665,442,4.53983,12.7726
448,582,6.09937,-15.6081,0,0,0,0,0,0,0,-1,1672,442,6.09938,15.6081
455,582,5.42798,-14.5964,0,0,0,0,0,0,0,-1,1679,442,5.42802,14.5964
462,582,5.23889,-13.8567,0,0,0,0,0,0,0,-1,1686,442,5.23885,13.8567
469,582,4.77759,-10.3864,0,0,0,0,0,0,0,-1,1693,442,4.77756,10.3864
476,582,1.93579,-8.53891,0,0,0,0,0,0,0,-1,1700,442,1.93579,8.53892
483,582,0,0,0,0,0,0,0,0,0,-1,1707,442,0,0
490,582,0,0,0,0,0,0,0,0,0,-1,1714,442,0,0
497,582,0,0,0,0,0,0,0,0,0,-1,1721,442,0,0
504,582,0,0,0,0,0,0,0,0,0,-1,1728,442,0,0
511,582,0,0,0,0,0,0,0,0,0,-1,1735,442,0,0
518,582,0,0,0,0,0,0,0,0,0,-1,1742,442,0,0
525,582,0,0,0,0,0,0,0,0,0,-1,1749,442,0,0
532,582,0,0,0,0,0,0,0,0,0,-1,1756,442,0,0
539,582,0,0,0,0,0,0,0,0,0,-1,1763,442,0,0
546,582,0,0,0,0,0,0,0,0,0,-1,1770,442,0,0
553,582,0,0,0,0,0,0,0,0,0,-1,1777,442,0,0
560,582,0,0,0,0,0,0,0,0,0,-1,1784,442,0,0
567,582,0,0,0,0,0,0,0,0,0,-1,1791,442,0,0
574,582,0,0,0,0,0,0,0,0,0,-1,1798,442,0,0
581,582,0,0,0,0,0,0,0,0,0,-1,1805,442,0,0
588,582,0,0,0,0,0,0,0,0,0,-1,1812,442,0,0
595,582,0,0,0,0,0,0,0,0,0,-1,1819,442,0,0
602,582,0,0,0,0,0,0,0,0,0,-1,1826,442,0,0
609,582,0,0,0,0,0,0,0,0,0,-1,1833,442,0,0
616,582,0,0,0,0,0,0,0,0,0,-1,1840,442,0,0
623,582,0,0,0,0,0,0,0,0,0,-1,1847,442,0,0
630,582,0,0,0,0,0,0,0,0,0,-1,1854,442,0,0
637,582,0,0,0,0,0,0,0,0,0,-1,1861,442,0,0
644,582,0,0,0,0,0,0,0,0,0,-1,1868,442,0,0
651,582,0,0,0,0,0,0,0,0,0,-1,1875,442,0,0
658,582,0,0,0,0,0,0,0,0,0,-1,1882,442,0,0
665,582,0,0,0,0,0,0,0,0,0,-1,1889,442,0,0
672,582,0,0,0,0,0,0,0,0,0,-1,1896,442,0,0
679,582,0,0,0,0,0,0,0,0,0,-1,1903,442,0,0
686,582,0,0,0,0,0,0,0,0,0,-1,1910,442,0,0
693,582,0,0,0,0,0,0,0,0,0,-1,1917,442,0,0
700,582,0,0,0,0,0,0,0,0,0,-1,1924,442,0,0
707,582,0,0,0,0,0,0,0,0,0,-1,1931,442,0,0
714,582,0,0,0,0,0,0,0,0,0,-1,1938,442,0,0
721,582,0,0,0,0,0,0,0,0,0,-1,1945,442,0,0
728,582,0,0,0,0,0,0,0,0,0,-1,1952,442,0,0
735,582,0,0,0,0,0,0,0,0,0,-1,1959,442,0,0
742,582,0,0,0,0,0,0,0,0,0,-1,1966,442,0,0
749,582,0,0,0,0,0,0,0,0,0,-1,1973,442,0,0
756,582,0,0,0,0,0,0,0,0,0,-1,1980,442,0,0
763,582,0,0,0,0,0,0,0,0,0,-1,1987,442,0,0
770,582,0,0,0,0,0,0,0,0,0,-1,1994,442,0,0
777,582,0,0,0,0,0,0,0,0,0,-1,2001,442,0,0
784,582,0,0,0,0,0,0,0,0,0,-1,2008,442,0,0
791,582,0,0,0,0,0,0,0,0,0,-1,2015,442,0,0
798,582,0,0,0,0,0,0,0,0,0,-1,2022,442,0,0
805,582,0,0,0,0,0,0,0,0,0,-1,2029,442,0,0
812,582,0,0,0,0,0,0,0,0,0,-1,2036,442,0,0
-700,575,0,0,0,0,0,0,0,0,0,-1,524,449,0,0
-693,575,0,0,0,0,0,0,0,0,0,-1,531,449,0,0
-686,575,0,0,0,0,0,0,0,0,0,-1,538,449,0,0
-679,575,0,0,0,0,0,0,0,0,0,-1,545,449,0,0
-672,575,0,0,0,0,0,0,0,0,0,-1,552,449,0,0
-665,575,0,0,0,0,0,0,0,0,0,-1,559,449,0,0
-658,575,0,0,0,0,0,0,0,0,0,-1,566,449,0,0
-651,575,0,0,0,0,0,0,0,0,0,-1,573,449,0,0
-644,575,0,0,0,0,0,0,0,0,0,-1,580,449,0,0
-637,575,0,0,0,0,0,0,0,0,0,-1,587,449,0,0
-630,575,0,0,0,0,0,0,0,0,0,-1,594,449,0,0
-623,575,0,0,0,0,0,0,0,0,0,-1,601,449,0,0
-616,575,0,0,0,0,0,0,0,0,0,-1,608,449,0,0
-609,575,0,0,0,0,0,0,0,0,0,-1,615,449,0,0
-602,575,0,0,0,0,0,0,0,0,0,-1,622,449,0,0
-595,575,0,0,0,0,0,0,0,0,0,-1,629,449,0,0
-588,575,0,0,0,0,0,0,0,0,0,-1,636,449,0,0
-581,575,0,0,0,0,0,0,0,0,0,-1,643,449,0,0
-574,575,0,0,0,0,0,0,0,0,0,-1,650,449,0,0
-567,575,0,0,0,0,0,0,0,0,0,-1,657,449,0,0
-560,575,0,0,0,0,0,0,0,0,0,-1,664,449,0,0
-553,575,0,0,0,0,0,0,0,0,0,-1,671,449,0,0
-546,575,0,0,0,0,0,0,0,0,0,-1,678,449,0,0
-539,575,0,0,0,0,0,0,0,0,0,-1,685,449,0,0
-532,575,0,0,0,0,0,0,0,0,0,-1,692,449,0,0
-525,575,0,0,0,0,0,0,0,0,0,-1,699,449,0,0
-518,575,0,0,0,0,0,0,0,0,0,-1,706,449,0,0
-511,575,0,0,0,0,0,0,0,0,0,-1,713,449,0,0
-504,575,0,0,0,0,0,0,0,0,0,-1,720,449,0,0
-497,575,0,0,0,0,0,0,0,0,0,-1,727,449,0,0
-490,575,0,0,0,0,0,0,0,0,0,-1,734,449,0,0
-483,575,0,0,0,0,0,0,0,0,0,-1,741,449,0,0
-476,575,0,0,0,0,0,0,0,0,0,-1,748,449,0,0
-469,575,0,0,0,0,0,0,0,0,0,-1,755,449,0,0
-462,575,0,0,0,0,0,0,0,0,0,-1,762,449,0,0
-455,575,0,0,0,0,0,0,0,0,0,-1,769,449,0,0
-448,575,0,0,0,0,0,0,0,0,0,-1,776,449,0,0
-441,575,0,0,0,0,0,0,0,0,0,-1,783,449,0,0
-434,575,0,0,0,0,0,0,0,0,0,-1,790,449,0,0
-427,575,0,0,0,0,0,0,0,0,0,-1,797,449,0,0
-420,575,0,0,0,0,0,0,0,0,0,-1,804,449,0,0
-413,575,0,0,0,0,0,0,0,0,0,-1,811,449,0,0
-406,575,0,0,0,0,0,0,0,0,0,-1,818,449,0,0
-399,575,0,0,0,0,0,0,0,0,0,-1,825,449,0,0
-392,575,0,0,0,0,0,0,0,0,0,-1,832,449,0,0
-385,575,0,0,0,0,0,0,0,0,0,-1,839,449,0,0
-378,575,0,0,0,0,0,0,0,0,0,-1,846,449,0,0
-371,575,0.56897,-3.52304,0,0,0,0,0,0,0,-1,853,449,0.568955,3.52306
-364,575,1.49805,-4.67191,0,0,0,0,0,0,0,-1,860,449,1.49803,4.6719
-357,575,3.15521,-8.29892,0,0,0,0,0,0,0,-1,867,449,3.15521,8.29891
-350,575,-0.825928,-18.5347,0,0,0,0,0,0,0,-1,874,449,-0.825948,18.5347
-343,575,0.465393,-16.3569,0,0,0,0,0,0,0,-1,881,449,0.465397,16.3569
-336,575,1.76959,-15.7266,0,0,0,0,0,0,0,-1,888,449,1.76957,15.7265
-329,575,1.63617,-15.0269,0,0,0,0,0,0,0,-1,895,449,1.63615,15.027
-322,575,1.66974,-15.7041,0.006031,0.0251641,-0.0195511,0.0373636,-0.00616858,-1.01293,0.0271995,0.043785,902,449,1.66974,15.7041
-315,575,1.74243,-16.5919,0.00577361,0.0177861,-0.0168806,0.0296971,-0.00613742,-0.956318,0.0221294,0.0437885,909,449,1.74244,16.5919
-308,575,2.10907,-17.8809,0.00532942,0.0122283,-0.0143068,0.0234957,-0.00593794,-0.903693,0.0179731,0.0437746,916,449,2.1091,17.8809
-301,575,2.1972,-18.2811,0.00464692,0.00812252,-0.0118662,0.0183775,-0.0056081,-0.858106,0.0144875,0.0331196,923,449,2.19719,18.2811
-294,575,2.13806,-18.6925,0.00360015,0.00547633,-0.00975345,0.0143367,-0.00526023,-0.833341,0.0117118,0.0242613,930,449,2.13805,18.6925
-287,575,2.09589,-19.1153,0.00252224,0.00353143,-0.00792584,0.0109687,-0.00491505,-0.817188,0.00938988,0.0174369,937,449,2.09591,19.1153
-280,575,2.10724,-19.5263,0.00168617,0.00282749,-0.00645752,0.00873952,-0.00422585,-0.82947,0.00763527,0.0135745,944,449,2.10725,19.5263
-273,575,2.10107,-19.9193,0.00117932,0.00200635,-0.00546785,0.00707631,-0.00389063,-0.82314,0.00642019,0.0116839,951,449,2.10105,19.9193
-266,575,2.07904,-20.335,0.000542583,0.00129017,-0.00410529,0.00503865,-0.0032059,-0.830799,0.00479903,0.0128017,958,449,2.07903,20.335
-259,575,2.03235,-20.7252,-4.16376e-05,0.000962404,-0.0029273,0.00343042,-0.00250966,-0.87032,0.00344321,0.0123159,965,449,2.03235,20.7252
-252,575,1.98944,-21.1059,-0.000310339,0.00101283,-0.00221899,0.00266677,-0.00196427,-0.930276,0.00268397,0.0116142,972,449,1.98945,21.1059
-245,575,1.98431,-21.462,-0.000352592,0.000919027,-0.00159321,0.00199861,-0.00143217,-0.975252,0.00198974,0.0146684,979,449,1.9843,21.462
-238,575,1.99902,-21.8056,-0.000517715,0.000745927,-0.00115344,0.00142925,-0.00120104,-1.03596,0.00152051,0.013591,986,449,1.99904,21.8056
-231,575,1.99847,-22.1526,-0.000318065,-0.000381279,-0.000505472,0.000156787,-0.000856131,-0.754174,0.000629558,0.0114897,993,449,1.99849,22.1526
-224,575,1.9845,-22.4966,-0.000148753,-0.00157527,0.000169876,-0.000128802,-0.00159522,0.116906,0.00102325,0.011751,1000,449,1.9845,22.4966
-217,575,1.98138,-22.8513,9.7374e-05,-0.00288309,0.000790646,0.000294125,-0.00307984,0.243895,0.00215796,0.00986281,1007,449,1.98141,22.8513
-210,575,1.99792,-23.1919,0.000276002,-0.00421026,0.00137735,0.000665118,-0.00459937,0.275336,0.0033103,0.00876291,1014,449,1.99795,23.1919
-203,575,1.98584,-23.5165,0.000484149,-0.00534901,0.00166908,0.000927967,-0.00579283,0.259892,0.00420548,0.0116757,1021,449,1.98582,23.5165
-196,575,1.98718,-23.8556,0.000731982,-0.00640811,0.00196695,0.00123798,-0.00691411,0.25179,0.00507267,0.0147657,1028,449,1.98713,23.8556
-189,575,1.97913,-24.1721,0.00106357,-0.00730128,0.0021308,0.00157507,-0.00781279,0.235596,0.00580522,0.0156745,1035,449,1.97907,24.1721
-182,575,1.96912,-24.4609,0.00140242,-0.00824564,0.00230678,0.00192558,-0.0087688,0.223022,0.0065823,0.0150066,1042,449,1.96913,24.4609
-175,575,2.00195,-24.752,0.0017829,-0.00927504,0.00243548,0.00229554,-0.00978768,0.20746,0.00740979,0.0127328,1049,449,2.00197,24.7521
-168,575,2.00647,-25.0273,0.00217606,-0.010277,0.00226359,0.00257474,-0.0106756,0.174343,0.0081127,0.011327,1056,449,2.00647,25.0273
-161,575,2.02344,-25.3003,0.00260785,-0.0113964,0.00201064,0.00289081,-0.0116794,0.139811,0.00890762,0.0159201,1063,449,2.02343,25.3003
-154,575,2.04614,-25.5685,0.00313308,-0.0125406,0.00167754,0.00331062,-0.0127181,0.105438,0.00977104,0.0196557,1070,449,2.04614,25.5685
-147,575,2.09827,-25.699,0,0,0,0,0,0,0,-1,1077,449,2.09828,25.699
-140,575,1.94165,-26.0956,0,0,0,0,0,0,0,-1,1084,449,1.9416,26.0956
-133,575,2.16528,-26.2093,0.00527937,-0.0156094,0.000709203,0.00530342,-0.0156334,0.0338994,0.0125688,0.0346931,1091,449,2.16527,26.2093
-126,575,2.15491,-26.1844,0.0059788,-0.0176049,0.000560002,0.00599209,-0.0176182,0.0237274,0.0141716,0.0400422,1098,449,2.15491,26.1844
-119,575,2.09143,-26.4644,0.00683252,-0.019495,0.000251758,0.00683493,-0.0194974,0.00956141,0.015778,0.0377354,1105,449,2.09138,26.4644
-112,575,2.19873,-26.7749,0.00767878,-0.0207002,-7.85109e-05,0.007679,-0.0207005,-0.00276648,0.0169501,0.046196,1112,449,2.1987,26.7749
-105,575,2.19629,-27.0215,0,0,0,0,0,0,0,-1,1119,449,2.19623,27.0215
-98,575,1.521,-25.6961,0,0,0,0,0,0,0,-1,1126,449,1.52105,25.6961
-91,575,1.60803,-16.4247,0,0,0,0,0,0,0,-1,1133,449,1.60802,16.4247
-84,575,1.16553,-11.9056,0,0,0,0,0,0,0,-1,1140,449,1.16558,11.9056
-77,575,0.205078,-11.2584,0,0,0,0,0,0,0,-1,1147,449,0.205117,11.2584
-70,575,-4.2467,-1.78738,0,0,0,0,0,0,0,-1,1154,449,-4.24674,1.78739
-63,575,-4.52209,-3.48798,0,0,0,0,0,0,0,-1,1161,449,-4.5221,3.48796
-56,575,-5.5968,-5.4928,0,0,0,0,0,0,0,-1,1168,449,-5.59683,5.49281
-49,575,-5.96863,-7.17612,0,0,0,0,0,0,0,-1,1175,449,-5.96868,7.1761
-42,575,-0.830322,0.773499,0,0,0,0,0,0,0,-1,1182,449,-0.83038,-0.77351
-35,575,-0.62085,0.205139,0,0,0,0,0,0,0,-1,1189,449,-0.620855,-0.205126
-28,575,0.49292,-3.87988,0,0,0,0,0,0,0,-1,1196,449,0.492941,3.87989
-21,575,2.1134,-30.631,0,0,0,0,0,0,0,-1,1203,449,2.11337,30.631
-14,575,2.02893,-30.8355,0,0,0,0,0,0,0,-1,1210,449,2.02897,30.8355
-7,575,1.94458,-31.0399,0,0,0,0,0,0,0,-1,1217,449,1.94456,31.0399
0,575,2.77661,-30.7732,0.00526438,-0.0361054,-0.00588141,0.00608427,-0.0369253,-0.138511,0.0268755,0.0453028,1224,449,2.77656,30.7731
7,575,2.55713,-31.1134,0.0177102,-0.0316639,-0.00136992,0.0177481,-0.0317018,-0.0277174,0.0289264,0.0460685,1231,449,2.55713,31.1134
14,575,1.85486,-30.5627,0.0284652,-0.025652,0.00242508,0.0285736,-0.0257605,0.0446923,0.0313838,0.046307,1238,449,1.8549,30.5627
21,575,1.73938,-30.9682,0.0370145,-0.0183791,0.00528451,0.0375141,-0.0188787,0.0942662,0.0331457,0.0427591,1245,449,1.73941,30.9682
28,575,1.58398,-31.5148,0.0429359,-0.0101684,0.00694037,0.043828,-0.0110605,0.127833,0.0335194,0.0410635,1252,449,1.58405,31.5148
35,575,3.52466,-29.9462,0.0462477,-0.00241253,0.00737246,0.0473402,-0.003505,0.147112,0.032791,0.04555,1259,449,3.52466,29.9462
42,575,4.21106,-30.3315,0.0473024,0.00408533,0.00659873,0.0482875,0.00310024,0.148191,0.0312097,0.0428012,1266,449,4.21102,30.3315
49,575,4.39453,-30.0041,0.045779,0.0105889,0.00401698,0.0462317,0.0101362,0.112227,0.0280595,0.0436017,1273,449,4.39454,30.0041
56,575,4.3562,-29.7814,0.0429475,0.0154532,0.000473317,0.0429557,0.0154451,0.0172083,0.0251245,0.0444736,1280,449,4.3562,29.7814
63,575,4.24426,-29.5286,0.04056,0.0203399,-0.00307985,0.0410187,0.0198812,-0.147851,0.0236858,0.0441425,1287,449,4.24425,29.5286
70,575,4.1344,-29.2025,0.0366344,0.0219034,-0.00560726,0.0385259,0.0200119,-0.325342,0.0222485,0.0439114,1294,449,4.13434,29.2025
77,575,4.39246,-28.9865,0.0297307,0.0176042,-0.00875595,0.0343178,0.0130171,-0.482571,0.0200049,0.0469673,1301,449,4.39251,28.9866
84,575,4.4353,-29.3799,0.0233365,0.00921873,-0.0100471,0.0285566,0.00399865,-0.479172,0.0178547,0.0474037,1308,449,4.43524,29.3799
91,575,4.34314,-29.551,0,0,0,0,0,0,0,-1,1315,449,4.34315,29.551
98,575,7.62048,-27.0367,0.00699134,-0.0141657,-0.0104811,0.0113044,-0.0184787,-0.390387,0.0173608,0.0483969,1322,449,7.6205,27.0367
105,575,7.45886,-26.6194,0.00419832,-0.0256174,-0.0111288,0.00789405,-0.0293131,-0.32063,0.022637,0.0466237,1329,449,7.45891,26.6194
112,575,7.32544,-26.2234,0,0,0,0,0,0,0,-1,1336,449,7.32544,26.2234
119,575,6.79285,-27.7099,0.00189063,-0.0417294,-0.0133066,0.00562944,-0.0454682,-0.273912,0.0323523,0.0471777,1343,449,6.79283,27.7099
126,575,6.67676,-26.5915,0.00014963,-0.0504073,-0.0123161,0.00299033,-0.053248,-0.226685,0.0365362,0.0469969,1350,449,6.67682,26.5915
133,575,5.53503,-25.7151,-0.00168476,-0.0584129,-0.0113801,0.000513041,-0.0606107,-0.190777,0.0405793,0.0453491,1357,449,5.53501,25.7151
140,575,5.44653,-25.1689,-0.000804207,-0.0617265,-0.0104371,0.000934239,-0.063465,-0.165049,0.0426248,0.0463859,1364,449,5.44657,25.1689
147,575,5.06323,-24.5758,0.00275789,-0.0610134,-0.0104111,0.00441453,-0.06267,-0.1578,0.0433266,0.0488476,1371,449,5.06324,24.5758
154,575,5.25378,-23.7543,0.00730991,-0.057073,-0.0119942,0.00947179,-0.0592348,-0.178328,0.0429963,0.0471816,1378,449,5.25376,23.7543
161,575,5.41174,-22.8993,0.0116129,-0.0496786,-0.0150201,0.0150958,-0.0531615,-0.227857,0.0414007,0.0475752,1385,449,5.41178,22.8993
168,575,5.79114,-21.9183,0,0,0,0,0,0,0,-1,1392,449,5.79118,21.9183
175,575,4.32617,1.93634,0,0,0,0,0,0,0,-1,1399,449,4.32612,-1.93634
182,575,6.3147,-2.88345,0,0,0,0,0,0,0,-1,1406,449,6.31466,2.88346
189,575,6.10449,-1.30817,0,0,0,0,0,0,0,-1,1413,449,6.10455,1.30817
196,575,5.79895,0.818359,0,0,0,0,0,0,0,-1,1420,449,5.79895,-0.81837
203,575,3.29724,-1.46378,0,0,0,0,0,0,0,-1,1427,449,3.29722,1.46377
210,575,2.32739,-7.74503,0,0,0,0,0,0,0,-1,1434,449,2.32741,7.74502
217,575,3.33618,-11.5521,0,0,0,0,0,0,0,-1,1441,449,3.3362,11.5521
224,575,5.51709,-16.3903,0,0,0,0,0,0,0,-1,1448,449,5.51713,16.3903
231,575,5.48572,-20.4595,0,0,0,0,0,0,0,-1,1455,449,5.48571,20.4595
238,575,5.33484,-22.3575,0,0,0,0,0,0,0,-1,1462,449,5.33478,22.3575
245,575,5.59741,-23.513,0,0,0,0,0,0,0,-1,1469,449,5.5974,23.513
252,575,6.40417,-26.5292,0,0,0,0,0,0,0,-1,1476,449,6.40412,26.5292
259,575,6.27649,-26.2534,0,0,0,0,0,0,0,-1,1483,449,6.27651,26.2534
266,575,6.22144,-25.8716,0,0,0,0,0,0,0,-1,1490,449,6.22141,25.8716
273,575,6.276,-25.3807,0,0,0,0,0,0,0,-1,1497,449,6.27599,25.3807
280,575,6.29602,-25.029,0,0,0,0,0,0,0,-1,1504,449,6.29605,25.029
287,575,6.31848,-24.7,0.00426705,-0.0025113,-0.00102688,0.0044192,-0.00266345,-0.147099,0.00413084,0.0256987,1511,449,6.31851,24.7
294,575,6.40906,-24.3328,0.00390302,-0.00290121,-0.0012262,0.00411725,-0.00311544,-0.172964,0.00418913,0.011742,1518,449,6.40906,24.3328
301,575,6.43384,-23.9867,0.00345762,-0.00341856,-0.00139227,0.00372882,-0.00368977,-0.192385,0.00428314,0.00952535,1525,449,6.43384,23.9867
308,575,6.43811,-23.6521,0.00307272,-0.00374244,-0.00144148,0.00336506,-0.00403479,-0.200096,0.00427813,0.010917,1532,449,6.43806,23.6521
315,575,6.4292,-23.3049,0.00253656,-0.00366244,-0.00146711,0.00286624,-0.00399212,-0.221045,0.00397742,0.0111929,1539,449,6.42916,23.3049
322,575,6.45923,-22.9834,0.0019812,-0.00328052,-0.00132048,0.00229399,-0.00359331,-0.232591,0.00342652,0.0100396,1546,449,6.45922,22.9834
329,575,6.45398,-22.6476,0.00151925,-0.00270317,-0.00103202,0.00175799,-0.00294191,-0.227334,0.00274203,0.0105789,1553,449,6.45403,22.6476
336,575,6.43518,-22.2866,0.00116095,-0.00207237,-0.00069142,0.0013026,-0.00221402,-0.202071,0.00205293,0.0117004,1560,449,6.43518,22.2866
343,575,6.45642,-21.9113,0.000843961,-0.00136183,-0.000313889,0.000887758,-0.00140563,-0.138637,0.00133529,0.0120552,1567,449,6.45648,21.9113
350,575,6.45789,-21.5431,0.000644698,-0.00042578,0.000176523,0.000673056,-0.000454138,0.159285,0.000654864,0.0120988,1574,449,6.45784,21.5431
357,575,6.43762,-21.1579,0.00043966,0.000551946,0.000690167,0.00118825,-0.000196644,0.825982,0.000865196,0.0116724,1581,449,6.43767,21.1579
364,575,6.41528,-20.7728,0.000252694,0.00154811,0.00123549,0.00229538,-0.000494577,1.02683,0.00171899,0.0108639,1588,449,6.41525,20.7728
371,575,6.43091,-20.4057,0.000109242,0.00248212,0.00175857,0.00341704,-0.000825687,1.08216,0.00259738,0.0199953,1595,449,6.43095,20.4057
378,575,6.41748,-20.0138,-6.05234e-05,0.00344447,0.00220195,0.00450619,-0.00112224,1.12151,0.00343978,0.0189701,1602,449,6.41748,20.0138
385,575,6.38696,-19.6144,-0.000282668,0.00424153,0.00245145,0.0053151,-0.00135624,1.15802,0.00407149,0.0115398,1609,449,6.38699,19.6144
392,575,6.35706,-19.2194,-0.000457558,0.00491776,0.00274243,0.00606995,-0.00160975,1.17305,0.0046765,0.00933105,1616,449,6.35701,19.2194
399,575,6.34021,-18.8513,-0.000571193,0.00585336,0.0032961,0.00724359,-0.00196142,1.17166,0.00559859,0.0100041,1623,449,6.34016,18.8513
406,575,6.33276,-18.4093,-0.000811469,0.00707872,0.0038331,0.00863421,-0.00236696,1.1853,0.00668627,0.0115468,1630,449,6.33278,18.4093
413,575,6.31104,-17.9536,-0.00115282,0.0078162,0.00415298,0.00944382,-0.00278044,1.19728,0.00739893,0.013609,1637,449,6.31098,17.9536
420,575,6.276,-17.5206,-0.00136429,0.00853262,0.00457821,0.0103256,-0.00315729,1.19752,0.00814284,0.0134822,1644,449,6.27595,17.5206
427,575,6.24097,-17.0898,-0.00110853,0.0090413,0.00524831,0.011267,-0.00333426,1.1697,0.00883505,0.0168498,1651,449,6.24098,17.0898
434,575,6.17151,-16.7751,-0.000853048,0.00994286,0.00602495,0.0126343,-0.00354446,1.15068,0.00981993,0.0286126,1658,449,6.17157,16.7751
441,575,6.14307,-16.4732,0,0,0,0,0,0,0,-1,1665,449,6.14309,16.4732
448,575,6.59912,-15.2939,0,0,0,0,0,0,0,-1,1672,449,6.59909,15.2938
455,575,6.3877,-14.6674,0,0,0,0,0,0,0,-1,1679,449,6.38771,14.6674
462,575,6.11853,-14.2646,0,0,0,0,0,0,0,-1,1686,449,6.11858,14.2646
469,575,5.17517,-14.3408,0,0,0,0,0,0,0,-1,1693,449,5.17517,14.3408
476,575,4.54175,-14.394,0,0,0,0,0,0,0,-1,1700,449,4.54177,14.394
483,575,4.41382,-13.0103,0,0,0,0,0,0,0,-1,1707,449,4.41378,13.0102
490,575,3.98926,-11.4505,0,0,0,0,0,0,0,-1,1714,449,3.9892,11.4505
497,575,0,0,0,0,0,0,0,0,0,-1,1721,449,0,0
504,575,0,0,0,0,0,0,0,0,0,-1,1728,449,0,0
511,575,0,0,0,0,0,0,0,0,0,-1,1735,449,0,0
518,575,0,0,0,0,0,0,0,0,0,-1,1742,449,0,0
525,575,0,0,0,0,0,0,0,0,0,-1,1749,449,0,0
532,575,0,0,0,0,0,0,0,0,0,-1,1756,449,0,0
539,575,0,0,0,0,0,0,0,0,0,-1,1763,449,0,0
546,575,0,0,0,0,0,0,0,0,0,-1,1770,449,0,0
553,575,0,0,0,0,0,0,0,0,0,-1,1777,449,0,0
560,575,0,0,0,0,0,0,0,0,0,-1,1784,449,0,0
567,575,0,0,0,0,0,0,0,0,0,-1,1791,449,0,0
574,575,0,0,0,0,0,0,0,0,0,-1,1798,449,0,0
581,575,0,0,0,0,0,0,0,0,0,-1,1805,449,0,0
588,575,0,0,0,0,0,0,0,0,0,-1,1812,449,0,0
595,575,0,0,0,0,0,0,0,0,0,-1,1819,449,0,0
602,575,0,0,0,0,0,0,0,0,0,-1,1826,449,0,0
609,575,0,0,0,0,0,0,0,0,0,-1,1833,449,0,0
616,575,0,0,0,0,0,0,0,0,0,-1,1840,449,0,0
623,575,0,0,0,0,0,0,0,0,0,-1,1847,449,0,0
630,575,0,0,0,0,0,0,0,0,0,-1,1854,449,0,0
637,575,0,0,0,0,0,0,0,0,0,-1,1861,449,0,0
644,575,0,0,0,0,0,0,0,0,0,-1,1868,449,0,0
651,575,0,0,0,0,0,0,0,0,0,-1,1875,449,0,0
658,575,0,0,0,0,0,0,0,0,0,-1,1882,449,0,0
665,575,0,0,0,0,0,0,0,0,0,-1,1889,449,0,0
672,575,0,0,0,0,0,0,0,0,0,-1,1896,449,0,0
679,575,0,0,0,0,0,0,0,0,0,-1,1903,449,0,0
686,575,0,0,0,0,0,0,0,0,0,-1,1910,449,0,0
693,575,0,0,0,0,0,0,0,0,0,-1,1917,449,0,0
700,575,0,0,0,0,0,0,0,0,0,-1,1924,449,0,0
707,575,0,0,0,0,0,0,0,0,0,-1,1931,449,0,0
714,575,0,0,0,0,0,0,0,0,0,-1,1938,449,0,0
721,575,0,0,0,0,0,0,0,0,0,-1,1945,449,0,0
728,575,0,0,0,0,0,0,0,0,0,-1,1952,449,0,0
735,575,0,0,0,0,0,0,0,0,0,-1,1959,449,0,0
742,575,0,0,0,0,0,0,0,0,0,-1,1966,449,0,0
749,575,0,0,0,0,0,0,0,0,0,-1,1973,449,0,0
756,575,0,0,0,0,0,0,0,0,0,-1,1980,449,0,0
763,575,0,0,0,0,0,0,0,0,0,-1,1987,449,0,0
770,575,0,0,0,0,0,0,0,0,0,-1,1994,449,0,0
777,575,0,0,0,0,0,0,0,0,0,-1,2001,449,0,0
784,575,0,0,0,0,0,0,0,0,0,-1,2008,449,0,0
791,575,0,0,0,0,0,0,0,0,0,-1,2015,449,0,0
798,575,0,0,0,0,0,0,0,0,0,-1,2022,449,0,0
805,575,0,0,0,0,0,0,0,0,0,-1,2029,449,0,0
812,575,0,0,0,0,0,0,0,0,0,-1,2036,449,0,0
-700,568,0,0,0,0,0,0,0,0,0,-1,524,456,0,0
-693,568,0,0,0,0,0,0,0,0,0,-1,531,456,0,0
-686,568,0,0,0,0,0,0,0,0,0,-1,538,456,0,0
-679,568,0,0,0,0,0,0,0,0,0,-1,545,456,0,0
-672,568,0,0,0,0,0,0,0,0,0,-1,552,456,0,0
-665,568,0,0,0,0,0,0,0,0,0,-1,559,456,0,0
-658,568,0,0,0,0,0,0,0,0,0,-1,566,456,0,0
-651,568,0,0,0,0,0,0,0,0,0,-1,573,456,0,0
-644,568,0,0,0,0,0,0,0,0,0,-1,580,456,0,0
-637,568,0,0,0,0,0,0,0,0,0,-1,587,456,0,0
-630,568,0,0,0,0,0,0,0,0,0,-1,594,456,0,0
-623,568,0,0,0,0,0,0,0,0,0,-1,601,456,0,0
-616,568,0,0,0,0,0,0,0,0,0,-1,608,456,0,0
-609,568,0,0,0,0,0,0,0,0,0,-1,615,456,0,0
-602,568,0,0,0,0,0,0,0,0,0,-1,622,456,0,0
-595,568,0,0,0,0,0,0,0,0,0,-1,629,456,0,0
-588,568,0,0,0,0,0,0,0,0,0,-1,636,456,0,0
-581,568,0,0,0,0,0,0,0,0,0,-1,643,456,0,0
-574,568,0,0,0,0,0,0,0,0,0,-1,650,456,0,0
-567,568,0,0,0,0,0,0,0,0,0,-1,657,456,0,0
-560,568,0,0,0,0,0,0,0,0,0,-1,664,456,0,0
-553,568,0,0,0,0,0,0,0,0,0,-1,671,456,0,0
-546,568,0,0,0,0,0,0,0,0,0,-1,678,456,0,0
-539,568,0,0,0,0,0,0,0,0,0,-1,685,456,0,0
-532,568,0,0,0,0,0,0,0,0,0,-1,692,456,0,0
-525,568,0,0,0,0,0,0,0,0,0,-1,699,456,0,0
-518,568,0,0,0,0,0,0,0,0,0,-1,706,456,0,0
-511,568,0,0,0,0,0,0,0,0,0,-1,713,456,0,0
-504,568,0,0,0,0,0,0,0,0,0,-1,720,456,0,0
-497,568,0,0,0,0,0,0,0,0,0,-1,727,456,0,0
-490,568,0,0,0,0,0,0,0,0,0,-1,734,456,0,0
-483,568,0,0,0,0,0,0,0,0,0,-1,741,456,0,0
-476,568,0,0,0,0,0,0,0,0,0,-1,748,456,0,0
-469,568,0,0,0,0,0,0,0,0,0,-1,755,456,0,0
-462,568,0,0,0,0,0,0,0,0,0,-1,762,456,0,0
-455,568,0,0,0,0,0,0,0,0,0,-1,769,456,0,0
-448,568,0,0,0,0,0,0,0,0,0,-1,776,456,0,0
-441,568,0,0,0,0,0,0,0,0,0,-1,783,456,0,0
-434,568,0,0,0,0,0,0,0,0,0,-1,790,456,0,0
-427,568,0,0,0,0,0,0,0,0,0,-1,797,456,0,0
-420,568,0,0,0,0,0,0,0,0,0,-1,804,456,0,0
-413,568,0,0,0,0,0,0,0,0,0,-1,811,456,0,0
-406,568,0,0,0,0,0,0,0,0,0,-1,818,456,0,0
-399,568,0,0,0,0,0,0,0,0,0,-1,825,456,0,0
-392,568,0,0,0,0,0,0,0,0,0,-1,832,456,0,0
-385,568,0,0,0,0,0,0,0,0,0,-1,839,456,0,0
-378,568,0.321777,-7.29929,0,0,0,0,0,0,0,-1,846,456,0.321806,7.29927
-371,568,1.09595,-7.46707,0,0,0,0,0,0,0,-1,853,456,1.09597,7.46707
-364,568,1.87787,-7.61115,0,0,0,0,0,0,0,-1,860,456,1.87784,7.61116
-357,568,2.14166,-7.67645,0,0,0,0,0,0,0,-1,867,456,2.14167,7.67646
-350,568,2.7467,-11.2507,0,0,0,0,0,0,0,-1,874,456,2.7467,11.2507
-343,568,2.16516,-11.3762,0,0,0,0,0,0,0,-1,881,456,2.16514,11.3762
-336,568,1.94092,-15.7119,0,0,0,0,0,0,0,-1,888,456,1.94091,15.7119
-329,568,2.07898,-16.0293,0.00339611,0.0284011,-0.0174052,0.0373288,-0.00553159,-1.09686,0.0269198,0.0451827,895,456,2.07898,16.0293
-322,568,1.69159,-16.2333,0.00346228,0.0219756,-0.0153161,0.0306149,-0.00517708,-1.05721,0.0223365,0.0402652,902,456,1.69156,16.2333
-315,568,1.83673,-17.2024,0.00341492,0.0163539,-0.0133787,0.0247452,-0.00497641,-1.01061,0.0183816,0.0382625,909,456,1.83672,17.2024
-308,568,1.84045,-17.8186,0.00324433,0.0118893,-0.0114603,0.0198151,-0.00468152,-0.965734,0.0150158,0.0310483,916,456,1.84047,17.8186
-301,568,1.83966,-18.33,0.00291209,0.00831216,-0.00956351,0.0155495,-0.00432523,-0.922981,0.0120692,0.0184226,923,456,1.83965,18.33
-294,568,1.77136,-18.7253,0.00234863,0.00571726,-0.00782472,0.0120369,-0.003971,-0.891408,0.00962529,0.0126696,930,456,1.77138,18.7254
-287,568,1.73785,-19.1545,0.0017069,0.00376548,-0.006273,0.00909307,-0.00362069,-0.866715,0.00756356,0.0106263,937,456,1.73787,19.1545
-280,568,1.74084,-19.5674,0.00119912,0.00269877,-0.0050347,0.00703917,-0.00314128,-0.859321,0.00601958,0.0110599,944,456,1.74083,19.5674
-273,568,1.73016,-19.9454,0.000919229,0.00153489,-0.00411291,0.00535147,-0.00289736,-0.822751,0.00483221,0.01291,951,456,1.73016,19.9454
-266,568,1.7049,-20.3396,0.000517923,0.000472284,-0.00286694,0.00336214,-0.00237193,-0.781419,0.00332698,0.0127414,958,456,1.70488,20.3396
-259,568,1.67108,-20.7162,0.000146091,-0.000220179,-0.00175809,0.00173056,-0.00180465,-0.733502,0.00204121,0.0125853,965,456,1.67109,20.7163
-252,568,1.64233,-21.0837,-1.72267e-05,-0.000671204,-0.00103994,0.000745922,-0.00143435,-0.633077,0.00127953,0.0124411,972,456,1.64235,21.0837
-245,568,1.63855,-21.4229,-3.12631e-05,-0.00131304,-0.00035658,6.12566e-05,-0.00140556,-0.253866,0.000958109,0.0148652,979,456,1.63857,21.423
-238,568,1.65424,-21.7789,-7.14131e-05,-0.00208588,0.000193753,-5.29471e-05,-0.00210435,0.0950199,0.00138559,0.0128061,986,456,1.65423,21.7789
-231,568,1.65314,-22.1541,7.73792e-05,-0.00350172,0.000888974,0.000286019,-0.00371036,0.230526,0.00257421,0.0116742,993,456,1.65314,22.1541
-224,568,1.63538,-22.4936,0.000197795,-0.00497399,0.00162096,0.000663843,-0.00544003,0.279963,0.00386701,0.0136267,1000,456,1.63535,22.4936
-217,568,1.63916,-22.826,0.000348075,-0.00654061,0.00231093,0.00105149,-0.00724403,0.295476,0.0052153,0.0112681,1007,456,1.63918,22.826
-210,568,1.64648,-23.1673,0.000494182,-0.00811909,0.00291878,0.00139008,-0.00901499,0.297815,0.00652292,0.0110499,1014,456,1.64647,23.1673
-203,568,1.64227,-23.5132,0.00071671,-0.00934491,0.0031745,0.00163456,-0.0102628,0.281456,0.00744673,0.0104841,1021,456,1.64229,23.5131
-196,568,1.66577,-23.8253,0.000977217,-0.010493,0.00345697,0.00193853,-0.0114543,0.271228,0.00835767,0.0136944,1028,456,1.66577,23.8253
-189,568,1.65808,-24.1227,0.00130267,-0.0113668,0.00355527,0.00223215,-0.0122963,0.255713,0.00903399,0.0132447,1035,456,1.65806,24.1227
-182,568,1.67749,-24.4347,0.00164129,-0.0123386,0.00366441,0.00254358,-0.0132409,0.241426,0.00978592,0.0151798,1042,456,1.67746,24.4347
-175,568,1.7074,-24.7173,0.00207948,-0.013259,0.00372121,0.0029346,-0.0141142,0.225873,0.0105249,0.0147877,1049,456,1.70745,24.7173
-168,568,1.7019,-24.9121,0.00255597,-0.0142254,0.00331617,0.00318751,-0.0148569,0.18819,0.0111204,0.020805,1056,456,1.70192,24.9121
-161,568,1.71057,-25.1476,0.0030418,-0.0154592,0.00284004,0.00346795,-0.0158854,0.148939,0.0119157,0.0367017,1063,456,1.71058,25.1476
-154,568,1.89441,-25.6863,0.003636,-0.0168746,0.00223899,0.00387757,-0.0171162,0.107476,0.0128991,0.0455666,1070,456,1.89443,25.6863
-147,568,1.93481,-25.9733,0,0,0,0,0,0,0,-1,1077,456,1.93481,25.9733
-140,568,1.83472,-26.2059,0,0,0,0,0,0,0,-1,1084,456,1.83471,26.2059
-133,568,1.70532,-26.6287,0,0,0,0,0,0,0,-1,1091,456,1.70534,26.6287
-126,568,1.86597,-25.6431,0,0,0,0,0,0,0,-1,1098,456,1.86593,25.6431
-119,568,1.96082,-26.2608,0,0,0,0,0,0,0,-1,1105,456,1.96082,26.2608
-112,568,1.92114,-26.4106,0,0,0,0,0,0,0,-1,1112,456,1.92116,26.4106
-105,568,2.02454,-25.038,0,0,0,0,0,0,0,-1,1119,456,2.02459,25.038
-98,568,1.58618,-14.7874,0,0,0,0,0,0,0,-1,1126,456,1.58617,14.7874
-91,568,1.11621,-11.1853,0,0,0,0,0,0,0,-1,1133,456,1.11626,11.1853
-84,568,0.461792,-9.7959,0,0,0,0,0,0,0,-1,1140,456,0.461793,9.7959
-77,568,-1.13806,-8.57822,0,0,0,0,0,0,0,-1,1147,456,-1.13807,8.57821
-70,568,-4.09766,-1.42911,0,0,0,0,0,0,0,-1,1154,456,-4.09767,1.4291
-63,568,-5.92273,-3.70752,0,0,0,0,0,0,0,-1,1161,456,-5.92272,3.70751
-56,568,-5.24158,-6.01385,0,0,0,0,0,0,0,-1,1168,456,-5.24161,6.01386
-49,568,-5.24365,-8.33557,0,0,0,0,0,0,0,-1,1175,456,-5.24371,8.33557
-42,568,-0.664795,0.521973,0,0,0,0,0,0,0,-1,1182,456,-0.664829,-0.521984
-35,568,-0.153076,-1.67731,0,0,0,0,0,0,0,-1,1189,456,-0.153068,1.67731
-28,568,1.25439,-4.48798,0,0,0,0,0,0,0,-1,1196,456,1.2544,4.48797
-21,568,1.1106,-26.0631,0,0,0,0,0,0,0,-1,1203,456,1.1106,26.0631
-14,568,1.74158,-31.6654,0,0,0,0,0,0,0,-1,1210,456,1.74158,31.6654
-7,568,1.70032,-28.2211,0,0,0,0,0,0,0,-1,1217,456,1.70029,28.2211
0,568,2.92688,-31.007,0,0,0,0,0,0,0,-1,1224,456,2.92693,31.007
7,568,2.35779,-28.854,0.0122503,-0.0413687,-0.00814556,0.0134604,-0.0425788,-0.147484,0.0337788,0.0447764,1231,456,2.35773,28.854
14,568,1.79956,-29.7904,0.0278081,-0.0327891,-0.00297193,0.0279536,-0.0329345,-0.0488875,0.0351929,0.0455085,1238,456,1.79952,29.7904
21,568,1.57178,-30.4453,0.040138,-0.0226676,0.000991999,0.0401537,-0.0226833,0.0157895,0.0367433,0.0432336,1245,456,1.5718,30.4453
28,568,1.3562,-31.0793,0,0,0,0,0,0,0,-1,1252,456,1.35615,31.0793
35,568,3.12585,-30.1096,0.0541542,-0.00176808,0.00463301,0.0545354,-0.00214932,0.0821013,0.0370942,0.043489,1259,456,3.12591,30.1097
42,568,4.16211,-30.5707,0.0565781,0.00698043,0.00439967,0.0569654,0.00659317,0.0877936,0.0359811,0.0404371,1266,456,4.16215,30.5707
49,568,4.49036,-30.1772,0.0558533,0.0150776,0.00218472,0.05597,0.0149609,0.0533754,0.0334605,0.0441872,1273,456,4.4904,30.1772
56,568,4.31384,-29.9516,0.0532751,0.0210858,-0.00117299,0.0533178,0.0210431,-0.0363761,0.0310099,0.0457533,1280,456,4.31382,29.9516
63,568,4.24194,-29.6865,0.0509388,0.0267838,-0.00459338,0.0517828,0.0259398,-0.181715,0.0298968,0.04655,1287,456,4.24199,29.6865
70,568,3.87524,-29.2361,0,0,0,0,0,0,0,-1,1294,456,3.87522,29.2361
77,568,4.43347,-29.0781,0.0397485,0.0240755,-0.00879256,0.0436899,0.020134,-0.421413,0.0252502,0.0460597,1301,456,4.43349,29.0781
84,568,5.09155,-28.924,0.0329525,0.0128779,-0.00927568,0.0365822,0.00924829,-0.372991,0.0219643,0.047746,1308,456,5.09157,28.924
91,568,5.45911,-28.7155,0,0,0,0,0,0,0,-1,1315,456,5.45914,28.7155
98,568,5.99463,-28.7554,0,0,0,0,0,0,0,-1,1322,456,5.9946,28.7554
105,568,8.99683,-26.6931,0,0,0,0,0,0,0,-1,1329,456,8.99683,26.6931
112,568,8.89868,-26.3292,0,0,0,0,0,0,0,-1,1336,456,8.8987,26.3292
119,568,7.22815,-27.3123,0,0,0,0,0,0,0,-1,1343,456,7.22818,27.3123
126,568,7.14783,-26.1077,0,0,0,0,0,0,0,-1,1350,456,7.1478,26.1077
133,568,5.29297,-25.5559,0.00156682,-0.0648684,-0.013485,0.00419966,-0.0675012,-0.192816,0.046464,0.0461721,1357,456,5.29291,25.5559
140,568,6.23315,-24.4515,0.00212681,-0.0688352,-0.0128323,0.00437602,-0.0710844,-0.173515,0.0489136,0.046777,1364,456,6.23321,24.4515
147,568,5.85083,-23.8751,0.00651842,-0.067474,-0.0132751,0.00882803,-0.0697837,-0.172256,0.049727,0.0460428,1371,456,5.85086,23.8751
154,568,5.76489,-22.9524,0.0122905,-0.061381,-0.0160934,0.0156526,-0.0647432,-0.205951,0.0492164,0.0456016,1378,456,5.76487,22.9524
161,568,5.84094,-22.1179,0.0178658,-0.0502988,-0.0211173,0.0238776,-0.0563106,-0.277352,0.0475422,0.0491073,1385,456,5.84094,22.1179
168,568,6.25342,-21.111,0,0,0,0,0,0,0,-1,1392,456,6.25345,21.111
175,568,10.5151,0.747498,0,0,0,0,0,0,0,-1,1399,456,10.5152,-0.747501
182,568,6.35095,-3.63361,0,0,0,0,0,0,0,-1,1406,456,6.35093,3.63359
189,568,6.17493,-1.70911,0,0,0,0,0,0,0,-1,1413,456,6.17497,1.70911
196,568,6.04724,0.200836,0,0,0,0,0,0,0,-1,1420,456,6.04724,-0.200835
203,568,5.9281,2.08649,0,0,0,0,0,0,0,-1,1427,456,5.92812,-2.08648
210,568,1.46216,-2.50446,0,0,0,0,0,0,0,-1,1434,456,1.46219,2.50446
217,568,2.62366,-7.86703,0,0,0,0,0,0,0,-1,1441,456,2.62365,7.86704
224,568,3.43494,-12.1555,0,0,0,0,0,0,0,-1,1448,456,3.43492,12.1555
231,568,4.38245,-9.3205,0,0,0,0,0,0,0,-1,1455,456,4.38244,9.32048
238,568,5.88879,-20.7448,0,0,0,0,0,0,0,-1,1462,456,5.88876,20.7449
245,568,3.34387,-10.6774,0,0,0,0,0,0,0,-1,1469,456,3.34389,10.6774
252,568,3.56946,-9.28928,0,0,0,0,0,0,0,-1,1476,456,3.56948,9.28928
259,568,3.38843,-8.73068,0,0,0,0,0,0,0,-1,1483,456,3.38842,8.73068
266,568,3.104,-9.16876,0,0,0,0,0,0,0,-1,1490,456,3.10397,9.16876
273,568,3.77869,-13.1147,0,0,0,0,0,0,0,-1,1497,456,3.77869,13.1147
280,568,4.40002,-14.9322,0,0,0,0,0,0,0,-1,1504,456,4.4,14.9322
287,568,6.65747,-24.802,0,0,0,0,0,0,0,-1,1511,456,6.65747,24.802
294,568,6.76697,-24.2054,0.0053673,-0.00456979,-0.00172569,0.00565846,-0.00486094,-0.167144,0.0060792,0.0358315,1518,456,6.76693,24.2054
301,568,6.74963,-23.9101,0.00472606,-0.00548558,-0.00208895,0.00513686,-0.00589638,-0.194176,0.00637507,0.0201144,1525,456,6.74962,23.9101
308,568,6.771,-23.6124,0.00413309,-0.00605832,-0.00233437,0.00464234,-0.00656757,-0.214787,0.00650378,0.0139742,1532,456,6.77105,23.6124
315,568,6.78296,-23.3162,0.00329514,-0.0060993,-0.00255062,0.00394297,-0.00674713,-0.248729,0.00624231,0.00866235,1539,456,6.78292,23.3162
322,568,6.80212,-22.9886,0.00248128,-0.00574827,-0.00252367,0.00319354,-0.00646053,-0.275077,0.00567917,0.00984755,1546,456,6.80218,22.9886
329,568,6.80493,-22.626,0.00183677,-0.00511466,-0.002315,0.00253716,-0.00581505,-0.293789,0.00494438,0.0106492,1553,456,6.80488,22.626
336,568,6.80249,-22.2526,0.00133464,-0.00440386,-0.00203808,0.00198482,-0.00505404,-0.308809,0.00419068,0.0111312,1560,456,6.80246,22.2526
343,568,6.82959,-21.8951,0.000881662,-0.00363651,-0.00172748,0.00146645,-0.0042213,-0.326415,0.0034098,0.011233,1567,456,6.82964,21.8951
350,568,6.82544,-21.5505,0.000620974,-0.00263746,-0.00124901,0.00104465,-0.00306114,-0.327031,0.00246394,0.0105171,1574,456,6.8254,21.5505
357,568,6.81274,-21.1786,0.00038065,-0.00151473,-0.000725055,0.000626199,-0.00176028,-0.32654,0.00142875,0.00979289,1581,456,6.81279,21.1786
364,568,6.82874,-20.7961,0.000218039,-0.000435039,-0.000116421,0.000238172,-0.000455172,-0.17124,0.000406785,0.0117321,1588,456,6.82877,20.7962
371,568,6.82202,-20.3792,0.000127993,0.000581791,0.000481852,0.000887493,-0.00017771,1.00544,0.000658935,0.0215257,1595,456,6.82204,20.3792
378,568,6.78296,-20.0079,3.41408e-05,0.00159616,0.00100161,0.00208527,-0.00045497,1.11653,0.00156405,0.0192917,1602,456,6.78296,20.0079
385,568,6.7417,-19.6251,-8.88156e-05,0.00252029,0.00138555,0.00311879,-0.000687313,1.16305,0.00234216,0.00937424,1609,456,6.7417,19.6251
392,568,6.73022,-19.2335,-0.000183409,0.0032504,0.0017903,0.00401401,-0.000947017,1.16763,0.00304123,0.0102422,1616,456,6.73027,19.2335
399,568,6.71838,-18.8581,-0.000274654,0.00409589,0.00233176,0.00510632,-0.00128509,1.16189,0.00390373,0.0165224,1623,456,6.71842,18.8581
406,568,6.73901,-18.4079,-0.000495121,0.00525178,0.00285614,0.00642978,-0.00167312,1.17961,0.0049396,0.0153492,1630,456,6.73905,18.4079
413,568,6.71863,-17.9671,-0.000813761,0.00591251,0.00319341,0.0071871,-0.00208835,1.19104,0.00561842,0.0122544,1637,456,6.71866,17.9671
420,568,6.6908,-17.5268,-0.00100862,0.00650419,0.00358899,0.00794312,-0.00244754,1.18949,0.00627251,0.0106677,1644,456,6.69085,17.5268
427,568,6.67236,-17.0786,-0.000818685,0.0069067,0.00416457,0.00872415,-0.00263614,1.1593,0.00686563,0.0122573,1651,456,6.67231,17.0785
434,568,6.69177,-16.669,-0.000662398,0.00757961,0.00479575,0.00978173,-0.00286452,1.14033,0.00765673,0.0180199,1658,456,6.69174,16.669
441,568,6.672,-16.3011,-0.000447541,0.00809782,0.00544011,0.0107426,-0.00309227,1.11829,0.00838473,0.0274907,1665,456,6.67199,16.3011
448,568,6.80823,-15.5156,-0.000212232,0.00834815,0.00602192,0.011456,-0.00332011,1.09436,0.0089517,0.0402357,1672,456,6.80826,15.5156
455,568,6.72754,-14.8229,0.000339792,0.00820508,0.00671695,0.012056,-0.00351107,1.05024,0.00942816,0.0461291,1679,456,6.72751,14.8229
462,568,6.53857,-14.8309,0,0,0,0,0,0,0,-1,1686,456,6.53858,14.8309
469,568,6.02258,-14.4141,0,0,0,0,0,0,0,-1,1693,456,6.02256,14.4141
476,568,6.44397,-13.661,0,0,0,0,0,0,0,-1,1700,456,6.44402,13.661
483,568,5.45532,-12.544,0,0,0,0,0,0,0,-1,1707,456,5.45531,12.544
490,568,5.24414,-11.0169,0,0,0,0,0,0,0,-1,1714,456,5.24415,11.0169
497,568,4.90601,-9.34613,0,0,0,0,0,0,0,-1,1721,456,4.90607,9.34613
504,568,0,0,0,0,0,0,0,0,0,-1,1728,456,0,0
511,568,0,0,0,0,0,0,0,0,0,-1,1735,456,0,0
518,568,0,0,0,0,0,0,0,0,0,-1,1742,456,0,0
525,568,0,0,0,0,0,0,0,0,0,-1,1749,456,0,0
532,568,0,0,0,0,0,0,0,0,0,-1,1756,456,0,0
539,568,0,0,0,0,0,0,0,0,0,-1,1763,456,0,0
546,568,0,0,0,0,0,0,0,0,0,-1,1770,456,0,0
553,568,0,0,0,0,0,0,0,0,0,-1,1777,456,0,0
560,568,0,0,0,0,0,0,0,0,0,-1,1784,456,0,0
567,568,0,0,0,0,0,0,0,0,0,-1,1791,456,0,0
574,568,0,0,0,0,0,0,0,0,0,-1,1798,456,0,0
581,568,0,0,0,0,0,0,0,0,0,-1,1805,456,0,0
588,568,0,0,0,0,0,0,0,0,0,-1,1812,456,0,0
595,568,0,0,0,0,0,0,0,0,0,-1,1819,456,0,0
602,568,0,0,0,0,0,0,0,0,0,-1,1826,456,0,0
609,568,0,0,0,0,0,0,0,0,0,-1,1833,456,0,0
616,568,0,0,0,0,0,0,0,0,0,-1,1840,456,0,0
623,568,0,0,0,0,0,0,0,0,0,-1,1847,456,0,0
630,568,0,0,0,0,0,0,0,0,0,-1,1854,456,0,0
637,568,0,0,0,0,0,0,0,0,0,-1,1861,456,0,0
644,568,0,0,0,0,0,0,0,0,0,-1,1868,456,0,0
651,568,0,0,0,0,0,0,0,0,0,-1,1875,456,0,0
658,568,0,0,0,0,0,0,0,0,0,-1,1882,456,0,0
665,568,0,0,0,0,0,0,0,0,0,-1,1889,456,0,0
672,568,0,0,0,0,0,0,0,0,0,-1,1896,456,0,0
679,568,0,0,0,0,0,0,0,0,0,-1,1903,456,0,0
686,568,0,0,0,0,0,0,0,0,0,-1,1910,456,0,0
693,568,0,0,0,0,0,0,0,0,0,-1,1917,456,0,0
700,568,0,0,0,0,0,0,0,0,0,-1,1924,456,0,0
707,568,0,0,0,0,0,0,0,0,0,-1,1931,456,0,0
714,568,0,0,0,0,0,0,0,0,0,-1,1938,456,0,0
721,568,0,0,0,0,0,0,0,0,0,-1,1945,456,0,0
728,568,0,0,0,0,0,0,0,0,0,-1,1952,456,0,0
735,568,0,0,0,0,0,0,0,0,0,-1,1959,456,0,0
742,568,0,0,0,0,0,0,0,0,0,-1,1966,456,0,0
749,568,0,0,0,0,0,0,0,0,0,-1,1973,456,0,0
756,568,0,0,0,0,0,0,0,0,0,-1,1980,456,0,0
763,568,0,0,0,0,0,0,0,0,0,-1,1987,456,0,0
770,568,0,0,0,0,0,0,0,0,0,-1,1994,456,0,0
777,568,0,0,0,0,0,0,0,0,0,-1,2001,456,0,0
784,568,0,0,0,0,0,0,0,0,0,-1,2008,456,0,0
791,568,0,0,0,0,0,0,0,0,0,-1,2015,456,0,0
798,568,0,0,0,0,0,0,0,0,0,-1,2022,456,0,0
805,568,0,0,0,0,0,0,0,0,0,-1,2029,456,0,0
812,568,0,0,0,0,0,0,0,0,0,-1,2036,456,0,0
-700,561,0,0,0,0,0,0,0,0,0,-1,524,463,0,0
-693,561,0,0,0,0,0,0,0,0,0,-1,531,463,0,0
-686,561,0,0,0,0,0,0,0,0,0,-1,538,463,0,0
-679,561,0,0,0,0,0,0,0,0,0,-1,545,463,0,0
-672,561,0,0,0,0,0,0,0,0,0,-1,552,463,0,0
-665,561,0,0,0,0,0,0,0,0,0,-1,559,463,0,0
-658,561,0,0,0,0,0,0,0,0,0,-1,566,463,0,0
-651,561,0,0,0,0,0,0,0,0,0,-1,573,463,0,0
-644,561,0,0,0,0,0,0,0,0,0,-1,580,463,0,0
-637,561,0,0,0,0,0,0,0,0,0,-1,587,463,0,0
-630,561,0,0,0,0,0,0,0,0,0,-1,594,463,0,0
-623,561,0,0,0,0,0,0,0,0,0,-1,601,463,0,0
-616,561,0,0,0,0,0,0,0,0,0,-1,608,463,0,0
-609,561,0,0,0,0,0,0,0,0,0,-1,615,463,0,0
-602,561,0,0,0,0,0,0,0,0,0,-1,622,463,0,0
-595,561,0,0,0,0,0,0,0,0,0,-1,629,463,0,0
-588,561,0,0,0,0,0,0,0,0,0,-1,636,463,0,0
-581,561,0,0,0,0,0,0,0,0,0,-1,643,463,0,0
-574,561,0,0,0,0,0,0,0,0,0,-1,650,463,0,0
-567,561,0,0,0,0,0,0,0,0,0,-1,657,463,0,0
-560,561,0,0,0,0,0,0,0,0,0,-1,664,463,0,0
-553,561,0,0,0,0,0,0,0,0,0,-1,671,463,0,0
-546,561,0,0,0,0,0,0,0,0,0,-1,678,463,0,0
-539,561,0,0,0,0,0,0,0,0,0,-1,685,463,0,0
-532,561,0,0,0,0,0,0,0,0,0,-1,692,463,0,0
-525,561,0,0,0,0,0,0,0,0,0,-1,699,463,0,0
-518,561,0,0,0,0,0,0,0,0,0,-1,706,463,0,0
-511,561,0,0,0,0,0,0,0,0,0,-1,713,463,0,0
-504,561,0,0,0,0,0,0,0,0,0,-1,720,463,0,0
-497,561,0,0,0,0,0,0,0,0,0,-1,727,463,0,0
-490,561,0,0,0,0,0,0,0,0,0,-1,734,463,0,0
-483,561,0,0,0,0,0,0,0,0,0,-1,741,463,0,0
-476,561,0,0,0,0,0,0,0,0,0,-1,748,463,0,0
-469,561,0,0,0,0,0,0,0,0,0,-1,755,463,0,0
-462,561,0,0,0,0,0,0,0,0,0,-1,762,463,0,0
-455,561,0,0,0,0,0,0,0,0,0,-1,769,463,0,0
-448,561,0,0,0,0,0,0,0,0,0,-1,776,463,0,0
-441,561,0,0,0,0,0,0,0,0,0,-1,783,463,0,0
-434,561,0,0,0,0,0,0,0,0,0,-1,790,463,0,0
-427,561,0,0,0,0,0,0,0,0,0,-1,797,463,0,0
-420,561,0,0,0,0,0,0,0,0,0,-1,804,463,0,0
-413,561,0,0,0,0,0,0,0,0,0,-1,811,463,0,0
-406,561,0,0,0,0,0,0,0,0,0,-1,818,463,0,0
-399,561,0,0,0,0,0,0,0,0,0,-1,825,463,0,0
-392,561,4.92407,-2.54578,0,0,0,0,0,0,0,-1,832,463,4.92408,2.54576
-385,561,5.55634,-1.02338,0,0,0,0,0,0,0,-1,839,463,5.55634,1.02338
-378,561,0.160522,-4.51785,0,0,0,0,0,0,0,-1,846,463,0.160542,4.51785
-371,561,1.06299,-7.56818,0,0,0,0,0,0,0,-1,853,463,1.06297,7.56817
-364,561,1.45264,-7.57684,0,0,0,0,0,0,0,-1,860,463,1.45264,7.57684
-357,561,0.948242,-12.2803,0,0,0,0,0,0,0,-1,867,463,0.948262,12.2803
-350,561,1.33124,-11.9406,0,0,0,0,0,0,0,-1,874,463,1.33127,11.9406
-343,561,1.13214,-14.1837,0,0,0,0,0,0,0,-1,881,463,1.13217,14.1837
-336,561,1.55164,-16.2004,0,0,0,0,0,0,0,-1,888,463,1.55161,16.2004
-329,561,1.52643,-16.6198,0.00170934,0.0230089,-0.0132078,0.0293256,-0.00460743,-1.12469,0.0212534,0.0392654,895,463,1.52642,16.6198
-322,561,1.5141,-16.9328,0.00180032,0.0184016,-0.0117325,0.0244729,-0.00427093,-1.09327,0.0179095,0.0315177,902,463,1.5141,16.9328
-315,561,1.5163,-17.3063,0.00186505,0.014203,-0.010329,0.020065,-0.00399694,-1.0546,0.0148889,0.0220641,909,463,1.51633,17.3063
-308,561,1.49835,-17.8253,0.00185067,0.0106621,-0.00888478,0.0161735,-0.00366076,-1.01557,0.0121873,0.0187857,916,463,1.49835,17.8253
-301,561,1.43756,-18.3549,0.00173781,0.00763312,-0.00740478,0.0126554,-0.00328445,-0.974821,0.00971853,0.0140767,923,463,1.43758,18.3549
-294,561,1.3689,-18.7621,0.00148604,0.00522342,-0.00597399,0.00961417,-0.00290471,-0.936979,0.00756589,0.0108877,930,463,1.36888,18.762
-287,561,1.35175,-19.1541,0.0011505,0.00336829,-0.00466394,0.00705335,-0.00253456,-0.90211,0.00573685,0.00888457,937,463,1.35172,19.1541
-280,561,1.3443,-19.5342,0.000869558,0.00210713,-0.00362548,0.00516625,-0.00218956,-0.869923,0.00436125,0.0117738,944,463,1.3443,19.5342
-273,561,1.32178,-19.9303,0.000735435,0.000736195,-0.00275814,0.00349395,-0.00202232,-0.785467,0.00322238,0.0153864,951,463,1.32177,19.9303
-266,561,1.31543,-20.309,0.000525564,-0.000577049,-0.00162753,0.00169263,-0.00174412,-0.622095,0.00198428,0.010166,958,463,1.31544,20.309
-259,561,1.30994,-20.6875,0.000344824,-0.00158082,-0.000587668,0.00051,-0.00174599,-0.274001,0.00136611,0.010045,965,463,1.30995,20.6875
-252,561,1.29773,-21.0446,0.000271461,-0.00253001,0.000153625,0.000279861,-0.00253841,0.0546191,0.00179286,0.0139374,972,463,1.29776,21.0446
-245,561,1.28168,-21.405,0.000248322,-0.00370992,0.000918835,0.000451213,-0.00391281,0.217326,0.00277121,0.0170397,979,463,1.28171,21.405
-238,561,1.29187,-21.7697,0.000293299,-0.00504345,0.00158755,0.000729845,-0.00548,0.268349,0.00391933,0.0136526,986,463,1.29188,21.7697
-231,561,1.29059,-22.1515,0.00039257,-0.00675838,0.00235014,0.00109578,-0.00746159,0.290743,0.005377,0.0119733,993,463,1.29061,22.1515
-224,561,1.284,-22.5105,0.000447185,-0.00853564,0.00316869,0.00145244,-0.0095409,0.307204,0.00689592,0.0121219,1000,463,1.28397,22.5105
-217,561,1.29248,-22.8289,0.000496839,-0.0103808,0.00394319,0.00177587,-0.0116598,0.313657,0.00842776,0.0113513,1007,463,1.29247,22.829
-210,561,1.29877,-23.1573,0.000587201,-0.0122397,0.00459453,0.00206311,-0.0137156,0.31082,0.00990335,0.0119151,1014,463,1.29874,23.1573
-203,561,1.2981,-23.501,0.000794194,-0.0136109,0.00484105,0.00226992,-0.0150866,0.295887,0.0108935,0.014025,1021,463,1.29807,23.501
-196,561,1.3064,-23.8005,0.00103633,-0.0149195,0.00512912,0.00254287,-0.0164261,0.285689,0.0118893,0.0149238,1028,463,1.30636,23.8005
-189,561,1.31567,-24.0758,0.00132876,-0.0158506,0.00517928,0.00276941,-0.0172912,0.271299,0.0125529,0.0176558,1035,463,1.31562,24.0758
-182,561,1.34912,-24.3712,0.00162628,-0.0169492,0.00524195,0.00300345,-0.0183264,0.256914,0.013332,0.0216887,1042,463,1.34912,24.3712
-175,561,1.30676,-24.6268,0.00210246,-0.0178602,0.00525379,0.00340073,-0.0191584,0.242257,0.0140438,0.0347248,1049,463,1.30672,24.6268
-168,561,1.31152,-24.7712,0,0,0,0,0,0,0,-1,1056,463,1.3115,24.7712
-161,561,1.35571,-25.0972,0,0,0,0,0,0,0,-1,1063,463,1.35568,25.0972
-154,561,2.32874,-25.7125,0,0,0,0,0,0,0,-1,1070,463,2.32871,25.7125
-147,561,2.31653,-26.1196,0,0,0,0,0,0,0,-1,1077,463,2.31647,26.1196
-140,561,1.72778,-26.3161,0,0,0,0,0,0,0,-1,1084,463,1.72781,26.3161
-133,561,1.92224,-20.9314,0,0,0,0,0,0,0,-1,1091,463,1.92219,20.9314
-126,561,2.74084,-26.3423,0,0,0,0,0,0,0,-1,1098,463,2.74089,26.3423
-119,561,2.07874,-25.9027,0,0,0,0,0,0,0,-1,1105,463,2.07871,25.9028
-112,561,1.4165,-25.4632,0,0,0,0,0,0,0,-1,1112,463,1.41653,25.4632
-105,561,0.530518,-13.5379,0,0,0,0,0,0,0,-1,1119,463,0.530477,13.5379
-98,561,1.5387,-7.54352,0,0,0,0,0,0,0,-1,1126,463,1.53871,7.54351
-91,561,1.29553,-6.57968,0,0,0,0,0,0,0,-1,1133,463,1.29549,6.5797
-84,561,1.23364,-5.84555,0,0,0,0,0,0,0,-1,1140,463,1.23363,5.84556
-77,561,-2.36023,1.00204,0,0,0,0,0,0,0,-1,1147,463,-2.3602,-1.00205
-70,561,-3.90015,-1.41541,0,0,0,0,0,0,0,-1,1154,463,-3.90009,1.4154
-63,561,-6.95691,-4.02756,0,0,0,0,0,0,0,-1,1161,463,-6.95696,4.02756
-56,561,-5.37988,-6.66855,0,0,0,0,0,0,0,-1,1168,463,-5.37988,6.66854
-49,561,-5.7439,-9.11029,0,0,0,0,0,0,0,-1,1175,463,-5.74387,9.1103
-42,561,-1.72644,-5.63065,0,0,0,0,0,0,0,-1,1182,463,-1.72648,5.63064
-35,561,-1.65674,-4.87994,0,0,0,0,0,0,0,-1,1189,463,-1.6567,4.87993
-28,561,-1.91418,-3.86896,0,0,0,0,0,0,0,-1,1196,463,-1.91414,3.86895
-21,561,1.09937,-26.2977,0,0,0,0,0,0,0,-1,1203,463,1.09936,26.2977
-14,561,1.38599,-26.6996,0,0,0,0,0,0,0,-1,1210,463,1.38604,26.6996
-7,561,1.4259,-29.1624,0,0,0,0,0,0,0,-1,1217,463,1.42587,29.1624
0,561,3.19092,-27.5948,0,0,0,0,0,0,0,-1,1224,463,3.19094,27.5948
7,561,2.38086,-28.2738,0.00283336,-0.0544756,-0.0184344,0.00825098,-0.0598932,-0.285838,0.0429441,0.0459238,1231,463,2.38086,28.2738
14,561,1.72314,-28.9124,0.0250092,-0.0422163,-0.0115297,0.0269317,-0.0441387,-0.16522,0.0414314,0.0434764,1238,463,1.72317,28.9123
21,561,1.4718,-29.5964,0,0,0,0,0,0,0,-1,1245,463,1.47181,29.5964
28,561,2.6217,-29.8854,0.0549944,-0.0139878,-0.00250511,0.0550852,-0.0140787,-0.0362517,0.0422065,0.0414086,1252,463,2.62172,29.8854
35,561,2.78381,-30.023,0.0628385,-0.0012776,-0.000611663,0.0628443,-0.00128343,-0.00953877,0.0423305,0.0410567,1259,463,2.78386,30.023
42,561,4.14404,-30.5449,0.0672744,0.0103287,-2.51957e-05,0.0672745,0.0103287,-0.000442451,0.0418339,0.0425863,1266,463,4.14408,30.5449
49,561,4.55188,-30.5912,0.0679528,0.0202178,-0.00146823,0.0679979,0.0201727,-0.0307193,0.0403262,0.0447141,1273,463,4.55185,30.5912
56,561,4.26428,-30.1212,0,0,0,0,0,0,0,-1,1280,463,4.26425,30.1212
63,561,4.23584,-29.8608,0,0,0,0,0,0,0,-1,1287,463,4.2358,29.8608
70,561,3.83826,-29.571,0,0,0,0,0,0,0,-1,1294,463,3.8383,29.571
77,561,4.37695,-29.3841,0.0538594,0.0316762,-0.00804362,0.056469,0.0290666,-0.31372,0.0326071,0.0492691,1301,463,4.37689,29.3841
84,561,4.8075,-29.1789,0.0475294,0.0167289,-0.00689831,0.0490038,0.0152545,-0.210567,0.0289563,0.0458066,1308,463,4.80745,29.1789
91,561,5.2146,-28.8195,0,0,0,0,0,0,0,-1,1315,463,5.21461,28.8195
98,561,10.4442,-32.6277,0,0,0,0,0,0,0,-1,1322,463,10.4442,32.6277
105,561,10.8953,-32.969,0,0,0,0,0,0,0,-1,1329,463,10.8953,32.969
112,561,7.15051,-26.4628,0,0,0,0,0,0,0,-1,1336,463,7.15057,26.4628
119,561,7.12732,-25.7696,0,0,0,0,0,0,0,-1,1343,463,7.12727,25.7696
126,561,7.12354,-25.0789,0,0,0,0,0,0,0,-1,1350,463,7.12353,25.0789
133,561,7.19238,-24.3527,0.00772002,-0.0700096,-0.0157354,0.0107846,-0.0730742,-0.192351,0.0526803,0.049477,1357,463,7.19239,24.3526
140,561,7.0509,-23.7751,0.00729318,-0.0748051,-0.0156527,0.0101763,-0.0776882,-0.182148,0.0554961,0.0486329,1364,463,7.05091,23.7752
147,561,6.73865,-23.2369,0,0,0,0,0,0,0,-1,1371,463,6.73861,23.2369
154,561,7.83044,-23.3212,0.0193196,-0.0635572,-0.0212936,0.0244705,-0.068708,-0.237338,0.055781,0.0439672,1378,463,7.83047,23.3212
161,561,8.12,-23.2481,0.0264865,-0.0471418,-0.0292457,0.0366893,-0.0573446,-0.335663,0.0547254,0.0491133,1385,463,8.12002,23.2481
168,561,8.62341,-23.0959,0,0,0,0,0,0,0,-1,1392,463,8.62346,23.0959
175,561,10.4185,0.276398,0,0,0,0,0,0,0,-1,1399,463,10.4185,-0.276394
182,561,6.45703,-4.02127,0,0,0,0,0,0,0,-1,1406,463,6.45704,4.02127
189,561,6.50854,-2.08685,0,0,0,0,0,0,0,-1,1413,463,6.50851,2.08686
196,561,6.44775,-0.27182,0,0,0,0,0,0,0,-1,1420,463,6.44773,0.271814
203,561,6.18591,1.1301,0,0,0,0,0,0,0,-1,1427,463,6.18592,-1.13009
210,561,5.68713,2.68427,0,0,0,0,0,0,0,-1,1434,463,5.6871,-2.68425
217,561,3.61743,-7.33582,0,0,0,0,0,0,0,-1,1441,463,3.61738,7.33581
224,561,4.27466,-8.59171,0,0,0,0,0,0,0,-1,1448,463,4.27466,8.59171
231,561,4.93188,-9.8476,0,0,0,0,0,0,0,-1,1455,463,4.93193,9.84761
238,561,2.18018,-5.18359,0,0,0,0,0,0,0,-1,1462,463,2.18023,5.18359
245,561,3.07568,-3.50238,0,0,0,0,0,0,0,-1,1469,463,3.0757,3.50238
252,561,3.47412,-3.71109,0,0,0,0,0,0,0,-1,1476,463,3.47413,3.71109
259,561,3.42212,-3.2334,0,0,0,0,0,0,0,-1,1483,463,3.42214,3.2334
266,561,4.44373,-5.90027,0,0,0,0,0,0,0,-1,1490,463,4.44372,5.90026
273,561,2.59485,-3.65268,0,0,0,0,0,0,0,-1,1497,463,2.5948,3.65268
280,561,3.10767,-6.38235,0,0,0,0,0,0,0,-1,1504,463,3.10766,6.38235
287,561,4.91809,-14.429,0,0,0,0,0,0,0,-1,1511,463,4.9181,14.429
294,561,7.09888,-24.0056,0,0,0,0,0,0,0,-1,1518,463,7.09883,24.0057
301,561,6.91309,-23.6705,0.00594812,-0.00847609,-0.00303077,0.00655906,-0.00908703,-0.198914,0.00907249,0.0428124,1525,463,6.91307,23.6705
308,561,7.11182,-23.5101,0.00511,-0.00914056,-0.00347427,0.0059119,-0.00994246,-0.226839,0.00925159,0.0319057,1532,463,7.11188,23.5101
315,561,7.15479,-23.2966,0.00391086,-0.00913027,-0.00386009,0.00496776,-0.0101872,-0.267253,0.008921,0.0197534,1539,463,7.15483,23.2966
322,561,7.14478,-22.9911,0.00284707,-0.00865062,-0.00388761,0.00403816,-0.00984171,-0.297301,0.00824375,0.020057,1546,463,7.1448,22.9911
329,561,7.16174,-22.6224,0.00206844,-0.00783346,-0.00369146,0.00329315,-0.00905817,-0.320341,0.00738543,0.0153819,1553,463,7.16172,22.6224
336,561,7.1825,-22.245,0.00146821,-0.0069521,-0.00342115,0.00268297,-0.00816685,-0.341187,0.00652541,0.0114875,1560,463,7.18252,22.245
343,561,7.19031,-21.8928,0.000918689,-0.00606057,-0.00312407,0.00211279,-0.00725467,-0.365091,0.0056734,0.0101107,1567,463,7.19029,21.8928
350,561,7.172,-21.5245,0.000629818,-0.00494823,-0.00261425,0.00166349,-0.0059819,-0.376532,0.00464285,0.00974113,1574,463,7.17201,21.5245
357,561,7.17896,-21.1465,0.000373848,-0.00365019,-0.00204981,0.0012341,-0.00451044,-0.39735,0.00349179,0.00985156,1581,463,7.179,21.1465
364,561,7.20203,-20.7993,0.000249466,-0.00246863,-0.00136131,0.000814,-0.00303316,-0.393114,0.0023411,0.00963726,1588,463,7.20202,20.7993
371,561,7.19958,-20.4052,0.000223434,-0.00132309,-0.000673563,0.000475658,-0.00157532,-0.358298,0.00123957,0.0179131,1595,463,7.19953,20.4052
378,561,7.16089,-20.029,0.000199319,-0.000183855,-6.61627e-05,0.000210422,-0.000194958,-0.166259,0.000234103,0.012434,1602,463,7.16089,20.029
385,561,7.15698,-19.6267,0.000147729,0.000926342,0.000444827,0.00112816,-5.40914e-05,1.14487,0.000770771,0.0102638,1609,463,7.15692,19.6267
392,561,7.1488,-19.1995,0.00010024,0.00176235,0.000930738,0.00217906,-0.000316473,1.14984,0.00156888,0.0136006,1616,463,7.14886,19.1995
399,561,7.1488,-18.8044,4.36514e-05,0.00258958,0.00148103,0.00326953,-0.0006363,1.14039,0.00241984,0.0186447,1623,463,7.14881,18.8044
406,561,7.16492,-18.3798,-0.00014103,0.00374323,0.00201477,0.00459952,-0.000997324,1.16892,0.00344722,0.0186602,1630,463,7.16488,18.3798
413,561,7.1366,-17.9417,-0.00041859,0.00438818,0.0023839,0.00536995,-0.00140036,1.18013,0.00412672,0.0174784,1637,463,7.13657,17.9417
420,561,7.08728,-17.5328,-0.000581294,0.00492319,0.00277106,0.00607653,-0.00173464,1.17639,0.00473633,0.0137755,1644,463,7.08727,17.5328
427,561,7.08813,-17.0825,-0.000448742,0.00527838,0.00327223,0.00676309,-0.00193345,1.14484,0.00527273,0.0108133,1651,463,7.08816,17.0825
434,561,7.09692,-16.6423,-0.000365308,0.00580124,0.00379458,0.00760728,-0.00217135,1.12657,0.00592935,0.0127699,1658,463,7.09688,16.6423
441,561,7.07202,-16.2163,-0.00022286,0.00616561,0.00431747,0.00834201,-0.00239926,1.10388,0.00651017,0.0162736,1665,463,7.07204,16.2163
448,561,7.06201,-15.7341,-2.65027e-05,0.00634317,0.00481069,0.00892773,-0.00261106,1.07779,0.00698675,0.0203978,1672,463,7.06206,15.7341
455,561,7.04321,-15.2209,0.000373274,0.00621036,0.00535063,0.00938666,-0.00280303,1.03507,0.00737194,0.0353305,1679,463,7.04323,15.2209
462,561,6.93787,-14.8844,0.000817572,0.00583688,0.00572018,0.00957373,-0.00291928,0.992122,0.00754621,0.0364978,1686,463,6.93791,14.8844
469,561,6.86316,-14.4748,0.00161151,0.00358749,0.00560247,0.00828842,-0.00308942,0.872675,0.00679375,0.0251902,1693,463,6.86319,14.4748
476,561,6.98328,-14.041,0.00280874,0.000433134,0.00630561,0.00803745,-0.00479558,0.692303,0.00748754,0.044347,1700,463,6.98322,14.041
483,561,7.12964,-13.5877,0,0,0,0,0,0,0,-1,1707,463,7.12969,13.5877
490,561,6.1084,-11.0669,0,0,0,0,0,0,0,-1,1714,463,6.10843,11.0669
497,561,7.77515,-8.73441,0,0,0,0,0,0,0,-1,1721,463,7.77516,8.73441
504,561,10.0769,-0.811401,0,0,0,0,0,0,0,-1,1728,463,10.0769,0.8114
511,561,0,0,0,0,0,0,0,0,0,-1,1735,463,0,0
518,561,0,0,0,0,0,0,0,0,0,-1,1742,463,0,0
525,561,0,0,0,0,0,0,0,0,0,-1,1749,463,0,0
532,561,0,0,0,0,0,0,0,0,0,-1,1756,463,0,0
539,561,0,0,0,0,0,0,0,0,0,-1,1763,463,0,0
546,561,0,0,0,0,0,0,0,0,0,-1,1770,463,0,0
553,561,0,0,0,0,0,0,0,0,0,-1,1777,463,0,0
560,561,0,0,0,0,0,0,0,0,0,-1,1784,463,0,0
567,561,0,0,0,0,0,0,0,0,0,-1,1791,463,0,0
574,561,0,0,0,0,0,0,0,0,0,-1,1798,463,0,0
581,561,0,0,0,0,0,0,0,0,0,-1,1805,463,0,0
588,561,0,0,0,0,0,0,0,0,0,-1,1812,463,0,0
595,561,0,0,0,0,0,0,0,0,0,-1,1819,463,0,0
602,561,0,0,0,0,0,0,0,0,0,-1,1826,463,0,0
609,561,0,0,0,0,0,0,0,0,0,-1,1833,463,0,0
616,561,0,0,0,0,0,0,0,0,0,-1,1840,463,0,0
623,561,0,0,0,0,0,0,0,0,0,-1,1847,463,0,0
630,561,0,0,0,0,0,0,0,0,0,-1,1854,463,0,0
637,561,0,0,0,0,0,0,0,0,0,-1,1861,463,0,0
644,561,0,0,0,0,0,0,0,0,0,-1,1868,463,0,0
651,561,0,0,0,0,0,0,0,0,0,-1,1875,463,0,0
658,561,0,0,0,0,0,0,0,0,0,-1,1882,463,0,0
665,561,0,0,0,0,0,0,0,0,0,-1,1889,463,0,0
672,561,0,0,0,0,0,0,0,0,0,-1,1896,463,0,0
679,561,0,0,0,0,0,0,0,0,0,-1,1903,463,0,0
686,561,0,0,0,0,0,0,0,0,0,-1,1910,463,0,0
693,561,0,0,0,0,0,0,0,0,0,-1,1917,463,0,0
700,561,0,0,0,0,0,0,0,0,0,-1,1924,463,0,0
707,561,0,0,0,0,0,0,0,0,0,-1,1931,463,0,0
714,561,0,0,0,0,0,0,0,0,0,-1,1938,463,0,0
721,561,0,0,0,0,0,0,0,0,0,-1,1945,463,0,0
728,561,0,0,0,0,0,0,0,0,0,-1,1952,463,0,0
735,561,0,0,0,0,0,0,0,0,0,-1,1959,463,0,0
742,561,0,0,0,0,0,0,0,0,0,-1,1966,463,0,0
749,561,0,0,0,0,0,0,0,0,0,-1,1973,463,0,0
756,561,0,0,0,0,0,0,0,0,0,-1,1980,463,0,0
763,561,0,0,0,0,0,0,0,0,0,-1,1987,463,0,0
770,561,0,0,0,0,0,0,0,0,0,-1,1994,463,0,0
777,561,0,0,0,0,0,0,0,0,0,-1,2001,463,0,0
784,561,0,0,0,0,0,0,0,0,0,-1,2008,463,0,0
791,561,0,0,0,0,0,0,0,0,0,-1,2015,463,0,0
798,561,0,0,0,0,0,0,0,0,0,-1,2022,463,0,0
805,561,0,0,0,0,0,0,0,0,0,-1,2029,463,0,0
812,561,0,0,0,0,0,0,0,0,0,-1,2036,463,0,0
-700,554,0,0,0,0,0,0,0,0,0,-1,524,470,0,0
-693,554,0,0,0,0,0,0,0,0,0,-1,531,470,0,0
-686,554,0,0,0,0,0,0,0,0,0,-1,538,470,0,0
-679,554,0,0,0,0,0,0,0,0,0,-1,545,470,0,0
-672,554,0,0,0,0,0,0,0,0,0,-1,552,470,0,0
-665,554,0,0,0,0,0,0,0,0,0,-1,559,470,0,0
-658,554,0,0,0,0,0,0,0,0,0,-1,566,470,0,0
-651,554,0,0,0,0,0,0,0,0,0,-1,573,470,0,0
-644,554,0,0,0,0,0,0,0,0,0,-1,580,470,0,0
-637,554,0,0,0,0,0,0,0,0,0,-1,587,470,0,0
-630,554,0,0,0,0,0,0,0,0,0,-1,594,470,0,0
-623,554,0,0,0,0,0,0,0,0,0,-1,601,470,0,0
-616,554,0,0,0,0,0,0,0,0,0,-1,608,470,0,0
-609,554,0,0,0,0,0,0,0,0,0,-1,615,470,0,0
-602,554,0,0,0,0,0,0,0,0,0,-1,622,470,0,0
-595,554,0,0,0,0,0,0,0,0,0,-1,629,470,0,0
-588,554,0,0,0,0,0,0,0,0,0,-1,636,470,0,0
-581,554,0,0,0,0,0,0,0,0,0,-1,643,470,0,0
-574,554,0,0,0,0,0,0,0,0,0,-1,650,470,0,0
-567,554,0,0,0,0,0,0,0,0,0,-1,657,470,0,0
-560,554,0,0,0,0,0,0,0,0,0,-1,664,470,0,0
-553,554,0,0,0,0,0,0,0,0,0,-1,671,470,0,0
-546,554,0,0,0,0,0,0,0,0,0,-1,678,470,0,0
-539,554,0,0,0,0,0,0,0,0,0,-1,685,470,0,0
-532,554,0,0,0,0,0,0,0,0,0,-1,692,470,0,0
-525,554,0,0,0,0,0,0,0,0,0,-1,699,470,0,0
-518,554,0,0,0,0,0,0,0,0,0,-1,706,470,0,0
-511,554,0,0,0,0,0,0,0,0,0,-1,713,470,0,0
-504,554,0,0,0,0,0,0,0,0,0,-1,720,470,0,0
-497,554,0,0,0,0,0,0,0,0,0,-1,727,470,0,0
-490,554,0,0,0,0,0,0,0,0,0,-1,734,470,0,0
-483,554,0,0,0,0,0,0,0,0,0,-1,741,470,0,0
-476,554,0,0,0,0,0,0,0,0,0,-1,748,470,0,0
-469,554,0,0,0,0,0,0,0,0,0,-1,755,470,0,0
-462,554,0,0,0,0,0,0,0,0,0,-1,762,470,0,0
-455,554,0,0,0,0,0,0,0,0,0,-1,769,470,0,0
-448,554,0,0,0,0,0,0,0,0,0,-1,776,470,0,0
-441,554,0,0,0,0,0,0,0,0,0,-1,783,470,0,0
-434,554,0,0,0,0,0,0,0,0,0,-1,790,470,0,0
-427,554,0,0,0,0,0,0,0,0,0,-1,797,470,0,0
-420,554,0,0,0,0,0,0,0,0,0,-1,804,470,0,0
-413,554,0,0,0,0,0,0,0,0,0,-1,811,470,0,0
-406,554,0,0,0,0,0,0,0,0,0,-1,818,470,0,0
-399,554,-1.32275,-3.95142,0,0,0,0,0,0,0,-1,825,470,-1.32275,3.95141
-392,554,-1.35632,-3.7406,0,0,0,0,0,0,0,-1,832,470,-1.35632,3.7406
-385,554,-0.849243,-4.14447,0,0,0,0,0,0,0,-1,839,470,-0.849262,4.14446
-378,554,-0.982666,-4.55084,0,0,0,0,0,0,0,-1,846,470,-0.982671,4.55084
-371,554,-1.74542,-4.63467,0,0,0,0,0,0,0,-1,853,470,-1.74541,4.63468
-364,554,1.04883,-7.68756,0,0,0,0,0,0,0,-1,860,470,1.0488,7.68757
-357,554,1.06714,-11.5403,0,0,0,0,0,0,0,-1,867,470,1.06715,11.5403
-350,554,1.40796,-15.9171,0,0,0,0,0,0,0,-1,874,470,1.40798,15.917
-343,554,1.38324,-15.9577,0,0,0,0,0,0,0,-1,881,470,1.38324,15.9577
-336,554,1.26367,-16.2131,0.000557843,0.0214336,-0.0109496,0.0261233,-0.00413181,-1.16614,0.0189436,0.0393317,888,470,1.26364,16.2131
-329,554,1.11829,-16.6505,0.00083924,0.01808,-0.00996491,0.0226357,-0.00371652,-1.14199,0.0164697,0.0188396,895,470,1.11831,16.6504
-322,554,1.05743,-17.0964,0.00089236,0.0147537,-0.00885002,0.0190639,-0.00341783,-1.11758,0.0139884,0.0118112,902,470,1.05745,17.0964
-315,554,1.05737,-17.512,0.000970752,0.0116345,-0.00776731,0.0157238,-0.00311863,-1.08618,0.0116619,0.0114974,909,470,1.05735,17.512
-308,554,1.03485,-17.9295,0.0010094,0.00885528,-0.00662501,0.0126317,-0.00276703,-1.05271,0.00947907,0.0135549,916,470,1.03484,17.9295
-301,554,1.03522,-18.3535,0.000999684,0.00634322,-0.00542375,0.00971756,-0.00237465,-1.01426,0.00739807,0.0143186,923,470,1.03522,18.3535
-294,554,0.985291,-18.7523,0.000948631,0.00417869,-0.00419686,0.00706054,-0.00193322,-0.969074,0.00546659,0.0115739,930,470,0.985309,18.7523
-287,554,0.957886,-19.152,0.000823853,0.00251481,-0.00306859,0.00485227,-0.0015136,-0.919826,0.00384014,0.0108233,937,470,0.957906,19.152
-280,554,0.955811,-19.5289,0.000681789,0.00114793,-0.00219121,0.00311843,-0.00128871,-0.838382,0.00261654,0.0116055,944,470,0.955789,19.5289
-273,554,0.935669,-19.9405,0.000622167,-0.000345983,-0.00134483,0.00156739,-0.00129121,-0.612641,0.00165298,0.0139332,951,470,0.935645,19.9405
-266,554,0.923889,-20.3206,0.000560672,-0.00180949,-0.000324299,0.000604243,-0.00185306,-0.133556,0.00147853,0.0109922,958,470,0.923901,20.3206
-259,554,0.923401,-20.6494,0.000536481,-0.00306499,0.000646908,0.000649156,-0.00317766,0.172444,0.00236472,0.0113541,965,470,0.92338,20.6494
-252,554,0.907837,-20.9979,0.000517651,-0.00449781,0.00141561,0.00088962,-0.00486978,0.256953,0.00358009,0.0145477,972,470,0.907822,20.9979
-245,554,0.895935,-21.3743,0.00045264,-0.00621587,0.00226949,0.00115173,-0.00691496,0.298814,0.00503796,0.0165879,979,470,0.895942,21.3743
-238,554,0.917542,-21.7706,0.000535834,-0.00808479,0.00304961,0.00150557,-0.00905453,0.307876,0.00659574,0.0121667,986,470,0.917517,21.7706
-231,554,0.928101,-22.1419,0.000566151,-0.0101556,0.00390709,0.00183885,-0.0114283,0.314902,0.00830002,0.0109997,993,470,0.928106,22.1419
-224,554,0.943909,-22.477,0.000534649,-0.0123185,0.00484705,0.00215759,-0.0139415,0.323098,0.0100907,0.0108535,1000,470,0.943934,22.477
-217,554,0.958191,-22.7965,0.00045935,-0.0145517,0.00575251,0.00241026,-0.0165027,0.326968,0.0118869,0.0104147,1007,470,0.958211,22.7965
-210,554,0.981567,-23.1465,0.000461098,-0.0168204,0.00650227,0.00263433,-0.0189936,0.322554,0.0136257,0.0141241,1014,470,0.98158,23.1465
-203,554,0.994568,-23.4629,0.000622088,-0.0184696,0.00679627,0.00279428,-0.0206418,0.309354,0.0147809,0.0247728,1021,470,0.994574,23.4629
-196,554,0.951782,-23.6356,0.000828138,-0.0200889,0.00713862,0.00303218,-0.022293,0.299464,0.015969,0.0319459,1028,470,0.951781,23.6356
-189,554,1.0675,-23.8028,0.00116616,-0.021183,0.00721183,0.00329127,-0.0233081,0.28656,0.016744,0.039149,1035,470,1.06756,23.8028
-182,554,1.15112,-24.0136,0,0,0,0,0,0,0,-1,1042,470,1.15116,24.0136
-175,554,0.882324,-24.5454,0,0,0,0,0,0,0,-1,1049,470,0.882273,24.5455
-168,554,2.82837,-24.8973,0,0,0,0,0,0,0,-1,1056,470,2.82832,24.8973
-161,554,2.87317,-25.2495,0,0,0,0,0,0,0,-1,1063,470,2.87315,25.2495
-154,554,2.85522,-25.6644,0,0,0,0,0,0,0,-1,1070,470,2.85517,25.6644
-147,554,3.01233,-26.2589,0,0,0,0,0,0,0,-1,1077,470,3.01234,26.2589
-140,554,3.14563,-26.981,0,0,0,0,0,0,0,-1,1084,470,3.14569,26.981
-133,554,1.48523,-20.8091,0,0,0,0,0,0,0,-1,1091,470,1.48518,20.8091
-126,554,0.532715,-15.1913,0,0,0,0,0,0,0,-1,1098,470,0.532762,15.1913
-119,554,2.21887,-25.3935,0,0,0,0,0,0,0,-1,1105,470,2.21883,25.3935
-112,554,0.53186,-16.7545,0,0,0,0,0,0,0,-1,1112,470,0.531912,16.7545
-105,554,2.82129,-9.46112,0,0,0,0,0,0,0,-1,1119,470,2.82127,9.46112
-98,554,1.51929,-7.3624,0,0,0,0,0,0,0,-1,1126,470,1.51928,7.36241
-91,554,1.41089,-6.5864,0,0,0,0,0,0,0,-1,1133,470,1.41093,6.58638
-84,554,1.62305,-5.87186,0,0,0,0,0,0,0,-1,1140,470,1.62299,5.87186
-77,554,-2.56958,1.33258,0,0,0,0,0,0,0,-1,1147,470,-2.56959,-1.33257
-70,554,-3.68164,-1.18332,0,0,0,0,0,0,0,-1,1154,470,-3.68158,1.18331
-63,554,-4.86853,-3.88708,0,0,0,0,0,0,0,-1,1161,470,-4.86853,3.88708
-56,554,-5.69958,-6.45422,0,0,0,0,0,0,0,-1,1168,470,-5.69955,6.45422
-49,554,-6.23645,-8.8569,0,0,0,0,0,0,0,-1,1175,470,-6.23643,8.85689
-42,554,-6.62524,-11.5382,0,0,0,0,0,0,0,-1,1182,470,-6.62522,11.5382
-35,554,-2.40173,-4.59482,0,0,0,0,0,0,0,-1,1189,470,-2.40169,4.59481
-28,554,-0.760132,-1.65555,0,0,0,0,0,0,0,-1,1196,470,-0.760095,1.65556
-21,554,-0.750488,-32.2566,0,0,0,0,0,0,0,-1,1203,470,-0.75053,32.2566
-14,554,1.18909,-26.6434,0,0,0,0,0,0,0,-1,1210,470,1.18907,26.6434
-7,554,3.41943,-27.1386,0,0,0,0,0,0,0,-1,1217,470,3.41946,27.1386
0,554,2.92737,-27.1208,0,0,0,0,0,0,0,-1,1224,470,2.92733,27.1208
7,554,1.80164,-27.3145,0,0,0,0,0,0,0,-1,1231,470,1.80165,27.3145
14,554,1.67712,-27.9752,0.0195635,-0.0560513,-0.0249185,0.0270367,-0.0635245,-0.29137,0.0536815,0.0467831,1238,470,1.67709,27.9752
21,554,1.62195,-28.594,0,0,0,0,0,0,0,-1,1245,470,1.62195,28.594
28,554,1.81555,-29.6808,0.0613291,-0.0182628,-0.0128375,0.0633484,-0.0202822,-0.156022,0.050373,0.0410554,1252,470,1.81558,29.6808
35,554,2.32178,-30.1259,0.0726065,-0.00248346,-0.00994814,0.0739021,-0.00377906,-0.129507,0.0505749,0.0385219,1259,470,2.32176,30.1259
42,554,4.21521,-31.097,0.079946,0.0126557,-0.0081683,0.0809233,0.0116783,-0.119085,0.0505082,0.0428586,1266,470,4.21525,31.097
49,554,4.724,-31.2323,0.0829086,0.0243996,-0.00820532,0.0840375,0.0232707,-0.136727,0.0501031,0.0449369,1273,470,4.72403,31.2323
56,554,5.52942,-31.4452,0,0,0,0,0,0,0,-1,1280,470,5.52936,31.4452
63,554,6.12537,-31.4445,0,0,0,0,0,0,0,-1,1287,470,6.1254,31.4445
70,554,6.68945,-31.4668,0,0,0,0,0,0,0,-1,1294,470,6.68948,31.4668
77,554,4.30627,-29.674,0,0,0,0,0,0,0,-1,1301,470,4.30622,29.674
84,554,4.59534,-29.6026,0,0,0,0,0,0,0,-1,1308,470,4.59537,29.6026
91,554,3.81689,-34.735,0,0,0,0,0,0,0,-1,1315,470,3.81695,34.735
98,554,4.52417,-35.2988,0,0,0,0,0,0,0,-1,1322,470,4.52422,35.2988
105,554,5.4032,-36.0719,0,0,0,0,0,0,0,-1,1329,470,5.40323,36.0719
112,554,11.9697,-33.3419,0,0,0,0,0,0,0,-1,1336,470,11.9697,33.3419
119,554,7.71484,-25.1836,0,0,0,0,0,0,0,-1,1343,470,7.71479,25.1836
126,554,7.68701,-24.4621,0,0,0,0,0,0,0,-1,1350,470,7.68699,24.4621
133,554,7.55603,-23.7143,0.0193618,-0.0737118,-0.018276,0.0228219,-0.0771718,-0.187108,0.0605073,0.0443279,1357,470,7.55605,23.7143
140,554,7.82117,-22.9628,0.0165813,-0.0795894,-0.0192212,0.0202806,-0.0832887,-0.190137,0.0633771,0.0477542,1364,470,7.82114,22.9628
147,554,7.89331,-22.406,0.0214966,-0.0762364,-0.0212126,0.0259022,-0.0806419,-0.204773,0.0641624,0.0461482,1371,470,7.89327,22.406
154,554,7.87598,-22.0426,0.0294143,-0.0635625,-0.028042,0.037217,-0.0713652,-0.271386,0.063715,0.0452446,1378,470,7.87594,22.0426
161,554,7.80994,-21.9019,0,0,0,0,0,0,0,-1,1385,470,7.80997,21.9018
168,554,15.9479,-20.2899,0,0,0,0,0,0,0,-1,1392,470,15.9479,20.2899
175,554,10.663,0.286957,0,0,0,0,0,0,0,-1,1399,470,10.663,-0.286966
182,554,6.71106,-4.50217,0,0,0,0,0,0,0,-1,1406,470,6.71107,4.50215
189,554,6.90479,-2.50348,0,0,0,0,0,0,0,-1,1413,470,6.90477,2.50348
196,554,6.96216,-0.740906,0,0,0,0,0,0,0,-1,1420,470,6.96214,0.740912
203,554,6.43518,0.414154,0,0,0,0,0,0,0,-1,1427,470,6.43523,-0.414141
210,554,6.21167,1.96707,0,0,0,0,0,0,0,-1,1434,470,6.21165,-1.96706
217,554,5.64551,3.4989,0,0,0,0,0,0,0,-1,1441,470,5.64555,-3.49891
224,554,4.85144,-8.85172,0,0,0,0,0,0,0,-1,1448,470,4.85146,8.85173
231,554,3.25073,-5.29642,0,0,0,0,0,0,0,-1,1455,470,3.25078,5.29642
238,554,4.28625,-3.25253,0,0,0,0,0,0,0,-1,1462,470,4.28622,3.25252
245,554,4.0752,-2.90033,0,0,0,0,0,0,0,-1,1469,470,4.07515,2.90032
252,554,3.52112,-0.934998,0,0,0,0,0,0,0,-1,1476,470,3.52113,0.934996
259,554,3.96448,-2.16425,0,0,0,0,0,0,0,-1,1483,470,3.96446,2.16424
266,554,3.0592,-2.71716,0,0,0,0,0,0,0,-1,1490,470,3.05923,2.71718
273,554,2.58521,-3.06876,0,0,0,0,0,0,0,-1,1497,470,2.58524,3.06874
280,554,2.83301,-0.991699,0,0,0,0,0,0,0,-1,1504,470,2.83303,0.991704
287,554,3.54126,-4.12277,0,0,0,0,0,0,0,-1,1511,470,3.54123,4.12277
294,554,3.62036,-8.50146,0,0,0,0,0,0,0,-1,1518,470,3.62031,8.50145
301,554,7.00342,-23.1989,0,0,0,0,0,0,0,-1,1525,470,7.00339,23.1988
308,554,7.46118,-23.4306,0,0,0,0,0,0,0,-1,1532,470,7.46118,23.4306
315,554,7.53931,-23.2805,0,0,0,0,0,0,0,-1,1539,470,7.53934,23.2805
322,554,7.47986,-23.0026,0,0,0,0,0,0,0,-1,1546,470,7.47989,23.0026
329,554,7.56665,-22.3396,0.00209081,-0.0111261,-0.00540885,0.0040221,-0.0130574,-0.342952,0.0103105,0.0436027,1553,470,7.56671,22.3396
336,554,7.53882,-22.145,0.00140327,-0.00995853,-0.00506801,0.00333535,-0.0118906,-0.364221,0.0092417,0.0248919,1560,470,7.53888,22.145
343,554,7.53101,-21.878,0.000777477,-0.0088441,-0.00470974,0.0026991,-0.0107657,-0.387392,0.0082258,0.0137326,1567,470,7.53103,21.878
350,554,7.56091,-21.4977,0.000490545,-0.00753047,-0.00410167,0.00221658,-0.0092565,-0.398318,0.00702737,0.0102091,1574,470,7.56093,21.4976
357,554,7.57324,-21.1348,0.000258839,-0.00598283,-0.00343771,0.00178101,-0.007505,-0.416838,0.00569067,0.0109422,1581,470,7.57329,21.1348
364,554,7.57422,-20.7891,0.000208489,-0.00462785,-0.00262635,0.00136037,-0.00577973,-0.413322,0.00437765,0.00910485,1588,470,7.57428,20.7891
371,554,7.578,-20.4057,0.000275204,-0.00328411,-0.00181523,0.00103764,-0.00404654,-0.397646,0.00310197,0.0091934,1595,470,7.57799,20.4057
378,554,7.57092,-20.0038,0.000336712,-0.00192012,-0.0010772,0.000768325,-0.00235173,-0.381092,0.0018771,0.010439,1602,470,7.57088,20.0038
385,554,7.57642,-19.604,0.000366765,-0.000560729,-0.000407021,0.000520049,-0.000714013,-0.360173,0.000715413,0.00979406,1609,470,7.57643,19.604
392,554,7.60059,-19.1951,0.000370197,0.000451096,0.000171899,0.00058724,0.000234053,0.90095,0.000341361,0.0128557,1616,470,7.6006,19.1951
399,554,7.57764,-18.7764,0.000349275,0.00131833,0.000745478,0.00172291,-5.53005e-05,1.07357,0.00116747,0.0162349,1623,470,7.57767,18.7764
406,554,7.57019,-18.3629,0.000198649,0.00251787,0.00129972,0.00310009,-0.000383571,1.14964,0.00220573,0.0156288,1630,470,7.57025,18.3629
413,554,7.5332,-17.9289,-3.94547e-05,0.00318815,0.0017018,0.00391966,-0.000770965,1.16483,0.0029044,0.0154285,1637,470,7.53321,17.9289
420,554,7.51147,-17.5246,-0.000174489,0.00371081,0.0020841,0.00461726,-0.00108094,1.16054,0.00349466,0.0163271,1644,470,7.51153,17.5246
427,554,7.50891,-17.0917,-0.000110692,0.00405244,0.00250963,0.00523141,-0.00128967,1.13161,0.00398763,0.0119475,1651,470,7.50887,17.0917
434,554,7.49707,-16.6695,-9.78703e-05,0.00447165,0.00293422,0.00590573,-0.00153195,1.11619,0.00453489,0.0103051,1658,470,7.49709,16.6695
441,554,7.48938,-16.2257,-2.374e-05,0.00472816,0.00335349,0.00646208,-0.00175766,1.0936,0.00499804,0.0109415,1665,470,7.48937,16.2257
448,554,7.47412,-15.7452,0.000123777,0.00483737,0.00375897,0.00691727,-0.00195613,1.06541,0.00538336,0.0135956,1672,470,7.4741,15.7452
455,554,7.43091,-15.3072,0.000401822,0.00468447,0.00417988,0.0072396,-0.00215331,1.02211,0.00568185,0.0147058,1679,470,7.43088,15.3072
462,554,7.35938,-14.8747,0.000635384,0.00423304,0.00440679,0.007194,-0.00232557,0.979174,0.0057307,0.0172996,1686,470,7.3594,14.8747
469,554,7.28833,-14.4409,0.00108315,0.00205333,0.00414342,0.00573995,-0.00260348,0.84367,0.00492923,0.0227761,1693,470,7.28828,14.4409
476,554,7.35913,-13.9068,0.00175753,-0.000878282,0.00464191,0.00526499,-0.00438574,0.64708,0.00557956,0.0441665,1700,470,7.35915,13.9068
483,554,7.46606,-13.4047,0,0,0,0,0,0,0,-1,1707,470,7.46602,13.4047
490,554,7.31543,-3.51794,0,0,0,0,0,0,0,-1,1714,470,7.3154,3.51794
497,554,10.9613,1.60983,0,0,0,0,0,0,0,-1,1721,470,10.9613,-1.60982
504,554,2.13257,-3.81628,0,0,0,0,0,0,0,-1,1728,470,2.1326,3.8163
511,554,1.31396,-4.02713,0,0,0,0,0,0,0,-1,1735,470,1.31398,4.02712
518,554,5.04236,-5.9472,0,0,0,0,0,0,0,-1,1742,470,5.04231,5.94721
525,554,0,0,0,0,0,0,0,0,0,-1,1749,470,0,0
532,554,0,0,0,0,0,0,0,0,0,-1,1756,470,0,0
539,554,0,0,0,0,0,0,0,0,0,-1,1763,470,0,0
546,554,0,0,0,0,0,0,0,0,0,-1,1770,470,0,0
553,554,0,0,0,0,0,0,0,0,0,-1,1777,470,0,0
560,554,0,0,0,0,0,0,0,0,0,-1,1784,470,0,0
567,554,0,0,0,0,0,0,0,0,0,-1,1791,470,0,0
574,554,0,0,0,0,0,0,0,0,0,-1,1798,470,0,0
581,554,0,0,0,0,0,0,0,0,0,-1,1805,470,0,0
588,554,0,0,0,0,0,0,0,0,0,-1,1812,470,0,0
595,554,0,0,0,0,0,0,0,0,0,-1,1819,470,0,0
602,554,0,0,0,0,0,0,0,0,0,-1,1826,470,0,0
609,554,0,0,0,0,0,0,0,0,0,-1,1833,470,0,0
616,554,0,0,0,0,0,0,0,0,0,-1,1840,470,0,0
623,554,0,0,0,0,0,0,0,0,0,-1,1847,470,0,0
630,554,0,0,0,0,0,0,0,0,0,-1,1854,470,0,0
637,554,0,0,0,0,0,0,0,0,0,-1,1861,470,0,0
644,554,0,0,0,0,0,0,0,0,0,-1,1868,470,0,0
651,554,0,0,0,0,0,0,0,0,0,-1,1875,470,0,0
658,554,0,0,0,0,0,0,0,0,0,-1,1882,470,0,0
665,554,0,0,0,0,0,0,0,0,0,-1,1889,470,0,0
672,554,0,0,0,0,0,0,0,0,0,-1,1896,470,0,0
679,554,0,0,0,0,0,0,0,0,0,-1,1903,470,0,0
686,554,0,0,0,0,0,0,0,0,0,-1,1910,470,0,0
693,554,0,0,0,0,0,0,0,0,0,-1,1917,470,0,0
700,554,0,0,0,0,0,0,0,0,0,-1,1924,470,0,0
707,554,0,0,0,0,0,0,0,0,0,-1,1931,470,0,0
714,554,0,0,0,0,0,0,0,0,0,-1,1938,470,0,0
721,554,0,0,0,0,0,0,0,0,0,-1,1945,470,0,0
728,554,0,0,0,0,0,0,0,0,0,-1,1952,470,0,0
735,554,0,0,0,0,0,0,0,0,0,-1,1959,470,0,0
742,554,0,0,0,0,0,0,0,0,0,-1,1966,470,0,0
749,554,0,0,0,0,0,0,0,0,0,-1,1973,470,0,0
756,554,0,0,0,0,0,0,0,0,0,-1,1980,470,0,0
763,554,0,0,0,0,0,0,0,0,0,-1,1987,470,0,0
770,554,0,0,0,0,0,0,0,0,0,-1,1994,470,0,0
777,554,0,0,0,0,0,0,0,0,0,-1,2001,470,0,0
784,554,0,0,0,0,0,0,0,0,0,-1,2008,470,0,0
791,554,0,0,0,0,0,0,0,0,0,-1,2015,470,0,0
798,554,0,0,0,0,0,0,0,0,0,-1,2022,470,0,0
805,554,0,0,0,0,0,0,0,0,0,-1,2029,470,0,0
812,554,0,0,0,0,0,0,0,0,0,-1,2036,470,0,0
-700,547,0,0,0,0,0,0,0,0,0,-1,524,477,0,0
-693,547,0,0,0,0,0,0,0,0,0,-1,531,477,0,0
-686,547,0,0,0,0,0,0,0,0,0,-1,538,477,0,0
-679,547,0,0,0,0,0,0,0,0,0,-1,545,477,0,0
-672,547,0,0,0,0,0,0,0,0,0,-1,552,477,0,0
-665,547,0,0,0,0,0,0,0,0,0,-1,559,477,0,0
-658,547,0,0,0,0,0,0,0,0,0,-1,566,477,0,0
-651,547,0,0,0,0,0,0,0,0,0,-1,573,477,0,0
-644,547,0,0,0,0,0,0,0,0,0,-1,580,477,0,0
-637,547,0,0,0,0,0,0,0,0,0,-1,587,477,0,0
-630,547,0,0,0,0,0,0,0,0,0,-1,594,477,0,0
-623,547,0,0,0,0,0,0,0,0,0,-1,601,477,0,0
-616,547,0,0,0,0,0,0,0,0,0,-1,608,477,0,0
-609,547,0,0,0,0,0,0,0,0,0,-1,615,477,0,0
-602,547,0,0,0,0,0,0,0,0,0,-1,622,477,0,0
-595,547,0,0,0,0,0,0,0,0,0,-1,629,477,0,0
-588,547,0,0,0,0,0,0,0,0,0,-1,636,477,0,0
-581,547,0,0,0,0,0,0,0,0,0,-1,643,477,0,0
-574,547,0,0,0,0,0,0,0,0,0,-1,650,477,0,0
-567,547,0,0,0,0,0,0,0,0,0,-1,657,477,0,0
-560,547,0,0,0,0,0,0,0,0,0,-1,664,477,0,0
-553,547,0,0,0,0,0,0,0,0,0,-1,671,477,0,0
-546,547,0,0,0,0,0,0,0,0,0,-1,678,477,0,0
-539,547,0,0,0,0,0,0,0,0,0,-1,685,477,0,0
-532,547,0,0,0,0,0,0,0,0,0,-1,692,477,0,0
-525,547,0,0,0,0,0,0,0,0,0,-1,699,477,0,0
-518,547,0,0,0,0,0,0,0,0,0,-1,706,477,0,0
-511,547,0,0,0,0,0,0,0,0,0,-1,713,477,0,0
-504,547,0,0,0,0,0,0,0,0,0,-1,720,477,0,0
-497,547,0,0,0,0,0,0,0,0,0,-1,727,477,0,0
-490,547,0,0,0,0,0,0,0,0,0,-1,734,477,0,0
-483,547,0,0,0,0,0,0,0,0,0,-1,741,477,0,0
-476,547,0,0,0,0,0,0,0,0,0,-1,748,477,0,0
-469,547,0,0,0,0,0,0,0,0,0,-1,755,477,0,0
-462,547,0,0,0,0,0,0,0,0,0,-1,762,477,0,0
-455,547,0,0,0,0,0,0,0,0,0,-1,769,477,0,0
-448,547,0,0,0,0,0,0,0,0,0,-1,776,477,0,0
-441,547,0,0,0,0,0,0,0,0,0,-1,783,477,0,0
-434,547,0,0,0,0,0,0,0,0,0,-1,790,477,0,0
-427,547,0,0,0,0,0,0,0,0,0,-1,797,477,0,0
-420,547,0,0,0,0,0,0,0,0,0,-1,804,477,0,0
-413,547,0,0,0,0,0,0,0,0,0,-1,811,477,0,0
-406,547,-1.23993,-9.14075,0,0,0,0,0,0,0,-1,818,477,-1.23994,9.14076
-399,547,0.116211,-9.90964,0,0,0,0,0,0,0,-1,825,477,0.116184,9.90965
-392,547,-1.52271,-4.41675,0,0,0,0,0,0,0,-1,832,477,-1.52273,4.41674
-385,547,-1.73743,-4.6431,0,0,0,0,0,0,0,-1,839,477,-1.73743,4.64308
-378,547,-2.41339,-4.60071,0,0,0,0,0,0,0,-1,846,477,-2.41337,4.60071
-371,547,1.64569,-11.1445,0,0,0,0,0,0,0,-1,853,477,1.64569,11.1445
-364,547,0.271729,-4.58582,0,0,0,0,0,0,0,-1,860,477,0.271753,4.5858
-357,547,1.40961,-15.4815,0,0,0,0,0,0,0,-1,867,477,1.40963,15.4815
-350,547,0.629028,-15.137,0,0,0,0,0,0,0,-1,874,477,0.62904,15.137
-343,547,0.629761,-15.6589,2.87933e-05,0.0179162,-0.00881688,0.0215314,-0.00358646,-1.18167,0.015687,0.0433859,881,477,0.629768,15.6589
-336,547,0.717163,-16.2115,0.000147616,0.0159277,-0.0080483,0.0193083,-0.00323301,-1.17313,0.0140742,0.0173428,888,477,0.717174,16.2114
-329,547,0.678223,-16.6553,0.00032491,0.013612,-0.00729622,0.0168362,-0.00289924,-1.1547,0.0123049,0.00964685,895,477,0.678201,16.6553
-322,547,0.660645,-17.0967,0.000369614,0.0112134,-0.00643574,0.0142067,-0.0026237,-1.13545,0.010456,0.0103143,902,477,0.660669,17.0967
-315,547,0.642944,-17.549,0.000468203,0.00892957,-0.00558684,0.0117068,-0.00230907,-1.10946,0.00867727,0.00948614,909,477,0.642972,17.549
-308,547,0.641235,-17.9463,0.000553159,0.00678539,-0.00467197,0.0092851,-0.00194655,-1.07951,0.00693064,0.0116968,916,477,0.641217,17.9463
-301,547,0.637695,-18.3537,0.000612762,0.00474855,-0.00369197,0.00691231,-0.00155099,-1.04068,0.00520284,0.0122097,923,477,0.6377,18.3537
-294,547,0.598938,-18.7534,0.000651587,0.00284573,-0.00264512,0.00461227,-0.00111495,-0.981978,0.00350609,0.00972853,930,477,0.598959,18.7534
-287,547,0.577332,-19.1408,0.000653689,0.00135387,-0.00166622,0.00270638,-0.000698821,-0.888947,0.00207676,0.0108058,937,477,0.577313,19.1408
-280,547,0.579102,-19.5336,0.000580284,-4.88315e-05,-0.000896986,0.00121627,-0.000684816,-0.616756,0.0011118,0.0136105,944,477,0.579089,19.5336
-273,547,0.564026,-19.92,0.000526169,-0.00161769,-4.3371e-05,0.000527047,-0.00161857,-0.0202193,0.0012911,0.0123038,951,477,0.564018,19.92
-266,547,0.544922,-20.2958,0.000562041,-0.00318655,0.00090076,0.000767253,-0.00339176,0.223998,0.00255561,0.0111391,958,477,0.544952,20.2958
-259,547,0.541443,-20.6513,0.000657111,-0.00466553,0.00183834,0.00123031,-0.00523873,0.30225,0.00396671,0.0103699,965,477,0.541445,20.6513
-252,547,0.56134,-21.015,0.000664542,-0.00659596,0.00268269,0.00154822,-0.00747964,0.318206,0.00557463,0.0111595,972,477,0.56135,21.0151
-245,547,0.571228,-21.3906,0.000528662,-0.00890215,0.00369003,0.00180086,-0.0101743,0.332004,0.00745603,0.0124057,979,477,0.571258,21.3906
-238,547,0.571533,-21.7667,0.000634501,-0.0113415,0.00462919,0.00221523,-0.0129222,0.329055,0.00944023,0.00865627,986,477,0.571535,21.7667
-231,547,0.566772,-22.133,0.000609693,-0.0138503,0.00564201,0.00255058,-0.0157912,0.331325,0.0114725,0.00827917,993,477,0.566777,22.133
-224,547,0.583435,-22.4395,0.000494755,-0.0165094,0.00677675,0.0028651,-0.0188798,0.336476,0.0136422,0.0110837,1000,477,0.583419,22.4395
-217,547,0.613342,-22.7549,0.000300856,-0.0192573,0.00787932,0.0030802,-0.0220367,0.339113,0.0158181,0.0185077,1007,477,0.613357,22.7548
-210,547,0.639221,-22.9574,0.000201043,-0.0220901,0.00879707,0.00325449,-0.0251436,0.334087,0.0179458,0.0342049,1014,477,0.639197,22.9574
-203,547,0.677429,-22.8345,0.000281042,-0.0241785,0.00920838,0.00336014,-0.0272576,0.322692,0.0193891,0.0445145,1021,477,0.677423,22.8345
-196,547,0.319946,-23.1282,0.000392311,-0.0262342,0.00962822,0.00350907,-0.029351,0.313065,0.0208357,0.048619,1028,477,0.31999,23.1283
-189,547,0.901855,-23.5624,0,0,0,0,0,0,0,-1,1035,477,0.901887,23.5624
-182,547,-0.0454102,-23.1846,0,0,0,0,0,0,0,-1,1042,477,-0.0454543,23.1846
-175,547,-0.350098,-12.3584,0,0,0,0,0,0,0,-1,1049,477,-0.350098,12.3584
-168,547,1.12463,-8.66785,0,0,0,0,0,0,0,-1,1056,477,1.12461,8.66786
-161,547,3.34131,-25.2922,0,0,0,0,0,0,0,-1,1063,477,3.34129,25.2922
-154,547,3.33838,-25.6616,0,0,0,0,0,0,0,-1,1070,477,3.33842,25.6616
-147,547,3.69434,-26.413,0,0,0,0,0,0,0,-1,1077,477,3.69437,26.413
-140,547,1.55676,-22.5229,0,0,0,0,0,0,0,-1,1084,477,1.5568,22.5229
-133,547,2.31665,-17.9421,0,0,0,0,0,0,0,-1,1091,477,2.31667,17.9421
-126,547,0.784302,-9.76431,0,0,0,0,0,0,0,-1,1098,477,0.78428,9.76432
-119,547,0.190308,-15.7633,0,0,0,0,0,0,0,-1,1105,477,0.190348,15.7633
-112,547,4.36194,-9.23029,0,0,0,0,0,0,0,-1,1112,477,4.36195,9.23029
-105,547,4.448,-9.17819,0,0,0,0,0,0,0,-1,1119,477,4.44799,9.1782
-98,547,1.50391,-7.20621,0,0,0,0,0,0,0,-1,1126,477,1.50395,7.20621
-91,547,1.37805,-7.12024,0,0,0,0,0,0,0,-1,1133,477,1.37804,7.12025
-84,547,1.94202,-6.66241,0,0,0,0,0,0,0,-1,1140,477,1.94201,6.66241
-77,547,-2.28357,1.8588,0,0,0,0,0,0,0,-1,1147,477,-2.28356,-1.85879
-70,547,-3.70178,-0.874908,0,0,0,0,0,0,0,-1,1154,477,-3.70182,0.874918
-63,547,-5.12012,-3.60861,0,0,0,0,0,0,0,-1,1161,477,-5.12009,3.60862
-56,547,-6.01917,-6.2399,0,0,0,0,0,0,0,-1,1168,477,-6.01921,6.23991
-49,547,-6.729,-8.60349,0,0,0,0,0,0,0,-1,1175,477,-6.72899,8.60348
-42,547,-2.41736,-5.53012,0,0,0,0,0,0,0,-1,1182,477,-2.41734,5.53011
-35,547,-2.96838,-4.45734,0,0,0,0,0,0,0,-1,1189,477,-2.96839,4.45734
-28,547,-0.869141,-1.29901,0,0,0,0,0,0,0,-1,1196,477,-0.869135,1.29901
-21,547,-1.03882,-31.3449,0,0,0,0,0,0,0,-1,1203,477,-1.03885,31.3449
-14,547,-0.255859,-30.8377,0,0,0,0,0,0,0,-1,1210,477,-0.255883,30.8377
-7,547,3.01953,-26.8835,0,0,0,0,0,0,0,-1,1217,477,3.01958,26.8834
0,547,1.19202,-23.2364,0,0,0,0,0,0,0,-1,1224,477,1.19206,23.2364
7,547,2.95447,-27.5236,0,0,0,0,0,0,0,-1,1231,477,2.95445,27.5236
14,547,0,0,0,0,0,0,0,0,0,-1,1238,477,0,0
21,547,0,0,0,0,0,0,0,0,0,-1,1245,477,0,0
28,547,0,0,0,0,0,0,0,0,0,-1,1252,477,0,0
35,547,0,0,0,0,0,0,0,0,0,-1,1259,477,0,0
42,547,0,0,0,0,0,0,0,0,0,-1,1266,477,0,0
49,547,0,0,0,0,0,0,0,0,0,-1,1273,477,0,0
56,547,0,0,0,0,0,0,0,0,0,-1,1280,477,0,0
63,547,0,0,0,0,0,0,0,0,0,-1,1287,477,0,0
70,547,0,0,0,0,0,0,0,0,0,-1,1294,477,0,0
77,547,0,0,0,0,0,0,0,0,0,-1,1301,477,0,0
84,547,0,0,0,0,0,0,0,0,0,-1,1308,477,0,0
91,547,0,0,0,0,0,0,0,0,0,-1,1315,477,0,0
98,547,0,0,0,0,0,0,0,0,0,-1,1322,477,0,0
105,547,11.9994,-34.6547,0,0,0,0,0,0,0,-1,1329,477,11.9994,34.6547
112,547,12.5786,-34.4336,0,0,0,0,0,0,0,-1,1336,477,12.5786,34.4336
119,547,7.47534,-24.7876,0,0,0,0,0,0,0,-1,1343,477,7.47533,24.7876
126,547,7.82495,-23.8082,0,0,0,0,0,0,0,-1,1350,477,7.82492,23.8082
133,547,8.3197,-22.8806,0,0,0,0,0,0,0,-1,1357,477,8.3197,22.8806
140,547,8.33508,-22.1291,0,0,0,0,0,0,0,-1,1364,477,8.3351,22.129
147,547,7.87439,-21.0508,0,0,0,0,0,0,0,-1,1371,477,7.87439,21.0508
154,547,7.99255,-20.9085,0,0,0,0,0,0,0,-1,1378,477,7.99251,20.9085
161,547,14.6083,-20.4047,0,0,0,0,0,0,0,-1,1385,477,14.6082,20.4047
168,547,1.40015,-21.6681,0,0,0,0,0,0,0,-1,1392,477,1.40015,21.6681
175,547,3.35034,-0.26532,0,0,0,0,0,0,0,-1,1399,477,3.3503,0.265306
182,547,4.26038,3.72672,0,0,0,0,0,0,0,-1,1406,477,4.26039,-3.7267
189,547,3.40454,1.28671,0,0,0,0,0,0,0,-1,1413,477,3.40457,-1.28673
196,547,3.53931,1.87793,0,0,0,0,0,0,0,-1,1420,477,3.53928,-1.87794
203,547,6.49414,-0.425842,0,0,0,0,0,0,0,-1,1427,477,6.4941,0.425844
210,547,4.82092,0.53595,0,0,0,0,0,0,0,-1,1434,477,4.82096,-0.535942
217,547,4.68579,0.480072,0,0,0,0,0,0,0,-1,1441,477,4.68577,-0.480069
224,547,4.55615,0.739807,0,0,0,0,0,0,0,-1,1448,477,4.55613,-0.73981
231,547,5.90869,-3.57721,0,0,0,0,0,0,0,-1,1455,477,5.90871,3.57722
238,547,5.50049,-3.15356,0,0,0,0,0,0,0,-1,1462,477,5.50045,3.15356
245,547,5.13708,-2.65213,0,0,0,0,0,0,0,-1,1469,477,5.13708,2.65212
252,547,3.73511,-0.645233,0,0,0,0,0,0,0,-1,1476,477,3.73515,0.645237
259,547,5.86816,-3.20816,0,0,0,0,0,0,0,-1,1483,477,5.86815,3.20816
266,547,5.40222,-2.45731,0,0,0,0,0,0,0,-1,1490,477,5.40221,2.45732
273,547,3.05737,0.495789,0,0,0,0,0,0,0,-1,1497,477,3.05742,-0.49578
280,547,2.0885,1.47797,0,0,0,0,0,0,0,-1,1504,477,2.08848,-1.47795
287,547,2.31177,-2.21716,0,0,0,0,0,0,0,-1,1511,477,2.31174,2.21717
294,547,2.4823,-3.03659,0,0,0,0,0,0,0,-1,1518,477,2.48229,3.0366
301,547,4.72119,-3.93454,0,0,0,0,0,0,0,-1,1525,477,4.72119,3.93453
308,547,4.07471,-5.42175,0,0,0,0,0,0,0,-1,1532,477,4.07468,5.42174
315,547,3.58496,-6.62112,0,0,0,0,0,0,0,-1,1539,477,3.58497,6.62113
322,547,5.73926,-14.1878,0,0,0,0,0,0,0,-1,1546,477,5.73926,14.1878
329,547,7.84106,-22.2437,0,0,0,0,0,0,0,-1,1553,477,7.84104,22.2437
336,547,7.9231,-22.1922,0,0,0,0,0,0,0,-1,1560,477,7.92313,22.1922
343,547,8.04224,-21.9565,0.000420585,-0.0121377,-0.00652816,0.00319928,-0.0149164,-0.402419,0.0111645,0.042623,1567,477,8.04227,21.9565
350,547,7.95325,-21.5294,0.000173742,-0.0104782,-0.00575082,0.002686,-0.0129905,-0.411866,0.00968067,0.0252006,1574,477,7.95324,21.5294
357,547,7.95813,-21.1521,2.05472e-05,-0.00855991,-0.0049221,0.00225972,-0.0107991,-0.42694,0.00805894,0.0146437,1581,477,7.95808,21.1521
364,547,7.95471,-20.7715,8.80478e-05,-0.00692605,-0.00394158,0.00185693,-0.00869493,-0.421835,0.00650456,0.0102718,1588,477,7.95468,20.7715
371,547,7.96509,-20.3813,0.000278046,-0.00528456,-0.00296942,0.00156529,-0.00657181,-0.409049,0.00498556,0.00907556,1595,477,7.96509,20.3813
378,547,7.95886,-19.9879,0.000447596,-0.00361673,-0.0020713,0.00131715,-0.00448629,-0.397468,0.0035132,0.0102313,1602,477,7.95888,19.9879
385,547,7.97693,-19.5912,0.000588532,-0.00195445,-0.00121088,0.00107287,-0.00243878,-0.380494,0.00207795,0.0106885,1609,477,7.97696,19.5912
392,547,8.0061,-19.1907,0.000660181,-0.00073583,-0.000523572,0.000834723,-0.000910372,-0.321782,0.00100785,0.0113735,1616,477,8.00615,19.1907
399,547,7.97412,-18.7792,0.000681874,0.000207052,8.57599e-05,0.000696888,0.000192038,0.173322,0.00041564,0.0123257,1623,477,7.97417,18.7792
406,547,7.96313,-18.3714,0.000570783,0.00148125,0.000674786,0.00184,0.00021203,1.08215,0.00116245,0.0115813,1630,477,7.96309,18.3714
413,547,7.95032,-17.9587,0.000375204,0.00220601,0.00112106,0.00273793,-0.000156711,1.12778,0.0018797,0.0118866,1637,477,7.95031,17.9587
420,547,7.95239,-17.5415,0.000259896,0.00274715,0.00151199,0.00346126,-0.000454207,1.12956,0.00247285,0.0145053,1644,477,7.95237,17.5415
427,547,7.94275,-17.0894,0.000236813,0.00309995,0.00187369,0.00402637,-0.000689603,1.11161,0.00294119,0.0143725,1651,477,7.94276,17.0894
434,547,7.90393,-16.6696,0.000166062,0.00345748,0.0022243,0.00457869,-0.00095515,1.10389,0.00341566,0.00972341,1658,477,7.90396,16.6696
441,547,7.87878,-16.2573,0.000160078,0.00365849,0.00256978,0.0050179,-0.00119933,1.08422,0.00380852,0.0101212,1665,477,7.87875,16.2573
448,547,7.85461,-15.8061,0.000239736,0.00373283,0.00290789,0.00537837,-0.0014058,1.05584,0.00413463,0.0109685,1672,477,7.85458,15.8061
455,547,7.84998,-15.3681,0.000401313,0.00358261,0.00324785,0.0056084,-0.00162449,1.01311,0.00438198,0.011136,1679,477,7.84996,15.3681
462,547,7.81165,-14.9122,0.000465501,0.00312595,0.00339168,0.00543893,-0.00184749,0.972281,0.00437384,0.011009,1686,477,7.81166,14.9122
469,547,7.7384,-14.4341,0.000645498,0.00111521,0.00306673,0.00395606,-0.00219536,0.823615,0.00359969,0.0185554,1693,477,7.73845,14.4341
476,547,7.79785,-13.8361,0.000926517,-0.00150779,0.00341364,0.0033335,-0.00391477,0.614146,0.00418928,0.0348286,1700,477,7.79783,13.8361
483,547,7.6676,-13.5227,0,0,0,0,0,0,0,-1,1707,477,7.66762,13.5227
490,547,3.65271,-3.71707,0,0,0,0,0,0,0,-1,1714,477,3.65277,3.71708
497,547,2.55481,-3.81421,0,0,0,0,0,0,0,-1,1721,477,2.55476,3.8142
504,547,4.01953,-2.22714,0,0,0,0,0,0,0,-1,1728,477,4.0195,2.22713
511,547,5.2146,-6.9552,0,0,0,0,0,0,0,-1,1735,477,5.21464,6.95521
518,547,5.24243,-6.56122,0,0,0,0,0,0,0,-1,1742,477,5.24241,6.56121
525,547,5.89368,-5.49866,0,0,0,0,0,0,0,-1,1749,477,5.89372,5.49866
532,547,0,0,0,0,0,0,0,0,0,-1,1756,477,0,0
539,547,0,0,0,0,0,0,0,0,0,-1,1763,477,0,0
546,547,0,0,0,0,0,0,0,0,0,-1,1770,477,0,0
553,547,0,0,0,0,0,0,0,0,0,-1,1777,477,0,0
560,547,0,0,0,0,0,0,0,0,0,-1,1784,477,0,0
567,547,0,0,0,0,0,0,0,0,0,-1,1791,477,0,0
574,547,0,0,0,0,0,0,0,0,0,-1,1798,477,0,0
581,547,0,0,0,0,0,0,0,0,0,-1,1805,477,0,0
588,547,0,0,0,0,0,0,0,0,0,-1,1812,477,0,0
595,547,0,0,0,0,0,0,0,0,0,-1,1819,477,0,0
602,547,0,0,0,0,0,0,0,0,0,-1,1826,477,0,0
609,547,0,0,0,0,0,0,0,0,0,-1,1833,477,0,0
616,547,0,0,0,0,0,0,0,0,0,-1,1840,477,0,0
623,547,0,0,0,0,0,0,0,0,0,-1,1847,477,0,0
630,547,0,0,0,0,0,0,0,0,0,-1,1854,477,0,0
637,547,0,0,0,0,0,0,0,0,0,-1,1861,477,0,0
644,547,0,0,0,0,0,0,0,0,0,-1,1868,477,0,0
651,547,0,0,0,0,0,0,0,0,0,-1,1875,477,0,0
658,547,0,0,0,0,0,0,0,0,0,-1,1882,477,0,0
665,547,0,0,0,0,0,0,0,0,0,-1,1889,477,0,0
672,547,0,0,0,0,0,0,0,0,0,-1,1896,477,0,0
679,547,0,0,0,0,0,0,0,0,0,-1,1903,477,0,0
686,547,0,0,0,0,0,0,0,0,0,-1,1910,477,0,0
693,547,0,0,0,0,0,0,0,0,0,-1,1917,477,0,0
700,547,0,0,0,0,0,0,0,0,0,-1,1924,477,0,0
707,547,0,0,0,0,0,0,0,0,0,-1,1931,477,0,0
714,547,0,0,0,0,0,0,0,0,0,-1,1938,477,0,0
721,547,0,0,0,0,0,0,0,0,0,-1,1945,477,0,0
728,547,0,0,0,0,0,0,0,0,0,-1,1952,477,0,0
735,547,0,0,0,0,0,0,0,0,0,-1,1959,477,0,0
742,547,0,0,0,0,0,0,0,0,0,-1,1966,477,0,0
749,547,0,0,0,0,0,0,0,0,0,-1,1973,477,0,0
756,547,0,0,0,0,0,0,0,0,0,-1,1980,477,0,0
763,547,0,0,0,0,0,0,0,0,0,-1,1987,477,0,0
770,547,0,0,0,0,0,0,0,0,0,-1,1994,477,0,0
777,547,0,0,0,0,0,0,0,0,0,-1,2001,477,0,0
784,547,0,0,0,0,0,0,0,0,0,-1,2008,477,0,0
791,547,0,0,0,0,0,0,0,0,0,-1,2015,477,0,0
798,547,0,0,0,0,0,0,0,0,0,-1,2022,477,0,0
805,547,0,0,0,0,0,0,0,0,0,-1,2029,477,0,0
812,547,0,0,0,0,0,0,0,0,0,-1,2036,477,0,0
-700,540,0,0,0,0,0,0,0,0,0,-1,524,484,0,0
-693,540,0,0,0,0,0,0,0,0,0,-1,531,484,0,0
-686,540,0,0,0,0,0,0,0,0,0,-1,538,484,0,0
-679,540,0,0,0,0,0,0,0,0,0,-1,545,484,0,0
-672,540,0,0,0,0,0,0,0,0,0,-1,552,484,0,0
-665,540,0,0,0,0,0,0,0,0,0,-1,559,484,0,0
-658,540,0,0,0,0,0,0,0,0,0,-1,566,484,0,0
-651,540,0,0,0,0,0,0,0,0,0,-1,573,484,0,0
-644,540,0,0,0,0,0,0,0,0,0,-1,580,484,0,0
-637,540,0,0,0,0,0,0,0,0,0,-1,587,484,0,0
-630,540,0,0,0,0,0,0,0,0,0,-1,594,484,0,0
-623,540,0,0,0,0,0,0,0,0,0,-1,601,484,0,0
-616,540,0,0,0,0,0,0,0,0,0,-1,608,484,0,0
-609,540,0,0,0,0,0,0,0,0,0,-1,615,484,0,0
-602,540,0,0,0,0,0,0,0,0,0,-1,622,484,0,0
-595,540,0,0,0,0,0,0,0,0,0,-1,629,484,0,0
-588,540,0,0,0,0,0,0,0,0,0,-1,636,484,0,0
-581,540,0,0,0,0,0,0,0,0,0,-1,643,484,0,0
-574,540,0,0,0,0,0,0,0,0,0,-1,650,484,0,0
-567,540,0,0,0,0,0,0,0,0,0,-1,657,484,0,0
-560,540,0,0,0,0,0,0,0,0,0,-1,664,484,0,0
-553,540,0,0,0,0,0,0,0,0,0,-1,671,484,0,0
-546,540,0,0,0,0,0,0,0,0,0,-1,678,484,0,0
-539,540,0,0,0,0,0,0,0,0,0,-1,685,484,0,0
-532,540,0,0,0,0,0,0,0,0,0,-1,692,484,0,0
-525,540,0,0,0,0,0,0,0,0,0,-1,699,484,0,0
-518,540,0,0,0,0,0,0,0,0,0,-1,706,484,0,0
-511,540,0,0,0,0,0,0,0,0,0,-1,713,484,0,0
-504,540,0,0,0,0,0,0,0,0,0,-1,720,484,0,0
-497,540,0,0,0,0,0,0,0,0,0,-1,727,484,0,0
-490,540,0,0,0,0,0,0,0,0,0,-1,734,484,0,0
-483,540,0,0,0,0,0,0,0,0,0,-1,741,484,0,0
-476,540,0,0,0,0,0,0,0,0,0,-1,748,484,0,0
-469,540,0,0,0,0,0,0,0,0,0,-1,755,484,0,0
-462,540,0,0,0,0,0,0,0,0,0,-1,762,484,0,0
-455,540,0,0,0,0,0,0,0,0,0,-1,769,484,0,0
-448,540,0,0,0,0,0,0,0,0,0,-1,776,484,0,0
-441,540,0,0,0,0,0,0,0,0,0,-1,783,484,0,0
-434,540,0,0,0,0,0,0,0,0,0,-1,790,484,0,0
-427,540,0,0,0,0,0,0,0,0,0,-1,797,484,0,0
-420,540,0.227051,-10.0402,0,0,0,0,0,0,0,-1,804,484,0.227063,10.0402
-413,540,-0.558289,-9.68796,0,0,0,0,0,0,0,-1,811,484,-0.558274,9.68795
-406,540,-0.975769,-9.67563,0,0,0,0,0,0,0,-1,818,484,-0.975773,9.67564
-399,540,-1.39325,-9.66333,0,0,0,0,0,0,0,-1,825,484,-1.39327,9.66332
-392,540,-0.517395,-10.6735,0,0,0,0,0,0,0,-1,832,484,-0.517377,10.6735
-385,540,-2.29407,-5.03418,0,0,0,0,0,0,0,-1,839,484,-2.29408,5.03418
-378,540,1.06445,-10.5824,0,0,0,0,0,0,0,-1,846,484,1.06446,10.5824
-371,540,1.14825,-10.7452,0,0,0,0,0,0,0,-1,853,484,1.14827,10.7452
-364,540,0.421265,-14.3997,0,0,0,0,0,0,0,-1,860,484,0.421235,14.3997
-357,540,0.495911,-14.5644,0,0,0,0,0,0,0,-1,867,484,0.495889,14.5644
-350,540,0.395569,-15.11,-0.00307384,0.0184723,-0.00706718,0.0205835,-0.00518503,-1.2805,0.015738,0.0352447,874,484,0.39555,15.1099
-343,540,0.314331,-15.7238,-9.3367e-05,0.0131498,-0.00667296,0.015929,-0.00287251,-1.17617,0.011695,0.0182143,881,484,0.314302,15.7237
-336,540,0.270691,-16.2715,-0.000114673,0.011747,-0.00596528,0.014228,-0.0025957,-1.17665,0.0104585,0.0120772,888,484,0.2707,16.2716
-329,540,0.253967,-16.6887,-5.79751e-05,0.0100882,-0.00533548,0.0123775,-0.00234719,-1.1655,0.00913511,0.00949154,895,484,0.25398,16.6887
-322,540,0.242676,-17.1178,-2.13757e-05,0.00829302,-0.00461676,0.0103485,-0.00207681,-1.15193,0.00768535,0.0137912,902,484,0.242691,17.1178
-315,540,0.236267,-17.5397,7.92706e-05,0.0065755,-0.00388264,0.00838951,-0.00173474,-1.13372,0.006252,0.0123226,909,484,0.23626,17.5397
-308,540,0.238098,-17.9222,0.000188416,0.00485897,-0.00308627,0.00639392,-0.00134653,-1.10928,0.00477516,0.0120246,916,484,0.238088,17.9222
-301,540,0.201538,-18.3097,0.000308551,0.00314752,-0.00221204,0.00435636,-0.000900284,-1.07066,0.00324622,0.0128635,923,484,0.201553,18.3097
-294,540,0.205994,-18.7162,0.000426651,0.00140963,-0.00124231,0.00225414,-0.000417854,-0.973764,0.00165967,0.0109277,930,484,0.206018,18.7162
-287,540,0.223999,-19.1221,0.000550615,-3.95784e-06,-0.000340482,0.000712437,-0.000165779,-0.44367,0.000538787,0.00797497,937,484,0.224021,19.1221
-280,540,0.200867,-19.5136,0.000539822,-0.00147245,0.000385888,0.000611285,-0.00154391,0.183116,0.00128255,0.00960527,944,484,0.200884,19.5136
-273,540,0.182617,-19.9038,0.000480977,-0.00313105,0.00129824,0.000899175,-0.00354925,0.311631,0.00271597,0.0116956,951,484,0.182599,19.9038
-266,540,0.187134,-20.2909,0.000596543,-0.00479398,0.00220151,0.00138138,-0.00557882,0.342453,0.00425509,0.0123624,958,484,0.187105,20.2909
-259,540,0.190002,-20.6736,0.000790313,-0.00646405,0.00311943,0.0019472,-0.00762094,0.35514,0.00583894,0.0112924,965,484,0.190021,20.6736
-252,540,0.211365,-21.0207,0.000804357,-0.00888976,0.00405027,0.00227384,-0.0103592,0.348041,0.00777573,0.0112054,972,484,0.211374,21.0207
-245,540,0.226624,-21.3847,0.000569919,-0.0118168,0.00522889,0.00248205,-0.0137289,0.35058,0.0100823,0.0114366,979,484,0.226629,21.3847
-238,540,0.205994,-21.7325,0.000581481,-0.0147803,0.0063173,0.00284565,-0.0170445,0.344146,0.0124207,0.00925159,986,484,0.206013,21.7325
-231,540,0.210876,-22.0803,0.000489348,-0.0178455,0.00753992,0.00319172,-0.0205479,0.344145,0.0148771,0.0133824,993,484,0.210881,22.0803
-224,540,0.191223,-22.3826,0.000271548,-0.0211605,0.00895431,0.00352022,-0.0244092,0.348037,0.0175642,0.0233993,1000,484,0.191207,22.3826
-217,540,0.163391,-22.4958,7.2165e-05,-0.0245863,0.0103186,0.00382036,-0.0283345,0.348427,0.0202834,0.0362536,1007,484,0.163375,22.4958
-210,540,0.213623,-22.6311,-0.000100714,-0.0281314,0.0115295,0.00403221,-0.0322644,0.344195,0.0229719,0.0447573,1014,484,0.213598,22.6311
-203,540,0.086853,-22.9605,0,0,0,0,0,0,0,-1,1021,484,0.0868769,22.9605
-196,540,-0.353027,-22.9156,0,0,0,0,0,0,0,-1,1028,484,-0.353055,22.9156
-189,540,-0.726807,-22.826,0,0,0,0,0,0,0,-1,1035,484,-0.72684,22.8259
-182,540,0.109375,-15.2948,0,0,0,0,0,0,0,-1,1042,484,0.109331,15.2948
-175,540,1.73413,-10.728,0,0,0,0,0,0,0,-1,1049,484,1.73414,10.728
-168,540,1.18164,-7.65347,0,0,0,0,0,0,0,-1,1056,484,1.18163,7.65347
-161,540,-0.405884,-9.86481,0,0,0,0,0,0,0,-1,1063,484,-0.405886,9.8648
-154,540,1.96863,-22.0727,0,0,0,0,0,0,0,-1,1070,484,1.96859,22.0727
-147,540,1.32764,-21.9952,0,0,0,0,0,0,0,-1,1077,484,1.32762,21.9952
-140,540,1.40735,-15.6289,0,0,0,0,0,0,0,-1,1084,484,1.4073,15.6289
-133,540,2.28345,-17.6413,0,0,0,0,0,0,0,-1,1091,484,2.2835,17.6413
-126,540,1.46765,-17.5085,0,0,0,0,0,0,0,-1,1098,484,1.46764,17.5085
-119,540,6.18579,-10.4846,0,0,0,0,0,0,0,-1,1105,484,6.18582,10.4846
-112,540,5.8468,-9.65106,0,0,0,0,0,0,0,-1,1112,484,5.84681,9.65106
-105,540,5.50781,-8.81754,0,0,0,0,0,0,0,-1,1119,484,5.5078,8.81753
-98,540,0.73877,-3.08093,0,0,0,0,0,0,0,-1,1126,484,0.738754,3.08092
-91,540,1.56519,-7.48666,0,0,0,0,0,0,0,-1,1133,484,1.56514,7.48667
-84,540,-0.945923,4.43073,0,0,0,0,0,0,0,-1,1140,484,-0.945891,-4.43074
-77,540,-2.28894,2.14368,0,0,0,0,0,0,0,-1,1147,484,-2.28894,-2.14368
-70,540,-3.75244,-0.452576,0,0,0,0,0,0,0,-1,1154,484,-3.75244,0.452576
-63,540,-5.26257,-3.04767,0,0,0,0,0,0,0,-1,1161,484,-5.26262,3.04766
-56,540,-5.19055,-6.12595,0,0,0,0,0,0,0,-1,1168,484,-5.19057,6.12595
-49,540,-5.63867,-8.52298,0,0,0,0,0,0,0,-1,1175,484,-5.63871,8.52298
-42,540,0,0,0,0,0,0,0,0,0,-1,1182,484,0,0
-35,540,0,0,0,0,0,0,0,0,0,-1,1189,484,0,0
-28,540,0,0,0,0,0,0,0,0,0,-1,1196,484,0,0
-21,540,0,0,0,0,0,0,0,0,0,-1,1203,484,0,0
-14,540,0,0,0,0,0,0,0,0,0,-1,1210,484,0,0
-7,540,0,0,0,0,0,0,0,0,0,-1,1217,484,0,0
0,540,0,0,0,0,0,0,0,0,0,-1,1224,484,0,0
7,540,0,0,0,0,0,0,0,0,0,-1,1231,484,0,0
14,540,0,0,0,0,0,0,0,0,0,-1,1238,484,0,0
21,540,0,0,0,0,0,0,0,0,0,-1,1245,484,0,0
28,540,0,0,0,0,0,0,0,0,0,-1,1252,484,0,0
35,540,0,0,0,0,0,0,0,0,0,-1,1259,484,0,0
42,540,0,0,0,0,0,0,0,0,0,-1,1266,484,0,0
49,540,0,0,0,0,0,0,0,0,0,-1,1273,484,0,0
56,540,0,0,0,0,0,0,0,0,0,-1,1280,484,0,0
63,540,0,0,0,0,0,0,0,0,0,-1,1287,484,0,0
70,540,0,0,0,0,0,0,0,0,0,-1,1294,484,0,0
77,540,0,0,0,0,0,0,0,0,0,-1,1301,484,0,0
84,540,0,0,0,0,0,0,0,0,0,-1,1308,484,0,0
91,540,0,0,0,0,0,0,0,0,0,-1,1315,484,0,0
98,540,0,0,0,0,0,0,0,0,0,-1,1322,484,0,0
105,540,0,0,0,0,0,0,0,0,0,-1,1329,484,0,0
112,540,0,0,0,0,0,0,0,0,0,-1,1336,484,0,0
119,540,0,0,0,0,0,0,0,0,0,-1,1343,484,0,0
126,540,0,0,0,0,0,0,0,0,0,-1,1350,484,0,0
133,540,0,0,0,0,0,0,0,0,0,-1,1357,484,0,0
140,540,0,0,0,0,0,0,0,0,0,-1,1364,484,0,0
147,540,0,0,0,0,0,0,0,0,0,-1,1371,484,0,0
154,540,0,0,0,0,0,0,0,0,0,-1,1378,484,0,0
161,540,0,0,0,0,0,0,0,0,0,-1,1385,484,0,0
168,540,3.05078,-0.0010376,0,0,0,0,0,0,0,-1,1392,484,3.05084,0.00102554
175,540,3.37708,0.617035,0,0,0,0,0,0,0,-1,1399,484,3.37707,-0.617046
182,540,3.32678,1.23267,0,0,0,0,0,0,0,-1,1406,484,3.32678,-1.23266
189,540,3.5813,2.15619,0,0,0,0,0,0,0,-1,1413,484,3.58129,-2.1562
196,540,1.84448,-0.801483,0,0,0,0,0,0,0,-1,1420,484,1.84446,0.80148
203,540,4.14648,0.702087,0,0,0,0,0,0,0,-1,1427,484,4.14645,-0.702089
210,540,4.50671,-0.56076,0,0,0,0,0,0,0,-1,1434,484,4.50667,0.560771
217,540,5.00452,-0.278717,0,0,0,0,0,0,0,-1,1441,484,5.00452,0.278709
224,540,6.44458,-2.83527,0,0,0,0,0,0,0,-1,1448,484,6.44457,2.83525
231,540,6.9231,-3.10504,0,0,0,0,0,0,0,-1,1455,484,6.92307,3.10505
238,540,6.4823,-2.58365,0,0,0,0,0,0,0,-1,1462,484,6.48225,2.58363
245,540,6.02087,-1.97916,0,0,0,0,0,0,0,-1,1469,484,6.02088,1.97915
252,540,6.50647,-3.56006,0,0,0,0,0,0,0,-1,1476,484,6.50649,3.56006
259,540,6.01941,-2.798,0,0,0,0,0,0,0,-1,1483,484,6.01941,2.79801
266,540,5.5332,-2.02853,0,0,0,0,0,0,0,-1,1490,484,5.53323,2.02855
273,540,5.06787,-1.28137,0,0,0,0,0,0,0,-1,1497,484,5.06786,1.28136
280,540,1.62903,-2.14609,0,0,0,0,0,0,0,-1,1504,484,1.62906,2.1461
287,540,1.97156,-2.45053,0,0,0,0,0,0,0,-1,1511,484,1.97159,2.45053
294,540,2.44165,-2.6185,0,0,0,0,0,0,0,-1,1518,484,2.44167,2.6185
301,540,4.36169,-2.54272,0,0,0,0,0,0,0,-1,1525,484,4.36165,2.54272
308,540,4.2019,-4.30469,0,0,0,0,0,0,0,-1,1532,484,4.20193,4.3047
315,540,4.45923,-5.32101,0,0,0,0,0,0,0,-1,1539,484,4.45923,5.32103
322,540,4.71655,-6.33737,0,0,0,0,0,0,0,-1,1546,484,4.71653,6.33736
329,540,5.8949,-12.9383,0,0,0,0,0,0,0,-1,1553,484,5.89492,12.9383
336,540,7.16467,-17.7826,0,0,0,0,0,0,0,-1,1560,484,7.16469,17.7826
343,540,8.44275,-21.2858,0,0,0,0,0,0,0,-1,1567,484,8.44279,21.2858
350,540,8.39807,-21.0054,-0.000557797,-0.0143602,-0.00787216,0.00300988,-0.0179279,-0.425513,0.0130713,0.0492322,1574,484,8.39809,21.0054
357,540,8.41235,-20.9281,-0.000497056,-0.0118003,-0.00671201,0.00262582,-0.0149232,-0.435477,0.0109297,0.0377844,1581,484,8.41231,20.9281
364,540,8.32935,-20.6793,-0.00019074,-0.00965378,-0.00542614,0.00227707,-0.0121216,-0.426838,0.0089373,0.0214394,1588,484,8.32933,20.6793
371,540,8.33325,-20.3481,0.000208476,-0.00749175,-0.00418602,0.00204573,-0.009329,-0.413587,0.00700159,0.0145746,1595,484,8.3332,20.3481
378,540,8.34961,-19.9691,0.000536733,-0.00532179,-0.00304177,0.00183038,-0.00661544,-0.402119,0.00513043,0.0124278,1602,484,8.34964,19.9691
385,540,8.37378,-19.5712,0.000811795,-0.00324619,-0.00194173,0.00159121,-0.00402561,-0.381713,0.00334285,0.0141275,1609,484,8.37378,19.5712
392,540,8.37366,-19.1617,0.000930782,-0.00180829,-0.00117397,0.00136508,-0.00224259,-0.354329,0.00210333,0.0128707,1616,484,8.37362,19.1617
399,540,8.35425,-18.7889,0.000973837,-0.00075233,-0.000546879,0.00113251,-0.000911005,-0.282392,0.00118213,0.0164139,1623,484,8.3543,18.7889
406,540,8.36157,-18.3859,0.000888998,0.00062414,6.65095e-05,0.000904762,0.000608377,0.232714,0.000532616,0.0162004,1630,484,8.36158,18.3859
413,540,8.34473,-17.9702,0.000726448,0.00140026,0.000538704,0.00169873,0.000427973,1.06484,0.0010202,0.0127407,1637,484,8.34474,17.9702
420,540,8.36365,-17.5117,0.000630452,0.00196338,0.000938918,0.00244832,0.000145507,1.09404,0.00158594,0.0121774,1644,484,8.36366,17.5117
427,540,8.33398,-17.0694,0.000522024,0.00232013,0.00124184,0.0029542,-0.000112045,1.09871,0.00200786,0.0128509,1651,484,8.33401,17.0694
434,540,8.30139,-16.6446,0.00037958,0.00261935,0.00153898,0.00340278,-0.000403846,1.09993,0.00241442,0.0151446,1658,484,8.30138,16.6446
441,540,8.29651,-16.236,0.000322621,0.00278334,0.00184426,0.00376998,-0.000664018,1.07956,0.0027614,0.0188591,1665,484,8.29653,16.236
448,540,8.29248,-15.8149,0.000372387,0.00284282,0.00215766,0.00409381,-0.000878607,1.04537,0.00306435,0.0117261,1672,484,8.29249,15.8149
455,540,8.27942,-15.3745,0.000461184,0.00270849,0.00246344,0.00429244,-0.00112277,0.999369,0.00330018,0.0103802,1679,484,8.27941,15.3745
462,540,8.2489,-14.9057,0.000426388,0.00229039,0.00258731,0.00410844,-0.00139166,0.958274,0.00330209,0.010555,1686,484,8.24889,14.9057
469,540,8.20837,-14.4427,0.000429192,0.00051521,0.00227954,0.00275214,-0.00180774,0.794831,0.0026514,0.0138969,1693,484,8.2084,14.4427
476,540,8.18738,-13.9953,0.000439973,-0.00176562,0.0025355,0.00210212,-0.00342777,0.580267,0.00322312,0.0185157,1700,484,8.1874,13.9953
483,540,8.18994,-13.5099,0.000314898,-0.00454629,0.00239075,0.00129363,-0.00552501,0.388567,0.00418179,0.0347631,1707,484,8.18999,13.5099
490,540,8.32471,-12.9177,0,0,0,0,0,0,0,-1,1714,484,8.3247,12.9177
497,540,7.77271,-12.2834,0,0,0,0,0,0,0,-1,1721,484,7.77272,12.2834
504,540,5.52747,-4.4433,0,0,0,0,0,0,0,-1,1728,484,5.5275,4.44329
511,540,5.82471,-6.83521,0,0,0,0,0,0,0,-1,1735,484,5.82465,6.83522
518,540,8.07629,-12.5882,0,0,0,0,0,0,0,-1,1742,484,8.07632,12.5882
525,540,8.45044,-12.0836,0,0,0,0,0,0,0,-1,1749,484,8.45049,12.0836
532,540,2.84265,-1.07925,0,0,0,0,0,0,0,-1,1756,484,2.84269,1.07927
539,540,0,0,0,0,0,0,0,0,0,-1,1763,484,0,0
546,540,0,0,0,0,0,0,0,0,0,-1,1770,484,0,0
553,540,0,0,0,0,0,0,0,0,0,-1,1777,484,0,0
560,540,0,0,0,0,0,0,0,0,0,-1,1784,484,0,0
567,540,0,0,0,0,0,0,0,0,0,-1,1791,484,0,0
574,540,0,0,0,0,0,0,0,0,0,-1,1798,484,0,0
581,540,0,0,0,0,0,0,0,0,0,-1,1805,484,0,0
588,540,0,0,0,0,0,0,0,0,0,-1,1812,484,0,0
595,540,0,0,0,0,0,0,0,0,0,-1,1819,484,0,0
602,540,0,0,0,0,0,0,0,0,0,-1,1826,484,0,0
609,540,0,0,0,0,0,0,0,0,0,-1,1833,484,0,0
616,540,0,0,0,0,0,0,0,0,0,-1,1840,484,0,0
623,540,0,0,0,0,0,0,0,0,0,-1,1847,484,0,0
630,540,0,0,0,0,0,0,0,0,0,-1,1854,484,0,0
637,540,0,0,0,0,0,0,0,0,0,-1,1861,484,0,0
644,540,0,0,0,0,0,0,0,0,0,-1,1868,484,0,0
651,540,0,0,0,0,0,0,0,0,0,-1,1875,484,0,0
658,540,0,0,0,0,0,0,0,0,0,-1,1882,484,0,0
665,540,0,0,0,0,0,0,0,0,0,-1,1889,484,0,0
672,540,0,0,0,0,0,0,0,0,0,-1,1896,484,0,0
679,540,0,0,0,0,0,0,0,0,0,-1,1903,484,0,0
686,540,0,0,0,0,0,0,0,0,0,-1,1910,484,0,0
693,540,0,0,0,0,0,0,0,0,0,-1,1917,484,0,0
700,540,0,0,0,0,0,0,0,0,0,-1,1924,484,0,0
707,540,0,0,0,0,0,0,0,0,0,-1,1931,484,0,0
714,540,0,0,0,0,0,0,0,0,0,-1,1938,484,0,0
721,540,0,0,0,0,0,0,0,0,0,-1,1945,484,0,0
728,540,0,0,0,0,0,0,0,0,0,-1,1952,484,0,0
735,540,0,0,0,0,0,0,0,0,0,-1,1959,484,0,0
742,540,0,0,0,0,0,0,0,0,0,-1,1966,484,0,0
749,540,0,0,0,0,0,0,0,0,0,-1,1973,484,0,0
756,540,0,0,0,0,0,0,0,0,0,-1,1980,484,0,0
763,540,0,0,0,0,0,0,0,0,0,-1,1987,484,0,0
770,540,0,0,0,0,0,0,0,0,0,-1,1994,484,0,0
777,540,0,0,0,0,0,0,0,0,0,-1,2001,484,0,0
784,540,0,0,0,0,0,0,0,0,0,-1,2008,484,0,0
791,540,0,0,0,0,0,0,0,0,0,-1,2015,484,0,0
798,540,0,0,0,0,0,0,0,0,0,-1,2022,484,0,0
805,540,0,0,0,0,0,0,0,0,0,-1,2029,484,0,0
812,540,0,0,0,0,0,0,0,0,0,-1,2036,484,0,0
-700,533,0,0,0,0,0,0,0,0,0,-1,524,491,0,0
-693,533,0,0,0,0,0,0,0,0,0,-1,531,491,0,0
-686,533,0,0,0,0,0,0,0,0,0,-1,538,491,0,0
-679,533,0,0,0,0,0,0,0,0,0,-1,545,491,0,0
-672,533,0,0,0,0,0,0,0,0,0,-1,552,491,0,0
-665,533,0,0,0,0,0,0,0,0,0,-1,559,491,0,0
-658,533,0,0,0,0,0,0,0,0,0,-1,566,491,0,0
-651,533,0,0,0,0,0,0,0,0,0,-1,573,491,0,0
-644,533,0,0,0,0,0,0,0,0,0,-1,580,491,0,0
-637,533,0,0,0,0,0,0,0,0,0,-1,587,491,0,0
-630,533,0,0,0,0,0,0,0,0,0,-1,594,491,0,0
-623,533,0,0,0,0,0,0,0,0,0,-1,601,491,0,0
-616,533,0,0,0,0,0,0,0,0,0,-1,608,491,0,0
-609,533,0,0,0,0,0,0,0,0,0,-1,615,491,0,0
-602,533,0,0,0,0,0,0,0,0,0,-1,622,491,0,0
-595,533,0,0,0,0,0,0,0,0,0,-1,629,491,0,0
-588,533,0,0,0,0,0,0,0,0,0,-1,636,491,0,0
-581,533,0,0,0,0,0,0,0,0,0,-1,643,491,0,0
-574,533,0,0,0,0,0,0,0,0,0,-1,650,491,0,0
-567,533,0,0,0,0,0,0,0,0,0,-1,657,491,0,0
-560,533,0,0,0,0,0,0,0,0,0,-1,664,491,0,0
-553,533,0,0,0,0,0,0,0,0,0,-1,671,491,0,0
-546,533,0,0,0,0,0,0,0,0,0,-1,678,491,0,0
-539,533,0,0,0,0,0,0,0,0,0,-1,685,491,0,0
-532,533,0,0,0,0,0,0,0,0,0,-1,692,491,0,0
-525,533,0,0,0,0,0,0,0,0,0,-1,699,491,0,0
-518,533,0,0,0,0,0,0,0,0,0,-1,706,491,0,0
-511,533,0,0,0,0,0,0,0,0,0,-1,713,491,0,0
-504,533,0,0,0,0,0,0,0,0,0,-1,720,491,0,0
-497,533,0,0,0,0,0,0,0,0,0,-1,727,491,0,0
-490,533,0,0,0,0,0,0,0,0,0,-1,734,491,0,0
-483,533,0,0,0,0,0,0,0,0,0,-1,741,491,0,0
-476,533,0,0,0,0,0,0,0,0,0,-1,748,491,0,0
-469,533,0,0,0,0,0,0,0,0,0,-1,755,491,0,0
-462,533,0,0,0,0,0,0,0,0,0,-1,762,491,0,0
-455,533,0,0,0,0,0,0,0,0,0,-1,769,491,0,0
-448,533,0,0,0,0,0,0,0,0,0,-1,776,491,0,0
-441,533,0,0,0,0,0,0,0,0,0,-1,783,491,0,0
-434,533,0,0,0,0,0,0,0,0,0,-1,790,491,0,0
-427,533,0.559814,-4.40222,0,0,0,0,0,0,0,-1,797,491,0.559816,4.40222
-420,533,-0.194275,-9.77838,0,0,0,0,0,0,0,-1,804,491,-0.194288,9.77838
-413,533,-0.107605,-10.3044,0,0,0,0,0,0,0,-1,811,491,-0.107595,10.3044
-406,533,-0.793152,-10.1816,-0.0947446,0.0812476,-0.0243889,0.0845649,-0.0980619,-1.43561,0.105536,0.0458769,818,491,-0.793158,10.1816
-399,533,-1.34302,-10.1628,-0.0776136,0.070403,-0.020452,0.073177,-0.0803875,-1.43599,0.0886931,0.0457543,825,491,-1.34302,10.1628
-392,533,-1.89661,-10.3905,0,0,0,0,0,0,0,-1,832,491,-1.89661,10.3905
-385,533,-1.69116,-6.64645,0,0,0,0,0,0,0,-1,839,491,-1.69115,6.64645
-378,533,0.538757,-10.1314,0,0,0,0,0,0,0,-1,846,491,0.538741,10.1314
-371,533,-0.171387,-14.0254,0,0,0,0,0,0,0,-1,853,491,-0.171401,14.0254
-364,533,-0.0560913,-14.4454,-0.0153436,0.0238311,-0.00858246,0.0256289,-0.0171413,-1.36431,0.024855,0.0436168,860,491,-0.0561158,14.4454
-357,533,-0.00274658,-14.8389,-0.0079186,0.0184207,-0.00677348,0.0200605,-0.0095584,-1.33328,0.0174551,0.0235377,867,491,-0.00274629,14.8389
-350,533,-0.0366821,-15.3261,-0.00226254,0.0133412,-0.00541601,0.0150368,-0.00395816,-1.26739,0.0115718,0.0133541,874,491,-0.0366833,15.3261
-343,533,-0.0771484,-15.8239,8.25798e-05,0.00931486,-0.00493823,0.0114585,-0.00206108,-1.16125,0.00841064,0.0119726,881,491,-0.0771741,15.8239
-336,533,-0.128723,-16.2866,3.16014e-05,0.00826835,-0.00424785,0.0100665,-0.00176655,-1.17036,0.00737075,0.0154468,888,491,-0.128737,16.2866
-329,533,-0.1521,-16.689,6.52877e-05,0.00704028,-0.00368067,0.00862329,-0.00151772,-1.16463,0.00631584,0.0137892,895,491,-0.152095,16.689
-322,533,-0.149963,-17.1101,7.49649e-05,0.00565468,-0.0030392,0.00699036,-0.00126072,-1.15672,0.00513236,0.0114319,902,491,-0.149978,17.1101
-315,533,-0.155273,-17.5107,0.000159336,0.00432367,-0.00237475,0.0053998,-0.000916795,-1.14532,0.00394117,0.0124417,909,491,-0.155274,17.5107
-308,533,-0.174561,-17.895,0.000278444,0.00291703,-0.00165468,0.00371399,-0.000518511,-1.12195,0.00266569,0.0116447,916,491,-0.174562,17.895
-301,533,-0.207336,-18.2825,0.000407344,0.00144011,-0.000853532,0.00192131,-7.38549e-05,-1.05744,0.00130618,0.0125438,923,491,-0.207332,18.2825
-294,533,-0.183044,-18.6901,0.000524495,-0.000181822,6.52417e-05,0.000530471,-0.000187797,0.0913391,0.000430136,0.0113362,930,491,-0.183057,18.6901
-287,533,-0.165161,-19.1076,0.000684649,-0.00154822,0.00090334,0.00100434,-0.00186791,0.340141,0.00168309,0.00914395,937,491,-0.165157,19.1076
-280,533,-0.181152,-19.5059,0.000650815,-0.00311054,0.00160517,0.00124269,-0.00370242,0.353263,0.00297046,0.00853449,944,491,-0.181147,19.5059
-273,533,-0.200134,-19.8894,0.000511543,-0.00488336,0.00260068,0.00156106,-0.00593288,0.383567,0.00456545,0.0115686,951,491,-0.200156,19.8894
-266,533,-0.19165,-20.2726,0.000655583,-0.00665114,0.00348662,0.00205233,-0.00804788,0.381025,0.00616432,0.0117453,958,491,-0.191642,20.2726
-259,533,-0.177612,-20.6328,0.000916677,-0.00851988,0.00440767,0.00265515,-0.0102584,0.375688,0.00787461,0.0118028,965,491,-0.177586,20.6328
-252,533,-0.156494,-20.9729,0.000905486,-0.0115073,0.00547099,0.00297261,-0.0135744,0.361253,0.0101861,0.0135594,972,491,-0.156499,20.9729
-245,533,-0.126648,-21.3054,0.000527597,-0.0151192,0.00689403,0.00313173,-0.0177233,0.361168,0.0129859,0.0179488,979,491,-0.126648,21.3054
-238,533,-0.104736,-21.5807,0.000455128,-0.0186265,0.00818058,0.00348209,-0.0216535,0.354396,0.0157254,0.023617,986,491,-0.104709,21.5807
-231,533,0.048645,-21.7239,0.000264578,-0.0224323,0.00970489,0.00384838,-0.0260161,0.353745,0.0187589,0.0385809,993,491,0.0486487,21.7239
-224,533,-0.471313,-21.9525,-0.00011116,-0.0265617,0.0115173,0.00420083,-0.0308737,0.358238,0.0221162,0.0495496,1000,491,-0.471316,21.9525
-217,533,-0.249573,-22.3583,-0.000413857,-0.0308093,0.013209,0.00452416,-0.0357473,0.357751,0.0254739,0.0474178,1007,491,-0.24958,22.3582
-210,533,-0.161011,-22.6703,-0.000701337,-0.0352148,0.0147964,0.00477359,-0.0406898,0.354395,0.0288496,0.049254,1014,491,-0.161003,22.6703
-203,533,-0.0952759,-22.967,0,0,0,0,0,0,0,-1,1021,491,-0.0952674,22.967
-196,533,0.688354,-19.5743,0,0,0,0,0,0,0,-1,1028,491,0.688406,19.5743
-189,533,-0.169189,-15.0303,0,0,0,0,0,0,0,-1,1035,491,-0.169241,15.0303
-182,533,1.26123,-11.4969,0,0,0,0,0,0,0,-1,1042,491,1.26128,11.4969
-175,533,0.937744,-7.36966,0,0,0,0,0,0,0,-1,1049,491,0.937769,7.36965
-168,533,2.64807,-2.7543,0,0,0,0,0,0,0,-1,1056,491,2.64812,2.7543
-161,533,1.91833,-1.76553,0,0,0,0,0,0,0,-1,1063,491,1.91836,1.76554
-154,533,0.376709,-11.0633,0,0,0,0,0,0,0,-1,1070,491,0.376715,11.0632
-147,533,0.383789,-12.1586,0,0,0,0,0,0,0,-1,1077,491,0.383829,12.1586
-140,533,1.14001,-15.4608,0,0,0,0,0,0,0,-1,1084,491,1.14005,15.4608
-133,533,0.189941,-16.0795,0,0,0,0,0,0,0,-1,1091,491,0.18994,16.0795
-126,533,2.89612,-2.59003,0,0,0,0,0,0,0,-1,1098,491,2.89608,2.59003
-119,533,3.00842,-12.8239,0,0,0,0,0,0,0,-1,1105,491,3.00841,12.8239
-112,533,7.05884,-10.21,0,0,0,0,0,0,0,-1,1112,491,7.0588,10.21
-105,533,3.84839,1.12769,0,0,0,0,0,0,0,-1,1119,491,3.84843,-1.12769
-98,533,-1.39392,-5.16367,0,0,0,0,0,0,0,-1,1126,491,-1.39394,5.16367
-91,533,0.367432,4.49753,0,0,0,0,0,0,0,-1,1133,491,0.367468,-4.49754
-84,533,-0.88623,3.03604,0,0,0,0,0,0,0,-1,1140,491,-0.886288,-3.03605
-77,533,0,0,0,0,0,0,0,0,0,-1,1147,491,0,0
-70,533,0,0,0,0,0,0,0,0,0,-1,1154,491,0,0
-63,533,0,0,0,0,0,0,0,0,0,-1,1161,491,0,0
-56,533,0,0,0,0,0,0,0,0,0,-1,1168,491,0,0
-49,533,0,0,0,0,0,0,0,0,0,-1,1175,491,0,0
-42,533,0,0,0,0,0,0,0,0,0,-1,1182,491,0,0
-35,533,0,0,0,0,0,0,0,0,0,-1,1189,491,0,0
-28,533,0,0,0,0,0,0,0,0,0,-1,1196,491,0,0
-21,533,0,0,0,0,0,0,0,0,0,-1,1203,491,0,0
-14,533,0,0,0,0,0,0,0,0,0,-1,1210,491,0,0
-7,533,0,0,0,0,0,0,0,0,0,-1,1217,491,0,0
0,533,0,0,0,0,0,0,0,0,0,-1,1224,491,0,0
7,533,0,0,0,0,0,0,0,0,0,-1,1231,491,0,0
14,533,0,0,0,0,0,0,0,0,0,-1,1238,491,0,0
21,533,0,0,0,0,0,0,0,0,0,-1,1245,491,0,0
28,533,0,0,0,0,0,0,0,0,0,-1,1252,491,0,0
35,533,0,0,0,0,0,0,0,0,0,-1,1259,491,0,0
42,533,0,0,0,0,0,0,0,0,0,-1,1266,491,0,0
49,533,0,0,0,0,0,0,0,0,0,-1,1273,491,0,0
56,533,0,0,0,0,0,0,0,0,0,-1,1280,491,0,0
63,533,0,0,0,0,0,0,0,0,0,-1,1287,491,0,0
70,533,0,0,0,0,0,0,0,0,0,-1,1294,491,0,0
77,533,0,0,0,0,0,0,0,0,0,-1,1301,491,0,0
84,533,0,0,0,0,0,0,0,0,0,-1,1308,491,0,0
91,533,0,0,0,0,0,0,0,0,0,-1,1315,491,0,0
98,533,0,0,0,0,0,0,0,0,0,-1,1322,491,0,0
105,533,0,0,0,0,0,0,0,0,0,-1,1329,491,0,0
112,533,0,0,0,0,0,0,0,0,0,-1,1336,491,0,0
119,533,0,0,0,0,0,0,0,0,0,-1,1343,491,0,0
126,533,0,0,0,0,0,0,0,0,0,-1,1350,491,0,0
133,533,0,0,0,0,0,0,0,0,0,-1,1357,491,0,0
140,533,0,0,0,0,0,0,0,0,0,-1,1364,491,0,0
147,533,0,0,0,0,0,0,0,0,0,-1,1371,491,0,0
154,533,0,0,0,0,0,0,0,0,0,-1,1378,491,0,0
161,533,0,0,0,0,0,0,0,0,0,-1,1385,491,0,0
168,533,0,0,0,0,0,0,0,0,0,-1,1392,491,0,0
175,533,0,0,0,0,0,0,0,0,0,-1,1399,491,0,0
182,533,0,0,0,0,0,0,0,0,0,-1,1406,491,0,0
189,533,0,0,0,0,0,0,0,0,0,-1,1413,491,0,0
196,533,0,0,0,0,0,0,0,0,0,-1,1420,491,0,0
203,533,3.7887,1.16193,0,0,0,0,0,0,0,-1,1427,491,3.78872,-1.16193
210,533,5.09558,-0.216034,0,0,0,0,0,0,0,-1,1434,491,5.09559,0.216028
217,533,6.91614,-2.46814,0,0,0,0,0,0,0,-1,1441,491,6.91618,2.46814
224,533,7.23621,-2.1857,0,0,0,0,0,0,0,-1,1448,491,7.23621,2.1857
231,533,7.23474,-1.92282,0,0,0,0,0,0,0,-1,1455,491,7.2347,1.92282
238,533,7.23535,-1.67258,0,0,0,0,0,0,0,-1,1462,491,7.23539,1.67258
245,533,6.86682,-1.2301,0,0,0,0,0,0,0,-1,1469,491,6.86686,1.23011
252,533,6.63354,-3.07825,0,0,0,0,0,0,0,-1,1476,491,6.6335,3.07824
259,533,6.16431,-2.35037,0,0,0,0,0,0,0,-1,1483,491,6.1643,2.35037
266,533,5.68884,-1.6214,0,0,0,0,0,0,0,-1,1490,491,5.68885,1.6214
273,533,5.21399,-0.864227,0,0,0,0,0,0,0,-1,1497,491,5.21403,0.864227
280,533,1.41089,-1.97946,0,0,0,0,0,0,0,-1,1504,491,1.41087,1.97946
287,533,1.6814,-2.44443,0,0,0,0,0,0,0,-1,1511,491,1.6814,2.44444
294,533,2.2384,-2.57626,0,0,0,0,0,0,0,-1,1518,491,2.23839,2.57625
301,533,3.39941,-4.0817,0,0,0,0,0,0,0,-1,1525,491,3.3994,4.08171
308,533,4.13733,-4.14752,0,0,0,0,0,0,0,-1,1532,491,4.13727,4.14752
315,533,4.80762,-5.29349,0,0,0,0,0,0,0,-1,1539,491,4.80762,5.29347
322,533,5.47803,-6.43942,0,0,0,0,0,0,0,-1,1546,491,5.47798,6.43943
329,533,3.88477,-3.86301,0,0,0,0,0,0,0,-1,1553,491,3.88475,3.86299
336,533,6.70923,-13.2003,0,0,0,0,0,0,0,-1,1560,491,6.70926,13.2004
343,533,7.06677,-17.1133,0,0,0,0,0,0,0,-1,1567,491,7.06673,17.1133
350,533,8.65698,-20.3847,0,0,0,0,0,0,0,-1,1574,491,8.65697,20.3848
357,533,8.80872,-20.7339,0,0,0,0,0,0,0,-1,1581,491,8.80876,20.7339
364,533,8.88843,-20.5412,-0.000750968,-0.0125035,-0.00703168,0.00253655,-0.015791,-0.437336,0.0114668,0.0417128,1588,491,8.88839,20.5412
371,533,8.69019,-20.2918,-4.47373e-05,-0.0095808,-0.00541879,0.00240508,-0.0120306,-0.424597,0.00893072,0.0371396,1595,491,8.69017,20.2918
378,533,8.69751,-19.9442,0.000504059,-0.00672375,-0.0039438,0.00223935,-0.00845903,-0.41451,0.00651537,0.02844,1602,491,8.69746,19.9442
385,533,8.79358,-19.5378,0.000971578,-0.00418957,-0.00255212,0.00202042,-0.00523842,-0.389927,0.00432599,0.0232887,1609,491,8.79353,19.5378
392,533,8.78381,-19.1605,0.00117537,-0.00255592,-0.00170095,0.00183438,-0.00321493,-0.369626,0.00295131,0.0139498,1616,491,8.7838,19.1605
399,533,8.77136,-18.7919,0.00126615,-0.00142874,-0.00106236,0.00163458,-0.00179717,-0.333822,0.00198206,0.0129155,1623,491,8.77132,18.7919
406,533,8.78186,-18.3918,0.00122675,3.50071e-05,-0.000415936,0.00135756,-9.58029e-05,-0.304702,0.000938603,0.0160332,1630,491,8.78183,18.3917
413,533,8.77808,-17.9493,0.00111226,0.000822826,8.10967e-05,0.00113343,0.000801652,0.25539,0.00067287,0.0139625,1637,491,8.77807,17.9494
420,533,8.75012,-17.5035,0.00103967,0.0013818,0.000489165,0.00172895,0.000692522,0.953607,0.00100477,0.0123923,1644,491,8.75008,17.5035
427,533,8.75818,-17.0451,0.000843437,0.00172156,0.000731036,0.00213525,0.000429744,1.05583,0.00130407,0.0129478,1651,491,8.75823,17.0451
434,533,8.73938,-16.6474,0.000628969,0.00196894,0.000974609,0.00248164,0.000116269,1.08652,0.00161706,0.0131296,1658,491,8.73943,16.6474
441,533,8.75586,-16.216,0.000509907,0.00210866,0.00123776,0.00278274,-0.000164165,1.07212,0.00191223,0.0159762,1665,491,8.75583,16.216
448,533,8.75183,-15.8093,0.000505954,0.00214794,0.00151204,0.00304749,-0.000393601,1.03411,0.00217477,0.0171502,1672,491,8.75177,15.8093
455,533,8.71179,-15.3713,0.000527413,0.00203472,0.00178144,0.00321537,-0.000653233,0.985511,0.00239125,0.0161031,1679,491,8.71178,15.3713
462,533,8.68445,-14.8734,0.000422475,0.00165522,0.00188252,0.0030197,-0.000942005,0.943608,0.00238984,0.0141996,1686,491,8.68443,14.8734
469,533,8.67004,-14.4482,0.000296531,0.00012895,0.00160003,0.00181497,-0.00138949,0.759238,0.00185552,0.0096855,1693,491,8.67006,14.4482
476,533,8.66272,-13.9763,0.000109642,-0.00182527,0.00176763,0.00115725,-0.00287288,0.535008,0.00239605,0.010997,1700,491,8.66267,13.9763
483,533,8.6803,-13.4715,-0.000224564,-0.00415098,0.00157862,0.0003314,-0.00470694,0.338619,0.00325406,0.018036,1707,491,8.68029,13.4715
490,533,8.69421,-13.1262,-0.000648677,-0.0074113,0.00136546,-0.000383382,-0.00767659,0.191899,0.00499484,0.0430161,1714,491,8.69427,13.1262
497,533,8.75098,-12.774,0,0,0,0,0,0,0,-1,1721,491,8.75094,12.7741
504,533,8.8739,-12.038,0,0,0,0,0,0,0,-1,1728,491,8.87388,12.038
511,533,8.59692,-11.8239,0,0,0,0,0,0,0,-1,1735,491,8.59688,11.8239
518,533,8.26611,-12.2199,-0.00294295,-0.0322053,0.000179782,-0.00294185,-0.0322064,0.0061435,0.0205606,0.0492387,1742,491,8.26614,12.2199
525,533,8.63123,-11.7505,-0.00359757,-0.0407326,0.000554424,-0.0035893,-0.0407409,0.0149255,0.0260467,0.0497501,1749,491,8.63119,11.7505
532,533,8.92249,-11.2121,0,0,0,0,0,0,0,-1,1756,491,8.92243,11.2121
539,533,3.61609,1.62427,0,0,0,0,0,0,0,-1,1763,491,3.61606,-1.62426
546,533,3.59607,1.65799,0,0,0,0,0,0,0,-1,1770,491,3.59605,-1.658
553,533,0,0,0,0,0,0,0,0,0,-1,1777,491,0,0
560,533,0,0,0,0,0,0,0,0,0,-1,1784,491,0,0
567,533,0,0,0,0,0,0,0,0,0,-1,1791,491,0,0
574,533,0,0,0,0,0,0,0,0,0,-1,1798,491,0,0
581,533,0,0,0,0,0,0,0,0,0,-1,1805,491,0,0
588,533,0,0,0,0,0,0,0,0,0,-1,1812,491,0,0
595,533,0,0,0,0,0,0,0,0,0,-1,1819,491,0,0
602,533,0,0,0,0,0,0,0,0,0,-1,1826,491,0,0
609,533,0,0,0,0,0,0,0,0,0,-1,1833,491,0,0
616,533,0,0,0,0,0,0,0,0,0,-1,1840,491,0,0
623,533,0,0,0,0,0,0,0,0,0,-1,1847,491,0,0
630,533,0,0,0,0,0,0,0,0,0,-1,1854,491,0,0
637,533,0,0,0,0,0,0,0,0,0,-1,1861,491,0,0
644,533,0,0,0,0,0,0,0,0,0,-1,1868,491,0,0
651,533,0,0,0,0,0,0,0,0,0,-1,1875,491,0,0
658,533,0,0,0,0,0,0,0,0,0,-1,1882,491,0,0
665,533,0,0,0,0,0,0,0,0,0,-1,1889,491,0,0
672,533,0,0,0,0,0,0,0,0,0,-1,1896,491,0,0
679,533,0,0,0,0,0,0,0,0,0,-1,1903,491,0,0
686,533,0,0,0,0,0,0,0,0,0,-1,1910,491,0,0
693,533,0,0,0,0,0,0,0,0,0,-1,1917,491,0,0
700,533,0,0,0,0,0,0,0,0,0,-1,1924,491,0,0
707,533,0,0,0,0,0,0,0,0,0,-1,1931,491,0,0
714,533,0,0,0,0,0,0,0,0,0,-1,1938,491,0,0
721,533,0,0,0,0,0,0,0,0,0,-1,1945,491,0,0
728,533,0,0,0,0,0,0,0,0,0,-1,1952,491,0,0
735,533,0,0,0,0,0,0,0,0,0,-1,1959,491,0,0
742,533,0,0,0,0,0,0,0,0,0,-1,1966,491,0,0
749,533,0,0,0,0,0,0,0,0,0,-1,1973,491,0,0
756,533,0,0,0,0,0,0,0,0,0,-1,1980,491,0,0
763,533,0,0,0,0,0,0,0,0,0,-1,1987,491,0,0
770,533,0,0,0,0,0,0,0,0,0,-1,1994,491,0,0
777,533,0,0,0,0,0,0,0,0,0,-1,2001,491,0,0
784,533,0,0,0,0,0,0,0,0,0,-1,2008,491,0,0
791,533,0,0,0,0,0,0,0,0,0,-1,2015,491,0,0
798,533,0,0,0,0,0,0,0,0,0,-1,2022,491,0,0
805,533,0,0,0,0,0,0,0,0,0,-1,2029,491,0,0
812,533,0,0,0,0,0,0,0,0,0,-1,2036,491,0,0
-700,526,0,0,0,0,0,0,0,0,0,-1,524,498,0,0
-693,526,0,0,0,0,0,0,0,0,0,-1,531,498,0,0
-686,526,0,0,0,0,0,0,0,0,0,-1,538,498,0,0
-679,526,0,0,0,0,0,0,0,0,0,-1,545,498,0,0
-672,526,0,0,0,0,0,0,0,0,0,-1,552,498,0,0
-665,526,0,0,0,0,0,0,0,0,0,-1,559,498,0,0
-658,526,0,0,0,0,0,0,0,0,0,-1,566,498,0,0
-651,526,0,0,0,0,0,0,0,0,0,-1,573,498,0,0
-644,526,0,0,0,0,0,0,0,0,0,-1,580,498,0,0
-637,526,0,0,0,0,0,0,0,0,0,-1,587,498,0,0
-630,526,0,0,0,0,0,0,0,0,0,-1,594,498,0,0
-623,526,0,0,0,0,0,0,0,0,0,-1,601,498,0,0
-616,526,0,0,0,0,0,0,0,0,0,-1,608,498,0,0
-609,526,0,0,0,0,0,0,0,0,0,-1,615,498,0,0
-602,526,0,0,0,0,0,0,0,0,0,-1,622,498,0,0
-595,526,0,0,0,0,0,0,0,0,0,-1,629,498,0,0
-588,526,0,0,0,0,0,0,0,0,0,-1,636,498,0,0
-581,526,0,0,0,0,0,0,0,0,0,-1,643,498,0,0
-574,526,0,0,0,0,0,0,0,0,0,-1,650,498,0,0
-567,526,0,0,0,0,0,0,0,0,0,-1,657,498,0,0
-560,526,0,0,0,0,0,0,0,0,0,-1,664,498,0,0
-553,526,0,0,0,0,0,0,0,0,0,-1,671,498,0,0
-546,526,0,0,0,0,0,0,0,0,0,-1,678,498,0,0
-539,526,0,0,0,0,0,0,0,0,0,-1,685,498,0,0
-532,526,0,0,0,0,0,0,0,0,0,-1,692,498,0,0
-525,526,0,0,0,0,0,0,0,0,0,-1,699,498,0,0
-518,526,0,0,0,0,0,0,0,0,0,-1,706,498,0,0
-511,526,0,0,0,0,0,0,0,0,0,-1,713,498,0,0
-504,526,0,0,0,0,0,0,0,0,0,-1,720,498,0,0
-497,526,0,0,0,0,0,0,0,0,0,-1,727,498,0,0
-490,526,0,0,0,0,0,0,0,0,0,-1,734,498,0,0
-483,526,0,0,0,0,0,0,0,0,0,-1,741,498,0,0
-476,526,0,0,0,0,0,0,0,0,0,-1,748,498,0,0
-469,526,0,0,0,0,0,0,0,0,0,-1,755,498,0,0
-462,526,0,0,0,0,0,0,0,0,0,-1,762,498,0,0
-455,526,0,0,0,0,0,0,0,0,0,-1,769,498,0,0
-448,526,0,0,0,0,0,0,0,0,0,-1,776,498,0,0
-441,526,0,0,0,0,0,0,0,0,0,-1,783,498,0,0
-434,526,-0.153564,-5.96649,0,0,0,0,0,0,0,-1,790,498,-0.153589,5.9665
-427,526,1.23206,-4.59808,0,0,0,0,0,0,0,-1,797,498,1.23208,4.59809
-420,526,0.923462,-10.1938,0,0,0,0,0,0,0,-1,804,498,0.92349,10.1938
-413,526,0.16394,-10.6163,-0.0959835,0.0737583,-0.028179,0.0783141,-0.100539,-1.41051,0.103526,0.0477937,811,498,0.163953,10.6163
-406,526,-0.60553,-10.9215,-0.0792755,0.0646031,-0.0236205,0.0683816,-0.0830541,-1.41217,0.0875681,0.0412712,818,498,-0.605555,10.9215
-399,526,-1.47943,-11.1546,-0.0639829,0.0552299,-0.019682,0.0583953,-0.0671483,-1.41133,0.0725414,0.0479663,825,498,-1.47941,11.1546
-392,526,-2.27356,-11.5593,0,0,0,0,0,0,0,-1,832,498,-2.27357,11.5593
-385,526,-0.764648,-12.3108,0,0,0,0,0,0,0,-1,839,498,-0.764631,12.3108
-378,526,-0.468262,-13.56,0,0,0,0,0,0,0,-1,846,498,-0.468252,13.56
-371,526,-0.471313,-14.0129,-0.0185783,0.0223713,-0.00858903,0.0240998,-0.0203068,-1.3722,0.0256694,0.0357319,853,498,-0.47134,14.013
-364,526,-0.474792,-14.4289,-0.011828,0.01739,-0.00714572,0.019044,-0.0134819,-1.34334,0.0188701,0.0183954,860,498,-0.474798,14.4289
-357,526,-0.467896,-14.8793,-0.00597288,0.0131336,-0.00542184,0.0145649,-0.00740421,-1.31269,0.0129065,0.0119529,867,498,-0.467904,14.8793
-350,526,-0.479797,-15.3341,-0.00150437,0.00931442,-0.00413394,0.0107132,-0.00290313,-1.24453,0.00828123,0.011644,874,498,-0.47978,15.3341
-343,526,-0.50293,-15.7914,0.000283136,0.00619806,-0.00356691,0.00787411,-0.00139291,-1.13153,0.00577003,0.0159057,881,498,-0.502906,15.7914
-336,526,-0.539368,-16.2397,0.000230238,0.005349,-0.00290278,0.00665957,-0.00108034,-1.1467,0.00484018,0.0161391,888,498,-0.539391,16.2397
-329,526,-0.555237,-16.6647,0.000269358,0.00436488,-0.00238498,0.0054606,-0.00082636,-1.14013,0.00394481,0.0143475,895,498,-0.555214,16.6647
-322,526,-0.545349,-17.0735,0.00027783,0.00323524,-0.00179262,0.00408033,-0.000567267,-1.13026,0.00292769,0.00942058,902,498,-0.545348,17.0735
-315,526,-0.551025,-17.499,0.000355792,0.00214458,-0.00117288,0.00272517,-0.000224798,-1.11115,0.00189616,0.00890283,909,498,-0.551039,17.499
-308,526,-0.569824,-17.9147,0.00048978,0.000947148,-0.000500047,0.00126832,0.000168606,-0.999862,0.000795326,0.00842866,916,498,-0.569825,17.9147
-301,526,-0.60083,-18.3004,0.000629478,-0.000368905,0.000260497,0.000693359,-0.000432786,0.240482,0.000655956,0.00961744,923,498,-0.60083,18.3004
-294,526,-0.590088,-18.6975,0.000736036,-0.00192202,0.00116295,0.00117301,-0.002359,0.359426,0.00207717,0.00938873,930,498,-0.590075,18.6975
-287,526,-0.597595,-19.0991,0.000919402,-0.00327765,0.00197577,0.00170315,-0.00406139,0.37764,0.00341973,0.00943869,937,498,-0.597614,19.099
-280,526,-0.62738,-19.4789,0.000846436,-0.00498118,0.00270948,0.00191152,-0.00604626,0.374539,0.0047967,0.0122355,944,498,-0.627378,19.479
-273,526,-0.615906,-19.8717,0.000619957,-0.00691346,0.00384055,0.00223265,-0.00852615,0.397552,0.00655628,0.0106686,951,498,-0.615934,19.8717
-266,526,-0.607788,-20.2506,0.000781654,-0.0088318,0.00477368,0.00274934,-0.0107995,0.390974,0.00826987,0.010978,958,498,-0.607765,20.2506
-259,526,-0.57196,-20.5704,0.00109361,-0.0109447,0.00576283,0.00340755,-0.0132587,0.381822,0.0101671,0.0204169,965,498,-0.571949,20.5704
-252,526,-0.5979,-20.7668,0.00101677,-0.0146091,0.00704904,0.0037267,-0.0173191,0.367022,0.012968,0.0340852,972,498,-0.597909,20.7668
-245,526,-0.683105,-20.8921,0.000423029,-0.0190267,0.00884807,0.00384584,-0.0224495,0.369112,0.0163993,0.0424973,979,498,-0.683096,20.8921
-238,526,-0.702209,-20.9179,0,0,0,0,0,0,0,-1,986,498,-0.70223,20.9179
-231,526,0.00531006,-21.3448,0,0,0,0,0,0,0,-1,993,498,0.00529021,21.3448
-224,526,-1.00543,-21.6422,0,0,0,0,0,0,0,-1,1000,498,-1.00541,21.6421
-217,526,-0.574402,-22.3626,0,0,0,0,0,0,0,-1,1007,498,-0.5744,22.3626
-210,526,-0.525757,-22.7145,0,0,0,0,0,0,0,-1,1014,498,-0.525755,22.7145
-203,526,-0.659302,-18.8818,0,0,0,0,0,0,0,-1,1021,498,-0.659273,18.8818
-196,526,-0.328247,-12.179,0,0,0,0,0,0,0,-1,1028,498,-0.328238,12.179
-189,526,0.401245,-5.96826,0,0,0,0,0,0,0,-1,1035,498,0.401197,5.96826
-182,526,1.7323,-2.99405,0,0,0,0,0,0,0,-1,1042,498,1.73226,2.99404
-175,526,2.27637,-2.07983,0,0,0,0,0,0,0,-1,1049,498,2.27639,2.07984
-168,526,2.12036,-1.66049,0,0,0,0,0,0,0,-1,1056,498,2.12035,1.66048
-161,526,2.09082,-1.20572,0,0,0,0,0,0,0,-1,1063,498,2.09086,1.2057
-154,526,-1.3446,-5.37799,0,0,0,0,0,0,0,-1,1070,498,-1.34457,5.37799
-147,526,-0.472656,-6.64996,0,0,0,0,0,0,0,-1,1077,498,-0.472659,6.64997
-140,526,0.422852,-8.03339,0,0,0,0,0,0,0,-1,1084,498,0.422844,8.0334
-133,526,1.09583,-9.2215,0,0,0,0,0,0,0,-1,1091,498,1.09581,9.2215
-126,526,3.42529,-2.36053,0,0,0,0,0,0,0,-1,1098,498,3.42523,2.36052
-119,526,2.7771,-0.764099,0,0,0,0,0,0,0,-1,1105,498,2.7771,0.764107
-112,526,2.57715,-1.1893,0,0,0,0,0,0,0,-1,1112,498,2.57718,1.1893
-105,526,0,0,0,0,0,0,0,0,0,-1,1119,498,0,0
-98,526,0,0,0,0,0,0,0,0,0,-1,1126,498,0,0
-91,526,0,0,0,0,0,0,0,0,0,-1,1133,498,0,0
-84,526,0,0,0,0,0,0,0,0,0,-1,1140,498,0,0
-77,526,0,0,0,0,0,0,0,0,0,-1,1147,498,0,0
-70,526,0,0,0,0,0,0,0,0,0,-1,1154,498,0,0
-63,526,0,0,0,0,0,0,0,0,0,-1,1161,498,0,0
-56,526,0,0,0,0,0,0,0,0,0,-1,1168,498,0,0
-49,526,0,0,0,0,0,0,0,0,0,-1,1175,498,0,0
-42,526,0,0,0,0,0,0,0,0,0,-1,1182,498,0,0
-35,526,0,0,0,0,0,0,0,0,0,-1,1189,498,0,0
-28,526,0,0,0,0,0,0,0,0,0,-1,1196,498,0,0
-21,526,0,0,0,0,0,0,0,0,0,-1,1203,498,0,0
-14,526,0,0,0,0,0,0,0,0,0,-1,1210,498,0,0
-7,526,0,0,0,0,0,0,0,0,0,-1,1217,498,0,0
0,526,0,0,0,0,0,0,0,0,0,-1,1224,498,0,0
7,526,0,0,0,0,0,0,0,0,0,-1,1231,498,0,0
14,526,0,0,0,0,0,0,0,0,0,-1,1238,498,0,0
21,526,0,0,0,0,0,0,0,0,0,-1,1245,498,0,0
28,526,0,0,0,0,0,0,0,0,0,-1,1252,498,0,0
35,526,0,0,0,0,0,0,0,0,0,-1,1259,498,0,0
42,526,0,0,0,0,0,0,0,0,0,-1,1266,498,0,0
49,526,0,0,0,0,0,0,0,0,0,-1,1273,498,0,0
56,526,0,0,0,0,0,0,0,0,0,-1,1280,498,0,0
63,526,0,0,0,0,0,0,0,0,0,-1,1287,498,0,0
70,526,0,0,0,0,0,0,0,0,0,-1,1294,498,0,0
77,526,0,0,0,0,0,0,0,0,0,-1,1301,498,0,0
84,526,0,0,0,0,0,0,0,0,0,-1,1308,498,0,0
91,526,0,0,0,0,0,0,0,0,0,-1,1315,498,0,0
98,526,0,0,0,0,0,0,0,0,0,-1,1322,498,0,0
105,526,0,0,0,0,0,0,0,0,0,-1,1329,498,0,0
112,526,0,0,0,0,0,0,0,0,0,-1,1336,498,0,0
119,526,0,0,0,0,0,0,0,0,0,-1,1343,498,0,0
126,526,0,0,0,0,0,0,0,0,0,-1,1350,498,0,0
133,526,0,0,0,0,0,0,0,0,0,-1,1357,498,0,0
140,526,0,0,0,0,0,0,0,0,0,-1,1364,498,0,0
147,526,0,0,0,0,0,0,0,0,0,-1,1371,498,0,0
154,526,0,0,0,0,0,0,0,0,0,-1,1378,498,0,0
161,526,0,0,0,0,0,0,0,0,0,-1,1385,498,0,0
168,526,0,0,0,0,0,0,0,0,0,-1,1392,498,0,0
175,526,0,0,0,0,0,0,0,0,0,-1,1399,498,0,0
182,526,0,0,0,0,0,0,0,0,0,-1,1406,498,0,0
189,526,0,0,0,0,0,0,0,0,0,-1,1413,498,0,0
196,526,0,0,0,0,0,0,0,0,0,-1,1420,498,0,0
203,526,0,0,0,0,0,0,0,0,0,-1,1427,498,0,0
210,526,0,0,0,0,0,0,0,0,0,-1,1434,498,0,0
217,526,0,0,0,0,0,0,0,0,0,-1,1441,498,0,0
224,526,0,0,0,0,0,0,0,0,0,-1,1448,498,0,0
231,526,7.93237,-1.30618,0,0,0,0,0,0,0,-1,1455,498,7.93238,1.30618
238,526,7.97717,-1.08197,0,0,0,0,0,0,0,-1,1462,498,7.97723,1.08196
245,526,7.2793,-0.792938,0,0,0,0,0,0,0,-1,1469,498,7.27931,0.792926
252,526,6.73523,-2.23608,0,0,0,0,0,0,0,-1,1476,498,6.73525,2.23608
259,526,6.22949,-1.84967,0,0,0,0,0,0,0,-1,1483,498,6.22953,1.84968
266,526,5.72375,-1.46329,0,0,0,0,0,0,0,-1,1490,498,5.72381,1.46328
273,526,4.33984,0.49173,0,0,0,0,0,0,0,-1,1497,498,4.33979,-0.491727
280,526,1.4585,-1.59897,0,0,0,0,0,0,0,-1,1504,498,1.45846,1.59895
287,526,1.46411,-2.40134,0,0,0,0,0,0,0,-1,1511,498,1.46406,2.40133
294,526,5.57471,-4.59085,0,0,0,0,0,0,0,-1,1518,498,5.57466,4.59084
301,526,4.42786,-3.99677,0,0,0,0,0,0,0,-1,1525,498,4.42788,3.99676
308,526,5.79529,-4.19366,0,0,0,0,0,0,0,-1,1532,498,5.79528,4.19368
315,526,5.09851,-5.20068,0,0,0,0,0,0,0,-1,1539,498,5.09851,5.20068
322,526,5.50708,-4.72348,0,0,0,0,0,0,0,-1,1546,498,5.50713,4.72347
329,526,3.88672,-4.345,0,0,0,0,0,0,0,-1,1553,498,3.88674,4.34501
336,526,4.97876,-2.23828,0,0,0,0,0,0,0,-1,1560,498,4.97877,2.23828
343,526,3.31665,-2.69696,0,0,0,0,0,0,0,-1,1567,498,3.31667,2.69696
350,526,6.06287,-6.12015,0,0,0,0,0,0,0,-1,1574,498,6.06286,6.12014
357,526,5.79736,-7.7854,0,0,0,0,0,0,0,-1,1581,498,5.79734,7.78539
364,526,9.427,-20.5953,0,0,0,0,0,0,0,-1,1588,498,9.427,20.5953
371,526,9.08948,-20.5652,0,0,0,0,0,0,0,-1,1595,498,9.0895,20.5652
378,526,9.01514,-20.2568,0,0,0,0,0,0,0,-1,1602,498,9.01518,20.2568
385,526,9.16577,-19.6641,0,0,0,0,0,0,0,-1,1609,498,9.16577,19.6641
392,526,9.21033,-19.1896,0,0,0,0,0,0,0,-1,1616,498,9.21028,19.1896
399,526,9.15137,-18.795,0.00149392,-0.00169273,-0.00146746,0.00206673,-0.00226554,-0.372151,0.00250211,0.0242026,1623,498,9.15142,18.795
406,526,9.21118,-18.3453,0.00152062,-0.000225719,-0.000805135,0.00183517,-0.000540264,-0.372441,0.00143778,0.0133553,1630,498,9.21124,18.3453
413,526,9.20068,-17.9349,0.00146722,0.00049842,-0.000305489,0.0015555,0.000410137,-0.281327,0.00093091,0.0132962,1637,498,9.2007,17.9349
420,526,9.1604,-17.5075,0.00141737,0.000986017,9.1569e-05,0.001436,0.000967384,0.200753,0.000845581,0.0128064,1644,498,9.16034,17.5075
427,526,9.18127,-17.0615,0.00113782,0.00126022,0.000263307,0.00146935,0.000928696,0.899584,0.000858132,0.0130908,1651,498,9.18123,17.0615
434,526,9.17688,-16.6401,0.000853395,0.00143908,0.00045274,0.00168543,0.000607043,1.07247,0.000985686,0.0119201,1658,498,9.17687,16.64
441,526,9.15686,-16.1989,0.000676494,0.00155601,0.000685853,0.00193098,0.000301524,1.07047,0.00119951,0.0114182,1665,498,9.15684,16.1989
448,526,9.15369,-15.7885,0.000627536,0.00158123,0.000933005,0.00215218,5.65844e-05,1.02164,0.0014163,0.0113015,1672,498,9.15374,15.7885
455,526,9.12634,-15.3688,0.000600034,0.00149502,0.00117886,0.00230846,-0.000213407,0.966797,0.00161482,0.0140329,1679,498,9.12638,15.3688
462,526,9.12683,-14.8991,0.000461925,0.00120129,0.0012906,0.00217411,-0.000510893,0.924885,0.00164634,0.00988571,1686,498,9.12688,14.8991
469,526,9.12,-14.4595,0.000259033,-1.49279e-05,0.00107729,0.00120802,-0.000963911,0.722161,0.0012566,0.00714315,1693,498,9.12002,14.4595
476,526,9.10266,-13.9927,-5.09744e-05,-0.00162726,0.00118703,0.000585739,-0.00226397,0.492335,0.00173779,0.00906444,1700,498,9.10265,13.9927
483,526,9.10583,-13.4798,-0.00050271,-0.00352989,0.000990598,-0.000207367,-0.00382523,0.289756,0.00248392,0.0123181,1707,498,9.10584,13.4798
490,526,9.15149,-12.937,-0.0011044,-0.0061688,0.000739705,-0.000998568,-0.00627463,0.142106,0.00389316,0.0235235,1714,498,9.15153,12.937
497,526,9.10229,-12.64,-0.00193046,-0.00969182,0.000288763,-0.00191974,-0.00970255,0.0371368,0.00593291,0.0306256,1721,498,9.10234,12.64
504,526,9.09338,-12.1739,-0.00292753,-0.0141537,-0.000270621,-0.00292101,-0.0141602,-0.0240876,0.0086328,0.0371599,1728,498,9.09334,12.1739
511,526,9.00464,-11.7856,-0.00399409,-0.0195975,-0.000749949,-0.00395813,-0.0196335,-0.0479158,0.0119894,0.0442053,1735,498,9.00465,11.7856
518,526,8.69458,-11.6867,-0.00516953,-0.0254927,-0.0010288,-0.00511758,-0.0255446,-0.05045,0.0156061,0.0428397,1742,498,8.69463,11.6867
525,526,8.46716,-11.4993,-0.00661667,-0.0322831,-0.00123541,-0.00655734,-0.0323424,-0.0479853,0.0197422,0.0487452,1749,498,8.46718,11.4993
532,526,8.17822,-11.1565,0,0,0,0,0,0,0,-1,1756,498,8.17821,11.1565
539,526,3.29407,0.932312,0,0,0,0,0,0,0,-1,1763,498,3.2941,-0.93232
546,526,3.36731,1.07721,0,0,0,0,0,0,0,-1,1770,498,3.36735,-1.07719
553,526,3.40796,1.37137,0,0,0,0,0,0,0,-1,1777,498,3.40792,-1.37138
560,526,0,0,0,0,0,0,0,0,0,-1,1784,498,0,0
567,526,0,0,0,0,0,0,0,0,0,-1,1791,498,0,0
574,526,0,0,0,0,0,0,0,0,0,-1,1798,498,0,0
581,526,0,0,0,0,0,0,0,0,0,-1,1805,498,0,0
588,526,0,0,0,0,0,0,0,0,0,-1,1812,498,0,0
595,526,0,0,0,0,0,0,0,0,0,-1,1819,498,0,0
602,526,0,0,0,0,0,0,0,0,0,-1,1826,498,0,0
609,526,0,0,0,0,0,0,0,0,0,-1,1833,498,0,0
616,526,0,0,0,0,0,0,0,0,0,-1,1840,498,0,0
623,526,0,0,0,0,0,0,0,0,0,-1,1847,498,0,0
630,526,0,0,0,0,0,0,0,0,0,-1,1854,498,0,0
637,526,0,0,0,0,0,0,0,0,0,-1,1861,498,0,0
644,526,0,0,0,0,0,0,0,0,0,-1,1868,498,0,0
651,526,0,0,0,0,0,0,0,0,0,-1,1875,498,0,0
658,526,0,0,0,0,0,0,0,0,0,-1,1882,498,0,0
665,526,0,0,0,0,0,0,0,0,0,-1,1889,498,0,0
672,526,0,0,0,0,0,0,0,0,0,-1,1896,498,0,0
679,526,0,0,0,0,0,0,0,0,0,-1,1903,498,0,0
686,526,0,0,0,0,0,0,0,0,0,-1,1910,498,0,0
693,526,0,0,0,0,0,0,0,0,0,-1,1917,498,0,0
700,526,0,0,0,0,0,0,0,0,0,-1,1924,498,0,0
707,526,0,0,0,0,0,0,0,0,0,-1,1931,498,0,0
714,526,0,0,0,0,0,0,0,0,0,-1,1938,498,0,0
721,526,0,0,0,0,0,0,0,0,0,-1,1945,498,0,0
728,526,0,0,0,0,0,0,0,0,0,-1,1952,498,0,0
735,526,0,0,0,0,0,0,0,0,0,-1,1959,498,0,0
742,526,0,0,0,0,0,0,0,0,0,-1,1966,498,0,0
749,526,0,0,0,0,0,0,0,0,0,-1,1973,498,0,0
756,526,0,0,0,0,0,0,0,0,0,-1,1980,498,0,0
763,526,0,0,0,0,0,0,0,0,0,-1,1987,498,0,0
770,526,0,0,0,0,0,0,0,0,0,-1,1994,498,0,0
777,526,0,0,0,0,0,0,0,0,0,-1,2001,498,0,0
784,526,0,0,0,0,0,0,0,0,0,-1,2008,498,0,0
791,526,0,0,0,0,0,0,0,0,0,-1,2015,498,0,0
798,526,0,0,0,0,0,0,0,0,0,-1,2022,498,0,0
805,526,0,0,0,0,0,0,0,0,0,-1,2029,498,0,0
812,526,0,0,0,0,0,0,0,0,0,-1,2036,498,0,0
-700,519,0,0,0,0,0,0,0,0,0,-1,524,505,0,0
-693,519,0,0,0,0,0,0,0,0,0,-1,531,505,0,0
-686,519,0,0,0,0,0,0,0,0,0,-1,538,505,0,0
-679,519,0,0,0,0,0,0,0,0,0,-1,545,505,0,0
-672,519,0,0,0,0,0,0,0,0,0,-1,552,505,0,0
-665,519,0,0,0,0,0,0,0,0,0,-1,559,505,0,0
-658,519,0,0,0,0,0,0,0,0,0,-1,566,505,0,0
-651,519,0,0,0,0,0,0,0,0,0,-1,573,505,0,0
-644,519,0,0,0,0,0,0,0,0,0,-1,580,505,0,0
-637,519,0,0,0,0,0,0,0,0,0,-1,587,505,0,0
-630,519,0,0,0,0,0,0,0,0,0,-1,594,505,0,0
-623,519,0,0,0,0,0,0,0,0,0,-1,601,505,0,0
-616,519,0,0,0,0,0,0,0,0,0,-1,608,505,0,0
-609,519,0,0,0,0,0,0,0,0,0,-1,615,505,0,0
-602,519,0,0,0,0,0,0,0,0,0,-1,622,505,0,0
-595,519,0,0,0,0,0,0,0,0,0,-1,629,505,0,0
-588,519,0,0,0,0,0,0,0,0,0,-1,636,505,0,0
-581,519,0,0,0,0,0,0,0,0,0,-1,643,505,0,0
-574,519,0,0,0,0,0,0,0,0,0,-1,650,505,0,0
-567,519,0,0,0,0,0,0,0,0,0,-1,657,505,0,0
-560,519,0,0,0,0,0,0,0,0,0,-1,664,505,0,0
-553,519,0,0,0,0,0,0,0,0,0,-1,671,505,0,0
-546,519,0,0,0,0,0,0,0,0,0,-1,678,505,0,0
-539,519,0,0,0,0,0,0,0,0,0,-1,685,505,0,0
-532,519,0,0,0,0,0,0,0,0,0,-1,692,505,0,0
-525,519,0,0,0,0,0,0,0,0,0,-1,699,505,0,0
-518,519,0,0,0,0,0,0,0,0,0,-1,706,505,0,0
-511,519,0,0,0,0,0,0,0,0,0,-1,713,505,0,0
-504,519,0,0,0,0,0,0,0,0,0,-1,720,505,0,0
-497,519,0,0,0,0,0,0,0,0,0,-1,727,505,0,0
-490,519,0,0,0,0,0,0,0,0,0,-1,734,505,0,0
-483,519,0,0,0,0,0,0,0,0,0,-1,741,505,0,0
-476,519,0,0,0,0,0,0,0,0,0,-1,748,505,0,0
-469,519,0,0,0,0,0,0,0,0,0,-1,755,505,0,0
-462,519,0,0,0,0,0,0,0,0,0,-1,762,505,0,0
-455,519,0,0,0,0,0,0,0,0,0,-1,769,505,0,0
-448,519,0,0,0,0,0,0,0,0,0,-1,776,505,0,0
-441,519,1.34839,-5.29346,0,0,0,0,0,0,0,-1,783,505,1.3484,5.29347
-434,519,0.949585,-5.77313,0,0,0,0,0,0,0,-1,790,505,0.949598,5.77315
-427,519,-0.0523682,-9.31567,0,0,0,0,0,0,0,-1,797,505,-0.0523854,9.31568
-420,519,1.25281,-10.4556,0,0,0,0,0,0,0,-1,804,505,1.25283,10.4555
-413,519,0.437683,-10.9077,-0.0787574,0.0592347,-0.0247011,0.063523,-0.0830458,-1.3989,0.0848714,0.046829,811,505,0.437705,10.9077
-406,519,-0.421143,-11.3762,-0.0642938,0.0510597,-0.0211154,0.0548034,-0.0680375,-1.39532,0.0710593,0.0410855,818,505,-0.421131,11.3763
-399,519,-0.62854,-11.8204,0,0,0,0,0,0,0,-1,825,505,-0.628564,11.8204
-392,519,-0.641235,-12.4532,0,0,0,0,0,0,0,-1,832,505,-0.641259,12.4533
-385,519,-1.17651,-12.9894,0,0,0,0,0,0,0,-1,839,505,-1.17649,12.9894
-378,519,-1.01697,-13.4095,-0.0207688,0.0214063,-0.00923951,0.0233416,-0.0227041,-1.36432,0.0265854,0.0312326,846,505,-1.01698,13.4095
-371,519,-0.882263,-13.8839,-0.0140243,0.0163746,-0.00728056,0.0180283,-0.0156781,-1.34744,0.0194761,0.0181961,853,505,-0.882273,13.8838
-364,519,-0.88623,-14.4008,-0.00886252,0.0122373,-0.00566561,0.0136624,-0.0102876,-1.32438,0.0138732,0.0108604,860,505,-0.886249,14.4007
-357,519,-0.87915,-14.887,-0.00438523,0.00887398,-0.00401312,0.00999401,-0.00550525,-1.29863,0.00907273,0.00954902,867,505,-0.879156,14.887
-350,519,-0.898376,-15.3334,-0.000969963,0.00596138,-0.00279985,0.00695105,-0.00195963,-1.23103,0.00540694,0.0118076,874,505,-0.898375,15.3334
-343,519,-0.941895,-15.7442,0.000333084,0.00351542,-0.0021518,0.00460045,-0.000751952,-1.10376,0.0033459,0.0153258,881,505,-0.941871,15.7442
-336,519,-0.972839,-16.1739,0.000310259,0.00276713,-0.00152318,0.00349551,-0.000418121,-1.12474,0.00248149,0.0155052,888,505,-0.972866,16.1739
-329,519,-0.964355,-16.6209,0.000401518,0.00194268,-0.00108756,0.00250499,-0.00016079,-1.09361,0.00172609,0.0126917,895,505,-0.964332,16.6209
-322,519,-0.94812,-17.0515,0.000474543,0.00101147,-0.000609381,0.0014089,7.71094e-05,-0.992882,0.000914648,0.0102245,902,505,-0.948109,17.0515
-315,519,-0.951965,-17.4784,0.000621314,0.000121537,-0.000121868,0.000649447,9.34037e-05,-0.226876,0.000405433,0.00922753,909,505,-0.951972,17.4784
-308,519,-0.979126,-17.9164,0.000854759,-0.000869203,0.00039598,0.000941362,-0.000955806,0.215315,0.00109534,0.00809235,916,505,-0.979147,17.9165
-301,519,-1.01617,-18.3151,0.00108735,-0.00200173,0.00100713,0.00138669,-0.00230107,0.28891,0.00215084,0.0125169,923,505,-1.01617,18.3151
-294,519,-1.01385,-18.6884,0.00123554,-0.00345968,0.00180185,0.00184731,-0.00407145,0.327311,0.00349669,0.0146408,930,505,-1.01383,18.6884
-287,519,-1.01666,-19.0811,0.00146836,-0.00478653,0.00251574,0.00235462,-0.00567279,0.338712,0.00476478,0.0101337,937,505,-1.01663,19.0811
-280,519,-1.04407,-19.4718,0.00137641,-0.00664637,0.00324551,0.00252492,-0.00779488,0.340125,0.00621171,0.016337,944,505,-1.04408,19.4718
-273,519,-1.01532,-19.876,0.00104206,-0.00879801,0.00454002,0.00281669,-0.0105726,0.372624,0.00815119,0.0281208,951,505,-1.01533,19.8761
-266,519,-1.07306,-20.2689,0.00114076,-0.0110587,0.00571465,0.00339949,-0.0133174,0.376407,0.010202,0.0409368,958,505,-1.07305,20.2689
-259,519,-0.958069,-20.5972,0,0,0,0,0,0,0,-1,965,505,-0.95805,20.5972
-252,519,-1.08405,-20.5598,0,0,0,0,0,0,0,-1,972,505,-1.08405,20.5597
-245,519,-1.14807,-20.3669,0,0,0,0,0,0,0,-1,979,505,-1.1481,20.3669
-238,519,0.523621,-16.4753,0,0,0,0,0,0,0,-1,986,505,0.523651,16.4753
-231,519,0.337585,-11.2798,0,0,0,0,0,0,0,-1,993,505,0.337568,11.2798
-224,519,-0.0494995,-7.97394,0,0,0,0,0,0,0,-1,1000,505,-0.0495123,7.97392
-217,519,-2.97125,-4.84393,0,0,0,0,0,0,0,-1,1007,505,-2.97128,4.84393
-210,519,-2.14398,-4.74774,0,0,0,0,0,0,0,-1,1014,505,-2.14397,4.74775
-203,519,-0.513611,-5.39017,0,0,0,0,0,0,0,-1,1021,505,-0.513585,5.39017
-196,519,-0.374023,-5.41635,0,0,0,0,0,0,0,-1,1028,505,-0.374047,5.41635
-189,519,-0.234497,-5.44254,0,0,0,0,0,0,0,-1,1035,505,-0.234508,5.44253
-182,519,2.76697,-1.19659,0,0,0,0,0,0,0,-1,1042,505,2.76696,1.19661
-175,519,2.31323,-0.960938,0,0,0,0,0,0,0,-1,1049,505,2.31319,0.960941
-168,519,2.01074,-0.721405,0,0,0,0,0,0,0,-1,1056,505,2.01072,0.721407
-161,519,2.32056,-0.522339,0,0,0,0,0,0,0,-1,1063,505,2.32057,0.522328
-154,519,2.55566,0.116669,0,0,0,0,0,0,0,-1,1070,505,2.55563,-0.116661
-147,519,-0.55127,-6.14001,0,0,0,0,0,0,0,-1,1077,505,-0.551252,6.14001
-140,519,0.240601,-7.53503,0,0,0,0,0,0,0,-1,1084,505,0.240653,7.53501
-133,519,2.70911,-4.4516,0,0,0,0,0,0,0,-1,1091,505,2.70915,4.45161
-126,519,0,0,0,0,0,0,0,0,0,-1,1098,505,0,0
-119,519,0,0,0,0,0,0,0,0,0,-1,1105,505,0,0
-112,519,0,0,0,0,0,0,0,0,0,-1,1112,505,0,0
-105,519,0,0,0,0,0,0,0,0,0,-1,1119,505,0,0
-98,519,0,0,0,0,0,0,0,0,0,-1,1126,505,0,0
-91,519,0,0,0,0,0,0,0,0,0,-1,1133,505,0,0
-84,519,0,0,0,0,0,0,0,0,0,-1,1140,505,0,0
-77,519,0,0,0,0,0,0,0,0,0,-1,1147,505,0,0
-70,519,0,0,0,0,0,0,0,0,0,-1,1154,505,0,0
-63,519,0,0,0,0,0,0,0,0,0,-1,1161,505,0,0
-56,519,0,0,0,0,0,0,0,0,0,-1,1168,505,0,0
-49,519,0,0,0,0,0,0,0,0,0,-1,1175,505,0,0
-42,519,0,0,0,0,0,0,0,0,0,-1,1182,505,0,0
-35,519,0,0,0,0,0,0,0,0,0,-1,1189,505,0,0
-28,519,0,0,0,0,0,0,0,0,0,-1,1196,505,0,0
-21,519,0,0,0,0,0,0,0,0,0,-1,1203,505,0,0
-14,519,0,0,0,0,0,0,0,0,0,-1,1210,505,0,0
-7,519,0,0,0,0,0,0,0,0,0,-1,1217,505,0,0
0,519,0,0,0,0,0,0,0,0,0,-1,1224,505,0,0
7,519,0,0,0,0,0,0,0,0,0,-1,1231,505,0,0
14,519,0,0,0,0,0,0,0,0,0,-1,1238,505,0,0
21,519,0,0,0,0,0,0,0,0,0,-1,1245,505,0,0
28,519,0,0,0,0,0,0,0,0,0,-1,1252,505,0,0
35,519,0,0,0,0,0,0,0,0,0,-1,1259,505,0,0
42,519,0,0,0,0,0,0,0,0,0,-1,1266,505,0,0
49,519,0,0,0,0,0,0,0,0,0,-1,1273,505,0,0
56,519,0,0,0,0,0,0,0,0,0,-1,1280,505,0,0
63,519,0,0,0,0,0,0,0,0,0,-1,1287,505,0,0
70,519,0,0,0,0,0,0,0,0,0,-1,1294,505,0,0
77,519,0,0,0,0,0,0,0,0,0,-1,1301,505,0,0
84,519,0,0,0,0,0,0,0,0,0,-1,1308,505,0,0
91,519,0,0,0,0,0,0,0,0,0,-1,1315,505,0,0
98,519,0,0,0,0,0,0,0,0,0,-1,1322,505,0,0
105,519,0,0,0,0,0,0,0,0,0,-1,1329,505,0,0
112,519,0,0,0,0,0,0,0,0,0,-1,1336,505,0,0
119,519,0,0,0,0,0,0,0,0,0,-1,1343,505,0,0
126,519,0,0,0,0,0,0,0,0,0,-1,1350,505,0,0
133,519,0,0,0,0,0,0,0,0,0,-1,1357,505,0,0
140,519,0,0,0,0,0,0,0,0,0,-1,1364,505,0,0
147,519,0,0,0,0,0,0,0,0,0,-1,1371,505,0,0
154,519,0,0,0,0,0,0,0,0,0,-1,1378,505,0,0
161,519,0,0,0,0,0,0,0,0,0,-1,1385,505,0,0
168,519,0,0,0,0,0,0,0,0,0,-1,1392,505,0,0
175,519,0,0,0,0,0,0,0,0,0,-1,1399,505,0,0
182,519,0,0,0,0,0,0,0,0,0,-1,1406,505,0,0
189,519,0,0,0,0,0,0,0,0,0,-1,1413,505,0,0
196,519,0,0,0,0,0,0,0,0,0,-1,1420,505,0,0
203,519,0,0,0,0,0,0,0,0,0,-1,1427,505,0,0
210,519,0,0,0,0,0,0,0,0,0,-1,1434,505,0,0
217,519,0,0,0,0,0,0,0,0,0,-1,1441,505,0,0
224,519,0,0,0,0,0,0,0,0,0,-1,1448,505,0,0
231,519,0,0,0,0,0,0,0,0,0,-1,1455,505,0,0
238,519,0,0,0,0,0,0,0,0,0,-1,1462,505,0,0
245,519,0,0,0,0,0,0,0,0,0,-1,1469,505,0,0
252,519,5.26208,0.0938416,0,0,0,0,0,0,0,-1,1476,505,5.26207,-0.0938493
259,519,6.14246,-1.36441,0,0,0,0,0,0,0,-1,1483,505,6.14241,1.36441
266,519,5.31909,-0.400787,0,0,0,0,0,0,0,-1,1490,505,5.31912,0.400773
273,519,4.02393,0.325531,0,0,0,0,0,0,0,-1,1497,505,4.0239,-0.325522
280,519,4.68848,0.53006,0,0,0,0,0,0,0,-1,1504,505,4.68842,-0.530073
287,519,7.9519,-3.80801,0,0,0,0,0,0,0,-1,1511,505,7.95193,3.808
294,519,6.92273,-3.38889,0,0,0,0,0,0,0,-1,1518,505,6.92268,3.38888
301,519,5.35669,-2.92661,0,0,0,0,0,0,0,-1,1525,505,5.35675,2.9266
308,519,7.37549,-5.64529,0,0,0,0,0,0,0,-1,1532,505,7.3755,5.64529
315,519,6.30029,-4.53754,0,0,0,0,0,0,0,-1,1539,505,6.30024,4.53753
322,519,5.84302,-5.45117,0,0,0,0,0,0,0,-1,1546,505,5.84303,5.45116
329,519,4.92407,0.62384,0,0,0,0,0,0,0,-1,1553,505,4.92403,-0.623832
336,519,3.10095,-0.329285,0,0,0,0,0,0,0,-1,1560,505,3.1009,0.329283
343,519,2.49146,-2.31119,0,0,0,0,0,0,0,-1,1567,505,2.49145,2.31119
350,519,3.47729,-2.22516,0,0,0,0,0,0,0,-1,1574,505,3.47726,2.22515
357,519,4.51917,-4.51691,0,0,0,0,0,0,0,-1,1581,505,4.51914,4.51691
364,519,3.54626,-7.20673,0,0,0,0,0,0,0,-1,1588,505,3.54622,7.20675
371,519,5.349,-8.20068,0,0,0,0,0,0,0,-1,1595,505,5.34898,8.20068
378,519,6.36597,-10.0967,0,0,0,0,0,0,0,-1,1602,505,6.36597,10.0967
385,519,6.24756,-9.72186,0,0,0,0,0,0,0,-1,1609,505,6.24752,9.72183
392,519,9.18066,-18.9354,0,0,0,0,0,0,0,-1,1616,505,9.18063,18.9354
399,519,9.46497,-18.8284,0,0,0,0,0,0,0,-1,1623,505,9.46501,18.8284
406,519,9.57031,-18.3679,0.00171946,-0.000467384,-0.00133764,0.00235371,-0.00110164,-0.44276,0.00203813,0.0347797,1630,505,9.57029,18.3679
413,519,9.64868,-17.949,0.00174871,0.000253863,-0.000774503,0.00207762,-7.50492e-05,-0.401595,0.00141076,0.0154951,1637,505,9.64866,17.949
420,519,9.60242,-17.4892,0.00173517,0.000719916,-0.000333374,0.00183485,0.000620234,-0.290546,0.00107772,0.015007,1644,505,9.60242,17.4892
427,519,9.6217,-17.0798,0.00141569,0.000958857,-0.000170833,0.0014725,0.00090204,-0.32108,0.000857304,0.013524,1651,505,9.62173,17.0798
434,519,9.61194,-16.6347,0.00108972,0.00109276,7.0024e-06,0.00109841,0.00108407,0.892316,0.00072754,0.0123409,1658,505,9.61188,16.6347
441,519,9.5791,-16.1845,0.000879602,0.0012076,0.000242521,0.00133637,0.000750835,1.08269,0.000773518,0.012337,1665,505,9.57912,16.1845
448,519,9.58545,-15.764,0.000812434,0.00122845,0.000483576,0.00154686,0.000494027,0.988509,0.000912297,0.0100657,1672,505,9.58548,15.764
455,519,9.56787,-15.3423,0.000759888,0.00116793,0.000713323,0.00170583,0.000221982,0.924686,0.00107093,0.0109629,1679,505,9.56783,15.3423
462,519,9.56628,-14.9009,0.000620037,0.000958299,0.000841642,0.00164763,-6.92993e-05,0.884554,0.00112224,0.0100063,1686,505,9.56632,14.9009
469,519,9.56897,-14.4453,0.000384423,4.7986e-05,0.000712892,0.000948674,-0.000516265,0.669534,0.000857977,0.0101859,1693,505,9.56895,14.4453
476,519,9.55347,-13.9746,-8.72709e-06,-0.00123321,0.000778875,0.000369731,-0.00161167,0.452307,0.00121656,0.0125959,1700,505,9.55342,13.9746
483,519,9.54041,-13.503,-0.000543611,-0.00276038,0.000583798,-0.000399264,-0.00290473,0.242393,0.00181807,0.0147582,1707,505,9.54037,13.503
490,519,9.53015,-12.9822,-0.0012702,-0.0048602,0.000308931,-0.00124381,-0.00488659,0.0852185,0.00293241,0.0128937,1714,505,9.53017,12.9822
497,519,9.521,-12.5696,-0.00221819,-0.00758504,-0.000108477,-0.002216,-0.00758723,-0.0202015,0.00450498,0.0158986,1721,505,9.52104,12.5696
504,519,9.48926,-12.0747,-0.00337013,-0.0110219,-0.000639819,-0.003317,-0.011075,-0.0828506,0.00656329,0.0158277,1728,505,9.48927,12.0747
511,519,9.47449,-11.5876,-0.00469111,-0.0151202,-0.00116976,-0.00456151,-0.0152498,-0.110336,0.00903822,0.021337,1735,505,9.47451,11.5876
518,519,9.20117,-11.415,-0.00618579,-0.0195763,-0.00162705,-0.00599092,-0.0197712,-0.119197,0.0117064,0.040588,1742,505,9.20116,11.415
525,519,9.00903,-11.2498,0,0,0,0,0,0,0,-1,1749,505,9.00906,11.2498
532,519,3.5155,-2.86511,0,0,0,0,0,0,0,-1,1756,505,3.51554,2.8651
539,519,3.30005,0.0229797,0,0,0,0,0,0,0,-1,1763,505,3.30008,-0.0229869
546,519,4.62024,-2.89774,0,0,0,0,0,0,0,-1,1770,505,4.62023,2.89775
553,519,4.14136,0.0667419,0,0,0,0,0,0,0,-1,1777,505,4.14141,-0.0667503
560,519,3.77856,0.279724,0,0,0,0,0,0,0,-1,1784,505,3.77861,-0.279731
567,519,0,0,0,0,0,0,0,0,0,-1,1791,505,0,0
574,519,0,0,0,0,0,0,0,0,0,-1,1798,505,0,0
581,519,0,0,0,0,0,0,0,0,0,-1,1805,505,0,0
588,519,0,0,0,0,0,0,0,0,0,-1,1812,505,0,0
595,519,0,0,0,0,0,0,0,0,0,-1,1819,505,0,0
602,519,0,0,0,0,0,0,0,0,0,-1,1826,505,0,0
609,519,0,0,0,0,0,0,0,0,0,-1,1833,505,0,0
616,519,0,0,0,0,0,0,0,0,0,-1,1840,505,0,0
623,519,0,0,0,0,0,0,0,0,0,-1,1847,505,0,0
630,519,0,0,0,0,0,0,0,0,0,-1,1854,505,0,0
637,519,0,0,0,0,0,0,0,0,0,-1,1861,505,0,0
644,519,0,0,0,0,0,0,0,0,0,-1,1868,505,0,0
651,519,0,0,0,0,0,0,0,0,0,-1,1875,505,0,0
658,519,0,0,0,0,0,0,0,0,0,-1,1882,505,0,0
665,519,0,0,0,0,0,0,0,0,0,-1,1889,505,0,0
672,519,0,0,0,0,0,0,0,0,0,-1,1896,505,0,0
679,519,0,0,0,0,0,0,0,0,0,-1,1903,505,0,0
686,519,0,0,0,0,0,0,0,0,0,-1,1910,505,0,0
693,519,0,0,0,0,0,0,0,0,0,-1,1917,505,0,0
700,519,0,0,0,0,0,0,0,0,0,-1,1924,505,0,0
707,519,0,0,0,0,0,0,0,0,0,-1,1931,505,0,0
714,519,0,0,0,0,0,0,0,0,0,-1,1938,505,0,0
721,519,0,0,0,0,0,0,0,0,0,-1,1945,505,0,0
728,519,0,0,0,0,0,0,0,0,0,-1,1952,505,0,0
735,519,0,0,0,0,0,0,0,0,0,-1,1959,505,0,0
742,519,0,0,0,0,0,0,0,0,0,-1,1966,505,0,0
749,519,0,0,0,0,0,0,0,0,0,-1,1973,505,0,0
756,519,0,0,0,0,0,0,0,0,0,-1,1980,505,0,0
763,519,0,0,0,0,0,0,0,0,0,-1,1987,505,0,0
770,519,0,0,0,0,0,0,0,0,0,-1,1994,505,0,0
777,519,0,0,0,0,0,0,0,0,0,-1,2001,505,0,0
784,519,0,0,0,0,0,0,0,0,0,-1,2008,505,0,0
791,519,0,0,0,0,0,0,0,0,0,-1,2015,505,0,0
798,519,0,0,0,0,0,0,0,0,0,-1,2022,505,0,0
805,519,0,0,0,0,0,0,0,0,0,-1,2029,505,0,0
812,519,0,0,0,0,0,0,0,0,0,-1,2036,505,0,0
-700,512,0,0,0,0,0,0,0,0,0,-1,524,512,0,0
-693,512,0,0,0,0,0,0,0,0,0,-1,531,512,0,0
-686,512,0,0,0,0,0,0,0,0,0,-1,538,512,0,0
-679,512,0,0,0,0,0,0,0,0,0,-1,545,512,0,0
-672,512,0,0,0,0,0,0,0,0,0,-1,552,512,0,0
-665,512,0,0,0,0,0,0,0,0,0,-1,559,512,0,0
-658,512,0,0,0,0,0,0,0,0,0,-1,566,512,0,0
-651,512,0,0,0,0,0,0,0,0,0,-1,573,512,0,0
-644,512,0,0,0,0,0,0,0,0,0,-1,580,512,0,0
-637,512,0,0,0,0,0,0,0,0,0,-1,587,512,0,0
-630,512,0,0,0,0,0,0,0,0,0,-1,594,512,0,0
-623,512,0,0,0,0,0,0,0,0,0,-1,601,512,0,0
-616,512,0,0,0,0,0,0,0,0,0,-1,608,512,0,0
-609,512,0,0,0,0,0,0,0,0,0,-1,615,512,0,0
-602,512,0,0,0,0,0,0,0,0,0,-1,622,512,0,0
-595,512,0,0,0,0,0,0,0,0,0,-1,629,512,0,0
-588,512,0,0,0,0,0,0,0,0,0,-1,636,512,0,0
-581,512,0,0,0,0,0,0,0,0,0,-1,643,512,0,0
-574,512,0,0,0,0,0,0,0,0,0,-1,650,512,0,0
-567,512,0,0,0,0,0,0,0,0,0,-1,657,512,0,0
-560,512,0,0,0,0,0,0,0,0,0,-1,664,512,0,0
-553,512,0,0,0,0,0,0,0,0,0,-1,671,512,0,0
-546,512,0,0,0,0,0,0,0,0,0,-1,678,512,0,0
-539,512,0,0,0,0,0,0,0,0,0,-1,685,512,0,0
-532,512,0,0,0,0,0,0,0,0,0,-1,692,512,0,0
-525,512,0,0,0,0,0,0,0,0,0,-1,699,512,0,0
-518,512,0,0,0,0,0,0,0,0,0,-1,706,512,0,0
-511,512,0,0,0,0,0,0,0,0,0,-1,713,512,0,0
-504,512,0,0,0,0,0,0,0,0,0,-1,720,512,0,0
-497,512,0,0,0,0,0,0,0,0,0,-1,727,512,0,0
-490,512,0,0,0,0,0,0,0,0,0,-1,734,512,0,0
-483,512,0,0,0,0,0,0,0,0,0,-1,741,512,0,0
-476,512,0,0,0,0,0,0,0,0,0,-1,748,512,0,0
-469,512,0,0,0,0,0,0,0,0,0,-1,755,512,0,0
-462,512,0,0,0,0,0,0,0,0,0,-1,762,512,0,0
-455,512,0,0,0,0,0,0,0,0,0,-1,769,512,0,0
-448,512,1.96283,-4.15674,0,0,0,0,0,0,0,-1,776,512,1.96285,4.15677
-441,512,1.78198,-4.88824,0,0,0,0,0,0,0,-1,783,512,1.78201,4.88826
-434,512,0.0726929,-9.85822,0,0,0,0,0,0,0,-1,790,512,0.0727008,9.85819
-427,512,-0.384583,-9.94824,0,0,0,0,0,0,0,-1,797,512,-0.384552,9.94823
-420,512,-1.6001,-8.48761,0,0,0,0,0,0,0,-1,804,512,-1.60008,8.48761
-413,512,0.0829468,-10.7808,0,0,0,0,0,0,0,-1,811,512,0.0829499,10.7807
-406,512,-0.455139,-11.2941,-0.0503291,0.0396578,-0.0180376,0.0431387,-0.05381,-1.38016,0.0560863,0.0445374,818,512,-0.455161,11.2941
-399,512,-1.05664,-11.7061,-0.0395613,0.0328746,-0.0151054,0.0358984,-0.0425851,-1.37323,0.0453672,0.0469582,825,512,-1.05665,11.7061
-392,512,-1.2218,-12.4862,-0.0300832,0.026531,-0.0124642,0.0291536,-0.0327058,-1.36341,0.0357342,0.038419,832,512,-1.22178,12.4862
-385,512,-1.27979,-13.0285,-0.0219812,0.0207035,-0.0100147,0.0229363,-0.024214,-1.35143,0.0272256,0.0201476,839,512,-1.27977,13.0285
-378,512,-1.30566,-13.4554,-0.0152737,0.0157293,-0.00791362,0.0176325,-0.0171768,-1.33479,0.0200977,0.0156412,846,512,-1.30565,13.4554
-371,512,-1.302,-13.9411,-0.00998418,0.0116077,-0.00614912,0.0132361,-0.0116126,-1.31192,0.0143566,0.0122391,853,512,-1.30201,13.9411
-364,512,-1.29584,-14.4556,-0.00600706,0.00824198,-0.00464431,0.00962207,-0.00738714,-1.28195,0.00984849,0.00914479,860,512,-1.29586,14.4556
-357,512,-1.31097,-14.8932,-0.00257581,0.00557337,-0.00320073,0.00668018,-0.00368263,-1.23787,0.00606583,0.0100325,867,512,-1.311,14.8932
-350,512,-1.32391,-15.3336,-2.15237e-05,0.00337821,-0.00214662,0.0044165,-0.00105982,-1.12028,0.0033539,0.0107263,874,512,-1.32389,15.3336
-343,512,-1.37335,-15.7604,0.00087999,0.00149357,-0.00148353,0.00270171,-0.000328142,-0.88736,0.00191989,0.0123922,881,512,-1.37333,15.7604
-336,512,-1.3819,-16.1816,0.000875926,0.000835843,-0.000896823,0.00175293,-4.11627e-05,-0.774226,0.00118258,0.0133996,888,512,-1.38192,16.1817
-329,512,-1.35828,-16.618,0.00097682,0.000166363,-0.000508651,0.00122193,-7.87439e-05,-0.449044,0.000842094,0.0150503,895,512,-1.3583,16.618
-322,512,-1.36621,-17.0479,0.00104925,-0.000561393,-8.89948e-05,0.00105415,-0.000566295,-0.055031,0.000949592,0.0130238,902,512,-1.3662,17.0479
-315,512,-1.37311,-17.4733,0.00117305,-0.00124887,0.000341849,0.00122038,-0.0012962,0.137568,0.00145317,0.0113818,909,512,-1.37313,17.4733
-308,512,-1.39722,-17.8874,0.00139504,-0.00202016,0.000795063,0.00157106,-0.00219618,0.217876,0.00218498,0.0114143,916,512,-1.39723,17.8874
-301,512,-1.42188,-18.2867,0.00159509,-0.00296118,0.00136661,0.00197356,-0.00333964,0.270167,0.00310119,0.0156226,923,512,-1.42188,18.2867
-294,512,-1.4104,-18.6623,0.00164465,-0.00433399,0.00217343,0.00235125,-0.00504059,0.31433,0.00436082,0.0147984,930,512,-1.41043,18.6623
-287,512,-1.47772,-18.9899,0.00182699,-0.00565694,0.00287202,0.0028021,-0.00663205,0.327308,0.00559442,0.0235532,937,512,-1.4777,18.9899
-280,512,-1.36798,-19.4554,0.00164249,-0.00777462,0.00369345,0.00291825,-0.00905038,0.332581,0.00720608,0.0391043,944,512,-1.36799,19.4554
-273,512,-1.07098,-19.9549,0,0,0,0,0,0,0,-1,951,512,-1.07099,19.9549
-266,512,-1.48676,-20.3438,0,0,0,0,0,0,0,-1,958,512,-1.48673,20.3438
-259,512,-0.525452,-14.0815,0,0,0,0,0,0,0,-1,965,512,-0.525475,14.0815
-252,512,1.45941,-3.43475,0,0,0,0,0,0,0,-1,972,512,1.45938,3.43475
-245,512,4.12927,-11.272,0,0,0,0,0,0,0,-1,979,512,4.1293,11.272
-238,512,0.227051,-8.92969,0,0,0,0,0,0,0,-1,986,512,0.227073,8.92968
-231,512,-2.54437,-10.169,0,0,0,0,0,0,0,-1,993,512,-2.54439,10.169
-224,512,-4.84601,-7.52783,0,0,0,0,0,0,0,-1,1000,512,-4.84602,7.52786
-217,512,-7.37274,-3.89563,0,0,0,0,0,0,0,-1,1007,512,-7.37274,3.89561
-210,512,-3.76642,-1.94702,0,0,0,0,0,0,0,-1,1014,512,-3.76641,1.94702
-203,512,-2.48328,-5.19061,0,0,0,0,0,0,0,-1,1021,512,-2.48328,5.19059
-196,512,-1.14929,-4.63202,0,0,0,0,0,0,0,-1,1028,512,-1.14934,4.632
-189,512,0.197998,4.55505,0,0,0,0,0,0,0,-1,1035,512,0.197996,-4.55506
-182,512,2.73938,0.0778503,0,0,0,0,0,0,0,-1,1042,512,2.73944,-0.077852
-175,512,2.29565,0.209808,0,0,0,0,0,0,0,-1,1049,512,2.29565,-0.209813
-168,512,2.09399,-0.302856,0,0,0,0,0,0,0,-1,1056,512,2.09403,0.302826
-161,512,2.76636,0.0921021,0,0,0,0,0,0,0,-1,1063,512,2.76633,-0.0921104
-154,512,3.41382,0.466187,0,0,0,0,0,0,0,-1,1070,512,3.41382,-0.466178
-147,512,0,0,0,0,0,0,0,0,0,-1,1077,512,0,0
-140,512,0,0,0,0,0,0,0,0,0,-1,1084,512,0,0
-133,512,0,0,0,0,0,0,0,0,0,-1,1091,512,0,0
-126,512,0,0,0,0,0,0,0,0,0,-1,1098,512,0,0
-119,512,0,0,0,0,0,0,0,0,0,-1,1105,512,0,0
-112,512,0,0,0,0,0,0,0,0,0,-1,1112,512,0,0
-105,512,0,0,0,0,0,0,0,0,0,-1,1119,512,0,0
-98,512,0,0,0,0,0,0,0,0,0,-1,1126,512,0,0
-91,512,0,0,0,0,0,0,0,0,0,-1,1133,512,0,0
-84,512,0,0,0,0,0,0,0,0,0,-1,1140,512,0,0
-77,512,0,0,0,0,0,0,0,0,0,-1,1147,512,0,0
-70,512,0,0,0,0,0,0,0,0,0,-1,1154,512,0,0
-63,512,0,0,0,0,0,0,0,0,0,-1,1161,512,0,0
-56,512,0,0,0,0,0,0,0,0,0,-1,1168,512,0,0
-49,512,0,0,0,0,0,0,0,0,0,-1,1175,512,0,0
-42,512,0,0,0,0,0,0,0,0,0,-1,1182,512,0,0
-35,512,0,0,0,0,0,0,0,0,0,-1,1189,512,0,0
-28,512,0,0,0,0,0,0,0,0,0,-1,1196,512,0,0
-21,512,0,0,0,0,0,0,0,0,0,-1,1203,512,0,0
-14,512,0,0,0,0,0,0,0,0,0,-1,1210,512,0,0
-7,512,0,0,0,0,0,0,0,0,0,-1,1217,512,0,0
0,512,0,0,0,0,0,0,0,0,0,-1,1224,512,0,0
7,512,0,0,0,0,0,0,0,0,0,-1,1231,512,0,0
14,512,0,0,0,0,0,0,0,0,0,-1,1238,512,0,0
21,512,0,0,0,0,0,0,0,0,0,-1,1245,512,0,0
28,512,0,0,0,0,0,0,0,0,0,-1,1252,512,0,0
35,512,0,0,0,0,0,0,0,0,0,-1,1259,512,0,0
42,512,0,0,0,0,0,0,0,0,0,-1,1266,512,0,0
49,512,0,0,0,0,0,0,0,0,0,-1,1273,512,0,0
56,512,0,0,0,0,0,0,0,0,0,-1,1280,512,0,0
63,512,0,0,0,0,0,0,0,0,0,-1,1287,512,0,0
70,512,0,0,0,0,0,0,0,0,0,-1,1294,512,0,0
77,512,0,0,0,0,0,0,0,0,0,-1,1301,512,0,0
84,512,0,0,0,0,0,0,0,0,0,-1,1308,512,0,0
91,512,0,0,0,0,0,0,0,0,0,-1,1315,512,0,0
98,512,0,0,0,0,0,0,0,0,0,-1,1322,512,0,0
105,512,0,0,0,0,0,0,0,0,0,-1,1329,512,0,0
112,512,0,0,0,0,0,0,0,0,0,-1,1336,512,0,0
119,512,0,0,0,0,0,0,0,0,0,-1,1343,512,0,0
126,512,0,0,0,0,0,0,0,0,0,-1,1350,512,0,0
133,512,0,0,0,0,0,0,0,0,0,-1,1357,512,0,0
140,512,0,0,0,0,0,0,0,0,0,-1,1364,512,0,0
147,512,0,0,0,0,0,0,0,0,0,-1,1371,512,0,0
154,512,0,0,0,0,0,0,0,0,0,-1,1378,512,0,0
161,512,0,0,0,0,0,0,0,0,0,-1,1385,512,0,0
168,512,0,0,0,0,0,0,0,0,0,-1,1392,512,0,0
175,512,0,0,0,0,0,0,0,0,0,-1,1399,512,0,0
182,512,0,0,0,0,0,0,0,0,0,-1,1406,512,0,0
189,512,0,0,0,0,0,0,0,0,0,-1,1413,512,0,0
196,512,0,0,0,0,0,0,0,0,0,-1,1420,512,0,0
203,512,0,0,0,0,0,0,0,0,0,-1,1427,512,0,0
210,512,0,0,0,0,0,0,0,0,0,-1,1434,512,0,0
217,512,0,0,0,0,0,0,0,0,0,-1,1441,512,0,0
224,512,0,0,0,0,0,0,0,0,0,-1,1448,512,0,0
231,512,0,0,0,0,0,0,0,0,0,-1,1455,512,0,0
238,512,0,0,0,0,0,0,0,0,0,-1,1462,512,0,0
245,512,0,0,0,0,0,0,0,0,0,-1,1469,512,0,0
252,512,0,0,0,0,0,0,0,0,0,-1,1476,512,0,0
259,512,0,0,0,0,0,0,0,0,0,-1,1483,512,0,0
266,512,0,0,0,0,0,0,0,0,0,-1,1490,512,0,0
273,512,4.00745,0.618622,0,0,0,0,0,0,0,-1,1497,512,4.00747,-0.618611
280,512,4.49609,0.649841,0,0,0,0,0,0,0,-1,1504,512,4.49612,-0.649834
287,512,4.77234,0.458069,0,0,0,0,0,0,0,-1,1511,512,4.77233,-0.458083
294,512,8.54956,-2.36273,0,0,0,0,0,0,0,-1,1518,512,8.54952,2.36274
301,512,6.302,-1.69092,0,0,0,0,0,0,0,-1,1525,512,6.30196,1.69093
308,512,8.2439,-6.22754,0,0,0,0,0,0,0,-1,1532,512,8.24394,6.22757
315,512,7.53687,-6.04211,0,0,0,0,0,0,0,-1,1539,512,7.53691,6.04211
322,512,6.82983,-5.85663,0,0,0,0,0,0,0,-1,1546,512,6.82988,5.85666
329,512,4.38147,-0.329651,0,0,0,0,0,0,0,-1,1553,512,4.38144,0.329662
336,512,4.41467,-0.741455,0,0,0,0,0,0,0,-1,1560,512,4.41467,0.741442
343,512,4.44727,-1.21667,0,0,0,0,0,0,0,-1,1567,512,4.44732,1.21666
350,512,4.55469,-1.65082,0,0,0,0,0,0,0,-1,1574,512,4.5547,1.65083
357,512,5.79993,-2.67456,0,0,0,0,0,0,0,-1,1581,512,5.79991,2.67454
364,512,5.18298,-6.80133,0,0,0,0,0,0,0,-1,1588,512,5.18296,6.80132
371,512,5.28467,-7.69269,0,0,0,0,0,0,0,-1,1595,512,5.28464,7.69269
378,512,6.29407,-9.88055,0,0,0,0,0,0,0,-1,1602,512,6.29412,9.88057
385,512,6.45569,-9.32233,0,0,0,0,0,0,0,-1,1609,512,6.45565,9.3223
392,512,6.35522,-8.98425,0,0,0,0,0,0,0,-1,1616,512,6.35526,8.98422
399,512,7.5304,-12.1449,0,0,0,0,0,0,0,-1,1623,512,7.53042,12.1449
406,512,9.99426,-18.4767,0,0,0,0,0,0,0,-1,1630,512,9.9943,18.4767
413,512,10.0897,-17.9871,0,0,0,0,0,0,0,-1,1637,512,10.0897,17.987
420,512,10.089,-17.5302,0.00217534,0.000736282,-0.000466647,0.00231341,0.000598208,-0.287676,0.00138657,0.0259509,1644,512,10.089,17.5301
427,512,10.0765,-17.0736,0.00173241,0.000907574,-0.000402279,0.00189612,0.00074387,-0.386476,0.00110315,0.0148697,1651,512,10.0766,17.0736
434,512,10.0518,-16.6476,0.00130725,0.000945101,-0.000323162,0.00149661,0.00075574,-0.530034,0.000864081,0.0115014,1658,512,10.0518,16.6476
441,512,10.0292,-16.2049,0.00103468,0.00100853,-0.000152637,0.0011748,0.000868409,-0.742671,0.000703668,0.0134682,1665,512,10.0292,16.2049
448,512,10.0184,-15.7723,0.000938667,0.000976937,2.84502e-05,0.000992088,0.000923515,1.08144,0.000639761,0.00982162,1672,512,10.0185,15.7723
455,512,10.001,-15.316,0.000869093,0.000895872,0.000205828,0.00108875,0.000676219,0.817878,0.000634703,0.00895341,1679,512,10.0009,15.316
462,512,10.005,-14.8589,0.000755309,0.00073112,0.000337365,0.0010808,0.000405632,0.767481,0.000630433,0.00918673,1686,512,10.0049,14.8589
469,512,10.0033,-14.4009,0.000538505,9.86741e-05,0.000305748,0.000695212,-5.80333e-05,0.473627,0.00048398,0.011488,1693,512,10.0033,14.4009
476,512,9.98889,-13.9543,0.000138821,-0.000866669,0.000360408,0.00025466,-0.000982509,0.310982,0.000754359,0.0146449,1700,512,9.98885,13.9544
483,512,9.98743,-13.4764,-0.000392344,-0.00205177,0.000209436,-0.00036632,-0.0020778,0.123627,0.00128068,0.013378,1707,512,9.9874,13.4764
490,512,9.9801,-12.9933,-0.0011389,-0.00366447,-2.78144e-05,-0.00113859,-0.00366478,-0.0110113,0.00216583,0.0107839,1714,512,9.98007,12.9934
497,512,9.97009,-12.5246,-0.00209544,-0.00571007,-0.000361136,-0.00205971,-0.0057458,-0.0986105,0.00336134,0.0117411,1721,512,9.97005,12.5246
504,512,9.93298,-12.0422,-0.00326362,-0.00829742,-0.000798466,-0.00314,-0.00842103,-0.1536,0.00491399,0.0124232,1728,512,9.93295,12.0422
511,512,9.90356,-11.5381,-0.0046532,-0.0113114,-0.00128562,-0.00441359,-0.0115511,-0.184265,0.00673053,0.0141071,1735,512,9.90362,11.5381
518,512,9.91467,-11.0588,-0.00624028,-0.0146648,-0.00180411,-0.00587019,-0.0150349,-0.202332,0.00874957,0.0189217,1742,512,9.9147,11.0588
525,512,9.64856,-10.8382,-0.00801468,-0.0184545,-0.00233723,-0.00751531,-0.0189538,-0.210493,0.0110209,0.0458962,1749,512,9.64861,10.8382
532,512,9.60779,-10.3946,0,0,0,0,0,0,0,-1,1756,512,9.60779,10.3946
539,512,7.05908,-7.00647,0,0,0,0,0,0,0,-1,1763,512,7.05909,7.00647
546,512,2.77551,-0.66449,0,0,0,0,0,0,0,-1,1770,512,2.77548,0.664503
553,512,3.927,-0.448853,0,0,0,0,0,0,0,-1,1777,512,3.92704,0.448843
560,512,3.55762,-0.201233,0,0,0,0,0,0,0,-1,1784,512,3.55768,0.201259
567,512,3.09045,0.191193,0,0,0,0,0,0,0,-1,1791,512,3.09045,-0.191203
574,512,0,0,0,0,0,0,0,0,0,-1,1798,512,0,0
581,512,0,0,0,0,0,0,0,0,0,-1,1805,512,0,0
588,512,0,0,0,0,0,0,0,0,0,-1,1812,512,0,0
595,512,0,0,0,0,0,0,0,0,0,-1,1819,512,0,0
602,512,0,0,0,0,0,0,0,0,0,-1,1826,512,0,0
609,512,0,0,0,0,0,0,0,0,0,-1,1833,512,0,0
616,512,0,0,0,0,0,0,0,0,0,-1,1840,512,0,0
623,512,0,0,0,0,0,0,0,0,0,-1,1847,512,0,0
630,512,0,0,0,0,0,0,0,0,0,-1,1854,512,0,0
637,512,0,0,0,0,0,0,0,0,0,-1,1861,512,0,0
644,512,0,0,0,0,0,0,0,0,0,-1,1868,512,0,0
651,512,0,0,0,0,0,0,0,0,0,-1,1875,512,0,0
658,512,0,0,0,0,0,0,0,0,0,-1,1882,512,0,0
665,512,0,0,0,0,0,0,0,0,0,-1,1889,512,0,0
672,512,0,0,0,0,0,0,0,0,0,-1,1896,512,0,0
679,512,0,0,0,0,0,0,0,0,0,-1,1903,512,0,0
686,512,0,0,0,0,0,0,0,0,0,-1,1910,512,0,0
693,512,0,0,0,0,0,0,0,0,0,-1,1917,512,0,0
700,512,0,0,0,0,0,0,0,0,0,-1,1924,512,0,0
707,512,0,0,0,0,0,0,0,0,0,-1,1931,512,0,0
714,512,0,0,0,0,0,0,0,0,0,-1,1938,512,0,0
721,512,0,0,0,0,0,0,0,0,0,-1,1945,512,0,0
728,512,0,0,0,0,0,0,0,0,0,-1,1952,512,0,0
735,512,0,0,0,0,0,0,0,0,0,-1,1959,512,0,0
742,512,0,0,0,0,0,0,0,0,0,-1,1966,512,0,0
749,512,0,0,0,0,0,0,0,0,0,-1,1973,512,0,0
756,512,0,0,0,0,0,0,0,0,0,-1,1980,512,0,0
763,512,0,0,0,0,0,0,0,0,0,-1,1987,512,0,0
770,512,0,0,0,0,0,0,0,0,0,-1,1994,512,0,0
777,512,0,0,0,0,0,0,0,0,0,-1,2001,512,0,0
784,512,0,0,0,0,0,0,0,0,0,-1,2008,512,0,0
791,512,0,0,0,0,0,0,0,0,0,-1,2015,512,0,0
798,512,0,0,0,0,0,0,0,0,0,-1,2022,512,0,0
805,512,0,0,0,0,0,0,0,0,0,-1,2029,512,0,0
812,512,0,0,0,0,0,0,0,0,0,-1,2036,512,0,0
-700,505,0,0,0,0,0,0,0,0,0,-1,524,519,0,0
-693,505,0,0,0,0,0,0,0,0,0,-1,531,519,0,0
-686,505,0,0,0,0,0,0,0,0,0,-1,538,519,0,0
-679,505,0,0,0,0,0,0,0,0,0,-1,545,519,0,0
-672,505,0,0,0,0,0,0,0,0,0,-1,552,519,0,0
-665,505,0,0,0,0,0,0,0,0,0,-1,559,519,0,0
-658,505,0,0,0,0,0,0,0,0,0,-1,566,519,0,0
-651,505,0,0,0,0,0,0,0,0,0,-1,573,519,0,0
-644,505,0,0,0,0,0,0,0,0,0,-1,580,519,0,0
-637,505,0,0,0,0,0,0,0,0,0,-1,587,519,0,0
-630,505,0,0,0,0,0,0,0,0,0,-1,594,519,0,0
-623,505,0,0,0,0,0,0,0,0,0,-1,601,519,0,0
-616,505,0,0,0,0,0,0,0,0,0,-1,608,519,0,0
-609,505,0,0,0,0,0,0,0,0,0,-1,615,519,0,0
-602,505,0,0,0,0,0,0,0,0,0,-1,622,519,0,0
-595,505,0,0,0,0,0,0,0,0,0,-1,629,519,0,0
-588,505,0,0,0,0,0,0,0,0,0,-1,636,519,0,0
-581,505,0,0,0,0,0,0,0,0,0,-1,643,519,0,0
-574,505,0,0,0,0,0,0,0,0,0,-1,650,519,0,0
-567,505,0,0,0,0,0,0,0,0,0,-1,657,519,0,0
-560,505,0,0,0,0,0,0,0,0,0,-1,664,519,0,0
-553,505,0,0,0,0,0,0,0,0,0,-1,671,519,0,0
-546,505,0,0,0,0,0,0,0,0,0,-1,678,519,0,0
-539,505,0,0,0,0,0,0,0,0,0,-1,685,519,0,0
-532,505,0,0,0,0,0,0,0,0,0,-1,692,519,0,0
-525,505,0,0,0,0,0,0,0,0,0,-1,699,519,0,0
-518,505,0,0,0,0,0,0,0,0,0,-1,706,519,0,0
-511,505,0,0,0,0,0,0,0,0,0,-1,713,519,0,0
-504,505,0,0,0,0,0,0,0,0,0,-1,720,519,0,0
-497,505,0,0,0,0,0,0,0,0,0,-1,727,519,0,0
-490,505,0,0,0,0,0,0,0,0,0,-1,734,519,0,0
-483,505,0,0,0,0,0,0,0,0,0,-1,741,519,0,0
-476,505,0,0,0,0,0,0,0,0,0,-1,748,519,0,0
-469,505,0,0,0,0,0,0,0,0,0,-1,755,519,0,0
-462,505,0,0,0,0,0,0,0,0,0,-1,762,519,0,0
-455,505,2.72137,-3.26379,0,0,0,0,0,0,0,-1,769,519,2.72135,3.26377
-448,505,2.51111,-3.94989,0,0,0,0,0,0,0,-1,776,519,2.51112,3.94986
-441,505,2.80212,-6.8902,0,0,0,0,0,0,0,-1,783,519,2.80209,6.89019
-434,505,-0.155212,-10.6374,0,0,0,0,0,0,0,-1,790,519,-0.155194,10.6374
-427,505,-0.474426,-10.4702,0,0,0,0,0,0,0,-1,797,519,-0.474433,10.4702
-420,505,-0.922546,-10.1928,0,0,0,0,0,0,0,-1,804,519,-0.92257,10.1928
-413,505,-2.10413,-9.62665,0,0,0,0,0,0,0,-1,811,519,-2.10415,9.62666
-406,505,-1.9494,-10.3079,0,0,0,0,0,0,0,-1,818,519,-1.9494,10.3079
-399,505,-1.80646,-11.3076,-0.0295435,0.0247296,-0.0124368,0.0274438,-0.0322577,-1.35593,0.034506,0.0456505,825,519,-1.80643,11.3076
-392,505,-1.67474,-12.4903,-0.0221679,0.0197356,-0.0102563,0.0221112,-0.0245436,-1.34318,0.0269484,0.0234711,832,519,-1.67476,12.4903
-385,505,-1.70447,-13.0381,-0.0158892,0.0152178,-0.00822799,0.0172601,-0.0179314,-1.3275,0.0203191,0.0100912,839,519,-1.70448,13.0382
-378,505,-1.7442,-13.5026,-0.0107256,0.0113593,-0.00651101,0.013136,-0.0125023,-1.30442,0.0148038,0.0112239,846,519,-1.74422,13.5026
-371,505,-1.73822,-13.9901,-0.00668027,0.00809378,-0.00502608,0.0096415,-0.00822799,-1.27207,0.0103277,0.0130861,853,519,-1.73824,13.99
-364,505,-1.74438,-14.4556,-0.00366446,0.00542426,-0.00373331,0.00676112,-0.00500133,-1.22693,0.00681634,0.0139831,860,519,-1.74439,14.4556
-357,505,-1.7276,-14.8931,-0.00111034,0.00334607,-0.00254014,0.0044968,-0.00226107,-1.14543,0.00397219,0.011798,867,519,-1.72762,14.8931
-350,505,-1.75208,-15.3247,0.000703117,0.00176102,-0.00168188,0.00299517,-0.000531029,-0.937751,0.0021953,0.0112151,874,519,-1.75208,15.3247
-343,505,-1.77814,-15.771,0.00127445,0.000370517,-0.00104997,0.0019656,-0.000320627,-0.582156,0.00142931,0.00962226,881,519,-1.77815,15.771
-336,505,-1.78644,-16.1787,0.00132521,-0.000230878,-0.000520824,0.00148344,-0.000389109,-0.294947,0.001141,0.0117651,888,519,-1.78642,16.1787
-329,505,-1.77563,-16.5908,0.00148433,-0.000807642,-0.000161319,0.00149563,-0.000818941,-0.0699246,0.00135522,0.0174319,895,519,-1.77564,16.5908
-322,505,-1.78394,-17.0508,0.00162069,-0.00140737,0.000233314,0.00163856,-0.00142524,0.0764494,0.00177031,0.0205083,902,519,-1.78394,17.0508
-315,505,-1.79614,-17.4877,0.00178057,-0.00198726,0.00065918,0.00189256,-0.00209926,0.168292,0.00230571,0.0154587,909,519,-1.79614,17.4877
-308,505,-1.81464,-17.8554,0.00203248,-0.00263647,0.00111514,0.00228515,-0.00288914,0.222819,0.00299415,0.0130447,916,519,-1.81466,17.8554
-301,505,-1.81781,-18.2366,0.00221819,-0.00348368,0.00174261,0.00270859,-0.00397408,0.274322,0.00388123,0.0189205,923,519,-1.81782,18.2366
-294,505,-1.86328,-18.4321,0.00216643,-0.00483062,0.00264857,0.00305591,-0.0057201,0.323999,0.00514407,0.0369537,930,519,-1.86329,18.4321
-287,505,-1.94501,-18.9456,0,0,0,0,0,0,0,-1,937,519,-1.94502,18.9456
-280,505,-1.68561,-19.6629,0,0,0,0,0,0,0,-1,944,519,-1.6856,19.6629
-273,505,-0.0680542,-9.44867,0,0,0,0,0,0,0,-1,951,519,-0.0680462,9.44866
-266,505,-0.036377,-9.07922,0,0,0,0,0,0,0,-1,958,519,-0.0364055,9.0792
-259,505,0.10321,-6.69824,0,0,0,0,0,0,0,-1,965,519,0.103235,6.69826
-252,505,6.82312,-15.6972,0,0,0,0,0,0,0,-1,972,519,6.82314,15.6972
-245,505,4.26727,-12.9861,0,0,0,0,0,0,0,-1,979,519,4.2673,12.9861
-238,505,1.67432,-11.2307,0,0,0,0,0,0,0,-1,986,519,1.67429,11.2307
-231,505,-0.958435,-8.3075,0,0,0,0,0,0,0,-1,993,519,-0.958421,8.30751
-224,505,-3.69653,-5.12732,0,0,0,0,0,0,0,-1,1000,519,-3.69653,5.12733
-217,505,-6.34302,-1.65533,0,0,0,0,0,0,0,-1,1007,519,-6.34299,1.65535
-210,505,-3.06128,-0.396301,0,0,0,0,0,0,0,-1,1014,519,-3.06129,0.396294
-203,505,-4.26465,2.03607,0,0,0,0,0,0,0,-1,1021,519,-4.26462,-2.03606
-196,505,-5.47595,4.27295,0,0,0,0,0,0,0,-1,1028,519,-5.47597,-4.27292
-189,505,1.51526,5.56207,0,0,0,0,0,0,0,-1,1035,519,1.51523,-5.56209
-182,505,2.97815,7.5097,0,0,0,0,0,0,0,-1,1042,519,2.97812,-7.5097
-175,505,-2.38416,-2.17548,0,0,0,0,0,0,0,-1,1049,519,-2.38411,2.1755
-168,505,0,0,0,0,0,0,0,0,0,-1,1056,519,0,0
-161,505,0,0,0,0,0,0,0,0,0,-1,1063,519,0,0
-154,505,0,0,0,0,0,0,0,0,0,-1,1070,519,0,0
-147,505,0,0,0,0,0,0,0,0,0,-1,1077,519,0,0
-140,505,0,0,0,0,0,0,0,0,0,-1,1084,519,0,0
-133,505,0,0,0,0,0,0,0,0,0,-1,1091,519,0,0
-126,505,0,0,0,0,0,0,0,0,0,-1,1098,519,0,0
-119,505,0,0,0,0,0,0,0,0,0,-1,1105,519,0,0
-112,505,0,0,0,0,0,0,0,0,0,-1,1112,519,0,0
-105,505,0,0,0,0,0,0,0,0,0,-1,1119,519,0,0
-98,505,0,0,0,0,0,0,0,0,0,-1,1126,519,0,0
-91,505,0,0,0,0,0,0,0,0,0,-1,1133,519,0,0
-84,505,0,0,0,0,0,0,0,0,0,-1,1140,519,0,0
-77,505,0,0,0,0,0,0,0,0,0,-1,1147,519,0,0
-70,505,0,0,0,0,0,0,0,0,0,-1,1154,519,0,0
-63,505,0,0,0,0,0,0,0,0,0,-1,1161,519,0,0
-56,505,0,0,0,0,0,0,0,0,0,-1,1168,519,0,0
-49,505,0,0,0,0,0,0,0,0,0,-1,1175,519,0,0
-42,505,0,0,0,0,0,0,0,0,0,-1,1182,519,0,0
-35,505,0,0,0,0,0,0,0,0,0,-1,1189,519,0,0
-28,505,0,0,0,0,0,0,0,0,0,-1,1196,519,0,0
-21,505,0,0,0,0,0,0,0,0,0,-1,1203,519,0,0
-14,505,0,0,0,0,0,0,0,0,0,-1,1210,519,0,0
-7,505,0,0,0,0,0,0,0,0,0,-1,1217,519,0,0
0,505,0,0,0,0,0,0,0,0,0,-1,1224,519,0,0
7,505,0,0,0,0,0,0,0,0,0,-1,1231,519,0,0
14,505,0,0,0,0,0,0,0,0,0,-1,1238,519,0,0
21,505,0,0,0,0,0,0,0,0,0,-1,1245,519,0,0
28,505,0,0,0,0,0,0,0,0,0,-1,1252,519,0,0
35,505,0,0,0,0,0,0,0,0,0,-1,1259,519,0,0
42,505,0,0,0,0,0,0,0,0,0,-1,1266,519,0,0
49,505,0,0,0,0,0,0,0,0,0,-1,1273,519,0,0
56,505,0,0,0,0,0,0,0,0,0,-1,1280,519,0,0
63,505,0,0,0,0,0,0,0,0,0,-1,1287,519,0,0
70,505,0,0,0,0,0,0,0,0,0,-1,1294,519,0,0
77,505,0,0,0,0,0,0,0,0,0,-1,1301,519,0,0
84,505,0,0,0,0,0,0,0,0,0,-1,1308,519,0,0
91,505,0,0,0,0,0,0,0,0,0,-1,1315,519,0,0
98,505,0,0,0,0,0,0,0,0,0,-1,1322,519,0,0
105,505,0,0,0,0,0,0,0,0,0,-1,1329,519,0,0
112,505,0,0,0,0,0,0,0,0,0,-1,1336,519,0,0
119,505,0,0,0,0,0,0,0,0,0,-1,1343,519,0,0
126,505,0,0,0,0,0,0,0,0,0,-1,1350,519,0,0
133,505,0,0,0,0,0,0,0,0,0,-1,1357,519,0,0
140,505,0,0,0,0,0,0,0,0,0,-1,1364,519,0,0
147,505,0,0,0,0,0,0,0,0,0,-1,1371,519,0,0
154,505,0,0,0,0,0,0,0,0,0,-1,1378,519,0,0
161,505,0,0,0,0,0,0,0,0,0,-1,1385,519,0,0
168,505,0,0,0,0,0,0,0,0,0,-1,1392,519,0,0
175,505,0,0,0,0,0,0,0,0,0,-1,1399,519,0,0
182,505,0,0,0,0,0,0,0,0,0,-1,1406,519,0,0
189,505,0,0,0,0,0,0,0,0,0,-1,1413,519,0,0
196,505,0,0,0,0,0,0,0,0,0,-1,1420,519,0,0
203,505,0,0,0,0,0,0,0,0,0,-1,1427,519,0,0
210,505,0,0,0,0,0,0,0,0,0,-1,1434,519,0,0
217,505,0,0,0,0,0,0,0,0,0,-1,1441,519,0,0
224,505,0,0,0,0,0,0,0,0,0,-1,1448,519,0,0
231,505,0,0,0,0,0,0,0,0,0,-1,1455,519,0,0
238,505,0,0,0,0,0,0,0,0,0,-1,1462,519,0,0
245,505,0,0,0,0,0,0,0,0,0,-1,1469,519,0,0
252,505,0,0,0,0,0,0,0,0,0,-1,1476,519,0,0
259,505,0,0,0,0,0,0,0,0,0,-1,1483,519,0,0
266,505,0,0,0,0,0,0,0,0,0,-1,1490,519,0,0
273,505,0,0,0,0,0,0,0,0,0,-1,1497,519,0,0
280,505,0,0,0,0,0,0,0,0,0,-1,1504,519,0,0
287,505,4.39478,0.499512,0,0,0,0,0,0,0,-1,1511,519,4.39476,-0.499506
294,505,4.88867,0.0822754,0,0,0,0,0,0,0,-1,1518,519,4.88871,-0.0822748
301,505,4.82153,-0.0704346,0,0,0,0,0,0,0,-1,1525,519,4.82156,0.0704312
308,505,4.67761,-0.29187,0,0,0,0,0,0,0,-1,1532,519,4.67762,0.291845
315,505,8.44055,-6.54352,0,0,0,0,0,0,0,-1,1539,519,8.44059,6.54349
322,505,4.78955,-0.594116,0,0,0,0,0,0,0,-1,1546,519,4.78957,0.594096
329,505,5.16321,0.434631,0,0,0,0,0,0,0,-1,1553,519,5.16316,-0.434614
336,505,4.94495,-0.920471,0,0,0,0,0,0,0,-1,1560,519,4.945,0.920495
343,505,5.01855,-1.4823,0,0,0,0,0,0,0,-1,1567,519,5.01851,1.48227
350,505,5.33154,-1.77838,0,0,0,0,0,0,0,-1,1574,519,5.33152,1.77838
357,505,5.56567,-1.9425,0,0,0,0,0,0,0,-1,1581,519,5.56562,1.94248
364,505,5.85205,-2.6579,0,0,0,0,0,0,0,-1,1588,519,5.85211,2.65788
371,505,5.88477,-7.00922,0,0,0,0,0,0,0,-1,1595,519,5.88473,7.00924
378,505,5.44104,-7.10162,0,0,0,0,0,0,0,-1,1602,519,5.44099,7.10162
385,505,6.64661,-8.65015,0,0,0,0,0,0,0,-1,1609,519,6.64662,8.65014
392,505,6.34558,-8.3429,0,0,0,0,0,0,0,-1,1616,519,6.34554,8.34288
399,505,7.45898,-9.70386,0,0,0,0,0,0,0,-1,1623,519,7.45899,9.70388
406,505,7.08679,-9.4928,0,0,0,0,0,0,0,-1,1630,519,7.08678,9.49278
413,505,8.4032,-14.0308,0,0,0,0,0,0,0,-1,1637,519,8.4032,14.0308
420,505,10.5161,-17.7,0,0,0,0,0,0,0,-1,1644,519,10.5162,17.7
427,505,10.5264,-17.1801,0.00201187,0.000842368,-0.000737151,0.00236803,0.000486201,-0.45009,0.00144417,0.025949,1651,519,10.5264,17.1801
434,505,10.4796,-16.6594,0.00152067,0.000811979,-0.000700004,0.0019509,0.000381743,-0.5511,0.00119387,0.0111155,1658,519,10.4796,16.6594
441,505,10.4904,-16.1693,0.00121732,0.000869376,-0.000525414,0.00159682,0.000489882,-0.625521,0.000944589,0.0102407,1665,519,10.4903,16.1693
448,505,10.4845,-15.7365,0.00110943,0.000864219,-0.000330767,0.00133959,0.000634066,-0.607912,0.000773777,0.0109137,1672,519,10.4844,15.7365
455,505,10.465,-15.2951,0.00103919,0.000827131,-0.000145188,0.00111295,0.000753379,-0.470009,0.000655832,0.011271,1679,519,10.465,15.2951
462,505,10.4407,-14.8421,0.000965768,0.000752804,3.63512e-05,0.000971802,0.00074677,0.164489,0.000587406,0.0106973,1686,519,10.4407,14.8421
469,505,10.4419,-14.3838,0.000784285,0.000419386,0.000131702,0.000826853,0.000376817,0.312621,0.000478007,0.0114045,1693,519,10.4419,14.3838
476,505,10.4436,-13.9435,0.000405499,-0.000244855,0.000196396,0.000460205,-0.000299561,0.271665,0.000441908,0.0119451,1700,519,10.4437,13.9436
483,505,10.4513,-13.4833,-9.97271e-05,-0.00113987,9.99473e-05,-9.02102e-05,-0.00114939,0.0949325,0.000738028,0.0126567,1707,519,10.4513,13.4834
490,505,10.4325,-12.9958,-0.000832103,-0.00235187,-9.12051e-05,-0.000826649,-0.00235732,-0.0597269,0.00138108,0.0120122,1714,519,10.4325,12.9958
497,505,10.4155,-12.5327,-0.00175343,-0.003861,-0.000351975,-0.00169621,-0.00391823,-0.16118,0.00226897,0.0116672,1721,519,10.4155,12.5326
504,505,10.3969,-12.0494,-0.0028659,-0.00583457,-0.000730154,-0.00269603,-0.00600444,-0.228576,0.00347267,0.0119356,1728,519,10.3969,12.0495
511,505,10.3661,-11.5571,-0.00419185,-0.0080906,-0.0011837,-0.00386061,-0.00842185,-0.272857,0.00486796,0.0138421,1735,519,10.366,11.5571
518,505,10.3923,-11.0522,-0.00572595,-0.0105866,-0.00171265,-0.00518312,-0.0111294,-0.306937,0.00643061,0.020291,1742,519,10.3923,11.0522
525,505,10.2164,-10.5419,-0.00738265,-0.0134257,-0.00230392,-0.00660449,-0.0142039,-0.325726,0.00820732,0.0340962,1749,519,10.2164,10.5419
532,505,9.95691,-10.1985,0,0,0,0,0,0,0,-1,1756,519,9.95693,10.1985
539,505,7.90369,-7.11932,0,0,0,0,0,0,0,-1,1763,519,7.90373,7.11932
546,505,7.94946,-6.64539,0,0,0,0,0,0,0,-1,1770,519,7.94947,6.64539
553,505,2.82837,0.162659,0,0,0,0,0,0,0,-1,1777,519,2.82841,-0.162672
560,505,3.66223,-0.479797,0,0,0,0,0,0,0,-1,1784,519,3.66219,0.47982
567,505,4.65271,-0.950256,0,0,0,0,0,0,0,-1,1791,519,4.65274,0.95028
574,505,5.54443,-1.19977,0,0,0,0,0,0,0,-1,1798,519,5.54443,1.19974
581,505,0,0,0,0,0,0,0,0,0,-1,1805,519,0,0
588,505,0,0,0,0,0,0,0,0,0,-1,1812,519,0,0
595,505,0,0,0,0,0,0,0,0,0,-1,1819,519,0,0
602,505,0,0,0,0,0,0,0,0,0,-1,1826,519,0,0
609,505,0,0,0,0,0,0,0,0,0,-1,1833,519,0,0
616,505,0,0,0,0,0,0,0,0,0,-1,1840,519,0,0
623,505,0,0,0,0,0,0,0,0,0,-1,1847,519,0,0
630,505,0,0,0,0,0,0,0,0,0,-1,1854,519,0,0
637,505,0,0,0,0,0,0,0,0,0,-1,1861,519,0,0
644,505,0,0,0,0,0,0,0,0,0,-1,1868,519,0,0
651,505,0,0,0,0,0,0,0,0,0,-1,1875,519,0,0
658,505,0,0,0,0,0,0,0,0,0,-1,1882,519,0,0
665,505,0,0,0,0,0,0,0,0,0,-1,1889,519,0,0
672,505,0,0,0,0,0,0,0,0,0,-1,1896,519,0,0
679,505,0,0,0,0,0,0,0,0,0,-1,1903,519,0,0
686,505,0,0,0,0,0,0,0,0,0,-1,1910,519,0,0
693,505,0,0,0,0,0,0,0,0,0,-1,1917,519,0,0
700,505,0,0,0,0,0,0,0,0,0,-1,1924,519,0,0
707,505,0,0,0,0,0,0,0,0,0,-1,1931,519,0,0
714,505,0,0,0,0,0,0,0,0,0,-1,1938,519,0,0
721,505,0,0,0,0,0,0,0,0,0,-1,1945,519,0,0
728,505,0,0,0,0,0,0,0,0,0,-1,1952,519,0,0
735,505,0,0,0,0,0,0,0,0,0,-1,1959,519,0,0
742,505,0,0,0,0,0,0,0,0,0,-1,1966,519,0,0
749,505,0,0,0,0,0,0,0,0,0,-1,1973,519,0,0
756,505,0,0,0,0,0,0,0,0,0,-1,1980,519,0,0
763,505,0,0,0,0,0,0,0,0,0,-1,1987,519,0,0
770,505,0,0,0,0,0,0,0,0,0,-1,1994,519,0,0
777,505,0,0,0,0,0,0,0,0,0,-1,2001,519,0,0
784,505,0,0,0,0,0,0,0,0,0,-1,2008,519,0,0
791,505,0,0,0,0,0,0,0,0,0,-1,2015,519,0,0
798,505,0,0,0,0,0,0,0,0,0,-1,2022,519,0,0
805,505,0,0,0,0,0,0,0,0,0,-1,2029,519,0,0
812,505,0,0,0,0,0,0,0,0,0,-1,2036,519,0,0
-700,498,0,0,0,0,0,0,0,0,0,-1,524,526,0,0
-693,498,0,0,0,0,0,0,0,0,0,-1,531,526,0,0
-686,498,0,0,0,0,0,0,0,0,0,-1,538,526,0,0
-679,498,0,0,0,0,0,0,0,0,0,-1,545,526,0,0
-672,498,0,0,0,0,0,0,0,0,0,-1,552,526,0,0
-665,498,0,0,0,0,0,0,0,0,0,-1,559,526,0,0
-658,498,0,0,0,0,0,0,0,0,0,-1,566,526,0,0
-651,498,0,0,0,0,0,0,0,0,0,-1,573,526,0,0
-644,498,0,0,0,0,0,0,0,0,0,-1,580,526,0,0
-637,498,0,0,0,0,0,0,0,0,0,-1,587,526,0,0
-630,498,0,0,0,0,0,0,0,0,0,-1,594,526,0,0
-623,498,0,0,0,0,0,0,0,0,0,-1,601,526,0,0
-616,498,0,0,0,0,0,0,0,0,0,-1,608,526,0,0
-609,498,0,0,0,0,0,0,0,0,0,-1,615,526,0,0
-602,498,0,0,0,0,0,0,0,0,0,-1,622,526,0,0
-595,498,0,0,0,0,0,0,0,0,0,-1,629,526,0,0
-588,498,0,0,0,0,0,0,0,0,0,-1,636,526,0,0
-581,498,0,0,0,0,0,0,0,0,0,-1,643,526,0,0
-574,498,0,0,0,0,0,0,0,0,0,-1,650,526,0,0
-567,498,0,0,0,0,0,0,0,0,0,-1,657,526,0,0
-560,498,0,0,0,0,0,0,0,0,0,-1,664,526,0,0
-553,498,0,0,0,0,0,0,0,0,0,-1,671,526,0,0
-546,498,0,0,0,0,0,0,0,0,0,-1,678,526,0,0
-539,498,0,0,0,0,0,0,0,0,0,-1,685,526,0,0
-532,498,0,0,0,0,0,0,0,0,0,-1,692,526,0,0
-525,498,0,0,0,0,0,0,0,0,0,-1,699,526,0,0
-518,498,0,0,0,0,0,0,0,0,0,-1,706,526,0,0
-511,498,0,0,0,0,0,0,0,0,0,-1,713,526,0,0
-504,498,0,0,0,0,0,0,0,0,0,-1,720,526,0,0
-497,498,0,0,0,0,0,0,0,0,0,-1,727,526,0,0
-490,498,0,0,0,0,0,0,0,0,0,-1,734,526,0,0
-483,498,0,0,0,0,0,0,0,0,0,-1,741,526,0,0
-476,498,0,0,0,0,0,0,0,0,0,-1,748,526,0,0
-469,498,0,0,0,0,0,0,0,0,0,-1,755,526,0,0
-462,498,6.81024,1.15515,0,0,0,0,0,0,0,-1,762,526,6.81026,-1.15514
-455,498,3.25757,-3.0592,0,0,0,0,0,0,0,-1,769,526,3.25754,3.05921
-448,498,3.05939,-3.74298,0,0,0,0,0,0,0,-1,776,526,3.05939,3.74296
-441,498,2.77191,-6.08209,0,0,0,0,0,0,0,-1,783,526,2.77189,6.08207
-434,498,2.10681,-6.95929,0,0,0,0,0,0,0,-1,790,526,2.10682,6.9593
-427,498,-0.368042,-10.7726,0,0,0,0,0,0,0,-1,797,526,-0.36807,10.7726
-420,498,-1.05035,-10.5142,0,0,0,0,0,0,0,-1,804,526,-1.05034,10.5142
-413,498,-2.25891,-10.4112,0,0,0,0,0,0,0,-1,811,526,-2.25892,10.4112
-406,498,-2.04285,-11.3205,0,0,0,0,0,0,0,-1,818,526,-2.04283,11.3205
-399,498,-2.08185,-11.967,-0.0211294,0.0182219,-0.00985351,0.0205513,-0.0234588,-1.33865,0.0254278,0.0263312,825,526,-2.08183,11.9671
-392,498,-2.13452,-12.5687,-0.0156094,0.0143641,-0.00811436,0.0164198,-0.0176651,-1.32267,0.0196834,0.013095,832,526,-2.13451,12.5686
-385,498,-2.14441,-13.0399,-0.0108762,0.0109247,-0.00650621,0.0127187,-0.0126702,-1.30174,0.0146583,0.00914528,839,526,-2.14438,13.0399
-378,498,-2.15033,-13.5013,-0.00696655,0.00800694,-0.0051402,0.00960166,-0.00856127,-1.26997,0.0104921,0.0102114,846,526,-2.15036,13.5013
-371,498,-2.16223,-13.968,-0.00391457,0.00549591,-0.00392564,0.00691847,-0.00533713,-1.22314,0.00709538,0.0148387,853,526,-2.16223,13.968
-364,498,-2.1767,-14.4319,-0.0016521,0.00341188,-0.00284325,0.00468712,-0.00292735,-1.14918,0.00443518,0.0154893,860,526,-2.17669,14.4319
-357,498,-2.16736,-14.8756,0.000201217,0.00183438,-0.00189375,0.0030801,-0.0010445,-0.988953,0.00247612,0.0111883,867,526,-2.16734,14.8756
-350,498,-2.18939,-15.3088,0.00140479,0.000742431,-0.00123392,0.0023512,-0.000203976,-0.654289,0.00163969,0.0115675,874,526,-2.18941,15.3089
-343,498,-2.18744,-15.7431,0.00170879,-0.000232338,-0.000663858,0.00191411,-0.000437657,-0.29995,0.00144424,0.0114221,881,526,-2.18743,15.7431
-336,498,-2.18762,-16.1653,0.00179831,-0.000806491,-0.000205944,0.00181449,-0.000822673,-0.0784139,0.00155804,0.0141962,888,526,-2.18762,16.1653
-329,498,-2.2041,-16.567,0.00199426,-0.00135895,0.000131231,0.00199939,-0.00136408,0.0390563,0.00195341,0.0217817,895,526,-2.20412,16.567
-322,498,-2.21716,-17.0278,0.00218478,-0.00192035,0.000509119,0.00224698,-0.00198255,0.121567,0.00244351,0.0239547,902,526,-2.21717,17.0278
-315,498,-2.229,-17.466,0.00237715,-0.00251211,0.0009461,0.00255384,-0.0026888,0.18463,0.00302717,0.0186957,909,526,-2.22898,17.466
-308,498,-2.2207,-17.8535,0.00266644,-0.00317924,0.00141245,0.00298983,-0.00350263,0.225077,0.00375232,0.0215938,916,526,-2.22073,17.8535
-301,498,-2.13275,-18.3098,0.00282665,-0.00403394,0.00213151,0.00343495,-0.00464224,0.277995,0.0046807,0.0393487,923,526,-2.13277,18.3097
-294,498,-2.06458,-18.7789,0,0,0,0,0,0,0,-1,930,526,-2.06459,18.7789
-287,498,-0.91394,-13.4327,0,0,0,0,0,0,0,-1,937,526,-0.913935,13.4327
-280,498,-0.341614,-8.66608,0,0,0,0,0,0,0,-1,944,526,-0.341589,8.66606
-273,498,-0.988892,-8.62921,0,0,0,0,0,0,0,-1,951,526,-0.988906,8.62922
-266,498,0.362488,-6.33545,0,0,0,0,0,0,0,-1,958,526,0.362478,6.33547
-259,498,10.9454,-17.3615,0,0,0,0,0,0,0,-1,965,526,10.9454,17.3614
-252,498,8.56586,-14.6886,0,0,0,0,0,0,0,-1,972,526,8.56584,14.6886
-245,498,5.97382,-11.928,0,0,0,0,0,0,0,-1,979,526,5.97381,11.928
-238,498,2.24841,-13.8145,0,0,0,0,0,0,0,-1,986,526,2.24838,13.8145
-231,498,0.665894,-10.4898,0,0,0,0,0,0,0,-1,993,526,0.665863,10.4898
-224,498,-2.11243,-4.76312,0,0,0,0,0,0,0,-1,1000,526,-2.11245,4.76314
-217,498,-3.82239,-1.42841,0,0,0,0,0,0,0,-1,1007,526,-3.82241,1.42843
-210,498,-1.80591,-0.358215,0,0,0,0,0,0,0,-1,1014,526,-1.8059,0.3582
-203,498,-3.17316,1.06641,0,0,0,0,0,0,0,-1,1021,526,-3.17313,-1.0664
-196,498,-0.103271,5.40527,0,0,0,0,0,0,0,-1,1028,526,-0.103285,-5.40528
-189,498,3.00256,6.47137,0,0,0,0,0,0,0,-1,1035,526,3.00256,-6.47139
-182,498,0,0,0,0,0,0,0,0,0,-1,1042,526,0,0
-175,498,0,0,0,0,0,0,0,0,0,-1,1049,526,0,0
-168,498,0,0,0,0,0,0,0,0,0,-1,1056,526,0,0
-161,498,0,0,0,0,0,0,0,0,0,-1,1063,526,0,0
-154,498,0,0,0,0,0,0,0,0,0,-1,1070,526,0,0
-147,498,0,0,0,0,0,0,0,0,0,-1,1077,526,0,0
-140,498,0,0,0,0,0,0,0,0,0,-1,1084,526,0,0
-133,498,0,0,0,0,0,0,0,0,0,-1,1091,526,0,0
-126,498,0,0,0,0,0,0,0,0,0,-1,1098,526,0,0
-119,498,0,0,0,0,0,0,0,0,0,-1,1105,526,0,0
-112,498,0,0,0,0,0,0,0,0,0,-1,1112,526,0,0
-105,498,0,0,0,0,0,0,0,0,0,-1,1119,526,0,0
-98,498,0,0,0,0,0,0,0,0,0,-1,1126,526,0,0
-91,498,0,0,0,0,0,0,0,0,0,-1,1133,526,0,0
-84,498,0,0,0,0,0,0,0,0,0,-1,1140,526,0,0
-77,498,0,0,0,0,0,0,0,0,0,-1,1147,526,0,0
-70,498,0,0,0,0,0,0,0,0,0,-1,1154,526,0,0
-63,498,0,0,0,0,0,0,0,0,0,-1,1161,526,0,0
-56,498,0,0,0,0,0,0,0,0,0,-1,1168,526,0,0
-49,498,0,0,0,0,0,0,0,0,0,-1,1175,526,0,0
-42,498,0,0,0,0,0,0,0,0,0,-1,1182,526,0,0
-35,498,0,0,0,0,0,0,0,0,0,-1,1189,526,0,0
-28,498,0,0,0,0,0,0,0,0,0,-1,1196,526,0,0
-21,498,0,0,0,0,0,0,0,0,0,-1,1203,526,0,0
-14,498,0,0,0,0,0,0,0,0,0,-1,1210,526,0,0
-7,498,0,0,0,0,0,0,0,0,0,-1,1217,526,0,0
0,498,0,0,0,0,0,0,0,0,0,-1,1224,526,0,0
7,498,0,0,0,0,0,0,0,0,0,-1,1231,526,0,0
14,498,0,0,0,0,0,0,0,0,0,-1,1238,526,0,0
21,498,0,0,0,0,0,0,0,0,0,-1,1245,526,0,0
28,498,0,0,0,0,0,0,0,0,0,-1,1252,526,0,0
35,498,0,0,0,0,0,0,0,0,0,-1,1259,526,0,0
42,498,0,0,0,0,0,0,0,0,0,-1,1266,526,0,0
49,498,0,0,0,0,0,0,0,0,0,-1,1273,526,0,0
56,498,0,0,0,0,0,0,0,0,0,-1,1280,526,0,0
63,498,0,0,0,0,0,0,0,0,0,-1,1287,526,0,0
70,498,0,0,0,0,0,0,0,0,0,-1,1294,526,0,0
77,498,0,0,0,0,0,0,0,0,0,-1,1301,526,0,0
84,498,0,0,0,0,0,0,0,0,0,-1,1308,526,0,0
91,498,0,0,0,0,0,0,0,0,0,-1,1315,526,0,0
98,498,0,0,0,0,0,0,0,0,0,-1,1322,526,0,0
105,498,0,0,0,0,0,0,0,0,0,-1,1329,526,0,0
112,498,0,0,0,0,0,0,0,0,0,-1,1336,526,0,0
119,498,0,0,0,0,0,0,0,0,0,-1,1343,526,0,0
126,498,0,0,0,0,0,0,0,0,0,-1,1350,526,0,0
133,498,0,0,0,0,0,0,0,0,0,-1,1357,526,0,0
140,498,0,0,0,0,0,0,0,0,0,-1,1364,526,0,0
147,498,0,0,0,0,0,0,0,0,0,-1,1371,526,0,0
154,498,0,0,0,0,0,0,0,0,0,-1,1378,526,0,0
161,498,0,0,0,0,0,0,0,0,0,-1,1385,526,0,0
168,498,0,0,0,0,0,0,0,0,0,-1,1392,526,0,0
175,498,0,0,0,0,0,0,0,0,0,-1,1399,526,0,0
182,498,0,0,0,0,0,0,0,0,0,-1,1406,526,0,0
189,498,0,0,0,0,0,0,0,0,0,-1,1413,526,0,0
196,498,0,0,0,0,0,0,0,0,0,-1,1420,526,0,0
203,498,0,0,0,0,0,0,0,0,0,-1,1427,526,0,0
210,498,0,0,0,0,0,0,0,0,0,-1,1434,526,0,0
217,498,0,0,0,0,0,0,0,0,0,-1,1441,526,0,0
224,498,0,0,0,0,0,0,0,0,0,-1,1448,526,0,0
231,498,0,0,0,0,0,0,0,0,0,-1,1455,526,0,0
238,498,0,0,0,0,0,0,0,0,0,-1,1462,526,0,0
245,498,0,0,0,0,0,0,0,0,0,-1,1469,526,0,0
252,498,0,0,0,0,0,0,0,0,0,-1,1476,526,0,0
259,498,0,0,0,0,0,0,0,0,0,-1,1483,526,0,0
266,498,0,0,0,0,0,0,0,0,0,-1,1490,526,0,0
273,498,0,0,0,0,0,0,0,0,0,-1,1497,526,0,0
280,498,0,0,0,0,0,0,0,0,0,-1,1504,526,0,0
287,498,0,0,0,0,0,0,0,0,0,-1,1511,526,0,0
294,498,0,0,0,0,0,0,0,0,0,-1,1518,526,0,0
301,498,0,0,0,0,0,0,0,0,0,-1,1525,526,0,0
308,498,4.77942,-0.293884,0,0,0,0,0,0,0,-1,1532,526,4.77939,0.293899
315,498,4.56091,-0.564148,0,0,0,0,0,0,0,-1,1539,526,4.56097,0.564142
322,498,4.52344,-0.447266,0,0,0,0,0,0,0,-1,1546,526,4.52341,0.447295
329,498,4.63232,-0.156982,0,0,0,0,0,0,0,-1,1553,526,4.63238,0.156991
336,498,5.22644,0.0925903,0,0,0,0,0,0,0,-1,1560,526,5.22648,-0.0926188
343,498,6.22607,-1.67615,0,0,0,0,0,0,0,-1,1567,526,6.22605,1.67617
350,498,6.19373,-1.59906,0,0,0,0,0,0,0,-1,1574,526,6.19367,1.59906
357,498,6.21472,-1.58929,0,0,0,0,0,0,0,-1,1581,526,6.21476,1.58927
364,498,5.73547,-1.2019,0,0,0,0,0,0,0,-1,1588,526,5.73547,1.20192
371,498,3.27087,-4.55334,0,0,0,0,0,0,0,-1,1595,526,3.27089,4.55332
378,498,8.42944,-4.70624,0,0,0,0,0,0,0,-1,1602,526,8.42942,4.70624
385,498,4.7793,-5.15314,0,0,0,0,0,0,0,-1,1609,526,4.77935,5.15311
392,498,9.12439,-8.57953,0,0,0,0,0,0,0,-1,1616,526,9.12443,8.57955
399,498,7.98938,-9.46021,0,0,0,0,0,0,0,-1,1623,526,7.98936,9.4602
406,498,7.58081,-9.26819,0,0,0,0,0,0,0,-1,1630,526,7.58085,9.26817
413,498,7.17236,-9.07611,0,0,0,0,0,0,0,-1,1637,526,7.17234,9.07614
420,498,11.4314,-16.1147,0,0,0,0,0,0,0,-1,1644,526,11.4313,16.1147
427,498,10.88,-17.2321,0,0,0,0,0,0,0,-1,1651,526,10.88,17.232
434,498,10.881,-16.6287,0.00168085,0.000643005,-0.00107802,0.00235834,-3.44862e-05,-0.561083,0.00158385,0.0291654,1658,526,10.8809,16.6286
441,498,10.9475,-16.1724,0.00137234,0.000728259,-0.000874374,0.00198209,0.000118506,-0.608952,0.00128372,0.010178,1665,526,10.9475,16.1724
448,498,10.953,-15.7076,0.00128252,0.000786656,-0.000652869,0.00173295,0.000336227,-0.60393,0.00106113,0.0100475,1672,526,10.953,15.7076
455,498,10.9357,-15.2755,0.00126163,0.000836675,-0.000439604,0.00153742,0.000560892,-0.560282,0.000898374,0.0139932,1679,526,10.9357,15.2755
462,498,10.9167,-14.8574,0.00127393,0.000863373,-0.000196303,0.00135268,0.000784619,-0.381528,0.0007843,0.015678,1686,526,10.9167,14.8574
469,498,10.9087,-14.4063,0.00117599,0.000825242,3.26416e-05,0.001179,0.00082223,0.0920108,0.000698154,0.0136614,1693,526,10.9087,14.4063
476,498,10.9041,-13.9377,0.00086613,0.000438234,0.000117567,0.000896305,0.00040806,0.251235,0.000518172,0.0101237,1700,526,10.904,13.9378
483,498,10.8872,-13.4722,0.000416605,-0.000216415,8.35426e-05,0.000427445,-0.000227255,0.129032,0.000383836,0.00849481,1707,526,10.8872,13.4722
490,498,10.868,-13.0134,-0.000271131,-0.00109813,-5.135e-05,-0.000267955,-0.00110131,-0.0617753,0.000663186,0.0107155,1714,526,10.868,13.0134
497,498,10.8704,-12.525,-0.00112509,-0.00217282,-0.000229748,-0.00107692,-0.00222099,-0.20665,0.00128248,0.0117433,1721,526,10.8703,12.525
504,498,10.8608,-12.0453,-0.00215491,-0.00368028,-0.000542577,-0.00198161,-0.00385359,-0.309169,0.00222517,0.0133408,1728,526,10.8609,12.0453
511,498,10.8367,-11.5623,-0.00338688,-0.00538409,-0.000940504,-0.00301371,-0.00575726,-0.377722,0.00332517,0.0151871,1735,526,10.8366,11.5623
518,498,10.8535,-11.0602,-0.00482881,-0.00722249,-0.00142552,-0.00416432,-0.00788697,-0.43619,0.00455592,0.0161309,1742,526,10.8535,11.0602
525,498,10.7506,-10.578,-0.0063374,-0.00932752,-0.00198123,-0.00535043,-0.0103145,-0.462175,0.00595646,0.0254702,1749,526,10.7506,10.578
532,498,10.5964,-10.1686,-0.00786586,-0.0115192,-0.00250916,-0.00658889,-0.0127962,-0.470759,0.00738899,0.0432064,1756,526,10.5964,10.1686
539,498,10.6355,-9.76117,0,0,0,0,0,0,0,-1,1763,526,10.6355,9.76115
546,498,10.2014,-8.47589,0,0,0,0,0,0,0,-1,1770,526,10.2014,8.47589
553,498,5.93958,-1.71448,0,0,0,0,0,0,0,-1,1777,526,5.93956,1.71447
560,498,3.69385,-0.615112,0,0,0,0,0,0,0,-1,1784,526,3.69381,0.615118
567,498,5.12695,-0.581604,0,0,0,0,0,0,0,-1,1791,526,5.12699,0.58159
574,498,3.88,0.0286255,0,0,0,0,0,0,0,-1,1798,526,3.87999,-0.0286535
581,498,10.8722,2.58551,0,0,0,0,0,0,0,-1,1805,526,10.8723,-2.58551
588,498,0,0,0,0,0,0,0,0,0,-1,1812,526,0,0
595,498,0,0,0,0,0,0,0,0,0,-1,1819,526,0,0
602,498,0,0,0,0,0,0,0,0,0,-1,1826,526,0,0
609,498,0,0,0,0,0,0,0,0,0,-1,1833,526,0,0
616,498,0,0,0,0,0,0,0,0,0,-1,1840,526,0,0
623,498,0,0,0,0,0,0,0,0,0,-1,1847,526,0,0
630,498,0,0,0,0,0,0,0,0,0,-1,1854,526,0,0
637,498,0,0,0,0,0,0,0,0,0,-1,1861,526,0,0
644,498,0,0,0,0,0,0,0,0,0,-1,1868,526,0,0
651,498,0,0,0,0,0,0,0,0,0,-1,1875,526,0,0
658,498,0,0,0,0,0,0,0,0,0,-1,1882,526,0,0
665,498,0,0,0,0,0,0,0,0,0,-1,1889,526,0,0
672,498,0,0,0,0,0,0,0,0,0,-1,1896,526,0,0
679,498,0,0,0,0,0,0,0,0,0,-1,1903,526,0,0
686,498,0,0,0,0,0,0,0,0,0,-1,1910,526,0,0
693,498,0,0,0,0,0,0,0,0,0,-1,1917,526,0,0
700,498,0,0,0,0,0,0,0,0,0,-1,1924,526,0,0
707,498,0,0,0,0,0,0,0,0,0,-1,1931,526,0,0
714,498,0,0,0,0,0,0,0,0,0,-1,1938,526,0,0
721,498,0,0,0,0,0,0,0,0,0,-1,1945,526,0,0
728,498,0,0,0,0,0,0,0,0,0,-1,1952,526,0,0
735,498,0,0,0,0,0,0,0,0,0,-1,1959,526,0,0
742,498,0,0,0,0,0,0,0,0,0,-1,1966,526,0,0
749,498,0,0,0,0,0,0,0,0,0,-1,1973,526,0,0
756,498,0,0,0,0,0,0,0,0,0,-1,1980,526,0,0
763,498,0,0,0,0,0,0,0,0,0,-1,1987,526,0,0
770,498,0,0,0,0,0,0,0,0,0,-1,1994,526,0,0
777,498,0,0,0,0,0,0,0,0,0,-1,2001,526,0,0
784,498,0,0,0,0,0,0,0,0,0,-1,2008,526,0,0
791,498,0,0,0,0,0,0,0,0,0,-1,2015,526,0,0
798,498,0,0,0,0,0,0,0,0,0,-1,2022,526,0,0
805,498,0,0,0,0,0,0,0,0,0,-1,2029,526,0,0
812,498,0,0,0,0,0,0,0,0,0,-1,2036,526,0,0
-700,491,0,0,0,0,0,0,0,0,0,-1,524,533,0,0
-693,491,0,0,0,0,0,0,0,0,0,-1,531,533,0,0
-686,491,0,0,0,0,0,0,0,0,0,-1,538,533,0,0
-679,491,0,0,0,0,0,0,0,0,0,-1,545,533,0,0
-672,491,0,0,0,0,0,0,0,0,0,-1,552,533,0,0
-665,491,0,0,0,0,0,0,0,0,0,-1,559,533,0,0
-658,491,0,0,0,0,0,0,0,0,0,-1,566,533,0,0
-651,491,0,0,0,0,0,0,0,0,0,-1,573,533,0,0
-644,491,0,0,0,0,0,0,0,0,0,-1,580,533,0,0
-637,491,0,0,0,0,0,0,0,0,0,-1,587,533,0,0
-630,491,0,0,0,0,0,0,0,0,0,-1,594,533,0,0
-623,491,0,0,0,0,0,0,0,0,0,-1,601,533,0,0
-616,491,0,0,0,0,0,0,0,0,0,-1,608,533,0,0
-609,491,0,0,0,0,0,0,0,0,0,-1,615,533,0,0
-602,491,0,0,0,0,0,0,0,0,0,-1,622,533,0,0
-595,491,0,0,0,0,0,0,0,0,0,-1,629,533,0,0
-588,491,0,0,0,0,0,0,0,0,0,-1,636,533,0,0
-581,491,0,0,0,0,0,0,0,0,0,-1,643,533,0,0
-574,491,0,0,0,0,0,0,0,0,0,-1,650,533,0,0
-567,491,0,0,0,0,0,0,0,0,0,-1,657,533,0,0
-560,491,0,0,0,0,0,0,0,0,0,-1,664,533,0,0
-553,491,0,0,0,0,0,0,0,0,0,-1,671,533,0,0
-546,491,0,0,0,0,0,0,0,0,0,-1,678,533,0,0
-539,491,0,0,0,0,0,0,0,0,0,-1,685,533,0,0
-532,491,0,0,0,0,0,0,0,0,0,-1,692,533,0,0
-525,491,0,0,0,0,0,0,0,0,0,-1,699,533,0,0
-518,491,0,0,0,0,0,0,0,0,0,-1,706,533,0,0
-511,491,0,0,0,0,0,0,0,0,0,-1,713,533,0,0
-504,491,0,0,0,0,0,0,0,0,0,-1,720,533,0,0
-497,491,0,0,0,0,0,0,0,0,0,-1,727,533,0,0
-490,491,0,0,0,0,0,0,0,0,0,-1,734,533,0,0
-483,491,0,0,0,0,0,0,0,0,0,-1,741,533,0,0
-476,491,0,0,0,0,0,0,0,0,0,-1,748,533,0,0
-469,491,-5.85913,4.55011,0,0,0,0,0,0,0,-1,755,533,-5.8591,-4.55009
-462,491,-9.93713,4.90381,0,0,0,0,0,0,0,-1,762,533,-9.93716,-4.9038
-455,491,1.9494,-0.27887,0,0,0,0,0,0,0,-1,769,533,1.94941,0.27885
-448,491,2.68909,-1.8999,0,0,0,0,0,0,0,-1,776,533,2.6891,1.89988
-441,491,3.46069,-3.51855,0,0,0,0,0,0,0,-1,783,533,3.46071,3.51854
-434,491,2.67145,-7.44061,0,0,0,0,0,0,0,-1,790,533,2.67146,7.44061
-427,491,2.27136,-8.34546,0,0,0,0,0,0,0,-1,797,533,2.27136,8.34546
-420,491,-1.52142,-8.1123,0,0,0,0,0,0,0,-1,804,533,-1.52142,8.11228
-413,491,-2.64087,-10.9838,0,0,0,0,0,0,0,-1,811,533,-2.64087,10.9838
-406,491,-2.55212,-11.629,-0.0189837,0.0163228,-0.00887345,0.0184275,-0.0210883,-1.33791,0.0228317,0.02687,818,533,-2.55212,11.629
-399,491,-2.54199,-12.1339,-0.0144302,0.0131319,-0.00748305,0.0150325,-0.0163307,-1.32207,0.0181127,0.0114099,825,533,-2.54196,12.1339
-392,491,-2.58905,-12.6124,-0.0104286,0.0102049,-0.00614641,0.011897,-0.0121208,-1.30214,0.0138669,0.00986089,832,533,-2.58904,12.6124
-385,491,-2.5993,-13.0523,-0.00693997,0.00761336,-0.00490365,0.00911141,-0.00843802,-1.2743,0.0101347,0.00923035,839,533,-2.59928,13.0523
-378,491,-2.59717,-13.4997,-0.00402504,0.00541996,-0.00384759,0.00678892,-0.005394,-1.22897,0.00704917,0.0130637,846,533,-2.59719,13.4997
-371,491,-2.5907,-13.9501,-0.00174149,0.0034959,-0.0028769,0.00476746,-0.00301305,-1.15462,0.00452999,0.0140377,853,533,-2.59072,13.9501
-364,491,-2.60443,-14.3909,-4.29743e-05,0.00187888,-0.00199231,0.00312989,-0.00129399,-1.0101,0.00262642,0.0136305,860,533,-2.60443,14.3909
-357,491,-2.62006,-14.8235,0.00128866,0.000706896,-0.00127008,0.00230074,-0.000305182,-0.672826,0.00164502,0.0120603,867,533,-2.62006,14.8235
-350,491,-2.63611,-15.2715,0.00204365,-5.78588e-07,-0.000813349,0.00232777,-0.000284701,-0.336072,0.00165493,0.0148754,874,533,-2.63613,15.2715
-343,491,-2.60144,-15.7079,0.00219898,-0.000612107,-0.000355234,0.00224317,-0.000656303,-0.123777,0.0017556,0.0227312,881,533,-2.60144,15.7079
-336,491,-2.59351,-16.1323,0.00239307,-0.00114045,-1.26401e-05,0.00239312,-0.00114049,-0.00357714,0.00208242,0.0234307,888,533,-2.59348,16.1323
-329,491,-2.64349,-16.5241,0.00270416,-0.00167003,0.000269056,0.00272065,-0.00168652,0.0612024,0.00256772,0.0251541,895,533,-2.6435,16.5241
-322,491,-2.67841,-16.9648,0.00305117,-0.00219525,0.000589479,0.00311659,-0.00226066,0.110522,0.00311764,0.0235403,902,533,-2.67838,16.9649
-315,491,-2.69678,-17.3656,0.00338778,-0.00284667,0.00100783,0.00354665,-0.00300554,0.156352,0.00378721,0.0226514,909,533,-2.69678,17.3656
-308,491,-2.60541,-17.9489,0,0,0,0,0,0,0,-1,916,533,-2.60539,17.9488
-301,491,-2.54712,-18.8055,0,0,0,0,0,0,0,-1,923,533,-2.54712,18.8055
-294,491,-0.777283,-8.60913,0,0,0,0,0,0,0,-1,930,533,-0.777288,8.6091
-287,491,-0.26123,-8.69055,0,0,0,0,0,0,0,-1,937,533,-0.261204,8.69053
-280,491,0.2948,-5.99219,0,0,0,0,0,0,0,-1,944,533,0.294811,5.99221
-273,491,0.369995,-5.33691,0,0,0,0,0,0,0,-1,951,533,0.369985,5.33693
-266,491,1.1167,-5.0321,0,0,0,0,0,0,0,-1,958,533,1.11668,5.0321
-259,491,12.0862,-16.9615,0,0,0,0,0,0,0,-1,965,533,12.0862,16.9615
-252,491,9.72443,-13.8417,0,0,0,0,0,0,0,-1,972,533,9.72444,13.8418
-245,491,5.27258,-14.3619,0,0,0,0,0,0,0,-1,979,533,5.27255,14.3619
-238,491,3.65381,-11.1472,0,0,0,0,0,0,0,-1,986,533,3.6538,11.1472
-231,491,2.17719,-7.86835,0,0,0,0,0,0,0,-1,993,533,2.17719,7.86832
-224,491,0.554626,-4.61725,0,0,0,0,0,0,0,-1,1000,533,0.554608,4.61727
-217,491,-2.92743,-1.0766,0,0,0,0,0,0,0,-1,1007,533,-2.92743,1.07659
-210,491,-0.92395,0.374512,0,0,0,0,0,0,0,-1,1014,533,-0.923959,-0.374531
-203,491,0.417419,4.77161,0,0,0,0,0,0,0,-1,1021,533,0.417446,-4.77162
-196,491,0,0,0,0,0,0,0,0,0,-1,1028,533,0,0
-189,491,0,0,0,0,0,0,0,0,0,-1,1035,533,0,0
-182,491,0,0,0,0,0,0,0,0,0,-1,1042,533,0,0
-175,491,0,0,0,0,0,0,0,0,0,-1,1049,533,0,0
-168,491,0,0,0,0,0,0,0,0,0,-1,1056,533,0,0
-161,491,0,0,0,0,0,0,0,0,0,-1,1063,533,0,0
-154,491,0,0,0,0,0,0,0,0,0,-1,1070,533,0,0
-147,491,0,0,0,0,0,0,0,0,0,-1,1077,533,0,0
-140,491,0,0,0,0,0,0,0,0,0,-1,1084,533,0,0
-133,491,0,0,0,0,0,0,0,0,0,-1,1091,533,0,0
-126,491,0,0,0,0,0,0,0,0,0,-1,1098,533,0,0
-119,491,0,0,0,0,0,0,0,0,0,-1,1105,533,0,0
-112,491,0,0,0,0,0,0,0,0,0,-1,1112,533,0,0
-105,491,0,0,0,0,0,0,0,0,0,-1,1119,533,0,0
-98,491,0,0,0,0,0,0,0,0,0,-1,1126,533,0,0
-91,491,0,0,0,0,0,0,0,0,0,-1,1133,533,0,0
-84,491,0,0,0,0,0,0,0,0,0,-1,1140,533,0,0
-77,491,0,0,0,0,0,0,0,0,0,-1,1147,533,0,0
-70,491,0,0,0,0,0,0,0,0,0,-1,1154,533,0,0
-63,491,0,0,0,0,0,0,0,0,0,-1,1161,533,0,0
-56,491,0,0,0,0,0,0,0,0,0,-1,1168,533,0,0
-49,491,0,0,0,0,0,0,0,0,0,-1,1175,533,0,0
-42,491,0,0,0,0,0,0,0,0,0,-1,1182,533,0,0
-35,491,0,0,0,0,0,0,0,0,0,-1,1189,533,0,0
-28,491,0,0,0,0,0,0,0,0,0,-1,1196,533,0,0
-21,491,0,0,0,0,0,0,0,0,0,-1,1203,533,0,0
-14,491,0,0,0,0,0,0,0,0,0,-1,1210,533,0,0
-7,491,0,0,0,0,0,0,0,0,0,-1,1217,533,0,0
0,491,0,0,0,0,0,0,0,0,0,-1,1224,533,0,0
7,491,0,0,0,0,0,0,0,0,0,-1,1231,533,0,0
14,491,0,0,0,0,0,0,0,0,0,-1,1238,533,0,0
21,491,0,0,0,0,0,0,0,0,0,-1,1245,533,0,0
28,491,0,0,0,0,0,0,0,0,0,-1,1252,533,0,0
35,491,0,0,0,0,0,0,0,0,0,-1,1259,533,0,0
42,491,0,0,0,0,0,0,0,0,0,-1,1266,533,0,0
49,491,0,0,0,0,0,0,0,0,0,-1,1273,533,0,0
56,491,0,0,0,0,0,0,0,0,0,-1,1280,533,0,0
63,491,0,0,0,0,0,0,0,0,0,-1,1287,533,0,0
70,491,0,0,0,0,0,0,0,0,0,-1,1294,533,0,0
77,491,0,0,0,0,0,0,0,0,0,-1,1301,533,0,0
84,491,0,0,0,0,0,0,0,0,0,-1,1308,533,0,0
91,491,0,0,0,0,0,0,0,0,0,-1,1315,533,0,0
98,491,0,0,0,0,0,0,0,0,0,-1,1322,533,0,0
105,491,0,0,0,0,0,0,0,0,0,-1,1329,533,0,0
112,491,0,0,0,0,0,0,0,0,0,-1,1336,533,0,0
119,491,0,0,0,0,0,0,0,0,0,-1,1343,533,0,0
126,491,0,0,0,0,0,0,0,0,0,-1,1350,533,0,0
133,491,0,0,0,0,0,0,0,0,0,-1,1357,533,0,0
140,491,0,0,0,0,0,0,0,0,0,-1,1364,533,0,0
147,491,0,0,0,0,0,0,0,0,0,-1,1371,533,0,0
154,491,0,0,0,0,0,0,0,0,0,-1,1378,533,0,0
161,491,0,0,0,0,0,0,0,0,0,-1,1385,533,0,0
168,491,0,0,0,0,0,0,0,0,0,-1,1392,533,0,0
175,491,0,0,0,0,0,0,0,0,0,-1,1399,533,0,0
182,491,0,0,0,0,0,0,0,0,0,-1,1406,533,0,0
189,491,0,0,0,0,0,0,0,0,0,-1,1413,533,0,0
196,491,0,0,0,0,0,0,0,0,0,-1,1420,533,0,0
203,491,0,0,0,0,0,0,0,0,0,-1,1427,533,0,0
210,491,0,0,0,0,0,0,0,0,0,-1,1434,533,0,0
217,491,0,0,0,0,0,0,0,0,0,-1,1441,533,0,0
224,491,0,0,0,0,0,0,0,0,0,-1,1448,533,0,0
231,491,0,0,0,0,0,0,0,0,0,-1,1455,533,0,0
238,491,0,0,0,0,0,0,0,0,0,-1,1462,533,0,0
245,491,0,0,0,0,0,0,0,0,0,-1,1469,533,0,0
252,491,0,0,0,0,0,0,0,0,0,-1,1476,533,0,0
259,491,0,0,0,0,0,0,0,0,0,-1,1483,533,0,0
266,491,0,0,0,0,0,0,0,0,0,-1,1490,533,0,0
273,491,0,0,0,0,0,0,0,0,0,-1,1497,533,0,0
280,491,0,0,0,0,0,0,0,0,0,-1,1504,533,0,0
287,491,0,0,0,0,0,0,0,0,0,-1,1511,533,0,0
294,491,0,0,0,0,0,0,0,0,0,-1,1518,533,0,0
301,491,0,0,0,0,0,0,0,0,0,-1,1525,533,0,0
308,491,0,0,0,0,0,0,0,0,0,-1,1532,533,0,0
315,491,0,0,0,0,0,0,0,0,0,-1,1539,533,0,0
322,491,4.26331,-0.734314,0,0,0,0,0,0,0,-1,1546,533,4.26326,0.734324
329,491,4.25354,-0.783752,0,0,0,0,0,0,0,-1,1553,533,4.25359,0.783734
336,491,4.81604,-0.722107,0,0,0,0,0,0,0,-1,1560,533,4.81605,0.722115
343,491,6.14478,-1.44281,0,0,0,0,0,0,0,-1,1567,533,6.14474,1.44281
350,491,6.36353,-1.30792,0,0,0,0,0,0,0,-1,1574,533,6.36352,1.3079
357,491,6.69482,-1.06018,0,0,0,0,0,0,0,-1,1581,533,6.69489,1.06018
364,491,8.01086,-1.69604,0,0,0,0,0,0,0,-1,1588,533,8.01087,1.69607
371,491,8.2135,-0.539307,0,0,0,0,0,0,0,-1,1595,533,8.21348,0.53929
378,491,13.3589,2.17267,0,0,0,0,0,0,0,-1,1602,533,13.3589,-2.17264
385,491,8.08228,-4.95471,0,0,0,0,0,0,0,-1,1609,533,8.08227,4.95474
392,491,2.88721,-4.30988,0,0,0,0,0,0,0,-1,1616,533,2.88716,4.30986
399,491,8.95862,-8.55518,0,0,0,0,0,0,0,-1,1623,533,8.95864,8.55516
406,491,8.16541,-9.00806,0,0,0,0,0,0,0,-1,1630,533,8.16535,9.00807
413,491,5.31848,-3.7124,0,0,0,0,0,0,0,-1,1637,533,5.31849,3.7124
420,491,4.86389,-3.95892,0,0,0,0,0,0,0,-1,1644,533,4.86387,3.95893
427,491,11.5096,-15.2742,0,0,0,0,0,0,0,-1,1651,533,11.5096,15.2742
434,491,11.3475,-16.5757,0,0,0,0,0,0,0,-1,1658,533,11.3476,16.5757
441,491,11.4415,-15.9444,0.00154174,0.000713165,-0.00114847,0.00234836,-9.34603e-05,-0.612298,0.00159764,0.0403022,1665,533,11.4415,15.9444
448,491,11.3846,-15.7358,0.00148596,0.000866839,-0.000887421,0.00211626,0.000236536,-0.617581,0.00133898,0.0234546,1672,533,11.3847,15.7358
455,491,11.3652,-15.2565,0.00153242,0.000997819,-0.000646679,0.00196487,0.000565375,-0.58942,0.00116799,0.0139117,1679,533,11.3653,15.2565
462,491,11.3726,-14.8306,0.00165674,0.00108683,-0.000335442,0.00181192,0.000931646,-0.4333,0.00104625,0.0159471,1686,533,11.3725,14.8306
469,491,11.3722,-14.4092,0.00166661,0.0012853,1.88517e-05,0.00166754,0.00128437,0.0492795,0.00100853,0.0149424,1693,533,11.3722,14.4093
476,491,11.3708,-13.9324,0.00145236,0.00110837,0.000127585,0.00149452,0.00106622,0.319116,0.000888675,0.010037,1700,533,11.3708,13.9324
483,491,11.3617,-13.4496,0.00107307,0.000616362,0.000156217,0.00112139,0.000568041,0.299988,0.000647454,0.0113094,1707,533,11.3617,13.4497
490,491,11.3495,-13.0099,0.0004468,-2.24807e-05,7.39745e-05,0.000458184,-3.38654e-05,0.152702,0.000317348,0.0106619,1714,533,11.3495,13.0099
497,491,11.3508,-12.5291,-0.000324816,-0.00077459,-2.68655e-05,-0.000323217,-0.000776189,-0.0594495,0.000450215,0.0116468,1721,533,11.3508,12.5291
504,491,11.3362,-12.0391,-0.00125795,-0.00193974,-0.000274864,-0.00116094,-0.00203675,-0.339285,0.00117975,0.0126177,1728,533,11.3362,12.0391
511,491,11.3191,-11.5666,-0.00237616,-0.00324242,-0.000608393,-0.00206247,-0.00355611,-0.476057,0.00206186,0.012342,1735,533,11.3191,11.5666
518,491,11.2941,-11.0972,-0.00370148,-0.00459102,-0.00102977,-0.00302454,-0.00526797,-0.581543,0.00305259,0.0102673,1742,533,11.294,11.0972
525,491,11.2906,-10.5992,-0.00504788,-0.00613276,-0.00151374,-0.00398232,-0.00719832,-0.613355,0.00416379,0.0100939,1749,533,11.2907,10.5992
532,491,11.2841,-10.1041,-0.00638388,-0.00764989,-0.00196186,-0.00495543,-0.00907834,-0.629344,0.00524872,0.021703,1756,533,11.284,10.1042
539,491,11.1681,-9.74518,-0.00772768,-0.00910631,-0.00246194,-0.00586038,-0.0109736,-0.648898,0.00634051,0.0391092,1763,533,11.168,9.74515
546,491,10.9674,-9.18054,0,0,0,0,0,0,0,-1,1770,533,10.9674,9.18052
553,491,10.5021,-7.77869,0,0,0,0,0,0,0,-1,1777,533,10.502,7.77871
560,491,6.28455,-1.43585,0,0,0,0,0,0,0,-1,1784,533,6.28458,1.43586
567,491,5.67651,-1.3562,0,0,0,0,0,0,0,-1,1791,533,5.67649,1.3562
574,491,8.0719,1.58325,0,0,0,0,0,0,0,-1,1798,533,8.07195,-1.58326
581,491,9.44812,1.60931,0,0,0,0,0,0,0,-1,1805,533,9.44808,-1.60933
588,491,11.0497,1.54962,0,0,0,0,0,0,0,-1,1812,533,11.0496,-1.54963
595,491,0,0,0,0,0,0,0,0,0,-1,1819,533,0,0
602,491,0,0,0,0,0,0,0,0,0,-1,1826,533,0,0
609,491,0,0,0,0,0,0,0,0,0,-1,1833,533,0,0
616,491,0,0,0,0,0,0,0,0,0,-1,1840,533,0,0
623,491,0,0,0,0,0,0,0,0,0,-1,1847,533,0,0
630,491,0,0,0,0,0,0,0,0,0,-1,1854,533,0,0
637,491,0,0,0,0,0,0,0,0,0,-1,1861,533,0,0
644,491,0,0,0,0,0,0,0,0,0,-1,1868,533,0,0
651,491,0,0,0,0,0,0,0,0,0,-1,1875,533,0,0
658,491,0,0,0,0,0,0,0,0,0,-1,1882,533,0,0
665,491,0,0,0,0,0,0,0,0,0,-1,1889,533,0,0
672,491,0,0,0,0,0,0,0,0,0,-1,1896,533,0,0
679,491,0,0,0,0,0,0,0,0,0,-1,1903,533,0,0
686,491,0,0,0,0,0,0,0,0,0,-1,1910,533,0,0
693,491,0,0,0,0,0,0,0,0,0,-1,1917,533,0,0
700,491,0,0,0,0,0,0,0,0,0,-1,1924,533,0,0
707,491,0,0,0,0,0,0,0,0,0,-1,1931,533,0,0
714,491,0,0,0,0,0,0,0,0,0,-1,1938,533,0,0
721,491,0,0,0,0,0,0,0,0,0,-1,1945,533,0,0
728,491,0,0,0,0,0,0,0,0,0,-1,1952,533,0,0
735,491,0,0,0,0,0,0,0,0,0,-1,1959,533,0,0
742,491,0,0,0,0,0,0,0,0,0,-1,1966,533,0,0
749,491,0,0,0,0,0,0,0,0,0,-1,1973,533,0,0
756,491,0,0,0,0,0,0,0,0,0,-1,1980,533,0,0
763,491,0,0,0,0,0,0,0,0,0,-1,1987,533,0,0
770,491,0,0,0,0,0,0,0,0,0,-1,1994,533,0,0
777,491,0,0,0,0,0,0,0,0,0,-1,2001,533,0,0
784,491,0,0,0,0,0,0,0,0,0,-1,2008,533,0,0
791,491,0,0,0,0,0,0,0,0,0,-1,2015,533,0,0
798,491,0,0,0,0,0,0,0,0,0,-1,2022,533,0,0
805,491,0,0,0,0,0,0,0,0,0,-1,2029,533,0,0
812,491,0,0,0,0,0,0,0,0,0,-1,2036,533,0,0
-700,484,0,0,0,0,0,0,0,0,0,-1,524,540,0,0
-693,484,0,0,0,0,0,0,0,0,0,-1,531,540,0,0
-686,484,0,0,0,0,0,0,0,0,0,-1,538,540,0,0
-679,484,0,0,0,0,0,0,0,0,0,-1,545,540,0,0
-672,484,0,0,0,0,0,0,0,0,0,-1,552,540,0,0
-665,484,0,0,0,0,0,0,0,0,0,-1,559,540,0,0
-658,484,0,0,0,0,0,0,0,0,0,-1,566,540,0,0
-651,484,0,0,0,0,0,0,0,0,0,-1,573,540,0,0
-644,484,0,0,0,0,0,0,0,0,0,-1,580,540,0,0
-637,484,0,0,0,0,0,0,0,0,0,-1,587,540,0,0
-630,484,0,0,0,0,0,0,0,0,0,-1,594,540,0,0
-623,484,0,0,0,0,0,0,0,0,0,-1,601,540,0,0
-616,484,0,0,0,0,0,0,0,0,0,-1,608,540,0,0
-609,484,0,0,0,0,0,0,0,0,0,-1,615,540,0,0
-602,484,0,0,0,0,0,0,0,0,0,-1,622,540,0,0
-595,484,0,0,0,0,0,0,0,0,0,-1,629,540,0,0
-588,484,0,0,0,0,0,0,0,0,0,-1,636,540,0,0
-581,484,0,0,0,0,0,0,0,0,0,-1,643,540,0,0
-574,484,0,0,0,0,0,0,0,0,0,-1,650,540,0,0
-567,484,0,0,0,0,0,0,0,0,0,-1,657,540,0,0
-560,484,0,0,0,0,0,0,0,0,0,-1,664,540,0,0
-553,484,0,0,0,0,0,0,0,0,0,-1,671,540,0,0
-546,484,0,0,0,0,0,0,0,0,0,-1,678,540,0,0
-539,484,0,0,0,0,0,0,0,0,0,-1,685,540,0,0
-532,484,0,0,0,0,0,0,0,0,0,-1,692,540,0,0
-525,484,0,0,0,0,0,0,0,0,0,-1,699,540,0,0
-518,484,0,0,0,0,0,0,0,0,0,-1,706,540,0,0
-511,484,0,0,0,0,0,0,0,0,0,-1,713,540,0,0
-504,484,0,0,0,0,0,0,0,0,0,-1,720,540,0,0
-497,484,0,0,0,0,0,0,0,0,0,-1,727,540,0,0
-490,484,0,0,0,0,0,0,0,0,0,-1,734,540,0,0
-483,484,0,0,0,0,0,0,0,0,0,-1,741,540,0,0
-476,484,-8.46552,1.44702,0,0,0,0,0,0,0,-1,748,540,-8.46554,-1.44702
-469,484,-7.82343,1.70355,0,0,0,0,0,0,0,-1,755,540,-7.82345,-1.70355
-462,484,-8.36987,3.08612,0,0,0,0,0,0,0,-1,762,540,-8.36988,-3.0861
-455,484,-6.77197,2.07092,0,0,0,0,0,0,0,-1,769,540,-6.77197,-2.07094
-448,484,3.54895,-1.40106,0,0,0,0,0,0,0,-1,776,540,3.54897,1.40106
-441,484,4.28906,-3.05884,0,0,0,0,0,0,0,-1,783,540,4.28905,3.05883
-434,484,-2.17548,-5.07245,0,0,0,0,0,0,0,-1,790,540,-2.17546,5.07243
-427,484,-2.94495,-9.71527,0,0,0,0,0,0,0,-1,797,540,-2.94497,9.71525
-420,484,-2.87689,-10.0494,0,0,0,0,0,0,0,-1,804,540,-2.87691,10.0495
-413,484,-2.85956,-11.0739,-0.0160922,0.0141378,-0.00746752,0.0158819,-0.0178362,-1.34136,0.019478,0.0306682,811,540,-2.85953,11.0739
-406,484,-2.91559,-11.6253,-0.0125167,0.0116273,-0.00647923,0.0132562,-0.0141455,-1.3245,0.0158232,0.0168882,818,540,-2.91561,11.6253
-399,484,-2.99884,-12.1301,-0.0093165,0.00924542,-0.00543951,0.010722,-0.0107931,-1.30573,0.0124218,0.0161134,825,540,-2.99887,12.1301
-392,484,-3.00732,-12.5917,-0.00645743,0.0070324,-0.00442371,0.00835365,-0.00777868,-1.28055,0.00931598,0.0185967,832,540,-3.00735,12.5917
-385,484,-3.03918,-13.0432,-0.0038994,0.00507955,-0.0034726,0.00626584,-0.00508569,-1.24161,0.00656561,0.0137715,839,540,-3.03916,13.0432
-378,484,-3.05353,-13.4995,-0.00172074,0.00342639,-0.00266374,0.00455671,-0.00285106,-1.16949,0.0043145,0.0153421,846,540,-3.05355,13.4994
-371,484,-3.04211,-13.9409,7.59759e-06,0.00194947,-0.00189707,0.00310963,-0.00115257,-1.02192,0.00254578,0.0167798,853,540,-3.04208,13.9409
-364,484,-3.05798,-14.3614,0.00131378,0.000707614,-0.00119346,0.00224204,-0.000220649,-0.661051,0.00157341,0.0122418,860,540,-3.05796,14.3614
-357,484,-3.07513,-14.7809,0.00228131,-0.000127581,-0.000682681,0.00246133,-0.0003076,-0.257825,0.00175244,0.0131937,867,540,-3.07515,14.7809
-350,484,-3.08984,-15.2369,0.00271264,-0.000515783,-0.000435992,0.00277048,-0.000573627,-0.131901,0.00206493,0.0149677,874,540,-3.08983,15.2369
-343,484,-3.07117,-15.6963,0.00277591,-0.000764884,-0.000145782,0.0027819,-0.000770877,-0.0410795,0.00215795,0.0222834,881,540,-3.0712,15.6963
-336,484,-3.05682,-16.1301,0.00305538,-0.00117601,2.71478e-05,0.00305555,-0.00117619,0.00641545,0.00252223,0.025857,888,540,-3.05681,16.1301
-329,484,-3.04352,-16.5154,0.00346167,-0.00161496,0.000193506,0.00346904,-0.00162232,0.0380434,0.00300326,0.035792,895,540,-3.0435,16.5155
-322,484,-3.06183,-16.9288,0,0,0,0,0,0,0,-1,902,540,-3.06184,16.9288
-315,484,-2.92841,-17.4225,0,0,0,0,0,0,0,-1,909,540,-2.92839,17.4225
-308,484,-1.32623,-8.9317,0,0,0,0,0,0,0,-1,916,540,-1.32626,8.93173
-301,484,-1.33453,-6.52667,0,0,0,0,0,0,0,-1,923,540,-1.33454,6.5267
-294,484,-1.61224,-8.17059,0,0,0,0,0,0,0,-1,930,540,-1.61227,8.17058
-287,484,-0.715759,-5.62103,0,0,0,0,0,0,0,-1,937,540,-0.715772,5.62105
-280,484,2.66742,-1.6795,0,0,0,0,0,0,0,-1,944,540,2.6674,1.67949
-273,484,2.53125,-2.22296,0,0,0,0,0,0,0,-1,951,540,2.53128,2.22295
-266,484,2.6778,-2.72058,0,0,0,0,0,0,0,-1,958,540,2.6778,2.72061
-259,484,2.41718,-2.59894,0,0,0,0,0,0,0,-1,965,540,2.41717,2.59892
-252,484,10.6069,-11.696,0,0,0,0,0,0,0,-1,972,540,10.6069,11.696
-245,484,6.34106,-11.6107,0,0,0,0,0,0,0,-1,979,540,6.34104,11.6107
-238,484,4.89319,-8.54059,0,0,0,0,0,0,0,-1,986,540,4.89321,8.5406
-231,484,3.47675,-5.22064,0,0,0,0,0,0,0,-1,993,540,3.47676,5.22067
-224,484,1.71344,-2.03473,0,0,0,0,0,0,0,-1,1000,540,1.71342,2.03472
-217,484,-0.745056,1.17358,0,0,0,0,0,0,0,-1,1007,540,-0.745043,-1.17359
-210,484,0,0,0,0,0,0,0,0,0,-1,1014,540,0,0
-203,484,0,0,0,0,0,0,0,0,0,-1,1021,540,0,0
-196,484,0,0,0,0,0,0,0,0,0,-1,1028,540,0,0
-189,484,0,0,0,0,0,0,0,0,0,-1,1035,540,0,0
-182,484,0,0,0,0,0,0,0,0,0,-1,1042,540,0,0
-175,484,0,0,0,0,0,0,0,0,0,-1,1049,540,0,0
-168,484,0,0,0,0,0,0,0,0,0,-1,1056,540,0,0
-161,484,0,0,0,0,0,0,0,0,0,-1,1063,540,0,0
-154,484,0,0,0,0,0,0,0,0,0,-1,1070,540,0,0
-147,484,0,0,0,0,0,0,0,0,0,-1,1077,540,0,0
-140,484,0,0,0,0,0,0,0,0,0,-1,1084,540,0,0
-133,484,0,0,0,0,0,0,0,0,0,-1,1091,540,0,0
-126,484,0,0,0,0,0,0,0,0,0,-1,1098,540,0,0
-119,484,0,0,0,0,0,0,0,0,0,-1,1105,540,0,0
-112,484,0,0,0,0,0,0,0,0,0,-1,1112,540,0,0
-105,484,0,0,0,0,0,0,0,0,0,-1,1119,540,0,0
-98,484,0,0,0,0,0,0,0,0,0,-1,1126,540,0,0
-91,484,0,0,0,0,0,0,0,0,0,-1,1133,540,0,0
-84,484,0,0,0,0,0,0,0,0,0,-1,1140,540,0,0
-77,484,0,0,0,0,0,0,0,0,0,-1,1147,540,0,0
-70,484,0,0,0,0,0,0,0,0,0,-1,1154,540,0,0
-63,484,0,0,0,0,0,0,0,0,0,-1,1161,540,0,0
-56,484,0,0,0,0,0,0,0,0,0,-1,1168,540,0,0
-49,484,0,0,0,0,0,0,0,0,0,-1,1175,540,0,0
-42,484,0,0,0,0,0,0,0,0,0,-1,1182,540,0,0
-35,484,0,0,0,0,0,0,0,0,0,-1,1189,540,0,0
-28,484,0,0,0,0,0,0,0,0,0,-1,1196,540,0,0
-21,484,0,0,0,0,0,0,0,0,0,-1,1203,540,0,0
-14,484,0,0,0,0,0,0,0,0,0,-1,1210,540,0,0
-7,484,0,0,0,0,0,0,0,0,0,-1,1217,540,0,0
0,484,0,0,0,0,0,0,0,0,0,-1,1224,540,0,0
7,484,0,0,0,0,0,0,0,0,0,-1,1231,540,0,0
14,484,0,0,0,0,0,0,0,0,0,-1,1238,540,0,0
21,484,0,0,0,0,0,0,0,0,0,-1,1245,540,0,0
28,484,0,0,0,0,0,0,0,0,0,-1,1252,540,0,0
35,484,0,0,0,0,0,0,0,0,0,-1,1259,540,0,0
42,484,0,0,0,0,0,0,0,0,0,-1,1266,540,0,0
49,484,0,0,0,0,0,0,0,0,0,-1,1273,540,0,0
56,484,0,0,0,0,0,0,0,0,0,-1,1280,540,0,0
63,484,0,0,0,0,0,0,0,0,0,-1,1287,540,0,0
70,484,0,0,0,0,0,0,0,0,0,-1,1294,540,0,0
77,484,0,0,0,0,0,0,0,0,0,-1,1301,540,0,0
84,484,0,0,0,0,0,0,0,0,0,-1,1308,540,0,0
91,484,0,0,0,0,0,0,0,0,0,-1,1315,540,0,0
98,484,0,0,0,0,0,0,0,0,0,-1,1322,540,0,0
105,484,0,0,0,0,0,0,0,0,0,-1,1329,540,0,0
112,484,0,0,0,0,0,0,0,0,0,-1,1336,540,0,0
119,484,0,0,0,0,0,0,0,0,0,-1,1343,540,0,0
126,484,0,0,0,0,0,0,0,0,0,-1,1350,540,0,0
133,484,0,0,0,0,0,0,0,0,0,-1,1357,540,0,0
140,484,0,0,0,0,0,0,0,0,0,-1,1364,540,0,0
147,484,0,0,0,0,0,0,0,0,0,-1,1371,540,0,0
154,484,0,0,0,0,0,0,0,0,0,-1,1378,540,0,0
161,484,0,0,0,0,0,0,0,0,0,-1,1385,540,0,0
168,484,0,0,0,0,0,0,0,0,0,-1,1392,540,0,0
175,484,0,0,0,0,0,0,0,0,0,-1,1399,540,0,0
182,484,0,0,0,0,0,0,0,0,0,-1,1406,540,0,0
189,484,0,0,0,0,0,0,0,0,0,-1,1413,540,0,0
196,484,0,0,0,0,0,0,0,0,0,-1,1420,540,0,0
203,484,0,0,0,0,0,0,0,0,0,-1,1427,540,0,0
210,484,0,0,0,0,0,0,0,0,0,-1,1434,540,0,0
217,484,0,0,0,0,0,0,0,0,0,-1,1441,540,0,0
224,484,0,0,0,0,0,0,0,0,0,-1,1448,540,0,0
231,484,0,0,0,0,0,0,0,0,0,-1,1455,540,0,0
238,484,0,0,0,0,0,0,0,0,0,-1,1462,540,0,0
245,484,0,0,0,0,0,0,0,0,0,-1,1469,540,0,0
252,484,0,0,0,0,0,0,0,0,0,-1,1476,540,0,0
259,484,0,0,0,0,0,0,0,0,0,-1,1483,540,0,0
266,484,0,0,0,0,0,0,0,0,0,-1,1490,540,0,0
273,484,0,0,0,0,0,0,0,0,0,-1,1497,540,0,0
280,484,0,0,0,0,0,0,0,0,0,-1,1504,540,0,0
287,484,0,0,0,0,0,0,0,0,0,-1,1511,540,0,0
294,484,0,0,0,0,0,0,0,0,0,-1,1518,540,0,0
301,484,0,0,0,0,0,0,0,0,0,-1,1525,540,0,0
308,484,0,0,0,0,0,0,0,0,0,-1,1532,540,0,0
315,484,0,0,0,0,0,0,0,0,0,-1,1539,540,0,0
322,484,0,0,0,0,0,0,0,0,0,-1,1546,540,0,0
329,484,0,0,0,0,0,0,0,0,0,-1,1553,540,0,0
336,484,4.38708,-1.64136,0,0,0,0,0,0,0,-1,1560,540,4.38704,1.64138
343,484,7.57996,-1.05457,0,0,0,0,0,0,0,-1,1567,540,7.57995,1.05454
350,484,8.10425,-1.18878,0,0,0,0,0,0,0,-1,1574,540,8.1043,1.18877
357,484,7.74902,-3.80286,0,0,0,0,0,0,0,-1,1581,540,7.74901,3.80287
364,484,6.31262,-3.87213,0,0,0,0,0,0,0,-1,1588,540,6.31263,3.87215
371,484,7.21008,0.973511,0,0,0,0,0,0,0,-1,1595,540,7.21014,-0.973541
378,484,11.0563,1.5014,0,0,0,0,0,0,0,-1,1602,540,11.0563,-1.5014
385,484,14.3469,2.5545,0,0,0,0,0,0,0,-1,1609,540,14.3469,-2.55453
392,484,7.39453,-4.95026,0,0,0,0,0,0,0,-1,1616,540,7.39448,4.95023
399,484,7.14417,-2.5639,0,0,0,0,0,0,0,-1,1623,540,7.14417,2.56391
406,484,7.88953,-2.47321,0,0,0,0,0,0,0,-1,1630,540,7.88954,2.47323
413,484,4.4895,-1.08673,0,0,0,0,0,0,0,-1,1637,540,4.48952,1.08674
420,484,4.50012,-2.11255,0,0,0,0,0,0,0,-1,1644,540,4.50012,2.11256
427,484,5.28601,-3.54053,0,0,0,0,0,0,0,-1,1651,540,5.28599,3.54051
434,484,11.1488,-13.5359,0,0,0,0,0,0,0,-1,1658,540,11.1489,13.5359
441,484,11.8541,-15.6522,0,0,0,0,0,0,0,-1,1665,540,11.8542,15.6522
448,484,11.787,-15.853,0,0,0,0,0,0,0,-1,1672,540,11.787,15.853
455,484,11.8513,-15.3718,0.00182158,0.00126101,-0.00087536,0.00246043,0.000622157,-0.630458,0.00147724,0.0407016,1679,540,11.8513,15.3718
462,484,11.8383,-14.8083,0.0020879,0.00141302,-0.000445129,0.00230903,0.00119189,-0.461076,0.00133335,0.0188115,1686,540,11.8382,14.8084
469,484,11.8459,-14.3672,0.00221615,0.00182096,6.63859e-05,0.002227,0.00181011,0.162061,0.00136706,0.0166614,1693,540,11.8459,14.3673
476,484,11.8372,-13.8859,0.00211717,0.00180083,0.000231393,0.00223929,0.00167872,0.4856,0.0013455,0.0142844,1700,540,11.8372,13.8859
483,484,11.8318,-13.4258,0.00181515,0.00140585,0.000339452,0.00200687,0.00121413,0.514129,0.00116715,0.0115287,1707,540,11.8318,13.4258
490,484,11.8386,-13.0016,0.0012528,0.000938863,0.000312535,0.00144557,0.000746092,0.552679,0.000834745,0.0122213,1714,540,11.8386,13.0016
497,484,11.8329,-12.5337,0.000557262,0.000407153,0.00028053,0.000772604,0.000191811,0.654686,0.000464526,0.0139623,1721,540,11.8329,12.5337
504,484,11.816,-12.0305,-0.000290696,-0.00052937,8.27375e-05,-0.00026482,-0.000555246,0.30311,0.000320685,0.0153652,1728,540,11.8161,12.0305
511,484,11.8046,-11.5624,-0.00130056,-0.00156664,-0.000199461,-0.00119384,-0.00167336,-0.491283,0.000995022,0.0184534,1735,540,11.8045,11.5624
518,484,11.7783,-11.0999,-0.00250005,-0.00257848,-0.000562886,-0.00197501,-0.00310352,-0.750619,0.0018139,0.0160511,1742,540,11.7783,11.0999
525,484,11.755,-10.5912,-0.00368874,-0.00372899,-0.000983457,-0.0027252,-0.00469253,-0.775166,0.00272098,0.0133407,1749,540,11.755,10.5912
532,484,11.7511,-10.0664,-0.00485391,-0.00479361,-0.00137367,-0.00344976,-0.00619777,-0.796371,0.00358592,0.0145458,1756,540,11.7511,10.0664
539,484,11.6877,-9.53436,-0.00602442,-0.00581265,-0.00180947,-0.00410597,-0.0077311,-0.814624,0.00446643,0.0347378,1763,540,11.6878,9.53434
546,484,11.6564,-8.91766,0,0,0,0,0,0,0,-1,1770,540,11.6564,8.91767
553,484,11.6632,-8.40527,0,0,0,0,0,0,0,-1,1777,540,11.6632,8.40525
560,484,10.0549,-5.47931,0,0,0,0,0,0,0,-1,1784,540,10.055,5.47928
567,484,7.78223,-1.38312,0,0,0,0,0,0,0,-1,1791,540,7.78224,1.38311
574,484,5.74463,1.50922,0,0,0,0,0,0,0,-1,1798,540,5.74463,-1.50924
581,484,10.34,2.9491,0,0,0,0,0,0,0,-1,1805,540,10.34,-2.94912
588,484,10.6669,2.88568,0,0,0,0,0,0,0,-1,1812,540,10.6669,-2.88567
595,484,10.7233,1.04767,0,0,0,0,0,0,0,-1,1819,540,10.7233,-1.04766
602,484,0,0,0,0,0,0,0,0,0,-1,1826,540,0,0
609,484,0,0,0,0,0,0,0,0,0,-1,1833,540,0,0
616,484,0,0,0,0,0,0,0,0,0,-1,1840,540,0,0
623,484,0,0,0,0,0,0,0,0,0,-1,1847,540,0,0
630,484,0,0,0,0,0,0,0,0,0,-1,1854,540,0,0
637,484,0,0,0,0,0,0,0,0,0,-1,1861,540,0,0
644,484,0,0,0,0,0,0,0,0,0,-1,1868,540,0,0
651,484,0,0,0,0,0,0,0,0,0,-1,1875,540,0,0
658,484,0,0,0,0,0,0,0,0,0,-1,1882,540,0,0
665,484,0,0,0,0,0,0,0,0,0,-1,1889,540,0,0
672,484,0,0,0,0,0,0,0,0,0,-1,1896,540,0,0
679,484,0,0,0,0,0,0,0,0,0,-1,1903,540,0,0
686,484,0,0,0,0,0,0,0,0,0,-1,1910,540,0,0
693,484,0,0,0,0,0,0,0,0,0,-1,1917,540,0,0
700,484,0,0,0,0,0,0,0,0,0,-1,1924,540,0,0
707,484,0,0,0,0,0,0,0,0,0,-1,1931,540,0,0
714,484,0,0,0,0,0,0,0,0,0,-1,1938,540,0,0
721,484,0,0,0,0,0,0,0,0,0,-1,1945,540,0,0
728,484,0,0,0,0,0,0,0,0,0,-1,1952,540,0,0
735,484,0,0,0,0,0,0,0,0,0,-1,1959,540,0,0
742,484,0,0,0,0,0,0,0,0,0,-1,1966,540,0,0
749,484,0,0,0,0,0,0,0,0,0,-1,1973,540,0,0
756,484,0,0,0,0,0,0,0,0,0,-1,1980,540,0,0
763,484,0,0,0,0,0,0,0,0,0,-1,1987,540,0,0
770,484,0,0,0,0,0,0,0,0,0,-1,1994,540,0,0
777,484,0,0,0,0,0,0,0,0,0,-1,2001,540,0,0
784,484,0,0,0,0,0,0,0,0,0,-1,2008,540,0,0
791,484,0,0,0,0,0,0,0,0,0,-1,2015,540,0,0
798,484,0,0,0,0,0,0,0,0,0,-1,2022,540,0,0
805,484,0,0,0,0,0,0,0,0,0,-1,2029,540,0,0
812,484,0,0,0,0,0,0,0,0,0,-1,2036,540,0,0
-700,477,0,0,0,0,0,0,0,0,0,-1,524,547,0,0
-693,477,0,0,0,0,0,0,0,0,0,-1,531,547,0,0
-686,477,0,0,0,0,0,0,0,0,0,-1,538,547,0,0
-679,477,0,0,0,0,0,0,0,0,0,-1,545,547,0,0
-672,477,0,0,0,0,0,0,0,0,0,-1,552,547,0,0
-665,477,0,0,0,0,0,0,0,0,0,-1,559,547,0,0
-658,477,0,0,0,0,0,0,0,0,0,-1,566,547,0,0
-651,477,0,0,0,0,0,0,0,0,0,-1,573,547,0,0
-644,477,0,0,0,0,0,0,0,0,0,-1,580,547,0,0
-637,477,0,0,0,0,0,0,0,0,0,-1,587,547,0,0
-630,477,0,0,0,0,0,0,0,0,0,-1,594,547,0,0
-623,477,0,0,0,0,0,0,0,0,0,-1,601,547,0,0
-616,477,0,0,0,0,0,0,0,0,0,-1,608,547,0,0
-609,477,0,0,0,0,0,0,0,0,0,-1,615,547,0,0
-602,477,0,0,0,0,0,0,0,0,0,-1,622,547,0,0
-595,477,0,0,0,0,0,0,0,0,0,-1,629,547,0,0
-588,477,0,0,0,0,0,0,0,0,0,-1,636,547,0,0
-581,477,0,0,0,0,0,0,0,0,0,-1,643,547,0,0
-574,477,0,0,0,0,0,0,0,0,0,-1,650,547,0,0
-567,477,0,0,0,0,0,0,0,0,0,-1,657,547,0,0
-560,477,0,0,0,0,0,0,0,0,0,-1,664,547,0,0
-553,477,0,0,0,0,0,0,0,0,0,-1,671,547,0,0
-546,477,0,0,0,0,0,0,0,0,0,-1,678,547,0,0
-539,477,0,0,0,0,0,0,0,0,0,-1,685,547,0,0
-532,477,0,0,0,0,0,0,0,0,0,-1,692,547,0,0
-525,477,0,0,0,0,0,0,0,0,0,-1,699,547,0,0
-518,477,0,0,0,0,0,0,0,0,0,-1,706,547,0,0
-511,477,0,0,0,0,0,0,0,0,0,-1,713,547,0,0
-504,477,0,0,0,0,0,0,0,0,0,-1,720,547,0,0
-497,477,0,0,0,0,0,0,0,0,0,-1,727,547,0,0
-490,477,0,0,0,0,0,0,0,0,0,-1,734,547,0,0
-483,477,-7.73151,-0.224182,0,0,0,0,0,0,0,-1,741,547,-7.73152,0.224176
-476,477,-6.25806,-0.310547,0,0,0,0,0,0,0,-1,748,547,-6.25804,0.310549
-469,477,-7.26617,0.525085,0,0,0,0,0,0,0,-1,755,547,-7.2662,-0.525111
-462,477,-6.65143,1.06042,0,0,0,0,0,0,0,-1,762,547,-6.65143,-1.06043
-455,477,-5.31757,0.429016,0,0,0,0,0,0,0,-1,769,547,-5.31756,-0.42902
-448,477,-4.0697,0.273376,0,0,0,0,0,0,0,-1,776,547,-4.06971,-0.273363
-441,477,-2.47504,-4.76971,0,0,0,0,0,0,0,-1,783,547,-2.47505,4.76973
-434,477,-3.15991,-9.8324,0,0,0,0,0,0,0,-1,790,547,-3.15991,9.83241
-427,477,-3.37109,-10.0178,-0.0148564,0.0124188,-0.00687787,0.014055,-0.0164926,-1.33724,0.0176554,0.0379132,797,547,-3.37109,10.0178
-420,477,-3.41223,-10.3937,-0.0121343,0.0104711,-0.00619913,0.0120595,-0.0137227,-1.31997,0.0148957,0.0323831,804,547,-3.41222,10.3937
-413,477,-3.38037,-11.0825,-0.00968398,0.00859986,-0.00544985,0.010101,-0.0111852,-1.30201,0.0122949,0.0199625,811,547,-3.38039,11.0825
-406,477,-3.43317,-11.6065,-0.00733975,0.00699739,-0.00469856,0.00839999,-0.00874235,-1.2807,0.00989779,0.0119013,818,547,-3.43316,11.6065
-399,477,-3.45477,-12.0819,-0.00522474,0.00547092,-0.00390046,0.00674222,-0.00649604,-1.25572,0.00764355,0.019841,825,547,-3.45475,12.0819
-392,477,-3.46881,-12.5716,-0.00330162,0.0040402,-0.00311354,0.00518278,-0.00444421,-1.21908,0.00556359,0.0181148,832,547,-3.46883,12.5716
-385,477,-3.46155,-13.0101,-0.00152162,0.00280506,-0.00237315,0.00385294,-0.00256949,-1.15499,0.00373259,0.0155071,839,547,-3.46155,13.01
-378,477,-3.49182,-13.4749,3.43939e-05,0.00176806,-0.00173914,0.00284442,-0.00104197,-1.01659,0.00232286,0.0145787,846,547,-3.4918,13.4749
-371,477,-3.51166,-13.9022,0.0012996,0.000825638,-0.00112289,0.00221024,-8.50013e-05,-0.681401,0.00150263,0.0143647,853,547,-3.51166,13.9021
-364,477,-3.51532,-14.3256,0.00230018,3.69938e-05,-0.000562966,0.00243249,-9.5309e-05,-0.230822,0.00165434,0.0136142,860,547,-3.5153,14.3256
-357,477,-3.53064,-14.7623,0.00301135,-0.000425252,-0.00021659,0.00302495,-0.000438848,-0.0626937,0.00217771,0.0113024,867,547,-3.53063,14.7623
-350,477,-3.54437,-15.1995,0.00328879,-0.000600128,-0.000135387,0.00329349,-0.000604836,-0.0347575,0.00242257,0.0104352,874,547,-3.54437,15.1995
-343,477,-3.49628,-15.6794,0.00345072,-0.00070961,-1.91793e-05,0.0034508,-0.000709699,-0.00460991,0.00256998,0.0188721,881,547,-3.49629,15.6794
-336,477,-3.43793,-16.1439,0.00389043,-0.00100192,-9.01348e-06,0.00389045,-0.00100194,-0.00184235,0.00298421,0.0354947,888,547,-3.43792,16.1439
-329,477,-3.39154,-16.6204,0,0,0,0,0,0,0,-1,895,547,-3.39155,16.6203
-322,477,-2.04822,-12.0026,0,0,0,0,0,0,0,-1,902,547,-2.04819,12.0026
-315,477,-1.67358,-9.15253,0,0,0,0,0,0,0,-1,909,547,-1.67356,9.15253
-308,477,-1.30127,-6.55188,0,0,0,0,0,0,0,-1,916,547,-1.30128,6.55185
-301,477,-1.21185,-6.28351,0,0,0,0,0,0,0,-1,923,547,-1.21184,6.28352
-294,477,-0.352905,3.27142,0,0,0,0,0,0,0,-1,930,547,-0.35292,-3.27144
-287,477,3.54364,2.15399,0,0,0,0,0,0,0,-1,937,547,3.54362,-2.15396
-280,477,1.97308,-0.954163,0,0,0,0,0,0,0,-1,944,547,1.9731,0.954178
-273,477,2.11621,-3.76709,0,0,0,0,0,0,0,-1,951,547,2.11619,3.76706
-266,477,2.04669,-3.42389,0,0,0,0,0,0,0,-1,958,547,2.04671,3.42391
-259,477,-1.33478,-3.41205,0,0,0,0,0,0,0,-1,965,547,-1.3348,3.41206
-252,477,0.597168,-5.32922,0,0,0,0,0,0,0,-1,972,547,0.597144,5.32924
-245,477,8.2309,-8.48492,0,0,0,0,0,0,0,-1,979,547,8.23091,8.48494
-238,477,6.60938,-5.64063,0,0,0,0,0,0,0,-1,986,547,6.60938,5.64063
-231,477,4.71716,-2.52484,0,0,0,0,0,0,0,-1,993,547,4.71716,2.52483
-224,477,0,0,0,0,0,0,0,0,0,-1,1000,547,0,0
-217,477,0,0,0,0,0,0,0,0,0,-1,1007,547,0,0
-210,477,0,0,0,0,0,0,0,0,0,-1,1014,547,0,0
-203,477,0,0,0,0,0,0,0,0,0,-1,1021,547,0,0
-196,477,0,0,0,0,0,0,0,0,0,-1,1028,547,0,0
-189,477,0,0,0,0,0,0,0,0,0,-1,1035,547,0,0
-182,477,0,0,0,0,0,0,0,0,0,-1,1042,547,0,0
-175,477,0,0,0,0,0,0,0,0,0,-1,1049,547,0,0
-168,477,0,0,0,0,0,0,0,0,0,-1,1056,547,0,0
-161,477,0,0,0,0,0,0,0,0,0,-1,1063,547,0,0
-154,477,0,0,0,0,0,0,0,0,0,-1,1070,547,0,0
-147,477,0,0,0,0,0,0,0,0,0,-1,1077,547,0,0
-140,477,0,0,0,0,0,0,0,0,0,-1,1084,547,0,0
-133,477,0,0,0,0,0,0,0,0,0,-1,1091,547,0,0
-126,477,0,0,0,0,0,0,0,0,0,-1,1098,547,0,0
-119,477,0,0,0,0,0,0,0,0,0,-1,1105,547,0,0
-112,477,0,0,0,0,0,0,0,0,0,-1,1112,547,0,0
-105,477,0,0,0,0,0,0,0,0,0,-1,1119,547,0,0
-98,477,0,0,0,0,0,0,0,0,0,-1,1126,547,0,0
-91,477,0,0,0,0,0,0,0,0,0,-1,1133,547,0,0
-84,477,0,0,0,0,0,0,0,0,0,-1,1140,547,0,0
-77,477,0,0,0,0,0,0,0,0,0,-1,1147,547,0,0
-70,477,0,0,0,0,0,0,0,0,0,-1,1154,547,0,0
-63,477,0,0,0,0,0,0,0,0,0,-1,1161,547,0,0
-56,477,0,0,0,0,0,0,0,0,0,-1,1168,547,0,0
-49,477,0,0,0,0,0,0,0,0,0,-1,1175,547,0,0
-42,477,0,0,0,0,0,0,0,0,0,-1,1182,547,0,0
-35,477,0,0,0,0,0,0,0,0,0,-1,1189,547,0,0
-28,477,0,0,0,0,0,0,0,0,0,-1,1196,547,0,0
-21,477,0,0,0,0,0,0,0,0,0,-1,1203,547,0,0
-14,477,0,0,0,0,0,0,0,0,0,-1,1210,547,0,0
-7,477,0,0,0,0,0,0,0,0,0,-1,1217,547,0,0
0,477,0,0,0,0,0,0,0,0,0,-1,1224,547,0,0
7,477,0,0,0,0,0,0,0,0,0,-1,1231,547,0,0
14,477,0,0,0,0,0,0,0,0,0,-1,1238,547,0,0
21,477,0,0,0,0,0,0,0,0,0,-1,1245,547,0,0
28,477,0,0,0,0,0,0,0,0,0,-1,1252,547,0,0
35,477,0,0,0,0,0,0,0,0,0,-1,1259,547,0,0
42,477,0,0,0,0,0,0,0,0,0,-1,1266,547,0,0
49,477,0,0,0,0,0,0,0,0,0,-1,1273,547,0,0
56,477,0,0,0,0,0,0,0,0,0,-1,1280,547,0,0
63,477,0,0,0,0,0,0,0,0,0,-1,1287,547,0,0
70,477,0,0,0,0,0,0,0,0,0,-1,1294,547,0,0
77,477,0,0,0,0,0,0,0,0,0,-1,1301,547,0,0
84,477,0,0,0,0,0,0,0,0,0,-1,1308,547,0,0
91,477,0,0,0,0,0,0,0,0,0,-1,1315,547,0,0
98,477,0,0,0,0,0,0,0,0,0,-1,1322,547,0,0
105,477,0,0,0,0,0,0,0,0,0,-1,1329,547,0,0
112,477,0,0,0,0,0,0,0,0,0,-1,1336,547,0,0
119,477,0,0,0,0,0,0,0,0,0,-1,1343,547,0,0
126,477,0,0,0,0,0,0,0,0,0,-1,1350,547,0,0
133,477,0,0,0,0,0,0,0,0,0,-1,1357,547,0,0
140,477,0,0,0,0,0,0,0,0,0,-1,1364,547,0,0
147,477,0,0,0,0,0,0,0,0,0,-1,1371,547,0,0
154,477,0,0,0,0,0,0,0,0,0,-1,1378,547,0,0
161,477,0,0,0,0,0,0,0,0,0,-1,1385,547,0,0
168,477,0,0,0,0,0,0,0,0,0,-1,1392,547,0,0
175,477,0,0,0,0,0,0,0,0,0,-1,1399,547,0,0
182,477,0,0,0,0,0,0,0,0,0,-1,1406,547,0,0
189,477,0,0,0,0,0,0,0,0,0,-1,1413,547,0,0
196,477,0,0,0,0,0,0,0,0,0,-1,1420,547,0,0
203,477,0,0,0,0,0,0,0,0,0,-1,1427,547,0,0
210,477,0,0,0,0,0,0,0,0,0,-1,1434,547,0,0
217,477,0,0,0,0,0,0,0,0,0,-1,1441,547,0,0
224,477,0,0,0,0,0,0,0,0,0,-1,1448,547,0,0
231,477,0,0,0,0,0,0,0,0,0,-1,1455,547,0,0
238,477,0,0,0,0,0,0,0,0,0,-1,1462,547,0,0
245,477,0,0,0,0,0,0,0,0,0,-1,1469,547,0,0
252,477,0,0,0,0,0,0,0,0,0,-1,1476,547,0,0
259,477,0,0,0,0,0,0,0,0,0,-1,1483,547,0,0
266,477,0,0,0,0,0,0,0,0,0,-1,1490,547,0,0
273,477,0,0,0,0,0,0,0,0,0,-1,1497,547,0,0
280,477,0,0,0,0,0,0,0,0,0,-1,1504,547,0,0
287,477,0,0,0,0,0,0,0,0,0,-1,1511,547,0,0
294,477,0,0,0,0,0,0,0,0,0,-1,1518,547,0,0
301,477,0,0,0,0,0,0,0,0,0,-1,1525,547,0,0
308,477,0,0,0,0,0,0,0,0,0,-1,1532,547,0,0
315,477,0,0,0,0,0,0,0,0,0,-1,1539,547,0,0
322,477,0,0,0,0,0,0,0,0,0,-1,1546,547,0,0
329,477,0,0,0,0,0,0,0,0,0,-1,1553,547,0,0
336,477,0,0,0,0,0,0,0,0,0,-1,1560,547,0,0
343,477,0,0,0,0,0,0,0,0,0,-1,1567,547,0,0
350,477,1.7699,-3.32275,0,0,0,0,0,0,0,-1,1574,547,1.7699,3.32272
357,477,3.073,-4.83313,0,0,0,0,0,0,0,-1,1581,547,3.07303,4.83316
364,477,4.30127,-4.22864,0,0,0,0,0,0,0,-1,1588,547,4.30125,4.22865
371,477,4.57703,0.283264,0,0,0,0,0,0,0,-1,1595,547,4.57706,-0.283262
378,477,8.57947,1.05969,0,0,0,0,0,0,0,-1,1602,547,8.5795,-1.05972
385,477,12.3726,2.02356,0,0,0,0,0,0,0,-1,1609,547,12.3725,-2.02355
392,477,16.4678,2.76843,0,0,0,0,0,0,0,-1,1616,547,16.4678,-2.76845
399,477,8.00037,-2.29523,0,0,0,0,0,0,0,-1,1623,547,8.00031,2.2952
406,477,4.82495,2.7475,0,0,0,0,0,0,0,-1,1630,547,4.825,-2.74752
413,477,4.88171,-0.336426,0,0,0,0,0,0,0,-1,1637,547,4.88169,0.336398
420,477,3.34875,0.102722,0,0,0,0,0,0,0,-1,1644,547,3.34871,-0.1027
427,477,1.66772,-0.373108,0,0,0,0,0,0,0,-1,1651,547,1.66768,0.373104
434,477,3.76978,-2.30798,0,0,0,0,0,0,0,-1,1658,547,3.76974,2.30801
441,477,4.05444,-2.80402,0,0,0,0,0,0,0,-1,1665,547,4.05444,2.804
448,477,10.4247,-11.7421,0,0,0,0,0,0,0,-1,1672,547,10.4247,11.7421
455,477,12.4888,-15.6359,0,0,0,0,0,0,0,-1,1679,547,12.4888,15.6359
462,477,12.2845,-14.8914,0,0,0,0,0,0,0,-1,1686,547,12.2845,14.8913
469,477,12.3319,-14.3256,0.00307418,0.0020596,0.00013243,0.00309118,0.0020426,0.127678,0.00181519,0.0351635,1693,547,12.3319,14.3256
476,477,12.2997,-13.8836,0.00318144,0.00216601,0.000455815,0.00335603,0.00199141,0.365792,0.00194884,0.0183911,1700,547,12.2997,13.8836
483,477,12.3132,-13.4234,0.00290995,0.00189679,0.000652924,0.00322977,0.00157697,0.455474,0.00186488,0.0114564,1707,547,12.3133,13.4234
490,477,12.2919,-12.9651,0.00233245,0.00164096,0.000665863,0.00273698,0.00123643,0.545935,0.00158265,0.0117157,1714,547,12.2919,12.9652
497,477,12.281,-12.4789,0.00159484,0.00134921,0.000668704,0.00215192,0.000792136,0.694578,0.00125673,0.0127225,1721,547,12.2811,12.4789
504,477,12.2827,-12.0045,0.000678477,0.000659351,0.000466506,0.00113552,0.00020231,0.77515,0.000699398,0.0176553,1728,547,12.2827,12.0045
511,477,12.3025,-11.5772,-0.000393309,-0.000109227,0.000168003,-3.1266e-05,-0.000471269,1.13633,0.000304293,0.0227405,1735,547,12.3025,11.5772
518,477,12.2826,-11.0995,-0.00164356,-0.000798649,-0.000209468,-0.000749569,-0.00169264,-1.34064,0.000979374,0.0202848,1742,547,12.2826,11.0995
525,477,12.2322,-10.5789,-0.002869,-0.00159733,-0.000642328,-0.00132935,-0.00313697,-1.17556,0.00181814,0.0170065,1749,547,12.2322,10.5789
532,477,12.2131,-10.0822,-0.00406469,-0.00230846,-0.00105359,-0.00181503,-0.00455812,-1.1328,0.00264975,0.0192757,1756,547,12.2131,10.0822
539,477,12.1864,-9.53058,-0.00523535,-0.00299964,-0.0014883,-0.00225614,-0.00597885,-1.1075,0.00348633,0.0180777,1763,547,12.1863,9.53055
546,477,12.1138,-9.09155,-0.00643226,-0.00365782,-0.00195954,-0.00264417,-0.00744591,-1.09341,0.00435864,0.0341198,1770,547,12.1138,9.09156
553,477,12.1653,-8.51038,0,0,0,0,0,0,0,-1,1777,547,12.1652,8.51035
560,477,12.0853,-7.65509,0,0,0,0,0,0,0,-1,1784,547,12.0854,7.65507
567,477,12.1604,-7.36328,0,0,0,0,0,0,0,-1,1791,547,12.1604,7.36326
574,477,6.82593,-0.916992,0,0,0,0,0,0,0,-1,1798,547,6.82598,0.916977
581,477,9.29321,-0.557007,0,0,0,0,0,0,0,-1,1805,547,9.29324,0.55703
588,477,9.75195,0.422729,0,0,0,0,0,0,0,-1,1812,547,9.75198,-0.42273
595,477,9.89172,1.21326,0,0,0,0,0,0,0,-1,1819,547,9.89174,-1.21328
602,477,6.5271,-0.964417,0,0,0,0,0,0,0,-1,1826,547,6.52706,0.964427
609,477,0,0,0,0,0,0,0,0,0,-1,1833,547,0,0
616,477,0,0,0,0,0,0,0,0,0,-1,1840,547,0,0
623,477,0,0,0,0,0,0,0,0,0,-1,1847,547,0,0
630,477,0,0,0,0,0,0,0,0,0,-1,1854,547,0,0
637,477,0,0,0,0,0,0,0,0,0,-1,1861,547,0,0
644,477,0,0,0,0,0,0,0,0,0,-1,1868,547,0,0
651,477,0,0,0,0,0,0,0,0,0,-1,1875,547,0,0
658,477,0,0,0,0,0,0,0,0,0,-1,1882,547,0,0
665,477,0,0,0,0,0,0,0,0,0,-1,1889,547,0,0
672,477,0,0,0,0,0,0,0,0,0,-1,1896,547,0,0
679,477,0,0,0,0,0,0,0,0,0,-1,1903,547,0,0
686,477,0,0,0,0,0,0,0,0,0,-1,1910,547,0,0
693,477,0,0,0,0,0,0,0,0,0,-1,1917,547,0,0
700,477,0,0,0,0,0,0,0,0,0,-1,1924,547,0,0
707,477,0,0,0,0,0,0,0,0,0,-1,1931,547,0,0
714,477,0,0,0,0,0,0,0,0,0,-1,1938,547,0,0
721,477,0,0,0,0,0,0,0,0,0,-1,1945,547,0,0
728,477,0,0,0,0,0,0,0,0,0,-1,1952,547,0,0
735,477,0,0,0,0,0,0,0,0,0,-1,1959,547,0,0
742,477,0,0,0,0,0,0,0,0,0,-1,1966,547,0,0
749,477,0,0,0,0,0,0,0,0,0,-1,1973,547,0,0
756,477,0,0,0,0,0,0,0,0,0,-1,1980,547,0,0
763,477,0,0,0,0,0,0,0,0,0,-1,1987,547,0,0
770,477,0,0,0,0,0,0,0,0,0,-1,1994,547,0,0
777,477,0,0,0,0,0,0,0,0,0,-1,2001,547,0,0
784,477,0,0,0,0,0,0,0,0,0,-1,2008,547,0,0
791,477,0,0,0,0,0,0,0,0,0,-1,2015,547,0,0
798,477,0,0,0,0,0,0,0,0,0,-1,2022,547,0,0
805,477,0,0,0,0,0,0,0,0,0,-1,2029,547,0,0
812,477,0,0,0,0,0,0,0,0,0,-1,2036,547,0,0
-700,470,0,0,0,0,0,0,0,0,0,-1,524,554,0,0
-693,470,0,0,0,0,0,0,0,0,0,-1,531,554,0,0
-686,470,0,0,0,0,0,0,0,0,0,-1,538,554,0,0
-679,470,0,0,0,0,0,0,0,0,0,-1,545,554,0,0
-672,470,0,0,0,0,0,0,0,0,0,-1,552,554,0,0
-665,470,0,0,0,0,0,0,0,0,0,-1,559,554,0,0
-658,470,0,0,0,0,0,0,0,0,0,-1,566,554,0,0
-651,470,0,0,0,0,0,0,0,0,0,-1,573,554,0,0
-644,470,0,0,0,0,0,0,0,0,0,-1,580,554,0,0
-637,470,0,0,0,0,0,0,0,0,0,-1,587,554,0,0
-630,470,0,0,0,0,0,0,0,0,0,-1,594,554,0,0
-623,470,0,0,0,0,0,0,0,0,0,-1,601,554,0,0
-616,470,0,0,0,0,0,0,0,0,0,-1,608,554,0,0
-609,470,0,0,0,0,0,0,0,0,0,-1,615,554,0,0
-602,470,0,0,0,0,0,0,0,0,0,-1,622,554,0,0
-595,470,0,0,0,0,0,0,0,0,0,-1,629,554,0,0
-588,470,0,0,0,0,0,0,0,0,0,-1,636,554,0,0
-581,470,0,0,0,0,0,0,0,0,0,-1,643,554,0,0
-574,470,0,0,0,0,0,0,0,0,0,-1,650,554,0,0
-567,470,0,0,0,0,0,0,0,0,0,-1,657,554,0,0
-560,470,0,0,0,0,0,0,0,0,0,-1,664,554,0,0
-553,470,0,0,0,0,0,0,0,0,0,-1,671,554,0,0
-546,470,0,0,0,0,0,0,0,0,0,-1,678,554,0,0
-539,470,0,0,0,0,0,0,0,0,0,-1,685,554,0,0
-532,470,0,0,0,0,0,0,0,0,0,-1,692,554,0,0
-525,470,0,0,0,0,0,0,0,0,0,-1,699,554,0,0
-518,470,0,0,0,0,0,0,0,0,0,-1,706,554,0,0
-511,470,0,0,0,0,0,0,0,0,0,-1,713,554,0,0
-504,470,0,0,0,0,0,0,0,0,0,-1,720,554,0,0
-497,470,0,0,0,0,0,0,0,0,0,-1,727,554,0,0
-490,470,-9.13263,-1.03125,0,0,0,0,0,0,0,-1,734,554,-9.1326,1.03127
-483,470,-7.68677,-1.03955,0,0,0,0,0,0,0,-1,741,554,-7.68678,1.03958
-476,470,-6.17969,-1.03394,0,0,0,0,0,0,0,-1,748,554,-6.17971,1.03395
-469,470,-6.23016,-0.651855,0,0,0,0,0,0,0,-1,755,554,-6.23014,0.651829
-462,470,-4.87915,-1.03705,0,0,0,0,0,0,0,-1,762,554,-4.87914,1.03702
-455,470,-4.14777,-1.37079,0,0,0,0,0,0,0,-1,769,554,-4.14779,1.37078
-448,470,-2.9314,-5.74518,0,0,0,0,0,0,0,-1,776,554,-2.93137,5.74518
-441,470,-3.57471,-9.09271,0,0,0,0,0,0,0,-1,783,554,-3.57473,9.09271
-434,470,-3.63635,-9.71326,-0.00872254,0.00888582,-0.00469544,0.0100597,-0.00989637,-1.32582,0.0115217,0.0422811,790,554,-3.63635,9.71324
-427,470,-3.875,-10.1276,-0.00705649,0.00755464,-0.00428454,0.00871835,-0.0082202,-1.30559,0.00978089,0.0200428,797,554,-3.87503,10.1276
-420,470,-3.86078,-10.6392,-0.00559082,0.0062726,-0.00387421,0.00742571,-0.00674393,-1.28151,0.008184,0.0150458,804,554,-3.86079,10.6392
-413,470,-3.88055,-11.1534,-0.00432672,0.00499254,-0.00334798,0.0060706,-0.00540478,-1.25928,0.00662903,0.0135857,811,554,-3.88058,11.1534
-406,470,-3.90472,-11.5934,-0.00305772,0.0039826,-0.00284846,0.00499071,-0.00406583,-1.23064,0.00523788,0.0118941,818,554,-3.90475,11.5934
-399,470,-3.91553,-12.0631,-0.00191166,0.00304735,-0.00231617,0.00396087,-0.00282518,-1.19512,0.00393617,0.0151066,825,554,-3.91553,12.0631
-392,470,-3.91077,-12.5413,-0.000840466,0.00216663,-0.00178232,0.0029949,-0.00166873,-1.13578,0.00272859,0.0136876,832,554,-3.91077,12.5413
-385,470,-3.91083,-12.981,0.000219096,0.00144655,-0.00127727,0.00224989,-0.000584249,-1.00936,0.00172792,0.011114,839,554,-3.91083,12.981
-378,470,-3.93744,-13.4441,0.00119201,0.000854398,-0.000836137,0.00187621,0.000170198,-0.685793,0.00119811,0.0165546,846,554,-3.93745,13.4441
-371,470,-3.95166,-13.8886,0.00203201,0.000315933,-0.0003953,0.00211869,0.000229254,-0.215859,0.00134258,0.0140666,853,554,-3.95164,13.8886
-364,470,-3.95306,-14.3061,0.0027768,-0.00012044,-8.58763e-06,0.00277682,-0.000120466,-0.00296404,0.00189265,0.013833,860,554,-3.95305,14.3061
-357,470,-3.96594,-14.7419,0.00338634,-0.000353503,0.000186818,0.00339565,-0.000362812,0.0497881,0.00239389,0.0142025,867,554,-3.96596,14.7419
-350,470,-3.95642,-15.2039,0.00369624,-0.000495474,0.000130831,0.00370032,-0.000499553,0.0311714,0.00264915,0.0109708,874,554,-3.95639,15.2039
-343,470,-3.86914,-15.656,0.00419851,-0.000689643,5.42323e-05,0.00419912,-0.000690245,0.0110928,0.00305559,0.0338084,881,554,-3.86912,15.656
-336,470,-3.73151,-16.1811,0,0,0,0,0,0,0,-1,888,554,-3.7315,16.1811
-329,470,-2.78516,-12.3594,0,0,0,0,0,0,0,-1,895,554,-2.78517,12.3594
-322,470,-2.30829,-11.4527,0,0,0,0,0,0,0,-1,902,554,-2.30827,11.4527
-315,470,-1.04797,-8.29529,0,0,0,0,0,0,0,-1,909,554,-1.04797,8.29526
-308,470,-1.39368,-6.68152,0,0,0,0,0,0,0,-1,916,554,-1.39369,6.68149
-301,470,-0.0340576,3.34888,0,0,0,0,0,0,0,-1,923,554,-0.0340496,-3.3489
-294,470,-1.18378,3.22266,0,0,0,0,0,0,0,-1,930,554,-1.18376,-3.22268
-287,470,-2.15454,3.2204,0,0,0,0,0,0,0,-1,937,554,-2.15452,-3.22037
-280,470,-3.00537,3.099,0,0,0,0,0,0,0,-1,944,554,-3.00536,-3.09898
-273,470,-12.3932,3.65009,0,0,0,0,0,0,0,-1,951,554,-12.3932,-3.65011
-266,470,-11.5706,1.16028,0,0,0,0,0,0,0,-1,958,554,-11.5706,-1.16031
-259,470,-7.50415,-2.77167,0,0,0,0,0,0,0,-1,965,554,-7.50413,2.7717
-252,470,-0.371155,-5.87823,0,0,0,0,0,0,0,-1,972,554,-0.37114,5.87821
-245,470,1.33221,-6.81122,0,0,0,0,0,0,0,-1,979,554,1.33223,6.8112
-238,470,0,0,0,0,0,0,0,0,0,-1,986,554,0,0
-231,470,0,0,0,0,0,0,0,0,0,-1,993,554,0,0
-224,470,0,0,0,0,0,0,0,0,0,-1,1000,554,0,0
-217,470,0,0,0,0,0,0,0,0,0,-1,1007,554,0,0
-210,470,0,0,0,0,0,0,0,0,0,-1,1014,554,0,0
-203,470,0,0,0,0,0,0,0,0,0,-1,1021,554,0,0
-196,470,0,0,0,0,0,0,0,0,0,-1,1028,554,0,0
-189,470,0,0,0,0,0,0,0,0,0,-1,1035,554,0,0
-182,470,0,0,0,0,0,0,0,0,0,-1,1042,554,0,0
-175,470,0,0,0,0,0,0,0,0,0,-1,1049,554,0,0
-168,470,0,0,0,0,0,0,0,0,0,-1,1056,554,0,0
-161,470,0,0,0,0,0,0,0,0,0,-1,1063,554,0,0
-154,470,0,0,0,0,0,0,0,0,0,-1,1070,554,0,0
-147,470,0,0,0,0,0,0,0,0,0,-1,1077,554,0,0
-140,470,0,0,0,0,0,0,0,0,0,-1,1084,554,0,0
-133,470,0,0,0,0,0,0,0,0,0,-1,1091,554,0,0
-126,470,0,0,0,0,0,0,0,0,0,-1,1098,554,0,0
-119,470,0,0,0,0,0,0,0,0,0,-1,1105,554,0,0
-112,470,0,0,0,0,0,0,0,0,0,-1,1112,554,0,0
-105,470,0,0,0,0,0,0,0,0,0,-1,1119,554,0,0
-98,470,0,0,0,0,0,0,0,0,0,-1,1126,554,0,0
-91,470,0,0,0,0,0,0,0,0,0,-1,1133,554,0,0
-84,470,0,0,0,0,0,0,0,0,0,-1,1140,554,0,0
-77,470,0,0,0,0,0,0,0,0,0,-1,1147,554,0,0
-70,470,0,0,0,0,0,0,0,0,0,-1,1154,554,0,0
-63,470,0,0,0,0,0,0,0,0,0,-1,1161,554,0,0
-56,470,0,0,0,0,0,0,0,0,0,-1,1168,554,0,0
-49,470,0,0,0,0,0,0,0,0,0,-1,1175,554,0,0
-42,470,0,0,0,0,0,0,0,0,0,-1,1182,554,0,0
-35,470,0,0,0,0,0,0,0,0,0,-1,1189,554,0,0
-28,470,0,0,0,0,0,0,0,0,0,-1,1196,554,0,0
-21,470,0,0,0,0,0,0,0,0,0,-1,1203,554,0,0
-14,470,0,0,0,0,0,0,0,0,0,-1,1210,554,0,0
-7,470,0,0,0,0,0,0,0,0,0,-1,1217,554,0,0
0,470,0,0,0,0,0,0,0,0,0,-1,1224,554,0,0
7,470,0,0,0,0,0,0,0,0,0,-1,1231,554,0,0
14,470,0,0,0,0,0,0,0,0,0,-1,1238,554,0,0
21,470,0,0,0,0,0,0,0,0,0,-1,1245,554,0,0
28,470,0,0,0,0,0,0,0,0,0,-1,1252,554,0,0
35,470,0,0,0,0,0,0,0,0,0,-1,1259,554,0,0
42,470,0,0,0,0,0,0,0,0,0,-1,1266,554,0,0
49,470,0,0,0,0,0,0,0,0,0,-1,1273,554,0,0
56,470,0,0,0,0,0,0,0,0,0,-1,1280,554,0,0
63,470,0,0,0,0,0,0,0,0,0,-1,1287,554,0,0
70,470,0,0,0,0,0,0,0,0,0,-1,1294,554,0,0
77,470,0,0,0,0,0,0,0,0,0,-1,1301,554,0,0
84,470,0,0,0,0,0,0,0,0,0,-1,1308,554,0,0
91,470,0,0,0,0,0,0,0,0,0,-1,1315,554,0,0
98,470,0,0,0,0,0,0,0,0,0,-1,1322,554,0,0
105,470,0,0,0,0,0,0,0,0,0,-1,1329,554,0,0
112,470,0,0,0,0,0,0,0,0,0,-1,1336,554,0,0
119,470,0,0,0,0,0,0,0,0,0,-1,1343,554,0,0
126,470,0,0,0,0,0,0,0,0,0,-1,1350,554,0,0
133,470,0,0,0,0,0,0,0,0,0,-1,1357,554,0,0
140,470,0,0,0,0,0,0,0,0,0,-1,1364,554,0,0
147,470,0,0,0,0,0,0,0,0,0,-1,1371,554,0,0
154,470,0,0,0,0,0,0,0,0,0,-1,1378,554,0,0
161,470,0,0,0,0,0,0,0,0,0,-1,1385,554,0,0
168,470,0,0,0,0,0,0,0,0,0,-1,1392,554,0,0
175,470,0,0,0,0,0,0,0,0,0,-1,1399,554,0,0
182,470,0,0,0,0,0,0,0,0,0,-1,1406,554,0,0
189,470,0,0,0,0,0,0,0,0,0,-1,1413,554,0,0
196,470,0,0,0,0,0,0,0,0,0,-1,1420,554,0,0
203,470,0,0,0,0,0,0,0,0,0,-1,1427,554,0,0
210,470,0,0,0,0,0,0,0,0,0,-1,1434,554,0,0
217,470,0,0,0,0,0,0,0,0,0,-1,1441,554,0,0
224,470,0,0,0,0,0,0,0,0,0,-1,1448,554,0,0
231,470,0,0,0,0,0,0,0,0,0,-1,1455,554,0,0
238,470,0,0,0,0,0,0,0,0,0,-1,1462,554,0,0
245,470,0,0,0,0,0,0,0,0,0,-1,1469,554,0,0
252,470,0,0,0,0,0,0,0,0,0,-1,1476,554,0,0
259,470,0,0,0,0,0,0,0,0,0,-1,1483,554,0,0
266,470,0,0,0,0,0,0,0,0,0,-1,1490,554,0,0
273,470,0,0,0,0,0,0,0,0,0,-1,1497,554,0,0
280,470,0,0,0,0,0,0,0,0,0,-1,1504,554,0,0
287,470,0,0,0,0,0,0,0,0,0,-1,1511,554,0,0
294,470,0,0,0,0,0,0,0,0,0,-1,1518,554,0,0
301,470,0,0,0,0,0,0,0,0,0,-1,1525,554,0,0
308,470,0,0,0,0,0,0,0,0,0,-1,1532,554,0,0
315,470,0,0,0,0,0,0,0,0,0,-1,1539,554,0,0
322,470,0,0,0,0,0,0,0,0,0,-1,1546,554,0,0
329,470,0,0,0,0,0,0,0,0,0,-1,1553,554,0,0
336,470,0,0,0,0,0,0,0,0,0,-1,1560,554,0,0
343,470,0,0,0,0,0,0,0,0,0,-1,1567,554,0,0
350,470,0,0,0,0,0,0,0,0,0,-1,1574,554,0,0
357,470,0,0,0,0,0,0,0,0,0,-1,1581,554,0,0
364,470,1.33423,0.293335,0,0,0,0,0,0,0,-1,1588,554,1.33422,-0.293348
371,470,2.22498,-0.0305176,0,0,0,0,0,0,0,-1,1595,554,2.22494,0.0305046
378,470,6.27051,0.710083,0,0,0,0,0,0,0,-1,1602,554,6.27054,-0.710093
385,470,10.3657,1.47296,0,0,0,0,0,0,0,-1,1609,554,10.3657,-1.47299
392,470,15.3881,3.01935,0,0,0,0,0,0,0,-1,1616,554,15.388,-3.01937
399,470,18.4479,2.93793,0,0,0,0,0,0,0,-1,1623,554,18.4479,-2.93792
406,470,15.1896,1.36676,0,0,0,0,0,0,0,-1,1630,554,15.1896,-1.36679
413,470,6.55383,1.99207,0,0,0,0,0,0,0,-1,1637,554,6.5538,-1.99208
420,470,4.47095,0.845703,0,0,0,0,0,0,0,-1,1644,554,4.47098,-0.845718
427,470,3.51038,1.19684,0,0,0,0,0,0,0,-1,1651,554,3.51039,-1.19684
434,470,3.31775,-1.37427,0,0,0,0,0,0,0,-1,1658,554,3.31781,1.37426
441,470,2.55457,-2.05902,0,0,0,0,0,0,0,-1,1665,554,2.55461,2.05904
448,470,3.27258,-2.64032,0,0,0,0,0,0,0,-1,1672,554,3.27257,2.64029
455,470,10.3658,-9.82233,0,0,0,0,0,0,0,-1,1679,554,10.3659,9.82233
462,470,11.0651,-11.9958,0,0,0,0,0,0,0,-1,1686,554,11.0651,11.9958
469,470,12.6172,-14.522,0,0,0,0,0,0,0,-1,1693,554,12.6172,14.522
476,470,12.679,-13.8947,0.00382775,0.00220126,0.000696434,0.0040852,0.00194381,0.35409,0.00235951,0.0442814,1700,554,12.679,13.8947
483,470,12.7799,-13.4196,0.00371354,0.00204952,0.000995584,0.004179,0.00158406,0.437331,0.00243616,0.0163648,1707,554,12.7799,13.4196
490,470,12.7455,-12.9497,0.00325902,0.00200599,0.00105363,0.00385833,0.00140668,0.51717,0.00225468,0.0117808,1714,554,12.7455,12.9497
497,470,12.7401,-12.4761,0.00263849,0.00190467,0.00110935,0.00344003,0.00110313,0.625689,0.00202824,0.0120627,1721,554,12.7401,12.4761
504,470,12.7712,-12.0276,0.001857,0.0014045,0.000933404,0.00259118,0.000670316,0.666497,0.00155301,0.0187877,1728,554,12.7713,12.0276
511,470,12.7957,-11.598,0.000958473,0.000832921,0.000664675,0.00156333,0.000228064,0.738315,0.00097513,0.0258219,1735,554,12.7956,11.598
518,470,12.7987,-11.1033,-8.87186e-05,0.000375656,0.000339751,0.00055498,-0.000268043,1.08515,0.000484703,0.0256122,1742,554,12.7988,11.1033
525,470,12.7399,-10.5587,-0.00111011,-0.000175109,-2.92954e-05,-0.000174192,-0.00111103,-1.53951,0.000689989,0.0162454,1749,554,12.7398,10.5587
532,470,12.6818,-10.0334,-0.00211772,-0.000663946,-0.00039029,-0.000565793,-0.00221588,-1.32442,0.00132941,0.0141602,1756,554,12.6817,10.0334
539,470,12.6708,-9.5498,-0.00309994,-0.00116049,-0.000754377,-0.000901619,-0.00335881,-1.24023,0.00200734,0.0164001,1763,554,12.6707,9.54981
546,470,12.6488,-9.06427,-0.00412069,-0.0016812,-0.00117238,-0.00120913,-0.00459276,-1.188,0.00274892,0.0145464,1770,554,12.6488,9.06428
553,470,12.6656,-8.54138,-0.00505149,-0.00199764,-0.00155241,-0.00134708,-0.00570206,-1.17396,0.00344138,0.0193092,1777,554,12.6656,8.54138
560,470,12.6648,-7.98218,-0.00576073,-0.00225477,-0.00174947,-0.00153114,-0.00648436,-1.1786,0.00391367,0.031552,1784,554,12.6648,7.98216
567,470,12.5011,-7.50531,-0.00647367,-0.00271283,-0.00199176,-0.00185407,-0.00733243,-1.16372,0.00440239,0.0253564,1791,554,12.5011,7.50532
574,470,12.507,-6.76941,0,0,0,0,0,0,0,-1,1798,554,12.5069,6.7694
581,470,8.24646,-4.06317,0,0,0,0,0,0,0,-1,1805,554,8.24648,4.06318
588,470,11.1803,1.74927,0,0,0,0,0,0,0,-1,1812,554,11.1803,-1.74926
595,470,4.72192,3.44116,0,0,0,0,0,0,0,-1,1819,554,4.72191,-3.44116
602,470,14.4307,2.76141,0,0,0,0,0,0,0,-1,1826,554,14.4306,-2.76139
609,470,20.9181,4.41058,0,0,0,0,0,0,0,-1,1833,554,20.9181,-4.4106
616,470,0,0,0,0,0,0,0,0,0,-1,1840,554,0,0
623,470,0,0,0,0,0,0,0,0,0,-1,1847,554,0,0
630,470,0,0,0,0,0,0,0,0,0,-1,1854,554,0,0
637,470,0,0,0,0,0,0,0,0,0,-1,1861,554,0,0
644,470,0,0,0,0,0,0,0,0,0,-1,1868,554,0,0
651,470,0,0,0,0,0,0,0,0,0,-1,1875,554,0,0
658,470,0,0,0,0,0,0,0,0,0,-1,1882,554,0,0
665,470,0,0,0,0,0,0,0,0,0,-1,1889,554,0,0
672,470,0,0,0,0,0,0,0,0,0,-1,1896,554,0,0
679,470,0,0,0,0,0,0,0,0,0,-1,1903,554,0,0
686,470,0,0,0,0,0,0,0,0,0,-1,1910,554,0,0
693,470,0,0,0,0,0,0,0,0,0,-1,1917,554,0,0
700,470,0,0,0,0,0,0,0,0,0,-1,1924,554,0,0
707,470,0,0,0,0,0,0,0,0,0,-1,1931,554,0,0
714,470,0,0,0,0,0,0,0,0,0,-1,1938,554,0,0
721,470,0,0,0,0,0,0,0,0,0,-1,1945,554,0,0
728,470,0,0,0,0,0,0,0,0,0,-1,1952,554,0,0
735,470,0,0,0,0,0,0,0,0,0,-1,1959,554,0,0
742,470,0,0,0,0,0,0,0,0,0,-1,1966,554,0,0
749,470,0,0,0,0,0,0,0,0,0,-1,1973,554,0,0
756,470,0,0,0,0,0,0,0,0,0,-1,1980,554,0,0
763,470,0,0,0,0,0,0,0,0,0,-1,1987,554,0,0
770,470,0,0,0,0,0,0,0,0,0,-1,1994,554,0,0
777,470,0,0,0,0,0,0,0,0,0,-1,2001,554,0,0
784,470,0,0,0,0,0,0,0,0,0,-1,2008,554,0,0
791,470,0,0,0,0,0,0,0,0,0,-1,2015,554,0,0
798,470,0,0,0,0,0,0,0,0,0,-1,2022,554,0,0
805,470,0,0,0,0,0,0,0,0,0,-1,2029,554,0,0
812,470,0,0,0,0,0,0,0,0,0,-1,2036,554,0,0
-700,463,0,0,0,0,0,0,0,0,0,-1,524,561,0,0
-693,463,0,0,0,0,0,0,0,0,0,-1,531,561,0,0
-686,463,0,0,0,0,0,0,0,0,0,-1,538,561,0,0
-679,463,0,0,0,0,0,0,0,0,0,-1,545,561,0,0
-672,463,0,0,0,0,0,0,0,0,0,-1,552,561,0,0
-665,463,0,0,0,0,0,0,0,0,0,-1,559,561,0,0
-658,463,0,0,0,0,0,0,0,0,0,-1,566,561,0,0
-651,463,0,0,0,0,0,0,0,0,0,-1,573,561,0,0
-644,463,0,0,0,0,0,0,0,0,0,-1,580,561,0,0
-637,463,0,0,0,0,0,0,0,0,0,-1,587,561,0,0
-630,463,0,0,0,0,0,0,0,0,0,-1,594,561,0,0
-623,463,0,0,0,0,0,0,0,0,0,-1,601,561,0,0
-616,463,0,0,0,0,0,0,0,0,0,-1,608,561,0,0
-609,463,0,0,0,0,0,0,0,0,0,-1,615,561,0,0
-602,463,0,0,0,0,0,0,0,0,0,-1,622,561,0,0
-595,463,0,0,0,0,0,0,0,0,0,-1,629,561,0,0
-588,463,0,0,0,0,0,0,0,0,0,-1,636,561,0,0
-581,463,0,0,0,0,0,0,0,0,0,-1,643,561,0,0
-574,463,0,0,0,0,0,0,0,0,0,-1,650,561,0,0
-567,463,0,0,0,0,0,0,0,0,0,-1,657,561,0,0
-560,463,0,0,0,0,0,0,0,0,0,-1,664,561,0,0
-553,463,0,0,0,0,0,0,0,0,0,-1,671,561,0,0
-546,463,0,0,0,0,0,0,0,0,0,-1,678,561,0,0
-539,463,0,0,0,0,0,0,0,0,0,-1,685,561,0,0
-532,463,0,0,0,0,0,0,0,0,0,-1,692,561,0,0
-525,463,0,0,0,0,0,0,0,0,0,-1,699,561,0,0
-518,463,0,0,0,0,0,0,0,0,0,-1,706,561,0,0
-511,463,0,0,0,0,0,0,0,0,0,-1,713,561,0,0
-504,463,0,0,0,0,0,0,0,0,0,-1,720,561,0,0
-497,463,-9.81451,-1.67126,0,0,0,0,0,0,0,-1,727,561,-9.81452,1.67127
-490,463,-8.57043,-1.58942,0,0,0,0,0,0,0,-1,734,561,-8.57045,1.58944
-483,463,-7.29224,-1.7226,0,0,0,0,0,0,0,-1,741,561,-7.29226,1.72261
-476,463,-5.77704,-1.7312,0,0,0,0,0,0,0,-1,748,561,-5.77703,1.73121
-469,463,-5.14545,-2.138,0,0,0,0,0,0,0,-1,755,561,-5.14546,2.13799
-462,463,-3.13672,-3.07977,0,0,0,0,0,0,0,-1,762,561,-3.13672,3.07974
-455,463,-2.91406,-5.61798,0,0,0,0,0,0,0,-1,769,561,-2.91406,5.61801
-448,463,-3.65503,-8.49316,0,0,0,0,0,0,0,-1,776,561,-3.65502,8.49313
-441,463,-4.39661,-9.06122,0,0,0,0,0,0,0,-1,783,561,-4.39662,9.06119
-434,463,-4.30469,-9.69525,-0.00385776,0.00678143,-0.00283904,0.00749161,-0.00456795,-1.32568,0.00703047,0.0232013,790,561,-4.30471,9.69523
-427,463,-4.30847,-10.1627,-0.00299012,0.00566162,-0.00247562,0.00631991,-0.00364841,-1.3109,0.0058237,0.010047,797,561,-4.30845,10.1627
-420,463,-4.30511,-10.6257,-0.00223885,0.00462138,-0.0021664,0.00524823,-0.0028657,-1.28914,0.00475142,0.00926034,804,561,-4.3051,10.6257
-413,463,-4.33691,-11.1246,-0.00165008,0.00353327,-0.00173955,0.00406294,-0.00217975,-1.27523,0.00365848,0.00901505,811,561,-4.33692,11.1246
-406,463,-4.36737,-11.5939,-0.000992823,0.00271861,-0.00139114,0.00318215,-0.00145637,-1.24916,0.00273914,0.00961641,818,561,-4.36737,11.5939
-399,463,-4.37061,-12.0426,-0.00039077,0.00197731,-0.00103935,0.00236877,-0.000782231,-1.21059,0.00189454,0.0110318,825,561,-4.37061,12.0426
-392,463,-4.37347,-12.5069,0.000213374,0.00127199,-0.000689859,0.00161221,-0.000126843,-1.11263,0.00111948,0.0106054,832,561,-4.37348,12.5069
-385,463,-4.39447,-12.9857,0.000891943,0.000726142,-0.000367596,0.00118587,0.000432214,-0.674493,0.000692996,0.0113541,839,561,-4.39446,12.9857
-378,463,-4.40637,-13.4399,0.0015721,0.000288822,-7.81654e-05,0.00157685,0.000284079,-0.0606118,0.000970499,0.0124812,846,561,-4.40635,13.44
-371,463,-4.4118,-13.8973,0.00224999,-6.92052e-05,0.000200601,0.00226722,-8.64285e-05,0.0856482,0.00154109,0.0115814,853,561,-4.41181,13.8973
-364,463,-4.39996,-14.3014,0.00297938,-0.000297261,0.000401446,0.00302785,-0.000345728,0.12015,0.00214312,0.0137388,860,561,-4.39999,14.3014
-357,463,-4.4101,-14.7114,0.00380008,-0.000428614,0.000470593,0.00385181,-0.000480351,0.109501,0.00274205,0.019736,867,561,-4.41007,14.7114
-350,463,-4.31281,-15.2408,0.00446124,-0.000488402,0.000268236,0.00447573,-0.000502896,0.0539823,0.0031648,0.0324204,874,561,-4.31281,15.2409
-343,463,-4.12061,-15.5815,0,0,0,0,0,0,0,-1,881,561,-4.1206,15.5815
-336,463,-2.94928,-12.2127,0,0,0,0,0,0,0,-1,888,561,-2.94925,12.2127
-329,463,-2.64307,-12.7037,0,0,0,0,0,0,0,-1,895,561,-2.64307,12.7038
-322,463,-1.82898,-9.11957,0,0,0,0,0,0,0,-1,902,561,-1.829,9.11957
-315,463,-0.944763,-5.96234,0,0,0,0,0,0,0,-1,909,561,-0.94479,5.96237
-308,463,-1.1535,-3.17889,0,0,0,0,0,0,0,-1,916,561,-1.15352,3.17889
-301,463,-1.50366,-3.15338,0,0,0,0,0,0,0,-1,923,561,-1.50364,3.15341
-294,463,-2.35889,-3.93463,0,0,0,0,0,0,0,-1,930,561,-2.35886,3.93465
-287,463,-2.80322,2.73999,0,0,0,0,0,0,0,-1,937,561,-2.80322,-2.74
-280,463,-12.864,5.25146,0,0,0,0,0,0,0,-1,944,561,-12.864,-5.25149
-273,463,-12.4598,3.39178,0,0,0,0,0,0,0,-1,951,561,-12.4598,-3.3918
-266,463,-8.78101,-3.7356,0,0,0,0,0,0,0,-1,958,561,-8.78098,3.73562
-259,463,-6.23285,-5.68842,0,0,0,0,0,0,0,-1,965,561,-6.23288,5.68843
-252,463,0,0,0,0,0,0,0,0,0,-1,972,561,0,0
-245,463,0,0,0,0,0,0,0,0,0,-1,979,561,0,0
-238,463,0,0,0,0,0,0,0,0,0,-1,986,561,0,0
-231,463,0,0,0,0,0,0,0,0,0,-1,993,561,0,0
-224,463,0,0,0,0,0,0,0,0,0,-1,1000,561,0,0
-217,463,0,0,0,0,0,0,0,0,0,-1,1007,561,0,0
-210,463,0,0,0,0,0,0,0,0,0,-1,1014,561,0,0
-203,463,0,0,0,0,0,0,0,0,0,-1,1021,561,0,0
-196,463,0,0,0,0,0,0,0,0,0,-1,1028,561,0,0
-189,463,0,0,0,0,0,0,0,0,0,-1,1035,561,0,0
-182,463,0,0,0,0,0,0,0,0,0,-1,1042,561,0,0
-175,463,0,0,0,0,0,0,0,0,0,-1,1049,561,0,0
-168,463,0,0,0,0,0,0,0,0,0,-1,1056,561,0,0
-161,463,0,0,0,0,0,0,0,0,0,-1,1063,561,0,0
-154,463,0,0,0,0,0,0,0,0,0,-1,1070,561,0,0
-147,463,0,0,0,0,0,0,0,0,0,-1,1077,561,0,0
-140,463,0,0,0,0,0,0,0,0,0,-1,1084,561,0,0
-133,463,0,0,0,0,0,0,0,0,0,-1,1091,561,0,0
-126,463,0,0,0,0,0,0,0,0,0,-1,1098,561,0,0
-119,463,0,0,0,0,0,0,0,0,0,-1,1105,561,0,0
-112,463,0,0,0,0,0,0,0,0,0,-1,1112,561,0,0
-105,463,0,0,0,0,0,0,0,0,0,-1,1119,561,0,0
-98,463,0,0,0,0,0,0,0,0,0,-1,1126,561,0,0
-91,463,0,0,0,0,0,0,0,0,0,-1,1133,561,0,0
-84,463,0,0,0,0,0,0,0,0,0,-1,1140,561,0,0
-77,463,0,0,0,0,0,0,0,0,0,-1,1147,561,0,0
-70,463,0,0,0,0,0,0,0,0,0,-1,1154,561,0,0
-63,463,0,0,0,0,0,0,0,0,0,-1,1161,561,0,0
-56,463,0,0,0,0,0,0,0,0,0,-1,1168,561,0,0
-49,463,0,0,0,0,0,0,0,0,0,-1,1175,561,0,0
-42,463,0,0,0,0,0,0,0,0,0,-1,1182,561,0,0
-35,463,0,0,0,0,0,0,0,0,0,-1,1189,561,0,0
-28,463,0,0,0,0,0,0,0,0,0,-1,1196,561,0,0
-21,463,0,0,0,0,0,0,0,0,0,-1,1203,561,0,0
-14,463,0,0,0,0,0,0,0,0,0,-1,1210,561,0,0
-7,463,0,0,0,0,0,0,0,0,0,-1,1217,561,0,0
0,463,0,0,0,0,0,0,0,0,0,-1,1224,561,0,0
7,463,0,0,0,0,0,0,0,0,0,-1,1231,561,0,0
14,463,0,0,0,0,0,0,0,0,0,-1,1238,561,0,0
21,463,0,0,0,0,0,0,0,0,0,-1,1245,561,0,0
28,463,0,0,0,0,0,0,0,0,0,-1,1252,561,0,0
35,463,0,0,0,0,0,0,0,0,0,-1,1259,561,0,0
42,463,0,0,0,0,0,0,0,0,0,-1,1266,561,0,0
49,463,0,0,0,0,0,0,0,0,0,-1,1273,561,0,0
56,463,0,0,0,0,0,0,0,0,0,-1,1280,561,0,0
63,463,0,0,0,0,0,0,0,0,0,-1,1287,561,0,0
70,463,0,0,0,0,0,0,0,0,0,-1,1294,561,0,0
77,463,0,0,0,0,0,0,0,0,0,-1,1301,561,0,0
84,463,0,0,0,0,0,0,0,0,0,-1,1308,561,0,0
91,463,0,0,0,0,0,0,0,0,0,-1,1315,561,0,0
98,463,0,0,0,0,0,0,0,0,0,-1,1322,561,0,0
105,463,0,0,0,0,0,0,0,0,0,-1,1329,561,0,0
112,463,0,0,0,0,0,0,0,0,0,-1,1336,561,0,0
119,463,0,0,0,0,0,0,0,0,0,-1,1343,561,0,0
126,463,0,0,0,0,0,0,0,0,0,-1,1350,561,0,0
133,463,0,0,0,0,0,0,0,0,0,-1,1357,561,0,0
140,463,0,0,0,0,0,0,0,0,0,-1,1364,561,0,0
147,463,0,0,0,0,0,0,0,0,0,-1,1371,561,0,0
154,463,0,0,0,0,0,0,0,0,0,-1,1378,561,0,0
161,463,0,0,0,0,0,0,0,0,0,-1,1385,561,0,0
168,463,0,0,0,0,0,0,0,0,0,-1,1392,561,0,0
175,463,0,0,0,0,0,0,0,0,0,-1,1399,561,0,0
182,463,0,0,0,0,0,0,0,0,0,-1,1406,561,0,0
189,463,0,0,0,0,0,0,0,0,0,-1,1413,561,0,0
196,463,0,0,0,0,0,0,0,0,0,-1,1420,561,0,0
203,463,0,0,0,0,0,0,0,0,0,-1,1427,561,0,0
210,463,0,0,0,0,0,0,0,0,0,-1,1434,561,0,0
217,463,0,0,0,0,0,0,0,0,0,-1,1441,561,0,0
224,463,0,0,0,0,0,0,0,0,0,-1,1448,561,0,0
231,463,0,0,0,0,0,0,0,0,0,-1,1455,561,0,0
238,463,0,0,0,0,0,0,0,0,0,-1,1462,561,0,0
245,463,0,0,0,0,0,0,0,0,0,-1,1469,561,0,0
252,463,0,0,0,0,0,0,0,0,0,-1,1476,561,0,0
259,463,0,0,0,0,0,0,0,0,0,-1,1483,561,0,0
266,463,0,0,0,0,0,0,0,0,0,-1,1490,561,0,0
273,463,0,0,0,0,0,0,0,0,0,-1,1497,561,0,0
280,463,0,0,0,0,0,0,0,0,0,-1,1504,561,0,0
287,463,0,0,0,0,0,0,0,0,0,-1,1511,561,0,0
294,463,0,0,0,0,0,0,0,0,0,-1,1518,561,0,0
301,463,0,0,0,0,0,0,0,0,0,-1,1525,561,0,0
308,463,0,0,0,0,0,0,0,0,0,-1,1532,561,0,0
315,463,0,0,0,0,0,0,0,0,0,-1,1539,561,0,0
322,463,0,0,0,0,0,0,0,0,0,-1,1546,561,0,0
329,463,0,0,0,0,0,0,0,0,0,-1,1553,561,0,0
336,463,0,0,0,0,0,0,0,0,0,-1,1560,561,0,0
343,463,0,0,0,0,0,0,0,0,0,-1,1567,561,0,0
350,463,0,0,0,0,0,0,0,0,0,-1,1574,561,0,0
357,463,0,0,0,0,0,0,0,0,0,-1,1581,561,0,0
364,463,0,0,0,0,0,0,0,0,0,-1,1588,561,0,0
371,463,1.75842,0.152588,0,0,0,0,0,0,0,-1,1595,561,1.75844,-0.152558
378,463,4.58813,-0.0444336,0,0,0,0,0,0,0,-1,1602,561,4.58809,0.0444505
385,463,8.88574,1.65057,0,0,0,0,0,0,0,-1,1609,561,8.88575,-1.65055
392,463,14.0912,2.50513,0,0,0,0,0,0,0,-1,1616,561,14.0912,-2.5051
399,463,21.4769,2.7002,0,0,0,0,0,0,0,-1,1623,561,21.477,-2.70017
406,463,26.2987,4.32318,0,0,0,0,0,0,0,-1,1630,561,26.2987,-4.3232
413,463,26.5011,2.65222,0,0,0,0,0,0,0,-1,1637,561,26.5011,-2.65224
420,463,8.849,2.26611,0,0,0,0,0,0,0,-1,1644,561,8.84899,-2.26613
427,463,5.12207,1.69183,0,0,0,0,0,0,0,-1,1651,561,5.12206,-1.69184
434,463,4.59814,1.81995,0,0,0,0,0,0,0,-1,1658,561,4.59812,-1.81994
441,463,1.76392,-5.99225,0,0,0,0,0,0,0,-1,1665,561,1.7639,5.99225
448,463,2.49939,-4.30536,0,0,0,0,0,0,0,-1,1672,561,2.49941,4.30536
455,463,4.40295,-3.02557,0,0,0,0,0,0,0,-1,1679,561,4.40299,3.02558
462,463,5.38293,-4.06445,0,0,0,0,0,0,0,-1,1686,561,5.38289,4.06444
469,463,5.94373,-4.50647,0,0,0,0,0,0,0,-1,1693,561,5.94368,4.50646
476,463,12.9888,-14.1564,0,0,0,0,0,0,0,-1,1700,561,12.9888,14.1564
483,463,13.2303,-13.4993,0,0,0,0,0,0,0,-1,1707,561,13.2303,13.4993
490,463,13.2186,-12.9768,0.00411931,0.00231056,0.00142619,0.0049037,0.00152618,0.502834,0.00289763,0.0230922,1714,561,13.2186,12.9768
497,463,13.2162,-12.4667,0.00355949,0.00230549,0.00151427,0.00457144,0.00129354,0.589115,0.00272095,0.0133578,1721,561,13.2162,12.4667
504,463,13.2396,-12.0061,0.0028301,0.00188799,0.00135174,0.00379051,0.000927576,0.617738,0.00228156,0.0161276,1728,561,13.2396,12.0061
511,463,13.2544,-11.5505,0.00201955,0.00139064,0.0011142,0.00286281,0.000547377,0.647864,0.00175478,0.0218238,1735,561,13.2543,11.5504
518,463,13.2756,-11.0501,0.00110277,0.00103245,0.000860663,0.00192899,0.000206231,0.764985,0.00122306,0.0234024,1742,561,13.2757,11.0501
525,463,13.2118,-10.545,0.000207457,0.000609266,0.000574643,0.00101711,-0.000200389,0.953565,0.000753803,0.0193577,1749,561,13.2118,10.545
532,463,13.2136,-10.0469,-0.000684544,0.000219526,0.00027642,0.000297344,-0.000762362,1.29638,0.000631151,0.0165983,1756,561,13.2136,10.0469
539,463,13.1936,-9.53223,-0.001542,-0.000188737,-1.43738e-05,-0.000188584,-0.00154215,-1.56018,0.000971359,0.0173878,1763,561,13.1936,9.53223
546,463,13.1448,-9.06848,-0.00242866,-0.000641455,-0.000373218,-0.000566648,-0.00250347,-1.37298,0.00151582,0.0134195,1770,561,13.1447,9.06851
553,463,13.1296,-8.54419,-0.00322735,-0.000942953,-0.000702097,-0.000744421,-0.00342589,-1.29522,0.00208066,0.0109711,1777,561,13.1297,8.54421
560,463,13.1571,-7.94055,-0.00383545,-0.00117669,-0.000837719,-0.000934761,-0.00407739,-1.28965,0.00246644,0.0171003,1784,561,13.1571,7.94058
567,463,13.0532,-7.45215,-0.00446517,-0.00156496,-0.00103266,-0.00123485,-0.00479528,-1.26139,0.00287504,0.02348,1791,561,13.0533,7.45215
574,463,13.1019,-6.97333,0,0,0,0,0,0,0,-1,1798,561,13.1019,6.97331
581,463,9.4939,-3.88245,0,0,0,0,0,0,0,-1,1805,561,9.49392,3.88245
588,463,1.97424,2.16016,0,0,0,0,0,0,0,-1,1812,561,1.97422,-2.16013
595,463,9.98657,2.99854,0,0,0,0,0,0,0,-1,1819,561,9.98662,-2.99856
602,463,17.2202,4.91302,0,0,0,0,0,0,0,-1,1826,561,17.2202,-4.91305
609,463,17.96,4.03131,0,0,0,0,0,0,0,-1,1833,561,17.96,-4.03132
616,463,20.8352,3.15131,0,0,0,0,0,0,0,-1,1840,561,20.8352,-3.1513
623,463,0,0,0,0,0,0,0,0,0,-1,1847,561,0,0
630,463,0,0,0,0,0,0,0,0,0,-1,1854,561,0,0
637,463,0,0,0,0,0,0,0,0,0,-1,1861,561,0,0
644,463,0,0,0,0,0,0,0,0,0,-1,1868,561,0,0
651,463,0,0,0,0,0,0,0,0,0,-1,1875,561,0,0
658,463,0,0,0,0,0,0,0,0,0,-1,1882,561,0,0
665,463,0,0,0,0,0,0,0,0,0,-1,1889,561,0,0
672,463,0,0,0,0,0,0,0,0,0,-1,1896,561,0,0
679,463,0,0,0,0,0,0,0,0,0,-1,1903,561,0,0
686,463,0,0,0,0,0,0,0,0,0,-1,1910,561,0,0
693,463,0,0,0,0,0,0,0,0,0,-1,1917,561,0,0
700,463,0,0,0,0,0,0,0,0,0,-1,1924,561,0,0
707,463,0,0,0,0,0,0,0,0,0,-1,1931,561,0,0
714,463,0,0,0,0,0,0,0,0,0,-1,1938,561,0,0
721,463,0,0,0,0,0,0,0,0,0,-1,1945,561,0,0
728,463,0,0,0,0,0,0,0,0,0,-1,1952,561,0,0
735,463,0,0,0,0,0,0,0,0,0,-1,1959,561,0,0
742,463,0,0,0,0,0,0,0,0,0,-1,1966,561,0,0
749,463,0,0,0,0,0,0,0,0,0,-1,1973,561,0,0
756,463,0,0,0,0,0,0,0,0,0,-1,1980,561,0,0
763,463,0,0,0,0,0,0,0,0,0,-1,1987,561,0,0
770,463,0,0,0,0,0,0,0,0,0,-1,1994,561,0,0
777,463,0,0,0,0,0,0,0,0,0,-1,2001,561,0,0
784,463,0,0,0,0,0,0,0,0,0,-1,2008,561,0,0
791,463,0,0,0,0,0,0,0,0,0,-1,2015,561,0,0
798,463,0,0,0,0,0,0,0,0,0,-1,2022,561,0,0
805,463,0,0,0,0,0,0,0,0,0,-1,2029,561,0,0
812,463,0,0,0,0,0,0,0,0,0,-1,2036,561,0,0
-700,456,0,0,0,0,0,0,0,0,0,-1,524,568,0,0
-693,456,0,0,0,0,0,0,0,0,0,-1,531,568,0,0
-686,456,0,0,0,0,0,0,0,0,0,-1,538,568,0,0
-679,456,0,0,0,0,0,0,0,0,0,-1,545,568,0,0
-672,456,0,0,0,0,0,0,0,0,0,-1,552,568,0,0
-665,456,0,0,0,0,0,0,0,0,0,-1,559,568,0,0
-658,456,0,0,0,0,0,0,0,0,0,-1,566,568,0,0
-651,456,0,0,0,0,0,0,0,0,0,-1,573,568,0,0
-644,456,0,0,0,0,0,0,0,0,0,-1,580,568,0,0
-637,456,0,0,0,0,0,0,0,0,0,-1,587,568,0,0
-630,456,0,0,0,0,0,0,0,0,0,-1,594,568,0,0
-623,456,0,0,0,0,0,0,0,0,0,-1,601,568,0,0
-616,456,0,0,0,0,0,0,0,0,0,-1,608,568,0,0
-609,456,0,0,0,0,0,0,0,0,0,-1,615,568,0,0
-602,456,0,0,0,0,0,0,0,0,0,-1,622,568,0,0
-595,456,0,0,0,0,0,0,0,0,0,-1,629,568,0,0
-588,456,0,0,0,0,0,0,0,0,0,-1,636,568,0,0
-581,456,0,0,0,0,0,0,0,0,0,-1,643,568,0,0
-574,456,0,0,0,0,0,0,0,0,0,-1,650,568,0,0
-567,456,0,0,0,0,0,0,0,0,0,-1,657,568,0,0
-560,456,0,0,0,0,0,0,0,0,0,-1,664,568,0,0
-553,456,0,0,0,0,0,0,0,0,0,-1,671,568,0,0
-546,456,0,0,0,0,0,0,0,0,0,-1,678,568,0,0
-539,456,0,0,0,0,0,0,0,0,0,-1,685,568,0,0
-532,456,0,0,0,0,0,0,0,0,0,-1,692,568,0,0
-525,456,0,0,0,0,0,0,0,0,0,-1,699,568,0,0
-518,456,0,0,0,0,0,0,0,0,0,-1,706,568,0,0
-511,456,0,0,0,0,0,0,0,0,0,-1,713,568,0,0
-504,456,-10.3994,-2.34839,0,0,0,0,0,0,0,-1,720,568,-10.3994,2.3484
-497,456,-9.21375,-2.38068,0,0,0,0,0,0,0,-1,727,568,-9.21372,2.38069
-490,456,-8.09058,-2.31824,0,0,0,0,0,0,0,-1,734,568,-8.09057,2.31821
-483,456,-6.66119,-2.24329,0,0,0,0,0,0,0,-1,741,568,-6.66121,2.24331
-476,456,-5.1499,-2.21185,0,0,0,0,0,0,0,-1,748,568,-5.14992,2.21184
-469,456,-2.81238,-3.51501,0,0,0,0,0,0,0,-1,755,568,-2.81237,3.51501
-462,456,-4.2431,-5.27478,0,0,0,0,0,0,0,-1,762,568,-4.24312,5.27476
-455,456,-4.45868,-7.52441,0,0,0,0,0,0,0,-1,769,568,-4.45866,7.52442
-448,456,-4.78772,-8.39032,0,0,0,0,0,0,0,-1,776,568,-4.78771,8.39034
-441,456,-4.67078,-9.15814,-0.00287466,0.00707415,-0.00280771,0.00781183,-0.00361235,-1.31387,0.00674266,0.026084,783,568,-4.67076,9.15814
-434,456,-4.76733,-9.70093,-0.00211039,0.00585488,-0.00226582,0.00645431,-0.00270982,-1.31217,0.00543615,0.0135793,790,568,-4.76736,9.70095
-427,456,-4.76758,-10.1579,-0.00149179,0.00478248,-0.00179761,0.00526101,-0.00197032,-1.31063,0.0043167,0.00850952,797,568,-4.76759,10.1579
-420,456,-4.78009,-10.6189,-0.000960768,0.0037942,-0.00141129,0.00418152,-0.00134809,-1.30294,0.0033293,0.00890185,804,568,-4.7801,10.6189
-413,456,-4.79883,-11.1029,-0.000600965,0.00272874,-0.000914254,0.00296325,-0.000835479,-1.3197,0.00230503,0.00849433,811,568,-4.79882,11.1029
-406,456,-4.83704,-11.577,-0.000170639,0.00192309,-0.000544928,0.00205642,-0.000303974,-1.33083,0.0014827,0.0091199,818,568,-4.83707,11.577
-399,456,-4.83862,-12.0201,0.000211888,0.00118911,-0.000209233,0.00123202,0.000168974,-1.3685,0.000771218,0.0108514,825,568,-4.83864,12.0201
-392,456,-4.83331,-12.4839,0.000607541,0.000488271,0.000101454,0.000665589,0.000430223,0.519698,0.000389729,0.0105188,832,568,-4.83333,12.4839
-385,456,-4.85742,-12.9566,0.00108596,-3.95634e-05,0.00036614,0.00119458,-0.000148188,0.288404,0.000850101,0.0105035,839,568,-4.85743,12.9566
-378,456,-4.87579,-13.4214,0.00157621,-0.000453481,0.000609892,0.00174538,-0.000622645,0.270566,0.00141747,0.0111152,846,568,-4.87577,13.4214
-371,456,-4.88599,-13.8794,0.00214011,-0.000716543,0.000801644,0.0023497,-0.000926127,0.255718,0.00194992,0.0110459,853,568,-4.88597,13.8794
-364,456,-4.87262,-14.2808,0.0028642,-0.000759842,0.000851482,0.00305429,-0.000949931,0.219642,0.00241591,0.017713,860,568,-4.87264,14.2808
-357,456,-4.80817,-14.7352,0.00375893,-0.000714339,0.000727703,0.00387433,-0.000829743,0.157277,0.00289932,0.0345135,867,568,-4.80816,14.7352
-350,456,-4.59949,-15.4653,0,0,0,0,0,0,0,-1,874,568,-4.59949,15.4653
-343,456,-3.39081,-12.0217,0,0,0,0,0,0,0,-1,881,568,-3.39078,12.0217
-336,456,-3.04517,-12.4623,0,0,0,0,0,0,0,-1,888,568,-3.04519,12.4624
-329,456,-1.06183,-10.7184,0,0,0,0,0,0,0,-1,895,568,-1.06184,10.7184
-322,456,-0.662537,-7.66632,0,0,0,0,0,0,0,-1,902,568,-0.662564,7.66633
-315,456,-0.675476,-3.38397,0,0,0,0,0,0,0,-1,909,568,-0.675473,3.38399
-308,456,-1.1618,-3.15314,0,0,0,0,0,0,0,-1,916,568,-1.16178,3.15314
-301,456,-1.83551,-3.26447,0,0,0,0,0,0,0,-1,923,568,-1.8355,3.26449
-294,456,-2.93414,-3.35449,0,0,0,0,0,0,0,-1,930,568,-2.93413,3.35451
-287,456,-3.7569,-3.53101,0,0,0,0,0,0,0,-1,937,568,-3.75692,3.53101
-280,456,-13.072,4.52856,0,0,0,0,0,0,0,-1,944,568,-13.072,-4.52855
-273,456,-8.76031,-5.4386,0,0,0,0,0,0,0,-1,951,568,-8.7603,5.43861
-266,456,-5.5816,-7.97583,0,0,0,0,0,0,0,-1,958,568,-5.58159,7.9758
-259,456,0,0,0,0,0,0,0,0,0,-1,965,568,0,0
-252,456,0,0,0,0,0,0,0,0,0,-1,972,568,0,0
-245,456,0,0,0,0,0,0,0,0,0,-1,979,568,0,0
-238,456,0,0,0,0,0,0,0,0,0,-1,986,568,0,0
-231,456,0,0,0,0,0,0,0,0,0,-1,993,568,0,0
-224,456,0,0,0,0,0,0,0,0,0,-1,1000,568,0,0
-217,456,0,0,0,0,0,0,0,0,0,-1,1007,568,0,0
-210,456,0,0,0,0,0,0,0,0,0,-1,1014,568,0,0
-203,456,0,0,0,0,0,0,0,0,0,-1,1021,568,0,0
-196,456,0,0,0,0,0,0,0,0,0,-1,1028,568,0,0
-189,456,0,0,0,0,0,0,0,0,0,-1,1035,568,0,0
-182,456,0,0,0,0,0,0,0,0,0,-1,1042,568,0,0
-175,456,0,0,0,0,0,0,0,0,0,-1,1049,568,0,0
-168,456,0,0,0,0,0,0,0,0,0,-1,1056,568,0,0
-161,456,0,0,0,0,0,0,0,0,0,-1,1063,568,0,0
-154,456,0,0,0,0,0,0,0,0,0,-1,1070,568,0,0
-147,456,0,0,0,0,0,0,0,0,0,-1,1077,568,0,0
-140,456,0,0,0,0,0,0,0,0,0,-1,1084,568,0,0
-133,456,0,0,0,0,0,0,0,0,0,-1,1091,568,0,0
-126,456,0,0,0,0,0,0,0,0,0,-1,1098,568,0,0
-119,456,0,0,0,0,0,0,0,0,0,-1,1105,568,0,0
-112,456,0,0,0,0,0,0,0,0,0,-1,1112,568,0,0
-105,456,0,0,0,0,0,0,0,0,0,-1,1119,568,0,0
-98,456,0,0,0,0,0,0,0,0,0,-1,1126,568,0,0
-91,456,0,0,0,0,0,0,0,0,0,-1,1133,568,0,0
-84,456,0,0,0,0,0,0,0,0,0,-1,1140,568,0,0
-77,456,0,0,0,0,0,0,0,0,0,-1,1147,568,0,0
-70,456,0,0,0,0,0,0,0,0,0,-1,1154,568,0,0
-63,456,0,0,0,0,0,0,0,0,0,-1,1161,568,0,0
-56,456,0,0,0,0,0,0,0,0,0,-1,1168,568,0,0
-49,456,0,0,0,0,0,0,0,0,0,-1,1175,568,0,0
-42,456,0,0,0,0,0,0,0,0,0,-1,1182,568,0,0
-35,456,0,0,0,0,0,0,0,0,0,-1,1189,568,0,0
-28,456,0,0,0,0,0,0,0,0,0,-1,1196,568,0,0
-21,456,0,0,0,0,0,0,0,0,0,-1,1203,568,0,0
-14,456,0,0,0,0,0,0,0,0,0,-1,1210,568,0,0
-7,456,0,0,0,0,0,0,0,0,0,-1,1217,568,0,0
0,456,0,0,0,0,0,0,0,0,0,-1,1224,568,0,0
7,456,0,0,0,0,0,0,0,0,0,-1,1231,568,0,0
14,456,0,0,0,0,0,0,0,0,0,-1,1238,568,0,0
21,456,0,0,0,0,0,0,0,0,0,-1,1245,568,0,0
28,456,0,0,0,0,0,0,0,0,0,-1,1252,568,0,0
35,456,0,0,0,0,0,0,0,0,0,-1,1259,568,0,0
42,456,0,0,0,0,0,0,0,0,0,-1,1266,568,0,0
49,456,0,0,0,0,0,0,0,0,0,-1,1273,568,0,0
56,456,0,0,0,0,0,0,0,0,0,-1,1280,568,0,0
63,456,0,0,0,0,0,0,0,0,0,-1,1287,568,0,0
70,456,0,0,0,0,0,0,0,0,0,-1,1294,568,0,0
77,456,0,0,0,0,0,0,0,0,0,-1,1301,568,0,0
84,456,0,0,0,0,0,0,0,0,0,-1,1308,568,0,0
91,456,0,0,0,0,0,0,0,0,0,-1,1315,568,0,0
98,456,0,0,0,0,0,0,0,0,0,-1,1322,568,0,0
105,456,0,0,0,0,0,0,0,0,0,-1,1329,568,0,0
112,456,0,0,0,0,0,0,0,0,0,-1,1336,568,0,0
119,456,0,0,0,0,0,0,0,0,0,-1,1343,568,0,0
126,456,0,0,0,0,0,0,0,0,0,-1,1350,568,0,0
133,456,0,0,0,0,0,0,0,0,0,-1,1357,568,0,0
140,456,0,0,0,0,0,0,0,0,0,-1,1364,568,0,0
147,456,0,0,0,0,0,0,0,0,0,-1,1371,568,0,0
154,456,0,0,0,0,0,0,0,0,0,-1,1378,568,0,0
161,456,0,0,0,0,0,0,0,0,0,-1,1385,568,0,0
168,456,0,0,0,0,0,0,0,0,0,-1,1392,568,0,0
175,456,0,0,0,0,0,0,0,0,0,-1,1399,568,0,0
182,456,0,0,0,0,0,0,0,0,0,-1,1406,568,0,0
189,456,0,0,0,0,0,0,0,0,0,-1,1413,568,0,0
196,456,0,0,0,0,0,0,0,0,0,-1,1420,568,0,0
203,456,0,0,0,0,0,0,0,0,0,-1,1427,568,0,0
210,456,0,0,0,0,0,0,0,0,0,-1,1434,568,0,0
217,456,0,0,0,0,0,0,0,0,0,-1,1441,568,0,0
224,456,0,0,0,0,0,0,0,0,0,-1,1448,568,0,0
231,456,0,0,0,0,0,0,0,0,0,-1,1455,568,0,0
238,456,0,0,0,0,0,0,0,0,0,-1,1462,568,0,0
245,456,0,0,0,0,0,0,0,0,0,-1,1469,568,0,0
252,456,0,0,0,0,0,0,0,0,0,-1,1476,568,0,0
259,456,0,0,0,0,0,0,0,0,0,-1,1483,568,0,0
266,456,0,0,0,0,0,0,0,0,0,-1,1490,568,0,0
273,456,0,0,0,0,0,0,0,0,0,-1,1497,568,0,0
280,456,0,0,0,0,0,0,0,0,0,-1,1504,568,0,0
287,456,0,0,0,0,0,0,0,0,0,-1,1511,568,0,0
294,456,0,0,0,0,0,0,0,0,0,-1,1518,568,0,0
301,456,0,0,0,0,0,0,0,0,0,-1,1525,568,0,0
308,456,0,0,0,0,0,0,0,0,0,-1,1532,568,0,0
315,456,0,0,0,0,0,0,0,0,0,-1,1539,568,0,0
322,456,0,0,0,0,0,0,0,0,0,-1,1546,568,0,0
329,456,0,0,0,0,0,0,0,0,0,-1,1553,568,0,0
336,456,0,0,0,0,0,0,0,0,0,-1,1560,568,0,0
343,456,0,0,0,0,0,0,0,0,0,-1,1567,568,0,0
350,456,0,0,0,0,0,0,0,0,0,-1,1574,568,0,0
357,456,0,0,0,0,0,0,0,0,0,-1,1581,568,0,0
364,456,0,0,0,0,0,0,0,0,0,-1,1588,568,0,0
371,456,0,0,0,0,0,0,0,0,0,-1,1595,568,0,0
378,456,0,0,0,0,0,0,0,0,0,-1,1602,568,0,0
385,456,5.66284,0.660645,0,0,0,0,0,0,0,-1,1609,568,5.66285,-0.660615
392,456,17.5027,4.32971,0,0,0,0,0,0,0,-1,1616,568,17.5026,-4.32971
399,456,24.1917,5.99652,0,0,0,0,0,0,0,-1,1623,568,24.1916,-5.99651
406,456,24.446,4.53003,0,0,0,0,0,0,0,-1,1630,568,24.446,-4.53005
413,456,24.9418,2.90521,0,0,0,0,0,0,0,-1,1637,568,24.9418,-2.90524
420,456,25.3048,1.04712,0,0,0,0,0,0,0,-1,1644,568,25.3048,-1.04713
427,456,6.21375,2.02905,0,0,0,0,0,0,0,-1,1651,568,6.21372,-2.02904
434,456,3.0719,-4.86285,0,0,0,0,0,0,0,-1,1658,568,3.07184,4.86287
441,456,2.90344,-4.70459,0,0,0,0,0,0,0,-1,1665,568,2.90346,4.7046
448,456,3.06995,-4.93689,0,0,0,0,0,0,0,-1,1672,568,3.06991,4.93687
455,456,3.46582,-3.43701,0,0,0,0,0,0,0,-1,1679,568,3.46585,3.43698
462,456,4.68445,-4.45831,0,0,0,0,0,0,0,-1,1686,568,4.68439,4.45833
469,456,4.93201,-2.289,0,0,0,0,0,0,0,-1,1693,568,4.93197,2.28903
476,456,4.8363,-2.79364,0,0,0,0,0,0,0,-1,1700,568,4.83636,2.79363
483,456,12.8522,-13.692,0,0,0,0,0,0,0,-1,1707,568,12.8522,13.6919
490,456,13.5924,-13.1292,0,0,0,0,0,0,0,-1,1714,568,13.5925,13.1291
497,456,13.7311,-12.5373,0.00440297,0.00254477,0.00185282,0.00554659,0.00140116,0.552993,0.00333042,0.041663,1721,568,13.731,12.5373
504,456,13.6891,-11.994,0.00365558,0.00216239,0.00166726,0.00473578,0.00108219,0.574888,0.0028654,0.011788,1728,568,13.6891,11.9939
511,456,13.7089,-11.5255,0.00288185,0.00170003,0.00142824,0.0038366,0.000745282,0.589254,0.00234905,0.0133955,1735,568,13.7088,11.5255
518,456,13.7108,-11.0278,0.0020647,0.00140739,0.00122444,0.00300382,0.000468263,0.654281,0.00186615,0.0163917,1742,568,13.7108,11.0278
525,456,13.6832,-10.5412,0.00125516,0.00110014,0.000999906,0.00218056,0.000174744,0.746715,0.0013991,0.0162606,1749,568,13.6832,10.5412
532,456,13.6931,-10.0274,0.00044275,0.000794345,0.000744446,0.00138347,-0.000146373,0.901347,0.000974774,0.0155846,1756,568,13.6931,10.0274
539,456,13.6865,-9.49792,-0.0003167,0.000469019,0.000509352,0.000719415,-0.000567096,1.11389,0.000744501,0.0196719,1763,568,13.6865,9.49792
546,456,13.6221,-8.99011,-0.00109285,8.85123e-05,0.000202426,0.000122235,-0.00112657,1.40572,0.000794932,0.0214881,1770,568,13.6221,8.9901
553,456,13.583,-8.49274,-0.00178447,-0.000172263,-7.41398e-05,-0.000168861,-0.00178787,-1.52494,0.0011398,0.0137026,1777,568,13.583,8.49276
560,456,13.606,-8.0188,-0.00230125,-0.000357198,-0.000151804,-0.000345416,-0.00231304,-1.49334,0.00144075,0.010835,1784,568,13.606,8.01881
567,456,13.6139,-7.48505,-0.00279947,-0.000593269,-0.000244853,-0.000566421,-0.00282632,-1.46158,0.00172665,0.0160368,1791,568,13.6138,7.48505
574,456,13.5521,-7.1369,-0.00332276,-0.00081918,-0.000316754,-0.000779726,-0.00336221,-1.44688,0.00203206,0.0473897,1798,568,13.5521,7.13689
581,456,13.5653,-6.72638,0,0,0,0,0,0,0,-1,1805,568,13.5653,6.72636
588,456,5.23901,-0.0901489,0,0,0,0,0,0,0,-1,1812,568,5.23906,0.0901656
595,456,6.90063,3.14886,0,0,0,0,0,0,0,-1,1819,568,6.90066,-3.14887
602,456,16.894,4.10938,0,0,0,0,0,0,0,-1,1826,568,16.8941,-4.1094
609,456,14.9966,3.5708,0,0,0,0,0,0,0,-1,1833,568,14.9966,-3.57083
616,456,17.7407,2.6579,0,0,0,0,0,0,0,-1,1840,568,17.7408,-2.6579
623,456,20.6838,1.7121,0,0,0,0,0,0,0,-1,1847,568,20.6838,-1.71208
630,456,0,0,0,0,0,0,0,0,0,-1,1854,568,0,0
637,456,0,0,0,0,0,0,0,0,0,-1,1861,568,0,0
644,456,0,0,0,0,0,0,0,0,0,-1,1868,568,0,0
651,456,0,0,0,0,0,0,0,0,0,-1,1875,568,0,0
658,456,0,0,0,0,0,0,0,0,0,-1,1882,568,0,0
665,456,0,0,0,0,0,0,0,0,0,-1,1889,568,0,0
672,456,0,0,0,0,0,0,0,0,0,-1,1896,568,0,0
679,456,0,0,0,0,0,0,0,0,0,-1,1903,568,0,0
686,456,0,0,0,0,0,0,0,0,0,-1,1910,568,0,0
693,456,0,0,0,0,0,0,0,0,0,-1,1917,568,0,0
700,456,0,0,0,0,0,0,0,0,0,-1,1924,568,0,0
707,456,0,0,0,0,0,0,0,0,0,-1,1931,568,0,0
714,456,0,0,0,0,0,0,0,0,0,-1,1938,568,0,0
721,456,0,0,0,0,0,0,0,0,0,-1,1945,568,0,0
728,456,0,0,0,0,0,0,0,0,0,-1,1952,568,0,0
735,456,0,0,0,0,0,0,0,0,0,-1,1959,568,0,0
742,456,0,0,0,0,0,0,0,0,0,-1,1966,568,0,0
749,456,0,0,0,0,0,0,0,0,0,-1,1973,568,0,0
756,456,0,0,0,0,0,0,0,0,0,-1,1980,568,0,0
763,456,0,0,0,0,0,0,0,0,0,-1,1987,568,0,0
770,456,0,0,0,0,0,0,0,0,0,-1,1994,568,0,0
777,456,0,0,0,0,0,0,0,0,0,-1,2001,568,0,0
784,456,0,0,0,0,0,0,0,0,0,-1,2008,568,0,0
791,456,0,0,0,0,0,0,0,0,0,-1,2015,568,0,0
798,456,0,0,0,0,0,0,0,0,0,-1,2022,568,0,0
805,456,0,0,0,0,0,0,0,0,0,-1,2029,568,0,0
812,456,0,0,0,0,0,0,0,0,0,-1,2036,568,0,0
-700,449,0,0,0,0,0,0,0,0,0,-1,524,575,0,0
-693,449,0,0,0,0,0,0,0,0,0,-1,531,575,0,0
-686,449,0,0,0,0,0,0,0,0,0,-1,538,575,0,0
-679,449,0,0,0,0,0,0,0,0,0,-1,545,575,0,0
-672,449,0,0,0,0,0,0,0,0,0,-1,552,575,0,0
-665,449,0,0,0,0,0,0,0,0,0,-1,559,575,0,0
-658,449,0,0,0,0,0,0,0,0,0,-1,566,575,0,0
-651,449,0,0,0,0,0,0,0,0,0,-1,573,575,0,0
-644,449,0,0,0,0,0,0,0,0,0,-1,580,575,0,0
-637,449,0,0,0,0,0,0,0,0,0,-1,587,575,0,0
-630,449,0,0,0,0,0,0,0,0,0,-1,594,575,0,0
-623,449,0,0,0,0,0,0,0,0,0,-1,601,575,0,0
-616,449,0,0,0,0,0,0,0,0,0,-1,608,575,0,0
-609,449,0,0,0,0,0,0,0,0,0,-1,615,575,0,0
-602,449,0,0,0,0,0,0,0,0,0,-1,622,575,0,0
-595,449,0,0,0,0,0,0,0,0,0,-1,629,575,0,0
-588,449,0,0,0,0,0,0,0,0,0,-1,636,575,0,0
-581,449,0,0,0,0,0,0,0,0,0,-1,643,575,0,0
-574,449,0,0,0,0,0,0,0,0,0,-1,650,575,0,0
-567,449,0,0,0,0,0,0,0,0,0,-1,657,575,0,0
-560,449,0,0,0,0,0,0,0,0,0,-1,664,575,0,0
-553,449,0,0,0,0,0,0,0,0,0,-1,671,575,0,0
-546,449,0,0,0,0,0,0,0,0,0,-1,678,575,0,0
-539,449,0,0,0,0,0,0,0,0,0,-1,685,575,0,0
-532,449,0,0,0,0,0,0,0,0,0,-1,692,575,0,0
-525,449,0,0,0,0,0,0,0,0,0,-1,699,575,0,0
-518,449,0,0,0,0,0,0,0,0,0,-1,706,575,0,0
-511,449,-0.941345,-4.4519,0,0,0,0,0,0,0,-1,713,575,-0.941356,4.45191
-504,449,-14.1078,0.318237,0,0,0,0,0,0,0,-1,720,575,-14.1078,-0.318231
-497,449,-8.61292,-3.09009,0,0,0,0,0,0,0,-1,727,575,-8.61291,3.09011
-490,449,-7.50995,-2.96252,0,0,0,0,0,0,0,-1,734,575,-7.50995,2.96251
-483,449,-5.77789,-2.50061,0,0,0,0,0,0,0,-1,741,575,-5.77792,2.50059
-476,449,-4.1723,-2.07739,0,0,0,0,0,0,0,-1,748,575,-4.17228,2.0774
-469,449,-4.02954,-4.56329,0,0,0,0,0,0,0,-1,755,575,-4.02951,4.56329
-462,449,-5.1084,-7.65106,0,0,0,0,0,0,0,-1,762,575,-5.10838,7.65103
-455,449,-5.38818,-7.93329,0,0,0,0,0,0,0,-1,769,575,-5.38821,7.93328
-448,449,-5.17108,-8.61255,-0.00255565,0.00660832,-0.00321779,0.00762533,-0.00357267,-1.26467,0.00660479,0.0349361,776,575,-5.17107,8.61255
-441,449,-5.18024,-9.24133,-0.00196891,0.00545612,-0.00244859,0.00619089,-0.00270369,-1.27927,0.0052652,0.0171416,783,575,-5.18023,9.24134
-434,449,-5.23535,-9.67987,-0.00153345,0.00435622,-0.00174981,0.00483686,-0.00201409,-1.30273,0.00406577,0.0120392,790,575,-5.23535,9.67984
-427,449,-5.2478,-10.1386,-0.00119003,0.00333538,-0.0011207,0.0035977,-0.00145236,-1.34086,0.00300207,0.0122175,797,575,-5.2478,10.1386
-420,449,-5.25262,-10.6143,-0.000885725,0.0024077,-0.000595944,0.00251222,-0.000990243,-1.39718,0.00208482,0.0131509,804,575,-5.2526,10.6143
-413,449,-5.258,-11.0923,-0.000716217,0.00140235,2.12982e-05,0.00140256,-0.000716431,1.56074,0.0012446,0.0108955,811,575,-5.258,11.0924
-406,449,-5.29248,-11.5739,-0.000441242,0.000648471,0.000464038,0.000819295,-0.000612067,1.21806,0.000829279,0.0100049,818,575,-5.2925,11.5738
-399,449,-5.30511,-12.028,-0.000155135,-1.63306e-05,0.000816925,0.000734135,-0.0009056,0.827774,0.000948425,0.00933131,825,575,-5.30513,12.0279
-392,449,-5.29004,-12.4761,0.000201365,-0.000621041,0.00109489,0.000959725,-0.0013794,0.605765,0.00135772,0.00987964,832,575,-5.29004,12.4761
-385,449,-5.30157,-12.9235,0.000674377,-0.00103307,0.00128337,0.00136205,-0.00172074,0.491899,0.00178386,0.0108604,839,575,-5.30159,12.9235
-378,449,-5.33545,-13.3782,0.00118892,-0.0013212,0.00144039,0.00184433,-0.00197661,0.427025,0.00220646,0.00970105,846,575,-5.33544,13.3782
-371,449,-5.34485,-13.8569,0.00186919,-0.00137645,0.00148031,0.00244293,-0.00195018,0.369752,0.00254167,0.012443,853,575,-5.34486,13.8569
-364,449,-5.37091,-14.299,0.00282116,-0.00111653,0.00128007,0.0032007,-0.00149607,0.288245,0.00277058,0.0419463,860,575,-5.37092,14.299
-357,449,-4.92798,-14.9836,0,0,0,0,0,0,0,-1,867,575,-4.928,14.9837
-350,449,-2.8764,-9.90204,0,0,0,0,0,0,0,-1,874,575,-2.87638,9.90203
-343,449,-2.98492,-9.2254,0,0,0,0,0,0,0,-1,881,575,-2.98491,9.22541
-336,449,-1.29523,-9.54626,0,0,0,0,0,0,0,-1,888,575,-1.29525,9.54626
-329,449,-0.733398,-7.78937,0,0,0,0,0,0,0,-1,895,575,-0.733398,7.78937
-322,449,-0.628845,-3.16669,0,0,0,0,0,0,0,-1,902,575,-0.628861,3.16667
-315,449,-0.540344,-3.21918,0,0,0,0,0,0,0,-1,909,575,-0.540336,3.21917
-308,449,-1.04413,-2.99341,0,0,0,0,0,0,0,-1,916,575,-1.04415,2.99338
-301,449,-1.58691,-2.80725,0,0,0,0,0,0,0,-1,923,575,-1.58692,2.80728
-294,449,-3.71118,-2.76086,0,0,0,0,0,0,0,-1,930,575,-3.71119,2.76087
-287,449,-4.4082,-2.69525,0,0,0,0,0,0,0,-1,937,575,-4.40822,2.69526
-280,449,-3.80438,-6.26447,0,0,0,0,0,0,0,-1,944,575,-3.80439,6.26444
-273,449,0,0,0,0,0,0,0,0,0,-1,951,575,0,0
-266,449,0,0,0,0,0,0,0,0,0,-1,958,575,0,0
-259,449,0,0,0,0,0,0,0,0,0,-1,965,575,0,0
-252,449,0,0,0,0,0,0,0,0,0,-1,972,575,0,0
-245,449,0,0,0,0,0,0,0,0,0,-1,979,575,0,0
-238,449,0,0,0,0,0,0,0,0,0,-1,986,575,0,0
-231,449,0,0,0,0,0,0,0,0,0,-1,993,575,0,0
-224,449,0,0,0,0,0,0,0,0,0,-1,1000,575,0,0
-217,449,0,0,0,0,0,0,0,0,0,-1,1007,575,0,0
-210,449,0,0,0,0,0,0,0,0,0,-1,1014,575,0,0
-203,449,0,0,0,0,0,0,0,0,0,-1,1021,575,0,0
-196,449,0,0,0,0,0,0,0,0,0,-1,1028,575,0,0
-189,449,0,0,0,0,0,0,0,0,0,-1,1035,575,0,0
-182,449,0,0,0,0,0,0,0,0,0,-1,1042,575,0,0
-175,449,0,0,0,0,0,0,0,0,0,-1,1049,575,0,0
-168,449,0,0,0,0,0,0,0,0,0,-1,1056,575,0,0
-161,449,0,0,0,0,0,0,0,0,0,-1,1063,575,0,0
-154,449,0,0,0,0,0,0,0,0,0,-1,1070,575,0,0
-147,449,0,0,0,0,0,0,0,0,0,-1,1077,575,0,0
-140,449,0,0,0,0,0,0,0,0,0,-1,1084,575,0,0
-133,449,0,0,0,0,0,0,0,0,0,-1,1091,575,0,0
-126,449,0,0,0,0,0,0,0,0,0,-1,1098,575,0,0
-119,449,0,0,0,0,0,0,0,0,0,-1,1105,575,0,0
-112,449,0,0,0,0,0,0,0,0,0,-1,1112,575,0,0
-105,449,0,0,0,0,0,0,0,0,0,-1,1119,575,0,0
-98,449,0,0,0,0,0,0,0,0,0,-1,1126,575,0,0
-91,449,0,0,0,0,0,0,0,0,0,-1,1133,575,0,0
-84,449,0,0,0,0,0,0,0,0,0,-1,1140,575,0,0
-77,449,0,0,0,0,0,0,0,0,0,-1,1147,575,0,0
-70,449,0,0,0,0,0,0,0,0,0,-1,1154,575,0,0
-63,449,0,0,0,0,0,0,0,0,0,-1,1161,575,0,0
-56,449,0,0,0,0,0,0,0,0,0,-1,1168,575,0,0
-49,449,0,0,0,0,0,0,0,0,0,-1,1175,575,0,0
-42,449,0,0,0,0,0,0,0,0,0,-1,1182,575,0,0
-35,449,0,0,0,0,0,0,0,0,0,-1,1189,575,0,0
-28,449,0,0,0,0,0,0,0,0,0,-1,1196,575,0,0
-21,449,0,0,0,0,0,0,0,0,0,-1,1203,575,0,0
-14,449,0,0,0,0,0,0,0,0,0,-1,1210,575,0,0
-7,449,0,0,0,0,0,0,0,0,0,-1,1217,575,0,0
0,449,0,0,0,0,0,0,0,0,0,-1,1224,575,0,0
7,449,0,0,0,0,0,0,0,0,0,-1,1231,575,0,0
14,449,0,0,0,0,0,0,0,0,0,-1,1238,575,0,0
21,449,0,0,0,0,0,0,0,0,0,-1,1245,575,0,0
28,449,0,0,0,0,0,0,0,0,0,-1,1252,575,0,0
35,449,0,0,0,0,0,0,0,0,0,-1,1259,575,0,0
42,449,0,0,0,0,0,0,0,0,0,-1,1266,575,0,0
49,449,0,0,0,0,0,0,0,0,0,-1,1273,575,0,0
56,449,0,0,0,0,0,0,0,0,0,-1,1280,575,0,0
63,449,0,0,0,0,0,0,0,0,0,-1,1287,575,0,0
70,449,0,0,0,0,0,0,0,0,0,-1,1294,575,0,0
77,449,0,0,0,0,0,0,0,0,0,-1,1301,575,0,0
84,449,0,0,0,0,0,0,0,0,0,-1,1308,575,0,0
91,449,0,0,0,0,0,0,0,0,0,-1,1315,575,0,0
98,449,0,0,0,0,0,0,0,0,0,-1,1322,575,0,0
105,449,0,0,0,0,0,0,0,0,0,-1,1329,575,0,0
112,449,0,0,0,0,0,0,0,0,0,-1,1336,575,0,0
119,449,0,0,0,0,0,0,0,0,0,-1,1343,575,0,0
126,449,0,0,0,0,0,0,0,0,0,-1,1350,575,0,0
133,449,0,0,0,0,0,0,0,0,0,-1,1357,575,0,0
140,449,0,0,0,0,0,0,0,0,0,-1,1364,575,0,0
147,449,0,0,0,0,0,0,0,0,0,-1,1371,575,0,0
154,449,0,0,0,0,0,0,0,0,0,-1,1378,575,0,0
161,449,0,0,0,0,0,0,0,0,0,-1,1385,575,0,0
168,449,0,0,0,0,0,0,0,0,0,-1,1392,575,0,0
175,449,0,0,0,0,0,0,0,0,0,-1,1399,575,0,0
182,449,0,0,0,0,0,0,0,0,0,-1,1406,575,0,0
189,449,0,0,0,0,0,0,0,0,0,-1,1413,575,0,0
196,449,0,0,0,0,0,0,0,0,0,-1,1420,575,0,0
203,449,0,0,0,0,0,0,0,0,0,-1,1427,575,0,0
210,449,0,0,0,0,0,0,0,0,0,-1,1434,575,0,0
217,449,0,0,0,0,0,0,0,0,0,-1,1441,575,0,0
224,449,0,0,0,0,0,0,0,0,0,-1,1448,575,0,0
231,449,0,0,0,0,0,0,0,0,0,-1,1455,575,0,0
238,449,0,0,0,0,0,0,0,0,0,-1,1462,575,0,0
245,449,0,0,0,0,0,0,0,0,0,-1,1469,575,0,0
252,449,0,0,0,0,0,0,0,0,0,-1,1476,575,0,0
259,449,0,0,0,0,0,0,0,0,0,-1,1483,575,0,0
266,449,0,0,0,0,0,0,0,0,0,-1,1490,575,0,0
273,449,0,0,0,0,0,0,0,0,0,-1,1497,575,0,0
280,449,0,0,0,0,0,0,0,0,0,-1,1504,575,0,0
287,449,0,0,0,0,0,0,0,0,0,-1,1511,575,0,0
294,449,0,0,0,0,0,0,0,0,0,-1,1518,575,0,0
301,449,0,0,0,0,0,0,0,0,0,-1,1525,575,0,0
308,449,0,0,0,0,0,0,0,0,0,-1,1532,575,0,0
315,449,0,0,0,0,0,0,0,0,0,-1,1539,575,0,0
322,449,0,0,0,0,0,0,0,0,0,-1,1546,575,0,0
329,449,0,0,0,0,0,0,0,0,0,-1,1553,575,0,0
336,449,0,0,0,0,0,0,0,0,0,-1,1560,575,0,0
343,449,0,0,0,0,0,0,0,0,0,-1,1567,575,0,0
350,449,0,0,0,0,0,0,0,0,0,-1,1574,575,0,0
357,449,0,0,0,0,0,0,0,0,0,-1,1581,575,0,0
364,449,0,0,0,0,0,0,0,0,0,-1,1588,575,0,0
371,449,0,0,0,0,0,0,0,0,0,-1,1595,575,0,0
378,449,0,0,0,0,0,0,0,0,0,-1,1602,575,0,0
385,449,0,0,0,0,0,0,0,0,0,-1,1609,575,0,0
392,449,7.95471,3.66217,0,0,0,0,0,0,0,-1,1616,575,7.95471,-3.66218
399,449,19.9791,5.565,0,0,0,0,0,0,0,-1,1623,575,19.9791,-5.56499
406,449,24.9847,4.55969,0,0,0,0,0,0,0,-1,1630,575,24.9848,-4.55968
413,449,30.4159,3.15027,0,0,0,0,0,0,0,-1,1637,575,30.4159,-3.15028
420,449,23.9675,1.29718,0,0,0,0,0,0,0,-1,1644,575,23.9675,-1.29721
427,449,24.4276,-0.596558,0,0,0,0,0,0,0,-1,1651,575,24.4277,0.596569
434,449,25.61,-2.96594,0,0,0,0,0,0,0,-1,1658,575,25.61,2.96595
441,449,3.89856,-6.06458,0,0,0,0,0,0,0,-1,1665,575,3.89855,6.06459
448,449,4.03198,-5.18207,0,0,0,0,0,0,0,-1,1672,575,4.03197,5.18207
455,449,4.21948,-4.09467,0,0,0,0,0,0,0,-1,1679,575,4.21952,4.09465
462,449,4.23181,-2.96924,0,0,0,0,0,0,0,-1,1686,575,4.23185,2.96926
469,449,4.51672,-2.95135,0,0,0,0,0,0,0,-1,1693,575,4.51672,2.95135
476,449,4.71838,-1.86688,0,0,0,0,0,0,0,-1,1700,575,4.71842,1.86689
483,449,4.87878,-1.73126,0,0,0,0,0,0,0,-1,1707,575,4.87875,1.73128
490,449,5.73279,-2.74573,0,0,0,0,0,0,0,-1,1714,575,5.73282,2.74575
497,449,14.1655,-12.7189,0,0,0,0,0,0,0,-1,1721,575,14.1655,12.7189
504,449,14.1268,-12.0373,0.00455026,0.00263195,0.00218075,0.00597347,0.00120874,0.578217,0.00364679,0.0450352,1728,575,14.1269,12.0373
511,449,14.1809,-11.4998,0.00375231,0.00207752,0.00182952,0.00492697,0.000902861,0.570774,0.00302888,0.0111208,1735,575,14.1809,11.4997
518,449,14.194,-11.0206,0.00298067,0.00172957,0.00158181,0.00405613,0.000654117,0.597102,0.00251457,0.0129844,1742,575,14.194,11.0206
525,449,14.1649,-10.5328,0.00219052,0.00145023,0.00133777,0.00320841,0.000432341,0.650432,0.00201038,0.0123847,1749,575,14.1649,10.5328
532,449,14.1379,-10.0337,0.00139147,0.00113909,0.0010526,0.00232542,0.00020514,0.725743,0.00148663,0.0103906,1756,575,14.1379,10.0337
539,449,14.1074,-9.51508,0.000669484,0.000830808,0.000813055,0.00156719,-6.69011e-05,0.834841,0.00106779,0.0139696,1763,575,14.1074,9.5151
546,449,14.1005,-8.96924,-5.4152e-05,0.000476681,0.000515248,0.000790856,-0.000368327,1.02323,0.000683914,0.0241333,1770,575,14.1005,8.96923
553,449,14.0908,-8.51105,-0.000707737,0.000220221,0.000253411,0.000284913,-0.00077243,1.32085,0.000631717,0.0174033,1777,575,14.0908,8.51107
560,449,14.1057,-8.0351,-0.00121448,5.40303e-05,0.00018695,8.10085e-05,-0.00124146,1.42748,0.000855922,0.0145845,1784,575,14.1057,8.0351
567,449,14.0834,-7.52393,-0.00168574,-8.73578e-05,0.000130652,-7.67488e-05,-0.00169635,1.48977,0.0011062,0.0102849,1791,575,14.0834,7.52392
574,449,14.0912,-6.97845,-0.00213832,-0.000219089,0.000117477,-0.000211924,-0.00214548,1.50989,0.00136518,0.0224113,1798,575,14.0911,6.97846
581,449,14.1227,-6.36737,0,0,0,0,0,0,0,-1,1805,575,14.1227,6.36736
588,449,12.3274,-4.5672,0,0,0,0,0,0,0,-1,1812,575,12.3274,4.5672
595,449,11.2511,-2.25397,0,0,0,0,0,0,0,-1,1819,575,11.2511,2.25397
602,449,9.46167,4.17444,0,0,0,0,0,0,0,-1,1826,575,9.46164,-4.17442
609,449,12.2028,3.18652,0,0,0,0,0,0,0,-1,1833,575,12.2027,-3.18655
616,449,14.9438,2.19867,0,0,0,0,0,0,0,-1,1840,575,14.9438,-2.19867
623,449,9.83789,-0.0820313,0,0,0,0,0,0,0,-1,1847,575,9.83794,0.0820443
630,449,8.90686,4.99329,0,0,0,0,0,0,0,-1,1854,575,8.90685,-4.99327
637,449,0,0,0,0,0,0,0,0,0,-1,1861,575,0,0
644,449,0,0,0,0,0,0,0,0,0,-1,1868,575,0,0
651,449,0,0,0,0,0,0,0,0,0,-1,1875,575,0,0
658,449,0,0,0,0,0,0,0,0,0,-1,1882,575,0,0
665,449,0,0,0,0,0,0,0,0,0,-1,1889,575,0,0
672,449,0,0,0,0,0,0,0,0,0,-1,1896,575,0,0
679,449,0,0,0,0,0,0,0,0,0,-1,1903,575,0,0
686,449,0,0,0,0,0,0,0,0,0,-1,1910,575,0,0
693,449,0,0,0,0,0,0,0,0,0,-1,1917,575,0,0
700,449,0,0,0,0,0,0,0,0,0,-1,1924,575,0,0
707,449,0,0,0,0,0,0,0,0,0,-1,1931,575,0,0
714,449,0,0,0,0,0,0,0,0,0,-1,1938,575,0,0
721,449,0,0,0,0,0,0,0,0,0,-1,1945,575,0,0
728,449,0,0,0,0,0,0,0,0,0,-1,1952,575,0,0
735,449,0,0,0,0,0,0,0,0,0,-1,1959,575,0,0
742,449,0,0,0,0,0,0,0,0,0,-1,1966,575,0,0
749,449,0,0,0,0,0,0,0,0,0,-1,1973,575,0,0
756,449,0,0,0,0,0,0,0,0,0,-1,1980,575,0,0
763,449,0,0,0,0,0,0,0,0,0,-1,1987,575,0,0
770,449,0,0,0,0,0,0,0,0,0,-1,1994,575,0,0
777,449,0,0,0,0,0,0,0,0,0,-1,2001,575,0,0
784,449,0,0,0,0,0,0,0,0,0,-1,2008,575,0,0
791,449,0,0,0,0,0,0,0,0,0,-1,2015,575,0,0
798,449,0,0,0,0,0,0,0,0,0,-1,2022,575,0,0
805,449,0,0,0,0,0,0,0,0,0,-1,2029,575,0,0
812,449,0,0,0,0,0,0,0,0,0,-1,2036,575,0,0
-700,442,0,0,0,0,0,0,0,0,0,-1,524,582,0,0
-693,442,0,0,0,0,0,0,0,0,0,-1,531,582,0,0
-686,442,0,0,0,0,0,0,0,0,0,-1,538,582,0,0
-679,442,0,0,0,0,0,0,0,0,0,-1,545,582,0,0
-672,442,0,0,0,0,0,0,0,0,0,-1,552,582,0,0
-665,442,0,0,0,0,0,0,0,0,0,-1,559,582,0,0
-658,442,0,0,0,0,0,0,0,0,0,-1,566,582,0,0
-651,442,0,0,0,0,0,0,0,0,0,-1,573,582,0,0
-644,442,0,0,0,0,0,0,0,0,0,-1,580,582,0,0
-637,442,0,0,0,0,0,0,0,0,0,-1,587,582,0,0
-630,442,0,0,0,0,0,0,0,0,0,-1,594,582,0,0
-623,442,0,0,0,0,0,0,0,0,0,-1,601,582,0,0
-616,442,0,0,0,0,0,0,0,0,0,-1,608,582,0,0
-609,442,0,0,0,0,0,0,0,0,0,-1,615,582,0,0
-602,442,0,0,0,0,0,0,0,0,0,-1,622,582,0,0
-595,442,0,0,0,0,0,0,0,0,0,-1,629,582,0,0
-588,442,0,0,0,0,0,0,0,0,0,-1,636,582,0,0
-581,442,0,0,0,0,0,0,0,0,0,-1,643,582,0,0
-574,442,0,0,0,0,0,0,0,0,0,-1,650,582,0,0
-567,442,0,0,0,0,0,0,0,0,0,-1,657,582,0,0
-560,442,0,0,0,0,0,0,0,0,0,-1,664,582,0,0
-553,442,0,0,0,0,0,0,0,0,0,-1,671,582,0,0
-546,442,0,0,0,0,0,0,0,0,0,-1,678,582,0,0
-539,442,0,0,0,0,0,0,0,0,0,-1,685,582,0,0
-532,442,0,0,0,0,0,0,0,0,0,-1,692,582,0,0
-525,442,0,0,0,0,0,0,0,0,0,-1,699,582,0,0
-518,442,-0.493774,-5.72943,0,0,0,0,0,0,0,-1,706,582,-0.493791,5.72946
-511,442,-1.33008,-6.18512,0,0,0,0,0,0,0,-1,713,582,-1.33006,6.18511
-504,442,-3.20807,-6.34082,0,0,0,0,0,0,0,-1,720,582,-3.2081,6.34083
-497,442,-13.6886,-0.250122,0,0,0,0,0,0,0,-1,727,582,-13.6886,0.250143
-490,442,-9.09039,-3.64862,0,0,0,0,0,0,0,-1,734,582,-9.09037,3.64861
-483,442,-7.36499,-1.01892,0,0,0,0,0,0,0,-1,741,582,-7.365,1.01895
-476,442,-4.62225,-3.47467,0,0,0,0,0,0,0,-1,748,582,-4.62225,3.47465
-469,442,-5.28723,-6.88074,0,0,0,0,0,0,0,-1,755,582,-5.28723,6.88071
-462,442,-5.54376,-7.67017,-0.00311257,0.00675119,-0.00424132,0.0083241,-0.00468547,-1.21567,0.00760837,0.0430523,762,582,-5.54375,7.67015
-455,442,-5.73798,-8.18323,-0.00223398,0.00598373,-0.00361089,0.00734491,-0.00359515,-1.21031,0.00643873,0.0380731,769,582,-5.73798,8.18324
-448,442,-5.65082,-8.70245,-0.00177238,0.00494919,-0.00278188,0.00595118,-0.00277436,-1.22508,0.00514778,0.0171471,776,582,-5.65084,8.70245
-441,442,-5.68903,-9.1803,-0.00138634,0.00388229,-0.00198358,0.00454559,-0.00204963,-1.24809,0.00389759,0.0146063,783,582,-5.68904,9.18032
-434,442,-5.7085,-9.65051,-0.00112601,0.00289615,-0.00125505,0.00325564,-0.00148549,-1.29183,0.00280017,0.0132146,790,582,-5.70851,9.6505
-427,442,-5.72009,-10.1212,-0.000924279,0.00193875,-0.000574048,0.00204956,-0.00103509,-1.38011,0.00181274,0.0130335,797,582,-5.72011,10.1212
-420,442,-5.71954,-10.6022,-0.000748837,0.00107856,1.24828e-05,0.00107865,-0.000748922,1.56397,0.00106086,0.0141018,804,582,-5.71957,10.6022
-413,442,-5.72229,-11.0869,-0.000701741,0.000151929,0.00069635,0.000541851,-0.00109166,1.06035,0.000960751,0.0120344,811,582,-5.72227,11.0869
-406,442,-5.74908,-11.5703,-0.000565241,-0.000541452,0.00120744,0.000654151,-0.00176084,0.790324,0.00144227,0.00962813,818,582,-5.74909,11.5702
-399,442,-5.76093,-12.0273,-0.000399227,-0.0011281,0.00160994,0.000887013,-0.00241434,0.674091,0.00197286,0.00827514,825,582,-5.76095,12.0273
-392,442,-5.75244,-12.4575,-0.000136338,-0.00161299,0.00191956,0.00118199,-0.00293132,0.601804,0.00244536,0.00992295,832,582,-5.75241,12.4575
-385,442,-5.76721,-12.8977,0.000238777,-0.0018845,0.00212462,0.00155224,-0.00319796,0.553701,0.00279685,0.0119265,839,582,-5.76719,12.8977
-378,442,-5.78613,-13.3741,0.000654814,-0.00202039,0.00231389,0.00198991,-0.00335548,0.523328,0.00311955,0.0138618,846,582,-5.78615,13.3741
-371,442,-5.75031,-13.8635,0.00132348,-0.00182086,0.00233348,0.00256499,-0.00306238,0.488955,0.0032532,0.03766,853,582,-5.7503,13.8635
-364,442,-5.85132,-14.6098,0,0,0,0,0,0,0,-1,860,582,-5.85131,14.6098
-357,442,-4.9115,-11.2649,0,0,0,0,0,0,0,-1,867,582,-4.91147,11.2649
-350,442,-1.75372,-6.27618,0,0,0,0,0,0,0,-1,874,582,-1.75371,6.27618
-343,442,-1.4599,-4.63605,0,0,0,0,0,0,0,-1,881,582,-1.4599,4.63607
-336,442,-1.4054,-2.64313,0,0,0,0,0,0,0,-1,888,582,-1.40539,2.64315
-329,442,-0.952576,-2.76923,0,0,0,0,0,0,0,-1,895,582,-0.952571,2.7692
-322,442,-0.972534,-2.63208,0,0,0,0,0,0,0,-1,902,582,-0.972512,2.6321
-315,442,-0.445557,-2.89764,0,0,0,0,0,0,0,-1,909,582,-0.445582,2.89765
-308,442,-0.654175,-3.07831,0,0,0,0,0,0,0,-1,916,582,-0.654145,3.07832
-301,442,-1.37427,-2.41455,0,0,0,0,0,0,0,-1,923,582,-1.37425,2.41453
-294,442,-2.99963,-2.07855,0,0,0,0,0,0,0,-1,930,582,-2.99964,2.07857
-287,442,-5.62799,-2.76422,0,0,0,0,0,0,0,-1,937,582,-5.628,2.76424
-280,442,0,0,0,0,0,0,0,0,0,-1,944,582,0,0
-273,442,0,0,0,0,0,0,0,0,0,-1,951,582,0,0
-266,442,0,0,0,0,0,0,0,0,0,-1,958,582,0,0
-259,442,0,0,0,0,0,0,0,0,0,-1,965,582,0,0
-252,442,0,0,0,0,0,0,0,0,0,-1,972,582,0,0
-245,442,0,0,0,0,0,0,0,0,0,-1,979,582,0,0
-238,442,0,0,0,0,0,0,0,0,0,-1,986,582,0,0
-231,442,0,0,0,0,0,0,0,0,0,-1,993,582,0,0
-224,442,0,0,0,0,0,0,0,0,0,-1,1000,582,0,0
-217,442,0,0,0,0,0,0,0,0,0,-1,1007,582,0,0
-210,442,0,0,0,0,0,0,0,0,0,-1,1014,582,0,0
-203,442,0,0,0,0,0,0,0,0,0,-1,1021,582,0,0
-196,442,0,0,0,0,0,0,0,0,0,-1,1028,582,0,0
-189,442,0,0,0,0,0,0,0,0,0,-1,1035,582,0,0
-182,442,0,0,0,0,0,0,0,0,0,-1,1042,582,0,0
-175,442,0,0,0,0,0,0,0,0,0,-1,1049,582,0,0
-168,442,0,0,0,0,0,0,0,0,0,-1,1056,582,0,0
-161,442,0,0,0,0,0,0,0,0,0,-1,1063,582,0,0
-154,442,0,0,0,0,0,0,0,0,0,-1,1070,582,0,0
-147,442,0,0,0,0,0,0,0,0,0,-1,1077,582,0,0
-140,442,0,0,0,0,0,0,0,0,0,-1,1084,582,0,0
-133,442,0,0,0,0,0,0,0,0,0,-1,1091,582,0,0
-126,442,0,0,0,0,0,0,0,0,0,-1,1098,582,0,0
-119,442,0,0,0,0,0,0,0,0,0,-1,1105,582,0,0
-112,442,0,0,0,0,0,0,0,0,0,-1,1112,582,0,0
-105,442,0,0,0,0,0,0,0,0,0,-1,1119,582,0,0
-98,442,0,0,0,0,0,0,0,0,0,-1,1126,582,0,0
-91,442,0,0,0,0,0,0,0,0,0,-1,1133,582,0,0
-84,442,0,0,0,0,0,0,0,0,0,-1,1140,582,0,0
-77,442,0,0,0,0,0,0,0,0,0,-1,1147,582,0,0
-70,442,0,0,0,0,0,0,0,0,0,-1,1154,582,0,0
-63,442,0,0,0,0,0,0,0,0,0,-1,1161,582,0,0
-56,442,0,0,0,0,0,0,0,0,0,-1,1168,582,0,0
-49,442,0,0,0,0,0,0,0,0,0,-1,1175,582,0,0
-42,442,0,0,0,0,0,0,0,0,0,-1,1182,582,0,0
-35,442,0,0,0,0,0,0,0,0,0,-1,1189,582,0,0
-28,442,0,0,0,0,0,0,0,0,0,-1,1196,582,0,0
-21,442,0,0,0,0,0,0,0,0,0,-1,1203,582,0,0
-14,442,0,0,0,0,0,0,0,0,0,-1,1210,582,0,0
-7,442,0,0,0,0,0,0,0,0,0,-1,1217,582,0,0
0,442,0,0,0,0,0,0,0,0,0,-1,1224,582,0,0
7,442,0,0,0,0,0,0,0,0,0,-1,1231,582,0,0
14,442,0,0,0,0,0,0,0,0,0,-1,1238,582,0,0
21,442,0,0,0,0,0,0,0,0,0,-1,1245,582,0,0
28,442,0,0,0,0,0,0,0,0,0,-1,1252,582,0,0
35,442,0,0,0,0,0,0,0,0,0,-1,1259,582,0,0
42,442,0,0,0,0,0,0,0,0,0,-1,1266,582,0,0
49,442,0,0,0,0,0,0,0,0,0,-1,1273,582,0,0
56,442,0,0,0,0,0,0,0,0,0,-1,1280,582,0,0
63,442,0,0,0,0,0,0,0,0,0,-1,1287,582,0,0
70,442,0,0,0,0,0,0,0,0,0,-1,1294,582,0,0
77,442,0,0,0,0,0,0,0,0,0,-1,1301,582,0,0
84,442,0,0,0,0,0,0,0,0,0,-1,1308,582,0,0
91,442,0,0,0,0,0,0,0,0,0,-1,1315,582,0,0
98,442,0,0,0,0,0,0,0,0,0,-1,1322,582,0,0
105,442,0,0,0,0,0,0,0,0,0,-1,1329,582,0,0
112,442,0,0,0,0,0,0,0,0,0,-1,1336,582,0,0
119,442,0,0,0,0,0,0,0,0,0,-1,1343,582,0,0
126,442,0,0,0,0,0,0,0,0,0,-1,1350,582,0,0
133,442,0,0,0,0,0,0,0,0,0,-1,1357,582,0,0
140,442,0,0,0,0,0,0,0,0,0,-1,1364,582,0,0
147,442,0,0,0,0,0,0,0,0,0,-1,1371,582,0,0
154,442,0,0,0,0,0,0,0,0,0,-1,1378,582,0,0
161,442,0,0,0,0,0,0,0,0,0,-1,1385,582,0,0
168,442,0,0,0,0,0,0,0,0,0,-1,1392,582,0,0
175,442,0,0,0,0,0,0,0,0,0,-1,1399,582,0,0
182,442,0,0,0,0,0,0,0,0,0,-1,1406,582,0,0
189,442,0,0,0,0,0,0,0,0,0,-1,1413,582,0,0
196,442,0,0,0,0,0,0,0,0,0,-1,1420,582,0,0
203,442,0,0,0,0,0,0,0,0,0,-1,1427,582,0,0
210,442,0,0,0,0,0,0,0,0,0,-1,1434,582,0,0
217,442,0,0,0,0,0,0,0,0,0,-1,1441,582,0,0
224,442,0,0,0,0,0,0,0,0,0,-1,1448,582,0,0
231,442,0,0,0,0,0,0,0,0,0,-1,1455,582,0,0
238,442,0,0,0,0,0,0,0,0,0,-1,1462,582,0,0
245,442,0,0,0,0,0,0,0,0,0,-1,1469,582,0,0
252,442,0,0,0,0,0,0,0,0,0,-1,1476,582,0,0
259,442,0,0,0,0,0,0,0,0,0,-1,1483,582,0,0
266,442,0,0,0,0,0,0,0,0,0,-1,1490,582,0,0
273,442,0,0,0,0,0,0,0,0,0,-1,1497,582,0,0
280,442,0,0,0,0,0,0,0,0,0,-1,1504,582,0,0
287,442,0,0,0,0,0,0,0,0,0,-1,1511,582,0,0
294,442,0,0,0,0,0,0,0,0,0,-1,1518,582,0,0
301,442,0,0,0,0,0,0,0,0,0,-1,1525,582,0,0
308,442,0,0,0,0,0,0,0,0,0,-1,1532,582,0,0
315,442,0,0,0,0,0,0,0,0,0,-1,1539,582,0,0
322,442,0,0,0,0,0,0,0,0,0,-1,1546,582,0,0
329,442,0,0,0,0,0,0,0,0,0,-1,1553,582,0,0
336,442,0,0,0,0,0,0,0,0,0,-1,1560,582,0,0
343,442,0,0,0,0,0,0,0,0,0,-1,1567,582,0,0
350,442,0,0,0,0,0,0,0,0,0,-1,1574,582,0,0
357,442,0,0,0,0,0,0,0,0,0,-1,1581,582,0,0
364,442,0,0,0,0,0,0,0,0,0,-1,1588,582,0,0
371,442,0,0,0,0,0,0,0,0,0,-1,1595,582,0,0
378,442,0,0,0,0,0,0,0,0,0,-1,1602,582,0,0
385,442,0,0,0,0,0,0,0,0,0,-1,1609,582,0,0
392,442,0,0,0,0,0,0,0,0,0,-1,1616,582,0,0
399,442,0,0,0,0,0,0,0,0,0,-1,1623,582,0,0
406,442,17.6321,4.08295,0,0,0,0,0,0,0,-1,1630,582,17.6321,-4.08293
413,442,25.4768,2.74445,0,0,0,0,0,0,0,-1,1637,582,25.4768,-2.74444
420,442,22.7478,1.55011,0,0,0,0,0,0,0,-1,1644,582,22.7478,-1.55009
427,442,23.2969,-0.456787,0,0,0,0,0,0,0,-1,1651,582,23.2968,0.456769
434,442,23.9512,-2.49365,0,0,0,0,0,0,0,-1,1658,582,23.9512,2.49366
441,442,24.8251,-4.43958,0,0,0,0,0,0,0,-1,1665,582,24.8251,4.43956
448,442,4.7749,-5.88562,0,0,0,0,0,0,0,-1,1672,582,4.7749,5.8856
455,442,4.87024,-4.60687,0,0,0,0,0,0,0,-1,1679,582,4.87019,4.60686
462,442,5.02307,-3.72821,0,0,0,0,0,0,0,-1,1686,582,5.02311,3.7282
469,442,5.12976,-2.98834,0,0,0,0,0,0,0,-1,1693,582,5.12971,2.98834
476,442,5.4624,1.76947,0,0,0,0,0,0,0,-1,1700,582,5.46234,-1.76944
483,442,5.98486,1.87042,0,0,0,0,0,0,0,-1,1707,582,5.98492,-1.87045
490,442,5.04407,-2.35834,0,0,0,0,0,0,0,-1,1714,582,5.04411,2.35837
497,442,6.20984,-3.07831,0,0,0,0,0,0,0,-1,1721,582,6.2098,3.07833
504,442,14.5336,-12.071,0,0,0,0,0,0,0,-1,1728,582,14.5336,12.071
511,442,14.634,-11.4763,0.00452221,0.00266661,0.0021331,0.00592055,0.00126828,0.580263,0.00359954,0.0309495,1735,582,14.634,11.4763
518,442,14.6797,-10.9592,0.00378374,0.00216423,0.00188361,0.00502427,0.000923691,0.582393,0.00308802,0.0122819,1742,582,14.6796,10.9593
525,442,14.6525,-10.4898,0.00299089,0.00185145,0.00165082,0.00416753,0.000674801,0.619241,0.00258297,0.0102992,1749,582,14.6524,10.4898
532,442,14.644,-9.99933,0.00218691,0.00147566,0.00135474,0.00323192,0.000430643,0.657041,0.00202638,0.0104127,1756,582,14.6441,9.99934
539,442,14.6155,-9.48517,0.00149757,0.00114845,0.00111922,0.00245577,0.00019026,0.708038,0.00157759,0.0125415,1763,582,14.6155,9.48517
546,442,14.6248,-8.98706,0.00082833,0.000798064,0.000838272,0.00165161,-2.52117e-05,0.776373,0.00110957,0.0164953,1770,582,14.6247,8.98706
553,442,14.5847,-8.51129,0.00020571,0.000520348,0.00058507,0.000968881,-0.000242822,0.916736,0.000740258,0.0171039,1777,582,14.5847,8.51128
560,442,14.5844,-8.02356,-0.000297596,0.00034653,0.000501806,0.000620734,-0.0005718,1.0707,0.000688703,0.015272,1784,582,14.5843,8.02357
567,442,14.574,-7.51746,-0.000742977,0.000251636,0.000452097,0.00042642,-0.000917761,1.20189,0.000793157,0.0107933,1791,582,14.5739,7.51746
574,442,14.5863,-7.01416,-0.00112124,0.000190227,0.000475717,0.000344612,-0.00127563,1.25699,0.000985582,0.0127164,1798,582,14.5863,7.01413
581,442,14.6273,-6.43445,-0.00144421,0.000192545,0.00060196,0.000390089,-0.00164175,1.2537,0.00124507,0.0242363,1805,582,14.6273,6.43444
588,442,14.7046,-5.82715,0,0,0,0,0,0,0,-1,1812,582,14.7046,5.82717
595,442,14.496,-5.62518,0,0,0,0,0,0,0,-1,1819,582,14.496,5.62516
602,442,11.4385,-1.74512,0,0,0,0,0,0,0,-1,1826,582,11.4385,1.74509
609,442,12.761,2.97223,0,0,0,0,0,0,0,-1,1833,582,12.761,-2.97221
616,442,9.78345,-0.103394,0,0,0,0,0,0,0,-1,1840,582,9.78341,0.103424
623,442,9.23828,0.326721,0,0,0,0,0,0,0,-1,1847,582,9.23829,-0.326727
630,442,7.74304,2.3924,0,0,0,0,0,0,0,-1,1854,582,7.7431,-2.39238
637,442,5.87805,1.84027,0,0,0,0,0,0,0,-1,1861,582,5.87807,-1.84025
644,442,0,0,0,0,0,0,0,0,0,-1,1868,582,0,0
651,442,0,0,0,0,0,0,0,0,0,-1,1875,582,0,0
658,442,0,0,0,0,0,0,0,0,0,-1,1882,582,0,0
665,442,0,0,0,0,0,0,0,0,0,-1,1889,582,0,0
672,442,0,0,0,0,0,0,0,0,0,-1,1896,582,0,0
679,442,0,0,0,0,0,0,0,0,0,-1,1903,582,0,0
686,442,0,0,0,0,0,0,0,0,0,-1,1910,582,0,0
693,442,0,0,0,0,0,0,0,0,0,-1,1917,582,0,0
700,442,0,0,0,0,0,0,0,0,0,-1,1924,582,0,0
707,442,0,0,0,0,0,0,0,0,0,-1,1931,582,0,0
714,442,0,0,0,0,0,0,0,0,0,-1,1938,582,0,0
721,442,0,0,0,0,0,0,0,0,0,-1,1945,582,0,0
728,442,0,0,0,0,0,0,0,0,0,-1,1952,582,0,0
735,442,0,0,0,0,0,0,0,0,0,-1,1959,582,0,0
742,442,0,0,0,0,0,0,0,0,0,-1,1966,582,0,0
749,442,0,0,0,0,0,0,0,0,0,-1,1973,582,0,0
756,442,0,0,0,0,0,0,0,0,0,-1,1980,582,0,0
763,442,0,0,0,0,0,0,0,0,0,-1,1987,582,0,0
770,442,0,0,0,0,0,0,0,0,0,-1,1994,582,0,0
777,442,0,0,0,0,0,0,0,0,0,-1,2001,582,0,0
784,442,0,0,0,0,0,0,0,0,0,-1,2008,582,0,0
791,442,0,0,0,0,0,0,0,0,0,-1,2015,582,0,0
798,442,0,0,0,0,0,0,0,0,0,-1,2022,582,0,0
805,442,0,0,0,0,0,0,0,0,0,-1,2029,582,0,0
812,442,0,0,0,0,0,0,0,0,0,-1,2036,582,0,0
-700,435,0,0,0,0,0,0,0,0,0,-1,524,589,0,0
-693,435,0,0,0,0,0,0,0,0,0,-1,531,589,0,0
-686,435,0,0,0,0,0,0,0,0,0,-1,538,589,0,0
-679,435,0,0,0,0,0,0,0,0,0,-1,545,589,0,0
-672,435,0,0,0,0,0,0,0,0,0,-1,552,589,0,0
-665,435,0,0,0,0,0,0,0,0,0,-1,559,589,0,0
-658,435,0,0,0,0,0,0,0,0,0,-1,566,589,0,0
-651,435,0,0,0,0,0,0,0,0,0,-1,573,589,0,0
-644,435,0,0,0,0,0,0,0,0,0,-1,580,589,0,0
-637,435,0,0,0,0,0,0,0,0,0,-1,587,589,0,0
-630,435,0,0,0,0,0,0,0,0,0,-1,594,589,0,0
-623,435,0,0,0,0,0,0,0,0,0,-1,601,589,0,0
-616,435,0,0,0,0,0,0,0,0,0,-1,608,589,0,0
-609,435,0,0,0,0,0,0,0,0,0,-1,615,589,0,0
-602,435,0,0,0,0,0,0,0,0,0,-1,622,589,0,0
-595,435,0,0,0,0,0,0,0,0,0,-1,629,589,0,0
-588,435,0,0,0,0,0,0,0,0,0,-1,636,589,0,0
-581,435,0,0,0,0,0,0,0,0,0,-1,643,589,0,0
-574,435,0,0,0,0,0,0,0,0,0,-1,650,589,0,0
-567,435,0,0,0,0,0,0,0,0,0,-1,657,589,0,0
-560,435,0,0,0,0,0,0,0,0,0,-1,664,589,0,0
-553,435,0,0,0,0,0,0,0,0,0,-1,671,589,0,0
-546,435,0,0,0,0,0,0,0,0,0,-1,678,589,0,0
-539,435,0,0,0,0,0,0,0,0,0,-1,685,589,0,0
-532,435,0,0,0,0,0,0,0,0,0,-1,692,589,0,0
-525,435,-10.0776,10.0547,0,0,0,0,0,0,0,-1,699,589,-10.0776,-10.0547
-518,435,-1.83093,-5.82367,0,0,0,0,0,0,0,-1,706,589,-1.83093,5.8237
-511,435,-2.45154,-5.33118,0,0,0,0,0,0,0,-1,713,589,-2.45151,5.33115
-504,435,-3.07208,-4.83862,0,0,0,0,0,0,0,-1,720,589,-3.0721,4.8386
-497,435,-6.31012,-5.84698,0,0,0,0,0,0,0,-1,727,589,-6.31012,5.84697
-490,435,-5.81903,-0.458679,0,0,0,0,0,0,0,-1,734,589,-5.81902,0.458684
-483,435,-6.96503,-3.01624,0,0,0,0,0,0,0,-1,741,589,-6.96505,3.01623
-476,435,-6.37445,-6.21149,0,0,0,0,0,0,0,-1,748,589,-6.37445,6.21149
-469,435,-6.16229,-6.88519,-0.0029689,0.00649703,-0.00456165,0.00833747,-0.00480933,-1.18731,0.00768088,0.0346682,755,589,-6.16231,6.88518
-462,435,-6.03589,-7.66119,-0.00226994,0.00542665,-0.00369105,0.00691064,-0.00375393,-1.18852,0.00624645,0.0207567,762,589,-6.0359,7.66122
-455,435,-6.16132,-8.17065,-0.00159544,0.00468533,-0.00308483,0.00594701,-0.00285712,-1.18256,0.00518636,0.0192622,769,589,-6.1613,8.17063
-448,435,-6.14514,-8.70624,-0.00124535,0.00366554,-0.00227283,0.00455599,-0.00213579,-1.1974,0.00394683,0.0141503,776,589,-6.14516,8.70621
-441,435,-6.14642,-9.17084,-0.000998202,0.00266365,-0.00147111,0.00318144,-0.00151599,-1.23237,0.0027683,0.0116423,783,589,-6.14641,9.17083
-434,435,-6.16675,-9.61884,-0.000876302,0.00175305,-0.000727416,0.00194088,-0.00106413,-1.31811,0.00175938,0.0124474,790,589,-6.16672,9.61884
-427,435,-6.19208,-10.1217,-0.000802043,0.000819843,-1.20595e-06,0.000819844,-0.000802044,-1.57005,0.000936416,0.0105625,797,589,-6.19205,10.1217
-420,435,-6.18713,-10.5919,-0.000761695,-2.97763e-05,0.000655725,0.000355198,-0.00114667,1.03992,0.00090635,0.0111718,804,589,-6.18711,10.5918
-413,435,-6.19354,-11.0753,-0.000849456,-0.00093602,0.00141621,0.000524136,-0.00230961,0.770122,0.00174095,0.0115399,811,589,-6.19356,11.0753
-406,435,-6.21063,-11.5418,-0.00088584,-0.00165815,0.0020332,0.00079755,-0.00334154,0.691554,0.0025357,0.0105952,818,589,-6.21061,11.5418
-399,435,-6.23499,-12.0065,-0.000881698,-0.00227807,0.0025378,0.0010522,-0.00421197,0.651161,0.0032166,0.00876063,825,589,-6.23501,12.0065
-392,435,-6.24359,-12.4615,-0.000753274,-0.00276706,0.00294349,0.00135078,-0.00487112,0.6206,0.00377902,0.00975271,832,589,-6.2436,12.4615
-385,435,-6.23743,-12.9278,-0.000532793,-0.00304687,0.00324647,0.00169151,-0.00527117,0.600686,0.00419325,0.0166099,839,589,-6.23743,12.9278
-378,435,-6.25568,-13.3168,-0.000281618,-0.00321193,0.00357522,0.00211702,-0.00561057,0.590931,0.004611,0.0368124,846,589,-6.25566,13.3168
-371,435,-6.43909,-13.7726,0,0,0,0,0,0,0,-1,853,589,-6.43909,13.7726
-364,435,-5.62848,-11.5937,0,0,0,0,0,0,0,-1,860,589,-5.62847,11.5937
-357,435,-5.57343,-10.9666,0,0,0,0,0,0,0,-1,867,589,-5.57342,10.9666
-350,435,-0.86676,-3.69836,0,0,0,0,0,0,0,-1,874,589,-0.866784,3.69834
-343,435,-1.60706,-2.36835,0,0,0,0,0,0,0,-1,881,589,-1.60706,2.36838
-336,435,-2.07263,-1.94012,0,0,0,0,0,0,0,-1,888,589,-2.07265,1.94014
-329,435,-2.55963,-1.5517,0,0,0,0,0,0,0,-1,895,589,-2.5596,1.55168
-322,435,-3.08545,-1.55255,0,0,0,0,0,0,0,-1,902,589,-3.08544,1.55254
-315,435,-0.404297,-2.63763,0,0,0,0,0,0,0,-1,909,589,-0.404276,2.63761
-308,435,-1.70056,-1.90369,0,0,0,0,0,0,0,-1,916,589,-1.70056,1.90367
-301,435,-1.25232,-2.05511,0,0,0,0,0,0,0,-1,923,589,-1.25234,2.05514
-294,435,-1.79974,-1.97321,0,0,0,0,0,0,0,-1,930,589,-1.79973,1.97322
-287,435,0,0,0,0,0,0,0,0,0,-1,937,589,0,0
-280,435,0,0,0,0,0,0,0,0,0,-1,944,589,0,0
-273,435,0,0,0,0,0,0,0,0,0,-1,951,589,0,0
-266,435,0,0,0,0,0,0,0,0,0,-1,958,589,0,0
-259,435,0,0,0,0,0,0,0,0,0,-1,965,589,0,0
-252,435,0,0,0,0,0,0,0,0,0,-1,972,589,0,0
-245,435,0,0,0,0,0,0,0,0,0,-1,979,589,0,0
-238,435,0,0,0,0,0,0,0,0,0,-1,986,589,0,0
-231,435,0,0,0,0,0,0,0,0,0,-1,993,589,0,0
-224,435,0,0,0,0,0,0,0,0,0,-1,1000,589,0,0
-217,435,0,0,0,0,0,0,0,0,0,-1,1007,589,0,0
-210,435,0,0,0,0,0,0,0,0,0,-1,1014,589,0,0
-203,435,0,0,0,0,0,0,0,0,0,-1,1021,589,0,0
-196,435,0,0,0,0,0,0,0,0,0,-1,1028,589,0,0
-189,435,0,0,0,0,0,0,0,0,0,-1,1035,589,0,0
-182,435,0,0,0,0,0,0,0,0,0,-1,1042,589,0,0
-175,435,0,0,0,0,0,0,0,0,0,-1,1049,589,0,0
-168,435,0,0,0,0,0,0,0,0,0,-1,1056,589,0,0
-161,435,0,0,0,0,0,0,0,0,0,-1,1063,589,0,0
-154,435,0,0,0,0,0,0,0,0,0,-1,1070,589,0,0
-147,435,0,0,0,0,0,0,0,0,0,-1,1077,589,0,0
-140,435,0,0,0,0,0,0,0,0,0,-1,1084,589,0,0
-133,435,0,0,0,0,0,0,0,0,0,-1,1091,589,0,0
-126,435,0,0,0,0,0,0,0,0,0,-1,1098,589,0,0
-119,435,0,0,0,0,0,0,0,0,0,-1,1105,589,0,0
-112,435,0,0,0,0,0,0,0,0,0,-1,1112,589,0,0
-105,435,0,0,0,0,0,0,0,0,0,-1,1119,589,0,0
-98,435,0,0,0,0,0,0,0,0,0,-1,1126,589,0,0
-91,435,0,0,0,0,0,0,0,0,0,-1,1133,589,0,0
-84,435,0,0,0,0,0,0,0,0,0,-1,1140,589,0,0
-77,435,0,0,0,0,0,0,0,0,0,-1,1147,589,0,0
-70,435,0,0,0,0,0,0,0,0,0,-1,1154,589,0,0
-63,435,0,0,0,0,0,0,0,0,0,-1,1161,589,0,0
-56,435,0,0,0,0,0,0,0,0,0,-1,1168,589,0,0
-49,435,0,0,0,0,0,0,0,0,0,-1,1175,589,0,0
-42,435,0,0,0,0,0,0,0,0,0,-1,1182,589,0,0
-35,435,0,0,0,0,0,0,0,0,0,-1,1189,589,0,0
-28,435,0,0,0,0,0,0,0,0,0,-1,1196,589,0,0
-21,435,0,0,0,0,0,0,0,0,0,-1,1203,589,0,0
-14,435,0,0,0,0,0,0,0,0,0,-1,1210,589,0,0
-7,435,0,0,0,0,0,0,0,0,0,-1,1217,589,0,0
0,435,0,0,0,0,0,0,0,0,0,-1,1224,589,0,0
7,435,0,0,0,0,0,0,0,0,0,-1,1231,589,0,0
14,435,0,0,0,0,0,0,0,0,0,-1,1238,589,0,0
21,435,0,0,0,0,0,0,0,0,0,-1,1245,589,0,0
28,435,0,0,0,0,0,0,0,0,0,-1,1252,589,0,0
35,435,0,0,0,0,0,0,0,0,0,-1,1259,589,0,0
42,435,0,0,0,0,0,0,0,0,0,-1,1266,589,0,0
49,435,0,0,0,0,0,0,0,0,0,-1,1273,589,0,0
56,435,0,0,0,0,0,0,0,0,0,-1,1280,589,0,0
63,435,0,0,0,0,0,0,0,0,0,-1,1287,589,0,0
70,435,0,0,0,0,0,0,0,0,0,-1,1294,589,0,0
77,435,0,0,0,0,0,0,0,0,0,-1,1301,589,0,0
84,435,0,0,0,0,0,0,0,0,0,-1,1308,589,0,0
91,435,0,0,0,0,0,0,0,0,0,-1,1315,589,0,0
98,435,0,0,0,0,0,0,0,0,0,-1,1322,589,0,0
105,435,0,0,0,0,0,0,0,0,0,-1,1329,589,0,0
112,435,0,0,0,0,0,0,0,0,0,-1,1336,589,0,0
119,435,0,0,0,0,0,0,0,0,0,-1,1343,589,0,0
126,435,0,0,0,0,0,0,0,0,0,-1,1350,589,0,0
133,435,0,0,0,0,0,0,0,0,0,-1,1357,589,0,0
140,435,0,0,0,0,0,0,0,0,0,-1,1364,589,0,0
147,435,0,0,0,0,0,0,0,0,0,-1,1371,589,0,0
154,435,0,0,0,0,0,0,0,0,0,-1,1378,589,0,0
161,435,0,0,0,0,0,0,0,0,0,-1,1385,589,0,0
168,435,0,0,0,0,0,0,0,0,0,-1,1392,589,0,0
175,435,0,0,0,0,0,0,0,0,0,-1,1399,589,0,0
182,435,0,0,0,0,0,0,0,0,0,-1,1406,589,0,0
189,435,0,0,0,0,0,0,0,0,0,-1,1413,589,0,0
196,435,0,0,0,0,0,0,0,0,0,-1,1420,589,0,0
203,435,0,0,0,0,0,0,0,0,0,-1,1427,589,0,0
210,435,0,0,0,0,0,0,0,0,0,-1,1434,589,0,0
217,435,0,0,0,0,0,0,0,0,0,-1,1441,589,0,0
224,435,0,0,0,0,0,0,0,0,0,-1,1448,589,0,0
231,435,0,0,0,0,0,0,0,0,0,-1,1455,589,0,0
238,435,0,0,0,0,0,0,0,0,0,-1,1462,589,0,0
245,435,0,0,0,0,0,0,0,0,0,-1,1469,589,0,0
252,435,0,0,0,0,0,0,0,0,0,-1,1476,589,0,0
259,435,0,0,0,0,0,0,0,0,0,-1,1483,589,0,0
266,435,0,0,0,0,0,0,0,0,0,-1,1490,589,0,0
273,435,0,0,0,0,0,0,0,0,0,-1,1497,589,0,0
280,435,0,0,0,0,0,0,0,0,0,-1,1504,589,0,0
287,435,0,0,0,0,0,0,0,0,0,-1,1511,589,0,0
294,435,0,0,0,0,0,0,0,0,0,-1,1518,589,0,0
301,435,0,0,0,0,0,0,0,0,0,-1,1525,589,0,0
308,435,0,0,0,0,0,0,0,0,0,-1,1532,589,0,0
315,435,0,0,0,0,0,0,0,0,0,-1,1539,589,0,0
322,435,0,0,0,0,0,0,0,0,0,-1,1546,589,0,0
329,435,0,0,0,0,0,0,0,0,0,-1,1553,589,0,0
336,435,0,0,0,0,0,0,0,0,0,-1,1560,589,0,0
343,435,0,0,0,0,0,0,0,0,0,-1,1567,589,0,0
350,435,0,0,0,0,0,0,0,0,0,-1,1574,589,0,0
357,435,0,0,0,0,0,0,0,0,0,-1,1581,589,0,0
364,435,0,0,0,0,0,0,0,0,0,-1,1588,589,0,0
371,435,0,0,0,0,0,0,0,0,0,-1,1595,589,0,0
378,435,0,0,0,0,0,0,0,0,0,-1,1602,589,0,0
385,435,0,0,0,0,0,0,0,0,0,-1,1609,589,0,0
392,435,0,0,0,0,0,0,0,0,0,-1,1616,589,0,0
399,435,0,0,0,0,0,0,0,0,0,-1,1623,589,0,0
406,435,0,0,0,0,0,0,0,0,0,-1,1630,589,0,0
413,435,20.4565,3.49835,0,0,0,0,0,0,0,-1,1637,589,20.4565,-3.49836
420,435,21.4015,1.49609,0,0,0,0,0,0,0,-1,1644,589,21.4015,-1.49609
427,435,22.0464,-0.373962,0,0,0,0,0,0,0,-1,1651,589,22.0464,0.373972
434,435,22.1863,-1.54407,0,0,0,0,0,0,0,-1,1658,589,22.1862,1.54405
441,435,22.3992,-2.38287,0,0,0,0,0,0,0,-1,1665,589,22.3992,2.38289
448,435,7.4585,-0.00292969,0,0,0,0,0,0,0,-1,1672,589,7.45848,0.00294131
455,435,5.49915,-5.047,0,0,0,0,0,0,0,-1,1679,589,5.49914,5.04703
462,435,5.60669,-4.71466,0,0,0,0,0,0,0,-1,1686,589,5.60675,4.71469
469,435,5.87708,1.22351,0,0,0,0,0,0,0,-1,1693,589,5.87703,-1.22351
476,435,6.14136,1.37714,0,0,0,0,0,0,0,-1,1700,589,6.14138,-1.37712
483,435,6.49243,1.36169,0,0,0,0,0,0,0,-1,1707,589,6.49242,-1.36171
490,435,4.38391,-1.36218,0,0,0,0,0,0,0,-1,1714,589,4.38389,1.3622
497,435,7.23499,-3.64551,0,0,0,0,0,0,0,-1,1721,589,7.23495,3.64551
504,435,7.31189,-3.75909,0,0,0,0,0,0,0,-1,1728,589,7.31184,3.75911
511,435,15.0942,-11.4993,0,0,0,0,0,0,0,-1,1735,589,15.0943,11.4992
518,435,15.1808,-10.9875,0.00467061,0.00250292,0.00218141,0.0060226,0.00115093,0.554833,0.00369172,0.0296934,1742,589,15.1808,10.9876
525,435,15.1466,-10.4619,0.00380177,0.00218016,0.00194169,0.00509514,0.000886781,0.587615,0.00314315,0.0132218,1749,589,15.1467,10.4619
532,435,15.1538,-9.94928,0.00293378,0.00176002,0.00161051,0.00406101,0.000632789,0.610673,0.002523,0.0134733,1756,589,15.1538,9.94925
539,435,15.1472,-9.43896,0.00224304,0.00144582,0.00136151,0.00326309,0.00042577,0.642993,0.00204827,0.0157197,1763,589,15.1472,9.43896
546,435,15.1122,-8.97278,0.00160342,0.00112554,0.00109242,0.00248273,0.000246235,0.677729,0.00157948,0.0154968,1770,589,15.1121,8.9728
553,435,15.0842,-8.5105,0.000981449,0.000836016,0.00083896,0.00175084,6.66265e-05,0.742169,0.00114566,0.0106206,1777,589,15.0842,8.5105
560,435,15.0669,-8.02002,0.000450281,0.000654284,0.00072345,0.00128289,-0.000178323,0.855433,0.000920476,0.00951046,1784,589,15.0669,8.01999
567,435,15.0793,-7.49255,-7.17405e-06,0.000592051,0.000670956,0.00102725,-0.000442375,0.995387,0.000870599,0.00914544,1791,589,15.0793,7.49257
574,435,15.0692,-7.00409,-0.000364884,0.000574993,0.000712384,0.000958479,-0.00074837,1.07697,0.000987935,0.0102656,1798,589,15.0692,7.00412
581,435,15.0585,-6.49945,-0.000641257,0.000652919,0.000871878,0.0010916,-0.00107994,1.10464,0.00125374,0.0174798,1805,589,15.0585,6.49943
588,435,15.0535,-6.0166,-0.000722329,0.000920008,0.00124167,0.00158749,-0.00138981,1.07755,0.0017202,0.0356033,1812,589,15.0535,6.01662
595,435,14.8792,-5.57971,-0.000619353,0.0015773,0.00186837,0.00264626,-0.00168831,1.05112,0.00252285,0.0405097,1819,589,14.8792,5.57968
602,435,14.8918,-4.68542,0,0,0,0,0,0,0,-1,1826,589,14.8918,4.68542
609,435,15.3854,-4.10895,0,0,0,0,0,0,0,-1,1833,589,15.3854,4.10895
616,435,5.05151,-2.75269,0,0,0,0,0,0,0,-1,1840,589,5.05157,2.7527
623,435,11.7588,3.9704,0,0,0,0,0,0,0,-1,1847,589,11.7587,-3.97043
630,435,4.72742,-0.87561,0,0,0,0,0,0,0,-1,1854,589,4.7274,0.875636
637,435,5.05286,1.48792,0,0,0,0,0,0,0,-1,1861,589,5.05291,-1.48792
644,435,0,0,0,0,0,0,0,0,0,-1,1868,589,0,0
651,435,0,0,0,0,0,0,0,0,0,-1,1875,589,0,0
658,435,0,0,0,0,0,0,0,0,0,-1,1882,589,0,0
665,435,0,0,0,0,0,0,0,0,0,-1,1889,589,0,0
672,435,0,0,0,0,0,0,0,0,0,-1,1896,589,0,0
679,435,0,0,0,0,0,0,0,0,0,-1,1903,589,0,0
686,435,0,0,0,0,0,0,0,0,0,-1,1910,589,0,0
693,435,0,0,0,0,0,0,0,0,0,-1,1917,589,0,0
700,435,0,0,0,0,0,0,0,0,0,-1,1924,589,0,0
707,435,0,0,0,0,0,0,0,0,0,-1,1931,589,0,0
714,435,0,0,0,0,0,0,0,0,0,-1,1938,589,0,0
721,435,0,0,0,0,0,0,0,0,0,-1,1945,589,0,0
728,435,0,0,0,0,0,0,0,0,0,-1,1952,589,0,0
735,435,0,0,0,0,0,0,0,0,0,-1,1959,589,0,0
742,435,0,0,0,0,0,0,0,0,0,-1,1966,589,0,0
749,435,0,0,0,0,0,0,0,0,0,-1,1973,589,0,0
756,435,0,0,0,0,0,0,0,0,0,-1,1980,589,0,0
763,435,0,0,0,0,0,0,0,0,0,-1,1987,589,0,0
770,435,0,0,0,0,0,0,0,0,0,-1,1994,589,0,0
777,435,0,0,0,0,0,0,0,0,0,-1,2001,589,0,0
784,435,0,0,0,0,0,0,0,0,0,-1,2008,589,0,0
791,435,0,0,0,0,0,0,0,0,0,-1,2015,589,0,0
798,435,0,0,0,0,0,0,0,0,0,-1,2022,589,0,0
805,435,0,0,0,0,0,0,0,0,0,-1,2029,589,0,0
812,435,0,0,0,0,0,0,0,0,0,-1,2036,589,0,0
-700,428,0,0,0,0,0,0,0,0,0,-1,524,596,0,0
-693,428,0,0,0,0,0,0,0,0,0,-1,531,596,0,0
-686,428,0,0,0,0,0,0,0,0,0,-1,538,596,0,0
-679,428,0,0,0,0,0,0,0,0,0,-1,545,596,0,0
-672,428,0,0,0,0,0,0,0,0,0,-1,552,596,0,0
-665,428,0,0,0,0,0,0,0,0,0,-1,559,596,0,0
-658,428,0,0,0,0,0,0,0,0,0,-1,566,596,0,0
-651,428,0,0,0,0,0,0,0,0,0,-1,573,596,0,0
-644,428,0,0,0,0,0,0,0,0,0,-1,580,596,0,0
-637,428,0,0,0,0,0,0,0,0,0,-1,587,596,0,0
-630,428,0,0,0,0,0,0,0,0,0,-1,594,596,0,0
-623,428,0,0,0,0,0,0,0,0,0,-1,601,596,0,0
-616,428,0,0,0,0,0,0,0,0,0,-1,608,596,0,0
-609,428,0,0,0,0,0,0,0,0,0,-1,615,596,0,0
-602,428,0,0,0,0,0,0,0,0,0,-1,622,596,0,0
-595,428,0,0,0,0,0,0,0,0,0,-1,629,596,0,0
-588,428,0,0,0,0,0,0,0,0,0,-1,636,596,0,0
-581,428,0,0,0,0,0,0,0,0,0,-1,643,596,0,0
-574,428,0,0,0,0,0,0,0,0,0,-1,650,596,0,0
-567,428,0,0,0,0,0,0,0,0,0,-1,657,596,0,0
-560,428,0,0,0,0,0,0,0,0,0,-1,664,596,0,0
-553,428,0,0,0,0,0,0,0,0,0,-1,671,596,0,0
-546,428,0,0,0,0,0,0,0,0,0,-1,678,596,0,0
-539,428,0,0,0,0,0,0,0,0,0,-1,685,596,0,0
-532,428,0,0,0,0,0,0,0,0,0,-1,692,596,0,0
-525,428,-9.59918,7.58618,0,0,0,0,0,0,0,-1,699,596,-9.59918,-7.5862
-518,428,-2.92285,-4.81854,0,0,0,0,0,0,0,-1,706,596,-2.92285,4.81856
-511,428,-3.68811,-4.79474,0,0,0,0,0,0,0,-1,713,596,-3.68811,4.79474
-504,428,-4.45337,-4.77094,0,0,0,0,0,0,0,-1,720,596,-4.45337,4.77092
-497,428,-2.98108,-3.77502,0,0,0,0,0,0,0,-1,727,596,-2.98106,3.77505
-490,428,-6.39044,-2.80481,0,0,0,0,0,0,0,-1,734,596,-6.39047,2.80483
-483,428,-7.07062,-5.73035,0,0,0,0,0,0,0,-1,741,596,-7.07059,5.73033
-476,428,-6.55127,-6.5127,0,0,0,0,0,0,0,-1,748,596,-6.55127,6.51267
-469,428,-6.47302,-7.09686,-0.00214854,0.00533639,-0.00378673,0.00691796,-0.00373011,-1.17516,0.00623883,0.0248707,755,596,-6.47304,7.09687
-462,428,-6.57288,-7.5882,-0.00159237,0.00430945,-0.00307239,0.00561852,-0.00290144,-1.16801,0.00500168,0.0231545,762,596,-6.57289,7.58822
-455,428,-6.62653,-8.1402,-0.0010808,0.00353743,-0.00250038,0.00463183,-0.0021752,-1.15822,0.00401445,0.0141132,769,596,-6.62653,8.14022
-448,428,-6.63043,-8.64722,-0.000820479,0.00253239,-0.00172925,0.00326443,-0.00155252,-1.17034,0.00283901,0.0114592,776,596,-6.63041,8.64721
-441,428,-6.63098,-9.14136,-0.000699751,0.00156294,-0.000924069,0.00189236,-0.00102917,-1.22835,0.00171111,0.0136238,783,596,-6.63096,9.14133
-434,428,-6.63617,-9.63507,-0.000709149,0.000686205,-0.000152156,0.000702604,-0.000725548,-1.46343,0.00082458,0.0102971,790,596,-6.63614,9.63506
-427,428,-6.65826,-10.1287,-0.000773838,-0.000258978,0.000636666,0.000170333,-0.00120315,0.97752,0.000864489,0.0109232,797,596,-6.65829,10.1287
-420,428,-6.66162,-10.5773,-0.000900203,-0.00115166,0.00139589,0.000375606,-0.00242747,0.740484,0.00175695,0.0118356,804,596,-6.66164,10.5772
-413,428,-6.65802,-11.0376,-0.00116599,-0.00208918,0.00226376,0.000682761,-0.00393793,0.684823,0.00287998,0.0141822,811,596,-6.658,11.0376
-406,428,-6.68658,-11.5175,-0.00144825,-0.00292149,0.00303992,0.000943024,-0.00531277,0.666532,0.00389443,0.016011,818,596,-6.68656,11.5174
-399,428,-6.70172,-11.9853,-0.0016978,-0.00367249,0.00371099,0.00115494,-0.00652524,0.65538,0.00478186,0.0140454,825,596,-6.70175,11.9853
-392,428,-6.67273,-12.4726,-0.00181252,-0.00427833,0.00429494,0.00142297,-0.00751382,0.645626,0.00554474,0.0218139,832,596,-6.67275,12.4726
-385,428,-6.74762,-12.9254,-0.00189947,-0.00472081,0.00480574,0.00169837,-0.00831865,0.642639,0.00619004,0.0452433,839,596,-6.74763,12.9253
-378,428,-6.68597,-13.3353,0,0,0,0,0,0,0,-1,846,596,-6.68598,13.3353
-371,428,-5.96155,-11.0703,0,0,0,0,0,0,0,-1,853,596,-5.96154,11.0702
-364,428,-6.33643,-10.7223,0,0,0,0,0,0,0,-1,860,596,-6.33645,10.7223
-357,428,-3.20996,-4.70966,0,0,0,0,0,0,0,-1,867,596,-3.20997,4.70965
-350,428,-1.62793,-3.94055,0,0,0,0,0,0,0,-1,874,596,-1.62794,3.94055
-343,428,-0.0567017,-4.80994,0,0,0,0,0,0,0,-1,881,596,-0.0567096,4.80996
-336,428,-3.29175,-1.39569,0,0,0,0,0,0,0,-1,888,596,-3.29172,1.39568
-329,428,-3.71564,-0.791321,0,0,0,0,0,0,0,-1,895,596,-3.71564,0.791299
-322,428,-5.52863,-3.59827,0,0,0,0,0,0,0,-1,902,596,-5.52865,3.59829
-315,428,-4.57172,-1.22052,0,0,0,0,0,0,0,-1,909,596,-4.57171,1.22052
-308,428,-5.94324,-0.810791,0,0,0,0,0,0,0,-1,916,596,-5.94321,0.810803
-301,428,0,0,0,0,0,0,0,0,0,-1,923,596,0,0
-294,428,0,0,0,0,0,0,0,0,0,-1,930,596,0,0
-287,428,0,0,0,0,0,0,0,0,0,-1,937,596,0,0
-280,428,0,0,0,0,0,0,0,0,0,-1,944,596,0,0
-273,428,0,0,0,0,0,0,0,0,0,-1,951,596,0,0
-266,428,0,0,0,0,0,0,0,0,0,-1,958,596,0,0
-259,428,0,0,0,0,0,0,0,0,0,-1,965,596,0,0
-252,428,0,0,0,0,0,0,0,0,0,-1,972,596,0,0
-245,428,0,0,0,0,0,0,0,0,0,-1,979,596,0,0
-238,428,0,0,0,0,0,0,0,0,0,-1,986,596,0,0
-231,428,0,0,0,0,0,0,0,0,0,-1,993,596,0,0
-224,428,0,0,0,0,0,0,0,0,0,-1,1000,596,0,0
-217,428,0,0,0,0,0,0,0,0,0,-1,1007,596,0,0
-210,428,0,0,0,0,0,0,0,0,0,-1,1014,596,0,0
-203,428,0,0,0,0,0,0,0,0,0,-1,1021,596,0,0
-196,428,0,0,0,0,0,0,0,0,0,-1,1028,596,0,0
-189,428,0,0,0,0,0,0,0,0,0,-1,1035,596,0,0
-182,428,0,0,0,0,0,0,0,0,0,-1,1042,596,0,0
-175,428,0,0,0,0,0,0,0,0,0,-1,1049,596,0,0
-168,428,0,0,0,0,0,0,0,0,0,-1,1056,596,0,0
-161,428,0,0,0,0,0,0,0,0,0,-1,1063,596,0,0
-154,428,0,0,0,0,0,0,0,0,0,-1,1070,596,0,0
-147,428,0,0,0,0,0,0,0,0,0,-1,1077,596,0,0
-140,428,0,0,0,0,0,0,0,0,0,-1,1084,596,0,0
-133,428,0,0,0,0,0,0,0,0,0,-1,1091,596,0,0
-126,428,0,0,0,0,0,0,0,0,0,-1,1098,596,0,0
-119,428,0,0,0,0,0,0,0,0,0,-1,1105,596,0,0
-112,428,0,0,0,0,0,0,0,0,0,-1,1112,596,0,0
-105,428,0,0,0,0,0,0,0,0,0,-1,1119,596,0,0
-98,428,0,0,0,0,0,0,0,0,0,-1,1126,596,0,0
-91,428,0,0,0,0,0,0,0,0,0,-1,1133,596,0,0
-84,428,0,0,0,0,0,0,0,0,0,-1,1140,596,0,0
-77,428,0,0,0,0,0,0,0,0,0,-1,1147,596,0,0
-70,428,0,0,0,0,0,0,0,0,0,-1,1154,596,0,0
-63,428,0,0,0,0,0,0,0,0,0,-1,1161,596,0,0
-56,428,0,0,0,0,0,0,0,0,0,-1,1168,596,0,0
-49,428,0,0,0,0,0,0,0,0,0,-1,1175,596,0,0
-42,428,0,0,0,0,0,0,0,0,0,-1,1182,596,0,0
-35,428,0,0,0,0,0,0,0,0,0,-1,1189,596,0,0
-28,428,0,0,0,0,0,0,0,0,0,-1,1196,596,0,0
-21,428,0,0,0,0,0,0,0,0,0,-1,1203,596,0,0
-14,428,0,0,0,0,0,0,0,0,0,-1,1210,596,0,0
-7,428,0,0,0,0,0,0,0,0,0,-1,1217,596,0,0
0,428,0,0,0,0,0,0,0,0,0,-1,1224,596,0,0
7,428,0,0,0,0,0,0,0,0,0,-1,1231,596,0,0
14,428,0,0,0,0,0,0,0,0,0,-1,1238,596,0,0
21,428,0,0,0,0,0,0,0,0,0,-1,1245,596,0,0
28,428,0,0,0,0,0,0,0,0,0,-1,1252,596,0,0
35,428,0,0,0,0,0,0,0,0,0,-1,1259,596,0,0
42,428,0,0,0,0,0,0,0,0,0,-1,1266,596,0,0
49,428,0,0,0,0,0,0,0,0,0,-1,1273,596,0,0
56,428,0,0,0,0,0,0,0,0,0,-1,1280,596,0,0
63,428,0,0,0,0,0,0,0,0,0,-1,1287,596,0,0
70,428,0,0,0,0,0,0,0,0,0,-1,1294,596,0,0
77,428,0,0,0,0,0,0,0,0,0,-1,1301,596,0,0
84,428,0,0,0,0,0,0,0,0,0,-1,1308,596,0,0
91,428,0,0,0,0,0,0,0,0,0,-1,1315,596,0,0
98,428,0,0,0,0,0,0,0,0,0,-1,1322,596,0,0
105,428,0,0,0,0,0,0,0,0,0,-1,1329,596,0,0
112,428,0,0,0,0,0,0,0,0,0,-1,1336,596,0,0
119,428,0,0,0,0,0,0,0,0,0,-1,1343,596,0,0
126,428,0,0,0,0,0,0,0,0,0,-1,1350,596,0,0
133,428,0,0,0,0,0,0,0,0,0,-1,1357,596,0,0
140,428,0,0,0,0,0,0,0,0,0,-1,1364,596,0,0
147,428,0,0,0,0,0,0,0,0,0,-1,1371,596,0,0
154,428,0,0,0,0,0,0,0,0,0,-1,1378,596,0,0
161,428,0,0,0,0,0,0,0,0,0,-1,1385,596,0,0
168,428,0,0,0,0,0,0,0,0,0,-1,1392,596,0,0
175,428,0,0,0,0,0,0,0,0,0,-1,1399,596,0,0
182,428,0,0,0,0,0,0,0,0,0,-1,1406,596,0,0
189,428,0,0,0,0,0,0,0,0,0,-1,1413,596,0,0
196,428,0,0,0,0,0,0,0,0,0,-1,1420,596,0,0
203,428,0,0,0,0,0,0,0,0,0,-1,1427,596,0,0
210,428,0,0,0,0,0,0,0,0,0,-1,1434,596,0,0
217,428,0,0,0,0,0,0,0,0,0,-1,1441,596,0,0
224,428,0,0,0,0,0,0,0,0,0,-1,1448,596,0,0
231,428,0,0,0,0,0,0,0,0,0,-1,1455,596,0,0
238,428,0,0,0,0,0,0,0,0,0,-1,1462,596,0,0
245,428,0,0,0,0,0,0,0,0,0,-1,1469,596,0,0
252,428,0,0,0,0,0,0,0,0,0,-1,1476,596,0,0
259,428,0,0,0,0,0,0,0,0,0,-1,1483,596,0,0
266,428,0,0,0,0,0,0,0,0,0,-1,1490,596,0,0
273,428,0,0,0,0,0,0,0,0,0,-1,1497,596,0,0
280,428,0,0,0,0,0,0,0,0,0,-1,1504,596,0,0
287,428,0,0,0,0,0,0,0,0,0,-1,1511,596,0,0
294,428,0,0,0,0,0,0,0,0,0,-1,1518,596,0,0
301,428,0,0,0,0,0,0,0,0,0,-1,1525,596,0,0
308,428,0,0,0,0,0,0,0,0,0,-1,1532,596,0,0
315,428,0,0,0,0,0,0,0,0,0,-1,1539,596,0,0
322,428,0,0,0,0,0,0,0,0,0,-1,1546,596,0,0
329,428,0,0,0,0,0,0,0,0,0,-1,1553,596,0,0
336,428,0,0,0,0,0,0,0,0,0,-1,1560,596,0,0
343,428,0,0,0,0,0,0,0,0,0,-1,1567,596,0,0
350,428,0,0,0,0,0,0,0,0,0,-1,1574,596,0,0
357,428,0,0,0,0,0,0,0,0,0,-1,1581,596,0,0
364,428,0,0,0,0,0,0,0,0,0,-1,1588,596,0,0
371,428,0,0,0,0,0,0,0,0,0,-1,1595,596,0,0
378,428,0,0,0,0,0,0,0,0,0,-1,1602,596,0,0
385,428,0,0,0,0,0,0,0,0,0,-1,1609,596,0,0
392,428,0,0,0,0,0,0,0,0,0,-1,1616,596,0,0
399,428,0,0,0,0,0,0,0,0,0,-1,1623,596,0,0
406,428,0,0,0,0,0,0,0,0,0,-1,1630,596,0,0
413,428,0,0,0,0,0,0,0,0,0,-1,1637,596,0,0
420,428,19.8469,1.3399,0,0,0,0,0,0,0,-1,1644,596,19.8469,-1.33992
427,428,20.7299,-0.225281,0,0,0,0,0,0,0,-1,1651,596,20.7299,0.225262
434,428,19.8915,-0.583069,0,0,0,0,0,0,0,-1,1658,596,19.8915,0.583075
441,428,8.17993,0.607483,0,0,0,0,0,0,0,-1,1665,596,8.17997,-0.607513
448,428,7.84338,-0.385986,0,0,0,0,0,0,0,-1,1672,596,7.84336,0.385978
455,428,6.64038,2.1123,0,0,0,0,0,0,0,-1,1679,596,6.64037,-2.11229
462,428,4.84106,4.12341,0,0,0,0,0,0,0,-1,1686,596,4.84107,-4.12339
469,428,7.83789,3.10083,0,0,0,0,0,0,0,-1,1693,596,7.83785,-3.10086
476,428,7.61255,1.73956,0,0,0,0,0,0,0,-1,1700,596,7.61252,-1.73958
483,428,7.22766,1.05121,0,0,0,0,0,0,0,-1,1707,596,7.2277,-1.05121
490,428,5.4071,-3.2793,0,0,0,0,0,0,0,-1,1714,596,5.40707,3.27929
497,428,7.84106,-3.65491,0,0,0,0,0,0,0,-1,1721,596,7.84107,3.65491
504,428,6.92139,-2.83356,0,0,0,0,0,0,0,-1,1728,596,6.92137,2.83353
511,428,7.88501,-3.78723,0,0,0,0,0,0,0,-1,1735,596,7.88502,3.78722
518,428,15.6277,-11.0748,0,0,0,0,0,0,0,-1,1742,596,15.6277,11.0749
525,428,15.6222,-10.4261,0,0,0,0,0,0,0,-1,1749,596,15.6223,10.4261
532,428,15.6204,-9.90454,0.00379948,0.00201564,0.00186623,0.00497598,0.000839144,0.562481,0.003076,0.0217661,1756,596,15.6204,9.90455
539,428,15.6514,-9.43182,0.00307641,0.00166952,0.00153129,0.00405811,0.000687828,0.570085,0.00250777,0.0217482,1763,596,15.6514,9.43184
546,428,15.6057,-8.99219,0.00243676,0.00134416,0.00123429,0.00324024,0.000540677,0.577055,0.00200439,0.0174855,1770,596,15.6057,8.9922
553,428,15.5752,-8.50165,0.00177273,0.00100718,0.000950844,0.00241496,0.000364956,0.59404,0.00150316,0.0106971,1777,596,15.5752,8.50166
560,428,15.5925,-7.97357,0.00116722,0.000793043,0.000782163,0.00178436,0.000175905,0.668007,0.00113549,0.0112054,1784,596,15.5925,7.9736
567,428,15.5809,-7.47833,0.000654547,0.000742309,0.000726933,0.00142668,-2.98283e-05,0.815544,0.00096122,0.0106046,1791,596,15.5809,7.47834
574,428,15.566,-7.00061,0.000255784,0.00075652,0.000790807,0.00133565,-0.000323342,0.938705,0.00101552,0.0129397,1798,596,15.5661,7.00064
581,428,15.5455,-6.4801,-5.76316e-05,0.000898867,0.00099384,0.00152354,-0.000682306,1.00965,0.00130405,0.011683,1805,596,15.5455,6.48012
588,428,15.5353,-5.95239,-0.000231488,0.00124338,0.00138136,0.00207182,-0.00105993,1.03058,0.00183931,0.0168015,1812,596,15.5353,5.9524
595,428,15.4885,-5.4433,-0.000216252,0.00191008,0.00201722,0.00312715,-0.00143333,1.02792,0.00269285,0.0178512,1819,596,15.4885,5.44327
602,428,15.4205,-4.90509,-5.6129e-05,0.00280618,0.00289365,0.00460324,-0.0018532,1.01505,0.00383869,0.0316781,1826,596,15.4206,4.90509
609,428,15.5977,-4.33215,0.000510421,0.0041191,0.00418706,0.00687405,-0.00224453,0.988841,0.00548612,0.0480686,1833,596,15.5976,4.33216
616,428,15.7273,-3.71033,0,0,0,0,0,0,0,-1,1840,596,15.7272,3.71035
623,428,9.53577,1.12518,0,0,0,0,0,0,0,-1,1847,596,9.5358,-1.1252
630,428,7.07996,6.88562,0,0,0,0,0,0,0,-1,1854,596,7.0799,-6.88565
637,428,3.95435,1.90857,0,0,0,0,0,0,0,-1,1861,596,3.95439,-1.90858
644,428,5.75476,0.888977,0,0,0,0,0,0,0,-1,1868,596,5.75472,-0.888955
651,428,0,0,0,0,0,0,0,0,0,-1,1875,596,0,0
658,428,0,0,0,0,0,0,0,0,0,-1,1882,596,0,0
665,428,0,0,0,0,0,0,0,0,0,-1,1889,596,0,0
672,428,0,0,0,0,0,0,0,0,0,-1,1896,596,0,0
679,428,0,0,0,0,0,0,0,0,0,-1,1903,596,0,0
686,428,0,0,0,0,0,0,0,0,0,-1,1910,596,0,0
693,428,0,0,0,0,0,0,0,0,0,-1,1917,596,0,0
700,428,0,0,0,0,0,0,0,0,0,-1,1924,596,0,0
707,428,0,0,0,0,0,0,0,0,0,-1,1931,596,0,0
714,428,0,0,0,0,0,0,0,0,0,-1,1938,596,0,0
721,428,0,0,0,0,0,0,0,0,0,-1,1945,596,0,0
728,428,0,0,0,0,0,0,0,0,0,-1,1952,596,0,0
735,428,0,0,0,0,0,0,0,0,0,-1,1959,596,0,0
742,428,0,0,0,0,0,0,0,0,0,-1,1966,596,0,0
749,428,0,0,0,0,0,0,0,0,0,-1,1973,596,0,0
756,428,0,0,0,0,0,0,0,0,0,-1,1980,596,0,0
763,428,0,0,0,0,0,0,0,0,0,-1,1987,596,0,0
770,428,0,0,0,0,0,0,0,0,0,-1,1994,596,0,0
777,428,0,0,0,0,0,0,0,0,0,-1,2001,596,0,0
784,428,0,0,0,0,0,0,0,0,0,-1,2008,596,0,0
791,428,0,0,0,0,0,0,0,0,0,-1,2015,596,0,0
798,428,0,0,0,0,0,0,0,0,0,-1,2022,596,0,0
805,428,0,0,0,0,0,0,0,0,0,-1,2029,596,0,0
812,428,0,0,0,0,0,0,0,0,0,-1,2036,596,0,0
-700,421,0,0,0,0,0,0,0,0,0,-1,524,603,0,0
-693,421,0,0,0,0,0,0,0,0,0,-1,531,603,0,0
-686,421,0,0,0,0,0,0,0,0,0,-1,538,603,0,0
-679,421,0,0,0,0,0,0,0,0,0,-1,545,603,0,0
-672,421,0,0,0,0,0,0,0,0,0,-1,552,603,0,0
-665,421,0,0,0,0,0,0,0,0,0,-1,559,603,0,0
-658,421,0,0,0,0,0,0,0,0,0,-1,566,603,0,0
-651,421,0,0,0,0,0,0,0,0,0,-1,573,603,0,0
-644,421,0,0,0,0,0,0,0,0,0,-1,580,603,0,0
-637,421,0,0,0,0,0,0,0,0,0,-1,587,603,0,0
-630,421,0,0,0,0,0,0,0,0,0,-1,594,603,0,0
-623,421,0,0,0,0,0,0,0,0,0,-1,601,603,0,0
-616,421,0,0,0,0,0,0,0,0,0,-1,608,603,0,0
-609,421,0,0,0,0,0,0,0,0,0,-1,615,603,0,0
-602,421,0,0,0,0,0,0,0,0,0,-1,622,603,0,0
-595,421,0,0,0,0,0,0,0,0,0,-1,629,603,0,0
-588,421,0,0,0,0,0,0,0,0,0,-1,636,603,0,0
-581,421,0,0,0,0,0,0,0,0,0,-1,643,603,0,0
-574,421,0,0,0,0,0,0,0,0,0,-1,650,603,0,0
-567,421,0,0,0,0,0,0,0,0,0,-1,657,603,0,0
-560,421,0,0,0,0,0,0,0,0,0,-1,664,603,0,0
-553,421,0,0,0,0,0,0,0,0,0,-1,671,603,0,0
-546,421,0,0,0,0,0,0,0,0,0,-1,678,603,0,0
-539,421,0,0,0,0,0,0,0,0,0,-1,685,603,0,0
-532,421,-8.97382,6.95636,0,0,0,0,0,0,0,-1,692,603,-8.97384,-6.95634
-525,421,-2.11481,-8.04272,0,0,0,0,0,0,0,-1,699,603,-2.11483,8.0427
-518,421,-3.05908,-5.07233,0,0,0,0,0,0,0,-1,706,603,-3.0591,5.07235
-511,421,-4.63525,-4.08447,0,0,0,0,0,0,0,-1,713,603,-4.63524,4.08449
-504,421,-4.97272,-4.38385,0,0,0,0,0,0,0,-1,720,603,-4.9727,4.38383
-497,421,-6.63141,-2.32501,0,0,0,0,0,0,0,-1,727,603,-6.6314,2.32498
-490,421,-6.7616,-4.14783,0,0,0,0,0,0,0,-1,734,603,-6.76159,4.1478
-483,421,-6.9057,-6.28534,0,0,0,0,0,0,0,-1,741,603,-6.90567,6.28536
-476,421,-6.9574,-6.74005,-0.00166227,0.00542914,-0.00385252,0.00711927,-0.00335239,-1.15737,0.00617483,0.0324947,748,603,-6.95737,6.74003
-469,421,-7.05682,-7.12152,-0.00143659,0.00420846,-0.00311472,0.00558928,-0.00281741,-1.15351,0.00494077,0.0242386,755,603,-7.0568,7.12151
-462,421,-7.08032,-7.67505,-0.00102729,0.00324316,-0.0025105,0.00440366,-0.00218779,-1.1378,0.00387659,0.0179924,762,603,-7.08033,7.67503
-455,421,-7.08521,-8.15765,-0.00069014,0.00243891,-0.00195123,0.00337539,-0.00162662,-1.12332,0.00294615,0.017606,769,603,-7.08523,8.15765
-448,421,-7.10321,-8.63672,-0.00053394,0.00144109,-0.00119732,0.00200559,-0.00109844,-1.13023,0.00181745,0.0181532,776,603,-7.1032,8.6367
-441,421,-7.125,-9.13647,-0.000542702,0.000480762,-0.000371159,0.000601192,-0.000663132,-1.25704,0.00073025,0.014421,783,603,-7.12501,9.1365
-434,421,-7.14349,-9.62909,-0.000685831,-0.000388919,0.000449898,-6.36162e-05,-0.00101113,0.944762,0.000653916,0.010587,790,603,-7.14352,9.62912
-427,421,-7.14191,-10.1011,-0.000905361,-0.00136147,0.00132994,0.000215936,-0.00248277,0.700485,0.00173165,0.00975156,797,603,-7.14194,10.1012
-420,421,-7.14417,-10.5565,-0.00123155,-0.00232331,0.00224167,0.000529745,-0.00408461,0.665965,0.00291574,0.0108221,804,603,-7.14415,10.5565
-413,421,-7.15137,-11.0182,-0.00171914,-0.00330794,0.00327445,0.000855899,-0.00588298,0.666395,0.0042362,0.0139935,811,603,-7.15139,11.0182
-406,421,-7.18323,-11.51,-0.00231597,-0.00428514,0.00429549,0.00110633,-0.00770744,0.672737,0.00554399,0.0196324,818,603,-7.18325,11.51
-399,421,-7.12097,-12.0331,-0.00290962,-0.00521511,0.00524057,0.00130349,-0.00942822,0.67714,0.00676199,0.025621,825,603,-7.12096,12.0331
-392,421,-7.2323,-12.3849,-0.00338559,-0.00600587,0.00615416,0.00159633,-0.0109878,0.68052,0.00791118,0.0424176,832,603,-7.23227,12.385
-385,421,-7.30151,-12.9131,0,0,0,0,0,0,0,-1,839,603,-7.30153,12.9132
-378,421,-4.94733,-8.87909,0,0,0,0,0,0,0,-1,846,603,-4.94731,8.87906
-371,421,-5.65082,-7.01849,0,0,0,0,0,0,0,-1,853,603,-5.65082,7.0185
-364,421,-5.94189,-7.09875,0,0,0,0,0,0,0,-1,860,603,-5.94192,7.09878
-357,421,-7.62531,-8.26337,0,0,0,0,0,0,0,-1,867,603,-7.62532,8.26337
-350,421,-5.38019,-3.75024,0,0,0,0,0,0,0,-1,874,603,-5.38017,3.75026
-343,421,-6.22797,-2.57123,0,0,0,0,0,0,0,-1,881,603,-6.22798,2.57121
-336,421,-6.22882,-2.59369,0,0,0,0,0,0,0,-1,888,603,-6.22883,2.5937
-329,421,-4.50134,-1.49469,0,0,0,0,0,0,0,-1,895,603,-4.50137,1.49468
-322,421,-6.30377,-0.285339,0,0,0,0,0,0,0,-1,902,603,-6.30379,0.285355
-315,421,-4.47821,-1.26733,0,0,0,0,0,0,0,-1,909,603,-4.47824,1.26732
-308,421,0,0,0,0,0,0,0,0,0,-1,916,603,0,0
-301,421,0,0,0,0,0,0,0,0,0,-1,923,603,0,0
-294,421,0,0,0,0,0,0,0,0,0,-1,930,603,0,0
-287,421,0,0,0,0,0,0,0,0,0,-1,937,603,0,0
-280,421,0,0,0,0,0,0,0,0,0,-1,944,603,0,0
-273,421,0,0,0,0,0,0,0,0,0,-1,951,603,0,0
-266,421,0,0,0,0,0,0,0,0,0,-1,958,603,0,0
-259,421,0,0,0,0,0,0,0,0,0,-1,965,603,0,0
-252,421,0,0,0,0,0,0,0,0,0,-1,972,603,0,0
-245,421,0,0,0,0,0,0,0,0,0,-1,979,603,0,0
-238,421,0,0,0,0,0,0,0,0,0,-1,986,603,0,0
-231,421,0,0,0,0,0,0,0,0,0,-1,993,603,0,0
-224,421,0,0,0,0,0,0,0,0,0,-1,1000,603,0,0
-217,421,0,0,0,0,0,0,0,0,0,-1,1007,603,0,0
-210,421,0,0,0,0,0,0,0,0,0,-1,1014,603,0,0
-203,421,0,0,0,0,0,0,0,0,0,-1,1021,603,0,0
-196,421,0,0,0,0,0,0,0,0,0,-1,1028,603,0,0
-189,421,0,0,0,0,0,0,0,0,0,-1,1035,603,0,0
-182,421,0,0,0,0,0,0,0,0,0,-1,1042,603,0,0
-175,421,0,0,0,0,0,0,0,0,0,-1,1049,603,0,0
-168,421,0,0,0,0,0,0,0,0,0,-1,1056,603,0,0
-161,421,0,0,0,0,0,0,0,0,0,-1,1063,603,0,0
-154,421,0,0,0,0,0,0,0,0,0,-1,1070,603,0,0
-147,421,0,0,0,0,0,0,0,0,0,-1,1077,603,0,0
-140,421,0,0,0,0,0,0,0,0,0,-1,1084,603,0,0
-133,421,0,0,0,0,0,0,0,0,0,-1,1091,603,0,0
-126,421,0,0,0,0,0,0,0,0,0,-1,1098,603,0,0
-119,421,0,0,0,0,0,0,0,0,0,-1,1105,603,0,0
-112,421,0,0,0,0,0,0,0,0,0,-1,1112,603,0,0
-105,421,0,0,0,0,0,0,0,0,0,-1,1119,603,0,0
-98,421,0,0,0,0,0,0,0,0,0,-1,1126,603,0,0
-91,421,0,0,0,0,0,0,0,0,0,-1,1133,603,0,0
-84,421,0,0,0,0,0,0,0,0,0,-1,1140,603,0,0
-77,421,0,0,0,0,0,0,0,0,0,-1,1147,603,0,0
-70,421,0,0,0,0,0,0,0,0,0,-1,1154,603,0,0
-63,421,0,0,0,0,0,0,0,0,0,-1,1161,603,0,0
-56,421,0,0,0,0,0,0,0,0,0,-1,1168,603,0,0
-49,421,0,0,0,0,0,0,0,0,0,-1,1175,603,0,0
-42,421,0,0,0,0,0,0,0,0,0,-1,1182,603,0,0
-35,421,0,0,0,0,0,0,0,0,0,-1,1189,603,0,0
-28,421,0,0,0,0,0,0,0,0,0,-1,1196,603,0,0
-21,421,0,0,0,0,0,0,0,0,0,-1,1203,603,0,0
-14,421,0,0,0,0,0,0,0,0,0,-1,1210,603,0,0
-7,421,0,0,0,0,0,0,0,0,0,-1,1217,603,0,0
0,421,0,0,0,0,0,0,0,0,0,-1,1224,603,0,0
7,421,0,0,0,0,0,0,0,0,0,-1,1231,603,0,0
14,421,0,0,0,0,0,0,0,0,0,-1,1238,603,0,0
21,421,0,0,0,0,0,0,0,0,0,-1,1245,603,0,0
28,421,0,0,0,0,0,0,0,0,0,-1,1252,603,0,0
35,421,0,0,0,0,0,0,0,0,0,-1,1259,603,0,0
42,421,0,0,0,0,0,0,0,0,0,-1,1266,603,0,0
49,421,0,0,0,0,0,0,0,0,0,-1,1273,603,0,0
56,421,0,0,0,0,0,0,0,0,0,-1,1280,603,0,0
63,421,0,0,0,0,0,0,0,0,0,-1,1287,603,0,0
70,421,0,0,0,0,0,0,0,0,0,-1,1294,603,0,0
77,421,0,0,0,0,0,0,0,0,0,-1,1301,603,0,0
84,421,0,0,0,0,0,0,0,0,0,-1,1308,603,0,0
91,421,0,0,0,0,0,0,0,0,0,-1,1315,603,0,0
98,421,0,0,0,0,0,0,0,0,0,-1,1322,603,0,0
105,421,0,0,0,0,0,0,0,0,0,-1,1329,603,0,0
112,421,0,0,0,0,0,0,0,0,0,-1,1336,603,0,0
119,421,0,0,0,0,0,0,0,0,0,-1,1343,603,0,0
126,421,0,0,0,0,0,0,0,0,0,-1,1350,603,0,0
133,421,0,0,0,0,0,0,0,0,0,-1,1357,603,0,0
140,421,0,0,0,0,0,0,0,0,0,-1,1364,603,0,0
147,421,0,0,0,0,0,0,0,0,0,-1,1371,603,0,0
154,421,0,0,0,0,0,0,0,0,0,-1,1378,603,0,0
161,421,0,0,0,0,0,0,0,0,0,-1,1385,603,0,0
168,421,0,0,0,0,0,0,0,0,0,-1,1392,603,0,0
175,421,0,0,0,0,0,0,0,0,0,-1,1399,603,0,0
182,421,0,0,0,0,0,0,0,0,0,-1,1406,603,0,0
189,421,0,0,0,0,0,0,0,0,0,-1,1413,603,0,0
196,421,0,0,0,0,0,0,0,0,0,-1,1420,603,0,0
203,421,0,0,0,0,0,0,0,0,0,-1,1427,603,0,0
210,421,0,0,0,0,0,0,0,0,0,-1,1434,603,0,0
217,421,0,0,0,0,0,0,0,0,0,-1,1441,603,0,0
224,421,0,0,0,0,0,0,0,0,0,-1,1448,603,0,0
231,421,0,0,0,0,0,0,0,0,0,-1,1455,603,0,0
238,421,0,0,0,0,0,0,0,0,0,-1,1462,603,0,0
245,421,0,0,0,0,0,0,0,0,0,-1,1469,603,0,0
252,421,0,0,0,0,0,0,0,0,0,-1,1476,603,0,0
259,421,0,0,0,0,0,0,0,0,0,-1,1483,603,0,0
266,421,0,0,0,0,0,0,0,0,0,-1,1490,603,0,0
273,421,0,0,0,0,0,0,0,0,0,-1,1497,603,0,0
280,421,0,0,0,0,0,0,0,0,0,-1,1504,603,0,0
287,421,0,0,0,0,0,0,0,0,0,-1,1511,603,0,0
294,421,0,0,0,0,0,0,0,0,0,-1,1518,603,0,0
301,421,0,0,0,0,0,0,0,0,0,-1,1525,603,0,0
308,421,0,0,0,0,0,0,0,0,0,-1,1532,603,0,0
315,421,0,0,0,0,0,0,0,0,0,-1,1539,603,0,0
322,421,0,0,0,0,0,0,0,0,0,-1,1546,603,0,0
329,421,0,0,0,0,0,0,0,0,0,-1,1553,603,0,0
336,421,0,0,0,0,0,0,0,0,0,-1,1560,603,0,0
343,421,0,0,0,0,0,0,0,0,0,-1,1567,603,0,0
350,421,0,0,0,0,0,0,0,0,0,-1,1574,603,0,0
357,421,0,0,0,0,0,0,0,0,0,-1,1581,603,0,0
364,421,0,0,0,0,0,0,0,0,0,-1,1588,603,0,0
371,421,0,0,0,0,0,0,0,0,0,-1,1595,603,0,0
378,421,0,0,0,0,0,0,0,0,0,-1,1602,603,0,0
385,421,0,0,0,0,0,0,0,0,0,-1,1609,603,0,0
392,421,0,0,0,0,0,0,0,0,0,-1,1616,603,0,0
399,421,0,0,0,0,0,0,0,0,0,-1,1623,603,0,0
406,421,0,0,0,0,0,0,0,0,0,-1,1630,603,0,0
413,421,0,0,0,0,0,0,0,0,0,-1,1637,603,0,0
420,421,0,0,0,0,0,0,0,0,0,-1,1644,603,0,0
427,421,0,0,0,0,0,0,0,0,0,-1,1651,603,0,0
434,421,3.68176,-0.0327759,0,0,0,0,0,0,0,-1,1658,603,3.6818,0.0328037
441,421,8.06689,0.527832,0,0,0,0,0,0,0,-1,1665,603,8.06693,-0.527851
448,421,6.93921,0.802246,0,0,0,0,0,0,0,-1,1672,603,6.93923,-0.802251
455,421,7.29456,2.14825,0,0,0,0,0,0,0,-1,1679,603,7.29461,-2.14827
462,421,7.86902,3.53174,0,0,0,0,0,0,0,-1,1686,603,7.869,-3.53173
469,421,8.06604,2.81213,0,0,0,0,0,0,0,-1,1693,603,8.06606,-2.81212
476,421,8.26306,2.09253,0,0,0,0,0,0,0,-1,1700,603,8.26312,-2.09251
483,421,8.05322,0.798096,0,0,0,0,0,0,0,-1,1707,603,8.05323,-0.7981
490,421,7.51233,0.213074,0,0,0,0,0,0,0,-1,1714,603,7.51235,-0.213043
497,421,7.49634,-2.86688,0,0,0,0,0,0,0,-1,1721,603,7.4963,2.86688
504,421,6.90491,-2.18671,0,0,0,0,0,0,0,-1,1728,603,6.90491,2.18669
511,421,6.31348,-1.50653,0,0,0,0,0,0,0,-1,1735,603,6.31353,1.5065
518,421,6.27588,-2.49878,0,0,0,0,0,0,0,-1,1742,603,6.2759,2.4988
525,421,15.8555,-10.6967,0,0,0,0,0,0,0,-1,1749,603,15.8554,10.6967
532,421,16.0002,-9.97363,0.00465357,0.00222522,0.00199816,0.00577752,0.00110126,0.512386,0.00354213,0.042015,1756,603,16.0002,9.97361
539,421,16.1326,-9.45453,0.00388962,0.00181947,0.00158687,0.00474915,0.000959942,0.496411,0.00289958,0.0225019,1763,603,16.1326,9.4545
546,421,16.1002,-8.98419,0.00324487,0.00146499,0.00127925,0.00391329,0.000796567,0.481491,0.00238804,0.0134833,1770,603,16.1002,8.98421
553,421,16.0859,-8.47058,0.00253142,0.00105993,0.000972743,0.00301532,0.000576024,0.461619,0.00184837,0.0118835,1777,603,16.086,8.47059
560,421,16.0807,-7.95404,0.00184444,0.000799979,0.000749047,0.00223533,0.000409084,0.480979,0.00137431,0.0135105,1784,603,16.0806,7.95405
567,421,16.0668,-7.48889,0.00127752,0.000740258,0.000691833,0.00175104,0.000266732,0.600215,0.00108939,0.01579,1791,603,16.0668,7.48891
574,421,16.0477,-6.99188,0.000840701,0.000776589,0.000776432,0.00158574,3.15512e-05,0.764767,0.0010468,0.0182578,1798,603,16.0477,6.9919
581,421,16.0508,-6.43933,0.000499469,0.000966914,0.00100924,0.00176914,-0.000302756,0.899184,0.00129222,0.0164972,1805,603,16.0508,6.4393
588,421,16.0249,-5.94324,0.000280925,0.00136037,0.00140582,0.00232651,-0.000685216,0.968682,0.00182286,0.0122336,1812,603,16.0249,5.94321
595,421,16.047,-5.42816,0.000296147,0.00207405,0.00207186,0.00343961,-0.00106942,0.98805,0.00272053,0.0163496,1819,603,16.047,5.42819
602,421,15.9611,-4.99304,0.00048411,0.00303383,0.00295254,0.00497498,-0.00145705,0.989199,0.00389428,0.0194039,1826,603,15.9611,4.99305
609,421,15.8912,-4.4046,0.00104925,0.00438674,0.00421064,0.00724725,-0.00181126,0.974062,0.00553494,0.0326701,1833,603,15.8912,4.40462
616,421,16.0714,-3.7298,0,0,0,0,0,0,0,-1,1840,603,16.0714,3.72981
623,421,6.19885,0.376648,0,0,0,0,0,0,0,-1,1847,603,6.19881,-0.376624
630,421,6.54993,0.778748,0,0,0,0,0,0,0,-1,1854,603,6.54991,-0.778744
637,421,3.74512,1.65405,0,0,0,0,0,0,0,-1,1861,603,3.74517,-1.65407
644,421,3.58081,0.354675,0,0,0,0,0,0,0,-1,1868,603,3.58082,-0.354704
651,421,3.28687,3.66351,0,0,0,0,0,0,0,-1,1875,603,3.28688,-3.66353
658,421,0,0,0,0,0,0,0,0,0,-1,1882,603,0,0
665,421,0,0,0,0,0,0,0,0,0,-1,1889,603,0,0
672,421,0,0,0,0,0,0,0,0,0,-1,1896,603,0,0
679,421,0,0,0,0,0,0,0,0,0,-1,1903,603,0,0
686,421,0,0,0,0,0,0,0,0,0,-1,1910,603,0,0
693,421,0,0,0,0,0,0,0,0,0,-1,1917,603,0,0
700,421,0,0,0,0,0,0,0,0,0,-1,1924,603,0,0
707,421,0,0,0,0,0,0,0,0,0,-1,1931,603,0,0
714,421,0,0,0,0,0,0,0,0,0,-1,1938,603,0,0
721,421,0,0,0,0,0,0,0,0,0,-1,1945,603,0,0
728,421,0,0,0,0,0,0,0,0,0,-1,1952,603,0,0
735,421,0,0,0,0,0,0,0,0,0,-1,1959,603,0,0
742,421,0,0,0,0,0,0,0,0,0,-1,1966,603,0,0
749,421,0,0,0,0,0,0,0,0,0,-1,1973,603,0,0
756,421,0,0,0,0,0,0,0,0,0,-1,1980,603,0,0
763,421,0,0,0,0,0,0,0,0,0,-1,1987,603,0,0
770,421,0,0,0,0,0,0,0,0,0,-1,1994,603,0,0
777,421,0,0,0,0,0,0,0,0,0,-1,2001,603,0,0
784,421,0,0,0,0,0,0,0,0,0,-1,2008,603,0,0
791,421,0,0,0,0,0,0,0,0,0,-1,2015,603,0,0
798,421,0,0,0,0,0,0,0,0,0,-1,2022,603,0,0
805,421,0,0,0,0,0,0,0,0,0,-1,2029,603,0,0
812,421,0,0,0,0,0,0,0,0,0,-1,2036,603,0,0
-700,414,0,0,0,0,0,0,0,0,0,-1,524,610,0,0
-693,414,0,0,0,0,0,0,0,0,0,-1,531,610,0,0
-686,414,0,0,0,0,0,0,0,0,0,-1,538,610,0,0
-679,414,0,0,0,0,0,0,0,0,0,-1,545,610,0,0
-672,414,0,0,0,0,0,0,0,0,0,-1,552,610,0,0
-665,414,0,0,0,0,0,0,0,0,0,-1,559,610,0,0
-658,414,0,0,0,0,0,0,0,0,0,-1,566,610,0,0
-651,414,0,0,0,0,0,0,0,0,0,-1,573,610,0,0
-644,414,0,0,0,0,0,0,0,0,0,-1,580,610,0,0
-637,414,0,0,0,0,0,0,0,0,0,-1,587,610,0,0
-630,414,0,0,0,0,0,0,0,0,0,-1,594,610,0,0
-623,414,0,0,0,0,0,0,0,0,0,-1,601,610,0,0
-616,414,0,0,0,0,0,0,0,0,0,-1,608,610,0,0
-609,414,0,0,0,0,0,0,0,0,0,-1,615,610,0,0
-602,414,0,0,0,0,0,0,0,0,0,-1,622,610,0,0
-595,414,0,0,0,0,0,0,0,0,0,-1,629,610,0,0
-588,414,0,0,0,0,0,0,0,0,0,-1,636,610,0,0
-581,414,0,0,0,0,0,0,0,0,0,-1,643,610,0,0
-574,414,0,0,0,0,0,0,0,0,0,-1,650,610,0,0
-567,414,0,0,0,0,0,0,0,0,0,-1,657,610,0,0
-560,414,0,0,0,0,0,0,0,0,0,-1,664,610,0,0
-553,414,0,0,0,0,0,0,0,0,0,-1,671,610,0,0
-546,414,0,0,0,0,0,0,0,0,0,-1,678,610,0,0
-539,414,-7.50146,5.65619,0,0,0,0,0,0,0,-1,685,610,-7.50149,-5.65617
-532,414,-8.15204,4.01605,0,0,0,0,0,0,0,-1,692,610,-8.15206,-4.01606
-525,414,-3.47137,-3.27924,0,0,0,0,0,0,0,-1,699,610,-3.47136,3.27922
-518,414,-4.12909,-4.36908,0,0,0,0,0,0,0,-1,706,610,-4.12909,4.36909
-511,414,-3.92542,-4.97021,0,0,0,0,0,0,0,-1,713,610,-3.92542,4.97023
-504,414,-1.62408,-3.64496,0,0,0,0,0,0,0,-1,720,610,-1.62406,3.64499
-497,414,-7.87024,-5.05469,0,0,0,0,0,0,0,-1,727,610,-7.87022,5.05469
-490,414,-7.61804,-5.2597,0,0,0,0,0,0,0,-1,734,610,-7.61803,5.25969
-483,414,-7.45398,-6.12714,-0.000985567,0.00582744,-0.0039191,0.00761359,-0.00277171,-1.14317,0.00620937,0.0339121,741,610,-7.45395,6.12715
-476,414,-7.50684,-6.69397,-0.000988222,0.00444336,-0.00314808,0.0058852,-0.00243006,-1.1413,0.00493704,0.0200003,748,610,-7.50684,6.69397
-469,414,-7.56891,-7.15228,-0.00077094,0.00334433,-0.00255682,0.00456864,-0.00199525,-1.12422,0.00388554,0.0133831,755,610,-7.5689,7.15229
-462,414,-7.55096,-7.66089,-0.000444432,0.00246134,-0.00205172,0.00352251,-0.00150559,-1.09348,0.00297981,0.0208938,762,610,-7.55097,7.6609
-455,414,-7.54938,-8.14825,-0.000247519,0.00163137,-0.00148959,0.00245301,-0.00106916,-1.06673,0.00208519,0.0239756,769,610,-7.5494,8.14827
-448,414,-7.56567,-8.62933,-0.000174982,0.000644642,-0.000751415,0.00109073,-0.000621074,-1.03505,0.00100063,0.0242065,776,610,-7.56566,8.62934
-441,414,-7.58893,-9.13324,-0.000305428,-0.000311951,9.7748e-05,-0.000210887,-0.000406492,0.768719,0.000234744,0.0170151,783,610,-7.58895,9.13323
-434,414,-7.62567,-9.60999,-0.000597904,-0.00120934,0.000985949,0.000128637,-0.00193588,0.635061,0.00133553,0.00996053,790,610,-7.62565,9.60999
-427,414,-7.62634,-10.0801,-0.0010267,-0.00225842,0.00199208,0.000442549,-0.00372766,0.635481,0.002645,0.0105904,797,610,-7.62632,10.0801
-420,414,-7.61865,-10.5482,-0.00164693,-0.00337579,0.00312437,0.00073039,-0.00575311,0.650438,0.00410061,0.0096719,804,610,-7.61865,10.5482
-413,414,-7.63751,-11.0198,-0.00247939,-0.00451026,0.00441051,0.00103107,-0.00802072,0.672254,0.00572189,0.010575,811,610,-7.6375,11.0198
-406,414,-7.65021,-11.5522,-0.00356425,-0.00578305,0.00580828,0.00123963,-0.0105869,0.691033,0.00750536,0.0234239,818,610,-7.65021,11.5522
-399,414,-7.71173,-11.8632,-0.00474442,-0.0070956,0.00722177,0.00139682,-0.0132368,0.704714,0.0093251,0.0444181,825,610,-7.71171,11.8632
-392,414,-7.82977,-12.1903,0,0,0,0,0,0,0,-1,832,610,-7.82977,12.1903
-385,414,-7.5979,-12.9295,0,0,0,0,0,0,0,-1,839,610,-7.59787,12.9295
-378,414,-8.04907,-11.3331,0,0,0,0,0,0,0,-1,846,610,-8.04905,11.3331
-371,414,-5.20886,-8.05151,0,0,0,0,0,0,0,-1,853,610,-5.20887,8.05153
-364,414,-6.76282,-6.58759,0,0,0,0,0,0,0,-1,860,610,-6.7628,6.58756
-357,414,-9.08685,-8.86188,0,0,0,0,0,0,0,-1,867,610,-9.08688,8.86187
-350,414,-6.4502,-2.41821,0,0,0,0,0,0,0,-1,874,610,-6.45021,2.41822
-343,414,-6.80249,-2.32117,0,0,0,0,0,0,0,-1,881,610,-6.80252,2.32116
-336,414,-7.11017,-2.52026,0,0,0,0,0,0,0,-1,888,610,-7.11016,2.52026
-329,414,-7.59747,-2.70313,0,0,0,0,0,0,0,-1,895,610,-7.59747,2.70315
-322,414,-4.42236,-1.29163,0,0,0,0,0,0,0,-1,902,610,-4.42238,1.2916
-315,414,0,0,0,0,0,0,0,0,0,-1,909,610,0,0
-308,414,0,0,0,0,0,0,0,0,0,-1,916,610,0,0
-301,414,0,0,0,0,0,0,0,0,0,-1,923,610,0,0
-294,414,0,0,0,0,0,0,0,0,0,-1,930,610,0,0
-287,414,0,0,0,0,0,0,0,0,0,-1,937,610,0,0
-280,414,0,0,0,0,0,0,0,0,0,-1,944,610,0,0
-273,414,0,0,0,0,0,0,0,0,0,-1,951,610,0,0
-266,414,0,0,0,0,0,0,0,0,0,-1,958,610,0,0
-259,414,0,0,0,0,0,0,0,0,0,-1,965,610,0,0
-252,414,0,0,0,0,0,0,0,0,0,-1,972,610,0,0
-245,414,0,0,0,0,0,0,0,0,0,-1,979,610,0,0
-238,414,0,0,0,0,0,0,0,0,0,-1,986,610,0,0
-231,414,0,0,0,0,0,0,0,0,0,-1,993,610,0,0
-224,414,0,0,0,0,0,0,0,0,0,-1,1000,610,0,0
-217,414,0,0,0,0,0,0,0,0,0,-1,1007,610,0,0
-210,414,0,0,0,0,0,0,0,0,0,-1,1014,610,0,0
-203,414,0,0,0,0,0,0,0,0,0,-1,1021,610,0,0
-196,414,0,0,0,0,0,0,0,0,0,-1,1028,610,0,0
-189,414,0,0,0,0,0,0,0,0,0,-1,1035,610,0,0
-182,414,0,0,0,0,0,0,0,0,0,-1,1042,610,0,0
-175,414,0,0,0,0,0,0,0,0,0,-1,1049,610,0,0
-168,414,0,0,0,0,0,0,0,0,0,-1,1056,610,0,0
-161,414,0,0,0,0,0,0,0,0,0,-1,1063,610,0,0
-154,414,0,0,0,0,0,0,0,0,0,-1,1070,610,0,0
-147,414,0,0,0,0,0,0,0,0,0,-1,1077,610,0,0
-140,414,0,0,0,0,0,0,0,0,0,-1,1084,610,0,0
-133,414,0,0,0,0,0,0,0,0,0,-1,1091,610,0,0
-126,414,0,0,0,0,0,0,0,0,0,-1,1098,610,0,0
-119,414,0,0,0,0,0,0,0,0,0,-1,1105,610,0,0
-112,414,0,0,0,0,0,0,0,0,0,-1,1112,610,0,0
-105,414,0,0,0,0,0,0,0,0,0,-1,1119,610,0,0
-98,414,0,0,0,0,0,0,0,0,0,-1,1126,610,0,0
-91,414,0,0,0,0,0,0,0,0,0,-1,1133,610,0,0
-84,414,0,0,0,0,0,0,0,0,0,-1,1140,610,0,0
-77,414,0,0,0,0,0,0,0,0,0,-1,1147,610,0,0
-70,414,0,0,0,0,0,0,0,0,0,-1,1154,610,0,0
-63,414,0,0,0,0,0,0,0,0,0,-1,1161,610,0,0
-56,414,0,0,0,0,0,0,0,0,0,-1,1168,610,0,0
-49,414,0,0,0,0,0,0,0,0,0,-1,1175,610,0,0
-42,414,0,0,0,0,0,0,0,0,0,-1,1182,610,0,0
-35,414,0,0,0,0,0,0,0,0,0,-1,1189,610,0,0
-28,414,0,0,0,0,0,0,0,0,0,-1,1196,610,0,0
-21,414,0,0,0,0,0,0,0,0,0,-1,1203,610,0,0
-14,414,0,0,0,0,0,0,0,0,0,-1,1210,610,0,0
-7,414,0,0,0,0,0,0,0,0,0,-1,1217,610,0,0
0,414,0,0,0,0,0,0,0,0,0,-1,1224,610,0,0
7,414,0,0,0,0,0,0,0,0,0,-1,1231,610,0,0
14,414,0,0,0,0,0,0,0,0,0,-1,1238,610,0,0
21,414,0,0,0,0,0,0,0,0,0,-1,1245,610,0,0
28,414,0,0,0,0,0,0,0,0,0,-1,1252,610,0,0
35,414,0,0,0,0,0,0,0,0,0,-1,1259,610,0,0
42,414,0,0,0,0,0,0,0,0,0,-1,1266,610,0,0
49,414,0,0,0,0,0,0,0,0,0,-1,1273,610,0,0
56,414,0,0,0,0,0,0,0,0,0,-1,1280,610,0,0
63,414,0,0,0,0,0,0,0,0,0,-1,1287,610,0,0
70,414,0,0,0,0,0,0,0,0,0,-1,1294,610,0,0
77,414,0,0,0,0,0,0,0,0,0,-1,1301,610,0,0
84,414,0,0,0,0,0,0,0,0,0,-1,1308,610,0,0
91,414,0,0,0,0,0,0,0,0,0,-1,1315,610,0,0
98,414,0,0,0,0,0,0,0,0,0,-1,1322,610,0,0
105,414,0,0,0,0,0,0,0,0,0,-1,1329,610,0,0
112,414,0,0,0,0,0,0,0,0,0,-1,1336,610,0,0
119,414,0,0,0,0,0,0,0,0,0,-1,1343,610,0,0
126,414,0,0,0,0,0,0,0,0,0,-1,1350,610,0,0
133,414,0,0,0,0,0,0,0,0,0,-1,1357,610,0,0
140,414,0,0,0,0,0,0,0,0,0,-1,1364,610,0,0
147,414,0,0,0,0,0,0,0,0,0,-1,1371,610,0,0
154,414,0,0,0,0,0,0,0,0,0,-1,1378,610,0,0
161,414,0,0,0,0,0,0,0,0,0,-1,1385,610,0,0
168,414,0,0,0,0,0,0,0,0,0,-1,1392,610,0,0
175,414,0,0,0,0,0,0,0,0,0,-1,1399,610,0,0
182,414,0,0,0,0,0,0,0,0,0,-1,1406,610,0,0
189,414,0,0,0,0,0,0,0,0,0,-1,1413,610,0,0
196,414,0,0,0,0,0,0,0,0,0,-1,1420,610,0,0
203,414,0,0,0,0,0,0,0,0,0,-1,1427,610,0,0
210,414,0,0,0,0,0,0,0,0,0,-1,1434,610,0,0
217,414,0,0,0,0,0,0,0,0,0,-1,1441,610,0,0
224,414,0,0,0,0,0,0,0,0,0,-1,1448,610,0,0
231,414,0,0,0,0,0,0,0,0,0,-1,1455,610,0,0
238,414,0,0,0,0,0,0,0,0,0,-1,1462,610,0,0
245,414,0,0,0,0,0,0,0,0,0,-1,1469,610,0,0
252,414,0,0,0,0,0,0,0,0,0,-1,1476,610,0,0
259,414,0,0,0,0,0,0,0,0,0,-1,1483,610,0,0
266,414,0,0,0,0,0,0,0,0,0,-1,1490,610,0,0
273,414,0,0,0,0,0,0,0,0,0,-1,1497,610,0,0
280,414,0,0,0,0,0,0,0,0,0,-1,1504,610,0,0
287,414,0,0,0,0,0,0,0,0,0,-1,1511,610,0,0
294,414,0,0,0,0,0,0,0,0,0,-1,1518,610,0,0
301,414,0,0,0,0,0,0,0,0,0,-1,1525,610,0,0
308,414,0,0,0,0,0,0,0,0,0,-1,1532,610,0,0
315,414,0,0,0,0,0,0,0,0,0,-1,1539,610,0,0
322,414,0,0,0,0,0,0,0,0,0,-1,1546,610,0,0
329,414,0,0,0,0,0,0,0,0,0,-1,1553,610,0,0
336,414,0,0,0,0,0,0,0,0,0,-1,1560,610,0,0
343,414,0,0,0,0,0,0,0,0,0,-1,1567,610,0,0
350,414,0,0,0,0,0,0,0,0,0,-1,1574,610,0,0
357,414,0,0,0,0,0,0,0,0,0,-1,1581,610,0,0
364,414,0,0,0,0,0,0,0,0,0,-1,1588,610,0,0
371,414,0,0,0,0,0,0,0,0,0,-1,1595,610,0,0
378,414,0,0,0,0,0,0,0,0,0,-1,1602,610,0,0
385,414,0,0,0,0,0,0,0,0,0,-1,1609,610,0,0
392,414,0,0,0,0,0,0,0,0,0,-1,1616,610,0,0
399,414,0,0,0,0,0,0,0,0,0,-1,1623,610,0,0
406,414,0,0,0,0,0,0,0,0,0,-1,1630,610,0,0
413,414,0,0,0,0,0,0,0,0,0,-1,1637,610,0,0
420,414,0,0,0,0,0,0,0,0,0,-1,1644,610,0,0
427,414,0,0,0,0,0,0,0,0,0,-1,1651,610,0,0
434,414,0,0,0,0,0,0,0,0,0,-1,1658,610,0,0
441,414,7.84375,0.584412,0,0,0,0,0,0,0,-1,1665,610,7.84379,-0.584394
448,414,7.40808,1.25446,0,0,0,0,0,0,0,-1,1672,610,7.40807,-1.25446
455,414,6.3512,1.73846,0,0,0,0,0,0,0,-1,1679,610,6.3512,-1.73847
462,414,8.18103,3.22113,0,0,0,0,0,0,0,-1,1686,610,8.18108,-3.22112
469,414,8.38513,2.49579,0,0,0,0,0,0,0,-1,1693,610,8.38516,-2.49576
476,414,8.64099,1.71161,0,0,0,0,0,0,0,-1,1700,610,8.64097,-1.71164
483,414,8.62744,0.687622,0,0,0,0,0,0,0,-1,1707,610,8.62749,-0.687615
490,414,8.38831,-0.0302734,0,0,0,0,0,0,0,-1,1714,610,8.38835,0.0302913
497,414,4.71094,-0.110046,0,0,0,0,0,0,0,-1,1721,610,4.71089,0.110024
504,414,7.19568,-1.43835,0,0,0,0,0,0,0,-1,1728,610,7.19563,1.43836
511,414,5.94153,-1.28772,0,0,0,0,0,0,0,-1,1735,610,5.94151,1.28769
518,414,4.53381,-0.0996704,0,0,0,0,0,0,0,-1,1742,610,4.53378,0.0996819
525,414,6.18811,-1.64056,0,0,0,0,0,0,0,-1,1749,610,6.18814,1.64055
532,414,16.5,-10.1779,0,0,0,0,0,0,0,-1,1756,610,16.5,10.1779
539,414,16.5905,-9.55408,0.0047439,0.00201928,0.00175511,0.00560337,0.00115981,0.455369,0.00341526,0.0450992,1763,610,16.5904,9.55408
546,414,16.6018,-8.95392,0.00408308,0.00163902,0.00141779,0.00473281,0.000989284,0.42971,0.0028826,0.0143299,1770,610,16.6018,8.95394
553,414,16.5991,-8.46307,0.0033136,0.00115288,0.00106578,0.00375082,0.000715657,0.389302,0.00229942,0.0128067,1777,610,16.5991,8.4631
560,414,16.5817,-7.94232,0.00254582,0.000832487,0.00076212,0.00283576,0.000542547,0.36353,0.00173811,0.0141616,1784,610,16.5816,7.94233
567,414,16.5365,-7.46515,0.00192806,0.000733099,0.000675955,0.00223274,0.000428416,0.423473,0.00136823,0.0230083,1791,610,16.5365,7.46514
574,414,16.5214,-6.97516,0.00145194,0.000763535,0.000745411,0.00192878,0.000286694,0.569102,0.00120174,0.020392,1798,610,16.5214,6.97517
581,414,16.575,-6.42273,0.00107293,0.000965989,0.000962903,0.00198385,5.50747e-05,0.75766,0.00130459,0.0165858,1805,610,16.575,6.42276
588,414,16.525,-5.92938,0.000795828,0.00136129,0.0013147,0.00242331,-0.000266195,0.891312,0.00171119,0.0165117,1812,610,16.5251,5.9294
595,414,16.5153,-5.40955,0.000762212,0.00206394,0.00192459,0.00344474,-0.000618594,0.948452,0.00252805,0.0220283,1819,610,16.5152,5.40956
602,414,16.4873,-4.89856,0.000910652,0.00301971,0.00272488,0.004887,-0.00095664,0.970022,0.00361927,0.0240248,1826,610,16.4874,4.89858
609,414,16.4023,-4.40015,0.00137301,0.00434029,0.00383922,0.00697257,-0.00125927,0.969781,0.00512002,0.0233706,1833,610,16.4023,4.40013
616,414,16.7258,-3.66998,0,0,0,0,0,0,0,-1,1840,610,16.7258,3.66999
623,414,9.6969,0.0378418,0,0,0,0,0,0,0,-1,1847,610,9.69685,-0.0378644
630,414,5.47144,0.499329,0,0,0,0,0,0,0,-1,1854,610,5.47142,-0.499303
637,414,8.36707,4.16278,0,0,0,0,0,0,0,-1,1861,610,8.36709,-4.16278
644,414,5.87073,1.51422,0,0,0,0,0,0,0,-1,1868,610,5.87076,-1.51424
651,414,3.6377,0.820557,0,0,0,0,0,0,0,-1,1875,610,3.6377,-0.820543
658,414,2.29761,3.87323,0,0,0,0,0,0,0,-1,1882,610,2.29758,-3.87325
665,414,0,0,0,0,0,0,0,0,0,-1,1889,610,0,0
672,414,0,0,0,0,0,0,0,0,0,-1,1896,610,0,0
679,414,0,0,0,0,0,0,0,0,0,-1,1903,610,0,0
686,414,0,0,0,0,0,0,0,0,0,-1,1910,610,0,0
693,414,0,0,0,0,0,0,0,0,0,-1,1917,610,0,0
700,414,0,0,0,0,0,0,0,0,0,-1,1924,610,0,0
707,414,0,0,0,0,0,0,0,0,0,-1,1931,610,0,0
714,414,0,0,0,0,0,0,0,0,0,-1,1938,610,0,0
721,414,0,0,0,0,0,0,0,0,0,-1,1945,610,0,0
728,414,0,0,0,0,0,0,0,0,0,-1,1952,610,0,0
735,414,0,0,0,0,0,0,0,0,0,-1,1959,610,0,0
742,414,0,0,0,0,0,0,0,0,0,-1,1966,610,0,0
749,414,0,0,0,0,0,0,0,0,0,-1,1973,610,0,0
756,414,0,0,0,0,0,0,0,0,0,-1,1980,610,0,0
763,414,0,0,0,0,0,0,0,0,0,-1,1987,610,0,0
770,414,0,0,0,0,0,0,0,0,0,-1,1994,610,0,0
777,414,0,0,0,0,0,0,0,0,0,-1,2001,610,0,0
784,414,0,0,0,0,0,0,0,0,0,-1,2008,610,0,0
791,414,0,0,0,0,0,0,0,0,0,-1,2015,610,0,0
798,414,0,0,0,0,0,0,0,0,0,-1,2022,610,0,0
805,414,0,0,0,0,0,0,0,0,0,-1,2029,610,0,0
812,414,0,0,0,0,0,0,0,0,0,-1,2036,610,0,0
-700,407,0,0,0,0,0,0,0,0,0,-1,524,617,0,0
-693,407,0,0,0,0,0,0,0,0,0,-1,531,617,0,0
-686,407,0,0,0,0,0,0,0,0,0,-1,538,617,0,0
-679,407,0,0,0,0,0,0,0,0,0,-1,545,617,0,0
-672,407,0,0,0,0,0,0,0,0,0,-1,552,617,0,0
-665,407,0,0,0,0,0,0,0,0,0,-1,559,617,0,0
-658,407,0,0,0,0,0,0,0,0,0,-1,566,617,0,0
-651,407,0,0,0,0,0,0,0,0,0,-1,573,617,0,0
-644,407,0,0,0,0,0,0,0,0,0,-1,580,617,0,0
-637,407,0,0,0,0,0,0,0,0,0,-1,587,617,0,0
-630,407,0,0,0,0,0,0,0,0,0,-1,594,617,0,0
-623,407,0,0,0,0,0,0,0,0,0,-1,601,617,0,0
-616,407,0,0,0,0,0,0,0,0,0,-1,608,617,0,0
-609,407,0,0,0,0,0,0,0,0,0,-1,615,617,0,0
-602,407,0,0,0,0,0,0,0,0,0,-1,622,617,0,0
-595,407,0,0,0,0,0,0,0,0,0,-1,629,617,0,0
-588,407,0,0,0,0,0,0,0,0,0,-1,636,617,0,0
-581,407,0,0,0,0,0,0,0,0,0,-1,643,617,0,0
-574,407,0,0,0,0,0,0,0,0,0,-1,650,617,0,0
-567,407,0,0,0,0,0,0,0,0,0,-1,657,617,0,0
-560,407,0,0,0,0,0,0,0,0,0,-1,664,617,0,0
-553,407,0,0,0,0,0,0,0,0,0,-1,671,617,0,0
-546,407,-8.54517,-0.658142,0,0,0,0,0,0,0,-1,678,617,-8.54515,0.658112
-539,407,-6.09442,-1.01154,0,0,0,0,0,0,0,-1,685,617,-6.09441,1.01155
-532,407,-7.75665,1.62152,0,0,0,0,0,0,0,-1,692,617,-7.75667,-1.62154
-525,407,-3.78247,-2.67639,0,0,0,0,0,0,0,-1,699,617,-3.78246,2.67638
-518,407,-5.013,-5.87323,0,0,0,0,0,0,0,-1,706,617,-5.013,5.87324
-511,407,-4.26392,-4.37659,0,0,0,0,0,0,0,-1,713,617,-4.26393,4.37658
-504,407,-8.16052,-4.44714,0,0,0,0,0,0,0,-1,720,617,-8.16053,4.44716
-497,407,-8.04089,-5.07245,0,0,0,0,0,0,0,-1,727,617,-8.04092,5.07244
-490,407,-7.93799,-5.63153,-0.000297877,0.00662555,-0.00402484,0.00847258,-0.00214491,-1.14056,0.00648273,0.041011,734,617,-7.93797,5.63156
-483,407,-7.90558,-6.14496,-0.000511591,0.00492569,-0.00320425,0.00640922,-0.00199512,-1.13719,0.00507043,0.0256914,741,617,-7.90556,6.14496
-476,407,-7.9671,-6.6134,-0.000495943,0.00366278,-0.00257056,0.0048897,-0.00172286,-1.12547,0.00396102,0.0148864,748,617,-7.96708,6.6134
-469,407,-8.01868,-7.10132,-0.000290811,0.0026709,-0.00208488,0.00374732,-0.00136723,-1.0942,0.00305761,0.0123221,755,617,-8.0187,7.10132
-462,407,-8.04474,-7.61047,-3.7397e-05,0.00185931,-0.00164523,0.00280995,-0.000988034,-1.04685,0.00227531,0.0189233,762,617,-8.04473,7.61047
-455,407,-8.04425,-8.1153,3.50064e-05,0.000999583,-0.00105956,0.00168145,-0.000646862,-0.998975,0.00138778,0.0218722,769,617,-8.04427,8.11531
-448,407,-8.03473,-8.61462,4.12512e-05,2.55904e-05,-0.000330578,0.000364092,-0.00029725,-0.773557,0.000382475,0.0196197,776,617,-8.03474,8.61459
-441,407,-8.06934,-9.08282,-0.000176997,-0.00093238,0.000541905,0.00010585,-0.00121523,0.481053,0.000847641,0.0142302,783,617,-8.06934,9.08285
-434,407,-8.10474,-9.54559,-0.000580959,-0.00188493,0.00150624,0.000408351,-0.00287424,0.581145,0.00206578,0.0105382,790,617,-8.10472,9.5456
-427,407,-8.10486,-10.0261,-0.0011942,-0.00305043,0.00265638,0.000691532,-0.00493617,0.617332,0.00354385,0.0111671,797,617,-8.10485,10.0262
-420,407,-8.0741,-10.511,-0.00210371,-0.00440076,0.00404873,0.00095624,-0.00746072,0.647191,0.00532127,0.0106393,804,617,-8.07412,10.511
-413,407,-8.07446,-10.9763,-0.00329573,-0.00578985,0.00565002,0.00124321,-0.0103288,0.676781,0.00733547,0.0125688,811,617,-8.07444,10.9762
-406,407,-8.16687,-11.2808,-0.00495352,-0.00753962,0.0075439,0.00140734,-0.0139005,0.700521,0.00976995,0.0360271,818,617,-8.16687,11.2808
-399,407,-8.43994,-11.831,0,0,0,0,0,0,0,-1,825,617,-8.43996,11.831
-392,407,-7.65094,-12.0063,0,0,0,0,0,0,0,-1,832,617,-7.65092,12.0063
-385,407,-7.65765,-10.7744,0,0,0,0,0,0,0,-1,839,617,-7.65767,10.7744
-378,407,-6.08655,-7.42291,0,0,0,0,0,0,0,-1,846,617,-6.08652,7.42292
-371,407,-7.4007,-5.79449,0,0,0,0,0,0,0,-1,853,617,-7.40072,5.79447
-364,407,-10.0638,-6.6228,0,0,0,0,0,0,0,-1,860,617,-10.0639,6.62279
-357,407,-6.64447,-1.83337,0,0,0,0,0,0,0,-1,867,617,-6.64446,1.8334
-350,407,-7.03351,-1.77551,0,0,0,0,0,0,0,-1,874,617,-7.03349,1.77551
-343,407,-7.40967,-1.95026,0,0,0,0,0,0,0,-1,881,617,-7.40969,1.95026
-336,407,-8.10229,-2.40662,0,0,0,0,0,0,0,-1,888,617,-8.10229,2.40664
-329,407,-8.81232,-2.76331,0,0,0,0,0,0,0,-1,895,617,-8.81235,2.76331
-322,407,0,0,0,0,0,0,0,0,0,-1,902,617,0,0
-315,407,0,0,0,0,0,0,0,0,0,-1,909,617,0,0
-308,407,0,0,0,0,0,0,0,0,0,-1,916,617,0,0
-301,407,0,0,0,0,0,0,0,0,0,-1,923,617,0,0
-294,407,0,0,0,0,0,0,0,0,0,-1,930,617,0,0
-287,407,0,0,0,0,0,0,0,0,0,-1,937,617,0,0
-280,407,0,0,0,0,0,0,0,0,0,-1,944,617,0,0
-273,407,0,0,0,0,0,0,0,0,0,-1,951,617,0,0
-266,407,0,0,0,0,0,0,0,0,0,-1,958,617,0,0
-259,407,0,0,0,0,0,0,0,0,0,-1,965,617,0,0
-252,407,0,0,0,0,0,0,0,0,0,-1,972,617,0,0
-245,407,0,0,0,0,0,0,0,0,0,-1,979,617,0,0
-238,407,0,0,0,0,0,0,0,0,0,-1,986,617,0,0
-231,407,0,0,0,0,0,0,0,0,0,-1,993,617,0,0
-224,407,0,0,0,0,0,0,0,0,0,-1,1000,617,0,0
-217,407,0,0,0,0,0,0,0,0,0,-1,1007,617,0,0
-210,407,0,0,0,0,0,0,0,0,0,-1,1014,617,0,0
-203,407,0,0,0,0,0,0,0,0,0,-1,1021,617,0,0
-196,407,0,0,0,0,0,0,0,0,0,-1,1028,617,0,0
-189,407,0,0,0,0,0,0,0,0,0,-1,1035,617,0,0
-182,407,0,0,0,0,0,0,0,0,0,-1,1042,617,0,0
-175,407,0,0,0,0,0,0,0,0,0,-1,1049,617,0,0
-168,407,0,0,0,0,0,0,0,0,0,-1,1056,617,0,0
-161,407,0,0,0,0,0,0,0,0,0,-1,1063,617,0,0
-154,407,0,0,0,0,0,0,0,0,0,-1,1070,617,0,0
-147,407,0,0,0,0,0,0,0,0,0,-1,1077,617,0,0
-140,407,0,0,0,0,0,0,0,0,0,-1,1084,617,0,0
-133,407,0,0,0,0,0,0,0,0,0,-1,1091,617,0,0
-126,407,0,0,0,0,0,0,0,0,0,-1,1098,617,0,0
-119,407,0,0,0,0,0,0,0,0,0,-1,1105,617,0,0
-112,407,0,0,0,0,0,0,0,0,0,-1,1112,617,0,0
-105,407,0,0,0,0,0,0,0,0,0,-1,1119,617,0,0
-98,407,0,0,0,0,0,0,0,0,0,-1,1126,617,0,0
-91,407,0,0,0,0,0,0,0,0,0,-1,1133,617,0,0
-84,407,0,0,0,0,0,0,0,0,0,-1,1140,617,0,0
-77,407,0,0,0,0,0,0,0,0,0,-1,1147,617,0,0
-70,407,0,0,0,0,0,0,0,0,0,-1,1154,617,0,0
-63,407,0,0,0,0,0,0,0,0,0,-1,1161,617,0,0
-56,407,0,0,0,0,0,0,0,0,0,-1,1168,617,0,0
-49,407,0,0,0,0,0,0,0,0,0,-1,1175,617,0,0
-42,407,0,0,0,0,0,0,0,0,0,-1,1182,617,0,0
-35,407,0,0,0,0,0,0,0,0,0,-1,1189,617,0,0
-28,407,0,0,0,0,0,0,0,0,0,-1,1196,617,0,0
-21,407,0,0,0,0,0,0,0,0,0,-1,1203,617,0,0
-14,407,0,0,0,0,0,0,0,0,0,-1,1210,617,0,0
-7,407,0,0,0,0,0,0,0,0,0,-1,1217,617,0,0
0,407,0,0,0,0,0,0,0,0,0,-1,1224,617,0,0
7,407,0,0,0,0,0,0,0,0,0,-1,1231,617,0,0
14,407,0,0,0,0,0,0,0,0,0,-1,1238,617,0,0
21,407,0,0,0,0,0,0,0,0,0,-1,1245,617,0,0
28,407,0,0,0,0,0,0,0,0,0,-1,1252,617,0,0
35,407,0,0,0,0,0,0,0,0,0,-1,1259,617,0,0
42,407,0,0,0,0,0,0,0,0,0,-1,1266,617,0,0
49,407,0,0,0,0,0,0,0,0,0,-1,1273,617,0,0
56,407,0,0,0,0,0,0,0,0,0,-1,1280,617,0,0
63,407,0,0,0,0,0,0,0,0,0,-1,1287,617,0,0
70,407,0,0,0,0,0,0,0,0,0,-1,1294,617,0,0
77,407,0,0,0,0,0,0,0,0,0,-1,1301,617,0,0
84,407,0,0,0,0,0,0,0,0,0,-1,1308,617,0,0
91,407,0,0,0,0,0,0,0,0,0,-1,1315,617,0,0
98,407,0,0,0,0,0,0,0,0,0,-1,1322,617,0,0
105,407,0,0,0,0,0,0,0,0,0,-1,1329,617,0,0
112,407,0,0,0,0,0,0,0,0,0,-1,1336,617,0,0
119,407,0,0,0,0,0,0,0,0,0,-1,1343,617,0,0
126,407,0,0,0,0,0,0,0,0,0,-1,1350,617,0,0
133,407,0,0,0,0,0,0,0,0,0,-1,1357,617,0,0
140,407,0,0,0,0,0,0,0,0,0,-1,1364,617,0,0
147,407,0,0,0,0,0,0,0,0,0,-1,1371,617,0,0
154,407,0,0,0,0,0,0,0,0,0,-1,1378,617,0,0
161,407,0,0,0,0,0,0,0,0,0,-1,1385,617,0,0
168,407,0,0,0,0,0,0,0,0,0,-1,1392,617,0,0
175,407,0,0,0,0,0,0,0,0,0,-1,1399,617,0,0
182,407,0,0,0,0,0,0,0,0,0,-1,1406,617,0,0
189,407,0,0,0,0,0,0,0,0,0,-1,1413,617,0,0
196,407,0,0,0,0,0,0,0,0,0,-1,1420,617,0,0
203,407,0,0,0,0,0,0,0,0,0,-1,1427,617,0,0
210,407,0,0,0,0,0,0,0,0,0,-1,1434,617,0,0
217,407,0,0,0,0,0,0,0,0,0,-1,1441,617,0,0
224,407,0,0,0,0,0,0,0,0,0,-1,1448,617,0,0
231,407,0,0,0,0,0,0,0,0,0,-1,1455,617,0,0
238,407,0,0,0,0,0,0,0,0,0,-1,1462,617,0,0
245,407,0,0,0,0,0,0,0,0,0,-1,1469,617,0,0
252,407,0,0,0,0,0,0,0,0,0,-1,1476,617,0,0
259,407,0,0,0,0,0,0,0,0,0,-1,1483,617,0,0
266,407,0,0,0,0,0,0,0,0,0,-1,1490,617,0,0
273,407,0,0,0,0,0,0,0,0,0,-1,1497,617,0,0
280,407,0,0,0,0,0,0,0,0,0,-1,1504,617,0,0
287,407,0,0,0,0,0,0,0,0,0,-1,1511,617,0,0
294,407,0,0,0,0,0,0,0,0,0,-1,1518,617,0,0
301,407,0,0,0,0,0,0,0,0,0,-1,1525,617,0,0
308,407,0,0,0,0,0,0,0,0,0,-1,1532,617,0,0
315,407,0,0,0,0,0,0,0,0,0,-1,1539,617,0,0
322,407,0,0,0,0,0,0,0,0,0,-1,1546,617,0,0
329,407,0,0,0,0,0,0,0,0,0,-1,1553,617,0,0
336,407,0,0,0,0,0,0,0,0,0,-1,1560,617,0,0
343,407,0,0,0,0,0,0,0,0,0,-1,1567,617,0,0
350,407,0,0,0,0,0,0,0,0,0,-1,1574,617,0,0
357,407,0,0,0,0,0,0,0,0,0,-1,1581,617,0,0
364,407,0,0,0,0,0,0,0,0,0,-1,1588,617,0,0
371,407,0,0,0,0,0,0,0,0,0,-1,1595,617,0,0
378,407,0,0,0,0,0,0,0,0,0,-1,1602,617,0,0
385,407,0,0,0,0,0,0,0,0,0,-1,1609,617,0,0
392,407,0,0,0,0,0,0,0,0,0,-1,1616,617,0,0
399,407,0,0,0,0,0,0,0,0,0,-1,1623,617,0,0
406,407,0,0,0,0,0,0,0,0,0,-1,1630,617,0,0
413,407,0,0,0,0,0,0,0,0,0,-1,1637,617,0,0
420,407,0,0,0,0,0,0,0,0,0,-1,1644,617,0,0
427,407,0,0,0,0,0,0,0,0,0,-1,1651,617,0,0
434,407,0,0,0,0,0,0,0,0,0,-1,1658,617,0,0
441,407,0,0,0,0,0,0,0,0,0,-1,1665,617,0,0
448,407,7.02893,2.13843,0,0,0,0,0,0,0,-1,1672,617,7.02899,-2.13844
455,407,7.55237,2.29242,0,0,0,0,0,0,0,-1,1679,617,7.55236,-2.29244
462,407,8.2926,2.46173,0,0,0,0,0,0,0,-1,1686,617,8.29261,-2.46174
469,407,8.71509,2.22681,0,0,0,0,0,0,0,-1,1693,617,8.71511,-2.22681
476,407,8.89917,1.47766,0,0,0,0,0,0,0,-1,1700,617,8.89914,-1.47768
483,407,9.02612,0.682983,0,0,0,0,0,0,0,-1,1707,617,9.02608,-0.683004
490,407,9.12659,0.000671387,0,0,0,0,0,0,0,-1,1714,617,9.12653,-0.000675931
497,407,7.76819,0.855835,0,0,0,0,0,0,0,-1,1721,617,7.7682,-0.855865
504,407,4.69336,0.160706,0,0,0,0,0,0,0,-1,1728,617,4.69337,-0.1607
511,407,4.07104,-0.00140381,0,0,0,0,0,0,0,-1,1735,617,4.07109,0.00141425
518,407,6.09534,1.9411,0,0,0,0,0,0,0,-1,1742,617,6.09532,-1.94113
525,407,5.72534,-1.35986,0,0,0,0,0,0,0,-1,1749,617,5.72529,1.35988
532,407,16.6392,-9.23566,0,0,0,0,0,0,0,-1,1756,617,16.6391,9.23565
539,407,16.9901,-9.60529,0,0,0,0,0,0,0,-1,1763,617,16.9901,9.60528
546,407,17.0974,-8.92627,0.00519847,0.00184607,0.00163105,0.00586107,0.00118347,0.385874,0.00357872,0.0198957,1770,617,17.0974,8.92629
553,407,17.0773,-8.44342,0.00432697,0.00127362,0.00122644,0.00475858,0.000842012,0.338386,0.0029323,0.0155989,1777,617,17.0772,8.44342
560,407,17.079,-7.91132,0.00343389,0.000881648,0.000836781,0.00368378,0.000631766,0.290193,0.0022747,0.0160178,1784,617,17.079,7.91132
567,407,17.0476,-7.43823,0.00271761,0.000720888,0.000710371,0.00294454,0.000493952,0.309214,0.00182085,0.028756,1791,617,17.0476,7.43822
574,407,17.0542,-6.94147,0.00215161,0.000731289,0.000747493,0.00247251,0.000410395,0.405502,0.00153,0.0238599,1798,617,17.0542,6.94149
581,407,17.0535,-6.4057,0.00167975,0.000930646,0.000925292,0.00230343,0.000306974,0.593082,0.00144421,0.0169042,1805,617,17.0534,6.4057
588,407,16.9951,-5.91553,0.00129643,0.00130979,0.00120938,0.00251251,9.37136e-05,0.78816,0.00164466,0.0126044,1812,617,16.9951,5.9155
595,407,17.0031,-5.41168,0.00116819,0.00196533,0.00173204,0.00334406,-0.000210549,0.898487,0.00230277,0.0243388,1819,617,17.003,5.41167
602,407,17.0031,-4.87488,0.00125,0.00286539,0.00243507,0.00462322,-0.000507829,0.945535,0.00326462,0.0191147,1826,617,17.003,4.87488
609,407,16.9637,-4.34119,0.00158716,0.00407316,0.00337941,0.00643092,-0.000770598,0.961626,0.00456587,0.0158786,1833,617,16.9637,4.34118
616,407,17.0151,-3.72107,0.00224311,0.00571469,0.00459306,0.00888901,-0.000931212,0.96606,0.00625954,0.0289086,1840,617,17.0152,3.72107
623,407,17.2747,-2.98456,0,0,0,0,0,0,0,-1,1847,617,17.2747,2.98453
630,407,7.06177,0.814575,0,0,0,0,0,0,0,-1,1854,617,7.06178,-0.814579
637,407,8.41431,0.507019,0,0,0,0,0,0,0,-1,1861,617,8.41428,-0.507005
644,407,5.09766,2.27747,0,0,0,0,0,0,0,-1,1868,617,5.09764,-2.27746
651,407,7.37524,0.0513916,0,0,0,0,0,0,0,-1,1875,617,7.3752,-0.0513923
658,407,3.76685,0.594177,0,0,0,0,0,0,0,-1,1882,617,3.76683,-0.594184
665,407,5.76123,0.375061,0,0,0,0,0,0,0,-1,1889,617,5.76118,-0.37509
672,407,0,0,0,0,0,0,0,0,0,-1,1896,617,0,0
679,407,0,0,0,0,0,0,0,0,0,-1,1903,617,0,0
686,407,0,0,0,0,0,0,0,0,0,-1,1910,617,0,0
693,407,0,0,0,0,0,0,0,0,0,-1,1917,617,0,0
700,407,0,0,0,0,0,0,0,0,0,-1,1924,617,0,0
707,407,0,0,0,0,0,0,0,0,0,-1,1931,617,0,0
714,407,0,0,0,0,0,0,0,0,0,-1,1938,617,0,0
721,407,0,0,0,0,0,0,0,0,0,-1,1945,617,0,0
728,407,0,0,0,0,0,0,0,0,0,-1,1952,617,0,0
735,407,0,0,0,0,0,0,0,0,0,-1,1959,617,0,0
742,407,0,0,0,0,0,0,0,0,0,-1,1966,617,0,0
749,407,0,0,0,0,0,0,0,0,0,-1,1973,617,0,0
756,407,0,0,0,0,0,0,0,0,0,-1,1980,617,0,0
763,407,0,0,0,0,0,0,0,0,0,-1,1987,617,0,0
770,407,0,0,0,0,0,0,0,0,0,-1,1994,617,0,0
777,407,0,0,0,0,0,0,0,0,0,-1,2001,617,0,0
784,407,0,0,0,0,0,0,0,0,0,-1,2008,617,0,0
791,407,0,0,0,0,0,0,0,0,0,-1,2015,617,0,0
798,407,0,0,0,0,0,0,0,0,0,-1,2022,617,0,0
805,407,0,0,0,0,0,0,0,0,0,-1,2029,617,0,0
812,407,0,0,0,0,0,0,0,0,0,-1,2036,617,0,0
-700,400,0,0,0,0,0,0,0,0,0,-1,524,624,0,0
-693,400,0,0,0,0,0,0,0,0,0,-1,531,624,0,0
-686,400,0,0,0,0,0,0,0,0,0,-1,538,624,0,0
-679,400,0,0,0,0,0,0,0,0,0,-1,545,624,0,0
-672,400,0,0,0,0,0,0,0,0,0,-1,552,624,0,0
-665,400,0,0,0,0,0,0,0,0,0,-1,559,624,0,0
-658,400,0,0,0,0,0,0,0,0,0,-1,566,624,0,0
-651,400,0,0,0,0,0,0,0,0,0,-1,573,624,0,0
-644,400,0,0,0,0,0,0,0,0,0,-1,580,624,0,0
-637,400,0,0,0,0,0,0,0,0,0,-1,587,624,0,0
-630,400,0,0,0,0,0,0,0,0,0,-1,594,624,0,0
-623,400,0,0,0,0,0,0,0,0,0,-1,601,624,0,0
-616,400,0,0,0,0,0,0,0,0,0,-1,608,624,0,0
-609,400,0,0,0,0,0,0,0,0,0,-1,615,624,0,0
-602,400,0,0,0,0,0,0,0,0,0,-1,622,624,0,0
-595,400,0,0,0,0,0,0,0,0,0,-1,629,624,0,0
-588,400,0,0,0,0,0,0,0,0,0,-1,636,624,0,0
-581,400,0,0,0,0,0,0,0,0,0,-1,643,624,0,0
-574,400,0,0,0,0,0,0,0,0,0,-1,650,624,0,0
-567,400,0,0,0,0,0,0,0,0,0,-1,657,624,0,0
-560,400,0,0,0,0,0,0,0,0,0,-1,664,624,0,0
-553,400,0,0,0,0,0,0,0,0,0,-1,671,624,0,0
-546,400,-8.41174,-1.4599,0,0,0,0,0,0,0,-1,678,624,-8.41173,1.45989
-539,400,-5.69104,-1.7337,0,0,0,0,0,0,0,-1,685,624,-5.69103,1.7337
-532,400,-3.03632,-2.03912,0,0,0,0,0,0,0,-1,692,624,-3.03632,2.03909
-525,400,-6.20813,-7.04071,0,0,0,0,0,0,0,-1,699,624,-6.20814,7.04071
-518,400,-5.26544,-1.58661,0,0,0,0,0,0,0,-1,706,624,-5.26544,1.58658
-511,400,-8.35797,-5.95667,0,0,0,0,0,0,0,-1,713,624,-8.35796,5.95669
-504,400,-8.54779,-4.9776,0,0,0,0,0,0,0,-1,720,624,-8.54778,4.97758
-497,400,-8.21161,-5.09021,0,0,0,0,0,0,0,-1,727,624,-8.21162,5.09019
-490,400,-8.44373,-5.59265,6.04078e-05,0.00557616,-0.0033958,0.00719291,-0.00155634,-1.12645,0.00538949,0.0248917,734,624,-8.44371,5.59268
-483,400,-8.46655,-6.1275,-7.28911e-05,0.00409497,-0.00266306,0.00539256,-0.00137048,-1.1174,0.0041284,0.0164243,741,624,-8.46653,6.12752
-476,400,-8.48517,-6.59363,-1.91964e-05,0.00294008,-0.00208356,0.00401594,-0.00109506,-1.09415,0.00310731,0.0143612,748,624,-8.48519,6.59366
-469,400,-8.50562,-7.08844,0.000195126,0.00210581,-0.0016979,0.00309869,-0.000797749,-1.04165,0.00237676,0.0143689,755,624,-8.50561,7.08846
-462,400,-8.51581,-7.61444,0.00039695,0.00136069,-0.0013194,0.00228346,-0.000525817,-0.960483,0.00172451,0.018418,762,624,-8.5158,7.61447
-455,400,-8.53174,-8.09753,0.000359709,0.000484956,-0.000710157,0.00113525,-0.00029058,-0.829376,0.000870019,0.0209361,769,624,-8.53173,8.09751
-448,400,-8.55493,-8.57568,0.000300416,-0.000455918,1.77426e-06,0.00030042,-0.000455922,0.00234585,0.00043974,0.016548,776,624,-8.55491,8.5757
-441,400,-8.56232,-9.02899,-2.36322e-06,-0.00139871,0.000882794,0.000424974,-0.00182604,0.450825,0.00138099,0.0147805,783,624,-8.56232,9.02897
-434,400,-8.57666,-9.4931,-0.00052726,-0.00240692,0.00192246,0.000672799,-0.00360698,0.558046,0.00265746,0.0114066,790,624,-8.57668,9.49311
-427,400,-8.58704,-9.96796,-0.00136159,-0.00369221,0.0032317,0.000908479,-0.00596228,0.61236,0.00430971,0.00996828,797,624,-8.58706,9.96798
-420,400,-8.52954,-10.4881,-0.00263647,-0.0053085,0.004926,0.00113148,-0.00907645,0.652975,0.00646123,0.0149092,804,624,-8.52955,10.4881
-413,400,-8.58276,-10.8647,-0.00432737,-0.007017,0.00692112,0.00137838,-0.0127227,0.689441,0.00897664,0.0342901,811,624,-8.58275,10.8647
-406,400,-8.97467,-10.9191,-0.00679166,-0.00940849,0.00948484,0.00147458,-0.0176747,0.716857,0.0123042,0.0484878,818,624,-8.97469,10.9191
-399,400,-9.0127,-11.0801,0,0,0,0,0,0,0,-1,825,624,-9.01271,11.0801
-392,400,-4.92285,-6.63354,0,0,0,0,0,0,0,-1,832,624,-4.92285,6.63354
-385,400,-3.68738,-5.04205,0,0,0,0,0,0,0,-1,839,624,-3.68736,5.04207
-378,400,-6.84064,-1.28662,0,0,0,0,0,0,0,-1,846,624,-6.84062,1.28662
-371,400,-6.98865,-1.2572,0,0,0,0,0,0,0,-1,853,624,-6.98865,1.25721
-364,400,-6.97247,-1.24133,0,0,0,0,0,0,0,-1,860,624,-6.97249,1.24135
-357,400,-7.18329,-1.23218,0,0,0,0,0,0,0,-1,867,624,-7.18327,1.2322
-350,400,-7.40186,-1.19409,0,0,0,0,0,0,0,-1,874,624,-7.40187,1.19407
-343,400,-8.09357,-1.51147,0,0,0,0,0,0,0,-1,881,624,-8.09355,1.51148
-336,400,0,0,0,0,0,0,0,0,0,-1,888,624,0,0
-329,400,0,0,0,0,0,0,0,0,0,-1,895,624,0,0
-322,400,0,0,0,0,0,0,0,0,0,-1,902,624,0,0
-315,400,0,0,0,0,0,0,0,0,0,-1,909,624,0,0
-308,400,0,0,0,0,0,0,0,0,0,-1,916,624,0,0
-301,400,0,0,0,0,0,0,0,0,0,-1,923,624,0,0
-294,400,0,0,0,0,0,0,0,0,0,-1,930,624,0,0
-287,400,0,0,0,0,0,0,0,0,0,-1,937,624,0,0
-280,400,0,0,0,0,0,0,0,0,0,-1,944,624,0,0
-273,400,0,0,0,0,0,0,0,0,0,-1,951,624,0,0
-266,400,0,0,0,0,0,0,0,0,0,-1,958,624,0,0
-259,400,0,0,0,0,0,0,0,0,0,-1,965,624,0,0
-252,400,0,0,0,0,0,0,0,0,0,-1,972,624,0,0
-245,400,0,0,0,0,0,0,0,0,0,-1,979,624,0,0
-238,400,0,0,0,0,0,0,0,0,0,-1,986,624,0,0
-231,400,0,0,0,0,0,0,0,0,0,-1,993,624,0,0
-224,400,0,0,0,0,0,0,0,0,0,-1,1000,624,0,0
-217,400,0,0,0,0,0,0,0,0,0,-1,1007,624,0,0
-210,400,0,0,0,0,0,0,0,0,0,-1,1014,624,0,0
-203,400,0,0,0,0,0,0,0,0,0,-1,1021,624,0,0
-196,400,0,0,0,0,0,0,0,0,0,-1,1028,624,0,0
-189,400,0,0,0,0,0,0,0,0,0,-1,1035,624,0,0
-182,400,0,0,0,0,0,0,0,0,0,-1,1042,624,0,0
-175,400,0,0,0,0,0,0,0,0,0,-1,1049,624,0,0
-168,400,0,0,0,0,0,0,0,0,0,-1,1056,624,0,0
-161,400,0,0,0,0,0,0,0,0,0,-1,1063,624,0,0
-154,400,0,0,0,0,0,0,0,0,0,-1,1070,624,0,0
-147,400,0,0,0,0,0,0,0,0,0,-1,1077,624,0,0
-140,400,0,0,0,0,0,0,0,0,0,-1,1084,624,0,0
-133,400,0,0,0,0,0,0,0,0,0,-1,1091,624,0,0
-126,400,0,0,0,0,0,0,0,0,0,-1,1098,624,0,0
-119,400,0,0,0,0,0,0,0,0,0,-1,1105,624,0,0
-112,400,0,0,0,0,0,0,0,0,0,-1,1112,624,0,0
-105,400,0,0,0,0,0,0,0,0,0,-1,1119,624,0,0
-98,400,0,0,0,0,0,0,0,0,0,-1,1126,624,0,0
-91,400,0,0,0,0,0,0,0,0,0,-1,1133,624,0,0
-84,400,0,0,0,0,0,0,0,0,0,-1,1140,624,0,0
-77,400,0,0,0,0,0,0,0,0,0,-1,1147,624,0,0
-70,400,0,0,0,0,0,0,0,0,0,-1,1154,624,0,0
-63,400,0,0,0,0,0,0,0,0,0,-1,1161,624,0,0
-56,400,0,0,0,0,0,0,0,0,0,-1,1168,624,0,0
-49,400,0,0,0,0,0,0,0,0,0,-1,1175,624,0,0
-42,400,0,0,0,0,0,0,0,0,0,-1,1182,624,0,0
-35,400,0,0,0,0,0,0,0,0,0,-1,1189,624,0,0
-28,400,0,0,0,0,0,0,0,0,0,-1,1196,624,0,0
-21,400,0,0,0,0,0,0,0,0,0,-1,1203,624,0,0
-14,400,0,0,0,0,0,0,0,0,0,-1,1210,624,0,0
-7,400,0,0,0,0,0,0,0,0,0,-1,1217,624,0,0
0,400,0,0,0,0,0,0,0,0,0,-1,1224,624,0,0
7,400,0,0,0,0,0,0,0,0,0,-1,1231,624,0,0
14,400,0,0,0,0,0,0,0,0,0,-1,1238,624,0,0
21,400,0,0,0,0,0,0,0,0,0,-1,1245,624,0,0
28,400,0,0,0,0,0,0,0,0,0,-1,1252,624,0,0
35,400,0,0,0,0,0,0,0,0,0,-1,1259,624,0,0
42,400,0,0,0,0,0,0,0,0,0,-1,1266,624,0,0
49,400,0,0,0,0,0,0,0,0,0,-1,1273,624,0,0
56,400,0,0,0,0,0,0,0,0,0,-1,1280,624,0,0
63,400,0,0,0,0,0,0,0,0,0,-1,1287,624,0,0
70,400,0,0,0,0,0,0,0,0,0,-1,1294,624,0,0
77,400,0,0,0,0,0,0,0,0,0,-1,1301,624,0,0
84,400,0,0,0,0,0,0,0,0,0,-1,1308,624,0,0
91,400,0,0,0,0,0,0,0,0,0,-1,1315,624,0,0
98,400,0,0,0,0,0,0,0,0,0,-1,1322,624,0,0
105,400,0,0,0,0,0,0,0,0,0,-1,1329,624,0,0
112,400,0,0,0,0,0,0,0,0,0,-1,1336,624,0,0
119,400,0,0,0,0,0,0,0,0,0,-1,1343,624,0,0
126,400,0,0,0,0,0,0,0,0,0,-1,1350,624,0,0
133,400,0,0,0,0,0,0,0,0,0,-1,1357,624,0,0
140,400,0,0,0,0,0,0,0,0,0,-1,1364,624,0,0
147,400,0,0,0,0,0,0,0,0,0,-1,1371,624,0,0
154,400,0,0,0,0,0,0,0,0,0,-1,1378,624,0,0
161,400,0,0,0,0,0,0,0,0,0,-1,1385,624,0,0
168,400,0,0,0,0,0,0,0,0,0,-1,1392,624,0,0
175,400,0,0,0,0,0,0,0,0,0,-1,1399,624,0,0
182,400,0,0,0,0,0,0,0,0,0,-1,1406,624,0,0
189,400,0,0,0,0,0,0,0,0,0,-1,1413,624,0,0
196,400,0,0,0,0,0,0,0,0,0,-1,1420,624,0,0
203,400,0,0,0,0,0,0,0,0,0,-1,1427,624,0,0
210,400,0,0,0,0,0,0,0,0,0,-1,1434,624,0,0
217,400,0,0,0,0,0,0,0,0,0,-1,1441,624,0,0
224,400,0,0,0,0,0,0,0,0,0,-1,1448,624,0,0
231,400,0,0,0,0,0,0,0,0,0,-1,1455,624,0,0
238,400,0,0,0,0,0,0,0,0,0,-1,1462,624,0,0
245,400,0,0,0,0,0,0,0,0,0,-1,1469,624,0,0
252,400,0,0,0,0,0,0,0,0,0,-1,1476,624,0,0
259,400,0,0,0,0,0,0,0,0,0,-1,1483,624,0,0
266,400,0,0,0,0,0,0,0,0,0,-1,1490,624,0,0
273,400,0,0,0,0,0,0,0,0,0,-1,1497,624,0,0
280,400,0,0,0,0,0,0,0,0,0,-1,1504,624,0,0
287,400,0,0,0,0,0,0,0,0,0,-1,1511,624,0,0
294,400,0,0,0,0,0,0,0,0,0,-1,1518,624,0,0
301,400,0,0,0,0,0,0,0,0,0,-1,1525,624,0,0
308,400,0,0,0,0,0,0,0,0,0,-1,1532,624,0,0
315,400,0,0,0,0,0,0,0,0,0,-1,1539,624,0,0
322,400,0,0,0,0,0,0,0,0,0,-1,1546,624,0,0
329,400,0,0,0,0,0,0,0,0,0,-1,1553,624,0,0
336,400,0,0,0,0,0,0,0,0,0,-1,1560,624,0,0
343,400,0,0,0,0,0,0,0,0,0,-1,1567,624,0,0
350,400,0,0,0,0,0,0,0,0,0,-1,1574,624,0,0
357,400,0,0,0,0,0,0,0,0,0,-1,1581,624,0,0
364,400,0,0,0,0,0,0,0,0,0,-1,1588,624,0,0
371,400,0,0,0,0,0,0,0,0,0,-1,1595,624,0,0
378,400,0,0,0,0,0,0,0,0,0,-1,1602,624,0,0
385,400,0,0,0,0,0,0,0,0,0,-1,1609,624,0,0
392,400,0,0,0,0,0,0,0,0,0,-1,1616,624,0,0
399,400,0,0,0,0,0,0,0,0,0,-1,1623,624,0,0
406,400,0,0,0,0,0,0,0,0,0,-1,1630,624,0,0
413,400,0,0,0,0,0,0,0,0,0,-1,1637,624,0,0
420,400,0,0,0,0,0,0,0,0,0,-1,1644,624,0,0
427,400,0,0,0,0,0,0,0,0,0,-1,1651,624,0,0
434,400,0,0,0,0,0,0,0,0,0,-1,1658,624,0,0
441,400,0,0,0,0,0,0,0,0,0,-1,1665,624,0,0
448,400,0,0,0,0,0,0,0,0,0,-1,1672,624,0,0
455,400,8.91309,2.75885,0,0,0,0,0,0,0,-1,1679,624,8.91312,-2.75885
462,400,8.90356,2.37878,0,0,0,0,0,0,0,-1,1686,624,8.90353,-2.37878
469,400,9.14429,1.76849,0,0,0,0,0,0,0,-1,1693,624,9.14432,-1.76847
476,400,9.23254,1.25995,0,0,0,0,0,0,0,-1,1700,624,9.23252,-1.25994
483,400,9.59766,0.562439,0,0,0,0,0,0,0,-1,1707,624,9.59771,-0.56242
490,400,9.92578,-0.213745,0,0,0,0,0,0,0,-1,1714,624,9.92579,0.21376
497,400,9.19141,0.175232,0,0,0,0,0,0,0,-1,1721,624,9.19138,-0.175209
504,400,9.23438,0.00823975,0,0,0,0,0,0,0,-1,1728,624,9.23436,-0.00823766
511,400,6.16687,3.3501,0,0,0,0,0,0,0,-1,1735,624,6.16682,-3.35007
518,400,6.55237,1.74994,0,0,0,0,0,0,0,-1,1742,624,6.55236,-1.74993
525,400,6.99731,1.08783,0,0,0,0,0,0,0,-1,1749,624,6.99736,-1.08785
532,400,6.96582,-1.74982,0,0,0,0,0,0,0,-1,1756,624,6.96585,1.74983
539,400,16.0278,-8.40637,0,0,0,0,0,0,0,-1,1763,624,16.0278,8.40635
546,400,17.5905,-8.91595,0,0,0,0,0,0,0,-1,1770,624,17.5904,8.91594
553,400,17.5189,-8.43787,0.00549973,0.00127833,0.0012181,0.005826,0.000952059,0.261708,0.00360875,0.0322242,1777,624,17.5189,8.43786
560,400,17.5798,-7.89905,0.00441964,0.000862994,0.000809069,0.00459504,0.000687596,0.213486,0.00286183,0.0148546,1784,624,17.5798,7.89906
567,400,17.5857,-7.41327,0.0035611,0.000666212,0.000686039,0.00371545,0.000511862,0.221302,0.0023252,0.0184851,1791,624,17.5856,7.41329
574,400,17.5896,-6.92792,0.00288054,0.000681351,0.000726049,0.00309862,0.000463276,0.291786,0.00192995,0.0199673,1798,624,17.5896,6.92792
581,400,17.5532,-6.40131,0.00230582,0.000891591,0.000895109,0.00273942,0.000457991,0.451098,0.00169438,0.0188186,1805,624,17.5533,6.40133
588,400,17.4902,-5.86414,0.00182561,0.00125803,0.00114566,0.00272211,0.00036153,0.663987,0.00170704,0.0159398,1812,624,17.4902,5.86414
595,400,17.4932,-5.39722,0.00160935,0.0018618,0.00160689,0.00334741,0.000123734,0.824595,0.00219153,0.0151861,1819,624,17.4931,5.39721
602,400,17.5107,-4.88324,0.00160688,0.00268718,0.00222915,0.00444069,-0.000146629,0.904263,0.00301053,0.0139885,1826,624,17.5108,4.88325
609,400,17.4535,-4.35382,0.00173244,0.00373277,0.00299768,0.00589274,-0.000427525,0.946415,0.00407848,0.0139562,1833,624,17.4535,4.35381
616,400,17.46,-3.84778,0.00191598,0.00497935,0.00383843,0.00758041,-0.000685079,0.975237,0.00529676,0.0187261,1840,624,17.46,3.84779
623,400,17.5485,-3.31055,0,0,0,0,0,0,0,-1,1847,624,17.5485,3.31054
630,400,11.9432,0.09021,0,0,0,0,0,0,0,-1,1854,624,11.9432,-0.0902007
637,400,6.92896,1.01917,0,0,0,0,0,0,0,-1,1861,624,6.92899,-1.01918
644,400,8.65381,1.4599,0,0,0,0,0,0,0,-1,1868,624,8.65379,-1.45991
651,400,7.90601,0.424072,0,0,0,0,0,0,0,-1,1875,624,7.90598,-0.424097
658,400,8.69031,1.0484,0,0,0,0,0,0,0,-1,1882,624,8.6903,-1.0484
665,400,5.98438,0.522522,0,0,0,0,0,0,0,-1,1889,624,5.98442,-0.522552
672,400,0,0,0,0,0,0,0,0,0,-1,1896,624,0,0
679,400,0,0,0,0,0,0,0,0,0,-1,1903,624,0,0
686,400,0,0,0,0,0,0,0,0,0,-1,1910,624,0,0
693,400,0,0,0,0,0,0,0,0,0,-1,1917,624,0,0
700,400,0,0,0,0,0,0,0,0,0,-1,1924,624,0,0
707,400,0,0,0,0,0,0,0,0,0,-1,1931,624,0,0
714,400,0,0,0,0,0,0,0,0,0,-1,1938,624,0,0
721,400,0,0,0,0,0,0,0,0,0,-1,1945,624,0,0
728,400,0,0,0,0,0,0,0,0,0,-1,1952,624,0,0
735,400,0,0,0,0,0,0,0,0,0,-1,1959,624,0,0
742,400,0,0,0,0,0,0,0,0,0,-1,1966,624,0,0
749,400,0,0,0,0,0,0,0,0,0,-1,1973,624,0,0
756,400,0,0,0,0,0,0,0,0,0,-1,1980,624,0,0
763,400,0,0,0,0,0,0,0,0,0,-1,1987,624,0,0
770,400,0,0,0,0,0,0,0,0,0,-1,1994,624,0,0
777,400,0,0,0,0,0,0,0,0,0,-1,2001,624,0,0
784,400,0,0,0,0,0,0,0,0,0,-1,2008,624,0,0
791,400,0,0,0,0,0,0,0,0,0,-1,2015,624,0,0
798,400,0,0,0,0,0,0,0,0,0,-1,2022,624,0,0
805,400,0,0,0,0,0,0,0,0,0,-1,2029,624,0,0
812,400,0,0,0,0,0,0,0,0,0,-1,2036,624,0,0
-700,393,0,0,0,0,0,0,0,0,0,-1,524,631,0,0
-693,393,0,0,0,0,0,0,0,0,0,-1,531,631,0,0
-686,393,0,0,0,0,0,0,0,0,0,-1,538,631,0,0
-679,393,0,0,0,0,0,0,0,0,0,-1,545,631,0,0
-672,393,0,0,0,0,0,0,0,0,0,-1,552,631,0,0
-665,393,0,0,0,0,0,0,0,0,0,-1,559,631,0,0
-658,393,0,0,0,0,0,0,0,0,0,-1,566,631,0,0
-651,393,0,0,0,0,0,0,0,0,0,-1,573,631,0,0
-644,393,0,0,0,0,0,0,0,0,0,-1,580,631,0,0
-637,393,0,0,0,0,0,0,0,0,0,-1,587,631,0,0
-630,393,0,0,0,0,0,0,0,0,0,-1,594,631,0,0
-623,393,0,0,0,0,0,0,0,0,0,-1,601,631,0,0
-616,393,0,0,0,0,0,0,0,0,0,-1,608,631,0,0
-609,393,0,0,0,0,0,0,0,0,0,-1,615,631,0,0
-602,393,0,0,0,0,0,0,0,0,0,-1,622,631,0,0
-595,393,0,0,0,0,0,0,0,0,0,-1,629,631,0,0
-588,393,0,0,0,0,0,0,0,0,0,-1,636,631,0,0
-581,393,0,0,0,0,0,0,0,0,0,-1,643,631,0,0
-574,393,0,0,0,0,0,0,0,0,0,-1,650,631,0,0
-567,393,0,0,0,0,0,0,0,0,0,-1,657,631,0,0
-560,393,0,0,0,0,0,0,0,0,0,-1,664,631,0,0
-553,393,-2.35107,3.92633,0,0,0,0,0,0,0,-1,671,631,-2.35108,-3.92634
-546,393,-1.78778,2.4856,0,0,0,0,0,0,0,-1,678,631,-1.78778,-2.48557
-539,393,-5.2113,-2.20245,0,0,0,0,0,0,0,-1,685,631,-5.21128,2.20247
-532,393,-2.83643,-2.01624,0,0,0,0,0,0,0,-1,692,631,-2.83642,2.01626
-525,393,-5.9505,-0.952698,0,0,0,0,0,0,0,-1,699,631,-5.95053,0.95268
-518,393,-5.80219,-1.57739,0,0,0,0,0,0,0,-1,706,631,-5.80219,1.57738
-511,393,-6.15527,-2.09906,0,0,0,0,0,0,0,-1,713,631,-6.15526,2.09903
-504,393,-9.27179,-4.18414,0,0,0,0,0,0,0,-1,720,631,-9.2718,4.18414
-497,393,-9.00018,-4.94531,0.000179301,0.00603708,-0.00343242,0.00762039,-0.00140401,-1.1386,0.00560716,0.0327423,727,631,-9.00019,4.94532
-490,393,-8.94543,-5.6405,0.000173876,0.00454039,-0.0026926,0.00582364,-0.00110938,-1.12605,0.00430019,0.0170394,734,631,-8.94544,5.64051
-483,393,-8.95422,-6.10394,0.000199515,0.0033395,-0.00213222,0.00441738,-0.000878363,-1.10274,0.00327718,0.0193519,741,631,-8.95425,6.10393
-476,393,-8.96692,-6.57507,0.000375815,0.00236615,-0.00169279,0.00333463,-0.000592661,-1.05113,0.0024447,0.0168079,748,631,-8.96692,6.57506
-469,393,-8.9657,-7.08545,0.000627506,0.0017133,-0.00142001,0.00269066,-0.000349853,-0.967983,0.00192104,0.0127178,755,631,-8.96571,7.08544
-462,393,-8.98187,-7.61963,0.000809004,0.00107855,-0.0011186,0.00207047,-0.000182915,-0.84535,0.00144515,0.0154402,762,631,-8.98186,7.61963
-455,393,-9.01306,-8.11115,0.00071245,0.000235218,-0.000520713,0.00104662,-9.89477e-05,-0.570552,0.000732956,0.0151236,769,631,-9.01305,8.11112
-448,393,-9.04095,-8.58252,0.000623356,-0.000624817,0.000142921,0.000639512,-0.000640973,0.112563,0.000739289,0.0146593,776,631,-9.04093,8.58251
-441,393,-9.0567,-9.04132,0.000282967,-0.00151859,0.000997633,0.000726314,-0.00196193,0.418187,0.00160578,0.0132029,783,631,-9.05673,9.0413
-434,393,-9.05847,-9.47345,-0.000321185,-0.00257654,0.00209535,0.000930667,-0.0038284,0.538536,0.00291248,0.0121705,790,631,-9.05845,9.47344
-427,393,-9.01788,-9.98657,-0.00135767,-0.00399098,0.00357039,0.00113111,-0.00647975,0.608749,0.00474205,0.0211965,797,631,-9.0179,9.98655
-420,393,-9.05414,-10.4501,-0.00300784,-0.00592466,0.00561569,0.00133573,-0.0102682,0.658353,0.0073314,0.0477232,804,631,-9.05411,10.4501
-413,393,-9.30646,-10.8997,0,0,0,0,0,0,0,-1,811,631,-9.30648,10.8997
-406,393,-9.82159,-10.7458,0,0,0,0,0,0,0,-1,818,631,-9.82158,10.7458
-399,393,-5.07343,-5.92365,0,0,0,0,0,0,0,-1,825,631,-5.07344,5.92364
-392,393,-2.08063,-3.02386,0,0,0,0,0,0,0,-1,832,631,-2.08063,3.02384
-385,393,-3.16931,-0.624756,0,0,0,0,0,0,0,-1,839,631,-3.16928,0.624764
-378,393,-7.33081,-0.872314,0,0,0,0,0,0,0,-1,846,631,-7.33081,0.872325
-371,393,-7.47858,-0.811096,0,0,0,0,0,0,0,-1,853,631,-7.47859,0.811075
-364,393,-7.64917,-0.662415,0,0,0,0,0,0,0,-1,860,631,-7.64917,0.662406
-357,393,-8.09686,-0.726013,0,0,0,0,0,0,0,-1,867,631,-8.09689,0.726029
-350,393,-8.38788,-0.511841,0,0,0,0,0,0,0,-1,874,631,-8.38785,0.511811
-343,393,0,0,0,0,0,0,0,0,0,-1,881,631,0,0
-336,393,0,0,0,0,0,0,0,0,0,-1,888,631,0,0
-329,393,0,0,0,0,0,0,0,0,0,-1,895,631,0,0
-322,393,0,0,0,0,0,0,0,0,0,-1,902,631,0,0
-315,393,0,0,0,0,0,0,0,0,0,-1,909,631,0,0
-308,393,0,0,0,0,0,0,0,0,0,-1,916,631,0,0
-301,393,0,0,0,0,0,0,0,0,0,-1,923,631,0,0
-294,393,0,0,0,0,0,0,0,0,0,-1,930,631,0,0
-287,393,0,0,0,0,0,0,0,0,0,-1,937,631,0,0
-280,393,0,0,0,0,0,0,0,0,0,-1,944,631,0,0
-273,393,0,0,0,0,0,0,0,0,0,-1,951,631,0,0
-266,393,0,0,0,0,0,0,0,0,0,-1,958,631,0,0
-259,393,0,0,0,0,0,0,0,0,0,-1,965,631,0,0
-252,393,0,0,0,0,0,0,0,0,0,-1,972,631,0,0
-245,393,0,0,0,0,0,0,0,0,0,-1,979,631,0,0
-238,393,0,0,0,0,0,0,0,0,0,-1,986,631,0,0
-231,393,0,0,0,0,0,0,0,0,0,-1,993,631,0,0
-224,393,0,0,0,0,0,0,0,0,0,-1,1000,631,0,0
-217,393,0,0,0,0,0,0,0,0,0,-1,1007,631,0,0
-210,393,0,0,0,0,0,0,0,0,0,-1,1014,631,0,0
-203,393,0,0,0,0,0,0,0,0,0,-1,1021,631,0,0
-196,393,0,0,0,0,0,0,0,0,0,-1,1028,631,0,0
-189,393,0,0,0,0,0,0,0,0,0,-1,1035,631,0,0
-182,393,0,0,0,0,0,0,0,0,0,-1,1042,631,0,0
-175,393,0,0,0,0,0,0,0,0,0,-1,1049,631,0,0
-168,393,0,0,0,0,0,0,0,0,0,-1,1056,631,0,0
-161,393,0,0,0,0,0,0,0,0,0,-1,1063,631,0,0
-154,393,0,0,0,0,0,0,0,0,0,-1,1070,631,0,0
-147,393,0,0,0,0,0,0,0,0,0,-1,1077,631,0,0
-140,393,0,0,0,0,0,0,0,0,0,-1,1084,631,0,0
-133,393,0,0,0,0,0,0,0,0,0,-1,1091,631,0,0
-126,393,0,0,0,0,0,0,0,0,0,-1,1098,631,0,0
-119,393,0,0,0,0,0,0,0,0,0,-1,1105,631,0,0
-112,393,0,0,0,0,0,0,0,0,0,-1,1112,631,0,0
-105,393,0,0,0,0,0,0,0,0,0,-1,1119,631,0,0
-98,393,0,0,0,0,0,0,0,0,0,-1,1126,631,0,0
-91,393,0,0,0,0,0,0,0,0,0,-1,1133,631,0,0
-84,393,0,0,0,0,0,0,0,0,0,-1,1140,631,0,0
-77,393,0,0,0,0,0,0,0,0,0,-1,1147,631,0,0
-70,393,0,0,0,0,0,0,0,0,0,-1,1154,631,0,0
-63,393,0,0,0,0,0,0,0,0,0,-1,1161,631,0,0
-56,393,0,0,0,0,0,0,0,0,0,-1,1168,631,0,0
-49,393,0,0,0,0,0,0,0,0,0,-1,1175,631,0,0
-42,393,0,0,0,0,0,0,0,0,0,-1,1182,631,0,0
-35,393,0,0,0,0,0,0,0,0,0,-1,1189,631,0,0
-28,393,0,0,0,0,0,0,0,0,0,-1,1196,631,0,0
-21,393,0,0,0,0,0,0,0,0,0,-1,1203,631,0,0
-14,393,0,0,0,0,0,0,0,0,0,-1,1210,631,0,0
-7,393,0,0,0,0,0,0,0,0,0,-1,1217,631,0,0
0,393,0,0,0,0,0,0,0,0,0,-1,1224,631,0,0
7,393,0,0,0,0,0,0,0,0,0,-1,1231,631,0,0
14,393,0,0,0,0,0,0,0,0,0,-1,1238,631,0,0
21,393,0,0,0,0,0,0,0,0,0,-1,1245,631,0,0
28,393,0,0,0,0,0,0,0,0,0,-1,1252,631,0,0
35,393,0,0,0,0,0,0,0,0,0,-1,1259,631,0,0
42,393,0,0,0,0,0,0,0,0,0,-1,1266,631,0,0
49,393,0,0,0,0,0,0,0,0,0,-1,1273,631,0,0
56,393,0,0,0,0,0,0,0,0,0,-1,1280,631,0,0
63,393,0,0,0,0,0,0,0,0,0,-1,1287,631,0,0
70,393,0,0,0,0,0,0,0,0,0,-1,1294,631,0,0
77,393,0,0,0,0,0,0,0,0,0,-1,1301,631,0,0
84,393,0,0,0,0,0,0,0,0,0,-1,1308,631,0,0
91,393,0,0,0,0,0,0,0,0,0,-1,1315,631,0,0
98,393,0,0,0,0,0,0,0,0,0,-1,1322,631,0,0
105,393,0,0,0,0,0,0,0,0,0,-1,1329,631,0,0
112,393,0,0,0,0,0,0,0,0,0,-1,1336,631,0,0
119,393,0,0,0,0,0,0,0,0,0,-1,1343,631,0,0
126,393,0,0,0,0,0,0,0,0,0,-1,1350,631,0,0
133,393,0,0,0,0,0,0,0,0,0,-1,1357,631,0,0
140,393,0,0,0,0,0,0,0,0,0,-1,1364,631,0,0
147,393,0,0,0,0,0,0,0,0,0,-1,1371,631,0,0
154,393,0,0,0,0,0,0,0,0,0,-1,1378,631,0,0
161,393,0,0,0,0,0,0,0,0,0,-1,1385,631,0,0
168,393,0,0,0,0,0,0,0,0,0,-1,1392,631,0,0
175,393,0,0,0,0,0,0,0,0,0,-1,1399,631,0,0
182,393,0,0,0,0,0,0,0,0,0,-1,1406,631,0,0
189,393,0,0,0,0,0,0,0,0,0,-1,1413,631,0,0
196,393,0,0,0,0,0,0,0,0,0,-1,1420,631,0,0
203,393,0,0,0,0,0,0,0,0,0,-1,1427,631,0,0
210,393,0,0,0,0,0,0,0,0,0,-1,1434,631,0,0
217,393,0,0,0,0,0,0,0,0,0,-1,1441,631,0,0
224,393,0,0,0,0,0,0,0,0,0,-1,1448,631,0,0
231,393,0,0,0,0,0,0,0,0,0,-1,1455,631,0,0
238,393,0,0,0,0,0,0,0,0,0,-1,1462,631,0,0
245,393,0,0,0,0,0,0,0,0,0,-1,1469,631,0,0
252,393,0,0,0,0,0,0,0,0,0,-1,1476,631,0,0
259,393,0,0,0,0,0,0,0,0,0,-1,1483,631,0,0
266,393,0,0,0,0,0,0,0,0,0,-1,1490,631,0,0
273,393,0,0,0,0,0,0,0,0,0,-1,1497,631,0,0
280,393,0,0,0,0,0,0,0,0,0,-1,1504,631,0,0
287,393,0,0,0,0,0,0,0,0,0,-1,1511,631,0,0
294,393,0,0,0,0,0,0,0,0,0,-1,1518,631,0,0
301,393,0,0,0,0,0,0,0,0,0,-1,1525,631,0,0
308,393,0,0,0,0,0,0,0,0,0,-1,1532,631,0,0
315,393,0,0,0,0,0,0,0,0,0,-1,1539,631,0,0
322,393,0,0,0,0,0,0,0,0,0,-1,1546,631,0,0
329,393,0,0,0,0,0,0,0,0,0,-1,1553,631,0,0
336,393,0,0,0,0,0,0,0,0,0,-1,1560,631,0,0
343,393,0,0,0,0,0,0,0,0,0,-1,1567,631,0,0
350,393,0,0,0,0,0,0,0,0,0,-1,1574,631,0,0
357,393,0,0,0,0,0,0,0,0,0,-1,1581,631,0,0
364,393,0,0,0,0,0,0,0,0,0,-1,1588,631,0,0
371,393,0,0,0,0,0,0,0,0,0,-1,1595,631,0,0
378,393,0,0,0,0,0,0,0,0,0,-1,1602,631,0,0
385,393,0,0,0,0,0,0,0,0,0,-1,1609,631,0,0
392,393,0,0,0,0,0,0,0,0,0,-1,1616,631,0,0
399,393,0,0,0,0,0,0,0,0,0,-1,1623,631,0,0
406,393,0,0,0,0,0,0,0,0,0,-1,1630,631,0,0
413,393,0,0,0,0,0,0,0,0,0,-1,1637,631,0,0
420,393,0,0,0,0,0,0,0,0,0,-1,1644,631,0,0
427,393,0,0,0,0,0,0,0,0,0,-1,1651,631,0,0
434,393,0,0,0,0,0,0,0,0,0,-1,1658,631,0,0
441,393,0,0,0,0,0,0,0,0,0,-1,1665,631,0,0
448,393,0,0,0,0,0,0,0,0,0,-1,1672,631,0,0
455,393,0,0,0,0,0,0,0,0,0,-1,1679,631,0,0
462,393,8.51099,1.89502,0,0,0,0,0,0,0,-1,1686,631,8.51103,-1.89504
469,393,9.39465,1.51703,0,0,0,0,0,0,0,-1,1693,631,9.39465,-1.51703
476,393,9.95569,1.185,0,0,0,0,0,0,0,-1,1700,631,9.95575,-1.18497
483,393,10.5267,0.887329,0,0,0,0,0,0,0,-1,1707,631,10.5267,-0.887321
490,393,10.9303,0.761414,0,0,0,0,0,0,0,-1,1714,631,10.9303,-0.761386
497,393,8.32153,1.88104,0,0,0,0,0,0,0,-1,1721,631,8.32148,-1.88103
504,393,9.46985,1.78711,0,0,0,0,0,0,0,-1,1728,631,9.46986,-1.78713
511,393,9.66565,-0.375977,0,0,0,0,0,0,0,-1,1735,631,9.66571,0.375949
518,393,7.01599,1.62482,0,0,0,0,0,0,0,-1,1742,631,7.01597,-1.62483
525,393,7.88245,-1.13422,0,0,0,0,0,0,0,-1,1749,631,7.88246,1.13423
532,393,7.06335,-1.18103,0,0,0,0,0,0,0,-1,1756,631,7.06332,1.18101
539,393,9.91626,-2.46301,0,0,0,0,0,0,0,-1,1763,631,9.91625,2.46302
546,393,16.4094,-8.04651,0,0,0,0,0,0,0,-1,1770,631,16.4094,8.04649
553,393,17.861,-8.53986,0,0,0,0,0,0,0,-1,1777,631,17.8609,8.53983
560,393,18.0814,-7.93549,0.00563396,0.000792908,0.000804087,0.00576402,0.000662845,0.160363,0.0036419,0.0283678,1784,631,18.0814,7.93547
567,393,18.0756,-7.39764,0.00455445,0.00053605,0.000652841,0.00465785,0.000432648,0.157082,0.00297154,0.0150964,1791,631,18.0756,7.39765
574,393,18.0919,-6.90778,0.00370097,0.000534257,0.000663983,0.00383456,0.000400671,0.198538,0.00243383,0.0161681,1798,631,18.0919,6.90776
581,393,18.048,-6.37292,0.00297903,0.000737514,0.00080219,0.00323653,0.00048001,0.310612,0.00201682,0.0150733,1805,631,18.048,6.37294
588,393,18.0117,-5.83612,0.00237735,0.00108019,0.00101321,0.00293179,0.000525761,0.500697,0.00180498,0.0170834,1812,631,18.0117,5.8361
595,393,18.0201,-5.3811,0.00205379,0.00163098,0.00141175,0.00326988,0.000414892,0.711078,0.00205562,0.014753,1819,631,18.0201,5.38109
602,393,18.0131,-4.8772,0.00195798,0.00239046,0.00196391,0.00415,0.000198441,0.840231,0.00270295,0.0164372,1826,631,18.0131,4.8772
609,393,17.9821,-4.36066,0.00192873,0.00332086,0.00260969,0.00532572,-7.61319e-05,0.915726,0.00357613,0.0162854,1833,631,17.9821,4.36067
616,393,17.9789,-3.84833,0.00189517,0.00432304,0.00320912,0.00654016,-0.000321947,0.966218,0.00447129,0.0160431,1840,631,17.9788,3.84832
623,393,18.0166,-3.20905,0.00234602,0.00546725,0.00391507,0.00812129,-0.00030802,0.975055,0.00551973,0.0306539,1847,631,18.0166,3.20907
630,393,18.0702,-2.44647,0,0,0,0,0,0,0,-1,1854,631,18.0702,2.4465
637,393,11.4626,0.608887,0,0,0,0,0,0,0,-1,1861,631,11.4627,-0.608904
644,393,8.97583,1.30585,0,0,0,0,0,0,0,-1,1868,631,8.97586,-1.30584
651,393,11.348,0.53302,0,0,0,0,0,0,0,-1,1875,631,11.348,-0.53305
658,393,9.21338,1.50836,0,0,0,0,0,0,0,-1,1882,631,9.21338,-1.50834
665,393,6.1001,2.32129,0,0,0,0,0,0,0,-1,1889,631,6.10012,-2.3213
672,393,7.14575,2.43225,0,0,0,0,0,0,0,-1,1896,631,7.14572,-2.43222
679,393,0,0,0,0,0,0,0,0,0,-1,1903,631,0,0
686,393,0,0,0,0,0,0,0,0,0,-1,1910,631,0,0
693,393,0,0,0,0,0,0,0,0,0,-1,1917,631,0,0
700,393,0,0,0,0,0,0,0,0,0,-1,1924,631,0,0
707,393,0,0,0,0,0,0,0,0,0,-1,1931,631,0,0
714,393,0,0,0,0,0,0,0,0,0,-1,1938,631,0,0
721,393,0,0,0,0,0,0,0,0,0,-1,1945,631,0,0
728,393,0,0,0,0,0,0,0,0,0,-1,1952,631,0,0
735,393,0,0,0,0,0,0,0,0,0,-1,1959,631,0,0
742,393,0,0,0,0,0,0,0,0,0,-1,1966,631,0,0
749,393,0,0,0,0,0,0,0,0,0,-1,1973,631,0,0
756,393,0,0,0,0,0,0,0,0,0,-1,1980,631,0,0
763,393,0,0,0,0,0,0,0,0,0,-1,1987,631,0,0
770,393,0,0,0,0,0,0,0,0,0,-1,1994,631,0,0
777,393,0,0,0,0,0,0,0,0,0,-1,2001,631,0,0
784,393,0,0,0,0,0,0,0,0,0,-1,2008,631,0,0
791,393,0,0,0,0,0,0,0,0,0,-1,2015,631,0,0
798,393,0,0,0,0,0,0,0,0,0,-1,2022,631,0,0
805,393,0,0,0,0,0,0,0,0,0,-1,2029,631,0,0
812,393,0,0,0,0,0,0,0,0,0,-1,2036,631,0,0
-700,386,0,0,0,0,0,0,0,0,0,-1,524,638,0,0
-693,386,0,0,0,0,0,0,0,0,0,-1,531,638,0,0
-686,386,0,0,0,0,0,0,0,0,0,-1,538,638,0,0
-679,386,0,0,0,0,0,0,0,0,0,-1,545,638,0,0
-672,386,0,0,0,0,0,0,0,0,0,-1,552,638,0,0
-665,386,0,0,0,0,0,0,0,0,0,-1,559,638,0,0
-658,386,0,0,0,0,0,0,0,0,0,-1,566,638,0,0
-651,386,0,0,0,0,0,0,0,0,0,-1,573,638,0,0
-644,386,0,0,0,0,0,0,0,0,0,-1,580,638,0,0
-637,386,0,0,0,0,0,0,0,0,0,-1,587,638,0,0
-630,386,0,0,0,0,0,0,0,0,0,-1,594,638,0,0
-623,386,0,0,0,0,0,0,0,0,0,-1,601,638,0,0
-616,386,0,0,0,0,0,0,0,0,0,-1,608,638,0,0
-609,386,0,0,0,0,0,0,0,0,0,-1,615,638,0,0
-602,386,0,0,0,0,0,0,0,0,0,-1,622,638,0,0
-595,386,0,0,0,0,0,0,0,0,0,-1,629,638,0,0
-588,386,0,0,0,0,0,0,0,0,0,-1,636,638,0,0
-581,386,0,0,0,0,0,0,0,0,0,-1,643,638,0,0
-574,386,0,0,0,0,0,0,0,0,0,-1,650,638,0,0
-567,386,0,0,0,0,0,0,0,0,0,-1,657,638,0,0
-560,386,-3.97229,-5.13898,0,0,0,0,0,0,0,-1,664,638,-3.97232,5.13897
-553,386,-4.94244,-5.54309,0,0,0,0,0,0,0,-1,671,638,-4.94242,5.5431
-546,386,-1.78668,1.72827,0,0,0,0,0,0,0,-1,678,638,-1.78668,-1.72829
-539,386,-0.879456,-2.90009,0,0,0,0,0,0,0,-1,685,638,-0.879442,2.90008
-532,386,-4.83362,1.61053,0,0,0,0,0,0,0,-1,692,638,-4.83361,-1.61051
-525,386,-6.64148,-1.50604,0,0,0,0,0,0,0,-1,699,638,-6.64149,1.50603
-518,386,-7.68927,-2.40173,0,0,0,0,0,0,0,-1,706,638,-7.68929,2.4017
-511,386,-9.45074,-3.3927,0,0,0,0,0,0,0,-1,713,638,-9.45078,3.3927
-504,386,-9.41388,-4.41223,0.000141554,0.00631614,-0.00351519,0.0079073,-0.00144961,-1.14574,0.00581528,0.0360987,720,638,-9.4139,4.4122
-497,386,-9.47522,-5.10956,0.000274579,0.00484218,-0.00269863,0.00609369,-0.000976923,-1.13656,0.0044242,0.0169446,727,638,-9.47521,5.10954
-490,386,-9.42517,-5.68433,0.000422027,0.00368012,-0.00215085,0.00474921,-0.000647068,-1.10951,0.0034024,0.0127475,734,638,-9.42519,5.68435
-483,386,-9.4353,-6.17212,0.000565835,0.00274969,-0.0017543,0.00372412,-0.000408603,-1.06377,0.00262955,0.0164193,741,638,-9.4353,6.1721
-476,386,-9.44983,-6.62329,0.000826647,0.00197416,-0.00145409,0.0029636,-0.000162791,-0.973312,0.00203217,0.0156098,748,638,-9.44985,6.62329
-469,386,-9.45447,-7.1001,0.00110608,0.00149062,-0.00129326,0.00260583,-9.12882e-06,-0.859193,0.00174027,0.0114247,755,638,-9.45446,7.10011
-462,386,-9.4549,-7.61035,0.00127427,0.00098379,-0.00108337,0.00222209,3.59697e-05,-0.718763,0.00146955,0.0109483,762,638,-9.45487,7.61037
-455,386,-9.47986,-8.09637,0.00113187,0.000198692,-0.000520667,0.00136443,-3.38604e-05,-0.420059,0.000921112,0.0120756,769,638,-9.47987,8.09639
-448,386,-9.50659,-8.57153,0.0010073,-0.00054818,7.48409e-05,0.00101089,-0.000551773,0.0479666,0.000915093,0.0121822,776,638,-9.50661,8.57151
-441,386,-9.53058,-9.03473,0.000633385,-0.00137115,0.000874218,0.000961078,-0.00169885,0.358632,0.00155527,0.0129094,783,638,-9.53061,9.03475
-434,386,-9.47015,-9.53607,-5.15603e-05,-0.00248982,0.00202416,0.00109225,-0.00363364,0.514348,0.00285698,0.0352729,790,638,-9.47013,9.53608
-427,386,-9.32111,-10.1418,0,0,0,0,0,0,0,-1,797,638,-9.32109,10.1418
-420,386,-9.55408,-10.5083,0,0,0,0,0,0,0,-1,804,638,-9.55406,10.5083
-413,386,-5.45691,-5.35785,0,0,0,0,0,0,0,-1,811,638,-5.45691,5.35783
-406,386,-4.51135,-4.10999,0,0,0,0,0,0,0,-1,818,638,-4.51135,4.10996
-399,386,-3.57117,-3.42126,0,0,0,0,0,0,0,-1,825,638,-3.57116,3.42129
-392,386,-4.00977,0.403625,0,0,0,0,0,0,0,-1,832,638,-4.0098,-0.403616
-385,386,-3.2406,-0.118469,0,0,0,0,0,0,0,-1,839,638,-3.24058,0.118485
-378,386,-2.55243,-1.22748,0,0,0,0,0,0,0,-1,846,638,-2.55243,1.22748
-371,386,-7.95807,-0.330261,0,0,0,0,0,0,0,-1,853,638,-7.95806,0.330284
-364,386,-8.90637,-0.665955,0,0,0,0,0,0,0,-1,860,638,-8.90635,0.665951
-357,386,-9.10364,-0.388733,0,0,0,0,0,0,0,-1,867,638,-9.10364,0.388744
-350,386,0,0,0,0,0,0,0,0,0,-1,874,638,0,0
-343,386,0,0,0,0,0,0,0,0,0,-1,881,638,0,0
-336,386,0,0,0,0,0,0,0,0,0,-1,888,638,0,0
-329,386,0,0,0,0,0,0,0,0,0,-1,895,638,0,0
-322,386,0,0,0,0,0,0,0,0,0,-1,902,638,0,0
-315,386,0,0,0,0,0,0,0,0,0,-1,909,638,0,0
-308,386,0,0,0,0,0,0,0,0,0,-1,916,638,0,0
-301,386,0,0,0,0,0,0,0,0,0,-1,923,638,0,0
-294,386,0,0,0,0,0,0,0,0,0,-1,930,638,0,0
-287,386,0,0,0,0,0,0,0,0,0,-1,937,638,0,0
-280,386,0,0,0,0,0,0,0,0,0,-1,944,638,0,0
-273,386,0,0,0,0,0,0,0,0,0,-1,951,638,0,0
-266,386,0,0,0,0,0,0,0,0,0,-1,958,638,0,0
-259,386,0,0,0,0,0,0,0,0,0,-1,965,638,0,0
-252,386,0,0,0,0,0,0,0,0,0,-1,972,638,0,0
-245,386,0,0,0,0,0,0,0,0,0,-1,979,638,0,0
-238,386,0,0,0,0,0,0,0,0,0,-1,986,638,0,0
-231,386,0,0,0,0,0,0,0,0,0,-1,993,638,0,0
-224,386,0,0,0,0,0,0,0,0,0,-1,1000,638,0,0
-217,386,0,0,0,0,0,0,0,0,0,-1,1007,638,0,0
-210,386,0,0,0,0,0,0,0,0,0,-1,1014,638,0,0
-203,386,0,0,0,0,0,0,0,0,0,-1,1021,638,0,0
-196,386,0,0,0,0,0,0,0,0,0,-1,1028,638,0,0
-189,386,0,0,0,0,0,0,0,0,0,-1,1035,638,0,0
-182,386,0,0,0,0,0,0,0,0,0,-1,1042,638,0,0
-175,386,0,0,0,0,0,0,0,0,0,-1,1049,638,0,0
-168,386,0,0,0,0,0,0,0,0,0,-1,1056,638,0,0
-161,386,0,0,0,0,0,0,0,0,0,-1,1063,638,0,0
-154,386,0,0,0,0,0,0,0,0,0,-1,1070,638,0,0
-147,386,0,0,0,0,0,0,0,0,0,-1,1077,638,0,0
-140,386,0,0,0,0,0,0,0,0,0,-1,1084,638,0,0
-133,386,0,0,0,0,0,0,0,0,0,-1,1091,638,0,0
-126,386,0,0,0,0,0,0,0,0,0,-1,1098,638,0,0
-119,386,0,0,0,0,0,0,0,0,0,-1,1105,638,0,0
-112,386,0,0,0,0,0,0,0,0,0,-1,1112,638,0,0
-105,386,0,0,0,0,0,0,0,0,0,-1,1119,638,0,0
-98,386,0,0,0,0,0,0,0,0,0,-1,1126,638,0,0
-91,386,0,0,0,0,0,0,0,0,0,-1,1133,638,0,0
-84,386,0,0,0,0,0,0,0,0,0,-1,1140,638,0,0
-77,386,0,0,0,0,0,0,0,0,0,-1,1147,638,0,0
-70,386,0,0,0,0,0,0,0,0,0,-1,1154,638,0,0
-63,386,0,0,0,0,0,0,0,0,0,-1,1161,638,0,0
-56,386,0,0,0,0,0,0,0,0,0,-1,1168,638,0,0
-49,386,0,0,0,0,0,0,0,0,0,-1,1175,638,0,0
-42,386,0,0,0,0,0,0,0,0,0,-1,1182,638,0,0
-35,386,0,0,0,0,0,0,0,0,0,-1,1189,638,0,0
-28,386,0,0,0,0,0,0,0,0,0,-1,1196,638,0,0
-21,386,0,0,0,0,0,0,0,0,0,-1,1203,638,0,0
-14,386,0,0,0,0,0,0,0,0,0,-1,1210,638,0,0
-7,386,0,0,0,0,0,0,0,0,0,-1,1217,638,0,0
0,386,0,0,0,0,0,0,0,0,0,-1,1224,638,0,0
7,386,0,0,0,0,0,0,0,0,0,-1,1231,638,0,0
14,386,0,0,0,0,0,0,0,0,0,-1,1238,638,0,0
21,386,0,0,0,0,0,0,0,0,0,-1,1245,638,0,0
28,386,0,0,0,0,0,0,0,0,0,-1,1252,638,0,0
35,386,0,0,0,0,0,0,0,0,0,-1,1259,638,0,0
42,386,0,0,0,0,0,0,0,0,0,-1,1266,638,0,0
49,386,0,0,0,0,0,0,0,0,0,-1,1273,638,0,0
56,386,0,0,0,0,0,0,0,0,0,-1,1280,638,0,0
63,386,0,0,0,0,0,0,0,0,0,-1,1287,638,0,0
70,386,0,0,0,0,0,0,0,0,0,-1,1294,638,0,0
77,386,0,0,0,0,0,0,0,0,0,-1,1301,638,0,0
84,386,0,0,0,0,0,0,0,0,0,-1,1308,638,0,0
91,386,0,0,0,0,0,0,0,0,0,-1,1315,638,0,0
98,386,0,0,0,0,0,0,0,0,0,-1,1322,638,0,0
105,386,0,0,0,0,0,0,0,0,0,-1,1329,638,0,0
112,386,0,0,0,0,0,0,0,0,0,-1,1336,638,0,0
119,386,0,0,0,0,0,0,0,0,0,-1,1343,638,0,0
126,386,0,0,0,0,0,0,0,0,0,-1,1350,638,0,0
133,386,0,0,0,0,0,0,0,0,0,-1,1357,638,0,0
140,386,0,0,0,0,0,0,0,0,0,-1,1364,638,0,0
147,386,0,0,0,0,0,0,0,0,0,-1,1371,638,0,0
154,386,0,0,0,0,0,0,0,0,0,-1,1378,638,0,0
161,386,0,0,0,0,0,0,0,0,0,-1,1385,638,0,0
168,386,0,0,0,0,0,0,0,0,0,-1,1392,638,0,0
175,386,0,0,0,0,0,0,0,0,0,-1,1399,638,0,0
182,386,0,0,0,0,0,0,0,0,0,-1,1406,638,0,0
189,386,0,0,0,0,0,0,0,0,0,-1,1413,638,0,0
196,386,0,0,0,0,0,0,0,0,0,-1,1420,638,0,0
203,386,0,0,0,0,0,0,0,0,0,-1,1427,638,0,0
210,386,0,0,0,0,0,0,0,0,0,-1,1434,638,0,0
217,386,0,0,0,0,0,0,0,0,0,-1,1441,638,0,0
224,386,0,0,0,0,0,0,0,0,0,-1,1448,638,0,0
231,386,0,0,0,0,0,0,0,0,0,-1,1455,638,0,0
238,386,0,0,0,0,0,0,0,0,0,-1,1462,638,0,0
245,386,0,0,0,0,0,0,0,0,0,-1,1469,638,0,0
252,386,0,0,0,0,0,0,0,0,0,-1,1476,638,0,0
259,386,0,0,0,0,0,0,0,0,0,-1,1483,638,0,0
266,386,0,0,0,0,0,0,0,0,0,-1,1490,638,0,0
273,386,0,0,0,0,0,0,0,0,0,-1,1497,638,0,0
280,386,0,0,0,0,0,0,0,0,0,-1,1504,638,0,0
287,386,0,0,0,0,0,0,0,0,0,-1,1511,638,0,0
294,386,0,0,0,0,0,0,0,0,0,-1,1518,638,0,0
301,386,0,0,0,0,0,0,0,0,0,-1,1525,638,0,0
308,386,0,0,0,0,0,0,0,0,0,-1,1532,638,0,0
315,386,0,0,0,0,0,0,0,0,0,-1,1539,638,0,0
322,386,0,0,0,0,0,0,0,0,0,-1,1546,638,0,0
329,386,0,0,0,0,0,0,0,0,0,-1,1553,638,0,0
336,386,0,0,0,0,0,0,0,0,0,-1,1560,638,0,0
343,386,0,0,0,0,0,0,0,0,0,-1,1567,638,0,0
350,386,0,0,0,0,0,0,0,0,0,-1,1574,638,0,0
357,386,0,0,0,0,0,0,0,0,0,-1,1581,638,0,0
364,386,0,0,0,0,0,0,0,0,0,-1,1588,638,0,0
371,386,0,0,0,0,0,0,0,0,0,-1,1595,638,0,0
378,386,0,0,0,0,0,0,0,0,0,-1,1602,638,0,0
385,386,0,0,0,0,0,0,0,0,0,-1,1609,638,0,0
392,386,0,0,0,0,0,0,0,0,0,-1,1616,638,0,0
399,386,0,0,0,0,0,0,0,0,0,-1,1623,638,0,0
406,386,0,0,0,0,0,0,0,0,0,-1,1630,638,0,0
413,386,0,0,0,0,0,0,0,0,0,-1,1637,638,0,0
420,386,0,0,0,0,0,0,0,0,0,-1,1644,638,0,0
427,386,0,0,0,0,0,0,0,0,0,-1,1651,638,0,0
434,386,0,0,0,0,0,0,0,0,0,-1,1658,638,0,0
441,386,0,0,0,0,0,0,0,0,0,-1,1665,638,0,0
448,386,0,0,0,0,0,0,0,0,0,-1,1672,638,0,0
455,386,0,0,0,0,0,0,0,0,0,-1,1679,638,0,0
462,386,0,0,0,0,0,0,0,0,0,-1,1686,638,0,0
469,386,9.84692,1.55804,0,0,0,0,0,0,0,-1,1693,638,9.84691,-1.55807
476,386,10.6145,0.986511,0,0,0,0,0,0,0,-1,1700,638,10.6145,-0.986529
483,386,11.4113,0.732971,0,0,0,0,0,0,0,-1,1707,638,11.4112,-0.732958
490,386,7.79785,1.79572,0,0,0,0,0,0,0,-1,1714,638,7.79788,-1.7957
497,386,8.96362,1.77081,0,0,0,0,0,0,0,-1,1721,638,8.96357,-1.77081
504,386,10.0555,1.69427,0,0,0,0,0,0,0,-1,1728,638,10.0555,-1.69426
511,386,11.2172,1.534,0,0,0,0,0,0,0,-1,1735,638,11.2172,-1.53398
518,386,7.41553,1.75238,0,0,0,0,0,0,0,-1,1742,638,7.41547,-1.75238
525,386,8.82422,-1.1449,0,0,0,0,0,0,0,-1,1749,638,8.82426,1.14492
532,386,10.6432,0.617371,0,0,0,0,0,0,0,-1,1756,638,10.6432,-0.617359
539,386,9.62061,-0.393616,0,0,0,0,0,0,0,-1,1763,638,9.62059,0.393634
546,386,10.7963,-2.854,0,0,0,0,0,0,0,-1,1770,638,10.7962,2.854
553,386,16.9939,-7.27942,0,0,0,0,0,0,0,-1,1777,638,16.9939,7.27944
560,386,18.3843,-7.92303,0,0,0,0,0,0,0,-1,1784,638,18.3842,7.92304
567,386,18.5072,-7.36603,0.00576143,0.000481724,0.000730679,0.00586068,0.000382468,0.135014,0.00378608,0.0236361,1791,638,18.5073,7.36605
574,386,18.5747,-6.86444,0.00466461,0.000438954,0.000692808,0.00477529,0.000328265,0.158429,0.00307994,0.0140112,1798,638,18.5748,6.86445
581,386,18.5313,-6.37946,0.00374078,0.000605005,0.000778492,0.00392342,0.000422372,0.230431,0.0024868,0.0139857,1805,638,18.5312,6.37945
588,386,18.5286,-5.87183,0.00298099,0.000892688,0.000933347,0.00333734,0.000536344,0.364712,0.00206941,0.0126907,1812,638,18.5286,5.87181
595,386,18.5181,-5.37823,0.00251524,0.00136424,0.00124478,0.00331112,0.000568363,0.568868,0.00204446,0.0136437,1819,638,18.518,5.37822
602,386,18.4962,-4.875,0.00229929,0.00203869,0.00170798,0.00388194,0.000456048,0.747327,0.00245013,0.0152261,1826,638,18.4962,4.87501
609,386,18.5149,-4.36133,0.00212887,0.00285098,0.00222957,0.00474855,0.000231309,0.86567,0.00309148,0.0151594,1833,638,18.5149,4.36132
616,386,18.5031,-3.83862,0.00192928,0.00366184,0.00264331,0.00557719,1.39188e-05,0.943746,0.0037135,0.012566,1840,638,18.5031,3.83864
623,386,18.467,-3.29968,0.00210716,0.0045602,0.00311135,0.00667806,-1.06974e-05,0.97315,0.00445561,0.0111955,1847,638,18.467,3.2997
630,386,18.5455,-2.71906,0.00222593,0.00552624,0.00357456,0.00781315,-6.09821e-05,1.00164,0.00522921,0.0339928,1854,638,18.5456,2.71904
637,386,18.6884,-2.13177,0,0,0,0,0,0,0,-1,1861,638,18.6883,2.13175
644,386,11.6521,0.723328,0,0,0,0,0,0,0,-1,1868,638,11.6521,-0.723355
651,386,9.3866,1.31097,0,0,0,0,0,0,0,-1,1875,638,9.3866,-1.31095
658,386,12.0731,-0.00415039,0,0,0,0,0,0,0,-1,1882,638,12.0731,0.00412803
665,386,6.33167,1.78601,0,0,0,0,0,0,0,-1,1889,638,6.33171,-1.78601
672,386,7.23352,2.14435,0,0,0,0,0,0,0,-1,1896,638,7.23353,-2.14433
679,386,8.07764,2.57104,0,0,0,0,0,0,0,-1,1903,638,8.07758,-2.57103
686,386,0,0,0,0,0,0,0,0,0,-1,1910,638,0,0
693,386,0,0,0,0,0,0,0,0,0,-1,1917,638,0,0
700,386,0,0,0,0,0,0,0,0,0,-1,1924,638,0,0
707,386,0,0,0,0,0,0,0,0,0,-1,1931,638,0,0
714,386,0,0,0,0,0,0,0,0,0,-1,1938,638,0,0
721,386,0,0,0,0,0,0,0,0,0,-1,1945,638,0,0
728,386,0,0,0,0,0,0,0,0,0,-1,1952,638,0,0
735,386,0,0,0,0,0,0,0,0,0,-1,1959,638,0,0
742,386,0,0,0,0,0,0,0,0,0,-1,1966,638,0,0
749,386,0,0,0,0,0,0,0,0,0,-1,1973,638,0,0
756,386,0,0,0,0,0,0,0,0,0,-1,1980,638,0,0
763,386,0,0,0,0,0,0,0,0,0,-1,1987,638,0,0
770,386,0,0,0,0,0,0,0,0,0,-1,1994,638,0,0
777,386,0,0,0,0,0,0,0,0,0,-1,2001,638,0,0
784,386,0,0,0,0,0,0,0,0,0,-1,2008,638,0,0
791,386,0,0,0,0,0,0,0,0,0,-1,2015,638,0,0
798,386,0,0,0,0,0,0,0,0,0,-1,2022,638,0,0
805,386,0,0,0,0,0,0,0,0,0,-1,2029,638,0,0
812,386,0,0,0,0,0,0,0,0,0,-1,2036,638,0,0
-700,379,0,0,0,0,0,0,0,0,0,-1,524,645,0,0
-693,379,0,0,0,0,0,0,0,0,0,-1,531,645,0,0
-686,379,0,0,0,0,0,0,0,0,0,-1,538,645,0,0
-679,379,0,0,0,0,0,0,0,0,0,-1,545,645,0,0
-672,379,0,0,0,0,0,0,0,0,0,-1,552,645,0,0
-665,379,0,0,0,0,0,0,0,0,0,-1,559,645,0,0
-658,379,0,0,0,0,0,0,0,0,0,-1,566,645,0,0
-651,379,0,0,0,0,0,0,0,0,0,-1,573,645,0,0
-644,379,0,0,0,0,0,0,0,0,0,-1,580,645,0,0
-637,379,0,0,0,0,0,0,0,0,0,-1,587,645,0,0
-630,379,0,0,0,0,0,0,0,0,0,-1,594,645,0,0
-623,379,0,0,0,0,0,0,0,0,0,-1,601,645,0,0
-616,379,0,0,0,0,0,0,0,0,0,-1,608,645,0,0
-609,379,0,0,0,0,0,0,0,0,0,-1,615,645,0,0
-602,379,0,0,0,0,0,0,0,0,0,-1,622,645,0,0
-595,379,0,0,0,0,0,0,0,0,0,-1,629,645,0,0
-588,379,0,0,0,0,0,0,0,0,0,-1,636,645,0,0
-581,379,0,0,0,0,0,0,0,0,0,-1,643,645,0,0
-574,379,0,0,0,0,0,0,0,0,0,-1,650,645,0,0
-567,379,-8.78058,0.59668,0,0,0,0,0,0,0,-1,657,645,-8.7806,-0.596692
-560,379,-9.53485,-0.211304,0,0,0,0,0,0,0,-1,664,645,-9.53487,0.211282
-553,379,-5.17108,-4.53119,0,0,0,0,0,0,0,-1,671,645,-5.17106,4.53117
-546,379,-6.23053,-4.92102,0,0,0,0,0,0,0,-1,678,645,-6.23054,4.92105
-539,379,-0.71698,-2.19427,0,0,0,0,0,0,0,-1,685,645,-0.716959,2.19427
-532,379,-7.69611,0.217224,0,0,0,0,0,0,0,-1,692,645,-7.69614,-0.217204
-525,379,-7.09833,-1.13043,0,0,0,0,0,0,0,-1,699,645,-7.0983,1.13041
-518,379,-9.54089,-3.62354,0,0,0,0,0,0,0,-1,706,645,-9.5409,3.62352
-511,379,-9.89691,-4.12109,0,0,0,0,0,0,0,-1,713,645,-9.8969,4.12111
-504,379,-9.85364,-4.66937,1.6568e-05,0.00492752,-0.00264392,0.00608033,-0.00113623,-1.15963,0.00448058,0.0250743,720,645,-9.85361,4.6694
-497,379,-9.90466,-5.11975,0.000258374,0.00377285,-0.00201525,0.0046894,-0.000658171,-1.14395,0.00336717,0.0133478,727,645,-9.90464,5.11977
-490,379,-9.89496,-5.64197,0.000492454,0.00286782,-0.00161175,0.00368222,-0.000321946,-1.10293,0.00256886,0.0114767,734,645,-9.89495,5.64197
-483,379,-9.90515,-6.1333,0.000730417,0.00216436,-0.0013549,0.0029803,-8.55204e-05,-1.02875,0.00201598,0.0126846,741,645,-9.90512,6.13328
-476,379,-9.9162,-6.5788,0.00107633,0.00157607,-0.00119163,0.00254374,0.00010866,-0.888746,0.0016608,0.0129578,748,645,-9.91621,6.57879
-469,379,-9.94196,-7.0564,0.0014288,0.00126718,-0.00116793,0.00251871,0.000177268,-0.750856,0.00162328,0.0115833,755,645,-9.94193,7.05639
-462,379,-9.96161,-7.56317,0.00166976,0.000920822,-0.00109903,0.00245637,0.000134213,-0.621204,0.00159472,0.00887885,762,645,-9.96161,7.56318
-455,379,-9.97717,-8.05402,0.00159619,0.000246348,-0.000645952,0.00185549,-1.29541e-05,-0.381735,0.00124133,0.0088547,769,645,-9.97719,8.05399
-448,379,-9.97656,-8.52008,0.00155017,-0.00030762,-0.000202864,0.00157207,-0.000329514,-0.107508,0.00117341,0.0111727,776,645,-9.97656,8.5201
-441,379,-9.96216,-9.0437,0.00127056,-0.000982367,0.000439044,0.0013531,-0.0010649,0.185821,0.00139933,0.0215051,783,645,-9.96217,9.04372
-434,379,-9.78754,-9.64093,0,0,0,0,0,0,0,-1,790,645,-9.78752,9.64093
-427,379,-4.16113,-4.13452,0,0,0,0,0,0,0,-1,797,645,-4.16116,4.1345
-420,379,-4.63953,-3.46869,0,0,0,0,0,0,0,-1,804,645,-4.63953,3.46872
-413,379,-4.62543,-3.7912,0,0,0,0,0,0,0,-1,811,645,-4.62541,3.79123
-406,379,-4.64063,-4.38489,0,0,0,0,0,0,0,-1,818,645,-4.64065,4.3849
-399,379,-2.93536,-1.40118,0,0,0,0,0,0,0,-1,825,645,-2.93534,1.40119
-392,379,-4.16711,-0.466003,0,0,0,0,0,0,0,-1,832,645,-4.16714,0.465992
-385,379,-3.51862,0.441101,0,0,0,0,0,0,0,-1,839,645,-3.51859,-0.441072
-378,379,-5.3504,0.212219,0,0,0,0,0,0,0,-1,846,645,-5.35038,-0.212241
-371,379,-4.32092,-0.186707,0,0,0,0,0,0,0,-1,853,645,-4.3209,0.186707
-364,379,-3.40887,-0.549805,0,0,0,0,0,0,0,-1,860,645,-3.4089,0.549802
-357,379,0,0,0,0,0,0,0,0,0,-1,867,645,0,0
-350,379,0,0,0,0,0,0,0,0,0,-1,874,645,0,0
-343,379,0,0,0,0,0,0,0,0,0,-1,881,645,0,0
-336,379,0,0,0,0,0,0,0,0,0,-1,888,645,0,0
-329,379,0,0,0,0,0,0,0,0,0,-1,895,645,0,0
-322,379,0,0,0,0,0,0,0,0,0,-1,902,645,0,0
-315,379,0,0,0,0,0,0,0,0,0,-1,909,645,0,0
-308,379,0,0,0,0,0,0,0,0,0,-1,916,645,0,0
-301,379,0,0,0,0,0,0,0,0,0,-1,923,645,0,0
-294,379,0,0,0,0,0,0,0,0,0,-1,930,645,0,0
-287,379,0,0,0,0,0,0,0,0,0,-1,937,645,0,0
-280,379,0,0,0,0,0,0,0,0,0,-1,944,645,0,0
-273,379,0,0,0,0,0,0,0,0,0,-1,951,645,0,0
-266,379,0,0,0,0,0,0,0,0,0,-1,958,645,0,0
-259,379,0,0,0,0,0,0,0,0,0,-1,965,645,0,0
-252,379,0,0,0,0,0,0,0,0,0,-1,972,645,0,0
-245,379,0,0,0,0,0,0,0,0,0,-1,979,645,0,0
-238,379,0,0,0,0,0,0,0,0,0,-1,986,645,0,0
-231,379,0,0,0,0,0,0,0,0,0,-1,993,645,0,0
-224,379,0,0,0,0,0,0,0,0,0,-1,1000,645,0,0
-217,379,0,0,0,0,0,0,0,0,0,-1,1007,645,0,0
-210,379,0,0,0,0,0,0,0,0,0,-1,1014,645,0,0
-203,379,0,0,0,0,0,0,0,0,0,-1,1021,645,0,0
-196,379,0,0,0,0,0,0,0,0,0,-1,1028,645,0,0
-189,379,0,0,0,0,0,0,0,0,0,-1,1035,645,0,0
-182,379,0,0,0,0,0,0,0,0,0,-1,1042,645,0,0
-175,379,0,0,0,0,0,0,0,0,0,-1,1049,645,0,0
-168,379,0,0,0,0,0,0,0,0,0,-1,1056,645,0,0
-161,379,0,0,0,0,0,0,0,0,0,-1,1063,645,0,0
-154,379,0,0,0,0,0,0,0,0,0,-1,1070,645,0,0
-147,379,0,0,0,0,0,0,0,0,0,-1,1077,645,0,0
-140,379,0,0,0,0,0,0,0,0,0,-1,1084,645,0,0
-133,379,0,0,0,0,0,0,0,0,0,-1,1091,645,0,0
-126,379,0,0,0,0,0,0,0,0,0,-1,1098,645,0,0
-119,379,0,0,0,0,0,0,0,0,0,-1,1105,645,0,0
-112,379,0,0,0,0,0,0,0,0,0,-1,1112,645,0,0
-105,379,0,0,0,0,0,0,0,0,0,-1,1119,645,0,0
-98,379,0,0,0,0,0,0,0,0,0,-1,1126,645,0,0
-91,379,0,0,0,0,0,0,0,0,0,-1,1133,645,0,0
-84,379,0,0,0,0,0,0,0,0,0,-1,1140,645,0,0
-77,379,0,0,0,0,0,0,0,0,0,-1,1147,645,0,0
-70,379,0,0,0,0,0,0,0,0,0,-1,1154,645,0,0
-63,379,0,0,0,0,0,0,0,0,0,-1,1161,645,0,0
-56,379,0,0,0,0,0,0,0,0,0,-1,1168,645,0,0
-49,379,0,0,0,0,0,0,0,0,0,-1,1175,645,0,0
-42,379,0,0,0,0,0,0,0,0,0,-1,1182,645,0,0
-35,379,0,0,0,0,0,0,0,0,0,-1,1189,645,0,0
-28,379,0,0,0,0,0,0,0,0,0,-1,1196,645,0,0
-21,379,0,0,0,0,0,0,0,0,0,-1,1203,645,0,0
-14,379,0,0,0,0,0,0,0,0,0,-1,1210,645,0,0
-7,379,0,0,0,0,0,0,0,0,0,-1,1217,645,0,0
0,379,0,0,0,0,0,0,0,0,0,-1,1224,645,0,0
7,379,0,0,0,0,0,0,0,0,0,-1,1231,645,0,0
14,379,0,0,0,0,0,0,0,0,0,-1,1238,645,0,0
21,379,0,0,0,0,0,0,0,0,0,-1,1245,645,0,0
28,379,0,0,0,0,0,0,0,0,0,-1,1252,645,0,0
35,379,0,0,0,0,0,0,0,0,0,-1,1259,645,0,0
42,379,0,0,0,0,0,0,0,0,0,-1,1266,645,0,0
49,379,0,0,0,0,0,0,0,0,0,-1,1273,645,0,0
56,379,0,0,0,0,0,0,0,0,0,-1,1280,645,0,0
63,379,0,0,0,0,0,0,0,0,0,-1,1287,645,0,0
70,379,0,0,0,0,0,0,0,0,0,-1,1294,645,0,0
77,379,0,0,0,0,0,0,0,0,0,-1,1301,645,0,0
84,379,0,0,0,0,0,0,0,0,0,-1,1308,645,0,0
91,379,0,0,0,0,0,0,0,0,0,-1,1315,645,0,0
98,379,0,0,0,0,0,0,0,0,0,-1,1322,645,0,0
105,379,0,0,0,0,0,0,0,0,0,-1,1329,645,0,0
112,379,0,0,0,0,0,0,0,0,0,-1,1336,645,0,0
119,379,0,0,0,0,0,0,0,0,0,-1,1343,645,0,0
126,379,0,0,0,0,0,0,0,0,0,-1,1350,645,0,0
133,379,0,0,0,0,0,0,0,0,0,-1,1357,645,0,0
140,379,0,0,0,0,0,0,0,0,0,-1,1364,645,0,0
147,379,0,0,0,0,0,0,0,0,0,-1,1371,645,0,0
154,379,0,0,0,0,0,0,0,0,0,-1,1378,645,0,0
161,379,0,0,0,0,0,0,0,0,0,-1,1385,645,0,0
168,379,0,0,0,0,0,0,0,0,0,-1,1392,645,0,0
175,379,0,0,0,0,0,0,0,0,0,-1,1399,645,0,0
182,379,0,0,0,0,0,0,0,0,0,-1,1406,645,0,0
189,379,0,0,0,0,0,0,0,0,0,-1,1413,645,0,0
196,379,0,0,0,0,0,0,0,0,0,-1,1420,645,0,0
203,379,0,0,0,0,0,0,0,0,0,-1,1427,645,0,0
210,379,0,0,0,0,0,0,0,0,0,-1,1434,645,0,0
217,379,0,0,0,0,0,0,0,0,0,-1,1441,645,0,0
224,379,0,0,0,0,0,0,0,0,0,-1,1448,645,0,0
231,379,0,0,0,0,0,0,0,0,0,-1,1455,645,0,0
238,379,0,0,0,0,0,0,0,0,0,-1,1462,645,0,0
245,379,0,0,0,0,0,0,0,0,0,-1,1469,645,0,0
252,379,0,0,0,0,0,0,0,0,0,-1,1476,645,0,0
259,379,0,0,0,0,0,0,0,0,0,-1,1483,645,0,0
266,379,0,0,0,0,0,0,0,0,0,-1,1490,645,0,0
273,379,0,0,0,0,0,0,0,0,0,-1,1497,645,0,0
280,379,0,0,0,0,0,0,0,0,0,-1,1504,645,0,0
287,379,0,0,0,0,0,0,0,0,0,-1,1511,645,0,0
294,379,0,0,0,0,0,0,0,0,0,-1,1518,645,0,0
301,379,0,0,0,0,0,0,0,0,0,-1,1525,645,0,0
308,379,0,0,0,0,0,0,0,0,0,-1,1532,645,0,0
315,379,0,0,0,0,0,0,0,0,0,-1,1539,645,0,0
322,379,0,0,0,0,0,0,0,0,0,-1,1546,645,0,0
329,379,0,0,0,0,0,0,0,0,0,-1,1553,645,0,0
336,379,0,0,0,0,0,0,0,0,0,-1,1560,645,0,0
343,379,0,0,0,0,0,0,0,0,0,-1,1567,645,0,0
350,379,0,0,0,0,0,0,0,0,0,-1,1574,645,0,0
357,379,0,0,0,0,0,0,0,0,0,-1,1581,645,0,0
364,379,0,0,0,0,0,0,0,0,0,-1,1588,645,0,0
371,379,0,0,0,0,0,0,0,0,0,-1,1595,645,0,0
378,379,0,0,0,0,0,0,0,0,0,-1,1602,645,0,0
385,379,0,0,0,0,0,0,0,0,0,-1,1609,645,0,0
392,379,0,0,0,0,0,0,0,0,0,-1,1616,645,0,0
399,379,0,0,0,0,0,0,0,0,0,-1,1623,645,0,0
406,379,0,0,0,0,0,0,0,0,0,-1,1630,645,0,0
413,379,0,0,0,0,0,0,0,0,0,-1,1637,645,0,0
420,379,0,0,0,0,0,0,0,0,0,-1,1644,645,0,0
427,379,0,0,0,0,0,0,0,0,0,-1,1651,645,0,0
434,379,0,0,0,0,0,0,0,0,0,-1,1658,645,0,0
441,379,0,0,0,0,0,0,0,0,0,-1,1665,645,0,0
448,379,0,0,0,0,0,0,0,0,0,-1,1672,645,0,0
455,379,0,0,0,0,0,0,0,0,0,-1,1679,645,0,0
462,379,0,0,0,0,0,0,0,0,0,-1,1686,645,0,0
469,379,0,0,0,0,0,0,0,0,0,-1,1693,645,0,0
476,379,11.1787,0.830383,0,0,0,0,0,0,0,-1,1700,645,11.1787,-0.830365
483,379,7.4231,1.54321,0,0,0,0,0,0,0,-1,1707,645,7.42314,-1.54324
490,379,8.52881,1.56677,0,0,0,0,0,0,0,-1,1714,645,8.52878,-1.56677
497,379,9.63599,1.49573,0,0,0,0,0,0,0,-1,1721,645,9.63604,-1.4957
504,379,10.0833,1.35229,0,0,0,0,0,0,0,-1,1728,645,10.0832,-1.35227
511,379,8.14343,1.59912,0,0,0,0,0,0,0,-1,1735,645,8.14347,-1.59912
518,379,12.7955,-0.324097,0,0,0,0,0,0,0,-1,1742,645,12.7955,0.324101
525,379,6.03711,1.10352,0,0,0,0,0,0,0,-1,1749,645,6.03711,-1.10351
532,379,8.70947,0.887817,0,0,0,0,0,0,0,-1,1756,645,8.70953,-0.887808
539,379,9.87097,0.111389,0,0,0,0,0,0,0,-1,1763,645,9.87095,-0.111395
546,379,8.42383,-0.730652,0,0,0,0,0,0,0,-1,1770,645,8.42378,0.730638
553,379,19.2905,-7.67834,0,0,0,0,0,0,0,-1,1777,645,19.2905,7.67837
560,379,18.7991,-7.81702,0,0,0,0,0,0,0,-1,1784,645,18.799,7.81699
567,379,18.9386,-7.3183,0.00705166,0.000317679,0.000773182,0.0071393,0.000230044,0.112861,0.00468473,0.0285542,1791,645,18.9386,7.31827
574,379,19.0889,-6.84351,0.00570714,0.000321241,0.00075619,0.0058113,0.000217085,0.136877,0.0038039,0.0126792,1798,645,19.0888,6.84349
581,379,19.0702,-6.36133,0.00461075,0.000501374,0.00083667,0.00477457,0.000337558,0.193349,0.0030767,0.0149653,1805,645,19.0702,6.36133
588,379,19.0548,-5.85913,0.00372412,0.000764765,0.00096676,0.00401195,0.000476939,0.289366,0.00253068,0.0171691,1812,645,19.0548,5.85915
595,379,19.0436,-5.34814,0.00312656,0.00117501,0.00119806,0.00369593,0.000605632,0.44365,0.00228894,0.014643,1819,645,19.0436,5.34815
602,379,19.0138,-4.85681,0.00279182,0.00177552,0.00157454,0.00393817,0.000629168,0.629311,0.00244288,0.0152835,1826,645,19.0138,4.85681
609,379,19.0052,-4.36926,0.00248713,0.00247142,0.00198132,0.00446061,0.000497936,0.783416,0.00282244,0.0153369,1833,645,19.0053,4.36924
616,379,18.989,-3.85388,0.0021328,0.00310186,0.00224195,0.00491104,0.000323623,0.891821,0.00317166,0.0126841,1840,645,18.989,3.85386
623,379,18.9733,-3.30597,0.00201319,0.00378076,0.0025281,0.00557511,0.000218849,0.95355,0.00364598,0.0119823,1847,645,18.9733,3.30596
630,379,18.9576,-2.7843,0.00172283,0.00446029,0.00273637,0.00615115,3.19604e-05,1.0173,0.00409016,0.0133787,1854,645,18.9577,2.78428
637,379,18.95,-2.18024,0.00116543,0.00512965,0.00279908,0.00657735,-0.000282273,1.09348,0.00448196,0.0365721,1861,645,18.95,2.18025
644,379,19.0972,-1.48834,0,0,0,0,0,0,0,-1,1868,645,19.0972,1.48834
651,379,12.9515,0.220825,0,0,0,0,0,0,0,-1,1875,645,12.9515,-0.220814
658,379,13.7498,0.37439,0,0,0,0,0,0,0,-1,1882,645,13.7498,-0.374371
665,379,11.9719,0.353333,0,0,0,0,0,0,0,-1,1889,645,11.9719,-0.353321
672,379,7.57605,2.15326,0,0,0,0,0,0,0,-1,1896,645,7.57599,-2.15326
679,379,8.55078,2.50409,0,0,0,0,0,0,0,-1,1903,645,8.55073,-2.50406
686,379,0,0,0,0,0,0,0,0,0,-1,1910,645,0,0
693,379,0,0,0,0,0,0,0,0,0,-1,1917,645,0,0
700,379,0,0,0,0,0,0,0,0,0,-1,1924,645,0,0
707,379,0,0,0,0,0,0,0,0,0,-1,1931,645,0,0
714,379,0,0,0,0,0,0,0,0,0,-1,1938,645,0,0
721,379,0,0,0,0,0,0,0,0,0,-1,1945,645,0,0
728,379,0,0,0,0,0,0,0,0,0,-1,1952,645,0,0
735,379,0,0,0,0,0,0,0,0,0,-1,1959,645,0,0
742,379,0,0,0,0,0,0,0,0,0,-1,1966,645,0,0
749,379,0,0,0,0,0,0,0,0,0,-1,1973,645,0,0
756,379,0,0,0,0,0,0,0,0,0,-1,1980,645,0,0
763,379,0,0,0,0,0,0,0,0,0,-1,1987,645,0,0
770,379,0,0,0,0,0,0,0,0,0,-1,1994,645,0,0
777,379,0,0,0,0,0,0,0,0,0,-1,2001,645,0,0
784,379,0,0,0,0,0,0,0,0,0,-1,2008,645,0,0
791,379,0,0,0,0,0,0,0,0,0,-1,2015,645,0,0
798,379,0,0,0,0,0,0,0,0,0,-1,2022,645,0,0
805,379,0,0,0,0,0,0,0,0,0,-1,2029,645,0,0
812,379,0,0,0,0,0,0,0,0,0,-1,2036,645,0,0
-700,372,0,0,0,0,0,0,0,0,0,-1,524,652,0,0
-693,372,0,0,0,0,0,0,0,0,0,-1,531,652,0,0
-686,372,0,0,0,0,0,0,0,0,0,-1,538,652,0,0
-679,372,0,0,0,0,0,0,0,0,0,-1,545,652,0,0
-672,372,0,0,0,0,0,0,0,0,0,-1,552,652,0,0
-665,372,0,0,0,0,0,0,0,0,0,-1,559,652,0,0
-658,372,0,0,0,0,0,0,0,0,0,-1,566,652,0,0
-651,372,0,0,0,0,0,0,0,0,0,-1,573,652,0,0
-644,372,0,0,0,0,0,0,0,0,0,-1,580,652,0,0
-637,372,0,0,0,0,0,0,0,0,0,-1,587,652,0,0
-630,372,0,0,0,0,0,0,0,0,0,-1,594,652,0,0
-623,372,0,0,0,0,0,0,0,0,0,-1,601,652,0,0
-616,372,0,0,0,0,0,0,0,0,0,-1,608,652,0,0
-609,372,0,0,0,0,0,0,0,0,0,-1,615,652,0,0
-602,372,0,0,0,0,0,0,0,0,0,-1,622,652,0,0
-595,372,0,0,0,0,0,0,0,0,0,-1,629,652,0,0
-588,372,0,0,0,0,0,0,0,0,0,-1,636,652,0,0
-581,372,0,0,0,0,0,0,0,0,0,-1,643,652,0,0
-574,372,0,0,0,0,0,0,0,0,0,-1,650,652,0,0
-567,372,-7.93744,0.73407,0,0,0,0,0,0,0,-1,657,652,-7.93741,-0.734076
-560,372,-8.78552,-0.158203,0,0,0,0,0,0,0,-1,664,652,-8.78552,0.158216
-553,372,-7.95551,1.61694,0,0,0,0,0,0,0,-1,671,652,-7.95552,-1.61697
-546,372,-4.2403,-3.75372,0,0,0,0,0,0,0,-1,678,652,-4.24028,3.75369
-539,372,-7.92285,-0.0650024,0,0,0,0,0,0,0,-1,685,652,-7.92287,0.0649772
-532,372,-8.59589,-0.419556,0,0,0,0,0,0,0,-1,692,652,-8.59591,0.419539
-525,372,-8.03674,-1.36804,0,0,0,0,0,0,0,-1,699,652,-8.03676,1.36806
-518,372,-10.3901,-3.59668,0,0,0,0,0,0,0,-1,706,652,-10.3901,3.59669
-511,372,-10.3594,-4.17627,-0.000316418,0.00487029,-0.00256611,0.00592528,-0.00137141,-1.18074,0.00447788,0.0294952,713,652,-10.3594,4.17629
-504,372,-10.3741,-4.60651,0.000100315,0.00378645,-0.00198631,0.00465305,-0.000766288,-1.1594,0.00338649,0.0150828,720,652,-10.3741,4.60649
-497,372,-10.3494,-5.12323,0.000434327,0.00291518,-0.001574,0.00367878,-0.000329277,-1.11911,0.00256932,0.0111918,727,652,-10.3495,5.1232
-490,372,-10.3744,-5.60754,0.000745159,0.00223525,-0.00132899,0.00301379,-3.33792e-05,-1.04087,0.00202041,0.0121308,734,652,-10.3744,5.60753
-483,372,-10.392,-6.07813,0.00106056,0.00172886,-0.00119141,0.00263209,0.000157322,-0.922118,0.00170471,0.0119605,741,652,-10.3919,6.07812
-476,372,-10.386,-6.54437,0.00146111,0.00132382,-0.00113976,0.00253429,0.000250635,-0.75532,0.00161249,0.013229,748,652,-10.3861,6.54439
-469,372,-10.4258,-7.01263,0.00184622,0.00117837,-0.00122098,0.00277811,0.000246483,-0.651918,0.00177563,0.0105413,755,652,-10.4259,7.01263
-462,372,-10.449,-7.52301,0.00212174,0.00100213,-0.00126206,0.00294258,0.000181289,-0.576654,0.00190417,0.00956162,762,652,-10.449,7.523
-455,372,-10.468,-8.00818,0.00209241,0.000465469,-0.000900208,0.00249224,6.56347e-05,-0.417985,0.00164006,0.00997268,769,652,-10.468,8.0082
-448,372,-10.4557,-8.49072,0.00208318,0.000157323,-0.0005862,0.00224758,-7.07339e-06,-0.273421,0.00150075,0.0117887,776,652,-10.4557,8.49072
-441,372,-10.393,-9.03815,0,0,0,0,0,0,0,-1,783,652,-10.393,9.03812
-434,372,-9.86865,-9.68494,0,0,0,0,0,0,0,-1,790,652,-9.86863,9.68492
-427,372,-4.54248,-3.56268,0,0,0,0,0,0,0,-1,797,652,-4.54247,3.56266
-420,372,-4.66168,-2.93597,0,0,0,0,0,0,0,-1,804,652,-4.66166,2.93599
-413,372,-4.74762,-3.29541,0,0,0,0,0,0,0,-1,811,652,-4.74763,3.29542
-406,372,-0.885437,-0.583923,0,0,0,0,0,0,0,-1,818,652,-0.885437,0.5839
-399,372,-3.97357,-0.825012,0,0,0,0,0,0,0,-1,825,652,-3.97359,0.825037
-392,372,-7.64337,0.173035,0,0,0,0,0,0,0,-1,832,652,-7.64337,-0.173019
-385,372,-6.48871,-0.0271606,0,0,0,0,0,0,0,-1,839,652,-6.48874,0.0271353
-378,372,-5.33044,-0.242432,0,0,0,0,0,0,0,-1,846,652,-5.33042,0.242457
-371,372,-4.40802,-0.495667,0,0,0,0,0,0,0,-1,853,652,-4.40802,0.495661
-364,372,0,0,0,0,0,0,0,0,0,-1,860,652,0,0
-357,372,0,0,0,0,0,0,0,0,0,-1,867,652,0,0
-350,372,0,0,0,0,0,0,0,0,0,-1,874,652,0,0
-343,372,0,0,0,0,0,0,0,0,0,-1,881,652,0,0
-336,372,0,0,0,0,0,0,0,0,0,-1,888,652,0,0
-329,372,0,0,0,0,0,0,0,0,0,-1,895,652,0,0
-322,372,0,0,0,0,0,0,0,0,0,-1,902,652,0,0
-315,372,0,0,0,0,0,0,0,0,0,-1,909,652,0,0
-308,372,0,0,0,0,0,0,0,0,0,-1,916,652,0,0
-301,372,0,0,0,0,0,0,0,0,0,-1,923,652,0,0
-294,372,0,0,0,0,0,0,0,0,0,-1,930,652,0,0
-287,372,0,0,0,0,0,0,0,0,0,-1,937,652,0,0
-280,372,0,0,0,0,0,0,0,0,0,-1,944,652,0,0
-273,372,0,0,0,0,0,0,0,0,0,-1,951,652,0,0
-266,372,0,0,0,0,0,0,0,0,0,-1,958,652,0,0
-259,372,0,0,0,0,0,0,0,0,0,-1,965,652,0,0
-252,372,0,0,0,0,0,0,0,0,0,-1,972,652,0,0
-245,372,0,0,0,0,0,0,0,0,0,-1,979,652,0,0
-238,372,0,0,0,0,0,0,0,0,0,-1,986,652,0,0
-231,372,0,0,0,0,0,0,0,0,0,-1,993,652,0,0
-224,372,0,0,0,0,0,0,0,0,0,-1,1000,652,0,0
-217,372,0,0,0,0,0,0,0,0,0,-1,1007,652,0,0
-210,372,0,0,0,0,0,0,0,0,0,-1,1014,652,0,0
-203,372,0,0,0,0,0,0,0,0,0,-1,1021,652,0,0
-196,372,0,0,0,0,0,0,0,0,0,-1,1028,652,0,0
-189,372,0,0,0,0,0,0,0,0,0,-1,1035,652,0,0
-182,372,0,0,0,0,0,0,0,0,0,-1,1042,652,0,0
-175,372,0,0,0,0,0,0,0,0,0,-1,1049,652,0,0
-168,372,0,0,0,0,0,0,0,0,0,-1,1056,652,0,0
-161,372,0,0,0,0,0,0,0,0,0,-1,1063,652,0,0
-154,372,0,0,0,0,0,0,0,0,0,-1,1070,652,0,0
-147,372,0,0,0,0,0,0,0,0,0,-1,1077,652,0,0
-140,372,0,0,0,0,0,0,0,0,0,-1,1084,652,0,0
-133,372,0,0,0,0,0,0,0,0,0,-1,1091,652,0,0
-126,372,0,0,0,0,0,0,0,0,0,-1,1098,652,0,0
-119,372,0,0,0,0,0,0,0,0,0,-1,1105,652,0,0
-112,372,0,0,0,0,0,0,0,0,0,-1,1112,652,0,0
-105,372,0,0,0,0,0,0,0,0,0,-1,1119,652,0,0
-98,372,0,0,0,0,0,0,0,0,0,-1,1126,652,0,0
-91,372,0,0,0,0,0,0,0,0,0,-1,1133,652,0,0
-84,372,0,0,0,0,0,0,0,0,0,-1,1140,652,0,0
-77,372,0,0,0,0,0,0,0,0,0,-1,1147,652,0,0
-70,372,0,0,0,0,0,0,0,0,0,-1,1154,652,0,0
-63,372,0,0,0,0,0,0,0,0,0,-1,1161,652,0,0
-56,372,0,0,0,0,0,0,0,0,0,-1,1168,652,0,0
-49,372,0,0,0,0,0,0,0,0,0,-1,1175,652,0,0
-42,372,0,0,0,0,0,0,0,0,0,-1,1182,652,0,0
-35,372,0,0,0,0,0,0,0,0,0,-1,1189,652,0,0
-28,372,0,0,0,0,0,0,0,0,0,-1,1196,652,0,0
-21,372,0,0,0,0,0,0,0,0,0,-1,1203,652,0,0
-14,372,0,0,0,0,0,0,0,0,0,-1,1210,652,0,0
-7,372,0,0,0,0,0,0,0,0,0,-1,1217,652,0,0
0,372,0,0,0,0,0,0,0,0,0,-1,1224,652,0,0
7,372,0,0,0,0,0,0,0,0,0,-1,1231,652,0,0
14,372,0,0,0,0,0,0,0,0,0,-1,1238,652,0,0
21,372,0,0,0,0,0,0,0,0,0,-1,1245,652,0,0
28,372,0,0,0,0,0,0,0,0,0,-1,1252,652,0,0
35,372,0,0,0,0,0,0,0,0,0,-1,1259,652,0,0
42,372,0,0,0,0,0,0,0,0,0,-1,1266,652,0,0
49,372,0,0,0,0,0,0,0,0,0,-1,1273,652,0,0
56,372,0,0,0,0,0,0,0,0,0,-1,1280,652,0,0
63,372,0,0,0,0,0,0,0,0,0,-1,1287,652,0,0
70,372,0,0,0,0,0,0,0,0,0,-1,1294,652,0,0
77,372,0,0,0,0,0,0,0,0,0,-1,1301,652,0,0
84,372,0,0,0,0,0,0,0,0,0,-1,1308,652,0,0
91,372,0,0,0,0,0,0,0,0,0,-1,1315,652,0,0
98,372,0,0,0,0,0,0,0,0,0,-1,1322,652,0,0
105,372,0,0,0,0,0,0,0,0,0,-1,1329,652,0,0
112,372,0,0,0,0,0,0,0,0,0,-1,1336,652,0,0
119,372,0,0,0,0,0,0,0,0,0,-1,1343,652,0,0
126,372,0,0,0,0,0,0,0,0,0,-1,1350,652,0,0
133,372,0,0,0,0,0,0,0,0,0,-1,1357,652,0,0
140,372,0,0,0,0,0,0,0,0,0,-1,1364,652,0,0
147,372,0,0,0,0,0,0,0,0,0,-1,1371,652,0,0
154,372,0,0,0,0,0,0,0,0,0,-1,1378,652,0,0
161,372,0,0,0,0,0,0,0,0,0,-1,1385,652,0,0
168,372,0,0,0,0,0,0,0,0,0,-1,1392,652,0,0
175,372,0,0,0,0,0,0,0,0,0,-1,1399,652,0,0
182,372,0,0,0,0,0,0,0,0,0,-1,1406,652,0,0
189,372,0,0,0,0,0,0,0,0,0,-1,1413,652,0,0
196,372,0,0,0,0,0,0,0,0,0,-1,1420,652,0,0
203,372,0,0,0,0,0,0,0,0,0,-1,1427,652,0,0
210,372,0,0,0,0,0,0,0,0,0,-1,1434,652,0,0
217,372,0,0,0,0,0,0,0,0,0,-1,1441,652,0,0
224,372,0,0,0,0,0,0,0,0,0,-1,1448,652,0,0
231,372,0,0,0,0,0,0,0,0,0,-1,1455,652,0,0
238,372,0,0,0,0,0,0,0,0,0,-1,1462,652,0,0
245,372,0,0,0,0,0,0,0,0,0,-1,1469,652,0,0
252,372,0,0,0,0,0,0,0,0,0,-1,1476,652,0,0
259,372,0,0,0,0,0,0,0,0,0,-1,1483,652,0,0
266,372,0,0,0,0,0,0,0,0,0,-1,1490,652,0,0
273,372,0,0,0,0,0,0,0,0,0,-1,1497,652,0,0
280,372,0,0,0,0,0,0,0,0,0,-1,1504,652,0,0
287,372,0,0,0,0,0,0,0,0,0,-1,1511,652,0,0
294,372,0,0,0,0,0,0,0,0,0,-1,1518,652,0,0
301,372,0,0,0,0,0,0,0,0,0,-1,1525,652,0,0
308,372,0,0,0,0,0,0,0,0,0,-1,1532,652,0,0
315,372,0,0,0,0,0,0,0,0,0,-1,1539,652,0,0
322,372,0,0,0,0,0,0,0,0,0,-1,1546,652,0,0
329,372,0,0,0,0,0,0,0,0,0,-1,1553,652,0,0
336,372,0,0,0,0,0,0,0,0,0,-1,1560,652,0,0
343,372,0,0,0,0,0,0,0,0,0,-1,1567,652,0,0
350,372,0,0,0,0,0,0,0,0,0,-1,1574,652,0,0
357,372,0,0,0,0,0,0,0,0,0,-1,1581,652,0,0
364,372,0,0,0,0,0,0,0,0,0,-1,1588,652,0,0
371,372,0,0,0,0,0,0,0,0,0,-1,1595,652,0,0
378,372,0,0,0,0,0,0,0,0,0,-1,1602,652,0,0
385,372,0,0,0,0,0,0,0,0,0,-1,1609,652,0,0
392,372,0,0,0,0,0,0,0,0,0,-1,1616,652,0,0
399,372,0,0,0,0,0,0,0,0,0,-1,1623,652,0,0
406,372,0,0,0,0,0,0,0,0,0,-1,1630,652,0,0
413,372,0,0,0,0,0,0,0,0,0,-1,1637,652,0,0
420,372,0,0,0,0,0,0,0,0,0,-1,1644,652,0,0
427,372,0,0,0,0,0,0,0,0,0,-1,1651,652,0,0
434,372,0,0,0,0,0,0,0,0,0,-1,1658,652,0,0
441,372,0,0,0,0,0,0,0,0,0,-1,1665,652,0,0
448,372,0,0,0,0,0,0,0,0,0,-1,1672,652,0,0
455,372,0,0,0,0,0,0,0,0,0,-1,1679,652,0,0
462,372,0,0,0,0,0,0,0,0,0,-1,1686,652,0,0
469,372,0,0,0,0,0,0,0,0,0,-1,1693,652,0,0
476,372,0,0,0,0,0,0,0,0,0,-1,1700,652,0,0
483,372,8.74182,1.53125,0,0,0,0,0,0,0,-1,1707,652,8.74186,-1.53126
490,372,9.78455,1.67096,0,0,0,0,0,0,0,-1,1714,652,9.7846,-1.67093
497,372,9.97644,1.46069,0,0,0,0,0,0,0,-1,1721,652,9.97647,-1.46071
504,372,10.1216,1.28375,0,0,0,0,0,0,0,-1,1728,652,10.1216,-1.28376
511,372,11.7367,-0.0272217,0,0,0,0,0,0,0,-1,1735,652,11.7367,0.0272326
518,372,12.0657,-0.0995483,0,0,0,0,0,0,0,-1,1742,652,12.0657,0.0995285
525,372,12.3947,-0.171814,0,0,0,0,0,0,0,-1,1749,652,12.3946,0.171824
532,372,9.36597,1.72034,0,0,0,0,0,0,0,-1,1756,652,9.36597,-1.72036
539,372,7.82886,-0.0865479,0,0,0,0,0,0,0,-1,1763,652,7.82882,0.0865771
546,372,10.953,-0.187195,0,0,0,0,0,0,0,-1,1770,652,10.953,0.187181
553,372,14.1201,-4.83234,0,0,0,0,0,0,0,-1,1777,652,14.1201,4.83235
560,372,19.714,-7.8703,0,0,0,0,0,0,0,-1,1784,652,19.7139,7.87033
567,372,19.5505,-7.24011,0.00895349,0.000344293,0.00110034,0.0090919,0.000205885,0.12513,0.00599382,0.0478839,1791,652,19.5505,7.24009
574,372,19.6273,-6.76367,0.00715482,0.000335328,0.00104197,0.00731048,0.000179675,0.148287,0.00481488,0.0272228,1798,652,19.6274,6.76369
581,372,19.5979,-6.34009,0.00570798,0.000479028,0.00105242,0.00591185,0.000275157,0.191345,0.00385279,0.0179682,1805,652,19.5979,6.34008
588,372,19.557,-5.84235,0.00454339,0.000658196,0.00109785,0.00483215,0.000369436,0.257198,0.00310562,0.0158654,1812,652,19.5571,5.84237
595,372,19.5406,-5.32123,0.00367495,0.00093695,0.00117721,0.00411149,0.000500405,0.355109,0.00259036,0.0141484,1819,652,19.5406,5.32121
602,372,19.5438,-4.82831,0.00311285,0.00141464,0.00141418,0.00391325,0.00061423,0.515034,0.00243011,0.0153,1826,652,19.5438,4.8283
609,372,19.4862,-4.33801,0.0026217,0.00196742,0.00168431,0.00401034,0.000578775,0.689479,0.00250304,0.01502,1833,652,19.4863,4.33802
616,372,19.4692,-3.83533,0.00210164,0.00243432,0.00180373,0.00407936,0.000456595,0.831378,0.00258087,0.0140851,1840,652,19.4692,3.83534
623,372,19.489,-3.30017,0.00174132,0.00294792,0.00194362,0.00437972,0.000309517,0.935884,0.00282231,0.0126047,1847,652,19.489,3.30016
630,372,19.4847,-2.77582,0.00122478,0.0034276,0.00197321,0.00458598,6.63998e-05,1.03995,0.00303543,0.0169839,1854,652,19.4847,2.77584
637,372,19.4972,-2.27118,0.000536802,0.00384547,0.00185125,0.00467387,-0.000291594,1.15004,0.00321752,0.0234325,1861,652,19.4972,2.27115
644,372,19.5852,-1.58344,-0.000318521,0.00430075,0.00170934,0.00486449,-0.000882253,1.25223,0.00357356,0.044064,1868,652,19.5852,1.58345
651,372,19.9673,-0.800537,0,0,0,0,0,0,0,-1,1875,652,19.9672,0.800518
658,372,14.157,0.280273,0,0,0,0,0,0,0,-1,1882,652,14.157,-0.280264
665,372,15.2286,0.463867,0,0,0,0,0,0,0,-1,1889,652,15.2287,-0.463854
672,372,9.34106,1.48444,0,0,0,0,0,0,0,-1,1896,652,9.34109,-1.48444
679,372,10.7308,2.32391,0,0,0,0,0,0,0,-1,1903,652,10.7309,-2.3239
686,372,11.6295,2.52997,0,0,0,0,0,0,0,-1,1910,652,11.6296,-2.52996
693,372,0,0,0,0,0,0,0,0,0,-1,1917,652,0,0
700,372,0,0,0,0,0,0,0,0,0,-1,1924,652,0,0
707,372,0,0,0,0,0,0,0,0,0,-1,1931,652,0,0
714,372,0,0,0,0,0,0,0,0,0,-1,1938,652,0,0
721,372,0,0,0,0,0,0,0,0,0,-1,1945,652,0,0
728,372,0,0,0,0,0,0,0,0,0,-1,1952,652,0,0
735,372,0,0,0,0,0,0,0,0,0,-1,1959,652,0,0
742,372,0,0,0,0,0,0,0,0,0,-1,1966,652,0,0
749,372,0,0,0,0,0,0,0,0,0,-1,1973,652,0,0
756,372,0,0,0,0,0,0,0,0,0,-1,1980,652,0,0
763,372,0,0,0,0,0,0,0,0,0,-1,1987,652,0,0
770,372,0,0,0,0,0,0,0,0,0,-1,1994,652,0,0
777,372,0,0,0,0,0,0,0,0,0,-1,2001,652,0,0
784,372,0,0,0,0,0,0,0,0,0,-1,2008,652,0,0
791,372,0,0,0,0,0,0,0,0,0,-1,2015,652,0,0
798,372,0,0,0,0,0,0,0,0,0,-1,2022,652,0,0
805,372,0,0,0,0,0,0,0,0,0,-1,2029,652,0,0
812,372,0,0,0,0,0,0,0,0,0,-1,2036,652,0,0
-700,365,0,0,0,0,0,0,0,0,0,-1,524,659,0,0
-693,365,0,0,0,0,0,0,0,0,0,-1,531,659,0,0
-686,365,0,0,0,0,0,0,0,0,0,-1,538,659,0,0
-679,365,0,0,0,0,0,0,0,0,0,-1,545,659,0,0
-672,365,0,0,0,0,0,0,0,0,0,-1,552,659,0,0
-665,365,0,0,0,0,0,0,0,0,0,-1,559,659,0,0
-658,365,0,0,0,0,0,0,0,0,0,-1,566,659,0,0
-651,365,0,0,0,0,0,0,0,0,0,-1,573,659,0,0
-644,365,0,0,0,0,0,0,0,0,0,-1,580,659,0,0
-637,365,0,0,0,0,0,0,0,0,0,-1,587,659,0,0
-630,365,0,0,0,0,0,0,0,0,0,-1,594,659,0,0
-623,365,0,0,0,0,0,0,0,0,0,-1,601,659,0,0
-616,365,0,0,0,0,0,0,0,0,0,-1,608,659,0,0
-609,365,0,0,0,0,0,0,0,0,0,-1,615,659,0,0
-602,365,0,0,0,0,0,0,0,0,0,-1,622,659,0,0
-595,365,0,0,0,0,0,0,0,0,0,-1,629,659,0,0
-588,365,0,0,0,0,0,0,0,0,0,-1,636,659,0,0
-581,365,0,0,0,0,0,0,0,0,0,-1,643,659,0,0
-574,365,-7.69281,1.59015,0,0,0,0,0,0,0,-1,650,659,-7.69282,-1.59018
-567,365,-8.2583,1.72638,0,0,0,0,0,0,0,-1,657,659,-8.25827,-1.72637
-560,365,-7.17767,0.275757,0,0,0,0,0,0,0,-1,664,659,-7.17768,-0.27577
-553,365,-10.0349,-0.169617,0,0,0,0,0,0,0,-1,671,659,-10.0349,0.169593
-546,365,-10.6303,-1.51642,0,0,0,0,0,0,0,-1,678,659,-10.6303,1.5164
-539,365,-8.38599,1.52936,0,0,0,0,0,0,0,-1,685,659,-8.38598,-1.52935
-532,365,-8.52863,0.166504,0,0,0,0,0,0,0,-1,692,659,-8.52863,-0.166501
-525,365,-9.28229,-2.62726,0,0,0,0,0,0,0,-1,699,659,-9.28227,2.62724
-518,365,-10.8744,-3.54834,0,0,0,0,0,0,0,-1,706,659,-10.8744,3.54836
-511,365,-10.857,-4.11127,-0.00040114,0.0037215,-0.00183517,0.00442005,-0.00109969,-1.20708,0.00337355,0.0283201,713,659,-10.857,4.11127
-504,365,-10.8365,-4.59985,0.000133466,0.00289872,-0.00148348,0.00354399,-0.000511804,-1.16051,0.00255044,0.0118395,720,659,-10.8365,4.59988
-497,365,-10.8361,-5.09784,0.000594663,0.0022686,-0.00126709,0.00295019,-8.69327e-05,-1.07727,0.0019964,0.0124218,727,659,-10.836,5.09785
-490,365,-10.86,-5.59668,0.000970508,0.001783,-0.00115864,0.00260455,0.000148962,-0.954014,0.0016889,0.0139399,734,659,-10.86,5.59665
-483,365,-10.8945,-6.06647,0.00134167,0.00145693,-0.00112908,0.00252985,0.00026875,-0.810898,0.0016045,0.0134378,741,659,-10.8945,6.06646
-476,365,-10.8582,-6.53845,0.00178403,0.00124171,-0.00118741,0.00273085,0.000294887,-0.673141,0.00173066,0.01554,748,659,-10.8582,6.53843
-469,365,-10.8975,-7.02808,0.00220442,0.00124755,-0.00136102,0.00316865,0.000283321,-0.616381,0.00202461,0.0147981,755,659,-10.8974,7.02806
-462,365,-10.9415,-7.51404,0.00253938,0.00125277,-0.00150511,0.0035329,0.00025925,-0.583441,0.00227379,0.0144435,762,659,-10.9415,7.51403
-455,365,-10.9446,-7.97333,0.00259768,0.000874799,-0.00123892,0.00324521,0.000227265,-0.481611,0.00209184,0.0163144,769,659,-10.9447,7.97331
-448,365,-10.8523,-8.52838,0.00268182,0.000888025,-0.00107136,0.00318215,0.000387695,-0.436904,0.00200473,0.0323533,776,659,-10.8523,8.52838
-441,365,-10.6479,-9.18262,0,0,0,0,0,0,0,-1,783,659,-10.6479,9.18263
-434,365,-5.45056,-3.98041,0,0,0,0,0,0,0,-1,790,659,-5.45055,3.98042
-427,365,-5.05377,-4.74689,0,0,0,0,0,0,0,-1,797,659,-5.05376,4.7469
-420,365,-4.58813,-3.16376,0,0,0,0,0,0,0,-1,804,659,-4.58816,3.16374
-413,365,0.141357,0.672729,0,0,0,0,0,0,0,-1,811,659,0.141365,-0.672714
-406,365,-1.75067,-0.934448,0,0,0,0,0,0,0,-1,818,659,-1.7507,0.934424
-399,365,-4.10242,-1.25439,0,0,0,0,0,0,0,-1,825,659,-4.10244,1.25438
-392,365,-7.46545,-0.779724,0,0,0,0,0,0,0,-1,832,659,-7.46543,0.779744
-385,365,-6.27875,-0.887573,0,0,0,0,0,0,0,-1,839,659,-6.27874,0.887545
-378,365,-5.34503,-0.263306,0,0,0,0,0,0,0,-1,846,659,-5.34504,0.263275
-371,365,0,0,0,0,0,0,0,0,0,-1,853,659,0,0
-364,365,0,0,0,0,0,0,0,0,0,-1,860,659,0,0
-357,365,0,0,0,0,0,0,0,0,0,-1,867,659,0,0
-350,365,0,0,0,0,0,0,0,0,0,-1,874,659,0,0
-343,365,0,0,0,0,0,0,0,0,0,-1,881,659,0,0
-336,365,0,0,0,0,0,0,0,0,0,-1,888,659,0,0
-329,365,0,0,0,0,0,0,0,0,0,-1,895,659,0,0
-322,365,0,0,0,0,0,0,0,0,0,-1,902,659,0,0
-315,365,0,0,0,0,0,0,0,0,0,-1,909,659,0,0
-308,365,0,0,0,0,0,0,0,0,0,-1,916,659,0,0
-301,365,0,0,0,0,0,0,0,0,0,-1,923,659,0,0
-294,365,0,0,0,0,0,0,0,0,0,-1,930,659,0,0
-287,365,0,0,0,0,0,0,0,0,0,-1,937,659,0,0
-280,365,0,0,0,0,0,0,0,0,0,-1,944,659,0,0
-273,365,0,0,0,0,0,0,0,0,0,-1,951,659,0,0
-266,365,0,0,0,0,0,0,0,0,0,-1,958,659,0,0
-259,365,0,0,0,0,0,0,0,0,0,-1,965,659,0,0
-252,365,0,0,0,0,0,0,0,0,0,-1,972,659,0,0
-245,365,0,0,0,0,0,0,0,0,0,-1,979,659,0,0
-238,365,0,0,0,0,0,0,0,0,0,-1,986,659,0,0
-231,365,0,0,0,0,0,0,0,0,0,-1,993,659,0,0
-224,365,0,0,0,0,0,0,0,0,0,-1,1000,659,0,0
-217,365,0,0,0,0,0,0,0,0,0,-1,1007,659,0,0
-210,365,0,0,0,0,0,0,0,0,0,-1,1014,659,0,0
-203,365,0,0,0,0,0,0,0,0,0,-1,1021,659,0,0
-196,365,0,0,0,0,0,0,0,0,0,-1,1028,659,0,0
-189,365,0,0,0,0,0,0,0,0,0,-1,1035,659,0,0
-182,365,0,0,0,0,0,0,0,0,0,-1,1042,659,0,0
-175,365,0,0,0,0,0,0,0,0,0,-1,1049,659,0,0
-168,365,0,0,0,0,0,0,0,0,0,-1,1056,659,0,0
-161,365,0,0,0,0,0,0,0,0,0,-1,1063,659,0,0
-154,365,0,0,0,0,0,0,0,0,0,-1,1070,659,0,0
-147,365,0,0,0,0,0,0,0,0,0,-1,1077,659,0,0
-140,365,0,0,0,0,0,0,0,0,0,-1,1084,659,0,0
-133,365,0,0,0,0,0,0,0,0,0,-1,1091,659,0,0
-126,365,0,0,0,0,0,0,0,0,0,-1,1098,659,0,0
-119,365,0,0,0,0,0,0,0,0,0,-1,1105,659,0,0
-112,365,0,0,0,0,0,0,0,0,0,-1,1112,659,0,0
-105,365,0,0,0,0,0,0,0,0,0,-1,1119,659,0,0
-98,365,0,0,0,0,0,0,0,0,0,-1,1126,659,0,0
-91,365,0,0,0,0,0,0,0,0,0,-1,1133,659,0,0
-84,365,0,0,0,0,0,0,0,0,0,-1,1140,659,0,0
-77,365,0,0,0,0,0,0,0,0,0,-1,1147,659,0,0
-70,365,0,0,0,0,0,0,0,0,0,-1,1154,659,0,0
-63,365,0,0,0,0,0,0,0,0,0,-1,1161,659,0,0
-56,365,0,0,0,0,0,0,0,0,0,-1,1168,659,0,0
-49,365,0,0,0,0,0,0,0,0,0,-1,1175,659,0,0
-42,365,0,0,0,0,0,0,0,0,0,-1,1182,659,0,0
-35,365,0,0,0,0,0,0,0,0,0,-1,1189,659,0,0
-28,365,0,0,0,0,0,0,0,0,0,-1,1196,659,0,0
-21,365,0,0,0,0,0,0,0,0,0,-1,1203,659,0,0
-14,365,0,0,0,0,0,0,0,0,0,-1,1210,659,0,0
-7,365,0,0,0,0,0,0,0,0,0,-1,1217,659,0,0
0,365,0,0,0,0,0,0,0,0,0,-1,1224,659,0,0
7,365,0,0,0,0,0,0,0,0,0,-1,1231,659,0,0
14,365,0,0,0,0,0,0,0,0,0,-1,1238,659,0,0
21,365,0,0,0,0,0,0,0,0,0,-1,1245,659,0,0
28,365,0,0,0,0,0,0,0,0,0,-1,1252,659,0,0
35,365,0,0,0,0,0,0,0,0,0,-1,1259,659,0,0
42,365,0,0,0,0,0,0,0,0,0,-1,1266,659,0,0
49,365,0,0,0,0,0,0,0,0,0,-1,1273,659,0,0
56,365,0,0,0,0,0,0,0,0,0,-1,1280,659,0,0
63,365,0,0,0,0,0,0,0,0,0,-1,1287,659,0,0
70,365,0,0,0,0,0,0,0,0,0,-1,1294,659,0,0
77,365,0,0,0,0,0,0,0,0,0,-1,1301,659,0,0
84,365,0,0,0,0,0,0,0,0,0,-1,1308,659,0,0
91,365,0,0,0,0,0,0,0,0,0,-1,1315,659,0,0
98,365,0,0,0,0,0,0,0,0,0,-1,1322,659,0,0
105,365,0,0,0,0,0,0,0,0,0,-1,1329,659,0,0
112,365,0,0,0,0,0,0,0,0,0,-1,1336,659,0,0
119,365,0,0,0,0,0,0,0,0,0,-1,1343,659,0,0
126,365,0,0,0,0,0,0,0,0,0,-1,1350,659,0,0
133,365,0,0,0,0,0,0,0,0,0,-1,1357,659,0,0
140,365,0,0,0,0,0,0,0,0,0,-1,1364,659,0,0
147,365,0,0,0,0,0,0,0,0,0,-1,1371,659,0,0
154,365,0,0,0,0,0,0,0,0,0,-1,1378,659,0,0
161,365,0,0,0,0,0,0,0,0,0,-1,1385,659,0,0
168,365,0,0,0,0,0,0,0,0,0,-1,1392,659,0,0
175,365,0,0,0,0,0,0,0,0,0,-1,1399,659,0,0
182,365,0,0,0,0,0,0,0,0,0,-1,1406,659,0,0
189,365,0,0,0,0,0,0,0,0,0,-1,1413,659,0,0
196,365,0,0,0,0,0,0,0,0,0,-1,1420,659,0,0
203,365,0,0,0,0,0,0,0,0,0,-1,1427,659,0,0
210,365,0,0,0,0,0,0,0,0,0,-1,1434,659,0,0
217,365,0,0,0,0,0,0,0,0,0,-1,1441,659,0,0
224,365,0,0,0,0,0,0,0,0,0,-1,1448,659,0,0
231,365,0,0,0,0,0,0,0,0,0,-1,1455,659,0,0
238,365,0,0,0,0,0,0,0,0,0,-1,1462,659,0,0
245,365,0,0,0,0,0,0,0,0,0,-1,1469,659,0,0
252,365,0,0,0,0,0,0,0,0,0,-1,1476,659,0,0
259,365,0,0,0,0,0,0,0,0,0,-1,1483,659,0,0
266,365,0,0,0,0,0,0,0,0,0,-1,1490,659,0,0
273,365,0,0,0,0,0,0,0,0,0,-1,1497,659,0,0
280,365,0,0,0,0,0,0,0,0,0,-1,1504,659,0,0
287,365,0,0,0,0,0,0,0,0,0,-1,1511,659,0,0
294,365,0,0,0,0,0,0,0,0,0,-1,1518,659,0,0
301,365,0,0,0,0,0,0,0,0,0,-1,1525,659,0,0
308,365,0,0,0,0,0,0,0,0,0,-1,1532,659,0,0
315,365,0,0,0,0,0,0,0,0,0,-1,1539,659,0,0
322,365,0,0,0,0,0,0,0,0,0,-1,1546,659,0,0
329,365,0,0,0,0,0,0,0,0,0,-1,1553,659,0,0
336,365,0,0,0,0,0,0,0,0,0,-1,1560,659,0,0
343,365,0,0,0,0,0,0,0,0,0,-1,1567,659,0,0
350,365,0,0,0,0,0,0,0,0,0,-1,1574,659,0,0
357,365,0,0,0,0,0,0,0,0,0,-1,1581,659,0,0
364,365,0,0,0,0,0,0,0,0,0,-1,1588,659,0,0
371,365,0,0,0,0,0,0,0,0,0,-1,1595,659,0,0
378,365,0,0,0,0,0,0,0,0,0,-1,1602,659,0,0
385,365,0,0,0,0,0,0,0,0,0,-1,1609,659,0,0
392,365,0,0,0,0,0,0,0,0,0,-1,1616,659,0,0
399,365,0,0,0,0,0,0,0,0,0,-1,1623,659,0,0
406,365,0,0,0,0,0,0,0,0,0,-1,1630,659,0,0
413,365,0,0,0,0,0,0,0,0,0,-1,1637,659,0,0
420,365,0,0,0,0,0,0,0,0,0,-1,1644,659,0,0
427,365,0,0,0,0,0,0,0,0,0,-1,1651,659,0,0
434,365,0,0,0,0,0,0,0,0,0,-1,1658,659,0,0
441,365,0,0,0,0,0,0,0,0,0,-1,1665,659,0,0
448,365,0,0,0,0,0,0,0,0,0,-1,1672,659,0,0
455,365,0,0,0,0,0,0,0,0,0,-1,1679,659,0,0
462,365,0,0,0,0,0,0,0,0,0,-1,1686,659,0,0
469,365,0,0,0,0,0,0,0,0,0,-1,1693,659,0,0
476,365,0,0,0,0,0,0,0,0,0,-1,1700,659,0,0
483,365,0,0,0,0,0,0,0,0,0,-1,1707,659,0,0
490,365,8.39551,0.471252,0,0,0,0,0,0,0,-1,1714,659,8.39551,-0.471241
497,365,9.89233,1.35394,0,0,0,0,0,0,0,-1,1721,659,9.89237,-1.35396
504,365,10.1414,1.18005,0,0,0,0,0,0,0,-1,1728,659,10.1413,-1.18004
511,365,10.5151,0.993896,0,0,0,0,0,0,0,-1,1735,659,10.5152,-0.993894
518,365,11.2029,0.398132,0,0,0,0,0,0,0,-1,1742,659,11.2029,-0.398136
525,365,15.5748,3.85303,0,0,0,0,0,0,0,-1,1749,659,15.5748,-3.85303
532,365,11.2446,1.00629,0,0,0,0,0,0,0,-1,1756,659,11.2446,-1.00631
539,365,12.6301,1.03204,0,0,0,0,0,0,0,-1,1763,659,12.6302,-1.03204
546,365,11.647,0.84198,0,0,0,0,0,0,0,-1,1770,659,11.6469,-0.841955
553,365,12.028,-0.558899,0,0,0,0,0,0,0,-1,1777,659,12.028,0.558873
560,365,14.5372,-4.55548,0,0,0,0,0,0,0,-1,1784,659,14.5373,4.55547
567,365,20.2783,-7.32086,0,0,0,0,0,0,0,-1,1791,659,20.2783,7.32087
574,365,20.2924,-6.70807,0,0,0,0,0,0,0,-1,1798,659,20.2924,6.70808
581,365,20.0966,-6.26111,0,0,0,0,0,0,0,-1,1805,659,20.0966,6.2611
588,365,20.0088,-5.90985,0.00523345,0.00062923,0.00132936,0.0055897,0.000272974,0.261838,0.00363889,0.0190374,1812,659,20.0088,5.90983
595,365,20.0365,-5.30475,0.00417094,0.000770245,0.00124561,0.00457837,0.000362818,0.316123,0.00293878,0.0126862,1819,659,20.0365,5.30473
602,365,20.0222,-4.78931,0.00346092,0.00112466,0.00133773,0.00406876,0.000516827,0.426489,0.0025577,0.0153306,1826,659,20.0222,4.7893
609,365,19.9777,-4.27643,0.00289193,0.00154434,0.00148864,0.00385216,0.00058411,0.57288,0.00239724,0.0156321,1833,659,19.9777,4.27644
616,365,19.9984,-3.76636,0.00231378,0.00188066,0.0015082,0.00362089,0.000573552,0.714092,0.00224727,0.0161392,1840,659,19.9984,3.76634
623,365,20.0204,-3.27722,0.00181537,0.00224648,0.00153299,0.00357899,0.000482856,0.855245,0.00224244,0.0113849,1847,659,20.0204,3.27724
630,365,19.9884,-2.76849,0.00114959,0.002546,0.00142512,0.00343476,0.000260829,1.01318,0.00220804,0.0158213,1854,659,19.9884,2.76851
637,365,19.9745,-2.26776,0.000293026,0.00272432,0.00113838,0.00317412,-0.00015677,1.1945,0.00217022,0.0216793,1861,659,19.9745,2.26779
644,365,19.9631,-1.74225,-0.000784395,0.00283968,0.000729021,0.00298083,-0.000925548,1.37954,0.00235711,0.0194102,1868,659,19.9631,1.74225
651,365,20.1024,-1.09381,0,0,0,0,0,0,0,-1,1875,659,20.1024,1.09384
658,365,20.1274,-0.516846,0,0,0,0,0,0,0,-1,1882,659,20.1275,0.516864
665,365,14.0961,0.769043,0,0,0,0,0,0,0,-1,1889,659,14.0961,-0.769063
672,365,10.0579,2.15088,0,0,0,0,0,0,0,-1,1896,659,10.0579,-2.15088
679,365,10.9718,2.19208,0,0,0,0,0,0,0,-1,1903,659,10.9718,-2.19211
686,365,12.2134,2.17108,0,0,0,0,0,0,0,-1,1910,659,12.2134,-2.17109
693,365,13.7141,1.98279,0,0,0,0,0,0,0,-1,1917,659,13.7141,-1.98278
700,365,0,0,0,0,0,0,0,0,0,-1,1924,659,0,0
707,365,0,0,0,0,0,0,0,0,0,-1,1931,659,0,0
714,365,0,0,0,0,0,0,0,0,0,-1,1938,659,0,0
721,365,0,0,0,0,0,0,0,0,0,-1,1945,659,0,0
728,365,0,0,0,0,0,0,0,0,0,-1,1952,659,0,0
735,365,0,0,0,0,0,0,0,0,0,-1,1959,659,0,0
742,365,0,0,0,0,0,0,0,0,0,-1,1966,659,0,0
749,365,0,0,0,0,0,0,0,0,0,-1,1973,659,0,0
756,365,0,0,0,0,0,0,0,0,0,-1,1980,659,0,0
763,365,0,0,0,0,0,0,0,0,0,-1,1987,659,0,0
770,365,0,0,0,0,0,0,0,0,0,-1,1994,659,0,0
777,365,0,0,0,0,0,0,0,0,0,-1,2001,659,0,0
784,365,0,0,0,0,0,0,0,0,0,-1,2008,659,0,0
791,365,0,0,0,0,0,0,0,0,0,-1,2015,659,0,0
798,365,0,0,0,0,0,0,0,0,0,-1,2022,659,0,0
805,365,0,0,0,0,0,0,0,0,0,-1,2029,659,0,0
812,365,0,0,0,0,0,0,0,0,0,-1,2036,659,0,0
-700,358,0,0,0,0,0,0,0,0,0,-1,524,666,0,0
-693,358,0,0,0,0,0,0,0,0,0,-1,531,666,0,0
-686,358,0,0,0,0,0,0,0,0,0,-1,538,666,0,0
-679,358,0,0,0,0,0,0,0,0,0,-1,545,666,0,0
-672,358,0,0,0,0,0,0,0,0,0,-1,552,666,0,0
-665,358,0,0,0,0,0,0,0,0,0,-1,559,666,0,0
-658,358,0,0,0,0,0,0,0,0,0,-1,566,666,0,0
-651,358,0,0,0,0,0,0,0,0,0,-1,573,666,0,0
-644,358,0,0,0,0,0,0,0,0,0,-1,580,666,0,0
-637,358,0,0,0,0,0,0,0,0,0,-1,587,666,0,0
-630,358,0,0,0,0,0,0,0,0,0,-1,594,666,0,0
-623,358,0,0,0,0,0,0,0,0,0,-1,601,666,0,0
-616,358,0,0,0,0,0,0,0,0,0,-1,608,666,0,0
-609,358,0,0,0,0,0,0,0,0,0,-1,615,666,0,0
-602,358,0,0,0,0,0,0,0,0,0,-1,622,666,0,0
-595,358,0,0,0,0,0,0,0,0,0,-1,629,666,0,0
-588,358,0,0,0,0,0,0,0,0,0,-1,636,666,0,0
-581,358,-8.31616,1.61993,0,0,0,0,0,0,0,-1,643,666,-8.31614,-1.61993
-574,358,-8.22406,1.75385,0,0,0,0,0,0,0,-1,650,666,-8.22408,-1.75383
-567,358,-8.14215,1.91577,0,0,0,0,0,0,0,-1,657,666,-8.14214,-1.91579
-560,358,-10.6086,2.18872,0,0,0,0,0,0,0,-1,664,666,-10.6086,-2.18873
-553,358,-13.6596,3.7074,0,0,0,0,0,0,0,-1,671,666,-13.6596,-3.70737
-546,358,-13.3743,-0.185059,0,0,0,0,0,0,0,-1,678,666,-13.3743,0.185037
-539,358,-9.43884,-2.04785,0,0,0,0,0,0,0,-1,685,666,-9.43884,2.04785
-532,358,-11.4675,-2.07556,0,0,0,0,0,0,0,-1,692,666,-11.4675,2.07554
-525,358,-11.2487,-3.22437,0,0,0,0,0,0,0,-1,699,666,-11.2487,3.22437
-518,358,-11.3513,-3.6167,0,0,0,0,0,0,0,-1,706,666,-11.3513,3.61669
-511,358,-11.3357,-4.10016,-0.000431937,0.0027666,-0.00115814,0.0031419,-0.000807243,-1.25742,0.00240919,0.0155984,713,666,-11.3357,4.10015
-504,358,-11.3309,-4.58295,0.000188937,0.00217548,-0.000991225,0.00258546,-0.000221043,-1.17861,0.00180185,0.0116453,720,666,-11.3309,4.58293
-497,358,-11.324,-5.0863,0.000746407,0.00176582,-0.000945936,0.00233064,0.000181593,-1.03252,0.0014969,0.011547,727,666,-11.324,5.08632
-490,358,-11.339,-5.56421,0.00118793,0.00145736,-0.000965977,0.00229797,0.000347319,-0.854683,0.00143033,0.0113066,734,666,-11.339,5.56419
-483,358,-11.3723,-6.02954,0.00162314,0.00130665,-0.00105966,0.00253631,0.000393485,-0.711277,0.00157617,0.0111007,741,666,-11.3722,6.02952
-476,358,-11.3466,-6.49255,0.00211197,0.00129984,-0.0012666,0.003036,0.000375807,-0.630276,0.00191109,0.0131079,748,666,-11.3465,6.49258
-469,358,-11.3859,-6.99713,0.00258607,0.00144906,-0.0015742,0.00369127,0.000343864,-0.612116,0.00235461,0.0161374,755,666,-11.3859,6.99713
-462,358,-11.4332,-7.50415,0.00301728,0.0016567,-0.00187589,0.00433242,0.000341564,-0.611449,0.00278143,0.0180469,762,666,-11.4332,7.50417
-455,358,-11.3486,-8.00458,0.00324706,0.0014982,-0.00180679,0.0043799,0.000365367,-0.560028,0.00280608,0.0359541,769,666,-11.3486,8.00459
-448,358,-11.1835,-8.71362,0,0,0,0,0,0,0,-1,776,666,-11.1835,8.71365
-441,358,-5.56293,-3.98041,0,0,0,0,0,0,0,-1,783,666,-5.56291,3.98043
-434,358,-5.21558,-4.43127,0,0,0,0,0,0,0,-1,790,666,-5.21559,4.43125
-427,358,-3.56189,-3.15729,0,0,0,0,0,0,0,-1,797,666,-3.56192,3.15729
-420,358,0.200195,1.08234,0,0,0,0,0,0,0,-1,804,666,0.200174,-1.08231
-413,358,0.0325317,0.161072,0,0,0,0,0,0,0,-1,811,666,0.0325501,-0.161098
-406,358,-3.85846,0.753113,0,0,0,0,0,0,0,-1,818,666,-3.85846,-0.753129
-399,358,-1.31213,0.190735,0,0,0,0,0,0,0,-1,825,666,-1.31215,-0.190763
-392,358,-3.73914,-0.832214,0,0,0,0,0,0,0,-1,832,666,-3.73915,0.832202
-385,358,-5.95178,-1.69141,0,0,0,0,0,0,0,-1,839,666,-5.9518,1.69143
-378,358,0,0,0,0,0,0,0,0,0,-1,846,666,0,0
-371,358,0,0,0,0,0,0,0,0,0,-1,853,666,0,0
-364,358,0,0,0,0,0,0,0,0,0,-1,860,666,0,0
-357,358,0,0,0,0,0,0,0,0,0,-1,867,666,0,0
-350,358,0,0,0,0,0,0,0,0,0,-1,874,666,0,0
-343,358,0,0,0,0,0,0,0,0,0,-1,881,666,0,0
-336,358,0,0,0,0,0,0,0,0,0,-1,888,666,0,0
-329,358,0,0,0,0,0,0,0,0,0,-1,895,666,0,0
-322,358,0,0,0,0,0,0,0,0,0,-1,902,666,0,0
-315,358,0,0,0,0,0,0,0,0,0,-1,909,666,0,0
-308,358,0,0,0,0,0,0,0,0,0,-1,916,666,0,0
-301,358,0,0,0,0,0,0,0,0,0,-1,923,666,0,0
-294,358,0,0,0,0,0,0,0,0,0,-1,930,666,0,0
-287,358,0,0,0,0,0,0,0,0,0,-1,937,666,0,0
-280,358,0,0,0,0,0,0,0,0,0,-1,944,666,0,0
-273,358,0,0,0,0,0,0,0,0,0,-1,951,666,0,0
-266,358,0,0,0,0,0,0,0,0,0,-1,958,666,0,0
-259,358,0,0,0,0,0,0,0,0,0,-1,965,666,0,0
-252,358,0,0,0,0,0,0,0,0,0,-1,972,666,0,0
-245,358,0,0,0,0,0,0,0,0,0,-1,979,666,0,0
-238,358,0,0,0,0,0,0,0,0,0,-1,986,666,0,0
-231,358,0,0,0,0,0,0,0,0,0,-1,993,666,0,0
-224,358,0,0,0,0,0,0,0,0,0,-1,1000,666,0,0
-217,358,0,0,0,0,0,0,0,0,0,-1,1007,666,0,0
-210,358,0,0,0,0,0,0,0,0,0,-1,1014,666,0,0
-203,358,0,0,0,0,0,0,0,0,0,-1,1021,666,0,0
-196,358,0,0,0,0,0,0,0,0,0,-1,1028,666,0,0
-189,358,0,0,0,0,0,0,0,0,0,-1,1035,666,0,0
-182,358,0,0,0,0,0,0,0,0,0,-1,1042,666,0,0
-175,358,0,0,0,0,0,0,0,0,0,-1,1049,666,0,0
-168,358,0,0,0,0,0,0,0,0,0,-1,1056,666,0,0
-161,358,0,0,0,0,0,0,0,0,0,-1,1063,666,0,0
-154,358,0,0,0,0,0,0,0,0,0,-1,1070,666,0,0
-147,358,0,0,0,0,0,0,0,0,0,-1,1077,666,0,0
-140,358,0,0,0,0,0,0,0,0,0,-1,1084,666,0,0
-133,358,0,0,0,0,0,0,0,0,0,-1,1091,666,0,0
-126,358,0,0,0,0,0,0,0,0,0,-1,1098,666,0,0
-119,358,0,0,0,0,0,0,0,0,0,-1,1105,666,0,0
-112,358,0,0,0,0,0,0,0,0,0,-1,1112,666,0,0
-105,358,0,0,0,0,0,0,0,0,0,-1,1119,666,0,0
-98,358,0,0,0,0,0,0,0,0,0,-1,1126,666,0,0
-91,358,0,0,0,0,0,0,0,0,0,-1,1133,666,0,0
-84,358,0,0,0,0,0,0,0,0,0,-1,1140,666,0,0
-77,358,0,0,0,0,0,0,0,0,0,-1,1147,666,0,0
-70,358,0,0,0,0,0,0,0,0,0,-1,1154,666,0,0
-63,358,0,0,0,0,0,0,0,0,0,-1,1161,666,0,0
-56,358,0,0,0,0,0,0,0,0,0,-1,1168,666,0,0
-49,358,0,0,0,0,0,0,0,0,0,-1,1175,666,0,0
-42,358,0,0,0,0,0,0,0,0,0,-1,1182,666,0,0
-35,358,0,0,0,0,0,0,0,0,0,-1,1189,666,0,0
-28,358,0,0,0,0,0,0,0,0,0,-1,1196,666,0,0
-21,358,0,0,0,0,0,0,0,0,0,-1,1203,666,0,0
-14,358,0,0,0,0,0,0,0,0,0,-1,1210,666,0,0
-7,358,0,0,0,0,0,0,0,0,0,-1,1217,666,0,0
0,358,0,0,0,0,0,0,0,0,0,-1,1224,666,0,0
7,358,0,0,0,0,0,0,0,0,0,-1,1231,666,0,0
14,358,0,0,0,0,0,0,0,0,0,-1,1238,666,0,0
21,358,0,0,0,0,0,0,0,0,0,-1,1245,666,0,0
28,358,0,0,0,0,0,0,0,0,0,-1,1252,666,0,0
35,358,0,0,0,0,0,0,0,0,0,-1,1259,666,0,0
42,358,0,0,0,0,0,0,0,0,0,-1,1266,666,0,0
49,358,0,0,0,0,0,0,0,0,0,-1,1273,666,0,0
56,358,0,0,0,0,0,0,0,0,0,-1,1280,666,0,0
63,358,0,0,0,0,0,0,0,0,0,-1,1287,666,0,0
70,358,0,0,0,0,0,0,0,0,0,-1,1294,666,0,0
77,358,0,0,0,0,0,0,0,0,0,-1,1301,666,0,0
84,358,0,0,0,0,0,0,0,0,0,-1,1308,666,0,0
91,358,0,0,0,0,0,0,0,0,0,-1,1315,666,0,0
98,358,0,0,0,0,0,0,0,0,0,-1,1322,666,0,0
105,358,0,0,0,0,0,0,0,0,0,-1,1329,666,0,0
112,358,0,0,0,0,0,0,0,0,0,-1,1336,666,0,0
119,358,0,0,0,0,0,0,0,0,0,-1,1343,666,0,0
126,358,0,0,0,0,0,0,0,0,0,-1,1350,666,0,0
133,358,0,0,0,0,0,0,0,0,0,-1,1357,666,0,0
140,358,0,0,0,0,0,0,0,0,0,-1,1364,666,0,0
147,358,0,0,0,0,0,0,0,0,0,-1,1371,666,0,0
154,358,0,0,0,0,0,0,0,0,0,-1,1378,666,0,0
161,358,0,0,0,0,0,0,0,0,0,-1,1385,666,0,0
168,358,0,0,0,0,0,0,0,0,0,-1,1392,666,0,0
175,358,0,0,0,0,0,0,0,0,0,-1,1399,666,0,0
182,358,0,0,0,0,0,0,0,0,0,-1,1406,666,0,0
189,358,0,0,0,0,0,0,0,0,0,-1,1413,666,0,0
196,358,0,0,0,0,0,0,0,0,0,-1,1420,666,0,0
203,358,0,0,0,0,0,0,0,0,0,-1,1427,666,0,0
210,358,0,0,0,0,0,0,0,0,0,-1,1434,666,0,0
217,358,0,0,0,0,0,0,0,0,0,-1,1441,666,0,0
224,358,0,0,0,0,0,0,0,0,0,-1,1448,666,0,0
231,358,0,0,0,0,0,0,0,0,0,-1,1455,666,0,0
238,358,0,0,0,0,0,0,0,0,0,-1,1462,666,0,0
245,358,0,0,0,0,0,0,0,0,0,-1,1469,666,0,0
252,358,0,0,0,0,0,0,0,0,0,-1,1476,666,0,0
259,358,0,0,0,0,0,0,0,0,0,-1,1483,666,0,0
266,358,0,0,0,0,0,0,0,0,0,-1,1490,666,0,0
273,358,0,0,0,0,0,0,0,0,0,-1,1497,666,0,0
280,358,0,0,0,0,0,0,0,0,0,-1,1504,666,0,0
287,358,0,0,0,0,0,0,0,0,0,-1,1511,666,0,0
294,358,0,0,0,0,0,0,0,0,0,-1,1518,666,0,0
301,358,0,0,0,0,0,0,0,0,0,-1,1525,666,0,0
308,358,0,0,0,0,0,0,0,0,0,-1,1532,666,0,0
315,358,0,0,0,0,0,0,0,0,0,-1,1539,666,0,0
322,358,0,0,0,0,0,0,0,0,0,-1,1546,666,0,0
329,358,0,0,0,0,0,0,0,0,0,-1,1553,666,0,0
336,358,0,0,0,0,0,0,0,0,0,-1,1560,666,0,0
343,358,0,0,0,0,0,0,0,0,0,-1,1567,666,0,0
350,358,0,0,0,0,0,0,0,0,0,-1,1574,666,0,0
357,358,0,0,0,0,0,0,0,0,0,-1,1581,666,0,0
364,358,0,0,0,0,0,0,0,0,0,-1,1588,666,0,0
371,358,0,0,0,0,0,0,0,0,0,-1,1595,666,0,0
378,358,0,0,0,0,0,0,0,0,0,-1,1602,666,0,0
385,358,0,0,0,0,0,0,0,0,0,-1,1609,666,0,0
392,358,0,0,0,0,0,0,0,0,0,-1,1616,666,0,0
399,358,0,0,0,0,0,0,0,0,0,-1,1623,666,0,0
406,358,0,0,0,0,0,0,0,0,0,-1,1630,666,0,0
413,358,0,0,0,0,0,0,0,0,0,-1,1637,666,0,0
420,358,0,0,0,0,0,0,0,0,0,-1,1644,666,0,0
427,358,0,0,0,0,0,0,0,0,0,-1,1651,666,0,0
434,358,0,0,0,0,0,0,0,0,0,-1,1658,666,0,0
441,358,0,0,0,0,0,0,0,0,0,-1,1665,666,0,0
448,358,0,0,0,0,0,0,0,0,0,-1,1672,666,0,0
455,358,0,0,0,0,0,0,0,0,0,-1,1679,666,0,0
462,358,0,0,0,0,0,0,0,0,0,-1,1686,666,0,0
469,358,0,0,0,0,0,0,0,0,0,-1,1693,666,0,0
476,358,0,0,0,0,0,0,0,0,0,-1,1700,666,0,0
483,358,0,0,0,0,0,0,0,0,0,-1,1707,666,0,0
490,358,0,0,0,0,0,0,0,0,0,-1,1714,666,0,0
497,358,8.57239,1.1322,0,0,0,0,0,0,0,-1,1721,666,8.57234,-1.13219
504,358,10.5972,0.832947,0,0,0,0,0,0,0,-1,1728,666,10.5972,-0.832968
511,358,10.6873,0.868469,0,0,0,0,0,0,0,-1,1735,666,10.6872,-0.868484
518,358,16.5884,2.34894,0,0,0,0,0,0,0,-1,1742,666,16.5884,-2.34894
525,358,15.7626,3.65344,0,0,0,0,0,0,0,-1,1749,666,15.7626,-3.65342
532,358,14.9368,4.95789,0,0,0,0,0,0,0,-1,1756,666,14.9367,-4.9579
539,358,15.1597,3.42694,0,0,0,0,0,0,0,-1,1763,666,15.1597,-3.42692
546,358,12.3792,1.53558,0,0,0,0,0,0,0,-1,1770,666,12.3792,-1.5356
553,358,11.6584,1.26172,0,0,0,0,0,0,0,-1,1777,666,11.6585,-1.26175
560,358,10.8234,1.43042,0,0,0,0,0,0,0,-1,1784,666,10.8233,-1.43041
567,358,10.1333,-0.955139,0,0,0,0,0,0,0,-1,1791,666,10.1333,0.955132
574,358,14.7886,-2.69293,0,0,0,0,0,0,0,-1,1798,666,14.7885,2.6929
581,358,20.1738,-6.76135,0,0,0,0,0,0,0,-1,1805,666,20.1738,6.76137
588,358,20.3761,-5.99689,0.00590499,0.000661608,0.00162293,0.00636666,0.000199932,0.27715,0.00417939,0.0487789,1812,666,20.3761,5.99688
595,358,20.5403,-5.28326,0.00461901,0.00068938,0.00139185,0.00506204,0.000246345,0.308166,0.00329565,0.0143292,1819,666,20.5403,5.28327
602,358,20.5032,-4.75311,0.00375387,0.000930608,0.00134041,0.00428888,0.000395603,0.379762,0.00273693,0.0135932,1826,666,20.5032,4.7531
609,358,20.4744,-4.25781,0.00313028,0.00123107,0.00139181,0.00386557,0.000495776,0.48603,0.00242871,0.0169764,1833,666,20.4744,4.25781
616,358,20.4917,-3.74902,0.00251636,0.00147064,0.00135686,0.00344761,0.000539389,0.601493,0.00214138,0.0154396,1840,666,20.4917,3.74901
623,358,20.5306,-3.25861,0.00189678,0.0017067,0.00129106,0.00309629,0.000507191,0.748656,0.00191762,0.0139852,1847,666,20.5306,3.25858
630,358,20.4967,-2.77533,0.00111743,0.0018493,0.00107419,0.00261818,0.000348553,0.949564,0.00164165,0.0175005,1854,666,20.4967,2.77535
637,358,20.4395,-2.31458,0.000109254,0.00185227,0.000677802,0.00208481,-0.000123295,1.24029,0.00143274,0.0249492,1861,666,20.4394,2.31459
644,358,20.4392,-1.81281,-0.0011427,0.00173356,9.50297e-05,0.0017367,-0.00114584,1.53781,0.00167585,0.0196675,1868,666,20.4392,1.81279
651,358,20.5632,-1.16565,-0.00282904,0.00141949,-0.000796372,0.00156387,-0.00297341,-1.39146,0.0026614,0.0300941,1875,666,20.5633,1.16566
658,358,20.5872,-0.432739,0,0,0,0,0,0,0,-1,1882,666,20.5871,0.432758
665,358,19.5831,-0.208618,0,0,0,0,0,0,0,-1,1889,666,19.5832,0.20863
672,358,12.4299,1.47272,0,0,0,0,0,0,0,-1,1896,666,12.4299,-1.4727
679,358,12.1294,2.19702,0,0,0,0,0,0,0,-1,1903,666,12.1294,-2.19703
686,358,11.9557,2.2002,0,0,0,0,0,0,0,-1,1910,666,11.9557,-2.20021
693,358,13.188,2.52203,0,0,0,0,0,0,0,-1,1917,666,13.188,-2.52202
700,358,0,0,0,0,0,0,0,0,0,-1,1924,666,0,0
707,358,0,0,0,0,0,0,0,0,0,-1,1931,666,0,0
714,358,0,0,0,0,0,0,0,0,0,-1,1938,666,0,0
721,358,0,0,0,0,0,0,0,0,0,-1,1945,666,0,0
728,358,0,0,0,0,0,0,0,0,0,-1,1952,666,0,0
735,358,0,0,0,0,0,0,0,0,0,-1,1959,666,0,0
742,358,0,0,0,0,0,0,0,0,0,-1,1966,666,0,0
749,358,0,0,0,0,0,0,0,0,0,-1,1973,666,0,0
756,358,0,0,0,0,0,0,0,0,0,-1,1980,666,0,0
763,358,0,0,0,0,0,0,0,0,0,-1,1987,666,0,0
770,358,0,0,0,0,0,0,0,0,0,-1,1994,666,0,0
777,358,0,0,0,0,0,0,0,0,0,-1,2001,666,0,0
784,358,0,0,0,0,0,0,0,0,0,-1,2008,666,0,0
791,358,0,0,0,0,0,0,0,0,0,-1,2015,666,0,0
798,358,0,0,0,0,0,0,0,0,0,-1,2022,666,0,0
805,358,0,0,0,0,0,0,0,0,0,-1,2029,666,0,0
812,358,0,0,0,0,0,0,0,0,0,-1,2036,666,0,0
-700,351,0,0,0,0,0,0,0,0,0,-1,524,673,0,0
-693,351,0,0,0,0,0,0,0,0,0,-1,531,673,0,0
-686,351,0,0,0,0,0,0,0,0,0,-1,538,673,0,0
-679,351,0,0,0,0,0,0,0,0,0,-1,545,673,0,0
-672,351,0,0,0,0,0,0,0,0,0,-1,552,673,0,0
-665,351,0,0,0,0,0,0,0,0,0,-1,559,673,0,0
-658,351,0,0,0,0,0,0,0,0,0,-1,566,673,0,0
-651,351,0,0,0,0,0,0,0,0,0,-1,573,673,0,0
-644,351,0,0,0,0,0,0,0,0,0,-1,580,673,0,0
-637,351,0,0,0,0,0,0,0,0,0,-1,587,673,0,0
-630,351,0,0,0,0,0,0,0,0,0,-1,594,673,0,0
-623,351,0,0,0,0,0,0,0,0,0,-1,601,673,0,0
-616,351,0,0,0,0,0,0,0,0,0,-1,608,673,0,0
-609,351,0,0,0,0,0,0,0,0,0,-1,615,673,0,0
-602,351,0,0,0,0,0,0,0,0,0,-1,622,673,0,0
-595,351,0,0,0,0,0,0,0,0,0,-1,629,673,0,0
-588,351,0,0,0,0,0,0,0,0,0,-1,636,673,0,0
-581,351,-9.0647,1.71906,0,0,0,0,0,0,0,-1,643,673,-9.06472,-1.71908
-574,351,-8.23584,2.64764,0,0,0,0,0,0,0,-1,650,673,-8.23584,-2.64764
-567,351,-10.8027,4.56836,0,0,0,0,0,0,0,-1,657,673,-10.8027,-4.56839
-560,351,-14.9448,5.11438,0,0,0,0,0,0,0,-1,664,673,-14.9448,-5.11437
-553,351,-13.7128,2.95398,0,0,0,0,0,0,0,-1,671,673,-13.7128,-2.95401
-546,351,-12.4809,0.79364,0,0,0,0,0,0,0,-1,678,673,-12.4809,-0.793641
-539,351,-11.8445,-1.19867,0,0,0,0,0,0,0,-1,685,673,-11.8445,1.19864
-532,351,-11.6978,-2.40436,-0.00352408,0.0044426,-0.00105459,0.00457984,-0.00366132,-1.44139,0.00476787,0.0441344,692,673,-11.6978,2.40436
-525,351,-11.7204,-3.22504,-0.00219296,0.00354742,-0.00100838,0.00371941,-0.00236494,-1.40187,0.00354169,0.0411898,699,673,-11.7204,3.22504
-518,351,-11.8167,-3.55072,-0.00113893,0.00263422,-0.000837983,0.00281196,-0.00131667,-1.36179,0.00243522,0.0167354,706,673,-11.8167,3.55069
-511,351,-11.8134,-4.07745,-0.000349089,0.00202618,-0.000731351,0.0022333,-0.000556212,-1.29482,0.00170479,0.0117954,713,673,-11.8134,4.07748
-504,351,-11.8228,-4.58148,0.000288042,0.00159206,-0.000682633,0.00188403,-3.93193e-06,-1.16663,0.00125733,0.011377,720,673,-11.8228,4.58148
-497,351,-11.8221,-5.05115,0.000878334,0.00133617,-0.000744781,0.00188642,0.000328084,-0.934496,0.00116377,0.0115286,727,673,-11.8221,5.05117
-490,351,-11.837,-5.53046,0.00136103,0.00117204,-0.0008576,0.00212932,0.000403743,-0.730527,0.00130594,0.0105554,734,673,-11.8369,5.53045
-483,351,-11.8456,-6.0025,0.00185153,0.0011804,-0.00104891,0.00261725,0.000414681,-0.630585,0.00162434,0.0121505,741,673,-11.8456,6.00253
-476,351,-11.8644,-6.46741,0.00237372,0.00140487,-0.00139847,0.00336929,0.000409297,-0.618666,0.00212296,0.0118923,748,673,-11.8644,6.4674
-469,351,-11.8759,-6.95117,0.00290576,0.00170506,-0.00183469,0.00423583,0.000374992,-0.627279,0.00270756,0.0143373,755,673,-11.8759,6.9512
-462,351,-11.879,-7.46014,0.00347598,0.00218476,-0.00232535,0.00524368,0.000417058,-0.649988,0.00336539,0.0262009,762,673,-11.879,7.46015
-455,351,-11.8617,-7.97583,0,0,0,0,0,0,0,-1,769,673,-11.8617,7.97583
-448,351,-6.61456,-4.38654,0,0,0,0,0,0,0,-1,776,673,-6.61456,4.38654
-441,351,-4.31567,-2.3009,0,0,0,0,0,0,0,-1,783,673,-4.31565,2.30089
-434,351,-3.81708,-2.28003,0,0,0,0,0,0,0,-1,790,673,-3.81706,2.28006
-427,351,-2.05157,-2.7785,0,0,0,0,0,0,0,-1,797,673,-2.05157,2.77848
-420,351,-1.06989,-2.43665,0,0,0,0,0,0,0,-1,804,673,-1.06991,2.43663
-413,351,-0.392334,-2.06671,0,0,0,0,0,0,0,-1,811,673,-0.392363,2.06672
-406,351,-1.86316,-2.58105,0,0,0,0,0,0,0,-1,818,673,-1.86313,2.58106
-399,351,1.00952,-1.53455,0,0,0,0,0,0,0,-1,825,673,1.00954,1.53457
-392,351,-1.02197,0.877136,0,0,0,0,0,0,0,-1,832,673,-1.02195,-0.877143
-385,351,-1.47205,1.04437,0,0,0,0,0,0,0,-1,839,673,-1.47207,-1.04435
-378,351,0,0,0,0,0,0,0,0,0,-1,846,673,0,0
-371,351,0,0,0,0,0,0,0,0,0,-1,853,673,0,0
-364,351,0,0,0,0,0,0,0,0,0,-1,860,673,0,0
-357,351,0,0,0,0,0,0,0,0,0,-1,867,673,0,0
-350,351,0,0,0,0,0,0,0,0,0,-1,874,673,0,0
-343,351,0,0,0,0,0,0,0,0,0,-1,881,673,0,0
-336,351,0,0,0,0,0,0,0,0,0,-1,888,673,0,0
-329,351,0,0,0,0,0,0,0,0,0,-1,895,673,0,0
-322,351,0,0,0,0,0,0,0,0,0,-1,902,673,0,0
-315,351,0,0,0,0,0,0,0,0,0,-1,909,673,0,0
-308,351,0,0,0,0,0,0,0,0,0,-1,916,673,0,0
-301,351,0,0,0,0,0,0,0,0,0,-1,923,673,0,0
-294,351,0,0,0,0,0,0,0,0,0,-1,930,673,0,0
-287,351,0,0,0,0,0,0,0,0,0,-1,937,673,0,0
-280,351,0,0,0,0,0,0,0,0,0,-1,944,673,0,0
-273,351,0,0,0,0,0,0,0,0,0,-1,951,673,0,0
-266,351,0,0,0,0,0,0,0,0,0,-1,958,673,0,0
-259,351,0,0,0,0,0,0,0,0,0,-1,965,673,0,0
-252,351,0,0,0,0,0,0,0,0,0,-1,972,673,0,0
-245,351,0,0,0,0,0,0,0,0,0,-1,979,673,0,0
-238,351,0,0,0,0,0,0,0,0,0,-1,986,673,0,0
-231,351,0,0,0,0,0,0,0,0,0,-1,993,673,0,0
-224,351,0,0,0,0,0,0,0,0,0,-1,1000,673,0,0
-217,351,0,0,0,0,0,0,0,0,0,-1,1007,673,0,0
-210,351,0,0,0,0,0,0,0,0,0,-1,1014,673,0,0
-203,351,0,0,0,0,0,0,0,0,0,-1,1021,673,0,0
-196,351,0,0,0,0,0,0,0,0,0,-1,1028,673,0,0
-189,351,0,0,0,0,0,0,0,0,0,-1,1035,673,0,0
-182,351,0,0,0,0,0,0,0,0,0,-1,1042,673,0,0
-175,351,0,0,0,0,0,0,0,0,0,-1,1049,673,0,0
-168,351,0,0,0,0,0,0,0,0,0,-1,1056,673,0,0
-161,351,0,0,0,0,0,0,0,0,0,-1,1063,673,0,0
-154,351,0,0,0,0,0,0,0,0,0,-1,1070,673,0,0
-147,351,0,0,0,0,0,0,0,0,0,-1,1077,673,0,0
-140,351,0,0,0,0,0,0,0,0,0,-1,1084,673,0,0
-133,351,0,0,0,0,0,0,0,0,0,-1,1091,673,0,0
-126,351,0,0,0,0,0,0,0,0,0,-1,1098,673,0,0
-119,351,0,0,0,0,0,0,0,0,0,-1,1105,673,0,0
-112,351,0,0,0,0,0,0,0,0,0,-1,1112,673,0,0
-105,351,0,0,0,0,0,0,0,0,0,-1,1119,673,0,0
-98,351,0,0,0,0,0,0,0,0,0,-1,1126,673,0,0
-91,351,0,0,0,0,0,0,0,0,0,-1,1133,673,0,0
-84,351,0,0,0,0,0,0,0,0,0,-1,1140,673,0,0
-77,351,0,0,0,0,0,0,0,0,0,-1,1147,673,0,0
-70,351,0,0,0,0,0,0,0,0,0,-1,1154,673,0,0
-63,351,0,0,0,0,0,0,0,0,0,-1,1161,673,0,0
-56,351,0,0,0,0,0,0,0,0,0,-1,1168,673,0,0
-49,351,0,0,0,0,0,0,0,0,0,-1,1175,673,0,0
-42,351,0,0,0,0,0,0,0,0,0,-1,1182,673,0,0
-35,351,0,0,0,0,0,0,0,0,0,-1,1189,673,0,0
-28,351,0,0,0,0,0,0,0,0,0,-1,1196,673,0,0
-21,351,0,0,0,0,0,0,0,0,0,-1,1203,673,0,0
-14,351,0,0,0,0,0,0,0,0,0,-1,1210,673,0,0
-7,351,0,0,0,0,0,0,0,0,0,-1,1217,673,0,0
0,351,0,0,0,0,0,0,0,0,0,-1,1224,673,0,0
7,351,0,0,0,0,0,0,0,0,0,-1,1231,673,0,0
14,351,0,0,0,0,0,0,0,0,0,-1,1238,673,0,0
21,351,0,0,0,0,0,0,0,0,0,-1,1245,673,0,0
28,351,0,0,0,0,0,0,0,0,0,-1,1252,673,0,0
35,351,0,0,0,0,0,0,0,0,0,-1,1259,673,0,0
42,351,0,0,0,0,0,0,0,0,0,-1,1266,673,0,0
49,351,0,0,0,0,0,0,0,0,0,-1,1273,673,0,0
56,351,0,0,0,0,0,0,0,0,0,-1,1280,673,0,0
63,351,0,0,0,0,0,0,0,0,0,-1,1287,673,0,0
70,351,0,0,0,0,0,0,0,0,0,-1,1294,673,0,0
77,351,0,0,0,0,0,0,0,0,0,-1,1301,673,0,0
84,351,0,0,0,0,0,0,0,0,0,-1,1308,673,0,0
91,351,0,0,0,0,0,0,0,0,0,-1,1315,673,0,0
98,351,0,0,0,0,0,0,0,0,0,-1,1322,673,0,0
105,351,0,0,0,0,0,0,0,0,0,-1,1329,673,0,0
112,351,0,0,0,0,0,0,0,0,0,-1,1336,673,0,0
119,351,0,0,0,0,0,0,0,0,0,-1,1343,673,0,0
126,351,0,0,0,0,0,0,0,0,0,-1,1350,673,0,0
133,351,0,0,0,0,0,0,0,0,0,-1,1357,673,0,0
140,351,0,0,0,0,0,0,0,0,0,-1,1364,673,0,0
147,351,0,0,0,0,0,0,0,0,0,-1,1371,673,0,0
154,351,0,0,0,0,0,0,0,0,0,-1,1378,673,0,0
161,351,0,0,0,0,0,0,0,0,0,-1,1385,673,0,0
168,351,0,0,0,0,0,0,0,0,0,-1,1392,673,0,0
175,351,0,0,0,0,0,0,0,0,0,-1,1399,673,0,0
182,351,0,0,0,0,0,0,0,0,0,-1,1406,673,0,0
189,351,0,0,0,0,0,0,0,0,0,-1,1413,673,0,0
196,351,0,0,0,0,0,0,0,0,0,-1,1420,673,0,0
203,351,0,0,0,0,0,0,0,0,0,-1,1427,673,0,0
210,351,0,0,0,0,0,0,0,0,0,-1,1434,673,0,0
217,351,0,0,0,0,0,0,0,0,0,-1,1441,673,0,0
224,351,0,0,0,0,0,0,0,0,0,-1,1448,673,0,0
231,351,0,0,0,0,0,0,0,0,0,-1,1455,673,0,0
238,351,0,0,0,0,0,0,0,0,0,-1,1462,673,0,0
245,351,0,0,0,0,0,0,0,0,0,-1,1469,673,0,0
252,351,0,0,0,0,0,0,0,0,0,-1,1476,673,0,0
259,351,0,0,0,0,0,0,0,0,0,-1,1483,673,0,0
266,351,0,0,0,0,0,0,0,0,0,-1,1490,673,0,0
273,351,0,0,0,0,0,0,0,0,0,-1,1497,673,0,0
280,351,0,0,0,0,0,0,0,0,0,-1,1504,673,0,0
287,351,0,0,0,0,0,0,0,0,0,-1,1511,673,0,0
294,351,0,0,0,0,0,0,0,0,0,-1,1518,673,0,0
301,351,0,0,0,0,0,0,0,0,0,-1,1525,673,0,0
308,351,0,0,0,0,0,0,0,0,0,-1,1532,673,0,0
315,351,0,0,0,0,0,0,0,0,0,-1,1539,673,0,0
322,351,0,0,0,0,0,0,0,0,0,-1,1546,673,0,0
329,351,0,0,0,0,0,0,0,0,0,-1,1553,673,0,0
336,351,0,0,0,0,0,0,0,0,0,-1,1560,673,0,0
343,351,0,0,0,0,0,0,0,0,0,-1,1567,673,0,0
350,351,0,0,0,0,0,0,0,0,0,-1,1574,673,0,0
357,351,0,0,0,0,0,0,0,0,0,-1,1581,673,0,0
364,351,0,0,0,0,0,0,0,0,0,-1,1588,673,0,0
371,351,0,0,0,0,0,0,0,0,0,-1,1595,673,0,0
378,351,0,0,0,0,0,0,0,0,0,-1,1602,673,0,0
385,351,0,0,0,0,0,0,0,0,0,-1,1609,673,0,0
392,351,0,0,0,0,0,0,0,0,0,-1,1616,673,0,0
399,351,0,0,0,0,0,0,0,0,0,-1,1623,673,0,0
406,351,0,0,0,0,0,0,0,0,0,-1,1630,673,0,0
413,351,0,0,0,0,0,0,0,0,0,-1,1637,673,0,0
420,351,0,0,0,0,0,0,0,0,0,-1,1644,673,0,0
427,351,0,0,0,0,0,0,0,0,0,-1,1651,673,0,0
434,351,0,0,0,0,0,0,0,0,0,-1,1658,673,0,0
441,351,0,0,0,0,0,0,0,0,0,-1,1665,673,0,0
448,351,0,0,0,0,0,0,0,0,0,-1,1672,673,0,0
455,351,0,0,0,0,0,0,0,0,0,-1,1679,673,0,0
462,351,0,0,0,0,0,0,0,0,0,-1,1686,673,0,0
469,351,0,0,0,0,0,0,0,0,0,-1,1693,673,0,0
476,351,0,0,0,0,0,0,0,0,0,-1,1700,673,0,0
483,351,0,0,0,0,0,0,0,0,0,-1,1707,673,0,0
490,351,0,0,0,0,0,0,0,0,0,-1,1714,673,0,0
497,351,0,0,0,0,0,0,0,0,0,-1,1721,673,0,0
504,351,10.8842,1.61615,0,0,0,0,0,0,0,-1,1728,673,10.8842,-1.61618
511,351,15.4548,0.0236816,0,0,0,0,0,0,0,-1,1735,673,15.4549,-0.0236664
518,351,16.7448,2.49268,0,0,0,0,0,0,0,-1,1742,673,16.7448,-2.49269
525,351,16.0701,3.43225,0,0,0,0,0,0,0,-1,1749,673,16.07,-3.43227
532,351,32.3822,3.03021,0,0,0,0,0,0,0,-1,1756,673,32.3822,-3.03019
539,351,15.3387,3.54486,0,0,0,0,0,0,0,-1,1763,673,15.3387,-3.54485
546,351,13.9387,4.59357,0,0,0,0,0,0,0,-1,1770,673,13.9388,-4.59359
553,351,12.0682,2.02832,0,0,0,0,0,0,0,-1,1777,673,12.0683,-2.02831
560,351,12.0173,0.55304,0,0,0,0,0,0,0,-1,1784,673,12.0174,-0.553028
567,351,10.7827,0.130188,0,0,0,0,0,0,0,-1,1791,673,10.7827,-0.130183
574,351,13.405,-1.09204,0,0,0,0,0,0,0,-1,1798,673,13.405,1.09207
581,351,15.2351,-3.06049,0,0,0,0,0,0,0,-1,1805,673,15.2351,3.06046
588,351,20.8129,-5.92371,0,0,0,0,0,0,0,-1,1812,673,20.8129,5.92369
595,351,20.9716,-5.37378,0.00506088,0.000770031,0.00168946,0.00564623,0.000184682,0.333527,0.00370412,0.0343902,1819,673,20.9716,5.37376
602,351,21.0052,-4.76379,0.00396256,0.000832019,0.00141463,0.00450709,0.000287489,0.367445,0.00291363,0.0193618,1826,673,21.0053,4.76377
609,351,21.0216,-4.28674,0.00327556,0.000972,0.00133816,0.00388936,0.000358202,0.430056,0.00248214,0.0181832,1833,673,21.0215,4.28674
616,351,21.0122,-3.76544,0.00263649,0.0011159,0.00126205,0.00334956,0.000402832,0.514297,0.00211161,0.0157479,1840,673,21.0122,3.76544
623,351,21.0519,-3.2699,0.00191965,0.00123294,0.0011125,0.00274058,0.000412011,0.635718,0.00170638,0.0159581,1847,673,21.0519,3.2699
630,351,21.0258,-2.7832,0.00108028,0.00124884,0.000809811,0.00197875,0.000350376,0.837249,0.00121927,0.0248737,1854,673,21.0257,2.78321
637,351,20.9852,-2.27588,1.54832e-05,0.0011447,0.000341273,0.00123983,-7.96426e-05,1.29896,0.000854339,0.0291846,1861,673,20.9852,2.27591
644,351,20.9515,-1.77545,-0.00129277,0.000901335,-0.000332579,0.000950639,-0.00134207,-1.42362,0.00133011,0.0212617,1868,673,20.9515,1.77543
651,351,20.978,-1.19519,-0.0029628,0.000521509,-0.00124285,0.000919396,-0.00336068,-1.26097,0.00260165,0.0153155,1875,673,20.9781,1.19522
658,351,20.911,-0.642151,-0.00513904,-0.000157866,-0.00259814,0.000950622,-0.00624753,-1.16753,0.00451537,0.0323204,1882,673,20.911,0.642163
665,351,20.4456,-0.398621,-0.00799983,-0.00121534,-0.00448496,0.00101578,-0.010231,-1.10918,0.00718321,0.0428523,1889,673,20.4456,0.398609
672,351,20.1316,0.0619507,0,0,0,0,0,0,0,-1,1896,673,20.1316,-0.0619244
679,351,14.1252,1.85681,0,0,0,0,0,0,0,-1,1903,673,14.1253,-1.85682
686,351,13.0294,2.1189,0,0,0,0,0,0,0,-1,1910,673,13.0294,-2.11892
693,351,13.5187,2.34595,0,0,0,0,0,0,0,-1,1917,673,13.5187,-2.34596
700,351,14.5629,-2.40173,0,0,0,0,0,0,0,-1,1924,673,14.5629,2.40172
707,351,0,0,0,0,0,0,0,0,0,-1,1931,673,0,0
714,351,0,0,0,0,0,0,0,0,0,-1,1938,673,0,0
721,351,0,0,0,0,0,0,0,0,0,-1,1945,673,0,0
728,351,0,0,0,0,0,0,0,0,0,-1,1952,673,0,0
735,351,0,0,0,0,0,0,0,0,0,-1,1959,673,0,0
742,351,0,0,0,0,0,0,0,0,0,-1,1966,673,0,0
749,351,0,0,0,0,0,0,0,0,0,-1,1973,673,0,0
756,351,0,0,0,0,0,0,0,0,0,-1,1980,673,0,0
763,351,0,0,0,0,0,0,0,0,0,-1,1987,673,0,0
770,351,0,0,0,0,0,0,0,0,0,-1,1994,673,0,0
777,351,0,0,0,0,0,0,0,0,0,-1,2001,673,0,0
784,351,0,0,0,0,0,0,0,0,0,-1,2008,673,0,0
791,351,0,0,0,0,0,0,0,0,0,-1,2015,673,0,0
798,351,0,0,0,0,0,0,0,0,0,-1,2022,673,0,0
805,351,0,0,0,0,0,0,0,0,0,-1,2029,673,0,0
812,351,0,0,0,0,0,0,0,0,0,-1,2036,673,0,0
-700,344,0,0,0,0,0,0,0,0,0,-1,524,680,0,0
-693,344,0,0,0,0,0,0,0,0,0,-1,531,680,0,0
-686,344,0,0,0,0,0,0,0,0,0,-1,538,680,0,0
-679,344,0,0,0,0,0,0,0,0,0,-1,545,680,0,0
-672,344,0,0,0,0,0,0,0,0,0,-1,552,680,0,0
-665,344,0,0,0,0,0,0,0,0,0,-1,559,680,0,0
-658,344,0,0,0,0,0,0,0,0,0,-1,566,680,0,0
-651,344,0,0,0,0,0,0,0,0,0,-1,573,680,0,0
-644,344,0,0,0,0,0,0,0,0,0,-1,580,680,0,0
-637,344,0,0,0,0,0,0,0,0,0,-1,587,680,0,0
-630,344,0,0,0,0,0,0,0,0,0,-1,594,680,0,0
-623,344,0,0,0,0,0,0,0,0,0,-1,601,680,0,0
-616,344,0,0,0,0,0,0,0,0,0,-1,608,680,0,0
-609,344,0,0,0,0,0,0,0,0,0,-1,615,680,0,0
-602,344,0,0,0,0,0,0,0,0,0,-1,622,680,0,0
-595,344,0,0,0,0,0,0,0,0,0,-1,629,680,0,0
-588,344,-9.27826,1.47302,0,0,0,0,0,0,0,-1,636,680,-9.27829,-1.473
-581,344,-10.0098,1.71753,0,0,0,0,0,0,0,-1,643,680,-10.0098,-1.7175
-574,344,-10.2208,3.04871,0,0,0,0,0,0,0,-1,650,680,-10.2208,-3.04869
-567,344,-14.3779,2.29016,0,0,0,0,0,0,0,-1,657,680,-14.3779,-2.29014
-560,344,-14.1641,3.44684,0,0,0,0,0,0,0,-1,664,680,-14.1641,-3.44683
-553,344,-13.6866,2.1781,0,0,0,0,0,0,0,-1,671,680,-13.6866,-2.17812
-546,344,-13.3174,0.70282,0,0,0,0,0,0,0,-1,678,680,-13.3174,-0.70279
-539,344,-12.247,-1.66345,0,0,0,0,0,0,0,-1,685,680,-12.247,1.66345
-532,344,-12.1112,-2.61243,-0.00301142,0.00331899,-0.000259015,0.00332957,-0.003022,-1.52997,0.00366851,0.0338161,692,680,-12.1112,2.61244
-525,344,-12.3228,-3.02155,-0.00185737,0.00259264,-0.00037623,0.00262423,-0.00188895,-1.48704,0.00261719,0.0324018,699,680,-12.3228,3.02155
-518,344,-12.2996,-3.60199,-0.000928485,0.00187846,-0.000372493,0.00192705,-0.000977075,-1.44108,0.00170634,0.0197377,706,680,-12.2995,3.60202
-511,344,-12.3281,-4.10596,-0.000192018,0.00139438,-0.000389369,0.0014848,-0.000282432,-1.34263,0.00109621,0.0166326,713,680,-12.3281,4.10595
-504,344,-12.3347,-4.57465,0.000437062,0.00104418,-0.000437533,0.00127315,0.000208095,-1.08867,0.000788605,0.0168899,720,680,-12.3347,4.57462
-497,344,-12.3185,-5.0434,0.00103353,0.000891269,-0.000586141,0.00155284,0.000371961,-0.725015,0.000936205,0.0160979,727,680,-12.3185,5.04339
-490,344,-12.3354,-5.52991,0.00152848,0.000840066,-0.000777698,0.00203474,0.000333805,-0.577059,0.00126005,0.0143336,734,680,-12.3355,5.52992
-483,344,-12.3106,-6.00885,0.00204666,0.000987792,-0.00105862,0.00270086,0.0003336,-0.553527,0.00170031,0.0136181,741,680,-12.3106,6.00886
-476,344,-12.3281,-6.47388,0.00256612,0.00146039,-0.001559,0.00366739,0.000359129,-0.615003,0.00233444,0.0148864,748,680,-12.3281,6.47386
-469,344,-12.3564,-6.98419,0.00314172,0.00192663,-0.00214925,0.00476765,0.000300702,-0.647653,0.00308309,0.01693,755,680,-12.3564,6.98419
-462,344,-12.3198,-7.53845,0.00395063,0.00277267,-0.00292223,0.00634265,0.000380653,-0.685955,0.00410743,0.0494102,762,680,-12.3198,7.53844
-455,344,-12.1653,-7.99176,0,0,0,0,0,0,0,-1,769,680,-12.1653,7.99174
-448,344,-5.67657,-2.72864,0,0,0,0,0,0,0,-1,776,680,-5.6766,2.72863
-441,344,-5.09229,-2.34167,0,0,0,0,0,0,0,-1,783,680,-5.09229,2.34168
-434,344,-4.28778,-2.08807,0,0,0,0,0,0,0,-1,790,680,-4.28778,2.08809
-427,344,-3.06506,-1.45404,0,0,0,0,0,0,0,-1,797,680,-3.06505,1.45402
-420,344,-1.96582,-1.57574,0,0,0,0,0,0,0,-1,804,680,-1.96579,1.57574
-413,344,-0.817993,-1.4751,0,0,0,0,0,0,0,-1,811,680,-0.818017,1.47511
-406,344,-0.00714111,-1.25189,0,0,0,0,0,0,0,-1,818,680,-0.00714956,1.25191
-399,344,0.240051,-1.75769,0,0,0,0,0,0,0,-1,825,680,0.240079,1.75767
-392,344,1.11353,-2.05615,0,0,0,0,0,0,0,-1,832,680,1.11351,2.05616
-385,344,0,0,0,0,0,0,0,0,0,-1,839,680,0,0
-378,344,0,0,0,0,0,0,0,0,0,-1,846,680,0,0
-371,344,0,0,0,0,0,0,0,0,0,-1,853,680,0,0
-364,344,0,0,0,0,0,0,0,0,0,-1,860,680,0,0
-357,344,0,0,0,0,0,0,0,0,0,-1,867,680,0,0
-350,344,0,0,0,0,0,0,0,0,0,-1,874,680,0,0
-343,344,0,0,0,0,0,0,0,0,0,-1,881,680,0,0
-336,344,0,0,0,0,0,0,0,0,0,-1,888,680,0,0
-329,344,0,0,0,0,0,0,0,0,0,-1,895,680,0,0
-322,344,0,0,0,0,0,0,0,0,0,-1,902,680,0,0
-315,344,0,0,0,0,0,0,0,0,0,-1,909,680,0,0
-308,344,0,0,0,0,0,0,0,0,0,-1,916,680,0,0
-301,344,0,0,0,0,0,0,0,0,0,-1,923,680,0,0
-294,344,0,0,0,0,0,0,0,0,0,-1,930,680,0,0
-287,344,0,0,0,0,0,0,0,0,0,-1,937,680,0,0
-280,344,0,0,0,0,0,0,0,0,0,-1,944,680,0,0
-273,344,0,0,0,0,0,0,0,0,0,-1,951,680,0,0
-266,344,0,0,0,0,0,0,0,0,0,-1,958,680,0,0
-259,344,0,0,0,0,0,0,0,0,0,-1,965,680,0,0
-252,344,0,0,0,0,0,0,0,0,0,-1,972,680,0,0
-245,344,0,0,0,0,0,0,0,0,0,-1,979,680,0,0
-238,344,0,0,0,0,0,0,0,0,0,-1,986,680,0,0
-231,344,0,0,0,0,0,0,0,0,0,-1,993,680,0,0
-224,344,0,0,0,0,0,0,0,0,0,-1,1000,680,0,0
-217,344,0,0,0,0,0,0,0,0,0,-1,1007,680,0,0
-210,344,0,0,0,0,0,0,0,0,0,-1,1014,680,0,0
-203,344,0,0,0,0,0,0,0,0,0,-1,1021,680,0,0
-196,344,0,0,0,0,0,0,0,0,0,-1,1028,680,0,0
-189,344,0,0,0,0,0,0,0,0,0,-1,1035,680,0,0
-182,344,0,0,0,0,0,0,0,0,0,-1,1042,680,0,0
-175,344,0,0,0,0,0,0,0,0,0,-1,1049,680,0,0
-168,344,0,0,0,0,0,0,0,0,0,-1,1056,680,0,0
-161,344,0,0,0,0,0,0,0,0,0,-1,1063,680,0,0
-154,344,0,0,0,0,0,0,0,0,0,-1,1070,680,0,0
-147,344,0,0,0,0,0,0,0,0,0,-1,1077,680,0,0
-140,344,0,0,0,0,0,0,0,0,0,-1,1084,680,0,0
-133,344,0,0,0,0,0,0,0,0,0,-1,1091,680,0,0
-126,344,0,0,0,0,0,0,0,0,0,-1,1098,680,0,0
-119,344,0,0,0,0,0,0,0,0,0,-1,1105,680,0,0
-112,344,0,0,0,0,0,0,0,0,0,-1,1112,680,0,0
-105,344,0,0,0,0,0,0,0,0,0,-1,1119,680,0,0
-98,344,0,0,0,0,0,0,0,0,0,-1,1126,680,0,0
-91,344,0,0,0,0,0,0,0,0,0,-1,1133,680,0,0
-84,344,0,0,0,0,0,0,0,0,0,-1,1140,680,0,0
-77,344,0,0,0,0,0,0,0,0,0,-1,1147,680,0,0
-70,344,0,0,0,0,0,0,0,0,0,-1,1154,680,0,0
-63,344,0,0,0,0,0,0,0,0,0,-1,1161,680,0,0
-56,344,0,0,0,0,0,0,0,0,0,-1,1168,680,0,0
-49,344,0,0,0,0,0,0,0,0,0,-1,1175,680,0,0
-42,344,0,0,0,0,0,0,0,0,0,-1,1182,680,0,0
-35,344,0,0,0,0,0,0,0,0,0,-1,1189,680,0,0
-28,344,0,0,0,0,0,0,0,0,0,-1,1196,680,0,0
-21,344,0,0,0,0,0,0,0,0,0,-1,1203,680,0,0
-14,344,0,0,0,0,0,0,0,0,0,-1,1210,680,0,0
-7,344,0,0,0,0,0,0,0,0,0,-1,1217,680,0,0
0,344,0,0,0,0,0,0,0,0,0,-1,1224,680,0,0
7,344,0,0,0,0,0,0,0,0,0,-1,1231,680,0,0
14,344,0,0,0,0,0,0,0,0,0,-1,1238,680,0,0
21,344,0,0,0,0,0,0,0,0,0,-1,1245,680,0,0
28,344,0,0,0,0,0,0,0,0,0,-1,1252,680,0,0
35,344,0,0,0,0,0,0,0,0,0,-1,1259,680,0,0
42,344,0,0,0,0,0,0,0,0,0,-1,1266,680,0,0
49,344,0,0,0,0,0,0,0,0,0,-1,1273,680,0,0
56,344,0,0,0,0,0,0,0,0,0,-1,1280,680,0,0
63,344,0,0,0,0,0,0,0,0,0,-1,1287,680,0,0
70,344,0,0,0,0,0,0,0,0,0,-1,1294,680,0,0
77,344,0,0,0,0,0,0,0,0,0,-1,1301,680,0,0
84,344,0,0,0,0,0,0,0,0,0,-1,1308,680,0,0
91,344,0,0,0,0,0,0,0,0,0,-1,1315,680,0,0
98,344,0,0,0,0,0,0,0,0,0,-1,1322,680,0,0
105,344,0,0,0,0,0,0,0,0,0,-1,1329,680,0,0
112,344,0,0,0,0,0,0,0,0,0,-1,1336,680,0,0
119,344,0,0,0,0,0,0,0,0,0,-1,1343,680,0,0
126,344,0,0,0,0,0,0,0,0,0,-1,1350,680,0,0
133,344,0,0,0,0,0,0,0,0,0,-1,1357,680,0,0
140,344,0,0,0,0,0,0,0,0,0,-1,1364,680,0,0
147,344,0,0,0,0,0,0,0,0,0,-1,1371,680,0,0
154,344,0,0,0,0,0,0,0,0,0,-1,1378,680,0,0
161,344,0,0,0,0,0,0,0,0,0,-1,1385,680,0,0
168,344,0,0,0,0,0,0,0,0,0,-1,1392,680,0,0
175,344,0,0,0,0,0,0,0,0,0,-1,1399,680,0,0
182,344,0,0,0,0,0,0,0,0,0,-1,1406,680,0,0
189,344,0,0,0,0,0,0,0,0,0,-1,1413,680,0,0
196,344,0,0,0,0,0,0,0,0,0,-1,1420,680,0,0
203,344,0,0,0,0,0,0,0,0,0,-1,1427,680,0,0
210,344,0,0,0,0,0,0,0,0,0,-1,1434,680,0,0
217,344,0,0,0,0,0,0,0,0,0,-1,1441,680,0,0
224,344,0,0,0,0,0,0,0,0,0,-1,1448,680,0,0
231,344,0,0,0,0,0,0,0,0,0,-1,1455,680,0,0
238,344,0,0,0,0,0,0,0,0,0,-1,1462,680,0,0
245,344,0,0,0,0,0,0,0,0,0,-1,1469,680,0,0
252,344,0,0,0,0,0,0,0,0,0,-1,1476,680,0,0
259,344,0,0,0,0,0,0,0,0,0,-1,1483,680,0,0
266,344,0,0,0,0,0,0,0,0,0,-1,1490,680,0,0
273,344,0,0,0,0,0,0,0,0,0,-1,1497,680,0,0
280,344,0,0,0,0,0,0,0,0,0,-1,1504,680,0,0
287,344,0,0,0,0,0,0,0,0,0,-1,1511,680,0,0
294,344,0,0,0,0,0,0,0,0,0,-1,1518,680,0,0
301,344,0,0,0,0,0,0,0,0,0,-1,1525,680,0,0
308,344,0,0,0,0,0,0,0,0,0,-1,1532,680,0,0
315,344,0,0,0,0,0,0,0,0,0,-1,1539,680,0,0
322,344,0,0,0,0,0,0,0,0,0,-1,1546,680,0,0
329,344,0,0,0,0,0,0,0,0,0,-1,1553,680,0,0
336,344,0,0,0,0,0,0,0,0,0,-1,1560,680,0,0
343,344,0,0,0,0,0,0,0,0,0,-1,1567,680,0,0
350,344,0,0,0,0,0,0,0,0,0,-1,1574,680,0,0
357,344,0,0,0,0,0,0,0,0,0,-1,1581,680,0,0
364,344,0,0,0,0,0,0,0,0,0,-1,1588,680,0,0
371,344,0,0,0,0,0,0,0,0,0,-1,1595,680,0,0
378,344,0,0,0,0,0,0,0,0,0,-1,1602,680,0,0
385,344,0,0,0,0,0,0,0,0,0,-1,1609,680,0,0
392,344,0,0,0,0,0,0,0,0,0,-1,1616,680,0,0
399,344,0,0,0,0,0,0,0,0,0,-1,1623,680,0,0
406,344,0,0,0,0,0,0,0,0,0,-1,1630,680,0,0
413,344,0,0,0,0,0,0,0,0,0,-1,1637,680,0,0
420,344,0,0,0,0,0,0,0,0,0,-1,1644,680,0,0
427,344,0,0,0,0,0,0,0,0,0,-1,1651,680,0,0
434,344,0,0,0,0,0,0,0,0,0,-1,1658,680,0,0
441,344,0,0,0,0,0,0,0,0,0,-1,1665,680,0,0
448,344,0,0,0,0,0,0,0,0,0,-1,1672,680,0,0
455,344,0,0,0,0,0,0,0,0,0,-1,1679,680,0,0
462,344,0,0,0,0,0,0,0,0,0,-1,1686,680,0,0
469,344,0,0,0,0,0,0,0,0,0,-1,1693,680,0,0
476,344,0,0,0,0,0,0,0,0,0,-1,1700,680,0,0
483,344,0,0,0,0,0,0,0,0,0,-1,1707,680,0,0
490,344,0,0,0,0,0,0,0,0,0,-1,1714,680,0,0
497,344,0,0,0,0,0,0,0,0,0,-1,1721,680,0,0
504,344,0,0,0,0,0,0,0,0,0,-1,1728,680,0,0
511,344,15.4819,0.452637,0,0,0,0,0,0,0,-1,1735,680,15.4819,-0.452656
518,344,17.1357,2.31207,0,0,0,0,0,0,0,-1,1742,680,17.1358,-2.31207
525,344,31.5201,2.6217,0,0,0,0,0,0,0,-1,1749,680,31.5201,-2.62168
532,344,31.9766,2.61047,0,0,0,0,0,0,0,-1,1756,680,31.9765,-2.6105
539,344,32.4379,2.65314,0,0,0,0,0,0,0,-1,1763,680,32.4378,-2.65316
546,344,14.6722,4.30243,0,0,0,0,0,0,0,-1,1770,680,14.6722,-4.30241
553,344,14.8136,4.35681,0,0,0,0,0,0,0,-1,1777,680,14.8136,-4.35679
560,344,11.9363,2.14185,0,0,0,0,0,0,0,-1,1784,680,11.9362,-2.14182
567,344,11.397,0.925842,0,0,0,0,0,0,0,-1,1791,680,11.397,-0.92583
574,344,10.0004,0.504639,0,0,0,0,0,0,0,-1,1798,680,10.0004,-0.504645
581,344,13.6709,-0.969604,0,0,0,0,0,0,0,-1,1805,680,13.6709,0.969629
588,344,16.1447,-3.15948,0,0,0,0,0,0,0,-1,1812,680,16.1447,3.15946
595,344,21.4561,-5.36877,0,0,0,0,0,0,0,-1,1819,680,21.456,5.36878
602,344,21.5343,-4.76538,0.0039938,0.00088081,0.00152325,0.00461514,0.000259469,0.387302,0.00299402,0.0462692,1826,680,21.5343,4.76539
609,344,21.5605,-4.24963,0.00334306,0.000866709,0.00136197,0.00394555,0.000264218,0.416487,0.00254687,0.0155468,1833,680,21.5605,4.24966
616,344,21.5065,-3.73041,0.00274212,0.000939575,0.00129587,0.00341932,0.00026238,0.481549,0.00219731,0.0229683,1840,680,21.5065,3.73041
623,344,21.5415,-3.22186,0.00198342,0.000954965,0.00109294,0.00267706,0.000261322,0.565514,0.00170429,0.0193034,1847,680,21.5415,3.22187
630,344,21.5356,-2.73828,0.00114857,0.000868482,0.000738372,0.00176006,0.000256991,0.691678,0.00109778,0.0242654,1854,680,21.5356,2.73828
637,344,21.5254,-2.23657,7.69539e-05,0.000689696,0.000237119,0.000770738,-4.08789e-06,1.24147,0.000515194,0.0239229,1861,680,21.5254,2.23659
644,344,21.4835,-1.71472,-0.0012239,0.000386775,-0.000461327,0.000509549,-0.00134667,-1.31069,0.00110742,0.0162636,1868,680,21.4835,1.71469
651,344,21.4751,-1.18152,-0.00282446,-1.90811e-06,-0.00133243,0.000527711,-0.00335407,-1.19246,0.00243112,0.0107856,1875,680,21.475,1.18153
658,344,21.4458,-0.586182,-0.00484317,-0.000583106,-0.0025122,0.000580518,-0.00600679,-1.13703,0.00421139,0.0216785,1882,680,21.4458,0.586189
665,344,21.3119,-0.11499,-0.00742676,-0.00142109,-0.00407732,0.000639826,-0.00948767,-1.10279,0.00654882,0.0360856,1889,680,21.3118,0.114977
672,344,21.3666,0.211365,-0.0108522,-0.00264502,-0.00628651,0.000758683,-0.0142559,-1.07456,0.00976669,0.0363329,1896,680,21.3666,-0.21135
679,344,21.7727,0.433838,0,0,0,0,0,0,0,-1,1903,680,21.7727,-0.433834
686,344,15.024,1.82709,0,0,0,0,0,0,0,-1,1910,680,15.024,-1.82706
693,344,12.4362,-1.42346,0,0,0,0,0,0,0,-1,1917,680,12.4361,1.42348
700,344,17.5396,2.61206,0,0,0,0,0,0,0,-1,1924,680,17.5396,-2.61204
707,344,18.5829,3.29352,0,0,0,0,0,0,0,-1,1931,680,18.5828,-3.2935
714,344,0,0,0,0,0,0,0,0,0,-1,1938,680,0,0
721,344,0,0,0,0,0,0,0,0,0,-1,1945,680,0,0
728,344,0,0,0,0,0,0,0,0,0,-1,1952,680,0,0
735,344,0,0,0,0,0,0,0,0,0,-1,1959,680,0,0
742,344,0,0,0,0,0,0,0,0,0,-1,1966,680,0,0
749,344,0,0,0,0,0,0,0,0,0,-1,1973,680,0,0
756,344,0,0,0,0,0,0,0,0,0,-1,1980,680,0,0
763,344,0,0,0,0,0,0,0,0,0,-1,1987,680,0,0
770,344,0,0,0,0,0,0,0,0,0,-1,1994,680,0,0
777,344,0,0,0,0,0,0,0,0,0,-1,2001,680,0,0
784,344,0,0,0,0,0,0,0,0,0,-1,2008,680,0,0
791,344,0,0,0,0,0,0,0,0,0,-1,2015,680,0,0
798,344,0,0,0,0,0,0,0,0,0,-1,2022,680,0,0
805,344,0,0,0,0,0,0,0,0,0,-1,2029,680,0,0
812,344,0,0,0,0,0,0,0,0,0,-1,2036,680,0,0
-700,337,0,0,0,0,0,0,0,0,0,-1,524,687,0,0
-693,337,0,0,0,0,0,0,0,0,0,-1,531,687,0,0
-686,337,0,0,0,0,0,0,0,0,0,-1,538,687,0,0
-679,337,0,0,0,0,0,0,0,0,0,-1,545,687,0,0
-672,337,0,0,0,0,0,0,0,0,0,-1,552,687,0,0
-665,337,0,0,0,0,0,0,0,0,0,-1,559,687,0,0
-658,337,0,0,0,0,0,0,0,0,0,-1,566,687,0,0
-651,337,0,0,0,0,0,0,0,0,0,-1,573,687,0,0
-644,337,0,0,0,0,0,0,0,0,0,-1,580,687,0,0
-637,337,0,0,0,0,0,0,0,0,0,-1,587,687,0,0
-630,337,0,0,0,0,0,0,0,0,0,-1,594,687,0,0
-623,337,0,0,0,0,0,0,0,0,0,-1,601,687,0,0
-616,337,0,0,0,0,0,0,0,0,0,-1,608,687,0,0
-609,337,0,0,0,0,0,0,0,0,0,-1,615,687,0,0
-602,337,0,0,0,0,0,0,0,0,0,-1,622,687,0,0
-595,337,0,0,0,0,0,0,0,0,0,-1,629,687,0,0
-588,337,-10.8413,1.27863,0,0,0,0,0,0,0,-1,636,687,-10.8413,-1.27861
-581,337,-11.2157,1.31567,0,0,0,0,0,0,0,-1,643,687,-11.2157,-1.3157
-574,337,-6.03339,2.0321,0,0,0,0,0,0,0,-1,650,687,-6.03337,-2.03213
-567,337,-13.8102,1.56787,0,0,0,0,0,0,0,-1,657,687,-13.8102,-1.56789
-560,337,-14.2926,2.40759,0,0,0,0,0,0,0,-1,664,687,-14.2926,-2.4076
-553,337,-13.7875,1.21954,0,0,0,0,0,0,0,-1,671,687,-13.7875,-1.21956
-546,337,-13.2675,-0.204712,0,0,0,0,0,0,0,-1,678,687,-13.2675,0.204735
-539,337,-12.6523,-1.90576,0,0,0,0,0,0,0,-1,685,687,-12.6523,1.90576
-532,337,-12.7044,-2.58923,-0.00273354,0.00208459,0.000367037,0.00211239,-0.00276134,1.4952,0.00282215,0.0236127,692,687,-12.7044,2.58922
-525,337,-12.7991,-3.10211,-0.00167194,0.00156653,0.00015179,0.00157363,-0.00167903,1.52406,0.00187826,0.0151123,699,687,-12.7991,3.10212
-518,337,-12.7959,-3.62213,-0.000812368,0.00108793,4.66531e-05,0.00108908,-0.000813512,1.54627,0.00110229,0.022079,706,687,-12.7959,3.62211
-511,337,-12.8276,-4.07361,-8.19291e-05,0.000774215,-5.57389e-05,0.000777828,-8.55427e-05,-1.50606,0.000549291,0.0217961,713,687,-12.8276,4.07361
-504,337,-12.8401,-4.56244,0.000513001,0.000603236,-0.000137083,0.000702435,0.000413802,-0.944378,0.000407692,0.0215821,720,687,-12.8401,4.56245
-497,337,-12.8074,-5.02917,0.00095094,0.000776463,-0.000211744,0.00109271,0.000634691,-0.589995,0.000633621,0.0167778,727,687,-12.8074,5.02916
-490,337,-12.8224,-5.51251,0.00122136,0.00115254,-0.00025391,0.00144318,0.000930719,-0.718045,0.000844805,0.0147943,734,687,-12.8224,5.51253
-483,337,-12.8137,-6.02319,0.00137285,0.00190481,-0.00027354,0.00202036,0.00125729,-1.17109,0.00117803,0.0144899,741,687,-12.8137,6.02322
-476,337,-12.8161,-6.51587,0.00126511,0.003306,-0.000358157,0.00336703,0.00120408,-1.40202,0.00197006,0.014922,748,687,-12.8161,6.51586
-469,337,-12.806,-7.12646,0.000959122,0.00495816,-0.000280546,0.00497775,0.000939537,-1.5011,0.00305388,0.0422409,755,687,-12.806,7.12646
-462,337,-12.6558,-7.49542,0,0,0,0,0,0,0,-1,762,687,-12.6558,7.49544
-455,337,-6.00574,-3.12933,0,0,0,0,0,0,0,-1,769,687,-6.00576,3.12934
-448,337,-5.30627,-2.07202,0,0,0,0,0,0,0,-1,776,687,-5.30628,2.07205
-441,337,-4.24762,-1.49597,0,0,0,0,0,0,0,-1,783,687,-4.24762,1.49598
-434,337,-6.86908,1.37531,0,0,0,0,0,0,0,-1,790,687,-6.86908,-1.3753
-427,337,-9.92004,2.487,0,0,0,0,0,0,0,-1,797,687,-9.92002,-2.48701
-420,337,-2.95996,-1.76697,0,0,0,0,0,0,0,-1,804,687,-2.95998,1.76696
-413,337,-1.29169,-1.99487,0,0,0,0,0,0,0,-1,811,687,-1.29171,1.9949
-406,337,-1.02356,-1.89563,0,0,0,0,0,0,0,-1,818,687,-1.02357,1.89564
-399,337,-0.472839,-2.21338,0,0,0,0,0,0,0,-1,825,687,-0.472837,2.2134
-392,337,0,0,0,0,0,0,0,0,0,-1,832,687,0,0
-385,337,0,0,0,0,0,0,0,0,0,-1,839,687,0,0
-378,337,0,0,0,0,0,0,0,0,0,-1,846,687,0,0
-371,337,0,0,0,0,0,0,0,0,0,-1,853,687,0,0
-364,337,0,0,0,0,0,0,0,0,0,-1,860,687,0,0
-357,337,0,0,0,0,0,0,0,0,0,-1,867,687,0,0
-350,337,0,0,0,0,0,0,0,0,0,-1,874,687,0,0
-343,337,0,0,0,0,0,0,0,0,0,-1,881,687,0,0
-336,337,0,0,0,0,0,0,0,0,0,-1,888,687,0,0
-329,337,0,0,0,0,0,0,0,0,0,-1,895,687,0,0
-322,337,0,0,0,0,0,0,0,0,0,-1,902,687,0,0
-315,337,0,0,0,0,0,0,0,0,0,-1,909,687,0,0
-308,337,0,0,0,0,0,0,0,0,0,-1,916,687,0,0
-301,337,0,0,0,0,0,0,0,0,0,-1,923,687,0,0
-294,337,0,0,0,0,0,0,0,0,0,-1,930,687,0,0
-287,337,0,0,0,0,0,0,0,0,0,-1,937,687,0,0
-280,337,0,0,0,0,0,0,0,0,0,-1,944,687,0,0
-273,337,0,0,0,0,0,0,0,0,0,-1,951,687,0,0
-266,337,0,0,0,0,0,0,0,0,0,-1,958,687,0,0
-259,337,0,0,0,0,0,0,0,0,0,-1,965,687,0,0
-252,337,0,0,0,0,0,0,0,0,0,-1,972,687,0,0
-245,337,0,0,0,0,0,0,0,0,0,-1,979,687,0,0
-238,337,0,0,0,0,0,0,0,0,0,-1,986,687,0,0
-231,337,0,0,0,0,0,0,0,0,0,-1,993,687,0,0
-224,337,0,0,0,0,0,0,0,0,0,-1,1000,687,0,0
-217,337,0,0,0,0,0,0,0,0,0,-1,1007,687,0,0
-210,337,0,0,0,0,0,0,0,0,0,-1,1014,687,0,0
-203,337,0,0,0,0,0,0,0,0,0,-1,1021,687,0,0
-196,337,0,0,0,0,0,0,0,0,0,-1,1028,687,0,0
-189,337,0,0,0,0,0,0,0,0,0,-1,1035,687,0,0
-182,337,0,0,0,0,0,0,0,0,0,-1,1042,687,0,0
-175,337,0,0,0,0,0,0,0,0,0,-1,1049,687,0,0
-168,337,0,0,0,0,0,0,0,0,0,-1,1056,687,0,0
-161,337,0,0,0,0,0,0,0,0,0,-1,1063,687,0,0
-154,337,0,0,0,0,0,0,0,0,0,-1,1070,687,0,0
-147,337,0,0,0,0,0,0,0,0,0,-1,1077,687,0,0
-140,337,0,0,0,0,0,0,0,0,0,-1,1084,687,0,0
-133,337,0,0,0,0,0,0,0,0,0,-1,1091,687,0,0
-126,337,0,0,0,0,0,0,0,0,0,-1,1098,687,0,0
-119,337,0,0,0,0,0,0,0,0,0,-1,1105,687,0,0
-112,337,0,0,0,0,0,0,0,0,0,-1,1112,687,0,0
-105,337,0,0,0,0,0,0,0,0,0,-1,1119,687,0,0
-98,337,0,0,0,0,0,0,0,0,0,-1,1126,687,0,0
-91,337,0,0,0,0,0,0,0,0,0,-1,1133,687,0,0
-84,337,0,0,0,0,0,0,0,0,0,-1,1140,687,0,0
-77,337,0,0,0,0,0,0,0,0,0,-1,1147,687,0,0
-70,337,0,0,0,0,0,0,0,0,0,-1,1154,687,0,0
-63,337,0,0,0,0,0,0,0,0,0,-1,1161,687,0,0
-56,337,0,0,0,0,0,0,0,0,0,-1,1168,687,0,0
-49,337,0,0,0,0,0,0,0,0,0,-1,1175,687,0,0
-42,337,0,0,0,0,0,0,0,0,0,-1,1182,687,0,0
-35,337,0,0,0,0,0,0,0,0,0,-1,1189,687,0,0
-28,337,0,0,0,0,0,0,0,0,0,-1,1196,687,0,0
-21,337,0,0,0,0,0,0,0,0,0,-1,1203,687,0,0
-14,337,0,0,0,0,0,0,0,0,0,-1,1210,687,0,0
-7,337,0,0,0,0,0,0,0,0,0,-1,1217,687,0,0
0,337,0,0,0,0,0,0,0,0,0,-1,1224,687,0,0
7,337,0,0,0,0,0,0,0,0,0,-1,1231,687,0,0
14,337,0,0,0,0,0,0,0,0,0,-1,1238,687,0,0
21,337,0,0,0,0,0,0,0,0,0,-1,1245,687,0,0
28,337,0,0,0,0,0,0,0,0,0,-1,1252,687,0,0
35,337,0,0,0,0,0,0,0,0,0,-1,1259,687,0,0
42,337,0,0,0,0,0,0,0,0,0,-1,1266,687,0,0
49,337,0,0,0,0,0,0,0,0,0,-1,1273,687,0,0
56,337,0,0,0,0,0,0,0,0,0,-1,1280,687,0,0
63,337,0,0,0,0,0,0,0,0,0,-1,1287,687,0,0
70,337,0,0,0,0,0,0,0,0,0,-1,1294,687,0,0
77,337,0,0,0,0,0,0,0,0,0,-1,1301,687,0,0
84,337,0,0,0,0,0,0,0,0,0,-1,1308,687,0,0
91,337,0,0,0,0,0,0,0,0,0,-1,1315,687,0,0
98,337,0,0,0,0,0,0,0,0,0,-1,1322,687,0,0
105,337,0,0,0,0,0,0,0,0,0,-1,1329,687,0,0
112,337,0,0,0,0,0,0,0,0,0,-1,1336,687,0,0
119,337,0,0,0,0,0,0,0,0,0,-1,1343,687,0,0
126,337,0,0,0,0,0,0,0,0,0,-1,1350,687,0,0
133,337,0,0,0,0,0,0,0,0,0,-1,1357,687,0,0
140,337,0,0,0,0,0,0,0,0,0,-1,1364,687,0,0
147,337,0,0,0,0,0,0,0,0,0,-1,1371,687,0,0
154,337,0,0,0,0,0,0,0,0,0,-1,1378,687,0,0
161,337,0,0,0,0,0,0,0,0,0,-1,1385,687,0,0
168,337,0,0,0,0,0,0,0,0,0,-1,1392,687,0,0
175,337,0,0,0,0,0,0,0,0,0,-1,1399,687,0,0
182,337,0,0,0,0,0,0,0,0,0,-1,1406,687,0,0
189,337,0,0,0,0,0,0,0,0,0,-1,1413,687,0,0
196,337,0,0,0,0,0,0,0,0,0,-1,1420,687,0,0
203,337,0,0,0,0,0,0,0,0,0,-1,1427,687,0,0
210,337,0,0,0,0,0,0,0,0,0,-1,1434,687,0,0
217,337,0,0,0,0,0,0,0,0,0,-1,1441,687,0,0
224,337,0,0,0,0,0,0,0,0,0,-1,1448,687,0,0
231,337,0,0,0,0,0,0,0,0,0,-1,1455,687,0,0
238,337,0,0,0,0,0,0,0,0,0,-1,1462,687,0,0
245,337,0,0,0,0,0,0,0,0,0,-1,1469,687,0,0
252,337,0,0,0,0,0,0,0,0,0,-1,1476,687,0,0
259,337,0,0,0,0,0,0,0,0,0,-1,1483,687,0,0
266,337,0,0,0,0,0,0,0,0,0,-1,1490,687,0,0
273,337,0,0,0,0,0,0,0,0,0,-1,1497,687,0,0
280,337,0,0,0,0,0,0,0,0,0,-1,1504,687,0,0
287,337,0,0,0,0,0,0,0,0,0,-1,1511,687,0,0
294,337,0,0,0,0,0,0,0,0,0,-1,1518,687,0,0
301,337,0,0,0,0,0,0,0,0,0,-1,1525,687,0,0
308,337,0,0,0,0,0,0,0,0,0,-1,1532,687,0,0
315,337,0,0,0,0,0,0,0,0,0,-1,1539,687,0,0
322,337,0,0,0,0,0,0,0,0,0,-1,1546,687,0,0
329,337,0,0,0,0,0,0,0,0,0,-1,1553,687,0,0
336,337,0,0,0,0,0,0,0,0,0,-1,1560,687,0,0
343,337,0,0,0,0,0,0,0,0,0,-1,1567,687,0,0
350,337,0,0,0,0,0,0,0,0,0,-1,1574,687,0,0
357,337,0,0,0,0,0,0,0,0,0,-1,1581,687,0,0
364,337,0,0,0,0,0,0,0,0,0,-1,1588,687,0,0
371,337,0,0,0,0,0,0,0,0,0,-1,1595,687,0,0
378,337,0,0,0,0,0,0,0,0,0,-1,1602,687,0,0
385,337,0,0,0,0,0,0,0,0,0,-1,1609,687,0,0
392,337,0,0,0,0,0,0,0,0,0,-1,1616,687,0,0
399,337,0,0,0,0,0,0,0,0,0,-1,1623,687,0,0
406,337,0,0,0,0,0,0,0,0,0,-1,1630,687,0,0
413,337,0,0,0,0,0,0,0,0,0,-1,1637,687,0,0
420,337,0,0,0,0,0,0,0,0,0,-1,1644,687,0,0
427,337,0,0,0,0,0,0,0,0,0,-1,1651,687,0,0
434,337,0,0,0,0,0,0,0,0,0,-1,1658,687,0,0
441,337,0,0,0,0,0,0,0,0,0,-1,1665,687,0,0
448,337,0,0,0,0,0,0,0,0,0,-1,1672,687,0,0
455,337,0,0,0,0,0,0,0,0,0,-1,1679,687,0,0
462,337,0,0,0,0,0,0,0,0,0,-1,1686,687,0,0
469,337,0,0,0,0,0,0,0,0,0,-1,1693,687,0,0
476,337,0,0,0,0,0,0,0,0,0,-1,1700,687,0,0
483,337,0,0,0,0,0,0,0,0,0,-1,1707,687,0,0
490,337,0,0,0,0,0,0,0,0,0,-1,1714,687,0,0
497,337,0,0,0,0,0,0,0,0,0,-1,1721,687,0,0
504,337,0,0,0,0,0,0,0,0,0,-1,1728,687,0,0
511,337,0,0,0,0,0,0,0,0,0,-1,1735,687,0,0
518,337,18.0369,1.64581,0,0,0,0,0,0,0,-1,1742,687,18.0368,-1.64581
525,337,31.0717,2.13745,0,0,0,0,0,0,0,-1,1749,687,31.0717,-2.13747
532,337,31.5126,2.13904,0,0,0,0,0,0,0,-1,1756,687,31.5125,-2.13905
539,337,31.9684,2.15594,0,0,0,0,0,0,0,-1,1763,687,31.9684,-2.15596
546,337,32.3584,1.43719,0,0,0,0,0,0,0,-1,1770,687,32.3585,-1.43722
553,337,32.1809,1.36395,0,0,0,0,0,0,0,-1,1777,687,32.181,-1.36396
560,337,18.4053,3.62793,0,0,0,0,0,0,0,-1,1784,687,18.4052,-3.6279
567,337,11.9288,1.38776,0,0,0,0,0,0,0,-1,1791,687,11.9288,-1.38777
574,337,10.704,1.19476,0,0,0,0,0,0,0,-1,1798,687,10.704,-1.19478
581,337,8.50427,0.561768,0,0,0,0,0,0,0,-1,1805,687,8.5043,-0.561754
588,337,8.5885,-0.0536499,0,0,0,0,0,0,0,-1,1812,687,8.58844,0.0536788
595,337,13.8816,-1.70703,0,0,0,0,0,0,0,-1,1819,687,13.8816,1.70702
602,337,22.0162,-4.7793,0,0,0,0,0,0,0,-1,1826,687,22.0162,4.77931
609,337,22.0449,-4.19135,0.00357137,0.000862325,0.0014688,0.00421487,0.000218822,0.412926,0.00273989,0.0282319,1833,687,22.0449,4.19135
616,337,22.0238,-3.69208,0.00295812,0.000871639,0.00141187,0.00367036,0.000159397,0.467216,0.00239554,0.0169159,1840,687,22.0237,3.69207
623,337,22.0308,-3.20538,0.00213706,0.000796888,0.00114993,0.0027979,0.000136049,0.521591,0.00182161,0.0142153,1847,687,22.0307,3.20536
630,337,22.0338,-2.70679,0.00130993,0.000637879,0.00075216,0.00179771,0.000150098,0.575325,0.00115171,0.0182588,1854,687,22.0338,2.70678
637,337,22.0154,-2.2005,0.000237934,0.000427736,0.000235753,0.000586972,7.8698e-05,0.976747,0.000367899,0.0167184,1861,687,22.0154,2.20048
644,337,21.9917,-1.67188,-0.00104548,0.000130854,-0.000441867,0.000278341,-0.00119297,-1.24864,0.000902514,0.0112137,1868,687,21.9918,1.6719
651,337,21.9636,-1.16479,-0.00257868,-0.000158742,-0.00121627,0.000346908,-0.00308433,-1.1768,0.00218107,0.00986303,1875,687,21.9637,1.16482
658,337,21.9471,-0.649902,-0.00445379,-0.000564643,-0.00219146,0.000420603,-0.00543904,-1.14829,0.00377405,0.0115437,1882,687,21.9472,0.649886
665,337,21.9597,-0.143555,-0.00678761,-0.00109772,-0.00341881,0.000505023,-0.00839036,-1.13242,0.00576928,0.0151675,1889,687,21.9598,0.143534
672,337,21.9489,0.304382,-0.00979288,-0.00180496,-0.00503537,0.000628109,-0.0122259,-1.12068,0.00836786,0.0297818,1896,687,21.9489,-0.304356
679,337,22.1895,0.712463,0,0,0,0,0,0,0,-1,1903,687,22.1895,-0.712481
686,337,18.5614,1.68597,0,0,0,0,0,0,0,-1,1910,687,18.5614,-1.68598
693,337,16.5415,2.21411,0,0,0,0,0,0,0,-1,1917,687,16.5415,-2.2141
700,337,17.2661,2.44379,0,0,0,0,0,0,0,-1,1924,687,17.2661,-2.44378
707,337,17.3544,5.61853,0,0,0,0,0,0,0,-1,1931,687,17.3543,-5.61851
714,337,0,0,0,0,0,0,0,0,0,-1,1938,687,0,0
721,337,0,0,0,0,0,0,0,0,0,-1,1945,687,0,0
728,337,0,0,0,0,0,0,0,0,0,-1,1952,687,0,0
735,337,0,0,0,0,0,0,0,0,0,-1,1959,687,0,0
742,337,0,0,0,0,0,0,0,0,0,-1,1966,687,0,0
749,337,0,0,0,0,0,0,0,0,0,-1,1973,687,0,0
756,337,0,0,0,0,0,0,0,0,0,-1,1980,687,0,0
763,337,0,0,0,0,0,0,0,0,0,-1,1987,687,0,0
770,337,0,0,0,0,0,0,0,0,0,-1,1994,687,0,0
777,337,0,0,0,0,0,0,0,0,0,-1,2001,687,0,0
784,337,0,0,0,0,0,0,0,0,0,-1,2008,687,0,0
791,337,0,0,0,0,0,0,0,0,0,-1,2015,687,0,0
798,337,0,0,0,0,0,0,0,0,0,-1,2022,687,0,0
805,337,0,0,0,0,0,0,0,0,0,-1,2029,687,0,0
812,337,0,0,0,0,0,0,0,0,0,-1,2036,687,0,0
-700,330,0,0,0,0,0,0,0,0,0,-1,524,694,0,0
-693,330,0,0,0,0,0,0,0,0,0,-1,531,694,0,0
-686,330,0,0,0,0,0,0,0,0,0,-1,538,694,0,0
-679,330,0,0,0,0,0,0,0,0,0,-1,545,694,0,0
-672,330,0,0,0,0,0,0,0,0,0,-1,552,694,0,0
-665,330,0,0,0,0,0,0,0,0,0,-1,559,694,0,0
-658,330,0,0,0,0,0,0,0,0,0,-1,566,694,0,0
-651,330,0,0,0,0,0,0,0,0,0,-1,573,694,0,0
-644,330,0,0,0,0,0,0,0,0,0,-1,580,694,0,0
-637,330,0,0,0,0,0,0,0,0,0,-1,587,694,0,0
-630,330,0,0,0,0,0,0,0,0,0,-1,594,694,0,0
-623,330,0,0,0,0,0,0,0,0,0,-1,601,694,0,0
-616,330,0,0,0,0,0,0,0,0,0,-1,608,694,0,0
-609,330,0,0,0,0,0,0,0,0,0,-1,615,694,0,0
-602,330,0,0,0,0,0,0,0,0,0,-1,622,694,0,0
-595,330,-4.67883,1.65515,0,0,0,0,0,0,0,-1,629,694,-4.67881,-1.65515
-588,330,-8.5047,2.67346,0,0,0,0,0,0,0,-1,636,694,-8.50469,-2.67348
-581,330,-12.4227,0.947083,0,0,0,0,0,0,0,-1,643,694,-12.4227,-0.947109
-574,330,-9.02118,1.87952,0,0,0,0,0,0,0,-1,650,694,-9.02115,-1.87953
-567,330,-8.35577,0.909973,0,0,0,0,0,0,0,-1,657,694,-8.35575,-0.909945
-560,330,-13.1036,-0.584656,0,0,0,0,0,0,0,-1,664,694,-13.1035,0.584658
-553,330,-13.6552,-0.0204468,0,0,0,0,0,0,0,-1,671,694,-13.6552,0.020443
-546,330,-13.2177,-1.11224,0,0,0,0,0,0,0,-1,678,694,-13.2177,1.11226
-539,330,-13.2704,-2.02362,0,0,0,0,0,0,0,-1,685,694,-13.2704,2.02365
-532,330,-13.2723,-2.57605,-0.00232307,0.000972403,0.000944634,0.00122397,-0.00257464,1.31052,0.00223887,0.013377,692,694,-13.2723,2.57607
-525,330,-13.265,-3.10883,-0.00135535,0.000678806,0.000630173,0.000858209,-0.00153475,1.29345,0.00139986,0.0105667,699,694,-13.2649,3.10881
-518,330,-13.2452,-3.54913,-0.000553828,0.000461641,0.000401638,0.000601292,-0.000693478,1.23617,0.000748167,0.0146536,706,694,-13.2452,3.54913
-511,330,-13.2661,-4.02368,0.000143268,0.000380027,0.000190583,0.000486003,3.72916e-05,1.06331,0.000312315,0.0192987,713,694,-13.2661,4.02368
-504,330,-13.2778,-4.54211,0.000608006,0.000514183,0.000116225,0.000686431,0.000435759,0.593584,0.000401084,0.0176716,720,694,-13.2778,4.54212
-497,330,-13.2828,-5.00659,0.0007462,0.00114208,0.000183585,0.00121411,0.000674171,1.1969,0.000702396,0.0138319,727,694,-13.2828,5.00658
-490,330,-13.2982,-5.48755,0.000655439,0.0020272,0.000368611,0.00211997,0.000562663,1.32423,0.00126808,0.0141519,734,694,-13.2982,5.48756
-483,330,-13.3091,-6.00128,0.00024915,0.00342701,0.000736852,0.00358955,8.66089e-05,1.35369,0.00236469,0.014207,741,694,-13.3091,6.00125
-476,330,-13.3008,-6.50171,-0.000727203,0.0057038,0.00126213,0.00594264,-0.000966037,1.38378,0.00431993,0.0379327,748,694,-13.3008,6.50173
-469,330,-13.2086,-7.09137,0,0,0,0,0,0,0,-1,755,694,-13.2085,7.09137
-462,330,-7.26733,-3.84833,0,0,0,0,0,0,0,-1,762,694,-7.26731,3.84832
-455,330,-5.04254,-1.79303,0,0,0,0,0,0,0,-1,769,694,-5.04252,1.79305
-448,330,-4.89886,-1.66156,0,0,0,0,0,0,0,-1,776,694,-4.89886,1.66157
-441,330,-5.30676,-2.34045,0,0,0,0,0,0,0,-1,783,694,-5.30679,2.34048
-434,330,-7.20428,1.00024,0,0,0,0,0,0,0,-1,790,694,-7.20431,-1.00027
-427,330,-16.0428,2.89258,0,0,0,0,0,0,0,-1,797,694,-16.0428,-2.89259
-420,330,-29.0331,0.271606,0,0,0,0,0,0,0,-1,804,694,-29.0331,-0.27158
-413,330,-29.0896,0.56366,0,0,0,0,0,0,0,-1,811,694,-29.0896,-0.563671
-406,330,-1.65375,-1.74371,0,0,0,0,0,0,0,-1,818,694,-1.65375,1.74371
-399,330,0,0,0,0,0,0,0,0,0,-1,825,694,0,0
-392,330,0,0,0,0,0,0,0,0,0,-1,832,694,0,0
-385,330,0,0,0,0,0,0,0,0,0,-1,839,694,0,0
-378,330,0,0,0,0,0,0,0,0,0,-1,846,694,0,0
-371,330,0,0,0,0,0,0,0,0,0,-1,853,694,0,0
-364,330,0,0,0,0,0,0,0,0,0,-1,860,694,0,0
-357,330,0,0,0,0,0,0,0,0,0,-1,867,694,0,0
-350,330,0,0,0,0,0,0,0,0,0,-1,874,694,0,0
-343,330,0,0,0,0,0,0,0,0,0,-1,881,694,0,0
-336,330,0,0,0,0,0,0,0,0,0,-1,888,694,0,0
-329,330,0,0,0,0,0,0,0,0,0,-1,895,694,0,0
-322,330,0,0,0,0,0,0,0,0,0,-1,902,694,0,0
-315,330,0,0,0,0,0,0,0,0,0,-1,909,694,0,0
-308,330,0,0,0,0,0,0,0,0,0,-1,916,694,0,0
-301,330,0,0,0,0,0,0,0,0,0,-1,923,694,0,0
-294,330,0,0,0,0,0,0,0,0,0,-1,930,694,0,0
-287,330,0,0,0,0,0,0,0,0,0,-1,937,694,0,0
-280,330,0,0,0,0,0,0,0,0,0,-1,944,694,0,0
-273,330,0,0,0,0,0,0,0,0,0,-1,951,694,0,0
-266,330,0,0,0,0,0,0,0,0,0,-1,958,694,0,0
-259,330,0,0,0,0,0,0,0,0,0,-1,965,694,0,0
-252,330,0,0,0,0,0,0,0,0,0,-1,972,694,0,0
-245,330,0,0,0,0,0,0,0,0,0,-1,979,694,0,0
-238,330,0,0,0,0,0,0,0,0,0,-1,986,694,0,0
-231,330,0,0,0,0,0,0,0,0,0,-1,993,694,0,0
-224,330,0,0,0,0,0,0,0,0,0,-1,1000,694,0,0
-217,330,0,0,0,0,0,0,0,0,0,-1,1007,694,0,0
-210,330,0,0,0,0,0,0,0,0,0,-1,1014,694,0,0
-203,330,0,0,0,0,0,0,0,0,0,-1,1021,694,0,0
-196,330,0,0,0,0,0,0,0,0,0,-1,1028,694,0,0
-189,330,0,0,0,0,0,0,0,0,0,-1,1035,694,0,0
-182,330,0,0,0,0,0,0,0,0,0,-1,1042,694,0,0
-175,330,0,0,0,0,0,0,0,0,0,-1,1049,694,0,0
-168,330,0,0,0,0,0,0,0,0,0,-1,1056,694,0,0
-161,330,0,0,0,0,0,0,0,0,0,-1,1063,694,0,0
-154,330,0,0,0,0,0,0,0,0,0,-1,1070,694,0,0
-147,330,0,0,0,0,0,0,0,0,0,-1,1077,694,0,0
-140,330,0,0,0,0,0,0,0,0,0,-1,1084,694,0,0
-133,330,0,0,0,0,0,0,0,0,0,-1,1091,694,0,0
-126,330,0,0,0,0,0,0,0,0,0,-1,1098,694,0,0
-119,330,0,0,0,0,0,0,0,0,0,-1,1105,694,0,0
-112,330,0,0,0,0,0,0,0,0,0,-1,1112,694,0,0
-105,330,0,0,0,0,0,0,0,0,0,-1,1119,694,0,0
-98,330,0,0,0,0,0,0,0,0,0,-1,1126,694,0,0
-91,330,0,0,0,0,0,0,0,0,0,-1,1133,694,0,0
-84,330,0,0,0,0,0,0,0,0,0,-1,1140,694,0,0
-77,330,0,0,0,0,0,0,0,0,0,-1,1147,694,0,0
-70,330,0,0,0,0,0,0,0,0,0,-1,1154,694,0,0
-63,330,0,0,0,0,0,0,0,0,0,-1,1161,694,0,0
-56,330,0,0,0,0,0,0,0,0,0,-1,1168,694,0,0
-49,330,0,0,0,0,0,0,0,0,0,-1,1175,694,0,0
-42,330,0,0,0,0,0,0,0,0,0,-1,1182,694,0,0
-35,330,0,0,0,0,0,0,0,0,0,-1,1189,694,0,0
-28,330,0,0,0,0,0,0,0,0,0,-1,1196,694,0,0
-21,330,0,0,0,0,0,0,0,0,0,-1,1203,694,0,0
-14,330,0,0,0,0,0,0,0,0,0,-1,1210,694,0,0
-7,330,0,0,0,0,0,0,0,0,0,-1,1217,694,0,0
0,330,0,0,0,0,0,0,0,0,0,-1,1224,694,0,0
7,330,0,0,0,0,0,0,0,0,0,-1,1231,694,0,0
14,330,0,0,0,0,0,0,0,0,0,-1,1238,694,0,0
21,330,0,0,0,0,0,0,0,0,0,-1,1245,694,0,0
28,330,0,0,0,0,0,0,0,0,0,-1,1252,694,0,0
35,330,0,0,0,0,0,0,0,0,0,-1,1259,694,0,0
42,330,0,0,0,0,0,0,0,0,0,-1,1266,694,0,0
49,330,0,0,0,0,0,0,0,0,0,-1,1273,694,0,0
56,330,0,0,0,0,0,0,0,0,0,-1,1280,694,0,0
63,330,0,0,0,0,0,0,0,0,0,-1,1287,694,0,0
70,330,0,0,0,0,0,0,0,0,0,-1,1294,694,0,0
77,330,0,0,0,0,0,0,0,0,0,-1,1301,694,0,0
84,330,0,0,0,0,0,0,0,0,0,-1,1308,694,0,0
91,330,0,0,0,0,0,0,0,0,0,-1,1315,694,0,0
98,330,0,0,0,0,0,0,0,0,0,-1,1322,694,0,0
105,330,0,0,0,0,0,0,0,0,0,-1,1329,694,0,0
112,330,0,0,0,0,0,0,0,0,0,-1,1336,694,0,0
119,330,0,0,0,0,0,0,0,0,0,-1,1343,694,0,0
126,330,0,0,0,0,0,0,0,0,0,-1,1350,694,0,0
133,330,0,0,0,0,0,0,0,0,0,-1,1357,694,0,0
140,330,0,0,0,0,0,0,0,0,0,-1,1364,694,0,0
147,330,0,0,0,0,0,0,0,0,0,-1,1371,694,0,0
154,330,0,0,0,0,0,0,0,0,0,-1,1378,694,0,0
161,330,0,0,0,0,0,0,0,0,0,-1,1385,694,0,0
168,330,0,0,0,0,0,0,0,0,0,-1,1392,694,0,0
175,330,0,0,0,0,0,0,0,0,0,-1,1399,694,0,0
182,330,0,0,0,0,0,0,0,0,0,-1,1406,694,0,0
189,330,0,0,0,0,0,0,0,0,0,-1,1413,694,0,0
196,330,0,0,0,0,0,0,0,0,0,-1,1420,694,0,0
203,330,0,0,0,0,0,0,0,0,0,-1,1427,694,0,0
210,330,0,0,0,0,0,0,0,0,0,-1,1434,694,0,0
217,330,0,0,0,0,0,0,0,0,0,-1,1441,694,0,0
224,330,0,0,0,0,0,0,0,0,0,-1,1448,694,0,0
231,330,0,0,0,0,0,0,0,0,0,-1,1455,694,0,0
238,330,0,0,0,0,0,0,0,0,0,-1,1462,694,0,0
245,330,0,0,0,0,0,0,0,0,0,-1,1469,694,0,0
252,330,0,0,0,0,0,0,0,0,0,-1,1476,694,0,0
259,330,0,0,0,0,0,0,0,0,0,-1,1483,694,0,0
266,330,0,0,0,0,0,0,0,0,0,-1,1490,694,0,0
273,330,0,0,0,0,0,0,0,0,0,-1,1497,694,0,0
280,330,0,0,0,0,0,0,0,0,0,-1,1504,694,0,0
287,330,0,0,0,0,0,0,0,0,0,-1,1511,694,0,0
294,330,0,0,0,0,0,0,0,0,0,-1,1518,694,0,0
301,330,0,0,0,0,0,0,0,0,0,-1,1525,694,0,0
308,330,0,0,0,0,0,0,0,0,0,-1,1532,694,0,0
315,330,0,0,0,0,0,0,0,0,0,-1,1539,694,0,0
322,330,0,0,0,0,0,0,0,0,0,-1,1546,694,0,0
329,330,0,0,0,0,0,0,0,0,0,-1,1553,694,0,0
336,330,0,0,0,0,0,0,0,0,0,-1,1560,694,0,0
343,330,0,0,0,0,0,0,0,0,0,-1,1567,694,0,0
350,330,0,0,0,0,0,0,0,0,0,-1,1574,694,0,0
357,330,0,0,0,0,0,0,0,0,0,-1,1581,694,0,0
364,330,0,0,0,0,0,0,0,0,0,-1,1588,694,0,0
371,330,0,0,0,0,0,0,0,0,0,-1,1595,694,0,0
378,330,0,0,0,0,0,0,0,0,0,-1,1602,694,0,0
385,330,0,0,0,0,0,0,0,0,0,-1,1609,694,0,0
392,330,0,0,0,0,0,0,0,0,0,-1,1616,694,0,0
399,330,0,0,0,0,0,0,0,0,0,-1,1623,694,0,0
406,330,0,0,0,0,0,0,0,0,0,-1,1630,694,0,0
413,330,0,0,0,0,0,0,0,0,0,-1,1637,694,0,0
420,330,0,0,0,0,0,0,0,0,0,-1,1644,694,0,0
427,330,0,0,0,0,0,0,0,0,0,-1,1651,694,0,0
434,330,0,0,0,0,0,0,0,0,0,-1,1658,694,0,0
441,330,0,0,0,0,0,0,0,0,0,-1,1665,694,0,0
448,330,0,0,0,0,0,0,0,0,0,-1,1672,694,0,0
455,330,0,0,0,0,0,0,0,0,0,-1,1679,694,0,0
462,330,0,0,0,0,0,0,0,0,0,-1,1686,694,0,0
469,330,0,0,0,0,0,0,0,0,0,-1,1693,694,0,0
476,330,0,0,0,0,0,0,0,0,0,-1,1700,694,0,0
483,330,0,0,0,0,0,0,0,0,0,-1,1707,694,0,0
490,330,0,0,0,0,0,0,0,0,0,-1,1714,694,0,0
497,330,0,0,0,0,0,0,0,0,0,-1,1721,694,0,0
504,330,0,0,0,0,0,0,0,0,0,-1,1728,694,0,0
511,330,0,0,0,0,0,0,0,0,0,-1,1735,694,0,0
518,330,0,0,0,0,0,0,0,0,0,-1,1742,694,0,0
525,330,30.6694,0.69519,0,0,0,0,0,0,0,-1,1749,694,30.6694,-0.695206
532,330,30.9469,1.32501,0,0,0,0,0,0,0,-1,1756,694,30.9469,-1.32501
539,330,31.5155,1.62506,0,0,0,0,0,0,0,-1,1763,694,31.5155,-1.62507
546,330,31.4187,1.85651,0,0,0,0,0,0,0,-1,1770,694,31.4187,-1.85651
553,330,31.8452,1.81476,0,0,0,0,0,0,0,-1,1777,694,31.8452,-1.81475
560,330,32.2401,2.43225,0,0,0,0,0,0,0,-1,1784,694,32.2401,-2.43227
567,330,18.0321,3.98578,0,0,0,0,0,0,0,-1,1791,694,18.0321,-3.98576
574,330,12.0454,2.1662,0,0,0,0,0,0,0,-1,1798,694,12.0455,-2.16618
581,330,11.4215,4.50836,0,0,0,0,0,0,0,-1,1805,694,11.4215,-4.50837
588,330,6.45667,-0.0630493,0,0,0,0,0,0,0,-1,1812,694,6.45661,0.0630695
595,330,8.23193,-0.258484,0,0,0,0,0,0,0,-1,1819,694,8.23188,0.258459
602,330,22.3671,-4.85382,0,0,0,0,0,0,0,-1,1826,694,22.3671,4.85381
609,330,22.48,-4.22931,0.00388781,0.000943771,0.00164392,0.00462245,0.000209136,0.420256,0.00301434,0.0435617,1833,694,22.4799,4.2293
616,330,22.5431,-3.69385,0.00325443,0.000861872,0.0015843,0.00404337,7.29305e-05,0.462026,0.0026716,0.0115352,1840,694,22.5431,3.69386
623,330,22.5284,-3.19482,0.0023804,0.000704027,0.0012581,0.00305396,3.04683e-05,0.491547,0.00202589,0.0125381,1847,694,22.5284,3.19485
630,330,22.5317,-2.67548,0.00157805,0.000500471,0.00083049,0.00202922,4.93077e-05,0.497646,0.00133668,0.0127931,1854,694,22.5317,2.67546
637,330,22.5288,-2.17657,0.000524044,0.000292227,0.000317761,0.000746377,6.98944e-05,0.610514,0.000476,0.0121827,1861,694,22.5288,2.17658
644,330,22.5051,-1.66455,-0.00072677,4.13748e-05,-0.000311123,0.000151579,-0.000836974,-1.23037,0.000614769,0.00809476,1868,694,22.5051,1.66454
651,330,22.4852,-1.14429,-0.00217727,-0.000136285,-0.00098269,0.000259939,-0.00257349,-1.18753,0.00180855,0.0117154,1875,694,22.4852,1.14426
658,330,22.4491,-0.63623,-0.00390436,-0.000369866,-0.0017736,0.000366649,-0.00464087,-1.1772,0.00322309,0.0122289,1882,694,22.4491,0.636216
665,330,22.4351,-0.121155,-0.00599497,-0.000641403,-0.00272148,0.000499093,-0.00713547,-1.17396,0.00493177,0.010598,1889,694,22.435,0.121156
672,330,22.4884,0.418457,-0.0086034,-0.000946645,-0.00388717,0.000680853,-0.0102309,-1.17429,0.0070585,0.0224875,1896,694,22.4884,-0.418436
679,330,22.1686,0.862793,-0.0120943,-0.0013255,-0.00536197,0.000888951,-0.0143087,-1.17914,0.00984885,0.0378552,1903,694,22.1685,-0.862792
686,330,21.8807,1.42206,0,0,0,0,0,0,0,-1,1910,694,21.8807,-1.42206
693,330,17.3999,2.5976,0,0,0,0,0,0,0,-1,1917,694,17.4,-2.59759
700,330,17.1072,4.13,0,0,0,0,0,0,0,-1,1924,694,17.1071,-4.13002
707,330,16.663,4.88672,0,0,0,0,0,0,0,-1,1931,694,16.6629,-4.88673
714,330,16.5454,5.80896,0,0,0,0,0,0,0,-1,1938,694,16.5454,-5.80899
721,330,0,0,0,0,0,0,0,0,0,-1,1945,694,0,0
728,330,0,0,0,0,0,0,0,0,0,-1,1952,694,0,0
735,330,0,0,0,0,0,0,0,0,0,-1,1959,694,0,0
742,330,0,0,0,0,0,0,0,0,0,-1,1966,694,0,0
749,330,0,0,0,0,0,0,0,0,0,-1,1973,694,0,0
756,330,0,0,0,0,0,0,0,0,0,-1,1980,694,0,0
763,330,0,0,0,0,0,0,0,0,0,-1,1987,694,0,0
770,330,0,0,0,0,0,0,0,0,0,-1,1994,694,0,0
777,330,0,0,0,0,0,0,0,0,0,-1,2001,694,0,0
784,330,0,0,0,0,0,0,0,0,0,-1,2008,694,0,0
791,330,0,0,0,0,0,0,0,0,0,-1,2015,694,0,0
798,330,0,0,0,0,0,0,0,0,0,-1,2022,694,0,0
805,330,0,0,0,0,0,0,0,0,0,-1,2029,694,0,0
812,330,0,0,0,0,0,0,0,0,0,-1,2036,694,0,0
-700,323,0,0,0,0,0,0,0,0,0,-1,524,701,0,0
-693,323,0,0,0,0,0,0,0,0,0,-1,531,701,0,0
-686,323,0,0,0,0,0,0,0,0,0,-1,538,701,0,0
-679,323,0,0,0,0,0,0,0,0,0,-1,545,701,0,0
-672,323,0,0,0,0,0,0,0,0,0,-1,552,701,0,0
-665,323,0,0,0,0,0,0,0,0,0,-1,559,701,0,0
-658,323,0,0,0,0,0,0,0,0,0,-1,566,701,0,0
-651,323,0,0,0,0,0,0,0,0,0,-1,573,701,0,0
-644,323,0,0,0,0,0,0,0,0,0,-1,580,701,0,0
-637,323,0,0,0,0,0,0,0,0,0,-1,587,701,0,0
-630,323,0,0,0,0,0,0,0,0,0,-1,594,701,0,0
-623,323,0,0,0,0,0,0,0,0,0,-1,601,701,0,0
-616,323,0,0,0,0,0,0,0,0,0,-1,608,701,0,0
-609,323,0,0,0,0,0,0,0,0,0,-1,615,701,0,0
-602,323,-4.15833,2.12256,0,0,0,0,0,0,0,-1,622,701,-4.1583,-2.12257
-595,323,-4.052,1.79156,0,0,0,0,0,0,0,-1,629,701,-4.05198,-1.79158
-588,323,-4.07019,1.94543,0,0,0,0,0,0,0,-1,636,701,-4.07019,-1.94542
-581,323,-6.63727,0.562805,0,0,0,0,0,0,0,-1,643,701,-6.63728,-0.56279
-574,323,-6.15887,0.426697,0,0,0,0,0,0,0,-1,650,701,-6.15887,-0.426727
-567,323,-10.0015,0.0371094,0,0,0,0,0,0,0,-1,657,701,-10.0015,-0.037126
-560,323,-13.8231,-0.920044,0,0,0,0,0,0,0,-1,664,701,-13.823,0.920016
-553,323,-13.6927,-1.30896,-0.00611927,0.00136836,0.00302654,0.0024387,-0.00718961,1.23087,0.00578008,0.0461134,671,701,-13.6927,1.30894
-546,323,-13.6872,-1.6098,-0.00425512,0.000963947,0.00206763,0.00168379,-0.00497496,1.23577,0.0039979,0.0205454,678,701,-13.6872,1.60978
-539,323,-13.6866,-2.03381,-0.00296124,0.000748207,0.00150764,0.00128367,-0.0034967,1.22953,0.00285683,0.0174002,685,701,-13.6866,2.03379
-532,323,-13.731,-2.55237,-0.00189834,0.000547406,0.00105378,0.000938803,-0.00228974,1.21517,0.00191762,0.0104397,692,701,-13.7309,2.55237
-525,323,-13.7515,-3.06543,-0.00101733,0.000319956,0.000754167,0.000659207,-0.00135659,1.14808,0.00118681,0.0077731,699,701,-13.7515,3.06545
-518,323,-13.7338,-3.51855,-0.000287405,0.000233743,0.000479135,0.000518577,-0.000572239,1.03445,0.000630037,0.0102958,706,701,-13.7338,3.51855
-511,323,-13.7413,-4.00336,0.00034504,0.000248599,0.000221406,0.000523416,7.02234e-05,0.678177,0.000328051,0.0139113,713,701,-13.7412,4.00336
-504,323,-13.7667,-4.51526,0.000653287,0.000526456,0.000314741,0.000910937,0.000268806,0.685986,0.000540452,0.0144851,720,701,-13.7666,4.51529
-497,323,-13.7789,-4.9696,0.000584272,0.00140051,0.000720894,0.00182079,0.000163989,1.04297,0.00116306,0.0126011,727,701,-13.7789,4.96962
-490,323,-13.8193,-5.45087,0.000334968,0.00249721,0.00133891,0.00313699,-0.000304817,1.12503,0.00219998,0.0139425,734,701,-13.8193,5.45084
-483,323,-13.8079,-5.94281,-0.000224255,0.00413357,0.00230584,0.00512712,-0.00121781,1.16395,0.00388812,0.0245127,741,701,-13.8079,5.94279
-476,323,-13.733,-6.53998,0,0,0,0,0,0,0,-1,748,701,-13.733,6.53999
-469,323,-8.33301,-3.64001,0,0,0,0,0,0,0,-1,755,701,-8.33298,3.64
-462,323,-5.29431,-1.45697,0,0,0,0,0,0,0,-1,762,701,-5.29431,1.45699
-455,323,-5.0658,-1.36639,0,0,0,0,0,0,0,-1,769,701,-5.06578,1.3664
-448,323,-4.91608,-1.59601,0,0,0,0,0,0,0,-1,776,701,-4.91606,1.59604
-441,323,-14.4006,0.535217,0,0,0,0,0,0,0,-1,783,701,-14.4006,-0.535203
-434,323,-15.3158,2.479,0,0,0,0,0,0,0,-1,790,701,-15.3158,-2.47898
-427,323,-28.3923,1.16797,0,0,0,0,0,0,0,-1,797,701,-28.3923,-1.16796
-420,323,-28.7292,1.09302,0,0,0,0,0,0,0,-1,804,701,-28.7292,-1.09304
-413,323,-28.7955,1.22418,0,0,0,0,0,0,0,-1,811,701,-28.7956,-1.22419
-406,323,0,0,0,0,0,0,0,0,0,-1,818,701,0,0
-399,323,0,0,0,0,0,0,0,0,0,-1,825,701,0,0
-392,323,0,0,0,0,0,0,0,0,0,-1,832,701,0,0
-385,323,0,0,0,0,0,0,0,0,0,-1,839,701,0,0
-378,323,0,0,0,0,0,0,0,0,0,-1,846,701,0,0
-371,323,0,0,0,0,0,0,0,0,0,-1,853,701,0,0
-364,323,0,0,0,0,0,0,0,0,0,-1,860,701,0,0
-357,323,0,0,0,0,0,0,0,0,0,-1,867,701,0,0
-350,323,0,0,0,0,0,0,0,0,0,-1,874,701,0,0
-343,323,0,0,0,0,0,0,0,0,0,-1,881,701,0,0
-336,323,0,0,0,0,0,0,0,0,0,-1,888,701,0,0
-329,323,0,0,0,0,0,0,0,0,0,-1,895,701,0,0
-322,323,0,0,0,0,0,0,0,0,0,-1,902,701,0,0
-315,323,0,0,0,0,0,0,0,0,0,-1,909,701,0,0
-308,323,0,0,0,0,0,0,0,0,0,-1,916,701,0,0
-301,323,0,0,0,0,0,0,0,0,0,-1,923,701,0,0
-294,323,0,0,0,0,0,0,0,0,0,-1,930,701,0,0
-287,323,0,0,0,0,0,0,0,0,0,-1,937,701,0,0
-280,323,0,0,0,0,0,0,0,0,0,-1,944,701,0,0
-273,323,0,0,0,0,0,0,0,0,0,-1,951,701,0,0
-266,323,0,0,0,0,0,0,0,0,0,-1,958,701,0,0
-259,323,0,0,0,0,0,0,0,0,0,-1,965,701,0,0
-252,323,0,0,0,0,0,0,0,0,0,-1,972,701,0,0
-245,323,0,0,0,0,0,0,0,0,0,-1,979,701,0,0
-238,323,0,0,0,0,0,0,0,0,0,-1,986,701,0,0
-231,323,0,0,0,0,0,0,0,0,0,-1,993,701,0,0
-224,323,0,0,0,0,0,0,0,0,0,-1,1000,701,0,0
-217,323,0,0,0,0,0,0,0,0,0,-1,1007,701,0,0
-210,323,0,0,0,0,0,0,0,0,0,-1,1014,701,0,0
-203,323,0,0,0,0,0,0,0,0,0,-1,1021,701,0,0
-196,323,0,0,0,0,0,0,0,0,0,-1,1028,701,0,0
-189,323,0,0,0,0,0,0,0,0,0,-1,1035,701,0,0
-182,323,0,0,0,0,0,0,0,0,0,-1,1042,701,0,0
-175,323,0,0,0,0,0,0,0,0,0,-1,1049,701,0,0
-168,323,0,0,0,0,0,0,0,0,0,-1,1056,701,0,0
-161,323,0,0,0,0,0,0,0,0,0,-1,1063,701,0,0
-154,323,0,0,0,0,0,0,0,0,0,-1,1070,701,0,0
-147,323,0,0,0,0,0,0,0,0,0,-1,1077,701,0,0
-140,323,0,0,0,0,0,0,0,0,0,-1,1084,701,0,0
-133,323,0,0,0,0,0,0,0,0,0,-1,1091,701,0,0
-126,323,0,0,0,0,0,0,0,0,0,-1,1098,701,0,0
-119,323,0,0,0,0,0,0,0,0,0,-1,1105,701,0,0
-112,323,0,0,0,0,0,0,0,0,0,-1,1112,701,0,0
-105,323,0,0,0,0,0,0,0,0,0,-1,1119,701,0,0
-98,323,0,0,0,0,0,0,0,0,0,-1,1126,701,0,0
-91,323,0,0,0,0,0,0,0,0,0,-1,1133,701,0,0
-84,323,0,0,0,0,0,0,0,0,0,-1,1140,701,0,0
-77,323,0,0,0,0,0,0,0,0,0,-1,1147,701,0,0
-70,323,0,0,0,0,0,0,0,0,0,-1,1154,701,0,0
-63,323,0,0,0,0,0,0,0,0,0,-1,1161,701,0,0
-56,323,0,0,0,0,0,0,0,0,0,-1,1168,701,0,0
-49,323,0,0,0,0,0,0,0,0,0,-1,1175,701,0,0
-42,323,0,0,0,0,0,0,0,0,0,-1,1182,701,0,0
-35,323,0,0,0,0,0,0,0,0,0,-1,1189,701,0,0
-28,323,0,0,0,0,0,0,0,0,0,-1,1196,701,0,0
-21,323,0,0,0,0,0,0,0,0,0,-1,1203,701,0,0
-14,323,0,0,0,0,0,0,0,0,0,-1,1210,701,0,0
-7,323,0,0,0,0,0,0,0,0,0,-1,1217,701,0,0
0,323,0,0,0,0,0,0,0,0,0,-1,1224,701,0,0
7,323,0,0,0,0,0,0,0,0,0,-1,1231,701,0,0
14,323,0,0,0,0,0,0,0,0,0,-1,1238,701,0,0
21,323,0,0,0,0,0,0,0,0,0,-1,1245,701,0,0
28,323,0,0,0,0,0,0,0,0,0,-1,1252,701,0,0
35,323,0,0,0,0,0,0,0,0,0,-1,1259,701,0,0
42,323,0,0,0,0,0,0,0,0,0,-1,1266,701,0,0
49,323,0,0,0,0,0,0,0,0,0,-1,1273,701,0,0
56,323,0,0,0,0,0,0,0,0,0,-1,1280,701,0,0
63,323,0,0,0,0,0,0,0,0,0,-1,1287,701,0,0
70,323,0,0,0,0,0,0,0,0,0,-1,1294,701,0,0
77,323,0,0,0,0,0,0,0,0,0,-1,1301,701,0,0
84,323,0,0,0,0,0,0,0,0,0,-1,1308,701,0,0
91,323,0,0,0,0,0,0,0,0,0,-1,1315,701,0,0
98,323,0,0,0,0,0,0,0,0,0,-1,1322,701,0,0
105,323,0,0,0,0,0,0,0,0,0,-1,1329,701,0,0
112,323,0,0,0,0,0,0,0,0,0,-1,1336,701,0,0
119,323,0,0,0,0,0,0,0,0,0,-1,1343,701,0,0
126,323,0,0,0,0,0,0,0,0,0,-1,1350,701,0,0
133,323,0,0,0,0,0,0,0,0,0,-1,1357,701,0,0
140,323,0,0,0,0,0,0,0,0,0,-1,1364,701,0,0
147,323,0,0,0,0,0,0,0,0,0,-1,1371,701,0,0
154,323,0,0,0,0,0,0,0,0,0,-1,1378,701,0,0
161,323,0,0,0,0,0,0,0,0,0,-1,1385,701,0,0
168,323,0,0,0,0,0,0,0,0,0,-1,1392,701,0,0
175,323,0,0,0,0,0,0,0,0,0,-1,1399,701,0,0
182,323,0,0,0,0,0,0,0,0,0,-1,1406,701,0,0
189,323,0,0,0,0,0,0,0,0,0,-1,1413,701,0,0
196,323,0,0,0,0,0,0,0,0,0,-1,1420,701,0,0
203,323,0,0,0,0,0,0,0,0,0,-1,1427,701,0,0
210,323,0,0,0,0,0,0,0,0,0,-1,1434,701,0,0
217,323,0,0,0,0,0,0,0,0,0,-1,1441,701,0,0
224,323,0,0,0,0,0,0,0,0,0,-1,1448,701,0,0
231,323,0,0,0,0,0,0,0,0,0,-1,1455,701,0,0
238,323,0,0,0,0,0,0,0,0,0,-1,1462,701,0,0
245,323,0,0,0,0,0,0,0,0,0,-1,1469,701,0,0
252,323,0,0,0,0,0,0,0,0,0,-1,1476,701,0,0
259,323,0,0,0,0,0,0,0,0,0,-1,1483,701,0,0
266,323,0,0,0,0,0,0,0,0,0,-1,1490,701,0,0
273,323,0,0,0,0,0,0,0,0,0,-1,1497,701,0,0
280,323,0,0,0,0,0,0,0,0,0,-1,1504,701,0,0
287,323,0,0,0,0,0,0,0,0,0,-1,1511,701,0,0
294,323,0,0,0,0,0,0,0,0,0,-1,1518,701,0,0
301,323,0,0,0,0,0,0,0,0,0,-1,1525,701,0,0
308,323,0,0,0,0,0,0,0,0,0,-1,1532,701,0,0
315,323,0,0,0,0,0,0,0,0,0,-1,1539,701,0,0
322,323,0,0,0,0,0,0,0,0,0,-1,1546,701,0,0
329,323,0,0,0,0,0,0,0,0,0,-1,1553,701,0,0
336,323,0,0,0,0,0,0,0,0,0,-1,1560,701,0,0
343,323,0,0,0,0,0,0,0,0,0,-1,1567,701,0,0
350,323,0,0,0,0,0,0,0,0,0,-1,1574,701,0,0
357,323,0,0,0,0,0,0,0,0,0,-1,1581,701,0,0
364,323,0,0,0,0,0,0,0,0,0,-1,1588,701,0,0
371,323,0,0,0,0,0,0,0,0,0,-1,1595,701,0,0
378,323,0,0,0,0,0,0,0,0,0,-1,1602,701,0,0
385,323,0,0,0,0,0,0,0,0,0,-1,1609,701,0,0
392,323,0,0,0,0,0,0,0,0,0,-1,1616,701,0,0
399,323,0,0,0,0,0,0,0,0,0,-1,1623,701,0,0
406,323,0,0,0,0,0,0,0,0,0,-1,1630,701,0,0
413,323,0,0,0,0,0,0,0,0,0,-1,1637,701,0,0
420,323,0,0,0,0,0,0,0,0,0,-1,1644,701,0,0
427,323,0,0,0,0,0,0,0,0,0,-1,1651,701,0,0
434,323,0,0,0,0,0,0,0,0,0,-1,1658,701,0,0
441,323,0,0,0,0,0,0,0,0,0,-1,1665,701,0,0
448,323,0,0,0,0,0,0,0,0,0,-1,1672,701,0,0
455,323,0,0,0,0,0,0,0,0,0,-1,1679,701,0,0
462,323,0,0,0,0,0,0,0,0,0,-1,1686,701,0,0
469,323,0,0,0,0,0,0,0,0,0,-1,1693,701,0,0
476,323,0,0,0,0,0,0,0,0,0,-1,1700,701,0,0
483,323,0,0,0,0,0,0,0,0,0,-1,1707,701,0,0
490,323,0,0,0,0,0,0,0,0,0,-1,1714,701,0,0
497,323,0,0,0,0,0,0,0,0,0,-1,1721,701,0,0
504,323,0,0,0,0,0,0,0,0,0,-1,1728,701,0,0
511,323,0,0,0,0,0,0,0,0,0,-1,1735,701,0,0
518,323,0,0,0,0,0,0,0,0,0,-1,1742,701,0,0
525,323,0,0,0,0,0,0,0,0,0,-1,1749,701,0,0
532,323,33.6193,1.69446,0,0,0,0,0,0,0,-1,1756,701,33.6193,-1.69444
539,323,32.2698,2.44037,0,0,0,0,0,0,0,-1,1763,701,32.2697,-2.44036
546,323,31.1644,3.9444,0,0,0,0,0,0,0,-1,1770,701,31.1644,-3.94438
553,323,30.2488,5.8775,0,0,0,0,0,0,0,-1,1777,701,30.2487,-5.87752
560,323,40.6711,1.25153,0,0,0,0,0,0,0,-1,1784,701,40.6711,-1.25154
567,323,42.1637,2.01208,0,0,0,0,0,0,0,-1,1791,701,42.1637,-2.01207
574,323,12.514,5.89685,0,0,0,0,0,0,0,-1,1798,701,12.5141,-5.89683
581,323,11.821,5.3476,0,0,0,0,0,0,0,-1,1805,701,11.821,-5.34762
588,323,11.7933,7.00818,0,0,0,0,0,0,0,-1,1812,701,11.7933,-7.00819
595,323,6.67847,0.06604,0,0,0,0,0,0,0,-1,1819,701,6.67841,-0.0660418
602,323,11.2856,-0.595459,0,0,0,0,0,0,0,-1,1826,701,11.2856,0.595433
609,323,23.0563,-4.16992,0,0,0,0,0,0,0,-1,1833,701,23.0563,4.16992
616,323,23.0656,-3.66376,0.00410098,0.00278108,0.000506419,0.0042729,0.00260917,0.327259,0.00248701,0.0151387,1840,701,23.0655,3.66376
623,323,23.0427,-3.15552,0.0029673,0.00166737,0.000673895,0.0032536,0.00138108,0.401736,0.0018856,0.0134494,1847,701,23.0427,3.15552
630,323,23.0215,-2.63214,0.00205479,0.000926607,0.000575231,0.00229636,0.000685037,0.397588,0.00136128,0.0133624,1854,701,23.0215,2.63211
637,323,23.0306,-2.14417,0.000973537,0.000374209,0.000325932,0.00111663,0.00023112,0.413681,0.000680586,0.00995956,1861,701,23.0307,2.14414
644,323,23.0239,-1.65466,-0.000260785,5.79638e-05,-0.000132862,0.00010608,-0.000308902,-1.22333,0.000248946,0.0077662,1868,701,23.0239,1.65467
651,323,23.0109,-1.12543,-0.00162574,-5.71439e-05,-0.000668568,0.000189143,-0.00187203,-1.21784,0.00131561,0.0100126,1875,701,23.0108,1.12544
658,323,22.9513,-0.599365,-0.0032045,-0.000128473,-0.00129686,0.000345313,-0.00367829,-1.22053,0.00257502,0.0139331,1882,701,22.9512,0.599336
665,323,22.9205,-0.09729,-0.00507513,-0.000181989,-0.00201385,0.000540245,-0.00579736,-1.22645,0.004057,0.0120132,1889,701,22.9206,0.0972707
672,323,22.9478,0.436218,-0.007346,-0.000179442,-0.00283251,0.000804882,-0.00833032,-1.23634,0.00584036,0.0122436,1896,701,22.9477,-0.436236
679,323,22.8696,0.949585,-0.0103055,-0.00012437,-0.00381165,0.00114451,-0.0115743,-1.24944,0.00812464,0.0280358,1903,701,22.8696,-0.949588
686,323,22.4589,1.28815,0,0,0,0,0,0,0,-1,1910,701,22.4589,-1.28814
693,323,22.5502,1.62103,0,0,0,0,0,0,0,-1,1917,701,22.5502,-1.62103
700,323,10.7705,0.828613,0,0,0,0,0,0,0,-1,1924,701,10.7705,-0.828591
707,323,16.9005,4.79193,0,0,0,0,0,0,0,-1,1931,701,16.9005,-4.7919
714,323,16.2346,6.25958,0,0,0,0,0,0,0,-1,1938,701,16.2346,-6.25956
721,323,0,0,0,0,0,0,0,0,0,-1,1945,701,0,0
728,323,0,0,0,0,0,0,0,0,0,-1,1952,701,0,0
735,323,0,0,0,0,0,0,0,0,0,-1,1959,701,0,0
742,323,0,0,0,0,0,0,0,0,0,-1,1966,701,0,0
749,323,0,0,0,0,0,0,0,0,0,-1,1973,701,0,0
756,323,0,0,0,0,0,0,0,0,0,-1,1980,701,0,0
763,323,0,0,0,0,0,0,0,0,0,-1,1987,701,0,0
770,323,0,0,0,0,0,0,0,0,0,-1,1994,701,0,0
777,323,0,0,0,0,0,0,0,0,0,-1,2001,701,0,0
784,323,0,0,0,0,0,0,0,0,0,-1,2008,701,0,0
791,323,0,0,0,0,0,0,0,0,0,-1,2015,701,0,0
798,323,0,0,0,0,0,0,0,0,0,-1,2022,701,0,0
805,323,0,0,0,0,0,0,0,0,0,-1,2029,701,0,0
812,323,0,0,0,0,0,0,0,0,0,-1,2036,701,0,0
-700,316,0,0,0,0,0,0,0,0,0,-1,524,708,0,0
-693,316,0,0,0,0,0,0,0,0,0,-1,531,708,0,0
-686,316,0,0,0,0,0,0,0,0,0,-1,538,708,0,0
-679,316,0,0,0,0,0,0,0,0,0,-1,545,708,0,0
-672,316,0,0,0,0,0,0,0,0,0,-1,552,708,0,0
-665,316,0,0,0,0,0,0,0,0,0,-1,559,708,0,0
-658,316,0,0,0,0,0,0,0,0,0,-1,566,708,0,0
-651,316,0,0,0,0,0,0,0,0,0,-1,573,708,0,0
-644,316,0,0,0,0,0,0,0,0,0,-1,580,708,0,0
-637,316,0,0,0,0,0,0,0,0,0,-1,587,708,0,0
-630,316,0,0,0,0,0,0,0,0,0,-1,594,708,0,0
-623,316,0,0,0,0,0,0,0,0,0,-1,601,708,0,0
-616,316,0,0,0,0,0,0,0,0,0,-1,608,708,0,0
-609,316,0,0,0,0,0,0,0,0,0,-1,615,708,0,0
-602,316,-0.451782,-0.0494995,0,0,0,0,0,0,0,-1,622,708,-0.451768,0.0495022
-595,316,-3.3761,2.17188,0,0,0,0,0,0,0,-1,629,708,-3.37609,-2.17189
-588,316,-5.00177,2.60675,0,0,0,0,0,0,0,-1,636,708,-5.00175,-2.60676
-581,316,-3.94653,0.393433,0,0,0,0,0,0,0,-1,643,708,-3.94655,-0.39342
-574,316,-9.67395,1.06067,0,0,0,0,0,0,0,-1,650,708,-9.67396,-1.06065
-567,316,-10.1962,0.448425,0,0,0,0,0,0,0,-1,657,708,-10.1962,-0.448411
-560,316,-13.9759,-1.02716,0,0,0,0,0,0,0,-1,664,708,-13.9759,1.02718
-553,316,-14.0677,-1.28485,-0.00499528,0.00202981,0.00276533,0.00298772,-0.00595319,1.23733,0.00525583,0.0408368,671,708,-14.0677,1.28486
-546,316,-14.2472,-1.58008,-0.00351118,0.00120031,0.0019664,0.00191316,-0.00422403,1.22302,0.00362607,0.0242568,678,708,-14.2472,1.58007
-539,316,-14.1833,-2.05194,-0.00242092,0.000775344,0.00145501,0.00133848,-0.00298405,1.20152,0.00255518,0.0132414,685,708,-14.1833,2.05194
-532,316,-14.2183,-2.53412,-0.00153624,0.000366015,0.00102389,0.000812381,-0.0019826,1.15969,0.00166016,0.0107008,692,708,-14.2183,2.53411
-525,316,-14.225,-3.02399,-0.000766698,0.000132088,0.000747576,0.000554947,-0.00118956,1.05602,0.00102916,0.00896386,699,708,-14.225,3.02396
-518,316,-14.2219,-3.51282,-0.000186442,8.95617e-05,0.000599432,0.000566673,-0.000663553,0.898537,0.000711005,0.00951537,706,708,-14.2219,3.51284
-511,316,-14.2343,-4.00421,0.000241734,0.000136876,0.000577271,0.000768952,-0.000390342,0.740111,0.000681113,0.0110501,713,708,-14.2343,4.0042
-504,316,-14.2655,-4.48724,0.000249134,0.000437065,0.00123906,0.00158572,-0.00089952,0.823244,0.00145297,0.0143975,720,708,-14.2655,4.48722
-497,316,-14.2678,-4.93964,-0.000129001,0.0013815,0.00242655,0.00316762,-0.00191512,0.936269,0.00296407,0.0131135,727,708,-14.2677,4.93962
-490,316,-14.2832,-5.43219,-0.000661092,0.00245883,0.00393605,0.00513278,-0.00333504,0.974066,0.00492549,0.0171531,734,708,-14.2832,5.43218
-483,316,-14.2341,-5.92151,0,0,0,0,0,0,0,-1,741,708,-14.2341,5.9215
-476,316,-8.90894,-3.31207,0,0,0,0,0,0,0,-1,748,708,-8.90896,3.31206
-469,316,-6.24194,-1.42725,0,0,0,0,0,0,0,-1,755,708,-6.24192,1.42725
-462,316,-5.74237,-1.40039,0,0,0,0,0,0,0,-1,762,708,-5.74238,1.40039
-455,316,-5.44745,-1.21899,0,0,0,0,0,0,0,-1,769,708,-5.44746,1.21898
-448,316,-14.8945,0.655396,0,0,0,0,0,0,0,-1,776,708,-14.8946,-0.655396
-441,316,-14.9626,0.576111,0,0,0,0,0,0,0,-1,783,708,-14.9626,-0.576115
-434,316,-27.7723,1.15576,0,0,0,0,0,0,0,-1,790,708,-27.7723,-1.15579
-427,316,-28.0504,1.31427,0,0,0,0,0,0,0,-1,797,708,-28.0504,-1.31427
-420,316,-28.198,1.62891,0,0,0,0,0,0,0,-1,804,708,-28.198,-1.62889
-413,316,0,0,0,0,0,0,0,0,0,-1,811,708,0,0
-406,316,0,0,0,0,0,0,0,0,0,-1,818,708,0,0
-399,316,0,0,0,0,0,0,0,0,0,-1,825,708,0,0
-392,316,0,0,0,0,0,0,0,0,0,-1,832,708,0,0
-385,316,0,0,0,0,0,0,0,0,0,-1,839,708,0,0
-378,316,0,0,0,0,0,0,0,0,0,-1,846,708,0,0
-371,316,0,0,0,0,0,0,0,0,0,-1,853,708,0,0
-364,316,0,0,0,0,0,0,0,0,0,-1,860,708,0,0
-357,316,0,0,0,0,0,0,0,0,0,-1,867,708,0,0
-350,316,0,0,0,0,0,0,0,0,0,-1,874,708,0,0
-343,316,0,0,0,0,0,0,0,0,0,-1,881,708,0,0
-336,316,0,0,0,0,0,0,0,0,0,-1,888,708,0,0
-329,316,0,0,0,0,0,0,0,0,0,-1,895,708,0,0
-322,316,0,0,0,0,0,0,0,0,0,-1,902,708,0,0
-315,316,0,0,0,0,0,0,0,0,0,-1,909,708,0,0
-308,316,0,0,0,0,0,0,0,0,0,-1,916,708,0,0
-301,316,0,0,0,0,0,0,0,0,0,-1,923,708,0,0
-294,316,0,0,0,0,0,0,0,0,0,-1,930,708,0,0
-287,316,0,0,0,0,0,0,0,0,0,-1,937,708,0,0
-280,316,0,0,0,0,0,0,0,0,0,-1,944,708,0,0
-273,316,0,0,0,0,0,0,0,0,0,-1,951,708,0,0
-266,316,0,0,0,0,0,0,0,0,0,-1,958,708,0,0
-259,316,0,0,0,0,0,0,0,0,0,-1,965,708,0,0
-252,316,0,0,0,0,0,0,0,0,0,-1,972,708,0,0
-245,316,0,0,0,0,0,0,0,0,0,-1,979,708,0,0
-238,316,0,0,0,0,0,0,0,0,0,-1,986,708,0,0
-231,316,0,0,0,0,0,0,0,0,0,-1,993,708,0,0
-224,316,0,0,0,0,0,0,0,0,0,-1,1000,708,0,0
-217,316,0,0,0,0,0,0,0,0,0,-1,1007,708,0,0
-210,316,0,0,0,0,0,0,0,0,0,-1,1014,708,0,0
-203,316,0,0,0,0,0,0,0,0,0,-1,1021,708,0,0
-196,316,0,0,0,0,0,0,0,0,0,-1,1028,708,0,0
-189,316,0,0,0,0,0,0,0,0,0,-1,1035,708,0,0
-182,316,0,0,0,0,0,0,0,0,0,-1,1042,708,0,0
-175,316,0,0,0,0,0,0,0,0,0,-1,1049,708,0,0
-168,316,0,0,0,0,0,0,0,0,0,-1,1056,708,0,0
-161,316,0,0,0,0,0,0,0,0,0,-1,1063,708,0,0
-154,316,0,0,0,0,0,0,0,0,0,-1,1070,708,0,0
-147,316,0,0,0,0,0,0,0,0,0,-1,1077,708,0,0
-140,316,0,0,0,0,0,0,0,0,0,-1,1084,708,0,0
-133,316,0,0,0,0,0,0,0,0,0,-1,1091,708,0,0
-126,316,0,0,0,0,0,0,0,0,0,-1,1098,708,0,0
-119,316,0,0,0,0,0,0,0,0,0,-1,1105,708,0,0
-112,316,0,0,0,0,0,0,0,0,0,-1,1112,708,0,0
-105,316,0,0,0,0,0,0,0,0,0,-1,1119,708,0,0
-98,316,0,0,0,0,0,0,0,0,0,-1,1126,708,0,0
-91,316,0,0,0,0,0,0,0,0,0,-1,1133,708,0,0
-84,316,0,0,0,0,0,0,0,0,0,-1,1140,708,0,0
-77,316,0,0,0,0,0,0,0,0,0,-1,1147,708,0,0
-70,316,0,0,0,0,0,0,0,0,0,-1,1154,708,0,0
-63,316,0,0,0,0,0,0,0,0,0,-1,1161,708,0,0
-56,316,0,0,0,0,0,0,0,0,0,-1,1168,708,0,0
-49,316,0,0,0,0,0,0,0,0,0,-1,1175,708,0,0
-42,316,0,0,0,0,0,0,0,0,0,-1,1182,708,0,0
-35,316,0,0,0,0,0,0,0,0,0,-1,1189,708,0,0
-28,316,0,0,0,0,0,0,0,0,0,-1,1196,708,0,0
-21,316,0,0,0,0,0,0,0,0,0,-1,1203,708,0,0
-14,316,0,0,0,0,0,0,0,0,0,-1,1210,708,0,0
-7,316,0,0,0,0,0,0,0,0,0,-1,1217,708,0,0
0,316,0,0,0,0,0,0,0,0,0,-1,1224,708,0,0
7,316,0,0,0,0,0,0,0,0,0,-1,1231,708,0,0
14,316,0,0,0,0,0,0,0,0,0,-1,1238,708,0,0
21,316,0,0,0,0,0,0,0,0,0,-1,1245,708,0,0
28,316,0,0,0,0,0,0,0,0,0,-1,1252,708,0,0
35,316,0,0,0,0,0,0,0,0,0,-1,1259,708,0,0
42,316,0,0,0,0,0,0,0,0,0,-1,1266,708,0,0
49,316,0,0,0,0,0,0,0,0,0,-1,1273,708,0,0
56,316,0,0,0,0,0,0,0,0,0,-1,1280,708,0,0
63,316,0,0,0,0,0,0,0,0,0,-1,1287,708,0,0
70,316,0,0,0,0,0,0,0,0,0,-1,1294,708,0,0
77,316,0,0,0,0,0,0,0,0,0,-1,1301,708,0,0
84,316,0,0,0,0,0,0,0,0,0,-1,1308,708,0,0
91,316,0,0,0,0,0,0,0,0,0,-1,1315,708,0,0
98,316,0,0,0,0,0,0,0,0,0,-1,1322,708,0,0
105,316,0,0,0,0,0,0,0,0,0,-1,1329,708,0,0
112,316,0,0,0,0,0,0,0,0,0,-1,1336,708,0,0
119,316,0,0,0,0,0,0,0,0,0,-1,1343,708,0,0
126,316,0,0,0,0,0,0,0,0,0,-1,1350,708,0,0
133,316,0,0,0,0,0,0,0,0,0,-1,1357,708,0,0
140,316,0,0,0,0,0,0,0,0,0,-1,1364,708,0,0
147,316,0,0,0,0,0,0,0,0,0,-1,1371,708,0,0
154,316,0,0,0,0,0,0,0,0,0,-1,1378,708,0,0
161,316,0,0,0,0,0,0,0,0,0,-1,1385,708,0,0
168,316,0,0,0,0,0,0,0,0,0,-1,1392,708,0,0
175,316,0,0,0,0,0,0,0,0,0,-1,1399,708,0,0
182,316,0,0,0,0,0,0,0,0,0,-1,1406,708,0,0
189,316,0,0,0,0,0,0,0,0,0,-1,1413,708,0,0
196,316,0,0,0,0,0,0,0,0,0,-1,1420,708,0,0
203,316,0,0,0,0,0,0,0,0,0,-1,1427,708,0,0
210,316,0,0,0,0,0,0,0,0,0,-1,1434,708,0,0
217,316,0,0,0,0,0,0,0,0,0,-1,1441,708,0,0
224,316,0,0,0,0,0,0,0,0,0,-1,1448,708,0,0
231,316,0,0,0,0,0,0,0,0,0,-1,1455,708,0,0
238,316,0,0,0,0,0,0,0,0,0,-1,1462,708,0,0
245,316,0,0,0,0,0,0,0,0,0,-1,1469,708,0,0
252,316,0,0,0,0,0,0,0,0,0,-1,1476,708,0,0
259,316,0,0,0,0,0,0,0,0,0,-1,1483,708,0,0
266,316,0,0,0,0,0,0,0,0,0,-1,1490,708,0,0
273,316,0,0,0,0,0,0,0,0,0,-1,1497,708,0,0
280,316,0,0,0,0,0,0,0,0,0,-1,1504,708,0,0
287,316,0,0,0,0,0,0,0,0,0,-1,1511,708,0,0
294,316,0,0,0,0,0,0,0,0,0,-1,1518,708,0,0
301,316,0,0,0,0,0,0,0,0,0,-1,1525,708,0,0
308,316,0,0,0,0,0,0,0,0,0,-1,1532,708,0,0
315,316,0,0,0,0,0,0,0,0,0,-1,1539,708,0,0
322,316,0,0,0,0,0,0,0,0,0,-1,1546,708,0,0
329,316,0,0,0,0,0,0,0,0,0,-1,1553,708,0,0
336,316,0,0,0,0,0,0,0,0,0,-1,1560,708,0,0
343,316,0,0,0,0,0,0,0,0,0,-1,1567,708,0,0
350,316,0,0,0,0,0,0,0,0,0,-1,1574,708,0,0
357,316,0,0,0,0,0,0,0,0,0,-1,1581,708,0,0
364,316,0,0,0,0,0,0,0,0,0,-1,1588,708,0,0
371,316,0,0,0,0,0,0,0,0,0,-1,1595,708,0,0
378,316,0,0,0,0,0,0,0,0,0,-1,1602,708,0,0
385,316,0,0,0,0,0,0,0,0,0,-1,1609,708,0,0
392,316,0,0,0,0,0,0,0,0,0,-1,1616,708,0,0
399,316,0,0,0,0,0,0,0,0,0,-1,1623,708,0,0
406,316,0,0,0,0,0,0,0,0,0,-1,1630,708,0,0
413,316,0,0,0,0,0,0,0,0,0,-1,1637,708,0,0
420,316,0,0,0,0,0,0,0,0,0,-1,1644,708,0,0
427,316,0,0,0,0,0,0,0,0,0,-1,1651,708,0,0
434,316,0,0,0,0,0,0,0,0,0,-1,1658,708,0,0
441,316,0,0,0,0,0,0,0,0,0,-1,1665,708,0,0
448,316,0,0,0,0,0,0,0,0,0,-1,1672,708,0,0
455,316,0,0,0,0,0,0,0,0,0,-1,1679,708,0,0
462,316,0,0,0,0,0,0,0,0,0,-1,1686,708,0,0
469,316,0,0,0,0,0,0,0,0,0,-1,1693,708,0,0
476,316,0,0,0,0,0,0,0,0,0,-1,1700,708,0,0
483,316,0,0,0,0,0,0,0,0,0,-1,1707,708,0,0
490,316,0,0,0,0,0,0,0,0,0,-1,1714,708,0,0
497,316,0,0,0,0,0,0,0,0,0,-1,1721,708,0,0
504,316,0,0,0,0,0,0,0,0,0,-1,1728,708,0,0
511,316,0,0,0,0,0,0,0,0,0,-1,1735,708,0,0
518,316,0,0,0,0,0,0,0,0,0,-1,1742,708,0,0
525,316,0,0,0,0,0,0,0,0,0,-1,1749,708,0,0
532,316,33.8604,0.531128,0,0,0,0,0,0,0,-1,1756,708,33.8604,-0.531151
539,316,37.7004,1.9234,0,0,0,0,0,0,0,-1,1763,708,37.7005,-1.92343
546,316,37.8945,2.03882,0,0,0,0,0,0,0,-1,1770,708,37.8945,-2.03879
553,316,38.1301,0.431152,0,0,0,0,0,0,0,-1,1777,708,38.1301,-0.43115
560,316,39.1196,1.10046,0,0,0,0,0,0,0,-1,1784,708,39.1197,-1.10048
567,316,40.3279,1.98065,0,0,0,0,0,0,0,-1,1791,708,40.3279,-1.98067
574,316,40.1323,2.25415,0,0,0,0,0,0,0,-1,1798,708,40.1324,-2.25415
581,316,24.6815,7.77496,0,0,0,0,0,0,0,-1,1805,708,24.6815,-7.77499
588,316,19.7659,2.90198,0,0,0,0,0,0,0,-1,1812,708,19.7659,-2.902
595,316,12.5363,1.50702,0,0,0,0,0,0,0,-1,1819,708,12.5363,-1.50701
602,316,7.79919,0.0422363,0,0,0,0,0,0,0,-1,1826,708,7.79923,-0.0422066
609,316,23.5137,-4.18103,0,0,0,0,0,0,0,-1,1833,708,23.5137,4.18102
616,316,23.5677,-3.63068,0.00388376,0.00536636,-0.00115544,0.00599786,0.00325226,-1.07061,0.00346698,0.019614,1840,708,23.5678,3.6307
623,316,23.5557,-3.12488,0.00296203,0.00308703,-0.000405687,0.003435,0.00261406,-0.861825,0.00207131,0.011453,1847,708,23.5556,3.12486
630,316,23.5122,-2.64233,0.00228065,0.00156188,-3.66189e-05,0.00228251,0.00156002,-0.0507715,0.00134705,0.0122929,1854,708,23.5122,2.6423
637,316,23.516,-2.12415,0.00132429,0.000536478,8.53867e-05,0.00133344,0.00052733,0.106733,0.00077545,0.0111554,1861,708,23.516,2.12414
644,316,23.5223,-1.61493,0.000146485,8.57222e-05,-9.64523e-05,0.000217228,1.49795e-05,-0.632823,0.000140092,0.0115653,1868,708,23.5224,1.6149
651,316,23.5055,-1.11035,-0.00112549,-1.36955e-05,-0.000431021,0.000133827,-0.00127302,-1.24103,0.000896623,0.0130693,1875,708,23.5055,1.11036
658,316,23.4611,-0.583679,-0.00251802,8.04311e-05,-0.0009,0.000361708,-0.0027993,-1.26788,0.00199771,0.0223645,1882,708,23.4611,0.583675
665,316,23.4109,-0.0811768,-0.0040703,0.000239848,-0.00138792,0.000648106,-0.00447856,-1.28471,0.00322353,0.0170185,1889,708,23.4108,0.0811993
672,316,23.4379,0.40509,-0.00590705,0.000508725,-0.001902,0.0010302,-0.00642852,-1.3032,0.00466714,0.0115932,1896,708,23.4378,-0.405103
679,316,23.4531,0.990417,-0.00817087,0.000916036,-0.00246187,0.00154015,-0.00879498,-1.32251,0.0064384,0.0226196,1903,708,23.4531,-0.990412
686,316,23.1462,1.46851,-0.0107829,0.00144595,-0.0029854,0.00213584,-0.0114728,-1.34369,0.00845096,0.0363078,1910,708,23.1463,-1.46852
693,316,22.801,1.98224,0,0,0,0,0,0,0,-1,1917,708,22.8011,-1.98227
700,316,12.8749,2.89136,0,0,0,0,0,0,0,-1,1924,708,12.8748,-2.89137
707,316,15.7089,5.41486,0,0,0,0,0,0,0,-1,1931,708,15.7088,-5.41487
714,316,16.1727,5.52045,0,0,0,0,0,0,0,-1,1938,708,16.1728,-5.52042
721,316,16.7094,6.53351,0,0,0,0,0,0,0,-1,1945,708,16.7094,-6.5335
728,316,0,0,0,0,0,0,0,0,0,-1,1952,708,0,0
735,316,0,0,0,0,0,0,0,0,0,-1,1959,708,0,0
742,316,0,0,0,0,0,0,0,0,0,-1,1966,708,0,0
749,316,0,0,0,0,0,0,0,0,0,-1,1973,708,0,0
756,316,0,0,0,0,0,0,0,0,0,-1,1980,708,0,0
763,316,0,0,0,0,0,0,0,0,0,-1,1987,708,0,0
770,316,0,0,0,0,0,0,0,0,0,-1,1994,708,0,0
777,316,0,0,0,0,0,0,0,0,0,-1,2001,708,0,0
784,316,0,0,0,0,0,0,0,0,0,-1,2008,708,0,0
791,316,0,0,0,0,0,0,0,0,0,-1,2015,708,0,0
798,316,0,0,0,0,0,0,0,0,0,-1,2022,708,0,0
805,316,0,0,0,0,0,0,0,0,0,-1,2029,708,0,0
812,316,0,0,0,0,0,0,0,0,0,-1,2036,708,0,0
-700,309,0,0,0,0,0,0,0,0,0,-1,524,715,0,0
-693,309,0,0,0,0,0,0,0,0,0,-1,531,715,0,0
-686,309,0,0,0,0,0,0,0,0,0,-1,538,715,0,0
-679,309,0,0,0,0,0,0,0,0,0,-1,545,715,0,0
-672,309,0,0,0,0,0,0,0,0,0,-1,552,715,0,0
-665,309,0,0,0,0,0,0,0,0,0,-1,559,715,0,0
-658,309,0,0,0,0,0,0,0,0,0,-1,566,715,0,0
-651,309,0,0,0,0,0,0,0,0,0,-1,573,715,0,0
-644,309,0,0,0,0,0,0,0,0,0,-1,580,715,0,0
-637,309,0,0,0,0,0,0,0,0,0,-1,587,715,0,0
-630,309,0,0,0,0,0,0,0,0,0,-1,594,715,0,0
-623,309,0,0,0,0,0,0,0,0,0,-1,601,715,0,0
-616,309,0,0,0,0,0,0,0,0,0,-1,608,715,0,0
-609,309,-5.95392,-3.93689,0,0,0,0,0,0,0,-1,615,715,-5.95392,3.93686
-602,309,-4.99786,-3.31287,0,0,0,0,0,0,0,-1,622,715,-4.99786,3.31284
-595,309,-6.80847,2.4046,0,0,0,0,0,0,0,-1,629,715,-6.80845,-2.40458
-588,309,-6.08795,2.19324,0,0,0,0,0,0,0,-1,636,715,-6.08793,-2.19325
-581,309,-5.97552,1.3277,0,0,0,0,0,0,0,-1,643,715,-5.97552,-1.32769
-574,309,-8.73602,0.208435,0,0,0,0,0,0,0,-1,650,715,-8.73604,-0.208437
-567,309,-10.3909,0.85968,0,0,0,0,0,0,0,-1,657,715,-10.3909,-0.859696
-560,309,-14.5607,-1.07513,0,0,0,0,0,0,0,-1,664,715,-14.5607,1.07514
-553,309,-14.6248,-1.18091,-0.00351902,0.00234303,0.00261228,0.00333819,-0.00451418,1.20682,0.00455048,0.0410117,671,715,-14.6248,1.18091
-546,309,-14.7122,-1.56989,-0.0025763,0.0013098,0.00190748,0.00208961,-0.0033561,1.18272,0.0031723,0.0195284,678,715,-14.7122,1.56988
-539,309,-14.6719,-2.06647,-0.00180213,0.000755318,0.00142563,0.00139168,-0.00243849,1.15096,0.00223871,0.0149597,685,715,-14.672,2.06647
-532,309,-14.6917,-2.52533,-0.00121639,0.000214834,0.00101055,0.000737488,-0.00173905,1.09348,0.00146829,0.0125277,692,715,-14.6916,2.52535
-525,309,-14.7117,-3.01843,-0.000620341,-2.92119e-05,0.000836174,0.000562098,-0.00121165,0.955281,0.00104671,0.0148594,699,715,-14.7117,3.01843
-518,309,-14.7208,-3.50665,-0.000183387,4.66866e-05,0.000818973,0.000758663,-0.000895363,0.855174,0.000956039,0.0149805,706,715,-14.7207,3.50664
-511,309,-14.7285,-3.98962,3.20385e-05,0.000138605,0.000850612,0.000937601,-0.000766958,0.816678,0.00098577,0.0118736,713,715,-14.7285,3.98964
-504,309,-14.744,-4.45648,-0.000187612,0.000411562,0.00178991,0.00192678,-0.00170283,0.868317,0.00209689,0.00993413,720,715,-14.744,4.45646
-497,309,-14.7502,-4.92139,-0.000823474,0.00142194,0.003258,0.00374524,-0.00314678,0.951326,0.00398411,0.014474,727,715,-14.7502,4.9214
-490,309,-14.7062,-5.42664,-0.00156746,0.00241546,0.00489245,0.00570624,-0.00485823,0.978682,0.00610594,0.0459182,734,715,-14.7062,5.42664
-483,309,-14.4507,-6.112,0,0,0,0,0,0,0,-1,741,715,-14.4507,6.11198
-476,309,-5.29486,-1.2262,0,0,0,0,0,0,0,-1,748,715,-5.29484,1.22622
-469,309,-4.22717,-0.592896,0,0,0,0,0,0,0,-1,755,715,-4.2272,0.592905
-462,309,-10.428,2.46948,0,0,0,0,0,0,0,-1,762,715,-10.428,-2.46947
-455,309,-15.8216,0.00915527,0,0,0,0,0,0,0,-1,769,715,-15.8216,-0.00913359
-448,309,-19.2673,1.19257,0,0,0,0,0,0,0,-1,776,715,-19.2673,-1.19254
-441,309,-19.8181,1.4425,0,0,0,0,0,0,0,-1,783,715,-19.8181,-1.44249
-434,309,-28.3196,0.95105,0,0,0,0,0,0,0,-1,790,715,-28.3196,-0.951068
-427,309,-27.8553,1.40332,0,0,0,0,0,0,0,-1,797,715,-27.8553,-1.40334
-420,309,-27.3148,1.90747,0,0,0,0,0,0,0,-1,804,715,-27.3148,-1.90745
-413,309,0,0,0,0,0,0,0,0,0,-1,811,715,0,0
-406,309,0,0,0,0,0,0,0,0,0,-1,818,715,0,0
-399,309,0,0,0,0,0,0,0,0,0,-1,825,715,0,0
-392,309,0,0,0,0,0,0,0,0,0,-1,832,715,0,0
-385,309,0,0,0,0,0,0,0,0,0,-1,839,715,0,0
-378,309,0,0,0,0,0,0,0,0,0,-1,846,715,0,0
-371,309,0,0,0,0,0,0,0,0,0,-1,853,715,0,0
-364,309,0,0,0,0,0,0,0,0,0,-1,860,715,0,0
-357,309,0,0,0,0,0,0,0,0,0,-1,867,715,0,0
-350,309,0,0,0,0,0,0,0,0,0,-1,874,715,0,0
-343,309,0,0,0,0,0,0,0,0,0,-1,881,715,0,0
-336,309,0,0,0,0,0,0,0,0,0,-1,888,715,0,0
-329,309,0,0,0,0,0,0,0,0,0,-1,895,715,0,0
-322,309,0,0,0,0,0,0,0,0,0,-1,902,715,0,0
-315,309,0,0,0,0,0,0,0,0,0,-1,909,715,0,0
-308,309,0,0,0,0,0,0,0,0,0,-1,916,715,0,0
-301,309,0,0,0,0,0,0,0,0,0,-1,923,715,0,0
-294,309,0,0,0,0,0,0,0,0,0,-1,930,715,0,0
-287,309,0,0,0,0,0,0,0,0,0,-1,937,715,0,0
-280,309,0,0,0,0,0,0,0,0,0,-1,944,715,0,0
-273,309,0,0,0,0,0,0,0,0,0,-1,951,715,0,0
-266,309,0,0,0,0,0,0,0,0,0,-1,958,715,0,0
-259,309,0,0,0,0,0,0,0,0,0,-1,965,715,0,0
-252,309,0,0,0,0,0,0,0,0,0,-1,972,715,0,0
-245,309,0,0,0,0,0,0,0,0,0,-1,979,715,0,0
-238,309,0,0,0,0,0,0,0,0,0,-1,986,715,0,0
-231,309,0,0,0,0,0,0,0,0,0,-1,993,715,0,0
-224,309,0,0,0,0,0,0,0,0,0,-1,1000,715,0,0
-217,309,0,0,0,0,0,0,0,0,0,-1,1007,715,0,0
-210,309,0,0,0,0,0,0,0,0,0,-1,1014,715,0,0
-203,309,0,0,0,0,0,0,0,0,0,-1,1021,715,0,0
-196,309,0,0,0,0,0,0,0,0,0,-1,1028,715,0,0
-189,309,0,0,0,0,0,0,0,0,0,-1,1035,715,0,0
-182,309,0,0,0,0,0,0,0,0,0,-1,1042,715,0,0
-175,309,0,0,0,0,0,0,0,0,0,-1,1049,715,0,0
-168,309,0,0,0,0,0,0,0,0,0,-1,1056,715,0,0
-161,309,0,0,0,0,0,0,0,0,0,-1,1063,715,0,0
-154,309,0,0,0,0,0,0,0,0,0,-1,1070,715,0,0
-147,309,0,0,0,0,0,0,0,0,0,-1,1077,715,0,0
-140,309,0,0,0,0,0,0,0,0,0,-1,1084,715,0,0
-133,309,0,0,0,0,0,0,0,0,0,-1,1091,715,0,0
-126,309,0,0,0,0,0,0,0,0,0,-1,1098,715,0,0
-119,309,0,0,0,0,0,0,0,0,0,-1,1105,715,0,0
-112,309,0,0,0,0,0,0,0,0,0,-1,1112,715,0,0
-105,309,0,0,0,0,0,0,0,0,0,-1,1119,715,0,0
-98,309,0,0,0,0,0,0,0,0,0,-1,1126,715,0,0
-91,309,0,0,0,0,0,0,0,0,0,-1,1133,715,0,0
-84,309,0,0,0,0,0,0,0,0,0,-1,1140,715,0,0
-77,309,0,0,0,0,0,0,0,0,0,-1,1147,715,0,0
-70,309,0,0,0,0,0,0,0,0,0,-1,1154,715,0,0
-63,309,0,0,0,0,0,0,0,0,0,-1,1161,715,0,0
-56,309,0,0,0,0,0,0,0,0,0,-1,1168,715,0,0
-49,309,0,0,0,0,0,0,0,0,0,-1,1175,715,0,0
-42,309,0,0,0,0,0,0,0,0,0,-1,1182,715,0,0
-35,309,0,0,0,0,0,0,0,0,0,-1,1189,715,0,0
-28,309,0,0,0,0,0,0,0,0,0,-1,1196,715,0,0
-21,309,0,0,0,0,0,0,0,0,0,-1,1203,715,0,0
-14,309,0,0,0,0,0,0,0,0,0,-1,1210,715,0,0
-7,309,0,0,0,0,0,0,0,0,0,-1,1217,715,0,0
0,309,0,0,0,0,0,0,0,0,0,-1,1224,715,0,0
7,309,0,0,0,0,0,0,0,0,0,-1,1231,715,0,0
14,309,0,0,0,0,0,0,0,0,0,-1,1238,715,0,0
21,309,0,0,0,0,0,0,0,0,0,-1,1245,715,0,0
28,309,0,0,0,0,0,0,0,0,0,-1,1252,715,0,0
35,309,0,0,0,0,0,0,0,0,0,-1,1259,715,0,0
42,309,0,0,0,0,0,0,0,0,0,-1,1266,715,0,0
49,309,0,0,0,0,0,0,0,0,0,-1,1273,715,0,0
56,309,0,0,0,0,0,0,0,0,0,-1,1280,715,0,0
63,309,0,0,0,0,0,0,0,0,0,-1,1287,715,0,0
70,309,0,0,0,0,0,0,0,0,0,-1,1294,715,0,0
77,309,0,0,0,0,0,0,0,0,0,-1,1301,715,0,0
84,309,0,0,0,0,0,0,0,0,0,-1,1308,715,0,0
91,309,0,0,0,0,0,0,0,0,0,-1,1315,715,0,0
98,309,0,0,0,0,0,0,0,0,0,-1,1322,715,0,0
105,309,0,0,0,0,0,0,0,0,0,-1,1329,715,0,0
112,309,0,0,0,0,0,0,0,0,0,-1,1336,715,0,0
119,309,0,0,0,0,0,0,0,0,0,-1,1343,715,0,0
126,309,0,0,0,0,0,0,0,0,0,-1,1350,715,0,0
133,309,0,0,0,0,0,0,0,0,0,-1,1357,715,0,0
140,309,0,0,0,0,0,0,0,0,0,-1,1364,715,0,0
147,309,0,0,0,0,0,0,0,0,0,-1,1371,715,0,0
154,309,0,0,0,0,0,0,0,0,0,-1,1378,715,0,0
161,309,0,0,0,0,0,0,0,0,0,-1,1385,715,0,0
168,309,0,0,0,0,0,0,0,0,0,-1,1392,715,0,0
175,309,0,0,0,0,0,0,0,0,0,-1,1399,715,0,0
182,309,0,0,0,0,0,0,0,0,0,-1,1406,715,0,0
189,309,0,0,0,0,0,0,0,0,0,-1,1413,715,0,0
196,309,0,0,0,0,0,0,0,0,0,-1,1420,715,0,0
203,309,0,0,0,0,0,0,0,0,0,-1,1427,715,0,0
210,309,0,0,0,0,0,0,0,0,0,-1,1434,715,0,0
217,309,0,0,0,0,0,0,0,0,0,-1,1441,715,0,0
224,309,0,0,0,0,0,0,0,0,0,-1,1448,715,0,0
231,309,0,0,0,0,0,0,0,0,0,-1,1455,715,0,0
238,309,0,0,0,0,0,0,0,0,0,-1,1462,715,0,0
245,309,0,0,0,0,0,0,0,0,0,-1,1469,715,0,0
252,309,0,0,0,0,0,0,0,0,0,-1,1476,715,0,0
259,309,0,0,0,0,0,0,0,0,0,-1,1483,715,0,0
266,309,0,0,0,0,0,0,0,0,0,-1,1490,715,0,0
273,309,0,0,0,0,0,0,0,0,0,-1,1497,715,0,0
280,309,0,0,0,0,0,0,0,0,0,-1,1504,715,0,0
287,309,0,0,0,0,0,0,0,0,0,-1,1511,715,0,0
294,309,0,0,0,0,0,0,0,0,0,-1,1518,715,0,0
301,309,0,0,0,0,0,0,0,0,0,-1,1525,715,0,0
308,309,0,0,0,0,0,0,0,0,0,-1,1532,715,0,0
315,309,0,0,0,0,0,0,0,0,0,-1,1539,715,0,0
322,309,0,0,0,0,0,0,0,0,0,-1,1546,715,0,0
329,309,0,0,0,0,0,0,0,0,0,-1,1553,715,0,0
336,309,0,0,0,0,0,0,0,0,0,-1,1560,715,0,0
343,309,0,0,0,0,0,0,0,0,0,-1,1567,715,0,0
350,309,0,0,0,0,0,0,0,0,0,-1,1574,715,0,0
357,309,0,0,0,0,0,0,0,0,0,-1,1581,715,0,0
364,309,0,0,0,0,0,0,0,0,0,-1,1588,715,0,0
371,309,0,0,0,0,0,0,0,0,0,-1,1595,715,0,0
378,309,0,0,0,0,0,0,0,0,0,-1,1602,715,0,0
385,309,0,0,0,0,0,0,0,0,0,-1,1609,715,0,0
392,309,0,0,0,0,0,0,0,0,0,-1,1616,715,0,0
399,309,0,0,0,0,0,0,0,0,0,-1,1623,715,0,0
406,309,0,0,0,0,0,0,0,0,0,-1,1630,715,0,0
413,309,0,0,0,0,0,0,0,0,0,-1,1637,715,0,0
420,309,0,0,0,0,0,0,0,0,0,-1,1644,715,0,0
427,309,0,0,0,0,0,0,0,0,0,-1,1651,715,0,0
434,309,0,0,0,0,0,0,0,0,0,-1,1658,715,0,0
441,309,0,0,0,0,0,0,0,0,0,-1,1665,715,0,0
448,309,0,0,0,0,0,0,0,0,0,-1,1672,715,0,0
455,309,0,0,0,0,0,0,0,0,0,-1,1679,715,0,0
462,309,0,0,0,0,0,0,0,0,0,-1,1686,715,0,0
469,309,0,0,0,0,0,0,0,0,0,-1,1693,715,0,0
476,309,0,0,0,0,0,0,0,0,0,-1,1700,715,0,0
483,309,0,0,0,0,0,0,0,0,0,-1,1707,715,0,0
490,309,0,0,0,0,0,0,0,0,0,-1,1714,715,0,0
497,309,0,0,0,0,0,0,0,0,0,-1,1721,715,0,0
504,309,0,0,0,0,0,0,0,0,0,-1,1728,715,0,0
511,309,0,0,0,0,0,0,0,0,0,-1,1735,715,0,0
518,309,0,0,0,0,0,0,0,0,0,-1,1742,715,0,0
525,309,0,0,0,0,0,0,0,0,0,-1,1749,715,0,0
532,309,0,0,0,0,0,0,0,0,0,-1,1756,715,0,0
539,309,37.3879,2.08527,0,0,0,0,0,0,0,-1,1763,715,37.3879,-2.08529
546,309,37.6042,2.198,0,0,0,0,0,0,0,-1,1770,715,37.6043,-2.19803
553,309,36.5366,0.485413,0,0,0,0,0,0,0,-1,1777,715,36.5366,-0.485426
560,309,37.4066,1.09186,0,0,0,0,0,0,0,-1,1784,715,37.4066,-1.09187
567,309,38.2872,1.72437,0,0,0,0,0,0,0,-1,1791,715,38.2872,-1.72434
574,309,39.0372,2.01044,0,0,0,0,0,0,0,-1,1798,715,39.0372,-2.01045
581,309,39.9871,2.35028,0,0,0,0,0,0,0,-1,1805,715,39.9871,-2.3503
588,309,26.2064,7.76422,0,0,0,0,0,0,0,-1,1812,715,26.2064,-7.7642
595,309,19.585,3.71558,0,0,0,0,0,0,0,-1,1819,715,19.5849,-3.71555
602,309,11.0811,3.47772,0,0,0,0,0,0,0,-1,1826,715,11.0811,-3.47772
609,309,23.9528,-4.21991,0,0,0,0,0,0,0,-1,1833,715,23.9528,4.21991
616,309,24.0397,-3.65155,0.00304049,0.00749377,-0.00244526,0.00857428,0.00195999,-1.15472,0.00518778,0.0307866,1840,715,24.0396,3.65157
623,309,24.0696,-3.11847,0.00257072,0.00447671,-0.00134461,0.0051718,0.00187563,-1.09369,0.00302325,0.0111466,1847,715,24.0696,3.11845
630,309,24.0212,-2.63141,0.00233141,0.00229447,-0.000657013,0.00297022,0.00165567,-0.771345,0.00171862,0.010721,1854,715,24.0212,2.63142
637,309,24.0051,-2.11133,0.00165858,0.000754234,-0.000168318,0.0016889,0.000723923,-0.178174,0.00097839,0.013581,1861,715,24.0051,2.11133
644,309,23.9983,-1.59082,0.00062276,0.000119641,-4.22292e-05,0.000626279,0.000116121,-0.0831595,0.0003847,0.0144008,1868,715,23.9983,1.59082
651,309,23.9982,-1.08142,-0.000550881,8.76543e-06,-0.00017177,5.72802e-05,-0.000599396,-1.29553,0.000419995,0.0133479,1875,715,23.9982,1.0814
658,309,23.9803,-0.552063,-0.00175694,0.000246067,-0.00049956,0.000363747,-0.00187462,-1.33945,0.00138699,0.0198302,1882,715,23.9803,0.552068
665,309,23.9752,-0.0654297,-0.00302697,0.000575033,-0.000804606,0.000746593,-0.00319853,-1.36072,0.00241992,0.0177148,1889,715,23.9752,0.0654191
672,309,23.9574,0.415161,-0.00450556,0.00103409,-0.00110263,0.00124549,-0.00471696,-1.38137,0.00363171,0.0144452,1896,715,23.9574,-0.415181
679,309,23.957,0.979858,-0.0062272,0.00167139,-0.00138632,0.00190765,-0.00646346,-1.402,0.00506602,0.01618,1903,715,23.9571,-0.979868
686,309,23.8094,1.56561,-0.00808015,0.00248463,-0.00158391,0.00271699,-0.00831251,-1.42514,0.00663542,0.0279443,1910,715,23.8094,-1.56563
693,309,23.3224,2.23877,0,0,0,0,0,0,0,-1,1917,715,23.3224,-2.23875
700,309,23.0179,3.08337,0,0,0,0,0,0,0,-1,1924,715,23.018,-3.08336
707,309,15.6318,4.58655,0,0,0,0,0,0,0,-1,1931,715,15.6318,-4.58657
714,309,16.7573,6.68286,0,0,0,0,0,0,0,-1,1938,715,16.7574,-6.68284
721,309,16.8337,5.4458,0,0,0,0,0,0,0,-1,1945,715,16.8338,-5.44582
728,309,0,0,0,0,0,0,0,0,0,-1,1952,715,0,0
735,309,0,0,0,0,0,0,0,0,0,-1,1959,715,0,0
742,309,0,0,0,0,0,0,0,0,0,-1,1966,715,0,0
749,309,0,0,0,0,0,0,0,0,0,-1,1973,715,0,0
756,309,0,0,0,0,0,0,0,0,0,-1,1980,715,0,0
763,309,0,0,0,0,0,0,0,0,0,-1,1987,715,0,0
770,309,0,0,0,0,0,0,0,0,0,-1,1994,715,0,0
777,309,0,0,0,0,0,0,0,0,0,-1,2001,715,0,0
784,309,0,0,0,0,0,0,0,0,0,-1,2008,715,0,0
791,309,0,0,0,0,0,0,0,0,0,-1,2015,715,0,0
798,309,0,0,0,0,0,0,0,0,0,-1,2022,715,0,0
805,309,0,0,0,0,0,0,0,0,0,-1,2029,715,0,0
812,309,0,0,0,0,0,0,0,0,0,-1,2036,715,0,0
-700,302,0,0,0,0,0,0,0,0,0,-1,524,722,0,0
-693,302,0,0,0,0,0,0,0,0,0,-1,531,722,0,0
-686,302,0,0,0,0,0,0,0,0,0,-1,538,722,0,0
-679,302,0,0,0,0,0,0,0,0,0,-1,545,722,0,0
-672,302,0,0,0,0,0,0,0,0,0,-1,552,722,0,0
-665,302,0,0,0,0,0,0,0,0,0,-1,559,722,0,0
-658,302,0,0,0,0,0,0,0,0,0,-1,566,722,0,0
-651,302,0,0,0,0,0,0,0,0,0,-1,573,722,0,0
-644,302,0,0,0,0,0,0,0,0,0,-1,580,722,0,0
-637,302,0,0,0,0,0,0,0,0,0,-1,587,722,0,0
-630,302,0,0,0,0,0,0,0,0,0,-1,594,722,0,0
-623,302,0,0,0,0,0,0,0,0,0,-1,601,722,0,0
-616,302,0,0,0,0,0,0,0,0,0,-1,608,722,0,0
-609,302,-7.79266,-3.71649,0,0,0,0,0,0,0,-1,615,722,-7.79267,3.7165
-602,302,0.92865,-1.99158,0,0,0,0,0,0,0,-1,622,722,0.928637,1.99157
-595,302,-7.89941,2.13641,0,0,0,0,0,0,0,-1,629,722,-7.89939,-2.13639
-588,302,-7.10895,1.79163,0,0,0,0,0,0,0,-1,636,722,-7.10896,-1.79163
-581,302,-9.17566,1.09448,0,0,0,0,0,0,0,-1,643,722,-9.17569,-1.09445
-574,302,-11.5183,-0.344543,0,0,0,0,0,0,0,-1,650,722,-11.5183,0.344557
-567,302,-12.1534,-0.672241,0,0,0,0,0,0,0,-1,657,722,-12.1535,0.672246
-560,302,-15.254,-0.579773,0,0,0,0,0,0,0,-1,664,722,-15.254,0.579746
-553,302,-15.1603,-1.03339,-0.00146902,0.0024358,0.00179116,0.00313295,-0.00216617,1.19962,0.00307638,0.0222655,671,722,-15.1603,1.03338
-546,302,-15.1486,-1.55219,-0.0013331,0.0013322,0.00145439,0.00197216,-0.00197306,1.15627,0.00227777,0.0145137,678,722,-15.1486,1.5522
-539,302,-15.1766,-2.02606,-0.00124074,0.000674062,0.00126836,0.0013058,-0.00187248,1.10869,0.00184467,0.0146037,685,722,-15.1766,2.02604
-532,302,-15.1877,-2.50153,-0.00104843,7.01551e-05,0.000982787,0.00064165,-0.00161992,1.04409,0.00134582,0.0147773,692,722,-15.1877,2.5015
-525,302,-15.1735,-3.01685,-0.000692125,-0.000195357,0.000996536,0.000583283,-0.00147076,0.907533,0.00122225,0.0192998,699,722,-15.1734,3.01686
-518,302,-15.1871,-3.4942,-0.000515157,-3.21512e-05,0.00116351,0.000914659,-0.00146197,0.887727,0.00138422,0.0200846,706,722,-15.1871,3.49421
-511,302,-15.2072,-3.94989,-0.000571166,1.01196e-05,0.00131616,0.00106734,-0.00162839,0.894067,0.00156758,0.0101299,713,722,-15.2072,3.9499
-504,302,-15.2181,-4.4201,-0.000959426,0.000105282,0.00258632,0.00221347,-0.00306761,0.886898,0.0030623,0.00955486,720,722,-15.2181,4.42009
-497,302,-15.2608,-4.88556,-0.00169243,0.0010971,0.00436081,0.00428077,-0.00487609,0.940177,0.00529044,0.0153617,727,722,-15.2608,4.88553
-490,302,-15.3137,-5.35419,0,0,0,0,0,0,0,-1,734,722,-15.3136,5.35421
-483,302,-9.53412,-3.1673,0,0,0,0,0,0,0,-1,741,722,-9.53411,3.1673
-476,302,-4.29749,-0.203491,0,0,0,0,0,0,0,-1,748,722,-4.29751,0.203464
-469,302,-12.369,1.42859,0,0,0,0,0,0,0,-1,755,722,-12.3689,-1.42857
-462,302,-17.4766,0.310791,0,0,0,0,0,0,0,-1,762,722,-17.4766,-0.310788
-455,302,-28.6006,-0.598206,0,0,0,0,0,0,0,-1,769,722,-28.6006,0.598234
-448,302,-29.7947,1.49585,0,0,0,0,0,0,0,-1,776,722,-29.7948,-1.49585
-441,302,-27.6344,0.371826,0,0,0,0,0,0,0,-1,783,722,-27.6344,-0.371825
-434,302,-27.6,1.27759,0,0,0,0,0,0,0,-1,790,722,-27.6,-1.27759
-427,302,-27.1735,1.81506,0,0,0,0,0,0,0,-1,797,722,-27.1735,-1.81504
-420,302,0,0,0,0,0,0,0,0,0,-1,804,722,0,0
-413,302,0,0,0,0,0,0,0,0,0,-1,811,722,0,0
-406,302,0,0,0,0,0,0,0,0,0,-1,818,722,0,0
-399,302,0,0,0,0,0,0,0,0,0,-1,825,722,0,0
-392,302,0,0,0,0,0,0,0,0,0,-1,832,722,0,0
-385,302,0,0,0,0,0,0,0,0,0,-1,839,722,0,0
-378,302,0,0,0,0,0,0,0,0,0,-1,846,722,0,0
-371,302,0,0,0,0,0,0,0,0,0,-1,853,722,0,0
-364,302,0,0,0,0,0,0,0,0,0,-1,860,722,0,0
-357,302,0,0,0,0,0,0,0,0,0,-1,867,722,0,0
-350,302,0,0,0,0,0,0,0,0,0,-1,874,722,0,0
-343,302,0,0,0,0,0,0,0,0,0,-1,881,722,0,0
-336,302,0,0,0,0,0,0,0,0,0,-1,888,722,0,0
-329,302,0,0,0,0,0,0,0,0,0,-1,895,722,0,0
-322,302,0,0,0,0,0,0,0,0,0,-1,902,722,0,0
-315,302,0,0,0,0,0,0,0,0,0,-1,909,722,0,0
-308,302,0,0,0,0,0,0,0,0,0,-1,916,722,0,0
-301,302,0,0,0,0,0,0,0,0,0,-1,923,722,0,0
-294,302,0,0,0,0,0,0,0,0,0,-1,930,722,0,0
-287,302,0,0,0,0,0,0,0,0,0,-1,937,722,0,0
-280,302,0,0,0,0,0,0,0,0,0,-1,944,722,0,0
-273,302,0,0,0,0,0,0,0,0,0,-1,951,722,0,0
-266,302,0,0,0,0,0,0,0,0,0,-1,958,722,0,0
-259,302,0,0,0,0,0,0,0,0,0,-1,965,722,0,0
-252,302,0,0,0,0,0,0,0,0,0,-1,972,722,0,0
-245,302,0,0,0,0,0,0,0,0,0,-1,979,722,0,0
-238,302,0,0,0,0,0,0,0,0,0,-1,986,722,0,0
-231,302,0,0,0,0,0,0,0,0,0,-1,993,722,0,0
-224,302,0,0,0,0,0,0,0,0,0,-1,1000,722,0,0
-217,302,0,0,0,0,0,0,0,0,0,-1,1007,722,0,0
-210,302,0,0,0,0,0,0,0,0,0,-1,1014,722,0,0
-203,302,0,0,0,0,0,0,0,0,0,-1,1021,722,0,0
-196,302,0,0,0,0,0,0,0,0,0,-1,1028,722,0,0
-189,302,0,0,0,0,0,0,0,0,0,-1,1035,722,0,0
-182,302,0,0,0,0,0,0,0,0,0,-1,1042,722,0,0
-175,302,0,0,0,0,0,0,0,0,0,-1,1049,722,0,0
-168,302,0,0,0,0,0,0,0,0,0,-1,1056,722,0,0
-161,302,0,0,0,0,0,0,0,0,0,-1,1063,722,0,0
-154,302,0,0,0,0,0,0,0,0,0,-1,1070,722,0,0
-147,302,0,0,0,0,0,0,0,0,0,-1,1077,722,0,0
-140,302,0,0,0,0,0,0,0,0,0,-1,1084,722,0,0
-133,302,0,0,0,0,0,0,0,0,0,-1,1091,722,0,0
-126,302,0,0,0,0,0,0,0,0,0,-1,1098,722,0,0
-119,302,0,0,0,0,0,0,0,0,0,-1,1105,722,0,0
-112,302,0,0,0,0,0,0,0,0,0,-1,1112,722,0,0
-105,302,0,0,0,0,0,0,0,0,0,-1,1119,722,0,0
-98,302,0,0,0,0,0,0,0,0,0,-1,1126,722,0,0
-91,302,0,0,0,0,0,0,0,0,0,-1,1133,722,0,0
-84,302,0,0,0,0,0,0,0,0,0,-1,1140,722,0,0
-77,302,0,0,0,0,0,0,0,0,0,-1,1147,722,0,0
-70,302,0,0,0,0,0,0,0,0,0,-1,1154,722,0,0
-63,302,0,0,0,0,0,0,0,0,0,-1,1161,722,0,0
-56,302,0,0,0,0,0,0,0,0,0,-1,1168,722,0,0
-49,302,0,0,0,0,0,0,0,0,0,-1,1175,722,0,0
-42,302,0,0,0,0,0,0,0,0,0,-1,1182,722,0,0
-35,302,0,0,0,0,0,0,0,0,0,-1,1189,722,0,0
-28,302,0,0,0,0,0,0,0,0,0,-1,1196,722,0,0
-21,302,0,0,0,0,0,0,0,0,0,-1,1203,722,0,0
-14,302,0,0,0,0,0,0,0,0,0,-1,1210,722,0,0
-7,302,0,0,0,0,0,0,0,0,0,-1,1217,722,0,0
0,302,0,0,0,0,0,0,0,0,0,-1,1224,722,0,0
7,302,0,0,0,0,0,0,0,0,0,-1,1231,722,0,0
14,302,0,0,0,0,0,0,0,0,0,-1,1238,722,0,0
21,302,0,0,0,0,0,0,0,0,0,-1,1245,722,0,0
28,302,0,0,0,0,0,0,0,0,0,-1,1252,722,0,0
35,302,0,0,0,0,0,0,0,0,0,-1,1259,722,0,0
42,302,0,0,0,0,0,0,0,0,0,-1,1266,722,0,0
49,302,0,0,0,0,0,0,0,0,0,-1,1273,722,0,0
56,302,0,0,0,0,0,0,0,0,0,-1,1280,722,0,0
63,302,0,0,0,0,0,0,0,0,0,-1,1287,722,0,0
70,302,0,0,0,0,0,0,0,0,0,-1,1294,722,0,0
77,302,0,0,0,0,0,0,0,0,0,-1,1301,722,0,0
84,302,0,0,0,0,0,0,0,0,0,-1,1308,722,0,0
91,302,0,0,0,0,0,0,0,0,0,-1,1315,722,0,0
98,302,0,0,0,0,0,0,0,0,0,-1,1322,722,0,0
105,302,0,0,0,0,0,0,0,0,0,-1,1329,722,0,0
112,302,0,0,0,0,0,0,0,0,0,-1,1336,722,0,0
119,302,0,0,0,0,0,0,0,0,0,-1,1343,722,0,0
126,302,0,0,0,0,0,0,0,0,0,-1,1350,722,0,0
133,302,0,0,0,0,0,0,0,0,0,-1,1357,722,0,0
140,302,0,0,0,0,0,0,0,0,0,-1,1364,722,0,0
147,302,0,0,0,0,0,0,0,0,0,-1,1371,722,0,0
154,302,0,0,0,0,0,0,0,0,0,-1,1378,722,0,0
161,302,0,0,0,0,0,0,0,0,0,-1,1385,722,0,0
168,302,0,0,0,0,0,0,0,0,0,-1,1392,722,0,0
175,302,0,0,0,0,0,0,0,0,0,-1,1399,722,0,0
182,302,0,0,0,0,0,0,0,0,0,-1,1406,722,0,0
189,302,0,0,0,0,0,0,0,0,0,-1,1413,722,0,0
196,302,0,0,0,0,0,0,0,0,0,-1,1420,722,0,0
203,302,0,0,0,0,0,0,0,0,0,-1,1427,722,0,0
210,302,0,0,0,0,0,0,0,0,0,-1,1434,722,0,0
217,302,0,0,0,0,0,0,0,0,0,-1,1441,722,0,0
224,302,0,0,0,0,0,0,0,0,0,-1,1448,722,0,0
231,302,0,0,0,0,0,0,0,0,0,-1,1455,722,0,0
238,302,0,0,0,0,0,0,0,0,0,-1,1462,722,0,0
245,302,0,0,0,0,0,0,0,0,0,-1,1469,722,0,0
252,302,0,0,0,0,0,0,0,0,0,-1,1476,722,0,0
259,302,0,0,0,0,0,0,0,0,0,-1,1483,722,0,0
266,302,0,0,0,0,0,0,0,0,0,-1,1490,722,0,0
273,302,0,0,0,0,0,0,0,0,0,-1,1497,722,0,0
280,302,0,0,0,0,0,0,0,0,0,-1,1504,722,0,0
287,302,0,0,0,0,0,0,0,0,0,-1,1511,722,0,0
294,302,0,0,0,0,0,0,0,0,0,-1,1518,722,0,0
301,302,0,0,0,0,0,0,0,0,0,-1,1525,722,0,0
308,302,0,0,0,0,0,0,0,0,0,-1,1532,722,0,0
315,302,0,0,0,0,0,0,0,0,0,-1,1539,722,0,0
322,302,0,0,0,0,0,0,0,0,0,-1,1546,722,0,0
329,302,0,0,0,0,0,0,0,0,0,-1,1553,722,0,0
336,302,0,0,0,0,0,0,0,0,0,-1,1560,722,0,0
343,302,0,0,0,0,0,0,0,0,0,-1,1567,722,0,0
350,302,0,0,0,0,0,0,0,0,0,-1,1574,722,0,0
357,302,0,0,0,0,0,0,0,0,0,-1,1581,722,0,0
364,302,0,0,0,0,0,0,0,0,0,-1,1588,722,0,0
371,302,0,0,0,0,0,0,0,0,0,-1,1595,722,0,0
378,302,0,0,0,0,0,0,0,0,0,-1,1602,722,0,0
385,302,0,0,0,0,0,0,0,0,0,-1,1609,722,0,0
392,302,0,0,0,0,0,0,0,0,0,-1,1616,722,0,0
399,302,0,0,0,0,0,0,0,0,0,-1,1623,722,0,0
406,302,0,0,0,0,0,0,0,0,0,-1,1630,722,0,0
413,302,0,0,0,0,0,0,0,0,0,-1,1637,722,0,0
420,302,0,0,0,0,0,0,0,0,0,-1,1644,722,0,0
427,302,0,0,0,0,0,0,0,0,0,-1,1651,722,0,0
434,302,0,0,0,0,0,0,0,0,0,-1,1658,722,0,0
441,302,0,0,0,0,0,0,0,0,0,-1,1665,722,0,0
448,302,0,0,0,0,0,0,0,0,0,-1,1672,722,0,0
455,302,0,0,0,0,0,0,0,0,0,-1,1679,722,0,0
462,302,0,0,0,0,0,0,0,0,0,-1,1686,722,0,0
469,302,0,0,0,0,0,0,0,0,0,-1,1693,722,0,0
476,302,0,0,0,0,0,0,0,0,0,-1,1700,722,0,0
483,302,0,0,0,0,0,0,0,0,0,-1,1707,722,0,0
490,302,0,0,0,0,0,0,0,0,0,-1,1714,722,0,0
497,302,0,0,0,0,0,0,0,0,0,-1,1721,722,0,0
504,302,0,0,0,0,0,0,0,0,0,-1,1728,722,0,0
511,302,0,0,0,0,0,0,0,0,0,-1,1735,722,0,0
518,302,0,0,0,0,0,0,0,0,0,-1,1742,722,0,0
525,302,0,0,0,0,0,0,0,0,0,-1,1749,722,0,0
532,302,0,0,0,0,0,0,0,0,0,-1,1756,722,0,0
539,302,0,0,0,0,0,0,0,0,0,-1,1763,722,0,0
546,302,37.3187,2.44489,0,0,0,0,0,0,0,-1,1770,722,37.3187,-2.4449
553,302,35.6943,0.126709,0,0,0,0,0,0,0,-1,1777,722,35.6944,-0.126737
560,302,36.204,0.8797,0,0,0,0,0,0,0,-1,1784,722,36.204,-0.879678
567,302,36.9598,1.35815,0,0,0,0,0,0,0,-1,1791,722,36.9598,-1.35817
574,302,37.9297,1.69781,0,0,0,0,0,0,0,-1,1798,722,37.9297,-1.69781
581,302,38.2401,2.2843,0,0,0,0,0,0,0,-1,1805,722,38.2402,-2.28431
588,302,26.9731,7.19983,0,0,0,0,0,0,0,-1,1812,722,26.9732,-7.19981
595,302,27.3826,8.13104,0,0,0,0,0,0,0,-1,1819,722,27.3825,-8.13102
602,302,14.7349,5.21246,0,0,0,0,0,0,0,-1,1826,722,14.7349,-5.21247
609,302,11.1578,-0.125854,0,0,0,0,0,0,0,-1,1833,722,11.1579,0.125839
616,302,24.5156,-3.6673,0,0,0,0,0,0,0,-1,1840,722,24.5156,3.66733
623,302,24.5669,-3.09711,0.0019319,0.00571432,-0.00212666,0.00666905,0.000977176,-1.14883,0.00415875,0.0162181,1847,722,24.5669,3.09713
630,302,24.5082,-2.60028,0.00203574,0.00315582,-0.00132299,0.00403243,0.00115913,-0.98562,0.00239721,0.0119329,1854,722,24.5082,2.60031
637,302,24.4795,-2.08575,0.00166337,0.00112293,-0.000529162,0.00198731,0.000798987,-0.549332,0.00115469,0.0153855,1861,722,24.4795,2.08578
644,302,24.514,-1.5733,0.000823507,0.000212926,-6.81845e-05,0.000831029,0.000205404,-0.109868,0.000499824,0.0159599,1868,722,24.514,1.57333
651,302,24.5219,-1.05334,-0.000180563,-4.65216e-06,1.09434e-05,-3.97398e-06,-0.000181241,1.5089,0.000119525,0.0147348,1875,722,24.5219,1.05337
658,302,24.5018,-0.553101,-0.00114746,0.000320952,-0.000208873,0.000350085,-0.00117659,-1.43221,0.000923479,0.0150763,1882,722,24.5018,0.553088
665,302,24.4917,-0.0701294,-0.00214887,0.000763769,-0.000390775,0.000815286,-0.00220038,-1.43972,0.00180127,0.014835,1889,722,24.4917,0.0701556
672,302,24.4707,0.411438,-0.00325906,0.00135458,-0.000520773,0.00141263,-0.00331711,-1.45978,0.00280354,0.0112793,1896,722,24.4707,-0.411467
679,302,24.4454,0.957581,-0.00447656,0.00212436,-0.000610897,0.00218042,-0.00453262,-1.47928,0.00395429,0.00893703,1903,722,24.4454,-0.957608
686,302,24.4374,1.47797,-0.00564017,0.00308634,-0.000575901,0.00312419,-0.00567801,-1.50518,0.00515276,0.0175799,1910,722,24.4373,-1.47796
693,302,24.1479,1.73199,0,0,0,0,0,0,0,-1,1917,722,24.148,-1.732
700,302,23.9307,1.86316,0,0,0,0,0,0,0,-1,1924,722,23.9306,-1.86317
707,302,16.7321,4.76685,0,0,0,0,0,0,0,-1,1931,722,16.7321,-4.76687
714,302,17.2,5.77594,0,0,0,0,0,0,0,-1,1938,722,17.2,-5.77595
721,302,17.7914,6.60394,0,0,0,0,0,0,0,-1,1945,722,17.7914,-6.60395
728,302,17.2798,4.81702,0,0,0,0,0,0,0,-1,1952,722,17.2798,-4.81703
735,302,0,0,0,0,0,0,0,0,0,-1,1959,722,0,0
742,302,0,0,0,0,0,0,0,0,0,-1,1966,722,0,0
749,302,0,0,0,0,0,0,0,0,0,-1,1973,722,0,0
756,302,0,0,0,0,0,0,0,0,0,-1,1980,722,0,0
763,302,0,0,0,0,0,0,0,0,0,-1,1987,722,0,0
770,302,0,0,0,0,0,0,0,0,0,-1,1994,722,0,0
777,302,0,0,0,0,0,0,0,0,0,-1,2001,722,0,0
784,302,0,0,0,0,0,0,0,0,0,-1,2008,722,0,0
791,302,0,0,0,0,0,0,0,0,0,-1,2015,722,0,0
798,302,0,0,0,0,0,0,0,0,0,-1,2022,722,0,0
805,302,0,0,0,0,0,0,0,0,0,-1,2029,722,0,0
812,302,0,0,0,0,0,0,0,0,0,-1,2036,722,0,0
-700,295,0,0,0,0,0,0,0,0,0,-1,524,729,0,0
-693,295,0,0,0,0,0,0,0,0,0,-1,531,729,0,0
-686,295,0,0,0,0,0,0,0,0,0,-1,538,729,0,0
-679,295,0,0,0,0,0,0,0,0,0,-1,545,729,0,0
-672,295,0,0,0,0,0,0,0,0,0,-1,552,729,0,0
-665,295,0,0,0,0,0,0,0,0,0,-1,559,729,0,0
-658,295,0,0,0,0,0,0,0,0,0,-1,566,729,0,0
-651,295,0,0,0,0,0,0,0,0,0,-1,573,729,0,0
-644,295,0,0,0,0,0,0,0,0,0,-1,580,729,0,0
-637,295,0,0,0,0,0,0,0,0,0,-1,587,729,0,0
-630,295,0,0,0,0,0,0,0,0,0,-1,594,729,0,0
-623,295,0,0,0,0,0,0,0,0,0,-1,601,729,0,0
-616,295,-13.4911,1.31738,0,0,0,0,0,0,0,-1,608,729,-13.4911,-1.3174
-609,295,-10.2864,0.832031,0,0,0,0,0,0,0,-1,615,729,-10.2863,-0.832034
-602,295,-8.19006,3.01587,0,0,0,0,0,0,0,-1,622,729,-8.19005,-3.01588
-595,295,-0.615479,-1.95447,0,0,0,0,0,0,0,-1,629,729,-0.615481,1.95445
-588,295,-7.98999,1.56903,0,0,0,0,0,0,0,-1,636,729,-7.98997,-1.56905
-581,295,-12.0404,0.150574,0,0,0,0,0,0,0,-1,643,729,-12.0404,-0.150604
-574,295,-12.1605,-0.0739746,0,0,0,0,0,0,0,-1,650,729,-12.1605,0.0739856
-567,295,-15.3698,0.0441895,0,0,0,0,0,0,0,-1,657,729,-15.3697,-0.0442076
-560,295,-15.5628,-0.582764,0.000581629,0.00376401,0.00140212,0.00429363,5.20083e-05,1.20964,0.00284524,0.0331938,664,729,-15.5628,0.582768
-553,295,-15.5911,-1.07965,-0.0001644,0.00232951,0.00133082,0.00290628,-0.00074117,1.16184,0.00222609,0.0178638,671,729,-15.5911,1.07963
-546,295,-15.6376,-1.53851,-0.000536957,0.00120863,0.00124034,0.00185248,-0.00118081,1.09199,0.00176553,0.020491,678,729,-15.6377,1.53854
-539,295,-15.6511,-1.99683,-0.00092079,0.000480225,0.00126698,0.00122746,-0.00166802,1.03793,0.00167814,0.0188821,685,729,-15.6511,1.99684
-532,295,-15.6799,-2.47357,-0.00100713,-0.000186445,0.00107046,0.000549627,-0.0017432,0.968426,0.00138226,0.0165294,692,729,-15.6799,2.47358
-525,295,-15.675,-2.96558,-0.00077456,-0.000472146,0.00124885,0.000634618,-0.00188132,0.845643,0.00151086,0.0150742,699,729,-15.675,2.96556
-518,295,-15.6729,-3.43787,-0.000748628,-0.000174263,0.00154073,0.00110582,-0.00202871,0.877538,0.00183569,0.0106929,706,729,-15.6729,3.43786
-511,295,-15.6818,-3.90674,-0.000957794,-0.000115699,0.00169002,0.00120494,-0.00227843,0.907481,0.00204271,0.00903958,713,729,-15.6818,3.90675
-504,295,-15.6909,-4.38257,-0.00132877,-8.13076e-05,0.00310638,0.00246334,-0.00387342,0.884476,0.0036886,0.0108764,720,729,-15.6909,4.38254
-497,295,-15.7451,-4.81091,-0.00199679,0.000955881,0.0049656,0.00465997,-0.00570087,0.929893,0.00599189,0.0210692,727,729,-15.7451,4.81092
-490,295,-15.8107,-5.21442,0,0,0,0,0,0,0,-1,734,729,-15.8106,5.21441
-483,295,-6.84503,-0.454651,0,0,0,0,0,0,0,-1,741,729,-6.84505,0.454639
-476,295,-13.1738,-0.836243,0,0,0,0,0,0,0,-1,748,729,-13.1738,0.836223
-469,295,-24.4053,-1.35907,0,0,0,0,0,0,0,-1,755,729,-24.4053,1.35906
-462,295,-29.7701,-0.792664,0,0,0,0,0,0,0,-1,762,729,-29.7701,0.792642
-455,295,-30.4844,0.481934,0,0,0,0,0,0,0,-1,769,729,-30.4844,-0.481918
-448,295,-30.3985,1.28912,0,0,0,0,0,0,0,-1,776,729,-30.3985,-1.28915
-441,295,-30.8951,1.99799,0,0,0,0,0,0,0,-1,783,729,-30.8951,-1.99799
-434,295,-26.6473,1.64215,0,0,0,0,0,0,0,-1,790,729,-26.6473,-1.64213
-427,295,0,0,0,0,0,0,0,0,0,-1,797,729,0,0
-420,295,0,0,0,0,0,0,0,0,0,-1,804,729,0,0
-413,295,0,0,0,0,0,0,0,0,0,-1,811,729,0,0
-406,295,0,0,0,0,0,0,0,0,0,-1,818,729,0,0
-399,295,0,0,0,0,0,0,0,0,0,-1,825,729,0,0
-392,295,0,0,0,0,0,0,0,0,0,-1,832,729,0,0
-385,295,0,0,0,0,0,0,0,0,0,-1,839,729,0,0
-378,295,0,0,0,0,0,0,0,0,0,-1,846,729,0,0
-371,295,0,0,0,0,0,0,0,0,0,-1,853,729,0,0
-364,295,0,0,0,0,0,0,0,0,0,-1,860,729,0,0
-357,295,0,0,0,0,0,0,0,0,0,-1,867,729,0,0
-350,295,0,0,0,0,0,0,0,0,0,-1,874,729,0,0
-343,295,0,0,0,0,0,0,0,0,0,-1,881,729,0,0
-336,295,0,0,0,0,0,0,0,0,0,-1,888,729,0,0
-329,295,0,0,0,0,0,0,0,0,0,-1,895,729,0,0
-322,295,0,0,0,0,0,0,0,0,0,-1,902,729,0,0
-315,295,0,0,0,0,0,0,0,0,0,-1,909,729,0,0
-308,295,0,0,0,0,0,0,0,0,0,-1,916,729,0,0
-301,295,0,0,0,0,0,0,0,0,0,-1,923,729,0,0
-294,295,0,0,0,0,0,0,0,0,0,-1,930,729,0,0
-287,295,0,0,0,0,0,0,0,0,0,-1,937,729,0,0
-280,295,0,0,0,0,0,0,0,0,0,-1,944,729,0,0
-273,295,0,0,0,0,0,0,0,0,0,-1,951,729,0,0
-266,295,0,0,0,0,0,0,0,0,0,-1,958,729,0,0
-259,295,0,0,0,0,0,0,0,0,0,-1,965,729,0,0
-252,295,0,0,0,0,0,0,0,0,0,-1,972,729,0,0
-245,295,0,0,0,0,0,0,0,0,0,-1,979,729,0,0
-238,295,0,0,0,0,0,0,0,0,0,-1,986,729,0,0
-231,295,0,0,0,0,0,0,0,0,0,-1,993,729,0,0
-224,295,0,0,0,0,0,0,0,0,0,-1,1000,729,0,0
-217,295,0,0,0,0,0,0,0,0,0,-1,1007,729,0,0
-210,295,0,0,0,0,0,0,0,0,0,-1,1014,729,0,0
-203,295,0,0,0,0,0,0,0,0,0,-1,1021,729,0,0
-196,295,0,0,0,0,0,0,0,0,0,-1,1028,729,0,0
-189,295,0,0,0,0,0,0,0,0,0,-1,1035,729,0,0
-182,295,0,0,0,0,0,0,0,0,0,-1,1042,729,0,0
-175,295,0,0,0,0,0,0,0,0,0,-1,1049,729,0,0
-168,295,0,0,0,0,0,0,0,0,0,-1,1056,729,0,0
-161,295,0,0,0,0,0,0,0,0,0,-1,1063,729,0,0
-154,295,0,0,0,0,0,0,0,0,0,-1,1070,729,0,0
-147,295,0,0,0,0,0,0,0,0,0,-1,1077,729,0,0
-140,295,0,0,0,0,0,0,0,0,0,-1,1084,729,0,0
-133,295,0,0,0,0,0,0,0,0,0,-1,1091,729,0,0
-126,295,0,0,0,0,0,0,0,0,0,-1,1098,729,0,0
-119,295,0,0,0,0,0,0,0,0,0,-1,1105,729,0,0
-112,295,0,0,0,0,0,0,0,0,0,-1,1112,729,0,0
-105,295,0,0,0,0,0,0,0,0,0,-1,1119,729,0,0
-98,295,0,0,0,0,0,0,0,0,0,-1,1126,729,0,0
-91,295,0,0,0,0,0,0,0,0,0,-1,1133,729,0,0
-84,295,0,0,0,0,0,0,0,0,0,-1,1140,729,0,0
-77,295,0,0,0,0,0,0,0,0,0,-1,1147,729,0,0
-70,295,0,0,0,0,0,0,0,0,0,-1,1154,729,0,0
-63,295,0,0,0,0,0,0,0,0,0,-1,1161,729,0,0
-56,295,0,0,0,0,0,0,0,0,0,-1,1168,729,0,0
-49,295,0,0,0,0,0,0,0,0,0,-1,1175,729,0,0
-42,295,0,0,0,0,0,0,0,0,0,-1,1182,729,0,0
-35,295,0,0,0,0,0,0,0,0,0,-1,1189,729,0,0
-28,295,0,0,0,0,0,0,0,0,0,-1,1196,729,0,0
-21,295,0,0,0,0,0,0,0,0,0,-1,1203,729,0,0
-14,295,0,0,0,0,0,0,0,0,0,-1,1210,729,0,0
-7,295,0,0,0,0,0,0,0,0,0,-1,1217,729,0,0
0,295,0,0,0,0,0,0,0,0,0,-1,1224,729,0,0
7,295,0,0,0,0,0,0,0,0,0,-1,1231,729,0,0
14,295,0,0,0,0,0,0,0,0,0,-1,1238,729,0,0
21,295,0,0,0,0,0,0,0,0,0,-1,1245,729,0,0
28,295,0,0,0,0,0,0,0,0,0,-1,1252,729,0,0
35,295,0,0,0,0,0,0,0,0,0,-1,1259,729,0,0
42,295,0,0,0,0,0,0,0,0,0,-1,1266,729,0,0
49,295,0,0,0,0,0,0,0,0,0,-1,1273,729,0,0
56,295,0,0,0,0,0,0,0,0,0,-1,1280,729,0,0
63,295,0,0,0,0,0,0,0,0,0,-1,1287,729,0,0
70,295,0,0,0,0,0,0,0,0,0,-1,1294,729,0,0
77,295,0,0,0,0,0,0,0,0,0,-1,1301,729,0,0
84,295,0,0,0,0,0,0,0,0,0,-1,1308,729,0,0
91,295,0,0,0,0,0,0,0,0,0,-1,1315,729,0,0
98,295,0,0,0,0,0,0,0,0,0,-1,1322,729,0,0
105,295,0,0,0,0,0,0,0,0,0,-1,1329,729,0,0
112,295,0,0,0,0,0,0,0,0,0,-1,1336,729,0,0
119,295,0,0,0,0,0,0,0,0,0,-1,1343,729,0,0
126,295,0,0,0,0,0,0,0,0,0,-1,1350,729,0,0
133,295,0,0,0,0,0,0,0,0,0,-1,1357,729,0,0
140,295,0,0,0,0,0,0,0,0,0,-1,1364,729,0,0
147,295,0,0,0,0,0,0,0,0,0,-1,1371,729,0,0
154,295,0,0,0,0,0,0,0,0,0,-1,1378,729,0,0
161,295,0,0,0,0,0,0,0,0,0,-1,1385,729,0,0
168,295,0,0,0,0,0,0,0,0,0,-1,1392,729,0,0
175,295,0,0,0,0,0,0,0,0,0,-1,1399,729,0,0
182,295,0,0,0,0,0,0,0,0,0,-1,1406,729,0,0
189,295,0,0,0,0,0,0,0,0,0,-1,1413,729,0,0
196,295,0,0,0,0,0,0,0,0,0,-1,1420,729,0,0
203,295,0,0,0,0,0,0,0,0,0,-1,1427,729,0,0
210,295,0,0,0,0,0,0,0,0,0,-1,1434,729,0,0
217,295,0,0,0,0,0,0,0,0,0,-1,1441,729,0,0
224,295,0,0,0,0,0,0,0,0,0,-1,1448,729,0,0
231,295,0,0,0,0,0,0,0,0,0,-1,1455,729,0,0
238,295,0,0,0,0,0,0,0,0,0,-1,1462,729,0,0
245,295,0,0,0,0,0,0,0,0,0,-1,1469,729,0,0
252,295,0,0,0,0,0,0,0,0,0,-1,1476,729,0,0
259,295,0,0,0,0,0,0,0,0,0,-1,1483,729,0,0
266,295,0,0,0,0,0,0,0,0,0,-1,1490,729,0,0
273,295,0,0,0,0,0,0,0,0,0,-1,1497,729,0,0
280,295,0,0,0,0,0,0,0,0,0,-1,1504,729,0,0
287,295,0,0,0,0,0,0,0,0,0,-1,1511,729,0,0
294,295,0,0,0,0,0,0,0,0,0,-1,1518,729,0,0
301,295,0,0,0,0,0,0,0,0,0,-1,1525,729,0,0
308,295,0,0,0,0,0,0,0,0,0,-1,1532,729,0,0
315,295,0,0,0,0,0,0,0,0,0,-1,1539,729,0,0
322,295,0,0,0,0,0,0,0,0,0,-1,1546,729,0,0
329,295,0,0,0,0,0,0,0,0,0,-1,1553,729,0,0
336,295,0,0,0,0,0,0,0,0,0,-1,1560,729,0,0
343,295,0,0,0,0,0,0,0,0,0,-1,1567,729,0,0
350,295,0,0,0,0,0,0,0,0,0,-1,1574,729,0,0
357,295,0,0,0,0,0,0,0,0,0,-1,1581,729,0,0
364,295,0,0,0,0,0,0,0,0,0,-1,1588,729,0,0
371,295,0,0,0,0,0,0,0,0,0,-1,1595,729,0,0
378,295,0,0,0,0,0,0,0,0,0,-1,1602,729,0,0
385,295,0,0,0,0,0,0,0,0,0,-1,1609,729,0,0
392,295,0,0,0,0,0,0,0,0,0,-1,1616,729,0,0
399,295,0,0,0,0,0,0,0,0,0,-1,1623,729,0,0
406,295,0,0,0,0,0,0,0,0,0,-1,1630,729,0,0
413,295,0,0,0,0,0,0,0,0,0,-1,1637,729,0,0
420,295,0,0,0,0,0,0,0,0,0,-1,1644,729,0,0
427,295,0,0,0,0,0,0,0,0,0,-1,1651,729,0,0
434,295,0,0,0,0,0,0,0,0,0,-1,1658,729,0,0
441,295,0,0,0,0,0,0,0,0,0,-1,1665,729,0,0
448,295,0,0,0,0,0,0,0,0,0,-1,1672,729,0,0
455,295,0,0,0,0,0,0,0,0,0,-1,1679,729,0,0
462,295,0,0,0,0,0,0,0,0,0,-1,1686,729,0,0
469,295,0,0,0,0,0,0,0,0,0,-1,1693,729,0,0
476,295,0,0,0,0,0,0,0,0,0,-1,1700,729,0,0
483,295,0,0,0,0,0,0,0,0,0,-1,1707,729,0,0
490,295,0,0,0,0,0,0,0,0,0,-1,1714,729,0,0
497,295,0,0,0,0,0,0,0,0,0,-1,1721,729,0,0
504,295,0,0,0,0,0,0,0,0,0,-1,1728,729,0,0
511,295,0,0,0,0,0,0,0,0,0,-1,1735,729,0,0
518,295,0,0,0,0,0,0,0,0,0,-1,1742,729,0,0
525,295,0,0,0,0,0,0,0,0,0,-1,1749,729,0,0
532,295,0,0,0,0,0,0,0,0,0,-1,1756,729,0,0
539,295,0,0,0,0,0,0,0,0,0,-1,1763,729,0,0
546,295,36.9579,2.52197,0,0,0,0,0,0,0,-1,1770,729,36.9579,-2.52195
553,295,36.9526,2.32092,0,0,0,0,0,0,0,-1,1777,729,36.9526,-2.32093
560,295,35.1418,-0.388306,0,0,0,0,0,0,0,-1,1784,729,35.1418,0.388314
567,295,35.4042,1.21594,0,0,0,0,0,0,0,-1,1791,729,35.4042,-1.21595
574,295,36.6705,1.65704,0,0,0,0,0,0,0,-1,1798,729,36.6706,-1.65702
581,295,37.8191,2.19592,0,0,0,0,0,0,0,-1,1805,729,37.8191,-2.19594
588,295,39.0542,2.45679,0,0,0,0,0,0,0,-1,1812,729,39.0542,-2.45676
595,295,27.2102,6.99121,0,0,0,0,0,0,0,-1,1819,729,27.2103,-6.99121
602,295,26.9065,7.82141,0,0,0,0,0,0,0,-1,1826,729,26.9064,-7.8214
609,295,11.7737,2.19989,0,0,0,0,0,0,0,-1,1833,729,11.7736,-2.19988
616,295,25.2118,-3.57831,0,0,0,0,0,0,0,-1,1840,729,25.2119,3.57831
623,295,25.0776,-3.08606,0.0017705,0.00654738,-0.00247661,0.00759962,0.000718271,-1.16904,0.00484477,0.0351363,1847,729,25.0777,3.08605
630,295,24.9929,-2.57184,0.00205496,0.00387629,-0.0016759,0.00487297,0.00105829,-1.03428,0.00295964,0.0130747,1854,729,24.9929,2.57182
637,295,24.9918,-2.04913,0.00192132,0.00155987,-0.000735199,0.00249768,0.000983511,-0.66488,0.00145285,0.0141727,1861,729,24.9918,2.04913
644,295,25.0145,-1.55072,0.00125671,0.000367358,-2.83626e-05,0.00125761,0.000366454,-0.0318482,0.000746851,0.0131976,1868,729,25.0146,1.55073
651,295,25.0115,-1.04846,0.000428491,-9.21902e-06,0.000256628,0.000546913,-0.000127641,0.432337,0.000413771,0.0131776,1875,729,25.0114,1.04848
658,295,24.9921,-0.551819,-0.000253399,0.000375113,0.000149457,0.000408843,-0.000287129,1.34883,0.000403862,0.0123504,1882,729,24.9921,0.551835
665,295,24.98,-0.0819092,-0.000987338,0.000902421,8.27738e-05,0.00090604,-0.000990957,1.52711,0.0010956,0.0120369,1889,729,24.98,0.0819104
672,295,24.9543,0.412598,-0.00181784,0.00159958,8.54814e-05,0.00160171,-0.00181997,1.5458,0.00197685,0.0130085,1896,729,24.9543,-0.41257
679,295,24.9347,0.957825,-0.00265319,0.00242649,0.000161239,0.00243161,-0.0026583,1.5391,0.00293963,0.00954295,1903,729,24.9347,-0.957848
686,295,24.9425,1.45264,-0.00338722,0.00343457,0.000353436,0.00345283,-0.00340548,1.51917,0.00395968,0.010285,1910,729,24.9426,-1.45263
693,295,24.8766,1.97827,-0.00388044,0.00461358,0.000667652,0.00466574,-0.00393259,1.49283,0.00497026,0.0414378,1917,729,24.8766,-1.97829
700,295,24.8743,2.51685,0,0,0,0,0,0,0,-1,1924,729,24.8743,-2.51686
707,295,22.2661,3.05206,0,0,0,0,0,0,0,-1,1931,729,22.2662,-3.05207
714,295,17.4906,4.63068,0,0,0,0,0,0,0,-1,1938,729,17.4906,-4.63066
721,295,18.3792,5.32281,0,0,0,0,0,0,0,-1,1945,729,18.3791,-5.32283
728,295,17.379,3.74866,0,0,0,0,0,0,0,-1,1952,729,17.379,-3.74863
735,295,0,0,0,0,0,0,0,0,0,-1,1959,729,0,0
742,295,0,0,0,0,0,0,0,0,0,-1,1966,729,0,0
749,295,0,0,0,0,0,0,0,0,0,-1,1973,729,0,0
756,295,0,0,0,0,0,0,0,0,0,-1,1980,729,0,0
763,295,0,0,0,0,0,0,0,0,0,-1,1987,729,0,0
770,295,0,0,0,0,0,0,0,0,0,-1,1994,729,0,0
777,295,0,0,0,0,0,0,0,0,0,-1,2001,729,0,0
784,295,0,0,0,0,0,0,0,0,0,-1,2008,729,0,0
791,295,0,0,0,0,0,0,0,0,0,-1,2015,729,0,0
798,295,0,0,0,0,0,0,0,0,0,-1,2022,729,0,0
805,295,0,0,0,0,0,0,0,0,0,-1,2029,729,0,0
812,295,0,0,0,0,0,0,0,0,0,-1,2036,729,0,0
-700,288,0,0,0,0,0,0,0,0,0,-1,524,736,0,0
-693,288,0,0,0,0,0,0,0,0,0,-1,531,736,0,0
-686,288,0,0,0,0,0,0,0,0,0,-1,538,736,0,0
-679,288,0,0,0,0,0,0,0,0,0,-1,545,736,0,0
-672,288,0,0,0,0,0,0,0,0,0,-1,552,736,0,0
-665,288,0,0,0,0,0,0,0,0,0,-1,559,736,0,0
-658,288,0,0,0,0,0,0,0,0,0,-1,566,736,0,0
-651,288,0,0,0,0,0,0,0,0,0,-1,573,736,0,0
-644,288,0,0,0,0,0,0,0,0,0,-1,580,736,0,0
-637,288,0,0,0,0,0,0,0,0,0,-1,587,736,0,0
-630,288,0,0,0,0,0,0,0,0,0,-1,594,736,0,0
-623,288,0,0,0,0,0,0,0,0,0,-1,601,736,0,0
-616,288,-11.7584,2.4425,0,0,0,0,0,0,0,-1,608,736,-11.7584,-2.44251
-609,288,-10.3007,2.32178,0,0,0,0,0,0,0,-1,615,736,-10.3007,-2.32178
-602,288,-10.1458,-1.85559,0,0,0,0,0,0,0,-1,622,736,-10.1458,1.85556
-595,288,-7.63208,1.81769,0,0,0,0,0,0,0,-1,629,736,-7.63205,-1.81766
-588,288,-8.19269,1.50598,0,0,0,0,0,0,0,-1,636,736,-8.19268,-1.50601
-581,288,-13.1915,0.659241,0,0,0,0,0,0,0,-1,643,736,-13.1915,-0.659228
-574,288,-15.8821,0.295288,0,0,0,0,0,0,0,-1,650,736,-15.8821,-0.295274
-567,288,-15.8705,-0.152893,0.00396093,0.00578548,7.39821e-05,0.00578847,0.00395794,1.53034,0.00341638,0.0366402,657,736,-15.8705,0.15291
-560,288,-16.0772,-0.667236,0.00206819,0.00364877,0.000485311,0.00378589,0.00193107,1.29544,0.00218593,0.0170229,664,736,-16.0772,0.667242
-553,288,-16.0793,-1.07239,0.00084091,0.00218447,0.000747107,0.00251741,0.000507972,1.15158,0.00153718,0.0189031,671,736,-16.0793,1.07238
-546,288,-16.1077,-1.52985,9.80078e-05,0.00106915,0.000906368,0.00161182,-0.000444662,1.03131,0.00124943,0.0212844,678,736,-16.1077,1.52985
-539,288,-16.1235,-2.00079,-0.000654322,0.000285939,0.00117795,0.00108411,-0.00145249,0.975267,0.00146965,0.0182853,685,736,-16.1235,2.00076
-532,288,-16.1111,-2.47064,-0.000938121,-0.000405032,0.0010884,0.000448982,-0.00179214,0.905483,0.00136918,0.0141531,692,736,-16.1111,2.47066
-525,288,-16.1221,-2.94788,-0.00079759,-0.000640901,0.001459,0.000741856,-0.00218035,0.812221,0.00175395,0.0125848,699,736,-16.122,2.94787
-518,288,-16.1587,-3.41949,-0.000922242,-0.000121919,0.00186344,0.00138384,-0.002428,0.891164,0.00222812,0.0114021,706,736,-16.1587,3.41951
-511,288,-16.169,-3.89667,-0.00126533,2.28573e-05,0.00197489,0.00145603,-0.0026985,0.94303,0.00243412,0.00916065,713,736,-16.169,3.89669
-504,288,-16.1739,-4.367,-0.00158532,-4.10078e-06,0.00342932,0.00272456,-0.00431398,0.898691,0.0040981,0.0111878,720,736,-16.1739,4.36702
-497,288,-16.1914,-4.67505,-0.00218298,0.00101781,0.00527818,0.00493288,-0.00609806,0.932598,0.00638055,0.0299254,727,736,-16.1914,4.67508
-490,288,-16.1382,-4.93207,0,0,0,0,0,0,0,-1,734,736,-16.1382,4.93209
-483,288,-17.3287,0.564758,0,0,0,0,0,0,0,-1,741,736,-17.3287,-0.56477
-476,288,-23.9319,-1.89484,0,0,0,0,0,0,0,-1,748,736,-23.9319,1.89483
-469,288,-29.9731,-1.18945,0,0,0,0,0,0,0,-1,755,736,-29.9731,1.18942
-462,288,-30.0221,-0.519409,0,0,0,0,0,0,0,-1,762,736,-30.0221,0.51939
-455,288,-30.3641,0.236389,-0.0109176,0.00911304,0.0240583,0.0251575,-0.026962,0.982634,0.0300972,0.0421285,769,736,-30.3641,-0.236419
-448,288,-30.7234,0.945251,-0.014252,0.0119818,0.0306344,0.0321894,-0.0344596,0.987677,0.0384873,0.0443798,776,736,-30.7234,-0.94523
-441,288,-31.113,1.54022,0,0,0,0,0,0,0,-1,783,736,-31.113,-1.54024
-434,288,-26.0831,2.26532,0,0,0,0,0,0,0,-1,790,736,-26.083,-2.26529
-427,288,0,0,0,0,0,0,0,0,0,-1,797,736,0,0
-420,288,0,0,0,0,0,0,0,0,0,-1,804,736,0,0
-413,288,0,0,0,0,0,0,0,0,0,-1,811,736,0,0
-406,288,0,0,0,0,0,0,0,0,0,-1,818,736,0,0
-399,288,0,0,0,0,0,0,0,0,0,-1,825,736,0,0
-392,288,0,0,0,0,0,0,0,0,0,-1,832,736,0,0
-385,288,0,0,0,0,0,0,0,0,0,-1,839,736,0,0
-378,288,0,0,0,0,0,0,0,0,0,-1,846,736,0,0
-371,288,0,0,0,0,0,0,0,0,0,-1,853,736,0,0
-364,288,0,0,0,0,0,0,0,0,0,-1,860,736,0,0
-357,288,0,0,0,0,0,0,0,0,0,-1,867,736,0,0
-350,288,0,0,0,0,0,0,0,0,0,-1,874,736,0,0
-343,288,0,0,0,0,0,0,0,0,0,-1,881,736,0,0
-336,288,0,0,0,0,0,0,0,0,0,-1,888,736,0,0
-329,288,0,0,0,0,0,0,0,0,0,-1,895,736,0,0
-322,288,0,0,0,0,0,0,0,0,0,-1,902,736,0,0
-315,288,0,0,0,0,0,0,0,0,0,-1,909,736,0,0
-308,288,0,0,0,0,0,0,0,0,0,-1,916,736,0,0
-301,288,0,0,0,0,0,0,0,0,0,-1,923,736,0,0
-294,288,0,0,0,0,0,0,0,0,0,-1,930,736,0,0
-287,288,0,0,0,0,0,0,0,0,0,-1,937,736,0,0
-280,288,0,0,0,0,0,0,0,0,0,-1,944,736,0,0
-273,288,0,0,0,0,0,0,0,0,0,-1,951,736,0,0
-266,288,0,0,0,0,0,0,0,0,0,-1,958,736,0,0
-259,288,0,0,0,0,0,0,0,0,0,-1,965,736,0,0
-252,288,0,0,0,0,0,0,0,0,0,-1,972,736,0,0
-245,288,0,0,0,0,0,0,0,0,0,-1,979,736,0,0
-238,288,0,0,0,0,0,0,0,0,0,-1,986,736,0,0
-231,288,0,0,0,0,0,0,0,0,0,-1,993,736,0,0
-224,288,0,0,0,0,0,0,0,0,0,-1,1000,736,0,0
-217,288,0,0,0,0,0,0,0,0,0,-1,1007,736,0,0
-210,288,0,0,0,0,0,0,0,0,0,-1,1014,736,0,0
-203,288,0,0,0,0,0,0,0,0,0,-1,1021,736,0,0
-196,288,0,0,0,0,0,0,0,0,0,-1,1028,736,0,0
-189,288,0,0,0,0,0,0,0,0,0,-1,1035,736,0,0
-182,288,0,0,0,0,0,0,0,0,0,-1,1042,736,0,0
-175,288,0,0,0,0,0,0,0,0,0,-1,1049,736,0,0
-168,288,0,0,0,0,0,0,0,0,0,-1,1056,736,0,0
-161,288,0,0,0,0,0,0,0,0,0,-1,1063,736,0,0
-154,288,0,0,0,0,0,0,0,0,0,-1,1070,736,0,0
-147,288,0,0,0,0,0,0,0,0,0,-1,1077,736,0,0
-140,288,0,0,0,0,0,0,0,0,0,-1,1084,736,0,0
-133,288,0,0,0,0,0,0,0,0,0,-1,1091,736,0,0
-126,288,0,0,0,0,0,0,0,0,0,-1,1098,736,0,0
-119,288,0,0,0,0,0,0,0,0,0,-1,1105,736,0,0
-112,288,0,0,0,0,0,0,0,0,0,-1,1112,736,0,0
-105,288,0,0,0,0,0,0,0,0,0,-1,1119,736,0,0
-98,288,0,0,0,0,0,0,0,0,0,-1,1126,736,0,0
-91,288,0,0,0,0,0,0,0,0,0,-1,1133,736,0,0
-84,288,0,0,0,0,0,0,0,0,0,-1,1140,736,0,0
-77,288,0,0,0,0,0,0,0,0,0,-1,1147,736,0,0
-70,288,0,0,0,0,0,0,0,0,0,-1,1154,736,0,0
-63,288,0,0,0,0,0,0,0,0,0,-1,1161,736,0,0
-56,288,0,0,0,0,0,0,0,0,0,-1,1168,736,0,0
-49,288,0,0,0,0,0,0,0,0,0,-1,1175,736,0,0
-42,288,0,0,0,0,0,0,0,0,0,-1,1182,736,0,0
-35,288,0,0,0,0,0,0,0,0,0,-1,1189,736,0,0
-28,288,0,0,0,0,0,0,0,0,0,-1,1196,736,0,0
-21,288,0,0,0,0,0,0,0,0,0,-1,1203,736,0,0
-14,288,0,0,0,0,0,0,0,0,0,-1,1210,736,0,0
-7,288,0,0,0,0,0,0,0,0,0,-1,1217,736,0,0
0,288,0,0,0,0,0,0,0,0,0,-1,1224,736,0,0
7,288,0,0,0,0,0,0,0,0,0,-1,1231,736,0,0
14,288,0,0,0,0,0,0,0,0,0,-1,1238,736,0,0
21,288,0,0,0,0,0,0,0,0,0,-1,1245,736,0,0
28,288,0,0,0,0,0,0,0,0,0,-1,1252,736,0,0
35,288,0,0,0,0,0,0,0,0,0,-1,1259,736,0,0
42,288,0,0,0,0,0,0,0,0,0,-1,1266,736,0,0
49,288,0,0,0,0,0,0,0,0,0,-1,1273,736,0,0
56,288,0,0,0,0,0,0,0,0,0,-1,1280,736,0,0
63,288,0,0,0,0,0,0,0,0,0,-1,1287,736,0,0
70,288,0,0,0,0,0,0,0,0,0,-1,1294,736,0,0
77,288,0,0,0,0,0,0,0,0,0,-1,1301,736,0,0
84,288,0,0,0,0,0,0,0,0,0,-1,1308,736,0,0
91,288,0,0,0,0,0,0,0,0,0,-1,1315,736,0,0
98,288,0,0,0,0,0,0,0,0,0,-1,1322,736,0,0
105,288,0,0,0,0,0,0,0,0,0,-1,1329,736,0,0
112,288,0,0,0,0,0,0,0,0,0,-1,1336,736,0,0
119,288,0,0,0,0,0,0,0,0,0,-1,1343,736,0,0
126,288,0,0,0,0,0,0,0,0,0,-1,1350,736,0,0
133,288,0,0,0,0,0,0,0,0,0,-1,1357,736,0,0
140,288,0,0,0,0,0,0,0,0,0,-1,1364,736,0,0
147,288,0,0,0,0,0,0,0,0,0,-1,1371,736,0,0
154,288,0,0,0,0,0,0,0,0,0,-1,1378,736,0,0
161,288,0,0,0,0,0,0,0,0,0,-1,1385,736,0,0
168,288,0,0,0,0,0,0,0,0,0,-1,1392,736,0,0
175,288,0,0,0,0,0,0,0,0,0,-1,1399,736,0,0
182,288,0,0,0,0,0,0,0,0,0,-1,1406,736,0,0
189,288,0,0,0,0,0,0,0,0,0,-1,1413,736,0,0
196,288,0,0,0,0,0,0,0,0,0,-1,1420,736,0,0
203,288,0,0,0,0,0,0,0,0,0,-1,1427,736,0,0
210,288,0,0,0,0,0,0,0,0,0,-1,1434,736,0,0
217,288,0,0,0,0,0,0,0,0,0,-1,1441,736,0,0
224,288,0,0,0,0,0,0,0,0,0,-1,1448,736,0,0
231,288,0,0,0,0,0,0,0,0,0,-1,1455,736,0,0
238,288,0,0,0,0,0,0,0,0,0,-1,1462,736,0,0
245,288,0,0,0,0,0,0,0,0,0,-1,1469,736,0,0
252,288,0,0,0,0,0,0,0,0,0,-1,1476,736,0,0
259,288,0,0,0,0,0,0,0,0,0,-1,1483,736,0,0
266,288,0,0,0,0,0,0,0,0,0,-1,1490,736,0,0
273,288,0,0,0,0,0,0,0,0,0,-1,1497,736,0,0
280,288,0,0,0,0,0,0,0,0,0,-1,1504,736,0,0
287,288,0,0,0,0,0,0,0,0,0,-1,1511,736,0,0
294,288,0,0,0,0,0,0,0,0,0,-1,1518,736,0,0
301,288,0,0,0,0,0,0,0,0,0,-1,1525,736,0,0
308,288,0,0,0,0,0,0,0,0,0,-1,1532,736,0,0
315,288,0,0,0,0,0,0,0,0,0,-1,1539,736,0,0
322,288,0,0,0,0,0,0,0,0,0,-1,1546,736,0,0
329,288,0,0,0,0,0,0,0,0,0,-1,1553,736,0,0
336,288,0,0,0,0,0,0,0,0,0,-1,1560,736,0,0
343,288,0,0,0,0,0,0,0,0,0,-1,1567,736,0,0
350,288,0,0,0,0,0,0,0,0,0,-1,1574,736,0,0
357,288,0,0,0,0,0,0,0,0,0,-1,1581,736,0,0
364,288,0,0,0,0,0,0,0,0,0,-1,1588,736,0,0
371,288,0,0,0,0,0,0,0,0,0,-1,1595,736,0,0
378,288,0,0,0,0,0,0,0,0,0,-1,1602,736,0,0
385,288,0,0,0,0,0,0,0,0,0,-1,1609,736,0,0
392,288,0,0,0,0,0,0,0,0,0,-1,1616,736,0,0
399,288,0,0,0,0,0,0,0,0,0,-1,1623,736,0,0
406,288,0,0,0,0,0,0,0,0,0,-1,1630,736,0,0
413,288,0,0,0,0,0,0,0,0,0,-1,1637,736,0,0
420,288,0,0,0,0,0,0,0,0,0,-1,1644,736,0,0
427,288,0,0,0,0,0,0,0,0,0,-1,1651,736,0,0
434,288,0,0,0,0,0,0,0,0,0,-1,1658,736,0,0
441,288,0,0,0,0,0,0,0,0,0,-1,1665,736,0,0
448,288,0,0,0,0,0,0,0,0,0,-1,1672,736,0,0
455,288,0,0,0,0,0,0,0,0,0,-1,1679,736,0,0
462,288,0,0,0,0,0,0,0,0,0,-1,1686,736,0,0
469,288,0,0,0,0,0,0,0,0,0,-1,1693,736,0,0
476,288,0,0,0,0,0,0,0,0,0,-1,1700,736,0,0
483,288,0,0,0,0,0,0,0,0,0,-1,1707,736,0,0
490,288,0,0,0,0,0,0,0,0,0,-1,1714,736,0,0
497,288,0,0,0,0,0,0,0,0,0,-1,1721,736,0,0
504,288,0,0,0,0,0,0,0,0,0,-1,1728,736,0,0
511,288,0,0,0,0,0,0,0,0,0,-1,1735,736,0,0
518,288,0,0,0,0,0,0,0,0,0,-1,1742,736,0,0
525,288,0,0,0,0,0,0,0,0,0,-1,1749,736,0,0
532,288,0,0,0,0,0,0,0,0,0,-1,1756,736,0,0
539,288,0,0,0,0,0,0,0,0,0,-1,1763,736,0,0
546,288,0,0,0,0,0,0,0,0,0,-1,1770,736,0,0
553,288,35.5283,4.23627,0,0,0,0,0,0,0,-1,1777,736,35.5283,-4.23627
560,288,36.3204,4.37854,0,0,0,0,0,0,0,-1,1784,736,36.3204,-4.37855
567,288,39.1259,3.99316,0,0,0,0,0,0,0,-1,1791,736,39.1259,-3.99315
574,288,38.8695,3.76654,0,0,0,0,0,0,0,-1,1798,736,38.8695,-3.76656
581,288,39.0983,3.39862,0,0,0,0,0,0,0,-1,1805,736,39.0982,-3.39862
588,288,39.6737,4.59491,0,0,0,0,0,0,0,-1,1812,736,39.6737,-4.59489
595,288,40.1831,2.50763,0,0,0,0,0,0,0,-1,1819,736,40.1831,-2.50762
602,288,26.7634,7.61279,0,0,0,0,0,0,0,-1,1826,736,26.7635,-7.61279
609,288,17.5223,4.86414,0,0,0,0,0,0,0,-1,1833,736,17.5223,-4.86412
616,288,13.4886,0.801331,0,0,0,0,0,0,0,-1,1840,736,13.4886,-0.80132
623,288,25.599,-3.12457,0,0,0,0,0,0,0,-1,1847,736,25.599,3.12456
630,288,25.465,-2.56543,0.00218906,0.00440091,-0.00199309,0.00557435,0.00101563,-1.03869,0.00342821,0.0245376,1854,736,25.465,2.56543
637,288,25.5107,-2.04358,0.00219242,0.00195687,-0.00101282,0.00309429,0.00105501,-0.727515,0.00181637,0.0106574,1861,736,25.5108,2.04356
644,288,25.5157,-1.55383,0.00159239,0.000438817,-0.000114515,0.00160365,0.000427559,-0.0979952,0.000958896,0.00947203,1868,736,25.5157,1.55381
651,288,25.5024,-1.0578,0.000799261,-0.000216121,0.000332937,0.000898692,-0.000315552,0.290216,0.000727493,0.010295,1875,736,25.5025,1.05781
658,288,25.4979,-0.529236,0.000288003,0.000153043,0.000306244,0.000534114,-9.30676e-05,0.676957,0.00039081,0.01565,1882,736,25.498,0.529249
665,288,25.4883,-0.0355225,-0.000289832,0.000722061,0.000337786,0.000824458,-0.000392228,1.27646,0.000717077,0.0172765,1889,736,25.4883,0.0355148
672,288,25.4503,0.435364,-0.000970759,0.00150154,0.000447513,0.00158005,-0.00104927,1.39712,0.00152832,0.0150749,1896,736,25.4503,-0.435369
679,288,25.4457,0.960327,-0.00159405,0.00239508,0.000655559,0.00250005,-0.00169902,1.41202,0.00243899,0.0125512,1903,736,25.4457,-0.960297
686,288,25.4242,1.4267,-0.00208745,0.00345339,0.000959804,0.00361494,-0.002249,1.40404,0.00341602,0.0101398,1910,736,25.4241,-1.42669
693,288,25.4253,1.99158,-0.00230705,0.00466283,0.00141861,0.0049405,-0.00258473,1.3775,0.00441509,0.0194149,1917,736,25.4253,-1.99155
700,288,25.3163,2.6637,-0.00212278,0.00615774,0.00210709,0.00666308,-0.00262812,1.33541,0.00553032,0.0418025,1924,736,25.3163,-2.66372
707,288,25.3961,3.35712,0,0,0,0,0,0,0,-1,1931,736,25.3961,-3.35714
714,288,23.0149,3.82544,0,0,0,0,0,0,0,-1,1938,736,23.0149,-3.82541
721,288,18.0732,3.69385,0,0,0,0,0,0,0,-1,1945,736,18.0732,-3.69387
728,288,19.3208,3.91455,0,0,0,0,0,0,0,-1,1952,736,19.3209,-3.91455
735,288,18.7712,3.51312,0,0,0,0,0,0,0,-1,1959,736,18.7713,-3.51309
742,288,0,0,0,0,0,0,0,0,0,-1,1966,736,0,0
749,288,0,0,0,0,0,0,0,0,0,-1,1973,736,0,0
756,288,0,0,0,0,0,0,0,0,0,-1,1980,736,0,0
763,288,0,0,0,0,0,0,0,0,0,-1,1987,736,0,0
770,288,0,0,0,0,0,0,0,0,0,-1,1994,736,0,0
777,288,0,0,0,0,0,0,0,0,0,-1,2001,736,0,0
784,288,0,0,0,0,0,0,0,0,0,-1,2008,736,0,0
791,288,0,0,0,0,0,0,0,0,0,-1,2015,736,0,0
798,288,0,0,0,0,0,0,0,0,0,-1,2022,736,0,0
805,288,0,0,0,0,0,0,0,0,0,-1,2029,736,0,0
812,288,0,0,0,0,0,0,0,0,0,-1,2036,736,0,0
-700,281,0,0,0,0,0,0,0,0,0,-1,524,743,0,0
-693,281,0,0,0,0,0,0,0,0,0,-1,531,743,0,0
-686,281,0,0,0,0,0,0,0,0,0,-1,538,743,0,0
-679,281,0,0,0,0,0,0,0,0,0,-1,545,743,0,0
-672,281,0,0,0,0,0,0,0,0,0,-1,552,743,0,0
-665,281,0,0,0,0,0,0,0,0,0,-1,559,743,0,0
-658,281,0,0,0,0,0,0,0,0,0,-1,566,743,0,0
-651,281,0,0,0,0,0,0,0,0,0,-1,573,743,0,0
-644,281,0,0,0,0,0,0,0,0,0,-1,580,743,0,0
-637,281,0,0,0,0,0,0,0,0,0,-1,587,743,0,0
-630,281,0,0,0,0,0,0,0,0,0,-1,594,743,0,0
-623,281,-19.1697,5.67017,0,0,0,0,0,0,0,-1,601,743,-19.1697,-5.67019
-616,281,-11.5906,2.6853,0,0,0,0,0,0,0,-1,608,743,-11.5906,-2.68529
-609,281,-16.1972,4.14838,0,0,0,0,0,0,0,-1,615,743,-16.1972,-4.14837
-602,281,-12.7697,3.94086,0,0,0,0,0,0,0,-1,622,743,-12.7697,-3.94086
-595,281,-10.4797,-1.07404,0,0,0,0,0,0,0,-1,629,743,-10.4798,1.07402
-588,281,-13.277,1.49817,0,0,0,0,0,0,0,-1,636,743,-13.2771,-1.49817
-581,281,-16.5206,0.664551,0,0,0,0,0,0,0,-1,643,743,-16.5205,-0.664572
-574,281,-16.4161,0.274841,0.00922927,0.00826552,-0.00211063,0.0109123,0.00658245,-0.673168,0.00634483,0.0369365,650,743,-16.4161,-0.274853
-567,281,-16.531,-0.134583,0.005524,0.00557403,-0.000874782,0.00642415,0.00467387,-0.799692,0.00383488,0.0179192,657,743,-16.531,0.13456
-560,281,-16.5748,-0.605713,0.00311274,0.00352682,-0.000146067,0.00357316,0.0030664,-1.26359,0.00223244,0.00852785,664,743,-16.5748,0.605704
-553,281,-16.5639,-1.0752,0.00146213,0.0020404,0.00037481,0.00222464,0.00127789,1.11393,0.00128913,0.0144922,671,743,-16.5639,1.07517
-546,281,-16.5645,-1.52026,0.000371323,0.000928263,0.000740822,0.00144122,-0.000141638,0.965175,0.00101134,0.0166186,678,743,-16.5645,1.52028
-539,281,-16.5909,-2.00085,-0.000720354,0.000137327,0.0012679,0.00104695,-0.00162997,0.948473,0.00155769,0.0139963,685,743,-16.591,2.00088
-532,281,-16.6061,-2.44208,-0.00119841,-0.000448052,0.0013257,0.000554533,-0.002201,0.923295,0.00168291,0.0126835,692,743,-16.6061,2.44209
-525,281,-16.6172,-2.92377,-0.00117517,-0.000492876,0.00193053,0.00112641,-0.00279446,0.872851,0.002331,0.014467,699,743,-16.6172,2.92376
-518,281,-16.6271,-3.42157,-0.00145763,0.000349238,0.00245584,0.00206255,-0.00317094,0.961651,0.00304406,0.0130143,706,743,-16.6271,3.42157
-511,281,-16.6564,-3.91089,-0.00188451,0.000662638,0.00252394,0.00221612,-0.00343799,1.01906,0.00328972,0.0119828,713,743,-16.6564,3.91087
-504,281,-16.6928,-4.40106,-0.00209295,0.0005821,0.00391402,0.00338081,-0.00489167,0.950041,0.0048026,0.0146815,720,743,-16.6928,4.40109
-497,281,-16.6479,-4.93604,-0.00255684,0.0015181,0.00565332,0.0054899,-0.00652864,0.958354,0.00694754,0.0439382,727,743,-16.6479,4.93602
-490,281,-16.5437,-5.35083,0,0,0,0,0,0,0,-1,734,743,-16.5437,5.35082
-483,281,-22.1078,-2.34973,0,0,0,0,0,0,0,-1,741,743,-22.1078,2.3497
-476,281,-26.9312,1.53424,0,0,0,0,0,0,0,-1,748,743,-26.9312,-1.53425
-469,281,-22.4766,2.3974,0,0,0,0,0,0,0,-1,755,743,-22.4765,-2.39738
-462,281,-30.2266,-1.06885,0,0,0,0,0,0,0,-1,762,743,-30.2266,1.06884
-455,281,-30.2032,-0.0905762,-0.0103186,0.00530174,0.0245297,0.0232346,-0.0282515,0.939522,0.0297725,0.0415424,769,743,-30.2032,0.0905773
-448,281,-30.4891,0.542419,-0.0123814,0.00571408,0.0301469,0.0281417,-0.034809,0.931182,0.0364125,0.04411,776,743,-30.4892,-0.542443
-441,281,-30.7832,1.15216,0,0,0,0,0,0,0,-1,783,743,-30.7832,-1.15217
-434,281,0,0,0,0,0,0,0,0,0,-1,790,743,0,0
-427,281,0,0,0,0,0,0,0,0,0,-1,797,743,0,0
-420,281,0,0,0,0,0,0,0,0,0,-1,804,743,0,0
-413,281,0,0,0,0,0,0,0,0,0,-1,811,743,0,0
-406,281,0,0,0,0,0,0,0,0,0,-1,818,743,0,0
-399,281,0,0,0,0,0,0,0,0,0,-1,825,743,0,0
-392,281,0,0,0,0,0,0,0,0,0,-1,832,743,0,0
-385,281,0,0,0,0,0,0,0,0,0,-1,839,743,0,0
-378,281,0,0,0,0,0,0,0,0,0,-1,846,743,0,0
-371,281,0,0,0,0,0,0,0,0,0,-1,853,743,0,0
-364,281,0,0,0,0,0,0,0,0,0,-1,860,743,0,0
-357,281,0,0,0,0,0,0,0,0,0,-1,867,743,0,0
-350,281,0,0,0,0,0,0,0,0,0,-1,874,743,0,0
-343,281,0,0,0,0,0,0,0,0,0,-1,881,743,0,0
-336,281,0,0,0,0,0,0,0,0,0,-1,888,743,0,0
-329,281,0,0,0,0,0,0,0,0,0,-1,895,743,0,0
-322,281,0,0,0,0,0,0,0,0,0,-1,902,743,0,0
-315,281,0,0,0,0,0,0,0,0,0,-1,909,743,0,0
-308,281,0,0,0,0,0,0,0,0,0,-1,916,743,0,0
-301,281,0,0,0,0,0,0,0,0,0,-1,923,743,0,0
-294,281,0,0,0,0,0,0,0,0,0,-1,930,743,0,0
-287,281,0,0,0,0,0,0,0,0,0,-1,937,743,0,0
-280,281,0,0,0,0,0,0,0,0,0,-1,944,743,0,0
-273,281,0,0,0,0,0,0,0,0,0,-1,951,743,0,0
-266,281,0,0,0,0,0,0,0,0,0,-1,958,743,0,0
-259,281,0,0,0,0,0,0,0,0,0,-1,965,743,0,0
-252,281,0,0,0,0,0,0,0,0,0,-1,972,743,0,0
-245,281,0,0,0,0,0,0,0,0,0,-1,979,743,0,0
-238,281,0,0,0,0,0,0,0,0,0,-1,986,743,0,0
-231,281,0,0,0,0,0,0,0,0,0,-1,993,743,0,0
-224,281,0,0,0,0,0,0,0,0,0,-1,1000,743,0,0
-217,281,0,0,0,0,0,0,0,0,0,-1,1007,743,0,0
-210,281,0,0,0,0,0,0,0,0,0,-1,1014,743,0,0
-203,281,0,0,0,0,0,0,0,0,0,-1,1021,743,0,0
-196,281,0,0,0,0,0,0,0,0,0,-1,1028,743,0,0
-189,281,0,0,0,0,0,0,0,0,0,-1,1035,743,0,0
-182,281,0,0,0,0,0,0,0,0,0,-1,1042,743,0,0
-175,281,0,0,0,0,0,0,0,0,0,-1,1049,743,0,0
-168,281,0,0,0,0,0,0,0,0,0,-1,1056,743,0,0
-161,281,0,0,0,0,0,0,0,0,0,-1,1063,743,0,0
-154,281,0,0,0,0,0,0,0,0,0,-1,1070,743,0,0
-147,281,0,0,0,0,0,0,0,0,0,-1,1077,743,0,0
-140,281,0,0,0,0,0,0,0,0,0,-1,1084,743,0,0
-133,281,0,0,0,0,0,0,0,0,0,-1,1091,743,0,0
-126,281,0,0,0,0,0,0,0,0,0,-1,1098,743,0,0
-119,281,0,0,0,0,0,0,0,0,0,-1,1105,743,0,0
-112,281,0,0,0,0,0,0,0,0,0,-1,1112,743,0,0
-105,281,0,0,0,0,0,0,0,0,0,-1,1119,743,0,0
-98,281,0,0,0,0,0,0,0,0,0,-1,1126,743,0,0
-91,281,0,0,0,0,0,0,0,0,0,-1,1133,743,0,0
-84,281,0,0,0,0,0,0,0,0,0,-1,1140,743,0,0
-77,281,0,0,0,0,0,0,0,0,0,-1,1147,743,0,0
-70,281,0,0,0,0,0,0,0,0,0,-1,1154,743,0,0
-63,281,0,0,0,0,0,0,0,0,0,-1,1161,743,0,0
-56,281,0,0,0,0,0,0,0,0,0,-1,1168,743,0,0
-49,281,0,0,0,0,0,0,0,0,0,-1,1175,743,0,0
-42,281,0,0,0,0,0,0,0,0,0,-1,1182,743,0,0
-35,281,0,0,0,0,0,0,0,0,0,-1,1189,743,0,0
-28,281,0,0,0,0,0,0,0,0,0,-1,1196,743,0,0
-21,281,0,0,0,0,0,0,0,0,0,-1,1203,743,0,0
-14,281,0,0,0,0,0,0,0,0,0,-1,1210,743,0,0
-7,281,0,0,0,0,0,0,0,0,0,-1,1217,743,0,0
0,281,0,0,0,0,0,0,0,0,0,-1,1224,743,0,0
7,281,0,0,0,0,0,0,0,0,0,-1,1231,743,0,0
14,281,0,0,0,0,0,0,0,0,0,-1,1238,743,0,0
21,281,0,0,0,0,0,0,0,0,0,-1,1245,743,0,0
28,281,0,0,0,0,0,0,0,0,0,-1,1252,743,0,0
35,281,0,0,0,0,0,0,0,0,0,-1,1259,743,0,0
42,281,0,0,0,0,0,0,0,0,0,-1,1266,743,0,0
49,281,0,0,0,0,0,0,0,0,0,-1,1273,743,0,0
56,281,0,0,0,0,0,0,0,0,0,-1,1280,743,0,0
63,281,0,0,0,0,0,0,0,0,0,-1,1287,743,0,0
70,281,0,0,0,0,0,0,0,0,0,-1,1294,743,0,0
77,281,0,0,0,0,0,0,0,0,0,-1,1301,743,0,0
84,281,0,0,0,0,0,0,0,0,0,-1,1308,743,0,0
91,281,0,0,0,0,0,0,0,0,0,-1,1315,743,0,0
98,281,0,0,0,0,0,0,0,0,0,-1,1322,743,0,0
105,281,0,0,0,0,0,0,0,0,0,-1,1329,743,0,0
112,281,0,0,0,0,0,0,0,0,0,-1,1336,743,0,0
119,281,0,0,0,0,0,0,0,0,0,-1,1343,743,0,0
126,281,0,0,0,0,0,0,0,0,0,-1,1350,743,0,0
133,281,0,0,0,0,0,0,0,0,0,-1,1357,743,0,0
140,281,0,0,0,0,0,0,0,0,0,-1,1364,743,0,0
147,281,0,0,0,0,0,0,0,0,0,-1,1371,743,0,0
154,281,0,0,0,0,0,0,0,0,0,-1,1378,743,0,0
161,281,0,0,0,0,0,0,0,0,0,-1,1385,743,0,0
168,281,0,0,0,0,0,0,0,0,0,-1,1392,743,0,0
175,281,0,0,0,0,0,0,0,0,0,-1,1399,743,0,0
182,281,0,0,0,0,0,0,0,0,0,-1,1406,743,0,0
189,281,0,0,0,0,0,0,0,0,0,-1,1413,743,0,0
196,281,0,0,0,0,0,0,0,0,0,-1,1420,743,0,0
203,281,0,0,0,0,0,0,0,0,0,-1,1427,743,0,0
210,281,0,0,0,0,0,0,0,0,0,-1,1434,743,0,0
217,281,0,0,0,0,0,0,0,0,0,-1,1441,743,0,0
224,281,0,0,0,0,0,0,0,0,0,-1,1448,743,0,0
231,281,0,0,0,0,0,0,0,0,0,-1,1455,743,0,0
238,281,0,0,0,0,0,0,0,0,0,-1,1462,743,0,0
245,281,0,0,0,0,0,0,0,0,0,-1,1469,743,0,0
252,281,0,0,0,0,0,0,0,0,0,-1,1476,743,0,0
259,281,0,0,0,0,0,0,0,0,0,-1,1483,743,0,0
266,281,0,0,0,0,0,0,0,0,0,-1,1490,743,0,0
273,281,0,0,0,0,0,0,0,0,0,-1,1497,743,0,0
280,281,0,0,0,0,0,0,0,0,0,-1,1504,743,0,0
287,281,0,0,0,0,0,0,0,0,0,-1,1511,743,0,0
294,281,0,0,0,0,0,0,0,0,0,-1,1518,743,0,0
301,281,0,0,0,0,0,0,0,0,0,-1,1525,743,0,0
308,281,0,0,0,0,0,0,0,0,0,-1,1532,743,0,0
315,281,0,0,0,0,0,0,0,0,0,-1,1539,743,0,0
322,281,0,0,0,0,0,0,0,0,0,-1,1546,743,0,0
329,281,0,0,0,0,0,0,0,0,0,-1,1553,743,0,0
336,281,0,0,0,0,0,0,0,0,0,-1,1560,743,0,0
343,281,0,0,0,0,0,0,0,0,0,-1,1567,743,0,0
350,281,0,0,0,0,0,0,0,0,0,-1,1574,743,0,0
357,281,0,0,0,0,0,0,0,0,0,-1,1581,743,0,0
364,281,0,0,0,0,0,0,0,0,0,-1,1588,743,0,0
371,281,0,0,0,0,0,0,0,0,0,-1,1595,743,0,0
378,281,0,0,0,0,0,0,0,0,0,-1,1602,743,0,0
385,281,0,0,0,0,0,0,0,0,0,-1,1609,743,0,0
392,281,0,0,0,0,0,0,0,0,0,-1,1616,743,0,0
399,281,0,0,0,0,0,0,0,0,0,-1,1623,743,0,0
406,281,0,0,0,0,0,0,0,0,0,-1,1630,743,0,0
413,281,0,0,0,0,0,0,0,0,0,-1,1637,743,0,0
420,281,0,0,0,0,0,0,0,0,0,-1,1644,743,0,0
427,281,0,0,0,0,0,0,0,0,0,-1,1651,743,0,0
434,281,0,0,0,0,0,0,0,0,0,-1,1658,743,0,0
441,281,0,0,0,0,0,0,0,0,0,-1,1665,743,0,0
448,281,0,0,0,0,0,0,0,0,0,-1,1672,743,0,0
455,281,0,0,0,0,0,0,0,0,0,-1,1679,743,0,0
462,281,0,0,0,0,0,0,0,0,0,-1,1686,743,0,0
469,281,0,0,0,0,0,0,0,0,0,-1,1693,743,0,0
476,281,0,0,0,0,0,0,0,0,0,-1,1700,743,0,0
483,281,0,0,0,0,0,0,0,0,0,-1,1707,743,0,0
490,281,0,0,0,0,0,0,0,0,0,-1,1714,743,0,0
497,281,0,0,0,0,0,0,0,0,0,-1,1721,743,0,0
504,281,0,0,0,0,0,0,0,0,0,-1,1728,743,0,0
511,281,0,0,0,0,0,0,0,0,0,-1,1735,743,0,0
518,281,0,0,0,0,0,0,0,0,0,-1,1742,743,0,0
525,281,0,0,0,0,0,0,0,0,0,-1,1749,743,0,0
532,281,0,0,0,0,0,0,0,0,0,-1,1756,743,0,0
539,281,0,0,0,0,0,0,0,0,0,-1,1763,743,0,0
546,281,0,0,0,0,0,0,0,0,0,-1,1770,743,0,0
553,281,0,0,0,0,0,0,0,0,0,-1,1777,743,0,0
560,281,39.8024,3.57361,0,0,0,0,0,0,0,-1,1784,743,39.8024,-3.57363
567,281,39.6719,3.72821,0,0,0,0,0,0,0,-1,1791,743,39.6718,-3.72819
574,281,39.5413,3.88275,0,0,0,0,0,0,0,-1,1798,743,39.5412,-3.88274
581,281,39.9102,4.08954,0,0,0,0,0,0,0,-1,1805,743,39.9102,-4.08952
588,281,39.936,3.95343,0,0,0,0,0,0,0,-1,1812,743,39.9361,-3.95345
595,281,40.3289,3.81818,0,0,0,0,0,0,0,-1,1819,743,40.3288,-3.8182
602,281,30.1091,6.0744,0,0,0,0,0,0,0,-1,1826,743,30.1091,-6.07442
609,281,32.7925,1.28723,0,0,0,0,0,0,0,-1,1833,743,32.7925,-1.28722
616,281,21.3191,-0.253906,0,0,0,0,0,0,0,-1,1840,743,21.3191,0.253931
623,281,25.7627,-2.92993,0,0,0,0,0,0,0,-1,1847,743,25.7628,2.92995
630,281,25.9044,-2.49945,0.00183859,0.00502557,-0.00211332,0.00607884,0.000785323,-1.10843,0.0038178,0.0459018,1854,743,25.9045,2.49948
637,281,25.9902,-2.03406,0.00186434,0.00257279,-0.00122292,0.00349175,0.000945383,-0.926367,0.0020854,0.0146548,1861,743,25.9903,2.03407
644,281,25.9968,-1.5304,0.00133877,0.00079443,-0.000296134,0.00146881,0.000664392,-0.413769,0.000849302,0.0098538,1868,743,25.9968,1.53042
651,281,26.0045,-1.05182,0.00066954,-0.000233464,0.000205205,0.000713984,-0.000277909,0.213292,0.00059083,0.0109742,1875,743,26.0045,1.05179
658,281,25.9795,-0.559265,0.000442572,-0.000102013,0.000205516,0.000511425,-0.000170865,0.323271,0.000409951,0.0190961,1882,743,25.9795,0.559285
665,281,25.9684,-0.0679932,0.000148207,0.000348121,0.00029258,0.000557347,-6.10193e-05,0.950002,0.000393485,0.0204734,1889,743,25.9683,0.0680111
672,281,25.9377,0.457886,-0.000299847,0.00111103,0.000487726,0.00126322,-0.000452033,1.26834,0.00102655,0.0128115,1896,743,25.9378,-0.457914
679,281,25.9424,0.929993,-0.000683708,0.00206208,0.000791663,0.00227398,-0.000895607,1.30926,0.00188676,0.0194512,1903,743,25.9424,-0.929989
686,281,25.9017,1.40662,-0.000922265,0.00316991,0.00117451,0.00348305,-0.0012354,1.31025,0.00282534,0.0157005,1910,743,25.9017,-1.4066
693,281,25.8916,1.91815,-0.000862826,0.00441036,0.00172326,0.00492357,-0.00137604,1.28135,0.00382448,0.011823,1917,743,25.8916,-1.91814
700,281,25.8691,2.43488,-0.000396536,0.00587919,0.00249286,0.00674889,-0.00126623,1.23512,0.00497534,0.0261673,1924,743,25.8692,-2.43489
707,281,25.7135,3.06384,0,0,0,0,0,0,0,-1,1931,743,25.7135,-3.06386
714,281,25.0125,2.5105,0,0,0,0,0,0,0,-1,1938,743,25.0124,-2.51053
721,281,16.9656,3.22174,0,0,0,0,0,0,0,-1,1945,743,16.9656,-3.22172
728,281,19.0251,3.63934,0,0,0,0,0,0,0,-1,1952,743,19.0252,-3.63932
735,281,19.0869,2.50311,0,0,0,0,0,0,0,-1,1959,743,19.0869,-2.5031
742,281,0,0,0,0,0,0,0,0,0,-1,1966,743,0,0
749,281,0,0,0,0,0,0,0,0,0,-1,1973,743,0,0
756,281,0,0,0,0,0,0,0,0,0,-1,1980,743,0,0
763,281,0,0,0,0,0,0,0,0,0,-1,1987,743,0,0
770,281,0,0,0,0,0,0,0,0,0,-1,1994,743,0,0
777,281,0,0,0,0,0,0,0,0,0,-1,2001,743,0,0
784,281,0,0,0,0,0,0,0,0,0,-1,2008,743,0,0
791,281,0,0,0,0,0,0,0,0,0,-1,2015,743,0,0
798,281,0,0,0,0,0,0,0,0,0,-1,2022,743,0,0
805,281,0,0,0,0,0,0,0,0,0,-1,2029,743,0,0
812,281,0,0,0,0,0,0,0,0,0,-1,2036,743,0,0
-700,274,0,0,0,0,0,0,0,0,0,-1,524,750,0,0
-693,274,0,0,0,0,0,0,0,0,0,-1,531,750,0,0
-686,274,0,0,0,0,0,0,0,0,0,-1,538,750,0,0
-679,274,0,0,0,0,0,0,0,0,0,-1,545,750,0,0
-672,274,0,0,0,0,0,0,0,0,0,-1,552,750,0,0
-665,274,0,0,0,0,0,0,0,0,0,-1,559,750,0,0
-658,274,0,0,0,0,0,0,0,0,0,-1,566,750,0,0
-651,274,0,0,0,0,0,0,0,0,0,-1,573,750,0,0
-644,274,0,0,0,0,0,0,0,0,0,-1,580,750,0,0
-637,274,0,0,0,0,0,0,0,0,0,-1,587,750,0,0
-630,274,0,0,0,0,0,0,0,0,0,-1,594,750,0,0
-623,274,-19.6909,5.12701,0,0,0,0,0,0,0,-1,601,750,-19.6908,-5.12703
-616,274,-17.9133,3.9024,0,0,0,0,0,0,0,-1,608,750,-17.9133,-3.90239
-609,274,-15.9735,4.90363,0,0,0,0,0,0,0,-1,615,750,-15.9735,-4.90364
-602,274,-16.0359,3.90887,0,0,0,0,0,0,0,-1,622,750,-16.0359,-3.90888
-595,274,-16.1497,2.9621,0,0,0,0,0,0,0,-1,629,750,-16.1497,-2.96207
-588,274,-16.6796,1.81653,0,0,0,0,0,0,0,-1,636,750,-16.6796,-1.81653
-581,274,-16.8059,1.08514,0.0180392,0.0111302,-0.00540759,0.0210015,0.00816787,-0.501158,0.0122246,0.0445907,643,750,-16.8059,-1.08517
-574,274,-16.9216,0.265137,0.0115071,0.00769829,-0.00317512,0.0133052,0.00590025,-0.515265,0.00769809,0.0229266,650,750,-16.9216,-0.26515
-567,274,-17.034,-0.126526,0.0071297,0.00524159,-0.00163425,0.00807298,0.00429831,-0.52348,0.0046642,0.0219182,657,750,-17.034,0.126548
-560,274,-17.0566,-0.547913,0.00412176,0.00332278,-0.000619097,0.00445907,0.00298547,-0.498873,0.00262331,0.0149812,664,750,-17.0566,0.547927
-553,274,-17.0554,-1.05573,0.00199825,0.00185205,0.000128823,0.00207326,0.00177703,0.527331,0.00129478,0.00984851,671,750,-17.0554,1.0557
-546,274,-17.0787,-1.52753,0.000457325,0.000787166,0.000751558,0.00139169,-0.000147194,0.893405,0.000980545,0.0111828,678,750,-17.0786,1.52754
-539,274,-17.0972,-1.99109,-0.000906071,7.19174e-05,0.00148462,0.00114601,-0.00198016,0.944489,0.00182618,0.0112621,685,750,-17.0972,1.99108
-532,274,-17.1097,-2.41937,-0.00144092,-0.000329069,0.00164306,0.000849566,-0.00261955,0.948526,0.00208799,0.0115576,692,750,-17.1097,2.41937
-525,274,-17.1136,-2.88556,-0.00141592,-0.000154515,0.00240099,0.00169723,-0.00326767,0.913839,0.00291389,0.0119421,699,750,-17.1136,2.88556
-518,274,-17.1074,-3.40131,-0.00173674,0.000971526,0.00293454,0.0028493,-0.00361451,1.00156,0.00374059,0.0124704,706,750,-17.1074,3.4013
-511,274,-17.1285,-3.91486,-0.00214409,0.0013966,0.00289385,0.00301868,-0.00376617,1.05991,0.00392515,0.0124113,713,750,-17.1285,3.91483
-504,274,-17.1958,-4.43835,-0.00222256,0.00125039,0.00411311,0.00397855,-0.00495073,0.985138,0.0051655,0.0234303,720,750,-17.1958,4.43833
-497,274,-17.3033,-4.99127,0,0,0,0,0,0,0,-1,727,750,-17.3033,4.99129
-490,274,-13.6545,-3.58826,0,0,0,0,0,0,0,-1,734,750,-13.6546,3.58825
-483,274,-27.8608,1.30981,0,0,0,0,0,0,0,-1,741,750,-27.8608,-1.30979
-476,274,-27.9619,1.75586,0,0,0,0,0,0,0,-1,748,750,-27.9619,-1.75589
-469,274,-29.2935,2.53577,0,0,0,0,0,0,0,-1,755,750,-29.2935,-2.53579
-462,274,-30.2257,-0.556152,0,0,0,0,0,0,0,-1,762,750,-30.2257,0.556153
-455,274,-30.1828,-0.0463867,-0.00887025,0.00225988,0.0223071,0.0196856,-0.026296,0.90764,0.0266388,0.0456207,769,750,-30.1828,0.0464061
-448,274,-30.0019,0.405212,-0.00969689,0.000261085,0.0262488,0.0219989,-0.0314348,0.879127,0.0310099,0.0455683,776,750,-30.0019,-0.405224
-441,274,0,0,0,0,0,0,0,0,0,-1,783,750,0,0
-434,274,0,0,0,0,0,0,0,0,0,-1,790,750,0,0
-427,274,0,0,0,0,0,0,0,0,0,-1,797,750,0,0
-420,274,0,0,0,0,0,0,0,0,0,-1,804,750,0,0
-413,274,0,0,0,0,0,0,0,0,0,-1,811,750,0,0
-406,274,0,0,0,0,0,0,0,0,0,-1,818,750,0,0
-399,274,0,0,0,0,0,0,0,0,0,-1,825,750,0,0
-392,274,0,0,0,0,0,0,0,0,0,-1,832,750,0,0
-385,274,0,0,0,0,0,0,0,0,0,-1,839,750,0,0
-378,274,0,0,0,0,0,0,0,0,0,-1,846,750,0,0
-371,274,0,0,0,0,0,0,0,0,0,-1,853,750,0,0
-364,274,0,0,0,0,0,0,0,0,0,-1,860,750,0,0
-357,274,0,0,0,0,0,0,0,0,0,-1,867,750,0,0
-350,274,0,0,0,0,0,0,0,0,0,-1,874,750,0,0
-343,274,0,0,0,0,0,0,0,0,0,-1,881,750,0,0
-336,274,0,0,0,0,0,0,0,0,0,-1,888,750,0,0
-329,274,0,0,0,0,0,0,0,0,0,-1,895,750,0,0
-322,274,0,0,0,0,0,0,0,0,0,-1,902,750,0,0
-315,274,0,0,0,0,0,0,0,0,0,-1,909,750,0,0
-308,274,0,0,0,0,0,0,0,0,0,-1,916,750,0,0
-301,274,0,0,0,0,0,0,0,0,0,-1,923,750,0,0
-294,274,0,0,0,0,0,0,0,0,0,-1,930,750,0,0
-287,274,0,0,0,0,0,0,0,0,0,-1,937,750,0,0
-280,274,0,0,0,0,0,0,0,0,0,-1,944,750,0,0
-273,274,0,0,0,0,0,0,0,0,0,-1,951,750,0,0
-266,274,0,0,0,0,0,0,0,0,0,-1,958,750,0,0
-259,274,0,0,0,0,0,0,0,0,0,-1,965,750,0,0
-252,274,0,0,0,0,0,0,0,0,0,-1,972,750,0,0
-245,274,0,0,0,0,0,0,0,0,0,-1,979,750,0,0
-238,274,0,0,0,0,0,0,0,0,0,-1,986,750,0,0
-231,274,0,0,0,0,0,0,0,0,0,-1,993,750,0,0
-224,274,0,0,0,0,0,0,0,0,0,-1,1000,750,0,0
-217,274,0,0,0,0,0,0,0,0,0,-1,1007,750,0,0
-210,274,0,0,0,0,0,0,0,0,0,-1,1014,750,0,0
-203,274,0,0,0,0,0,0,0,0,0,-1,1021,750,0,0
-196,274,0,0,0,0,0,0,0,0,0,-1,1028,750,0,0
-189,274,0,0,0,0,0,0,0,0,0,-1,1035,750,0,0
-182,274,0,0,0,0,0,0,0,0,0,-1,1042,750,0,0
-175,274,0,0,0,0,0,0,0,0,0,-1,1049,750,0,0
-168,274,0,0,0,0,0,0,0,0,0,-1,1056,750,0,0
-161,274,0,0,0,0,0,0,0,0,0,-1,1063,750,0,0
-154,274,0,0,0,0,0,0,0,0,0,-1,1070,750,0,0
-147,274,0,0,0,0,0,0,0,0,0,-1,1077,750,0,0
-140,274,0,0,0,0,0,0,0,0,0,-1,1084,750,0,0
-133,274,0,0,0,0,0,0,0,0,0,-1,1091,750,0,0
-126,274,0,0,0,0,0,0,0,0,0,-1,1098,750,0,0
-119,274,0,0,0,0,0,0,0,0,0,-1,1105,750,0,0
-112,274,0,0,0,0,0,0,0,0,0,-1,1112,750,0,0
-105,274,0,0,0,0,0,0,0,0,0,-1,1119,750,0,0
-98,274,0,0,0,0,0,0,0,0,0,-1,1126,750,0,0
-91,274,0,0,0,0,0,0,0,0,0,-1,1133,750,0,0
-84,274,0,0,0,0,0,0,0,0,0,-1,1140,750,0,0
-77,274,0,0,0,0,0,0,0,0,0,-1,1147,750,0,0
-70,274,0,0,0,0,0,0,0,0,0,-1,1154,750,0,0
-63,274,0,0,0,0,0,0,0,0,0,-1,1161,750,0,0
-56,274,0,0,0,0,0,0,0,0,0,-1,1168,750,0,0
-49,274,0,0,0,0,0,0,0,0,0,-1,1175,750,0,0
-42,274,0,0,0,0,0,0,0,0,0,-1,1182,750,0,0
-35,274,0,0,0,0,0,0,0,0,0,-1,1189,750,0,0
-28,274,0,0,0,0,0,0,0,0,0,-1,1196,750,0,0
-21,274,0,0,0,0,0,0,0,0,0,-1,1203,750,0,0
-14,274,0,0,0,0,0,0,0,0,0,-1,1210,750,0,0
-7,274,0,0,0,0,0,0,0,0,0,-1,1217,750,0,0
0,274,0,0,0,0,0,0,0,0,0,-1,1224,750,0,0
7,274,0,0,0,0,0,0,0,0,0,-1,1231,750,0,0
14,274,0,0,0,0,0,0,0,0,0,-1,1238,750,0,0
21,274,0,0,0,0,0,0,0,0,0,-1,1245,750,0,0
28,274,0,0,0,0,0,0,0,0,0,-1,1252,750,0,0
35,274,0,0,0,0,0,0,0,0,0,-1,1259,750,0,0
42,274,0,0,0,0,0,0,0,0,0,-1,1266,750,0,0
49,274,0,0,0,0,0,0,0,0,0,-1,1273,750,0,0
56,274,0,0,0,0,0,0,0,0,0,-1,1280,750,0,0
63,274,0,0,0,0,0,0,0,0,0,-1,1287,750,0,0
70,274,0,0,0,0,0,0,0,0,0,-1,1294,750,0,0
77,274,0,0,0,0,0,0,0,0,0,-1,1301,750,0,0
84,274,0,0,0,0,0,0,0,0,0,-1,1308,750,0,0
91,274,0,0,0,0,0,0,0,0,0,-1,1315,750,0,0
98,274,0,0,0,0,0,0,0,0,0,-1,1322,750,0,0
105,274,0,0,0,0,0,0,0,0,0,-1,1329,750,0,0
112,274,0,0,0,0,0,0,0,0,0,-1,1336,750,0,0
119,274,0,0,0,0,0,0,0,0,0,-1,1343,750,0,0
126,274,0,0,0,0,0,0,0,0,0,-1,1350,750,0,0
133,274,0,0,0,0,0,0,0,0,0,-1,1357,750,0,0
140,274,0,0,0,0,0,0,0,0,0,-1,1364,750,0,0
147,274,0,0,0,0,0,0,0,0,0,-1,1371,750,0,0
154,274,0,0,0,0,0,0,0,0,0,-1,1378,750,0,0
161,274,0,0,0,0,0,0,0,0,0,-1,1385,750,0,0
168,274,0,0,0,0,0,0,0,0,0,-1,1392,750,0,0
175,274,0,0,0,0,0,0,0,0,0,-1,1399,750,0,0
182,274,0,0,0,0,0,0,0,0,0,-1,1406,750,0,0
189,274,0,0,0,0,0,0,0,0,0,-1,1413,750,0,0
196,274,0,0,0,0,0,0,0,0,0,-1,1420,750,0,0
203,274,0,0,0,0,0,0,0,0,0,-1,1427,750,0,0
210,274,0,0,0,0,0,0,0,0,0,-1,1434,750,0,0
217,274,0,0,0,0,0,0,0,0,0,-1,1441,750,0,0
224,274,0,0,0,0,0,0,0,0,0,-1,1448,750,0,0
231,274,0,0,0,0,0,0,0,0,0,-1,1455,750,0,0
238,274,0,0,0,0,0,0,0,0,0,-1,1462,750,0,0
245,274,0,0,0,0,0,0,0,0,0,-1,1469,750,0,0
252,274,0,0,0,0,0,0,0,0,0,-1,1476,750,0,0
259,274,0,0,0,0,0,0,0,0,0,-1,1483,750,0,0
266,274,0,0,0,0,0,0,0,0,0,-1,1490,750,0,0
273,274,0,0,0,0,0,0,0,0,0,-1,1497,750,0,0
280,274,0,0,0,0,0,0,0,0,0,-1,1504,750,0,0
287,274,0,0,0,0,0,0,0,0,0,-1,1511,750,0,0
294,274,0,0,0,0,0,0,0,0,0,-1,1518,750,0,0
301,274,0,0,0,0,0,0,0,0,0,-1,1525,750,0,0
308,274,0,0,0,0,0,0,0,0,0,-1,1532,750,0,0
315,274,0,0,0,0,0,0,0,0,0,-1,1539,750,0,0
322,274,0,0,0,0,0,0,0,0,0,-1,1546,750,0,0
329,274,0,0,0,0,0,0,0,0,0,-1,1553,750,0,0
336,274,0,0,0,0,0,0,0,0,0,-1,1560,750,0,0
343,274,0,0,0,0,0,0,0,0,0,-1,1567,750,0,0
350,274,0,0,0,0,0,0,0,0,0,-1,1574,750,0,0
357,274,0,0,0,0,0,0,0,0,0,-1,1581,750,0,0
364,274,0,0,0,0,0,0,0,0,0,-1,1588,750,0,0
371,274,0,0,0,0,0,0,0,0,0,-1,1595,750,0,0
378,274,0,0,0,0,0,0,0,0,0,-1,1602,750,0,0
385,274,0,0,0,0,0,0,0,0,0,-1,1609,750,0,0
392,274,0,0,0,0,0,0,0,0,0,-1,1616,750,0,0
399,274,0,0,0,0,0,0,0,0,0,-1,1623,750,0,0
406,274,0,0,0,0,0,0,0,0,0,-1,1630,750,0,0
413,274,0,0,0,0,0,0,0,0,0,-1,1637,750,0,0
420,274,0,0,0,0,0,0,0,0,0,-1,1644,750,0,0
427,274,0,0,0,0,0,0,0,0,0,-1,1651,750,0,0
434,274,0,0,0,0,0,0,0,0,0,-1,1658,750,0,0
441,274,0,0,0,0,0,0,0,0,0,-1,1665,750,0,0
448,274,0,0,0,0,0,0,0,0,0,-1,1672,750,0,0
455,274,0,0,0,0,0,0,0,0,0,-1,1679,750,0,0
462,274,0,0,0,0,0,0,0,0,0,-1,1686,750,0,0
469,274,0,0,0,0,0,0,0,0,0,-1,1693,750,0,0
476,274,0,0,0,0,0,0,0,0,0,-1,1700,750,0,0
483,274,0,0,0,0,0,0,0,0,0,-1,1707,750,0,0
490,274,0,0,0,0,0,0,0,0,0,-1,1714,750,0,0
497,274,0,0,0,0,0,0,0,0,0,-1,1721,750,0,0
504,274,0,0,0,0,0,0,0,0,0,-1,1728,750,0,0
511,274,0,0,0,0,0,0,0,0,0,-1,1735,750,0,0
518,274,0,0,0,0,0,0,0,0,0,-1,1742,750,0,0
525,274,0,0,0,0,0,0,0,0,0,-1,1749,750,0,0
532,274,0,0,0,0,0,0,0,0,0,-1,1756,750,0,0
539,274,0,0,0,0,0,0,0,0,0,-1,1763,750,0,0
546,274,0,0,0,0,0,0,0,0,0,-1,1770,750,0,0
553,274,0,0,0,0,0,0,0,0,0,-1,1777,750,0,0
560,274,40.3522,3.31531,0,0,0,0,0,0,0,-1,1784,750,40.3522,-3.31528
567,274,40.2356,3.41071,0,0,0,0,0,0,0,-1,1791,750,40.2356,-3.41069
574,274,39.9796,3.74316,0,0,0,0,0,0,0,-1,1798,750,39.9796,-3.74315
581,274,40.0779,3.69751,-0.00274994,0.0361437,-0.0126743,0.0399093,-0.00651553,-1.282,0.0290229,0.0462526,1805,750,40.0778,-3.69752
588,274,40.1545,3.60699,-0.000778914,0.0295068,-0.0105137,0.0327988,-0.00407091,-1.26735,0.0233414,0.0448008,1812,750,40.1546,-3.60699
595,274,40.4143,3.26324,0.00047833,0.0232751,-0.00838585,0.0260275,-0.00227411,-1.25365,0.0181572,0.0468105,1819,750,40.4143,-3.26323
602,274,40.6702,3.0954,0,0,0,0,0,0,0,-1,1826,750,40.6701,-3.09542
609,274,39.9415,3.19849,0,0,0,0,0,0,0,-1,1833,750,39.9416,-3.1985
616,274,32.7869,1.78436,0,0,0,0,0,0,0,-1,1840,750,32.7868,-1.78437
623,274,24.8231,-1.80353,0,0,0,0,0,0,0,-1,1847,750,24.8232,1.80351
630,274,26.3818,-2.56494,0,0,0,0,0,0,0,-1,1854,750,26.3819,2.56493
637,274,26.483,-2.03644,0.00205541,0.00287336,-0.0015139,0.00403255,0.00089622,-0.917323,0.00244501,0.0152636,1861,750,26.4831,2.03644
644,274,26.4697,-1.52057,0.00154293,0.00105827,-0.000641803,0.00198663,0.000614575,-0.604885,0.00117444,0.0114104,1868,750,26.4697,1.52056
651,274,26.4791,-1.04736,0.000864677,-0.000172842,-0.000137169,0.000882505,-0.000190671,-0.129251,0.000661123,0.0134233,1875,750,26.4791,1.04738
658,274,26.4825,-0.560547,0.000740592,-0.000279186,-0.000103113,0.000750914,-0.000289508,-0.0997674,0.000620065,0.0164894,1882,750,26.4825,0.560526
665,274,26.4525,-0.0252686,0.000619457,-5.0629e-06,4.75265e-05,0.000623053,-8.659e-06,0.0755213,0.000418285,0.0158081,1889,750,26.4526,0.0252477
672,274,26.4448,0.465515,0.000343864,0.000660719,0.000342073,0.00087927,0.000125313,1.00226,0.000549196,0.0130477,1896,750,26.4449,-0.465519
679,274,26.432,0.953308,0.00014794,0.00158126,0.000742269,0.00189638,-0.000167177,1.16932,0.0013235,0.0144782,1903,750,26.4321,-0.953308
686,274,26.4083,1.44611,0.000138996,0.00270596,0.00119764,0.00317794,-0.000332986,1.19539,0.0022379,0.0160796,1910,750,26.4083,-1.44609
693,274,26.3855,1.95428,0.00045649,0.00392112,0.00180173,0.00468823,-0.000310624,1.16828,0.00323401,0.0125332,1917,750,26.3855,-1.95428
700,274,26.3838,2.46594,0.00114582,0.00529299,0.00261748,0.0065587,-0.000119901,1.12038,0.00441298,0.0145408,1924,750,26.3837,-2.46597
707,274,26.255,2.99988,0.00250413,0.00692909,0.00393207,0.0092284,0.000204822,1.04166,0.00608514,0.0248607,1931,750,26.255,-2.99989
714,274,26.0873,3.56964,0,0,0,0,0,0,0,-1,1938,750,26.0872,-3.56966
721,274,25.6215,3.91144,0,0,0,0,0,0,0,-1,1945,750,25.6214,-3.91141
728,274,19.2209,3.95154,0,0,0,0,0,0,0,-1,1952,750,19.221,-3.95151
735,274,20.6608,4.10931,0,0,0,0,0,0,0,-1,1959,750,20.6607,-4.10932
742,274,11.7815,-0.740234,0,0,0,0,0,0,0,-1,1966,750,11.7815,0.740253
749,274,0,0,0,0,0,0,0,0,0,-1,1973,750,0,0
756,274,0,0,0,0,0,0,0,0,0,-1,1980,750,0,0
763,274,0,0,0,0,0,0,0,0,0,-1,1987,750,0,0
770,274,0,0,0,0,0,0,0,0,0,-1,1994,750,0,0
777,274,0,0,0,0,0,0,0,0,0,-1,2001,750,0,0
784,274,0,0,0,0,0,0,0,0,0,-1,2008,750,0,0
791,274,0,0,0,0,0,0,0,0,0,-1,2015,750,0,0
798,274,0,0,0,0,0,0,0,0,0,-1,2022,750,0,0
805,274,0,0,0,0,0,0,0,0,0,-1,2029,750,0,0
812,274,0,0,0,0,0,0,0,0,0,-1,2036,750,0,0
-700,267,0,0,0,0,0,0,0,0,0,-1,524,757,0,0
-693,267,0,0,0,0,0,0,0,0,0,-1,531,757,0,0
-686,267,0,0,0,0,0,0,0,0,0,-1,538,757,0,0
-679,267,0,0,0,0,0,0,0,0,0,-1,545,757,0,0
-672,267,0,0,0,0,0,0,0,0,0,-1,552,757,0,0
-665,267,0,0,0,0,0,0,0,0,0,-1,559,757,0,0
-658,267,0,0,0,0,0,0,0,0,0,-1,566,757,0,0
-651,267,0,0,0,0,0,0,0,0,0,-1,573,757,0,0
-644,267,0,0,0,0,0,0,0,0,0,-1,580,757,0,0
-637,267,0,0,0,0,0,0,0,0,0,-1,587,757,0,0
-630,267,-21.3979,5.17529,0,0,0,0,0,0,0,-1,594,757,-21.3979,-5.17529
-623,267,-20.043,4.43115,0,0,0,0,0,0,0,-1,601,757,-20.043,-4.43116
-616,267,-16.5916,4.92358,0,0,0,0,0,0,0,-1,608,757,-16.5916,-4.9236
-609,267,-16.585,4.10229,0,0,0,0,0,0,0,-1,615,757,-16.585,-4.10229
-602,267,-16.6519,3.27295,0,0,0,0,0,0,0,-1,622,757,-16.6519,-3.27294
-595,267,-17.7249,2.18982,0,0,0,0,0,0,0,-1,629,757,-17.7249,-2.18981
-588,267,-17.4328,1.59766,0.0291302,0.0141206,-0.0101975,0.0342868,0.00896392,-0.468177,0.0205328,0.0453005,636,757,-17.4328,-1.59766
-581,267,-17.3541,0.935852,0.0192556,0.0100655,-0.00644657,0.0225772,0.00674397,-0.47577,0.0133824,0.0331693,643,757,-17.3541,-0.935879
-574,267,-17.4185,0.36792,0.0125835,0.00706467,-0.00398008,0.0146672,0.00498101,-0.482288,0.00861211,0.0189288,650,757,-17.4185,-0.367894
-567,267,-17.4807,-0.00512695,0.00793622,0.00481429,-0.0022226,0.00909124,0.00365927,-0.479259,0.00528199,0.0245186,657,757,-17.4806,0.0051307
-560,267,-17.5006,-0.485046,0.00461335,0.00300697,-0.000977327,0.00507518,0.00254513,-0.441444,0.00293016,0.0229838,664,757,-17.5006,0.48505
-553,267,-17.5337,-1.01245,0.00220207,0.00154575,-2.93238e-05,0.00220338,0.00154445,-0.0445611,0.00130592,0.0181654,671,757,-17.5337,1.01246
-546,267,-17.5413,-1.50214,0.000374656,0.000530396,0.00085925,0.0013153,-0.000410245,0.830587,0.00104092,0.0112125,678,757,-17.5413,1.50212
-539,267,-17.5375,-1.98334,-0.0011619,-0.000105623,0.00175616,0.0012001,-0.00246762,0.931463,0.0021593,0.0101858,685,757,-17.5375,1.98336
-532,267,-17.5449,-2.43549,-0.00172359,-0.000330009,0.00195435,0.00104805,-0.00310165,0.95664,0.0024917,0.0113254,692,757,-17.5449,2.43546
-525,267,-17.5738,-2.87335,-0.00169902,3.57678e-06,0.00274041,0.00202187,-0.00371731,0.935996,0.00336136,0.010943,699,757,-17.5738,2.87337
-518,267,-17.5901,-3.36517,-0.00206706,0.00131874,0.00319528,0.00324187,-0.0039902,1.029,0.00418288,0.0108206,706,757,-17.5902,3.36517
-511,267,-17.6047,-3.86548,-0.00247268,0.00179515,0.00299695,0.00334027,-0.0040178,1.09478,0.00425419,0.0155516,713,757,-17.6047,3.86548
-504,267,-17.6842,-4.21674,-0.00243989,0.00161685,0.0039799,0.00405545,-0.0048785,1.02107,0.00516531,0.0298598,720,757,-17.6842,4.21672
-497,267,-17.8026,-4.51337,0,0,0,0,0,0,0,-1,727,757,-17.8026,4.51339
-490,267,-23.4949,-0.494995,0,0,0,0,0,0,0,-1,734,757,-23.4949,0.494981
-483,267,-29.4619,1.19513,0,0,0,0,0,0,0,-1,741,757,-29.4619,-1.19514
-476,267,-29.2105,1.65222,-0.00414181,0.0026622,0.00996708,0.00979187,-0.0112715,0.949861,0.0121709,0.0442195,748,757,-29.2105,-1.65223
-469,267,-29.4948,2.24414,-0.00498764,0.00226258,0.0125565,0.0117068,-0.0144319,0.925928,0.0151185,0.0483189,755,757,-29.4948,-2.24413
-462,267,-30.7282,0.220276,0,0,0,0,0,0,0,-1,762,757,-30.7282,-0.220285
-455,267,-30.4081,0.224365,-0.00682773,-0.000362695,0.0186528,0.0153356,-0.022526,0.871196,0.0219904,0.0479802,769,757,-30.4081,-0.224377
-448,267,-30.2382,0.577576,-0.00643953,-0.00535526,0.0205618,0.0146715,-0.0264663,0.798578,0.0240741,0.0493459,776,757,-30.2381,-0.57758
-441,267,0,0,0,0,0,0,0,0,0,-1,783,757,0,0
-434,267,0,0,0,0,0,0,0,0,0,-1,790,757,0,0
-427,267,0,0,0,0,0,0,0,0,0,-1,797,757,0,0
-420,267,0,0,0,0,0,0,0,0,0,-1,804,757,0,0
-413,267,0,0,0,0,0,0,0,0,0,-1,811,757,0,0
-406,267,0,0,0,0,0,0,0,0,0,-1,818,757,0,0
-399,267,0,0,0,0,0,0,0,0,0,-1,825,757,0,0
-392,267,0,0,0,0,0,0,0,0,0,-1,832,757,0,0
-385,267,0,0,0,0,0,0,0,0,0,-1,839,757,0,0
-378,267,0,0,0,0,0,0,0,0,0,-1,846,757,0,0
-371,267,0,0,0,0,0,0,0,0,0,-1,853,757,0,0
-364,267,0,0,0,0,0,0,0,0,0,-1,860,757,0,0
-357,267,0,0,0,0,0,0,0,0,0,-1,867,757,0,0
-350,267,0,0,0,0,0,0,0,0,0,-1,874,757,0,0
-343,267,0,0,0,0,0,0,0,0,0,-1,881,757,0,0
-336,267,0,0,0,0,0,0,0,0,0,-1,888,757,0,0
-329,267,0,0,0,0,0,0,0,0,0,-1,895,757,0,0
-322,267,0,0,0,0,0,0,0,0,0,-1,902,757,0,0
-315,267,0,0,0,0,0,0,0,0,0,-1,909,757,0,0
-308,267,0,0,0,0,0,0,0,0,0,-1,916,757,0,0
-301,267,0,0,0,0,0,0,0,0,0,-1,923,757,0,0
-294,267,0,0,0,0,0,0,0,0,0,-1,930,757,0,0
-287,267,0,0,0,0,0,0,0,0,0,-1,937,757,0,0
-280,267,0,0,0,0,0,0,0,0,0,-1,944,757,0,0
-273,267,0,0,0,0,0,0,0,0,0,-1,951,757,0,0
-266,267,0,0,0,0,0,0,0,0,0,-1,958,757,0,0
-259,267,0,0,0,0,0,0,0,0,0,-1,965,757,0,0
-252,267,0,0,0,0,0,0,0,0,0,-1,972,757,0,0
-245,267,0,0,0,0,0,0,0,0,0,-1,979,757,0,0
-238,267,0,0,0,0,0,0,0,0,0,-1,986,757,0,0
-231,267,0,0,0,0,0,0,0,0,0,-1,993,757,0,0
-224,267,0,0,0,0,0,0,0,0,0,-1,1000,757,0,0
-217,267,0,0,0,0,0,0,0,0,0,-1,1007,757,0,0
-210,267,0,0,0,0,0,0,0,0,0,-1,1014,757,0,0
-203,267,0,0,0,0,0,0,0,0,0,-1,1021,757,0,0
-196,267,0,0,0,0,0,0,0,0,0,-1,1028,757,0,0
-189,267,0,0,0,0,0,0,0,0,0,-1,1035,757,0,0
-182,267,0,0,0,0,0,0,0,0,0,-1,1042,757,0,0
-175,267,0,0,0,0,0,0,0,0,0,-1,1049,757,0,0
-168,267,0,0,0,0,0,0,0,0,0,-1,1056,757,0,0
-161,267,0,0,0,0,0,0,0,0,0,-1,1063,757,0,0
-154,267,0,0,0,0,0,0,0,0,0,-1,1070,757,0,0
-147,267,0,0,0,0,0,0,0,0,0,-1,1077,757,0,0
-140,267,0,0,0,0,0,0,0,0,0,-1,1084,757,0,0
-133,267,0,0,0,0,0,0,0,0,0,-1,1091,757,0,0
-126,267,0,0,0,0,0,0,0,0,0,-1,1098,757,0,0
-119,267,0,0,0,0,0,0,0,0,0,-1,1105,757,0,0
-112,267,0,0,0,0,0,0,0,0,0,-1,1112,757,0,0
-105,267,0,0,0,0,0,0,0,0,0,-1,1119,757,0,0
-98,267,0,0,0,0,0,0,0,0,0,-1,1126,757,0,0
-91,267,0,0,0,0,0,0,0,0,0,-1,1133,757,0,0
-84,267,0,0,0,0,0,0,0,0,0,-1,1140,757,0,0
-77,267,0,0,0,0,0,0,0,0,0,-1,1147,757,0,0
-70,267,0,0,0,0,0,0,0,0,0,-1,1154,757,0,0
-63,267,0,0,0,0,0,0,0,0,0,-1,1161,757,0,0
-56,267,0,0,0,0,0,0,0,0,0,-1,1168,757,0,0
-49,267,0,0,0,0,0,0,0,0,0,-1,1175,757,0,0
-42,267,0,0,0,0,0,0,0,0,0,-1,1182,757,0,0
-35,267,0,0,0,0,0,0,0,0,0,-1,1189,757,0,0
-28,267,0,0,0,0,0,0,0,0,0,-1,1196,757,0,0
-21,267,0,0,0,0,0,0,0,0,0,-1,1203,757,0,0
-14,267,0,0,0,0,0,0,0,0,0,-1,1210,757,0,0
-7,267,0,0,0,0,0,0,0,0,0,-1,1217,757,0,0
0,267,0,0,0,0,0,0,0,0,0,-1,1224,757,0,0
7,267,0,0,0,0,0,0,0,0,0,-1,1231,757,0,0
14,267,0,0,0,0,0,0,0,0,0,-1,1238,757,0,0
21,267,0,0,0,0,0,0,0,0,0,-1,1245,757,0,0
28,267,0,0,0,0,0,0,0,0,0,-1,1252,757,0,0
35,267,0,0,0,0,0,0,0,0,0,-1,1259,757,0,0
42,267,0,0,0,0,0,0,0,0,0,-1,1266,757,0,0
49,267,0,0,0,0,0,0,0,0,0,-1,1273,757,0,0
56,267,0,0,0,0,0,0,0,0,0,-1,1280,757,0,0
63,267,0,0,0,0,0,0,0,0,0,-1,1287,757,0,0
70,267,0,0,0,0,0,0,0,0,0,-1,1294,757,0,0
77,267,0,0,0,0,0,0,0,0,0,-1,1301,757,0,0
84,267,0,0,0,0,0,0,0,0,0,-1,1308,757,0,0
91,267,0,0,0,0,0,0,0,0,0,-1,1315,757,0,0
98,267,0,0,0,0,0,0,0,0,0,-1,1322,757,0,0
105,267,0,0,0,0,0,0,0,0,0,-1,1329,757,0,0
112,267,0,0,0,0,0,0,0,0,0,-1,1336,757,0,0
119,267,0,0,0,0,0,0,0,0,0,-1,1343,757,0,0
126,267,0,0,0,0,0,0,0,0,0,-1,1350,757,0,0
133,267,0,0,0,0,0,0,0,0,0,-1,1357,757,0,0
140,267,0,0,0,0,0,0,0,0,0,-1,1364,757,0,0
147,267,0,0,0,0,0,0,0,0,0,-1,1371,757,0,0
154,267,0,0,0,0,0,0,0,0,0,-1,1378,757,0,0
161,267,0,0,0,0,0,0,0,0,0,-1,1385,757,0,0
168,267,0,0,0,0,0,0,0,0,0,-1,1392,757,0,0
175,267,0,0,0,0,0,0,0,0,0,-1,1399,757,0,0
182,267,0,0,0,0,0,0,0,0,0,-1,1406,757,0,0
189,267,0,0,0,0,0,0,0,0,0,-1,1413,757,0,0
196,267,0,0,0,0,0,0,0,0,0,-1,1420,757,0,0
203,267,0,0,0,0,0,0,0,0,0,-1,1427,757,0,0
210,267,0,0,0,0,0,0,0,0,0,-1,1434,757,0,0
217,267,0,0,0,0,0,0,0,0,0,-1,1441,757,0,0
224,267,0,0,0,0,0,0,0,0,0,-1,1448,757,0,0
231,267,0,0,0,0,0,0,0,0,0,-1,1455,757,0,0
238,267,0,0,0,0,0,0,0,0,0,-1,1462,757,0,0
245,267,0,0,0,0,0,0,0,0,0,-1,1469,757,0,0
252,267,0,0,0,0,0,0,0,0,0,-1,1476,757,0,0
259,267,0,0,0,0,0,0,0,0,0,-1,1483,757,0,0
266,267,0,0,0,0,0,0,0,0,0,-1,1490,757,0,0
273,267,0,0,0,0,0,0,0,0,0,-1,1497,757,0,0
280,267,0,0,0,0,0,0,0,0,0,-1,1504,757,0,0
287,267,0,0,0,0,0,0,0,0,0,-1,1511,757,0,0
294,267,0,0,0,0,0,0,0,0,0,-1,1518,757,0,0
301,267,0,0,0,0,0,0,0,0,0,-1,1525,757,0,0
308,267,0,0,0,0,0,0,0,0,0,-1,1532,757,0,0
315,267,0,0,0,0,0,0,0,0,0,-1,1539,757,0,0
322,267,0,0,0,0,0,0,0,0,0,-1,1546,757,0,0
329,267,0,0,0,0,0,0,0,0,0,-1,1553,757,0,0
336,267,0,0,0,0,0,0,0,0,0,-1,1560,757,0,0
343,267,0,0,0,0,0,0,0,0,0,-1,1567,757,0,0
350,267,0,0,0,0,0,0,0,0,0,-1,1574,757,0,0
357,267,0,0,0,0,0,0,0,0,0,-1,1581,757,0,0
364,267,0,0,0,0,0,0,0,0,0,-1,1588,757,0,0
371,267,0,0,0,0,0,0,0,0,0,-1,1595,757,0,0
378,267,0,0,0,0,0,0,0,0,0,-1,1602,757,0,0
385,267,0,0,0,0,0,0,0,0,0,-1,1609,757,0,0
392,267,0,0,0,0,0,0,0,0,0,-1,1616,757,0,0
399,267,0,0,0,0,0,0,0,0,0,-1,1623,757,0,0
406,267,0,0,0,0,0,0,0,0,0,-1,1630,757,0,0
413,267,0,0,0,0,0,0,0,0,0,-1,1637,757,0,0
420,267,0,0,0,0,0,0,0,0,0,-1,1644,757,0,0
427,267,0,0,0,0,0,0,0,0,0,-1,1651,757,0,0
434,267,0,0,0,0,0,0,0,0,0,-1,1658,757,0,0
441,267,0,0,0,0,0,0,0,0,0,-1,1665,757,0,0
448,267,0,0,0,0,0,0,0,0,0,-1,1672,757,0,0
455,267,0,0,0,0,0,0,0,0,0,-1,1679,757,0,0
462,267,0,0,0,0,0,0,0,0,0,-1,1686,757,0,0
469,267,0,0,0,0,0,0,0,0,0,-1,1693,757,0,0
476,267,0,0,0,0,0,0,0,0,0,-1,1700,757,0,0
483,267,0,0,0,0,0,0,0,0,0,-1,1707,757,0,0
490,267,0,0,0,0,0,0,0,0,0,-1,1714,757,0,0
497,267,0,0,0,0,0,0,0,0,0,-1,1721,757,0,0
504,267,0,0,0,0,0,0,0,0,0,-1,1728,757,0,0
511,267,0,0,0,0,0,0,0,0,0,-1,1735,757,0,0
518,267,0,0,0,0,0,0,0,0,0,-1,1742,757,0,0
525,267,0,0,0,0,0,0,0,0,0,-1,1749,757,0,0
532,267,0,0,0,0,0,0,0,0,0,-1,1756,757,0,0
539,267,0,0,0,0,0,0,0,0,0,-1,1763,757,0,0
546,267,0,0,0,0,0,0,0,0,0,-1,1770,757,0,0
553,267,0,0,0,0,0,0,0,0,0,-1,1777,757,0,0
560,267,0,0,0,0,0,0,0,0,0,-1,1784,757,0,0
567,267,40.7767,3.03687,0,0,0,0,0,0,0,-1,1791,757,40.7768,-3.03684
574,267,40.6559,3.08832,-0.00516956,0.0357936,-0.0101868,0.038187,-0.00756299,-1.34003,0.0283177,0.0430398,1798,757,40.6559,-3.08831
581,267,40.4227,3.23407,-0.00243461,0.0317217,-0.0104025,0.0346404,-0.00535335,-1.29725,0.0250693,0.0450485,1805,757,40.4227,-3.23408
588,267,40.3479,3.36328,-0.00061486,0.0266856,-0.00900912,0.0293906,-0.00331985,-1.27911,0.0207889,0.0469697,1812,757,40.3479,-3.36331
595,267,40.4615,2.92902,0.000506175,0.0215158,-0.00744539,0.0238867,-0.00186476,-1.26251,0.0165811,0.0464136,1819,757,40.4615,-2.92903
602,267,40.504,2.40057,0,0,0,0,0,0,0,-1,1826,757,40.504,-2.40055
609,267,40.955,4.44275,0,0,0,0,0,0,0,-1,1833,757,40.955,-4.44275
616,267,39.3645,3.42389,0,0,0,0,0,0,0,-1,1840,757,39.3646,-3.42389
623,267,24.1475,-1.1391,0,0,0,0,0,0,0,-1,1847,757,24.1475,1.13913
630,267,27.114,-2.25549,0,0,0,0,0,0,0,-1,1854,757,27.114,2.25548
637,267,27.0094,-1.88916,0.00214894,0.00277581,-0.00156264,0.00405614,0.00086861,-0.884375,0.00246609,0.0319152,1861,757,27.0094,1.88913
644,267,26.9691,-1.49304,0.00163785,0.00101822,-0.000789991,0.0021766,0.000479462,-0.598526,0.00132059,0.012434,1868,757,26.9691,1.49307
651,267,26.9532,-1.01923,0.000949869,-0.000284774,-0.000365713,0.00105007,-0.000384971,-0.267413,0.000857667,0.0142534,1875,757,26.9532,1.01923
658,267,26.9611,-0.526672,0.000868698,-0.000561025,-0.000380821,0.000963807,-0.000656134,-0.24474,0.00094088,0.0154723,1882,757,26.961,0.526682
665,267,26.9532,-0.0141602,0.000841294,-0.000449112,-0.000259897,0.000891672,-0.00049949,-0.191465,0.000813757,0.0151122,1889,757,26.9532,0.0141898
672,267,26.955,0.473999,0.000652503,9.23412e-05,6.57479e-05,0.000660116,8.47277e-05,0.115286,0.00041473,0.0123104,1896,757,26.955,-0.473991
679,267,26.9355,0.970642,0.000545254,0.000929797,0.00051285,0.00128523,0.000189818,0.964743,0.000801081,0.0123998,1903,757,26.9355,-0.970647
686,267,26.9081,1.48608,0.000660388,0.00203288,0.00100842,0.0025664,0.000126866,1.08416,0.00167025,0.013569,1910,757,26.9081,-1.4861
693,267,26.8823,1.95837,0.00112076,0.00320219,0.00165058,0.00411276,0.00021019,1.06667,0.00267453,0.0129302,1917,757,26.8823,-1.95839
700,267,26.8606,2.45782,0.00193724,0.00445721,0.0024794,0.00597841,0.000416042,1.02048,0.00385442,0.0140549,1924,757,26.8606,-2.45784
707,267,26.8209,2.96417,0.00333474,0.00588254,0.00372117,0.00854182,0.000675458,0.950315,0.00548328,0.0145496,1931,757,26.821,-2.96417
714,267,27.0508,3.48816,0.00531119,0.00729924,0.00529707,0.0116947,0.000915687,0.878147,0.0075099,0.0318712,1938,757,27.0507,-3.48818
721,267,27.3953,4.03381,0,0,0,0,0,0,0,-1,1945,757,27.3952,-4.03382
728,267,26.7886,3.90027,0,0,0,0,0,0,0,-1,1952,757,26.7886,-3.90028
735,267,24.6713,2.82483,0,0,0,0,0,0,0,-1,1959,757,24.6713,-2.82483
742,267,18.1177,3.56561,0,0,0,0,0,0,0,-1,1966,757,18.1176,-3.56564
749,267,0,0,0,0,0,0,0,0,0,-1,1973,757,0,0
756,267,0,0,0,0,0,0,0,0,0,-1,1980,757,0,0
763,267,0,0,0,0,0,0,0,0,0,-1,1987,757,0,0
770,267,0,0,0,0,0,0,0,0,0,-1,1994,757,0,0
777,267,0,0,0,0,0,0,0,0,0,-1,2001,757,0,0
784,267,0,0,0,0,0,0,0,0,0,-1,2008,757,0,0
791,267,0,0,0,0,0,0,0,0,0,-1,2015,757,0,0
798,267,0,0,0,0,0,0,0,0,0,-1,2022,757,0,0
805,267,0,0,0,0,0,0,0,0,0,-1,2029,757,0,0
812,267,0,0,0,0,0,0,0,0,0,-1,2036,757,0,0
-700,260,0,0,0,0,0,0,0,0,0,-1,524,764,0,0
-693,260,0,0,0,0,0,0,0,0,0,-1,531,764,0,0
-686,260,0,0,0,0,0,0,0,0,0,-1,538,764,0,0
-679,260,0,0,0,0,0,0,0,0,0,-1,545,764,0,0
-672,260,0,0,0,0,0,0,0,0,0,-1,552,764,0,0
-665,260,0,0,0,0,0,0,0,0,0,-1,559,764,0,0
-658,260,0,0,0,0,0,0,0,0,0,-1,566,764,0,0
-651,260,0,0,0,0,0,0,0,0,0,-1,573,764,0,0
-644,260,0,0,0,0,0,0,0,0,0,-1,580,764,0,0
-637,260,0,0,0,0,0,0,0,0,0,-1,587,764,0,0
-630,260,-21.8905,4.49341,0,0,0,0,0,0,0,-1,594,764,-21.8905,-4.49342
-623,260,-20.3127,3.53546,0,0,0,0,0,0,0,-1,601,764,-20.3127,-3.53544
-616,260,-17.5065,4.04523,0,0,0,0,0,0,0,-1,608,764,-17.5065,-4.04522
-609,260,-17.1965,3.30096,0,0,0,0,0,0,0,-1,615,764,-17.1965,-3.30094
-602,260,-17.8611,2.58118,0,0,0,0,0,0,0,-1,622,764,-17.8611,-2.58116
-595,260,-19.2878,2.28357,0,0,0,0,0,0,0,-1,629,764,-19.2878,-2.2836
-588,260,-18.3857,1.09015,0.0287889,0.0118076,-0.0107257,0.0339778,0.00661864,-0.450594,0.0207997,0.0439456,636,764,-18.3858,-1.09017
-581,260,-17.9241,0.786133,0.0195289,0.00862564,-0.00697527,0.0229302,0.00522432,-0.453698,0.0138771,0.0278142,643,764,-17.9241,-0.786114
-574,260,-17.9274,0.375,0.0130346,0.00613068,-0.00440667,0.0151804,0.00398488,-0.453147,0.00908798,0.0177771,650,764,-17.9274,-0.374996
-567,260,-17.9343,-0.00799561,0.00832624,0.00413521,-0.00252097,0.00950891,0.00295254,-0.438649,0.00561986,0.0175475,657,764,-17.9343,0.00798484
-560,260,-17.9609,-0.488281,0.00482554,0.00246561,-0.00111492,0.00526896,0.0020222,-0.378532,0.0030693,0.0197775,664,764,-17.9609,0.488258
-553,260,-17.9839,-0.998657,0.00221034,0.0010618,-1.40214e-05,0.00221052,0.00106163,-0.0122055,0.00127657,0.0168955,671,764,-17.9839,0.998665
-546,260,-17.9986,-1.47369,0.000163386,0.000120703,0.00110574,0.00124799,-0.000963906,0.775749,0.00128055,0.0111557,678,764,-17.9986,1.47369
-539,260,-17.9901,-1.94501,-0.00143716,-0.000363862,0.00210256,0.00126946,-0.00307048,0.910348,0.00257658,0.0117606,685,764,-17.9901,1.94501
-532,260,-17.9886,-2.40967,-0.00194176,-0.000344178,0.00230061,0.00129237,-0.00357831,0.952491,0.00291349,0.0161646,692,764,-17.9887,2.40969
-525,260,-18.0193,-2.88226,-0.00185795,0.000144094,0.00305022,0.00235335,-0.0040672,0.943951,0.00375067,0.0143575,699,764,-18.0194,2.88225
-518,260,-18.0741,-3.323,-0.00221357,0.00159147,0.00340961,0.00359344,-0.00421553,1.03988,0.00451328,0.0151692,706,764,-18.0741,3.323
-511,260,-18.116,-3.79999,-0.0025678,0.00212486,0.00311345,0.00367709,-0.00412003,1.1083,0.00450409,0.0273628,713,764,-18.116,3.80001
-504,260,-18.2159,-4.27283,0,0,0,0,0,0,0,-1,720,764,-18.2159,4.27284
-497,260,-16.6542,-3.67334,0,0,0,0,0,0,0,-1,727,764,-16.6542,3.67331
-490,260,-26.6226,0.511108,0,0,0,0,0,0,0,-1,734,764,-26.6227,-0.511134
-483,260,-30.1639,1.64905,0,0,0,0,0,0,0,-1,741,764,-30.1639,-1.64907
-476,260,-29.8493,1.81714,-0.00342686,0.0027084,0.00826622,0.00845785,-0.00917631,0.963074,0.0101839,0.0431368,748,764,-29.8493,-1.81717
-469,260,-29.6298,1.96136,-0.00392555,0.00193517,0.0101265,0.00954673,-0.0115371,0.926239,0.0121908,0.0471454,755,764,-29.6298,-1.96135
-462,260,-30.5185,0.563965,-0.00443573,0.000316361,0.0121499,0.0103204,-0.0144398,0.88196,0.0143611,0.0439129,762,764,-30.5185,-0.563986
-455,260,-30.3872,0.620728,-0.00482567,-0.00304657,0.0139447,0.010037,-0.0179092,0.817251,0.0163467,0.0483525,769,764,-30.3872,-0.620712
-448,260,0,0,0,0,0,0,0,0,0,-1,776,764,0,0
-441,260,0,0,0,0,0,0,0,0,0,-1,783,764,0,0
-434,260,0,0,0,0,0,0,0,0,0,-1,790,764,0,0
-427,260,0,0,0,0,0,0,0,0,0,-1,797,764,0,0
-420,260,0,0,0,0,0,0,0,0,0,-1,804,764,0,0
-413,260,0,0,0,0,0,0,0,0,0,-1,811,764,0,0
-406,260,0,0,0,0,0,0,0,0,0,-1,818,764,0,0
-399,260,0,0,0,0,0,0,0,0,0,-1,825,764,0,0
-392,260,0,0,0,0,0,0,0,0,0,-1,832,764,0,0
-385,260,0,0,0,0,0,0,0,0,0,-1,839,764,0,0
-378,260,0,0,0,0,0,0,0,0,0,-1,846,764,0,0
-371,260,0,0,0,0,0,0,0,0,0,-1,853,764,0,0
-364,260,0,0,0,0,0,0,0,0,0,-1,860,764,0,0
-357,260,0,0,0,0,0,0,0,0,0,-1,867,764,0,0
-350,260,0,0,0,0,0,0,0,0,0,-1,874,764,0,0
-343,260,0,0,0,0,0,0,0,0,0,-1,881,764,0,0
-336,260,0,0,0,0,0,0,0,0,0,-1,888,764,0,0
-329,260,0,0,0,0,0,0,0,0,0,-1,895,764,0,0
-322,260,0,0,0,0,0,0,0,0,0,-1,902,764,0,0
-315,260,0,0,0,0,0,0,0,0,0,-1,909,764,0,0
-308,260,0,0,0,0,0,0,0,0,0,-1,916,764,0,0
-301,260,0,0,0,0,0,0,0,0,0,-1,923,764,0,0
-294,260,0,0,0,0,0,0,0,0,0,-1,930,764,0,0
-287,260,0,0,0,0,0,0,0,0,0,-1,937,764,0,0
-280,260,0,0,0,0,0,0,0,0,0,-1,944,764,0,0
-273,260,0,0,0,0,0,0,0,0,0,-1,951,764,0,0
-266,260,0,0,0,0,0,0,0,0,0,-1,958,764,0,0
-259,260,0,0,0,0,0,0,0,0,0,-1,965,764,0,0
-252,260,0,0,0,0,0,0,0,0,0,-1,972,764,0,0
-245,260,0,0,0,0,0,0,0,0,0,-1,979,764,0,0
-238,260,0,0,0,0,0,0,0,0,0,-1,986,764,0,0
-231,260,0,0,0,0,0,0,0,0,0,-1,993,764,0,0
-224,260,0,0,0,0,0,0,0,0,0,-1,1000,764,0,0
-217,260,0,0,0,0,0,0,0,0,0,-1,1007,764,0,0
-210,260,0,0,0,0,0,0,0,0,0,-1,1014,764,0,0
-203,260,0,0,0,0,0,0,0,0,0,-1,1021,764,0,0
-196,260,0,0,0,0,0,0,0,0,0,-1,1028,764,0,0
-189,260,0,0,0,0,0,0,0,0,0,-1,1035,764,0,0
-182,260,0,0,0,0,0,0,0,0,0,-1,1042,764,0,0
-175,260,0,0,0,0,0,0,0,0,0,-1,1049,764,0,0
-168,260,0,0,0,0,0,0,0,0,0,-1,1056,764,0,0
-161,260,0,0,0,0,0,0,0,0,0,-1,1063,764,0,0
-154,260,0,0,0,0,0,0,0,0,0,-1,1070,764,0,0
-147,260,0,0,0,0,0,0,0,0,0,-1,1077,764,0,0
-140,260,0,0,0,0,0,0,0,0,0,-1,1084,764,0,0
-133,260,0,0,0,0,0,0,0,0,0,-1,1091,764,0,0
-126,260,0,0,0,0,0,0,0,0,0,-1,1098,764,0,0
-119,260,0,0,0,0,0,0,0,0,0,-1,1105,764,0,0
-112,260,0,0,0,0,0,0,0,0,0,-1,1112,764,0,0
-105,260,0,0,0,0,0,0,0,0,0,-1,1119,764,0,0
-98,260,0,0,0,0,0,0,0,0,0,-1,1126,764,0,0
-91,260,0,0,0,0,0,0,0,0,0,-1,1133,764,0,0
-84,260,0,0,0,0,0,0,0,0,0,-1,1140,764,0,0
-77,260,0,0,0,0,0,0,0,0,0,-1,1147,764,0,0
-70,260,0,0,0,0,0,0,0,0,0,-1,1154,764,0,0
-63,260,0,0,0,0,0,0,0,0,0,-1,1161,764,0,0
-56,260,0,0,0,0,0,0,0,0,0,-1,1168,764,0,0
-49,260,0,0,0,0,0,0,0,0,0,-1,1175,764,0,0
-42,260,0,0,0,0,0,0,0,0,0,-1,1182,764,0,0
-35,260,0,0,0,0,0,0,0,0,0,-1,1189,764,0,0
-28,260,0,0,0,0,0,0,0,0,0,-1,1196,764,0,0
-21,260,0,0,0,0,0,0,0,0,0,-1,1203,764,0,0
-14,260,0,0,0,0,0,0,0,0,0,-1,1210,764,0,0
-7,260,0,0,0,0,0,0,0,0,0,-1,1217,764,0,0
0,260,0,0,0,0,0,0,0,0,0,-1,1224,764,0,0
7,260,0,0,0,0,0,0,0,0,0,-1,1231,764,0,0
14,260,0,0,0,0,0,0,0,0,0,-1,1238,764,0,0
21,260,0,0,0,0,0,0,0,0,0,-1,1245,764,0,0
28,260,0,0,0,0,0,0,0,0,0,-1,1252,764,0,0
35,260,0,0,0,0,0,0,0,0,0,-1,1259,764,0,0
42,260,0,0,0,0,0,0,0,0,0,-1,1266,764,0,0
49,260,0,0,0,0,0,0,0,0,0,-1,1273,764,0,0
56,260,0,0,0,0,0,0,0,0,0,-1,1280,764,0,0
63,260,0,0,0,0,0,0,0,0,0,-1,1287,764,0,0
70,260,0,0,0,0,0,0,0,0,0,-1,1294,764,0,0
77,260,0,0,0,0,0,0,0,0,0,-1,1301,764,0,0
84,260,0,0,0,0,0,0,0,0,0,-1,1308,764,0,0
91,260,0,0,0,0,0,0,0,0,0,-1,1315,764,0,0
98,260,0,0,0,0,0,0,0,0,0,-1,1322,764,0,0
105,260,0,0,0,0,0,0,0,0,0,-1,1329,764,0,0
112,260,0,0,0,0,0,0,0,0,0,-1,1336,764,0,0
119,260,0,0,0,0,0,0,0,0,0,-1,1343,764,0,0
126,260,0,0,0,0,0,0,0,0,0,-1,1350,764,0,0
133,260,0,0,0,0,0,0,0,0,0,-1,1357,764,0,0
140,260,0,0,0,0,0,0,0,0,0,-1,1364,764,0,0
147,260,0,0,0,0,0,0,0,0,0,-1,1371,764,0,0
154,260,0,0,0,0,0,0,0,0,0,-1,1378,764,0,0
161,260,0,0,0,0,0,0,0,0,0,-1,1385,764,0,0
168,260,0,0,0,0,0,0,0,0,0,-1,1392,764,0,0
175,260,0,0,0,0,0,0,0,0,0,-1,1399,764,0,0
182,260,0,0,0,0,0,0,0,0,0,-1,1406,764,0,0
189,260,0,0,0,0,0,0,0,0,0,-1,1413,764,0,0
196,260,0,0,0,0,0,0,0,0,0,-1,1420,764,0,0
203,260,0,0,0,0,0,0,0,0,0,-1,1427,764,0,0
210,260,0,0,0,0,0,0,0,0,0,-1,1434,764,0,0
217,260,0,0,0,0,0,0,0,0,0,-1,1441,764,0,0
224,260,0,0,0,0,0,0,0,0,0,-1,1448,764,0,0
231,260,0,0,0,0,0,0,0,0,0,-1,1455,764,0,0
238,260,0,0,0,0,0,0,0,0,0,-1,1462,764,0,0
245,260,0,0,0,0,0,0,0,0,0,-1,1469,764,0,0
252,260,0,0,0,0,0,0,0,0,0,-1,1476,764,0,0
259,260,0,0,0,0,0,0,0,0,0,-1,1483,764,0,0
266,260,0,0,0,0,0,0,0,0,0,-1,1490,764,0,0
273,260,0,0,0,0,0,0,0,0,0,-1,1497,764,0,0
280,260,0,0,0,0,0,0,0,0,0,-1,1504,764,0,0
287,260,0,0,0,0,0,0,0,0,0,-1,1511,764,0,0
294,260,0,0,0,0,0,0,0,0,0,-1,1518,764,0,0
301,260,0,0,0,0,0,0,0,0,0,-1,1525,764,0,0
308,260,0,0,0,0,0,0,0,0,0,-1,1532,764,0,0
315,260,0,0,0,0,0,0,0,0,0,-1,1539,764,0,0
322,260,0,0,0,0,0,0,0,0,0,-1,1546,764,0,0
329,260,0,0,0,0,0,0,0,0,0,-1,1553,764,0,0
336,260,0,0,0,0,0,0,0,0,0,-1,1560,764,0,0
343,260,0,0,0,0,0,0,0,0,0,-1,1567,764,0,0
350,260,0,0,0,0,0,0,0,0,0,-1,1574,764,0,0
357,260,0,0,0,0,0,0,0,0,0,-1,1581,764,0,0
364,260,0,0,0,0,0,0,0,0,0,-1,1588,764,0,0
371,260,0,0,0,0,0,0,0,0,0,-1,1595,764,0,0
378,260,0,0,0,0,0,0,0,0,0,-1,1602,764,0,0
385,260,0,0,0,0,0,0,0,0,0,-1,1609,764,0,0
392,260,0,0,0,0,0,0,0,0,0,-1,1616,764,0,0
399,260,0,0,0,0,0,0,0,0,0,-1,1623,764,0,0
406,260,0,0,0,0,0,0,0,0,0,-1,1630,764,0,0
413,260,0,0,0,0,0,0,0,0,0,-1,1637,764,0,0
420,260,0,0,0,0,0,0,0,0,0,-1,1644,764,0,0
427,260,0,0,0,0,0,0,0,0,0,-1,1651,764,0,0
434,260,0,0,0,0,0,0,0,0,0,-1,1658,764,0,0
441,260,0,0,0,0,0,0,0,0,0,-1,1665,764,0,0
448,260,0,0,0,0,0,0,0,0,0,-1,1672,764,0,0
455,260,0,0,0,0,0,0,0,0,0,-1,1679,764,0,0
462,260,0,0,0,0,0,0,0,0,0,-1,1686,764,0,0
469,260,0,0,0,0,0,0,0,0,0,-1,1693,764,0,0
476,260,0,0,0,0,0,0,0,0,0,-1,1700,764,0,0
483,260,0,0,0,0,0,0,0,0,0,-1,1707,764,0,0
490,260,0,0,0,0,0,0,0,0,0,-1,1714,764,0,0
497,260,0,0,0,0,0,0,0,0,0,-1,1721,764,0,0
504,260,0,0,0,0,0,0,0,0,0,-1,1728,764,0,0
511,260,0,0,0,0,0,0,0,0,0,-1,1735,764,0,0
518,260,0,0,0,0,0,0,0,0,0,-1,1742,764,0,0
525,260,0,0,0,0,0,0,0,0,0,-1,1749,764,0,0
532,260,0,0,0,0,0,0,0,0,0,-1,1756,764,0,0
539,260,0,0,0,0,0,0,0,0,0,-1,1763,764,0,0
546,260,0,0,0,0,0,0,0,0,0,-1,1770,764,0,0
553,260,0,0,0,0,0,0,0,0,0,-1,1777,764,0,0
560,260,0,0,0,0,0,0,0,0,0,-1,1784,764,0,0
567,260,0,0,0,0,0,0,0,0,0,-1,1791,764,0,0
574,260,40.9036,2.82257,-0.00477911,0.0274574,-0.00626289,0.0286314,-0.00595311,-1.38549,0.0213505,0.0354944,1798,764,40.9036,-2.82255
581,260,40.7233,3.04974,-0.0021007,0.0266073,-0.00789274,0.0286342,-0.00412756,-1.31943,0.0206036,0.0409382,1805,764,40.7233,-3.04975
588,260,40.6079,3.12476,-0.000347574,0.0234409,-0.00737151,0.0255399,-0.00244662,-1.29339,0.017898,0.044946,1812,764,40.6079,-3.12477
595,260,41.1688,2.88495,0,0,0,0,0,0,0,-1,1819,764,41.1688,-2.88496
602,260,41.0979,2.91022,0,0,0,0,0,0,0,-1,1826,764,41.0979,-2.91021
609,260,40.7104,3.70502,0,0,0,0,0,0,0,-1,1833,764,40.7104,-3.70504
616,260,40.2557,3.77136,0,0,0,0,0,0,0,-1,1840,764,40.2557,-3.77135
623,260,32.2268,3.25836,0,0,0,0,0,0,0,-1,1847,764,32.2268,-3.25833
630,260,24.3739,-0.536316,0,0,0,0,0,0,0,-1,1854,764,24.3739,0.536343
637,260,27.553,-1.74847,0,0,0,0,0,0,0,-1,1861,764,27.553,1.74849
644,260,27.5228,-1.42102,0.00132542,0.000648614,-0.000816336,0.00187071,0.000103319,-0.58891,0.00121417,0.0286646,1868,764,27.5228,1.42104
651,260,27.4858,-0.969849,0.000641643,-0.000647767,-0.000514951,0.000822056,-0.00082818,-0.336986,0.000952766,0.0143701,1875,764,27.4858,0.969877
658,260,27.458,-0.483765,0.000613329,-0.000997743,-0.000620971,0.000824894,-0.00120931,-0.328365,0.00118142,0.0156668,1882,764,27.458,0.483768
665,260,27.4147,0.00610352,0.000723271,-0.000961861,-0.000572667,0.000899461,-0.00113805,-0.298476,0.00117904,0.0150904,1889,764,27.4146,-0.00609874
672,260,27.4193,0.509949,0.000685081,-0.000511842,-0.000255358,0.000737283,-0.000564045,-0.201651,0.000753538,0.0125407,1896,764,27.4193,-0.509957
679,260,27.4185,0.997192,0.00071178,0.000255356,0.000211115,0.000794454,0.000172682,0.373251,0.000482488,0.0122513,1903,764,27.4184,-0.997177
686,260,27.382,1.50684,0.000983272,0.00134348,0.000740915,0.00192586,0.000400883,0.904626,0.00117334,0.016081,1910,764,27.3819,-1.50684
693,260,27.3463,1.97101,0.00159775,0.00249406,0.00142145,0.00353633,0.000555476,0.938107,0.00219594,0.0157818,1917,764,27.3463,-1.97101
700,260,27.3145,2.4516,0.00250219,0.0036458,0.00225895,0.00540419,0.000743794,0.909359,0.00338223,0.0140241,1924,764,27.3144,-2.45162
707,260,27.3047,2.93939,0.00387478,0.00489732,0.00341701,0.0078411,0.000931008,0.85966,0.00494635,0.0144519,1931,764,27.3047,-2.9394
714,260,27.4258,3.43762,0.00571603,0.00609203,0.00484657,0.0107542,0.00105381,0.804784,0.00684532,0.0256761,1938,764,27.4258,-3.43764
721,260,27.7391,4.04187,0,0,0,0,0,0,0,-1,1945,764,27.7391,-4.04187
728,260,28.2334,5.34747,0,0,0,0,0,0,0,-1,1952,764,28.2334,-5.3475
735,260,26.9788,4.85681,0,0,0,0,0,0,0,-1,1959,764,26.9787,-4.85678
742,260,32.1443,1.73688,0,0,0,0,0,0,0,-1,1966,764,32.1442,-1.73688
749,260,33.6013,2.94733,0,0,0,0,0,0,0,-1,1973,764,33.6013,-2.9473
756,260,0,0,0,0,0,0,0,0,0,-1,1980,764,0,0
763,260,0,0,0,0,0,0,0,0,0,-1,1987,764,0,0
770,260,0,0,0,0,0,0,0,0,0,-1,1994,764,0,0
777,260,0,0,0,0,0,0,0,0,0,-1,2001,764,0,0
784,260,0,0,0,0,0,0,0,0,0,-1,2008,764,0,0
791,260,0,0,0,0,0,0,0,0,0,-1,2015,764,0,0
798,260,0,0,0,0,0,0,0,0,0,-1,2022,764,0,0
805,260,0,0,0,0,0,0,0,0,0,-1,2029,764,0,0
812,260,0,0,0,0,0,0,0,0,0,-1,2036,764,0,0
-700,253,0,0,0,0,0,0,0,0,0,-1,524,771,0,0
-693,253,0,0,0,0,0,0,0,0,0,-1,531,771,0,0
-686,253,0,0,0,0,0,0,0,0,0,-1,538,771,0,0
-679,253,0,0,0,0,0,0,0,0,0,-1,545,771,0,0
-672,253,0,0,0,0,0,0,0,0,0,-1,552,771,0,0
-665,253,0,0,0,0,0,0,0,0,0,-1,559,771,0,0
-658,253,0,0,0,0,0,0,0,0,0,-1,566,771,0,0
-651,253,0,0,0,0,0,0,0,0,0,-1,573,771,0,0
-644,253,0,0,0,0,0,0,0,0,0,-1,580,771,0,0
-637,253,-24.7979,-0.491394,0,0,0,0,0,0,0,-1,587,771,-24.7978,0.491371
-630,253,-25.156,0.540405,0,0,0,0,0,0,0,-1,594,771,-25.156,-0.540421
-623,253,-20.808,2.84314,0,0,0,0,0,0,0,-1,601,771,-20.8081,-2.84312
-616,253,-19.338,2.65521,0,0,0,0,0,0,0,-1,608,771,-19.338,-2.65522
-609,253,-19.6593,2.77283,0,0,0,0,0,0,0,-1,615,771,-19.6593,-2.77285
-602,253,-20.1324,2.59119,0,0,0,0,0,0,0,-1,622,771,-20.1324,-2.5912
-595,253,-19.453,2.12323,0.0384599,0.0127545,-0.0163647,0.0464157,0.00479866,-0.452513,0.0294747,0.0494604,629,771,-19.453,-2.12322
-588,253,-18.5555,1.07605,0.0268214,0.0096918,-0.0109198,0.0321346,0.00437863,-0.45284,0.0201229,0.039728,636,771,-18.5555,-1.07605
-581,253,-18.388,0.767029,0.0185748,0.00720439,-0.0072253,0.0220835,0.00369577,-0.452063,0.0136581,0.0261537,643,771,-18.388,-0.767052
-574,253,-18.3972,0.374329,0.0125681,0.00513711,-0.00459399,0.014761,0.00294416,-0.445366,0.00902088,0.0216859,650,771,-18.3972,-0.3743
-567,253,-18.436,-0.0953979,0.00803986,0.0033745,-0.00261078,0.00920826,0.0022061,-0.420797,0.00555156,0.0169645,657,771,-18.4359,0.0953983
-560,253,-18.4103,-0.518616,0.00455184,0.00184317,-0.00107638,0.00492748,0.00146752,-0.335772,0.00292138,0.0124218,664,771,-18.4103,0.518641
-553,253,-18.4193,-0.977356,0.00189775,0.000504729,0.000156109,0.00191503,0.000487449,0.110243,0.00114919,0.0116994,671,771,-18.4193,0.977332
-546,253,-18.4626,-1.4212,-0.000224047,-0.000297489,0.00147126,0.00121095,-0.00173249,0.772921,0.00170826,0.0105894,678,771,-18.4626,1.42121
-539,253,-18.4941,-1.91754,-0.00173474,-0.0005359,0.00247825,0.00141439,-0.00368504,0.904055,0.00303989,0.0119491,685,771,-18.4941,1.91756
-532,253,-18.4778,-2.41083,-0.00209742,-0.00020682,0.0026163,0.00162971,-0.00393396,0.958757,0.00330274,0.0161741,692,771,-18.4778,2.4108
-525,253,-18.4695,-2.87311,-0.00196394,0.000464813,0.00325537,0.00272494,-0.00422406,0.963923,0.00404301,0.0137034,699,771,-18.4695,2.87309
-518,253,-18.548,-3.30786,-0.00230713,0.00201699,0.00349551,0.00396505,-0.00425519,1.06236,0.00474695,0.0207125,706,771,-18.548,3.30786
-511,253,-18.8779,-3.72546,-0.00262914,0.00263937,0.00313195,0.00409759,-0.00408737,1.13505,0.00472559,0.0493728,713,771,-18.8779,3.72545
-504,253,-19.317,-4.1723,0,0,0,0,0,0,0,-1,720,771,-19.317,4.1723
-497,253,-21.7737,-1.76837,0,0,0,0,0,0,0,-1,727,771,-21.7738,1.7684
-490,253,-29.5398,1.02545,0,0,0,0,0,0,0,-1,734,771,-29.5398,-1.02548
-483,253,-31.0039,1.30707,0,0,0,0,0,0,0,-1,741,771,-31.0039,-1.3071
-476,253,-30.1384,1.47131,0,0,0,0,0,0,0,-1,748,771,-30.1383,-1.47134
-469,253,-29.8742,1.25452,0,0,0,0,0,0,0,-1,755,771,-29.8742,-1.25449
-462,253,-30.3259,0.894653,-0.00309761,-0.000394477,0.00842451,0.00678619,-0.0102783,0.864937,0.00992071,0.0419149,762,771,-30.3259,-0.894653
-455,253,-30.2721,0.933411,-0.00314112,-0.00572674,0.00869734,0.00435897,-0.0132268,0.711616,0.0105747,0.0342641,769,771,-30.2721,-0.933404
-448,253,0,0,0,0,0,0,0,0,0,-1,776,771,0,0
-441,253,0,0,0,0,0,0,0,0,0,-1,783,771,0,0
-434,253,0,0,0,0,0,0,0,0,0,-1,790,771,0,0
-427,253,0,0,0,0,0,0,0,0,0,-1,797,771,0,0
-420,253,0,0,0,0,0,0,0,0,0,-1,804,771,0,0
-413,253,0,0,0,0,0,0,0,0,0,-1,811,771,0,0
-406,253,0,0,0,0,0,0,0,0,0,-1,818,771,0,0
-399,253,0,0,0,0,0,0,0,0,0,-1,825,771,0,0
-392,253,0,0,0,0,0,0,0,0,0,-1,832,771,0,0
-385,253,0,0,0,0,0,0,0,0,0,-1,839,771,0,0
-378,253,0,0,0,0,0,0,0,0,0,-1,846,771,0,0
-371,253,0,0,0,0,0,0,0,0,0,-1,853,771,0,0
-364,253,0,0,0,0,0,0,0,0,0,-1,860,771,0,0
-357,253,0,0,0,0,0,0,0,0,0,-1,867,771,0,0
-350,253,0,0,0,0,0,0,0,0,0,-1,874,771,0,0
-343,253,0,0,0,0,0,0,0,0,0,-1,881,771,0,0
-336,253,0,0,0,0,0,0,0,0,0,-1,888,771,0,0
-329,253,0,0,0,0,0,0,0,0,0,-1,895,771,0,0
-322,253,0,0,0,0,0,0,0,0,0,-1,902,771,0,0
-315,253,0,0,0,0,0,0,0,0,0,-1,909,771,0,0
-308,253,0,0,0,0,0,0,0,0,0,-1,916,771,0,0
-301,253,0,0,0,0,0,0,0,0,0,-1,923,771,0,0
-294,253,0,0,0,0,0,0,0,0,0,-1,930,771,0,0
-287,253,0,0,0,0,0,0,0,0,0,-1,937,771,0,0
-280,253,0,0,0,0,0,0,0,0,0,-1,944,771,0,0
-273,253,0,0,0,0,0,0,0,0,0,-1,951,771,0,0
-266,253,0,0,0,0,0,0,0,0,0,-1,958,771,0,0
-259,253,0,0,0,0,0,0,0,0,0,-1,965,771,0,0
-252,253,0,0,0,0,0,0,0,0,0,-1,972,771,0,0
-245,253,0,0,0,0,0,0,0,0,0,-1,979,771,0,0
-238,253,0,0,0,0,0,0,0,0,0,-1,986,771,0,0
-231,253,0,0,0,0,0,0,0,0,0,-1,993,771,0,0
-224,253,0,0,0,0,0,0,0,0,0,-1,1000,771,0,0
-217,253,0,0,0,0,0,0,0,0,0,-1,1007,771,0,0
-210,253,0,0,0,0,0,0,0,0,0,-1,1014,771,0,0
-203,253,0,0,0,0,0,0,0,0,0,-1,1021,771,0,0
-196,253,0,0,0,0,0,0,0,0,0,-1,1028,771,0,0
-189,253,0,0,0,0,0,0,0,0,0,-1,1035,771,0,0
-182,253,0,0,0,0,0,0,0,0,0,-1,1042,771,0,0
-175,253,0,0,0,0,0,0,0,0,0,-1,1049,771,0,0
-168,253,0,0,0,0,0,0,0,0,0,-1,1056,771,0,0
-161,253,0,0,0,0,0,0,0,0,0,-1,1063,771,0,0
-154,253,0,0,0,0,0,0,0,0,0,-1,1070,771,0,0
-147,253,0,0,0,0,0,0,0,0,0,-1,1077,771,0,0
-140,253,0,0,0,0,0,0,0,0,0,-1,1084,771,0,0
-133,253,0,0,0,0,0,0,0,0,0,-1,1091,771,0,0
-126,253,0,0,0,0,0,0,0,0,0,-1,1098,771,0,0
-119,253,0,0,0,0,0,0,0,0,0,-1,1105,771,0,0
-112,253,0,0,0,0,0,0,0,0,0,-1,1112,771,0,0
-105,253,0,0,0,0,0,0,0,0,0,-1,1119,771,0,0
-98,253,0,0,0,0,0,0,0,0,0,-1,1126,771,0,0
-91,253,0,0,0,0,0,0,0,0,0,-1,1133,771,0,0
-84,253,0,0,0,0,0,0,0,0,0,-1,1140,771,0,0
-77,253,0,0,0,0,0,0,0,0,0,-1,1147,771,0,0
-70,253,0,0,0,0,0,0,0,0,0,-1,1154,771,0,0
-63,253,0,0,0,0,0,0,0,0,0,-1,1161,771,0,0
-56,253,0,0,0,0,0,0,0,0,0,-1,1168,771,0,0
-49,253,0,0,0,0,0,0,0,0,0,-1,1175,771,0,0
-42,253,0,0,0,0,0,0,0,0,0,-1,1182,771,0,0
-35,253,0,0,0,0,0,0,0,0,0,-1,1189,771,0,0
-28,253,0,0,0,0,0,0,0,0,0,-1,1196,771,0,0
-21,253,0,0,0,0,0,0,0,0,0,-1,1203,771,0,0
-14,253,0,0,0,0,0,0,0,0,0,-1,1210,771,0,0
-7,253,0,0,0,0,0,0,0,0,0,-1,1217,771,0,0
0,253,0,0,0,0,0,0,0,0,0,-1,1224,771,0,0
7,253,0,0,0,0,0,0,0,0,0,-1,1231,771,0,0
14,253,0,0,0,0,0,0,0,0,0,-1,1238,771,0,0
21,253,0,0,0,0,0,0,0,0,0,-1,1245,771,0,0
28,253,0,0,0,0,0,0,0,0,0,-1,1252,771,0,0
35,253,0,0,0,0,0,0,0,0,0,-1,1259,771,0,0
42,253,0,0,0,0,0,0,0,0,0,-1,1266,771,0,0
49,253,0,0,0,0,0,0,0,0,0,-1,1273,771,0,0
56,253,0,0,0,0,0,0,0,0,0,-1,1280,771,0,0
63,253,0,0,0,0,0,0,0,0,0,-1,1287,771,0,0
70,253,0,0,0,0,0,0,0,0,0,-1,1294,771,0,0
77,253,0,0,0,0,0,0,0,0,0,-1,1301,771,0,0
84,253,0,0,0,0,0,0,0,0,0,-1,1308,771,0,0
91,253,0,0,0,0,0,0,0,0,0,-1,1315,771,0,0
98,253,0,0,0,0,0,0,0,0,0,-1,1322,771,0,0
105,253,0,0,0,0,0,0,0,0,0,-1,1329,771,0,0
112,253,0,0,0,0,0,0,0,0,0,-1,1336,771,0,0
119,253,0,0,0,0,0,0,0,0,0,-1,1343,771,0,0
126,253,0,0,0,0,0,0,0,0,0,-1,1350,771,0,0
133,253,0,0,0,0,0,0,0,0,0,-1,1357,771,0,0
140,253,0,0,0,0,0,0,0,0,0,-1,1364,771,0,0
147,253,0,0,0,0,0,0,0,0,0,-1,1371,771,0,0
154,253,0,0,0,0,0,0,0,0,0,-1,1378,771,0,0
161,253,0,0,0,0,0,0,0,0,0,-1,1385,771,0,0
168,253,0,0,0,0,0,0,0,0,0,-1,1392,771,0,0
175,253,0,0,0,0,0,0,0,0,0,-1,1399,771,0,0
182,253,0,0,0,0,0,0,0,0,0,-1,1406,771,0,0
189,253,0,0,0,0,0,0,0,0,0,-1,1413,771,0,0
196,253,0,0,0,0,0,0,0,0,0,-1,1420,771,0,0
203,253,0,0,0,0,0,0,0,0,0,-1,1427,771,0,0
210,253,0,0,0,0,0,0,0,0,0,-1,1434,771,0,0
217,253,0,0,0,0,0,0,0,0,0,-1,1441,771,0,0
224,253,0,0,0,0,0,0,0,0,0,-1,1448,771,0,0
231,253,0,0,0,0,0,0,0,0,0,-1,1455,771,0,0
238,253,0,0,0,0,0,0,0,0,0,-1,1462,771,0,0
245,253,0,0,0,0,0,0,0,0,0,-1,1469,771,0,0
252,253,0,0,0,0,0,0,0,0,0,-1,1476,771,0,0
259,253,0,0,0,0,0,0,0,0,0,-1,1483,771,0,0
266,253,0,0,0,0,0,0,0,0,0,-1,1490,771,0,0
273,253,0,0,0,0,0,0,0,0,0,-1,1497,771,0,0
280,253,0,0,0,0,0,0,0,0,0,-1,1504,771,0,0
287,253,0,0,0,0,0,0,0,0,0,-1,1511,771,0,0
294,253,0,0,0,0,0,0,0,0,0,-1,1518,771,0,0
301,253,0,0,0,0,0,0,0,0,0,-1,1525,771,0,0
308,253,0,0,0,0,0,0,0,0,0,-1,1532,771,0,0
315,253,0,0,0,0,0,0,0,0,0,-1,1539,771,0,0
322,253,0,0,0,0,0,0,0,0,0,-1,1546,771,0,0
329,253,0,0,0,0,0,0,0,0,0,-1,1553,771,0,0
336,253,0,0,0,0,0,0,0,0,0,-1,1560,771,0,0
343,253,0,0,0,0,0,0,0,0,0,-1,1567,771,0,0
350,253,0,0,0,0,0,0,0,0,0,-1,1574,771,0,0
357,253,0,0,0,0,0,0,0,0,0,-1,1581,771,0,0
364,253,0,0,0,0,0,0,0,0,0,-1,1588,771,0,0
371,253,0,0,0,0,0,0,0,0,0,-1,1595,771,0,0
378,253,0,0,0,0,0,0,0,0,0,-1,1602,771,0,0
385,253,0,0,0,0,0,0,0,0,0,-1,1609,771,0,0
392,253,0,0,0,0,0,0,0,0,0,-1,1616,771,0,0
399,253,0,0,0,0,0,0,0,0,0,-1,1623,771,0,0
406,253,0,0,0,0,0,0,0,0,0,-1,1630,771,0,0
413,253,0,0,0,0,0,0,0,0,0,-1,1637,771,0,0
420,253,0,0,0,0,0,0,0,0,0,-1,1644,771,0,0
427,253,0,0,0,0,0,0,0,0,0,-1,1651,771,0,0
434,253,0,0,0,0,0,0,0,0,0,-1,1658,771,0,0
441,253,0,0,0,0,0,0,0,0,0,-1,1665,771,0,0
448,253,0,0,0,0,0,0,0,0,0,-1,1672,771,0,0
455,253,0,0,0,0,0,0,0,0,0,-1,1679,771,0,0
462,253,0,0,0,0,0,0,0,0,0,-1,1686,771,0,0
469,253,0,0,0,0,0,0,0,0,0,-1,1693,771,0,0
476,253,0,0,0,0,0,0,0,0,0,-1,1700,771,0,0
483,253,0,0,0,0,0,0,0,0,0,-1,1707,771,0,0
490,253,0,0,0,0,0,0,0,0,0,-1,1714,771,0,0
497,253,0,0,0,0,0,0,0,0,0,-1,1721,771,0,0
504,253,0,0,0,0,0,0,0,0,0,-1,1728,771,0,0
511,253,0,0,0,0,0,0,0,0,0,-1,1735,771,0,0
518,253,0,0,0,0,0,0,0,0,0,-1,1742,771,0,0
525,253,0,0,0,0,0,0,0,0,0,-1,1749,771,0,0
532,253,0,0,0,0,0,0,0,0,0,-1,1756,771,0,0
539,253,0,0,0,0,0,0,0,0,0,-1,1763,771,0,0
546,253,0,0,0,0,0,0,0,0,0,-1,1770,771,0,0
553,253,0,0,0,0,0,0,0,0,0,-1,1777,771,0,0
560,253,0,0,0,0,0,0,0,0,0,-1,1784,771,0,0
567,253,0,0,0,0,0,0,0,0,0,-1,1791,771,0,0
574,253,40.8113,2.68115,-0.00435475,0.0179703,-0.00205036,0.0181571,-0.00454149,-1.47997,0.0138687,0.0347727,1798,771,40.8113,-2.68115
581,253,40.7592,2.81378,-0.00195834,0.020352,-0.00497936,0.0214129,-0.00301922,-1.36088,0.0153808,0.0376452,1805,771,40.7591,-2.81377
588,253,40.8274,2.91333,-0.000260546,0.0195746,-0.00547451,0.0209853,-0.00167119,-1.31861,0.0145792,0.0416852,1812,771,40.8274,-2.91336
595,253,41.1433,2.81586,0.000652012,0.0167438,-0.00505919,0.0182022,-0.000806402,-1.29014,0.0124123,0.0451669,1819,771,41.1433,-2.81587
602,253,41.0275,2.84424,0.00112928,0.013603,-0.00423262,0.0149036,-0.000171333,-1.27267,0.00999331,0.047124,1826,771,41.0274,-2.84422
609,253,40.813,2.90765,0.00136381,0.0106007,-0.0034172,0.0117274,0.00023705,-1.25229,0.00774048,0.0441555,1833,771,40.813,-2.90763
616,253,40.6338,2.95154,0,0,0,0,0,0,0,-1,1840,771,40.6337,-2.95156
623,253,40.0763,4.23999,0,0,0,0,0,0,0,-1,1847,771,40.0763,-4.24001
630,253,33.561,2.96838,0,0,0,0,0,0,0,-1,1854,771,33.561,-2.96836
637,253,22.3192,-0.604004,0,0,0,0,0,0,0,-1,1861,771,22.3192,0.603986
644,253,28.0881,-1.37085,0,0,0,0,0,0,0,-1,1868,771,28.0881,1.37085
651,253,27.9529,-0.925781,0.000380602,-0.000746404,-0.000708156,0.000722097,-0.0010879,-0.449331,0.00105209,0.0259155,1875,771,27.9528,0.925785
658,253,27.9598,-0.444275,0.000370497,-0.00114835,-0.00088914,0.000780388,-0.00155824,-0.431961,0.00137488,0.0185583,1882,771,27.9599,0.444287
665,253,27.8698,0.0314941,0.000554109,-0.00124445,-0.000897835,0.000925582,-0.00161592,-0.392297,0.00148527,0.0197612,1889,771,27.8697,-0.031483
672,253,27.8552,0.528198,0.000592454,-0.000985312,-0.000595791,0.000792157,-0.00118502,-0.323421,0.00114901,0.0160109,1896,771,27.8553,-0.528204
679,253,27.8967,1.0509,0.000643944,-0.000412182,-0.000148097,0.000664318,-0.000432556,-0.136715,0.000637975,0.012689,1903,771,27.8968,-1.0509
686,253,27.8748,1.52515,0.000949164,0.000591974,0.000370475,0.00118184,0.000359293,0.560797,0.000699594,0.0193176,1910,771,27.8747,-1.52517
693,253,27.8466,1.99255,0.00162319,0.00170725,0.00103376,0.00269984,0.000630605,0.805716,0.00163085,0.0198745,1917,771,27.8465,-1.99254
700,253,27.8374,2.44592,0.00258347,0.00275238,0.00184377,0.00451363,0.000822225,0.808284,0.0027759,0.0163621,1924,771,27.8374,-2.44595
707,253,27.8213,2.93134,0.00386832,0.00383727,0.00287899,0.00673183,0.000973765,0.782702,0.00420109,0.0150511,1931,771,27.8213,-2.93133
714,253,27.8179,3.42548,0.00553683,0.00483045,0.004138,0.0093367,0.00103059,0.742825,0.00591096,0.0206685,1938,771,27.8179,-3.42547
721,253,28.0615,3.98785,0.0073923,0.00579581,0.00573047,0.0123799,0.000808259,0.716194,0.00799744,0.0366765,1945,771,28.0616,-3.98785
728,253,28.3451,4.57288,0,0,0,0,0,0,0,-1,1952,771,28.3451,-4.57287
735,253,28.152,4.92865,0,0,0,0,0,0,0,-1,1959,771,28.152,-4.92865
742,253,27.5789,5.78607,0,0,0,0,0,0,0,-1,1966,771,27.5788,-5.78606
749,253,33.7754,3.21533,0,0,0,0,0,0,0,-1,1973,771,33.7754,-3.21533
756,253,0,0,0,0,0,0,0,0,0,-1,1980,771,0,0
763,253,0,0,0,0,0,0,0,0,0,-1,1987,771,0,0
770,253,0,0,0,0,0,0,0,0,0,-1,1994,771,0,0
777,253,0,0,0,0,0,0,0,0,0,-1,2001,771,0,0
784,253,0,0,0,0,0,0,0,0,0,-1,2008,771,0,0
791,253,0,0,0,0,0,0,0,0,0,-1,2015,771,0,0
798,253,0,0,0,0,0,0,0,0,0,-1,2022,771,0,0
805,253,0,0,0,0,0,0,0,0,0,-1,2029,771,0,0
812,253,0,0,0,0,0,0,0,0,0,-1,2036,771,0,0
-700,246,0,0,0,0,0,0,0,0,0,-1,524,778,0,0
-693,246,0,0,0,0,0,0,0,0,0,-1,531,778,0,0
-686,246,0,0,0,0,0,0,0,0,0,-1,538,778,0,0
-679,246,0,0,0,0,0,0,0,0,0,-1,545,778,0,0
-672,246,0,0,0,0,0,0,0,0,0,-1,552,778,0,0
-665,246,0,0,0,0,0,0,0,0,0,-1,559,778,0,0
-658,246,0,0,0,0,0,0,0,0,0,-1,566,778,0,0
-651,246,0,0,0,0,0,0,0,0,0,-1,573,778,0,0
-644,246,0,0,0,0,0,0,0,0,0,-1,580,778,0,0
-637,246,-24.1234,0.130432,0,0,0,0,0,0,0,-1,587,778,-24.1234,-0.130438
-630,246,-24.0781,1.38916,0,0,0,0,0,0,0,-1,594,778,-24.0781,-1.38913
-623,246,-23.9183,2.49573,0,0,0,0,0,0,0,-1,601,778,-23.9183,-2.49575
-616,246,-20.4103,2.97504,0,0,0,0,0,0,0,-1,608,778,-20.4104,-2.97501
-609,246,-19.6846,2.64185,0,0,0,0,0,0,0,-1,615,778,-19.6845,-2.64183
-602,246,-19.8501,2.49133,0,0,0,0,0,0,0,-1,622,778,-19.8501,-2.49133
-595,246,-19.4222,1.97418,0.0342074,0.0115614,-0.0147314,0.0414646,0.00430418,-0.45774,0.0263259,0.0472843,629,778,-19.4222,-1.9742
-588,246,-18.8419,1.30103,0.0242886,0.00867642,-0.0101541,0.0292903,0.00367468,-0.457698,0.0184245,0.031062,636,778,-18.8419,-1.301
-581,246,-18.8633,0.865601,0.0170525,0.00635459,-0.00685743,0.0204004,0.00300666,-0.454178,0.0127171,0.017779,643,778,-18.8633,-0.865602
-574,246,-18.8285,0.35437,0.0115874,0.00441997,-0.00436068,0.0136481,0.00235936,-0.441443,0.00842313,0.0185403,650,778,-18.8285,-0.35439
-567,246,-18.8629,-0.100281,0.00728032,0.00273824,-0.00242619,0.00833253,0.00168602,-0.409208,0.00508702,0.0198748,657,778,-18.8629,0.100306
-560,246,-18.8785,-0.522766,0.00389042,0.00129829,-0.000847851,0.00414311,0.0010456,-0.289652,0.00248789,0.0151175,664,778,-18.8785,0.522789
-553,246,-18.875,-0.941772,0.00126101,0.000192907,0.000466059,0.00143577,1.81406e-05,0.35876,0.000951192,0.0132309,671,778,-18.875,0.94177
-546,246,-18.9228,-1.38385,-0.00086623,-0.000194184,0.00189318,0.00139256,-0.00245297,0.873229,0.00224818,0.0115029,678,778,-18.9228,1.38386
-539,246,-18.9349,-1.88098,-0.0022637,6.3492e-05,0.00280409,0.00193583,-0.00413603,0.982068,0.00358148,0.0109487,685,778,-18.9349,1.88097
-532,246,-18.9343,-2.36163,-0.00256473,0.000822799,0.00283893,0.00243484,-0.00417677,1.05436,0.00386112,0.0123846,692,778,-18.9343,2.36162
-525,246,-18.9675,-2.80603,-0.00243693,0.00168718,0.00330323,0.00351915,-0.00426889,1.06443,0.00450337,0.0176861,699,778,-18.9675,2.80603
-518,246,-19.0978,-3.12091,-0.0027545,0.00327655,0.00341633,0.00481785,-0.00429581,1.14698,0.00526465,0.0294585,706,778,-19.0978,3.12092
-511,246,-19.5297,-3.62103,0,0,0,0,0,0,0,-1,713,778,-19.5297,3.62103
-504,246,-20.0047,-2.88214,0,0,0,0,0,0,0,-1,720,778,-20.0047,2.88216
-497,246,-29.4669,1.82684,0,0,0,0,0,0,0,-1,727,778,-29.4669,-1.82687
-490,246,-30.3755,1.39185,0,0,0,0,0,0,0,-1,734,778,-30.3755,-1.39185
-483,246,-30.412,1.32751,-0.0024192,0.00515815,0.00402962,0.00690047,-0.00416152,1.16269,0.00645157,0.0491332,741,778,-30.412,-1.32754
-476,246,-30.1661,1.18811,-0.00226781,0.00449206,0.0042985,0.00658032,-0.00435606,1.11857,0.0063575,0.0465799,748,778,-30.1662,-1.1881
-469,246,-30.0615,1.11603,-0.00211023,0.00275615,0.00458916,0.00551727,-0.00487135,1.02916,0.00600173,0.0420562,755,778,-30.0615,-1.116
-462,246,-30.238,1.00256,-0.00208322,-0.000956084,0.00455375,0.00306884,-0.00610814,0.846965,0.00539432,0.0444982,762,778,-30.238,-1.00255
-455,246,0,0,0,0,0,0,0,0,0,-1,769,778,0,0
-448,246,0,0,0,0,0,0,0,0,0,-1,776,778,0,0
-441,246,0,0,0,0,0,0,0,0,0,-1,783,778,0,0
-434,246,0,0,0,0,0,0,0,0,0,-1,790,778,0,0
-427,246,0,0,0,0,0,0,0,0,0,-1,797,778,0,0
-420,246,0,0,0,0,0,0,0,0,0,-1,804,778,0,0
-413,246,0,0,0,0,0,0,0,0,0,-1,811,778,0,0
-406,246,0,0,0,0,0,0,0,0,0,-1,818,778,0,0
-399,246,0,0,0,0,0,0,0,0,0,-1,825,778,0,0
-392,246,0,0,0,0,0,0,0,0,0,-1,832,778,0,0
-385,246,0,0,0,0,0,0,0,0,0,-1,839,778,0,0
-378,246,0,0,0,0,0,0,0,0,0,-1,846,778,0,0
-371,246,0,0,0,0,0,0,0,0,0,-1,853,778,0,0
-364,246,0,0,0,0,0,0,0,0,0,-1,860,778,0,0
-357,246,0,0,0,0,0,0,0,0,0,-1,867,778,0,0
-350,246,0,0,0,0,0,0,0,0,0,-1,874,778,0,0
-343,246,0,0,0,0,0,0,0,0,0,-1,881,778,0,0
-336,246,0,0,0,0,0,0,0,0,0,-1,888,778,0,0
-329,246,0,0,0,0,0,0,0,0,0,-1,895,778,0,0
-322,246,0,0,0,0,0,0,0,0,0,-1,902,778,0,0
-315,246,0,0,0,0,0,0,0,0,0,-1,909,778,0,0
-308,246,0,0,0,0,0,0,0,0,0,-1,916,778,0,0
-301,246,0,0,0,0,0,0,0,0,0,-1,923,778,0,0
-294,246,0,0,0,0,0,0,0,0,0,-1,930,778,0,0
-287,246,0,0,0,0,0,0,0,0,0,-1,937,778,0,0
-280,246,0,0,0,0,0,0,0,0,0,-1,944,778,0,0
-273,246,0,0,0,0,0,0,0,0,0,-1,951,778,0,0
-266,246,0,0,0,0,0,0,0,0,0,-1,958,778,0,0
-259,246,0,0,0,0,0,0,0,0,0,-1,965,778,0,0
-252,246,0,0,0,0,0,0,0,0,0,-1,972,778,0,0
-245,246,0,0,0,0,0,0,0,0,0,-1,979,778,0,0
-238,246,0,0,0,0,0,0,0,0,0,-1,986,778,0,0
-231,246,0,0,0,0,0,0,0,0,0,-1,993,778,0,0
-224,246,0,0,0,0,0,0,0,0,0,-1,1000,778,0,0
-217,246,0,0,0,0,0,0,0,0,0,-1,1007,778,0,0
-210,246,0,0,0,0,0,0,0,0,0,-1,1014,778,0,0
-203,246,0,0,0,0,0,0,0,0,0,-1,1021,778,0,0
-196,246,0,0,0,0,0,0,0,0,0,-1,1028,778,0,0
-189,246,0,0,0,0,0,0,0,0,0,-1,1035,778,0,0
-182,246,0,0,0,0,0,0,0,0,0,-1,1042,778,0,0
-175,246,0,0,0,0,0,0,0,0,0,-1,1049,778,0,0
-168,246,0,0,0,0,0,0,0,0,0,-1,1056,778,0,0
-161,246,0,0,0,0,0,0,0,0,0,-1,1063,778,0,0
-154,246,0,0,0,0,0,0,0,0,0,-1,1070,778,0,0
-147,246,0,0,0,0,0,0,0,0,0,-1,1077,778,0,0
-140,246,0,0,0,0,0,0,0,0,0,-1,1084,778,0,0
-133,246,0,0,0,0,0,0,0,0,0,-1,1091,778,0,0
-126,246,0,0,0,0,0,0,0,0,0,-1,1098,778,0,0
-119,246,0,0,0,0,0,0,0,0,0,-1,1105,778,0,0
-112,246,0,0,0,0,0,0,0,0,0,-1,1112,778,0,0
-105,246,0,0,0,0,0,0,0,0,0,-1,1119,778,0,0
-98,246,0,0,0,0,0,0,0,0,0,-1,1126,778,0,0
-91,246,0,0,0,0,0,0,0,0,0,-1,1133,778,0,0
-84,246,0,0,0,0,0,0,0,0,0,-1,1140,778,0,0
-77,246,0,0,0,0,0,0,0,0,0,-1,1147,778,0,0
-70,246,0,0,0,0,0,0,0,0,0,-1,1154,778,0,0
-63,246,0,0,0,0,0,0,0,0,0,-1,1161,778,0,0
-56,246,0,0,0,0,0,0,0,0,0,-1,1168,778,0,0
-49,246,0,0,0,0,0,0,0,0,0,-1,1175,778,0,0
-42,246,0,0,0,0,0,0,0,0,0,-1,1182,778,0,0
-35,246,0,0,0,0,0,0,0,0,0,-1,1189,778,0,0
-28,246,0,0,0,0,0,0,0,0,0,-1,1196,778,0,0
-21,246,0,0,0,0,0,0,0,0,0,-1,1203,778,0,0
-14,246,0,0,0,0,0,0,0,0,0,-1,1210,778,0,0
-7,246,0,0,0,0,0,0,0,0,0,-1,1217,778,0,0
0,246,0,0,0,0,0,0,0,0,0,-1,1224,778,0,0
7,246,0,0,0,0,0,0,0,0,0,-1,1231,778,0,0
14,246,0,0,0,0,0,0,0,0,0,-1,1238,778,0,0
21,246,0,0,0,0,0,0,0,0,0,-1,1245,778,0,0
28,246,0,0,0,0,0,0,0,0,0,-1,1252,778,0,0
35,246,0,0,0,0,0,0,0,0,0,-1,1259,778,0,0
42,246,0,0,0,0,0,0,0,0,0,-1,1266,778,0,0
49,246,0,0,0,0,0,0,0,0,0,-1,1273,778,0,0
56,246,0,0,0,0,0,0,0,0,0,-1,1280,778,0,0
63,246,0,0,0,0,0,0,0,0,0,-1,1287,778,0,0
70,246,0,0,0,0,0,0,0,0,0,-1,1294,778,0,0
77,246,0,0,0,0,0,0,0,0,0,-1,1301,778,0,0
84,246,0,0,0,0,0,0,0,0,0,-1,1308,778,0,0
91,246,0,0,0,0,0,0,0,0,0,-1,1315,778,0,0
98,246,0,0,0,0,0,0,0,0,0,-1,1322,778,0,0
105,246,0,0,0,0,0,0,0,0,0,-1,1329,778,0,0
112,246,0,0,0,0,0,0,0,0,0,-1,1336,778,0,0
119,246,0,0,0,0,0,0,0,0,0,-1,1343,778,0,0
126,246,0,0,0,0,0,0,0,0,0,-1,1350,778,0,0
133,246,0,0,0,0,0,0,0,0,0,-1,1357,778,0,0
140,246,0,0,0,0,0,0,0,0,0,-1,1364,778,0,0
147,246,0,0,0,0,0,0,0,0,0,-1,1371,778,0,0
154,246,0,0,0,0,0,0,0,0,0,-1,1378,778,0,0
161,246,0,0,0,0,0,0,0,0,0,-1,1385,778,0,0
168,246,0,0,0,0,0,0,0,0,0,-1,1392,778,0,0
175,246,0,0,0,0,0,0,0,0,0,-1,1399,778,0,0
182,246,0,0,0,0,0,0,0,0,0,-1,1406,778,0,0
189,246,0,0,0,0,0,0,0,0,0,-1,1413,778,0,0
196,246,0,0,0,0,0,0,0,0,0,-1,1420,778,0,0
203,246,0,0,0,0,0,0,0,0,0,-1,1427,778,0,0
210,246,0,0,0,0,0,0,0,0,0,-1,1434,778,0,0
217,246,0,0,0,0,0,0,0,0,0,-1,1441,778,0,0
224,246,0,0,0,0,0,0,0,0,0,-1,1448,778,0,0
231,246,0,0,0,0,0,0,0,0,0,-1,1455,778,0,0
238,246,0,0,0,0,0,0,0,0,0,-1,1462,778,0,0
245,246,0,0,0,0,0,0,0,0,0,-1,1469,778,0,0
252,246,0,0,0,0,0,0,0,0,0,-1,1476,778,0,0
259,246,0,0,0,0,0,0,0,0,0,-1,1483,778,0,0
266,246,0,0,0,0,0,0,0,0,0,-1,1490,778,0,0
273,246,0,0,0,0,0,0,0,0,0,-1,1497,778,0,0
280,246,0,0,0,0,0,0,0,0,0,-1,1504,778,0,0
287,246,0,0,0,0,0,0,0,0,0,-1,1511,778,0,0
294,246,0,0,0,0,0,0,0,0,0,-1,1518,778,0,0
301,246,0,0,0,0,0,0,0,0,0,-1,1525,778,0,0
308,246,0,0,0,0,0,0,0,0,0,-1,1532,778,0,0
315,246,0,0,0,0,0,0,0,0,0,-1,1539,778,0,0
322,246,0,0,0,0,0,0,0,0,0,-1,1546,778,0,0
329,246,0,0,0,0,0,0,0,0,0,-1,1553,778,0,0
336,246,0,0,0,0,0,0,0,0,0,-1,1560,778,0,0
343,246,0,0,0,0,0,0,0,0,0,-1,1567,778,0,0
350,246,0,0,0,0,0,0,0,0,0,-1,1574,778,0,0
357,246,0,0,0,0,0,0,0,0,0,-1,1581,778,0,0
364,246,0,0,0,0,0,0,0,0,0,-1,1588,778,0,0
371,246,0,0,0,0,0,0,0,0,0,-1,1595,778,0,0
378,246,0,0,0,0,0,0,0,0,0,-1,1602,778,0,0
385,246,0,0,0,0,0,0,0,0,0,-1,1609,778,0,0
392,246,0,0,0,0,0,0,0,0,0,-1,1616,778,0,0
399,246,0,0,0,0,0,0,0,0,0,-1,1623,778,0,0
406,246,0,0,0,0,0,0,0,0,0,-1,1630,778,0,0
413,246,0,0,0,0,0,0,0,0,0,-1,1637,778,0,0
420,246,0,0,0,0,0,0,0,0,0,-1,1644,778,0,0
427,246,0,0,0,0,0,0,0,0,0,-1,1651,778,0,0
434,246,0,0,0,0,0,0,0,0,0,-1,1658,778,0,0
441,246,0,0,0,0,0,0,0,0,0,-1,1665,778,0,0
448,246,0,0,0,0,0,0,0,0,0,-1,1672,778,0,0
455,246,0,0,0,0,0,0,0,0,0,-1,1679,778,0,0
462,246,0,0,0,0,0,0,0,0,0,-1,1686,778,0,0
469,246,0,0,0,0,0,0,0,0,0,-1,1693,778,0,0
476,246,0,0,0,0,0,0,0,0,0,-1,1700,778,0,0
483,246,0,0,0,0,0,0,0,0,0,-1,1707,778,0,0
490,246,0,0,0,0,0,0,0,0,0,-1,1714,778,0,0
497,246,0,0,0,0,0,0,0,0,0,-1,1721,778,0,0
504,246,0,0,0,0,0,0,0,0,0,-1,1728,778,0,0
511,246,0,0,0,0,0,0,0,0,0,-1,1735,778,0,0
518,246,0,0,0,0,0,0,0,0,0,-1,1742,778,0,0
525,246,0,0,0,0,0,0,0,0,0,-1,1749,778,0,0
532,246,0,0,0,0,0,0,0,0,0,-1,1756,778,0,0
539,246,0,0,0,0,0,0,0,0,0,-1,1763,778,0,0
546,246,0,0,0,0,0,0,0,0,0,-1,1770,778,0,0
553,246,0,0,0,0,0,0,0,0,0,-1,1777,778,0,0
560,246,0,0,0,0,0,0,0,0,0,-1,1784,778,0,0
567,246,0,0,0,0,0,0,0,0,0,-1,1791,778,0,0
574,246,0,0,0,0,0,0,0,0,0,-1,1798,778,0,0
581,246,40.8922,2.72211,-0.00206304,0.0135415,-0.00222139,0.0138516,-0.0023731,-1.43211,0.0101186,0.0385397,1805,778,40.8922,-2.72208
588,246,40.8846,2.79486,-0.000315977,0.0152077,-0.00342306,0.015929,-0.00103727,-1.36312,0.0109815,0.0434022,1812,778,40.8846,-2.79484
595,246,41.0419,2.75861,0.000641378,0.0138952,-0.00362399,0.0148213,-0.00028481,-1.32058,0.00997719,0.0415176,1819,778,41.0418,-2.75859
602,246,41.1094,2.79224,0.0011085,0.0116822,-0.00323189,0.0125918,0.000198901,-1.29645,0.008329,0.0443032,1826,778,41.1094,-2.79221
609,246,40.9811,2.79395,0.00131846,0.00922865,-0.00273,0.0100794,0.000467753,-1.26872,0.0065692,0.0471786,1833,778,40.9811,-2.79394
616,246,41.056,3.21759,0,0,0,0,0,0,0,-1,1840,778,41.056,-3.21757
623,246,40.2552,3.88824,0,0,0,0,0,0,0,-1,1847,778,40.2552,-3.88826
630,246,40.4249,3.77338,0,0,0,0,0,0,0,-1,1854,778,40.425,-3.77337
637,246,29.5785,0.837585,0,0,0,0,0,0,0,-1,1861,778,29.5785,-0.837606
644,246,28.1232,-1.43188,0,0,0,0,0,0,0,-1,1868,778,28.1232,1.43188
651,246,28.2507,-0.933105,-3.609e-05,-0.000736968,-0.000872782,0.000553979,-0.00132704,-0.59449,0.00111616,0.0478633,1875,778,28.2507,0.933116
658,246,28.3848,-0.444275,-0.000135391,-0.00117029,-0.00110495,0.000567264,-0.00187295,-0.566412,0.00147455,0.0264124,1882,778,28.3847,0.444301
665,246,28.3713,0.046875,1.66124e-05,-0.00139321,-0.00118744,0.000692608,-0.0020692,-0.517533,0.00165924,0.0219179,1889,778,28.3713,-0.0468666
672,246,28.3433,0.578674,5.78088e-05,-0.00133631,-0.00093024,0.000523176,-0.00180168,-0.46386,0.00140829,0.0215147,1896,778,28.3432,-0.578674
679,246,28.359,1.05731,7.37257e-05,-0.00100823,-0.000530003,0.000290086,-0.00122459,-0.387576,0.00092832,0.0202685,1903,778,28.359,-1.05729
686,246,28.3717,1.54858,0.000401855,-0.000126893,-4.58537e-05,0.000405802,-0.00013084,-0.0858671,0.000323103,0.0217332,1910,778,28.3717,-1.54858
693,246,28.3693,2.01233,0.00114671,0.000970098,0.000591773,0.00165673,0.000460079,0.711332,0.000987523,0.0185655,1917,778,28.3693,-2.01236
700,246,28.3506,2.45544,0.00218922,0.00194259,0.00138469,0.00345608,0.000675731,0.740989,0.0021151,0.014795,1924,778,28.3506,-2.45547
707,246,28.3185,2.93182,0.00340125,0.00294275,0.00233154,0.00551478,0.000829215,0.736393,0.00343365,0.0129552,1931,778,28.3185,-2.9318
714,246,28.2844,3.44196,0.00493198,0.00383911,0.0034702,0.00789851,0.000872591,0.707307,0.00500025,0.0128079,1938,778,28.2845,-3.44198
721,246,28.2759,3.90936,0.00660431,0.00464588,0.00485576,0.0105786,0.000671582,0.685902,0.00683955,0.019376,1945,778,28.2758,-3.90935
728,246,28.3711,4.5097,0.00866605,0.0052988,0.00664914,0.0138414,0.000123433,0.6614,0.00918674,0.041142,1952,778,28.3711,-4.50973
735,246,28.5848,5.20618,0,0,0,0,0,0,0,-1,1959,778,28.5849,-5.20619
742,246,27.2845,6.09308,0,0,0,0,0,0,0,-1,1966,778,27.2846,-6.0931
749,246,33.0042,3.3197,0,0,0,0,0,0,0,-1,1973,778,33.0041,-3.31969
756,246,33.6919,3.45264,0,0,0,0,0,0,0,-1,1980,778,33.6919,-3.45262
763,246,0,0,0,0,0,0,0,0,0,-1,1987,778,0,0
770,246,0,0,0,0,0,0,0,0,0,-1,1994,778,0,0
777,246,0,0,0,0,0,0,0,0,0,-1,2001,778,0,0
784,246,0,0,0,0,0,0,0,0,0,-1,2008,778,0,0
791,246,0,0,0,0,0,0,0,0,0,-1,2015,778,0,0
798,246,0,0,0,0,0,0,0,0,0,-1,2022,778,0,0
805,246,0,0,0,0,0,0,0,0,0,-1,2029,778,0,0
812,246,0,0,0,0,0,0,0,0,0,-1,2036,778,0,0
-700,239,0,0,0,0,0,0,0,0,0,-1,524,785,0,0
-693,239,0,0,0,0,0,0,0,0,0,-1,531,785,0,0
-686,239,0,0,0,0,0,0,0,0,0,-1,538,785,0,0
-679,239,0,0,0,0,0,0,0,0,0,-1,545,785,0,0
-672,239,0,0,0,0,0,0,0,0,0,-1,552,785,0,0
-665,239,0,0,0,0,0,0,0,0,0,-1,559,785,0,0
-658,239,0,0,0,0,0,0,0,0,0,-1,566,785,0,0
-651,239,0,0,0,0,0,0,0,0,0,-1,573,785,0,0
-644,239,0,0,0,0,0,0,0,0,0,-1,580,785,0,0
-637,239,-23.2709,0.465088,0,0,0,0,0,0,0,-1,587,785,-23.271,-0.465116
-630,239,-23.4006,0.956299,0,0,0,0,0,0,0,-1,594,785,-23.4005,-0.956285
-623,239,-23.3302,1.56317,0,0,0,0,0,0,0,-1,601,785,-23.3302,-1.56317
-616,239,-23.8334,2.11334,0,0,0,0,0,0,0,-1,608,785,-23.8334,-2.11337
-609,239,-19.8521,2.55859,0,0,0,0,0,0,0,-1,615,785,-19.852,-2.55859
-602,239,-19.5991,2.92468,0,0,0,0,0,0,0,-1,622,785,-19.5991,-2.92466
-595,239,-19.4339,2.12909,0.029165,0.0109199,-0.0131151,0.0360183,0.00406665,-0.481523,0.022778,0.0426422,629,785,-19.4339,-2.12907
-588,239,-19.2693,1.37457,0.0210681,0.00798732,-0.00922007,0.0258319,0.00322344,-0.476907,0.0162537,0.0198235,636,785,-19.2694,-1.37454
-581,239,-19.3419,0.852966,0.014958,0.00567246,-0.00629163,0.0181344,0.00249602,-0.467534,0.0113495,0.0109896,643,785,-19.3419,-0.852978
-574,239,-19.3302,0.356445,0.0101491,0.00377067,-0.0039619,0.0120459,0.00187384,-0.446518,0.00748458,0.0119656,650,785,-19.3302,-0.356459
-567,239,-19.3355,-0.0766602,0.00621152,0.00212206,-0.00208945,0.00709027,0.00124331,-0.398108,0.00437175,0.0150212,657,785,-19.3355,0.0766845
-560,239,-19.3549,-0.49408,0.0030321,0.00081891,-0.00053514,0.0031547,0.000696307,-0.225217,0.00191374,0.0150166,664,785,-19.3549,0.494078
-553,239,-19.363,-0.931458,0.000544558,3.48757e-06,0.000776829,0.00109661,-0.000548566,0.617838,0.000967252,0.0144951,671,785,-19.363,0.93146
-546,239,-19.4132,-1.37659,-0.00141845,8.2706e-05,0.00223895,0.00169354,-0.00302928,0.947129,0.00276284,0.0150395,678,785,-19.4132,1.37658
-539,239,-19.4248,-1.86066,-0.00260001,0.000801963,0.00302147,0.00256834,-0.00436639,1.04177,0.00404838,0.0155963,685,785,-19.4248,1.86068
-532,239,-19.408,-2.3327,-0.00279902,0.00187281,0.00298267,0.00332541,-0.00425162,1.11759,0.00438548,0.0155111,692,785,-19.4079,2.33269
-525,239,-19.4519,-2.66968,-0.00265349,0.00285367,0.00328833,0.00438906,-0.00418889,1.13396,0.00495293,0.0235206,699,785,-19.4519,2.66968
-518,239,-19.598,-2.97198,0,0,0,0,0,0,0,-1,706,785,-19.598,2.97197
-511,239,-19.9037,-2.09027,0,0,0,0,0,0,0,-1,713,785,-19.9038,2.09026
-504,239,-25.5015,2.00421,0,0,0,0,0,0,0,-1,720,785,-25.5015,-2.00422
-497,239,-30.7249,1.59113,0,0,0,0,0,0,0,-1,727,785,-30.7248,-1.59115
-490,239,-30.4023,1.49274,-0.00240129,0.00680763,0.00291684,0.00765376,-0.00324742,1.28846,0.00646291,0.0456804,734,785,-30.4023,-1.49275
-483,239,-30.1917,1.36774,-0.00217477,0.00675127,0.00271727,0.00751339,-0.00293689,1.29735,0.00622334,0.0442286,741,785,-30.1917,-1.36772
-476,239,-30.2003,1.0495,-0.00178498,0.00582364,0.00235763,0.00649495,-0.0024563,1.2934,0.00534046,0.0436756,748,785,-30.2003,-1.04949
-469,239,-30.2633,0.966125,-0.00143233,0.00337119,0.00182251,0.00398439,-0.00204553,1.24624,0.00354086,0.0453991,755,785,-30.2633,-0.966136
-462,239,-30.3657,0.929138,-0.0014644,-0.00181151,0.000710416,-0.000906647,-0.00236926,0.665597,0.00138039,0.0451742,762,785,-30.3657,-0.929133
-455,239,0,0,0,0,0,0,0,0,0,-1,769,785,0,0
-448,239,0,0,0,0,0,0,0,0,0,-1,776,785,0,0
-441,239,0,0,0,0,0,0,0,0,0,-1,783,785,0,0
-434,239,0,0,0,0,0,0,0,0,0,-1,790,785,0,0
-427,239,0,0,0,0,0,0,0,0,0,-1,797,785,0,0
-420,239,0,0,0,0,0,0,0,0,0,-1,804,785,0,0
-413,239,0,0,0,0,0,0,0,0,0,-1,811,785,0,0
-406,239,0,0,0,0,0,0,0,0,0,-1,818,785,0,0
-399,239,0,0,0,0,0,0,0,0,0,-1,825,785,0,0
-392,239,0,0,0,0,0,0,0,0,0,-1,832,785,0,0
-385,239,0,0,0,0,0,0,0,0,0,-1,839,785,0,0
-378,239,0,0,0,0,0,0,0,0,0,-1,846,785,0,0
-371,239,0,0,0,0,0,0,0,0,0,-1,853,785,0,0
-364,239,0,0,0,0,0,0,0,0,0,-1,860,785,0,0
-357,239,0,0,0,0,0,0,0,0,0,-1,867,785,0,0
-350,239,0,0,0,0,0,0,0,0,0,-1,874,785,0,0
-343,239,0,0,0,0,0,0,0,0,0,-1,881,785,0,0
-336,239,0,0,0,0,0,0,0,0,0,-1,888,785,0,0
-329,239,0,0,0,0,0,0,0,0,0,-1,895,785,0,0
-322,239,0,0,0,0,0,0,0,0,0,-1,902,785,0,0
-315,239,0,0,0,0,0,0,0,0,0,-1,909,785,0,0
-308,239,0,0,0,0,0,0,0,0,0,-1,916,785,0,0
-301,239,0,0,0,0,0,0,0,0,0,-1,923,785,0,0
-294,239,0,0,0,0,0,0,0,0,0,-1,930,785,0,0
-287,239,0,0,0,0,0,0,0,0,0,-1,937,785,0,0
-280,239,0,0,0,0,0,0,0,0,0,-1,944,785,0,0
-273,239,0,0,0,0,0,0,0,0,0,-1,951,785,0,0
-266,239,0,0,0,0,0,0,0,0,0,-1,958,785,0,0
-259,239,0,0,0,0,0,0,0,0,0,-1,965,785,0,0
-252,239,0,0,0,0,0,0,0,0,0,-1,972,785,0,0
-245,239,0,0,0,0,0,0,0,0,0,-1,979,785,0,0
-238,239,0,0,0,0,0,0,0,0,0,-1,986,785,0,0
-231,239,0,0,0,0,0,0,0,0,0,-1,993,785,0,0
-224,239,0,0,0,0,0,0,0,0,0,-1,1000,785,0,0
-217,239,0,0,0,0,0,0,0,0,0,-1,1007,785,0,0
-210,239,0,0,0,0,0,0,0,0,0,-1,1014,785,0,0
-203,239,0,0,0,0,0,0,0,0,0,-1,1021,785,0,0
-196,239,0,0,0,0,0,0,0,0,0,-1,1028,785,0,0
-189,239,0,0,0,0,0,0,0,0,0,-1,1035,785,0,0
-182,239,0,0,0,0,0,0,0,0,0,-1,1042,785,0,0
-175,239,0,0,0,0,0,0,0,0,0,-1,1049,785,0,0
-168,239,0,0,0,0,0,0,0,0,0,-1,1056,785,0,0
-161,239,0,0,0,0,0,0,0,0,0,-1,1063,785,0,0
-154,239,0,0,0,0,0,0,0,0,0,-1,1070,785,0,0
-147,239,0,0,0,0,0,0,0,0,0,-1,1077,785,0,0
-140,239,0,0,0,0,0,0,0,0,0,-1,1084,785,0,0
-133,239,0,0,0,0,0,0,0,0,0,-1,1091,785,0,0
-126,239,0,0,0,0,0,0,0,0,0,-1,1098,785,0,0
-119,239,0,0,0,0,0,0,0,0,0,-1,1105,785,0,0
-112,239,0,0,0,0,0,0,0,0,0,-1,1112,785,0,0
-105,239,0,0,0,0,0,0,0,0,0,-1,1119,785,0,0
-98,239,0,0,0,0,0,0,0,0,0,-1,1126,785,0,0
-91,239,0,0,0,0,0,0,0,0,0,-1,1133,785,0,0
-84,239,0,0,0,0,0,0,0,0,0,-1,1140,785,0,0
-77,239,0,0,0,0,0,0,0,0,0,-1,1147,785,0,0
-70,239,0,0,0,0,0,0,0,0,0,-1,1154,785,0,0
-63,239,0,0,0,0,0,0,0,0,0,-1,1161,785,0,0
-56,239,0,0,0,0,0,0,0,0,0,-1,1168,785,0,0
-49,239,0,0,0,0,0,0,0,0,0,-1,1175,785,0,0
-42,239,0,0,0,0,0,0,0,0,0,-1,1182,785,0,0
-35,239,0,0,0,0,0,0,0,0,0,-1,1189,785,0,0
-28,239,0,0,0,0,0,0,0,0,0,-1,1196,785,0,0
-21,239,0,0,0,0,0,0,0,0,0,-1,1203,785,0,0
-14,239,0,0,0,0,0,0,0,0,0,-1,1210,785,0,0
-7,239,0,0,0,0,0,0,0,0,0,-1,1217,785,0,0
0,239,0,0,0,0,0,0,0,0,0,-1,1224,785,0,0
7,239,0,0,0,0,0,0,0,0,0,-1,1231,785,0,0
14,239,0,0,0,0,0,0,0,0,0,-1,1238,785,0,0
21,239,0,0,0,0,0,0,0,0,0,-1,1245,785,0,0
28,239,0,0,0,0,0,0,0,0,0,-1,1252,785,0,0
35,239,0,0,0,0,0,0,0,0,0,-1,1259,785,0,0
42,239,0,0,0,0,0,0,0,0,0,-1,1266,785,0,0
49,239,0,0,0,0,0,0,0,0,0,-1,1273,785,0,0
56,239,0,0,0,0,0,0,0,0,0,-1,1280,785,0,0
63,239,0,0,0,0,0,0,0,0,0,-1,1287,785,0,0
70,239,0,0,0,0,0,0,0,0,0,-1,1294,785,0,0
77,239,0,0,0,0,0,0,0,0,0,-1,1301,785,0,0
84,239,0,0,0,0,0,0,0,0,0,-1,1308,785,0,0
91,239,0,0,0,0,0,0,0,0,0,-1,1315,785,0,0
98,239,0,0,0,0,0,0,0,0,0,-1,1322,785,0,0
105,239,0,0,0,0,0,0,0,0,0,-1,1329,785,0,0
112,239,0,0,0,0,0,0,0,0,0,-1,1336,785,0,0
119,239,0,0,0,0,0,0,0,0,0,-1,1343,785,0,0
126,239,0,0,0,0,0,0,0,0,0,-1,1350,785,0,0
133,239,0,0,0,0,0,0,0,0,0,-1,1357,785,0,0
140,239,0,0,0,0,0,0,0,0,0,-1,1364,785,0,0
147,239,0,0,0,0,0,0,0,0,0,-1,1371,785,0,0
154,239,0,0,0,0,0,0,0,0,0,-1,1378,785,0,0
161,239,0,0,0,0,0,0,0,0,0,-1,1385,785,0,0
168,239,0,0,0,0,0,0,0,0,0,-1,1392,785,0,0
175,239,0,0,0,0,0,0,0,0,0,-1,1399,785,0,0
182,239,0,0,0,0,0,0,0,0,0,-1,1406,785,0,0
189,239,0,0,0,0,0,0,0,0,0,-1,1413,785,0,0
196,239,0,0,0,0,0,0,0,0,0,-1,1420,785,0,0
203,239,0,0,0,0,0,0,0,0,0,-1,1427,785,0,0
210,239,0,0,0,0,0,0,0,0,0,-1,1434,785,0,0
217,239,0,0,0,0,0,0,0,0,0,-1,1441,785,0,0
224,239,0,0,0,0,0,0,0,0,0,-1,1448,785,0,0
231,239,0,0,0,0,0,0,0,0,0,-1,1455,785,0,0
238,239,0,0,0,0,0,0,0,0,0,-1,1462,785,0,0
245,239,0,0,0,0,0,0,0,0,0,-1,1469,785,0,0
252,239,0,0,0,0,0,0,0,0,0,-1,1476,785,0,0
259,239,0,0,0,0,0,0,0,0,0,-1,1483,785,0,0
266,239,0,0,0,0,0,0,0,0,0,-1,1490,785,0,0
273,239,0,0,0,0,0,0,0,0,0,-1,1497,785,0,0
280,239,0,0,0,0,0,0,0,0,0,-1,1504,785,0,0
287,239,0,0,0,0,0,0,0,0,0,-1,1511,785,0,0
294,239,0,0,0,0,0,0,0,0,0,-1,1518,785,0,0
301,239,0,0,0,0,0,0,0,0,0,-1,1525,785,0,0
308,239,0,0,0,0,0,0,0,0,0,-1,1532,785,0,0
315,239,0,0,0,0,0,0,0,0,0,-1,1539,785,0,0
322,239,0,0,0,0,0,0,0,0,0,-1,1546,785,0,0
329,239,0,0,0,0,0,0,0,0,0,-1,1553,785,0,0
336,239,0,0,0,0,0,0,0,0,0,-1,1560,785,0,0
343,239,0,0,0,0,0,0,0,0,0,-1,1567,785,0,0
350,239,0,0,0,0,0,0,0,0,0,-1,1574,785,0,0
357,239,0,0,0,0,0,0,0,0,0,-1,1581,785,0,0
364,239,0,0,0,0,0,0,0,0,0,-1,1588,785,0,0
371,239,0,0,0,0,0,0,0,0,0,-1,1595,785,0,0
378,239,0,0,0,0,0,0,0,0,0,-1,1602,785,0,0
385,239,0,0,0,0,0,0,0,0,0,-1,1609,785,0,0
392,239,0,0,0,0,0,0,0,0,0,-1,1616,785,0,0
399,239,0,0,0,0,0,0,0,0,0,-1,1623,785,0,0
406,239,0,0,0,0,0,0,0,0,0,-1,1630,785,0,0
413,239,0,0,0,0,0,0,0,0,0,-1,1637,785,0,0
420,239,0,0,0,0,0,0,0,0,0,-1,1644,785,0,0
427,239,0,0,0,0,0,0,0,0,0,-1,1651,785,0,0
434,239,0,0,0,0,0,0,0,0,0,-1,1658,785,0,0
441,239,0,0,0,0,0,0,0,0,0,-1,1665,785,0,0
448,239,0,0,0,0,0,0,0,0,0,-1,1672,785,0,0
455,239,0,0,0,0,0,0,0,0,0,-1,1679,785,0,0
462,239,0,0,0,0,0,0,0,0,0,-1,1686,785,0,0
469,239,0,0,0,0,0,0,0,0,0,-1,1693,785,0,0
476,239,0,0,0,0,0,0,0,0,0,-1,1700,785,0,0
483,239,0,0,0,0,0,0,0,0,0,-1,1707,785,0,0
490,239,0,0,0,0,0,0,0,0,0,-1,1714,785,0,0
497,239,0,0,0,0,0,0,0,0,0,-1,1721,785,0,0
504,239,0,0,0,0,0,0,0,0,0,-1,1728,785,0,0
511,239,0,0,0,0,0,0,0,0,0,-1,1735,785,0,0
518,239,0,0,0,0,0,0,0,0,0,-1,1742,785,0,0
525,239,0,0,0,0,0,0,0,0,0,-1,1749,785,0,0
532,239,0,0,0,0,0,0,0,0,0,-1,1756,785,0,0
539,239,0,0,0,0,0,0,0,0,0,-1,1763,785,0,0
546,239,0,0,0,0,0,0,0,0,0,-1,1770,785,0,0
553,239,0,0,0,0,0,0,0,0,0,-1,1777,785,0,0
560,239,0,0,0,0,0,0,0,0,0,-1,1784,785,0,0
567,239,0,0,0,0,0,0,0,0,0,-1,1791,785,0,0
574,239,0,0,0,0,0,0,0,0,0,-1,1798,785,0,0
581,239,40.8253,2.97461,-0.00257153,0.0073247,-0.000120643,0.00732617,-0.002573,-1.55861,0.00593083,0.0357214,1805,785,40.8253,-2.9746
588,239,40.8163,2.88287,-0.000697295,0.0108973,-0.00159453,0.0111125,-0.000912584,-1.43659,0.00773054,0.0387837,1812,785,40.8163,-2.8829
595,239,40.9053,2.76068,0.000431668,0.0110111,-0.00225082,0.0114701,-2.72896e-05,-1.36965,0.00765584,0.0360702,1819,785,40.9053,-2.76071
602,239,41.0024,2.76324,0.000929942,0.00976174,-0.00230018,0.0103249,0.000366788,-1.33069,0.00676432,0.0396749,1826,785,41.0024,-2.76327
609,239,41.0831,2.82935,0,0,0,0,0,0,0,-1,1833,785,41.0832,-2.82937
616,239,40.2825,3.60431,0,0,0,0,0,0,0,-1,1840,785,40.2824,-3.6043
623,239,40.4534,3.47968,0,0,0,0,0,0,0,-1,1847,785,40.4534,-3.47969
630,239,40.6244,3.3551,0,0,0,0,0,0,0,-1,1854,785,40.6243,-3.35507
637,239,39.5542,2.54114,0,0,0,0,0,0,0,-1,1861,785,39.5543,-2.54114
644,239,18.3466,0.735413,0,0,0,0,0,0,0,-1,1868,785,18.3465,-0.735414
651,239,28.5243,-1.02728,0,0,0,0,0,0,0,-1,1875,785,28.5242,1.02729
658,239,28.8029,-0.409302,-0.000452814,-0.00120751,-0.00130005,0.000523542,-0.00218386,-0.644151,0.00165821,0.0347019,1882,785,28.8029,0.409283
665,239,28.8733,0.123718,-0.000323824,-0.00145145,-0.00145008,0.000668193,-0.00244347,-0.599984,0.00189147,0.0159544,1889,785,28.8733,-0.12371
672,239,28.8225,0.600708,-0.000327374,-0.00152653,-0.00125134,0.000460619,-0.00231452,-0.561984,0.00171727,0.0201256,1896,785,28.8225,-0.600688
679,239,28.8301,1.08746,-0.000392702,-0.00141479,-0.000909349,0.000139366,-0.00194686,-0.529398,0.00134677,0.0207777,1903,785,28.83,-1.08746
686,239,28.8466,1.58734,-9.83891e-05,-0.000666047,-0.00049698,0.0001901,-0.000954536,-0.525946,0.00070828,0.022398,1910,785,28.8465,-1.58732
693,239,28.8468,2.03754,0.000638449,0.000412538,0.000100357,0.000676591,0.000374396,0.363202,0.00039137,0.0155857,1917,785,28.8468,-2.03755
700,239,28.8284,2.49573,0.00170661,0.00132487,0.000877546,0.00241381,0.000617679,0.678314,0.00144792,0.0115534,1924,785,28.8284,-2.49574
707,239,28.7997,2.96564,0.00284211,0.00225391,0.00176402,0.00433638,0.000759643,0.702798,0.00267392,0.0108092,1931,785,28.7997,-2.96567
714,239,28.7805,3.42883,0.00421807,0.0030972,0.00282304,0.00653577,0.000779504,0.687411,0.00412199,0.0101666,1938,785,28.7805,-3.42886
721,239,28.7272,3.91791,0.00570155,0.00382055,0.00406506,0.00893349,0.000588607,0.671717,0.00576948,0.0235053,1945,785,28.7272,-3.91791
728,239,28.6609,4.56732,0.0074341,0.0043698,0.00560406,0.0117117,9.22233e-05,0.651959,0.00777722,0.0411638,1952,785,28.6608,-4.56735
735,239,28.8306,5.38641,0,0,0,0,0,0,0,-1,1959,785,28.8306,-5.38643
742,239,31.0596,3.20886,0,0,0,0,0,0,0,-1,1966,785,31.0596,-3.20887
749,239,32.1489,3.4411,0,0,0,0,0,0,0,-1,1973,785,32.149,-3.44109
756,239,32.9064,3.6687,0,0,0,0,0,0,0,-1,1980,785,32.9063,-3.66873
763,239,0,0,0,0,0,0,0,0,0,-1,1987,785,0,0
770,239,0,0,0,0,0,0,0,0,0,-1,1994,785,0,0
777,239,0,0,0,0,0,0,0,0,0,-1,2001,785,0,0
784,239,0,0,0,0,0,0,0,0,0,-1,2008,785,0,0
791,239,0,0,0,0,0,0,0,0,0,-1,2015,785,0,0
798,239,0,0,0,0,0,0,0,0,0,-1,2022,785,0,0
805,239,0,0,0,0,0,0,0,0,0,-1,2029,785,0,0
812,239,0,0,0,0,0,0,0,0,0,-1,2036,785,0,0
-700,232,0,0,0,0,0,0,0,0,0,-1,524,792,0,0
-693,232,0,0,0,0,0,0,0,0,0,-1,531,792,0,0
-686,232,0,0,0,0,0,0,0,0,0,-1,538,792,0,0
-679,232,0,0,0,0,0,0,0,0,0,-1,545,792,0,0
-672,232,0,0,0,0,0,0,0,0,0,-1,552,792,0,0
-665,232,0,0,0,0,0,0,0,0,0,-1,559,792,0,0
-658,232,0,0,0,0,0,0,0,0,0,-1,566,792,0,0
-651,232,0,0,0,0,0,0,0,0,0,-1,573,792,0,0
-644,232,-22.5826,0.269348,0,0,0,0,0,0,0,-1,580,792,-22.5826,-0.269357
-637,232,-22.0887,-0.86969,0,0,0,0,0,0,0,-1,587,792,-22.0887,0.869704
-630,232,-22.8522,1.33289,0,0,0,0,0,0,0,-1,594,792,-22.8523,-1.3329
-623,232,-24.0605,3.30249,0,0,0,0,0,0,0,-1,601,792,-24.0605,-3.30248
-616,232,-23.33,1.96783,0,0,0,0,0,0,0,-1,608,792,-23.33,-1.96785
-609,232,-24.4119,2.80933,0,0,0,0,0,0,0,-1,615,792,-24.4118,-2.80933
-602,232,-20.8553,2.47827,0,0,0,0,0,0,0,-1,622,792,-20.8553,-2.47825
-595,232,-19.7167,2.02588,0.0231399,0.00976667,-0.0108874,0.0292301,0.00367645,-0.510016,0.0183842,0.0358078,629,792,-19.7167,-2.02587
-588,232,-19.7568,1.37512,0.017163,0.00708767,-0.00784879,0.0214517,0.00279895,-0.500089,0.0134655,0.0129763,636,792,-19.7568,-1.3751
-581,232,-19.7891,0.858276,0.0123962,0.00492105,-0.00543071,0.0152512,0.00206606,-0.484006,0.00955356,0.00825578,643,792,-19.789,-0.858306
-574,232,-19.7952,0.406982,0.00849039,0.0031524,-0.00339984,0.0101437,0.00149907,-0.452623,0.00632231,0.00855867,650,792,-19.7952,-0.406984
-567,232,-19.8186,-0.0335693,0.0050969,0.00158569,-0.00170786,0.00579057,0.000892027,-0.385807,0.00360007,0.0104869,657,792,-19.8186,0.0335899
-560,232,-19.8385,-0.472107,0.00226383,0.00045375,-0.000313203,0.0023165,0.000401088,-0.166582,0.00142952,0.0131944,664,792,-19.8385,0.472077
-553,232,-19.8573,-0.928833,1.56761e-05,-5.79567e-05,0.000855209,0.000834861,-0.000877141,0.763887,0.000988525,0.0135791,671,792,-19.8573,0.928846
-546,232,-19.8867,-1.38922,-0.0017077,0.000379631,0.00221328,0.00178297,-0.00311104,1.00571,0.00286003,0.0208209,678,792,-19.8866,1.38922
-539,232,-19.9243,-1.83112,-0.00267301,0.00136863,0.00282454,0.00282082,-0.00412519,1.09591,0.00403378,0.0263641,685,792,-19.9243,1.8311
-532,232,-19.9417,-2.27789,-0.00284104,0.00257849,0.00272839,0.00371411,-0.00397666,1.17638,0.00444113,0.024692,692,792,-19.9416,2.27791
-525,232,-20.1095,-2.64111,-0.00271948,0.00358329,0.00290267,0.00471638,-0.00385257,1.19863,0.00495566,0.0462957,699,792,-20.1095,2.64114
-518,232,-20.5543,-2.97314,0,0,0,0,0,0,0,-1,706,792,-20.5543,2.97316
-511,232,-20.7353,-1.16711,0,0,0,0,0,0,0,-1,713,792,-20.7353,1.16712
-504,232,-30.1144,0.291443,0,0,0,0,0,0,0,-1,720,792,-30.1144,-0.291448
-497,232,-30.2142,0.782043,-0.00249828,0.00732066,0.00226397,0.00781753,-0.00299514,1.35475,0.00644633,0.0485897,727,792,-30.2142,-0.782043
-490,232,-30.4562,1.42365,-0.00211168,0.00776462,0.00184598,0.00809837,-0.00244544,1.39193,0.00637243,0.0437013,734,792,-30.4562,-1.42364
-483,232,-30.2621,1.06384,-0.00162461,0.00756502,0.00122019,0.00772428,-0.00178387,1.44101,0.00583574,0.0409975,741,792,-30.2621,-1.06384
-476,232,-30.2883,0.907593,-0.00086963,0.00616561,0.000224631,0.00617277,-0.000876795,1.53891,0.00443642,0.0361783,748,792,-30.2883,-0.907615
-469,232,-30.3519,0.800415,-0.000219059,0.00266346,-0.00111381,0.00304368,-0.000599284,-1.24183,0.00225558,0.0354544,755,792,-30.3518,-0.800422
-462,232,0,0,0,0,0,0,0,0,0,-1,762,792,0,0
-455,232,0,0,0,0,0,0,0,0,0,-1,769,792,0,0
-448,232,0,0,0,0,0,0,0,0,0,-1,776,792,0,0
-441,232,0,0,0,0,0,0,0,0,0,-1,783,792,0,0
-434,232,0,0,0,0,0,0,0,0,0,-1,790,792,0,0
-427,232,0,0,0,0,0,0,0,0,0,-1,797,792,0,0
-420,232,0,0,0,0,0,0,0,0,0,-1,804,792,0,0
-413,232,0,0,0,0,0,0,0,0,0,-1,811,792,0,0
-406,232,0,0,0,0,0,0,0,0,0,-1,818,792,0,0
-399,232,0,0,0,0,0,0,0,0,0,-1,825,792,0,0
-392,232,0,0,0,0,0,0,0,0,0,-1,832,792,0,0
-385,232,0,0,0,0,0,0,0,0,0,-1,839,792,0,0
-378,232,0,0,0,0,0,0,0,0,0,-1,846,792,0,0
-371,232,0,0,0,0,0,0,0,0,0,-1,853,792,0,0
-364,232,0,0,0,0,0,0,0,0,0,-1,860,792,0,0
-357,232,0,0,0,0,0,0,0,0,0,-1,867,792,0,0
-350,232,0,0,0,0,0,0,0,0,0,-1,874,792,0,0
-343,232,0,0,0,0,0,0,0,0,0,-1,881,792,0,0
-336,232,0,0,0,0,0,0,0,0,0,-1,888,792,0,0
-329,232,0,0,0,0,0,0,0,0,0,-1,895,792,0,0
-322,232,0,0,0,0,0,0,0,0,0,-1,902,792,0,0
-315,232,0,0,0,0,0,0,0,0,0,-1,909,792,0,0
-308,232,0,0,0,0,0,0,0,0,0,-1,916,792,0,0
-301,232,0,0,0,0,0,0,0,0,0,-1,923,792,0,0
-294,232,0,0,0,0,0,0,0,0,0,-1,930,792,0,0
-287,232,0,0,0,0,0,0,0,0,0,-1,937,792,0,0
-280,232,0,0,0,0,0,0,0,0,0,-1,944,792,0,0
-273,232,0,0,0,0,0,0,0,0,0,-1,951,792,0,0
-266,232,0,0,0,0,0,0,0,0,0,-1,958,792,0,0
-259,232,0,0,0,0,0,0,0,0,0,-1,965,792,0,0
-252,232,0,0,0,0,0,0,0,0,0,-1,972,792,0,0
-245,232,0,0,0,0,0,0,0,0,0,-1,979,792,0,0
-238,232,0,0,0,0,0,0,0,0,0,-1,986,792,0,0
-231,232,0,0,0,0,0,0,0,0,0,-1,993,792,0,0
-224,232,0,0,0,0,0,0,0,0,0,-1,1000,792,0,0
-217,232,0,0,0,0,0,0,0,0,0,-1,1007,792,0,0
-210,232,0,0,0,0,0,0,0,0,0,-1,1014,792,0,0
-203,232,0,0,0,0,0,0,0,0,0,-1,1021,792,0,0
-196,232,0,0,0,0,0,0,0,0,0,-1,1028,792,0,0
-189,232,0,0,0,0,0,0,0,0,0,-1,1035,792,0,0
-182,232,0,0,0,0,0,0,0,0,0,-1,1042,792,0,0
-175,232,0,0,0,0,0,0,0,0,0,-1,1049,792,0,0
-168,232,0,0,0,0,0,0,0,0,0,-1,1056,792,0,0
-161,232,0,0,0,0,0,0,0,0,0,-1,1063,792,0,0
-154,232,0,0,0,0,0,0,0,0,0,-1,1070,792,0,0
-147,232,0,0,0,0,0,0,0,0,0,-1,1077,792,0,0
-140,232,0,0,0,0,0,0,0,0,0,-1,1084,792,0,0
-133,232,0,0,0,0,0,0,0,0,0,-1,1091,792,0,0
-126,232,0,0,0,0,0,0,0,0,0,-1,1098,792,0,0
-119,232,0,0,0,0,0,0,0,0,0,-1,1105,792,0,0
-112,232,0,0,0,0,0,0,0,0,0,-1,1112,792,0,0
-105,232,0,0,0,0,0,0,0,0,0,-1,1119,792,0,0
-98,232,0,0,0,0,0,0,0,0,0,-1,1126,792,0,0
-91,232,0,0,0,0,0,0,0,0,0,-1,1133,792,0,0
-84,232,0,0,0,0,0,0,0,0,0,-1,1140,792,0,0
-77,232,0,0,0,0,0,0,0,0,0,-1,1147,792,0,0
-70,232,0,0,0,0,0,0,0,0,0,-1,1154,792,0,0
-63,232,0,0,0,0,0,0,0,0,0,-1,1161,792,0,0
-56,232,0,0,0,0,0,0,0,0,0,-1,1168,792,0,0
-49,232,0,0,0,0,0,0,0,0,0,-1,1175,792,0,0
-42,232,0,0,0,0,0,0,0,0,0,-1,1182,792,0,0
-35,232,0,0,0,0,0,0,0,0,0,-1,1189,792,0,0
-28,232,0,0,0,0,0,0,0,0,0,-1,1196,792,0,0
-21,232,0,0,0,0,0,0,0,0,0,-1,1203,792,0,0
-14,232,0,0,0,0,0,0,0,0,0,-1,1210,792,0,0
-7,232,0,0,0,0,0,0,0,0,0,-1,1217,792,0,0
0,232,0,0,0,0,0,0,0,0,0,-1,1224,792,0,0
7,232,0,0,0,0,0,0,0,0,0,-1,1231,792,0,0
14,232,0,0,0,0,0,0,0,0,0,-1,1238,792,0,0
21,232,0,0,0,0,0,0,0,0,0,-1,1245,792,0,0
28,232,0,0,0,0,0,0,0,0,0,-1,1252,792,0,0
35,232,0,0,0,0,0,0,0,0,0,-1,1259,792,0,0
42,232,0,0,0,0,0,0,0,0,0,-1,1266,792,0,0
49,232,0,0,0,0,0,0,0,0,0,-1,1273,792,0,0
56,232,0,0,0,0,0,0,0,0,0,-1,1280,792,0,0
63,232,0,0,0,0,0,0,0,0,0,-1,1287,792,0,0
70,232,0,0,0,0,0,0,0,0,0,-1,1294,792,0,0
77,232,0,0,0,0,0,0,0,0,0,-1,1301,792,0,0
84,232,0,0,0,0,0,0,0,0,0,-1,1308,792,0,0
91,232,0,0,0,0,0,0,0,0,0,-1,1315,792,0,0
98,232,0,0,0,0,0,0,0,0,0,-1,1322,792,0,0
105,232,0,0,0,0,0,0,0,0,0,-1,1329,792,0,0
112,232,0,0,0,0,0,0,0,0,0,-1,1336,792,0,0
119,232,0,0,0,0,0,0,0,0,0,-1,1343,792,0,0
126,232,0,0,0,0,0,0,0,0,0,-1,1350,792,0,0
133,232,0,0,0,0,0,0,0,0,0,-1,1357,792,0,0
140,232,0,0,0,0,0,0,0,0,0,-1,1364,792,0,0
147,232,0,0,0,0,0,0,0,0,0,-1,1371,792,0,0
154,232,0,0,0,0,0,0,0,0,0,-1,1378,792,0,0
161,232,0,0,0,0,0,0,0,0,0,-1,1385,792,0,0
168,232,0,0,0,0,0,0,0,0,0,-1,1392,792,0,0
175,232,0,0,0,0,0,0,0,0,0,-1,1399,792,0,0
182,232,0,0,0,0,0,0,0,0,0,-1,1406,792,0,0
189,232,0,0,0,0,0,0,0,0,0,-1,1413,792,0,0
196,232,0,0,0,0,0,0,0,0,0,-1,1420,792,0,0
203,232,0,0,0,0,0,0,0,0,0,-1,1427,792,0,0
210,232,0,0,0,0,0,0,0,0,0,-1,1434,792,0,0
217,232,0,0,0,0,0,0,0,0,0,-1,1441,792,0,0
224,232,0,0,0,0,0,0,0,0,0,-1,1448,792,0,0
231,232,0,0,0,0,0,0,0,0,0,-1,1455,792,0,0
238,232,0,0,0,0,0,0,0,0,0,-1,1462,792,0,0
245,232,0,0,0,0,0,0,0,0,0,-1,1469,792,0,0
252,232,0,0,0,0,0,0,0,0,0,-1,1476,792,0,0
259,232,0,0,0,0,0,0,0,0,0,-1,1483,792,0,0
266,232,0,0,0,0,0,0,0,0,0,-1,1490,792,0,0
273,232,0,0,0,0,0,0,0,0,0,-1,1497,792,0,0
280,232,0,0,0,0,0,0,0,0,0,-1,1504,792,0,0
287,232,0,0,0,0,0,0,0,0,0,-1,1511,792,0,0
294,232,0,0,0,0,0,0,0,0,0,-1,1518,792,0,0
301,232,0,0,0,0,0,0,0,0,0,-1,1525,792,0,0
308,232,0,0,0,0,0,0,0,0,0,-1,1532,792,0,0
315,232,0,0,0,0,0,0,0,0,0,-1,1539,792,0,0
322,232,0,0,0,0,0,0,0,0,0,-1,1546,792,0,0
329,232,0,0,0,0,0,0,0,0,0,-1,1553,792,0,0
336,232,0,0,0,0,0,0,0,0,0,-1,1560,792,0,0
343,232,0,0,0,0,0,0,0,0,0,-1,1567,792,0,0
350,232,0,0,0,0,0,0,0,0,0,-1,1574,792,0,0
357,232,0,0,0,0,0,0,0,0,0,-1,1581,792,0,0
364,232,0,0,0,0,0,0,0,0,0,-1,1588,792,0,0
371,232,0,0,0,0,0,0,0,0,0,-1,1595,792,0,0
378,232,0,0,0,0,0,0,0,0,0,-1,1602,792,0,0
385,232,0,0,0,0,0,0,0,0,0,-1,1609,792,0,0
392,232,0,0,0,0,0,0,0,0,0,-1,1616,792,0,0
399,232,0,0,0,0,0,0,0,0,0,-1,1623,792,0,0
406,232,0,0,0,0,0,0,0,0,0,-1,1630,792,0,0
413,232,0,0,0,0,0,0,0,0,0,-1,1637,792,0,0
420,232,0,0,0,0,0,0,0,0,0,-1,1644,792,0,0
427,232,0,0,0,0,0,0,0,0,0,-1,1651,792,0,0
434,232,0,0,0,0,0,0,0,0,0,-1,1658,792,0,0
441,232,0,0,0,0,0,0,0,0,0,-1,1665,792,0,0
448,232,0,0,0,0,0,0,0,0,0,-1,1672,792,0,0
455,232,0,0,0,0,0,0,0,0,0,-1,1679,792,0,0
462,232,0,0,0,0,0,0,0,0,0,-1,1686,792,0,0
469,232,0,0,0,0,0,0,0,0,0,-1,1693,792,0,0
476,232,0,0,0,0,0,0,0,0,0,-1,1700,792,0,0
483,232,0,0,0,0,0,0,0,0,0,-1,1707,792,0,0
490,232,0,0,0,0,0,0,0,0,0,-1,1714,792,0,0
497,232,0,0,0,0,0,0,0,0,0,-1,1721,792,0,0
504,232,0,0,0,0,0,0,0,0,0,-1,1728,792,0,0
511,232,0,0,0,0,0,0,0,0,0,-1,1735,792,0,0
518,232,0,0,0,0,0,0,0,0,0,-1,1742,792,0,0
525,232,0,0,0,0,0,0,0,0,0,-1,1749,792,0,0
532,232,0,0,0,0,0,0,0,0,0,-1,1756,792,0,0
539,232,0,0,0,0,0,0,0,0,0,-1,1763,792,0,0
546,232,0,0,0,0,0,0,0,0,0,-1,1770,792,0,0
553,232,0,0,0,0,0,0,0,0,0,-1,1777,792,0,0
560,232,0,0,0,0,0,0,0,0,0,-1,1784,792,0,0
567,232,0,0,0,0,0,0,0,0,0,-1,1791,792,0,0
574,232,0,0,0,0,0,0,0,0,0,-1,1798,792,0,0
581,232,0,0,0,0,0,0,0,0,0,-1,1805,792,0,0
588,232,40.8251,2.84369,-0.000677589,0.00701709,-0.000328049,0.00703105,-0.000691549,-1.52827,0.00493406,0.0365481,1812,792,40.8251,-2.84368
595,232,40.8715,2.74353,0.000438293,0.00811422,-0.00108531,0.00826472,0.00028779,-1.433,0.00541643,0.0364293,1819,792,40.8715,-2.74355
602,232,40.9124,2.6795,0.000831139,0.00775163,-0.00146204,0.00804782,0.000534941,-1.37091,0.00519609,0.0344265,1826,792,40.9123,-2.67951
609,232,41,2.71246,0.00102962,0.00648177,-0.00151505,0.00687449,0.000636902,-1.31717,0.00438613,0.0396724,1833,792,40.9999,-2.71248
616,232,40.7133,3.02399,0.000902681,0.0048778,-0.0014946,0.00537705,0.000403433,-1.24841,0.00345807,0.0476733,1840,792,40.7132,-3.02399
623,232,40.6592,3.14276,0.00067,0.00330411,-0.00147184,0.00396214,1.19749e-05,-1.15038,0.00263744,0.0443793,1847,792,40.6592,-3.14277
630,232,40.7974,3.08698,0,0,0,0,0,0,0,-1,1854,792,40.7974,-3.08698
637,232,41.6213,2.53662,0,0,0,0,0,0,0,-1,1861,792,41.6214,-2.53661
644,232,30.7756,4.24139,0,0,0,0,0,0,0,-1,1868,792,30.7757,-4.24141
651,232,29.6327,-0.487793,0,0,0,0,0,0,0,-1,1875,792,29.6327,0.487815
658,232,29.4862,-0.207275,-0.000768112,-0.00126186,-0.0015194,0.000524344,-0.00255432,-0.704862,0.00190191,0.0441662,1882,792,29.4862,0.207259
665,232,29.3678,0.157349,-0.000698591,-0.00148136,-0.00169408,0.000648725,-0.00282868,-0.671874,0.00213513,0.0164853,1889,792,29.3678,-0.157348
672,232,29.2822,0.614624,-0.000787448,-0.00163965,-0.0015351,0.000379591,-0.00280669,-0.65002,0.00200964,0.0193534,1896,792,29.2822,-0.614614
679,232,29.3055,1.1095,-0.000940719,-0.00171945,-0.0012745,2.56067e-06,-0.00266273,-0.637148,0.00177601,0.0186357,1903,792,29.3055,-1.10948
686,232,29.3088,1.60645,-0.000663104,-0.00114976,-0.000968448,9.21186e-05,-0.00190498,-0.662319,0.00130178,0.0184558,1910,792,29.3089,-1.60647
693,232,29.3013,2.03943,5.60626e-05,-0.0001463,-0.000440263,0.000406621,-0.000496858,-0.672449,0.000522491,0.0108704,1917,792,29.3013,-2.03946
700,232,29.2976,2.51526,0.00112779,0.000696641,0.000307607,0.00128784,0.000536591,0.479761,0.000746972,0.0124502,1924,792,29.2976,-2.51528
707,232,29.2729,3.00092,0.00221241,0.0015519,0.00114452,0.00307337,0.000690943,0.644936,0.00186184,0.0128463,1931,792,29.2729,-3.00089
714,232,29.2688,3.4317,0.00347334,0.00238481,0.00214367,0.00514076,0.00071739,0.661078,0.00321484,0.0137275,1938,792,29.2688,-3.4317
721,232,29.2426,3.89368,0.00480802,0.00310819,0.00328013,0.00734656,0.000569658,0.658631,0.00471929,0.0231389,1945,792,29.2425,-3.89367
728,232,29.1801,4.36511,0.00627572,0.00369281,0.00463487,0.0097957,0.000172828,0.649525,0.00647363,0.0438711,1952,792,29.1801,-4.36509
735,232,29.3193,5.03363,0,0,0,0,0,0,0,-1,1959,792,29.3193,-5.03365
742,232,25.6461,6.00684,0,0,0,0,0,0,0,-1,1966,792,25.6461,-6.00684
749,232,31.2874,3.74713,0,0,0,0,0,0,0,-1,1973,792,31.2874,-3.74713
756,232,32.1207,3.896,0,0,0,0,0,0,0,-1,1980,792,32.1207,-3.89597
763,232,32.7255,4.05878,0,0,0,0,0,0,0,-1,1987,792,32.7255,-4.05881
770,232,0,0,0,0,0,0,0,0,0,-1,1994,792,0,0
777,232,0,0,0,0,0,0,0,0,0,-1,2001,792,0,0
784,232,0,0,0,0,0,0,0,0,0,-1,2008,792,0,0
791,232,0,0,0,0,0,0,0,0,0,-1,2015,792,0,0
798,232,0,0,0,0,0,0,0,0,0,-1,2022,792,0,0
805,232,0,0,0,0,0,0,0,0,0,-1,2029,792,0,0
812,232,0,0,0,0,0,0,0,0,0,-1,2036,792,0,0
-700,225,0,0,0,0,0,0,0,0,0,-1,524,799,0,0
-693,225,0,0,0,0,0,0,0,0,0,-1,531,799,0,0
-686,225,0,0,0,0,0,0,0,0,0,-1,538,799,0,0
-679,225,0,0,0,0,0,0,0,0,0,-1,545,799,0,0
-672,225,0,0,0,0,0,0,0,0,0,-1,552,799,0,0
-665,225,0,0,0,0,0,0,0,0,0,-1,559,799,0,0
-658,225,0,0,0,0,0,0,0,0,0,-1,566,799,0,0
-651,225,0,0,0,0,0,0,0,0,0,-1,573,799,0,0
-644,225,-22.4099,-0.204834,0,0,0,0,0,0,0,-1,580,799,-22.4099,0.20484
-637,225,-21.7047,-0.424072,0,0,0,0,0,0,0,-1,587,799,-21.7047,0.424052
-630,225,-22.612,4.17181,0,0,0,0,0,0,0,-1,594,799,-22.612,-4.17184
-623,225,-22.8936,3.12628,0,0,0,0,0,0,0,-1,601,799,-22.8936,-3.12629
-616,225,-22.8559,1.79041,0,0,0,0,0,0,0,-1,608,799,-22.8559,-1.79038
-609,225,-21.5065,2.90906,0,0,0,0,0,0,0,-1,615,799,-21.5065,-2.90906
-602,225,-21.0167,2.38257,0.0230909,0.0113357,-0.0114075,0.030046,0.00438062,-0.547518,0.0187419,0.0469786,622,799,-21.0167,-2.38254
-595,225,-20.3028,1.83856,0.0180041,0.00848423,-0.0087564,0.0232107,0.00327766,-0.536441,0.0145052,0.031958,629,799,-20.3028,-1.83857
-588,225,-20.2249,1.31653,0.013544,0.00611942,-0.00641401,0.0172426,0.00242088,-0.523063,0.0107791,0.0137761,636,799,-20.2249,-1.31656
-581,225,-20.2358,0.873901,0.00979805,0.00413032,-0.00443693,0.0122289,0.00169948,-0.501203,0.00764929,0.0109672,643,799,-20.2358,-0.873912
-574,225,-20.2457,0.430115,0.00661916,0.00250104,-0.00270065,0.00795616,0.00116404,-0.459693,0.00496182,0.00875925,650,799,-20.2457,-0.430113
-567,225,-20.2692,-0.0166626,0.00376189,0.00110777,-0.00122159,0.00423854,0.000631115,-0.37202,0.00264058,0.0114973,657,799,-20.2692,0.0166325
-560,225,-20.3063,-0.469604,0.00134783,0.000178744,-5.76793e-05,0.00135067,0.000175905,-0.0491779,0.000847915,0.0118219,664,799,-20.3063,0.469623
-553,225,-20.3192,-0.932739,-0.00059262,-2.47573e-05,0.000885214,0.000620946,-0.00123832,0.940589,0.001093,0.0110294,671,799,-20.3192,0.932711
-546,225,-20.3372,-1.38422,-0.00203355,0.000699004,0.00207608,0.00181805,-0.00315259,1.07642,0.00290408,0.0202136,678,799,-20.3372,1.38419
-539,225,-20.34,-1.81091,-0.00279625,0.00182781,0.0025358,0.00294736,-0.00391581,1.15503,0.00397558,0.0347399,685,799,-20.34,1.81091
-532,225,-20.3986,-2.20721,-0.00296516,0.00308608,0.00241794,0.00393354,-0.00381263,1.23368,0.00447244,0.0338534,692,799,-20.3986,2.20722
-525,225,-20.6412,-2.42999,0,0,0,0,0,0,0,-1,699,799,-20.6412,2.43
-518,225,-21.963,0.171326,0,0,0,0,0,0,0,-1,706,799,-21.9629,-0.171319
-511,225,-29.5098,0.683533,0,0,0,0,0,0,0,-1,713,799,-29.5098,-0.683528
-504,225,-30.6977,0.185425,0,0,0,0,0,0,0,-1,720,799,-30.6977,-0.185427
-497,225,-30.3683,0.518982,-0.00250658,0.00803435,0.00162583,0.00827942,-0.00275165,1.42119,0.00662998,0.0452068,727,799,-30.3683,-0.518957
-490,225,-30.2739,0.992615,-0.0019927,0.00849237,0.000992097,0.00858542,-0.00208575,1.47728,0.00653084,0.0371285,734,799,-30.274,-0.992635
-483,225,-30.2202,0.936768,-0.00123647,0.00815692,-2.68126e-05,0.008157,-0.00123655,-1.56794,0.00589358,0.031471,741,799,-30.2202,-0.936765
-476,225,-30.2244,0.874329,-8.8112e-05,0.00625455,-0.00165106,0.0066586,-0.000492162,-1.33079,0.00461188,0.0313453,748,799,-30.2244,-0.874332
-469,225,-30.2861,0.813354,0.000885203,0.00154286,-0.00377311,0.00500144,-0.00257338,-0.828864,0.00444758,0.0375446,755,799,-30.2861,-0.813384
-462,225,0,0,0,0,0,0,0,0,0,-1,762,799,0,0
-455,225,0,0,0,0,0,0,0,0,0,-1,769,799,0,0
-448,225,0,0,0,0,0,0,0,0,0,-1,776,799,0,0
-441,225,0,0,0,0,0,0,0,0,0,-1,783,799,0,0
-434,225,0,0,0,0,0,0,0,0,0,-1,790,799,0,0
-427,225,0,0,0,0,0,0,0,0,0,-1,797,799,0,0
-420,225,0,0,0,0,0,0,0,0,0,-1,804,799,0,0
-413,225,0,0,0,0,0,0,0,0,0,-1,811,799,0,0
-406,225,0,0,0,0,0,0,0,0,0,-1,818,799,0,0
-399,225,0,0,0,0,0,0,0,0,0,-1,825,799,0,0
-392,225,0,0,0,0,0,0,0,0,0,-1,832,799,0,0
-385,225,0,0,0,0,0,0,0,0,0,-1,839,799,0,0
-378,225,0,0,0,0,0,0,0,0,0,-1,846,799,0,0
-371,225,0,0,0,0,0,0,0,0,0,-1,853,799,0,0
-364,225,0,0,0,0,0,0,0,0,0,-1,860,799,0,0
-357,225,0,0,0,0,0,0,0,0,0,-1,867,799,0,0
-350,225,0,0,0,0,0,0,0,0,0,-1,874,799,0,0
-343,225,0,0,0,0,0,0,0,0,0,-1,881,799,0,0
-336,225,0,0,0,0,0,0,0,0,0,-1,888,799,0,0
-329,225,0,0,0,0,0,0,0,0,0,-1,895,799,0,0
-322,225,0,0,0,0,0,0,0,0,0,-1,902,799,0,0
-315,225,0,0,0,0,0,0,0,0,0,-1,909,799,0,0
-308,225,0,0,0,0,0,0,0,0,0,-1,916,799,0,0
-301,225,0,0,0,0,0,0,0,0,0,-1,923,799,0,0
-294,225,0,0,0,0,0,0,0,0,0,-1,930,799,0,0
-287,225,0,0,0,0,0,0,0,0,0,-1,937,799,0,0
-280,225,0,0,0,0,0,0,0,0,0,-1,944,799,0,0
-273,225,0,0,0,0,0,0,0,0,0,-1,951,799,0,0
-266,225,0,0,0,0,0,0,0,0,0,-1,958,799,0,0
-259,225,0,0,0,0,0,0,0,0,0,-1,965,799,0,0
-252,225,0,0,0,0,0,0,0,0,0,-1,972,799,0,0
-245,225,0,0,0,0,0,0,0,0,0,-1,979,799,0,0
-238,225,0,0,0,0,0,0,0,0,0,-1,986,799,0,0
-231,225,0,0,0,0,0,0,0,0,0,-1,993,799,0,0
-224,225,0,0,0,0,0,0,0,0,0,-1,1000,799,0,0
-217,225,0,0,0,0,0,0,0,0,0,-1,1007,799,0,0
-210,225,0,0,0,0,0,0,0,0,0,-1,1014,799,0,0
-203,225,0,0,0,0,0,0,0,0,0,-1,1021,799,0,0
-196,225,0,0,0,0,0,0,0,0,0,-1,1028,799,0,0
-189,225,0,0,0,0,0,0,0,0,0,-1,1035,799,0,0
-182,225,0,0,0,0,0,0,0,0,0,-1,1042,799,0,0
-175,225,0,0,0,0,0,0,0,0,0,-1,1049,799,0,0
-168,225,0,0,0,0,0,0,0,0,0,-1,1056,799,0,0
-161,225,0,0,0,0,0,0,0,0,0,-1,1063,799,0,0
-154,225,0,0,0,0,0,0,0,0,0,-1,1070,799,0,0
-147,225,0,0,0,0,0,0,0,0,0,-1,1077,799,0,0
-140,225,0,0,0,0,0,0,0,0,0,-1,1084,799,0,0
-133,225,0,0,0,0,0,0,0,0,0,-1,1091,799,0,0
-126,225,0,0,0,0,0,0,0,0,0,-1,1098,799,0,0
-119,225,0,0,0,0,0,0,0,0,0,-1,1105,799,0,0
-112,225,0,0,0,0,0,0,0,0,0,-1,1112,799,0,0
-105,225,0,0,0,0,0,0,0,0,0,-1,1119,799,0,0
-98,225,0,0,0,0,0,0,0,0,0,-1,1126,799,0,0
-91,225,0,0,0,0,0,0,0,0,0,-1,1133,799,0,0
-84,225,0,0,0,0,0,0,0,0,0,-1,1140,799,0,0
-77,225,0,0,0,0,0,0,0,0,0,-1,1147,799,0,0
-70,225,0,0,0,0,0,0,0,0,0,-1,1154,799,0,0
-63,225,0,0,0,0,0,0,0,0,0,-1,1161,799,0,0
-56,225,0,0,0,0,0,0,0,0,0,-1,1168,799,0,0
-49,225,0,0,0,0,0,0,0,0,0,-1,1175,799,0,0
-42,225,0,0,0,0,0,0,0,0,0,-1,1182,799,0,0
-35,225,0,0,0,0,0,0,0,0,0,-1,1189,799,0,0
-28,225,0,0,0,0,0,0,0,0,0,-1,1196,799,0,0
-21,225,0,0,0,0,0,0,0,0,0,-1,1203,799,0,0
-14,225,0,0,0,0,0,0,0,0,0,-1,1210,799,0,0
-7,225,0,0,0,0,0,0,0,0,0,-1,1217,799,0,0
0,225,0,0,0,0,0,0,0,0,0,-1,1224,799,0,0
7,225,0,0,0,0,0,0,0,0,0,-1,1231,799,0,0
14,225,0,0,0,0,0,0,0,0,0,-1,1238,799,0,0
21,225,0,0,0,0,0,0,0,0,0,-1,1245,799,0,0
28,225,0,0,0,0,0,0,0,0,0,-1,1252,799,0,0
35,225,0,0,0,0,0,0,0,0,0,-1,1259,799,0,0
42,225,0,0,0,0,0,0,0,0,0,-1,1266,799,0,0
49,225,0,0,0,0,0,0,0,0,0,-1,1273,799,0,0
56,225,0,0,0,0,0,0,0,0,0,-1,1280,799,0,0
63,225,0,0,0,0,0,0,0,0,0,-1,1287,799,0,0
70,225,0,0,0,0,0,0,0,0,0,-1,1294,799,0,0
77,225,0,0,0,0,0,0,0,0,0,-1,1301,799,0,0
84,225,0,0,0,0,0,0,0,0,0,-1,1308,799,0,0
91,225,0,0,0,0,0,0,0,0,0,-1,1315,799,0,0
98,225,0,0,0,0,0,0,0,0,0,-1,1322,799,0,0
105,225,0,0,0,0,0,0,0,0,0,-1,1329,799,0,0
112,225,0,0,0,0,0,0,0,0,0,-1,1336,799,0,0
119,225,0,0,0,0,0,0,0,0,0,-1,1343,799,0,0
126,225,0,0,0,0,0,0,0,0,0,-1,1350,799,0,0
133,225,0,0,0,0,0,0,0,0,0,-1,1357,799,0,0
140,225,0,0,0,0,0,0,0,0,0,-1,1364,799,0,0
147,225,0,0,0,0,0,0,0,0,0,-1,1371,799,0,0
154,225,0,0,0,0,0,0,0,0,0,-1,1378,799,0,0
161,225,0,0,0,0,0,0,0,0,0,-1,1385,799,0,0
168,225,0,0,0,0,0,0,0,0,0,-1,1392,799,0,0
175,225,0,0,0,0,0,0,0,0,0,-1,1399,799,0,0
182,225,0,0,0,0,0,0,0,0,0,-1,1406,799,0,0
189,225,0,0,0,0,0,0,0,0,0,-1,1413,799,0,0
196,225,0,0,0,0,0,0,0,0,0,-1,1420,799,0,0
203,225,0,0,0,0,0,0,0,0,0,-1,1427,799,0,0
210,225,0,0,0,0,0,0,0,0,0,-1,1434,799,0,0
217,225,0,0,0,0,0,0,0,0,0,-1,1441,799,0,0
224,225,0,0,0,0,0,0,0,0,0,-1,1448,799,0,0
231,225,0,0,0,0,0,0,0,0,0,-1,1455,799,0,0
238,225,0,0,0,0,0,0,0,0,0,-1,1462,799,0,0
245,225,0,0,0,0,0,0,0,0,0,-1,1469,799,0,0
252,225,0,0,0,0,0,0,0,0,0,-1,1476,799,0,0
259,225,0,0,0,0,0,0,0,0,0,-1,1483,799,0,0
266,225,0,0,0,0,0,0,0,0,0,-1,1490,799,0,0
273,225,0,0,0,0,0,0,0,0,0,-1,1497,799,0,0
280,225,0,0,0,0,0,0,0,0,0,-1,1504,799,0,0
287,225,0,0,0,0,0,0,0,0,0,-1,1511,799,0,0
294,225,0,0,0,0,0,0,0,0,0,-1,1518,799,0,0
301,225,0,0,0,0,0,0,0,0,0,-1,1525,799,0,0
308,225,0,0,0,0,0,0,0,0,0,-1,1532,799,0,0
315,225,0,0,0,0,0,0,0,0,0,-1,1539,799,0,0
322,225,0,0,0,0,0,0,0,0,0,-1,1546,799,0,0
329,225,0,0,0,0,0,0,0,0,0,-1,1553,799,0,0
336,225,0,0,0,0,0,0,0,0,0,-1,1560,799,0,0
343,225,0,0,0,0,0,0,0,0,0,-1,1567,799,0,0
350,225,0,0,0,0,0,0,0,0,0,-1,1574,799,0,0
357,225,0,0,0,0,0,0,0,0,0,-1,1581,799,0,0
364,225,0,0,0,0,0,0,0,0,0,-1,1588,799,0,0
371,225,0,0,0,0,0,0,0,0,0,-1,1595,799,0,0
378,225,0,0,0,0,0,0,0,0,0,-1,1602,799,0,0
385,225,0,0,0,0,0,0,0,0,0,-1,1609,799,0,0
392,225,0,0,0,0,0,0,0,0,0,-1,1616,799,0,0
399,225,0,0,0,0,0,0,0,0,0,-1,1623,799,0,0
406,225,0,0,0,0,0,0,0,0,0,-1,1630,799,0,0
413,225,0,0,0,0,0,0,0,0,0,-1,1637,799,0,0
420,225,0,0,0,0,0,0,0,0,0,-1,1644,799,0,0
427,225,0,0,0,0,0,0,0,0,0,-1,1651,799,0,0
434,225,0,0,0,0,0,0,0,0,0,-1,1658,799,0,0
441,225,0,0,0,0,0,0,0,0,0,-1,1665,799,0,0
448,225,0,0,0,0,0,0,0,0,0,-1,1672,799,0,0
455,225,0,0,0,0,0,0,0,0,0,-1,1679,799,0,0
462,225,0,0,0,0,0,0,0,0,0,-1,1686,799,0,0
469,225,0,0,0,0,0,0,0,0,0,-1,1693,799,0,0
476,225,0,0,0,0,0,0,0,0,0,-1,1700,799,0,0
483,225,0,0,0,0,0,0,0,0,0,-1,1707,799,0,0
490,225,0,0,0,0,0,0,0,0,0,-1,1714,799,0,0
497,225,0,0,0,0,0,0,0,0,0,-1,1721,799,0,0
504,225,0,0,0,0,0,0,0,0,0,-1,1728,799,0,0
511,225,0,0,0,0,0,0,0,0,0,-1,1735,799,0,0
518,225,0,0,0,0,0,0,0,0,0,-1,1742,799,0,0
525,225,0,0,0,0,0,0,0,0,0,-1,1749,799,0,0
532,225,0,0,0,0,0,0,0,0,0,-1,1756,799,0,0
539,225,0,0,0,0,0,0,0,0,0,-1,1763,799,0,0
546,225,0,0,0,0,0,0,0,0,0,-1,1770,799,0,0
553,225,0,0,0,0,0,0,0,0,0,-1,1777,799,0,0
560,225,0,0,0,0,0,0,0,0,0,-1,1784,799,0,0
567,225,0,0,0,0,0,0,0,0,0,-1,1791,799,0,0
574,225,0,0,0,0,0,0,0,0,0,-1,1798,799,0,0
581,225,0,0,0,0,0,0,0,0,0,-1,1805,799,0,0
588,225,40.8528,2.82031,-0.000497532,0.00395802,9.77193e-05,0.00396016,-0.000499675,1.54888,0.00282146,0.034505,1812,799,40.8527,-2.82029
595,225,40.8606,2.77057,0.000616253,0.00551929,-0.000434211,0.00555744,0.000578096,-1.48315,0.00352809,0.0333647,1819,799,40.8606,-2.77059
602,225,40.8972,2.66565,0.000831039,0.00577803,-0.000897173,0.00593571,0.000673356,-1.39682,0.00375288,0.0316499,1826,799,40.8972,-2.66565
609,225,40.9703,2.72595,0.000932199,0.00511359,-0.00107287,0.0053728,0.000672989,-1.33373,0.00337995,0.0319413,1833,799,40.9703,-2.72594
616,225,40.8711,2.78931,0.000757304,0.00386238,-0.00121019,0.00427833,0.000341354,-1.23974,0.00274552,0.0384576,1840,799,40.8711,-2.78933
623,225,40.8707,2.85925,0.000449089,0.00248088,-0.00133936,0.00314604,-0.000216069,-1.10985,0.00217296,0.0384991,1847,799,40.8707,-2.85924
630,225,41.1896,2.83374,0.000259495,0.00128366,-0.00144768,0.00230716,-0.000764003,-0.955393,0.00184624,0.0393117,1854,799,41.1895,-2.83374
637,225,41.3375,2.29724,-1.9645e-06,0.000365381,-0.00146677,0.00165994,-0.00129652,-0.847685,0.0017112,0.0417224,1861,799,41.3375,-2.29723
644,225,41.416,1.67731,0,0,0,0,0,0,0,-1,1868,799,41.416,-1.67729
651,225,27.9657,0.579529,0,0,0,0,0,0,0,-1,1875,799,27.9657,-0.579541
658,225,30.2307,-0.0813599,0,0,0,0,0,0,0,-1,1882,799,30.2307,0.0813648
665,225,29.9865,0.275269,-0.00110608,-0.00162717,-0.00184574,0.000497414,-0.00323067,-0.715282,0.00233729,0.021345,1889,799,29.9865,-0.27527
672,225,29.8105,0.673218,-0.00128117,-0.00178286,-0.00170304,0.000189392,-0.00325343,-0.712278,0.00223476,0.0201008,1896,799,29.8105,-0.673222
679,225,29.7903,1.16724,-0.00152976,-0.00194141,-0.00152106,-0.000200661,-0.00327051,-0.718148,0.00211663,0.0179901,1903,799,29.7903,-1.16726
686,225,29.7814,1.60052,-0.00129069,-0.0015048,-0.00132404,-6.93802e-05,-0.00272611,-0.74506,0.00179473,0.0114918,1910,799,29.7814,-1.6005
693,225,29.7715,2.04456,-0.000616919,-0.000562259,-0.000884186,0.000295019,-0.0014742,-0.800848,0.00109447,0.0106371,1917,799,29.7715,-2.04458
700,225,29.7576,2.52325,0.000496207,0.000237719,-0.000201204,0.000606101,0.000127825,-0.499907,0.000368916,0.0112072,1924,799,29.7576,-2.52326
707,225,29.7178,3.00452,0.00174323,0.000991512,0.000582915,0.00206096,0.000673788,0.499044,0.00121342,0.0113312,1931,799,29.7177,-3.00451
714,225,29.7184,3.45862,0.00316671,0.00179752,0.00152221,0.00415119,0.000813052,0.57408,0.00254019,0.0129315,1938,799,29.7184,-3.45859
721,225,29.7543,3.91644,0.00477935,0.00247292,0.00256067,0.00643451,0.000817766,0.573823,0.00404474,0.0165186,1945,799,29.7542,-3.91641
728,225,29.6843,4.26666,0.0066542,0.00299332,0.00375356,0.00899986,0.00064767,0.558537,0.00579609,0.0322677,1952,799,29.6843,-4.26666
735,225,29.7922,4.75055,0,0,0,0,0,0,0,-1,1959,799,29.7922,-4.75056
742,225,29.0922,3.2132,0,0,0,0,0,0,0,-1,1966,799,29.0921,-3.21322
749,225,29.9529,4.45538,0,0,0,0,0,0,0,-1,1973,799,29.9529,-4.45537
756,225,31.8855,3.83466,0,0,0,0,0,0,0,-1,1980,799,31.8855,-3.83463
763,225,28.3649,5.54443,0,0,0,0,0,0,0,-1,1987,799,28.3649,-5.54444
770,225,0,0,0,0,0,0,0,0,0,-1,1994,799,0,0
777,225,0,0,0,0,0,0,0,0,0,-1,2001,799,0,0
784,225,0,0,0,0,0,0,0,0,0,-1,2008,799,0,0
791,225,0,0,0,0,0,0,0,0,0,-1,2015,799,0,0
798,225,0,0,0,0,0,0,0,0,0,-1,2022,799,0,0
805,225,0,0,0,0,0,0,0,0,0,-1,2029,799,0,0
812,225,0,0,0,0,0,0,0,0,0,-1,2036,799,0,0
-700,218,0,0,0,0,0,0,0,0,0,-1,524,806,0,0
-693,218,0,0,0,0,0,0,0,0,0,-1,531,806,0,0
-686,218,0,0,0,0,0,0,0,0,0,-1,538,806,0,0
-679,218,0,0,0,0,0,0,0,0,0,-1,545,806,0,0
-672,218,0,0,0,0,0,0,0,0,0,-1,552,806,0,0
-665,218,0,0,0,0,0,0,0,0,0,-1,559,806,0,0
-658,218,0,0,0,0,0,0,0,0,0,-1,566,806,0,0
-651,218,-25.4737,8.13727,0,0,0,0,0,0,0,-1,573,806,-25.4737,-8.13727
-644,218,-25.2296,9.31128,0,0,0,0,0,0,0,-1,580,806,-25.2296,-9.31126
-637,218,-22.6491,0.477722,0,0,0,0,0,0,0,-1,587,806,-22.6491,-0.477715
-630,218,-21.6902,4.28424,0,0,0,0,0,0,0,-1,594,806,-21.6903,-4.28424
-623,218,-22.0089,3.22638,0,0,0,0,0,0,0,-1,601,806,-22.0089,-3.2264
-616,218,-20.0258,1.87585,0,0,0,0,0,0,0,-1,608,806,-20.0258,-1.87585
-609,218,-20.9658,2.67096,0,0,0,0,0,0,0,-1,615,806,-20.9658,-2.67099
-602,218,-20.8484,2.21124,0.0171244,0.00990221,-0.00845072,0.0227032,0.00432339,-0.583483,0.01392,0.0385082,622,806,-20.8484,-2.21127
-595,218,-20.707,1.74261,0.013538,0.00741219,-0.00655818,0.0177132,0.0032369,-0.566935,0.0108914,0.0181875,629,806,-20.707,-1.74264
-588,218,-20.6726,1.30963,0.0102713,0.00529063,-0.00478556,0.0131757,0.00238621,-0.545487,0.00810633,0.0123624,636,806,-20.6726,-1.30964
-581,218,-20.6779,0.889038,0.00737075,0.00346324,-0.00320419,0.00916986,0.00166414,-0.511619,0.00564095,0.0114029,643,806,-20.6779,-0.889046
-574,218,-20.7056,0.44397,0.00487434,0.00197971,-0.00176752,0.00571151,0.00114255,-0.442336,0.00348973,0.0102155,650,806,-20.7056,-0.443941
-567,218,-20.7189,-0.012085,0.00257899,0.00082832,-0.000535194,0.00272964,0.00067767,-0.274386,0.00164119,0.0169254,657,806,-20.7189,0.0120904
-560,218,-20.7609,-0.436096,0.000636339,0.000157359,0.000338989,0.000811902,-1.82044e-05,0.477866,0.000547437,0.0177653,664,806,-20.7609,0.436125
-553,218,-20.7504,-0.929138,-0.000923639,0.000266116,0.000996323,0.000831642,-0.00148917,1.05453,0.00135773,0.0174375,671,806,-20.7504,0.929136
-546,218,-20.7924,-1.48138,-0.00208475,0.00122349,0.00195582,0.00213088,-0.00299214,1.13641,0.00297168,0.019397,678,806,-20.7924,1.48141
-539,218,-20.8106,-1.93604,-0.00273086,0.00242316,0.00227334,0.00328259,-0.00359029,1.20936,0.00396938,0.03004,685,806,-20.8106,1.93601
-532,218,-20.8181,-2.16364,-0.00292558,0.00371106,0.00212968,0.00433568,-0.0035502,1.2855,0.00456044,0.0372724,692,806,-20.818,2.16362
-525,218,-20.9943,-2.29926,0,0,0,0,0,0,0,-1,699,806,-20.9943,2.29926
-518,218,-23.61,2.54181,0,0,0,0,0,0,0,-1,706,806,-23.61,-2.54183
-511,218,-29.825,1.11273,0,0,0,0,0,0,0,-1,713,806,-29.825,-1.11274
-504,218,-30.7054,-0.436707,0,0,0,0,0,0,0,-1,720,806,-30.7054,0.436687
-497,218,-29.8696,1.19128,0,0,0,0,0,0,0,-1,727,806,-29.8696,-1.1913
-490,218,-30.0374,1.0257,-0.00204763,0.0095469,4.9386e-05,0.00954711,-0.00204784,1.56654,0.00714584,0.034862,734,806,-30.0374,-1.02571
-483,218,-30.1622,0.929138,-0.00116728,0.00895489,-0.00139543,0.00914374,-0.00135613,-1.43628,0.00659451,0.0315717,741,806,-30.1623,-0.929137
-476,218,-30.1308,0.893188,8.96807e-05,0.00621279,-0.00363892,0.00790674,-0.00160427,-1.13512,0.00587934,0.0359816,748,806,-30.1308,-0.893168
-469,218,0,0,0,0,0,0,0,0,0,-1,755,806,0,0
-462,218,0,0,0,0,0,0,0,0,0,-1,762,806,0,0
-455,218,0,0,0,0,0,0,0,0,0,-1,769,806,0,0
-448,218,0,0,0,0,0,0,0,0,0,-1,776,806,0,0
-441,218,0,0,0,0,0,0,0,0,0,-1,783,806,0,0
-434,218,0,0,0,0,0,0,0,0,0,-1,790,806,0,0
-427,218,0,0,0,0,0,0,0,0,0,-1,797,806,0,0
-420,218,0,0,0,0,0,0,0,0,0,-1,804,806,0,0
-413,218,0,0,0,0,0,0,0,0,0,-1,811,806,0,0
-406,218,0,0,0,0,0,0,0,0,0,-1,818,806,0,0
-399,218,0,0,0,0,0,0,0,0,0,-1,825,806,0,0
-392,218,0,0,0,0,0,0,0,0,0,-1,832,806,0,0
-385,218,0,0,0,0,0,0,0,0,0,-1,839,806,0,0
-378,218,0,0,0,0,0,0,0,0,0,-1,846,806,0,0
-371,218,0,0,0,0,0,0,0,0,0,-1,853,806,0,0
-364,218,0,0,0,0,0,0,0,0,0,-1,860,806,0,0
-357,218,0,0,0,0,0,0,0,0,0,-1,867,806,0,0
-350,218,0,0,0,0,0,0,0,0,0,-1,874,806,0,0
-343,218,0,0,0,0,0,0,0,0,0,-1,881,806,0,0
-336,218,0,0,0,0,0,0,0,0,0,-1,888,806,0,0
-329,218,0,0,0,0,0,0,0,0,0,-1,895,806,0,0
-322,218,0,0,0,0,0,0,0,0,0,-1,902,806,0,0
-315,218,0,0,0,0,0,0,0,0,0,-1,909,806,0,0
-308,218,0,0,0,0,0,0,0,0,0,-1,916,806,0,0
-301,218,0,0,0,0,0,0,0,0,0,-1,923,806,0,0
-294,218,0,0,0,0,0,0,0,0,0,-1,930,806,0,0
-287,218,0,0,0,0,0,0,0,0,0,-1,937,806,0,0
-280,218,0,0,0,0,0,0,0,0,0,-1,944,806,0,0
-273,218,0,0,0,0,0,0,0,0,0,-1,951,806,0,0
-266,218,0,0,0,0,0,0,0,0,0,-1,958,806,0,0
-259,218,0,0,0,0,0,0,0,0,0,-1,965,806,0,0
-252,218,0,0,0,0,0,0,0,0,0,-1,972,806,0,0
-245,218,0,0,0,0,0,0,0,0,0,-1,979,806,0,0
-238,218,0,0,0,0,0,0,0,0,0,-1,986,806,0,0
-231,218,0,0,0,0,0,0,0,0,0,-1,993,806,0,0
-224,218,0,0,0,0,0,0,0,0,0,-1,1000,806,0,0
-217,218,0,0,0,0,0,0,0,0,0,-1,1007,806,0,0
-210,218,0,0,0,0,0,0,0,0,0,-1,1014,806,0,0
-203,218,0,0,0,0,0,0,0,0,0,-1,1021,806,0,0
-196,218,0,0,0,0,0,0,0,0,0,-1,1028,806,0,0
-189,218,0,0,0,0,0,0,0,0,0,-1,1035,806,0,0
-182,218,0,0,0,0,0,0,0,0,0,-1,1042,806,0,0
-175,218,0,0,0,0,0,0,0,0,0,-1,1049,806,0,0
-168,218,0,0,0,0,0,0,0,0,0,-1,1056,806,0,0
-161,218,0,0,0,0,0,0,0,0,0,-1,1063,806,0,0
-154,218,0,0,0,0,0,0,0,0,0,-1,1070,806,0,0
-147,218,0,0,0,0,0,0,0,0,0,-1,1077,806,0,0
-140,218,0,0,0,0,0,0,0,0,0,-1,1084,806,0,0
-133,218,0,0,0,0,0,0,0,0,0,-1,1091,806,0,0
-126,218,0,0,0,0,0,0,0,0,0,-1,1098,806,0,0
-119,218,0,0,0,0,0,0,0,0,0,-1,1105,806,0,0
-112,218,0,0,0,0,0,0,0,0,0,-1,1112,806,0,0
-105,218,0,0,0,0,0,0,0,0,0,-1,1119,806,0,0
-98,218,0,0,0,0,0,0,0,0,0,-1,1126,806,0,0
-91,218,0,0,0,0,0,0,0,0,0,-1,1133,806,0,0
-84,218,0,0,0,0,0,0,0,0,0,-1,1140,806,0,0
-77,218,0,0,0,0,0,0,0,0,0,-1,1147,806,0,0
-70,218,0,0,0,0,0,0,0,0,0,-1,1154,806,0,0
-63,218,0,0,0,0,0,0,0,0,0,-1,1161,806,0,0
-56,218,0,0,0,0,0,0,0,0,0,-1,1168,806,0,0
-49,218,0,0,0,0,0,0,0,0,0,-1,1175,806,0,0
-42,218,0,0,0,0,0,0,0,0,0,-1,1182,806,0,0
-35,218,0,0,0,0,0,0,0,0,0,-1,1189,806,0,0
-28,218,0,0,0,0,0,0,0,0,0,-1,1196,806,0,0
-21,218,0,0,0,0,0,0,0,0,0,-1,1203,806,0,0
-14,218,0,0,0,0,0,0,0,0,0,-1,1210,806,0,0
-7,218,0,0,0,0,0,0,0,0,0,-1,1217,806,0,0
0,218,0,0,0,0,0,0,0,0,0,-1,1224,806,0,0
7,218,0,0,0,0,0,0,0,0,0,-1,1231,806,0,0
14,218,0,0,0,0,0,0,0,0,0,-1,1238,806,0,0
21,218,0,0,0,0,0,0,0,0,0,-1,1245,806,0,0
28,218,0,0,0,0,0,0,0,0,0,-1,1252,806,0,0
35,218,0,0,0,0,0,0,0,0,0,-1,1259,806,0,0
42,218,0,0,0,0,0,0,0,0,0,-1,1266,806,0,0
49,218,0,0,0,0,0,0,0,0,0,-1,1273,806,0,0
56,218,0,0,0,0,0,0,0,0,0,-1,1280,806,0,0
63,218,0,0,0,0,0,0,0,0,0,-1,1287,806,0,0
70,218,0,0,0,0,0,0,0,0,0,-1,1294,806,0,0
77,218,0,0,0,0,0,0,0,0,0,-1,1301,806,0,0
84,218,0,0,0,0,0,0,0,0,0,-1,1308,806,0,0
91,218,0,0,0,0,0,0,0,0,0,-1,1315,806,0,0
98,218,0,0,0,0,0,0,0,0,0,-1,1322,806,0,0
105,218,0,0,0,0,0,0,0,0,0,-1,1329,806,0,0
112,218,0,0,0,0,0,0,0,0,0,-1,1336,806,0,0
119,218,0,0,0,0,0,0,0,0,0,-1,1343,806,0,0
126,218,0,0,0,0,0,0,0,0,0,-1,1350,806,0,0
133,218,0,0,0,0,0,0,0,0,0,-1,1357,806,0,0
140,218,0,0,0,0,0,0,0,0,0,-1,1364,806,0,0
147,218,0,0,0,0,0,0,0,0,0,-1,1371,806,0,0
154,218,0,0,0,0,0,0,0,0,0,-1,1378,806,0,0
161,218,0,0,0,0,0,0,0,0,0,-1,1385,806,0,0
168,218,0,0,0,0,0,0,0,0,0,-1,1392,806,0,0
175,218,0,0,0,0,0,0,0,0,0,-1,1399,806,0,0
182,218,0,0,0,0,0,0,0,0,0,-1,1406,806,0,0
189,218,0,0,0,0,0,0,0,0,0,-1,1413,806,0,0
196,218,0,0,0,0,0,0,0,0,0,-1,1420,806,0,0
203,218,0,0,0,0,0,0,0,0,0,-1,1427,806,0,0
210,218,0,0,0,0,0,0,0,0,0,-1,1434,806,0,0
217,218,0,0,0,0,0,0,0,0,0,-1,1441,806,0,0
224,218,0,0,0,0,0,0,0,0,0,-1,1448,806,0,0
231,218,0,0,0,0,0,0,0,0,0,-1,1455,806,0,0
238,218,0,0,0,0,0,0,0,0,0,-1,1462,806,0,0
245,218,0,0,0,0,0,0,0,0,0,-1,1469,806,0,0
252,218,0,0,0,0,0,0,0,0,0,-1,1476,806,0,0
259,218,0,0,0,0,0,0,0,0,0,-1,1483,806,0,0
266,218,0,0,0,0,0,0,0,0,0,-1,1490,806,0,0
273,218,0,0,0,0,0,0,0,0,0,-1,1497,806,0,0
280,218,0,0,0,0,0,0,0,0,0,-1,1504,806,0,0
287,218,0,0,0,0,0,0,0,0,0,-1,1511,806,0,0
294,218,0,0,0,0,0,0,0,0,0,-1,1518,806,0,0
301,218,0,0,0,0,0,0,0,0,0,-1,1525,806,0,0
308,218,0,0,0,0,0,0,0,0,0,-1,1532,806,0,0
315,218,0,0,0,0,0,0,0,0,0,-1,1539,806,0,0
322,218,0,0,0,0,0,0,0,0,0,-1,1546,806,0,0
329,218,0,0,0,0,0,0,0,0,0,-1,1553,806,0,0
336,218,0,0,0,0,0,0,0,0,0,-1,1560,806,0,0
343,218,0,0,0,0,0,0,0,0,0,-1,1567,806,0,0
350,218,0,0,0,0,0,0,0,0,0,-1,1574,806,0,0
357,218,0,0,0,0,0,0,0,0,0,-1,1581,806,0,0
364,218,0,0,0,0,0,0,0,0,0,-1,1588,806,0,0
371,218,0,0,0,0,0,0,0,0,0,-1,1595,806,0,0
378,218,0,0,0,0,0,0,0,0,0,-1,1602,806,0,0
385,218,0,0,0,0,0,0,0,0,0,-1,1609,806,0,0
392,218,0,0,0,0,0,0,0,0,0,-1,1616,806,0,0
399,218,0,0,0,0,0,0,0,0,0,-1,1623,806,0,0
406,218,0,0,0,0,0,0,0,0,0,-1,1630,806,0,0
413,218,0,0,0,0,0,0,0,0,0,-1,1637,806,0,0
420,218,0,0,0,0,0,0,0,0,0,-1,1644,806,0,0
427,218,0,0,0,0,0,0,0,0,0,-1,1651,806,0,0
434,218,0,0,0,0,0,0,0,0,0,-1,1658,806,0,0
441,218,0,0,0,0,0,0,0,0,0,-1,1665,806,0,0
448,218,0,0,0,0,0,0,0,0,0,-1,1672,806,0,0
455,218,0,0,0,0,0,0,0,0,0,-1,1679,806,0,0
462,218,0,0,0,0,0,0,0,0,0,-1,1686,806,0,0
469,218,0,0,0,0,0,0,0,0,0,-1,1693,806,0,0
476,218,0,0,0,0,0,0,0,0,0,-1,1700,806,0,0
483,218,0,0,0,0,0,0,0,0,0,-1,1707,806,0,0
490,218,0,0,0,0,0,0,0,0,0,-1,1714,806,0,0
497,218,0,0,0,0,0,0,0,0,0,-1,1721,806,0,0
504,218,0,0,0,0,0,0,0,0,0,-1,1728,806,0,0
511,218,0,0,0,0,0,0,0,0,0,-1,1735,806,0,0
518,218,0,0,0,0,0,0,0,0,0,-1,1742,806,0,0
525,218,0,0,0,0,0,0,0,0,0,-1,1749,806,0,0
532,218,0,0,0,0,0,0,0,0,0,-1,1756,806,0,0
539,218,0,0,0,0,0,0,0,0,0,-1,1763,806,0,0
546,218,0,0,0,0,0,0,0,0,0,-1,1770,806,0,0
553,218,0,0,0,0,0,0,0,0,0,-1,1777,806,0,0
560,218,0,0,0,0,0,0,0,0,0,-1,1784,806,0,0
567,218,0,0,0,0,0,0,0,0,0,-1,1791,806,0,0
574,218,0,0,0,0,0,0,0,0,0,-1,1798,806,0,0
581,218,0,0,0,0,0,0,0,0,0,-1,1805,806,0,0
588,218,0,0,0,0,0,0,0,0,0,-1,1812,806,0,0
595,218,40.8452,2.77594,0.000581703,0.00326526,6.89946e-05,0.00326703,0.000579931,1.54511,0.00201275,0.0348365,1819,806,40.8453,-2.77596
602,218,40.861,2.80023,0.000641443,0.00367093,-0.000236555,0.00368929,0.000623083,-1.49334,0.00228039,0.0319882,1826,806,40.861,-2.80025
609,218,40.8682,2.84949,0.000660981,0.00351439,-0.000420712,0.00357512,0.000600243,-1.42742,0.00221067,0.029632,1833,806,40.8681,-2.84952
616,218,40.8741,2.78107,0.00049917,0.00269238,-0.000691722,0.00289232,0.000299233,-1.28942,0.00183661,0.0320728,1840,806,40.8741,-2.78105
623,218,40.9121,2.72241,0.000165293,0.00160294,-0.000997696,0.00211379,-0.00034556,-1.09757,0.00153738,0.0343721,1847,806,40.9121,-2.72239
630,218,41.0404,2.70349,-0.000112591,0.000635918,-0.0012426,0.0015594,-0.00103607,-0.931671,0.00150862,0.0365636,1854,806,41.0405,-2.70351
637,218,41.0642,2.44,-0.000429532,-6.05386e-05,-0.00138966,0.00115682,-0.00164689,-0.851394,0.00162695,0.0394658,1861,806,41.0642,-2.44003
644,218,40.8969,2.29901,0,0,0,0,0,0,0,-1,1868,806,40.8968,-2.29901
651,218,39.4176,1.89734,0,0,0,0,0,0,0,-1,1875,806,39.4176,-1.89733
658,218,28.41,0.514954,0,0,0,0,0,0,0,-1,1882,806,28.41,-0.514983
665,218,30.6653,0.507263,0,0,0,0,0,0,0,-1,1889,806,30.6652,-0.507268
672,218,30.4047,0.754944,-0.00165126,-0.00172107,-0.00176643,8.06111e-05,-0.00345294,-0.77552,0.00232929,0.018282,1896,806,30.4047,-0.754924
679,218,30.313,1.17352,-0.00195366,-0.00191732,-0.0016452,-0.000290194,-0.00358079,-0.79092,0.00229658,0.0149393,1903,806,30.313,-1.17355
686,218,30.2813,1.59467,-0.00175321,-0.00160844,-0.00155247,-0.000126663,-0.00323498,-0.808694,0.0021157,0.0125534,1910,806,30.2812,-1.59467
693,218,30.27,2.05951,-0.00114205,-0.000770468,-0.00121437,0.000272246,-0.00218476,-0.861306,0.00155522,0.011999,1917,806,30.2701,-2.05954
700,218,30.2327,2.52826,-3.40652e-05,-5.77151e-05,-0.000608036,0.000562261,-0.000654042,-0.775675,0.000702899,0.00950672,1924,806,30.2327,-2.52824
707,218,30.1873,2.99207,0.00132886,0.000565236,0.000143639,0.00135499,0.000539111,0.179912,0.000787723,0.00777605,1931,806,30.1872,-2.99207
714,218,30.1855,3.45544,0.00288124,0.00131515,0.00104341,0.00340275,0.000793634,0.463499,0.00205567,0.0102412,1938,806,30.1855,-3.45547
721,218,30.222,3.92206,0.00472066,0.00191899,0.00204007,0.00579454,0.000845111,0.48454,0.00361441,0.0134583,1945,806,30.2221,-3.92203
728,218,30.2299,4.40399,0.0069048,0.00235723,0.00317708,0.00853792,0.00072411,0.474811,0.00546659,0.0234325,1952,806,30.2298,-4.40397
735,218,30.3116,4.84033,0.00971618,0.0027596,0.00465874,0.0120519,0.000423908,0.464732,0.00789707,0.0423806,1959,806,30.3117,-4.84033
742,218,30.4275,5.26074,0,0,0,0,0,0,0,-1,1966,806,30.4275,-5.26073
749,218,29.5244,4.55963,0,0,0,0,0,0,0,-1,1973,806,29.5244,-4.5596
756,218,29.2709,4.80249,0,0,0,0,0,0,0,-1,1980,806,29.2709,-4.80247
763,218,28.4861,5.19104,0,0,0,0,0,0,0,-1,1987,806,28.4861,-5.19107
770,218,0,0,0,0,0,0,0,0,0,-1,1994,806,0,0
777,218,0,0,0,0,0,0,0,0,0,-1,2001,806,0,0
784,218,0,0,0,0,0,0,0,0,0,-1,2008,806,0,0
791,218,0,0,0,0,0,0,0,0,0,-1,2015,806,0,0
798,218,0,0,0,0,0,0,0,0,0,-1,2022,806,0,0
805,218,0,0,0,0,0,0,0,0,0,-1,2029,806,0,0
812,218,0,0,0,0,0,0,0,0,0,-1,2036,806,0,0
-700,211,0,0,0,0,0,0,0,0,0,-1,524,813,0,0
-693,211,0,0,0,0,0,0,0,0,0,-1,531,813,0,0
-686,211,0,0,0,0,0,0,0,0,0,-1,538,813,0,0
-679,211,0,0,0,0,0,0,0,0,0,-1,545,813,0,0
-672,211,0,0,0,0,0,0,0,0,0,-1,552,813,0,0
-665,211,0,0,0,0,0,0,0,0,0,-1,559,813,0,0
-658,211,0,0,0,0,0,0,0,0,0,-1,566,813,0,0
-651,211,-25.1097,7.41309,0,0,0,0,0,0,0,-1,573,813,-25.1097,-7.41311
-644,211,-25.0272,8.60345,0,0,0,0,0,0,0,-1,580,813,-25.0272,-8.60343
-637,211,-25.0317,9.93817,0,0,0,0,0,0,0,-1,587,813,-25.0317,-9.93814
-630,211,-16.5018,4.90027,0,0,0,0,0,0,0,-1,594,813,-16.5018,-4.90029
-623,211,-20.671,4.8623,0,0,0,0,0,0,0,-1,601,813,-20.671,-4.86228
-616,211,-21.2153,2.93463,0,0,0,0,0,0,0,-1,608,813,-21.2152,-2.93461
-609,211,-21.1626,2.52502,0.0144174,0.011601,-0.00749696,0.0206373,0.00538112,-0.692561,0.0123613,0.0401426,615,813,-21.1626,-2.525
-602,211,-21.0839,2.15088,0.0119034,0.00867657,-0.00611106,0.0166105,0.00396953,-0.656335,0.0100162,0.0196,622,813,-21.0839,-2.15087
-595,211,-21.1183,1.74017,0.00947134,0.00636026,-0.0047669,0.0129301,0.00290152,-0.627685,0.00783408,0.00972548,629,813,-21.1183,-1.74016
-588,211,-21.1258,1.31299,0.00719681,0.00438981,-0.00343453,0.00950354,0.00208308,-0.59143,0.0057681,0.00978557,636,813,-21.1258,-1.31296
-581,211,-21.1311,0.884216,0.00506857,0.00271044,-0.00217576,0.0063642,0.00141481,-0.537092,0.00385865,0.0106586,643,813,-21.1311,-0.884196
-574,211,-21.1605,0.431641,0.00326925,0.00135943,-0.00102123,0.00371246,0.000916218,-0.409473,0.00223313,0.011675,650,813,-21.1605,-0.431665
-567,211,-21.1956,-0.00476074,0.0015883,0.000507479,-3.94658e-05,0.00158974,0.000506039,-0.0364498,0.000937819,0.0179616,657,813,-21.1956,0.00476054
-560,211,-21.2291,-0.425598,0.00015313,9.67821e-05,0.000520371,0.00064609,-0.000396177,0.758353,0.000607492,0.0230957,664,813,-21.2291,0.425624
-553,211,-21.0968,-0.890564,-0.001036,0.000455736,0.000901636,0.000880026,-0.00146029,1.13096,0.00136495,0.0288809,671,813,-21.0968,0.890576
-546,211,-21.3452,-1.23022,-0.00198115,0.00152552,0.00164527,0.00217658,-0.00263221,1.19399,0.0027805,0.0384649,678,813,-21.3452,1.23023
-539,211,-21.277,-1.73364,-0.00257195,0.00270554,0.00186456,0.00329783,-0.00316424,1.26322,0.00373114,0.0259762,685,813,-21.2771,1.73364
-532,211,-21.1584,-2.07501,0,0,0,0,0,0,0,-1,692,813,-21.1584,2.07503
-525,211,-14.3009,2.3233,0,0,0,0,0,0,0,-1,699,813,-14.3009,-2.3233
-518,211,-29.4375,1.45984,0,0,0,0,0,0,0,-1,706,813,-29.4375,-1.45982
-511,211,-29.8238,1.1413,0,0,0,0,0,0,0,-1,713,813,-29.8238,-1.14128
-504,211,-30.0622,1.09259,0,0,0,0,0,0,0,-1,720,813,-30.0622,-1.0926
-497,211,-30.056,1.04956,-0.0024213,0.0096302,-0.000180109,0.00963289,-0.00242399,-1.55586,0.00736413,0.0483224,727,813,-30.056,-1.04955
-490,211,-30.098,1.005,-0.00178561,0.00996524,-0.00133794,0.0101157,-0.00193603,-1.45885,0.00747318,0.0341107,734,813,-30.098,-1.00498
-483,211,-30.1777,0.908447,-0.00066183,0.00880298,-0.00317395,0.00976879,-0.00162764,-1.27541,0.00711738,0.0300969,741,813,-30.1777,-0.90846
-476,211,-30.0403,1.0567,0.000694432,0.00465775,-0.00563131,0.0086459,-0.00329371,-0.954582,0.00712046,0.0340016,748,813,-30.0403,-1.05672
-469,211,0,0,0,0,0,0,0,0,0,-1,755,813,0,0
-462,211,0,0,0,0,0,0,0,0,0,-1,762,813,0,0
-455,211,0,0,0,0,0,0,0,0,0,-1,769,813,0,0
-448,211,0,0,0,0,0,0,0,0,0,-1,776,813,0,0
-441,211,0,0,0,0,0,0,0,0,0,-1,783,813,0,0
-434,211,0,0,0,0,0,0,0,0,0,-1,790,813,0,0
-427,211,0,0,0,0,0,0,0,0,0,-1,797,813,0,0
-420,211,0,0,0,0,0,0,0,0,0,-1,804,813,0,0
-413,211,0,0,0,0,0,0,0,0,0,-1,811,813,0,0
-406,211,0,0,0,0,0,0,0,0,0,-1,818,813,0,0
-399,211,0,0,0,0,0,0,0,0,0,-1,825,813,0,0
-392,211,0,0,0,0,0,0,0,0,0,-1,832,813,0,0
-385,211,0,0,0,0,0,0,0,0,0,-1,839,813,0,0
-378,211,0,0,0,0,0,0,0,0,0,-1,846,813,0,0
-371,211,0,0,0,0,0,0,0,0,0,-1,853,813,0,0
-364,211,0,0,0,0,0,0,0,0,0,-1,860,813,0,0
-357,211,0,0,0,0,0,0,0,0,0,-1,867,813,0,0
-350,211,0,0,0,0,0,0,0,0,0,-1,874,813,0,0
-343,211,0,0,0,0,0,0,0,0,0,-1,881,813,0,0
-336,211,0,0,0,0,0,0,0,0,0,-1,888,813,0,0
-329,211,0,0,0,0,0,0,0,0,0,-1,895,813,0,0
-322,211,0,0,0,0,0,0,0,0,0,-1,902,813,0,0
-315,211,0,0,0,0,0,0,0,0,0,-1,909,813,0,0
-308,211,0,0,0,0,0,0,0,0,0,-1,916,813,0,0
-301,211,0,0,0,0,0,0,0,0,0,-1,923,813,0,0
-294,211,0,0,0,0,0,0,0,0,0,-1,930,813,0,0
-287,211,0,0,0,0,0,0,0,0,0,-1,937,813,0,0
-280,211,0,0,0,0,0,0,0,0,0,-1,944,813,0,0
-273,211,0,0,0,0,0,0,0,0,0,-1,951,813,0,0
-266,211,0,0,0,0,0,0,0,0,0,-1,958,813,0,0
-259,211,0,0,0,0,0,0,0,0,0,-1,965,813,0,0
-252,211,0,0,0,0,0,0,0,0,0,-1,972,813,0,0
-245,211,0,0,0,0,0,0,0,0,0,-1,979,813,0,0
-238,211,0,0,0,0,0,0,0,0,0,-1,986,813,0,0
-231,211,0,0,0,0,0,0,0,0,0,-1,993,813,0,0
-224,211,0,0,0,0,0,0,0,0,0,-1,1000,813,0,0
-217,211,0,0,0,0,0,0,0,0,0,-1,1007,813,0,0
-210,211,0,0,0,0,0,0,0,0,0,-1,1014,813,0,0
-203,211,0,0,0,0,0,0,0,0,0,-1,1021,813,0,0
-196,211,0,0,0,0,0,0,0,0,0,-1,1028,813,0,0
-189,211,0,0,0,0,0,0,0,0,0,-1,1035,813,0,0
-182,211,0,0,0,0,0,0,0,0,0,-1,1042,813,0,0
-175,211,0,0,0,0,0,0,0,0,0,-1,1049,813,0,0
-168,211,0,0,0,0,0,0,0,0,0,-1,1056,813,0,0
-161,211,0,0,0,0,0,0,0,0,0,-1,1063,813,0,0
-154,211,0,0,0,0,0,0,0,0,0,-1,1070,813,0,0
-147,211,0,0,0,0,0,0,0,0,0,-1,1077,813,0,0
-140,211,0,0,0,0,0,0,0,0,0,-1,1084,813,0,0
-133,211,0,0,0,0,0,0,0,0,0,-1,1091,813,0,0
-126,211,0,0,0,0,0,0,0,0,0,-1,1098,813,0,0
-119,211,0,0,0,0,0,0,0,0,0,-1,1105,813,0,0
-112,211,0,0,0,0,0,0,0,0,0,-1,1112,813,0,0
-105,211,0,0,0,0,0,0,0,0,0,-1,1119,813,0,0
-98,211,0,0,0,0,0,0,0,0,0,-1,1126,813,0,0
-91,211,0,0,0,0,0,0,0,0,0,-1,1133,813,0,0
-84,211,0,0,0,0,0,0,0,0,0,-1,1140,813,0,0
-77,211,0,0,0,0,0,0,0,0,0,-1,1147,813,0,0
-70,211,0,0,0,0,0,0,0,0,0,-1,1154,813,0,0
-63,211,0,0,0,0,0,0,0,0,0,-1,1161,813,0,0
-56,211,0,0,0,0,0,0,0,0,0,-1,1168,813,0,0
-49,211,0,0,0,0,0,0,0,0,0,-1,1175,813,0,0
-42,211,0,0,0,0,0,0,0,0,0,-1,1182,813,0,0
-35,211,0,0,0,0,0,0,0,0,0,-1,1189,813,0,0
-28,211,0,0,0,0,0,0,0,0,0,-1,1196,813,0,0
-21,211,0,0,0,0,0,0,0,0,0,-1,1203,813,0,0
-14,211,0,0,0,0,0,0,0,0,0,-1,1210,813,0,0
-7,211,0,0,0,0,0,0,0,0,0,-1,1217,813,0,0
0,211,0,0,0,0,0,0,0,0,0,-1,1224,813,0,0
7,211,0,0,0,0,0,0,0,0,0,-1,1231,813,0,0
14,211,0,0,0,0,0,0,0,0,0,-1,1238,813,0,0
21,211,0,0,0,0,0,0,0,0,0,-1,1245,813,0,0
28,211,0,0,0,0,0,0,0,0,0,-1,1252,813,0,0
35,211,0,0,0,0,0,0,0,0,0,-1,1259,813,0,0
42,211,0,0,0,0,0,0,0,0,0,-1,1266,813,0,0
49,211,0,0,0,0,0,0,0,0,0,-1,1273,813,0,0
56,211,0,0,0,0,0,0,0,0,0,-1,1280,813,0,0
63,211,0,0,0,0,0,0,0,0,0,-1,1287,813,0,0
70,211,0,0,0,0,0,0,0,0,0,-1,1294,813,0,0
77,211,0,0,0,0,0,0,0,0,0,-1,1301,813,0,0
84,211,0,0,0,0,0,0,0,0,0,-1,1308,813,0,0
91,211,0,0,0,0,0,0,0,0,0,-1,1315,813,0,0
98,211,0,0,0,0,0,0,0,0,0,-1,1322,813,0,0
105,211,0,0,0,0,0,0,0,0,0,-1,1329,813,0,0
112,211,0,0,0,0,0,0,0,0,0,-1,1336,813,0,0
119,211,0,0,0,0,0,0,0,0,0,-1,1343,813,0,0
126,211,0,0,0,0,0,0,0,0,0,-1,1350,813,0,0
133,211,0,0,0,0,0,0,0,0,0,-1,1357,813,0,0
140,211,0,0,0,0,0,0,0,0,0,-1,1364,813,0,0
147,211,0,0,0,0,0,0,0,0,0,-1,1371,813,0,0
154,211,0,0,0,0,0,0,0,0,0,-1,1378,813,0,0
161,211,0,0,0,0,0,0,0,0,0,-1,1385,813,0,0
168,211,0,0,0,0,0,0,0,0,0,-1,1392,813,0,0
175,211,0,0,0,0,0,0,0,0,0,-1,1399,813,0,0
182,211,0,0,0,0,0,0,0,0,0,-1,1406,813,0,0
189,211,0,0,0,0,0,0,0,0,0,-1,1413,813,0,0
196,211,0,0,0,0,0,0,0,0,0,-1,1420,813,0,0
203,211,0,0,0,0,0,0,0,0,0,-1,1427,813,0,0
210,211,0,0,0,0,0,0,0,0,0,-1,1434,813,0,0
217,211,0,0,0,0,0,0,0,0,0,-1,1441,813,0,0
224,211,0,0,0,0,0,0,0,0,0,-1,1448,813,0,0
231,211,0,0,0,0,0,0,0,0,0,-1,1455,813,0,0
238,211,0,0,0,0,0,0,0,0,0,-1,1462,813,0,0
245,211,0,0,0,0,0,0,0,0,0,-1,1469,813,0,0
252,211,0,0,0,0,0,0,0,0,0,-1,1476,813,0,0
259,211,0,0,0,0,0,0,0,0,0,-1,1483,813,0,0
266,211,0,0,0,0,0,0,0,0,0,-1,1490,813,0,0
273,211,0,0,0,0,0,0,0,0,0,-1,1497,813,0,0
280,211,0,0,0,0,0,0,0,0,0,-1,1504,813,0,0
287,211,0,0,0,0,0,0,0,0,0,-1,1511,813,0,0
294,211,0,0,0,0,0,0,0,0,0,-1,1518,813,0,0
301,211,0,0,0,0,0,0,0,0,0,-1,1525,813,0,0
308,211,0,0,0,0,0,0,0,0,0,-1,1532,813,0,0
315,211,0,0,0,0,0,0,0,0,0,-1,1539,813,0,0
322,211,0,0,0,0,0,0,0,0,0,-1,1546,813,0,0
329,211,0,0,0,0,0,0,0,0,0,-1,1553,813,0,0
336,211,0,0,0,0,0,0,0,0,0,-1,1560,813,0,0
343,211,0,0,0,0,0,0,0,0,0,-1,1567,813,0,0
350,211,0,0,0,0,0,0,0,0,0,-1,1574,813,0,0
357,211,0,0,0,0,0,0,0,0,0,-1,1581,813,0,0
364,211,0,0,0,0,0,0,0,0,0,-1,1588,813,0,0
371,211,0,0,0,0,0,0,0,0,0,-1,1595,813,0,0
378,211,0,0,0,0,0,0,0,0,0,-1,1602,813,0,0
385,211,0,0,0,0,0,0,0,0,0,-1,1609,813,0,0
392,211,0,0,0,0,0,0,0,0,0,-1,1616,813,0,0
399,211,0,0,0,0,0,0,0,0,0,-1,1623,813,0,0
406,211,0,0,0,0,0,0,0,0,0,-1,1630,813,0,0
413,211,0,0,0,0,0,0,0,0,0,-1,1637,813,0,0
420,211,0,0,0,0,0,0,0,0,0,-1,1644,813,0,0
427,211,0,0,0,0,0,0,0,0,0,-1,1651,813,0,0
434,211,0,0,0,0,0,0,0,0,0,-1,1658,813,0,0
441,211,0,0,0,0,0,0,0,0,0,-1,1665,813,0,0
448,211,0,0,0,0,0,0,0,0,0,-1,1672,813,0,0
455,211,0,0,0,0,0,0,0,0,0,-1,1679,813,0,0
462,211,0,0,0,0,0,0,0,0,0,-1,1686,813,0,0
469,211,0,0,0,0,0,0,0,0,0,-1,1693,813,0,0
476,211,0,0,0,0,0,0,0,0,0,-1,1700,813,0,0
483,211,0,0,0,0,0,0,0,0,0,-1,1707,813,0,0
490,211,0,0,0,0,0,0,0,0,0,-1,1714,813,0,0
497,211,0,0,0,0,0,0,0,0,0,-1,1721,813,0,0
504,211,0,0,0,0,0,0,0,0,0,-1,1728,813,0,0
511,211,0,0,0,0,0,0,0,0,0,-1,1735,813,0,0
518,211,0,0,0,0,0,0,0,0,0,-1,1742,813,0,0
525,211,0,0,0,0,0,0,0,0,0,-1,1749,813,0,0
532,211,0,0,0,0,0,0,0,0,0,-1,1756,813,0,0
539,211,0,0,0,0,0,0,0,0,0,-1,1763,813,0,0
546,211,0,0,0,0,0,0,0,0,0,-1,1770,813,0,0
553,211,0,0,0,0,0,0,0,0,0,-1,1777,813,0,0
560,211,0,0,0,0,0,0,0,0,0,-1,1784,813,0,0
567,211,0,0,0,0,0,0,0,0,0,-1,1791,813,0,0
574,211,0,0,0,0,0,0,0,0,0,-1,1798,813,0,0
581,211,0,0,0,0,0,0,0,0,0,-1,1805,813,0,0
588,211,0,0,0,0,0,0,0,0,0,-1,1812,813,0,0
595,211,40.9622,2.57452,0.00100585,0.00182238,0.000140593,0.0018459,0.000982316,1.40497,0.00106647,0.0349674,1819,813,40.9621,-2.57453
602,211,40.9393,2.73102,0.00100401,0.00216277,7.73343e-05,0.0021679,0.000998869,1.50445,0.00125293,0.0356843,1826,813,40.9394,-2.73099
609,211,40.8169,2.87085,0.000898241,0.00235958,2.19599e-05,0.00235991,0.000897912,1.55577,0.00137541,0.0377046,1833,813,40.817,-2.87087
616,211,40.8228,2.83417,0.000670683,0.00192277,-0.000246518,0.00196956,0.000623895,-1.38323,0.0011623,0.0314482,1840,813,40.8228,-2.83416
623,211,40.8518,2.79852,0.000232877,0.00113,-0.000638754,0.00146196,-9.90838e-05,-1.09151,0.00100929,0.0305755,1847,813,40.8518,-2.79855
630,211,40.8934,2.78363,-0.000209202,0.000387413,-0.000988053,0.00112121,-0.000942997,-0.932004,0.00119325,0.0357486,1854,813,40.8935,-2.78363
637,211,40.917,2.70612,-0.000636436,-0.000170428,-0.00122497,0.000843497,-0.00165036,-0.879382,0.00146473,0.0416224,1861,813,40.917,-2.70612
644,211,40.6838,2.66083,-0.00109572,-0.000712365,-0.00137594,0.000485185,-0.00229327,-0.854606,0.00171362,0.0430247,1868,813,40.6838,-2.6608
651,211,40.4128,2.77563,0,0,0,0,0,0,0,-1,1875,813,40.4128,-2.77564
658,211,27.7909,1.52234,0,0,0,0,0,0,0,-1,1882,813,27.7909,-1.52234
665,211,31.0026,0.595215,0,0,0,0,0,0,0,-1,1889,813,31.0026,-0.595245
672,211,30.9109,0.840332,-0.00190769,-0.00158032,-0.00178013,4.36341e-05,-0.00353164,-0.831245,0.00236911,0.0342264,1896,813,30.9109,-0.840338
679,211,30.8312,1.177,-0.00224718,-0.00180722,-0.00172556,-0.000287668,-0.00376673,-0.848798,0.00242097,0.0196809,1903,813,30.8311,-1.17702
686,211,30.7382,1.61511,-0.00209524,-0.00163465,-0.00173356,-0.000116156,-0.00361373,-0.851434,0.00237138,0.0127001,1910,813,30.7382,-1.61514
693,211,30.7352,2.06195,-0.00160554,-0.000960431,-0.00151374,0.000264736,-0.0028307,-0.89037,0.00198129,0.0122273,1917,813,30.7352,-2.06197
700,211,30.6545,2.50378,-0.000620652,-0.000373316,-0.00100203,0.000512651,-0.00150662,-0.846796,0.00121199,0.0139572,1924,813,30.6546,-2.50381
707,211,30.6578,2.99426,0.000717494,0.000132716,-0.000285235,0.000833578,1.66316e-05,-0.386507,0.000550259,0.0208694,1931,813,30.6579,-2.99428
714,211,30.6863,3.48944,0.00229087,0.00085769,0.000581183,0.00249693,0.000651635,0.340718,0.0014955,0.0219129,1938,813,30.6863,-3.48945
721,211,30.6967,3.9198,0.00425931,0.00144705,0.00156399,0.00495634,0.000750019,0.419249,0.00308476,0.0174658,1945,813,30.6967,-3.91982
728,211,30.7073,4.36658,0.00662918,0.00188458,0.00268758,0.0078417,0.000672069,0.423814,0.0050188,0.016976,1952,813,30.7072,-4.36655
735,211,30.7266,4.83069,0.00966659,0.0022463,0.00411387,0.0114962,0.000416671,0.418476,0.0075291,0.0273682,1959,813,30.7266,-4.83067
742,211,30.7689,5.30872,0,0,0,0,0,0,0,-1,1966,813,30.7689,-5.30872
749,211,30.7932,5.68451,0,0,0,0,0,0,0,-1,1973,813,30.7932,-5.6845
756,211,29.4044,5.1203,0,0,0,0,0,0,0,-1,1980,813,29.4044,-5.12029
763,211,30.1315,8.54175,0,0,0,0,0,0,0,-1,1987,813,30.1314,-8.54174
770,211,27.9138,9.25177,0,0,0,0,0,0,0,-1,1994,813,27.9139,-9.25176
777,211,0,0,0,0,0,0,0,0,0,-1,2001,813,0,0
784,211,0,0,0,0,0,0,0,0,0,-1,2008,813,0,0
791,211,0,0,0,0,0,0,0,0,0,-1,2015,813,0,0
798,211,0,0,0,0,0,0,0,0,0,-1,2022,813,0,0
805,211,0,0,0,0,0,0,0,0,0,-1,2029,813,0,0
812,211,0,0,0,0,0,0,0,0,0,-1,2036,813,0,0
-700,204,0,0,0,0,0,0,0,0,0,-1,524,820,0,0
-693,204,0,0,0,0,0,0,0,0,0,-1,531,820,0,0
-686,204,0,0,0,0,0,0,0,0,0,-1,538,820,0,0
-679,204,0,0,0,0,0,0,0,0,0,-1,545,820,0,0
-672,204,0,0,0,0,0,0,0,0,0,-1,552,820,0,0
-665,204,0,0,0,0,0,0,0,0,0,-1,559,820,0,0
-658,204,0,0,0,0,0,0,0,0,0,-1,566,820,0,0
-651,204,-24.8652,6.48065,0,0,0,0,0,0,0,-1,573,820,-24.8652,-6.48063
-644,204,-24.7617,7.48132,0,0,0,0,0,0,0,-1,580,820,-24.7617,-7.4813
-637,204,-24.7829,8.35876,0,0,0,0,0,0,0,-1,587,820,-24.7829,-8.35876
-630,204,-21.7065,4.63257,0,0,0,0,0,0,0,-1,594,820,-21.7065,-4.63254
-623,204,-21.9418,3.52814,0,0,0,0,0,0,0,-1,601,820,-21.9418,-3.52812
-616,204,-21.1221,3.54401,0,0,0,0,0,0,0,-1,608,820,-21.1221,-3.54403
-609,204,-21.3212,2.85645,0.00826375,0.0106342,-0.00472433,0.0143197,0.00457823,-0.908299,0.00844472,0.0340835,615,820,-21.3212,-2.85643
-602,204,-21.5105,2.19519,0.00694519,0.00789094,-0.00395997,0.0114062,0.00342996,-0.844824,0.00675747,0.0151963,622,820,-21.5105,-2.19519
-595,204,-21.5698,1.75104,0.00556209,0.00564558,-0.0031156,0.00871971,0.00248795,-0.792097,0.0051867,0.0139278,629,820,-21.5698,-1.75107
-588,204,-21.5823,1.29456,0.00421947,0.00370953,-0.00220089,0.00618011,0.0017489,-0.727731,0.00367841,0.0118373,636,820,-21.5823,-1.29454
-581,204,-21.5857,0.858948,0.00288615,0.00206751,-0.00127507,0.00381599,0.00113767,-0.630085,0.00226222,0.01203,643,820,-21.5857,-0.858939
-574,204,-21.5979,0.452576,0.00180969,0.000776458,-0.000423195,0.00196089,0.000625252,-0.34316,0.00115662,0.0129616,650,820,-21.5979,-0.452549
-567,204,-21.5923,0.0415039,0.000739722,0.000144703,0.000299475,0.000864347,2.0078e-05,0.394345,0.000569657,0.0130442,657,820,-21.5923,-0.0414741
-560,204,-21.5977,-0.427307,-0.000227023,-9.88171e-05,0.000547674,0.000388493,-0.000714333,0.843656,0.000645914,0.0145892,664,820,-21.5977,0.427331
-553,204,-21.6394,-0.810608,-0.00111575,0.000326111,0.000650921,0.000576488,-0.00136613,1.20359,0.00115204,0.0180138,671,820,-21.6394,0.810579
-546,204,-21.7256,-1.15265,-0.00190114,0.00138654,0.00119121,0.00177277,-0.00228738,1.25726,0.0023504,0.0238577,678,820,-21.7257,1.15266
-539,204,-21.6371,-1.64563,-0.00245505,0.00248158,0.00132539,0.00281492,-0.00278838,1.32441,0.00323508,0.0435558,685,820,-21.6371,1.64562
-532,204,-21.5242,-2.33539,0,0,0,0,0,0,0,-1,692,820,-21.5242,2.33538
-525,204,-25.7137,1.52496,0,0,0,0,0,0,0,-1,699,820,-25.7137,-1.52496
-518,204,-29.4576,1.5752,0,0,0,0,0,0,0,-1,706,820,-29.4576,-1.57517
-511,204,-29.8138,1.23871,0,0,0,0,0,0,0,-1,713,820,-29.8139,-1.23872
-504,204,-30.0635,1.05829,0,0,0,0,0,0,0,-1,720,820,-30.0636,-1.05831
-497,204,-30.1501,0.990417,-0.00243161,0.00932006,-0.000671784,0.00935834,-0.00246988,-1.51388,0.00720471,0.0406323,727,820,-30.1501,-0.990442
-490,204,-30.21,0.884644,-0.00160188,0.00931357,-0.00178755,0.00959884,-0.00188716,-1.41254,0.00711223,0.0337125,734,820,-30.21,-0.884665
-483,204,-30.1741,0.870117,3.43313e-05,0.00724371,-0.00357798,0.00871797,-0.00143993,-1.17996,0.00634664,0.0374949,741,820,-30.1741,-0.870109
-476,204,0,0,0,0,0,0,0,0,0,-1,748,820,0,0
-469,204,0,0,0,0,0,0,0,0,0,-1,755,820,0,0
-462,204,0,0,0,0,0,0,0,0,0,-1,762,820,0,0
-455,204,0,0,0,0,0,0,0,0,0,-1,769,820,0,0
-448,204,0,0,0,0,0,0,0,0,0,-1,776,820,0,0
-441,204,0,0,0,0,0,0,0,0,0,-1,783,820,0,0
-434,204,0,0,0,0,0,0,0,0,0,-1,790,820,0,0
-427,204,0,0,0,0,0,0,0,0,0,-1,797,820,0,0
-420,204,0,0,0,0,0,0,0,0,0,-1,804,820,0,0
-413,204,0,0,0,0,0,0,0,0,0,-1,811,820,0,0
-406,204,0,0,0,0,0,0,0,0,0,-1,818,820,0,0
-399,204,0,0,0,0,0,0,0,0,0,-1,825,820,0,0
-392,204,0,0,0,0,0,0,0,0,0,-1,832,820,0,0
-385,204,0,0,0,0,0,0,0,0,0,-1,839,820,0,0
-378,204,0,0,0,0,0,0,0,0,0,-1,846,820,0,0
-371,204,0,0,0,0,0,0,0,0,0,-1,853,820,0,0
-364,204,0,0,0,0,0,0,0,0,0,-1,860,820,0,0
-357,204,0,0,0,0,0,0,0,0,0,-1,867,820,0,0
-350,204,0,0,0,0,0,0,0,0,0,-1,874,820,0,0
-343,204,0,0,0,0,0,0,0,0,0,-1,881,820,0,0
-336,204,0,0,0,0,0,0,0,0,0,-1,888,820,0,0
-329,204,0,0,0,0,0,0,0,0,0,-1,895,820,0,0
-322,204,0,0,0,0,0,0,0,0,0,-1,902,820,0,0
-315,204,0,0,0,0,0,0,0,0,0,-1,909,820,0,0
-308,204,0,0,0,0,0,0,0,0,0,-1,916,820,0,0
-301,204,0,0,0,0,0,0,0,0,0,-1,923,820,0,0
-294,204,0,0,0,0,0,0,0,0,0,-1,930,820,0,0
-287,204,0,0,0,0,0,0,0,0,0,-1,937,820,0,0
-280,204,0,0,0,0,0,0,0,0,0,-1,944,820,0,0
-273,204,0,0,0,0,0,0,0,0,0,-1,951,820,0,0
-266,204,0,0,0,0,0,0,0,0,0,-1,958,820,0,0
-259,204,0,0,0,0,0,0,0,0,0,-1,965,820,0,0
-252,204,0,0,0,0,0,0,0,0,0,-1,972,820,0,0
-245,204,0,0,0,0,0,0,0,0,0,-1,979,820,0,0
-238,204,0,0,0,0,0,0,0,0,0,-1,986,820,0,0
-231,204,0,0,0,0,0,0,0,0,0,-1,993,820,0,0
-224,204,0,0,0,0,0,0,0,0,0,-1,1000,820,0,0
-217,204,0,0,0,0,0,0,0,0,0,-1,1007,820,0,0
-210,204,0,0,0,0,0,0,0,0,0,-1,1014,820,0,0
-203,204,0,0,0,0,0,0,0,0,0,-1,1021,820,0,0
-196,204,0,0,0,0,0,0,0,0,0,-1,1028,820,0,0
-189,204,0,0,0,0,0,0,0,0,0,-1,1035,820,0,0
-182,204,0,0,0,0,0,0,0,0,0,-1,1042,820,0,0
-175,204,0,0,0,0,0,0,0,0,0,-1,1049,820,0,0
-168,204,0,0,0,0,0,0,0,0,0,-1,1056,820,0,0
-161,204,0,0,0,0,0,0,0,0,0,-1,1063,820,0,0
-154,204,0,0,0,0,0,0,0,0,0,-1,1070,820,0,0
-147,204,0,0,0,0,0,0,0,0,0,-1,1077,820,0,0
-140,204,0,0,0,0,0,0,0,0,0,-1,1084,820,0,0
-133,204,0,0,0,0,0,0,0,0,0,-1,1091,820,0,0
-126,204,0,0,0,0,0,0,0,0,0,-1,1098,820,0,0
-119,204,0,0,0,0,0,0,0,0,0,-1,1105,820,0,0
-112,204,0,0,0,0,0,0,0,0,0,-1,1112,820,0,0
-105,204,0,0,0,0,0,0,0,0,0,-1,1119,820,0,0
-98,204,0,0,0,0,0,0,0,0,0,-1,1126,820,0,0
-91,204,0,0,0,0,0,0,0,0,0,-1,1133,820,0,0
-84,204,0,0,0,0,0,0,0,0,0,-1,1140,820,0,0
-77,204,0,0,0,0,0,0,0,0,0,-1,1147,820,0,0
-70,204,0,0,0,0,0,0,0,0,0,-1,1154,820,0,0
-63,204,0,0,0,0,0,0,0,0,0,-1,1161,820,0,0
-56,204,0,0,0,0,0,0,0,0,0,-1,1168,820,0,0
-49,204,0,0,0,0,0,0,0,0,0,-1,1175,820,0,0
-42,204,0,0,0,0,0,0,0,0,0,-1,1182,820,0,0
-35,204,0,0,0,0,0,0,0,0,0,-1,1189,820,0,0
-28,204,0,0,0,0,0,0,0,0,0,-1,1196,820,0,0
-21,204,0,0,0,0,0,0,0,0,0,-1,1203,820,0,0
-14,204,0,0,0,0,0,0,0,0,0,-1,1210,820,0,0
-7,204,0,0,0,0,0,0,0,0,0,-1,1217,820,0,0
0,204,0,0,0,0,0,0,0,0,0,-1,1224,820,0,0
7,204,0,0,0,0,0,0,0,0,0,-1,1231,820,0,0
14,204,0,0,0,0,0,0,0,0,0,-1,1238,820,0,0
21,204,0,0,0,0,0,0,0,0,0,-1,1245,820,0,0
28,204,0,0,0,0,0,0,0,0,0,-1,1252,820,0,0
35,204,0,0,0,0,0,0,0,0,0,-1,1259,820,0,0
42,204,0,0,0,0,0,0,0,0,0,-1,1266,820,0,0
49,204,0,0,0,0,0,0,0,0,0,-1,1273,820,0,0
56,204,0,0,0,0,0,0,0,0,0,-1,1280,820,0,0
63,204,0,0,0,0,0,0,0,0,0,-1,1287,820,0,0
70,204,0,0,0,0,0,0,0,0,0,-1,1294,820,0,0
77,204,0,0,0,0,0,0,0,0,0,-1,1301,820,0,0
84,204,0,0,0,0,0,0,0,0,0,-1,1308,820,0,0
91,204,0,0,0,0,0,0,0,0,0,-1,1315,820,0,0
98,204,0,0,0,0,0,0,0,0,0,-1,1322,820,0,0
105,204,0,0,0,0,0,0,0,0,0,-1,1329,820,0,0
112,204,0,0,0,0,0,0,0,0,0,-1,1336,820,0,0
119,204,0,0,0,0,0,0,0,0,0,-1,1343,820,0,0
126,204,0,0,0,0,0,0,0,0,0,-1,1350,820,0,0
133,204,0,0,0,0,0,0,0,0,0,-1,1357,820,0,0
140,204,0,0,0,0,0,0,0,0,0,-1,1364,820,0,0
147,204,0,0,0,0,0,0,0,0,0,-1,1371,820,0,0
154,204,0,0,0,0,0,0,0,0,0,-1,1378,820,0,0
161,204,0,0,0,0,0,0,0,0,0,-1,1385,820,0,0
168,204,0,0,0,0,0,0,0,0,0,-1,1392,820,0,0
175,204,0,0,0,0,0,0,0,0,0,-1,1399,820,0,0
182,204,0,0,0,0,0,0,0,0,0,-1,1406,820,0,0
189,204,0,0,0,0,0,0,0,0,0,-1,1413,820,0,0
196,204,0,0,0,0,0,0,0,0,0,-1,1420,820,0,0
203,204,0,0,0,0,0,0,0,0,0,-1,1427,820,0,0
210,204,0,0,0,0,0,0,0,0,0,-1,1434,820,0,0
217,204,0,0,0,0,0,0,0,0,0,-1,1441,820,0,0
224,204,0,0,0,0,0,0,0,0,0,-1,1448,820,0,0
231,204,0,0,0,0,0,0,0,0,0,-1,1455,820,0,0
238,204,0,0,0,0,0,0,0,0,0,-1,1462,820,0,0
245,204,0,0,0,0,0,0,0,0,0,-1,1469,820,0,0
252,204,0,0,0,0,0,0,0,0,0,-1,1476,820,0,0
259,204,0,0,0,0,0,0,0,0,0,-1,1483,820,0,0
266,204,0,0,0,0,0,0,0,0,0,-1,1490,820,0,0
273,204,0,0,0,0,0,0,0,0,0,-1,1497,820,0,0
280,204,0,0,0,0,0,0,0,0,0,-1,1504,820,0,0
287,204,0,0,0,0,0,0,0,0,0,-1,1511,820,0,0
294,204,0,0,0,0,0,0,0,0,0,-1,1518,820,0,0
301,204,0,0,0,0,0,0,0,0,0,-1,1525,820,0,0
308,204,0,0,0,0,0,0,0,0,0,-1,1532,820,0,0
315,204,0,0,0,0,0,0,0,0,0,-1,1539,820,0,0
322,204,0,0,0,0,0,0,0,0,0,-1,1546,820,0,0
329,204,0,0,0,0,0,0,0,0,0,-1,1553,820,0,0
336,204,0,0,0,0,0,0,0,0,0,-1,1560,820,0,0
343,204,0,0,0,0,0,0,0,0,0,-1,1567,820,0,0
350,204,0,0,0,0,0,0,0,0,0,-1,1574,820,0,0
357,204,0,0,0,0,0,0,0,0,0,-1,1581,820,0,0
364,204,0,0,0,0,0,0,0,0,0,-1,1588,820,0,0
371,204,0,0,0,0,0,0,0,0,0,-1,1595,820,0,0
378,204,0,0,0,0,0,0,0,0,0,-1,1602,820,0,0
385,204,0,0,0,0,0,0,0,0,0,-1,1609,820,0,0
392,204,0,0,0,0,0,0,0,0,0,-1,1616,820,0,0
399,204,0,0,0,0,0,0,0,0,0,-1,1623,820,0,0
406,204,0,0,0,0,0,0,0,0,0,-1,1630,820,0,0
413,204,0,0,0,0,0,0,0,0,0,-1,1637,820,0,0
420,204,0,0,0,0,0,0,0,0,0,-1,1644,820,0,0
427,204,0,0,0,0,0,0,0,0,0,-1,1651,820,0,0
434,204,0,0,0,0,0,0,0,0,0,-1,1658,820,0,0
441,204,0,0,0,0,0,0,0,0,0,-1,1665,820,0,0
448,204,0,0,0,0,0,0,0,0,0,-1,1672,820,0,0
455,204,0,0,0,0,0,0,0,0,0,-1,1679,820,0,0
462,204,0,0,0,0,0,0,0,0,0,-1,1686,820,0,0
469,204,0,0,0,0,0,0,0,0,0,-1,1693,820,0,0
476,204,0,0,0,0,0,0,0,0,0,-1,1700,820,0,0
483,204,0,0,0,0,0,0,0,0,0,-1,1707,820,0,0
490,204,0,0,0,0,0,0,0,0,0,-1,1714,820,0,0
497,204,0,0,0,0,0,0,0,0,0,-1,1721,820,0,0
504,204,0,0,0,0,0,0,0,0,0,-1,1728,820,0,0
511,204,0,0,0,0,0,0,0,0,0,-1,1735,820,0,0
518,204,0,0,0,0,0,0,0,0,0,-1,1742,820,0,0
525,204,0,0,0,0,0,0,0,0,0,-1,1749,820,0,0
532,204,0,0,0,0,0,0,0,0,0,-1,1756,820,0,0
539,204,0,0,0,0,0,0,0,0,0,-1,1763,820,0,0
546,204,0,0,0,0,0,0,0,0,0,-1,1770,820,0,0
553,204,0,0,0,0,0,0,0,0,0,-1,1777,820,0,0
560,204,0,0,0,0,0,0,0,0,0,-1,1784,820,0,0
567,204,0,0,0,0,0,0,0,0,0,-1,1791,820,0,0
574,204,0,0,0,0,0,0,0,0,0,-1,1798,820,0,0
581,204,0,0,0,0,0,0,0,0,0,-1,1805,820,0,0
588,204,0,0,0,0,0,0,0,0,0,-1,1812,820,0,0
595,204,0,0,0,0,0,0,0,0,0,-1,1819,820,0,0
602,204,40.9453,2.79498,0.00131449,0.00170054,-2.30686e-05,0.00170191,0.00131311,-1.51132,0.00102977,0.0400369,1826,820,40.9453,-2.795
609,204,40.8765,3.00287,0.00112481,0.00195113,3.06028e-05,0.00195226,0.00112368,1.53383,0.00113142,0.0446739,1833,820,40.8765,-3.00287
616,204,40.8656,2.8949,0.000866632,0.0016581,-0.000145308,0.00168393,0.000840798,-1.39484,0.000972217,0.0403304,1840,820,40.8656,-2.89492
623,204,40.8037,2.84369,0.000353044,0.00100862,-0.00050319,0.00128137,8.02948e-05,-1.07408,0.000828779,0.0299201,1847,820,40.8038,-2.8437
630,204,40.7988,2.87079,-0.000229879,0.00036636,-0.000862703,0.000981001,-0.00084452,-0.951757,0.00105495,0.0288643,1854,820,40.7989,-2.87081
637,204,40.8002,2.78552,-0.000762251,-0.000146008,-0.00112632,0.000713575,-0.00162183,-0.918914,0.00138192,0.0350899,1861,820,40.8002,-2.78552
644,204,40.7168,2.80438,-0.00124113,-0.000630888,-0.00131065,0.000409692,-0.00228171,-0.899762,0.0016745,0.0407745,1868,820,40.7168,-2.8044
651,204,40.4491,2.98798,0,0,0,0,0,0,0,-1,1875,820,40.4491,-2.98797
658,204,34.9631,1.64844,0,0,0,0,0,0,0,-1,1882,820,34.9631,-1.64842
665,204,21.8292,1.51099,0,0,0,0,0,0,0,-1,1889,820,21.8292,-1.51099
672,204,31.1855,0.474548,0,0,0,0,0,0,0,-1,1896,820,31.1855,-0.474542
679,204,31.1989,1.01923,-0.00236876,-0.00177227,-0.00173039,-0.000314611,-0.00382642,-0.870739,0.00245281,0.0363525,1903,820,31.1988,-1.01921
686,204,31.2037,1.61627,-0.00222586,-0.00171981,-0.00180925,-0.000145976,-0.00379969,-0.854873,0.0024859,0.0166645,1910,820,31.2038,-1.61627
693,204,31.1387,2.07111,-0.00183322,-0.00119662,-0.00169034,0.000205132,-0.00323497,-0.878461,0.00222817,0.0166601,1917,820,31.1387,-2.07109
700,204,31.1378,2.51898,-0.000992267,-0.00071979,-0.00129785,0.000448951,-0.00216101,-0.837693,0.00161131,0.0176705,1924,820,31.1378,-2.51896
707,204,31.1315,2.99915,0.000292676,-0.000302893,-0.000640463,0.000701198,-0.000711414,-0.567789,0.000815579,0.0155248,1931,820,31.1315,-2.99915
714,204,31.1362,3.54077,0.00193545,0.000447291,0.000224843,0.00196868,0.000414062,0.146727,0.00119851,0.0234251,1938,820,31.1362,-3.54079
721,204,31.1217,3.96252,0.00424535,0.00114142,0.00125815,0.00469127,0.000695506,0.340611,0.00292339,0.0223602,1945,820,31.1217,-3.96253
728,204,31.1278,4.35919,0.00702655,0.00171294,0.00247431,0.00800029,0.000739203,0.374924,0.005105,0.0137856,1952,820,31.1278,-4.35921
735,204,31.0715,4.83453,0.0106505,0.00224485,0.00400757,0.0122549,0.000640406,0.380812,0.00796505,0.0148905,1959,820,31.0715,-4.83453
742,204,31.1007,5.26007,0.0157111,0.00267562,0.00611268,0.018129,0.000257711,0.376669,0.012001,0.0311664,1966,820,31.1007,-5.26005
749,204,31.2695,5.84064,0.0230053,0.00284267,0.00897844,0.0264238,-0.000575835,0.363799,0.0178109,0.0470198,1973,820,31.2695,-5.84064
756,204,31.3796,6.43677,0,0,0,0,0,0,0,-1,1980,820,31.3796,-6.43674
763,204,30.1774,8.16174,0,0,0,0,0,0,0,-1,1987,820,30.1774,-8.16177
770,204,30.3047,9.32019,0,0,0,0,0,0,0,-1,1994,820,30.3047,-9.32018
777,204,0,0,0,0,0,0,0,0,0,-1,2001,820,0,0
784,204,0,0,0,0,0,0,0,0,0,-1,2008,820,0,0
791,204,0,0,0,0,0,0,0,0,0,-1,2015,820,0,0
798,204,0,0,0,0,0,0,0,0,0,-1,2022,820,0,0
805,204,0,0,0,0,0,0,0,0,0,-1,2029,820,0,0
812,204,0,0,0,0,0,0,0,0,0,-1,2036,820,0,0
-700,197,0,0,0,0,0,0,0,0,0,-1,524,827,0,0
-693,197,0,0,0,0,0,0,0,0,0,-1,531,827,0,0
-686,197,0,0,0,0,0,0,0,0,0,-1,538,827,0,0
-679,197,0,0,0,0,0,0,0,0,0,-1,545,827,0,0
-672,197,0,0,0,0,0,0,0,0,0,-1,552,827,0,0
-665,197,0,0,0,0,0,0,0,0,0,-1,559,827,0,0
-658,197,-24.5864,4.68567,0,0,0,0,0,0,0,-1,566,827,-24.5863,-4.68567
-651,197,-24.5098,5.50427,0,0,0,0,0,0,0,-1,573,827,-24.5097,-5.50425
-644,197,-23.3681,4.39154,0,0,0,0,0,0,0,-1,580,827,-23.3681,-4.39153
-637,197,-21.4561,4.97479,0,0,0,0,0,0,0,-1,587,827,-21.4561,-4.97478
-630,197,-21.5725,4.89893,0,0,0,0,0,0,0,-1,594,827,-21.5725,-4.89891
-623,197,-22.1842,3.60345,0.00404837,0.0160277,-0.00159671,0.0162369,0.00383919,-1.44054,0.00979883,0.0475492,601,827,-22.1842,-3.60342
-616,197,-21.6408,3.73047,0.0033239,0.012797,-0.00196523,0.0131885,0.00293239,-1.37415,0.00799618,0.0454377,608,827,-21.6408,-3.73045
-609,197,-21.786,2.80707,0.00297583,0.00981522,-0.00185651,0.0102867,0.00250439,-1.32211,0.0061941,0.0317451,615,827,-21.786,-2.80709
-602,197,-21.9615,2.19067,0.00253759,0.00728409,-0.00158001,0.00776194,0.00205974,-1.27711,0.00464292,0.0171444,622,827,-21.9615,-2.19066
-595,197,-22.0161,1.77686,0.00200056,0.00513691,-0.00116961,0.00552505,0.00161242,-1.25038,0.00328074,0.0179768,629,827,-22.0161,-1.77683
-588,197,-22.0379,1.30719,0.00146668,0.00325338,-0.000663567,0.00347286,0.0012472,-1.25136,0.00203141,0.0187341,636,827,-22.0379,-1.30721
-581,197,-22.0261,0.870361,0.000879369,0.00167803,-0.000122232,0.00169632,0.000861081,-1.42228,0.000979409,0.0114418,643,827,-22.0261,-0.870335
-574,197,-22.0266,0.485229,0.000474574,0.000478358,0.000355235,0.000831706,0.000121226,0.788061,0.000518805,0.0132176,650,827,-22.0266,-0.485215
-567,197,-22.0107,0.0723877,-1.9764e-05,8.81154e-05,0.000758352,0.000794444,-0.000726093,0.820902,0.000878178,0.0146753,657,827,-22.0107,-0.0724071
-560,197,-22.0037,-0.362,-0.00054065,2.61435e-06,0.000663014,0.000447482,-0.000985517,0.979815,0.000846558,0.0206874,664,827,-22.0037,0.36201
-553,197,-22.2598,-0.73468,-0.00114723,0.000457669,0.000518221,0.000610457,-0.00130002,1.28409,0.00112671,0.0237101,671,827,-22.2598,0.734706
-546,197,-22.1529,-1.13171,-0.00175585,0.00144395,0.00085329,0.00165728,-0.00196917,1.32582,0.00209631,0.038314,678,827,-22.1529,1.13169
-539,197,-22.094,-1.46301,0,0,0,0,0,0,0,-1,685,827,-22.094,1.46299
-532,197,-16.0519,0.0410156,0,0,0,0,0,0,0,-1,692,827,-16.0519,-0.0410415
-525,197,-29.485,1.46039,0,0,0,0,0,0,0,-1,699,827,-29.485,-1.46041
-518,197,-29.6429,1.42017,-0.0028115,0.00586694,0.000140136,0.0058692,-0.00281376,1.55465,0.00511552,0.0464331,706,827,-29.6429,-1.42016
-511,197,-29.9232,1.19525,-0.00294415,0.00712086,-0.000152581,0.00712318,-0.00294646,-1.55564,0.00597809,0.0450863,713,827,-29.9232,-1.19524
-504,197,-30.0964,0.932373,-0.00274322,0.00821994,-0.000551798,0.00824764,-0.00277092,-1.52063,0.00661833,0.0403243,720,827,-30.0964,-0.932344
-497,197,-30.1286,0.865295,-0.00232741,0.00879899,-0.0011976,0.00892643,-0.00245486,-1.46478,0.00691603,0.0390901,727,827,-30.1286,-0.865306
-490,197,-30.1914,0.805054,-0.00147461,0.00810196,-0.00224476,0.00860202,-0.00197467,-1.35161,0.00649377,0.0383394,734,827,-30.1914,-0.805045
-483,197,-30.2522,0.748352,0.00040616,0.00455431,-0.00388513,0.00688433,-0.00192386,-1.03058,0.00534747,0.0437482,741,827,-30.2522,-0.748338
-476,197,0,0,0,0,0,0,0,0,0,-1,748,827,0,0
-469,197,0,0,0,0,0,0,0,0,0,-1,755,827,0,0
-462,197,0,0,0,0,0,0,0,0,0,-1,762,827,0,0
-455,197,0,0,0,0,0,0,0,0,0,-1,769,827,0,0
-448,197,0,0,0,0,0,0,0,0,0,-1,776,827,0,0
-441,197,0,0,0,0,0,0,0,0,0,-1,783,827,0,0
-434,197,0,0,0,0,0,0,0,0,0,-1,790,827,0,0
-427,197,0,0,0,0,0,0,0,0,0,-1,797,827,0,0
-420,197,0,0,0,0,0,0,0,0,0,-1,804,827,0,0
-413,197,0,0,0,0,0,0,0,0,0,-1,811,827,0,0
-406,197,0,0,0,0,0,0,0,0,0,-1,818,827,0,0
-399,197,0,0,0,0,0,0,0,0,0,-1,825,827,0,0
-392,197,0,0,0,0,0,0,0,0,0,-1,832,827,0,0
-385,197,0,0,0,0,0,0,0,0,0,-1,839,827,0,0
-378,197,0,0,0,0,0,0,0,0,0,-1,846,827,0,0
-371,197,0,0,0,0,0,0,0,0,0,-1,853,827,0,0
-364,197,0,0,0,0,0,0,0,0,0,-1,860,827,0,0
-357,197,0,0,0,0,0,0,0,0,0,-1,867,827,0,0
-350,197,0,0,0,0,0,0,0,0,0,-1,874,827,0,0
-343,197,0,0,0,0,0,0,0,0,0,-1,881,827,0,0
-336,197,0,0,0,0,0,0,0,0,0,-1,888,827,0,0
-329,197,0,0,0,0,0,0,0,0,0,-1,895,827,0,0
-322,197,0,0,0,0,0,0,0,0,0,-1,902,827,0,0
-315,197,0,0,0,0,0,0,0,0,0,-1,909,827,0,0
-308,197,0,0,0,0,0,0,0,0,0,-1,916,827,0,0
-301,197,0,0,0,0,0,0,0,0,0,-1,923,827,0,0
-294,197,0,0,0,0,0,0,0,0,0,-1,930,827,0,0
-287,197,0,0,0,0,0,0,0,0,0,-1,937,827,0,0
-280,197,0,0,0,0,0,0,0,0,0,-1,944,827,0,0
-273,197,0,0,0,0,0,0,0,0,0,-1,951,827,0,0
-266,197,0,0,0,0,0,0,0,0,0,-1,958,827,0,0
-259,197,0,0,0,0,0,0,0,0,0,-1,965,827,0,0
-252,197,0,0,0,0,0,0,0,0,0,-1,972,827,0,0
-245,197,0,0,0,0,0,0,0,0,0,-1,979,827,0,0
-238,197,0,0,0,0,0,0,0,0,0,-1,986,827,0,0
-231,197,0,0,0,0,0,0,0,0,0,-1,993,827,0,0
-224,197,0,0,0,0,0,0,0,0,0,-1,1000,827,0,0
-217,197,0,0,0,0,0,0,0,0,0,-1,1007,827,0,0
-210,197,0,0,0,0,0,0,0,0,0,-1,1014,827,0,0
-203,197,0,0,0,0,0,0,0,0,0,-1,1021,827,0,0
-196,197,0,0,0,0,0,0,0,0,0,-1,1028,827,0,0
-189,197,0,0,0,0,0,0,0,0,0,-1,1035,827,0,0
-182,197,0,0,0,0,0,0,0,0,0,-1,1042,827,0,0
-175,197,0,0,0,0,0,0,0,0,0,-1,1049,827,0,0
-168,197,0,0,0,0,0,0,0,0,0,-1,1056,827,0,0
-161,197,0,0,0,0,0,0,0,0,0,-1,1063,827,0,0
-154,197,0,0,0,0,0,0,0,0,0,-1,1070,827,0,0
-147,197,0,0,0,0,0,0,0,0,0,-1,1077,827,0,0
-140,197,0,0,0,0,0,0,0,0,0,-1,1084,827,0,0
-133,197,0,0,0,0,0,0,0,0,0,-1,1091,827,0,0
-126,197,0,0,0,0,0,0,0,0,0,-1,1098,827,0,0
-119,197,0,0,0,0,0,0,0,0,0,-1,1105,827,0,0
-112,197,0,0,0,0,0,0,0,0,0,-1,1112,827,0,0
-105,197,0,0,0,0,0,0,0,0,0,-1,1119,827,0,0
-98,197,0,0,0,0,0,0,0,0,0,-1,1126,827,0,0
-91,197,0,0,0,0,0,0,0,0,0,-1,1133,827,0,0
-84,197,0,0,0,0,0,0,0,0,0,-1,1140,827,0,0
-77,197,0,0,0,0,0,0,0,0,0,-1,1147,827,0,0
-70,197,0,0,0,0,0,0,0,0,0,-1,1154,827,0,0
-63,197,0,0,0,0,0,0,0,0,0,-1,1161,827,0,0
-56,197,0,0,0,0,0,0,0,0,0,-1,1168,827,0,0
-49,197,0,0,0,0,0,0,0,0,0,-1,1175,827,0,0
-42,197,0,0,0,0,0,0,0,0,0,-1,1182,827,0,0
-35,197,0,0,0,0,0,0,0,0,0,-1,1189,827,0,0
-28,197,0,0,0,0,0,0,0,0,0,-1,1196,827,0,0
-21,197,0,0,0,0,0,0,0,0,0,-1,1203,827,0,0
-14,197,0,0,0,0,0,0,0,0,0,-1,1210,827,0,0
-7,197,0,0,0,0,0,0,0,0,0,-1,1217,827,0,0
0,197,0,0,0,0,0,0,0,0,0,-1,1224,827,0,0
7,197,0,0,0,0,0,0,0,0,0,-1,1231,827,0,0
14,197,0,0,0,0,0,0,0,0,0,-1,1238,827,0,0
21,197,0,0,0,0,0,0,0,0,0,-1,1245,827,0,0
28,197,0,0,0,0,0,0,0,0,0,-1,1252,827,0,0
35,197,0,0,0,0,0,0,0,0,0,-1,1259,827,0,0
42,197,0,0,0,0,0,0,0,0,0,-1,1266,827,0,0
49,197,0,0,0,0,0,0,0,0,0,-1,1273,827,0,0
56,197,0,0,0,0,0,0,0,0,0,-1,1280,827,0,0
63,197,0,0,0,0,0,0,0,0,0,-1,1287,827,0,0
70,197,0,0,0,0,0,0,0,0,0,-1,1294,827,0,0
77,197,0,0,0,0,0,0,0,0,0,-1,1301,827,0,0
84,197,0,0,0,0,0,0,0,0,0,-1,1308,827,0,0
91,197,0,0,0,0,0,0,0,0,0,-1,1315,827,0,0
98,197,0,0,0,0,0,0,0,0,0,-1,1322,827,0,0
105,197,0,0,0,0,0,0,0,0,0,-1,1329,827,0,0
112,197,0,0,0,0,0,0,0,0,0,-1,1336,827,0,0
119,197,0,0,0,0,0,0,0,0,0,-1,1343,827,0,0
126,197,0,0,0,0,0,0,0,0,0,-1,1350,827,0,0
133,197,0,0,0,0,0,0,0,0,0,-1,1357,827,0,0
140,197,0,0,0,0,0,0,0,0,0,-1,1364,827,0,0
147,197,0,0,0,0,0,0,0,0,0,-1,1371,827,0,0
154,197,0,0,0,0,0,0,0,0,0,-1,1378,827,0,0
161,197,0,0,0,0,0,0,0,0,0,-1,1385,827,0,0
168,197,0,0,0,0,0,0,0,0,0,-1,1392,827,0,0
175,197,0,0,0,0,0,0,0,0,0,-1,1399,827,0,0
182,197,0,0,0,0,0,0,0,0,0,-1,1406,827,0,0
189,197,0,0,0,0,0,0,0,0,0,-1,1413,827,0,0
196,197,0,0,0,0,0,0,0,0,0,-1,1420,827,0,0
203,197,0,0,0,0,0,0,0,0,0,-1,1427,827,0,0
210,197,0,0,0,0,0,0,0,0,0,-1,1434,827,0,0
217,197,0,0,0,0,0,0,0,0,0,-1,1441,827,0,0
224,197,0,0,0,0,0,0,0,0,0,-1,1448,827,0,0
231,197,0,0,0,0,0,0,0,0,0,-1,1455,827,0,0
238,197,0,0,0,0,0,0,0,0,0,-1,1462,827,0,0
245,197,0,0,0,0,0,0,0,0,0,-1,1469,827,0,0
252,197,0,0,0,0,0,0,0,0,0,-1,1476,827,0,0
259,197,0,0,0,0,0,0,0,0,0,-1,1483,827,0,0
266,197,0,0,0,0,0,0,0,0,0,-1,1490,827,0,0
273,197,0,0,0,0,0,0,0,0,0,-1,1497,827,0,0
280,197,0,0,0,0,0,0,0,0,0,-1,1504,827,0,0
287,197,0,0,0,0,0,0,0,0,0,-1,1511,827,0,0
294,197,0,0,0,0,0,0,0,0,0,-1,1518,827,0,0
301,197,0,0,0,0,0,0,0,0,0,-1,1525,827,0,0
308,197,0,0,0,0,0,0,0,0,0,-1,1532,827,0,0
315,197,0,0,0,0,0,0,0,0,0,-1,1539,827,0,0
322,197,0,0,0,0,0,0,0,0,0,-1,1546,827,0,0
329,197,0,0,0,0,0,0,0,0,0,-1,1553,827,0,0
336,197,0,0,0,0,0,0,0,0,0,-1,1560,827,0,0
343,197,0,0,0,0,0,0,0,0,0,-1,1567,827,0,0
350,197,0,0,0,0,0,0,0,0,0,-1,1574,827,0,0
357,197,0,0,0,0,0,0,0,0,0,-1,1581,827,0,0
364,197,0,0,0,0,0,0,0,0,0,-1,1588,827,0,0
371,197,0,0,0,0,0,0,0,0,0,-1,1595,827,0,0
378,197,0,0,0,0,0,0,0,0,0,-1,1602,827,0,0
385,197,0,0,0,0,0,0,0,0,0,-1,1609,827,0,0
392,197,0,0,0,0,0,0,0,0,0,-1,1616,827,0,0
399,197,0,0,0,0,0,0,0,0,0,-1,1623,827,0,0
406,197,0,0,0,0,0,0,0,0,0,-1,1630,827,0,0
413,197,0,0,0,0,0,0,0,0,0,-1,1637,827,0,0
420,197,0,0,0,0,0,0,0,0,0,-1,1644,827,0,0
427,197,0,0,0,0,0,0,0,0,0,-1,1651,827,0,0
434,197,0,0,0,0,0,0,0,0,0,-1,1658,827,0,0
441,197,0,0,0,0,0,0,0,0,0,-1,1665,827,0,0
448,197,0,0,0,0,0,0,0,0,0,-1,1672,827,0,0
455,197,0,0,0,0,0,0,0,0,0,-1,1679,827,0,0
462,197,0,0,0,0,0,0,0,0,0,-1,1686,827,0,0
469,197,0,0,0,0,0,0,0,0,0,-1,1693,827,0,0
476,197,0,0,0,0,0,0,0,0,0,-1,1700,827,0,0
483,197,0,0,0,0,0,0,0,0,0,-1,1707,827,0,0
490,197,0,0,0,0,0,0,0,0,0,-1,1714,827,0,0
497,197,0,0,0,0,0,0,0,0,0,-1,1721,827,0,0
504,197,0,0,0,0,0,0,0,0,0,-1,1728,827,0,0
511,197,0,0,0,0,0,0,0,0,0,-1,1735,827,0,0
518,197,0,0,0,0,0,0,0,0,0,-1,1742,827,0,0
525,197,0,0,0,0,0,0,0,0,0,-1,1749,827,0,0
532,197,0,0,0,0,0,0,0,0,0,-1,1756,827,0,0
539,197,0,0,0,0,0,0,0,0,0,-1,1763,827,0,0
546,197,0,0,0,0,0,0,0,0,0,-1,1770,827,0,0
553,197,0,0,0,0,0,0,0,0,0,-1,1777,827,0,0
560,197,0,0,0,0,0,0,0,0,0,-1,1784,827,0,0
567,197,0,0,0,0,0,0,0,0,0,-1,1791,827,0,0
574,197,0,0,0,0,0,0,0,0,0,-1,1798,827,0,0
581,197,0,0,0,0,0,0,0,0,0,-1,1805,827,0,0
588,197,0,0,0,0,0,0,0,0,0,-1,1812,827,0,0
595,197,0,0,0,0,0,0,0,0,0,-1,1819,827,0,0
602,197,40.9176,2.9325,0.00139883,0.00174916,-0.000399308,0.00201003,0.00113795,-0.992097,0.00116387,0.0400689,1826,827,40.9176,-2.9325
609,197,40.8916,2.91418,0.00125591,0.00191873,-0.000171018,0.00196026,0.00121439,-1.3326,0.00114248,0.0433351,1833,827,40.8917,-2.91419
616,197,40.8512,2.61206,0,0,0,0,0,0,0,-1,1840,827,40.8512,-2.61204
623,197,40.8059,2.57715,0.00054634,0.00103337,-0.000449448,0.00130103,0.000278678,-1.03367,0.000791,0.038414,1847,827,40.8059,-2.57715
630,197,40.9308,2.6601,-0.000115204,0.000418471,-0.000785022,0.000980766,-0.0006775,-0.949228,0.000962722,0.0327372,1854,827,40.9308,-2.66009
637,197,40.8835,2.74438,-0.000732424,-8.14553e-05,-0.00105964,0.000701566,-0.00151544,-0.934406,0.00130843,0.0296018,1861,827,40.8835,-2.74441
644,197,40.8887,2.71515,-0.00123543,-0.000550058,-0.00126349,0.000416399,-0.00220188,-0.917822,0.00162461,0.0350314,1868,827,40.8887,-2.71517
651,197,40.634,2.90247,-0.00157225,-0.00098018,-0.0014254,0.000179597,-0.00273203,-0.887786,0.00188408,0.0482306,1875,827,40.634,-2.90244
658,197,40.4694,3.05927,0,0,0,0,0,0,0,-1,1882,827,40.4694,-3.05926
665,197,14.0618,1.80304,0,0,0,0,0,0,0,-1,1889,827,14.0617,-1.80303
672,197,32.0477,0.319702,0,0,0,0,0,0,0,-1,1896,827,32.0478,-0.319726
679,197,31.8516,1.12842,-0.00241083,-0.00170906,-0.00169247,-0.00033148,-0.00378841,-0.887611,0.00242268,0.0460986,1903,827,31.8515,-1.12841
686,197,31.6768,1.67206,-0.00225721,-0.00174181,-0.00180845,-0.000172793,-0.00382623,-0.856172,0.00249522,0.0280195,1910,827,31.6768,-1.67208
693,197,31.6196,2.14343,-0.00194829,-0.00135478,-0.00176439,0.000137638,-0.0034407,-0.868715,0.00234103,0.0159679,1917,827,31.6196,-2.14343
700,197,31.5739,2.56708,-0.00127392,-0.000978034,-0.00147501,0.000356429,-0.00260838,-0.835382,0.0018691,0.0204081,1924,827,31.5739,-2.56707
707,197,31.6248,3.01746,-0.000106365,-0.000655654,-0.000894189,0.000554407,-0.00131643,-0.636399,0.00110959,0.00924214,1931,827,31.6248,-3.01745
714,197,31.6008,3.48639,0.00155808,0.000104423,-6.60743e-05,0.00156108,0.000101426,-0.0453292,0.00100861,0.0115068,1938,827,31.6008,-3.48642
721,197,31.5897,3.93378,0.00418323,0.000896618,0.000965209,0.00444572,0.000634121,0.265536,0.00277668,0.012281,1945,827,31.5898,-3.93381
728,197,31.5732,4.37878,0.00738922,0.00159551,0.00223501,0.00815119,0.000833537,0.328569,0.00517869,0.0107246,1952,827,31.5733,-4.37881
735,197,31.5508,4.83759,0.0116134,0.00229367,0.00383306,0.0129873,0.000919734,0.344176,0.0083685,0.011109,1959,827,31.5508,-4.83757
742,197,31.5503,5.33014,0.0175038,0.00302595,0.00600622,0.0196711,0.000858665,0.346299,0.0128374,0.0206416,1966,827,31.5503,-5.33014
749,197,31.6051,5.89063,0.025979,0.00370279,0.0089599,0.0291356,0.000546237,0.33872,0.0192442,0.0444557,1973,827,31.6052,-5.89064
756,197,31.6322,6.46136,0,0,0,0,0,0,0,-1,1980,827,31.6322,-6.46135
763,197,30.7603,6.76434,0,0,0,0,0,0,0,-1,1987,827,30.7603,-6.76436
770,197,30.7877,9.19574,0,0,0,0,0,0,0,-1,1994,827,30.7878,-9.19576
777,197,0,0,0,0,0,0,0,0,0,-1,2001,827,0,0
784,197,0,0,0,0,0,0,0,0,0,-1,2008,827,0,0
791,197,0,0,0,0,0,0,0,0,0,-1,2015,827,0,0
798,197,0,0,0,0,0,0,0,0,0,-1,2022,827,0,0
805,197,0,0,0,0,0,0,0,0,0,-1,2029,827,0,0
812,197,0,0,0,0,0,0,0,0,0,-1,2036,827,0,0
-700,190,0,0,0,0,0,0,0,0,0,-1,524,834,0,0
-693,190,0,0,0,0,0,0,0,0,0,-1,531,834,0,0
-686,190,0,0,0,0,0,0,0,0,0,-1,538,834,0,0
-679,190,0,0,0,0,0,0,0,0,0,-1,545,834,0,0
-672,190,0,0,0,0,0,0,0,0,0,-1,552,834,0,0
-665,190,0,0,0,0,0,0,0,0,0,-1,559,834,0,0
-658,190,-24.217,3.86798,0,0,0,0,0,0,0,-1,566,834,-24.2171,-3.86798
-651,190,-24.1994,4.14728,0,0,0,0,0,0,0,-1,573,834,-24.1994,-4.14729
-644,190,-23.5632,4.28741,0,0,0,0,0,0,0,-1,580,834,-23.5632,-4.28742
-637,190,-21.7346,4.8725,0,0,0,0,0,0,0,-1,587,834,-21.7346,-4.87252
-630,190,-21.3593,3.12286,0,0,0,0,0,0,0,-1,594,834,-21.3593,-3.12285
-623,190,-22.3549,3.49683,-6.27045e-05,0.015159,0.000675115,0.0151889,-9.25884e-05,1.52656,0.0101569,0.0494443,601,834,-22.3549,-3.49684
-616,190,-22.3474,3.02057,-0.000202761,0.0121642,7.12407e-05,0.0121646,-0.000203171,1.56504,0.00817831,0.0442338,608,834,-22.3474,-3.02058
-609,190,-22.3608,2.57288,-6.98339e-05,0.00933268,-8.56162e-05,0.00933346,-7.06138e-05,-1.56169,0.00624598,0.0246601,615,834,-22.3607,-2.5729
-602,190,-22.4178,2.19305,-4.2094e-05,0.00688978,-5.70574e-05,0.00689025,-4.25635e-05,-1.56257,0.00460775,0.0161963,622,834,-22.4178,-2.19303
-595,190,-22.4554,1.7782,-8.79354e-05,0.00475301,0.000116312,0.0047558,-9.07285e-05,1.54679,0.00320121,0.0184092,629,834,-22.4554,-1.77818
-588,190,-22.4716,1.33521,-0.00011525,0.00290131,0.000360599,0.00294381,-0.000157757,1.45346,0.00201719,0.0169068,636,834,-22.4716,-1.33518
-581,190,-22.455,0.902527,-0.000219955,0.00142389,0.000633653,0.00163979,-0.000435854,1.24241,0.00126378,0.011456,643,834,-22.455,-0.902549
-574,190,-22.4493,0.475952,-0.000212779,0.000325097,0.000841733,0.000939811,-0.000827493,0.940025,0.00102104,0.0107471,650,834,-22.4493,-0.47593
-567,190,-22.4047,-0.000854492,-0.000356667,0.000174874,0.000984572,0.000928915,-0.00111071,0.917224,0.00117914,0.0184689,657,834,-22.4047,0.000882756
-560,190,-22.5071,-0.340576,-0.000649278,0.000205677,0.000639114,0.000547098,-0.000990698,1.08016,0.000900076,0.0384291,664,834,-22.5072,0.340583
-553,190,-22.6093,-0.734436,-0.00111856,0.000675499,0.000336115,0.000736402,-0.00117946,1.39154,0.00111594,0.0332296,671,834,-22.6092,0.734417
-546,190,-22.1991,-0.995056,0,0,0,0,0,0,0,-1,678,834,-22.1991,0.995035
-539,190,-16.4624,-0.542542,0,0,0,0,0,0,0,-1,685,834,-16.4624,0.542527
-532,190,-21.6292,2.06122,0,0,0,0,0,0,0,-1,692,834,-21.6292,-2.06123
-525,190,-30.2114,0.638245,0,0,0,0,0,0,0,-1,699,834,-30.2113,-0.638229
-518,190,-30.0971,0.900696,-0.00283767,0.00564145,-0.000377657,0.00565824,-0.00285446,-1.52637,0.00500288,0.0480793,706,834,-30.0971,-0.900667
-511,190,-30.1144,0.967346,-0.00303784,0.00679321,-0.000649591,0.00683595,-0.00308057,-1.5051,0.00586055,0.0441542,713,834,-30.1145,-0.967346
-504,190,-30.2415,0.756775,-0.0029013,0.00763336,-0.00100043,0.00772752,-0.00299547,-1.47695,0.00638871,0.0426824,720,834,-30.2415,-0.756747
-497,190,-30.0826,0.53363,-0.00247772,0.00768028,-0.00158087,0.00792062,-0.00271806,-1.41992,0.00638237,0.0422851,727,834,-30.0826,-0.533635
-490,190,-30.1636,0.602783,-0.00136882,0.00587308,-0.00246612,0.00663311,-0.00212886,-1.27184,0.00527683,0.0410205,734,834,-30.1636,-0.602771
-483,190,0,0,0,0,0,0,0,0,0,-1,741,834,0,0
-476,190,0,0,0,0,0,0,0,0,0,-1,748,834,0,0
-469,190,0,0,0,0,0,0,0,0,0,-1,755,834,0,0
-462,190,0,0,0,0,0,0,0,0,0,-1,762,834,0,0
-455,190,0,0,0,0,0,0,0,0,0,-1,769,834,0,0
-448,190,0,0,0,0,0,0,0,0,0,-1,776,834,0,0
-441,190,0,0,0,0,0,0,0,0,0,-1,783,834,0,0
-434,190,0,0,0,0,0,0,0,0,0,-1,790,834,0,0
-427,190,0,0,0,0,0,0,0,0,0,-1,797,834,0,0
-420,190,0,0,0,0,0,0,0,0,0,-1,804,834,0,0
-413,190,0,0,0,0,0,0,0,0,0,-1,811,834,0,0
-406,190,0,0,0,0,0,0,0,0,0,-1,818,834,0,0
-399,190,0,0,0,0,0,0,0,0,0,-1,825,834,0,0
-392,190,0,0,0,0,0,0,0,0,0,-1,832,834,0,0
-385,190,0,0,0,0,0,0,0,0,0,-1,839,834,0,0
-378,190,0,0,0,0,0,0,0,0,0,-1,846,834,0,0
-371,190,0,0,0,0,0,0,0,0,0,-1,853,834,0,0
-364,190,0,0,0,0,0,0,0,0,0,-1,860,834,0,0
-357,190,0,0,0,0,0,0,0,0,0,-1,867,834,0,0
-350,190,0,0,0,0,0,0,0,0,0,-1,874,834,0,0
-343,190,0,0,0,0,0,0,0,0,0,-1,881,834,0,0
-336,190,0,0,0,0,0,0,0,0,0,-1,888,834,0,0
-329,190,0,0,0,0,0,0,0,0,0,-1,895,834,0,0
-322,190,0,0,0,0,0,0,0,0,0,-1,902,834,0,0
-315,190,0,0,0,0,0,0,0,0,0,-1,909,834,0,0
-308,190,0,0,0,0,0,0,0,0,0,-1,916,834,0,0
-301,190,0,0,0,0,0,0,0,0,0,-1,923,834,0,0
-294,190,0,0,0,0,0,0,0,0,0,-1,930,834,0,0
-287,190,0,0,0,0,0,0,0,0,0,-1,937,834,0,0
-280,190,0,0,0,0,0,0,0,0,0,-1,944,834,0,0
-273,190,0,0,0,0,0,0,0,0,0,-1,951,834,0,0
-266,190,0,0,0,0,0,0,0,0,0,-1,958,834,0,0
-259,190,0,0,0,0,0,0,0,0,0,-1,965,834,0,0
-252,190,0,0,0,0,0,0,0,0,0,-1,972,834,0,0
-245,190,0,0,0,0,0,0,0,0,0,-1,979,834,0,0
-238,190,0,0,0,0,0,0,0,0,0,-1,986,834,0,0
-231,190,0,0,0,0,0,0,0,0,0,-1,993,834,0,0
-224,190,0,0,0,0,0,0,0,0,0,-1,1000,834,0,0
-217,190,0,0,0,0,0,0,0,0,0,-1,1007,834,0,0
-210,190,0,0,0,0,0,0,0,0,0,-1,1014,834,0,0
-203,190,0,0,0,0,0,0,0,0,0,-1,1021,834,0,0
-196,190,0,0,0,0,0,0,0,0,0,-1,1028,834,0,0
-189,190,0,0,0,0,0,0,0,0,0,-1,1035,834,0,0
-182,190,0,0,0,0,0,0,0,0,0,-1,1042,834,0,0
-175,190,0,0,0,0,0,0,0,0,0,-1,1049,834,0,0
-168,190,0,0,0,0,0,0,0,0,0,-1,1056,834,0,0
-161,190,0,0,0,0,0,0,0,0,0,-1,1063,834,0,0
-154,190,0,0,0,0,0,0,0,0,0,-1,1070,834,0,0
-147,190,0,0,0,0,0,0,0,0,0,-1,1077,834,0,0
-140,190,0,0,0,0,0,0,0,0,0,-1,1084,834,0,0
-133,190,0,0,0,0,0,0,0,0,0,-1,1091,834,0,0
-126,190,0,0,0,0,0,0,0,0,0,-1,1098,834,0,0
-119,190,0,0,0,0,0,0,0,0,0,-1,1105,834,0,0
-112,190,0,0,0,0,0,0,0,0,0,-1,1112,834,0,0
-105,190,0,0,0,0,0,0,0,0,0,-1,1119,834,0,0
-98,190,0,0,0,0,0,0,0,0,0,-1,1126,834,0,0
-91,190,0,0,0,0,0,0,0,0,0,-1,1133,834,0,0
-84,190,0,0,0,0,0,0,0,0,0,-1,1140,834,0,0
-77,190,0,0,0,0,0,0,0,0,0,-1,1147,834,0,0
-70,190,0,0,0,0,0,0,0,0,0,-1,1154,834,0,0
-63,190,0,0,0,0,0,0,0,0,0,-1,1161,834,0,0
-56,190,0,0,0,0,0,0,0,0,0,-1,1168,834,0,0
-49,190,0,0,0,0,0,0,0,0,0,-1,1175,834,0,0
-42,190,0,0,0,0,0,0,0,0,0,-1,1182,834,0,0
-35,190,0,0,0,0,0,0,0,0,0,-1,1189,834,0,0
-28,190,0,0,0,0,0,0,0,0,0,-1,1196,834,0,0
-21,190,0,0,0,0,0,0,0,0,0,-1,1203,834,0,0
-14,190,0,0,0,0,0,0,0,0,0,-1,1210,834,0,0
-7,190,0,0,0,0,0,0,0,0,0,-1,1217,834,0,0
0,190,0,0,0,0,0,0,0,0,0,-1,1224,834,0,0
7,190,0,0,0,0,0,0,0,0,0,-1,1231,834,0,0
14,190,0,0,0,0,0,0,0,0,0,-1,1238,834,0,0
21,190,0,0,0,0,0,0,0,0,0,-1,1245,834,0,0
28,190,0,0,0,0,0,0,0,0,0,-1,1252,834,0,0
35,190,0,0,0,0,0,0,0,0,0,-1,1259,834,0,0
42,190,0,0,0,0,0,0,0,0,0,-1,1266,834,0,0
49,190,0,0,0,0,0,0,0,0,0,-1,1273,834,0,0
56,190,0,0,0,0,0,0,0,0,0,-1,1280,834,0,0
63,190,0,0,0,0,0,0,0,0,0,-1,1287,834,0,0
70,190,0,0,0,0,0,0,0,0,0,-1,1294,834,0,0
77,190,0,0,0,0,0,0,0,0,0,-1,1301,834,0,0
84,190,0,0,0,0,0,0,0,0,0,-1,1308,834,0,0
91,190,0,0,0,0,0,0,0,0,0,-1,1315,834,0,0
98,190,0,0,0,0,0,0,0,0,0,-1,1322,834,0,0
105,190,0,0,0,0,0,0,0,0,0,-1,1329,834,0,0
112,190,0,0,0,0,0,0,0,0,0,-1,1336,834,0,0
119,190,0,0,0,0,0,0,0,0,0,-1,1343,834,0,0
126,190,0,0,0,0,0,0,0,0,0,-1,1350,834,0,0
133,190,0,0,0,0,0,0,0,0,0,-1,1357,834,0,0
140,190,0,0,0,0,0,0,0,0,0,-1,1364,834,0,0
147,190,0,0,0,0,0,0,0,0,0,-1,1371,834,0,0
154,190,0,0,0,0,0,0,0,0,0,-1,1378,834,0,0
161,190,0,0,0,0,0,0,0,0,0,-1,1385,834,0,0
168,190,0,0,0,0,0,0,0,0,0,-1,1392,834,0,0
175,190,0,0,0,0,0,0,0,0,0,-1,1399,834,0,0
182,190,0,0,0,0,0,0,0,0,0,-1,1406,834,0,0
189,190,0,0,0,0,0,0,0,0,0,-1,1413,834,0,0
196,190,0,0,0,0,0,0,0,0,0,-1,1420,834,0,0
203,190,0,0,0,0,0,0,0,0,0,-1,1427,834,0,0
210,190,0,0,0,0,0,0,0,0,0,-1,1434,834,0,0
217,190,0,0,0,0,0,0,0,0,0,-1,1441,834,0,0
224,190,0,0,0,0,0,0,0,0,0,-1,1448,834,0,0
231,190,0,0,0,0,0,0,0,0,0,-1,1455,834,0,0
238,190,0,0,0,0,0,0,0,0,0,-1,1462,834,0,0
245,190,0,0,0,0,0,0,0,0,0,-1,1469,834,0,0
252,190,0,0,0,0,0,0,0,0,0,-1,1476,834,0,0
259,190,0,0,0,0,0,0,0,0,0,-1,1483,834,0,0
266,190,0,0,0,0,0,0,0,0,0,-1,1490,834,0,0
273,190,0,0,0,0,0,0,0,0,0,-1,1497,834,0,0
280,190,0,0,0,0,0,0,0,0,0,-1,1504,834,0,0
287,190,0,0,0,0,0,0,0,0,0,-1,1511,834,0,0
294,190,0,0,0,0,0,0,0,0,0,-1,1518,834,0,0
301,190,0,0,0,0,0,0,0,0,0,-1,1525,834,0,0
308,190,0,0,0,0,0,0,0,0,0,-1,1532,834,0,0
315,190,0,0,0,0,0,0,0,0,0,-1,1539,834,0,0
322,190,0,0,0,0,0,0,0,0,0,-1,1546,834,0,0
329,190,0,0,0,0,0,0,0,0,0,-1,1553,834,0,0
336,190,0,0,0,0,0,0,0,0,0,-1,1560,834,0,0
343,190,0,0,0,0,0,0,0,0,0,-1,1567,834,0,0
350,190,0,0,0,0,0,0,0,0,0,-1,1574,834,0,0
357,190,0,0,0,0,0,0,0,0,0,-1,1581,834,0,0
364,190,0,0,0,0,0,0,0,0,0,-1,1588,834,0,0
371,190,0,0,0,0,0,0,0,0,0,-1,1595,834,0,0
378,190,0,0,0,0,0,0,0,0,0,-1,1602,834,0,0
385,190,0,0,0,0,0,0,0,0,0,-1,1609,834,0,0
392,190,0,0,0,0,0,0,0,0,0,-1,1616,834,0,0
399,190,0,0,0,0,0,0,0,0,0,-1,1623,834,0,0
406,190,0,0,0,0,0,0,0,0,0,-1,1630,834,0,0
413,190,0,0,0,0,0,0,0,0,0,-1,1637,834,0,0
420,190,0,0,0,0,0,0,0,0,0,-1,1644,834,0,0
427,190,0,0,0,0,0,0,0,0,0,-1,1651,834,0,0
434,190,0,0,0,0,0,0,0,0,0,-1,1658,834,0,0
441,190,0,0,0,0,0,0,0,0,0,-1,1665,834,0,0
448,190,0,0,0,0,0,0,0,0,0,-1,1672,834,0,0
455,190,0,0,0,0,0,0,0,0,0,-1,1679,834,0,0
462,190,0,0,0,0,0,0,0,0,0,-1,1686,834,0,0
469,190,0,0,0,0,0,0,0,0,0,-1,1693,834,0,0
476,190,0,0,0,0,0,0,0,0,0,-1,1700,834,0,0
483,190,0,0,0,0,0,0,0,0,0,-1,1707,834,0,0
490,190,0,0,0,0,0,0,0,0,0,-1,1714,834,0,0
497,190,0,0,0,0,0,0,0,0,0,-1,1721,834,0,0
504,190,0,0,0,0,0,0,0,0,0,-1,1728,834,0,0
511,190,0,0,0,0,0,0,0,0,0,-1,1735,834,0,0
518,190,0,0,0,0,0,0,0,0,0,-1,1742,834,0,0
525,190,0,0,0,0,0,0,0,0,0,-1,1749,834,0,0
532,190,0,0,0,0,0,0,0,0,0,-1,1756,834,0,0
539,190,0,0,0,0,0,0,0,0,0,-1,1763,834,0,0
546,190,0,0,0,0,0,0,0,0,0,-1,1770,834,0,0
553,190,0,0,0,0,0,0,0,0,0,-1,1777,834,0,0
560,190,0,0,0,0,0,0,0,0,0,-1,1784,834,0,0
567,190,0,0,0,0,0,0,0,0,0,-1,1791,834,0,0
574,190,0,0,0,0,0,0,0,0,0,-1,1798,834,0,0
581,190,0,0,0,0,0,0,0,0,0,-1,1805,834,0,0
588,190,0,0,0,0,0,0,0,0,0,-1,1812,834,0,0
595,190,0,0,0,0,0,0,0,0,0,-1,1819,834,0,0
602,190,40.9673,2.88123,0.00167549,0.00263447,-0.000623783,0.00294176,0.00136821,-1.11307,0.0016998,0.0406517,1826,834,40.9673,-2.8812
609,190,40.7939,2.86774,0.0014883,0.0025519,-0.000308654,0.00263498,0.00140522,-1.30786,0.00152243,0.0398989,1833,834,40.7939,-2.86772
616,190,40.8582,2.72327,0.00122536,0.00211478,-0.000248088,0.0021793,0.00116084,-1.31637,0.00125911,0.0409322,1840,834,40.8581,-2.72324
623,190,41.0315,2.53418,0.000666659,0.00145031,-0.000401729,0.00161966,0.000497313,-1.17186,0.000958038,0.0394062,1847,834,41.0315,-2.5342
630,190,40.9775,2.61273,-6.4731e-05,0.000779156,-0.000707802,0.00118124,-0.000466814,-1.05418,0.000980853,0.0420655,1854,834,40.9775,-2.61275
637,190,40.7959,2.84033,-0.000764559,0.000244591,-0.000983446,0.000845349,-0.00136532,-1.02242,0.00128804,0.0355567,1861,834,40.7959,-2.84035
644,190,40.818,2.82062,-0.00129454,-0.000238115,-0.00119433,0.000539593,-0.00207225,-0.993601,0.00159214,0.0286567,1868,834,40.818,-2.82061
651,190,40.8594,2.83557,-0.00159838,-0.000670297,-0.00135042,0.000293589,-0.00256227,-0.950891,0.00181398,0.0402816,1875,834,40.8594,-2.8356
658,190,40.8889,2.87988,0,0,0,0,0,0,0,-1,1882,834,40.8889,-2.87989
665,190,25.9916,3.05157,0,0,0,0,0,0,0,-1,1889,834,25.9916,-3.05156
672,190,27.2662,1.70862,0,0,0,0,0,0,0,-1,1896,834,27.2662,-1.70861
679,190,32.2019,1.43652,0,0,0,0,0,0,0,-1,1903,834,32.2019,-1.43654
686,190,32.0928,1.78839,-0.0022399,-0.00146357,-0.00175234,-5.69215e-05,-0.00364655,-0.894395,0.00241228,0.0233153,1910,834,32.0927,-1.78837
693,190,32.1198,2.18262,-0.00197655,-0.00120383,-0.00173927,0.000191473,-0.00337185,-0.894693,0.00231437,0.0156215,1917,834,32.1197,-2.18263
700,190,32.0664,2.5976,-0.00142198,-0.000937619,-0.00151463,0.000354067,-0.00271367,-0.864675,0.00193795,0.0114975,1924,834,32.0664,-2.59759
707,190,32.0768,3.05469,-0.000351678,-0.000720131,-0.00100088,0.000481792,-0.0015536,-0.694385,0.00122824,0.0121713,1931,834,32.0768,-3.05469
714,190,32.0677,3.48743,0.0012691,1.36944e-05,-0.000241365,0.0013139,-3.11115e-05,-0.183546,0.000886489,0.011649,1938,834,32.0677,-3.48744
721,190,32.064,3.94342,0.00401322,0.000831459,0.000733683,0.00417425,0.000670428,0.216057,0.00258846,0.0116229,1945,834,32.064,-3.94343
728,190,32.0398,4.36456,0.00742899,0.00160063,0.00199406,0.00804592,0.000983705,0.300042,0.00506797,0.0136736,1952,834,32.0398,-4.36458
735,190,32.0381,4.78967,0.011946,0.00241312,0.00359336,0.0131487,0.00121037,0.322993,0.00839152,0.0121479,1959,834,32.0381,-4.78968
742,190,31.9896,5.33051,0.0181227,0.00332894,0.00574713,0.0200929,0.00135867,0.33027,0.0129661,0.0167685,1966,834,31.9896,-5.33053
749,190,31.9413,5.98053,0.0268949,0.00430869,0.00867098,0.0298398,0.00136382,0.327402,0.0194545,0.0406706,1973,834,31.9413,-5.9805
756,190,32.1136,6.2337,0,0,0,0,0,0,0,-1,1980,834,32.1136,-6.23372
763,190,32.4114,6.23206,0,0,0,0,0,0,0,-1,1987,834,32.4114,-6.23207
770,190,31.3529,9.35065,0,0,0,0,0,0,0,-1,1994,834,31.3529,-9.35065
777,190,32.2881,10.6966,0,0,0,0,0,0,0,-1,2001,834,32.2881,-10.6966
784,190,0,0,0,0,0,0,0,0,0,-1,2008,834,0,0
791,190,0,0,0,0,0,0,0,0,0,-1,2015,834,0,0
798,190,0,0,0,0,0,0,0,0,0,-1,2022,834,0,0
805,190,0,0,0,0,0,0,0,0,0,-1,2029,834,0,0
812,190,0,0,0,0,0,0,0,0,0,-1,2036,834,0,0
-700,183,0,0,0,0,0,0,0,0,0,-1,524,841,0,0
-693,183,0,0,0,0,0,0,0,0,0,-1,531,841,0,0
-686,183,0,0,0,0,0,0,0,0,0,-1,538,841,0,0
-679,183,0,0,0,0,0,0,0,0,0,-1,545,841,0,0
-672,183,0,0,0,0,0,0,0,0,0,-1,552,841,0,0
-665,183,0,0,0,0,0,0,0,0,0,-1,559,841,0,0
-658,183,-24.194,3.23621,0,0,0,0,0,0,0,-1,566,841,-24.194,-3.2362
-651,183,-24.2025,3.82489,0,0,0,0,0,0,0,-1,573,841,-24.2025,-3.8249
-644,183,-23.0326,3.59381,0,0,0,0,0,0,0,-1,580,841,-23.0326,-3.59378
-637,183,-22.0139,4.04218,0,0,0,0,0,0,0,-1,587,841,-22.0138,-4.04216
-630,183,-21.9916,3.33508,0.00116605,0.0140204,0.00366347,0.0149912,0.000195282,1.31176,0.00992967,0.0480449,594,841,-21.9917,-3.33508
-623,183,-22.4435,2.55365,-0.000673224,0.0128662,0.0024369,0.0132914,-0.00109847,1.39803,0.00924888,0.0460182,601,841,-22.4435,-2.55366
-616,183,-22.8108,2.99316,-0.00171069,0.010984,0.00170697,0.0112096,-0.00193621,1.43944,0.00819504,0.0406295,608,841,-22.8108,-2.99318
-609,183,-22.8342,2.59772,-0.00178997,0.0086109,0.00134425,0.00878183,-0.0019609,1.44432,0.00660592,0.0180681,615,841,-22.8342,-2.59772
-602,183,-22.8575,2.1886,-0.00151142,0.00626984,0.00115177,0.00643674,-0.00167832,1.42689,0.00494644,0.0119264,622,841,-22.8576,-2.18858
-595,183,-22.8883,1.75562,-0.00126639,0.00420952,0.00109155,0.00441909,-0.00147596,1.38111,0.00354207,0.0115881,629,841,-22.8883,-1.75561
-588,183,-22.8796,1.31812,-0.000989917,0.0024698,0.00108479,0.0027818,-0.00130191,1.29074,0.00240878,0.0130393,636,841,-22.8796,-1.31812
-581,183,-22.8972,0.909729,-0.000796455,0.00116882,0.00111921,0.00167555,-0.00130319,1.14565,0.00172425,0.0130113,643,841,-22.8972,-0.909727
-574,183,-22.887,0.510803,-0.000542624,0.000215687,0.00110929,0.00100883,-0.00133577,0.950074,0.00135804,0.0128901,650,841,-22.887,-0.510787
-567,183,-22.7551,0.0880127,-0.000473506,0.000237484,0.00107419,0.00101348,-0.0012495,0.945197,0.00130889,0.036814,657,841,-22.7551,-0.0880387
-560,183,-23.0002,-0.286316,-0.000627919,0.000311393,0.000573766,0.000583211,-0.000899738,1.12837,0.000862657,0.0428021,664,841,-23.0002,0.2863
-553,183,-22.8839,-0.837708,-0.000998742,0.000689873,0.000194919,0.000712081,-0.00102095,1.45735,0.00100585,0.0393397,671,841,-22.8838,0.837693
-546,183,-22.1483,-1.23242,0,0,0,0,0,0,0,-1,678,841,-22.1483,1.23241
-539,183,-16.8032,-0.417297,0,0,0,0,0,0,0,-1,685,841,-16.8032,0.41732
-532,183,-29.9686,0.953613,0,0,0,0,0,0,0,-1,692,841,-29.9686,-0.953627
-525,183,-30.0869,0.900269,-0.00228856,0.00383581,-0.000514819,0.00387879,-0.00233154,-1.48751,0.00362244,0.049423,699,841,-30.0869,-0.900251
-518,183,-30.1129,0.916931,-0.00275756,0.00492709,-0.000828468,0.00501539,-0.00284587,-1.46461,0.00459595,0.0422213,706,841,-30.1129,-0.916915
-511,183,-30.0834,0.947632,-0.0030197,0.00585711,-0.00109538,0.00599028,-0.00315287,-1.44982,0.00536286,0.0409468,713,841,-30.0834,-0.947653
-504,183,-30.1987,0.566467,-0.00291494,0.00631283,-0.00140184,0.00652109,-0.0031232,-1.42331,0.00568216,0.0415372,720,841,-30.1987,-0.566495
-497,183,-30.2604,0.54657,-0.00238214,0.00569773,-0.00191825,0.00613001,-0.00281442,-1.34914,0.00528101,0.0439907,727,841,-30.2604,-0.546541
-490,183,-30.1339,0.614441,-0.000859793,0.00281376,-0.00260332,0.00416305,-0.00220908,-1.09262,0.00373616,0.0405462,734,841,-30.1339,-0.614437
-483,183,0,0,0,0,0,0,0,0,0,-1,741,841,0,0
-476,183,0,0,0,0,0,0,0,0,0,-1,748,841,0,0
-469,183,0,0,0,0,0,0,0,0,0,-1,755,841,0,0
-462,183,0,0,0,0,0,0,0,0,0,-1,762,841,0,0
-455,183,0,0,0,0,0,0,0,0,0,-1,769,841,0,0
-448,183,0,0,0,0,0,0,0,0,0,-1,776,841,0,0
-441,183,0,0,0,0,0,0,0,0,0,-1,783,841,0,0
-434,183,0,0,0,0,0,0,0,0,0,-1,790,841,0,0
-427,183,0,0,0,0,0,0,0,0,0,-1,797,841,0,0
-420,183,0,0,0,0,0,0,0,0,0,-1,804,841,0,0
-413,183,0,0,0,0,0,0,0,0,0,-1,811,841,0,0
-406,183,0,0,0,0,0,0,0,0,0,-1,818,841,0,0
-399,183,0,0,0,0,0,0,0,0,0,-1,825,841,0,0
-392,183,0,0,0,0,0,0,0,0,0,-1,832,841,0,0
-385,183,0,0,0,0,0,0,0,0,0,-1,839,841,0,0
-378,183,0,0,0,0,0,0,0,0,0,-1,846,841,0,0
-371,183,0,0,0,0,0,0,0,0,0,-1,853,841,0,0
-364,183,0,0,0,0,0,0,0,0,0,-1,860,841,0,0
-357,183,0,0,0,0,0,0,0,0,0,-1,867,841,0,0
-350,183,0,0,0,0,0,0,0,0,0,-1,874,841,0,0
-343,183,0,0,0,0,0,0,0,0,0,-1,881,841,0,0
-336,183,0,0,0,0,0,0,0,0,0,-1,888,841,0,0
-329,183,0,0,0,0,0,0,0,0,0,-1,895,841,0,0
-322,183,0,0,0,0,0,0,0,0,0,-1,902,841,0,0
-315,183,0,0,0,0,0,0,0,0,0,-1,909,841,0,0
-308,183,0,0,0,0,0,0,0,0,0,-1,916,841,0,0
-301,183,0,0,0,0,0,0,0,0,0,-1,923,841,0,0
-294,183,0,0,0,0,0,0,0,0,0,-1,930,841,0,0
-287,183,0,0,0,0,0,0,0,0,0,-1,937,841,0,0
-280,183,0,0,0,0,0,0,0,0,0,-1,944,841,0,0
-273,183,0,0,0,0,0,0,0,0,0,-1,951,841,0,0
-266,183,0,0,0,0,0,0,0,0,0,-1,958,841,0,0
-259,183,0,0,0,0,0,0,0,0,0,-1,965,841,0,0
-252,183,0,0,0,0,0,0,0,0,0,-1,972,841,0,0
-245,183,0,0,0,0,0,0,0,0,0,-1,979,841,0,0
-238,183,0,0,0,0,0,0,0,0,0,-1,986,841,0,0
-231,183,0,0,0,0,0,0,0,0,0,-1,993,841,0,0
-224,183,0,0,0,0,0,0,0,0,0,-1,1000,841,0,0
-217,183,0,0,0,0,0,0,0,0,0,-1,1007,841,0,0
-210,183,0,0,0,0,0,0,0,0,0,-1,1014,841,0,0
-203,183,0,0,0,0,0,0,0,0,0,-1,1021,841,0,0
-196,183,0,0,0,0,0,0,0,0,0,-1,1028,841,0,0
-189,183,0,0,0,0,0,0,0,0,0,-1,1035,841,0,0
-182,183,0,0,0,0,0,0,0,0,0,-1,1042,841,0,0
-175,183,0,0,0,0,0,0,0,0,0,-1,1049,841,0,0
-168,183,0,0,0,0,0,0,0,0,0,-1,1056,841,0,0
-161,183,0,0,0,0,0,0,0,0,0,-1,1063,841,0,0
-154,183,0,0,0,0,0,0,0,0,0,-1,1070,841,0,0
-147,183,0,0,0,0,0,0,0,0,0,-1,1077,841,0,0
-140,183,0,0,0,0,0,0,0,0,0,-1,1084,841,0,0
-133,183,0,0,0,0,0,0,0,0,0,-1,1091,841,0,0
-126,183,0,0,0,0,0,0,0,0,0,-1,1098,841,0,0
-119,183,0,0,0,0,0,0,0,0,0,-1,1105,841,0,0
-112,183,0,0,0,0,0,0,0,0,0,-1,1112,841,0,0
-105,183,0,0,0,0,0,0,0,0,0,-1,1119,841,0,0
-98,183,0,0,0,0,0,0,0,0,0,-1,1126,841,0,0
-91,183,0,0,0,0,0,0,0,0,0,-1,1133,841,0,0
-84,183,0,0,0,0,0,0,0,0,0,-1,1140,841,0,0
-77,183,0,0,0,0,0,0,0,0,0,-1,1147,841,0,0
-70,183,0,0,0,0,0,0,0,0,0,-1,1154,841,0,0
-63,183,0,0,0,0,0,0,0,0,0,-1,1161,841,0,0
-56,183,0,0,0,0,0,0,0,0,0,-1,1168,841,0,0
-49,183,0,0,0,0,0,0,0,0,0,-1,1175,841,0,0
-42,183,0,0,0,0,0,0,0,0,0,-1,1182,841,0,0
-35,183,0,0,0,0,0,0,0,0,0,-1,1189,841,0,0
-28,183,0,0,0,0,0,0,0,0,0,-1,1196,841,0,0
-21,183,0,0,0,0,0,0,0,0,0,-1,1203,841,0,0
-14,183,0,0,0,0,0,0,0,0,0,-1,1210,841,0,0
-7,183,0,0,0,0,0,0,0,0,0,-1,1217,841,0,0
0,183,0,0,0,0,0,0,0,0,0,-1,1224,841,0,0
7,183,0,0,0,0,0,0,0,0,0,-1,1231,841,0,0
14,183,0,0,0,0,0,0,0,0,0,-1,1238,841,0,0
21,183,0,0,0,0,0,0,0,0,0,-1,1245,841,0,0
28,183,0,0,0,0,0,0,0,0,0,-1,1252,841,0,0
35,183,0,0,0,0,0,0,0,0,0,-1,1259,841,0,0
42,183,0,0,0,0,0,0,0,0,0,-1,1266,841,0,0
49,183,0,0,0,0,0,0,0,0,0,-1,1273,841,0,0
56,183,0,0,0,0,0,0,0,0,0,-1,1280,841,0,0
63,183,0,0,0,0,0,0,0,0,0,-1,1287,841,0,0
70,183,0,0,0,0,0,0,0,0,0,-1,1294,841,0,0
77,183,0,0,0,0,0,0,0,0,0,-1,1301,841,0,0
84,183,0,0,0,0,0,0,0,0,0,-1,1308,841,0,0
91,183,0,0,0,0,0,0,0,0,0,-1,1315,841,0,0
98,183,0,0,0,0,0,0,0,0,0,-1,1322,841,0,0
105,183,0,0,0,0,0,0,0,0,0,-1,1329,841,0,0
112,183,0,0,0,0,0,0,0,0,0,-1,1336,841,0,0
119,183,0,0,0,0,0,0,0,0,0,-1,1343,841,0,0
126,183,0,0,0,0,0,0,0,0,0,-1,1350,841,0,0
133,183,0,0,0,0,0,0,0,0,0,-1,1357,841,0,0
140,183,0,0,0,0,0,0,0,0,0,-1,1364,841,0,0
147,183,0,0,0,0,0,0,0,0,0,-1,1371,841,0,0
154,183,0,0,0,0,0,0,0,0,0,-1,1378,841,0,0
161,183,0,0,0,0,0,0,0,0,0,-1,1385,841,0,0
168,183,0,0,0,0,0,0,0,0,0,-1,1392,841,0,0
175,183,0,0,0,0,0,0,0,0,0,-1,1399,841,0,0
182,183,0,0,0,0,0,0,0,0,0,-1,1406,841,0,0
189,183,0,0,0,0,0,0,0,0,0,-1,1413,841,0,0
196,183,0,0,0,0,0,0,0,0,0,-1,1420,841,0,0
203,183,0,0,0,0,0,0,0,0,0,-1,1427,841,0,0
210,183,0,0,0,0,0,0,0,0,0,-1,1434,841,0,0
217,183,0,0,0,0,0,0,0,0,0,-1,1441,841,0,0
224,183,0,0,0,0,0,0,0,0,0,-1,1448,841,0,0
231,183,0,0,0,0,0,0,0,0,0,-1,1455,841,0,0
238,183,0,0,0,0,0,0,0,0,0,-1,1462,841,0,0
245,183,0,0,0,0,0,0,0,0,0,-1,1469,841,0,0
252,183,0,0,0,0,0,0,0,0,0,-1,1476,841,0,0
259,183,0,0,0,0,0,0,0,0,0,-1,1483,841,0,0
266,183,0,0,0,0,0,0,0,0,0,-1,1490,841,0,0
273,183,0,0,0,0,0,0,0,0,0,-1,1497,841,0,0
280,183,0,0,0,0,0,0,0,0,0,-1,1504,841,0,0
287,183,0,0,0,0,0,0,0,0,0,-1,1511,841,0,0
294,183,0,0,0,0,0,0,0,0,0,-1,1518,841,0,0
301,183,0,0,0,0,0,0,0,0,0,-1,1525,841,0,0
308,183,0,0,0,0,0,0,0,0,0,-1,1532,841,0,0
315,183,0,0,0,0,0,0,0,0,0,-1,1539,841,0,0
322,183,0,0,0,0,0,0,0,0,0,-1,1546,841,0,0
329,183,0,0,0,0,0,0,0,0,0,-1,1553,841,0,0
336,183,0,0,0,0,0,0,0,0,0,-1,1560,841,0,0
343,183,0,0,0,0,0,0,0,0,0,-1,1567,841,0,0
350,183,0,0,0,0,0,0,0,0,0,-1,1574,841,0,0
357,183,0,0,0,0,0,0,0,0,0,-1,1581,841,0,0
364,183,0,0,0,0,0,0,0,0,0,-1,1588,841,0,0
371,183,0,0,0,0,0,0,0,0,0,-1,1595,841,0,0
378,183,0,0,0,0,0,0,0,0,0,-1,1602,841,0,0
385,183,0,0,0,0,0,0,0,0,0,-1,1609,841,0,0
392,183,0,0,0,0,0,0,0,0,0,-1,1616,841,0,0
399,183,0,0,0,0,0,0,0,0,0,-1,1623,841,0,0
406,183,0,0,0,0,0,0,0,0,0,-1,1630,841,0,0
413,183,0,0,0,0,0,0,0,0,0,-1,1637,841,0,0
420,183,0,0,0,0,0,0,0,0,0,-1,1644,841,0,0
427,183,0,0,0,0,0,0,0,0,0,-1,1651,841,0,0
434,183,0,0,0,0,0,0,0,0,0,-1,1658,841,0,0
441,183,0,0,0,0,0,0,0,0,0,-1,1665,841,0,0
448,183,0,0,0,0,0,0,0,0,0,-1,1672,841,0,0
455,183,0,0,0,0,0,0,0,0,0,-1,1679,841,0,0
462,183,0,0,0,0,0,0,0,0,0,-1,1686,841,0,0
469,183,0,0,0,0,0,0,0,0,0,-1,1693,841,0,0
476,183,0,0,0,0,0,0,0,0,0,-1,1700,841,0,0
483,183,0,0,0,0,0,0,0,0,0,-1,1707,841,0,0
490,183,0,0,0,0,0,0,0,0,0,-1,1714,841,0,0
497,183,0,0,0,0,0,0,0,0,0,-1,1721,841,0,0
504,183,0,0,0,0,0,0,0,0,0,-1,1728,841,0,0
511,183,0,0,0,0,0,0,0,0,0,-1,1735,841,0,0
518,183,0,0,0,0,0,0,0,0,0,-1,1742,841,0,0
525,183,0,0,0,0,0,0,0,0,0,-1,1749,841,0,0
532,183,0,0,0,0,0,0,0,0,0,-1,1756,841,0,0
539,183,0,0,0,0,0,0,0,0,0,-1,1763,841,0,0
546,183,0,0,0,0,0,0,0,0,0,-1,1770,841,0,0
553,183,0,0,0,0,0,0,0,0,0,-1,1777,841,0,0
560,183,0,0,0,0,0,0,0,0,0,-1,1784,841,0,0
567,183,0,0,0,0,0,0,0,0,0,-1,1791,841,0,0
574,183,0,0,0,0,0,0,0,0,0,-1,1798,841,0,0
581,183,0,0,0,0,0,0,0,0,0,-1,1805,841,0,0
588,183,0,0,0,0,0,0,0,0,0,-1,1812,841,0,0
595,183,0,0,0,0,0,0,0,0,0,-1,1819,841,0,0
602,183,0,0,0,0,0,0,0,0,0,-1,1826,841,0,0
609,183,40.6277,2.90552,0.0017166,0.00368717,-0.000294041,0.00373011,0.00167366,-1.42579,0.00215736,0.0389859,1833,841,40.6277,-2.90554
616,183,40.7399,2.72504,0.00143043,0.00307465,-0.000162577,0.00309057,0.0014145,-1.47318,0.00178647,0.0392791,1840,841,40.7398,-2.72506
623,183,41.1459,2.41394,0.000860692,0.0023121,-0.00020187,0.00233965,0.000833138,-1.43514,0.00136932,0.044035,1847,841,41.1458,-2.41396
630,183,40.9545,2.60248,0.000126558,0.0015547,-0.000443814,0.00168138,-1.26194e-07,-1.29275,0.00112096,0.0424737,1854,841,40.9545,-2.6025
637,183,40.767,2.77722,-0.000615207,0.000952469,-0.0007069,0.00122415,-0.000886883,-1.20388,0.00122398,0.0362867,1861,841,40.7669,-2.77722
644,183,40.7831,2.80176,-0.00116407,0.00042976,-0.000928494,0.000856436,-0.00159075,-1.14004,0.00143393,0.0293817,1868,841,40.7831,-2.80173
651,183,40.8809,2.72687,-0.00144364,-3.96783e-05,-0.00109902,0.000562421,-0.00204574,-1.06961,0.00158492,0.0259499,1875,841,40.8808,-2.72685
658,183,40.9745,2.64539,0,0,0,0,0,0,0,-1,1882,841,40.9745,-2.64536
665,183,38.4337,2.66992,0,0,0,0,0,0,0,-1,1889,841,38.4337,-2.6699
672,183,29.168,1.54572,0,0,0,0,0,0,0,-1,1896,841,29.168,-1.54574
679,183,32.782,1.44342,0,0,0,0,0,0,0,-1,1903,841,32.7819,-1.44339
686,183,32.6584,1.7995,-0.00198573,-0.00104774,-0.00160578,0.000156132,-0.0031896,-0.927478,0.00218031,0.0257721,1910,841,32.6585,-1.79947
693,183,32.6232,2.19055,-0.00175064,-0.000948618,-0.00162988,0.000328862,-0.00302812,-0.90602,0.00213682,0.0217216,1917,841,32.6231,-2.19054
700,183,32.5616,2.63696,-0.00126489,-0.000826718,-0.00146987,0.000440304,-0.00253191,-0.859379,0.00185223,0.019334,1924,841,32.5617,-2.63698
707,183,32.5148,3.06439,-0.000299059,-0.000751381,-0.00104191,0.00054095,-0.00159139,-0.678524,0.00127993,0.0120525,1931,841,32.5148,-3.06441
714,183,32.519,3.4848,0.00122162,-9.08291e-05,-0.000357923,0.00131288,-0.000182093,-0.249663,0.000941838,0.0169653,1938,841,32.5191,-3.4848
721,183,32.5212,3.93433,0.00397049,0.000728657,0.000566171,0.00406653,0.000632623,0.168021,0.00252668,0.0158795,1945,841,32.5212,-3.93433
728,183,32.4791,4.37378,0.00747177,0.00155871,0.00181966,0.00798687,0.00104361,0.275859,0.00501305,0.0133082,1952,841,32.4791,-4.3738
735,183,32.4707,4.80231,0.0121608,0.00249118,0.00342682,0.0132521,0.0013999,0.308298,0.00840701,0.011821,1959,841,32.4707,-4.80232
742,183,32.4806,5.2616,0.0184714,0.00359778,0.00556657,0.020324,0.0017452,0.321275,0.0130067,0.0118149,1966,841,32.4806,-5.26159
749,183,32.3588,5.83832,0.0273236,0.00488625,0.00845942,0.0301555,0.00205429,0.323044,0.0194551,0.03352,1973,841,32.3587,-5.83832
756,183,33.3877,6.01288,0,0,0,0,0,0,0,-1,1980,841,33.3877,-6.01286
763,183,32.188,6.97168,0,0,0,0,0,0,0,-1,1987,841,32.188,-6.97167
770,183,31.9364,9.4939,0,0,0,0,0,0,0,-1,1994,841,31.9364,-9.4939
777,183,39.0946,5.52179,0,0,0,0,0,0,0,-1,2001,841,39.0946,-5.52179
784,183,0,0,0,0,0,0,0,0,0,-1,2008,841,0,0
791,183,0,0,0,0,0,0,0,0,0,-1,2015,841,0,0
798,183,0,0,0,0,0,0,0,0,0,-1,2022,841,0,0
805,183,0,0,0,0,0,0,0,0,0,-1,2029,841,0,0
812,183,0,0,0,0,0,0,0,0,0,-1,2036,841,0,0
-700,176,0,0,0,0,0,0,0,0,0,-1,524,848,0,0
-693,176,0,0,0,0,0,0,0,0,0,-1,531,848,0,0
-686,176,0,0,0,0,0,0,0,0,0,-1,538,848,0,0
-679,176,0,0,0,0,0,0,0,0,0,-1,545,848,0,0
-672,176,0,0,0,0,0,0,0,0,0,-1,552,848,0,0
-665,176,-24.4048,2.12152,0,0,0,0,0,0,0,-1,559,848,-24.4048,-2.12151
-658,176,-24.2412,2.70795,0,0,0,0,0,0,0,-1,566,848,-24.2412,-2.70795
-651,176,-22.9984,4.33337,0,0,0,0,0,0,0,-1,573,848,-22.9984,-4.33337
-644,176,-22.8716,3.90692,0,0,0,0,0,0,0,-1,580,848,-22.8716,-3.90693
-637,176,-23.0421,4.11633,0,0,0,0,0,0,0,-1,587,848,-23.0421,-4.11631
-630,176,-22.7704,3.61914,0.00412428,0.00855937,0.00387727,0.0108084,0.0018752,1.04516,0.00666903,0.0444856,594,848,-22.7704,-3.61912
-623,176,-22.8322,2.94427,-7.41672e-05,0.0101684,0.00336686,0.011176,-0.00108177,1.28001,0.0078362,0.0421155,601,848,-22.8322,-2.94429
-616,176,-23.2407,2.93829,-0.00233335,0.00950447,0.00271216,0.0100963,-0.00292515,1.35596,0.00788879,0.0302907,608,848,-23.2407,-2.93828
-609,176,-23.2847,2.604,-0.00288559,0.0076678,0.00227475,0.00813723,-0.00335503,1.36729,0.00682386,0.0130425,615,848,-23.2847,-2.604
-602,176,-23.2985,2.16553,-0.00248228,0.00543632,0.00194654,0.00588894,-0.0029349,1.34233,0.00518874,0.0132095,622,848,-23.2985,-2.16552
-595,176,-23.3073,1.72876,-0.0020677,0.00350989,0.00172883,0.00400229,-0.0025601,1.29333,0.00381917,0.0122115,629,848,-23.3073,-1.72877
-588,176,-23.2966,1.32025,-0.00159539,0.00194556,0.00155093,0.0025288,-0.00217863,1.2111,0.00272034,0.0132105,636,848,-23.2966,-1.32027
-581,176,-23.3255,0.937988,-0.00119087,0.00086254,0.00142974,0.00159603,-0.00192436,1.09678,0.00203544,0.012585,643,848,-23.3255,-0.938016
-574,176,-23.3403,0.526611,-0.000749273,6.06248e-05,0.00128367,0.0010017,-0.00169035,0.938189,0.00157112,0.0179559,650,848,-23.3404,-0.526597
-567,176,-23.199,0.243042,-0.000489997,0.00019504,0.0011214,0.00102507,-0.00132002,0.933617,0.0013575,0.0448757,657,848,-23.199,-0.243054
-560,176,-23.411,-0.250854,-0.000479882,0.000280019,0.000535553,0.000556711,-0.000756574,1.09392,0.000761147,0.0339561,664,848,-23.411,0.250861
-553,176,-23.4427,-0.766174,0,0,0,0,0,0,0,-1,671,848,-23.4427,0.766158
-546,176,-16.657,-0.403198,0,0,0,0,0,0,0,-1,678,848,-16.657,0.403182
-539,176,-22.7061,1.48657,0,0,0,0,0,0,0,-1,685,848,-22.7061,-1.48657
-532,176,-30.0435,0.910095,0,0,0,0,0,0,0,-1,692,848,-30.0435,-0.910089
-525,176,-30.0681,0.953674,-0.0017,0.00305595,-0.000988978,0.00325341,-0.00189745,-1.37373,0.003008,0.0469299,699,848,-30.0681,-0.9537
-518,176,-30.0918,0.969055,-0.00220183,0.0039622,-0.00136137,0.00424948,-0.00248911,-1.36283,0.00393453,0.0410699,706,848,-30.0918,-0.969054
-511,176,-29.9637,0.71637,-0.00250228,0.00459262,-0.00164502,0.00495547,-0.00286514,-1.35369,0.00456868,0.0396717,713,848,-29.9638,-0.716366
-504,176,-30.0505,0.457764,-0.00246001,0.00461558,-0.00187684,0.0050826,-0.00292703,-1.32692,0.00467985,0.0448655,720,848,-30.0505,-0.457747
-497,176,-30.285,0.595459,-0.00195145,0.00343701,-0.00214718,0.00418795,-0.0027024,-1.23436,0.00400885,0.0463283,727,848,-30.285,-0.595457
-490,176,-30.163,0.702148,-0.000394167,4.06328e-05,-0.0021807,0.00201475,-0.00236828,-0.83508,0.00253328,0.0400731,734,848,-30.163,-0.702148
-483,176,0,0,0,0,0,0,0,0,0,-1,741,848,0,0
-476,176,0,0,0,0,0,0,0,0,0,-1,748,848,0,0
-469,176,0,0,0,0,0,0,0,0,0,-1,755,848,0,0
-462,176,0,0,0,0,0,0,0,0,0,-1,762,848,0,0
-455,176,0,0,0,0,0,0,0,0,0,-1,769,848,0,0
-448,176,0,0,0,0,0,0,0,0,0,-1,776,848,0,0
-441,176,0,0,0,0,0,0,0,0,0,-1,783,848,0,0
-434,176,0,0,0,0,0,0,0,0,0,-1,790,848,0,0
-427,176,0,0,0,0,0,0,0,0,0,-1,797,848,0,0
-420,176,0,0,0,0,0,0,0,0,0,-1,804,848,0,0
-413,176,0,0,0,0,0,0,0,0,0,-1,811,848,0,0
-406,176,0,0,0,0,0,0,0,0,0,-1,818,848,0,0
-399,176,0,0,0,0,0,0,0,0,0,-1,825,848,0,0
-392,176,0,0,0,0,0,0,0,0,0,-1,832,848,0,0
-385,176,0,0,0,0,0,0,0,0,0,-1,839,848,0,0
-378,176,0,0,0,0,0,0,0,0,0,-1,846,848,0,0
-371,176,0,0,0,0,0,0,0,0,0,-1,853,848,0,0
-364,176,0,0,0,0,0,0,0,0,0,-1,860,848,0,0
-357,176,0,0,0,0,0,0,0,0,0,-1,867,848,0,0
-350,176,0,0,0,0,0,0,0,0,0,-1,874,848,0,0
-343,176,0,0,0,0,0,0,0,0,0,-1,881,848,0,0
-336,176,0,0,0,0,0,0,0,0,0,-1,888,848,0,0
-329,176,0,0,0,0,0,0,0,0,0,-1,895,848,0,0
-322,176,0,0,0,0,0,0,0,0,0,-1,902,848,0,0
-315,176,0,0,0,0,0,0,0,0,0,-1,909,848,0,0
-308,176,0,0,0,0,0,0,0,0,0,-1,916,848,0,0
-301,176,0,0,0,0,0,0,0,0,0,-1,923,848,0,0
-294,176,0,0,0,0,0,0,0,0,0,-1,930,848,0,0
-287,176,0,0,0,0,0,0,0,0,0,-1,937,848,0,0
-280,176,0,0,0,0,0,0,0,0,0,-1,944,848,0,0
-273,176,0,0,0,0,0,0,0,0,0,-1,951,848,0,0
-266,176,0,0,0,0,0,0,0,0,0,-1,958,848,0,0
-259,176,0,0,0,0,0,0,0,0,0,-1,965,848,0,0
-252,176,0,0,0,0,0,0,0,0,0,-1,972,848,0,0
-245,176,0,0,0,0,0,0,0,0,0,-1,979,848,0,0
-238,176,0,0,0,0,0,0,0,0,0,-1,986,848,0,0
-231,176,0,0,0,0,0,0,0,0,0,-1,993,848,0,0
-224,176,0,0,0,0,0,0,0,0,0,-1,1000,848,0,0
-217,176,0,0,0,0,0,0,0,0,0,-1,1007,848,0,0
-210,176,0,0,0,0,0,0,0,0,0,-1,1014,848,0,0
-203,176,0,0,0,0,0,0,0,0,0,-1,1021,848,0,0
-196,176,0,0,0,0,0,0,0,0,0,-1,1028,848,0,0
-189,176,0,0,0,0,0,0,0,0,0,-1,1035,848,0,0
-182,176,0,0,0,0,0,0,0,0,0,-1,1042,848,0,0
-175,176,0,0,0,0,0,0,0,0,0,-1,1049,848,0,0
-168,176,0,0,0,0,0,0,0,0,0,-1,1056,848,0,0
-161,176,0,0,0,0,0,0,0,0,0,-1,1063,848,0,0
-154,176,0,0,0,0,0,0,0,0,0,-1,1070,848,0,0
-147,176,0,0,0,0,0,0,0,0,0,-1,1077,848,0,0
-140,176,0,0,0,0,0,0,0,0,0,-1,1084,848,0,0
-133,176,0,0,0,0,0,0,0,0,0,-1,1091,848,0,0
-126,176,0,0,0,0,0,0,0,0,0,-1,1098,848,0,0
-119,176,0,0,0,0,0,0,0,0,0,-1,1105,848,0,0
-112,176,0,0,0,0,0,0,0,0,0,-1,1112,848,0,0
-105,176,0,0,0,0,0,0,0,0,0,-1,1119,848,0,0
-98,176,0,0,0,0,0,0,0,0,0,-1,1126,848,0,0
-91,176,0,0,0,0,0,0,0,0,0,-1,1133,848,0,0
-84,176,0,0,0,0,0,0,0,0,0,-1,1140,848,0,0
-77,176,0,0,0,0,0,0,0,0,0,-1,1147,848,0,0
-70,176,0,0,0,0,0,0,0,0,0,-1,1154,848,0,0
-63,176,0,0,0,0,0,0,0,0,0,-1,1161,848,0,0
-56,176,0,0,0,0,0,0,0,0,0,-1,1168,848,0,0
-49,176,0,0,0,0,0,0,0,0,0,-1,1175,848,0,0
-42,176,0,0,0,0,0,0,0,0,0,-1,1182,848,0,0
-35,176,0,0,0,0,0,0,0,0,0,-1,1189,848,0,0
-28,176,0,0,0,0,0,0,0,0,0,-1,1196,848,0,0
-21,176,0,0,0,0,0,0,0,0,0,-1,1203,848,0,0
-14,176,0,0,0,0,0,0,0,0,0,-1,1210,848,0,0
-7,176,0,0,0,0,0,0,0,0,0,-1,1217,848,0,0
0,176,0,0,0,0,0,0,0,0,0,-1,1224,848,0,0
7,176,0,0,0,0,0,0,0,0,0,-1,1231,848,0,0
14,176,0,0,0,0,0,0,0,0,0,-1,1238,848,0,0
21,176,0,0,0,0,0,0,0,0,0,-1,1245,848,0,0
28,176,0,0,0,0,0,0,0,0,0,-1,1252,848,0,0
35,176,0,0,0,0,0,0,0,0,0,-1,1259,848,0,0
42,176,0,0,0,0,0,0,0,0,0,-1,1266,848,0,0
49,176,0,0,0,0,0,0,0,0,0,-1,1273,848,0,0
56,176,0,0,0,0,0,0,0,0,0,-1,1280,848,0,0
63,176,0,0,0,0,0,0,0,0,0,-1,1287,848,0,0
70,176,0,0,0,0,0,0,0,0,0,-1,1294,848,0,0
77,176,0,0,0,0,0,0,0,0,0,-1,1301,848,0,0
84,176,0,0,0,0,0,0,0,0,0,-1,1308,848,0,0
91,176,0,0,0,0,0,0,0,0,0,-1,1315,848,0,0
98,176,0,0,0,0,0,0,0,0,0,-1,1322,848,0,0
105,176,0,0,0,0,0,0,0,0,0,-1,1329,848,0,0
112,176,0,0,0,0,0,0,0,0,0,-1,1336,848,0,0
119,176,0,0,0,0,0,0,0,0,0,-1,1343,848,0,0
126,176,0,0,0,0,0,0,0,0,0,-1,1350,848,0,0
133,176,0,0,0,0,0,0,0,0,0,-1,1357,848,0,0
140,176,0,0,0,0,0,0,0,0,0,-1,1364,848,0,0
147,176,0,0,0,0,0,0,0,0,0,-1,1371,848,0,0
154,176,0,0,0,0,0,0,0,0,0,-1,1378,848,0,0
161,176,0,0,0,0,0,0,0,0,0,-1,1385,848,0,0
168,176,0,0,0,0,0,0,0,0,0,-1,1392,848,0,0
175,176,0,0,0,0,0,0,0,0,0,-1,1399,848,0,0
182,176,0,0,0,0,0,0,0,0,0,-1,1406,848,0,0
189,176,0,0,0,0,0,0,0,0,0,-1,1413,848,0,0
196,176,0,0,0,0,0,0,0,0,0,-1,1420,848,0,0
203,176,0,0,0,0,0,0,0,0,0,-1,1427,848,0,0
210,176,0,0,0,0,0,0,0,0,0,-1,1434,848,0,0
217,176,0,0,0,0,0,0,0,0,0,-1,1441,848,0,0
224,176,0,0,0,0,0,0,0,0,0,-1,1448,848,0,0
231,176,0,0,0,0,0,0,0,0,0,-1,1455,848,0,0
238,176,0,0,0,0,0,0,0,0,0,-1,1462,848,0,0
245,176,0,0,0,0,0,0,0,0,0,-1,1469,848,0,0
252,176,0,0,0,0,0,0,0,0,0,-1,1476,848,0,0
259,176,0,0,0,0,0,0,0,0,0,-1,1483,848,0,0
266,176,0,0,0,0,0,0,0,0,0,-1,1490,848,0,0
273,176,0,0,0,0,0,0,0,0,0,-1,1497,848,0,0
280,176,0,0,0,0,0,0,0,0,0,-1,1504,848,0,0
287,176,0,0,0,0,0,0,0,0,0,-1,1511,848,0,0
294,176,0,0,0,0,0,0,0,0,0,-1,1518,848,0,0
301,176,0,0,0,0,0,0,0,0,0,-1,1525,848,0,0
308,176,0,0,0,0,0,0,0,0,0,-1,1532,848,0,0
315,176,0,0,0,0,0,0,0,0,0,-1,1539,848,0,0
322,176,0,0,0,0,0,0,0,0,0,-1,1546,848,0,0
329,176,0,0,0,0,0,0,0,0,0,-1,1553,848,0,0
336,176,0,0,0,0,0,0,0,0,0,-1,1560,848,0,0
343,176,0,0,0,0,0,0,0,0,0,-1,1567,848,0,0
350,176,0,0,0,0,0,0,0,0,0,-1,1574,848,0,0
357,176,0,0,0,0,0,0,0,0,0,-1,1581,848,0,0
364,176,0,0,0,0,0,0,0,0,0,-1,1588,848,0,0
371,176,0,0,0,0,0,0,0,0,0,-1,1595,848,0,0
378,176,0,0,0,0,0,0,0,0,0,-1,1602,848,0,0
385,176,0,0,0,0,0,0,0,0,0,-1,1609,848,0,0
392,176,0,0,0,0,0,0,0,0,0,-1,1616,848,0,0
399,176,0,0,0,0,0,0,0,0,0,-1,1623,848,0,0
406,176,0,0,0,0,0,0,0,0,0,-1,1630,848,0,0
413,176,0,0,0,0,0,0,0,0,0,-1,1637,848,0,0
420,176,0,0,0,0,0,0,0,0,0,-1,1644,848,0,0
427,176,0,0,0,0,0,0,0,0,0,-1,1651,848,0,0
434,176,0,0,0,0,0,0,0,0,0,-1,1658,848,0,0
441,176,0,0,0,0,0,0,0,0,0,-1,1665,848,0,0
448,176,0,0,0,0,0,0,0,0,0,-1,1672,848,0,0
455,176,0,0,0,0,0,0,0,0,0,-1,1679,848,0,0
462,176,0,0,0,0,0,0,0,0,0,-1,1686,848,0,0
469,176,0,0,0,0,0,0,0,0,0,-1,1693,848,0,0
476,176,0,0,0,0,0,0,0,0,0,-1,1700,848,0,0
483,176,0,0,0,0,0,0,0,0,0,-1,1707,848,0,0
490,176,0,0,0,0,0,0,0,0,0,-1,1714,848,0,0
497,176,0,0,0,0,0,0,0,0,0,-1,1721,848,0,0
504,176,0,0,0,0,0,0,0,0,0,-1,1728,848,0,0
511,176,0,0,0,0,0,0,0,0,0,-1,1735,848,0,0
518,176,0,0,0,0,0,0,0,0,0,-1,1742,848,0,0
525,176,0,0,0,0,0,0,0,0,0,-1,1749,848,0,0
532,176,0,0,0,0,0,0,0,0,0,-1,1756,848,0,0
539,176,0,0,0,0,0,0,0,0,0,-1,1763,848,0,0
546,176,0,0,0,0,0,0,0,0,0,-1,1770,848,0,0
553,176,0,0,0,0,0,0,0,0,0,-1,1777,848,0,0
560,176,0,0,0,0,0,0,0,0,0,-1,1784,848,0,0
567,176,0,0,0,0,0,0,0,0,0,-1,1791,848,0,0
574,176,0,0,0,0,0,0,0,0,0,-1,1798,848,0,0
581,176,0,0,0,0,0,0,0,0,0,-1,1805,848,0,0
588,176,0,0,0,0,0,0,0,0,0,-1,1812,848,0,0
595,176,0,0,0,0,0,0,0,0,0,-1,1819,848,0,0
602,176,0,0,0,0,0,0,0,0,0,-1,1826,848,0,0
609,176,40.7155,2.85693,0.00217788,0.00451871,-0.000207422,0.00453695,0.00215965,-1.4831,0.00262041,0.0377472,1833,848,40.7155,-2.85691
616,176,40.8024,2.70453,0.00187696,0.00374021,-4.25136e-05,0.00374118,0.00187599,-1.548,0.00215997,0.0407369,1840,848,40.8024,-2.70452
623,176,40.9762,2.64667,0.00132288,0.00284776,3.39098e-05,0.00284851,0.00132213,1.54857,0.001646,0.0475022,1847,848,40.9762,-2.64669
630,176,40.9216,2.66284,0.000633387,0.00199083,-9.66091e-05,0.00199767,0.000626546,-1.5001,0.00117976,0.0441885,1854,848,40.9217,-2.66285
637,176,40.7709,2.73743,-0.000113512,0.00133169,-0.000296281,0.00139007,-0.000171895,-1.37624,0.000989003,0.0342638,1861,848,40.7709,-2.73745
644,176,40.8104,2.74469,-0.000686735,0.000779136,-0.000495005,0.000930635,-0.000838234,-1.27379,0.00102172,0.0321962,1868,848,40.8104,-2.7447
651,176,40.8712,2.72241,-0.000972051,0.000284303,-0.000666929,0.000572314,-0.00126006,-1.16314,0.00108248,0.0313845,1875,848,40.8712,-2.72241
658,176,40.9391,2.64105,-0.00106898,-8.29271e-05,-0.000891047,0.000442399,-0.0015943,-1.03809,0.00123699,0.036002,1882,848,40.9391,-2.64102
665,176,41.0392,2.53784,0,0,0,0,0,0,0,-1,1889,848,41.0391,-2.53783
672,176,16.9304,2.80719,0,0,0,0,0,0,0,-1,1896,848,16.9305,-2.80719
679,176,33.401,1.42627,0,0,0,0,0,0,0,-1,1903,848,33.401,-1.4263
686,176,33.2445,1.8761,-0.001501,-0.000927705,-0.0012955,0.000112484,-0.00254119,-0.894276,0.00173284,0.0373191,1910,848,33.2446,-1.87608
693,176,33.0898,2.29645,-0.00131178,-0.000953272,-0.00135962,0.000238861,-0.00250391,-0.850941,0.00175432,0.0201351,1917,848,33.0899,-2.29644
700,176,32.9825,2.72815,-0.000880399,-0.000922605,-0.00127153,0.000370198,-0.0021732,-0.7771,0.00158666,0.0227116,1924,848,32.9825,-2.72815
707,176,32.9874,3.12665,-1.32875e-06,-0.000931773,-0.000943667,0.000585561,-0.00151866,-0.556385,0.00125406,0.0140225,1931,848,32.9875,-3.12663
714,176,32.9779,3.51727,0.001333,-0.00032082,-0.000365108,0.00141002,-0.000397837,-0.207895,0.00109694,0.0128072,1938,848,32.9779,-3.5173
721,176,32.9493,3.93695,0.00391251,0.000523222,0.000490933,0.00398219,0.000453544,0.140989,0.00251727,0.0123195,1945,848,32.9493,-3.93694
728,176,32.9071,4.40143,0.00730021,0.00144343,0.00172543,0.00777073,0.000972911,0.266223,0.00488856,0.0143917,1952,848,32.9071,-4.40142
735,176,32.9115,4.8219,0.0119621,0.00254639,0.00334099,0.0130272,0.00148137,0.30859,0.00823551,0.0135614,1959,848,32.9114,-4.82188
742,176,32.9117,5.24341,0.0182233,0.00389143,0.0054728,0.0200741,0.00204059,0.326114,0.0127571,0.0170939,1966,848,32.9117,-5.2434
749,176,32.9623,5.60931,0.0268836,0.00553607,0.00831874,0.0297424,0.00267725,0.331016,0.0189988,0.0299197,1973,848,32.9622,-5.60932
756,176,33.7905,5.90076,0.0392372,0.00764825,0.012153,0.0433717,0.00351381,0.327916,0.0278172,0.0482314,1980,848,33.7905,-5.90076
763,176,34.5861,6.18433,0,0,0,0,0,0,0,-1,1987,848,34.5861,-6.18434
770,176,38.559,6.14331,0,0,0,0,0,0,0,-1,1994,848,38.559,-6.14329
777,176,37.6364,5.80872,0,0,0,0,0,0,0,-1,2001,848,37.6363,-5.80872
784,176,0,0,0,0,0,0,0,0,0,-1,2008,848,0,0
791,176,0,0,0,0,0,0,0,0,0,-1,2015,848,0,0
798,176,0,0,0,0,0,0,0,0,0,-1,2022,848,0,0
805,176,0,0,0,0,0,0,0,0,0,-1,2029,848,0,0
812,176,0,0,0,0,0,0,0,0,0,-1,2036,848,0,0
-700,169,0,0,0,0,0,0,0,0,0,-1,524,855,0,0
-693,169,0,0,0,0,0,0,0,0,0,-1,531,855,0,0
-686,169,0,0,0,0,0,0,0,0,0,-1,538,855,0,0
-679,169,0,0,0,0,0,0,0,0,0,-1,545,855,0,0
-672,169,0,0,0,0,0,0,0,0,0,-1,552,855,0,0
-665,169,-34.4233,-4.86798,0,0,0,0,0,0,0,-1,559,855,-34.4233,4.868
-658,169,-35.8928,-6.15588,0,0,0,0,0,0,0,-1,566,855,-35.8928,6.15589
-651,169,-22.821,4.65411,0,0,0,0,0,0,0,-1,573,855,-22.821,-4.65414
-644,169,-23.6239,4.45654,0,0,0,0,0,0,0,-1,580,855,-23.6239,-4.45656
-637,169,-23.5439,4.1062,0.0134531,-0.00381675,0.00189481,0.0136586,-0.0040222,0.108006,0.0107014,0.0480959,587,855,-23.5439,-4.10617
-630,169,-23.4615,3.73248,0.00625665,0.00238066,0.00274496,0.00767881,0.0009585,0.478021,0.0048315,0.0482687,594,855,-23.4615,-3.73249
-623,169,-23.6085,3.32904,0.00103011,0.00656337,0.00342655,0.00820077,-0.000607289,1.12502,0.00568044,0.0414296,601,855,-23.6085,-3.32905
-616,169,-23.6849,2.98749,-0.0022875,0.00732074,0.00318295,0.00827949,-0.00324625,1.27822,0.00686264,0.0242616,608,855,-23.6849,-2.98751
-609,169,-23.7061,2.6026,-0.00339066,0.00630917,0.00286322,0.00709128,-0.00417277,1.30414,0.00657566,0.0146682,615,855,-23.7061,-2.60261
-602,169,-23.7246,2.17719,-0.00302251,0.00445792,0.00253112,0.00523387,-0.00379846,1.27333,0.00523672,0.0141047,622,855,-23.7246,-2.17717
-595,169,-23.7256,1.73413,-0.00258932,0.00272431,0.00216934,0.00349746,-0.00336248,1.22843,0.00396084,0.0122141,629,855,-23.7256,-1.73411
-588,169,-23.7103,1.34747,-0.00201324,0.00137265,0.00183705,0.00217787,-0.00281846,1.1577,0.00289253,0.00998634,636,855,-23.7103,-1.34745
-581,169,-23.749,0.966309,-0.00155971,0.00055453,0.00161596,0.00142842,-0.00243361,1.07505,0.00225478,0.0132909,643,855,-23.749,-0.966327
-574,169,-23.9048,0.540527,-0.00111166,-0.000107823,0.00141499,0.000891633,-0.00211112,0.955833,0.00178066,0.0234604,650,855,-23.9048,-0.540542
-567,169,-23.7427,0.246094,-0.000763183,5.89634e-05,0.00118362,0.000900863,-0.00160508,0.952532,0.00146573,0.0359057,657,855,-23.7427,-0.246113
-560,169,-23.783,-0.0745239,-0.000665395,0.000118315,0.000586781,0.000432054,-0.000979134,1.07979,0.000834908,0.0393061,664,855,-23.783,0.0745519
-553,169,-23.6974,-0.422241,0,0,0,0,0,0,0,-1,671,855,-23.6975,0.422249
-546,169,-19.0852,-1.05609,0,0,0,0,0,0,0,-1,678,855,-19.0852,1.05612
-539,169,-30.0317,0.857117,0,0,0,0,0,0,0,-1,685,855,-30.0318,-0.857091
-532,169,-30.0686,0.886536,-0.00128472,0.00165358,-0.000733809,0.00182664,-0.00145779,-1.33918,0.00190025,0.0423458,692,855,-30.0686,-0.88652
-525,169,-30.0995,0.902588,-0.00158993,0.00220445,-0.00117474,0.00253871,-0.00192418,-1.29359,0.00258478,0.0434624,699,855,-30.0996,-0.902585
-518,169,-30.1152,0.954895,-0.00217224,0.00292484,-0.00158615,0.00337813,-0.00262553,-1.29244,0.00347528,0.0411792,706,855,-30.1153,-0.954894
-511,169,-29.9897,0.729248,-0.00253818,0.00326742,-0.00187432,0.00381995,-0.00309071,-1.28413,0.00399727,0.0408186,713,855,-29.9897,-0.729232
-504,169,-30.0159,0.637939,-0.00255636,0.00292057,-0.00204603,0.0036005,-0.00323629,-1.24996,0.00394909,0.0447003,720,855,-30.0158,-0.637933
-497,169,-30.076,0.821716,0,0,0,0,0,0,0,-1,727,855,-30.0761,-0.821717
-490,169,0,0,0,0,0,0,0,0,0,-1,734,855,0,0
-483,169,0,0,0,0,0,0,0,0,0,-1,741,855,0,0
-476,169,0,0,0,0,0,0,0,0,0,-1,748,855,0,0
-469,169,0,0,0,0,0,0,0,0,0,-1,755,855,0,0
-462,169,0,0,0,0,0,0,0,0,0,-1,762,855,0,0
-455,169,0,0,0,0,0,0,0,0,0,-1,769,855,0,0
-448,169,0,0,0,0,0,0,0,0,0,-1,776,855,0,0
-441,169,0,0,0,0,0,0,0,0,0,-1,783,855,0,0
-434,169,0,0,0,0,0,0,0,0,0,-1,790,855,0,0
-427,169,0,0,0,0,0,0,0,0,0,-1,797,855,0,0
-420,169,0,0,0,0,0,0,0,0,0,-1,804,855,0,0
-413,169,0,0,0,0,0,0,0,0,0,-1,811,855,0,0
-406,169,0,0,0,0,0,0,0,0,0,-1,818,855,0,0
-399,169,0,0,0,0,0,0,0,0,0,-1,825,855,0,0
-392,169,0,0,0,0,0,0,0,0,0,-1,832,855,0,0
-385,169,0,0,0,0,0,0,0,0,0,-1,839,855,0,0
-378,169,0,0,0,0,0,0,0,0,0,-1,846,855,0,0
-371,169,0,0,0,0,0,0,0,0,0,-1,853,855,0,0
-364,169,0,0,0,0,0,0,0,0,0,-1,860,855,0,0
-357,169,0,0,0,0,0,0,0,0,0,-1,867,855,0,0
-350,169,0,0,0,0,0,0,0,0,0,-1,874,855,0,0
-343,169,0,0,0,0,0,0,0,0,0,-1,881,855,0,0
-336,169,0,0,0,0,0,0,0,0,0,-1,888,855,0,0
-329,169,0,0,0,0,0,0,0,0,0,-1,895,855,0,0
-322,169,0,0,0,0,0,0,0,0,0,-1,902,855,0,0
-315,169,0,0,0,0,0,0,0,0,0,-1,909,855,0,0
-308,169,0,0,0,0,0,0,0,0,0,-1,916,855,0,0
-301,169,0,0,0,0,0,0,0,0,0,-1,923,855,0,0
-294,169,0,0,0,0,0,0,0,0,0,-1,930,855,0,0
-287,169,0,0,0,0,0,0,0,0,0,-1,937,855,0,0
-280,169,0,0,0,0,0,0,0,0,0,-1,944,855,0,0
-273,169,0,0,0,0,0,0,0,0,0,-1,951,855,0,0
-266,169,0,0,0,0,0,0,0,0,0,-1,958,855,0,0
-259,169,0,0,0,0,0,0,0,0,0,-1,965,855,0,0
-252,169,0,0,0,0,0,0,0,0,0,-1,972,855,0,0
-245,169,0,0,0,0,0,0,0,0,0,-1,979,855,0,0
-238,169,0,0,0,0,0,0,0,0,0,-1,986,855,0,0
-231,169,0,0,0,0,0,0,0,0,0,-1,993,855,0,0
-224,169,0,0,0,0,0,0,0,0,0,-1,1000,855,0,0
-217,169,0,0,0,0,0,0,0,0,0,-1,1007,855,0,0
-210,169,0,0,0,0,0,0,0,0,0,-1,1014,855,0,0
-203,169,0,0,0,0,0,0,0,0,0,-1,1021,855,0,0
-196,169,0,0,0,0,0,0,0,0,0,-1,1028,855,0,0
-189,169,0,0,0,0,0,0,0,0,0,-1,1035,855,0,0
-182,169,0,0,0,0,0,0,0,0,0,-1,1042,855,0,0
-175,169,0,0,0,0,0,0,0,0,0,-1,1049,855,0,0
-168,169,0,0,0,0,0,0,0,0,0,-1,1056,855,0,0
-161,169,0,0,0,0,0,0,0,0,0,-1,1063,855,0,0
-154,169,0,0,0,0,0,0,0,0,0,-1,1070,855,0,0
-147,169,0,0,0,0,0,0,0,0,0,-1,1077,855,0,0
-140,169,0,0,0,0,0,0,0,0,0,-1,1084,855,0,0
-133,169,0,0,0,0,0,0,0,0,0,-1,1091,855,0,0
-126,169,0,0,0,0,0,0,0,0,0,-1,1098,855,0,0
-119,169,0,0,0,0,0,0,0,0,0,-1,1105,855,0,0
-112,169,0,0,0,0,0,0,0,0,0,-1,1112,855,0,0
-105,169,0,0,0,0,0,0,0,0,0,-1,1119,855,0,0
-98,169,0,0,0,0,0,0,0,0,0,-1,1126,855,0,0
-91,169,0,0,0,0,0,0,0,0,0,-1,1133,855,0,0
-84,169,0,0,0,0,0,0,0,0,0,-1,1140,855,0,0
-77,169,0,0,0,0,0,0,0,0,0,-1,1147,855,0,0
-70,169,0,0,0,0,0,0,0,0,0,-1,1154,855,0,0
-63,169,0,0,0,0,0,0,0,0,0,-1,1161,855,0,0
-56,169,0,0,0,0,0,0,0,0,0,-1,1168,855,0,0
-49,169,0,0,0,0,0,0,0,0,0,-1,1175,855,0,0
-42,169,0,0,0,0,0,0,0,0,0,-1,1182,855,0,0
-35,169,0,0,0,0,0,0,0,0,0,-1,1189,855,0,0
-28,169,0,0,0,0,0,0,0,0,0,-1,1196,855,0,0
-21,169,0,0,0,0,0,0,0,0,0,-1,1203,855,0,0
-14,169,0,0,0,0,0,0,0,0,0,-1,1210,855,0,0
-7,169,0,0,0,0,0,0,0,0,0,-1,1217,855,0,0
0,169,0,0,0,0,0,0,0,0,0,-1,1224,855,0,0
7,169,0,0,0,0,0,0,0,0,0,-1,1231,855,0,0
14,169,0,0,0,0,0,0,0,0,0,-1,1238,855,0,0
21,169,0,0,0,0,0,0,0,0,0,-1,1245,855,0,0
28,169,0,0,0,0,0,0,0,0,0,-1,1252,855,0,0
35,169,0,0,0,0,0,0,0,0,0,-1,1259,855,0,0
42,169,0,0,0,0,0,0,0,0,0,-1,1266,855,0,0
49,169,0,0,0,0,0,0,0,0,0,-1,1273,855,0,0
56,169,0,0,0,0,0,0,0,0,0,-1,1280,855,0,0
63,169,0,0,0,0,0,0,0,0,0,-1,1287,855,0,0
70,169,0,0,0,0,0,0,0,0,0,-1,1294,855,0,0
77,169,0,0,0,0,0,0,0,0,0,-1,1301,855,0,0
84,169,0,0,0,0,0,0,0,0,0,-1,1308,855,0,0
91,169,0,0,0,0,0,0,0,0,0,-1,1315,855,0,0
98,169,0,0,0,0,0,0,0,0,0,-1,1322,855,0,0
105,169,0,0,0,0,0,0,0,0,0,-1,1329,855,0,0
112,169,0,0,0,0,0,0,0,0,0,-1,1336,855,0,0
119,169,0,0,0,0,0,0,0,0,0,-1,1343,855,0,0
126,169,0,0,0,0,0,0,0,0,0,-1,1350,855,0,0
133,169,0,0,0,0,0,0,0,0,0,-1,1357,855,0,0
140,169,0,0,0,0,0,0,0,0,0,-1,1364,855,0,0
147,169,0,0,0,0,0,0,0,0,0,-1,1371,855,0,0
154,169,0,0,0,0,0,0,0,0,0,-1,1378,855,0,0
161,169,0,0,0,0,0,0,0,0,0,-1,1385,855,0,0
168,169,0,0,0,0,0,0,0,0,0,-1,1392,855,0,0
175,169,0,0,0,0,0,0,0,0,0,-1,1399,855,0,0
182,169,0,0,0,0,0,0,0,0,0,-1,1406,855,0,0
189,169,0,0,0,0,0,0,0,0,0,-1,1413,855,0,0
196,169,0,0,0,0,0,0,0,0,0,-1,1420,855,0,0
203,169,0,0,0,0,0,0,0,0,0,-1,1427,855,0,0
210,169,0,0,0,0,0,0,0,0,0,-1,1434,855,0,0
217,169,0,0,0,0,0,0,0,0,0,-1,1441,855,0,0
224,169,0,0,0,0,0,0,0,0,0,-1,1448,855,0,0
231,169,0,0,0,0,0,0,0,0,0,-1,1455,855,0,0
238,169,0,0,0,0,0,0,0,0,0,-1,1462,855,0,0
245,169,0,0,0,0,0,0,0,0,0,-1,1469,855,0,0
252,169,0,0,0,0,0,0,0,0,0,-1,1476,855,0,0
259,169,0,0,0,0,0,0,0,0,0,-1,1483,855,0,0
266,169,0,0,0,0,0,0,0,0,0,-1,1490,855,0,0
273,169,0,0,0,0,0,0,0,0,0,-1,1497,855,0,0
280,169,0,0,0,0,0,0,0,0,0,-1,1504,855,0,0
287,169,0,0,0,0,0,0,0,0,0,-1,1511,855,0,0
294,169,0,0,0,0,0,0,0,0,0,-1,1518,855,0,0
301,169,0,0,0,0,0,0,0,0,0,-1,1525,855,0,0
308,169,0,0,0,0,0,0,0,0,0,-1,1532,855,0,0
315,169,0,0,0,0,0,0,0,0,0,-1,1539,855,0,0
322,169,0,0,0,0,0,0,0,0,0,-1,1546,855,0,0
329,169,0,0,0,0,0,0,0,0,0,-1,1553,855,0,0
336,169,0,0,0,0,0,0,0,0,0,-1,1560,855,0,0
343,169,0,0,0,0,0,0,0,0,0,-1,1567,855,0,0
350,169,0,0,0,0,0,0,0,0,0,-1,1574,855,0,0
357,169,0,0,0,0,0,0,0,0,0,-1,1581,855,0,0
364,169,0,0,0,0,0,0,0,0,0,-1,1588,855,0,0
371,169,0,0,0,0,0,0,0,0,0,-1,1595,855,0,0
378,169,0,0,0,0,0,0,0,0,0,-1,1602,855,0,0
385,169,0,0,0,0,0,0,0,0,0,-1,1609,855,0,0
392,169,0,0,0,0,0,0,0,0,0,-1,1616,855,0,0
399,169,0,0,0,0,0,0,0,0,0,-1,1623,855,0,0
406,169,0,0,0,0,0,0,0,0,0,-1,1630,855,0,0
413,169,0,0,0,0,0,0,0,0,0,-1,1637,855,0,0
420,169,0,0,0,0,0,0,0,0,0,-1,1644,855,0,0
427,169,0,0,0,0,0,0,0,0,0,-1,1651,855,0,0
434,169,0,0,0,0,0,0,0,0,0,-1,1658,855,0,0
441,169,0,0,0,0,0,0,0,0,0,-1,1665,855,0,0
448,169,0,0,0,0,0,0,0,0,0,-1,1672,855,0,0
455,169,0,0,0,0,0,0,0,0,0,-1,1679,855,0,0
462,169,0,0,0,0,0,0,0,0,0,-1,1686,855,0,0
469,169,0,0,0,0,0,0,0,0,0,-1,1693,855,0,0
476,169,0,0,0,0,0,0,0,0,0,-1,1700,855,0,0
483,169,0,0,0,0,0,0,0,0,0,-1,1707,855,0,0
490,169,0,0,0,0,0,0,0,0,0,-1,1714,855,0,0
497,169,0,0,0,0,0,0,0,0,0,-1,1721,855,0,0
504,169,0,0,0,0,0,0,0,0,0,-1,1728,855,0,0
511,169,0,0,0,0,0,0,0,0,0,-1,1735,855,0,0
518,169,0,0,0,0,0,0,0,0,0,-1,1742,855,0,0
525,169,0,0,0,0,0,0,0,0,0,-1,1749,855,0,0
532,169,0,0,0,0,0,0,0,0,0,-1,1756,855,0,0
539,169,0,0,0,0,0,0,0,0,0,-1,1763,855,0,0
546,169,0,0,0,0,0,0,0,0,0,-1,1770,855,0,0
553,169,0,0,0,0,0,0,0,0,0,-1,1777,855,0,0
560,169,0,0,0,0,0,0,0,0,0,-1,1784,855,0,0
567,169,0,0,0,0,0,0,0,0,0,-1,1791,855,0,0
574,169,0,0,0,0,0,0,0,0,0,-1,1798,855,0,0
581,169,0,0,0,0,0,0,0,0,0,-1,1805,855,0,0
588,169,0,0,0,0,0,0,0,0,0,-1,1812,855,0,0
595,169,0,0,0,0,0,0,0,0,0,-1,1819,855,0,0
602,169,0,0,0,0,0,0,0,0,0,-1,1826,855,0,0
609,169,0,0,0,0,0,0,0,0,0,-1,1833,855,0,0
616,169,40.897,2.78821,0.00254847,0.00444626,6.00692e-06,0.00444628,0.00254845,1.56763,0.00257621,0.0431723,1840,855,40.897,-2.78818
623,169,40.908,2.78668,0.0017063,0.00339636,0.000202123,0.0034202,0.00168246,1.45341,0.00197474,0.0470626,1847,855,40.9079,-2.78671
630,169,40.9044,2.74957,0.000892472,0.00241039,0.000188715,0.0024335,0.000869362,1.44894,0.00142394,0.045067,1854,855,40.9044,-2.74956
637,169,40.8912,2.77356,0.000111695,0.00164302,6.48595e-05,0.00164576,0.000108952,1.52854,0.00106272,0.0382344,1861,855,40.8912,-2.77354
644,169,40.8538,2.82788,-0.000454175,0.00101821,-0.000102793,0.00102535,-0.000461317,-1.50143,0.000878676,0.0362442,1868,855,40.8538,-2.82787
651,169,40.8185,2.79541,-0.00069119,0.000473088,-0.0002693,0.000532361,-0.000750462,-1.35415,0.000744198,0.0356743,1875,855,40.8185,-2.79544
658,169,40.874,2.70197,-0.000754208,2.33449e-05,-0.000508575,0.000274722,-0.00100558,-1.11174,0.000778297,0.0340438,1882,855,40.8741,-2.70198
665,169,40.9858,2.56427,0,0,0,0,0,0,0,-1,1889,855,40.9858,-2.56426
672,169,31.2465,2.96387,0,0,0,0,0,0,0,-1,1896,855,31.2464,-2.9639
679,169,33.5317,1.36121,0,0,0,0,0,0,0,-1,1903,855,33.5318,-1.3612
686,169,33.5751,1.84161,-0.00105755,-0.000879992,-0.000971765,7.04097e-06,-0.00194458,-0.83095,0.00129874,0.0430435,1910,855,33.5751,-1.84161
693,169,33.5443,2.31567,-0.000908897,-0.000967704,-0.00106008,0.000122191,-0.00199879,-0.771533,0.00137507,0.0207174,1917,855,33.5443,-2.31567
700,169,33.5446,2.77521,-0.000520402,-0.00094724,-0.00102924,0.000317315,-0.00178496,-0.683169,0.00130863,0.0181213,1924,855,33.5445,-2.77523
707,169,33.4978,3.15668,0.000282834,-0.000974279,-0.000781853,0.000657462,-0.00134891,-0.446831,0.00118108,0.0165004,1931,855,33.4978,-3.15667
714,169,33.4181,3.52069,0.0013945,-0.000387637,-0.000296665,0.00144259,-0.000435724,-0.160695,0.00113519,0.0141348,1938,855,33.4181,-3.5207
721,169,33.3761,3.95612,0.00368018,0.000469883,0.000453074,0.0037429,0.000407165,0.137553,0.00237123,0.0155898,1945,855,33.3761,-3.95613
728,169,33.3624,4.40515,0.00680661,0.00144623,0.0016011,0.00724843,0.00100441,0.269247,0.00453472,0.0130069,1952,855,33.3625,-4.40516
735,169,33.345,4.83435,0.0113075,0.00267775,0.00316234,0.0123423,0.00164299,0.316232,0.00773886,0.0184242,1959,855,33.3449,-4.83432
742,169,33.3367,5.23669,0.0174219,0.00421222,0.00524576,0.0192516,0.00238249,0.335607,0.0121186,0.0145265,1966,855,33.3367,-5.23669
749,169,33.2944,5.59344,0.0257846,0.00612104,0.0080033,0.0286302,0.0032754,0.341618,0.0180941,0.0252818,1973,855,33.2944,-5.59347
756,169,33.9054,6.15314,0.0375943,0.00860181,0.011698,0.0417256,0.00447052,0.339488,0.0264531,0.0467002,1980,855,33.9054,-6.15316
763,169,34.5896,6.71729,0,0,0,0,0,0,0,-1,1987,855,34.5896,-6.71728
770,169,36.8927,6.63129,0,0,0,0,0,0,0,-1,1994,855,36.8927,-6.63129
777,169,36.1327,6.40009,0,0,0,0,0,0,0,-1,2001,855,36.1327,-6.40012
784,169,35.2537,6.20178,0,0,0,0,0,0,0,-1,2008,855,35.2536,-6.20176
791,169,0,0,0,0,0,0,0,0,0,-1,2015,855,0,0
798,169,0,0,0,0,0,0,0,0,0,-1,2022,855,0,0
805,169,0,0,0,0,0,0,0,0,0,-1,2029,855,0,0
812,169,0,0,0,0,0,0,0,0,0,-1,2036,855,0,0
-700,162,0,0,0,0,0,0,0,0,0,-1,524,862,0,0
-693,162,0,0,0,0,0,0,0,0,0,-1,531,862,0,0
-686,162,0,0,0,0,0,0,0,0,0,-1,538,862,0,0
-679,162,0,0,0,0,0,0,0,0,0,-1,545,862,0,0
-672,162,0,0,0,0,0,0,0,0,0,-1,552,862,0,0
-665,162,-33.756,-4.63995,0,0,0,0,0,0,0,-1,559,862,-33.756,4.63996
-658,162,-35.1881,-5.98956,0,0,0,0,0,0,0,-1,566,862,-35.1881,5.98955
-651,162,-22.722,4.99579,0,0,0,0,0,0,0,-1,573,862,-22.722,-4.99576
-644,162,-24.1223,4.40161,0,0,0,0,0,0,0,-1,580,862,-24.1223,-4.40161
-637,162,-24.043,4.06726,0.01622,-0.00871801,0.000719123,0.0162407,-0.00873873,0.0288045,0.0146371,0.0477522,587,862,-24.0431,-4.06725
-630,162,-23.9348,3.58142,0.00856439,-0.00180459,0.0019904,0.00893334,-0.00217353,0.183282,0.00679692,0.0458674,594,862,-23.9348,-3.58144
-623,162,-23.9798,3.35876,0.00270735,0.00353574,0.00314477,0.00629348,-5.03871e-05,0.850876,0.00421255,0.0353686,601,862,-23.9798,-3.35875
-616,162,-24.0756,3.0011,-0.0015844,0.00534695,0.00319759,0.00659673,-0.00283418,1.1982,0.00558752,0.019546,608,862,-24.0755,-3.00109
-609,162,-24.1299,2.57458,-0.00322394,0.00515397,0.00300816,0.00612218,-0.00419216,1.25941,0.00598964,0.0129171,615,862,-24.1299,-2.57456
-602,162,-24.1531,2.17938,-0.00294274,0.00374523,0.00274895,0.0047301,-0.0039276,1.22677,0.00500568,0.0118216,622,862,-24.1531,-2.17938
-595,162,-24.1469,1.78918,-0.00258269,0.00221965,0.00232775,0.00316273,-0.00352578,1.18586,0.00386351,0.0110779,629,862,-24.1469,-1.7892
-588,162,-24.1573,1.3772,-0.00203217,0.00108094,0.00190917,0.00198767,-0.00293891,1.1274,0.00286198,0.0108637,636,862,-24.1573,-1.37718
-581,162,-24.284,0.975281,-0.00162521,0.00049073,0.00165365,0.00139589,-0.00253037,1.06998,0.00229815,0.0198181,643,862,-24.284,-0.975273
-574,162,-24.4747,0.56665,-0.00125656,-6.26772e-05,0.00142546,0.000885787,-0.00220503,0.98369,0.00183787,0.0307339,650,862,-24.4747,-0.566635
-567,162,-24.3889,0.183044,-0.000881112,0.000120537,0.00110392,0.000831931,-0.00159251,0.998352,0.00142252,0.0398062,657,862,-24.3889,-0.18303
-560,162,-24.2188,-0.390015,-0.000734354,0.000155777,0.00050851,0.000386482,-0.000965059,1.14488,0.000803792,0.0361975,664,862,-24.2188,0.389992
-553,162,-23.9374,-0.929443,0,0,0,0,0,0,0,-1,671,862,-23.9374,0.929461
-546,162,-22.8181,-1.51154,0,0,0,0,0,0,0,-1,678,862,-22.8181,1.51155
-539,162,-30.0858,0.865845,0,0,0,0,0,0,0,-1,685,862,-30.0858,-0.865826
-532,162,-30.0769,0.890564,-0.00108195,0.00139261,-0.000909855,0.00169113,-0.00138048,-1.25376,0.00177642,0.0347531,692,862,-30.0769,-0.890592
-525,162,-30.1071,0.90564,-0.00142338,0.00183765,-0.0013536,0.00232629,-0.00191202,-1.22436,0.00245088,0.0382635,699,862,-30.107,-0.905615
-518,162,-30.1357,0.972839,-0.00204636,0.00239937,-0.00175004,0.0030056,-0.00265259,-1.23732,0.00326887,0.0405244,706,862,-30.1358,-0.972848
-511,162,-30.0609,0.745422,-0.00243774,0.00251349,-0.00199357,0.00321639,-0.00314065,-1.23182,0.00367032,0.0422321,713,862,-30.0609,-0.745393
-504,162,-30.1455,0.534729,-0.00252701,0.00191555,-0.0021195,0.00276451,-0.00337597,-1.18982,0.00355106,0.0426435,720,862,-30.1455,-0.534734
-497,162,-30.1606,0.848633,0,0,0,0,0,0,0,-1,727,862,-30.1606,-0.848623
-490,162,0,0,0,0,0,0,0,0,0,-1,734,862,0,0
-483,162,0,0,0,0,0,0,0,0,0,-1,741,862,0,0
-476,162,0,0,0,0,0,0,0,0,0,-1,748,862,0,0
-469,162,0,0,0,0,0,0,0,0,0,-1,755,862,0,0
-462,162,0,0,0,0,0,0,0,0,0,-1,762,862,0,0
-455,162,0,0,0,0,0,0,0,0,0,-1,769,862,0,0
-448,162,0,0,0,0,0,0,0,0,0,-1,776,862,0,0
-441,162,0,0,0,0,0,0,0,0,0,-1,783,862,0,0
-434,162,0,0,0,0,0,0,0,0,0,-1,790,862,0,0
-427,162,0,0,0,0,0,0,0,0,0,-1,797,862,0,0
-420,162,0,0,0,0,0,0,0,0,0,-1,804,862,0,0
-413,162,0,0,0,0,0,0,0,0,0,-1,811,862,0,0
-406,162,0,0,0,0,0,0,0,0,0,-1,818,862,0,0
-399,162,0,0,0,0,0,0,0,0,0,-1,825,862,0,0
-392,162,0,0,0,0,0,0,0,0,0,-1,832,862,0,0
-385,162,0,0,0,0,0,0,0,0,0,-1,839,862,0,0
-378,162,0,0,0,0,0,0,0,0,0,-1,846,862,0,0
-371,162,0,0,0,0,0,0,0,0,0,-1,853,862,0,0
-364,162,0,0,0,0,0,0,0,0,0,-1,860,862,0,0
-357,162,0,0,0,0,0,0,0,0,0,-1,867,862,0,0
-350,162,0,0,0,0,0,0,0,0,0,-1,874,862,0,0
-343,162,0,0,0,0,0,0,0,0,0,-1,881,862,0,0
-336,162,0,0,0,0,0,0,0,0,0,-1,888,862,0,0
-329,162,0,0,0,0,0,0,0,0,0,-1,895,862,0,0
-322,162,0,0,0,0,0,0,0,0,0,-1,902,862,0,0
-315,162,0,0,0,0,0,0,0,0,0,-1,909,862,0,0
-308,162,0,0,0,0,0,0,0,0,0,-1,916,862,0,0
-301,162,0,0,0,0,0,0,0,0,0,-1,923,862,0,0
-294,162,0,0,0,0,0,0,0,0,0,-1,930,862,0,0
-287,162,0,0,0,0,0,0,0,0,0,-1,937,862,0,0
-280,162,0,0,0,0,0,0,0,0,0,-1,944,862,0,0
-273,162,0,0,0,0,0,0,0,0,0,-1,951,862,0,0
-266,162,0,0,0,0,0,0,0,0,0,-1,958,862,0,0
-259,162,0,0,0,0,0,0,0,0,0,-1,965,862,0,0
-252,162,0,0,0,0,0,0,0,0,0,-1,972,862,0,0
-245,162,0,0,0,0,0,0,0,0,0,-1,979,862,0,0
-238,162,0,0,0,0,0,0,0,0,0,-1,986,862,0,0
-231,162,0,0,0,0,0,0,0,0,0,-1,993,862,0,0
-224,162,0,0,0,0,0,0,0,0,0,-1,1000,862,0,0
-217,162,0,0,0,0,0,0,0,0,0,-1,1007,862,0,0
-210,162,0,0,0,0,0,0,0,0,0,-1,1014,862,0,0
-203,162,0,0,0,0,0,0,0,0,0,-1,1021,862,0,0
-196,162,0,0,0,0,0,0,0,0,0,-1,1028,862,0,0
-189,162,0,0,0,0,0,0,0,0,0,-1,1035,862,0,0
-182,162,0,0,0,0,0,0,0,0,0,-1,1042,862,0,0
-175,162,0,0,0,0,0,0,0,0,0,-1,1049,862,0,0
-168,162,0,0,0,0,0,0,0,0,0,-1,1056,862,0,0
-161,162,0,0,0,0,0,0,0,0,0,-1,1063,862,0,0
-154,162,0,0,0,0,0,0,0,0,0,-1,1070,862,0,0
-147,162,0,0,0,0,0,0,0,0,0,-1,1077,862,0,0
-140,162,0,0,0,0,0,0,0,0,0,-1,1084,862,0,0
-133,162,0,0,0,0,0,0,0,0,0,-1,1091,862,0,0
-126,162,0,0,0,0,0,0,0,0,0,-1,1098,862,0,0
-119,162,0,0,0,0,0,0,0,0,0,-1,1105,862,0,0
-112,162,0,0,0,0,0,0,0,0,0,-1,1112,862,0,0
-105,162,0,0,0,0,0,0,0,0,0,-1,1119,862,0,0
-98,162,0,0,0,0,0,0,0,0,0,-1,1126,862,0,0
-91,162,0,0,0,0,0,0,0,0,0,-1,1133,862,0,0
-84,162,0,0,0,0,0,0,0,0,0,-1,1140,862,0,0
-77,162,0,0,0,0,0,0,0,0,0,-1,1147,862,0,0
-70,162,0,0,0,0,0,0,0,0,0,-1,1154,862,0,0
-63,162,0,0,0,0,0,0,0,0,0,-1,1161,862,0,0
-56,162,0,0,0,0,0,0,0,0,0,-1,1168,862,0,0
-49,162,0,0,0,0,0,0,0,0,0,-1,1175,862,0,0
-42,162,0,0,0,0,0,0,0,0,0,-1,1182,862,0,0
-35,162,0,0,0,0,0,0,0,0,0,-1,1189,862,0,0
-28,162,0,0,0,0,0,0,0,0,0,-1,1196,862,0,0
-21,162,0,0,0,0,0,0,0,0,0,-1,1203,862,0,0
-14,162,0,0,0,0,0,0,0,0,0,-1,1210,862,0,0
-7,162,0,0,0,0,0,0,0,0,0,-1,1217,862,0,0
0,162,0,0,0,0,0,0,0,0,0,-1,1224,862,0,0
7,162,0,0,0,0,0,0,0,0,0,-1,1231,862,0,0
14,162,0,0,0,0,0,0,0,0,0,-1,1238,862,0,0
21,162,0,0,0,0,0,0,0,0,0,-1,1245,862,0,0
28,162,0,0,0,0,0,0,0,0,0,-1,1252,862,0,0
35,162,0,0,0,0,0,0,0,0,0,-1,1259,862,0,0
42,162,0,0,0,0,0,0,0,0,0,-1,1266,862,0,0
49,162,0,0,0,0,0,0,0,0,0,-1,1273,862,0,0
56,162,0,0,0,0,0,0,0,0,0,-1,1280,862,0,0
63,162,0,0,0,0,0,0,0,0,0,-1,1287,862,0,0
70,162,0,0,0,0,0,0,0,0,0,-1,1294,862,0,0
77,162,0,0,0,0,0,0,0,0,0,-1,1301,862,0,0
84,162,0,0,0,0,0,0,0,0,0,-1,1308,862,0,0
91,162,0,0,0,0,0,0,0,0,0,-1,1315,862,0,0
98,162,0,0,0,0,0,0,0,0,0,-1,1322,862,0,0
105,162,0,0,0,0,0,0,0,0,0,-1,1329,862,0,0
112,162,0,0,0,0,0,0,0,0,0,-1,1336,862,0,0
119,162,0,0,0,0,0,0,0,0,0,-1,1343,862,0,0
126,162,0,0,0,0,0,0,0,0,0,-1,1350,862,0,0
133,162,0,0,0,0,0,0,0,0,0,-1,1357,862,0,0
140,162,0,0,0,0,0,0,0,0,0,-1,1364,862,0,0
147,162,0,0,0,0,0,0,0,0,0,-1,1371,862,0,0
154,162,0,0,0,0,0,0,0,0,0,-1,1378,862,0,0
161,162,0,0,0,0,0,0,0,0,0,-1,1385,862,0,0
168,162,0,0,0,0,0,0,0,0,0,-1,1392,862,0,0
175,162,0,0,0,0,0,0,0,0,0,-1,1399,862,0,0
182,162,0,0,0,0,0,0,0,0,0,-1,1406,862,0,0
189,162,0,0,0,0,0,0,0,0,0,-1,1413,862,0,0
196,162,0,0,0,0,0,0,0,0,0,-1,1420,862,0,0
203,162,0,0,0,0,0,0,0,0,0,-1,1427,862,0,0
210,162,0,0,0,0,0,0,0,0,0,-1,1434,862,0,0
217,162,0,0,0,0,0,0,0,0,0,-1,1441,862,0,0
224,162,0,0,0,0,0,0,0,0,0,-1,1448,862,0,0
231,162,0,0,0,0,0,0,0,0,0,-1,1455,862,0,0
238,162,0,0,0,0,0,0,0,0,0,-1,1462,862,0,0
245,162,0,0,0,0,0,0,0,0,0,-1,1469,862,0,0
252,162,0,0,0,0,0,0,0,0,0,-1,1476,862,0,0
259,162,0,0,0,0,0,0,0,0,0,-1,1483,862,0,0
266,162,0,0,0,0,0,0,0,0,0,-1,1490,862,0,0
273,162,0,0,0,0,0,0,0,0,0,-1,1497,862,0,0
280,162,0,0,0,0,0,0,0,0,0,-1,1504,862,0,0
287,162,0,0,0,0,0,0,0,0,0,-1,1511,862,0,0
294,162,0,0,0,0,0,0,0,0,0,-1,1518,862,0,0
301,162,0,0,0,0,0,0,0,0,0,-1,1525,862,0,0
308,162,0,0,0,0,0,0,0,0,0,-1,1532,862,0,0
315,162,0,0,0,0,0,0,0,0,0,-1,1539,862,0,0
322,162,0,0,0,0,0,0,0,0,0,-1,1546,862,0,0
329,162,0,0,0,0,0,0,0,0,0,-1,1553,862,0,0
336,162,0,0,0,0,0,0,0,0,0,-1,1560,862,0,0
343,162,0,0,0,0,0,0,0,0,0,-1,1567,862,0,0
350,162,0,0,0,0,0,0,0,0,0,-1,1574,862,0,0
357,162,0,0,0,0,0,0,0,0,0,-1,1581,862,0,0
364,162,0,0,0,0,0,0,0,0,0,-1,1588,862,0,0
371,162,0,0,0,0,0,0,0,0,0,-1,1595,862,0,0
378,162,0,0,0,0,0,0,0,0,0,-1,1602,862,0,0
385,162,0,0,0,0,0,0,0,0,0,-1,1609,862,0,0
392,162,0,0,0,0,0,0,0,0,0,-1,1616,862,0,0
399,162,0,0,0,0,0,0,0,0,0,-1,1623,862,0,0
406,162,0,0,0,0,0,0,0,0,0,-1,1630,862,0,0
413,162,0,0,0,0,0,0,0,0,0,-1,1637,862,0,0
420,162,0,0,0,0,0,0,0,0,0,-1,1644,862,0,0
427,162,0,0,0,0,0,0,0,0,0,-1,1651,862,0,0
434,162,0,0,0,0,0,0,0,0,0,-1,1658,862,0,0
441,162,0,0,0,0,0,0,0,0,0,-1,1665,862,0,0
448,162,0,0,0,0,0,0,0,0,0,-1,1672,862,0,0
455,162,0,0,0,0,0,0,0,0,0,-1,1679,862,0,0
462,162,0,0,0,0,0,0,0,0,0,-1,1686,862,0,0
469,162,0,0,0,0,0,0,0,0,0,-1,1693,862,0,0
476,162,0,0,0,0,0,0,0,0,0,-1,1700,862,0,0
483,162,0,0,0,0,0,0,0,0,0,-1,1707,862,0,0
490,162,0,0,0,0,0,0,0,0,0,-1,1714,862,0,0
497,162,0,0,0,0,0,0,0,0,0,-1,1721,862,0,0
504,162,0,0,0,0,0,0,0,0,0,-1,1728,862,0,0
511,162,0,0,0,0,0,0,0,0,0,-1,1735,862,0,0
518,162,0,0,0,0,0,0,0,0,0,-1,1742,862,0,0
525,162,0,0,0,0,0,0,0,0,0,-1,1749,862,0,0
532,162,0,0,0,0,0,0,0,0,0,-1,1756,862,0,0
539,162,0,0,0,0,0,0,0,0,0,-1,1763,862,0,0
546,162,0,0,0,0,0,0,0,0,0,-1,1770,862,0,0
553,162,0,0,0,0,0,0,0,0,0,-1,1777,862,0,0
560,162,0,0,0,0,0,0,0,0,0,-1,1784,862,0,0
567,162,0,0,0,0,0,0,0,0,0,-1,1791,862,0,0
574,162,0,0,0,0,0,0,0,0,0,-1,1798,862,0,0
581,162,0,0,0,0,0,0,0,0,0,-1,1805,862,0,0
588,162,0,0,0,0,0,0,0,0,0,-1,1812,862,0,0
595,162,0,0,0,0,0,0,0,0,0,-1,1819,862,0,0
602,162,0,0,0,0,0,0,0,0,0,-1,1826,862,0,0
609,162,0,0,0,0,0,0,0,0,0,-1,1833,862,0,0
616,162,40.8104,2.69519,0.00311627,0.00494705,0.000122562,0.00495522,0.0031081,1.50425,0.00289161,0.0431302,1840,862,40.8104,-2.69518
623,162,40.7648,2.85278,0.00207698,0.00388992,0.000332862,0.0039491,0.0020178,1.39484,0.0022802,0.0437643,1847,862,40.7647,-2.85276
630,162,40.812,2.76471,0.00118468,0.00289042,0.000343503,0.00295699,0.0011181,1.37935,0.00172404,0.0422698,1854,862,40.812,-2.76472
637,162,40.8137,2.74329,0.000390463,0.00205598,0.000243494,0.00209085,0.000355595,1.42856,0.00129178,0.0408462,1861,862,40.8137,-2.74326
644,162,40.8645,2.70935,-0.000185661,0.00134841,9.0734e-05,0.00135375,-0.000191009,1.51192,0.000972445,0.037249,1868,862,40.8645,-2.70933
651,162,40.8677,2.72162,-0.000406796,0.00072565,-6.40544e-05,0.000729262,-0.000410407,-1.51447,0.000666517,0.0339805,1875,862,40.8676,-2.72162
658,162,40.8933,2.67926,-0.000454723,0.000163468,-0.000300225,0.000285273,-0.000576528,-1.18538,0.000506944,0.0339206,1882,862,40.8933,-2.67926
665,162,40.9164,2.6156,-0.000620532,-0.000171281,-0.000401197,6.38931e-05,-0.000855706,-1.0406,0.000592917,0.0421905,1889,862,40.9164,-2.61559
672,162,40.9265,2.59265,0,0,0,0,0,0,0,-1,1896,862,40.9265,-2.59263
679,162,26.5077,2.54785,0,0,0,0,0,0,0,-1,1903,862,26.5077,-2.54787
686,162,33.7866,1.76233,0,0,0,0,0,0,0,-1,1910,862,33.7867,-1.76231
693,162,33.9558,2.37799,-0.000572567,-0.000989568,-0.000864151,0.000107881,-0.00167002,-0.667022,0.00115099,0.0226142,1917,862,33.9558,-2.37797
700,162,33.98,2.77264,-0.000183366,-0.000958103,-0.000868053,0.000379829,-0.0015213,-0.575533,0.00116169,0.0207725,1924,862,33.98,-2.77267
707,162,33.9435,3.13818,0.000597072,-0.000975309,-0.000658496,0.000836412,-0.00121465,-0.348619,0.00119087,0.0144693,1931,862,33.9435,-3.13819
714,162,33.8534,3.52521,0.0015175,-0.000403787,-0.00024943,0.00154936,-0.000435641,-0.127019,0.00120467,0.0169949,1938,862,33.8534,-3.52522
721,162,33.7578,4.02643,0.00343042,0.000453538,0.000370316,0.0034758,0.000408164,0.121922,0.00219384,0.0281511,1945,862,33.7578,-4.02641
728,162,33.739,4.43585,0.00610168,0.0014488,0.00137426,0.00647726,0.00107322,0.266781,0.00400861,0.0224926,1952,862,33.739,-4.43584
735,162,33.7883,4.84198,0.0101606,0.00273918,0.0027952,0.0110956,0.00180419,0.3228,0.00687501,0.0111673,1959,862,33.7883,-4.84197
742,162,33.7744,5.24799,0.0158083,0.00436994,0.00472829,0.0175098,0.0026685,0.345417,0.0108932,0.0130586,1966,862,33.7744,-5.24798
749,162,33.7236,5.64148,0.0235067,0.00641736,0.00727898,0.0261868,0.00373728,0.352791,0.0163551,0.0194821,1973,862,33.7237,-5.64147
756,162,33.96,6.19165,0.0342004,0.0090441,0.0106499,0.0381034,0.00514105,0.351287,0.0238738,0.0435163,1980,862,33.96,-6.19163
763,162,34.2206,6.73212,0,0,0,0,0,0,0,-1,1987,862,34.2206,-6.73211
770,162,34.6985,8.26031,0,0,0,0,0,0,0,-1,1994,862,34.6985,-8.26033
777,162,35.797,8.6214,0,0,0,0,0,0,0,-1,2001,862,35.7969,-8.62142
784,162,34.5093,6.78302,0,0,0,0,0,0,0,-1,2008,862,34.5093,-6.78303
791,162,0,0,0,0,0,0,0,0,0,-1,2015,862,0,0
798,162,0,0,0,0,0,0,0,0,0,-1,2022,862,0,0
805,162,0,0,0,0,0,0,0,0,0,-1,2029,862,0,0
812,162,0,0,0,0,0,0,0,0,0,-1,2036,862,0,0
-700,155,0,0,0,0,0,0,0,0,0,-1,524,869,0,0
-693,155,0,0,0,0,0,0,0,0,0,-1,531,869,0,0
-686,155,0,0,0,0,0,0,0,0,0,-1,538,869,0,0
-679,155,0,0,0,0,0,0,0,0,0,-1,545,869,0,0
-672,155,0,0,0,0,0,0,0,0,0,-1,552,869,0,0
-665,155,-33.0915,-4.43109,0,0,0,0,0,0,0,-1,559,869,-33.0915,4.43108
-658,155,-34.5032,-5.76593,0,0,0,0,0,0,0,-1,566,869,-34.5032,5.76592
-651,155,-35.903,-7.07452,0,0,0,0,0,0,0,-1,573,869,-35.903,7.07452
-644,155,-22.6292,4.75269,0,0,0,0,0,0,0,-1,580,869,-22.6292,-4.75269
-637,155,-24.4894,4.08545,0,0,0,0,0,0,0,-1,587,869,-24.4894,-4.08547
-630,155,-24.4185,2.80237,0,0,0,0,0,0,0,-1,594,869,-24.4185,-2.80237
-623,155,-24.4662,3.23169,0,0,0,0,0,0,0,-1,601,869,-24.4663,-3.23166
-616,155,-24.4839,2.99939,-0.0009485,0.00304539,0.00294118,0.00460349,-0.0025066,1.08363,0.00416409,0.0141648,608,869,-24.484,-2.99939
-609,155,-24.5488,2.55658,-0.00296526,0.00386001,0.00288352,0.00491512,-0.00402037,1.22002,0.00516752,0.0131765,615,869,-24.5488,-2.55659
-602,155,-24.5713,2.17841,-0.00275209,0.00316801,0.00280326,0.00428474,-0.00386882,1.1917,0.0047095,0.0124459,622,869,-24.5713,-2.17838
-595,155,-24.5881,1.79987,-0.00240108,0.00191512,0.00234491,0.00294387,-0.00342983,1.15737,0.00368342,0.0122314,629,869,-24.5881,-1.79984
-588,155,-24.5845,1.41888,-0.00188282,0.00105678,0.00187558,0.00196985,-0.0027959,1.11774,0.00276525,0.01405,636,869,-24.5845,-1.4189
-581,155,-24.7652,1.10992,-0.00157969,0.000645999,0.00162593,0.00150345,-0.00243714,1.0855,0.00229629,0.0255972,643,869,-24.7652,-1.10991
-574,155,-24.8405,0.775574,-0.00130681,0.000158786,0.00138249,0.000990683,-0.00213871,1.0291,0.00184684,0.032713,650,869,-24.8405,-0.775574
-567,155,-24.7717,0.172729,-0.000913504,0.000315423,0.000964347,0.000844433,-0.00144251,1.06905,0.00133533,0.0365845,657,869,-24.7717,-0.17272
-560,155,-24.6624,-0.309814,-0.000744844,0.000326335,0.000379505,0.00044716,-0.000865669,1.26257,0.000770693,0.0308257,664,869,-24.6624,0.30983
-553,155,-24.465,-1.02423,0,0,0,0,0,0,0,-1,671,869,-24.465,1.02422
-546,155,-22.7988,0.873657,0,0,0,0,0,0,0,-1,678,869,-22.7988,-0.873645
-539,155,-30.097,0.905334,0,0,0,0,0,0,0,-1,685,869,-30.097,-0.90531
-532,155,-30.0864,0.912354,-0.000967348,0.00127551,-0.00118061,0.0017824,-0.00147424,-1.16525,0.00188303,0.0351901,692,869,-30.0864,-0.912324
-525,155,-30.0758,0.976257,-0.00140664,0.00158993,-0.00167507,0.00233903,-0.00215574,-1.15027,0.00259578,0.0384951,699,869,-30.0758,-0.976242
-518,155,-30.0954,1.06049,-0.00209293,0.00193681,-0.0021449,0.00286478,-0.0030209,-1.16247,0.0033985,0.0437101,706,869,-30.0954,-1.06047
-511,155,-30.1826,1.11639,-0.00252977,0.00182565,-0.00252121,0.00297945,-0.00368357,-1.14161,0.00385405,0.0435024,713,869,-30.1826,-1.11637
-504,155,-30.237,0.830994,-0.00275948,0.00112609,-0.00291657,0.0026877,-0.00432109,-1.07921,0.00408299,0.0401099,720,869,-30.237,-0.830993
-497,155,0,0,0,0,0,0,0,0,0,-1,727,869,0,0
-490,155,0,0,0,0,0,0,0,0,0,-1,734,869,0,0
-483,155,0,0,0,0,0,0,0,0,0,-1,741,869,0,0
-476,155,0,0,0,0,0,0,0,0,0,-1,748,869,0,0
-469,155,0,0,0,0,0,0,0,0,0,-1,755,869,0,0
-462,155,0,0,0,0,0,0,0,0,0,-1,762,869,0,0
-455,155,0,0,0,0,0,0,0,0,0,-1,769,869,0,0
-448,155,0,0,0,0,0,0,0,0,0,-1,776,869,0,0
-441,155,0,0,0,0,0,0,0,0,0,-1,783,869,0,0
-434,155,0,0,0,0,0,0,0,0,0,-1,790,869,0,0
-427,155,0,0,0,0,0,0,0,0,0,-1,797,869,0,0
-420,155,0,0,0,0,0,0,0,0,0,-1,804,869,0,0
-413,155,0,0,0,0,0,0,0,0,0,-1,811,869,0,0
-406,155,0,0,0,0,0,0,0,0,0,-1,818,869,0,0
-399,155,0,0,0,0,0,0,0,0,0,-1,825,869,0,0
-392,155,0,0,0,0,0,0,0,0,0,-1,832,869,0,0
-385,155,0,0,0,0,0,0,0,0,0,-1,839,869,0,0
-378,155,0,0,0,0,0,0,0,0,0,-1,846,869,0,0
-371,155,0,0,0,0,0,0,0,0,0,-1,853,869,0,0
-364,155,0,0,0,0,0,0,0,0,0,-1,860,869,0,0
-357,155,0,0,0,0,0,0,0,0,0,-1,867,869,0,0
-350,155,0,0,0,0,0,0,0,0,0,-1,874,869,0,0
-343,155,0,0,0,0,0,0,0,0,0,-1,881,869,0,0
-336,155,0,0,0,0,0,0,0,0,0,-1,888,869,0,0
-329,155,0,0,0,0,0,0,0,0,0,-1,895,869,0,0
-322,155,0,0,0,0,0,0,0,0,0,-1,902,869,0,0
-315,155,0,0,0,0,0,0,0,0,0,-1,909,869,0,0
-308,155,0,0,0,0,0,0,0,0,0,-1,916,869,0,0
-301,155,0,0,0,0,0,0,0,0,0,-1,923,869,0,0
-294,155,0,0,0,0,0,0,0,0,0,-1,930,869,0,0
-287,155,0,0,0,0,0,0,0,0,0,-1,937,869,0,0
-280,155,0,0,0,0,0,0,0,0,0,-1,944,869,0,0
-273,155,0,0,0,0,0,0,0,0,0,-1,951,869,0,0
-266,155,0,0,0,0,0,0,0,0,0,-1,958,869,0,0
-259,155,0,0,0,0,0,0,0,0,0,-1,965,869,0,0
-252,155,0,0,0,0,0,0,0,0,0,-1,972,869,0,0
-245,155,0,0,0,0,0,0,0,0,0,-1,979,869,0,0
-238,155,0,0,0,0,0,0,0,0,0,-1,986,869,0,0
-231,155,0,0,0,0,0,0,0,0,0,-1,993,869,0,0
-224,155,0,0,0,0,0,0,0,0,0,-1,1000,869,0,0
-217,155,0,0,0,0,0,0,0,0,0,-1,1007,869,0,0
-210,155,0,0,0,0,0,0,0,0,0,-1,1014,869,0,0
-203,155,0,0,0,0,0,0,0,0,0,-1,1021,869,0,0
-196,155,0,0,0,0,0,0,0,0,0,-1,1028,869,0,0
-189,155,0,0,0,0,0,0,0,0,0,-1,1035,869,0,0
-182,155,0,0,0,0,0,0,0,0,0,-1,1042,869,0,0
-175,155,0,0,0,0,0,0,0,0,0,-1,1049,869,0,0
-168,155,0,0,0,0,0,0,0,0,0,-1,1056,869,0,0
-161,155,0,0,0,0,0,0,0,0,0,-1,1063,869,0,0
-154,155,0,0,0,0,0,0,0,0,0,-1,1070,869,0,0
-147,155,0,0,0,0,0,0,0,0,0,-1,1077,869,0,0
-140,155,0,0,0,0,0,0,0,0,0,-1,1084,869,0,0
-133,155,0,0,0,0,0,0,0,0,0,-1,1091,869,0,0
-126,155,0,0,0,0,0,0,0,0,0,-1,1098,869,0,0
-119,155,0,0,0,0,0,0,0,0,0,-1,1105,869,0,0
-112,155,0,0,0,0,0,0,0,0,0,-1,1112,869,0,0
-105,155,0,0,0,0,0,0,0,0,0,-1,1119,869,0,0
-98,155,0,0,0,0,0,0,0,0,0,-1,1126,869,0,0
-91,155,0,0,0,0,0,0,0,0,0,-1,1133,869,0,0
-84,155,0,0,0,0,0,0,0,0,0,-1,1140,869,0,0
-77,155,0,0,0,0,0,0,0,0,0,-1,1147,869,0,0
-70,155,0,0,0,0,0,0,0,0,0,-1,1154,869,0,0
-63,155,0,0,0,0,0,0,0,0,0,-1,1161,869,0,0
-56,155,0,0,0,0,0,0,0,0,0,-1,1168,869,0,0
-49,155,0,0,0,0,0,0,0,0,0,-1,1175,869,0,0
-42,155,0,0,0,0,0,0,0,0,0,-1,1182,869,0,0
-35,155,0,0,0,0,0,0,0,0,0,-1,1189,869,0,0
-28,155,0,0,0,0,0,0,0,0,0,-1,1196,869,0,0
-21,155,0,0,0,0,0,0,0,0,0,-1,1203,869,0,0
-14,155,0,0,0,0,0,0,0,0,0,-1,1210,869,0,0
-7,155,0,0,0,0,0,0,0,0,0,-1,1217,869,0,0
0,155,0,0,0,0,0,0,0,0,0,-1,1224,869,0,0
7,155,0,0,0,0,0,0,0,0,0,-1,1231,869,0,0
14,155,0,0,0,0,0,0,0,0,0,-1,1238,869,0,0
21,155,0,0,0,0,0,0,0,0,0,-1,1245,869,0,0
28,155,0,0,0,0,0,0,0,0,0,-1,1252,869,0,0
35,155,0,0,0,0,0,0,0,0,0,-1,1259,869,0,0
42,155,0,0,0,0,0,0,0,0,0,-1,1266,869,0,0
49,155,0,0,0,0,0,0,0,0,0,-1,1273,869,0,0
56,155,0,0,0,0,0,0,0,0,0,-1,1280,869,0,0
63,155,0,0,0,0,0,0,0,0,0,-1,1287,869,0,0
70,155,0,0,0,0,0,0,0,0,0,-1,1294,869,0,0
77,155,0,0,0,0,0,0,0,0,0,-1,1301,869,0,0
84,155,0,0,0,0,0,0,0,0,0,-1,1308,869,0,0
91,155,0,0,0,0,0,0,0,0,0,-1,1315,869,0,0
98,155,0,0,0,0,0,0,0,0,0,-1,1322,869,0,0
105,155,0,0,0,0,0,0,0,0,0,-1,1329,869,0,0
112,155,0,0,0,0,0,0,0,0,0,-1,1336,869,0,0
119,155,0,0,0,0,0,0,0,0,0,-1,1343,869,0,0
126,155,0,0,0,0,0,0,0,0,0,-1,1350,869,0,0
133,155,0,0,0,0,0,0,0,0,0,-1,1357,869,0,0
140,155,0,0,0,0,0,0,0,0,0,-1,1364,869,0,0
147,155,0,0,0,0,0,0,0,0,0,-1,1371,869,0,0
154,155,0,0,0,0,0,0,0,0,0,-1,1378,869,0,0
161,155,0,0,0,0,0,0,0,0,0,-1,1385,869,0,0
168,155,0,0,0,0,0,0,0,0,0,-1,1392,869,0,0
175,155,0,0,0,0,0,0,0,0,0,-1,1399,869,0,0
182,155,0,0,0,0,0,0,0,0,0,-1,1406,869,0,0
189,155,0,0,0,0,0,0,0,0,0,-1,1413,869,0,0
196,155,0,0,0,0,0,0,0,0,0,-1,1420,869,0,0
203,155,0,0,0,0,0,0,0,0,0,-1,1427,869,0,0
210,155,0,0,0,0,0,0,0,0,0,-1,1434,869,0,0
217,155,0,0,0,0,0,0,0,0,0,-1,1441,869,0,0
224,155,0,0,0,0,0,0,0,0,0,-1,1448,869,0,0
231,155,0,0,0,0,0,0,0,0,0,-1,1455,869,0,0
238,155,0,0,0,0,0,0,0,0,0,-1,1462,869,0,0
245,155,0,0,0,0,0,0,0,0,0,-1,1469,869,0,0
252,155,0,0,0,0,0,0,0,0,0,-1,1476,869,0,0
259,155,0,0,0,0,0,0,0,0,0,-1,1483,869,0,0
266,155,0,0,0,0,0,0,0,0,0,-1,1490,869,0,0
273,155,0,0,0,0,0,0,0,0,0,-1,1497,869,0,0
280,155,0,0,0,0,0,0,0,0,0,-1,1504,869,0,0
287,155,0,0,0,0,0,0,0,0,0,-1,1511,869,0,0
294,155,0,0,0,0,0,0,0,0,0,-1,1518,869,0,0
301,155,0,0,0,0,0,0,0,0,0,-1,1525,869,0,0
308,155,0,0,0,0,0,0,0,0,0,-1,1532,869,0,0
315,155,0,0,0,0,0,0,0,0,0,-1,1539,869,0,0
322,155,0,0,0,0,0,0,0,0,0,-1,1546,869,0,0
329,155,0,0,0,0,0,0,0,0,0,-1,1553,869,0,0
336,155,0,0,0,0,0,0,0,0,0,-1,1560,869,0,0
343,155,0,0,0,0,0,0,0,0,0,-1,1567,869,0,0
350,155,0,0,0,0,0,0,0,0,0,-1,1574,869,0,0
357,155,0,0,0,0,0,0,0,0,0,-1,1581,869,0,0
364,155,0,0,0,0,0,0,0,0,0,-1,1588,869,0,0
371,155,0,0,0,0,0,0,0,0,0,-1,1595,869,0,0
378,155,0,0,0,0,0,0,0,0,0,-1,1602,869,0,0
385,155,0,0,0,0,0,0,0,0,0,-1,1609,869,0,0
392,155,0,0,0,0,0,0,0,0,0,-1,1616,869,0,0
399,155,0,0,0,0,0,0,0,0,0,-1,1623,869,0,0
406,155,0,0,0,0,0,0,0,0,0,-1,1630,869,0,0
413,155,0,0,0,0,0,0,0,0,0,-1,1637,869,0,0
420,155,0,0,0,0,0,0,0,0,0,-1,1644,869,0,0
427,155,0,0,0,0,0,0,0,0,0,-1,1651,869,0,0
434,155,0,0,0,0,0,0,0,0,0,-1,1658,869,0,0
441,155,0,0,0,0,0,0,0,0,0,-1,1665,869,0,0
448,155,0,0,0,0,0,0,0,0,0,-1,1672,869,0,0
455,155,0,0,0,0,0,0,0,0,0,-1,1679,869,0,0
462,155,0,0,0,0,0,0,0,0,0,-1,1686,869,0,0
469,155,0,0,0,0,0,0,0,0,0,-1,1693,869,0,0
476,155,0,0,0,0,0,0,0,0,0,-1,1700,869,0,0
483,155,0,0,0,0,0,0,0,0,0,-1,1707,869,0,0
490,155,0,0,0,0,0,0,0,0,0,-1,1714,869,0,0
497,155,0,0,0,0,0,0,0,0,0,-1,1721,869,0,0
504,155,0,0,0,0,0,0,0,0,0,-1,1728,869,0,0
511,155,0,0,0,0,0,0,0,0,0,-1,1735,869,0,0
518,155,0,0,0,0,0,0,0,0,0,-1,1742,869,0,0
525,155,0,0,0,0,0,0,0,0,0,-1,1749,869,0,0
532,155,0,0,0,0,0,0,0,0,0,-1,1756,869,0,0
539,155,0,0,0,0,0,0,0,0,0,-1,1763,869,0,0
546,155,0,0,0,0,0,0,0,0,0,-1,1770,869,0,0
553,155,0,0,0,0,0,0,0,0,0,-1,1777,869,0,0
560,155,0,0,0,0,0,0,0,0,0,-1,1784,869,0,0
567,155,0,0,0,0,0,0,0,0,0,-1,1791,869,0,0
574,155,0,0,0,0,0,0,0,0,0,-1,1798,869,0,0
581,155,0,0,0,0,0,0,0,0,0,-1,1805,869,0,0
588,155,0,0,0,0,0,0,0,0,0,-1,1812,869,0,0
595,155,0,0,0,0,0,0,0,0,0,-1,1819,869,0,0
602,155,0,0,0,0,0,0,0,0,0,-1,1826,869,0,0
609,155,0,0,0,0,0,0,0,0,0,-1,1833,869,0,0
616,155,40.8995,2.5459,0.00337553,0.00564153,0.000508057,0.00575022,0.00326684,1.36003,0.00333015,0.0446422,1840,869,40.8995,-2.54589
623,155,40.775,2.84375,0.00222998,0.00462498,0.000702312,0.00481573,0.00203922,1.30559,0.00279121,0.0428939,1847,869,40.775,-2.84373
630,155,40.8218,2.80231,0.00135206,0.00361726,0.00069026,0.00381103,0.0011583,1.29713,0.00225598,0.0423896,1854,869,40.8217,-2.80233
637,155,40.8152,2.69623,0.000647385,0.0026789,0.000552263,0.00281933,0.00050696,1.3218,0.00173542,0.0391616,1861,869,40.8151,-2.69625
644,155,40.8623,2.60443,0.000118552,0.00182576,0.000365624,0.00190076,4.35442e-05,1.36845,0.00125291,0.034607,1868,869,40.8623,-2.60443
651,155,40.8879,2.69067,-8.14409e-05,0.0010644,0.000193388,0.00109616,-0.0001132,1.40803,0.000771278,0.0319464,1875,869,40.8879,-2.6907
658,155,40.8823,2.70123,-0.000120012,0.000340469,-5.62622e-05,0.000347243,-0.000126787,-1.45096,0.000283375,0.0270504,1882,869,40.8823,-2.70123
665,155,40.8372,2.68988,-0.000241803,-0.00010018,-0.00017609,1.88035e-05,-0.000360786,-0.976569,0.000247031,0.0305796,1889,869,40.8371,-2.68989
672,155,40.7916,2.685,0,0,0,0,0,0,0,-1,1896,869,40.7917,-2.68502
679,155,35.1565,2.78528,0,0,0,0,0,0,0,-1,1903,869,35.1565,-2.7853
686,155,34.3162,2.06445,0,0,0,0,0,0,0,-1,1910,869,34.3161,-2.06446
693,155,34.3301,2.39044,-0.000170851,-0.00109924,-0.000716745,0.000218887,-0.00148898,-0.49804,0.00107308,0.0339472,1917,869,34.33,-2.39042
700,155,34.4032,2.82642,0.000198375,-0.00109604,-0.000762493,0.000551304,-0.00144897,-0.433499,0.00119299,0.0255418,1924,869,34.4032,-2.82644
707,155,34.4651,3.27417,0.000962207,-0.00108164,-0.000602236,0.00112646,-0.0012459,-0.266263,0.00137026,0.018571,1931,869,34.4651,-3.27419
714,155,34.4324,3.59961,0.00172841,-0.000464721,-0.000273421,0.00176198,-0.000498295,-0.12218,0.00137127,0.0345818,1938,869,34.4324,-3.5996
721,155,34.2019,4.02032,0.00325258,0.000414176,0.000217736,0.00326918,0.00039757,0.0761172,0.00205976,0.0287874,1945,869,34.2019,-4.02031
728,155,34.188,4.4494,0.00535193,0.00143303,0.0010625,0.00562146,0.0011635,0.248435,0.0034263,0.0197456,1952,869,34.188,-4.44938
735,155,34.2175,4.82312,0.00876164,0.00276305,0.00230591,0.0095456,0.00197909,0.327718,0.00581736,0.0162855,1959,869,34.2175,-4.82312
742,155,34.2073,5.24011,0.0137084,0.00445349,0.00403395,0.0152199,0.00294205,0.35849,0.00932195,0.0182945,1966,869,34.2072,-5.24013
749,155,34.1498,5.64063,0.0204941,0.00657017,0.00631778,0.0229334,0.00413089,0.368464,0.0141149,0.0166766,1973,869,34.1498,-5.64062
756,155,34.2395,6.11249,0.0297771,0.00923988,0.00929199,0.0333572,0.00565983,0.367755,0.0206122,0.0272211,1980,869,34.2395,-6.11249
763,155,34.5747,7.10797,0.0422184,0.0124766,0.0129067,0.0470383,0.00765672,0.357403,0.0291438,0.0413795,1987,869,34.5747,-7.10796
770,155,35.0551,8.06757,0.0595749,0.0174168,0.0178947,0.0661463,0.0108454,0.351937,0.0409638,0.0454854,1994,869,35.055,-8.06756
777,155,36.205,9.01392,0,0,0,0,0,0,0,-1,2001,869,36.2049,-9.01394
784,155,37.0835,9.97717,0,0,0,0,0,0,0,-1,2008,869,37.0835,-9.97716
791,155,0,0,0,0,0,0,0,0,0,-1,2015,869,0,0
798,155,0,0,0,0,0,0,0,0,0,-1,2022,869,0,0
805,155,0,0,0,0,0,0,0,0,0,-1,2029,869,0,0
812,155,0,0,0,0,0,0,0,0,0,-1,2036,869,0,0
-700,148,0,0,0,0,0,0,0,0,0,-1,524,876,0,0
-693,148,0,0,0,0,0,0,0,0,0,-1,531,876,0,0
-686,148,0,0,0,0,0,0,0,0,0,-1,538,876,0,0
-679,148,0,0,0,0,0,0,0,0,0,-1,545,876,0,0
-672,148,-26.5022,1.04541,0,0,0,0,0,0,0,-1,552,876,-26.5022,-1.0454
-665,148,-32.3719,-4.18262,0,0,0,0,0,0,0,-1,559,876,-32.372,4.18261
-658,148,-33.7919,-5.47577,0,0,0,0,0,0,0,-1,566,876,-33.7919,5.47576
-651,148,-26.1381,0.517212,0,0,0,0,0,0,0,-1,573,876,-26.138,-0.517216
-644,148,-24.7071,0.455139,0,0,0,0,0,0,0,-1,580,876,-24.7071,-0.45516
-637,148,-23.9197,3.37311,0,0,0,0,0,0,0,-1,587,876,-23.9197,-3.37308
-630,148,-24.7141,2.34576,0,0,0,0,0,0,0,-1,594,876,-24.7141,-2.34576
-623,148,-24.7645,3.44623,0.00638384,-0.00116778,0.00306414,0.00747071,-0.00225466,0.340863,0.00587798,0.0258953,601,876,-24.7644,-3.44622
-616,148,-24.8828,2.9892,0.000751276,0.00189907,0.00319317,0.0045695,-0.00191916,0.874312,0.00384899,0.0130071,608,876,-24.8828,-2.98917
-609,148,-24.9597,2.56268,-0.0024374,0.00321851,0.00280493,0.00437364,-0.00359253,1.18014,0.00460663,0.0123931,615,876,-24.9597,-2.56268
-602,148,-24.9979,2.18445,-0.00247225,0.00283326,0.00271214,0.00397429,-0.00361328,1.17256,0.00438234,0.0132736,622,876,-24.9979,-2.18448
-595,148,-25.0075,1.8042,-0.00207145,0.00171618,0.00223054,0.00274843,-0.0031037,1.13737,0.0033808,0.0120087,629,876,-25.0075,-1.80419
-588,148,-25.0163,1.36639,-0.00163384,0.00111548,0.00177254,0.00198394,-0.0025023,1.11522,0.00259589,0.0201139,636,876,-25.0163,-1.36639
-581,148,-25.1414,1.07373,-0.0014733,0.000871745,0.00155484,0.00164661,-0.00224817,1.10846,0.00225758,0.0340242,643,876,-25.1414,-1.07371
-574,148,-25.0286,1.01501,0,0,0,0,0,0,0,-1,650,876,-25.0286,-1.015
-567,148,-25.0834,0.31366,0,0,0,0,0,0,0,-1,657,876,-25.0834,-0.313688
-560,148,-25.1426,-0.273438,0,0,0,0,0,0,0,-1,664,876,-25.1425,0.273439
-553,148,-18.3896,-0.00280762,0,0,0,0,0,0,0,-1,671,876,-18.3897,0.00278524
-546,148,-30.0009,1.20892,0,0,0,0,0,0,0,-1,678,876,-30.0009,-1.20894
-539,148,-30.038,0.928101,-0.000771079,0.001,-0.000992309,0.00144444,-0.00121552,-1.1497,0.00153763,0.0364566,685,876,-30.038,-0.928128
-532,148,-30.0099,0.964172,-0.000894468,0.00130652,-0.0014712,0.00204329,-0.00163123,-1.10652,0.00212593,0.0362912,692,876,-30.01,-0.964167
-525,148,-30.0162,0.978027,-0.00141645,0.00145985,-0.00203807,0.00251609,-0.00247269,-1.09265,0.00288031,0.0389153,699,876,-30.0162,-0.978015
-518,148,-30.0135,0.953979,-0.0021219,0.00155736,-0.00264968,0.00294341,-0.00350796,-1.08884,0.00372945,0.044987,706,876,-30.0135,-0.953959
-511,148,-30.1401,1.13196,-0.00250329,0.00124526,-0.0032881,0.00315576,-0.00441379,-1.04444,0.00439035,0.0425434,713,876,-30.1402,-1.13198
-504,148,-30.1257,1.1795,-0.00262908,0.000547466,-0.00415337,0.00340589,-0.0054875,-0.968022,0.00518127,0.0413965,720,876,-30.1256,-1.17948
-497,148,0,0,0,0,0,0,0,0,0,-1,727,876,0,0
-490,148,0,0,0,0,0,0,0,0,0,-1,734,876,0,0
-483,148,0,0,0,0,0,0,0,0,0,-1,741,876,0,0
-476,148,0,0,0,0,0,0,0,0,0,-1,748,876,0,0
-469,148,0,0,0,0,0,0,0,0,0,-1,755,876,0,0
-462,148,0,0,0,0,0,0,0,0,0,-1,762,876,0,0
-455,148,0,0,0,0,0,0,0,0,0,-1,769,876,0,0
-448,148,0,0,0,0,0,0,0,0,0,-1,776,876,0,0
-441,148,0,0,0,0,0,0,0,0,0,-1,783,876,0,0
-434,148,0,0,0,0,0,0,0,0,0,-1,790,876,0,0
-427,148,0,0,0,0,0,0,0,0,0,-1,797,876,0,0
-420,148,0,0,0,0,0,0,0,0,0,-1,804,876,0,0
-413,148,0,0,0,0,0,0,0,0,0,-1,811,876,0,0
-406,148,0,0,0,0,0,0,0,0,0,-1,818,876,0,0
-399,148,0,0,0,0,0,0,0,0,0,-1,825,876,0,0
-392,148,0,0,0,0,0,0,0,0,0,-1,832,876,0,0
-385,148,0,0,0,0,0,0,0,0,0,-1,839,876,0,0
-378,148,0,0,0,0,0,0,0,0,0,-1,846,876,0,0
-371,148,0,0,0,0,0,0,0,0,0,-1,853,876,0,0
-364,148,0,0,0,0,0,0,0,0,0,-1,860,876,0,0
-357,148,0,0,0,0,0,0,0,0,0,-1,867,876,0,0
-350,148,0,0,0,0,0,0,0,0,0,-1,874,876,0,0
-343,148,0,0,0,0,0,0,0,0,0,-1,881,876,0,0
-336,148,0,0,0,0,0,0,0,0,0,-1,888,876,0,0
-329,148,0,0,0,0,0,0,0,0,0,-1,895,876,0,0
-322,148,0,0,0,0,0,0,0,0,0,-1,902,876,0,0
-315,148,0,0,0,0,0,0,0,0,0,-1,909,876,0,0
-308,148,0,0,0,0,0,0,0,0,0,-1,916,876,0,0
-301,148,0,0,0,0,0,0,0,0,0,-1,923,876,0,0
-294,148,0,0,0,0,0,0,0,0,0,-1,930,876,0,0
-287,148,0,0,0,0,0,0,0,0,0,-1,937,876,0,0
-280,148,0,0,0,0,0,0,0,0,0,-1,944,876,0,0
-273,148,0,0,0,0,0,0,0,0,0,-1,951,876,0,0
-266,148,0,0,0,0,0,0,0,0,0,-1,958,876,0,0
-259,148,0,0,0,0,0,0,0,0,0,-1,965,876,0,0
-252,148,0,0,0,0,0,0,0,0,0,-1,972,876,0,0
-245,148,0,0,0,0,0,0,0,0,0,-1,979,876,0,0
-238,148,0,0,0,0,0,0,0,0,0,-1,986,876,0,0
-231,148,0,0,0,0,0,0,0,0,0,-1,993,876,0,0
-224,148,0,0,0,0,0,0,0,0,0,-1,1000,876,0,0
-217,148,0,0,0,0,0,0,0,0,0,-1,1007,876,0,0
-210,148,0,0,0,0,0,0,0,0,0,-1,1014,876,0,0
-203,148,0,0,0,0,0,0,0,0,0,-1,1021,876,0,0
-196,148,0,0,0,0,0,0,0,0,0,-1,1028,876,0,0
-189,148,0,0,0,0,0,0,0,0,0,-1,1035,876,0,0
-182,148,0,0,0,0,0,0,0,0,0,-1,1042,876,0,0
-175,148,0,0,0,0,0,0,0,0,0,-1,1049,876,0,0
-168,148,0,0,0,0,0,0,0,0,0,-1,1056,876,0,0
-161,148,0,0,0,0,0,0,0,0,0,-1,1063,876,0,0
-154,148,0,0,0,0,0,0,0,0,0,-1,1070,876,0,0
-147,148,0,0,0,0,0,0,0,0,0,-1,1077,876,0,0
-140,148,0,0,0,0,0,0,0,0,0,-1,1084,876,0,0
-133,148,0,0,0,0,0,0,0,0,0,-1,1091,876,0,0
-126,148,0,0,0,0,0,0,0,0,0,-1,1098,876,0,0
-119,148,0,0,0,0,0,0,0,0,0,-1,1105,876,0,0
-112,148,0,0,0,0,0,0,0,0,0,-1,1112,876,0,0
-105,148,0,0,0,0,0,0,0,0,0,-1,1119,876,0,0
-98,148,0,0,0,0,0,0,0,0,0,-1,1126,876,0,0
-91,148,0,0,0,0,0,0,0,0,0,-1,1133,876,0,0
-84,148,0,0,0,0,0,0,0,0,0,-1,1140,876,0,0
-77,148,0,0,0,0,0,0,0,0,0,-1,1147,876,0,0
-70,148,0,0,0,0,0,0,0,0,0,-1,1154,876,0,0
-63,148,0,0,0,0,0,0,0,0,0,-1,1161,876,0,0
-56,148,0,0,0,0,0,0,0,0,0,-1,1168,876,0,0
-49,148,0,0,0,0,0,0,0,0,0,-1,1175,876,0,0
-42,148,0,0,0,0,0,0,0,0,0,-1,1182,876,0,0
-35,148,0,0,0,0,0,0,0,0,0,-1,1189,876,0,0
-28,148,0,0,0,0,0,0,0,0,0,-1,1196,876,0,0
-21,148,0,0,0,0,0,0,0,0,0,-1,1203,876,0,0
-14,148,0,0,0,0,0,0,0,0,0,-1,1210,876,0,0
-7,148,0,0,0,0,0,0,0,0,0,-1,1217,876,0,0
0,148,0,0,0,0,0,0,0,0,0,-1,1224,876,0,0
7,148,0,0,0,0,0,0,0,0,0,-1,1231,876,0,0
14,148,0,0,0,0,0,0,0,0,0,-1,1238,876,0,0
21,148,0,0,0,0,0,0,0,0,0,-1,1245,876,0,0
28,148,0,0,0,0,0,0,0,0,0,-1,1252,876,0,0
35,148,0,0,0,0,0,0,0,0,0,-1,1259,876,0,0
42,148,0,0,0,0,0,0,0,0,0,-1,1266,876,0,0
49,148,0,0,0,0,0,0,0,0,0,-1,1273,876,0,0
56,148,0,0,0,0,0,0,0,0,0,-1,1280,876,0,0
63,148,0,0,0,0,0,0,0,0,0,-1,1287,876,0,0
70,148,0,0,0,0,0,0,0,0,0,-1,1294,876,0,0
77,148,0,0,0,0,0,0,0,0,0,-1,1301,876,0,0
84,148,0,0,0,0,0,0,0,0,0,-1,1308,876,0,0
91,148,0,0,0,0,0,0,0,0,0,-1,1315,876,0,0
98,148,0,0,0,0,0,0,0,0,0,-1,1322,876,0,0
105,148,0,0,0,0,0,0,0,0,0,-1,1329,876,0,0
112,148,0,0,0,0,0,0,0,0,0,-1,1336,876,0,0
119,148,0,0,0,0,0,0,0,0,0,-1,1343,876,0,0
126,148,0,0,0,0,0,0,0,0,0,-1,1350,876,0,0
133,148,0,0,0,0,0,0,0,0,0,-1,1357,876,0,0
140,148,0,0,0,0,0,0,0,0,0,-1,1364,876,0,0
147,148,0,0,0,0,0,0,0,0,0,-1,1371,876,0,0
154,148,0,0,0,0,0,0,0,0,0,-1,1378,876,0,0
161,148,0,0,0,0,0,0,0,0,0,-1,1385,876,0,0
168,148,0,0,0,0,0,0,0,0,0,-1,1392,876,0,0
175,148,0,0,0,0,0,0,0,0,0,-1,1399,876,0,0
182,148,0,0,0,0,0,0,0,0,0,-1,1406,876,0,0
189,148,0,0,0,0,0,0,0,0,0,-1,1413,876,0,0
196,148,0,0,0,0,0,0,0,0,0,-1,1420,876,0,0
203,148,0,0,0,0,0,0,0,0,0,-1,1427,876,0,0
210,148,0,0,0,0,0,0,0,0,0,-1,1434,876,0,0
217,148,0,0,0,0,0,0,0,0,0,-1,1441,876,0,0
224,148,0,0,0,0,0,0,0,0,0,-1,1448,876,0,0
231,148,0,0,0,0,0,0,0,0,0,-1,1455,876,0,0
238,148,0,0,0,0,0,0,0,0,0,-1,1462,876,0,0
245,148,0,0,0,0,0,0,0,0,0,-1,1469,876,0,0
252,148,0,0,0,0,0,0,0,0,0,-1,1476,876,0,0
259,148,0,0,0,0,0,0,0,0,0,-1,1483,876,0,0
266,148,0,0,0,0,0,0,0,0,0,-1,1490,876,0,0
273,148,0,0,0,0,0,0,0,0,0,-1,1497,876,0,0
280,148,0,0,0,0,0,0,0,0,0,-1,1504,876,0,0
287,148,0,0,0,0,0,0,0,0,0,-1,1511,876,0,0
294,148,0,0,0,0,0,0,0,0,0,-1,1518,876,0,0
301,148,0,0,0,0,0,0,0,0,0,-1,1525,876,0,0
308,148,0,0,0,0,0,0,0,0,0,-1,1532,876,0,0
315,148,0,0,0,0,0,0,0,0,0,-1,1539,876,0,0
322,148,0,0,0,0,0,0,0,0,0,-1,1546,876,0,0
329,148,0,0,0,0,0,0,0,0,0,-1,1553,876,0,0
336,148,0,0,0,0,0,0,0,0,0,-1,1560,876,0,0
343,148,0,0,0,0,0,0,0,0,0,-1,1567,876,0,0
350,148,0,0,0,0,0,0,0,0,0,-1,1574,876,0,0
357,148,0,0,0,0,0,0,0,0,0,-1,1581,876,0,0
364,148,0,0,0,0,0,0,0,0,0,-1,1588,876,0,0
371,148,0,0,0,0,0,0,0,0,0,-1,1595,876,0,0
378,148,0,0,0,0,0,0,0,0,0,-1,1602,876,0,0
385,148,0,0,0,0,0,0,0,0,0,-1,1609,876,0,0
392,148,0,0,0,0,0,0,0,0,0,-1,1616,876,0,0
399,148,0,0,0,0,0,0,0,0,0,-1,1623,876,0,0
406,148,0,0,0,0,0,0,0,0,0,-1,1630,876,0,0
413,148,0,0,0,0,0,0,0,0,0,-1,1637,876,0,0
420,148,0,0,0,0,0,0,0,0,0,-1,1644,876,0,0
427,148,0,0,0,0,0,0,0,0,0,-1,1651,876,0,0
434,148,0,0,0,0,0,0,0,0,0,-1,1658,876,0,0
441,148,0,0,0,0,0,0,0,0,0,-1,1665,876,0,0
448,148,0,0,0,0,0,0,0,0,0,-1,1672,876,0,0
455,148,0,0,0,0,0,0,0,0,0,-1,1679,876,0,0
462,148,0,0,0,0,0,0,0,0,0,-1,1686,876,0,0
469,148,0,0,0,0,0,0,0,0,0,-1,1693,876,0,0
476,148,0,0,0,0,0,0,0,0,0,-1,1700,876,0,0
483,148,0,0,0,0,0,0,0,0,0,-1,1707,876,0,0
490,148,0,0,0,0,0,0,0,0,0,-1,1714,876,0,0
497,148,0,0,0,0,0,0,0,0,0,-1,1721,876,0,0
504,148,0,0,0,0,0,0,0,0,0,-1,1728,876,0,0
511,148,0,0,0,0,0,0,0,0,0,-1,1735,876,0,0
518,148,0,0,0,0,0,0,0,0,0,-1,1742,876,0,0
525,148,0,0,0,0,0,0,0,0,0,-1,1749,876,0,0
532,148,0,0,0,0,0,0,0,0,0,-1,1756,876,0,0
539,148,0,0,0,0,0,0,0,0,0,-1,1763,876,0,0
546,148,0,0,0,0,0,0,0,0,0,-1,1770,876,0,0
553,148,0,0,0,0,0,0,0,0,0,-1,1777,876,0,0
560,148,0,0,0,0,0,0,0,0,0,-1,1784,876,0,0
567,148,0,0,0,0,0,0,0,0,0,-1,1791,876,0,0
574,148,0,0,0,0,0,0,0,0,0,-1,1798,876,0,0
581,148,0,0,0,0,0,0,0,0,0,-1,1805,876,0,0
588,148,0,0,0,0,0,0,0,0,0,-1,1812,876,0,0
595,148,0,0,0,0,0,0,0,0,0,-1,1819,876,0,0
602,148,0,0,0,0,0,0,0,0,0,-1,1826,876,0,0
609,148,0,0,0,0,0,0,0,0,0,-1,1833,876,0,0
616,148,0,0,0,0,0,0,0,0,0,-1,1840,876,0,0
623,148,40.8816,2.68347,0.00232724,0.00624699,0.00105294,0.00651192,0.0020623,1.3243,0.00384295,0.0417332,1847,876,40.8816,-2.6835
630,148,40.9214,2.57758,0.00137149,0.00494422,0.00114417,0.00527923,0.00103648,1.28596,0.00322991,0.040047,1854,876,40.9213,-2.57759
637,148,40.8906,2.66528,0.000686794,0.00370279,0.00101807,0.00401427,0.000375309,1.27388,0.00256026,0.0350016,1861,876,40.8906,-2.66531
644,148,40.869,2.68628,0.000167981,0.00258302,0.000795067,0.00282126,-7.02643e-05,1.27966,0.00190469,0.0334225,1868,876,40.8691,-2.68627
651,148,40.8379,2.75281,-3.22423e-05,0.00161944,0.00057119,0.00179773,-0.000210528,1.26825,0.00127447,0.0360424,1875,876,40.8379,-2.75282
658,148,40.7777,2.78387,-4.86766e-05,0.000723569,0.000279647,0.000814199,-0.000139307,1.25739,0.000594699,0.0323195,1882,876,40.7777,-2.7839
665,148,40.7642,2.77301,-0.000102843,0.000168671,9.37969e-05,0.000197922,-0.000132094,1.26849,0.000191794,0.0242684,1889,876,40.7642,-2.77303
672,148,40.8131,2.71149,-8.91718e-05,-0.000300737,-7.80244e-05,-6.35095e-05,-0.000326399,-0.317756,0.000199823,0.0301577,1896,876,40.8131,-2.71151
679,148,40.7555,2.87231,0,0,0,0,0,0,0,-1,1903,876,40.7555,-2.87232
686,148,21.6195,2.40845,0,0,0,0,0,0,0,-1,1910,876,21.6196,-2.40846
693,148,34.7465,2.46973,0,0,0,0,0,0,0,-1,1917,876,34.7465,-2.46973
700,148,34.8445,2.88904,0.000423864,-0.00104863,-0.000694519,0.000699752,-0.00132451,-0.378121,0.00118712,0.0273124,1924,876,34.8445,-2.88906
707,148,34.9617,3.42346,0.00115565,-0.00106206,-0.000619506,0.00131697,-0.00122338,-0.254746,0.001467,0.0234524,1931,876,34.9616,-3.42346
714,148,34.8794,3.69843,0.00179331,-0.000463421,-0.000388728,0.00185839,-0.000528504,-0.165886,0.00144762,0.0238352,1938,876,34.8794,-3.6984
721,148,34.6598,4.04443,0.00297232,0.000395892,-6.6715e-06,0.00297234,0.000395874,-0.00258942,0.00186367,0.020833,1945,876,34.6598,-4.04443
728,148,34.6499,4.44995,0.0045012,0.00142634,0.000705129,0.00465519,0.00127235,0.215008,0.00277822,0.0207739,1952,876,34.65,-4.44997
735,148,34.6692,4.82922,0.00716169,0.00283244,0.00173632,0.00777203,0.0022221,0.33802,0.00462226,0.0190928,1959,876,34.6692,-4.8292
742,148,34.6118,5.22321,0.0111394,0.00465091,0.0031304,0.0124034,0.00338688,0.383772,0.0074029,0.0204705,1966,876,34.6119,-5.22322
749,148,34.5433,5.62805,0.0166802,0.00692434,0.00499764,0.0187859,0.00481868,0.398759,0.0112666,0.0195109,1973,876,34.5433,-5.62804
756,148,34.5487,6.10309,0.0239949,0.00975428,0.00730742,0.0270774,0.00667178,0.399183,0.0162896,0.0233793,1980,876,34.5486,-6.10309
763,148,34.913,6.95233,0.0333742,0.0131377,0.00991005,0.0374189,0.00909305,0.387502,0.022535,0.0418336,1987,876,34.913,-6.95232
770,148,35.7531,7.82129,0.0460467,0.01805,0.0132223,0.0513041,0.0127926,0.378448,0.0308361,0.0429579,1994,876,35.753,-7.82127
777,148,36.6129,9.40643,0,0,0,0,0,0,0,-1,2001,876,36.6129,-9.40646
784,148,34.1647,8.33008,0,0,0,0,0,0,0,-1,2008,876,34.1647,-8.33006
791,148,34.697,9.08472,0,0,0,0,0,0,0,-1,2015,876,34.6969,-9.0847
798,148,0,0,0,0,0,0,0,0,0,-1,2022,876,0,0
805,148,0,0,0,0,0,0,0,0,0,-1,2029,876,0,0
812,148,0,0,0,0,0,0,0,0,0,-1,2036,876,0,0
-700,141,0,0,0,0,0,0,0,0,0,-1,524,883,0,0
-693,141,0,0,0,0,0,0,0,0,0,-1,531,883,0,0
-686,141,0,0,0,0,0,0,0,0,0,-1,538,883,0,0
-679,141,0,0,0,0,0,0,0,0,0,-1,545,883,0,0
-672,141,-26.9098,1.47852,0,0,0,0,0,0,0,-1,552,883,-26.9098,-1.47854
-665,141,-26.238,1.05487,0,0,0,0,0,0,0,-1,559,883,-26.238,-1.0549
-658,141,-32.431,-4.75238,0,0,0,0,0,0,0,-1,566,883,-32.431,4.75236
-651,141,-29.4988,-1.96039,0,0,0,0,0,0,0,-1,573,883,-29.4988,1.96042
-644,141,-25.7719,0.744324,0,0,0,0,0,0,0,-1,580,883,-25.7719,-0.744342
-637,141,-25.3105,4.45966,0,0,0,0,0,0,0,-1,587,883,-25.3105,-4.45969
-630,141,-25.2881,4.02124,0.014366,-0.00816766,0.00220342,0.0145795,-0.0083811,0.0965646,0.0134163,0.043483,594,883,-25.2881,-4.02126
-623,141,-25.1325,3.38745,0.00736692,-0.00210223,0.00318345,0.00833766,-0.00307296,0.295975,0.00681765,0.0263095,601,883,-25.1325,-3.38747
-616,141,-25.2947,2.95538,0.00146669,0.00100306,0.00322326,0.00446646,-0.00199671,0.7495,0.00382125,0.0119615,608,883,-25.2947,-2.95539
-609,141,-25.3616,2.57794,-0.00224908,0.0026273,0.00268041,0.00381256,-0.00343434,1.15445,0.0041859,0.0128862,615,883,-25.3616,-2.57796
-602,141,-25.389,2.19885,-0.00257427,0.00236559,0.00253915,0.00343795,-0.00364663,1.17119,0.00409088,0.0128401,622,883,-25.389,-2.19884
-595,141,-25.3842,1.80243,-0.00232823,0.00137846,0.00207103,0.00230434,-0.00325411,1.15039,0.00322475,0.0130393,629,883,-25.3842,-1.80244
-588,141,-25.6182,1.41907,-0.0020411,0.000922153,0.00165171,0.00165939,-0.00277833,1.15098,0.00258913,0.0255724,636,883,-25.6182,-1.41906
-581,141,-25.5684,1.07605,-0.00199706,0.000768672,0.0014731,0.00140629,-0.00263468,1.1623,0.00236871,0.0344423,643,883,-25.5684,-1.07606
-574,141,-25.2853,0.739258,0,0,0,0,0,0,0,-1,650,883,-25.2853,-0.739273
-567,141,-25.2859,0.48877,0,0,0,0,0,0,0,-1,657,883,-25.2859,-0.488754
-560,141,-25.2864,0.23822,0,0,0,0,0,0,0,-1,664,883,-25.2864,-0.238236
-553,141,-29.9964,1.11646,0,0,0,0,0,0,0,-1,671,883,-29.9964,-1.11644
-546,141,-30.0329,1.03638,-0.000923789,0.000471576,-0.000764064,0.00080857,-0.00126078,-1.15541,0.00120421,0.0452074,678,883,-30.0329,-1.03637
-539,141,-30.0368,0.917175,-0.000792748,0.000626804,-0.00121545,0.00132455,-0.00149049,-1.04967,0.0016262,0.0300556,685,883,-30.0368,-0.91715
-532,141,-30.0154,0.939392,-0.000783067,0.000802196,-0.00174489,0.00192604,-0.00190691,-0.998594,0.00221297,0.0304379,692,883,-30.0154,-0.939421
-525,141,-29.9605,0.969482,-0.00118898,0.000820144,-0.00242493,0.00244036,-0.00280919,-0.981769,0.00303332,0.0397617,699,883,-29.9605,-0.969504
-518,141,-29.9431,0.915283,-0.00176147,0.000777065,-0.00323907,0.00298667,-0.00397108,-0.972134,0.00403044,0.0438651,706,883,-29.9431,-0.915283
-511,141,-30.0961,0.930664,-0.0020173,0.000558691,-0.00419592,0.00365985,-0.00511846,-0.934315,0.00509142,0.0413841,713,883,-30.0961,-0.930651
-504,141,-30.1397,0.968567,-0.00194209,0.000454835,-0.00553572,0.00492034,-0.0064076,-0.892001,0.00655895,0.043448,720,883,-30.1397,-0.968552
-497,141,0,0,0,0,0,0,0,0,0,-1,727,883,0,0
-490,141,0,0,0,0,0,0,0,0,0,-1,734,883,0,0
-483,141,0,0,0,0,0,0,0,0,0,-1,741,883,0,0
-476,141,0,0,0,0,0,0,0,0,0,-1,748,883,0,0
-469,141,0,0,0,0,0,0,0,0,0,-1,755,883,0,0
-462,141,0,0,0,0,0,0,0,0,0,-1,762,883,0,0
-455,141,0,0,0,0,0,0,0,0,0,-1,769,883,0,0
-448,141,0,0,0,0,0,0,0,0,0,-1,776,883,0,0
-441,141,0,0,0,0,0,0,0,0,0,-1,783,883,0,0
-434,141,0,0,0,0,0,0,0,0,0,-1,790,883,0,0
-427,141,0,0,0,0,0,0,0,0,0,-1,797,883,0,0
-420,141,0,0,0,0,0,0,0,0,0,-1,804,883,0,0
-413,141,0,0,0,0,0,0,0,0,0,-1,811,883,0,0
-406,141,0,0,0,0,0,0,0,0,0,-1,818,883,0,0
-399,141,0,0,0,0,0,0,0,0,0,-1,825,883,0,0
-392,141,0,0,0,0,0,0,0,0,0,-1,832,883,0,0
-385,141,0,0,0,0,0,0,0,0,0,-1,839,883,0,0
-378,141,0,0,0,0,0,0,0,0,0,-1,846,883,0,0
-371,141,0,0,0,0,0,0,0,0,0,-1,853,883,0,0
-364,141,0,0,0,0,0,0,0,0,0,-1,860,883,0,0
-357,141,0,0,0,0,0,0,0,0,0,-1,867,883,0,0
-350,141,0,0,0,0,0,0,0,0,0,-1,874,883,0,0
-343,141,0,0,0,0,0,0,0,0,0,-1,881,883,0,0
-336,141,0,0,0,0,0,0,0,0,0,-1,888,883,0,0
-329,141,0,0,0,0,0,0,0,0,0,-1,895,883,0,0
-322,141,0,0,0,0,0,0,0,0,0,-1,902,883,0,0
-315,141,0,0,0,0,0,0,0,0,0,-1,909,883,0,0
-308,141,0,0,0,0,0,0,0,0,0,-1,916,883,0,0
-301,141,0,0,0,0,0,0,0,0,0,-1,923,883,0,0
-294,141,0,0,0,0,0,0,0,0,0,-1,930,883,0,0
-287,141,0,0,0,0,0,0,0,0,0,-1,937,883,0,0
-280,141,0,0,0,0,0,0,0,0,0,-1,944,883,0,0
-273,141,0,0,0,0,0,0,0,0,0,-1,951,883,0,0
-266,141,0,0,0,0,0,0,0,0,0,-1,958,883,0,0
-259,141,0,0,0,0,0,0,0,0,0,-1,965,883,0,0
-252,141,0,0,0,0,0,0,0,0,0,-1,972,883,0,0
-245,141,0,0,0,0,0,0,0,0,0,-1,979,883,0,0
-238,141,0,0,0,0,0,0,0,0,0,-1,986,883,0,0
-231,141,0,0,0,0,0,0,0,0,0,-1,993,883,0,0
-224,141,0,0,0,0,0,0,0,0,0,-1,1000,883,0,0
-217,141,0,0,0,0,0,0,0,0,0,-1,1007,883,0,0
-210,141,0,0,0,0,0,0,0,0,0,-1,1014,883,0,0
-203,141,0,0,0,0,0,0,0,0,0,-1,1021,883,0,0
-196,141,0,0,0,0,0,0,0,0,0,-1,1028,883,0,0
-189,141,0,0,0,0,0,0,0,0,0,-1,1035,883,0,0
-182,141,0,0,0,0,0,0,0,0,0,-1,1042,883,0,0
-175,141,0,0,0,0,0,0,0,0,0,-1,1049,883,0,0
-168,141,0,0,0,0,0,0,0,0,0,-1,1056,883,0,0
-161,141,0,0,0,0,0,0,0,0,0,-1,1063,883,0,0
-154,141,0,0,0,0,0,0,0,0,0,-1,1070,883,0,0
-147,141,0,0,0,0,0,0,0,0,0,-1,1077,883,0,0
-140,141,0,0,0,0,0,0,0,0,0,-1,1084,883,0,0
-133,141,0,0,0,0,0,0,0,0,0,-1,1091,883,0,0
-126,141,0,0,0,0,0,0,0,0,0,-1,1098,883,0,0
-119,141,0,0,0,0,0,0,0,0,0,-1,1105,883,0,0
-112,141,0,0,0,0,0,0,0,0,0,-1,1112,883,0,0
-105,141,0,0,0,0,0,0,0,0,0,-1,1119,883,0,0
-98,141,0,0,0,0,0,0,0,0,0,-1,1126,883,0,0
-91,141,0,0,0,0,0,0,0,0,0,-1,1133,883,0,0
-84,141,0,0,0,0,0,0,0,0,0,-1,1140,883,0,0
-77,141,0,0,0,0,0,0,0,0,0,-1,1147,883,0,0
-70,141,0,0,0,0,0,0,0,0,0,-1,1154,883,0,0
-63,141,0,0,0,0,0,0,0,0,0,-1,1161,883,0,0
-56,141,0,0,0,0,0,0,0,0,0,-1,1168,883,0,0
-49,141,0,0,0,0,0,0,0,0,0,-1,1175,883,0,0
-42,141,0,0,0,0,0,0,0,0,0,-1,1182,883,0,0
-35,141,0,0,0,0,0,0,0,0,0,-1,1189,883,0,0
-28,141,0,0,0,0,0,0,0,0,0,-1,1196,883,0,0
-21,141,0,0,0,0,0,0,0,0,0,-1,1203,883,0,0
-14,141,0,0,0,0,0,0,0,0,0,-1,1210,883,0,0
-7,141,0,0,0,0,0,0,0,0,0,-1,1217,883,0,0
0,141,0,0,0,0,0,0,0,0,0,-1,1224,883,0,0
7,141,0,0,0,0,0,0,0,0,0,-1,1231,883,0,0
14,141,0,0,0,0,0,0,0,0,0,-1,1238,883,0,0
21,141,0,0,0,0,0,0,0,0,0,-1,1245,883,0,0
28,141,0,0,0,0,0,0,0,0,0,-1,1252,883,0,0
35,141,0,0,0,0,0,0,0,0,0,-1,1259,883,0,0
42,141,0,0,0,0,0,0,0,0,0,-1,1266,883,0,0
49,141,0,0,0,0,0,0,0,0,0,-1,1273,883,0,0
56,141,0,0,0,0,0,0,0,0,0,-1,1280,883,0,0
63,141,0,0,0,0,0,0,0,0,0,-1,1287,883,0,0
70,141,0,0,0,0,0,0,0,0,0,-1,1294,883,0,0
77,141,0,0,0,0,0,0,0,0,0,-1,1301,883,0,0
84,141,0,0,0,0,0,0,0,0,0,-1,1308,883,0,0
91,141,0,0,0,0,0,0,0,0,0,-1,1315,883,0,0
98,141,0,0,0,0,0,0,0,0,0,-1,1322,883,0,0
105,141,0,0,0,0,0,0,0,0,0,-1,1329,883,0,0
112,141,0,0,0,0,0,0,0,0,0,-1,1336,883,0,0
119,141,0,0,0,0,0,0,0,0,0,-1,1343,883,0,0
126,141,0,0,0,0,0,0,0,0,0,-1,1350,883,0,0
133,141,0,0,0,0,0,0,0,0,0,-1,1357,883,0,0
140,141,0,0,0,0,0,0,0,0,0,-1,1364,883,0,0
147,141,0,0,0,0,0,0,0,0,0,-1,1371,883,0,0
154,141,0,0,0,0,0,0,0,0,0,-1,1378,883,0,0
161,141,0,0,0,0,0,0,0,0,0,-1,1385,883,0,0
168,141,0,0,0,0,0,0,0,0,0,-1,1392,883,0,0
175,141,0,0,0,0,0,0,0,0,0,-1,1399,883,0,0
182,141,0,0,0,0,0,0,0,0,0,-1,1406,883,0,0
189,141,0,0,0,0,0,0,0,0,0,-1,1413,883,0,0
196,141,0,0,0,0,0,0,0,0,0,-1,1420,883,0,0
203,141,0,0,0,0,0,0,0,0,0,-1,1427,883,0,0
210,141,0,0,0,0,0,0,0,0,0,-1,1434,883,0,0
217,141,0,0,0,0,0,0,0,0,0,-1,1441,883,0,0
224,141,0,0,0,0,0,0,0,0,0,-1,1448,883,0,0
231,141,0,0,0,0,0,0,0,0,0,-1,1455,883,0,0
238,141,0,0,0,0,0,0,0,0,0,-1,1462,883,0,0
245,141,0,0,0,0,0,0,0,0,0,-1,1469,883,0,0
252,141,0,0,0,0,0,0,0,0,0,-1,1476,883,0,0
259,141,0,0,0,0,0,0,0,0,0,-1,1483,883,0,0
266,141,0,0,0,0,0,0,0,0,0,-1,1490,883,0,0
273,141,0,0,0,0,0,0,0,0,0,-1,1497,883,0,0
280,141,0,0,0,0,0,0,0,0,0,-1,1504,883,0,0
287,141,0,0,0,0,0,0,0,0,0,-1,1511,883,0,0
294,141,0,0,0,0,0,0,0,0,0,-1,1518,883,0,0
301,141,0,0,0,0,0,0,0,0,0,-1,1525,883,0,0
308,141,0,0,0,0,0,0,0,0,0,-1,1532,883,0,0
315,141,0,0,0,0,0,0,0,0,0,-1,1539,883,0,0
322,141,0,0,0,0,0,0,0,0,0,-1,1546,883,0,0
329,141,0,0,0,0,0,0,0,0,0,-1,1553,883,0,0
336,141,0,0,0,0,0,0,0,0,0,-1,1560,883,0,0
343,141,0,0,0,0,0,0,0,0,0,-1,1567,883,0,0
350,141,0,0,0,0,0,0,0,0,0,-1,1574,883,0,0
357,141,0,0,0,0,0,0,0,0,0,-1,1581,883,0,0
364,141,0,0,0,0,0,0,0,0,0,-1,1588,883,0,0
371,141,0,0,0,0,0,0,0,0,0,-1,1595,883,0,0
378,141,0,0,0,0,0,0,0,0,0,-1,1602,883,0,0
385,141,0,0,0,0,0,0,0,0,0,-1,1609,883,0,0
392,141,0,0,0,0,0,0,0,0,0,-1,1616,883,0,0
399,141,0,0,0,0,0,0,0,0,0,-1,1623,883,0,0
406,141,0,0,0,0,0,0,0,0,0,-1,1630,883,0,0
413,141,0,0,0,0,0,0,0,0,0,-1,1637,883,0,0
420,141,0,0,0,0,0,0,0,0,0,-1,1644,883,0,0
427,141,0,0,0,0,0,0,0,0,0,-1,1651,883,0,0
434,141,0,0,0,0,0,0,0,0,0,-1,1658,883,0,0
441,141,0,0,0,0,0,0,0,0,0,-1,1665,883,0,0
448,141,0,0,0,0,0,0,0,0,0,-1,1672,883,0,0
455,141,0,0,0,0,0,0,0,0,0,-1,1679,883,0,0
462,141,0,0,0,0,0,0,0,0,0,-1,1686,883,0,0
469,141,0,0,0,0,0,0,0,0,0,-1,1693,883,0,0
476,141,0,0,0,0,0,0,0,0,0,-1,1700,883,0,0
483,141,0,0,0,0,0,0,0,0,0,-1,1707,883,0,0
490,141,0,0,0,0,0,0,0,0,0,-1,1714,883,0,0
497,141,0,0,0,0,0,0,0,0,0,-1,1721,883,0,0
504,141,0,0,0,0,0,0,0,0,0,-1,1728,883,0,0
511,141,0,0,0,0,0,0,0,0,0,-1,1735,883,0,0
518,141,0,0,0,0,0,0,0,0,0,-1,1742,883,0,0
525,141,0,0,0,0,0,0,0,0,0,-1,1749,883,0,0
532,141,0,0,0,0,0,0,0,0,0,-1,1756,883,0,0
539,141,0,0,0,0,0,0,0,0,0,-1,1763,883,0,0
546,141,0,0,0,0,0,0,0,0,0,-1,1770,883,0,0
553,141,0,0,0,0,0,0,0,0,0,-1,1777,883,0,0
560,141,0,0,0,0,0,0,0,0,0,-1,1784,883,0,0
567,141,0,0,0,0,0,0,0,0,0,-1,1791,883,0,0
574,141,0,0,0,0,0,0,0,0,0,-1,1798,883,0,0
581,141,0,0,0,0,0,0,0,0,0,-1,1805,883,0,0
588,141,0,0,0,0,0,0,0,0,0,-1,1812,883,0,0
595,141,0,0,0,0,0,0,0,0,0,-1,1819,883,0,0
602,141,0,0,0,0,0,0,0,0,0,-1,1826,883,0,0
609,141,0,0,0,0,0,0,0,0,0,-1,1833,883,0,0
616,141,0,0,0,0,0,0,0,0,0,-1,1840,883,0,0
623,141,40.9086,2.54913,0.00199802,0.00735621,0.00154537,0.00776996,0.00158427,1.30919,0.00474095,0.0429092,1847,883,40.9085,-2.5491
630,141,40.9302,2.53076,0.000991471,0.00591875,0.00169631,0.00644626,0.000463958,1.2693,0.00415151,0.0420421,1854,883,40.9302,-2.53077
637,141,40.9247,2.67383,0.000445311,0.0045646,0.00157047,0.00509504,-8.5125e-05,1.24507,0.00342542,0.0396213,1861,883,40.9247,-2.67384
644,141,40.918,2.67499,8.10789e-05,0.00332802,0.00131058,0.003791,-0.000381904,1.23122,0.00266378,0.0382067,1868,883,40.9179,-2.67501
651,141,40.9365,2.75934,-2.07262e-06,0.0022617,0.00103439,0.00266315,-0.000403525,1.20059,0.0019241,0.0400475,1875,883,40.9365,-2.75936
658,141,40.8682,2.75836,8.93913e-05,0.00127425,0.000700522,0.00159926,-0.000235624,1.13639,0.00115277,0.0377318,1882,883,40.8682,-2.75836
665,141,40.7358,2.73566,0.000165127,0.000642297,0.000464553,0.000925949,-0.000118526,1.02262,0.000660363,0.0283822,1889,883,40.7359,-2.73568
672,141,40.8009,2.71014,0.000286851,0.000113063,0.00025407,0.000468475,-6.85618e-05,0.620629,0.0003375,0.0216775,1896,883,40.8009,-2.71017
679,141,40.8417,2.67511,0.000416758,-0.000253984,5.70081e-05,0.000421569,-0.000258795,0.0841879,0.000396538,0.0381679,1903,883,40.8417,-2.67511
686,141,40.8683,2.59235,0,0,0,0,0,0,0,-1,1910,883,40.8683,-2.59236
693,141,34.8378,2.33441,0,0,0,0,0,0,0,-1,1917,883,34.8378,-2.3344
700,141,35.2114,2.87903,0.000768705,-0.000806435,-0.00049264,0.000910092,-0.000947822,-0.279486,0.00107274,0.0256797,1924,883,35.2115,-2.87902
707,141,35.2207,3.35083,0.00141159,-0.000880454,-0.000509128,0.0015196,-0.000988456,-0.209034,0.00145881,0.0230902,1931,883,35.2207,-3.35086
714,141,35.0531,3.65033,0.0019146,-0.000381944,-0.000399451,0.0019821,-0.000449439,-0.167389,0.00149392,0.0232127,1938,883,35.0531,-3.65035
721,141,35.0614,4.03674,0.0027479,0.000374186,-0.000144009,0.00275661,0.000365481,-0.0603731,0.00172884,0.014969,1945,883,35.0615,-4.03674
728,141,35.1016,4.39105,0.00372952,0.00131975,0.000421597,0.00380115,0.00124812,0.168295,0.00223729,0.0159841,1952,883,35.1016,-4.39104
735,141,35.088,4.83331,0.00564782,0.00269926,0.00121602,0.00608462,0.00226246,0.344848,0.00355122,0.0168578,1959,883,35.0881,-4.83331
742,141,35.045,5.25061,0.00867203,0.00457517,0.00223466,0.00965507,0.00359213,0.414425,0.00563487,0.0168341,1966,883,35.0451,-5.25064
749,141,35.0153,5.64014,0.0130591,0.00694222,0.00368047,0.0147861,0.00521528,0.43872,0.00865931,0.0139512,1973,883,35.0153,-5.64016
756,141,34.9788,6.08923,0.018725,0.00983769,0.00539507,0.0212708,0.00729186,0.440901,0.0124814,0.0202852,1980,883,34.9788,-6.08922
763,141,34.9506,6.60687,0.025764,0.0132376,0.007194,0.0290392,0.00996236,0.427228,0.0170388,0.0429382,1987,883,34.9505,-6.60686
770,141,34.9086,7.13104,0,0,0,0,0,0,0,-1,1994,883,34.9085,-7.13106
777,141,36.2078,7.26239,0,0,0,0,0,0,0,-1,2001,883,36.2077,-7.26238
784,141,35.0129,9.01959,0,0,0,0,0,0,0,-1,2008,883,35.0129,-9.01961
791,141,35.4685,9.67169,0,0,0,0,0,0,0,-1,2015,883,35.4684,-9.67168
798,141,0,0,0,0,0,0,0,0,0,-1,2022,883,0,0
805,141,0,0,0,0,0,0,0,0,0,-1,2029,883,0,0
812,141,0,0,0,0,0,0,0,0,0,-1,2036,883,0,0
-700,134,0,0,0,0,0,0,0,0,0,-1,524,890,0,0
-693,134,0,0,0,0,0,0,0,0,0,-1,531,890,0,0
-686,134,0,0,0,0,0,0,0,0,0,-1,538,890,0,0
-679,134,0,0,0,0,0,0,0,0,0,-1,545,890,0,0
-672,134,-27.3236,1.89276,0.0865902,-0.0862326,-0.0130238,0.0875661,-0.0872086,-0.0747964,0.100906,0.0471916,552,890,-27.3236,-1.89278
-665,134,-26.6149,1.48596,0.0721301,-0.0676086,-0.00814117,0.0726028,-0.0680813,-0.0579985,0.081238,0.0480524,559,890,-26.6149,-1.48599
-658,134,-25.9248,1.08722,0,0,0,0,0,0,0,-1,566,890,-25.9248,-1.08723
-651,134,-29.6957,-2.27502,0,0,0,0,0,0,0,-1,573,890,-29.6957,2.27505
-644,134,-29.5777,-1.94812,0,0,0,0,0,0,0,-1,580,890,-29.5777,1.94813
-637,134,-25.8193,3.39758,0,0,0,0,0,0,0,-1,587,890,-25.8193,-3.3976
-630,134,-25.7092,3.37042,0.0156203,-0.00904759,0.00207098,0.015793,-0.00922025,0.0831784,0.0146066,0.047959,594,890,-25.7092,-3.37042
-623,134,-25.5643,3.28394,0.00846654,-0.00286891,0.00301826,0.00922011,-0.00362247,0.244668,0.00764583,0.0235657,601,890,-25.5643,-3.28395
-616,134,-25.705,2.93988,0.00230047,0.000212176,0.00305538,0.00448519,-0.00197254,0.620749,0.00382129,0.0110773,608,890,-25.705,-2.93988
-609,134,-25.78,2.58099,-0.0020349,0.00202979,0.00248583,0.00320834,-0.00321344,1.12808,0.00370762,0.0103863,615,890,-25.78,-2.581
-602,134,-25.778,2.19531,-0.00288319,0.001953,0.00242693,0.00296085,-0.00389105,1.17719,0.00396808,0.0116147,622,890,-25.778,-2.19531
-595,134,-25.7202,1.87384,-0.00293857,0.00107498,0.00201775,0.00191398,-0.00377757,1.17673,0.00334422,0.0183937,629,890,-25.7202,-1.87382
-588,134,-26.094,1.58081,-0.00287493,0.000689814,0.00163024,0.00132292,-0.00350804,1.20037,0.00288269,0.0329975,636,890,-26.094,-1.58082
-581,134,-26.0008,0.977844,-0.00295382,0.000575463,0.00145404,0.00109735,-0.0034757,1.2262,0.0027567,0.0470107,643,890,-26.0008,-0.977842
-574,134,-25.8547,0.310852,0,0,0,0,0,0,0,-1,650,890,-25.8547,-0.310864
-567,134,-25.562,0.367371,0,0,0,0,0,0,0,-1,657,890,-25.562,-0.367368
-560,134,-22.9123,0.106567,0,0,0,0,0,0,0,-1,664,890,-22.9123,-0.106594
-553,134,-30.0041,0.924255,0,0,0,0,0,0,0,-1,671,890,-30.0041,-0.924264
-546,134,-30.0344,0.884644,-0.00160031,0.000288446,-0.000948985,0.000682882,-0.00199475,-1.17688,0.00160659,0.0263397,678,890,-30.0344,-0.884633
-539,134,-30.0724,0.849731,-0.00133692,0.000424122,-0.00148253,0.0012679,-0.0021807,-1.05337,0.00201416,0.0177149,685,890,-30.0725,-0.849751
-532,134,-30.0837,0.877014,-0.00116425,0.000582194,-0.0021234,0.00200491,-0.00258697,-0.980477,0.00265822,0.0234113,692,890,-30.0837,-0.876994
-525,134,-29.9507,0.999512,-0.00132718,0.000626526,-0.00302586,0.00282931,-0.00352996,-0.941534,0.00367895,0.0363871,699,890,-29.9507,-0.999485
-518,134,-29.8107,1.01483,-0.00165468,0.00059271,-0.00417111,0.00378883,-0.00485081,-0.916974,0.00500064,0.0430386,706,890,-29.8107,-1.01485
-511,134,-29.9327,0.978027,-0.00165186,0.000598412,-0.00555192,0.00513806,-0.00619151,-0.885373,0.00655055,0.0447796,713,890,-29.9327,-0.978027
-504,134,0,0,0,0,0,0,0,0,0,-1,720,890,0,0
-497,134,0,0,0,0,0,0,0,0,0,-1,727,890,0,0
-490,134,0,0,0,0,0,0,0,0,0,-1,734,890,0,0
-483,134,0,0,0,0,0,0,0,0,0,-1,741,890,0,0
-476,134,0,0,0,0,0,0,0,0,0,-1,748,890,0,0
-469,134,0,0,0,0,0,0,0,0,0,-1,755,890,0,0
-462,134,0,0,0,0,0,0,0,0,0,-1,762,890,0,0
-455,134,0,0,0,0,0,0,0,0,0,-1,769,890,0,0
-448,134,0,0,0,0,0,0,0,0,0,-1,776,890,0,0
-441,134,0,0,0,0,0,0,0,0,0,-1,783,890,0,0
-434,134,0,0,0,0,0,0,0,0,0,-1,790,890,0,0
-427,134,0,0,0,0,0,0,0,0,0,-1,797,890,0,0
-420,134,0,0,0,0,0,0,0,0,0,-1,804,890,0,0
-413,134,0,0,0,0,0,0,0,0,0,-1,811,890,0,0
-406,134,0,0,0,0,0,0,0,0,0,-1,818,890,0,0
-399,134,0,0,0,0,0,0,0,0,0,-1,825,890,0,0
-392,134,0,0,0,0,0,0,0,0,0,-1,832,890,0,0
-385,134,0,0,0,0,0,0,0,0,0,-1,839,890,0,0
-378,134,0,0,0,0,0,0,0,0,0,-1,846,890,0,0
-371,134,0,0,0,0,0,0,0,0,0,-1,853,890,0,0
-364,134,0,0,0,0,0,0,0,0,0,-1,860,890,0,0
-357,134,0,0,0,0,0,0,0,0,0,-1,867,890,0,0
-350,134,0,0,0,0,0,0,0,0,0,-1,874,890,0,0
-343,134,0,0,0,0,0,0,0,0,0,-1,881,890,0,0
-336,134,0,0,0,0,0,0,0,0,0,-1,888,890,0,0
-329,134,0,0,0,0,0,0,0,0,0,-1,895,890,0,0
-322,134,0,0,0,0,0,0,0,0,0,-1,902,890,0,0
-315,134,0,0,0,0,0,0,0,0,0,-1,909,890,0,0
-308,134,0,0,0,0,0,0,0,0,0,-1,916,890,0,0
-301,134,0,0,0,0,0,0,0,0,0,-1,923,890,0,0
-294,134,0,0,0,0,0,0,0,0,0,-1,930,890,0,0
-287,134,0,0,0,0,0,0,0,0,0,-1,937,890,0,0
-280,134,0,0,0,0,0,0,0,0,0,-1,944,890,0,0
-273,134,0,0,0,0,0,0,0,0,0,-1,951,890,0,0
-266,134,0,0,0,0,0,0,0,0,0,-1,958,890,0,0
-259,134,0,0,0,0,0,0,0,0,0,-1,965,890,0,0
-252,134,0,0,0,0,0,0,0,0,0,-1,972,890,0,0
-245,134,0,0,0,0,0,0,0,0,0,-1,979,890,0,0
-238,134,0,0,0,0,0,0,0,0,0,-1,986,890,0,0
-231,134,0,0,0,0,0,0,0,0,0,-1,993,890,0,0
-224,134,0,0,0,0,0,0,0,0,0,-1,1000,890,0,0
-217,134,0,0,0,0,0,0,0,0,0,-1,1007,890,0,0
-210,134,0,0,0,0,0,0,0,0,0,-1,1014,890,0,0
-203,134,0,0,0,0,0,0,0,0,0,-1,1021,890,0,0
-196,134,0,0,0,0,0,0,0,0,0,-1,1028,890,0,0
-189,134,0,0,0,0,0,0,0,0,0,-1,1035,890,0,0
-182,134,0,0,0,0,0,0,0,0,0,-1,1042,890,0,0
-175,134,0,0,0,0,0,0,0,0,0,-1,1049,890,0,0
-168,134,0,0,0,0,0,0,0,0,0,-1,1056,890,0,0
-161,134,0,0,0,0,0,0,0,0,0,-1,1063,890,0,0
-154,134,0,0,0,0,0,0,0,0,0,-1,1070,890,0,0
-147,134,0,0,0,0,0,0,0,0,0,-1,1077,890,0,0
-140,134,0,0,0,0,0,0,0,0,0,-1,1084,890,0,0
-133,134,0,0,0,0,0,0,0,0,0,-1,1091,890,0,0
-126,134,0,0,0,0,0,0,0,0,0,-1,1098,890,0,0
-119,134,0,0,0,0,0,0,0,0,0,-1,1105,890,0,0
-112,134,0,0,0,0,0,0,0,0,0,-1,1112,890,0,0
-105,134,0,0,0,0,0,0,0,0,0,-1,1119,890,0,0
-98,134,0,0,0,0,0,0,0,0,0,-1,1126,890,0,0
-91,134,0,0,0,0,0,0,0,0,0,-1,1133,890,0,0
-84,134,0,0,0,0,0,0,0,0,0,-1,1140,890,0,0
-77,134,0,0,0,0,0,0,0,0,0,-1,1147,890,0,0
-70,134,0,0,0,0,0,0,0,0,0,-1,1154,890,0,0
-63,134,0,0,0,0,0,0,0,0,0,-1,1161,890,0,0
-56,134,0,0,0,0,0,0,0,0,0,-1,1168,890,0,0
-49,134,0,0,0,0,0,0,0,0,0,-1,1175,890,0,0
-42,134,0,0,0,0,0,0,0,0,0,-1,1182,890,0,0
-35,134,0,0,0,0,0,0,0,0,0,-1,1189,890,0,0
-28,134,0,0,0,0,0,0,0,0,0,-1,1196,890,0,0
-21,134,0,0,0,0,0,0,0,0,0,-1,1203,890,0,0
-14,134,0,0,0,0,0,0,0,0,0,-1,1210,890,0,0
-7,134,0,0,0,0,0,0,0,0,0,-1,1217,890,0,0
0,134,0,0,0,0,0,0,0,0,0,-1,1224,890,0,0
7,134,0,0,0,0,0,0,0,0,0,-1,1231,890,0,0
14,134,0,0,0,0,0,0,0,0,0,-1,1238,890,0,0
21,134,0,0,0,0,0,0,0,0,0,-1,1245,890,0,0
28,134,0,0,0,0,0,0,0,0,0,-1,1252,890,0,0
35,134,0,0,0,0,0,0,0,0,0,-1,1259,890,0,0
42,134,0,0,0,0,0,0,0,0,0,-1,1266,890,0,0
49,134,0,0,0,0,0,0,0,0,0,-1,1273,890,0,0
56,134,0,0,0,0,0,0,0,0,0,-1,1280,890,0,0
63,134,0,0,0,0,0,0,0,0,0,-1,1287,890,0,0
70,134,0,0,0,0,0,0,0,0,0,-1,1294,890,0,0
77,134,0,0,0,0,0,0,0,0,0,-1,1301,890,0,0
84,134,0,0,0,0,0,0,0,0,0,-1,1308,890,0,0
91,134,0,0,0,0,0,0,0,0,0,-1,1315,890,0,0
98,134,0,0,0,0,0,0,0,0,0,-1,1322,890,0,0
105,134,0,0,0,0,0,0,0,0,0,-1,1329,890,0,0
112,134,0,0,0,0,0,0,0,0,0,-1,1336,890,0,0
119,134,0,0,0,0,0,0,0,0,0,-1,1343,890,0,0
126,134,0,0,0,0,0,0,0,0,0,-1,1350,890,0,0
133,134,0,0,0,0,0,0,0,0,0,-1,1357,890,0,0
140,134,0,0,0,0,0,0,0,0,0,-1,1364,890,0,0
147,134,0,0,0,0,0,0,0,0,0,-1,1371,890,0,0
154,134,0,0,0,0,0,0,0,0,0,-1,1378,890,0,0
161,134,0,0,0,0,0,0,0,0,0,-1,1385,890,0,0
168,134,0,0,0,0,0,0,0,0,0,-1,1392,890,0,0
175,134,0,0,0,0,0,0,0,0,0,-1,1399,890,0,0
182,134,0,0,0,0,0,0,0,0,0,-1,1406,890,0,0
189,134,0,0,0,0,0,0,0,0,0,-1,1413,890,0,0
196,134,0,0,0,0,0,0,0,0,0,-1,1420,890,0,0
203,134,0,0,0,0,0,0,0,0,0,-1,1427,890,0,0
210,134,0,0,0,0,0,0,0,0,0,-1,1434,890,0,0
217,134,0,0,0,0,0,0,0,0,0,-1,1441,890,0,0
224,134,0,0,0,0,0,0,0,0,0,-1,1448,890,0,0
231,134,0,0,0,0,0,0,0,0,0,-1,1455,890,0,0
238,134,0,0,0,0,0,0,0,0,0,-1,1462,890,0,0
245,134,0,0,0,0,0,0,0,0,0,-1,1469,890,0,0
252,134,0,0,0,0,0,0,0,0,0,-1,1476,890,0,0
259,134,0,0,0,0,0,0,0,0,0,-1,1483,890,0,0
266,134,0,0,0,0,0,0,0,0,0,-1,1490,890,0,0
273,134,0,0,0,0,0,0,0,0,0,-1,1497,890,0,0
280,134,0,0,0,0,0,0,0,0,0,-1,1504,890,0,0
287,134,0,0,0,0,0,0,0,0,0,-1,1511,890,0,0
294,134,0,0,0,0,0,0,0,0,0,-1,1518,890,0,0
301,134,0,0,0,0,0,0,0,0,0,-1,1525,890,0,0
308,134,0,0,0,0,0,0,0,0,0,-1,1532,890,0,0
315,134,0,0,0,0,0,0,0,0,0,-1,1539,890,0,0
322,134,0,0,0,0,0,0,0,0,0,-1,1546,890,0,0
329,134,0,0,0,0,0,0,0,0,0,-1,1553,890,0,0
336,134,0,0,0,0,0,0,0,0,0,-1,1560,890,0,0
343,134,0,0,0,0,0,0,0,0,0,-1,1567,890,0,0
350,134,0,0,0,0,0,0,0,0,0,-1,1574,890,0,0
357,134,0,0,0,0,0,0,0,0,0,-1,1581,890,0,0
364,134,0,0,0,0,0,0,0,0,0,-1,1588,890,0,0
371,134,0,0,0,0,0,0,0,0,0,-1,1595,890,0,0
378,134,0,0,0,0,0,0,0,0,0,-1,1602,890,0,0
385,134,0,0,0,0,0,0,0,0,0,-1,1609,890,0,0
392,134,0,0,0,0,0,0,0,0,0,-1,1616,890,0,0
399,134,0,0,0,0,0,0,0,0,0,-1,1623,890,0,0
406,134,0,0,0,0,0,0,0,0,0,-1,1630,890,0,0
413,134,0,0,0,0,0,0,0,0,0,-1,1637,890,0,0
420,134,0,0,0,0,0,0,0,0,0,-1,1644,890,0,0
427,134,0,0,0,0,0,0,0,0,0,-1,1651,890,0,0
434,134,0,0,0,0,0,0,0,0,0,-1,1658,890,0,0
441,134,0,0,0,0,0,0,0,0,0,-1,1665,890,0,0
448,134,0,0,0,0,0,0,0,0,0,-1,1672,890,0,0
455,134,0,0,0,0,0,0,0,0,0,-1,1679,890,0,0
462,134,0,0,0,0,0,0,0,0,0,-1,1686,890,0,0
469,134,0,0,0,0,0,0,0,0,0,-1,1693,890,0,0
476,134,0,0,0,0,0,0,0,0,0,-1,1700,890,0,0
483,134,0,0,0,0,0,0,0,0,0,-1,1707,890,0,0
490,134,0,0,0,0,0,0,0,0,0,-1,1714,890,0,0
497,134,0,0,0,0,0,0,0,0,0,-1,1721,890,0,0
504,134,0,0,0,0,0,0,0,0,0,-1,1728,890,0,0
511,134,0,0,0,0,0,0,0,0,0,-1,1735,890,0,0
518,134,0,0,0,0,0,0,0,0,0,-1,1742,890,0,0
525,134,0,0,0,0,0,0,0,0,0,-1,1749,890,0,0
532,134,0,0,0,0,0,0,0,0,0,-1,1756,890,0,0
539,134,0,0,0,0,0,0,0,0,0,-1,1763,890,0,0
546,134,0,0,0,0,0,0,0,0,0,-1,1770,890,0,0
553,134,0,0,0,0,0,0,0,0,0,-1,1777,890,0,0
560,134,0,0,0,0,0,0,0,0,0,-1,1784,890,0,0
567,134,0,0,0,0,0,0,0,0,0,-1,1791,890,0,0
574,134,0,0,0,0,0,0,0,0,0,-1,1798,890,0,0
581,134,0,0,0,0,0,0,0,0,0,-1,1805,890,0,0
588,134,0,0,0,0,0,0,0,0,0,-1,1812,890,0,0
595,134,0,0,0,0,0,0,0,0,0,-1,1819,890,0,0
602,134,0,0,0,0,0,0,0,0,0,-1,1826,890,0,0
609,134,0,0,0,0,0,0,0,0,0,-1,1833,890,0,0
616,134,0,0,0,0,0,0,0,0,0,-1,1840,890,0,0
623,134,40.8914,2.49536,0.00200084,0.00746779,0.00162217,0.00791289,0.00155574,1.303,0.00484074,0.0439238,1847,890,40.8914,-2.49536
630,134,40.8983,2.49683,0.000779584,0.00612127,0.00193932,0.00675109,0.000149766,1.25678,0.00445165,0.0441176,1854,890,40.8983,-2.4968
637,134,41.0366,2.55609,0.000211157,0.00488134,0.00189403,0.0055529,-0.000460409,1.23006,0.00386456,0.0430653,1861,890,41.0366,-2.55607
644,134,40.9691,2.55389,-0.000141575,0.0037061,0.00168265,0.00433813,-0.000773603,1.21149,0.00318146,0.0403808,1868,890,40.9692,-2.55391
651,134,40.9437,2.63538,-0.000203575,0.00264704,0.001411,0.00322733,-0.000783864,1.18062,0.00245492,0.042897,1875,890,40.9438,-2.6354
658,134,40.8463,2.77954,-5.6379e-05,0.00163729,0.00107049,0.0021554,-0.000574488,1.12004,0.00166187,0.0397777,1882,890,40.8463,-2.77957
665,134,40.7582,2.67102,0.000143188,0.000949236,0.000800184,0.00144216,-0.000349736,1.01869,0.00109677,0.0323323,1889,890,40.7582,-2.67105
672,134,40.8093,2.64648,0.000387009,0.000374856,0.00057063,0.000951595,-0.00018973,0.780074,0.000706187,0.0223904,1896,890,40.8093,-2.6465
679,134,40.8444,2.61304,0.00058942,-4.41588e-05,0.00035304,0.000746965,-0.000201703,0.419732,0.000577083,0.019698,1903,890,40.8443,-2.61305
686,134,40.8723,2.57471,0,0,0,0,0,0,0,-1,1910,890,40.8723,-2.57471
693,134,34.5778,2.48096,0,0,0,0,0,0,0,-1,1917,890,34.5777,-2.48099
700,134,35.366,2.72314,0,0,0,0,0,0,0,-1,1924,890,35.3659,-2.72317
707,134,35.0486,2.8822,0,0,0,0,0,0,0,-1,1931,890,35.0485,-2.88221
714,134,35.2983,3.50879,0.00189436,-0.000303712,-0.000370386,0.0019551,-0.000364446,-0.162527,0.00144033,0.0218822,1938,890,35.2984,-3.50878
721,134,35.4812,4.00281,0.00244952,0.000350299,-0.000219702,0.00247227,0.000327552,-0.103169,0.00155057,0.0188146,1945,890,35.4812,-4.00278
728,134,35.5388,4.3894,0.00298159,0.00119267,0.000228218,0.00301025,0.00116402,0.124908,0.00175278,0.0172555,1952,890,35.5388,-4.3894
735,134,35.5039,4.8291,0.00427146,0.00247479,0.000833475,0.00459856,0.00214769,0.373982,0.0026569,0.0231595,1959,890,35.5039,-4.82913
742,134,35.4674,5.25885,0.00642915,0.00430474,0.0015529,0.00724837,0.00348552,0.48544,0.00418587,0.0152409,1966,890,35.4673,-5.25886
749,134,35.4769,5.63776,0.00973855,0.00666495,0.00268928,0.0112992,0.00510433,0.525816,0.0065337,0.012222,1973,890,35.4769,-5.63773
756,134,35.4303,6.0069,0.0140667,0.00954641,0.00405798,0.0164515,0.00716161,0.531312,0.00952473,0.0161054,1980,890,35.4303,-6.0069
763,134,35.3513,6.40009,0.019363,0.0128577,0.00547023,0.0224746,0.00974612,0.517174,0.0130137,0.0360109,1987,890,35.3514,-6.40009
770,134,35.2697,6.79767,0,0,0,0,0,0,0,-1,1994,890,35.2697,-6.79765
777,134,32.2756,6.70819,0,0,0,0,0,0,0,-1,2001,890,32.2756,-6.70821
784,134,35.7665,9.92847,0,0,0,0,0,0,0,-1,2008,890,35.7665,-9.92848
791,134,32.3794,9.50098,0,0,0,0,0,0,0,-1,2015,890,32.3794,-9.50098
798,134,0,0,0,0,0,0,0,0,0,-1,2022,890,0,0
805,134,0,0,0,0,0,0,0,0,0,-1,2029,890,0,0
812,134,0,0,0,0,0,0,0,0,0,-1,2036,890,0,0
-700,127,0,0,0,0,0,0,0,0,0,-1,524,897,0,0
-693,127,0,0,0,0,0,0,0,0,0,-1,531,897,0,0
-686,127,0,0,0,0,0,0,0,0,0,-1,538,897,0,0
-679,127,-28.5211,3.1449,0.100173,-0.104603,-0.0159264,0.101405,-0.105835,-0.0771562,0.119659,0.0444617,545,897,-28.5211,-3.14489
-672,127,-27.8112,2.51373,0.0867703,-0.0827362,-0.0110715,0.0874904,-0.0834563,-0.064948,0.0987053,0.0444366,552,897,-27.8112,-2.51373
-665,127,-27.0691,1.99738,0.0728455,-0.0639143,-0.00748014,0.0732534,-0.0643222,-0.0544788,0.0794851,0.0481996,559,897,-27.0691,-1.99739
-658,127,-27.6906,1.08032,0,0,0,0,0,0,0,-1,566,897,-27.6905,-1.08031
-651,127,-30.0135,-2.49835,0,0,0,0,0,0,0,-1,573,897,-30.0135,2.49833
-644,127,-29.9296,-2.28864,0,0,0,0,0,0,0,-1,580,897,-29.9295,2.28862
-637,127,-26.0438,3.09656,0,0,0,0,0,0,0,-1,587,897,-26.0438,-3.09657
-630,127,-26.0049,3.22797,0.0169845,-0.00745918,0.00141433,0.0170661,-0.00754074,0.0576045,0.0145572,0.0430491,594,897,-26.005,-3.22795
-623,127,-26.0458,3.22314,0.00959601,-0.00177502,0.00245291,0.0101026,-0.00228158,0.203652,0.00761044,0.0148835,601,897,-26.0459,-3.22313
-616,127,-26.1105,2.92273,0.00311652,0.000368773,0.00270415,0.00477578,-0.00129049,0.55036,0.00369002,0.00958774,608,897,-26.1106,-2.92271
-609,127,-26.1632,2.56732,-0.00180349,0.00199232,0.00218216,0.00298645,-0.00279761,1.14332,0.00334002,0.0123842,615,897,-26.1632,-2.5673
-602,127,-26.1714,2.21179,-0.00318804,0.00190078,0.00225088,0.0027535,-0.00404076,1.20867,0.00394607,0.0142794,622,897,-26.1715,-2.21177
-595,127,-26.1237,1.91608,-0.00352529,0.00103598,0.00193758,0.00174792,-0.00423723,1.21867,0.00355376,0.0226212,629,897,-26.1237,-1.91611
-588,127,-26.2919,1.56104,-0.00366095,0.000698904,0.00160808,0.00122785,-0.00418989,1.25301,0.00328007,0.031377,636,897,-26.2919,-1.56104
-581,127,-26.2126,1.21063,0,0,0,0,0,0,0,-1,643,897,-26.2126,-1.21061
-574,127,-25.2603,0.511169,0,0,0,0,0,0,0,-1,650,897,-25.2603,-0.51117
-567,127,-24.5417,-0.0447388,0,0,0,0,0,0,0,-1,657,897,-24.5417,0.0447226
-560,127,-18.9678,1.21667,0,0,0,0,0,0,0,-1,664,897,-18.9677,-1.2167
-553,127,-30.0215,0.873474,0,0,0,0,0,0,0,-1,671,897,-30.0215,-0.87346
-546,127,-30.0428,0.859253,-0.00241588,0.00054696,-0.00100039,0.000853103,-0.00272202,-1.27382,0.00215606,0.0221241,678,897,-30.0428,-0.859228
-539,127,-30.0466,0.855591,-0.00202143,0.000764391,-0.00161785,0.00150634,-0.00276338,-1.14081,0.00250049,0.0203364,685,897,-30.0466,-0.855571
-532,127,-30.0301,0.912109,-0.00164128,0.0010318,-0.00240938,0.00245052,-0.00306,-1.03863,0.00318798,0.0168705,692,897,-30.0301,-0.91209
-525,127,-30.0223,0.991882,-0.00146,0.00129126,-0.00362983,0.00379738,-0.00396613,-0.966526,0.00448262,0.0334944,699,897,-30.0223,-0.99186
-518,127,-29.874,0.939758,-0.0016519,0.00149815,-0.00521817,0.00537381,-0.00552756,-0.931968,0.00629412,0.0410441,706,897,-29.874,-0.93977
-511,127,-29.8021,0.804749,-0.00161992,0.00201819,-0.00713832,0.00756559,-0.00716732,-0.910158,0.00850708,0.0430574,713,897,-29.8021,-0.804773
-504,127,0,0,0,0,0,0,0,0,0,-1,720,897,0,0
-497,127,0,0,0,0,0,0,0,0,0,-1,727,897,0,0
-490,127,0,0,0,0,0,0,0,0,0,-1,734,897,0,0
-483,127,0,0,0,0,0,0,0,0,0,-1,741,897,0,0
-476,127,0,0,0,0,0,0,0,0,0,-1,748,897,0,0
-469,127,0,0,0,0,0,0,0,0,0,-1,755,897,0,0
-462,127,0,0,0,0,0,0,0,0,0,-1,762,897,0,0
-455,127,0,0,0,0,0,0,0,0,0,-1,769,897,0,0
-448,127,0,0,0,0,0,0,0,0,0,-1,776,897,0,0
-441,127,0,0,0,0,0,0,0,0,0,-1,783,897,0,0
-434,127,0,0,0,0,0,0,0,0,0,-1,790,897,0,0
-427,127,0,0,0,0,0,0,0,0,0,-1,797,897,0,0
-420,127,0,0,0,0,0,0,0,0,0,-1,804,897,0,0
-413,127,0,0,0,0,0,0,0,0,0,-1,811,897,0,0
-406,127,0,0,0,0,0,0,0,0,0,-1,818,897,0,0
-399,127,0,0,0,0,0,0,0,0,0,-1,825,897,0,0
-392,127,0,0,0,0,0,0,0,0,0,-1,832,897,0,0
-385,127,0,0,0,0,0,0,0,0,0,-1,839,897,0,0
-378,127,0,0,0,0,0,0,0,0,0,-1,846,897,0,0
-371,127,0,0,0,0,0,0,0,0,0,-1,853,897,0,0
-364,127,0,0,0,0,0,0,0,0,0,-1,860,897,0,0
-357,127,0,0,0,0,0,0,0,0,0,-1,867,897,0,0
-350,127,0,0,0,0,0,0,0,0,0,-1,874,897,0,0
-343,127,0,0,0,0,0,0,0,0,0,-1,881,897,0,0
-336,127,0,0,0,0,0,0,0,0,0,-1,888,897,0,0
-329,127,0,0,0,0,0,0,0,0,0,-1,895,897,0,0
-322,127,0,0,0,0,0,0,0,0,0,-1,902,897,0,0
-315,127,0,0,0,0,0,0,0,0,0,-1,909,897,0,0
-308,127,0,0,0,0,0,0,0,0,0,-1,916,897,0,0
-301,127,0,0,0,0,0,0,0,0,0,-1,923,897,0,0
-294,127,0,0,0,0,0,0,0,0,0,-1,930,897,0,0
-287,127,0,0,0,0,0,0,0,0,0,-1,937,897,0,0
-280,127,0,0,0,0,0,0,0,0,0,-1,944,897,0,0
-273,127,0,0,0,0,0,0,0,0,0,-1,951,897,0,0
-266,127,0,0,0,0,0,0,0,0,0,-1,958,897,0,0
-259,127,0,0,0,0,0,0,0,0,0,-1,965,897,0,0
-252,127,0,0,0,0,0,0,0,0,0,-1,972,897,0,0
-245,127,0,0,0,0,0,0,0,0,0,-1,979,897,0,0
-238,127,0,0,0,0,0,0,0,0,0,-1,986,897,0,0
-231,127,0,0,0,0,0,0,0,0,0,-1,993,897,0,0
-224,127,0,0,0,0,0,0,0,0,0,-1,1000,897,0,0
-217,127,0,0,0,0,0,0,0,0,0,-1,1007,897,0,0
-210,127,0,0,0,0,0,0,0,0,0,-1,1014,897,0,0
-203,127,0,0,0,0,0,0,0,0,0,-1,1021,897,0,0
-196,127,0,0,0,0,0,0,0,0,0,-1,1028,897,0,0
-189,127,0,0,0,0,0,0,0,0,0,-1,1035,897,0,0
-182,127,0,0,0,0,0,0,0,0,0,-1,1042,897,0,0
-175,127,0,0,0,0,0,0,0,0,0,-1,1049,897,0,0
-168,127,0,0,0,0,0,0,0,0,0,-1,1056,897,0,0
-161,127,0,0,0,0,0,0,0,0,0,-1,1063,897,0,0
-154,127,0,0,0,0,0,0,0,0,0,-1,1070,897,0,0
-147,127,0,0,0,0,0,0,0,0,0,-1,1077,897,0,0
-140,127,0,0,0,0,0,0,0,0,0,-1,1084,897,0,0
-133,127,0,0,0,0,0,0,0,0,0,-1,1091,897,0,0
-126,127,0,0,0,0,0,0,0,0,0,-1,1098,897,0,0
-119,127,0,0,0,0,0,0,0,0,0,-1,1105,897,0,0
-112,127,0,0,0,0,0,0,0,0,0,-1,1112,897,0,0
-105,127,0,0,0,0,0,0,0,0,0,-1,1119,897,0,0
-98,127,0,0,0,0,0,0,0,0,0,-1,1126,897,0,0
-91,127,0,0,0,0,0,0,0,0,0,-1,1133,897,0,0
-84,127,0,0,0,0,0,0,0,0,0,-1,1140,897,0,0
-77,127,0,0,0,0,0,0,0,0,0,-1,1147,897,0,0
-70,127,0,0,0,0,0,0,0,0,0,-1,1154,897,0,0
-63,127,0,0,0,0,0,0,0,0,0,-1,1161,897,0,0
-56,127,0,0,0,0,0,0,0,0,0,-1,1168,897,0,0
-49,127,0,0,0,0,0,0,0,0,0,-1,1175,897,0,0
-42,127,0,0,0,0,0,0,0,0,0,-1,1182,897,0,0
-35,127,0,0,0,0,0,0,0,0,0,-1,1189,897,0,0
-28,127,0,0,0,0,0,0,0,0,0,-1,1196,897,0,0
-21,127,0,0,0,0,0,0,0,0,0,-1,1203,897,0,0
-14,127,0,0,0,0,0,0,0,0,0,-1,1210,897,0,0
-7,127,0,0,0,0,0,0,0,0,0,-1,1217,897,0,0
0,127,0,0,0,0,0,0,0,0,0,-1,1224,897,0,0
7,127,0,0,0,0,0,0,0,0,0,-1,1231,897,0,0
14,127,0,0,0,0,0,0,0,0,0,-1,1238,897,0,0
21,127,0,0,0,0,0,0,0,0,0,-1,1245,897,0,0
28,127,0,0,0,0,0,0,0,0,0,-1,1252,897,0,0
35,127,0,0,0,0,0,0,0,0,0,-1,1259,897,0,0
42,127,0,0,0,0,0,0,0,0,0,-1,1266,897,0,0
49,127,0,0,0,0,0,0,0,0,0,-1,1273,897,0,0
56,127,0,0,0,0,0,0,0,0,0,-1,1280,897,0,0
63,127,0,0,0,0,0,0,0,0,0,-1,1287,897,0,0
70,127,0,0,0,0,0,0,0,0,0,-1,1294,897,0,0
77,127,0,0,0,0,0,0,0,0,0,-1,1301,897,0,0
84,127,0,0,0,0,0,0,0,0,0,-1,1308,897,0,0
91,127,0,0,0,0,0,0,0,0,0,-1,1315,897,0,0
98,127,0,0,0,0,0,0,0,0,0,-1,1322,897,0,0
105,127,0,0,0,0,0,0,0,0,0,-1,1329,897,0,0
112,127,0,0,0,0,0,0,0,0,0,-1,1336,897,0,0
119,127,0,0,0,0,0,0,0,0,0,-1,1343,897,0,0
126,127,0,0,0,0,0,0,0,0,0,-1,1350,897,0,0
133,127,0,0,0,0,0,0,0,0,0,-1,1357,897,0,0
140,127,0,0,0,0,0,0,0,0,0,-1,1364,897,0,0
147,127,0,0,0,0,0,0,0,0,0,-1,1371,897,0,0
154,127,0,0,0,0,0,0,0,0,0,-1,1378,897,0,0
161,127,0,0,0,0,0,0,0,0,0,-1,1385,897,0,0
168,127,0,0,0,0,0,0,0,0,0,-1,1392,897,0,0
175,127,0,0,0,0,0,0,0,0,0,-1,1399,897,0,0
182,127,0,0,0,0,0,0,0,0,0,-1,1406,897,0,0
189,127,0,0,0,0,0,0,0,0,0,-1,1413,897,0,0
196,127,0,0,0,0,0,0,0,0,0,-1,1420,897,0,0
203,127,0,0,0,0,0,0,0,0,0,-1,1427,897,0,0
210,127,0,0,0,0,0,0,0,0,0,-1,1434,897,0,0
217,127,0,0,0,0,0,0,0,0,0,-1,1441,897,0,0
224,127,0,0,0,0,0,0,0,0,0,-1,1448,897,0,0
231,127,0,0,0,0,0,0,0,0,0,-1,1455,897,0,0
238,127,0,0,0,0,0,0,0,0,0,-1,1462,897,0,0
245,127,0,0,0,0,0,0,0,0,0,-1,1469,897,0,0
252,127,0,0,0,0,0,0,0,0,0,-1,1476,897,0,0
259,127,0,0,0,0,0,0,0,0,0,-1,1483,897,0,0
266,127,0,0,0,0,0,0,0,0,0,-1,1490,897,0,0
273,127,0,0,0,0,0,0,0,0,0,-1,1497,897,0,0
280,127,0,0,0,0,0,0,0,0,0,-1,1504,897,0,0
287,127,0,0,0,0,0,0,0,0,0,-1,1511,897,0,0
294,127,0,0,0,0,0,0,0,0,0,-1,1518,897,0,0
301,127,0,0,0,0,0,0,0,0,0,-1,1525,897,0,0
308,127,0,0,0,0,0,0,0,0,0,-1,1532,897,0,0
315,127,0,0,0,0,0,0,0,0,0,-1,1539,897,0,0
322,127,0,0,0,0,0,0,0,0,0,-1,1546,897,0,0
329,127,0,0,0,0,0,0,0,0,0,-1,1553,897,0,0
336,127,0,0,0,0,0,0,0,0,0,-1,1560,897,0,0
343,127,0,0,0,0,0,0,0,0,0,-1,1567,897,0,0
350,127,0,0,0,0,0,0,0,0,0,-1,1574,897,0,0
357,127,0,0,0,0,0,0,0,0,0,-1,1581,897,0,0
364,127,0,0,0,0,0,0,0,0,0,-1,1588,897,0,0
371,127,0,0,0,0,0,0,0,0,0,-1,1595,897,0,0
378,127,0,0,0,0,0,0,0,0,0,-1,1602,897,0,0
385,127,0,0,0,0,0,0,0,0,0,-1,1609,897,0,0
392,127,0,0,0,0,0,0,0,0,0,-1,1616,897,0,0
399,127,0,0,0,0,0,0,0,0,0,-1,1623,897,0,0
406,127,0,0,0,0,0,0,0,0,0,-1,1630,897,0,0
413,127,0,0,0,0,0,0,0,0,0,-1,1637,897,0,0
420,127,0,0,0,0,0,0,0,0,0,-1,1644,897,0,0
427,127,0,0,0,0,0,0,0,0,0,-1,1651,897,0,0
434,127,0,0,0,0,0,0,0,0,0,-1,1658,897,0,0
441,127,0,0,0,0,0,0,0,0,0,-1,1665,897,0,0
448,127,0,0,0,0,0,0,0,0,0,-1,1672,897,0,0
455,127,0,0,0,0,0,0,0,0,0,-1,1679,897,0,0
462,127,0,0,0,0,0,0,0,0,0,-1,1686,897,0,0
469,127,0,0,0,0,0,0,0,0,0,-1,1693,897,0,0
476,127,0,0,0,0,0,0,0,0,0,-1,1700,897,0,0
483,127,0,0,0,0,0,0,0,0,0,-1,1707,897,0,0
490,127,0,0,0,0,0,0,0,0,0,-1,1714,897,0,0
497,127,0,0,0,0,0,0,0,0,0,-1,1721,897,0,0
504,127,0,0,0,0,0,0,0,0,0,-1,1728,897,0,0
511,127,0,0,0,0,0,0,0,0,0,-1,1735,897,0,0
518,127,0,0,0,0,0,0,0,0,0,-1,1742,897,0,0
525,127,0,0,0,0,0,0,0,0,0,-1,1749,897,0,0
532,127,0,0,0,0,0,0,0,0,0,-1,1756,897,0,0
539,127,0,0,0,0,0,0,0,0,0,-1,1763,897,0,0
546,127,0,0,0,0,0,0,0,0,0,-1,1770,897,0,0
553,127,0,0,0,0,0,0,0,0,0,-1,1777,897,0,0
560,127,0,0,0,0,0,0,0,0,0,-1,1784,897,0,0
567,127,0,0,0,0,0,0,0,0,0,-1,1791,897,0,0
574,127,0,0,0,0,0,0,0,0,0,-1,1798,897,0,0
581,127,0,0,0,0,0,0,0,0,0,-1,1805,897,0,0
588,127,0,0,0,0,0,0,0,0,0,-1,1812,897,0,0
595,127,0,0,0,0,0,0,0,0,0,-1,1819,897,0,0
602,127,0,0,0,0,0,0,0,0,0,-1,1826,897,0,0
609,127,0,0,0,0,0,0,0,0,0,-1,1833,897,0,0
616,127,0,0,0,0,0,0,0,0,0,-1,1840,897,0,0
623,127,0,0,0,0,0,0,0,0,0,-1,1847,897,0,0
630,127,40.7244,2.38885,0.000248454,0.00584759,0.00175024,0.00634968,-0.000253635,1.29143,0.00432015,0.0420434,1854,897,40.7243,-2.38886
637,127,40.8535,2.41827,-0.000230881,0.00475491,0.00187445,0.00538101,-0.000856976,1.24843,0.00390447,0.0427303,1861,897,40.8535,-2.41827
644,127,41.0248,2.427,-0.00049695,0.00370345,0.00181389,0.00437832,-0.00117182,1.21461,0.00337793,0.0410134,1868,897,41.0247,-2.42699
651,127,40.918,2.48169,-0.000491307,0.00273281,0.00163076,0.00341381,-0.00117231,1.17521,0.0027512,0.0442563,1875,897,40.918,-2.48169
658,127,40.8044,2.62396,-0.000246844,0.00177873,0.00134344,0.00244837,-0.000916491,1.10839,0.00200869,0.0425716,1882,897,40.8044,-2.62398
665,127,40.7501,2.57336,9.08879e-05,0.00108829,0.00106148,0.00176238,-0.000583204,1.005,0.00141011,0.0370178,1889,897,40.7502,-2.57335
672,127,40.7638,2.54242,0.000465929,0.000508969,0.000822426,0.00131016,-0.000335259,0.798478,0.00100402,0.0322967,1896,897,40.7639,-2.54244
679,127,40.8478,2.63013,0.00075141,6.80819e-05,0.000597897,0.00109838,-0.000278887,0.52582,0.000840777,0.0260398,1903,897,40.8478,-2.63013
686,127,40.8295,2.60736,0.000800335,-0.000202202,0.000363062,0.000918004,-0.000319871,0.313421,0.000741977,0.0405524,1910,897,40.8295,-2.60733
693,127,40.7427,2.48151,0,0,0,0,0,0,0,-1,1917,897,40.7427,-2.48152
700,127,35.7073,2.63086,0,0,0,0,0,0,0,-1,1924,897,35.7073,-2.63089
707,127,35.6105,3.05688,0.00155384,-0.000564388,-0.000250218,0.001583,-0.000593544,-0.115999,0.00129919,0.026578,1931,897,35.6104,-3.05689
714,127,35.7789,3.52466,0.00185667,-0.000195004,-0.000370251,0.00192145,-0.000259776,-0.173187,0.00137576,0.0222682,1938,897,35.7789,-3.52467
721,127,35.9791,4.09656,0.00219448,0.000372301,-0.000316711,0.00224796,0.000318823,-0.167276,0.00140448,0.0171004,1945,897,35.9791,-4.09659
728,127,35.9572,4.44983,0.00236437,0.00113297,3.32133e-05,0.00236527,0.00113207,0.0269457,0.001366,0.0148823,1952,897,35.9572,-4.44983
735,127,35.9097,4.8429,0.00307831,0.00229304,0.000508056,0.00332777,0.00204358,0.456423,0.00193789,0.0187981,1959,897,35.9096,-4.84292
742,127,35.8901,5.25031,0.00439371,0.00400357,0.000981773,0.00519961,0.00319768,0.68733,0.00302834,0.0175533,1966,897,35.8901,-5.25031
749,127,35.8789,5.62158,0.00661103,0.00627963,0.00187776,0.00833038,0.00456027,0.74139,0.00481676,0.0132279,1973,897,35.8789,-5.62156
756,127,35.8245,5.96875,0.00960968,0.00909875,0.00301008,0.0123751,0.00633332,0.743065,0.00714544,0.0150802,1980,897,35.8245,-5.96875
763,127,35.7623,6.32556,0.0132511,0.0122951,0.00419675,0.016997,0.00854921,0.728696,0.00981327,0.0232228,1987,897,35.7624,-6.32558
770,127,35.7242,6.67749,0,0,0,0,0,0,0,-1,1994,897,35.7243,-6.67748
777,127,37.2705,5.45068,0,0,0,0,0,0,0,-1,2001,897,37.2705,-5.45071
784,127,32.9255,8.75488,0,0,0,0,0,0,0,-1,2008,897,32.9255,-8.75486
791,127,33.1067,9.79041,0,0,0,0,0,0,0,-1,2015,897,33.1066,-9.79039
798,127,0,0,0,0,0,0,0,0,0,-1,2022,897,0,0
805,127,0,0,0,0,0,0,0,0,0,-1,2029,897,0,0
812,127,0,0,0,0,0,0,0,0,0,-1,2036,897,0,0
-700,120,0,0,0,0,0,0,0,0,0,-1,524,904,0,0
-693,120,0,0,0,0,0,0,0,0,0,-1,531,904,0,0
-686,120,0,0,0,0,0,0,0,0,0,-1,538,904,0,0
-679,120,-28.4016,4.35693,0.0988819,-0.0971596,-0.0164544,0.100253,-0.098531,-0.0831578,0.11477,0.0406503,545,904,-28.4016,-4.35694
-672,120,-28.1245,3.23206,0.0862448,-0.0753277,-0.0114235,0.0870485,-0.0761313,-0.0702367,0.0942822,0.040539,552,904,-28.1245,-3.23208
-665,120,-27.3897,2.60425,0.0729378,-0.0571372,-0.00800532,0.0734286,-0.057628,-0.0612359,0.0758486,0.0443919,559,904,-27.3897,-2.60423
-658,120,-27.8527,1.76892,0.0600458,-0.0418432,-0.00541362,0.0603326,-0.04213,-0.0529338,0.0594672,0.049382,566,904,-27.8527,-1.7689
-651,120,-27.8071,1.7381,0,0,0,0,0,0,0,-1,573,904,-27.8071,-1.73811
-644,120,-27.9901,2.83923,0,0,0,0,0,0,0,-1,580,904,-27.9901,-2.83923
-637,120,-27.213,3.2254,0.026501,-0.0113347,-0.000305652,0.0265035,-0.0113372,-0.00807769,0.0224246,0.0433089,587,904,-27.213,-3.22539
-630,120,-26.4594,3.5011,0.0179917,-0.00489612,0.000810985,0.0180204,-0.00492482,0.0353739,0.0139481,0.0262,594,904,-26.4594,-3.50112
-623,120,-26.4842,3.20746,0.0101684,4.52672e-05,0.00202048,0.0105568,-0.000343102,0.1899,0.00715498,0.0112968,601,904,-26.4842,-3.20743
-616,120,-26.4883,2.88782,0.00327172,0.00100335,0.0025234,0.00490411,-0.000629046,0.574193,0.00349799,0.00988912,608,904,-26.4883,-2.88781
-609,120,-26.5163,2.54517,-0.0020136,0.00222235,0.00194006,0.0029766,-0.00276785,1.2,0.00331729,0.0131309,615,904,-26.5163,-2.54515
-602,120,-26.5482,2.21393,-0.00375085,0.00200804,0.00203345,0.00265366,-0.00439647,1.26336,0.00411164,0.0143406,622,904,-26.5481,-2.21395
-595,120,-26.5079,1.93073,-0.0042234,0.00110162,0.00177098,0.00163682,-0.0047586,1.27732,0.00383622,0.0246105,629,904,-26.5079,-1.93071
-588,120,-26.5427,1.54156,-0.00446969,0.000804037,0.00147283,0.00118748,-0.00485314,1.3161,0.00369541,0.0348891,636,904,-26.5427,-1.54156
-581,120,-26.4173,1.08795,0,0,0,0,0,0,0,-1,643,904,-26.4173,-1.08795
-574,120,-26.3566,0.151672,0,0,0,0,0,0,0,-1,650,904,-26.3566,-0.151695
-567,120,-25.2822,-0.410645,0,0,0,0,0,0,0,-1,657,904,-25.2821,0.410629
-560,120,-27.3358,1.10327,0,0,0,0,0,0,0,-1,664,904,-27.3358,-1.10324
-553,120,-29.9999,0.959106,0,0,0,0,0,0,0,-1,671,904,-29.9999,-0.959076
-546,120,-29.9919,0.948547,-0.00310879,0.000876359,-0.00116439,0.00119163,-0.00342407,-1.30637,0.00276682,0.032261,678,904,-29.9919,-0.948562
-539,120,-29.9897,0.891296,-0.00250986,0.00120243,-0.00186956,0.00198077,-0.0032882,-1.1763,0.0030731,0.0271258,685,904,-29.9898,-0.891312
-532,120,-29.9807,0.943054,-0.00179635,0.0016056,-0.00282764,0.00320445,-0.0033952,-1.05618,0.00381084,0.0284554,692,904,-29.9807,-0.943064
-525,120,-30.1863,1.09924,-0.00108916,0.0021146,-0.00439044,0.00518626,-0.00416081,-0.960322,0.00540735,0.0355217,699,904,-30.1863,-1.09927
-518,120,-30.1317,0.76709,0,0,0,0,0,0,0,-1,706,904,-30.1317,-0.767088
-511,120,-29.9893,0.716614,0,0,0,0,0,0,0,-1,713,904,-29.9893,-0.716617
-504,120,0,0,0,0,0,0,0,0,0,-1,720,904,0,0
-497,120,0,0,0,0,0,0,0,0,0,-1,727,904,0,0
-490,120,0,0,0,0,0,0,0,0,0,-1,734,904,0,0
-483,120,0,0,0,0,0,0,0,0,0,-1,741,904,0,0
-476,120,0,0,0,0,0,0,0,0,0,-1,748,904,0,0
-469,120,0,0,0,0,0,0,0,0,0,-1,755,904,0,0
-462,120,0,0,0,0,0,0,0,0,0,-1,762,904,0,0
-455,120,0,0,0,0,0,0,0,0,0,-1,769,904,0,0
-448,120,0,0,0,0,0,0,0,0,0,-1,776,904,0,0
-441,120,0,0,0,0,0,0,0,0,0,-1,783,904,0,0
-434,120,0,0,0,0,0,0,0,0,0,-1,790,904,0,0
-427,120,0,0,0,0,0,0,0,0,0,-1,797,904,0,0
-420,120,0,0,0,0,0,0,0,0,0,-1,804,904,0,0
-413,120,0,0,0,0,0,0,0,0,0,-1,811,904,0,0
-406,120,0,0,0,0,0,0,0,0,0,-1,818,904,0,0
-399,120,0,0,0,0,0,0,0,0,0,-1,825,904,0,0
-392,120,0,0,0,0,0,0,0,0,0,-1,832,904,0,0
-385,120,0,0,0,0,0,0,0,0,0,-1,839,904,0,0
-378,120,0,0,0,0,0,0,0,0,0,-1,846,904,0,0
-371,120,0,0,0,0,0,0,0,0,0,-1,853,904,0,0
-364,120,0,0,0,0,0,0,0,0,0,-1,860,904,0,0
-357,120,0,0,0,0,0,0,0,0,0,-1,867,904,0,0
-350,120,0,0,0,0,0,0,0,0,0,-1,874,904,0,0
-343,120,0,0,0,0,0,0,0,0,0,-1,881,904,0,0
-336,120,0,0,0,0,0,0,0,0,0,-1,888,904,0,0
-329,120,0,0,0,0,0,0,0,0,0,-1,895,904,0,0
-322,120,0,0,0,0,0,0,0,0,0,-1,902,904,0,0
-315,120,0,0,0,0,0,0,0,0,0,-1,909,904,0,0
-308,120,0,0,0,0,0,0,0,0,0,-1,916,904,0,0
-301,120,0,0,0,0,0,0,0,0,0,-1,923,904,0,0
-294,120,0,0,0,0,0,0,0,0,0,-1,930,904,0,0
-287,120,0,0,0,0,0,0,0,0,0,-1,937,904,0,0
-280,120,0,0,0,0,0,0,0,0,0,-1,944,904,0,0
-273,120,0,0,0,0,0,0,0,0,0,-1,951,904,0,0
-266,120,0,0,0,0,0,0,0,0,0,-1,958,904,0,0
-259,120,0,0,0,0,0,0,0,0,0,-1,965,904,0,0
-252,120,0,0,0,0,0,0,0,0,0,-1,972,904,0,0
-245,120,0,0,0,0,0,0,0,0,0,-1,979,904,0,0
-238,120,0,0,0,0,0,0,0,0,0,-1,986,904,0,0
-231,120,0,0,0,0,0,0,0,0,0,-1,993,904,0,0
-224,120,0,0,0,0,0,0,0,0,0,-1,1000,904,0,0
-217,120,0,0,0,0,0,0,0,0,0,-1,1007,904,0,0
-210,120,0,0,0,0,0,0,0,0,0,-1,1014,904,0,0
-203,120,0,0,0,0,0,0,0,0,0,-1,1021,904,0,0
-196,120,0,0,0,0,0,0,0,0,0,-1,1028,904,0,0
-189,120,0,0,0,0,0,0,0,0,0,-1,1035,904,0,0
-182,120,0,0,0,0,0,0,0,0,0,-1,1042,904,0,0
-175,120,0,0,0,0,0,0,0,0,0,-1,1049,904,0,0
-168,120,0,0,0,0,0,0,0,0,0,-1,1056,904,0,0
-161,120,0,0,0,0,0,0,0,0,0,-1,1063,904,0,0
-154,120,0,0,0,0,0,0,0,0,0,-1,1070,904,0,0
-147,120,0,0,0,0,0,0,0,0,0,-1,1077,904,0,0
-140,120,0,0,0,0,0,0,0,0,0,-1,1084,904,0,0
-133,120,0,0,0,0,0,0,0,0,0,-1,1091,904,0,0
-126,120,0,0,0,0,0,0,0,0,0,-1,1098,904,0,0
-119,120,0,0,0,0,0,0,0,0,0,-1,1105,904,0,0
-112,120,0,0,0,0,0,0,0,0,0,-1,1112,904,0,0
-105,120,0,0,0,0,0,0,0,0,0,-1,1119,904,0,0
-98,120,0,0,0,0,0,0,0,0,0,-1,1126,904,0,0
-91,120,0,0,0,0,0,0,0,0,0,-1,1133,904,0,0
-84,120,0,0,0,0,0,0,0,0,0,-1,1140,904,0,0
-77,120,0,0,0,0,0,0,0,0,0,-1,1147,904,0,0
-70,120,0,0,0,0,0,0,0,0,0,-1,1154,904,0,0
-63,120,0,0,0,0,0,0,0,0,0,-1,1161,904,0,0
-56,120,0,0,0,0,0,0,0,0,0,-1,1168,904,0,0
-49,120,0,0,0,0,0,0,0,0,0,-1,1175,904,0,0
-42,120,0,0,0,0,0,0,0,0,0,-1,1182,904,0,0
-35,120,0,0,0,0,0,0,0,0,0,-1,1189,904,0,0
-28,120,0,0,0,0,0,0,0,0,0,-1,1196,904,0,0
-21,120,0,0,0,0,0,0,0,0,0,-1,1203,904,0,0
-14,120,0,0,0,0,0,0,0,0,0,-1,1210,904,0,0
-7,120,0,0,0,0,0,0,0,0,0,-1,1217,904,0,0
0,120,0,0,0,0,0,0,0,0,0,-1,1224,904,0,0
7,120,0,0,0,0,0,0,0,0,0,-1,1231,904,0,0
14,120,0,0,0,0,0,0,0,0,0,-1,1238,904,0,0
21,120,0,0,0,0,0,0,0,0,0,-1,1245,904,0,0
28,120,0,0,0,0,0,0,0,0,0,-1,1252,904,0,0
35,120,0,0,0,0,0,0,0,0,0,-1,1259,904,0,0
42,120,0,0,0,0,0,0,0,0,0,-1,1266,904,0,0
49,120,0,0,0,0,0,0,0,0,0,-1,1273,904,0,0
56,120,0,0,0,0,0,0,0,0,0,-1,1280,904,0,0
63,120,0,0,0,0,0,0,0,0,0,-1,1287,904,0,0
70,120,0,0,0,0,0,0,0,0,0,-1,1294,904,0,0
77,120,0,0,0,0,0,0,0,0,0,-1,1301,904,0,0
84,120,0,0,0,0,0,0,0,0,0,-1,1308,904,0,0
91,120,0,0,0,0,0,0,0,0,0,-1,1315,904,0,0
98,120,0,0,0,0,0,0,0,0,0,-1,1322,904,0,0
105,120,0,0,0,0,0,0,0,0,0,-1,1329,904,0,0
112,120,0,0,0,0,0,0,0,0,0,-1,1336,904,0,0
119,120,0,0,0,0,0,0,0,0,0,-1,1343,904,0,0
126,120,0,0,0,0,0,0,0,0,0,-1,1350,904,0,0
133,120,0,0,0,0,0,0,0,0,0,-1,1357,904,0,0
140,120,0,0,0,0,0,0,0,0,0,-1,1364,904,0,0
147,120,0,0,0,0,0,0,0,0,0,-1,1371,904,0,0
154,120,0,0,0,0,0,0,0,0,0,-1,1378,904,0,0
161,120,0,0,0,0,0,0,0,0,0,-1,1385,904,0,0
168,120,0,0,0,0,0,0,0,0,0,-1,1392,904,0,0
175,120,0,0,0,0,0,0,0,0,0,-1,1399,904,0,0
182,120,0,0,0,0,0,0,0,0,0,-1,1406,904,0,0
189,120,0,0,0,0,0,0,0,0,0,-1,1413,904,0,0
196,120,0,0,0,0,0,0,0,0,0,-1,1420,904,0,0
203,120,0,0,0,0,0,0,0,0,0,-1,1427,904,0,0
210,120,0,0,0,0,0,0,0,0,0,-1,1434,904,0,0
217,120,0,0,0,0,0,0,0,0,0,-1,1441,904,0,0
224,120,0,0,0,0,0,0,0,0,0,-1,1448,904,0,0
231,120,0,0,0,0,0,0,0,0,0,-1,1455,904,0,0
238,120,0,0,0,0,0,0,0,0,0,-1,1462,904,0,0
245,120,0,0,0,0,0,0,0,0,0,-1,1469,904,0,0
252,120,0,0,0,0,0,0,0,0,0,-1,1476,904,0,0
259,120,0,0,0,0,0,0,0,0,0,-1,1483,904,0,0
266,120,0,0,0,0,0,0,0,0,0,-1,1490,904,0,0
273,120,0,0,0,0,0,0,0,0,0,-1,1497,904,0,0
280,120,0,0,0,0,0,0,0,0,0,-1,1504,904,0,0
287,120,0,0,0,0,0,0,0,0,0,-1,1511,904,0,0
294,120,0,0,0,0,0,0,0,0,0,-1,1518,904,0,0
301,120,0,0,0,0,0,0,0,0,0,-1,1525,904,0,0
308,120,0,0,0,0,0,0,0,0,0,-1,1532,904,0,0
315,120,0,0,0,0,0,0,0,0,0,-1,1539,904,0,0
322,120,0,0,0,0,0,0,0,0,0,-1,1546,904,0,0
329,120,0,0,0,0,0,0,0,0,0,-1,1553,904,0,0
336,120,0,0,0,0,0,0,0,0,0,-1,1560,904,0,0
343,120,0,0,0,0,0,0,0,0,0,-1,1567,904,0,0
350,120,0,0,0,0,0,0,0,0,0,-1,1574,904,0,0
357,120,0,0,0,0,0,0,0,0,0,-1,1581,904,0,0
364,120,0,0,0,0,0,0,0,0,0,-1,1588,904,0,0
371,120,0,0,0,0,0,0,0,0,0,-1,1595,904,0,0
378,120,0,0,0,0,0,0,0,0,0,-1,1602,904,0,0
385,120,0,0,0,0,0,0,0,0,0,-1,1609,904,0,0
392,120,0,0,0,0,0,0,0,0,0,-1,1616,904,0,0
399,120,0,0,0,0,0,0,0,0,0,-1,1623,904,0,0
406,120,0,0,0,0,0,0,0,0,0,-1,1630,904,0,0
413,120,0,0,0,0,0,0,0,0,0,-1,1637,904,0,0
420,120,0,0,0,0,0,0,0,0,0,-1,1644,904,0,0
427,120,0,0,0,0,0,0,0,0,0,-1,1651,904,0,0
434,120,0,0,0,0,0,0,0,0,0,-1,1658,904,0,0
441,120,0,0,0,0,0,0,0,0,0,-1,1665,904,0,0
448,120,0,0,0,0,0,0,0,0,0,-1,1672,904,0,0
455,120,0,0,0,0,0,0,0,0,0,-1,1679,904,0,0
462,120,0,0,0,0,0,0,0,0,0,-1,1686,904,0,0
469,120,0,0,0,0,0,0,0,0,0,-1,1693,904,0,0
476,120,0,0,0,0,0,0,0,0,0,-1,1700,904,0,0
483,120,0,0,0,0,0,0,0,0,0,-1,1707,904,0,0
490,120,0,0,0,0,0,0,0,0,0,-1,1714,904,0,0
497,120,0,0,0,0,0,0,0,0,0,-1,1721,904,0,0
504,120,0,0,0,0,0,0,0,0,0,-1,1728,904,0,0
511,120,0,0,0,0,0,0,0,0,0,-1,1735,904,0,0
518,120,0,0,0,0,0,0,0,0,0,-1,1742,904,0,0
525,120,0,0,0,0,0,0,0,0,0,-1,1749,904,0,0
532,120,0,0,0,0,0,0,0,0,0,-1,1756,904,0,0
539,120,0,0,0,0,0,0,0,0,0,-1,1763,904,0,0
546,120,0,0,0,0,0,0,0,0,0,-1,1770,904,0,0
553,120,0,0,0,0,0,0,0,0,0,-1,1777,904,0,0
560,120,0,0,0,0,0,0,0,0,0,-1,1784,904,0,0
567,120,0,0,0,0,0,0,0,0,0,-1,1791,904,0,0
574,120,0,0,0,0,0,0,0,0,0,-1,1798,904,0,0
581,120,0,0,0,0,0,0,0,0,0,-1,1805,904,0,0
588,120,0,0,0,0,0,0,0,0,0,-1,1812,904,0,0
595,120,0,0,0,0,0,0,0,0,0,-1,1819,904,0,0
602,120,0,0,0,0,0,0,0,0,0,-1,1826,904,0,0
609,120,0,0,0,0,0,0,0,0,0,-1,1833,904,0,0
616,120,0,0,0,0,0,0,0,0,0,-1,1840,904,0,0
623,120,0,0,0,0,0,0,0,0,0,-1,1847,904,0,0
630,120,40.7167,2.52478,4.57793e-05,0.00567693,0.00147343,0.00603916,-0.000316454,1.32973,0.00413563,0.0407523,1854,904,40.7167,-2.52479
637,120,40.9087,2.4502,-0.000483702,0.00465895,0.00180971,0.00523194,-0.0010567,1.26416,0.00388836,0.0449185,1861,904,40.9086,-2.4502
644,120,40.911,2.6377,-0.000738281,0.0036745,0.00190048,0.00438015,-0.00144393,1.21527,0.00350208,0.0429593,1868,904,40.9111,-2.63767
651,120,40.7916,2.69031,-0.000708575,0.00275989,0.00180472,0.00352857,-0.00147726,1.16814,0.0029699,0.0452452,1875,904,40.7917,-2.6903
658,120,40.7216,2.87042,-0.000404461,0.001847,0.00156394,0.00264823,-0.00120569,1.09735,0.00227643,0.045339,1882,904,40.7215,-2.87041
665,120,40.7236,2.71179,4.1892e-05,0.00113649,0.00125862,0.00196165,-0.000783276,0.990486,0.00163274,0.0384521,1889,904,40.7237,-2.71181
672,120,40.778,2.59674,0.000492203,0.000543019,0.000998641,0.00151658,-0.000481353,0.798117,0.00120401,0.0354859,1896,904,40.778,-2.59672
679,120,40.8151,2.59924,0.000827094,7.57511e-05,0.000765415,0.00130406,-0.000401214,0.557265,0.00102951,0.03176,1903,904,40.8151,-2.59923
686,120,40.8291,2.67163,0.000902149,-0.000204654,0.000507426,0.00109957,-0.000402075,0.371043,0.000897608,0.0235398,1910,904,40.8291,-2.67163
693,120,40.7567,2.64502,0,0,0,0,0,0,0,-1,1917,904,40.7567,-2.64503
700,120,36.2849,2.98322,0,0,0,0,0,0,0,-1,1924,904,36.2849,-2.98323
707,120,36.1443,3.28015,0,0,0,0,0,0,0,-1,1931,904,36.1443,-3.28015
714,120,36.4276,3.54871,0,0,0,0,0,0,0,-1,1938,904,36.4277,-3.54871
721,120,36.3624,4.14819,0.00161023,0.00038666,-0.000431819,0.00174727,0.000249613,-0.307317,0.0010912,0.0154851,1945,904,36.3625,-4.14822
728,120,36.3468,4.54126,0.00146243,0.00114031,-0.000131353,0.0015092,0.00109353,-0.34207,0.00090016,0.0107828,1952,904,36.3468,-4.54124
735,120,36.3143,4.87292,0.00165538,0.00223749,0.000242428,0.00232523,0.00156764,1.22355,0.00136936,0.0125266,1959,904,36.3144,-4.87292
742,120,36.2898,5.2627,0.00217849,0.00387296,0.000506328,0.00401273,0.00203872,1.30146,0.00231685,0.0141541,1966,904,36.2898,-5.26267
749,120,36.2717,5.60828,0.00334914,0.00611045,0.00115143,0.00652757,0.00293203,1.22324,0.00377518,0.0116138,1973,904,36.2718,-5.60825
756,120,36.214,5.95874,0.0050962,0.00893305,0.00201396,0.00979606,0.00423319,1.16595,0.0056731,0.0139149,1980,904,36.214,-5.95876
763,120,36.1351,6.27045,0.00728394,0.0121113,0.00291411,0.0134815,0.00591372,1.13127,0.00780307,0.0267258,1987,904,36.1351,-6.27047
770,120,36.0634,6.6051,0,0,0,0,0,0,0,-1,1994,904,36.0633,-6.60511
777,120,34.792,6.7478,0,0,0,0,0,0,0,-1,2001,904,34.792,-6.74781
784,120,28.2545,3.00208,0,0,0,0,0,0,0,-1,2008,904,28.2545,-3.00207
791,120,33.7759,9.9859,0,0,0,0,0,0,0,-1,2015,904,33.776,-9.98587
798,120,33.8569,6.19458,0,0,0,0,0,0,0,-1,2022,904,33.8568,-6.19461
805,120,0,0,0,0,0,0,0,0,0,-1,2029,904,0,0
812,120,0,0,0,0,0,0,0,0,0,-1,2036,904,0,0
-700,113,0,0,0,0,0,0,0,0,0,-1,524,911,0,0
-693,113,0,0,0,0,0,0,0,0,0,-1,531,911,0,0
-686,113,0,0,0,0,0,0,0,0,0,-1,538,911,0,0
-679,113,-28.8774,3.49097,0,0,0,0,0,0,0,-1,545,911,-28.8774,-3.49096
-672,113,-28.5924,3.38245,0.0872549,-0.0648985,-0.0125865,0.0882891,-0.0659326,-0.0819798,0.0893512,0.048803,552,911,-28.5924,-3.38248
-665,113,-27.8439,2.93481,0.0732927,-0.0483566,-0.00862344,0.073901,-0.0489648,-0.0704184,0.0714219,0.0467363,559,911,-27.8439,-2.93484
-658,113,-28.0022,2.43585,0.0598999,-0.0347474,-0.00574111,0.0602469,-0.0350944,-0.060363,0.0556801,0.0491833,566,911,-28.0022,-2.43586
-651,113,-27.9182,2.40552,0,0,0,0,0,0,0,-1,573,911,-27.9182,-2.40553
-644,113,-26.8713,4.01813,0,0,0,0,0,0,0,-1,580,911,-26.8714,-4.01813
-637,113,-26.8832,3.71118,0.0259455,-0.0082311,-0.000432068,0.025951,-0.00823656,-0.0126395,0.0206025,0.0366519,587,911,-26.8832,-3.7112
-630,113,-26.8246,3.48016,0.0175136,-0.00255951,0.000694054,0.0175375,-0.00258348,0.0345214,0.0126411,0.0183173,594,911,-26.8246,-3.48017
-623,113,-26.8652,3.17871,0.0095822,0.00153148,0.00186944,0.00999512,0.00111856,0.217389,0.00632362,0.0122538,601,911,-26.8652,-3.17871
-616,113,-26.8632,2.86945,0.00266872,0.00155103,0.00238996,0.0045643,-0.000344553,0.670546,0.00316398,0.0103967,608,911,-26.8631,-2.86944
-609,113,-26.869,2.5481,-0.00273707,0.0023029,0.00172229,0.00283522,-0.0032694,1.27103,0.00352747,0.0113453,615,911,-26.869,-2.54808
-602,113,-26.9001,2.2196,-0.00458174,0.00196021,0.00178122,0.00241375,-0.00503528,1.32147,0.00438858,0.0166302,622,911,-26.9001,-2.2196
-595,113,-26.943,1.98114,-0.00508571,0.0010112,0.00150848,0.00136401,-0.00543852,1.34104,0.00415565,0.0224609,629,911,-26.943,-1.98116
-588,113,-26.9047,1.63062,-0.00542816,0.00074922,0.00121891,0.000981035,-0.00565997,1.38286,0.00413926,0.0257264,636,911,-26.9047,-1.63061
-581,113,-26.9157,1.27625,-0.00578133,0.000768124,0.00106257,0.000936199,-0.00594941,1.41392,0.00431235,0.027646,643,911,-26.9157,-1.27625
-574,113,-26.8981,0.781128,0,0,0,0,0,0,0,-1,650,911,-26.8981,-0.781108
-567,113,-21.8396,0.437378,0,0,0,0,0,0,0,-1,657,911,-21.8396,-0.437351
-560,113,-30.0325,0.782349,0,0,0,0,0,0,0,-1,664,911,-30.0325,-0.78237
-553,113,-30.0218,0.957153,-0.00448935,0.000757309,-0.000948711,0.000923587,-0.00465562,-1.39729,0.00345303,0.0384832,671,911,-30.0218,-0.957156
-546,113,-29.9785,1.06537,-0.00398898,0.00107285,-0.00154419,0.00150674,-0.00442287,-1.29688,0.00355878,0.035094,678,911,-29.9785,-1.06539
-539,113,-29.9609,0.967896,-0.00312968,0.00150358,-0.00231874,0.00246465,-0.00409075,-1.17787,0.00382338,0.0371214,685,911,-29.961,-0.967924
-532,113,-29.9958,0.889038,-0.00196844,0.00203695,-0.00342228,0.00399945,-0.00393094,-1.05013,0.00457867,0.0391191,692,911,-29.9958,-0.889036
-525,113,-30.1604,0.914063,-0.00061967,0.0027215,-0.0052486,0.00655897,-0.00445713,-0.939475,0.00639862,0.0400308,699,911,-30.1604,-0.914067
-518,113,-30.3434,0.742859,-0.000588544,0.0032894,-0.00757046,0.00916525,-0.0064644,-0.910765,0.00906858,0.0402897,706,911,-30.3434,-0.742872
-511,113,-30.1008,0.616638,0,0,0,0,0,0,0,-1,713,911,-30.1009,-0.616656
-504,113,0,0,0,0,0,0,0,0,0,-1,720,911,0,0
-497,113,0,0,0,0,0,0,0,0,0,-1,727,911,0,0
-490,113,0,0,0,0,0,0,0,0,0,-1,734,911,0,0
-483,113,0,0,0,0,0,0,0,0,0,-1,741,911,0,0
-476,113,0,0,0,0,0,0,0,0,0,-1,748,911,0,0
-469,113,0,0,0,0,0,0,0,0,0,-1,755,911,0,0
-462,113,0,0,0,0,0,0,0,0,0,-1,762,911,0,0
-455,113,0,0,0,0,0,0,0,0,0,-1,769,911,0,0
-448,113,0,0,0,0,0,0,0,0,0,-1,776,911,0,0
-441,113,0,0,0,0,0,0,0,0,0,-1,783,911,0,0
-434,113,0,0,0,0,0,0,0,0,0,-1,790,911,0,0
-427,113,0,0,0,0,0,0,0,0,0,-1,797,911,0,0
-420,113,0,0,0,0,0,0,0,0,0,-1,804,911,0,0
-413,113,0,0,0,0,0,0,0,0,0,-1,811,911,0,0
-406,113,0,0,0,0,0,0,0,0,0,-1,818,911,0,0
-399,113,0,0,0,0,0,0,0,0,0,-1,825,911,0,0
-392,113,0,0,0,0,0,0,0,0,0,-1,832,911,0,0
-385,113,0,0,0,0,0,0,0,0,0,-1,839,911,0,0
-378,113,0,0,0,0,0,0,0,0,0,-1,846,911,0,0
-371,113,0,0,0,0,0,0,0,0,0,-1,853,911,0,0
-364,113,0,0,0,0,0,0,0,0,0,-1,860,911,0,0
-357,113,0,0,0,0,0,0,0,0,0,-1,867,911,0,0
-350,113,0,0,0,0,0,0,0,0,0,-1,874,911,0,0
-343,113,0,0,0,0,0,0,0,0,0,-1,881,911,0,0
-336,113,0,0,0,0,0,0,0,0,0,-1,888,911,0,0
-329,113,0,0,0,0,0,0,0,0,0,-1,895,911,0,0
-322,113,0,0,0,0,0,0,0,0,0,-1,902,911,0,0
-315,113,0,0,0,0,0,0,0,0,0,-1,909,911,0,0
-308,113,0,0,0,0,0,0,0,0,0,-1,916,911,0,0
-301,113,0,0,0,0,0,0,0,0,0,-1,923,911,0,0
-294,113,0,0,0,0,0,0,0,0,0,-1,930,911,0,0
-287,113,0,0,0,0,0,0,0,0,0,-1,937,911,0,0
-280,113,0,0,0,0,0,0,0,0,0,-1,944,911,0,0
-273,113,0,0,0,0,0,0,0,0,0,-1,951,911,0,0
-266,113,0,0,0,0,0,0,0,0,0,-1,958,911,0,0
-259,113,0,0,0,0,0,0,0,0,0,-1,965,911,0,0
-252,113,0,0,0,0,0,0,0,0,0,-1,972,911,0,0
-245,113,0,0,0,0,0,0,0,0,0,-1,979,911,0,0
-238,113,0,0,0,0,0,0,0,0,0,-1,986,911,0,0
-231,113,0,0,0,0,0,0,0,0,0,-1,993,911,0,0
-224,113,0,0,0,0,0,0,0,0,0,-1,1000,911,0,0
-217,113,0,0,0,0,0,0,0,0,0,-1,1007,911,0,0
-210,113,0,0,0,0,0,0,0,0,0,-1,1014,911,0,0
-203,113,0,0,0,0,0,0,0,0,0,-1,1021,911,0,0
-196,113,0,0,0,0,0,0,0,0,0,-1,1028,911,0,0
-189,113,0,0,0,0,0,0,0,0,0,-1,1035,911,0,0
-182,113,0,0,0,0,0,0,0,0,0,-1,1042,911,0,0
-175,113,0,0,0,0,0,0,0,0,0,-1,1049,911,0,0
-168,113,0,0,0,0,0,0,0,0,0,-1,1056,911,0,0
-161,113,0,0,0,0,0,0,0,0,0,-1,1063,911,0,0
-154,113,0,0,0,0,0,0,0,0,0,-1,1070,911,0,0
-147,113,0,0,0,0,0,0,0,0,0,-1,1077,911,0,0
-140,113,0,0,0,0,0,0,0,0,0,-1,1084,911,0,0
-133,113,0,0,0,0,0,0,0,0,0,-1,1091,911,0,0
-126,113,0,0,0,0,0,0,0,0,0,-1,1098,911,0,0
-119,113,0,0,0,0,0,0,0,0,0,-1,1105,911,0,0
-112,113,0,0,0,0,0,0,0,0,0,-1,1112,911,0,0
-105,113,0,0,0,0,0,0,0,0,0,-1,1119,911,0,0
-98,113,0,0,0,0,0,0,0,0,0,-1,1126,911,0,0
-91,113,0,0,0,0,0,0,0,0,0,-1,1133,911,0,0
-84,113,0,0,0,0,0,0,0,0,0,-1,1140,911,0,0
-77,113,0,0,0,0,0,0,0,0,0,-1,1147,911,0,0
-70,113,0,0,0,0,0,0,0,0,0,-1,1154,911,0,0
-63,113,0,0,0,0,0,0,0,0,0,-1,1161,911,0,0
-56,113,0,0,0,0,0,0,0,0,0,-1,1168,911,0,0
-49,113,0,0,0,0,0,0,0,0,0,-1,1175,911,0,0
-42,113,0,0,0,0,0,0,0,0,0,-1,1182,911,0,0
-35,113,0,0,0,0,0,0,0,0,0,-1,1189,911,0,0
-28,113,0,0,0,0,0,0,0,0,0,-1,1196,911,0,0
-21,113,0,0,0,0,0,0,0,0,0,-1,1203,911,0,0
-14,113,0,0,0,0,0,0,0,0,0,-1,1210,911,0,0
-7,113,0,0,0,0,0,0,0,0,0,-1,1217,911,0,0
0,113,0,0,0,0,0,0,0,0,0,-1,1224,911,0,0
7,113,0,0,0,0,0,0,0,0,0,-1,1231,911,0,0
14,113,0,0,0,0,0,0,0,0,0,-1,1238,911,0,0
21,113,0,0,0,0,0,0,0,0,0,-1,1245,911,0,0
28,113,0,0,0,0,0,0,0,0,0,-1,1252,911,0,0
35,113,0,0,0,0,0,0,0,0,0,-1,1259,911,0,0
42,113,0,0,0,0,0,0,0,0,0,-1,1266,911,0,0
49,113,0,0,0,0,0,0,0,0,0,-1,1273,911,0,0
56,113,0,0,0,0,0,0,0,0,0,-1,1280,911,0,0
63,113,0,0,0,0,0,0,0,0,0,-1,1287,911,0,0
70,113,0,0,0,0,0,0,0,0,0,-1,1294,911,0,0
77,113,0,0,0,0,0,0,0,0,0,-1,1301,911,0,0
84,113,0,0,0,0,0,0,0,0,0,-1,1308,911,0,0
91,113,0,0,0,0,0,0,0,0,0,-1,1315,911,0,0
98,113,0,0,0,0,0,0,0,0,0,-1,1322,911,0,0
105,113,0,0,0,0,0,0,0,0,0,-1,1329,911,0,0
112,113,0,0,0,0,0,0,0,0,0,-1,1336,911,0,0
119,113,0,0,0,0,0,0,0,0,0,-1,1343,911,0,0
126,113,0,0,0,0,0,0,0,0,0,-1,1350,911,0,0
133,113,0,0,0,0,0,0,0,0,0,-1,1357,911,0,0
140,113,0,0,0,0,0,0,0,0,0,-1,1364,911,0,0
147,113,0,0,0,0,0,0,0,0,0,-1,1371,911,0,0
154,113,0,0,0,0,0,0,0,0,0,-1,1378,911,0,0
161,113,0,0,0,0,0,0,0,0,0,-1,1385,911,0,0
168,113,0,0,0,0,0,0,0,0,0,-1,1392,911,0,0
175,113,0,0,0,0,0,0,0,0,0,-1,1399,911,0,0
182,113,0,0,0,0,0,0,0,0,0,-1,1406,911,0,0
189,113,0,0,0,0,0,0,0,0,0,-1,1413,911,0,0
196,113,0,0,0,0,0,0,0,0,0,-1,1420,911,0,0
203,113,0,0,0,0,0,0,0,0,0,-1,1427,911,0,0
210,113,0,0,0,0,0,0,0,0,0,-1,1434,911,0,0
217,113,0,0,0,0,0,0,0,0,0,-1,1441,911,0,0
224,113,0,0,0,0,0,0,0,0,0,-1,1448,911,0,0
231,113,0,0,0,0,0,0,0,0,0,-1,1455,911,0,0
238,113,0,0,0,0,0,0,0,0,0,-1,1462,911,0,0
245,113,0,0,0,0,0,0,0,0,0,-1,1469,911,0,0
252,113,0,0,0,0,0,0,0,0,0,-1,1476,911,0,0
259,113,0,0,0,0,0,0,0,0,0,-1,1483,911,0,0
266,113,0,0,0,0,0,0,0,0,0,-1,1490,911,0,0
273,113,0,0,0,0,0,0,0,0,0,-1,1497,911,0,0
280,113,0,0,0,0,0,0,0,0,0,-1,1504,911,0,0
287,113,0,0,0,0,0,0,0,0,0,-1,1511,911,0,0
294,113,0,0,0,0,0,0,0,0,0,-1,1518,911,0,0
301,113,0,0,0,0,0,0,0,0,0,-1,1525,911,0,0
308,113,0,0,0,0,0,0,0,0,0,-1,1532,911,0,0
315,113,0,0,0,0,0,0,0,0,0,-1,1539,911,0,0
322,113,0,0,0,0,0,0,0,0,0,-1,1546,911,0,0
329,113,0,0,0,0,0,0,0,0,0,-1,1553,911,0,0
336,113,0,0,0,0,0,0,0,0,0,-1,1560,911,0,0
343,113,0,0,0,0,0,0,0,0,0,-1,1567,911,0,0
350,113,0,0,0,0,0,0,0,0,0,-1,1574,911,0,0
357,113,0,0,0,0,0,0,0,0,0,-1,1581,911,0,0
364,113,0,0,0,0,0,0,0,0,0,-1,1588,911,0,0
371,113,0,0,0,0,0,0,0,0,0,-1,1595,911,0,0
378,113,0,0,0,0,0,0,0,0,0,-1,1602,911,0,0
385,113,0,0,0,0,0,0,0,0,0,-1,1609,911,0,0
392,113,0,0,0,0,0,0,0,0,0,-1,1616,911,0,0
399,113,0,0,0,0,0,0,0,0,0,-1,1623,911,0,0
406,113,0,0,0,0,0,0,0,0,0,-1,1630,911,0,0
413,113,0,0,0,0,0,0,0,0,0,-1,1637,911,0,0
420,113,0,0,0,0,0,0,0,0,0,-1,1644,911,0,0
427,113,0,0,0,0,0,0,0,0,0,-1,1651,911,0,0
434,113,0,0,0,0,0,0,0,0,0,-1,1658,911,0,0
441,113,0,0,0,0,0,0,0,0,0,-1,1665,911,0,0
448,113,0,0,0,0,0,0,0,0,0,-1,1672,911,0,0
455,113,0,0,0,0,0,0,0,0,0,-1,1679,911,0,0
462,113,0,0,0,0,0,0,0,0,0,-1,1686,911,0,0
469,113,0,0,0,0,0,0,0,0,0,-1,1693,911,0,0
476,113,0,0,0,0,0,0,0,0,0,-1,1700,911,0,0
483,113,0,0,0,0,0,0,0,0,0,-1,1707,911,0,0
490,113,0,0,0,0,0,0,0,0,0,-1,1714,911,0,0
497,113,0,0,0,0,0,0,0,0,0,-1,1721,911,0,0
504,113,0,0,0,0,0,0,0,0,0,-1,1728,911,0,0
511,113,0,0,0,0,0,0,0,0,0,-1,1735,911,0,0
518,113,0,0,0,0,0,0,0,0,0,-1,1742,911,0,0
525,113,0,0,0,0,0,0,0,0,0,-1,1749,911,0,0
532,113,0,0,0,0,0,0,0,0,0,-1,1756,911,0,0
539,113,0,0,0,0,0,0,0,0,0,-1,1763,911,0,0
546,113,0,0,0,0,0,0,0,0,0,-1,1770,911,0,0
553,113,0,0,0,0,0,0,0,0,0,-1,1777,911,0,0
560,113,0,0,0,0,0,0,0,0,0,-1,1784,911,0,0
567,113,0,0,0,0,0,0,0,0,0,-1,1791,911,0,0
574,113,0,0,0,0,0,0,0,0,0,-1,1798,911,0,0
581,113,0,0,0,0,0,0,0,0,0,-1,1805,911,0,0
588,113,0,0,0,0,0,0,0,0,0,-1,1812,911,0,0
595,113,0,0,0,0,0,0,0,0,0,-1,1819,911,0,0
602,113,0,0,0,0,0,0,0,0,0,-1,1826,911,0,0
609,113,0,0,0,0,0,0,0,0,0,-1,1833,911,0,0
616,113,0,0,0,0,0,0,0,0,0,-1,1840,911,0,0
623,113,0,0,0,0,0,0,0,0,0,-1,1847,911,0,0
630,113,40.9097,2.53461,2.55556e-07,0.00491691,0.000991583,0.00510936,-0.000192193,1.3791,0.00347207,0.0408044,1854,911,40.9097,-2.53462
637,113,40.9833,2.56653,-0.000593178,0.00405647,0.00167692,0.00459815,-0.00113486,1.25835,0.0035055,0.0409603,1861,911,40.9833,-2.56654
644,113,40.965,2.72986,-0.000862916,0.00320603,0.00195584,0.00399368,-0.00165057,1.18795,0.003351,0.0405675,1868,911,40.965,-2.72983
651,113,40.788,2.65942,-0.000858942,0.00241605,0.00195603,0.00332952,-0.00177241,1.13389,0.00299098,0.044263,1875,911,40.7879,-2.65941
658,113,40.8018,2.56604,-0.000569718,0.00162484,0.00176894,0.00260919,-0.00155407,1.063,0.00242925,0.0452082,1882,911,40.8018,-2.56607
665,113,40.8329,2.77496,-9.51933e-05,0.000948626,0.00144804,0.00196594,-0.00111251,0.958364,0.00179996,0.0384701,1889,911,40.8329,-2.77497
672,113,40.7821,2.72955,0.000349065,0.000378102,0.00116973,0.0015334,-0.000806233,0.791604,0.00137236,0.0348185,1896,911,40.7822,-2.72958
679,113,40.7893,2.63739,0.000681262,-9.23951e-05,0.00092766,0.00129952,-0.000710648,0.587863,0.00117705,0.030706,1903,911,40.7893,-2.6374
686,113,40.8002,2.6416,0.000782545,-0.000377608,0.000649354,0.00107319,-0.00066825,0.420844,0.00101444,0.0279329,1910,911,40.8001,-2.64158
693,113,40.803,2.60992,0.000804476,-0.000513099,0.000438862,0.00093727,-0.000645893,0.293828,0.000919185,0.0493003,1917,911,40.803,-2.60993
700,113,40.8376,2.39716,0,0,0,0,0,0,0,-1,1924,911,40.8377,-2.39713
707,113,36.7502,3.35461,0,0,0,0,0,0,0,-1,1931,911,36.7503,-3.3546
714,113,36.6584,3.67145,0.000999861,-0.000238169,-0.00044836,0.00114518,-0.000383488,-0.313429,0.000918371,0.0216225,1938,911,36.6584,-3.67145
721,113,36.6744,4.07642,0.000976827,0.000290087,-0.000532498,0.00126706,-1.49186e-07,-0.499033,0.000844759,0.0200255,1945,911,36.6745,-4.0764
728,113,36.755,4.54004,0.000656613,0.00105396,-0.000256838,0.00118,0.000530575,-1.11459,0.000682422,0.0200301,1952,911,36.755,-4.54005
735,113,36.717,4.92059,0.000575861,0.00212804,2.53628e-05,0.00212846,0.000575447,1.55446,0.00127134,0.0177152,1959,911,36.7171,-4.9206
742,113,36.671,5.23566,0.000683503,0.00372362,8.75704e-05,0.00372614,0.000680983,1.54202,0.00229108,0.0126508,1966,911,36.6711,-5.23566
749,113,36.6713,5.58746,0.00123503,0.00591737,0.00045199,0.0059606,0.00119179,1.47544,0.00364206,0.00981739,1973,911,36.6713,-5.58748
756,113,36.6169,5.9563,0.0022107,0.00872133,0.00102198,0.00887799,0.00205404,1.4187,0.00536664,0.0135641,1980,911,36.617,-5.95629
763,113,36.504,6.3335,0.00354717,0.0119015,0.00167688,0.0122255,0.00322316,1.37992,0.00731657,0.0277814,1987,911,36.504,-6.33347
770,113,36.4316,6.50824,0.0052288,0.0155551,0.00224306,0.0160213,0.00476262,1.36588,0.00949998,0.0474015,1994,911,36.4316,-6.50824
777,113,36.4985,6.6084,0,0,0,0,0,0,0,-1,2001,911,36.4986,-6.6084
784,113,36.8019,8.60223,0,0,0,0,0,0,0,-1,2008,911,36.8019,-8.60221
791,113,36.3225,9.34735,0,0,0,0,0,0,0,-1,2015,911,36.3224,-9.34737
798,113,36.8662,8.17346,0,0,0,0,0,0,0,-1,2022,911,36.8663,-8.17345
805,113,0,0,0,0,0,0,0,0,0,-1,2029,911,0,0
812,113,0,0,0,0,0,0,0,0,0,-1,2036,911,0,0
-700,106,0,0,0,0,0,0,0,0,0,-1,524,918,0,0
-693,106,0,0,0,0,0,0,0,0,0,-1,531,918,0,0
-686,106,0,0,0,0,0,0,0,0,0,-1,538,918,0,0
-679,106,-29.1136,3.47516,0.102182,-0.0718264,-0.0215673,0.104816,-0.0744597,-0.121495,0.103998,0.0454998,545,918,-29.1136,-3.47516
-672,106,-28.7315,3.19336,0.0878656,-0.0522,-0.0146251,0.0893764,-0.0537108,-0.102937,0.0834625,0.0469637,552,918,-28.7315,-3.19338
-665,106,-28.3979,3.2074,0.0731156,-0.0374254,-0.00982167,0.0739815,-0.0382913,-0.087933,0.0659034,0.0484064,559,918,-28.3979,-3.20741
-658,106,-28.1824,3.1673,0.0591139,-0.0258682,-0.00638833,0.0595914,-0.0263457,-0.0746139,0.0508384,0.0449854,566,918,-28.1824,-3.16728
-651,106,-26.5532,4.6225,0,0,0,0,0,0,0,-1,573,918,-26.5532,-4.62253
-644,106,-26.7853,4.20782,0.0347762,-0.00978228,-0.00190499,0.0348575,-0.00986358,-0.0426488,0.0271306,0.0444317,580,918,-26.7853,-4.20781
-637,106,-26.9564,3.8623,0.0247788,-0.00474252,-0.000512457,0.0247877,-0.00475142,-0.0173519,0.0183156,0.0310575,587,918,-26.9564,-3.8623
-630,106,-27.1377,3.5567,0.0164897,-0.0001017,0.000651001,0.0165152,-0.000127205,0.039157,0.0110528,0.0143965,594,918,-27.1377,-3.55672
-623,106,-27.2278,3.1618,0.00855326,0.00296836,0.00181789,0.00909285,0.00242877,0.28854,0.00543628,0.0136786,601,918,-27.2278,-3.16183
-616,106,-27.2472,2.83881,0.001768,0.00195432,0.00238426,0.00424724,-0.000524926,0.804925,0.00302171,0.0136378,608,918,-27.2472,-2.8388
-609,106,-27.2367,2.53363,-0.0035577,0.00228498,0.00167468,0.00273095,-0.00400367,1.31053,0.00391131,0.0124566,615,918,-27.2367,-2.5336
-602,106,-27.247,2.20819,-0.00543258,0.00187778,0.00171355,0.0022595,-0.0058143,1.35161,0.00480966,0.0170395,622,918,-27.247,-2.20816
-595,106,-27.3678,1.91736,-0.00593476,0.000930699,0.00145481,0.00122625,-0.00623031,1.37037,0.0046169,0.020449,629,918,-27.3678,-1.91737
-588,106,-27.3527,1.56696,-0.00636282,0.000715608,0.00119815,0.000912917,-0.00656013,1.40758,0.00470733,0.0231726,636,918,-27.3526,-1.56694
-581,106,-27.2005,1.21051,-0.00680264,0.000779976,0.00102823,0.000916933,-0.0069396,1.43838,0.00496037,0.0159132,643,918,-27.2005,-1.21049
-574,106,-27.1305,0.867065,0,0,0,0,0,0,0,-1,650,918,-27.1305,-0.867094
-567,106,-29.8881,0.879089,0,0,0,0,0,0,0,-1,657,918,-29.8881,-0.879098
-560,106,-29.9782,0.869812,-0.00593743,0.000815348,-0.000627019,0.000873076,-0.00599515,-1.47899,0.00431732,0.0472339,664,918,-29.9782,-0.869829
-553,106,-29.9993,0.966125,-0.00552385,0.00107717,-0.00116213,0.00127579,-0.00572247,-1.40152,0.00430374,0.0346506,671,918,-29.9993,-0.966109
-546,106,-29.8382,1.13489,-0.00480197,0.00148632,-0.0018678,0.00199927,-0.00531492,-1.30278,0.00436508,0.0357075,678,918,-29.8382,-1.13489
-539,106,-29.8474,1.03839,-0.00357691,0.00201164,-0.00283377,0.0031971,-0.00476236,-1.17459,0.00462492,0.0382324,685,918,-29.8474,-1.03838
-532,106,-30.0898,0.894775,-0.00183051,0.00262222,-0.00427208,0.00521326,-0.00442155,-1.02561,0.00556891,0.039383,692,918,-30.0898,-0.894766
-525,106,-30.3444,0.879333,0.000210394,0.00337888,-0.00659203,0.00857436,-0.00498509,-0.903325,0.00791944,0.0384087,699,918,-30.3444,-0.879331
-518,106,-30.1936,0.572571,0.000263116,0.00401001,-0.00939807,0.0117195,-0.00744642,-0.88378,0.0111568,0.0405795,706,918,-30.1936,-0.572551
-511,106,0,0,0,0,0,0,0,0,0,-1,713,918,0,0
-504,106,0,0,0,0,0,0,0,0,0,-1,720,918,0,0
-497,106,0,0,0,0,0,0,0,0,0,-1,727,918,0,0
-490,106,0,0,0,0,0,0,0,0,0,-1,734,918,0,0
-483,106,0,0,0,0,0,0,0,0,0,-1,741,918,0,0
-476,106,0,0,0,0,0,0,0,0,0,-1,748,918,0,0
-469,106,0,0,0,0,0,0,0,0,0,-1,755,918,0,0
-462,106,0,0,0,0,0,0,0,0,0,-1,762,918,0,0
-455,106,0,0,0,0,0,0,0,0,0,-1,769,918,0,0
-448,106,0,0,0,0,0,0,0,0,0,-1,776,918,0,0
-441,106,0,0,0,0,0,0,0,0,0,-1,783,918,0,0
-434,106,0,0,0,0,0,0,0,0,0,-1,790,918,0,0
-427,106,0,0,0,0,0,0,0,0,0,-1,797,918,0,0
-420,106,0,0,0,0,0,0,0,0,0,-1,804,918,0,0
-413,106,0,0,0,0,0,0,0,0,0,-1,811,918,0,0
-406,106,0,0,0,0,0,0,0,0,0,-1,818,918,0,0
-399,106,0,0,0,0,0,0,0,0,0,-1,825,918,0,0
-392,106,0,0,0,0,0,0,0,0,0,-1,832,918,0,0
-385,106,0,0,0,0,0,0,0,0,0,-1,839,918,0,0
-378,106,0,0,0,0,0,0,0,0,0,-1,846,918,0,0
-371,106,0,0,0,0,0,0,0,0,0,-1,853,918,0,0
-364,106,0,0,0,0,0,0,0,0,0,-1,860,918,0,0
-357,106,0,0,0,0,0,0,0,0,0,-1,867,918,0,0
-350,106,0,0,0,0,0,0,0,0,0,-1,874,918,0,0
-343,106,0,0,0,0,0,0,0,0,0,-1,881,918,0,0
-336,106,0,0,0,0,0,0,0,0,0,-1,888,918,0,0
-329,106,0,0,0,0,0,0,0,0,0,-1,895,918,0,0
-322,106,0,0,0,0,0,0,0,0,0,-1,902,918,0,0
-315,106,0,0,0,0,0,0,0,0,0,-1,909,918,0,0
-308,106,0,0,0,0,0,0,0,0,0,-1,916,918,0,0
-301,106,0,0,0,0,0,0,0,0,0,-1,923,918,0,0
-294,106,0,0,0,0,0,0,0,0,0,-1,930,918,0,0
-287,106,0,0,0,0,0,0,0,0,0,-1,937,918,0,0
-280,106,0,0,0,0,0,0,0,0,0,-1,944,918,0,0
-273,106,0,0,0,0,0,0,0,0,0,-1,951,918,0,0
-266,106,0,0,0,0,0,0,0,0,0,-1,958,918,0,0
-259,106,0,0,0,0,0,0,0,0,0,-1,965,918,0,0
-252,106,0,0,0,0,0,0,0,0,0,-1,972,918,0,0
-245,106,0,0,0,0,0,0,0,0,0,-1,979,918,0,0
-238,106,0,0,0,0,0,0,0,0,0,-1,986,918,0,0
-231,106,0,0,0,0,0,0,0,0,0,-1,993,918,0,0
-224,106,0,0,0,0,0,0,0,0,0,-1,1000,918,0,0
-217,106,0,0,0,0,0,0,0,0,0,-1,1007,918,0,0
-210,106,0,0,0,0,0,0,0,0,0,-1,1014,918,0,0
-203,106,0,0,0,0,0,0,0,0,0,-1,1021,918,0,0
-196,106,0,0,0,0,0,0,0,0,0,-1,1028,918,0,0
-189,106,0,0,0,0,0,0,0,0,0,-1,1035,918,0,0
-182,106,0,0,0,0,0,0,0,0,0,-1,1042,918,0,0
-175,106,0,0,0,0,0,0,0,0,0,-1,1049,918,0,0
-168,106,0,0,0,0,0,0,0,0,0,-1,1056,918,0,0
-161,106,0,0,0,0,0,0,0,0,0,-1,1063,918,0,0
-154,106,0,0,0,0,0,0,0,0,0,-1,1070,918,0,0
-147,106,0,0,0,0,0,0,0,0,0,-1,1077,918,0,0
-140,106,0,0,0,0,0,0,0,0,0,-1,1084,918,0,0
-133,106,0,0,0,0,0,0,0,0,0,-1,1091,918,0,0
-126,106,0,0,0,0,0,0,0,0,0,-1,1098,918,0,0
-119,106,0,0,0,0,0,0,0,0,0,-1,1105,918,0,0
-112,106,0,0,0,0,0,0,0,0,0,-1,1112,918,0,0
-105,106,0,0,0,0,0,0,0,0,0,-1,1119,918,0,0
-98,106,0,0,0,0,0,0,0,0,0,-1,1126,918,0,0
-91,106,0,0,0,0,0,0,0,0,0,-1,1133,918,0,0
-84,106,0,0,0,0,0,0,0,0,0,-1,1140,918,0,0
-77,106,0,0,0,0,0,0,0,0,0,-1,1147,918,0,0
-70,106,0,0,0,0,0,0,0,0,0,-1,1154,918,0,0
-63,106,0,0,0,0,0,0,0,0,0,-1,1161,918,0,0
-56,106,0,0,0,0,0,0,0,0,0,-1,1168,918,0,0
-49,106,0,0,0,0,0,0,0,0,0,-1,1175,918,0,0
-42,106,0,0,0,0,0,0,0,0,0,-1,1182,918,0,0
-35,106,0,0,0,0,0,0,0,0,0,-1,1189,918,0,0
-28,106,0,0,0,0,0,0,0,0,0,-1,1196,918,0,0
-21,106,0,0,0,0,0,0,0,0,0,-1,1203,918,0,0
-14,106,0,0,0,0,0,0,0,0,0,-1,1210,918,0,0
-7,106,0,0,0,0,0,0,0,0,0,-1,1217,918,0,0
0,106,0,0,0,0,0,0,0,0,0,-1,1224,918,0,0
7,106,0,0,0,0,0,0,0,0,0,-1,1231,918,0,0
14,106,0,0,0,0,0,0,0,0,0,-1,1238,918,0,0
21,106,0,0,0,0,0,0,0,0,0,-1,1245,918,0,0
28,106,0,0,0,0,0,0,0,0,0,-1,1252,918,0,0
35,106,0,0,0,0,0,0,0,0,0,-1,1259,918,0,0
42,106,0,0,0,0,0,0,0,0,0,-1,1266,918,0,0
49,106,0,0,0,0,0,0,0,0,0,-1,1273,918,0,0
56,106,0,0,0,0,0,0,0,0,0,-1,1280,918,0,0
63,106,0,0,0,0,0,0,0,0,0,-1,1287,918,0,0
70,106,0,0,0,0,0,0,0,0,0,-1,1294,918,0,0
77,106,0,0,0,0,0,0,0,0,0,-1,1301,918,0,0
84,106,0,0,0,0,0,0,0,0,0,-1,1308,918,0,0
91,106,0,0,0,0,0,0,0,0,0,-1,1315,918,0,0
98,106,0,0,0,0,0,0,0,0,0,-1,1322,918,0,0
105,106,0,0,0,0,0,0,0,0,0,-1,1329,918,0,0
112,106,0,0,0,0,0,0,0,0,0,-1,1336,918,0,0
119,106,0,0,0,0,0,0,0,0,0,-1,1343,918,0,0
126,106,0,0,0,0,0,0,0,0,0,-1,1350,918,0,0
133,106,0,0,0,0,0,0,0,0,0,-1,1357,918,0,0
140,106,0,0,0,0,0,0,0,0,0,-1,1364,918,0,0
147,106,0,0,0,0,0,0,0,0,0,-1,1371,918,0,0
154,106,0,0,0,0,0,0,0,0,0,-1,1378,918,0,0
161,106,0,0,0,0,0,0,0,0,0,-1,1385,918,0,0
168,106,0,0,0,0,0,0,0,0,0,-1,1392,918,0,0
175,106,0,0,0,0,0,0,0,0,0,-1,1399,918,0,0
182,106,0,0,0,0,0,0,0,0,0,-1,1406,918,0,0
189,106,0,0,0,0,0,0,0,0,0,-1,1413,918,0,0
196,106,0,0,0,0,0,0,0,0,0,-1,1420,918,0,0
203,106,0,0,0,0,0,0,0,0,0,-1,1427,918,0,0
210,106,0,0,0,0,0,0,0,0,0,-1,1434,918,0,0
217,106,0,0,0,0,0,0,0,0,0,-1,1441,918,0,0
224,106,0,0,0,0,0,0,0,0,0,-1,1448,918,0,0
231,106,0,0,0,0,0,0,0,0,0,-1,1455,918,0,0
238,106,0,0,0,0,0,0,0,0,0,-1,1462,918,0,0
245,106,0,0,0,0,0,0,0,0,0,-1,1469,918,0,0
252,106,0,0,0,0,0,0,0,0,0,-1,1476,918,0,0
259,106,0,0,0,0,0,0,0,0,0,-1,1483,918,0,0
266,106,0,0,0,0,0,0,0,0,0,-1,1490,918,0,0
273,106,0,0,0,0,0,0,0,0,0,-1,1497,918,0,0
280,106,0,0,0,0,0,0,0,0,0,-1,1504,918,0,0
287,106,0,0,0,0,0,0,0,0,0,-1,1511,918,0,0
294,106,0,0,0,0,0,0,0,0,0,-1,1518,918,0,0
301,106,0,0,0,0,0,0,0,0,0,-1,1525,918,0,0
308,106,0,0,0,0,0,0,0,0,0,-1,1532,918,0,0
315,106,0,0,0,0,0,0,0,0,0,-1,1539,918,0,0
322,106,0,0,0,0,0,0,0,0,0,-1,1546,918,0,0
329,106,0,0,0,0,0,0,0,0,0,-1,1553,918,0,0
336,106,0,0,0,0,0,0,0,0,0,-1,1560,918,0,0
343,106,0,0,0,0,0,0,0,0,0,-1,1567,918,0,0
350,106,0,0,0,0,0,0,0,0,0,-1,1574,918,0,0
357,106,0,0,0,0,0,0,0,0,0,-1,1581,918,0,0
364,106,0,0,0,0,0,0,0,0,0,-1,1588,918,0,0
371,106,0,0,0,0,0,0,0,0,0,-1,1595,918,0,0
378,106,0,0,0,0,0,0,0,0,0,-1,1602,918,0,0
385,106,0,0,0,0,0,0,0,0,0,-1,1609,918,0,0
392,106,0,0,0,0,0,0,0,0,0,-1,1616,918,0,0
399,106,0,0,0,0,0,0,0,0,0,-1,1623,918,0,0
406,106,0,0,0,0,0,0,0,0,0,-1,1630,918,0,0
413,106,0,0,0,0,0,0,0,0,0,-1,1637,918,0,0
420,106,0,0,0,0,0,0,0,0,0,-1,1644,918,0,0
427,106,0,0,0,0,0,0,0,0,0,-1,1651,918,0,0
434,106,0,0,0,0,0,0,0,0,0,-1,1658,918,0,0
441,106,0,0,0,0,0,0,0,0,0,-1,1665,918,0,0
448,106,0,0,0,0,0,0,0,0,0,-1,1672,918,0,0
455,106,0,0,0,0,0,0,0,0,0,-1,1679,918,0,0
462,106,0,0,0,0,0,0,0,0,0,-1,1686,918,0,0
469,106,0,0,0,0,0,0,0,0,0,-1,1693,918,0,0
476,106,0,0,0,0,0,0,0,0,0,-1,1700,918,0,0
483,106,0,0,0,0,0,0,0,0,0,-1,1707,918,0,0
490,106,0,0,0,0,0,0,0,0,0,-1,1714,918,0,0
497,106,0,0,0,0,0,0,0,0,0,-1,1721,918,0,0
504,106,0,0,0,0,0,0,0,0,0,-1,1728,918,0,0
511,106,0,0,0,0,0,0,0,0,0,-1,1735,918,0,0
518,106,0,0,0,0,0,0,0,0,0,-1,1742,918,0,0
525,106,0,0,0,0,0,0,0,0,0,-1,1749,918,0,0
532,106,0,0,0,0,0,0,0,0,0,-1,1756,918,0,0
539,106,0,0,0,0,0,0,0,0,0,-1,1763,918,0,0
546,106,0,0,0,0,0,0,0,0,0,-1,1770,918,0,0
553,106,0,0,0,0,0,0,0,0,0,-1,1777,918,0,0
560,106,0,0,0,0,0,0,0,0,0,-1,1784,918,0,0
567,106,0,0,0,0,0,0,0,0,0,-1,1791,918,0,0
574,106,0,0,0,0,0,0,0,0,0,-1,1798,918,0,0
581,106,0,0,0,0,0,0,0,0,0,-1,1805,918,0,0
588,106,0,0,0,0,0,0,0,0,0,-1,1812,918,0,0
595,106,0,0,0,0,0,0,0,0,0,-1,1819,918,0,0
602,106,0,0,0,0,0,0,0,0,0,-1,1826,918,0,0
609,106,0,0,0,0,0,0,0,0,0,-1,1833,918,0,0
616,106,0,0,0,0,0,0,0,0,0,-1,1840,918,0,0
623,106,0,0,0,0,0,0,0,0,0,-1,1847,918,0,0
630,106,41.0508,2.5249,0.000274982,0.00362131,0.000168101,0.00362974,0.000266559,1.52073,0.00233605,0.0427495,1854,918,41.0508,-2.52487
637,106,40.9066,2.88763,-0.000432196,0.00312488,0.00128888,0.0035428,-0.000850112,1.25725,0.00269039,0.0418748,1861,918,40.9066,-2.88765
644,106,40.9255,2.72418,-0.000757144,0.00255232,0.00180593,0.00334698,-0.00155181,1.15627,0.00289092,0.0394601,1868,918,40.9256,-2.72416
651,106,40.8667,2.65009,-0.000827127,0.0019967,0.00195177,0.00299371,-0.00182413,1.09853,0.00280877,0.043029,1875,918,40.8667,-2.65009
658,106,40.9249,2.7514,-0.000620803,0.00144784,0.00186551,0.00254657,-0.00171954,1.03852,0.00247842,0.042673,1882,918,40.9249,-2.7514
665,106,40.8688,2.91083,-0.000193767,0.000916119,0.00157887,0.00203473,-0.00131238,0.954395,0.0019474,0.0390574,1889,918,40.8687,-2.91083
672,106,40.749,2.89429,0.000171159,0.000417376,0.00132128,0.00162127,-0.00103274,0.831851,0.0015448,0.0382043,1896,918,40.749,-2.89426
679,106,40.7887,2.79303,0.000450753,-3.33024e-05,0.00109455,0.00132972,-0.000912266,0.676589,0.00130187,0.034572,1903,918,40.7887,-2.79301
686,106,40.8044,2.65369,0.000559229,-0.000321627,0.000803738,0.0010353,-0.000797699,0.534755,0.00106124,0.0319387,1910,918,40.8045,-2.65369
693,106,40.8269,2.55225,0.000575546,-0.000453768,0.000597517,0.000849494,-0.000727716,0.429882,0.000911507,0.0321051,1917,918,40.8269,-2.55224
700,106,40.9459,2.28259,0,0,0,0,0,0,0,-1,1924,918,40.9459,-2.2826
707,106,36.947,3.31213,0,0,0,0,0,0,0,-1,1931,918,36.947,-3.31215
714,106,37.0588,3.68738,0.000470742,-0.000173015,-0.000433365,0.000688688,-0.000390961,-0.465978,0.000631187,0.0277293,1938,918,37.0588,-3.68741
721,106,37.1113,4.1106,0.000335595,0.000286932,-0.000561639,0.000873429,-0.000250902,-0.76375,0.000681493,0.0234819,1945,918,37.1113,-4.11061
728,106,37.1703,4.56232,-4.64568e-05,0.00101622,-0.0003065,0.00109829,-0.000128521,-1.30919,0.000778575,0.0228482,1952,918,37.1702,-4.56234
735,106,37.1276,4.91266,-0.000239994,0.00204723,-8.83929e-05,0.00205065,-0.000243405,-1.53223,0.00145503,0.0202269,1959,918,37.1276,-4.91263
742,106,37.0765,5.21161,-0.000326755,0.00355759,-0.00017753,0.00356568,-0.000334852,-1.52522,0.00249624,0.01225,1966,918,37.0766,-5.21158
749,106,37.0477,5.5542,-6.57054e-05,0.00560736,-3.98694e-05,0.00560764,-6.59854e-05,-1.56377,0.00376061,0.00981621,1973,918,37.0478,-5.55418
756,106,36.9952,5.9021,0.000495505,0.00826839,0.000291084,0.00827928,0.000484619,1.53342,0.00536528,0.0120401,1980,918,36.9952,-5.90207
763,106,36.896,6.33557,0.00135449,0.0113154,0.000742409,0.0113705,0.00129946,1.49681,0.00718643,0.0229896,1987,918,36.8959,-6.33554
770,106,36.7783,6.58984,0.00245901,0.0146539,0.00109739,0.0147518,0.00236105,1.48176,0.00914965,0.0409909,1994,918,36.7783,-6.58984
777,106,36.9043,7.28473,0,0,0,0,0,0,0,-1,2001,918,36.9043,-7.28474
784,106,36.7052,7.98383,0,0,0,0,0,0,0,-1,2008,918,36.7052,-7.98382
791,106,35.9602,8.30243,0,0,0,0,0,0,0,-1,2015,918,35.9602,-8.30241
798,106,35.8889,9.67676,0,0,0,0,0,0,0,-1,2022,918,35.8889,-9.67678
805,106,0,0,0,0,0,0,0,0,0,-1,2029,918,0,0
812,106,0,0,0,0,0,0,0,0,0,-1,2036,918,0,0
-700,99,0,0,0,0,0,0,0,0,0,-1,524,925,0,0
-693,99,0,0,0,0,0,0,0,0,0,-1,531,925,0,0
-686,99,0,0,0,0,0,0,0,0,0,-1,538,925,0,0
-679,99,-29.9764,2.95465,0,0,0,0,0,0,0,-1,545,925,-29.9764,-2.95465
-672,99,-29.0729,4.06171,0,0,0,0,0,0,0,-1,552,925,-29.0729,-4.0617
-665,99,-28.5779,3.76392,0.0727382,-0.0265558,-0.0116899,0.0740959,-0.0279135,-0.115624,0.0608738,0.0455825,559,925,-28.578,-3.7639
-658,99,-26.0736,6.13312,0.0580702,-0.0162536,-0.00755198,0.0588297,-0.0170132,-0.100244,0.045953,0.0464408,566,925,-26.0736,-6.13309
-651,99,-26.7258,5.53076,0.0448165,-0.00883501,-0.00449364,0.0451902,-0.00920878,-0.0829856,0.0336195,0.045416,573,925,-26.7258,-5.53075
-644,99,-27.2035,4.81476,0.0331649,-0.00364323,-0.00224523,0.0333013,-0.00377968,-0.0606984,0.023562,0.0442607,580,925,-27.2035,-4.81476
-637,99,-27.3519,3.90131,0.0232715,-0.000280687,-0.000680304,0.0232911,-0.000300322,-0.0288529,0.0156285,0.0318617,587,925,-27.352,-3.90131
-630,99,-27.4795,3.52399,0.0151172,0.00318535,0.000552743,0.0151428,0.0031598,0.046193,0.00922412,0.0149655,594,925,-27.4795,-3.52399
-623,99,-27.6077,3.16064,0.00720049,0.00507812,0.00172129,0.00816142,0.00411719,0.509166,0.00471206,0.00913034,601,925,-27.6078,-3.16062
-616,99,-27.6111,2.84082,0.00065439,0.00282713,0.002299,0.00428352,-0.000801994,1.00612,0.00315715,0.0108341,608,925,-27.6111,-2.84082
-609,99,-27.5965,2.53815,-0.0044737,0.00261478,0.00150751,0.00292206,-0.00478098,1.36972,0.00449031,0.0120622,615,925,-27.5965,-2.53815
-602,99,-27.591,2.25598,-0.00637851,0.00205488,0.00147169,0.00230432,-0.00662796,1.4029,0.00535465,0.0142712,622,925,-27.591,-2.25601
-595,99,-27.6849,1.97284,-0.00687097,0.00107814,0.00120904,0.00125796,-0.00705079,1.42315,0.00517111,0.018257,629,925,-27.6849,-1.97287
-588,99,-27.6874,1.63745,-0.00735253,0.000868227,0.000986182,0.000984876,-0.00746918,1.45306,0.00533812,0.0186508,636,925,-27.6874,-1.63745
-581,99,-27.59,1.24921,-0.00783505,0.000949613,0.000798764,0.00102165,-0.00790709,1.48085,0.00564286,0.0133393,643,925,-27.59,-1.24921
-574,99,-27.5325,0.862122,0,0,0,0,0,0,0,-1,650,925,-27.5325,-0.862127
-567,99,-29.935,0.936218,0,0,0,0,0,0,0,-1,657,925,-29.935,-0.936248
-560,99,-29.9764,0.849182,-0.00695383,0.00117112,-0.000945064,0.0012796,-0.00706231,-1.45651,0.00518761,0.0386425,664,925,-29.9764,-0.849184
-553,99,-29.9544,0.866028,-0.00634528,0.00153514,-0.00154787,0.00182826,-0.00663841,-1.38364,0.00514448,0.0377771,671,925,-29.9544,-0.866001
-546,99,-29.7626,0.961914,-0.00527311,0.00200388,-0.00237466,0.00271023,-0.00597946,-1.28168,0.00513398,0.0409449,678,925,-29.7627,-0.961924
-539,99,-29.8079,1.04889,-0.0035335,0.00255867,-0.00354297,0.00418498,-0.00515981,-1.14046,0.005405,0.0387058,685,925,-29.8079,-1.04887
-532,99,-30.1371,0.941833,-0.00106319,0.00313756,-0.00531187,0.00674924,-0.00467487,-0.973671,0.00663186,0.0414603,692,925,-30.1371,-0.941835
-525,99,-30.1888,0.92865,0.00165529,0.00384345,-0.00811257,0.0109354,-0.00543664,-0.852425,0.00962847,0.0417736,699,925,-30.1888,-0.928625
-518,99,-30.0382,0.651489,0.00163741,0.00455561,-0.0113341,0.0145242,-0.00833117,-0.849414,0.013356,0.0426568,706,925,-30.0382,-0.651468
-511,99,0,0,0,0,0,0,0,0,0,-1,713,925,0,0
-504,99,0,0,0,0,0,0,0,0,0,-1,720,925,0,0
-497,99,0,0,0,0,0,0,0,0,0,-1,727,925,0,0
-490,99,0,0,0,0,0,0,0,0,0,-1,734,925,0,0
-483,99,0,0,0,0,0,0,0,0,0,-1,741,925,0,0
-476,99,0,0,0,0,0,0,0,0,0,-1,748,925,0,0
-469,99,0,0,0,0,0,0,0,0,0,-1,755,925,0,0
-462,99,0,0,0,0,0,0,0,0,0,-1,762,925,0,0
-455,99,0,0,0,0,0,0,0,0,0,-1,769,925,0,0
-448,99,0,0,0,0,0,0,0,0,0,-1,776,925,0,0
-441,99,0,0,0,0,0,0,0,0,0,-1,783,925,0,0
-434,99,0,0,0,0,0,0,0,0,0,-1,790,925,0,0
-427,99,0,0,0,0,0,0,0,0,0,-1,797,925,0,0
-420,99,0,0,0,0,0,0,0,0,0,-1,804,925,0,0
-413,99,0,0,0,0,0,0,0,0,0,-1,811,925,0,0
-406,99,0,0,0,0,0,0,0,0,0,-1,818,925,0,0
-399,99,0,0,0,0,0,0,0,0,0,-1,825,925,0,0
-392,99,0,0,0,0,0,0,0,0,0,-1,832,925,0,0
-385,99,0,0,0,0,0,0,0,0,0,-1,839,925,0,0
-378,99,0,0,0,0,0,0,0,0,0,-1,846,925,0,0
-371,99,0,0,0,0,0,0,0,0,0,-1,853,925,0,0
-364,99,0,0,0,0,0,0,0,0,0,-1,860,925,0,0
-357,99,0,0,0,0,0,0,0,0,0,-1,867,925,0,0
-350,99,0,0,0,0,0,0,0,0,0,-1,874,925,0,0
-343,99,0,0,0,0,0,0,0,0,0,-1,881,925,0,0
-336,99,0,0,0,0,0,0,0,0,0,-1,888,925,0,0
-329,99,0,0,0,0,0,0,0,0,0,-1,895,925,0,0
-322,99,0,0,0,0,0,0,0,0,0,-1,902,925,0,0
-315,99,0,0,0,0,0,0,0,0,0,-1,909,925,0,0
-308,99,0,0,0,0,0,0,0,0,0,-1,916,925,0,0
-301,99,0,0,0,0,0,0,0,0,0,-1,923,925,0,0
-294,99,0,0,0,0,0,0,0,0,0,-1,930,925,0,0
-287,99,0,0,0,0,0,0,0,0,0,-1,937,925,0,0
-280,99,0,0,0,0,0,0,0,0,0,-1,944,925,0,0
-273,99,0,0,0,0,0,0,0,0,0,-1,951,925,0,0
-266,99,0,0,0,0,0,0,0,0,0,-1,958,925,0,0
-259,99,0,0,0,0,0,0,0,0,0,-1,965,925,0,0
-252,99,0,0,0,0,0,0,0,0,0,-1,972,925,0,0
-245,99,0,0,0,0,0,0,0,0,0,-1,979,925,0,0
-238,99,0,0,0,0,0,0,0,0,0,-1,986,925,0,0
-231,99,0,0,0,0,0,0,0,0,0,-1,993,925,0,0
-224,99,0,0,0,0,0,0,0,0,0,-1,1000,925,0,0
-217,99,0,0,0,0,0,0,0,0,0,-1,1007,925,0,0
-210,99,0,0,0,0,0,0,0,0,0,-1,1014,925,0,0
-203,99,0,0,0,0,0,0,0,0,0,-1,1021,925,0,0
-196,99,0,0,0,0,0,0,0,0,0,-1,1028,925,0,0
-189,99,0,0,0,0,0,0,0,0,0,-1,1035,925,0,0
-182,99,0,0,0,0,0,0,0,0,0,-1,1042,925,0,0
-175,99,0,0,0,0,0,0,0,0,0,-1,1049,925,0,0
-168,99,0,0,0,0,0,0,0,0,0,-1,1056,925,0,0
-161,99,0,0,0,0,0,0,0,0,0,-1,1063,925,0,0
-154,99,0,0,0,0,0,0,0,0,0,-1,1070,925,0,0
-147,99,0,0,0,0,0,0,0,0,0,-1,1077,925,0,0
-140,99,0,0,0,0,0,0,0,0,0,-1,1084,925,0,0
-133,99,0,0,0,0,0,0,0,0,0,-1,1091,925,0,0
-126,99,0,0,0,0,0,0,0,0,0,-1,1098,925,0,0
-119,99,0,0,0,0,0,0,0,0,0,-1,1105,925,0,0
-112,99,0,0,0,0,0,0,0,0,0,-1,1112,925,0,0
-105,99,0,0,0,0,0,0,0,0,0,-1,1119,925,0,0
-98,99,0,0,0,0,0,0,0,0,0,-1,1126,925,0,0
-91,99,0,0,0,0,0,0,0,0,0,-1,1133,925,0,0
-84,99,0,0,0,0,0,0,0,0,0,-1,1140,925,0,0
-77,99,0,0,0,0,0,0,0,0,0,-1,1147,925,0,0
-70,99,0,0,0,0,0,0,0,0,0,-1,1154,925,0,0
-63,99,0,0,0,0,0,0,0,0,0,-1,1161,925,0,0
-56,99,0,0,0,0,0,0,0,0,0,-1,1168,925,0,0
-49,99,0,0,0,0,0,0,0,0,0,-1,1175,925,0,0
-42,99,0,0,0,0,0,0,0,0,0,-1,1182,925,0,0
-35,99,0,0,0,0,0,0,0,0,0,-1,1189,925,0,0
-28,99,0,0,0,0,0,0,0,0,0,-1,1196,925,0,0
-21,99,0,0,0,0,0,0,0,0,0,-1,1203,925,0,0
-14,99,0,0,0,0,0,0,0,0,0,-1,1210,925,0,0
-7,99,0,0,0,0,0,0,0,0,0,-1,1217,925,0,0
0,99,0,0,0,0,0,0,0,0,0,-1,1224,925,0,0
7,99,0,0,0,0,0,0,0,0,0,-1,1231,925,0,0
14,99,0,0,0,0,0,0,0,0,0,-1,1238,925,0,0
21,99,0,0,0,0,0,0,0,0,0,-1,1245,925,0,0
28,99,0,0,0,0,0,0,0,0,0,-1,1252,925,0,0
35,99,0,0,0,0,0,0,0,0,0,-1,1259,925,0,0
42,99,0,0,0,0,0,0,0,0,0,-1,1266,925,0,0
49,99,0,0,0,0,0,0,0,0,0,-1,1273,925,0,0
56,99,0,0,0,0,0,0,0,0,0,-1,1280,925,0,0
63,99,0,0,0,0,0,0,0,0,0,-1,1287,925,0,0
70,99,0,0,0,0,0,0,0,0,0,-1,1294,925,0,0
77,99,0,0,0,0,0,0,0,0,0,-1,1301,925,0,0
84,99,0,0,0,0,0,0,0,0,0,-1,1308,925,0,0
91,99,0,0,0,0,0,0,0,0,0,-1,1315,925,0,0
98,99,0,0,0,0,0,0,0,0,0,-1,1322,925,0,0
105,99,0,0,0,0,0,0,0,0,0,-1,1329,925,0,0
112,99,0,0,0,0,0,0,0,0,0,-1,1336,925,0,0
119,99,0,0,0,0,0,0,0,0,0,-1,1343,925,0,0
126,99,0,0,0,0,0,0,0,0,0,-1,1350,925,0,0
133,99,0,0,0,0,0,0,0,0,0,-1,1357,925,0,0
140,99,0,0,0,0,0,0,0,0,0,-1,1364,925,0,0
147,99,0,0,0,0,0,0,0,0,0,-1,1371,925,0,0
154,99,0,0,0,0,0,0,0,0,0,-1,1378,925,0,0
161,99,0,0,0,0,0,0,0,0,0,-1,1385,925,0,0
168,99,0,0,0,0,0,0,0,0,0,-1,1392,925,0,0
175,99,0,0,0,0,0,0,0,0,0,-1,1399,925,0,0
182,99,0,0,0,0,0,0,0,0,0,-1,1406,925,0,0
189,99,0,0,0,0,0,0,0,0,0,-1,1413,925,0,0
196,99,0,0,0,0,0,0,0,0,0,-1,1420,925,0,0
203,99,0,0,0,0,0,0,0,0,0,-1,1427,925,0,0
210,99,0,0,0,0,0,0,0,0,0,-1,1434,925,0,0
217,99,0,0,0,0,0,0,0,0,0,-1,1441,925,0,0
224,99,0,0,0,0,0,0,0,0,0,-1,1448,925,0,0
231,99,0,0,0,0,0,0,0,0,0,-1,1455,925,0,0
238,99,0,0,0,0,0,0,0,0,0,-1,1462,925,0,0
245,99,0,0,0,0,0,0,0,0,0,-1,1469,925,0,0
252,99,0,0,0,0,0,0,0,0,0,-1,1476,925,0,0
259,99,0,0,0,0,0,0,0,0,0,-1,1483,925,0,0
266,99,0,0,0,0,0,0,0,0,0,-1,1490,925,0,0
273,99,0,0,0,0,0,0,0,0,0,-1,1497,925,0,0
280,99,0,0,0,0,0,0,0,0,0,-1,1504,925,0,0
287,99,0,0,0,0,0,0,0,0,0,-1,1511,925,0,0
294,99,0,0,0,0,0,0,0,0,0,-1,1518,925,0,0
301,99,0,0,0,0,0,0,0,0,0,-1,1525,925,0,0
308,99,0,0,0,0,0,0,0,0,0,-1,1532,925,0,0
315,99,0,0,0,0,0,0,0,0,0,-1,1539,925,0,0
322,99,0,0,0,0,0,0,0,0,0,-1,1546,925,0,0
329,99,0,0,0,0,0,0,0,0,0,-1,1553,925,0,0
336,99,0,0,0,0,0,0,0,0,0,-1,1560,925,0,0
343,99,0,0,0,0,0,0,0,0,0,-1,1567,925,0,0
350,99,0,0,0,0,0,0,0,0,0,-1,1574,925,0,0
357,99,0,0,0,0,0,0,0,0,0,-1,1581,925,0,0
364,99,0,0,0,0,0,0,0,0,0,-1,1588,925,0,0
371,99,0,0,0,0,0,0,0,0,0,-1,1595,925,0,0
378,99,0,0,0,0,0,0,0,0,0,-1,1602,925,0,0
385,99,0,0,0,0,0,0,0,0,0,-1,1609,925,0,0
392,99,0,0,0,0,0,0,0,0,0,-1,1616,925,0,0
399,99,0,0,0,0,0,0,0,0,0,-1,1623,925,0,0
406,99,0,0,0,0,0,0,0,0,0,-1,1630,925,0,0
413,99,0,0,0,0,0,0,0,0,0,-1,1637,925,0,0
420,99,0,0,0,0,0,0,0,0,0,-1,1644,925,0,0
427,99,0,0,0,0,0,0,0,0,0,-1,1651,925,0,0
434,99,0,0,0,0,0,0,0,0,0,-1,1658,925,0,0
441,99,0,0,0,0,0,0,0,0,0,-1,1665,925,0,0
448,99,0,0,0,0,0,0,0,0,0,-1,1672,925,0,0
455,99,0,0,0,0,0,0,0,0,0,-1,1679,925,0,0
462,99,0,0,0,0,0,0,0,0,0,-1,1686,925,0,0
469,99,0,0,0,0,0,0,0,0,0,-1,1693,925,0,0
476,99,0,0,0,0,0,0,0,0,0,-1,1700,925,0,0
483,99,0,0,0,0,0,0,0,0,0,-1,1707,925,0,0
490,99,0,0,0,0,0,0,0,0,0,-1,1714,925,0,0
497,99,0,0,0,0,0,0,0,0,0,-1,1721,925,0,0
504,99,0,0,0,0,0,0,0,0,0,-1,1728,925,0,0
511,99,0,0,0,0,0,0,0,0,0,-1,1735,925,0,0
518,99,0,0,0,0,0,0,0,0,0,-1,1742,925,0,0
525,99,0,0,0,0,0,0,0,0,0,-1,1749,925,0,0
532,99,0,0,0,0,0,0,0,0,0,-1,1756,925,0,0
539,99,0,0,0,0,0,0,0,0,0,-1,1763,925,0,0
546,99,0,0,0,0,0,0,0,0,0,-1,1770,925,0,0
553,99,0,0,0,0,0,0,0,0,0,-1,1777,925,0,0
560,99,0,0,0,0,0,0,0,0,0,-1,1784,925,0,0
567,99,0,0,0,0,0,0,0,0,0,-1,1791,925,0,0
574,99,0,0,0,0,0,0,0,0,0,-1,1798,925,0,0
581,99,0,0,0,0,0,0,0,0,0,-1,1805,925,0,0
588,99,0,0,0,0,0,0,0,0,0,-1,1812,925,0,0
595,99,0,0,0,0,0,0,0,0,0,-1,1819,925,0,0
602,99,0,0,0,0,0,0,0,0,0,-1,1826,925,0,0
609,99,0,0,0,0,0,0,0,0,0,-1,1833,925,0,0
616,99,0,0,0,0,0,0,0,0,0,-1,1840,925,0,0
623,99,0,0,0,0,0,0,0,0,0,-1,1847,925,0,0
630,99,0,0,0,0,0,0,0,0,0,-1,1854,925,0,0
637,99,40.9635,2.44586,-0.000312261,0.00207852,0.000828152,0.00233736,-0.000571104,1.26786,0.00177942,0.0447538,1861,925,40.9635,-2.44585
644,99,40.8248,2.21161,-0.000638059,0.00189148,0.00159612,0.00266319,-0.00140976,1.12044,0.00238835,0.04176,1868,925,40.8249,-2.21161
651,99,40.74,2.43231,-0.000739402,0.00161374,0.00189001,0.00266347,-0.00178914,1.06381,0.00258718,0.041605,1875,925,40.7399,-2.43232
658,99,40.7056,2.8598,-0.000610354,0.00134292,0.00190449,0.00250658,-0.00177402,1.02232,0.00248344,0.0397438,1882,925,40.7056,-2.85981
665,99,40.7136,3.10284,-0.000267189,0.00101389,0.00167361,0.00216534,-0.00141865,0.968163,0.00208413,0.0392773,1889,925,40.7136,-3.10287
672,99,40.7344,3.03735,-3.06802e-05,0.000646481,0.00143751,0.00178475,-0.00116894,0.901057,0.00171762,0.0396897,1896,925,40.7343,-3.03738
679,99,40.8257,2.78729,0.000153241,0.000251896,0.00122247,0.00142604,-0.0010209,0.805563,0.00141918,0.0362378,1903,925,40.8256,-2.78727
686,99,40.8214,2.67706,0.000246083,-1.94928e-05,0.000920598,0.00104342,-0.00081683,0.713772,0.00107667,0.030522,1910,925,40.8214,-2.67704
693,99,40.7817,2.66455,0.000241912,-0.000149133,0.000715022,0.000787662,-0.000694884,0.651936,0.000856507,0.0304403,1917,925,40.7817,-2.66456
700,99,40.8292,2.59747,0,0,0,0,0,0,0,-1,1924,925,40.8292,-2.59745
707,99,37.5737,3.37634,0,0,0,0,0,0,0,-1,1931,925,37.5737,-3.37634
714,99,37.5768,3.77643,-0.000152073,9.46989e-05,-0.000457546,0.000445203,-0.000502578,-0.9171,0.000547536,0.0328139,1938,925,37.5768,-3.77642
721,99,37.4745,4.10229,-0.000453214,0.00047888,-0.00064602,0.000809414,-0.000783749,-1.09787,0.000919853,0.0265035,1945,925,37.4745,-4.10229
728,99,37.5162,4.50513,-0.000889721,0.00115598,-0.000431798,0.00124339,-0.000977128,-1.37107,0.00128508,0.0211055,1952,925,37.5162,-4.50513
735,99,37.5034,4.88306,-0.00118049,0.00210556,-0.00027273,0.00212804,-0.00120297,-1.48855,0.00194772,0.017953,1959,925,37.5035,-4.88306
742,99,37.4655,5.20844,-0.00144321,0.00348066,-0.000477881,0.00352661,-0.00148916,-1.47493,0.00297443,0.0136448,1966,925,37.4655,-5.20845
749,99,37.408,5.53735,-0.00145704,0.00529622,-0.000513324,0.00533501,-0.00149584,-1.49536,0.00414623,0.0118325,1973,925,37.408,-5.53734
756,99,37.3578,5.85291,-0.00132323,0.00768627,-0.000383005,0.00770252,-0.00133949,-1.52839,0.00563483,0.0124841,1980,925,37.3578,-5.8529
763,99,37.3154,6.20538,-0.000991653,0.0104716,-0.000119977,0.0104729,-0.000992909,-1.56033,0.00733534,0.0149787,1987,925,37.3155,-6.2054
770,99,37.2915,6.67889,-0.000501008,0.013425,7.09263e-05,0.0134254,-0.00050137,1.5657,0.00912195,0.027143,1994,925,37.2915,-6.67889
777,99,37.3386,7.27118,-7.59893e-05,0.0167114,0.000267225,0.0167156,-8.02409e-05,1.55488,0.0111706,0.0394016,2001,925,37.3386,-7.27119
784,99,37.3015,7.8833,0.000473937,0.020098,0.000157054,0.0200992,0.000472681,1.56279,0.0132447,0.042481,2008,925,37.3015,-7.88328
791,99,36.9165,8.23505,0.00126949,0.0235622,-0.00118368,0.0236248,0.00120682,-1.5179,0.0153634,0.0439249,2015,925,36.9164,-8.23503
798,99,36.5933,8.36011,0,0,0,0,0,0,0,-1,2022,925,36.5932,-8.36011
805,99,0,0,0,0,0,0,0,0,0,-1,2029,925,0,0
812,99,0,0,0,0,0,0,0,0,0,-1,2036,925,0,0
-700,92,0,0,0,0,0,0,0,0,0,-1,524,932,0,0
-693,92,0,0,0,0,0,0,0,0,0,-1,531,932,0,0
-686,92,-30.249,4.91156,0.126852,-0.0638353,-0.0208276,0.129101,-0.0660836,-0.107535,0.114631,0.0428058,538,932,-30.249,-4.91155
-679,92,-29.8868,4.42761,0.109981,-0.0396539,-0.0172198,0.111937,-0.0416099,-0.113109,0.0916975,0.0441106,545,932,-29.8868,-4.42763
-672,92,-29.3731,4.39661,0,0,0,0,0,0,0,-1,552,932,-29.3731,-4.3966
-665,92,-28.9327,4.44678,0.0743312,-0.012301,-0.0094576,0.0753517,-0.0133214,-0.107483,0.0552133,0.0467309,559,932,-28.9327,-4.44679
-658,92,-28.4139,4.53583,0.0582666,-0.00483556,-0.00629938,0.0588893,-0.00545827,-0.0985326,0.0411997,0.0441178,566,932,-28.414,-4.53583
-651,92,-27.9671,4.61481,0.0441321,3.65153e-05,-0.0037482,0.0444484,-0.00027982,-0.0841968,0.029726,0.0449941,573,932,-27.9671,-4.61479
-644,92,-27.7264,4.46582,0.0320702,0.00296727,-0.00177734,0.0321784,0.00285913,-0.0607696,0.0205656,0.0418371,580,932,-27.7264,-4.46579
-637,92,-27.8052,3.73877,0.021888,0.00428069,-0.000693175,0.0219152,0.00425344,-0.0392875,0.013419,0.025237,587,932,-27.8052,-3.73875
-630,92,-27.8385,3.42682,0.0137307,0.00610178,0.000344009,0.0137462,0.0060863,0.044971,0.0079537,0.01245,594,932,-27.8385,-3.42682
-623,92,-27.9122,3.14233,0.00590641,0.0070364,0.00152592,0.00809857,0.00484425,0.962705,0.00470565,0.0084736,601,932,-27.9122,-3.14232
-616,92,-27.9346,2.84375,-0.000292511,0.00367619,0.00209849,0.00457997,-0.00119629,1.16412,0.00352049,0.00836288,608,932,-27.9345,-2.84374
-609,92,-27.9493,2.54675,-0.00515145,0.00293266,0.00121446,0.00311116,-0.00532996,1.42486,0.00492928,0.00944863,615,932,-27.9493,-2.54678
-602,92,-27.9269,2.25879,-0.00707662,0.00213968,0.00106876,0.002262,-0.00719894,1.45685,0.00570479,0.0108226,622,932,-27.9269,-2.25877
-595,92,-27.8502,1.90997,-0.00752487,0.00106237,0.000759406,0.00112901,-0.00759151,1.48327,0.00547628,0.0188059,629,932,-27.8502,-1.91
-588,92,-27.8755,1.62677,-0.00803856,0.000793133,0.000556176,0.00082802,-0.00807345,1.50815,0.00567847,0.0200183,636,932,-27.8755,-1.62676
-581,92,-27.9866,1.2926,-0.00856486,0.000833341,0.000345719,0.000846042,-0.00857756,1.53408,0.00602023,0.0191465,643,932,-27.9866,-1.29261
-574,92,-28.532,0.9729,-0.00855628,0.00083804,-0.000201118,0.000842344,-0.00856058,-1.5494,0.00600755,0.0380309,650,932,-28.532,-0.972925
-567,92,-29.6306,1.3667,0,0,0,0,0,0,0,-1,657,932,-29.6306,-1.36672
-560,92,-29.9437,0.723389,-0.00766609,0.00121951,-0.00140083,0.00143512,-0.0078817,-1.41808,0.00579241,0.0371397,664,932,-29.9437,-0.723409
-553,92,-29.9374,0.797119,-0.00681575,0.00164365,-0.00204086,0.00211028,-0.00728238,-1.34602,0.00569031,0.0379618,671,932,-29.9374,-0.797129
-546,92,-29.8718,0.918701,-0.00537033,0.00215687,-0.00291621,0.00315446,-0.00636792,-1.24119,0.00560113,0.0414577,678,932,-29.8718,-0.918708
-539,92,-29.9675,0.932129,-0.00317901,0.00272135,-0.00416363,0.00487406,-0.00533171,-1.09362,0.00589428,0.0400009,685,932,-29.9675,-0.932133
-532,92,-30.1291,0.808167,-0.0002078,0.00324124,-0.0060744,0.00783117,-0.00479773,-0.923709,0.00736108,0.0425189,692,932,-30.1291,-0.808145
-525,92,-30.0532,0.90271,0.00273978,0.00384354,-0.00910187,0.0124102,-0.00582692,-0.815678,0.0107555,0.0411678,699,932,-30.0532,-0.902683
-518,92,-29.9061,0.740051,0.00239103,0.00439683,-0.0127059,0.0161394,-0.00935153,-0.824782,0.0148901,0.0413861,706,932,-29.9061,-0.74006
-511,92,0,0,0,0,0,0,0,0,0,-1,713,932,0,0
-504,92,0,0,0,0,0,0,0,0,0,-1,720,932,0,0
-497,92,0,0,0,0,0,0,0,0,0,-1,727,932,0,0
-490,92,0,0,0,0,0,0,0,0,0,-1,734,932,0,0
-483,92,0,0,0,0,0,0,0,0,0,-1,741,932,0,0
-476,92,0,0,0,0,0,0,0,0,0,-1,748,932,0,0
-469,92,0,0,0,0,0,0,0,0,0,-1,755,932,0,0
-462,92,0,0,0,0,0,0,0,0,0,-1,762,932,0,0
-455,92,0,0,0,0,0,0,0,0,0,-1,769,932,0,0
-448,92,0,0,0,0,0,0,0,0,0,-1,776,932,0,0
-441,92,0,0,0,0,0,0,0,0,0,-1,783,932,0,0
-434,92,0,0,0,0,0,0,0,0,0,-1,790,932,0,0
-427,92,0,0,0,0,0,0,0,0,0,-1,797,932,0,0
-420,92,0,0,0,0,0,0,0,0,0,-1,804,932,0,0
-413,92,0,0,0,0,0,0,0,0,0,-1,811,932,0,0
-406,92,0,0,0,0,0,0,0,0,0,-1,818,932,0,0
-399,92,0,0,0,0,0,0,0,0,0,-1,825,932,0,0
-392,92,0,0,0,0,0,0,0,0,0,-1,832,932,0,0
-385,92,0,0,0,0,0,0,0,0,0,-1,839,932,0,0
-378,92,0,0,0,0,0,0,0,0,0,-1,846,932,0,0
-371,92,0,0,0,0,0,0,0,0,0,-1,853,932,0,0
-364,92,0,0,0,0,0,0,0,0,0,-1,860,932,0,0
-357,92,0,0,0,0,0,0,0,0,0,-1,867,932,0,0
-350,92,0,0,0,0,0,0,0,0,0,-1,874,932,0,0
-343,92,0,0,0,0,0,0,0,0,0,-1,881,932,0,0
-336,92,0,0,0,0,0,0,0,0,0,-1,888,932,0,0
-329,92,0,0,0,0,0,0,0,0,0,-1,895,932,0,0
-322,92,0,0,0,0,0,0,0,0,0,-1,902,932,0,0
-315,92,0,0,0,0,0,0,0,0,0,-1,909,932,0,0
-308,92,0,0,0,0,0,0,0,0,0,-1,916,932,0,0
-301,92,0,0,0,0,0,0,0,0,0,-1,923,932,0,0
-294,92,0,0,0,0,0,0,0,0,0,-1,930,932,0,0
-287,92,0,0,0,0,0,0,0,0,0,-1,937,932,0,0
-280,92,0,0,0,0,0,0,0,0,0,-1,944,932,0,0
-273,92,0,0,0,0,0,0,0,0,0,-1,951,932,0,0
-266,92,0,0,0,0,0,0,0,0,0,-1,958,932,0,0
-259,92,0,0,0,0,0,0,0,0,0,-1,965,932,0,0
-252,92,0,0,0,0,0,0,0,0,0,-1,972,932,0,0
-245,92,0,0,0,0,0,0,0,0,0,-1,979,932,0,0
-238,92,0,0,0,0,0,0,0,0,0,-1,986,932,0,0
-231,92,0,0,0,0,0,0,0,0,0,-1,993,932,0,0
-224,92,0,0,0,0,0,0,0,0,0,-1,1000,932,0,0
-217,92,0,0,0,0,0,0,0,0,0,-1,1007,932,0,0
-210,92,0,0,0,0,0,0,0,0,0,-1,1014,932,0,0
-203,92,0,0,0,0,0,0,0,0,0,-1,1021,932,0,0
-196,92,0,0,0,0,0,0,0,0,0,-1,1028,932,0,0
-189,92,0,0,0,0,0,0,0,0,0,-1,1035,932,0,0
-182,92,0,0,0,0,0,0,0,0,0,-1,1042,932,0,0
-175,92,0,0,0,0,0,0,0,0,0,-1,1049,932,0,0
-168,92,0,0,0,0,0,0,0,0,0,-1,1056,932,0,0
-161,92,0,0,0,0,0,0,0,0,0,-1,1063,932,0,0
-154,92,0,0,0,0,0,0,0,0,0,-1,1070,932,0,0
-147,92,0,0,0,0,0,0,0,0,0,-1,1077,932,0,0
-140,92,0,0,0,0,0,0,0,0,0,-1,1084,932,0,0
-133,92,0,0,0,0,0,0,0,0,0,-1,1091,932,0,0
-126,92,0,0,0,0,0,0,0,0,0,-1,1098,932,0,0
-119,92,0,0,0,0,0,0,0,0,0,-1,1105,932,0,0
-112,92,0,0,0,0,0,0,0,0,0,-1,1112,932,0,0
-105,92,0,0,0,0,0,0,0,0,0,-1,1119,932,0,0
-98,92,0,0,0,0,0,0,0,0,0,-1,1126,932,0,0
-91,92,0,0,0,0,0,0,0,0,0,-1,1133,932,0,0
-84,92,0,0,0,0,0,0,0,0,0,-1,1140,932,0,0
-77,92,0,0,0,0,0,0,0,0,0,-1,1147,932,0,0
-70,92,0,0,0,0,0,0,0,0,0,-1,1154,932,0,0
-63,92,0,0,0,0,0,0,0,0,0,-1,1161,932,0,0
-56,92,0,0,0,0,0,0,0,0,0,-1,1168,932,0,0
-49,92,0,0,0,0,0,0,0,0,0,-1,1175,932,0,0
-42,92,0,0,0,0,0,0,0,0,0,-1,1182,932,0,0
-35,92,0,0,0,0,0,0,0,0,0,-1,1189,932,0,0
-28,92,0,0,0,0,0,0,0,0,0,-1,1196,932,0,0
-21,92,0,0,0,0,0,0,0,0,0,-1,1203,932,0,0
-14,92,0,0,0,0,0,0,0,0,0,-1,1210,932,0,0
-7,92,0,0,0,0,0,0,0,0,0,-1,1217,932,0,0
0,92,0,0,0,0,0,0,0,0,0,-1,1224,932,0,0
7,92,0,0,0,0,0,0,0,0,0,-1,1231,932,0,0
14,92,0,0,0,0,0,0,0,0,0,-1,1238,932,0,0
21,92,0,0,0,0,0,0,0,0,0,-1,1245,932,0,0
28,92,0,0,0,0,0,0,0,0,0,-1,1252,932,0,0
35,92,0,0,0,0,0,0,0,0,0,-1,1259,932,0,0
42,92,0,0,0,0,0,0,0,0,0,-1,1266,932,0,0
49,92,0,0,0,0,0,0,0,0,0,-1,1273,932,0,0
56,92,0,0,0,0,0,0,0,0,0,-1,1280,932,0,0
63,92,0,0,0,0,0,0,0,0,0,-1,1287,932,0,0
70,92,0,0,0,0,0,0,0,0,0,-1,1294,932,0,0
77,92,0,0,0,0,0,0,0,0,0,-1,1301,932,0,0
84,92,0,0,0,0,0,0,0,0,0,-1,1308,932,0,0
91,92,0,0,0,0,0,0,0,0,0,-1,1315,932,0,0
98,92,0,0,0,0,0,0,0,0,0,-1,1322,932,0,0
105,92,0,0,0,0,0,0,0,0,0,-1,1329,932,0,0
112,92,0,0,0,0,0,0,0,0,0,-1,1336,932,0,0
119,92,0,0,0,0,0,0,0,0,0,-1,1343,932,0,0
126,92,0,0,0,0,0,0,0,0,0,-1,1350,932,0,0
133,92,0,0,0,0,0,0,0,0,0,-1,1357,932,0,0
140,92,0,0,0,0,0,0,0,0,0,-1,1364,932,0,0
147,92,0,0,0,0,0,0,0,0,0,-1,1371,932,0,0
154,92,0,0,0,0,0,0,0,0,0,-1,1378,932,0,0
161,92,0,0,0,0,0,0,0,0,0,-1,1385,932,0,0
168,92,0,0,0,0,0,0,0,0,0,-1,1392,932,0,0
175,92,0,0,0,0,0,0,0,0,0,-1,1399,932,0,0
182,92,0,0,0,0,0,0,0,0,0,-1,1406,932,0,0
189,92,0,0,0,0,0,0,0,0,0,-1,1413,932,0,0
196,92,0,0,0,0,0,0,0,0,0,-1,1420,932,0,0
203,92,0,0,0,0,0,0,0,0,0,-1,1427,932,0,0
210,92,0,0,0,0,0,0,0,0,0,-1,1434,932,0,0
217,92,0,0,0,0,0,0,0,0,0,-1,1441,932,0,0
224,92,0,0,0,0,0,0,0,0,0,-1,1448,932,0,0
231,92,0,0,0,0,0,0,0,0,0,-1,1455,932,0,0
238,92,0,0,0,0,0,0,0,0,0,-1,1462,932,0,0
245,92,0,0,0,0,0,0,0,0,0,-1,1469,932,0,0
252,92,0,0,0,0,0,0,0,0,0,-1,1476,932,0,0
259,92,0,0,0,0,0,0,0,0,0,-1,1483,932,0,0
266,92,0,0,0,0,0,0,0,0,0,-1,1490,932,0,0
273,92,0,0,0,0,0,0,0,0,0,-1,1497,932,0,0
280,92,0,0,0,0,0,0,0,0,0,-1,1504,932,0,0
287,92,0,0,0,0,0,0,0,0,0,-1,1511,932,0,0
294,92,0,0,0,0,0,0,0,0,0,-1,1518,932,0,0
301,92,0,0,0,0,0,0,0,0,0,-1,1525,932,0,0
308,92,0,0,0,0,0,0,0,0,0,-1,1532,932,0,0
315,92,0,0,0,0,0,0,0,0,0,-1,1539,932,0,0
322,92,0,0,0,0,0,0,0,0,0,-1,1546,932,0,0
329,92,0,0,0,0,0,0,0,0,0,-1,1553,932,0,0
336,92,0,0,0,0,0,0,0,0,0,-1,1560,932,0,0
343,92,0,0,0,0,0,0,0,0,0,-1,1567,932,0,0
350,92,0,0,0,0,0,0,0,0,0,-1,1574,932,0,0
357,92,0,0,0,0,0,0,0,0,0,-1,1581,932,0,0
364,92,0,0,0,0,0,0,0,0,0,-1,1588,932,0,0
371,92,0,0,0,0,0,0,0,0,0,-1,1595,932,0,0
378,92,0,0,0,0,0,0,0,0,0,-1,1602,932,0,0
385,92,0,0,0,0,0,0,0,0,0,-1,1609,932,0,0
392,92,0,0,0,0,0,0,0,0,0,-1,1616,932,0,0
399,92,0,0,0,0,0,0,0,0,0,-1,1623,932,0,0
406,92,0,0,0,0,0,0,0,0,0,-1,1630,932,0,0
413,92,0,0,0,0,0,0,0,0,0,-1,1637,932,0,0
420,92,0,0,0,0,0,0,0,0,0,-1,1644,932,0,0
427,92,0,0,0,0,0,0,0,0,0,-1,1651,932,0,0
434,92,0,0,0,0,0,0,0,0,0,-1,1658,932,0,0
441,92,0,0,0,0,0,0,0,0,0,-1,1665,932,0,0
448,92,0,0,0,0,0,0,0,0,0,-1,1672,932,0,0
455,92,0,0,0,0,0,0,0,0,0,-1,1679,932,0,0
462,92,0,0,0,0,0,0,0,0,0,-1,1686,932,0,0
469,92,0,0,0,0,0,0,0,0,0,-1,1693,932,0,0
476,92,0,0,0,0,0,0,0,0,0,-1,1700,932,0,0
483,92,0,0,0,0,0,0,0,0,0,-1,1707,932,0,0
490,92,0,0,0,0,0,0,0,0,0,-1,1714,932,0,0
497,92,0,0,0,0,0,0,0,0,0,-1,1721,932,0,0
504,92,0,0,0,0,0,0,0,0,0,-1,1728,932,0,0
511,92,0,0,0,0,0,0,0,0,0,-1,1735,932,0,0
518,92,0,0,0,0,0,0,0,0,0,-1,1742,932,0,0
525,92,0,0,0,0,0,0,0,0,0,-1,1749,932,0,0
532,92,0,0,0,0,0,0,0,0,0,-1,1756,932,0,0
539,92,0,0,0,0,0,0,0,0,0,-1,1763,932,0,0
546,92,0,0,0,0,0,0,0,0,0,-1,1770,932,0,0
553,92,0,0,0,0,0,0,0,0,0,-1,1777,932,0,0
560,92,0,0,0,0,0,0,0,0,0,-1,1784,932,0,0
567,92,0,0,0,0,0,0,0,0,0,-1,1791,932,0,0
574,92,0,0,0,0,0,0,0,0,0,-1,1798,932,0,0
581,92,0,0,0,0,0,0,0,0,0,-1,1805,932,0,0
588,92,0,0,0,0,0,0,0,0,0,-1,1812,932,0,0
595,92,0,0,0,0,0,0,0,0,0,-1,1819,932,0,0
602,92,0,0,0,0,0,0,0,0,0,-1,1826,932,0,0
609,92,0,0,0,0,0,0,0,0,0,-1,1833,932,0,0
616,92,0,0,0,0,0,0,0,0,0,-1,1840,932,0,0
623,92,0,0,0,0,0,0,0,0,0,-1,1847,932,0,0
630,92,0,0,0,0,0,0,0,0,0,-1,1854,932,0,0
637,92,40.8864,2.19458,-0.000256791,0.000460157,0.000454999,0.00068093,-0.000477564,1.11904,0.000672283,0.0459749,1861,932,40.8863,-2.19459
644,92,40.824,2.04309,-0.000529985,0.000653026,0.00142158,0.00160125,-0.00147821,0.982548,0.0017784,0.0422021,1868,932,40.824,-2.04311
651,92,40.6963,2.07794,-0.000613362,0.00067104,0.00183298,0.00197107,-0.00191339,0.953895,0.00224277,0.0416315,1875,932,40.6964,-2.07795
658,92,40.5426,2.5639,-0.000537485,0.000709568,0.00193205,0.00211621,-0.00194413,0.941486,0.00234494,0.043248,1882,932,40.5426,-2.56392
665,92,40.5703,2.96173,-0.000300842,0.000654084,0.00179591,0.00203492,-0.00168168,0.915323,0.00214901,0.0412902,1889,932,40.5703,-2.96172
672,92,40.7413,2.88873,-0.000238473,0.000532269,0.00163634,0.001828,-0.00153421,0.901045,0.00194364,0.0396162,1896,932,40.7413,-2.88871
679,92,40.8748,2.65393,-0.000216323,0.000282979,0.00147938,0.00153362,-0.00146697,0.868988,0.00173253,0.036334,1903,932,40.8748,-2.65395
686,92,40.8361,2.59973,-0.000193277,9.00531e-05,0.00120939,0.00116605,-0.00126927,0.843701,0.00140645,0.0284093,1910,932,40.836,-2.59974
693,92,40.7751,2.77087,-0.000252785,3.59589e-06,0.00103779,0.000921082,-0.00117027,0.846848,0.0012103,0.0247336,1917,932,40.7752,-2.77087
700,92,40.7531,2.77606,0,0,0,0,0,0,0,-1,1924,932,40.753,-2.77605
707,92,32.9893,3.26874,0,0,0,0,0,0,0,-1,1931,932,32.9893,-3.26874
714,92,38.241,4.06616,0,0,0,0,0,0,0,-1,1938,932,38.241,-4.06616
721,92,37.9188,4.19171,-0.00138517,0.000703632,-0.000387605,0.000773238,-0.00145478,-1.39311,0.00130625,0.0294389,1945,932,37.9188,-4.19174
728,92,37.8336,4.57416,-0.00185153,0.00136471,-0.000204144,0.00137762,-0.00186444,-1.50766,0.00187882,0.0219908,1952,932,37.8336,-4.57415
735,92,37.8287,4.89606,-0.00216924,0.00225516,-0.000102704,0.00225754,-0.00217162,-1.5476,0.00255734,0.0176551,1959,932,37.8287,-4.89604
742,92,37.8702,5.19244,-0.00246987,0.00351859,-0.000415843,0.00354732,-0.00249861,-1.5018,0.00350808,0.0190481,1966,932,37.8703,-5.19242
749,92,37.7981,5.53082,-0.00253704,0.00512352,-0.000611624,0.00517205,-0.00258557,-1.49162,0.00456109,0.0171932,1973,932,37.7981,-5.53084
756,92,37.7177,5.85608,-0.0024923,0.00726415,-0.000676364,0.00731082,-0.00253896,-1.50191,0.00590504,0.0151874,1980,932,37.7176,-5.85605
763,92,37.7373,6.18237,-0.0023079,0.00981192,-0.000590241,0.0098406,-0.00233658,-1.52225,0.00746221,0.0167062,1987,932,37.7373,-6.18237
770,92,37.7231,6.59235,-0.00201967,0.0125011,-0.000464921,0.012516,-0.00203454,-1.53882,0.00909832,0.0247649,1994,932,37.7231,-6.59234
777,92,37.8477,7.05719,-0.00188039,0.0155224,-0.00030337,0.0155277,-0.00188567,-1.55337,0.0110342,0.0416171,2001,932,37.8476,-7.05716
784,92,38.1395,7.56445,-0.00157577,0.0184588,-0.000349426,0.0184648,-0.00158186,-1.55336,0.0128696,0.0450409,2008,932,38.1395,-7.56446
791,92,37.8713,8.151,-0.000699899,0.0213001,-0.00141566,0.0213909,-0.000790618,-1.5068,0.0145313,0.0429139,2015,932,37.8714,-8.15102
798,92,37.55,8.32159,0,0,0,0,0,0,0,-1,2022,932,37.55,-8.3216
805,92,0,0,0,0,0,0,0,0,0,-1,2029,932,0,0
812,92,0,0,0,0,0,0,0,0,0,-1,2036,932,0,0
-700,85,0,0,0,0,0,0,0,0,0,-1,524,939,0,0
-693,85,0,0,0,0,0,0,0,0,0,-1,531,939,0,0
-686,85,-30.1949,6.13,0.122697,-0.0149852,-0.0143839,0.124184,-0.0164719,-0.10299,0.0887904,0.0434542,538,939,-30.195,-6.13001
-679,85,-29.8472,5.71497,0.106908,-0.00230743,-0.0133658,0.10852,-0.00391936,-0.120021,0.0736875,0.0422404,545,939,-29.8472,-5.71494
-672,85,-29.6282,5.05487,0,0,0,0,0,0,0,-1,552,939,-29.6282,-5.05489
-665,85,-29.0036,4.80396,0.0720138,0.00903162,-0.00833919,0.0730993,0.00794617,-0.129434,0.0463119,0.0445888,559,939,-29.0036,-4.80392
-658,85,-28.2664,4.58655,0.0560128,0.0109751,-0.00574213,0.0567334,0.0102545,-0.124836,0.0349098,0.0436923,566,939,-28.2664,-4.58652
-651,85,-27.959,4.28064,0.0419345,0.0114996,-0.00346976,0.0423251,0.0111091,-0.11209,0.0253389,0.042039,573,939,-27.959,-4.28063
-644,85,-27.9761,3.89844,0.0300489,0.0110316,-0.00163251,0.0301881,0.0108925,-0.0850147,0.0176527,0.0340445,580,939,-27.9761,-3.89845
-637,85,-28.0956,3.66541,0.0201462,0.00958237,-0.000794067,0.0202055,0.00952302,-0.0746098,0.0116721,0.0174385,587,939,-28.0956,-3.66543
-630,85,-28.1731,3.37769,0.0122537,0.00878149,7.59721e-05,0.0122554,0.00877982,0.0218658,0.00729322,0.0110421,594,939,-28.1731,-3.37768
-623,85,-28.236,3.10339,0.00462623,0.0088199,0.00126688,0.0091729,0.00427323,1.29905,0.00530009,0.00999515,601,939,-28.236,-3.10337
-616,85,-28.2609,2.81384,-0.00117694,0.00450642,0.00181737,0.00503787,-0.00170839,1.2863,0.00404998,0.0100022,608,939,-28.261,-2.81387
-609,85,-28.2661,2.52496,-0.00571016,0.00327053,0.00085855,0.00335187,-0.0057915,1.47634,0.0053412,0.0122983,615,939,-28.266,-2.52494
-602,85,-28.2503,2.23834,-0.00761967,0.0022525,0.000602019,0.00228908,-0.00765624,1.51011,0.00601419,0.0167049,622,939,-28.2503,-2.23836
-595,85,-28.1852,1.9408,-0.00800046,0.00106674,0.000241838,0.00107319,-0.0080069,1.54415,0.00572927,0.0175376,629,939,-28.1852,-1.9408
-588,85,-28.1732,1.64838,-0.0085011,0.000739474,5.137e-05,0.000739759,-0.00850138,1.56524,0.00592958,0.0161497,636,939,-28.1732,-1.64839
-581,85,-28.2855,1.38708,-0.00902654,0.000748206,-0.000159564,0.00075081,-0.00902914,-1.55448,0.00628467,0.0230319,643,939,-28.2855,-1.38711
-574,85,-28.8698,1.11658,-0.0090206,0.000865078,-0.000713494,0.000916308,-0.00907183,-1.49912,0.00637531,0.0406861,650,939,-28.8698,-1.11658
-567,85,-29.7758,0.966736,-0.00858892,0.00101744,-0.00129622,0.00118927,-0.00876075,-1.439,0.00627461,0.0487363,657,939,-29.7758,-0.96676
-560,85,-29.938,0.77179,-0.00803126,0.00135673,-0.00176699,0.00167829,-0.00835283,-1.39078,0.00620412,0.0362398,664,939,-29.9381,-0.771774
-553,85,-29.948,0.846191,-0.00693519,0.00180703,-0.00234269,0.00239523,-0.0075234,-1.3248,0.00597621,0.0403239,671,939,-29.948,-0.846168
-546,85,-29.9388,0.995239,-0.0051463,0.00234603,-0.00313791,0.00348661,-0.00628687,-1.22216,0.0057194,0.0418541,678,939,-29.9388,-0.995252
-539,85,-30.0076,1.06506,-0.00256313,0.00289606,-0.00429441,0.00525494,-0.00492201,-1.0685,0.00587672,0.039164,685,939,-30.0076,-1.06508
-532,85,-30.0202,0.998535,0.000806344,0.00334779,-0.0061538,0.0083607,-0.00420656,-0.887214,0.00738666,0.0387397,692,939,-30.0202,-0.998549
-525,85,-30.0206,0.918518,0.00381179,0.00381939,-0.00922905,0.0130446,-0.00541346,-0.785604,0.0109562,0.0369884,699,939,-30.0206,-0.918511
-518,85,-29.9232,0.86908,0.00310203,0.00415598,-0.0130867,0.0167263,-0.00946833,-0.805521,0.0153158,0.0372285,706,939,-29.9232,-0.869058
-511,85,0,0,0,0,0,0,0,0,0,-1,713,939,0,0
-504,85,0,0,0,0,0,0,0,0,0,-1,720,939,0,0
-497,85,0,0,0,0,0,0,0,0,0,-1,727,939,0,0
-490,85,0,0,0,0,0,0,0,0,0,-1,734,939,0,0
-483,85,0,0,0,0,0,0,0,0,0,-1,741,939,0,0
-476,85,0,0,0,0,0,0,0,0,0,-1,748,939,0,0
-469,85,0,0,0,0,0,0,0,0,0,-1,755,939,0,0
-462,85,0,0,0,0,0,0,0,0,0,-1,762,939,0,0
-455,85,0,0,0,0,0,0,0,0,0,-1,769,939,0,0
-448,85,0,0,0,0,0,0,0,0,0,-1,776,939,0,0
-441,85,0,0,0,0,0,0,0,0,0,-1,783,939,0,0
-434,85,0,0,0,0,0,0,0,0,0,-1,790,939,0,0
-427,85,0,0,0,0,0,0,0,0,0,-1,797,939,0,0
-420,85,0,0,0,0,0,0,0,0,0,-1,804,939,0,0
-413,85,0,0,0,0,0,0,0,0,0,-1,811,939,0,0
-406,85,0,0,0,0,0,0,0,0,0,-1,818,939,0,0
-399,85,0,0,0,0,0,0,0,0,0,-1,825,939,0,0
-392,85,0,0,0,0,0,0,0,0,0,-1,832,939,0,0
-385,85,0,0,0,0,0,0,0,0,0,-1,839,939,0,0
-378,85,0,0,0,0,0,0,0,0,0,-1,846,939,0,0
-371,85,0,0,0,0,0,0,0,0,0,-1,853,939,0,0
-364,85,0,0,0,0,0,0,0,0,0,-1,860,939,0,0
-357,85,0,0,0,0,0,0,0,0,0,-1,867,939,0,0
-350,85,0,0,0,0,0,0,0,0,0,-1,874,939,0,0
-343,85,0,0,0,0,0,0,0,0,0,-1,881,939,0,0
-336,85,0,0,0,0,0,0,0,0,0,-1,888,939,0,0
-329,85,0,0,0,0,0,0,0,0,0,-1,895,939,0,0
-322,85,0,0,0,0,0,0,0,0,0,-1,902,939,0,0
-315,85,0,0,0,0,0,0,0,0,0,-1,909,939,0,0
-308,85,0,0,0,0,0,0,0,0,0,-1,916,939,0,0
-301,85,0,0,0,0,0,0,0,0,0,-1,923,939,0,0
-294,85,0,0,0,0,0,0,0,0,0,-1,930,939,0,0
-287,85,0,0,0,0,0,0,0,0,0,-1,937,939,0,0
-280,85,0,0,0,0,0,0,0,0,0,-1,944,939,0,0
-273,85,0,0,0,0,0,0,0,0,0,-1,951,939,0,0
-266,85,0,0,0,0,0,0,0,0,0,-1,958,939,0,0
-259,85,0,0,0,0,0,0,0,0,0,-1,965,939,0,0
-252,85,0,0,0,0,0,0,0,0,0,-1,972,939,0,0
-245,85,0,0,0,0,0,0,0,0,0,-1,979,939,0,0
-238,85,0,0,0,0,0,0,0,0,0,-1,986,939,0,0
-231,85,0,0,0,0,0,0,0,0,0,-1,993,939,0,0
-224,85,0,0,0,0,0,0,0,0,0,-1,1000,939,0,0
-217,85,0,0,0,0,0,0,0,0,0,-1,1007,939,0,0
-210,85,0,0,0,0,0,0,0,0,0,-1,1014,939,0,0
-203,85,0,0,0,0,0,0,0,0,0,-1,1021,939,0,0
-196,85,0,0,0,0,0,0,0,0,0,-1,1028,939,0,0
-189,85,0,0,0,0,0,0,0,0,0,-1,1035,939,0,0
-182,85,0,0,0,0,0,0,0,0,0,-1,1042,939,0,0
-175,85,0,0,0,0,0,0,0,0,0,-1,1049,939,0,0
-168,85,0,0,0,0,0,0,0,0,0,-1,1056,939,0,0
-161,85,0,0,0,0,0,0,0,0,0,-1,1063,939,0,0
-154,85,0,0,0,0,0,0,0,0,0,-1,1070,939,0,0
-147,85,0,0,0,0,0,0,0,0,0,-1,1077,939,0,0
-140,85,0,0,0,0,0,0,0,0,0,-1,1084,939,0,0
-133,85,0,0,0,0,0,0,0,0,0,-1,1091,939,0,0
-126,85,0,0,0,0,0,0,0,0,0,-1,1098,939,0,0
-119,85,0,0,0,0,0,0,0,0,0,-1,1105,939,0,0
-112,85,0,0,0,0,0,0,0,0,0,-1,1112,939,0,0
-105,85,0,0,0,0,0,0,0,0,0,-1,1119,939,0,0
-98,85,0,0,0,0,0,0,0,0,0,-1,1126,939,0,0
-91,85,0,0,0,0,0,0,0,0,0,-1,1133,939,0,0
-84,85,0,0,0,0,0,0,0,0,0,-1,1140,939,0,0
-77,85,0,0,0,0,0,0,0,0,0,-1,1147,939,0,0
-70,85,0,0,0,0,0,0,0,0,0,-1,1154,939,0,0
-63,85,0,0,0,0,0,0,0,0,0,-1,1161,939,0,0
-56,85,0,0,0,0,0,0,0,0,0,-1,1168,939,0,0
-49,85,0,0,0,0,0,0,0,0,0,-1,1175,939,0,0
-42,85,0,0,0,0,0,0,0,0,0,-1,1182,939,0,0
-35,85,0,0,0,0,0,0,0,0,0,-1,1189,939,0,0
-28,85,0,0,0,0,0,0,0,0,0,-1,1196,939,0,0
-21,85,0,0,0,0,0,0,0,0,0,-1,1203,939,0,0
-14,85,0,0,0,0,0,0,0,0,0,-1,1210,939,0,0
-7,85,0,0,0,0,0,0,0,0,0,-1,1217,939,0,0
0,85,0,0,0,0,0,0,0,0,0,-1,1224,939,0,0
7,85,0,0,0,0,0,0,0,0,0,-1,1231,939,0,0
14,85,0,0,0,0,0,0,0,0,0,-1,1238,939,0,0
21,85,0,0,0,0,0,0,0,0,0,-1,1245,939,0,0
28,85,0,0,0,0,0,0,0,0,0,-1,1252,939,0,0
35,85,0,0,0,0,0,0,0,0,0,-1,1259,939,0,0
42,85,0,0,0,0,0,0,0,0,0,-1,1266,939,0,0
49,85,0,0,0,0,0,0,0,0,0,-1,1273,939,0,0
56,85,0,0,0,0,0,0,0,0,0,-1,1280,939,0,0
63,85,0,0,0,0,0,0,0,0,0,-1,1287,939,0,0
70,85,0,0,0,0,0,0,0,0,0,-1,1294,939,0,0
77,85,0,0,0,0,0,0,0,0,0,-1,1301,939,0,0
84,85,0,0,0,0,0,0,0,0,0,-1,1308,939,0,0
91,85,0,0,0,0,0,0,0,0,0,-1,1315,939,0,0
98,85,0,0,0,0,0,0,0,0,0,-1,1322,939,0,0
105,85,0,0,0,0,0,0,0,0,0,-1,1329,939,0,0
112,85,0,0,0,0,0,0,0,0,0,-1,1336,939,0,0
119,85,0,0,0,0,0,0,0,0,0,-1,1343,939,0,0
126,85,0,0,0,0,0,0,0,0,0,-1,1350,939,0,0
133,85,0,0,0,0,0,0,0,0,0,-1,1357,939,0,0
140,85,0,0,0,0,0,0,0,0,0,-1,1364,939,0,0
147,85,0,0,0,0,0,0,0,0,0,-1,1371,939,0,0
154,85,0,0,0,0,0,0,0,0,0,-1,1378,939,0,0
161,85,0,0,0,0,0,0,0,0,0,-1,1385,939,0,0
168,85,0,0,0,0,0,0,0,0,0,-1,1392,939,0,0
175,85,0,0,0,0,0,0,0,0,0,-1,1399,939,0,0
182,85,0,0,0,0,0,0,0,0,0,-1,1406,939,0,0
189,85,0,0,0,0,0,0,0,0,0,-1,1413,939,0,0
196,85,0,0,0,0,0,0,0,0,0,-1,1420,939,0,0
203,85,0,0,0,0,0,0,0,0,0,-1,1427,939,0,0
210,85,0,0,0,0,0,0,0,0,0,-1,1434,939,0,0
217,85,0,0,0,0,0,0,0,0,0,-1,1441,939,0,0
224,85,0,0,0,0,0,0,0,0,0,-1,1448,939,0,0
231,85,0,0,0,0,0,0,0,0,0,-1,1455,939,0,0
238,85,0,0,0,0,0,0,0,0,0,-1,1462,939,0,0
245,85,0,0,0,0,0,0,0,0,0,-1,1469,939,0,0
252,85,0,0,0,0,0,0,0,0,0,-1,1476,939,0,0
259,85,0,0,0,0,0,0,0,0,0,-1,1483,939,0,0
266,85,0,0,0,0,0,0,0,0,0,-1,1490,939,0,0
273,85,0,0,0,0,0,0,0,0,0,-1,1497,939,0,0
280,85,0,0,0,0,0,0,0,0,0,-1,1504,939,0,0
287,85,0,0,0,0,0,0,0,0,0,-1,1511,939,0,0
294,85,0,0,0,0,0,0,0,0,0,-1,1518,939,0,0
301,85,0,0,0,0,0,0,0,0,0,-1,1525,939,0,0
308,85,0,0,0,0,0,0,0,0,0,-1,1532,939,0,0
315,85,0,0,0,0,0,0,0,0,0,-1,1539,939,0,0
322,85,0,0,0,0,0,0,0,0,0,-1,1546,939,0,0
329,85,0,0,0,0,0,0,0,0,0,-1,1553,939,0,0
336,85,0,0,0,0,0,0,0,0,0,-1,1560,939,0,0
343,85,0,0,0,0,0,0,0,0,0,-1,1567,939,0,0
350,85,0,0,0,0,0,0,0,0,0,-1,1574,939,0,0
357,85,0,0,0,0,0,0,0,0,0,-1,1581,939,0,0
364,85,0,0,0,0,0,0,0,0,0,-1,1588,939,0,0
371,85,0,0,0,0,0,0,0,0,0,-1,1595,939,0,0
378,85,0,0,0,0,0,0,0,0,0,-1,1602,939,0,0
385,85,0,0,0,0,0,0,0,0,0,-1,1609,939,0,0
392,85,0,0,0,0,0,0,0,0,0,-1,1616,939,0,0
399,85,0,0,0,0,0,0,0,0,0,-1,1623,939,0,0
406,85,0,0,0,0,0,0,0,0,0,-1,1630,939,0,0
413,85,0,0,0,0,0,0,0,0,0,-1,1637,939,0,0
420,85,0,0,0,0,0,0,0,0,0,-1,1644,939,0,0
427,85,0,0,0,0,0,0,0,0,0,-1,1651,939,0,0
434,85,0,0,0,0,0,0,0,0,0,-1,1658,939,0,0
441,85,0,0,0,0,0,0,0,0,0,-1,1665,939,0,0
448,85,0,0,0,0,0,0,0,0,0,-1,1672,939,0,0
455,85,0,0,0,0,0,0,0,0,0,-1,1679,939,0,0
462,85,0,0,0,0,0,0,0,0,0,-1,1686,939,0,0
469,85,0,0,0,0,0,0,0,0,0,-1,1693,939,0,0
476,85,0,0,0,0,0,0,0,0,0,-1,1700,939,0,0
483,85,0,0,0,0,0,0,0,0,0,-1,1707,939,0,0
490,85,0,0,0,0,0,0,0,0,0,-1,1714,939,0,0
497,85,0,0,0,0,0,0,0,0,0,-1,1721,939,0,0
504,85,0,0,0,0,0,0,0,0,0,-1,1728,939,0,0
511,85,0,0,0,0,0,0,0,0,0,-1,1735,939,0,0
518,85,0,0,0,0,0,0,0,0,0,-1,1742,939,0,0
525,85,0,0,0,0,0,0,0,0,0,-1,1749,939,0,0
532,85,0,0,0,0,0,0,0,0,0,-1,1756,939,0,0
539,85,0,0,0,0,0,0,0,0,0,-1,1763,939,0,0
546,85,0,0,0,0,0,0,0,0,0,-1,1770,939,0,0
553,85,0,0,0,0,0,0,0,0,0,-1,1777,939,0,0
560,85,0,0,0,0,0,0,0,0,0,-1,1784,939,0,0
567,85,0,0,0,0,0,0,0,0,0,-1,1791,939,0,0
574,85,0,0,0,0,0,0,0,0,0,-1,1798,939,0,0
581,85,0,0,0,0,0,0,0,0,0,-1,1805,939,0,0
588,85,0,0,0,0,0,0,0,0,0,-1,1812,939,0,0
595,85,0,0,0,0,0,0,0,0,0,-1,1819,939,0,0
602,85,0,0,0,0,0,0,0,0,0,-1,1826,939,0,0
609,85,0,0,0,0,0,0,0,0,0,-1,1833,939,0,0
616,85,0,0,0,0,0,0,0,0,0,-1,1840,939,0,0
623,85,0,0,0,0,0,0,0,0,0,-1,1847,939,0,0
630,85,0,0,0,0,0,0,0,0,0,-1,1854,939,0,0
637,85,40.7839,2.35925,4.62868e-05,-0.00164469,0.000131818,5.65008e-05,-0.0016549,0.0773311,0.00112258,0.0477761,1861,939,40.784,-2.35924
644,85,40.7332,2.00281,-0.000222672,-0.00118414,0.00129618,0.000679052,-0.00208587,0.607819,0.00166378,0.0438544,1868,939,40.7332,-2.00282
651,85,40.7301,2.01025,-0.000327289,-0.000914769,0.00179347,0.00119634,-0.00243839,0.704227,0.00213896,0.0462987,1875,939,40.7301,-2.01027
658,85,40.5835,2.42664,-0.000317453,-0.000574999,0.00194552,0.00150355,-0.002396,0.752352,0.00227098,0.0467911,1882,939,40.5835,-2.42661
665,85,40.5156,2.84729,-0.000185551,-0.000322175,0.00187743,0.00162481,-0.00213254,0.767213,0.0021759,0.0420395,1889,939,40.5156,-2.84731
672,85,40.8309,2.62732,-0.000280136,-0.000169331,0.00176412,0.00154026,-0.00198973,0.801095,0.00204354,0.0400723,1896,939,40.8309,-2.62731
679,85,40.9498,2.52197,-0.000419607,-0.000219346,0.00165132,0.00133487,-0.00197383,0.815679,0.00192211,0.0380759,1903,939,40.9499,-2.52199
686,85,40.8805,2.56958,-0.00048547,-0.000290427,0.001408,0.00102343,-0.00179932,0.819974,0.00165011,0.0322574,1910,939,40.8805,-2.5696
693,85,40.7733,2.78735,-0.000616099,-0.000294896,0.00125855,0.000813254,-0.00172425,0.84886,0.00149617,0.0269332,1917,939,40.7733,-2.78737
700,85,40.7815,2.75165,-0.000903881,-0.000229454,0.00109446,0.000578568,-0.0017119,0.934838,0.00137531,0.0388872,1924,939,40.7815,-2.75164
707,85,40.8378,2.72217,0,0,0,0,0,0,0,-1,1931,939,40.8378,-2.72215
714,85,38.2412,3.86908,0,0,0,0,0,0,0,-1,1938,939,38.2412,-3.8691
721,85,38.2002,4.26746,-0.00196039,0.000650976,-0.000169974,0.000661994,-0.00197141,-1.50607,0.00158181,0.0276148,1945,939,38.2001,-4.26744
728,85,38.1404,4.69043,-0.00238087,0.00135613,1.21696e-05,0.00135617,-0.00238091,1.56754,0.00218448,0.0233774,1952,939,38.1404,-4.69045
735,85,38.1644,4.94385,-0.00261541,0.00226898,9.45954e-05,0.00227081,-0.00261724,1.55144,0.00282448,0.0217632,1959,939,38.1644,-4.94384
742,85,38.228,5.21454,-0.00280476,0.00350833,-0.0002365,0.00351718,-0.00281361,-1.5334,0.00366259,0.0169596,1966,939,38.228,-5.21453
749,85,38.15,5.53925,-0.00269908,0.00501583,-0.000474226,0.00504487,-0.00272812,-1.50963,0.0045537,0.0149264,1973,939,38.1501,-5.53925
756,85,38.0673,5.84308,-0.00239918,0.00704678,-0.00060132,0.0070849,-0.0024373,-1.50748,0.00571176,0.0142699,1980,939,38.0672,-5.84308
763,85,38.0732,6.12122,-0.00188987,0.00947954,-0.000566189,0.00950767,-0.001918,-1.52116,0.0070651,0.0139495,1987,939,38.0732,-6.1212
770,85,38.0144,6.45416,-0.00122924,0.0120298,-0.000420082,0.0120431,-0.00124254,-1.53916,0.00847331,0.0183251,1994,939,38.0144,-6.45419
777,85,38.0773,6.96246,-0.000611622,0.0148138,-0.000228128,0.0148172,-0.000614995,-1.55601,0.0100894,0.0399284,2001,939,38.0772,-6.96245
784,85,38.3691,7.55695,0.000268153,0.0174006,-0.000154885,0.017402,0.000266754,-1.56176,0.0115134,0.0464983,2008,939,38.3691,-7.55697
791,85,38.8098,8.0542,0,0,0,0,0,0,0,-1,2015,939,38.8099,-8.05418
798,85,38.3765,8.22375,0,0,0,0,0,0,0,-1,2022,939,38.3764,-8.22373
805,85,37.7939,4.98969,0,0,0,0,0,0,0,-1,2029,939,37.7938,-4.98966
812,85,0,0,0,0,0,0,0,0,0,-1,2036,939,0,0
-700,78,0,0,0,0,0,0,0,0,0,-1,524,946,0,0
-693,78,0,0,0,0,0,0,0,0,0,-1,531,946,0,0
-686,78,-30.205,7.23157,0.124196,0.01928,-0.00700846,0.124662,0.0188139,-0.0664075,0.0776007,0.0433231,538,946,-30.205,-7.23157
-679,78,-29.7649,6.94519,0.106977,0.0253053,-0.00834104,0.107821,0.0244621,-0.100743,0.0652725,0.0465101,545,946,-29.7649,-6.94521
-672,78,-29.612,4.86975,0.088487,0.0268805,-0.00775888,0.0894492,0.0259184,-0.123376,0.0531436,0.0482151,552,946,-29.612,-4.86973
-665,78,-28.9378,4.57477,0.0704688,0.0261012,-0.00626943,0.0713377,0.0252323,-0.137715,0.0417704,0.0469405,559,946,-28.9378,-4.57477
-658,78,-27.9802,4.41577,0.0540128,0.0240297,-0.00443676,0.0546555,0.0233869,-0.143869,0.0316646,0.0451703,566,946,-27.9802,-4.41575
-651,78,-28.144,4.12585,0.0396991,0.0212454,-0.00262507,0.0400652,0.0208792,-0.13859,0.0231385,0.041931,573,946,-28.144,-4.12586
-644,78,-28.2263,3.82837,0.0278324,0.0180929,-0.00107994,0.0279507,0.0179745,-0.109116,0.0163561,0.0272651,580,946,-28.2263,-3.82838
-637,78,-28.3813,3.58423,0.018069,0.0144011,-0.000654418,0.0181823,0.0142878,-0.171374,0.0110544,0.0144772,587,946,-28.3813,-3.58422
-630,78,-28.4966,3.32233,0.0104462,0.0115793,-2.1765e-05,0.0115797,0.0104458,-1.5516,0.00737096,0.0133353,594,946,-28.4966,-3.3223
-623,78,-28.5502,3.05756,0.00319474,0.0107955,0.00109408,0.0109498,0.00304039,1.43064,0.0065269,0.0125252,601,946,-28.5502,-3.05754
-616,78,-28.5594,2.78339,-0.00202114,0.00557923,0.00150953,0.00586806,-0.00230998,1.38174,0.00486828,0.0114655,608,946,-28.5594,-2.7834
-609,78,-28.5241,2.52441,-0.0060642,0.00380239,0.00042715,0.00382085,-0.00608265,1.52761,0.00576728,0.0118384,615,946,-28.5241,-2.52443
-602,78,-28.5093,2.24683,-0.00783726,0.00251842,3.49994e-05,0.00251854,-0.00783738,1.56742,0.00623632,0.0163023,622,946,-28.5093,-2.24684
-595,78,-28.4825,1.94342,-0.00807795,0.00117273,-0.00042177,0.00119192,-0.00809714,-1.52533,0.00583612,0.0158633,629,946,-28.4825,-1.94345
-588,78,-28.4902,1.73474,-0.00852035,0.000741134,-0.000626324,0.000783298,-0.00856251,-1.50358,0.00598654,0.013312,636,946,-28.4902,-1.73475
-581,78,-28.623,1.53278,-0.00901498,0.000710853,-0.000834373,0.000781914,-0.00908604,-1.48583,0.00633411,0.0284128,643,946,-28.623,-1.53278
-574,78,-29.2414,1.22137,-0.00900745,0.000879405,-0.00135844,0.00106266,-0.0091907,-1.43671,0.00651033,0.0368325,650,946,-29.2414,-1.2214
-567,78,-29.9515,0.816284,-0.00859703,0.0010878,-0.00182729,0.00142109,-0.00893032,-1.39038,0.0064794,0.0365552,657,946,-29.9515,-0.816285
-560,78,-29.9962,0.814514,-0.00794213,0.0014756,-0.00218108,0.0019562,-0.00842273,-1.35391,0.00636817,0.0341409,664,946,-29.9962,-0.814487
-553,78,-29.9537,0.83136,-0.00667691,0.00197804,-0.00262492,0.00271191,-0.00741078,-1.29818,0.00605059,0.0419382,671,946,-29.9536,-0.831358
-546,78,-29.895,0.964844,-0.00467169,0.00254835,-0.00325574,0.00379962,-0.00592296,-1.20387,0.00565778,0.0436871,678,946,-29.895,-0.964828
-539,78,-29.8683,1.10504,-0.00187509,0.00309813,-0.00421748,0.00550747,-0.00428443,-1.05176,0.00566804,0.0387998,685,946,-29.8683,-1.10503
-532,78,-29.7567,1.0047,0.00164377,0.00352894,-0.00590289,0.00856403,-0.00339132,-0.864571,0.00711453,0.0401386,692,946,-29.7567,-1.00471
-525,78,-29.7648,0.729919,0.00441897,0.00396255,-0.00887282,0.0130665,-0.00468499,-0.772541,0.0106228,0.0386869,699,946,-29.7649,-0.729902
-518,78,-29.9346,0.761108,0.00323538,0.00431391,-0.0127904,0.0165764,-0.00902707,-0.806467,0.0149948,0.0397371,706,946,-29.9346,-0.761107
-511,78,0,0,0,0,0,0,0,0,0,-1,713,946,0,0
-504,78,0,0,0,0,0,0,0,0,0,-1,720,946,0,0
-497,78,0,0,0,0,0,0,0,0,0,-1,727,946,0,0
-490,78,0,0,0,0,0,0,0,0,0,-1,734,946,0,0
-483,78,0,0,0,0,0,0,0,0,0,-1,741,946,0,0
-476,78,0,0,0,0,0,0,0,0,0,-1,748,946,0,0
-469,78,0,0,0,0,0,0,0,0,0,-1,755,946,0,0
-462,78,0,0,0,0,0,0,0,0,0,-1,762,946,0,0
-455,78,0,0,0,0,0,0,0,0,0,-1,769,946,0,0
-448,78,0,0,0,0,0,0,0,0,0,-1,776,946,0,0
-441,78,0,0,0,0,0,0,0,0,0,-1,783,946,0,0
-434,78,0,0,0,0,0,0,0,0,0,-1,790,946,0,0
-427,78,0,0,0,0,0,0,0,0,0,-1,797,946,0,0
-420,78,0,0,0,0,0,0,0,0,0,-1,804,946,0,0
-413,78,0,0,0,0,0,0,0,0,0,-1,811,946,0,0
-406,78,0,0,0,0,0,0,0,0,0,-1,818,946,0,0
-399,78,0,0,0,0,0,0,0,0,0,-1,825,946,0,0
-392,78,0,0,0,0,0,0,0,0,0,-1,832,946,0,0
-385,78,0,0,0,0,0,0,0,0,0,-1,839,946,0,0
-378,78,0,0,0,0,0,0,0,0,0,-1,846,946,0,0
-371,78,0,0,0,0,0,0,0,0,0,-1,853,946,0,0
-364,78,0,0,0,0,0,0,0,0,0,-1,860,946,0,0
-357,78,0,0,0,0,0,0,0,0,0,-1,867,946,0,0
-350,78,0,0,0,0,0,0,0,0,0,-1,874,946,0,0
-343,78,0,0,0,0,0,0,0,0,0,-1,881,946,0,0
-336,78,0,0,0,0,0,0,0,0,0,-1,888,946,0,0
-329,78,0,0,0,0,0,0,0,0,0,-1,895,946,0,0
-322,78,0,0,0,0,0,0,0,0,0,-1,902,946,0,0
-315,78,0,0,0,0,0,0,0,0,0,-1,909,946,0,0
-308,78,0,0,0,0,0,0,0,0,0,-1,916,946,0,0
-301,78,0,0,0,0,0,0,0,0,0,-1,923,946,0,0
-294,78,0,0,0,0,0,0,0,0,0,-1,930,946,0,0
-287,78,0,0,0,0,0,0,0,0,0,-1,937,946,0,0
-280,78,0,0,0,0,0,0,0,0,0,-1,944,946,0,0
-273,78,0,0,0,0,0,0,0,0,0,-1,951,946,0,0
-266,78,0,0,0,0,0,0,0,0,0,-1,958,946,0,0
-259,78,0,0,0,0,0,0,0,0,0,-1,965,946,0,0
-252,78,0,0,0,0,0,0,0,0,0,-1,972,946,0,0
-245,78,0,0,0,0,0,0,0,0,0,-1,979,946,0,0
-238,78,0,0,0,0,0,0,0,0,0,-1,986,946,0,0
-231,78,0,0,0,0,0,0,0,0,0,-1,993,946,0,0
-224,78,0,0,0,0,0,0,0,0,0,-1,1000,946,0,0
-217,78,0,0,0,0,0,0,0,0,0,-1,1007,946,0,0
-210,78,0,0,0,0,0,0,0,0,0,-1,1014,946,0,0
-203,78,0,0,0,0,0,0,0,0,0,-1,1021,946,0,0
-196,78,0,0,0,0,0,0,0,0,0,-1,1028,946,0,0
-189,78,0,0,0,0,0,0,0,0,0,-1,1035,946,0,0
-182,78,0,0,0,0,0,0,0,0,0,-1,1042,946,0,0
-175,78,0,0,0,0,0,0,0,0,0,-1,1049,946,0,0
-168,78,0,0,0,0,0,0,0,0,0,-1,1056,946,0,0
-161,78,0,0,0,0,0,0,0,0,0,-1,1063,946,0,0
-154,78,0,0,0,0,0,0,0,0,0,-1,1070,946,0,0
-147,78,0,0,0,0,0,0,0,0,0,-1,1077,946,0,0
-140,78,0,0,0,0,0,0,0,0,0,-1,1084,946,0,0
-133,78,0,0,0,0,0,0,0,0,0,-1,1091,946,0,0
-126,78,0,0,0,0,0,0,0,0,0,-1,1098,946,0,0
-119,78,0,0,0,0,0,0,0,0,0,-1,1105,946,0,0
-112,78,0,0,0,0,0,0,0,0,0,-1,1112,946,0,0
-105,78,0,0,0,0,0,0,0,0,0,-1,1119,946,0,0
-98,78,0,0,0,0,0,0,0,0,0,-1,1126,946,0,0
-91,78,0,0,0,0,0,0,0,0,0,-1,1133,946,0,0
-84,78,0,0,0,0,0,0,0,0,0,-1,1140,946,0,0
-77,78,0,0,0,0,0,0,0,0,0,-1,1147,946,0,0
-70,78,0,0,0,0,0,0,0,0,0,-1,1154,946,0,0
-63,78,0,0,0,0,0,0,0,0,0,-1,1161,946,0,0
-56,78,0,0,0,0,0,0,0,0,0,-1,1168,946,0,0
-49,78,0,0,0,0,0,0,0,0,0,-1,1175,946,0,0
-42,78,0,0,0,0,0,0,0,0,0,-1,1182,946,0,0
-35,78,0,0,0,0,0,0,0,0,0,-1,1189,946,0,0
-28,78,0,0,0,0,0,0,0,0,0,-1,1196,946,0,0
-21,78,0,0,0,0,0,0,0,0,0,-1,1203,946,0,0
-14,78,0,0,0,0,0,0,0,0,0,-1,1210,946,0,0
-7,78,0,0,0,0,0,0,0,0,0,-1,1217,946,0,0
0,78,0,0,0,0,0,0,0,0,0,-1,1224,946,0,0
7,78,0,0,0,0,0,0,0,0,0,-1,1231,946,0,0
14,78,0,0,0,0,0,0,0,0,0,-1,1238,946,0,0
21,78,0,0,0,0,0,0,0,0,0,-1,1245,946,0,0
28,78,0,0,0,0,0,0,0,0,0,-1,1252,946,0,0
35,78,0,0,0,0,0,0,0,0,0,-1,1259,946,0,0
42,78,0,0,0,0,0,0,0,0,0,-1,1266,946,0,0
49,78,0,0,0,0,0,0,0,0,0,-1,1273,946,0,0
56,78,0,0,0,0,0,0,0,0,0,-1,1280,946,0,0
63,78,0,0,0,0,0,0,0,0,0,-1,1287,946,0,0
70,78,0,0,0,0,0,0,0,0,0,-1,1294,946,0,0
77,78,0,0,0,0,0,0,0,0,0,-1,1301,946,0,0
84,78,0,0,0,0,0,0,0,0,0,-1,1308,946,0,0
91,78,0,0,0,0,0,0,0,0,0,-1,1315,946,0,0
98,78,0,0,0,0,0,0,0,0,0,-1,1322,946,0,0
105,78,0,0,0,0,0,0,0,0,0,-1,1329,946,0,0
112,78,0,0,0,0,0,0,0,0,0,-1,1336,946,0,0
119,78,0,0,0,0,0,0,0,0,0,-1,1343,946,0,0
126,78,0,0,0,0,0,0,0,0,0,-1,1350,946,0,0
133,78,0,0,0,0,0,0,0,0,0,-1,1357,946,0,0
140,78,0,0,0,0,0,0,0,0,0,-1,1364,946,0,0
147,78,0,0,0,0,0,0,0,0,0,-1,1371,946,0,0
154,78,0,0,0,0,0,0,0,0,0,-1,1378,946,0,0
161,78,0,0,0,0,0,0,0,0,0,-1,1385,946,0,0
168,78,0,0,0,0,0,0,0,0,0,-1,1392,946,0,0
175,78,0,0,0,0,0,0,0,0,0,-1,1399,946,0,0
182,78,0,0,0,0,0,0,0,0,0,-1,1406,946,0,0
189,78,0,0,0,0,0,0,0,0,0,-1,1413,946,0,0
196,78,0,0,0,0,0,0,0,0,0,-1,1420,946,0,0
203,78,0,0,0,0,0,0,0,0,0,-1,1427,946,0,0
210,78,0,0,0,0,0,0,0,0,0,-1,1434,946,0,0
217,78,0,0,0,0,0,0,0,0,0,-1,1441,946,0,0
224,78,0,0,0,0,0,0,0,0,0,-1,1448,946,0,0
231,78,0,0,0,0,0,0,0,0,0,-1,1455,946,0,0
238,78,0,0,0,0,0,0,0,0,0,-1,1462,946,0,0
245,78,0,0,0,0,0,0,0,0,0,-1,1469,946,0,0
252,78,0,0,0,0,0,0,0,0,0,-1,1476,946,0,0
259,78,0,0,0,0,0,0,0,0,0,-1,1483,946,0,0
266,78,0,0,0,0,0,0,0,0,0,-1,1490,946,0,0
273,78,0,0,0,0,0,0,0,0,0,-1,1497,946,0,0
280,78,0,0,0,0,0,0,0,0,0,-1,1504,946,0,0
287,78,0,0,0,0,0,0,0,0,0,-1,1511,946,0,0
294,78,0,0,0,0,0,0,0,0,0,-1,1518,946,0,0
301,78,0,0,0,0,0,0,0,0,0,-1,1525,946,0,0
308,78,0,0,0,0,0,0,0,0,0,-1,1532,946,0,0
315,78,0,0,0,0,0,0,0,0,0,-1,1539,946,0,0
322,78,0,0,0,0,0,0,0,0,0,-1,1546,946,0,0
329,78,0,0,0,0,0,0,0,0,0,-1,1553,946,0,0
336,78,0,0,0,0,0,0,0,0,0,-1,1560,946,0,0
343,78,0,0,0,0,0,0,0,0,0,-1,1567,946,0,0
350,78,0,0,0,0,0,0,0,0,0,-1,1574,946,0,0
357,78,0,0,0,0,0,0,0,0,0,-1,1581,946,0,0
364,78,0,0,0,0,0,0,0,0,0,-1,1588,946,0,0
371,78,0,0,0,0,0,0,0,0,0,-1,1595,946,0,0
378,78,0,0,0,0,0,0,0,0,0,-1,1602,946,0,0
385,78,0,0,0,0,0,0,0,0,0,-1,1609,946,0,0
392,78,0,0,0,0,0,0,0,0,0,-1,1616,946,0,0
399,78,0,0,0,0,0,0,0,0,0,-1,1623,946,0,0
406,78,0,0,0,0,0,0,0,0,0,-1,1630,946,0,0
413,78,0,0,0,0,0,0,0,0,0,-1,1637,946,0,0
420,78,0,0,0,0,0,0,0,0,0,-1,1644,946,0,0
427,78,0,0,0,0,0,0,0,0,0,-1,1651,946,0,0
434,78,0,0,0,0,0,0,0,0,0,-1,1658,946,0,0
441,78,0,0,0,0,0,0,0,0,0,-1,1665,946,0,0
448,78,0,0,0,0,0,0,0,0,0,-1,1672,946,0,0
455,78,0,0,0,0,0,0,0,0,0,-1,1679,946,0,0
462,78,0,0,0,0,0,0,0,0,0,-1,1686,946,0,0
469,78,0,0,0,0,0,0,0,0,0,-1,1693,946,0,0
476,78,0,0,0,0,0,0,0,0,0,-1,1700,946,0,0
483,78,0,0,0,0,0,0,0,0,0,-1,1707,946,0,0
490,78,0,0,0,0,0,0,0,0,0,-1,1714,946,0,0
497,78,0,0,0,0,0,0,0,0,0,-1,1721,946,0,0
504,78,0,0,0,0,0,0,0,0,0,-1,1728,946,0,0
511,78,0,0,0,0,0,0,0,0,0,-1,1735,946,0,0
518,78,0,0,0,0,0,0,0,0,0,-1,1742,946,0,0
525,78,0,0,0,0,0,0,0,0,0,-1,1749,946,0,0
532,78,0,0,0,0,0,0,0,0,0,-1,1756,946,0,0
539,78,0,0,0,0,0,0,0,0,0,-1,1763,946,0,0
546,78,0,0,0,0,0,0,0,0,0,-1,1770,946,0,0
553,78,0,0,0,0,0,0,0,0,0,-1,1777,946,0,0
560,78,0,0,0,0,0,0,0,0,0,-1,1784,946,0,0
567,78,0,0,0,0,0,0,0,0,0,-1,1791,946,0,0
574,78,0,0,0,0,0,0,0,0,0,-1,1798,946,0,0
581,78,0,0,0,0,0,0,0,0,0,-1,1805,946,0,0
588,78,0,0,0,0,0,0,0,0,0,-1,1812,946,0,0
595,78,0,0,0,0,0,0,0,0,0,-1,1819,946,0,0
602,78,0,0,0,0,0,0,0,0,0,-1,1826,946,0,0
609,78,0,0,0,0,0,0,0,0,0,-1,1833,946,0,0
616,78,0,0,0,0,0,0,0,0,0,-1,1840,946,0,0
623,78,0,0,0,0,0,0,0,0,0,-1,1847,946,0,0
630,78,0,0,0,0,0,0,0,0,0,-1,1854,946,0,0
637,78,40.7271,2.70496,0.000222718,-0.00336888,4.20184e-07,0.000222718,-0.00336888,0.000116991,0.00232372,0.0452129,1861,946,40.7271,-2.70498
644,78,40.7756,2.32666,-6.03402e-06,-0.00272332,0.00127173,0.000496293,-0.00322564,0.376184,0.00233352,0.0455284,1868,946,40.7757,-2.32663
651,78,40.8661,2.2348,-9.86798e-05,-0.00228053,0.00176965,0.000889282,-0.00326849,0.509179,0.0025281,0.0470347,1875,946,40.8661,-2.23482
658,78,40.809,2.40027,-0.000116747,-0.0017508,0.00191181,0.0011453,-0.00301285,0.583466,0.00248011,0.0431096,1882,946,40.8089,-2.40029
665,78,40.6981,2.71991,-7.65052e-05,-0.00125564,0.00190516,0.00132823,-0.00266037,0.635343,0.00234524,0.0406815,1889,946,40.6981,-2.71989
672,78,40.7098,2.63654,-0.000328021,-0.000844694,0.00186341,0.00129488,-0.00246759,0.716519,0.00220715,0.0401826,1896,946,40.7099,-2.63653
679,78,40.7822,2.57904,-0.000656091,-0.000675038,0.00183914,0.0011736,-0.00250473,0.782823,0.00216954,0.0402011,1903,946,40.7822,-2.57901
686,78,40.8151,2.55524,-0.00085271,-0.00058651,0.00167494,0.000960606,-0.00239983,0.825048,0.00199858,0.0369503,1910,946,40.815,-2.55524
693,78,40.772,2.66565,-0.00109461,-0.000475771,0.00158409,0.000828834,-0.00239921,0.881848,0.00193583,0.0295335,1917,946,40.7719,-2.66567
700,78,40.7506,2.64795,-0.00148105,-0.000307547,0.0014646,0.000683468,-0.00247206,0.975919,0.00191692,0.0271374,1924,946,40.7506,-2.64796
707,78,40.8337,2.72443,0,0,0,0,0,0,0,-1,1931,946,40.8337,-2.72442
714,78,38.4197,4.05933,0,0,0,0,0,0,0,-1,1938,946,38.4197,-4.05935
721,78,38.4451,4.34155,-0.00266877,0.000772755,0.000273085,0.00079429,-0.0026903,1.4921,0.00210877,0.0272026,1945,946,38.445,-4.34154
728,78,38.4893,4.75092,-0.003033,0.00152664,0.000437461,0.00156823,-0.00307459,1.47601,0.00272716,0.0263462,1952,946,38.4893,-4.75089
735,78,38.5409,4.97766,-0.00317732,0.00245983,0.000482371,0.00250081,-0.0032183,1.48605,0.00331058,0.0185294,1959,946,38.5409,-4.97765
742,78,38.5525,5.23022,-0.00329614,0.00369783,0.000156485,0.00370133,-0.00329964,1.54844,0.00404423,0.0148565,1966,946,38.5525,-5.23024
749,78,38.4525,5.52643,-0.00307745,0.00512609,-0.000118075,0.00512779,-0.00307915,-1.55641,0.00478724,0.0142932,1973,946,38.4526,-5.52641
756,78,38.4287,5.79028,-0.00263294,0.00705191,-0.000306083,0.00706157,-0.00264261,-1.53923,0.00579311,0.0149224,1980,946,38.4288,-5.79028
763,78,38.3961,6.02509,-0.0019394,0.00937017,-0.000312105,0.00937878,-0.00194801,-1.54323,0.00699289,0.0144329,1987,946,38.3961,-6.02511
770,78,38.3385,6.27911,-0.00106841,0.0118245,-0.000116172,0.0118256,-0.00106946,-1.56179,0.00826332,0.0188729,1994,946,38.3386,-6.27909
777,78,38.2035,6.79962,-0.000211198,0.0144277,0.000159274,0.0144295,-0.000212931,1.55992,0.0096914,0.0384814,2001,946,38.2035,-6.79959
784,78,38.1718,7.51312,0.000926319,0.0167492,0.000409087,0.0167597,0.00091575,1.54497,0.0108808,0.0458593,2008,946,38.1718,-7.51311
791,78,37.6235,8.19879,0,0,0,0,0,0,0,-1,2015,946,37.6235,-8.1988
798,78,33.2092,3.68036,0,0,0,0,0,0,0,-1,2022,946,33.2092,-3.68037
805,78,32.3921,1.3634,0,0,0,0,0,0,0,-1,2029,946,32.3921,-1.36342
812,78,0,0,0,0,0,0,0,0,0,-1,2036,946,0,0
-700,71,0,0,0,0,0,0,0,0,0,-1,524,953,0,0
-693,71,0,0,0,0,0,0,0,0,0,-1,531,953,0,0
-686,71,-30.1255,8.41071,0.123877,0.0577931,0.00136668,0.123906,0.0577649,0.0206691,0.0715913,0.0456077,538,953,-30.1255,-8.41068
-679,71,-30.0319,8.06512,0.105484,0.0561989,-0.00175671,0.105547,0.0561364,-0.0355837,0.0609786,0.0484088,545,953,-30.0318,-8.06513
-672,71,-29.1253,2.1073,0.0864059,0.0512122,-0.00275634,0.0866205,0.0509976,-0.0776879,0.0502723,0.0477007,552,953,-29.1253,-2.10728
-665,71,-28.5151,3.3374,0.068087,0.0448439,-0.00256188,0.068366,0.0445648,-0.108486,0.0400734,0.0461834,559,953,-28.5151,-3.33743
-658,71,-27.7683,4.03998,0.0514808,0.0381097,-0.00172241,0.0516991,0.0378914,-0.126074,0.0309092,0.0465441,566,953,-27.7683,-4.03999
-651,71,-28.6621,4.03656,0,0,0,0,0,0,0,-1,573,953,-28.6621,-4.03657
-644,71,-28.5692,3.78625,0.0254643,0.0253926,0.000333452,0.0257638,0.0250931,0.731894,0.0169567,0.0321555,580,953,-28.5692,-3.78623
-637,71,-28.7047,3.51447,0.0159439,0.0192993,7.58165e-05,0.019301,0.0159422,1.54822,0.0119067,0.0148865,587,953,-28.7047,-3.51447
-630,71,-28.7868,3.26898,0.00867311,0.0141563,0.000288579,0.0141715,0.00865796,1.51836,0.00824876,0.0138634,594,953,-28.7868,-3.26901
-623,71,-28.8315,3.01648,0.00194833,0.0125627,0.00111243,0.012678,0.001833,1.46749,0.00791211,0.013207,601,953,-28.8315,-3.01651
-616,71,-28.8392,2.75018,-0.00256495,0.00677191,0.00120763,0.00692558,-0.00271862,1.44423,0.00574195,0.0130143,608,953,-28.8392,-2.7502
-609,71,-28.7983,2.53882,-0.00602504,0.00455506,-8.59604e-05,0.00455576,-0.00602573,-1.56267,0.00612885,0.014305,615,953,-28.7983,-2.5388
-602,71,-28.7661,2.27759,-0.0075677,0.00303121,-0.000677845,0.00307439,-0.00761087,-1.50719,0.00635176,0.0165993,622,953,-28.766,-2.27757
-595,71,-28.7983,2.01971,-0.00762352,0.00152181,-0.00131093,0.00170601,-0.00780773,-1.4312,0.00585723,0.0174011,629,953,-28.7982,-2.0197
-588,71,-28.7915,1.82178,-0.00795632,0.000942758,-0.00158807,0.00121766,-0.00823122,-1.39939,0.00593515,0.0195354,636,953,-28.7915,-1.82177
-581,71,-29.0156,1.44733,-0.00837652,0.000833459,-0.00181656,0.0011788,-0.00872186,-1.38293,0.00624471,0.0345015,643,953,-29.0155,-1.44734
-574,71,-29.687,1.08423,-0.00834895,0.000959453,-0.00229113,0.00149282,-0.00888232,-1.34207,0.00647675,0.040704,650,953,-29.6869,-1.08425
-567,71,-30.2084,0.79187,0,0,0,0,0,0,0,-1,657,953,-30.2084,-0.791862
-560,71,-29.9716,0.866821,-0.00725175,0.0015138,-0.00279421,0.00232875,-0.00806669,-1.28701,0.0062992,0.0282249,664,953,-29.9715,-0.866829
-553,71,-29.9156,0.991943,-0.00590656,0.0019731,-0.00303346,0.00300561,-0.00693906,-1.24272,0.00588936,0.0405549,671,953,-29.9156,-0.99195
-546,71,-29.8783,1.0943,-0.00383871,0.0024624,-0.00342754,0.00396738,-0.00534369,-1.15706,0.00539529,0.0441912,678,953,-29.8783,-1.0943
-539,71,-29.9439,0.910889,-0.00102481,0.00288551,-0.00414763,0.00551571,-0.003655,-1.00565,0.00533092,0.0421992,685,953,-29.9439,-0.910865
-532,71,-29.943,0.719116,0.00240192,0.00318456,-0.0056846,0.00849129,-0.00290481,-0.819763,0.00683799,0.0444257,692,953,-29.943,-0.719108
-525,71,-29.889,0.504639,0.00480458,0.00354025,-0.00871348,0.0129088,-0.00456397,-0.749186,0.0104644,0.0451543,699,953,-29.889,-0.504609
-518,71,0,0,0,0,0,0,0,0,0,-1,706,953,0,0
-511,71,0,0,0,0,0,0,0,0,0,-1,713,953,0,0
-504,71,0,0,0,0,0,0,0,0,0,-1,720,953,0,0
-497,71,0,0,0,0,0,0,0,0,0,-1,727,953,0,0
-490,71,0,0,0,0,0,0,0,0,0,-1,734,953,0,0
-483,71,0,0,0,0,0,0,0,0,0,-1,741,953,0,0
-476,71,0,0,0,0,0,0,0,0,0,-1,748,953,0,0
-469,71,0,0,0,0,0,0,0,0,0,-1,755,953,0,0
-462,71,0,0,0,0,0,0,0,0,0,-1,762,953,0,0
-455,71,0,0,0,0,0,0,0,0,0,-1,769,953,0,0
-448,71,0,0,0,0,0,0,0,0,0,-1,776,953,0,0
-441,71,0,0,0,0,0,0,0,0,0,-1,783,953,0,0
-434,71,0,0,0,0,0,0,0,0,0,-1,790,953,0,0
-427,71,0,0,0,0,0,0,0,0,0,-1,797,953,0,0
-420,71,0,0,0,0,0,0,0,0,0,-1,804,953,0,0
-413,71,0,0,0,0,0,0,0,0,0,-1,811,953,0,0
-406,71,0,0,0,0,0,0,0,0,0,-1,818,953,0,0
-399,71,0,0,0,0,0,0,0,0,0,-1,825,953,0,0
-392,71,0,0,0,0,0,0,0,0,0,-1,832,953,0,0
-385,71,0,0,0,0,0,0,0,0,0,-1,839,953,0,0
-378,71,0,0,0,0,0,0,0,0,0,-1,846,953,0,0
-371,71,0,0,0,0,0,0,0,0,0,-1,853,953,0,0
-364,71,0,0,0,0,0,0,0,0,0,-1,860,953,0,0
-357,71,0,0,0,0,0,0,0,0,0,-1,867,953,0,0
-350,71,0,0,0,0,0,0,0,0,0,-1,874,953,0,0
-343,71,0,0,0,0,0,0,0,0,0,-1,881,953,0,0
-336,71,0,0,0,0,0,0,0,0,0,-1,888,953,0,0
-329,71,0,0,0,0,0,0,0,0,0,-1,895,953,0,0
-322,71,0,0,0,0,0,0,0,0,0,-1,902,953,0,0
-315,71,0,0,0,0,0,0,0,0,0,-1,909,953,0,0
-308,71,0,0,0,0,0,0,0,0,0,-1,916,953,0,0
-301,71,0,0,0,0,0,0,0,0,0,-1,923,953,0,0
-294,71,0,0,0,0,0,0,0,0,0,-1,930,953,0,0
-287,71,0,0,0,0,0,0,0,0,0,-1,937,953,0,0
-280,71,0,0,0,0,0,0,0,0,0,-1,944,953,0,0
-273,71,0,0,0,0,0,0,0,0,0,-1,951,953,0,0
-266,71,0,0,0,0,0,0,0,0,0,-1,958,953,0,0
-259,71,0,0,0,0,0,0,0,0,0,-1,965,953,0,0
-252,71,0,0,0,0,0,0,0,0,0,-1,972,953,0,0
-245,71,0,0,0,0,0,0,0,0,0,-1,979,953,0,0
-238,71,0,0,0,0,0,0,0,0,0,-1,986,953,0,0
-231,71,0,0,0,0,0,0,0,0,0,-1,993,953,0,0
-224,71,0,0,0,0,0,0,0,0,0,-1,1000,953,0,0
-217,71,0,0,0,0,0,0,0,0,0,-1,1007,953,0,0
-210,71,0,0,0,0,0,0,0,0,0,-1,1014,953,0,0
-203,71,0,0,0,0,0,0,0,0,0,-1,1021,953,0,0
-196,71,0,0,0,0,0,0,0,0,0,-1,1028,953,0,0
-189,71,0,0,0,0,0,0,0,0,0,-1,1035,953,0,0
-182,71,0,0,0,0,0,0,0,0,0,-1,1042,953,0,0
-175,71,0,0,0,0,0,0,0,0,0,-1,1049,953,0,0
-168,71,0,0,0,0,0,0,0,0,0,-1,1056,953,0,0
-161,71,0,0,0,0,0,0,0,0,0,-1,1063,953,0,0
-154,71,0,0,0,0,0,0,0,0,0,-1,1070,953,0,0
-147,71,0,0,0,0,0,0,0,0,0,-1,1077,953,0,0
-140,71,0,0,0,0,0,0,0,0,0,-1,1084,953,0,0
-133,71,0,0,0,0,0,0,0,0,0,-1,1091,953,0,0
-126,71,0,0,0,0,0,0,0,0,0,-1,1098,953,0,0
-119,71,0,0,0,0,0,0,0,0,0,-1,1105,953,0,0
-112,71,0,0,0,0,0,0,0,0,0,-1,1112,953,0,0
-105,71,0,0,0,0,0,0,0,0,0,-1,1119,953,0,0
-98,71,0,0,0,0,0,0,0,0,0,-1,1126,953,0,0
-91,71,0,0,0,0,0,0,0,0,0,-1,1133,953,0,0
-84,71,0,0,0,0,0,0,0,0,0,-1,1140,953,0,0
-77,71,0,0,0,0,0,0,0,0,0,-1,1147,953,0,0
-70,71,0,0,0,0,0,0,0,0,0,-1,1154,953,0,0
-63,71,0,0,0,0,0,0,0,0,0,-1,1161,953,0,0
-56,71,0,0,0,0,0,0,0,0,0,-1,1168,953,0,0
-49,71,0,0,0,0,0,0,0,0,0,-1,1175,953,0,0
-42,71,0,0,0,0,0,0,0,0,0,-1,1182,953,0,0
-35,71,0,0,0,0,0,0,0,0,0,-1,1189,953,0,0
-28,71,0,0,0,0,0,0,0,0,0,-1,1196,953,0,0
-21,71,0,0,0,0,0,0,0,0,0,-1,1203,953,0,0
-14,71,0,0,0,0,0,0,0,0,0,-1,1210,953,0,0
-7,71,0,0,0,0,0,0,0,0,0,-1,1217,953,0,0
0,71,0,0,0,0,0,0,0,0,0,-1,1224,953,0,0
7,71,0,0,0,0,0,0,0,0,0,-1,1231,953,0,0
14,71,0,0,0,0,0,0,0,0,0,-1,1238,953,0,0
21,71,0,0,0,0,0,0,0,0,0,-1,1245,953,0,0
28,71,0,0,0,0,0,0,0,0,0,-1,1252,953,0,0
35,71,0,0,0,0,0,0,0,0,0,-1,1259,953,0,0
42,71,0,0,0,0,0,0,0,0,0,-1,1266,953,0,0
49,71,0,0,0,0,0,0,0,0,0,-1,1273,953,0,0
56,71,0,0,0,0,0,0,0,0,0,-1,1280,953,0,0
63,71,0,0,0,0,0,0,0,0,0,-1,1287,953,0,0
70,71,0,0,0,0,0,0,0,0,0,-1,1294,953,0,0
77,71,0,0,0,0,0,0,0,0,0,-1,1301,953,0,0
84,71,0,0,0,0,0,0,0,0,0,-1,1308,953,0,0
91,71,0,0,0,0,0,0,0,0,0,-1,1315,953,0,0
98,71,0,0,0,0,0,0,0,0,0,-1,1322,953,0,0
105,71,0,0,0,0,0,0,0,0,0,-1,1329,953,0,0
112,71,0,0,0,0,0,0,0,0,0,-1,1336,953,0,0
119,71,0,0,0,0,0,0,0,0,0,-1,1343,953,0,0
126,71,0,0,0,0,0,0,0,0,0,-1,1350,953,0,0
133,71,0,0,0,0,0,0,0,0,0,-1,1357,953,0,0
140,71,0,0,0,0,0,0,0,0,0,-1,1364,953,0,0
147,71,0,0,0,0,0,0,0,0,0,-1,1371,953,0,0
154,71,0,0,0,0,0,0,0,0,0,-1,1378,953,0,0
161,71,0,0,0,0,0,0,0,0,0,-1,1385,953,0,0
168,71,0,0,0,0,0,0,0,0,0,-1,1392,953,0,0
175,71,0,0,0,0,0,0,0,0,0,-1,1399,953,0,0
182,71,0,0,0,0,0,0,0,0,0,-1,1406,953,0,0
189,71,0,0,0,0,0,0,0,0,0,-1,1413,953,0,0
196,71,0,0,0,0,0,0,0,0,0,-1,1420,953,0,0
203,71,0,0,0,0,0,0,0,0,0,-1,1427,953,0,0
210,71,0,0,0,0,0,0,0,0,0,-1,1434,953,0,0
217,71,0,0,0,0,0,0,0,0,0,-1,1441,953,0,0
224,71,0,0,0,0,0,0,0,0,0,-1,1448,953,0,0
231,71,0,0,0,0,0,0,0,0,0,-1,1455,953,0,0
238,71,0,0,0,0,0,0,0,0,0,-1,1462,953,0,0
245,71,0,0,0,0,0,0,0,0,0,-1,1469,953,0,0
252,71,0,0,0,0,0,0,0,0,0,-1,1476,953,0,0
259,71,0,0,0,0,0,0,0,0,0,-1,1483,953,0,0
266,71,0,0,0,0,0,0,0,0,0,-1,1490,953,0,0
273,71,0,0,0,0,0,0,0,0,0,-1,1497,953,0,0
280,71,0,0,0,0,0,0,0,0,0,-1,1504,953,0,0
287,71,0,0,0,0,0,0,0,0,0,-1,1511,953,0,0
294,71,0,0,0,0,0,0,0,0,0,-1,1518,953,0,0
301,71,0,0,0,0,0,0,0,0,0,-1,1525,953,0,0
308,71,0,0,0,0,0,0,0,0,0,-1,1532,953,0,0
315,71,0,0,0,0,0,0,0,0,0,-1,1539,953,0,0
322,71,0,0,0,0,0,0,0,0,0,-1,1546,953,0,0
329,71,0,0,0,0,0,0,0,0,0,-1,1553,953,0,0
336,71,0,0,0,0,0,0,0,0,0,-1,1560,953,0,0
343,71,0,0,0,0,0,0,0,0,0,-1,1567,953,0,0
350,71,0,0,0,0,0,0,0,0,0,-1,1574,953,0,0
357,71,0,0,0,0,0,0,0,0,0,-1,1581,953,0,0
364,71,0,0,0,0,0,0,0,0,0,-1,1588,953,0,0
371,71,0,0,0,0,0,0,0,0,0,-1,1595,953,0,0
378,71,0,0,0,0,0,0,0,0,0,-1,1602,953,0,0
385,71,0,0,0,0,0,0,0,0,0,-1,1609,953,0,0
392,71,0,0,0,0,0,0,0,0,0,-1,1616,953,0,0
399,71,0,0,0,0,0,0,0,0,0,-1,1623,953,0,0
406,71,0,0,0,0,0,0,0,0,0,-1,1630,953,0,0
413,71,0,0,0,0,0,0,0,0,0,-1,1637,953,0,0
420,71,0,0,0,0,0,0,0,0,0,-1,1644,953,0,0
427,71,0,0,0,0,0,0,0,0,0,-1,1651,953,0,0
434,71,0,0,0,0,0,0,0,0,0,-1,1658,953,0,0
441,71,0,0,0,0,0,0,0,0,0,-1,1665,953,0,0
448,71,0,0,0,0,0,0,0,0,0,-1,1672,953,0,0
455,71,0,0,0,0,0,0,0,0,0,-1,1679,953,0,0
462,71,0,0,0,0,0,0,0,0,0,-1,1686,953,0,0
469,71,0,0,0,0,0,0,0,0,0,-1,1693,953,0,0
476,71,0,0,0,0,0,0,0,0,0,-1,1700,953,0,0
483,71,0,0,0,0,0,0,0,0,0,-1,1707,953,0,0
490,71,0,0,0,0,0,0,0,0,0,-1,1714,953,0,0
497,71,0,0,0,0,0,0,0,0,0,-1,1721,953,0,0
504,71,0,0,0,0,0,0,0,0,0,-1,1728,953,0,0
511,71,0,0,0,0,0,0,0,0,0,-1,1735,953,0,0
518,71,0,0,0,0,0,0,0,0,0,-1,1742,953,0,0
525,71,0,0,0,0,0,0,0,0,0,-1,1749,953,0,0
532,71,0,0,0,0,0,0,0,0,0,-1,1756,953,0,0
539,71,0,0,0,0,0,0,0,0,0,-1,1763,953,0,0
546,71,0,0,0,0,0,0,0,0,0,-1,1770,953,0,0
553,71,0,0,0,0,0,0,0,0,0,-1,1777,953,0,0
560,71,0,0,0,0,0,0,0,0,0,-1,1784,953,0,0
567,71,0,0,0,0,0,0,0,0,0,-1,1791,953,0,0
574,71,0,0,0,0,0,0,0,0,0,-1,1798,953,0,0
581,71,0,0,0,0,0,0,0,0,0,-1,1805,953,0,0
588,71,0,0,0,0,0,0,0,0,0,-1,1812,953,0,0
595,71,0,0,0,0,0,0,0,0,0,-1,1819,953,0,0
602,71,0,0,0,0,0,0,0,0,0,-1,1826,953,0,0
609,71,0,0,0,0,0,0,0,0,0,-1,1833,953,0,0
616,71,0,0,0,0,0,0,0,0,0,-1,1840,953,0,0
623,71,0,0,0,0,0,0,0,0,0,-1,1847,953,0,0
630,71,0,0,0,0,0,0,0,0,0,-1,1854,953,0,0
637,71,40.7034,2.65338,0.000239678,-0.00377054,4.40548e-05,0.000240162,-0.00377103,0.0109839,0.00259777,0.0427911,1861,953,40.7034,-2.65338
644,71,40.7958,2.53143,8.97653e-05,-0.00301902,0.00131363,0.000570504,-0.00349976,0.350824,0.00254475,0.0440042,1868,953,40.7957,-2.53141
651,71,40.9812,2.40741,4.50067e-05,-0.00251976,0.00174039,0.000924438,-0.00339919,0.467886,0.00262902,0.0426895,1875,953,40.9813,-2.40742
658,71,40.9644,2.49707,3.41369e-05,-0.00198074,0.00181022,0.00109837,-0.00304497,0.531478,0.0024786,0.0394196,1882,953,40.9643,-2.49709
665,71,40.7795,2.72058,1.0777e-05,-0.00140961,0.00181692,0.00125137,-0.0026502,0.59909,0.00230033,0.0401337,1889,953,40.7796,-2.7206
672,71,40.6157,2.75702,-0.000358914,-0.000878103,0.00183122,0.00123102,-0.00246804,0.714987,0.00217509,0.0384889,1896,953,40.6158,-2.75703
679,71,40.6455,2.74139,-0.000845516,-0.000592414,0.00189285,0.00117811,-0.00261604,0.818777,0.00224238,0.0383954,1903,953,40.6455,-2.74138
686,71,40.6968,2.59106,-0.00116392,-0.000418331,0.0018212,0.00106784,-0.00265009,0.886351,0.00221039,0.0363744,1910,953,40.6967,-2.59107
693,71,40.7692,2.4563,-0.00150979,-0.000246343,0.00180321,0.0010326,-0.00278873,0.953883,0.00228258,0.0313457,1917,953,40.7691,-2.45628
700,71,40.7444,2.4939,-0.00197426,-3.21432e-05,0.00174438,0.000993252,-0.00299966,1.03938,0.00240036,0.0332318,1924,953,40.7443,-2.49392
707,71,40.6547,2.9317,0,0,0,0,0,0,0,-1,1931,953,40.6547,-2.93172
714,71,39.1196,4.16193,0,0,0,0,0,0,0,-1,1938,953,39.1196,-4.16191
721,71,38.921,4.38269,-0.00329326,0.00112652,0.000676176,0.00122765,-0.00339439,1.42233,0.00276455,0.0388891,1945,953,38.9211,-4.38272
728,71,38.7795,4.72437,-0.00363024,0.00188829,0.000819058,0.00200729,-0.00374924,1.42652,0.00337388,0.0229815,1952,953,38.7795,-4.72439
735,71,38.8105,5.00629,-0.00372322,0.00280569,0.000813,0.0029054,-0.00382293,1.44876,0.00389663,0.0165316,1959,953,38.8106,-5.00626
742,71,38.8337,5.2511,-0.00380117,0.00401368,0.000477639,0.00404277,-0.00383025,1.50998,0.00454604,0.0166803,1966,953,38.8337,-5.25108
749,71,38.801,5.51263,-0.00352257,0.00534616,0.000151291,0.00534874,-0.00352515,1.55374,0.00515928,0.0171833,1973,953,38.801,-5.51264
756,71,38.7866,5.7486,-0.00300008,0.00713464,-0.000134637,0.00713642,-0.00300186,-1.55751,0.0060134,0.0161955,1980,953,38.7867,-5.74859
763,71,38.7478,6.00824,-0.00218735,0.00928345,-0.000256605,0.00928919,-0.00219309,-1.54844,0.00703864,0.0182957,1987,953,38.7477,-6.00824
770,71,38.6017,6.21124,-0.00116147,0.0116046,-0.000122395,0.0116058,-0.00116265,-1.56121,0.00815243,0.0214334,1994,953,38.6016,-6.21124
777,71,38.6104,6.63031,-0.000107178,0.0140065,0.000131124,0.0140078,-0.000108396,1.56151,0.00937485,0.039062,2001,953,38.6104,-6.63033
784,71,38.5247,6.69452,0,0,0,0,0,0,0,-1,2008,953,38.5246,-6.6945
791,71,38.4524,7.60022,0,0,0,0,0,0,0,-1,2015,953,38.4523,-7.60025
798,71,37.9053,7.72021,0,0,0,0,0,0,0,-1,2022,953,37.9053,-7.7202
805,71,37.8687,4.57007,0,0,0,0,0,0,0,-1,2029,953,37.8687,-4.57008
812,71,0,0,0,0,0,0,0,0,0,-1,2036,953,0,0
-700,64,0,0,0,0,0,0,0,0,0,-1,524,960,0,0
-693,64,0,0,0,0,0,0,0,0,0,-1,531,960,0,0
-686,64,-30.8605,9.4978,0,0,0,0,0,0,0,-1,538,960,-30.8605,-9.49783
-679,64,-30.4677,9.1983,0,0,0,0,0,0,0,-1,545,960,-30.4677,-9.19831
-672,64,-30.0748,8.8988,0,0,0,0,0,0,0,-1,552,960,-30.0748,-8.89879
-665,64,-28.0931,2.80725,0.0635957,0.0629013,0.00202675,0.0653047,0.0611922,0.700568,0.0422324,0.0479595,559,960,-28.0931,-2.80727
-658,64,-27.2674,3.63593,0.0475855,0.0516147,0.00170094,0.0522367,0.0469635,1.2202,0.0332066,0.046424,566,960,-27.2674,-3.63591
-651,64,-28.0047,3.71252,0.033823,0.0413234,0.00184408,0.0417523,0.0333942,1.34229,0.0255094,0.0443807,573,960,-28.0047,-3.7125
-644,64,-29.0303,3.59918,0.0226584,0.0322991,0.00206121,0.0327213,0.0222362,1.36876,0.0192935,0.0319526,580,960,-29.0304,-3.59919
-637,64,-29.0059,3.3949,0.0135708,0.0239335,0.000945377,0.024019,0.0134853,1.48056,0.0139023,0.0166139,587,960,-29.0059,-3.39488
-630,64,-29.0662,3.19415,0.00681376,0.0163785,0.000622095,0.0164188,0.00677347,1.50612,0.00952761,0.0133149,594,960,-29.0662,-3.19413
-623,64,-29.0877,2.98633,0.000719797,0.0141477,0.00105482,0.0142301,0.000637442,1.49288,0.00928154,0.0132701,601,960,-29.0877,-2.98633
-616,64,-29.1053,2.75458,-0.00305127,0.00805178,0.000761998,0.00810383,-0.00310332,1.50259,0.0066817,0.0158064,608,960,-29.1053,-2.75457
-609,64,-29.0676,2.55939,-0.00592457,0.00549127,-0.000771964,0.00554323,-0.00597653,-1.50358,0.00665251,0.0158271,615,960,-29.0676,-2.55938
-602,64,-29.0395,2.34406,-0.00716701,0.00373722,-0.00158692,0.00396348,-0.00739327,-1.42918,0.00665574,0.0171862,622,960,-29.0395,-2.34403
-595,64,-29.0625,2.12091,-0.00698505,0.00208233,-0.00236542,0.0026623,-0.00756502,-1.33035,0.00612673,0.0182482,629,960,-29.0625,-2.12093
-588,64,-29.0478,1.96698,-0.00713103,0.00133305,-0.00271572,0.00212946,-0.00792744,-1.28554,0.00611955,0.029057,636,960,-29.0478,-1.96697
-581,64,-29.3201,1.49359,-0.0073608,0.00106393,-0.00295651,0.00199792,-0.00829479,-1.26481,0.0063023,0.0405614,643,960,-29.3201,-1.4936
-574,64,-29.8359,1.04614,-0.00722924,0.0010733,-0.00334258,0.00225174,-0.00840769,-1.23185,0.0064873,0.0403085,650,960,-29.8359,-1.04617
-567,64,-29.955,0.772461,-0.00680291,0.00116902,-0.00347087,0.0024684,-0.00810229,-1.21258,0.00638539,0.0259245,657,960,-29.955,-0.772464
-560,64,-29.947,0.860779,-0.00602404,0.00139381,-0.0034106,0.00272356,-0.0073538,-1.19904,0.0060194,0.0333323,664,960,-29.947,-0.860799
-553,64,-29.9158,0.975342,-0.0046138,0.00168403,-0.00335192,0.00313414,-0.00606392,-1.16249,0.00539955,0.0390732,671,960,-29.9158,-0.975363
-546,64,-29.921,0.970093,-0.00251133,0.00196653,-0.00340895,0.00380605,-0.00435085,-1.07596,0.00471289,0.0419942,678,960,-29.921,-0.97007
-539,64,-30.1356,0.771179,0.000306744,0.00214896,-0.00380747,0.00514515,-0.00268945,-0.904079,0.00459678,0.041926,685,960,-30.1356,-0.771174
-532,64,-30.1953,0.746155,0.00364588,0.00227765,-0.00517215,0.00817896,-0.00225543,-0.719645,0.00633963,0.0430726,692,960,-30.1953,-0.746151
-525,64,-30.1791,0.578369,0.00578545,0.00255436,-0.00824523,0.0125719,-0.00423211,-0.688655,0.0100922,0.0437156,699,960,-30.1792,-0.578374
-518,64,0,0,0,0,0,0,0,0,0,-1,706,960,0,0
-511,64,0,0,0,0,0,0,0,0,0,-1,713,960,0,0
-504,64,0,0,0,0,0,0,0,0,0,-1,720,960,0,0
-497,64,0,0,0,0,0,0,0,0,0,-1,727,960,0,0
-490,64,0,0,0,0,0,0,0,0,0,-1,734,960,0,0
-483,64,0,0,0,0,0,0,0,0,0,-1,741,960,0,0
-476,64,0,0,0,0,0,0,0,0,0,-1,748,960,0,0
-469,64,0,0,0,0,0,0,0,0,0,-1,755,960,0,0
-462,64,0,0,0,0,0,0,0,0,0,-1,762,960,0,0
-455,64,0,0,0,0,0,0,0,0,0,-1,769,960,0,0
-448,64,0,0,0,0,0,0,0,0,0,-1,776,960,0,0
-441,64,0,0,0,0,0,0,0,0,0,-1,783,960,0,0
-434,64,0,0,0,0,0,0,0,0,0,-1,790,960,0,0
-427,64,0,0,0,0,0,0,0,0,0,-1,797,960,0,0
-420,64,0,0,0,0,0,0,0,0,0,-1,804,960,0,0
-413,64,0,0,0,0,0,0,0,0,0,-1,811,960,0,0
-406,64,0,0,0,0,0,0,0,0,0,-1,818,960,0,0
-399,64,0,0,0,0,0,0,0,0,0,-1,825,960,0,0
-392,64,0,0,0,0,0,0,0,0,0,-1,832,960,0,0
-385,64,0,0,0,0,0,0,0,0,0,-1,839,960,0,0
-378,64,0,0,0,0,0,0,0,0,0,-1,846,960,0,0
-371,64,0,0,0,0,0,0,0,0,0,-1,853,960,0,0
-364,64,0,0,0,0,0,0,0,0,0,-1,860,960,0,0
-357,64,0,0,0,0,0,0,0,0,0,-1,867,960,0,0
-350,64,0,0,0,0,0,0,0,0,0,-1,874,960,0,0
-343,64,0,0,0,0,0,0,0,0,0,-1,881,960,0,0
-336,64,0,0,0,0,0,0,0,0,0,-1,888,960,0,0
-329,64,0,0,0,0,0,0,0,0,0,-1,895,960,0,0
-322,64,0,0,0,0,0,0,0,0,0,-1,902,960,0,0
-315,64,0,0,0,0,0,0,0,0,0,-1,909,960,0,0
-308,64,0,0,0,0,0,0,0,0,0,-1,916,960,0,0
-301,64,0,0,0,0,0,0,0,0,0,-1,923,960,0,0
-294,64,0,0,0,0,0,0,0,0,0,-1,930,960,0,0
-287,64,0,0,0,0,0,0,0,0,0,-1,937,960,0,0
-280,64,0,0,0,0,0,0,0,0,0,-1,944,960,0,0
-273,64,0,0,0,0,0,0,0,0,0,-1,951,960,0,0
-266,64,0,0,0,0,0,0,0,0,0,-1,958,960,0,0
-259,64,0,0,0,0,0,0,0,0,0,-1,965,960,0,0
-252,64,0,0,0,0,0,0,0,0,0,-1,972,960,0,0
-245,64,0,0,0,0,0,0,0,0,0,-1,979,960,0,0
-238,64,0,0,0,0,0,0,0,0,0,-1,986,960,0,0
-231,64,0,0,0,0,0,0,0,0,0,-1,993,960,0,0
-224,64,0,0,0,0,0,0,0,0,0,-1,1000,960,0,0
-217,64,0,0,0,0,0,0,0,0,0,-1,1007,960,0,0
-210,64,0,0,0,0,0,0,0,0,0,-1,1014,960,0,0
-203,64,0,0,0,0,0,0,0,0,0,-1,1021,960,0,0
-196,64,0,0,0,0,0,0,0,0,0,-1,1028,960,0,0
-189,64,0,0,0,0,0,0,0,0,0,-1,1035,960,0,0
-182,64,0,0,0,0,0,0,0,0,0,-1,1042,960,0,0
-175,64,0,0,0,0,0,0,0,0,0,-1,1049,960,0,0
-168,64,0,0,0,0,0,0,0,0,0,-1,1056,960,0,0
-161,64,0,0,0,0,0,0,0,0,0,-1,1063,960,0,0
-154,64,0,0,0,0,0,0,0,0,0,-1,1070,960,0,0
-147,64,0,0,0,0,0,0,0,0,0,-1,1077,960,0,0
-140,64,0,0,0,0,0,0,0,0,0,-1,1084,960,0,0
-133,64,0,0,0,0,0,0,0,0,0,-1,1091,960,0,0
-126,64,0,0,0,0,0,0,0,0,0,-1,1098,960,0,0
-119,64,0,0,0,0,0,0,0,0,0,-1,1105,960,0,0
-112,64,0,0,0,0,0,0,0,0,0,-1,1112,960,0,0
-105,64,0,0,0,0,0,0,0,0,0,-1,1119,960,0,0
-98,64,0,0,0,0,0,0,0,0,0,-1,1126,960,0,0
-91,64,0,0,0,0,0,0,0,0,0,-1,1133,960,0,0
-84,64,0,0,0,0,0,0,0,0,0,-1,1140,960,0,0
-77,64,0,0,0,0,0,0,0,0,0,-1,1147,960,0,0
-70,64,0,0,0,0,0,0,0,0,0,-1,1154,960,0,0
-63,64,0,0,0,0,0,0,0,0,0,-1,1161,960,0,0
-56,64,0,0,0,0,0,0,0,0,0,-1,1168,960,0,0
-49,64,0,0,0,0,0,0,0,0,0,-1,1175,960,0,0
-42,64,0,0,0,0,0,0,0,0,0,-1,1182,960,0,0
-35,64,0,0,0,0,0,0,0,0,0,-1,1189,960,0,0
-28,64,0,0,0,0,0,0,0,0,0,-1,1196,960,0,0
-21,64,0,0,0,0,0,0,0,0,0,-1,1203,960,0,0
-14,64,0,0,0,0,0,0,0,0,0,-1,1210,960,0,0
-7,64,0,0,0,0,0,0,0,0,0,-1,1217,960,0,0
0,64,0,0,0,0,0,0,0,0,0,-1,1224,960,0,0
7,64,0,0,0,0,0,0,0,0,0,-1,1231,960,0,0
14,64,0,0,0,0,0,0,0,0,0,-1,1238,960,0,0
21,64,0,0,0,0,0,0,0,0,0,-1,1245,960,0,0
28,64,0,0,0,0,0,0,0,0,0,-1,1252,960,0,0
35,64,0,0,0,0,0,0,0,0,0,-1,1259,960,0,0
42,64,0,0,0,0,0,0,0,0,0,-1,1266,960,0,0
49,64,0,0,0,0,0,0,0,0,0,-1,1273,960,0,0
56,64,0,0,0,0,0,0,0,0,0,-1,1280,960,0,0
63,64,0,0,0,0,0,0,0,0,0,-1,1287,960,0,0
70,64,0,0,0,0,0,0,0,0,0,-1,1294,960,0,0
77,64,0,0,0,0,0,0,0,0,0,-1,1301,960,0,0
84,64,0,0,0,0,0,0,0,0,0,-1,1308,960,0,0
91,64,0,0,0,0,0,0,0,0,0,-1,1315,960,0,0
98,64,0,0,0,0,0,0,0,0,0,-1,1322,960,0,0
105,64,0,0,0,0,0,0,0,0,0,-1,1329,960,0,0
112,64,0,0,0,0,0,0,0,0,0,-1,1336,960,0,0
119,64,0,0,0,0,0,0,0,0,0,-1,1343,960,0,0
126,64,0,0,0,0,0,0,0,0,0,-1,1350,960,0,0
133,64,0,0,0,0,0,0,0,0,0,-1,1357,960,0,0
140,64,0,0,0,0,0,0,0,0,0,-1,1364,960,0,0
147,64,0,0,0,0,0,0,0,0,0,-1,1371,960,0,0
154,64,0,0,0,0,0,0,0,0,0,-1,1378,960,0,0
161,64,0,0,0,0,0,0,0,0,0,-1,1385,960,0,0
168,64,0,0,0,0,0,0,0,0,0,-1,1392,960,0,0
175,64,0,0,0,0,0,0,0,0,0,-1,1399,960,0,0
182,64,0,0,0,0,0,0,0,0,0,-1,1406,960,0,0
189,64,0,0,0,0,0,0,0,0,0,-1,1413,960,0,0
196,64,0,0,0,0,0,0,0,0,0,-1,1420,960,0,0
203,64,0,0,0,0,0,0,0,0,0,-1,1427,960,0,0
210,64,0,0,0,0,0,0,0,0,0,-1,1434,960,0,0
217,64,0,0,0,0,0,0,0,0,0,-1,1441,960,0,0
224,64,0,0,0,0,0,0,0,0,0,-1,1448,960,0,0
231,64,0,0,0,0,0,0,0,0,0,-1,1455,960,0,0
238,64,0,0,0,0,0,0,0,0,0,-1,1462,960,0,0
245,64,0,0,0,0,0,0,0,0,0,-1,1469,960,0,0
252,64,0,0,0,0,0,0,0,0,0,-1,1476,960,0,0
259,64,0,0,0,0,0,0,0,0,0,-1,1483,960,0,0
266,64,0,0,0,0,0,0,0,0,0,-1,1490,960,0,0
273,64,0,0,0,0,0,0,0,0,0,-1,1497,960,0,0
280,64,0,0,0,0,0,0,0,0,0,-1,1504,960,0,0
287,64,0,0,0,0,0,0,0,0,0,-1,1511,960,0,0
294,64,0,0,0,0,0,0,0,0,0,-1,1518,960,0,0
301,64,0,0,0,0,0,0,0,0,0,-1,1525,960,0,0
308,64,0,0,0,0,0,0,0,0,0,-1,1532,960,0,0
315,64,0,0,0,0,0,0,0,0,0,-1,1539,960,0,0
322,64,0,0,0,0,0,0,0,0,0,-1,1546,960,0,0
329,64,0,0,0,0,0,0,0,0,0,-1,1553,960,0,0
336,64,0,0,0,0,0,0,0,0,0,-1,1560,960,0,0
343,64,0,0,0,0,0,0,0,0,0,-1,1567,960,0,0
350,64,0,0,0,0,0,0,0,0,0,-1,1574,960,0,0
357,64,0,0,0,0,0,0,0,0,0,-1,1581,960,0,0
364,64,0,0,0,0,0,0,0,0,0,-1,1588,960,0,0
371,64,0,0,0,0,0,0,0,0,0,-1,1595,960,0,0
378,64,0,0,0,0,0,0,0,0,0,-1,1602,960,0,0
385,64,0,0,0,0,0,0,0,0,0,-1,1609,960,0,0
392,64,0,0,0,0,0,0,0,0,0,-1,1616,960,0,0
399,64,0,0,0,0,0,0,0,0,0,-1,1623,960,0,0
406,64,0,0,0,0,0,0,0,0,0,-1,1630,960,0,0
413,64,0,0,0,0,0,0,0,0,0,-1,1637,960,0,0
420,64,0,0,0,0,0,0,0,0,0,-1,1644,960,0,0
427,64,0,0,0,0,0,0,0,0,0,-1,1651,960,0,0
434,64,0,0,0,0,0,0,0,0,0,-1,1658,960,0,0
441,64,0,0,0,0,0,0,0,0,0,-1,1665,960,0,0
448,64,0,0,0,0,0,0,0,0,0,-1,1672,960,0,0
455,64,0,0,0,0,0,0,0,0,0,-1,1679,960,0,0
462,64,0,0,0,0,0,0,0,0,0,-1,1686,960,0,0
469,64,0,0,0,0,0,0,0,0,0,-1,1693,960,0,0
476,64,0,0,0,0,0,0,0,0,0,-1,1700,960,0,0
483,64,0,0,0,0,0,0,0,0,0,-1,1707,960,0,0
490,64,0,0,0,0,0,0,0,0,0,-1,1714,960,0,0
497,64,0,0,0,0,0,0,0,0,0,-1,1721,960,0,0
504,64,0,0,0,0,0,0,0,0,0,-1,1728,960,0,0
511,64,0,0,0,0,0,0,0,0,0,-1,1735,960,0,0
518,64,0,0,0,0,0,0,0,0,0,-1,1742,960,0,0
525,64,0,0,0,0,0,0,0,0,0,-1,1749,960,0,0
532,64,0,0,0,0,0,0,0,0,0,-1,1756,960,0,0
539,64,0,0,0,0,0,0,0,0,0,-1,1763,960,0,0
546,64,0,0,0,0,0,0,0,0,0,-1,1770,960,0,0
553,64,0,0,0,0,0,0,0,0,0,-1,1777,960,0,0
560,64,0,0,0,0,0,0,0,0,0,-1,1784,960,0,0
567,64,0,0,0,0,0,0,0,0,0,-1,1791,960,0,0
574,64,0,0,0,0,0,0,0,0,0,-1,1798,960,0,0
581,64,0,0,0,0,0,0,0,0,0,-1,1805,960,0,0
588,64,0,0,0,0,0,0,0,0,0,-1,1812,960,0,0
595,64,0,0,0,0,0,0,0,0,0,-1,1819,960,0,0
602,64,0,0,0,0,0,0,0,0,0,-1,1826,960,0,0
609,64,0,0,0,0,0,0,0,0,0,-1,1833,960,0,0
616,64,0,0,0,0,0,0,0,0,0,-1,1840,960,0,0
623,64,0,0,0,0,0,0,0,0,0,-1,1847,960,0,0
630,64,0,0,0,0,0,0,0,0,0,-1,1854,960,0,0
637,64,0,0,0,0,0,0,0,0,0,-1,1861,960,0,0
644,64,40.8301,2.52338,0.000115752,-0.00324207,0.00172712,0.000845507,-0.00397182,0.399775,0.00297011,0.0416669,1868,960,40.8301,-2.52337
651,64,41.0029,2.44769,0.000129247,-0.00265552,0.00198561,0.00116202,-0.00368829,0.47962,0.0029242,0.040679,1875,960,41.003,-2.44771
658,64,41.0208,2.6145,0.000135739,-0.00208495,0.00191039,0.00123502,-0.00318423,0.522152,0.00263288,0.0389234,1882,960,41.0208,-2.61451
665,64,40.7168,3.00891,9.66512e-05,-0.00146848,0.00185478,0.0013272,-0.00269902,0.58577,0.00236909,0.0429476,1889,960,40.7167,-3.00891
672,64,40.6356,3.04333,-0.000303975,-0.00086068,0.00186876,0.00130705,-0.00247171,0.711467,0.00221594,0.0420871,1896,960,40.6357,-3.04334
679,64,40.6478,2.85199,-0.00087519,-0.000497188,0.00197209,0.00129493,-0.00266731,0.833171,0.00233289,0.0379338,1903,960,40.6478,-2.85198
686,64,40.6738,2.63843,-0.00126919,-0.000270732,0.00197206,0.0012643,-0.00280423,0.90937,0.0024044,0.0333092,1910,960,40.6738,-2.63845
693,64,40.7427,2.52234,-0.00169112,-7.55002e-05,0.00201734,0.00128976,-0.00305638,0.975838,0.00257742,0.0307709,1917,960,40.7427,-2.52237
700,64,40.7717,2.57251,-0.0022015,0.000165055,0.00201364,0.00131735,-0.0033538,1.05104,0.00278101,0.0315975,1924,960,40.7718,-2.57248
707,64,40.7058,2.914,-0.00268216,0.000501167,0.00170229,0.00123999,-0.00342098,1.16131,0.00278749,0.0465007,1931,960,40.7058,-2.914
714,64,39.8716,4.26807,0,0,0,0,0,0,0,-1,1938,960,39.8716,-4.26809
721,64,39.2393,4.3764,-0.00364484,0.00140575,0.00108297,0.00162817,-0.00386726,1.36823,0.00325939,0.0384336,1945,960,39.2393,-4.37638
728,64,39.0309,4.72675,-0.00399488,0.00216903,0.00117977,0.00238712,-0.00421297,1.388,0.00385886,0.0191733,1952,960,39.0309,-4.72677
735,64,39.0142,5.04132,-0.00408481,0.00306327,0.00110413,0.00322993,-0.00425147,1.42098,0.00433279,0.0254737,1959,960,39.0141,-5.04133
742,64,39.1108,5.23315,-0.00425902,0.00428914,0.000742916,0.00435322,-0.00432311,1.48475,0.00500929,0.0223221,1966,960,39.1108,-5.23313
749,64,39.101,5.49445,-0.00412821,0.00557915,0.000324964,0.00559001,-0.00413908,1.53737,0.00563788,0.0152554,1973,960,39.101,-5.49444
756,64,39.0679,5.729,-0.00380108,0.00731117,-0.000107939,0.00731222,-0.00380213,-1.56108,0.00652267,0.0144558,1980,960,39.0678,-5.72897
763,64,39.045,5.97412,-0.00325188,0.00938072,-0.000439763,0.00939601,-0.00326718,-1.53604,0.00759116,0.0169586,1987,960,39.0451,-5.9741
770,64,38.8992,6.16418,-0.00253723,0.0116534,-0.000520586,0.0116725,-0.0025563,-1.53418,0.00875901,0.0176056,1994,960,38.8992,-6.16417
777,64,38.7585,6.40741,-0.00189,0.0139878,-0.000482169,0.0140025,-0.00190463,-1.54047,0.0100303,0.0325009,2001,960,38.7585,-6.40738
784,64,38.851,6.58765,-0.00111602,0.015957,-0.000461827,0.0159694,-0.0011285,-1.54377,0.0110417,0.0424357,2008,960,38.8509,-6.58766
791,64,39.1748,6.71899,0.000575075,0.0172522,-0.000956805,0.0173069,0.00052036,-1.51367,0.0113685,0.04796,2015,960,39.1749,-6.719
798,64,39.2097,6.85852,0,0,0,0,0,0,0,-1,2022,960,39.2098,-6.85851
805,64,38.4836,7.06042,0,0,0,0,0,0,0,-1,2029,960,38.4835,-7.06044
812,64,0,0,0,0,0,0,0,0,0,-1,2036,960,0,0
-700,57,0,0,0,0,0,0,0,0,0,-1,524,967,0,0
-693,57,0,0,0,0,0,0,0,0,0,-1,531,967,0,0
-686,57,-31.01,10.5828,0,0,0,0,0,0,0,-1,538,967,-31.01,-10.5827
-679,57,-30.5665,10.2428,0,0,0,0,0,0,0,-1,545,967,-30.5665,-10.2428
-672,57,-30.123,9.90283,0,0,0,0,0,0,0,-1,552,967,-30.123,-9.90284
-665,57,-27.5224,1.85645,0,0,0,0,0,0,0,-1,559,967,-27.5224,-1.85646
-658,57,-26.7366,3.18298,0,0,0,0,0,0,0,-1,566,967,-26.7365,-3.18295
-651,57,-28.5272,3.50677,0.0306047,0.0501582,0.00457394,0.0511752,0.0295876,1.352,0.0296661,0.0457617,573,967,-28.5272,-3.50678
-644,57,-29.3586,3.44434,0.0200332,0.0382137,0.00396037,0.039039,0.019208,1.36536,0.0225401,0.0315388,580,967,-29.3586,-3.44431
-637,57,-29.2512,3.2677,0.0114121,0.0276285,0.00194944,0.0278595,0.011181,1.45282,0.0161887,0.0187735,587,967,-29.2512,-3.26771
-630,57,-29.3201,3.10925,0.00519849,0.0175636,0.00109339,0.0176596,0.00510255,1.48328,0.0104942,0.0137348,594,967,-29.3201,-3.10923
-623,57,-29.3401,2.95355,-0.000188491,0.0149679,0.00118559,0.0150601,-0.000280672,1.4932,0.0101349,0.011998,601,967,-29.3401,-2.95353
-616,57,-29.3387,2.75104,-0.003171,0.00882751,0.000487307,0.00884727,-0.00319076,1.53027,0.00720138,0.0137462,608,967,-29.3387,-2.75106
-609,57,-29.3284,2.54987,-0.00541926,0.00601816,-0.0012631,0.00615599,-0.00555709,-1.46211,0.0067655,0.0147689,615,967,-29.3284,-2.54984
-602,57,-29.3024,2.3642,-0.00636384,0.00410331,-0.00228217,0.00457926,-0.00683978,-1.36519,0.00663571,0.0114366,622,967,-29.3024,-2.36422
-595,57,-29.2899,2.18347,-0.00602521,0.00231973,-0.0032014,0.00340639,-0.00711187,-1.24357,0.00619706,0.0132681,629,967,-29.2899,-2.18346
-588,57,-29.1754,2.11908,0,0,0,0,0,0,0,-1,636,967,-29.1754,-2.11908
-581,57,-29.5631,1.49176,0,0,0,0,0,0,0,-1,643,967,-29.5631,-1.49177
-574,57,-29.9509,0.864441,0,0,0,0,0,0,0,-1,650,967,-29.9509,-0.864456
-567,57,-29.9681,0.768433,-0.00555502,0.00100896,-0.00407566,0.00295979,-0.00750585,-1.12437,0.00622946,0.0324363,657,967,-29.9681,-0.768441
-560,57,-30.0305,0.699402,-0.00476862,0.0011314,-0.00374658,0.00294998,-0.00658719,-1.1189,0.00563819,0.0397926,664,967,-30.0304,-0.699396
-553,57,-29.8854,0.81604,-0.00338153,0.00130741,-0.00335663,0.00305727,-0.00513139,-1.09024,0.00477801,0.0397891,671,967,-29.8854,-0.816032
-546,57,-29.9198,0.761475,-0.00133538,0.00146228,-0.00303726,0.00340735,-0.00328045,-1.0012,0.00386143,0.0421213,678,967,-29.9198,-0.761473
-539,57,-30.0652,0.820679,0.00141735,0.00151707,-0.00307688,0.0045445,-0.00161008,-0.7935,0.00368552,0.0428927,685,967,-30.0653,-0.820686
-532,57,-30.005,0.868042,0.00461979,0.0016183,-0.0042618,0.00763737,-0.00139927,-0.616109,0.00561641,0.0406681,692,967,-30.005,-0.868031
-525,57,-30.0656,0.640076,0.00648925,0.00194997,-0.00735375,0.0119156,-0.00347642,-0.635717,0.00932122,0.0409844,699,967,-30.0655,-0.640093
-518,57,0,0,0,0,0,0,0,0,0,-1,706,967,0,0
-511,57,0,0,0,0,0,0,0,0,0,-1,713,967,0,0
-504,57,0,0,0,0,0,0,0,0,0,-1,720,967,0,0
-497,57,0,0,0,0,0,0,0,0,0,-1,727,967,0,0
-490,57,0,0,0,0,0,0,0,0,0,-1,734,967,0,0
-483,57,0,0,0,0,0,0,0,0,0,-1,741,967,0,0
-476,57,0,0,0,0,0,0,0,0,0,-1,748,967,0,0
-469,57,0,0,0,0,0,0,0,0,0,-1,755,967,0,0
-462,57,0,0,0,0,0,0,0,0,0,-1,762,967,0,0
-455,57,0,0,0,0,0,0,0,0,0,-1,769,967,0,0
-448,57,0,0,0,0,0,0,0,0,0,-1,776,967,0,0
-441,57,0,0,0,0,0,0,0,0,0,-1,783,967,0,0
-434,57,0,0,0,0,0,0,0,0,0,-1,790,967,0,0
-427,57,0,0,0,0,0,0,0,0,0,-1,797,967,0,0
-420,57,0,0,0,0,0,0,0,0,0,-1,804,967,0,0
-413,57,0,0,0,0,0,0,0,0,0,-1,811,967,0,0
-406,57,0,0,0,0,0,0,0,0,0,-1,818,967,0,0
-399,57,0,0,0,0,0,0,0,0,0,-1,825,967,0,0
-392,57,0,0,0,0,0,0,0,0,0,-1,832,967,0,0
-385,57,0,0,0,0,0,0,0,0,0,-1,839,967,0,0
-378,57,0,0,0,0,0,0,0,0,0,-1,846,967,0,0
-371,57,0,0,0,0,0,0,0,0,0,-1,853,967,0,0
-364,57,0,0,0,0,0,0,0,0,0,-1,860,967,0,0
-357,57,0,0,0,0,0,0,0,0,0,-1,867,967,0,0
-350,57,0,0,0,0,0,0,0,0,0,-1,874,967,0,0
-343,57,0,0,0,0,0,0,0,0,0,-1,881,967,0,0
-336,57,0,0,0,0,0,0,0,0,0,-1,888,967,0,0
-329,57,0,0,0,0,0,0,0,0,0,-1,895,967,0,0
-322,57,0,0,0,0,0,0,0,0,0,-1,902,967,0,0
-315,57,0,0,0,0,0,0,0,0,0,-1,909,967,0,0
-308,57,0,0,0,0,0,0,0,0,0,-1,916,967,0,0
-301,57,0,0,0,0,0,0,0,0,0,-1,923,967,0,0
-294,57,0,0,0,0,0,0,0,0,0,-1,930,967,0,0
-287,57,0,0,0,0,0,0,0,0,0,-1,937,967,0,0
-280,57,0,0,0,0,0,0,0,0,0,-1,944,967,0,0
-273,57,0,0,0,0,0,0,0,0,0,-1,951,967,0,0
-266,57,0,0,0,0,0,0,0,0,0,-1,958,967,0,0
-259,57,0,0,0,0,0,0,0,0,0,-1,965,967,0,0
-252,57,0,0,0,0,0,0,0,0,0,-1,972,967,0,0
-245,57,0,0,0,0,0,0,0,0,0,-1,979,967,0,0
-238,57,0,0,0,0,0,0,0,0,0,-1,986,967,0,0
-231,57,0,0,0,0,0,0,0,0,0,-1,993,967,0,0
-224,57,0,0,0,0,0,0,0,0,0,-1,1000,967,0,0
-217,57,0,0,0,0,0,0,0,0,0,-1,1007,967,0,0
-210,57,0,0,0,0,0,0,0,0,0,-1,1014,967,0,0
-203,57,0,0,0,0,0,0,0,0,0,-1,1021,967,0,0
-196,57,0,0,0,0,0,0,0,0,0,-1,1028,967,0,0
-189,57,0,0,0,0,0,0,0,0,0,-1,1035,967,0,0
-182,57,0,0,0,0,0,0,0,0,0,-1,1042,967,0,0
-175,57,0,0,0,0,0,0,0,0,0,-1,1049,967,0,0
-168,57,0,0,0,0,0,0,0,0,0,-1,1056,967,0,0
-161,57,0,0,0,0,0,0,0,0,0,-1,1063,967,0,0
-154,57,0,0,0,0,0,0,0,0,0,-1,1070,967,0,0
-147,57,0,0,0,0,0,0,0,0,0,-1,1077,967,0,0
-140,57,0,0,0,0,0,0,0,0,0,-1,1084,967,0,0
-133,57,0,0,0,0,0,0,0,0,0,-1,1091,967,0,0
-126,57,0,0,0,0,0,0,0,0,0,-1,1098,967,0,0
-119,57,0,0,0,0,0,0,0,0,0,-1,1105,967,0,0
-112,57,0,0,0,0,0,0,0,0,0,-1,1112,967,0,0
-105,57,0,0,0,0,0,0,0,0,0,-1,1119,967,0,0
-98,57,0,0,0,0,0,0,0,0,0,-1,1126,967,0,0
-91,57,0,0,0,0,0,0,0,0,0,-1,1133,967,0,0
-84,57,0,0,0,0,0,0,0,0,0,-1,1140,967,0,0
-77,57,0,0,0,0,0,0,0,0,0,-1,1147,967,0,0
-70,57,0,0,0,0,0,0,0,0,0,-1,1154,967,0,0
-63,57,0,0,0,0,0,0,0,0,0,-1,1161,967,0,0
-56,57,0,0,0,0,0,0,0,0,0,-1,1168,967,0,0
-49,57,0,0,0,0,0,0,0,0,0,-1,1175,967,0,0
-42,57,0,0,0,0,0,0,0,0,0,-1,1182,967,0,0
-35,57,0,0,0,0,0,0,0,0,0,-1,1189,967,0,0
-28,57,0,0,0,0,0,0,0,0,0,-1,1196,967,0,0
-21,57,0,0,0,0,0,0,0,0,0,-1,1203,967,0,0
-14,57,0,0,0,0,0,0,0,0,0,-1,1210,967,0,0
-7,57,0,0,0,0,0,0,0,0,0,-1,1217,967,0,0
0,57,0,0,0,0,0,0,0,0,0,-1,1224,967,0,0
7,57,0,0,0,0,0,0,0,0,0,-1,1231,967,0,0
14,57,0,0,0,0,0,0,0,0,0,-1,1238,967,0,0
21,57,0,0,0,0,0,0,0,0,0,-1,1245,967,0,0
28,57,0,0,0,0,0,0,0,0,0,-1,1252,967,0,0
35,57,0,0,0,0,0,0,0,0,0,-1,1259,967,0,0
42,57,0,0,0,0,0,0,0,0,0,-1,1266,967,0,0
49,57,0,0,0,0,0,0,0,0,0,-1,1273,967,0,0
56,57,0,0,0,0,0,0,0,0,0,-1,1280,967,0,0
63,57,0,0,0,0,0,0,0,0,0,-1,1287,967,0,0
70,57,0,0,0,0,0,0,0,0,0,-1,1294,967,0,0
77,57,0,0,0,0,0,0,0,0,0,-1,1301,967,0,0
84,57,0,0,0,0,0,0,0,0,0,-1,1308,967,0,0
91,57,0,0,0,0,0,0,0,0,0,-1,1315,967,0,0
98,57,0,0,0,0,0,0,0,0,0,-1,1322,967,0,0
105,57,0,0,0,0,0,0,0,0,0,-1,1329,967,0,0
112,57,0,0,0,0,0,0,0,0,0,-1,1336,967,0,0
119,57,0,0,0,0,0,0,0,0,0,-1,1343,967,0,0
126,57,0,0,0,0,0,0,0,0,0,-1,1350,967,0,0
133,57,0,0,0,0,0,0,0,0,0,-1,1357,967,0,0
140,57,0,0,0,0,0,0,0,0,0,-1,1364,967,0,0
147,57,0,0,0,0,0,0,0,0,0,-1,1371,967,0,0
154,57,0,0,0,0,0,0,0,0,0,-1,1378,967,0,0
161,57,0,0,0,0,0,0,0,0,0,-1,1385,967,0,0
168,57,0,0,0,0,0,0,0,0,0,-1,1392,967,0,0
175,57,0,0,0,0,0,0,0,0,0,-1,1399,967,0,0
182,57,0,0,0,0,0,0,0,0,0,-1,1406,967,0,0
189,57,0,0,0,0,0,0,0,0,0,-1,1413,967,0,0
196,57,0,0,0,0,0,0,0,0,0,-1,1420,967,0,0
203,57,0,0,0,0,0,0,0,0,0,-1,1427,967,0,0
210,57,0,0,0,0,0,0,0,0,0,-1,1434,967,0,0
217,57,0,0,0,0,0,0,0,0,0,-1,1441,967,0,0
224,57,0,0,0,0,0,0,0,0,0,-1,1448,967,0,0
231,57,0,0,0,0,0,0,0,0,0,-1,1455,967,0,0
238,57,0,0,0,0,0,0,0,0,0,-1,1462,967,0,0
245,57,0,0,0,0,0,0,0,0,0,-1,1469,967,0,0
252,57,0,0,0,0,0,0,0,0,0,-1,1476,967,0,0
259,57,0,0,0,0,0,0,0,0,0,-1,1483,967,0,0
266,57,0,0,0,0,0,0,0,0,0,-1,1490,967,0,0
273,57,0,0,0,0,0,0,0,0,0,-1,1497,967,0,0
280,57,0,0,0,0,0,0,0,0,0,-1,1504,967,0,0
287,57,0,0,0,0,0,0,0,0,0,-1,1511,967,0,0
294,57,0,0,0,0,0,0,0,0,0,-1,1518,967,0,0
301,57,0,0,0,0,0,0,0,0,0,-1,1525,967,0,0
308,57,0,0,0,0,0,0,0,0,0,-1,1532,967,0,0
315,57,0,0,0,0,0,0,0,0,0,-1,1539,967,0,0
322,57,0,0,0,0,0,0,0,0,0,-1,1546,967,0,0
329,57,0,0,0,0,0,0,0,0,0,-1,1553,967,0,0
336,57,0,0,0,0,0,0,0,0,0,-1,1560,967,0,0
343,57,0,0,0,0,0,0,0,0,0,-1,1567,967,0,0
350,57,0,0,0,0,0,0,0,0,0,-1,1574,967,0,0
357,57,0,0,0,0,0,0,0,0,0,-1,1581,967,0,0
364,57,0,0,0,0,0,0,0,0,0,-1,1588,967,0,0
371,57,0,0,0,0,0,0,0,0,0,-1,1595,967,0,0
378,57,0,0,0,0,0,0,0,0,0,-1,1602,967,0,0
385,57,0,0,0,0,0,0,0,0,0,-1,1609,967,0,0
392,57,0,0,0,0,0,0,0,0,0,-1,1616,967,0,0
399,57,0,0,0,0,0,0,0,0,0,-1,1623,967,0,0
406,57,0,0,0,0,0,0,0,0,0,-1,1630,967,0,0
413,57,0,0,0,0,0,0,0,0,0,-1,1637,967,0,0
420,57,0,0,0,0,0,0,0,0,0,-1,1644,967,0,0
427,57,0,0,0,0,0,0,0,0,0,-1,1651,967,0,0
434,57,0,0,0,0,0,0,0,0,0,-1,1658,967,0,0
441,57,0,0,0,0,0,0,0,0,0,-1,1665,967,0,0
448,57,0,0,0,0,0,0,0,0,0,-1,1672,967,0,0
455,57,0,0,0,0,0,0,0,0,0,-1,1679,967,0,0
462,57,0,0,0,0,0,0,0,0,0,-1,1686,967,0,0
469,57,0,0,0,0,0,0,0,0,0,-1,1693,967,0,0
476,57,0,0,0,0,0,0,0,0,0,-1,1700,967,0,0
483,57,0,0,0,0,0,0,0,0,0,-1,1707,967,0,0
490,57,0,0,0,0,0,0,0,0,0,-1,1714,967,0,0
497,57,0,0,0,0,0,0,0,0,0,-1,1721,967,0,0
504,57,0,0,0,0,0,0,0,0,0,-1,1728,967,0,0
511,57,0,0,0,0,0,0,0,0,0,-1,1735,967,0,0
518,57,0,0,0,0,0,0,0,0,0,-1,1742,967,0,0
525,57,0,0,0,0,0,0,0,0,0,-1,1749,967,0,0
532,57,0,0,0,0,0,0,0,0,0,-1,1756,967,0,0
539,57,0,0,0,0,0,0,0,0,0,-1,1763,967,0,0
546,57,0,0,0,0,0,0,0,0,0,-1,1770,967,0,0
553,57,0,0,0,0,0,0,0,0,0,-1,1777,967,0,0
560,57,0,0,0,0,0,0,0,0,0,-1,1784,967,0,0
567,57,0,0,0,0,0,0,0,0,0,-1,1791,967,0,0
574,57,0,0,0,0,0,0,0,0,0,-1,1798,967,0,0
581,57,0,0,0,0,0,0,0,0,0,-1,1805,967,0,0
588,57,0,0,0,0,0,0,0,0,0,-1,1812,967,0,0
595,57,0,0,0,0,0,0,0,0,0,-1,1819,967,0,0
602,57,0,0,0,0,0,0,0,0,0,-1,1826,967,0,0
609,57,0,0,0,0,0,0,0,0,0,-1,1833,967,0,0
616,57,0,0,0,0,0,0,0,0,0,-1,1840,967,0,0
623,57,0,0,0,0,0,0,0,0,0,-1,1847,967,0,0
630,57,0,0,0,0,0,0,0,0,0,-1,1854,967,0,0
637,57,0,0,0,0,0,0,0,0,0,-1,1861,967,0,0
644,57,40.6643,2.76154,0.00032136,-0.00367456,0.00222934,0.00131702,-0.00467022,0.420039,0.00363295,0.041745,1868,967,40.6643,-2.76152
651,57,40.8558,2.58087,0.000323847,-0.00290434,0.0022729,0.00149747,-0.00407796,0.476646,0.00333192,0.0363229,1875,967,40.8558,-2.58087
658,57,40.8585,2.87061,0.000315016,-0.00223589,0.0020265,0.00143403,-0.00335491,0.504524,0.00283807,0.0359237,1882,967,40.8586,-2.87061
665,57,40.8309,2.83899,0.000249419,-0.00153231,0.00188958,0.00144761,-0.0027305,0.565119,0.00244985,0.0438627,1889,967,40.831,-2.83898
672,57,40.8397,2.84912,-0.000177473,-0.000820375,0.00189706,0.00142517,-0.00242302,0.701472,0.00224652,0.0434229,1896,967,40.8397,-2.84915
679,57,40.6948,2.88971,-0.000824864,-0.000360027,0.00203613,0.0014569,-0.00264179,0.842226,0.00239912,0.0388011,1903,967,40.6949,-2.88974
686,57,40.7052,2.74701,-0.00130654,-6.83016e-05,0.00210604,0.00150773,-0.00288258,0.928358,0.00257584,0.0347181,1910,967,40.7052,-2.74699
693,57,40.7544,2.59955,-0.00181288,0.000145162,0.00221422,0.00158715,-0.00325486,0.993552,0.00285027,0.0302707,1917,967,40.7544,-2.59957
700,57,40.7717,2.6579,-0.00237075,0.000419133,0.00224862,0.00167035,-0.00362196,1.06302,0.003124,0.0241224,1924,967,40.7717,-2.65789
707,57,40.7456,2.87512,-0.00289462,0.000781681,0.00198279,0.00164728,-0.00376022,1.15918,0.00320048,0.0484675,1931,967,40.7457,-2.87515
714,57,40.2114,4.29352,0,0,0,0,0,0,0,-1,1938,967,40.2114,-4.29352
721,57,39.5232,4.42303,-0.00396527,0.00172662,0.00146978,0.00208375,-0.00432239,1.33244,0.00377311,0.0463235,1945,967,39.5231,-4.42302
728,57,39.2958,4.81653,-0.00437224,0.00248634,0.00151573,0.00280638,-0.00469228,1.36271,0.00437475,0.0226199,1952,967,39.2958,-4.8165
735,57,39.3372,5.09338,-0.00449819,0.00333186,0.00135228,0.00355882,-0.00472515,1.40451,0.00479853,0.0266673,1959,967,39.3371,-5.09336
742,57,39.3768,5.21686,-0.00485894,0.00456206,0.000962383,0.00465937,-0.00495624,1.47003,0.00555246,0.0195839,1966,967,39.3768,-5.21686
749,57,39.3508,5.48187,-0.0049989,0.00581408,0.000472264,0.00583466,-0.00501949,1.52723,0.00627254,0.0145012,1973,967,39.3509,-5.48189
756,57,39.3109,5.69995,-0.0049914,0.00749628,-7.00538e-05,0.00749667,-0.00499179,-1.56519,0.0072584,0.0114728,1980,967,39.3109,-5.69992
763,57,39.2668,5.91278,-0.00488585,0.00949005,-0.000567012,0.00951238,-0.00490818,-1.53144,0.00846599,0.0122527,1987,967,39.2668,-5.91278
770,57,39.1959,6.09521,-0.00473501,0.0117178,-0.000818727,0.0117585,-0.00477565,-1.5212,0.00982566,0.0115384,1994,967,39.196,-6.09519
777,57,39.1169,6.31946,-0.00483206,0.0140027,-0.000925235,0.014048,-0.0048774,-1.52183,0.0113462,0.0253757,2001,967,39.117,-6.31944
784,57,39.1832,6.46173,-0.00512988,0.0159061,-0.00106284,0.0159597,-0.00518345,-1.52044,0.0127245,0.0440821,2008,967,39.1833,-6.46175
791,57,39.2148,6.4928,-0.00487927,0.0170766,-0.00167158,0.0172031,-0.00500581,-1.49524,0.0134515,0.0497644,2015,967,39.2148,-6.4928
798,57,39.3713,6.39435,-0.00435603,0.0170568,-0.00302874,0.017477,-0.00477618,-1.43295,0.0135274,0.0496156,2022,967,39.3713,-6.39438
805,57,39.6165,6.3501,0,0,0,0,0,0,0,-1,2029,967,39.6165,-6.35011
812,57,0,0,0,0,0,0,0,0,0,-1,2036,967,0,0
-700,50,0,0,0,0,0,0,0,0,0,-1,524,974,0,0
-693,50,-32.1259,12.2709,0,0,0,0,0,0,0,-1,531,974,-32.1259,-12.2709
-686,50,-31.3412,11.8029,0.102813,0.158258,0.0279094,0.169873,0.0911976,1.17641,0.098165,0.0458052,538,974,-31.3412,-11.8029
-679,50,-30.5759,11.3273,0.0843351,0.135026,0.0197728,0.141826,0.0775347,1.23954,0.0820022,0.0488304,545,974,-30.5759,-11.3272
-672,50,-29.8117,10.8595,0,0,0,0,0,0,0,-1,552,974,-29.8117,-10.8595
-665,50,-27.1164,1.03772,0,0,0,0,0,0,0,-1,559,974,-27.1164,-1.03773
-658,50,-29.2757,3.57025,0,0,0,0,0,0,0,-1,566,974,-29.2757,-3.57028
-651,50,-29.3795,3.39856,0.0260623,0.0565657,0.00679899,0.0580126,0.0246155,1.36112,0.0336212,0.0428515,573,974,-29.3795,-3.39856
-644,50,-29.4274,3.26526,0.0166948,0.0427517,0.00556669,0.0438911,0.0155554,1.3689,0.0256961,0.0297232,580,974,-29.4274,-3.26528
-637,50,-29.4617,3.16553,0.00904612,0.0306797,0.00283776,0.0310457,0.00868007,1.44251,0.0184957,0.0172321,587,974,-29.4617,-3.16554
-630,50,-29.5235,3.06,0.00364147,0.0185268,0.00146778,0.0186702,0.00349812,1.47344,0.0114601,0.0112009,594,974,-29.5235,-3.06002
-623,50,-29.5434,2.93707,-0.00083233,0.0155632,0.00115177,0.0156437,-0.000912845,1.501,0.0107464,0.0111648,601,974,-29.5434,-2.93705
-616,50,-29.5438,2.76056,-0.00291327,0.00957186,-3.42543e-07,0.00957186,-0.00291327,-1.57077,0.00754227,0.0116989,608,974,-29.5438,-2.76059
-609,50,-29.5378,2.54633,-0.00452776,0.00656419,-0.00196915,0.0069034,-0.00486696,-1.40021,0.00682944,0.0114015,615,974,-29.5379,-2.54633
-602,50,-29.552,2.36981,-0.00518005,0.00453202,-0.00322031,0.00550277,-0.00615081,-1.27801,0.00673167,0.011705,622,974,-29.552,-2.3698
-595,50,-29.5322,2.21307,-0.00474375,0.00264655,-0.00429951,0.00462061,-0.0067178,-1.14037,0.00658345,0.0118805,629,974,-29.5322,-2.2131
-588,50,-29.5615,1.96729,-0.00464838,0.00171982,-0.00479212,0.00428924,-0.0072178,-1.07863,0.00671493,0.015817,636,974,-29.5615,-1.96726
-581,50,-29.8054,1.27594,-0.00466612,0.00133722,-0.00502999,0.00419309,-0.00752199,-1.05441,0.00685412,0.022136,643,974,-29.8054,-1.27597
-574,50,-30.0515,0.591614,0,0,0,0,0,0,0,-1,650,974,-30.0514,-0.5916
-567,50,-29.9815,0.691406,-0.00412439,0.00115684,-0.00486433,0.00405108,-0.00701863,-1.03407,0.0064672,0.0345314,657,974,-29.9815,-0.691386
-560,50,-30.0389,0.450378,-0.00340838,0.00122615,-0.00422067,0.00372383,-0.00590607,-1.03645,0.00560721,0.040433,664,974,-30.0389,-0.450366
-553,50,-29.9177,0.550049,-0.00216093,0.00135079,-0.00343345,0.0034513,-0.00426145,-1.02176,0.00446114,0.0403676,671,974,-29.9177,-0.550053
-546,50,-29.7439,0.776672,-0.000317524,0.00145825,-0.00264966,0.00336482,-0.0022241,-0.947066,0.00324909,0.0417528,678,974,-29.7439,-0.77669
-539,50,-29.7437,1.06506,0.0022109,0.0015155,-0.00223792,0.00412797,-0.000401568,-0.70833,0.00289513,0.043142,685,974,-29.7436,-1.06506
-532,50,-29.8208,0.910095,0.00513204,0.00180798,-0.00321067,0.00708536,-0.000145341,-0.546561,0.00477276,0.0409571,692,974,-29.8208,-0.910068
-525,50,-29.6664,0.532532,0.00663226,0.00246884,-0.00632104,0.0112055,-0.00210446,-0.626326,0.00826168,0.0430505,699,974,-29.6664,-0.532538
-518,50,0,0,0,0,0,0,0,0,0,-1,706,974,0,0
-511,50,0,0,0,0,0,0,0,0,0,-1,713,974,0,0
-504,50,0,0,0,0,0,0,0,0,0,-1,720,974,0,0
-497,50,0,0,0,0,0,0,0,0,0,-1,727,974,0,0
-490,50,0,0,0,0,0,0,0,0,0,-1,734,974,0,0
-483,50,0,0,0,0,0,0,0,0,0,-1,741,974,0,0
-476,50,0,0,0,0,0,0,0,0,0,-1,748,974,0,0
-469,50,0,0,0,0,0,0,0,0,0,-1,755,974,0,0
-462,50,0,0,0,0,0,0,0,0,0,-1,762,974,0,0
-455,50,0,0,0,0,0,0,0,0,0,-1,769,974,0,0
-448,50,0,0,0,0,0,0,0,0,0,-1,776,974,0,0
-441,50,0,0,0,0,0,0,0,0,0,-1,783,974,0,0
-434,50,0,0,0,0,0,0,0,0,0,-1,790,974,0,0
-427,50,0,0,0,0,0,0,0,0,0,-1,797,974,0,0
-420,50,0,0,0,0,0,0,0,0,0,-1,804,974,0,0
-413,50,0,0,0,0,0,0,0,0,0,-1,811,974,0,0
-406,50,0,0,0,0,0,0,0,0,0,-1,818,974,0,0
-399,50,0,0,0,0,0,0,0,0,0,-1,825,974,0,0
-392,50,0,0,0,0,0,0,0,0,0,-1,832,974,0,0
-385,50,0,0,0,0,0,0,0,0,0,-1,839,974,0,0
-378,50,0,0,0,0,0,0,0,0,0,-1,846,974,0,0
-371,50,0,0,0,0,0,0,0,0,0,-1,853,974,0,0
-364,50,0,0,0,0,0,0,0,0,0,-1,860,974,0,0
-357,50,0,0,0,0,0,0,0,0,0,-1,867,974,0,0
-350,50,0,0,0,0,0,0,0,0,0,-1,874,974,0,0
-343,50,0,0,0,0,0,0,0,0,0,-1,881,974,0,0
-336,50,0,0,0,0,0,0,0,0,0,-1,888,974,0,0
-329,50,0,0,0,0,0,0,0,0,0,-1,895,974,0,0
-322,50,0,0,0,0,0,0,0,0,0,-1,902,974,0,0
-315,50,0,0,0,0,0,0,0,0,0,-1,909,974,0,0
-308,50,0,0,0,0,0,0,0,0,0,-1,916,974,0,0
-301,50,0,0,0,0,0,0,0,0,0,-1,923,974,0,0
-294,50,0,0,0,0,0,0,0,0,0,-1,930,974,0,0
-287,50,0,0,0,0,0,0,0,0,0,-1,937,974,0,0
-280,50,0,0,0,0,0,0,0,0,0,-1,944,974,0,0
-273,50,0,0,0,0,0,0,0,0,0,-1,951,974,0,0
-266,50,0,0,0,0,0,0,0,0,0,-1,958,974,0,0
-259,50,0,0,0,0,0,0,0,0,0,-1,965,974,0,0
-252,50,0,0,0,0,0,0,0,0,0,-1,972,974,0,0
-245,50,0,0,0,0,0,0,0,0,0,-1,979,974,0,0
-238,50,0,0,0,0,0,0,0,0,0,-1,986,974,0,0
-231,50,0,0,0,0,0,0,0,0,0,-1,993,974,0,0
-224,50,0,0,0,0,0,0,0,0,0,-1,1000,974,0,0
-217,50,0,0,0,0,0,0,0,0,0,-1,1007,974,0,0
-210,50,0,0,0,0,0,0,0,0,0,-1,1014,974,0,0
-203,50,0,0,0,0,0,0,0,0,0,-1,1021,974,0,0
-196,50,0,0,0,0,0,0,0,0,0,-1,1028,974,0,0
-189,50,0,0,0,0,0,0,0,0,0,-1,1035,974,0,0
-182,50,0,0,0,0,0,0,0,0,0,-1,1042,974,0,0
-175,50,0,0,0,0,0,0,0,0,0,-1,1049,974,0,0
-168,50,0,0,0,0,0,0,0,0,0,-1,1056,974,0,0
-161,50,0,0,0,0,0,0,0,0,0,-1,1063,974,0,0
-154,50,0,0,0,0,0,0,0,0,0,-1,1070,974,0,0
-147,50,0,0,0,0,0,0,0,0,0,-1,1077,974,0,0
-140,50,0,0,0,0,0,0,0,0,0,-1,1084,974,0,0
-133,50,0,0,0,0,0,0,0,0,0,-1,1091,974,0,0
-126,50,0,0,0,0,0,0,0,0,0,-1,1098,974,0,0
-119,50,0,0,0,0,0,0,0,0,0,-1,1105,974,0,0
-112,50,0,0,0,0,0,0,0,0,0,-1,1112,974,0,0
-105,50,0,0,0,0,0,0,0,0,0,-1,1119,974,0,0
-98,50,0,0,0,0,0,0,0,0,0,-1,1126,974,0,0
-91,50,0,0,0,0,0,0,0,0,0,-1,1133,974,0,0
-84,50,0,0,0,0,0,0,0,0,0,-1,1140,974,0,0
-77,50,0,0,0,0,0,0,0,0,0,-1,1147,974,0,0
-70,50,0,0,0,0,0,0,0,0,0,-1,1154,974,0,0
-63,50,0,0,0,0,0,0,0,0,0,-1,1161,974,0,0
-56,50,0,0,0,0,0,0,0,0,0,-1,1168,974,0,0
-49,50,0,0,0,0,0,0,0,0,0,-1,1175,974,0,0
-42,50,0,0,0,0,0,0,0,0,0,-1,1182,974,0,0
-35,50,0,0,0,0,0,0,0,0,0,-1,1189,974,0,0
-28,50,0,0,0,0,0,0,0,0,0,-1,1196,974,0,0
-21,50,0,0,0,0,0,0,0,0,0,-1,1203,974,0,0
-14,50,0,0,0,0,0,0,0,0,0,-1,1210,974,0,0
-7,50,0,0,0,0,0,0,0,0,0,-1,1217,974,0,0
0,50,0,0,0,0,0,0,0,0,0,-1,1224,974,0,0
7,50,0,0,0,0,0,0,0,0,0,-1,1231,974,0,0
14,50,0,0,0,0,0,0,0,0,0,-1,1238,974,0,0
21,50,0,0,0,0,0,0,0,0,0,-1,1245,974,0,0
28,50,0,0,0,0,0,0,0,0,0,-1,1252,974,0,0
35,50,0,0,0,0,0,0,0,0,0,-1,1259,974,0,0
42,50,0,0,0,0,0,0,0,0,0,-1,1266,974,0,0
49,50,0,0,0,0,0,0,0,0,0,-1,1273,974,0,0
56,50,0,0,0,0,0,0,0,0,0,-1,1280,974,0,0
63,50,0,0,0,0,0,0,0,0,0,-1,1287,974,0,0
70,50,0,0,0,0,0,0,0,0,0,-1,1294,974,0,0
77,50,0,0,0,0,0,0,0,0,0,-1,1301,974,0,0
84,50,0,0,0,0,0,0,0,0,0,-1,1308,974,0,0
91,50,0,0,0,0,0,0,0,0,0,-1,1315,974,0,0
98,50,0,0,0,0,0,0,0,0,0,-1,1322,974,0,0
105,50,0,0,0,0,0,0,0,0,0,-1,1329,974,0,0
112,50,0,0,0,0,0,0,0,0,0,-1,1336,974,0,0
119,50,0,0,0,0,0,0,0,0,0,-1,1343,974,0,0
126,50,0,0,0,0,0,0,0,0,0,-1,1350,974,0,0
133,50,0,0,0,0,0,0,0,0,0,-1,1357,974,0,0
140,50,0,0,0,0,0,0,0,0,0,-1,1364,974,0,0
147,50,0,0,0,0,0,0,0,0,0,-1,1371,974,0,0
154,50,0,0,0,0,0,0,0,0,0,-1,1378,974,0,0
161,50,0,0,0,0,0,0,0,0,0,-1,1385,974,0,0
168,50,0,0,0,0,0,0,0,0,0,-1,1392,974,0,0
175,50,0,0,0,0,0,0,0,0,0,-1,1399,974,0,0
182,50,0,0,0,0,0,0,0,0,0,-1,1406,974,0,0
189,50,0,0,0,0,0,0,0,0,0,-1,1413,974,0,0
196,50,0,0,0,0,0,0,0,0,0,-1,1420,974,0,0
203,50,0,0,0,0,0,0,0,0,0,-1,1427,974,0,0
210,50,0,0,0,0,0,0,0,0,0,-1,1434,974,0,0
217,50,0,0,0,0,0,0,0,0,0,-1,1441,974,0,0
224,50,0,0,0,0,0,0,0,0,0,-1,1448,974,0,0
231,50,0,0,0,0,0,0,0,0,0,-1,1455,974,0,0
238,50,0,0,0,0,0,0,0,0,0,-1,1462,974,0,0
245,50,0,0,0,0,0,0,0,0,0,-1,1469,974,0,0
252,50,0,0,0,0,0,0,0,0,0,-1,1476,974,0,0
259,50,0,0,0,0,0,0,0,0,0,-1,1483,974,0,0
266,50,0,0,0,0,0,0,0,0,0,-1,1490,974,0,0
273,50,0,0,0,0,0,0,0,0,0,-1,1497,974,0,0
280,50,0,0,0,0,0,0,0,0,0,-1,1504,974,0,0
287,50,0,0,0,0,0,0,0,0,0,-1,1511,974,0,0
294,50,0,0,0,0,0,0,0,0,0,-1,1518,974,0,0
301,50,0,0,0,0,0,0,0,0,0,-1,1525,974,0,0
308,50,0,0,0,0,0,0,0,0,0,-1,1532,974,0,0
315,50,0,0,0,0,0,0,0,0,0,-1,1539,974,0,0
322,50,0,0,0,0,0,0,0,0,0,-1,1546,974,0,0
329,50,0,0,0,0,0,0,0,0,0,-1,1553,974,0,0
336,50,0,0,0,0,0,0,0,0,0,-1,1560,974,0,0
343,50,0,0,0,0,0,0,0,0,0,-1,1567,974,0,0
350,50,0,0,0,0,0,0,0,0,0,-1,1574,974,0,0
357,50,0,0,0,0,0,0,0,0,0,-1,1581,974,0,0
364,50,0,0,0,0,0,0,0,0,0,-1,1588,974,0,0
371,50,0,0,0,0,0,0,0,0,0,-1,1595,974,0,0
378,50,0,0,0,0,0,0,0,0,0,-1,1602,974,0,0
385,50,0,0,0,0,0,0,0,0,0,-1,1609,974,0,0
392,50,0,0,0,0,0,0,0,0,0,-1,1616,974,0,0
399,50,0,0,0,0,0,0,0,0,0,-1,1623,974,0,0
406,50,0,0,0,0,0,0,0,0,0,-1,1630,974,0,0
413,50,0,0,0,0,0,0,0,0,0,-1,1637,974,0,0
420,50,0,0,0,0,0,0,0,0,0,-1,1644,974,0,0
427,50,0,0,0,0,0,0,0,0,0,-1,1651,974,0,0
434,50,0,0,0,0,0,0,0,0,0,-1,1658,974,0,0
441,50,0,0,0,0,0,0,0,0,0,-1,1665,974,0,0
448,50,0,0,0,0,0,0,0,0,0,-1,1672,974,0,0
455,50,0,0,0,0,0,0,0,0,0,-1,1679,974,0,0
462,50,0,0,0,0,0,0,0,0,0,-1,1686,974,0,0
469,50,0,0,0,0,0,0,0,0,0,-1,1693,974,0,0
476,50,0,0,0,0,0,0,0,0,0,-1,1700,974,0,0
483,50,0,0,0,0,0,0,0,0,0,-1,1707,974,0,0
490,50,0,0,0,0,0,0,0,0,0,-1,1714,974,0,0
497,50,0,0,0,0,0,0,0,0,0,-1,1721,974,0,0
504,50,0,0,0,0,0,0,0,0,0,-1,1728,974,0,0
511,50,0,0,0,0,0,0,0,0,0,-1,1735,974,0,0
518,50,0,0,0,0,0,0,0,0,0,-1,1742,974,0,0
525,50,0,0,0,0,0,0,0,0,0,-1,1749,974,0,0
532,50,0,0,0,0,0,0,0,0,0,-1,1756,974,0,0
539,50,0,0,0,0,0,0,0,0,0,-1,1763,974,0,0
546,50,0,0,0,0,0,0,0,0,0,-1,1770,974,0,0
553,50,0,0,0,0,0,0,0,0,0,-1,1777,974,0,0
560,50,0,0,0,0,0,0,0,0,0,-1,1784,974,0,0
567,50,0,0,0,0,0,0,0,0,0,-1,1791,974,0,0
574,50,0,0,0,0,0,0,0,0,0,-1,1798,974,0,0
581,50,0,0,0,0,0,0,0,0,0,-1,1805,974,0,0
588,50,0,0,0,0,0,0,0,0,0,-1,1812,974,0,0
595,50,0,0,0,0,0,0,0,0,0,-1,1819,974,0,0
602,50,0,0,0,0,0,0,0,0,0,-1,1826,974,0,0
609,50,0,0,0,0,0,0,0,0,0,-1,1833,974,0,0
616,50,0,0,0,0,0,0,0,0,0,-1,1840,974,0,0
623,50,0,0,0,0,0,0,0,0,0,-1,1847,974,0,0
630,50,0,0,0,0,0,0,0,0,0,-1,1854,974,0,0
637,50,0,0,0,0,0,0,0,0,0,-1,1861,974,0,0
644,50,40.7615,2.64954,0.000330741,-0.00382002,0.0024225,0.0014453,-0.00493458,0.431209,0.00386269,0.0392243,1868,974,40.7615,-2.64952
651,50,40.6667,2.51843,0.000316555,-0.00278381,0.00230379,0.00154315,-0.00401041,0.489251,0.00331014,0.0341831,1875,974,40.6667,-2.51846
658,50,40.7747,2.69971,0.000313489,-0.00199785,0.00193548,0.00141207,-0.00309644,0.516257,0.00266285,0.0397137,1882,974,40.7747,-2.69968
665,50,40.8387,2.6582,0.000259268,-0.00124251,0.00174948,0.00141219,-0.00239544,0.582683,0.00222263,0.0409615,1889,974,40.8388,-2.65821
672,50,40.8932,2.62848,-0.000137255,-0.00047795,0.00177926,0.00147979,-0.00209499,0.737673,0.00207406,0.0399743,1896,974,40.8932,-2.62849
679,50,40.781,2.79834,-0.000801322,3.96657e-05,0.00197407,0.00163753,-0.00239918,0.890334,0.00234439,0.038278,1903,974,40.781,-2.79834
686,50,40.7505,2.79553,-0.0013242,0.000361147,0.00213218,0.00181114,-0.00277419,0.973586,0.00266673,0.0390857,1910,974,40.7504,-2.79552
693,50,40.73,2.70343,-0.00186034,0.000578014,0.0023017,0.00196349,-0.00324581,1.02895,0.00303781,0.037442,1917,974,40.73,-2.70345
700,50,40.7296,2.68958,-0.00240421,0.00085206,0.00237411,0.00210268,-0.00365482,1.08596,0.00336412,0.0207864,1924,974,40.7296,-2.6896
707,50,40.7589,2.69989,-0.00292358,0.00119518,0.00216264,0.00212211,-0.00385051,1.16587,0.0034961,0.0352987,1931,974,40.7589,-2.6999
714,50,40.3926,3.77753,0,0,0,0,0,0,0,-1,1938,974,40.3926,-3.77753
721,50,39.7682,4.51965,-0.00405159,0.00206533,0.00175799,0.00253458,-0.00452083,1.30996,0.0041269,0.0444309,1945,974,39.7681,-4.51967
728,50,39.5648,4.80707,-0.00451311,0.00280972,0.00175173,0.00320718,-0.00491058,1.34767,0.00472106,0.0223199,1952,974,39.5649,-4.80709
735,50,39.6216,5.00897,-0.00471631,0.00360957,0.0015013,0.003872,-0.00497875,1.39774,0.00512328,0.0192401,1959,974,39.6216,-5.009
742,50,39.6179,5.21985,-0.00534321,0.00487343,0.00106746,0.00498377,-0.00545355,1.4678,0.00602802,0.0150656,1966,974,39.6179,-5.21983
749,50,39.5959,5.40442,-0.00587183,0.00608834,0.00051701,0.00611064,-0.00589413,1.52768,0.00693134,0.0164504,1973,974,39.596,-5.40439
756,50,39.5699,5.62421,-0.00631418,0.007769,-0.000105712,0.0077698,-0.00631498,-1.56329,0.0081463,0.0133674,1980,974,39.57,-5.62423
763,50,39.5197,5.8363,-0.00686184,0.00976823,-0.000742458,0.00980131,-0.00689493,-1.52627,0.00968814,0.0129258,1987,974,39.5196,-5.83632
770,50,39.4633,6.00531,-0.00758046,0.0120542,-0.00116441,0.0121231,-0.00764927,-1.51177,0.0115126,0.0118202,1994,974,39.4632,-6.00533
777,50,39.4255,6.24438,-0.00878077,0.0144401,-0.001424,0.0145271,-0.00886777,-1.50978,0.0136382,0.0225744,2001,974,39.4255,-6.24438
784,50,39.4474,6.40253,-0.0105765,0.0164781,-0.00172772,0.0165879,-0.0106864,-1.50728,0.0158693,0.0397506,2008,974,39.4474,-6.40253
791,50,39.3306,6.49664,-0.0122496,0.0177918,-0.00245715,0.0179914,-0.0124492,-1.48972,0.0176718,0.0451957,2015,974,39.3306,-6.49663
798,50,39.4282,6.48444,-0.014086,0.0178871,-0.00385959,0.0183464,-0.0145453,-1.45235,0.0190323,0.0471458,2022,974,39.4283,-6.48441
805,50,39.6565,6.60431,0,0,0,0,0,0,0,-1,2029,974,39.6566,-6.60433
812,50,0,0,0,0,0,0,0,0,0,-1,2036,974,0,0
-700,43,0,0,0,0,0,0,0,0,0,-1,524,981,0,0
-693,43,-31.7824,7.16602,0.10718,0.204844,0.0463206,0.223318,0.0887052,1.19129,0.129838,0.0462685,531,981,-31.7824,-7.16604
-686,43,-31.5103,12.8786,0.0879671,0.17493,0.0319328,0.185396,0.077501,1.25408,0.107517,0.0448728,538,981,-31.5103,-12.8786
-679,43,-30.6993,12.3813,0.0704877,0.147015,0.0229986,0.153394,0.0641079,1.3002,0.0889591,0.0491637,545,981,-30.6993,-12.3813
-672,43,-29.8665,11.6414,0,0,0,0,0,0,0,-1,552,981,-29.8665,-11.6414
-665,43,-29.7322,4.34332,0,0,0,0,0,0,0,-1,559,981,-29.7323,-4.34334
-658,43,-29.7234,3.89569,0.0292779,0.0779878,0.0100857,0.0799935,0.0272722,1.37449,0.0469569,0.0477808,566,981,-29.7234,-3.89572
-651,43,-29.5657,3.44806,0.0194411,0.0601603,0.00806845,0.0617007,0.0179006,1.38214,0.0366541,0.0395378,573,981,-29.5658,-3.44809
-644,43,-29.6343,3.25092,0.0117838,0.0451568,0.00641837,0.0463487,0.010592,1.3872,0.0280433,0.0237497,580,981,-29.6343,-3.25092
-637,43,-29.6776,3.11023,0.00555893,0.0322194,0.0032185,0.0326025,0.00517589,1.45234,0.0202316,0.0178299,587,981,-29.6776,-3.11021
-630,43,-29.7044,2.99493,0.00129773,0.0185164,0.00147138,0.0186413,0.0011729,1.48616,0.0120556,0.0143829,594,981,-29.7044,-2.99492
-623,43,-29.7199,2.88141,-0.00196732,0.0152932,0.000766955,0.0153272,-0.00200133,1.52648,0.0109464,0.0118718,601,981,-29.7199,-2.88138
-616,43,-29.7101,2.71448,-0.00295344,0.00974744,-0.000745541,0.00979106,-0.00299705,-1.51236,0.00772273,0.0108093,608,981,-29.7101,-2.71446
-609,43,-29.7073,2.54962,-0.00362295,0.00677545,-0.00283752,0.00749936,-0.00434686,-1.321,0.00691967,0.0133476,615,981,-29.7073,-2.54963
-602,43,-29.7108,2.39514,-0.00385743,0.00483305,-0.00422606,0.00654922,-0.0055736,-1.18505,0.00700666,0.0159158,622,981,-29.7107,-2.39513
-595,43,-29.7319,2.27014,-0.00331218,0.00295542,-0.00543355,0.00609412,-0.00645087,-1.04697,0.00724383,0.0142457,629,981,-29.7319,-2.27012
-588,43,-29.725,1.87769,-0.00310779,0.0020159,-0.00599285,0.00597152,-0.00706341,-0.987384,0.00753452,0.0184808,636,981,-29.725,-1.87767
-581,43,-29.8431,1.15869,-0.00303487,0.00161966,-0.00617307,0.00588959,-0.0073048,-0.965661,0.00763237,0.0244824,643,981,-29.8431,-1.1587
-574,43,-29.9332,0.885071,-0.00287066,0.00141879,-0.00617301,0.00580904,-0.00726091,-0.952592,0.00756144,0.0273731,650,981,-29.9331,-0.885078
-567,43,-29.8613,0.762573,-0.00262494,0.00130936,-0.00555062,0.0052311,-0.00654668,-0.955694,0.00681403,0.0344573,657,981,-29.8613,-0.762574
-560,43,-29.7934,0.565308,-0.0020702,0.00128756,-0.00454064,0.00444976,-0.0052324,-0.962476,0.00559608,0.0376571,664,981,-29.7934,-0.565314
-553,43,-29.7764,0.642883,-0.00108749,0.00131256,-0.00329158,0.00361604,-0.00339097,-0.960198,0.00404619,0.0401731,671,981,-29.7764,-0.642884
-546,43,-29.6666,0.755737,0.00040098,0.00131976,-0.00196774,0.00288103,-0.00116028,-0.900075,0.00240272,0.043309,678,981,-29.6665,-0.755765
-539,43,-29.6703,1.0744,0.00253875,0.00135011,-0.00104012,0.00314237,0.000746488,-0.525836,0.00189573,0.044876,685,981,-29.6703,-1.07439
-532,43,-29.7744,1.35114,0,0,0,0,0,0,0,-1,692,981,-29.7743,-1.35114
-525,43,-29.4761,0.551697,0,0,0,0,0,0,0,-1,699,981,-29.4761,-0.551673
-518,43,0,0,0,0,0,0,0,0,0,-1,706,981,0,0
-511,43,0,0,0,0,0,0,0,0,0,-1,713,981,0,0
-504,43,0,0,0,0,0,0,0,0,0,-1,720,981,0,0
-497,43,0,0,0,0,0,0,0,0,0,-1,727,981,0,0
-490,43,0,0,0,0,0,0,0,0,0,-1,734,981,0,0
-483,43,0,0,0,0,0,0,0,0,0,-1,741,981,0,0
-476,43,0,0,0,0,0,0,0,0,0,-1,748,981,0,0
-469,43,0,0,0,0,0,0,0,0,0,-1,755,981,0,0
-462,43,0,0,0,0,0,0,0,0,0,-1,762,981,0,0
-455,43,0,0,0,0,0,0,0,0,0,-1,769,981,0,0
-448,43,0,0,0,0,0,0,0,0,0,-1,776,981,0,0
-441,43,0,0,0,0,0,0,0,0,0,-1,783,981,0,0
-434,43,0,0,0,0,0,0,0,0,0,-1,790,981,0,0
-427,43,0,0,0,0,0,0,0,0,0,-1,797,981,0,0
-420,43,0,0,0,0,0,0,0,0,0,-1,804,981,0,0
-413,43,0,0,0,0,0,0,0,0,0,-1,811,981,0,0
-406,43,0,0,0,0,0,0,0,0,0,-1,818,981,0,0
-399,43,0,0,0,0,0,0,0,0,0,-1,825,981,0,0
-392,43,0,0,0,0,0,0,0,0,0,-1,832,981,0,0
-385,43,0,0,0,0,0,0,0,0,0,-1,839,981,0,0
-378,43,0,0,0,0,0,0,0,0,0,-1,846,981,0,0
-371,43,0,0,0,0,0,0,0,0,0,-1,853,981,0,0
-364,43,0,0,0,0,0,0,0,0,0,-1,860,981,0,0
-357,43,0,0,0,0,0,0,0,0,0,-1,867,981,0,0
-350,43,0,0,0,0,0,0,0,0,0,-1,874,981,0,0
-343,43,0,0,0,0,0,0,0,0,0,-1,881,981,0,0
-336,43,0,0,0,0,0,0,0,0,0,-1,888,981,0,0
-329,43,0,0,0,0,0,0,0,0,0,-1,895,981,0,0
-322,43,0,0,0,0,0,0,0,0,0,-1,902,981,0,0
-315,43,0,0,0,0,0,0,0,0,0,-1,909,981,0,0
-308,43,0,0,0,0,0,0,0,0,0,-1,916,981,0,0
-301,43,0,0,0,0,0,0,0,0,0,-1,923,981,0,0
-294,43,0,0,0,0,0,0,0,0,0,-1,930,981,0,0
-287,43,0,0,0,0,0,0,0,0,0,-1,937,981,0,0
-280,43,0,0,0,0,0,0,0,0,0,-1,944,981,0,0
-273,43,0,0,0,0,0,0,0,0,0,-1,951,981,0,0
-266,43,0,0,0,0,0,0,0,0,0,-1,958,981,0,0
-259,43,0,0,0,0,0,0,0,0,0,-1,965,981,0,0
-252,43,0,0,0,0,0,0,0,0,0,-1,972,981,0,0
-245,43,0,0,0,0,0,0,0,0,0,-1,979,981,0,0
-238,43,0,0,0,0,0,0,0,0,0,-1,986,981,0,0
-231,43,0,0,0,0,0,0,0,0,0,-1,993,981,0,0
-224,43,0,0,0,0,0,0,0,0,0,-1,1000,981,0,0
-217,43,0,0,0,0,0,0,0,0,0,-1,1007,981,0,0
-210,43,0,0,0,0,0,0,0,0,0,-1,1014,981,0,0
-203,43,0,0,0,0,0,0,0,0,0,-1,1021,981,0,0
-196,43,0,0,0,0,0,0,0,0,0,-1,1028,981,0,0
-189,43,0,0,0,0,0,0,0,0,0,-1,1035,981,0,0
-182,43,0,0,0,0,0,0,0,0,0,-1,1042,981,0,0
-175,43,0,0,0,0,0,0,0,0,0,-1,1049,981,0,0
-168,43,0,0,0,0,0,0,0,0,0,-1,1056,981,0,0
-161,43,0,0,0,0,0,0,0,0,0,-1,1063,981,0,0
-154,43,0,0,0,0,0,0,0,0,0,-1,1070,981,0,0
-147,43,0,0,0,0,0,0,0,0,0,-1,1077,981,0,0
-140,43,0,0,0,0,0,0,0,0,0,-1,1084,981,0,0
-133,43,0,0,0,0,0,0,0,0,0,-1,1091,981,0,0
-126,43,0,0,0,0,0,0,0,0,0,-1,1098,981,0,0
-119,43,0,0,0,0,0,0,0,0,0,-1,1105,981,0,0
-112,43,0,0,0,0,0,0,0,0,0,-1,1112,981,0,0
-105,43,0,0,0,0,0,0,0,0,0,-1,1119,981,0,0
-98,43,0,0,0,0,0,0,0,0,0,-1,1126,981,0,0
-91,43,0,0,0,0,0,0,0,0,0,-1,1133,981,0,0
-84,43,0,0,0,0,0,0,0,0,0,-1,1140,981,0,0
-77,43,0,0,0,0,0,0,0,0,0,-1,1147,981,0,0
-70,43,0,0,0,0,0,0,0,0,0,-1,1154,981,0,0
-63,43,0,0,0,0,0,0,0,0,0,-1,1161,981,0,0
-56,43,0,0,0,0,0,0,0,0,0,-1,1168,981,0,0
-49,43,0,0,0,0,0,0,0,0,0,-1,1175,981,0,0
-42,43,0,0,0,0,0,0,0,0,0,-1,1182,981,0,0
-35,43,0,0,0,0,0,0,0,0,0,-1,1189,981,0,0
-28,43,0,0,0,0,0,0,0,0,0,-1,1196,981,0,0
-21,43,0,0,0,0,0,0,0,0,0,-1,1203,981,0,0
-14,43,0,0,0,0,0,0,0,0,0,-1,1210,981,0,0
-7,43,0,0,0,0,0,0,0,0,0,-1,1217,981,0,0
0,43,0,0,0,0,0,0,0,0,0,-1,1224,981,0,0
7,43,0,0,0,0,0,0,0,0,0,-1,1231,981,0,0
14,43,0,0,0,0,0,0,0,0,0,-1,1238,981,0,0
21,43,0,0,0,0,0,0,0,0,0,-1,1245,981,0,0
28,43,0,0,0,0,0,0,0,0,0,-1,1252,981,0,0
35,43,0,0,0,0,0,0,0,0,0,-1,1259,981,0,0
42,43,0,0,0,0,0,0,0,0,0,-1,1266,981,0,0
49,43,0,0,0,0,0,0,0,0,0,-1,1273,981,0,0
56,43,0,0,0,0,0,0,0,0,0,-1,1280,981,0,0
63,43,0,0,0,0,0,0,0,0,0,-1,1287,981,0,0
70,43,0,0,0,0,0,0,0,0,0,-1,1294,981,0,0
77,43,0,0,0,0,0,0,0,0,0,-1,1301,981,0,0
84,43,0,0,0,0,0,0,0,0,0,-1,1308,981,0,0
91,43,0,0,0,0,0,0,0,0,0,-1,1315,981,0,0
98,43,0,0,0,0,0,0,0,0,0,-1,1322,981,0,0
105,43,0,0,0,0,0,0,0,0,0,-1,1329,981,0,0
112,43,0,0,0,0,0,0,0,0,0,-1,1336,981,0,0
119,43,0,0,0,0,0,0,0,0,0,-1,1343,981,0,0
126,43,0,0,0,0,0,0,0,0,0,-1,1350,981,0,0
133,43,0,0,0,0,0,0,0,0,0,-1,1357,981,0,0
140,43,0,0,0,0,0,0,0,0,0,-1,1364,981,0,0
147,43,0,0,0,0,0,0,0,0,0,-1,1371,981,0,0
154,43,0,0,0,0,0,0,0,0,0,-1,1378,981,0,0
161,43,0,0,0,0,0,0,0,0,0,-1,1385,981,0,0
168,43,0,0,0,0,0,0,0,0,0,-1,1392,981,0,0
175,43,0,0,0,0,0,0,0,0,0,-1,1399,981,0,0
182,43,0,0,0,0,0,0,0,0,0,-1,1406,981,0,0
189,43,0,0,0,0,0,0,0,0,0,-1,1413,981,0,0
196,43,0,0,0,0,0,0,0,0,0,-1,1420,981,0,0
203,43,0,0,0,0,0,0,0,0,0,-1,1427,981,0,0
210,43,0,0,0,0,0,0,0,0,0,-1,1434,981,0,0
217,43,0,0,0,0,0,0,0,0,0,-1,1441,981,0,0
224,43,0,0,0,0,0,0,0,0,0,-1,1448,981,0,0
231,43,0,0,0,0,0,0,0,0,0,-1,1455,981,0,0
238,43,0,0,0,0,0,0,0,0,0,-1,1462,981,0,0
245,43,0,0,0,0,0,0,0,0,0,-1,1469,981,0,0
252,43,0,0,0,0,0,0,0,0,0,-1,1476,981,0,0
259,43,0,0,0,0,0,0,0,0,0,-1,1483,981,0,0
266,43,0,0,0,0,0,0,0,0,0,-1,1490,981,0,0
273,43,0,0,0,0,0,0,0,0,0,-1,1497,981,0,0
280,43,0,0,0,0,0,0,0,0,0,-1,1504,981,0,0
287,43,0,0,0,0,0,0,0,0,0,-1,1511,981,0,0
294,43,0,0,0,0,0,0,0,0,0,-1,1518,981,0,0
301,43,0,0,0,0,0,0,0,0,0,-1,1525,981,0,0
308,43,0,0,0,0,0,0,0,0,0,-1,1532,981,0,0
315,43,0,0,0,0,0,0,0,0,0,-1,1539,981,0,0
322,43,0,0,0,0,0,0,0,0,0,-1,1546,981,0,0
329,43,0,0,0,0,0,0,0,0,0,-1,1553,981,0,0
336,43,0,0,0,0,0,0,0,0,0,-1,1560,981,0,0
343,43,0,0,0,0,0,0,0,0,0,-1,1567,981,0,0
350,43,0,0,0,0,0,0,0,0,0,-1,1574,981,0,0
357,43,0,0,0,0,0,0,0,0,0,-1,1581,981,0,0
364,43,0,0,0,0,0,0,0,0,0,-1,1588,981,0,0
371,43,0,0,0,0,0,0,0,0,0,-1,1595,981,0,0
378,43,0,0,0,0,0,0,0,0,0,-1,1602,981,0,0
385,43,0,0,0,0,0,0,0,0,0,-1,1609,981,0,0
392,43,0,0,0,0,0,0,0,0,0,-1,1616,981,0,0
399,43,0,0,0,0,0,0,0,0,0,-1,1623,981,0,0
406,43,0,0,0,0,0,0,0,0,0,-1,1630,981,0,0
413,43,0,0,0,0,0,0,0,0,0,-1,1637,981,0,0
420,43,0,0,0,0,0,0,0,0,0,-1,1644,981,0,0
427,43,0,0,0,0,0,0,0,0,0,-1,1651,981,0,0
434,43,0,0,0,0,0,0,0,0,0,-1,1658,981,0,0
441,43,0,0,0,0,0,0,0,0,0,-1,1665,981,0,0
448,43,0,0,0,0,0,0,0,0,0,-1,1672,981,0,0
455,43,0,0,0,0,0,0,0,0,0,-1,1679,981,0,0
462,43,0,0,0,0,0,0,0,0,0,-1,1686,981,0,0
469,43,0,0,0,0,0,0,0,0,0,-1,1693,981,0,0
476,43,0,0,0,0,0,0,0,0,0,-1,1700,981,0,0
483,43,0,0,0,0,0,0,0,0,0,-1,1707,981,0,0
490,43,0,0,0,0,0,0,0,0,0,-1,1714,981,0,0
497,43,0,0,0,0,0,0,0,0,0,-1,1721,981,0,0
504,43,0,0,0,0,0,0,0,0,0,-1,1728,981,0,0
511,43,0,0,0,0,0,0,0,0,0,-1,1735,981,0,0
518,43,0,0,0,0,0,0,0,0,0,-1,1742,981,0,0
525,43,0,0,0,0,0,0,0,0,0,-1,1749,981,0,0
532,43,0,0,0,0,0,0,0,0,0,-1,1756,981,0,0
539,43,0,0,0,0,0,0,0,0,0,-1,1763,981,0,0
546,43,0,0,0,0,0,0,0,0,0,-1,1770,981,0,0
553,43,0,0,0,0,0,0,0,0,0,-1,1777,981,0,0
560,43,0,0,0,0,0,0,0,0,0,-1,1784,981,0,0
567,43,0,0,0,0,0,0,0,0,0,-1,1791,981,0,0
574,43,0,0,0,0,0,0,0,0,0,-1,1798,981,0,0
581,43,0,0,0,0,0,0,0,0,0,-1,1805,981,0,0
588,43,0,0,0,0,0,0,0,0,0,-1,1812,981,0,0
595,43,0,0,0,0,0,0,0,0,0,-1,1819,981,0,0
602,43,0,0,0,0,0,0,0,0,0,-1,1826,981,0,0
609,43,0,0,0,0,0,0,0,0,0,-1,1833,981,0,0
616,43,0,0,0,0,0,0,0,0,0,-1,1840,981,0,0
623,43,0,0,0,0,0,0,0,0,0,-1,1847,981,0,0
630,43,0,0,0,0,0,0,0,0,0,-1,1854,981,0,0
637,43,0,0,0,0,0,0,0,0,0,-1,1861,981,0,0
644,43,40.723,2.61835,5.55507e-05,-0.00416596,0.00298781,0.00160297,-0.00571338,0.477875,0.00444076,0.0381441,1868,981,40.7231,-2.61833
651,43,40.5764,2.5744,7.02851e-05,-0.00291856,0.00256437,0.00154391,-0.00439219,0.521573,0.00355628,0.0360639,1875,981,40.5764,-2.57441
658,43,40.7213,2.56201,0.000110205,-0.00200591,0.00199676,0.00131192,-0.00320762,0.541764,0.00268478,0.0390784,1882,981,40.7214,-2.56202
665,43,40.7183,2.68512,0.000104525,-0.00118305,0.00169308,0.00127208,-0.00235061,0.603717,0.00212223,0.037007,1889,981,40.7183,-2.68515
672,43,40.7488,2.50806,-0.000187884,-0.000353294,0.0016909,0.00142233,-0.00196351,0.760962,0.00196312,0.0381218,1896,981,40.7488,-2.50805
679,43,40.7404,2.60632,-0.000784024,0.000261452,0.0019,0.00170931,-0.00223188,0.91964,0.00228211,0.0404078,1903,981,40.7403,-2.60631
686,43,40.7461,2.81702,-0.00126098,0.000641603,0.00210635,0.00200151,-0.0026209,0.997503,0.00267672,0.0400701,1910,981,40.7461,-2.81701
693,43,40.7251,2.75305,-0.00176251,0.000891279,0.00231232,0.00223037,-0.0031016,1.04588,0.00309208,0.0372799,1917,981,40.7251,-2.75304
700,43,40.7158,2.66089,-0.00224809,0.00116755,0.00241249,0.00241553,-0.00349607,1.09341,0.00343202,0.0319784,1924,981,40.7158,-2.66087
707,43,40.7717,2.60266,-0.00272978,0.00150234,0.00225525,0.00247883,-0.00370627,1.16218,0.00359433,0.028673,1931,981,40.7718,-2.60266
714,43,40.7249,2.89667,-0.00326145,0.00188235,0.00198986,0.00256225,-0.00394135,1.24155,0.00378289,0.0406281,1938,981,40.7249,-2.89665
721,43,40.3475,4.11621,-0.003895,0.00232437,0.00191739,0.00286797,-0.00443861,1.29453,0.00425082,0.0374485,1945,981,40.3475,-4.11621
728,43,39.9084,4.80524,-0.00442156,0.00304409,0.00185056,0.00347762,-0.0048551,1.34067,0.00483276,0.0213604,1952,981,39.9085,-4.80527
735,43,39.8566,5.01801,-0.00468047,0.00378912,0.00152023,0.00405372,-0.00494507,1.39847,0.00520394,0.0147043,1959,981,39.8566,-5.01802
742,43,39.8225,5.20294,-0.00550311,0.00510051,0.00100289,0.00519453,-0.00559713,1.47732,0.00623201,0.0159791,1966,981,39.8225,-5.20292
749,43,39.8125,5.38452,-0.00635192,0.00628685,0.000367717,0.00629754,-0.00636261,1.54173,0.00730937,0.0178912,1973,981,39.8125,-5.38454
756,43,39.802,5.58063,-0.00710336,0.00797865,-0.000365415,0.0079875,-0.00711221,-1.54659,0.0087227,0.0190544,1980,981,39.802,-5.5806
763,43,39.7716,5.74945,-0.00806522,0.0100289,-0.00118565,0.0101062,-0.00814258,-1.50564,0.0105563,0.0211554,1987,981,39.7717,-5.74942
770,43,39.6875,5.9588,-0.00933149,0.012432,-0.00184764,0.0125877,-0.00948724,-1.4867,0.0127868,0.0176635,1994,981,39.6875,-5.95882
777,43,39.6622,6.18103,-0.0111799,0.0149994,-0.0023608,0.0152106,-0.0113911,-1.48158,0.0154112,0.0225385,2001,981,39.6622,-6.18104
784,43,39.702,6.35706,-0.013814,0.0172876,-0.00296414,0.0175676,-0.014094,-1.47662,0.0183165,0.0406733,2008,981,39.7021,-6.35706
791,43,39.6938,6.4494,-0.016549,0.0189037,-0.00398643,0.0193464,-0.0169918,-1.46019,0.0209945,0.0444785,2015,981,39.6938,-6.44938
798,43,39.7241,6.71509,0,0,0,0,0,0,0,-1,2022,981,39.7241,-6.71507
805,43,39.5801,5.91302,0,0,0,0,0,0,0,-1,2029,981,39.58,-5.91304
812,43,39.6504,6.1629,0,0,0,0,0,0,0,-1,2036,981,39.6504,-6.16288
-700,36,0,0,0,0,0,0,0,0,0,-1,524,988,0,0
-693,36,-30.9593,5.69464,0.0948685,0.221033,0.0494466,0.238103,0.0777989,1.23839,0.140193,0.0440661,531,988,-30.9593,-5.69463
-686,36,-31.6778,6.19745,0.07652,0.185333,0.0349764,0.195606,0.0662472,1.28512,0.114876,0.0423258,538,988,-31.6778,-6.19745
-679,36,-29.5817,4.78821,0,0,0,0,0,0,0,-1,545,988,-29.5817,-4.78819
-672,36,-30.2881,4.58923,0,0,0,0,0,0,0,-1,552,988,-30.2881,-4.58926
-665,36,-30.2127,4.19861,0,0,0,0,0,0,0,-1,559,988,-30.2127,-4.19859
-658,36,-30.1111,3.81073,0.0231783,0.0803001,0.0120807,0.08275,0.0207284,1.37072,0.049719,0.0474508,566,988,-30.1111,-3.81071
-651,36,-29.7944,3.4046,0.0146761,0.0616483,0.00966951,0.063561,0.0127634,1.37552,0.0388252,0.036788,573,988,-29.7945,-3.40458
-644,36,-29.8023,3.13013,0.00820903,0.0459773,0.00760044,0.0474494,0.00673691,1.37948,0.0296436,0.0240219,580,988,-29.8023,-3.13011
-637,36,-29.8715,2.99091,0.00300446,0.0327692,0.00403042,0.0333053,0.00246836,1.43856,0.0214282,0.0206607,587,988,-29.8714,-2.9909
-630,36,-29.8687,2.9397,-0.000367785,0.018084,0.00186886,0.0182714,-0.000555167,1.47087,0.0123701,0.0161729,594,988,-29.8687,-2.93971
-623,36,-29.8979,2.84119,-0.0025968,0.0145212,0.00064625,0.0145455,-0.00262116,1.53312,0.0106785,0.0127171,601,988,-29.898,-2.84119
-616,36,-29.8773,2.71277,-0.00271108,0.00956981,-0.00127481,0.00970075,-0.00284201,-1.46845,0.00759389,0.010649,608,988,-29.8773,-2.71276
-609,36,-29.8735,2.58051,-0.00271921,0.00676223,-0.00357413,0.00795858,-0.00391556,-1.24779,0.00698675,0.0149151,615,988,-29.8735,-2.58051
-602,36,-29.8792,2.43622,-0.00255066,0.00495922,-0.00506089,0.00750605,-0.00509748,-1.10456,0.00732081,0.0201152,622,988,-29.8792,-2.43623
-595,36,-29.9013,2.3089,-0.00180907,0.00306734,-0.00634149,0.0074232,-0.00616493,-0.968928,0.00785632,0.0220874,629,988,-29.9013,-2.3089
-588,36,-29.8694,1.7251,-0.00144697,0.00214298,-0.00692843,0.00750517,-0.00680917,-0.912149,0.00826764,0.0250045,636,988,-29.8694,-1.72507
-581,36,-29.8275,1.01569,-0.00127165,0.00172458,-0.00704041,0.0074245,-0.00697157,-0.890229,0.00831295,0.0276869,643,988,-29.8275,-1.01571
-574,36,-29.8646,0.903076,-0.00114412,0.00144548,-0.0068693,0.00714094,-0.00683959,-0.878551,0.00807229,0.0270087,650,988,-29.8646,-0.903059
-567,36,-29.8841,0.846558,-0.00105325,0.00126393,-0.00600865,0.00622467,-0.00601399,-0.88064,0.00706634,0.0331453,657,988,-29.8841,-0.84656
-560,36,-29.8073,0.662109,-0.000755248,0.0011642,-0.0046914,0.00499304,-0.00458409,-0.886291,0.00553104,0.0377972,664,988,-29.8073,-0.662125
-553,36,-29.713,0.774048,-0.000172404,0.00111849,-0.00305631,0.00359677,-0.00265068,-0.889462,0.00362073,0.0421652,671,988,-29.7129,-0.774078
-546,36,-29.7426,0.717773,0.000789279,0.00107172,-0.00128341,0.00222165,-0.000360656,-0.840195,0.0016148,0.0454384,678,988,-29.7426,-0.717753
-539,36,-29.6895,0.887756,0.00232646,0.00115732,3.32349e-05,0.00232741,0.00115638,0.0283962,0.00134374,0.0458035,685,988,-29.6895,-0.887727
-532,36,-29.7274,1.25275,0.00424268,0.00199711,-0.00059209,0.00438924,0.00185056,-0.242639,0.00254449,0.0461603,692,988,-29.7273,-1.25276
-525,36,-29.2237,0.641174,0,0,0,0,0,0,0,-1,699,988,-29.2237,-0.641175
-518,36,0,0,0,0,0,0,0,0,0,-1,706,988,0,0
-511,36,0,0,0,0,0,0,0,0,0,-1,713,988,0,0
-504,36,0,0,0,0,0,0,0,0,0,-1,720,988,0,0
-497,36,0,0,0,0,0,0,0,0,0,-1,727,988,0,0
-490,36,0,0,0,0,0,0,0,0,0,-1,734,988,0,0
-483,36,0,0,0,0,0,0,0,0,0,-1,741,988,0,0
-476,36,0,0,0,0,0,0,0,0,0,-1,748,988,0,0
-469,36,0,0,0,0,0,0,0,0,0,-1,755,988,0,0
-462,36,0,0,0,0,0,0,0,0,0,-1,762,988,0,0
-455,36,0,0,0,0,0,0,0,0,0,-1,769,988,0,0
-448,36,0,0,0,0,0,0,0,0,0,-1,776,988,0,0
-441,36,0,0,0,0,0,0,0,0,0,-1,783,988,0,0
-434,36,0,0,0,0,0,0,0,0,0,-1,790,988,0,0
-427,36,0,0,0,0,0,0,0,0,0,-1,797,988,0,0
-420,36,0,0,0,0,0,0,0,0,0,-1,804,988,0,0
-413,36,0,0,0,0,0,0,0,0,0,-1,811,988,0,0
-406,36,0,0,0,0,0,0,0,0,0,-1,818,988,0,0
-399,36,0,0,0,0,0,0,0,0,0,-1,825,988,0,0
-392,36,0,0,0,0,0,0,0,0,0,-1,832,988,0,0
-385,36,0,0,0,0,0,0,0,0,0,-1,839,988,0,0
-378,36,0,0,0,0,0,0,0,0,0,-1,846,988,0,0
-371,36,0,0,0,0,0,0,0,0,0,-1,853,988,0,0
-364,36,0,0,0,0,0,0,0,0,0,-1,860,988,0,0
-357,36,0,0,0,0,0,0,0,0,0,-1,867,988,0,0
-350,36,0,0,0,0,0,0,0,0,0,-1,874,988,0,0
-343,36,0,0,0,0,0,0,0,0,0,-1,881,988,0,0
-336,36,0,0,0,0,0,0,0,0,0,-1,888,988,0,0
-329,36,0,0,0,0,0,0,0,0,0,-1,895,988,0,0
-322,36,0,0,0,0,0,0,0,0,0,-1,902,988,0,0
-315,36,0,0,0,0,0,0,0,0,0,-1,909,988,0,0
-308,36,0,0,0,0,0,0,0,0,0,-1,916,988,0,0
-301,36,0,0,0,0,0,0,0,0,0,-1,923,988,0,0
-294,36,0,0,0,0,0,0,0,0,0,-1,930,988,0,0
-287,36,0,0,0,0,0,0,0,0,0,-1,937,988,0,0
-280,36,0,0,0,0,0,0,0,0,0,-1,944,988,0,0
-273,36,0,0,0,0,0,0,0,0,0,-1,951,988,0,0
-266,36,0,0,0,0,0,0,0,0,0,-1,958,988,0,0
-259,36,0,0,0,0,0,0,0,0,0,-1,965,988,0,0
-252,36,0,0,0,0,0,0,0,0,0,-1,972,988,0,0
-245,36,0,0,0,0,0,0,0,0,0,-1,979,988,0,0
-238,36,0,0,0,0,0,0,0,0,0,-1,986,988,0,0
-231,36,0,0,0,0,0,0,0,0,0,-1,993,988,0,0
-224,36,0,0,0,0,0,0,0,0,0,-1,1000,988,0,0
-217,36,0,0,0,0,0,0,0,0,0,-1,1007,988,0,0
-210,36,0,0,0,0,0,0,0,0,0,-1,1014,988,0,0
-203,36,0,0,0,0,0,0,0,0,0,-1,1021,988,0,0
-196,36,0,0,0,0,0,0,0,0,0,-1,1028,988,0,0
-189,36,0,0,0,0,0,0,0,0,0,-1,1035,988,0,0
-182,36,0,0,0,0,0,0,0,0,0,-1,1042,988,0,0
-175,36,0,0,0,0,0,0,0,0,0,-1,1049,988,0,0
-168,36,0,0,0,0,0,0,0,0,0,-1,1056,988,0,0
-161,36,0,0,0,0,0,0,0,0,0,-1,1063,988,0,0
-154,36,0,0,0,0,0,0,0,0,0,-1,1070,988,0,0
-147,36,0,0,0,0,0,0,0,0,0,-1,1077,988,0,0
-140,36,0,0,0,0,0,0,0,0,0,-1,1084,988,0,0
-133,36,0,0,0,0,0,0,0,0,0,-1,1091,988,0,0
-126,36,0,0,0,0,0,0,0,0,0,-1,1098,988,0,0
-119,36,0,0,0,0,0,0,0,0,0,-1,1105,988,0,0
-112,36,0,0,0,0,0,0,0,0,0,-1,1112,988,0,0
-105,36,0,0,0,0,0,0,0,0,0,-1,1119,988,0,0
-98,36,0,0,0,0,0,0,0,0,0,-1,1126,988,0,0
-91,36,0,0,0,0,0,0,0,0,0,-1,1133,988,0,0
-84,36,0,0,0,0,0,0,0,0,0,-1,1140,988,0,0
-77,36,0,0,0,0,0,0,0,0,0,-1,1147,988,0,0
-70,36,0,0,0,0,0,0,0,0,0,-1,1154,988,0,0
-63,36,0,0,0,0,0,0,0,0,0,-1,1161,988,0,0
-56,36,0,0,0,0,0,0,0,0,0,-1,1168,988,0,0
-49,36,0,0,0,0,0,0,0,0,0,-1,1175,988,0,0
-42,36,0,0,0,0,0,0,0,0,0,-1,1182,988,0,0
-35,36,0,0,0,0,0,0,0,0,0,-1,1189,988,0,0
-28,36,0,0,0,0,0,0,0,0,0,-1,1196,988,0,0
-21,36,0,0,0,0,0,0,0,0,0,-1,1203,988,0,0
-14,36,0,0,0,0,0,0,0,0,0,-1,1210,988,0,0
-7,36,0,0,0,0,0,0,0,0,0,-1,1217,988,0,0
0,36,0,0,0,0,0,0,0,0,0,-1,1224,988,0,0
7,36,0,0,0,0,0,0,0,0,0,-1,1231,988,0,0
14,36,0,0,0,0,0,0,0,0,0,-1,1238,988,0,0
21,36,0,0,0,0,0,0,0,0,0,-1,1245,988,0,0
28,36,0,0,0,0,0,0,0,0,0,-1,1252,988,0,0
35,36,0,0,0,0,0,0,0,0,0,-1,1259,988,0,0
42,36,0,0,0,0,0,0,0,0,0,-1,1266,988,0,0
49,36,0,0,0,0,0,0,0,0,0,-1,1273,988,0,0
56,36,0,0,0,0,0,0,0,0,0,-1,1280,988,0,0
63,36,0,0,0,0,0,0,0,0,0,-1,1287,988,0,0
70,36,0,0,0,0,0,0,0,0,0,-1,1294,988,0,0
77,36,0,0,0,0,0,0,0,0,0,-1,1301,988,0,0
84,36,0,0,0,0,0,0,0,0,0,-1,1308,988,0,0
91,36,0,0,0,0,0,0,0,0,0,-1,1315,988,0,0
98,36,0,0,0,0,0,0,0,0,0,-1,1322,988,0,0
105,36,0,0,0,0,0,0,0,0,0,-1,1329,988,0,0
112,36,0,0,0,0,0,0,0,0,0,-1,1336,988,0,0
119,36,0,0,0,0,0,0,0,0,0,-1,1343,988,0,0
126,36,0,0,0,0,0,0,0,0,0,-1,1350,988,0,0
133,36,0,0,0,0,0,0,0,0,0,-1,1357,988,0,0
140,36,0,0,0,0,0,0,0,0,0,-1,1364,988,0,0
147,36,0,0,0,0,0,0,0,0,0,-1,1371,988,0,0
154,36,0,0,0,0,0,0,0,0,0,-1,1378,988,0,0
161,36,0,0,0,0,0,0,0,0,0,-1,1385,988,0,0
168,36,0,0,0,0,0,0,0,0,0,-1,1392,988,0,0
175,36,0,0,0,0,0,0,0,0,0,-1,1399,988,0,0
182,36,0,0,0,0,0,0,0,0,0,-1,1406,988,0,0
189,36,0,0,0,0,0,0,0,0,0,-1,1413,988,0,0
196,36,0,0,0,0,0,0,0,0,0,-1,1420,988,0,0
203,36,0,0,0,0,0,0,0,0,0,-1,1427,988,0,0
210,36,0,0,0,0,0,0,0,0,0,-1,1434,988,0,0
217,36,0,0,0,0,0,0,0,0,0,-1,1441,988,0,0
224,36,0,0,0,0,0,0,0,0,0,-1,1448,988,0,0
231,36,0,0,0,0,0,0,0,0,0,-1,1455,988,0,0
238,36,0,0,0,0,0,0,0,0,0,-1,1462,988,0,0
245,36,0,0,0,0,0,0,0,0,0,-1,1469,988,0,0
252,36,0,0,0,0,0,0,0,0,0,-1,1476,988,0,0
259,36,0,0,0,0,0,0,0,0,0,-1,1483,988,0,0
266,36,0,0,0,0,0,0,0,0,0,-1,1490,988,0,0
273,36,0,0,0,0,0,0,0,0,0,-1,1497,988,0,0
280,36,0,0,0,0,0,0,0,0,0,-1,1504,988,0,0
287,36,0,0,0,0,0,0,0,0,0,-1,1511,988,0,0
294,36,0,0,0,0,0,0,0,0,0,-1,1518,988,0,0
301,36,0,0,0,0,0,0,0,0,0,-1,1525,988,0,0
308,36,0,0,0,0,0,0,0,0,0,-1,1532,988,0,0
315,36,0,0,0,0,0,0,0,0,0,-1,1539,988,0,0
322,36,0,0,0,0,0,0,0,0,0,-1,1546,988,0,0
329,36,0,0,0,0,0,0,0,0,0,-1,1553,988,0,0
336,36,0,0,0,0,0,0,0,0,0,-1,1560,988,0,0
343,36,0,0,0,0,0,0,0,0,0,-1,1567,988,0,0
350,36,0,0,0,0,0,0,0,0,0,-1,1574,988,0,0
357,36,0,0,0,0,0,0,0,0,0,-1,1581,988,0,0
364,36,0,0,0,0,0,0,0,0,0,-1,1588,988,0,0
371,36,0,0,0,0,0,0,0,0,0,-1,1595,988,0,0
378,36,0,0,0,0,0,0,0,0,0,-1,1602,988,0,0
385,36,0,0,0,0,0,0,0,0,0,-1,1609,988,0,0
392,36,0,0,0,0,0,0,0,0,0,-1,1616,988,0,0
399,36,0,0,0,0,0,0,0,0,0,-1,1623,988,0,0
406,36,0,0,0,0,0,0,0,0,0,-1,1630,988,0,0
413,36,0,0,0,0,0,0,0,0,0,-1,1637,988,0,0
420,36,0,0,0,0,0,0,0,0,0,-1,1644,988,0,0
427,36,0,0,0,0,0,0,0,0,0,-1,1651,988,0,0
434,36,0,0,0,0,0,0,0,0,0,-1,1658,988,0,0
441,36,0,0,0,0,0,0,0,0,0,-1,1665,988,0,0
448,36,0,0,0,0,0,0,0,0,0,-1,1672,988,0,0
455,36,0,0,0,0,0,0,0,0,0,-1,1679,988,0,0
462,36,0,0,0,0,0,0,0,0,0,-1,1686,988,0,0
469,36,0,0,0,0,0,0,0,0,0,-1,1693,988,0,0
476,36,0,0,0,0,0,0,0,0,0,-1,1700,988,0,0
483,36,0,0,0,0,0,0,0,0,0,-1,1707,988,0,0
490,36,0,0,0,0,0,0,0,0,0,-1,1714,988,0,0
497,36,0,0,0,0,0,0,0,0,0,-1,1721,988,0,0
504,36,0,0,0,0,0,0,0,0,0,-1,1728,988,0,0
511,36,0,0,0,0,0,0,0,0,0,-1,1735,988,0,0
518,36,0,0,0,0,0,0,0,0,0,-1,1742,988,0,0
525,36,0,0,0,0,0,0,0,0,0,-1,1749,988,0,0
532,36,0,0,0,0,0,0,0,0,0,-1,1756,988,0,0
539,36,0,0,0,0,0,0,0,0,0,-1,1763,988,0,0
546,36,0,0,0,0,0,0,0,0,0,-1,1770,988,0,0
553,36,0,0,0,0,0,0,0,0,0,-1,1777,988,0,0
560,36,0,0,0,0,0,0,0,0,0,-1,1784,988,0,0
567,36,0,0,0,0,0,0,0,0,0,-1,1791,988,0,0
574,36,0,0,0,0,0,0,0,0,0,-1,1798,988,0,0
581,36,0,0,0,0,0,0,0,0,0,-1,1805,988,0,0
588,36,0,0,0,0,0,0,0,0,0,-1,1812,988,0,0
595,36,0,0,0,0,0,0,0,0,0,-1,1819,988,0,0
602,36,0,0,0,0,0,0,0,0,0,-1,1826,988,0,0
609,36,0,0,0,0,0,0,0,0,0,-1,1833,988,0,0
616,36,0,0,0,0,0,0,0,0,0,-1,1840,988,0,0
623,36,0,0,0,0,0,0,0,0,0,-1,1847,988,0,0
630,36,0,0,0,0,0,0,0,0,0,-1,1854,988,0,0
637,36,0,0,0,0,0,0,0,0,0,-1,1861,988,0,0
644,36,40.6383,2.62817,-0.000635604,-0.00334831,0.00337901,0.00164912,-0.00563303,0.59454,0.00440909,0.0409579,1868,988,40.6382,-2.62818
651,36,40.5538,2.80988,-0.00050259,-0.00228285,0.00269806,0.00144838,-0.00423382,0.626063,0.00340948,0.0377976,1875,988,40.5538,-2.8099
658,36,40.6937,2.90387,-0.000334984,-0.00151996,0.00196174,0.00112178,-0.00297673,0.638742,0.00244573,0.0381389,1882,988,40.6937,-2.90386
665,36,40.7136,2.97443,-0.000234363,-0.000831523,0.00156435,0.00105965,-0.00212554,0.6911,0.00187298,0.0367028,1889,988,40.7136,-2.97443
672,36,40.74,2.68903,-0.000388258,-6.13514e-05,0.00158312,0.00136673,-0.00181634,0.83684,0.00184384,0.039266,1896,988,40.7399,-2.68905
679,36,40.757,2.65582,-0.000864148,0.00059009,0.00185594,0.00185627,-0.00213032,0.972098,0.00230347,0.0400641,1903,988,40.7569,-2.65582
686,36,40.7301,2.84393,-0.00126002,0.00101579,0.00215744,0.00231702,-0.00256124,1.02807,0.00281764,0.0373889,1910,988,40.7301,-2.84396
693,36,40.7808,2.70483,-0.00169167,0.00129822,0.0024551,0.00267771,-0.00307116,1.05887,0.0033217,0.0388109,1917,988,40.7808,-2.70483
700,36,40.7736,2.60162,-0.00210376,0.00158986,0.00261749,0.00294648,-0.00346038,1.09262,0.00370297,0.0356167,1924,988,40.7736,-2.6016
707,36,40.7677,2.61194,-0.00253071,0.00193039,0.00254416,0.00308335,-0.00368367,1.1453,0.00391206,0.026338,1931,988,40.7677,-2.61196
714,36,40.7712,2.87762,-0.00305579,0.00231291,0.00236901,0.00320878,-0.00395165,1.20926,0.00414149,0.0392758,1938,988,40.7712,-2.87765
721,36,40.2579,4.62134,0,0,0,0,0,0,0,-1,1945,988,40.2579,-4.62133
728,36,40.1417,4.86768,-0.00432352,0.00346739,0.00219463,0.00404306,-0.0048992,1.31427,0.0051707,0.0230864,1952,988,40.1417,-4.86767
735,36,40.0537,5.0838,-0.00464476,0.00417214,0.00179157,0.00452228,-0.0049949,1.37779,0.005497,0.0194727,1959,988,40.0537,-5.08379
742,36,39.9996,5.21082,-0.00565123,0.00548659,0.00119873,0.00561415,-0.00577879,1.46479,0.00657794,0.0151659,1966,988,39.9996,-5.21081
749,36,40.0027,5.39026,-0.00683611,0.00660449,0.000466491,0.00662066,-0.00685228,1.53614,0.00777899,0.0160299,1973,988,40.0027,-5.39024
756,36,39.9696,5.56403,-0.00788541,0.00822851,-0.000412132,0.00823905,-0.00789594,-1.54524,0.00931624,0.0155701,1980,988,39.9695,-5.56403
763,36,39.9135,5.70081,-0.00920628,0.0101823,-0.00145443,0.0102908,-0.00931477,-1.49634,0.0113239,0.0180292,1987,988,39.9135,-5.70081
770,36,39.8389,5.87085,-0.0109766,0.0125441,-0.00240368,0.0127873,-0.0112197,-1.46999,0.0138703,0.0151497,1994,988,39.8389,-5.87083
777,36,39.7831,6.10327,-0.0133341,0.0151268,-0.00316914,0.0154755,-0.0136827,-1.46123,0.0168451,0.0226204,2001,988,39.7831,-6.10326
784,36,39.8721,6.26801,-0.0164111,0.0174353,-0.00406002,0.0179155,-0.0168913,-1.45307,0.0200986,0.043009,2008,988,39.872,-6.268
791,36,39.936,6.43475,0,0,0,0,0,0,0,-1,2015,988,39.9361,-6.43476
798,36,37.0569,8.18213,0,0,0,0,0,0,0,-1,2022,988,37.057,-8.18212
805,36,36.5532,9.21277,0,0,0,0,0,0,0,-1,2029,988,36.5532,-9.2128
812,36,39.8818,5.23938,0,0,0,0,0,0,0,-1,2036,988,39.8818,-5.23937
-700,29,0,0,0,0,0,0,0,0,0,-1,524,995,0,0
-693,29,-30.2251,4.15222,0,0,0,0,0,0,0,-1,531,995,-30.2251,-4.1522
-686,29,-29.3906,3.87054,0,0,0,0,0,0,0,-1,538,995,-29.3906,-3.87057
-679,29,-29.4987,4.06732,0,0,0,0,0,0,0,-1,545,995,-29.4987,-4.06734
-672,29,-29.6069,4.2641,0,0,0,0,0,0,0,-1,552,995,-29.6069,-4.26411
-665,29,-30.373,4.12146,0,0,0,0,0,0,0,-1,559,995,-30.3731,-4.12148
-658,29,-30.3406,3.67242,0,0,0,0,0,0,0,-1,566,995,-30.3407,-3.67244
-651,29,-29.5602,1.88232,0.00979487,0.0593204,0.0109343,0.0616271,0.0074882,1.36289,0.0388301,0.04072,573,995,-29.5602,-1.88235
-644,29,-29.8526,2.73053,0.0047297,0.0442105,0.00856223,0.0459875,0.00295277,1.36617,0.029723,0.0257157,580,995,-29.8526,-2.73051
-637,29,-29.9866,2.87427,0.000731537,0.0317667,0.00478742,0.0324884,9.82545e-06,1.42117,0.0216557,0.0175763,587,995,-29.9866,-2.87427
-630,29,-30.0062,2.88123,-0.00168127,0.0172194,0.00229747,0.0174946,-0.00195653,1.45155,0.012367,0.0130116,594,995,-30.0062,-2.8812
-623,29,-30.0082,2.81451,-0.00291949,0.0136108,0.000561884,0.0136298,-0.00293857,1.53686,0.0102081,0.0117806,601,995,-30.0083,-2.81451
-616,29,-30.0377,2.70898,-0.0022809,0.00920333,-0.00174071,0.00946138,-0.00253894,-1.42363,0.00730254,0.0137678,608,995,-30.0377,-2.70901
-609,29,-30.0651,2.60358,-0.0017329,0.00663876,-0.00420763,0.00838802,-0.00348217,-1.1768,0.00704566,0.0197204,615,995,-30.0651,-2.6036
-602,29,-30.075,2.48633,-0.00124916,0.00490299,-0.00581467,0.00840511,-0.00475128,-1.02869,0.00769287,0.0222866,622,995,-30.075,-2.48635
-595,29,-30.0388,2.32526,-0.00040481,0.00300945,-0.00715112,0.00865438,-0.00604974,-0.902566,0.00853371,0.0225855,629,995,-30.0388,-2.32528
-588,29,-29.9219,1.72827,5.7805e-05,0.00211522,-0.00774963,0.00890412,-0.0067311,-0.851384,0.00905601,0.0306298,636,995,-29.9219,-1.72829
-581,29,-29.8292,1.11224,0.000325184,0.00169398,-0.00780129,0.00884084,-0.00682167,-0.829151,0.00906777,0.0389416,643,995,-29.8291,-1.11225
-574,29,-29.8325,0.854309,0.000412097,0.00137189,-0.00748838,0.00839573,-0.00661175,-0.817397,0.00868496,0.0313752,650,995,-29.8324,-0.854297
-567,29,-29.8654,0.802551,0.000356235,0.00115964,-0.00645547,0.0072259,-0.00571002,-0.816471,0.00748563,0.0331452,657,995,-29.8654,-0.802556
-560,29,-29.9419,0.561096,0.000392189,0.00103419,-0.00490478,0.00562846,-0.00420208,-0.818075,0.00569554,0.0377647,664,995,-29.9419,-0.561118
-553,29,-29.9078,0.68573,0.000568035,0.000967871,-0.00296368,0.00373837,-0.00220246,-0.819075,0.00346794,0.0404427,671,995,-29.9078,-0.685754
-546,29,-29.8009,0.84613,0.00099764,0.00090323,-0.000817607,0.0017694,0.000131467,-0.756562,0.00113831,0.0434792,678,995,-29.8009,-0.846117
-539,29,-29.7975,0.926392,0.00193584,0.00105132,0.000803881,0.00241109,0.000576076,0.533917,0.00145392,0.0439721,685,995,-29.7975,-0.926361
-532,29,-29.9896,1.10132,0.00328956,0.00218316,0.000217783,0.00333088,0.00214184,0.187523,0.00194913,0.0457375,692,995,-29.9896,-1.10133
-525,29,-29.9265,1.49457,0,0,0,0,0,0,0,-1,699,995,-29.9264,-1.49459
-518,29,0,0,0,0,0,0,0,0,0,-1,706,995,0,0
-511,29,0,0,0,0,0,0,0,0,0,-1,713,995,0,0
-504,29,0,0,0,0,0,0,0,0,0,-1,720,995,0,0
-497,29,0,0,0,0,0,0,0,0,0,-1,727,995,0,0
-490,29,0,0,0,0,0,0,0,0,0,-1,734,995,0,0
-483,29,0,0,0,0,0,0,0,0,0,-1,741,995,0,0
-476,29,0,0,0,0,0,0,0,0,0,-1,748,995,0,0
-469,29,0,0,0,0,0,0,0,0,0,-1,755,995,0,0
-462,29,0,0,0,0,0,0,0,0,0,-1,762,995,0,0
-455,29,0,0,0,0,0,0,0,0,0,-1,769,995,0,0
-448,29,0,0,0,0,0,0,0,0,0,-1,776,995,0,0
-441,29,0,0,0,0,0,0,0,0,0,-1,783,995,0,0
-434,29,0,0,0,0,0,0,0,0,0,-1,790,995,0,0
-427,29,0,0,0,0,0,0,0,0,0,-1,797,995,0,0
-420,29,0,0,0,0,0,0,0,0,0,-1,804,995,0,0
-413,29,0,0,0,0,0,0,0,0,0,-1,811,995,0,0
-406,29,0,0,0,0,0,0,0,0,0,-1,818,995,0,0
-399,29,0,0,0,0,0,0,0,0,0,-1,825,995,0,0
-392,29,0,0,0,0,0,0,0,0,0,-1,832,995,0,0
-385,29,0,0,0,0,0,0,0,0,0,-1,839,995,0,0
-378,29,0,0,0,0,0,0,0,0,0,-1,846,995,0,0
-371,29,0,0,0,0,0,0,0,0,0,-1,853,995,0,0
-364,29,0,0,0,0,0,0,0,0,0,-1,860,995,0,0
-357,29,0,0,0,0,0,0,0,0,0,-1,867,995,0,0
-350,29,0,0,0,0,0,0,0,0,0,-1,874,995,0,0
-343,29,0,0,0,0,0,0,0,0,0,-1,881,995,0,0
-336,29,0,0,0,0,0,0,0,0,0,-1,888,995,0,0
-329,29,0,0,0,0,0,0,0,0,0,-1,895,995,0,0
-322,29,0,0,0,0,0,0,0,0,0,-1,902,995,0,0
-315,29,0,0,0,0,0,0,0,0,0,-1,909,995,0,0
-308,29,0,0,0,0,0,0,0,0,0,-1,916,995,0,0
-301,29,0,0,0,0,0,0,0,0,0,-1,923,995,0,0
-294,29,0,0,0,0,0,0,0,0,0,-1,930,995,0,0
-287,29,0,0,0,0,0,0,0,0,0,-1,937,995,0,0
-280,29,0,0,0,0,0,0,0,0,0,-1,944,995,0,0
-273,29,0,0,0,0,0,0,0,0,0,-1,951,995,0,0
-266,29,0,0,0,0,0,0,0,0,0,-1,958,995,0,0
-259,29,0,0,0,0,0,0,0,0,0,-1,965,995,0,0
-252,29,0,0,0,0,0,0,0,0,0,-1,972,995,0,0
-245,29,0,0,0,0,0,0,0,0,0,-1,979,995,0,0
-238,29,0,0,0,0,0,0,0,0,0,-1,986,995,0,0
-231,29,0,0,0,0,0,0,0,0,0,-1,993,995,0,0
-224,29,0,0,0,0,0,0,0,0,0,-1,1000,995,0,0
-217,29,0,0,0,0,0,0,0,0,0,-1,1007,995,0,0
-210,29,0,0,0,0,0,0,0,0,0,-1,1014,995,0,0
-203,29,0,0,0,0,0,0,0,0,0,-1,1021,995,0,0
-196,29,0,0,0,0,0,0,0,0,0,-1,1028,995,0,0
-189,29,0,0,0,0,0,0,0,0,0,-1,1035,995,0,0
-182,29,0,0,0,0,0,0,0,0,0,-1,1042,995,0,0
-175,29,0,0,0,0,0,0,0,0,0,-1,1049,995,0,0
-168,29,0,0,0,0,0,0,0,0,0,-1,1056,995,0,0
-161,29,0,0,0,0,0,0,0,0,0,-1,1063,995,0,0
-154,29,0,0,0,0,0,0,0,0,0,-1,1070,995,0,0
-147,29,0,0,0,0,0,0,0,0,0,-1,1077,995,0,0
-140,29,0,0,0,0,0,0,0,0,0,-1,1084,995,0,0
-133,29,0,0,0,0,0,0,0,0,0,-1,1091,995,0,0
-126,29,0,0,0,0,0,0,0,0,0,-1,1098,995,0,0
-119,29,0,0,0,0,0,0,0,0,0,-1,1105,995,0,0
-112,29,0,0,0,0,0,0,0,0,0,-1,1112,995,0,0
-105,29,0,0,0,0,0,0,0,0,0,-1,1119,995,0,0
-98,29,0,0,0,0,0,0,0,0,0,-1,1126,995,0,0
-91,29,0,0,0,0,0,0,0,0,0,-1,1133,995,0,0
-84,29,0,0,0,0,0,0,0,0,0,-1,1140,995,0,0
-77,29,0,0,0,0,0,0,0,0,0,-1,1147,995,0,0
-70,29,0,0,0,0,0,0,0,0,0,-1,1154,995,0,0
-63,29,0,0,0,0,0,0,0,0,0,-1,1161,995,0,0
-56,29,0,0,0,0,0,0,0,0,0,-1,1168,995,0,0
-49,29,0,0,0,0,0,0,0,0,0,-1,1175,995,0,0
-42,29,0,0,0,0,0,0,0,0,0,-1,1182,995,0,0
-35,29,0,0,0,0,0,0,0,0,0,-1,1189,995,0,0
-28,29,0,0,0,0,0,0,0,0,0,-1,1196,995,0,0
-21,29,0,0,0,0,0,0,0,0,0,-1,1203,995,0,0
-14,29,0,0,0,0,0,0,0,0,0,-1,1210,995,0,0
-7,29,0,0,0,0,0,0,0,0,0,-1,1217,995,0,0
0,29,0,0,0,0,0,0,0,0,0,-1,1224,995,0,0
7,29,0,0,0,0,0,0,0,0,0,-1,1231,995,0,0
14,29,0,0,0,0,0,0,0,0,0,-1,1238,995,0,0
21,29,0,0,0,0,0,0,0,0,0,-1,1245,995,0,0
28,29,0,0,0,0,0,0,0,0,0,-1,1252,995,0,0
35,29,0,0,0,0,0,0,0,0,0,-1,1259,995,0,0
42,29,0,0,0,0,0,0,0,0,0,-1,1266,995,0,0
49,29,0,0,0,0,0,0,0,0,0,-1,1273,995,0,0
56,29,0,0,0,0,0,0,0,0,0,-1,1280,995,0,0
63,29,0,0,0,0,0,0,0,0,0,-1,1287,995,0,0
70,29,0,0,0,0,0,0,0,0,0,-1,1294,995,0,0
77,29,0,0,0,0,0,0,0,0,0,-1,1301,995,0,0
84,29,0,0,0,0,0,0,0,0,0,-1,1308,995,0,0
91,29,0,0,0,0,0,0,0,0,0,-1,1315,995,0,0
98,29,0,0,0,0,0,0,0,0,0,-1,1322,995,0,0
105,29,0,0,0,0,0,0,0,0,0,-1,1329,995,0,0
112,29,0,0,0,0,0,0,0,0,0,-1,1336,995,0,0
119,29,0,0,0,0,0,0,0,0,0,-1,1343,995,0,0
126,29,0,0,0,0,0,0,0,0,0,-1,1350,995,0,0
133,29,0,0,0,0,0,0,0,0,0,-1,1357,995,0,0
140,29,0,0,0,0,0,0,0,0,0,-1,1364,995,0,0
147,29,0,0,0,0,0,0,0,0,0,-1,1371,995,0,0
154,29,0,0,0,0,0,0,0,0,0,-1,1378,995,0,0
161,29,0,0,0,0,0,0,0,0,0,-1,1385,995,0,0
168,29,0,0,0,0,0,0,0,0,0,-1,1392,995,0,0
175,29,0,0,0,0,0,0,0,0,0,-1,1399,995,0,0
182,29,0,0,0,0,0,0,0,0,0,-1,1406,995,0,0
189,29,0,0,0,0,0,0,0,0,0,-1,1413,995,0,0
196,29,0,0,0,0,0,0,0,0,0,-1,1420,995,0,0
203,29,0,0,0,0,0,0,0,0,0,-1,1427,995,0,0
210,29,0,0,0,0,0,0,0,0,0,-1,1434,995,0,0
217,29,0,0,0,0,0,0,0,0,0,-1,1441,995,0,0
224,29,0,0,0,0,0,0,0,0,0,-1,1448,995,0,0
231,29,0,0,0,0,0,0,0,0,0,-1,1455,995,0,0
238,29,0,0,0,0,0,0,0,0,0,-1,1462,995,0,0
245,29,0,0,0,0,0,0,0,0,0,-1,1469,995,0,0
252,29,0,0,0,0,0,0,0,0,0,-1,1476,995,0,0
259,29,0,0,0,0,0,0,0,0,0,-1,1483,995,0,0
266,29,0,0,0,0,0,0,0,0,0,-1,1490,995,0,0
273,29,0,0,0,0,0,0,0,0,0,-1,1497,995,0,0
280,29,0,0,0,0,0,0,0,0,0,-1,1504,995,0,0
287,29,0,0,0,0,0,0,0,0,0,-1,1511,995,0,0
294,29,0,0,0,0,0,0,0,0,0,-1,1518,995,0,0
301,29,0,0,0,0,0,0,0,0,0,-1,1525,995,0,0
308,29,0,0,0,0,0,0,0,0,0,-1,1532,995,0,0
315,29,0,0,0,0,0,0,0,0,0,-1,1539,995,0,0
322,29,0,0,0,0,0,0,0,0,0,-1,1546,995,0,0
329,29,0,0,0,0,0,0,0,0,0,-1,1553,995,0,0
336,29,0,0,0,0,0,0,0,0,0,-1,1560,995,0,0
343,29,0,0,0,0,0,0,0,0,0,-1,1567,995,0,0
350,29,0,0,0,0,0,0,0,0,0,-1,1574,995,0,0
357,29,0,0,0,0,0,0,0,0,0,-1,1581,995,0,0
364,29,0,0,0,0,0,0,0,0,0,-1,1588,995,0,0
371,29,0,0,0,0,0,0,0,0,0,-1,1595,995,0,0
378,29,0,0,0,0,0,0,0,0,0,-1,1602,995,0,0
385,29,0,0,0,0,0,0,0,0,0,-1,1609,995,0,0
392,29,0,0,0,0,0,0,0,0,0,-1,1616,995,0,0
399,29,0,0,0,0,0,0,0,0,0,-1,1623,995,0,0
406,29,0,0,0,0,0,0,0,0,0,-1,1630,995,0,0
413,29,0,0,0,0,0,0,0,0,0,-1,1637,995,0,0
420,29,0,0,0,0,0,0,0,0,0,-1,1644,995,0,0
427,29,0,0,0,0,0,0,0,0,0,-1,1651,995,0,0
434,29,0,0,0,0,0,0,0,0,0,-1,1658,995,0,0
441,29,0,0,0,0,0,0,0,0,0,-1,1665,995,0,0
448,29,0,0,0,0,0,0,0,0,0,-1,1672,995,0,0
455,29,0,0,0,0,0,0,0,0,0,-1,1679,995,0,0
462,29,0,0,0,0,0,0,0,0,0,-1,1686,995,0,0
469,29,0,0,0,0,0,0,0,0,0,-1,1693,995,0,0
476,29,0,0,0,0,0,0,0,0,0,-1,1700,995,0,0
483,29,0,0,0,0,0,0,0,0,0,-1,1707,995,0,0
490,29,0,0,0,0,0,0,0,0,0,-1,1714,995,0,0
497,29,0,0,0,0,0,0,0,0,0,-1,1721,995,0,0
504,29,0,0,0,0,0,0,0,0,0,-1,1728,995,0,0
511,29,0,0,0,0,0,0,0,0,0,-1,1735,995,0,0
518,29,0,0,0,0,0,0,0,0,0,-1,1742,995,0,0
525,29,0,0,0,0,0,0,0,0,0,-1,1749,995,0,0
532,29,0,0,0,0,0,0,0,0,0,-1,1756,995,0,0
539,29,0,0,0,0,0,0,0,0,0,-1,1763,995,0,0
546,29,0,0,0,0,0,0,0,0,0,-1,1770,995,0,0
553,29,0,0,0,0,0,0,0,0,0,-1,1777,995,0,0
560,29,0,0,0,0,0,0,0,0,0,-1,1784,995,0,0
567,29,0,0,0,0,0,0,0,0,0,-1,1791,995,0,0
574,29,0,0,0,0,0,0,0,0,0,-1,1798,995,0,0
581,29,0,0,0,0,0,0,0,0,0,-1,1805,995,0,0
588,29,0,0,0,0,0,0,0,0,0,-1,1812,995,0,0
595,29,0,0,0,0,0,0,0,0,0,-1,1819,995,0,0
602,29,0,0,0,0,0,0,0,0,0,-1,1826,995,0,0
609,29,0,0,0,0,0,0,0,0,0,-1,1833,995,0,0
616,29,0,0,0,0,0,0,0,0,0,-1,1840,995,0,0
623,29,0,0,0,0,0,0,0,0,0,-1,1847,995,0,0
630,29,0,0,0,0,0,0,0,0,0,-1,1854,995,0,0
637,29,0,0,0,0,0,0,0,0,0,-1,1861,995,0,0
644,29,40.683,2.70679,-0.00168053,-0.00138421,0.00392132,0.00239175,-0.00545648,0.80428,0.00464491,0.0413057,1868,995,40.683,-2.7068
651,29,40.5574,2.98004,-0.00133983,-0.000661809,0.0029535,0.00197207,-0.00397371,0.84254,0.00349704,0.0405694,1875,995,40.5573,-2.98003
658,29,40.5668,3.25592,-0.000969587,-0.000241507,0.00201888,0.00144589,-0.00265698,0.874599,0.00240295,0.0420232,1882,995,40.5667,-3.25589
665,29,40.6957,2.98578,-0.000705597,0.00014659,0.00149251,0.00127263,-0.00183164,0.924444,0.00180192,0.0402954,1889,995,40.6957,-2.9858
672,29,40.6718,2.96301,-0.000672648,0.000709321,0.00147396,0.00164622,-0.00160955,1.00458,0.00187976,0.038517,1896,995,40.6717,-2.96299
679,29,40.6821,2.89948,-0.000975727,0.00126551,0.00175345,0.00222585,-0.00193606,1.06973,0.00240482,0.0381155,1903,995,40.6821,-2.89945
686,29,40.6747,2.87335,-0.0012614,0.00164274,0.0021,0.00274381,-0.00236247,1.08788,0.00295085,0.0373351,1910,995,40.6747,-2.87334
693,29,40.7195,2.61896,-0.00160065,0.00188872,0.00245028,0.00315199,-0.00286392,1.09478,0.00347462,0.0395953,1917,995,40.7195,-2.61896
700,29,40.7565,2.56116,-0.00193135,0.00215484,0.0026513,0.00345893,-0.00323544,1.11368,0.00386571,0.0352912,1924,995,40.7565,-2.56114
707,29,40.7109,2.64484,-0.00229391,0.00246188,0.00263922,0.00363643,-0.00346846,1.15208,0.00410239,0.0231105,1931,995,40.7109,-2.64486
714,29,40.7083,3.05884,-0.00280299,0.00281642,0.00253641,0.00379192,-0.00377849,1.20363,0.00437078,0.0366988,1938,995,40.7083,-3.05885
721,29,40.3154,4.62836,0,0,0,0,0,0,0,-1,1945,995,40.3155,-4.62837
728,29,40.2322,4.91614,-0.00416152,0.00393596,0.00233862,0.00456284,-0.0047884,1.3089,0.00539947,0.0276952,1952,995,40.2322,-4.91616
735,29,40.1571,5.14838,-0.00456533,0.00459466,0.0018846,0.00496725,-0.00493792,1.37561,0.00571876,0.0156424,1959,995,40.1571,-5.14838
742,29,40.1667,5.23889,-0.00573341,0.00591087,0.00122756,0.00603887,-0.00586141,1.4669,0.00687089,0.0119723,1966,995,40.1668,-5.23886
749,29,40.1484,5.36823,-0.00721669,0.00696791,0.000417194,0.00698017,-0.00722895,1.54142,0.00820406,0.0132377,1973,995,40.1484,-5.36823
756,29,40.13,5.54297,-0.00854086,0.00855288,-0.000599728,0.0085739,-0.00856187,-1.53577,0.00989334,0.0132351,1980,995,40.13,-5.543
763,29,40.1008,5.64288,-0.0101962,0.0104187,-0.00185572,0.0105844,-0.0103619,-1.48173,0.0120936,0.0129619,1987,995,40.1008,-5.64289
770,29,40.0339,5.71356,-0.0124569,0.0127644,-0.00313704,0.0131488,-0.0128412,-1.44889,0.0150057,0.0154675,1994,995,40.0339,-5.71354
777,29,39.9436,5.90863,-0.0153201,0.0154272,-0.00425809,0.016006,-0.0158989,-1.4357,0.0184203,0.0249566,2001,995,39.9436,-5.90861
784,29,39.9883,6.17664,0,0,0,0,0,0,0,-1,2008,995,39.9883,-6.17665
791,29,37.8838,6.91541,-0.0223566,0.0195761,-0.00722201,0.0207851,-0.0235656,-1.40493,0.0256227,0.0433048,2015,995,37.8838,-6.91541
798,29,37.2056,7.95953,0,0,0,0,0,0,0,-1,2022,995,37.2056,-7.95951
805,29,36.7842,9.14368,0,0,0,0,0,0,0,-1,2029,995,36.7842,-9.14367
812,29,36.3384,10.3265,0,0,0,0,0,0,0,-1,2036,995,36.3385,-10.3265
-700,22,0,0,0,0,0,0,0,0,0,-1,524,1002,0,0
-693,22,-29.3884,2.82019,0,0,0,0,0,0,0,-1,531,1002,-29.3884,-2.82021
-686,22,-30.0586,3.27783,0.0480823,0.169223,0.0376696,0.179981,0.0373241,1.29261,0.109684,0.0426902,538,1002,-30.0586,-3.27785
-679,22,-29.5282,3.34149,0.0360565,0.139037,0.0295856,0.146931,0.0281619,1.31003,0.0900469,0.0443804,545,1002,-29.5282,-3.34152
-672,22,-29.6459,2.55322,0,0,0,0,0,0,0,-1,552,1002,-29.6459,-2.55322
-665,22,-31.7325,1.11707,0,0,0,0,0,0,0,-1,559,1002,-31.7326,-1.11704
-658,22,-29.3419,-0.103271,0,0,0,0,0,0,0,-1,566,1002,-29.3419,0.103294
-651,22,-29.5691,1.24097,0.00506478,0.0541717,0.0121728,0.0570235,0.00221296,1.34067,0.0372999,0.0490536,573,1002,-29.5691,-1.24098
-644,22,-29.8867,2.51874,0.00143489,0.0403907,0.009373,0.0425285,-0.000702983,1.34654,0.0285896,0.0278871,580,1002,-29.8867,-2.51873
-637,22,-30.0797,2.79962,-0.00137279,0.029333,0.0053765,0.0302472,-0.00228698,1.40237,0.0209688,0.0187522,587,1002,-30.0797,-2.7996
-630,22,-30.1063,2.80365,-0.0027969,0.0157274,0.00258916,0.0160825,-0.00315198,1.4345,0.0119122,0.0131438,594,1002,-30.1063,-2.80364
-623,22,-30.122,2.74457,-0.00309401,0.0123692,0.000380806,0.0123785,-0.00310339,1.54619,0.00945808,0.0113613,601,1002,-30.122,-2.74457
-616,22,-30.131,2.65747,-0.00183512,0.00870897,-0.00225539,0.00917114,-0.00229729,-1.36868,0.00700654,0.017622,608,1002,-30.131,-2.65749
-609,22,-30.2015,2.61304,-0.00091017,0.00638729,-0.00476025,0.00873632,-0.00325921,-1.11239,0.00716222,0.0261053,615,1002,-30.2016,-2.61304
-602,22,-30.2358,2.52582,-0.000266742,0.00471536,-0.00635403,0.00904919,-0.00460057,-0.972212,0.00801899,0.0256813,622,1002,-30.2358,-2.52581
-595,22,-30.1373,2.32477,0.000563975,0.00288009,-0.00764837,0.00945758,-0.00601351,-0.860534,0.00900571,0.0242057,629,1002,-30.1373,-2.32475
-588,22,-29.9752,1.70703,0.0010508,0.00201696,-0.00822221,0.00977027,-0.00670251,-0.814741,0.00956538,0.0359548,636,1002,-29.9752,-1.70701
-581,22,-29.826,1.23065,0.00135872,0.00159845,-0.00822058,0.00970004,-0.00674287,-0.792688,0.00954436,0.0433568,643,1002,-29.8261,-1.23062
-574,22,-29.8313,0.842896,0.0013787,0.00125098,-0.00779755,0.00911266,-0.00648297,-0.781303,0.00904671,0.0359259,650,1002,-29.8313,-0.842907
-567,22,-29.8253,0.710938,0.0011913,0.00101312,-0.0066623,0.00776511,-0.00556069,-0.778712,0.00772866,0.0328855,657,1002,-29.8253,-0.71091
-560,22,-29.9246,0.67218,0.00100448,0.000856089,-0.00497609,0.00590693,-0.00404636,-0.777943,0.0057799,0.0363744,664,1002,-29.9246,-0.672188
-553,22,-29.9831,0.907227,0.000868989,0.000730647,-0.00285377,0.00365442,-0.00205479,-0.773281,0.00333906,0.0394281,671,1002,-29.9831,-0.907253
-546,22,-29.8766,1.08398,0.000942798,0.000560083,-0.000475828,0.00126431,0.000238576,-0.594216,0.000775673,0.0424743,678,1002,-29.8767,-1.08396
-539,22,-29.8412,1.00757,0.00156203,0.000603208,0.00131056,0.00247812,-0.000312878,0.610055,0.00176564,0.043321,685,1002,-29.8412,-1.00757
-532,22,-29.8344,0.817871,0.00277835,0.00175288,0.00067042,0.00310963,0.0014216,0.458947,0.00179754,0.0437039,692,1002,-29.8344,-0.817865
-525,22,0,0,0,0,0,0,0,0,0,-1,699,1002,0,0
-518,22,0,0,0,0,0,0,0,0,0,-1,706,1002,0,0
-511,22,0,0,0,0,0,0,0,0,0,-1,713,1002,0,0
-504,22,0,0,0,0,0,0,0,0,0,-1,720,1002,0,0
-497,22,0,0,0,0,0,0,0,0,0,-1,727,1002,0,0
-490,22,0,0,0,0,0,0,0,0,0,-1,734,1002,0,0
-483,22,0,0,0,0,0,0,0,0,0,-1,741,1002,0,0
-476,22,0,0,0,0,0,0,0,0,0,-1,748,1002,0,0
-469,22,0,0,0,0,0,0,0,0,0,-1,755,1002,0,0
-462,22,0,0,0,0,0,0,0,0,0,-1,762,1002,0,0
-455,22,0,0,0,0,0,0,0,0,0,-1,769,1002,0,0
-448,22,0,0,0,0,0,0,0,0,0,-1,776,1002,0,0
-441,22,0,0,0,0,0,0,0,0,0,-1,783,1002,0,0
-434,22,0,0,0,0,0,0,0,0,0,-1,790,1002,0,0
-427,22,0,0,0,0,0,0,0,0,0,-1,797,1002,0,0
-420,22,0,0,0,0,0,0,0,0,0,-1,804,1002,0,0
-413,22,0,0,0,0,0,0,0,0,0,-1,811,1002,0,0
-406,22,0,0,0,0,0,0,0,0,0,-1,818,1002,0,0
-399,22,0,0,0,0,0,0,0,0,0,-1,825,1002,0,0
-392,22,0,0,0,0,0,0,0,0,0,-1,832,1002,0,0
-385,22,0,0,0,0,0,0,0,0,0,-1,839,1002,0,0
-378,22,0,0,0,0,0,0,0,0,0,-1,846,1002,0,0
-371,22,0,0,0,0,0,0,0,0,0,-1,853,1002,0,0
-364,22,0,0,0,0,0,0,0,0,0,-1,860,1002,0,0
-357,22,0,0,0,0,0,0,0,0,0,-1,867,1002,0,0
-350,22,0,0,0,0,0,0,0,0,0,-1,874,1002,0,0
-343,22,0,0,0,0,0,0,0,0,0,-1,881,1002,0,0
-336,22,0,0,0,0,0,0,0,0,0,-1,888,1002,0,0
-329,22,0,0,0,0,0,0,0,0,0,-1,895,1002,0,0
-322,22,0,0,0,0,0,0,0,0,0,-1,902,1002,0,0
-315,22,0,0,0,0,0,0,0,0,0,-1,909,1002,0,0
-308,22,0,0,0,0,0,0,0,0,0,-1,916,1002,0,0
-301,22,0,0,0,0,0,0,0,0,0,-1,923,1002,0,0
-294,22,0,0,0,0,0,0,0,0,0,-1,930,1002,0,0
-287,22,0,0,0,0,0,0,0,0,0,-1,937,1002,0,0
-280,22,0,0,0,0,0,0,0,0,0,-1,944,1002,0,0
-273,22,0,0,0,0,0,0,0,0,0,-1,951,1002,0,0
-266,22,0,0,0,0,0,0,0,0,0,-1,958,1002,0,0
-259,22,0,0,0,0,0,0,0,0,0,-1,965,1002,0,0
-252,22,0,0,0,0,0,0,0,0,0,-1,972,1002,0,0
-245,22,0,0,0,0,0,0,0,0,0,-1,979,1002,0,0
-238,22,0,0,0,0,0,0,0,0,0,-1,986,1002,0,0
-231,22,0,0,0,0,0,0,0,0,0,-1,993,1002,0,0
-224,22,0,0,0,0,0,0,0,0,0,-1,1000,1002,0,0
-217,22,0,0,0,0,0,0,0,0,0,-1,1007,1002,0,0
-210,22,0,0,0,0,0,0,0,0,0,-1,1014,1002,0,0
-203,22,0,0,0,0,0,0,0,0,0,-1,1021,1002,0,0
-196,22,0,0,0,0,0,0,0,0,0,-1,1028,1002,0,0
-189,22,0,0,0,0,0,0,0,0,0,-1,1035,1002,0,0
-182,22,0,0,0,0,0,0,0,0,0,-1,1042,1002,0,0
-175,22,0,0,0,0,0,0,0,0,0,-1,1049,1002,0,0
-168,22,0,0,0,0,0,0,0,0,0,-1,1056,1002,0,0
-161,22,0,0,0,0,0,0,0,0,0,-1,1063,1002,0,0
-154,22,0,0,0,0,0,0,0,0,0,-1,1070,1002,0,0
-147,22,0,0,0,0,0,0,0,0,0,-1,1077,1002,0,0
-140,22,0,0,0,0,0,0,0,0,0,-1,1084,1002,0,0
-133,22,0,0,0,0,0,0,0,0,0,-1,1091,1002,0,0
-126,22,0,0,0,0,0,0,0,0,0,-1,1098,1002,0,0
-119,22,0,0,0,0,0,0,0,0,0,-1,1105,1002,0,0
-112,22,0,0,0,0,0,0,0,0,0,-1,1112,1002,0,0
-105,22,0,0,0,0,0,0,0,0,0,-1,1119,1002,0,0
-98,22,0,0,0,0,0,0,0,0,0,-1,1126,1002,0,0
-91,22,0,0,0,0,0,0,0,0,0,-1,1133,1002,0,0
-84,22,0,0,0,0,0,0,0,0,0,-1,1140,1002,0,0
-77,22,0,0,0,0,0,0,0,0,0,-1,1147,1002,0,0
-70,22,0,0,0,0,0,0,0,0,0,-1,1154,1002,0,0
-63,22,0,0,0,0,0,0,0,0,0,-1,1161,1002,0,0
-56,22,0,0,0,0,0,0,0,0,0,-1,1168,1002,0,0
-49,22,0,0,0,0,0,0,0,0,0,-1,1175,1002,0,0
-42,22,0,0,0,0,0,0,0,0,0,-1,1182,1002,0,0
-35,22,0,0,0,0,0,0,0,0,0,-1,1189,1002,0,0
-28,22,0,0,0,0,0,0,0,0,0,-1,1196,1002,0,0
-21,22,0,0,0,0,0,0,0,0,0,-1,1203,1002,0,0
-14,22,0,0,0,0,0,0,0,0,0,-1,1210,1002,0,0
-7,22,0,0,0,0,0,0,0,0,0,-1,1217,1002,0,0
0,22,0,0,0,0,0,0,0,0,0,-1,1224,1002,0,0
7,22,0,0,0,0,0,0,0,0,0,-1,1231,1002,0,0
14,22,0,0,0,0,0,0,0,0,0,-1,1238,1002,0,0
21,22,0,0,0,0,0,0,0,0,0,-1,1245,1002,0,0
28,22,0,0,0,0,0,0,0,0,0,-1,1252,1002,0,0
35,22,0,0,0,0,0,0,0,0,0,-1,1259,1002,0,0
42,22,0,0,0,0,0,0,0,0,0,-1,1266,1002,0,0
49,22,0,0,0,0,0,0,0,0,0,-1,1273,1002,0,0
56,22,0,0,0,0,0,0,0,0,0,-1,1280,1002,0,0
63,22,0,0,0,0,0,0,0,0,0,-1,1287,1002,0,0
70,22,0,0,0,0,0,0,0,0,0,-1,1294,1002,0,0
77,22,0,0,0,0,0,0,0,0,0,-1,1301,1002,0,0
84,22,0,0,0,0,0,0,0,0,0,-1,1308,1002,0,0
91,22,0,0,0,0,0,0,0,0,0,-1,1315,1002,0,0
98,22,0,0,0,0,0,0,0,0,0,-1,1322,1002,0,0
105,22,0,0,0,0,0,0,0,0,0,-1,1329,1002,0,0
112,22,0,0,0,0,0,0,0,0,0,-1,1336,1002,0,0
119,22,0,0,0,0,0,0,0,0,0,-1,1343,1002,0,0
126,22,0,0,0,0,0,0,0,0,0,-1,1350,1002,0,0
133,22,0,0,0,0,0,0,0,0,0,-1,1357,1002,0,0
140,22,0,0,0,0,0,0,0,0,0,-1,1364,1002,0,0
147,22,0,0,0,0,0,0,0,0,0,-1,1371,1002,0,0
154,22,0,0,0,0,0,0,0,0,0,-1,1378,1002,0,0
161,22,0,0,0,0,0,0,0,0,0,-1,1385,1002,0,0
168,22,0,0,0,0,0,0,0,0,0,-1,1392,1002,0,0
175,22,0,0,0,0,0,0,0,0,0,-1,1399,1002,0,0
182,22,0,0,0,0,0,0,0,0,0,-1,1406,1002,0,0
189,22,0,0,0,0,0,0,0,0,0,-1,1413,1002,0,0
196,22,0,0,0,0,0,0,0,0,0,-1,1420,1002,0,0
203,22,0,0,0,0,0,0,0,0,0,-1,1427,1002,0,0
210,22,0,0,0,0,0,0,0,0,0,-1,1434,1002,0,0
217,22,0,0,0,0,0,0,0,0,0,-1,1441,1002,0,0
224,22,0,0,0,0,0,0,0,0,0,-1,1448,1002,0,0
231,22,0,0,0,0,0,0,0,0,0,-1,1455,1002,0,0
238,22,0,0,0,0,0,0,0,0,0,-1,1462,1002,0,0
245,22,0,0,0,0,0,0,0,0,0,-1,1469,1002,0,0
252,22,0,0,0,0,0,0,0,0,0,-1,1476,1002,0,0
259,22,0,0,0,0,0,0,0,0,0,-1,1483,1002,0,0
266,22,0,0,0,0,0,0,0,0,0,-1,1490,1002,0,0
273,22,0,0,0,0,0,0,0,0,0,-1,1497,1002,0,0
280,22,0,0,0,0,0,0,0,0,0,-1,1504,1002,0,0
287,22,0,0,0,0,0,0,0,0,0,-1,1511,1002,0,0
294,22,0,0,0,0,0,0,0,0,0,-1,1518,1002,0,0
301,22,0,0,0,0,0,0,0,0,0,-1,1525,1002,0,0
308,22,0,0,0,0,0,0,0,0,0,-1,1532,1002,0,0
315,22,0,0,0,0,0,0,0,0,0,-1,1539,1002,0,0
322,22,0,0,0,0,0,0,0,0,0,-1,1546,1002,0,0
329,22,0,0,0,0,0,0,0,0,0,-1,1553,1002,0,0
336,22,0,0,0,0,0,0,0,0,0,-1,1560,1002,0,0
343,22,0,0,0,0,0,0,0,0,0,-1,1567,1002,0,0
350,22,0,0,0,0,0,0,0,0,0,-1,1574,1002,0,0
357,22,0,0,0,0,0,0,0,0,0,-1,1581,1002,0,0
364,22,0,0,0,0,0,0,0,0,0,-1,1588,1002,0,0
371,22,0,0,0,0,0,0,0,0,0,-1,1595,1002,0,0
378,22,0,0,0,0,0,0,0,0,0,-1,1602,1002,0,0
385,22,0,0,0,0,0,0,0,0,0,-1,1609,1002,0,0
392,22,0,0,0,0,0,0,0,0,0,-1,1616,1002,0,0
399,22,0,0,0,0,0,0,0,0,0,-1,1623,1002,0,0
406,22,0,0,0,0,0,0,0,0,0,-1,1630,1002,0,0
413,22,0,0,0,0,0,0,0,0,0,-1,1637,1002,0,0
420,22,0,0,0,0,0,0,0,0,0,-1,1644,1002,0,0
427,22,0,0,0,0,0,0,0,0,0,-1,1651,1002,0,0
434,22,0,0,0,0,0,0,0,0,0,-1,1658,1002,0,0
441,22,0,0,0,0,0,0,0,0,0,-1,1665,1002,0,0
448,22,0,0,0,0,0,0,0,0,0,-1,1672,1002,0,0
455,22,0,0,0,0,0,0,0,0,0,-1,1679,1002,0,0
462,22,0,0,0,0,0,0,0,0,0,-1,1686,1002,0,0
469,22,0,0,0,0,0,0,0,0,0,-1,1693,1002,0,0
476,22,0,0,0,0,0,0,0,0,0,-1,1700,1002,0,0
483,22,0,0,0,0,0,0,0,0,0,-1,1707,1002,0,0
490,22,0,0,0,0,0,0,0,0,0,-1,1714,1002,0,0
497,22,0,0,0,0,0,0,0,0,0,-1,1721,1002,0,0
504,22,0,0,0,0,0,0,0,0,0,-1,1728,1002,0,0
511,22,0,0,0,0,0,0,0,0,0,-1,1735,1002,0,0
518,22,0,0,0,0,0,0,0,0,0,-1,1742,1002,0,0
525,22,0,0,0,0,0,0,0,0,0,-1,1749,1002,0,0
532,22,0,0,0,0,0,0,0,0,0,-1,1756,1002,0,0
539,22,0,0,0,0,0,0,0,0,0,-1,1763,1002,0,0
546,22,0,0,0,0,0,0,0,0,0,-1,1770,1002,0,0
553,22,0,0,0,0,0,0,0,0,0,-1,1777,1002,0,0
560,22,0,0,0,0,0,0,0,0,0,-1,1784,1002,0,0
567,22,0,0,0,0,0,0,0,0,0,-1,1791,1002,0,0
574,22,0,0,0,0,0,0,0,0,0,-1,1798,1002,0,0
581,22,0,0,0,0,0,0,0,0,0,-1,1805,1002,0,0
588,22,0,0,0,0,0,0,0,0,0,-1,1812,1002,0,0
595,22,0,0,0,0,0,0,0,0,0,-1,1819,1002,0,0
602,22,0,0,0,0,0,0,0,0,0,-1,1826,1002,0,0
609,22,0,0,0,0,0,0,0,0,0,-1,1833,1002,0,0
616,22,0,0,0,0,0,0,0,0,0,-1,1840,1002,0,0
623,22,0,0,0,0,0,0,0,0,0,-1,1847,1002,0,0
630,22,0,0,0,0,0,0,0,0,0,-1,1854,1002,0,0
637,22,0,0,0,0,0,0,0,0,0,-1,1861,1002,0,0
644,22,40.7186,2.60156,-0.00309179,0.000705553,0.0042974,0.00350503,-0.00589126,0.993413,0.00548295,0.0381107,1868,1002,40.7186,-2.60159
651,22,40.6783,2.61871,-0.00242487,0.00117427,0.00312365,0.00297965,-0.00423025,1.04673,0.00418346,0.0407834,1875,1002,40.6784,-2.61872
658,22,40.6267,3.27203,-0.00176923,0.00129798,0.00205512,0.00232864,-0.0027999,1.10594,0.00296513,0.0420563,1882,1002,40.6267,-3.27203
665,22,40.657,2.97589,-0.00128573,0.00139263,0.00143091,0.00201328,-0.00190637,1.16155,0.00226329,0.0389799,1889,1002,40.657,-2.97591
672,22,40.6752,2.77948,-0.00103327,0.00169849,0.00138423,0.00227727,-0.00161205,1.17476,0.00225642,0.0371789,1896,1002,40.6752,-2.77947
679,22,40.6426,2.8692,-0.00113313,0.00207919,0.00167103,0.00279081,-0.00184474,1.1682,0.00269485,0.03846,1903,1002,40.6426,-2.8692
686,22,40.7449,2.8728,-0.00129091,0.00231909,0.00205962,0.00325271,-0.00222453,1.1452,0.0031808,0.0393044,1910,1002,40.7449,-2.87279
693,22,40.7577,2.79749,-0.00152042,0.00244932,0.00245803,0.00362382,-0.00269492,1.12505,0.00366124,0.0372463,1917,1002,40.7577,-2.79749
700,22,40.7592,2.69812,-0.00176925,0.00262158,0.00269587,0.00390288,-0.00305055,1.12712,0.00402461,0.0326171,1924,1002,40.7592,-2.69814
707,22,40.6711,2.63983,-0.00206516,0.00282933,0.00273637,0.00405315,-0.00328898,1.15024,0.00424663,0.0302951,1931,1002,40.6711,-2.63983
714,22,40.6853,2.81335,-0.0025472,0.00310706,0.00269321,0.00418455,-0.00362469,1.19022,0.00451253,0.0346422,1938,1002,40.6853,-2.81335
721,22,40.7465,3.20563,0,0,0,0,0,0,0,-1,1945,1002,40.7465,-3.20565
728,22,40.2576,5.11292,0,0,0,0,0,0,0,-1,1952,1002,40.2576,-5.11293
735,22,40.3077,5.19269,-0.00439276,0.00476256,0.00200073,0.00518068,-0.00481089,1.36477,0.00576996,0.0157698,1959,1002,40.3077,-5.19269
742,22,40.3285,5.28839,-0.00562566,0.00609368,0.00128472,0.00623286,-0.00576485,1.46288,0.00692864,0.0147734,1966,1002,40.3284,-5.28842
749,22,40.2789,5.38171,-0.00728896,0.0071258,0.000416809,0.00713784,-0.007301,1.54191,0.00833645,0.011881,1973,1002,40.279,-5.38169
756,22,40.2588,5.4762,-0.00876284,0.00870964,-0.000702069,0.0087378,-0.00879101,-1.5307,0.0101203,0.0173587,1980,1002,40.2588,-5.47623
763,22,40.2172,5.6098,-0.010612,0.0105741,-0.00213072,0.0107863,-0.0108242,-1.47155,0.0124768,0.0188059,1987,1002,40.2171,-5.60978
770,22,40.1019,5.66516,-0.0131796,0.0129766,-0.00370674,0.0134918,-0.0136948,-1.4327,0.0156963,0.01776,1994,1002,40.1019,-5.66519
777,22,39.8638,5.63763,-0.0164109,0.0157687,-0.00517262,0.0165797,-0.0172219,-1.41527,0.0195165,0.0381082,2001,1002,39.8638,-5.63764
784,22,39.6671,5.64905,0,0,0,0,0,0,0,-1,2008,1002,39.6671,-5.64904
791,22,38.3042,6.65308,0,0,0,0,0,0,0,-1,2015,1002,38.3042,-6.6531
798,22,37.4148,6.88495,0,0,0,0,0,0,0,-1,2022,1002,37.4147,-6.88497
805,22,37.0151,9.07452,0,0,0,0,0,0,0,-1,2029,1002,37.0151,-9.07455
812,22,37.2744,6.18665,0,0,0,0,0,0,0,-1,2036,1002,37.2743,-6.18665
-700,15,0,0,0,0,0,0,0,0,0,-1,524,1009,0,0
-693,15,-29.0438,1.61975,0,0,0,0,0,0,0,-1,531,1009,-29.0438,-1.61977
-686,15,-29.2851,2.02966,0.0298129,0.151647,0.0386384,0.162868,0.0185926,1.28818,0.102942,0.0452056,538,1009,-29.2851,-2.02966
-679,15,-29.5482,2.35229,0.0206975,0.124872,0.0312124,0.133508,0.0120616,1.30087,0.0852694,0.0463213,545,1009,-29.5482,-2.35232
-672,15,-29.7432,2.37567,0.0131927,0.101335,0.025254,0.108058,0.00646986,1.31062,0.0699817,0.0456973,552,1009,-29.7432,-2.3757
-665,15,-29.958,2.55414,0,0,0,0,0,0,0,-1,559,1009,-29.958,-2.55414
-658,15,-30.0626,2.13129,0,0,0,0,0,0,0,-1,566,1009,-30.0626,-2.1313
-651,15,-29.5535,1.61066,0,0,0,0,0,0,0,-1,573,1009,-29.5535,-1.61065
-644,15,-29.8837,2.33411,-0.00237544,0.0362726,0.00970119,0.0385711,-0.00467388,1.33816,0.0274052,0.0446324,580,1009,-29.8837,-2.33408
-637,15,-30.0645,2.73969,-0.00376739,0.0266729,0.00555818,0.0276561,-0.00475052,1.39573,0.0202079,0.0262058,587,1009,-30.0645,-2.73967
-630,15,-30.1078,2.73645,-0.00408746,0.0144286,0.00248559,0.0147564,-0.00441532,1.43965,0.0115931,0.0142926,594,1009,-30.1078,-2.73643
-623,15,-30.1721,2.69672,-0.00330768,0.0112701,-0.000183922,0.0112724,-0.00331,-1.55818,0.00882762,0.00969343,601,1009,-30.1721,-2.69673
-616,15,-30.1951,2.66302,-0.00146421,0.00822706,-0.00305238,0.00910832,-0.00234547,-1.28973,0.00698652,0.0148162,608,1009,-30.1952,-2.66301
-609,15,-30.2045,2.63202,-0.000300378,0.00617236,-0.00549399,0.00931235,-0.00344037,-1.05157,0.00761852,0.0206753,615,1009,-30.2045,-2.63201
-602,15,-30.1882,2.55548,0.000427957,0.00454981,-0.00703216,0.00981682,-0.00483906,-0.927942,0.00862272,0.0198188,622,1009,-30.1882,-2.55546
-595,15,-30.0117,1.95123,0.00120987,0.00283426,-0.008252,0.0103139,-0.0062698,-0.834452,0.00966906,0.0370969,629,1009,-30.0117,-1.95122
-588,15,-29.7993,1.35748,0.0016958,0.00205636,-0.00877134,0.0106493,-0.00689711,-0.795673,0.0102073,0.0449098,636,1009,-29.7993,-1.35751
-581,15,-29.8387,0.932739,0.00203006,0.00169803,-0.00871719,0.0105828,-0.00685473,-0.775877,0.010144,0.0396455,643,1009,-29.8387,-0.932756
-574,15,-29.8118,0.871338,0.0019847,0.0013997,-0.00819204,0.00988946,-0.00650506,-0.767553,0.00953237,0.034846,650,1009,-29.8118,-0.871325
-567,15,-29.8537,0.887512,0.00168121,0.00121944,-0.00696511,0.00841925,-0.00551861,-0.76883,0.00810491,0.0342619,657,1009,-29.8537,-0.8875
-560,15,-29.9453,0.815002,0.00131801,0.00111659,-0.00517014,0.00638842,-0.00395382,-0.77566,0.00602599,0.0367424,664,1009,-29.9452,-0.815018
-553,15,-30.0031,1.01001,0.00093819,0.00102863,-0.00292147,0.00390523,-0.00193841,-0.793137,0.00343694,0.0405333,671,1009,-30.003,-1.00999
-546,15,-29.949,1.21527,0.000724637,0.000866218,-0.000407661,0.00120919,0.000381666,-0.871366,0.00071377,0.0440792,678,1009,-29.949,-1.21524
-539,15,-29.834,1.34137,0.0010535,0.000918281,0.00140698,0.0023945,-0.000422715,0.76139,0.00175429,0.0450842,685,1009,-29.8341,-1.34138
-532,15,-29.7404,0.92157,0.00209113,0.00218636,0.000552492,0.00269329,0.00158421,0.828384,0.00156301,0.0429097,692,1009,-29.7404,-0.921559
-525,15,0,0,0,0,0,0,0,0,0,-1,699,1009,0,0
-518,15,0,0,0,0,0,0,0,0,0,-1,706,1009,0,0
-511,15,0,0,0,0,0,0,0,0,0,-1,713,1009,0,0
-504,15,0,0,0,0,0,0,0,0,0,-1,720,1009,0,0
-497,15,0,0,0,0,0,0,0,0,0,-1,727,1009,0,0
-490,15,0,0,0,0,0,0,0,0,0,-1,734,1009,0,0
-483,15,0,0,0,0,0,0,0,0,0,-1,741,1009,0,0
-476,15,0,0,0,0,0,0,0,0,0,-1,748,1009,0,0
-469,15,0,0,0,0,0,0,0,0,0,-1,755,1009,0,0
-462,15,0,0,0,0,0,0,0,0,0,-1,762,1009,0,0
-455,15,0,0,0,0,0,0,0,0,0,-1,769,1009,0,0
-448,15,0,0,0,0,0,0,0,0,0,-1,776,1009,0,0
-441,15,0,0,0,0,0,0,0,0,0,-1,783,1009,0,0
-434,15,0,0,0,0,0,0,0,0,0,-1,790,1009,0,0
-427,15,0,0,0,0,0,0,0,0,0,-1,797,1009,0,0
-420,15,0,0,0,0,0,0,0,0,0,-1,804,1009,0,0
-413,15,0,0,0,0,0,0,0,0,0,-1,811,1009,0,0
-406,15,0,0,0,0,0,0,0,0,0,-1,818,1009,0,0
-399,15,0,0,0,0,0,0,0,0,0,-1,825,1009,0,0
-392,15,0,0,0,0,0,0,0,0,0,-1,832,1009,0,0
-385,15,0,0,0,0,0,0,0,0,0,-1,839,1009,0,0
-378,15,0,0,0,0,0,0,0,0,0,-1,846,1009,0,0
-371,15,0,0,0,0,0,0,0,0,0,-1,853,1009,0,0
-364,15,0,0,0,0,0,0,0,0,0,-1,860,1009,0,0
-357,15,0,0,0,0,0,0,0,0,0,-1,867,1009,0,0
-350,15,0,0,0,0,0,0,0,0,0,-1,874,1009,0,0
-343,15,0,0,0,0,0,0,0,0,0,-1,881,1009,0,0
-336,15,0,0,0,0,0,0,0,0,0,-1,888,1009,0,0
-329,15,0,0,0,0,0,0,0,0,0,-1,895,1009,0,0
-322,15,0,0,0,0,0,0,0,0,0,-1,902,1009,0,0
-315,15,0,0,0,0,0,0,0,0,0,-1,909,1009,0,0
-308,15,0,0,0,0,0,0,0,0,0,-1,916,1009,0,0
-301,15,0,0,0,0,0,0,0,0,0,-1,923,1009,0,0
-294,15,0,0,0,0,0,0,0,0,0,-1,930,1009,0,0
-287,15,0,0,0,0,0,0,0,0,0,-1,937,1009,0,0
-280,15,0,0,0,0,0,0,0,0,0,-1,944,1009,0,0
-273,15,0,0,0,0,0,0,0,0,0,-1,951,1009,0,0
-266,15,0,0,0,0,0,0,0,0,0,-1,958,1009,0,0
-259,15,0,0,0,0,0,0,0,0,0,-1,965,1009,0,0
-252,15,0,0,0,0,0,0,0,0,0,-1,972,1009,0,0
-245,15,0,0,0,0,0,0,0,0,0,-1,979,1009,0,0
-238,15,0,0,0,0,0,0,0,0,0,-1,986,1009,0,0
-231,15,0,0,0,0,0,0,0,0,0,-1,993,1009,0,0
-224,15,0,0,0,0,0,0,0,0,0,-1,1000,1009,0,0
-217,15,0,0,0,0,0,0,0,0,0,-1,1007,1009,0,0
-210,15,0,0,0,0,0,0,0,0,0,-1,1014,1009,0,0
-203,15,0,0,0,0,0,0,0,0,0,-1,1021,1009,0,0
-196,15,0,0,0,0,0,0,0,0,0,-1,1028,1009,0,0
-189,15,0,0,0,0,0,0,0,0,0,-1,1035,1009,0,0
-182,15,0,0,0,0,0,0,0,0,0,-1,1042,1009,0,0
-175,15,0,0,0,0,0,0,0,0,0,-1,1049,1009,0,0
-168,15,0,0,0,0,0,0,0,0,0,-1,1056,1009,0,0
-161,15,0,0,0,0,0,0,0,0,0,-1,1063,1009,0,0
-154,15,0,0,0,0,0,0,0,0,0,-1,1070,1009,0,0
-147,15,0,0,0,0,0,0,0,0,0,-1,1077,1009,0,0
-140,15,0,0,0,0,0,0,0,0,0,-1,1084,1009,0,0
-133,15,0,0,0,0,0,0,0,0,0,-1,1091,1009,0,0
-126,15,0,0,0,0,0,0,0,0,0,-1,1098,1009,0,0
-119,15,0,0,0,0,0,0,0,0,0,-1,1105,1009,0,0
-112,15,0,0,0,0,0,0,0,0,0,-1,1112,1009,0,0
-105,15,0,0,0,0,0,0,0,0,0,-1,1119,1009,0,0
-98,15,0,0,0,0,0,0,0,0,0,-1,1126,1009,0,0
-91,15,0,0,0,0,0,0,0,0,0,-1,1133,1009,0,0
-84,15,0,0,0,0,0,0,0,0,0,-1,1140,1009,0,0
-77,15,0,0,0,0,0,0,0,0,0,-1,1147,1009,0,0
-70,15,0,0,0,0,0,0,0,0,0,-1,1154,1009,0,0
-63,15,0,0,0,0,0,0,0,0,0,-1,1161,1009,0,0
-56,15,0,0,0,0,0,0,0,0,0,-1,1168,1009,0,0
-49,15,0,0,0,0,0,0,0,0,0,-1,1175,1009,0,0
-42,15,0,0,0,0,0,0,0,0,0,-1,1182,1009,0,0
-35,15,0,0,0,0,0,0,0,0,0,-1,1189,1009,0,0
-28,15,0,0,0,0,0,0,0,0,0,-1,1196,1009,0,0
-21,15,0,0,0,0,0,0,0,0,0,-1,1203,1009,0,0
-14,15,0,0,0,0,0,0,0,0,0,-1,1210,1009,0,0
-7,15,0,0,0,0,0,0,0,0,0,-1,1217,1009,0,0
0,15,0,0,0,0,0,0,0,0,0,-1,1224,1009,0,0
7,15,0,0,0,0,0,0,0,0,0,-1,1231,1009,0,0
14,15,0,0,0,0,0,0,0,0,0,-1,1238,1009,0,0
21,15,0,0,0,0,0,0,0,0,0,-1,1245,1009,0,0
28,15,0,0,0,0,0,0,0,0,0,-1,1252,1009,0,0
35,15,0,0,0,0,0,0,0,0,0,-1,1259,1009,0,0
42,15,0,0,0,0,0,0,0,0,0,-1,1266,1009,0,0
49,15,0,0,0,0,0,0,0,0,0,-1,1273,1009,0,0
56,15,0,0,0,0,0,0,0,0,0,-1,1280,1009,0,0
63,15,0,0,0,0,0,0,0,0,0,-1,1287,1009,0,0
70,15,0,0,0,0,0,0,0,0,0,-1,1294,1009,0,0
77,15,0,0,0,0,0,0,0,0,0,-1,1301,1009,0,0
84,15,0,0,0,0,0,0,0,0,0,-1,1308,1009,0,0
91,15,0,0,0,0,0,0,0,0,0,-1,1315,1009,0,0
98,15,0,0,0,0,0,0,0,0,0,-1,1322,1009,0,0
105,15,0,0,0,0,0,0,0,0,0,-1,1329,1009,0,0
112,15,0,0,0,0,0,0,0,0,0,-1,1336,1009,0,0
119,15,0,0,0,0,0,0,0,0,0,-1,1343,1009,0,0
126,15,0,0,0,0,0,0,0,0,0,-1,1350,1009,0,0
133,15,0,0,0,0,0,0,0,0,0,-1,1357,1009,0,0
140,15,0,0,0,0,0,0,0,0,0,-1,1364,1009,0,0
147,15,0,0,0,0,0,0,0,0,0,-1,1371,1009,0,0
154,15,0,0,0,0,0,0,0,0,0,-1,1378,1009,0,0
161,15,0,0,0,0,0,0,0,0,0,-1,1385,1009,0,0
168,15,0,0,0,0,0,0,0,0,0,-1,1392,1009,0,0
175,15,0,0,0,0,0,0,0,0,0,-1,1399,1009,0,0
182,15,0,0,0,0,0,0,0,0,0,-1,1406,1009,0,0
189,15,0,0,0,0,0,0,0,0,0,-1,1413,1009,0,0
196,15,0,0,0,0,0,0,0,0,0,-1,1420,1009,0,0
203,15,0,0,0,0,0,0,0,0,0,-1,1427,1009,0,0
210,15,0,0,0,0,0,0,0,0,0,-1,1434,1009,0,0
217,15,0,0,0,0,0,0,0,0,0,-1,1441,1009,0,0
224,15,0,0,0,0,0,0,0,0,0,-1,1448,1009,0,0
231,15,0,0,0,0,0,0,0,0,0,-1,1455,1009,0,0
238,15,0,0,0,0,0,0,0,0,0,-1,1462,1009,0,0
245,15,0,0,0,0,0,0,0,0,0,-1,1469,1009,0,0
252,15,0,0,0,0,0,0,0,0,0,-1,1476,1009,0,0
259,15,0,0,0,0,0,0,0,0,0,-1,1483,1009,0,0
266,15,0,0,0,0,0,0,0,0,0,-1,1490,1009,0,0
273,15,0,0,0,0,0,0,0,0,0,-1,1497,1009,0,0
280,15,0,0,0,0,0,0,0,0,0,-1,1504,1009,0,0
287,15,0,0,0,0,0,0,0,0,0,-1,1511,1009,0,0
294,15,0,0,0,0,0,0,0,0,0,-1,1518,1009,0,0
301,15,0,0,0,0,0,0,0,0,0,-1,1525,1009,0,0
308,15,0,0,0,0,0,0,0,0,0,-1,1532,1009,0,0
315,15,0,0,0,0,0,0,0,0,0,-1,1539,1009,0,0
322,15,0,0,0,0,0,0,0,0,0,-1,1546,1009,0,0
329,15,0,0,0,0,0,0,0,0,0,-1,1553,1009,0,0
336,15,0,0,0,0,0,0,0,0,0,-1,1560,1009,0,0
343,15,0,0,0,0,0,0,0,0,0,-1,1567,1009,0,0
350,15,0,0,0,0,0,0,0,0,0,-1,1574,1009,0,0
357,15,0,0,0,0,0,0,0,0,0,-1,1581,1009,0,0
364,15,0,0,0,0,0,0,0,0,0,-1,1588,1009,0,0
371,15,0,0,0,0,0,0,0,0,0,-1,1595,1009,0,0
378,15,0,0,0,0,0,0,0,0,0,-1,1602,1009,0,0
385,15,0,0,0,0,0,0,0,0,0,-1,1609,1009,0,0
392,15,0,0,0,0,0,0,0,0,0,-1,1616,1009,0,0
399,15,0,0,0,0,0,0,0,0,0,-1,1623,1009,0,0
406,15,0,0,0,0,0,0,0,0,0,-1,1630,1009,0,0
413,15,0,0,0,0,0,0,0,0,0,-1,1637,1009,0,0
420,15,0,0,0,0,0,0,0,0,0,-1,1644,1009,0,0
427,15,0,0,0,0,0,0,0,0,0,-1,1651,1009,0,0
434,15,0,0,0,0,0,0,0,0,0,-1,1658,1009,0,0
441,15,0,0,0,0,0,0,0,0,0,-1,1665,1009,0,0
448,15,0,0,0,0,0,0,0,0,0,-1,1672,1009,0,0
455,15,0,0,0,0,0,0,0,0,0,-1,1679,1009,0,0
462,15,0,0,0,0,0,0,0,0,0,-1,1686,1009,0,0
469,15,0,0,0,0,0,0,0,0,0,-1,1693,1009,0,0
476,15,0,0,0,0,0,0,0,0,0,-1,1700,1009,0,0
483,15,0,0,0,0,0,0,0,0,0,-1,1707,1009,0,0
490,15,0,0,0,0,0,0,0,0,0,-1,1714,1009,0,0
497,15,0,0,0,0,0,0,0,0,0,-1,1721,1009,0,0
504,15,0,0,0,0,0,0,0,0,0,-1,1728,1009,0,0
511,15,0,0,0,0,0,0,0,0,0,-1,1735,1009,0,0
518,15,0,0,0,0,0,0,0,0,0,-1,1742,1009,0,0
525,15,0,0,0,0,0,0,0,0,0,-1,1749,1009,0,0
532,15,0,0,0,0,0,0,0,0,0,-1,1756,1009,0,0
539,15,0,0,0,0,0,0,0,0,0,-1,1763,1009,0,0
546,15,0,0,0,0,0,0,0,0,0,-1,1770,1009,0,0
553,15,0,0,0,0,0,0,0,0,0,-1,1777,1009,0,0
560,15,0,0,0,0,0,0,0,0,0,-1,1784,1009,0,0
567,15,0,0,0,0,0,0,0,0,0,-1,1791,1009,0,0
574,15,0,0,0,0,0,0,0,0,0,-1,1798,1009,0,0
581,15,0,0,0,0,0,0,0,0,0,-1,1805,1009,0,0
588,15,0,0,0,0,0,0,0,0,0,-1,1812,1009,0,0
595,15,0,0,0,0,0,0,0,0,0,-1,1819,1009,0,0
602,15,0,0,0,0,0,0,0,0,0,-1,1826,1009,0,0
609,15,0,0,0,0,0,0,0,0,0,-1,1833,1009,0,0
616,15,0,0,0,0,0,0,0,0,0,-1,1840,1009,0,0
623,15,0,0,0,0,0,0,0,0,0,-1,1847,1009,0,0
630,15,0,0,0,0,0,0,0,0,0,-1,1854,1009,0,0
637,15,0,0,0,0,0,0,0,0,0,-1,1861,1009,0,0
644,15,40.7687,2.50226,-0.00448323,0.00204373,0.00439482,0.00425425,-0.00669375,1.10476,0.00637292,0.0389386,1868,1009,40.7687,-2.50224
651,15,40.7448,2.56909,-0.00350801,0.00253058,0.00316704,0.00388693,-0.00486437,1.16616,0.00506306,0.0391747,1875,1009,40.7448,-2.56907
658,15,40.6498,2.73303,-0.00257839,0.00258569,0.00207278,0.00331475,-0.00330744,1.23258,0.00382332,0.0399316,1882,1009,40.6498,-2.73302
665,15,40.7234,2.74036,-0.00188481,0.00253931,0.00141477,0.00295304,-0.00229854,1.28629,0.00303984,0.0386182,1889,1009,40.7234,-2.74034
672,15,40.7549,2.71649,-0.00142021,0.00268842,0.00138179,0.00310989,-0.00184169,1.27474,0.00288988,0.0374465,1896,1009,40.7549,-2.7165
679,15,40.7057,2.80554,-0.00128916,0.00295884,0.00171002,0.00356166,-0.00189198,1.23188,0.00319747,0.0376015,1903,1009,40.7057,-2.80554
686,15,40.761,2.78949,-0.00128288,0.00309753,0.00215133,0.00397738,-0.00216273,1.18257,0.00359623,0.0416669,1910,1009,40.761,-2.7895
693,15,40.7216,2.79114,-0.00137118,0.00313492,0.00260676,0.00432737,-0.00256363,1.14177,0.00402172,0.0380758,1917,1009,40.7215,-2.79115
700,15,40.8002,2.76074,-0.00151714,0.00322369,0.00288395,0.00458637,-0.00287983,1.12938,0.00434799,0.0299029,1924,1009,40.8002,-2.76072
707,15,40.7278,2.70563,-0.00173285,0.00333466,0.00295981,0.0046971,-0.00309529,1.1394,0.00453051,0.0280537,1931,1009,40.7278,-2.70564
714,15,40.7035,2.72949,-0.00217257,0.00352232,0.0029537,0.00477759,-0.00342785,1.16894,0.00475873,0.0316762,1938,1009,40.7035,-2.72947
721,15,40.7694,2.70111,0,0,0,0,0,0,0,-1,1945,1009,40.7694,-2.70112
728,15,40.421,5.1192,0,0,0,0,0,0,0,-1,1952,1009,40.421,-5.11921
735,15,40.3796,5.22357,-0.00405296,0.00501309,0.00225536,0.00554316,-0.00458304,1.33996,0.00585512,0.0182207,1959,1009,40.3796,-5.22355
742,15,40.3977,5.34985,-0.00531536,0.00633871,0.00148602,0.00652521,-0.00550186,1.44595,0.00695221,0.0250892,1966,1009,40.3977,-5.34983
749,15,40.3722,5.40906,-0.00710465,0.00731614,0.000593288,0.00734051,-0.00712901,1.52975,0.00835428,0.0150602,1973,1009,40.3722,-5.40908
756,15,40.3735,5.3902,-0.0086693,0.00887516,-0.000573425,0.00889388,-0.00868802,-1.53816,0.0101511,0.013803,1980,1009,40.3735,-5.39021
763,15,40.3297,5.4989,-0.0106258,0.010725,-0.00208871,0.0109274,-0.0108282,-1.47419,0.0125606,0.013052,1987,1009,40.3297,-5.4989
770,15,40.2209,5.53345,-0.0133597,0.0131597,-0.00384695,0.0137065,-0.0139064,-1.42961,0.0159425,0.0197557,1994,1009,40.2209,-5.53344
777,15,39.9052,5.60028,-0.0167695,0.0160378,-0.00553107,0.0169452,-0.0176769,-1.40819,0.0199906,0.0453207,2001,1009,39.9052,-5.60031
784,15,39.6531,5.672,0,0,0,0,0,0,0,-1,2008,1009,39.653,-5.67199
791,15,38.7668,6.34839,-0.024862,0.0208792,-0.00970441,0.0228529,-0.0268357,-1.37015,0.0287185,0.0475931,2015,1009,38.7668,-6.34837
798,15,37.9143,6.13458,-0.0290354,0.0217472,-0.0125068,0.0246603,-0.0319485,-1.34196,0.0327733,0.0471489,2022,1009,37.9143,-6.1346
805,15,37.5449,5.89551,0,0,0,0,0,0,0,-1,2029,1009,37.5448,-5.8955
812,15,37.4519,6.07288,0,0,0,0,0,0,0,-1,2036,1009,37.4519,-6.07285
-700,8,0,0,0,0,0,0,0,0,0,-1,524,1016,0,0
-693,8,-28.2921,2.59052,0,0,0,0,0,0,0,-1,531,1016,-28.2921,-2.59051
-686,8,-28.2296,2.56726,0,0,0,0,0,0,0,-1,538,1016,-28.2296,-2.56728
-679,8,-29.4534,2.05859,0,0,0,0,0,0,0,-1,545,1016,-29.4534,-2.0586
-672,8,-29.7034,2.06982,0,0,0,0,0,0,0,-1,552,1016,-29.7034,-2.06982
-665,8,-29.9535,2.08105,0,0,0,0,0,0,0,-1,559,1016,-29.9535,-2.08105
-658,8,-30.1719,2.23669,0,0,0,0,0,0,0,-1,566,1016,-30.1719,-2.23672
-651,8,-29.6549,2.43304,0,0,0,0,0,0,0,-1,573,1016,-29.6549,-2.43306
-644,8,-29.7552,2.40857,0,0,0,0,0,0,0,-1,580,1016,-29.7552,-2.40859
-637,8,-29.9712,2.58191,-0.00392327,0.0237923,0.00466892,0.0245577,-0.00468865,1.40831,0.0181378,0.0351644,587,1016,-29.9712,-2.5819
-630,8,-30.1293,2.68683,-0.00377164,0.0134781,0.00172959,0.0136498,-0.00394336,1.47184,0.0106603,0.0198168,594,1016,-30.1293,-2.68685
-623,8,-30.1401,2.70123,-0.00274477,0.0105287,-0.000951656,0.0105966,-0.00281265,-1.49959,0.00816507,0.0140573,601,1016,-30.1401,-2.70126
-616,8,-30.1611,2.67865,-0.000898331,0.00765802,-0.00374218,0.00906374,-0.00230405,-1.21146,0.00693921,0.013727,608,1016,-30.1611,-2.67866
-609,8,-30.1855,2.62292,0.000316145,0.00586308,-0.00612053,0.00980921,-0.00362999,-0.99813,0.00802786,0.0161692,615,1016,-30.1856,-2.62294
-602,8,-30.1422,2.6189,0.00097047,0.00429194,-0.00763227,0.0104421,-0.00517966,-0.892525,0.0091882,0.0215459,622,1016,-30.1422,-2.61888
-595,8,-29.8826,1.75909,0,0,0,0,0,0,0,-1,629,1016,-29.8826,-1.75911
-588,8,-29.8156,0.84906,0,0,0,0,0,0,0,-1,636,1016,-29.8155,-0.849062
-581,8,-29.8146,0.865173,0.00247913,0.00184551,-0.00917391,0.0113417,-0.00701706,-0.768138,0.010697,0.0306042,643,1016,-29.8146,-0.865187
-574,8,-29.7797,1.00696,0.00242625,0.00165814,-0.00861423,0.010665,-0.00658059,-0.763121,0.0100494,0.0355819,650,1016,-29.7797,-1.00694
-567,8,-29.8707,1.04944,0.00208874,0.00160177,-0.00738399,0.00923325,-0.00554275,-0.768916,0.00861917,0.0391307,657,1016,-29.8707,-1.04946
-560,8,-29.9117,0.945984,0.00166186,0.00163458,-0.0055822,0.00723043,-0.00393399,-0.784177,0.00653877,0.039301,664,1016,-29.9117,-0.945997
-553,8,-29.9639,1.06458,0.00118352,0.00168791,-0.00331287,0.00475817,-0.00188674,-0.823388,0.00395404,0.0419042,671,1016,-29.964,-1.06456
-546,8,-29.986,1.2995,0.000845543,0.00166174,-0.000757413,0.002114,0.000393281,-1.0325,0.00129825,0.0438123,678,1016,-29.986,-1.29953
-539,8,-29.9949,1.44043,0.00104256,0.00185188,0.00105856,0.00258049,0.00031395,0.967965,0.00162581,0.0440168,685,1016,-29.9949,-1.44041
-532,8,-29.8721,1.16931,0.00202681,0.00332598,-1.2072e-05,0.00332609,0.0020267,-1.56151,0.00193556,0.0437431,692,1016,-29.8722,-1.1693
-525,8,0,0,0,0,0,0,0,0,0,-1,699,1016,0,0
-518,8,0,0,0,0,0,0,0,0,0,-1,706,1016,0,0
-511,8,0,0,0,0,0,0,0,0,0,-1,713,1016,0,0
-504,8,0,0,0,0,0,0,0,0,0,-1,720,1016,0,0
-497,8,0,0,0,0,0,0,0,0,0,-1,727,1016,0,0
-490,8,0,0,0,0,0,0,0,0,0,-1,734,1016,0,0
-483,8,0,0,0,0,0,0,0,0,0,-1,741,1016,0,0
-476,8,0,0,0,0,0,0,0,0,0,-1,748,1016,0,0
-469,8,0,0,0,0,0,0,0,0,0,-1,755,1016,0,0
-462,8,0,0,0,0,0,0,0,0,0,-1,762,1016,0,0
-455,8,0,0,0,0,0,0,0,0,0,-1,769,1016,0,0
-448,8,0,0,0,0,0,0,0,0,0,-1,776,1016,0,0
-441,8,0,0,0,0,0,0,0,0,0,-1,783,1016,0,0
-434,8,0,0,0,0,0,0,0,0,0,-1,790,1016,0,0
-427,8,0,0,0,0,0,0,0,0,0,-1,797,1016,0,0
-420,8,0,0,0,0,0,0,0,0,0,-1,804,1016,0,0
-413,8,0,0,0,0,0,0,0,0,0,-1,811,1016,0,0
-406,8,0,0,0,0,0,0,0,0,0,-1,818,1016,0,0
-399,8,0,0,0,0,0,0,0,0,0,-1,825,1016,0,0
-392,8,0,0,0,0,0,0,0,0,0,-1,832,1016,0,0
-385,8,0,0,0,0,0,0,0,0,0,-1,839,1016,0,0
-378,8,0,0,0,0,0,0,0,0,0,-1,846,1016,0,0
-371,8,0,0,0,0,0,0,0,0,0,-1,853,1016,0,0
-364,8,0,0,0,0,0,0,0,0,0,-1,860,1016,0,0
-357,8,0,0,0,0,0,0,0,0,0,-1,867,1016,0,0
-350,8,0,0,0,0,0,0,0,0,0,-1,874,1016,0,0
-343,8,0,0,0,0,0,0,0,0,0,-1,881,1016,0,0
-336,8,0,0,0,0,0,0,0,0,0,-1,888,1016,0,0
-329,8,0,0,0,0,0,0,0,0,0,-1,895,1016,0,0
-322,8,0,0,0,0,0,0,0,0,0,-1,902,1016,0,0
-315,8,0,0,0,0,0,0,0,0,0,-1,909,1016,0,0
-308,8,0,0,0,0,0,0,0,0,0,-1,916,1016,0,0
-301,8,0,0,0,0,0,0,0,0,0,-1,923,1016,0,0
-294,8,0,0,0,0,0,0,0,0,0,-1,930,1016,0,0
-287,8,0,0,0,0,0,0,0,0,0,-1,937,1016,0,0
-280,8,0,0,0,0,0,0,0,0,0,-1,944,1016,0,0
-273,8,0,0,0,0,0,0,0,0,0,-1,951,1016,0,0
-266,8,0,0,0,0,0,0,0,0,0,-1,958,1016,0,0
-259,8,0,0,0,0,0,0,0,0,0,-1,965,1016,0,0
-252,8,0,0,0,0,0,0,0,0,0,-1,972,1016,0,0
-245,8,0,0,0,0,0,0,0,0,0,-1,979,1016,0,0
-238,8,0,0,0,0,0,0,0,0,0,-1,986,1016,0,0
-231,8,0,0,0,0,0,0,0,0,0,-1,993,1016,0,0
-224,8,0,0,0,0,0,0,0,0,0,-1,1000,1016,0,0
-217,8,0,0,0,0,0,0,0,0,0,-1,1007,1016,0,0
-210,8,0,0,0,0,0,0,0,0,0,-1,1014,1016,0,0
-203,8,0,0,0,0,0,0,0,0,0,-1,1021,1016,0,0
-196,8,0,0,0,0,0,0,0,0,0,-1,1028,1016,0,0
-189,8,0,0,0,0,0,0,0,0,0,-1,1035,1016,0,0
-182,8,0,0,0,0,0,0,0,0,0,-1,1042,1016,0,0
-175,8,0,0,0,0,0,0,0,0,0,-1,1049,1016,0,0
-168,8,0,0,0,0,0,0,0,0,0,-1,1056,1016,0,0
-161,8,0,0,0,0,0,0,0,0,0,-1,1063,1016,0,0
-154,8,0,0,0,0,0,0,0,0,0,-1,1070,1016,0,0
-147,8,0,0,0,0,0,0,0,0,0,-1,1077,1016,0,0
-140,8,0,0,0,0,0,0,0,0,0,-1,1084,1016,0,0
-133,8,0,0,0,0,0,0,0,0,0,-1,1091,1016,0,0
-126,8,0,0,0,0,0,0,0,0,0,-1,1098,1016,0,0
-119,8,0,0,0,0,0,0,0,0,0,-1,1105,1016,0,0
-112,8,0,0,0,0,0,0,0,0,0,-1,1112,1016,0,0
-105,8,0,0,0,0,0,0,0,0,0,-1,1119,1016,0,0
-98,8,0,0,0,0,0,0,0,0,0,-1,1126,1016,0,0
-91,8,0,0,0,0,0,0,0,0,0,-1,1133,1016,0,0
-84,8,0,0,0,0,0,0,0,0,0,-1,1140,1016,0,0
-77,8,0,0,0,0,0,0,0,0,0,-1,1147,1016,0,0
-70,8,0,0,0,0,0,0,0,0,0,-1,1154,1016,0,0
-63,8,0,0,0,0,0,0,0,0,0,-1,1161,1016,0,0
-56,8,0,0,0,0,0,0,0,0,0,-1,1168,1016,0,0
-49,8,0,0,0,0,0,0,0,0,0,-1,1175,1016,0,0
-42,8,0,0,0,0,0,0,0,0,0,-1,1182,1016,0,0
-35,8,0,0,0,0,0,0,0,0,0,-1,1189,1016,0,0
-28,8,0,0,0,0,0,0,0,0,0,-1,1196,1016,0,0
-21,8,0,0,0,0,0,0,0,0,0,-1,1203,1016,0,0
-14,8,0,0,0,0,0,0,0,0,0,-1,1210,1016,0,0
-7,8,0,0,0,0,0,0,0,0,0,-1,1217,1016,0,0
0,8,0,0,0,0,0,0,0,0,0,-1,1224,1016,0,0
7,8,0,0,0,0,0,0,0,0,0,-1,1231,1016,0,0
14,8,0,0,0,0,0,0,0,0,0,-1,1238,1016,0,0
21,8,0,0,0,0,0,0,0,0,0,-1,1245,1016,0,0
28,8,0,0,0,0,0,0,0,0,0,-1,1252,1016,0,0
35,8,0,0,0,0,0,0,0,0,0,-1,1259,1016,0,0
42,8,0,0,0,0,0,0,0,0,0,-1,1266,1016,0,0
49,8,0,0,0,0,0,0,0,0,0,-1,1273,1016,0,0
56,8,0,0,0,0,0,0,0,0,0,-1,1280,1016,0,0
63,8,0,0,0,0,0,0,0,0,0,-1,1287,1016,0,0
70,8,0,0,0,0,0,0,0,0,0,-1,1294,1016,0,0
77,8,0,0,0,0,0,0,0,0,0,-1,1301,1016,0,0
84,8,0,0,0,0,0,0,0,0,0,-1,1308,1016,0,0
91,8,0,0,0,0,0,0,0,0,0,-1,1315,1016,0,0
98,8,0,0,0,0,0,0,0,0,0,-1,1322,1016,0,0
105,8,0,0,0,0,0,0,0,0,0,-1,1329,1016,0,0
112,8,0,0,0,0,0,0,0,0,0,-1,1336,1016,0,0
119,8,0,0,0,0,0,0,0,0,0,-1,1343,1016,0,0
126,8,0,0,0,0,0,0,0,0,0,-1,1350,1016,0,0
133,8,0,0,0,0,0,0,0,0,0,-1,1357,1016,0,0
140,8,0,0,0,0,0,0,0,0,0,-1,1364,1016,0,0
147,8,0,0,0,0,0,0,0,0,0,-1,1371,1016,0,0
154,8,0,0,0,0,0,0,0,0,0,-1,1378,1016,0,0
161,8,0,0,0,0,0,0,0,0,0,-1,1385,1016,0,0
168,8,0,0,0,0,0,0,0,0,0,-1,1392,1016,0,0
175,8,0,0,0,0,0,0,0,0,0,-1,1399,1016,0,0
182,8,0,0,0,0,0,0,0,0,0,-1,1406,1016,0,0
189,8,0,0,0,0,0,0,0,0,0,-1,1413,1016,0,0
196,8,0,0,0,0,0,0,0,0,0,-1,1420,1016,0,0
203,8,0,0,0,0,0,0,0,0,0,-1,1427,1016,0,0
210,8,0,0,0,0,0,0,0,0,0,-1,1434,1016,0,0
217,8,0,0,0,0,0,0,0,0,0,-1,1441,1016,0,0
224,8,0,0,0,0,0,0,0,0,0,-1,1448,1016,0,0
231,8,0,0,0,0,0,0,0,0,0,-1,1455,1016,0,0
238,8,0,0,0,0,0,0,0,0,0,-1,1462,1016,0,0
245,8,0,0,0,0,0,0,0,0,0,-1,1469,1016,0,0
252,8,0,0,0,0,0,0,0,0,0,-1,1476,1016,0,0
259,8,0,0,0,0,0,0,0,0,0,-1,1483,1016,0,0
266,8,0,0,0,0,0,0,0,0,0,-1,1490,1016,0,0
273,8,0,0,0,0,0,0,0,0,0,-1,1497,1016,0,0
280,8,0,0,0,0,0,0,0,0,0,-1,1504,1016,0,0
287,8,0,0,0,0,0,0,0,0,0,-1,1511,1016,0,0
294,8,0,0,0,0,0,0,0,0,0,-1,1518,1016,0,0
301,8,0,0,0,0,0,0,0,0,0,-1,1525,1016,0,0
308,8,0,0,0,0,0,0,0,0,0,-1,1532,1016,0,0
315,8,0,0,0,0,0,0,0,0,0,-1,1539,1016,0,0
322,8,0,0,0,0,0,0,0,0,0,-1,1546,1016,0,0
329,8,0,0,0,0,0,0,0,0,0,-1,1553,1016,0,0
336,8,0,0,0,0,0,0,0,0,0,-1,1560,1016,0,0
343,8,0,0,0,0,0,0,0,0,0,-1,1567,1016,0,0
350,8,0,0,0,0,0,0,0,0,0,-1,1574,1016,0,0
357,8,0,0,0,0,0,0,0,0,0,-1,1581,1016,0,0
364,8,0,0,0,0,0,0,0,0,0,-1,1588,1016,0,0
371,8,0,0,0,0,0,0,0,0,0,-1,1595,1016,0,0
378,8,0,0,0,0,0,0,0,0,0,-1,1602,1016,0,0
385,8,0,0,0,0,0,0,0,0,0,-1,1609,1016,0,0
392,8,0,0,0,0,0,0,0,0,0,-1,1616,1016,0,0
399,8,0,0,0,0,0,0,0,0,0,-1,1623,1016,0,0
406,8,0,0,0,0,0,0,0,0,0,-1,1630,1016,0,0
413,8,0,0,0,0,0,0,0,0,0,-1,1637,1016,0,0
420,8,0,0,0,0,0,0,0,0,0,-1,1644,1016,0,0
427,8,0,0,0,0,0,0,0,0,0,-1,1651,1016,0,0
434,8,0,0,0,0,0,0,0,0,0,-1,1658,1016,0,0
441,8,0,0,0,0,0,0,0,0,0,-1,1665,1016,0,0
448,8,0,0,0,0,0,0,0,0,0,-1,1672,1016,0,0
455,8,0,0,0,0,0,0,0,0,0,-1,1679,1016,0,0
462,8,0,0,0,0,0,0,0,0,0,-1,1686,1016,0,0
469,8,0,0,0,0,0,0,0,0,0,-1,1693,1016,0,0
476,8,0,0,0,0,0,0,0,0,0,-1,1700,1016,0,0
483,8,0,0,0,0,0,0,0,0,0,-1,1707,1016,0,0
490,8,0,0,0,0,0,0,0,0,0,-1,1714,1016,0,0
497,8,0,0,0,0,0,0,0,0,0,-1,1721,1016,0,0
504,8,0,0,0,0,0,0,0,0,0,-1,1728,1016,0,0
511,8,0,0,0,0,0,0,0,0,0,-1,1735,1016,0,0
518,8,0,0,0,0,0,0,0,0,0,-1,1742,1016,0,0
525,8,0,0,0,0,0,0,0,0,0,-1,1749,1016,0,0
532,8,0,0,0,0,0,0,0,0,0,-1,1756,1016,0,0
539,8,0,0,0,0,0,0,0,0,0,-1,1763,1016,0,0
546,8,0,0,0,0,0,0,0,0,0,-1,1770,1016,0,0
553,8,0,0,0,0,0,0,0,0,0,-1,1777,1016,0,0
560,8,0,0,0,0,0,0,0,0,0,-1,1784,1016,0,0
567,8,0,0,0,0,0,0,0,0,0,-1,1791,1016,0,0
574,8,0,0,0,0,0,0,0,0,0,-1,1798,1016,0,0
581,8,0,0,0,0,0,0,0,0,0,-1,1805,1016,0,0
588,8,0,0,0,0,0,0,0,0,0,-1,1812,1016,0,0
595,8,0,0,0,0,0,0,0,0,0,-1,1819,1016,0,0
602,8,0,0,0,0,0,0,0,0,0,-1,1826,1016,0,0
609,8,0,0,0,0,0,0,0,0,0,-1,1833,1016,0,0
616,8,0,0,0,0,0,0,0,0,0,-1,1840,1016,0,0
623,8,0,0,0,0,0,0,0,0,0,-1,1847,1016,0,0
630,8,0,0,0,0,0,0,0,0,0,-1,1854,1016,0,0
637,8,0,0,0,0,0,0,0,0,0,-1,1861,1016,0,0
644,8,40.7509,2.69592,-0.00567452,0.00302099,0.00376554,0.00442496,-0.00707848,1.21392,0.00670015,0.0432069,1868,1016,40.7508,-2.69594
651,8,40.8376,2.75854,-0.00446945,0.0035102,0.00276275,0.00437336,-0.00533262,1.26798,0.00561286,0.0417658,1875,1016,40.8377,-2.75856
658,8,40.6816,2.9256,-0.00333093,0.00356603,0.00184876,0.00403035,-0.00379524,1.32474,0.00451878,0.0393828,1882,1016,40.6817,-2.92561
665,8,40.7169,2.79266,-0.00245652,0.00344532,0.00126913,0.00370666,-0.00271786,1.36771,0.00372381,0.0385837,1889,1016,40.7169,-2.79265
672,8,40.7258,2.67596,-0.00181299,0.00349429,0.00130487,0.00379776,-0.00211646,1.34229,0.00346026,0.0383447,1896,1016,40.7258,-2.67596
679,8,40.6733,2.55231,-0.00146503,0.00371855,0.00169878,0.00422566,-0.00197215,1.2807,0.0036563,0.037469,1903,1016,40.6733,-2.55229
686,8,40.6967,2.60095,-0.00130458,0.00380554,0.00219086,0.00461622,-0.00211526,1.21639,0.00397483,0.0399494,1910,1016,40.6967,-2.60097
693,8,40.6622,2.72205,-0.00126909,0.00378352,0.00269243,0.00494929,-0.00243486,1.16219,0.00434484,0.0370271,1917,1016,40.6623,-2.72203
700,8,40.7643,2.76721,-0.00131812,0.0038132,0.00299974,0.00519483,-0.00269974,1.13918,0.00463319,0.029672,1924,1016,40.7642,-2.76719
707,8,40.7401,2.6911,-0.00145847,0.00385446,0.00310737,0.00528609,-0.00289011,1.13906,0.00478762,0.0244225,1931,1016,40.7402,-2.69112
714,8,40.7214,2.6532,-0.00186289,0.00395648,0.00313537,0.00532427,-0.00323068,1.15944,0.00498826,0.0282039,1938,1016,40.7214,-2.65323
721,8,40.8098,2.54962,0,0,0,0,0,0,0,-1,1945,1016,40.8098,-2.5496
728,8,40.3612,5.17963,0,0,0,0,0,0,0,-1,1952,1016,40.3612,-5.17962
735,8,40.321,5.23621,0,0,0,0,0,0,0,-1,1959,1016,40.321,-5.23621
742,8,40.3669,5.42035,0,0,0,0,0,0,0,-1,1966,1016,40.367,-5.42032
749,8,40.4781,5.37897,-0.00678817,0.00735504,0.00076483,0.00739628,-0.00682941,1.51693,0.00821538,0.0301186,1973,1016,40.4781,-5.37894
756,8,40.432,5.33612,-0.0083421,0.00881444,-0.000411372,0.00882429,-0.00835196,-1.54684,0.00991796,0.0210314,1980,1016,40.432,-5.33609
763,8,40.4204,5.38843,-0.0102842,0.0105617,-0.00195941,0.0107442,-0.0104667,-1.47789,0.0122465,0.015198,1987,1016,40.4204,-5.38841
770,8,40.3417,5.38556,-0.012991,0.0128749,-0.00382821,0.0134296,-0.0135456,-1.4269,0.0155742,0.0221621,1994,1016,40.3417,-5.38555
777,8,40.0283,5.45575,-0.0163424,0.015619,-0.00565208,0.016589,-0.0173125,-1.40082,0.0195746,0.0385297,2001,1016,40.0284,-5.45576
784,8,39.7079,5.51648,0,0,0,0,0,0,0,-1,2008,1016,39.7078,-5.51646
791,8,39.0413,5.86725,-0.0241252,0.0202182,-0.010027,0.0223801,-0.0262871,-1.35844,0.0281282,0.0476256,2015,1016,39.0412,-5.86725
798,8,38.2249,6.04852,-0.0281881,0.0209769,-0.0128637,0.0241392,-0.0313504,-1.32975,0.032127,0.047637,2022,1016,38.2248,-6.04854
805,8,37.9265,6.11993,0,0,0,0,0,0,0,-1,2029,1016,37.9265,-6.11996
812,8,36.7495,6.2887,0,0,0,0,0,0,0,-1,2036,1016,36.7496,-6.2887
-700,1,0,0,0,0,0,0,0,0,0,-1,524,1023,0,0
-693,1,-28.654,2.13257,0.0193931,0.0997057,0.021643,0.105167,0.013932,1.32363,0.0659595,0.0459513,531,1023,-28.654,-2.13255
-686,1,-28.5785,2.08728,0.0135885,0.086869,0.0191839,0.0915873,0.0088702,1.32963,0.0583267,0.0483155,538,1023,-28.5785,-2.08725
-679,1,-29.3335,1.83813,0,0,0,0,0,0,0,-1,545,1023,-29.3335,-1.83814
-672,1,-29.5645,1.79907,0.0046974,0.0629055,0.0146455,0.0663827,0.00122023,1.33769,0.043854,0.0472186,552,1023,-29.5645,-1.79909
-665,1,-30.3467,2.20435,0.00166482,0.0522407,0.0125654,0.0551905,-0.00128499,1.34022,0.0372294,0.0444181,559,1023,-30.3467,-2.20437
-658,1,-30.1322,2.31219,-0.000579937,0.0425545,0.0106061,0.0450213,-0.00304676,1.34227,0.0310796,0.0350523,566,1023,-30.1322,-2.31222
-651,1,-29.8992,2.47491,-0.00203837,0.0338707,0.00870136,0.035868,-0.00403575,1.34516,0.0253645,0.0266526,573,1023,-29.8991,-2.47492
-644,1,-29.7565,2.6441,0,0,0,0,0,0,0,-1,580,1023,-29.7565,-2.64408
-637,1,-29.9893,2.59796,-0.00339447,0.0204436,0.00362255,0.0209819,-0.00393281,1.42327,0.0154665,0.0326413,587,1023,-29.9893,-2.59795
-630,1,-30.1937,2.62646,-0.00304904,0.0123198,0.000821999,0.0123636,-0.00309288,1.51751,0.00944375,0.027964,594,1023,-30.1936,-2.62649
-623,1,-30.1061,2.67877,-0.00209533,0.00963703,-0.00181433,0.0099112,-0.0023695,-1.42082,0.00752273,0.0150589,601,1023,-30.1061,-2.67874
-616,1,-30.1722,2.63422,-0.000539829,0.00699146,-0.00446087,0.00906357,-0.00261195,-1.13594,0.0070756,0.0170969,608,1023,-30.1723,-2.63423
-609,1,-30.1834,2.66046,0.000468389,0.00529921,-0.00681317,0.0101125,-0.00434485,-0.955747,0.00856548,0.0171376,615,1023,-30.1834,-2.66048
-602,1,-30.072,2.6864,0.000953654,0.00368582,-0.00832692,0.010758,-0.0061185,-0.866702,0.00986559,0.0136084,622,1023,-30.072,-2.68642
-595,1,-29.9551,2.6759,0.00146936,0.00228076,-0.00943558,0.0113194,-0.00756925,-0.806883,0.0109768,0.029828,629,1023,-29.9552,-2.67592
-588,1,-29.8804,1.79761,0.00188416,0.00176109,-0.00988845,0.0117113,-0.00806602,-0.782287,0.0114829,0.0417986,636,1023,-29.8804,-1.7976
-581,1,-29.8016,0.936218,0.00227123,0.00158711,-0.00978832,0.0117235,-0.00786513,-0.767932,0.0113824,0.0282848,643,1023,-29.8017,-0.936199
-574,1,-29.7743,0.983826,0.00221827,0.00151147,-0.00917784,0.0110495,-0.00731977,-0.766155,0.0106781,0.0359456,650,1023,-29.7743,-0.983828
-567,1,-29.7686,1.02106,0.00188278,0.00160452,-0.0079146,0.00965947,-0.00617217,-0.77661,0.00921402,0.0422654,657,1023,-29.7686,-1.02106
-560,1,-29.8387,1.08844,0.00145854,0.00181664,-0.00605926,0.00769949,-0.00442431,-0.800169,0.00708431,0.0407862,664,1023,-29.8387,-1.08841
-553,1,-29.7271,0.930359,0.000990508,0.0020737,-0.00370504,0.00527652,-0.00221232,-0.857973,0.00444269,0.0393701,671,1023,-29.7271,-0.930365
-546,1,-29.7995,1.15833,0.000671742,0.00225936,-0.00101884,0.00275712,0.000173979,-1.11634,0.00178292,0.0417915,678,1023,-29.7995,-1.1583
-539,1,-29.8813,1.02631,0.000866477,0.00259713,0.000917607,0.00299307,0.000470538,1.16344,0.0018585,0.0407932,685,1023,-29.8813,-1.02633
-532,1,-29.8219,1.00244,0.00184783,0.00413191,-0.000186541,0.00414705,0.0018327,-1.48984,0.00239968,0.0407796,692,1023,-29.8219,-1.00245
-525,1,0,0,0,0,0,0,0,0,0,-1,699,1023,0,0
-518,1,0,0,0,0,0,0,0,0,0,-1,706,1023,0,0
-511,1,0,0,0,0,0,0,0,0,0,-1,713,1023,0,0
-504,1,0,0,0,0,0,0,0,0,0,-1,720,1023,0,0
-497,1,0,0,0,0,0,0,0,0,0,-1,727,1023,0,0
-490,1,0,0,0,0,0,0,0,0,0,-1,734,1023,0,0
-483,1,0,0,0,0,0,0,0,0,0,-1,741,1023,0,0
-476,1,0,0,0,0,0,0,0,0,0,-1,748,1023,0,0
-469,1,0,0,0,0,0,0,0,0,0,-1,755,1023,0,0
-462,1,0,0,0,0,0,0,0,0,0,-1,762,1023,0,0
-455,1,0,0,0,0,0,0,0,0,0,-1,769,1023,0,0
-448,1,0,0,0,0,0,0,0,0,0,-1,776,1023,0,0
-441,1,0,0,0,0,0,0,0,0,0,-1,783,1023,0,0
-434,1,0,0,0,0,0,0,0,0,0,-1,790,1023,0,0
-427,1,0,0,0,0,0,0,0,0,0,-1,797,1023,0,0
-420,1,0,0,0,0,0,0,0,0,0,-1,804,1023,0,0
-413,1,0,0,0,0,0,0,0,0,0,-1,811,1023,0,0
-406,1,0,0,0,0,0,0,0,0,0,-1,818,1023,0,0
-399,1,0,0,0,0,0,0,0,0,0,-1,825,1023,0,0
-392,1,0,0,0,0,0,0,0,0,0,-1,832,1023,0,0
-385,1,0,0,0,0,0,0,0,0,0,-1,839,1023,0,0
-378,1,0,0,0,0,0,0,0,0,0,-1,846,1023,0,0
-371,1,0,0,0,0,0,0,0,0,0,-1,853,1023,0,0
-364,1,0,0,0,0,0,0,0,0,0,-1,860,1023,0,0
-357,1,0,0,0,0,0,0,0,0,0,-1,867,1023,0,0
-350,1,0,0,0,0,0,0,0,0,0,-1,874,1023,0,0
-343,1,0,0,0,0,0,0,0,0,0,-1,881,1023,0,0
-336,1,0,0,0,0,0,0,0,0,0,-1,888,1023,0,0
-329,1,0,0,0,0,0,0,0,0,0,-1,895,1023,0,0
-322,1,0,0,0,0,0,0,0,0,0,-1,902,1023,0,0
-315,1,0,0,0,0,0,0,0,0,0,-1,909,1023,0,0
-308,1,0,0,0,0,0,0,0,0,0,-1,916,1023,0,0
-301,1,0,0,0,0,0,0,0,0,0,-1,923,1023,0,0
-294,1,0,0,0,0,0,0,0,0,0,-1,930,1023,0,0
-287,1,0,0,0,0,0,0,0,0,0,-1,937,1023,0,0
-280,1,0,0,0,0,0,0,0,0,0,-1,944,1023,0,0
-273,1,0,0,0,0,0,0,0,0,0,-1,951,1023,0,0
-266,1,0,0,0,0,0,0,0,0,0,-1,958,1023,0,0
-259,1,0,0,0,0,0,0,0,0,0,-1,965,1023,0,0
-252,1,0,0,0,0,0,0,0,0,0,-1,972,1023,0,0
-245,1,0,0,0,0,0,0,0,0,0,-1,979,1023,0,0
-238,1,0,0,0,0,0,0,0,0,0,-1,986,1023,0,0
-231,1,0,0,0,0,0,0,0,0,0,-1,993,1023,0,0
-224,1,0,0,0,0,0,0,0,0,0,-1,1000,1023,0,0
-217,1,0,0,0,0,0,0,0,0,0,-1,1007,1023,0,0
-210,1,0,0,0,0,0,0,0,0,0,-1,1014,1023,0,0
-203,1,0,0,0,0,0,0,0,0,0,-1,1021,1023,0,0
-196,1,0,0,0,0,0,0,0,0,0,-1,1028,1023,0,0
-189,1,0,0,0,0,0,0,0,0,0,-1,1035,1023,0,0
-182,1,0,0,0,0,0,0,0,0,0,-1,1042,1023,0,0
-175,1,0,0,0,0,0,0,0,0,0,-1,1049,1023,0,0
-168,1,0,0,0,0,0,0,0,0,0,-1,1056,1023,0,0
-161,1,0,0,0,0,0,0,0,0,0,-1,1063,1023,0,0
-154,1,0,0,0,0,0,0,0,0,0,-1,1070,1023,0,0
-147,1,0,0,0,0,0,0,0,0,0,-1,1077,1023,0,0
-140,1,0,0,0,0,0,0,0,0,0,-1,1084,1023,0,0
-133,1,0,0,0,0,0,0,0,0,0,-1,1091,1023,0,0
-126,1,0,0,0,0,0,0,0,0,0,-1,1098,1023,0,0
-119,1,0,0,0,0,0,0,0,0,0,-1,1105,1023,0,0
-112,1,0,0,0,0,0,0,0,0,0,-1,1112,1023,0,0
-105,1,0,0,0,0,0,0,0,0,0,-1,1119,1023,0,0
-98,1,0,0,0,0,0,0,0,0,0,-1,1126,1023,0,0
-91,1,0,0,0,0,0,0,0,0,0,-1,1133,1023,0,0
-84,1,0,0,0,0,0,0,0,0,0,-1,1140,1023,0,0
-77,1,0,0,0,0,0,0,0,0,0,-1,1147,1023,0,0
-70,1,0,0,0,0,0,0,0,0,0,-1,1154,1023,0,0
-63,1,0,0,0,0,0,0,0,0,0,-1,1161,1023,0,0
-56,1,0,0,0,0,0,0,0,0,0,-1,1168,1023,0,0
-49,1,0,0,0,0,0,0,0,0,0,-1,1175,1023,0,0
-42,1,0,0,0,0,0,0,0,0,0,-1,1182,1023,0,0
-35,1,0,0,0,0,0,0,0,0,0,-1,1189,1023,0,0
-28,1,0,0,0,0,0,0,0,0,0,-1,1196,1023,0,0
-21,1,0,0,0,0,0,0,0,0,0,-1,1203,1023,0,0
-14,1,0,0,0,0,0,0,0,0,0,-1,1210,1023,0,0
-7,1,0,0,0,0,0,0,0,0,0,-1,1217,1023,0,0
0,1,0,0,0,0,0,0,0,0,0,-1,1224,1023,0,0
7,1,0,0,0,0,0,0,0,0,0,-1,1231,1023,0,0
14,1,0,0,0,0,0,0,0,0,0,-1,1238,1023,0,0
21,1,0,0,0,0,0,0,0,0,0,-1,1245,1023,0,0
28,1,0,0,0,0,0,0,0,0,0,-1,1252,1023,0,0
35,1,0,0,0,0,0,0,0,0,0,-1,1259,1023,0,0
42,1,0,0,0,0,0,0,0,0,0,-1,1266,1023,0,0
49,1,0,0,0,0,0,0,0,0,0,-1,1273,1023,0,0
56,1,0,0,0,0,0,0,0,0,0,-1,1280,1023,0,0
63,1,0,0,0,0,0,0,0,0,0,-1,1287,1023,0,0
70,1,0,0,0,0,0,0,0,0,0,-1,1294,1023,0,0
77,1,0,0,0,0,0,0,0,0,0,-1,1301,1023,0,0
84,1,0,0,0,0,0,0,0,0,0,-1,1308,1023,0,0
91,1,0,0,0,0,0,0,0,0,0,-1,1315,1023,0,0
98,1,0,0,0,0,0,0,0,0,0,-1,1322,1023,0,0
105,1,0,0,0,0,0,0,0,0,0,-1,1329,1023,0,0
112,1,0,0,0,0,0,0,0,0,0,-1,1336,1023,0,0
119,1,0,0,0,0,0,0,0,0,0,-1,1343,1023,0,0
126,1,0,0,0,0,0,0,0,0,0,-1,1350,1023,0,0
133,1,0,0,0,0,0,0,0,0,0,-1,1357,1023,0,0
140,1,0,0,0,0,0,0,0,0,0,-1,1364,1023,0,0
147,1,0,0,0,0,0,0,0,0,0,-1,1371,1023,0,0
154,1,0,0,0,0,0,0,0,0,0,-1,1378,1023,0,0
161,1,0,0,0,0,0,0,0,0,0,-1,1385,1023,0,0
168,1,0,0,0,0,0,0,0,0,0,-1,1392,1023,0,0
175,1,0,0,0,0,0,0,0,0,0,-1,1399,1023,0,0
182,1,0,0,0,0,0,0,0,0,0,-1,1406,1023,0,0
189,1,0,0,0,0,0,0,0,0,0,-1,1413,1023,0,0
196,1,0,0,0,0,0,0,0,0,0,-1,1420,1023,0,0
203,1,0,0,0,0,0,0,0,0,0,-1,1427,1023,0,0
210,1,0,0,0,0,0,0,0,0,0,-1,1434,1023,0,0
217,1,0,0,0,0,0,0,0,0,0,-1,1441,1023,0,0
224,1,0,0,0,0,0,0,0,0,0,-1,1448,1023,0,0
231,1,0,0,0,0,0,0,0,0,0,-1,1455,1023,0,0
238,1,0,0,0,0,0,0,0,0,0,-1,1462,1023,0,0
245,1,0,0,0,0,0,0,0,0,0,-1,1469,1023,0,0
252,1,0,0,0,0,0,0,0,0,0,-1,1476,1023,0,0
259,1,0,0,0,0,0,0,0,0,0,-1,1483,1023,0,0
266,1,0,0,0,0,0,0,0,0,0,-1,1490,1023,0,0
273,1,0,0,0,0,0,0,0,0,0,-1,1497,1023,0,0
280,1,0,0,0,0,0,0,0,0,0,-1,1504,1023,0,0
287,1,0,0,0,0,0,0,0,0,0,-1,1511,1023,0,0
294,1,0,0,0,0,0,0,0,0,0,-1,1518,1023,0,0
301,1,0,0,0,0,0,0,0,0,0,-1,1525,1023,0,0
308,1,0,0,0,0,0,0,0,0,0,-1,1532,1023,0,0
315,1,0,0,0,0,0,0,0,0,0,-1,1539,1023,0,0
322,1,0,0,0,0,0,0,0,0,0,-1,1546,1023,0,0
329,1,0,0,0,0,0,0,0,0,0,-1,1553,1023,0,0
336,1,0,0,0,0,0,0,0,0,0,-1,1560,1023,0,0
343,1,0,0,0,0,0,0,0,0,0,-1,1567,1023,0,0
350,1,0,0,0,0,0,0,0,0,0,-1,1574,1023,0,0
357,1,0,0,0,0,0,0,0,0,0,-1,1581,1023,0,0
364,1,0,0,0,0,0,0,0,0,0,-1,1588,1023,0,0
371,1,0,0,0,0,0,0,0,0,0,-1,1595,1023,0,0
378,1,0,0,0,0,0,0,0,0,0,-1,1602,1023,0,0
385,1,0,0,0,0,0,0,0,0,0,-1,1609,1023,0,0
392,1,0,0,0,0,0,0,0,0,0,-1,1616,1023,0,0
399,1,0,0,0,0,0,0,0,0,0,-1,1623,1023,0,0
406,1,0,0,0,0,0,0,0,0,0,-1,1630,1023,0,0
413,1,0,0,0,0,0,0,0,0,0,-1,1637,1023,0,0
420,1,0,0,0,0,0,0,0,0,0,-1,1644,1023,0,0
427,1,0,0,0,0,0,0,0,0,0,-1,1651,1023,0,0
434,1,0,0,0,0,0,0,0,0,0,-1,1658,1023,0,0
441,1,0,0,0,0,0,0,0,0,0,-1,1665,1023,0,0
448,1,0,0,0,0,0,0,0,0,0,-1,1672,1023,0,0
455,1,0,0,0,0,0,0,0,0,0,-1,1679,1023,0,0
462,1,0,0,0,0,0,0,0,0,0,-1,1686,1023,0,0
469,1,0,0,0,0,0,0,0,0,0,-1,1693,1023,0,0
476,1,0,0,0,0,0,0,0,0,0,-1,1700,1023,0,0
483,1,0,0,0,0,0,0,0,0,0,-1,1707,1023,0,0
490,1,0,0,0,0,0,0,0,0,0,-1,1714,1023,0,0
497,1,0,0,0,0,0,0,0,0,0,-1,1721,1023,0,0
504,1,0,0,0,0,0,0,0,0,0,-1,1728,1023,0,0
511,1,0,0,0,0,0,0,0,0,0,-1,1735,1023,0,0
518,1,0,0,0,0,0,0,0,0,0,-1,1742,1023,0,0
525,1,0,0,0,0,0,0,0,0,0,-1,1749,1023,0,0
532,1,0,0,0,0,0,0,0,0,0,-1,1756,1023,0,0
539,1,0,0,0,0,0,0,0,0,0,-1,1763,1023,0,0
546,1,0,0,0,0,0,0,0,0,0,-1,1770,1023,0,0
553,1,0,0,0,0,0,0,0,0,0,-1,1777,1023,0,0
560,1,0,0,0,0,0,0,0,0,0,-1,1784,1023,0,0
567,1,0,0,0,0,0,0,0,0,0,-1,1791,1023,0,0
574,1,0,0,0,0,0,0,0,0,0,-1,1798,1023,0,0
581,1,0,0,0,0,0,0,0,0,0,-1,1805,1023,0,0
588,1,0,0,0,0,0,0,0,0,0,-1,1812,1023,0,0
595,1,0,0,0,0,0,0,0,0,0,-1,1819,1023,0,0
602,1,0,0,0,0,0,0,0,0,0,-1,1826,1023,0,0
609,1,0,0,0,0,0,0,0,0,0,-1,1833,1023,0,0
616,1,0,0,0,0,0,0,0,0,0,-1,1840,1023,0,0
623,1,0,0,0,0,0,0,0,0,0,-1,1847,1023,0,0
630,1,0,0,0,0,0,0,0,0,0,-1,1854,1023,0,0
637,1,0,0,0,0,0,0,0,0,0,-1,1861,1023,0,0
644,1,0,0,0,0,0,0,0,0,0,-1,1868,1023,0,0
651,1,40.9111,2.63031,-0.0054725,0.00371235,0.00233898,0.00427368,-0.00603383,1.33526,0.00597989,0.040493,1875,1023,40.9111,-2.6303
658,1,40.8628,2.66132,-0.00412324,0.00376646,0.00163535,0.004092,-0.00444878,1.3743,0.00493246,0.0388186,1882,1023,40.8628,-2.6613
665,1,40.7937,2.71814,-0.00305938,0.00360534,0.00116857,0.00380429,-0.00325834,1.40216,0.00408167,0.0399168,1889,1023,40.7937,-2.71813
672,1,40.6725,2.6322,-0.00223277,0.0035878,0.00129551,0.00386312,-0.00250809,1.36139,0.00370605,0.0394036,1896,1023,40.6724,-2.63223
679,1,40.6023,2.47107,-0.00166275,0.0038246,0.00177769,0.00435016,-0.00218831,1.28334,0.00384316,0.039429,1903,1023,40.6023,-2.47105
686,1,40.6173,2.43848,-0.00135233,0.00392311,0.00233422,0.00480763,-0.00223685,1.20858,0.00415643,0.0378496,1910,1023,40.6173,-2.4385
693,1,40.7279,2.71509,-0.00120135,0.00391237,0.0028821,0.00520831,-0.00249728,1.14823,0.00453968,0.0342572,1917,1023,40.7279,-2.71506
700,1,40.766,2.80078,-0.00116428,0.00394298,0.00321487,0.00549501,-0.00271631,1.12103,0.00483044,0.0296953,1924,1023,40.766,-2.8008
707,1,40.7087,2.64673,-0.00124839,0.00396738,0.00335327,0.00560749,-0.0028885,1.1159,0.00498819,0.0267271,1931,1023,40.7087,-2.64674
714,1,40.6874,2.52905,-0.00161389,0.00404354,0.00340735,0.00564333,-0.00321367,1.13184,0.00517733,0.0299897,1938,1023,40.6873,-2.52903
721,1,40.8065,2.48865,0,0,0,0,0,0,0,-1,1945,1023,40.8065,-2.48866
728,1,40.2954,5.42352,0,0,0,0,0,0,0,-1,1952,1023,40.2954,-5.42352
735,1,40.2777,5.33356,-0.00344285,0.0052769,0.00266334,0.00602603,-0.00419197,1.29661,0.00593096,0.0312949,1959,1023,40.2777,-5.33356
742,1,40.3713,5.31976,-0.0046103,0.00648484,0.00186692,0.00679056,-0.00491602,1.40848,0.00678762,0.0378828,1966,1023,40.3713,-5.31975
749,1,40.4126,5.36566,-0.00639881,0.0072617,0.000994927,0.00733378,-0.0064709,1.49847,0.00797532,0.034882,1973,1023,40.4126,-5.36563
756,1,40.4414,5.36847,-0.00779132,0.00866938,-0.000200764,0.00867182,-0.00779377,-1.5586,0.00951092,0.0218111,1980,1023,40.4415,-5.36847
763,1,40.4061,5.33557,-0.00944962,0.0103445,-0.00174472,0.0104971,-0.00960223,-1.48355,0.0116082,0.0162856,1987,1023,40.4062,-5.33558
770,1,40.3878,5.32318,-0.0117809,0.0125908,-0.00366724,0.0131307,-0.0123208,-1.42464,0.0146969,0.0191812,1994,1023,40.3879,-5.32317
777,1,40.1405,5.29248,-0.0145736,0.0152495,-0.00555946,0.0162521,-0.0155762,-1.39236,0.0183775,0.0265563,2001,1023,40.1405,-5.29249
784,1,39.9457,5.35913,-0.0175482,0.0178725,-0.00754198,0.0194116,-0.0190872,-1.3695,0.0222275,0.0475004,2008,1023,39.9456,-5.35912
791,1,39.3459,5.79175,-0.0207409,0.0198428,-0.00992171,0.0221385,-0.0230366,-1.34341,0.0260836,0.0465437,2015,1023,39.346,-5.79177
798,1,38.5884,6.21637,-0.0237608,0.0206903,-0.012648,0.0240371,-0.0271076,-1.31211,0.0295462,0.0478942,2022,1023,38.5883,-6.21639
805,1,37.7568,6.5249,0,0,0,0,0,0,0,-1,2029,1023,37.7568,-6.52488
812,1,37.0044,6.99622,0,0,0,0,0,0,0,-1,2036,1023,37.0044,-6.99624
-700,-6,0,0,0,0,0,0,0,0,0,-1,524,1030,0,0
-693,-6,-29.0401,1.62463,0.0136974,0.0779868,0.0100367,0.0795172,0.012167,1.41948,0.0494572,0.0447158,531,1030,-29.0401,-1.62462
-686,-6,-28.9748,1.59277,0.00850874,0.0678368,0.010086,0.0695046,0.00684097,1.40692,0.0442327,0.0452788,538,1030,-28.9748,-1.59275
-679,-6,-29.2558,1.62073,0,0,0,0,0,0,0,-1,545,1030,-29.2558,-1.62071
-672,-6,-29.4502,1.57117,0.00134478,0.0498573,0.00906543,0.051496,-0.000293901,1.39197,0.034429,0.0497081,552,1030,-29.4502,-1.57121
-665,-6,-29.5624,1.67542,-0.000847485,0.0419108,0.00826652,0.0434533,-0.00239002,1.38632,0.0297975,0.045104,559,1030,-29.5624,-1.67537
-658,-6,-29.7328,2.16101,-0.00232131,0.0346197,0.00734366,0.036026,-0.00372765,1.38158,0.0253514,0.0380756,566,1030,-29.7328,-2.161
-651,-6,-30.0039,2.29358,-0.00312294,0.0279652,0.00626393,0.0291799,-0.0043376,1.37926,0.0210486,0.0395873,573,1030,-30.0039,-2.2936
-644,-6,-29.9272,2.83228,0,0,0,0,0,0,0,-1,580,1030,-29.9272,-2.83233
-637,-6,-30.0059,2.66357,-0.0036702,0.0174615,0.00257656,0.0177711,-0.00397982,1.4512,0.0133729,0.0359796,587,1030,-30.0058,-2.6636
-630,-6,-30.1063,2.58618,-0.00294178,0.0110027,5.75982e-05,0.0110029,-0.00294201,1.56667,0.00848766,0.0212394,594,1030,-30.1063,-2.58614
-623,-6,-30.072,2.6167,-0.00175745,0.00851196,-0.00242653,0.00905645,-0.00230194,-1.35006,0.00693351,0.016598,601,1030,-30.072,-2.61666
-616,-6,-30.1014,2.63782,-0.000245807,0.00611578,-0.00477413,0.00867169,-0.00280172,-1.07926,0.00690711,0.0165898,608,1030,-30.1014,-2.63787
-609,-6,-30.0967,2.70691,0.000699246,0.00460709,-0.00695965,0.0098819,-0.00457556,-0.92225,0.00853237,0.0165302,615,1030,-30.0967,-2.7069
-602,-6,-30.0435,2.75598,0.00107122,0.00297785,-0.00842045,0.0104988,-0.00644971,-0.841765,0.00987785,0.0131581,622,1030,-30.0434,-2.75593
-595,-6,-29.9089,2.76526,0.00148631,0.00174121,-0.00948054,0.0110952,-0.00786764,-0.792119,0.0110009,0.0213905,629,1030,-29.9089,-2.76524
-588,-6,-29.8591,1.70056,0.00185287,0.00133056,-0.00991063,0.0115058,-0.00832236,-0.772226,0.0114969,0.0252505,636,1030,-29.8591,-1.7006
-581,-6,-29.8268,0.69458,0,0,0,0,0,0,0,-1,643,1030,-29.8268,-0.694571
-574,-6,-29.8383,0.888794,0.00214061,0.00124298,-0.00918784,0.0108906,-0.007507,-0.760993,0.0106816,0.0318408,650,1030,-29.8382,-0.88874
-567,-6,-29.8654,0.768311,0.00176504,0.00147573,-0.00798049,0.00960218,-0.00636141,-0.776336,0.00927968,0.0412337,657,1030,-29.8654,-0.768336
-560,-6,-29.6453,0.553467,0.00127012,0.00185484,-0.00619058,0.00775996,-0.004635,-0.808994,0.00723165,0.0404467,664,1030,-29.6453,-0.553469
-553,-6,-29.6568,0.683838,0.000704342,0.0022942,-0.00388909,0.00546877,-0.00247022,-0.88621,0.00469129,0.0413619,671,1030,-29.6568,-0.683871
-546,-6,-29.7487,1.0603,0.000247722,0.0026554,-0.00120886,0.0031576,-0.000254477,-1.17706,0.00219482,0.0435911,678,1030,-29.7487,-1.06031
-539,-6,-29.7338,0.873413,0.00024154,0.00304877,0.000787743,0.00325471,3.55976e-05,1.31509,0.00215804,0.0415645,685,1030,-29.7337,-0.873453
-532,-6,-29.8041,1.01367,0.000996209,0.00447263,-0.000272769,0.0044939,0.000974937,-1.49297,0.00272962,0.0401524,692,1030,-29.8041,-1.01369
-525,-6,0,0,0,0,0,0,0,0,0,-1,699,1030,0,0
-518,-6,0,0,0,0,0,0,0,0,0,-1,706,1030,0,0
-511,-6,0,0,0,0,0,0,0,0,0,-1,713,1030,0,0
-504,-6,0,0,0,0,0,0,0,0,0,-1,720,1030,0,0
-497,-6,0,0,0,0,0,0,0,0,0,-1,727,1030,0,0
-490,-6,0,0,0,0,0,0,0,0,0,-1,734,1030,0,0
-483,-6,0,0,0,0,0,0,0,0,0,-1,741,1030,0,0
-476,-6,0,0,0,0,0,0,0,0,0,-1,748,1030,0,0
-469,-6,0,0,0,0,0,0,0,0,0,-1,755,1030,0,0
-462,-6,0,0,0,0,0,0,0,0,0,-1,762,1030,0,0
-455,-6,0,0,0,0,0,0,0,0,0,-1,769,1030,0,0
-448,-6,0,0,0,0,0,0,0,0,0,-1,776,1030,0,0
-441,-6,0,0,0,0,0,0,0,0,0,-1,783,1030,0,0
-434,-6,0,0,0,0,0,0,0,0,0,-1,790,1030,0,0
-427,-6,0,0,0,0,0,0,0,0,0,-1,797,1030,0,0
-420,-6,0,0,0,0,0,0,0,0,0,-1,804,1030,0,0
-413,-6,0,0,0,0,0,0,0,0,0,-1,811,1030,0,0
-406,-6,0,0,0,0,0,0,0,0,0,-1,818,1030,0,0
-399,-6,0,0,0,0,0,0,0,0,0,-1,825,1030,0,0
-392,-6,0,0,0,0,0,0,0,0,0,-1,832,1030,0,0
-385,-6,0,0,0,0,0,0,0,0,0,-1,839,1030,0,0
-378,-6,0,0,0,0,0,0,0,0,0,-1,846,1030,0,0
-371,-6,0,0,0,0,0,0,0,0,0,-1,853,1030,0,0
-364,-6,0,0,0,0,0,0,0,0,0,-1,860,1030,0,0
-357,-6,0,0,0,0,0,0,0,0,0,-1,867,1030,0,0
-350,-6,0,0,0,0,0,0,0,0,0,-1,874,1030,0,0
-343,-6,0,0,0,0,0,0,0,0,0,-1,881,1030,0,0
-336,-6,0,0,0,0,0,0,0,0,0,-1,888,1030,0,0
-329,-6,0,0,0,0,0,0,0,0,0,-1,895,1030,0,0
-322,-6,0,0,0,0,0,0,0,0,0,-1,902,1030,0,0
-315,-6,0,0,0,0,0,0,0,0,0,-1,909,1030,0,0
-308,-6,0,0,0,0,0,0,0,0,0,-1,916,1030,0,0
-301,-6,0,0,0,0,0,0,0,0,0,-1,923,1030,0,0
-294,-6,0,0,0,0,0,0,0,0,0,-1,930,1030,0,0
-287,-6,0,0,0,0,0,0,0,0,0,-1,937,1030,0,0
-280,-6,0,0,0,0,0,0,0,0,0,-1,944,1030,0,0
-273,-6,0,0,0,0,0,0,0,0,0,-1,951,1030,0,0
-266,-6,0,0,0,0,0,0,0,0,0,-1,958,1030,0,0
-259,-6,0,0,0,0,0,0,0,0,0,-1,965,1030,0,0
-252,-6,0,0,0,0,0,0,0,0,0,-1,972,1030,0,0
-245,-6,0,0,0,0,0,0,0,0,0,-1,979,1030,0,0
-238,-6,0,0,0,0,0,0,0,0,0,-1,986,1030,0,0
-231,-6,0,0,0,0,0,0,0,0,0,-1,993,1030,0,0
-224,-6,0,0,0,0,0,0,0,0,0,-1,1000,1030,0,0
-217,-6,0,0,0,0,0,0,0,0,0,-1,1007,1030,0,0
-210,-6,0,0,0,0,0,0,0,0,0,-1,1014,1030,0,0
-203,-6,0,0,0,0,0,0,0,0,0,-1,1021,1030,0,0
-196,-6,0,0,0,0,0,0,0,0,0,-1,1028,1030,0,0
-189,-6,0,0,0,0,0,0,0,0,0,-1,1035,1030,0,0
-182,-6,0,0,0,0,0,0,0,0,0,-1,1042,1030,0,0
-175,-6,0,0,0,0,0,0,0,0,0,-1,1049,1030,0,0
-168,-6,0,0,0,0,0,0,0,0,0,-1,1056,1030,0,0
-161,-6,0,0,0,0,0,0,0,0,0,-1,1063,1030,0,0
-154,-6,0,0,0,0,0,0,0,0,0,-1,1070,1030,0,0
-147,-6,0,0,0,0,0,0,0,0,0,-1,1077,1030,0,0
-140,-6,0,0,0,0,0,0,0,0,0,-1,1084,1030,0,0
-133,-6,0,0,0,0,0,0,0,0,0,-1,1091,1030,0,0
-126,-6,0,0,0,0,0,0,0,0,0,-1,1098,1030,0,0
-119,-6,0,0,0,0,0,0,0,0,0,-1,1105,1030,0,0
-112,-6,0,0,0,0,0,0,0,0,0,-1,1112,1030,0,0
-105,-6,0,0,0,0,0,0,0,0,0,-1,1119,1030,0,0
-98,-6,0,0,0,0,0,0,0,0,0,-1,1126,1030,0,0
-91,-6,0,0,0,0,0,0,0,0,0,-1,1133,1030,0,0
-84,-6,0,0,0,0,0,0,0,0,0,-1,1140,1030,0,0
-77,-6,0,0,0,0,0,0,0,0,0,-1,1147,1030,0,0
-70,-6,0,0,0,0,0,0,0,0,0,-1,1154,1030,0,0
-63,-6,0,0,0,0,0,0,0,0,0,-1,1161,1030,0,0
-56,-6,0,0,0,0,0,0,0,0,0,-1,1168,1030,0,0
-49,-6,0,0,0,0,0,0,0,0,0,-1,1175,1030,0,0
-42,-6,0,0,0,0,0,0,0,0,0,-1,1182,1030,0,0
-35,-6,0,0,0,0,0,0,0,0,0,-1,1189,1030,0,0
-28,-6,0,0,0,0,0,0,0,0,0,-1,1196,1030,0,0
-21,-6,0,0,0,0,0,0,0,0,0,-1,1203,1030,0,0
-14,-6,0,0,0,0,0,0,0,0,0,-1,1210,1030,0,0
-7,-6,0,0,0,0,0,0,0,0,0,-1,1217,1030,0,0
0,-6,0,0,0,0,0,0,0,0,0,-1,1224,1030,0,0
7,-6,0,0,0,0,0,0,0,0,0,-1,1231,1030,0,0
14,-6,0,0,0,0,0,0,0,0,0,-1,1238,1030,0,0
21,-6,0,0,0,0,0,0,0,0,0,-1,1245,1030,0,0
28,-6,0,0,0,0,0,0,0,0,0,-1,1252,1030,0,0
35,-6,0,0,0,0,0,0,0,0,0,-1,1259,1030,0,0
42,-6,0,0,0,0,0,0,0,0,0,-1,1266,1030,0,0
49,-6,0,0,0,0,0,0,0,0,0,-1,1273,1030,0,0
56,-6,0,0,0,0,0,0,0,0,0,-1,1280,1030,0,0
63,-6,0,0,0,0,0,0,0,0,0,-1,1287,1030,0,0
70,-6,0,0,0,0,0,0,0,0,0,-1,1294,1030,0,0
77,-6,0,0,0,0,0,0,0,0,0,-1,1301,1030,0,0
84,-6,0,0,0,0,0,0,0,0,0,-1,1308,1030,0,0
91,-6,0,0,0,0,0,0,0,0,0,-1,1315,1030,0,0
98,-6,0,0,0,0,0,0,0,0,0,-1,1322,1030,0,0
105,-6,0,0,0,0,0,0,0,0,0,-1,1329,1030,0,0
112,-6,0,0,0,0,0,0,0,0,0,-1,1336,1030,0,0
119,-6,0,0,0,0,0,0,0,0,0,-1,1343,1030,0,0
126,-6,0,0,0,0,0,0,0,0,0,-1,1350,1030,0,0
133,-6,0,0,0,0,0,0,0,0,0,-1,1357,1030,0,0
140,-6,0,0,0,0,0,0,0,0,0,-1,1364,1030,0,0
147,-6,0,0,0,0,0,0,0,0,0,-1,1371,1030,0,0
154,-6,0,0,0,0,0,0,0,0,0,-1,1378,1030,0,0
161,-6,0,0,0,0,0,0,0,0,0,-1,1385,1030,0,0
168,-6,0,0,0,0,0,0,0,0,0,-1,1392,1030,0,0
175,-6,0,0,0,0,0,0,0,0,0,-1,1399,1030,0,0
182,-6,0,0,0,0,0,0,0,0,0,-1,1406,1030,0,0
189,-6,0,0,0,0,0,0,0,0,0,-1,1413,1030,0,0
196,-6,0,0,0,0,0,0,0,0,0,-1,1420,1030,0,0
203,-6,0,0,0,0,0,0,0,0,0,-1,1427,1030,0,0
210,-6,0,0,0,0,0,0,0,0,0,-1,1434,1030,0,0
217,-6,0,0,0,0,0,0,0,0,0,-1,1441,1030,0,0
224,-6,0,0,0,0,0,0,0,0,0,-1,1448,1030,0,0
231,-6,0,0,0,0,0,0,0,0,0,-1,1455,1030,0,0
238,-6,0,0,0,0,0,0,0,0,0,-1,1462,1030,0,0
245,-6,0,0,0,0,0,0,0,0,0,-1,1469,1030,0,0
252,-6,0,0,0,0,0,0,0,0,0,-1,1476,1030,0,0
259,-6,0,0,0,0,0,0,0,0,0,-1,1483,1030,0,0
266,-6,0,0,0,0,0,0,0,0,0,-1,1490,1030,0,0
273,-6,0,0,0,0,0,0,0,0,0,-1,1497,1030,0,0
280,-6,0,0,0,0,0,0,0,0,0,-1,1504,1030,0,0
287,-6,0,0,0,0,0,0,0,0,0,-1,1511,1030,0,0
294,-6,0,0,0,0,0,0,0,0,0,-1,1518,1030,0,0
301,-6,0,0,0,0,0,0,0,0,0,-1,1525,1030,0,0
308,-6,0,0,0,0,0,0,0,0,0,-1,1532,1030,0,0
315,-6,0,0,0,0,0,0,0,0,0,-1,1539,1030,0,0
322,-6,0,0,0,0,0,0,0,0,0,-1,1546,1030,0,0
329,-6,0,0,0,0,0,0,0,0,0,-1,1553,1030,0,0
336,-6,0,0,0,0,0,0,0,0,0,-1,1560,1030,0,0
343,-6,0,0,0,0,0,0,0,0,0,-1,1567,1030,0,0
350,-6,0,0,0,0,0,0,0,0,0,-1,1574,1030,0,0
357,-6,0,0,0,0,0,0,0,0,0,-1,1581,1030,0,0
364,-6,0,0,0,0,0,0,0,0,0,-1,1588,1030,0,0
371,-6,0,0,0,0,0,0,0,0,0,-1,1595,1030,0,0
378,-6,0,0,0,0,0,0,0,0,0,-1,1602,1030,0,0
385,-6,0,0,0,0,0,0,0,0,0,-1,1609,1030,0,0
392,-6,0,0,0,0,0,0,0,0,0,-1,1616,1030,0,0
399,-6,0,0,0,0,0,0,0,0,0,-1,1623,1030,0,0
406,-6,0,0,0,0,0,0,0,0,0,-1,1630,1030,0,0
413,-6,0,0,0,0,0,0,0,0,0,-1,1637,1030,0,0
420,-6,0,0,0,0,0,0,0,0,0,-1,1644,1030,0,0
427,-6,0,0,0,0,0,0,0,0,0,-1,1651,1030,0,0
434,-6,0,0,0,0,0,0,0,0,0,-1,1658,1030,0,0
441,-6,0,0,0,0,0,0,0,0,0,-1,1665,1030,0,0
448,-6,0,0,0,0,0,0,0,0,0,-1,1672,1030,0,0
455,-6,0,0,0,0,0,0,0,0,0,-1,1679,1030,0,0
462,-6,0,0,0,0,0,0,0,0,0,-1,1686,1030,0,0
469,-6,0,0,0,0,0,0,0,0,0,-1,1693,1030,0,0
476,-6,0,0,0,0,0,0,0,0,0,-1,1700,1030,0,0
483,-6,0,0,0,0,0,0,0,0,0,-1,1707,1030,0,0
490,-6,0,0,0,0,0,0,0,0,0,-1,1714,1030,0,0
497,-6,0,0,0,0,0,0,0,0,0,-1,1721,1030,0,0
504,-6,0,0,0,0,0,0,0,0,0,-1,1728,1030,0,0
511,-6,0,0,0,0,0,0,0,0,0,-1,1735,1030,0,0
518,-6,0,0,0,0,0,0,0,0,0,-1,1742,1030,0,0
525,-6,0,0,0,0,0,0,0,0,0,-1,1749,1030,0,0
532,-6,0,0,0,0,0,0,0,0,0,-1,1756,1030,0,0
539,-6,0,0,0,0,0,0,0,0,0,-1,1763,1030,0,0
546,-6,0,0,0,0,0,0,0,0,0,-1,1770,1030,0,0
553,-6,0,0,0,0,0,0,0,0,0,-1,1777,1030,0,0
560,-6,0,0,0,0,0,0,0,0,0,-1,1784,1030,0,0
567,-6,0,0,0,0,0,0,0,0,0,-1,1791,1030,0,0
574,-6,0,0,0,0,0,0,0,0,0,-1,1798,1030,0,0
581,-6,0,0,0,0,0,0,0,0,0,-1,1805,1030,0,0
588,-6,0,0,0,0,0,0,0,0,0,-1,1812,1030,0,0
595,-6,0,0,0,0,0,0,0,0,0,-1,1819,1030,0,0
602,-6,0,0,0,0,0,0,0,0,0,-1,1826,1030,0,0
609,-6,0,0,0,0,0,0,0,0,0,-1,1833,1030,0,0
616,-6,0,0,0,0,0,0,0,0,0,-1,1840,1030,0,0
623,-6,0,0,0,0,0,0,0,0,0,-1,1847,1030,0,0
630,-6,0,0,0,0,0,0,0,0,0,-1,1854,1030,0,0
637,-6,0,0,0,0,0,0,0,0,0,-1,1861,1030,0,0
644,-6,0,0,0,0,0,0,0,0,0,-1,1868,1030,0,0
651,-6,40.8889,2.61987,0,0,0,0,0,0,0,-1,1875,1030,40.8889,-2.61992
658,-6,41.1473,2.18713,0,0,0,0,0,0,0,-1,1882,1030,41.1473,-2.18713
665,-6,40.8881,2.36731,-0.00335204,0.00338101,0.000972607,0.00351869,-0.00348972,1.43017,0.00404632,0.0423871,1889,1030,40.8881,-2.36726
672,-6,40.7844,2.68518,-0.00244279,0.00327387,0.00119698,0.00351438,-0.0026833,1.37251,0.00358894,0.0413764,1896,1030,40.7844,-2.68517
679,-6,40.6191,2.58911,-0.00173493,0.00349829,0.00179702,0.00405594,-0.00229259,1.2699,0.00371215,0.0410937,1903,1030,40.6191,-2.58905
686,-6,40.5466,2.45398,-0.00132759,0.0036082,0.00245048,0.00461814,-0.00233753,1.17987,0.00408718,0.0358917,1910,1030,40.5466,-2.45403
693,-6,40.6187,2.60535,-0.00109968,0.00362555,0.00307198,0.00513837,-0.0026125,1.1132,0.00455349,0.0335425,1917,1030,40.6186,-2.6054
700,-6,40.7245,2.66382,-0.00101685,0.00368927,0.00345942,0.00552004,-0.00284763,1.08405,0.00491252,0.0307354,1924,1030,40.7245,-2.66385
707,-6,40.6847,2.56897,-0.00107697,0.00372073,0.00364303,0.00568378,-0.00304002,1.07655,0.00511321,0.0278445,1931,1030,40.6847,-2.56892
714,-6,40.6987,2.47571,-0.00140823,0.0038153,0.00373152,0.00575827,-0.00335119,1.09073,0.0053202,0.0381678,1938,1030,40.6987,-2.47577
721,-6,40.7782,2.38904,0,0,0,0,0,0,0,-1,1945,1030,40.7782,-2.38908
728,-6,40.2698,5.35266,0,0,0,0,0,0,0,-1,1952,1030,40.2697,-5.35269
735,-6,40.3257,5.29053,-0.00315308,0.00508888,0.00296622,0.0060454,-0.0041096,1.25886,0.00589839,0.0299836,1959,1030,40.3256,-5.29052
742,-6,40.4287,5.29675,-0.00421262,0.00628273,0.00216254,0.00671085,-0.00464074,1.37535,0.00659007,0.028458,1966,1030,40.4287,-5.29679
749,-6,40.4119,5.3811,-0.00588578,0.00705097,0.00126395,0.0071733,-0.00600811,1.47431,0.0076202,0.0239199,1973,1030,40.4118,-5.38112
756,-6,40.4303,5.29224,-0.00704108,0.00842726,2.82121e-05,0.00842731,-0.00704113,1.56897,0.00894265,0.0184678,1980,1030,40.4303,-5.29227
763,-6,40.3739,5.2323,-0.00830707,0.0100596,-0.00151207,0.0101832,-0.00843072,-1.4892,0.0107626,0.0180816,1987,1030,40.3739,-5.23232
770,-6,40.3175,5.19629,-0.0101069,0.0122585,-0.00347086,0.0127847,-0.0106332,-1.42032,0.0135393,0.0164063,1994,1030,40.3175,-5.1963
777,-6,40.2456,5.20068,-0.0121316,0.0148297,-0.00540146,0.0158716,-0.0131735,-1.38025,0.0167933,0.016681,2001,1030,40.2456,-5.20071
784,-6,40.2068,5.15881,-0.0141994,0.0174642,-0.00733851,0.0190823,-0.0158176,-1.35377,0.0201788,0.0391946,2008,1030,40.2068,-5.15878
791,-6,40.624,4.68591,-0.0163487,0.0195034,-0.00958061,0.021903,-0.0187483,-1.32538,0.0234936,0.0487092,2015,1030,40.6239,-4.68587
798,-6,41.052,4.50513,0,0,0,0,0,0,0,-1,2022,1030,41.052,-4.50518
805,-6,41.3987,4.58582,0,0,0,0,0,0,0,-1,2029,1030,41.3987,-4.58577
812,-6,41.4263,4.33887,0,0,0,0,0,0,0,-1,2036,1030,41.4263,-4.33893
-700,-13,0,0,0,0,0,0,0,0,0,-1,524,1037,0,0
-693,-13,-29.3737,1.08655,0.00447027,0.0481758,-0.00942327,0.050121,0.0025251,-1.36723,0.0326049,0.0453917,531,1037,-29.3737,-1.08652
-686,-13,-29.3543,1.0968,0.00131578,0.0423253,-0.00513592,0.0429588,0.000682356,-1.44808,0.0284145,0.0440193,538,1037,-29.3543,-1.09686
-679,-13,-29.2257,1.39966,0,0,0,0,0,0,0,-1,545,1037,-29.2257,-1.39967
-672,-13,-29.8078,1.05505,0,0,0,0,0,0,0,-1,552,1037,-29.8078,-1.0551
-665,-13,-29.7235,1.42065,-0.00356653,0.0283934,0.00157866,0.0284712,-0.00364432,1.52156,0.0203049,0.045909,559,1037,-29.7235,-1.42067
-658,-13,-29.6838,1.76196,-0.00403603,0.0243303,0.00249788,0.0245486,-0.0042543,1.48363,0.0179526,0.0454049,566,1037,-29.6839,-1.76197
-651,-13,-29.9492,2.06702,-0.00406608,0.0203999,0.00285163,0.0207279,-0.00439405,1.45629,0.0154924,0.0426945,573,1037,-29.9492,-2.06707
-644,-13,-29.8374,2.34412,-0.00406243,0.0165003,0.00281848,0.0168796,-0.00444175,1.43702,0.0129893,0.0305331,580,1037,-29.8374,-2.34418
-637,-13,-29.9004,2.48535,-0.00363,0.0137306,0.00146786,0.0138538,-0.00375324,1.48704,0.0107085,0.0223024,587,1037,-29.9004,-2.48536
-630,-13,-29.9926,2.47644,-0.00263965,0.00947271,-0.000521439,0.00949512,-0.00266205,-1.52785,0.00737926,0.0146227,594,1037,-29.9926,-2.47641
-623,-13,-30.0016,2.56921,-0.00139718,0.00731408,-0.00284842,0.00816277,-0.00224587,-1.28122,0.00632481,0.0136491,601,1037,-30.0017,-2.56924
-616,-13,-29.9883,2.66223,-3.15815e-05,0.00518902,-0.00501986,0.00823669,-0.00307926,-1.02516,0.00675567,0.0130887,608,1037,-29.9883,-2.66217
-609,-13,-29.9802,2.72791,0.000820099,0.00393069,-0.00709071,0.00963467,-0.00488388,-0.89336,0.00853057,0.018377,615,1037,-29.9802,-2.72794
-602,-13,-29.9526,2.79114,0.00109359,0.00234826,-0.00850997,0.010254,-0.00681214,-0.82219,0.0099197,0.0128946,622,1037,-29.9527,-2.79108
-595,-13,-29.9745,2.84729,0,0,0,0,0,0,0,-1,629,1037,-29.9746,-2.84733
-588,-13,-29.7345,1.48901,0,0,0,0,0,0,0,-1,636,1037,-29.7345,-1.48898
-581,-13,-29.7947,0.788696,0,0,0,0,0,0,0,-1,643,1037,-29.7947,-0.788711
-574,-13,-29.7721,0.87439,0.00199026,0.00102335,-0.00928324,0.0108026,-0.00778902,-0.759383,0.0107808,0.0312089,650,1037,-29.7721,-0.874445
-567,-13,-29.7606,1.00317,0.00162741,0.00134208,-0.00819362,0.0096796,-0.00671011,-0.776693,0.00951424,0.0385217,657,1037,-29.7606,-1.00314
-560,-13,-29.6116,0.874634,0,0,0,0,0,0,0,-1,664,1037,-29.6115,-0.874652
-553,-13,-29.8168,0.970825,0.000580481,0.00232817,-0.0044568,0.00599598,-0.00308733,-0.882205,0.00533312,0.0437673,671,1037,-29.8169,-0.970794
-546,-13,-29.8782,1.01868,0.00011542,0.00273436,-0.00199747,0.00381332,-0.000963541,-1.07554,0.00291693,0.0416964,678,1037,-29.8781,-1.01863
-539,-13,-29.8223,0.916992,5.05411e-05,0.00301888,-0.000199119,0.00303218,3.72437e-05,-1.50411,0.00200915,0.0409574,685,1037,-29.8223,-0.916933
-532,-13,-29.9239,0.970703,0.000687642,0.00409406,-0.00153955,0.00468675,9.49558e-05,-1.20331,0.00309333,0.0403126,692,1037,-29.9239,-0.970712
-525,-13,0,0,0,0,0,0,0,0,0,-1,699,1037,0,0
-518,-13,0,0,0,0,0,0,0,0,0,-1,706,1037,0,0
-511,-13,0,0,0,0,0,0,0,0,0,-1,713,1037,0,0
-504,-13,0,0,0,0,0,0,0,0,0,-1,720,1037,0,0
-497,-13,0,0,0,0,0,0,0,0,0,-1,727,1037,0,0
-490,-13,0,0,0,0,0,0,0,0,0,-1,734,1037,0,0
-483,-13,0,0,0,0,0,0,0,0,0,-1,741,1037,0,0
-476,-13,0,0,0,0,0,0,0,0,0,-1,748,1037,0,0
-469,-13,0,0,0,0,0,0,0,0,0,-1,755,1037,0,0
-462,-13,0,0,0,0,0,0,0,0,0,-1,762,1037,0,0
-455,-13,0,0,0,0,0,0,0,0,0,-1,769,1037,0,0
-448,-13,0,0,0,0,0,0,0,0,0,-1,776,1037,0,0
-441,-13,0,0,0,0,0,0,0,0,0,-1,783,1037,0,0
-434,-13,0,0,0,0,0,0,0,0,0,-1,790,1037,0,0
-427,-13,0,0,0,0,0,0,0,0,0,-1,797,1037,0,0
-420,-13,0,0,0,0,0,0,0,0,0,-1,804,1037,0,0
-413,-13,0,0,0,0,0,0,0,0,0,-1,811,1037,0,0
-406,-13,0,0,0,0,0,0,0,0,0,-1,818,1037,0,0
-399,-13,0,0,0,0,0,0,0,0,0,-1,825,1037,0,0
-392,-13,0,0,0,0,0,0,0,0,0,-1,832,1037,0,0
-385,-13,0,0,0,0,0,0,0,0,0,-1,839,1037,0,0
-378,-13,0,0,0,0,0,0,0,0,0,-1,846,1037,0,0
-371,-13,0,0,0,0,0,0,0,0,0,-1,853,1037,0,0
-364,-13,0,0,0,0,0,0,0,0,0,-1,860,1037,0,0
-357,-13,0,0,0,0,0,0,0,0,0,-1,867,1037,0,0
-350,-13,0,0,0,0,0,0,0,0,0,-1,874,1037,0,0
-343,-13,0,0,0,0,0,0,0,0,0,-1,881,1037,0,0
-336,-13,0,0,0,0,0,0,0,0,0,-1,888,1037,0,0
-329,-13,0,0,0,0,0,0,0,0,0,-1,895,1037,0,0
-322,-13,0,0,0,0,0,0,0,0,0,-1,902,1037,0,0
-315,-13,0,0,0,0,0,0,0,0,0,-1,909,1037,0,0
-308,-13,0,0,0,0,0,0,0,0,0,-1,916,1037,0,0
-301,-13,0,0,0,0,0,0,0,0,0,-1,923,1037,0,0
-294,-13,0,0,0,0,0,0,0,0,0,-1,930,1037,0,0
-287,-13,0,0,0,0,0,0,0,0,0,-1,937,1037,0,0
-280,-13,0,0,0,0,0,0,0,0,0,-1,944,1037,0,0
-273,-13,0,0,0,0,0,0,0,0,0,-1,951,1037,0,0
-266,-13,0,0,0,0,0,0,0,0,0,-1,958,1037,0,0
-259,-13,0,0,0,0,0,0,0,0,0,-1,965,1037,0,0
-252,-13,0,0,0,0,0,0,0,0,0,-1,972,1037,0,0
-245,-13,0,0,0,0,0,0,0,0,0,-1,979,1037,0,0
-238,-13,0,0,0,0,0,0,0,0,0,-1,986,1037,0,0
-231,-13,0,0,0,0,0,0,0,0,0,-1,993,1037,0,0
-224,-13,0,0,0,0,0,0,0,0,0,-1,1000,1037,0,0
-217,-13,0,0,0,0,0,0,0,0,0,-1,1007,1037,0,0
-210,-13,0,0,0,0,0,0,0,0,0,-1,1014,1037,0,0
-203,-13,0,0,0,0,0,0,0,0,0,-1,1021,1037,0,0
-196,-13,0,0,0,0,0,0,0,0,0,-1,1028,1037,0,0
-189,-13,0,0,0,0,0,0,0,0,0,-1,1035,1037,0,0
-182,-13,0,0,0,0,0,0,0,0,0,-1,1042,1037,0,0
-175,-13,0,0,0,0,0,0,0,0,0,-1,1049,1037,0,0
-168,-13,0,0,0,0,0,0,0,0,0,-1,1056,1037,0,0
-161,-13,0,0,0,0,0,0,0,0,0,-1,1063,1037,0,0
-154,-13,0,0,0,0,0,0,0,0,0,-1,1070,1037,0,0
-147,-13,0,0,0,0,0,0,0,0,0,-1,1077,1037,0,0
-140,-13,0,0,0,0,0,0,0,0,0,-1,1084,1037,0,0
-133,-13,0,0,0,0,0,0,0,0,0,-1,1091,1037,0,0
-126,-13,0,0,0,0,0,0,0,0,0,-1,1098,1037,0,0
-119,-13,0,0,0,0,0,0,0,0,0,-1,1105,1037,0,0
-112,-13,0,0,0,0,0,0,0,0,0,-1,1112,1037,0,0
-105,-13,0,0,0,0,0,0,0,0,0,-1,1119,1037,0,0
-98,-13,0,0,0,0,0,0,0,0,0,-1,1126,1037,0,0
-91,-13,0,0,0,0,0,0,0,0,0,-1,1133,1037,0,0
-84,-13,0,0,0,0,0,0,0,0,0,-1,1140,1037,0,0
-77,-13,0,0,0,0,0,0,0,0,0,-1,1147,1037,0,0
-70,-13,0,0,0,0,0,0,0,0,0,-1,1154,1037,0,0
-63,-13,0,0,0,0,0,0,0,0,0,-1,1161,1037,0,0
-56,-13,0,0,0,0,0,0,0,0,0,-1,1168,1037,0,0
-49,-13,0,0,0,0,0,0,0,0,0,-1,1175,1037,0,0
-42,-13,0,0,0,0,0,0,0,0,0,-1,1182,1037,0,0
-35,-13,0,0,0,0,0,0,0,0,0,-1,1189,1037,0,0
-28,-13,0,0,0,0,0,0,0,0,0,-1,1196,1037,0,0
-21,-13,0,0,0,0,0,0,0,0,0,-1,1203,1037,0,0
-14,-13,0,0,0,0,0,0,0,0,0,-1,1210,1037,0,0
-7,-13,0,0,0,0,0,0,0,0,0,-1,1217,1037,0,0
0,-13,0,0,0,0,0,0,0,0,0,-1,1224,1037,0,0
7,-13,0,0,0,0,0,0,0,0,0,-1,1231,1037,0,0
14,-13,0,0,0,0,0,0,0,0,0,-1,1238,1037,0,0
21,-13,0,0,0,0,0,0,0,0,0,-1,1245,1037,0,0
28,-13,0,0,0,0,0,0,0,0,0,-1,1252,1037,0,0
35,-13,0,0,0,0,0,0,0,0,0,-1,1259,1037,0,0
42,-13,0,0,0,0,0,0,0,0,0,-1,1266,1037,0,0
49,-13,0,0,0,0,0,0,0,0,0,-1,1273,1037,0,0
56,-13,0,0,0,0,0,0,0,0,0,-1,1280,1037,0,0
63,-13,0,0,0,0,0,0,0,0,0,-1,1287,1037,0,0
70,-13,0,0,0,0,0,0,0,0,0,-1,1294,1037,0,0
77,-13,0,0,0,0,0,0,0,0,0,-1,1301,1037,0,0
84,-13,0,0,0,0,0,0,0,0,0,-1,1308,1037,0,0
91,-13,0,0,0,0,0,0,0,0,0,-1,1315,1037,0,0
98,-13,0,0,0,0,0,0,0,0,0,-1,1322,1037,0,0
105,-13,0,0,0,0,0,0,0,0,0,-1,1329,1037,0,0
112,-13,0,0,0,0,0,0,0,0,0,-1,1336,1037,0,0
119,-13,0,0,0,0,0,0,0,0,0,-1,1343,1037,0,0
126,-13,0,0,0,0,0,0,0,0,0,-1,1350,1037,0,0
133,-13,0,0,0,0,0,0,0,0,0,-1,1357,1037,0,0
140,-13,0,0,0,0,0,0,0,0,0,-1,1364,1037,0,0
147,-13,0,0,0,0,0,0,0,0,0,-1,1371,1037,0,0
154,-13,0,0,0,0,0,0,0,0,0,-1,1378,1037,0,0
161,-13,0,0,0,0,0,0,0,0,0,-1,1385,1037,0,0
168,-13,0,0,0,0,0,0,0,0,0,-1,1392,1037,0,0
175,-13,0,0,0,0,0,0,0,0,0,-1,1399,1037,0,0
182,-13,0,0,0,0,0,0,0,0,0,-1,1406,1037,0,0
189,-13,0,0,0,0,0,0,0,0,0,-1,1413,1037,0,0
196,-13,0,0,0,0,0,0,0,0,0,-1,1420,1037,0,0
203,-13,0,0,0,0,0,0,0,0,0,-1,1427,1037,0,0
210,-13,0,0,0,0,0,0,0,0,0,-1,1434,1037,0,0
217,-13,0,0,0,0,0,0,0,0,0,-1,1441,1037,0,0
224,-13,0,0,0,0,0,0,0,0,0,-1,1448,1037,0,0
231,-13,0,0,0,0,0,0,0,0,0,-1,1455,1037,0,0
238,-13,0,0,0,0,0,0,0,0,0,-1,1462,1037,0,0
245,-13,0,0,0,0,0,0,0,0,0,-1,1469,1037,0,0
252,-13,0,0,0,0,0,0,0,0,0,-1,1476,1037,0,0
259,-13,0,0,0,0,0,0,0,0,0,-1,1483,1037,0,0
266,-13,0,0,0,0,0,0,0,0,0,-1,1490,1037,0,0
273,-13,0,0,0,0,0,0,0,0,0,-1,1497,1037,0,0
280,-13,0,0,0,0,0,0,0,0,0,-1,1504,1037,0,0
287,-13,0,0,0,0,0,0,0,0,0,-1,1511,1037,0,0
294,-13,0,0,0,0,0,0,0,0,0,-1,1518,1037,0,0
301,-13,0,0,0,0,0,0,0,0,0,-1,1525,1037,0,0
308,-13,0,0,0,0,0,0,0,0,0,-1,1532,1037,0,0
315,-13,0,0,0,0,0,0,0,0,0,-1,1539,1037,0,0
322,-13,0,0,0,0,0,0,0,0,0,-1,1546,1037,0,0
329,-13,0,0,0,0,0,0,0,0,0,-1,1553,1037,0,0
336,-13,0,0,0,0,0,0,0,0,0,-1,1560,1037,0,0
343,-13,0,0,0,0,0,0,0,0,0,-1,1567,1037,0,0
350,-13,0,0,0,0,0,0,0,0,0,-1,1574,1037,0,0
357,-13,0,0,0,0,0,0,0,0,0,-1,1581,1037,0,0
364,-13,0,0,0,0,0,0,0,0,0,-1,1588,1037,0,0
371,-13,0,0,0,0,0,0,0,0,0,-1,1595,1037,0,0
378,-13,0,0,0,0,0,0,0,0,0,-1,1602,1037,0,0
385,-13,0,0,0,0,0,0,0,0,0,-1,1609,1037,0,0
392,-13,0,0,0,0,0,0,0,0,0,-1,1616,1037,0,0
399,-13,0,0,0,0,0,0,0,0,0,-1,1623,1037,0,0
406,-13,0,0,0,0,0,0,0,0,0,-1,1630,1037,0,0
413,-13,0,0,0,0,0,0,0,0,0,-1,1637,1037,0,0
420,-13,0,0,0,0,0,0,0,0,0,-1,1644,1037,0,0
427,-13,0,0,0,0,0,0,0,0,0,-1,1651,1037,0,0
434,-13,0,0,0,0,0,0,0,0,0,-1,1658,1037,0,0
441,-13,0,0,0,0,0,0,0,0,0,-1,1665,1037,0,0
448,-13,0,0,0,0,0,0,0,0,0,-1,1672,1037,0,0
455,-13,0,0,0,0,0,0,0,0,0,-1,1679,1037,0,0
462,-13,0,0,0,0,0,0,0,0,0,-1,1686,1037,0,0
469,-13,0,0,0,0,0,0,0,0,0,-1,1693,1037,0,0
476,-13,0,0,0,0,0,0,0,0,0,-1,1700,1037,0,0
483,-13,0,0,0,0,0,0,0,0,0,-1,1707,1037,0,0
490,-13,0,0,0,0,0,0,0,0,0,-1,1714,1037,0,0
497,-13,0,0,0,0,0,0,0,0,0,-1,1721,1037,0,0
504,-13,0,0,0,0,0,0,0,0,0,-1,1728,1037,0,0
511,-13,0,0,0,0,0,0,0,0,0,-1,1735,1037,0,0
518,-13,0,0,0,0,0,0,0,0,0,-1,1742,1037,0,0
525,-13,0,0,0,0,0,0,0,0,0,-1,1749,1037,0,0
532,-13,0,0,0,0,0,0,0,0,0,-1,1756,1037,0,0
539,-13,0,0,0,0,0,0,0,0,0,-1,1763,1037,0,0
546,-13,0,0,0,0,0,0,0,0,0,-1,1770,1037,0,0
553,-13,0,0,0,0,0,0,0,0,0,-1,1777,1037,0,0
560,-13,0,0,0,0,0,0,0,0,0,-1,1784,1037,0,0
567,-13,0,0,0,0,0,0,0,0,0,-1,1791,1037,0,0
574,-13,0,0,0,0,0,0,0,0,0,-1,1798,1037,0,0
581,-13,0,0,0,0,0,0,0,0,0,-1,1805,1037,0,0
588,-13,0,0,0,0,0,0,0,0,0,-1,1812,1037,0,0
595,-13,0,0,0,0,0,0,0,0,0,-1,1819,1037,0,0
602,-13,0,0,0,0,0,0,0,0,0,-1,1826,1037,0,0
609,-13,0,0,0,0,0,0,0,0,0,-1,1833,1037,0,0
616,-13,0,0,0,0,0,0,0,0,0,-1,1840,1037,0,0
623,-13,0,0,0,0,0,0,0,0,0,-1,1847,1037,0,0
630,-13,0,0,0,0,0,0,0,0,0,-1,1854,1037,0,0
637,-13,0,0,0,0,0,0,0,0,0,-1,1861,1037,0,0
644,-13,0,0,0,0,0,0,0,0,0,-1,1868,1037,0,0
651,-13,40.8165,2.73096,-0.00595777,0.00371603,0.00158894,0.00397034,-0.00621207,1.4121,0.00592611,0.0384214,1875,1037,40.8165,-2.73099
658,-13,40.7123,2.6261,-0.00462893,0.00359412,0.0011533,0.00375281,-0.00478762,1.43406,0.00494287,0.0435328,1882,1037,40.7122,-2.62615
665,-13,40.7841,2.51013,-0.0035164,0.00328964,0.00086483,0.00339782,-0.00362458,1.44636,0.00405509,0.0437383,1889,1037,40.784,-2.51012
672,-13,40.7546,2.55725,-0.00255347,0.00308353,0.00111709,0.00329684,-0.00276678,1.38212,0.00350528,0.0378705,1896,1037,40.7546,-2.55723
679,-13,40.6156,2.61023,-0.00172531,0.0032648,0.00173117,0.00380656,-0.00226707,1.26751,0.00354396,0.0374057,1903,1037,40.6156,-2.61025
686,-13,40.4895,2.57568,-0.00122694,0.00335614,0.00238908,0.00437502,-0.00224582,1.16768,0.00388787,0.0374043,1910,1037,40.4894,-2.57566
693,-13,40.5276,2.55896,-0.000928955,0.0033707,0.00300664,0.00491704,-0.00247529,1.09577,0.00434488,0.0373402,1917,1037,40.5276,-2.559
700,-13,40.713,2.49023,-0.000802017,0.00344205,0.00340959,0.00533603,-0.00269599,1.06375,0.00472005,0.0357335,1924,1037,40.713,-2.49023
707,-13,40.7194,2.52551,-0.000838093,0.00346541,0.0036101,0.00551638,-0.00288906,1.05415,0.00493127,0.0294835,1931,1037,40.7193,-2.52547
714,-13,40.6874,2.7063,-0.00113671,0.00356011,0.00371908,0.00561018,-0.00318677,1.06701,0.00514276,0.0330593,1938,1037,40.6874,-2.7063
721,-13,40.4025,3.99683,-0.00173249,0.00381105,0.00365942,0.00562993,-0.00355137,1.10952,0.00534591,0.0483982,1945,1037,40.4025,-3.99678
728,-13,40.3495,5.41199,0,0,0,0,0,0,0,-1,1952,1037,40.3495,-5.41198
735,-13,40.3719,5.40674,-0.00279329,0.00483267,0.00299624,0.00586905,-0.00382967,1.23778,0.00564067,0.0244212,1959,1037,40.372,-5.40674
742,-13,40.3984,5.37842,-0.0037477,0.00596648,0.002244,0.0064598,-0.00424102,1.3544,0.00622223,0.0149527,1966,1037,40.3984,-5.37836
749,-13,40.4203,5.32336,-0.00525779,0.00667639,0.00137944,0.00683376,-0.00541516,1.4572,0.00708771,0.019822,1973,1037,40.4203,-5.32342
756,-13,40.3832,5.26013,-0.006164,0.00796549,0.000164778,0.00796741,-0.00616592,1.55914,0.00818195,0.0152768,1980,1037,40.3832,-5.26014
763,-13,40.3383,5.20032,-0.00703742,0.0094971,-0.00131056,0.00960034,-0.00714066,-1.49219,0.00970013,0.0222645,1987,1037,40.3383,-5.20032
770,-13,40.2902,5.16516,-0.00825908,0.0115515,-0.00322328,0.0120628,-0.00877033,-1.4135,0.012078,0.0197713,1994,1037,40.2902,-5.16522
777,-13,40.2052,5.09045,-0.00941571,0.0138767,-0.0051393,0.0149603,-0.0104993,-1.363,0.0147741,0.0143078,2001,1037,40.2052,-5.09046
784,-13,40.2046,5.00232,-0.0104468,0.0163476,-0.00700551,0.0180687,-0.0121678,-1.32989,0.0175675,0.0298177,2008,1037,40.2046,-5.00227
791,-13,40.6985,4.86792,-0.0113414,0.0182705,-0.00909259,0.0208396,-0.0139105,-1.29543,0.0201955,0.0449541,2015,1037,40.6985,-4.86791
798,-13,41.0632,4.72083,0,0,0,0,0,0,0,-1,2022,1037,41.0634,-4.72088
805,-13,41.4326,4.63135,-0.0110028,0.0190854,-0.0136363,0.0243459,-0.0162632,-1.20262,0.0235999,0.0437852,2029,1037,41.4326,-4.63137
812,-13,41.5029,4.41028,-0.00921438,0.0169916,-0.015808,0.024421,-0.0166438,-1.13145,0.0238501,0.0419935,2036,1037,41.5029,-4.41022
-700,-20,-29.5891,2.16919,0,0,0,0,0,0,0,-1,524,1044,-29.5891,-2.16924
-693,-20,-29.2167,2.48608,0.011611,0.015225,-0.0167437,0.0302589,-0.00342293,-0.83915,0.021405,0.0468427,531,1044,-29.2167,-2.48607
-686,-20,-29.5705,2.59277,0.00675136,0.014398,-0.0110729,0.0222891,-0.00113972,-0.951633,0.0152535,0.047791,538,1044,-29.5705,-2.59277
-679,-20,-29.6576,2.53833,0.00311711,0.0141988,-0.00685436,0.0174718,-0.000155851,-1.12531,0.0117001,0.0488487,545,1044,-29.6576,-2.53836
-672,-20,-29.8309,2.42029,0,0,0,0,0,0,0,-1,552,1044,-29.8309,-2.42031
-665,-20,-29.8472,2.10352,-0.00122401,0.0139381,-0.00134083,0.0140558,-0.00134167,-1.48327,0.00984826,0.0454828,559,1044,-29.8472,-2.10357
-658,-20,-29.8076,1.86938,-0.00229772,0.0134048,0.000255291,0.013409,-0.00230187,1.55454,0.00979717,0.0451142,566,1044,-29.8075,-1.86938
-651,-20,-29.8521,1.93652,-0.00278611,0.0124156,0.00115222,0.0125024,-0.00287295,1.49557,0.00943947,0.0409253,573,1044,-29.8521,-1.93658
-644,-20,-29.7351,2.14221,-0.00320517,0.0107683,0.00163047,0.0109561,-0.0033929,1.45617,0.00865949,0.0282108,580,1044,-29.7351,-2.14216
-637,-20,-29.7894,2.25769,-0.00317832,0.00969737,0.000655456,0.00973065,-0.0032116,1.52006,0.00778177,0.0171738,587,1044,-29.7894,-2.25767
-630,-20,-29.8538,2.42078,-0.00238909,0.00779686,-0.00110424,0.00791519,-0.00250742,-1.46404,0.00628169,0.0145496,594,1044,-29.8538,-2.42072
-623,-20,-29.8856,2.54968,-0.00121064,0.00614203,-0.00321107,0.00734692,-0.00241554,-1.21182,0.00587117,0.0146886,601,1044,-29.8856,-2.54963
-616,-20,-29.8694,2.65295,5.45876e-05,0.00436744,-0.0051578,0.00780146,-0.00337943,-0.9834,0.00662144,0.014684,608,1044,-29.8694,-2.65292
-609,-20,-29.8474,2.74414,0.000858644,0.00334066,-0.00711453,0.00932161,-0.0051223,-0.871746,0.00845586,0.016634,615,1044,-29.8473,-2.74414
-602,-20,-29.851,2.81812,0.00108019,0.00180928,-0.00846304,0.00991562,-0.00702615,-0.806923,0.00982864,0.0127994,622,1044,-29.8509,-2.8181
-595,-20,-29.8417,2.85974,0.00132976,0.00102183,-0.00940121,0.0105783,-0.00822667,-0.77721,0.0108853,0.0247404,629,1044,-29.8417,-2.85973
-588,-20,-29.8056,2.5658,0,0,0,0,0,0,0,-1,636,1044,-29.8056,-2.56582
-581,-20,-29.7658,0.825562,0,0,0,0,0,0,0,-1,643,1044,-29.7658,-0.82552
-574,-20,-29.6725,1.09143,0.00196165,0.000870135,-0.00915878,0.0105909,-0.00775913,-0.755639,0.0106364,0.0355708,650,1044,-29.6726,-1.09144
-567,-20,-29.5759,1.25427,0.00165895,0.00121724,-0.00816538,0.00960646,-0.00673027,-0.771878,0.00948062,0.0415734,657,1044,-29.5758,-1.25433
-560,-20,-29.6396,1.10266,0.00123072,0.0016999,-0.00667857,0.008148,-0.00521738,-0.802954,0.00777809,0.0412486,664,1044,-29.6397,-1.10266
-553,-20,-29.6885,0.974243,0.000735612,0.00221146,-0.00476227,0.00629264,-0.00334556,-0.862263,0.00565066,0.039409,671,1044,-29.6886,-0.974234
-546,-20,-29.8116,0.907593,0.000316548,0.00257399,-0.00252996,0.0042156,-0.00132505,-0.995219,0.00334085,0.0389367,678,1044,-29.8116,-0.907629
-539,-20,-29.9448,0.83667,0.000236844,0.00267791,-0.000944845,0.00300089,-8.61363e-05,-1.24141,0.00202992,0.0416754,685,1044,-29.9448,-0.836634
-532,-20,-29.8879,0.879517,0.000757379,0.00338296,-0.00256412,0.00495082,-0.000810476,-1.02199,0.00360123,0.0407703,692,1044,-29.888,-0.879473
-525,-20,0,0,0,0,0,0,0,0,0,-1,699,1044,0,0
-518,-20,0,0,0,0,0,0,0,0,0,-1,706,1044,0,0
-511,-20,0,0,0,0,0,0,0,0,0,-1,713,1044,0,0
-504,-20,0,0,0,0,0,0,0,0,0,-1,720,1044,0,0
-497,-20,0,0,0,0,0,0,0,0,0,-1,727,1044,0,0
-490,-20,0,0,0,0,0,0,0,0,0,-1,734,1044,0,0
-483,-20,0,0,0,0,0,0,0,0,0,-1,741,1044,0,0
-476,-20,0,0,0,0,0,0,0,0,0,-1,748,1044,0,0
-469,-20,0,0,0,0,0,0,0,0,0,-1,755,1044,0,0
-462,-20,0,0,0,0,0,0,0,0,0,-1,762,1044,0,0
-455,-20,0,0,0,0,0,0,0,0,0,-1,769,1044,0,0
-448,-20,0,0,0,0,0,0,0,0,0,-1,776,1044,0,0
-441,-20,0,0,0,0,0,0,0,0,0,-1,783,1044,0,0
-434,-20,0,0,0,0,0,0,0,0,0,-1,790,1044,0,0
-427,-20,0,0,0,0,0,0,0,0,0,-1,797,1044,0,0
-420,-20,0,0,0,0,0,0,0,0,0,-1,804,1044,0,0
-413,-20,0,0,0,0,0,0,0,0,0,-1,811,1044,0,0
-406,-20,0,0,0,0,0,0,0,0,0,-1,818,1044,0,0
-399,-20,0,0,0,0,0,0,0,0,0,-1,825,1044,0,0
-392,-20,0,0,0,0,0,0,0,0,0,-1,832,1044,0,0
-385,-20,0,0,0,0,0,0,0,0,0,-1,839,1044,0,0
-378,-20,0,0,0,0,0,0,0,0,0,-1,846,1044,0,0
-371,-20,0,0,0,0,0,0,0,0,0,-1,853,1044,0,0
-364,-20,0,0,0,0,0,0,0,0,0,-1,860,1044,0,0
-357,-20,0,0,0,0,0,0,0,0,0,-1,867,1044,0,0
-350,-20,0,0,0,0,0,0,0,0,0,-1,874,1044,0,0
-343,-20,0,0,0,0,0,0,0,0,0,-1,881,1044,0,0
-336,-20,0,0,0,0,0,0,0,0,0,-1,888,1044,0,0
-329,-20,0,0,0,0,0,0,0,0,0,-1,895,1044,0,0
-322,-20,0,0,0,0,0,0,0,0,0,-1,902,1044,0,0
-315,-20,0,0,0,0,0,0,0,0,0,-1,909,1044,0,0
-308,-20,0,0,0,0,0,0,0,0,0,-1,916,1044,0,0
-301,-20,0,0,0,0,0,0,0,0,0,-1,923,1044,0,0
-294,-20,0,0,0,0,0,0,0,0,0,-1,930,1044,0,0
-287,-20,0,0,0,0,0,0,0,0,0,-1,937,1044,0,0
-280,-20,0,0,0,0,0,0,0,0,0,-1,944,1044,0,0
-273,-20,0,0,0,0,0,0,0,0,0,-1,951,1044,0,0
-266,-20,0,0,0,0,0,0,0,0,0,-1,958,1044,0,0
-259,-20,0,0,0,0,0,0,0,0,0,-1,965,1044,0,0
-252,-20,0,0,0,0,0,0,0,0,0,-1,972,1044,0,0
-245,-20,0,0,0,0,0,0,0,0,0,-1,979,1044,0,0
-238,-20,0,0,0,0,0,0,0,0,0,-1,986,1044,0,0
-231,-20,0,0,0,0,0,0,0,0,0,-1,993,1044,0,0
-224,-20,0,0,0,0,0,0,0,0,0,-1,1000,1044,0,0
-217,-20,0,0,0,0,0,0,0,0,0,-1,1007,1044,0,0
-210,-20,0,0,0,0,0,0,0,0,0,-1,1014,1044,0,0
-203,-20,0,0,0,0,0,0,0,0,0,-1,1021,1044,0,0
-196,-20,0,0,0,0,0,0,0,0,0,-1,1028,1044,0,0
-189,-20,0,0,0,0,0,0,0,0,0,-1,1035,1044,0,0
-182,-20,0,0,0,0,0,0,0,0,0,-1,1042,1044,0,0
-175,-20,0,0,0,0,0,0,0,0,0,-1,1049,1044,0,0
-168,-20,0,0,0,0,0,0,0,0,0,-1,1056,1044,0,0
-161,-20,0,0,0,0,0,0,0,0,0,-1,1063,1044,0,0
-154,-20,0,0,0,0,0,0,0,0,0,-1,1070,1044,0,0
-147,-20,0,0,0,0,0,0,0,0,0,-1,1077,1044,0,0
-140,-20,0,0,0,0,0,0,0,0,0,-1,1084,1044,0,0
-133,-20,0,0,0,0,0,0,0,0,0,-1,1091,1044,0,0
-126,-20,0,0,0,0,0,0,0,0,0,-1,1098,1044,0,0
-119,-20,0,0,0,0,0,0,0,0,0,-1,1105,1044,0,0
-112,-20,0,0,0,0,0,0,0,0,0,-1,1112,1044,0,0
-105,-20,0,0,0,0,0,0,0,0,0,-1,1119,1044,0,0
-98,-20,0,0,0,0,0,0,0,0,0,-1,1126,1044,0,0
-91,-20,0,0,0,0,0,0,0,0,0,-1,1133,1044,0,0
-84,-20,0,0,0,0,0,0,0,0,0,-1,1140,1044,0,0
-77,-20,0,0,0,0,0,0,0,0,0,-1,1147,1044,0,0
-70,-20,0,0,0,0,0,0,0,0,0,-1,1154,1044,0,0
-63,-20,0,0,0,0,0,0,0,0,0,-1,1161,1044,0,0
-56,-20,0,0,0,0,0,0,0,0,0,-1,1168,1044,0,0
-49,-20,0,0,0,0,0,0,0,0,0,-1,1175,1044,0,0
-42,-20,0,0,0,0,0,0,0,0,0,-1,1182,1044,0,0
-35,-20,0,0,0,0,0,0,0,0,0,-1,1189,1044,0,0
-28,-20,0,0,0,0,0,0,0,0,0,-1,1196,1044,0,0
-21,-20,0,0,0,0,0,0,0,0,0,-1,1203,1044,0,0
-14,-20,0,0,0,0,0,0,0,0,0,-1,1210,1044,0,0
-7,-20,0,0,0,0,0,0,0,0,0,-1,1217,1044,0,0
0,-20,0,0,0,0,0,0,0,0,0,-1,1224,1044,0,0
7,-20,0,0,0,0,0,0,0,0,0,-1,1231,1044,0,0
14,-20,0,0,0,0,0,0,0,0,0,-1,1238,1044,0,0
21,-20,0,0,0,0,0,0,0,0,0,-1,1245,1044,0,0
28,-20,0,0,0,0,0,0,0,0,0,-1,1252,1044,0,0
35,-20,0,0,0,0,0,0,0,0,0,-1,1259,1044,0,0
42,-20,0,0,0,0,0,0,0,0,0,-1,1266,1044,0,0
49,-20,0,0,0,0,0,0,0,0,0,-1,1273,1044,0,0
56,-20,0,0,0,0,0,0,0,0,0,-1,1280,1044,0,0
63,-20,0,0,0,0,0,0,0,0,0,-1,1287,1044,0,0
70,-20,0,0,0,0,0,0,0,0,0,-1,1294,1044,0,0
77,-20,0,0,0,0,0,0,0,0,0,-1,1301,1044,0,0
84,-20,0,0,0,0,0,0,0,0,0,-1,1308,1044,0,0
91,-20,0,0,0,0,0,0,0,0,0,-1,1315,1044,0,0
98,-20,0,0,0,0,0,0,0,0,0,-1,1322,1044,0,0
105,-20,0,0,0,0,0,0,0,0,0,-1,1329,1044,0,0
112,-20,0,0,0,0,0,0,0,0,0,-1,1336,1044,0,0
119,-20,0,0,0,0,0,0,0,0,0,-1,1343,1044,0,0
126,-20,0,0,0,0,0,0,0,0,0,-1,1350,1044,0,0
133,-20,0,0,0,0,0,0,0,0,0,-1,1357,1044,0,0
140,-20,0,0,0,0,0,0,0,0,0,-1,1364,1044,0,0
147,-20,0,0,0,0,0,0,0,0,0,-1,1371,1044,0,0
154,-20,0,0,0,0,0,0,0,0,0,-1,1378,1044,0,0
161,-20,0,0,0,0,0,0,0,0,0,-1,1385,1044,0,0
168,-20,0,0,0,0,0,0,0,0,0,-1,1392,1044,0,0
175,-20,0,0,0,0,0,0,0,0,0,-1,1399,1044,0,0
182,-20,0,0,0,0,0,0,0,0,0,-1,1406,1044,0,0
189,-20,0,0,0,0,0,0,0,0,0,-1,1413,1044,0,0
196,-20,0,0,0,0,0,0,0,0,0,-1,1420,1044,0,0
203,-20,0,0,0,0,0,0,0,0,0,-1,1427,1044,0,0
210,-20,0,0,0,0,0,0,0,0,0,-1,1434,1044,0,0
217,-20,0,0,0,0,0,0,0,0,0,-1,1441,1044,0,0
224,-20,0,0,0,0,0,0,0,0,0,-1,1448,1044,0,0
231,-20,0,0,0,0,0,0,0,0,0,-1,1455,1044,0,0
238,-20,0,0,0,0,0,0,0,0,0,-1,1462,1044,0,0
245,-20,0,0,0,0,0,0,0,0,0,-1,1469,1044,0,0
252,-20,0,0,0,0,0,0,0,0,0,-1,1476,1044,0,0
259,-20,0,0,0,0,0,0,0,0,0,-1,1483,1044,0,0
266,-20,0,0,0,0,0,0,0,0,0,-1,1490,1044,0,0
273,-20,0,0,0,0,0,0,0,0,0,-1,1497,1044,0,0
280,-20,0,0,0,0,0,0,0,0,0,-1,1504,1044,0,0
287,-20,0,0,0,0,0,0,0,0,0,-1,1511,1044,0,0
294,-20,0,0,0,0,0,0,0,0,0,-1,1518,1044,0,0
301,-20,0,0,0,0,0,0,0,0,0,-1,1525,1044,0,0
308,-20,0,0,0,0,0,0,0,0,0,-1,1532,1044,0,0
315,-20,0,0,0,0,0,0,0,0,0,-1,1539,1044,0,0
322,-20,0,0,0,0,0,0,0,0,0,-1,1546,1044,0,0
329,-20,0,0,0,0,0,0,0,0,0,-1,1553,1044,0,0
336,-20,0,0,0,0,0,0,0,0,0,-1,1560,1044,0,0
343,-20,0,0,0,0,0,0,0,0,0,-1,1567,1044,0,0
350,-20,0,0,0,0,0,0,0,0,0,-1,1574,1044,0,0
357,-20,0,0,0,0,0,0,0,0,0,-1,1581,1044,0,0
364,-20,0,0,0,0,0,0,0,0,0,-1,1588,1044,0,0
371,-20,0,0,0,0,0,0,0,0,0,-1,1595,1044,0,0
378,-20,0,0,0,0,0,0,0,0,0,-1,1602,1044,0,0
385,-20,0,0,0,0,0,0,0,0,0,-1,1609,1044,0,0
392,-20,0,0,0,0,0,0,0,0,0,-1,1616,1044,0,0
399,-20,0,0,0,0,0,0,0,0,0,-1,1623,1044,0,0
406,-20,0,0,0,0,0,0,0,0,0,-1,1630,1044,0,0
413,-20,0,0,0,0,0,0,0,0,0,-1,1637,1044,0,0
420,-20,0,0,0,0,0,0,0,0,0,-1,1644,1044,0,0
427,-20,0,0,0,0,0,0,0,0,0,-1,1651,1044,0,0
434,-20,0,0,0,0,0,0,0,0,0,-1,1658,1044,0,0
441,-20,0,0,0,0,0,0,0,0,0,-1,1665,1044,0,0
448,-20,0,0,0,0,0,0,0,0,0,-1,1672,1044,0,0
455,-20,0,0,0,0,0,0,0,0,0,-1,1679,1044,0,0
462,-20,0,0,0,0,0,0,0,0,0,-1,1686,1044,0,0
469,-20,0,0,0,0,0,0,0,0,0,-1,1693,1044,0,0
476,-20,0,0,0,0,0,0,0,0,0,-1,1700,1044,0,0
483,-20,0,0,0,0,0,0,0,0,0,-1,1707,1044,0,0
490,-20,0,0,0,0,0,0,0,0,0,-1,1714,1044,0,0
497,-20,0,0,0,0,0,0,0,0,0,-1,1721,1044,0,0
504,-20,0,0,0,0,0,0,0,0,0,-1,1728,1044,0,0
511,-20,0,0,0,0,0,0,0,0,0,-1,1735,1044,0,0
518,-20,0,0,0,0,0,0,0,0,0,-1,1742,1044,0,0
525,-20,0,0,0,0,0,0,0,0,0,-1,1749,1044,0,0
532,-20,0,0,0,0,0,0,0,0,0,-1,1756,1044,0,0
539,-20,0,0,0,0,0,0,0,0,0,-1,1763,1044,0,0
546,-20,0,0,0,0,0,0,0,0,0,-1,1770,1044,0,0
553,-20,0,0,0,0,0,0,0,0,0,-1,1777,1044,0,0
560,-20,0,0,0,0,0,0,0,0,0,-1,1784,1044,0,0
567,-20,0,0,0,0,0,0,0,0,0,-1,1791,1044,0,0
574,-20,0,0,0,0,0,0,0,0,0,-1,1798,1044,0,0
581,-20,0,0,0,0,0,0,0,0,0,-1,1805,1044,0,0
588,-20,0,0,0,0,0,0,0,0,0,-1,1812,1044,0,0
595,-20,0,0,0,0,0,0,0,0,0,-1,1819,1044,0,0
602,-20,0,0,0,0,0,0,0,0,0,-1,1826,1044,0,0
609,-20,0,0,0,0,0,0,0,0,0,-1,1833,1044,0,0
616,-20,0,0,0,0,0,0,0,0,0,-1,1840,1044,0,0
623,-20,0,0,0,0,0,0,0,0,0,-1,1847,1044,0,0
630,-20,0,0,0,0,0,0,0,0,0,-1,1854,1044,0,0
637,-20,0,0,0,0,0,0,0,0,0,-1,1861,1044,0,0
644,-20,0,0,0,0,0,0,0,0,0,-1,1868,1044,0,0
651,-20,40.7599,2.67383,-0.00611052,0.00354685,0.00127871,0.00371329,-0.00627696,1.44136,0.00583084,0.0409525,1875,1044,40.7599,-2.67381
658,-20,40.6621,2.66589,-0.00477092,0.00332576,0.000984812,0.00344382,-0.00488898,1.45148,0.004835,0.0434095,1882,1044,40.6621,-2.66584
665,-20,40.6848,2.60156,-0.00363001,0.00297003,0.000775303,0.00305988,-0.00371986,1.45542,0.00392046,0.0397095,1889,1044,40.6848,-2.60158
672,-20,40.6616,2.54358,-0.00262108,0.00269157,0.00107668,0.00290148,-0.00283099,1.37825,0.00330973,0.0254664,1896,1044,40.6616,-2.54356
679,-20,40.6494,2.70361,-0.00173305,0.00285603,0.00172846,0.00343421,-0.00231122,1.24799,0.00333818,0.0281011,1903,1044,40.6494,-2.70364
686,-20,40.6697,2.69934,-0.00120771,0.00295336,0.00242129,0.0040652,-0.00231955,1.14032,0.00373188,0.0371845,1910,1044,40.6697,-2.69932
693,-20,40.6892,2.61316,-0.000911127,0.00299389,0.00306182,0.00467277,-0.00259001,1.06924,0.00425025,0.0405793,1917,1044,40.6892,-2.61318
700,-20,40.656,2.56458,-0.000788478,0.00309248,0.00350695,0.00516002,-0.00285601,1.03809,0.00469135,0.0363974,1924,1044,40.6561,-2.56461
707,-20,40.6965,2.55737,-0.000821102,0.00313724,0.00374218,0.00539139,-0.00307526,1.02864,0.00494882,0.0293566,1931,1044,40.6966,-2.55742
714,-20,40.7058,2.7749,-0.0011027,0.00324396,0.00388063,0.0055184,-0.00337714,1.04066,0.0051852,0.0283748,1938,1044,40.7058,-2.77492
721,-20,40.6648,3.25879,-0.00166011,0.00349744,0.00383354,0.00553885,-0.00370152,1.08148,0.00536997,0.0396255,1945,1044,40.6648,-3.25881
728,-20,40.6334,5.38818,0,0,0,0,0,0,0,-1,1952,1044,40.6334,-5.38813
735,-20,40.4529,5.4071,-0.00266453,0.00449604,0.00320125,0.00571851,-0.003887,1.20601,0.00557924,0.0254127,1959,1044,40.4528,-5.4071
742,-20,40.3223,5.35803,-0.00349145,0.00554522,0.00249495,0.0061883,-0.00413452,1.31854,0.00599907,0.01905,1966,1044,40.3222,-5.35803
749,-20,40.36,5.31628,-0.00479114,0.00618795,0.00163774,0.00642704,-0.00503023,1.42583,0.00663122,0.0210814,1973,1044,40.36,-5.3163
756,-20,40.3301,5.24829,-0.00542729,0.00735537,0.00041298,0.0073687,-0.00544062,1.53853,0.00742334,0.0159143,1980,1044,40.3301,-5.24824
763,-20,40.2599,5.1825,-0.00590044,0.00873649,-0.00103751,0.00880967,-0.00597362,-1.50038,0.00858733,0.0229326,1987,1044,40.2599,-5.18246
770,-20,40.2123,5.19177,-0.00653892,0.0105944,-0.00295365,0.0110893,-0.00703382,-1.40479,0.0105503,0.0200387,1994,1044,40.2123,-5.19179
777,-20,40.1357,5.0498,-0.00684715,0.0126099,-0.00488353,0.0137668,-0.00800407,-1.33818,0.0127154,0.0140481,2001,1044,40.1357,-5.04983
784,-20,40.1155,4.9823,-0.00685591,0.014854,-0.00670156,0.0167561,-0.00875795,-1.29425,0.0149698,0.0191215,2008,1044,40.1154,-4.98233
791,-20,40.3738,4.72571,-0.0064675,0.0165869,-0.00864962,0.0194713,-0.00935183,-1.24893,0.0169795,0.0367632,2015,1044,40.3738,-4.72566
798,-20,40.6272,4.41272,0,0,0,0,0,0,0,-1,2022,1044,40.6271,-4.41278
805,-20,41.5581,4.50684,-0.00266019,0.0173487,-0.0125874,0.0234232,-0.00873463,-1.12118,0.0192011,0.0436938,2029,1044,41.5581,-4.50682
812,-20,41.6123,4.47339,0.00149143,0.0155622,-0.0141567,0.0243353,-0.0072817,-1.01601,0.0191188,0.045306,2036,1044,41.6123,-4.47335
-700,-27,-29.464,3.19287,0,0,0,0,0,0,0,-1,524,1051,-29.464,-3.19291
-693,-27,-29.4973,3.11743,0.0138328,0.0160395,-0.0241597,0.0391211,-0.00924872,-0.808217,0.0296484,0.0467885,531,1051,-29.4973,-3.11745
-686,-27,-29.5403,3.15039,0.00866535,0.0141287,-0.0170066,0.0286216,-0.00582754,-0.865031,0.0212911,0.0454269,538,1051,-29.5403,-3.15038
-679,-27,-29.9031,3.29199,0.00482905,0.013217,-0.0115957,0.0213538,-0.00330778,-0.958922,0.0154569,0.0474326,545,1051,-29.9031,-3.29205
-672,-27,-30.0211,3.28955,0,0,0,0,0,0,0,-1,552,1051,-30.021,-3.28955
-665,-27,-29.8203,2.63428,0,0,0,0,0,0,0,-1,559,1051,-29.8202,-2.63422
-658,-27,-29.6284,2.17456,-0.000992159,0.0117219,-0.00211384,0.0120642,-0.00133439,-1.41029,0.00852247,0.041283,566,1051,-29.6284,-2.17459
-651,-27,-29.4647,2.01794,-0.00161996,0.0108045,-0.00070578,0.0108444,-0.00165992,-1.51423,0.00784172,0.0342799,573,1051,-29.4647,-2.01791
-644,-27,-29.5861,2.05762,-0.00226615,0.00924366,0.000258768,0.00924947,-0.00227197,1.54833,0.0070468,0.0175989,580,1051,-29.5861,-2.05762
-637,-27,-29.6543,2.16113,-0.00240937,0.0081909,-0.000270299,0.00819779,-0.00241626,-1.54532,0.00642392,0.0137903,587,1051,-29.6543,-2.16115
-630,-27,-29.7369,2.39771,-0.0017934,0.00647601,-0.00184166,0.00686762,-0.00218501,-1.36128,0.00545463,0.0178538,594,1051,-29.7369,-2.39776
-623,-27,-29.7429,2.54578,-0.000806956,0.00515083,-0.00366487,0.00689477,-0.00255089,-1.12665,0.0056424,0.0161648,601,1051,-29.7429,-2.54584
-616,-27,-29.7085,2.66895,0.00025212,0.0036775,-0.00531322,0.00754725,-0.00361763,-0.941313,0.00657779,0.0137324,608,1051,-29.7085,-2.6689
-609,-27,-29.709,2.79443,0.000925311,0.00287242,-0.00707126,0.00903683,-0.00523909,-0.853807,0.00833886,0.0141941,615,1051,-29.709,-2.79442
-602,-27,-29.6802,2.92297,0.00103568,0.00142804,-0.0083147,0.00954887,-0.00708516,-0.797193,0.00963871,0.0121643,622,1051,-29.6803,-2.92303
-595,-27,-29.7439,3.02539,0.00120671,0.00086454,-0.00915154,0.0101888,-0.00811752,-0.776052,0.0105917,0.0137738,629,1051,-29.7439,-3.02534
-588,-27,-29.7736,0.803955,0,0,0,0,0,0,0,-1,636,1051,-29.7736,-0.804002
-581,-27,-29.7541,0.852173,0.00190066,0.000709723,-0.00929241,0.0106167,-0.00800628,-0.753401,0.0107871,0.0223761,643,1051,-29.7541,-0.852219
-574,-27,-29.7233,0.989136,0.00193307,0.000913462,-0.00883549,0.0102734,-0.00742692,-0.75658,0.0102633,0.0358719,650,1051,-29.7233,-0.989123
-567,-27,-29.3181,1.2666,0,0,0,0,0,0,0,-1,657,1051,-29.3181,-1.26658
-560,-27,-29.4926,1.1062,0.00141283,0.00179158,-0.00654397,0.00814891,-0.0049445,-0.799863,0.00763458,0.0463868,664,1051,-29.4926,-1.10615
-553,-27,-29.5841,1.02173,0.00105481,0.00227266,-0.00476835,0.00647081,-0.00314333,-0.848905,0.00566046,0.0417785,671,1051,-29.5841,-1.02176
-546,-27,-29.7278,0.919189,0.000779584,0.00254619,-0.00268866,0.00449292,-0.00116715,-0.944108,0.00345077,0.0427843,678,1051,-29.7278,-0.919177
-539,-27,-29.8667,0.874146,0.000795367,0.00240645,-0.00120147,0.00304743,0.000154388,-1.08071,0.00198216,0.045639,685,1051,-29.8667,-0.874113
-532,-27,-29.7827,0.950806,0.00130154,0.00269281,-0.00290496,0.00498426,-0.000989914,-0.902918,0.00369725,0.0436557,692,1051,-29.7826,-0.950804
-525,-27,0,0,0,0,0,0,0,0,0,-1,699,1051,0,0
-518,-27,0,0,0,0,0,0,0,0,0,-1,706,1051,0,0
-511,-27,0,0,0,0,0,0,0,0,0,-1,713,1051,0,0
-504,-27,0,0,0,0,0,0,0,0,0,-1,720,1051,0,0
-497,-27,0,0,0,0,0,0,0,0,0,-1,727,1051,0,0
-490,-27,0,0,0,0,0,0,0,0,0,-1,734,1051,0,0
-483,-27,0,0,0,0,0,0,0,0,0,-1,741,1051,0,0
-476,-27,0,0,0,0,0,0,0,0,0,-1,748,1051,0,0
-469,-27,0,0,0,0,0,0,0,0,0,-1,755,1051,0,0
-462,-27,0,0,0,0,0,0,0,0,0,-1,762,1051,0,0
-455,-27,0,0,0,0,0,0,0,0,0,-1,769,1051,0,0
-448,-27,0,0,0,0,0,0,0,0,0,-1,776,1051,0,0
-441,-27,0,0,0,0,0,0,0,0,0,-1,783,1051,0,0
-434,-27,0,0,0,0,0,0,0,0,0,-1,790,1051,0,0
-427,-27,0,0,0,0,0,0,0,0,0,-1,797,1051,0,0
-420,-27,0,0,0,0,0,0,0,0,0,-1,804,1051,0,0
-413,-27,0,0,0,0,0,0,0,0,0,-1,811,1051,0,0
-406,-27,0,0,0,0,0,0,0,0,0,-1,818,1051,0,0
-399,-27,0,0,0,0,0,0,0,0,0,-1,825,1051,0,0
-392,-27,0,0,0,0,0,0,0,0,0,-1,832,1051,0,0
-385,-27,0,0,0,0,0,0,0,0,0,-1,839,1051,0,0
-378,-27,0,0,0,0,0,0,0,0,0,-1,846,1051,0,0
-371,-27,0,0,0,0,0,0,0,0,0,-1,853,1051,0,0
-364,-27,0,0,0,0,0,0,0,0,0,-1,860,1051,0,0
-357,-27,0,0,0,0,0,0,0,0,0,-1,867,1051,0,0
-350,-27,0,0,0,0,0,0,0,0,0,-1,874,1051,0,0
-343,-27,0,0,0,0,0,0,0,0,0,-1,881,1051,0,0
-336,-27,0,0,0,0,0,0,0,0,0,-1,888,1051,0,0
-329,-27,0,0,0,0,0,0,0,0,0,-1,895,1051,0,0
-322,-27,0,0,0,0,0,0,0,0,0,-1,902,1051,0,0
-315,-27,0,0,0,0,0,0,0,0,0,-1,909,1051,0,0
-308,-27,0,0,0,0,0,0,0,0,0,-1,916,1051,0,0
-301,-27,0,0,0,0,0,0,0,0,0,-1,923,1051,0,0
-294,-27,0,0,0,0,0,0,0,0,0,-1,930,1051,0,0
-287,-27,0,0,0,0,0,0,0,0,0,-1,937,1051,0,0
-280,-27,0,0,0,0,0,0,0,0,0,-1,944,1051,0,0
-273,-27,0,0,0,0,0,0,0,0,0,-1,951,1051,0,0
-266,-27,0,0,0,0,0,0,0,0,0,-1,958,1051,0,0
-259,-27,0,0,0,0,0,0,0,0,0,-1,965,1051,0,0
-252,-27,0,0,0,0,0,0,0,0,0,-1,972,1051,0,0
-245,-27,0,0,0,0,0,0,0,0,0,-1,979,1051,0,0
-238,-27,0,0,0,0,0,0,0,0,0,-1,986,1051,0,0
-231,-27,0,0,0,0,0,0,0,0,0,-1,993,1051,0,0
-224,-27,0,0,0,0,0,0,0,0,0,-1,1000,1051,0,0
-217,-27,0,0,0,0,0,0,0,0,0,-1,1007,1051,0,0
-210,-27,0,0,0,0,0,0,0,0,0,-1,1014,1051,0,0
-203,-27,0,0,0,0,0,0,0,0,0,-1,1021,1051,0,0
-196,-27,0,0,0,0,0,0,0,0,0,-1,1028,1051,0,0
-189,-27,0,0,0,0,0,0,0,0,0,-1,1035,1051,0,0
-182,-27,0,0,0,0,0,0,0,0,0,-1,1042,1051,0,0
-175,-27,0,0,0,0,0,0,0,0,0,-1,1049,1051,0,0
-168,-27,0,0,0,0,0,0,0,0,0,-1,1056,1051,0,0
-161,-27,0,0,0,0,0,0,0,0,0,-1,1063,1051,0,0
-154,-27,0,0,0,0,0,0,0,0,0,-1,1070,1051,0,0
-147,-27,0,0,0,0,0,0,0,0,0,-1,1077,1051,0,0
-140,-27,0,0,0,0,0,0,0,0,0,-1,1084,1051,0,0
-133,-27,0,0,0,0,0,0,0,0,0,-1,1091,1051,0,0
-126,-27,0,0,0,0,0,0,0,0,0,-1,1098,1051,0,0
-119,-27,0,0,0,0,0,0,0,0,0,-1,1105,1051,0,0
-112,-27,0,0,0,0,0,0,0,0,0,-1,1112,1051,0,0
-105,-27,0,0,0,0,0,0,0,0,0,-1,1119,1051,0,0
-98,-27,0,0,0,0,0,0,0,0,0,-1,1126,1051,0,0
-91,-27,0,0,0,0,0,0,0,0,0,-1,1133,1051,0,0
-84,-27,0,0,0,0,0,0,0,0,0,-1,1140,1051,0,0
-77,-27,0,0,0,0,0,0,0,0,0,-1,1147,1051,0,0
-70,-27,0,0,0,0,0,0,0,0,0,-1,1154,1051,0,0
-63,-27,0,0,0,0,0,0,0,0,0,-1,1161,1051,0,0
-56,-27,0,0,0,0,0,0,0,0,0,-1,1168,1051,0,0
-49,-27,0,0,0,0,0,0,0,0,0,-1,1175,1051,0,0
-42,-27,0,0,0,0,0,0,0,0,0,-1,1182,1051,0,0
-35,-27,0,0,0,0,0,0,0,0,0,-1,1189,1051,0,0
-28,-27,0,0,0,0,0,0,0,0,0,-1,1196,1051,0,0
-21,-27,0,0,0,0,0,0,0,0,0,-1,1203,1051,0,0
-14,-27,0,0,0,0,0,0,0,0,0,-1,1210,1051,0,0
-7,-27,0,0,0,0,0,0,0,0,0,-1,1217,1051,0,0
0,-27,0,0,0,0,0,0,0,0,0,-1,1224,1051,0,0
7,-27,0,0,0,0,0,0,0,0,0,-1,1231,1051,0,0
14,-27,0,0,0,0,0,0,0,0,0,-1,1238,1051,0,0
21,-27,0,0,0,0,0,0,0,0,0,-1,1245,1051,0,0
28,-27,0,0,0,0,0,0,0,0,0,-1,1252,1051,0,0
35,-27,0,0,0,0,0,0,0,0,0,-1,1259,1051,0,0
42,-27,0,0,0,0,0,0,0,0,0,-1,1266,1051,0,0
49,-27,0,0,0,0,0,0,0,0,0,-1,1273,1051,0,0
56,-27,0,0,0,0,0,0,0,0,0,-1,1280,1051,0,0
63,-27,0,0,0,0,0,0,0,0,0,-1,1287,1051,0,0
70,-27,0,0,0,0,0,0,0,0,0,-1,1294,1051,0,0
77,-27,0,0,0,0,0,0,0,0,0,-1,1301,1051,0,0
84,-27,0,0,0,0,0,0,0,0,0,-1,1308,1051,0,0
91,-27,0,0,0,0,0,0,0,0,0,-1,1315,1051,0,0
98,-27,0,0,0,0,0,0,0,0,0,-1,1322,1051,0,0
105,-27,0,0,0,0,0,0,0,0,0,-1,1329,1051,0,0
112,-27,0,0,0,0,0,0,0,0,0,-1,1336,1051,0,0
119,-27,0,0,0,0,0,0,0,0,0,-1,1343,1051,0,0
126,-27,0,0,0,0,0,0,0,0,0,-1,1350,1051,0,0
133,-27,0,0,0,0,0,0,0,0,0,-1,1357,1051,0,0
140,-27,0,0,0,0,0,0,0,0,0,-1,1364,1051,0,0
147,-27,0,0,0,0,0,0,0,0,0,-1,1371,1051,0,0
154,-27,0,0,0,0,0,0,0,0,0,-1,1378,1051,0,0
161,-27,0,0,0,0,0,0,0,0,0,-1,1385,1051,0,0
168,-27,0,0,0,0,0,0,0,0,0,-1,1392,1051,0,0
175,-27,0,0,0,0,0,0,0,0,0,-1,1399,1051,0,0
182,-27,0,0,0,0,0,0,0,0,0,-1,1406,1051,0,0
189,-27,0,0,0,0,0,0,0,0,0,-1,1413,1051,0,0
196,-27,0,0,0,0,0,0,0,0,0,-1,1420,1051,0,0
203,-27,0,0,0,0,0,0,0,0,0,-1,1427,1051,0,0
210,-27,0,0,0,0,0,0,0,0,0,-1,1434,1051,0,0
217,-27,0,0,0,0,0,0,0,0,0,-1,1441,1051,0,0
224,-27,0,0,0,0,0,0,0,0,0,-1,1448,1051,0,0
231,-27,0,0,0,0,0,0,0,0,0,-1,1455,1051,0,0
238,-27,0,0,0,0,0,0,0,0,0,-1,1462,1051,0,0
245,-27,0,0,0,0,0,0,0,0,0,-1,1469,1051,0,0
252,-27,0,0,0,0,0,0,0,0,0,-1,1476,1051,0,0
259,-27,0,0,0,0,0,0,0,0,0,-1,1483,1051,0,0
266,-27,0,0,0,0,0,0,0,0,0,-1,1490,1051,0,0
273,-27,0,0,0,0,0,0,0,0,0,-1,1497,1051,0,0
280,-27,0,0,0,0,0,0,0,0,0,-1,1504,1051,0,0
287,-27,0,0,0,0,0,0,0,0,0,-1,1511,1051,0,0
294,-27,0,0,0,0,0,0,0,0,0,-1,1518,1051,0,0
301,-27,0,0,0,0,0,0,0,0,0,-1,1525,1051,0,0
308,-27,0,0,0,0,0,0,0,0,0,-1,1532,1051,0,0
315,-27,0,0,0,0,0,0,0,0,0,-1,1539,1051,0,0
322,-27,0,0,0,0,0,0,0,0,0,-1,1546,1051,0,0
329,-27,0,0,0,0,0,0,0,0,0,-1,1553,1051,0,0
336,-27,0,0,0,0,0,0,0,0,0,-1,1560,1051,0,0
343,-27,0,0,0,0,0,0,0,0,0,-1,1567,1051,0,0
350,-27,0,0,0,0,0,0,0,0,0,-1,1574,1051,0,0
357,-27,0,0,0,0,0,0,0,0,0,-1,1581,1051,0,0
364,-27,0,0,0,0,0,0,0,0,0,-1,1588,1051,0,0
371,-27,0,0,0,0,0,0,0,0,0,-1,1595,1051,0,0
378,-27,0,0,0,0,0,0,0,0,0,-1,1602,1051,0,0
385,-27,0,0,0,0,0,0,0,0,0,-1,1609,1051,0,0
392,-27,0,0,0,0,0,0,0,0,0,-1,1616,1051,0,0
399,-27,0,0,0,0,0,0,0,0,0,-1,1623,1051,0,0
406,-27,0,0,0,0,0,0,0,0,0,-1,1630,1051,0,0
413,-27,0,0,0,0,0,0,0,0,0,-1,1637,1051,0,0
420,-27,0,0,0,0,0,0,0,0,0,-1,1644,1051,0,0
427,-27,0,0,0,0,0,0,0,0,0,-1,1651,1051,0,0
434,-27,0,0,0,0,0,0,0,0,0,-1,1658,1051,0,0
441,-27,0,0,0,0,0,0,0,0,0,-1,1665,1051,0,0
448,-27,0,0,0,0,0,0,0,0,0,-1,1672,1051,0,0
455,-27,0,0,0,0,0,0,0,0,0,-1,1679,1051,0,0
462,-27,0,0,0,0,0,0,0,0,0,-1,1686,1051,0,0
469,-27,0,0,0,0,0,0,0,0,0,-1,1693,1051,0,0
476,-27,0,0,0,0,0,0,0,0,0,-1,1700,1051,0,0
483,-27,0,0,0,0,0,0,0,0,0,-1,1707,1051,0,0
490,-27,0,0,0,0,0,0,0,0,0,-1,1714,1051,0,0
497,-27,0,0,0,0,0,0,0,0,0,-1,1721,1051,0,0
504,-27,0,0,0,0,0,0,0,0,0,-1,1728,1051,0,0
511,-27,0,0,0,0,0,0,0,0,0,-1,1735,1051,0,0
518,-27,0,0,0,0,0,0,0,0,0,-1,1742,1051,0,0
525,-27,0,0,0,0,0,0,0,0,0,-1,1749,1051,0,0
532,-27,0,0,0,0,0,0,0,0,0,-1,1756,1051,0,0
539,-27,0,0,0,0,0,0,0,0,0,-1,1763,1051,0,0
546,-27,0,0,0,0,0,0,0,0,0,-1,1770,1051,0,0
553,-27,0,0,0,0,0,0,0,0,0,-1,1777,1051,0,0
560,-27,0,0,0,0,0,0,0,0,0,-1,1784,1051,0,0
567,-27,0,0,0,0,0,0,0,0,0,-1,1791,1051,0,0
574,-27,0,0,0,0,0,0,0,0,0,-1,1798,1051,0,0
581,-27,0,0,0,0,0,0,0,0,0,-1,1805,1051,0,0
588,-27,0,0,0,0,0,0,0,0,0,-1,1812,1051,0,0
595,-27,0,0,0,0,0,0,0,0,0,-1,1819,1051,0,0
602,-27,0,0,0,0,0,0,0,0,0,-1,1826,1051,0,0
609,-27,0,0,0,0,0,0,0,0,0,-1,1833,1051,0,0
616,-27,0,0,0,0,0,0,0,0,0,-1,1840,1051,0,0
623,-27,0,0,0,0,0,0,0,0,0,-1,1847,1051,0,0
630,-27,0,0,0,0,0,0,0,0,0,-1,1854,1051,0,0
637,-27,0,0,0,0,0,0,0,0,0,-1,1861,1051,0,0
644,-27,0,0,0,0,0,0,0,0,0,-1,1868,1051,0,0
651,-27,40.8315,2.60815,-0.00615231,0.00266595,0.00122274,0.00283236,-0.00631871,1.43554,0.00540967,0.0409056,1875,1051,40.8316,-2.60819
658,-27,40.7592,2.56775,-0.00476371,0.00243316,0.00103468,0.00257896,-0.00490951,1.4308,0.00439271,0.0403896,1882,1051,40.7592,-2.56778
665,-27,40.735,2.55518,-0.00358783,0.00213305,0.000876919,0.00226445,-0.00371923,1.42206,0.00348854,0.0370868,1889,1051,40.735,-2.55517
672,-27,40.7292,2.59216,-0.00253421,0.00186435,0.00119007,0.00216569,-0.00283555,1.3228,0.00289609,0.0285497,1896,1051,40.7292,-2.59219
679,-27,40.6555,2.70032,-0.00165468,0.00203579,0.00184037,0.00279667,-0.00241556,1.17876,0.00301196,0.0289421,1903,1051,40.6555,-2.70037
686,-27,40.7539,2.68408,-0.00121124,0.00214287,0.00254147,0.00351074,-0.00257912,1.07704,0.00352967,0.0395678,1910,1051,40.7539,-2.68406
693,-27,40.759,2.573,-0.00100438,0.00220628,0.00318848,0.00417076,-0.00296885,1.01861,0.00414148,0.0412746,1917,1051,40.759,-2.57299
700,-27,40.6274,2.6106,-0.000970295,0.00232768,0.00366189,0.00469473,-0.00333735,0.996954,0.00465935,0.0366933,1924,1051,40.6275,-2.61065
707,-27,40.6431,2.62134,-0.00106075,0.0024088,0.00393171,0.00497144,-0.00362339,0.993165,0.00498253,0.0237334,1931,1051,40.643,-2.62139
714,-27,40.7095,2.71375,-0.00137546,0.00254737,0.00410177,0.00513257,-0.00396066,1.00842,0.00526449,0.0229155,1938,1051,40.7094,-2.71377
721,-27,40.7076,2.91284,0,0,0,0,0,0,0,-1,1945,1051,40.7077,-2.91287
728,-27,40.7255,5.43237,0,0,0,0,0,0,0,-1,1952,1051,40.7255,-5.43242
735,-27,40.3816,5.46619,-0.00288857,0.00383612,0.00347335,0.00530798,-0.00436043,1.16998,0.00559099,0.0272686,1959,1051,40.3816,-5.46614
742,-27,40.2236,5.42737,-0.0035657,0.00480472,0.00280405,0.00565724,-0.00441821,1.27565,0.00583171,0.0177168,1966,1051,40.2236,-5.42737
749,-27,40.2601,5.33374,-0.00459515,0.00542662,0.00196759,0.00579907,-0.00496761,1.38371,0.00622232,0.013903,1973,1051,40.2602,-5.3337
756,-27,40.2299,5.24084,-0.00478853,0.0065411,0.000736564,0.00658879,-0.00483621,1.50615,0.00662205,0.0129634,1980,1051,40.2298,-5.24083
763,-27,40.17,5.13123,-0.00461526,0.00788081,-0.000701578,0.00792008,-0.00465453,-1.51489,0.0073411,0.0149055,1987,1051,40.1701,-5.13128
770,-27,40.1299,5.03601,-0.00438707,0.00966138,-0.00262176,0.0101347,-0.00486041,-1.39218,0.00883415,0.0160435,1994,1051,40.1299,-5.03603
777,-27,40.0928,4.9978,-0.00343931,0.0115312,-0.00456463,0.0128132,-0.00472132,-1.29699,0.0104767,0.017762,2001,1051,40.0928,-4.99786
784,-27,40.0425,4.97144,-0.00200104,0.0137195,-0.00633867,0.0159569,-0.00423842,-1.23147,0.0122967,0.0266121,2008,1051,40.0424,-4.97148
791,-27,40.0999,4.60779,0.000118577,0.0155234,-0.00816781,0.0190478,-0.00340577,-1.16344,0.0139728,0.0416247,2015,1051,40.0999,-4.60779
798,-27,40.396,4.3147,0,0,0,0,0,0,0,-1,2022,1051,40.396,-4.31471
805,-27,41.8921,4.18054,0,0,0,0,0,0,0,-1,2029,1051,41.892,-4.18057
812,-27,41.8003,4.50867,0,0,0,0,0,0,0,-1,2036,1051,41.8004,-4.50867
-700,-34,-32.4371,2.9209,0,0,0,0,0,0,0,-1,524,1058,-32.4371,-2.9209
-693,-34,-31.8931,2.89063,0,0,0,0,0,0,0,-1,531,1058,-31.8931,-2.89064
-686,-34,-31.4898,2.828,0,0,0,0,0,0,0,-1,538,1058,-31.4898,-2.82802
-679,-34,-29.9894,3.88354,0,0,0,0,0,0,0,-1,545,1058,-29.9894,-3.88352
-672,-34,-30.1918,3.74829,0,0,0,0,0,0,0,-1,552,1058,-30.1918,-3.7483
-665,-34,-29.5859,0.889038,0,0,0,0,0,0,0,-1,559,1058,-29.5859,-0.889014
-658,-34,-29.4818,1.48682,-0.000547756,0.011775,-0.00384155,0.0128745,-0.00164723,-1.29204,0.00918148,0.0425935,566,1058,-29.4818,-1.48685
-651,-34,-29.3168,1.91418,-0.00107234,0.0106223,-0.00200452,0.0109563,-0.00140638,-1.40567,0.00781531,0.0301496,573,1058,-29.3168,-1.91416
-644,-34,-29.4769,1.97473,-0.001744,0.0088636,-0.000641004,0.00890219,-0.00178259,-1.51066,0.00660961,0.0158724,580,1058,-29.4769,-1.97467
-637,-34,-29.5399,2.10132,-0.00181019,0.00739402,-0.000726428,0.007451,-0.00186717,-1.49252,0.00569272,0.0167811,587,1058,-29.5399,-2.10133
-630,-34,-29.5762,2.31799,-0.00130577,0.00569952,-0.00218686,0.00632615,-0.00193239,-1.29173,0.00498794,0.0169671,594,1058,-29.5762,-2.31801
-623,-34,-29.5551,2.50635,-0.000504141,0.00450335,-0.00380066,0.00655084,-0.00255163,-1.07665,0.00542175,0.0128826,601,1058,-29.5551,-2.50635
-616,-34,-29.5173,2.70154,0.000392226,0.00317032,-0.005198,0.00716166,-0.00359912,-0.915961,0.00632521,0.0194145,608,1058,-29.5173,-2.70151
-609,-34,-29.5137,2.84412,0.000969085,0.00247901,-0.00678708,0.00855299,-0.0051049,-0.840788,0.00796871,0.0202397,615,1058,-29.5137,-2.84409
-602,-34,-29.5097,2.95923,0.00101315,0.00109666,-0.00794026,0.00899527,-0.00688546,-0.788028,0.00919568,0.014418,622,1058,-29.5097,-2.95919
-595,-34,-29.5905,3.06067,0.00112283,0.000680879,-0.00867492,0.00957959,-0.00777588,-0.772664,0.0100382,0.0154598,629,1058,-29.5905,-3.06067
-588,-34,-29.7578,1.93359,0.00140472,0.000620682,-0.00891291,0.00993423,-0.00790882,-0.763421,0.0103238,0.0272288,636,1058,-29.7578,-1.93364
-581,-34,-29.736,0.857544,0.00179403,0.000683007,-0.00871552,0.00997172,-0.00749469,-0.753572,0.010118,0.0241142,643,1058,-29.736,-0.857514
-574,-34,-29.7488,0.927002,0.00186686,0.000972214,-0.00828705,0.00971866,-0.00687958,-0.758435,0.00962961,0.0361001,650,1058,-29.7488,-0.927051
-567,-34,-29.6097,1.01074,0.00172896,0.00142556,-0.00743829,0.00901709,-0.00586257,-0.775202,0.00865489,0.0413857,657,1058,-29.6097,-1.01077
-560,-34,-29.5791,1.02344,0.001478,0.00196454,-0.00616713,0.0078932,-0.00445065,-0.805111,0.00721852,0.0429501,664,1058,-29.5791,-1.02345
-553,-34,-29.7182,1.04968,0.00119023,0.00245547,-0.00451323,0.0063802,-0.00273451,-0.855029,0.00540087,0.0454868,671,1058,-29.7182,-1.04968
-546,-34,-29.7418,1.00256,0.000970718,0.00268289,-0.00254589,0.00451277,-0.000859165,-0.94759,0.00333203,0.0486491,678,1058,-29.7418,-1.00254
-539,-34,-29.7681,0.92627,0.000977089,0.0023268,-0.00107087,0.00291772,0.000386165,-1.06656,0.00183006,0.0468629,685,1058,-29.7681,-0.926243
-532,-34,-29.6837,0.828735,0.00132679,0.00219039,-0.00270296,0.00449583,-0.000978646,-0.864604,0.00337112,0.0419308,692,1058,-29.6837,-0.828698
-525,-34,0,0,0,0,0,0,0,0,0,-1,699,1058,0,0
-518,-34,0,0,0,0,0,0,0,0,0,-1,706,1058,0,0
-511,-34,0,0,0,0,0,0,0,0,0,-1,713,1058,0,0
-504,-34,0,0,0,0,0,0,0,0,0,-1,720,1058,0,0
-497,-34,0,0,0,0,0,0,0,0,0,-1,727,1058,0,0
-490,-34,0,0,0,0,0,0,0,0,0,-1,734,1058,0,0
-483,-34,0,0,0,0,0,0,0,0,0,-1,741,1058,0,0
-476,-34,0,0,0,0,0,0,0,0,0,-1,748,1058,0,0
-469,-34,0,0,0,0,0,0,0,0,0,-1,755,1058,0,0
-462,-34,0,0,0,0,0,0,0,0,0,-1,762,1058,0,0
-455,-34,0,0,0,0,0,0,0,0,0,-1,769,1058,0,0
-448,-34,0,0,0,0,0,0,0,0,0,-1,776,1058,0,0
-441,-34,0,0,0,0,0,0,0,0,0,-1,783,1058,0,0
-434,-34,0,0,0,0,0,0,0,0,0,-1,790,1058,0,0
-427,-34,0,0,0,0,0,0,0,0,0,-1,797,1058,0,0
-420,-34,0,0,0,0,0,0,0,0,0,-1,804,1058,0,0
-413,-34,0,0,0,0,0,0,0,0,0,-1,811,1058,0,0
-406,-34,0,0,0,0,0,0,0,0,0,-1,818,1058,0,0
-399,-34,0,0,0,0,0,0,0,0,0,-1,825,1058,0,0
-392,-34,0,0,0,0,0,0,0,0,0,-1,832,1058,0,0
-385,-34,0,0,0,0,0,0,0,0,0,-1,839,1058,0,0
-378,-34,0,0,0,0,0,0,0,0,0,-1,846,1058,0,0
-371,-34,0,0,0,0,0,0,0,0,0,-1,853,1058,0,0
-364,-34,0,0,0,0,0,0,0,0,0,-1,860,1058,0,0
-357,-34,0,0,0,0,0,0,0,0,0,-1,867,1058,0,0
-350,-34,0,0,0,0,0,0,0,0,0,-1,874,1058,0,0
-343,-34,0,0,0,0,0,0,0,0,0,-1,881,1058,0,0
-336,-34,0,0,0,0,0,0,0,0,0,-1,888,1058,0,0
-329,-34,0,0,0,0,0,0,0,0,0,-1,895,1058,0,0
-322,-34,0,0,0,0,0,0,0,0,0,-1,902,1058,0,0
-315,-34,0,0,0,0,0,0,0,0,0,-1,909,1058,0,0
-308,-34,0,0,0,0,0,0,0,0,0,-1,916,1058,0,0
-301,-34,0,0,0,0,0,0,0,0,0,-1,923,1058,0,0
-294,-34,0,0,0,0,0,0,0,0,0,-1,930,1058,0,0
-287,-34,0,0,0,0,0,0,0,0,0,-1,937,1058,0,0
-280,-34,0,0,0,0,0,0,0,0,0,-1,944,1058,0,0
-273,-34,0,0,0,0,0,0,0,0,0,-1,951,1058,0,0
-266,-34,0,0,0,0,0,0,0,0,0,-1,958,1058,0,0
-259,-34,0,0,0,0,0,0,0,0,0,-1,965,1058,0,0
-252,-34,0,0,0,0,0,0,0,0,0,-1,972,1058,0,0
-245,-34,0,0,0,0,0,0,0,0,0,-1,979,1058,0,0
-238,-34,0,0,0,0,0,0,0,0,0,-1,986,1058,0,0
-231,-34,0,0,0,0,0,0,0,0,0,-1,993,1058,0,0
-224,-34,0,0,0,0,0,0,0,0,0,-1,1000,1058,0,0
-217,-34,0,0,0,0,0,0,0,0,0,-1,1007,1058,0,0
-210,-34,0,0,0,0,0,0,0,0,0,-1,1014,1058,0,0
-203,-34,0,0,0,0,0,0,0,0,0,-1,1021,1058,0,0
-196,-34,0,0,0,0,0,0,0,0,0,-1,1028,1058,0,0
-189,-34,0,0,0,0,0,0,0,0,0,-1,1035,1058,0,0
-182,-34,0,0,0,0,0,0,0,0,0,-1,1042,1058,0,0
-175,-34,0,0,0,0,0,0,0,0,0,-1,1049,1058,0,0
-168,-34,0,0,0,0,0,0,0,0,0,-1,1056,1058,0,0
-161,-34,0,0,0,0,0,0,0,0,0,-1,1063,1058,0,0
-154,-34,0,0,0,0,0,0,0,0,0,-1,1070,1058,0,0
-147,-34,0,0,0,0,0,0,0,0,0,-1,1077,1058,0,0
-140,-34,0,0,0,0,0,0,0,0,0,-1,1084,1058,0,0
-133,-34,0,0,0,0,0,0,0,0,0,-1,1091,1058,0,0
-126,-34,0,0,0,0,0,0,0,0,0,-1,1098,1058,0,0
-119,-34,0,0,0,0,0,0,0,0,0,-1,1105,1058,0,0
-112,-34,0,0,0,0,0,0,0,0,0,-1,1112,1058,0,0
-105,-34,0,0,0,0,0,0,0,0,0,-1,1119,1058,0,0
-98,-34,0,0,0,0,0,0,0,0,0,-1,1126,1058,0,0
-91,-34,0,0,0,0,0,0,0,0,0,-1,1133,1058,0,0
-84,-34,0,0,0,0,0,0,0,0,0,-1,1140,1058,0,0
-77,-34,0,0,0,0,0,0,0,0,0,-1,1147,1058,0,0
-70,-34,0,0,0,0,0,0,0,0,0,-1,1154,1058,0,0
-63,-34,0,0,0,0,0,0,0,0,0,-1,1161,1058,0,0
-56,-34,0,0,0,0,0,0,0,0,0,-1,1168,1058,0,0
-49,-34,0,0,0,0,0,0,0,0,0,-1,1175,1058,0,0
-42,-34,0,0,0,0,0,0,0,0,0,-1,1182,1058,0,0
-35,-34,0,0,0,0,0,0,0,0,0,-1,1189,1058,0,0
-28,-34,0,0,0,0,0,0,0,0,0,-1,1196,1058,0,0
-21,-34,0,0,0,0,0,0,0,0,0,-1,1203,1058,0,0
-14,-34,0,0,0,0,0,0,0,0,0,-1,1210,1058,0,0
-7,-34,0,0,0,0,0,0,0,0,0,-1,1217,1058,0,0
0,-34,0,0,0,0,0,0,0,0,0,-1,1224,1058,0,0
7,-34,0,0,0,0,0,0,0,0,0,-1,1231,1058,0,0
14,-34,0,0,0,0,0,0,0,0,0,-1,1238,1058,0,0
21,-34,0,0,0,0,0,0,0,0,0,-1,1245,1058,0,0
28,-34,0,0,0,0,0,0,0,0,0,-1,1252,1058,0,0
35,-34,0,0,0,0,0,0,0,0,0,-1,1259,1058,0,0
42,-34,0,0,0,0,0,0,0,0,0,-1,1266,1058,0,0
49,-34,0,0,0,0,0,0,0,0,0,-1,1273,1058,0,0
56,-34,0,0,0,0,0,0,0,0,0,-1,1280,1058,0,0
63,-34,0,0,0,0,0,0,0,0,0,-1,1287,1058,0,0
70,-34,0,0,0,0,0,0,0,0,0,-1,1294,1058,0,0
77,-34,0,0,0,0,0,0,0,0,0,-1,1301,1058,0,0
84,-34,0,0,0,0,0,0,0,0,0,-1,1308,1058,0,0
91,-34,0,0,0,0,0,0,0,0,0,-1,1315,1058,0,0
98,-34,0,0,0,0,0,0,0,0,0,-1,1322,1058,0,0
105,-34,0,0,0,0,0,0,0,0,0,-1,1329,1058,0,0
112,-34,0,0,0,0,0,0,0,0,0,-1,1336,1058,0,0
119,-34,0,0,0,0,0,0,0,0,0,-1,1343,1058,0,0
126,-34,0,0,0,0,0,0,0,0,0,-1,1350,1058,0,0
133,-34,0,0,0,0,0,0,0,0,0,-1,1357,1058,0,0
140,-34,0,0,0,0,0,0,0,0,0,-1,1364,1058,0,0
147,-34,0,0,0,0,0,0,0,0,0,-1,1371,1058,0,0
154,-34,0,0,0,0,0,0,0,0,0,-1,1378,1058,0,0
161,-34,0,0,0,0,0,0,0,0,0,-1,1385,1058,0,0
168,-34,0,0,0,0,0,0,0,0,0,-1,1392,1058,0,0
175,-34,0,0,0,0,0,0,0,0,0,-1,1399,1058,0,0
182,-34,0,0,0,0,0,0,0,0,0,-1,1406,1058,0,0
189,-34,0,0,0,0,0,0,0,0,0,-1,1413,1058,0,0
196,-34,0,0,0,0,0,0,0,0,0,-1,1420,1058,0,0
203,-34,0,0,0,0,0,0,0,0,0,-1,1427,1058,0,0
210,-34,0,0,0,0,0,0,0,0,0,-1,1434,1058,0,0
217,-34,0,0,0,0,0,0,0,0,0,-1,1441,1058,0,0
224,-34,0,0,0,0,0,0,0,0,0,-1,1448,1058,0,0
231,-34,0,0,0,0,0,0,0,0,0,-1,1455,1058,0,0
238,-34,0,0,0,0,0,0,0,0,0,-1,1462,1058,0,0
245,-34,0,0,0,0,0,0,0,0,0,-1,1469,1058,0,0
252,-34,0,0,0,0,0,0,0,0,0,-1,1476,1058,0,0
259,-34,0,0,0,0,0,0,0,0,0,-1,1483,1058,0,0
266,-34,0,0,0,0,0,0,0,0,0,-1,1490,1058,0,0
273,-34,0,0,0,0,0,0,0,0,0,-1,1497,1058,0,0
280,-34,0,0,0,0,0,0,0,0,0,-1,1504,1058,0,0
287,-34,0,0,0,0,0,0,0,0,0,-1,1511,1058,0,0
294,-34,0,0,0,0,0,0,0,0,0,-1,1518,1058,0,0
301,-34,0,0,0,0,0,0,0,0,0,-1,1525,1058,0,0
308,-34,0,0,0,0,0,0,0,0,0,-1,1532,1058,0,0
315,-34,0,0,0,0,0,0,0,0,0,-1,1539,1058,0,0
322,-34,0,0,0,0,0,0,0,0,0,-1,1546,1058,0,0
329,-34,0,0,0,0,0,0,0,0,0,-1,1553,1058,0,0
336,-34,0,0,0,0,0,0,0,0,0,-1,1560,1058,0,0
343,-34,0,0,0,0,0,0,0,0,0,-1,1567,1058,0,0
350,-34,0,0,0,0,0,0,0,0,0,-1,1574,1058,0,0
357,-34,0,0,0,0,0,0,0,0,0,-1,1581,1058,0,0
364,-34,0,0,0,0,0,0,0,0,0,-1,1588,1058,0,0
371,-34,0,0,0,0,0,0,0,0,0,-1,1595,1058,0,0
378,-34,0,0,0,0,0,0,0,0,0,-1,1602,1058,0,0
385,-34,0,0,0,0,0,0,0,0,0,-1,1609,1058,0,0
392,-34,0,0,0,0,0,0,0,0,0,-1,1616,1058,0,0
399,-34,0,0,0,0,0,0,0,0,0,-1,1623,1058,0,0
406,-34,0,0,0,0,0,0,0,0,0,-1,1630,1058,0,0
413,-34,0,0,0,0,0,0,0,0,0,-1,1637,1058,0,0
420,-34,0,0,0,0,0,0,0,0,0,-1,1644,1058,0,0
427,-34,0,0,0,0,0,0,0,0,0,-1,1651,1058,0,0
434,-34,0,0,0,0,0,0,0,0,0,-1,1658,1058,0,0
441,-34,0,0,0,0,0,0,0,0,0,-1,1665,1058,0,0
448,-34,0,0,0,0,0,0,0,0,0,-1,1672,1058,0,0
455,-34,0,0,0,0,0,0,0,0,0,-1,1679,1058,0,0
462,-34,0,0,0,0,0,0,0,0,0,-1,1686,1058,0,0
469,-34,0,0,0,0,0,0,0,0,0,-1,1693,1058,0,0
476,-34,0,0,0,0,0,0,0,0,0,-1,1700,1058,0,0
483,-34,0,0,0,0,0,0,0,0,0,-1,1707,1058,0,0
490,-34,0,0,0,0,0,0,0,0,0,-1,1714,1058,0,0
497,-34,0,0,0,0,0,0,0,0,0,-1,1721,1058,0,0
504,-34,0,0,0,0,0,0,0,0,0,-1,1728,1058,0,0
511,-34,0,0,0,0,0,0,0,0,0,-1,1735,1058,0,0
518,-34,0,0,0,0,0,0,0,0,0,-1,1742,1058,0,0
525,-34,0,0,0,0,0,0,0,0,0,-1,1749,1058,0,0
532,-34,0,0,0,0,0,0,0,0,0,-1,1756,1058,0,0
539,-34,0,0,0,0,0,0,0,0,0,-1,1763,1058,0,0
546,-34,0,0,0,0,0,0,0,0,0,-1,1770,1058,0,0
553,-34,0,0,0,0,0,0,0,0,0,-1,1777,1058,0,0
560,-34,0,0,0,0,0,0,0,0,0,-1,1784,1058,0,0
567,-34,0,0,0,0,0,0,0,0,0,-1,1791,1058,0,0
574,-34,0,0,0,0,0,0,0,0,0,-1,1798,1058,0,0
581,-34,0,0,0,0,0,0,0,0,0,-1,1805,1058,0,0
588,-34,0,0,0,0,0,0,0,0,0,-1,1812,1058,0,0
595,-34,0,0,0,0,0,0,0,0,0,-1,1819,1058,0,0
602,-34,0,0,0,0,0,0,0,0,0,-1,1826,1058,0,0
609,-34,0,0,0,0,0,0,0,0,0,-1,1833,1058,0,0
616,-34,0,0,0,0,0,0,0,0,0,-1,1840,1058,0,0
623,-34,0,0,0,0,0,0,0,0,0,-1,1847,1058,0,0
630,-34,0,0,0,0,0,0,0,0,0,-1,1854,1058,0,0
637,-34,0,0,0,0,0,0,0,0,0,-1,1861,1058,0,0
644,-34,0,0,0,0,0,0,0,0,0,-1,1868,1058,0,0
651,-34,40.7908,2.39014,-0.00615943,0.000818369,0.00152901,0.00113871,-0.00647976,1.36428,0.00474517,0.0403645,1875,1058,40.7907,-2.3901
658,-34,40.7676,2.50012,-0.00463488,0.000827132,0.00130947,0.00112484,-0.00493259,1.34725,0.00372046,0.0414376,1882,1058,40.7676,-2.5001
665,-34,40.7731,2.5791,-0.00339887,0.000804932,0.0011338,0.00109123,-0.00368517,1.32346,0.00289003,0.0397391,1889,1058,40.773,-2.57914
672,-34,40.7708,2.64172,-0.00230474,0.000751692,0.00141368,0.00130528,-0.00285833,1.19755,0.00245897,0.0362037,1896,1058,40.7708,-2.64172
679,-34,40.5392,2.7229,-0.00144331,0.00105845,0.00201532,0.00217954,-0.0025644,1.06314,0.00274192,0.0360834,1903,1058,40.5392,-2.72291
686,-34,40.5745,2.74805,-0.00109102,0.00124351,0.00268753,0.00300632,-0.00285383,0.990269,0.00338374,0.0418312,1910,1058,40.5744,-2.74802
693,-34,40.7485,2.53333,-0.000974723,0.00135943,0.00331378,0.00370564,-0.00332093,0.95471,0.00405882,0.0426524,1917,1058,40.7485,-2.53337
700,-34,40.6855,2.58179,-0.00102107,0.00151335,0.0037837,0.0042364,-0.00374412,0.946984,0.00461048,0.0398355,1924,1058,40.6855,-2.58179
707,-34,40.6344,2.64392,-0.00116722,0.00163784,0.00407115,0.00454127,-0.00407066,0.951284,0.00497458,0.0262739,1931,1058,40.6344,-2.64396
714,-34,40.6635,2.73718,-0.00151226,0.00182516,0.00426292,0.00473434,-0.00442144,0.971954,0.00528712,0.0204731,1938,1058,40.6634,-2.73715
721,-34,40.8009,3.35925,0,0,0,0,0,0,0,-1,1945,1058,40.801,-3.35929
728,-34,40.2976,5.54492,0,0,0,0,0,0,0,-1,1952,1058,40.2977,-5.54494
735,-34,40.1451,5.51733,-0.00299304,0.00314465,0.00370644,0.00488782,-0.00473621,1.13118,0.00555667,0.0182086,1959,1058,40.1452,-5.51731
742,-34,40.0681,5.43311,-0.00360439,0.00402874,0.00311808,0.00514052,-0.00471617,1.22829,0.00569252,0.0157369,1966,1058,40.0681,-5.43305
749,-34,40.1047,5.32703,-0.00433017,0.00470829,0.00231706,0.00526767,-0.00488954,1.33391,0.00586562,0.0133848,1973,1058,40.1048,-5.32708
756,-34,40.118,5.21277,-0.00410277,0.00586064,0.00111687,0.0059843,-0.00422643,1.46052,0.00592422,0.0105557,1980,1058,40.1181,-5.21277
763,-34,40.0624,5.09473,-0.00331081,0.00732166,-0.000273311,0.00732868,-0.00331783,-1.54511,0.00629048,0.0120123,1987,1058,40.0624,-5.0947
770,-34,40.0032,4.96582,-0.00228597,0.0092346,-0.00213521,0.00961761,-0.00266897,-1.39331,0.00746223,0.0173007,1994,1058,40.0032,-4.96586
777,-34,39.9475,4.9043,-0.000160526,0.0112769,-0.00400775,0.0125414,-0.00142506,-1.26516,0.00887419,0.0190527,2001,1058,39.9475,-4.90432
784,-34,39.8892,4.80896,0.00270075,0.0137348,-0.00570084,0.0161511,0.000284492,-1.16991,0.0106738,0.0365405,2008,1058,39.8891,-4.80898
791,-34,39.8225,4.47156,0.006519,0.0159881,-0.00739836,0.0200372,0.00246995,-1.07004,0.0126156,0.0447911,2015,1058,39.8225,-4.47161
798,-34,39.9763,4.18433,0,0,0,0,0,0,0,-1,2022,1058,39.9763,-4.18435
805,-34,40.1008,3.46667,0,0,0,0,0,0,0,-1,2029,1058,40.1007,-3.46663
812,-34,40.5825,4.42163,0,0,0,0,0,0,0,-1,2036,1058,40.5825,-4.42165
-700,-41,-32.1303,2.75146,0.0210443,0.036266,-0.0462784,0.0755552,-0.018245,-0.866898,0.0574262,0.0467173,524,1065,-32.1303,-2.75149
-693,-41,-31.532,2.5979,0.0147664,0.0279708,-0.0342869,0.0562853,-0.0135481,-0.880513,0.0427611,0.0456847,531,1065,-31.5321,-2.59788
-686,-41,-31.1209,2.54614,0,0,0,0,0,0,0,-1,538,1065,-31.1209,-2.54611
-679,-41,-30.7917,2.51367,0,0,0,0,0,0,0,-1,545,1065,-30.7917,-2.51364
-672,-41,-29.9419,-0.134399,0,0,0,0,0,0,0,-1,552,1065,-29.9419,0.134447
-665,-41,-29.5167,0.216309,0,0,0,0,0,0,0,-1,559,1065,-29.5167,-0.216293
-658,-41,-29.3068,0.897461,0.00115304,0.0130626,-0.00417712,0.0143816,-0.000165951,-1.26494,0.00964351,0.038997,566,1065,-29.3068,-0.897474
-651,-41,-29.1011,1.70874,0.000369081,0.011421,-0.00207935,0.0117993,-9.18703e-06,-1.39085,0.00786923,0.0326775,573,1065,-29.1011,-1.70872
-644,-41,-29.3209,1.93933,-0.000567173,0.00924364,-0.000499284,0.00926899,-0.000592516,-1.52008,0.006386,0.017551,580,1065,-29.3209,-1.93937
-637,-41,-29.3641,2.08521,-0.000836508,0.00714104,-0.000392248,0.00716028,-0.000855748,-1.52178,0.00508284,0.0181604,587,1065,-29.3641,-2.08525
-630,-41,-29.3768,2.27515,-0.000653176,0.00528476,-0.00179749,0.00578649,-0.0011549,-1.2986,0.0042947,0.0136981,594,1065,-29.3768,-2.27509
-623,-41,-29.3481,2.48218,-0.000109092,0.00405996,-0.00331999,0.00589558,-0.00194472,-1.06573,0.00471428,0.01147,601,1065,-29.3481,-2.48219
-616,-41,-29.3323,2.69031,0.000613536,0.00281464,-0.00460386,0.00644766,-0.00301949,-0.902721,0.00558404,0.0155955,608,1065,-29.3323,-2.69028
-609,-41,-29.2787,2.85681,0.00109289,0.00214377,-0.00610627,0.00774716,-0.00451051,-0.828317,0.00715874,0.0217487,615,1065,-29.2787,-2.85679
-602,-41,-29.3188,2.98474,0.00107809,0.000771283,-0.00719142,0.00811774,-0.00626837,-0.774734,0.00832867,0.0134177,622,1065,-29.3188,-2.98472
-595,-41,-29.4818,3.06995,0,0,0,0,0,0,0,-1,629,1065,-29.4818,-3.06994
-588,-41,-29.6344,1.84802,0.00141443,0.000393306,-0.00811466,0.00903457,-0.00722684,-0.75398,0.00940785,0.031519,636,1065,-29.6344,-1.84806
-581,-41,-29.7368,0.673584,0.00179887,0.000509089,-0.00791109,0.00909131,-0.00678335,-0.744729,0.00919747,0.0349729,643,1065,-29.7368,-0.673543
-574,-41,-29.8538,0.829224,0.00190735,0.000835548,-0.00752994,0.00892043,-0.00617753,-0.749873,0.00876463,0.0382034,650,1065,-29.8538,-0.829194
-567,-41,-29.8115,0.91272,0.00182463,0.00131293,-0.00677993,0.00835354,-0.00521598,-0.766539,0.00790386,0.0414133,657,1065,-29.8115,-0.912715
-560,-41,-29.5839,0.742554,0.00162037,0.00186589,-0.0056541,0.00739856,-0.0039123,-0.796252,0.00663292,0.039666,664,1065,-29.5839,-0.742595
-553,-41,-29.747,1.08057,0,0,0,0,0,0,0,-1,671,1065,-29.747,-1.08053
-546,-41,-29.7449,0.992676,0.00114908,0.00256295,-0.00241169,0.00436918,-0.000657159,-0.927969,0.00315474,0.0436362,678,1065,-29.745,-0.992615
-539,-41,-29.6973,0.726685,0.00109273,0.00207513,-0.00103842,0.00273267,0.000435188,-1.00632,0.00169544,0.0424841,685,1065,-29.6973,-0.726644
-532,-41,-29.6088,0.536133,0.001259,0.00164265,-0.00264969,0.00410745,-0.0012058,-0.821533,0.00321648,0.0380906,692,1065,-29.6088,-0.536143
-525,-41,0,0,0,0,0,0,0,0,0,-1,699,1065,0,0
-518,-41,0,0,0,0,0,0,0,0,0,-1,706,1065,0,0
-511,-41,0,0,0,0,0,0,0,0,0,-1,713,1065,0,0
-504,-41,0,0,0,0,0,0,0,0,0,-1,720,1065,0,0
-497,-41,0,0,0,0,0,0,0,0,0,-1,727,1065,0,0
-490,-41,0,0,0,0,0,0,0,0,0,-1,734,1065,0,0
-483,-41,0,0,0,0,0,0,0,0,0,-1,741,1065,0,0
-476,-41,0,0,0,0,0,0,0,0,0,-1,748,1065,0,0
-469,-41,0,0,0,0,0,0,0,0,0,-1,755,1065,0,0
-462,-41,0,0,0,0,0,0,0,0,0,-1,762,1065,0,0
-455,-41,0,0,0,0,0,0,0,0,0,-1,769,1065,0,0
-448,-41,0,0,0,0,0,0,0,0,0,-1,776,1065,0,0
-441,-41,0,0,0,0,0,0,0,0,0,-1,783,1065,0,0
-434,-41,0,0,0,0,0,0,0,0,0,-1,790,1065,0,0
-427,-41,0,0,0,0,0,0,0,0,0,-1,797,1065,0,0
-420,-41,0,0,0,0,0,0,0,0,0,-1,804,1065,0,0
-413,-41,0,0,0,0,0,0,0,0,0,-1,811,1065,0,0
-406,-41,0,0,0,0,0,0,0,0,0,-1,818,1065,0,0
-399,-41,0,0,0,0,0,0,0,0,0,-1,825,1065,0,0
-392,-41,0,0,0,0,0,0,0,0,0,-1,832,1065,0,0
-385,-41,0,0,0,0,0,0,0,0,0,-1,839,1065,0,0
-378,-41,0,0,0,0,0,0,0,0,0,-1,846,1065,0,0
-371,-41,0,0,0,0,0,0,0,0,0,-1,853,1065,0,0
-364,-41,0,0,0,0,0,0,0,0,0,-1,860,1065,0,0
-357,-41,0,0,0,0,0,0,0,0,0,-1,867,1065,0,0
-350,-41,0,0,0,0,0,0,0,0,0,-1,874,1065,0,0
-343,-41,0,0,0,0,0,0,0,0,0,-1,881,1065,0,0
-336,-41,0,0,0,0,0,0,0,0,0,-1,888,1065,0,0
-329,-41,0,0,0,0,0,0,0,0,0,-1,895,1065,0,0
-322,-41,0,0,0,0,0,0,0,0,0,-1,902,1065,0,0
-315,-41,0,0,0,0,0,0,0,0,0,-1,909,1065,0,0
-308,-41,0,0,0,0,0,0,0,0,0,-1,916,1065,0,0
-301,-41,0,0,0,0,0,0,0,0,0,-1,923,1065,0,0
-294,-41,0,0,0,0,0,0,0,0,0,-1,930,1065,0,0
-287,-41,0,0,0,0,0,0,0,0,0,-1,937,1065,0,0
-280,-41,0,0,0,0,0,0,0,0,0,-1,944,1065,0,0
-273,-41,0,0,0,0,0,0,0,0,0,-1,951,1065,0,0
-266,-41,0,0,0,0,0,0,0,0,0,-1,958,1065,0,0
-259,-41,0,0,0,0,0,0,0,0,0,-1,965,1065,0,0
-252,-41,0,0,0,0,0,0,0,0,0,-1,972,1065,0,0
-245,-41,0,0,0,0,0,0,0,0,0,-1,979,1065,0,0
-238,-41,0,0,0,0,0,0,0,0,0,-1,986,1065,0,0
-231,-41,0,0,0,0,0,0,0,0,0,-1,993,1065,0,0
-224,-41,0,0,0,0,0,0,0,0,0,-1,1000,1065,0,0
-217,-41,0,0,0,0,0,0,0,0,0,-1,1007,1065,0,0
-210,-41,0,0,0,0,0,0,0,0,0,-1,1014,1065,0,0
-203,-41,0,0,0,0,0,0,0,0,0,-1,1021,1065,0,0
-196,-41,0,0,0,0,0,0,0,0,0,-1,1028,1065,0,0
-189,-41,0,0,0,0,0,0,0,0,0,-1,1035,1065,0,0
-182,-41,0,0,0,0,0,0,0,0,0,-1,1042,1065,0,0
-175,-41,0,0,0,0,0,0,0,0,0,-1,1049,1065,0,0
-168,-41,0,0,0,0,0,0,0,0,0,-1,1056,1065,0,0
-161,-41,0,0,0,0,0,0,0,0,0,-1,1063,1065,0,0
-154,-41,0,0,0,0,0,0,0,0,0,-1,1070,1065,0,0
-147,-41,0,0,0,0,0,0,0,0,0,-1,1077,1065,0,0
-140,-41,0,0,0,0,0,0,0,0,0,-1,1084,1065,0,0
-133,-41,0,0,0,0,0,0,0,0,0,-1,1091,1065,0,0
-126,-41,0,0,0,0,0,0,0,0,0,-1,1098,1065,0,0
-119,-41,0,0,0,0,0,0,0,0,0,-1,1105,1065,0,0
-112,-41,0,0,0,0,0,0,0,0,0,-1,1112,1065,0,0
-105,-41,0,0,0,0,0,0,0,0,0,-1,1119,1065,0,0
-98,-41,0,0,0,0,0,0,0,0,0,-1,1126,1065,0,0
-91,-41,0,0,0,0,0,0,0,0,0,-1,1133,1065,0,0
-84,-41,0,0,0,0,0,0,0,0,0,-1,1140,1065,0,0
-77,-41,0,0,0,0,0,0,0,0,0,-1,1147,1065,0,0
-70,-41,0,0,0,0,0,0,0,0,0,-1,1154,1065,0,0
-63,-41,0,0,0,0,0,0,0,0,0,-1,1161,1065,0,0
-56,-41,0,0,0,0,0,0,0,0,0,-1,1168,1065,0,0
-49,-41,0,0,0,0,0,0,0,0,0,-1,1175,1065,0,0
-42,-41,0,0,0,0,0,0,0,0,0,-1,1182,1065,0,0
-35,-41,0,0,0,0,0,0,0,0,0,-1,1189,1065,0,0
-28,-41,0,0,0,0,0,0,0,0,0,-1,1196,1065,0,0
-21,-41,0,0,0,0,0,0,0,0,0,-1,1203,1065,0,0
-14,-41,0,0,0,0,0,0,0,0,0,-1,1210,1065,0,0
-7,-41,0,0,0,0,0,0,0,0,0,-1,1217,1065,0,0
0,-41,0,0,0,0,0,0,0,0,0,-1,1224,1065,0,0
7,-41,0,0,0,0,0,0,0,0,0,-1,1231,1065,0,0
14,-41,0,0,0,0,0,0,0,0,0,-1,1238,1065,0,0
21,-41,0,0,0,0,0,0,0,0,0,-1,1245,1065,0,0
28,-41,0,0,0,0,0,0,0,0,0,-1,1252,1065,0,0
35,-41,0,0,0,0,0,0,0,0,0,-1,1259,1065,0,0
42,-41,0,0,0,0,0,0,0,0,0,-1,1266,1065,0,0
49,-41,0,0,0,0,0,0,0,0,0,-1,1273,1065,0,0
56,-41,0,0,0,0,0,0,0,0,0,-1,1280,1065,0,0
63,-41,0,0,0,0,0,0,0,0,0,-1,1287,1065,0,0
70,-41,0,0,0,0,0,0,0,0,0,-1,1294,1065,0,0
77,-41,0,0,0,0,0,0,0,0,0,-1,1301,1065,0,0
84,-41,0,0,0,0,0,0,0,0,0,-1,1308,1065,0,0
91,-41,0,0,0,0,0,0,0,0,0,-1,1315,1065,0,0
98,-41,0,0,0,0,0,0,0,0,0,-1,1322,1065,0,0
105,-41,0,0,0,0,0,0,0,0,0,-1,1329,1065,0,0
112,-41,0,0,0,0,0,0,0,0,0,-1,1336,1065,0,0
119,-41,0,0,0,0,0,0,0,0,0,-1,1343,1065,0,0
126,-41,0,0,0,0,0,0,0,0,0,-1,1350,1065,0,0
133,-41,0,0,0,0,0,0,0,0,0,-1,1357,1065,0,0
140,-41,0,0,0,0,0,0,0,0,0,-1,1364,1065,0,0
147,-41,0,0,0,0,0,0,0,0,0,-1,1371,1065,0,0
154,-41,0,0,0,0,0,0,0,0,0,-1,1378,1065,0,0
161,-41,0,0,0,0,0,0,0,0,0,-1,1385,1065,0,0
168,-41,0,0,0,0,0,0,0,0,0,-1,1392,1065,0,0
175,-41,0,0,0,0,0,0,0,0,0,-1,1399,1065,0,0
182,-41,0,0,0,0,0,0,0,0,0,-1,1406,1065,0,0
189,-41,0,0,0,0,0,0,0,0,0,-1,1413,1065,0,0
196,-41,0,0,0,0,0,0,0,0,0,-1,1420,1065,0,0
203,-41,0,0,0,0,0,0,0,0,0,-1,1427,1065,0,0
210,-41,0,0,0,0,0,0,0,0,0,-1,1434,1065,0,0
217,-41,0,0,0,0,0,0,0,0,0,-1,1441,1065,0,0
224,-41,0,0,0,0,0,0,0,0,0,-1,1448,1065,0,0
231,-41,0,0,0,0,0,0,0,0,0,-1,1455,1065,0,0
238,-41,0,0,0,0,0,0,0,0,0,-1,1462,1065,0,0
245,-41,0,0,0,0,0,0,0,0,0,-1,1469,1065,0,0
252,-41,0,0,0,0,0,0,0,0,0,-1,1476,1065,0,0
259,-41,0,0,0,0,0,0,0,0,0,-1,1483,1065,0,0
266,-41,0,0,0,0,0,0,0,0,0,-1,1490,1065,0,0
273,-41,0,0,0,0,0,0,0,0,0,-1,1497,1065,0,0
280,-41,0,0,0,0,0,0,0,0,0,-1,1504,1065,0,0
287,-41,0,0,0,0,0,0,0,0,0,-1,1511,1065,0,0
294,-41,0,0,0,0,0,0,0,0,0,-1,1518,1065,0,0
301,-41,0,0,0,0,0,0,0,0,0,-1,1525,1065,0,0
308,-41,0,0,0,0,0,0,0,0,0,-1,1532,1065,0,0
315,-41,0,0,0,0,0,0,0,0,0,-1,1539,1065,0,0
322,-41,0,0,0,0,0,0,0,0,0,-1,1546,1065,0,0
329,-41,0,0,0,0,0,0,0,0,0,-1,1553,1065,0,0
336,-41,0,0,0,0,0,0,0,0,0,-1,1560,1065,0,0
343,-41,0,0,0,0,0,0,0,0,0,-1,1567,1065,0,0
350,-41,0,0,0,0,0,0,0,0,0,-1,1574,1065,0,0
357,-41,0,0,0,0,0,0,0,0,0,-1,1581,1065,0,0
364,-41,0,0,0,0,0,0,0,0,0,-1,1588,1065,0,0
371,-41,0,0,0,0,0,0,0,0,0,-1,1595,1065,0,0
378,-41,0,0,0,0,0,0,0,0,0,-1,1602,1065,0,0
385,-41,0,0,0,0,0,0,0,0,0,-1,1609,1065,0,0
392,-41,0,0,0,0,0,0,0,0,0,-1,1616,1065,0,0
399,-41,0,0,0,0,0,0,0,0,0,-1,1623,1065,0,0
406,-41,0,0,0,0,0,0,0,0,0,-1,1630,1065,0,0
413,-41,0,0,0,0,0,0,0,0,0,-1,1637,1065,0,0
420,-41,0,0,0,0,0,0,0,0,0,-1,1644,1065,0,0
427,-41,0,0,0,0,0,0,0,0,0,-1,1651,1065,0,0
434,-41,0,0,0,0,0,0,0,0,0,-1,1658,1065,0,0
441,-41,0,0,0,0,0,0,0,0,0,-1,1665,1065,0,0
448,-41,0,0,0,0,0,0,0,0,0,-1,1672,1065,0,0
455,-41,0,0,0,0,0,0,0,0,0,-1,1679,1065,0,0
462,-41,0,0,0,0,0,0,0,0,0,-1,1686,1065,0,0
469,-41,0,0,0,0,0,0,0,0,0,-1,1693,1065,0,0
476,-41,0,0,0,0,0,0,0,0,0,-1,1700,1065,0,0
483,-41,0,0,0,0,0,0,0,0,0,-1,1707,1065,0,0
490,-41,0,0,0,0,0,0,0,0,0,-1,1714,1065,0,0
497,-41,0,0,0,0,0,0,0,0,0,-1,1721,1065,0,0
504,-41,0,0,0,0,0,0,0,0,0,-1,1728,1065,0,0
511,-41,0,0,0,0,0,0,0,0,0,-1,1735,1065,0,0
518,-41,0,0,0,0,0,0,0,0,0,-1,1742,1065,0,0
525,-41,0,0,0,0,0,0,0,0,0,-1,1749,1065,0,0
532,-41,0,0,0,0,0,0,0,0,0,-1,1756,1065,0,0
539,-41,0,0,0,0,0,0,0,0,0,-1,1763,1065,0,0
546,-41,0,0,0,0,0,0,0,0,0,-1,1770,1065,0,0
553,-41,0,0,0,0,0,0,0,0,0,-1,1777,1065,0,0
560,-41,0,0,0,0,0,0,0,0,0,-1,1784,1065,0,0
567,-41,0,0,0,0,0,0,0,0,0,-1,1791,1065,0,0
574,-41,0,0,0,0,0,0,0,0,0,-1,1798,1065,0,0
581,-41,0,0,0,0,0,0,0,0,0,-1,1805,1065,0,0
588,-41,0,0,0,0,0,0,0,0,0,-1,1812,1065,0,0
595,-41,0,0,0,0,0,0,0,0,0,-1,1819,1065,0,0
602,-41,0,0,0,0,0,0,0,0,0,-1,1826,1065,0,0
609,-41,0,0,0,0,0,0,0,0,0,-1,1833,1065,0,0
616,-41,0,0,0,0,0,0,0,0,0,-1,1840,1065,0,0
623,-41,0,0,0,0,0,0,0,0,0,-1,1847,1065,0,0
630,-41,0,0,0,0,0,0,0,0,0,-1,1854,1065,0,0
637,-41,0,0,0,0,0,0,0,0,0,-1,1861,1065,0,0
644,-41,0,0,0,0,0,0,0,0,0,-1,1868,1065,0,0
651,-41,40.7528,2.46484,-0.00601225,-0.000416356,0.00180861,0.0001173,-0.0065459,1.28387,0.00440356,0.035317,1875,1065,40.7528,-2.46483
658,-41,40.6232,2.36218,-0.00435541,-0.000404145,0.00144206,6.61721e-05,-0.00482573,1.25553,0.00323943,0.039531,1882,1065,40.6232,-2.36219
665,-41,40.7136,2.39636,-0.00308287,-0.000326111,0.00120179,0.000124234,-0.00353322,1.21226,0.00239796,0.0392566,1889,1065,40.7136,-2.39635
672,-41,40.8236,2.57117,-0.00196814,-0.000269397,0.00142679,0.000541704,-0.00277924,1.05388,0.0020573,0.0385338,1896,1065,40.8237,-2.57116
679,-41,40.6506,2.72217,-0.00115407,7.75219e-05,0.00196673,0.00152261,-0.00259915,0.937117,0.0024066,0.038139,1903,1065,40.6507,-2.72218
686,-41,40.5524,2.67139,-0.000913051,0.000285929,0.00260005,0.0023547,-0.00298182,0.898703,0.00308813,0.041388,1910,1065,40.5523,-2.67137
693,-41,40.7115,2.36011,-0.000889673,0.00043012,0.00319607,0.00303371,-0.00349326,0.887203,0.00377146,0.0444174,1917,1065,40.7116,-2.36013
700,-41,40.7168,2.54285,-0.00101705,0.000606709,0.00365613,0.00354002,-0.00395036,0.894655,0.00432674,0.0399086,1924,1065,40.7168,-2.54289
707,-41,40.6658,2.60571,-0.00122202,0.000771222,0.00396028,0.00385836,-0.00430915,0.908665,0.00471791,0.0295275,1931,1065,40.6658,-2.60567
714,-41,40.6603,2.70422,-0.00159858,0.00101149,0.00418061,0.00408602,-0.00467311,0.936687,0.00506087,0.0200247,1938,1065,40.6603,-2.70427
721,-41,40.6866,2.89404,0,0,0,0,0,0,0,-1,1945,1065,40.6867,-2.8941
728,-41,40.1257,5.5791,0,0,0,0,0,0,0,-1,1952,1065,40.1257,-5.5791
735,-41,39.9877,5.50842,-0.00308948,0.00241496,0.00376059,0.00432286,-0.00499738,1.10129,0.00538574,0.0181669,1959,1065,39.9877,-5.50843
742,-41,39.9069,5.42371,-0.00362777,0.00321663,0.00327381,0.00453039,-0.00494153,1.18918,0.00547033,0.0160874,1966,1065,39.9068,-5.42374
749,-41,39.9287,5.31702,-0.0040015,0.00398208,0.00253949,0.0047214,-0.00474082,1.2875,0.00546302,0.0141444,1973,1065,39.9287,-5.31703
756,-41,39.9525,5.18958,-0.00328034,0.0052158,0.00139284,0.00543831,-0.00350285,1.41238,0.00520234,0.0134889,1980,1065,39.9525,-5.18959
763,-41,39.9082,5.02869,-0.00172968,0.00690774,0.000111755,0.00690919,-0.00173112,1.55786,0.00527865,0.0114676,1987,1065,39.9082,-5.02865
770,-41,39.8505,4.91809,0.000260396,0.00906776,-0.00162772,0.00935896,-3.08021e-05,-1.39377,0.0062496,0.0127309,1994,1065,39.8504,-4.91812
777,-41,39.7756,4.79199,0.00381623,0.0115039,-0.0033442,0.012755,0.00256509,-1.2128,0.00779037,0.0151588,2001,1065,39.7757,-4.79194
784,-41,39.6687,4.60303,0.0084205,0.014473,-0.00488693,0.0171948,0.00569869,-1.06263,0.0101138,0.0261966,2008,1065,39.6687,-4.60306
791,-41,39.887,4.17017,0.0143122,0.0174696,-0.00638609,0.0224692,0.00931254,-0.906575,0.0130357,0.0431608,2015,1065,39.8869,-4.17022
798,-41,39.8516,3.63184,0.0222811,0.0204858,-0.00781903,0.0292538,0.0135131,-0.728244,0.016906,0.0455747,2022,1065,39.8516,-3.63187
805,-41,39.8486,3.35278,0.0328579,0.0235349,-0.00897646,0.0383111,0.0180818,-0.545914,0.0221305,0.0455445,2029,1065,39.8486,-3.35283
812,-41,40.353,3.03882,0,0,0,0,0,0,0,-1,2036,1065,40.3531,-3.03886
-700,-48,-31.3057,2.56787,0.0201313,0.0492037,-0.0499973,0.086735,-0.0174,-0.926868,0.0644116,0.047339,524,1072,-31.3057,-2.56792
-693,-48,-30.9116,2.3844,0.0145012,0.0384058,-0.0367874,0.0651338,-0.0122269,-0.94247,0.0480199,0.0458915,531,1072,-30.9116,-2.38441
-686,-48,-30.2715,2.34521,0,0,0,0,0,0,0,-1,538,1072,-30.2715,-2.34526
-679,-48,-30.1624,-0.811768,0,0,0,0,0,0,0,-1,545,1072,-30.1624,0.811818
-672,-48,-29.7401,-0.318359,0.00486258,0.0213782,-0.0120805,0.0277536,-0.00151281,-1.0852,0.0190267,0.0463227,552,1072,-29.74,0.318355
-665,-48,-29.3352,0.175659,0.00315135,0.0181741,-0.0074069,0.0212118,0.000113646,-1.1816,0.0141034,0.0447088,559,1072,-29.3352,-0.175628
-658,-48,-29.1011,0.630981,0.00194528,0.0154388,-0.00405013,0.0165612,0.000822973,-1.30047,0.0107769,0.0436463,566,1072,-29.1012,-0.631033
-651,-48,-28.9446,1.30908,0.00114016,0.0129196,-0.00183166,0.0131978,0.000861918,-1.42004,0.00852577,0.0359278,573,1072,-28.9446,-1.30913
-644,-48,-29.054,1.90051,0.000192859,0.0101214,-0.000214926,0.0101261,0.000188209,-1.54916,0.00668885,0.0203511,580,1072,-29.054,-1.90055
-637,-48,-29.0715,2.02393,-9.5627e-05,0.00737737,2.76254e-05,0.00737747,-9.57288e-05,1.5671,0.00495053,0.0190024,587,1072,-29.0715,-2.02395
-630,-48,-29.0731,2.23645,-8.45402e-05,0.00513649,-0.0013519,0.00546578,-0.000413826,-1.33188,0.00378933,0.0189755,594,1072,-29.0731,-2.23641
-623,-48,-29.1483,2.46167,0.000309526,0.00382825,-0.00285222,0.00542008,-0.0012823,-1.06175,0.00410808,0.011359,601,1072,-29.1482,-2.46163
-616,-48,-29.1448,2.66724,0.000934246,0.00272587,-0.00405979,0.00598751,-0.00232739,-0.893985,0.00495322,0.01095,608,1072,-29.1449,-2.66722
-609,-48,-29.1174,2.86621,0.00135228,0.00210246,-0.00546291,0.00720315,-0.0037484,-0.819675,0.00642689,0.0124019,615,1072,-29.1175,-2.86621
-602,-48,-29.1389,3.02698,0.00130568,0.000811726,-0.00646955,0.00753296,-0.00541556,-0.76632,0.00750908,0.0128304,622,1072,-29.1389,-3.02695
-595,-48,-29.1696,3.15527,0.00133966,0.000512386,-0.0071266,0.00806462,-0.00621257,-0.75641,0.00826602,0.0249952,629,1072,-29.1696,-3.15532
-588,-48,-29.4973,1.96411,0.00160688,0.000461215,-0.00733251,0.0083889,-0.00632081,-0.746416,0.00852059,0.0464074,636,1072,-29.4973,-1.96405
-581,-48,-29.7197,0.614014,0.00196445,0.000572001,-0.00711951,0.00842169,-0.00588524,-0.736658,0.00830327,0.042555,643,1072,-29.7197,-0.614018
-574,-48,-29.8121,0.684814,0.00208769,0.000862803,-0.00675279,0.00825575,-0.00530526,-0.740174,0.00789098,0.0423881,650,1072,-29.8121,-0.684848
-567,-48,-29.7418,0.949463,0.00203618,0.00126409,-0.00607134,0.00773374,-0.00443346,-0.753648,0.00711035,0.0424641,657,1072,-29.7418,-0.949428
-560,-48,-29.4661,0.625122,0.00184913,0.00170061,-0.00506546,0.00684088,-0.00329114,-0.778069,0.00596819,0.0408494,664,1072,-29.4661,-0.625144
-553,-48,-29.6508,0.636963,0.00159596,0.0020186,-0.00375774,0.00557096,-0.00195639,-0.813487,0.00450984,0.0415743,671,1072,-29.6508,-0.636926
-546,-48,-29.6297,0.814209,0.00133659,0.00198753,-0.00218603,0.00387219,-0.00054807,-0.859298,0.0027822,0.0381219,678,1072,-29.6297,-0.814203
-539,-48,-29.6813,0.751709,0.00123519,0.00115944,-0.000992489,0.00219052,0.000204102,-0.766328,0.00139729,0.0383922,685,1072,-29.6813,-0.751657
-532,-48,-29.6392,0.480103,0.00125549,0.000317966,-0.00266897,0.00349655,-0.00192309,-0.698468,0.00317268,0.0381243,692,1072,-29.6392,-0.480113
-525,-48,0,0,0,0,0,0,0,0,0,-1,699,1072,0,0
-518,-48,0,0,0,0,0,0,0,0,0,-1,706,1072,0,0
-511,-48,0,0,0,0,0,0,0,0,0,-1,713,1072,0,0
-504,-48,0,0,0,0,0,0,0,0,0,-1,720,1072,0,0
-497,-48,0,0,0,0,0,0,0,0,0,-1,727,1072,0,0
-490,-48,0,0,0,0,0,0,0,0,0,-1,734,1072,0,0
-483,-48,0,0,0,0,0,0,0,0,0,-1,741,1072,0,0
-476,-48,0,0,0,0,0,0,0,0,0,-1,748,1072,0,0
-469,-48,0,0,0,0,0,0,0,0,0,-1,755,1072,0,0
-462,-48,0,0,0,0,0,0,0,0,0,-1,762,1072,0,0
-455,-48,0,0,0,0,0,0,0,0,0,-1,769,1072,0,0
-448,-48,0,0,0,0,0,0,0,0,0,-1,776,1072,0,0
-441,-48,0,0,0,0,0,0,0,0,0,-1,783,1072,0,0
-434,-48,0,0,0,0,0,0,0,0,0,-1,790,1072,0,0
-427,-48,0,0,0,0,0,0,0,0,0,-1,797,1072,0,0
-420,-48,0,0,0,0,0,0,0,0,0,-1,804,1072,0,0
-413,-48,0,0,0,0,0,0,0,0,0,-1,811,1072,0,0
-406,-48,0,0,0,0,0,0,0,0,0,-1,818,1072,0,0
-399,-48,0,0,0,0,0,0,0,0,0,-1,825,1072,0,0
-392,-48,0,0,0,0,0,0,0,0,0,-1,832,1072,0,0
-385,-48,0,0,0,0,0,0,0,0,0,-1,839,1072,0,0
-378,-48,0,0,0,0,0,0,0,0,0,-1,846,1072,0,0
-371,-48,0,0,0,0,0,0,0,0,0,-1,853,1072,0,0
-364,-48,0,0,0,0,0,0,0,0,0,-1,860,1072,0,0
-357,-48,0,0,0,0,0,0,0,0,0,-1,867,1072,0,0
-350,-48,0,0,0,0,0,0,0,0,0,-1,874,1072,0,0
-343,-48,0,0,0,0,0,0,0,0,0,-1,881,1072,0,0
-336,-48,0,0,0,0,0,0,0,0,0,-1,888,1072,0,0
-329,-48,0,0,0,0,0,0,0,0,0,-1,895,1072,0,0
-322,-48,0,0,0,0,0,0,0,0,0,-1,902,1072,0,0
-315,-48,0,0,0,0,0,0,0,0,0,-1,909,1072,0,0
-308,-48,0,0,0,0,0,0,0,0,0,-1,916,1072,0,0
-301,-48,0,0,0,0,0,0,0,0,0,-1,923,1072,0,0
-294,-48,0,0,0,0,0,0,0,0,0,-1,930,1072,0,0
-287,-48,0,0,0,0,0,0,0,0,0,-1,937,1072,0,0
-280,-48,0,0,0,0,0,0,0,0,0,-1,944,1072,0,0
-273,-48,0,0,0,0,0,0,0,0,0,-1,951,1072,0,0
-266,-48,0,0,0,0,0,0,0,0,0,-1,958,1072,0,0
-259,-48,0,0,0,0,0,0,0,0,0,-1,965,1072,0,0
-252,-48,0,0,0,0,0,0,0,0,0,-1,972,1072,0,0
-245,-48,0,0,0,0,0,0,0,0,0,-1,979,1072,0,0
-238,-48,0,0,0,0,0,0,0,0,0,-1,986,1072,0,0
-231,-48,0,0,0,0,0,0,0,0,0,-1,993,1072,0,0
-224,-48,0,0,0,0,0,0,0,0,0,-1,1000,1072,0,0
-217,-48,0,0,0,0,0,0,0,0,0,-1,1007,1072,0,0
-210,-48,0,0,0,0,0,0,0,0,0,-1,1014,1072,0,0
-203,-48,0,0,0,0,0,0,0,0,0,-1,1021,1072,0,0
-196,-48,0,0,0,0,0,0,0,0,0,-1,1028,1072,0,0
-189,-48,0,0,0,0,0,0,0,0,0,-1,1035,1072,0,0
-182,-48,0,0,0,0,0,0,0,0,0,-1,1042,1072,0,0
-175,-48,0,0,0,0,0,0,0,0,0,-1,1049,1072,0,0
-168,-48,0,0,0,0,0,0,0,0,0,-1,1056,1072,0,0
-161,-48,0,0,0,0,0,0,0,0,0,-1,1063,1072,0,0
-154,-48,0,0,0,0,0,0,0,0,0,-1,1070,1072,0,0
-147,-48,0,0,0,0,0,0,0,0,0,-1,1077,1072,0,0
-140,-48,0,0,0,0,0,0,0,0,0,-1,1084,1072,0,0
-133,-48,0,0,0,0,0,0,0,0,0,-1,1091,1072,0,0
-126,-48,0,0,0,0,0,0,0,0,0,-1,1098,1072,0,0
-119,-48,0,0,0,0,0,0,0,0,0,-1,1105,1072,0,0
-112,-48,0,0,0,0,0,0,0,0,0,-1,1112,1072,0,0
-105,-48,0,0,0,0,0,0,0,0,0,-1,1119,1072,0,0
-98,-48,0,0,0,0,0,0,0,0,0,-1,1126,1072,0,0
-91,-48,0,0,0,0,0,0,0,0,0,-1,1133,1072,0,0
-84,-48,0,0,0,0,0,0,0,0,0,-1,1140,1072,0,0
-77,-48,0,0,0,0,0,0,0,0,0,-1,1147,1072,0,0
-70,-48,0,0,0,0,0,0,0,0,0,-1,1154,1072,0,0
-63,-48,0,0,0,0,0,0,0,0,0,-1,1161,1072,0,0
-56,-48,0,0,0,0,0,0,0,0,0,-1,1168,1072,0,0
-49,-48,0,0,0,0,0,0,0,0,0,-1,1175,1072,0,0
-42,-48,0,0,0,0,0,0,0,0,0,-1,1182,1072,0,0
-35,-48,0,0,0,0,0,0,0,0,0,-1,1189,1072,0,0
-28,-48,0,0,0,0,0,0,0,0,0,-1,1196,1072,0,0
-21,-48,0,0,0,0,0,0,0,0,0,-1,1203,1072,0,0
-14,-48,0,0,0,0,0,0,0,0,0,-1,1210,1072,0,0
-7,-48,0,0,0,0,0,0,0,0,0,-1,1217,1072,0,0
0,-48,0,0,0,0,0,0,0,0,0,-1,1224,1072,0,0
7,-48,0,0,0,0,0,0,0,0,0,-1,1231,1072,0,0
14,-48,0,0,0,0,0,0,0,0,0,-1,1238,1072,0,0
21,-48,0,0,0,0,0,0,0,0,0,-1,1245,1072,0,0
28,-48,0,0,0,0,0,0,0,0,0,-1,1252,1072,0,0
35,-48,0,0,0,0,0,0,0,0,0,-1,1259,1072,0,0
42,-48,0,0,0,0,0,0,0,0,0,-1,1266,1072,0,0
49,-48,0,0,0,0,0,0,0,0,0,-1,1273,1072,0,0
56,-48,0,0,0,0,0,0,0,0,0,-1,1280,1072,0,0
63,-48,0,0,0,0,0,0,0,0,0,-1,1287,1072,0,0
70,-48,0,0,0,0,0,0,0,0,0,-1,1294,1072,0,0
77,-48,0,0,0,0,0,0,0,0,0,-1,1301,1072,0,0
84,-48,0,0,0,0,0,0,0,0,0,-1,1308,1072,0,0
91,-48,0,0,0,0,0,0,0,0,0,-1,1315,1072,0,0
98,-48,0,0,0,0,0,0,0,0,0,-1,1322,1072,0,0
105,-48,0,0,0,0,0,0,0,0,0,-1,1329,1072,0,0
112,-48,0,0,0,0,0,0,0,0,0,-1,1336,1072,0,0
119,-48,0,0,0,0,0,0,0,0,0,-1,1343,1072,0,0
126,-48,0,0,0,0,0,0,0,0,0,-1,1350,1072,0,0
133,-48,0,0,0,0,0,0,0,0,0,-1,1357,1072,0,0
140,-48,0,0,0,0,0,0,0,0,0,-1,1364,1072,0,0
147,-48,0,0,0,0,0,0,0,0,0,-1,1371,1072,0,0
154,-48,0,0,0,0,0,0,0,0,0,-1,1378,1072,0,0
161,-48,0,0,0,0,0,0,0,0,0,-1,1385,1072,0,0
168,-48,0,0,0,0,0,0,0,0,0,-1,1392,1072,0,0
175,-48,0,0,0,0,0,0,0,0,0,-1,1399,1072,0,0
182,-48,0,0,0,0,0,0,0,0,0,-1,1406,1072,0,0
189,-48,0,0,0,0,0,0,0,0,0,-1,1413,1072,0,0
196,-48,0,0,0,0,0,0,0,0,0,-1,1420,1072,0,0
203,-48,0,0,0,0,0,0,0,0,0,-1,1427,1072,0,0
210,-48,0,0,0,0,0,0,0,0,0,-1,1434,1072,0,0
217,-48,0,0,0,0,0,0,0,0,0,-1,1441,1072,0,0
224,-48,0,0,0,0,0,0,0,0,0,-1,1448,1072,0,0
231,-48,0,0,0,0,0,0,0,0,0,-1,1455,1072,0,0
238,-48,0,0,0,0,0,0,0,0,0,-1,1462,1072,0,0
245,-48,0,0,0,0,0,0,0,0,0,-1,1469,1072,0,0
252,-48,0,0,0,0,0,0,0,0,0,-1,1476,1072,0,0
259,-48,0,0,0,0,0,0,0,0,0,-1,1483,1072,0,0
266,-48,0,0,0,0,0,0,0,0,0,-1,1490,1072,0,0
273,-48,0,0,0,0,0,0,0,0,0,-1,1497,1072,0,0
280,-48,0,0,0,0,0,0,0,0,0,-1,1504,1072,0,0
287,-48,0,0,0,0,0,0,0,0,0,-1,1511,1072,0,0
294,-48,0,0,0,0,0,0,0,0,0,-1,1518,1072,0,0
301,-48,0,0,0,0,0,0,0,0,0,-1,1525,1072,0,0
308,-48,0,0,0,0,0,0,0,0,0,-1,1532,1072,0,0
315,-48,0,0,0,0,0,0,0,0,0,-1,1539,1072,0,0
322,-48,0,0,0,0,0,0,0,0,0,-1,1546,1072,0,0
329,-48,0,0,0,0,0,0,0,0,0,-1,1553,1072,0,0
336,-48,0,0,0,0,0,0,0,0,0,-1,1560,1072,0,0
343,-48,0,0,0,0,0,0,0,0,0,-1,1567,1072,0,0
350,-48,0,0,0,0,0,0,0,0,0,-1,1574,1072,0,0
357,-48,0,0,0,0,0,0,0,0,0,-1,1581,1072,0,0
364,-48,0,0,0,0,0,0,0,0,0,-1,1588,1072,0,0
371,-48,0,0,0,0,0,0,0,0,0,-1,1595,1072,0,0
378,-48,0,0,0,0,0,0,0,0,0,-1,1602,1072,0,0
385,-48,0,0,0,0,0,0,0,0,0,-1,1609,1072,0,0
392,-48,0,0,0,0,0,0,0,0,0,-1,1616,1072,0,0
399,-48,0,0,0,0,0,0,0,0,0,-1,1623,1072,0,0
406,-48,0,0,0,0,0,0,0,0,0,-1,1630,1072,0,0
413,-48,0,0,0,0,0,0,0,0,0,-1,1637,1072,0,0
420,-48,0,0,0,0,0,0,0,0,0,-1,1644,1072,0,0
427,-48,0,0,0,0,0,0,0,0,0,-1,1651,1072,0,0
434,-48,0,0,0,0,0,0,0,0,0,-1,1658,1072,0,0
441,-48,0,0,0,0,0,0,0,0,0,-1,1665,1072,0,0
448,-48,0,0,0,0,0,0,0,0,0,-1,1672,1072,0,0
455,-48,0,0,0,0,0,0,0,0,0,-1,1679,1072,0,0
462,-48,0,0,0,0,0,0,0,0,0,-1,1686,1072,0,0
469,-48,0,0,0,0,0,0,0,0,0,-1,1693,1072,0,0
476,-48,0,0,0,0,0,0,0,0,0,-1,1700,1072,0,0
483,-48,0,0,0,0,0,0,0,0,0,-1,1707,1072,0,0
490,-48,0,0,0,0,0,0,0,0,0,-1,1714,1072,0,0
497,-48,0,0,0,0,0,0,0,0,0,-1,1721,1072,0,0
504,-48,0,0,0,0,0,0,0,0,0,-1,1728,1072,0,0
511,-48,0,0,0,0,0,0,0,0,0,-1,1735,1072,0,0
518,-48,0,0,0,0,0,0,0,0,0,-1,1742,1072,0,0
525,-48,0,0,0,0,0,0,0,0,0,-1,1749,1072,0,0
532,-48,0,0,0,0,0,0,0,0,0,-1,1756,1072,0,0
539,-48,0,0,0,0,0,0,0,0,0,-1,1763,1072,0,0
546,-48,0,0,0,0,0,0,0,0,0,-1,1770,1072,0,0
553,-48,0,0,0,0,0,0,0,0,0,-1,1777,1072,0,0
560,-48,0,0,0,0,0,0,0,0,0,-1,1784,1072,0,0
567,-48,0,0,0,0,0,0,0,0,0,-1,1791,1072,0,0
574,-48,0,0,0,0,0,0,0,0,0,-1,1798,1072,0,0
581,-48,0,0,0,0,0,0,0,0,0,-1,1805,1072,0,0
588,-48,0,0,0,0,0,0,0,0,0,-1,1812,1072,0,0
595,-48,0,0,0,0,0,0,0,0,0,-1,1819,1072,0,0
602,-48,0,0,0,0,0,0,0,0,0,-1,1826,1072,0,0
609,-48,0,0,0,0,0,0,0,0,0,-1,1833,1072,0,0
616,-48,0,0,0,0,0,0,0,0,0,-1,1840,1072,0,0
623,-48,0,0,0,0,0,0,0,0,0,-1,1847,1072,0,0
630,-48,0,0,0,0,0,0,0,0,0,-1,1854,1072,0,0
637,-48,0,0,0,0,0,0,0,0,0,-1,1861,1072,0,0
644,-48,0,0,0,0,0,0,0,0,0,-1,1868,1072,0,0
651,-48,40.709,2.60583,-0.00566388,-0.00079847,0.00207119,-3.61984e-05,-0.00642615,1.21815,0.00427209,0.030496,1875,1072,40.709,-2.6058
658,-48,40.6864,2.47644,-0.00393179,-0.000902785,0.00153602,-0.000260188,-0.00457439,1.17457,0.00296667,0.0374596,1882,1072,40.6864,-2.47644
665,-48,40.5602,2.36877,-0.00267425,-0.000866868,0.00121473,-0.000256547,-0.00328458,1.10521,0.00210941,0.0417144,1889,1072,40.5602,-2.36874
672,-48,40.5449,2.48828,-0.00158137,-0.000830696,0.00135158,0.000196691,-0.00260876,0.920837,0.00180831,0.0410633,1896,1072,40.5449,-2.48824
679,-48,40.579,2.58826,-0.000860551,-0.000575739,0.0017991,0.00108658,-0.00252287,0.824893,0.00213821,0.0397781,1903,1072,40.579,-2.58829
686,-48,40.5905,2.42188,-0.000746202,-0.000445798,0.00236795,0.00177671,-0.00296871,0.817071,0.00276843,0.0385966,1910,1072,40.5905,-2.42182
693,-48,40.7227,2.37744,-0.000815627,-0.000358338,0.00291225,0.00233423,-0.00350819,0.824573,0.00339575,0.0396846,1917,1072,40.7227,-2.37747
700,-48,40.7719,2.53845,-0.00101584,-0.000220667,0.00335254,0.00275778,-0.00399429,0.844419,0.00392004,0.0356217,1924,1072,40.7719,-2.5385
707,-48,40.7197,2.59229,-0.00126654,-5.14119e-05,0.00367218,0.00306312,-0.00438107,0.867381,0.0043203,0.0282179,1931,1072,40.7197,-2.59232
714,-48,40.6735,2.80164,-0.00167095,0.000205925,0.00392333,0.00330149,-0.00476651,0.90279,0.00468359,0.0322043,1938,1072,40.6735,-2.80167
721,-48,40.6365,3.17285,0,0,0,0,0,0,0,-1,1945,1072,40.6365,-3.17282
728,-48,39.9154,5.75488,0,0,0,0,0,0,0,-1,1952,1072,39.9154,-5.75485
735,-48,39.8256,5.62231,-0.00318007,0.00166127,0.00368661,0.0036509,-0.0051697,1.0759,0.00511768,0.0188589,1959,1072,39.8256,-5.62227
742,-48,39.7362,5.45813,-0.00368755,0.0024224,0.00330209,0.00386594,-0.00513109,1.15867,0.00521153,0.0158366,1966,1072,39.7362,-5.45816
749,-48,39.7649,5.29639,-0.00379858,0.00329739,0.00262214,0.00416119,-0.00466237,1.25257,0.00509703,0.0140663,1973,1072,39.7649,-5.29635
756,-48,39.7625,5.16199,-0.00270548,0.00463259,0.00152784,0.00493799,-0.00301088,1.37351,0.00463402,0.0126505,1980,1072,39.7625,-5.16201
763,-48,39.7275,5.01538,-0.000584525,0.0065607,0.000319696,0.00657498,-0.0005988,1.52617,0.00459594,0.0118417,1987,1072,39.7276,-5.01536
770,-48,39.7172,4.86694,0.00211966,0.00896983,-0.0013385,0.00922208,0.00186741,-1.38452,0.00562978,0.0125839,1994,1072,39.7171,-4.86695
777,-48,39.6207,4.70142,0.00668912,0.0117923,-0.00296918,0.0131557,0.00532579,-1.14035,0.00764116,0.0122577,2001,1072,39.6207,-4.70147
784,-48,39.5044,4.4989,0.0125658,0.015205,-0.00446754,0.0185437,0.00922701,-0.929003,0.0107063,0.0242787,2008,1072,39.5044,-4.49892
791,-48,39.3743,4.26331,0.0200477,0.0188648,-0.00590864,0.0253944,0.013518,-0.735515,0.0146717,0.0383584,2015,1072,39.3744,-4.26336
798,-48,39.1938,4.02966,0.0300731,0.022862,-0.00727281,0.034585,0.01835,-0.555274,0.0199801,0.0459567,2022,1072,39.1938,-4.02961
805,-48,39.6213,3.24487,0.0431872,0.02728,-0.008343,0.0467603,0.0237069,-0.404645,0.026998,0.0449706,2029,1072,39.6213,-3.24481
812,-48,40.2,2.97278,0.05975,0.0321191,-0.00875458,0.0622903,0.0295788,-0.282409,0.0359785,0.0456661,2036,1072,40.2,-2.97276
-700,-55,-30.2274,1.98328,0.0187566,0.0592194,-0.0530412,0.0957566,-0.0177806,-0.967596,0.0705158,0.0461637,524,1079,-30.2274,-1.98333
-693,-55,-29.9434,1.87476,0.0140892,0.0462513,-0.0387559,0.0721299,-0.0117895,-0.982054,0.0524599,0.0469913,531,1079,-29.9434,-1.87473
-686,-55,-29.3091,1.84302,0.0105352,0.0370278,-0.0275321,0.0543344,-0.00677149,-1.00961,0.0386782,0.0470001,538,1079,-29.3092,-1.84302
-679,-55,-28.3782,0.796021,0,0,0,0,0,0,0,-1,545,1079,-28.3783,-0.796039
-672,-55,-28.2741,0.953369,0.00559499,0.0249356,-0.0122406,0.0308649,-0.000334311,-1.11971,0.0206889,0.0481343,552,1079,-28.2741,-0.953429
-665,-55,-29.0601,-0.0356445,0.00396427,0.0206951,-0.00727546,0.0234163,0.00124309,-1.21288,0.0152134,0.0494424,559,1079,-29.0601,0.0356894
-658,-55,-28.9885,0.401245,0.00274744,0.017117,-0.00374976,0.0180366,0.00182779,-1.33029,0.0114638,0.0493562,566,1079,-28.9885,-0.401208
-651,-55,-28.884,1.06421,0.0018837,0.0139464,-0.00145419,0.0141193,0.00171087,-1.4525,0.00889755,0.0371216,573,1079,-28.884,-1.06416
-644,-55,-28.8651,1.78882,0.000896875,0.0106972,0.000184023,0.0107007,0.000893421,1.55203,0.00685541,0.0211081,580,1079,-28.8651,-1.78885
-637,-55,-28.869,1.98413,0.000555428,0.00745398,0.000641808,0.00751318,0.000496226,1.47881,0.00485185,0.0173977,587,1079,-28.869,-1.9841
-630,-55,-28.8707,2.22205,0.000387389,0.0049436,-0.000663609,0.00503829,0.000292703,-1.42907,0.00326567,0.0189306,594,1079,-28.8707,-2.22208
-623,-55,-28.9667,2.47302,0.00063541,0.00356553,-0.00211619,0.00467431,-0.000473373,-1.08817,0.00328539,0.0174663,601,1079,-28.9667,-2.47297
-616,-55,-28.9698,2.65991,0.00113134,0.00256108,-0.00320271,0.00512773,-0.00143531,-0.895202,0.00398406,0.0160893,608,1079,-28.9698,-2.65987
-609,-55,-28.933,2.89941,0.00148614,0.00196843,-0.00445423,0.00618803,-0.00273347,-0.812441,0.00527798,0.0158546,615,1079,-28.933,-2.89937
-602,-55,-28.9298,3.09534,0.001432,0.000797041,-0.0053111,0.00643509,-0.00420606,-0.755546,0.00618844,0.014014,622,1079,-28.9298,-3.09538
-595,-55,-28.848,3.32056,0.00143738,0.000560615,-0.0058539,0.00686929,-0.0048713,-0.748024,0.00681107,0.0254379,629,1079,-28.848,-3.3205
-588,-55,-28.8427,3.60181,0,0,0,0,0,0,0,-1,636,1079,-28.8427,-3.6018
-581,-55,-29.7384,0.770752,0,0,0,0,0,0,0,-1,643,1079,-29.7384,-0.770701
-574,-55,-29.7107,0.845215,0.0021258,0.00073668,-0.00546983,0.006945,-0.00408252,-0.722246,0.00643784,0.0421955,650,1079,-29.7107,-0.845173
-567,-55,-29.6204,0.977905,0.00209808,0.00103651,-0.00489061,0.00648662,-0.00335203,-0.731344,0.00577565,0.040904,657,1079,-29.6204,-0.977887
-560,-55,-29.5729,0.806274,0.00192514,0.00133321,-0.00405779,0.00569774,-0.0024394,-0.748994,0.00482189,0.0422718,664,1079,-29.5729,-0.806244
-553,-55,-29.614,0.807007,0.00166111,0.00146385,-0.00299039,0.00455449,-0.00142953,-0.768913,0.00360849,0.041223,671,1079,-29.614,-0.80696
-546,-55,-29.6083,0.745239,0.00137842,0.0011981,-0.0017183,0.00300892,-0.000432407,-0.759187,0.00216453,0.0365297,678,1079,-29.6083,-0.745195
-539,-55,-29.6985,0.482422,0.00128252,5.58841e-05,-0.000783954,0.00166457,-0.000326158,-0.453458,0.0012329,0.0354776,685,1079,-29.6985,-0.482469
-532,-55,-29.6535,0.737427,0.0011721,-0.00111287,-0.0023666,0.00265756,-0.00259833,-0.56052,0.00303455,0.0366685,692,1079,-29.6535,-0.737472
-525,-55,0,0,0,0,0,0,0,0,0,-1,699,1079,0,0
-518,-55,0,0,0,0,0,0,0,0,0,-1,706,1079,0,0
-511,-55,0,0,0,0,0,0,0,0,0,-1,713,1079,0,0
-504,-55,0,0,0,0,0,0,0,0,0,-1,720,1079,0,0
-497,-55,0,0,0,0,0,0,0,0,0,-1,727,1079,0,0
-490,-55,0,0,0,0,0,0,0,0,0,-1,734,1079,0,0
-483,-55,0,0,0,0,0,0,0,0,0,-1,741,1079,0,0
-476,-55,0,0,0,0,0,0,0,0,0,-1,748,1079,0,0
-469,-55,0,0,0,0,0,0,0,0,0,-1,755,1079,0,0
-462,-55,0,0,0,0,0,0,0,0,0,-1,762,1079,0,0
-455,-55,0,0,0,0,0,0,0,0,0,-1,769,1079,0,0
-448,-55,0,0,0,0,0,0,0,0,0,-1,776,1079,0,0
-441,-55,0,0,0,0,0,0,0,0,0,-1,783,1079,0,0
-434,-55,0,0,0,0,0,0,0,0,0,-1,790,1079,0,0
-427,-55,0,0,0,0,0,0,0,0,0,-1,797,1079,0,0
-420,-55,0,0,0,0,0,0,0,0,0,-1,804,1079,0,0
-413,-55,0,0,0,0,0,0,0,0,0,-1,811,1079,0,0
-406,-55,0,0,0,0,0,0,0,0,0,-1,818,1079,0,0
-399,-55,0,0,0,0,0,0,0,0,0,-1,825,1079,0,0
-392,-55,0,0,0,0,0,0,0,0,0,-1,832,1079,0,0
-385,-55,0,0,0,0,0,0,0,0,0,-1,839,1079,0,0
-378,-55,0,0,0,0,0,0,0,0,0,-1,846,1079,0,0
-371,-55,0,0,0,0,0,0,0,0,0,-1,853,1079,0,0
-364,-55,0,0,0,0,0,0,0,0,0,-1,860,1079,0,0
-357,-55,0,0,0,0,0,0,0,0,0,-1,867,1079,0,0
-350,-55,0,0,0,0,0,0,0,0,0,-1,874,1079,0,0
-343,-55,0,0,0,0,0,0,0,0,0,-1,881,1079,0,0
-336,-55,0,0,0,0,0,0,0,0,0,-1,888,1079,0,0
-329,-55,0,0,0,0,0,0,0,0,0,-1,895,1079,0,0
-322,-55,0,0,0,0,0,0,0,0,0,-1,902,1079,0,0
-315,-55,0,0,0,0,0,0,0,0,0,-1,909,1079,0,0
-308,-55,0,0,0,0,0,0,0,0,0,-1,916,1079,0,0
-301,-55,0,0,0,0,0,0,0,0,0,-1,923,1079,0,0
-294,-55,0,0,0,0,0,0,0,0,0,-1,930,1079,0,0
-287,-55,0,0,0,0,0,0,0,0,0,-1,937,1079,0,0
-280,-55,0,0,0,0,0,0,0,0,0,-1,944,1079,0,0
-273,-55,0,0,0,0,0,0,0,0,0,-1,951,1079,0,0
-266,-55,0,0,0,0,0,0,0,0,0,-1,958,1079,0,0
-259,-55,0,0,0,0,0,0,0,0,0,-1,965,1079,0,0
-252,-55,0,0,0,0,0,0,0,0,0,-1,972,1079,0,0
-245,-55,0,0,0,0,0,0,0,0,0,-1,979,1079,0,0
-238,-55,0,0,0,0,0,0,0,0,0,-1,986,1079,0,0
-231,-55,0,0,0,0,0,0,0,0,0,-1,993,1079,0,0
-224,-55,0,0,0,0,0,0,0,0,0,-1,1000,1079,0,0
-217,-55,0,0,0,0,0,0,0,0,0,-1,1007,1079,0,0
-210,-55,0,0,0,0,0,0,0,0,0,-1,1014,1079,0,0
-203,-55,0,0,0,0,0,0,0,0,0,-1,1021,1079,0,0
-196,-55,0,0,0,0,0,0,0,0,0,-1,1028,1079,0,0
-189,-55,0,0,0,0,0,0,0,0,0,-1,1035,1079,0,0
-182,-55,0,0,0,0,0,0,0,0,0,-1,1042,1079,0,0
-175,-55,0,0,0,0,0,0,0,0,0,-1,1049,1079,0,0
-168,-55,0,0,0,0,0,0,0,0,0,-1,1056,1079,0,0
-161,-55,0,0,0,0,0,0,0,0,0,-1,1063,1079,0,0
-154,-55,0,0,0,0,0,0,0,0,0,-1,1070,1079,0,0
-147,-55,0,0,0,0,0,0,0,0,0,-1,1077,1079,0,0
-140,-55,0,0,0,0,0,0,0,0,0,-1,1084,1079,0,0
-133,-55,0,0,0,0,0,0,0,0,0,-1,1091,1079,0,0
-126,-55,0,0,0,0,0,0,0,0,0,-1,1098,1079,0,0
-119,-55,0,0,0,0,0,0,0,0,0,-1,1105,1079,0,0
-112,-55,0,0,0,0,0,0,0,0,0,-1,1112,1079,0,0
-105,-55,0,0,0,0,0,0,0,0,0,-1,1119,1079,0,0
-98,-55,0,0,0,0,0,0,0,0,0,-1,1126,1079,0,0
-91,-55,0,0,0,0,0,0,0,0,0,-1,1133,1079,0,0
-84,-55,0,0,0,0,0,0,0,0,0,-1,1140,1079,0,0
-77,-55,0,0,0,0,0,0,0,0,0,-1,1147,1079,0,0
-70,-55,0,0,0,0,0,0,0,0,0,-1,1154,1079,0,0
-63,-55,0,0,0,0,0,0,0,0,0,-1,1161,1079,0,0
-56,-55,0,0,0,0,0,0,0,0,0,-1,1168,1079,0,0
-49,-55,0,0,0,0,0,0,0,0,0,-1,1175,1079,0,0
-42,-55,0,0,0,0,0,0,0,0,0,-1,1182,1079,0,0
-35,-55,0,0,0,0,0,0,0,0,0,-1,1189,1079,0,0
-28,-55,0,0,0,0,0,0,0,0,0,-1,1196,1079,0,0
-21,-55,0,0,0,0,0,0,0,0,0,-1,1203,1079,0,0
-14,-55,0,0,0,0,0,0,0,0,0,-1,1210,1079,0,0
-7,-55,0,0,0,0,0,0,0,0,0,-1,1217,1079,0,0
0,-55,0,0,0,0,0,0,0,0,0,-1,1224,1079,0,0
7,-55,0,0,0,0,0,0,0,0,0,-1,1231,1079,0,0
14,-55,0,0,0,0,0,0,0,0,0,-1,1238,1079,0,0
21,-55,0,0,0,0,0,0,0,0,0,-1,1245,1079,0,0
28,-55,0,0,0,0,0,0,0,0,0,-1,1252,1079,0,0
35,-55,0,0,0,0,0,0,0,0,0,-1,1259,1079,0,0
42,-55,0,0,0,0,0,0,0,0,0,-1,1266,1079,0,0
49,-55,0,0,0,0,0,0,0,0,0,-1,1273,1079,0,0
56,-55,0,0,0,0,0,0,0,0,0,-1,1280,1079,0,0
63,-55,0,0,0,0,0,0,0,0,0,-1,1287,1079,0,0
70,-55,0,0,0,0,0,0,0,0,0,-1,1294,1079,0,0
77,-55,0,0,0,0,0,0,0,0,0,-1,1301,1079,0,0
84,-55,0,0,0,0,0,0,0,0,0,-1,1308,1079,0,0
91,-55,0,0,0,0,0,0,0,0,0,-1,1315,1079,0,0
98,-55,0,0,0,0,0,0,0,0,0,-1,1322,1079,0,0
105,-55,0,0,0,0,0,0,0,0,0,-1,1329,1079,0,0
112,-55,0,0,0,0,0,0,0,0,0,-1,1336,1079,0,0
119,-55,0,0,0,0,0,0,0,0,0,-1,1343,1079,0,0
126,-55,0,0,0,0,0,0,0,0,0,-1,1350,1079,0,0
133,-55,0,0,0,0,0,0,0,0,0,-1,1357,1079,0,0
140,-55,0,0,0,0,0,0,0,0,0,-1,1364,1079,0,0
147,-55,0,0,0,0,0,0,0,0,0,-1,1371,1079,0,0
154,-55,0,0,0,0,0,0,0,0,0,-1,1378,1079,0,0
161,-55,0,0,0,0,0,0,0,0,0,-1,1385,1079,0,0
168,-55,0,0,0,0,0,0,0,0,0,-1,1392,1079,0,0
175,-55,0,0,0,0,0,0,0,0,0,-1,1399,1079,0,0
182,-55,0,0,0,0,0,0,0,0,0,-1,1406,1079,0,0
189,-55,0,0,0,0,0,0,0,0,0,-1,1413,1079,0,0
196,-55,0,0,0,0,0,0,0,0,0,-1,1420,1079,0,0
203,-55,0,0,0,0,0,0,0,0,0,-1,1427,1079,0,0
210,-55,0,0,0,0,0,0,0,0,0,-1,1434,1079,0,0
217,-55,0,0,0,0,0,0,0,0,0,-1,1441,1079,0,0
224,-55,0,0,0,0,0,0,0,0,0,-1,1448,1079,0,0
231,-55,0,0,0,0,0,0,0,0,0,-1,1455,1079,0,0
238,-55,0,0,0,0,0,0,0,0,0,-1,1462,1079,0,0
245,-55,0,0,0,0,0,0,0,0,0,-1,1469,1079,0,0
252,-55,0,0,0,0,0,0,0,0,0,-1,1476,1079,0,0
259,-55,0,0,0,0,0,0,0,0,0,-1,1483,1079,0,0
266,-55,0,0,0,0,0,0,0,0,0,-1,1490,1079,0,0
273,-55,0,0,0,0,0,0,0,0,0,-1,1497,1079,0,0
280,-55,0,0,0,0,0,0,0,0,0,-1,1504,1079,0,0
287,-55,0,0,0,0,0,0,0,0,0,-1,1511,1079,0,0
294,-55,0,0,0,0,0,0,0,0,0,-1,1518,1079,0,0
301,-55,0,0,0,0,0,0,0,0,0,-1,1525,1079,0,0
308,-55,0,0,0,0,0,0,0,0,0,-1,1532,1079,0,0
315,-55,0,0,0,0,0,0,0,0,0,-1,1539,1079,0,0
322,-55,0,0,0,0,0,0,0,0,0,-1,1546,1079,0,0
329,-55,0,0,0,0,0,0,0,0,0,-1,1553,1079,0,0
336,-55,0,0,0,0,0,0,0,0,0,-1,1560,1079,0,0
343,-55,0,0,0,0,0,0,0,0,0,-1,1567,1079,0,0
350,-55,0,0,0,0,0,0,0,0,0,-1,1574,1079,0,0
357,-55,0,0,0,0,0,0,0,0,0,-1,1581,1079,0,0
364,-55,0,0,0,0,0,0,0,0,0,-1,1588,1079,0,0
371,-55,0,0,0,0,0,0,0,0,0,-1,1595,1079,0,0
378,-55,0,0,0,0,0,0,0,0,0,-1,1602,1079,0,0
385,-55,0,0,0,0,0,0,0,0,0,-1,1609,1079,0,0
392,-55,0,0,0,0,0,0,0,0,0,-1,1616,1079,0,0
399,-55,0,0,0,0,0,0,0,0,0,-1,1623,1079,0,0
406,-55,0,0,0,0,0,0,0,0,0,-1,1630,1079,0,0
413,-55,0,0,0,0,0,0,0,0,0,-1,1637,1079,0,0
420,-55,0,0,0,0,0,0,0,0,0,-1,1644,1079,0,0
427,-55,0,0,0,0,0,0,0,0,0,-1,1651,1079,0,0
434,-55,0,0,0,0,0,0,0,0,0,-1,1658,1079,0,0
441,-55,0,0,0,0,0,0,0,0,0,-1,1665,1079,0,0
448,-55,0,0,0,0,0,0,0,0,0,-1,1672,1079,0,0
455,-55,0,0,0,0,0,0,0,0,0,-1,1679,1079,0,0
462,-55,0,0,0,0,0,0,0,0,0,-1,1686,1079,0,0
469,-55,0,0,0,0,0,0,0,0,0,-1,1693,1079,0,0
476,-55,0,0,0,0,0,0,0,0,0,-1,1700,1079,0,0
483,-55,0,0,0,0,0,0,0,0,0,-1,1707,1079,0,0
490,-55,0,0,0,0,0,0,0,0,0,-1,1714,1079,0,0
497,-55,0,0,0,0,0,0,0,0,0,-1,1721,1079,0,0
504,-55,0,0,0,0,0,0,0,0,0,-1,1728,1079,0,0
511,-55,0,0,0,0,0,0,0,0,0,-1,1735,1079,0,0
518,-55,0,0,0,0,0,0,0,0,0,-1,1742,1079,0,0
525,-55,0,0,0,0,0,0,0,0,0,-1,1749,1079,0,0
532,-55,0,0,0,0,0,0,0,0,0,-1,1756,1079,0,0
539,-55,0,0,0,0,0,0,0,0,0,-1,1763,1079,0,0
546,-55,0,0,0,0,0,0,0,0,0,-1,1770,1079,0,0
553,-55,0,0,0,0,0,0,0,0,0,-1,1777,1079,0,0
560,-55,0,0,0,0,0,0,0,0,0,-1,1784,1079,0,0
567,-55,0,0,0,0,0,0,0,0,0,-1,1791,1079,0,0
574,-55,0,0,0,0,0,0,0,0,0,-1,1798,1079,0,0
581,-55,0,0,0,0,0,0,0,0,0,-1,1805,1079,0,0
588,-55,0,0,0,0,0,0,0,0,0,-1,1812,1079,0,0
595,-55,0,0,0,0,0,0,0,0,0,-1,1819,1079,0,0
602,-55,0,0,0,0,0,0,0,0,0,-1,1826,1079,0,0
609,-55,0,0,0,0,0,0,0,0,0,-1,1833,1079,0,0
616,-55,0,0,0,0,0,0,0,0,0,-1,1840,1079,0,0
623,-55,0,0,0,0,0,0,0,0,0,-1,1847,1079,0,0
630,-55,0,0,0,0,0,0,0,0,0,-1,1854,1079,0,0
637,-55,0,0,0,0,0,0,0,0,0,-1,1861,1079,0,0
644,-55,0,0,0,0,0,0,0,0,0,-1,1868,1079,0,0
651,-55,40.6132,2.65283,-0.00452118,-0.00198505,0.00212657,-0.000777176,-0.00572905,1.05424,0.00358847,0.0354257,1875,1079,40.6131,-2.65278
658,-55,40.7234,2.62476,-0.00299777,-0.00169404,0.00149424,-0.000715665,-0.00397615,0.991078,0.00244734,0.0348828,1882,1079,40.7234,-2.62475
665,-55,40.5865,2.37146,-0.00193732,-0.00141072,0.00114314,-0.000500954,-0.00284709,0.898589,0.00175507,0.0395436,1889,1079,40.5866,-2.37141
672,-55,40.4133,2.51501,-0.000999823,-0.0012116,0.00121212,0.000111025,-0.00232245,0.74183,0.0015866,0.0416802,1896,1079,40.4134,-2.51507
679,-55,40.455,2.60889,-0.000483348,-0.000943799,0.00158974,0.000892755,-0.0023199,0.713489,0.00191486,0.0385145,1903,1079,40.4549,-2.60889
686,-55,40.58,2.50842,-0.000553553,-0.000854278,0.00211219,0.00141362,-0.00282145,0.749864,0.00248974,0.0355782,1910,1079,40.5799,-2.50842
693,-55,40.6829,2.578,-0.000750957,-0.000824426,0.00262585,0.00183841,-0.00341379,0.778404,0.0030775,0.0366945,1917,1079,40.6828,-2.57803
700,-55,40.7372,2.65088,-0.00105721,-0.000732207,0.00304662,0.00215624,-0.00394566,0.812042,0.00357307,0.0345318,1924,1079,40.7371,-2.65084
707,-55,40.7056,2.65002,-0.00136208,-0.000591058,0.00338164,0.00242698,-0.00438011,0.842154,0.00398364,0.0266614,1931,1079,40.7055,-2.64999
714,-55,40.6752,2.82422,-0.00179716,-0.000354099,0.00366164,0.00265642,-0.00480768,0.882677,0.00436866,0.0408518,1938,1079,40.6751,-2.82428
721,-55,40.698,3.13782,0,0,0,0,0,0,0,-1,1945,1079,40.6979,-3.13786
728,-55,39.7009,5.80103,0,0,0,0,0,0,0,-1,1952,1079,39.701,-5.80105
735,-55,39.6324,5.64612,-0.0033525,0.00103768,0.00357917,0.00304126,-0.00535609,1.06047,0.00490923,0.018216,1959,1079,39.6325,-5.64611
742,-55,39.6271,5.48535,-0.00381767,0.00173082,0.00329129,0.00326111,-0.00534796,1.13558,0.00501889,0.0181135,1966,1079,39.6271,-5.48533
749,-55,39.6366,5.29565,-0.00367703,0.00273549,0.00269319,0.00371652,-0.00465806,1.22147,0.00484524,0.0131595,1973,1079,39.6367,-5.29565
756,-55,39.5691,5.14905,-0.00224094,0.00419886,0.00168102,0.00461125,-0.00265334,1.33022,0.00424469,0.0114825,1980,1079,39.569,-5.14911
763,-55,39.5416,5.0072,0.000390633,0.00639543,0.000583924,0.00645169,0.000334378,1.47475,0.00419411,0.0146107,1987,1079,39.5416,-5.00726
770,-55,39.5375,4.82202,0.00377663,0.00910869,-0.000940382,0.00926968,0.00361564,-1.40124,0.00539481,0.0153106,1994,1079,39.5375,-4.82204
777,-55,39.4802,4.66211,0.00927499,0.0123926,-0.00240942,0.0137035,0.0079641,-1.07252,0.0079464,0.0126098,2001,1079,39.4802,-4.66208
784,-55,39.3916,4.42358,0.0162615,0.0163486,-0.0037638,0.0200691,0.012541,-0.791184,0.0117068,0.0282652,2008,1079,39.3916,-4.4236
791,-55,39.4109,3.96155,0.0250601,0.0207688,-0.00503803,0.0283904,0.0174386,-0.584086,0.0165332,0.0405023,2015,1079,39.4108,-3.9615
798,-55,39.2561,3.55774,0.0366886,0.0258395,-0.00621781,0.0395156,0.0230126,-0.426713,0.0229173,0.0472077,2022,1079,39.2562,-3.55777
805,-55,39.3298,3.13159,0.0517182,0.0317219,-0.00710763,0.0539871,0.0294529,-0.309,0.0312126,0.0475262,2029,1079,39.3298,-3.13156
812,-55,39.7246,3.06665,0.070591,0.0385447,-0.00733568,0.0721903,0.0369454,-0.214669,0.041683,0.0439254,2036,1079,39.7246,-3.06661
-700,-62,-29.4533,1.00659,0,0,0,0,0,0,0,-1,524,1086,-29.4533,-1.00662
-693,-62,-28.9463,1.18921,0.00964618,0.053889,-0.0381974,0.0759083,-0.0123731,-1.04787,0.0551941,0.0484349,531,1086,-28.9463,-1.18922
-686,-62,-28.2209,1.35291,0.0077223,0.0432485,-0.0267331,0.0575819,-0.00661108,-1.07864,0.0407707,0.0487137,538,1086,-28.2209,-1.3529
-679,-62,-28.1933,0.775757,0.00610202,0.0350637,-0.017937,0.0436356,-0.00246994,-1.12499,0.0299477,0.0486356,545,1086,-28.1933,-0.775718
-672,-62,-28.0893,0.974243,0.00478471,0.0285689,-0.0112587,0.033053,0.000300622,-1.19177,0.0219358,0.0445238,552,1086,-28.0893,-0.974247
-665,-62,-28.094,1.30945,0.00372243,0.0232653,-0.00634617,0.0251453,0.00184248,-1.2828,0.0161843,0.0473578,559,1086,-28.094,-1.3094
-658,-62,-28.9514,0.237183,0,0,0,0,0,0,0,-1,566,1086,-28.9514,-0.237138
-651,-62,-28.7009,1.24072,0.00221033,0.0149712,-0.000774476,0.015018,0.0021635,-1.5104,0.00937446,0.0377944,573,1086,-28.7009,-1.24067
-644,-62,-28.6464,1.72278,0.00139359,0.0112812,0.00071403,0.0113325,0.00134229,1.49908,0.00714968,0.0133844,580,1086,-28.6464,-1.72282
-637,-62,-28.6661,2.00439,0.00121548,0.00754789,0.00127325,0.00779431,0.00096906,1.37962,0.0049052,0.0124191,587,1086,-28.6661,-2.00436
-630,-62,-28.7032,2.22766,0.000946412,0.00477187,1.5401e-05,0.00477193,0.00094635,1.56677,0.00291746,0.014654,594,1086,-28.7032,-2.22771
-623,-62,-28.7379,2.4834,0.0010401,0.00329897,-0.00137187,0.00394651,0.000392556,-1.12979,0.00251041,0.017045,601,1086,-28.7379,-2.48345
-616,-62,-28.7327,2.71143,0.0013977,0.00236222,-0.00230668,0.00423652,-0.000476596,-0.88845,0.00299588,0.0163868,608,1086,-28.7326,-2.71141
-609,-62,-28.6994,2.93677,0.00168131,0.00172324,-0.00334634,0.00504869,-0.00164413,-0.788531,0.0040273,0.0150665,615,1086,-28.6994,-2.93674
-602,-62,-28.6662,3.14832,0.00162365,0.000669021,-0.00404156,0.00521598,-0.00292331,-0.72662,0.00476096,0.0152888,622,1086,-28.6662,-3.14837
-595,-62,-28.5724,3.40845,0.00159694,0.00045459,-0.00446961,0.00553172,-0.00348019,-0.721847,0.00524777,0.027446,629,1086,-28.5724,-3.40844
-588,-62,-28.5137,3.68408,0,0,0,0,0,0,0,-1,636,1086,-28.5136,-3.68409
-581,-62,-29.7193,0.91748,0,0,0,0,0,0,0,-1,643,1086,-29.7193,-0.917422
-574,-62,-29.7227,0.954956,0,0,0,0,0,0,0,-1,650,1086,-29.7226,-0.955012
-567,-62,-29.6821,0.890747,0,0,0,0,0,0,0,-1,657,1086,-29.6821,-0.890744
-560,-62,-29.6531,0.859985,0.0020414,0.000749497,-0.00309496,0.0045571,-0.0017662,-0.682519,0.00376742,0.0429246,664,1086,-29.653,-0.86003
-553,-62,-29.5849,0.731079,0.00175262,0.00073523,-0.00237669,0.00367444,-0.00118659,-0.679971,0.00292647,0.037687,671,1086,-29.5849,-0.731058
-546,-62,-29.6492,0.740356,0.00144937,0.000328923,-0.00157593,0.0025617,-0.000783399,-0.61462,0.00202021,0.0316816,678,1086,-29.6492,-0.740315
-539,-62,-29.6455,0.787354,0.00144122,-0.000948296,-0.00113841,0.00189674,-0.00140382,-0.380626,0.00191265,0.0376642,685,1086,-29.6455,-0.787297
-532,-62,-29.6465,0.98645,0.0013751,-0.00225127,-0.00278485,0.00288501,-0.00376119,-0.496828,0.00384829,0.0392829,692,1086,-29.6465,-0.986492
-525,-62,0,0,0,0,0,0,0,0,0,-1,699,1086,0,0
-518,-62,0,0,0,0,0,0,0,0,0,-1,706,1086,0,0
-511,-62,0,0,0,0,0,0,0,0,0,-1,713,1086,0,0
-504,-62,0,0,0,0,0,0,0,0,0,-1,720,1086,0,0
-497,-62,0,0,0,0,0,0,0,0,0,-1,727,1086,0,0
-490,-62,0,0,0,0,0,0,0,0,0,-1,734,1086,0,0
-483,-62,0,0,0,0,0,0,0,0,0,-1,741,1086,0,0
-476,-62,0,0,0,0,0,0,0,0,0,-1,748,1086,0,0
-469,-62,0,0,0,0,0,0,0,0,0,-1,755,1086,0,0
-462,-62,0,0,0,0,0,0,0,0,0,-1,762,1086,0,0
-455,-62,0,0,0,0,0,0,0,0,0,-1,769,1086,0,0
-448,-62,0,0,0,0,0,0,0,0,0,-1,776,1086,0,0
-441,-62,0,0,0,0,0,0,0,0,0,-1,783,1086,0,0
-434,-62,0,0,0,0,0,0,0,0,0,-1,790,1086,0,0
-427,-62,0,0,0,0,0,0,0,0,0,-1,797,1086,0,0
-420,-62,0,0,0,0,0,0,0,0,0,-1,804,1086,0,0
-413,-62,0,0,0,0,0,0,0,0,0,-1,811,1086,0,0
-406,-62,0,0,0,0,0,0,0,0,0,-1,818,1086,0,0
-399,-62,0,0,0,0,0,0,0,0,0,-1,825,1086,0,0
-392,-62,0,0,0,0,0,0,0,0,0,-1,832,1086,0,0
-385,-62,0,0,0,0,0,0,0,0,0,-1,839,1086,0,0
-378,-62,0,0,0,0,0,0,0,0,0,-1,846,1086,0,0
-371,-62,0,0,0,0,0,0,0,0,0,-1,853,1086,0,0
-364,-62,0,0,0,0,0,0,0,0,0,-1,860,1086,0,0
-357,-62,0,0,0,0,0,0,0,0,0,-1,867,1086,0,0
-350,-62,0,0,0,0,0,0,0,0,0,-1,874,1086,0,0
-343,-62,0,0,0,0,0,0,0,0,0,-1,881,1086,0,0
-336,-62,0,0,0,0,0,0,0,0,0,-1,888,1086,0,0
-329,-62,0,0,0,0,0,0,0,0,0,-1,895,1086,0,0
-322,-62,0,0,0,0,0,0,0,0,0,-1,902,1086,0,0
-315,-62,0,0,0,0,0,0,0,0,0,-1,909,1086,0,0
-308,-62,0,0,0,0,0,0,0,0,0,-1,916,1086,0,0
-301,-62,0,0,0,0,0,0,0,0,0,-1,923,1086,0,0
-294,-62,0,0,0,0,0,0,0,0,0,-1,930,1086,0,0
-287,-62,0,0,0,0,0,0,0,0,0,-1,937,1086,0,0
-280,-62,0,0,0,0,0,0,0,0,0,-1,944,1086,0,0
-273,-62,0,0,0,0,0,0,0,0,0,-1,951,1086,0,0
-266,-62,0,0,0,0,0,0,0,0,0,-1,958,1086,0,0
-259,-62,0,0,0,0,0,0,0,0,0,-1,965,1086,0,0
-252,-62,0,0,0,0,0,0,0,0,0,-1,972,1086,0,0
-245,-62,0,0,0,0,0,0,0,0,0,-1,979,1086,0,0
-238,-62,0,0,0,0,0,0,0,0,0,-1,986,1086,0,0
-231,-62,0,0,0,0,0,0,0,0,0,-1,993,1086,0,0
-224,-62,0,0,0,0,0,0,0,0,0,-1,1000,1086,0,0
-217,-62,0,0,0,0,0,0,0,0,0,-1,1007,1086,0,0
-210,-62,0,0,0,0,0,0,0,0,0,-1,1014,1086,0,0
-203,-62,0,0,0,0,0,0,0,0,0,-1,1021,1086,0,0
-196,-62,0,0,0,0,0,0,0,0,0,-1,1028,1086,0,0
-189,-62,0,0,0,0,0,0,0,0,0,-1,1035,1086,0,0
-182,-62,0,0,0,0,0,0,0,0,0,-1,1042,1086,0,0
-175,-62,0,0,0,0,0,0,0,0,0,-1,1049,1086,0,0
-168,-62,0,0,0,0,0,0,0,0,0,-1,1056,1086,0,0
-161,-62,0,0,0,0,0,0,0,0,0,-1,1063,1086,0,0
-154,-62,0,0,0,0,0,0,0,0,0,-1,1070,1086,0,0
-147,-62,0,0,0,0,0,0,0,0,0,-1,1077,1086,0,0
-140,-62,0,0,0,0,0,0,0,0,0,-1,1084,1086,0,0
-133,-62,0,0,0,0,0,0,0,0,0,-1,1091,1086,0,0
-126,-62,0,0,0,0,0,0,0,0,0,-1,1098,1086,0,0
-119,-62,0,0,0,0,0,0,0,0,0,-1,1105,1086,0,0
-112,-62,0,0,0,0,0,0,0,0,0,-1,1112,1086,0,0
-105,-62,0,0,0,0,0,0,0,0,0,-1,1119,1086,0,0
-98,-62,0,0,0,0,0,0,0,0,0,-1,1126,1086,0,0
-91,-62,0,0,0,0,0,0,0,0,0,-1,1133,1086,0,0
-84,-62,0,0,0,0,0,0,0,0,0,-1,1140,1086,0,0
-77,-62,0,0,0,0,0,0,0,0,0,-1,1147,1086,0,0
-70,-62,0,0,0,0,0,0,0,0,0,-1,1154,1086,0,0
-63,-62,0,0,0,0,0,0,0,0,0,-1,1161,1086,0,0
-56,-62,0,0,0,0,0,0,0,0,0,-1,1168,1086,0,0
-49,-62,0,0,0,0,0,0,0,0,0,-1,1175,1086,0,0
-42,-62,0,0,0,0,0,0,0,0,0,-1,1182,1086,0,0
-35,-62,0,0,0,0,0,0,0,0,0,-1,1189,1086,0,0
-28,-62,0,0,0,0,0,0,0,0,0,-1,1196,1086,0,0
-21,-62,0,0,0,0,0,0,0,0,0,-1,1203,1086,0,0
-14,-62,0,0,0,0,0,0,0,0,0,-1,1210,1086,0,0
-7,-62,0,0,0,0,0,0,0,0,0,-1,1217,1086,0,0
0,-62,0,0,0,0,0,0,0,0,0,-1,1224,1086,0,0
7,-62,0,0,0,0,0,0,0,0,0,-1,1231,1086,0,0
14,-62,0,0,0,0,0,0,0,0,0,-1,1238,1086,0,0
21,-62,0,0,0,0,0,0,0,0,0,-1,1245,1086,0,0
28,-62,0,0,0,0,0,0,0,0,0,-1,1252,1086,0,0
35,-62,0,0,0,0,0,0,0,0,0,-1,1259,1086,0,0
42,-62,0,0,0,0,0,0,0,0,0,-1,1266,1086,0,0
49,-62,0,0,0,0,0,0,0,0,0,-1,1273,1086,0,0
56,-62,0,0,0,0,0,0,0,0,0,-1,1280,1086,0,0
63,-62,0,0,0,0,0,0,0,0,0,-1,1287,1086,0,0
70,-62,0,0,0,0,0,0,0,0,0,-1,1294,1086,0,0
77,-62,0,0,0,0,0,0,0,0,0,-1,1301,1086,0,0
84,-62,0,0,0,0,0,0,0,0,0,-1,1308,1086,0,0
91,-62,0,0,0,0,0,0,0,0,0,-1,1315,1086,0,0
98,-62,0,0,0,0,0,0,0,0,0,-1,1322,1086,0,0
105,-62,0,0,0,0,0,0,0,0,0,-1,1329,1086,0,0
112,-62,0,0,0,0,0,0,0,0,0,-1,1336,1086,0,0
119,-62,0,0,0,0,0,0,0,0,0,-1,1343,1086,0,0
126,-62,0,0,0,0,0,0,0,0,0,-1,1350,1086,0,0
133,-62,0,0,0,0,0,0,0,0,0,-1,1357,1086,0,0
140,-62,0,0,0,0,0,0,0,0,0,-1,1364,1086,0,0
147,-62,0,0,0,0,0,0,0,0,0,-1,1371,1086,0,0
154,-62,0,0,0,0,0,0,0,0,0,-1,1378,1086,0,0
161,-62,0,0,0,0,0,0,0,0,0,-1,1385,1086,0,0
168,-62,0,0,0,0,0,0,0,0,0,-1,1392,1086,0,0
175,-62,0,0,0,0,0,0,0,0,0,-1,1399,1086,0,0
182,-62,0,0,0,0,0,0,0,0,0,-1,1406,1086,0,0
189,-62,0,0,0,0,0,0,0,0,0,-1,1413,1086,0,0
196,-62,0,0,0,0,0,0,0,0,0,-1,1420,1086,0,0
203,-62,0,0,0,0,0,0,0,0,0,-1,1427,1086,0,0
210,-62,0,0,0,0,0,0,0,0,0,-1,1434,1086,0,0
217,-62,0,0,0,0,0,0,0,0,0,-1,1441,1086,0,0
224,-62,0,0,0,0,0,0,0,0,0,-1,1448,1086,0,0
231,-62,0,0,0,0,0,0,0,0,0,-1,1455,1086,0,0
238,-62,0,0,0,0,0,0,0,0,0,-1,1462,1086,0,0
245,-62,0,0,0,0,0,0,0,0,0,-1,1469,1086,0,0
252,-62,0,0,0,0,0,0,0,0,0,-1,1476,1086,0,0
259,-62,0,0,0,0,0,0,0,0,0,-1,1483,1086,0,0
266,-62,0,0,0,0,0,0,0,0,0,-1,1490,1086,0,0
273,-62,0,0,0,0,0,0,0,0,0,-1,1497,1086,0,0
280,-62,0,0,0,0,0,0,0,0,0,-1,1504,1086,0,0
287,-62,0,0,0,0,0,0,0,0,0,-1,1511,1086,0,0
294,-62,0,0,0,0,0,0,0,0,0,-1,1518,1086,0,0
301,-62,0,0,0,0,0,0,0,0,0,-1,1525,1086,0,0
308,-62,0,0,0,0,0,0,0,0,0,-1,1532,1086,0,0
315,-62,0,0,0,0,0,0,0,0,0,-1,1539,1086,0,0
322,-62,0,0,0,0,0,0,0,0,0,-1,1546,1086,0,0
329,-62,0,0,0,0,0,0,0,0,0,-1,1553,1086,0,0
336,-62,0,0,0,0,0,0,0,0,0,-1,1560,1086,0,0
343,-62,0,0,0,0,0,0,0,0,0,-1,1567,1086,0,0
350,-62,0,0,0,0,0,0,0,0,0,-1,1574,1086,0,0
357,-62,0,0,0,0,0,0,0,0,0,-1,1581,1086,0,0
364,-62,0,0,0,0,0,0,0,0,0,-1,1588,1086,0,0
371,-62,0,0,0,0,0,0,0,0,0,-1,1595,1086,0,0
378,-62,0,0,0,0,0,0,0,0,0,-1,1602,1086,0,0
385,-62,0,0,0,0,0,0,0,0,0,-1,1609,1086,0,0
392,-62,0,0,0,0,0,0,0,0,0,-1,1616,1086,0,0
399,-62,0,0,0,0,0,0,0,0,0,-1,1623,1086,0,0
406,-62,0,0,0,0,0,0,0,0,0,-1,1630,1086,0,0
413,-62,0,0,0,0,0,0,0,0,0,-1,1637,1086,0,0
420,-62,0,0,0,0,0,0,0,0,0,-1,1644,1086,0,0
427,-62,0,0,0,0,0,0,0,0,0,-1,1651,1086,0,0
434,-62,0,0,0,0,0,0,0,0,0,-1,1658,1086,0,0
441,-62,0,0,0,0,0,0,0,0,0,-1,1665,1086,0,0
448,-62,0,0,0,0,0,0,0,0,0,-1,1672,1086,0,0
455,-62,0,0,0,0,0,0,0,0,0,-1,1679,1086,0,0
462,-62,0,0,0,0,0,0,0,0,0,-1,1686,1086,0,0
469,-62,0,0,0,0,0,0,0,0,0,-1,1693,1086,0,0
476,-62,0,0,0,0,0,0,0,0,0,-1,1700,1086,0,0
483,-62,0,0,0,0,0,0,0,0,0,-1,1707,1086,0,0
490,-62,0,0,0,0,0,0,0,0,0,-1,1714,1086,0,0
497,-62,0,0,0,0,0,0,0,0,0,-1,1721,1086,0,0
504,-62,0,0,0,0,0,0,0,0,0,-1,1728,1086,0,0
511,-62,0,0,0,0,0,0,0,0,0,-1,1735,1086,0,0
518,-62,0,0,0,0,0,0,0,0,0,-1,1742,1086,0,0
525,-62,0,0,0,0,0,0,0,0,0,-1,1749,1086,0,0
532,-62,0,0,0,0,0,0,0,0,0,-1,1756,1086,0,0
539,-62,0,0,0,0,0,0,0,0,0,-1,1763,1086,0,0
546,-62,0,0,0,0,0,0,0,0,0,-1,1770,1086,0,0
553,-62,0,0,0,0,0,0,0,0,0,-1,1777,1086,0,0
560,-62,0,0,0,0,0,0,0,0,0,-1,1784,1086,0,0
567,-62,0,0,0,0,0,0,0,0,0,-1,1791,1086,0,0
574,-62,0,0,0,0,0,0,0,0,0,-1,1798,1086,0,0
581,-62,0,0,0,0,0,0,0,0,0,-1,1805,1086,0,0
588,-62,0,0,0,0,0,0,0,0,0,-1,1812,1086,0,0
595,-62,0,0,0,0,0,0,0,0,0,-1,1819,1086,0,0
602,-62,0,0,0,0,0,0,0,0,0,-1,1826,1086,0,0
609,-62,0,0,0,0,0,0,0,0,0,-1,1833,1086,0,0
616,-62,0,0,0,0,0,0,0,0,0,-1,1840,1086,0,0
623,-62,0,0,0,0,0,0,0,0,0,-1,1847,1086,0,0
630,-62,0,0,0,0,0,0,0,0,0,-1,1854,1086,0,0
637,-62,0,0,0,0,0,0,0,0,0,-1,1861,1086,0,0
644,-62,0,0,0,0,0,0,0,0,0,-1,1868,1086,0,0
651,-62,40.6368,2.47351,-0.00311759,-0.00284681,0.00146672,-0.00150924,-0.00445516,0.831421,0.00261639,0.0426196,1875,1086,40.6368,-2.47346
658,-62,40.6473,2.61584,-0.00190701,-0.00220831,0.000955053,-0.0010908,-0.00302452,0.707174,0.00176867,0.0393648,1882,1086,40.6473,-2.61585
665,-62,40.6714,2.53345,-0.00109223,-0.0017182,0.000719609,-0.000620489,-0.00218994,0.580271,0.00130333,0.0400597,1889,1086,40.6714,-2.53347
672,-62,40.6119,2.55945,-0.000353722,-0.00138897,0.000832369,0.000108843,-0.00185154,0.507225,0.00127219,0.0401647,1896,1086,40.6119,-2.5594
679,-62,40.6063,2.66394,-8.60266e-05,-0.00113812,0.00123931,0.000734258,-0.00195841,0.584688,0.00160727,0.0395031,1903,1086,40.6063,-2.66396
686,-62,40.6409,2.65857,-0.000343551,-0.0011069,0.00176901,0.00108449,-0.00253494,0.67915,0.00214488,0.0385422,1910,1086,40.6409,-2.65862
693,-62,40.6691,2.75562,-0.000654021,-0.00114493,0.00227439,0.00138812,-0.00318707,0.731646,0.0027087,0.0380015,1917,1086,40.6691,-2.75565
700,-62,40.6803,2.67261,-0.0010466,-0.00110427,0.00268904,0.00161376,-0.00376463,0.780037,0.00318691,0.0322148,1924,1086,40.6803,-2.67265
707,-62,40.665,2.63928,-0.00139264,-0.00100538,0.00304166,0.00184881,-0.00424683,0.817185,0.00360895,0.0237273,1931,1086,40.6651,-2.63931
714,-62,40.6951,2.68103,-0.00184165,-0.000813833,0.00335211,0.00206354,-0.00471902,0.86146,0.00401471,0.0363896,1938,1086,40.695,-2.68099
721,-62,40.778,2.83875,0,0,0,0,0,0,0,-1,1945,1086,40.778,-2.83875
728,-62,39.4911,5.88342,0,0,0,0,0,0,0,-1,1952,1086,39.4911,-5.88347
735,-62,39.4658,5.64758,-0.00349204,0.000473395,0.00340799,0.00243346,-0.00545211,1.04886,0.0046626,0.0220845,1959,1086,39.4659,-5.64757
742,-62,39.4348,5.50452,-0.00401467,0.00112414,0.00321553,0.00267074,-0.00556126,1.12248,0.00484943,0.0210055,1966,1086,39.4348,-5.50455
749,-62,39.3911,5.28052,-0.00375326,0.00220932,0.00265294,0.0032188,-0.00476274,1.2072,0.00463679,0.0167212,1973,1086,39.3911,-5.28053
756,-62,39.3384,5.15454,-0.00211633,0.00381205,0.00172858,0.00427925,-0.00258353,1.30683,0.00400234,0.0142549,1980,1086,39.3384,-5.15449
763,-62,39.3478,4.97339,0.000831632,0.00628121,0.000732805,0.00637803,0.000734812,1.43943,0.00402948,0.0154663,1987,1086,39.3478,-4.97335
770,-62,39.3516,4.76355,0.00462398,0.00929237,-0.000663605,0.00938486,0.00453148,-1.4323,0.00541942,0.0123093,1994,1086,39.3516,-4.7636
777,-62,39.2614,4.5697,0.0106609,0.0130308,-0.00200189,0.0141721,0.00951957,-1.05262,0.00834157,0.0129973,2001,1086,39.2613,-4.56973
784,-62,39.1688,4.32166,0.0183548,0.0175143,-0.00325659,0.0212181,0.014651,-0.721225,0.0125432,0.0268087,2008,1086,39.1688,-4.32169
791,-62,39.0413,4.00073,0.0280562,0.0226835,-0.00441041,0.030534,0.0202057,-0.511857,0.0179336,0.0454317,2015,1086,39.0414,-4.00076
798,-62,38.9951,3.46704,0.0408644,0.0288215,-0.00545996,0.0429712,0.0267146,-0.368266,0.0250532,0.0481884,2022,1086,38.9951,-3.46709
805,-62,39.0864,3.11157,0.0574214,0.036167,-0.00621757,0.0591066,0.0344818,-0.264682,0.034283,0.0462063,2029,1086,39.0865,-3.11152
812,-62,39.1436,2.82007,0.0783051,0.0449785,-0.0062986,0.0794558,0.0438278,-0.180696,0.0459552,0.0457663,2036,1086,39.1436,-2.82003
-700,-69,-27.5873,0.315552,0,0,0,0,0,0,0,-1,524,1093,-27.5874,-0.315581
-693,-69,-27.6343,0.730591,0.00394394,0.0619091,-0.0346173,0.0780746,-0.0122215,-1.13391,0.0565654,0.0438771,531,1093,-27.6343,-0.730574
-686,-69,-27.5143,0.856445,0.00397508,0.0500996,-0.0234808,0.0599496,-0.00587489,-1.1736,0.0420617,0.0456975,538,1093,-27.5143,-0.856464
-679,-69,-27.7332,0.910034,0.00379916,0.0405651,-0.0151132,0.0459801,-0.00161582,-1.22675,0.0312059,0.0476125,545,1093,-27.7332,-0.910043
-672,-69,-27.8229,1.10645,0.00353577,0.0327537,-0.00892416,0.0352638,0.00102567,-1.29661,0.0231749,0.0451666,552,1093,-27.8229,-1.10647
-665,-69,-27.8784,1.24622,0.0031978,0.0262725,-0.00451087,0.027123,0.00234732,-1.38444,0.0173525,0.0469102,559,1093,-27.8783,-1.24625
-658,-69,-28.2379,1.59021,0.00280269,0.0208437,-0.00155981,0.0209776,0.00266883,-1.48518,0.0131858,0.0486601,566,1093,-28.2379,-1.59021
-651,-69,-28.3566,1.52661,0.00244324,0.016233,0.000211196,0.0162363,0.00244001,1.55549,0.0101095,0.0336018,573,1093,-28.3566,-1.52665
-644,-69,-28.3674,1.69885,0.0018549,0.0120547,0.00135404,0.0122314,0.00167821,1.44104,0.00765644,0.00974201,580,1093,-28.3673,-1.69884
-637,-69,-28.4026,1.98474,0.00188353,0.00778533,0.00181345,0.00829801,0.00137085,1.29528,0.0051364,0.0109373,587,1093,-28.4027,-1.98479
-630,-69,-28.4231,2.20105,0.00155972,0.00466858,0.000538434,0.00475919,0.00146911,1.40407,0.00281397,0.0144321,594,1093,-28.4231,-2.20105
-623,-69,-28.4045,2.4458,0.00149864,0.00307065,-0.000836481,0.00343247,0.00113682,-1.16255,0.00201903,0.0158106,601,1093,-28.4045,-2.44576
-616,-69,-28.4166,2.65784,0.00170444,0.00218208,-0.00165362,0.00361404,0.000272479,-0.857113,0.00232386,0.0168451,608,1093,-28.4165,-2.65787
-609,-69,-28.4275,2.90405,0.00194177,0.00156932,-0.00248058,0.00424311,-0.000732015,-0.747932,0.00310167,0.0147374,615,1093,-28.4275,-2.90408
-602,-69,-28.4047,3.2002,0.00187595,0.000751748,-0.00300101,0.00436705,-0.00173935,-0.692819,0.0036327,0.0178534,622,1093,-28.4047,-3.20022
-595,-69,-28.3203,3.41797,0.00177962,0.000667534,-0.00328166,0.00455201,-0.00210486,-0.701476,0.00392896,0.0277365,629,1093,-28.3203,-3.418
-588,-69,-28.2847,3.61169,0,0,0,0,0,0,0,-1,636,1093,-28.2847,-3.61167
-581,-69,-29.7037,0.807495,0,0,0,0,0,0,0,-1,643,1093,-29.7037,-0.807524
-574,-69,-29.7435,0.869751,0.00227252,0.000766037,-0.00295791,0.00457159,-0.00153303,-0.660722,0.00366715,0.0326788,650,1093,-29.7435,-0.8697
-567,-69,-29.615,1.18445,0.00224055,0.000977606,-0.00263192,0.00431569,-0.00109754,-0.66766,0.0033043,0.0375189,657,1093,-29.615,-1.18444
-560,-69,-29.6525,1.00964,0,0,0,0,0,0,0,-1,664,1093,-29.6525,-1.00969
-553,-69,-29.6634,0.866821,0.00170044,0.001121,-0.00183339,0.00326686,-0.000445417,-0.707034,0.00234055,0.039351,671,1093,-29.6634,-0.866769
-546,-69,-29.7133,0.796387,0.00132406,0.000661439,-0.00147643,0.00250589,-0.000520394,-0.675026,0.00186838,0.0352625,678,1093,-29.7133,-0.796396
-539,-69,-29.6346,0.817017,0.00135813,-0.000746278,-0.00156036,0.00218791,-0.00157605,-0.488751,0.00218267,0.040163,685,1093,-29.6346,-0.817039
-532,-69,-29.5625,1.17737,0.0013563,-0.00219816,-0.00339912,0.00341477,-0.00425663,-0.544518,0.00443797,0.0423334,692,1093,-29.5625,-1.17739
-525,-69,0,0,0,0,0,0,0,0,0,-1,699,1093,0,0
-518,-69,0,0,0,0,0,0,0,0,0,-1,706,1093,0,0
-511,-69,0,0,0,0,0,0,0,0,0,-1,713,1093,0,0
-504,-69,0,0,0,0,0,0,0,0,0,-1,720,1093,0,0
-497,-69,0,0,0,0,0,0,0,0,0,-1,727,1093,0,0
-490,-69,0,0,0,0,0,0,0,0,0,-1,734,1093,0,0
-483,-69,0,0,0,0,0,0,0,0,0,-1,741,1093,0,0
-476,-69,0,0,0,0,0,0,0,0,0,-1,748,1093,0,0
-469,-69,0,0,0,0,0,0,0,0,0,-1,755,1093,0,0
-462,-69,0,0,0,0,0,0,0,0,0,-1,762,1093,0,0
-455,-69,0,0,0,0,0,0,0,0,0,-1,769,1093,0,0
-448,-69,0,0,0,0,0,0,0,0,0,-1,776,1093,0,0
-441,-69,0,0,0,0,0,0,0,0,0,-1,783,1093,0,0
-434,-69,0,0,0,0,0,0,0,0,0,-1,790,1093,0,0
-427,-69,0,0,0,0,0,0,0,0,0,-1,797,1093,0,0
-420,-69,0,0,0,0,0,0,0,0,0,-1,804,1093,0,0
-413,-69,0,0,0,0,0,0,0,0,0,-1,811,1093,0,0
-406,-69,0,0,0,0,0,0,0,0,0,-1,818,1093,0,0
-399,-69,0,0,0,0,0,0,0,0,0,-1,825,1093,0,0
-392,-69,0,0,0,0,0,0,0,0,0,-1,832,1093,0,0
-385,-69,0,0,0,0,0,0,0,0,0,-1,839,1093,0,0
-378,-69,0,0,0,0,0,0,0,0,0,-1,846,1093,0,0
-371,-69,0,0,0,0,0,0,0,0,0,-1,853,1093,0,0
-364,-69,0,0,0,0,0,0,0,0,0,-1,860,1093,0,0
-357,-69,0,0,0,0,0,0,0,0,0,-1,867,1093,0,0
-350,-69,0,0,0,0,0,0,0,0,0,-1,874,1093,0,0
-343,-69,0,0,0,0,0,0,0,0,0,-1,881,1093,0,0
-336,-69,0,0,0,0,0,0,0,0,0,-1,888,1093,0,0
-329,-69,0,0,0,0,0,0,0,0,0,-1,895,1093,0,0
-322,-69,0,0,0,0,0,0,0,0,0,-1,902,1093,0,0
-315,-69,0,0,0,0,0,0,0,0,0,-1,909,1093,0,0
-308,-69,0,0,0,0,0,0,0,0,0,-1,916,1093,0,0
-301,-69,0,0,0,0,0,0,0,0,0,-1,923,1093,0,0
-294,-69,0,0,0,0,0,0,0,0,0,-1,930,1093,0,0
-287,-69,0,0,0,0,0,0,0,0,0,-1,937,1093,0,0
-280,-69,0,0,0,0,0,0,0,0,0,-1,944,1093,0,0
-273,-69,0,0,0,0,0,0,0,0,0,-1,951,1093,0,0
-266,-69,0,0,0,0,0,0,0,0,0,-1,958,1093,0,0
-259,-69,0,0,0,0,0,0,0,0,0,-1,965,1093,0,0
-252,-69,0,0,0,0,0,0,0,0,0,-1,972,1093,0,0
-245,-69,0,0,0,0,0,0,0,0,0,-1,979,1093,0,0
-238,-69,0,0,0,0,0,0,0,0,0,-1,986,1093,0,0
-231,-69,0,0,0,0,0,0,0,0,0,-1,993,1093,0,0
-224,-69,0,0,0,0,0,0,0,0,0,-1,1000,1093,0,0
-217,-69,0,0,0,0,0,0,0,0,0,-1,1007,1093,0,0
-210,-69,0,0,0,0,0,0,0,0,0,-1,1014,1093,0,0
-203,-69,0,0,0,0,0,0,0,0,0,-1,1021,1093,0,0
-196,-69,0,0,0,0,0,0,0,0,0,-1,1028,1093,0,0
-189,-69,0,0,0,0,0,0,0,0,0,-1,1035,1093,0,0
-182,-69,0,0,0,0,0,0,0,0,0,-1,1042,1093,0,0
-175,-69,0,0,0,0,0,0,0,0,0,-1,1049,1093,0,0
-168,-69,0,0,0,0,0,0,0,0,0,-1,1056,1093,0,0
-161,-69,0,0,0,0,0,0,0,0,0,-1,1063,1093,0,0
-154,-69,0,0,0,0,0,0,0,0,0,-1,1070,1093,0,0
-147,-69,0,0,0,0,0,0,0,0,0,-1,1077,1093,0,0
-140,-69,0,0,0,0,0,0,0,0,0,-1,1084,1093,0,0
-133,-69,0,0,0,0,0,0,0,0,0,-1,1091,1093,0,0
-126,-69,0,0,0,0,0,0,0,0,0,-1,1098,1093,0,0
-119,-69,0,0,0,0,0,0,0,0,0,-1,1105,1093,0,0
-112,-69,0,0,0,0,0,0,0,0,0,-1,1112,1093,0,0
-105,-69,0,0,0,0,0,0,0,0,0,-1,1119,1093,0,0
-98,-69,0,0,0,0,0,0,0,0,0,-1,1126,1093,0,0
-91,-69,0,0,0,0,0,0,0,0,0,-1,1133,1093,0,0
-84,-69,0,0,0,0,0,0,0,0,0,-1,1140,1093,0,0
-77,-69,0,0,0,0,0,0,0,0,0,-1,1147,1093,0,0
-70,-69,0,0,0,0,0,0,0,0,0,-1,1154,1093,0,0
-63,-69,0,0,0,0,0,0,0,0,0,-1,1161,1093,0,0
-56,-69,0,0,0,0,0,0,0,0,0,-1,1168,1093,0,0
-49,-69,0,0,0,0,0,0,0,0,0,-1,1175,1093,0,0
-42,-69,0,0,0,0,0,0,0,0,0,-1,1182,1093,0,0
-35,-69,0,0,0,0,0,0,0,0,0,-1,1189,1093,0,0
-28,-69,0,0,0,0,0,0,0,0,0,-1,1196,1093,0,0
-21,-69,0,0,0,0,0,0,0,0,0,-1,1203,1093,0,0
-14,-69,0,0,0,0,0,0,0,0,0,-1,1210,1093,0,0
-7,-69,0,0,0,0,0,0,0,0,0,-1,1217,1093,0,0
0,-69,0,0,0,0,0,0,0,0,0,-1,1224,1093,0,0
7,-69,0,0,0,0,0,0,0,0,0,-1,1231,1093,0,0
14,-69,0,0,0,0,0,0,0,0,0,-1,1238,1093,0,0
21,-69,0,0,0,0,0,0,0,0,0,-1,1245,1093,0,0
28,-69,0,0,0,0,0,0,0,0,0,-1,1252,1093,0,0
35,-69,0,0,0,0,0,0,0,0,0,-1,1259,1093,0,0
42,-69,0,0,0,0,0,0,0,0,0,-1,1266,1093,0,0
49,-69,0,0,0,0,0,0,0,0,0,-1,1273,1093,0,0
56,-69,0,0,0,0,0,0,0,0,0,-1,1280,1093,0,0
63,-69,0,0,0,0,0,0,0,0,0,-1,1287,1093,0,0
70,-69,0,0,0,0,0,0,0,0,0,-1,1294,1093,0,0
77,-69,0,0,0,0,0,0,0,0,0,-1,1301,1093,0,0
84,-69,0,0,0,0,0,0,0,0,0,-1,1308,1093,0,0
91,-69,0,0,0,0,0,0,0,0,0,-1,1315,1093,0,0
98,-69,0,0,0,0,0,0,0,0,0,-1,1322,1093,0,0
105,-69,0,0,0,0,0,0,0,0,0,-1,1329,1093,0,0
112,-69,0,0,0,0,0,0,0,0,0,-1,1336,1093,0,0
119,-69,0,0,0,0,0,0,0,0,0,-1,1343,1093,0,0
126,-69,0,0,0,0,0,0,0,0,0,-1,1350,1093,0,0
133,-69,0,0,0,0,0,0,0,0,0,-1,1357,1093,0,0
140,-69,0,0,0,0,0,0,0,0,0,-1,1364,1093,0,0
147,-69,0,0,0,0,0,0,0,0,0,-1,1371,1093,0,0
154,-69,0,0,0,0,0,0,0,0,0,-1,1378,1093,0,0
161,-69,0,0,0,0,0,0,0,0,0,-1,1385,1093,0,0
168,-69,0,0,0,0,0,0,0,0,0,-1,1392,1093,0,0
175,-69,0,0,0,0,0,0,0,0,0,-1,1399,1093,0,0
182,-69,0,0,0,0,0,0,0,0,0,-1,1406,1093,0,0
189,-69,0,0,0,0,0,0,0,0,0,-1,1413,1093,0,0
196,-69,0,0,0,0,0,0,0,0,0,-1,1420,1093,0,0
203,-69,0,0,0,0,0,0,0,0,0,-1,1427,1093,0,0
210,-69,0,0,0,0,0,0,0,0,0,-1,1434,1093,0,0
217,-69,0,0,0,0,0,0,0,0,0,-1,1441,1093,0,0
224,-69,0,0,0,0,0,0,0,0,0,-1,1448,1093,0,0
231,-69,0,0,0,0,0,0,0,0,0,-1,1455,1093,0,0
238,-69,0,0,0,0,0,0,0,0,0,-1,1462,1093,0,0
245,-69,0,0,0,0,0,0,0,0,0,-1,1469,1093,0,0
252,-69,0,0,0,0,0,0,0,0,0,-1,1476,1093,0,0
259,-69,0,0,0,0,0,0,0,0,0,-1,1483,1093,0,0
266,-69,0,0,0,0,0,0,0,0,0,-1,1490,1093,0,0
273,-69,0,0,0,0,0,0,0,0,0,-1,1497,1093,0,0
280,-69,0,0,0,0,0,0,0,0,0,-1,1504,1093,0,0
287,-69,0,0,0,0,0,0,0,0,0,-1,1511,1093,0,0
294,-69,0,0,0,0,0,0,0,0,0,-1,1518,1093,0,0
301,-69,0,0,0,0,0,0,0,0,0,-1,1525,1093,0,0
308,-69,0,0,0,0,0,0,0,0,0,-1,1532,1093,0,0
315,-69,0,0,0,0,0,0,0,0,0,-1,1539,1093,0,0
322,-69,0,0,0,0,0,0,0,0,0,-1,1546,1093,0,0
329,-69,0,0,0,0,0,0,0,0,0,-1,1553,1093,0,0
336,-69,0,0,0,0,0,0,0,0,0,-1,1560,1093,0,0
343,-69,0,0,0,0,0,0,0,0,0,-1,1567,1093,0,0
350,-69,0,0,0,0,0,0,0,0,0,-1,1574,1093,0,0
357,-69,0,0,0,0,0,0,0,0,0,-1,1581,1093,0,0
364,-69,0,0,0,0,0,0,0,0,0,-1,1588,1093,0,0
371,-69,0,0,0,0,0,0,0,0,0,-1,1595,1093,0,0
378,-69,0,0,0,0,0,0,0,0,0,-1,1602,1093,0,0
385,-69,0,0,0,0,0,0,0,0,0,-1,1609,1093,0,0
392,-69,0,0,0,0,0,0,0,0,0,-1,1616,1093,0,0
399,-69,0,0,0,0,0,0,0,0,0,-1,1623,1093,0,0
406,-69,0,0,0,0,0,0,0,0,0,-1,1630,1093,0,0
413,-69,0,0,0,0,0,0,0,0,0,-1,1637,1093,0,0
420,-69,0,0,0,0,0,0,0,0,0,-1,1644,1093,0,0
427,-69,0,0,0,0,0,0,0,0,0,-1,1651,1093,0,0
434,-69,0,0,0,0,0,0,0,0,0,-1,1658,1093,0,0
441,-69,0,0,0,0,0,0,0,0,0,-1,1665,1093,0,0
448,-69,0,0,0,0,0,0,0,0,0,-1,1672,1093,0,0
455,-69,0,0,0,0,0,0,0,0,0,-1,1679,1093,0,0
462,-69,0,0,0,0,0,0,0,0,0,-1,1686,1093,0,0
469,-69,0,0,0,0,0,0,0,0,0,-1,1693,1093,0,0
476,-69,0,0,0,0,0,0,0,0,0,-1,1700,1093,0,0
483,-69,0,0,0,0,0,0,0,0,0,-1,1707,1093,0,0
490,-69,0,0,0,0,0,0,0,0,0,-1,1714,1093,0,0
497,-69,0,0,0,0,0,0,0,0,0,-1,1721,1093,0,0
504,-69,0,0,0,0,0,0,0,0,0,-1,1728,1093,0,0
511,-69,0,0,0,0,0,0,0,0,0,-1,1735,1093,0,0
518,-69,0,0,0,0,0,0,0,0,0,-1,1742,1093,0,0
525,-69,0,0,0,0,0,0,0,0,0,-1,1749,1093,0,0
532,-69,0,0,0,0,0,0,0,0,0,-1,1756,1093,0,0
539,-69,0,0,0,0,0,0,0,0,0,-1,1763,1093,0,0
546,-69,0,0,0,0,0,0,0,0,0,-1,1770,1093,0,0
553,-69,0,0,0,0,0,0,0,0,0,-1,1777,1093,0,0
560,-69,0,0,0,0,0,0,0,0,0,-1,1784,1093,0,0
567,-69,0,0,0,0,0,0,0,0,0,-1,1791,1093,0,0
574,-69,0,0,0,0,0,0,0,0,0,-1,1798,1093,0,0
581,-69,0,0,0,0,0,0,0,0,0,-1,1805,1093,0,0
588,-69,0,0,0,0,0,0,0,0,0,-1,1812,1093,0,0
595,-69,0,0,0,0,0,0,0,0,0,-1,1819,1093,0,0
602,-69,0,0,0,0,0,0,0,0,0,-1,1826,1093,0,0
609,-69,0,0,0,0,0,0,0,0,0,-1,1833,1093,0,0
616,-69,0,0,0,0,0,0,0,0,0,-1,1840,1093,0,0
623,-69,0,0,0,0,0,0,0,0,0,-1,1847,1093,0,0
630,-69,0,0,0,0,0,0,0,0,0,-1,1854,1093,0,0
637,-69,0,0,0,0,0,0,0,0,0,-1,1861,1093,0,0
644,-69,0,0,0,0,0,0,0,0,0,-1,1868,1093,0,0
651,-69,40.6716,2.61743,-0.00197259,-0.00348659,0.000693191,-0.00170315,-0.00375602,0.370713,0.00217167,0.0436716,1875,1093,40.6716,-2.61744
658,-69,40.6421,2.69421,-0.00104209,-0.00254646,0.000421736,-0.000931929,-0.00265662,0.255504,0.0015564,0.0428945,1882,1093,40.642,-2.69426
665,-69,40.6716,2.72485,-0.000436471,-0.00186538,0.000357651,-0.000351952,-0.0019499,0.23206,0.00119995,0.042554,1889,1093,40.6716,-2.72483
672,-69,40.6454,2.7821,0.000148803,-0.00144537,0.000508501,0.00029719,-0.00159376,0.283929,0.00117417,0.039518,1896,1093,40.6454,-2.78207
679,-69,40.6716,2.79236,0.000241636,-0.00125531,0.000897629,0.0006619,-0.00167558,0.437881,0.0013912,0.0400116,1903,1093,40.6716,-2.79235
686,-69,40.7302,2.59741,-0.000116908,-0.00131806,0.00136899,0.000777454,-0.00221242,0.578691,0.00179125,0.0404604,1910,1093,40.7303,-2.59738
693,-69,40.6782,2.51868,-0.000468626,-0.0014565,0.00179895,0.000902969,-0.0028281,0.651415,0.00224768,0.03722,1917,1093,40.6782,-2.51871
700,-69,40.6538,2.56262,-0.000892273,-0.00149088,0.00216083,0.000989884,-0.00337304,0.71658,0.00264123,0.0291253,1924,1093,40.6538,-2.56259
707,-69,40.6495,2.59998,-0.00124764,-0.00144986,0.00248483,0.00113813,-0.00383563,0.765065,0.00300909,0.0227986,1931,1093,40.6495,-2.60002
714,-69,40.7142,2.66223,-0.00169154,-0.0013144,0.00278441,0.00128782,-0.00429376,0.819207,0.00337471,0.03054,1938,1093,40.7142,-2.6622
721,-69,40.8295,2.83337,0,0,0,0,0,0,0,-1,1945,1093,40.8294,-2.83333
728,-69,38.9963,5.99829,0,0,0,0,0,0,0,-1,1952,1093,38.9963,-5.99828
735,-69,39.192,5.7644,-0.0033791,-0.000142856,0.00290797,0.00156688,-0.00508883,1.03929,0.00401801,0.0288706,1959,1093,39.192,-5.76436
742,-69,39.1962,5.57813,-0.00382137,0.000548388,0.0027978,0.00191336,-0.00518633,1.1169,0.00424171,0.0217622,1966,1093,39.1961,-5.57818
749,-69,39.0564,5.32324,-0.00336256,0.00171762,0.00227402,0.00258681,-0.00423175,1.2057,0.0039747,0.0229518,1973,1093,39.0564,-5.32323
756,-69,39.1212,5.14087,-0.00161889,0.00342766,0.00138472,0.00378264,-0.00197387,1.31984,0.00337777,0.0154631,1980,1093,39.1213,-5.14086
763,-69,39.1414,4.93054,0.00166316,0.00618342,0.000450047,0.00622779,0.00161878,1.47252,0.00373121,0.0166159,1987,1093,39.1414,-4.93056
770,-69,39.0836,4.76038,0.0058913,0.00949143,-0.000908046,0.00970749,0.00567523,-1.3372,0.00563132,0.0165096,1994,1093,39.0836,-4.76036
777,-69,39.0013,4.59839,0.0124221,0.0136165,-0.00229079,0.0153866,0.0106519,-0.91291,0.00909982,0.0207521,2001,1093,39.0014,-4.59838
784,-69,38.9423,4.35779,0.020704,0.0184714,-0.00368313,0.0234363,0.0157391,-0.638253,0.0137939,0.0331717,2008,1093,38.9422,-4.35781
791,-69,38.9211,4.01196,0.0311523,0.0242108,-0.00500257,0.0337702,0.0215929,-0.482122,0.0197482,0.0478186,2015,1093,38.9211,-4.01191
798,-69,38.7151,3.37939,0.0448905,0.0311832,-0.00625226,0.0473139,0.0287598,-0.369772,0.0275277,0.0484983,2022,1093,38.7151,-3.37945
805,-69,38.949,5.6228,0,0,0,0,0,0,0,-1,2029,1093,38.9489,-5.62278
812,-69,39.1199,2.51367,0,0,0,0,0,0,0,-1,2036,1093,39.1199,-2.51363
-700,-76,0,0,0,0,0,0,0,0,0,-1,524,1100,0,0
-693,-76,-26.6115,0.431763,-0.00127843,0.0682224,-0.0289503,0.0787015,-0.0117576,-1.2235,0.056794,0.0422965,531,1100,-26.6115,-0.431769
-686,-76,-27.5345,-0.227051,0.000733241,0.0558347,-0.0184404,0.0614366,-0.00486858,-1.27588,0.0426732,0.0459395,538,1100,-27.5345,0.227092
-679,-76,-27.7952,0.418457,0.00199853,0.0454117,-0.0108476,0.0479713,-0.000561053,-1.33908,0.0321695,0.0464747,545,1100,-27.7952,-0.418426
-672,-76,-28.0163,0.831543,0.00275495,0.0366305,-0.00547386,0.037493,0.00189241,-1.41451,0.024389,0.0455998,552,1100,-28.0163,-0.831551
-665,-76,-27.8783,0.962524,0.00307568,0.0292187,-0.00183917,0.0293475,0.00294693,-1.5009,0.0186604,0.0449647,559,1100,-27.8783,-0.962481
-658,-76,-27.9911,1.22375,0.00306957,0.0229724,0.000422382,0.0229814,0.00306061,1.54959,0.0144095,0.0459777,566,1100,-27.9912,-1.22374
-651,-76,-28.0161,1.42444,0.00292438,0.0176942,0.00163475,0.0178729,0.00274561,1.46187,0.0111137,0.0281541,573,1100,-28.0161,-1.4244
-644,-76,-28.0268,1.66614,0.00248889,0.0130662,0.00231961,0.0135526,0.00200257,1.36413,0.00844702,0.0100678,580,1100,-28.0268,-1.6661
-637,-76,-28.1003,1.93542,0.00262686,0.00829827,0.00257081,0.00929014,0.001635,1.20258,0.00572676,0.0127446,587,1100,-28.1003,-1.93543
-630,-76,-28.1271,2.1731,0.00218439,0.00484574,0.00116895,0.00528626,0.00174386,1.2104,0.00311035,0.0143165,594,1100,-28.1271,-2.17311
-623,-76,-28.1237,2.43164,0.00192888,0.00303828,-0.000265776,0.00309867,0.0018685,-1.34739,0.00180163,0.0155322,601,1100,-28.1237,-2.43158
-616,-76,-28.1556,2.6908,0.00194759,0.0021601,-0.000986512,0.00304607,0.00106163,-0.839046,0.00178535,0.0145574,608,1100,-28.1557,-2.69074
-609,-76,-28.1583,2.94971,0.00210179,0.0015839,-0.00163348,0.00349672,0.000188973,-0.70679,0.00227078,0.0151063,615,1100,-28.1582,-2.94976
-602,-76,-28.1227,3.22974,0.0020216,0.00100941,-0.0019885,0.0035674,-0.000536388,-0.660788,0.00257574,0.0179091,622,1100,-28.1227,-3.22972
-595,-76,-28.0853,3.44995,0.00183785,0.00106568,-0.00212046,0.00360709,-0.000703559,-0.695346,0.00267032,0.0259614,629,1100,-28.0853,-3.44997
-588,-76,-28.0657,3.65942,0,0,0,0,0,0,0,-1,636,1100,-28.0657,-3.65939
-581,-76,-29.6547,0.70752,0,0,0,0,0,0,0,-1,643,1100,-29.6547,-0.707498
-574,-76,-29.6818,0.687622,0.00218015,0.00149716,-0.00182939,0.00369964,-2.23363e-05,-0.693124,0.0024739,0.0353709,650,1100,-29.6817,-0.687582
-567,-76,-29.6179,0.963257,0.00214512,0.00181668,-0.00160422,0.0035935,0.000368294,-0.734392,0.00228283,0.0403722,657,1100,-29.6179,-0.963313
-560,-76,-29.7733,1.15552,0.00196852,0.00208807,-0.00138649,0.00341608,0.000640518,-0.80694,0.00209675,0.0433655,664,1100,-29.7733,-1.15551
-553,-76,-29.8123,1.1084,0.00155876,0.00213999,-0.0012715,0.00315366,0.000545087,-0.897747,0.00194636,0.0434431,671,1100,-29.8123,-1.10839
-546,-76,-29.7792,1.01953,0.0011025,0.00172293,-0.00134954,0.00279745,2.79747e-05,-0.898369,0.00185572,0.0394708,678,1100,-29.7792,-1.01955
-539,-76,-29.6467,0.775146,0.00113399,0.000317689,-0.00196918,0.00273688,-0.0012852,-0.68321,0.00237203,0.0404203,685,1100,-29.6467,-0.77519
-532,-76,-29.5482,1.00391,0.00114484,-0.00113995,-0.00401543,0.00417722,-0.00417232,-0.646809,0.00482061,0.0417919,692,1100,-29.5481,-1.0039
-525,-76,0,0,0,0,0,0,0,0,0,-1,699,1100,0,0
-518,-76,0,0,0,0,0,0,0,0,0,-1,706,1100,0,0
-511,-76,0,0,0,0,0,0,0,0,0,-1,713,1100,0,0
-504,-76,0,0,0,0,0,0,0,0,0,-1,720,1100,0,0
-497,-76,0,0,0,0,0,0,0,0,0,-1,727,1100,0,0
-490,-76,0,0,0,0,0,0,0,0,0,-1,734,1100,0,0
-483,-76,0,0,0,0,0,0,0,0,0,-1,741,1100,0,0
-476,-76,0,0,0,0,0,0,0,0,0,-1,748,1100,0,0
-469,-76,0,0,0,0,0,0,0,0,0,-1,755,1100,0,0
-462,-76,0,0,0,0,0,0,0,0,0,-1,762,1100,0,0
-455,-76,0,0,0,0,0,0,0,0,0,-1,769,1100,0,0
-448,-76,0,0,0,0,0,0,0,0,0,-1,776,1100,0,0
-441,-76,0,0,0,0,0,0,0,0,0,-1,783,1100,0,0
-434,-76,0,0,0,0,0,0,0,0,0,-1,790,1100,0,0
-427,-76,0,0,0,0,0,0,0,0,0,-1,797,1100,0,0
-420,-76,0,0,0,0,0,0,0,0,0,-1,804,1100,0,0
-413,-76,0,0,0,0,0,0,0,0,0,-1,811,1100,0,0
-406,-76,0,0,0,0,0,0,0,0,0,-1,818,1100,0,0
-399,-76,0,0,0,0,0,0,0,0,0,-1,825,1100,0,0
-392,-76,0,0,0,0,0,0,0,0,0,-1,832,1100,0,0
-385,-76,0,0,0,0,0,0,0,0,0,-1,839,1100,0,0
-378,-76,0,0,0,0,0,0,0,0,0,-1,846,1100,0,0
-371,-76,0,0,0,0,0,0,0,0,0,-1,853,1100,0,0
-364,-76,0,0,0,0,0,0,0,0,0,-1,860,1100,0,0
-357,-76,0,0,0,0,0,0,0,0,0,-1,867,1100,0,0
-350,-76,0,0,0,0,0,0,0,0,0,-1,874,1100,0,0
-343,-76,0,0,0,0,0,0,0,0,0,-1,881,1100,0,0
-336,-76,0,0,0,0,0,0,0,0,0,-1,888,1100,0,0
-329,-76,0,0,0,0,0,0,0,0,0,-1,895,1100,0,0
-322,-76,0,0,0,0,0,0,0,0,0,-1,902,1100,0,0
-315,-76,0,0,0,0,0,0,0,0,0,-1,909,1100,0,0
-308,-76,0,0,0,0,0,0,0,0,0,-1,916,1100,0,0
-301,-76,0,0,0,0,0,0,0,0,0,-1,923,1100,0,0
-294,-76,0,0,0,0,0,0,0,0,0,-1,930,1100,0,0
-287,-76,0,0,0,0,0,0,0,0,0,-1,937,1100,0,0
-280,-76,0,0,0,0,0,0,0,0,0,-1,944,1100,0,0
-273,-76,0,0,0,0,0,0,0,0,0,-1,951,1100,0,0
-266,-76,0,0,0,0,0,0,0,0,0,-1,958,1100,0,0
-259,-76,0,0,0,0,0,0,0,0,0,-1,965,1100,0,0
-252,-76,0,0,0,0,0,0,0,0,0,-1,972,1100,0,0
-245,-76,0,0,0,0,0,0,0,0,0,-1,979,1100,0,0
-238,-76,0,0,0,0,0,0,0,0,0,-1,986,1100,0,0
-231,-76,0,0,0,0,0,0,0,0,0,-1,993,1100,0,0
-224,-76,0,0,0,0,0,0,0,0,0,-1,1000,1100,0,0
-217,-76,0,0,0,0,0,0,0,0,0,-1,1007,1100,0,0
-210,-76,0,0,0,0,0,0,0,0,0,-1,1014,1100,0,0
-203,-76,0,0,0,0,0,0,0,0,0,-1,1021,1100,0,0
-196,-76,0,0,0,0,0,0,0,0,0,-1,1028,1100,0,0
-189,-76,0,0,0,0,0,0,0,0,0,-1,1035,1100,0,0
-182,-76,0,0,0,0,0,0,0,0,0,-1,1042,1100,0,0
-175,-76,0,0,0,0,0,0,0,0,0,-1,1049,1100,0,0
-168,-76,0,0,0,0,0,0,0,0,0,-1,1056,1100,0,0
-161,-76,0,0,0,0,0,0,0,0,0,-1,1063,1100,0,0
-154,-76,0,0,0,0,0,0,0,0,0,-1,1070,1100,0,0
-147,-76,0,0,0,0,0,0,0,0,0,-1,1077,1100,0,0
-140,-76,0,0,0,0,0,0,0,0,0,-1,1084,1100,0,0
-133,-76,0,0,0,0,0,0,0,0,0,-1,1091,1100,0,0
-126,-76,0,0,0,0,0,0,0,0,0,-1,1098,1100,0,0
-119,-76,0,0,0,0,0,0,0,0,0,-1,1105,1100,0,0
-112,-76,0,0,0,0,0,0,0,0,0,-1,1112,1100,0,0
-105,-76,0,0,0,0,0,0,0,0,0,-1,1119,1100,0,0
-98,-76,0,0,0,0,0,0,0,0,0,-1,1126,1100,0,0
-91,-76,0,0,0,0,0,0,0,0,0,-1,1133,1100,0,0
-84,-76,0,0,0,0,0,0,0,0,0,-1,1140,1100,0,0
-77,-76,0,0,0,0,0,0,0,0,0,-1,1147,1100,0,0
-70,-76,0,0,0,0,0,0,0,0,0,-1,1154,1100,0,0
-63,-76,0,0,0,0,0,0,0,0,0,-1,1161,1100,0,0
-56,-76,0,0,0,0,0,0,0,0,0,-1,1168,1100,0,0
-49,-76,0,0,0,0,0,0,0,0,0,-1,1175,1100,0,0
-42,-76,0,0,0,0,0,0,0,0,0,-1,1182,1100,0,0
-35,-76,0,0,0,0,0,0,0,0,0,-1,1189,1100,0,0
-28,-76,0,0,0,0,0,0,0,0,0,-1,1196,1100,0,0
-21,-76,0,0,0,0,0,0,0,0,0,-1,1203,1100,0,0
-14,-76,0,0,0,0,0,0,0,0,0,-1,1210,1100,0,0
-7,-76,0,0,0,0,0,0,0,0,0,-1,1217,1100,0,0
0,-76,0,0,0,0,0,0,0,0,0,-1,1224,1100,0,0
7,-76,0,0,0,0,0,0,0,0,0,-1,1231,1100,0,0
14,-76,0,0,0,0,0,0,0,0,0,-1,1238,1100,0,0
21,-76,0,0,0,0,0,0,0,0,0,-1,1245,1100,0,0
28,-76,0,0,0,0,0,0,0,0,0,-1,1252,1100,0,0
35,-76,0,0,0,0,0,0,0,0,0,-1,1259,1100,0,0
42,-76,0,0,0,0,0,0,0,0,0,-1,1266,1100,0,0
49,-76,0,0,0,0,0,0,0,0,0,-1,1273,1100,0,0
56,-76,0,0,0,0,0,0,0,0,0,-1,1280,1100,0,0
63,-76,0,0,0,0,0,0,0,0,0,-1,1287,1100,0,0
70,-76,0,0,0,0,0,0,0,0,0,-1,1294,1100,0,0
77,-76,0,0,0,0,0,0,0,0,0,-1,1301,1100,0,0
84,-76,0,0,0,0,0,0,0,0,0,-1,1308,1100,0,0
91,-76,0,0,0,0,0,0,0,0,0,-1,1315,1100,0,0
98,-76,0,0,0,0,0,0,0,0,0,-1,1322,1100,0,0
105,-76,0,0,0,0,0,0,0,0,0,-1,1329,1100,0,0
112,-76,0,0,0,0,0,0,0,0,0,-1,1336,1100,0,0
119,-76,0,0,0,0,0,0,0,0,0,-1,1343,1100,0,0
126,-76,0,0,0,0,0,0,0,0,0,-1,1350,1100,0,0
133,-76,0,0,0,0,0,0,0,0,0,-1,1357,1100,0,0
140,-76,0,0,0,0,0,0,0,0,0,-1,1364,1100,0,0
147,-76,0,0,0,0,0,0,0,0,0,-1,1371,1100,0,0
154,-76,0,0,0,0,0,0,0,0,0,-1,1378,1100,0,0
161,-76,0,0,0,0,0,0,0,0,0,-1,1385,1100,0,0
168,-76,0,0,0,0,0,0,0,0,0,-1,1392,1100,0,0
175,-76,0,0,0,0,0,0,0,0,0,-1,1399,1100,0,0
182,-76,0,0,0,0,0,0,0,0,0,-1,1406,1100,0,0
189,-76,0,0,0,0,0,0,0,0,0,-1,1413,1100,0,0
196,-76,0,0,0,0,0,0,0,0,0,-1,1420,1100,0,0
203,-76,0,0,0,0,0,0,0,0,0,-1,1427,1100,0,0
210,-76,0,0,0,0,0,0,0,0,0,-1,1434,1100,0,0
217,-76,0,0,0,0,0,0,0,0,0,-1,1441,1100,0,0
224,-76,0,0,0,0,0,0,0,0,0,-1,1448,1100,0,0
231,-76,0,0,0,0,0,0,0,0,0,-1,1455,1100,0,0
238,-76,0,0,0,0,0,0,0,0,0,-1,1462,1100,0,0
245,-76,0,0,0,0,0,0,0,0,0,-1,1469,1100,0,0
252,-76,0,0,0,0,0,0,0,0,0,-1,1476,1100,0,0
259,-76,0,0,0,0,0,0,0,0,0,-1,1483,1100,0,0
266,-76,0,0,0,0,0,0,0,0,0,-1,1490,1100,0,0
273,-76,0,0,0,0,0,0,0,0,0,-1,1497,1100,0,0
280,-76,0,0,0,0,0,0,0,0,0,-1,1504,1100,0,0
287,-76,0,0,0,0,0,0,0,0,0,-1,1511,1100,0,0
294,-76,0,0,0,0,0,0,0,0,0,-1,1518,1100,0,0
301,-76,0,0,0,0,0,0,0,0,0,-1,1525,1100,0,0
308,-76,0,0,0,0,0,0,0,0,0,-1,1532,1100,0,0
315,-76,0,0,0,0,0,0,0,0,0,-1,1539,1100,0,0
322,-76,0,0,0,0,0,0,0,0,0,-1,1546,1100,0,0
329,-76,0,0,0,0,0,0,0,0,0,-1,1553,1100,0,0
336,-76,0,0,0,0,0,0,0,0,0,-1,1560,1100,0,0
343,-76,0,0,0,0,0,0,0,0,0,-1,1567,1100,0,0
350,-76,0,0,0,0,0,0,0,0,0,-1,1574,1100,0,0
357,-76,0,0,0,0,0,0,0,0,0,-1,1581,1100,0,0
364,-76,0,0,0,0,0,0,0,0,0,-1,1588,1100,0,0
371,-76,0,0,0,0,0,0,0,0,0,-1,1595,1100,0,0
378,-76,0,0,0,0,0,0,0,0,0,-1,1602,1100,0,0
385,-76,0,0,0,0,0,0,0,0,0,-1,1609,1100,0,0
392,-76,0,0,0,0,0,0,0,0,0,-1,1616,1100,0,0
399,-76,0,0,0,0,0,0,0,0,0,-1,1623,1100,0,0
406,-76,0,0,0,0,0,0,0,0,0,-1,1630,1100,0,0
413,-76,0,0,0,0,0,0,0,0,0,-1,1637,1100,0,0
420,-76,0,0,0,0,0,0,0,0,0,-1,1644,1100,0,0
427,-76,0,0,0,0,0,0,0,0,0,-1,1651,1100,0,0
434,-76,0,0,0,0,0,0,0,0,0,-1,1658,1100,0,0
441,-76,0,0,0,0,0,0,0,0,0,-1,1665,1100,0,0
448,-76,0,0,0,0,0,0,0,0,0,-1,1672,1100,0,0
455,-76,0,0,0,0,0,0,0,0,0,-1,1679,1100,0,0
462,-76,0,0,0,0,0,0,0,0,0,-1,1686,1100,0,0
469,-76,0,0,0,0,0,0,0,0,0,-1,1693,1100,0,0
476,-76,0,0,0,0,0,0,0,0,0,-1,1700,1100,0,0
483,-76,0,0,0,0,0,0,0,0,0,-1,1707,1100,0,0
490,-76,0,0,0,0,0,0,0,0,0,-1,1714,1100,0,0
497,-76,0,0,0,0,0,0,0,0,0,-1,1721,1100,0,0
504,-76,0,0,0,0,0,0,0,0,0,-1,1728,1100,0,0
511,-76,0,0,0,0,0,0,0,0,0,-1,1735,1100,0,0
518,-76,0,0,0,0,0,0,0,0,0,-1,1742,1100,0,0
525,-76,0,0,0,0,0,0,0,0,0,-1,1749,1100,0,0
532,-76,0,0,0,0,0,0,0,0,0,-1,1756,1100,0,0
539,-76,0,0,0,0,0,0,0,0,0,-1,1763,1100,0,0
546,-76,0,0,0,0,0,0,0,0,0,-1,1770,1100,0,0
553,-76,0,0,0,0,0,0,0,0,0,-1,1777,1100,0,0
560,-76,0,0,0,0,0,0,0,0,0,-1,1784,1100,0,0
567,-76,0,0,0,0,0,0,0,0,0,-1,1791,1100,0,0
574,-76,0,0,0,0,0,0,0,0,0,-1,1798,1100,0,0
581,-76,0,0,0,0,0,0,0,0,0,-1,1805,1100,0,0
588,-76,0,0,0,0,0,0,0,0,0,-1,1812,1100,0,0
595,-76,0,0,0,0,0,0,0,0,0,-1,1819,1100,0,0
602,-76,0,0,0,0,0,0,0,0,0,-1,1826,1100,0,0
609,-76,0,0,0,0,0,0,0,0,0,-1,1833,1100,0,0
616,-76,0,0,0,0,0,0,0,0,0,-1,1840,1100,0,0
623,-76,0,0,0,0,0,0,0,0,0,-1,1847,1100,0,0
630,-76,0,0,0,0,0,0,0,0,0,-1,1854,1100,0,0
637,-76,0,0,0,0,0,0,0,0,0,-1,1861,1100,0,0
644,-76,0,0,0,0,0,0,0,0,0,-1,1868,1100,0,0
651,-76,40.6877,2.77795,-0.00141823,-0.00372463,-0.000457477,-0.00133081,-0.00381206,-0.18883,0.00223405,0.0408433,1875,1100,40.6878,-2.77791
658,-76,40.5414,2.7594,-0.00062,-0.00264108,-0.00038235,-0.000550085,-0.002711,-0.180857,0.00165473,0.0415571,1882,1100,40.5414,-2.7594
665,-76,40.6267,2.69714,-0.000100647,-0.00186441,-0.000198757,-7.85263e-05,-0.00188653,-0.110838,0.00123235,0.0392812,1889,1100,40.6268,-2.6971
672,-76,40.6647,2.81628,0.000415958,-0.00141805,0.00010417,0.000421856,-0.00142395,0.0565569,0.0011168,0.0384829,1896,1100,40.6646,-2.81626
679,-76,40.6235,3.09741,0.000409214,-0.0012913,0.00060043,0.000599848,-0.00148193,0.307429,0.00123736,0.039526,1903,1100,40.6235,-3.09736
686,-76,40.7709,2.94678,2.93023e-05,-0.00142368,0.00110479,0.000625067,-0.00201945,0.494555,0.00159599,0.0382076,1910,1100,40.7709,-2.9468
693,-76,40.7682,2.7135,-0.000309862,-0.0016261,0.0015313,0.000698751,-0.00263471,0.582443,0.00202988,0.0388489,1917,1100,40.7681,-2.71354
700,-76,40.6989,2.54321,-0.000717942,-0.00169999,0.00188812,0.000741953,-0.00315989,0.658186,0.00239257,0.032097,1924,1100,40.6989,-2.54321
707,-76,40.6421,2.63049,-0.00105771,-0.00170154,0.00220865,0.000852359,-0.00361161,0.713031,0.00273647,0.0239077,1931,1100,40.6421,-2.63052
714,-76,40.765,2.92297,-0.00148234,-0.00161409,0.00250409,0.000956744,-0.00405318,0.772247,0.00307112,0.0484363,1938,1100,40.765,-2.92296
721,-76,41.0145,3.42151,0,0,0,0,0,0,0,-1,1945,1100,41.0145,-3.42149
728,-76,39.4512,5.90271,-0.00256381,-0.00105138,0.00271357,0.00100937,-0.00462456,0.921289,0.0034688,0.0459033,1952,1100,39.4512,-5.90272
735,-76,38.6917,5.86255,-0.00312236,-0.000540156,0.00263567,0.00110365,-0.00476617,1.01315,0.00360214,0.033719,1959,1100,38.6917,-5.86261
742,-76,38.9274,5.61853,-0.00349808,0.000161157,0.00254691,0.0014675,-0.00480443,1.09687,0.00378809,0.0226791,1966,1100,38.9274,-5.61851
749,-76,38.8365,5.34839,-0.0029203,0.00138504,0.002063,0.00221397,-0.00374924,1.18873,0.00348069,0.0216057,1973,1100,38.8366,-5.34838
756,-76,38.8879,5.13867,-0.0011,0.00304096,0.00118251,0.00335485,-0.00141389,1.31134,0.00282823,0.0150893,1980,1100,38.888,-5.13868
763,-76,38.8818,4.91455,0.00246006,0.00595208,0.000286915,0.0059755,0.00243664,1.48936,0.00346946,0.0165307,1987,1100,38.8819,-4.91452
770,-76,38.8011,4.7583,0.00702492,0.00934656,-0.00103883,0.00974352,0.00662796,-1.2058,0.00574597,0.0167724,1994,1100,38.8012,-4.75825
777,-76,38.7247,4.63977,0.0138262,0.0135038,-0.00242807,0.0160984,0.0112316,-0.752248,0.00953348,0.0208715,2001,1100,38.7247,-4.63974
784,-76,38.7439,4.34814,0.0224425,0.018357,-0.00386643,0.0247726,0.0160269,-0.542374,0.014507,0.0348072,2008,1100,38.7438,-4.34817
791,-76,38.7373,4.09595,0.0333766,0.0242093,-0.00527241,0.0357792,0.0218066,-0.427581,0.0208216,0.0450534,2015,1100,38.7372,-4.09599
798,-76,38.2839,5.22656,0,0,0,0,0,0,0,-1,2022,1100,38.2838,-5.2266
805,-76,39.228,5.19958,0.0661553,0.0404239,-0.00782945,0.0683503,0.0382288,-0.273342,0.0395545,0.046986,2029,1100,39.2281,-5.1996
812,-76,40.3228,5.37866,0.0894387,0.0517303,-0.00836426,0.0912108,0.0499582,-0.208771,0.0527405,0.0461147,2036,1100,40.3228,-5.37865
-700,-83,0,0,0,0,0,0,0,0,0,-1,524,1107,0,0
-693,-83,-25.8939,-0.215454,-0.00729065,0.0677554,-0.0221482,0.0738043,-0.0133396,-1.30418,0.0541994,0.0445155,531,1107,-25.8939,0.215494
-686,-83,-28.5415,-2.01697,-0.00299088,0.0556205,-0.0125813,0.058207,-0.00557741,-1.36804,0.0407911,0.0461321,538,1107,-28.5415,2.01699
-679,-83,-27.4464,-0.0380859,-4.67398e-05,0.0452965,-0.00605472,0.046091,-0.00084131,-1.44031,0.0310116,0.04663,545,1107,-27.4464,0.038104
-672,-83,-27.6489,0.342285,0.00188965,0.0365294,-0.00172322,0.0366149,0.00180414,-1.52121,0.0238313,0.0452076,552,1107,-27.6488,-0.342265
-665,-83,-27.6614,0.503906,0.00296593,0.0290937,0.000974093,0.02913,0.00292966,1.53358,0.0185208,0.0443474,559,1107,-27.6614,-0.503928
-658,-83,-27.8141,0.898193,0.0033988,0.0228121,0.00244338,0.0231149,0.00309599,1.4475,0.0144886,0.0419474,566,1107,-27.8141,-0.89814
-651,-83,-27.7481,1.24707,0.00347531,0.0175096,0.00303846,0.0181392,0.00284572,1.36648,0.0112647,0.0302153,573,1107,-27.7481,-1.24703
-644,-83,-27.7185,1.58337,0.00318992,0.0129037,0.00323186,0.0138807,0.00221291,1.27723,0.00861144,0.0146626,580,1107,-27.7185,-1.58335
-637,-83,-27.7827,1.89746,0.00344689,0.00814526,0.00324043,0.00979846,0.00179369,1.09904,0.00602409,0.0113544,587,1107,-27.7827,-1.89743
-630,-83,-27.8178,2.17883,0.00287158,0.00471071,0.00171098,0.00573358,0.00184872,1.03198,0.00337915,0.0165124,594,1107,-27.8178,-2.17888
-623,-83,-27.8318,2.42139,0.00240897,0.00284253,0.000219736,0.00293442,0.00231708,1.17471,0.00178642,0.0164137,601,1107,-27.8319,-2.42136
-616,-83,-27.8818,2.69653,0.00226465,0.00197823,-0.000416005,0.00256141,0.00168148,-0.619628,0.00150277,0.0147795,608,1107,-27.8819,-2.69654
-609,-83,-27.8665,2.9491,0.00233312,0.00143974,-0.000925295,0.0029139,0.000858956,-0.56052,0.00172893,0.0161514,615,1107,-27.8665,-2.94907
-602,-83,-27.86,3.25537,0.00224842,0.00104779,-0.00118327,0.00297495,0.000321272,-0.550648,0.00188535,0.016538,622,1107,-27.86,-3.25542
-595,-83,-27.7954,3.54016,0.00197748,0.00115306,-0.001232,0.0028644,0.000266135,-0.623959,0.00182736,0.0196061,629,1107,-27.7954,-3.54017
-588,-83,-27.7655,3.72876,0,0,0,0,0,0,0,-1,636,1107,-27.7655,-3.72874
-581,-83,-29.6513,0.664307,0,0,0,0,0,0,0,-1,643,1107,-29.6513,-0.664275
-574,-83,-29.6459,0.636475,0.00211544,0.00168251,-0.00105011,0.00297116,0.000826785,-0.683753,0.00177073,0.0376261,650,1107,-29.646,-0.63648
-567,-83,-29.62,0.705811,0.00205302,0.00203992,-0.000936876,0.00298337,0.00110957,-0.781904,0.00174118,0.042979,657,1107,-29.62,-0.705804
-560,-83,-29.7767,0.881958,0.00183903,0.00236259,-0.0008949,0.00303321,0.00116841,-0.927688,0.00176654,0.0432244,664,1107,-29.7768,-0.881925
-553,-83,-29.7398,0.856689,0.00133441,0.00249596,-0.00105023,0.0031153,0.000715068,-1.03797,0.0018843,0.0417039,671,1107,-29.7398,-0.856708
-546,-83,-29.6268,1.12598,0.000720213,0.0021974,-0.00153141,0.00315902,-0.000241412,-1.01009,0.00219092,0.0392772,678,1107,-29.6268,-1.12598
-539,-83,-29.7599,1.03198,0.00063012,0.00095875,-0.00260974,0.00340934,-0.00182047,-0.816838,0.00306553,0.0419232,685,1107,-29.76,-1.03199
-532,-83,-29.8032,0.804321,0.000656497,-0.000380757,-0.00475628,0.00492234,-0.0046466,-0.731092,0.00552539,0.0435066,692,1107,-29.8032,-0.80433
-525,-83,0,0,0,0,0,0,0,0,0,-1,699,1107,0,0
-518,-83,0,0,0,0,0,0,0,0,0,-1,706,1107,0,0
-511,-83,0,0,0,0,0,0,0,0,0,-1,713,1107,0,0
-504,-83,0,0,0,0,0,0,0,0,0,-1,720,1107,0,0
-497,-83,0,0,0,0,0,0,0,0,0,-1,727,1107,0,0
-490,-83,0,0,0,0,0,0,0,0,0,-1,734,1107,0,0
-483,-83,0,0,0,0,0,0,0,0,0,-1,741,1107,0,0
-476,-83,0,0,0,0,0,0,0,0,0,-1,748,1107,0,0
-469,-83,0,0,0,0,0,0,0,0,0,-1,755,1107,0,0
-462,-83,0,0,0,0,0,0,0,0,0,-1,762,1107,0,0
-455,-83,0,0,0,0,0,0,0,0,0,-1,769,1107,0,0
-448,-83,0,0,0,0,0,0,0,0,0,-1,776,1107,0,0
-441,-83,0,0,0,0,0,0,0,0,0,-1,783,1107,0,0
-434,-83,0,0,0,0,0,0,0,0,0,-1,790,1107,0,0
-427,-83,0,0,0,0,0,0,0,0,0,-1,797,1107,0,0
-420,-83,0,0,0,0,0,0,0,0,0,-1,804,1107,0,0
-413,-83,0,0,0,0,0,0,0,0,0,-1,811,1107,0,0
-406,-83,0,0,0,0,0,0,0,0,0,-1,818,1107,0,0
-399,-83,0,0,0,0,0,0,0,0,0,-1,825,1107,0,0
-392,-83,0,0,0,0,0,0,0,0,0,-1,832,1107,0,0
-385,-83,0,0,0,0,0,0,0,0,0,-1,839,1107,0,0
-378,-83,0,0,0,0,0,0,0,0,0,-1,846,1107,0,0
-371,-83,0,0,0,0,0,0,0,0,0,-1,853,1107,0,0
-364,-83,0,0,0,0,0,0,0,0,0,-1,860,1107,0,0
-357,-83,0,0,0,0,0,0,0,0,0,-1,867,1107,0,0
-350,-83,0,0,0,0,0,0,0,0,0,-1,874,1107,0,0
-343,-83,0,0,0,0,0,0,0,0,0,-1,881,1107,0,0
-336,-83,0,0,0,0,0,0,0,0,0,-1,888,1107,0,0
-329,-83,0,0,0,0,0,0,0,0,0,-1,895,1107,0,0
-322,-83,0,0,0,0,0,0,0,0,0,-1,902,1107,0,0
-315,-83,0,0,0,0,0,0,0,0,0,-1,909,1107,0,0
-308,-83,0,0,0,0,0,0,0,0,0,-1,916,1107,0,0
-301,-83,0,0,0,0,0,0,0,0,0,-1,923,1107,0,0
-294,-83,0,0,0,0,0,0,0,0,0,-1,930,1107,0,0
-287,-83,0,0,0,0,0,0,0,0,0,-1,937,1107,0,0
-280,-83,0,0,0,0,0,0,0,0,0,-1,944,1107,0,0
-273,-83,0,0,0,0,0,0,0,0,0,-1,951,1107,0,0
-266,-83,0,0,0,0,0,0,0,0,0,-1,958,1107,0,0
-259,-83,0,0,0,0,0,0,0,0,0,-1,965,1107,0,0
-252,-83,0,0,0,0,0,0,0,0,0,-1,972,1107,0,0
-245,-83,0,0,0,0,0,0,0,0,0,-1,979,1107,0,0
-238,-83,0,0,0,0,0,0,0,0,0,-1,986,1107,0,0
-231,-83,0,0,0,0,0,0,0,0,0,-1,993,1107,0,0
-224,-83,0,0,0,0,0,0,0,0,0,-1,1000,1107,0,0
-217,-83,0,0,0,0,0,0,0,0,0,-1,1007,1107,0,0
-210,-83,0,0,0,0,0,0,0,0,0,-1,1014,1107,0,0
-203,-83,0,0,0,0,0,0,0,0,0,-1,1021,1107,0,0
-196,-83,0,0,0,0,0,0,0,0,0,-1,1028,1107,0,0
-189,-83,0,0,0,0,0,0,0,0,0,-1,1035,1107,0,0
-182,-83,0,0,0,0,0,0,0,0,0,-1,1042,1107,0,0
-175,-83,0,0,0,0,0,0,0,0,0,-1,1049,1107,0,0
-168,-83,0,0,0,0,0,0,0,0,0,-1,1056,1107,0,0
-161,-83,0,0,0,0,0,0,0,0,0,-1,1063,1107,0,0
-154,-83,0,0,0,0,0,0,0,0,0,-1,1070,1107,0,0
-147,-83,0,0,0,0,0,0,0,0,0,-1,1077,1107,0,0
-140,-83,0,0,0,0,0,0,0,0,0,-1,1084,1107,0,0
-133,-83,0,0,0,0,0,0,0,0,0,-1,1091,1107,0,0
-126,-83,0,0,0,0,0,0,0,0,0,-1,1098,1107,0,0
-119,-83,0,0,0,0,0,0,0,0,0,-1,1105,1107,0,0
-112,-83,0,0,0,0,0,0,0,0,0,-1,1112,1107,0,0
-105,-83,0,0,0,0,0,0,0,0,0,-1,1119,1107,0,0
-98,-83,0,0,0,0,0,0,0,0,0,-1,1126,1107,0,0
-91,-83,0,0,0,0,0,0,0,0,0,-1,1133,1107,0,0
-84,-83,0,0,0,0,0,0,0,0,0,-1,1140,1107,0,0
-77,-83,0,0,0,0,0,0,0,0,0,-1,1147,1107,0,0
-70,-83,0,0,0,0,0,0,0,0,0,-1,1154,1107,0,0
-63,-83,0,0,0,0,0,0,0,0,0,-1,1161,1107,0,0
-56,-83,0,0,0,0,0,0,0,0,0,-1,1168,1107,0,0
-49,-83,0,0,0,0,0,0,0,0,0,-1,1175,1107,0,0
-42,-83,0,0,0,0,0,0,0,0,0,-1,1182,1107,0,0
-35,-83,0,0,0,0,0,0,0,0,0,-1,1189,1107,0,0
-28,-83,0,0,0,0,0,0,0,0,0,-1,1196,1107,0,0
-21,-83,0,0,0,0,0,0,0,0,0,-1,1203,1107,0,0
-14,-83,0,0,0,0,0,0,0,0,0,-1,1210,1107,0,0
-7,-83,0,0,0,0,0,0,0,0,0,-1,1217,1107,0,0
0,-83,0,0,0,0,0,0,0,0,0,-1,1224,1107,0,0
7,-83,0,0,0,0,0,0,0,0,0,-1,1231,1107,0,0
14,-83,0,0,0,0,0,0,0,0,0,-1,1238,1107,0,0
21,-83,0,0,0,0,0,0,0,0,0,-1,1245,1107,0,0
28,-83,0,0,0,0,0,0,0,0,0,-1,1252,1107,0,0
35,-83,0,0,0,0,0,0,0,0,0,-1,1259,1107,0,0
42,-83,0,0,0,0,0,0,0,0,0,-1,1266,1107,0,0
49,-83,0,0,0,0,0,0,0,0,0,-1,1273,1107,0,0
56,-83,0,0,0,0,0,0,0,0,0,-1,1280,1107,0,0
63,-83,0,0,0,0,0,0,0,0,0,-1,1287,1107,0,0
70,-83,0,0,0,0,0,0,0,0,0,-1,1294,1107,0,0
77,-83,0,0,0,0,0,0,0,0,0,-1,1301,1107,0,0
84,-83,0,0,0,0,0,0,0,0,0,-1,1308,1107,0,0
91,-83,0,0,0,0,0,0,0,0,0,-1,1315,1107,0,0
98,-83,0,0,0,0,0,0,0,0,0,-1,1322,1107,0,0
105,-83,0,0,0,0,0,0,0,0,0,-1,1329,1107,0,0
112,-83,0,0,0,0,0,0,0,0,0,-1,1336,1107,0,0
119,-83,0,0,0,0,0,0,0,0,0,-1,1343,1107,0,0
126,-83,0,0,0,0,0,0,0,0,0,-1,1350,1107,0,0
133,-83,0,0,0,0,0,0,0,0,0,-1,1357,1107,0,0
140,-83,0,0,0,0,0,0,0,0,0,-1,1364,1107,0,0
147,-83,0,0,0,0,0,0,0,0,0,-1,1371,1107,0,0
154,-83,0,0,0,0,0,0,0,0,0,-1,1378,1107,0,0
161,-83,0,0,0,0,0,0,0,0,0,-1,1385,1107,0,0
168,-83,0,0,0,0,0,0,0,0,0,-1,1392,1107,0,0
175,-83,0,0,0,0,0,0,0,0,0,-1,1399,1107,0,0
182,-83,0,0,0,0,0,0,0,0,0,-1,1406,1107,0,0
189,-83,0,0,0,0,0,0,0,0,0,-1,1413,1107,0,0
196,-83,0,0,0,0,0,0,0,0,0,-1,1420,1107,0,0
203,-83,0,0,0,0,0,0,0,0,0,-1,1427,1107,0,0
210,-83,0,0,0,0,0,0,0,0,0,-1,1434,1107,0,0
217,-83,0,0,0,0,0,0,0,0,0,-1,1441,1107,0,0
224,-83,0,0,0,0,0,0,0,0,0,-1,1448,1107,0,0
231,-83,0,0,0,0,0,0,0,0,0,-1,1455,1107,0,0
238,-83,0,0,0,0,0,0,0,0,0,-1,1462,1107,0,0
245,-83,0,0,0,0,0,0,0,0,0,-1,1469,1107,0,0
252,-83,0,0,0,0,0,0,0,0,0,-1,1476,1107,0,0
259,-83,0,0,0,0,0,0,0,0,0,-1,1483,1107,0,0
266,-83,0,0,0,0,0,0,0,0,0,-1,1490,1107,0,0
273,-83,0,0,0,0,0,0,0,0,0,-1,1497,1107,0,0
280,-83,0,0,0,0,0,0,0,0,0,-1,1504,1107,0,0
287,-83,0,0,0,0,0,0,0,0,0,-1,1511,1107,0,0
294,-83,0,0,0,0,0,0,0,0,0,-1,1518,1107,0,0
301,-83,0,0,0,0,0,0,0,0,0,-1,1525,1107,0,0
308,-83,0,0,0,0,0,0,0,0,0,-1,1532,1107,0,0
315,-83,0,0,0,0,0,0,0,0,0,-1,1539,1107,0,0
322,-83,0,0,0,0,0,0,0,0,0,-1,1546,1107,0,0
329,-83,0,0,0,0,0,0,0,0,0,-1,1553,1107,0,0
336,-83,0,0,0,0,0,0,0,0,0,-1,1560,1107,0,0
343,-83,0,0,0,0,0,0,0,0,0,-1,1567,1107,0,0
350,-83,0,0,0,0,0,0,0,0,0,-1,1574,1107,0,0
357,-83,0,0,0,0,0,0,0,0,0,-1,1581,1107,0,0
364,-83,0,0,0,0,0,0,0,0,0,-1,1588,1107,0,0
371,-83,0,0,0,0,0,0,0,0,0,-1,1595,1107,0,0
378,-83,0,0,0,0,0,0,0,0,0,-1,1602,1107,0,0
385,-83,0,0,0,0,0,0,0,0,0,-1,1609,1107,0,0
392,-83,0,0,0,0,0,0,0,0,0,-1,1616,1107,0,0
399,-83,0,0,0,0,0,0,0,0,0,-1,1623,1107,0,0
406,-83,0,0,0,0,0,0,0,0,0,-1,1630,1107,0,0
413,-83,0,0,0,0,0,0,0,0,0,-1,1637,1107,0,0
420,-83,0,0,0,0,0,0,0,0,0,-1,1644,1107,0,0
427,-83,0,0,0,0,0,0,0,0,0,-1,1651,1107,0,0
434,-83,0,0,0,0,0,0,0,0,0,-1,1658,1107,0,0
441,-83,0,0,0,0,0,0,0,0,0,-1,1665,1107,0,0
448,-83,0,0,0,0,0,0,0,0,0,-1,1672,1107,0,0
455,-83,0,0,0,0,0,0,0,0,0,-1,1679,1107,0,0
462,-83,0,0,0,0,0,0,0,0,0,-1,1686,1107,0,0
469,-83,0,0,0,0,0,0,0,0,0,-1,1693,1107,0,0
476,-83,0,0,0,0,0,0,0,0,0,-1,1700,1107,0,0
483,-83,0,0,0,0,0,0,0,0,0,-1,1707,1107,0,0
490,-83,0,0,0,0,0,0,0,0,0,-1,1714,1107,0,0
497,-83,0,0,0,0,0,0,0,0,0,-1,1721,1107,0,0
504,-83,0,0,0,0,0,0,0,0,0,-1,1728,1107,0,0
511,-83,0,0,0,0,0,0,0,0,0,-1,1735,1107,0,0
518,-83,0,0,0,0,0,0,0,0,0,-1,1742,1107,0,0
525,-83,0,0,0,0,0,0,0,0,0,-1,1749,1107,0,0
532,-83,0,0,0,0,0,0,0,0,0,-1,1756,1107,0,0
539,-83,0,0,0,0,0,0,0,0,0,-1,1763,1107,0,0
546,-83,0,0,0,0,0,0,0,0,0,-1,1770,1107,0,0
553,-83,0,0,0,0,0,0,0,0,0,-1,1777,1107,0,0
560,-83,0,0,0,0,0,0,0,0,0,-1,1784,1107,0,0
567,-83,0,0,0,0,0,0,0,0,0,-1,1791,1107,0,0
574,-83,0,0,0,0,0,0,0,0,0,-1,1798,1107,0,0
581,-83,0,0,0,0,0,0,0,0,0,-1,1805,1107,0,0
588,-83,0,0,0,0,0,0,0,0,0,-1,1812,1107,0,0
595,-83,0,0,0,0,0,0,0,0,0,-1,1819,1107,0,0
602,-83,0,0,0,0,0,0,0,0,0,-1,1826,1107,0,0
609,-83,0,0,0,0,0,0,0,0,0,-1,1833,1107,0,0
616,-83,0,0,0,0,0,0,0,0,0,-1,1840,1107,0,0
623,-83,0,0,0,0,0,0,0,0,0,-1,1847,1107,0,0
630,-83,0,0,0,0,0,0,0,0,0,-1,1854,1107,0,0
637,-83,0,0,0,0,0,0,0,0,0,-1,1861,1107,0,0
644,-83,40.5803,2.63782,-0.00188422,-0.00552927,-0.00225957,-0.000803772,-0.00660972,-0.446028,0.0041645,0.0348383,1868,1107,40.5804,-2.63782
651,-83,40.5208,2.76587,-0.00116707,-0.00387118,-0.00177601,-0.000287031,-0.00475122,-0.460055,0.00307627,0.0401961,1875,1107,40.5207,-2.76585
658,-83,40.4452,2.72241,-0.000436859,-0.0027557,-0.001369,0.000197711,-0.00339027,-0.434048,0.00232888,0.0467565,1882,1107,40.4451,-2.72245
665,-83,40.4794,2.72498,5.29951e-05,-0.00194999,-0.000938846,0.000424244,-0.00232124,-0.376562,0.00170657,0.0433733,1889,1107,40.4794,-2.72501
672,-83,40.5099,2.74597,0.000544425,-0.00147577,-0.000455186,0.000642249,-0.00157359,-0.211691,0.00131645,0.0395392,1896,1107,40.5098,-2.74596
679,-83,40.5515,2.77063,0.000499212,-0.00133698,0.000171901,0.000515167,-0.00135294,0.0925466,0.00111412,0.039602,1903,1107,40.5516,-2.77058
686,-83,40.6693,2.78027,0.000148661,-0.00144372,0.000730223,0.000432815,-0.00172788,0.371104,0.00132006,0.0361952,1910,1107,40.6693,-2.78028
693,-83,40.7295,2.71765,-0.000145661,-0.00160918,0.00117907,0.000510269,-0.00226511,0.507675,0.0017058,0.0362111,1917,1107,40.7295,-2.71761
700,-83,40.7107,2.67749,-0.00050755,-0.00164741,0.00155702,0.000580572,-0.00273553,0.609953,0.00204487,0.0326627,1924,1107,40.7107,-2.67749
707,-83,40.652,2.64307,-0.0008156,-0.00163653,0.00189595,0.000713802,-0.00316594,0.678795,0.00238444,0.0242378,1931,1107,40.6519,-2.64311
714,-83,40.6448,2.60413,0,0,0,0,0,0,0,-1,1938,1107,40.6448,-2.60418
721,-83,38.6771,6.32251,0,0,0,0,0,0,0,-1,1945,1107,38.6772,-6.32257
728,-83,38.677,6.07178,-0.00224953,-0.00102821,0.00243442,0.000870971,-0.00414871,0.908285,0.00309722,0.0330823,1952,1107,38.677,-6.07174
735,-83,38.4481,5.84094,-0.00277579,-0.000572479,0.00236255,0.000932645,-0.00428091,1.00356,0.0032103,0.0344842,1959,1107,38.4481,-5.84091
742,-83,38.5901,5.61267,-0.00304791,9.90422e-05,0.00231166,0.00132192,-0.00427079,1.08422,0.00337525,0.0215268,1966,1107,38.59,-5.61266
749,-83,38.6398,5.36609,-0.00234264,0.00129509,0.00185518,0.0020743,-0.00312184,1.17315,0.00302025,0.0160933,1973,1107,38.6397,-5.36615
756,-83,38.6569,5.12756,-0.000463941,0.00287152,0.000974659,0.00313545,-0.000727863,1.30635,0.00237046,0.0155819,1980,1107,38.6569,-5.1275
763,-83,38.6423,4.88855,0.00334885,0.00583126,0.000104735,0.00583567,0.00334443,1.52871,0.00338121,0.0122247,1987,1107,38.6423,-4.88855
770,-83,38.577,4.71704,0.00820296,0.0092007,-0.0012025,0.0100037,0.00739996,-0.982025,0.00599283,0.0150258,1994,1107,38.577,-4.71701
777,-83,38.5132,4.52661,0.0151313,0.0132635,-0.00260236,0.0169623,0.0114325,-0.613119,0.00998887,0.0169713,2001,1107,38.5131,-4.5266
784,-83,38.3947,4.37292,0.0239161,0.0180809,-0.00409312,0.026025,0.015972,-0.475766,0.0151545,0.0268282,2008,1107,38.3946,-4.3729
791,-83,37.4756,4.75269,0,0,0,0,0,0,0,-1,2015,1107,37.4757,-4.75264
798,-83,38.4863,4.75208,0.0496548,0.0313663,-0.00718022,0.0521369,0.0288841,-0.332831,0.0301597,0.0484702,2022,1107,38.4864,-4.75214
805,-83,39.4741,4.77441,0.0681759,0.0406287,-0.00861649,0.070649,0.0381556,-0.279508,0.0408329,0.0459302,2029,1107,39.4741,-4.77443
812,-83,40.5862,4.80762,0.0913705,0.052392,-0.00951034,0.0935671,0.0501954,-0.226993,0.0540688,0.0468726,2036,1107,40.5862,-4.8076
-700,-90,0,0,0,0,0,0,0,0,0,-1,524,1114,0,0
-693,-90,-28.222,-2.9231,-0.0132415,0.0602352,-0.0139341,0.0627889,-0.0157952,-1.38954,0.0479986,0.0448986,531,1114,-28.222,2.92309
-686,-90,-28.1818,-1.91309,-0.00651319,0.0496336,-0.00599569,0.0502667,-0.00714631,-1.46559,0.0361296,0.0423903,538,1114,-28.1818,1.91314
-679,-90,-28.3709,-1.10706,0,0,0,0,0,0,0,-1,545,1114,-28.3709,1.10703
-672,-90,-28.3752,-0.431396,0.00129686,0.0329995,0.00194154,0.0331179,0.0011784,1.50986,0.0216965,0.0450386,552,1114,-28.3752,0.431386
-665,-90,-28.3704,-0.00622559,0.00311102,0.0264399,0.00352675,0.0269614,0.00258952,1.42399,0.0171763,0.0475221,559,1114,-28.3704,0.00620981
-658,-90,-27.9145,0.474487,0.00394134,0.0208268,0.0041308,0.0217832,0.00298496,1.34328,0.0136365,0.0448564,566,1114,-27.9145,-0.47447
-651,-90,-27.434,1.0271,0.00417264,0.0160298,0.00410187,0.0173105,0.00289196,1.26817,0.0107073,0.0316232,573,1114,-27.434,-1.02709
-644,-90,-27.473,1.48633,0.00395918,0.0118212,0.00384258,0.0133873,0.00239308,1.18379,0.0082438,0.0140968,580,1114,-27.473,-1.48633
-637,-90,-27.4937,1.87195,0.00426173,0.00746235,0.00366474,0.00986095,0.00186313,0.991259,0.00604933,0.0117839,587,1114,-27.4937,-1.87193
-630,-90,-27.5162,2.15283,0.00351779,0.00427937,0.00214953,0.00608158,0.00171558,0.873064,0.00362064,0.0119085,594,1114,-27.5162,-2.15288
-623,-90,-27.5291,2.41943,0.00280492,0.00245633,0.000721517,0.0033729,0.00188835,0.666883,0.00195199,0.0103414,601,1114,-27.529,-2.41938
-616,-90,-27.5502,2.73657,0.002441,0.00159493,0.000245681,0.00250717,0.00152876,0.263075,0.00145909,0.0118468,608,1114,-27.5503,-2.73658
-609,-90,-27.5463,2.99219,0.00240641,0.00106635,-9.11304e-05,0.00241258,0.00106018,-0.0675899,0.0013963,0.0166375,615,1114,-27.5464,-2.99216
-602,-90,-27.6139,3.26416,0.00231063,0.00080625,-0.000256635,0.0023532,0.000763675,-0.1644,0.00138623,0.0170578,622,1114,-27.6139,-3.26421
-595,-90,-27.5071,3.60852,0.00195561,0.000907888,-0.000230999,0.00200428,0.000859219,-0.207653,0.00116109,0.0137722,629,1114,-27.5071,-3.60857
-588,-90,-27.4723,3.83057,0,0,0,0,0,0,0,-1,636,1114,-27.4723,-3.83061
-581,-90,-29.6675,0.696655,0,0,0,0,0,0,0,-1,643,1114,-29.6676,-0.696679
-574,-90,-29.6338,0.656982,0.00199261,0.00135785,-0.000218312,0.00206045,0.00129002,-0.301266,0.00120214,0.0378698,650,1114,-29.6338,-0.656937
-567,-90,-29.6608,0.576172,0.00194166,0.00169253,-0.000227553,0.00207651,0.00155768,-0.534976,0.00124788,0.0387732,657,1114,-29.6608,-0.576196
-560,-90,-29.6685,0.608765,0.0017421,0.00202102,-0.000368441,0.00227551,0.00148761,-0.966323,0.00133431,0.0386628,664,1114,-29.6685,-0.608741
-553,-90,-29.5125,0.943604,0.00122075,0.00221442,-0.000798163,0.00265775,0.000777418,-1.06379,0.00157788,0.0378953,671,1114,-29.5125,-0.94364
-546,-90,-29.5277,1.14453,0.00053383,0.00205166,-0.0016775,0.00313393,-0.000548441,-0.997825,0.00229406,0.0398691,678,1114,-29.5277,-1.14458
-539,-90,-29.6887,0.994629,0.000385675,0.00105386,-0.00318193,0.00391919,-0.00247965,-0.837705,0.00372541,0.040434,685,1114,-29.6887,-0.994688
-532,-90,-29.6661,0.636475,0.000540084,-0.000113649,-0.0053011,0.00552438,-0.00509795,-0.754607,0.00613445,0.041242,692,1114,-29.6661,-0.636497
-525,-90,0,0,0,0,0,0,0,0,0,-1,699,1114,0,0
-518,-90,0,0,0,0,0,0,0,0,0,-1,706,1114,0,0
-511,-90,0,0,0,0,0,0,0,0,0,-1,713,1114,0,0
-504,-90,0,0,0,0,0,0,0,0,0,-1,720,1114,0,0
-497,-90,0,0,0,0,0,0,0,0,0,-1,727,1114,0,0
-490,-90,0,0,0,0,0,0,0,0,0,-1,734,1114,0,0
-483,-90,0,0,0,0,0,0,0,0,0,-1,741,1114,0,0
-476,-90,0,0,0,0,0,0,0,0,0,-1,748,1114,0,0
-469,-90,0,0,0,0,0,0,0,0,0,-1,755,1114,0,0
-462,-90,0,0,0,0,0,0,0,0,0,-1,762,1114,0,0
-455,-90,0,0,0,0,0,0,0,0,0,-1,769,1114,0,0
-448,-90,0,0,0,0,0,0,0,0,0,-1,776,1114,0,0
-441,-90,0,0,0,0,0,0,0,0,0,-1,783,1114,0,0
-434,-90,0,0,0,0,0,0,0,0,0,-1,790,1114,0,0
-427,-90,0,0,0,0,0,0,0,0,0,-1,797,1114,0,0
-420,-90,0,0,0,0,0,0,0,0,0,-1,804,1114,0,0
-413,-90,0,0,0,0,0,0,0,0,0,-1,811,1114,0,0
-406,-90,0,0,0,0,0,0,0,0,0,-1,818,1114,0,0
-399,-90,0,0,0,0,0,0,0,0,0,-1,825,1114,0,0
-392,-90,0,0,0,0,0,0,0,0,0,-1,832,1114,0,0
-385,-90,0,0,0,0,0,0,0,0,0,-1,839,1114,0,0
-378,-90,0,0,0,0,0,0,0,0,0,-1,846,1114,0,0
-371,-90,0,0,0,0,0,0,0,0,0,-1,853,1114,0,0
-364,-90,0,0,0,0,0,0,0,0,0,-1,860,1114,0,0
-357,-90,0,0,0,0,0,0,0,0,0,-1,867,1114,0,0
-350,-90,0,0,0,0,0,0,0,0,0,-1,874,1114,0,0
-343,-90,0,0,0,0,0,0,0,0,0,-1,881,1114,0,0
-336,-90,0,0,0,0,0,0,0,0,0,-1,888,1114,0,0
-329,-90,0,0,0,0,0,0,0,0,0,-1,895,1114,0,0
-322,-90,0,0,0,0,0,0,0,0,0,-1,902,1114,0,0
-315,-90,0,0,0,0,0,0,0,0,0,-1,909,1114,0,0
-308,-90,0,0,0,0,0,0,0,0,0,-1,916,1114,0,0
-301,-90,0,0,0,0,0,0,0,0,0,-1,923,1114,0,0
-294,-90,0,0,0,0,0,0,0,0,0,-1,930,1114,0,0
-287,-90,0,0,0,0,0,0,0,0,0,-1,937,1114,0,0
-280,-90,0,0,0,0,0,0,0,0,0,-1,944,1114,0,0
-273,-90,0,0,0,0,0,0,0,0,0,-1,951,1114,0,0
-266,-90,0,0,0,0,0,0,0,0,0,-1,958,1114,0,0
-259,-90,0,0,0,0,0,0,0,0,0,-1,965,1114,0,0
-252,-90,0,0,0,0,0,0,0,0,0,-1,972,1114,0,0
-245,-90,0,0,0,0,0,0,0,0,0,-1,979,1114,0,0
-238,-90,0,0,0,0,0,0,0,0,0,-1,986,1114,0,0
-231,-90,0,0,0,0,0,0,0,0,0,-1,993,1114,0,0
-224,-90,0,0,0,0,0,0,0,0,0,-1,1000,1114,0,0
-217,-90,0,0,0,0,0,0,0,0,0,-1,1007,1114,0,0
-210,-90,0,0,0,0,0,0,0,0,0,-1,1014,1114,0,0
-203,-90,0,0,0,0,0,0,0,0,0,-1,1021,1114,0,0
-196,-90,0,0,0,0,0,0,0,0,0,-1,1028,1114,0,0
-189,-90,0,0,0,0,0,0,0,0,0,-1,1035,1114,0,0
-182,-90,0,0,0,0,0,0,0,0,0,-1,1042,1114,0,0
-175,-90,0,0,0,0,0,0,0,0,0,-1,1049,1114,0,0
-168,-90,0,0,0,0,0,0,0,0,0,-1,1056,1114,0,0
-161,-90,0,0,0,0,0,0,0,0,0,-1,1063,1114,0,0
-154,-90,0,0,0,0,0,0,0,0,0,-1,1070,1114,0,0
-147,-90,0,0,0,0,0,0,0,0,0,-1,1077,1114,0,0
-140,-90,0,0,0,0,0,0,0,0,0,-1,1084,1114,0,0
-133,-90,0,0,0,0,0,0,0,0,0,-1,1091,1114,0,0
-126,-90,0,0,0,0,0,0,0,0,0,-1,1098,1114,0,0
-119,-90,0,0,0,0,0,0,0,0,0,-1,1105,1114,0,0
-112,-90,0,0,0,0,0,0,0,0,0,-1,1112,1114,0,0
-105,-90,0,0,0,0,0,0,0,0,0,-1,1119,1114,0,0
-98,-90,0,0,0,0,0,0,0,0,0,-1,1126,1114,0,0
-91,-90,0,0,0,0,0,0,0,0,0,-1,1133,1114,0,0
-84,-90,0,0,0,0,0,0,0,0,0,-1,1140,1114,0,0
-77,-90,0,0,0,0,0,0,0,0,0,-1,1147,1114,0,0
-70,-90,0,0,0,0,0,0,0,0,0,-1,1154,1114,0,0
-63,-90,0,0,0,0,0,0,0,0,0,-1,1161,1114,0,0
-56,-90,0,0,0,0,0,0,0,0,0,-1,1168,1114,0,0
-49,-90,0,0,0,0,0,0,0,0,0,-1,1175,1114,0,0
-42,-90,0,0,0,0,0,0,0,0,0,-1,1182,1114,0,0
-35,-90,0,0,0,0,0,0,0,0,0,-1,1189,1114,0,0
-28,-90,0,0,0,0,0,0,0,0,0,-1,1196,1114,0,0
-21,-90,0,0,0,0,0,0,0,0,0,-1,1203,1114,0,0
-14,-90,0,0,0,0,0,0,0,0,0,-1,1210,1114,0,0
-7,-90,0,0,0,0,0,0,0,0,0,-1,1217,1114,0,0
0,-90,0,0,0,0,0,0,0,0,0,-1,1224,1114,0,0
7,-90,0,0,0,0,0,0,0,0,0,-1,1231,1114,0,0
14,-90,0,0,0,0,0,0,0,0,0,-1,1238,1114,0,0
21,-90,0,0,0,0,0,0,0,0,0,-1,1245,1114,0,0
28,-90,0,0,0,0,0,0,0,0,0,-1,1252,1114,0,0
35,-90,0,0,0,0,0,0,0,0,0,-1,1259,1114,0,0
42,-90,0,0,0,0,0,0,0,0,0,-1,1266,1114,0,0
49,-90,0,0,0,0,0,0,0,0,0,-1,1273,1114,0,0
56,-90,0,0,0,0,0,0,0,0,0,-1,1280,1114,0,0
63,-90,0,0,0,0,0,0,0,0,0,-1,1287,1114,0,0
70,-90,0,0,0,0,0,0,0,0,0,-1,1294,1114,0,0
77,-90,0,0,0,0,0,0,0,0,0,-1,1301,1114,0,0
84,-90,0,0,0,0,0,0,0,0,0,-1,1308,1114,0,0
91,-90,0,0,0,0,0,0,0,0,0,-1,1315,1114,0,0
98,-90,0,0,0,0,0,0,0,0,0,-1,1322,1114,0,0
105,-90,0,0,0,0,0,0,0,0,0,-1,1329,1114,0,0
112,-90,0,0,0,0,0,0,0,0,0,-1,1336,1114,0,0
119,-90,0,0,0,0,0,0,0,0,0,-1,1343,1114,0,0
126,-90,0,0,0,0,0,0,0,0,0,-1,1350,1114,0,0
133,-90,0,0,0,0,0,0,0,0,0,-1,1357,1114,0,0
140,-90,0,0,0,0,0,0,0,0,0,-1,1364,1114,0,0
147,-90,0,0,0,0,0,0,0,0,0,-1,1371,1114,0,0
154,-90,0,0,0,0,0,0,0,0,0,-1,1378,1114,0,0
161,-90,0,0,0,0,0,0,0,0,0,-1,1385,1114,0,0
168,-90,0,0,0,0,0,0,0,0,0,-1,1392,1114,0,0
175,-90,0,0,0,0,0,0,0,0,0,-1,1399,1114,0,0
182,-90,0,0,0,0,0,0,0,0,0,-1,1406,1114,0,0
189,-90,0,0,0,0,0,0,0,0,0,-1,1413,1114,0,0
196,-90,0,0,0,0,0,0,0,0,0,-1,1420,1114,0,0
203,-90,0,0,0,0,0,0,0,0,0,-1,1427,1114,0,0
210,-90,0,0,0,0,0,0,0,0,0,-1,1434,1114,0,0
217,-90,0,0,0,0,0,0,0,0,0,-1,1441,1114,0,0
224,-90,0,0,0,0,0,0,0,0,0,-1,1448,1114,0,0
231,-90,0,0,0,0,0,0,0,0,0,-1,1455,1114,0,0
238,-90,0,0,0,0,0,0,0,0,0,-1,1462,1114,0,0
245,-90,0,0,0,0,0,0,0,0,0,-1,1469,1114,0,0
252,-90,0,0,0,0,0,0,0,0,0,-1,1476,1114,0,0
259,-90,0,0,0,0,0,0,0,0,0,-1,1483,1114,0,0
266,-90,0,0,0,0,0,0,0,0,0,-1,1490,1114,0,0
273,-90,0,0,0,0,0,0,0,0,0,-1,1497,1114,0,0
280,-90,0,0,0,0,0,0,0,0,0,-1,1504,1114,0,0
287,-90,0,0,0,0,0,0,0,0,0,-1,1511,1114,0,0
294,-90,0,0,0,0,0,0,0,0,0,-1,1518,1114,0,0
301,-90,0,0,0,0,0,0,0,0,0,-1,1525,1114,0,0
308,-90,0,0,0,0,0,0,0,0,0,-1,1532,1114,0,0
315,-90,0,0,0,0,0,0,0,0,0,-1,1539,1114,0,0
322,-90,0,0,0,0,0,0,0,0,0,-1,1546,1114,0,0
329,-90,0,0,0,0,0,0,0,0,0,-1,1553,1114,0,0
336,-90,0,0,0,0,0,0,0,0,0,-1,1560,1114,0,0
343,-90,0,0,0,0,0,0,0,0,0,-1,1567,1114,0,0
350,-90,0,0,0,0,0,0,0,0,0,-1,1574,1114,0,0
357,-90,0,0,0,0,0,0,0,0,0,-1,1581,1114,0,0
364,-90,0,0,0,0,0,0,0,0,0,-1,1588,1114,0,0
371,-90,0,0,0,0,0,0,0,0,0,-1,1595,1114,0,0
378,-90,0,0,0,0,0,0,0,0,0,-1,1602,1114,0,0
385,-90,0,0,0,0,0,0,0,0,0,-1,1609,1114,0,0
392,-90,0,0,0,0,0,0,0,0,0,-1,1616,1114,0,0
399,-90,0,0,0,0,0,0,0,0,0,-1,1623,1114,0,0
406,-90,0,0,0,0,0,0,0,0,0,-1,1630,1114,0,0
413,-90,0,0,0,0,0,0,0,0,0,-1,1637,1114,0,0
420,-90,0,0,0,0,0,0,0,0,0,-1,1644,1114,0,0
427,-90,0,0,0,0,0,0,0,0,0,-1,1651,1114,0,0
434,-90,0,0,0,0,0,0,0,0,0,-1,1658,1114,0,0
441,-90,0,0,0,0,0,0,0,0,0,-1,1665,1114,0,0
448,-90,0,0,0,0,0,0,0,0,0,-1,1672,1114,0,0
455,-90,0,0,0,0,0,0,0,0,0,-1,1679,1114,0,0
462,-90,0,0,0,0,0,0,0,0,0,-1,1686,1114,0,0
469,-90,0,0,0,0,0,0,0,0,0,-1,1693,1114,0,0
476,-90,0,0,0,0,0,0,0,0,0,-1,1700,1114,0,0
483,-90,0,0,0,0,0,0,0,0,0,-1,1707,1114,0,0
490,-90,0,0,0,0,0,0,0,0,0,-1,1714,1114,0,0
497,-90,0,0,0,0,0,0,0,0,0,-1,1721,1114,0,0
504,-90,0,0,0,0,0,0,0,0,0,-1,1728,1114,0,0
511,-90,0,0,0,0,0,0,0,0,0,-1,1735,1114,0,0
518,-90,0,0,0,0,0,0,0,0,0,-1,1742,1114,0,0
525,-90,0,0,0,0,0,0,0,0,0,-1,1749,1114,0,0
532,-90,0,0,0,0,0,0,0,0,0,-1,1756,1114,0,0
539,-90,0,0,0,0,0,0,0,0,0,-1,1763,1114,0,0
546,-90,0,0,0,0,0,0,0,0,0,-1,1770,1114,0,0
553,-90,0,0,0,0,0,0,0,0,0,-1,1777,1114,0,0
560,-90,0,0,0,0,0,0,0,0,0,-1,1784,1114,0,0
567,-90,0,0,0,0,0,0,0,0,0,-1,1791,1114,0,0
574,-90,0,0,0,0,0,0,0,0,0,-1,1798,1114,0,0
581,-90,0,0,0,0,0,0,0,0,0,-1,1805,1114,0,0
588,-90,0,0,0,0,0,0,0,0,0,-1,1812,1114,0,0
595,-90,0,0,0,0,0,0,0,0,0,-1,1819,1114,0,0
602,-90,0,0,0,0,0,0,0,0,0,-1,1826,1114,0,0
609,-90,0,0,0,0,0,0,0,0,0,-1,1833,1114,0,0
616,-90,0,0,0,0,0,0,0,0,0,-1,1840,1114,0,0
623,-90,0,0,0,0,0,0,0,0,0,-1,1847,1114,0,0
630,-90,0,0,0,0,0,0,0,0,0,-1,1854,1114,0,0
637,-90,0,0,0,0,0,0,0,0,0,-1,1861,1114,0,0
644,-90,40.5928,2.67615,-0.00130751,-0.00544568,-0.00419711,0.00130282,-0.008056,-0.556391,0.00585347,0.0353681,1868,1114,40.5928,-2.67613
651,-90,40.5608,2.95618,-0.000847263,-0.00383705,-0.00328229,0.00126453,-0.00594884,-0.571713,0.00444773,0.0391084,1875,1114,40.5607,-2.95615
658,-90,40.481,2.74536,-0.000236461,-0.00274596,-0.00252396,0.00132744,-0.00430986,-0.554722,0.00340314,0.0448928,1882,1114,40.4809,-2.74536
665,-90,40.5045,2.78503,0.000178791,-0.00195193,-0.00182156,0.00122366,-0.0029968,-0.520792,0.00250735,0.0446759,1889,1114,40.5046,-2.78503
672,-90,40.5479,2.65955,0.00060352,-0.00147757,-0.00113167,0.00110032,-0.00197437,-0.413663,0.00179892,0.0433754,1896,1114,40.5478,-2.65954
679,-90,40.5651,2.63171,0.000510642,-0.00134281,-0.000371136,0.000582196,-0.00141436,-0.19046,0.00118562,0.0399471,1903,1114,40.565,-2.63166
686,-90,40.6254,2.61572,0.000192486,-0.00143948,0.000237688,0.0002264,-0.00147339,0.141724,0.00106577,0.0338818,1910,1114,40.6254,-2.61567
693,-90,40.6506,2.60876,-4.73328e-05,-0.00158446,0.000705719,0.000227525,-0.00185932,0.371399,0.00132193,0.0333819,1917,1114,40.6506,-2.60877
700,-90,40.7029,2.62317,-0.000344511,-0.00159983,0.00110823,0.000301462,-0.0022458,0.52774,0.00160714,0.0313389,1924,1114,40.7029,-2.62321
707,-90,40.6393,2.59644,-0.000610278,-0.00159273,0.0014698,0.000448214,-0.00265122,0.624128,0.00193428,0.024618,1931,1114,40.6393,-2.59642
714,-90,40.629,2.59326,0,0,0,0,0,0,0,-1,1938,1114,40.629,-2.59331
721,-90,38.3875,6.35547,0,0,0,0,0,0,0,-1,1945,1114,38.3874,-6.35542
728,-90,38.3865,6.16248,-0.00190886,-0.00102874,0.00206829,0.000645789,-0.00358338,0.890218,0.00263074,0.0253866,1952,1114,38.3865,-6.16249
735,-90,38.2499,5.87183,-0.00238421,-0.000670049,0.00202973,0.000676142,-0.00373041,0.985173,0.00274027,0.0291749,1959,1114,38.2499,-5.87181
742,-90,38.3142,5.58032,-0.00250553,-4.45543e-05,0.00205639,0.00112138,-0.00367146,1.05501,0.00289476,0.0263777,1966,1114,38.3142,-5.58029
749,-90,38.4828,5.27454,-0.00169828,0.00107514,0.00168287,0.00186903,-0.00249217,1.13001,0.00252649,0.0188638,1973,1114,38.4828,-5.27451
756,-90,38.4618,5.07214,0.00014192,0.00250276,0.000844339,0.00277365,-0.000128969,1.26034,0.00189355,0.0166995,1980,1114,38.4618,-5.07212
763,-90,38.4077,4.85474,0.00407448,0.00539306,4.5109e-05,0.0053946,0.00407294,1.53664,0.00324679,0.0127196,1987,1114,38.4077,-4.85472
770,-90,38.3732,4.62378,0.00906392,0.00857182,-0.0011843,0.0100275,0.00760828,-0.682974,0.00604223,0.01599,1994,1114,38.3731,-4.62377
777,-90,38.3322,4.45105,0.0159087,0.0123391,-0.00255121,0.0172375,0.0110103,-0.480168,0.010079,0.0156236,2001,1114,38.3322,-4.45099
784,-90,38.202,4.3623,0.0245836,0.0168592,-0.00406612,0.0263294,0.0151134,-0.405557,0.0152567,0.0278413,2008,1114,38.202,-4.3623
791,-90,37.6123,4.23694,0,0,0,0,0,0,0,-1,2015,1114,37.6124,-4.23692
798,-90,38.6914,4.1073,0.0498795,0.029517,-0.00749519,0.0523409,0.0270556,-0.317297,0.0302248,0.0451948,2022,1114,38.6913,-4.1073
805,-90,39.7236,4.08289,0.0677896,0.0384453,-0.00928039,0.0704782,0.0357566,-0.281994,0.0406921,0.0454655,2029,1114,39.7236,-4.08285
812,-90,41.2734,3.64673,0.0899479,0.0499017,-0.0106784,0.0926174,0.0472322,-0.244968,0.0534762,0.0460576,2036,1114,41.2734,-3.64675
-700,-97,0,0,0,0,0,0,0,0,0,-1,524,1121,0,0
-693,-97,-27.8559,-2.37659,-0.0192135,0.0517951,-0.00723515,0.0525248,-0.0199432,-1.47028,0.043226,0.0463837,531,1121,-27.8559,2.37664
-686,-97,-27.6909,-1.68774,-0.010088,0.0430625,-0.000891646,0.0430775,-0.0101029,-1.55403,0.0326119,0.0448262,538,1121,-27.6909,1.68778
-679,-97,-27.6739,-0.984985,-0.0037729,0.0357074,0.00271862,0.0358938,-0.00395923,1.50237,0.0253522,0.0455363,545,1121,-27.6739,0.985021
-672,-97,-27.8446,-0.16626,0.000450129,0.0293469,0.00459844,0.030061,-0.00026399,1.41673,0.0201292,0.0456846,552,1121,-27.8446,0.166269
-665,-97,-28.2285,-0.0441895,0,0,0,0,0,0,0,-1,559,1121,-28.2285,0.0442099
-658,-97,-27.5787,0.240601,0.00421583,0.0189029,0.00528147,0.0206049,0.00251384,1.25905,0.01298,0.0436592,566,1121,-27.5788,-0.240584
-651,-97,-27.1832,1.07788,0.00462271,0.0146283,0.00478447,0.0165479,0.00270313,1.18925,0.0102504,0.03135,573,1121,-27.1832,-1.07787
-644,-97,-27.1896,1.5011,0.0045243,0.0108219,0.00412623,0.0128636,0.00248266,1.11132,0.00787962,0.010926,580,1121,-27.1896,-1.50105
-637,-97,-27.1916,1.85144,0.00489707,0.00691445,0.00377674,0.00981489,0.00199664,0.915892,0.00598969,0.0114898,587,1121,-27.1916,-1.85141
-630,-97,-27.2102,2.12122,0.00405159,0.00399211,0.00231184,0.00633389,0.00170982,0.778966,0.0037837,0.0101791,594,1121,-27.2102,-2.12121
-623,-97,-27.2236,2.40759,0.003163,0.00218983,0.000966292,0.0037583,0.00159452,0.552153,0.00217814,0.0123995,601,1121,-27.2236,-2.40762
-616,-97,-27.2454,2.73462,0.00264162,0.0013075,0.000660838,0.00291354,0.00103558,0.390356,0.00170541,0.0171957,608,1121,-27.2454,-2.73465
-609,-97,-27.3171,3.03833,0.00252575,0.000775282,0.000518385,0.00266774,0.000633285,0.267363,0.00160948,0.023021,615,1121,-27.3171,-3.0383
-602,-97,-27.3414,3.27808,0.00243715,0.000584684,0.000450194,0.00254077,0.000481072,0.226212,0.00155844,0.0209723,622,1121,-27.3415,-3.27812
-595,-97,-27.2327,3.59204,0.00199677,0.000708577,0.00056662,0.00221053,0.000494816,0.360747,0.00133956,0.0174948,629,1121,-27.2326,-3.59208
-588,-97,-27.2466,3.88013,0,0,0,0,0,0,0,-1,636,1121,-27.2467,-3.88012
-581,-97,-29.6866,0.758057,0,0,0,0,0,0,0,-1,643,1121,-29.6866,-0.758092
-574,-97,-29.6732,0.742432,0.00185877,0.00120843,0.000471649,0.00210648,0.000960726,0.4836,0.00121774,0.0467755,650,1121,-29.6731,-0.7424
-567,-97,-29.6903,0.60498,0.00178071,0.00156316,0.000395344,0.00208197,0.0012619,0.651152,0.00121102,0.0384755,657,1121,-29.6903,-0.604989
-560,-97,-29.7217,0.768799,0.00154661,0.00194332,0.000149008,0.00199305,0.00149688,1.24865,0.00119806,0.0401715,664,1121,-29.7218,-0.768756
-553,-97,-29.5889,1.07605,0.000956696,0.00224451,-0.000450764,0.00238661,0.000814598,-1.26542,0.00140085,0.0439404,671,1121,-29.5889,-1.07599
-546,-97,-29.6139,1.17566,0.000178796,0.00226931,-0.00160371,0.00313833,-0.00069022,-1.07421,0.00235623,0.0434271,678,1121,-29.6139,-1.17571
-539,-97,-29.6877,0.984009,-5.91709e-05,0.00157727,-0.00345385,0.00430849,-0.00279039,-0.901705,0.00412966,0.0399752,685,1121,-29.6878,-0.984021
-532,-97,-29.7379,0.692871,0.000185212,0.000633928,-0.0056098,0.00602386,-0.00520472,-0.805384,0.00648857,0.0369039,692,1121,-29.7378,-0.692852
-525,-97,0,0,0,0,0,0,0,0,0,-1,699,1121,0,0
-518,-97,0,0,0,0,0,0,0,0,0,-1,706,1121,0,0
-511,-97,0,0,0,0,0,0,0,0,0,-1,713,1121,0,0
-504,-97,0,0,0,0,0,0,0,0,0,-1,720,1121,0,0
-497,-97,0,0,0,0,0,0,0,0,0,-1,727,1121,0,0
-490,-97,0,0,0,0,0,0,0,0,0,-1,734,1121,0,0
-483,-97,0,0,0,0,0,0,0,0,0,-1,741,1121,0,0
-476,-97,0,0,0,0,0,0,0,0,0,-1,748,1121,0,0
-469,-97,0,0,0,0,0,0,0,0,0,-1,755,1121,0,0
-462,-97,0,0,0,0,0,0,0,0,0,-1,762,1121,0,0
-455,-97,0,0,0,0,0,0,0,0,0,-1,769,1121,0,0
-448,-97,0,0,0,0,0,0,0,0,0,-1,776,1121,0,0
-441,-97,0,0,0,0,0,0,0,0,0,-1,783,1121,0,0
-434,-97,0,0,0,0,0,0,0,0,0,-1,790,1121,0,0
-427,-97,0,0,0,0,0,0,0,0,0,-1,797,1121,0,0
-420,-97,0,0,0,0,0,0,0,0,0,-1,804,1121,0,0
-413,-97,0,0,0,0,0,0,0,0,0,-1,811,1121,0,0
-406,-97,0,0,0,0,0,0,0,0,0,-1,818,1121,0,0
-399,-97,0,0,0,0,0,0,0,0,0,-1,825,1121,0,0
-392,-97,0,0,0,0,0,0,0,0,0,-1,832,1121,0,0
-385,-97,0,0,0,0,0,0,0,0,0,-1,839,1121,0,0
-378,-97,0,0,0,0,0,0,0,0,0,-1,846,1121,0,0
-371,-97,0,0,0,0,0,0,0,0,0,-1,853,1121,0,0
-364,-97,0,0,0,0,0,0,0,0,0,-1,860,1121,0,0
-357,-97,0,0,0,0,0,0,0,0,0,-1,867,1121,0,0
-350,-97,0,0,0,0,0,0,0,0,0,-1,874,1121,0,0
-343,-97,0,0,0,0,0,0,0,0,0,-1,881,1121,0,0
-336,-97,0,0,0,0,0,0,0,0,0,-1,888,1121,0,0
-329,-97,0,0,0,0,0,0,0,0,0,-1,895,1121,0,0
-322,-97,0,0,0,0,0,0,0,0,0,-1,902,1121,0,0
-315,-97,0,0,0,0,0,0,0,0,0,-1,909,1121,0,0
-308,-97,0,0,0,0,0,0,0,0,0,-1,916,1121,0,0
-301,-97,0,0,0,0,0,0,0,0,0,-1,923,1121,0,0
-294,-97,0,0,0,0,0,0,0,0,0,-1,930,1121,0,0
-287,-97,0,0,0,0,0,0,0,0,0,-1,937,1121,0,0
-280,-97,0,0,0,0,0,0,0,0,0,-1,944,1121,0,0
-273,-97,0,0,0,0,0,0,0,0,0,-1,951,1121,0,0
-266,-97,0,0,0,0,0,0,0,0,0,-1,958,1121,0,0
-259,-97,0,0,0,0,0,0,0,0,0,-1,965,1121,0,0
-252,-97,0,0,0,0,0,0,0,0,0,-1,972,1121,0,0
-245,-97,0,0,0,0,0,0,0,0,0,-1,979,1121,0,0
-238,-97,0,0,0,0,0,0,0,0,0,-1,986,1121,0,0
-231,-97,0,0,0,0,0,0,0,0,0,-1,993,1121,0,0
-224,-97,0,0,0,0,0,0,0,0,0,-1,1000,1121,0,0
-217,-97,0,0,0,0,0,0,0,0,0,-1,1007,1121,0,0
-210,-97,0,0,0,0,0,0,0,0,0,-1,1014,1121,0,0
-203,-97,0,0,0,0,0,0,0,0,0,-1,1021,1121,0,0
-196,-97,0,0,0,0,0,0,0,0,0,-1,1028,1121,0,0
-189,-97,0,0,0,0,0,0,0,0,0,-1,1035,1121,0,0
-182,-97,0,0,0,0,0,0,0,0,0,-1,1042,1121,0,0
-175,-97,0,0,0,0,0,0,0,0,0,-1,1049,1121,0,0
-168,-97,0,0,0,0,0,0,0,0,0,-1,1056,1121,0,0
-161,-97,0,0,0,0,0,0,0,0,0,-1,1063,1121,0,0
-154,-97,0,0,0,0,0,0,0,0,0,-1,1070,1121,0,0
-147,-97,0,0,0,0,0,0,0,0,0,-1,1077,1121,0,0
-140,-97,0,0,0,0,0,0,0,0,0,-1,1084,1121,0,0
-133,-97,0,0,0,0,0,0,0,0,0,-1,1091,1121,0,0
-126,-97,0,0,0,0,0,0,0,0,0,-1,1098,1121,0,0
-119,-97,0,0,0,0,0,0,0,0,0,-1,1105,1121,0,0
-112,-97,0,0,0,0,0,0,0,0,0,-1,1112,1121,0,0
-105,-97,0,0,0,0,0,0,0,0,0,-1,1119,1121,0,0
-98,-97,0,0,0,0,0,0,0,0,0,-1,1126,1121,0,0
-91,-97,0,0,0,0,0,0,0,0,0,-1,1133,1121,0,0
-84,-97,0,0,0,0,0,0,0,0,0,-1,1140,1121,0,0
-77,-97,0,0,0,0,0,0,0,0,0,-1,1147,1121,0,0
-70,-97,0,0,0,0,0,0,0,0,0,-1,1154,1121,0,0
-63,-97,0,0,0,0,0,0,0,0,0,-1,1161,1121,0,0
-56,-97,0,0,0,0,0,0,0,0,0,-1,1168,1121,0,0
-49,-97,0,0,0,0,0,0,0,0,0,-1,1175,1121,0,0
-42,-97,0,0,0,0,0,0,0,0,0,-1,1182,1121,0,0
-35,-97,0,0,0,0,0,0,0,0,0,-1,1189,1121,0,0
-28,-97,0,0,0,0,0,0,0,0,0,-1,1196,1121,0,0
-21,-97,0,0,0,0,0,0,0,0,0,-1,1203,1121,0,0
-14,-97,0,0,0,0,0,0,0,0,0,-1,1210,1121,0,0
-7,-97,0,0,0,0,0,0,0,0,0,-1,1217,1121,0,0
0,-97,0,0,0,0,0,0,0,0,0,-1,1224,1121,0,0
7,-97,0,0,0,0,0,0,0,0,0,-1,1231,1121,0,0
14,-97,0,0,0,0,0,0,0,0,0,-1,1238,1121,0,0
21,-97,0,0,0,0,0,0,0,0,0,-1,1245,1121,0,0
28,-97,0,0,0,0,0,0,0,0,0,-1,1252,1121,0,0
35,-97,0,0,0,0,0,0,0,0,0,-1,1259,1121,0,0
42,-97,0,0,0,0,0,0,0,0,0,-1,1266,1121,0,0
49,-97,0,0,0,0,0,0,0,0,0,-1,1273,1121,0,0
56,-97,0,0,0,0,0,0,0,0,0,-1,1280,1121,0,0
63,-97,0,0,0,0,0,0,0,0,0,-1,1287,1121,0,0
70,-97,0,0,0,0,0,0,0,0,0,-1,1294,1121,0,0
77,-97,0,0,0,0,0,0,0,0,0,-1,1301,1121,0,0
84,-97,0,0,0,0,0,0,0,0,0,-1,1308,1121,0,0
91,-97,0,0,0,0,0,0,0,0,0,-1,1315,1121,0,0
98,-97,0,0,0,0,0,0,0,0,0,-1,1322,1121,0,0
105,-97,0,0,0,0,0,0,0,0,0,-1,1329,1121,0,0
112,-97,0,0,0,0,0,0,0,0,0,-1,1336,1121,0,0
119,-97,0,0,0,0,0,0,0,0,0,-1,1343,1121,0,0
126,-97,0,0,0,0,0,0,0,0,0,-1,1350,1121,0,0
133,-97,0,0,0,0,0,0,0,0,0,-1,1357,1121,0,0
140,-97,0,0,0,0,0,0,0,0,0,-1,1364,1121,0,0
147,-97,0,0,0,0,0,0,0,0,0,-1,1371,1121,0,0
154,-97,0,0,0,0,0,0,0,0,0,-1,1378,1121,0,0
161,-97,0,0,0,0,0,0,0,0,0,-1,1385,1121,0,0
168,-97,0,0,0,0,0,0,0,0,0,-1,1392,1121,0,0
175,-97,0,0,0,0,0,0,0,0,0,-1,1399,1121,0,0
182,-97,0,0,0,0,0,0,0,0,0,-1,1406,1121,0,0
189,-97,0,0,0,0,0,0,0,0,0,-1,1413,1121,0,0
196,-97,0,0,0,0,0,0,0,0,0,-1,1420,1121,0,0
203,-97,0,0,0,0,0,0,0,0,0,-1,1427,1121,0,0
210,-97,0,0,0,0,0,0,0,0,0,-1,1434,1121,0,0
217,-97,0,0,0,0,0,0,0,0,0,-1,1441,1121,0,0
224,-97,0,0,0,0,0,0,0,0,0,-1,1448,1121,0,0
231,-97,0,0,0,0,0,0,0,0,0,-1,1455,1121,0,0
238,-97,0,0,0,0,0,0,0,0,0,-1,1462,1121,0,0
245,-97,0,0,0,0,0,0,0,0,0,-1,1469,1121,0,0
252,-97,0,0,0,0,0,0,0,0,0,-1,1476,1121,0,0
259,-97,0,0,0,0,0,0,0,0,0,-1,1483,1121,0,0
266,-97,0,0,0,0,0,0,0,0,0,-1,1490,1121,0,0
273,-97,0,0,0,0,0,0,0,0,0,-1,1497,1121,0,0
280,-97,0,0,0,0,0,0,0,0,0,-1,1504,1121,0,0
287,-97,0,0,0,0,0,0,0,0,0,-1,1511,1121,0,0
294,-97,0,0,0,0,0,0,0,0,0,-1,1518,1121,0,0
301,-97,0,0,0,0,0,0,0,0,0,-1,1525,1121,0,0
308,-97,0,0,0,0,0,0,0,0,0,-1,1532,1121,0,0
315,-97,0,0,0,0,0,0,0,0,0,-1,1539,1121,0,0
322,-97,0,0,0,0,0,0,0,0,0,-1,1546,1121,0,0
329,-97,0,0,0,0,0,0,0,0,0,-1,1553,1121,0,0
336,-97,0,0,0,0,0,0,0,0,0,-1,1560,1121,0,0
343,-97,0,0,0,0,0,0,0,0,0,-1,1567,1121,0,0
350,-97,0,0,0,0,0,0,0,0,0,-1,1574,1121,0,0
357,-97,0,0,0,0,0,0,0,0,0,-1,1581,1121,0,0
364,-97,0,0,0,0,0,0,0,0,0,-1,1588,1121,0,0
371,-97,0,0,0,0,0,0,0,0,0,-1,1595,1121,0,0
378,-97,0,0,0,0,0,0,0,0,0,-1,1602,1121,0,0
385,-97,0,0,0,0,0,0,0,0,0,-1,1609,1121,0,0
392,-97,0,0,0,0,0,0,0,0,0,-1,1616,1121,0,0
399,-97,0,0,0,0,0,0,0,0,0,-1,1623,1121,0,0
406,-97,0,0,0,0,0,0,0,0,0,-1,1630,1121,0,0
413,-97,0,0,0,0,0,0,0,0,0,-1,1637,1121,0,0
420,-97,0,0,0,0,0,0,0,0,0,-1,1644,1121,0,0
427,-97,0,0,0,0,0,0,0,0,0,-1,1651,1121,0,0
434,-97,0,0,0,0,0,0,0,0,0,-1,1658,1121,0,0
441,-97,0,0,0,0,0,0,0,0,0,-1,1665,1121,0,0
448,-97,0,0,0,0,0,0,0,0,0,-1,1672,1121,0,0
455,-97,0,0,0,0,0,0,0,0,0,-1,1679,1121,0,0
462,-97,0,0,0,0,0,0,0,0,0,-1,1686,1121,0,0
469,-97,0,0,0,0,0,0,0,0,0,-1,1693,1121,0,0
476,-97,0,0,0,0,0,0,0,0,0,-1,1700,1121,0,0
483,-97,0,0,0,0,0,0,0,0,0,-1,1707,1121,0,0
490,-97,0,0,0,0,0,0,0,0,0,-1,1714,1121,0,0
497,-97,0,0,0,0,0,0,0,0,0,-1,1721,1121,0,0
504,-97,0,0,0,0,0,0,0,0,0,-1,1728,1121,0,0
511,-97,0,0,0,0,0,0,0,0,0,-1,1735,1121,0,0
518,-97,0,0,0,0,0,0,0,0,0,-1,1742,1121,0,0
525,-97,0,0,0,0,0,0,0,0,0,-1,1749,1121,0,0
532,-97,0,0,0,0,0,0,0,0,0,-1,1756,1121,0,0
539,-97,0,0,0,0,0,0,0,0,0,-1,1763,1121,0,0
546,-97,0,0,0,0,0,0,0,0,0,-1,1770,1121,0,0
553,-97,0,0,0,0,0,0,0,0,0,-1,1777,1121,0,0
560,-97,0,0,0,0,0,0,0,0,0,-1,1784,1121,0,0
567,-97,0,0,0,0,0,0,0,0,0,-1,1791,1121,0,0
574,-97,0,0,0,0,0,0,0,0,0,-1,1798,1121,0,0
581,-97,0,0,0,0,0,0,0,0,0,-1,1805,1121,0,0
588,-97,0,0,0,0,0,0,0,0,0,-1,1812,1121,0,0
595,-97,0,0,0,0,0,0,0,0,0,-1,1819,1121,0,0
602,-97,0,0,0,0,0,0,0,0,0,-1,1826,1121,0,0
609,-97,0,0,0,0,0,0,0,0,0,-1,1833,1121,0,0
616,-97,0,0,0,0,0,0,0,0,0,-1,1840,1121,0,0
623,-97,0,0,0,0,0,0,0,0,0,-1,1847,1121,0,0
630,-97,0,0,0,0,0,0,0,0,0,-1,1854,1121,0,0
637,-97,0,0,0,0,0,0,0,0,0,-1,1861,1121,0,0
644,-97,40.6125,2.80994,-0.000627436,-0.00474596,-0.00576527,0.0034353,-0.0088087,-0.613868,0.00729246,0.0388758,1868,1121,40.6126,-2.80989
651,-97,40.6641,2.83252,-0.000440368,-0.00331178,-0.00443595,0.00278642,-0.00653857,-0.628892,0.00552716,0.0379482,1875,1121,40.664,-2.83249
658,-97,40.6062,2.84045,1.85385e-05,-0.00235303,-0.00337252,0.00240766,-0.00474215,-0.616347,0.00420065,0.0387636,1882,1121,40.6061,-2.84044
665,-97,40.6514,2.81885,0.000337053,-0.00166274,-0.00243436,0.00196887,-0.00329456,-0.590532,0.0030708,0.0426916,1889,1121,40.6514,-2.81882
672,-97,40.6914,2.78247,0.000693,-0.00127013,-0.00156444,0.00155831,-0.00213544,-0.505229,0.00214125,0.0438632,1896,1121,40.6914,-2.78245
679,-97,40.6215,2.76379,0.000586326,-0.00119419,-0.000710216,0.000834912,-0.00144278,-0.336688,0.00133054,0.0417508,1903,1121,40.6214,-2.76374
686,-97,40.5616,2.75159,0.000328128,-0.00130872,-7.90386e-05,0.000331936,-0.00131253,-0.0481379,0.00100412,0.0354483,1910,1121,40.5616,-2.75156
693,-97,40.6458,2.55811,0.000154867,-0.00145451,0.00038543,0.000242412,-0.00154206,0.223345,0.00111764,0.0331645,1917,1121,40.6457,-2.55811
700,-97,40.6656,2.59363,-7.06022e-05,-0.00146174,0.0008023,0.000295667,-0.00182801,0.428266,0.00132824,0.0279006,1924,1121,40.6657,-2.59358
707,-97,40.6311,2.62158,-0.000301596,-0.00147723,0.00115571,0.000407195,-0.00218602,0.550138,0.00161033,0.0240991,1931,1121,40.6312,-2.62164
714,-97,40.6278,2.63342,0,0,0,0,0,0,0,-1,1938,1121,40.6278,-2.63341
721,-97,38.186,6.30945,0,0,0,0,0,0,0,-1,1945,1121,38.186,-6.3094
728,-97,38.1565,6.14905,-0.00144431,-0.000962488,0.00179687,0.000609549,-0.00301634,0.852037,0.00224187,0.0218226,1952,1121,38.1565,-6.149
735,-97,38.1261,5.83655,-0.00190335,-0.00068651,0.00179927,0.000604422,-0.00319429,0.948437,0.00235697,0.0229031,1959,1121,38.1261,-5.83649
742,-97,38.1233,5.57751,-0.00193559,-8.86487e-05,0.00189668,0.00109743,-0.00312166,1.01195,0.00252762,0.0187102,1966,1121,38.1233,-5.57746
749,-97,38.181,5.29944,-0.00115203,0.000943212,0.00162453,0.00182862,-0.00203744,1.07178,0.00223315,0.0207618,1973,1121,38.181,-5.29946
756,-97,38.1823,5.04956,0.000506696,0.00218986,0.00084422,0.00254032,0.000156234,1.17731,0.00164395,0.0159582,1980,1121,38.1822,-5.04962
763,-97,38.1306,4.85107,0.00437125,0.00494223,0.000126868,0.00496915,0.00434433,1.36171,0.00312538,0.0122074,1987,1121,38.1306,-4.85106
770,-97,38.1135,4.64001,0.0092527,0.00784556,-0.0010156,0.00978463,0.00731363,-0.482474,0.00587526,0.0109848,1994,1121,38.1135,-4.64004
777,-97,38.098,4.40833,0.0157732,0.0112211,-0.00233508,0.016758,0.0102363,-0.3991,0.00975413,0.0160934,2001,1121,38.098,-4.4083
784,-97,38.025,4.12781,0.0240726,0.0152897,-0.00387366,0.0255369,0.0138254,-0.361415,0.0147606,0.0370988,2008,1121,38.0251,-4.12776
791,-97,38.0371,3.74036,0,0,0,0,0,0,0,-1,2015,1121,38.0372,-3.74039
798,-97,38.7095,3.6499,0,0,0,0,0,0,0,-1,2022,1121,38.7096,-3.64986
805,-97,39.1226,3.48486,0,0,0,0,0,0,0,-1,2029,1121,39.1226,-3.48489
812,-97,39.0603,2.67749,0,0,0,0,0,0,0,-1,2036,1121,39.0602,-2.67749
-700,-104,0,0,0,0,0,0,0,0,0,-1,524,1128,0,0
-693,-104,-27.8301,-1.70972,-0.023404,0.0410601,-0.00246488,0.0411542,-0.0234982,-1.53263,0.0377882,0.0485882,531,1128,-27.8301,1.70971
-686,-104,-27.3399,-1.50342,-0.0126341,0.0354709,0.00263013,0.0356143,-0.0127775,1.51634,0.0289574,0.0472408,538,1128,-27.3399,1.50336
-679,-104,-27.3637,-0.830078,-0.00524781,0.0304714,0.00533412,0.031251,-0.00602736,1.42568,0.0231067,0.0470919,545,1128,-27.3637,0.830059
-672,-104,-27.5345,0.247437,0,0,0,0,0,0,0,-1,552,1128,-27.5346,-0.247387
-665,-104,-27.1897,-0.227539,0,0,0,0,0,0,0,-1,559,1128,-27.1897,0.227491
-658,-104,-27.1376,0.402466,0.004321,0.017363,0.00626929,0.0198879,0.00179615,1.18794,0.0127023,0.0435713,566,1128,-27.1377,-0.402512
-651,-104,-26.9602,1.13184,0.00486526,0.0135989,0.00542441,0.0161958,0.00226835,1.1243,0.0101261,0.0377636,573,1128,-26.9602,-1.13182
-644,-104,-26.8969,1.49377,0.00481296,0.0101655,0.00443668,0.0126706,0.00230787,1.05679,0.00779255,0.0144343,580,1128,-26.8969,-1.49376
-637,-104,-26.8665,1.83337,0.00525296,0.0066762,0.00392809,0.00995661,0.00197255,0.875007,0.0060877,0.0106719,587,1128,-26.8664,-1.83334
-630,-104,-26.8823,2.07385,0.00436399,0.00395529,0.0025015,0.00666947,0.0016498,0.744642,0.00401112,0.0139335,594,1128,-26.8822,-2.0739
-623,-104,-26.9113,2.39941,0.00334793,0.00214535,0.00122862,0.0041145,0.00137878,0.55783,0.00241819,0.0169001,601,1128,-26.9112,-2.39942
-616,-104,-27.0657,2.77869,0.0027197,0.00120734,0.00106868,0.00327268,0.000654368,0.477499,0.00199968,0.0200777,608,1128,-27.0657,-2.77864
-609,-104,-27.2134,2.96021,0.00258745,0.000713577,0.0010708,0.00307335,0.000227675,0.425988,0.00197738,0.0257323,615,1128,-27.2134,-2.96016
-602,-104,-27.0225,3.29382,0.00255209,0.000604601,0.0010269,0.00299351,0.000163177,0.405981,0.00194357,0.02287,622,1128,-27.0225,-3.29377
-595,-104,-26.8933,3.66223,0.00206324,0.000768743,0.00116314,0.00274709,8.48947e-05,0.531501,0.00180376,0.0176862,629,1128,-26.8933,-3.66225
-588,-104,-26.8463,4.02844,0,0,0,0,0,0,0,-1,636,1128,-26.8463,-4.02846
-581,-104,-23.9373,2.85864,0,0,0,0,0,0,0,-1,643,1128,-23.9373,-2.85861
-574,-104,-29.6164,0.723999,0,0,0,0,0,0,0,-1,650,1128,-29.6164,-0.723963
-567,-104,-29.5628,0.599121,0.00175117,0.00190371,0.000713509,0.00254501,0.00110987,0.838641,0.00147336,0.0379541,657,1128,-29.5628,-0.599161
-560,-104,-29.6441,0.724976,0.00152219,0.00238135,0.00035565,0.00250947,0.00139407,1.22504,0.00145182,0.0430487,664,1128,-29.6441,-0.724999
-553,-104,-29.5359,0.649292,0.000917027,0.00283385,-0.000407616,0.00291693,0.000833947,-1.36973,0.00173479,0.0475089,671,1128,-29.5359,-0.649279
-546,-104,-29.5477,0.920166,9.28901e-05,0.00307699,-0.00181574,0.00393507,-0.000765193,-1.12932,0.00291215,0.0470881,678,1128,-29.5477,-0.920187
-539,-104,-29.6688,1.01099,-0.000264549,0.0027025,-0.0039524,0.00544062,-0.00300267,-0.964936,0.00494201,0.0403816,685,1128,-29.6688,-1.01095
-532,-104,-29.6306,0.645874,6.84199e-05,0.00200059,-0.00619857,0.00730791,-0.0052389,-0.862704,0.00727666,0.0376207,692,1128,-29.6306,-0.645853
-525,-104,-29.7271,0.802246,0.000461536,0.00126683,-0.00846599,0.00933974,-0.00761137,-0.809161,0.00980367,0.0365543,699,1128,-29.7271,-0.802213
-518,-104,0,0,0,0,0,0,0,0,0,-1,706,1128,0,0
-511,-104,0,0,0,0,0,0,0,0,0,-1,713,1128,0,0
-504,-104,0,0,0,0,0,0,0,0,0,-1,720,1128,0,0
-497,-104,0,0,0,0,0,0,0,0,0,-1,727,1128,0,0
-490,-104,0,0,0,0,0,0,0,0,0,-1,734,1128,0,0
-483,-104,0,0,0,0,0,0,0,0,0,-1,741,1128,0,0
-476,-104,0,0,0,0,0,0,0,0,0,-1,748,1128,0,0
-469,-104,0,0,0,0,0,0,0,0,0,-1,755,1128,0,0
-462,-104,0,0,0,0,0,0,0,0,0,-1,762,1128,0,0
-455,-104,0,0,0,0,0,0,0,0,0,-1,769,1128,0,0
-448,-104,0,0,0,0,0,0,0,0,0,-1,776,1128,0,0
-441,-104,0,0,0,0,0,0,0,0,0,-1,783,1128,0,0
-434,-104,0,0,0,0,0,0,0,0,0,-1,790,1128,0,0
-427,-104,0,0,0,0,0,0,0,0,0,-1,797,1128,0,0
-420,-104,0,0,0,0,0,0,0,0,0,-1,804,1128,0,0
-413,-104,0,0,0,0,0,0,0,0,0,-1,811,1128,0,0
-406,-104,0,0,0,0,0,0,0,0,0,-1,818,1128,0,0
-399,-104,0,0,0,0,0,0,0,0,0,-1,825,1128,0,0
-392,-104,0,0,0,0,0,0,0,0,0,-1,832,1128,0,0
-385,-104,0,0,0,0,0,0,0,0,0,-1,839,1128,0,0
-378,-104,0,0,0,0,0,0,0,0,0,-1,846,1128,0,0
-371,-104,0,0,0,0,0,0,0,0,0,-1,853,1128,0,0
-364,-104,0,0,0,0,0,0,0,0,0,-1,860,1128,0,0
-357,-104,0,0,0,0,0,0,0,0,0,-1,867,1128,0,0
-350,-104,0,0,0,0,0,0,0,0,0,-1,874,1128,0,0
-343,-104,0,0,0,0,0,0,0,0,0,-1,881,1128,0,0
-336,-104,0,0,0,0,0,0,0,0,0,-1,888,1128,0,0
-329,-104,0,0,0,0,0,0,0,0,0,-1,895,1128,0,0
-322,-104,0,0,0,0,0,0,0,0,0,-1,902,1128,0,0
-315,-104,0,0,0,0,0,0,0,0,0,-1,909,1128,0,0
-308,-104,0,0,0,0,0,0,0,0,0,-1,916,1128,0,0
-301,-104,0,0,0,0,0,0,0,0,0,-1,923,1128,0,0
-294,-104,0,0,0,0,0,0,0,0,0,-1,930,1128,0,0
-287,-104,0,0,0,0,0,0,0,0,0,-1,937,1128,0,0
-280,-104,0,0,0,0,0,0,0,0,0,-1,944,1128,0,0
-273,-104,0,0,0,0,0,0,0,0,0,-1,951,1128,0,0
-266,-104,0,0,0,0,0,0,0,0,0,-1,958,1128,0,0
-259,-104,0,0,0,0,0,0,0,0,0,-1,965,1128,0,0
-252,-104,0,0,0,0,0,0,0,0,0,-1,972,1128,0,0
-245,-104,0,0,0,0,0,0,0,0,0,-1,979,1128,0,0
-238,-104,0,0,0,0,0,0,0,0,0,-1,986,1128,0,0
-231,-104,0,0,0,0,0,0,0,0,0,-1,993,1128,0,0
-224,-104,0,0,0,0,0,0,0,0,0,-1,1000,1128,0,0
-217,-104,0,0,0,0,0,0,0,0,0,-1,1007,1128,0,0
-210,-104,0,0,0,0,0,0,0,0,0,-1,1014,1128,0,0
-203,-104,0,0,0,0,0,0,0,0,0,-1,1021,1128,0,0
-196,-104,0,0,0,0,0,0,0,0,0,-1,1028,1128,0,0
-189,-104,0,0,0,0,0,0,0,0,0,-1,1035,1128,0,0
-182,-104,0,0,0,0,0,0,0,0,0,-1,1042,1128,0,0
-175,-104,0,0,0,0,0,0,0,0,0,-1,1049,1128,0,0
-168,-104,0,0,0,0,0,0,0,0,0,-1,1056,1128,0,0
-161,-104,0,0,0,0,0,0,0,0,0,-1,1063,1128,0,0
-154,-104,0,0,0,0,0,0,0,0,0,-1,1070,1128,0,0
-147,-104,0,0,0,0,0,0,0,0,0,-1,1077,1128,0,0
-140,-104,0,0,0,0,0,0,0,0,0,-1,1084,1128,0,0
-133,-104,0,0,0,0,0,0,0,0,0,-1,1091,1128,0,0
-126,-104,0,0,0,0,0,0,0,0,0,-1,1098,1128,0,0
-119,-104,0,0,0,0,0,0,0,0,0,-1,1105,1128,0,0
-112,-104,0,0,0,0,0,0,0,0,0,-1,1112,1128,0,0
-105,-104,0,0,0,0,0,0,0,0,0,-1,1119,1128,0,0
-98,-104,0,0,0,0,0,0,0,0,0,-1,1126,1128,0,0
-91,-104,0,0,0,0,0,0,0,0,0,-1,1133,1128,0,0
-84,-104,0,0,0,0,0,0,0,0,0,-1,1140,1128,0,0
-77,-104,0,0,0,0,0,0,0,0,0,-1,1147,1128,0,0
-70,-104,0,0,0,0,0,0,0,0,0,-1,1154,1128,0,0
-63,-104,0,0,0,0,0,0,0,0,0,-1,1161,1128,0,0
-56,-104,0,0,0,0,0,0,0,0,0,-1,1168,1128,0,0
-49,-104,0,0,0,0,0,0,0,0,0,-1,1175,1128,0,0
-42,-104,0,0,0,0,0,0,0,0,0,-1,1182,1128,0,0
-35,-104,0,0,0,0,0,0,0,0,0,-1,1189,1128,0,0
-28,-104,0,0,0,0,0,0,0,0,0,-1,1196,1128,0,0
-21,-104,0,0,0,0,0,0,0,0,0,-1,1203,1128,0,0
-14,-104,0,0,0,0,0,0,0,0,0,-1,1210,1128,0,0
-7,-104,0,0,0,0,0,0,0,0,0,-1,1217,1128,0,0
0,-104,0,0,0,0,0,0,0,0,0,-1,1224,1128,0,0
7,-104,0,0,0,0,0,0,0,0,0,-1,1231,1128,0,0
14,-104,0,0,0,0,0,0,0,0,0,-1,1238,1128,0,0
21,-104,0,0,0,0,0,0,0,0,0,-1,1245,1128,0,0
28,-104,0,0,0,0,0,0,0,0,0,-1,1252,1128,0,0
35,-104,0,0,0,0,0,0,0,0,0,-1,1259,1128,0,0
42,-104,0,0,0,0,0,0,0,0,0,-1,1266,1128,0,0
49,-104,0,0,0,0,0,0,0,0,0,-1,1273,1128,0,0
56,-104,0,0,0,0,0,0,0,0,0,-1,1280,1128,0,0
63,-104,0,0,0,0,0,0,0,0,0,-1,1287,1128,0,0
70,-104,0,0,0,0,0,0,0,0,0,-1,1294,1128,0,0
77,-104,0,0,0,0,0,0,0,0,0,-1,1301,1128,0,0
84,-104,0,0,0,0,0,0,0,0,0,-1,1308,1128,0,0
91,-104,0,0,0,0,0,0,0,0,0,-1,1315,1128,0,0
98,-104,0,0,0,0,0,0,0,0,0,-1,1322,1128,0,0
105,-104,0,0,0,0,0,0,0,0,0,-1,1329,1128,0,0
112,-104,0,0,0,0,0,0,0,0,0,-1,1336,1128,0,0
119,-104,0,0,0,0,0,0,0,0,0,-1,1343,1128,0,0
126,-104,0,0,0,0,0,0,0,0,0,-1,1350,1128,0,0
133,-104,0,0,0,0,0,0,0,0,0,-1,1357,1128,0,0
140,-104,0,0,0,0,0,0,0,0,0,-1,1364,1128,0,0
147,-104,0,0,0,0,0,0,0,0,0,-1,1371,1128,0,0
154,-104,0,0,0,0,0,0,0,0,0,-1,1378,1128,0,0
161,-104,0,0,0,0,0,0,0,0,0,-1,1385,1128,0,0
168,-104,0,0,0,0,0,0,0,0,0,-1,1392,1128,0,0
175,-104,0,0,0,0,0,0,0,0,0,-1,1399,1128,0,0
182,-104,0,0,0,0,0,0,0,0,0,-1,1406,1128,0,0
189,-104,0,0,0,0,0,0,0,0,0,-1,1413,1128,0,0
196,-104,0,0,0,0,0,0,0,0,0,-1,1420,1128,0,0
203,-104,0,0,0,0,0,0,0,0,0,-1,1427,1128,0,0
210,-104,0,0,0,0,0,0,0,0,0,-1,1434,1128,0,0
217,-104,0,0,0,0,0,0,0,0,0,-1,1441,1128,0,0
224,-104,0,0,0,0,0,0,0,0,0,-1,1448,1128,0,0
231,-104,0,0,0,0,0,0,0,0,0,-1,1455,1128,0,0
238,-104,0,0,0,0,0,0,0,0,0,-1,1462,1128,0,0
245,-104,0,0,0,0,0,0,0,0,0,-1,1469,1128,0,0
252,-104,0,0,0,0,0,0,0,0,0,-1,1476,1128,0,0
259,-104,0,0,0,0,0,0,0,0,0,-1,1483,1128,0,0
266,-104,0,0,0,0,0,0,0,0,0,-1,1490,1128,0,0
273,-104,0,0,0,0,0,0,0,0,0,-1,1497,1128,0,0
280,-104,0,0,0,0,0,0,0,0,0,-1,1504,1128,0,0
287,-104,0,0,0,0,0,0,0,0,0,-1,1511,1128,0,0
294,-104,0,0,0,0,0,0,0,0,0,-1,1518,1128,0,0
301,-104,0,0,0,0,0,0,0,0,0,-1,1525,1128,0,0
308,-104,0,0,0,0,0,0,0,0,0,-1,1532,1128,0,0
315,-104,0,0,0,0,0,0,0,0,0,-1,1539,1128,0,0
322,-104,0,0,0,0,0,0,0,0,0,-1,1546,1128,0,0
329,-104,0,0,0,0,0,0,0,0,0,-1,1553,1128,0,0
336,-104,0,0,0,0,0,0,0,0,0,-1,1560,1128,0,0
343,-104,0,0,0,0,0,0,0,0,0,-1,1567,1128,0,0
350,-104,0,0,0,0,0,0,0,0,0,-1,1574,1128,0,0
357,-104,0,0,0,0,0,0,0,0,0,-1,1581,1128,0,0
364,-104,0,0,0,0,0,0,0,0,0,-1,1588,1128,0,0
371,-104,0,0,0,0,0,0,0,0,0,-1,1595,1128,0,0
378,-104,0,0,0,0,0,0,0,0,0,-1,1602,1128,0,0
385,-104,0,0,0,0,0,0,0,0,0,-1,1609,1128,0,0
392,-104,0,0,0,0,0,0,0,0,0,-1,1616,1128,0,0
399,-104,0,0,0,0,0,0,0,0,0,-1,1623,1128,0,0
406,-104,0,0,0,0,0,0,0,0,0,-1,1630,1128,0,0
413,-104,0,0,0,0,0,0,0,0,0,-1,1637,1128,0,0
420,-104,0,0,0,0,0,0,0,0,0,-1,1644,1128,0,0
427,-104,0,0,0,0,0,0,0,0,0,-1,1651,1128,0,0
434,-104,0,0,0,0,0,0,0,0,0,-1,1658,1128,0,0
441,-104,0,0,0,0,0,0,0,0,0,-1,1665,1128,0,0
448,-104,0,0,0,0,0,0,0,0,0,-1,1672,1128,0,0
455,-104,0,0,0,0,0,0,0,0,0,-1,1679,1128,0,0
462,-104,0,0,0,0,0,0,0,0,0,-1,1686,1128,0,0
469,-104,0,0,0,0,0,0,0,0,0,-1,1693,1128,0,0
476,-104,0,0,0,0,0,0,0,0,0,-1,1700,1128,0,0
483,-104,0,0,0,0,0,0,0,0,0,-1,1707,1128,0,0
490,-104,0,0,0,0,0,0,0,0,0,-1,1714,1128,0,0
497,-104,0,0,0,0,0,0,0,0,0,-1,1721,1128,0,0
504,-104,0,0,0,0,0,0,0,0,0,-1,1728,1128,0,0
511,-104,0,0,0,0,0,0,0,0,0,-1,1735,1128,0,0
518,-104,0,0,0,0,0,0,0,0,0,-1,1742,1128,0,0
525,-104,0,0,0,0,0,0,0,0,0,-1,1749,1128,0,0
532,-104,0,0,0,0,0,0,0,0,0,-1,1756,1128,0,0
539,-104,0,0,0,0,0,0,0,0,0,-1,1763,1128,0,0
546,-104,0,0,0,0,0,0,0,0,0,-1,1770,1128,0,0
553,-104,0,0,0,0,0,0,0,0,0,-1,1777,1128,0,0
560,-104,0,0,0,0,0,0,0,0,0,-1,1784,1128,0,0
567,-104,0,0,0,0,0,0,0,0,0,-1,1791,1128,0,0
574,-104,0,0,0,0,0,0,0,0,0,-1,1798,1128,0,0
581,-104,0,0,0,0,0,0,0,0,0,-1,1805,1128,0,0
588,-104,0,0,0,0,0,0,0,0,0,-1,1812,1128,0,0
595,-104,0,0,0,0,0,0,0,0,0,-1,1819,1128,0,0
602,-104,0,0,0,0,0,0,0,0,0,-1,1826,1128,0,0
609,-104,0,0,0,0,0,0,0,0,0,-1,1833,1128,0,0
616,-104,0,0,0,0,0,0,0,0,0,-1,1840,1128,0,0
623,-104,0,0,0,0,0,0,0,0,0,-1,1847,1128,0,0
630,-104,0,0,0,0,0,0,0,0,0,-1,1854,1128,0,0
637,-104,0,0,0,0,0,0,0,0,0,-1,1861,1128,0,0
644,-104,40.5939,2.81006,-0.000483248,-0.00444578,-0.00706971,0.00487758,-0.0098066,-0.648779,0.00863565,0.0378362,1868,1128,40.5939,-2.81011
651,-104,40.7139,2.60876,-0.000395884,-0.00299339,-0.00538007,0.00383997,-0.00722925,-0.666964,0.00648991,0.0398702,1875,1128,40.7139,-2.60879
658,-104,40.6608,2.56506,1.84199e-05,-0.00203242,-0.00404748,0.00316835,-0.00518235,-0.661335,0.0048678,0.0421715,1882,1128,40.6607,-2.565
665,-104,40.7013,2.5647,0.000328919,-0.00135841,-0.00290066,0.00250611,-0.0035356,-0.643876,0.00350503,0.0449702,1889,1128,40.7013,-2.56466
672,-104,40.8129,2.49463,0.000691751,-0.000986181,-0.00188678,0.00191769,-0.00221212,-0.576198,0.00238636,0.0425798,1896,1128,40.8129,-2.49464
679,-104,40.7368,2.68396,0.000642891,-0.000928342,-0.000978607,0.00111221,-0.00139766,-0.447178,0.0014522,0.0392691,1903,1128,40.7369,-2.68398
686,-104,40.6198,2.68713,0.000488923,-0.00104819,-0.000351172,0.000565353,-0.00112462,-0.214299,0.000993354,0.037253,1910,1128,40.6198,-2.68708
693,-104,40.5958,2.63342,0.000405099,-0.00118259,9.98574e-05,0.000411355,-0.00118885,0.0625661,0.00095954,0.0344536,1917,1128,40.5959,-2.63337
700,-104,40.675,2.6012,0.000263557,-0.00117258,0.00052741,0.000436434,-0.00134546,0.316749,0.00107247,0.0282375,1924,1128,40.675,-2.60114
707,-104,40.6456,2.65247,7.71227e-05,-0.00121192,0.000866995,0.00051292,-0.00164772,0.465767,0.00130353,0.0440746,1931,1128,40.6456,-2.65242
714,-104,40.6271,2.68994,0,0,0,0,0,0,0,-1,1938,1128,40.6271,-2.6899
721,-104,37.8779,6.43469,0,0,0,0,0,0,0,-1,1945,1128,37.878,-6.43468
728,-104,37.932,6.04565,-0.000924112,-0.000761632,0.0015342,0.000693474,-0.00237922,0.81185,0.00186088,0.0230331,1952,1128,37.9321,-6.04562
735,-104,37.962,5.77454,-0.00136622,-0.000560183,0.00160137,0.000688102,-0.00261451,0.908674,0.00201198,0.0236639,1959,1128,37.9621,-5.77449
742,-104,37.8972,5.57727,-0.00133958,-9.58142e-06,0.00178118,0.00122669,-0.00257585,0.964059,0.00224099,0.0163663,1966,1128,37.8972,-5.57726
749,-104,37.8684,5.31335,-0.000681201,0.000868392,0.00165785,0.00192356,-0.00173637,1.00399,0.00211399,0.0187819,1973,1128,37.8685,-5.31336
756,-104,37.8608,5.04614,0.000673693,0.00187736,0.000975801,0.002422,0.000129059,1.06172,0.00157341,0.0168844,1980,1128,37.8608,-5.04618
763,-104,37.8528,4.81567,0.00424762,0.00436825,0.000364554,0.00467744,0.00393842,0.867383,0.00290348,0.0145002,1987,1128,37.8527,-4.81573
770,-104,37.834,4.60132,0.00874539,0.0068527,-0.000653922,0.00894934,0.00664875,-0.30233,0.00536634,0.0130204,1994,1128,37.834,-4.6013
777,-104,37.776,4.31433,0.014647,0.00968151,-0.00189839,0.0152896,0.00903888,-0.326403,0.00887623,0.0220941,2001,1128,37.776,-4.3143
784,-104,37.7234,3.95837,0.0221831,0.013068,-0.00343619,0.0233333,0.0119178,-0.323014,0.0134725,0.0404093,2008,1128,37.7234,-3.95843
791,-104,37.7466,3.59827,0.0317443,0.0171929,-0.00533288,0.0334895,0.0154478,-0.316257,0.0193545,0.0449294,2015,1128,37.7465,-3.59821
798,-104,38.0623,3.37964,0.0438705,0.0223074,-0.00764902,0.0463082,0.0198697,-0.308521,0.0268256,0.0472664,2022,1128,38.0624,-3.37958
805,-104,38.5615,2.93359,0.0586165,0.0286894,-0.0103101,0.0618246,0.0254814,-0.301657,0.0358776,0.0491347,2029,1128,38.5614,-2.93365
812,-104,38.635,2.68726,0.0761727,0.0368408,-0.0130482,0.0801077,0.0329058,-0.292901,0.046495,0.0488976,2036,1128,38.635,-2.68724
-700,-111,0,0,0,0,0,0,0,0,0,-1,524,1135,0,0
-693,-111,-26.0827,-1.39136,-0.0279489,0.028438,-0.000693117,0.0284465,-0.0279574,-1.55851,0.0325652,0.0474844,531,1135,-26.0827,1.39141
-686,-111,-27.0503,-1.33484,-0.0153822,0.0265542,0.00406401,0.0269444,-0.0157724,1.47507,0.0249421,0.0467761,538,1135,-27.0503,1.33482
-679,-111,-27.2249,-0.939575,-0.00675899,0.0242893,0.0066014,0.0256346,-0.00810427,1.36976,0.0203367,0.0455772,545,1135,-27.2249,0.939583
-672,-111,-26.9075,-0.299683,-0.000875953,0.0216172,0.00764914,0.0239719,-0.00323066,1.27216,0.0171598,0.0466882,552,1135,-26.9076,0.299629
-665,-111,-26.7991,0.470581,0,0,0,0,0,0,0,-1,559,1135,-26.7991,-0.47057
-658,-111,-26.725,0.821411,0.00483748,0.0155456,0.00702693,0.0190257,0.00135729,1.11094,0.0122565,0.0480575,566,1135,-26.725,-0.821397
-651,-111,-26.5259,1.13635,0.00553238,0.0124664,0.00595379,0.0158891,0.00210971,1.04906,0.00996423,0.0415595,573,1135,-26.5259,-1.13634
-644,-111,-26.523,1.48889,0.00546407,0.00952056,0.00468449,0.012597,0.00238759,0.989699,0.00772613,0.0248555,580,1135,-26.523,-1.4889
-637,-111,-26.5405,1.80725,0.00589359,0.0065161,0.00399383,0.0102108,0.0021989,0.824287,0.00620547,0.0101179,587,1135,-26.5405,-1.8072
-630,-111,-26.562,2.07214,0.00488447,0.00406256,0.00247994,0.00698728,0.00195975,0.703288,0.00416169,0.0183377,594,1135,-26.562,-2.07219
-623,-111,-26.5851,2.40271,0.00359758,0.00227551,0.00118302,0.00429172,0.00158137,0.530623,0.00250624,0.0157381,601,1135,-26.5851,-2.40272
-616,-111,-26.7335,2.70667,0.00275958,0.0012955,0.00105087,0.00330825,0.00074683,0.481178,0.0020035,0.0167929,608,1135,-26.7335,-2.70662
-609,-111,-26.9304,2.97632,0.00256049,0.000820846,0.00105524,0.00305819,0.000323142,0.44071,0.00194007,0.0272903,615,1135,-26.9304,-2.97636
-602,-111,-26.835,3.31287,0.00254346,0.000741143,0.000984587,0.00297703,0.000307574,0.414805,0.00189052,0.0302306,622,1135,-26.8351,-3.31292
-595,-111,-26.6643,3.67896,0.0020214,0.000899684,0.00112405,0.00271675,0.000204339,0.553989,0.00174704,0.0160897,629,1135,-26.6643,-3.67899
-588,-111,-26.4442,4.12634,0,0,0,0,0,0,0,-1,636,1135,-26.4441,-4.12639
-581,-111,-21.0555,3.14551,0,0,0,0,0,0,0,-1,643,1135,-21.0555,-3.14548
-574,-111,-29.6033,0.700684,0,0,0,0,0,0,0,-1,650,1135,-29.6033,-0.700739
-567,-111,-29.5631,0.675537,0.00167703,0.00221411,0.000378729,0.00240984,0.00148129,1.09379,0.00140347,0.0403197,657,1135,-29.5631,-0.675589
-560,-111,-29.6023,0.911865,0.00147796,0.00275828,-2.5138e-05,0.00275878,0.00147746,-1.55117,0.00159412,0.0406804,664,1135,-29.6023,-0.911882
-553,-111,-29.4851,0.736084,0.000906823,0.00335198,-0.000817668,0.00360021,0.000658592,-1.27605,0.00221351,0.0437807,671,1135,-29.4851,-0.736044
-546,-111,-29.2792,0.537231,0,0,0,0,0,0,0,-1,678,1135,-29.2792,-0.537228
-539,-111,-29.6856,1.00049,-0.000305673,0.00394022,-0.00433726,0.00664622,-0.00301167,-1.01299,0.00570608,0.0400701,685,1135,-29.6856,-1.00043
-532,-111,-29.9105,1.03406,1.90317e-05,0.00379515,-0.00656163,0.00873495,-0.00492078,-0.925485,0.00798599,0.0412062,692,1135,-29.9105,-1.03408
-525,-111,-29.7552,0.768799,0.00036521,0.00363468,-0.00879922,0.0109497,-0.00694984,-0.877242,0.01042,0.0415213,699,1135,-29.7552,-0.768804
-518,-111,0,0,0,0,0,0,0,0,0,-1,706,1135,0,0
-511,-111,0,0,0,0,0,0,0,0,0,-1,713,1135,0,0
-504,-111,0,0,0,0,0,0,0,0,0,-1,720,1135,0,0
-497,-111,0,0,0,0,0,0,0,0,0,-1,727,1135,0,0
-490,-111,0,0,0,0,0,0,0,0,0,-1,734,1135,0,0
-483,-111,0,0,0,0,0,0,0,0,0,-1,741,1135,0,0
-476,-111,0,0,0,0,0,0,0,0,0,-1,748,1135,0,0
-469,-111,0,0,0,0,0,0,0,0,0,-1,755,1135,0,0
-462,-111,0,0,0,0,0,0,0,0,0,-1,762,1135,0,0
-455,-111,0,0,0,0,0,0,0,0,0,-1,769,1135,0,0
-448,-111,0,0,0,0,0,0,0,0,0,-1,776,1135,0,0
-441,-111,0,0,0,0,0,0,0,0,0,-1,783,1135,0,0
-434,-111,0,0,0,0,0,0,0,0,0,-1,790,1135,0,0
-427,-111,0,0,0,0,0,0,0,0,0,-1,797,1135,0,0
-420,-111,0,0,0,0,0,0,0,0,0,-1,804,1135,0,0
-413,-111,0,0,0,0,0,0,0,0,0,-1,811,1135,0,0
-406,-111,0,0,0,0,0,0,0,0,0,-1,818,1135,0,0
-399,-111,0,0,0,0,0,0,0,0,0,-1,825,1135,0,0
-392,-111,0,0,0,0,0,0,0,0,0,-1,832,1135,0,0
-385,-111,0,0,0,0,0,0,0,0,0,-1,839,1135,0,0
-378,-111,0,0,0,0,0,0,0,0,0,-1,846,1135,0,0
-371,-111,0,0,0,0,0,0,0,0,0,-1,853,1135,0,0
-364,-111,0,0,0,0,0,0,0,0,0,-1,860,1135,0,0
-357,-111,0,0,0,0,0,0,0,0,0,-1,867,1135,0,0
-350,-111,0,0,0,0,0,0,0,0,0,-1,874,1135,0,0
-343,-111,0,0,0,0,0,0,0,0,0,-1,881,1135,0,0
-336,-111,0,0,0,0,0,0,0,0,0,-1,888,1135,0,0
-329,-111,0,0,0,0,0,0,0,0,0,-1,895,1135,0,0
-322,-111,0,0,0,0,0,0,0,0,0,-1,902,1135,0,0
-315,-111,0,0,0,0,0,0,0,0,0,-1,909,1135,0,0
-308,-111,0,0,0,0,0,0,0,0,0,-1,916,1135,0,0
-301,-111,0,0,0,0,0,0,0,0,0,-1,923,1135,0,0
-294,-111,0,0,0,0,0,0,0,0,0,-1,930,1135,0,0
-287,-111,0,0,0,0,0,0,0,0,0,-1,937,1135,0,0
-280,-111,0,0,0,0,0,0,0,0,0,-1,944,1135,0,0
-273,-111,0,0,0,0,0,0,0,0,0,-1,951,1135,0,0
-266,-111,0,0,0,0,0,0,0,0,0,-1,958,1135,0,0
-259,-111,0,0,0,0,0,0,0,0,0,-1,965,1135,0,0
-252,-111,0,0,0,0,0,0,0,0,0,-1,972,1135,0,0
-245,-111,0,0,0,0,0,0,0,0,0,-1,979,1135,0,0
-238,-111,0,0,0,0,0,0,0,0,0,-1,986,1135,0,0
-231,-111,0,0,0,0,0,0,0,0,0,-1,993,1135,0,0
-224,-111,0,0,0,0,0,0,0,0,0,-1,1000,1135,0,0
-217,-111,0,0,0,0,0,0,0,0,0,-1,1007,1135,0,0
-210,-111,0,0,0,0,0,0,0,0,0,-1,1014,1135,0,0
-203,-111,0,0,0,0,0,0,0,0,0,-1,1021,1135,0,0
-196,-111,0,0,0,0,0,0,0,0,0,-1,1028,1135,0,0
-189,-111,0,0,0,0,0,0,0,0,0,-1,1035,1135,0,0
-182,-111,0,0,0,0,0,0,0,0,0,-1,1042,1135,0,0
-175,-111,0,0,0,0,0,0,0,0,0,-1,1049,1135,0,0
-168,-111,0,0,0,0,0,0,0,0,0,-1,1056,1135,0,0
-161,-111,0,0,0,0,0,0,0,0,0,-1,1063,1135,0,0
-154,-111,0,0,0,0,0,0,0,0,0,-1,1070,1135,0,0
-147,-111,0,0,0,0,0,0,0,0,0,-1,1077,1135,0,0
-140,-111,0,0,0,0,0,0,0,0,0,-1,1084,1135,0,0
-133,-111,0,0,0,0,0,0,0,0,0,-1,1091,1135,0,0
-126,-111,0,0,0,0,0,0,0,0,0,-1,1098,1135,0,0
-119,-111,0,0,0,0,0,0,0,0,0,-1,1105,1135,0,0
-112,-111,0,0,0,0,0,0,0,0,0,-1,1112,1135,0,0
-105,-111,0,0,0,0,0,0,0,0,0,-1,1119,1135,0,0
-98,-111,0,0,0,0,0,0,0,0,0,-1,1126,1135,0,0
-91,-111,0,0,0,0,0,0,0,0,0,-1,1133,1135,0,0
-84,-111,0,0,0,0,0,0,0,0,0,-1,1140,1135,0,0
-77,-111,0,0,0,0,0,0,0,0,0,-1,1147,1135,0,0
-70,-111,0,0,0,0,0,0,0,0,0,-1,1154,1135,0,0
-63,-111,0,0,0,0,0,0,0,0,0,-1,1161,1135,0,0
-56,-111,0,0,0,0,0,0,0,0,0,-1,1168,1135,0,0
-49,-111,0,0,0,0,0,0,0,0,0,-1,1175,1135,0,0
-42,-111,0,0,0,0,0,0,0,0,0,-1,1182,1135,0,0
-35,-111,0,0,0,0,0,0,0,0,0,-1,1189,1135,0,0
-28,-111,0,0,0,0,0,0,0,0,0,-1,1196,1135,0,0
-21,-111,0,0,0,0,0,0,0,0,0,-1,1203,1135,0,0
-14,-111,0,0,0,0,0,0,0,0,0,-1,1210,1135,0,0
-7,-111,0,0,0,0,0,0,0,0,0,-1,1217,1135,0,0
0,-111,0,0,0,0,0,0,0,0,0,-1,1224,1135,0,0
7,-111,0,0,0,0,0,0,0,0,0,-1,1231,1135,0,0
14,-111,0,0,0,0,0,0,0,0,0,-1,1238,1135,0,0
21,-111,0,0,0,0,0,0,0,0,0,-1,1245,1135,0,0
28,-111,0,0,0,0,0,0,0,0,0,-1,1252,1135,0,0
35,-111,0,0,0,0,0,0,0,0,0,-1,1259,1135,0,0
42,-111,0,0,0,0,0,0,0,0,0,-1,1266,1135,0,0
49,-111,0,0,0,0,0,0,0,0,0,-1,1273,1135,0,0
56,-111,0,0,0,0,0,0,0,0,0,-1,1280,1135,0,0
63,-111,0,0,0,0,0,0,0,0,0,-1,1287,1135,0,0
70,-111,0,0,0,0,0,0,0,0,0,-1,1294,1135,0,0
77,-111,0,0,0,0,0,0,0,0,0,-1,1301,1135,0,0
84,-111,0,0,0,0,0,0,0,0,0,-1,1308,1135,0,0
91,-111,0,0,0,0,0,0,0,0,0,-1,1315,1135,0,0
98,-111,0,0,0,0,0,0,0,0,0,-1,1322,1135,0,0
105,-111,0,0,0,0,0,0,0,0,0,-1,1329,1135,0,0
112,-111,0,0,0,0,0,0,0,0,0,-1,1336,1135,0,0
119,-111,0,0,0,0,0,0,0,0,0,-1,1343,1135,0,0
126,-111,0,0,0,0,0,0,0,0,0,-1,1350,1135,0,0
133,-111,0,0,0,0,0,0,0,0,0,-1,1357,1135,0,0
140,-111,0,0,0,0,0,0,0,0,0,-1,1364,1135,0,0
147,-111,0,0,0,0,0,0,0,0,0,-1,1371,1135,0,0
154,-111,0,0,0,0,0,0,0,0,0,-1,1378,1135,0,0
161,-111,0,0,0,0,0,0,0,0,0,-1,1385,1135,0,0
168,-111,0,0,0,0,0,0,0,0,0,-1,1392,1135,0,0
175,-111,0,0,0,0,0,0,0,0,0,-1,1399,1135,0,0
182,-111,0,0,0,0,0,0,0,0,0,-1,1406,1135,0,0
189,-111,0,0,0,0,0,0,0,0,0,-1,1413,1135,0,0
196,-111,0,0,0,0,0,0,0,0,0,-1,1420,1135,0,0
203,-111,0,0,0,0,0,0,0,0,0,-1,1427,1135,0,0
210,-111,0,0,0,0,0,0,0,0,0,-1,1434,1135,0,0
217,-111,0,0,0,0,0,0,0,0,0,-1,1441,1135,0,0
224,-111,0,0,0,0,0,0,0,0,0,-1,1448,1135,0,0
231,-111,0,0,0,0,0,0,0,0,0,-1,1455,1135,0,0
238,-111,0,0,0,0,0,0,0,0,0,-1,1462,1135,0,0
245,-111,0,0,0,0,0,0,0,0,0,-1,1469,1135,0,0
252,-111,0,0,0,0,0,0,0,0,0,-1,1476,1135,0,0
259,-111,0,0,0,0,0,0,0,0,0,-1,1483,1135,0,0
266,-111,0,0,0,0,0,0,0,0,0,-1,1490,1135,0,0
273,-111,0,0,0,0,0,0,0,0,0,-1,1497,1135,0,0
280,-111,0,0,0,0,0,0,0,0,0,-1,1504,1135,0,0
287,-111,0,0,0,0,0,0,0,0,0,-1,1511,1135,0,0
294,-111,0,0,0,0,0,0,0,0,0,-1,1518,1135,0,0
301,-111,0,0,0,0,0,0,0,0,0,-1,1525,1135,0,0
308,-111,0,0,0,0,0,0,0,0,0,-1,1532,1135,0,0
315,-111,0,0,0,0,0,0,0,0,0,-1,1539,1135,0,0
322,-111,0,0,0,0,0,0,0,0,0,-1,1546,1135,0,0
329,-111,0,0,0,0,0,0,0,0,0,-1,1553,1135,0,0
336,-111,0,0,0,0,0,0,0,0,0,-1,1560,1135,0,0
343,-111,0,0,0,0,0,0,0,0,0,-1,1567,1135,0,0
350,-111,0,0,0,0,0,0,0,0,0,-1,1574,1135,0,0
357,-111,0,0,0,0,0,0,0,0,0,-1,1581,1135,0,0
364,-111,0,0,0,0,0,0,0,0,0,-1,1588,1135,0,0
371,-111,0,0,0,0,0,0,0,0,0,-1,1595,1135,0,0
378,-111,0,0,0,0,0,0,0,0,0,-1,1602,1135,0,0
385,-111,0,0,0,0,0,0,0,0,0,-1,1609,1135,0,0
392,-111,0,0,0,0,0,0,0,0,0,-1,1616,1135,0,0
399,-111,0,0,0,0,0,0,0,0,0,-1,1623,1135,0,0
406,-111,0,0,0,0,0,0,0,0,0,-1,1630,1135,0,0
413,-111,0,0,0,0,0,0,0,0,0,-1,1637,1135,0,0
420,-111,0,0,0,0,0,0,0,0,0,-1,1644,1135,0,0
427,-111,0,0,0,0,0,0,0,0,0,-1,1651,1135,0,0
434,-111,0,0,0,0,0,0,0,0,0,-1,1658,1135,0,0
441,-111,0,0,0,0,0,0,0,0,0,-1,1665,1135,0,0
448,-111,0,0,0,0,0,0,0,0,0,-1,1672,1135,0,0
455,-111,0,0,0,0,0,0,0,0,0,-1,1679,1135,0,0
462,-111,0,0,0,0,0,0,0,0,0,-1,1686,1135,0,0
469,-111,0,0,0,0,0,0,0,0,0,-1,1693,1135,0,0
476,-111,0,0,0,0,0,0,0,0,0,-1,1700,1135,0,0
483,-111,0,0,0,0,0,0,0,0,0,-1,1707,1135,0,0
490,-111,0,0,0,0,0,0,0,0,0,-1,1714,1135,0,0
497,-111,0,0,0,0,0,0,0,0,0,-1,1721,1135,0,0
504,-111,0,0,0,0,0,0,0,0,0,-1,1728,1135,0,0
511,-111,0,0,0,0,0,0,0,0,0,-1,1735,1135,0,0
518,-111,0,0,0,0,0,0,0,0,0,-1,1742,1135,0,0
525,-111,0,0,0,0,0,0,0,0,0,-1,1749,1135,0,0
532,-111,0,0,0,0,0,0,0,0,0,-1,1756,1135,0,0
539,-111,0,0,0,0,0,0,0,0,0,-1,1763,1135,0,0
546,-111,0,0,0,0,0,0,0,0,0,-1,1770,1135,0,0
553,-111,0,0,0,0,0,0,0,0,0,-1,1777,1135,0,0
560,-111,0,0,0,0,0,0,0,0,0,-1,1784,1135,0,0
567,-111,0,0,0,0,0,0,0,0,0,-1,1791,1135,0,0
574,-111,0,0,0,0,0,0,0,0,0,-1,1798,1135,0,0
581,-111,0,0,0,0,0,0,0,0,0,-1,1805,1135,0,0
588,-111,0,0,0,0,0,0,0,0,0,-1,1812,1135,0,0
595,-111,0,0,0,0,0,0,0,0,0,-1,1819,1135,0,0
602,-111,0,0,0,0,0,0,0,0,0,-1,1826,1135,0,0
609,-111,0,0,0,0,0,0,0,0,0,-1,1833,1135,0,0
616,-111,0,0,0,0,0,0,0,0,0,-1,1840,1135,0,0
623,-111,0,0,0,0,0,0,0,0,0,-1,1847,1135,0,0
630,-111,0,0,0,0,0,0,0,0,0,-1,1854,1135,0,0
637,-111,0,0,0,0,0,0,0,0,0,-1,1861,1135,0,0
644,-111,40.4994,2.96155,-0.00101843,-0.00476384,-0.00793376,0.00526065,-0.0110429,-0.669498,0.00960818,0.0384011,1868,1135,40.4994,-2.96157
651,-111,40.6152,2.66736,-0.000811301,-0.00313099,-0.00602048,0.00416004,-0.00810233,-0.690239,0.00720061,0.0415164,1875,1135,40.6152,-2.66736
658,-111,40.8339,2.4231,-0.000295395,-0.00204119,-0.00450062,0.00341619,-0.00575278,-0.689612,0.0053507,0.0451942,1882,1135,40.8339,-2.42305
665,-111,40.7917,2.422,0.000117995,-0.00127952,-0.0031976,0.00269229,-0.00385382,-0.677827,0.00379918,0.0472044,1889,1135,40.7918,-2.422
672,-111,40.6819,2.57178,0.00056906,-0.000851805,-0.00208216,0.00205865,-0.00234139,-0.620991,0.00254211,0.0452982,1896,1135,40.6819,-2.57183
679,-111,40.7783,2.43884,0.000639945,-0.000767727,-0.00115,0.00128439,-0.00141218,-0.510788,0.00155745,0.0402639,1903,1135,40.7783,-2.43884
686,-111,40.7057,2.44543,0.000601129,-0.000886752,-0.000552417,0.000783802,-0.00106942,-0.31936,0.00107419,0.0381965,1910,1135,40.7057,-2.44549
693,-111,40.5607,2.63867,0.000600745,-0.000997013,-0.000139208,0.000612783,-0.00100905,-0.0862609,0.000945637,0.0366591,1917,1135,40.5606,-2.63868
700,-111,40.6697,2.60266,0.000545787,-0.000965668,0.000293027,0.000600608,-0.00102049,0.184947,0.000946348,0.028758,1924,1135,40.6697,-2.60261
707,-111,40.6199,2.59485,0,0,0,0,0,0,0,-1,1931,1135,40.6199,-2.59481
714,-111,37.9893,6.62292,0,0,0,0,0,0,0,-1,1938,1135,37.9893,-6.62294
721,-111,37.6482,6.38147,-0.000127287,-0.000814927,0.00110389,0.000685088,-0.0016273,0.634429,0.0013715,0.026999,1945,1135,37.6482,-6.38142
728,-111,37.675,6.08606,-0.000506073,-0.000629832,0.0012816,0.000715145,-0.00185105,0.761275,0.00152921,0.0215167,1952,1135,37.675,-6.08606
735,-111,37.6862,5.83459,-0.000966814,-0.000517861,0.00140873,0.000684162,-0.00216884,0.864408,0.00171992,0.0211421,1959,1135,37.6861,-5.83457
742,-111,37.6195,5.6073,-0.000983409,0.000184914,0.00168181,0.00138113,-0.00217962,0.95255,0.00207296,0.0133006,1966,1135,37.6195,-5.60729
749,-111,37.5787,5.33362,-0.00055601,0.00101441,0.00171793,0.00211807,-0.00165967,0.999756,0.00218642,0.0158681,1973,1135,37.5787,-5.3336
756,-111,37.5667,5.06177,0.00042025,0.00195186,0.00116251,0.00257814,-0.000206029,1.07665,0.00179139,0.0166085,1980,1135,37.5666,-5.06172
763,-111,37.5895,4.80554,0.00352566,0.00433677,0.000683265,0.00472577,0.00313665,1.05323,0.00277676,0.0141262,1987,1135,37.5895,-4.80556
770,-111,37.5703,4.55054,0.0074079,0.00669991,-0.000175069,0.00744882,0.00665898,-0.229639,0.00472466,0.0120306,1994,1135,37.5703,-4.55049
777,-111,37.4459,4.24963,0.0124614,0.00934061,-0.00130829,0.0129373,0.00886471,-0.348875,0.00763823,0.0248846,2001,1135,37.446,-4.24969
784,-111,37.4692,3.82019,0.018921,0.01241,-0.00280291,0.0199613,0.0113696,-0.355418,0.0115618,0.0407751,2008,1135,37.4693,-3.82016
791,-111,37.457,3.44165,0.027054,0.0160045,-0.00477358,0.0288306,0.0142278,-0.356292,0.0166458,0.0444307,2015,1135,37.4569,-3.44162
798,-111,37.1851,3.14185,0.0372561,0.0202627,-0.00731726,0.0399726,0.0175462,-0.355476,0.0231355,0.0466173,2022,1135,37.1851,-3.14187
805,-111,38.022,2.69568,0.0493738,0.0252735,-0.0104277,0.0532593,0.0213881,-0.356671,0.0309472,0.0472618,2029,1135,38.0219,-2.69569
812,-111,38.0356,2.38416,0.0633197,0.0312774,-0.0139325,0.0685304,0.0260667,-0.35789,0.0399418,0.0467148,2036,1135,38.0355,-2.38421
-700,-118,0,0,0,0,0,0,0,0,0,-1,524,1142,0,0
-693,-118,-26.1347,-1.43872,-0.0315706,0.0202028,-0.00209665,0.0202876,-0.0316554,-1.53039,0.0302278,0.0457655,531,1142,-26.1347,1.43873
-686,-118,-26.7037,-1.56079,-0.0177493,0.0210221,0.00323539,0.0212902,-0.0180175,1.48811,0.0227205,0.045605,538,1142,-26.7037,1.56083
-679,-118,-26.8378,-1.15271,-0.00815311,0.0205079,0.00619216,0.0217885,-0.0094337,1.36686,0.0184906,0.0446095,545,1142,-26.8378,1.15274
-672,-118,-26.4846,-0.373047,-0.00146276,0.0190132,0.00747815,0.0214535,-0.00390306,1.25537,0.0157652,0.044584,552,1142,-26.4846,0.37302
-665,-118,-26.4283,0.577637,0,0,0,0,0,0,0,-1,559,1142,-26.4283,-0.577624
-658,-118,-26.6734,0.946533,0.00530563,0.0143167,0.00701204,0.018146,0.00147639,1.07096,0.0116365,0.044514,566,1142,-26.6734,-0.946542
-651,-118,-26.2596,1.17944,0.00618786,0.0116645,0.00589729,0.0154282,0.00242413,1.00275,0.00958019,0.0414471,573,1142,-26.2597,-1.17945
-644,-118,-26.127,1.47522,0.00611654,0.00901935,0.00457937,0.0123718,0.00276407,0.938862,0.00749831,0.0281211,580,1142,-26.1269,-1.4752
-637,-118,-26.1957,1.8092,0.0064968,0.0063969,0.00381282,0.01026,0.0026337,0.778848,0.00615294,0.0151161,587,1142,-26.1957,-1.80924
-630,-118,-26.2376,2.0979,0.00536011,0.00413512,0.00234422,0.00717053,0.0023247,0.657615,0.00422434,0.0201725,594,1142,-26.2376,-2.09789
-623,-118,-26.2556,2.40723,0.00385033,0.00233178,0.00112671,0.00444971,0.00173239,0.488905,0.00258994,0.0167123,601,1142,-26.2556,-2.40721
-616,-118,-26.3116,2.70703,0.0028377,0.00128549,0.0010624,0.00337728,0.000745913,0.46994,0.00204866,0.0174558,608,1142,-26.3116,-2.70709
-609,-118,-26.4752,2.92139,0.00251833,0.000771616,0.00105991,0.00301835,0.000271599,0.440798,0.00192809,0.0296127,615,1142,-26.4752,-2.92133
-602,-118,-26.4117,3.38049,0.002474,0.000662638,0.000941791,0.00287493,0.000261709,0.402471,0.00183561,0.0284332,622,1142,-26.4117,-3.38051
-595,-118,-26.6205,3.81433,0,0,0,0,0,0,0,-1,629,1142,-26.6205,-3.81437
-588,-118,-25.9427,4.14209,0,0,0,0,0,0,0,-1,636,1142,-25.9427,-4.14204
-581,-118,-24.6116,3.89648,0,0,0,0,0,0,0,-1,643,1142,-24.6116,-3.89645
-574,-118,-29.4623,0.307495,0,0,0,0,0,0,0,-1,650,1142,-29.4623,-0.307506
-567,-118,-29.5875,0.842651,0.00157432,0.00209073,2.52631e-05,0.00209196,0.00157309,1.52203,0.00125788,0.0431375,657,1142,-29.5875,-0.842663
-560,-118,-29.65,1.24402,0.00142442,0.0026405,-0.000429446,0.00277686,0.00128806,-1.26333,0.00160462,0.0391878,664,1142,-29.65,-1.24404
-553,-118,-29.4475,1.02234,0.000935201,0.00330092,-0.00124386,0.00383456,0.00040157,-1.16553,0.00243358,0.0410439,671,1142,-29.4475,-1.02234
-546,-118,-29.5427,0.736938,0.000240227,0.00395648,-0.00267405,0.00535461,-0.0011579,-1.08904,0.00401179,0.0386546,678,1142,-29.5426,-0.736912
-539,-118,-29.8101,1.1189,-0.000214036,0.00443597,-0.0046669,0.00732495,-0.00310301,-1.0165,0.00618288,0.0415313,685,1142,-29.8101,-1.11893
-532,-118,-29.9198,1.13086,-5.58357e-06,0.00479645,-0.00680705,0.00961353,-0.00482266,-0.954948,0.00848635,0.0442399,692,1142,-29.9198,-1.13092
-525,-118,-29.7965,0.866699,0.000210952,0.0051423,-0.00896491,0.0119744,-0.00662118,-0.919598,0.0108835,0.0468724,699,1142,-29.7965,-0.866756
-518,-118,0,0,0,0,0,0,0,0,0,-1,706,1142,0,0
-511,-118,0,0,0,0,0,0,0,0,0,-1,713,1142,0,0
-504,-118,0,0,0,0,0,0,0,0,0,-1,720,1142,0,0
-497,-118,0,0,0,0,0,0,0,0,0,-1,727,1142,0,0
-490,-118,0,0,0,0,0,0,0,0,0,-1,734,1142,0,0
-483,-118,0,0,0,0,0,0,0,0,0,-1,741,1142,0,0
-476,-118,0,0,0,0,0,0,0,0,0,-1,748,1142,0,0
-469,-118,0,0,0,0,0,0,0,0,0,-1,755,1142,0,0
-462,-118,0,0,0,0,0,0,0,0,0,-1,762,1142,0,0
-455,-118,0,0,0,0,0,0,0,0,0,-1,769,1142,0,0
-448,-118,0,0,0,0,0,0,0,0,0,-1,776,1142,0,0
-441,-118,0,0,0,0,0,0,0,0,0,-1,783,1142,0,0
-434,-118,0,0,0,0,0,0,0,0,0,-1,790,1142,0,0
-427,-118,0,0,0,0,0,0,0,0,0,-1,797,1142,0,0
-420,-118,0,0,0,0,0,0,0,0,0,-1,804,1142,0,0
-413,-118,0,0,0,0,0,0,0,0,0,-1,811,1142,0,0
-406,-118,0,0,0,0,0,0,0,0,0,-1,818,1142,0,0
-399,-118,0,0,0,0,0,0,0,0,0,-1,825,1142,0,0
-392,-118,0,0,0,0,0,0,0,0,0,-1,832,1142,0,0
-385,-118,0,0,0,0,0,0,0,0,0,-1,839,1142,0,0
-378,-118,0,0,0,0,0,0,0,0,0,-1,846,1142,0,0
-371,-118,0,0,0,0,0,0,0,0,0,-1,853,1142,0,0
-364,-118,0,0,0,0,0,0,0,0,0,-1,860,1142,0,0
-357,-118,0,0,0,0,0,0,0,0,0,-1,867,1142,0,0
-350,-118,0,0,0,0,0,0,0,0,0,-1,874,1142,0,0
-343,-118,0,0,0,0,0,0,0,0,0,-1,881,1142,0,0
-336,-118,0,0,0,0,0,0,0,0,0,-1,888,1142,0,0
-329,-118,0,0,0,0,0,0,0,0,0,-1,895,1142,0,0
-322,-118,0,0,0,0,0,0,0,0,0,-1,902,1142,0,0
-315,-118,0,0,0,0,0,0,0,0,0,-1,909,1142,0,0
-308,-118,0,0,0,0,0,0,0,0,0,-1,916,1142,0,0
-301,-118,0,0,0,0,0,0,0,0,0,-1,923,1142,0,0
-294,-118,0,0,0,0,0,0,0,0,0,-1,930,1142,0,0
-287,-118,0,0,0,0,0,0,0,0,0,-1,937,1142,0,0
-280,-118,0,0,0,0,0,0,0,0,0,-1,944,1142,0,0
-273,-118,0,0,0,0,0,0,0,0,0,-1,951,1142,0,0
-266,-118,0,0,0,0,0,0,0,0,0,-1,958,1142,0,0
-259,-118,0,0,0,0,0,0,0,0,0,-1,965,1142,0,0
-252,-118,0,0,0,0,0,0,0,0,0,-1,972,1142,0,0
-245,-118,0,0,0,0,0,0,0,0,0,-1,979,1142,0,0
-238,-118,0,0,0,0,0,0,0,0,0,-1,986,1142,0,0
-231,-118,0,0,0,0,0,0,0,0,0,-1,993,1142,0,0
-224,-118,0,0,0,0,0,0,0,0,0,-1,1000,1142,0,0
-217,-118,0,0,0,0,0,0,0,0,0,-1,1007,1142,0,0
-210,-118,0,0,0,0,0,0,0,0,0,-1,1014,1142,0,0
-203,-118,0,0,0,0,0,0,0,0,0,-1,1021,1142,0,0
-196,-118,0,0,0,0,0,0,0,0,0,-1,1028,1142,0,0
-189,-118,0,0,0,0,0,0,0,0,0,-1,1035,1142,0,0
-182,-118,0,0,0,0,0,0,0,0,0,-1,1042,1142,0,0
-175,-118,0,0,0,0,0,0,0,0,0,-1,1049,1142,0,0
-168,-118,0,0,0,0,0,0,0,0,0,-1,1056,1142,0,0
-161,-118,0,0,0,0,0,0,0,0,0,-1,1063,1142,0,0
-154,-118,0,0,0,0,0,0,0,0,0,-1,1070,1142,0,0
-147,-118,0,0,0,0,0,0,0,0,0,-1,1077,1142,0,0
-140,-118,0,0,0,0,0,0,0,0,0,-1,1084,1142,0,0
-133,-118,0,0,0,0,0,0,0,0,0,-1,1091,1142,0,0
-126,-118,0,0,0,0,0,0,0,0,0,-1,1098,1142,0,0
-119,-118,0,0,0,0,0,0,0,0,0,-1,1105,1142,0,0
-112,-118,0,0,0,0,0,0,0,0,0,-1,1112,1142,0,0
-105,-118,0,0,0,0,0,0,0,0,0,-1,1119,1142,0,0
-98,-118,0,0,0,0,0,0,0,0,0,-1,1126,1142,0,0
-91,-118,0,0,0,0,0,0,0,0,0,-1,1133,1142,0,0
-84,-118,0,0,0,0,0,0,0,0,0,-1,1140,1142,0,0
-77,-118,0,0,0,0,0,0,0,0,0,-1,1147,1142,0,0
-70,-118,0,0,0,0,0,0,0,0,0,-1,1154,1142,0,0
-63,-118,0,0,0,0,0,0,0,0,0,-1,1161,1142,0,0
-56,-118,0,0,0,0,0,0,0,0,0,-1,1168,1142,0,0
-49,-118,0,0,0,0,0,0,0,0,0,-1,1175,1142,0,0
-42,-118,0,0,0,0,0,0,0,0,0,-1,1182,1142,0,0
-35,-118,0,0,0,0,0,0,0,0,0,-1,1189,1142,0,0
-28,-118,0,0,0,0,0,0,0,0,0,-1,1196,1142,0,0
-21,-118,0,0,0,0,0,0,0,0,0,-1,1203,1142,0,0
-14,-118,0,0,0,0,0,0,0,0,0,-1,1210,1142,0,0
-7,-118,0,0,0,0,0,0,0,0,0,-1,1217,1142,0,0
0,-118,0,0,0,0,0,0,0,0,0,-1,1224,1142,0,0
7,-118,0,0,0,0,0,0,0,0,0,-1,1231,1142,0,0
14,-118,0,0,0,0,0,0,0,0,0,-1,1238,1142,0,0
21,-118,0,0,0,0,0,0,0,0,0,-1,1245,1142,0,0
28,-118,0,0,0,0,0,0,0,0,0,-1,1252,1142,0,0
35,-118,0,0,0,0,0,0,0,0,0,-1,1259,1142,0,0
42,-118,0,0,0,0,0,0,0,0,0,-1,1266,1142,0,0
49,-118,0,0,0,0,0,0,0,0,0,-1,1273,1142,0,0
56,-118,0,0,0,0,0,0,0,0,0,-1,1280,1142,0,0
63,-118,0,0,0,0,0,0,0,0,0,-1,1287,1142,0,0
70,-118,0,0,0,0,0,0,0,0,0,-1,1294,1142,0,0
77,-118,0,0,0,0,0,0,0,0,0,-1,1301,1142,0,0
84,-118,0,0,0,0,0,0,0,0,0,-1,1308,1142,0,0
91,-118,0,0,0,0,0,0,0,0,0,-1,1315,1142,0,0
98,-118,0,0,0,0,0,0,0,0,0,-1,1322,1142,0,0
105,-118,0,0,0,0,0,0,0,0,0,-1,1329,1142,0,0
112,-118,0,0,0,0,0,0,0,0,0,-1,1336,1142,0,0
119,-118,0,0,0,0,0,0,0,0,0,-1,1343,1142,0,0
126,-118,0,0,0,0,0,0,0,0,0,-1,1350,1142,0,0
133,-118,0,0,0,0,0,0,0,0,0,-1,1357,1142,0,0
140,-118,0,0,0,0,0,0,0,0,0,-1,1364,1142,0,0
147,-118,0,0,0,0,0,0,0,0,0,-1,1371,1142,0,0
154,-118,0,0,0,0,0,0,0,0,0,-1,1378,1142,0,0
161,-118,0,0,0,0,0,0,0,0,0,-1,1385,1142,0,0
168,-118,0,0,0,0,0,0,0,0,0,-1,1392,1142,0,0
175,-118,0,0,0,0,0,0,0,0,0,-1,1399,1142,0,0
182,-118,0,0,0,0,0,0,0,0,0,-1,1406,1142,0,0
189,-118,0,0,0,0,0,0,0,0,0,-1,1413,1142,0,0
196,-118,0,0,0,0,0,0,0,0,0,-1,1420,1142,0,0
203,-118,0,0,0,0,0,0,0,0,0,-1,1427,1142,0,0
210,-118,0,0,0,0,0,0,0,0,0,-1,1434,1142,0,0
217,-118,0,0,0,0,0,0,0,0,0,-1,1441,1142,0,0
224,-118,0,0,0,0,0,0,0,0,0,-1,1448,1142,0,0
231,-118,0,0,0,0,0,0,0,0,0,-1,1455,1142,0,0
238,-118,0,0,0,0,0,0,0,0,0,-1,1462,1142,0,0
245,-118,0,0,0,0,0,0,0,0,0,-1,1469,1142,0,0
252,-118,0,0,0,0,0,0,0,0,0,-1,1476,1142,0,0
259,-118,0,0,0,0,0,0,0,0,0,-1,1483,1142,0,0
266,-118,0,0,0,0,0,0,0,0,0,-1,1490,1142,0,0
273,-118,0,0,0,0,0,0,0,0,0,-1,1497,1142,0,0
280,-118,0,0,0,0,0,0,0,0,0,-1,1504,1142,0,0
287,-118,0,0,0,0,0,0,0,0,0,-1,1511,1142,0,0
294,-118,0,0,0,0,0,0,0,0,0,-1,1518,1142,0,0
301,-118,0,0,0,0,0,0,0,0,0,-1,1525,1142,0,0
308,-118,0,0,0,0,0,0,0,0,0,-1,1532,1142,0,0
315,-118,0,0,0,0,0,0,0,0,0,-1,1539,1142,0,0
322,-118,0,0,0,0,0,0,0,0,0,-1,1546,1142,0,0
329,-118,0,0,0,0,0,0,0,0,0,-1,1553,1142,0,0
336,-118,0,0,0,0,0,0,0,0,0,-1,1560,1142,0,0
343,-118,0,0,0,0,0,0,0,0,0,-1,1567,1142,0,0
350,-118,0,0,0,0,0,0,0,0,0,-1,1574,1142,0,0
357,-118,0,0,0,0,0,0,0,0,0,-1,1581,1142,0,0
364,-118,0,0,0,0,0,0,0,0,0,-1,1588,1142,0,0
371,-118,0,0,0,0,0,0,0,0,0,-1,1595,1142,0,0
378,-118,0,0,0,0,0,0,0,0,0,-1,1602,1142,0,0
385,-118,0,0,0,0,0,0,0,0,0,-1,1609,1142,0,0
392,-118,0,0,0,0,0,0,0,0,0,-1,1616,1142,0,0
399,-118,0,0,0,0,0,0,0,0,0,-1,1623,1142,0,0
406,-118,0,0,0,0,0,0,0,0,0,-1,1630,1142,0,0
413,-118,0,0,0,0,0,0,0,0,0,-1,1637,1142,0,0
420,-118,0,0,0,0,0,0,0,0,0,-1,1644,1142,0,0
427,-118,0,0,0,0,0,0,0,0,0,-1,1651,1142,0,0
434,-118,0,0,0,0,0,0,0,0,0,-1,1658,1142,0,0
441,-118,0,0,0,0,0,0,0,0,0,-1,1665,1142,0,0
448,-118,0,0,0,0,0,0,0,0,0,-1,1672,1142,0,0
455,-118,0,0,0,0,0,0,0,0,0,-1,1679,1142,0,0
462,-118,0,0,0,0,0,0,0,0,0,-1,1686,1142,0,0
469,-118,0,0,0,0,0,0,0,0,0,-1,1693,1142,0,0
476,-118,0,0,0,0,0,0,0,0,0,-1,1700,1142,0,0
483,-118,0,0,0,0,0,0,0,0,0,-1,1707,1142,0,0
490,-118,0,0,0,0,0,0,0,0,0,-1,1714,1142,0,0
497,-118,0,0,0,0,0,0,0,0,0,-1,1721,1142,0,0
504,-118,0,0,0,0,0,0,0,0,0,-1,1728,1142,0,0
511,-118,0,0,0,0,0,0,0,0,0,-1,1735,1142,0,0
518,-118,0,0,0,0,0,0,0,0,0,-1,1742,1142,0,0
525,-118,0,0,0,0,0,0,0,0,0,-1,1749,1142,0,0
532,-118,0,0,0,0,0,0,0,0,0,-1,1756,1142,0,0
539,-118,0,0,0,0,0,0,0,0,0,-1,1763,1142,0,0
546,-118,0,0,0,0,0,0,0,0,0,-1,1770,1142,0,0
553,-118,0,0,0,0,0,0,0,0,0,-1,1777,1142,0,0
560,-118,0,0,0,0,0,0,0,0,0,-1,1784,1142,0,0
567,-118,0,0,0,0,0,0,0,0,0,-1,1791,1142,0,0
574,-118,0,0,0,0,0,0,0,0,0,-1,1798,1142,0,0
581,-118,0,0,0,0,0,0,0,0,0,-1,1805,1142,0,0
588,-118,0,0,0,0,0,0,0,0,0,-1,1812,1142,0,0
595,-118,0,0,0,0,0,0,0,0,0,-1,1819,1142,0,0
602,-118,0,0,0,0,0,0,0,0,0,-1,1826,1142,0,0
609,-118,0,0,0,0,0,0,0,0,0,-1,1833,1142,0,0
616,-118,0,0,0,0,0,0,0,0,0,-1,1840,1142,0,0
623,-118,0,0,0,0,0,0,0,0,0,-1,1847,1142,0,0
630,-118,0,0,0,0,0,0,0,0,0,-1,1854,1142,0,0
637,-118,0,0,0,0,0,0,0,0,0,-1,1861,1142,0,0
644,-118,40.5593,3.13123,-0.00130428,-0.00489334,-0.00861956,0.00570557,-0.0119032,-0.682768,0.0103742,0.0426343,1868,1142,40.5594,-3.13125
651,-118,40.6008,2.82458,-0.00105777,-0.00319264,-0.0065468,0.00450805,-0.00875845,-0.704586,0.00778935,0.0421263,1875,1142,40.6009,-2.82464
658,-118,40.7388,2.61731,-0.00048875,-0.0020639,-0.0048634,0.00365043,-0.00620308,-0.705125,0.00575221,0.0427,1882,1142,40.7387,-2.61735
665,-118,40.7366,2.57764,6.90621e-06,-0.00128344,-0.00340462,0.00282694,-0.00410347,-0.691759,0.00402384,0.0453122,1889,1142,40.7365,-2.57763
672,-118,40.5295,2.26709,0.000535136,-0.000857625,-0.00217997,0.00212725,-0.00244974,-0.630798,0.00264471,0.0477867,1896,1142,40.5295,-2.26704
679,-118,40.592,2.53687,0.000724827,-0.00078321,-0.00121232,0.00139849,-0.00145687,-0.507192,0.00164866,0.0440689,1903,1142,40.592,-2.53682
686,-118,40.5859,2.6864,0.000783032,-0.000904752,-0.000649483,0.00100403,-0.00112575,-0.327972,0.00123029,0.0374641,1910,1142,40.5859,-2.68642
693,-118,40.5612,2.68188,0.00083149,-0.0009802,-0.00028651,0.00087572,-0.00102443,-0.153167,0.00109817,0.035038,1917,1142,40.5611,-2.68188
700,-118,40.67,2.68005,0.000849935,-0.000914451,0.000136466,0.000860427,-0.000924944,0.0767363,0.00103101,0.0225203,1924,1142,40.6701,-2.68009
707,-118,40.7738,2.86804,0,0,0,0,0,0,0,-1,1931,1142,40.7737,-2.86806
714,-118,37.4976,6.81189,0,0,0,0,0,0,0,-1,1938,1142,37.4976,-6.81194
721,-118,37.3314,6.48816,0.000249407,-0.00074979,0.000899767,0.000778973,-0.00127936,0.531964,0.00120002,0.019304,1945,1142,37.3314,-6.48821
728,-118,37.3898,6.18481,-0.000101683,-0.000582988,0.00111685,0.000800146,-0.00148482,0.679283,0.00133882,0.0186863,1952,1142,37.3898,-6.18484
735,-118,37.374,5.91711,-0.00063503,-0.000534944,0.00117862,0.000594694,-0.00176467,0.806615,0.00141691,0.0186055,1959,1142,37.374,-5.91708
742,-118,37.377,5.64526,-0.000804064,0.000346503,0.00136659,0.00125396,-0.00171152,0.984621,0.0017189,0.0236862,1966,1142,37.3769,-5.64527
749,-118,37.3232,5.35156,-0.000715661,0.00120032,0.00143059,0.00196405,-0.0014794,1.08043,0.00199463,0.0212504,1973,1142,37.3232,-5.35162
756,-118,37.2852,5.08154,-0.000190439,0.0021558,0.000843308,0.00242746,-0.000462096,1.25916,0.0017923,0.0190305,1980,1142,37.2851,-5.08158
763,-118,37.3419,4.81396,0.00225376,0.00445396,0.000256524,0.00448347,0.00222425,1.45625,0.00258856,0.0110165,1987,1142,37.3419,-4.81399
770,-118,37.2826,4.5636,0.00527613,0.00675386,-0.000773621,0.00708477,0.00494523,-1.16661,0.00419595,0.0131846,1994,1142,37.2825,-4.56365
777,-118,37.1603,4.26453,0.00923525,0.00928101,-0.00216881,0.0114271,0.00708919,-0.790672,0.00666086,0.0272949,2001,1142,37.1603,-4.26455
784,-118,37.2926,3.81519,0.0142725,0.0121326,-0.00403665,0.0173786,0.00902653,-0.655845,0.0100361,0.043369,2008,1142,37.2926,-3.81521
791,-118,37.1301,3.23596,0.0205572,0.0153377,-0.00655242,0.0250005,0.0108944,-0.595884,0.0144737,0.0475296,2015,1142,37.1302,-3.23599
798,-118,39.5381,4.38599,0.0283343,0.0189128,-0.00982274,0.0345175,0.0127297,-0.561811,0.0201561,0.0480247,2022,1142,39.5381,-4.38593
805,-118,37.457,2.3252,0.0372265,0.0227427,-0.0138862,0.0456457,0.0143235,-0.545041,0.0269558,0.0467828,2029,1142,37.4571,-2.32516
812,-118,37.3252,2.02698,0,0,0,0,0,0,0,-1,2036,1142,37.3252,-2.02693
-700,-125,0,0,0,0,0,0,0,0,0,-1,524,1149,0,0
-693,-125,-26.2079,-1.39648,0,0,0,0,0,0,0,-1,531,1149,-26.2079,1.39653
-686,-125,-26.3575,-1.79968,0,0,0,0,0,0,0,-1,538,1149,-26.3575,1.79968
-679,-125,-26.4324,-1.32776,0,0,0,0,0,0,0,-1,545,1149,-26.4324,1.3278
-672,-125,-26.7317,-1.1416,0,0,0,0,0,0,0,-1,552,1149,-26.7317,1.14161
-665,-125,-27.0453,-0.560425,0,0,0,0,0,0,0,-1,559,1149,-27.0453,0.560458
-658,-125,-26.7349,1.03259,0,0,0,0,0,0,0,-1,566,1149,-26.7349,-1.03262
-651,-125,-26.267,1.15308,0.00596538,0.0112459,0.00486574,0.0141416,0.00306973,1.03398,0.00858931,0.0378686,573,1149,-26.2671,-1.15306
-644,-125,-25.8193,1.47351,0.00606403,0.00861162,0.0038427,0.0113861,0.0032895,0.945441,0.00676627,0.0268966,580,1149,-25.8193,-1.47354
-637,-125,-25.8599,1.78052,0.00645527,0.00615522,0.00322684,0.00953557,0.00307492,0.762169,0.00561985,0.0126935,587,1149,-25.86,-1.78054
-630,-125,-25.8648,2.09998,0.00536327,0.0039734,0.00208596,0.00686701,0.00246966,0.624606,0.0040164,0.0138794,594,1149,-25.8648,-2.10002
-623,-125,-25.8951,2.42151,0.00379201,0.00216721,0.00107362,0.00432596,0.00163326,0.461514,0.00252244,0.0126468,601,1149,-25.8951,-2.42152
-616,-125,-25.9153,2.72632,0.00266527,0.0010333,0.00105182,0.00318051,0.000518057,0.4555,0.00197049,0.0160571,608,1149,-25.9153,-2.72636
-609,-125,-26.045,2.97998,0.00227939,0.000470958,0.00101324,0.00273321,1.71397e-05,0.421097,0.00181645,0.0322182,615,1149,-26.045,-2.97992
-602,-125,-26.0748,3.42285,0.0022149,0.000355512,0.00082213,0.00252627,4.41467e-05,0.362037,0.00166966,0.027457,622,1149,-26.0749,-3.42284
-595,-125,-26.2674,3.86987,0,0,0,0,0,0,0,-1,629,1149,-26.2674,-3.86983
-588,-125,-25.7137,4.20764,0,0,0,0,0,0,0,-1,636,1149,-25.7137,-4.20769
-581,-125,-25.3315,4.72559,0,0,0,0,0,0,0,-1,643,1149,-25.3315,-4.72563
-574,-125,-29.4659,0.38916,0,0,0,0,0,0,0,-1,650,1149,-29.4659,-0.389158
-567,-125,-29.5379,0.691772,0.00134672,0.00158396,-0.00035636,0.00184092,0.00108975,-0.946067,0.00106883,0.0442211,657,1149,-29.5379,-0.691714
-560,-125,-29.5914,1.02954,0.00122483,0.00208051,-0.00084307,0.00259809,0.00070725,-1.0202,0.00155102,0.0398452,664,1149,-29.5914,-1.0296
-553,-125,-29.5774,0.536621,0.000811833,0.002713,-0.00164772,0.00366467,-0.000139844,-1.04703,0.00249104,0.0415259,671,1149,-29.5774,-0.536682
-546,-125,-29.6179,0.517212,0.000228815,0.00337805,-0.00302393,0.00521277,-0.0016059,-1.02544,0.00411626,0.0403665,678,1149,-29.6179,-0.51725
-539,-125,-29.5688,0.697266,-0.000245697,0.00397884,-0.00485755,0.00716349,-0.00343036,-0.990487,0.00624166,0.0410338,685,1149,-29.5688,-0.697233
-532,-125,-29.6992,0.852539,-0.00020305,0.00448233,-0.00684826,0.00937751,-0.00509824,-0.950201,0.00847843,0.0411296,692,1149,-29.6992,-0.852569
-525,-125,-29.6461,0.681519,-0.000113324,0.00485372,-0.00887456,0.0115857,-0.00684531,-0.921832,0.0107578,0.0431087,699,1149,-29.646,-0.681491
-518,-125,0,0,0,0,0,0,0,0,0,-1,706,1149,0,0
-511,-125,0,0,0,0,0,0,0,0,0,-1,713,1149,0,0
-504,-125,0,0,0,0,0,0,0,0,0,-1,720,1149,0,0
-497,-125,0,0,0,0,0,0,0,0,0,-1,727,1149,0,0
-490,-125,0,0,0,0,0,0,0,0,0,-1,734,1149,0,0
-483,-125,0,0,0,0,0,0,0,0,0,-1,741,1149,0,0
-476,-125,0,0,0,0,0,0,0,0,0,-1,748,1149,0,0
-469,-125,0,0,0,0,0,0,0,0,0,-1,755,1149,0,0
-462,-125,0,0,0,0,0,0,0,0,0,-1,762,1149,0,0
-455,-125,0,0,0,0,0,0,0,0,0,-1,769,1149,0,0
-448,-125,0,0,0,0,0,0,0,0,0,-1,776,1149,0,0
-441,-125,0,0,0,0,0,0,0,0,0,-1,783,1149,0,0
-434,-125,0,0,0,0,0,0,0,0,0,-1,790,1149,0,0
-427,-125,0,0,0,0,0,0,0,0,0,-1,797,1149,0,0
-420,-125,0,0,0,0,0,0,0,0,0,-1,804,1149,0,0
-413,-125,0,0,0,0,0,0,0,0,0,-1,811,1149,0,0
-406,-125,0,0,0,0,0,0,0,0,0,-1,818,1149,0,0
-399,-125,0,0,0,0,0,0,0,0,0,-1,825,1149,0,0
-392,-125,0,0,0,0,0,0,0,0,0,-1,832,1149,0,0
-385,-125,0,0,0,0,0,0,0,0,0,-1,839,1149,0,0
-378,-125,0,0,0,0,0,0,0,0,0,-1,846,1149,0,0
-371,-125,0,0,0,0,0,0,0,0,0,-1,853,1149,0,0
-364,-125,0,0,0,0,0,0,0,0,0,-1,860,1149,0,0
-357,-125,0,0,0,0,0,0,0,0,0,-1,867,1149,0,0
-350,-125,0,0,0,0,0,0,0,0,0,-1,874,1149,0,0
-343,-125,0,0,0,0,0,0,0,0,0,-1,881,1149,0,0
-336,-125,0,0,0,0,0,0,0,0,0,-1,888,1149,0,0
-329,-125,0,0,0,0,0,0,0,0,0,-1,895,1149,0,0
-322,-125,0,0,0,0,0,0,0,0,0,-1,902,1149,0,0
-315,-125,0,0,0,0,0,0,0,0,0,-1,909,1149,0,0
-308,-125,0,0,0,0,0,0,0,0,0,-1,916,1149,0,0
-301,-125,0,0,0,0,0,0,0,0,0,-1,923,1149,0,0
-294,-125,0,0,0,0,0,0,0,0,0,-1,930,1149,0,0
-287,-125,0,0,0,0,0,0,0,0,0,-1,937,1149,0,0
-280,-125,0,0,0,0,0,0,0,0,0,-1,944,1149,0,0
-273,-125,0,0,0,0,0,0,0,0,0,-1,951,1149,0,0
-266,-125,0,0,0,0,0,0,0,0,0,-1,958,1149,0,0
-259,-125,0,0,0,0,0,0,0,0,0,-1,965,1149,0,0
-252,-125,0,0,0,0,0,0,0,0,0,-1,972,1149,0,0
-245,-125,0,0,0,0,0,0,0,0,0,-1,979,1149,0,0
-238,-125,0,0,0,0,0,0,0,0,0,-1,986,1149,0,0
-231,-125,0,0,0,0,0,0,0,0,0,-1,993,1149,0,0
-224,-125,0,0,0,0,0,0,0,0,0,-1,1000,1149,0,0
-217,-125,0,0,0,0,0,0,0,0,0,-1,1007,1149,0,0
-210,-125,0,0,0,0,0,0,0,0,0,-1,1014,1149,0,0
-203,-125,0,0,0,0,0,0,0,0,0,-1,1021,1149,0,0
-196,-125,0,0,0,0,0,0,0,0,0,-1,1028,1149,0,0
-189,-125,0,0,0,0,0,0,0,0,0,-1,1035,1149,0,0
-182,-125,0,0,0,0,0,0,0,0,0,-1,1042,1149,0,0
-175,-125,0,0,0,0,0,0,0,0,0,-1,1049,1149,0,0
-168,-125,0,0,0,0,0,0,0,0,0,-1,1056,1149,0,0
-161,-125,0,0,0,0,0,0,0,0,0,-1,1063,1149,0,0
-154,-125,0,0,0,0,0,0,0,0,0,-1,1070,1149,0,0
-147,-125,0,0,0,0,0,0,0,0,0,-1,1077,1149,0,0
-140,-125,0,0,0,0,0,0,0,0,0,-1,1084,1149,0,0
-133,-125,0,0,0,0,0,0,0,0,0,-1,1091,1149,0,0
-126,-125,0,0,0,0,0,0,0,0,0,-1,1098,1149,0,0
-119,-125,0,0,0,0,0,0,0,0,0,-1,1105,1149,0,0
-112,-125,0,0,0,0,0,0,0,0,0,-1,1112,1149,0,0
-105,-125,0,0,0,0,0,0,0,0,0,-1,1119,1149,0,0
-98,-125,0,0,0,0,0,0,0,0,0,-1,1126,1149,0,0
-91,-125,0,0,0,0,0,0,0,0,0,-1,1133,1149,0,0
-84,-125,0,0,0,0,0,0,0,0,0,-1,1140,1149,0,0
-77,-125,0,0,0,0,0,0,0,0,0,-1,1147,1149,0,0
-70,-125,0,0,0,0,0,0,0,0,0,-1,1154,1149,0,0
-63,-125,0,0,0,0,0,0,0,0,0,-1,1161,1149,0,0
-56,-125,0,0,0,0,0,0,0,0,0,-1,1168,1149,0,0
-49,-125,0,0,0,0,0,0,0,0,0,-1,1175,1149,0,0
-42,-125,0,0,0,0,0,0,0,0,0,-1,1182,1149,0,0
-35,-125,0,0,0,0,0,0,0,0,0,-1,1189,1149,0,0
-28,-125,0,0,0,0,0,0,0,0,0,-1,1196,1149,0,0
-21,-125,0,0,0,0,0,0,0,0,0,-1,1203,1149,0,0
-14,-125,0,0,0,0,0,0,0,0,0,-1,1210,1149,0,0
-7,-125,0,0,0,0,0,0,0,0,0,-1,1217,1149,0,0
0,-125,0,0,0,0,0,0,0,0,0,-1,1224,1149,0,0
7,-125,0,0,0,0,0,0,0,0,0,-1,1231,1149,0,0
14,-125,0,0,0,0,0,0,0,0,0,-1,1238,1149,0,0
21,-125,0,0,0,0,0,0,0,0,0,-1,1245,1149,0,0
28,-125,0,0,0,0,0,0,0,0,0,-1,1252,1149,0,0
35,-125,0,0,0,0,0,0,0,0,0,-1,1259,1149,0,0
42,-125,0,0,0,0,0,0,0,0,0,-1,1266,1149,0,0
49,-125,0,0,0,0,0,0,0,0,0,-1,1273,1149,0,0
56,-125,0,0,0,0,0,0,0,0,0,-1,1280,1149,0,0
63,-125,0,0,0,0,0,0,0,0,0,-1,1287,1149,0,0
70,-125,0,0,0,0,0,0,0,0,0,-1,1294,1149,0,0
77,-125,0,0,0,0,0,0,0,0,0,-1,1301,1149,0,0
84,-125,0,0,0,0,0,0,0,0,0,-1,1308,1149,0,0
91,-125,0,0,0,0,0,0,0,0,0,-1,1315,1149,0,0
98,-125,0,0,0,0,0,0,0,0,0,-1,1322,1149,0,0
105,-125,0,0,0,0,0,0,0,0,0,-1,1329,1149,0,0
112,-125,0,0,0,0,0,0,0,0,0,-1,1336,1149,0,0
119,-125,0,0,0,0,0,0,0,0,0,-1,1343,1149,0,0
126,-125,0,0,0,0,0,0,0,0,0,-1,1350,1149,0,0
133,-125,0,0,0,0,0,0,0,0,0,-1,1357,1149,0,0
140,-125,0,0,0,0,0,0,0,0,0,-1,1364,1149,0,0
147,-125,0,0,0,0,0,0,0,0,0,-1,1371,1149,0,0
154,-125,0,0,0,0,0,0,0,0,0,-1,1378,1149,0,0
161,-125,0,0,0,0,0,0,0,0,0,-1,1385,1149,0,0
168,-125,0,0,0,0,0,0,0,0,0,-1,1392,1149,0,0
175,-125,0,0,0,0,0,0,0,0,0,-1,1399,1149,0,0
182,-125,0,0,0,0,0,0,0,0,0,-1,1406,1149,0,0
189,-125,0,0,0,0,0,0,0,0,0,-1,1413,1149,0,0
196,-125,0,0,0,0,0,0,0,0,0,-1,1420,1149,0,0
203,-125,0,0,0,0,0,0,0,0,0,-1,1427,1149,0,0
210,-125,0,0,0,0,0,0,0,0,0,-1,1434,1149,0,0
217,-125,0,0,0,0,0,0,0,0,0,-1,1441,1149,0,0
224,-125,0,0,0,0,0,0,0,0,0,-1,1448,1149,0,0
231,-125,0,0,0,0,0,0,0,0,0,-1,1455,1149,0,0
238,-125,0,0,0,0,0,0,0,0,0,-1,1462,1149,0,0
245,-125,0,0,0,0,0,0,0,0,0,-1,1469,1149,0,0
252,-125,0,0,0,0,0,0,0,0,0,-1,1476,1149,0,0
259,-125,0,0,0,0,0,0,0,0,0,-1,1483,1149,0,0
266,-125,0,0,0,0,0,0,0,0,0,-1,1490,1149,0,0
273,-125,0,0,0,0,0,0,0,0,0,-1,1497,1149,0,0
280,-125,0,0,0,0,0,0,0,0,0,-1,1504,1149,0,0
287,-125,0,0,0,0,0,0,0,0,0,-1,1511,1149,0,0
294,-125,0,0,0,0,0,0,0,0,0,-1,1518,1149,0,0
301,-125,0,0,0,0,0,0,0,0,0,-1,1525,1149,0,0
308,-125,0,0,0,0,0,0,0,0,0,-1,1532,1149,0,0
315,-125,0,0,0,0,0,0,0,0,0,-1,1539,1149,0,0
322,-125,0,0,0,0,0,0,0,0,0,-1,1546,1149,0,0
329,-125,0,0,0,0,0,0,0,0,0,-1,1553,1149,0,0
336,-125,0,0,0,0,0,0,0,0,0,-1,1560,1149,0,0
343,-125,0,0,0,0,0,0,0,0,0,-1,1567,1149,0,0
350,-125,0,0,0,0,0,0,0,0,0,-1,1574,1149,0,0
357,-125,0,0,0,0,0,0,0,0,0,-1,1581,1149,0,0
364,-125,0,0,0,0,0,0,0,0,0,-1,1588,1149,0,0
371,-125,0,0,0,0,0,0,0,0,0,-1,1595,1149,0,0
378,-125,0,0,0,0,0,0,0,0,0,-1,1602,1149,0,0
385,-125,0,0,0,0,0,0,0,0,0,-1,1609,1149,0,0
392,-125,0,0,0,0,0,0,0,0,0,-1,1616,1149,0,0
399,-125,0,0,0,0,0,0,0,0,0,-1,1623,1149,0,0
406,-125,0,0,0,0,0,0,0,0,0,-1,1630,1149,0,0
413,-125,0,0,0,0,0,0,0,0,0,-1,1637,1149,0,0
420,-125,0,0,0,0,0,0,0,0,0,-1,1644,1149,0,0
427,-125,0,0,0,0,0,0,0,0,0,-1,1651,1149,0,0
434,-125,0,0,0,0,0,0,0,0,0,-1,1658,1149,0,0
441,-125,0,0,0,0,0,0,0,0,0,-1,1665,1149,0,0
448,-125,0,0,0,0,0,0,0,0,0,-1,1672,1149,0,0
455,-125,0,0,0,0,0,0,0,0,0,-1,1679,1149,0,0
462,-125,0,0,0,0,0,0,0,0,0,-1,1686,1149,0,0
469,-125,0,0,0,0,0,0,0,0,0,-1,1693,1149,0,0
476,-125,0,0,0,0,0,0,0,0,0,-1,1700,1149,0,0
483,-125,0,0,0,0,0,0,0,0,0,-1,1707,1149,0,0
490,-125,0,0,0,0,0,0,0,0,0,-1,1714,1149,0,0
497,-125,0,0,0,0,0,0,0,0,0,-1,1721,1149,0,0
504,-125,0,0,0,0,0,0,0,0,0,-1,1728,1149,0,0
511,-125,0,0,0,0,0,0,0,0,0,-1,1735,1149,0,0
518,-125,0,0,0,0,0,0,0,0,0,-1,1742,1149,0,0
525,-125,0,0,0,0,0,0,0,0,0,-1,1749,1149,0,0
532,-125,0,0,0,0,0,0,0,0,0,-1,1756,1149,0,0
539,-125,0,0,0,0,0,0,0,0,0,-1,1763,1149,0,0
546,-125,0,0,0,0,0,0,0,0,0,-1,1770,1149,0,0
553,-125,0,0,0,0,0,0,0,0,0,-1,1777,1149,0,0
560,-125,0,0,0,0,0,0,0,0,0,-1,1784,1149,0,0
567,-125,0,0,0,0,0,0,0,0,0,-1,1791,1149,0,0
574,-125,0,0,0,0,0,0,0,0,0,-1,1798,1149,0,0
581,-125,0,0,0,0,0,0,0,0,0,-1,1805,1149,0,0
588,-125,0,0,0,0,0,0,0,0,0,-1,1812,1149,0,0
595,-125,0,0,0,0,0,0,0,0,0,-1,1819,1149,0,0
602,-125,0,0,0,0,0,0,0,0,0,-1,1826,1149,0,0
609,-125,0,0,0,0,0,0,0,0,0,-1,1833,1149,0,0
616,-125,0,0,0,0,0,0,0,0,0,-1,1840,1149,0,0
623,-125,0,0,0,0,0,0,0,0,0,-1,1847,1149,0,0
630,-125,0,0,0,0,0,0,0,0,0,-1,1854,1149,0,0
637,-125,0,0,0,0,0,0,0,0,0,-1,1861,1149,0,0
644,-125,40.7455,3.17822,-0.00141906,-0.00468876,-0.00877741,0.00587445,-0.0119823,-0.693325,0.0105087,0.0455383,1868,1149,40.7455,-3.17822
651,-125,40.5574,2.88452,-0.0011682,-0.00307144,-0.00669346,0.00464094,-0.00888059,-0.714786,0.00793354,0.042068,1875,1149,40.5574,-2.88453
658,-125,40.5879,2.70325,-0.000577041,-0.0019913,-0.00495291,0.00371897,-0.00628731,-0.714492,0.00584021,0.0419112,1882,1149,40.5878,-2.70319
665,-125,40.4912,2.54297,-1.805e-05,-0.00123112,-0.00342335,0.00285208,-0.00410125,-0.69772,0.00403604,0.0442026,1889,1149,40.4912,-2.54295
672,-125,40.4546,2.33643,0.000574094,-0.000812724,-0.00215675,0.00214616,-0.00238479,-0.629864,0.00261716,0.045589,1896,1149,40.4546,-2.33642
679,-125,40.5338,2.51367,0.000840712,-0.000735929,-0.00118515,0.00147578,-0.001371,-0.491918,0.00164396,0.0396068,1903,1149,40.5338,-2.5137
686,-125,40.5309,2.74219,0.000932091,-0.000835223,-0.000689835,0.00116947,-0.0010726,-0.331418,0.00129486,0.0356062,1910,1149,40.5309,-2.74218
693,-125,40.5264,2.672,0.000972446,-0.000870281,-0.0003892,0.00105128,-0.000949111,-0.199841,0.00115543,0.0329141,1917,1149,40.5264,-2.67201
700,-125,40.6581,2.71606,0.00101585,-0.000759169,1.56706e-05,0.00101598,-0.000759307,0.00882752,0.00102853,0.0169584,1924,1149,40.6581,-2.71608
707,-125,40.863,2.91858,0,0,0,0,0,0,0,-1,1931,1149,40.863,-2.91854
714,-125,37.0811,6.81189,0,0,0,0,0,0,0,-1,1938,1149,37.0811,-6.81192
721,-125,37.0377,6.51489,0.000432608,-0.000520455,0.000751209,0.000845682,-0.000933529,0.50275,0.00102765,0.025673,1945,1149,37.0377,-6.51492
728,-125,37.0293,6.24622,0.000105312,-0.000357243,0.00101186,0.000911987,-0.00116392,0.673045,0.00120146,0.0195685,1952,1149,37.0293,-6.24627
735,-125,37.0464,5.95349,-0.000460672,-0.000362771,0.00107227,0.00066167,-0.00148511,0.808208,0.00126947,0.0206657,1959,1149,37.0464,-5.95346
742,-125,37.062,5.65796,-0.00079171,0.000617669,0.0012761,0.00137072,-0.00154476,1.03767,0.00168426,0.0248865,1966,1149,37.062,-5.65802
749,-125,37.0059,5.36731,-0.00100642,0.0015153,0.0014439,0.00217137,-0.00166248,1.14431,0.00221997,0.0267363,1973,1149,37.0058,-5.36736
756,-125,36.9988,5.07678,-0.000867737,0.00254174,0.000978678,0.00280269,-0.00112869,1.31022,0.00233737,0.0219205,1980,1149,36.9987,-5.07684
763,-125,37.022,4.80591,0.000847872,0.00478059,0.000502741,0.00484384,0.000784621,1.44564,0.00300206,0.0125105,1987,1149,37.0219,-4.80592
770,-125,36.9799,4.51453,0.00291513,0.00705322,-0.000387817,0.00708925,0.0028791,-1.47815,0.00411696,0.0150811,1994,1149,36.9799,-4.51453
777,-125,36.915,4.26025,0.00563501,0.00952963,-0.00167354,0.01015,0.00501468,-1.21583,0.00586022,0.0288933,2001,1149,36.915,-4.26022
784,-125,37.0326,3.78601,0.00896125,0.0122664,-0.0034777,0.0144642,0.00676346,-1.0072,0.00835678,0.0466505,2008,1149,37.0326,-3.78598
791,-125,37.1992,3.28247,0,0,0,0,0,0,0,-1,2015,1149,37.1992,-3.28245
798,-125,38.3882,4.52405,0.0178067,0.01837,-0.00950471,0.0275972,0.00857947,-0.800209,0.0163088,0.0463976,2022,1149,38.3882,-4.524
805,-125,38.1233,4.17566,0.0227572,0.0213679,-0.0139985,0.0360783,0.00804679,-0.760609,0.0218691,0.0483551,2029,1149,38.1234,-4.17571
812,-125,37.5481,3.93347,0,0,0,0,0,0,0,-1,2036,1149,37.548,-3.93349
-700,-132,0,0,0,0,0,0,0,0,0,-1,524,1156,0,0
-693,-132,-24.8642,-4.04199,0,0,0,0,0,0,0,-1,531,1156,-24.8642,4.04205
-686,-132,-24.9441,0.688477,0,0,0,0,0,0,0,-1,538,1156,-24.9441,-0.688519
-679,-132,-25.9568,-1.49817,0,0,0,0,0,0,0,-1,545,1156,-25.9569,1.49821
-672,-132,-26.2015,-1.06775,-0.00475108,0.0204751,0.00270939,0.0207628,-0.0050388,1.465,0.0157917,0.0448996,552,1156,-26.2015,1.06775
-665,-132,-26.4583,-0.609375,0,0,0,0,0,0,0,-1,559,1156,-26.4583,0.609368
-658,-132,-26.7625,-0.156494,0,0,0,0,0,0,0,-1,566,1156,-26.7625,0.156451
-651,-132,-25.809,0.969727,0.00505363,0.0108903,0.00357113,0.0125839,0.00336006,1.12797,0.00752363,0.0417272,573,1156,-25.8089,-0.969733
-644,-132,-25.5262,1.4032,0.00536697,0.00825332,0.00288536,0.0100363,0.00358399,1.01729,0.00587281,0.0231141,580,1156,-25.5262,-1.40318
-637,-132,-25.5156,1.7616,0.00575242,0.00592388,0.00244064,0.0082803,0.003396,0.802954,0.0048063,0.0114655,587,1156,-25.5156,-1.76164
-630,-132,-25.5046,2.10657,0.00486825,0.00383133,0.00170955,0.00613622,0.00256335,0.63817,0.0035587,0.00983671,594,1156,-25.5046,-2.10653
-623,-132,-25.5542,2.46021,0.0034862,0.00205373,0.000974253,0.00397916,0.00156076,0.468429,0.00231509,0.0144001,601,1156,-25.5542,-2.46015
-616,-132,-25.5744,2.72119,0.00241843,0.000852274,0.00101149,0.00291454,0.000356166,0.455998,0.00183585,0.0220546,608,1156,-25.5744,-2.72122
-609,-132,-25.4473,3.04272,0.00202638,0.000210317,0.000936244,0.0024226,-0.000185904,0.400347,0.00168047,0.0277698,615,1156,-25.4473,-3.04272
-602,-132,-25.6319,3.36194,0.00194671,8.59776e-05,0.000707581,0.00218521,-0.000152524,0.325106,0.00151022,0.0253094,622,1156,-25.6319,-3.36198
-595,-132,-25.7084,3.73181,0.00137494,0.000199506,0.000788279,0.00177048,-0.000196034,0.465068,0.0012508,0.0343159,629,1156,-25.7084,-3.73181
-588,-132,-25.5284,4.23193,0.000914029,0.000529808,0.000626857,0.00137755,6.62847e-05,0.636709,0.00089709,0.0320146,636,1156,-25.5284,-4.23194
-581,-132,-25.1815,4.82336,0,0,0,0,0,0,0,-1,643,1156,-25.1815,-4.82335
-574,-132,-27.3474,2.18237,0,0,0,0,0,0,0,-1,650,1156,-27.3474,-2.18241
-567,-132,-29.59,0.734863,0,0,0,0,0,0,0,-1,657,1156,-29.59,-0.734874
-560,-132,-29.6317,0.762207,0.000918762,0.00155096,-0.000932362,0.00221935,0.000250371,-0.948832,0.00140357,0.0355818,664,1156,-29.6316,-0.762206
-553,-132,-29.6916,0.544434,0.000531727,0.00211409,-0.00165054,0.00315327,-0.000507456,-1.00889,0.00229015,0.0379159,671,1156,-29.6916,-0.544442
-546,-132,-29.6849,0.363525,2.02511e-05,0.00269408,-0.00286419,0.00451801,-0.00180367,-1.00375,0.0037603,0.0404585,678,1156,-29.6849,-0.363492
-539,-132,-29.5085,0.251465,0,0,0,0,0,0,0,-1,685,1156,-29.5085,-0.251445
-532,-132,-29.4286,0.700684,-0.000734323,0.00367151,-0.00614395,0.00799553,-0.00505835,-0.957534,0.00759999,0.0411755,692,1156,-29.4286,-0.700675
-525,-132,-29.4755,0.648438,-0.000842827,0.00391148,-0.00793021,0.00981316,-0.0067445,-0.931016,0.00961414,0.0416064,699,1156,-29.4755,-0.648406
-518,-132,0,0,0,0,0,0,0,0,0,-1,706,1156,0,0
-511,-132,0,0,0,0,0,0,0,0,0,-1,713,1156,0,0
-504,-132,0,0,0,0,0,0,0,0,0,-1,720,1156,0,0
-497,-132,0,0,0,0,0,0,0,0,0,-1,727,1156,0,0
-490,-132,0,0,0,0,0,0,0,0,0,-1,734,1156,0,0
-483,-132,0,0,0,0,0,0,0,0,0,-1,741,1156,0,0
-476,-132,0,0,0,0,0,0,0,0,0,-1,748,1156,0,0
-469,-132,0,0,0,0,0,0,0,0,0,-1,755,1156,0,0
-462,-132,0,0,0,0,0,0,0,0,0,-1,762,1156,0,0
-455,-132,0,0,0,0,0,0,0,0,0,-1,769,1156,0,0
-448,-132,0,0,0,0,0,0,0,0,0,-1,776,1156,0,0
-441,-132,0,0,0,0,0,0,0,0,0,-1,783,1156,0,0
-434,-132,0,0,0,0,0,0,0,0,0,-1,790,1156,0,0
-427,-132,0,0,0,0,0,0,0,0,0,-1,797,1156,0,0
-420,-132,0,0,0,0,0,0,0,0,0,-1,804,1156,0,0
-413,-132,0,0,0,0,0,0,0,0,0,-1,811,1156,0,0
-406,-132,0,0,0,0,0,0,0,0,0,-1,818,1156,0,0
-399,-132,0,0,0,0,0,0,0,0,0,-1,825,1156,0,0
-392,-132,0,0,0,0,0,0,0,0,0,-1,832,1156,0,0
-385,-132,0,0,0,0,0,0,0,0,0,-1,839,1156,0,0
-378,-132,0,0,0,0,0,0,0,0,0,-1,846,1156,0,0
-371,-132,0,0,0,0,0,0,0,0,0,-1,853,1156,0,0
-364,-132,0,0,0,0,0,0,0,0,0,-1,860,1156,0,0
-357,-132,0,0,0,0,0,0,0,0,0,-1,867,1156,0,0
-350,-132,0,0,0,0,0,0,0,0,0,-1,874,1156,0,0
-343,-132,0,0,0,0,0,0,0,0,0,-1,881,1156,0,0
-336,-132,0,0,0,0,0,0,0,0,0,-1,888,1156,0,0
-329,-132,0,0,0,0,0,0,0,0,0,-1,895,1156,0,0
-322,-132,0,0,0,0,0,0,0,0,0,-1,902,1156,0,0
-315,-132,0,0,0,0,0,0,0,0,0,-1,909,1156,0,0
-308,-132,0,0,0,0,0,0,0,0,0,-1,916,1156,0,0
-301,-132,0,0,0,0,0,0,0,0,0,-1,923,1156,0,0
-294,-132,0,0,0,0,0,0,0,0,0,-1,930,1156,0,0
-287,-132,0,0,0,0,0,0,0,0,0,-1,937,1156,0,0
-280,-132,0,0,0,0,0,0,0,0,0,-1,944,1156,0,0
-273,-132,0,0,0,0,0,0,0,0,0,-1,951,1156,0,0
-266,-132,0,0,0,0,0,0,0,0,0,-1,958,1156,0,0
-259,-132,0,0,0,0,0,0,0,0,0,-1,965,1156,0,0
-252,-132,0,0,0,0,0,0,0,0,0,-1,972,1156,0,0
-245,-132,0,0,0,0,0,0,0,0,0,-1,979,1156,0,0
-238,-132,0,0,0,0,0,0,0,0,0,-1,986,1156,0,0
-231,-132,0,0,0,0,0,0,0,0,0,-1,993,1156,0,0
-224,-132,0,0,0,0,0,0,0,0,0,-1,1000,1156,0,0
-217,-132,0,0,0,0,0,0,0,0,0,-1,1007,1156,0,0
-210,-132,0,0,0,0,0,0,0,0,0,-1,1014,1156,0,0
-203,-132,0,0,0,0,0,0,0,0,0,-1,1021,1156,0,0
-196,-132,0,0,0,0,0,0,0,0,0,-1,1028,1156,0,0
-189,-132,0,0,0,0,0,0,0,0,0,-1,1035,1156,0,0
-182,-132,0,0,0,0,0,0,0,0,0,-1,1042,1156,0,0
-175,-132,0,0,0,0,0,0,0,0,0,-1,1049,1156,0,0
-168,-132,0,0,0,0,0,0,0,0,0,-1,1056,1156,0,0
-161,-132,0,0,0,0,0,0,0,0,0,-1,1063,1156,0,0
-154,-132,0,0,0,0,0,0,0,0,0,-1,1070,1156,0,0
-147,-132,0,0,0,0,0,0,0,0,0,-1,1077,1156,0,0
-140,-132,0,0,0,0,0,0,0,0,0,-1,1084,1156,0,0
-133,-132,0,0,0,0,0,0,0,0,0,-1,1091,1156,0,0
-126,-132,0,0,0,0,0,0,0,0,0,-1,1098,1156,0,0
-119,-132,0,0,0,0,0,0,0,0,0,-1,1105,1156,0,0
-112,-132,0,0,0,0,0,0,0,0,0,-1,1112,1156,0,0
-105,-132,0,0,0,0,0,0,0,0,0,-1,1119,1156,0,0
-98,-132,0,0,0,0,0,0,0,0,0,-1,1126,1156,0,0
-91,-132,0,0,0,0,0,0,0,0,0,-1,1133,1156,0,0
-84,-132,0,0,0,0,0,0,0,0,0,-1,1140,1156,0,0
-77,-132,0,0,0,0,0,0,0,0,0,-1,1147,1156,0,0
-70,-132,0,0,0,0,0,0,0,0,0,-1,1154,1156,0,0
-63,-132,0,0,0,0,0,0,0,0,0,-1,1161,1156,0,0
-56,-132,0,0,0,0,0,0,0,0,0,-1,1168,1156,0,0
-49,-132,0,0,0,0,0,0,0,0,0,-1,1175,1156,0,0
-42,-132,0,0,0,0,0,0,0,0,0,-1,1182,1156,0,0
-35,-132,0,0,0,0,0,0,0,0,0,-1,1189,1156,0,0
-28,-132,0,0,0,0,0,0,0,0,0,-1,1196,1156,0,0
-21,-132,0,0,0,0,0,0,0,0,0,-1,1203,1156,0,0
-14,-132,0,0,0,0,0,0,0,0,0,-1,1210,1156,0,0
-7,-132,0,0,0,0,0,0,0,0,0,-1,1217,1156,0,0
0,-132,0,0,0,0,0,0,0,0,0,-1,1224,1156,0,0
7,-132,0,0,0,0,0,0,0,0,0,-1,1231,1156,0,0
14,-132,0,0,0,0,0,0,0,0,0,-1,1238,1156,0,0
21,-132,0,0,0,0,0,0,0,0,0,-1,1245,1156,0,0
28,-132,0,0,0,0,0,0,0,0,0,-1,1252,1156,0,0
35,-132,0,0,0,0,0,0,0,0,0,-1,1259,1156,0,0
42,-132,0,0,0,0,0,0,0,0,0,-1,1266,1156,0,0
49,-132,0,0,0,0,0,0,0,0,0,-1,1273,1156,0,0
56,-132,0,0,0,0,0,0,0,0,0,-1,1280,1156,0,0
63,-132,0,0,0,0,0,0,0,0,0,-1,1287,1156,0,0
70,-132,0,0,0,0,0,0,0,0,0,-1,1294,1156,0,0
77,-132,0,0,0,0,0,0,0,0,0,-1,1301,1156,0,0
84,-132,0,0,0,0,0,0,0,0,0,-1,1308,1156,0,0
91,-132,0,0,0,0,0,0,0,0,0,-1,1315,1156,0,0
98,-132,0,0,0,0,0,0,0,0,0,-1,1322,1156,0,0
105,-132,0,0,0,0,0,0,0,0,0,-1,1329,1156,0,0
112,-132,0,0,0,0,0,0,0,0,0,-1,1336,1156,0,0
119,-132,0,0,0,0,0,0,0,0,0,-1,1343,1156,0,0
126,-132,0,0,0,0,0,0,0,0,0,-1,1350,1156,0,0
133,-132,0,0,0,0,0,0,0,0,0,-1,1357,1156,0,0
140,-132,0,0,0,0,0,0,0,0,0,-1,1364,1156,0,0
147,-132,0,0,0,0,0,0,0,0,0,-1,1371,1156,0,0
154,-132,0,0,0,0,0,0,0,0,0,-1,1378,1156,0,0
161,-132,0,0,0,0,0,0,0,0,0,-1,1385,1156,0,0
168,-132,0,0,0,0,0,0,0,0,0,-1,1392,1156,0,0
175,-132,0,0,0,0,0,0,0,0,0,-1,1399,1156,0,0
182,-132,0,0,0,0,0,0,0,0,0,-1,1406,1156,0,0
189,-132,0,0,0,0,0,0,0,0,0,-1,1413,1156,0,0
196,-132,0,0,0,0,0,0,0,0,0,-1,1420,1156,0,0
203,-132,0,0,0,0,0,0,0,0,0,-1,1427,1156,0,0
210,-132,0,0,0,0,0,0,0,0,0,-1,1434,1156,0,0
217,-132,0,0,0,0,0,0,0,0,0,-1,1441,1156,0,0
224,-132,0,0,0,0,0,0,0,0,0,-1,1448,1156,0,0
231,-132,0,0,0,0,0,0,0,0,0,-1,1455,1156,0,0
238,-132,0,0,0,0,0,0,0,0,0,-1,1462,1156,0,0
245,-132,0,0,0,0,0,0,0,0,0,-1,1469,1156,0,0
252,-132,0,0,0,0,0,0,0,0,0,-1,1476,1156,0,0
259,-132,0,0,0,0,0,0,0,0,0,-1,1483,1156,0,0
266,-132,0,0,0,0,0,0,0,0,0,-1,1490,1156,0,0
273,-132,0,0,0,0,0,0,0,0,0,-1,1497,1156,0,0
280,-132,0,0,0,0,0,0,0,0,0,-1,1504,1156,0,0
287,-132,0,0,0,0,0,0,0,0,0,-1,1511,1156,0,0
294,-132,0,0,0,0,0,0,0,0,0,-1,1518,1156,0,0
301,-132,0,0,0,0,0,0,0,0,0,-1,1525,1156,0,0
308,-132,0,0,0,0,0,0,0,0,0,-1,1532,1156,0,0
315,-132,0,0,0,0,0,0,0,0,0,-1,1539,1156,0,0
322,-132,0,0,0,0,0,0,0,0,0,-1,1546,1156,0,0
329,-132,0,0,0,0,0,0,0,0,0,-1,1553,1156,0,0
336,-132,0,0,0,0,0,0,0,0,0,-1,1560,1156,0,0
343,-132,0,0,0,0,0,0,0,0,0,-1,1567,1156,0,0
350,-132,0,0,0,0,0,0,0,0,0,-1,1574,1156,0,0
357,-132,0,0,0,0,0,0,0,0,0,-1,1581,1156,0,0
364,-132,0,0,0,0,0,0,0,0,0,-1,1588,1156,0,0
371,-132,0,0,0,0,0,0,0,0,0,-1,1595,1156,0,0
378,-132,0,0,0,0,0,0,0,0,0,-1,1602,1156,0,0
385,-132,0,0,0,0,0,0,0,0,0,-1,1609,1156,0,0
392,-132,0,0,0,0,0,0,0,0,0,-1,1616,1156,0,0
399,-132,0,0,0,0,0,0,0,0,0,-1,1623,1156,0,0
406,-132,0,0,0,0,0,0,0,0,0,-1,1630,1156,0,0
413,-132,0,0,0,0,0,0,0,0,0,-1,1637,1156,0,0
420,-132,0,0,0,0,0,0,0,0,0,-1,1644,1156,0,0
427,-132,0,0,0,0,0,0,0,0,0,-1,1651,1156,0,0
434,-132,0,0,0,0,0,0,0,0,0,-1,1658,1156,0,0
441,-132,0,0,0,0,0,0,0,0,0,-1,1665,1156,0,0
448,-132,0,0,0,0,0,0,0,0,0,-1,1672,1156,0,0
455,-132,0,0,0,0,0,0,0,0,0,-1,1679,1156,0,0
462,-132,0,0,0,0,0,0,0,0,0,-1,1686,1156,0,0
469,-132,0,0,0,0,0,0,0,0,0,-1,1693,1156,0,0
476,-132,0,0,0,0,0,0,0,0,0,-1,1700,1156,0,0
483,-132,0,0,0,0,0,0,0,0,0,-1,1707,1156,0,0
490,-132,0,0,0,0,0,0,0,0,0,-1,1714,1156,0,0
497,-132,0,0,0,0,0,0,0,0,0,-1,1721,1156,0,0
504,-132,0,0,0,0,0,0,0,0,0,-1,1728,1156,0,0
511,-132,0,0,0,0,0,0,0,0,0,-1,1735,1156,0,0
518,-132,0,0,0,0,0,0,0,0,0,-1,1742,1156,0,0
525,-132,0,0,0,0,0,0,0,0,0,-1,1749,1156,0,0
532,-132,0,0,0,0,0,0,0,0,0,-1,1756,1156,0,0
539,-132,0,0,0,0,0,0,0,0,0,-1,1763,1156,0,0
546,-132,0,0,0,0,0,0,0,0,0,-1,1770,1156,0,0
553,-132,0,0,0,0,0,0,0,0,0,-1,1777,1156,0,0
560,-132,0,0,0,0,0,0,0,0,0,-1,1784,1156,0,0
567,-132,0,0,0,0,0,0,0,0,0,-1,1791,1156,0,0
574,-132,0,0,0,0,0,0,0,0,0,-1,1798,1156,0,0
581,-132,0,0,0,0,0,0,0,0,0,-1,1805,1156,0,0
588,-132,0,0,0,0,0,0,0,0,0,-1,1812,1156,0,0
595,-132,0,0,0,0,0,0,0,0,0,-1,1819,1156,0,0
602,-132,0,0,0,0,0,0,0,0,0,-1,1826,1156,0,0
609,-132,0,0,0,0,0,0,0,0,0,-1,1833,1156,0,0
616,-132,0,0,0,0,0,0,0,0,0,-1,1840,1156,0,0
623,-132,0,0,0,0,0,0,0,0,0,-1,1847,1156,0,0
630,-132,0,0,0,0,0,0,0,0,0,-1,1854,1156,0,0
637,-132,0,0,0,0,0,0,0,0,0,-1,1861,1156,0,0
644,-132,40.8761,3.10974,-0.00153599,-0.00402204,-0.00830581,0.00561929,-0.0111773,-0.711121,0.00987292,0.0456552,1868,1156,40.8761,-3.10975
651,-132,40.6703,2.78845,-0.00123954,-0.00278436,-0.00643077,0.00446504,-0.00848894,-0.725629,0.00759831,0.0411011,1875,1156,40.6702,-2.78844
658,-132,40.5553,2.60242,-0.000612158,-0.00189589,-0.00478365,0.0035725,-0.00608054,-0.718707,0.00563554,0.0391054,1882,1156,40.5553,-2.60241
665,-132,40.5336,2.68872,7.71026e-06,-0.00122389,-0.00330565,0.00275442,-0.00397061,-0.69331,0.00390381,0.0414749,1889,1156,40.5336,-2.68869
672,-132,40.5085,2.69324,0.00057885,-0.000870419,-0.00205212,0.00203052,-0.00232209,-0.615675,0.00251486,0.0409186,1896,1156,40.5086,-2.6932
679,-132,40.545,2.73657,0.000857521,-0.000792854,-0.00109714,0.00140516,-0.0013405,-0.462969,0.00158535,0.0390218,1903,1156,40.5451,-2.73654
686,-132,40.5406,2.74927,0.000914747,-0.000907154,-0.000653721,0.00112504,-0.00111744,-0.311229,0.0012947,0.0353184,1910,1156,40.5407,-2.74932
693,-132,40.5397,2.69458,0.000855683,-0.000937299,-0.000374797,0.000930876,-0.00101249,-0.197993,0.00112233,0.0300539,1917,1156,40.5397,-2.69457
700,-132,40.6494,2.70715,0.000851609,-0.000817744,3.47503e-05,0.000852332,-0.000818467,0.0208046,0.000964703,0.0383089,1924,1156,40.6494,-2.70719
707,-132,40.7751,2.77808,0,0,0,0,0,0,0,-1,1931,1156,40.7752,-2.77802
714,-132,36.6276,6.78564,0,0,0,0,0,0,0,-1,1938,1156,36.6275,-6.78561
721,-132,36.7521,6.49683,0.000245989,-0.000530938,0.000777014,0.000726234,-0.00101118,0.553597,0.00100759,0.0316221,1945,1156,36.7521,-6.49678
728,-132,36.7418,6.21716,-3.97892e-05,-0.000340823,0.00107294,0.000893144,-0.00127376,0.715711,0.00125748,0.0228233,1952,1156,36.7418,-6.21721
735,-132,36.7051,5.97095,-0.000558331,-0.000319844,0.00110484,0.000672166,-0.00155034,0.839154,0.00131613,0.0234718,1959,1156,36.7051,-5.97095
742,-132,36.7114,5.63745,-0.000918594,0.000734314,0.00124657,0.00140351,-0.00158779,1.07812,0.00172812,0.0194419,1966,1156,36.7114,-5.63741
749,-132,36.7061,5.34875,-0.0013016,0.00175133,0.00142185,0.00231095,-0.00186122,1.19583,0.00241346,0.024163,1973,1156,36.706,-5.34877
756,-132,36.7111,5.06323,-0.00157323,0.00297745,0.00100263,0.00318856,-0.00178434,1.36327,0.00290901,0.0232974,1980,1156,36.711,-5.06326
763,-132,36.6942,4.79932,-0.000839749,0.0053041,0.000558362,0.00535443,-0.000890082,1.4809,0.00390032,0.0144708,1987,1156,36.6942,-4.79929
770,-132,36.6862,4.52112,-3.88146e-05,0.00774686,-0.000310154,0.00775919,-5.11506e-05,-1.53104,0.00518993,0.0143089,1994,1156,36.6862,-4.52106
777,-132,36.647,4.21851,0.00106414,0.0104202,-0.00162544,0.0106946,0.000789796,-1.40359,0.00688156,0.0241993,2001,1156,36.647,-4.21845
784,-132,36.7111,3.90942,0.00230925,0.0133998,-0.00355395,0.0144409,0.00126812,-1.28582,0.00923363,0.0463977,2008,1156,36.711,-3.90943
791,-132,36.8203,3.60938,0,0,0,0,0,0,0,-1,2015,1156,36.8203,-3.60937
798,-132,37.3386,4.63135,0,0,0,0,0,0,0,-1,2022,1156,37.3386,-4.63139
805,-132,37.4434,4.76843,0,0,0,0,0,0,0,-1,2029,1156,37.4434,-4.76845
812,-132,34.9187,5.22864,0,0,0,0,0,0,0,-1,2036,1156,34.9186,-5.22869
-700,-139,0,0,0,0,0,0,0,0,0,-1,524,1163,0,0
-693,-139,-24.0678,-4.78931,0,0,0,0,0,0,0,-1,531,1163,-24.0679,4.78932
-686,-139,-25.1803,-1.54175,0,0,0,0,0,0,0,-1,538,1163,-25.1803,1.54176
-679,-139,-25.3818,-1.31531,0,0,0,0,0,0,0,-1,545,1163,-25.3818,1.31536
-672,-139,-25.6714,-1.02722,0,0,0,0,0,0,0,-1,552,1163,-25.6715,1.02719
-665,-139,-25.9178,-0.63623,0,0,0,0,0,0,0,-1,559,1163,-25.9178,0.636268
-658,-139,-25.5901,0.619873,0,0,0,0,0,0,0,-1,566,1163,-25.5901,-0.619915
-651,-139,-25.3602,1.00891,0.00316037,0.0106864,0.00168579,0.0110468,0.00280002,1.36021,0.00663126,0.0452242,573,1163,-25.3601,-1.00895
-644,-139,-25.1411,1.38977,0.00394123,0.00808717,0.001503,0.00857471,0.00345369,1.25713,0.00498171,0.0240696,580,1163,-25.1411,-1.38975
-637,-139,-25.1508,1.74683,0.00443742,0.00598372,0.00135086,0.00676704,0.0036541,1.04531,0.00391111,0.0120464,587,1163,-25.1508,-1.74682
-630,-139,-25.171,2.09888,0.00400133,0.00382314,0.00110213,0.00501795,0.00280651,0.745067,0.0029039,0.0103217,594,1163,-25.171,-2.09893
-623,-139,-25.2053,2.42773,0.00308989,0.00202133,0.000766003,0.00348954,0.00162169,0.480877,0.00201636,0.0166336,601,1163,-25.2052,-2.42772
-616,-139,-25.1833,2.73621,0.00217184,0.000749171,0.000892562,0.00260184,0.000319161,0.448957,0.00163857,0.0183482,608,1163,-25.1833,-2.73622
-609,-139,-25.0608,3.09692,0.0017418,6.22344e-05,0.000796522,0.00205947,-0.000255429,0.379483,0.00146556,0.0338406,615,1163,-25.0608,-3.0969
-602,-139,-25.2482,3.44922,0.00162392,-9.67415e-05,0.000536348,0.00177741,-0.000250234,0.278732,0.00127655,0.0298813,622,1163,-25.2482,-3.44923
-595,-139,-25.3903,3.78638,0.00107941,-1.72461e-05,0.000608915,0.0013505,-0.000288333,0.418853,0.00101025,0.0327945,629,1163,-25.3903,-3.78633
-588,-139,-25.2601,4.16565,0.000681422,0.000303687,0.000445472,0.00097641,8.69812e-06,0.584899,0.00064806,0.0294381,636,1163,-25.2601,-4.16567
-581,-139,-24.8142,4.65601,0,0,0,0,0,0,0,-1,643,1163,-24.8142,-4.65595
-574,-139,-23.0725,2.4043,0,0,0,0,0,0,0,-1,650,1163,-23.0725,-2.40433
-567,-139,-29.6096,0.804688,0,0,0,0,0,0,0,-1,657,1163,-29.6096,-0.804669
-560,-139,-29.6282,0.902588,0.000723909,0.00106888,-0.000948537,0.00186049,-6.76953e-05,-0.875339,0.0012635,0.0337635,664,1163,-29.6282,-0.902629
-553,-139,-29.6717,0.576294,0.000408865,0.00154637,-0.00152864,0.00260863,-0.000653398,-0.963496,0.00199292,0.0386654,671,1163,-29.6717,-0.576252
-546,-139,-29.6708,0.935669,5.25872e-05,0.00201692,-0.00248104,0.00370313,-0.00163362,-0.973869,0.00315745,0.042375,678,1163,-29.6708,-0.935719
-539,-139,-29.4761,0.952515,-0.000375319,0.0025455,-0.00363424,0.00500178,-0.0028316,-0.976447,0.0045801,0.0409906,685,1163,-29.4761,-0.952497
-532,-139,-29.3107,0.803467,-0.000675277,0.00291823,-0.00491244,0.00635219,-0.00410924,-0.960719,0.00608601,0.0416463,692,1163,-29.3107,-0.803422
-525,-139,-29.2563,0.711548,-0.00081626,0.00319607,-0.00632475,0.00782521,-0.00544539,-0.938975,0.00770274,0.0433397,699,1163,-29.2563,-0.711607
-518,-139,0,0,0,0,0,0,0,0,0,-1,706,1163,0,0
-511,-139,0,0,0,0,0,0,0,0,0,-1,713,1163,0,0
-504,-139,0,0,0,0,0,0,0,0,0,-1,720,1163,0,0
-497,-139,0,0,0,0,0,0,0,0,0,-1,727,1163,0,0
-490,-139,0,0,0,0,0,0,0,0,0,-1,734,1163,0,0
-483,-139,0,0,0,0,0,0,0,0,0,-1,741,1163,0,0
-476,-139,0,0,0,0,0,0,0,0,0,-1,748,1163,0,0
-469,-139,0,0,0,0,0,0,0,0,0,-1,755,1163,0,0
-462,-139,0,0,0,0,0,0,0,0,0,-1,762,1163,0,0
-455,-139,0,0,0,0,0,0,0,0,0,-1,769,1163,0,0
-448,-139,0,0,0,0,0,0,0,0,0,-1,776,1163,0,0
-441,-139,0,0,0,0,0,0,0,0,0,-1,783,1163,0,0
-434,-139,0,0,0,0,0,0,0,0,0,-1,790,1163,0,0
-427,-139,0,0,0,0,0,0,0,0,0,-1,797,1163,0,0
-420,-139,0,0,0,0,0,0,0,0,0,-1,804,1163,0,0
-413,-139,0,0,0,0,0,0,0,0,0,-1,811,1163,0,0
-406,-139,0,0,0,0,0,0,0,0,0,-1,818,1163,0,0
-399,-139,0,0,0,0,0,0,0,0,0,-1,825,1163,0,0
-392,-139,0,0,0,0,0,0,0,0,0,-1,832,1163,0,0
-385,-139,0,0,0,0,0,0,0,0,0,-1,839,1163,0,0
-378,-139,0,0,0,0,0,0,0,0,0,-1,846,1163,0,0
-371,-139,0,0,0,0,0,0,0,0,0,-1,853,1163,0,0
-364,-139,0,0,0,0,0,0,0,0,0,-1,860,1163,0,0
-357,-139,0,0,0,0,0,0,0,0,0,-1,867,1163,0,0
-350,-139,0,0,0,0,0,0,0,0,0,-1,874,1163,0,0
-343,-139,0,0,0,0,0,0,0,0,0,-1,881,1163,0,0
-336,-139,0,0,0,0,0,0,0,0,0,-1,888,1163,0,0
-329,-139,0,0,0,0,0,0,0,0,0,-1,895,1163,0,0
-322,-139,0,0,0,0,0,0,0,0,0,-1,902,1163,0,0
-315,-139,0,0,0,0,0,0,0,0,0,-1,909,1163,0,0
-308,-139,0,0,0,0,0,0,0,0,0,-1,916,1163,0,0
-301,-139,0,0,0,0,0,0,0,0,0,-1,923,1163,0,0
-294,-139,0,0,0,0,0,0,0,0,0,-1,930,1163,0,0
-287,-139,0,0,0,0,0,0,0,0,0,-1,937,1163,0,0
-280,-139,0,0,0,0,0,0,0,0,0,-1,944,1163,0,0
-273,-139,0,0,0,0,0,0,0,0,0,-1,951,1163,0,0
-266,-139,0,0,0,0,0,0,0,0,0,-1,958,1163,0,0
-259,-139,0,0,0,0,0,0,0,0,0,-1,965,1163,0,0
-252,-139,0,0,0,0,0,0,0,0,0,-1,972,1163,0,0
-245,-139,0,0,0,0,0,0,0,0,0,-1,979,1163,0,0
-238,-139,0,0,0,0,0,0,0,0,0,-1,986,1163,0,0
-231,-139,0,0,0,0,0,0,0,0,0,-1,993,1163,0,0
-224,-139,0,0,0,0,0,0,0,0,0,-1,1000,1163,0,0
-217,-139,0,0,0,0,0,0,0,0,0,-1,1007,1163,0,0
-210,-139,0,0,0,0,0,0,0,0,0,-1,1014,1163,0,0
-203,-139,0,0,0,0,0,0,0,0,0,-1,1021,1163,0,0
-196,-139,0,0,0,0,0,0,0,0,0,-1,1028,1163,0,0
-189,-139,0,0,0,0,0,0,0,0,0,-1,1035,1163,0,0
-182,-139,0,0,0,0,0,0,0,0,0,-1,1042,1163,0,0
-175,-139,0,0,0,0,0,0,0,0,0,-1,1049,1163,0,0
-168,-139,0,0,0,0,0,0,0,0,0,-1,1056,1163,0,0
-161,-139,0,0,0,0,0,0,0,0,0,-1,1063,1163,0,0
-154,-139,0,0,0,0,0,0,0,0,0,-1,1070,1163,0,0
-147,-139,0,0,0,0,0,0,0,0,0,-1,1077,1163,0,0
-140,-139,0,0,0,0,0,0,0,0,0,-1,1084,1163,0,0
-133,-139,0,0,0,0,0,0,0,0,0,-1,1091,1163,0,0
-126,-139,0,0,0,0,0,0,0,0,0,-1,1098,1163,0,0
-119,-139,0,0,0,0,0,0,0,0,0,-1,1105,1163,0,0
-112,-139,0,0,0,0,0,0,0,0,0,-1,1112,1163,0,0
-105,-139,0,0,0,0,0,0,0,0,0,-1,1119,1163,0,0
-98,-139,0,0,0,0,0,0,0,0,0,-1,1126,1163,0,0
-91,-139,0,0,0,0,0,0,0,0,0,-1,1133,1163,0,0
-84,-139,0,0,0,0,0,0,0,0,0,-1,1140,1163,0,0
-77,-139,0,0,0,0,0,0,0,0,0,-1,1147,1163,0,0
-70,-139,0,0,0,0,0,0,0,0,0,-1,1154,1163,0,0
-63,-139,0,0,0,0,0,0,0,0,0,-1,1161,1163,0,0
-56,-139,0,0,0,0,0,0,0,0,0,-1,1168,1163,0,0
-49,-139,0,0,0,0,0,0,0,0,0,-1,1175,1163,0,0
-42,-139,0,0,0,0,0,0,0,0,0,-1,1182,1163,0,0
-35,-139,0,0,0,0,0,0,0,0,0,-1,1189,1163,0,0
-28,-139,0,0,0,0,0,0,0,0,0,-1,1196,1163,0,0
-21,-139,0,0,0,0,0,0,0,0,0,-1,1203,1163,0,0
-14,-139,0,0,0,0,0,0,0,0,0,-1,1210,1163,0,0
-7,-139,0,0,0,0,0,0,0,0,0,-1,1217,1163,0,0
0,-139,0,0,0,0,0,0,0,0,0,-1,1224,1163,0,0
7,-139,0,0,0,0,0,0,0,0,0,-1,1231,1163,0,0
14,-139,0,0,0,0,0,0,0,0,0,-1,1238,1163,0,0
21,-139,0,0,0,0,0,0,0,0,0,-1,1245,1163,0,0
28,-139,0,0,0,0,0,0,0,0,0,-1,1252,1163,0,0
35,-139,0,0,0,0,0,0,0,0,0,-1,1259,1163,0,0
42,-139,0,0,0,0,0,0,0,0,0,-1,1266,1163,0,0
49,-139,0,0,0,0,0,0,0,0,0,-1,1273,1163,0,0
56,-139,0,0,0,0,0,0,0,0,0,-1,1280,1163,0,0
63,-139,0,0,0,0,0,0,0,0,0,-1,1287,1163,0,0
70,-139,0,0,0,0,0,0,0,0,0,-1,1294,1163,0,0
77,-139,0,0,0,0,0,0,0,0,0,-1,1301,1163,0,0
84,-139,0,0,0,0,0,0,0,0,0,-1,1308,1163,0,0
91,-139,0,0,0,0,0,0,0,0,0,-1,1315,1163,0,0
98,-139,0,0,0,0,0,0,0,0,0,-1,1322,1163,0,0
105,-139,0,0,0,0,0,0,0,0,0,-1,1329,1163,0,0
112,-139,0,0,0,0,0,0,0,0,0,-1,1336,1163,0,0
119,-139,0,0,0,0,0,0,0,0,0,-1,1343,1163,0,0
126,-139,0,0,0,0,0,0,0,0,0,-1,1350,1163,0,0
133,-139,0,0,0,0,0,0,0,0,0,-1,1357,1163,0,0
140,-139,0,0,0,0,0,0,0,0,0,-1,1364,1163,0,0
147,-139,0,0,0,0,0,0,0,0,0,-1,1371,1163,0,0
154,-139,0,0,0,0,0,0,0,0,0,-1,1378,1163,0,0
161,-139,0,0,0,0,0,0,0,0,0,-1,1385,1163,0,0
168,-139,0,0,0,0,0,0,0,0,0,-1,1392,1163,0,0
175,-139,0,0,0,0,0,0,0,0,0,-1,1399,1163,0,0
182,-139,0,0,0,0,0,0,0,0,0,-1,1406,1163,0,0
189,-139,0,0,0,0,0,0,0,0,0,-1,1413,1163,0,0
196,-139,0,0,0,0,0,0,0,0,0,-1,1420,1163,0,0
203,-139,0,0,0,0,0,0,0,0,0,-1,1427,1163,0,0
210,-139,0,0,0,0,0,0,0,0,0,-1,1434,1163,0,0
217,-139,0,0,0,0,0,0,0,0,0,-1,1441,1163,0,0
224,-139,0,0,0,0,0,0,0,0,0,-1,1448,1163,0,0
231,-139,0,0,0,0,0,0,0,0,0,-1,1455,1163,0,0
238,-139,0,0,0,0,0,0,0,0,0,-1,1462,1163,0,0
245,-139,0,0,0,0,0,0,0,0,0,-1,1469,1163,0,0
252,-139,0,0,0,0,0,0,0,0,0,-1,1476,1163,0,0
259,-139,0,0,0,0,0,0,0,0,0,-1,1483,1163,0,0
266,-139,0,0,0,0,0,0,0,0,0,-1,1490,1163,0,0
273,-139,0,0,0,0,0,0,0,0,0,-1,1497,1163,0,0
280,-139,0,0,0,0,0,0,0,0,0,-1,1504,1163,0,0
287,-139,0,0,0,0,0,0,0,0,0,-1,1511,1163,0,0
294,-139,0,0,0,0,0,0,0,0,0,-1,1518,1163,0,0
301,-139,0,0,0,0,0,0,0,0,0,-1,1525,1163,0,0
308,-139,0,0,0,0,0,0,0,0,0,-1,1532,1163,0,0
315,-139,0,0,0,0,0,0,0,0,0,-1,1539,1163,0,0
322,-139,0,0,0,0,0,0,0,0,0,-1,1546,1163,0,0
329,-139,0,0,0,0,0,0,0,0,0,-1,1553,1163,0,0
336,-139,0,0,0,0,0,0,0,0,0,-1,1560,1163,0,0
343,-139,0,0,0,0,0,0,0,0,0,-1,1567,1163,0,0
350,-139,0,0,0,0,0,0,0,0,0,-1,1574,1163,0,0
357,-139,0,0,0,0,0,0,0,0,0,-1,1581,1163,0,0
364,-139,0,0,0,0,0,0,0,0,0,-1,1588,1163,0,0
371,-139,0,0,0,0,0,0,0,0,0,-1,1595,1163,0,0
378,-139,0,0,0,0,0,0,0,0,0,-1,1602,1163,0,0
385,-139,0,0,0,0,0,0,0,0,0,-1,1609,1163,0,0
392,-139,0,0,0,0,0,0,0,0,0,-1,1616,1163,0,0
399,-139,0,0,0,0,0,0,0,0,0,-1,1623,1163,0,0
406,-139,0,0,0,0,0,0,0,0,0,-1,1630,1163,0,0
413,-139,0,0,0,0,0,0,0,0,0,-1,1637,1163,0,0
420,-139,0,0,0,0,0,0,0,0,0,-1,1644,1163,0,0
427,-139,0,0,0,0,0,0,0,0,0,-1,1651,1163,0,0
434,-139,0,0,0,0,0,0,0,0,0,-1,1658,1163,0,0
441,-139,0,0,0,0,0,0,0,0,0,-1,1665,1163,0,0
448,-139,0,0,0,0,0,0,0,0,0,-1,1672,1163,0,0
455,-139,0,0,0,0,0,0,0,0,0,-1,1679,1163,0,0
462,-139,0,0,0,0,0,0,0,0,0,-1,1686,1163,0,0
469,-139,0,0,0,0,0,0,0,0,0,-1,1693,1163,0,0
476,-139,0,0,0,0,0,0,0,0,0,-1,1700,1163,0,0
483,-139,0,0,0,0,0,0,0,0,0,-1,1707,1163,0,0
490,-139,0,0,0,0,0,0,0,0,0,-1,1714,1163,0,0
497,-139,0,0,0,0,0,0,0,0,0,-1,1721,1163,0,0
504,-139,0,0,0,0,0,0,0,0,0,-1,1728,1163,0,0
511,-139,0,0,0,0,0,0,0,0,0,-1,1735,1163,0,0
518,-139,0,0,0,0,0,0,0,0,0,-1,1742,1163,0,0
525,-139,0,0,0,0,0,0,0,0,0,-1,1749,1163,0,0
532,-139,0,0,0,0,0,0,0,0,0,-1,1756,1163,0,0
539,-139,0,0,0,0,0,0,0,0,0,-1,1763,1163,0,0
546,-139,0,0,0,0,0,0,0,0,0,-1,1770,1163,0,0
553,-139,0,0,0,0,0,0,0,0,0,-1,1777,1163,0,0
560,-139,0,0,0,0,0,0,0,0,0,-1,1784,1163,0,0
567,-139,0,0,0,0,0,0,0,0,0,-1,1791,1163,0,0
574,-139,0,0,0,0,0,0,0,0,0,-1,1798,1163,0,0
581,-139,0,0,0,0,0,0,0,0,0,-1,1805,1163,0,0
588,-139,0,0,0,0,0,0,0,0,0,-1,1812,1163,0,0
595,-139,0,0,0,0,0,0,0,0,0,-1,1819,1163,0,0
602,-139,0,0,0,0,0,0,0,0,0,-1,1826,1163,0,0
609,-139,0,0,0,0,0,0,0,0,0,-1,1833,1163,0,0
616,-139,0,0,0,0,0,0,0,0,0,-1,1840,1163,0,0
623,-139,0,0,0,0,0,0,0,0,0,-1,1847,1163,0,0
630,-139,0,0,0,0,0,0,0,0,0,-1,1854,1163,0,0
637,-139,0,0,0,0,0,0,0,0,0,-1,1861,1163,0,0
644,-139,40.708,3.06934,-0.00155509,-0.00336766,-0.00757379,0.00516645,-0.0100892,-0.725851,0.0089594,0.0429847,1868,1163,40.708,-3.06937
651,-139,40.5887,2.82617,-0.00121943,-0.00244092,-0.00592521,0.00412643,-0.00778678,-0.734042,0.00698547,0.0413709,1875,1163,40.5888,-2.82614
658,-139,40.7211,2.81274,-0.000572573,-0.00171753,-0.00442508,0.0033169,-0.005607,-0.72107,0.00520846,0.0415724,1882,1163,40.7211,-2.81278
665,-139,40.6851,2.9054,0.000103886,-0.0011882,-0.00303104,0.00255697,-0.00364128,-0.680398,0.00359677,0.0405495,1889,1163,40.685,-2.90539
672,-139,40.6827,2.84106,0.000646606,-0.000977277,-0.00179118,0.00180128,-0.00213195,-0.572601,0.00227353,0.0390443,1896,1163,40.6827,-2.84109
679,-139,40.7031,2.79346,0.000855339,-0.000962636,-0.000813898,0.00116647,-0.00127377,-0.365131,0.00140933,0.0380097,1903,1163,40.7031,-2.79345
686,-139,40.5931,2.73035,0.000808419,-0.00111289,-0.000372577,0.000878139,-0.00118261,-0.184988,0.0011941,0.0348264,1910,1163,40.5932,-2.7304
693,-139,40.5629,2.66943,0.000637367,-0.00115114,-9.08978e-05,0.000641974,-0.00115575,-0.0506493,0.00105195,0.0242942,1917,1163,40.5628,-2.66948
700,-139,40.6982,2.5918,0,0,0,0,0,0,0,-1,1924,1163,40.6983,-2.59184
707,-139,32.116,6.54346,0,0,0,0,0,0,0,-1,1931,1163,32.116,-6.54343
714,-139,36.3479,6.92798,0,0,0,0,0,0,0,-1,1938,1163,36.3479,-6.92794
721,-139,36.4829,6.46936,0,0,0,0,0,0,0,-1,1945,1163,36.483,-6.46934
728,-139,36.6705,6.21008,0,0,0,0,0,0,0,-1,1952,1163,36.6706,-6.21009
735,-139,36.3367,6.02039,-0.000823062,-0.000533926,0.00139721,0.000726173,-0.00208316,0.836949,0.00168386,0.0249133,1959,1163,36.3367,-6.0204
742,-139,36.3943,5.60876,-0.00121967,0.000606493,0.00148352,0.0014354,-0.00204858,1.06126,0.00202184,0.0229521,1966,1163,36.3942,-5.60882
749,-139,36.4075,5.34314,-0.00175116,0.00183091,0.00161052,0.00244852,-0.00236877,1.20461,0.00278139,0.0198233,1973,1163,36.4074,-5.34311
756,-139,36.3787,5.05603,-0.0024582,0.00337434,0.00115573,0.003595,-0.00267886,1.38214,0.00363506,0.0113494,1980,1163,36.3787,-5.05608
763,-139,36.3593,4.76599,-0.00274117,0.00595919,0.000674839,0.00601122,-0.00279321,1.49385,0.00519518,0.011282,1987,1163,36.3593,-4.76598
770,-139,36.3485,4.49829,-0.00322374,0.00877596,-0.000207989,0.00877956,-0.00322734,-1.55347,0.00717499,0.0128248,1994,1163,36.3485,-4.49826
777,-139,36.3519,4.29236,-0.00382544,0.0119406,-0.00155674,0.0120928,-0.00397768,-1.47331,0.00966459,0.0243144,2001,1163,36.3519,-4.29232
784,-139,36.3063,4.40759,-0.00479488,0.0156002,-0.0035854,0.0162122,-0.00540682,-1.40175,0.012991,0.0415476,2008,1163,36.3063,-4.4076
791,-139,36.3191,4.52405,0,0,0,0,0,0,0,-1,2015,1163,36.319,-4.52406
798,-139,36.3975,4.60144,0,0,0,0,0,0,0,-1,2022,1163,36.3974,-4.60142
805,-139,36.5034,4.72437,0,0,0,0,0,0,0,-1,2029,1163,36.5035,-4.72431
812,-139,0,0,0,0,0,0,0,0,0,-1,2036,1163,0,0
-700,-146,0,0,0,0,0,0,0,0,0,-1,524,1170,0,0
-693,-146,-23.4617,-5.32556,0,0,0,0,0,0,0,-1,531,1170,-23.4617,5.32551
-686,-146,-23.5594,-4.09705,0,0,0,0,0,0,0,-1,538,1170,-23.5594,4.09699
-679,-146,-24.8971,-1.38562,0,0,0,0,0,0,0,-1,545,1170,-24.8971,1.38559
-672,-146,-25.1087,-0.995605,0,0,0,0,0,0,0,-1,552,1170,-25.1087,0.995661
-665,-146,-24.3854,0.461792,0,0,0,0,0,0,0,-1,559,1170,-24.3854,-0.461742
-658,-146,-24.6176,0.656982,-0.00505991,0.0174221,-0.00142219,0.0175117,-0.00514952,-1.50787,0.0137171,0.0476557,566,1170,-24.6175,-0.656995
-651,-146,-24.7815,0.934937,-0.0017847,0.0135431,-0.000553264,0.0135631,-0.00180464,-1.53476,0.00969971,0.0410351,573,1170,-24.7815,-0.93499
-644,-146,-24.7515,1.35718,0.000231064,0.0101038,-8.98597e-05,0.0101046,0.000230247,-1.5617,0.00666099,0.0205061,580,1170,-24.7515,-1.35721
-637,-146,-24.7732,1.73926,0.00168522,0.00743451,0.000327316,0.00745309,0.00166665,1.51411,0.00451686,0.00997115,587,1170,-24.7732,-1.73922
-630,-146,-24.8142,2.08606,0.00214027,0.0045928,0.000496702,0.00468958,0.00204349,1.37837,0.00271497,0.0101099,594,1170,-24.8142,-2.08604
-623,-146,-24.8528,2.40942,0.00204448,0.00239791,0.000486202,0.00273852,0.00170387,0.959709,0.00159674,0.0134161,601,1170,-24.8528,-2.40939
-616,-146,-24.8953,2.76465,0.00166428,0.000824098,0.000727052,0.00208388,0.000404498,0.52343,0.00127597,0.0204402,608,1170,-24.8953,-2.76462
-609,-146,-24.7098,3.16833,0.00133737,4.14912e-05,0.000654115,0.00161013,-0.000231271,0.39507,0.00115823,0.0219976,615,1170,-24.7098,-3.16829
-602,-146,-24.3978,3.49634,0,0,0,0,0,0,0,-1,622,1170,-24.3979,-3.49633
-595,-146,-25.0887,3.83044,0.000706267,-2.46623e-05,0.000453631,0.000923336,-0.000241731,0.446312,0.000709987,0.0320595,629,1170,-25.0887,-3.8305
-588,-146,-25.0295,4.16968,0.000377221,0.000271641,0.000306847,0.000635786,1.30763e-05,0.700212,0.000419566,0.0353998,636,1170,-25.0296,-4.16971
-581,-146,-24.3748,4.82471,0,0,0,0,0,0,0,-1,643,1170,-24.3748,-4.82467
-574,-146,-17.9915,3.79114,0,0,0,0,0,0,0,-1,650,1170,-17.9915,-3.79118
-567,-146,-29.5958,0.785645,0,0,0,0,0,0,0,-1,657,1170,-29.5958,-0.785585
-560,-146,-29.5831,0.869751,0.000375349,0.000790957,-0.000843133,0.00145152,-0.000285211,-0.906223,0.00107543,0.0343351,664,1170,-29.5831,-0.869752
-553,-146,-29.559,0.932373,9.09853e-05,0.00116253,-0.00128373,0.0020178,-0.000764286,-0.983088,0.0016597,0.0373299,671,1170,-29.559,-0.93239
-546,-146,-29.5262,0.993164,-0.000156829,0.00147892,-0.00198392,0.00280694,-0.00148485,-0.98091,0.00251675,0.0411058,678,1170,-29.5262,-0.993162
-539,-146,-29.5687,1.12378,-0.000478434,0.00189142,-0.00276804,0.00371749,-0.00230451,-0.987634,0.00350856,0.0416095,685,1170,-29.5687,-1.12377
-532,-146,-29.4893,0.80481,-0.000861475,0.00208767,-0.00363573,0.00453647,-0.00331028,-0.978051,0.00454872,0.0401582,692,1170,-29.4893,-0.804793
-525,-146,-29.4439,0.688965,-0.00102425,0.00221143,-0.00463275,0.00550071,-0.00431353,-0.953387,0.00568005,0.0429064,699,1170,-29.4439,-0.688937
-518,-146,0,0,0,0,0,0,0,0,0,-1,706,1170,0,0
-511,-146,0,0,0,0,0,0,0,0,0,-1,713,1170,0,0
-504,-146,0,0,0,0,0,0,0,0,0,-1,720,1170,0,0
-497,-146,0,0,0,0,0,0,0,0,0,-1,727,1170,0,0
-490,-146,0,0,0,0,0,0,0,0,0,-1,734,1170,0,0
-483,-146,0,0,0,0,0,0,0,0,0,-1,741,1170,0,0
-476,-146,0,0,0,0,0,0,0,0,0,-1,748,1170,0,0
-469,-146,0,0,0,0,0,0,0,0,0,-1,755,1170,0,0
-462,-146,0,0,0,0,0,0,0,0,0,-1,762,1170,0,0
-455,-146,0,0,0,0,0,0,0,0,0,-1,769,1170,0,0
-448,-146,0,0,0,0,0,0,0,0,0,-1,776,1170,0,0
-441,-146,0,0,0,0,0,0,0,0,0,-1,783,1170,0,0
-434,-146,0,0,0,0,0,0,0,0,0,-1,790,1170,0,0
-427,-146,0,0,0,0,0,0,0,0,0,-1,797,1170,0,0
-420,-146,0,0,0,0,0,0,0,0,0,-1,804,1170,0,0
-413,-146,0,0,0,0,0,0,0,0,0,-1,811,1170,0,0
-406,-146,0,0,0,0,0,0,0,0,0,-1,818,1170,0,0
-399,-146,0,0,0,0,0,0,0,0,0,-1,825,1170,0,0
-392,-146,0,0,0,0,0,0,0,0,0,-1,832,1170,0,0
-385,-146,0,0,0,0,0,0,0,0,0,-1,839,1170,0,0
-378,-146,0,0,0,0,0,0,0,0,0,-1,846,1170,0,0
-371,-146,0,0,0,0,0,0,0,0,0,-1,853,1170,0,0
-364,-146,0,0,0,0,0,0,0,0,0,-1,860,1170,0,0
-357,-146,0,0,0,0,0,0,0,0,0,-1,867,1170,0,0
-350,-146,0,0,0,0,0,0,0,0,0,-1,874,1170,0,0
-343,-146,0,0,0,0,0,0,0,0,0,-1,881,1170,0,0
-336,-146,0,0,0,0,0,0,0,0,0,-1,888,1170,0,0
-329,-146,0,0,0,0,0,0,0,0,0,-1,895,1170,0,0
-322,-146,0,0,0,0,0,0,0,0,0,-1,902,1170,0,0
-315,-146,0,0,0,0,0,0,0,0,0,-1,909,1170,0,0
-308,-146,0,0,0,0,0,0,0,0,0,-1,916,1170,0,0
-301,-146,0,0,0,0,0,0,0,0,0,-1,923,1170,0,0
-294,-146,0,0,0,0,0,0,0,0,0,-1,930,1170,0,0
-287,-146,0,0,0,0,0,0,0,0,0,-1,937,1170,0,0
-280,-146,0,0,0,0,0,0,0,0,0,-1,944,1170,0,0
-273,-146,0,0,0,0,0,0,0,0,0,-1,951,1170,0,0
-266,-146,0,0,0,0,0,0,0,0,0,-1,958,1170,0,0
-259,-146,0,0,0,0,0,0,0,0,0,-1,965,1170,0,0
-252,-146,0,0,0,0,0,0,0,0,0,-1,972,1170,0,0
-245,-146,0,0,0,0,0,0,0,0,0,-1,979,1170,0,0
-238,-146,0,0,0,0,0,0,0,0,0,-1,986,1170,0,0
-231,-146,0,0,0,0,0,0,0,0,0,-1,993,1170,0,0
-224,-146,0,0,0,0,0,0,0,0,0,-1,1000,1170,0,0
-217,-146,0,0,0,0,0,0,0,0,0,-1,1007,1170,0,0
-210,-146,0,0,0,0,0,0,0,0,0,-1,1014,1170,0,0
-203,-146,0,0,0,0,0,0,0,0,0,-1,1021,1170,0,0
-196,-146,0,0,0,0,0,0,0,0,0,-1,1028,1170,0,0
-189,-146,0,0,0,0,0,0,0,0,0,-1,1035,1170,0,0
-182,-146,0,0,0,0,0,0,0,0,0,-1,1042,1170,0,0
-175,-146,0,0,0,0,0,0,0,0,0,-1,1049,1170,0,0
-168,-146,0,0,0,0,0,0,0,0,0,-1,1056,1170,0,0
-161,-146,0,0,0,0,0,0,0,0,0,-1,1063,1170,0,0
-154,-146,0,0,0,0,0,0,0,0,0,-1,1070,1170,0,0
-147,-146,0,0,0,0,0,0,0,0,0,-1,1077,1170,0,0
-140,-146,0,0,0,0,0,0,0,0,0,-1,1084,1170,0,0
-133,-146,0,0,0,0,0,0,0,0,0,-1,1091,1170,0,0
-126,-146,0,0,0,0,0,0,0,0,0,-1,1098,1170,0,0
-119,-146,0,0,0,0,0,0,0,0,0,-1,1105,1170,0,0
-112,-146,0,0,0,0,0,0,0,0,0,-1,1112,1170,0,0
-105,-146,0,0,0,0,0,0,0,0,0,-1,1119,1170,0,0
-98,-146,0,0,0,0,0,0,0,0,0,-1,1126,1170,0,0
-91,-146,0,0,0,0,0,0,0,0,0,-1,1133,1170,0,0
-84,-146,0,0,0,0,0,0,0,0,0,-1,1140,1170,0,0
-77,-146,0,0,0,0,0,0,0,0,0,-1,1147,1170,0,0
-70,-146,0,0,0,0,0,0,0,0,0,-1,1154,1170,0,0
-63,-146,0,0,0,0,0,0,0,0,0,-1,1161,1170,0,0
-56,-146,0,0,0,0,0,0,0,0,0,-1,1168,1170,0,0
-49,-146,0,0,0,0,0,0,0,0,0,-1,1175,1170,0,0
-42,-146,0,0,0,0,0,0,0,0,0,-1,1182,1170,0,0
-35,-146,0,0,0,0,0,0,0,0,0,-1,1189,1170,0,0
-28,-146,0,0,0,0,0,0,0,0,0,-1,1196,1170,0,0
-21,-146,0,0,0,0,0,0,0,0,0,-1,1203,1170,0,0
-14,-146,0,0,0,0,0,0,0,0,0,-1,1210,1170,0,0
-7,-146,0,0,0,0,0,0,0,0,0,-1,1217,1170,0,0
0,-146,0,0,0,0,0,0,0,0,0,-1,1224,1170,0,0
7,-146,0,0,0,0,0,0,0,0,0,-1,1231,1170,0,0
14,-146,0,0,0,0,0,0,0,0,0,-1,1238,1170,0,0
21,-146,0,0,0,0,0,0,0,0,0,-1,1245,1170,0,0
28,-146,0,0,0,0,0,0,0,0,0,-1,1252,1170,0,0
35,-146,0,0,0,0,0,0,0,0,0,-1,1259,1170,0,0
42,-146,0,0,0,0,0,0,0,0,0,-1,1266,1170,0,0
49,-146,0,0,0,0,0,0,0,0,0,-1,1273,1170,0,0
56,-146,0,0,0,0,0,0,0,0,0,-1,1280,1170,0,0
63,-146,0,0,0,0,0,0,0,0,0,-1,1287,1170,0,0
70,-146,0,0,0,0,0,0,0,0,0,-1,1294,1170,0,0
77,-146,0,0,0,0,0,0,0,0,0,-1,1301,1170,0,0
84,-146,0,0,0,0,0,0,0,0,0,-1,1308,1170,0,0
91,-146,0,0,0,0,0,0,0,0,0,-1,1315,1170,0,0
98,-146,0,0,0,0,0,0,0,0,0,-1,1322,1170,0,0
105,-146,0,0,0,0,0,0,0,0,0,-1,1329,1170,0,0
112,-146,0,0,0,0,0,0,0,0,0,-1,1336,1170,0,0
119,-146,0,0,0,0,0,0,0,0,0,-1,1343,1170,0,0
126,-146,0,0,0,0,0,0,0,0,0,-1,1350,1170,0,0
133,-146,0,0,0,0,0,0,0,0,0,-1,1357,1170,0,0
140,-146,0,0,0,0,0,0,0,0,0,-1,1364,1170,0,0
147,-146,0,0,0,0,0,0,0,0,0,-1,1371,1170,0,0
154,-146,0,0,0,0,0,0,0,0,0,-1,1378,1170,0,0
161,-146,0,0,0,0,0,0,0,0,0,-1,1385,1170,0,0
168,-146,0,0,0,0,0,0,0,0,0,-1,1392,1170,0,0
175,-146,0,0,0,0,0,0,0,0,0,-1,1399,1170,0,0
182,-146,0,0,0,0,0,0,0,0,0,-1,1406,1170,0,0
189,-146,0,0,0,0,0,0,0,0,0,-1,1413,1170,0,0
196,-146,0,0,0,0,0,0,0,0,0,-1,1420,1170,0,0
203,-146,0,0,0,0,0,0,0,0,0,-1,1427,1170,0,0
210,-146,0,0,0,0,0,0,0,0,0,-1,1434,1170,0,0
217,-146,0,0,0,0,0,0,0,0,0,-1,1441,1170,0,0
224,-146,0,0,0,0,0,0,0,0,0,-1,1448,1170,0,0
231,-146,0,0,0,0,0,0,0,0,0,-1,1455,1170,0,0
238,-146,0,0,0,0,0,0,0,0,0,-1,1462,1170,0,0
245,-146,0,0,0,0,0,0,0,0,0,-1,1469,1170,0,0
252,-146,0,0,0,0,0,0,0,0,0,-1,1476,1170,0,0
259,-146,0,0,0,0,0,0,0,0,0,-1,1483,1170,0,0
266,-146,0,0,0,0,0,0,0,0,0,-1,1490,1170,0,0
273,-146,0,0,0,0,0,0,0,0,0,-1,1497,1170,0,0
280,-146,0,0,0,0,0,0,0,0,0,-1,1504,1170,0,0
287,-146,0,0,0,0,0,0,0,0,0,-1,1511,1170,0,0
294,-146,0,0,0,0,0,0,0,0,0,-1,1518,1170,0,0
301,-146,0,0,0,0,0,0,0,0,0,-1,1525,1170,0,0
308,-146,0,0,0,0,0,0,0,0,0,-1,1532,1170,0,0
315,-146,0,0,0,0,0,0,0,0,0,-1,1539,1170,0,0
322,-146,0,0,0,0,0,0,0,0,0,-1,1546,1170,0,0
329,-146,0,0,0,0,0,0,0,0,0,-1,1553,1170,0,0
336,-146,0,0,0,0,0,0,0,0,0,-1,1560,1170,0,0
343,-146,0,0,0,0,0,0,0,0,0,-1,1567,1170,0,0
350,-146,0,0,0,0,0,0,0,0,0,-1,1574,1170,0,0
357,-146,0,0,0,0,0,0,0,0,0,-1,1581,1170,0,0
364,-146,0,0,0,0,0,0,0,0,0,-1,1588,1170,0,0
371,-146,0,0,0,0,0,0,0,0,0,-1,1595,1170,0,0
378,-146,0,0,0,0,0,0,0,0,0,-1,1602,1170,0,0
385,-146,0,0,0,0,0,0,0,0,0,-1,1609,1170,0,0
392,-146,0,0,0,0,0,0,0,0,0,-1,1616,1170,0,0
399,-146,0,0,0,0,0,0,0,0,0,-1,1623,1170,0,0
406,-146,0,0,0,0,0,0,0,0,0,-1,1630,1170,0,0
413,-146,0,0,0,0,0,0,0,0,0,-1,1637,1170,0,0
420,-146,0,0,0,0,0,0,0,0,0,-1,1644,1170,0,0
427,-146,0,0,0,0,0,0,0,0,0,-1,1651,1170,0,0
434,-146,0,0,0,0,0,0,0,0,0,-1,1658,1170,0,0
441,-146,0,0,0,0,0,0,0,0,0,-1,1665,1170,0,0
448,-146,0,0,0,0,0,0,0,0,0,-1,1672,1170,0,0
455,-146,0,0,0,0,0,0,0,0,0,-1,1679,1170,0,0
462,-146,0,0,0,0,0,0,0,0,0,-1,1686,1170,0,0
469,-146,0,0,0,0,0,0,0,0,0,-1,1693,1170,0,0
476,-146,0,0,0,0,0,0,0,0,0,-1,1700,1170,0,0
483,-146,0,0,0,0,0,0,0,0,0,-1,1707,1170,0,0
490,-146,0,0,0,0,0,0,0,0,0,-1,1714,1170,0,0
497,-146,0,0,0,0,0,0,0,0,0,-1,1721,1170,0,0
504,-146,0,0,0,0,0,0,0,0,0,-1,1728,1170,0,0
511,-146,0,0,0,0,0,0,0,0,0,-1,1735,1170,0,0
518,-146,0,0,0,0,0,0,0,0,0,-1,1742,1170,0,0
525,-146,0,0,0,0,0,0,0,0,0,-1,1749,1170,0,0
532,-146,0,0,0,0,0,0,0,0,0,-1,1756,1170,0,0
539,-146,0,0,0,0,0,0,0,0,0,-1,1763,1170,0,0
546,-146,0,0,0,0,0,0,0,0,0,-1,1770,1170,0,0
553,-146,0,0,0,0,0,0,0,0,0,-1,1777,1170,0,0
560,-146,0,0,0,0,0,0,0,0,0,-1,1784,1170,0,0
567,-146,0,0,0,0,0,0,0,0,0,-1,1791,1170,0,0
574,-146,0,0,0,0,0,0,0,0,0,-1,1798,1170,0,0
581,-146,0,0,0,0,0,0,0,0,0,-1,1805,1170,0,0
588,-146,0,0,0,0,0,0,0,0,0,-1,1812,1170,0,0
595,-146,0,0,0,0,0,0,0,0,0,-1,1819,1170,0,0
602,-146,0,0,0,0,0,0,0,0,0,-1,1826,1170,0,0
609,-146,0,0,0,0,0,0,0,0,0,-1,1833,1170,0,0
616,-146,0,0,0,0,0,0,0,0,0,-1,1840,1170,0,0
623,-146,0,0,0,0,0,0,0,0,0,-1,1847,1170,0,0
630,-146,0,0,0,0,0,0,0,0,0,-1,1854,1170,0,0
637,-146,40.6447,2.72864,0,0,0,0,0,0,0,-1,1861,1170,40.6446,-2.7286
644,-146,40.5566,2.81812,0,0,0,0,0,0,0,-1,1868,1170,40.5566,-2.81816
651,-146,40.5656,2.67102,-0.00106998,-0.00205527,-0.00516458,0.0036254,-0.00675065,-0.737847,0.00608052,0.0362546,1875,1170,40.5655,-2.67097
658,-146,40.6919,2.93018,-0.000405071,-0.00137882,-0.00387369,0.00301222,-0.00479611,-0.722882,0.00454719,0.0402868,1882,1170,40.6919,-2.93014
665,-146,40.71,2.94336,0.000283948,-0.000905377,-0.00265454,0.00240962,-0.00303105,-0.675209,0.003148,0.0398321,1889,1170,40.71,-2.94332
672,-146,40.7305,2.80676,0.000740679,-0.000777093,-0.00151788,0.00167881,-0.00171522,-0.553588,0.00195958,0.0365004,1896,1170,40.7304,-2.8068
679,-146,40.7167,2.69165,0.00080412,-0.000818522,-0.000581547,0.000991017,-0.00100542,-0.310953,0.00115265,0.0319994,1903,1170,40.7167,-2.69169
686,-146,40.5728,2.6499,0.000629071,-0.00100131,-0.00015879,0.000644392,-0.00101663,-0.0961902,0.000966984,0.024957,1910,1170,40.5727,-2.64992
693,-146,40.6368,2.63232,0.000359269,-0.00105568,0.000127791,0.000370717,-0.00106713,0.0893518,0.000861987,0.0172907,1917,1170,40.6368,-2.63236
700,-146,40.8024,2.55005,0,0,0,0,0,0,0,-1,1924,1170,40.8023,-2.55002
707,-146,29.9441,6.94653,0,0,0,0,0,0,0,-1,1931,1170,29.9441,-6.94652
714,-146,31.325,6.13245,0,0,0,0,0,0,0,-1,1938,1170,31.325,-6.1325
721,-146,36.8042,5.65552,0,0,0,0,0,0,0,-1,1945,1170,36.8042,-5.65547
728,-146,36.4623,5.99158,0,0,0,0,0,0,0,-1,1952,1170,36.4623,-5.9916
735,-146,36.0619,5.99219,-0.00109905,-0.000613753,0.00166909,0.000830236,-0.00254304,0.857581,0.00202952,0.0239704,1959,1170,36.0619,-5.99222
742,-146,36.0883,5.64758,-0.00151511,0.000522291,0.00172494,0.00150688,-0.0024997,1.05213,0.00233675,0.0181036,1966,1170,36.0883,-5.6476
749,-146,36.0795,5.35254,-0.00217288,0.00197889,0.00177524,0.00263445,-0.00282843,1.21705,0.00315466,0.0161309,1973,1170,36.0795,-5.35251
756,-146,36.0618,5.04236,-0.00331923,0.00392641,0.00124343,0.00413385,-0.00352668,1.40548,0.00442744,0.0122026,1980,1170,36.0618,-5.04232
763,-146,36.0297,4.74927,-0.00461422,0.00689102,0.000632306,0.00692566,-0.00464887,1.51606,0.00672552,0.0112908,1987,1170,36.0297,-4.74926
770,-146,36.022,4.4541,-0.00640128,0.0102974,-0.000361205,0.0103053,-0.00640909,-1.54918,0.00973703,0.012278,1994,1170,36.022,-4.45409
777,-146,36.0437,4.32996,-0.00883402,0.0142754,-0.0018568,0.0144236,-0.00898227,-1.49113,0.0136346,0.0213964,2001,1170,36.0437,-4.32994
784,-146,35.7051,4.62329,-0.0122095,0.0190076,-0.00409801,0.0195366,-0.0127385,-1.44242,0.0187713,0.0378054,2008,1170,35.705,-4.62333
791,-146,35.4268,4.87793,0,0,0,0,0,0,0,-1,2015,1170,35.4268,-4.87796
798,-146,35.5051,4.59656,0,0,0,0,0,0,0,-1,2022,1170,35.5052,-4.59659
805,-146,35.7534,4.41565,0,0,0,0,0,0,0,-1,2029,1170,35.7534,-4.41559
812,-146,0,0,0,0,0,0,0,0,0,-1,2036,1170,0,0
-700,-153,0,0,0,0,0,0,0,0,0,-1,524,1177,0,0
-693,-153,0,0,0,0,0,0,0,0,0,-1,531,1177,0,0
-686,-153,-22.6756,-4.8905,0,0,0,0,0,0,0,-1,538,1177,-22.6756,4.89048
-679,-153,-24.6948,-1.54248,0,0,0,0,0,0,0,-1,545,1177,-24.6948,1.54246
-672,-153,-24.783,-1.1073,0,0,0,0,0,0,0,-1,552,1177,-24.783,1.10734
-665,-153,-24.1481,-0.287109,0,0,0,0,0,0,0,-1,559,1177,-24.1481,0.287112
-658,-153,-24.2842,0.210205,-0.012983,0.0260479,-0.00352562,0.0263638,-0.0132989,-1.48143,0.0233097,0.0484191,566,1177,-24.2842,-0.210254
-651,-153,-24.485,0.762085,-0.00831043,0.0201209,-0.00215784,0.0202837,-0.00847327,-1.49547,0.0170632,0.0459156,573,1177,-24.485,-0.762137
-644,-153,-24.4154,1.35156,-0.00482703,0.0148738,-0.00124582,0.0149523,-0.0049055,-1.50789,0.011944,0.029382,580,1177,-24.4154,-1.35156
-637,-153,-24.4123,1.75146,-0.00211245,0.0106016,-0.000503879,0.0106216,-0.00213238,-1.53125,0.0078885,0.0114349,587,1177,-24.4123,-1.75149
-630,-153,-24.4388,2.08264,-0.000501479,0.00656773,-2.26181e-05,0.0065678,-0.000501551,-1.5676,0.00455493,0.00995435,594,1177,-24.4388,-2.08268
-623,-153,-24.467,2.41248,0.000502206,0.00347883,0.00022643,0.00349596,0.00048508,1.49531,0.00218695,0.010646,601,1177,-24.467,-2.41246
-616,-153,-24.5037,2.76941,0.00096009,0.00118095,0.000499719,0.0015823,0.000558747,0.894144,0.000926586,0.0140489,608,1177,-24.5037,-2.76945
-609,-153,-24.4489,3.13721,0.000883186,0.000108699,0.000401934,0.00105407,-6.21875e-05,0.402006,0.000724334,0.0201537,615,1177,-24.4489,-3.13719
-602,-153,-24.3615,3.50403,0,0,0,0,0,0,0,-1,622,1177,-24.3615,-3.50408
-595,-153,-24.6448,3.92407,0.000336236,-0.000122145,0.000188891,0.000404044,-0.000189953,0.344652,0.000350291,0.049505,629,1177,-24.6448,-3.9241
-588,-153,-24.8532,4.21924,8.49259e-05,0.000131481,5.49335e-05,0.000167866,4.85418e-05,0.985801,9.97478e-05,0.0313095,636,1177,-24.8532,-4.2193
-581,-153,-24.3903,4.56128,0,0,0,0,0,0,0,-1,643,1177,-24.3903,-4.56123
-574,-153,-24.2416,4.83008,0,0,0,0,0,0,0,-1,650,1177,-24.2416,-4.83009
-567,-153,-29.572,0.946533,0,0,0,0,0,0,0,-1,657,1177,-29.572,-0.946582
-560,-153,-29.5568,0.875366,-2.3692e-05,0.000333371,-0.000821633,0.000995645,-0.000685966,-0.89238,0.000976351,0.0385294,664,1177,-29.5567,-0.875398
-553,-153,-29.5115,0.810669,-0.000313597,0.000589074,-0.0011179,0.00134331,-0.00106783,-0.97726,0.0013951,0.0358485,671,1177,-29.5115,-0.810699
-546,-153,-29.4337,0.745483,-0.000511543,0.000741728,-0.00157043,0.00180593,-0.00157574,-0.975229,0.00195392,0.0401224,678,1177,-29.4336,-0.745472
-539,-153,-29.6553,0.848999,-0.000758071,0.00103235,-0.00200906,0.00233662,-0.00206235,-0.994987,0.00254139,0.0415048,685,1177,-29.6553,-0.848959
-532,-153,-29.6291,0.765015,-0.00122642,0.00106545,-0.00250816,0.00267706,-0.00283803,-0.999679,0.00318459,0.0407458,692,1177,-29.6291,-0.764961
-525,-153,-29.6282,0.686035,-0.0013933,0.000956123,-0.00322452,0.00321324,-0.00365042,-0.960079,0.00396541,0.0408689,699,1177,-29.6282,-0.686041
-518,-153,0,0,0,0,0,0,0,0,0,-1,706,1177,0,0
-511,-153,0,0,0,0,0,0,0,0,0,-1,713,1177,0,0
-504,-153,0,0,0,0,0,0,0,0,0,-1,720,1177,0,0
-497,-153,0,0,0,0,0,0,0,0,0,-1,727,1177,0,0
-490,-153,0,0,0,0,0,0,0,0,0,-1,734,1177,0,0
-483,-153,0,0,0,0,0,0,0,0,0,-1,741,1177,0,0
-476,-153,0,0,0,0,0,0,0,0,0,-1,748,1177,0,0
-469,-153,0,0,0,0,0,0,0,0,0,-1,755,1177,0,0
-462,-153,0,0,0,0,0,0,0,0,0,-1,762,1177,0,0
-455,-153,0,0,0,0,0,0,0,0,0,-1,769,1177,0,0
-448,-153,0,0,0,0,0,0,0,0,0,-1,776,1177,0,0
-441,-153,0,0,0,0,0,0,0,0,0,-1,783,1177,0,0
-434,-153,0,0,0,0,0,0,0,0,0,-1,790,1177,0,0
-427,-153,0,0,0,0,0,0,0,0,0,-1,797,1177,0,0
-420,-153,0,0,0,0,0,0,0,0,0,-1,804,1177,0,0
-413,-153,0,0,0,0,0,0,0,0,0,-1,811,1177,0,0
-406,-153,0,0,0,0,0,0,0,0,0,-1,818,1177,0,0
-399,-153,0,0,0,0,0,0,0,0,0,-1,825,1177,0,0
-392,-153,0,0,0,0,0,0,0,0,0,-1,832,1177,0,0
-385,-153,0,0,0,0,0,0,0,0,0,-1,839,1177,0,0
-378,-153,0,0,0,0,0,0,0,0,0,-1,846,1177,0,0
-371,-153,0,0,0,0,0,0,0,0,0,-1,853,1177,0,0
-364,-153,0,0,0,0,0,0,0,0,0,-1,860,1177,0,0
-357,-153,0,0,0,0,0,0,0,0,0,-1,867,1177,0,0
-350,-153,0,0,0,0,0,0,0,0,0,-1,874,1177,0,0
-343,-153,0,0,0,0,0,0,0,0,0,-1,881,1177,0,0
-336,-153,0,0,0,0,0,0,0,0,0,-1,888,1177,0,0
-329,-153,0,0,0,0,0,0,0,0,0,-1,895,1177,0,0
-322,-153,0,0,0,0,0,0,0,0,0,-1,902,1177,0,0
-315,-153,0,0,0,0,0,0,0,0,0,-1,909,1177,0,0
-308,-153,0,0,0,0,0,0,0,0,0,-1,916,1177,0,0
-301,-153,0,0,0,0,0,0,0,0,0,-1,923,1177,0,0
-294,-153,0,0,0,0,0,0,0,0,0,-1,930,1177,0,0
-287,-153,0,0,0,0,0,0,0,0,0,-1,937,1177,0,0
-280,-153,0,0,0,0,0,0,0,0,0,-1,944,1177,0,0
-273,-153,0,0,0,0,0,0,0,0,0,-1,951,1177,0,0
-266,-153,0,0,0,0,0,0,0,0,0,-1,958,1177,0,0
-259,-153,0,0,0,0,0,0,0,0,0,-1,965,1177,0,0
-252,-153,0,0,0,0,0,0,0,0,0,-1,972,1177,0,0
-245,-153,0,0,0,0,0,0,0,0,0,-1,979,1177,0,0
-238,-153,0,0,0,0,0,0,0,0,0,-1,986,1177,0,0
-231,-153,0,0,0,0,0,0,0,0,0,-1,993,1177,0,0
-224,-153,0,0,0,0,0,0,0,0,0,-1,1000,1177,0,0
-217,-153,0,0,0,0,0,0,0,0,0,-1,1007,1177,0,0
-210,-153,0,0,0,0,0,0,0,0,0,-1,1014,1177,0,0
-203,-153,0,0,0,0,0,0,0,0,0,-1,1021,1177,0,0
-196,-153,0,0,0,0,0,0,0,0,0,-1,1028,1177,0,0
-189,-153,0,0,0,0,0,0,0,0,0,-1,1035,1177,0,0
-182,-153,0,0,0,0,0,0,0,0,0,-1,1042,1177,0,0
-175,-153,0,0,0,0,0,0,0,0,0,-1,1049,1177,0,0
-168,-153,0,0,0,0,0,0,0,0,0,-1,1056,1177,0,0
-161,-153,0,0,0,0,0,0,0,0,0,-1,1063,1177,0,0
-154,-153,0,0,0,0,0,0,0,0,0,-1,1070,1177,0,0
-147,-153,0,0,0,0,0,0,0,0,0,-1,1077,1177,0,0
-140,-153,0,0,0,0,0,0,0,0,0,-1,1084,1177,0,0
-133,-153,0,0,0,0,0,0,0,0,0,-1,1091,1177,0,0
-126,-153,0,0,0,0,0,0,0,0,0,-1,1098,1177,0,0
-119,-153,0,0,0,0,0,0,0,0,0,-1,1105,1177,0,0
-112,-153,0,0,0,0,0,0,0,0,0,-1,1112,1177,0,0
-105,-153,0,0,0,0,0,0,0,0,0,-1,1119,1177,0,0
-98,-153,0,0,0,0,0,0,0,0,0,-1,1126,1177,0,0
-91,-153,0,0,0,0,0,0,0,0,0,-1,1133,1177,0,0
-84,-153,0,0,0,0,0,0,0,0,0,-1,1140,1177,0,0
-77,-153,0,0,0,0,0,0,0,0,0,-1,1147,1177,0,0
-70,-153,0,0,0,0,0,0,0,0,0,-1,1154,1177,0,0
-63,-153,0,0,0,0,0,0,0,0,0,-1,1161,1177,0,0
-56,-153,0,0,0,0,0,0,0,0,0,-1,1168,1177,0,0
-49,-153,0,0,0,0,0,0,0,0,0,-1,1175,1177,0,0
-42,-153,0,0,0,0,0,0,0,0,0,-1,1182,1177,0,0
-35,-153,0,0,0,0,0,0,0,0,0,-1,1189,1177,0,0
-28,-153,0,0,0,0,0,0,0,0,0,-1,1196,1177,0,0
-21,-153,0,0,0,0,0,0,0,0,0,-1,1203,1177,0,0
-14,-153,0,0,0,0,0,0,0,0,0,-1,1210,1177,0,0
-7,-153,0,0,0,0,0,0,0,0,0,-1,1217,1177,0,0
0,-153,0,0,0,0,0,0,0,0,0,-1,1224,1177,0,0
7,-153,0,0,0,0,0,0,0,0,0,-1,1231,1177,0,0
14,-153,0,0,0,0,0,0,0,0,0,-1,1238,1177,0,0
21,-153,0,0,0,0,0,0,0,0,0,-1,1245,1177,0,0
28,-153,0,0,0,0,0,0,0,0,0,-1,1252,1177,0,0
35,-153,0,0,0,0,0,0,0,0,0,-1,1259,1177,0,0
42,-153,0,0,0,0,0,0,0,0,0,-1,1266,1177,0,0
49,-153,0,0,0,0,0,0,0,0,0,-1,1273,1177,0,0
56,-153,0,0,0,0,0,0,0,0,0,-1,1280,1177,0,0
63,-153,0,0,0,0,0,0,0,0,0,-1,1287,1177,0,0
70,-153,0,0,0,0,0,0,0,0,0,-1,1294,1177,0,0
77,-153,0,0,0,0,0,0,0,0,0,-1,1301,1177,0,0
84,-153,0,0,0,0,0,0,0,0,0,-1,1308,1177,0,0
91,-153,0,0,0,0,0,0,0,0,0,-1,1315,1177,0,0
98,-153,0,0,0,0,0,0,0,0,0,-1,1322,1177,0,0
105,-153,0,0,0,0,0,0,0,0,0,-1,1329,1177,0,0
112,-153,0,0,0,0,0,0,0,0,0,-1,1336,1177,0,0
119,-153,0,0,0,0,0,0,0,0,0,-1,1343,1177,0,0
126,-153,0,0,0,0,0,0,0,0,0,-1,1350,1177,0,0
133,-153,0,0,0,0,0,0,0,0,0,-1,1357,1177,0,0
140,-153,0,0,0,0,0,0,0,0,0,-1,1364,1177,0,0
147,-153,0,0,0,0,0,0,0,0,0,-1,1371,1177,0,0
154,-153,0,0,0,0,0,0,0,0,0,-1,1378,1177,0,0
161,-153,0,0,0,0,0,0,0,0,0,-1,1385,1177,0,0
168,-153,0,0,0,0,0,0,0,0,0,-1,1392,1177,0,0
175,-153,0,0,0,0,0,0,0,0,0,-1,1399,1177,0,0
182,-153,0,0,0,0,0,0,0,0,0,-1,1406,1177,0,0
189,-153,0,0,0,0,0,0,0,0,0,-1,1413,1177,0,0
196,-153,0,0,0,0,0,0,0,0,0,-1,1420,1177,0,0
203,-153,0,0,0,0,0,0,0,0,0,-1,1427,1177,0,0
210,-153,0,0,0,0,0,0,0,0,0,-1,1434,1177,0,0
217,-153,0,0,0,0,0,0,0,0,0,-1,1441,1177,0,0
224,-153,0,0,0,0,0,0,0,0,0,-1,1448,1177,0,0
231,-153,0,0,0,0,0,0,0,0,0,-1,1455,1177,0,0
238,-153,0,0,0,0,0,0,0,0,0,-1,1462,1177,0,0
245,-153,0,0,0,0,0,0,0,0,0,-1,1469,1177,0,0
252,-153,0,0,0,0,0,0,0,0,0,-1,1476,1177,0,0
259,-153,0,0,0,0,0,0,0,0,0,-1,1483,1177,0,0
266,-153,0,0,0,0,0,0,0,0,0,-1,1490,1177,0,0
273,-153,0,0,0,0,0,0,0,0,0,-1,1497,1177,0,0
280,-153,0,0,0,0,0,0,0,0,0,-1,1504,1177,0,0
287,-153,0,0,0,0,0,0,0,0,0,-1,1511,1177,0,0
294,-153,0,0,0,0,0,0,0,0,0,-1,1518,1177,0,0
301,-153,0,0,0,0,0,0,0,0,0,-1,1525,1177,0,0
308,-153,0,0,0,0,0,0,0,0,0,-1,1532,1177,0,0
315,-153,0,0,0,0,0,0,0,0,0,-1,1539,1177,0,0
322,-153,0,0,0,0,0,0,0,0,0,-1,1546,1177,0,0
329,-153,0,0,0,0,0,0,0,0,0,-1,1553,1177,0,0
336,-153,0,0,0,0,0,0,0,0,0,-1,1560,1177,0,0
343,-153,0,0,0,0,0,0,0,0,0,-1,1567,1177,0,0
350,-153,0,0,0,0,0,0,0,0,0,-1,1574,1177,0,0
357,-153,0,0,0,0,0,0,0,0,0,-1,1581,1177,0,0
364,-153,0,0,0,0,0,0,0,0,0,-1,1588,1177,0,0
371,-153,0,0,0,0,0,0,0,0,0,-1,1595,1177,0,0
378,-153,0,0,0,0,0,0,0,0,0,-1,1602,1177,0,0
385,-153,0,0,0,0,0,0,0,0,0,-1,1609,1177,0,0
392,-153,0,0,0,0,0,0,0,0,0,-1,1616,1177,0,0
399,-153,0,0,0,0,0,0,0,0,0,-1,1623,1177,0,0
406,-153,0,0,0,0,0,0,0,0,0,-1,1630,1177,0,0
413,-153,0,0,0,0,0,0,0,0,0,-1,1637,1177,0,0
420,-153,0,0,0,0,0,0,0,0,0,-1,1644,1177,0,0
427,-153,0,0,0,0,0,0,0,0,0,-1,1651,1177,0,0
434,-153,0,0,0,0,0,0,0,0,0,-1,1658,1177,0,0
441,-153,0,0,0,0,0,0,0,0,0,-1,1665,1177,0,0
448,-153,0,0,0,0,0,0,0,0,0,-1,1672,1177,0,0
455,-153,0,0,0,0,0,0,0,0,0,-1,1679,1177,0,0
462,-153,0,0,0,0,0,0,0,0,0,-1,1686,1177,0,0
469,-153,0,0,0,0,0,0,0,0,0,-1,1693,1177,0,0
476,-153,0,0,0,0,0,0,0,0,0,-1,1700,1177,0,0
483,-153,0,0,0,0,0,0,0,0,0,-1,1707,1177,0,0
490,-153,0,0,0,0,0,0,0,0,0,-1,1714,1177,0,0
497,-153,0,0,0,0,0,0,0,0,0,-1,1721,1177,0,0
504,-153,0,0,0,0,0,0,0,0,0,-1,1728,1177,0,0
511,-153,0,0,0,0,0,0,0,0,0,-1,1735,1177,0,0
518,-153,0,0,0,0,0,0,0,0,0,-1,1742,1177,0,0
525,-153,0,0,0,0,0,0,0,0,0,-1,1749,1177,0,0
532,-153,0,0,0,0,0,0,0,0,0,-1,1756,1177,0,0
539,-153,0,0,0,0,0,0,0,0,0,-1,1763,1177,0,0
546,-153,0,0,0,0,0,0,0,0,0,-1,1770,1177,0,0
553,-153,0,0,0,0,0,0,0,0,0,-1,1777,1177,0,0
560,-153,0,0,0,0,0,0,0,0,0,-1,1784,1177,0,0
567,-153,0,0,0,0,0,0,0,0,0,-1,1791,1177,0,0
574,-153,0,0,0,0,0,0,0,0,0,-1,1798,1177,0,0
581,-153,0,0,0,0,0,0,0,0,0,-1,1805,1177,0,0
588,-153,0,0,0,0,0,0,0,0,0,-1,1812,1177,0,0
595,-153,0,0,0,0,0,0,0,0,0,-1,1819,1177,0,0
602,-153,0,0,0,0,0,0,0,0,0,-1,1826,1177,0,0
609,-153,0,0,0,0,0,0,0,0,0,-1,1833,1177,0,0
616,-153,0,0,0,0,0,0,0,0,0,-1,1840,1177,0,0
623,-153,0,0,0,0,0,0,0,0,0,-1,1847,1177,0,0
630,-153,0,0,0,0,0,0,0,0,0,-1,1854,1177,0,0
637,-153,40.5886,2.63879,-0.00140168,-0.00311733,-0.00645148,0.00424876,-0.00876777,-0.719303,0.00766458,0.0405934,1861,1177,40.5887,-2.63883
644,-153,40.5365,2.578,-0.00126049,-0.00240109,-0.00524613,0.00344625,-0.00710782,-0.731256,0.00621443,0.0375858,1868,1177,40.5365,-2.57804
651,-153,40.588,2.62085,-0.000835965,-0.00166609,-0.00420868,0.00297808,-0.00548013,-0.736247,0.00495405,0.0314528,1875,1177,40.588,-2.62089
658,-153,40.6029,2.7439,-0.000116762,-0.00103715,-0.00326499,0.0027203,-0.00387422,-0.715385,0.00382673,0.035586,1882,1177,40.6029,-2.74385
665,-153,40.5826,2.76709,0.000603016,-0.000638633,-0.00232749,0.00239106,-0.00242668,-0.655065,0.00278155,0.0367485,1889,1177,40.5826,-2.76708
672,-153,40.6108,2.71582,0.000983474,-0.000615138,-0.00135943,0.00176117,-0.00139284,-0.519634,0.0018251,0.0355782,1896,1177,40.6109,-2.71586
679,-153,40.5903,2.66711,0.000901394,-0.000746292,-0.000500032,0.00104127,-0.000886165,-0.272757,0.001114,0.0307584,1903,1177,40.5903,-2.66717
686,-153,40.6033,2.64404,0.000616228,-0.000982283,-7.79327e-05,0.000620019,-0.000986074,-0.0485997,0.000935272,0.0206008,1910,1177,40.6032,-2.64398
693,-153,40.697,2.6322,0.000286179,-0.00107109,0.000225292,0.000322597,-0.00110751,0.160265,0.000866137,0.0318041,1917,1177,40.697,-2.63217
700,-153,40.8372,2.60608,0,0,0,0,0,0,0,-1,1924,1177,40.8371,-2.60613
707,-153,29.6483,6.6842,0,0,0,0,0,0,0,-1,1931,1177,29.6483,-6.68415
714,-153,32.3099,6.05176,0,0,0,0,0,0,0,-1,1938,1177,32.31,-6.05175
721,-153,32.693,5.83923,0,0,0,0,0,0,0,-1,1945,1177,32.693,-5.83919
728,-153,35.8276,6.07642,0,0,0,0,0,0,0,-1,1952,1177,35.8276,-6.07646
735,-153,35.7756,5.94543,-0.00126506,-0.000768918,0.00190908,0.000908145,-0.00294212,0.850007,0.00232405,0.0272881,1959,1177,35.7757,-5.94539
742,-153,35.7703,5.68811,-0.00171503,0.000388965,0.00193198,0.00153679,-0.00286286,1.03471,0.00257831,0.0154459,1966,1177,35.7703,-5.6881
749,-153,35.7632,5.37671,-0.00245696,0.00213267,0.00187444,0.00280091,-0.0031252,1.22834,0.00342315,0.0160425,1973,1177,35.7632,-5.37667
756,-153,35.7554,5.05603,-0.00383015,0.00461374,0.00123896,0.00479177,-0.00400819,1.42807,0.00508737,0.0110236,1980,1177,35.7554,-5.05601
763,-153,35.7113,4.76001,-0.00553444,0.00830648,0.000489305,0.00832376,-0.00555172,1.5355,0.00806412,0.0112145,1987,1177,35.7114,-4.75997
770,-153,35.7155,4.44446,-0.00791978,0.0127751,-0.000633567,0.0127944,-0.00793916,-1.54022,0.0120795,0.0110673,1994,1177,35.7154,-4.44442
777,-153,35.751,4.1261,-0.0112506,0.0182978,-0.00227954,0.0184726,-0.0114255,-1.49425,0.0174208,0.0221948,2001,1177,35.751,-4.12614
784,-153,35.3862,4.55505,-0.0158061,0.0251112,-0.00469671,0.0256434,-0.0163383,-1.45797,0.0244358,0.0420098,2008,1177,35.3862,-4.55508
791,-153,35.0696,4.87964,0,0,0,0,0,0,0,-1,2015,1177,35.0696,-4.87961
798,-153,35.6067,3.86243,0,0,0,0,0,0,0,-1,2022,1177,35.6067,-3.86237
805,-153,35.2883,3.96912,0,0,0,0,0,0,0,-1,2029,1177,35.2883,-3.96917
812,-153,0,0,0,0,0,0,0,0,0,-1,2036,1177,0,0
-700,-160,0,0,0,0,0,0,0,0,0,-1,524,1184,0,0
-693,-160,0,0,0,0,0,0,0,0,0,-1,531,1184,0,0
-686,-160,-24.3778,-1.4917,0,0,0,0,0,0,0,-1,538,1184,-24.3778,1.49168
-679,-160,-24.4807,-1.3855,0,0,0,0,0,0,0,-1,545,1184,-24.4807,1.38554
-672,-160,-24.7449,-1.25122,0,0,0,0,0,0,0,-1,552,1184,-24.745,1.25123
-665,-160,-24.9545,-0.579956,0,0,0,0,0,0,0,-1,559,1184,-24.9544,0.579982
-658,-160,-24.2301,-0.0144043,0,0,0,0,0,0,0,-1,566,1184,-24.2301,0.0144231
-651,-160,-24.411,0.653931,0,0,0,0,0,0,0,-1,573,1184,-24.411,-0.653899
-644,-160,-24.1516,1.2771,-0.009151,0.0183806,-0.00201888,0.0185279,-0.00929825,-1.49799,0.0163573,0.0398905,580,1184,-24.1515,-1.27714
-637,-160,-24.0506,1.72559,-0.0053223,0.0129179,-0.00110872,0.012985,-0.00538945,-1.51031,0.0109064,0.0151631,587,1184,-24.0506,-1.72564
-630,-160,-24.0923,2.05811,-0.00277424,0.00802513,-0.000380412,0.00803851,-0.00278762,-1.53563,0.00649091,0.00871772,594,1184,-24.0923,-2.05813
-623,-160,-24.1253,2.3811,-0.000909948,0.00431278,5.66214e-05,0.00431339,-0.000910562,1.55996,0.00322229,0.0124622,601,1184,-24.1253,-2.38108
-616,-160,-24.1524,2.74841,0.00027423,0.0014277,0.000284655,0.00149413,0.000207808,1.34155,0.000934549,0.011362,608,1184,-24.1524,-2.74847
-609,-160,-24.1258,3.1665,0.000420328,2.9382e-05,0.000154855,0.000474234,-2.45237e-05,0.334985,0.000324639,0.0136827,615,1184,-24.1258,-3.16655
-602,-160,-24.0215,3.66614,0.00029732,-0.0003428,-0.00013968,0.000326472,-0.000371952,-0.205751,0.00040352,0.038153,622,1184,-24.0215,-3.66612
-595,-160,-24.0851,4.31177,0,0,0,0,0,0,0,-1,629,1184,-24.0851,-4.31174
-588,-160,-24.5,4.26147,0,0,0,0,0,0,0,-1,636,1184,-24.5,-4.26143
-581,-160,-24.0433,4.45801,0,0,0,0,0,0,0,-1,643,1184,-24.0433,-4.45804
-574,-160,-26.6038,4.00439,0,0,0,0,0,0,0,-1,650,1184,-26.6038,-4.00435
-567,-160,-29.4095,0.920898,0,0,0,0,0,0,0,-1,657,1184,-29.4095,-0.920931
-560,-160,-29.4803,0.852905,-0.000503529,-0.000250632,-0.000762232,0.000395569,-0.00114973,-0.867596,0.000926918,0.0467828,664,1184,-29.4803,-0.852886
-553,-160,-29.4589,0.765869,-0.000777021,-6.23534e-05,-0.000931616,0.000578109,-0.00141748,-0.968527,0.00118564,0.0386233,671,1184,-29.4589,-0.765808
-546,-160,-29.4417,0.68335,-0.000919495,1.54322e-05,-0.00117659,0.00081402,-0.00171808,-0.974488,0.00149265,0.0407711,678,1184,-29.4416,-0.683294
-539,-160,-29.5272,0.622559,-0.00105872,0.00028405,-0.00138796,0.00115447,-0.00192915,-1.01067,0.00179896,0.0412075,685,1184,-29.5271,-0.622511
-532,-160,-29.3568,0.559692,-0.00150319,0.000317402,-0.00172745,0.00135973,-0.00254551,-1.02789,0.00228907,0.0416426,692,1184,-29.3568,-0.559675
-525,-160,-29.4225,0.74292,-0.00159771,0.000112275,-0.00240265,0.00180752,-0.00329296,-0.956338,0.0029861,0.0408243,699,1184,-29.4225,-0.742898
-518,-160,-29.4944,0.943481,-0.00195848,-3.4681e-05,-0.00328331,0.00242473,-0.00441789,-0.927894,0.00400607,0.0399227,706,1184,-29.4945,-0.943446
-511,-160,0,0,0,0,0,0,0,0,0,-1,713,1184,0,0
-504,-160,0,0,0,0,0,0,0,0,0,-1,720,1184,0,0
-497,-160,0,0,0,0,0,0,0,0,0,-1,727,1184,0,0
-490,-160,0,0,0,0,0,0,0,0,0,-1,734,1184,0,0
-483,-160,0,0,0,0,0,0,0,0,0,-1,741,1184,0,0
-476,-160,0,0,0,0,0,0,0,0,0,-1,748,1184,0,0
-469,-160,0,0,0,0,0,0,0,0,0,-1,755,1184,0,0
-462,-160,0,0,0,0,0,0,0,0,0,-1,762,1184,0,0
-455,-160,0,0,0,0,0,0,0,0,0,-1,769,1184,0,0
-448,-160,0,0,0,0,0,0,0,0,0,-1,776,1184,0,0
-441,-160,0,0,0,0,0,0,0,0,0,-1,783,1184,0,0
-434,-160,0,0,0,0,0,0,0,0,0,-1,790,1184,0,0
-427,-160,0,0,0,0,0,0,0,0,0,-1,797,1184,0,0
-420,-160,0,0,0,0,0,0,0,0,0,-1,804,1184,0,0
-413,-160,0,0,0,0,0,0,0,0,0,-1,811,1184,0,0
-406,-160,0,0,0,0,0,0,0,0,0,-1,818,1184,0,0
-399,-160,0,0,0,0,0,0,0,0,0,-1,825,1184,0,0
-392,-160,0,0,0,0,0,0,0,0,0,-1,832,1184,0,0
-385,-160,0,0,0,0,0,0,0,0,0,-1,839,1184,0,0
-378,-160,0,0,0,0,0,0,0,0,0,-1,846,1184,0,0
-371,-160,0,0,0,0,0,0,0,0,0,-1,853,1184,0,0
-364,-160,0,0,0,0,0,0,0,0,0,-1,860,1184,0,0
-357,-160,0,0,0,0,0,0,0,0,0,-1,867,1184,0,0
-350,-160,0,0,0,0,0,0,0,0,0,-1,874,1184,0,0
-343,-160,0,0,0,0,0,0,0,0,0,-1,881,1184,0,0
-336,-160,0,0,0,0,0,0,0,0,0,-1,888,1184,0,0
-329,-160,0,0,0,0,0,0,0,0,0,-1,895,1184,0,0
-322,-160,0,0,0,0,0,0,0,0,0,-1,902,1184,0,0
-315,-160,0,0,0,0,0,0,0,0,0,-1,909,1184,0,0
-308,-160,0,0,0,0,0,0,0,0,0,-1,916,1184,0,0
-301,-160,0,0,0,0,0,0,0,0,0,-1,923,1184,0,0
-294,-160,0,0,0,0,0,0,0,0,0,-1,930,1184,0,0
-287,-160,0,0,0,0,0,0,0,0,0,-1,937,1184,0,0
-280,-160,0,0,0,0,0,0,0,0,0,-1,944,1184,0,0
-273,-160,0,0,0,0,0,0,0,0,0,-1,951,1184,0,0
-266,-160,0,0,0,0,0,0,0,0,0,-1,958,1184,0,0
-259,-160,0,0,0,0,0,0,0,0,0,-1,965,1184,0,0
-252,-160,0,0,0,0,0,0,0,0,0,-1,972,1184,0,0
-245,-160,0,0,0,0,0,0,0,0,0,-1,979,1184,0,0
-238,-160,0,0,0,0,0,0,0,0,0,-1,986,1184,0,0
-231,-160,0,0,0,0,0,0,0,0,0,-1,993,1184,0,0
-224,-160,0,0,0,0,0,0,0,0,0,-1,1000,1184,0,0
-217,-160,0,0,0,0,0,0,0,0,0,-1,1007,1184,0,0
-210,-160,0,0,0,0,0,0,0,0,0,-1,1014,1184,0,0
-203,-160,0,0,0,0,0,0,0,0,0,-1,1021,1184,0,0
-196,-160,0,0,0,0,0,0,0,0,0,-1,1028,1184,0,0
-189,-160,0,0,0,0,0,0,0,0,0,-1,1035,1184,0,0
-182,-160,0,0,0,0,0,0,0,0,0,-1,1042,1184,0,0
-175,-160,0,0,0,0,0,0,0,0,0,-1,1049,1184,0,0
-168,-160,0,0,0,0,0,0,0,0,0,-1,1056,1184,0,0
-161,-160,0,0,0,0,0,0,0,0,0,-1,1063,1184,0,0
-154,-160,0,0,0,0,0,0,0,0,0,-1,1070,1184,0,0
-147,-160,0,0,0,0,0,0,0,0,0,-1,1077,1184,0,0
-140,-160,0,0,0,0,0,0,0,0,0,-1,1084,1184,0,0
-133,-160,0,0,0,0,0,0,0,0,0,-1,1091,1184,0,0
-126,-160,0,0,0,0,0,0,0,0,0,-1,1098,1184,0,0
-119,-160,0,0,0,0,0,0,0,0,0,-1,1105,1184,0,0
-112,-160,0,0,0,0,0,0,0,0,0,-1,1112,1184,0,0
-105,-160,0,0,0,0,0,0,0,0,0,-1,1119,1184,0,0
-98,-160,0,0,0,0,0,0,0,0,0,-1,1126,1184,0,0
-91,-160,0,0,0,0,0,0,0,0,0,-1,1133,1184,0,0
-84,-160,0,0,0,0,0,0,0,0,0,-1,1140,1184,0,0
-77,-160,0,0,0,0,0,0,0,0,0,-1,1147,1184,0,0
-70,-160,0,0,0,0,0,0,0,0,0,-1,1154,1184,0,0
-63,-160,0,0,0,0,0,0,0,0,0,-1,1161,1184,0,0
-56,-160,0,0,0,0,0,0,0,0,0,-1,1168,1184,0,0
-49,-160,0,0,0,0,0,0,0,0,0,-1,1175,1184,0,0
-42,-160,0,0,0,0,0,0,0,0,0,-1,1182,1184,0,0
-35,-160,0,0,0,0,0,0,0,0,0,-1,1189,1184,0,0
-28,-160,0,0,0,0,0,0,0,0,0,-1,1196,1184,0,0
-21,-160,0,0,0,0,0,0,0,0,0,-1,1203,1184,0,0
-14,-160,0,0,0,0,0,0,0,0,0,-1,1210,1184,0,0
-7,-160,0,0,0,0,0,0,0,0,0,-1,1217,1184,0,0
0,-160,0,0,0,0,0,0,0,0,0,-1,1224,1184,0,0
7,-160,0,0,0,0,0,0,0,0,0,-1,1231,1184,0,0
14,-160,0,0,0,0,0,0,0,0,0,-1,1238,1184,0,0
21,-160,0,0,0,0,0,0,0,0,0,-1,1245,1184,0,0
28,-160,0,0,0,0,0,0,0,0,0,-1,1252,1184,0,0
35,-160,0,0,0,0,0,0,0,0,0,-1,1259,1184,0,0
42,-160,0,0,0,0,0,0,0,0,0,-1,1266,1184,0,0
49,-160,0,0,0,0,0,0,0,0,0,-1,1273,1184,0,0
56,-160,0,0,0,0,0,0,0,0,0,-1,1280,1184,0,0
63,-160,0,0,0,0,0,0,0,0,0,-1,1287,1184,0,0
70,-160,0,0,0,0,0,0,0,0,0,-1,1294,1184,0,0
77,-160,0,0,0,0,0,0,0,0,0,-1,1301,1184,0,0
84,-160,0,0,0,0,0,0,0,0,0,-1,1308,1184,0,0
91,-160,0,0,0,0,0,0,0,0,0,-1,1315,1184,0,0
98,-160,0,0,0,0,0,0,0,0,0,-1,1322,1184,0,0
105,-160,0,0,0,0,0,0,0,0,0,-1,1329,1184,0,0
112,-160,0,0,0,0,0,0,0,0,0,-1,1336,1184,0,0
119,-160,0,0,0,0,0,0,0,0,0,-1,1343,1184,0,0
126,-160,0,0,0,0,0,0,0,0,0,-1,1350,1184,0,0
133,-160,0,0,0,0,0,0,0,0,0,-1,1357,1184,0,0
140,-160,0,0,0,0,0,0,0,0,0,-1,1364,1184,0,0
147,-160,0,0,0,0,0,0,0,0,0,-1,1371,1184,0,0
154,-160,0,0,0,0,0,0,0,0,0,-1,1378,1184,0,0
161,-160,0,0,0,0,0,0,0,0,0,-1,1385,1184,0,0
168,-160,0,0,0,0,0,0,0,0,0,-1,1392,1184,0,0
175,-160,0,0,0,0,0,0,0,0,0,-1,1399,1184,0,0
182,-160,0,0,0,0,0,0,0,0,0,-1,1406,1184,0,0
189,-160,0,0,0,0,0,0,0,0,0,-1,1413,1184,0,0
196,-160,0,0,0,0,0,0,0,0,0,-1,1420,1184,0,0
203,-160,0,0,0,0,0,0,0,0,0,-1,1427,1184,0,0
210,-160,0,0,0,0,0,0,0,0,0,-1,1434,1184,0,0
217,-160,0,0,0,0,0,0,0,0,0,-1,1441,1184,0,0
224,-160,0,0,0,0,0,0,0,0,0,-1,1448,1184,0,0
231,-160,0,0,0,0,0,0,0,0,0,-1,1455,1184,0,0
238,-160,0,0,0,0,0,0,0,0,0,-1,1462,1184,0,0
245,-160,0,0,0,0,0,0,0,0,0,-1,1469,1184,0,0
252,-160,0,0,0,0,0,0,0,0,0,-1,1476,1184,0,0
259,-160,0,0,0,0,0,0,0,0,0,-1,1483,1184,0,0
266,-160,0,0,0,0,0,0,0,0,0,-1,1490,1184,0,0
273,-160,0,0,0,0,0,0,0,0,0,-1,1497,1184,0,0
280,-160,0,0,0,0,0,0,0,0,0,-1,1504,1184,0,0
287,-160,0,0,0,0,0,0,0,0,0,-1,1511,1184,0,0
294,-160,0,0,0,0,0,0,0,0,0,-1,1518,1184,0,0
301,-160,0,0,0,0,0,0,0,0,0,-1,1525,1184,0,0
308,-160,0,0,0,0,0,0,0,0,0,-1,1532,1184,0,0
315,-160,0,0,0,0,0,0,0,0,0,-1,1539,1184,0,0
322,-160,0,0,0,0,0,0,0,0,0,-1,1546,1184,0,0
329,-160,0,0,0,0,0,0,0,0,0,-1,1553,1184,0,0
336,-160,0,0,0,0,0,0,0,0,0,-1,1560,1184,0,0
343,-160,0,0,0,0,0,0,0,0,0,-1,1567,1184,0,0
350,-160,0,0,0,0,0,0,0,0,0,-1,1574,1184,0,0
357,-160,0,0,0,0,0,0,0,0,0,-1,1581,1184,0,0
364,-160,0,0,0,0,0,0,0,0,0,-1,1588,1184,0,0
371,-160,0,0,0,0,0,0,0,0,0,-1,1595,1184,0,0
378,-160,0,0,0,0,0,0,0,0,0,-1,1602,1184,0,0
385,-160,0,0,0,0,0,0,0,0,0,-1,1609,1184,0,0
392,-160,0,0,0,0,0,0,0,0,0,-1,1616,1184,0,0
399,-160,0,0,0,0,0,0,0,0,0,-1,1623,1184,0,0
406,-160,0,0,0,0,0,0,0,0,0,-1,1630,1184,0,0
413,-160,0,0,0,0,0,0,0,0,0,-1,1637,1184,0,0
420,-160,0,0,0,0,0,0,0,0,0,-1,1644,1184,0,0
427,-160,0,0,0,0,0,0,0,0,0,-1,1651,1184,0,0
434,-160,0,0,0,0,0,0,0,0,0,-1,1658,1184,0,0
441,-160,0,0,0,0,0,0,0,0,0,-1,1665,1184,0,0
448,-160,0,0,0,0,0,0,0,0,0,-1,1672,1184,0,0
455,-160,0,0,0,0,0,0,0,0,0,-1,1679,1184,0,0
462,-160,0,0,0,0,0,0,0,0,0,-1,1686,1184,0,0
469,-160,0,0,0,0,0,0,0,0,0,-1,1693,1184,0,0
476,-160,0,0,0,0,0,0,0,0,0,-1,1700,1184,0,0
483,-160,0,0,0,0,0,0,0,0,0,-1,1707,1184,0,0
490,-160,0,0,0,0,0,0,0,0,0,-1,1714,1184,0,0
497,-160,0,0,0,0,0,0,0,0,0,-1,1721,1184,0,0
504,-160,0,0,0,0,0,0,0,0,0,-1,1728,1184,0,0
511,-160,0,0,0,0,0,0,0,0,0,-1,1735,1184,0,0
518,-160,0,0,0,0,0,0,0,0,0,-1,1742,1184,0,0
525,-160,0,0,0,0,0,0,0,0,0,-1,1749,1184,0,0
532,-160,0,0,0,0,0,0,0,0,0,-1,1756,1184,0,0
539,-160,0,0,0,0,0,0,0,0,0,-1,1763,1184,0,0
546,-160,0,0,0,0,0,0,0,0,0,-1,1770,1184,0,0
553,-160,0,0,0,0,0,0,0,0,0,-1,1777,1184,0,0
560,-160,0,0,0,0,0,0,0,0,0,-1,1784,1184,0,0
567,-160,0,0,0,0,0,0,0,0,0,-1,1791,1184,0,0
574,-160,0,0,0,0,0,0,0,0,0,-1,1798,1184,0,0
581,-160,0,0,0,0,0,0,0,0,0,-1,1805,1184,0,0
588,-160,0,0,0,0,0,0,0,0,0,-1,1812,1184,0,0
595,-160,0,0,0,0,0,0,0,0,0,-1,1819,1184,0,0
602,-160,0,0,0,0,0,0,0,0,0,-1,1826,1184,0,0
609,-160,0,0,0,0,0,0,0,0,0,-1,1833,1184,0,0
616,-160,0,0,0,0,0,0,0,0,0,-1,1840,1184,0,0
623,-160,0,0,0,0,0,0,0,0,0,-1,1847,1184,0,0
630,-160,0,0,0,0,0,0,0,0,0,-1,1854,1184,0,0
637,-160,40.7308,2.7384,-0.00108089,-0.00243313,-0.00455589,0.00284877,-0.00636279,-0.711733,0.00544577,0.0438527,1861,1184,40.7309,-2.73835
644,-160,40.6595,2.828,-0.000928087,-0.00190528,-0.00391196,0.00252567,-0.00535904,-0.723271,0.00464918,0.0442082,1868,1184,40.6596,-2.82802
651,-160,40.5299,2.59351,-0.000459092,-0.00126812,-0.00331115,0.00247216,-0.00419937,-0.724616,0.0038946,0.0396722,1875,1184,40.5299,-2.59345
658,-160,40.4828,2.64978,0.000314464,-0.000747262,-0.00280461,0.00263801,-0.00307081,-0.691864,0.00329914,0.039827,1882,1184,40.4828,-2.64972
665,-160,40.5765,2.6781,0.00103369,-0.000527932,-0.00219037,0.00257826,-0.0020725,-0.614182,0.0026904,0.0371812,1889,1184,40.5765,-2.67814
672,-160,40.6016,2.66541,0.00131412,-0.000697328,-0.00140154,0.00203344,-0.00141665,-0.474182,0.00200249,0.0345043,1896,1184,40.6015,-2.66536
679,-160,40.5826,2.63599,0.00108172,-0.000961271,-0.000620356,0.00125534,-0.00113489,-0.272885,0.00138058,0.0297162,1903,1184,40.5826,-2.63597
686,-160,40.6318,2.61914,0.00070345,-0.00123088,-0.000183874,0.000720773,-0.0012482,-0.0939372,0.0011503,0.0199715,1910,1184,40.6318,-2.61909
693,-160,40.6647,2.63306,0,0,0,0,0,0,0,-1,1917,1184,40.6646,-2.63307
700,-160,38.972,2.45984,0,0,0,0,0,0,0,-1,1924,1184,38.972,-2.45989
707,-160,24.5115,6.27405,0,0,0,0,0,0,0,-1,1931,1184,24.5115,-6.27401
714,-160,32.0953,6.09717,0,0,0,0,0,0,0,-1,1938,1184,32.0954,-6.09719
721,-160,34.2949,5.88342,0,0,0,0,0,0,0,-1,1945,1184,34.295,-5.88342
728,-160,35.4966,6.30823,0,0,0,0,0,0,0,-1,1952,1184,35.4965,-6.30825
735,-160,35.5383,5.99463,-0.00134852,-0.00101041,0.00206471,0.000892155,-0.00325109,0.826246,0.00251802,0.0215664,1959,1184,35.5383,-5.99459
742,-160,35.4762,5.67371,-0.00184206,0.000299795,0.00205437,0.00154562,-0.00308788,1.02567,0.0027241,0.0168269,1966,1184,35.4762,-5.67367
749,-160,35.4609,5.3512,-0.00264559,0.00235632,0.00187958,0.00298388,-0.00327315,1.24855,0.00361378,0.0172392,1973,1184,35.461,-5.3512
756,-160,35.4519,5.04529,-0.00419342,0.00530394,0.00113711,0.00543819,-0.00432767,1.45328,0.00565046,0.0107675,1980,1184,35.4519,-5.04531
763,-160,35.3862,4.73572,-0.00626668,0.00961454,0.000208183,0.00961727,-0.00626941,1.55769,0.00923981,0.0118824,1987,1184,35.3862,-4.7357
770,-160,35.3265,4.39392,-0.00928893,0.0150348,-0.00111334,0.0150856,-0.00933979,-1.52515,0.0142315,0.0215288,1994,1184,35.3266,-4.39387
777,-160,35.6432,4.20618,0,0,0,0,0,0,0,-1,2001,1184,35.6431,-4.20622
784,-160,35.2368,4.39307,-0.0196172,0.030682,-0.00586362,0.0313565,-0.0202917,-1.45627,0.0300463,0.0444973,2008,1184,35.2369,-4.39303
791,-160,34.8325,4.58081,-0.0280003,0.042318,-0.0105166,0.0438571,-0.0295395,-1.42547,0.0426434,0.048291,2015,1184,34.8325,-4.58079
798,-160,34.9561,3.33472,0,0,0,0,0,0,0,-1,2022,1184,34.9561,-3.33473
805,-160,34.6638,3.5603,0,0,0,0,0,0,0,-1,2029,1184,34.6638,-3.56026
812,-160,0,0,0,0,0,0,0,0,0,-1,2036,1184,0,0
-700,-167,0,0,0,0,0,0,0,0,0,-1,524,1191,0,0
-693,-167,0,0,0,0,0,0,0,0,0,-1,531,1191,0,0
-686,-167,-24.9952,-1.49426,0,0,0,0,0,0,0,-1,538,1191,-24.9952,1.4943
-679,-167,-24.4979,-1.46594,0,0,0,0,0,0,0,-1,545,1191,-24.4979,1.46588
-672,-167,-24.5846,-1.28809,-0.0411482,0.0584277,-0.0125745,0.0599911,-0.0427116,-1.4471,0.0595745,0.0467863,552,1191,-24.5846,1.28804
-665,-167,-24.7473,-0.835449,-0.0336692,0.0484574,-0.00892607,0.0494164,-0.0346282,-1.46377,0.0487729,0.0470106,559,1191,-24.7473,0.835478
-658,-167,-24.626,-0.360596,0,0,0,0,0,0,0,-1,566,1191,-24.626,0.360626
-651,-167,-24.373,0.260864,-0.0193417,0.0297739,-0.00403258,0.0301028,-0.0196705,-1.48942,0.0289463,0.0497557,573,1191,-24.373,-0.260878
-644,-167,-23.8503,1.11182,-0.0134077,0.0218805,-0.0024921,0.0220556,-0.0135828,-1.50064,0.0207688,0.0387859,580,1191,-23.8503,-1.11181
-637,-167,-23.6765,1.71143,-0.00863151,0.0153212,-0.001412,0.0154041,-0.00871446,-1.51212,0.0141023,0.0176019,587,1191,-23.6765,-1.71137
-630,-167,-23.7215,2.04395,-0.00515822,0.0096179,-0.000489257,0.00963408,-0.0051744,-1.53773,0.00867795,0.00916278,594,1191,-23.7215,-2.04394
-623,-167,-23.7297,2.3772,-0.0023357,0.00531398,0.000115082,0.00531571,-0.00233743,1.55576,0.00452869,0.0117688,601,1191,-23.7297,-2.37718
-616,-167,-23.7518,2.75403,-0.000306805,0.00182593,0.000307778,0.00186946,-0.000350333,1.4303,0.00137801,0.0155333,608,1191,-23.7518,-2.75405
-609,-167,-23.7604,3.15344,0.000166441,0.000103801,0.000148259,0.000286652,-1.64104e-05,0.681302,0.0001968,0.0145314,615,1191,-23.7605,-3.1535
-602,-167,-23.7729,3.4895,4.64615e-05,-0.000307026,-0.000122593,8.4816e-05,-0.000345381,-0.303215,0.000263123,0.0157666,622,1191,-23.7729,-3.48949
-595,-167,-23.6656,3.84705,-0.000380275,-0.000387818,-3.67845e-05,-0.000347069,-0.000421024,-0.734313,0.000259567,0.0336848,629,1191,-23.6656,-3.84703
-588,-167,-23.8464,4.13733,-0.000456479,-0.000176277,-0.000112424,-0.000136746,-0.00049601,-1.23268,0.000295821,0.0335348,636,1191,-23.8465,-4.13734
-581,-167,-23.8456,4.3291,0,0,0,0,0,0,0,-1,643,1191,-23.8456,-4.32906
-574,-167,-22.27,5,0,0,0,0,0,0,0,-1,650,1191,-22.27,-4.99996
-567,-167,-25.0102,-0.140869,0,0,0,0,0,0,0,-1,657,1191,-25.0102,0.140898
-560,-167,-29.5015,0.906128,0,0,0,0,0,0,0,-1,664,1191,-29.5015,-0.906156
-553,-167,-29.4935,0.825439,-0.0012543,-0.00017905,-0.000424624,-3.15871e-05,-0.00140176,-1.23655,0.000924159,0.0380814,671,1191,-29.4935,-0.825426
-546,-167,-29.5024,0.74707,-0.00144278,-0.000181352,-0.000488453,-1.43279e-05,-0.00160981,-1.24132,0.00106846,0.0348062,678,1191,-29.5024,-0.747058
-539,-167,-29.4147,0.729126,-0.00157049,1.92206e-05,-0.000519687,0.000174033,-0.0017253,-1.28127,0.00121238,0.038403,685,1191,-29.4148,-0.729157
-532,-167,-29.2965,0.753662,-0.00206241,-2.82343e-05,-0.000741308,0.00021325,-0.0023039,-1.25588,0.00161173,0.0427374,692,1191,-29.2965,-0.75371
-525,-167,-29.3146,0.674072,-0.00212655,-0.000411143,-0.00131393,0.000300252,-0.00283795,-1.07456,0.00199958,0.0421943,699,1191,-29.3146,-0.67413
-518,-167,-29.4292,0.587769,-0.00222735,-0.000869242,-0.0021766,0.00073177,-0.00382836,-0.936604,0.0028279,0.0403886,706,1191,-29.4292,-0.58771
-511,-167,0,0,0,0,0,0,0,0,0,-1,713,1191,0,0
-504,-167,0,0,0,0,0,0,0,0,0,-1,720,1191,0,0
-497,-167,0,0,0,0,0,0,0,0,0,-1,727,1191,0,0
-490,-167,0,0,0,0,0,0,0,0,0,-1,734,1191,0,0
-483,-167,0,0,0,0,0,0,0,0,0,-1,741,1191,0,0
-476,-167,0,0,0,0,0,0,0,0,0,-1,748,1191,0,0
-469,-167,0,0,0,0,0,0,0,0,0,-1,755,1191,0,0
-462,-167,0,0,0,0,0,0,0,0,0,-1,762,1191,0,0
-455,-167,0,0,0,0,0,0,0,0,0,-1,769,1191,0,0
-448,-167,0,0,0,0,0,0,0,0,0,-1,776,1191,0,0
-441,-167,0,0,0,0,0,0,0,0,0,-1,783,1191,0,0
-434,-167,0,0,0,0,0,0,0,0,0,-1,790,1191,0,0
-427,-167,0,0,0,0,0,0,0,0,0,-1,797,1191,0,0
-420,-167,0,0,0,0,0,0,0,0,0,-1,804,1191,0,0
-413,-167,0,0,0,0,0,0,0,0,0,-1,811,1191,0,0
-406,-167,0,0,0,0,0,0,0,0,0,-1,818,1191,0,0
-399,-167,0,0,0,0,0,0,0,0,0,-1,825,1191,0,0
-392,-167,0,0,0,0,0,0,0,0,0,-1,832,1191,0,0
-385,-167,0,0,0,0,0,0,0,0,0,-1,839,1191,0,0
-378,-167,0,0,0,0,0,0,0,0,0,-1,846,1191,0,0
-371,-167,0,0,0,0,0,0,0,0,0,-1,853,1191,0,0
-364,-167,0,0,0,0,0,0,0,0,0,-1,860,1191,0,0
-357,-167,0,0,0,0,0,0,0,0,0,-1,867,1191,0,0
-350,-167,0,0,0,0,0,0,0,0,0,-1,874,1191,0,0
-343,-167,0,0,0,0,0,0,0,0,0,-1,881,1191,0,0
-336,-167,0,0,0,0,0,0,0,0,0,-1,888,1191,0,0
-329,-167,0,0,0,0,0,0,0,0,0,-1,895,1191,0,0
-322,-167,0,0,0,0,0,0,0,0,0,-1,902,1191,0,0
-315,-167,0,0,0,0,0,0,0,0,0,-1,909,1191,0,0
-308,-167,0,0,0,0,0,0,0,0,0,-1,916,1191,0,0
-301,-167,0,0,0,0,0,0,0,0,0,-1,923,1191,0,0
-294,-167,0,0,0,0,0,0,0,0,0,-1,930,1191,0,0
-287,-167,0,0,0,0,0,0,0,0,0,-1,937,1191,0,0
-280,-167,0,0,0,0,0,0,0,0,0,-1,944,1191,0,0
-273,-167,0,0,0,0,0,0,0,0,0,-1,951,1191,0,0
-266,-167,0,0,0,0,0,0,0,0,0,-1,958,1191,0,0
-259,-167,0,0,0,0,0,0,0,0,0,-1,965,1191,0,0
-252,-167,0,0,0,0,0,0,0,0,0,-1,972,1191,0,0
-245,-167,0,0,0,0,0,0,0,0,0,-1,979,1191,0,0
-238,-167,0,0,0,0,0,0,0,0,0,-1,986,1191,0,0
-231,-167,0,0,0,0,0,0,0,0,0,-1,993,1191,0,0
-224,-167,0,0,0,0,0,0,0,0,0,-1,1000,1191,0,0
-217,-167,0,0,0,0,0,0,0,0,0,-1,1007,1191,0,0
-210,-167,0,0,0,0,0,0,0,0,0,-1,1014,1191,0,0
-203,-167,0,0,0,0,0,0,0,0,0,-1,1021,1191,0,0
-196,-167,0,0,0,0,0,0,0,0,0,-1,1028,1191,0,0
-189,-167,0,0,0,0,0,0,0,0,0,-1,1035,1191,0,0
-182,-167,0,0,0,0,0,0,0,0,0,-1,1042,1191,0,0
-175,-167,0,0,0,0,0,0,0,0,0,-1,1049,1191,0,0
-168,-167,0,0,0,0,0,0,0,0,0,-1,1056,1191,0,0
-161,-167,0,0,0,0,0,0,0,0,0,-1,1063,1191,0,0
-154,-167,0,0,0,0,0,0,0,0,0,-1,1070,1191,0,0
-147,-167,0,0,0,0,0,0,0,0,0,-1,1077,1191,0,0
-140,-167,0,0,0,0,0,0,0,0,0,-1,1084,1191,0,0
-133,-167,0,0,0,0,0,0,0,0,0,-1,1091,1191,0,0
-126,-167,0,0,0,0,0,0,0,0,0,-1,1098,1191,0,0
-119,-167,0,0,0,0,0,0,0,0,0,-1,1105,1191,0,0
-112,-167,0,0,0,0,0,0,0,0,0,-1,1112,1191,0,0
-105,-167,0,0,0,0,0,0,0,0,0,-1,1119,1191,0,0
-98,-167,0,0,0,0,0,0,0,0,0,-1,1126,1191,0,0
-91,-167,0,0,0,0,0,0,0,0,0,-1,1133,1191,0,0
-84,-167,0,0,0,0,0,0,0,0,0,-1,1140,1191,0,0
-77,-167,0,0,0,0,0,0,0,0,0,-1,1147,1191,0,0
-70,-167,0,0,0,0,0,0,0,0,0,-1,1154,1191,0,0
-63,-167,0,0,0,0,0,0,0,0,0,-1,1161,1191,0,0
-56,-167,0,0,0,0,0,0,0,0,0,-1,1168,1191,0,0
-49,-167,0,0,0,0,0,0,0,0,0,-1,1175,1191,0,0
-42,-167,0,0,0,0,0,0,0,0,0,-1,1182,1191,0,0
-35,-167,0,0,0,0,0,0,0,0,0,-1,1189,1191,0,0
-28,-167,0,0,0,0,0,0,0,0,0,-1,1196,1191,0,0
-21,-167,0,0,0,0,0,0,0,0,0,-1,1203,1191,0,0
-14,-167,0,0,0,0,0,0,0,0,0,-1,1210,1191,0,0
-7,-167,0,0,0,0,0,0,0,0,0,-1,1217,1191,0,0
0,-167,0,0,0,0,0,0,0,0,0,-1,1224,1191,0,0
7,-167,0,0,0,0,0,0,0,0,0,-1,1231,1191,0,0
14,-167,0,0,0,0,0,0,0,0,0,-1,1238,1191,0,0
21,-167,0,0,0,0,0,0,0,0,0,-1,1245,1191,0,0
28,-167,0,0,0,0,0,0,0,0,0,-1,1252,1191,0,0
35,-167,0,0,0,0,0,0,0,0,0,-1,1259,1191,0,0
42,-167,0,0,0,0,0,0,0,0,0,-1,1266,1191,0,0
49,-167,0,0,0,0,0,0,0,0,0,-1,1273,1191,0,0
56,-167,0,0,0,0,0,0,0,0,0,-1,1280,1191,0,0
63,-167,0,0,0,0,0,0,0,0,0,-1,1287,1191,0,0
70,-167,0,0,0,0,0,0,0,0,0,-1,1294,1191,0,0
77,-167,0,0,0,0,0,0,0,0,0,-1,1301,1191,0,0
84,-167,0,0,0,0,0,0,0,0,0,-1,1308,1191,0,0
91,-167,0,0,0,0,0,0,0,0,0,-1,1315,1191,0,0
98,-167,0,0,0,0,0,0,0,0,0,-1,1322,1191,0,0
105,-167,0,0,0,0,0,0,0,0,0,-1,1329,1191,0,0
112,-167,0,0,0,0,0,0,0,0,0,-1,1336,1191,0,0
119,-167,0,0,0,0,0,0,0,0,0,-1,1343,1191,0,0
126,-167,0,0,0,0,0,0,0,0,0,-1,1350,1191,0,0
133,-167,0,0,0,0,0,0,0,0,0,-1,1357,1191,0,0
140,-167,0,0,0,0,0,0,0,0,0,-1,1364,1191,0,0
147,-167,0,0,0,0,0,0,0,0,0,-1,1371,1191,0,0
154,-167,0,0,0,0,0,0,0,0,0,-1,1378,1191,0,0
161,-167,0,0,0,0,0,0,0,0,0,-1,1385,1191,0,0
168,-167,0,0,0,0,0,0,0,0,0,-1,1392,1191,0,0
175,-167,0,0,0,0,0,0,0,0,0,-1,1399,1191,0,0
182,-167,0,0,0,0,0,0,0,0,0,-1,1406,1191,0,0
189,-167,0,0,0,0,0,0,0,0,0,-1,1413,1191,0,0
196,-167,0,0,0,0,0,0,0,0,0,-1,1420,1191,0,0
203,-167,0,0,0,0,0,0,0,0,0,-1,1427,1191,0,0
210,-167,0,0,0,0,0,0,0,0,0,-1,1434,1191,0,0
217,-167,0,0,0,0,0,0,0,0,0,-1,1441,1191,0,0
224,-167,0,0,0,0,0,0,0,0,0,-1,1448,1191,0,0
231,-167,0,0,0,0,0,0,0,0,0,-1,1455,1191,0,0
238,-167,0,0,0,0,0,0,0,0,0,-1,1462,1191,0,0
245,-167,0,0,0,0,0,0,0,0,0,-1,1469,1191,0,0
252,-167,0,0,0,0,0,0,0,0,0,-1,1476,1191,0,0
259,-167,0,0,0,0,0,0,0,0,0,-1,1483,1191,0,0
266,-167,0,0,0,0,0,0,0,0,0,-1,1490,1191,0,0
273,-167,0,0,0,0,0,0,0,0,0,-1,1497,1191,0,0
280,-167,0,0,0,0,0,0,0,0,0,-1,1504,1191,0,0
287,-167,0,0,0,0,0,0,0,0,0,-1,1511,1191,0,0
294,-167,0,0,0,0,0,0,0,0,0,-1,1518,1191,0,0
301,-167,0,0,0,0,0,0,0,0,0,-1,1525,1191,0,0
308,-167,0,0,0,0,0,0,0,0,0,-1,1532,1191,0,0
315,-167,0,0,0,0,0,0,0,0,0,-1,1539,1191,0,0
322,-167,0,0,0,0,0,0,0,0,0,-1,1546,1191,0,0
329,-167,0,0,0,0,0,0,0,0,0,-1,1553,1191,0,0
336,-167,0,0,0,0,0,0,0,0,0,-1,1560,1191,0,0
343,-167,0,0,0,0,0,0,0,0,0,-1,1567,1191,0,0
350,-167,0,0,0,0,0,0,0,0,0,-1,1574,1191,0,0
357,-167,0,0,0,0,0,0,0,0,0,-1,1581,1191,0,0
364,-167,0,0,0,0,0,0,0,0,0,-1,1588,1191,0,0
371,-167,0,0,0,0,0,0,0,0,0,-1,1595,1191,0,0
378,-167,0,0,0,0,0,0,0,0,0,-1,1602,1191,0,0
385,-167,0,0,0,0,0,0,0,0,0,-1,1609,1191,0,0
392,-167,0,0,0,0,0,0,0,0,0,-1,1616,1191,0,0
399,-167,0,0,0,0,0,0,0,0,0,-1,1623,1191,0,0
406,-167,0,0,0,0,0,0,0,0,0,-1,1630,1191,0,0
413,-167,0,0,0,0,0,0,0,0,0,-1,1637,1191,0,0
420,-167,0,0,0,0,0,0,0,0,0,-1,1644,1191,0,0
427,-167,0,0,0,0,0,0,0,0,0,-1,1651,1191,0,0
434,-167,0,0,0,0,0,0,0,0,0,-1,1658,1191,0,0
441,-167,0,0,0,0,0,0,0,0,0,-1,1665,1191,0,0
448,-167,0,0,0,0,0,0,0,0,0,-1,1672,1191,0,0
455,-167,0,0,0,0,0,0,0,0,0,-1,1679,1191,0,0
462,-167,0,0,0,0,0,0,0,0,0,-1,1686,1191,0,0
469,-167,0,0,0,0,0,0,0,0,0,-1,1693,1191,0,0
476,-167,0,0,0,0,0,0,0,0,0,-1,1700,1191,0,0
483,-167,0,0,0,0,0,0,0,0,0,-1,1707,1191,0,0
490,-167,0,0,0,0,0,0,0,0,0,-1,1714,1191,0,0
497,-167,0,0,0,0,0,0,0,0,0,-1,1721,1191,0,0
504,-167,0,0,0,0,0,0,0,0,0,-1,1728,1191,0,0
511,-167,0,0,0,0,0,0,0,0,0,-1,1735,1191,0,0
518,-167,0,0,0,0,0,0,0,0,0,-1,1742,1191,0,0
525,-167,0,0,0,0,0,0,0,0,0,-1,1749,1191,0,0
532,-167,0,0,0,0,0,0,0,0,0,-1,1756,1191,0,0
539,-167,0,0,0,0,0,0,0,0,0,-1,1763,1191,0,0
546,-167,0,0,0,0,0,0,0,0,0,-1,1770,1191,0,0
553,-167,0,0,0,0,0,0,0,0,0,-1,1777,1191,0,0
560,-167,0,0,0,0,0,0,0,0,0,-1,1784,1191,0,0
567,-167,0,0,0,0,0,0,0,0,0,-1,1791,1191,0,0
574,-167,0,0,0,0,0,0,0,0,0,-1,1798,1191,0,0
581,-167,0,0,0,0,0,0,0,0,0,-1,1805,1191,0,0
588,-167,0,0,0,0,0,0,0,0,0,-1,1812,1191,0,0
595,-167,0,0,0,0,0,0,0,0,0,-1,1819,1191,0,0
602,-167,0,0,0,0,0,0,0,0,0,-1,1826,1191,0,0
609,-167,0,0,0,0,0,0,0,0,0,-1,1833,1191,0,0
616,-167,0,0,0,0,0,0,0,0,0,-1,1840,1191,0,0
623,-167,0,0,0,0,0,0,0,0,0,-1,1847,1191,0,0
630,-167,0,0,0,0,0,0,0,0,0,-1,1854,1191,0,0
637,-167,40.6283,3.02063,-0.000505426,-0.00119159,-0.00277962,0.0019522,-0.00364922,-0.723994,0.00328308,0.0449966,1861,1191,40.6283,-3.02065
644,-167,40.7723,2.96875,-0.000349484,-0.000892857,-0.00273482,0.00212711,-0.00336945,-0.735889,0.00320035,0.048208,1868,1191,40.7723,-2.9687
651,-167,40.4834,2.56836,0.000169098,-0.000471841,-0.0026808,0.00254851,-0.00285126,-0.725909,0.00311919,0.0444336,1875,1191,40.4834,-2.56841
658,-167,40.485,2.66479,0.000954853,-0.000162056,-0.00268902,0.00314279,-0.00235,-0.683014,0.00318225,0.044262,1882,1191,40.485,-2.6648
665,-167,40.6378,2.66357,0.00158456,-0.000154071,-0.00240633,0.00327379,-0.0018433,-0.612062,0.00299258,0.0384936,1889,1191,40.6378,-2.66358
672,-167,40.6184,2.63489,0.00168921,-0.000486415,-0.00177666,0.00268463,-0.00148183,-0.510698,0.00243869,0.0291585,1896,1191,40.6184,-2.63493
679,-167,40.603,2.63379,0.00127964,-0.000816714,-0.00104085,0.00170864,-0.00124571,-0.390947,0.00171266,0.0244966,1903,1191,40.603,-2.6338
686,-167,40.642,2.66663,0.00080204,-0.00109391,-0.000555215,0.000952665,-0.00124453,-0.264914,0.00127228,0.0350116,1910,1191,40.642,-2.66667
693,-167,40.6538,2.73352,0,0,0,0,0,0,0,-1,1917,1191,40.6538,-2.73346
700,-167,28.0459,2.70508,0,0,0,0,0,0,0,-1,1924,1191,28.0459,-2.70513
707,-167,29.4708,7.10168,0,0,0,0,0,0,0,-1,1931,1191,29.4708,-7.10172
714,-167,35.1918,6.97046,0,0,0,0,0,0,0,-1,1938,1191,35.1917,-6.97047
721,-167,34.4806,6.01697,0,0,0,0,0,0,0,-1,1945,1191,34.4806,-6.01691
728,-167,35.1644,6.36816,0,0,0,0,0,0,0,-1,1952,1191,35.1644,-6.3682
735,-167,35.1665,6.06836,-0.00150429,-0.000942248,0.00214718,0.00094222,-0.00338876,0.850468,0.00263012,0.0171721,1959,1191,35.1665,-6.06831
742,-167,35.1191,5.71631,-0.00199032,0.000548869,0.00212053,0.00175082,-0.00319227,1.05514,0.00289406,0.0159147,1966,1191,35.1191,-5.71636
749,-167,35.1256,5.36731,-0.00271269,0.00286934,0.00191574,0.00346356,-0.00330692,1.27003,0.00390929,0.0134091,1973,1191,35.1256,-5.36726
756,-167,35.141,5.06079,-0.00419784,0.00613531,0.00118717,0.00626995,-0.00433248,1.45787,0.00615529,0.0103557,1980,1191,35.141,-5.06073
763,-167,35.0728,4.74036,-0.00637876,0.0109548,0.000246997,0.0109583,-0.00638228,1.55655,0.0101271,0.0121979,1987,1191,35.0728,-4.7403
770,-167,34.939,4.51758,-0.00981064,0.0173022,-0.00104684,0.0173426,-0.00985099,-1.53226,0.0158976,0.0272385,1994,1191,34.939,-4.51758
777,-167,35.1436,4.46143,0,0,0,0,0,0,0,-1,2001,1191,35.1436,-4.46146
784,-167,35.5782,4.28296,-0.0223537,0.0364438,-0.00581887,0.0370142,-0.022924,-1.47309,0.0349226,0.0478919,2008,1191,35.5783,-4.28294
791,-167,34.6868,2.36316,-0.0330531,0.0516075,-0.0108737,0.0529818,-0.0344274,-1.44508,0.0508433,0.0468621,2015,1191,34.6868,-2.36319
798,-167,34.3,2.85156,0,0,0,0,0,0,0,-1,2022,1191,34.3,-2.85154
805,-167,34.0164,3.08154,0,0,0,0,0,0,0,-1,2029,1191,34.0165,-3.08158
812,-167,0,0,0,0,0,0,0,0,0,-1,2036,1191,0,0
-700,-174,0,0,0,0,0,0,0,0,0,-1,524,1198,0,0
-693,-174,0,0,0,0,0,0,0,0,0,-1,531,1198,0,0
-686,-174,-23.9573,-2.06396,-0.0578745,0.0843267,-0.028679,0.0898928,-0.0634405,-1.3791,0.0889651,0.0456238,538,1198,-23.9573,2.06402
-679,-174,-23.9263,-1.68835,-0.0521683,0.0731767,-0.0193937,0.0761088,-0.0551004,-1.42075,0.0760766,0.0422368,545,1198,-23.9263,1.68831
-672,-174,-24.1315,-1.45142,-0.0445534,0.0615879,-0.0129933,0.0631553,-0.0461208,-1.45074,0.0633456,0.0444651,552,1198,-24.1315,1.45142
-665,-174,-24.5043,-1.08997,-0.0363864,0.050356,-0.00850551,0.0511821,-0.0372125,-1.47397,0.0512466,0.0451132,559,1198,-24.5043,1.08996
-658,-174,-23.3338,0.107544,0,0,0,0,0,0,0,-1,566,1198,-23.3338,-0.107576
-651,-174,-23.2747,0.571655,-0.0210211,0.0305682,-0.00313157,0.0307576,-0.0212105,-1.51039,0.0301721,0.0490784,573,1198,-23.2747,-0.571636
-644,-174,-23.242,1.23523,-0.0147499,0.0224985,-0.00164969,0.0225714,-0.0148229,-1.52662,0.0217436,0.0436649,580,1198,-23.242,-1.23525
-637,-174,-23.2345,1.6875,-0.00978282,0.0158172,-0.000714138,0.0158371,-0.00980272,-1.54293,0.0149392,0.0235091,587,1198,-23.2345,-1.68754
-630,-174,-23.313,2.05298,-0.00612016,0.0100757,5.24662e-05,0.0100759,-0.00612033,1.56756,0.00944339,0.0133272,594,1198,-23.313,-2.05293
-623,-174,-23.3358,2.4176,-0.00301416,0.00577362,0.000541007,0.0058068,-0.00304734,1.50954,0.00519404,0.0138604,601,1198,-23.3358,-2.41766
-616,-174,-23.3307,2.80151,-0.000602228,0.00215991,0.000509848,0.00225102,-0.000693333,1.39397,0.00177745,0.0191264,608,1198,-23.3307,-2.80151
-609,-174,-23.3821,3.16064,0.000106521,0.000232347,0.000213042,0.000391571,-5.27032e-05,0.928971,0.000280272,0.0215072,615,1198,-23.3821,-3.16061
-602,-174,-23.4309,3.48633,4.93746e-05,-0.00028601,-6.8372e-05,6.27774e-05,-0.000299413,-0.193573,0.000223493,0.0143385,622,1198,-23.4309,-3.48628
-595,-174,-23.4067,3.90967,-0.000291248,-0.00043214,2.0875e-05,-0.00028822,-0.000435168,0.144041,0.000255619,0.025684,629,1198,-23.4067,-3.90969
-588,-174,-23.7322,4.12231,-0.00027505,-0.000276489,-2.43102e-05,-0.000251449,-0.00030009,-0.770603,0.000185979,0.0267832,636,1198,-23.7322,-4.12229
-581,-174,-23.6423,4.57764,-7.40891e-05,-0.000526679,-0.0002044,4.55647e-06,-0.000605325,-0.367303,0.000405077,0.033365,643,1198,-23.6423,-4.57765
-574,-174,-23.4434,5.10376,0,0,0,0,0,0,0,-1,650,1198,-23.4434,-5.10373
-567,-174,-22.5471,1.97351,0,0,0,0,0,0,0,-1,657,1198,-22.5471,-1.97355
-560,-174,-29.4147,0.794189,0,0,0,0,0,0,0,-1,664,1198,-29.4146,-0.794176
-553,-174,-29.4227,0.799438,-0.00138025,-0.000563168,0.000163116,-0.000531809,-0.00141161,1.38086,0.000823208,0.0374642,671,1198,-29.4227,-0.799415
-546,-174,-29.4684,0.809204,-0.00167031,-0.00064488,0.000270518,-0.000577891,-0.0017373,1.32805,0.00102159,0.029325,678,1198,-29.4684,-0.80922
-539,-174,-29.4803,0.921143,-0.00189591,-0.000565283,0.000401211,-0.000453671,-0.00200752,1.29947,0.00121568,0.0349946,685,1198,-29.4804,-0.92109
-532,-174,-29.4471,1.0437,-0.00253573,-0.000787353,0.000352076,-0.000719118,-0.00260396,1.37936,0.0015528,0.0453632,692,1198,-29.4471,-1.04372
-525,-174,-29.3723,0.781494,-0.00283418,-0.00154457,-2.8177e-05,-0.00154396,-0.0028348,-1.54896,0.00163885,0.0444213,699,1198,-29.3722,-0.78153
-518,-174,-29.4977,0.645752,-0.00280677,-0.00251454,-0.000742123,-0.00190429,-0.00341703,-0.882598,0.00197713,0.041554,706,1198,-29.4977,-0.645744
-511,-174,0,0,0,0,0,0,0,0,0,-1,713,1198,0,0
-504,-174,0,0,0,0,0,0,0,0,0,-1,720,1198,0,0
-497,-174,0,0,0,0,0,0,0,0,0,-1,727,1198,0,0
-490,-174,0,0,0,0,0,0,0,0,0,-1,734,1198,0,0
-483,-174,0,0,0,0,0,0,0,0,0,-1,741,1198,0,0
-476,-174,0,0,0,0,0,0,0,0,0,-1,748,1198,0,0
-469,-174,0,0,0,0,0,0,0,0,0,-1,755,1198,0,0
-462,-174,0,0,0,0,0,0,0,0,0,-1,762,1198,0,0
-455,-174,0,0,0,0,0,0,0,0,0,-1,769,1198,0,0
-448,-174,0,0,0,0,0,0,0,0,0,-1,776,1198,0,0
-441,-174,0,0,0,0,0,0,0,0,0,-1,783,1198,0,0
-434,-174,0,0,0,0,0,0,0,0,0,-1,790,1198,0,0
-427,-174,0,0,0,0,0,0,0,0,0,-1,797,1198,0,0
-420,-174,0,0,0,0,0,0,0,0,0,-1,804,1198,0,0
-413,-174,0,0,0,0,0,0,0,0,0,-1,811,1198,0,0
-406,-174,0,0,0,0,0,0,0,0,0,-1,818,1198,0,0
-399,-174,0,0,0,0,0,0,0,0,0,-1,825,1198,0,0
-392,-174,0,0,0,0,0,0,0,0,0,-1,832,1198,0,0
-385,-174,0,0,0,0,0,0,0,0,0,-1,839,1198,0,0
-378,-174,0,0,0,0,0,0,0,0,0,-1,846,1198,0,0
-371,-174,0,0,0,0,0,0,0,0,0,-1,853,1198,0,0
-364,-174,0,0,0,0,0,0,0,0,0,-1,860,1198,0,0
-357,-174,0,0,0,0,0,0,0,0,0,-1,867,1198,0,0
-350,-174,0,0,0,0,0,0,0,0,0,-1,874,1198,0,0
-343,-174,0,0,0,0,0,0,0,0,0,-1,881,1198,0,0
-336,-174,0,0,0,0,0,0,0,0,0,-1,888,1198,0,0
-329,-174,0,0,0,0,0,0,0,0,0,-1,895,1198,0,0
-322,-174,0,0,0,0,0,0,0,0,0,-1,902,1198,0,0
-315,-174,0,0,0,0,0,0,0,0,0,-1,909,1198,0,0
-308,-174,0,0,0,0,0,0,0,0,0,-1,916,1198,0,0
-301,-174,0,0,0,0,0,0,0,0,0,-1,923,1198,0,0
-294,-174,0,0,0,0,0,0,0,0,0,-1,930,1198,0,0
-287,-174,0,0,0,0,0,0,0,0,0,-1,937,1198,0,0
-280,-174,0,0,0,0,0,0,0,0,0,-1,944,1198,0,0
-273,-174,0,0,0,0,0,0,0,0,0,-1,951,1198,0,0
-266,-174,0,0,0,0,0,0,0,0,0,-1,958,1198,0,0
-259,-174,0,0,0,0,0,0,0,0,0,-1,965,1198,0,0
-252,-174,0,0,0,0,0,0,0,0,0,-1,972,1198,0,0
-245,-174,0,0,0,0,0,0,0,0,0,-1,979,1198,0,0
-238,-174,0,0,0,0,0,0,0,0,0,-1,986,1198,0,0
-231,-174,0,0,0,0,0,0,0,0,0,-1,993,1198,0,0
-224,-174,0,0,0,0,0,0,0,0,0,-1,1000,1198,0,0
-217,-174,0,0,0,0,0,0,0,0,0,-1,1007,1198,0,0
-210,-174,0,0,0,0,0,0,0,0,0,-1,1014,1198,0,0
-203,-174,0,0,0,0,0,0,0,0,0,-1,1021,1198,0,0
-196,-174,0,0,0,0,0,0,0,0,0,-1,1028,1198,0,0
-189,-174,0,0,0,0,0,0,0,0,0,-1,1035,1198,0,0
-182,-174,0,0,0,0,0,0,0,0,0,-1,1042,1198,0,0
-175,-174,0,0,0,0,0,0,0,0,0,-1,1049,1198,0,0
-168,-174,0,0,0,0,0,0,0,0,0,-1,1056,1198,0,0
-161,-174,0,0,0,0,0,0,0,0,0,-1,1063,1198,0,0
-154,-174,0,0,0,0,0,0,0,0,0,-1,1070,1198,0,0
-147,-174,0,0,0,0,0,0,0,0,0,-1,1077,1198,0,0
-140,-174,0,0,0,0,0,0,0,0,0,-1,1084,1198,0,0
-133,-174,0,0,0,0,0,0,0,0,0,-1,1091,1198,0,0
-126,-174,0,0,0,0,0,0,0,0,0,-1,1098,1198,0,0
-119,-174,0,0,0,0,0,0,0,0,0,-1,1105,1198,0,0
-112,-174,0,0,0,0,0,0,0,0,0,-1,1112,1198,0,0
-105,-174,0,0,0,0,0,0,0,0,0,-1,1119,1198,0,0
-98,-174,0,0,0,0,0,0,0,0,0,-1,1126,1198,0,0
-91,-174,0,0,0,0,0,0,0,0,0,-1,1133,1198,0,0
-84,-174,0,0,0,0,0,0,0,0,0,-1,1140,1198,0,0
-77,-174,0,0,0,0,0,0,0,0,0,-1,1147,1198,0,0
-70,-174,0,0,0,0,0,0,0,0,0,-1,1154,1198,0,0
-63,-174,0,0,0,0,0,0,0,0,0,-1,1161,1198,0,0
-56,-174,0,0,0,0,0,0,0,0,0,-1,1168,1198,0,0
-49,-174,0,0,0,0,0,0,0,0,0,-1,1175,1198,0,0
-42,-174,0,0,0,0,0,0,0,0,0,-1,1182,1198,0,0
-35,-174,0,0,0,0,0,0,0,0,0,-1,1189,1198,0,0
-28,-174,0,0,0,0,0,0,0,0,0,-1,1196,1198,0,0
-21,-174,0,0,0,0,0,0,0,0,0,-1,1203,1198,0,0
-14,-174,0,0,0,0,0,0,0,0,0,-1,1210,1198,0,0
-7,-174,0,0,0,0,0,0,0,0,0,-1,1217,1198,0,0
0,-174,0,0,0,0,0,0,0,0,0,-1,1224,1198,0,0
7,-174,0,0,0,0,0,0,0,0,0,-1,1231,1198,0,0
14,-174,0,0,0,0,0,0,0,0,0,-1,1238,1198,0,0
21,-174,0,0,0,0,0,0,0,0,0,-1,1245,1198,0,0
28,-174,0,0,0,0,0,0,0,0,0,-1,1252,1198,0,0
35,-174,0,0,0,0,0,0,0,0,0,-1,1259,1198,0,0
42,-174,0,0,0,0,0,0,0,0,0,-1,1266,1198,0,0
49,-174,0,0,0,0,0,0,0,0,0,-1,1273,1198,0,0
56,-174,0,0,0,0,0,0,0,0,0,-1,1280,1198,0,0
63,-174,0,0,0,0,0,0,0,0,0,-1,1287,1198,0,0
70,-174,0,0,0,0,0,0,0,0,0,-1,1294,1198,0,0
77,-174,0,0,0,0,0,0,0,0,0,-1,1301,1198,0,0
84,-174,0,0,0,0,0,0,0,0,0,-1,1308,1198,0,0
91,-174,0,0,0,0,0,0,0,0,0,-1,1315,1198,0,0
98,-174,0,0,0,0,0,0,0,0,0,-1,1322,1198,0,0
105,-174,0,0,0,0,0,0,0,0,0,-1,1329,1198,0,0
112,-174,0,0,0,0,0,0,0,0,0,-1,1336,1198,0,0
119,-174,0,0,0,0,0,0,0,0,0,-1,1343,1198,0,0
126,-174,0,0,0,0,0,0,0,0,0,-1,1350,1198,0,0
133,-174,0,0,0,0,0,0,0,0,0,-1,1357,1198,0,0
140,-174,0,0,0,0,0,0,0,0,0,-1,1364,1198,0,0
147,-174,0,0,0,0,0,0,0,0,0,-1,1371,1198,0,0
154,-174,0,0,0,0,0,0,0,0,0,-1,1378,1198,0,0
161,-174,0,0,0,0,0,0,0,0,0,-1,1385,1198,0,0
168,-174,0,0,0,0,0,0,0,0,0,-1,1392,1198,0,0
175,-174,0,0,0,0,0,0,0,0,0,-1,1399,1198,0,0
182,-174,0,0,0,0,0,0,0,0,0,-1,1406,1198,0,0
189,-174,0,0,0,0,0,0,0,0,0,-1,1413,1198,0,0
196,-174,0,0,0,0,0,0,0,0,0,-1,1420,1198,0,0
203,-174,0,0,0,0,0,0,0,0,0,-1,1427,1198,0,0
210,-174,0,0,0,0,0,0,0,0,0,-1,1434,1198,0,0
217,-174,0,0,0,0,0,0,0,0,0,-1,1441,1198,0,0
224,-174,0,0,0,0,0,0,0,0,0,-1,1448,1198,0,0
231,-174,0,0,0,0,0,0,0,0,0,-1,1455,1198,0,0
238,-174,0,0,0,0,0,0,0,0,0,-1,1462,1198,0,0
245,-174,0,0,0,0,0,0,0,0,0,-1,1469,1198,0,0
252,-174,0,0,0,0,0,0,0,0,0,-1,1476,1198,0,0
259,-174,0,0,0,0,0,0,0,0,0,-1,1483,1198,0,0
266,-174,0,0,0,0,0,0,0,0,0,-1,1490,1198,0,0
273,-174,0,0,0,0,0,0,0,0,0,-1,1497,1198,0,0
280,-174,0,0,0,0,0,0,0,0,0,-1,1504,1198,0,0
287,-174,0,0,0,0,0,0,0,0,0,-1,1511,1198,0,0
294,-174,0,0,0,0,0,0,0,0,0,-1,1518,1198,0,0
301,-174,0,0,0,0,0,0,0,0,0,-1,1525,1198,0,0
308,-174,0,0,0,0,0,0,0,0,0,-1,1532,1198,0,0
315,-174,0,0,0,0,0,0,0,0,0,-1,1539,1198,0,0
322,-174,0,0,0,0,0,0,0,0,0,-1,1546,1198,0,0
329,-174,0,0,0,0,0,0,0,0,0,-1,1553,1198,0,0
336,-174,0,0,0,0,0,0,0,0,0,-1,1560,1198,0,0
343,-174,0,0,0,0,0,0,0,0,0,-1,1567,1198,0,0
350,-174,0,0,0,0,0,0,0,0,0,-1,1574,1198,0,0
357,-174,0,0,0,0,0,0,0,0,0,-1,1581,1198,0,0
364,-174,0,0,0,0,0,0,0,0,0,-1,1588,1198,0,0
371,-174,0,0,0,0,0,0,0,0,0,-1,1595,1198,0,0
378,-174,0,0,0,0,0,0,0,0,0,-1,1602,1198,0,0
385,-174,0,0,0,0,0,0,0,0,0,-1,1609,1198,0,0
392,-174,0,0,0,0,0,0,0,0,0,-1,1616,1198,0,0
399,-174,0,0,0,0,0,0,0,0,0,-1,1623,1198,0,0
406,-174,0,0,0,0,0,0,0,0,0,-1,1630,1198,0,0
413,-174,0,0,0,0,0,0,0,0,0,-1,1637,1198,0,0
420,-174,0,0,0,0,0,0,0,0,0,-1,1644,1198,0,0
427,-174,0,0,0,0,0,0,0,0,0,-1,1651,1198,0,0
434,-174,0,0,0,0,0,0,0,0,0,-1,1658,1198,0,0
441,-174,0,0,0,0,0,0,0,0,0,-1,1665,1198,0,0
448,-174,0,0,0,0,0,0,0,0,0,-1,1672,1198,0,0
455,-174,0,0,0,0,0,0,0,0,0,-1,1679,1198,0,0
462,-174,0,0,0,0,0,0,0,0,0,-1,1686,1198,0,0
469,-174,0,0,0,0,0,0,0,0,0,-1,1693,1198,0,0
476,-174,0,0,0,0,0,0,0,0,0,-1,1700,1198,0,0
483,-174,0,0,0,0,0,0,0,0,0,-1,1707,1198,0,0
490,-174,0,0,0,0,0,0,0,0,0,-1,1714,1198,0,0
497,-174,0,0,0,0,0,0,0,0,0,-1,1721,1198,0,0
504,-174,0,0,0,0,0,0,0,0,0,-1,1728,1198,0,0
511,-174,0,0,0,0,0,0,0,0,0,-1,1735,1198,0,0
518,-174,0,0,0,0,0,0,0,0,0,-1,1742,1198,0,0
525,-174,0,0,0,0,0,0,0,0,0,-1,1749,1198,0,0
532,-174,0,0,0,0,0,0,0,0,0,-1,1756,1198,0,0
539,-174,0,0,0,0,0,0,0,0,0,-1,1763,1198,0,0
546,-174,0,0,0,0,0,0,0,0,0,-1,1770,1198,0,0
553,-174,0,0,0,0,0,0,0,0,0,-1,1777,1198,0,0
560,-174,0,0,0,0,0,0,0,0,0,-1,1784,1198,0,0
567,-174,0,0,0,0,0,0,0,0,0,-1,1791,1198,0,0
574,-174,0,0,0,0,0,0,0,0,0,-1,1798,1198,0,0
581,-174,0,0,0,0,0,0,0,0,0,-1,1805,1198,0,0
588,-174,0,0,0,0,0,0,0,0,0,-1,1812,1198,0,0
595,-174,0,0,0,0,0,0,0,0,0,-1,1819,1198,0,0
602,-174,0,0,0,0,0,0,0,0,0,-1,1826,1198,0,0
609,-174,0,0,0,0,0,0,0,0,0,-1,1833,1198,0,0
616,-174,0,0,0,0,0,0,0,0,0,-1,1840,1198,0,0
623,-174,0,0,0,0,0,0,0,0,0,-1,1847,1198,0,0
630,-174,0,0,0,0,0,0,0,0,0,-1,1854,1198,0,0
637,-174,40.5208,2.93872,0.00052181,5.26529e-05,-0.00162213,0.00192624,-0.00135177,-0.71359,0.00190222,0.0410484,1861,1198,40.5208,-2.93872
644,-174,40.6879,2.96069,0.000619871,0.000203281,-0.0019956,0.00241801,-0.00159486,-0.733398,0.00233302,0.0437951,1868,1198,40.6879,-2.96072
651,-174,40.5276,2.73328,0.00103077,0.000446087,-0.00232444,0.00308119,-0.00160433,-0.722842,0.00274961,0.0443687,1875,1198,40.5276,-2.73331
658,-174,40.4869,2.68164,0.00164218,0.000559365,-0.00263749,0.00379326,-0.00159172,-0.684167,0.00319445,0.0406095,1882,1198,40.487,-2.68166
665,-174,40.5803,2.58325,0.00202533,0.000382417,-0.00249576,0.00383135,-0.0014236,-0.626411,0.0031383,0.0348314,1889,1198,40.5803,-2.58323
672,-174,40.5686,2.56897,0.00187909,-7.77804e-05,-0.00192485,0.0030599,-0.0012586,-0.550258,0.00256457,0.0273927,1896,1198,40.5686,-2.56896
679,-174,40.5957,2.60522,0.00130247,-0.000451844,-0.00121718,0.00192563,-0.001075,-0.473173,0.00175546,0.0244267,1903,1198,40.5957,-2.60518
686,-174,40.677,2.61267,0,0,0,0,0,0,0,-1,1910,1198,40.677,-2.61267
693,-174,38.9143,2.43933,0,0,0,0,0,0,0,-1,1917,1198,38.9144,-2.43931
700,-174,25.4004,6.11792,0,0,0,0,0,0,0,-1,1924,1198,25.4004,-6.11797
707,-174,34.7908,7.34473,0,0,0,0,0,0,0,-1,1931,1198,34.7908,-7.34475
714,-174,35.493,6.8689,0,0,0,0,0,0,0,-1,1938,1198,35.493,-6.86895
721,-174,34.8362,6.63599,0,0,0,0,0,0,0,-1,1945,1198,34.8362,-6.63603
728,-174,34.9225,6.34692,-0.00126475,-0.00101111,0.00215675,0.00102254,-0.00329841,0.814765,0.0026075,0.0337413,1952,1198,34.9225,-6.34689
735,-174,34.7917,6.05115,-0.00176417,-0.000817532,0.0022729,0.00103081,-0.00361251,0.888053,0.00281556,0.0127771,1959,1198,34.7917,-6.0512
742,-174,34.7839,5.71521,-0.00224725,0.00090016,0.00216079,0.00199957,-0.00334666,1.10013,0.00311914,0.0187509,1966,1198,34.7839,-5.71515
749,-174,34.7959,5.38513,-0.00286878,0.00341323,0.00188975,0.00393788,-0.00339344,1.29999,0.00423663,0.0163508,1973,1198,34.7959,-5.38517
756,-174,34.7953,5.06042,-0.00402569,0.00701244,0.00131415,0.00716674,-0.00417999,1.45392,0.00662626,0.00995529,1980,1198,34.7952,-5.06037
763,-174,34.7598,4.73486,-0.00607565,0.0123366,0.000530153,0.0123519,-0.0060909,1.54203,0.0108505,0.0132415,1987,1198,34.7598,-4.73484
770,-174,34.8073,4.47253,-0.00958501,0.0196923,-0.000460727,0.0196995,-0.00959226,-1.55506,0.017244,0.0298323,1994,1198,34.8073,-4.47259
777,-174,34.9479,4.5614,0,0,0,0,0,0,0,-1,2001,1198,34.9479,-4.56141
784,-174,34.3124,1.84863,0,0,0,0,0,0,0,-1,2008,1198,34.3124,-1.84858
791,-174,33.9846,2.09827,-0.034787,0.0631984,-0.00800786,0.0638485,-0.0354371,-1.48979,0.0580996,0.0494919,2015,1198,33.9847,-2.09827
798,-174,33.6711,2.36572,0,0,0,0,0,0,0,-1,2022,1198,33.6712,-2.36567
805,-174,33.387,2.63245,0,0,0,0,0,0,0,-1,2029,1198,33.387,-2.63247
812,-174,0,0,0,0,0,0,0,0,0,-1,2036,1198,0,0
-700,-181,0,0,0,0,0,0,0,0,0,-1,524,1205,0,0
-693,-181,0,0,0,0,0,0,0,0,0,-1,531,1205,0,0
-686,-181,-22.919,-2.60083,-0.0640066,0.0853523,-0.0255118,0.0895897,-0.068244,-1.4062,0.0914026,0.0477361,538,1205,-22.919,2.60083
-679,-181,-23.0148,-2.00269,-0.0522884,0.0711359,-0.0156772,0.0730961,-0.0542486,-1.44641,0.0737904,0.0421531,545,1205,-23.0148,2.00275
-672,-181,-23.5135,-1.74036,-0.0417727,0.0584198,-0.00933779,0.0592826,-0.0426355,-1.47866,0.0591036,0.0448595,552,1205,-23.5135,1.7403
-665,-181,-23.831,-1.23132,-0.0324266,0.0470544,-0.00517939,0.0473905,-0.0327627,-1.506,0.0465326,0.0464246,559,1205,-23.831,1.23137
-658,-181,-24.0042,-0.741699,0,0,0,0,0,0,0,-1,566,1205,-24.0041,0.741732
-651,-181,-22.6814,0.736694,-0.0173715,0.0283006,-0.000782189,0.028314,-0.0173849,-1.55368,0.0266346,0.0476165,573,1205,-22.6814,-0.736702
-644,-181,-22.7894,1.17456,-0.0118682,0.0209288,0.000176335,0.0209298,-0.0118691,1.56542,0.0191758,0.0426381,580,1205,-22.7895,-1.17458
-637,-181,-22.8304,1.65771,-0.00772064,0.0148693,0.000625533,0.0148866,-0.00773795,1.54313,0.0132779,0.0244086,587,1205,-22.8304,-1.65771
-630,-181,-22.9404,2.04333,-0.00478929,0.00961135,0.000987212,0.00967871,-0.00485665,1.50267,0.00854454,0.0136985,594,1205,-22.9404,-2.0433
-623,-181,-22.9797,2.41895,-0.00228368,0.00568696,0.00115517,0.005851,-0.00244772,1.42973,0.00492374,0.0157279,601,1205,-22.9797,-2.41899
-616,-181,-22.9742,2.79492,-0.000225703,0.00227522,0.000779673,0.00249837,-0.000448857,1.29203,0.0018336,0.0149029,608,1205,-22.9743,-2.79495
-609,-181,-22.9864,3.18286,0.000328559,0.000263025,0.000292889,0.000590508,1.07614e-06,0.729692,0.000393314,0.0145202,615,1205,-22.9864,-3.18281
-602,-181,-22.9929,3.5575,0.000224918,-0.000411481,-2.62088e-05,0.000225996,-0.000412559,-0.0410901,0.000373878,0.0127232,622,1205,-22.9929,-3.55754
-595,-181,-23.1331,3.85254,-5.67977e-05,-0.000661202,6.73893e-05,-4.93752e-05,-0.000668625,0.109702,0.000430237,0.0242815,629,1205,-23.133,-3.85255
-588,-181,-23.353,4.27222,3.88266e-05,-0.000622299,8.81773e-05,5.03851e-05,-0.000633858,0.13034,0.000440329,0.02598,636,1205,-23.3529,-4.27227
-581,-181,-23.2744,4.75403,0.000249924,-0.000960333,4.89101e-06,0.000249944,-0.000960353,0.00404121,0.0007378,0.0246975,643,1205,-23.2744,-4.75401
-574,-181,-23.1276,5.17249,0,0,0,0,0,0,0,-1,650,1205,-23.1276,-5.17254
-567,-181,-21.7781,2.03772,0,0,0,0,0,0,0,-1,657,1205,-21.7781,-2.03772
-560,-181,-29.2336,0.323242,0,0,0,0,0,0,0,-1,664,1205,-29.2337,-0.323232
-553,-181,-29.3138,0.53064,-0.00133846,-0.00111553,0.00080844,-0.000410909,-0.00204308,0.853906,0.00124785,0.0453749,671,1205,-29.3139,-0.530596
-546,-181,-29.4175,0.779541,-0.00173232,-0.00117974,0.00106112,-0.000359524,-0.00255253,0.912759,0.00159541,0.0350664,678,1205,-29.4175,-0.779566
-539,-181,-29.5074,1.01123,-0.0020741,-0.00112768,0.00132275,-0.000196036,-0.00300574,0.957178,0.00194178,0.0403017,685,1205,-29.5074,-1.01126
-532,-181,-29.1954,1.05273,0,0,0,0,0,0,0,-1,692,1205,-29.1954,-1.05272
-525,-181,-29.3652,0.919189,-0.00343152,-0.00221762,0.00123479,-0.00144867,-0.00420047,1.01383,0.00246374,0.0441931,699,1205,-29.3652,-0.919187
-518,-181,-29.5085,1.07739,-0.00336042,-0.00373286,0.000631643,-0.00288811,-0.00420516,0.642051,0.00248369,0.0407956,706,1205,-29.5085,-1.07738
-511,-181,0,0,0,0,0,0,0,0,0,-1,713,1205,0,0
-504,-181,0,0,0,0,0,0,0,0,0,-1,720,1205,0,0
-497,-181,0,0,0,0,0,0,0,0,0,-1,727,1205,0,0
-490,-181,0,0,0,0,0,0,0,0,0,-1,734,1205,0,0
-483,-181,0,0,0,0,0,0,0,0,0,-1,741,1205,0,0
-476,-181,0,0,0,0,0,0,0,0,0,-1,748,1205,0,0
-469,-181,0,0,0,0,0,0,0,0,0,-1,755,1205,0,0
-462,-181,0,0,0,0,0,0,0,0,0,-1,762,1205,0,0
-455,-181,0,0,0,0,0,0,0,0,0,-1,769,1205,0,0
-448,-181,0,0,0,0,0,0,0,0,0,-1,776,1205,0,0
-441,-181,0,0,0,0,0,0,0,0,0,-1,783,1205,0,0
-434,-181,0,0,0,0,0,0,0,0,0,-1,790,1205,0,0
-427,-181,0,0,0,0,0,0,0,0,0,-1,797,1205,0,0
-420,-181,0,0,0,0,0,0,0,0,0,-1,804,1205,0,0
-413,-181,0,0,0,0,0,0,0,0,0,-1,811,1205,0,0
-406,-181,0,0,0,0,0,0,0,0,0,-1,818,1205,0,0
-399,-181,0,0,0,0,0,0,0,0,0,-1,825,1205,0,0
-392,-181,0,0,0,0,0,0,0,0,0,-1,832,1205,0,0
-385,-181,0,0,0,0,0,0,0,0,0,-1,839,1205,0,0
-378,-181,0,0,0,0,0,0,0,0,0,-1,846,1205,0,0
-371,-181,0,0,0,0,0,0,0,0,0,-1,853,1205,0,0
-364,-181,0,0,0,0,0,0,0,0,0,-1,860,1205,0,0
-357,-181,0,0,0,0,0,0,0,0,0,-1,867,1205,0,0
-350,-181,0,0,0,0,0,0,0,0,0,-1,874,1205,0,0
-343,-181,0,0,0,0,0,0,0,0,0,-1,881,1205,0,0
-336,-181,0,0,0,0,0,0,0,0,0,-1,888,1205,0,0
-329,-181,0,0,0,0,0,0,0,0,0,-1,895,1205,0,0
-322,-181,0,0,0,0,0,0,0,0,0,-1,902,1205,0,0
-315,-181,0,0,0,0,0,0,0,0,0,-1,909,1205,0,0
-308,-181,0,0,0,0,0,0,0,0,0,-1,916,1205,0,0
-301,-181,0,0,0,0,0,0,0,0,0,-1,923,1205,0,0
-294,-181,0,0,0,0,0,0,0,0,0,-1,930,1205,0,0
-287,-181,0,0,0,0,0,0,0,0,0,-1,937,1205,0,0
-280,-181,0,0,0,0,0,0,0,0,0,-1,944,1205,0,0
-273,-181,0,0,0,0,0,0,0,0,0,-1,951,1205,0,0
-266,-181,0,0,0,0,0,0,0,0,0,-1,958,1205,0,0
-259,-181,0,0,0,0,0,0,0,0,0,-1,965,1205,0,0
-252,-181,0,0,0,0,0,0,0,0,0,-1,972,1205,0,0
-245,-181,0,0,0,0,0,0,0,0,0,-1,979,1205,0,0
-238,-181,0,0,0,0,0,0,0,0,0,-1,986,1205,0,0
-231,-181,0,0,0,0,0,0,0,0,0,-1,993,1205,0,0
-224,-181,0,0,0,0,0,0,0,0,0,-1,1000,1205,0,0
-217,-181,0,0,0,0,0,0,0,0,0,-1,1007,1205,0,0
-210,-181,0,0,0,0,0,0,0,0,0,-1,1014,1205,0,0
-203,-181,0,0,0,0,0,0,0,0,0,-1,1021,1205,0,0
-196,-181,0,0,0,0,0,0,0,0,0,-1,1028,1205,0,0
-189,-181,0,0,0,0,0,0,0,0,0,-1,1035,1205,0,0
-182,-181,0,0,0,0,0,0,0,0,0,-1,1042,1205,0,0
-175,-181,0,0,0,0,0,0,0,0,0,-1,1049,1205,0,0
-168,-181,0,0,0,0,0,0,0,0,0,-1,1056,1205,0,0
-161,-181,0,0,0,0,0,0,0,0,0,-1,1063,1205,0,0
-154,-181,0,0,0,0,0,0,0,0,0,-1,1070,1205,0,0
-147,-181,0,0,0,0,0,0,0,0,0,-1,1077,1205,0,0
-140,-181,0,0,0,0,0,0,0,0,0,-1,1084,1205,0,0
-133,-181,0,0,0,0,0,0,0,0,0,-1,1091,1205,0,0
-126,-181,0,0,0,0,0,0,0,0,0,-1,1098,1205,0,0
-119,-181,0,0,0,0,0,0,0,0,0,-1,1105,1205,0,0
-112,-181,0,0,0,0,0,0,0,0,0,-1,1112,1205,0,0
-105,-181,0,0,0,0,0,0,0,0,0,-1,1119,1205,0,0
-98,-181,0,0,0,0,0,0,0,0,0,-1,1126,1205,0,0
-91,-181,0,0,0,0,0,0,0,0,0,-1,1133,1205,0,0
-84,-181,0,0,0,0,0,0,0,0,0,-1,1140,1205,0,0
-77,-181,0,0,0,0,0,0,0,0,0,-1,1147,1205,0,0
-70,-181,0,0,0,0,0,0,0,0,0,-1,1154,1205,0,0
-63,-181,0,0,0,0,0,0,0,0,0,-1,1161,1205,0,0
-56,-181,0,0,0,0,0,0,0,0,0,-1,1168,1205,0,0
-49,-181,0,0,0,0,0,0,0,0,0,-1,1175,1205,0,0
-42,-181,0,0,0,0,0,0,0,0,0,-1,1182,1205,0,0
-35,-181,0,0,0,0,0,0,0,0,0,-1,1189,1205,0,0
-28,-181,0,0,0,0,0,0,0,0,0,-1,1196,1205,0,0
-21,-181,0,0,0,0,0,0,0,0,0,-1,1203,1205,0,0
-14,-181,0,0,0,0,0,0,0,0,0,-1,1210,1205,0,0
-7,-181,0,0,0,0,0,0,0,0,0,-1,1217,1205,0,0
0,-181,0,0,0,0,0,0,0,0,0,-1,1224,1205,0,0
7,-181,0,0,0,0,0,0,0,0,0,-1,1231,1205,0,0
14,-181,0,0,0,0,0,0,0,0,0,-1,1238,1205,0,0
21,-181,0,0,0,0,0,0,0,0,0,-1,1245,1205,0,0
28,-181,0,0,0,0,0,0,0,0,0,-1,1252,1205,0,0
35,-181,0,0,0,0,0,0,0,0,0,-1,1259,1205,0,0
42,-181,0,0,0,0,0,0,0,0,0,-1,1266,1205,0,0
49,-181,0,0,0,0,0,0,0,0,0,-1,1273,1205,0,0
56,-181,0,0,0,0,0,0,0,0,0,-1,1280,1205,0,0
63,-181,0,0,0,0,0,0,0,0,0,-1,1287,1205,0,0
70,-181,0,0,0,0,0,0,0,0,0,-1,1294,1205,0,0
77,-181,0,0,0,0,0,0,0,0,0,-1,1301,1205,0,0
84,-181,0,0,0,0,0,0,0,0,0,-1,1308,1205,0,0
91,-181,0,0,0,0,0,0,0,0,0,-1,1315,1205,0,0
98,-181,0,0,0,0,0,0,0,0,0,-1,1322,1205,0,0
105,-181,0,0,0,0,0,0,0,0,0,-1,1329,1205,0,0
112,-181,0,0,0,0,0,0,0,0,0,-1,1336,1205,0,0
119,-181,0,0,0,0,0,0,0,0,0,-1,1343,1205,0,0
126,-181,0,0,0,0,0,0,0,0,0,-1,1350,1205,0,0
133,-181,0,0,0,0,0,0,0,0,0,-1,1357,1205,0,0
140,-181,0,0,0,0,0,0,0,0,0,-1,1364,1205,0,0
147,-181,0,0,0,0,0,0,0,0,0,-1,1371,1205,0,0
154,-181,0,0,0,0,0,0,0,0,0,-1,1378,1205,0,0
161,-181,0,0,0,0,0,0,0,0,0,-1,1385,1205,0,0
168,-181,0,0,0,0,0,0,0,0,0,-1,1392,1205,0,0
175,-181,0,0,0,0,0,0,0,0,0,-1,1399,1205,0,0
182,-181,0,0,0,0,0,0,0,0,0,-1,1406,1205,0,0
189,-181,0,0,0,0,0,0,0,0,0,-1,1413,1205,0,0
196,-181,0,0,0,0,0,0,0,0,0,-1,1420,1205,0,0
203,-181,0,0,0,0,0,0,0,0,0,-1,1427,1205,0,0
210,-181,0,0,0,0,0,0,0,0,0,-1,1434,1205,0,0
217,-181,0,0,0,0,0,0,0,0,0,-1,1441,1205,0,0
224,-181,0,0,0,0,0,0,0,0,0,-1,1448,1205,0,0
231,-181,0,0,0,0,0,0,0,0,0,-1,1455,1205,0,0
238,-181,0,0,0,0,0,0,0,0,0,-1,1462,1205,0,0
245,-181,0,0,0,0,0,0,0,0,0,-1,1469,1205,0,0
252,-181,0,0,0,0,0,0,0,0,0,-1,1476,1205,0,0
259,-181,0,0,0,0,0,0,0,0,0,-1,1483,1205,0,0
266,-181,0,0,0,0,0,0,0,0,0,-1,1490,1205,0,0
273,-181,0,0,0,0,0,0,0,0,0,-1,1497,1205,0,0
280,-181,0,0,0,0,0,0,0,0,0,-1,1504,1205,0,0
287,-181,0,0,0,0,0,0,0,0,0,-1,1511,1205,0,0
294,-181,0,0,0,0,0,0,0,0,0,-1,1518,1205,0,0
301,-181,0,0,0,0,0,0,0,0,0,-1,1525,1205,0,0
308,-181,0,0,0,0,0,0,0,0,0,-1,1532,1205,0,0
315,-181,0,0,0,0,0,0,0,0,0,-1,1539,1205,0,0
322,-181,0,0,0,0,0,0,0,0,0,-1,1546,1205,0,0
329,-181,0,0,0,0,0,0,0,0,0,-1,1553,1205,0,0
336,-181,0,0,0,0,0,0,0,0,0,-1,1560,1205,0,0
343,-181,0,0,0,0,0,0,0,0,0,-1,1567,1205,0,0
350,-181,0,0,0,0,0,0,0,0,0,-1,1574,1205,0,0
357,-181,0,0,0,0,0,0,0,0,0,-1,1581,1205,0,0
364,-181,0,0,0,0,0,0,0,0,0,-1,1588,1205,0,0
371,-181,0,0,0,0,0,0,0,0,0,-1,1595,1205,0,0
378,-181,0,0,0,0,0,0,0,0,0,-1,1602,1205,0,0
385,-181,0,0,0,0,0,0,0,0,0,-1,1609,1205,0,0
392,-181,0,0,0,0,0,0,0,0,0,-1,1616,1205,0,0
399,-181,0,0,0,0,0,0,0,0,0,-1,1623,1205,0,0
406,-181,0,0,0,0,0,0,0,0,0,-1,1630,1205,0,0
413,-181,0,0,0,0,0,0,0,0,0,-1,1637,1205,0,0
420,-181,0,0,0,0,0,0,0,0,0,-1,1644,1205,0,0
427,-181,0,0,0,0,0,0,0,0,0,-1,1651,1205,0,0
434,-181,0,0,0,0,0,0,0,0,0,-1,1658,1205,0,0
441,-181,0,0,0,0,0,0,0,0,0,-1,1665,1205,0,0
448,-181,0,0,0,0,0,0,0,0,0,-1,1672,1205,0,0
455,-181,0,0,0,0,0,0,0,0,0,-1,1679,1205,0,0
462,-181,0,0,0,0,0,0,0,0,0,-1,1686,1205,0,0
469,-181,0,0,0,0,0,0,0,0,0,-1,1693,1205,0,0
476,-181,0,0,0,0,0,0,0,0,0,-1,1700,1205,0,0
483,-181,0,0,0,0,0,0,0,0,0,-1,1707,1205,0,0
490,-181,0,0,0,0,0,0,0,0,0,-1,1714,1205,0,0
497,-181,0,0,0,0,0,0,0,0,0,-1,1721,1205,0,0
504,-181,0,0,0,0,0,0,0,0,0,-1,1728,1205,0,0
511,-181,0,0,0,0,0,0,0,0,0,-1,1735,1205,0,0
518,-181,0,0,0,0,0,0,0,0,0,-1,1742,1205,0,0
525,-181,0,0,0,0,0,0,0,0,0,-1,1749,1205,0,0
532,-181,0,0,0,0,0,0,0,0,0,-1,1756,1205,0,0
539,-181,0,0,0,0,0,0,0,0,0,-1,1763,1205,0,0
546,-181,0,0,0,0,0,0,0,0,0,-1,1770,1205,0,0
553,-181,0,0,0,0,0,0,0,0,0,-1,1777,1205,0,0
560,-181,0,0,0,0,0,0,0,0,0,-1,1784,1205,0,0
567,-181,0,0,0,0,0,0,0,0,0,-1,1791,1205,0,0
574,-181,0,0,0,0,0,0,0,0,0,-1,1798,1205,0,0
581,-181,0,0,0,0,0,0,0,0,0,-1,1805,1205,0,0
588,-181,0,0,0,0,0,0,0,0,0,-1,1812,1205,0,0
595,-181,0,0,0,0,0,0,0,0,0,-1,1819,1205,0,0
602,-181,0,0,0,0,0,0,0,0,0,-1,1826,1205,0,0
609,-181,0,0,0,0,0,0,0,0,0,-1,1833,1205,0,0
616,-181,0,0,0,0,0,0,0,0,0,-1,1840,1205,0,0
623,-181,0,0,0,0,0,0,0,0,0,-1,1847,1205,0,0
630,-181,40.579,2.86987,0.00181141,0.00105845,-0.000404234,0.00198732,0.000882531,-0.410467,0.00114977,0.0370312,1854,1205,40.5789,-2.86988
637,-181,40.6022,2.85413,0.00143825,0.00106583,-0.000943888,0.00221412,0.000289958,-0.688009,0.00138955,0.0392841,1861,1205,40.6022,-2.85414
644,-181,40.6259,2.92566,0.00145446,0.0011559,-0.00160161,0.00291374,-0.000303374,-0.73893,0.00205111,0.0419358,1868,1205,40.6259,-2.92567
651,-181,40.5509,2.83167,0.00174265,0.00127838,-0.00219165,0.00371443,-0.000693396,-0.732636,0.00273685,0.0428657,1875,1205,40.551,-2.83172
658,-181,40.4857,2.74072,0.00221504,0.00120846,-0.00264794,0.0044071,-0.000983592,-0.691484,0.00331493,0.0372185,1882,1205,40.4858,-2.7407
665,-181,40.5333,2.68494,0.00243701,0.000858295,-0.00253034,0.00429826,-0.00100295,-0.634203,0.00325179,0.0314642,1889,1205,40.5333,-2.68492
672,-181,40.5779,2.64734,0.00217552,0.00026857,-0.0019696,0.00341029,-0.000966202,-0.559976,0.00265486,0.0248736,1896,1205,40.5779,-2.64738
679,-181,40.6367,2.63,0.00154377,-0.000162484,-0.00128436,0.00223253,-0.000851243,-0.492238,0.00183899,0.0318166,1903,1205,40.6367,-2.62998
686,-181,40.724,2.61145,0,0,0,0,0,0,0,-1,1910,1205,40.724,-2.61139
693,-181,36.1301,2.91016,0,0,0,0,0,0,0,-1,1917,1205,36.1302,-2.9102
700,-181,29.5845,6.58398,0,0,0,0,0,0,0,-1,1924,1205,29.5844,-6.58395
707,-181,35.1914,7.0564,0,0,0,0,0,0,0,-1,1931,1205,35.1915,-7.05644
714,-181,35.0623,6.88269,-0.00036462,-0.000948103,0.000891367,0.000281534,-0.00159426,0.627244,0.00116805,0.0427679,1938,1205,35.0623,-6.8827
721,-181,34.8931,6.52844,-0.000858216,-0.00103577,0.00151278,0.000568389,-0.00246237,0.756089,0.00186022,0.0380654,1945,1205,34.8931,-6.52843
728,-181,34.4794,6.35645,-0.00133931,-0.00115559,0.00225363,0.00100805,-0.00350295,0.805768,0.00273398,0.0194258,1952,1205,34.4794,-6.35641
735,-181,34.4683,6.04041,-0.00176367,-0.000887788,0.00232985,0.00104492,-0.00369638,0.878299,0.00287653,0.011624,1959,1205,34.4683,-6.04041
742,-181,34.4426,5.72083,-0.00203727,0.00114864,0.00212719,0.00221322,-0.00310184,1.10678,0.00308291,0.0157629,1966,1205,34.4426,-5.72087
749,-181,34.4358,5.37231,-0.00219749,0.00378756,0.00172973,0.0042515,-0.00266144,1.30875,0.00402623,0.0150317,1973,1205,34.4358,-5.37236
756,-181,34.4381,5.0304,-0.00275635,0.00775456,0.0011744,0.00788418,-0.00288597,1.46087,0.00643748,0.0111066,1980,1205,34.4381,-5.03044
763,-181,34.4744,4.70288,-0.00414578,0.0135056,0.000366764,0.0135133,-0.0041534,1.55003,0.0106663,0.0130362,1987,1205,34.4744,-4.70294
770,-181,34.585,4.35791,-0.00703166,0.021816,-0.000622316,0.0218295,-0.00704508,-1.54924,0.0173839,0.0320073,1994,1205,34.585,-4.35794
777,-181,34.7596,3.95923,0,0,0,0,0,0,0,-1,2001,1205,34.7596,-3.95923
784,-181,34.7717,2.39917,0,0,0,0,0,0,0,-1,2008,1205,34.7717,-2.39918
791,-181,33.2852,1.60657,0,0,0,0,0,0,0,-1,2015,1205,33.2851,-1.60656
798,-181,33.0168,1.88794,0,0,0,0,0,0,0,-1,2022,1205,33.0168,-1.88793
805,-181,0,0,0,0,0,0,0,0,0,-1,2029,1205,0,0
812,-181,0,0,0,0,0,0,0,0,0,-1,2036,1205,0,0
-700,-188,0,0,0,0,0,0,0,0,0,-1,524,1212,0,0
-693,-188,0,0,0,0,0,0,0,0,0,-1,531,1212,0,0
-686,-188,0,0,0,0,0,0,0,0,0,-1,538,1212,0,0
-679,-188,-22.1169,-2.19116,-0.0478313,0.0675271,-0.0105269,0.0684798,-0.048784,-1.48054,0.0680199,0.0474792,545,1212,-22.1169,2.19115
-672,-188,-22.9022,-2.24707,-0.0374613,0.0553906,-0.0049026,0.0556487,-0.0377195,-1.51819,0.0542364,0.0490708,552,1212,-22.9022,2.24703
-665,-188,-23.3035,-1.68225,0,0,0,0,0,0,0,-1,559,1212,-23.3035,1.68222
-658,-188,-22.6729,1.01135,0,0,0,0,0,0,0,-1,566,1212,-22.6729,-1.01133
-651,-188,-22.3195,0.837646,0,0,0,0,0,0,0,-1,573,1212,-22.3195,-0.837665
-644,-188,-22.4232,1.16895,-0.0102718,0.0203533,0.0020178,0.0204857,-0.0104042,1.50529,0.0181481,0.0401965,580,1212,-22.4232,-1.1689
-637,-188,-22.509,1.6731,-0.00668819,0.0146332,0.00199341,0.014818,-0.00687296,1.47837,0.0128002,0.0224178,587,1212,-22.509,-1.67308
-630,-188,-22.5883,2.04688,-0.00421334,0.00962064,0.00197116,0.00989603,-0.00448872,1.43199,0.00849838,0.0114533,594,1212,-22.5883,-2.04685
-623,-188,-22.5969,2.42139,-0.00203167,0.00586373,0.00183598,0.00626978,-0.00243772,1.35314,0.00518702,0.0117194,601,1212,-22.5969,-2.42133
-616,-188,-22.5836,2.79578,-0.000102685,0.00251407,0.00116562,0.00295798,-0.000546599,1.20692,0.00217718,0.0113347,608,1212,-22.5835,-2.79572
-609,-188,-22.5829,3.2063,0.000474652,0.000458929,0.000517378,0.000984229,-5.06475e-05,0.777802,0.00067367,0.0141715,615,1212,-22.5829,-3.20626
-602,-188,-22.5933,3.61096,0.000422275,-0.000297029,0.000167291,0.000459279,-0.000334033,0.21769,0.000459918,0.0167455,622,1212,-22.5933,-3.61097
-595,-188,-22.6346,3.96167,0.000306624,-0.000526062,0.000329312,0.000421118,-0.000640556,0.334604,0.000617307,0.0159462,629,1212,-22.6346,-3.96173
-588,-188,-22.751,4.3241,0.000546297,-0.000441287,0.0004521,0.000722001,-0.000616991,0.370675,0.00077386,0.0213249,636,1212,-22.751,-4.32415
-581,-188,-22.7722,4.6969,0.000846502,-0.000742748,0.000506259,0.00099407,-0.000890315,0.283628,0.0010885,0.0218323,643,1212,-22.7722,-4.69696
-574,-188,-23.12,5.02307,0,0,0,0,0,0,0,-1,650,1212,-23.12,-5.02302
-567,-188,-19.5786,4.10388,0,0,0,0,0,0,0,-1,657,1212,-19.5785,-4.10383
-560,-188,-23.9507,0.416626,0,0,0,0,0,0,0,-1,664,1212,-23.9508,-0.416602
-553,-188,-29.3143,0.489502,0,0,0,0,0,0,0,-1,671,1212,-29.3142,-0.489506
-546,-188,-29.4181,0.812988,-0.00135966,-0.00058592,0.0021066,0.00116904,-0.00311462,0.87621,0.00255679,0.0431157,678,1212,-29.4181,-0.812996
-539,-188,-29.5051,0.985596,-0.00189412,-0.000442172,0.00246449,0.00140104,-0.00373733,0.928634,0.00306716,0.0381639,685,1212,-29.5051,-0.985555
-532,-188,-29.3793,0.824585,-0.00293442,-0.000494739,0.00266833,0.00121936,-0.00464852,0.999792,0.00357546,0.0422295,692,1212,-29.3793,-0.824579
-525,-188,-29.469,0.940186,-0.00408187,-0.00111676,0.00253674,0.000338883,-0.00553751,1.04985,0.00380966,0.0411276,699,1212,-29.469,-0.940221
-518,-188,-29.5718,1.2417,-0.0045414,-0.00272777,0.00194536,-0.00148825,-0.00578092,1.0035,0.00346605,0.0432487,706,1212,-29.5717,-1.24173
-511,-188,-29.489,1.05908,-0.00318905,-0.00415351,0.00132724,-0.00225916,-0.00508341,0.611146,0.00294095,0.0426554,713,1212,-29.489,-1.05903
-504,-188,0,0,0,0,0,0,0,0,0,-1,720,1212,0,0
-497,-188,0,0,0,0,0,0,0,0,0,-1,727,1212,0,0
-490,-188,0,0,0,0,0,0,0,0,0,-1,734,1212,0,0
-483,-188,0,0,0,0,0,0,0,0,0,-1,741,1212,0,0
-476,-188,0,0,0,0,0,0,0,0,0,-1,748,1212,0,0
-469,-188,0,0,0,0,0,0,0,0,0,-1,755,1212,0,0
-462,-188,0,0,0,0,0,0,0,0,0,-1,762,1212,0,0
-455,-188,0,0,0,0,0,0,0,0,0,-1,769,1212,0,0
-448,-188,0,0,0,0,0,0,0,0,0,-1,776,1212,0,0
-441,-188,0,0,0,0,0,0,0,0,0,-1,783,1212,0,0
-434,-188,0,0,0,0,0,0,0,0,0,-1,790,1212,0,0
-427,-188,0,0,0,0,0,0,0,0,0,-1,797,1212,0,0
-420,-188,0,0,0,0,0,0,0,0,0,-1,804,1212,0,0
-413,-188,0,0,0,0,0,0,0,0,0,-1,811,1212,0,0
-406,-188,0,0,0,0,0,0,0,0,0,-1,818,1212,0,0
-399,-188,0,0,0,0,0,0,0,0,0,-1,825,1212,0,0
-392,-188,0,0,0,0,0,0,0,0,0,-1,832,1212,0,0
-385,-188,0,0,0,0,0,0,0,0,0,-1,839,1212,0,0
-378,-188,0,0,0,0,0,0,0,0,0,-1,846,1212,0,0
-371,-188,0,0,0,0,0,0,0,0,0,-1,853,1212,0,0
-364,-188,0,0,0,0,0,0,0,0,0,-1,860,1212,0,0
-357,-188,0,0,0,0,0,0,0,0,0,-1,867,1212,0,0
-350,-188,0,0,0,0,0,0,0,0,0,-1,874,1212,0,0
-343,-188,0,0,0,0,0,0,0,0,0,-1,881,1212,0,0
-336,-188,0,0,0,0,0,0,0,0,0,-1,888,1212,0,0
-329,-188,0,0,0,0,0,0,0,0,0,-1,895,1212,0,0
-322,-188,0,0,0,0,0,0,0,0,0,-1,902,1212,0,0
-315,-188,0,0,0,0,0,0,0,0,0,-1,909,1212,0,0
-308,-188,0,0,0,0,0,0,0,0,0,-1,916,1212,0,0
-301,-188,0,0,0,0,0,0,0,0,0,-1,923,1212,0,0
-294,-188,0,0,0,0,0,0,0,0,0,-1,930,1212,0,0
-287,-188,0,0,0,0,0,0,0,0,0,-1,937,1212,0,0
-280,-188,0,0,0,0,0,0,0,0,0,-1,944,1212,0,0
-273,-188,0,0,0,0,0,0,0,0,0,-1,951,1212,0,0
-266,-188,0,0,0,0,0,0,0,0,0,-1,958,1212,0,0
-259,-188,0,0,0,0,0,0,0,0,0,-1,965,1212,0,0
-252,-188,0,0,0,0,0,0,0,0,0,-1,972,1212,0,0
-245,-188,0,0,0,0,0,0,0,0,0,-1,979,1212,0,0
-238,-188,0,0,0,0,0,0,0,0,0,-1,986,1212,0,0
-231,-188,0,0,0,0,0,0,0,0,0,-1,993,1212,0,0
-224,-188,0,0,0,0,0,0,0,0,0,-1,1000,1212,0,0
-217,-188,0,0,0,0,0,0,0,0,0,-1,1007,1212,0,0
-210,-188,0,0,0,0,0,0,0,0,0,-1,1014,1212,0,0
-203,-188,0,0,0,0,0,0,0,0,0,-1,1021,1212,0,0
-196,-188,0,0,0,0,0,0,0,0,0,-1,1028,1212,0,0
-189,-188,0,0,0,0,0,0,0,0,0,-1,1035,1212,0,0
-182,-188,0,0,0,0,0,0,0,0,0,-1,1042,1212,0,0
-175,-188,0,0,0,0,0,0,0,0,0,-1,1049,1212,0,0
-168,-188,0,0,0,0,0,0,0,0,0,-1,1056,1212,0,0
-161,-188,0,0,0,0,0,0,0,0,0,-1,1063,1212,0,0
-154,-188,0,0,0,0,0,0,0,0,0,-1,1070,1212,0,0
-147,-188,0,0,0,0,0,0,0,0,0,-1,1077,1212,0,0
-140,-188,0,0,0,0,0,0,0,0,0,-1,1084,1212,0,0
-133,-188,0,0,0,0,0,0,0,0,0,-1,1091,1212,0,0
-126,-188,0,0,0,0,0,0,0,0,0,-1,1098,1212,0,0
-119,-188,0,0,0,0,0,0,0,0,0,-1,1105,1212,0,0
-112,-188,0,0,0,0,0,0,0,0,0,-1,1112,1212,0,0
-105,-188,0,0,0,0,0,0,0,0,0,-1,1119,1212,0,0
-98,-188,0,0,0,0,0,0,0,0,0,-1,1126,1212,0,0
-91,-188,0,0,0,0,0,0,0,0,0,-1,1133,1212,0,0
-84,-188,0,0,0,0,0,0,0,0,0,-1,1140,1212,0,0
-77,-188,0,0,0,0,0,0,0,0,0,-1,1147,1212,0,0
-70,-188,0,0,0,0,0,0,0,0,0,-1,1154,1212,0,0
-63,-188,0,0,0,0,0,0,0,0,0,-1,1161,1212,0,0
-56,-188,0,0,0,0,0,0,0,0,0,-1,1168,1212,0,0
-49,-188,0,0,0,0,0,0,0,0,0,-1,1175,1212,0,0
-42,-188,0,0,0,0,0,0,0,0,0,-1,1182,1212,0,0
-35,-188,0,0,0,0,0,0,0,0,0,-1,1189,1212,0,0
-28,-188,0,0,0,0,0,0,0,0,0,-1,1196,1212,0,0
-21,-188,0,0,0,0,0,0,0,0,0,-1,1203,1212,0,0
-14,-188,0,0,0,0,0,0,0,0,0,-1,1210,1212,0,0
-7,-188,0,0,0,0,0,0,0,0,0,-1,1217,1212,0,0
0,-188,0,0,0,0,0,0,0,0,0,-1,1224,1212,0,0
7,-188,0,0,0,0,0,0,0,0,0,-1,1231,1212,0,0
14,-188,0,0,0,0,0,0,0,0,0,-1,1238,1212,0,0
21,-188,0,0,0,0,0,0,0,0,0,-1,1245,1212,0,0
28,-188,0,0,0,0,0,0,0,0,0,-1,1252,1212,0,0
35,-188,0,0,0,0,0,0,0,0,0,-1,1259,1212,0,0
42,-188,0,0,0,0,0,0,0,0,0,-1,1266,1212,0,0
49,-188,0,0,0,0,0,0,0,0,0,-1,1273,1212,0,0
56,-188,0,0,0,0,0,0,0,0,0,-1,1280,1212,0,0
63,-188,0,0,0,0,0,0,0,0,0,-1,1287,1212,0,0
70,-188,0,0,0,0,0,0,0,0,0,-1,1294,1212,0,0
77,-188,0,0,0,0,0,0,0,0,0,-1,1301,1212,0,0
84,-188,0,0,0,0,0,0,0,0,0,-1,1308,1212,0,0
91,-188,0,0,0,0,0,0,0,0,0,-1,1315,1212,0,0
98,-188,0,0,0,0,0,0,0,0,0,-1,1322,1212,0,0
105,-188,0,0,0,0,0,0,0,0,0,-1,1329,1212,0,0
112,-188,0,0,0,0,0,0,0,0,0,-1,1336,1212,0,0
119,-188,0,0,0,0,0,0,0,0,0,-1,1343,1212,0,0
126,-188,0,0,0,0,0,0,0,0,0,-1,1350,1212,0,0
133,-188,0,0,0,0,0,0,0,0,0,-1,1357,1212,0,0
140,-188,0,0,0,0,0,0,0,0,0,-1,1364,1212,0,0
147,-188,0,0,0,0,0,0,0,0,0,-1,1371,1212,0,0
154,-188,0,0,0,0,0,0,0,0,0,-1,1378,1212,0,0
161,-188,0,0,0,0,0,0,0,0,0,-1,1385,1212,0,0
168,-188,0,0,0,0,0,0,0,0,0,-1,1392,1212,0,0
175,-188,0,0,0,0,0,0,0,0,0,-1,1399,1212,0,0
182,-188,0,0,0,0,0,0,0,0,0,-1,1406,1212,0,0
189,-188,0,0,0,0,0,0,0,0,0,-1,1413,1212,0,0
196,-188,0,0,0,0,0,0,0,0,0,-1,1420,1212,0,0
203,-188,0,0,0,0,0,0,0,0,0,-1,1427,1212,0,0
210,-188,0,0,0,0,0,0,0,0,0,-1,1434,1212,0,0
217,-188,0,0,0,0,0,0,0,0,0,-1,1441,1212,0,0
224,-188,0,0,0,0,0,0,0,0,0,-1,1448,1212,0,0
231,-188,0,0,0,0,0,0,0,0,0,-1,1455,1212,0,0
238,-188,0,0,0,0,0,0,0,0,0,-1,1462,1212,0,0
245,-188,0,0,0,0,0,0,0,0,0,-1,1469,1212,0,0
252,-188,0,0,0,0,0,0,0,0,0,-1,1476,1212,0,0
259,-188,0,0,0,0,0,0,0,0,0,-1,1483,1212,0,0
266,-188,0,0,0,0,0,0,0,0,0,-1,1490,1212,0,0
273,-188,0,0,0,0,0,0,0,0,0,-1,1497,1212,0,0
280,-188,0,0,0,0,0,0,0,0,0,-1,1504,1212,0,0
287,-188,0,0,0,0,0,0,0,0,0,-1,1511,1212,0,0
294,-188,0,0,0,0,0,0,0,0,0,-1,1518,1212,0,0
301,-188,0,0,0,0,0,0,0,0,0,-1,1525,1212,0,0
308,-188,0,0,0,0,0,0,0,0,0,-1,1532,1212,0,0
315,-188,0,0,0,0,0,0,0,0,0,-1,1539,1212,0,0
322,-188,0,0,0,0,0,0,0,0,0,-1,1546,1212,0,0
329,-188,0,0,0,0,0,0,0,0,0,-1,1553,1212,0,0
336,-188,0,0,0,0,0,0,0,0,0,-1,1560,1212,0,0
343,-188,0,0,0,0,0,0,0,0,0,-1,1567,1212,0,0
350,-188,0,0,0,0,0,0,0,0,0,-1,1574,1212,0,0
357,-188,0,0,0,0,0,0,0,0,0,-1,1581,1212,0,0
364,-188,0,0,0,0,0,0,0,0,0,-1,1588,1212,0,0
371,-188,0,0,0,0,0,0,0,0,0,-1,1595,1212,0,0
378,-188,0,0,0,0,0,0,0,0,0,-1,1602,1212,0,0
385,-188,0,0,0,0,0,0,0,0,0,-1,1609,1212,0,0
392,-188,0,0,0,0,0,0,0,0,0,-1,1616,1212,0,0
399,-188,0,0,0,0,0,0,0,0,0,-1,1623,1212,0,0
406,-188,0,0,0,0,0,0,0,0,0,-1,1630,1212,0,0
413,-188,0,0,0,0,0,0,0,0,0,-1,1637,1212,0,0
420,-188,0,0,0,0,0,0,0,0,0,-1,1644,1212,0,0
427,-188,0,0,0,0,0,0,0,0,0,-1,1651,1212,0,0
434,-188,0,0,0,0,0,0,0,0,0,-1,1658,1212,0,0
441,-188,0,0,0,0,0,0,0,0,0,-1,1665,1212,0,0
448,-188,0,0,0,0,0,0,0,0,0,-1,1672,1212,0,0
455,-188,0,0,0,0,0,0,0,0,0,-1,1679,1212,0,0
462,-188,0,0,0,0,0,0,0,0,0,-1,1686,1212,0,0
469,-188,0,0,0,0,0,0,0,0,0,-1,1693,1212,0,0
476,-188,0,0,0,0,0,0,0,0,0,-1,1700,1212,0,0
483,-188,0,0,0,0,0,0,0,0,0,-1,1707,1212,0,0
490,-188,0,0,0,0,0,0,0,0,0,-1,1714,1212,0,0
497,-188,0,0,0,0,0,0,0,0,0,-1,1721,1212,0,0
504,-188,0,0,0,0,0,0,0,0,0,-1,1728,1212,0,0
511,-188,0,0,0,0,0,0,0,0,0,-1,1735,1212,0,0
518,-188,0,0,0,0,0,0,0,0,0,-1,1742,1212,0,0
525,-188,0,0,0,0,0,0,0,0,0,-1,1749,1212,0,0
532,-188,0,0,0,0,0,0,0,0,0,-1,1756,1212,0,0
539,-188,0,0,0,0,0,0,0,0,0,-1,1763,1212,0,0
546,-188,0,0,0,0,0,0,0,0,0,-1,1770,1212,0,0
553,-188,0,0,0,0,0,0,0,0,0,-1,1777,1212,0,0
560,-188,0,0,0,0,0,0,0,0,0,-1,1784,1212,0,0
567,-188,0,0,0,0,0,0,0,0,0,-1,1791,1212,0,0
574,-188,0,0,0,0,0,0,0,0,0,-1,1798,1212,0,0
581,-188,0,0,0,0,0,0,0,0,0,-1,1805,1212,0,0
588,-188,0,0,0,0,0,0,0,0,0,-1,1812,1212,0,0
595,-188,0,0,0,0,0,0,0,0,0,-1,1819,1212,0,0
602,-188,0,0,0,0,0,0,0,0,0,-1,1826,1212,0,0
609,-188,0,0,0,0,0,0,0,0,0,-1,1833,1212,0,0
616,-188,0,0,0,0,0,0,0,0,0,-1,1840,1212,0,0
623,-188,0,0,0,0,0,0,0,0,0,-1,1847,1212,0,0
630,-188,40.5212,2.67188,0.00256729,0.00202951,0.000112659,0.00258994,0.00200686,0.198378,0.00156881,0.0389086,1854,1212,40.5212,-2.67182
637,-188,40.574,2.7395,0.00211076,0.00202611,-0.000565126,0.00263514,0.00150172,-0.748021,0.00152634,0.0412185,1861,1212,40.574,-2.7395
644,-188,40.5406,2.81189,0.00201516,0.00209896,-0.00145074,0.0035084,0.000605722,-0.799834,0.00216545,0.0371386,1868,1212,40.5407,-2.81188
651,-188,40.4988,2.70837,0.00222613,0.00207003,-0.00222,0.00436945,-7.32865e-05,-0.767827,0.0029377,0.0328072,1875,1212,40.4988,-2.70836
658,-188,40.5188,2.71057,0.00263578,0.00179484,-0.0027089,0.00495665,-0.000526031,-0.708404,0.003493,0.0329468,1882,1212,40.5189,-2.71053
665,-188,40.5455,2.73853,0.00278747,0.0012829,-0.0025584,0.0047019,-0.000631527,-0.642406,0.00336492,0.0313587,1889,1212,40.5455,-2.73854
672,-188,40.566,2.66541,0.00251585,0.000589326,-0.00199773,0.00377043,-0.000665248,-0.560753,0.0027622,0.0266298,1896,1212,40.5661,-2.66544
679,-188,40.597,2.6134,0.00192437,0.000122227,-0.00133315,0.00263241,-0.000585811,-0.488216,0.00197932,0.0493332,1903,1212,40.597,-2.61337
686,-188,40.6462,2.57764,0,0,0,0,0,0,0,-1,1910,1212,40.6463,-2.57764
693,-188,35.9054,2.18042,0,0,0,0,0,0,0,-1,1917,1212,35.9054,-2.18038
700,-188,34.6377,7.64929,0,0,0,0,0,0,0,-1,1924,1212,34.6376,-7.6493
707,-188,34.3882,7.3429,0.000384165,-0.000931886,0.000471379,0.000535581,-0.0010833,0.310809,0.000952328,0.0337773,1931,1212,34.3882,-7.3429
714,-188,34.4606,7.06042,-0.000187453,-0.00102631,0.00091653,0.000401061,-0.00161483,0.570809,0.00123219,0.0292337,1938,1212,34.4605,-7.06043
721,-188,34.264,6.75049,-0.000743647,-0.00117943,0.00160328,0.000656478,-0.00257956,0.71786,0.00197524,0.0278872,1945,1212,34.2641,-6.75055
728,-188,34.1307,6.37952,-0.00119289,-0.00135852,0.00235818,0.00108393,-0.00363534,0.767846,0.00285432,0.011062,1952,1212,34.1307,-6.37956
735,-188,34.1139,6.04712,-0.00144975,-0.000938741,0.00231882,0.00113861,-0.0035271,0.840271,0.00280894,0.0129905,1959,1212,34.1138,-6.04716
742,-188,34.0836,5.70251,-0.00140513,0.00135895,0.00202088,0.00242517,-0.00247135,1.08531,0.00282705,0.0141913,1966,1212,34.0836,-5.70247
749,-188,34.074,5.36292,-0.00104852,0.00401339,0.0015765,0.00446423,-0.00149936,1.29226,0.00358211,0.0140505,1973,1212,34.074,-5.36294
756,-188,34.0964,5.01038,-0.000943979,0.00783286,0.00100335,0.00794609,-0.00105722,1.45841,0.00568268,0.0131286,1980,1212,34.0964,-5.01038
763,-188,34.1349,4.67603,-0.00147495,0.0133884,0.000163284,0.0133902,-0.00147675,1.55981,0.00945753,0.0153401,1987,1212,34.1348,-4.67606
770,-188,34.1921,4.38489,-0.0033528,0.0215259,-0.000851778,0.0215551,-0.00338192,-1.53661,0.0156199,0.0268863,1994,1212,34.1921,-4.38491
777,-188,34.3383,4.13599,0,0,0,0,0,0,0,-1,2001,1212,34.3382,-4.13593
784,-188,34.7103,1.6665,0,0,0,0,0,0,0,-1,2008,1212,34.7103,-1.66656
791,-188,34.3315,-0.255127,0,0,0,0,0,0,0,-1,2015,1212,34.3317,0.255094
798,-188,34.1289,3.05505,0,0,0,0,0,0,0,-1,2022,1212,34.1289,-3.05501
805,-188,0,0,0,0,0,0,0,0,0,-1,2029,1212,0,0
812,-188,0,0,0,0,0,0,0,0,0,-1,2036,1212,0,0
-700,-195,0,0,0,0,0,0,0,0,0,-1,524,1219,0,0
-693,-195,0,0,0,0,0,0,0,0,0,-1,531,1219,0,0
-686,-195,0,0,0,0,0,0,0,0,0,-1,538,1219,0,0
-679,-195,-21.4139,-2.29211,0,0,0,0,0,0,0,-1,545,1219,-21.414,2.29213
-672,-195,-22.7083,-3.15857,-0.0228847,0.0463291,0.00108581,0.0463461,-0.0229017,1.55511,0.0407369,0.0463336,552,1219,-22.7083,3.15858
-665,-195,-24.269,-2.74121,-0.0157084,0.037597,0.00328868,0.0377992,-0.0159105,1.50941,0.0318561,0.0477296,559,1219,-24.269,2.74121
-658,-195,-21.6457,0.577881,0,0,0,0,0,0,0,-1,566,1219,-21.6457,-0.577926
-651,-195,-21.784,0.906738,0,0,0,0,0,0,0,-1,573,1219,-21.784,-0.906717
-644,-195,-21.9252,1.2804,-0.00287227,0.0175443,0.00425089,0.018394,-0.00372198,1.37351,0.0136732,0.0407614,580,1219,-21.9252,-1.28038
-637,-195,-22.059,1.66846,-0.000994531,0.0127992,0.00365237,0.0137066,-0.00190193,1.32729,0.00983324,0.0228476,587,1219,-22.059,-1.66841
-630,-195,-22.1768,2.05334,-3.39155e-06,0.00855999,0.00315777,0.00959848,-0.00104189,1.25307,0.00677305,0.00872235,594,1219,-22.1767,-2.05337
-623,-195,-22.1924,2.42676,0.00086036,0.00538815,0.00265113,0.00661047,-0.000361964,1.13879,0.00453246,0.00804417,601,1219,-22.1924,-2.42681
-616,-195,-22.1865,2.81128,0.00177358,0.00249601,0.00166632,0.00383982,0.000429768,0.892134,0.00242933,0.00962411,608,1219,-22.1866,-2.8113
-609,-195,-22.1697,3.23535,0.00157569,0.00066982,0.000817992,0.00205777,0.000187736,0.532553,0.00131375,0.0180745,615,1219,-22.1697,-3.23535
-602,-195,-22.2065,3.61841,0.00103934,-5.54928e-05,0.000386324,0.00116193,-0.000178085,0.307278,0.000840297,0.0222673,622,1219,-22.2065,-3.61837
-595,-195,-22.2442,3.98474,0.000877841,-0.000238727,0.000554189,0.0011062,-0.000467085,0.390859,0.000932985,0.0163424,629,1219,-22.2442,-3.98471
-588,-195,-22.2535,4.37927,0.00116632,-8.21694e-05,0.000753234,0.00152036,-0.000436212,0.439385,0.00118602,0.0175114,636,1219,-22.2535,-4.37924
-581,-195,-22.103,4.8313,0,0,0,0,0,0,0,-1,643,1219,-22.103,-4.83125
-574,-195,-22.6731,4.11804,0,0,0,0,0,0,0,-1,650,1219,-22.6731,-4.11802
-567,-195,-20.6388,3.78369,0,0,0,0,0,0,0,-1,657,1219,-20.6388,-3.78369
-560,-195,-20.878,2.10388,0,0,0,0,0,0,0,-1,664,1219,-20.878,-2.10385
-553,-195,-29.4428,0.64502,0,0,0,0,0,0,0,-1,671,1219,-29.4428,-0.64502
-546,-195,-29.4098,0.788452,-0.00108115,0.000181757,0.00286112,0.00248027,-0.00337967,0.894008,0.0033965,0.0475163,678,1219,-29.4098,-0.788453
-539,-195,-29.4617,0.953491,-0.00175767,0.000391484,0.0032687,0.00275771,-0.00412389,0.944207,0.00399911,0.0377796,685,1219,-29.4617,-0.953483
-532,-195,-29.436,0.761353,-0.00292942,0.000475472,0.00354321,0.00270402,-0.00515796,1.00935,0.00461223,0.0351295,692,1219,-29.436,-0.76136
-525,-195,-29.5325,0.908813,-0.00436327,0.000125568,0.00349164,0.00203192,-0.00626963,1.07105,0.00499673,0.039403,699,1219,-29.5326,-0.90883
-518,-195,-29.6662,1.14392,-0.00533391,-0.00133093,0.00293909,0.000223449,-0.00688828,1.08433,0.00466846,0.0433193,706,1219,-29.6662,-1.14391
-511,-195,-29.5704,1.03406,-0.00420748,-0.00320761,0.00224123,-0.00141124,-0.00600385,0.895133,0.00362491,0.0443191,713,1219,-29.5704,-1.034
-504,-195,0,0,0,0,0,0,0,0,0,-1,720,1219,0,0
-497,-195,0,0,0,0,0,0,0,0,0,-1,727,1219,0,0
-490,-195,0,0,0,0,0,0,0,0,0,-1,734,1219,0,0
-483,-195,0,0,0,0,0,0,0,0,0,-1,741,1219,0,0
-476,-195,0,0,0,0,0,0,0,0,0,-1,748,1219,0,0
-469,-195,0,0,0,0,0,0,0,0,0,-1,755,1219,0,0
-462,-195,0,0,0,0,0,0,0,0,0,-1,762,1219,0,0
-455,-195,0,0,0,0,0,0,0,0,0,-1,769,1219,0,0
-448,-195,0,0,0,0,0,0,0,0,0,-1,776,1219,0,0
-441,-195,0,0,0,0,0,0,0,0,0,-1,783,1219,0,0
-434,-195,0,0,0,0,0,0,0,0,0,-1,790,1219,0,0
-427,-195,0,0,0,0,0,0,0,0,0,-1,797,1219,0,0
-420,-195,0,0,0,0,0,0,0,0,0,-1,804,1219,0,0
-413,-195,0,0,0,0,0,0,0,0,0,-1,811,1219,0,0
-406,-195,0,0,0,0,0,0,0,0,0,-1,818,1219,0,0
-399,-195,0,0,0,0,0,0,0,0,0,-1,825,1219,0,0
-392,-195,0,0,0,0,0,0,0,0,0,-1,832,1219,0,0
-385,-195,0,0,0,0,0,0,0,0,0,-1,839,1219,0,0
-378,-195,0,0,0,0,0,0,0,0,0,-1,846,1219,0,0
-371,-195,0,0,0,0,0,0,0,0,0,-1,853,1219,0,0
-364,-195,0,0,0,0,0,0,0,0,0,-1,860,1219,0,0
-357,-195,0,0,0,0,0,0,0,0,0,-1,867,1219,0,0
-350,-195,0,0,0,0,0,0,0,0,0,-1,874,1219,0,0
-343,-195,0,0,0,0,0,0,0,0,0,-1,881,1219,0,0
-336,-195,0,0,0,0,0,0,0,0,0,-1,888,1219,0,0
-329,-195,0,0,0,0,0,0,0,0,0,-1,895,1219,0,0
-322,-195,0,0,0,0,0,0,0,0,0,-1,902,1219,0,0
-315,-195,0,0,0,0,0,0,0,0,0,-1,909,1219,0,0
-308,-195,0,0,0,0,0,0,0,0,0,-1,916,1219,0,0
-301,-195,0,0,0,0,0,0,0,0,0,-1,923,1219,0,0
-294,-195,0,0,0,0,0,0,0,0,0,-1,930,1219,0,0
-287,-195,0,0,0,0,0,0,0,0,0,-1,937,1219,0,0
-280,-195,0,0,0,0,0,0,0,0,0,-1,944,1219,0,0
-273,-195,0,0,0,0,0,0,0,0,0,-1,951,1219,0,0
-266,-195,0,0,0,0,0,0,0,0,0,-1,958,1219,0,0
-259,-195,0,0,0,0,0,0,0,0,0,-1,965,1219,0,0
-252,-195,0,0,0,0,0,0,0,0,0,-1,972,1219,0,0
-245,-195,0,0,0,0,0,0,0,0,0,-1,979,1219,0,0
-238,-195,0,0,0,0,0,0,0,0,0,-1,986,1219,0,0
-231,-195,0,0,0,0,0,0,0,0,0,-1,993,1219,0,0
-224,-195,0,0,0,0,0,0,0,0,0,-1,1000,1219,0,0
-217,-195,0,0,0,0,0,0,0,0,0,-1,1007,1219,0,0
-210,-195,0,0,0,0,0,0,0,0,0,-1,1014,1219,0,0
-203,-195,0,0,0,0,0,0,0,0,0,-1,1021,1219,0,0
-196,-195,0,0,0,0,0,0,0,0,0,-1,1028,1219,0,0
-189,-195,0,0,0,0,0,0,0,0,0,-1,1035,1219,0,0
-182,-195,0,0,0,0,0,0,0,0,0,-1,1042,1219,0,0
-175,-195,0,0,0,0,0,0,0,0,0,-1,1049,1219,0,0
-168,-195,0,0,0,0,0,0,0,0,0,-1,1056,1219,0,0
-161,-195,0,0,0,0,0,0,0,0,0,-1,1063,1219,0,0
-154,-195,0,0,0,0,0,0,0,0,0,-1,1070,1219,0,0
-147,-195,0,0,0,0,0,0,0,0,0,-1,1077,1219,0,0
-140,-195,0,0,0,0,0,0,0,0,0,-1,1084,1219,0,0
-133,-195,0,0,0,0,0,0,0,0,0,-1,1091,1219,0,0
-126,-195,0,0,0,0,0,0,0,0,0,-1,1098,1219,0,0
-119,-195,0,0,0,0,0,0,0,0,0,-1,1105,1219,0,0
-112,-195,0,0,0,0,0,0,0,0,0,-1,1112,1219,0,0
-105,-195,0,0,0,0,0,0,0,0,0,-1,1119,1219,0,0
-98,-195,0,0,0,0,0,0,0,0,0,-1,1126,1219,0,0
-91,-195,0,0,0,0,0,0,0,0,0,-1,1133,1219,0,0
-84,-195,0,0,0,0,0,0,0,0,0,-1,1140,1219,0,0
-77,-195,0,0,0,0,0,0,0,0,0,-1,1147,1219,0,0
-70,-195,0,0,0,0,0,0,0,0,0,-1,1154,1219,0,0
-63,-195,0,0,0,0,0,0,0,0,0,-1,1161,1219,0,0
-56,-195,0,0,0,0,0,0,0,0,0,-1,1168,1219,0,0
-49,-195,0,0,0,0,0,0,0,0,0,-1,1175,1219,0,0
-42,-195,0,0,0,0,0,0,0,0,0,-1,1182,1219,0,0
-35,-195,0,0,0,0,0,0,0,0,0,-1,1189,1219,0,0
-28,-195,0,0,0,0,0,0,0,0,0,-1,1196,1219,0,0
-21,-195,0,0,0,0,0,0,0,0,0,-1,1203,1219,0,0
-14,-195,0,0,0,0,0,0,0,0,0,-1,1210,1219,0,0
-7,-195,0,0,0,0,0,0,0,0,0,-1,1217,1219,0,0
0,-195,0,0,0,0,0,0,0,0,0,-1,1224,1219,0,0
7,-195,0,0,0,0,0,0,0,0,0,-1,1231,1219,0,0
14,-195,0,0,0,0,0,0,0,0,0,-1,1238,1219,0,0
21,-195,0,0,0,0,0,0,0,0,0,-1,1245,1219,0,0
28,-195,0,0,0,0,0,0,0,0,0,-1,1252,1219,0,0
35,-195,0,0,0,0,0,0,0,0,0,-1,1259,1219,0,0
42,-195,0,0,0,0,0,0,0,0,0,-1,1266,1219,0,0
49,-195,0,0,0,0,0,0,0,0,0,-1,1273,1219,0,0
56,-195,0,0,0,0,0,0,0,0,0,-1,1280,1219,0,0
63,-195,0,0,0,0,0,0,0,0,0,-1,1287,1219,0,0
70,-195,0,0,0,0,0,0,0,0,0,-1,1294,1219,0,0
77,-195,0,0,0,0,0,0,0,0,0,-1,1301,1219,0,0
84,-195,0,0,0,0,0,0,0,0,0,-1,1308,1219,0,0
91,-195,0,0,0,0,0,0,0,0,0,-1,1315,1219,0,0
98,-195,0,0,0,0,0,0,0,0,0,-1,1322,1219,0,0
105,-195,0,0,0,0,0,0,0,0,0,-1,1329,1219,0,0
112,-195,0,0,0,0,0,0,0,0,0,-1,1336,1219,0,0
119,-195,0,0,0,0,0,0,0,0,0,-1,1343,1219,0,0
126,-195,0,0,0,0,0,0,0,0,0,-1,1350,1219,0,0
133,-195,0,0,0,0,0,0,0,0,0,-1,1357,1219,0,0
140,-195,0,0,0,0,0,0,0,0,0,-1,1364,1219,0,0
147,-195,0,0,0,0,0,0,0,0,0,-1,1371,1219,0,0
154,-195,0,0,0,0,0,0,0,0,0,-1,1378,1219,0,0
161,-195,0,0,0,0,0,0,0,0,0,-1,1385,1219,0,0
168,-195,0,0,0,0,0,0,0,0,0,-1,1392,1219,0,0
175,-195,0,0,0,0,0,0,0,0,0,-1,1399,1219,0,0
182,-195,0,0,0,0,0,0,0,0,0,-1,1406,1219,0,0
189,-195,0,0,0,0,0,0,0,0,0,-1,1413,1219,0,0
196,-195,0,0,0,0,0,0,0,0,0,-1,1420,1219,0,0
203,-195,0,0,0,0,0,0,0,0,0,-1,1427,1219,0,0
210,-195,0,0,0,0,0,0,0,0,0,-1,1434,1219,0,0
217,-195,0,0,0,0,0,0,0,0,0,-1,1441,1219,0,0
224,-195,0,0,0,0,0,0,0,0,0,-1,1448,1219,0,0
231,-195,0,0,0,0,0,0,0,0,0,-1,1455,1219,0,0
238,-195,0,0,0,0,0,0,0,0,0,-1,1462,1219,0,0
245,-195,0,0,0,0,0,0,0,0,0,-1,1469,1219,0,0
252,-195,0,0,0,0,0,0,0,0,0,-1,1476,1219,0,0
259,-195,0,0,0,0,0,0,0,0,0,-1,1483,1219,0,0
266,-195,0,0,0,0,0,0,0,0,0,-1,1490,1219,0,0
273,-195,0,0,0,0,0,0,0,0,0,-1,1497,1219,0,0
280,-195,0,0,0,0,0,0,0,0,0,-1,1504,1219,0,0
287,-195,0,0,0,0,0,0,0,0,0,-1,1511,1219,0,0
294,-195,0,0,0,0,0,0,0,0,0,-1,1518,1219,0,0
301,-195,0,0,0,0,0,0,0,0,0,-1,1525,1219,0,0
308,-195,0,0,0,0,0,0,0,0,0,-1,1532,1219,0,0
315,-195,0,0,0,0,0,0,0,0,0,-1,1539,1219,0,0
322,-195,0,0,0,0,0,0,0,0,0,-1,1546,1219,0,0
329,-195,0,0,0,0,0,0,0,0,0,-1,1553,1219,0,0
336,-195,0,0,0,0,0,0,0,0,0,-1,1560,1219,0,0
343,-195,0,0,0,0,0,0,0,0,0,-1,1567,1219,0,0
350,-195,0,0,0,0,0,0,0,0,0,-1,1574,1219,0,0
357,-195,0,0,0,0,0,0,0,0,0,-1,1581,1219,0,0
364,-195,0,0,0,0,0,0,0,0,0,-1,1588,1219,0,0
371,-195,0,0,0,0,0,0,0,0,0,-1,1595,1219,0,0
378,-195,0,0,0,0,0,0,0,0,0,-1,1602,1219,0,0
385,-195,0,0,0,0,0,0,0,0,0,-1,1609,1219,0,0
392,-195,0,0,0,0,0,0,0,0,0,-1,1616,1219,0,0
399,-195,0,0,0,0,0,0,0,0,0,-1,1623,1219,0,0
406,-195,0,0,0,0,0,0,0,0,0,-1,1630,1219,0,0
413,-195,0,0,0,0,0,0,0,0,0,-1,1637,1219,0,0
420,-195,0,0,0,0,0,0,0,0,0,-1,1644,1219,0,0
427,-195,0,0,0,0,0,0,0,0,0,-1,1651,1219,0,0
434,-195,0,0,0,0,0,0,0,0,0,-1,1658,1219,0,0
441,-195,0,0,0,0,0,0,0,0,0,-1,1665,1219,0,0
448,-195,0,0,0,0,0,0,0,0,0,-1,1672,1219,0,0
455,-195,0,0,0,0,0,0,0,0,0,-1,1679,1219,0,0
462,-195,0,0,0,0,0,0,0,0,0,-1,1686,1219,0,0
469,-195,0,0,0,0,0,0,0,0,0,-1,1693,1219,0,0
476,-195,0,0,0,0,0,0,0,0,0,-1,1700,1219,0,0
483,-195,0,0,0,0,0,0,0,0,0,-1,1707,1219,0,0
490,-195,0,0,0,0,0,0,0,0,0,-1,1714,1219,0,0
497,-195,0,0,0,0,0,0,0,0,0,-1,1721,1219,0,0
504,-195,0,0,0,0,0,0,0,0,0,-1,1728,1219,0,0
511,-195,0,0,0,0,0,0,0,0,0,-1,1735,1219,0,0
518,-195,0,0,0,0,0,0,0,0,0,-1,1742,1219,0,0
525,-195,0,0,0,0,0,0,0,0,0,-1,1749,1219,0,0
532,-195,0,0,0,0,0,0,0,0,0,-1,1756,1219,0,0
539,-195,0,0,0,0,0,0,0,0,0,-1,1763,1219,0,0
546,-195,0,0,0,0,0,0,0,0,0,-1,1770,1219,0,0
553,-195,0,0,0,0,0,0,0,0,0,-1,1777,1219,0,0
560,-195,0,0,0,0,0,0,0,0,0,-1,1784,1219,0,0
567,-195,0,0,0,0,0,0,0,0,0,-1,1791,1219,0,0
574,-195,0,0,0,0,0,0,0,0,0,-1,1798,1219,0,0
581,-195,0,0,0,0,0,0,0,0,0,-1,1805,1219,0,0
588,-195,0,0,0,0,0,0,0,0,0,-1,1812,1219,0,0
595,-195,0,0,0,0,0,0,0,0,0,-1,1819,1219,0,0
602,-195,0,0,0,0,0,0,0,0,0,-1,1826,1219,0,0
609,-195,0,0,0,0,0,0,0,0,0,-1,1833,1219,0,0
616,-195,0,0,0,0,0,0,0,0,0,-1,1840,1219,0,0
623,-195,0,0,0,0,0,0,0,0,0,-1,1847,1219,0,0
630,-195,40.5239,2.6687,0.00288169,0.00270516,0.000176344,0.00299062,0.00259622,0.553366,0.00187615,0.0398534,1854,1219,40.5239,-2.66866
637,-195,40.614,2.7406,0.00241242,0.00267554,-0.000585124,0.00314371,0.00194424,-0.895979,0.00183192,0.0372356,1861,1219,40.614,-2.74057
644,-195,40.5924,2.8269,0.0023135,0.0026777,-0.00157541,0.0040815,0.000909692,-0.842937,0.00247416,0.0336356,1868,1219,40.5924,-2.82692
651,-195,40.535,2.69348,0.0025612,0.00248879,-0.00241045,0.00493572,0.00011427,-0.777888,0.00325306,0.026943,1875,1219,40.5351,-2.69346
658,-195,40.5562,2.68787,0.00296925,0.00205,-0.0028559,0.00540227,-0.000383026,-0.705613,0.00373574,0.0242601,1882,1219,40.5562,-2.68789
665,-195,40.5758,2.67505,0.00310276,0.00144198,-0.00267311,0.00507149,-0.000526743,-0.6348,0.00356955,0.0241842,1889,1219,40.5758,-2.67505
672,-195,40.5856,2.56311,0.00287567,0.000717379,-0.00215792,0.00420923,-0.000616184,-0.55354,0.00303249,0.0387477,1896,1219,40.5856,-2.56312
679,-195,40.5355,2.50317,0,0,0,0,0,0,0,-1,1903,1219,40.5356,-2.50321
686,-195,40.2515,2.20874,0,0,0,0,0,0,0,-1,1910,1219,40.2515,-2.20875
693,-195,24.4368,5.68298,0,0,0,0,0,0,0,-1,1917,1219,24.4368,-5.68293
700,-195,33.8112,7.97644,0,0,0,0,0,0,0,-1,1924,1219,33.8112,-7.97645
707,-195,33.835,7.49854,0.000876535,-0.00106892,0.000306686,0.000923737,-0.00111612,0.15271,0.00117946,0.0318173,1931,1219,33.8349,-7.49848
714,-195,33.8174,7.03113,0.000242418,-0.00118562,0.000857575,0.000644311,-0.00158751,0.438245,0.00132634,0.0356194,1938,1219,33.8174,-7.03113
721,-195,33.8051,6.75818,-0.000346665,-0.00130416,0.00161357,0.000857682,-0.00250851,0.641184,0.00201987,0.0175241,1945,1219,33.805,-6.75822
728,-195,33.7887,6.41492,-0.000715427,-0.00140194,0.00234576,0.00131206,-0.00342943,0.712748,0.00282702,0.0109698,1952,1219,33.7887,-6.41488
735,-195,33.769,6.03528,-0.000768015,-0.000787535,0.00219782,0.00142006,-0.00297561,0.783178,0.00259027,0.0123357,1959,1219,33.7691,-6.03522
742,-195,33.7529,5.70081,-0.000469473,0.00153329,0.00186946,0.00265267,-0.00158886,1.03128,0.00247439,0.0139222,1966,1219,33.7529,-5.70085
749,-195,33.7372,5.37109,0.000245289,0.00400687,0.00143494,0.00449175,-0.0002396,1.24493,0.00307748,0.0145042,1973,1219,33.7372,-5.37105
756,-195,33.7468,5.02429,0.000879402,0.00750993,0.000858054,0.00761917,0.000770161,1.44417,0.00484318,0.0141284,1980,1219,33.7469,-5.02427
763,-195,33.7627,4.68933,0.00115889,0.0126684,-2.09119e-05,0.0126685,0.00115885,-1.56898,0.00808708,0.0169102,1987,1219,33.7627,-4.68931
770,-195,33.8063,4.40527,0.000374997,0.0203416,-0.00109179,0.0204011,0.000315474,-1.51633,0.0134968,0.0316711,1994,1219,33.8063,-4.40528
777,-195,33.8955,4.18225,0,0,0,0,0,0,0,-1,2001,1219,33.8955,-4.18228
784,-195,35.6512,-2.25378,0,0,0,0,0,0,0,-1,2008,1219,35.6512,2.25374
791,-195,36.4685,1.2085,0,0,0,0,0,0,0,-1,2015,1219,36.4686,-1.20845
798,-195,36.0073,3.49817,0,0,0,0,0,0,0,-1,2022,1219,36.0072,-3.49818
805,-195,0,0,0,0,0,0,0,0,0,-1,2029,1219,0,0
812,-195,0,0,0,0,0,0,0,0,0,-1,2036,1219,0,0
-700,-202,0,0,0,0,0,0,0,0,0,-1,524,1226,0,0
-693,-202,0,0,0,0,0,0,0,0,0,-1,531,1226,0,0
-686,-202,0,0,0,0,0,0,0,0,0,-1,538,1226,0,0
-679,-202,-20.8436,-4.65112,0,0,0,0,0,0,0,-1,545,1226,-20.8435,4.65111
-672,-202,-22.2951,-4.28955,-0.00200461,0.0324757,0.00640055,0.0336255,-0.0031544,1.39305,0.023539,0.0483166,552,1226,-22.2951,4.28961
-665,-202,-23.7814,-4.05823,0.00256955,0.0265285,0.00741928,0.0286399,0.000458127,1.29354,0.0189424,0.0467603,559,1226,-23.7815,4.05826
-658,-202,-25.2443,-3.74023,0.00553623,0.0212374,0.00748022,0.0242305,0.00254313,1.19017,0.0153762,0.0455374,566,1226,-25.2442,3.74028
-651,-202,-21.2485,0.975708,0,0,0,0,0,0,0,-1,573,1226,-21.2484,-0.975768
-644,-202,-21.4154,1.27026,0.00773052,0.0126563,0.00609377,0.0167661,0.00362076,0.977445,0.0101873,0.0462611,580,1226,-21.4154,-1.27025
-637,-202,-21.6016,1.62158,0.00730957,0.0093757,0.00501853,0.0134664,0.00321888,0.886905,0.00812015,0.0358089,587,1226,-21.6015,-1.62159
-630,-202,-21.7436,2.0365,0.00627881,0.00634172,0.00412305,0.0104334,0.00218709,0.789213,0.00635334,0.0151512,594,1226,-21.7436,-2.03649
-623,-202,-21.7839,2.42505,0.00530328,0.00411301,0.00330739,0.00806866,0.00134763,0.69638,0.00499091,0.00843399,601,1226,-21.7839,-2.42505
-616,-202,-21.7844,2.80542,0.00470424,0.00202197,0.0020855,0.00584261,0.000883602,0.499652,0.0036365,0.00834242,608,1226,-21.7844,-2.80539
-609,-202,-21.7633,3.18433,0.00325726,0.000740666,0.00108514,0.00366054,0.000337386,0.355821,0.00233603,0.021107,615,1226,-21.7633,-3.18429
-602,-202,-21.8057,3.58643,0.00184482,0.0001561,0.000570964,0.00201975,-1.88253e-05,0.29729,0.00135282,0.0224526,622,1226,-21.8057,-3.58644
-595,-202,-21.8802,4.00354,0.0014633,-6.26954e-05,0.000728217,0.00175503,-0.000354433,0.38104,0.00130432,0.0158845,629,1226,-21.8803,-4.00349
-588,-202,-21.808,4.38574,0.00183056,5.4704e-05,0.000991315,0.00227347,-0.000388203,0.420179,0.00166024,0.0115302,636,1226,-21.808,-4.38578
-581,-202,-21.7582,4.66589,0.00217023,-0.000144892,0.00125643,0.00272105,-0.000695715,0.413167,0.002085,0.0383385,643,1226,-21.7582,-4.66589
-574,-202,-21.9023,4.84937,0,0,0,0,0,0,0,-1,650,1226,-21.9024,-4.84933
-567,-202,-22.1768,4.56995,0,0,0,0,0,0,0,-1,657,1226,-22.1768,-4.56991
-560,-202,-10.929,2.73096,0,0,0,0,0,0,0,-1,664,1226,-10.929,-2.73092
-553,-202,-27.9847,0.0828857,0,0,0,0,0,0,0,-1,671,1226,-27.9847,-0.0828551
-546,-202,-29.2638,0.497925,0,0,0,0,0,0,0,-1,678,1226,-29.2638,-0.497921
-539,-202,-29.3849,0.919189,-0.00130558,0.00104553,0.00394417,0.0039856,-0.00424565,0.930231,0.00475311,0.0411744,685,1226,-29.3849,-0.919218
-532,-202,-29.4299,0.860229,-0.00257091,0.00131798,0.00429595,0.00408904,-0.00534197,0.997915,0.00546099,0.0301029,692,1226,-29.4299,-0.860199
-525,-202,-29.5139,0.978027,-0.00414763,0.00133771,0.00437463,0.00375834,-0.00656825,1.0654,0.00603518,0.0357881,699,1226,-29.5139,-0.97804
-518,-202,-29.6695,1.18384,-0.00555244,0.000367089,0.0039947,0.00237903,-0.00756438,1.10423,0.00599539,0.0418848,706,1226,-29.6695,-1.18381
-511,-202,-29.6366,1.15271,-0.00499997,-0.00162715,0.00330875,0.00040017,-0.00702729,1.02108,0.00482378,0.043369,713,1226,-29.6366,-1.15267
-504,-202,0,0,0,0,0,0,0,0,0,-1,720,1226,0,0
-497,-202,0,0,0,0,0,0,0,0,0,-1,727,1226,0,0
-490,-202,0,0,0,0,0,0,0,0,0,-1,734,1226,0,0
-483,-202,0,0,0,0,0,0,0,0,0,-1,741,1226,0,0
-476,-202,0,0,0,0,0,0,0,0,0,-1,748,1226,0,0
-469,-202,0,0,0,0,0,0,0,0,0,-1,755,1226,0,0
-462,-202,0,0,0,0,0,0,0,0,0,-1,762,1226,0,0
-455,-202,0,0,0,0,0,0,0,0,0,-1,769,1226,0,0
-448,-202,0,0,0,0,0,0,0,0,0,-1,776,1226,0,0
-441,-202,0,0,0,0,0,0,0,0,0,-1,783,1226,0,0
-434,-202,0,0,0,0,0,0,0,0,0,-1,790,1226,0,0
-427,-202,0,0,0,0,0,0,0,0,0,-1,797,1226,0,0
-420,-202,0,0,0,0,0,0,0,0,0,-1,804,1226,0,0
-413,-202,0,0,0,0,0,0,0,0,0,-1,811,1226,0,0
-406,-202,0,0,0,0,0,0,0,0,0,-1,818,1226,0,0
-399,-202,0,0,0,0,0,0,0,0,0,-1,825,1226,0,0
-392,-202,0,0,0,0,0,0,0,0,0,-1,832,1226,0,0
-385,-202,0,0,0,0,0,0,0,0,0,-1,839,1226,0,0
-378,-202,0,0,0,0,0,0,0,0,0,-1,846,1226,0,0
-371,-202,0,0,0,0,0,0,0,0,0,-1,853,1226,0,0
-364,-202,0,0,0,0,0,0,0,0,0,-1,860,1226,0,0
-357,-202,0,0,0,0,0,0,0,0,0,-1,867,1226,0,0
-350,-202,0,0,0,0,0,0,0,0,0,-1,874,1226,0,0
-343,-202,0,0,0,0,0,0,0,0,0,-1,881,1226,0,0
-336,-202,0,0,0,0,0,0,0,0,0,-1,888,1226,0,0
-329,-202,0,0,0,0,0,0,0,0,0,-1,895,1226,0,0
-322,-202,0,0,0,0,0,0,0,0,0,-1,902,1226,0,0
-315,-202,0,0,0,0,0,0,0,0,0,-1,909,1226,0,0
-308,-202,0,0,0,0,0,0,0,0,0,-1,916,1226,0,0
-301,-202,0,0,0,0,0,0,0,0,0,-1,923,1226,0,0
-294,-202,0,0,0,0,0,0,0,0,0,-1,930,1226,0,0
-287,-202,0,0,0,0,0,0,0,0,0,-1,937,1226,0,0
-280,-202,0,0,0,0,0,0,0,0,0,-1,944,1226,0,0
-273,-202,0,0,0,0,0,0,0,0,0,-1,951,1226,0,0
-266,-202,0,0,0,0,0,0,0,0,0,-1,958,1226,0,0
-259,-202,0,0,0,0,0,0,0,0,0,-1,965,1226,0,0
-252,-202,0,0,0,0,0,0,0,0,0,-1,972,1226,0,0
-245,-202,0,0,0,0,0,0,0,0,0,-1,979,1226,0,0
-238,-202,0,0,0,0,0,0,0,0,0,-1,986,1226,0,0
-231,-202,0,0,0,0,0,0,0,0,0,-1,993,1226,0,0
-224,-202,0,0,0,0,0,0,0,0,0,-1,1000,1226,0,0
-217,-202,0,0,0,0,0,0,0,0,0,-1,1007,1226,0,0
-210,-202,0,0,0,0,0,0,0,0,0,-1,1014,1226,0,0
-203,-202,0,0,0,0,0,0,0,0,0,-1,1021,1226,0,0
-196,-202,0,0,0,0,0,0,0,0,0,-1,1028,1226,0,0
-189,-202,0,0,0,0,0,0,0,0,0,-1,1035,1226,0,0
-182,-202,0,0,0,0,0,0,0,0,0,-1,1042,1226,0,0
-175,-202,0,0,0,0,0,0,0,0,0,-1,1049,1226,0,0
-168,-202,0,0,0,0,0,0,0,0,0,-1,1056,1226,0,0
-161,-202,0,0,0,0,0,0,0,0,0,-1,1063,1226,0,0
-154,-202,0,0,0,0,0,0,0,0,0,-1,1070,1226,0,0
-147,-202,0,0,0,0,0,0,0,0,0,-1,1077,1226,0,0
-140,-202,0,0,0,0,0,0,0,0,0,-1,1084,1226,0,0
-133,-202,0,0,0,0,0,0,0,0,0,-1,1091,1226,0,0
-126,-202,0,0,0,0,0,0,0,0,0,-1,1098,1226,0,0
-119,-202,0,0,0,0,0,0,0,0,0,-1,1105,1226,0,0
-112,-202,0,0,0,0,0,0,0,0,0,-1,1112,1226,0,0
-105,-202,0,0,0,0,0,0,0,0,0,-1,1119,1226,0,0
-98,-202,0,0,0,0,0,0,0,0,0,-1,1126,1226,0,0
-91,-202,0,0,0,0,0,0,0,0,0,-1,1133,1226,0,0
-84,-202,0,0,0,0,0,0,0,0,0,-1,1140,1226,0,0
-77,-202,0,0,0,0,0,0,0,0,0,-1,1147,1226,0,0
-70,-202,0,0,0,0,0,0,0,0,0,-1,1154,1226,0,0
-63,-202,0,0,0,0,0,0,0,0,0,-1,1161,1226,0,0
-56,-202,0,0,0,0,0,0,0,0,0,-1,1168,1226,0,0
-49,-202,0,0,0,0,0,0,0,0,0,-1,1175,1226,0,0
-42,-202,0,0,0,0,0,0,0,0,0,-1,1182,1226,0,0
-35,-202,0,0,0,0,0,0,0,0,0,-1,1189,1226,0,0
-28,-202,0,0,0,0,0,0,0,0,0,-1,1196,1226,0,0
-21,-202,0,0,0,0,0,0,0,0,0,-1,1203,1226,0,0
-14,-202,0,0,0,0,0,0,0,0,0,-1,1210,1226,0,0
-7,-202,0,0,0,0,0,0,0,0,0,-1,1217,1226,0,0
0,-202,0,0,0,0,0,0,0,0,0,-1,1224,1226,0,0
7,-202,0,0,0,0,0,0,0,0,0,-1,1231,1226,0,0
14,-202,0,0,0,0,0,0,0,0,0,-1,1238,1226,0,0
21,-202,0,0,0,0,0,0,0,0,0,-1,1245,1226,0,0
28,-202,0,0,0,0,0,0,0,0,0,-1,1252,1226,0,0
35,-202,0,0,0,0,0,0,0,0,0,-1,1259,1226,0,0
42,-202,0,0,0,0,0,0,0,0,0,-1,1266,1226,0,0
49,-202,0,0,0,0,0,0,0,0,0,-1,1273,1226,0,0
56,-202,0,0,0,0,0,0,0,0,0,-1,1280,1226,0,0
63,-202,0,0,0,0,0,0,0,0,0,-1,1287,1226,0,0
70,-202,0,0,0,0,0,0,0,0,0,-1,1294,1226,0,0
77,-202,0,0,0,0,0,0,0,0,0,-1,1301,1226,0,0
84,-202,0,0,0,0,0,0,0,0,0,-1,1308,1226,0,0
91,-202,0,0,0,0,0,0,0,0,0,-1,1315,1226,0,0
98,-202,0,0,0,0,0,0,0,0,0,-1,1322,1226,0,0
105,-202,0,0,0,0,0,0,0,0,0,-1,1329,1226,0,0
112,-202,0,0,0,0,0,0,0,0,0,-1,1336,1226,0,0
119,-202,0,0,0,0,0,0,0,0,0,-1,1343,1226,0,0
126,-202,0,0,0,0,0,0,0,0,0,-1,1350,1226,0,0
133,-202,0,0,0,0,0,0,0,0,0,-1,1357,1226,0,0
140,-202,0,0,0,0,0,0,0,0,0,-1,1364,1226,0,0
147,-202,0,0,0,0,0,0,0,0,0,-1,1371,1226,0,0
154,-202,0,0,0,0,0,0,0,0,0,-1,1378,1226,0,0
161,-202,0,0,0,0,0,0,0,0,0,-1,1385,1226,0,0
168,-202,0,0,0,0,0,0,0,0,0,-1,1392,1226,0,0
175,-202,0,0,0,0,0,0,0,0,0,-1,1399,1226,0,0
182,-202,0,0,0,0,0,0,0,0,0,-1,1406,1226,0,0
189,-202,0,0,0,0,0,0,0,0,0,-1,1413,1226,0,0
196,-202,0,0,0,0,0,0,0,0,0,-1,1420,1226,0,0
203,-202,0,0,0,0,0,0,0,0,0,-1,1427,1226,0,0
210,-202,0,0,0,0,0,0,0,0,0,-1,1434,1226,0,0
217,-202,0,0,0,0,0,0,0,0,0,-1,1441,1226,0,0
224,-202,0,0,0,0,0,0,0,0,0,-1,1448,1226,0,0
231,-202,0,0,0,0,0,0,0,0,0,-1,1455,1226,0,0
238,-202,0,0,0,0,0,0,0,0,0,-1,1462,1226,0,0
245,-202,0,0,0,0,0,0,0,0,0,-1,1469,1226,0,0
252,-202,0,0,0,0,0,0,0,0,0,-1,1476,1226,0,0
259,-202,0,0,0,0,0,0,0,0,0,-1,1483,1226,0,0
266,-202,0,0,0,0,0,0,0,0,0,-1,1490,1226,0,0
273,-202,0,0,0,0,0,0,0,0,0,-1,1497,1226,0,0
280,-202,0,0,0,0,0,0,0,0,0,-1,1504,1226,0,0
287,-202,0,0,0,0,0,0,0,0,0,-1,1511,1226,0,0
294,-202,0,0,0,0,0,0,0,0,0,-1,1518,1226,0,0
301,-202,0,0,0,0,0,0,0,0,0,-1,1525,1226,0,0
308,-202,0,0,0,0,0,0,0,0,0,-1,1532,1226,0,0
315,-202,0,0,0,0,0,0,0,0,0,-1,1539,1226,0,0
322,-202,0,0,0,0,0,0,0,0,0,-1,1546,1226,0,0
329,-202,0,0,0,0,0,0,0,0,0,-1,1553,1226,0,0
336,-202,0,0,0,0,0,0,0,0,0,-1,1560,1226,0,0
343,-202,0,0,0,0,0,0,0,0,0,-1,1567,1226,0,0
350,-202,0,0,0,0,0,0,0,0,0,-1,1574,1226,0,0
357,-202,0,0,0,0,0,0,0,0,0,-1,1581,1226,0,0
364,-202,0,0,0,0,0,0,0,0,0,-1,1588,1226,0,0
371,-202,0,0,0,0,0,0,0,0,0,-1,1595,1226,0,0
378,-202,0,0,0,0,0,0,0,0,0,-1,1602,1226,0,0
385,-202,0,0,0,0,0,0,0,0,0,-1,1609,1226,0,0
392,-202,0,0,0,0,0,0,0,0,0,-1,1616,1226,0,0
399,-202,0,0,0,0,0,0,0,0,0,-1,1623,1226,0,0
406,-202,0,0,0,0,0,0,0,0,0,-1,1630,1226,0,0
413,-202,0,0,0,0,0,0,0,0,0,-1,1637,1226,0,0
420,-202,0,0,0,0,0,0,0,0,0,-1,1644,1226,0,0
427,-202,0,0,0,0,0,0,0,0,0,-1,1651,1226,0,0
434,-202,0,0,0,0,0,0,0,0,0,-1,1658,1226,0,0
441,-202,0,0,0,0,0,0,0,0,0,-1,1665,1226,0,0
448,-202,0,0,0,0,0,0,0,0,0,-1,1672,1226,0,0
455,-202,0,0,0,0,0,0,0,0,0,-1,1679,1226,0,0
462,-202,0,0,0,0,0,0,0,0,0,-1,1686,1226,0,0
469,-202,0,0,0,0,0,0,0,0,0,-1,1693,1226,0,0
476,-202,0,0,0,0,0,0,0,0,0,-1,1700,1226,0,0
483,-202,0,0,0,0,0,0,0,0,0,-1,1707,1226,0,0
490,-202,0,0,0,0,0,0,0,0,0,-1,1714,1226,0,0
497,-202,0,0,0,0,0,0,0,0,0,-1,1721,1226,0,0
504,-202,0,0,0,0,0,0,0,0,0,-1,1728,1226,0,0
511,-202,0,0,0,0,0,0,0,0,0,-1,1735,1226,0,0
518,-202,0,0,0,0,0,0,0,0,0,-1,1742,1226,0,0
525,-202,0,0,0,0,0,0,0,0,0,-1,1749,1226,0,0
532,-202,0,0,0,0,0,0,0,0,0,-1,1756,1226,0,0
539,-202,0,0,0,0,0,0,0,0,0,-1,1763,1226,0,0
546,-202,0,0,0,0,0,0,0,0,0,-1,1770,1226,0,0
553,-202,0,0,0,0,0,0,0,0,0,-1,1777,1226,0,0
560,-202,0,0,0,0,0,0,0,0,0,-1,1784,1226,0,0
567,-202,0,0,0,0,0,0,0,0,0,-1,1791,1226,0,0
574,-202,0,0,0,0,0,0,0,0,0,-1,1798,1226,0,0
581,-202,0,0,0,0,0,0,0,0,0,-1,1805,1226,0,0
588,-202,0,0,0,0,0,0,0,0,0,-1,1812,1226,0,0
595,-202,0,0,0,0,0,0,0,0,0,-1,1819,1226,0,0
602,-202,0,0,0,0,0,0,0,0,0,-1,1826,1226,0,0
609,-202,0,0,0,0,0,0,0,0,0,-1,1833,1226,0,0
616,-202,0,0,0,0,0,0,0,0,0,-1,1840,1226,0,0
623,-202,0,0,0,0,0,0,0,0,0,-1,1847,1226,0,0
630,-202,40.5479,2.69177,0.00310535,0.0028219,-0.000152779,0.00317202,0.00275523,-0.411461,0.00199035,0.0372061,1854,1226,40.5478,-2.69176
637,-202,40.6566,2.76685,0.0020264,0.00318578,-0.00102991,0.00378793,0.00142424,-1.04173,0.00220927,0.0356411,1861,1226,40.6567,-2.76681
644,-202,40.6095,2.76611,0.00145066,0.00344282,-0.00207076,0.00474461,0.000148863,-1.00957,0.00311464,0.0327774,1868,1226,40.6095,-2.76613
651,-202,40.6058,2.69055,0.00156722,0.00326811,-0.00288205,0.00542257,-0.000587237,-0.928868,0.00382584,0.0273611,1875,1226,40.6059,-2.69057
658,-202,40.6074,2.66772,0.00202916,0.00270643,-0.00322108,0.00560663,-0.000871041,-0.837771,0.00405937,0.02241,1882,1226,40.6074,-2.66767
665,-202,40.6251,2.64478,0.00231202,0.0019766,-0.00298805,0.00513706,-0.000848452,-0.757364,0.00373975,0.0205634,1889,1226,40.6251,-2.64481
672,-202,40.6635,2.5625,0.00232225,0.00115757,-0.00251672,0.00432313,-0.000843311,-0.671705,0.00320044,0.0423512,1896,1226,40.6635,-2.56245
679,-202,40.6886,2.31274,0,0,0,0,0,0,0,-1,1903,1226,40.6885,-2.31277
686,-202,40.7957,2.22827,0,0,0,0,0,0,0,-1,1910,1226,40.7957,-2.22828
693,-202,33.2051,8.43738,0,0,0,0,0,0,0,-1,1917,1226,33.2051,-8.4374
700,-202,33.3031,7.89514,0.00142884,-0.00084799,-0.000670201,0.00161147,-0.00103062,-0.26604,0.00153765,0.0435572,1924,1226,33.3031,-7.89514
707,-202,33.412,7.32166,0.00129073,-0.00122183,-4.53679e-05,0.00129155,-0.00122265,-0.0180486,0.00145175,0.0339307,1931,1226,33.4119,-7.32161
714,-202,33.4441,6.99097,0.00061392,-0.00128826,0.000633556,0.000805618,-0.00147996,0.293818,0.00133859,0.0218131,1938,1226,33.4441,-6.991
721,-202,33.4691,6.74121,5.25036e-05,-0.00129524,0.00146379,0.000990081,-0.00223282,0.569679,0.0019063,0.0143816,1945,1226,33.4691,-6.74126
728,-202,33.4514,6.40601,-0.000187032,-0.00127716,0.00218755,0.00152234,-0.00298653,0.663301,0.00264855,0.0114,1952,1226,33.4514,-6.40604
735,-202,33.4253,6.05225,1.77007e-05,-0.000536423,0.00201978,0.00177934,-0.00229806,0.717237,0.00236043,0.0109027,1959,1226,33.4253,-6.0522
742,-202,33.4105,5.70471,0.000601154,0.0016314,0.00173709,0.00292814,-0.00069558,0.92954,0.00222057,0.010719,1966,1226,33.4105,-5.70468
749,-202,33.3883,5.35291,0.00168109,0.00386854,0.00136542,0.00452427,0.00102536,1.12308,0.00273913,0.0112599,1973,1226,33.3883,-5.35292
756,-202,33.3975,5.02722,0.00291075,0.00702109,0.00081869,0.00717815,0.00275368,1.38125,0.00418156,0.0118356,1980,1226,33.3975,-5.02719
763,-202,33.4349,4.73279,0.00416072,0.0116853,-5.66466e-05,0.0116857,0.0041603,-1.56327,0.00683936,0.0189317,1987,1226,33.435,-4.73279
770,-202,33.4812,4.526,0.00479742,0.0186908,-0.00114394,0.0187844,0.00470387,-1.48919,0.0112866,0.0459862,1994,1226,33.4812,-4.52603
777,-202,33.5608,4.30249,0,0,0,0,0,0,0,-1,2001,1226,33.5608,-4.30249
784,-202,37.9491,-2.1272,0,0,0,0,0,0,0,-1,2008,1226,37.9491,2.12721
791,-202,37.7061,0.80896,0,0,0,0,0,0,0,-1,2015,1226,37.7061,-0.808939
798,-202,37.677,3.38306,0,0,0,0,0,0,0,-1,2022,1226,37.6769,-3.38311
805,-202,0,0,0,0,0,0,0,0,0,-1,2029,1226,0,0
812,-202,0,0,0,0,0,0,0,0,0,-1,2036,1226,0,0
-700,-209,0,0,0,0,0,0,0,0,0,-1,524,1233,0,0
-693,-209,0,0,0,0,0,0,0,0,0,-1,531,1233,0,0
-686,-209,0,0,0,0,0,0,0,0,0,-1,538,1233,0,0
-679,-209,-23.6585,-0.912109,0,0,0,0,0,0,0,-1,545,1233,-23.6585,0.912147
-672,-209,-21.891,-5.41626,0,0,0,0,0,0,0,-1,552,1233,-21.891,5.41626
-665,-209,-23.3433,-5.12659,0,0,0,0,0,0,0,-1,559,1233,-23.3433,5.12664
-658,-209,-24.6033,-5.07239,0,0,0,0,0,0,0,-1,566,1233,-24.6033,5.0724
-651,-209,-20.7133,0.639893,0,0,0,0,0,0,0,-1,573,1233,-20.7133,-0.639925
-644,-209,-21.0614,0.983154,0,0,0,0,0,0,0,-1,580,1233,-21.0614,-0.983203
-637,-209,-21.2225,1.58484,0,0,0,0,0,0,0,-1,587,1233,-21.2225,-1.58484
-630,-209,-21.2939,1.96729,0.013299,0.00363473,0.00528022,0.0156244,0.00130935,0.414839,0.0100084,0.0243837,594,1233,-21.2939,-1.96723
-623,-209,-21.3663,2.40503,0.0103853,0.00246428,0.0041111,0.0121333,0.000716309,0.402026,0.00786096,0.0130389,601,1233,-21.3663,-2.40506
-616,-209,-21.3807,2.80457,0.00818492,0.00130902,0.00262817,0.00907442,0.000419522,0.326345,0.00591473,0.0123278,608,1233,-21.3807,-2.80451
-609,-209,-21.387,3.19971,0.00546651,0.00069034,0.00147573,0.00588569,0.00027116,0.276759,0.0038366,0.0139755,615,1233,-21.3869,-3.19968
-602,-209,-21.4048,3.59802,0.00305663,0.000303751,0.000892008,0.00332039,3.99884e-05,0.287503,0.00220039,0.0162985,622,1233,-21.4048,-3.59803
-595,-209,-21.4191,3.9823,0.00230074,7.80695e-05,0.00103273,0.00270651,-0.0003277,0.374378,0.0019229,0.0122637,629,1233,-21.4191,-3.98236
-588,-209,-21.3895,4.40369,0.00269529,9.20607e-05,0.00134789,0.00326745,-0.000480094,0.401431,0.0023547,0.0153691,636,1233,-21.3895,-4.40365
-581,-209,-21.1666,4.87317,0.00310311,-0.000146271,0.00170897,0.00383643,-0.000879589,0.405337,0.00289569,0.0378517,643,1233,-21.1665,-4.87321
-574,-209,-21.3975,5.22046,0.00256832,-8.71295e-05,0.00234402,0.00393453,-0.00145334,0.527713,0.00321876,0.0433768,650,1233,-21.3975,-5.22049
-567,-209,-21.5581,5.35303,0,0,0,0,0,0,0,-1,657,1233,-21.5581,-5.35305
-560,-209,-13.9294,4.16626,0,0,0,0,0,0,0,-1,664,1233,-13.9294,-4.16621
-553,-209,-22.7542,0.748779,0,0,0,0,0,0,0,-1,671,1233,-22.7541,-0.748796
-546,-209,-29.564,0.672119,0,0,0,0,0,0,0,-1,678,1233,-29.564,-0.672134
-539,-209,-29.4191,0.77063,-0.000736879,0.00176699,0.00460821,0.0052903,-0.00426018,0.918034,0.00552466,0.0399909,685,1233,-29.4191,-0.770592
-532,-209,-29.322,0.917236,-0.00208731,0.00230938,0.00501783,0.00558929,-0.00536722,0.991858,0.00632618,0.0324166,692,1233,-29.322,-0.917219
-525,-209,-29.4637,0.999878,-0.00372839,0.00275592,0.0052367,0.00567288,-0.00664534,1.06258,0.00711931,0.0358126,699,1233,-29.4638,-0.99983
-518,-209,-29.5607,1.21021,-0.00544648,0.00250168,0.00513531,0.00502104,-0.00796583,1.1147,0.00756196,0.0448883,706,1233,-29.5607,-1.2102
-511,-209,-29.5414,1.11499,-0.00573534,0.000920458,0.00467869,0.00333408,-0.00814895,1.09453,0.00682123,0.0450792,713,1233,-29.5414,-1.11499
-504,-209,0,0,0,0,0,0,0,0,0,-1,720,1233,0,0
-497,-209,0,0,0,0,0,0,0,0,0,-1,727,1233,0,0
-490,-209,0,0,0,0,0,0,0,0,0,-1,734,1233,0,0
-483,-209,0,0,0,0,0,0,0,0,0,-1,741,1233,0,0
-476,-209,0,0,0,0,0,0,0,0,0,-1,748,1233,0,0
-469,-209,0,0,0,0,0,0,0,0,0,-1,755,1233,0,0
-462,-209,0,0,0,0,0,0,0,0,0,-1,762,1233,0,0
-455,-209,0,0,0,0,0,0,0,0,0,-1,769,1233,0,0
-448,-209,0,0,0,0,0,0,0,0,0,-1,776,1233,0,0
-441,-209,0,0,0,0,0,0,0,0,0,-1,783,1233,0,0
-434,-209,0,0,0,0,0,0,0,0,0,-1,790,1233,0,0
-427,-209,0,0,0,0,0,0,0,0,0,-1,797,1233,0,0
-420,-209,0,0,0,0,0,0,0,0,0,-1,804,1233,0,0
-413,-209,0,0,0,0,0,0,0,0,0,-1,811,1233,0,0
-406,-209,0,0,0,0,0,0,0,0,0,-1,818,1233,0,0
-399,-209,0,0,0,0,0,0,0,0,0,-1,825,1233,0,0
-392,-209,0,0,0,0,0,0,0,0,0,-1,832,1233,0,0
-385,-209,0,0,0,0,0,0,0,0,0,-1,839,1233,0,0
-378,-209,0,0,0,0,0,0,0,0,0,-1,846,1233,0,0
-371,-209,0,0,0,0,0,0,0,0,0,-1,853,1233,0,0
-364,-209,0,0,0,0,0,0,0,0,0,-1,860,1233,0,0
-357,-209,0,0,0,0,0,0,0,0,0,-1,867,1233,0,0
-350,-209,0,0,0,0,0,0,0,0,0,-1,874,1233,0,0
-343,-209,0,0,0,0,0,0,0,0,0,-1,881,1233,0,0
-336,-209,0,0,0,0,0,0,0,0,0,-1,888,1233,0,0
-329,-209,0,0,0,0,0,0,0,0,0,-1,895,1233,0,0
-322,-209,0,0,0,0,0,0,0,0,0,-1,902,1233,0,0
-315,-209,0,0,0,0,0,0,0,0,0,-1,909,1233,0,0
-308,-209,0,0,0,0,0,0,0,0,0,-1,916,1233,0,0
-301,-209,0,0,0,0,0,0,0,0,0,-1,923,1233,0,0
-294,-209,0,0,0,0,0,0,0,0,0,-1,930,1233,0,0
-287,-209,0,0,0,0,0,0,0,0,0,-1,937,1233,0,0
-280,-209,0,0,0,0,0,0,0,0,0,-1,944,1233,0,0
-273,-209,0,0,0,0,0,0,0,0,0,-1,951,1233,0,0
-266,-209,0,0,0,0,0,0,0,0,0,-1,958,1233,0,0
-259,-209,0,0,0,0,0,0,0,0,0,-1,965,1233,0,0
-252,-209,0,0,0,0,0,0,0,0,0,-1,972,1233,0,0
-245,-209,0,0,0,0,0,0,0,0,0,-1,979,1233,0,0
-238,-209,0,0,0,0,0,0,0,0,0,-1,986,1233,0,0
-231,-209,0,0,0,0,0,0,0,0,0,-1,993,1233,0,0
-224,-209,0,0,0,0,0,0,0,0,0,-1,1000,1233,0,0
-217,-209,0,0,0,0,0,0,0,0,0,-1,1007,1233,0,0
-210,-209,0,0,0,0,0,0,0,0,0,-1,1014,1233,0,0
-203,-209,0,0,0,0,0,0,0,0,0,-1,1021,1233,0,0
-196,-209,0,0,0,0,0,0,0,0,0,-1,1028,1233,0,0
-189,-209,0,0,0,0,0,0,0,0,0,-1,1035,1233,0,0
-182,-209,0,0,0,0,0,0,0,0,0,-1,1042,1233,0,0
-175,-209,0,0,0,0,0,0,0,0,0,-1,1049,1233,0,0
-168,-209,0,0,0,0,0,0,0,0,0,-1,1056,1233,0,0
-161,-209,0,0,0,0,0,0,0,0,0,-1,1063,1233,0,0
-154,-209,0,0,0,0,0,0,0,0,0,-1,1070,1233,0,0
-147,-209,0,0,0,0,0,0,0,0,0,-1,1077,1233,0,0
-140,-209,0,0,0,0,0,0,0,0,0,-1,1084,1233,0,0
-133,-209,0,0,0,0,0,0,0,0,0,-1,1091,1233,0,0
-126,-209,0,0,0,0,0,0,0,0,0,-1,1098,1233,0,0
-119,-209,0,0,0,0,0,0,0,0,0,-1,1105,1233,0,0
-112,-209,0,0,0,0,0,0,0,0,0,-1,1112,1233,0,0
-105,-209,0,0,0,0,0,0,0,0,0,-1,1119,1233,0,0
-98,-209,0,0,0,0,0,0,0,0,0,-1,1126,1233,0,0
-91,-209,0,0,0,0,0,0,0,0,0,-1,1133,1233,0,0
-84,-209,0,0,0,0,0,0,0,0,0,-1,1140,1233,0,0
-77,-209,0,0,0,0,0,0,0,0,0,-1,1147,1233,0,0
-70,-209,0,0,0,0,0,0,0,0,0,-1,1154,1233,0,0
-63,-209,0,0,0,0,0,0,0,0,0,-1,1161,1233,0,0
-56,-209,0,0,0,0,0,0,0,0,0,-1,1168,1233,0,0
-49,-209,0,0,0,0,0,0,0,0,0,-1,1175,1233,0,0
-42,-209,0,0,0,0,0,0,0,0,0,-1,1182,1233,0,0
-35,-209,0,0,0,0,0,0,0,0,0,-1,1189,1233,0,0
-28,-209,0,0,0,0,0,0,0,0,0,-1,1196,1233,0,0
-21,-209,0,0,0,0,0,0,0,0,0,-1,1203,1233,0,0
-14,-209,0,0,0,0,0,0,0,0,0,-1,1210,1233,0,0
-7,-209,0,0,0,0,0,0,0,0,0,-1,1217,1233,0,0
0,-209,0,0,0,0,0,0,0,0,0,-1,1224,1233,0,0
7,-209,0,0,0,0,0,0,0,0,0,-1,1231,1233,0,0
14,-209,0,0,0,0,0,0,0,0,0,-1,1238,1233,0,0
21,-209,0,0,0,0,0,0,0,0,0,-1,1245,1233,0,0
28,-209,0,0,0,0,0,0,0,0,0,-1,1252,1233,0,0
35,-209,0,0,0,0,0,0,0,0,0,-1,1259,1233,0,0
42,-209,0,0,0,0,0,0,0,0,0,-1,1266,1233,0,0
49,-209,0,0,0,0,0,0,0,0,0,-1,1273,1233,0,0
56,-209,0,0,0,0,0,0,0,0,0,-1,1280,1233,0,0
63,-209,0,0,0,0,0,0,0,0,0,-1,1287,1233,0,0
70,-209,0,0,0,0,0,0,0,0,0,-1,1294,1233,0,0
77,-209,0,0,0,0,0,0,0,0,0,-1,1301,1233,0,0
84,-209,0,0,0,0,0,0,0,0,0,-1,1308,1233,0,0
91,-209,0,0,0,0,0,0,0,0,0,-1,1315,1233,0,0
98,-209,0,0,0,0,0,0,0,0,0,-1,1322,1233,0,0
105,-209,0,0,0,0,0,0,0,0,0,-1,1329,1233,0,0
112,-209,0,0,0,0,0,0,0,0,0,-1,1336,1233,0,0
119,-209,0,0,0,0,0,0,0,0,0,-1,1343,1233,0,0
126,-209,0,0,0,0,0,0,0,0,0,-1,1350,1233,0,0
133,-209,0,0,0,0,0,0,0,0,0,-1,1357,1233,0,0
140,-209,0,0,0,0,0,0,0,0,0,-1,1364,1233,0,0
147,-209,0,0,0,0,0,0,0,0,0,-1,1371,1233,0,0
154,-209,0,0,0,0,0,0,0,0,0,-1,1378,1233,0,0
161,-209,0,0,0,0,0,0,0,0,0,-1,1385,1233,0,0
168,-209,0,0,0,0,0,0,0,0,0,-1,1392,1233,0,0
175,-209,0,0,0,0,0,0,0,0,0,-1,1399,1233,0,0
182,-209,0,0,0,0,0,0,0,0,0,-1,1406,1233,0,0
189,-209,0,0,0,0,0,0,0,0,0,-1,1413,1233,0,0
196,-209,0,0,0,0,0,0,0,0,0,-1,1420,1233,0,0
203,-209,0,0,0,0,0,0,0,0,0,-1,1427,1233,0,0
210,-209,0,0,0,0,0,0,0,0,0,-1,1434,1233,0,0
217,-209,0,0,0,0,0,0,0,0,0,-1,1441,1233,0,0
224,-209,0,0,0,0,0,0,0,0,0,-1,1448,1233,0,0
231,-209,0,0,0,0,0,0,0,0,0,-1,1455,1233,0,0
238,-209,0,0,0,0,0,0,0,0,0,-1,1462,1233,0,0
245,-209,0,0,0,0,0,0,0,0,0,-1,1469,1233,0,0
252,-209,0,0,0,0,0,0,0,0,0,-1,1476,1233,0,0
259,-209,0,0,0,0,0,0,0,0,0,-1,1483,1233,0,0
266,-209,0,0,0,0,0,0,0,0,0,-1,1490,1233,0,0
273,-209,0,0,0,0,0,0,0,0,0,-1,1497,1233,0,0
280,-209,0,0,0,0,0,0,0,0,0,-1,1504,1233,0,0
287,-209,0,0,0,0,0,0,0,0,0,-1,1511,1233,0,0
294,-209,0,0,0,0,0,0,0,0,0,-1,1518,1233,0,0
301,-209,0,0,0,0,0,0,0,0,0,-1,1525,1233,0,0
308,-209,0,0,0,0,0,0,0,0,0,-1,1532,1233,0,0
315,-209,0,0,0,0,0,0,0,0,0,-1,1539,1233,0,0
322,-209,0,0,0,0,0,0,0,0,0,-1,1546,1233,0,0
329,-209,0,0,0,0,0,0,0,0,0,-1,1553,1233,0,0
336,-209,0,0,0,0,0,0,0,0,0,-1,1560,1233,0,0
343,-209,0,0,0,0,0,0,0,0,0,-1,1567,1233,0,0
350,-209,0,0,0,0,0,0,0,0,0,-1,1574,1233,0,0
357,-209,0,0,0,0,0,0,0,0,0,-1,1581,1233,0,0
364,-209,0,0,0,0,0,0,0,0,0,-1,1588,1233,0,0
371,-209,0,0,0,0,0,0,0,0,0,-1,1595,1233,0,0
378,-209,0,0,0,0,0,0,0,0,0,-1,1602,1233,0,0
385,-209,0,0,0,0,0,0,0,0,0,-1,1609,1233,0,0
392,-209,0,0,0,0,0,0,0,0,0,-1,1616,1233,0,0
399,-209,0,0,0,0,0,0,0,0,0,-1,1623,1233,0,0
406,-209,0,0,0,0,0,0,0,0,0,-1,1630,1233,0,0
413,-209,0,0,0,0,0,0,0,0,0,-1,1637,1233,0,0
420,-209,0,0,0,0,0,0,0,0,0,-1,1644,1233,0,0
427,-209,0,0,0,0,0,0,0,0,0,-1,1651,1233,0,0
434,-209,0,0,0,0,0,0,0,0,0,-1,1658,1233,0,0
441,-209,0,0,0,0,0,0,0,0,0,-1,1665,1233,0,0
448,-209,0,0,0,0,0,0,0,0,0,-1,1672,1233,0,0
455,-209,0,0,0,0,0,0,0,0,0,-1,1679,1233,0,0
462,-209,0,0,0,0,0,0,0,0,0,-1,1686,1233,0,0
469,-209,0,0,0,0,0,0,0,0,0,-1,1693,1233,0,0
476,-209,0,0,0,0,0,0,0,0,0,-1,1700,1233,0,0
483,-209,0,0,0,0,0,0,0,0,0,-1,1707,1233,0,0
490,-209,0,0,0,0,0,0,0,0,0,-1,1714,1233,0,0
497,-209,0,0,0,0,0,0,0,0,0,-1,1721,1233,0,0
504,-209,0,0,0,0,0,0,0,0,0,-1,1728,1233,0,0
511,-209,0,0,0,0,0,0,0,0,0,-1,1735,1233,0,0
518,-209,0,0,0,0,0,0,0,0,0,-1,1742,1233,0,0
525,-209,0,0,0,0,0,0,0,0,0,-1,1749,1233,0,0
532,-209,0,0,0,0,0,0,0,0,0,-1,1756,1233,0,0
539,-209,0,0,0,0,0,0,0,0,0,-1,1763,1233,0,0
546,-209,0,0,0,0,0,0,0,0,0,-1,1770,1233,0,0
553,-209,0,0,0,0,0,0,0,0,0,-1,1777,1233,0,0
560,-209,0,0,0,0,0,0,0,0,0,-1,1784,1233,0,0
567,-209,0,0,0,0,0,0,0,0,0,-1,1791,1233,0,0
574,-209,0,0,0,0,0,0,0,0,0,-1,1798,1233,0,0
581,-209,0,0,0,0,0,0,0,0,0,-1,1805,1233,0,0
588,-209,0,0,0,0,0,0,0,0,0,-1,1812,1233,0,0
595,-209,0,0,0,0,0,0,0,0,0,-1,1819,1233,0,0
602,-209,0,0,0,0,0,0,0,0,0,-1,1826,1233,0,0
609,-209,0,0,0,0,0,0,0,0,0,-1,1833,1233,0,0
616,-209,0,0,0,0,0,0,0,0,0,-1,1840,1233,0,0
623,-209,40.4788,2.69116,0.00778349,0.00298275,-0.000250189,0.0077965,0.00296974,-0.0519271,0.00454367,0.0322213,1847,1233,40.4787,-2.69115
630,-209,40.5726,2.55542,0.00398246,0.00318579,-0.000884189,0.00455389,0.00261435,-0.573761,0.0026388,0.0343327,1854,1233,40.5726,-2.55547
637,-209,40.5768,2.52734,0.000865937,0.00336635,-0.00165134,0.00418736,4.49293e-05,-1.10941,0.00277672,0.0352843,1861,1233,40.5768,-2.52733
644,-209,40.575,2.56726,-0.00137313,0.00341716,-0.00243949,0.00444076,-0.00239674,-1.17351,0.004006,0.0299972,1868,1233,40.575,-2.56721
651,-209,40.5912,2.63513,-0.0017844,0.00313114,-0.00300408,0.00455476,-0.00320802,-1.12825,0.00450427,0.0246941,1875,1233,40.5911,-2.63515
658,-209,40.6108,2.66699,-0.00121294,0.00255966,-0.0031572,0.00435113,-0.00300441,-1.05467,0.00427039,0.022732,1882,1233,40.6108,-2.66702
665,-209,40.6863,2.6615,-0.000549708,0.00190433,-0.00287572,0.00380386,-0.00244924,-0.987046,0.00363836,0.0368901,1889,1233,40.6863,-2.66149
672,-209,40.7347,2.52686,-4.53871e-05,0.0011826,-0.00247159,0.00311532,-0.00197811,-0.907144,0.00296502,0.047994,1896,1233,40.7347,-2.52682
679,-209,40.8235,2.44556,0,0,0,0,0,0,0,-1,1903,1233,40.8234,-2.44555
686,-209,33.3711,3.89856,0,0,0,0,0,0,0,-1,1910,1233,33.3711,-3.89855
693,-209,32.8298,8.56384,0,0,0,0,0,0,0,-1,1917,1233,32.8298,-8.56384
700,-209,32.937,7.97656,0.00100172,-0.000867573,-0.000882863,0.00135277,-0.00121862,-0.378457,0.00148527,0.0402796,1924,1233,32.937,-7.97659
707,-209,33.0448,7.44409,0.00129354,-0.00137763,-0.000299924,0.00132681,-0.00141089,-0.110449,0.00158086,0.0319039,1931,1233,33.0448,-7.44408
714,-209,33.0726,7.11853,0.0008831,-0.00126692,0.000359651,0.000941666,-0.00132549,0.161425,0.00131518,0.0163772,1938,1233,33.0726,-7.11853
721,-209,33.0938,6.76208,0.000386589,-0.00114918,0.00124743,0.00108354,-0.00184613,0.509502,0.00171043,0.012108,1945,1233,33.0937,-6.76211
728,-209,33.1135,6.41626,0.000295564,-0.00101755,0.00196079,0.0017068,-0.00242878,0.623844,0.00239977,0.0117739,1952,1233,33.1135,-6.41624
735,-209,33.0914,6.07605,0.000747241,-0.000211331,0.00182849,0.00215822,-0.00162231,0.657221,0.00218998,0.0131835,1959,1233,33.0914,-6.07604
742,-209,33.0631,5.72339,0.00159597,0.00171935,0.00162144,0.00328027,3.5049e-05,0.804413,0.00217525,0.0123147,1966,1233,33.0631,-5.72344
749,-209,33.0385,5.36853,0.00300366,0.00371632,0.00133207,0.00473889,0.00198109,0.916088,0.00274822,0.0112831,1973,1233,33.0385,-5.36856
756,-209,33.0333,5.04138,0.00482647,0.00651859,0.000833622,0.00686028,0.00448478,1.1818,0.0040227,0.0113468,1980,1233,33.0333,-5.04139
763,-209,33.0287,4.77222,0.00707549,0.0106524,-1.80541e-06,0.0106524,0.00707549,-1.57029,0.00625973,0.020096,1987,1233,33.0287,-4.77224
770,-209,33.2423,4.62109,0.00926471,0.0168865,-0.00106259,0.0170319,0.00911934,-1.43483,0.0098416,0.0477513,1994,1233,33.2423,-4.62104
777,-209,33.5172,4.44922,0,0,0,0,0,0,0,-1,2001,1233,33.5172,-4.44917
784,-209,40.3342,-2.14001,0,0,0,0,0,0,0,-1,2008,1233,40.3342,2.13997
791,-209,39.3013,0.547852,0,0,0,0,0,0,0,-1,2015,1233,39.3013,-0.547871
798,-209,39.2295,3.45898,0,0,0,0,0,0,0,-1,2022,1233,39.2294,-3.45896
805,-209,0,0,0,0,0,0,0,0,0,-1,2029,1233,0,0
812,-209,0,0,0,0,0,0,0,0,0,-1,2036,1233,0,0
-700,-216,0,0,0,0,0,0,0,0,0,-1,524,1240,0,0
-693,-216,0,0,0,0,0,0,0,0,0,-1,531,1240,0,0
-686,-216,0,0,0,0,0,0,0,0,0,-1,538,1240,0,0
-679,-216,-24.6248,-1.64661,0,0,0,0,0,0,0,-1,545,1240,-24.6248,1.64658
-672,-216,-27.6945,-6.98425,0,0,0,0,0,0,0,-1,552,1240,-27.6945,6.98426
-665,-216,-26.5812,-6.17456,0,0,0,0,0,0,0,-1,559,1240,-26.5812,6.17459
-658,-216,-25.6779,-3.17871,0,0,0,0,0,0,0,-1,566,1240,-25.6779,3.17868
-651,-216,-20.9199,0.0905762,0,0,0,0,0,0,0,-1,573,1240,-20.9199,-0.0906227
-644,-216,-20.8165,0.505005,0,0,0,0,0,0,0,-1,580,1240,-20.8165,-0.505024
-637,-216,-21.1183,1.28052,0.0258823,0.00019609,0.0081832,0.0282678,-0.0021894,0.28365,0.0196158,0.0452965,587,1240,-21.1183,-1.28046
-630,-216,-20.9645,1.88354,0.0203519,0.0001582,0.00637878,0.0221981,-0.00168795,0.281723,0.0153922,0.0307719,594,1240,-20.9645,-1.88355
-623,-216,-20.929,2.40845,0.0155089,0.000220243,0.00487892,0.0169332,-0.00120403,0.284032,0.0117108,0.0145309,601,1240,-20.929,-2.40843
-616,-216,-20.9745,2.82739,0.0116845,0.000166443,0.00316975,0.0124992,-0.000648246,0.251574,0.00855706,0.0141392,608,1240,-20.9745,-2.82737
-609,-216,-20.9879,3.22327,0.00775885,0.000346103,0.00188983,0.00821284,-0.00010789,0.235762,0.00551154,0.0132456,615,1240,-20.9879,-3.22324
-602,-216,-20.9886,3.59827,0.00438955,0.000263347,0.00122073,0.00472365,-7.07519e-05,0.267146,0.00317295,0.012727,622,1240,-20.9886,-3.59821
-595,-216,-20.9913,3.96912,0.00314963,0.000153624,0.00130801,0.00364032,-0.000337066,0.358896,0.00254668,0.0180441,629,1240,-20.9913,-3.96912
-588,-216,-20.9905,4.37891,0.00349393,0.000152297,0.00168126,0.0041934,-0.000547176,0.394257,0.0029947,0.0213064,636,1240,-20.9905,-4.37893
-581,-216,-20.9362,4.88977,0.00398991,-4.99635e-05,0.00214452,0.00491601,-0.000976062,0.407653,0.0036465,0.027963,643,1240,-20.9362,-4.88973
-574,-216,-20.8238,5.56628,0.00359679,7.33201e-05,0.0028758,0.00520758,-0.00153747,0.510579,0.00408189,0.0458749,650,1240,-20.8238,-5.56625
-567,-216,-20.9243,6.1095,0,0,0,0,0,0,0,-1,657,1240,-20.9242,-6.10951
-560,-216,-16.5087,5.4574,0,0,0,0,0,0,0,-1,664,1240,-16.5087,-5.45746
-553,-216,-16.2355,1.22351,0,0,0,0,0,0,0,-1,671,1240,-16.2356,-1.22356
-546,-216,-29.8157,0.324219,0,0,0,0,0,0,0,-1,678,1240,-29.8157,-0.324227
-539,-216,-29.4206,0.618652,0,0,0,0,0,0,0,-1,685,1240,-29.4206,-0.618704
-532,-216,-29.0255,0.913208,0,0,0,0,0,0,0,-1,692,1240,-29.0255,-0.913182
-525,-216,-29.3121,0.917847,-0.00321051,0.00414486,0.00597614,0.00748427,-0.00654992,1.06123,0.00810863,0.0445614,699,1240,-29.3121,-0.917794
-518,-216,-29.4893,1.10046,-0.00514348,0.00458187,0.00616247,0.00756914,-0.00813074,1.11942,0.00906626,0.0427218,706,1240,-29.4893,-1.10051
-511,-216,-29.524,1.16382,-0.00644026,0.00386651,0.00605238,0.00666225,-0.00923601,1.13807,0.00921887,0.0437651,713,1240,-29.524,-1.16379
-504,-216,-29.4048,1.07068,-0.0038504,0.0001222,0.00585566,0.00431928,-0.00804748,0.948913,0.00724729,0.0424745,720,1240,-29.4048,-1.07069
-497,-216,0,0,0,0,0,0,0,0,0,-1,727,1240,0,0
-490,-216,0,0,0,0,0,0,0,0,0,-1,734,1240,0,0
-483,-216,0,0,0,0,0,0,0,0,0,-1,741,1240,0,0
-476,-216,0,0,0,0,0,0,0,0,0,-1,748,1240,0,0
-469,-216,0,0,0,0,0,0,0,0,0,-1,755,1240,0,0
-462,-216,0,0,0,0,0,0,0,0,0,-1,762,1240,0,0
-455,-216,0,0,0,0,0,0,0,0,0,-1,769,1240,0,0
-448,-216,0,0,0,0,0,0,0,0,0,-1,776,1240,0,0
-441,-216,0,0,0,0,0,0,0,0,0,-1,783,1240,0,0
-434,-216,0,0,0,0,0,0,0,0,0,-1,790,1240,0,0
-427,-216,0,0,0,0,0,0,0,0,0,-1,797,1240,0,0
-420,-216,0,0,0,0,0,0,0,0,0,-1,804,1240,0,0
-413,-216,0,0,0,0,0,0,0,0,0,-1,811,1240,0,0
-406,-216,0,0,0,0,0,0,0,0,0,-1,818,1240,0,0
-399,-216,0,0,0,0,0,0,0,0,0,-1,825,1240,0,0
-392,-216,0,0,0,0,0,0,0,0,0,-1,832,1240,0,0
-385,-216,0,0,0,0,0,0,0,0,0,-1,839,1240,0,0
-378,-216,0,0,0,0,0,0,0,0,0,-1,846,1240,0,0
-371,-216,0,0,0,0,0,0,0,0,0,-1,853,1240,0,0
-364,-216,0,0,0,0,0,0,0,0,0,-1,860,1240,0,0
-357,-216,0,0,0,0,0,0,0,0,0,-1,867,1240,0,0
-350,-216,0,0,0,0,0,0,0,0,0,-1,874,1240,0,0
-343,-216,0,0,0,0,0,0,0,0,0,-1,881,1240,0,0
-336,-216,0,0,0,0,0,0,0,0,0,-1,888,1240,0,0
-329,-216,0,0,0,0,0,0,0,0,0,-1,895,1240,0,0
-322,-216,0,0,0,0,0,0,0,0,0,-1,902,1240,0,0
-315,-216,0,0,0,0,0,0,0,0,0,-1,909,1240,0,0
-308,-216,0,0,0,0,0,0,0,0,0,-1,916,1240,0,0
-301,-216,0,0,0,0,0,0,0,0,0,-1,923,1240,0,0
-294,-216,0,0,0,0,0,0,0,0,0,-1,930,1240,0,0
-287,-216,0,0,0,0,0,0,0,0,0,-1,937,1240,0,0
-280,-216,0,0,0,0,0,0,0,0,0,-1,944,1240,0,0
-273,-216,0,0,0,0,0,0,0,0,0,-1,951,1240,0,0
-266,-216,0,0,0,0,0,0,0,0,0,-1,958,1240,0,0
-259,-216,0,0,0,0,0,0,0,0,0,-1,965,1240,0,0
-252,-216,0,0,0,0,0,0,0,0,0,-1,972,1240,0,0
-245,-216,0,0,0,0,0,0,0,0,0,-1,979,1240,0,0
-238,-216,0,0,0,0,0,0,0,0,0,-1,986,1240,0,0
-231,-216,0,0,0,0,0,0,0,0,0,-1,993,1240,0,0
-224,-216,0,0,0,0,0,0,0,0,0,-1,1000,1240,0,0
-217,-216,0,0,0,0,0,0,0,0,0,-1,1007,1240,0,0
-210,-216,0,0,0,0,0,0,0,0,0,-1,1014,1240,0,0
-203,-216,0,0,0,0,0,0,0,0,0,-1,1021,1240,0,0
-196,-216,0,0,0,0,0,0,0,0,0,-1,1028,1240,0,0
-189,-216,0,0,0,0,0,0,0,0,0,-1,1035,1240,0,0
-182,-216,0,0,0,0,0,0,0,0,0,-1,1042,1240,0,0
-175,-216,0,0,0,0,0,0,0,0,0,-1,1049,1240,0,0
-168,-216,0,0,0,0,0,0,0,0,0,-1,1056,1240,0,0
-161,-216,0,0,0,0,0,0,0,0,0,-1,1063,1240,0,0
-154,-216,0,0,0,0,0,0,0,0,0,-1,1070,1240,0,0
-147,-216,0,0,0,0,0,0,0,0,0,-1,1077,1240,0,0
-140,-216,0,0,0,0,0,0,0,0,0,-1,1084,1240,0,0
-133,-216,0,0,0,0,0,0,0,0,0,-1,1091,1240,0,0
-126,-216,0,0,0,0,0,0,0,0,0,-1,1098,1240,0,0
-119,-216,0,0,0,0,0,0,0,0,0,-1,1105,1240,0,0
-112,-216,0,0,0,0,0,0,0,0,0,-1,1112,1240,0,0
-105,-216,0,0,0,0,0,0,0,0,0,-1,1119,1240,0,0
-98,-216,0,0,0,0,0,0,0,0,0,-1,1126,1240,0,0
-91,-216,0,0,0,0,0,0,0,0,0,-1,1133,1240,0,0
-84,-216,0,0,0,0,0,0,0,0,0,-1,1140,1240,0,0
-77,-216,0,0,0,0,0,0,0,0,0,-1,1147,1240,0,0
-70,-216,0,0,0,0,0,0,0,0,0,-1,1154,1240,0,0
-63,-216,0,0,0,0,0,0,0,0,0,-1,1161,1240,0,0
-56,-216,0,0,0,0,0,0,0,0,0,-1,1168,1240,0,0
-49,-216,0,0,0,0,0,0,0,0,0,-1,1175,1240,0,0
-42,-216,0,0,0,0,0,0,0,0,0,-1,1182,1240,0,0
-35,-216,0,0,0,0,0,0,0,0,0,-1,1189,1240,0,0
-28,-216,0,0,0,0,0,0,0,0,0,-1,1196,1240,0,0
-21,-216,0,0,0,0,0,0,0,0,0,-1,1203,1240,0,0
-14,-216,0,0,0,0,0,0,0,0,0,-1,1210,1240,0,0
-7,-216,0,0,0,0,0,0,0,0,0,-1,1217,1240,0,0
0,-216,0,0,0,0,0,0,0,0,0,-1,1224,1240,0,0
7,-216,0,0,0,0,0,0,0,0,0,-1,1231,1240,0,0
14,-216,0,0,0,0,0,0,0,0,0,-1,1238,1240,0,0
21,-216,0,0,0,0,0,0,0,0,0,-1,1245,1240,0,0
28,-216,0,0,0,0,0,0,0,0,0,-1,1252,1240,0,0
35,-216,0,0,0,0,0,0,0,0,0,-1,1259,1240,0,0
42,-216,0,0,0,0,0,0,0,0,0,-1,1266,1240,0,0
49,-216,0,0,0,0,0,0,0,0,0,-1,1273,1240,0,0
56,-216,0,0,0,0,0,0,0,0,0,-1,1280,1240,0,0
63,-216,0,0,0,0,0,0,0,0,0,-1,1287,1240,0,0
70,-216,0,0,0,0,0,0,0,0,0,-1,1294,1240,0,0
77,-216,0,0,0,0,0,0,0,0,0,-1,1301,1240,0,0
84,-216,0,0,0,0,0,0,0,0,0,-1,1308,1240,0,0
91,-216,0,0,0,0,0,0,0,0,0,-1,1315,1240,0,0
98,-216,0,0,0,0,0,0,0,0,0,-1,1322,1240,0,0
105,-216,0,0,0,0,0,0,0,0,0,-1,1329,1240,0,0
112,-216,0,0,0,0,0,0,0,0,0,-1,1336,1240,0,0
119,-216,0,0,0,0,0,0,0,0,0,-1,1343,1240,0,0
126,-216,0,0,0,0,0,0,0,0,0,-1,1350,1240,0,0
133,-216,0,0,0,0,0,0,0,0,0,-1,1357,1240,0,0
140,-216,0,0,0,0,0,0,0,0,0,-1,1364,1240,0,0
147,-216,0,0,0,0,0,0,0,0,0,-1,1371,1240,0,0
154,-216,0,0,0,0,0,0,0,0,0,-1,1378,1240,0,0
161,-216,0,0,0,0,0,0,0,0,0,-1,1385,1240,0,0
168,-216,0,0,0,0,0,0,0,0,0,-1,1392,1240,0,0
175,-216,0,0,0,0,0,0,0,0,0,-1,1399,1240,0,0
182,-216,0,0,0,0,0,0,0,0,0,-1,1406,1240,0,0
189,-216,0,0,0,0,0,0,0,0,0,-1,1413,1240,0,0
196,-216,0,0,0,0,0,0,0,0,0,-1,1420,1240,0,0
203,-216,0,0,0,0,0,0,0,0,0,-1,1427,1240,0,0
210,-216,0,0,0,0,0,0,0,0,0,-1,1434,1240,0,0
217,-216,0,0,0,0,0,0,0,0,0,-1,1441,1240,0,0
224,-216,0,0,0,0,0,0,0,0,0,-1,1448,1240,0,0
231,-216,0,0,0,0,0,0,0,0,0,-1,1455,1240,0,0
238,-216,0,0,0,0,0,0,0,0,0,-1,1462,1240,0,0
245,-216,0,0,0,0,0,0,0,0,0,-1,1469,1240,0,0
252,-216,0,0,0,0,0,0,0,0,0,-1,1476,1240,0,0
259,-216,0,0,0,0,0,0,0,0,0,-1,1483,1240,0,0
266,-216,0,0,0,0,0,0,0,0,0,-1,1490,1240,0,0
273,-216,0,0,0,0,0,0,0,0,0,-1,1497,1240,0,0
280,-216,0,0,0,0,0,0,0,0,0,-1,1504,1240,0,0
287,-216,0,0,0,0,0,0,0,0,0,-1,1511,1240,0,0
294,-216,0,0,0,0,0,0,0,0,0,-1,1518,1240,0,0
301,-216,0,0,0,0,0,0,0,0,0,-1,1525,1240,0,0
308,-216,0,0,0,0,0,0,0,0,0,-1,1532,1240,0,0
315,-216,0,0,0,0,0,0,0,0,0,-1,1539,1240,0,0
322,-216,0,0,0,0,0,0,0,0,0,-1,1546,1240,0,0
329,-216,0,0,0,0,0,0,0,0,0,-1,1553,1240,0,0
336,-216,0,0,0,0,0,0,0,0,0,-1,1560,1240,0,0
343,-216,0,0,0,0,0,0,0,0,0,-1,1567,1240,0,0
350,-216,0,0,0,0,0,0,0,0,0,-1,1574,1240,0,0
357,-216,0,0,0,0,0,0,0,0,0,-1,1581,1240,0,0
364,-216,0,0,0,0,0,0,0,0,0,-1,1588,1240,0,0
371,-216,0,0,0,0,0,0,0,0,0,-1,1595,1240,0,0
378,-216,0,0,0,0,0,0,0,0,0,-1,1602,1240,0,0
385,-216,0,0,0,0,0,0,0,0,0,-1,1609,1240,0,0
392,-216,0,0,0,0,0,0,0,0,0,-1,1616,1240,0,0
399,-216,0,0,0,0,0,0,0,0,0,-1,1623,1240,0,0
406,-216,0,0,0,0,0,0,0,0,0,-1,1630,1240,0,0
413,-216,0,0,0,0,0,0,0,0,0,-1,1637,1240,0,0
420,-216,0,0,0,0,0,0,0,0,0,-1,1644,1240,0,0
427,-216,0,0,0,0,0,0,0,0,0,-1,1651,1240,0,0
434,-216,0,0,0,0,0,0,0,0,0,-1,1658,1240,0,0
441,-216,0,0,0,0,0,0,0,0,0,-1,1665,1240,0,0
448,-216,0,0,0,0,0,0,0,0,0,-1,1672,1240,0,0
455,-216,0,0,0,0,0,0,0,0,0,-1,1679,1240,0,0
462,-216,0,0,0,0,0,0,0,0,0,-1,1686,1240,0,0
469,-216,0,0,0,0,0,0,0,0,0,-1,1693,1240,0,0
476,-216,0,0,0,0,0,0,0,0,0,-1,1700,1240,0,0
483,-216,0,0,0,0,0,0,0,0,0,-1,1707,1240,0,0
490,-216,0,0,0,0,0,0,0,0,0,-1,1714,1240,0,0
497,-216,0,0,0,0,0,0,0,0,0,-1,1721,1240,0,0
504,-216,0,0,0,0,0,0,0,0,0,-1,1728,1240,0,0
511,-216,0,0,0,0,0,0,0,0,0,-1,1735,1240,0,0
518,-216,0,0,0,0,0,0,0,0,0,-1,1742,1240,0,0
525,-216,0,0,0,0,0,0,0,0,0,-1,1749,1240,0,0
532,-216,0,0,0,0,0,0,0,0,0,-1,1756,1240,0,0
539,-216,0,0,0,0,0,0,0,0,0,-1,1763,1240,0,0
546,-216,0,0,0,0,0,0,0,0,0,-1,1770,1240,0,0
553,-216,0,0,0,0,0,0,0,0,0,-1,1777,1240,0,0
560,-216,0,0,0,0,0,0,0,0,0,-1,1784,1240,0,0
567,-216,0,0,0,0,0,0,0,0,0,-1,1791,1240,0,0
574,-216,0,0,0,0,0,0,0,0,0,-1,1798,1240,0,0
581,-216,0,0,0,0,0,0,0,0,0,-1,1805,1240,0,0
588,-216,0,0,0,0,0,0,0,0,0,-1,1812,1240,0,0
595,-216,0,0,0,0,0,0,0,0,0,-1,1819,1240,0,0
602,-216,0,0,0,0,0,0,0,0,0,-1,1826,1240,0,0
609,-216,0,0,0,0,0,0,0,0,0,-1,1833,1240,0,0
616,-216,0,0,0,0,0,0,0,0,0,-1,1840,1240,0,0
623,-216,40.4073,2.80872,0.00841159,0.00321306,-0.00106468,0.00862119,0.00300346,-0.19438,0.00505315,0.0379231,1847,1240,40.4074,-2.80866
630,-216,40.5319,2.63342,0.00332088,0.00303432,-0.00142088,0.00460569,0.00174951,-0.735149,0.00268456,0.0354861,1854,1240,40.5318,-2.63346
637,-216,40.6086,2.57898,-0.0012217,0.00296062,-0.00197378,0.00374501,-0.00200608,-1.19253,0.00337061,0.0315302,1861,1240,40.6086,-2.57903
644,-216,40.5885,2.6217,-0.004017,0.00283699,-0.00243829,0.00361589,-0.0047959,-1.2616,0.00487245,0.0252206,1868,1240,40.5886,-2.62171
651,-216,40.5916,2.69373,-0.00427848,0.00258005,-0.00281237,0.00358579,-0.00528422,-1.22736,0.0051523,0.023342,1875,1240,40.5915,-2.69378
658,-216,40.6545,2.77161,-0.00347143,0.00213713,-0.00286504,0.0033419,-0.0046762,-1.17274,0.00465057,0.0370297,1882,1240,40.6545,-2.7716
665,-216,40.9517,2.74438,-0.00257632,0.00165332,-0.0026006,0.00289045,-0.00381346,-1.12677,0.00388271,0.0490576,1889,1240,40.9517,-2.74434
672,-216,40.9658,2.40051,-0.00183372,0.00109005,-0.00229565,0.00234976,-0.00309344,-1.06892,0.00315239,0.0468633,1896,1240,40.9658,-2.40053
679,-216,40.9977,2.1864,0,0,0,0,0,0,0,-1,1903,1240,40.9976,-2.18639
686,-216,21.5172,6.19458,0,0,0,0,0,0,0,-1,1910,1240,21.5172,-6.19453
693,-216,32.8425,8.27393,0,0,0,0,0,0,0,-1,1917,1240,32.8425,-8.27387
700,-216,32.6918,7.98169,0.000795396,-0.000735349,-0.00102661,0.00131054,-0.00125049,-0.465079,0.00147874,0.0387351,1924,1240,32.6917,-7.98172
707,-216,32.6945,7.53247,0.00141166,-0.00137041,-0.000496147,0.00149749,-0.00145625,-0.171304,0.0017054,0.0289078,1931,1240,32.6944,-7.5325
714,-216,32.7368,7.12976,0.00116048,-0.00114136,0.000148797,0.00117006,-0.00115094,0.0642858,0.00134005,0.0138656,1938,1240,32.7368,-7.12974
721,-216,32.7437,6.79236,0.000766917,-0.000903783,0.00104007,0.00126557,-0.00140243,0.447064,0.00154105,0.012011,1945,1240,32.7436,-6.79235
728,-216,32.7734,6.44006,0.000803894,-0.000629275,0.0017197,0.00195033,-0.00177571,0.587991,0.00215202,0.0113457,1952,1240,32.7734,-6.44007
735,-216,32.7826,6.09619,0.00144286,0.000242669,0.00167179,0.002619,-0.000933469,0.613083,0.00212658,0.0123424,1959,1240,32.7825,-6.09624
742,-216,32.7207,5.7749,0.00255692,0.0016669,0.00154844,0.00372302,0.000500793,0.645472,0.00233307,0.0135755,1966,1240,32.7207,-5.77488
749,-216,32.6873,5.40466,0.00430469,0.00324736,0.00135052,0.00522633,0.00232572,0.598839,0.0030235,0.0110845,1973,1240,32.6873,-5.4046
756,-216,32.6676,5.03882,0.00678347,0.00535526,0.000912876,0.00722837,0.00491037,0.453484,0.00426183,0.0115319,1980,1240,32.6676,-5.03887
763,-216,32.6714,4.72339,0.0101601,0.00827848,0.00014249,0.0101709,0.00826775,0.0751547,0.00624364,0.0180792,1987,1240,32.6714,-4.72343
770,-216,32.8722,4.50952,0.0142004,0.0124522,-0.000868753,0.0145587,0.0120939,-0.391171,0.00899743,0.0389198,1994,1240,32.8722,-4.5095
777,-216,33.1301,4.29358,0,0,0,0,0,0,0,-1,2001,1240,33.1302,-4.29354
784,-216,42.4829,-1.97656,0,0,0,0,0,0,0,-1,2008,1240,42.4828,1.97653
791,-216,41.0908,0.603882,0,0,0,0,0,0,0,-1,2015,1240,41.0908,-0.603931
798,-216,0,0,0,0,0,0,0,0,0,-1,2022,1240,0,0
805,-216,0,0,0,0,0,0,0,0,0,-1,2029,1240,0,0
812,-216,0,0,0,0,0,0,0,0,0,-1,2036,1240,0,0
-700,-223,0,0,0,0,0,0,0,0,0,-1,524,1247,0,0
-693,-223,0,0,0,0,0,0,0,0,0,-1,531,1247,0,0
-686,-223,0,0,0,0,0,0,0,0,0,-1,538,1247,0,0
-679,-223,0,0,0,0,0,0,0,0,0,-1,545,1247,0,0
-672,-223,-27.3607,-5.83301,0.0745722,-0.0247085,0.0240679,0.0800991,-0.0302355,0.225726,0.0658344,0.0480589,552,1247,-27.3606,5.83304
-665,-223,-26.319,-4.76001,0.0675641,-0.0186657,0.0211911,0.0724904,-0.023592,0.228414,0.0578182,0.0440079,559,1247,-26.319,4.75997
-658,-223,-25.2071,-2.63916,0.0597954,-0.0141286,0.0181973,0.0640321,-0.0183653,0.228745,0.0499483,0.0485737,566,1247,-25.2071,2.63918
-651,-223,-23.6844,-0.876465,0,0,0,0,0,0,0,-1,573,1247,-23.6844,0.876432
-644,-223,-20.6571,0.174194,0,0,0,0,0,0,0,-1,580,1247,-20.6571,-0.174181
-637,-223,-20.7845,1.18652,0.0349685,-0.00528313,0.00972819,0.0371964,-0.00751098,0.225127,0.0276435,0.0487594,587,1247,-20.7845,-1.1865
-630,-223,-20.6854,1.86426,0.0272814,-0.00362327,0.00752026,0.0290142,-0.00535607,0.226466,0.0213532,0.0421391,594,1247,-20.6855,-1.86428
-623,-223,-20.5693,2.4104,0.0205904,-0.0022437,0.00570001,0.0219342,-0.0035875,0.231525,0.0159537,0.0218329,601,1247,-20.5693,-2.41043
-616,-223,-20.5856,2.84058,0.0151536,-0.00110903,0.00376518,0.015983,-0.00193846,0.216826,0.0113568,0.0157223,608,1247,-20.5856,-2.84059
-609,-223,-20.574,3.23499,0.0100915,-4.24808e-05,0.00235541,0.0106122,-0.000563189,0.21757,0.00726978,0.0118892,615,1247,-20.574,-3.23499
-602,-223,-20.5891,3.60156,0.00581307,0.000263867,0.00156689,0.00622494,-0.000147998,0.25704,0.00420016,0.014507,622,1247,-20.5891,-3.60159
-595,-223,-20.5856,4.01868,0.00406608,0.000370311,0.00154747,0.00462846,-0.000192062,0.348575,0.00315161,0.0209431,629,1247,-20.5856,-4.0187
-588,-223,-20.5914,4.43201,0.00427974,0.000418909,0.00191176,0.00506619,-0.000367535,0.390271,0.0035064,0.0242613,636,1247,-20.5915,-4.43196
-581,-223,-20.6459,4.8175,0.00482974,0.000325567,0.00240765,0.00587442,-0.000719116,0.409386,0.00417668,0.0214643,643,1247,-20.6459,-4.81754
-574,-223,-20.6123,5.29749,0.00464173,0.000535077,0.00321616,0.00640414,-0.00122733,0.501295,0.00473189,0.0211348,650,1247,-20.6123,-5.29751
-567,-223,-20.3531,5.84766,0.00395938,0.00099272,0.00378708,0.00654326,-0.00159116,0.598741,0.00497806,0.0355309,657,1247,-20.3531,-5.84767
-560,-223,-20.2551,6.41748,0,0,0,0,0,0,0,-1,664,1247,-20.2551,-6.41744
-553,-223,-11.4025,4.14722,0,0,0,0,0,0,0,-1,671,1247,-11.4025,-4.14719
-546,-223,-26.9034,-0.148682,0,0,0,0,0,0,0,-1,678,1247,-26.9034,0.14867
-539,-223,-29.1941,0.667236,0,0,0,0,0,0,0,-1,685,1247,-29.1941,-0.667296
-532,-223,-28.5451,0.688354,0,0,0,0,0,0,0,-1,692,1247,-28.5451,-0.688316
-525,-223,-29.2113,0.641602,0,0,0,0,0,0,0,-1,699,1247,-29.2113,-0.641599
-518,-223,-29.3768,0.931519,-0.00470972,0.00629664,0.00720511,0.0098598,-0.00827288,1.11153,0.0104823,0.0481413,706,1247,-29.3768,-0.931472
-511,-223,-29.5403,1.08203,-0.00662766,0.00669333,0.00761185,0.0101473,-0.0100816,1.14482,0.0116792,0.0389187,713,1247,-29.5403,-1.08204
-504,-223,-29.4899,1.19592,-0.00616577,0.00485609,0.00792489,0.00899784,-0.0103075,1.08921,0.0111545,0.0391719,720,1247,-29.4898,-1.19597
-497,-223,0,0,0,0,0,0,0,0,0,-1,727,1247,0,0
-490,-223,0,0,0,0,0,0,0,0,0,-1,734,1247,0,0
-483,-223,0,0,0,0,0,0,0,0,0,-1,741,1247,0,0
-476,-223,0,0,0,0,0,0,0,0,0,-1,748,1247,0,0
-469,-223,0,0,0,0,0,0,0,0,0,-1,755,1247,0,0
-462,-223,0,0,0,0,0,0,0,0,0,-1,762,1247,0,0
-455,-223,0,0,0,0,0,0,0,0,0,-1,769,1247,0,0
-448,-223,0,0,0,0,0,0,0,0,0,-1,776,1247,0,0
-441,-223,0,0,0,0,0,0,0,0,0,-1,783,1247,0,0
-434,-223,0,0,0,0,0,0,0,0,0,-1,790,1247,0,0
-427,-223,0,0,0,0,0,0,0,0,0,-1,797,1247,0,0
-420,-223,0,0,0,0,0,0,0,0,0,-1,804,1247,0,0
-413,-223,0,0,0,0,0,0,0,0,0,-1,811,1247,0,0
-406,-223,0,0,0,0,0,0,0,0,0,-1,818,1247,0,0
-399,-223,0,0,0,0,0,0,0,0,0,-1,825,1247,0,0
-392,-223,0,0,0,0,0,0,0,0,0,-1,832,1247,0,0
-385,-223,0,0,0,0,0,0,0,0,0,-1,839,1247,0,0
-378,-223,0,0,0,0,0,0,0,0,0,-1,846,1247,0,0
-371,-223,0,0,0,0,0,0,0,0,0,-1,853,1247,0,0
-364,-223,0,0,0,0,0,0,0,0,0,-1,860,1247,0,0
-357,-223,0,0,0,0,0,0,0,0,0,-1,867,1247,0,0
-350,-223,0,0,0,0,0,0,0,0,0,-1,874,1247,0,0
-343,-223,0,0,0,0,0,0,0,0,0,-1,881,1247,0,0
-336,-223,0,0,0,0,0,0,0,0,0,-1,888,1247,0,0
-329,-223,0,0,0,0,0,0,0,0,0,-1,895,1247,0,0
-322,-223,0,0,0,0,0,0,0,0,0,-1,902,1247,0,0
-315,-223,0,0,0,0,0,0,0,0,0,-1,909,1247,0,0
-308,-223,0,0,0,0,0,0,0,0,0,-1,916,1247,0,0
-301,-223,0,0,0,0,0,0,0,0,0,-1,923,1247,0,0
-294,-223,0,0,0,0,0,0,0,0,0,-1,930,1247,0,0
-287,-223,0,0,0,0,0,0,0,0,0,-1,937,1247,0,0
-280,-223,0,0,0,0,0,0,0,0,0,-1,944,1247,0,0
-273,-223,0,0,0,0,0,0,0,0,0,-1,951,1247,0,0
-266,-223,0,0,0,0,0,0,0,0,0,-1,958,1247,0,0
-259,-223,0,0,0,0,0,0,0,0,0,-1,965,1247,0,0
-252,-223,0,0,0,0,0,0,0,0,0,-1,972,1247,0,0
-245,-223,0,0,0,0,0,0,0,0,0,-1,979,1247,0,0
-238,-223,0,0,0,0,0,0,0,0,0,-1,986,1247,0,0
-231,-223,0,0,0,0,0,0,0,0,0,-1,993,1247,0,0
-224,-223,0,0,0,0,0,0,0,0,0,-1,1000,1247,0,0
-217,-223,0,0,0,0,0,0,0,0,0,-1,1007,1247,0,0
-210,-223,0,0,0,0,0,0,0,0,0,-1,1014,1247,0,0
-203,-223,0,0,0,0,0,0,0,0,0,-1,1021,1247,0,0
-196,-223,0,0,0,0,0,0,0,0,0,-1,1028,1247,0,0
-189,-223,0,0,0,0,0,0,0,0,0,-1,1035,1247,0,0
-182,-223,0,0,0,0,0,0,0,0,0,-1,1042,1247,0,0
-175,-223,0,0,0,0,0,0,0,0,0,-1,1049,1247,0,0
-168,-223,0,0,0,0,0,0,0,0,0,-1,1056,1247,0,0
-161,-223,0,0,0,0,0,0,0,0,0,-1,1063,1247,0,0
-154,-223,0,0,0,0,0,0,0,0,0,-1,1070,1247,0,0
-147,-223,0,0,0,0,0,0,0,0,0,-1,1077,1247,0,0
-140,-223,0,0,0,0,0,0,0,0,0,-1,1084,1247,0,0
-133,-223,0,0,0,0,0,0,0,0,0,-1,1091,1247,0,0
-126,-223,0,0,0,0,0,0,0,0,0,-1,1098,1247,0,0
-119,-223,0,0,0,0,0,0,0,0,0,-1,1105,1247,0,0
-112,-223,0,0,0,0,0,0,0,0,0,-1,1112,1247,0,0
-105,-223,0,0,0,0,0,0,0,0,0,-1,1119,1247,0,0
-98,-223,0,0,0,0,0,0,0,0,0,-1,1126,1247,0,0
-91,-223,0,0,0,0,0,0,0,0,0,-1,1133,1247,0,0
-84,-223,0,0,0,0,0,0,0,0,0,-1,1140,1247,0,0
-77,-223,0,0,0,0,0,0,0,0,0,-1,1147,1247,0,0
-70,-223,0,0,0,0,0,0,0,0,0,-1,1154,1247,0,0
-63,-223,0,0,0,0,0,0,0,0,0,-1,1161,1247,0,0
-56,-223,0,0,0,0,0,0,0,0,0,-1,1168,1247,0,0
-49,-223,0,0,0,0,0,0,0,0,0,-1,1175,1247,0,0
-42,-223,0,0,0,0,0,0,0,0,0,-1,1182,1247,0,0
-35,-223,0,0,0,0,0,0,0,0,0,-1,1189,1247,0,0
-28,-223,0,0,0,0,0,0,0,0,0,-1,1196,1247,0,0
-21,-223,0,0,0,0,0,0,0,0,0,-1,1203,1247,0,0
-14,-223,0,0,0,0,0,0,0,0,0,-1,1210,1247,0,0
-7,-223,0,0,0,0,0,0,0,0,0,-1,1217,1247,0,0
0,-223,0,0,0,0,0,0,0,0,0,-1,1224,1247,0,0
7,-223,0,0,0,0,0,0,0,0,0,-1,1231,1247,0,0
14,-223,0,0,0,0,0,0,0,0,0,-1,1238,1247,0,0
21,-223,0,0,0,0,0,0,0,0,0,-1,1245,1247,0,0
28,-223,0,0,0,0,0,0,0,0,0,-1,1252,1247,0,0
35,-223,0,0,0,0,0,0,0,0,0,-1,1259,1247,0,0
42,-223,0,0,0,0,0,0,0,0,0,-1,1266,1247,0,0
49,-223,0,0,0,0,0,0,0,0,0,-1,1273,1247,0,0
56,-223,0,0,0,0,0,0,0,0,0,-1,1280,1247,0,0
63,-223,0,0,0,0,0,0,0,0,0,-1,1287,1247,0,0
70,-223,0,0,0,0,0,0,0,0,0,-1,1294,1247,0,0
77,-223,0,0,0,0,0,0,0,0,0,-1,1301,1247,0,0
84,-223,0,0,0,0,0,0,0,0,0,-1,1308,1247,0,0
91,-223,0,0,0,0,0,0,0,0,0,-1,1315,1247,0,0
98,-223,0,0,0,0,0,0,0,0,0,-1,1322,1247,0,0
105,-223,0,0,0,0,0,0,0,0,0,-1,1329,1247,0,0
112,-223,0,0,0,0,0,0,0,0,0,-1,1336,1247,0,0
119,-223,0,0,0,0,0,0,0,0,0,-1,1343,1247,0,0
126,-223,0,0,0,0,0,0,0,0,0,-1,1350,1247,0,0
133,-223,0,0,0,0,0,0,0,0,0,-1,1357,1247,0,0
140,-223,0,0,0,0,0,0,0,0,0,-1,1364,1247,0,0
147,-223,0,0,0,0,0,0,0,0,0,-1,1371,1247,0,0
154,-223,0,0,0,0,0,0,0,0,0,-1,1378,1247,0,0
161,-223,0,0,0,0,0,0,0,0,0,-1,1385,1247,0,0
168,-223,0,0,0,0,0,0,0,0,0,-1,1392,1247,0,0
175,-223,0,0,0,0,0,0,0,0,0,-1,1399,1247,0,0
182,-223,0,0,0,0,0,0,0,0,0,-1,1406,1247,0,0
189,-223,0,0,0,0,0,0,0,0,0,-1,1413,1247,0,0
196,-223,0,0,0,0,0,0,0,0,0,-1,1420,1247,0,0
203,-223,0,0,0,0,0,0,0,0,0,-1,1427,1247,0,0
210,-223,0,0,0,0,0,0,0,0,0,-1,1434,1247,0,0
217,-223,0,0,0,0,0,0,0,0,0,-1,1441,1247,0,0
224,-223,0,0,0,0,0,0,0,0,0,-1,1448,1247,0,0
231,-223,0,0,0,0,0,0,0,0,0,-1,1455,1247,0,0
238,-223,0,0,0,0,0,0,0,0,0,-1,1462,1247,0,0
245,-223,0,0,0,0,0,0,0,0,0,-1,1469,1247,0,0
252,-223,0,0,0,0,0,0,0,0,0,-1,1476,1247,0,0
259,-223,0,0,0,0,0,0,0,0,0,-1,1483,1247,0,0
266,-223,0,0,0,0,0,0,0,0,0,-1,1490,1247,0,0
273,-223,0,0,0,0,0,0,0,0,0,-1,1497,1247,0,0
280,-223,0,0,0,0,0,0,0,0,0,-1,1504,1247,0,0
287,-223,0,0,0,0,0,0,0,0,0,-1,1511,1247,0,0
294,-223,0,0,0,0,0,0,0,0,0,-1,1518,1247,0,0
301,-223,0,0,0,0,0,0,0,0,0,-1,1525,1247,0,0
308,-223,0,0,0,0,0,0,0,0,0,-1,1532,1247,0,0
315,-223,0,0,0,0,0,0,0,0,0,-1,1539,1247,0,0
322,-223,0,0,0,0,0,0,0,0,0,-1,1546,1247,0,0
329,-223,0,0,0,0,0,0,0,0,0,-1,1553,1247,0,0
336,-223,0,0,0,0,0,0,0,0,0,-1,1560,1247,0,0
343,-223,0,0,0,0,0,0,0,0,0,-1,1567,1247,0,0
350,-223,0,0,0,0,0,0,0,0,0,-1,1574,1247,0,0
357,-223,0,0,0,0,0,0,0,0,0,-1,1581,1247,0,0
364,-223,0,0,0,0,0,0,0,0,0,-1,1588,1247,0,0
371,-223,0,0,0,0,0,0,0,0,0,-1,1595,1247,0,0
378,-223,0,0,0,0,0,0,0,0,0,-1,1602,1247,0,0
385,-223,0,0,0,0,0,0,0,0,0,-1,1609,1247,0,0
392,-223,0,0,0,0,0,0,0,0,0,-1,1616,1247,0,0
399,-223,0,0,0,0,0,0,0,0,0,-1,1623,1247,0,0
406,-223,0,0,0,0,0,0,0,0,0,-1,1630,1247,0,0
413,-223,0,0,0,0,0,0,0,0,0,-1,1637,1247,0,0
420,-223,0,0,0,0,0,0,0,0,0,-1,1644,1247,0,0
427,-223,0,0,0,0,0,0,0,0,0,-1,1651,1247,0,0
434,-223,0,0,0,0,0,0,0,0,0,-1,1658,1247,0,0
441,-223,0,0,0,0,0,0,0,0,0,-1,1665,1247,0,0
448,-223,0,0,0,0,0,0,0,0,0,-1,1672,1247,0,0
455,-223,0,0,0,0,0,0,0,0,0,-1,1679,1247,0,0
462,-223,0,0,0,0,0,0,0,0,0,-1,1686,1247,0,0
469,-223,0,0,0,0,0,0,0,0,0,-1,1693,1247,0,0
476,-223,0,0,0,0,0,0,0,0,0,-1,1700,1247,0,0
483,-223,0,0,0,0,0,0,0,0,0,-1,1707,1247,0,0
490,-223,0,0,0,0,0,0,0,0,0,-1,1714,1247,0,0
497,-223,0,0,0,0,0,0,0,0,0,-1,1721,1247,0,0
504,-223,0,0,0,0,0,0,0,0,0,-1,1728,1247,0,0
511,-223,0,0,0,0,0,0,0,0,0,-1,1735,1247,0,0
518,-223,0,0,0,0,0,0,0,0,0,-1,1742,1247,0,0
525,-223,0,0,0,0,0,0,0,0,0,-1,1749,1247,0,0
532,-223,0,0,0,0,0,0,0,0,0,-1,1756,1247,0,0
539,-223,0,0,0,0,0,0,0,0,0,-1,1763,1247,0,0
546,-223,0,0,0,0,0,0,0,0,0,-1,1770,1247,0,0
553,-223,0,0,0,0,0,0,0,0,0,-1,1777,1247,0,0
560,-223,0,0,0,0,0,0,0,0,0,-1,1784,1247,0,0
567,-223,0,0,0,0,0,0,0,0,0,-1,1791,1247,0,0
574,-223,0,0,0,0,0,0,0,0,0,-1,1798,1247,0,0
581,-223,0,0,0,0,0,0,0,0,0,-1,1805,1247,0,0
588,-223,0,0,0,0,0,0,0,0,0,-1,1812,1247,0,0
595,-223,0,0,0,0,0,0,0,0,0,-1,1819,1247,0,0
602,-223,0,0,0,0,0,0,0,0,0,-1,1826,1247,0,0
609,-223,0,0,0,0,0,0,0,0,0,-1,1833,1247,0,0
616,-223,0,0,0,0,0,0,0,0,0,-1,1840,1247,0,0
623,-223,40.4323,2.76685,0.00762371,0.00271118,-0.00121726,0.00790878,0.0024261,-0.23005,0.00467843,0.0396785,1847,1247,40.4322,-2.76684
630,-223,40.4911,2.61365,0.00126852,0.00231008,-0.00148882,0.00336658,0.000212024,-0.953645,0.00217715,0.0365146,1854,1247,40.491,-2.61363
637,-223,40.5754,2.65295,-0.00461116,0.00213668,-0.0019508,0.00266007,-0.00513454,-1.30868,0.00457518,0.0293293,1861,1247,40.5754,-2.65301
644,-223,40.5764,2.66785,-0.00741763,0.00202595,-0.00219823,0.00251256,-0.00790425,-1.35294,0.00627695,0.0226932,1868,1247,40.5764,-2.66782
651,-223,40.6096,2.71667,-0.00727413,0.0018964,-0.00246055,0.00251488,-0.00789261,-1.32454,0.00627046,0.0304742,1875,1247,40.6096,-2.71672
658,-223,40.7476,2.87122,0,0,0,0,0,0,0,-1,1882,1247,40.7476,-2.87118
665,-223,41.0901,2.79382,0,0,0,0,0,0,0,-1,1889,1247,41.09,-2.79385
672,-223,41.1096,2.28076,0,0,0,0,0,0,0,-1,1896,1247,41.1097,-2.28074
679,-223,39.4407,3.02966,0,0,0,0,0,0,0,-1,1903,1247,39.4406,-3.02966
686,-223,32.5439,8.47046,0,0,0,0,0,0,0,-1,1910,1247,32.5439,-8.47041
693,-223,32.5225,8.16602,-0.00128917,0.000743041,-0.0014211,0.00147393,-0.00202006,-1.09576,0.00202545,0.0415541,1917,1247,32.5224,-8.16602
700,-223,32.4445,7.83557,0.000234081,-0.000582715,-0.0010249,0.000928955,-0.00127759,-0.595802,0.00127924,0.0210141,1924,1247,32.4444,-7.83558
707,-223,32.3639,7.50916,0.0012763,-0.00135563,-0.000580932,0.00139883,-0.00147816,-0.20786,0.00166124,0.0163215,1931,1247,32.3638,-7.50921
714,-223,32.3848,7.15186,0.00122984,-0.00100128,1.13903e-06,0.00122984,-0.00100128,0.000510521,0.00129039,0.0112882,1938,1247,32.3847,-7.15182
721,-223,32.4102,6.79236,0.000909087,-0.000652469,0.000862178,0.00129148,-0.00103486,0.417451,0.00134583,0.0142651,1945,1247,32.4101,-6.79242
728,-223,32.4116,6.43982,0.00101996,-0.000243283,0.00148733,0.00200423,-0.00122755,0.584604,0.00188374,0.017297,1952,1247,32.4117,-6.43987
735,-223,32.4042,6.11682,0.00177689,0.000680213,0.00161684,0.00293585,-0.000478741,0.621913,0.00213478,0.0166377,1959,1247,32.4042,-6.11682
742,-223,32.3523,5.79565,0.00311316,0.00187558,0.00178489,0.00438348,0.000605257,0.61854,0.00274292,0.0142117,1966,1247,32.3523,-5.7956
749,-223,32.3251,5.39587,0.00518644,0.00329998,0.00191708,0.00637977,0.00210665,0.556779,0.00375349,0.0123914,1973,1247,32.3251,-5.39589
756,-223,32.2885,5.0155,0.00833456,0.00514938,0.00197093,0.00927592,0.00420802,0.445585,0.00536312,0.0157672,1980,1247,32.2884,-5.01556
763,-223,32.2906,4.69617,0.0129177,0.00758164,0.00204984,0.0136143,0.00688512,0.327553,0.00786037,0.0199853,1987,1247,32.2906,-4.69616
770,-223,32.4459,4.55139,0.0190739,0.0108429,0.0025086,0.0197782,0.0101386,0.273705,0.0114201,0.0403347,1994,1247,32.446,-4.55136
777,-223,32.5939,4.40308,0,0,0,0,0,0,0,-1,2001,1247,32.5938,-4.40303
784,-223,35.1801,2.14172,0,0,0,0,0,0,0,-1,2008,1247,35.1801,-2.14178
791,-223,34.7136,2.92554,0,0,0,0,0,0,0,-1,2015,1247,34.7137,-2.92555
798,-223,0,0,0,0,0,0,0,0,0,-1,2022,1247,0,0
805,-223,0,0,0,0,0,0,0,0,0,-1,2029,1247,0,0
812,-223,0,0,0,0,0,0,0,0,0,-1,2036,1247,0,0
-700,-230,0,0,0,0,0,0,0,0,0,-1,524,1254,0,0
-693,-230,0,0,0,0,0,0,0,0,0,-1,531,1254,0,0
-686,-230,0,0,0,0,0,0,0,0,0,-1,538,1254,0,0
-679,-230,0,0,0,0,0,0,0,0,0,-1,545,1254,0,0
-672,-230,-27.2714,-4.64954,0.0938364,-0.0442942,0.0304992,0.100271,-0.0507287,0.207923,0.0887299,0.0489087,552,1254,-27.2714,4.64956
-665,-230,-26.2889,-3.22681,0.0843378,-0.0340526,0.0261408,0.0898528,-0.0395676,0.207924,0.0765779,0.0461266,559,1254,-26.2889,3.22678
-658,-230,-24.7583,-2.03992,0.074123,-0.0263009,0.0220196,0.0787389,-0.0309169,0.206639,0.0652858,0.0490806,566,1254,-24.7583,2.0399
-651,-230,-23.1403,-0.392456,0.0634996,-0.0200627,0.0181808,0.0672839,-0.023847,0.205216,0.0545703,0.0499179,573,1254,-23.1403,0.392427
-644,-230,-21.4962,1.24719,0,0,0,0,0,0,0,-1,580,1254,-21.4962,-1.24718
-637,-230,-20.1833,1.44189,0,0,0,0,0,0,0,-1,587,1254,-20.1833,-1.44188
-630,-230,-20.1526,1.88354,0.0330188,-0.00731318,0.0088112,0.0348597,-0.00915411,0.205968,0.0268171,0.0483373,594,1254,-20.1526,-1.88354
-623,-230,-20.1534,2.39478,0.0248517,-0.00466984,0.00665108,0.026281,-0.00609911,0.211673,0.0198682,0.027346,601,1254,-20.1534,-2.39479
-616,-230,-20.1708,2.83484,0.0181576,-0.0024315,0.00452588,0.0191085,-0.00338245,0.207102,0.0140033,0.0158192,608,1254,-20.1708,-2.83478
-609,-230,-20.158,3.24316,0.0122375,-0.000529159,0.00299116,0.0129036,-0.00119522,0.219102,0.00902721,0.0123849,615,1254,-20.158,-3.24318
-602,-230,-20.1654,3.62219,0.00726693,0.000219543,0.00206332,0.00782658,-0.000340109,0.264866,0.0053347,0.0123854,622,1254,-20.1654,-3.62222
-595,-230,-20.1979,4.02625,0.00501216,0.000597075,0.00185726,0.00568952,-8.02856e-05,0.349718,0.00382006,0.0193147,629,1254,-20.1979,-4.02624
-588,-230,-20.2224,4.46655,0.00499587,0.000729903,0.00210533,0.00585989,-0.000134119,0.389437,0.00395206,0.0271855,636,1254,-20.2224,-4.46651
-581,-230,-20.2392,4.86401,0.00551214,0.000688242,0.0025465,0.00660763,-0.00040725,0.406263,0.00454692,0.0250449,643,1254,-20.2392,-4.864
-574,-230,-20.2256,5.2373,0.00556506,0.000935621,0.00336342,0.0073333,-0.000832615,0.484015,0.00518872,0.0179904,650,1254,-20.2256,-5.23731
-567,-230,-19.9859,5.68835,0.00499403,0.00155945,0.00399109,0.00762161,-0.00106813,0.582231,0.00547198,0.0330369,657,1254,-19.9859,-5.68839
-560,-230,-19.6617,6.19031,0,0,0,0,0,0,0,-1,664,1254,-19.6617,-6.19032
-553,-230,-13.1939,4.9718,0,0,0,0,0,0,0,-1,671,1254,-13.1939,-4.97175
-546,-230,-15.23,0.453979,0,0,0,0,0,0,0,-1,678,1254,-15.23,-0.453996
-539,-230,-25.8232,0.512817,0,0,0,0,0,0,0,-1,685,1254,-25.8232,-0.512878
-532,-230,-21.1644,1.52966,0,0,0,0,0,0,0,-1,692,1254,-21.1644,-1.52969
-525,-230,-24.1401,0.738647,0,0,0,0,0,0,0,-1,699,1254,-24.1401,-0.738616
-518,-230,-29.3059,0.787354,0,0,0,0,0,0,0,-1,706,1254,-29.3059,-0.787364
-511,-230,-29.5043,1.0531,-0.00683521,0.00851225,0.00897489,0.0126468,-0.0109697,1.1391,0.0136464,0.0387008,713,1254,-29.5043,-1.05316
-504,-230,-29.5358,1.27246,-0.00786232,0.00868146,0.0100899,0.0134568,-0.0126376,1.12875,0.0150681,0.03784,720,1254,-29.5357,-1.27241
-497,-230,0,0,0,0,0,0,0,0,0,-1,727,1254,0,0
-490,-230,0,0,0,0,0,0,0,0,0,-1,734,1254,0,0
-483,-230,0,0,0,0,0,0,0,0,0,-1,741,1254,0,0
-476,-230,0,0,0,0,0,0,0,0,0,-1,748,1254,0,0
-469,-230,0,0,0,0,0,0,0,0,0,-1,755,1254,0,0
-462,-230,0,0,0,0,0,0,0,0,0,-1,762,1254,0,0
-455,-230,0,0,0,0,0,0,0,0,0,-1,769,1254,0,0
-448,-230,0,0,0,0,0,0,0,0,0,-1,776,1254,0,0
-441,-230,0,0,0,0,0,0,0,0,0,-1,783,1254,0,0
-434,-230,0,0,0,0,0,0,0,0,0,-1,790,1254,0,0
-427,-230,0,0,0,0,0,0,0,0,0,-1,797,1254,0,0
-420,-230,0,0,0,0,0,0,0,0,0,-1,804,1254,0,0
-413,-230,0,0,0,0,0,0,0,0,0,-1,811,1254,0,0
-406,-230,0,0,0,0,0,0,0,0,0,-1,818,1254,0,0
-399,-230,0,0,0,0,0,0,0,0,0,-1,825,1254,0,0
-392,-230,0,0,0,0,0,0,0,0,0,-1,832,1254,0,0
-385,-230,0,0,0,0,0,0,0,0,0,-1,839,1254,0,0
-378,-230,0,0,0,0,0,0,0,0,0,-1,846,1254,0,0
-371,-230,0,0,0,0,0,0,0,0,0,-1,853,1254,0,0
-364,-230,0,0,0,0,0,0,0,0,0,-1,860,1254,0,0
-357,-230,0,0,0,0,0,0,0,0,0,-1,867,1254,0,0
-350,-230,0,0,0,0,0,0,0,0,0,-1,874,1254,0,0
-343,-230,0,0,0,0,0,0,0,0,0,-1,881,1254,0,0
-336,-230,0,0,0,0,0,0,0,0,0,-1,888,1254,0,0
-329,-230,0,0,0,0,0,0,0,0,0,-1,895,1254,0,0
-322,-230,0,0,0,0,0,0,0,0,0,-1,902,1254,0,0
-315,-230,0,0,0,0,0,0,0,0,0,-1,909,1254,0,0
-308,-230,0,0,0,0,0,0,0,0,0,-1,916,1254,0,0
-301,-230,0,0,0,0,0,0,0,0,0,-1,923,1254,0,0
-294,-230,0,0,0,0,0,0,0,0,0,-1,930,1254,0,0
-287,-230,0,0,0,0,0,0,0,0,0,-1,937,1254,0,0
-280,-230,0,0,0,0,0,0,0,0,0,-1,944,1254,0,0
-273,-230,0,0,0,0,0,0,0,0,0,-1,951,1254,0,0
-266,-230,0,0,0,0,0,0,0,0,0,-1,958,1254,0,0
-259,-230,0,0,0,0,0,0,0,0,0,-1,965,1254,0,0
-252,-230,0,0,0,0,0,0,0,0,0,-1,972,1254,0,0
-245,-230,0,0,0,0,0,0,0,0,0,-1,979,1254,0,0
-238,-230,0,0,0,0,0,0,0,0,0,-1,986,1254,0,0
-231,-230,0,0,0,0,0,0,0,0,0,-1,993,1254,0,0
-224,-230,0,0,0,0,0,0,0,0,0,-1,1000,1254,0,0
-217,-230,0,0,0,0,0,0,0,0,0,-1,1007,1254,0,0
-210,-230,0,0,0,0,0,0,0,0,0,-1,1014,1254,0,0
-203,-230,0,0,0,0,0,0,0,0,0,-1,1021,1254,0,0
-196,-230,0,0,0,0,0,0,0,0,0,-1,1028,1254,0,0
-189,-230,0,0,0,0,0,0,0,0,0,-1,1035,1254,0,0
-182,-230,0,0,0,0,0,0,0,0,0,-1,1042,1254,0,0
-175,-230,0,0,0,0,0,0,0,0,0,-1,1049,1254,0,0
-168,-230,0,0,0,0,0,0,0,0,0,-1,1056,1254,0,0
-161,-230,0,0,0,0,0,0,0,0,0,-1,1063,1254,0,0
-154,-230,0,0,0,0,0,0,0,0,0,-1,1070,1254,0,0
-147,-230,0,0,0,0,0,0,0,0,0,-1,1077,1254,0,0
-140,-230,0,0,0,0,0,0,0,0,0,-1,1084,1254,0,0
-133,-230,0,0,0,0,0,0,0,0,0,-1,1091,1254,0,0
-126,-230,0,0,0,0,0,0,0,0,0,-1,1098,1254,0,0
-119,-230,0,0,0,0,0,0,0,0,0,-1,1105,1254,0,0
-112,-230,0,0,0,0,0,0,0,0,0,-1,1112,1254,0,0
-105,-230,0,0,0,0,0,0,0,0,0,-1,1119,1254,0,0
-98,-230,0,0,0,0,0,0,0,0,0,-1,1126,1254,0,0
-91,-230,0,0,0,0,0,0,0,0,0,-1,1133,1254,0,0
-84,-230,0,0,0,0,0,0,0,0,0,-1,1140,1254,0,0
-77,-230,0,0,0,0,0,0,0,0,0,-1,1147,1254,0,0
-70,-230,0,0,0,0,0,0,0,0,0,-1,1154,1254,0,0
-63,-230,0,0,0,0,0,0,0,0,0,-1,1161,1254,0,0
-56,-230,0,0,0,0,0,0,0,0,0,-1,1168,1254,0,0
-49,-230,0,0,0,0,0,0,0,0,0,-1,1175,1254,0,0
-42,-230,0,0,0,0,0,0,0,0,0,-1,1182,1254,0,0
-35,-230,0,0,0,0,0,0,0,0,0,-1,1189,1254,0,0
-28,-230,0,0,0,0,0,0,0,0,0,-1,1196,1254,0,0
-21,-230,0,0,0,0,0,0,0,0,0,-1,1203,1254,0,0
-14,-230,0,0,0,0,0,0,0,0,0,-1,1210,1254,0,0
-7,-230,0,0,0,0,0,0,0,0,0,-1,1217,1254,0,0
0,-230,0,0,0,0,0,0,0,0,0,-1,1224,1254,0,0
7,-230,0,0,0,0,0,0,0,0,0,-1,1231,1254,0,0
14,-230,0,0,0,0,0,0,0,0,0,-1,1238,1254,0,0
21,-230,0,0,0,0,0,0,0,0,0,-1,1245,1254,0,0
28,-230,0,0,0,0,0,0,0,0,0,-1,1252,1254,0,0
35,-230,0,0,0,0,0,0,0,0,0,-1,1259,1254,0,0
42,-230,0,0,0,0,0,0,0,0,0,-1,1266,1254,0,0
49,-230,0,0,0,0,0,0,0,0,0,-1,1273,1254,0,0
56,-230,0,0,0,0,0,0,0,0,0,-1,1280,1254,0,0
63,-230,0,0,0,0,0,0,0,0,0,-1,1287,1254,0,0
70,-230,0,0,0,0,0,0,0,0,0,-1,1294,1254,0,0
77,-230,0,0,0,0,0,0,0,0,0,-1,1301,1254,0,0
84,-230,0,0,0,0,0,0,0,0,0,-1,1308,1254,0,0
91,-230,0,0,0,0,0,0,0,0,0,-1,1315,1254,0,0
98,-230,0,0,0,0,0,0,0,0,0,-1,1322,1254,0,0
105,-230,0,0,0,0,0,0,0,0,0,-1,1329,1254,0,0
112,-230,0,0,0,0,0,0,0,0,0,-1,1336,1254,0,0
119,-230,0,0,0,0,0,0,0,0,0,-1,1343,1254,0,0
126,-230,0,0,0,0,0,0,0,0,0,-1,1350,1254,0,0
133,-230,0,0,0,0,0,0,0,0,0,-1,1357,1254,0,0
140,-230,0,0,0,0,0,0,0,0,0,-1,1364,1254,0,0
147,-230,0,0,0,0,0,0,0,0,0,-1,1371,1254,0,0
154,-230,0,0,0,0,0,0,0,0,0,-1,1378,1254,0,0
161,-230,0,0,0,0,0,0,0,0,0,-1,1385,1254,0,0
168,-230,0,0,0,0,0,0,0,0,0,-1,1392,1254,0,0
175,-230,0,0,0,0,0,0,0,0,0,-1,1399,1254,0,0
182,-230,0,0,0,0,0,0,0,0,0,-1,1406,1254,0,0
189,-230,0,0,0,0,0,0,0,0,0,-1,1413,1254,0,0
196,-230,0,0,0,0,0,0,0,0,0,-1,1420,1254,0,0
203,-230,0,0,0,0,0,0,0,0,0,-1,1427,1254,0,0
210,-230,0,0,0,0,0,0,0,0,0,-1,1434,1254,0,0
217,-230,0,0,0,0,0,0,0,0,0,-1,1441,1254,0,0
224,-230,0,0,0,0,0,0,0,0,0,-1,1448,1254,0,0
231,-230,0,0,0,0,0,0,0,0,0,-1,1455,1254,0,0
238,-230,0,0,0,0,0,0,0,0,0,-1,1462,1254,0,0
245,-230,0,0,0,0,0,0,0,0,0,-1,1469,1254,0,0
252,-230,0,0,0,0,0,0,0,0,0,-1,1476,1254,0,0
259,-230,0,0,0,0,0,0,0,0,0,-1,1483,1254,0,0
266,-230,0,0,0,0,0,0,0,0,0,-1,1490,1254,0,0
273,-230,0,0,0,0,0,0,0,0,0,-1,1497,1254,0,0
280,-230,0,0,0,0,0,0,0,0,0,-1,1504,1254,0,0
287,-230,0,0,0,0,0,0,0,0,0,-1,1511,1254,0,0
294,-230,0,0,0,0,0,0,0,0,0,-1,1518,1254,0,0
301,-230,0,0,0,0,0,0,0,0,0,-1,1525,1254,0,0
308,-230,0,0,0,0,0,0,0,0,0,-1,1532,1254,0,0
315,-230,0,0,0,0,0,0,0,0,0,-1,1539,1254,0,0
322,-230,0,0,0,0,0,0,0,0,0,-1,1546,1254,0,0
329,-230,0,0,0,0,0,0,0,0,0,-1,1553,1254,0,0
336,-230,0,0,0,0,0,0,0,0,0,-1,1560,1254,0,0
343,-230,0,0,0,0,0,0,0,0,0,-1,1567,1254,0,0
350,-230,0,0,0,0,0,0,0,0,0,-1,1574,1254,0,0
357,-230,0,0,0,0,0,0,0,0,0,-1,1581,1254,0,0
364,-230,0,0,0,0,0,0,0,0,0,-1,1588,1254,0,0
371,-230,0,0,0,0,0,0,0,0,0,-1,1595,1254,0,0
378,-230,0,0,0,0,0,0,0,0,0,-1,1602,1254,0,0
385,-230,0,0,0,0,0,0,0,0,0,-1,1609,1254,0,0
392,-230,0,0,0,0,0,0,0,0,0,-1,1616,1254,0,0
399,-230,0,0,0,0,0,0,0,0,0,-1,1623,1254,0,0
406,-230,0,0,0,0,0,0,0,0,0,-1,1630,1254,0,0
413,-230,0,0,0,0,0,0,0,0,0,-1,1637,1254,0,0
420,-230,0,0,0,0,0,0,0,0,0,-1,1644,1254,0,0
427,-230,0,0,0,0,0,0,0,0,0,-1,1651,1254,0,0
434,-230,0,0,0,0,0,0,0,0,0,-1,1658,1254,0,0
441,-230,0,0,0,0,0,0,0,0,0,-1,1665,1254,0,0
448,-230,0,0,0,0,0,0,0,0,0,-1,1672,1254,0,0
455,-230,0,0,0,0,0,0,0,0,0,-1,1679,1254,0,0
462,-230,0,0,0,0,0,0,0,0,0,-1,1686,1254,0,0
469,-230,0,0,0,0,0,0,0,0,0,-1,1693,1254,0,0
476,-230,0,0,0,0,0,0,0,0,0,-1,1700,1254,0,0
483,-230,0,0,0,0,0,0,0,0,0,-1,1707,1254,0,0
490,-230,0,0,0,0,0,0,0,0,0,-1,1714,1254,0,0
497,-230,0,0,0,0,0,0,0,0,0,-1,1721,1254,0,0
504,-230,0,0,0,0,0,0,0,0,0,-1,1728,1254,0,0
511,-230,0,0,0,0,0,0,0,0,0,-1,1735,1254,0,0
518,-230,0,0,0,0,0,0,0,0,0,-1,1742,1254,0,0
525,-230,0,0,0,0,0,0,0,0,0,-1,1749,1254,0,0
532,-230,0,0,0,0,0,0,0,0,0,-1,1756,1254,0,0
539,-230,0,0,0,0,0,0,0,0,0,-1,1763,1254,0,0
546,-230,0,0,0,0,0,0,0,0,0,-1,1770,1254,0,0
553,-230,0,0,0,0,0,0,0,0,0,-1,1777,1254,0,0
560,-230,0,0,0,0,0,0,0,0,0,-1,1784,1254,0,0
567,-230,0,0,0,0,0,0,0,0,0,-1,1791,1254,0,0
574,-230,0,0,0,0,0,0,0,0,0,-1,1798,1254,0,0
581,-230,0,0,0,0,0,0,0,0,0,-1,1805,1254,0,0
588,-230,0,0,0,0,0,0,0,0,0,-1,1812,1254,0,0
595,-230,0,0,0,0,0,0,0,0,0,-1,1819,1254,0,0
602,-230,0,0,0,0,0,0,0,0,0,-1,1826,1254,0,0
609,-230,0,0,0,0,0,0,0,0,0,-1,1833,1254,0,0
616,-230,40.7585,2.88538,0.014461,0.00262789,-0.00222877,0.0148668,0.00222202,-0.180131,0.00925984,0.0369556,1840,1254,40.7586,-2.88532
623,-230,40.6563,2.71094,0.00540265,0.00154367,-0.00150445,0.00591985,0.00102647,-0.331124,0.0036528,0.0372552,1847,1254,40.6563,-2.71091
630,-230,40.541,2.63794,-0.00248234,0.0011364,-0.00164437,0.00177198,-0.00311792,-1.20197,0.00285861,0.0323426,1854,1254,40.541,-2.63792
637,-230,40.5525,2.70276,-0.00956208,0.00109156,-0.00191518,0.00142539,-0.00989591,-1.39822,0.00712012,0.0267997,1861,1254,40.5525,-2.70278
644,-230,40.4821,2.60559,-0.01171,0.00114102,-0.00190195,0.0014166,-0.0119856,-1.4269,0.008502,0.0212173,1868,1254,40.482,-2.60556
651,-230,40.4078,2.52649,-0.0109097,0.00118323,-0.00203146,0.00151536,-0.0112419,-1.40873,0.00804739,0.0465541,1875,1254,40.4079,-2.52653
658,-230,40.3414,2.47534,0,0,0,0,0,0,0,-1,1882,1254,40.3414,-2.47534
665,-230,41.11,2.74548,0,0,0,0,0,0,0,-1,1889,1254,41.11,-2.74553
672,-230,39.3378,2.67651,0,0,0,0,0,0,0,-1,1896,1254,39.3378,-2.67652
679,-230,27.9967,2.37708,0,0,0,0,0,0,0,-1,1903,1254,27.9967,-2.3771
686,-230,31.876,8.35156,0,0,0,0,0,0,0,-1,1910,1254,31.8759,-8.35153
693,-230,31.9628,8.15735,-0.00276099,0.00116524,-0.00122977,0.00151862,-0.00311437,-1.29098,0.00272723,0.0415207,1917,1254,31.9628,-8.15736
700,-230,32.0552,7.9021,-0.000544917,-0.000429345,-0.000850222,0.000365052,-0.00133931,-0.819329,0.00103622,0.0139585,1924,1254,32.0551,-7.90209
707,-230,32.0128,7.55432,0.00101262,-0.00133754,-0.000516278,0.00112103,-0.00144595,-0.206984,0.001486,0.00973434,1931,1254,32.0128,-7.5543
714,-230,32.019,7.17505,0.00118041,-0.000867734,-5.47874e-05,0.00118188,-0.000869199,-0.0267243,0.00118877,0.0121738,1938,1254,32.019,-7.17505
721,-230,32.0375,6.80725,0.000901404,-0.000443253,0.00073596,0.0012259,-0.000767751,0.415276,0.00116112,0.012687,1945,1254,32.0375,-6.80724
728,-230,32.0182,6.46204,0.00102415,6.51102e-05,0.00128095,0.00191239,-0.000823128,0.606298,0.00162055,0.0144765,1952,1254,32.0182,-6.46205
735,-230,32.0028,6.12585,0.00173549,0.00101842,0.00141849,0.00284005,-8.61513e-05,0.661612,0.00192273,0.0150007,1959,1254,32.0028,-6.12585
742,-230,31.985,5.76111,0.00308021,0.00219857,0.0014953,0.00419832,0.00108047,0.642058,0.00251724,0.0111076,1966,1254,31.985,-5.76106
749,-230,31.9747,5.37207,0.00523796,0.00366739,0.00152649,0.00616931,0.00273604,0.547833,0.00356943,0.0110842,1973,1254,31.9747,-5.37203
756,-230,31.9568,5.01489,0.00867564,0.00563239,0.00133324,0.0091771,0.00513093,0.359753,0.00531072,0.0166583,1980,1254,31.9568,-5.01484
763,-230,31.9769,4.5686,0.0138677,0.00825634,0.000971173,0.0140311,0.00809301,0.166617,0.00813262,0.0320672,1987,1254,31.977,-4.56855
770,-230,32.3171,4.20618,0.0212259,0.0118335,0.000638172,0.0212691,0.0117904,0.0675319,0.0123039,0.0425461,1994,1254,32.3171,-4.20615
777,-230,32.7032,3.98645,0,0,0,0,0,0,0,-1,2001,1254,32.7033,-3.98649
784,-230,35.8896,1.80334,0,0,0,0,0,0,0,-1,2008,1254,35.8897,-1.80338
791,-230,35.6028,2.20642,0,0,0,0,0,0,0,-1,2015,1254,35.6027,-2.2064
798,-230,0,0,0,0,0,0,0,0,0,-1,2022,1254,0,0
805,-230,0,0,0,0,0,0,0,0,0,-1,2029,1254,0,0
812,-230,0,0,0,0,0,0,0,0,0,-1,2036,1254,0,0
-700,-237,0,0,0,0,0,0,0,0,0,-1,524,1261,0,0
-693,-237,0,0,0,0,0,0,0,0,0,-1,531,1261,0,0
-686,-237,0,0,0,0,0,0,0,0,0,-1,538,1261,0,0
-679,-237,0,0,0,0,0,0,0,0,0,-1,545,1261,0,0
-672,-237,-27.0957,-3.48108,0,0,0,0,0,0,0,-1,552,1261,-27.0957,3.48104
-665,-237,-26.0173,-2.0459,0,0,0,0,0,0,0,-1,559,1261,-26.0173,2.04592
-658,-237,-24.0287,-1.89648,0,0,0,0,0,0,0,-1,566,1261,-24.0287,1.89647
-651,-237,-22.4821,-0.125977,0,0,0,0,0,0,0,-1,573,1261,-22.4821,0.125961
-644,-237,-20.9354,1.64453,0,0,0,0,0,0,0,-1,580,1261,-20.9354,-1.64455
-637,-237,-21.0951,1.18762,0,0,0,0,0,0,0,-1,587,1261,-21.0951,-1.1876
-630,-237,-19.5846,1.77942,0.0370619,-0.00999149,0.0109754,0.0394961,-0.0124256,0.218248,0.0313057,0.0485115,594,1261,-19.5846,-1.77936
-623,-237,-19.6651,2.375,0.0277969,-0.00644653,0.00832297,0.0297126,-0.00836227,0.226236,0.0231059,0.0293497,601,1261,-19.6651,-2.37505
-616,-237,-19.7085,2.82227,0.0202387,-0.0034219,0.00584995,0.021606,-0.00478925,0.229614,0.0162376,0.0135899,608,1261,-19.7085,-2.82226
-609,-237,-19.7217,3.22498,0.0137939,-0.000956628,0.00402563,0.0148211,-0.00198376,0.249817,0.010604,0.0164241,615,1261,-19.7218,-3.22494
-602,-237,-19.7503,3.64514,0.00838152,0.000104195,0.00279859,0.00923892,-0.000753206,0.297289,0.00642508,0.0128262,622,1261,-19.7503,-3.64513
-595,-237,-19.7874,4.01904,0.0057306,0.000654013,0.00220369,0.00655373,-0.000169119,0.357477,0.00442661,0.0154648,629,1261,-19.7874,-4.01902
-588,-237,-19.8111,4.43652,0.00548104,0.000846848,0.00221089,0.00636659,-3.87051e-05,0.380973,0.00425736,0.0264145,636,1261,-19.8111,-4.43647
-581,-237,-19.8224,4.88074,0.00593126,0.000739379,0.00252487,0.00695662,-0.000285986,0.38576,0.00473596,0.024706,643,1261,-19.8224,-4.88072
-574,-237,-19.8262,5.28723,0.0063311,0.000874348,0.00319915,0.00780732,-0.00060187,0.432327,0.00541666,0.0162064,650,1261,-19.8263,-5.2872
-567,-237,-19.7503,5.72424,0.00605322,0.00154845,0.00375857,0.00818262,-0.000580959,0.515458,0.00565869,0.0226019,657,1261,-19.7503,-5.72421
-560,-237,-19.3516,6.25903,0.0050499,0.00255212,0.00401395,0.00800476,-0.000402737,0.634577,0.00547569,0.049351,664,1261,-19.3515,-6.25909
-553,-237,-18.9067,6.60291,0,0,0,0,0,0,0,-1,671,1261,-18.9067,-6.60294
-546,-237,-11.192,1.14014,0,0,0,0,0,0,0,-1,678,1261,-11.192,-1.14011
-539,-237,-16.512,1.53455,0,0,0,0,0,0,0,-1,685,1261,-16.512,-1.53457
-532,-237,-22.1423,1.43213,0,0,0,0,0,0,0,-1,692,1261,-22.1423,-1.43207
-525,-237,-27.8413,-0.0925293,0,0,0,0,0,0,0,-1,699,1261,-27.8413,0.0925128
-518,-237,-28.8333,0.147949,0,0,0,0,0,0,0,-1,706,1261,-28.8333,-0.147948
-511,-237,-29.2516,0.79541,-0.00771651,0.00938225,0.0100891,0.0140571,-0.0123914,1.13689,0.0152802,0.0405851,713,1261,-29.2516,-0.795419
-504,-237,-29.5181,1.23914,-0.0092553,0.0106126,0.0123166,0.0165021,-0.0151448,1.12476,0.0182769,0.0416422,720,1261,-29.5181,-1.23917
-497,-237,-29.6178,1.47913,-0.00969759,0.0105809,0.0143606,0.018021,-0.0171377,1.09278,0.020301,0.0457033,727,1261,-29.6178,-1.47917
-490,-237,0,0,0,0,0,0,0,0,0,-1,734,1261,0,0
-483,-237,0,0,0,0,0,0,0,0,0,-1,741,1261,0,0
-476,-237,0,0,0,0,0,0,0,0,0,-1,748,1261,0,0
-469,-237,0,0,0,0,0,0,0,0,0,-1,755,1261,0,0
-462,-237,0,0,0,0,0,0,0,0,0,-1,762,1261,0,0
-455,-237,0,0,0,0,0,0,0,0,0,-1,769,1261,0,0
-448,-237,0,0,0,0,0,0,0,0,0,-1,776,1261,0,0
-441,-237,0,0,0,0,0,0,0,0,0,-1,783,1261,0,0
-434,-237,0,0,0,0,0,0,0,0,0,-1,790,1261,0,0
-427,-237,0,0,0,0,0,0,0,0,0,-1,797,1261,0,0
-420,-237,0,0,0,0,0,0,0,0,0,-1,804,1261,0,0
-413,-237,0,0,0,0,0,0,0,0,0,-1,811,1261,0,0
-406,-237,0,0,0,0,0,0,0,0,0,-1,818,1261,0,0
-399,-237,0,0,0,0,0,0,0,0,0,-1,825,1261,0,0
-392,-237,0,0,0,0,0,0,0,0,0,-1,832,1261,0,0
-385,-237,0,0,0,0,0,0,0,0,0,-1,839,1261,0,0
-378,-237,0,0,0,0,0,0,0,0,0,-1,846,1261,0,0
-371,-237,0,0,0,0,0,0,0,0,0,-1,853,1261,0,0
-364,-237,0,0,0,0,0,0,0,0,0,-1,860,1261,0,0
-357,-237,0,0,0,0,0,0,0,0,0,-1,867,1261,0,0
-350,-237,0,0,0,0,0,0,0,0,0,-1,874,1261,0,0
-343,-237,0,0,0,0,0,0,0,0,0,-1,881,1261,0,0
-336,-237,0,0,0,0,0,0,0,0,0,-1,888,1261,0,0
-329,-237,0,0,0,0,0,0,0,0,0,-1,895,1261,0,0
-322,-237,0,0,0,0,0,0,0,0,0,-1,902,1261,0,0
-315,-237,0,0,0,0,0,0,0,0,0,-1,909,1261,0,0
-308,-237,0,0,0,0,0,0,0,0,0,-1,916,1261,0,0
-301,-237,0,0,0,0,0,0,0,0,0,-1,923,1261,0,0
-294,-237,0,0,0,0,0,0,0,0,0,-1,930,1261,0,0
-287,-237,0,0,0,0,0,0,0,0,0,-1,937,1261,0,0
-280,-237,0,0,0,0,0,0,0,0,0,-1,944,1261,0,0
-273,-237,0,0,0,0,0,0,0,0,0,-1,951,1261,0,0
-266,-237,0,0,0,0,0,0,0,0,0,-1,958,1261,0,0
-259,-237,0,0,0,0,0,0,0,0,0,-1,965,1261,0,0
-252,-237,0,0,0,0,0,0,0,0,0,-1,972,1261,0,0
-245,-237,0,0,0,0,0,0,0,0,0,-1,979,1261,0,0
-238,-237,0,0,0,0,0,0,0,0,0,-1,986,1261,0,0
-231,-237,0,0,0,0,0,0,0,0,0,-1,993,1261,0,0
-224,-237,0,0,0,0,0,0,0,0,0,-1,1000,1261,0,0
-217,-237,0,0,0,0,0,0,0,0,0,-1,1007,1261,0,0
-210,-237,0,0,0,0,0,0,0,0,0,-1,1014,1261,0,0
-203,-237,0,0,0,0,0,0,0,0,0,-1,1021,1261,0,0
-196,-237,0,0,0,0,0,0,0,0,0,-1,1028,1261,0,0
-189,-237,0,0,0,0,0,0,0,0,0,-1,1035,1261,0,0
-182,-237,0,0,0,0,0,0,0,0,0,-1,1042,1261,0,0
-175,-237,0,0,0,0,0,0,0,0,0,-1,1049,1261,0,0
-168,-237,0,0,0,0,0,0,0,0,0,-1,1056,1261,0,0
-161,-237,0,0,0,0,0,0,0,0,0,-1,1063,1261,0,0
-154,-237,0,0,0,0,0,0,0,0,0,-1,1070,1261,0,0
-147,-237,0,0,0,0,0,0,0,0,0,-1,1077,1261,0,0
-140,-237,0,0,0,0,0,0,0,0,0,-1,1084,1261,0,0
-133,-237,0,0,0,0,0,0,0,0,0,-1,1091,1261,0,0
-126,-237,0,0,0,0,0,0,0,0,0,-1,1098,1261,0,0
-119,-237,0,0,0,0,0,0,0,0,0,-1,1105,1261,0,0
-112,-237,0,0,0,0,0,0,0,0,0,-1,1112,1261,0,0
-105,-237,0,0,0,0,0,0,0,0,0,-1,1119,1261,0,0
-98,-237,0,0,0,0,0,0,0,0,0,-1,1126,1261,0,0
-91,-237,0,0,0,0,0,0,0,0,0,-1,1133,1261,0,0
-84,-237,0,0,0,0,0,0,0,0,0,-1,1140,1261,0,0
-77,-237,0,0,0,0,0,0,0,0,0,-1,1147,1261,0,0
-70,-237,0,0,0,0,0,0,0,0,0,-1,1154,1261,0,0
-63,-237,0,0,0,0,0,0,0,0,0,-1,1161,1261,0,0
-56,-237,0,0,0,0,0,0,0,0,0,-1,1168,1261,0,0
-49,-237,0,0,0,0,0,0,0,0,0,-1,1175,1261,0,0
-42,-237,0,0,0,0,0,0,0,0,0,-1,1182,1261,0,0
-35,-237,0,0,0,0,0,0,0,0,0,-1,1189,1261,0,0
-28,-237,0,0,0,0,0,0,0,0,0,-1,1196,1261,0,0
-21,-237,0,0,0,0,0,0,0,0,0,-1,1203,1261,0,0
-14,-237,0,0,0,0,0,0,0,0,0,-1,1210,1261,0,0
-7,-237,0,0,0,0,0,0,0,0,0,-1,1217,1261,0,0
0,-237,0,0,0,0,0,0,0,0,0,-1,1224,1261,0,0
7,-237,0,0,0,0,0,0,0,0,0,-1,1231,1261,0,0
14,-237,0,0,0,0,0,0,0,0,0,-1,1238,1261,0,0
21,-237,0,0,0,0,0,0,0,0,0,-1,1245,1261,0,0
28,-237,0,0,0,0,0,0,0,0,0,-1,1252,1261,0,0
35,-237,0,0,0,0,0,0,0,0,0,-1,1259,1261,0,0
42,-237,0,0,0,0,0,0,0,0,0,-1,1266,1261,0,0
49,-237,0,0,0,0,0,0,0,0,0,-1,1273,1261,0,0
56,-237,0,0,0,0,0,0,0,0,0,-1,1280,1261,0,0
63,-237,0,0,0,0,0,0,0,0,0,-1,1287,1261,0,0
70,-237,0,0,0,0,0,0,0,0,0,-1,1294,1261,0,0
77,-237,0,0,0,0,0,0,0,0,0,-1,1301,1261,0,0
84,-237,0,0,0,0,0,0,0,0,0,-1,1308,1261,0,0
91,-237,0,0,0,0,0,0,0,0,0,-1,1315,1261,0,0
98,-237,0,0,0,0,0,0,0,0,0,-1,1322,1261,0,0
105,-237,0,0,0,0,0,0,0,0,0,-1,1329,1261,0,0
112,-237,0,0,0,0,0,0,0,0,0,-1,1336,1261,0,0
119,-237,0,0,0,0,0,0,0,0,0,-1,1343,1261,0,0
126,-237,0,0,0,0,0,0,0,0,0,-1,1350,1261,0,0
133,-237,0,0,0,0,0,0,0,0,0,-1,1357,1261,0,0
140,-237,0,0,0,0,0,0,0,0,0,-1,1364,1261,0,0
147,-237,0,0,0,0,0,0,0,0,0,-1,1371,1261,0,0
154,-237,0,0,0,0,0,0,0,0,0,-1,1378,1261,0,0
161,-237,0,0,0,0,0,0,0,0,0,-1,1385,1261,0,0
168,-237,0,0,0,0,0,0,0,0,0,-1,1392,1261,0,0
175,-237,0,0,0,0,0,0,0,0,0,-1,1399,1261,0,0
182,-237,0,0,0,0,0,0,0,0,0,-1,1406,1261,0,0
189,-237,0,0,0,0,0,0,0,0,0,-1,1413,1261,0,0
196,-237,0,0,0,0,0,0,0,0,0,-1,1420,1261,0,0
203,-237,0,0,0,0,0,0,0,0,0,-1,1427,1261,0,0
210,-237,0,0,0,0,0,0,0,0,0,-1,1434,1261,0,0
217,-237,0,0,0,0,0,0,0,0,0,-1,1441,1261,0,0
224,-237,0,0,0,0,0,0,0,0,0,-1,1448,1261,0,0
231,-237,0,0,0,0,0,0,0,0,0,-1,1455,1261,0,0
238,-237,0,0,0,0,0,0,0,0,0,-1,1462,1261,0,0
245,-237,0,0,0,0,0,0,0,0,0,-1,1469,1261,0,0
252,-237,0,0,0,0,0,0,0,0,0,-1,1476,1261,0,0
259,-237,0,0,0,0,0,0,0,0,0,-1,1483,1261,0,0
266,-237,0,0,0,0,0,0,0,0,0,-1,1490,1261,0,0
273,-237,0,0,0,0,0,0,0,0,0,-1,1497,1261,0,0
280,-237,0,0,0,0,0,0,0,0,0,-1,1504,1261,0,0
287,-237,0,0,0,0,0,0,0,0,0,-1,1511,1261,0,0
294,-237,0,0,0,0,0,0,0,0,0,-1,1518,1261,0,0
301,-237,0,0,0,0,0,0,0,0,0,-1,1525,1261,0,0
308,-237,0,0,0,0,0,0,0,0,0,-1,1532,1261,0,0
315,-237,0,0,0,0,0,0,0,0,0,-1,1539,1261,0,0
322,-237,0,0,0,0,0,0,0,0,0,-1,1546,1261,0,0
329,-237,0,0,0,0,0,0,0,0,0,-1,1553,1261,0,0
336,-237,0,0,0,0,0,0,0,0,0,-1,1560,1261,0,0
343,-237,0,0,0,0,0,0,0,0,0,-1,1567,1261,0,0
350,-237,0,0,0,0,0,0,0,0,0,-1,1574,1261,0,0
357,-237,0,0,0,0,0,0,0,0,0,-1,1581,1261,0,0
364,-237,0,0,0,0,0,0,0,0,0,-1,1588,1261,0,0
371,-237,0,0,0,0,0,0,0,0,0,-1,1595,1261,0,0
378,-237,0,0,0,0,0,0,0,0,0,-1,1602,1261,0,0
385,-237,0,0,0,0,0,0,0,0,0,-1,1609,1261,0,0
392,-237,0,0,0,0,0,0,0,0,0,-1,1616,1261,0,0
399,-237,0,0,0,0,0,0,0,0,0,-1,1623,1261,0,0
406,-237,0,0,0,0,0,0,0,0,0,-1,1630,1261,0,0
413,-237,0,0,0,0,0,0,0,0,0,-1,1637,1261,0,0
420,-237,0,0,0,0,0,0,0,0,0,-1,1644,1261,0,0
427,-237,0,0,0,0,0,0,0,0,0,-1,1651,1261,0,0
434,-237,0,0,0,0,0,0,0,0,0,-1,1658,1261,0,0
441,-237,0,0,0,0,0,0,0,0,0,-1,1665,1261,0,0
448,-237,0,0,0,0,0,0,0,0,0,-1,1672,1261,0,0
455,-237,0,0,0,0,0,0,0,0,0,-1,1679,1261,0,0
462,-237,0,0,0,0,0,0,0,0,0,-1,1686,1261,0,0
469,-237,0,0,0,0,0,0,0,0,0,-1,1693,1261,0,0
476,-237,0,0,0,0,0,0,0,0,0,-1,1700,1261,0,0
483,-237,0,0,0,0,0,0,0,0,0,-1,1707,1261,0,0
490,-237,0,0,0,0,0,0,0,0,0,-1,1714,1261,0,0
497,-237,0,0,0,0,0,0,0,0,0,-1,1721,1261,0,0
504,-237,0,0,0,0,0,0,0,0,0,-1,1728,1261,0,0
511,-237,0,0,0,0,0,0,0,0,0,-1,1735,1261,0,0
518,-237,0,0,0,0,0,0,0,0,0,-1,1742,1261,0,0
525,-237,0,0,0,0,0,0,0,0,0,-1,1749,1261,0,0
532,-237,0,0,0,0,0,0,0,0,0,-1,1756,1261,0,0
539,-237,0,0,0,0,0,0,0,0,0,-1,1763,1261,0,0
546,-237,0,0,0,0,0,0,0,0,0,-1,1770,1261,0,0
553,-237,0,0,0,0,0,0,0,0,0,-1,1777,1261,0,0
560,-237,0,0,0,0,0,0,0,0,0,-1,1784,1261,0,0
567,-237,0,0,0,0,0,0,0,0,0,-1,1791,1261,0,0
574,-237,0,0,0,0,0,0,0,0,0,-1,1798,1261,0,0
581,-237,0,0,0,0,0,0,0,0,0,-1,1805,1261,0,0
588,-237,0,0,0,0,0,0,0,0,0,-1,1812,1261,0,0
595,-237,0,0,0,0,0,0,0,0,0,-1,1819,1261,0,0
602,-237,0,0,0,0,0,0,0,0,0,-1,1826,1261,0,0
609,-237,0,0,0,0,0,0,0,0,0,-1,1833,1261,0,0
616,-237,40.6879,2.70813,0.0159408,0.00122644,-0.00155463,0.0161032,0.00106398,-0.104123,0.010399,0.0382311,1840,1261,40.6879,-2.7081
623,-237,40.7063,2.6991,0.00556584,6.14643e-05,-0.00097639,0.00573391,-0.0001066,-0.170458,0.00385863,0.0339856,1847,1261,40.7062,-2.69911
630,-237,40.5747,2.64722,-0.00429825,-0.000360282,-0.000993672,-0.000123754,-0.00453478,-1.33711,0.00298279,0.0267788,1854,1261,40.5747,-2.64723
637,-237,40.4482,2.58374,-0.0122051,-0.000153595,-0.00118379,-3.84161e-05,-0.0123203,-1.4738,0.00820075,0.0217063,1861,1261,40.4482,-2.58375
644,-237,40.3198,2.43323,-0.0137248,0.000119201,-0.0011685,0.000217136,-0.0138227,-1.48718,0.00928837,0.0413262,1868,1261,40.3198,-2.4332
651,-237,40.214,2.26782,0,0,0,0,0,0,0,-1,1875,1261,40.214,-2.26786
658,-237,40.2648,1.91992,0,0,0,0,0,0,0,-1,1882,1261,40.2647,-1.91986
665,-237,37.7472,2.24146,0,0,0,0,0,0,0,-1,1889,1261,37.7472,-2.24146
672,-237,38.5681,2.42981,0,0,0,0,0,0,0,-1,1896,1261,38.5681,-2.42986
679,-237,23.1501,7.37488,0,0,0,0,0,0,0,-1,1903,1261,23.1502,-7.37493
686,-237,31.5665,8.62695,0,0,0,0,0,0,0,-1,1910,1261,31.5665,-8.62692
693,-237,31.5677,8.26831,-0.0041145,0.00163622,-0.00108478,0.00183404,-0.00431232,-1.39042,0.00364349,0.044738,1917,1261,31.5677,-8.26827
700,-237,31.6508,7.94177,-0.00119023,-0.000167283,-0.000708576,0.000195134,-0.00155265,-1.09801,0.0011059,0.012476,1924,1261,31.6508,-7.94176
707,-237,31.6515,7.57935,0.000897208,-0.00112662,-0.000485937,0.00100784,-0.00123725,-0.223848,0.00129845,0.0104622,1931,1261,31.6515,-7.57929
714,-237,31.6256,7.18921,0.00127147,-0.000559219,-0.000161286,0.00128558,-0.00057332,-0.0872057,0.00109918,0.0141944,1938,1261,31.6257,-7.18918
721,-237,31.6134,6.83582,0.000995558,-0.000104445,0.000545431,0.00122015,-0.000329038,0.390613,0.000942458,0.0164069,1945,1261,31.6134,-6.83586
728,-237,31.65,6.45984,0.00105688,0.000444891,0.00101707,0.00181299,-0.000311218,0.639275,0.00132464,0.0148568,1952,1261,31.65,-6.45982
735,-237,31.6226,6.07239,0.00162931,0.00136623,0.00117098,0.00267612,0.000319425,0.729466,0.00168771,0.0187031,1959,1261,31.6226,-6.07237
742,-237,31.6188,5.74658,0.00282949,0.00253623,0.0012385,0.00393001,0.00143571,0.726476,0.00229627,0.0144068,1966,1261,31.6188,-5.74659
749,-237,31.5914,5.41187,0.00490882,0.00404776,0.00123951,0.00579044,0.00316614,0.618246,0.00334799,0.0104243,1973,1261,31.5914,-5.41183
756,-237,31.5454,5.05774,0.00836809,0.00616641,0.000925671,0.00870555,0.00582895,0.349586,0.00512159,0.0174115,1980,1261,31.5454,-5.05773
763,-237,31.4869,4.52832,0.0137419,0.00909114,0.000349073,0.013768,0.00906509,0.0745005,0.00808084,0.0311571,1987,1261,31.487,-4.5283
770,-237,31.9575,3.85364,0.0215956,0.0132494,-0.000389561,0.0216138,0.0132313,-0.0465403,0.0125829,0.0419801,1994,1261,31.9576,-3.85359
777,-237,32.3726,3.33252,0,0,0,0,0,0,0,-1,2001,1261,32.3726,-3.33247
784,-237,36.3441,1.68591,0,0,0,0,0,0,0,-1,2008,1261,36.3441,-1.68592
791,-237,32.3025,6.03235,0,0,0,0,0,0,0,-1,2015,1261,32.3025,-6.03229
798,-237,0,0,0,0,0,0,0,0,0,-1,2022,1261,0,0
805,-237,0,0,0,0,0,0,0,0,0,-1,2029,1261,0,0
812,-237,0,0,0,0,0,0,0,0,0,-1,2036,1261,0,0
-700,-244,0,0,0,0,0,0,0,0,0,-1,524,1268,0,0
-693,-244,0,0,0,0,0,0,0,0,0,-1,531,1268,0,0
-686,-244,0,0,0,0,0,0,0,0,0,-1,538,1268,0,0
-679,-244,0,0,0,0,0,0,0,0,0,-1,545,1268,0,0
-672,-244,-22.4173,-3.02673,0,0,0,0,0,0,0,-1,552,1268,-22.4173,3.02672
-665,-244,-23.4322,-1.60376,0,0,0,0,0,0,0,-1,559,1268,-23.4322,1.6037
-658,-244,-22.8581,-0.787598,0.0942893,-0.0429455,0.0328574,0.10175,-0.0504067,0.223292,0.0894996,0.0468862,566,1268,-22.8581,0.787539
-651,-244,-21.7287,-0.214478,0.0778284,-0.0319368,0.0271225,0.0841645,-0.0382729,0.229495,0.0723255,0.047279,573,1268,-21.7287,0.214513
-644,-244,-21.4901,0.27417,0,0,0,0,0,0,0,-1,580,1268,-21.4901,-0.274223
-637,-244,-20.5278,1.12732,0.0494,-0.0164716,0.0177576,0.0538821,-0.0209537,0.24724,0.0445788,0.0489087,587,1268,-20.5278,-1.12734
-630,-244,-19.7894,1.84692,0.0379168,-0.011178,0.0139714,0.0416143,-0.0148755,0.258718,0.0338103,0.0407699,594,1268,-19.7894,-1.84695
-623,-244,-19.3585,2.36914,0.0283141,-0.00715971,0.0107319,0.0313082,-0.0101538,0.272066,0.024955,0.0319532,601,1268,-19.3585,-2.36919
-616,-244,-19.2936,2.82983,0.0205845,-0.00374972,0.00779703,0.0228684,-0.00603364,0.28495,0.0176049,0.0166506,608,1268,-19.2936,-2.82985
-609,-244,-19.3035,3.22144,0.0142314,-0.00108524,0.00556927,0.0160423,-0.00289616,0.31438,0.0117796,0.014659,615,1268,-19.3035,-3.22144
-602,-244,-19.3497,3.64392,0.00881296,0.000117243,0.00392314,0.0103213,-0.00139108,0.367046,0.00738833,0.0156919,622,1268,-19.3497,-3.64391
-595,-244,-19.3605,4.06531,0.00603607,0.000742951,0.00277952,0.00722748,-0.000448456,0.404948,0.00497455,0.016235,629,1268,-19.3605,-4.06526
-588,-244,-19.3742,4.46387,0.00558142,0.000954696,0.00244061,0.00663082,-9.47118e-05,0.406079,0.00445246,0.0207631,636,1268,-19.3742,-4.46386
-581,-244,-19.3812,4.8761,0.00589525,0.000814883,0.0026009,0.00699061,-0.000280482,0.398604,0.00475666,0.0181161,643,1268,-19.3812,-4.87604
-574,-244,-19.4118,5.30933,0.00659066,0.000805588,0.00315745,0.00798021,-0.000583961,0.414579,0.00552509,0.0134809,650,1268,-19.4118,-5.30927
-567,-244,-19.4012,5.73572,0.00669144,0.00137634,0.00367826,0.00857175,-0.000503971,0.472564,0.00588968,0.0121572,657,1268,-19.4012,-5.73574
-560,-244,-19.3095,6.15125,0.00570287,0.00245969,0.00398039,0.0083793,-0.000216747,0.591966,0.00565984,0.0322854,664,1268,-19.3095,-6.15119
-553,-244,-19.1588,6.5835,0,0,0,0,0,0,0,-1,671,1268,-19.1588,-6.58349
-546,-244,-11.2686,4.41772,0,0,0,0,0,0,0,-1,678,1268,-11.2686,-4.41767
-539,-244,-12.8706,0.3302,0,0,0,0,0,0,0,-1,685,1268,-12.8706,-0.330156
-532,-244,-18.1502,0.816528,0,0,0,0,0,0,0,-1,692,1268,-18.1502,-0.816514
-525,-244,-27.8064,-0.461304,0,0,0,0,0,0,0,-1,699,1268,-27.8064,0.461262
-518,-244,-28.1436,0.092041,0,0,0,0,0,0,0,-1,706,1268,-28.1436,-0.0920958
-511,-244,-29.0764,0.493896,0,0,0,0,0,0,0,-1,713,1268,-29.0764,-0.493936
-504,-244,-29.4427,1.04028,0,0,0,0,0,0,0,-1,720,1268,-29.4427,-1.04032
-497,-244,-29.6469,1.29614,0,0,0,0,0,0,0,-1,727,1268,-29.6469,-1.29611
-490,-244,0,0,0,0,0,0,0,0,0,-1,734,1268,0,0
-483,-244,0,0,0,0,0,0,0,0,0,-1,741,1268,0,0
-476,-244,0,0,0,0,0,0,0,0,0,-1,748,1268,0,0
-469,-244,0,0,0,0,0,0,0,0,0,-1,755,1268,0,0
-462,-244,0,0,0,0,0,0,0,0,0,-1,762,1268,0,0
-455,-244,0,0,0,0,0,0,0,0,0,-1,769,1268,0,0
-448,-244,0,0,0,0,0,0,0,0,0,-1,776,1268,0,0
-441,-244,0,0,0,0,0,0,0,0,0,-1,783,1268,0,0
-434,-244,0,0,0,0,0,0,0,0,0,-1,790,1268,0,0
-427,-244,0,0,0,0,0,0,0,0,0,-1,797,1268,0,0
-420,-244,0,0,0,0,0,0,0,0,0,-1,804,1268,0,0
-413,-244,0,0,0,0,0,0,0,0,0,-1,811,1268,0,0
-406,-244,0,0,0,0,0,0,0,0,0,-1,818,1268,0,0
-399,-244,0,0,0,0,0,0,0,0,0,-1,825,1268,0,0
-392,-244,0,0,0,0,0,0,0,0,0,-1,832,1268,0,0
-385,-244,0,0,0,0,0,0,0,0,0,-1,839,1268,0,0
-378,-244,0,0,0,0,0,0,0,0,0,-1,846,1268,0,0
-371,-244,0,0,0,0,0,0,0,0,0,-1,853,1268,0,0
-364,-244,0,0,0,0,0,0,0,0,0,-1,860,1268,0,0
-357,-244,0,0,0,0,0,0,0,0,0,-1,867,1268,0,0
-350,-244,0,0,0,0,0,0,0,0,0,-1,874,1268,0,0
-343,-244,0,0,0,0,0,0,0,0,0,-1,881,1268,0,0
-336,-244,0,0,0,0,0,0,0,0,0,-1,888,1268,0,0
-329,-244,0,0,0,0,0,0,0,0,0,-1,895,1268,0,0
-322,-244,0,0,0,0,0,0,0,0,0,-1,902,1268,0,0
-315,-244,0,0,0,0,0,0,0,0,0,-1,909,1268,0,0
-308,-244,0,0,0,0,0,0,0,0,0,-1,916,1268,0,0
-301,-244,0,0,0,0,0,0,0,0,0,-1,923,1268,0,0
-294,-244,0,0,0,0,0,0,0,0,0,-1,930,1268,0,0
-287,-244,0,0,0,0,0,0,0,0,0,-1,937,1268,0,0
-280,-244,0,0,0,0,0,0,0,0,0,-1,944,1268,0,0
-273,-244,0,0,0,0,0,0,0,0,0,-1,951,1268,0,0
-266,-244,0,0,0,0,0,0,0,0,0,-1,958,1268,0,0
-259,-244,0,0,0,0,0,0,0,0,0,-1,965,1268,0,0
-252,-244,0,0,0,0,0,0,0,0,0,-1,972,1268,0,0
-245,-244,0,0,0,0,0,0,0,0,0,-1,979,1268,0,0
-238,-244,0,0,0,0,0,0,0,0,0,-1,986,1268,0,0
-231,-244,0,0,0,0,0,0,0,0,0,-1,993,1268,0,0
-224,-244,0,0,0,0,0,0,0,0,0,-1,1000,1268,0,0
-217,-244,0,0,0,0,0,0,0,0,0,-1,1007,1268,0,0
-210,-244,0,0,0,0,0,0,0,0,0,-1,1014,1268,0,0
-203,-244,0,0,0,0,0,0,0,0,0,-1,1021,1268,0,0
-196,-244,0,0,0,0,0,0,0,0,0,-1,1028,1268,0,0
-189,-244,0,0,0,0,0,0,0,0,0,-1,1035,1268,0,0
-182,-244,0,0,0,0,0,0,0,0,0,-1,1042,1268,0,0
-175,-244,0,0,0,0,0,0,0,0,0,-1,1049,1268,0,0
-168,-244,0,0,0,0,0,0,0,0,0,-1,1056,1268,0,0
-161,-244,0,0,0,0,0,0,0,0,0,-1,1063,1268,0,0
-154,-244,0,0,0,0,0,0,0,0,0,-1,1070,1268,0,0
-147,-244,0,0,0,0,0,0,0,0,0,-1,1077,1268,0,0
-140,-244,0,0,0,0,0,0,0,0,0,-1,1084,1268,0,0
-133,-244,0,0,0,0,0,0,0,0,0,-1,1091,1268,0,0
-126,-244,0,0,0,0,0,0,0,0,0,-1,1098,1268,0,0
-119,-244,0,0,0,0,0,0,0,0,0,-1,1105,1268,0,0
-112,-244,0,0,0,0,0,0,0,0,0,-1,1112,1268,0,0
-105,-244,0,0,0,0,0,0,0,0,0,-1,1119,1268,0,0
-98,-244,0,0,0,0,0,0,0,0,0,-1,1126,1268,0,0
-91,-244,0,0,0,0,0,0,0,0,0,-1,1133,1268,0,0
-84,-244,0,0,0,0,0,0,0,0,0,-1,1140,1268,0,0
-77,-244,0,0,0,0,0,0,0,0,0,-1,1147,1268,0,0
-70,-244,0,0,0,0,0,0,0,0,0,-1,1154,1268,0,0
-63,-244,0,0,0,0,0,0,0,0,0,-1,1161,1268,0,0
-56,-244,0,0,0,0,0,0,0,0,0,-1,1168,1268,0,0
-49,-244,0,0,0,0,0,0,0,0,0,-1,1175,1268,0,0
-42,-244,0,0,0,0,0,0,0,0,0,-1,1182,1268,0,0
-35,-244,0,0,0,0,0,0,0,0,0,-1,1189,1268,0,0
-28,-244,0,0,0,0,0,0,0,0,0,-1,1196,1268,0,0
-21,-244,0,0,0,0,0,0,0,0,0,-1,1203,1268,0,0
-14,-244,0,0,0,0,0,0,0,0,0,-1,1210,1268,0,0
-7,-244,0,0,0,0,0,0,0,0,0,-1,1217,1268,0,0
0,-244,0,0,0,0,0,0,0,0,0,-1,1224,1268,0,0
7,-244,0,0,0,0,0,0,0,0,0,-1,1231,1268,0,0
14,-244,0,0,0,0,0,0,0,0,0,-1,1238,1268,0,0
21,-244,0,0,0,0,0,0,0,0,0,-1,1245,1268,0,0
28,-244,0,0,0,0,0,0,0,0,0,-1,1252,1268,0,0
35,-244,0,0,0,0,0,0,0,0,0,-1,1259,1268,0,0
42,-244,0,0,0,0,0,0,0,0,0,-1,1266,1268,0,0
49,-244,0,0,0,0,0,0,0,0,0,-1,1273,1268,0,0
56,-244,0,0,0,0,0,0,0,0,0,-1,1280,1268,0,0
63,-244,0,0,0,0,0,0,0,0,0,-1,1287,1268,0,0
70,-244,0,0,0,0,0,0,0,0,0,-1,1294,1268,0,0
77,-244,0,0,0,0,0,0,0,0,0,-1,1301,1268,0,0
84,-244,0,0,0,0,0,0,0,0,0,-1,1308,1268,0,0
91,-244,0,0,0,0,0,0,0,0,0,-1,1315,1268,0,0
98,-244,0,0,0,0,0,0,0,0,0,-1,1322,1268,0,0
105,-244,0,0,0,0,0,0,0,0,0,-1,1329,1268,0,0
112,-244,0,0,0,0,0,0,0,0,0,-1,1336,1268,0,0
119,-244,0,0,0,0,0,0,0,0,0,-1,1343,1268,0,0
126,-244,0,0,0,0,0,0,0,0,0,-1,1350,1268,0,0
133,-244,0,0,0,0,0,0,0,0,0,-1,1357,1268,0,0
140,-244,0,0,0,0,0,0,0,0,0,-1,1364,1268,0,0
147,-244,0,0,0,0,0,0,0,0,0,-1,1371,1268,0,0
154,-244,0,0,0,0,0,0,0,0,0,-1,1378,1268,0,0
161,-244,0,0,0,0,0,0,0,0,0,-1,1385,1268,0,0
168,-244,0,0,0,0,0,0,0,0,0,-1,1392,1268,0,0
175,-244,0,0,0,0,0,0,0,0,0,-1,1399,1268,0,0
182,-244,0,0,0,0,0,0,0,0,0,-1,1406,1268,0,0
189,-244,0,0,0,0,0,0,0,0,0,-1,1413,1268,0,0
196,-244,0,0,0,0,0,0,0,0,0,-1,1420,1268,0,0
203,-244,0,0,0,0,0,0,0,0,0,-1,1427,1268,0,0
210,-244,0,0,0,0,0,0,0,0,0,-1,1434,1268,0,0
217,-244,0,0,0,0,0,0,0,0,0,-1,1441,1268,0,0
224,-244,0,0,0,0,0,0,0,0,0,-1,1448,1268,0,0
231,-244,0,0,0,0,0,0,0,0,0,-1,1455,1268,0,0
238,-244,0,0,0,0,0,0,0,0,0,-1,1462,1268,0,0
245,-244,0,0,0,0,0,0,0,0,0,-1,1469,1268,0,0
252,-244,0,0,0,0,0,0,0,0,0,-1,1476,1268,0,0
259,-244,0,0,0,0,0,0,0,0,0,-1,1483,1268,0,0
266,-244,0,0,0,0,0,0,0,0,0,-1,1490,1268,0,0
273,-244,0,0,0,0,0,0,0,0,0,-1,1497,1268,0,0
280,-244,0,0,0,0,0,0,0,0,0,-1,1504,1268,0,0
287,-244,0,0,0,0,0,0,0,0,0,-1,1511,1268,0,0
294,-244,0,0,0,0,0,0,0,0,0,-1,1518,1268,0,0
301,-244,0,0,0,0,0,0,0,0,0,-1,1525,1268,0,0
308,-244,0,0,0,0,0,0,0,0,0,-1,1532,1268,0,0
315,-244,0,0,0,0,0,0,0,0,0,-1,1539,1268,0,0
322,-244,0,0,0,0,0,0,0,0,0,-1,1546,1268,0,0
329,-244,0,0,0,0,0,0,0,0,0,-1,1553,1268,0,0
336,-244,0,0,0,0,0,0,0,0,0,-1,1560,1268,0,0
343,-244,0,0,0,0,0,0,0,0,0,-1,1567,1268,0,0
350,-244,0,0,0,0,0,0,0,0,0,-1,1574,1268,0,0
357,-244,0,0,0,0,0,0,0,0,0,-1,1581,1268,0,0
364,-244,0,0,0,0,0,0,0,0,0,-1,1588,1268,0,0
371,-244,0,0,0,0,0,0,0,0,0,-1,1595,1268,0,0
378,-244,0,0,0,0,0,0,0,0,0,-1,1602,1268,0,0
385,-244,0,0,0,0,0,0,0,0,0,-1,1609,1268,0,0
392,-244,0,0,0,0,0,0,0,0,0,-1,1616,1268,0,0
399,-244,0,0,0,0,0,0,0,0,0,-1,1623,1268,0,0
406,-244,0,0,0,0,0,0,0,0,0,-1,1630,1268,0,0
413,-244,0,0,0,0,0,0,0,0,0,-1,1637,1268,0,0
420,-244,0,0,0,0,0,0,0,0,0,-1,1644,1268,0,0
427,-244,0,0,0,0,0,0,0,0,0,-1,1651,1268,0,0
434,-244,0,0,0,0,0,0,0,0,0,-1,1658,1268,0,0
441,-244,0,0,0,0,0,0,0,0,0,-1,1665,1268,0,0
448,-244,0,0,0,0,0,0,0,0,0,-1,1672,1268,0,0
455,-244,0,0,0,0,0,0,0,0,0,-1,1679,1268,0,0
462,-244,0,0,0,0,0,0,0,0,0,-1,1686,1268,0,0
469,-244,0,0,0,0,0,0,0,0,0,-1,1693,1268,0,0
476,-244,0,0,0,0,0,0,0,0,0,-1,1700,1268,0,0
483,-244,0,0,0,0,0,0,0,0,0,-1,1707,1268,0,0
490,-244,0,0,0,0,0,0,0,0,0,-1,1714,1268,0,0
497,-244,0,0,0,0,0,0,0,0,0,-1,1721,1268,0,0
504,-244,0,0,0,0,0,0,0,0,0,-1,1728,1268,0,0
511,-244,0,0,0,0,0,0,0,0,0,-1,1735,1268,0,0
518,-244,0,0,0,0,0,0,0,0,0,-1,1742,1268,0,0
525,-244,0,0,0,0,0,0,0,0,0,-1,1749,1268,0,0
532,-244,0,0,0,0,0,0,0,0,0,-1,1756,1268,0,0
539,-244,0,0,0,0,0,0,0,0,0,-1,1763,1268,0,0
546,-244,0,0,0,0,0,0,0,0,0,-1,1770,1268,0,0
553,-244,0,0,0,0,0,0,0,0,0,-1,1777,1268,0,0
560,-244,0,0,0,0,0,0,0,0,0,-1,1784,1268,0,0
567,-244,0,0,0,0,0,0,0,0,0,-1,1791,1268,0,0
574,-244,0,0,0,0,0,0,0,0,0,-1,1798,1268,0,0
581,-244,0,0,0,0,0,0,0,0,0,-1,1805,1268,0,0
588,-244,0,0,0,0,0,0,0,0,0,-1,1812,1268,0,0
595,-244,0,0,0,0,0,0,0,0,0,-1,1819,1268,0,0
602,-244,0,0,0,0,0,0,0,0,0,-1,1826,1268,0,0
609,-244,0,0,0,0,0,0,0,0,0,-1,1833,1268,0,0
616,-244,40.5114,2.62915,0.012442,0.000991243,-0.000390978,0.0124553,0.00097791,-0.0340914,0.00799753,0.0362874,1840,1268,40.5114,-2.62914
623,-244,40.5653,2.69495,0.00141717,-0.000754558,3.66082e-05,0.00141778,-0.000755175,0.0168504,0.00127385,0.0280243,1847,1268,40.5653,-2.6949
630,-244,40.5664,2.68787,-0.00911725,-0.00149538,5.20137e-05,-0.00149503,-0.0091176,1.56397,0.00564642,0.0248595,1854,1268,40.5664,-2.68792
637,-244,40.45,2.59998,0,0,0,0,0,0,0,-1,1861,1268,40.45,-2.59996
644,-244,40.1122,2.17651,0,0,0,0,0,0,0,-1,1868,1268,40.1122,-2.17653
651,-244,39.7743,1.75305,0,0,0,0,0,0,0,-1,1875,1268,39.7743,-1.7531
658,-244,39.7745,1.63818,0,0,0,0,0,0,0,-1,1882,1268,39.7745,-1.63824
665,-244,39.8103,1.51514,0,0,0,0,0,0,0,-1,1889,1268,39.8103,-1.51517
672,-244,32.224,3.6123,0,0,0,0,0,0,0,-1,1896,1268,32.224,-3.6123
679,-244,27.2593,7.90649,0,0,0,0,0,0,0,-1,1903,1268,27.2592,-7.9065
686,-244,31.2485,8.87866,0,0,0,0,0,0,0,-1,1910,1268,31.2485,-8.87866
693,-244,31.2313,8.43469,-0.00554737,0.00183159,-0.000898265,0.00193937,-0.00565515,-1.45139,0.00455628,0.0232397,1917,1268,31.2314,-8.4347
700,-244,31.2487,7.97388,-0.00201009,-0.00011088,-0.000533411,2.86786e-05,-0.00214965,-1.3149,0.00144275,0.00952004,1924,1268,31.2487,-7.9739
707,-244,31.2711,7.58899,0.00050755,-0.00103146,-0.000407686,0.000608875,-0.00113278,-0.243603,0.0010206,0.0110967,1931,1268,31.2711,-7.58895
714,-244,31.2974,7.20715,0.00105469,-0.000344191,-0.000201444,0.00108312,-0.000372622,-0.140209,0.000873203,0.0133194,1938,1268,31.2974,-7.20718
721,-244,31.2412,6.86414,0.000788048,0.00017861,0.000416064,0.000999045,-3.23874e-05,0.469332,0.000677084,0.0169148,1945,1268,31.2412,-6.86416
728,-244,31.244,6.4585,0.00080142,0.000791317,0.000812929,0.00160931,-1.65766e-05,0.782291,0.00107844,0.0207611,1952,1268,31.244,-6.4585
735,-244,31.222,6.04883,0.00128035,0.00170392,0.000967674,0.00248271,0.000501558,0.893128,0.00151587,0.0236628,1959,1268,31.222,-6.04881
742,-244,31.1897,5.77429,0.00238185,0.00288828,0.00100233,0.00366888,0.00160124,0.909122,0.00212393,0.0164004,1966,1268,31.1898,-5.77427
749,-244,31.1034,5.49902,0.00442517,0.00446344,0.000939504,0.005384,0.00350461,0.795581,0.00315531,0.0252586,1973,1268,31.1034,-5.49905
756,-244,30.9407,5.18494,0.00794713,0.00675879,0.000450235,0.00809845,0.00660747,0.324222,0.00497698,0.0337337,1980,1268,30.9407,-5.18494
763,-244,31.0646,4.50049,0.0134983,0.0100254,-0.000471962,0.0135613,0.00996245,-0.132694,0.00811188,0.044053,1987,1268,31.0646,-4.50043
770,-244,31.7032,3.43262,0,0,0,0,0,0,0,-1,1994,1268,31.7032,-3.43266
777,-244,31.9501,3.48291,0,0,0,0,0,0,0,-1,2001,1268,31.95,-3.48296
784,-244,31.7908,5.20081,0,0,0,0,0,0,0,-1,2008,1268,31.7907,-5.20083
791,-244,0,0,0,0,0,0,0,0,0,-1,2015,1268,0,0
798,-244,0,0,0,0,0,0,0,0,0,-1,2022,1268,0,0
805,-244,0,0,0,0,0,0,0,0,0,-1,2029,1268,0,0
812,-244,0,0,0,0,0,0,0,0,0,-1,2036,1268,0,0
-700,-251,0,0,0,0,0,0,0,0,0,-1,524,1275,0,0
-693,-251,0,0,0,0,0,0,0,0,0,-1,531,1275,0,0
-686,-251,0,0,0,0,0,0,0,0,0,-1,538,1275,0,0
-679,-251,0,0,0,0,0,0,0,0,0,-1,545,1275,0,0
-672,-251,0,0,0,0,0,0,0,0,0,-1,552,1275,0,0
-665,-251,-22.9061,-1.07251,0.117675,-0.0653414,0.0445714,0.127953,-0.075619,0.226627,0.11882,0.045915,559,1275,-22.9061,1.07254
-658,-251,-22.2869,-0.523682,0.0965094,-0.0476426,0.0375672,0.105712,-0.0568454,0.240238,0.0952557,0.0474087,566,1275,-22.2869,0.523699
-651,-251,-21.3074,-0.0446777,0.0772818,-0.0342403,0.0317545,0.0856897,-0.0426481,0.258836,0.0754721,0.0479143,573,1275,-21.3075,0.0446853
-644,-251,-20.5341,0.543091,0.0607683,-0.0241662,0.0265728,0.0683968,-0.0317947,0.27956,0.0591183,0.047803,580,1275,-20.534,-0.543035
-637,-251,-19.8149,1.24463,0.0470385,-0.0166489,0.0218981,0.0538412,-0.0234516,0.301203,0.0457603,0.0451318,587,1275,-19.8149,-1.24462
-630,-251,-19.0342,1.86963,0.0358377,-0.0110686,0.0176725,0.0417506,-0.0169816,0.322876,0.0348997,0.0458864,594,1275,-19.0342,-1.86965
-623,-251,-18.9385,2.31006,0.0268209,-0.00698707,0.0138958,0.0317992,-0.0119654,0.344018,0.0261181,0.039635,601,1275,-18.9384,-2.31012
-616,-251,-18.8785,2.79333,0.0194948,-0.00354056,0.0104047,0.0234986,-0.00754432,0.367337,0.018695,0.0216608,608,1275,-18.8785,-2.79334
-609,-251,-18.9078,3.21033,0.0135857,-0.000860314,0.00760782,0.0168532,-0.00412781,0.40567,0.0128346,0.0207371,615,1275,-18.9078,-3.21034
-602,-251,-18.9348,3.64319,0.00860683,0.00027909,0.00538815,0.0112525,-0.00236659,0.456436,0.00840237,0.0146824,622,1275,-18.9348,-3.64319
-595,-251,-18.947,4.06055,0.00600963,0.000853712,0.00350063,0.00777912,-0.000915776,0.468019,0.00551673,0.0129792,629,1275,-18.947,-4.06059
-588,-251,-18.9525,4.46533,0.00543391,0.00102198,0.0026071,0.0066431,-0.000187206,0.434274,0.00449243,0.0152491,636,1275,-18.9525,-4.46533
-581,-251,-18.9604,4.89294,0.00555547,0.000881293,0.00247124,0.00661971,-0.000182945,0.406646,0.00447537,0.0143352,643,1275,-18.9604,-4.89295
-574,-251,-18.9641,5.34607,0.00643355,0.000747403,0.00292457,0.00766922,-0.00048827,0.399764,0.0052831,0.0126074,650,1275,-18.9641,-5.34613
-567,-251,-18.9835,5.75586,0.00701457,0.00115823,0.00344706,0.00860927,-0.000436472,0.433306,0.0058904,0.0116365,657,1275,-18.9835,-5.75581
-560,-251,-18.9294,6.24976,0.00631859,0.00228907,0.00385854,0.00865671,-4.90551e-05,0.544791,0.00578756,0.0287,664,1275,-18.9294,-6.24982
-553,-251,-18.7744,6.71326,0,0,0,0,0,0,0,-1,671,1275,-18.7744,-6.71324
-546,-251,-12.995,4.5675,0,0,0,0,0,0,0,-1,678,1275,-12.995,-4.56745
-539,-251,-10.7916,0.366333,0,0,0,0,0,0,0,-1,685,1275,-10.7916,-0.366282
-532,-251,-10.7391,-0.00769043,0,0,0,0,0,0,0,-1,692,1275,-10.7391,0.00773227
-525,-251,-28.6204,1.06458,0,0,0,0,0,0,0,-1,699,1275,-28.6203,-1.06455
-518,-251,-27.8907,0.236816,0,0,0,0,0,0,0,-1,706,1275,-27.8907,-0.23686
-511,-251,-28.4444,0.898926,0,0,0,0,0,0,0,-1,713,1275,-28.4444,-0.89896
-504,-251,-28.5251,0.863159,0,0,0,0,0,0,0,-1,720,1275,-28.5252,-0.863141
-497,-251,-29.5264,1.12964,0,0,0,0,0,0,0,-1,727,1275,-29.5264,-1.12961
-490,-251,0,0,0,0,0,0,0,0,0,-1,734,1275,0,0
-483,-251,0,0,0,0,0,0,0,0,0,-1,741,1275,0,0
-476,-251,0,0,0,0,0,0,0,0,0,-1,748,1275,0,0
-469,-251,0,0,0,0,0,0,0,0,0,-1,755,1275,0,0
-462,-251,0,0,0,0,0,0,0,0,0,-1,762,1275,0,0
-455,-251,0,0,0,0,0,0,0,0,0,-1,769,1275,0,0
-448,-251,0,0,0,0,0,0,0,0,0,-1,776,1275,0,0
-441,-251,0,0,0,0,0,0,0,0,0,-1,783,1275,0,0
-434,-251,0,0,0,0,0,0,0,0,0,-1,790,1275,0,0
-427,-251,0,0,0,0,0,0,0,0,0,-1,797,1275,0,0
-420,-251,0,0,0,0,0,0,0,0,0,-1,804,1275,0,0
-413,-251,0,0,0,0,0,0,0,0,0,-1,811,1275,0,0
-406,-251,0,0,0,0,0,0,0,0,0,-1,818,1275,0,0
-399,-251,0,0,0,0,0,0,0,0,0,-1,825,1275,0,0
-392,-251,0,0,0,0,0,0,0,0,0,-1,832,1275,0,0
-385,-251,0,0,0,0,0,0,0,0,0,-1,839,1275,0,0
-378,-251,0,0,0,0,0,0,0,0,0,-1,846,1275,0,0
-371,-251,0,0,0,0,0,0,0,0,0,-1,853,1275,0,0
-364,-251,0,0,0,0,0,0,0,0,0,-1,860,1275,0,0
-357,-251,0,0,0,0,0,0,0,0,0,-1,867,1275,0,0
-350,-251,0,0,0,0,0,0,0,0,0,-1,874,1275,0,0
-343,-251,0,0,0,0,0,0,0,0,0,-1,881,1275,0,0
-336,-251,0,0,0,0,0,0,0,0,0,-1,888,1275,0,0
-329,-251,0,0,0,0,0,0,0,0,0,-1,895,1275,0,0
-322,-251,0,0,0,0,0,0,0,0,0,-1,902,1275,0,0
-315,-251,0,0,0,0,0,0,0,0,0,-1,909,1275,0,0
-308,-251,0,0,0,0,0,0,0,0,0,-1,916,1275,0,0
-301,-251,0,0,0,0,0,0,0,0,0,-1,923,1275,0,0
-294,-251,0,0,0,0,0,0,0,0,0,-1,930,1275,0,0
-287,-251,0,0,0,0,0,0,0,0,0,-1,937,1275,0,0
-280,-251,0,0,0,0,0,0,0,0,0,-1,944,1275,0,0
-273,-251,0,0,0,0,0,0,0,0,0,-1,951,1275,0,0
-266,-251,0,0,0,0,0,0,0,0,0,-1,958,1275,0,0
-259,-251,0,0,0,0,0,0,0,0,0,-1,965,1275,0,0
-252,-251,0,0,0,0,0,0,0,0,0,-1,972,1275,0,0
-245,-251,0,0,0,0,0,0,0,0,0,-1,979,1275,0,0
-238,-251,0,0,0,0,0,0,0,0,0,-1,986,1275,0,0
-231,-251,0,0,0,0,0,0,0,0,0,-1,993,1275,0,0
-224,-251,0,0,0,0,0,0,0,0,0,-1,1000,1275,0,0
-217,-251,0,0,0,0,0,0,0,0,0,-1,1007,1275,0,0
-210,-251,0,0,0,0,0,0,0,0,0,-1,1014,1275,0,0
-203,-251,0,0,0,0,0,0,0,0,0,-1,1021,1275,0,0
-196,-251,0,0,0,0,0,0,0,0,0,-1,1028,1275,0,0
-189,-251,0,0,0,0,0,0,0,0,0,-1,1035,1275,0,0
-182,-251,0,0,0,0,0,0,0,0,0,-1,1042,1275,0,0
-175,-251,0,0,0,0,0,0,0,0,0,-1,1049,1275,0,0
-168,-251,0,0,0,0,0,0,0,0,0,-1,1056,1275,0,0
-161,-251,0,0,0,0,0,0,0,0,0,-1,1063,1275,0,0
-154,-251,0,0,0,0,0,0,0,0,0,-1,1070,1275,0,0
-147,-251,0,0,0,0,0,0,0,0,0,-1,1077,1275,0,0
-140,-251,0,0,0,0,0,0,0,0,0,-1,1084,1275,0,0
-133,-251,0,0,0,0,0,0,0,0,0,-1,1091,1275,0,0
-126,-251,0,0,0,0,0,0,0,0,0,-1,1098,1275,0,0
-119,-251,0,0,0,0,0,0,0,0,0,-1,1105,1275,0,0
-112,-251,0,0,0,0,0,0,0,0,0,-1,1112,1275,0,0
-105,-251,0,0,0,0,0,0,0,0,0,-1,1119,1275,0,0
-98,-251,0,0,0,0,0,0,0,0,0,-1,1126,1275,0,0
-91,-251,0,0,0,0,0,0,0,0,0,-1,1133,1275,0,0
-84,-251,0,0,0,0,0,0,0,0,0,-1,1140,1275,0,0
-77,-251,0,0,0,0,0,0,0,0,0,-1,1147,1275,0,0
-70,-251,0,0,0,0,0,0,0,0,0,-1,1154,1275,0,0
-63,-251,0,0,0,0,0,0,0,0,0,-1,1161,1275,0,0
-56,-251,0,0,0,0,0,0,0,0,0,-1,1168,1275,0,0
-49,-251,0,0,0,0,0,0,0,0,0,-1,1175,1275,0,0
-42,-251,0,0,0,0,0,0,0,0,0,-1,1182,1275,0,0
-35,-251,0,0,0,0,0,0,0,0,0,-1,1189,1275,0,0
-28,-251,0,0,0,0,0,0,0,0,0,-1,1196,1275,0,0
-21,-251,0,0,0,0,0,0,0,0,0,-1,1203,1275,0,0
-14,-251,0,0,0,0,0,0,0,0,0,-1,1210,1275,0,0
-7,-251,0,0,0,0,0,0,0,0,0,-1,1217,1275,0,0
0,-251,0,0,0,0,0,0,0,0,0,-1,1224,1275,0,0
7,-251,0,0,0,0,0,0,0,0,0,-1,1231,1275,0,0
14,-251,0,0,0,0,0,0,0,0,0,-1,1238,1275,0,0
21,-251,0,0,0,0,0,0,0,0,0,-1,1245,1275,0,0
28,-251,0,0,0,0,0,0,0,0,0,-1,1252,1275,0,0
35,-251,0,0,0,0,0,0,0,0,0,-1,1259,1275,0,0
42,-251,0,0,0,0,0,0,0,0,0,-1,1266,1275,0,0
49,-251,0,0,0,0,0,0,0,0,0,-1,1273,1275,0,0
56,-251,0,0,0,0,0,0,0,0,0,-1,1280,1275,0,0
63,-251,0,0,0,0,0,0,0,0,0,-1,1287,1275,0,0
70,-251,0,0,0,0,0,0,0,0,0,-1,1294,1275,0,0
77,-251,0,0,0,0,0,0,0,0,0,-1,1301,1275,0,0
84,-251,0,0,0,0,0,0,0,0,0,-1,1308,1275,0,0
91,-251,0,0,0,0,0,0,0,0,0,-1,1315,1275,0,0
98,-251,0,0,0,0,0,0,0,0,0,-1,1322,1275,0,0
105,-251,0,0,0,0,0,0,0,0,0,-1,1329,1275,0,0
112,-251,0,0,0,0,0,0,0,0,0,-1,1336,1275,0,0
119,-251,0,0,0,0,0,0,0,0,0,-1,1343,1275,0,0
126,-251,0,0,0,0,0,0,0,0,0,-1,1350,1275,0,0
133,-251,0,0,0,0,0,0,0,0,0,-1,1357,1275,0,0
140,-251,0,0,0,0,0,0,0,0,0,-1,1364,1275,0,0
147,-251,0,0,0,0,0,0,0,0,0,-1,1371,1275,0,0
154,-251,0,0,0,0,0,0,0,0,0,-1,1378,1275,0,0
161,-251,0,0,0,0,0,0,0,0,0,-1,1385,1275,0,0
168,-251,0,0,0,0,0,0,0,0,0,-1,1392,1275,0,0
175,-251,0,0,0,0,0,0,0,0,0,-1,1399,1275,0,0
182,-251,0,0,0,0,0,0,0,0,0,-1,1406,1275,0,0
189,-251,0,0,0,0,0,0,0,0,0,-1,1413,1275,0,0
196,-251,0,0,0,0,0,0,0,0,0,-1,1420,1275,0,0
203,-251,0,0,0,0,0,0,0,0,0,-1,1427,1275,0,0
210,-251,0,0,0,0,0,0,0,0,0,-1,1434,1275,0,0
217,-251,0,0,0,0,0,0,0,0,0,-1,1441,1275,0,0
224,-251,0,0,0,0,0,0,0,0,0,-1,1448,1275,0,0
231,-251,0,0,0,0,0,0,0,0,0,-1,1455,1275,0,0
238,-251,0,0,0,0,0,0,0,0,0,-1,1462,1275,0,0
245,-251,0,0,0,0,0,0,0,0,0,-1,1469,1275,0,0
252,-251,0,0,0,0,0,0,0,0,0,-1,1476,1275,0,0
259,-251,0,0,0,0,0,0,0,0,0,-1,1483,1275,0,0
266,-251,0,0,0,0,0,0,0,0,0,-1,1490,1275,0,0
273,-251,0,0,0,0,0,0,0,0,0,-1,1497,1275,0,0
280,-251,0,0,0,0,0,0,0,0,0,-1,1504,1275,0,0
287,-251,0,0,0,0,0,0,0,0,0,-1,1511,1275,0,0
294,-251,0,0,0,0,0,0,0,0,0,-1,1518,1275,0,0
301,-251,0,0,0,0,0,0,0,0,0,-1,1525,1275,0,0
308,-251,0,0,0,0,0,0,0,0,0,-1,1532,1275,0,0
315,-251,0,0,0,0,0,0,0,0,0,-1,1539,1275,0,0
322,-251,0,0,0,0,0,0,0,0,0,-1,1546,1275,0,0
329,-251,0,0,0,0,0,0,0,0,0,-1,1553,1275,0,0
336,-251,0,0,0,0,0,0,0,0,0,-1,1560,1275,0,0
343,-251,0,0,0,0,0,0,0,0,0,-1,1567,1275,0,0
350,-251,0,0,0,0,0,0,0,0,0,-1,1574,1275,0,0
357,-251,0,0,0,0,0,0,0,0,0,-1,1581,1275,0,0
364,-251,0,0,0,0,0,0,0,0,0,-1,1588,1275,0,0
371,-251,0,0,0,0,0,0,0,0,0,-1,1595,1275,0,0
378,-251,0,0,0,0,0,0,0,0,0,-1,1602,1275,0,0
385,-251,0,0,0,0,0,0,0,0,0,-1,1609,1275,0,0
392,-251,0,0,0,0,0,0,0,0,0,-1,1616,1275,0,0
399,-251,0,0,0,0,0,0,0,0,0,-1,1623,1275,0,0
406,-251,0,0,0,0,0,0,0,0,0,-1,1630,1275,0,0
413,-251,0,0,0,0,0,0,0,0,0,-1,1637,1275,0,0
420,-251,0,0,0,0,0,0,0,0,0,-1,1644,1275,0,0
427,-251,0,0,0,0,0,0,0,0,0,-1,1651,1275,0,0
434,-251,0,0,0,0,0,0,0,0,0,-1,1658,1275,0,0
441,-251,0,0,0,0,0,0,0,0,0,-1,1665,1275,0,0
448,-251,0,0,0,0,0,0,0,0,0,-1,1672,1275,0,0
455,-251,0,0,0,0,0,0,0,0,0,-1,1679,1275,0,0
462,-251,0,0,0,0,0,0,0,0,0,-1,1686,1275,0,0
469,-251,0,0,0,0,0,0,0,0,0,-1,1693,1275,0,0
476,-251,0,0,0,0,0,0,0,0,0,-1,1700,1275,0,0
483,-251,0,0,0,0,0,0,0,0,0,-1,1707,1275,0,0
490,-251,0,0,0,0,0,0,0,0,0,-1,1714,1275,0,0
497,-251,0,0,0,0,0,0,0,0,0,-1,1721,1275,0,0
504,-251,0,0,0,0,0,0,0,0,0,-1,1728,1275,0,0
511,-251,0,0,0,0,0,0,0,0,0,-1,1735,1275,0,0
518,-251,0,0,0,0,0,0,0,0,0,-1,1742,1275,0,0
525,-251,0,0,0,0,0,0,0,0,0,-1,1749,1275,0,0
532,-251,0,0,0,0,0,0,0,0,0,-1,1756,1275,0,0
539,-251,0,0,0,0,0,0,0,0,0,-1,1763,1275,0,0
546,-251,0,0,0,0,0,0,0,0,0,-1,1770,1275,0,0
553,-251,0,0,0,0,0,0,0,0,0,-1,1777,1275,0,0
560,-251,0,0,0,0,0,0,0,0,0,-1,1784,1275,0,0
567,-251,0,0,0,0,0,0,0,0,0,-1,1791,1275,0,0
574,-251,0,0,0,0,0,0,0,0,0,-1,1798,1275,0,0
581,-251,0,0,0,0,0,0,0,0,0,-1,1805,1275,0,0
588,-251,0,0,0,0,0,0,0,0,0,-1,1812,1275,0,0
595,-251,0,0,0,0,0,0,0,0,0,-1,1819,1275,0,0
602,-251,0,0,0,0,0,0,0,0,0,-1,1826,1275,0,0
609,-251,40.4435,2.64124,0.0160011,0.00646434,-0.000306863,0.0160109,0.00645448,-0.0321327,0.00930156,0.0307327,1833,1275,40.4434,-2.64117
616,-251,40.4854,2.67566,0.00711384,0.00283388,0.000543123,0.00718169,0.00276604,0.124275,0.00418265,0.0287035,1840,1275,40.4854,-2.67562
623,-251,40.5175,2.71387,-0.0038749,3.40121e-05,0.00115334,0.000348936,-0.00418983,1.30424,0.0029165,0.0254149,1847,1275,40.5174,-2.7139
630,-251,40.547,2.69629,-0.0137457,-0.0014096,0.00121384,-0.0012913,-0.013864,1.47364,0.00884373,0.0352328,1854,1275,40.547,-2.6963
637,-251,40.566,2.38269,0,0,0,0,0,0,0,-1,1861,1275,40.566,-2.3827
644,-251,40.0133,1.7843,-0.0178397,-0.00140284,0.000535092,-0.00138544,-0.0178571,1.53829,0.0114708,0.0465915,1868,1275,40.0133,-1.7843
651,-251,39.2583,1.31189,-0.0161864,-0.00115201,0.000183756,-0.00114976,-0.0161887,1.55858,0.0104303,0.0480423,1875,1275,39.2583,-1.3119
658,-251,38.5402,0.888916,0,0,0,0,0,0,0,-1,1882,1275,38.5401,-0.888916
665,-251,32.9579,2.60229,0,0,0,0,0,0,0,-1,1889,1275,32.9579,-2.60231
672,-251,26.0721,4.53064,0,0,0,0,0,0,0,-1,1896,1275,26.0721,-4.53063
679,-251,29.1344,8.63782,0,0,0,0,0,0,0,-1,1903,1275,29.1344,-8.63778
686,-251,30.9376,8.74182,0,0,0,0,0,0,0,-1,1910,1275,30.9377,-8.74181
693,-251,30.9108,8.37427,-0.00662884,0.00179166,-0.00057194,0.00183033,-0.00666751,-1.50329,0.00516439,0.0124035,1917,1275,30.9108,-8.37424
700,-251,30.8899,7.98315,-0.00260471,-0.000241577,-0.000209725,-0.000223109,-0.00262318,-1.48296,0.00167936,0.00892062,1924,1275,30.8898,-7.98318
707,-251,30.9144,7.59509,0.000152721,-0.00108904,-0.000171245,0.000175903,-0.00111222,-0.134559,0.000806537,0.0118081,1931,1275,30.9145,-7.59504
714,-251,30.9269,7.2179,0.000775875,-0.000313482,-9.18051e-05,0.000783558,-0.000321164,-0.0834899,0.000656171,0.0135921,1938,1275,30.9269,-7.21788
721,-251,30.8591,6.85925,0.000500548,0.000291312,0.00039218,0.000801824,-9.96451e-06,0.655054,0.000537902,0.0168131,1945,1275,30.8591,-6.8592
728,-251,30.8401,6.50513,0.000443105,0.000974587,0.000676949,0.00143609,-1.83941e-05,0.972435,0.000963581,0.0189016,1952,1275,30.8401,-6.50512
735,-251,30.8523,6.09729,0.000820787,0.00191177,0.000775936,0.00231477,0.000417786,1.09177,0.00142449,0.016748,1959,1275,30.8522,-6.09727
742,-251,30.781,5.81445,0.00181862,0.0031444,0.000724018,0.00346315,0.00149987,1.15607,0.00200541,0.0178757,1966,1275,30.781,-5.81441
749,-251,30.5835,5.57288,0.00380964,0.00481715,0.000537817,0.00505029,0.0035765,1.16175,0.00299885,0.035953,1973,1275,30.5835,-5.57291
756,-251,30.3751,5.28931,0,0,0,0,0,0,0,-1,1980,1275,30.3751,-5.2893
763,-251,30.749,4.41736,0,0,0,0,0,0,0,-1,1987,1275,30.7491,-4.41734
770,-251,31.7928,3.86157,0,0,0,0,0,0,0,-1,1994,1275,31.7929,-3.86158
777,-251,31.5731,4.33252,0,0,0,0,0,0,0,-1,2001,1275,31.5731,-4.33251
784,-251,32.0776,5.78247,0,0,0,0,0,0,0,-1,2008,1275,32.0776,-5.78247
791,-251,0,0,0,0,0,0,0,0,0,-1,2015,1275,0,0
798,-251,0,0,0,0,0,0,0,0,0,-1,2022,1275,0,0
805,-251,0,0,0,0,0,0,0,0,0,-1,2029,1275,0,0
812,-251,0,0,0,0,0,0,0,0,0,-1,2036,1275,0,0
-700,-258,0,0,0,0,0,0,0,0,0,-1,524,1282,0,0
-693,-258,0,0,0,0,0,0,0,0,0,-1,531,1282,0,0
-686,-258,0,0,0,0,0,0,0,0,0,-1,538,1282,0,0
-679,-258,0,0,0,0,0,0,0,0,0,-1,545,1282,0,0
-672,-258,0,0,0,0,0,0,0,0,0,-1,552,1282,0,0
-665,-258,-22.3589,-0.524536,0,0,0,0,0,0,0,-1,559,1282,-22.3589,0.524479
-658,-258,-21.9243,-0.175537,0,0,0,0,0,0,0,-1,566,1282,-21.9243,0.175574
-651,-258,-20.8856,0.132568,0,0,0,0,0,0,0,-1,573,1282,-20.8856,-0.132589
-644,-258,-19.8687,0.705566,0.0559274,-0.0247458,0.0316134,0.0668397,-0.0356581,0.332373,0.060083,0.0485114,580,1282,-19.8686,-0.70555
-637,-258,-19.3422,1.43433,0.0423727,-0.0166202,0.0265187,0.0525409,-0.0267884,0.366145,0.0465983,0.0456642,587,1282,-19.3422,-1.4343
-630,-258,-18.3824,2.02808,0,0,0,0,0,0,0,-1,594,1282,-18.3824,-2.02808
-623,-258,-18.5375,2.27478,0,0,0,0,0,0,0,-1,601,1282,-18.5375,-2.27476
-616,-258,-18.4919,2.74573,0.0176611,-0.00345512,0.0131535,0.0239698,-0.00976379,0.44721,0.0200435,0.0371738,608,1282,-18.4919,-2.74567
-609,-258,-18.4766,3.22778,0.0124541,-0.000810142,0.00972796,0.0175956,-0.00595164,0.486209,0.0141382,0.0179119,615,1282,-18.4766,-3.2278
-602,-258,-18.5123,3.66492,0.00797467,0.000416317,0.0069232,0.012083,-0.00369202,0.535564,0.00952752,0.0138876,622,1282,-18.5123,-3.66493
-595,-258,-18.5245,4.07471,0.00572609,0.000953109,0.00432364,0.00827815,-0.00159895,0.533224,0.00612175,0.0114355,629,1282,-18.5245,-4.07467
-588,-258,-18.5174,4.49329,0.00511481,0.00114848,0.00285658,0.00660915,-0.000345858,0.481972,0.00452579,0.0124597,636,1282,-18.5174,-4.49331
-581,-258,-18.5126,4.91431,0.00503199,0.00104257,0.00236228,0.00612909,-5.45203e-05,0.434782,0.00410435,0.0146882,643,1282,-18.5126,-4.91427
-574,-258,-18.5015,5.34473,0.00588644,0.0008016,0.0027251,0.00707095,-0.000382915,0.410032,0.00484665,0.0146957,650,1282,-18.5016,-5.34469
-567,-258,-18.5615,5.75488,0.00684649,0.0010349,0.00324547,0.00829692,-0.000415527,0.420281,0.00567486,0.0139038,657,1282,-18.5615,-5.75492
-560,-258,-18.522,6.16467,0.00668575,0.00209237,0.0037752,0.00880799,-2.98666e-05,0.512125,0.00588197,0.0318073,664,1282,-18.522,-6.16462
-553,-258,-18.3543,6.79102,0,0,0,0,0,0,0,-1,671,1282,-18.3543,-6.79099
-546,-258,-14.2231,5.92029,0,0,0,0,0,0,0,-1,678,1282,-14.2231,-5.92028
-539,-258,-10.2228,4.05823,0,0,0,0,0,0,0,-1,685,1282,-10.2228,-4.05823
-532,-258,-10.2173,-0.353882,0,0,0,0,0,0,0,-1,692,1282,-10.2173,0.353836
-525,-258,-21.8661,-1.5929,0,0,0,0,0,0,0,-1,699,1282,-21.8661,1.59285
-518,-258,-28.403,1.21533,0,0,0,0,0,0,0,-1,706,1282,-28.403,-1.21539
-511,-258,-23.5061,1.16833,0,0,0,0,0,0,0,-1,713,1282,-23.5061,-1.16833
-504,-258,-22.9178,0.484131,0,0,0,0,0,0,0,-1,720,1282,-22.9178,-0.484106
-497,-258,-17.8047,0.730469,0,0,0,0,0,0,0,-1,727,1282,-17.8048,-0.730489
-490,-258,-15.4346,0.632935,0,0,0,0,0,0,0,-1,734,1282,-15.4346,-0.632917
-483,-258,0,0,0,0,0,0,0,0,0,-1,741,1282,0,0
-476,-258,0,0,0,0,0,0,0,0,0,-1,748,1282,0,0
-469,-258,0,0,0,0,0,0,0,0,0,-1,755,1282,0,0
-462,-258,0,0,0,0,0,0,0,0,0,-1,762,1282,0,0
-455,-258,0,0,0,0,0,0,0,0,0,-1,769,1282,0,0
-448,-258,0,0,0,0,0,0,0,0,0,-1,776,1282,0,0
-441,-258,0,0,0,0,0,0,0,0,0,-1,783,1282,0,0
-434,-258,0,0,0,0,0,0,0,0,0,-1,790,1282,0,0
-427,-258,0,0,0,0,0,0,0,0,0,-1,797,1282,0,0
-420,-258,0,0,0,0,0,0,0,0,0,-1,804,1282,0,0
-413,-258,0,0,0,0,0,0,0,0,0,-1,811,1282,0,0
-406,-258,0,0,0,0,0,0,0,0,0,-1,818,1282,0,0
-399,-258,0,0,0,0,0,0,0,0,0,-1,825,1282,0,0
-392,-258,0,0,0,0,0,0,0,0,0,-1,832,1282,0,0
-385,-258,0,0,0,0,0,0,0,0,0,-1,839,1282,0,0
-378,-258,0,0,0,0,0,0,0,0,0,-1,846,1282,0,0
-371,-258,0,0,0,0,0,0,0,0,0,-1,853,1282,0,0
-364,-258,0,0,0,0,0,0,0,0,0,-1,860,1282,0,0
-357,-258,0,0,0,0,0,0,0,0,0,-1,867,1282,0,0
-350,-258,0,0,0,0,0,0,0,0,0,-1,874,1282,0,0
-343,-258,0,0,0,0,0,0,0,0,0,-1,881,1282,0,0
-336,-258,0,0,0,0,0,0,0,0,0,-1,888,1282,0,0
-329,-258,0,0,0,0,0,0,0,0,0,-1,895,1282,0,0
-322,-258,0,0,0,0,0,0,0,0,0,-1,902,1282,0,0
-315,-258,0,0,0,0,0,0,0,0,0,-1,909,1282,0,0
-308,-258,0,0,0,0,0,0,0,0,0,-1,916,1282,0,0
-301,-258,0,0,0,0,0,0,0,0,0,-1,923,1282,0,0
-294,-258,0,0,0,0,0,0,0,0,0,-1,930,1282,0,0
-287,-258,0,0,0,0,0,0,0,0,0,-1,937,1282,0,0
-280,-258,0,0,0,0,0,0,0,0,0,-1,944,1282,0,0
-273,-258,0,0,0,0,0,0,0,0,0,-1,951,1282,0,0
-266,-258,0,0,0,0,0,0,0,0,0,-1,958,1282,0,0
-259,-258,0,0,0,0,0,0,0,0,0,-1,965,1282,0,0
-252,-258,0,0,0,0,0,0,0,0,0,-1,972,1282,0,0
-245,-258,0,0,0,0,0,0,0,0,0,-1,979,1282,0,0
-238,-258,0,0,0,0,0,0,0,0,0,-1,986,1282,0,0
-231,-258,0,0,0,0,0,0,0,0,0,-1,993,1282,0,0
-224,-258,0,0,0,0,0,0,0,0,0,-1,1000,1282,0,0
-217,-258,0,0,0,0,0,0,0,0,0,-1,1007,1282,0,0
-210,-258,0,0,0,0,0,0,0,0,0,-1,1014,1282,0,0
-203,-258,0,0,0,0,0,0,0,0,0,-1,1021,1282,0,0
-196,-258,0,0,0,0,0,0,0,0,0,-1,1028,1282,0,0
-189,-258,0,0,0,0,0,0,0,0,0,-1,1035,1282,0,0
-182,-258,0,0,0,0,0,0,0,0,0,-1,1042,1282,0,0
-175,-258,0,0,0,0,0,0,0,0,0,-1,1049,1282,0,0
-168,-258,0,0,0,0,0,0,0,0,0,-1,1056,1282,0,0
-161,-258,0,0,0,0,0,0,0,0,0,-1,1063,1282,0,0
-154,-258,0,0,0,0,0,0,0,0,0,-1,1070,1282,0,0
-147,-258,0,0,0,0,0,0,0,0,0,-1,1077,1282,0,0
-140,-258,0,0,0,0,0,0,0,0,0,-1,1084,1282,0,0
-133,-258,0,0,0,0,0,0,0,0,0,-1,1091,1282,0,0
-126,-258,0,0,0,0,0,0,0,0,0,-1,1098,1282,0,0
-119,-258,0,0,0,0,0,0,0,0,0,-1,1105,1282,0,0
-112,-258,0,0,0,0,0,0,0,0,0,-1,1112,1282,0,0
-105,-258,0,0,0,0,0,0,0,0,0,-1,1119,1282,0,0
-98,-258,0,0,0,0,0,0,0,0,0,-1,1126,1282,0,0
-91,-258,0,0,0,0,0,0,0,0,0,-1,1133,1282,0,0
-84,-258,0,0,0,0,0,0,0,0,0,-1,1140,1282,0,0
-77,-258,0,0,0,0,0,0,0,0,0,-1,1147,1282,0,0
-70,-258,0,0,0,0,0,0,0,0,0,-1,1154,1282,0,0
-63,-258,0,0,0,0,0,0,0,0,0,-1,1161,1282,0,0
-56,-258,0,0,0,0,0,0,0,0,0,-1,1168,1282,0,0
-49,-258,0,0,0,0,0,0,0,0,0,-1,1175,1282,0,0
-42,-258,0,0,0,0,0,0,0,0,0,-1,1182,1282,0,0
-35,-258,0,0,0,0,0,0,0,0,0,-1,1189,1282,0,0
-28,-258,0,0,0,0,0,0,0,0,0,-1,1196,1282,0,0
-21,-258,0,0,0,0,0,0,0,0,0,-1,1203,1282,0,0
-14,-258,0,0,0,0,0,0,0,0,0,-1,1210,1282,0,0
-7,-258,0,0,0,0,0,0,0,0,0,-1,1217,1282,0,0
0,-258,0,0,0,0,0,0,0,0,0,-1,1224,1282,0,0
7,-258,0,0,0,0,0,0,0,0,0,-1,1231,1282,0,0
14,-258,0,0,0,0,0,0,0,0,0,-1,1238,1282,0,0
21,-258,0,0,0,0,0,0,0,0,0,-1,1245,1282,0,0
28,-258,0,0,0,0,0,0,0,0,0,-1,1252,1282,0,0
35,-258,0,0,0,0,0,0,0,0,0,-1,1259,1282,0,0
42,-258,0,0,0,0,0,0,0,0,0,-1,1266,1282,0,0
49,-258,0,0,0,0,0,0,0,0,0,-1,1273,1282,0,0
56,-258,0,0,0,0,0,0,0,0,0,-1,1280,1282,0,0
63,-258,0,0,0,0,0,0,0,0,0,-1,1287,1282,0,0
70,-258,0,0,0,0,0,0,0,0,0,-1,1294,1282,0,0
77,-258,0,0,0,0,0,0,0,0,0,-1,1301,1282,0,0
84,-258,0,0,0,0,0,0,0,0,0,-1,1308,1282,0,0
91,-258,0,0,0,0,0,0,0,0,0,-1,1315,1282,0,0
98,-258,0,0,0,0,0,0,0,0,0,-1,1322,1282,0,0
105,-258,0,0,0,0,0,0,0,0,0,-1,1329,1282,0,0
112,-258,0,0,0,0,0,0,0,0,0,-1,1336,1282,0,0
119,-258,0,0,0,0,0,0,0,0,0,-1,1343,1282,0,0
126,-258,0,0,0,0,0,0,0,0,0,-1,1350,1282,0,0
133,-258,0,0,0,0,0,0,0,0,0,-1,1357,1282,0,0
140,-258,0,0,0,0,0,0,0,0,0,-1,1364,1282,0,0
147,-258,0,0,0,0,0,0,0,0,0,-1,1371,1282,0,0
154,-258,0,0,0,0,0,0,0,0,0,-1,1378,1282,0,0
161,-258,0,0,0,0,0,0,0,0,0,-1,1385,1282,0,0
168,-258,0,0,0,0,0,0,0,0,0,-1,1392,1282,0,0
175,-258,0,0,0,0,0,0,0,0,0,-1,1399,1282,0,0
182,-258,0,0,0,0,0,0,0,0,0,-1,1406,1282,0,0
189,-258,0,0,0,0,0,0,0,0,0,-1,1413,1282,0,0
196,-258,0,0,0,0,0,0,0,0,0,-1,1420,1282,0,0
203,-258,0,0,0,0,0,0,0,0,0,-1,1427,1282,0,0
210,-258,0,0,0,0,0,0,0,0,0,-1,1434,1282,0,0
217,-258,0,0,0,0,0,0,0,0,0,-1,1441,1282,0,0
224,-258,0,0,0,0,0,0,0,0,0,-1,1448,1282,0,0
231,-258,0,0,0,0,0,0,0,0,0,-1,1455,1282,0,0
238,-258,0,0,0,0,0,0,0,0,0,-1,1462,1282,0,0
245,-258,0,0,0,0,0,0,0,0,0,-1,1469,1282,0,0
252,-258,0,0,0,0,0,0,0,0,0,-1,1476,1282,0,0
259,-258,0,0,0,0,0,0,0,0,0,-1,1483,1282,0,0
266,-258,0,0,0,0,0,0,0,0,0,-1,1490,1282,0,0
273,-258,0,0,0,0,0,0,0,0,0,-1,1497,1282,0,0
280,-258,0,0,0,0,0,0,0,0,0,-1,1504,1282,0,0
287,-258,0,0,0,0,0,0,0,0,0,-1,1511,1282,0,0
294,-258,0,0,0,0,0,0,0,0,0,-1,1518,1282,0,0
301,-258,0,0,0,0,0,0,0,0,0,-1,1525,1282,0,0
308,-258,0,0,0,0,0,0,0,0,0,-1,1532,1282,0,0
315,-258,0,0,0,0,0,0,0,0,0,-1,1539,1282,0,0
322,-258,0,0,0,0,0,0,0,0,0,-1,1546,1282,0,0
329,-258,0,0,0,0,0,0,0,0,0,-1,1553,1282,0,0
336,-258,0,0,0,0,0,0,0,0,0,-1,1560,1282,0,0
343,-258,0,0,0,0,0,0,0,0,0,-1,1567,1282,0,0
350,-258,0,0,0,0,0,0,0,0,0,-1,1574,1282,0,0
357,-258,0,0,0,0,0,0,0,0,0,-1,1581,1282,0,0
364,-258,0,0,0,0,0,0,0,0,0,-1,1588,1282,0,0
371,-258,0,0,0,0,0,0,0,0,0,-1,1595,1282,0,0
378,-258,0,0,0,0,0,0,0,0,0,-1,1602,1282,0,0
385,-258,0,0,0,0,0,0,0,0,0,-1,1609,1282,0,0
392,-258,0,0,0,0,0,0,0,0,0,-1,1616,1282,0,0
399,-258,0,0,0,0,0,0,0,0,0,-1,1623,1282,0,0
406,-258,0,0,0,0,0,0,0,0,0,-1,1630,1282,0,0
413,-258,0,0,0,0,0,0,0,0,0,-1,1637,1282,0,0
420,-258,0,0,0,0,0,0,0,0,0,-1,1644,1282,0,0
427,-258,0,0,0,0,0,0,0,0,0,-1,1651,1282,0,0
434,-258,0,0,0,0,0,0,0,0,0,-1,1658,1282,0,0
441,-258,0,0,0,0,0,0,0,0,0,-1,1665,1282,0,0
448,-258,0,0,0,0,0,0,0,0,0,-1,1672,1282,0,0
455,-258,0,0,0,0,0,0,0,0,0,-1,1679,1282,0,0
462,-258,0,0,0,0,0,0,0,0,0,-1,1686,1282,0,0
469,-258,0,0,0,0,0,0,0,0,0,-1,1693,1282,0,0
476,-258,0,0,0,0,0,0,0,0,0,-1,1700,1282,0,0
483,-258,0,0,0,0,0,0,0,0,0,-1,1707,1282,0,0
490,-258,0,0,0,0,0,0,0,0,0,-1,1714,1282,0,0
497,-258,0,0,0,0,0,0,0,0,0,-1,1721,1282,0,0
504,-258,0,0,0,0,0,0,0,0,0,-1,1728,1282,0,0
511,-258,0,0,0,0,0,0,0,0,0,-1,1735,1282,0,0
518,-258,0,0,0,0,0,0,0,0,0,-1,1742,1282,0,0
525,-258,0,0,0,0,0,0,0,0,0,-1,1749,1282,0,0
532,-258,0,0,0,0,0,0,0,0,0,-1,1756,1282,0,0
539,-258,0,0,0,0,0,0,0,0,0,-1,1763,1282,0,0
546,-258,0,0,0,0,0,0,0,0,0,-1,1770,1282,0,0
553,-258,0,0,0,0,0,0,0,0,0,-1,1777,1282,0,0
560,-258,0,0,0,0,0,0,0,0,0,-1,1784,1282,0,0
567,-258,0,0,0,0,0,0,0,0,0,-1,1791,1282,0,0
574,-258,0,0,0,0,0,0,0,0,0,-1,1798,1282,0,0
581,-258,0,0,0,0,0,0,0,0,0,-1,1805,1282,0,0
588,-258,0,0,0,0,0,0,0,0,0,-1,1812,1282,0,0
595,-258,0,0,0,0,0,0,0,0,0,-1,1819,1282,0,0
602,-258,0,0,0,0,0,0,0,0,0,-1,1826,1282,0,0
609,-258,40.48,2.67688,0.0104018,0.0091545,-0.000602536,0.0106453,0.00891098,-0.384087,0.00659523,0.0249992,1833,1282,40.4799,-2.67683
616,-258,40.5009,2.71472,0.00216428,0.00480938,0.000630478,0.00495198,0.00202169,1.34837,0.00287502,0.025341,1840,1282,40.5009,-2.7147
623,-258,40.4983,2.68604,-0.00779472,0.00132968,0.00148786,0.00156616,-0.00803121,1.41317,0.00594536,0.0367339,1847,1282,40.4983,-2.68599
630,-258,40.546,2.48181,-0.0157209,-0.000709853,0.00164082,-0.000532594,-0.0158981,1.46318,0.0104258,0.0452192,1854,1282,40.5461,-2.48183
637,-258,40.3712,1.7804,-0.0186544,-0.00137938,0.001278,-0.00128534,-0.0187484,1.49735,0.0120933,0.0438813,1861,1282,40.3713,-1.78042
644,-258,39.9315,1.34363,-0.0175516,-0.00153642,0.00101116,-0.00147283,-0.0176152,1.50799,0.0112846,0.0484422,1868,1282,39.9316,-1.34363
651,-258,38.8967,0.94812,-0.0161705,-0.00153198,0.000703707,-0.00149823,-0.0162043,1.52287,0.0103397,0.0479622,1875,1282,38.8967,-0.948162
658,-258,37.3499,1.09253,-0.0144749,-0.00164837,0.000479088,-0.0016305,-0.0144927,1.53351,0.00916679,0.0484957,1882,1282,37.3498,-1.0925
665,-258,35.4747,1.1864,0,0,0,0,0,0,0,-1,1889,1282,35.4747,-1.18637
672,-258,22.703,2.80957,0,0,0,0,0,0,0,-1,1896,1282,22.703,-2.80962
679,-258,26.8693,8.19543,0,0,0,0,0,0,0,-1,1903,1282,26.8692,-8.19548
686,-258,30.5868,8.74622,0,0,0,0,0,0,0,-1,1910,1282,30.5868,-8.74627
693,-258,30.5571,8.36133,-0.00745161,0.00168172,-0.000132991,0.00168365,-0.00745354,-1.55624,0.00561503,0.0120347,1917,1282,30.5571,-8.36128
700,-258,30.5297,7.97424,-0.00312974,-0.000276883,0.000201371,-0.00026274,-0.00314388,1.50067,0.00201406,0.00871323,1924,1282,30.5296,-7.97428
707,-258,30.5382,7.59729,-0.000286829,-0.00100046,0.000152806,-0.000255487,-0.00103181,0.202309,0.000620496,0.0112676,1931,1282,30.5382,-7.59727
714,-258,30.5428,7.21826,0.000382395,-0.000223119,0.000111709,0.000402347,-0.000243071,0.176738,0.000376395,0.0117505,1938,1282,30.5429,-7.21826
721,-258,30.5188,6.84521,0.000142496,0.000389617,0.000445592,0.000728463,-0.00019635,0.920647,0.000562631,0.0150914,1945,1282,30.5187,-6.84521
728,-258,30.4788,6.49878,4.0407e-05,0.00106067,0.000621293,0.00135443,-0.000253352,1.12913,0.000998179,0.014637,1952,1282,30.4787,-6.49881
735,-258,30.4935,6.12158,0.000328306,0.00196241,0.000645664,0.00218673,0.000103985,1.23642,0.00142442,0.0151886,1959,1282,30.4935,-6.12162
742,-258,30.4529,5.80029,0.00122119,0.00318492,0.000487102,0.0032991,0.001107,1.34054,0.00193878,0.017968,1966,1282,30.4529,-5.80032
749,-258,30.3356,5.53613,0.00313855,0.00489216,0.000139221,0.00490314,0.00312756,1.49206,0.00286648,0.0381385,1973,1282,30.3356,-5.53611
756,-258,30.2605,5.13379,0,0,0,0,0,0,0,-1,1980,1282,30.2605,-5.13382
763,-258,31.2502,4.96985,0,0,0,0,0,0,0,-1,1987,1282,31.2503,-4.96981
770,-258,32.4839,4.53186,0,0,0,0,0,0,0,-1,1994,1282,32.4839,-4.5319
777,-258,31.912,4.83093,0,0,0,0,0,0,0,-1,2001,1282,31.912,-4.8309
784,-258,32.6525,6.43091,0,0,0,0,0,0,0,-1,2008,1282,32.6525,-6.43091
791,-258,0,0,0,0,0,0,0,0,0,-1,2015,1282,0,0
798,-258,0,0,0,0,0,0,0,0,0,-1,2022,1282,0,0
805,-258,0,0,0,0,0,0,0,0,0,-1,2029,1282,0,0
812,-258,0,0,0,0,0,0,0,0,0,-1,2036,1282,0,0
-700,-265,0,0,0,0,0,0,0,0,0,-1,524,1289,0,0
-693,-265,0,0,0,0,0,0,0,0,0,-1,531,1289,0,0
-686,-265,0,0,0,0,0,0,0,0,0,-1,538,1289,0,0
-679,-265,0,0,0,0,0,0,0,0,0,-1,545,1289,0,0
-672,-265,0,0,0,0,0,0,0,0,0,-1,552,1289,0,0
-665,-265,-21.8043,0.183594,0,0,0,0,0,0,0,-1,559,1289,-21.8042,-0.183562
-658,-265,-18.9856,-0.2948,0,0,0,0,0,0,0,-1,566,1289,-18.9856,0.294797
-651,-265,-18.8685,0.415161,0.0535141,-0.0270011,0.044087,0.0729585,-0.0464456,0.415384,0.0695022,0.0493921,573,1289,-18.8685,-0.415106
-644,-265,-18.8311,1.09814,0.0393604,-0.0174336,0.0383857,0.0587112,-0.0367844,0.466934,0.0556168,0.0476846,580,1289,-18.831,-1.0981
-637,-265,-18.8139,1.64795,0.0297333,-0.0112813,0.0326465,0.0477791,-0.0293271,0.504963,0.0449402,0.047805,587,1289,-18.8139,-1.6479
-630,-265,-18.6089,2.15161,0,0,0,0,0,0,0,-1,594,1289,-18.6089,-2.15163
-623,-265,-18.1633,2.01099,0,0,0,0,0,0,0,-1,601,1289,-18.1633,-2.01094
-616,-265,-18.0814,2.58545,0.0136044,-0.0019867,0.0166226,0.0241687,-0.0125509,0.566138,0.0215509,0.0433973,608,1289,-18.0814,-2.58541
-609,-265,-18.0471,3.20996,0.0100007,-1.91147e-05,0.012354,0.018322,-0.00834044,0.592768,0.015749,0.0187936,615,1289,-18.0471,-3.20991
-602,-265,-18.0802,3.68799,0.00665635,0.000897642,0.00879841,0.0130346,-0.00548058,0.627261,0.0109823,0.0146488,622,1289,-18.0802,-3.68798
-595,-265,-18.1028,4.1272,0.00507656,0.00125514,0.00532194,0.00882039,-0.00248869,0.613052,0.00686194,0.0123251,629,1289,-18.1029,-4.12716
-588,-265,-18.0882,4.52832,0.00466788,0.00139906,0.00313648,0.00657025,-0.000503306,0.545207,0.00455721,0.0113287,636,1289,-18.0882,-4.52833
-581,-265,-18.0852,4.94287,0.00452202,0.00129993,0.00214878,0.00559663,0.000225318,0.463728,0.00365829,0.0136201,643,1289,-18.0852,-4.94287
-574,-265,-18.131,5.39624,0.0052461,0.000951562,0.00238349,0.00630691,-0.000109249,0.418744,0.00424149,0.0150267,650,1289,-18.1311,-5.3963
-567,-265,-18.1929,5.81848,0.006374,0.000953033,0.00283471,0.00758554,-0.000258512,0.403898,0.00514536,0.0198353,657,1289,-18.1929,-5.81846
-560,-265,-18.176,6.21228,0.00671099,0.00175563,0.00345181,0.00848229,-1.56737e-05,0.474114,0.00566009,0.0208767,664,1289,-18.176,-6.2123
-553,-265,-18.0132,6.70215,0.0063086,0.00222785,0.00432706,0.00905222,-0.000515769,0.565088,0.00621387,0.0465297,671,1289,-18.0132,-6.7021
-546,-265,-17.8579,7.30298,0,0,0,0,0,0,0,-1,678,1289,-17.8579,-7.30297
-539,-265,-13.7668,6.39917,0,0,0,0,0,0,0,-1,685,1289,-13.7668,-6.39915
-532,-265,-8.53998,3.41467,0,0,0,0,0,0,0,-1,692,1289,-8.53996,-3.41473
-525,-265,-12.1317,0.514648,0,0,0,0,0,0,0,-1,699,1289,-12.1317,-0.514634
-518,-265,-24.1604,0.712402,0,0,0,0,0,0,0,-1,706,1289,-24.1604,-0.712425
-511,-265,-23.233,0.791626,0,0,0,0,0,0,0,-1,713,1289,-23.233,-0.791617
-504,-265,-22.3056,0.87085,0,0,0,0,0,0,0,-1,720,1289,-22.3056,-0.87081
-497,-265,-18.689,-0.278442,0,0,0,0,0,0,0,-1,727,1289,-18.689,0.278423
-490,-265,-15.1696,0.492676,0,0,0,0,0,0,0,-1,734,1289,-15.1696,-0.492688
-483,-265,0,0,0,0,0,0,0,0,0,-1,741,1289,0,0
-476,-265,0,0,0,0,0,0,0,0,0,-1,748,1289,0,0
-469,-265,0,0,0,0,0,0,0,0,0,-1,755,1289,0,0
-462,-265,0,0,0,0,0,0,0,0,0,-1,762,1289,0,0
-455,-265,0,0,0,0,0,0,0,0,0,-1,769,1289,0,0
-448,-265,0,0,0,0,0,0,0,0,0,-1,776,1289,0,0
-441,-265,0,0,0,0,0,0,0,0,0,-1,783,1289,0,0
-434,-265,0,0,0,0,0,0,0,0,0,-1,790,1289,0,0
-427,-265,0,0,0,0,0,0,0,0,0,-1,797,1289,0,0
-420,-265,0,0,0,0,0,0,0,0,0,-1,804,1289,0,0
-413,-265,0,0,0,0,0,0,0,0,0,-1,811,1289,0,0
-406,-265,0,0,0,0,0,0,0,0,0,-1,818,1289,0,0
-399,-265,0,0,0,0,0,0,0,0,0,-1,825,1289,0,0
-392,-265,0,0,0,0,0,0,0,0,0,-1,832,1289,0,0
-385,-265,0,0,0,0,0,0,0,0,0,-1,839,1289,0,0
-378,-265,0,0,0,0,0,0,0,0,0,-1,846,1289,0,0
-371,-265,0,0,0,0,0,0,0,0,0,-1,853,1289,0,0
-364,-265,0,0,0,0,0,0,0,0,0,-1,860,1289,0,0
-357,-265,0,0,0,0,0,0,0,0,0,-1,867,1289,0,0
-350,-265,0,0,0,0,0,0,0,0,0,-1,874,1289,0,0
-343,-265,0,0,0,0,0,0,0,0,0,-1,881,1289,0,0
-336,-265,0,0,0,0,0,0,0,0,0,-1,888,1289,0,0
-329,-265,0,0,0,0,0,0,0,0,0,-1,895,1289,0,0
-322,-265,0,0,0,0,0,0,0,0,0,-1,902,1289,0,0
-315,-265,0,0,0,0,0,0,0,0,0,-1,909,1289,0,0
-308,-265,0,0,0,0,0,0,0,0,0,-1,916,1289,0,0
-301,-265,0,0,0,0,0,0,0,0,0,-1,923,1289,0,0
-294,-265,0,0,0,0,0,0,0,0,0,-1,930,1289,0,0
-287,-265,0,0,0,0,0,0,0,0,0,-1,937,1289,0,0
-280,-265,0,0,0,0,0,0,0,0,0,-1,944,1289,0,0
-273,-265,0,0,0,0,0,0,0,0,0,-1,951,1289,0,0
-266,-265,0,0,0,0,0,0,0,0,0,-1,958,1289,0,0
-259,-265,0,0,0,0,0,0,0,0,0,-1,965,1289,0,0
-252,-265,0,0,0,0,0,0,0,0,0,-1,972,1289,0,0
-245,-265,0,0,0,0,0,0,0,0,0,-1,979,1289,0,0
-238,-265,0,0,0,0,0,0,0,0,0,-1,986,1289,0,0
-231,-265,0,0,0,0,0,0,0,0,0,-1,993,1289,0,0
-224,-265,0,0,0,0,0,0,0,0,0,-1,1000,1289,0,0
-217,-265,0,0,0,0,0,0,0,0,0,-1,1007,1289,0,0
-210,-265,0,0,0,0,0,0,0,0,0,-1,1014,1289,0,0
-203,-265,0,0,0,0,0,0,0,0,0,-1,1021,1289,0,0
-196,-265,0,0,0,0,0,0,0,0,0,-1,1028,1289,0,0
-189,-265,0,0,0,0,0,0,0,0,0,-1,1035,1289,0,0
-182,-265,0,0,0,0,0,0,0,0,0,-1,1042,1289,0,0
-175,-265,0,0,0,0,0,0,0,0,0,-1,1049,1289,0,0
-168,-265,0,0,0,0,0,0,0,0,0,-1,1056,1289,0,0
-161,-265,0,0,0,0,0,0,0,0,0,-1,1063,1289,0,0
-154,-265,0,0,0,0,0,0,0,0,0,-1,1070,1289,0,0
-147,-265,0,0,0,0,0,0,0,0,0,-1,1077,1289,0,0
-140,-265,0,0,0,0,0,0,0,0,0,-1,1084,1289,0,0
-133,-265,0,0,0,0,0,0,0,0,0,-1,1091,1289,0,0
-126,-265,0,0,0,0,0,0,0,0,0,-1,1098,1289,0,0
-119,-265,0,0,0,0,0,0,0,0,0,-1,1105,1289,0,0
-112,-265,0,0,0,0,0,0,0,0,0,-1,1112,1289,0,0
-105,-265,0,0,0,0,0,0,0,0,0,-1,1119,1289,0,0
-98,-265,0,0,0,0,0,0,0,0,0,-1,1126,1289,0,0
-91,-265,0,0,0,0,0,0,0,0,0,-1,1133,1289,0,0
-84,-265,0,0,0,0,0,0,0,0,0,-1,1140,1289,0,0
-77,-265,0,0,0,0,0,0,0,0,0,-1,1147,1289,0,0
-70,-265,0,0,0,0,0,0,0,0,0,-1,1154,1289,0,0
-63,-265,0,0,0,0,0,0,0,0,0,-1,1161,1289,0,0
-56,-265,0,0,0,0,0,0,0,0,0,-1,1168,1289,0,0
-49,-265,0,0,0,0,0,0,0,0,0,-1,1175,1289,0,0
-42,-265,0,0,0,0,0,0,0,0,0,-1,1182,1289,0,0
-35,-265,0,0,0,0,0,0,0,0,0,-1,1189,1289,0,0
-28,-265,0,0,0,0,0,0,0,0,0,-1,1196,1289,0,0
-21,-265,0,0,0,0,0,0,0,0,0,-1,1203,1289,0,0
-14,-265,0,0,0,0,0,0,0,0,0,-1,1210,1289,0,0
-7,-265,0,0,0,0,0,0,0,0,0,-1,1217,1289,0,0
0,-265,0,0,0,0,0,0,0,0,0,-1,1224,1289,0,0
7,-265,0,0,0,0,0,0,0,0,0,-1,1231,1289,0,0
14,-265,0,0,0,0,0,0,0,0,0,-1,1238,1289,0,0
21,-265,0,0,0,0,0,0,0,0,0,-1,1245,1289,0,0
28,-265,0,0,0,0,0,0,0,0,0,-1,1252,1289,0,0
35,-265,0,0,0,0,0,0,0,0,0,-1,1259,1289,0,0
42,-265,0,0,0,0,0,0,0,0,0,-1,1266,1289,0,0
49,-265,0,0,0,0,0,0,0,0,0,-1,1273,1289,0,0
56,-265,0,0,0,0,0,0,0,0,0,-1,1280,1289,0,0
63,-265,0,0,0,0,0,0,0,0,0,-1,1287,1289,0,0
70,-265,0,0,0,0,0,0,0,0,0,-1,1294,1289,0,0
77,-265,0,0,0,0,0,0,0,0,0,-1,1301,1289,0,0
84,-265,0,0,0,0,0,0,0,0,0,-1,1308,1289,0,0
91,-265,0,0,0,0,0,0,0,0,0,-1,1315,1289,0,0
98,-265,0,0,0,0,0,0,0,0,0,-1,1322,1289,0,0
105,-265,0,0,0,0,0,0,0,0,0,-1,1329,1289,0,0
112,-265,0,0,0,0,0,0,0,0,0,-1,1336,1289,0,0
119,-265,0,0,0,0,0,0,0,0,0,-1,1343,1289,0,0
126,-265,0,0,0,0,0,0,0,0,0,-1,1350,1289,0,0
133,-265,0,0,0,0,0,0,0,0,0,-1,1357,1289,0,0
140,-265,0,0,0,0,0,0,0,0,0,-1,1364,1289,0,0
147,-265,0,0,0,0,0,0,0,0,0,-1,1371,1289,0,0
154,-265,0,0,0,0,0,0,0,0,0,-1,1378,1289,0,0
161,-265,0,0,0,0,0,0,0,0,0,-1,1385,1289,0,0
168,-265,0,0,0,0,0,0,0,0,0,-1,1392,1289,0,0
175,-265,0,0,0,0,0,0,0,0,0,-1,1399,1289,0,0
182,-265,0,0,0,0,0,0,0,0,0,-1,1406,1289,0,0
189,-265,0,0,0,0,0,0,0,0,0,-1,1413,1289,0,0
196,-265,0,0,0,0,0,0,0,0,0,-1,1420,1289,0,0
203,-265,0,0,0,0,0,0,0,0,0,-1,1427,1289,0,0
210,-265,0,0,0,0,0,0,0,0,0,-1,1434,1289,0,0
217,-265,0,0,0,0,0,0,0,0,0,-1,1441,1289,0,0
224,-265,0,0,0,0,0,0,0,0,0,-1,1448,1289,0,0
231,-265,0,0,0,0,0,0,0,0,0,-1,1455,1289,0,0
238,-265,0,0,0,0,0,0,0,0,0,-1,1462,1289,0,0
245,-265,0,0,0,0,0,0,0,0,0,-1,1469,1289,0,0
252,-265,0,0,0,0,0,0,0,0,0,-1,1476,1289,0,0
259,-265,0,0,0,0,0,0,0,0,0,-1,1483,1289,0,0
266,-265,0,0,0,0,0,0,0,0,0,-1,1490,1289,0,0
273,-265,0,0,0,0,0,0,0,0,0,-1,1497,1289,0,0
280,-265,0,0,0,0,0,0,0,0,0,-1,1504,1289,0,0
287,-265,0,0,0,0,0,0,0,0,0,-1,1511,1289,0,0
294,-265,0,0,0,0,0,0,0,0,0,-1,1518,1289,0,0
301,-265,0,0,0,0,0,0,0,0,0,-1,1525,1289,0,0
308,-265,0,0,0,0,0,0,0,0,0,-1,1532,1289,0,0
315,-265,0,0,0,0,0,0,0,0,0,-1,1539,1289,0,0
322,-265,0,0,0,0,0,0,0,0,0,-1,1546,1289,0,0
329,-265,0,0,0,0,0,0,0,0,0,-1,1553,1289,0,0
336,-265,0,0,0,0,0,0,0,0,0,-1,1560,1289,0,0
343,-265,0,0,0,0,0,0,0,0,0,-1,1567,1289,0,0
350,-265,0,0,0,0,0,0,0,0,0,-1,1574,1289,0,0
357,-265,0,0,0,0,0,0,0,0,0,-1,1581,1289,0,0
364,-265,0,0,0,0,0,0,0,0,0,-1,1588,1289,0,0
371,-265,0,0,0,0,0,0,0,0,0,-1,1595,1289,0,0
378,-265,0,0,0,0,0,0,0,0,0,-1,1602,1289,0,0
385,-265,0,0,0,0,0,0,0,0,0,-1,1609,1289,0,0
392,-265,0,0,0,0,0,0,0,0,0,-1,1616,1289,0,0
399,-265,0,0,0,0,0,0,0,0,0,-1,1623,1289,0,0
406,-265,0,0,0,0,0,0,0,0,0,-1,1630,1289,0,0
413,-265,0,0,0,0,0,0,0,0,0,-1,1637,1289,0,0
420,-265,0,0,0,0,0,0,0,0,0,-1,1644,1289,0,0
427,-265,0,0,0,0,0,0,0,0,0,-1,1651,1289,0,0
434,-265,0,0,0,0,0,0,0,0,0,-1,1658,1289,0,0
441,-265,0,0,0,0,0,0,0,0,0,-1,1665,1289,0,0
448,-265,0,0,0,0,0,0,0,0,0,-1,1672,1289,0,0
455,-265,0,0,0,0,0,0,0,0,0,-1,1679,1289,0,0
462,-265,0,0,0,0,0,0,0,0,0,-1,1686,1289,0,0
469,-265,0,0,0,0,0,0,0,0,0,-1,1693,1289,0,0
476,-265,0,0,0,0,0,0,0,0,0,-1,1700,1289,0,0
483,-265,0,0,0,0,0,0,0,0,0,-1,1707,1289,0,0
490,-265,0,0,0,0,0,0,0,0,0,-1,1714,1289,0,0
497,-265,0,0,0,0,0,0,0,0,0,-1,1721,1289,0,0
504,-265,0,0,0,0,0,0,0,0,0,-1,1728,1289,0,0
511,-265,0,0,0,0,0,0,0,0,0,-1,1735,1289,0,0
518,-265,0,0,0,0,0,0,0,0,0,-1,1742,1289,0,0
525,-265,0,0,0,0,0,0,0,0,0,-1,1749,1289,0,0
532,-265,0,0,0,0,0,0,0,0,0,-1,1756,1289,0,0
539,-265,0,0,0,0,0,0,0,0,0,-1,1763,1289,0,0
546,-265,0,0,0,0,0,0,0,0,0,-1,1770,1289,0,0
553,-265,0,0,0,0,0,0,0,0,0,-1,1777,1289,0,0
560,-265,0,0,0,0,0,0,0,0,0,-1,1784,1289,0,0
567,-265,0,0,0,0,0,0,0,0,0,-1,1791,1289,0,0
574,-265,0,0,0,0,0,0,0,0,0,-1,1798,1289,0,0
581,-265,0,0,0,0,0,0,0,0,0,-1,1805,1289,0,0
588,-265,0,0,0,0,0,0,0,0,0,-1,1812,1289,0,0
595,-265,0,0,0,0,0,0,0,0,0,-1,1819,1289,0,0
602,-265,40.5623,2.74524,0.00467567,0.0154186,-0.000495788,0.0154414,0.00465284,-1.52478,0.0091467,0.0269616,1826,1289,40.5623,-2.74521
609,-265,40.525,2.65698,0.00504653,0.0115356,-0.000317589,0.0115511,0.00503102,-1.52201,0.00668747,0.0287332,1833,1289,40.525,-2.65697
616,-265,40.5696,2.72192,-0.0025384,0.00672609,0.00116048,0.00686924,-0.00268155,1.44806,0.00568809,0.0357316,1840,1289,40.5695,-2.72195
623,-265,40.679,2.75488,-0.0106429,0.00275529,0.002101,0.00307703,-0.0109647,1.41884,0.00852267,0.0461997,1847,1289,40.679,-2.75487
630,-265,40.679,2.4552,-0.016056,0.000250693,0.00217509,0.000535834,-0.0163412,1.44045,0.011077,0.0459428,1854,1289,40.679,-2.45518
637,-265,40.3127,3.11877,-0.0175037,-0.000877705,0.00179115,-0.00068693,-0.0176945,1.46469,0.0115741,0.0481392,1861,1289,40.3128,-3.11877
644,-265,39.8643,0.96167,0,0,0,0,0,0,0,-1,1868,1289,39.8642,-0.961703
651,-265,38.2179,0.64856,0,0,0,0,0,0,0,-1,1875,1289,38.2179,-0.648555
658,-265,36.2434,1.67969,0,0,0,0,0,0,0,-1,1882,1289,36.2434,-1.67963
665,-265,34.7902,1.43164,0,0,0,0,0,0,0,-1,1889,1289,34.7901,-1.43162
672,-265,20.0045,6.62671,0,0,0,0,0,0,0,-1,1896,1289,20.0045,-6.62668
679,-265,30.0531,9.20728,0,0,0,0,0,0,0,-1,1903,1289,30.0531,-9.20729
686,-265,30.1179,8.79565,-0.012176,-0.000561769,0.000389677,-0.000548709,-0.012189,1.53729,0.00794943,0.0331727,1910,1289,30.1179,-8.79562
693,-265,30.1565,8.401,-0.00775467,0.00158229,0.000243501,0.00158863,-0.00776101,1.54474,0.00577683,0.00933014,1917,1289,30.1565,-8.40103
700,-265,30.1442,8.00574,-0.00331174,-0.000204593,0.000528558,-0.000117141,-0.00339919,1.40683,0.0022281,0.00992594,1924,1289,30.1441,-8.0057
707,-265,30.1581,7.59534,-0.000562536,-0.000759829,0.000411977,-0.00023756,-0.0010848,0.667887,0.000658459,0.010796,1931,1289,30.158,-7.59532
714,-265,30.1364,7.2179,6.44789e-05,-3.32045e-05,0.000283871,0.00030368,-0.000272405,0.700204,0.000332766,0.0116748,1938,1289,30.1363,-7.21784
721,-265,30.0896,6.86865,-0.000171546,0.00055107,0.000472417,0.000784507,-0.000404982,1.11185,0.000698307,0.0121608,1945,1289,30.0896,-6.86866
728,-265,30.0792,6.51172,-0.000343465,0.00116719,0.000549207,0.00134575,-0.000522027,1.25645,0.00111277,0.0134212,1952,1289,30.0792,-6.51175
735,-265,30.1198,6.14624,-0.000178913,0.00198932,0.000479344,0.00209056,-0.000280157,1.36264,0.00149586,0.0151902,1959,1289,30.1197,-6.14629
742,-265,30.1146,5.7832,0.000552001,0.00313687,0.000186362,0.00315024,0.000538634,1.49919,0.00194563,0.0193508,1966,1289,30.1146,-5.78317
749,-265,30.155,5.43005,0.00228933,0.00477027,-0.000379106,0.00482691,0.00223269,-1.4225,0.00278942,0.0462739,1973,1289,30.155,-5.43002
756,-265,30.3522,5.06616,0,0,0,0,0,0,0,-1,1980,1289,30.3522,-5.06616
763,-265,31.59,4.97571,0,0,0,0,0,0,0,-1,1987,1289,31.59,-4.97575
770,-265,27.9132,3.49634,0,0,0,0,0,0,0,-1,1994,1289,27.9132,-3.49635
777,-265,32.1664,5.3457,0,0,0,0,0,0,0,-1,2001,1289,32.1664,-5.34568
784,-265,0,0,0,0,0,0,0,0,0,-1,2008,1289,0,0
791,-265,0,0,0,0,0,0,0,0,0,-1,2015,1289,0,0
798,-265,0,0,0,0,0,0,0,0,0,-1,2022,1289,0,0
805,-265,0,0,0,0,0,0,0,0,0,-1,2029,1289,0,0
812,-265,0,0,0,0,0,0,0,0,0,-1,2036,1289,0,0
-700,-272,0,0,0,0,0,0,0,0,0,-1,524,1296,0,0
-693,-272,0,0,0,0,0,0,0,0,0,-1,531,1296,0,0
-686,-272,0,0,0,0,0,0,0,0,0,-1,538,1296,0,0
-679,-272,0,0,0,0,0,0,0,0,0,-1,545,1296,0,0
-672,-272,0,0,0,0,0,0,0,0,0,-1,552,1296,0,0
-665,-272,0,0,0,0,0,0,0,0,0,-1,559,1296,0,0
-658,-272,-18.6953,0.101318,0,0,0,0,0,0,0,-1,566,1296,-18.6953,-0.101268
-651,-272,-18.3743,0.912964,0.0315482,-0.0162045,0.0539517,0.0666708,-0.051327,0.577078,0.0683178,0.0452794,573,1296,-18.3743,-0.912965
-644,-272,-18.4713,1.44165,0.0212331,-0.00882961,0.0476052,0.0561237,-0.0437201,0.632476,0.0577929,0.047166,580,1296,-18.4713,-1.44161
-637,-272,-18.5522,1.73816,0,0,0,0,0,0,0,-1,587,1296,-18.5522,-1.73821
-630,-272,-21.6349,-4.29736,0,0,0,0,0,0,0,-1,594,1296,-21.6349,4.29734
-623,-272,-16.2629,1.10059,0,0,0,0,0,0,0,-1,601,1296,-16.2629,-1.10057
-616,-272,-17.5502,2.62549,0,0,0,0,0,0,0,-1,608,1296,-17.5503,-2.62552
-609,-272,-17.5964,3.33118,0.0070369,0.00116474,0.0155366,0.0199124,-0.0117108,0.69201,0.0184612,0.0252991,615,1296,-17.5964,-3.33114
-602,-272,-17.636,3.68176,0.00494018,0.00162126,0.0110327,0.0144375,-0.0078761,0.710751,0.0130671,0.0151083,622,1296,-17.6361,-3.68171
-595,-272,-17.6657,4.13599,0.00415933,0.00164922,0.00651311,0.0095372,-0.00372865,0.690216,0.00789998,0.0118929,629,1296,-17.6657,-4.13599
-588,-272,-17.6613,4.56274,0.00408247,0.00162269,0.00346593,0.00653025,-0.000825097,0.614903,0.00465298,0.0114712,636,1296,-17.6613,-4.56275
-581,-272,-17.6784,4.95398,0.00397522,0.00143508,0.00184777,0.00494732,0.000462979,0.484304,0.00315523,0.0107712,643,1296,-17.6784,-4.95404
-574,-272,-17.7241,5.40186,0.00443441,0.000944707,0.00188939,0.00526139,0.000117728,0.412575,0.00346902,0.0155384,650,1296,-17.7241,-5.40186
-567,-272,-17.7516,5.84485,0.00549141,0.000681367,0.00215792,0.0063176,-0.00014483,0.365649,0.00426083,0.020418,657,1296,-17.7517,-5.84482
-560,-272,-17.7626,6.27966,0.00620546,0.00108516,0.00269536,0.00736275,-7.21263e-05,0.40556,0.00493272,0.0197206,664,1296,-17.7626,-6.27969
-553,-272,-17.6746,6.68445,0.00646058,0.00150913,0.00365367,0.0083983,-0.000428589,0.487632,0.00574706,0.0200117,671,1296,-17.6746,-6.68443
-546,-272,-17.5333,7.24219,0.00581731,0.00265407,0.00463574,0.00913382,-0.000662436,0.621001,0.0063216,0.0373931,678,1296,-17.5333,-7.2422
-539,-272,-17.7437,7.8866,0,0,0,0,0,0,0,-1,685,1296,-17.7437,-7.88664
-532,-272,-10.5572,4.53943,0,0,0,0,0,0,0,-1,692,1296,-10.5572,-4.53943
-525,-272,-11.9599,0.0393066,0,0,0,0,0,0,0,-1,699,1296,-11.9599,-0.0393577
-518,-272,-21.1357,-1.41382,0,0,0,0,0,0,0,-1,706,1296,-21.1357,1.41379
-511,-272,-23.2565,0.226318,0,0,0,0,0,0,0,-1,713,1296,-23.2565,-0.22626
-504,-272,-19.7397,0.114746,0,0,0,0,0,0,0,-1,720,1296,-19.7397,-0.114701
-497,-272,-19.2225,1.71301,0,0,0,0,0,0,0,-1,727,1296,-19.2225,-1.71302
-490,-272,-20.1948,2.4032,0,0,0,0,0,0,0,-1,734,1296,-20.1948,-2.40322
-483,-272,-15.3736,0.792603,0,0,0,0,0,0,0,-1,741,1296,-15.3736,-0.79263
-476,-272,0,0,0,0,0,0,0,0,0,-1,748,1296,0,0
-469,-272,0,0,0,0,0,0,0,0,0,-1,755,1296,0,0
-462,-272,0,0,0,0,0,0,0,0,0,-1,762,1296,0,0
-455,-272,0,0,0,0,0,0,0,0,0,-1,769,1296,0,0
-448,-272,0,0,0,0,0,0,0,0,0,-1,776,1296,0,0
-441,-272,0,0,0,0,0,0,0,0,0,-1,783,1296,0,0
-434,-272,0,0,0,0,0,0,0,0,0,-1,790,1296,0,0
-427,-272,0,0,0,0,0,0,0,0,0,-1,797,1296,0,0
-420,-272,0,0,0,0,0,0,0,0,0,-1,804,1296,0,0
-413,-272,0,0,0,0,0,0,0,0,0,-1,811,1296,0,0
-406,-272,0,0,0,0,0,0,0,0,0,-1,818,1296,0,0
-399,-272,0,0,0,0,0,0,0,0,0,-1,825,1296,0,0
-392,-272,0,0,0,0,0,0,0,0,0,-1,832,1296,0,0
-385,-272,0,0,0,0,0,0,0,0,0,-1,839,1296,0,0
-378,-272,0,0,0,0,0,0,0,0,0,-1,846,1296,0,0
-371,-272,0,0,0,0,0,0,0,0,0,-1,853,1296,0,0
-364,-272,0,0,0,0,0,0,0,0,0,-1,860,1296,0,0
-357,-272,0,0,0,0,0,0,0,0,0,-1,867,1296,0,0
-350,-272,0,0,0,0,0,0,0,0,0,-1,874,1296,0,0
-343,-272,0,0,0,0,0,0,0,0,0,-1,881,1296,0,0
-336,-272,0,0,0,0,0,0,0,0,0,-1,888,1296,0,0
-329,-272,0,0,0,0,0,0,0,0,0,-1,895,1296,0,0
-322,-272,0,0,0,0,0,0,0,0,0,-1,902,1296,0,0
-315,-272,0,0,0,0,0,0,0,0,0,-1,909,1296,0,0
-308,-272,0,0,0,0,0,0,0,0,0,-1,916,1296,0,0
-301,-272,0,0,0,0,0,0,0,0,0,-1,923,1296,0,0
-294,-272,0,0,0,0,0,0,0,0,0,-1,930,1296,0,0
-287,-272,0,0,0,0,0,0,0,0,0,-1,937,1296,0,0
-280,-272,0,0,0,0,0,0,0,0,0,-1,944,1296,0,0
-273,-272,0,0,0,0,0,0,0,0,0,-1,951,1296,0,0
-266,-272,0,0,0,0,0,0,0,0,0,-1,958,1296,0,0
-259,-272,0,0,0,0,0,0,0,0,0,-1,965,1296,0,0
-252,-272,0,0,0,0,0,0,0,0,0,-1,972,1296,0,0
-245,-272,0,0,0,0,0,0,0,0,0,-1,979,1296,0,0
-238,-272,0,0,0,0,0,0,0,0,0,-1,986,1296,0,0
-231,-272,0,0,0,0,0,0,0,0,0,-1,993,1296,0,0
-224,-272,0,0,0,0,0,0,0,0,0,-1,1000,1296,0,0
-217,-272,0,0,0,0,0,0,0,0,0,-1,1007,1296,0,0
-210,-272,0,0,0,0,0,0,0,0,0,-1,1014,1296,0,0
-203,-272,0,0,0,0,0,0,0,0,0,-1,1021,1296,0,0
-196,-272,0,0,0,0,0,0,0,0,0,-1,1028,1296,0,0
-189,-272,0,0,0,0,0,0,0,0,0,-1,1035,1296,0,0
-182,-272,0,0,0,0,0,0,0,0,0,-1,1042,1296,0,0
-175,-272,0,0,0,0,0,0,0,0,0,-1,1049,1296,0,0
-168,-272,0,0,0,0,0,0,0,0,0,-1,1056,1296,0,0
-161,-272,0,0,0,0,0,0,0,0,0,-1,1063,1296,0,0
-154,-272,0,0,0,0,0,0,0,0,0,-1,1070,1296,0,0
-147,-272,0,0,0,0,0,0,0,0,0,-1,1077,1296,0,0
-140,-272,0,0,0,0,0,0,0,0,0,-1,1084,1296,0,0
-133,-272,0,0,0,0,0,0,0,0,0,-1,1091,1296,0,0
-126,-272,0,0,0,0,0,0,0,0,0,-1,1098,1296,0,0
-119,-272,0,0,0,0,0,0,0,0,0,-1,1105,1296,0,0
-112,-272,0,0,0,0,0,0,0,0,0,-1,1112,1296,0,0
-105,-272,0,0,0,0,0,0,0,0,0,-1,1119,1296,0,0
-98,-272,0,0,0,0,0,0,0,0,0,-1,1126,1296,0,0
-91,-272,0,0,0,0,0,0,0,0,0,-1,1133,1296,0,0
-84,-272,0,0,0,0,0,0,0,0,0,-1,1140,1296,0,0
-77,-272,0,0,0,0,0,0,0,0,0,-1,1147,1296,0,0
-70,-272,0,0,0,0,0,0,0,0,0,-1,1154,1296,0,0
-63,-272,0,0,0,0,0,0,0,0,0,-1,1161,1296,0,0
-56,-272,0,0,0,0,0,0,0,0,0,-1,1168,1296,0,0
-49,-272,0,0,0,0,0,0,0,0,0,-1,1175,1296,0,0
-42,-272,0,0,0,0,0,0,0,0,0,-1,1182,1296,0,0
-35,-272,0,0,0,0,0,0,0,0,0,-1,1189,1296,0,0
-28,-272,0,0,0,0,0,0,0,0,0,-1,1196,1296,0,0
-21,-272,0,0,0,0,0,0,0,0,0,-1,1203,1296,0,0
-14,-272,0,0,0,0,0,0,0,0,0,-1,1210,1296,0,0
-7,-272,0,0,0,0,0,0,0,0,0,-1,1217,1296,0,0
0,-272,0,0,0,0,0,0,0,0,0,-1,1224,1296,0,0
7,-272,0,0,0,0,0,0,0,0,0,-1,1231,1296,0,0
14,-272,0,0,0,0,0,0,0,0,0,-1,1238,1296,0,0
21,-272,0,0,0,0,0,0,0,0,0,-1,1245,1296,0,0
28,-272,0,0,0,0,0,0,0,0,0,-1,1252,1296,0,0
35,-272,0,0,0,0,0,0,0,0,0,-1,1259,1296,0,0
42,-272,0,0,0,0,0,0,0,0,0,-1,1266,1296,0,0
49,-272,0,0,0,0,0,0,0,0,0,-1,1273,1296,0,0
56,-272,0,0,0,0,0,0,0,0,0,-1,1280,1296,0,0
63,-272,0,0,0,0,0,0,0,0,0,-1,1287,1296,0,0
70,-272,0,0,0,0,0,0,0,0,0,-1,1294,1296,0,0
77,-272,0,0,0,0,0,0,0,0,0,-1,1301,1296,0,0
84,-272,0,0,0,0,0,0,0,0,0,-1,1308,1296,0,0
91,-272,0,0,0,0,0,0,0,0,0,-1,1315,1296,0,0
98,-272,0,0,0,0,0,0,0,0,0,-1,1322,1296,0,0
105,-272,0,0,0,0,0,0,0,0,0,-1,1329,1296,0,0
112,-272,0,0,0,0,0,0,0,0,0,-1,1336,1296,0,0
119,-272,0,0,0,0,0,0,0,0,0,-1,1343,1296,0,0
126,-272,0,0,0,0,0,0,0,0,0,-1,1350,1296,0,0
133,-272,0,0,0,0,0,0,0,0,0,-1,1357,1296,0,0
140,-272,0,0,0,0,0,0,0,0,0,-1,1364,1296,0,0
147,-272,0,0,0,0,0,0,0,0,0,-1,1371,1296,0,0
154,-272,0,0,0,0,0,0,0,0,0,-1,1378,1296,0,0
161,-272,0,0,0,0,0,0,0,0,0,-1,1385,1296,0,0
168,-272,0,0,0,0,0,0,0,0,0,-1,1392,1296,0,0
175,-272,0,0,0,0,0,0,0,0,0,-1,1399,1296,0,0
182,-272,0,0,0,0,0,0,0,0,0,-1,1406,1296,0,0
189,-272,0,0,0,0,0,0,0,0,0,-1,1413,1296,0,0
196,-272,0,0,0,0,0,0,0,0,0,-1,1420,1296,0,0
203,-272,0,0,0,0,0,0,0,0,0,-1,1427,1296,0,0
210,-272,0,0,0,0,0,0,0,0,0,-1,1434,1296,0,0
217,-272,0,0,0,0,0,0,0,0,0,-1,1441,1296,0,0
224,-272,0,0,0,0,0,0,0,0,0,-1,1448,1296,0,0
231,-272,0,0,0,0,0,0,0,0,0,-1,1455,1296,0,0
238,-272,0,0,0,0,0,0,0,0,0,-1,1462,1296,0,0
245,-272,0,0,0,0,0,0,0,0,0,-1,1469,1296,0,0
252,-272,0,0,0,0,0,0,0,0,0,-1,1476,1296,0,0
259,-272,0,0,0,0,0,0,0,0,0,-1,1483,1296,0,0
266,-272,0,0,0,0,0,0,0,0,0,-1,1490,1296,0,0
273,-272,0,0,0,0,0,0,0,0,0,-1,1497,1296,0,0
280,-272,0,0,0,0,0,0,0,0,0,-1,1504,1296,0,0
287,-272,0,0,0,0,0,0,0,0,0,-1,1511,1296,0,0
294,-272,0,0,0,0,0,0,0,0,0,-1,1518,1296,0,0
301,-272,0,0,0,0,0,0,0,0,0,-1,1525,1296,0,0
308,-272,0,0,0,0,0,0,0,0,0,-1,1532,1296,0,0
315,-272,0,0,0,0,0,0,0,0,0,-1,1539,1296,0,0
322,-272,0,0,0,0,0,0,0,0,0,-1,1546,1296,0,0
329,-272,0,0,0,0,0,0,0,0,0,-1,1553,1296,0,0
336,-272,0,0,0,0,0,0,0,0,0,-1,1560,1296,0,0
343,-272,0,0,0,0,0,0,0,0,0,-1,1567,1296,0,0
350,-272,0,0,0,0,0,0,0,0,0,-1,1574,1296,0,0
357,-272,0,0,0,0,0,0,0,0,0,-1,1581,1296,0,0
364,-272,0,0,0,0,0,0,0,0,0,-1,1588,1296,0,0
371,-272,0,0,0,0,0,0,0,0,0,-1,1595,1296,0,0
378,-272,0,0,0,0,0,0,0,0,0,-1,1602,1296,0,0
385,-272,0,0,0,0,0,0,0,0,0,-1,1609,1296,0,0
392,-272,0,0,0,0,0,0,0,0,0,-1,1616,1296,0,0
399,-272,0,0,0,0,0,0,0,0,0,-1,1623,1296,0,0
406,-272,0,0,0,0,0,0,0,0,0,-1,1630,1296,0,0
413,-272,0,0,0,0,0,0,0,0,0,-1,1637,1296,0,0
420,-272,0,0,0,0,0,0,0,0,0,-1,1644,1296,0,0
427,-272,0,0,0,0,0,0,0,0,0,-1,1651,1296,0,0
434,-272,0,0,0,0,0,0,0,0,0,-1,1658,1296,0,0
441,-272,0,0,0,0,0,0,0,0,0,-1,1665,1296,0,0
448,-272,0,0,0,0,0,0,0,0,0,-1,1672,1296,0,0
455,-272,0,0,0,0,0,0,0,0,0,-1,1679,1296,0,0
462,-272,0,0,0,0,0,0,0,0,0,-1,1686,1296,0,0
469,-272,0,0,0,0,0,0,0,0,0,-1,1693,1296,0,0
476,-272,0,0,0,0,0,0,0,0,0,-1,1700,1296,0,0
483,-272,0,0,0,0,0,0,0,0,0,-1,1707,1296,0,0
490,-272,0,0,0,0,0,0,0,0,0,-1,1714,1296,0,0
497,-272,0,0,0,0,0,0,0,0,0,-1,1721,1296,0,0
504,-272,0,0,0,0,0,0,0,0,0,-1,1728,1296,0,0
511,-272,0,0,0,0,0,0,0,0,0,-1,1735,1296,0,0
518,-272,0,0,0,0,0,0,0,0,0,-1,1742,1296,0,0
525,-272,0,0,0,0,0,0,0,0,0,-1,1749,1296,0,0
532,-272,0,0,0,0,0,0,0,0,0,-1,1756,1296,0,0
539,-272,0,0,0,0,0,0,0,0,0,-1,1763,1296,0,0
546,-272,0,0,0,0,0,0,0,0,0,-1,1770,1296,0,0
553,-272,0,0,0,0,0,0,0,0,0,-1,1777,1296,0,0
560,-272,0,0,0,0,0,0,0,0,0,-1,1784,1296,0,0
567,-272,0,0,0,0,0,0,0,0,0,-1,1791,1296,0,0
574,-272,0,0,0,0,0,0,0,0,0,-1,1798,1296,0,0
581,-272,0,0,0,0,0,0,0,0,0,-1,1805,1296,0,0
588,-272,0,0,0,0,0,0,0,0,0,-1,1812,1296,0,0
595,-272,0,0,0,0,0,0,0,0,0,-1,1819,1296,0,0
602,-272,40.5614,2.73376,0,0,0,0,0,0,0,-1,1826,1296,40.5614,-2.73378
609,-272,40.4783,2.59607,0,0,0,0,0,0,0,-1,1833,1296,40.4782,-2.59601
616,-272,40.6344,2.72021,-0.0068529,0.00921544,0.0019667,0.00945265,-0.00709012,1.45076,0.00958339,0.0457458,1840,1296,40.6344,-2.72026
623,-272,40.7661,3.00671,-0.0121271,0.00490965,0.00284163,0.00537112,-0.0125886,1.40981,0.0106445,0.044033,1847,1296,40.7661,-3.00666
630,-272,40.6395,3.16089,-0.0150123,0.00200417,0.00276258,0.00244144,-0.0154495,1.41382,0.0112025,0.0449128,1854,1296,40.6396,-3.16094
637,-272,40.4832,3.23755,-0.0155101,0.000373229,0.00237195,0.000719882,-0.0158568,1.42568,0.0108191,0.0483763,1861,1296,40.4832,-3.2376
644,-272,40.6222,3.42627,0,0,0,0,0,0,0,-1,1868,1296,40.6222,-3.42624
651,-272,31.4108,2.48743,0,0,0,0,0,0,0,-1,1875,1296,31.4107,-2.48747
658,-272,35.1527,2.10571,0,0,0,0,0,0,0,-1,1882,1296,35.1527,-2.10573
665,-272,22.0238,4.14417,0,0,0,0,0,0,0,-1,1889,1296,22.0238,-4.14421
672,-272,22.661,7.21765,0,0,0,0,0,0,0,-1,1896,1296,22.661,-7.21761
679,-272,29.8051,9.19995,0,0,0,0,0,0,0,-1,1903,1296,29.805,-9.19993
686,-272,29.7947,8.8136,-0.0122733,-0.000814192,0.000839147,-0.000753067,-0.0123344,1.49808,0.00798377,0.0202144,1910,1296,29.7947,-8.81363
693,-272,29.7896,8.42957,-0.00747579,0.0013365,0.00063765,0.0013824,-0.00752169,1.49894,0.00553313,0.0107353,1917,1296,29.7896,-8.42959
700,-272,29.7793,8.03223,-0.00312179,-0.000239541,0.000797941,-3.33794e-05,-0.00332795,1.31796,0.00220759,0.010962,1924,1296,29.7793,-8.03223
707,-272,29.7802,7.61182,-0.000642306,-0.000608886,0.000595974,-2.93877e-05,-0.0012218,0.799413,0.000804919,0.0110984,1931,1296,29.7801,-7.61186
714,-272,29.743,7.23682,-0.000153655,4.68784e-05,0.000410155,0.000368844,-0.000475621,0.905277,0.00048885,0.0119437,1938,1296,29.743,-7.23677
721,-272,29.7131,6.89026,-0.000433613,0.000609848,0.000484478,0.000800102,-0.000623867,1.1966,0.000824225,0.0154407,1945,1296,29.7131,-6.89029
728,-272,29.7325,6.48889,-0.000709549,0.0011761,0.000504557,0.00130262,-0.000836068,1.32511,0.00124453,0.0172498,1952,1296,29.7326,-6.48892
735,-272,29.7263,6.14343,-0.000696139,0.00194244,0.000351307,0.00198841,-0.000742112,1.44067,0.00163029,0.0153659,1959,1296,29.7263,-6.14342
742,-272,29.6155,5.76074,-0.000168878,0.00302811,-6.63907e-05,0.00302949,-0.000170256,-1.55004,0.00207874,0.0256,1966,1296,29.6155,-5.76073
749,-272,29.7238,5.21338,0,0,0,0,0,0,0,-1,1973,1296,29.7237,-5.21334
756,-272,27.1566,4.50427,0,0,0,0,0,0,0,-1,1980,1296,27.1567,-4.50426
763,-272,27.4694,4.44592,0,0,0,0,0,0,0,-1,1987,1296,27.4694,-4.44596
770,-272,25.9485,3.67749,0,0,0,0,0,0,0,-1,1994,1296,25.9485,-3.67744
777,-272,32.3619,6.13257,0,0,0,0,0,0,0,-1,2001,1296,32.362,-6.1326
784,-272,0,0,0,0,0,0,0,0,0,-1,2008,1296,0,0
791,-272,0,0,0,0,0,0,0,0,0,-1,2015,1296,0,0
798,-272,0,0,0,0,0,0,0,0,0,-1,2022,1296,0,0
805,-272,0,0,0,0,0,0,0,0,0,-1,2029,1296,0,0
812,-272,0,0,0,0,0,0,0,0,0,-1,2036,1296,0,0
-700,-279,0,0,0,0,0,0,0,0,0,-1,524,1303,0,0
-693,-279,0,0,0,0,0,0,0,0,0,-1,531,1303,0,0
-686,-279,0,0,0,0,0,0,0,0,0,-1,538,1303,0,0
-679,-279,0,0,0,0,0,0,0,0,0,-1,545,1303,0,0
-672,-279,0,0,0,0,0,0,0,0,0,-1,552,1303,0,0
-665,-279,0,0,0,0,0,0,0,0,0,-1,559,1303,0,0
-658,-279,-18.0391,1.31946,0,0,0,0,0,0,0,-1,566,1303,-18.0391,-1.31942
-651,-279,-18.2878,1.5625,0.00835405,-0.00283909,0.0653416,0.0683384,-0.0628234,0.742677,0.0757486,0.0450816,573,1303,-18.2879,-1.56247
-644,-279,-18.6948,1.59863,0.0017488,0.00190479,0.0588612,0.060688,-0.0570344,0.786061,0.067978,0.0449085,580,1303,-18.6948,-1.59869
-637,-279,-19.2069,2.0293,0.000694641,0.00332669,0.0506538,0.0526815,-0.0486602,0.798386,0.058525,0.0474999,587,1303,-19.2069,-2.0293
-630,-279,-19.6193,2.448,0,0,0,0,0,0,0,-1,594,1303,-19.6194,-2.44796
-623,-279,-18.5096,2.07312,0,0,0,0,0,0,0,-1,601,1303,-18.5096,-2.07318
-616,-279,-18.1442,2.59851,0,0,0,0,0,0,0,-1,608,1303,-18.1442,-2.59847
-609,-279,-17.5345,3.18286,0.00355894,0.00286263,0.0192796,0.0224936,-0.016072,0.77637,0.0223685,0.0429101,615,1303,-17.5346,-3.18282
-602,-279,-17.1984,3.68762,0.00293475,0.00265114,0.0136988,0.0164925,-0.0109066,0.780223,0.0159281,0.0149208,622,1303,-17.1984,-3.68767
-595,-279,-17.2259,4.1272,0.0030561,0.00221008,0.00798843,0.0106327,-0.00536653,0.758947,0.00940248,0.0106807,629,1303,-17.2259,-4.12714
-588,-279,-17.2356,4.56873,0.00343848,0.00188567,0.00397283,0.00671006,-0.00138591,0.6889,0.00499979,0.0115282,636,1303,-17.2356,-4.56867
-581,-279,-17.2684,4.96338,0.00350718,0.00150343,0.00167261,0.00445502,0.000555591,0.51556,0.00280323,0.01271,643,1303,-17.2685,-4.96335
-574,-279,-17.2894,5.38721,0.00367355,0.000870454,0.00156383,0.00437198,0.000172027,0.420034,0.00285904,0.0115016,650,1303,-17.2894,-5.3872
-567,-279,-17.2836,5.82568,0.00448553,0.000393655,0.00166243,0.00507579,-0.000196605,0.341174,0.00345127,0.0154328,657,1303,-17.2836,-5.82574
-560,-279,-17.2936,6.29211,0.00527766,0.000411054,0.00201838,0.00600582,-0.000317103,0.346231,0.00411366,0.0164029,664,1303,-17.2936,-6.29209
-553,-279,-17.2773,6.7323,0.00594904,0.000643573,0.0027992,0.0071528,-0.000560186,0.406129,0.00496581,0.0130865,671,1303,-17.2773,-6.73225
-546,-279,-17.2502,7.14453,0.00602521,0.00156077,0.0037477,0.00815511,-0.000569124,0.516801,0.00563603,0.0211085,678,1303,-17.2502,-7.14453
-539,-279,-17.424,7.61243,0,0,0,0,0,0,0,-1,685,1303,-17.424,-7.61244
-532,-279,-14.9813,7.89917,0,0,0,0,0,0,0,-1,692,1303,-14.9813,-7.89918
-525,-279,-11.7063,-0.539185,0,0,0,0,0,0,0,-1,699,1303,-11.7063,0.539166
-518,-279,-16.8138,1.11963,0,0,0,0,0,0,0,-1,706,1303,-16.8138,-1.11968
-511,-279,-20.1063,-1.37915,0,0,0,0,0,0,0,-1,713,1303,-20.1062,1.37918
-504,-279,-18.3766,1.04578,0,0,0,0,0,0,0,-1,720,1303,-18.3767,-1.04577
-497,-279,-19.0046,2.08911,0,0,0,0,0,0,0,-1,727,1303,-19.0046,-2.08905
-490,-279,-20.0176,2.55188,0,0,0,0,0,0,0,-1,734,1303,-20.0176,-2.55183
-483,-279,-20.8064,2.99792,0,0,0,0,0,0,0,-1,741,1303,-20.8064,-2.99797
-476,-279,0,0,0,0,0,0,0,0,0,-1,748,1303,0,0
-469,-279,0,0,0,0,0,0,0,0,0,-1,755,1303,0,0
-462,-279,0,0,0,0,0,0,0,0,0,-1,762,1303,0,0
-455,-279,0,0,0,0,0,0,0,0,0,-1,769,1303,0,0
-448,-279,0,0,0,0,0,0,0,0,0,-1,776,1303,0,0
-441,-279,0,0,0,0,0,0,0,0,0,-1,783,1303,0,0
-434,-279,0,0,0,0,0,0,0,0,0,-1,790,1303,0,0
-427,-279,0,0,0,0,0,0,0,0,0,-1,797,1303,0,0
-420,-279,0,0,0,0,0,0,0,0,0,-1,804,1303,0,0
-413,-279,0,0,0,0,0,0,0,0,0,-1,811,1303,0,0
-406,-279,0,0,0,0,0,0,0,0,0,-1,818,1303,0,0
-399,-279,0,0,0,0,0,0,0,0,0,-1,825,1303,0,0
-392,-279,0,0,0,0,0,0,0,0,0,-1,832,1303,0,0
-385,-279,0,0,0,0,0,0,0,0,0,-1,839,1303,0,0
-378,-279,0,0,0,0,0,0,0,0,0,-1,846,1303,0,0
-371,-279,0,0,0,0,0,0,0,0,0,-1,853,1303,0,0
-364,-279,0,0,0,0,0,0,0,0,0,-1,860,1303,0,0
-357,-279,0,0,0,0,0,0,0,0,0,-1,867,1303,0,0
-350,-279,0,0,0,0,0,0,0,0,0,-1,874,1303,0,0
-343,-279,0,0,0,0,0,0,0,0,0,-1,881,1303,0,0
-336,-279,0,0,0,0,0,0,0,0,0,-1,888,1303,0,0
-329,-279,0,0,0,0,0,0,0,0,0,-1,895,1303,0,0
-322,-279,0,0,0,0,0,0,0,0,0,-1,902,1303,0,0
-315,-279,0,0,0,0,0,0,0,0,0,-1,909,1303,0,0
-308,-279,0,0,0,0,0,0,0,0,0,-1,916,1303,0,0
-301,-279,0,0,0,0,0,0,0,0,0,-1,923,1303,0,0
-294,-279,0,0,0,0,0,0,0,0,0,-1,930,1303,0,0
-287,-279,0,0,0,0,0,0,0,0,0,-1,937,1303,0,0
-280,-279,0,0,0,0,0,0,0,0,0,-1,944,1303,0,0
-273,-279,0,0,0,0,0,0,0,0,0,-1,951,1303,0,0
-266,-279,0,0,0,0,0,0,0,0,0,-1,958,1303,0,0
-259,-279,0,0,0,0,0,0,0,0,0,-1,965,1303,0,0
-252,-279,0,0,0,0,0,0,0,0,0,-1,972,1303,0,0
-245,-279,0,0,0,0,0,0,0,0,0,-1,979,1303,0,0
-238,-279,0,0,0,0,0,0,0,0,0,-1,986,1303,0,0
-231,-279,0,0,0,0,0,0,0,0,0,-1,993,1303,0,0
-224,-279,0,0,0,0,0,0,0,0,0,-1,1000,1303,0,0
-217,-279,0,0,0,0,0,0,0,0,0,-1,1007,1303,0,0
-210,-279,0,0,0,0,0,0,0,0,0,-1,1014,1303,0,0
-203,-279,0,0,0,0,0,0,0,0,0,-1,1021,1303,0,0
-196,-279,0,0,0,0,0,0,0,0,0,-1,1028,1303,0,0
-189,-279,0,0,0,0,0,0,0,0,0,-1,1035,1303,0,0
-182,-279,0,0,0,0,0,0,0,0,0,-1,1042,1303,0,0
-175,-279,0,0,0,0,0,0,0,0,0,-1,1049,1303,0,0
-168,-279,0,0,0,0,0,0,0,0,0,-1,1056,1303,0,0
-161,-279,0,0,0,0,0,0,0,0,0,-1,1063,1303,0,0
-154,-279,0,0,0,0,0,0,0,0,0,-1,1070,1303,0,0
-147,-279,0,0,0,0,0,0,0,0,0,-1,1077,1303,0,0
-140,-279,0,0,0,0,0,0,0,0,0,-1,1084,1303,0,0
-133,-279,0,0,0,0,0,0,0,0,0,-1,1091,1303,0,0
-126,-279,0,0,0,0,0,0,0,0,0,-1,1098,1303,0,0
-119,-279,0,0,0,0,0,0,0,0,0,-1,1105,1303,0,0
-112,-279,0,0,0,0,0,0,0,0,0,-1,1112,1303,0,0
-105,-279,0,0,0,0,0,0,0,0,0,-1,1119,1303,0,0
-98,-279,0,0,0,0,0,0,0,0,0,-1,1126,1303,0,0
-91,-279,0,0,0,0,0,0,0,0,0,-1,1133,1303,0,0
-84,-279,0,0,0,0,0,0,0,0,0,-1,1140,1303,0,0
-77,-279,0,0,0,0,0,0,0,0,0,-1,1147,1303,0,0
-70,-279,0,0,0,0,0,0,0,0,0,-1,1154,1303,0,0
-63,-279,0,0,0,0,0,0,0,0,0,-1,1161,1303,0,0
-56,-279,0,0,0,0,0,0,0,0,0,-1,1168,1303,0,0
-49,-279,0,0,0,0,0,0,0,0,0,-1,1175,1303,0,0
-42,-279,0,0,0,0,0,0,0,0,0,-1,1182,1303,0,0
-35,-279,0,0,0,0,0,0,0,0,0,-1,1189,1303,0,0
-28,-279,0,0,0,0,0,0,0,0,0,-1,1196,1303,0,0
-21,-279,0,0,0,0,0,0,0,0,0,-1,1203,1303,0,0
-14,-279,0,0,0,0,0,0,0,0,0,-1,1210,1303,0,0
-7,-279,0,0,0,0,0,0,0,0,0,-1,1217,1303,0,0
0,-279,0,0,0,0,0,0,0,0,0,-1,1224,1303,0,0
7,-279,0,0,0,0,0,0,0,0,0,-1,1231,1303,0,0
14,-279,0,0,0,0,0,0,0,0,0,-1,1238,1303,0,0
21,-279,0,0,0,0,0,0,0,0,0,-1,1245,1303,0,0
28,-279,0,0,0,0,0,0,0,0,0,-1,1252,1303,0,0
35,-279,0,0,0,0,0,0,0,0,0,-1,1259,1303,0,0
42,-279,0,0,0,0,0,0,0,0,0,-1,1266,1303,0,0
49,-279,0,0,0,0,0,0,0,0,0,-1,1273,1303,0,0
56,-279,0,0,0,0,0,0,0,0,0,-1,1280,1303,0,0
63,-279,0,0,0,0,0,0,0,0,0,-1,1287,1303,0,0
70,-279,0,0,0,0,0,0,0,0,0,-1,1294,1303,0,0
77,-279,0,0,0,0,0,0,0,0,0,-1,1301,1303,0,0
84,-279,0,0,0,0,0,0,0,0,0,-1,1308,1303,0,0
91,-279,0,0,0,0,0,0,0,0,0,-1,1315,1303,0,0
98,-279,0,0,0,0,0,0,0,0,0,-1,1322,1303,0,0
105,-279,0,0,0,0,0,0,0,0,0,-1,1329,1303,0,0
112,-279,0,0,0,0,0,0,0,0,0,-1,1336,1303,0,0
119,-279,0,0,0,0,0,0,0,0,0,-1,1343,1303,0,0
126,-279,0,0,0,0,0,0,0,0,0,-1,1350,1303,0,0
133,-279,0,0,0,0,0,0,0,0,0,-1,1357,1303,0,0
140,-279,0,0,0,0,0,0,0,0,0,-1,1364,1303,0,0
147,-279,0,0,0,0,0,0,0,0,0,-1,1371,1303,0,0
154,-279,0,0,0,0,0,0,0,0,0,-1,1378,1303,0,0
161,-279,0,0,0,0,0,0,0,0,0,-1,1385,1303,0,0
168,-279,0,0,0,0,0,0,0,0,0,-1,1392,1303,0,0
175,-279,0,0,0,0,0,0,0,0,0,-1,1399,1303,0,0
182,-279,0,0,0,0,0,0,0,0,0,-1,1406,1303,0,0
189,-279,0,0,0,0,0,0,0,0,0,-1,1413,1303,0,0
196,-279,0,0,0,0,0,0,0,0,0,-1,1420,1303,0,0
203,-279,0,0,0,0,0,0,0,0,0,-1,1427,1303,0,0
210,-279,0,0,0,0,0,0,0,0,0,-1,1434,1303,0,0
217,-279,0,0,0,0,0,0,0,0,0,-1,1441,1303,0,0
224,-279,0,0,0,0,0,0,0,0,0,-1,1448,1303,0,0
231,-279,0,0,0,0,0,0,0,0,0,-1,1455,1303,0,0
238,-279,0,0,0,0,0,0,0,0,0,-1,1462,1303,0,0
245,-279,0,0,0,0,0,0,0,0,0,-1,1469,1303,0,0
252,-279,0,0,0,0,0,0,0,0,0,-1,1476,1303,0,0
259,-279,0,0,0,0,0,0,0,0,0,-1,1483,1303,0,0
266,-279,0,0,0,0,0,0,0,0,0,-1,1490,1303,0,0
273,-279,0,0,0,0,0,0,0,0,0,-1,1497,1303,0,0
280,-279,0,0,0,0,0,0,0,0,0,-1,1504,1303,0,0
287,-279,0,0,0,0,0,0,0,0,0,-1,1511,1303,0,0
294,-279,0,0,0,0,0,0,0,0,0,-1,1518,1303,0,0
301,-279,0,0,0,0,0,0,0,0,0,-1,1525,1303,0,0
308,-279,0,0,0,0,0,0,0,0,0,-1,1532,1303,0,0
315,-279,0,0,0,0,0,0,0,0,0,-1,1539,1303,0,0
322,-279,0,0,0,0,0,0,0,0,0,-1,1546,1303,0,0
329,-279,0,0,0,0,0,0,0,0,0,-1,1553,1303,0,0
336,-279,0,0,0,0,0,0,0,0,0,-1,1560,1303,0,0
343,-279,0,0,0,0,0,0,0,0,0,-1,1567,1303,0,0
350,-279,0,0,0,0,0,0,0,0,0,-1,1574,1303,0,0
357,-279,0,0,0,0,0,0,0,0,0,-1,1581,1303,0,0
364,-279,0,0,0,0,0,0,0,0,0,-1,1588,1303,0,0
371,-279,0,0,0,0,0,0,0,0,0,-1,1595,1303,0,0
378,-279,0,0,0,0,0,0,0,0,0,-1,1602,1303,0,0
385,-279,0,0,0,0,0,0,0,0,0,-1,1609,1303,0,0
392,-279,0,0,0,0,0,0,0,0,0,-1,1616,1303,0,0
399,-279,0,0,0,0,0,0,0,0,0,-1,1623,1303,0,0
406,-279,0,0,0,0,0,0,0,0,0,-1,1630,1303,0,0
413,-279,0,0,0,0,0,0,0,0,0,-1,1637,1303,0,0
420,-279,0,0,0,0,0,0,0,0,0,-1,1644,1303,0,0
427,-279,0,0,0,0,0,0,0,0,0,-1,1651,1303,0,0
434,-279,0,0,0,0,0,0,0,0,0,-1,1658,1303,0,0
441,-279,0,0,0,0,0,0,0,0,0,-1,1665,1303,0,0
448,-279,0,0,0,0,0,0,0,0,0,-1,1672,1303,0,0
455,-279,0,0,0,0,0,0,0,0,0,-1,1679,1303,0,0
462,-279,0,0,0,0,0,0,0,0,0,-1,1686,1303,0,0
469,-279,0,0,0,0,0,0,0,0,0,-1,1693,1303,0,0
476,-279,0,0,0,0,0,0,0,0,0,-1,1700,1303,0,0
483,-279,0,0,0,0,0,0,0,0,0,-1,1707,1303,0,0
490,-279,0,0,0,0,0,0,0,0,0,-1,1714,1303,0,0
497,-279,0,0,0,0,0,0,0,0,0,-1,1721,1303,0,0
504,-279,0,0,0,0,0,0,0,0,0,-1,1728,1303,0,0
511,-279,0,0,0,0,0,0,0,0,0,-1,1735,1303,0,0
518,-279,0,0,0,0,0,0,0,0,0,-1,1742,1303,0,0
525,-279,0,0,0,0,0,0,0,0,0,-1,1749,1303,0,0
532,-279,0,0,0,0,0,0,0,0,0,-1,1756,1303,0,0
539,-279,0,0,0,0,0,0,0,0,0,-1,1763,1303,0,0
546,-279,0,0,0,0,0,0,0,0,0,-1,1770,1303,0,0
553,-279,0,0,0,0,0,0,0,0,0,-1,1777,1303,0,0
560,-279,0,0,0,0,0,0,0,0,0,-1,1784,1303,0,0
567,-279,0,0,0,0,0,0,0,0,0,-1,1791,1303,0,0
574,-279,0,0,0,0,0,0,0,0,0,-1,1798,1303,0,0
581,-279,0,0,0,0,0,0,0,0,0,-1,1805,1303,0,0
588,-279,0,0,0,0,0,0,0,0,0,-1,1812,1303,0,0
595,-279,0,0,0,0,0,0,0,0,0,-1,1819,1303,0,0
602,-279,40.5129,2.59863,0,0,0,0,0,0,0,-1,1826,1303,40.513,-2.59864
609,-279,39.9241,2.23059,0,0,0,0,0,0,0,-1,1833,1303,39.9241,-2.23058
616,-279,40.0121,2.61707,0,0,0,0,0,0,0,-1,1840,1303,40.0121,-2.61703
623,-279,40.7942,3.06226,0,0,0,0,0,0,0,-1,1847,1303,40.7942,-3.06223
630,-279,40.9329,3.22253,0,0,0,0,0,0,0,-1,1854,1303,40.9329,-3.22259
637,-279,40.4143,3.10315,0,0,0,0,0,0,0,-1,1861,1303,40.4143,-3.10315
644,-279,33.5021,3.40234,0,0,0,0,0,0,0,-1,1868,1303,33.5021,-3.40237
651,-279,29.8456,2.3562,0,0,0,0,0,0,0,-1,1875,1303,29.8455,-2.35615
658,-279,21.5076,7.65649,0,0,0,0,0,0,0,-1,1882,1303,21.5076,-7.65648
665,-279,18.9794,6.09607,0,0,0,0,0,0,0,-1,1889,1303,18.9793,-6.09601
672,-279,23.5206,8.32507,0,0,0,0,0,0,0,-1,1896,1303,23.5206,-8.32512
679,-279,29.3833,9.19946,0,0,0,0,0,0,0,-1,1903,1303,29.3833,-9.19947
686,-279,29.3984,8.82556,-0.0106234,-0.00114895,0.000542568,-0.00111798,-0.0106544,1.51378,0.00676114,0.0234982,1910,1303,29.3984,-8.82557
693,-279,29.3956,8.45288,-0.00601111,0.000852954,0.000371953,0.000873051,-0.0060312,1.51682,0.00434118,0.0165581,1917,1303,29.3956,-8.45285
700,-279,29.3912,8.05505,-0.00235882,-0.00029708,0.000543729,-0.000162475,-0.00249343,1.32811,0.00161086,0.0118818,1924,1303,29.3913,-8.05502
707,-279,29.3782,7.63147,-0.000538809,-0.000443441,0.000466187,-2.25057e-05,-0.000959744,0.836364,0.000632461,0.00950187,1931,1303,29.3782,-7.63148
714,-279,29.3387,7.25171,-0.000398295,0.00010038,0.000417657,0.000337465,-0.00063538,1.0545,0.000570384,0.0100179,1938,1303,29.3387,-7.25172
721,-279,29.3599,6.87195,-0.000823306,0.000581589,0.000530949,0.000759675,-0.00100139,1.24718,0.00101994,0.0141281,1945,1303,29.3599,-6.87194
728,-279,29.3821,6.48242,-0.00127548,0.00105688,0.00058117,0.00119367,-0.00141227,1.33963,0.00150631,0.0164247,1952,1303,29.382,-6.4824
735,-279,29.3416,6.15393,-0.00147596,0.0017308,0.000406947,0.00178163,-0.0015268,1.44652,0.00191201,0.0157666,1959,1303,29.3416,-6.15398
742,-279,29.2019,5.75757,-0.00122697,0.00269248,-6.79439e-05,0.00269365,-0.00122814,-1.55347,0.00231635,0.0320982,1966,1303,29.2019,-5.75762
749,-279,29.2469,5.26062,0,0,0,0,0,0,0,-1,1973,1303,29.247,-5.26066
756,-279,23.2091,4.43433,0,0,0,0,0,0,0,-1,1980,1303,23.2092,-4.43432
763,-279,27.1613,3.46265,0,0,0,0,0,0,0,-1,1987,1303,27.1613,-3.4627
770,-279,21.5828,3.54199,0,0,0,0,0,0,0,-1,1994,1303,21.5827,-3.54198
777,-279,32.5369,6.99609,0,0,0,0,0,0,0,-1,2001,1303,32.5369,-6.99608
784,-279,0,0,0,0,0,0,0,0,0,-1,2008,1303,0,0
791,-279,0,0,0,0,0,0,0,0,0,-1,2015,1303,0,0
798,-279,0,0,0,0,0,0,0,0,0,-1,2022,1303,0,0
805,-279,0,0,0,0,0,0,0,0,0,-1,2029,1303,0,0
812,-279,0,0,0,0,0,0,0,0,0,-1,2036,1303,0,0
-700,-286,0,0,0,0,0,0,0,0,0,-1,524,1310,0,0
-693,-286,0,0,0,0,0,0,0,0,0,-1,531,1310,0,0
-686,-286,0,0,0,0,0,0,0,0,0,-1,538,1310,0,0
-679,-286,0,0,0,0,0,0,0,0,0,-1,545,1310,0,0
-672,-286,0,0,0,0,0,0,0,0,0,-1,552,1310,0,0
-665,-286,0,0,0,0,0,0,0,0,0,-1,559,1310,0,0
-658,-286,-18.8017,-0.794922,0,0,0,0,0,0,0,-1,566,1310,-18.8017,0.79496
-651,-286,-18.798,0.594727,-0.0156354,0.01162,0.0805894,0.0797258,-0.0837412,0.869156,0.0943873,0.0481028,573,1310,-18.798,-0.594671
-644,-286,-19.1089,1.80017,-0.0174591,0.0135669,0.0735586,0.0732305,-0.0771227,0.889322,0.0868162,0.0463872,580,1310,-19.1089,-1.80021
-637,-286,-19.4593,2.65125,-0.0140182,0.0123399,0.0630489,0.0635724,-0.0652507,0.888429,0.0743782,0.0463409,587,1310,-19.4593,-2.65124
-630,-286,-19.6556,3.39246,0,0,0,0,0,0,0,-1,594,1310,-19.6556,-3.39242
-623,-286,-20.1415,-1.72998,0,0,0,0,0,0,0,-1,601,1310,-20.1415,1.72995
-616,-286,-18.3679,1.86499,0,0,0,0,0,0,0,-1,608,1310,-18.3679,-1.86505
-609,-286,-17.2744,2.89221,0,0,0,0,0,0,0,-1,615,1310,-17.2744,-2.89215
-602,-286,-16.8081,3.63855,0.000725603,0.00392813,0.0166096,0.0190134,-0.0143597,0.833453,0.0193303,0.0185943,622,1310,-16.8081,-3.63859
-595,-286,-16.8181,4.12988,0.00198703,0.00290638,0.00965494,0.0121126,-0.00721917,0.809185,0.0112798,0.0112781,629,1310,-16.8181,-4.1299
-588,-286,-16.8221,4.55139,0.00290064,0.00221464,0.00463273,0.00720305,-0.00208777,0.748446,0.00562854,0.0127892,636,1310,-16.8221,-4.55145
-581,-286,-16.8115,4.9718,0.0032407,0.00161906,0.0016359,0.0042557,0.000604058,0.555321,0.00265875,0.0142955,643,1310,-16.8114,-4.97184
-574,-286,-16.8295,5.40198,0.00317906,0.000948734,0.00141832,0.00386812,0.00025967,0.452247,0.0024967,0.0135257,650,1310,-16.8295,-5.40203
-567,-286,-16.8442,5.84314,0.00370761,0.000417301,0.00139005,0.00421624,-9.13236e-05,0.350773,0.00284175,0.0132997,657,1310,-16.8442,-5.84316
-560,-286,-16.8427,6.29553,0.00438017,0.000184523,0.00157807,0.00490745,-0.000342757,0.322467,0.00339167,0.0136859,664,1310,-16.8427,-6.29555
-553,-286,-16.8411,6.74207,0.00516243,0.0001791,0.00208693,0.00592095,-0.000579418,0.348616,0.00415393,0.0099813,671,1310,-16.8411,-6.74212
-546,-286,-16.8348,7.18567,0.0056699,0.000694051,0.00280542,0.00693166,-0.00056771,0.422653,0.0048215,0.0169387,678,1310,-16.8349,-7.18568
-539,-286,-16.8162,7.55066,0.00600162,0.00134044,0.00380913,0.00813658,-0.000794517,0.510857,0.00570769,0.041036,685,1310,-16.8162,-7.55062
-532,-286,-16.6771,7.88721,0,0,0,0,0,0,0,-1,692,1310,-16.6771,-7.88715
-525,-286,-11.4528,-1.11768,0,0,0,0,0,0,0,-1,699,1310,-11.4528,1.11769
-518,-286,-11.0701,1.37329,0,0,0,0,0,0,0,-1,706,1310,-11.0701,-1.37332
-511,-286,-17.7545,-0.0791016,0,0,0,0,0,0,0,-1,713,1310,-17.7544,0.0791606
-504,-286,-18.0455,1.29602,0,0,0,0,0,0,0,-1,720,1310,-18.0455,-1.29601
-497,-286,-18.3367,2.67114,0,0,0,0,0,0,0,-1,727,1310,-18.3366,-2.67118
-490,-286,-19.5795,2.47266,0,0,0,0,0,0,0,-1,734,1310,-19.5795,-2.4727
-483,-286,-19.7277,2.74744,0,0,0,0,0,0,0,-1,741,1310,-19.7277,-2.74747
-476,-286,-20.0391,3.06177,0,0,0,0,0,0,0,-1,748,1310,-20.0391,-3.06178
-469,-286,0,0,0,0,0,0,0,0,0,-1,755,1310,0,0
-462,-286,0,0,0,0,0,0,0,0,0,-1,762,1310,0,0
-455,-286,0,0,0,0,0,0,0,0,0,-1,769,1310,0,0
-448,-286,0,0,0,0,0,0,0,0,0,-1,776,1310,0,0
-441,-286,0,0,0,0,0,0,0,0,0,-1,783,1310,0,0
-434,-286,0,0,0,0,0,0,0,0,0,-1,790,1310,0,0
-427,-286,0,0,0,0,0,0,0,0,0,-1,797,1310,0,0
-420,-286,0,0,0,0,0,0,0,0,0,-1,804,1310,0,0
-413,-286,0,0,0,0,0,0,0,0,0,-1,811,1310,0,0
-406,-286,0,0,0,0,0,0,0,0,0,-1,818,1310,0,0
-399,-286,0,0,0,0,0,0,0,0,0,-1,825,1310,0,0
-392,-286,0,0,0,0,0,0,0,0,0,-1,832,1310,0,0
-385,-286,0,0,0,0,0,0,0,0,0,-1,839,1310,0,0
-378,-286,0,0,0,0,0,0,0,0,0,-1,846,1310,0,0
-371,-286,0,0,0,0,0,0,0,0,0,-1,853,1310,0,0
-364,-286,0,0,0,0,0,0,0,0,0,-1,860,1310,0,0
-357,-286,0,0,0,0,0,0,0,0,0,-1,867,1310,0,0
-350,-286,0,0,0,0,0,0,0,0,0,-1,874,1310,0,0
-343,-286,0,0,0,0,0,0,0,0,0,-1,881,1310,0,0
-336,-286,0,0,0,0,0,0,0,0,0,-1,888,1310,0,0
-329,-286,0,0,0,0,0,0,0,0,0,-1,895,1310,0,0
-322,-286,0,0,0,0,0,0,0,0,0,-1,902,1310,0,0
-315,-286,0,0,0,0,0,0,0,0,0,-1,909,1310,0,0
-308,-286,0,0,0,0,0,0,0,0,0,-1,916,1310,0,0
-301,-286,0,0,0,0,0,0,0,0,0,-1,923,1310,0,0
-294,-286,0,0,0,0,0,0,0,0,0,-1,930,1310,0,0
-287,-286,0,0,0,0,0,0,0,0,0,-1,937,1310,0,0
-280,-286,0,0,0,0,0,0,0,0,0,-1,944,1310,0,0
-273,-286,0,0,0,0,0,0,0,0,0,-1,951,1310,0,0
-266,-286,0,0,0,0,0,0,0,0,0,-1,958,1310,0,0
-259,-286,0,0,0,0,0,0,0,0,0,-1,965,1310,0,0
-252,-286,0,0,0,0,0,0,0,0,0,-1,972,1310,0,0
-245,-286,0,0,0,0,0,0,0,0,0,-1,979,1310,0,0
-238,-286,0,0,0,0,0,0,0,0,0,-1,986,1310,0,0
-231,-286,0,0,0,0,0,0,0,0,0,-1,993,1310,0,0
-224,-286,0,0,0,0,0,0,0,0,0,-1,1000,1310,0,0
-217,-286,0,0,0,0,0,0,0,0,0,-1,1007,1310,0,0
-210,-286,0,0,0,0,0,0,0,0,0,-1,1014,1310,0,0
-203,-286,0,0,0,0,0,0,0,0,0,-1,1021,1310,0,0
-196,-286,0,0,0,0,0,0,0,0,0,-1,1028,1310,0,0
-189,-286,0,0,0,0,0,0,0,0,0,-1,1035,1310,0,0
-182,-286,0,0,0,0,0,0,0,0,0,-1,1042,1310,0,0
-175,-286,0,0,0,0,0,0,0,0,0,-1,1049,1310,0,0
-168,-286,0,0,0,0,0,0,0,0,0,-1,1056,1310,0,0
-161,-286,0,0,0,0,0,0,0,0,0,-1,1063,1310,0,0
-154,-286,0,0,0,0,0,0,0,0,0,-1,1070,1310,0,0
-147,-286,0,0,0,0,0,0,0,0,0,-1,1077,1310,0,0
-140,-286,0,0,0,0,0,0,0,0,0,-1,1084,1310,0,0
-133,-286,0,0,0,0,0,0,0,0,0,-1,1091,1310,0,0
-126,-286,0,0,0,0,0,0,0,0,0,-1,1098,1310,0,0
-119,-286,0,0,0,0,0,0,0,0,0,-1,1105,1310,0,0
-112,-286,0,0,0,0,0,0,0,0,0,-1,1112,1310,0,0
-105,-286,0,0,0,0,0,0,0,0,0,-1,1119,1310,0,0
-98,-286,0,0,0,0,0,0,0,0,0,-1,1126,1310,0,0
-91,-286,0,0,0,0,0,0,0,0,0,-1,1133,1310,0,0
-84,-286,0,0,0,0,0,0,0,0,0,-1,1140,1310,0,0
-77,-286,0,0,0,0,0,0,0,0,0,-1,1147,1310,0,0
-70,-286,0,0,0,0,0,0,0,0,0,-1,1154,1310,0,0
-63,-286,0,0,0,0,0,0,0,0,0,-1,1161,1310,0,0
-56,-286,0,0,0,0,0,0,0,0,0,-1,1168,1310,0,0
-49,-286,0,0,0,0,0,0,0,0,0,-1,1175,1310,0,0
-42,-286,0,0,0,0,0,0,0,0,0,-1,1182,1310,0,0
-35,-286,0,0,0,0,0,0,0,0,0,-1,1189,1310,0,0
-28,-286,0,0,0,0,0,0,0,0,0,-1,1196,1310,0,0
-21,-286,0,0,0,0,0,0,0,0,0,-1,1203,1310,0,0
-14,-286,0,0,0,0,0,0,0,0,0,-1,1210,1310,0,0
-7,-286,0,0,0,0,0,0,0,0,0,-1,1217,1310,0,0
0,-286,0,0,0,0,0,0,0,0,0,-1,1224,1310,0,0
7,-286,0,0,0,0,0,0,0,0,0,-1,1231,1310,0,0
14,-286,0,0,0,0,0,0,0,0,0,-1,1238,1310,0,0
21,-286,0,0,0,0,0,0,0,0,0,-1,1245,1310,0,0
28,-286,0,0,0,0,0,0,0,0,0,-1,1252,1310,0,0
35,-286,0,0,0,0,0,0,0,0,0,-1,1259,1310,0,0
42,-286,0,0,0,0,0,0,0,0,0,-1,1266,1310,0,0
49,-286,0,0,0,0,0,0,0,0,0,-1,1273,1310,0,0
56,-286,0,0,0,0,0,0,0,0,0,-1,1280,1310,0,0
63,-286,0,0,0,0,0,0,0,0,0,-1,1287,1310,0,0
70,-286,0,0,0,0,0,0,0,0,0,-1,1294,1310,0,0
77,-286,0,0,0,0,0,0,0,0,0,-1,1301,1310,0,0
84,-286,0,0,0,0,0,0,0,0,0,-1,1308,1310,0,0
91,-286,0,0,0,0,0,0,0,0,0,-1,1315,1310,0,0
98,-286,0,0,0,0,0,0,0,0,0,-1,1322,1310,0,0
105,-286,0,0,0,0,0,0,0,0,0,-1,1329,1310,0,0
112,-286,0,0,0,0,0,0,0,0,0,-1,1336,1310,0,0
119,-286,0,0,0,0,0,0,0,0,0,-1,1343,1310,0,0
126,-286,0,0,0,0,0,0,0,0,0,-1,1350,1310,0,0
133,-286,0,0,0,0,0,0,0,0,0,-1,1357,1310,0,0
140,-286,0,0,0,0,0,0,0,0,0,-1,1364,1310,0,0
147,-286,0,0,0,0,0,0,0,0,0,-1,1371,1310,0,0
154,-286,0,0,0,0,0,0,0,0,0,-1,1378,1310,0,0
161,-286,0,0,0,0,0,0,0,0,0,-1,1385,1310,0,0
168,-286,0,0,0,0,0,0,0,0,0,-1,1392,1310,0,0
175,-286,0,0,0,0,0,0,0,0,0,-1,1399,1310,0,0
182,-286,0,0,0,0,0,0,0,0,0,-1,1406,1310,0,0
189,-286,0,0,0,0,0,0,0,0,0,-1,1413,1310,0,0
196,-286,0,0,0,0,0,0,0,0,0,-1,1420,1310,0,0
203,-286,0,0,0,0,0,0,0,0,0,-1,1427,1310,0,0
210,-286,0,0,0,0,0,0,0,0,0,-1,1434,1310,0,0
217,-286,0,0,0,0,0,0,0,0,0,-1,1441,1310,0,0
224,-286,0,0,0,0,0,0,0,0,0,-1,1448,1310,0,0
231,-286,0,0,0,0,0,0,0,0,0,-1,1455,1310,0,0
238,-286,0,0,0,0,0,0,0,0,0,-1,1462,1310,0,0
245,-286,0,0,0,0,0,0,0,0,0,-1,1469,1310,0,0
252,-286,0,0,0,0,0,0,0,0,0,-1,1476,1310,0,0
259,-286,0,0,0,0,0,0,0,0,0,-1,1483,1310,0,0
266,-286,0,0,0,0,0,0,0,0,0,-1,1490,1310,0,0
273,-286,0,0,0,0,0,0,0,0,0,-1,1497,1310,0,0
280,-286,0,0,0,0,0,0,0,0,0,-1,1504,1310,0,0
287,-286,0,0,0,0,0,0,0,0,0,-1,1511,1310,0,0
294,-286,0,0,0,0,0,0,0,0,0,-1,1518,1310,0,0
301,-286,0,0,0,0,0,0,0,0,0,-1,1525,1310,0,0
308,-286,0,0,0,0,0,0,0,0,0,-1,1532,1310,0,0
315,-286,0,0,0,0,0,0,0,0,0,-1,1539,1310,0,0
322,-286,0,0,0,0,0,0,0,0,0,-1,1546,1310,0,0
329,-286,0,0,0,0,0,0,0,0,0,-1,1553,1310,0,0
336,-286,0,0,0,0,0,0,0,0,0,-1,1560,1310,0,0
343,-286,0,0,0,0,0,0,0,0,0,-1,1567,1310,0,0
350,-286,0,0,0,0,0,0,0,0,0,-1,1574,1310,0,0
357,-286,0,0,0,0,0,0,0,0,0,-1,1581,1310,0,0
364,-286,0,0,0,0,0,0,0,0,0,-1,1588,1310,0,0
371,-286,0,0,0,0,0,0,0,0,0,-1,1595,1310,0,0
378,-286,0,0,0,0,0,0,0,0,0,-1,1602,1310,0,0
385,-286,0,0,0,0,0,0,0,0,0,-1,1609,1310,0,0
392,-286,0,0,0,0,0,0,0,0,0,-1,1616,1310,0,0
399,-286,0,0,0,0,0,0,0,0,0,-1,1623,1310,0,0
406,-286,0,0,0,0,0,0,0,0,0,-1,1630,1310,0,0
413,-286,0,0,0,0,0,0,0,0,0,-1,1637,1310,0,0
420,-286,0,0,0,0,0,0,0,0,0,-1,1644,1310,0,0
427,-286,0,0,0,0,0,0,0,0,0,-1,1651,1310,0,0
434,-286,0,0,0,0,0,0,0,0,0,-1,1658,1310,0,0
441,-286,0,0,0,0,0,0,0,0,0,-1,1665,1310,0,0
448,-286,0,0,0,0,0,0,0,0,0,-1,1672,1310,0,0
455,-286,0,0,0,0,0,0,0,0,0,-1,1679,1310,0,0
462,-286,0,0,0,0,0,0,0,0,0,-1,1686,1310,0,0
469,-286,0,0,0,0,0,0,0,0,0,-1,1693,1310,0,0
476,-286,0,0,0,0,0,0,0,0,0,-1,1700,1310,0,0
483,-286,0,0,0,0,0,0,0,0,0,-1,1707,1310,0,0
490,-286,0,0,0,0,0,0,0,0,0,-1,1714,1310,0,0
497,-286,0,0,0,0,0,0,0,0,0,-1,1721,1310,0,0
504,-286,0,0,0,0,0,0,0,0,0,-1,1728,1310,0,0
511,-286,0,0,0,0,0,0,0,0,0,-1,1735,1310,0,0
518,-286,0,0,0,0,0,0,0,0,0,-1,1742,1310,0,0
525,-286,0,0,0,0,0,0,0,0,0,-1,1749,1310,0,0
532,-286,0,0,0,0,0,0,0,0,0,-1,1756,1310,0,0
539,-286,0,0,0,0,0,0,0,0,0,-1,1763,1310,0,0
546,-286,0,0,0,0,0,0,0,0,0,-1,1770,1310,0,0
553,-286,0,0,0,0,0,0,0,0,0,-1,1777,1310,0,0
560,-286,0,0,0,0,0,0,0,0,0,-1,1784,1310,0,0
567,-286,0,0,0,0,0,0,0,0,0,-1,1791,1310,0,0
574,-286,0,0,0,0,0,0,0,0,0,-1,1798,1310,0,0
581,-286,0,0,0,0,0,0,0,0,0,-1,1805,1310,0,0
588,-286,0,0,0,0,0,0,0,0,0,-1,1812,1310,0,0
595,-286,40.7675,2.77002,0,0,0,0,0,0,0,-1,1819,1310,40.7675,-2.76997
602,-286,40.5432,2.34985,0,0,0,0,0,0,0,-1,1826,1310,40.5432,-2.34983
609,-286,39.5704,2.02515,0,0,0,0,0,0,0,-1,1833,1310,39.5705,-2.02509
616,-286,39.5879,2.45923,-0.01137,0.0163384,0.00202742,0.0164859,-0.0115175,1.49814,0.0162524,0.0410229,1840,1310,39.5878,-2.45928
623,-286,42.0349,3.44165,0,0,0,0,0,0,0,-1,1847,1310,42.0349,-3.44165
630,-286,41.514,3.2915,0,0,0,0,0,0,0,-1,1854,1310,41.514,-3.29149
637,-286,41.0475,3.15979,0,0,0,0,0,0,0,-1,1861,1310,41.0474,-3.15984
644,-286,25.6433,1.33862,0,0,0,0,0,0,0,-1,1868,1310,25.6433,-1.33858
651,-286,25.2507,1.88245,0,0,0,0,0,0,0,-1,1875,1310,25.2508,-1.88245
658,-286,25.9475,9.43689,0,0,0,0,0,0,0,-1,1882,1310,25.9475,-9.43693
665,-286,24.9838,8.03101,0,0,0,0,0,0,0,-1,1889,1310,24.9837,-8.03104
672,-286,28.863,9.77124,0,0,0,0,0,0,0,-1,1896,1310,28.863,-9.77121
679,-286,28.8998,9.2804,-0.0121418,-0.00279974,0.00014889,-0.00279737,-0.0121442,1.55486,0.00734348,0.0439946,1903,1310,28.8998,-9.28034
686,-286,28.9995,8.8407,-0.00853053,-0.00141588,0.000271766,-0.00140551,-0.0085409,1.53267,0.00528806,0.0209044,1910,1310,28.9995,-8.84076
693,-286,28.9872,8.45996,-0.00449106,0.000426994,0.000146494,0.000431354,-0.00449542,1.54104,0.00315059,0.0161407,1917,1310,28.9872,-8.45994
700,-286,28.9785,8.03943,-0.00168566,-0.000269413,0.000321795,-0.000199725,-0.00175535,1.35753,0.00110967,0.0119081,1924,1310,28.9785,-8.03945
707,-286,28.9701,7.65857,-0.000487479,-0.000236674,0.00035338,1.28947e-05,-0.000737048,0.9559,0.000495719,0.00941784,1931,1310,28.97,-7.65859
714,-286,28.951,7.28674,-0.000618737,0.000165422,0.000441779,0.000364016,-0.000817331,1.14833,0.000698589,0.00926383,1938,1310,28.9511,-7.28669
721,-286,28.9581,6.89941,-0.00115545,0.00049746,0.000624601,0.000706936,-0.00136493,1.24721,0.00121613,0.0118449,1945,1310,28.9581,-6.89938
728,-286,28.9525,6.5061,-0.00176785,0.000816201,0.000745228,0.00101572,-0.00196737,1.30921,0.00175125,0.0151254,1952,1310,28.9525,-6.50612
735,-286,28.9884,6.14111,-0.00222278,0.00130749,0.000607371,0.00140906,-0.00232435,1.40509,0.00217697,0.0187213,1959,1310,28.9884,-6.14115
742,-286,29.0044,5.77002,-0.00240481,0.00198218,0.000183483,0.00198984,-0.00241247,1.52907,0.00254558,0.0438955,1966,1310,29.0043,-5.77008
749,-286,29.1918,5.33313,0,0,0,0,0,0,0,-1,1973,1310,29.1918,-5.33309
756,-286,24.8226,4.43481,0,0,0,0,0,0,0,-1,1980,1310,24.8227,-4.43479
763,-286,20.6671,3.99683,0,0,0,0,0,0,0,-1,1987,1310,20.6671,-3.99683
770,-286,23.9147,4.45679,0,0,0,0,0,0,0,-1,1994,1310,23.9146,-4.45675
777,-286,0,0,0,0,0,0,0,0,0,-1,2001,1310,0,0
784,-286,0,0,0,0,0,0,0,0,0,-1,2008,1310,0,0
791,-286,0,0,0,0,0,0,0,0,0,-1,2015,1310,0,0
798,-286,0,0,0,0,0,0,0,0,0,-1,2022,1310,0,0
805,-286,0,0,0,0,0,0,0,0,0,-1,2029,1310,0,0
812,-286,0,0,0,0,0,0,0,0,0,-1,2036,1310,0,0
-700,-293,0,0,0,0,0,0,0,0,0,-1,524,1317,0,0
-693,-293,0,0,0,0,0,0,0,0,0,-1,531,1317,0,0
-686,-293,0,0,0,0,0,0,0,0,0,-1,538,1317,0,0
-679,-293,0,0,0,0,0,0,0,0,0,-1,545,1317,0,0
-672,-293,0,0,0,0,0,0,0,0,0,-1,552,1317,0,0
-665,-293,0,0,0,0,0,0,0,0,0,-1,559,1317,0,0
-658,-293,0,0,0,0,0,0,0,0,0,-1,566,1317,0,0
-651,-293,-19.3986,0.230591,-0.0366327,0.0264964,0.101562,0.101286,-0.111423,0.936061,0.122854,0.048716,573,1317,-19.3986,-0.230615
-644,-293,-19.6501,1.56128,-0.0348281,0.026275,0.0916618,0.0923427,-0.100896,0.946262,0.111603,0.0449657,580,1317,-19.6502,-1.56126
-637,-293,-19.9641,2.40369,-0.0272312,0.0222606,0.0776268,0.0789903,-0.0839609,0.939696,0.0940945,0.0478355,587,1317,-19.9641,-2.4037
-630,-293,-20.2918,3.08264,0,0,0,0,0,0,0,-1,594,1317,-20.2918,-3.08267
-623,-293,-15.6058,0.229614,0,0,0,0,0,0,0,-1,601,1317,-15.6058,-0.229666
-616,-293,-15.5056,2.17737,0,0,0,0,0,0,0,-1,608,1317,-15.5055,-2.17742
-609,-293,-15.8544,3.02173,0,0,0,0,0,0,0,-1,615,1317,-15.8544,-3.0217
-602,-293,-16.2596,3.51013,-0.00105308,0.0054544,0.0197523,0.0222191,-0.0178178,0.867029,0.0231619,0.0427685,622,1317,-16.2596,-3.51013
-595,-293,-16.4191,4.10059,0.00104826,0.00381382,0.0114241,0.0139385,-0.00907644,0.845625,0.0133862,0.0181159,629,1317,-16.4191,-4.10058
-588,-293,-16.3903,4.53223,0.00252688,0.00265786,0.00533324,0.00792601,-0.00274127,0.791537,0.00639665,0.0163768,636,1317,-16.3903,-4.53218
-581,-293,-16.3565,4.96655,0.00315455,0.00177362,0.00162065,0.00422569,0.000702474,0.584022,0.00261462,0.0183317,643,1317,-16.3565,-4.96652
-574,-293,-16.3823,5.44568,0.00284023,0.00106301,0.00130421,0.00352977,0.000373459,0.486352,0.0022391,0.0161347,650,1317,-16.3823,-5.44565
-567,-293,-16.4153,5.88757,0.00307402,0.000483138,0.00114525,0.00350767,4.94841e-05,0.361971,0.00232213,0.0151859,657,1317,-16.4153,-5.88762
-560,-293,-16.4092,6.32959,0.00358876,5.34352e-05,0.00114869,0.00392921,-0.000287011,0.28813,0.00272019,0.0158722,664,1317,-16.4092,-6.32954
-553,-293,-16.4022,6.74268,0.00440852,-0.000210922,0.00136151,0.00477994,-0.000582343,0.266321,0.00339742,0.0109353,671,1317,-16.4022,-6.74267
-546,-293,-16.4084,7.1875,0.00541794,-0.000282937,0.00171122,0.00589215,-0.000757147,0.270333,0.00420327,0.0111364,678,1317,-16.4084,-7.18746
-539,-293,-16.3717,7.60156,0.00683325,-0.000430816,0.00226163,0.00747984,-0.00107741,0.278468,0.00538177,0.0336827,685,1317,-16.3717,-7.60158
-532,-293,-16.3129,7.95752,0,0,0,0,0,0,0,-1,692,1317,-16.3129,-7.95748
-525,-293,-8.20642,3.62256,0,0,0,0,0,0,0,-1,699,1317,-8.20639,-3.6226
-518,-293,-10.1053,0.314209,0,0,0,0,0,0,0,-1,706,1317,-10.1053,-0.314234
-511,-293,-11.6276,0.235352,0,0,0,0,0,0,0,-1,713,1317,-11.6276,-0.235372
-504,-293,-17.9086,1.25427,0,0,0,0,0,0,0,-1,720,1317,-17.9086,-1.25423
-497,-293,-18.8006,1.62122,0,0,0,0,0,0,0,-1,727,1317,-18.8006,-1.62119
-490,-293,-18.8961,1.99255,0,0,0,0,0,0,0,-1,734,1317,-18.8961,-1.99251
-483,-293,-19.0831,2.35498,0,0,0,0,0,0,0,-1,741,1317,-19.0831,-2.35497
-476,-293,-19.5228,2.61243,0,0,0,0,0,0,0,-1,748,1317,-19.5228,-2.61237
-469,-293,0,0,0,0,0,0,0,0,0,-1,755,1317,0,0
-462,-293,0,0,0,0,0,0,0,0,0,-1,762,1317,0,0
-455,-293,0,0,0,0,0,0,0,0,0,-1,769,1317,0,0
-448,-293,0,0,0,0,0,0,0,0,0,-1,776,1317,0,0
-441,-293,0,0,0,0,0,0,0,0,0,-1,783,1317,0,0
-434,-293,0,0,0,0,0,0,0,0,0,-1,790,1317,0,0
-427,-293,0,0,0,0,0,0,0,0,0,-1,797,1317,0,0
-420,-293,0,0,0,0,0,0,0,0,0,-1,804,1317,0,0
-413,-293,0,0,0,0,0,0,0,0,0,-1,811,1317,0,0
-406,-293,0,0,0,0,0,0,0,0,0,-1,818,1317,0,0
-399,-293,0,0,0,0,0,0,0,0,0,-1,825,1317,0,0
-392,-293,0,0,0,0,0,0,0,0,0,-1,832,1317,0,0
-385,-293,0,0,0,0,0,0,0,0,0,-1,839,1317,0,0
-378,-293,0,0,0,0,0,0,0,0,0,-1,846,1317,0,0
-371,-293,0,0,0,0,0,0,0,0,0,-1,853,1317,0,0
-364,-293,0,0,0,0,0,0,0,0,0,-1,860,1317,0,0
-357,-293,0,0,0,0,0,0,0,0,0,-1,867,1317,0,0
-350,-293,0,0,0,0,0,0,0,0,0,-1,874,1317,0,0
-343,-293,0,0,0,0,0,0,0,0,0,-1,881,1317,0,0
-336,-293,0,0,0,0,0,0,0,0,0,-1,888,1317,0,0
-329,-293,0,0,0,0,0,0,0,0,0,-1,895,1317,0,0
-322,-293,0,0,0,0,0,0,0,0,0,-1,902,1317,0,0
-315,-293,0,0,0,0,0,0,0,0,0,-1,909,1317,0,0
-308,-293,0,0,0,0,0,0,0,0,0,-1,916,1317,0,0
-301,-293,0,0,0,0,0,0,0,0,0,-1,923,1317,0,0
-294,-293,0,0,0,0,0,0,0,0,0,-1,930,1317,0,0
-287,-293,0,0,0,0,0,0,0,0,0,-1,937,1317,0,0
-280,-293,0,0,0,0,0,0,0,0,0,-1,944,1317,0,0
-273,-293,0,0,0,0,0,0,0,0,0,-1,951,1317,0,0
-266,-293,0,0,0,0,0,0,0,0,0,-1,958,1317,0,0
-259,-293,0,0,0,0,0,0,0,0,0,-1,965,1317,0,0
-252,-293,0,0,0,0,0,0,0,0,0,-1,972,1317,0,0
-245,-293,0,0,0,0,0,0,0,0,0,-1,979,1317,0,0
-238,-293,0,0,0,0,0,0,0,0,0,-1,986,1317,0,0
-231,-293,0,0,0,0,0,0,0,0,0,-1,993,1317,0,0
-224,-293,0,0,0,0,0,0,0,0,0,-1,1000,1317,0,0
-217,-293,0,0,0,0,0,0,0,0,0,-1,1007,1317,0,0
-210,-293,0,0,0,0,0,0,0,0,0,-1,1014,1317,0,0
-203,-293,0,0,0,0,0,0,0,0,0,-1,1021,1317,0,0
-196,-293,0,0,0,0,0,0,0,0,0,-1,1028,1317,0,0
-189,-293,0,0,0,0,0,0,0,0,0,-1,1035,1317,0,0
-182,-293,0,0,0,0,0,0,0,0,0,-1,1042,1317,0,0
-175,-293,0,0,0,0,0,0,0,0,0,-1,1049,1317,0,0
-168,-293,0,0,0,0,0,0,0,0,0,-1,1056,1317,0,0
-161,-293,0,0,0,0,0,0,0,0,0,-1,1063,1317,0,0
-154,-293,0,0,0,0,0,0,0,0,0,-1,1070,1317,0,0
-147,-293,0,0,0,0,0,0,0,0,0,-1,1077,1317,0,0
-140,-293,0,0,0,0,0,0,0,0,0,-1,1084,1317,0,0
-133,-293,0,0,0,0,0,0,0,0,0,-1,1091,1317,0,0
-126,-293,0,0,0,0,0,0,0,0,0,-1,1098,1317,0,0
-119,-293,0,0,0,0,0,0,0,0,0,-1,1105,1317,0,0
-112,-293,0,0,0,0,0,0,0,0,0,-1,1112,1317,0,0
-105,-293,0,0,0,0,0,0,0,0,0,-1,1119,1317,0,0
-98,-293,0,0,0,0,0,0,0,0,0,-1,1126,1317,0,0
-91,-293,0,0,0,0,0,0,0,0,0,-1,1133,1317,0,0
-84,-293,0,0,0,0,0,0,0,0,0,-1,1140,1317,0,0
-77,-293,0,0,0,0,0,0,0,0,0,-1,1147,1317,0,0
-70,-293,0,0,0,0,0,0,0,0,0,-1,1154,1317,0,0
-63,-293,0,0,0,0,0,0,0,0,0,-1,1161,1317,0,0
-56,-293,0,0,0,0,0,0,0,0,0,-1,1168,1317,0,0
-49,-293,0,0,0,0,0,0,0,0,0,-1,1175,1317,0,0
-42,-293,0,0,0,0,0,0,0,0,0,-1,1182,1317,0,0
-35,-293,0,0,0,0,0,0,0,0,0,-1,1189,1317,0,0
-28,-293,0,0,0,0,0,0,0,0,0,-1,1196,1317,0,0
-21,-293,0,0,0,0,0,0,0,0,0,-1,1203,1317,0,0
-14,-293,0,0,0,0,0,0,0,0,0,-1,1210,1317,0,0
-7,-293,0,0,0,0,0,0,0,0,0,-1,1217,1317,0,0
0,-293,0,0,0,0,0,0,0,0,0,-1,1224,1317,0,0
7,-293,0,0,0,0,0,0,0,0,0,-1,1231,1317,0,0
14,-293,0,0,0,0,0,0,0,0,0,-1,1238,1317,0,0
21,-293,0,0,0,0,0,0,0,0,0,-1,1245,1317,0,0
28,-293,0,0,0,0,0,0,0,0,0,-1,1252,1317,0,0
35,-293,0,0,0,0,0,0,0,0,0,-1,1259,1317,0,0
42,-293,0,0,0,0,0,0,0,0,0,-1,1266,1317,0,0
49,-293,0,0,0,0,0,0,0,0,0,-1,1273,1317,0,0
56,-293,0,0,0,0,0,0,0,0,0,-1,1280,1317,0,0
63,-293,0,0,0,0,0,0,0,0,0,-1,1287,1317,0,0
70,-293,0,0,0,0,0,0,0,0,0,-1,1294,1317,0,0
77,-293,0,0,0,0,0,0,0,0,0,-1,1301,1317,0,0
84,-293,0,0,0,0,0,0,0,0,0,-1,1308,1317,0,0
91,-293,0,0,0,0,0,0,0,0,0,-1,1315,1317,0,0
98,-293,0,0,0,0,0,0,0,0,0,-1,1322,1317,0,0
105,-293,0,0,0,0,0,0,0,0,0,-1,1329,1317,0,0
112,-293,0,0,0,0,0,0,0,0,0,-1,1336,1317,0,0
119,-293,0,0,0,0,0,0,0,0,0,-1,1343,1317,0,0
126,-293,0,0,0,0,0,0,0,0,0,-1,1350,1317,0,0
133,-293,0,0,0,0,0,0,0,0,0,-1,1357,1317,0,0
140,-293,0,0,0,0,0,0,0,0,0,-1,1364,1317,0,0
147,-293,0,0,0,0,0,0,0,0,0,-1,1371,1317,0,0
154,-293,0,0,0,0,0,0,0,0,0,-1,1378,1317,0,0
161,-293,0,0,0,0,0,0,0,0,0,-1,1385,1317,0,0
168,-293,0,0,0,0,0,0,0,0,0,-1,1392,1317,0,0
175,-293,0,0,0,0,0,0,0,0,0,-1,1399,1317,0,0
182,-293,0,0,0,0,0,0,0,0,0,-1,1406,1317,0,0
189,-293,0,0,0,0,0,0,0,0,0,-1,1413,1317,0,0
196,-293,0,0,0,0,0,0,0,0,0,-1,1420,1317,0,0
203,-293,0,0,0,0,0,0,0,0,0,-1,1427,1317,0,0
210,-293,0,0,0,0,0,0,0,0,0,-1,1434,1317,0,0
217,-293,0,0,0,0,0,0,0,0,0,-1,1441,1317,0,0
224,-293,0,0,0,0,0,0,0,0,0,-1,1448,1317,0,0
231,-293,0,0,0,0,0,0,0,0,0,-1,1455,1317,0,0
238,-293,0,0,0,0,0,0,0,0,0,-1,1462,1317,0,0
245,-293,0,0,0,0,0,0,0,0,0,-1,1469,1317,0,0
252,-293,0,0,0,0,0,0,0,0,0,-1,1476,1317,0,0
259,-293,0,0,0,0,0,0,0,0,0,-1,1483,1317,0,0
266,-293,0,0,0,0,0,0,0,0,0,-1,1490,1317,0,0
273,-293,0,0,0,0,0,0,0,0,0,-1,1497,1317,0,0
280,-293,0,0,0,0,0,0,0,0,0,-1,1504,1317,0,0
287,-293,0,0,0,0,0,0,0,0,0,-1,1511,1317,0,0
294,-293,0,0,0,0,0,0,0,0,0,-1,1518,1317,0,0
301,-293,0,0,0,0,0,0,0,0,0,-1,1525,1317,0,0
308,-293,0,0,0,0,0,0,0,0,0,-1,1532,1317,0,0
315,-293,0,0,0,0,0,0,0,0,0,-1,1539,1317,0,0
322,-293,0,0,0,0,0,0,0,0,0,-1,1546,1317,0,0
329,-293,0,0,0,0,0,0,0,0,0,-1,1553,1317,0,0
336,-293,0,0,0,0,0,0,0,0,0,-1,1560,1317,0,0
343,-293,0,0,0,0,0,0,0,0,0,-1,1567,1317,0,0
350,-293,0,0,0,0,0,0,0,0,0,-1,1574,1317,0,0
357,-293,0,0,0,0,0,0,0,0,0,-1,1581,1317,0,0
364,-293,0,0,0,0,0,0,0,0,0,-1,1588,1317,0,0
371,-293,0,0,0,0,0,0,0,0,0,-1,1595,1317,0,0
378,-293,0,0,0,0,0,0,0,0,0,-1,1602,1317,0,0
385,-293,0,0,0,0,0,0,0,0,0,-1,1609,1317,0,0
392,-293,0,0,0,0,0,0,0,0,0,-1,1616,1317,0,0
399,-293,0,0,0,0,0,0,0,0,0,-1,1623,1317,0,0
406,-293,0,0,0,0,0,0,0,0,0,-1,1630,1317,0,0
413,-293,0,0,0,0,0,0,0,0,0,-1,1637,1317,0,0
420,-293,0,0,0,0,0,0,0,0,0,-1,1644,1317,0,0
427,-293,0,0,0,0,0,0,0,0,0,-1,1651,1317,0,0
434,-293,0,0,0,0,0,0,0,0,0,-1,1658,1317,0,0
441,-293,0,0,0,0,0,0,0,0,0,-1,1665,1317,0,0
448,-293,0,0,0,0,0,0,0,0,0,-1,1672,1317,0,0
455,-293,0,0,0,0,0,0,0,0,0,-1,1679,1317,0,0
462,-293,0,0,0,0,0,0,0,0,0,-1,1686,1317,0,0
469,-293,0,0,0,0,0,0,0,0,0,-1,1693,1317,0,0
476,-293,0,0,0,0,0,0,0,0,0,-1,1700,1317,0,0
483,-293,0,0,0,0,0,0,0,0,0,-1,1707,1317,0,0
490,-293,0,0,0,0,0,0,0,0,0,-1,1714,1317,0,0
497,-293,0,0,0,0,0,0,0,0,0,-1,1721,1317,0,0
504,-293,0,0,0,0,0,0,0,0,0,-1,1728,1317,0,0
511,-293,0,0,0,0,0,0,0,0,0,-1,1735,1317,0,0
518,-293,0,0,0,0,0,0,0,0,0,-1,1742,1317,0,0
525,-293,0,0,0,0,0,0,0,0,0,-1,1749,1317,0,0
532,-293,0,0,0,0,0,0,0,0,0,-1,1756,1317,0,0
539,-293,0,0,0,0,0,0,0,0,0,-1,1763,1317,0,0
546,-293,0,0,0,0,0,0,0,0,0,-1,1770,1317,0,0
553,-293,0,0,0,0,0,0,0,0,0,-1,1777,1317,0,0
560,-293,0,0,0,0,0,0,0,0,0,-1,1784,1317,0,0
567,-293,0,0,0,0,0,0,0,0,0,-1,1791,1317,0,0
574,-293,0,0,0,0,0,0,0,0,0,-1,1798,1317,0,0
581,-293,0,0,0,0,0,0,0,0,0,-1,1805,1317,0,0
588,-293,0,0,0,0,0,0,0,0,0,-1,1812,1317,0,0
595,-293,41.0428,2.4613,0,0,0,0,0,0,0,-1,1819,1317,41.0428,-2.46134
602,-293,40.5967,1.94885,-0.0179513,0.0308506,-0.00267223,0.0309965,-0.0180971,-1.51626,0.0286685,0.0484249,1826,1317,40.5967,-1.94885
609,-293,39.4564,1.97131,-0.0141132,0.026719,-0.000665299,0.0267299,-0.0141241,-1.55451,0.0239584,0.0465182,1833,1317,39.4564,-1.97126
616,-293,39.3722,2.27405,-0.0120676,0.0207096,0.000827199,0.0207304,-0.0120885,1.54558,0.0191657,0.0442654,1840,1317,39.3722,-2.27405
623,-293,42.4288,3.60327,0,0,0,0,0,0,0,-1,1847,1317,42.4288,-3.60332
630,-293,42.078,3.37988,0,0,0,0,0,0,0,-1,1854,1317,42.078,-3.37992
637,-293,30.8379,3.60046,0,0,0,0,0,0,0,-1,1861,1317,30.8379,-3.60043
644,-293,24.4565,0.520752,0,0,0,0,0,0,0,-1,1868,1317,24.4566,-0.520709
651,-293,25.8926,9.51245,0,0,0,0,0,0,0,-1,1875,1317,25.8926,-9.51246
658,-293,25.4904,9.10205,0,0,0,0,0,0,0,-1,1882,1317,25.4904,-9.10209
665,-293,28.8812,9.81348,0,0,0,0,0,0,0,-1,1889,1317,28.8812,-9.81352
672,-293,28.6763,9.61182,-0.0118184,-0.0044996,-2.40918e-05,-0.00449952,-0.0118185,-1.5675,0.0068878,0.0312762,1896,1317,28.6763,-9.61181
679,-293,28.6262,9.22046,-0.00946578,-0.00275808,7.48015e-05,-0.00275725,-0.00946661,1.55965,0.00562208,0.0133065,1903,1317,28.6263,-9.22049
686,-293,28.6318,8.83093,-0.00614078,-0.0013545,0.000149,-0.00134987,-0.00614541,1.53971,0.00372933,0.015609,1910,1317,28.6318,-8.83093
693,-293,28.613,8.44104,-0.00300286,0.000174764,7.76008e-05,0.000176658,-0.00300476,1.54639,0.00206458,0.0117969,1917,1317,28.6131,-8.44107
700,-293,28.587,8.03455,-0.00109721,-0.000177538,0.00024262,-0.000117457,-0.00115729,1.32805,0.000735508,0.0105414,1924,1317,28.5871,-8.03453
707,-293,28.5723,7.66479,-0.000459242,-7.99059e-05,0.000344795,0.000123946,-0.000663094,1.03685,0.000488646,0.011772,1931,1317,28.5722,-7.66477
714,-293,28.5664,7.302,-0.000841733,0.000196664,0.000534884,0.000422897,-0.00106797,1.17066,0.000887201,0.00836684,1938,1317,28.5664,-7.30204
721,-293,28.5854,6.90295,-0.00154348,0.000387454,0.000790654,0.000669889,-0.00182591,1.22771,0.00149159,0.00975733,1945,1317,28.5855,-6.90293
728,-293,28.5726,6.4873,-0.00237639,0.000559642,0.000994049,0.000864534,-0.00268129,1.27319,0.00213487,0.0127119,1952,1317,28.5726,-6.48735
735,-293,28.5885,6.10303,-0.00319466,0.000875964,0.000924998,0.0010763,-0.00339499,1.35751,0.00269472,0.0238927,1959,1317,28.5885,-6.10298
742,-293,28.7371,5.69519,0,0,0,0,0,0,0,-1,1966,1317,28.737,-5.69524
749,-293,28.9009,4.82776,0,0,0,0,0,0,0,-1,1973,1317,28.9009,-4.82772
756,-293,24.978,3.9718,0,0,0,0,0,0,0,-1,1980,1317,24.978,-3.97186
763,-293,26.6713,4.74097,0,0,0,0,0,0,0,-1,1987,1317,26.6713,-4.74098
770,-293,24.1349,4.69153,0,0,0,0,0,0,0,-1,1994,1317,24.1348,-4.69159
777,-293,0,0,0,0,0,0,0,0,0,-1,2001,1317,0,0
784,-293,0,0,0,0,0,0,0,0,0,-1,2008,1317,0,0
791,-293,0,0,0,0,0,0,0,0,0,-1,2015,1317,0,0
798,-293,0,0,0,0,0,0,0,0,0,-1,2022,1317,0,0
805,-293,0,0,0,0,0,0,0,0,0,-1,2029,1317,0,0
812,-293,0,0,0,0,0,0,0,0,0,-1,2036,1317,0,0
-700,-300,0,0,0,0,0,0,0,0,0,-1,524,1324,0,0
-693,-300,0,0,0,0,0,0,0,0,0,-1,531,1324,0,0
-686,-300,0,0,0,0,0,0,0,0,0,-1,538,1324,0,0
-679,-300,0,0,0,0,0,0,0,0,0,-1,545,1324,0,0
-672,-300,0,0,0,0,0,0,0,0,0,-1,552,1324,0,0
-665,-300,0,0,0,0,0,0,0,0,0,-1,559,1324,0,0
-658,-300,0,0,0,0,0,0,0,0,0,-1,566,1324,0,0
-651,-300,-20.1143,0.203857,-0.0527685,0.0455186,0.12542,0.13108,-0.13833,0.97212,0.155562,0.049566,573,1324,-20.1142,-0.203872
-644,-300,-20.4374,1.17224,-0.0473955,0.0425311,0.112041,0.118294,-0.123159,0.976216,0.139412,0.0457035,580,1324,-20.4375,-1.17226
-637,-300,-20.7362,1.82813,-0.0365157,0.0344569,0.0934339,0.0989164,-0.100975,0.966885,0.11541,0.0462203,587,1324,-20.7362,-1.8281
-630,-300,-21.1108,2.26306,0,0,0,0,0,0,0,-1,594,1324,-21.1109,-2.2631
-623,-300,-12.7067,1.48462,0,0,0,0,0,0,0,-1,601,1324,-12.7067,-1.48462
-616,-300,-14.9988,1.68628,0,0,0,0,0,0,0,-1,608,1324,-14.9988,-1.68627
-609,-300,-15.5027,3.29907,0,0,0,0,0,0,0,-1,615,1324,-15.5027,-3.29902
-602,-300,-15.823,3.42651,0,0,0,0,0,0,0,-1,622,1324,-15.823,-3.4265
-595,-300,-15.9968,4.09521,-0.000472774,0.00472012,0.0131393,0.0155171,-0.0112698,0.882946,0.0155301,0.0316388,629,1324,-15.9968,-4.0952
-588,-300,-15.9344,4.5603,0.00165713,0.00303705,0.00597945,0.00836622,-0.00367203,0.842838,0.00712425,0.0206988,636,1324,-15.9345,-4.56031
-581,-300,-15.9424,5.01099,0.00288925,0.00181111,0.00161646,0.00405416,0.000646207,0.624453,0.0025152,0.0204475,643,1324,-15.9424,-5.01094
-574,-300,-15.9632,5.4707,0.00265828,0.00110451,0.00127239,0.00337221,0.000390578,0.51132,0.00212992,0.0157972,650,1324,-15.9632,-5.47074
-567,-300,-15.9729,5.90527,0.00281635,0.000542938,0.00107329,0.00324299,0.0001163,0.378355,0.00212429,0.0152187,657,1324,-15.9729,-5.90523
-560,-300,-15.9828,6.33655,0.00321036,0.000109507,0.00102309,0.00351749,-0.00019763,0.291644,0.00241357,0.014781,664,1324,-15.9828,-6.3365
-553,-300,-15.9696,6.75891,0.00386518,-0.000180302,0.00115229,0.00417037,-0.000485492,0.258909,0.0029554,0.0105138,671,1324,-15.9696,-6.75887
-546,-300,-15.9781,7.19165,0.00474018,-0.000325002,0.00143901,0.00512045,-0.000705272,0.258353,0.00367137,0.00906022,678,1324,-15.9781,-7.19159
-539,-300,-15.9523,7.6438,0.00597302,-0.000511686,0.00190507,0.00649127,-0.00102994,0.26561,0.00470852,0.0205078,685,1324,-15.9523,-7.64383
-532,-300,-15.9166,8.07605,0,0,0,0,0,0,0,-1,692,1324,-15.9165,-8.07606
-525,-300,-13.5115,6.27783,0,0,0,0,0,0,0,-1,699,1324,-13.5115,-6.2778
-518,-300,-9.8349,-0.537109,0,0,0,0,0,0,0,-1,706,1324,-9.83487,0.537068
-511,-300,-12.8644,0.081665,0,0,0,0,0,0,0,-1,713,1324,-12.8644,-0.0817016
-504,-300,-13.4829,-0.165527,0,0,0,0,0,0,0,-1,720,1324,-13.4829,0.165544
-497,-300,-18.1063,0.956543,0,0,0,0,0,0,0,-1,727,1324,-18.1063,-0.9565
-490,-300,-18.2293,1.53625,0,0,0,0,0,0,0,-1,734,1324,-18.2293,-1.53626
-483,-300,-18.3522,1.61084,0,0,0,0,0,0,0,-1,741,1324,-18.3522,-1.6108
-476,-300,-18.7489,1.96387,0,0,0,0,0,0,0,-1,748,1324,-18.7489,-1.96387
-469,-300,0,0,0,0,0,0,0,0,0,-1,755,1324,0,0
-462,-300,0,0,0,0,0,0,0,0,0,-1,762,1324,0,0
-455,-300,0,0,0,0,0,0,0,0,0,-1,769,1324,0,0
-448,-300,0,0,0,0,0,0,0,0,0,-1,776,1324,0,0
-441,-300,0,0,0,0,0,0,0,0,0,-1,783,1324,0,0
-434,-300,0,0,0,0,0,0,0,0,0,-1,790,1324,0,0
-427,-300,0,0,0,0,0,0,0,0,0,-1,797,1324,0,0
-420,-300,0,0,0,0,0,0,0,0,0,-1,804,1324,0,0
-413,-300,0,0,0,0,0,0,0,0,0,-1,811,1324,0,0
-406,-300,0,0,0,0,0,0,0,0,0,-1,818,1324,0,0
-399,-300,0,0,0,0,0,0,0,0,0,-1,825,1324,0,0
-392,-300,0,0,0,0,0,0,0,0,0,-1,832,1324,0,0
-385,-300,0,0,0,0,0,0,0,0,0,-1,839,1324,0,0
-378,-300,0,0,0,0,0,0,0,0,0,-1,846,1324,0,0
-371,-300,0,0,0,0,0,0,0,0,0,-1,853,1324,0,0
-364,-300,0,0,0,0,0,0,0,0,0,-1,860,1324,0,0
-357,-300,0,0,0,0,0,0,0,0,0,-1,867,1324,0,0
-350,-300,0,0,0,0,0,0,0,0,0,-1,874,1324,0,0
-343,-300,0,0,0,0,0,0,0,0,0,-1,881,1324,0,0
-336,-300,0,0,0,0,0,0,0,0,0,-1,888,1324,0,0
-329,-300,0,0,0,0,0,0,0,0,0,-1,895,1324,0,0
-322,-300,0,0,0,0,0,0,0,0,0,-1,902,1324,0,0
-315,-300,0,0,0,0,0,0,0,0,0,-1,909,1324,0,0
-308,-300,0,0,0,0,0,0,0,0,0,-1,916,1324,0,0
-301,-300,0,0,0,0,0,0,0,0,0,-1,923,1324,0,0
-294,-300,0,0,0,0,0,0,0,0,0,-1,930,1324,0,0
-287,-300,0,0,0,0,0,0,0,0,0,-1,937,1324,0,0
-280,-300,0,0,0,0,0,0,0,0,0,-1,944,1324,0,0
-273,-300,0,0,0,0,0,0,0,0,0,-1,951,1324,0,0
-266,-300,0,0,0,0,0,0,0,0,0,-1,958,1324,0,0
-259,-300,0,0,0,0,0,0,0,0,0,-1,965,1324,0,0
-252,-300,0,0,0,0,0,0,0,0,0,-1,972,1324,0,0
-245,-300,0,0,0,0,0,0,0,0,0,-1,979,1324,0,0
-238,-300,0,0,0,0,0,0,0,0,0,-1,986,1324,0,0
-231,-300,0,0,0,0,0,0,0,0,0,-1,993,1324,0,0
-224,-300,0,0,0,0,0,0,0,0,0,-1,1000,1324,0,0
-217,-300,0,0,0,0,0,0,0,0,0,-1,1007,1324,0,0
-210,-300,0,0,0,0,0,0,0,0,0,-1,1014,1324,0,0
-203,-300,0,0,0,0,0,0,0,0,0,-1,1021,1324,0,0
-196,-300,0,0,0,0,0,0,0,0,0,-1,1028,1324,0,0
-189,-300,0,0,0,0,0,0,0,0,0,-1,1035,1324,0,0
-182,-300,0,0,0,0,0,0,0,0,0,-1,1042,1324,0,0
-175,-300,0,0,0,0,0,0,0,0,0,-1,1049,1324,0,0
-168,-300,0,0,0,0,0,0,0,0,0,-1,1056,1324,0,0
-161,-300,0,0,0,0,0,0,0,0,0,-1,1063,1324,0,0
-154,-300,0,0,0,0,0,0,0,0,0,-1,1070,1324,0,0
-147,-300,0,0,0,0,0,0,0,0,0,-1,1077,1324,0,0
-140,-300,0,0,0,0,0,0,0,0,0,-1,1084,1324,0,0
-133,-300,0,0,0,0,0,0,0,0,0,-1,1091,1324,0,0
-126,-300,0,0,0,0,0,0,0,0,0,-1,1098,1324,0,0
-119,-300,0,0,0,0,0,0,0,0,0,-1,1105,1324,0,0
-112,-300,0,0,0,0,0,0,0,0,0,-1,1112,1324,0,0
-105,-300,0,0,0,0,0,0,0,0,0,-1,1119,1324,0,0
-98,-300,0,0,0,0,0,0,0,0,0,-1,1126,1324,0,0
-91,-300,0,0,0,0,0,0,0,0,0,-1,1133,1324,0,0
-84,-300,0,0,0,0,0,0,0,0,0,-1,1140,1324,0,0
-77,-300,0,0,0,0,0,0,0,0,0,-1,1147,1324,0,0
-70,-300,0,0,0,0,0,0,0,0,0,-1,1154,1324,0,0
-63,-300,0,0,0,0,0,0,0,0,0,-1,1161,1324,0,0
-56,-300,0,0,0,0,0,0,0,0,0,-1,1168,1324,0,0
-49,-300,0,0,0,0,0,0,0,0,0,-1,1175,1324,0,0
-42,-300,0,0,0,0,0,0,0,0,0,-1,1182,1324,0,0
-35,-300,0,0,0,0,0,0,0,0,0,-1,1189,1324,0,0
-28,-300,0,0,0,0,0,0,0,0,0,-1,1196,1324,0,0
-21,-300,0,0,0,0,0,0,0,0,0,-1,1203,1324,0,0
-14,-300,0,0,0,0,0,0,0,0,0,-1,1210,1324,0,0
-7,-300,0,0,0,0,0,0,0,0,0,-1,1217,1324,0,0
0,-300,0,0,0,0,0,0,0,0,0,-1,1224,1324,0,0
7,-300,0,0,0,0,0,0,0,0,0,-1,1231,1324,0,0
14,-300,0,0,0,0,0,0,0,0,0,-1,1238,1324,0,0
21,-300,0,0,0,0,0,0,0,0,0,-1,1245,1324,0,0
28,-300,0,0,0,0,0,0,0,0,0,-1,1252,1324,0,0
35,-300,0,0,0,0,0,0,0,0,0,-1,1259,1324,0,0
42,-300,0,0,0,0,0,0,0,0,0,-1,1266,1324,0,0
49,-300,0,0,0,0,0,0,0,0,0,-1,1273,1324,0,0
56,-300,0,0,0,0,0,0,0,0,0,-1,1280,1324,0,0
63,-300,0,0,0,0,0,0,0,0,0,-1,1287,1324,0,0
70,-300,0,0,0,0,0,0,0,0,0,-1,1294,1324,0,0
77,-300,0,0,0,0,0,0,0,0,0,-1,1301,1324,0,0
84,-300,0,0,0,0,0,0,0,0,0,-1,1308,1324,0,0
91,-300,0,0,0,0,0,0,0,0,0,-1,1315,1324,0,0
98,-300,0,0,0,0,0,0,0,0,0,-1,1322,1324,0,0
105,-300,0,0,0,0,0,0,0,0,0,-1,1329,1324,0,0
112,-300,0,0,0,0,0,0,0,0,0,-1,1336,1324,0,0
119,-300,0,0,0,0,0,0,0,0,0,-1,1343,1324,0,0
126,-300,0,0,0,0,0,0,0,0,0,-1,1350,1324,0,0
133,-300,0,0,0,0,0,0,0,0,0,-1,1357,1324,0,0
140,-300,0,0,0,0,0,0,0,0,0,-1,1364,1324,0,0
147,-300,0,0,0,0,0,0,0,0,0,-1,1371,1324,0,0
154,-300,0,0,0,0,0,0,0,0,0,-1,1378,1324,0,0
161,-300,0,0,0,0,0,0,0,0,0,-1,1385,1324,0,0
168,-300,0,0,0,0,0,0,0,0,0,-1,1392,1324,0,0
175,-300,0,0,0,0,0,0,0,0,0,-1,1399,1324,0,0
182,-300,0,0,0,0,0,0,0,0,0,-1,1406,1324,0,0
189,-300,0,0,0,0,0,0,0,0,0,-1,1413,1324,0,0
196,-300,0,0,0,0,0,0,0,0,0,-1,1420,1324,0,0
203,-300,0,0,0,0,0,0,0,0,0,-1,1427,1324,0,0
210,-300,0,0,0,0,0,0,0,0,0,-1,1434,1324,0,0
217,-300,0,0,0,0,0,0,0,0,0,-1,1441,1324,0,0
224,-300,0,0,0,0,0,0,0,0,0,-1,1448,1324,0,0
231,-300,0,0,0,0,0,0,0,0,0,-1,1455,1324,0,0
238,-300,0,0,0,0,0,0,0,0,0,-1,1462,1324,0,0
245,-300,0,0,0,0,0,0,0,0,0,-1,1469,1324,0,0
252,-300,0,0,0,0,0,0,0,0,0,-1,1476,1324,0,0
259,-300,0,0,0,0,0,0,0,0,0,-1,1483,1324,0,0
266,-300,0,0,0,0,0,0,0,0,0,-1,1490,1324,0,0
273,-300,0,0,0,0,0,0,0,0,0,-1,1497,1324,0,0
280,-300,0,0,0,0,0,0,0,0,0,-1,1504,1324,0,0
287,-300,0,0,0,0,0,0,0,0,0,-1,1511,1324,0,0
294,-300,0,0,0,0,0,0,0,0,0,-1,1518,1324,0,0
301,-300,0,0,0,0,0,0,0,0,0,-1,1525,1324,0,0
308,-300,0,0,0,0,0,0,0,0,0,-1,1532,1324,0,0
315,-300,0,0,0,0,0,0,0,0,0,-1,1539,1324,0,0
322,-300,0,0,0,0,0,0,0,0,0,-1,1546,1324,0,0
329,-300,0,0,0,0,0,0,0,0,0,-1,1553,1324,0,0
336,-300,0,0,0,0,0,0,0,0,0,-1,1560,1324,0,0
343,-300,0,0,0,0,0,0,0,0,0,-1,1567,1324,0,0
350,-300,0,0,0,0,0,0,0,0,0,-1,1574,1324,0,0
357,-300,0,0,0,0,0,0,0,0,0,-1,1581,1324,0,0
364,-300,0,0,0,0,0,0,0,0,0,-1,1588,1324,0,0
371,-300,0,0,0,0,0,0,0,0,0,-1,1595,1324,0,0
378,-300,0,0,0,0,0,0,0,0,0,-1,1602,1324,0,0
385,-300,0,0,0,0,0,0,0,0,0,-1,1609,1324,0,0
392,-300,0,0,0,0,0,0,0,0,0,-1,1616,1324,0,0
399,-300,0,0,0,0,0,0,0,0,0,-1,1623,1324,0,0
406,-300,0,0,0,0,0,0,0,0,0,-1,1630,1324,0,0
413,-300,0,0,0,0,0,0,0,0,0,-1,1637,1324,0,0
420,-300,0,0,0,0,0,0,0,0,0,-1,1644,1324,0,0
427,-300,0,0,0,0,0,0,0,0,0,-1,1651,1324,0,0
434,-300,0,0,0,0,0,0,0,0,0,-1,1658,1324,0,0
441,-300,0,0,0,0,0,0,0,0,0,-1,1665,1324,0,0
448,-300,0,0,0,0,0,0,0,0,0,-1,1672,1324,0,0
455,-300,0,0,0,0,0,0,0,0,0,-1,1679,1324,0,0
462,-300,0,0,0,0,0,0,0,0,0,-1,1686,1324,0,0
469,-300,0,0,0,0,0,0,0,0,0,-1,1693,1324,0,0
476,-300,0,0,0,0,0,0,0,0,0,-1,1700,1324,0,0
483,-300,0,0,0,0,0,0,0,0,0,-1,1707,1324,0,0
490,-300,0,0,0,0,0,0,0,0,0,-1,1714,1324,0,0
497,-300,0,0,0,0,0,0,0,0,0,-1,1721,1324,0,0
504,-300,0,0,0,0,0,0,0,0,0,-1,1728,1324,0,0
511,-300,0,0,0,0,0,0,0,0,0,-1,1735,1324,0,0
518,-300,0,0,0,0,0,0,0,0,0,-1,1742,1324,0,0
525,-300,0,0,0,0,0,0,0,0,0,-1,1749,1324,0,0
532,-300,0,0,0,0,0,0,0,0,0,-1,1756,1324,0,0
539,-300,0,0,0,0,0,0,0,0,0,-1,1763,1324,0,0
546,-300,0,0,0,0,0,0,0,0,0,-1,1770,1324,0,0
553,-300,0,0,0,0,0,0,0,0,0,-1,1777,1324,0,0
560,-300,0,0,0,0,0,0,0,0,0,-1,1784,1324,0,0
567,-300,0,0,0,0,0,0,0,0,0,-1,1791,1324,0,0
574,-300,0,0,0,0,0,0,0,0,0,-1,1798,1324,0,0
581,-300,0,0,0,0,0,0,0,0,0,-1,1805,1324,0,0
588,-300,40.8224,2.3678,-0.0468298,0.0415878,-0.011959,0.0431768,-0.0484187,-1.4387,0.0529116,0.0471559,1812,1324,40.8224,-2.36783
595,-300,40.5903,2.14233,-0.0323232,0.0395829,-0.00782588,0.0404248,-0.033165,-1.46363,0.042556,0.0409757,1819,1324,40.5903,-2.14231
602,-300,40.4812,1.52393,-0.021793,0.0371571,-0.00484815,0.0375531,-0.022189,-1.48928,0.0348703,0.0439759,1826,1324,40.4812,-1.52391
609,-300,39.3385,2.00134,-0.0165557,0.0318337,-0.00268487,0.0319822,-0.0167042,-1.51554,0.0285667,0.0484646,1833,1324,39.3385,-2.0013
616,-300,39.1298,2.15698,-0.0130964,0.0252529,-0.00094459,0.0252762,-0.0131197,-1.54619,0.0225352,0.0480062,1840,1324,39.1297,-2.15697
623,-300,38.6362,2.41138,0,0,0,0,0,0,0,-1,1847,1324,38.6363,-2.41136
630,-300,38.3823,2.62988,0,0,0,0,0,0,0,-1,1854,1324,38.3823,-2.62985
637,-300,31.1719,4.6366,0,0,0,0,0,0,0,-1,1861,1324,31.1718,-4.63665
644,-300,22.9836,3.44934,0,0,0,0,0,0,0,-1,1868,1324,22.9836,-3.4493
651,-300,25.5004,9.11853,0,0,0,0,0,0,0,-1,1875,1324,25.5004,-9.11851
658,-300,25.4012,9.20032,0,0,0,0,0,0,0,-1,1882,1324,25.4012,-9.20036
665,-300,28.3436,10.0316,0,0,0,0,0,0,0,-1,1889,1324,28.3437,-10.0317
672,-300,28.2174,9.6886,-0.00916901,-0.00395774,1.53544e-05,-0.0039577,-0.00916906,1.56785,0.00531022,0.0180709,1896,1324,28.2173,-9.68857
679,-300,28.2295,9.2489,-0.00672764,-0.0023178,0.000113698,-0.00231487,-0.00673057,1.54504,0.00394849,0.0115753,1903,1324,28.2295,-9.24887
686,-300,28.24,8.8407,-0.00395862,-0.00112098,0.000168634,-0.00111099,-0.00396861,1.51165,0.00236409,0.0123359,1910,1324,28.2399,-8.84072
693,-300,28.2151,8.46375,-0.00175893,-2.5341e-05,0.000128952,-1.58016e-05,-0.00176847,1.49695,0.00117375,0.0106224,1917,1324,28.2151,-8.46372
700,-300,28.2057,8.07031,-0.000586067,-0.00015264,0.000247527,-4.03636e-05,-0.000698343,1.14496,0.000452708,0.0119233,1924,1324,28.2057,-8.07033
707,-300,28.2089,7.65942,-0.000363388,1.85289e-05,0.000358316,0.000233594,-0.000578453,1.03022,0.000482723,0.00917286,1931,1324,28.2088,-7.65938
714,-300,28.2012,7.29187,-0.000913044,0.000235053,0.000589464,0.000483804,-0.0011618,1.17147,0.000976596,0.0108627,1938,1324,28.2012,-7.2919
721,-300,28.2091,6.89453,-0.00163229,0.000421093,0.000845374,0.000724346,-0.00193554,1.22637,0.00158787,0.0117123,1945,1324,28.2091,-6.89452
728,-300,28.197,6.47925,-0.00254253,0.000580945,0.00106643,0.000910317,-0.0028719,1.27124,0.00227946,0.0149642,1952,1324,28.197,-6.47924
735,-300,28.2922,6.11951,0,0,0,0,0,0,0,-1,1959,1324,28.2922,-6.11953
742,-300,28.1997,5.48535,0,0,0,0,0,0,0,-1,1966,1324,28.1997,-5.48535
749,-300,27.4065,5.9718,0,0,0,0,0,0,0,-1,1973,1324,27.4065,-5.97181
756,-300,22.1423,3.45642,0,0,0,0,0,0,0,-1,1980,1324,22.1423,-3.45638
763,-300,22.6136,5.1571,0,0,0,0,0,0,0,-1,1987,1324,22.6136,-5.15706
770,-300,24.859,4.77979,0,0,0,0,0,0,0,-1,1994,1324,24.859,-4.77972
777,-300,0,0,0,0,0,0,0,0,0,-1,2001,1324,0,0
784,-300,0,0,0,0,0,0,0,0,0,-1,2008,1324,0,0
791,-300,0,0,0,0,0,0,0,0,0,-1,2015,1324,0,0
798,-300,0,0,0,0,0,0,0,0,0,-1,2022,1324,0,0
805,-300,0,0,0,0,0,0,0,0,0,-1,2029,1324,0,0
812,-300,0,0,0,0,0,0,0,0,0,-1,2036,1324,0,0
-700,-307,0,0,0,0,0,0,0,0,0,-1,524,1331,0,0
-693,-307,0,0,0,0,0,0,0,0,0,-1,531,1331,0,0
-686,-307,0,0,0,0,0,0,0,0,0,-1,538,1331,0,0
-679,-307,0,0,0,0,0,0,0,0,0,-1,545,1331,0,0
-672,-307,0,0,0,0,0,0,0,0,0,-1,552,1331,0,0
-665,-307,0,0,0,0,0,0,0,0,0,-1,559,1331,0,0
-658,-307,0,0,0,0,0,0,0,0,0,-1,566,1331,0,0
-651,-307,-20.2972,-0.0720215,0,0,0,0,0,0,0,-1,573,1331,-20.2973,0.0720287
-644,-307,-20.7615,0.556152,0,0,0,0,0,0,0,-1,580,1331,-20.7615,-0.556159
-637,-307,-21.0822,1.21277,0,0,0,0,0,0,0,-1,587,1331,-21.0821,-1.21273
-630,-307,-12.0005,0.767212,0,0,0,0,0,0,0,-1,594,1331,-12.0005,-0.767266
-623,-307,-12.2128,2.93811,0,0,0,0,0,0,0,-1,601,1331,-12.2128,-2.93813
-616,-307,-12.6612,2.08289,0,0,0,0,0,0,0,-1,608,1331,-12.6612,-2.08293
-609,-307,-12.2767,1.83228,0,0,0,0,0,0,0,-1,615,1331,-12.2768,-1.83224
-602,-307,-15.5275,3.55945,0,0,0,0,0,0,0,-1,622,1331,-15.5275,-3.55939
-595,-307,-15.5803,4.12195,-0.00243659,0.00541087,0.014577,0.016583,-0.0136087,0.916868,0.0174594,0.0379346,629,1331,-15.5803,-4.12194
-588,-307,-15.4888,4.60742,0.000537512,0.00312128,0.00630668,0.00826703,-0.00460824,0.886422,0.00753293,0.0198606,636,1331,-15.4888,-4.60737
-581,-307,-15.4821,5.02454,0.00232371,0.001558,0.00140208,0.00339427,0.000487448,0.652117,0.00211913,0.0160592,643,1331,-15.482,-5.02456
-574,-307,-15.5065,5.44666,0.00221276,0.000931168,0.00103992,0.00279346,0.000350467,0.509277,0.00175717,0.0132582,650,1331,-15.5064,-5.44663
-567,-307,-15.5248,5.90466,0.0023939,0.000462789,0.000881307,0.00273563,0.000121057,0.369906,0.00178477,0.0128769,657,1331,-15.5248,-5.90468
-560,-307,-15.5292,6.34644,0.00283957,0.000111648,0.00089237,0.00310555,-0.000154334,0.289678,0.00212368,0.0139943,664,1331,-15.5292,-6.34649
-553,-307,-15.5357,6.77979,0.00352102,-0.000123061,0.00105671,0.00380527,-0.000407315,0.262778,0.00268294,0.0109411,671,1331,-15.5357,-6.77984
-546,-307,-15.5385,7.21558,0.00448049,-0.000246126,0.00140136,0.00486474,-0.000630371,0.267616,0.00347241,0.0103842,678,1331,-15.5385,-7.21553
-539,-307,-15.5337,7.67712,0.00580574,-0.00036531,0.00192804,0.0063586,-0.000918163,0.279251,0.00457593,0.0154265,685,1331,-15.5337,-7.67711
-532,-307,-15.5257,8.14856,0,0,0,0,0,0,0,-1,692,1331,-15.5257,-8.14856
-525,-307,-13.2009,6.91309,0,0,0,0,0,0,0,-1,699,1331,-13.2009,-6.9131
-518,-307,-9.77777,-1.56653,0,0,0,0,0,0,0,-1,706,1331,-9.77777,1.56651
-511,-307,-12.5226,0.26709,0,0,0,0,0,0,0,-1,713,1331,-12.5226,-0.267038
-504,-307,-12.5913,-0.308105,0,0,0,0,0,0,0,-1,720,1331,-12.5913,0.308124
-497,-307,-13.8586,-0.115845,0,0,0,0,0,0,0,-1,727,1331,-13.8587,0.115861
-490,-307,-17.9429,0.982178,0,0,0,0,0,0,0,-1,734,1331,-17.9429,-0.982198
-483,-307,-18.1066,0.927612,0,0,0,0,0,0,0,-1,741,1331,-18.1066,-0.927609
-476,-307,-18.1288,1.1228,0,0,0,0,0,0,0,-1,748,1331,-18.1289,-1.12286
-469,-307,-18.2028,0.798584,0,0,0,0,0,0,0,-1,755,1331,-18.2027,-0.798546
-462,-307,0,0,0,0,0,0,0,0,0,-1,762,1331,0,0
-455,-307,0,0,0,0,0,0,0,0,0,-1,769,1331,0,0
-448,-307,0,0,0,0,0,0,0,0,0,-1,776,1331,0,0
-441,-307,0,0,0,0,0,0,0,0,0,-1,783,1331,0,0
-434,-307,0,0,0,0,0,0,0,0,0,-1,790,1331,0,0
-427,-307,0,0,0,0,0,0,0,0,0,-1,797,1331,0,0
-420,-307,0,0,0,0,0,0,0,0,0,-1,804,1331,0,0
-413,-307,0,0,0,0,0,0,0,0,0,-1,811,1331,0,0
-406,-307,0,0,0,0,0,0,0,0,0,-1,818,1331,0,0
-399,-307,0,0,0,0,0,0,0,0,0,-1,825,1331,0,0
-392,-307,0,0,0,0,0,0,0,0,0,-1,832,1331,0,0
-385,-307,0,0,0,0,0,0,0,0,0,-1,839,1331,0,0
-378,-307,0,0,0,0,0,0,0,0,0,-1,846,1331,0,0
-371,-307,0,0,0,0,0,0,0,0,0,-1,853,1331,0,0
-364,-307,0,0,0,0,0,0,0,0,0,-1,860,1331,0,0
-357,-307,0,0,0,0,0,0,0,0,0,-1,867,1331,0,0
-350,-307,0,0,0,0,0,0,0,0,0,-1,874,1331,0,0
-343,-307,0,0,0,0,0,0,0,0,0,-1,881,1331,0,0
-336,-307,0,0,0,0,0,0,0,0,0,-1,888,1331,0,0
-329,-307,0,0,0,0,0,0,0,0,0,-1,895,1331,0,0
-322,-307,0,0,0,0,0,0,0,0,0,-1,902,1331,0,0
-315,-307,0,0,0,0,0,0,0,0,0,-1,909,1331,0,0
-308,-307,0,0,0,0,0,0,0,0,0,-1,916,1331,0,0
-301,-307,0,0,0,0,0,0,0,0,0,-1,923,1331,0,0
-294,-307,0,0,0,0,0,0,0,0,0,-1,930,1331,0,0
-287,-307,0,0,0,0,0,0,0,0,0,-1,937,1331,0,0
-280,-307,0,0,0,0,0,0,0,0,0,-1,944,1331,0,0
-273,-307,0,0,0,0,0,0,0,0,0,-1,951,1331,0,0
-266,-307,0,0,0,0,0,0,0,0,0,-1,958,1331,0,0
-259,-307,0,0,0,0,0,0,0,0,0,-1,965,1331,0,0
-252,-307,0,0,0,0,0,0,0,0,0,-1,972,1331,0,0
-245,-307,0,0,0,0,0,0,0,0,0,-1,979,1331,0,0
-238,-307,0,0,0,0,0,0,0,0,0,-1,986,1331,0,0
-231,-307,0,0,0,0,0,0,0,0,0,-1,993,1331,0,0
-224,-307,0,0,0,0,0,0,0,0,0,-1,1000,1331,0,0
-217,-307,0,0,0,0,0,0,0,0,0,-1,1007,1331,0,0
-210,-307,0,0,0,0,0,0,0,0,0,-1,1014,1331,0,0
-203,-307,0,0,0,0,0,0,0,0,0,-1,1021,1331,0,0
-196,-307,0,0,0,0,0,0,0,0,0,-1,1028,1331,0,0
-189,-307,0,0,0,0,0,0,0,0,0,-1,1035,1331,0,0
-182,-307,0,0,0,0,0,0,0,0,0,-1,1042,1331,0,0
-175,-307,0,0,0,0,0,0,0,0,0,-1,1049,1331,0,0
-168,-307,0,0,0,0,0,0,0,0,0,-1,1056,1331,0,0
-161,-307,0,0,0,0,0,0,0,0,0,-1,1063,1331,0,0
-154,-307,0,0,0,0,0,0,0,0,0,-1,1070,1331,0,0
-147,-307,0,0,0,0,0,0,0,0,0,-1,1077,1331,0,0
-140,-307,0,0,0,0,0,0,0,0,0,-1,1084,1331,0,0
-133,-307,0,0,0,0,0,0,0,0,0,-1,1091,1331,0,0
-126,-307,0,0,0,0,0,0,0,0,0,-1,1098,1331,0,0
-119,-307,0,0,0,0,0,0,0,0,0,-1,1105,1331,0,0
-112,-307,0,0,0,0,0,0,0,0,0,-1,1112,1331,0,0
-105,-307,0,0,0,0,0,0,0,0,0,-1,1119,1331,0,0
-98,-307,0,0,0,0,0,0,0,0,0,-1,1126,1331,0,0
-91,-307,0,0,0,0,0,0,0,0,0,-1,1133,1331,0,0
-84,-307,0,0,0,0,0,0,0,0,0,-1,1140,1331,0,0
-77,-307,0,0,0,0,0,0,0,0,0,-1,1147,1331,0,0
-70,-307,0,0,0,0,0,0,0,0,0,-1,1154,1331,0,0
-63,-307,0,0,0,0,0,0,0,0,0,-1,1161,1331,0,0
-56,-307,0,0,0,0,0,0,0,0,0,-1,1168,1331,0,0
-49,-307,0,0,0,0,0,0,0,0,0,-1,1175,1331,0,0
-42,-307,0,0,0,0,0,0,0,0,0,-1,1182,1331,0,0
-35,-307,0,0,0,0,0,0,0,0,0,-1,1189,1331,0,0
-28,-307,0,0,0,0,0,0,0,0,0,-1,1196,1331,0,0
-21,-307,0,0,0,0,0,0,0,0,0,-1,1203,1331,0,0
-14,-307,0,0,0,0,0,0,0,0,0,-1,1210,1331,0,0
-7,-307,0,0,0,0,0,0,0,0,0,-1,1217,1331,0,0
0,-307,0,0,0,0,0,0,0,0,0,-1,1224,1331,0,0
7,-307,0,0,0,0,0,0,0,0,0,-1,1231,1331,0,0
14,-307,0,0,0,0,0,0,0,0,0,-1,1238,1331,0,0
21,-307,0,0,0,0,0,0,0,0,0,-1,1245,1331,0,0
28,-307,0,0,0,0,0,0,0,0,0,-1,1252,1331,0,0
35,-307,0,0,0,0,0,0,0,0,0,-1,1259,1331,0,0
42,-307,0,0,0,0,0,0,0,0,0,-1,1266,1331,0,0
49,-307,0,0,0,0,0,0,0,0,0,-1,1273,1331,0,0
56,-307,0,0,0,0,0,0,0,0,0,-1,1280,1331,0,0
63,-307,0,0,0,0,0,0,0,0,0,-1,1287,1331,0,0
70,-307,0,0,0,0,0,0,0,0,0,-1,1294,1331,0,0
77,-307,0,0,0,0,0,0,0,0,0,-1,1301,1331,0,0
84,-307,0,0,0,0,0,0,0,0,0,-1,1308,1331,0,0
91,-307,0,0,0,0,0,0,0,0,0,-1,1315,1331,0,0
98,-307,0,0,0,0,0,0,0,0,0,-1,1322,1331,0,0
105,-307,0,0,0,0,0,0,0,0,0,-1,1329,1331,0,0
112,-307,0,0,0,0,0,0,0,0,0,-1,1336,1331,0,0
119,-307,0,0,0,0,0,0,0,0,0,-1,1343,1331,0,0
126,-307,0,0,0,0,0,0,0,0,0,-1,1350,1331,0,0
133,-307,0,0,0,0,0,0,0,0,0,-1,1357,1331,0,0
140,-307,0,0,0,0,0,0,0,0,0,-1,1364,1331,0,0
147,-307,0,0,0,0,0,0,0,0,0,-1,1371,1331,0,0
154,-307,0,0,0,0,0,0,0,0,0,-1,1378,1331,0,0
161,-307,0,0,0,0,0,0,0,0,0,-1,1385,1331,0,0
168,-307,0,0,0,0,0,0,0,0,0,-1,1392,1331,0,0
175,-307,0,0,0,0,0,0,0,0,0,-1,1399,1331,0,0
182,-307,0,0,0,0,0,0,0,0,0,-1,1406,1331,0,0
189,-307,0,0,0,0,0,0,0,0,0,-1,1413,1331,0,0
196,-307,0,0,0,0,0,0,0,0,0,-1,1420,1331,0,0
203,-307,0,0,0,0,0,0,0,0,0,-1,1427,1331,0,0
210,-307,0,0,0,0,0,0,0,0,0,-1,1434,1331,0,0
217,-307,0,0,0,0,0,0,0,0,0,-1,1441,1331,0,0
224,-307,0,0,0,0,0,0,0,0,0,-1,1448,1331,0,0
231,-307,0,0,0,0,0,0,0,0,0,-1,1455,1331,0,0
238,-307,0,0,0,0,0,0,0,0,0,-1,1462,1331,0,0
245,-307,0,0,0,0,0,0,0,0,0,-1,1469,1331,0,0
252,-307,0,0,0,0,0,0,0,0,0,-1,1476,1331,0,0
259,-307,0,0,0,0,0,0,0,0,0,-1,1483,1331,0,0
266,-307,0,0,0,0,0,0,0,0,0,-1,1490,1331,0,0
273,-307,0,0,0,0,0,0,0,0,0,-1,1497,1331,0,0
280,-307,0,0,0,0,0,0,0,0,0,-1,1504,1331,0,0
287,-307,0,0,0,0,0,0,0,0,0,-1,1511,1331,0,0
294,-307,0,0,0,0,0,0,0,0,0,-1,1518,1331,0,0
301,-307,0,0,0,0,0,0,0,0,0,-1,1525,1331,0,0
308,-307,0,0,0,0,0,0,0,0,0,-1,1532,1331,0,0
315,-307,0,0,0,0,0,0,0,0,0,-1,1539,1331,0,0
322,-307,0,0,0,0,0,0,0,0,0,-1,1546,1331,0,0
329,-307,0,0,0,0,0,0,0,0,0,-1,1553,1331,0,0
336,-307,0,0,0,0,0,0,0,0,0,-1,1560,1331,0,0
343,-307,0,0,0,0,0,0,0,0,0,-1,1567,1331,0,0
350,-307,0,0,0,0,0,0,0,0,0,-1,1574,1331,0,0
357,-307,0,0,0,0,0,0,0,0,0,-1,1581,1331,0,0
364,-307,0,0,0,0,0,0,0,0,0,-1,1588,1331,0,0
371,-307,0,0,0,0,0,0,0,0,0,-1,1595,1331,0,0
378,-307,0,0,0,0,0,0,0,0,0,-1,1602,1331,0,0
385,-307,0,0,0,0,0,0,0,0,0,-1,1609,1331,0,0
392,-307,0,0,0,0,0,0,0,0,0,-1,1616,1331,0,0
399,-307,0,0,0,0,0,0,0,0,0,-1,1623,1331,0,0
406,-307,0,0,0,0,0,0,0,0,0,-1,1630,1331,0,0
413,-307,0,0,0,0,0,0,0,0,0,-1,1637,1331,0,0
420,-307,0,0,0,0,0,0,0,0,0,-1,1644,1331,0,0
427,-307,0,0,0,0,0,0,0,0,0,-1,1651,1331,0,0
434,-307,0,0,0,0,0,0,0,0,0,-1,1658,1331,0,0
441,-307,0,0,0,0,0,0,0,0,0,-1,1665,1331,0,0
448,-307,0,0,0,0,0,0,0,0,0,-1,1672,1331,0,0
455,-307,0,0,0,0,0,0,0,0,0,-1,1679,1331,0,0
462,-307,0,0,0,0,0,0,0,0,0,-1,1686,1331,0,0
469,-307,0,0,0,0,0,0,0,0,0,-1,1693,1331,0,0
476,-307,0,0,0,0,0,0,0,0,0,-1,1700,1331,0,0
483,-307,0,0,0,0,0,0,0,0,0,-1,1707,1331,0,0
490,-307,0,0,0,0,0,0,0,0,0,-1,1714,1331,0,0
497,-307,0,0,0,0,0,0,0,0,0,-1,1721,1331,0,0
504,-307,0,0,0,0,0,0,0,0,0,-1,1728,1331,0,0
511,-307,0,0,0,0,0,0,0,0,0,-1,1735,1331,0,0
518,-307,0,0,0,0,0,0,0,0,0,-1,1742,1331,0,0
525,-307,0,0,0,0,0,0,0,0,0,-1,1749,1331,0,0
532,-307,0,0,0,0,0,0,0,0,0,-1,1756,1331,0,0
539,-307,0,0,0,0,0,0,0,0,0,-1,1763,1331,0,0
546,-307,0,0,0,0,0,0,0,0,0,-1,1770,1331,0,0
553,-307,0,0,0,0,0,0,0,0,0,-1,1777,1331,0,0
560,-307,0,0,0,0,0,0,0,0,0,-1,1784,1331,0,0
567,-307,0,0,0,0,0,0,0,0,0,-1,1791,1331,0,0
574,-307,0,0,0,0,0,0,0,0,0,-1,1798,1331,0,0
581,-307,0,0,0,0,0,0,0,0,0,-1,1805,1331,0,0
588,-307,40.6517,2.21411,-0.0495995,0.0468586,-0.0148691,0.0490987,-0.0518395,-1.42127,0.0582839,0.0443133,1812,1331,40.6517,-2.21406
595,-307,40.3496,1.86816,-0.0362391,0.0470693,-0.0115683,0.0486459,-0.0378157,-1.43535,0.050049,0.0436047,1819,1331,40.3496,-1.8682
602,-307,40.2932,1.31128,-0.0258815,0.0438154,-0.00849287,0.0448353,-0.0269014,-1.45127,0.0418464,0.0464748,1826,1331,40.2932,-1.31123
609,-307,40.3746,0.767578,-0.0192239,0.0367224,-0.00565274,0.0372879,-0.0197894,-1.4711,0.0334658,0.0486292,1833,1331,40.3746,-0.767543
616,-307,38.8657,2.00244,0,0,0,0,0,0,0,-1,1840,1331,38.8657,-2.0025
623,-307,38.4091,2.41028,0,0,0,0,0,0,0,-1,1847,1331,38.409,-2.41032
630,-307,29.8116,1.51184,0,0,0,0,0,0,0,-1,1854,1331,29.8116,-1.51188
637,-307,24.6407,4.09106,0,0,0,0,0,0,0,-1,1861,1331,24.6407,-4.09103
644,-307,22.6885,5.80408,0,0,0,0,0,0,0,-1,1868,1331,22.6884,-5.80408
651,-307,17.5013,5.80078,0,0,0,0,0,0,0,-1,1875,1331,17.5014,-5.80072
658,-307,28.1666,10.4756,0,0,0,0,0,0,0,-1,1882,1331,28.1666,-10.4756
665,-307,27.9277,10.0284,-0.0014066,-0.00409826,0.00311955,0.000645042,-0.00614991,0.581751,0.00433099,0.0362519,1889,1331,27.9277,-10.0285
672,-307,27.8461,9.68567,-0.0056532,-0.00437022,0.000338835,-0.00428624,-0.00573719,1.32782,0.00344456,0.0126184,1896,1331,27.8461,-9.68562
679,-307,27.825,9.28821,-0.00366825,-0.00257844,0.000307409,-0.00249771,-0.00374899,1.31398,0.00220399,0.010085,1903,1331,27.8249,-9.28825
686,-307,27.8215,8.87964,-0.00181541,-0.00130745,0.000262083,-0.00119647,-0.00192639,1.17025,0.00112302,0.00985102,1910,1331,27.8215,-8.87964
693,-307,27.826,8.48779,-0.00061366,-0.000356506,0.000193372,-0.000252865,-0.0007173,1.07879,0.000420095,0.0119351,1917,1331,27.8261,-8.48779
700,-307,27.8354,8.05798,-0.000179164,-0.00018309,0.000251046,6.99269e-05,-0.000432181,0.781488,0.000314036,0.0132968,1924,1331,27.8354,-8.05793
707,-307,27.8293,7.64612,-0.000296684,7.1151e-05,0.000385304,0.000314182,-0.000539715,1.00807,0.000498697,0.0146037,1931,1331,27.8293,-7.64616
714,-307,27.7999,7.30823,-0.000934043,0.000270155,0.000646563,0.000551553,-0.00121544,1.1603,0.0010439,0.013422,1938,1331,27.7999,-7.30826
721,-307,27.8235,6.92932,-0.00165432,0.000457034,0.000934175,0.000811016,-0.0020083,1.20859,0.00167595,0.0163684,1945,1331,27.8235,-6.92936
728,-307,27.7809,6.65405,-0.00258739,0.000595385,0.0012012,0.000997834,-0.00298984,1.24751,0.00239613,0.0397238,1952,1331,27.7809,-6.65405
735,-307,27.8081,6.15076,0,0,0,0,0,0,0,-1,1959,1331,27.8082,-6.1507
742,-307,26.677,6.09192,0,0,0,0,0,0,0,-1,1966,1331,26.677,-6.0919
749,-307,26.7727,5.9032,0,0,0,0,0,0,0,-1,1973,1331,26.7727,-5.90323
756,-307,27.1556,5.74756,0,0,0,0,0,0,0,-1,1980,1331,27.1557,-5.7475
763,-307,18.7522,3.55298,0,0,0,0,0,0,0,-1,1987,1331,18.7522,-3.55301
770,-307,0,0,0,0,0,0,0,0,0,-1,1994,1331,0,0
777,-307,0,0,0,0,0,0,0,0,0,-1,2001,1331,0,0
784,-307,0,0,0,0,0,0,0,0,0,-1,2008,1331,0,0
791,-307,0,0,0,0,0,0,0,0,0,-1,2015,1331,0,0
798,-307,0,0,0,0,0,0,0,0,0,-1,2022,1331,0,0
805,-307,0,0,0,0,0,0,0,0,0,-1,2029,1331,0,0
812,-307,0,0,0,0,0,0,0,0,0,-1,2036,1331,0,0
-700,-314,0,0,0,0,0,0,0,0,0,-1,524,1338,0,0
-693,-314,0,0,0,0,0,0,0,0,0,-1,531,1338,0,0
-686,-314,0,0,0,0,0,0,0,0,0,-1,538,1338,0,0
-679,-314,0,0,0,0,0,0,0,0,0,-1,545,1338,0,0
-672,-314,0,0,0,0,0,0,0,0,0,-1,552,1338,0,0
-665,-314,0,0,0,0,0,0,0,0,0,-1,559,1338,0,0
-658,-314,0,0,0,0,0,0,0,0,0,-1,566,1338,0,0
-651,-314,0,0,0,0,0,0,0,0,0,-1,573,1338,0,0
-644,-314,-20.9896,-0.0299072,0,0,0,0,0,0,0,-1,580,1338,-20.9896,0.0299587
-637,-314,-18.8677,6.62646,0,0,0,0,0,0,0,-1,587,1338,-18.8677,-6.62651
-630,-314,-13.2771,2.98938,0,0,0,0,0,0,0,-1,594,1338,-13.2771,-2.98943
-623,-314,-13.3542,3.00903,0,0,0,0,0,0,0,-1,601,1338,-13.3542,-3.00907
-616,-314,-9.93311,1.15088,0,0,0,0,0,0,0,-1,608,1338,-9.93308,-1.15093
-609,-314,-9.4361,2.86292,0,0,0,0,0,0,0,-1,615,1338,-9.43612,-2.86286
-602,-314,-11.8027,2.42798,0,0,0,0,0,0,0,-1,622,1338,-11.8027,-2.42802
-595,-314,-15.1046,3.85242,0,0,0,0,0,0,0,-1,629,1338,-15.1046,-3.85244
-588,-314,-15.0827,4.56311,-2.94271e-05,0.00316875,0.00632509,0.00809376,-0.00495444,0.909212,0.00760572,0.0272159,636,1338,-15.0827,-4.5631
-581,-314,-15.0248,5.00964,0.00205961,0.00127481,0.00111131,0.00284577,0.000488655,0.615682,0.00175709,0.0126302,643,1338,-15.0248,-5.00966
-574,-314,-15.0665,5.43091,0.00191247,0.000742651,0.000789281,0.00230995,0.000345175,0.466519,0.00143878,0.0123622,650,1338,-15.0665,-5.43087
-567,-314,-15.0766,5.90894,0.00206992,0.000368984,0.000677997,0.0023071,0.000131805,0.336517,0.00149607,0.0141937,657,1338,-15.0766,-5.90898
-560,-314,-15.0693,6.35986,0.00250646,0.000102759,0.000749119,0.00272081,-0.000111591,0.27869,0.00185219,0.0147134,664,1338,-15.0693,-6.35989
-553,-314,-15.0808,6.78918,0.00315507,-8.3506e-05,0.000952041,0.00341421,-0.000342641,0.265751,0.00239853,0.0167477,671,1338,-15.0808,-6.78924
-546,-314,-15.1066,7.2384,0.00409123,-0.000191416,0.00133699,0.00447435,-0.000574537,0.279076,0.00319169,0.0171287,678,1338,-15.1066,-7.23843
-539,-314,-15.1075,7.69226,0.0053456,-0.000270677,0.0018902,0.0059225,-0.000847577,0.296227,0.00425906,0.0169564,685,1338,-15.1075,-7.69226
-532,-314,-15.0756,8.10474,0,0,0,0,0,0,0,-1,692,1338,-15.0756,-8.10469
-525,-314,-13.3017,7.50671,0,0,0,0,0,0,0,-1,699,1338,-13.3017,-7.50669
-518,-314,-8.52753,4.70032,0,0,0,0,0,0,0,-1,706,1338,-8.52755,-4.70034
-511,-314,-11.8597,0.384888,0,0,0,0,0,0,0,-1,713,1338,-11.8597,-0.384927
-504,-314,-11.4322,-0.187378,0,0,0,0,0,0,0,-1,720,1338,-11.4322,0.187381
-497,-314,-11.0047,-0.759644,0,0,0,0,0,0,0,-1,727,1338,-11.0047,0.759689
-490,-314,-18.5143,0.471069,0,0,0,0,0,0,0,-1,734,1338,-18.5143,-0.47103
-483,-314,-17.8528,0.577271,0,0,0,0,0,0,0,-1,741,1338,-17.8528,-0.577327
-476,-314,-17.714,0.665405,0,0,0,0,0,0,0,-1,748,1338,-17.714,-0.665388
-469,-314,-17.7246,0.794678,0,0,0,0,0,0,0,-1,755,1338,-17.7246,-0.794645
-462,-314,0,0,0,0,0,0,0,0,0,-1,762,1338,0,0
-455,-314,0,0,0,0,0,0,0,0,0,-1,769,1338,0,0
-448,-314,0,0,0,0,0,0,0,0,0,-1,776,1338,0,0
-441,-314,0,0,0,0,0,0,0,0,0,-1,783,1338,0,0
-434,-314,0,0,0,0,0,0,0,0,0,-1,790,1338,0,0
-427,-314,0,0,0,0,0,0,0,0,0,-1,797,1338,0,0
-420,-314,0,0,0,0,0,0,0,0,0,-1,804,1338,0,0
-413,-314,0,0,0,0,0,0,0,0,0,-1,811,1338,0,0
-406,-314,0,0,0,0,0,0,0,0,0,-1,818,1338,0,0
-399,-314,0,0,0,0,0,0,0,0,0,-1,825,1338,0,0
-392,-314,0,0,0,0,0,0,0,0,0,-1,832,1338,0,0
-385,-314,0,0,0,0,0,0,0,0,0,-1,839,1338,0,0
-378,-314,0,0,0,0,0,0,0,0,0,-1,846,1338,0,0
-371,-314,0,0,0,0,0,0,0,0,0,-1,853,1338,0,0
-364,-314,0,0,0,0,0,0,0,0,0,-1,860,1338,0,0
-357,-314,0,0,0,0,0,0,0,0,0,-1,867,1338,0,0
-350,-314,0,0,0,0,0,0,0,0,0,-1,874,1338,0,0
-343,-314,0,0,0,0,0,0,0,0,0,-1,881,1338,0,0
-336,-314,0,0,0,0,0,0,0,0,0,-1,888,1338,0,0
-329,-314,0,0,0,0,0,0,0,0,0,-1,895,1338,0,0
-322,-314,0,0,0,0,0,0,0,0,0,-1,902,1338,0,0
-315,-314,0,0,0,0,0,0,0,0,0,-1,909,1338,0,0
-308,-314,0,0,0,0,0,0,0,0,0,-1,916,1338,0,0
-301,-314,0,0,0,0,0,0,0,0,0,-1,923,1338,0,0
-294,-314,0,0,0,0,0,0,0,0,0,-1,930,1338,0,0
-287,-314,0,0,0,0,0,0,0,0,0,-1,937,1338,0,0
-280,-314,0,0,0,0,0,0,0,0,0,-1,944,1338,0,0
-273,-314,0,0,0,0,0,0,0,0,0,-1,951,1338,0,0
-266,-314,0,0,0,0,0,0,0,0,0,-1,958,1338,0,0
-259,-314,0,0,0,0,0,0,0,0,0,-1,965,1338,0,0
-252,-314,0,0,0,0,0,0,0,0,0,-1,972,1338,0,0
-245,-314,0,0,0,0,0,0,0,0,0,-1,979,1338,0,0
-238,-314,0,0,0,0,0,0,0,0,0,-1,986,1338,0,0
-231,-314,0,0,0,0,0,0,0,0,0,-1,993,1338,0,0
-224,-314,0,0,0,0,0,0,0,0,0,-1,1000,1338,0,0
-217,-314,0,0,0,0,0,0,0,0,0,-1,1007,1338,0,0
-210,-314,0,0,0,0,0,0,0,0,0,-1,1014,1338,0,0
-203,-314,0,0,0,0,0,0,0,0,0,-1,1021,1338,0,0
-196,-314,0,0,0,0,0,0,0,0,0,-1,1028,1338,0,0
-189,-314,0,0,0,0,0,0,0,0,0,-1,1035,1338,0,0
-182,-314,0,0,0,0,0,0,0,0,0,-1,1042,1338,0,0
-175,-314,0,0,0,0,0,0,0,0,0,-1,1049,1338,0,0
-168,-314,0,0,0,0,0,0,0,0,0,-1,1056,1338,0,0
-161,-314,0,0,0,0,0,0,0,0,0,-1,1063,1338,0,0
-154,-314,0,0,0,0,0,0,0,0,0,-1,1070,1338,0,0
-147,-314,0,0,0,0,0,0,0,0,0,-1,1077,1338,0,0
-140,-314,0,0,0,0,0,0,0,0,0,-1,1084,1338,0,0
-133,-314,0,0,0,0,0,0,0,0,0,-1,1091,1338,0,0
-126,-314,0,0,0,0,0,0,0,0,0,-1,1098,1338,0,0
-119,-314,0,0,0,0,0,0,0,0,0,-1,1105,1338,0,0
-112,-314,0,0,0,0,0,0,0,0,0,-1,1112,1338,0,0
-105,-314,0,0,0,0,0,0,0,0,0,-1,1119,1338,0,0
-98,-314,0,0,0,0,0,0,0,0,0,-1,1126,1338,0,0
-91,-314,0,0,0,0,0,0,0,0,0,-1,1133,1338,0,0
-84,-314,0,0,0,0,0,0,0,0,0,-1,1140,1338,0,0
-77,-314,0,0,0,0,0,0,0,0,0,-1,1147,1338,0,0
-70,-314,0,0,0,0,0,0,0,0,0,-1,1154,1338,0,0
-63,-314,0,0,0,0,0,0,0,0,0,-1,1161,1338,0,0
-56,-314,0,0,0,0,0,0,0,0,0,-1,1168,1338,0,0
-49,-314,0,0,0,0,0,0,0,0,0,-1,1175,1338,0,0
-42,-314,0,0,0,0,0,0,0,0,0,-1,1182,1338,0,0
-35,-314,0,0,0,0,0,0,0,0,0,-1,1189,1338,0,0
-28,-314,0,0,0,0,0,0,0,0,0,-1,1196,1338,0,0
-21,-314,0,0,0,0,0,0,0,0,0,-1,1203,1338,0,0
-14,-314,0,0,0,0,0,0,0,0,0,-1,1210,1338,0,0
-7,-314,0,0,0,0,0,0,0,0,0,-1,1217,1338,0,0
0,-314,0,0,0,0,0,0,0,0,0,-1,1224,1338,0,0
7,-314,0,0,0,0,0,0,0,0,0,-1,1231,1338,0,0
14,-314,0,0,0,0,0,0,0,0,0,-1,1238,1338,0,0
21,-314,0,0,0,0,0,0,0,0,0,-1,1245,1338,0,0
28,-314,0,0,0,0,0,0,0,0,0,-1,1252,1338,0,0
35,-314,0,0,0,0,0,0,0,0,0,-1,1259,1338,0,0
42,-314,0,0,0,0,0,0,0,0,0,-1,1266,1338,0,0
49,-314,0,0,0,0,0,0,0,0,0,-1,1273,1338,0,0
56,-314,0,0,0,0,0,0,0,0,0,-1,1280,1338,0,0
63,-314,0,0,0,0,0,0,0,0,0,-1,1287,1338,0,0
70,-314,0,0,0,0,0,0,0,0,0,-1,1294,1338,0,0
77,-314,0,0,0,0,0,0,0,0,0,-1,1301,1338,0,0
84,-314,0,0,0,0,0,0,0,0,0,-1,1308,1338,0,0
91,-314,0,0,0,0,0,0,0,0,0,-1,1315,1338,0,0
98,-314,0,0,0,0,0,0,0,0,0,-1,1322,1338,0,0
105,-314,0,0,0,0,0,0,0,0,0,-1,1329,1338,0,0
112,-314,0,0,0,0,0,0,0,0,0,-1,1336,1338,0,0
119,-314,0,0,0,0,0,0,0,0,0,-1,1343,1338,0,0
126,-314,0,0,0,0,0,0,0,0,0,-1,1350,1338,0,0
133,-314,0,0,0,0,0,0,0,0,0,-1,1357,1338,0,0
140,-314,0,0,0,0,0,0,0,0,0,-1,1364,1338,0,0
147,-314,0,0,0,0,0,0,0,0,0,-1,1371,1338,0,0
154,-314,0,0,0,0,0,0,0,0,0,-1,1378,1338,0,0
161,-314,0,0,0,0,0,0,0,0,0,-1,1385,1338,0,0
168,-314,0,0,0,0,0,0,0,0,0,-1,1392,1338,0,0
175,-314,0,0,0,0,0,0,0,0,0,-1,1399,1338,0,0
182,-314,0,0,0,0,0,0,0,0,0,-1,1406,1338,0,0
189,-314,0,0,0,0,0,0,0,0,0,-1,1413,1338,0,0
196,-314,0,0,0,0,0,0,0,0,0,-1,1420,1338,0,0
203,-314,0,0,0,0,0,0,0,0,0,-1,1427,1338,0,0
210,-314,0,0,0,0,0,0,0,0,0,-1,1434,1338,0,0
217,-314,0,0,0,0,0,0,0,0,0,-1,1441,1338,0,0
224,-314,0,0,0,0,0,0,0,0,0,-1,1448,1338,0,0
231,-314,0,0,0,0,0,0,0,0,0,-1,1455,1338,0,0
238,-314,0,0,0,0,0,0,0,0,0,-1,1462,1338,0,0
245,-314,0,0,0,0,0,0,0,0,0,-1,1469,1338,0,0
252,-314,0,0,0,0,0,0,0,0,0,-1,1476,1338,0,0
259,-314,0,0,0,0,0,0,0,0,0,-1,1483,1338,0,0
266,-314,0,0,0,0,0,0,0,0,0,-1,1490,1338,0,0
273,-314,0,0,0,0,0,0,0,0,0,-1,1497,1338,0,0
280,-314,0,0,0,0,0,0,0,0,0,-1,1504,1338,0,0
287,-314,0,0,0,0,0,0,0,0,0,-1,1511,1338,0,0
294,-314,0,0,0,0,0,0,0,0,0,-1,1518,1338,0,0
301,-314,0,0,0,0,0,0,0,0,0,-1,1525,1338,0,0
308,-314,0,0,0,0,0,0,0,0,0,-1,1532,1338,0,0
315,-314,0,0,0,0,0,0,0,0,0,-1,1539,1338,0,0
322,-314,0,0,0,0,0,0,0,0,0,-1,1546,1338,0,0
329,-314,0,0,0,0,0,0,0,0,0,-1,1553,1338,0,0
336,-314,0,0,0,0,0,0,0,0,0,-1,1560,1338,0,0
343,-314,0,0,0,0,0,0,0,0,0,-1,1567,1338,0,0
350,-314,0,0,0,0,0,0,0,0,0,-1,1574,1338,0,0
357,-314,0,0,0,0,0,0,0,0,0,-1,1581,1338,0,0
364,-314,0,0,0,0,0,0,0,0,0,-1,1588,1338,0,0
371,-314,0,0,0,0,0,0,0,0,0,-1,1595,1338,0,0
378,-314,0,0,0,0,0,0,0,0,0,-1,1602,1338,0,0
385,-314,0,0,0,0,0,0,0,0,0,-1,1609,1338,0,0
392,-314,0,0,0,0,0,0,0,0,0,-1,1616,1338,0,0
399,-314,0,0,0,0,0,0,0,0,0,-1,1623,1338,0,0
406,-314,0,0,0,0,0,0,0,0,0,-1,1630,1338,0,0
413,-314,0,0,0,0,0,0,0,0,0,-1,1637,1338,0,0
420,-314,0,0,0,0,0,0,0,0,0,-1,1644,1338,0,0
427,-314,0,0,0,0,0,0,0,0,0,-1,1651,1338,0,0
434,-314,0,0,0,0,0,0,0,0,0,-1,1658,1338,0,0
441,-314,0,0,0,0,0,0,0,0,0,-1,1665,1338,0,0
448,-314,0,0,0,0,0,0,0,0,0,-1,1672,1338,0,0
455,-314,0,0,0,0,0,0,0,0,0,-1,1679,1338,0,0
462,-314,0,0,0,0,0,0,0,0,0,-1,1686,1338,0,0
469,-314,0,0,0,0,0,0,0,0,0,-1,1693,1338,0,0
476,-314,0,0,0,0,0,0,0,0,0,-1,1700,1338,0,0
483,-314,0,0,0,0,0,0,0,0,0,-1,1707,1338,0,0
490,-314,0,0,0,0,0,0,0,0,0,-1,1714,1338,0,0
497,-314,0,0,0,0,0,0,0,0,0,-1,1721,1338,0,0
504,-314,0,0,0,0,0,0,0,0,0,-1,1728,1338,0,0
511,-314,0,0,0,0,0,0,0,0,0,-1,1735,1338,0,0
518,-314,0,0,0,0,0,0,0,0,0,-1,1742,1338,0,0
525,-314,0,0,0,0,0,0,0,0,0,-1,1749,1338,0,0
532,-314,0,0,0,0,0,0,0,0,0,-1,1756,1338,0,0
539,-314,0,0,0,0,0,0,0,0,0,-1,1763,1338,0,0
546,-314,0,0,0,0,0,0,0,0,0,-1,1770,1338,0,0
553,-314,0,0,0,0,0,0,0,0,0,-1,1777,1338,0,0
560,-314,0,0,0,0,0,0,0,0,0,-1,1784,1338,0,0
567,-314,0,0,0,0,0,0,0,0,0,-1,1791,1338,0,0
574,-314,0,0,0,0,0,0,0,0,0,-1,1798,1338,0,0
581,-314,40.218,2.34143,0,0,0,0,0,0,0,-1,1805,1338,40.218,-2.34137
588,-314,40.2211,2.13684,0,0,0,0,0,0,0,-1,1812,1338,40.2211,-2.13684
595,-314,40.207,1.56787,0,0,0,0,0,0,0,-1,1819,1338,40.207,-1.56786
602,-314,40.1565,1.04077,-0.0326606,0.047669,-0.0152295,0.0504593,-0.035451,-1.38958,0.049852,0.0466265,1826,1338,40.1565,-1.0408
609,-314,40.0269,0.596313,-0.0249902,0.0402948,-0.0105587,0.04196,-0.0266554,-1.41437,0.0399422,0.0457752,1833,1338,40.0269,-0.596337
616,-314,39.9384,0.382202,0,0,0,0,0,0,0,-1,1840,1338,39.9384,-0.38221
623,-314,39.8741,4.66443,0,0,0,0,0,0,0,-1,1847,1338,39.8742,-4.66443
630,-314,29.4308,6.23206,0,0,0,0,0,0,0,-1,1854,1338,29.4308,-6.23202
637,-314,22.1349,5.16418,0,0,0,0,0,0,0,-1,1861,1338,22.1349,-5.16414
644,-314,18.7517,6.2605,0,0,0,0,0,0,0,-1,1868,1338,18.7517,-6.26053
651,-314,23.1317,8.005,0,0,0,0,0,0,0,-1,1875,1338,23.1317,-8.00506
658,-314,27.5155,10.4811,0,0,0,0,0,0,0,-1,1882,1338,27.5155,-10.481
665,-314,27.4404,10.0917,0.00377488,-0.00262302,0.00309261,0.00502537,-0.00387351,0.384249,0.00515209,0.0245779,1889,1338,27.4404,-10.0917
672,-314,27.441,9.73474,-0.000419704,-0.00298353,0.000154963,-0.000410372,-0.00299286,0.0601503,0.00187349,0.0131494,1896,1338,27.441,-9.73473
679,-314,27.4268,9.32874,9.74372e-05,-0.00164583,3.13684e-05,9.80014e-05,-0.00164639,0.0179863,0.00113168,0.010959,1903,1338,27.4268,-9.32877
686,-314,27.4141,8.88623,0.000445267,-0.000782031,-1.04397e-05,0.000445356,-0.00078212,-0.00850543,0.000717519,0.0127839,1910,1338,27.414,-8.88618
693,-314,27.4208,8.47668,0.000441452,-0.000321679,2.70115e-05,0.000442407,-0.000322634,0.0353366,0.000443497,0.0131001,1917,1338,27.4208,-8.47665
700,-314,27.4215,8.05688,0.000149593,-9.17156e-05,0.000187844,0.000252194,-0.000194317,0.499923,0.000258514,0.0140766,1924,1338,27.4215,-8.05689
707,-314,27.4219,7.65991,-0.000264842,0.00012533,0.000405537,0.000380265,-0.000519777,1.00959,0.000521717,0.0138033,1931,1338,27.4218,-7.65995
714,-314,27.3832,7.30945,-0.000822446,0.000345649,0.000657397,0.000640966,-0.00111776,1.14859,0.00102777,0.0121295,1938,1338,27.3832,-7.30948
721,-314,27.3765,6.97693,-0.00158348,0.000500984,0.00102904,0.000923392,-0.00200589,1.18128,0.00172928,0.0234338,1945,1338,27.3765,-6.97694
728,-314,27.4685,6.63794,0,0,0,0,0,0,0,-1,1952,1338,27.4685,-6.63795
735,-314,26.3665,6.21582,0,0,0,0,0,0,0,-1,1959,1338,26.3664,-6.21581
742,-314,26.2235,6.0166,0,0,0,0,0,0,0,-1,1966,1338,26.2235,-6.01662
749,-314,26.2223,5.47046,0,0,0,0,0,0,0,-1,1973,1338,26.2223,-5.47041
756,-314,24.2521,5.93408,0,0,0,0,0,0,0,-1,1980,1338,24.252,-5.93413
763,-314,19.2207,4.07239,0,0,0,0,0,0,0,-1,1987,1338,19.2206,-4.07239
770,-314,0,0,0,0,0,0,0,0,0,-1,1994,1338,0,0
777,-314,0,0,0,0,0,0,0,0,0,-1,2001,1338,0,0
784,-314,0,0,0,0,0,0,0,0,0,-1,2008,1338,0,0
791,-314,0,0,0,0,0,0,0,0,0,-1,2015,1338,0,0
798,-314,0,0,0,0,0,0,0,0,0,-1,2022,1338,0,0
805,-314,0,0,0,0,0,0,0,0,0,-1,2029,1338,0,0
812,-314,0,0,0,0,0,0,0,0,0,-1,2036,1338,0,0
-700,-321,0,0,0,0,0,0,0,0,0,-1,524,1345,0,0
-693,-321,0,0,0,0,0,0,0,0,0,-1,531,1345,0,0
-686,-321,0,0,0,0,0,0,0,0,0,-1,538,1345,0,0
-679,-321,0,0,0,0,0,0,0,0,0,-1,545,1345,0,0
-672,-321,0,0,0,0,0,0,0,0,0,-1,552,1345,0,0
-665,-321,0,0,0,0,0,0,0,0,0,-1,559,1345,0,0
-658,-321,0,0,0,0,0,0,0,0,0,-1,566,1345,0,0
-651,-321,0,0,0,0,0,0,0,0,0,-1,573,1345,0,0
-644,-321,-17.2769,5.65454,0,0,0,0,0,0,0,-1,580,1345,-17.2768,-5.65454
-637,-321,-13.3991,3.59241,0,0,0,0,0,0,0,-1,587,1345,-13.3991,-3.59236
-630,-321,-13.2958,3.65039,0,0,0,0,0,0,0,-1,594,1345,-13.2958,-3.65042
-623,-321,-13.2242,3.14148,0,0,0,0,0,0,0,-1,601,1345,-13.2243,-3.14146
-616,-321,-11.6754,3.13794,0,0,0,0,0,0,0,-1,608,1345,-11.6754,-3.13789
-609,-321,-7.95209,1.14758,0,0,0,0,0,0,0,-1,615,1345,-7.95208,-1.14757
-602,-321,-8.85791,2.50049,0,0,0,0,0,0,0,-1,622,1345,-8.85791,-2.50048
-595,-321,-15.0579,4.0697,0,0,0,0,0,0,0,-1,629,1345,-15.0578,-4.06975
-588,-321,-14.7009,4.52136,-0.000736845,0.00294666,0.00592908,0.00731345,-0.00510364,0.935988,0.00720675,0.0405315,636,1345,-14.7009,-4.52133
-581,-321,-14.6155,5.04431,0.00136535,0.000788538,0.000524413,0.00167543,0.000478456,0.533993,0.000996519,0.0131393,643,1345,-14.6155,-5.0443
-574,-321,-14.6545,5.45471,0.00123989,0.000402657,0.000300244,0.00133643,0.000306117,0.311098,0.000808468,0.0147454,650,1345,-14.6545,-5.45471
-567,-321,-14.6535,5.87634,0.00143656,0.00017427,0.000286789,0.00149866,0.000112168,0.213252,0.000963894,0.0216813,657,1345,-14.6535,-5.87632
-560,-321,-14.6167,6.35168,0.00194048,3.25939e-05,0.000462125,0.00204652,-7.34474e-05,0.22556,0.00138948,0.0243063,664,1345,-14.6167,-6.3517
-553,-321,-14.6041,6.76233,0.00266233,-6.47837e-05,0.000763515,0.00286154,-0.000263994,0.255223,0.00200151,0.0275282,671,1345,-14.6041,-6.76238
-546,-321,-14.6636,7.24451,0.00366983,-0.000115173,0.0012306,0.00403474,-0.000480092,0.288277,0.00286331,0.0275683,678,1345,-14.6636,-7.24452
-539,-321,-14.6812,7.70618,0.00496568,-0.000126232,0.00185351,0.00556891,-0.000729467,0.314643,0.00397812,0.0237508,685,1345,-14.6811,-7.70621
-532,-321,-14.5492,8.15894,0.00674319,-7.70119e-05,0.00270408,0.0076852,-0.00101902,0.335217,0.00549472,0.0291386,692,1345,-14.5492,-8.15892
-525,-321,-14.6058,8.74023,0,0,0,0,0,0,0,-1,699,1345,-14.6058,-8.74021
-518,-321,-10.3564,6.75696,0,0,0,0,0,0,0,-1,706,1345,-10.3564,-6.75694
-511,-321,-9.3302,5.29297,0,0,0,0,0,0,0,-1,713,1345,-9.33023,-5.29294
-504,-321,-10.4713,0.0145264,0,0,0,0,0,0,0,-1,720,1345,-10.4713,-0.0145296
-497,-321,-9.96771,0.313599,0,0,0,0,0,0,0,-1,727,1345,-9.96769,-0.313618
-490,-321,-10.7631,0.973511,0,0,0,0,0,0,0,-1,734,1345,-10.7631,-0.97353
-483,-321,-17.5908,0.2323,0,0,0,0,0,0,0,-1,741,1345,-17.5908,-0.232355
-476,-321,-17.2915,0.297363,0,0,0,0,0,0,0,-1,748,1345,-17.2915,-0.297342
-469,-321,-17.2441,0.478027,0,0,0,0,0,0,0,-1,755,1345,-17.2441,-0.477994
-462,-321,-17.1672,0.526489,0,0,0,0,0,0,0,-1,762,1345,-17.1672,-0.526533
-455,-321,0,0,0,0,0,0,0,0,0,-1,769,1345,0,0
-448,-321,0,0,0,0,0,0,0,0,0,-1,776,1345,0,0
-441,-321,0,0,0,0,0,0,0,0,0,-1,783,1345,0,0
-434,-321,0,0,0,0,0,0,0,0,0,-1,790,1345,0,0
-427,-321,0,0,0,0,0,0,0,0,0,-1,797,1345,0,0
-420,-321,0,0,0,0,0,0,0,0,0,-1,804,1345,0,0
-413,-321,0,0,0,0,0,0,0,0,0,-1,811,1345,0,0
-406,-321,0,0,0,0,0,0,0,0,0,-1,818,1345,0,0
-399,-321,0,0,0,0,0,0,0,0,0,-1,825,1345,0,0
-392,-321,0,0,0,0,0,0,0,0,0,-1,832,1345,0,0
-385,-321,0,0,0,0,0,0,0,0,0,-1,839,1345,0,0
-378,-321,0,0,0,0,0,0,0,0,0,-1,846,1345,0,0
-371,-321,0,0,0,0,0,0,0,0,0,-1,853,1345,0,0
-364,-321,0,0,0,0,0,0,0,0,0,-1,860,1345,0,0
-357,-321,0,0,0,0,0,0,0,0,0,-1,867,1345,0,0
-350,-321,0,0,0,0,0,0,0,0,0,-1,874,1345,0,0
-343,-321,0,0,0,0,0,0,0,0,0,-1,881,1345,0,0
-336,-321,0,0,0,0,0,0,0,0,0,-1,888,1345,0,0
-329,-321,0,0,0,0,0,0,0,0,0,-1,895,1345,0,0
-322,-321,0,0,0,0,0,0,0,0,0,-1,902,1345,0,0
-315,-321,0,0,0,0,0,0,0,0,0,-1,909,1345,0,0
-308,-321,0,0,0,0,0,0,0,0,0,-1,916,1345,0,0
-301,-321,0,0,0,0,0,0,0,0,0,-1,923,1345,0,0
-294,-321,0,0,0,0,0,0,0,0,0,-1,930,1345,0,0
-287,-321,0,0,0,0,0,0,0,0,0,-1,937,1345,0,0
-280,-321,0,0,0,0,0,0,0,0,0,-1,944,1345,0,0
-273,-321,0,0,0,0,0,0,0,0,0,-1,951,1345,0,0
-266,-321,0,0,0,0,0,0,0,0,0,-1,958,1345,0,0
-259,-321,0,0,0,0,0,0,0,0,0,-1,965,1345,0,0
-252,-321,0,0,0,0,0,0,0,0,0,-1,972,1345,0,0
-245,-321,0,0,0,0,0,0,0,0,0,-1,979,1345,0,0
-238,-321,0,0,0,0,0,0,0,0,0,-1,986,1345,0,0
-231,-321,0,0,0,0,0,0,0,0,0,-1,993,1345,0,0
-224,-321,0,0,0,0,0,0,0,0,0,-1,1000,1345,0,0
-217,-321,0,0,0,0,0,0,0,0,0,-1,1007,1345,0,0
-210,-321,0,0,0,0,0,0,0,0,0,-1,1014,1345,0,0
-203,-321,0,0,0,0,0,0,0,0,0,-1,1021,1345,0,0
-196,-321,0,0,0,0,0,0,0,0,0,-1,1028,1345,0,0
-189,-321,0,0,0,0,0,0,0,0,0,-1,1035,1345,0,0
-182,-321,0,0,0,0,0,0,0,0,0,-1,1042,1345,0,0
-175,-321,0,0,0,0,0,0,0,0,0,-1,1049,1345,0,0
-168,-321,0,0,0,0,0,0,0,0,0,-1,1056,1345,0,0
-161,-321,0,0,0,0,0,0,0,0,0,-1,1063,1345,0,0
-154,-321,0,0,0,0,0,0,0,0,0,-1,1070,1345,0,0
-147,-321,0,0,0,0,0,0,0,0,0,-1,1077,1345,0,0
-140,-321,0,0,0,0,0,0,0,0,0,-1,1084,1345,0,0
-133,-321,0,0,0,0,0,0,0,0,0,-1,1091,1345,0,0
-126,-321,0,0,0,0,0,0,0,0,0,-1,1098,1345,0,0
-119,-321,0,0,0,0,0,0,0,0,0,-1,1105,1345,0,0
-112,-321,0,0,0,0,0,0,0,0,0,-1,1112,1345,0,0
-105,-321,0,0,0,0,0,0,0,0,0,-1,1119,1345,0,0
-98,-321,0,0,0,0,0,0,0,0,0,-1,1126,1345,0,0
-91,-321,0,0,0,0,0,0,0,0,0,-1,1133,1345,0,0
-84,-321,0,0,0,0,0,0,0,0,0,-1,1140,1345,0,0
-77,-321,0,0,0,0,0,0,0,0,0,-1,1147,1345,0,0
-70,-321,0,0,0,0,0,0,0,0,0,-1,1154,1345,0,0
-63,-321,0,0,0,0,0,0,0,0,0,-1,1161,1345,0,0
-56,-321,0,0,0,0,0,0,0,0,0,-1,1168,1345,0,0
-49,-321,0,0,0,0,0,0,0,0,0,-1,1175,1345,0,0
-42,-321,0,0,0,0,0,0,0,0,0,-1,1182,1345,0,0
-35,-321,0,0,0,0,0,0,0,0,0,-1,1189,1345,0,0
-28,-321,0,0,0,0,0,0,0,0,0,-1,1196,1345,0,0
-21,-321,0,0,0,0,0,0,0,0,0,-1,1203,1345,0,0
-14,-321,0,0,0,0,0,0,0,0,0,-1,1210,1345,0,0
-7,-321,0,0,0,0,0,0,0,0,0,-1,1217,1345,0,0
0,-321,0,0,0,0,0,0,0,0,0,-1,1224,1345,0,0
7,-321,0,0,0,0,0,0,0,0,0,-1,1231,1345,0,0
14,-321,0,0,0,0,0,0,0,0,0,-1,1238,1345,0,0
21,-321,0,0,0,0,0,0,0,0,0,-1,1245,1345,0,0
28,-321,0,0,0,0,0,0,0,0,0,-1,1252,1345,0,0
35,-321,0,0,0,0,0,0,0,0,0,-1,1259,1345,0,0
42,-321,0,0,0,0,0,0,0,0,0,-1,1266,1345,0,0
49,-321,0,0,0,0,0,0,0,0,0,-1,1273,1345,0,0
56,-321,0,0,0,0,0,0,0,0,0,-1,1280,1345,0,0
63,-321,0,0,0,0,0,0,0,0,0,-1,1287,1345,0,0
70,-321,0,0,0,0,0,0,0,0,0,-1,1294,1345,0,0
77,-321,0,0,0,0,0,0,0,0,0,-1,1301,1345,0,0
84,-321,0,0,0,0,0,0,0,0,0,-1,1308,1345,0,0
91,-321,0,0,0,0,0,0,0,0,0,-1,1315,1345,0,0
98,-321,0,0,0,0,0,0,0,0,0,-1,1322,1345,0,0
105,-321,0,0,0,0,0,0,0,0,0,-1,1329,1345,0,0
112,-321,0,0,0,0,0,0,0,0,0,-1,1336,1345,0,0
119,-321,0,0,0,0,0,0,0,0,0,-1,1343,1345,0,0
126,-321,0,0,0,0,0,0,0,0,0,-1,1350,1345,0,0
133,-321,0,0,0,0,0,0,0,0,0,-1,1357,1345,0,0
140,-321,0,0,0,0,0,0,0,0,0,-1,1364,1345,0,0
147,-321,0,0,0,0,0,0,0,0,0,-1,1371,1345,0,0
154,-321,0,0,0,0,0,0,0,0,0,-1,1378,1345,0,0
161,-321,0,0,0,0,0,0,0,0,0,-1,1385,1345,0,0
168,-321,0,0,0,0,0,0,0,0,0,-1,1392,1345,0,0
175,-321,0,0,0,0,0,0,0,0,0,-1,1399,1345,0,0
182,-321,0,0,0,0,0,0,0,0,0,-1,1406,1345,0,0
189,-321,0,0,0,0,0,0,0,0,0,-1,1413,1345,0,0
196,-321,0,0,0,0,0,0,0,0,0,-1,1420,1345,0,0
203,-321,0,0,0,0,0,0,0,0,0,-1,1427,1345,0,0
210,-321,0,0,0,0,0,0,0,0,0,-1,1434,1345,0,0
217,-321,0,0,0,0,0,0,0,0,0,-1,1441,1345,0,0
224,-321,0,0,0,0,0,0,0,0,0,-1,1448,1345,0,0
231,-321,0,0,0,0,0,0,0,0,0,-1,1455,1345,0,0
238,-321,0,0,0,0,0,0,0,0,0,-1,1462,1345,0,0
245,-321,0,0,0,0,0,0,0,0,0,-1,1469,1345,0,0
252,-321,0,0,0,0,0,0,0,0,0,-1,1476,1345,0,0
259,-321,0,0,0,0,0,0,0,0,0,-1,1483,1345,0,0
266,-321,0,0,0,0,0,0,0,0,0,-1,1490,1345,0,0
273,-321,0,0,0,0,0,0,0,0,0,-1,1497,1345,0,0
280,-321,0,0,0,0,0,0,0,0,0,-1,1504,1345,0,0
287,-321,0,0,0,0,0,0,0,0,0,-1,1511,1345,0,0
294,-321,0,0,0,0,0,0,0,0,0,-1,1518,1345,0,0
301,-321,0,0,0,0,0,0,0,0,0,-1,1525,1345,0,0
308,-321,0,0,0,0,0,0,0,0,0,-1,1532,1345,0,0
315,-321,0,0,0,0,0,0,0,0,0,-1,1539,1345,0,0
322,-321,0,0,0,0,0,0,0,0,0,-1,1546,1345,0,0
329,-321,0,0,0,0,0,0,0,0,0,-1,1553,1345,0,0
336,-321,0,0,0,0,0,0,0,0,0,-1,1560,1345,0,0
343,-321,0,0,0,0,0,0,0,0,0,-1,1567,1345,0,0
350,-321,0,0,0,0,0,0,0,0,0,-1,1574,1345,0,0
357,-321,0,0,0,0,0,0,0,0,0,-1,1581,1345,0,0
364,-321,0,0,0,0,0,0,0,0,0,-1,1588,1345,0,0
371,-321,0,0,0,0,0,0,0,0,0,-1,1595,1345,0,0
378,-321,0,0,0,0,0,0,0,0,0,-1,1602,1345,0,0
385,-321,0,0,0,0,0,0,0,0,0,-1,1609,1345,0,0
392,-321,0,0,0,0,0,0,0,0,0,-1,1616,1345,0,0
399,-321,0,0,0,0,0,0,0,0,0,-1,1623,1345,0,0
406,-321,0,0,0,0,0,0,0,0,0,-1,1630,1345,0,0
413,-321,0,0,0,0,0,0,0,0,0,-1,1637,1345,0,0
420,-321,0,0,0,0,0,0,0,0,0,-1,1644,1345,0,0
427,-321,0,0,0,0,0,0,0,0,0,-1,1651,1345,0,0
434,-321,0,0,0,0,0,0,0,0,0,-1,1658,1345,0,0
441,-321,0,0,0,0,0,0,0,0,0,-1,1665,1345,0,0
448,-321,0,0,0,0,0,0,0,0,0,-1,1672,1345,0,0
455,-321,0,0,0,0,0,0,0,0,0,-1,1679,1345,0,0
462,-321,0,0,0,0,0,0,0,0,0,-1,1686,1345,0,0
469,-321,0,0,0,0,0,0,0,0,0,-1,1693,1345,0,0
476,-321,0,0,0,0,0,0,0,0,0,-1,1700,1345,0,0
483,-321,0,0,0,0,0,0,0,0,0,-1,1707,1345,0,0
490,-321,0,0,0,0,0,0,0,0,0,-1,1714,1345,0,0
497,-321,0,0,0,0,0,0,0,0,0,-1,1721,1345,0,0
504,-321,0,0,0,0,0,0,0,0,0,-1,1728,1345,0,0
511,-321,0,0,0,0,0,0,0,0,0,-1,1735,1345,0,0
518,-321,0,0,0,0,0,0,0,0,0,-1,1742,1345,0,0
525,-321,0,0,0,0,0,0,0,0,0,-1,1749,1345,0,0
532,-321,0,0,0,0,0,0,0,0,0,-1,1756,1345,0,0
539,-321,0,0,0,0,0,0,0,0,0,-1,1763,1345,0,0
546,-321,0,0,0,0,0,0,0,0,0,-1,1770,1345,0,0
553,-321,0,0,0,0,0,0,0,0,0,-1,1777,1345,0,0
560,-321,0,0,0,0,0,0,0,0,0,-1,1784,1345,0,0
567,-321,0,0,0,0,0,0,0,0,0,-1,1791,1345,0,0
574,-321,0,0,0,0,0,0,0,0,0,-1,1798,1345,0,0
581,-321,39.7632,2.3042,0,0,0,0,0,0,0,-1,1805,1345,39.7632,-2.30422
588,-321,39.7876,2.06848,0,0,0,0,0,0,0,-1,1812,1345,39.7876,-2.0685
595,-321,40.8232,1.52478,0,0,0,0,0,0,0,-1,1819,1345,40.8233,-1.52479
602,-321,40.4164,0.847656,0,0,0,0,0,0,0,-1,1826,1345,40.4164,-0.847704
609,-321,40.0095,0.170654,0,0,0,0,0,0,0,-1,1833,1345,40.0095,-0.170614
616,-321,39.4855,5.36328,0,0,0,0,0,0,0,-1,1840,1345,39.4854,-5.36328
623,-321,30.2665,2.45361,0,0,0,0,0,0,0,-1,1847,1345,30.2665,-2.4536
630,-321,23.6674,4.34106,0,0,0,0,0,0,0,-1,1854,1345,23.6674,-4.34112
637,-321,21.7925,6.79224,0,0,0,0,0,0,0,-1,1861,1345,21.7925,-6.7922
644,-321,16.8844,6.71973,0,0,0,0,0,0,0,-1,1868,1345,16.8844,-6.71971
651,-321,27.4924,10.0319,0,0,0,0,0,0,0,-1,1875,1345,27.4924,-10.0319
658,-321,26.9905,10.4923,0,0,0,0,0,0,0,-1,1882,1345,26.9905,-10.4923
665,-321,27.0225,10.1448,0.00338833,-0.000599227,0.00231259,0.00444795,-0.00165884,0.429648,0.00364627,0.0191359,1889,1345,27.0224,-10.1448
672,-321,27.0433,9.74011,5.02018e-05,-0.00128108,-9.93332e-05,5.75728e-05,-0.00128846,-0.0740679,0.00087879,0.0129429,1896,1345,27.0433,-9.74006
679,-321,27.0376,9.31738,0.000401376,-0.000750946,-0.000119554,0.000413649,-0.000763219,-0.102298,0.000689384,0.0114919,1903,1345,27.0376,-9.31739
686,-321,26.999,8.91443,0.000594461,-0.000405382,-5.36941e-05,0.000597337,-0.000408258,-0.0534974,0.000583991,0.0122493,1910,1345,26.999,-8.91446
693,-321,27.0062,8.52161,0.000561462,-0.000192941,3.15704e-05,0.000562781,-0.00019426,0.0417508,0.000454012,0.012882,1917,1345,27.0062,-8.52156
700,-321,27.0143,8.08569,0.000356472,1.76458e-06,0.000179061,0.000431145,-7.29076e-05,0.395094,0.000314561,0.0130175,1924,1345,27.0143,-8.08566
707,-321,27.0175,7.67432,-1.21691e-05,0.000208318,0.000382407,0.000496056,-0.000299906,0.925737,0.000464177,0.0143302,1931,1345,27.0175,-7.67426
714,-321,26.991,7.28516,-0.000570313,0.000399598,0.000650061,0.000725668,-0.000896382,1.10587,0.000938218,0.0128567,1938,1345,26.9909,-7.28513
721,-321,26.9305,6.91467,-0.00142944,0.000486033,0.00112373,0.00100479,-0.0019482,1.13831,0.00173367,0.0356324,1945,1345,26.9306,-6.91463
728,-321,26.9498,6.60876,0,0,0,0,0,0,0,-1,1952,1345,26.9499,-6.60876
735,-321,22.0081,5.65479,0,0,0,0,0,0,0,-1,1959,1345,22.008,-5.65481
742,-321,24.5398,5.05725,0,0,0,0,0,0,0,-1,1966,1345,24.5398,-5.05729
749,-321,24.0675,5.4458,0,0,0,0,0,0,0,-1,1973,1345,24.0675,-5.44581
756,-321,19.6251,4.98315,0,0,0,0,0,0,0,-1,1980,1345,19.6251,-4.98311
763,-321,19.6747,4.61438,0,0,0,0,0,0,0,-1,1987,1345,19.6747,-4.61436
770,-321,0,0,0,0,0,0,0,0,0,-1,1994,1345,0,0
777,-321,0,0,0,0,0,0,0,0,0,-1,2001,1345,0,0
784,-321,0,0,0,0,0,0,0,0,0,-1,2008,1345,0,0
791,-321,0,0,0,0,0,0,0,0,0,-1,2015,1345,0,0
798,-321,0,0,0,0,0,0,0,0,0,-1,2022,1345,0,0
805,-321,0,0,0,0,0,0,0,0,0,-1,2029,1345,0,0
812,-321,0,0,0,0,0,0,0,0,0,-1,2036,1345,0,0
-700,-328,0,0,0,0,0,0,0,0,0,-1,524,1352,0,0
-693,-328,0,0,0,0,0,0,0,0,0,-1,531,1352,0,0
-686,-328,0,0,0,0,0,0,0,0,0,-1,538,1352,0,0
-679,-328,0,0,0,0,0,0,0,0,0,-1,545,1352,0,0
-672,-328,0,0,0,0,0,0,0,0,0,-1,552,1352,0,0
-665,-328,0,0,0,0,0,0,0,0,0,-1,559,1352,0,0
-658,-328,0,0,0,0,0,0,0,0,0,-1,566,1352,0,0
-651,-328,0,0,0,0,0,0,0,0,0,-1,573,1352,0,0
-644,-328,0,0,0,0,0,0,0,0,0,-1,580,1352,0,0
-637,-328,-12.0695,1.02014,0,0,0,0,0,0,0,-1,587,1352,-12.0694,-1.02017
-630,-328,-13.3971,4.54578,0,0,0,0,0,0,0,-1,594,1352,-13.3971,-4.54572
-623,-328,-10.7739,4.55042,0,0,0,0,0,0,0,-1,601,1352,-10.7739,-4.55041
-616,-328,-8.22198,-0.25708,0,0,0,0,0,0,0,-1,608,1352,-8.22201,0.257067
-609,-328,-7.87439,0.192871,0,0,0,0,0,0,0,-1,615,1352,-7.87441,-0.192822
-602,-328,-7.63062,1.31665,0,0,0,0,0,0,0,-1,622,1352,-7.63064,-1.3166
-595,-328,-9.42639,2.93494,0,0,0,0,0,0,0,-1,629,1352,-9.42638,-2.93499
-588,-328,-14.3743,4.23218,0,0,0,0,0,0,0,-1,636,1352,-14.3743,-4.23224
-581,-328,-14.1699,5.02271,0.000706367,0.000223113,-7.77676e-06,0.000706492,0.000222988,-0.0160869,0.000417035,0.0224926,643,1352,-14.1698,-5.02271
-574,-328,-14.2021,5.47583,0.000602259,-3.21589e-05,-0.000144597,0.000633661,-6.3561e-05,-0.21385,0.000445143,0.0147241,650,1352,-14.2021,-5.47586
-567,-328,-14.2288,5.90576,0.000832383,-0.000120792,-7.5966e-05,0.000838399,-0.000126808,-0.079033,0.000605644,0.0198101,657,1352,-14.2288,-5.90571
-560,-328,-14.1418,6.41785,0.00138034,-0.000164791,0.000168185,0.00139844,-0.000182886,0.107176,0.000998849,0.0262726,664,1352,-14.1418,-6.41783
-553,-328,-14.11,6.81604,0.00214098,-0.000175662,0.000540603,0.00226092,-0.000295605,0.218333,0.00161486,0.0303878,671,1352,-14.11,-6.81601
-546,-328,-14.173,7.25513,0.00316703,-0.000173598,0.00104964,0.00346945,-0.000476022,0.280524,0.00248688,0.0295993,678,1352,-14.1731,-7.25508
-539,-328,-14.2217,7.70203,0.004429,-0.000138024,0.00169165,0.00498734,-0.00069636,0.318797,0.00357966,0.0235668,685,1352,-14.2217,-7.70205
-532,-328,-14.2175,8.16492,0.00607259,-6.96109e-05,0.00253213,0.00698186,-0.000978882,0.344752,0.00501283,0.0173183,692,1352,-14.2175,-8.16495
-525,-328,-14.1899,8.66907,0.00803666,-8.88846e-05,0.00353301,0.00935796,-0.00141019,0.357883,0.00675793,0.0260166,699,1352,-14.1899,-8.66909
-518,-328,-14.2021,9.0155,0,0,0,0,0,0,0,-1,706,1352,-14.2021,-9.01546
-511,-328,-9.39868,7.16113,0,0,0,0,0,0,0,-1,713,1352,-9.39869,-7.16113
-504,-328,-8.60626,-0.905762,0,0,0,0,0,0,0,-1,720,1352,-8.60623,0.905787
-497,-328,-9.29102,-0.0517578,0,0,0,0,0,0,0,-1,727,1352,-9.29104,0.0518175
-490,-328,-10.0663,0.882813,0,0,0,0,0,0,0,-1,734,1352,-10.0663,-0.882795
-483,-328,-10.8181,1.72375,0,0,0,0,0,0,0,-1,741,1352,-10.8181,-1.72374
-476,-328,-16.8951,-0.150757,0,0,0,0,0,0,0,-1,748,1352,-16.8951,0.150795
-469,-328,-16.8412,0.00158691,0,0,0,0,0,0,0,-1,755,1352,-16.8412,-0.00161515
-462,-328,-16.3546,-0.203491,0,0,0,0,0,0,0,-1,762,1352,-16.3545,0.203532
-455,-328,0,0,0,0,0,0,0,0,0,-1,769,1352,0,0
-448,-328,0,0,0,0,0,0,0,0,0,-1,776,1352,0,0
-441,-328,0,0,0,0,0,0,0,0,0,-1,783,1352,0,0
-434,-328,0,0,0,0,0,0,0,0,0,-1,790,1352,0,0
-427,-328,0,0,0,0,0,0,0,0,0,-1,797,1352,0,0
-420,-328,0,0,0,0,0,0,0,0,0,-1,804,1352,0,0
-413,-328,0,0,0,0,0,0,0,0,0,-1,811,1352,0,0
-406,-328,0,0,0,0,0,0,0,0,0,-1,818,1352,0,0
-399,-328,0,0,0,0,0,0,0,0,0,-1,825,1352,0,0
-392,-328,0,0,0,0,0,0,0,0,0,-1,832,1352,0,0
-385,-328,0,0,0,0,0,0,0,0,0,-1,839,1352,0,0
-378,-328,0,0,0,0,0,0,0,0,0,-1,846,1352,0,0
-371,-328,0,0,0,0,0,0,0,0,0,-1,853,1352,0,0
-364,-328,0,0,0,0,0,0,0,0,0,-1,860,1352,0,0
-357,-328,0,0,0,0,0,0,0,0,0,-1,867,1352,0,0
-350,-328,0,0,0,0,0,0,0,0,0,-1,874,1352,0,0
-343,-328,0,0,0,0,0,0,0,0,0,-1,881,1352,0,0
-336,-328,0,0,0,0,0,0,0,0,0,-1,888,1352,0,0
-329,-328,0,0,0,0,0,0,0,0,0,-1,895,1352,0,0
-322,-328,0,0,0,0,0,0,0,0,0,-1,902,1352,0,0
-315,-328,0,0,0,0,0,0,0,0,0,-1,909,1352,0,0
-308,-328,0,0,0,0,0,0,0,0,0,-1,916,1352,0,0
-301,-328,0,0,0,0,0,0,0,0,0,-1,923,1352,0,0
-294,-328,0,0,0,0,0,0,0,0,0,-1,930,1352,0,0
-287,-328,0,0,0,0,0,0,0,0,0,-1,937,1352,0,0
-280,-328,0,0,0,0,0,0,0,0,0,-1,944,1352,0,0
-273,-328,0,0,0,0,0,0,0,0,0,-1,951,1352,0,0
-266,-328,0,0,0,0,0,0,0,0,0,-1,958,1352,0,0
-259,-328,0,0,0,0,0,0,0,0,0,-1,965,1352,0,0
-252,-328,0,0,0,0,0,0,0,0,0,-1,972,1352,0,0
-245,-328,0,0,0,0,0,0,0,0,0,-1,979,1352,0,0
-238,-328,0,0,0,0,0,0,0,0,0,-1,986,1352,0,0
-231,-328,0,0,0,0,0,0,0,0,0,-1,993,1352,0,0
-224,-328,0,0,0,0,0,0,0,0,0,-1,1000,1352,0,0
-217,-328,0,0,0,0,0,0,0,0,0,-1,1007,1352,0,0
-210,-328,0,0,0,0,0,0,0,0,0,-1,1014,1352,0,0
-203,-328,0,0,0,0,0,0,0,0,0,-1,1021,1352,0,0
-196,-328,0,0,0,0,0,0,0,0,0,-1,1028,1352,0,0
-189,-328,0,0,0,0,0,0,0,0,0,-1,1035,1352,0,0
-182,-328,0,0,0,0,0,0,0,0,0,-1,1042,1352,0,0
-175,-328,0,0,0,0,0,0,0,0,0,-1,1049,1352,0,0
-168,-328,0,0,0,0,0,0,0,0,0,-1,1056,1352,0,0
-161,-328,0,0,0,0,0,0,0,0,0,-1,1063,1352,0,0
-154,-328,0,0,0,0,0,0,0,0,0,-1,1070,1352,0,0
-147,-328,0,0,0,0,0,0,0,0,0,-1,1077,1352,0,0
-140,-328,0,0,0,0,0,0,0,0,0,-1,1084,1352,0,0
-133,-328,0,0,0,0,0,0,0,0,0,-1,1091,1352,0,0
-126,-328,0,0,0,0,0,0,0,0,0,-1,1098,1352,0,0
-119,-328,0,0,0,0,0,0,0,0,0,-1,1105,1352,0,0
-112,-328,0,0,0,0,0,0,0,0,0,-1,1112,1352,0,0
-105,-328,0,0,0,0,0,0,0,0,0,-1,1119,1352,0,0
-98,-328,0,0,0,0,0,0,0,0,0,-1,1126,1352,0,0
-91,-328,0,0,0,0,0,0,0,0,0,-1,1133,1352,0,0
-84,-328,0,0,0,0,0,0,0,0,0,-1,1140,1352,0,0
-77,-328,0,0,0,0,0,0,0,0,0,-1,1147,1352,0,0
-70,-328,0,0,0,0,0,0,0,0,0,-1,1154,1352,0,0
-63,-328,0,0,0,0,0,0,0,0,0,-1,1161,1352,0,0
-56,-328,0,0,0,0,0,0,0,0,0,-1,1168,1352,0,0
-49,-328,0,0,0,0,0,0,0,0,0,-1,1175,1352,0,0
-42,-328,0,0,0,0,0,0,0,0,0,-1,1182,1352,0,0
-35,-328,0,0,0,0,0,0,0,0,0,-1,1189,1352,0,0
-28,-328,0,0,0,0,0,0,0,0,0,-1,1196,1352,0,0
-21,-328,0,0,0,0,0,0,0,0,0,-1,1203,1352,0,0
-14,-328,0,0,0,0,0,0,0,0,0,-1,1210,1352,0,0
-7,-328,0,0,0,0,0,0,0,0,0,-1,1217,1352,0,0
0,-328,0,0,0,0,0,0,0,0,0,-1,1224,1352,0,0
7,-328,0,0,0,0,0,0,0,0,0,-1,1231,1352,0,0
14,-328,0,0,0,0,0,0,0,0,0,-1,1238,1352,0,0
21,-328,0,0,0,0,0,0,0,0,0,-1,1245,1352,0,0
28,-328,0,0,0,0,0,0,0,0,0,-1,1252,1352,0,0
35,-328,0,0,0,0,0,0,0,0,0,-1,1259,1352,0,0
42,-328,0,0,0,0,0,0,0,0,0,-1,1266,1352,0,0
49,-328,0,0,0,0,0,0,0,0,0,-1,1273,1352,0,0
56,-328,0,0,0,0,0,0,0,0,0,-1,1280,1352,0,0
63,-328,0,0,0,0,0,0,0,0,0,-1,1287,1352,0,0
70,-328,0,0,0,0,0,0,0,0,0,-1,1294,1352,0,0
77,-328,0,0,0,0,0,0,0,0,0,-1,1301,1352,0,0
84,-328,0,0,0,0,0,0,0,0,0,-1,1308,1352,0,0
91,-328,0,0,0,0,0,0,0,0,0,-1,1315,1352,0,0
98,-328,0,0,0,0,0,0,0,0,0,-1,1322,1352,0,0
105,-328,0,0,0,0,0,0,0,0,0,-1,1329,1352,0,0
112,-328,0,0,0,0,0,0,0,0,0,-1,1336,1352,0,0
119,-328,0,0,0,0,0,0,0,0,0,-1,1343,1352,0,0
126,-328,0,0,0,0,0,0,0,0,0,-1,1350,1352,0,0
133,-328,0,0,0,0,0,0,0,0,0,-1,1357,1352,0,0
140,-328,0,0,0,0,0,0,0,0,0,-1,1364,1352,0,0
147,-328,0,0,0,0,0,0,0,0,0,-1,1371,1352,0,0
154,-328,0,0,0,0,0,0,0,0,0,-1,1378,1352,0,0
161,-328,0,0,0,0,0,0,0,0,0,-1,1385,1352,0,0
168,-328,0,0,0,0,0,0,0,0,0,-1,1392,1352,0,0
175,-328,0,0,0,0,0,0,0,0,0,-1,1399,1352,0,0
182,-328,0,0,0,0,0,0,0,0,0,-1,1406,1352,0,0
189,-328,0,0,0,0,0,0,0,0,0,-1,1413,1352,0,0
196,-328,0,0,0,0,0,0,0,0,0,-1,1420,1352,0,0
203,-328,0,0,0,0,0,0,0,0,0,-1,1427,1352,0,0
210,-328,0,0,0,0,0,0,0,0,0,-1,1434,1352,0,0
217,-328,0,0,0,0,0,0,0,0,0,-1,1441,1352,0,0
224,-328,0,0,0,0,0,0,0,0,0,-1,1448,1352,0,0
231,-328,0,0,0,0,0,0,0,0,0,-1,1455,1352,0,0
238,-328,0,0,0,0,0,0,0,0,0,-1,1462,1352,0,0
245,-328,0,0,0,0,0,0,0,0,0,-1,1469,1352,0,0
252,-328,0,0,0,0,0,0,0,0,0,-1,1476,1352,0,0
259,-328,0,0,0,0,0,0,0,0,0,-1,1483,1352,0,0
266,-328,0,0,0,0,0,0,0,0,0,-1,1490,1352,0,0
273,-328,0,0,0,0,0,0,0,0,0,-1,1497,1352,0,0
280,-328,0,0,0,0,0,0,0,0,0,-1,1504,1352,0,0
287,-328,0,0,0,0,0,0,0,0,0,-1,1511,1352,0,0
294,-328,0,0,0,0,0,0,0,0,0,-1,1518,1352,0,0
301,-328,0,0,0,0,0,0,0,0,0,-1,1525,1352,0,0
308,-328,0,0,0,0,0,0,0,0,0,-1,1532,1352,0,0
315,-328,0,0,0,0,0,0,0,0,0,-1,1539,1352,0,0
322,-328,0,0,0,0,0,0,0,0,0,-1,1546,1352,0,0
329,-328,0,0,0,0,0,0,0,0,0,-1,1553,1352,0,0
336,-328,0,0,0,0,0,0,0,0,0,-1,1560,1352,0,0
343,-328,0,0,0,0,0,0,0,0,0,-1,1567,1352,0,0
350,-328,0,0,0,0,0,0,0,0,0,-1,1574,1352,0,0
357,-328,0,0,0,0,0,0,0,0,0,-1,1581,1352,0,0
364,-328,0,0,0,0,0,0,0,0,0,-1,1588,1352,0,0
371,-328,0,0,0,0,0,0,0,0,0,-1,1595,1352,0,0
378,-328,0,0,0,0,0,0,0,0,0,-1,1602,1352,0,0
385,-328,0,0,0,0,0,0,0,0,0,-1,1609,1352,0,0
392,-328,0,0,0,0,0,0,0,0,0,-1,1616,1352,0,0
399,-328,0,0,0,0,0,0,0,0,0,-1,1623,1352,0,0
406,-328,0,0,0,0,0,0,0,0,0,-1,1630,1352,0,0
413,-328,0,0,0,0,0,0,0,0,0,-1,1637,1352,0,0
420,-328,0,0,0,0,0,0,0,0,0,-1,1644,1352,0,0
427,-328,0,0,0,0,0,0,0,0,0,-1,1651,1352,0,0
434,-328,0,0,0,0,0,0,0,0,0,-1,1658,1352,0,0
441,-328,0,0,0,0,0,0,0,0,0,-1,1665,1352,0,0
448,-328,0,0,0,0,0,0,0,0,0,-1,1672,1352,0,0
455,-328,0,0,0,0,0,0,0,0,0,-1,1679,1352,0,0
462,-328,0,0,0,0,0,0,0,0,0,-1,1686,1352,0,0
469,-328,0,0,0,0,0,0,0,0,0,-1,1693,1352,0,0
476,-328,0,0,0,0,0,0,0,0,0,-1,1700,1352,0,0
483,-328,0,0,0,0,0,0,0,0,0,-1,1707,1352,0,0
490,-328,0,0,0,0,0,0,0,0,0,-1,1714,1352,0,0
497,-328,0,0,0,0,0,0,0,0,0,-1,1721,1352,0,0
504,-328,0,0,0,0,0,0,0,0,0,-1,1728,1352,0,0
511,-328,0,0,0,0,0,0,0,0,0,-1,1735,1352,0,0
518,-328,0,0,0,0,0,0,0,0,0,-1,1742,1352,0,0
525,-328,0,0,0,0,0,0,0,0,0,-1,1749,1352,0,0
532,-328,0,0,0,0,0,0,0,0,0,-1,1756,1352,0,0
539,-328,0,0,0,0,0,0,0,0,0,-1,1763,1352,0,0
546,-328,0,0,0,0,0,0,0,0,0,-1,1770,1352,0,0
553,-328,0,0,0,0,0,0,0,0,0,-1,1777,1352,0,0
560,-328,0,0,0,0,0,0,0,0,0,-1,1784,1352,0,0
567,-328,0,0,0,0,0,0,0,0,0,-1,1791,1352,0,0
574,-328,40.3912,5.00684,0,0,0,0,0,0,0,-1,1798,1352,40.3912,-5.00684
581,-328,40.5649,1.35596,0,0,0,0,0,0,0,-1,1805,1352,40.5649,-1.35596
588,-328,39.6519,1.83191,0,0,0,0,0,0,0,-1,1812,1352,39.6519,-1.83189
595,-328,38.6099,2.40161,0,0,0,0,0,0,0,-1,1819,1352,38.6099,-2.4016
602,-328,40.4385,0.7323,0,0,0,0,0,0,0,-1,1826,1352,40.4385,-0.732347
609,-328,36.6143,3.5365,0,0,0,0,0,0,0,-1,1833,1352,36.6143,-3.53649
616,-328,35.488,4.35156,0,0,0,0,0,0,0,-1,1840,1352,35.4881,-4.35153
623,-328,34.345,5.14722,0,0,0,0,0,0,0,-1,1847,1352,34.3449,-5.14718
630,-328,22.0211,5.026,0,0,0,0,0,0,0,-1,1854,1352,22.0212,-5.02603
637,-328,21.15,5.53699,0,0,0,0,0,0,0,-1,1861,1352,21.15,-5.53704
644,-328,16.9579,6.3396,0,0,0,0,0,0,0,-1,1868,1352,16.9579,-6.33959
651,-328,26.8604,10.9259,0,0,0,0,0,0,0,-1,1875,1352,26.8604,-10.9258
658,-328,26.6603,10.5468,0.00149902,0.0051219,0.00100301,0.00538106,0.00123987,1.31795,0.0032538,0.0363532,1882,1352,26.6603,-10.5468
665,-328,26.667,10.1292,0.00269618,0.000356496,0.00148521,0.00341693,-0.000364262,0.451812,0.00240858,0.013759,1889,1352,26.667,-10.1291
672,-328,26.6427,9.7312,0.00038627,-0.000441459,-0.000145587,0.00041113,-0.000466319,-0.169127,0.00050693,0.0115776,1896,1352,26.6427,-9.7312
679,-328,26.6276,9.31604,0.00063383,-0.000379229,-8.90739e-05,0.000641602,-0.000387001,-0.0870359,0.000599898,0.0149856,1903,1352,26.6276,-9.31605
686,-328,26.6046,8.92395,0.000771746,-0.000275315,-5.06541e-06,0.000771771,-0.00027534,-0.00483759,0.000626788,0.014912,1910,1352,26.6046,-8.92396
693,-328,26.6108,8.53137,0.000768188,-0.000142456,9.33991e-05,0.000777669,-0.000151937,0.10116,0.000575813,0.00972183,1917,1352,26.6109,-8.53138
700,-328,26.6051,8.10535,0.000636067,1.42571e-05,0.000249819,0.000724,-7.36753e-05,0.338442,0.000509005,0.0142797,1924,1352,26.6051,-8.1054
707,-328,26.6096,7.70288,0.000312253,0.000215597,0.000452865,0.000719362,-0.000191511,0.732242,0.000554546,0.0161742,1931,1352,26.6096,-7.70291
714,-328,26.6063,7.29358,-0.000215715,0.000393876,0.000735755,0.00088547,-0.000707309,0.981768,0.000921507,0.0148709,1938,1352,26.6063,-7.2936
721,-328,26.3943,6.90808,-0.00109592,0.000455352,0.00128873,0.00118385,-0.00182442,1.05629,0.0017499,0.0466217,1945,1352,26.3943,-6.90804
728,-328,26.4662,6.34277,0,0,0,0,0,0,0,-1,1952,1352,26.4662,-6.34277
735,-328,20.8927,5.23523,0,0,0,0,0,0,0,-1,1959,1352,20.8927,-5.23528
742,-328,20.3547,4.11316,0,0,0,0,0,0,0,-1,1966,1352,20.3547,-4.11321
749,-328,20.0669,5.66321,0,0,0,0,0,0,0,-1,1973,1352,20.0669,-5.66319
756,-328,19.9543,5.50464,0,0,0,0,0,0,0,-1,1980,1352,19.9543,-5.50463
763,-328,0,0,0,0,0,0,0,0,0,-1,1987,1352,0,0
770,-328,0,0,0,0,0,0,0,0,0,-1,1994,1352,0,0
777,-328,0,0,0,0,0,0,0,0,0,-1,2001,1352,0,0
784,-328,0,0,0,0,0,0,0,0,0,-1,2008,1352,0,0
791,-328,0,0,0,0,0,0,0,0,0,-1,2015,1352,0,0
798,-328,0,0,0,0,0,0,0,0,0,-1,2022,1352,0,0
805,-328,0,0,0,0,0,0,0,0,0,-1,2029,1352,0,0
812,-328,0,0,0,0,0,0,0,0,0,-1,2036,1352,0,0
-700,-335,0,0,0,0,0,0,0,0,0,-1,524,1359,0,0
-693,-335,0,0,0,0,0,0,0,0,0,-1,531,1359,0,0
-686,-335,0,0,0,0,0,0,0,0,0,-1,538,1359,0,0
-679,-335,0,0,0,0,0,0,0,0,0,-1,545,1359,0,0
-672,-335,0,0,0,0,0,0,0,0,0,-1,552,1359,0,0
-665,-335,0,0,0,0,0,0,0,0,0,-1,559,1359,0,0
-658,-335,0,0,0,0,0,0,0,0,0,-1,566,1359,0,0
-651,-335,0,0,0,0,0,0,0,0,0,-1,573,1359,0,0
-644,-335,0,0,0,0,0,0,0,0,0,-1,580,1359,0,0
-637,-335,-9.64746,3.53809,0,0,0,0,0,0,0,-1,587,1359,-9.64744,-3.53803
-630,-335,-6.07397,-2.99902,0,0,0,0,0,0,0,-1,594,1359,-6.07397,2.99902
-623,-335,-8.43304,1.09509,0,0,0,0,0,0,0,-1,601,1359,-8.43301,-1.09507
-616,-335,-7.80927,-0.485352,0,0,0,0,0,0,0,-1,608,1359,-7.80926,0.485291
-609,-335,-7.12256,-2.03601,0,0,0,0,0,0,0,-1,615,1359,-7.12253,2.03601
-602,-335,-9.39935,2.25146,0,0,0,0,0,0,0,-1,622,1359,-9.39935,-2.25145
-595,-335,-9.54767,3.01917,0,0,0,0,0,0,0,-1,629,1359,-9.54768,-3.01911
-588,-335,-13.821,4.42419,0,0,0,0,0,0,0,-1,636,1359,-13.821,-4.42423
-581,-335,-13.7308,5.09338,-0.000869427,-0.000663266,-0.0010381,0.000276855,-0.00180955,-0.834885,0.00130845,0.0372492,643,1359,-13.7308,-5.09343
-574,-335,-13.7529,5.48364,-0.00059674,-0.000674226,-0.000906302,0.000271647,-0.00154261,-0.764037,0.0011299,0.0124592,650,1359,-13.7529,-5.48363
-567,-335,-13.7621,5.96521,-9.1584e-05,-0.000542431,-0.000629905,0.000352019,-0.000986033,-0.613564,0.000800911,0.0159237,657,1359,-13.7622,-5.96522
-560,-335,-13.7083,6.41541,0.000665086,-0.000444192,-0.000233643,0.000712289,-0.000491395,-0.199346,0.000698837,0.0241886,664,1359,-13.7083,-6.41535
-553,-335,-13.7031,6.8573,0.00162661,-0.000325528,0.000290182,0.00166883,-0.00036775,0.144487,0.00125325,0.0278209,671,1359,-13.7031,-6.85735
-546,-335,-13.7376,7.2998,0.00276741,-0.000230223,0.000900989,0.00301738,-0.000480187,0.270626,0.00218927,0.0253718,678,1359,-13.7376,-7.29976
-539,-335,-13.7684,7.71667,0.0040708,-0.0001177,0.00161384,0.00462048,-0.00066738,0.32828,0.00332518,0.0207606,685,1359,-13.7684,-7.71671
-532,-335,-13.7994,8.18591,0.00566288,7.66237e-06,0.00248916,0.0066024,-0.00093186,0.360913,0.00474283,0.0154764,692,1359,-13.7995,-8.18596
-525,-335,-13.757,8.66003,0.00754,9.46605e-05,0.00352421,0.00894357,-0.00130891,0.37901,0.00644316,0.0121349,699,1359,-13.757,-8.66002
-518,-335,-13.691,9.04663,0.00948073,-5.22097e-05,0.00460421,0.0113413,-0.00191281,0.384042,0.00827253,0.0400114,706,1359,-13.691,-9.04661
-511,-335,-13.5869,9.38525,0,0,0,0,0,0,0,-1,713,1359,-13.5869,-9.38528
-504,-335,-9.35767,5.99695,0,0,0,0,0,0,0,-1,720,1359,-9.35767,-5.99694
-497,-335,-8.75024,-0.650513,0,0,0,0,0,0,0,-1,727,1359,-8.75024,0.650521
-490,-335,-9.51971,0.417603,0,0,0,0,0,0,0,-1,734,1359,-9.51974,-0.41765
-483,-335,-10.2883,1.29224,0,0,0,0,0,0,0,-1,741,1359,-10.2883,-1.2922
-476,-335,-11.9938,-0.173462,0,0,0,0,0,0,0,-1,748,1359,-11.9938,0.173429
-469,-335,-12.8704,-0.204102,0,0,0,0,0,0,0,-1,755,1359,-12.8704,0.204117
-462,-335,-13.486,0.0218506,0,0,0,0,0,0,0,-1,762,1359,-13.4859,-0.0217908
-455,-335,-14.1504,0.549561,0,0,0,0,0,0,0,-1,769,1359,-14.1504,-0.549583
-448,-335,0,0,0,0,0,0,0,0,0,-1,776,1359,0,0
-441,-335,0,0,0,0,0,0,0,0,0,-1,783,1359,0,0
-434,-335,0,0,0,0,0,0,0,0,0,-1,790,1359,0,0
-427,-335,0,0,0,0,0,0,0,0,0,-1,797,1359,0,0
-420,-335,0,0,0,0,0,0,0,0,0,-1,804,1359,0,0
-413,-335,0,0,0,0,0,0,0,0,0,-1,811,1359,0,0
-406,-335,0,0,0,0,0,0,0,0,0,-1,818,1359,0,0
-399,-335,0,0,0,0,0,0,0,0,0,-1,825,1359,0,0
-392,-335,0,0,0,0,0,0,0,0,0,-1,832,1359,0,0
-385,-335,0,0,0,0,0,0,0,0,0,-1,839,1359,0,0
-378,-335,0,0,0,0,0,0,0,0,0,-1,846,1359,0,0
-371,-335,0,0,0,0,0,0,0,0,0,-1,853,1359,0,0
-364,-335,0,0,0,0,0,0,0,0,0,-1,860,1359,0,0
-357,-335,0,0,0,0,0,0,0,0,0,-1,867,1359,0,0
-350,-335,0,0,0,0,0,0,0,0,0,-1,874,1359,0,0
-343,-335,0,0,0,0,0,0,0,0,0,-1,881,1359,0,0
-336,-335,0,0,0,0,0,0,0,0,0,-1,888,1359,0,0
-329,-335,0,0,0,0,0,0,0,0,0,-1,895,1359,0,0
-322,-335,0,0,0,0,0,0,0,0,0,-1,902,1359,0,0
-315,-335,0,0,0,0,0,0,0,0,0,-1,909,1359,0,0
-308,-335,0,0,0,0,0,0,0,0,0,-1,916,1359,0,0
-301,-335,0,0,0,0,0,0,0,0,0,-1,923,1359,0,0
-294,-335,0,0,0,0,0,0,0,0,0,-1,930,1359,0,0
-287,-335,0,0,0,0,0,0,0,0,0,-1,937,1359,0,0
-280,-335,0,0,0,0,0,0,0,0,0,-1,944,1359,0,0
-273,-335,0,0,0,0,0,0,0,0,0,-1,951,1359,0,0
-266,-335,0,0,0,0,0,0,0,0,0,-1,958,1359,0,0
-259,-335,0,0,0,0,0,0,0,0,0,-1,965,1359,0,0
-252,-335,0,0,0,0,0,0,0,0,0,-1,972,1359,0,0
-245,-335,0,0,0,0,0,0,0,0,0,-1,979,1359,0,0
-238,-335,0,0,0,0,0,0,0,0,0,-1,986,1359,0,0
-231,-335,0,0,0,0,0,0,0,0,0,-1,993,1359,0,0
-224,-335,0,0,0,0,0,0,0,0,0,-1,1000,1359,0,0
-217,-335,0,0,0,0,0,0,0,0,0,-1,1007,1359,0,0
-210,-335,0,0,0,0,0,0,0,0,0,-1,1014,1359,0,0
-203,-335,0,0,0,0,0,0,0,0,0,-1,1021,1359,0,0
-196,-335,0,0,0,0,0,0,0,0,0,-1,1028,1359,0,0
-189,-335,0,0,0,0,0,0,0,0,0,-1,1035,1359,0,0
-182,-335,0,0,0,0,0,0,0,0,0,-1,1042,1359,0,0
-175,-335,0,0,0,0,0,0,0,0,0,-1,1049,1359,0,0
-168,-335,0,0,0,0,0,0,0,0,0,-1,1056,1359,0,0
-161,-335,0,0,0,0,0,0,0,0,0,-1,1063,1359,0,0
-154,-335,0,0,0,0,0,0,0,0,0,-1,1070,1359,0,0
-147,-335,0,0,0,0,0,0,0,0,0,-1,1077,1359,0,0
-140,-335,0,0,0,0,0,0,0,0,0,-1,1084,1359,0,0
-133,-335,0,0,0,0,0,0,0,0,0,-1,1091,1359,0,0
-126,-335,0,0,0,0,0,0,0,0,0,-1,1098,1359,0,0
-119,-335,0,0,0,0,0,0,0,0,0,-1,1105,1359,0,0
-112,-335,0,0,0,0,0,0,0,0,0,-1,1112,1359,0,0
-105,-335,0,0,0,0,0,0,0,0,0,-1,1119,1359,0,0
-98,-335,0,0,0,0,0,0,0,0,0,-1,1126,1359,0,0
-91,-335,0,0,0,0,0,0,0,0,0,-1,1133,1359,0,0
-84,-335,0,0,0,0,0,0,0,0,0,-1,1140,1359,0,0
-77,-335,0,0,0,0,0,0,0,0,0,-1,1147,1359,0,0
-70,-335,0,0,0,0,0,0,0,0,0,-1,1154,1359,0,0
-63,-335,0,0,0,0,0,0,0,0,0,-1,1161,1359,0,0
-56,-335,0,0,0,0,0,0,0,0,0,-1,1168,1359,0,0
-49,-335,0,0,0,0,0,0,0,0,0,-1,1175,1359,0,0
-42,-335,0,0,0,0,0,0,0,0,0,-1,1182,1359,0,0
-35,-335,0,0,0,0,0,0,0,0,0,-1,1189,1359,0,0
-28,-335,0,0,0,0,0,0,0,0,0,-1,1196,1359,0,0
-21,-335,0,0,0,0,0,0,0,0,0,-1,1203,1359,0,0
-14,-335,0,0,0,0,0,0,0,0,0,-1,1210,1359,0,0
-7,-335,0,0,0,0,0,0,0,0,0,-1,1217,1359,0,0
0,-335,0,0,0,0,0,0,0,0,0,-1,1224,1359,0,0
7,-335,0,0,0,0,0,0,0,0,0,-1,1231,1359,0,0
14,-335,0,0,0,0,0,0,0,0,0,-1,1238,1359,0,0
21,-335,0,0,0,0,0,0,0,0,0,-1,1245,1359,0,0
28,-335,0,0,0,0,0,0,0,0,0,-1,1252,1359,0,0
35,-335,0,0,0,0,0,0,0,0,0,-1,1259,1359,0,0
42,-335,0,0,0,0,0,0,0,0,0,-1,1266,1359,0,0
49,-335,0,0,0,0,0,0,0,0,0,-1,1273,1359,0,0
56,-335,0,0,0,0,0,0,0,0,0,-1,1280,1359,0,0
63,-335,0,0,0,0,0,0,0,0,0,-1,1287,1359,0,0
70,-335,0,0,0,0,0,0,0,0,0,-1,1294,1359,0,0
77,-335,0,0,0,0,0,0,0,0,0,-1,1301,1359,0,0
84,-335,0,0,0,0,0,0,0,0,0,-1,1308,1359,0,0
91,-335,0,0,0,0,0,0,0,0,0,-1,1315,1359,0,0
98,-335,0,0,0,0,0,0,0,0,0,-1,1322,1359,0,0
105,-335,0,0,0,0,0,0,0,0,0,-1,1329,1359,0,0
112,-335,0,0,0,0,0,0,0,0,0,-1,1336,1359,0,0
119,-335,0,0,0,0,0,0,0,0,0,-1,1343,1359,0,0
126,-335,0,0,0,0,0,0,0,0,0,-1,1350,1359,0,0
133,-335,0,0,0,0,0,0,0,0,0,-1,1357,1359,0,0
140,-335,0,0,0,0,0,0,0,0,0,-1,1364,1359,0,0
147,-335,0,0,0,0,0,0,0,0,0,-1,1371,1359,0,0
154,-335,0,0,0,0,0,0,0,0,0,-1,1378,1359,0,0
161,-335,0,0,0,0,0,0,0,0,0,-1,1385,1359,0,0
168,-335,0,0,0,0,0,0,0,0,0,-1,1392,1359,0,0
175,-335,0,0,0,0,0,0,0,0,0,-1,1399,1359,0,0
182,-335,0,0,0,0,0,0,0,0,0,-1,1406,1359,0,0
189,-335,0,0,0,0,0,0,0,0,0,-1,1413,1359,0,0
196,-335,0,0,0,0,0,0,0,0,0,-1,1420,1359,0,0
203,-335,0,0,0,0,0,0,0,0,0,-1,1427,1359,0,0
210,-335,0,0,0,0,0,0,0,0,0,-1,1434,1359,0,0
217,-335,0,0,0,0,0,0,0,0,0,-1,1441,1359,0,0
224,-335,0,0,0,0,0,0,0,0,0,-1,1448,1359,0,0
231,-335,0,0,0,0,0,0,0,0,0,-1,1455,1359,0,0
238,-335,0,0,0,0,0,0,0,0,0,-1,1462,1359,0,0
245,-335,0,0,0,0,0,0,0,0,0,-1,1469,1359,0,0
252,-335,0,0,0,0,0,0,0,0,0,-1,1476,1359,0,0
259,-335,0,0,0,0,0,0,0,0,0,-1,1483,1359,0,0
266,-335,0,0,0,0,0,0,0,0,0,-1,1490,1359,0,0
273,-335,0,0,0,0,0,0,0,0,0,-1,1497,1359,0,0
280,-335,0,0,0,0,0,0,0,0,0,-1,1504,1359,0,0
287,-335,0,0,0,0,0,0,0,0,0,-1,1511,1359,0,0
294,-335,0,0,0,0,0,0,0,0,0,-1,1518,1359,0,0
301,-335,0,0,0,0,0,0,0,0,0,-1,1525,1359,0,0
308,-335,0,0,0,0,0,0,0,0,0,-1,1532,1359,0,0
315,-335,0,0,0,0,0,0,0,0,0,-1,1539,1359,0,0
322,-335,0,0,0,0,0,0,0,0,0,-1,1546,1359,0,0
329,-335,0,0,0,0,0,0,0,0,0,-1,1553,1359,0,0
336,-335,0,0,0,0,0,0,0,0,0,-1,1560,1359,0,0
343,-335,0,0,0,0,0,0,0,0,0,-1,1567,1359,0,0
350,-335,0,0,0,0,0,0,0,0,0,-1,1574,1359,0,0
357,-335,0,0,0,0,0,0,0,0,0,-1,1581,1359,0,0
364,-335,0,0,0,0,0,0,0,0,0,-1,1588,1359,0,0
371,-335,0,0,0,0,0,0,0,0,0,-1,1595,1359,0,0
378,-335,0,0,0,0,0,0,0,0,0,-1,1602,1359,0,0
385,-335,0,0,0,0,0,0,0,0,0,-1,1609,1359,0,0
392,-335,0,0,0,0,0,0,0,0,0,-1,1616,1359,0,0
399,-335,0,0,0,0,0,0,0,0,0,-1,1623,1359,0,0
406,-335,0,0,0,0,0,0,0,0,0,-1,1630,1359,0,0
413,-335,0,0,0,0,0,0,0,0,0,-1,1637,1359,0,0
420,-335,0,0,0,0,0,0,0,0,0,-1,1644,1359,0,0
427,-335,0,0,0,0,0,0,0,0,0,-1,1651,1359,0,0
434,-335,0,0,0,0,0,0,0,0,0,-1,1658,1359,0,0
441,-335,0,0,0,0,0,0,0,0,0,-1,1665,1359,0,0
448,-335,0,0,0,0,0,0,0,0,0,-1,1672,1359,0,0
455,-335,0,0,0,0,0,0,0,0,0,-1,1679,1359,0,0
462,-335,0,0,0,0,0,0,0,0,0,-1,1686,1359,0,0
469,-335,0,0,0,0,0,0,0,0,0,-1,1693,1359,0,0
476,-335,0,0,0,0,0,0,0,0,0,-1,1700,1359,0,0
483,-335,0,0,0,0,0,0,0,0,0,-1,1707,1359,0,0
490,-335,0,0,0,0,0,0,0,0,0,-1,1714,1359,0,0
497,-335,0,0,0,0,0,0,0,0,0,-1,1721,1359,0,0
504,-335,0,0,0,0,0,0,0,0,0,-1,1728,1359,0,0
511,-335,0,0,0,0,0,0,0,0,0,-1,1735,1359,0,0
518,-335,0,0,0,0,0,0,0,0,0,-1,1742,1359,0,0
525,-335,0,0,0,0,0,0,0,0,0,-1,1749,1359,0,0
532,-335,0,0,0,0,0,0,0,0,0,-1,1756,1359,0,0
539,-335,0,0,0,0,0,0,0,0,0,-1,1763,1359,0,0
546,-335,0,0,0,0,0,0,0,0,0,-1,1770,1359,0,0
553,-335,0,0,0,0,0,0,0,0,0,-1,1777,1359,0,0
560,-335,0,0,0,0,0,0,0,0,0,-1,1784,1359,0,0
567,-335,0,0,0,0,0,0,0,0,0,-1,1791,1359,0,0
574,-335,41.2675,1.20239,0,0,0,0,0,0,0,-1,1798,1359,41.2674,-1.20236
581,-335,40.2205,1.68237,0,0,0,0,0,0,0,-1,1805,1359,40.2205,-1.68232
588,-335,39.2056,2.22961,0,0,0,0,0,0,0,-1,1812,1359,39.2056,-2.22957
595,-335,38.1451,2.77539,0,0,0,0,0,0,0,-1,1819,1359,38.1452,-2.7754
602,-335,37.0677,3.21045,0,0,0,0,0,0,0,-1,1826,1359,37.0678,-3.21049
609,-335,35.9532,3.88062,0,0,0,0,0,0,0,-1,1833,1359,35.9532,-3.88066
616,-335,34.6969,4.82666,0,0,0,0,0,0,0,-1,1840,1359,34.6969,-4.82667
623,-335,26.6051,6.54333,0,0,0,0,0,0,0,-1,1847,1359,26.6051,-6.54339
630,-335,19.1707,1.00952,0,0,0,0,0,0,0,-1,1854,1359,19.1707,-1.00953
637,-335,18.2009,6.65454,0,0,0,0,0,0,0,-1,1861,1359,18.2009,-6.6546
644,-335,26.3312,10.8926,0,0,0,0,0,0,0,-1,1868,1359,26.3312,-10.8925
651,-335,26.0852,10.9871,0,0,0,0,0,0,0,-1,1875,1359,26.0852,-10.9871
658,-335,26.2153,10.6066,0.000664109,0.0040009,0.0003307,0.00403336,0.00063165,1.47296,0.00250504,0.0232167,1882,1359,26.2153,-10.6066
665,-335,26.2577,10.1493,0.00162989,0.000319877,0.000770942,0.0019865,-3.67417e-05,0.433263,0.00133675,0.014664,1889,1359,26.2577,-10.1493
672,-335,26.2334,9.74219,0.00046227,-0.000258258,-0.000192691,0.000510565,-0.000306552,-0.245573,0.000476639,0.0172409,1896,1359,26.2335,-9.74225
679,-335,26.2123,9.36279,0.000779738,-0.000285574,-9.9772e-05,0.000789002,-0.000294837,-0.0925824,0.000647072,0.0160789,1903,1359,26.2123,-9.36284
686,-335,26.2426,8.93896,0.00101413,-0.000241578,-2.3511e-06,0.00101414,-0.000241583,-0.00187232,0.000769367,0.013297,1910,1359,26.2425,-8.93892
693,-335,26.2196,8.51514,0.00113378,-0.000154848,0.000109006,0.00114294,-0.000164004,0.0837972,0.000822096,0.0102153,1917,1359,26.2196,-8.51511
700,-335,26.1952,8.14746,0.0011256,-2.28485e-05,0.000264864,0.00118374,-8.09903e-05,0.216088,0.000817494,0.0111016,1924,1359,26.1952,-8.14746
707,-335,26.1802,7.75586,0.000892084,0.00020188,0.000463826,0.00112511,-3.11441e-05,0.465562,0.000760666,0.0149889,1931,1359,26.1802,-7.75582
714,-335,26.1903,7.2478,0.000454795,0.000399426,0.000775513,0.00120312,-0.000348896,0.767557,0.000940209,0.0317744,1938,1359,26.1903,-7.24779
721,-335,26.1204,6.68445,0,0,0,0,0,0,0,-1,1945,1359,26.1204,-6.68441
728,-335,20.8126,5.21167,0,0,0,0,0,0,0,-1,1952,1359,20.8127,-5.21172
735,-335,20.2725,5.34729,0,0,0,0,0,0,0,-1,1959,1359,20.2724,-5.34734
742,-335,19.8624,4.72229,0,0,0,0,0,0,0,-1,1966,1359,19.8624,-4.72225
749,-335,20.5887,6.05322,0,0,0,0,0,0,0,-1,1973,1359,20.5887,-6.05322
756,-335,20.7832,6.00452,0,0,0,0,0,0,0,-1,1980,1359,20.7832,-6.00447
763,-335,0,0,0,0,0,0,0,0,0,-1,1987,1359,0,0
770,-335,0,0,0,0,0,0,0,0,0,-1,1994,1359,0,0
777,-335,0,0,0,0,0,0,0,0,0,-1,2001,1359,0,0
784,-335,0,0,0,0,0,0,0,0,0,-1,2008,1359,0,0
791,-335,0,0,0,0,0,0,0,0,0,-1,2015,1359,0,0
798,-335,0,0,0,0,0,0,0,0,0,-1,2022,1359,0,0
805,-335,0,0,0,0,0,0,0,0,0,-1,2029,1359,0,0
812,-335,0,0,0,0,0,0,0,0,0,-1,2036,1359,0,0
-700,-342,0,0,0,0,0,0,0,0,0,-1,524,1366,0,0
-693,-342,0,0,0,0,0,0,0,0,0,-1,531,1366,0,0
-686,-342,0,0,0,0,0,0,0,0,0,-1,538,1366,0,0
-679,-342,0,0,0,0,0,0,0,0,0,-1,545,1366,0,0
-672,-342,0,0,0,0,0,0,0,0,0,-1,552,1366,0,0
-665,-342,0,0,0,0,0,0,0,0,0,-1,559,1366,0,0
-658,-342,0,0,0,0,0,0,0,0,0,-1,566,1366,0,0
-651,-342,0,0,0,0,0,0,0,0,0,-1,573,1366,0,0
-644,-342,0,0,0,0,0,0,0,0,0,-1,580,1366,0,0
-637,-342,-8.67786,-4.58557,0,0,0,0,0,0,0,-1,587,1366,-8.67788,4.5856
-630,-342,-8.60132,2.71777,0,0,0,0,0,0,0,-1,594,1366,-8.60135,-2.71779
-623,-342,-8.41168,0.662476,0,0,0,0,0,0,0,-1,601,1366,-8.41168,-0.662442
-616,-342,-6.625,-1.28015,0,0,0,0,0,0,0,-1,608,1366,-6.62499,1.28011
-609,-342,-7.83154,0.674561,0,0,0,0,0,0,0,-1,615,1366,-7.83155,-0.674598
-602,-342,-9.65765,2.25195,0,0,0,0,0,0,0,-1,622,1366,-9.65767,-2.25192
-595,-342,-9.47687,3.00671,0,0,0,0,0,0,0,-1,629,1366,-9.47686,-3.00668
-588,-342,-9.78467,3.57727,0,0,0,0,0,0,0,-1,636,1366,-9.78468,-3.57723
-581,-342,-13.3863,5.06824,0,0,0,0,0,0,0,-1,643,1366,-13.3863,-5.06829
-574,-342,-13.3289,5.5116,-0.00178666,-0.00140055,-0.00173701,0.000154103,-0.00334131,-0.840742,0.00228064,0.0144362,650,1366,-13.3289,-5.51154
-567,-342,-13.3031,5.99329,-0.00107313,-0.0010101,-0.00125609,0.000214875,-0.00229811,-0.797939,0.00160849,0.0154179,657,1366,-13.3031,-5.99323
-560,-342,-13.3394,6.43555,-0.000152094,-0.000754696,-0.000715631,0.000323077,-0.00122987,-0.586147,0.000946173,0.0256525,664,1366,-13.3394,-6.43558
-553,-342,-13.3803,6.83423,0.00096315,-0.000503087,-5.5853e-05,0.000965275,-0.000505212,-0.0380193,0.000862725,0.0296779,671,1366,-13.3803,-6.83428
-546,-342,-13.3975,7.26306,0.00222071,-0.000284447,0.000676166,0.00239157,-0.000455298,0.247496,0.00176582,0.0280333,678,1366,-13.3975,-7.26304
-539,-342,-13.3659,7.74414,0.00359175,-5.00919e-05,0.00149283,0.00412546,-0.000583802,0.343355,0.00296413,0.023231,685,1366,-13.3659,-7.74415
-532,-342,-13.3433,8.2085,0.00516105,0.000178974,0.00242728,0.00614808,-0.000808056,0.386218,0.00439292,0.0179516,692,1366,-13.3433,-8.20855
-525,-342,-13.3136,8.6748,0.00696407,0.000421947,0.0035123,0.0084926,-0.00110659,0.410474,0.00606435,0.0125352,699,1366,-13.3136,-8.67478
-518,-342,-13.2682,9.14624,0.00880817,0.000525084,0.00465456,0.010897,-0.00156373,0.421828,0.00783807,0.0260197,706,1366,-13.2682,-9.1463
-511,-342,-13.2729,9.60547,0,0,0,0,0,0,0,-1,713,1366,-13.2729,-9.60546
-504,-342,-8.95709,6.5719,0,0,0,0,0,0,0,-1,720,1366,-8.95707,-6.57192
-497,-342,-8.26587,-0.943604,0,0,0,0,0,0,0,-1,727,1366,-8.26586,0.943543
-490,-342,-9.07153,-0.0227051,0,0,0,0,0,0,0,-1,734,1366,-9.07155,0.0227087
-483,-342,-9.87726,0.898071,0,0,0,0,0,0,0,-1,741,1366,-9.87724,-0.898125
-476,-342,-11.6371,-0.736328,0,0,0,0,0,0,0,-1,748,1366,-11.6371,0.736281
-469,-342,-12.6245,-0.987549,0,0,0,0,0,0,0,-1,755,1366,-12.6245,0.987553
-462,-342,-13.0912,-0.533203,0,0,0,0,0,0,0,-1,762,1366,-13.0912,0.533224
-455,-342,-13.7612,0.122925,0,0,0,0,0,0,0,-1,769,1366,-13.7612,-0.122896
-448,-342,-14.5278,0.826904,0,0,0,0,0,0,0,-1,776,1366,-14.5277,-0.826861
-441,-342,0,0,0,0,0,0,0,0,0,-1,783,1366,0,0
-434,-342,0,0,0,0,0,0,0,0,0,-1,790,1366,0,0
-427,-342,0,0,0,0,0,0,0,0,0,-1,797,1366,0,0
-420,-342,0,0,0,0,0,0,0,0,0,-1,804,1366,0,0
-413,-342,0,0,0,0,0,0,0,0,0,-1,811,1366,0,0
-406,-342,0,0,0,0,0,0,0,0,0,-1,818,1366,0,0
-399,-342,0,0,0,0,0,0,0,0,0,-1,825,1366,0,0
-392,-342,0,0,0,0,0,0,0,0,0,-1,832,1366,0,0
-385,-342,0,0,0,0,0,0,0,0,0,-1,839,1366,0,0
-378,-342,0,0,0,0,0,0,0,0,0,-1,846,1366,0,0
-371,-342,0,0,0,0,0,0,0,0,0,-1,853,1366,0,0
-364,-342,0,0,0,0,0,0,0,0,0,-1,860,1366,0,0
-357,-342,0,0,0,0,0,0,0,0,0,-1,867,1366,0,0
-350,-342,0,0,0,0,0,0,0,0,0,-1,874,1366,0,0
-343,-342,0,0,0,0,0,0,0,0,0,-1,881,1366,0,0
-336,-342,0,0,0,0,0,0,0,0,0,-1,888,1366,0,0
-329,-342,0,0,0,0,0,0,0,0,0,-1,895,1366,0,0
-322,-342,0,0,0,0,0,0,0,0,0,-1,902,1366,0,0
-315,-342,0,0,0,0,0,0,0,0,0,-1,909,1366,0,0
-308,-342,0,0,0,0,0,0,0,0,0,-1,916,1366,0,0
-301,-342,0,0,0,0,0,0,0,0,0,-1,923,1366,0,0
-294,-342,0,0,0,0,0,0,0,0,0,-1,930,1366,0,0
-287,-342,0,0,0,0,0,0,0,0,0,-1,937,1366,0,0
-280,-342,0,0,0,0,0,0,0,0,0,-1,944,1366,0,0
-273,-342,0,0,0,0,0,0,0,0,0,-1,951,1366,0,0
-266,-342,0,0,0,0,0,0,0,0,0,-1,958,1366,0,0
-259,-342,0,0,0,0,0,0,0,0,0,-1,965,1366,0,0
-252,-342,0,0,0,0,0,0,0,0,0,-1,972,1366,0,0
-245,-342,0,0,0,0,0,0,0,0,0,-1,979,1366,0,0
-238,-342,0,0,0,0,0,0,0,0,0,-1,986,1366,0,0
-231,-342,0,0,0,0,0,0,0,0,0,-1,993,1366,0,0
-224,-342,0,0,0,0,0,0,0,0,0,-1,1000,1366,0,0
-217,-342,0,0,0,0,0,0,0,0,0,-1,1007,1366,0,0
-210,-342,0,0,0,0,0,0,0,0,0,-1,1014,1366,0,0
-203,-342,0,0,0,0,0,0,0,0,0,-1,1021,1366,0,0
-196,-342,0,0,0,0,0,0,0,0,0,-1,1028,1366,0,0
-189,-342,0,0,0,0,0,0,0,0,0,-1,1035,1366,0,0
-182,-342,0,0,0,0,0,0,0,0,0,-1,1042,1366,0,0
-175,-342,0,0,0,0,0,0,0,0,0,-1,1049,1366,0,0
-168,-342,0,0,0,0,0,0,0,0,0,-1,1056,1366,0,0
-161,-342,0,0,0,0,0,0,0,0,0,-1,1063,1366,0,0
-154,-342,0,0,0,0,0,0,0,0,0,-1,1070,1366,0,0
-147,-342,0,0,0,0,0,0,0,0,0,-1,1077,1366,0,0
-140,-342,0,0,0,0,0,0,0,0,0,-1,1084,1366,0,0
-133,-342,0,0,0,0,0,0,0,0,0,-1,1091,1366,0,0
-126,-342,0,0,0,0,0,0,0,0,0,-1,1098,1366,0,0
-119,-342,0,0,0,0,0,0,0,0,0,-1,1105,1366,0,0
-112,-342,0,0,0,0,0,0,0,0,0,-1,1112,1366,0,0
-105,-342,0,0,0,0,0,0,0,0,0,-1,1119,1366,0,0
-98,-342,0,0,0,0,0,0,0,0,0,-1,1126,1366,0,0
-91,-342,0,0,0,0,0,0,0,0,0,-1,1133,1366,0,0
-84,-342,0,0,0,0,0,0,0,0,0,-1,1140,1366,0,0
-77,-342,0,0,0,0,0,0,0,0,0,-1,1147,1366,0,0
-70,-342,0,0,0,0,0,0,0,0,0,-1,1154,1366,0,0
-63,-342,0,0,0,0,0,0,0,0,0,-1,1161,1366,0,0
-56,-342,0,0,0,0,0,0,0,0,0,-1,1168,1366,0,0
-49,-342,0,0,0,0,0,0,0,0,0,-1,1175,1366,0,0
-42,-342,0,0,0,0,0,0,0,0,0,-1,1182,1366,0,0
-35,-342,0,0,0,0,0,0,0,0,0,-1,1189,1366,0,0
-28,-342,0,0,0,0,0,0,0,0,0,-1,1196,1366,0,0
-21,-342,0,0,0,0,0,0,0,0,0,-1,1203,1366,0,0
-14,-342,0,0,0,0,0,0,0,0,0,-1,1210,1366,0,0
-7,-342,0,0,0,0,0,0,0,0,0,-1,1217,1366,0,0
0,-342,0,0,0,0,0,0,0,0,0,-1,1224,1366,0,0
7,-342,0,0,0,0,0,0,0,0,0,-1,1231,1366,0,0
14,-342,0,0,0,0,0,0,0,0,0,-1,1238,1366,0,0
21,-342,0,0,0,0,0,0,0,0,0,-1,1245,1366,0,0
28,-342,0,0,0,0,0,0,0,0,0,-1,1252,1366,0,0
35,-342,0,0,0,0,0,0,0,0,0,-1,1259,1366,0,0
42,-342,0,0,0,0,0,0,0,0,0,-1,1266,1366,0,0
49,-342,0,0,0,0,0,0,0,0,0,-1,1273,1366,0,0
56,-342,0,0,0,0,0,0,0,0,0,-1,1280,1366,0,0
63,-342,0,0,0,0,0,0,0,0,0,-1,1287,1366,0,0
70,-342,0,0,0,0,0,0,0,0,0,-1,1294,1366,0,0
77,-342,0,0,0,0,0,0,0,0,0,-1,1301,1366,0,0
84,-342,0,0,0,0,0,0,0,0,0,-1,1308,1366,0,0
91,-342,0,0,0,0,0,0,0,0,0,-1,1315,1366,0,0
98,-342,0,0,0,0,0,0,0,0,0,-1,1322,1366,0,0
105,-342,0,0,0,0,0,0,0,0,0,-1,1329,1366,0,0
112,-342,0,0,0,0,0,0,0,0,0,-1,1336,1366,0,0
119,-342,0,0,0,0,0,0,0,0,0,-1,1343,1366,0,0
126,-342,0,0,0,0,0,0,0,0,0,-1,1350,1366,0,0
133,-342,0,0,0,0,0,0,0,0,0,-1,1357,1366,0,0
140,-342,0,0,0,0,0,0,0,0,0,-1,1364,1366,0,0
147,-342,0,0,0,0,0,0,0,0,0,-1,1371,1366,0,0
154,-342,0,0,0,0,0,0,0,0,0,-1,1378,1366,0,0
161,-342,0,0,0,0,0,0,0,0,0,-1,1385,1366,0,0
168,-342,0,0,0,0,0,0,0,0,0,-1,1392,1366,0,0
175,-342,0,0,0,0,0,0,0,0,0,-1,1399,1366,0,0
182,-342,0,0,0,0,0,0,0,0,0,-1,1406,1366,0,0
189,-342,0,0,0,0,0,0,0,0,0,-1,1413,1366,0,0
196,-342,0,0,0,0,0,0,0,0,0,-1,1420,1366,0,0
203,-342,0,0,0,0,0,0,0,0,0,-1,1427,1366,0,0
210,-342,0,0,0,0,0,0,0,0,0,-1,1434,1366,0,0
217,-342,0,0,0,0,0,0,0,0,0,-1,1441,1366,0,0
224,-342,0,0,0,0,0,0,0,0,0,-1,1448,1366,0,0
231,-342,0,0,0,0,0,0,0,0,0,-1,1455,1366,0,0
238,-342,0,0,0,0,0,0,0,0,0,-1,1462,1366,0,0
245,-342,0,0,0,0,0,0,0,0,0,-1,1469,1366,0,0
252,-342,0,0,0,0,0,0,0,0,0,-1,1476,1366,0,0
259,-342,0,0,0,0,0,0,0,0,0,-1,1483,1366,0,0
266,-342,0,0,0,0,0,0,0,0,0,-1,1490,1366,0,0
273,-342,0,0,0,0,0,0,0,0,0,-1,1497,1366,0,0
280,-342,0,0,0,0,0,0,0,0,0,-1,1504,1366,0,0
287,-342,0,0,0,0,0,0,0,0,0,-1,1511,1366,0,0
294,-342,0,0,0,0,0,0,0,0,0,-1,1518,1366,0,0
301,-342,0,0,0,0,0,0,0,0,0,-1,1525,1366,0,0
308,-342,0,0,0,0,0,0,0,0,0,-1,1532,1366,0,0
315,-342,0,0,0,0,0,0,0,0,0,-1,1539,1366,0,0
322,-342,0,0,0,0,0,0,0,0,0,-1,1546,1366,0,0
329,-342,0,0,0,0,0,0,0,0,0,-1,1553,1366,0,0
336,-342,0,0,0,0,0,0,0,0,0,-1,1560,1366,0,0
343,-342,0,0,0,0,0,0,0,0,0,-1,1567,1366,0,0
350,-342,0,0,0,0,0,0,0,0,0,-1,1574,1366,0,0
357,-342,0,0,0,0,0,0,0,0,0,-1,1581,1366,0,0
364,-342,0,0,0,0,0,0,0,0,0,-1,1588,1366,0,0
371,-342,0,0,0,0,0,0,0,0,0,-1,1595,1366,0,0
378,-342,0,0,0,0,0,0,0,0,0,-1,1602,1366,0,0
385,-342,0,0,0,0,0,0,0,0,0,-1,1609,1366,0,0
392,-342,0,0,0,0,0,0,0,0,0,-1,1616,1366,0,0
399,-342,0,0,0,0,0,0,0,0,0,-1,1623,1366,0,0
406,-342,0,0,0,0,0,0,0,0,0,-1,1630,1366,0,0
413,-342,0,0,0,0,0,0,0,0,0,-1,1637,1366,0,0
420,-342,0,0,0,0,0,0,0,0,0,-1,1644,1366,0,0
427,-342,0,0,0,0,0,0,0,0,0,-1,1651,1366,0,0
434,-342,0,0,0,0,0,0,0,0,0,-1,1658,1366,0,0
441,-342,0,0,0,0,0,0,0,0,0,-1,1665,1366,0,0
448,-342,0,0,0,0,0,0,0,0,0,-1,1672,1366,0,0
455,-342,0,0,0,0,0,0,0,0,0,-1,1679,1366,0,0
462,-342,0,0,0,0,0,0,0,0,0,-1,1686,1366,0,0
469,-342,0,0,0,0,0,0,0,0,0,-1,1693,1366,0,0
476,-342,0,0,0,0,0,0,0,0,0,-1,1700,1366,0,0
483,-342,0,0,0,0,0,0,0,0,0,-1,1707,1366,0,0
490,-342,0,0,0,0,0,0,0,0,0,-1,1714,1366,0,0
497,-342,0,0,0,0,0,0,0,0,0,-1,1721,1366,0,0
504,-342,0,0,0,0,0,0,0,0,0,-1,1728,1366,0,0
511,-342,0,0,0,0,0,0,0,0,0,-1,1735,1366,0,0
518,-342,0,0,0,0,0,0,0,0,0,-1,1742,1366,0,0
525,-342,0,0,0,0,0,0,0,0,0,-1,1749,1366,0,0
532,-342,0,0,0,0,0,0,0,0,0,-1,1756,1366,0,0
539,-342,0,0,0,0,0,0,0,0,0,-1,1763,1366,0,0
546,-342,0,0,0,0,0,0,0,0,0,-1,1770,1366,0,0
553,-342,0,0,0,0,0,0,0,0,0,-1,1777,1366,0,0
560,-342,0,0,0,0,0,0,0,0,0,-1,1784,1366,0,0
567,-342,35.4581,5.60889,0,0,0,0,0,0,0,-1,1791,1366,35.4581,-5.6089
574,-342,35.1605,4.25122,0,0,0,0,0,0,0,-1,1798,1366,35.1605,-4.25123
581,-342,39.751,2.01648,0,0,0,0,0,0,0,-1,1805,1366,39.751,-2.01647
588,-342,38.7311,2.57861,0,0,0,0,0,0,0,-1,1812,1366,38.731,-2.57861
595,-342,37.6693,3.12891,0,0,0,0,0,0,0,-1,1819,1366,37.6693,-3.12895
602,-342,36.3618,3.28723,0,0,0,0,0,0,0,-1,1826,1366,36.3619,-3.28719
609,-342,35.3777,4.14978,0,0,0,0,0,0,0,-1,1833,1366,35.3777,-4.14976
616,-342,34.199,5.8158,0,0,0,0,0,0,0,-1,1840,1366,34.199,-5.81579
623,-342,26.0299,6.86865,0,0,0,0,0,0,0,-1,1847,1366,26.0299,-6.86863
630,-342,17.3431,0.773071,0,0,0,0,0,0,0,-1,1854,1366,17.3432,-0.773095
637,-342,16.196,6.76172,0,0,0,0,0,0,0,-1,1861,1366,16.1961,-6.76174
644,-342,25.7119,11.4485,0,0,0,0,0,0,0,-1,1868,1366,25.7119,-11.4485
651,-342,25.8616,11.0713,-0.00492127,0.00642261,-0.00168164,0.00666665,-0.00516531,-1.42668,0.00684949,0.0375483,1875,1366,25.8616,-11.0713
658,-342,25.8304,10.5964,-0.00199039,0.0028507,-0.000527991,0.00290761,-0.00204731,-1.46341,0.00287506,0.0201909,1882,1366,25.8305,-10.5964
665,-342,25.8348,10.1541,-0.000253671,0.000153033,9.14545e-05,0.000172652,-0.00027329,1.35948,0.000259641,0.0173508,1889,1366,25.8348,-10.154
672,-342,25.8243,9.76575,0.000517907,-0.000221759,-0.000131006,0.000540425,-0.000244276,-0.17022,0.000463678,0.0135199,1896,1366,25.8244,-9.76581
679,-342,25.8102,9.39856,0.000917315,-0.00033167,7.81144e-07,0.000917316,-0.000331671,0.000625423,0.000747059,0.0134897,1903,1366,25.8102,-9.39855
686,-342,25.8552,8.98657,0.00125944,-0.000359402,0.000118067,0.001268,-0.000367967,0.0724222,0.00099103,0.0116671,1910,1366,25.8553,-8.9866
693,-342,25.817,8.55078,0.00150001,-0.00032978,0.000253607,0.0015345,-0.000364279,0.135205,0.00116359,0.0114726,1917,1366,25.817,-8.55075
700,-342,25.778,8.15466,0.001619,-0.000236381,0.000416458,0.00170819,-0.000325571,0.210977,0.0012614,0.0130371,1924,1366,25.7779,-8.15468
707,-342,25.7793,7.74023,0.00145263,5.40131e-06,0.000616868,0.00167988,-0.000221849,0.352966,0.00120072,0.0134033,1931,1366,25.7793,-7.74019
714,-342,25.8104,7.3186,0,0,0,0,0,0,0,-1,1938,1366,25.8105,-7.3186
721,-342,22.4666,6.08679,0,0,0,0,0,0,0,-1,1945,1366,22.4666,-6.08678
728,-342,19.8912,5.26636,0,0,0,0,0,0,0,-1,1952,1366,19.8913,-5.26636
735,-342,19.481,4.41968,0,0,0,0,0,0,0,-1,1959,1366,19.4809,-4.41962
742,-342,19.309,2.66943,0,0,0,0,0,0,0,-1,1966,1366,19.3089,-2.66948
749,-342,21.0934,6.47729,0,0,0,0,0,0,0,-1,1973,1366,21.0934,-6.4773
756,-342,0,0,0,0,0,0,0,0,0,-1,1980,1366,0,0
763,-342,0,0,0,0,0,0,0,0,0,-1,1987,1366,0,0
770,-342,0,0,0,0,0,0,0,0,0,-1,1994,1366,0,0
777,-342,0,0,0,0,0,0,0,0,0,-1,2001,1366,0,0
784,-342,0,0,0,0,0,0,0,0,0,-1,2008,1366,0,0
791,-342,0,0,0,0,0,0,0,0,0,-1,2015,1366,0,0
798,-342,0,0,0,0,0,0,0,0,0,-1,2022,1366,0,0
805,-342,0,0,0,0,0,0,0,0,0,-1,2029,1366,0,0
812,-342,0,0,0,0,0,0,0,0,0,-1,2036,1366,0,0
-700,-349,0,0,0,0,0,0,0,0,0,-1,524,1373,0,0
-693,-349,0,0,0,0,0,0,0,0,0,-1,531,1373,0,0
-686,-349,0,0,0,0,0,0,0,0,0,-1,538,1373,0,0
-679,-349,0,0,0,0,0,0,0,0,0,-1,545,1373,0,0
-672,-349,0,0,0,0,0,0,0,0,0,-1,552,1373,0,0
-665,-349,0,0,0,0,0,0,0,0,0,-1,559,1373,0,0
-658,-349,0,0,0,0,0,0,0,0,0,-1,566,1373,0,0
-651,-349,0,0,0,0,0,0,0,0,0,-1,573,1373,0,0
-644,-349,0,0,0,0,0,0,0,0,0,-1,580,1373,0,0
-637,-349,0,0,0,0,0,0,0,0,0,-1,587,1373,0,0
-630,-349,-7.64117,-5.06177,0,0,0,0,0,0,0,-1,594,1373,-7.64118,5.0618
-623,-349,-8.63507,0.51123,0,0,0,0,0,0,0,-1,601,1373,-8.63505,-0.511275
-616,-349,-5.2066,-0.188232,0,0,0,0,0,0,0,-1,608,1373,-5.20659,0.188211
-609,-349,-7.12073,1.37048,0,0,0,0,0,0,0,-1,615,1373,-7.12072,-1.37044
-602,-349,-9.00623,3.39587,0,0,0,0,0,0,0,-1,622,1373,-9.0062,-3.39591
-595,-349,-9.50568,2.96912,0,0,0,0,0,0,0,-1,629,1373,-9.50569,-2.96906
-588,-349,-8.60046,3.56042,0,0,0,0,0,0,0,-1,636,1373,-8.60046,-3.56047
-581,-349,-12.7619,5.026,0,0,0,0,0,0,0,-1,643,1373,-12.7619,-5.02604
-574,-349,-12.8332,5.45581,-0.00289605,-0.00216219,-0.0027013,0.000196989,-0.00525523,-0.852902,0.00357096,0.0310354,650,1373,-12.8332,-5.45584
-567,-349,-12.8845,6.00293,-0.0019778,-0.00145891,-0.00196076,0.000259491,-0.00369621,-0.851175,0.00255503,0.0162756,657,1373,-12.8845,-6.0029
-560,-349,-12.9001,6.46521,-0.000927746,-0.00103858,-0.00127103,0.000289075,-0.0022554,-0.763612,0.00160864,0.0212726,664,1373,-12.9001,-6.46527
-553,-349,-12.9515,6.8501,0.000300747,-0.000660919,-0.000486795,0.000504144,-0.000864315,-0.39578,0.00079915,0.0281552,671,1373,-12.9515,-6.8501
-546,-349,-12.9843,7.27319,0.00161086,-0.000333834,0.000339385,0.00166838,-0.000391361,0.167909,0.00126308,0.0300237,678,1373,-12.9843,-7.27319
-539,-349,-12.9623,7.76514,0.00298446,-1.75532e-05,0.00121225,0.00341285,-0.000445943,0.339687,0.00243751,0.0240884,685,1373,-12.9624,-7.76516
-532,-349,-12.91,8.21472,0.00447991,0.000272451,0.00215452,0.00538743,-0.00063507,0.398662,0.00382094,0.0177937,692,1373,-12.91,-8.21469
-525,-349,-12.8846,8.69312,0.0061394,0.000595005,0.00321825,0.00761481,-0.00088041,0.429861,0.00539401,0.0130288,699,1373,-12.8846,-8.69315
-518,-349,-12.8872,9.18335,0.00780063,0.000830226,0.00432611,0.00987077,-0.00123992,0.446319,0.00703036,0.0179803,706,1373,-12.8872,-9.1833
-511,-349,-12.856,9.67944,0,0,0,0,0,0,0,-1,713,1373,-12.856,-9.6794
-504,-349,-9.60516,7.88831,0,0,0,0,0,0,0,-1,720,1373,-9.60519,-7.88825
-497,-349,-7.9339,5.58789,0,0,0,0,0,0,0,-1,727,1373,-7.93388,-5.58785
-490,-349,-8.73969,-0.503784,0,0,0,0,0,0,0,-1,734,1373,-8.73966,0.503752
-483,-349,-5.66974,3.7395,0,0,0,0,0,0,0,-1,741,1373,-5.66975,-3.73949
-476,-349,-10.8496,1.15759,0,0,0,0,0,0,0,-1,748,1373,-10.8496,-1.15756
-469,-349,-12.3314,-1.74878,0,0,0,0,0,0,0,-1,755,1373,-12.3314,1.74882
-462,-349,-12.6559,-0.995361,0,0,0,0,0,0,0,-1,762,1373,-12.656,0.995351
-455,-349,-13.2897,-0.234253,0,0,0,0,0,0,0,-1,769,1373,-13.2897,0.234261
-448,-349,-14.045,0.712891,0,0,0,0,0,0,0,-1,776,1373,-14.045,-0.712838
-441,-349,0,0,0,0,0,0,0,0,0,-1,783,1373,0,0
-434,-349,0,0,0,0,0,0,0,0,0,-1,790,1373,0,0
-427,-349,0,0,0,0,0,0,0,0,0,-1,797,1373,0,0
-420,-349,0,0,0,0,0,0,0,0,0,-1,804,1373,0,0
-413,-349,0,0,0,0,0,0,0,0,0,-1,811,1373,0,0
-406,-349,0,0,0,0,0,0,0,0,0,-1,818,1373,0,0
-399,-349,0,0,0,0,0,0,0,0,0,-1,825,1373,0,0
-392,-349,0,0,0,0,0,0,0,0,0,-1,832,1373,0,0
-385,-349,0,0,0,0,0,0,0,0,0,-1,839,1373,0,0
-378,-349,0,0,0,0,0,0,0,0,0,-1,846,1373,0,0
-371,-349,0,0,0,0,0,0,0,0,0,-1,853,1373,0,0
-364,-349,0,0,0,0,0,0,0,0,0,-1,860,1373,0,0
-357,-349,0,0,0,0,0,0,0,0,0,-1,867,1373,0,0
-350,-349,0,0,0,0,0,0,0,0,0,-1,874,1373,0,0
-343,-349,0,0,0,0,0,0,0,0,0,-1,881,1373,0,0
-336,-349,0,0,0,0,0,0,0,0,0,-1,888,1373,0,0
-329,-349,0,0,0,0,0,0,0,0,0,-1,895,1373,0,0
-322,-349,0,0,0,0,0,0,0,0,0,-1,902,1373,0,0
-315,-349,0,0,0,0,0,0,0,0,0,-1,909,1373,0,0
-308,-349,0,0,0,0,0,0,0,0,0,-1,916,1373,0,0
-301,-349,0,0,0,0,0,0,0,0,0,-1,923,1373,0,0
-294,-349,0,0,0,0,0,0,0,0,0,-1,930,1373,0,0
-287,-349,0,0,0,0,0,0,0,0,0,-1,937,1373,0,0
-280,-349,0,0,0,0,0,0,0,0,0,-1,944,1373,0,0
-273,-349,0,0,0,0,0,0,0,0,0,-1,951,1373,0,0
-266,-349,0,0,0,0,0,0,0,0,0,-1,958,1373,0,0
-259,-349,0,0,0,0,0,0,0,0,0,-1,965,1373,0,0
-252,-349,0,0,0,0,0,0,0,0,0,-1,972,1373,0,0
-245,-349,0,0,0,0,0,0,0,0,0,-1,979,1373,0,0
-238,-349,0,0,0,0,0,0,0,0,0,-1,986,1373,0,0
-231,-349,0,0,0,0,0,0,0,0,0,-1,993,1373,0,0
-224,-349,0,0,0,0,0,0,0,0,0,-1,1000,1373,0,0
-217,-349,0,0,0,0,0,0,0,0,0,-1,1007,1373,0,0
-210,-349,0,0,0,0,0,0,0,0,0,-1,1014,1373,0,0
-203,-349,0,0,0,0,0,0,0,0,0,-1,1021,1373,0,0
-196,-349,0,0,0,0,0,0,0,0,0,-1,1028,1373,0,0
-189,-349,0,0,0,0,0,0,0,0,0,-1,1035,1373,0,0
-182,-349,0,0,0,0,0,0,0,0,0,-1,1042,1373,0,0
-175,-349,0,0,0,0,0,0,0,0,0,-1,1049,1373,0,0
-168,-349,0,0,0,0,0,0,0,0,0,-1,1056,1373,0,0
-161,-349,0,0,0,0,0,0,0,0,0,-1,1063,1373,0,0
-154,-349,0,0,0,0,0,0,0,0,0,-1,1070,1373,0,0
-147,-349,0,0,0,0,0,0,0,0,0,-1,1077,1373,0,0
-140,-349,0,0,0,0,0,0,0,0,0,-1,1084,1373,0,0
-133,-349,0,0,0,0,0,0,0,0,0,-1,1091,1373,0,0
-126,-349,0,0,0,0,0,0,0,0,0,-1,1098,1373,0,0
-119,-349,0,0,0,0,0,0,0,0,0,-1,1105,1373,0,0
-112,-349,0,0,0,0,0,0,0,0,0,-1,1112,1373,0,0
-105,-349,0,0,0,0,0,0,0,0,0,-1,1119,1373,0,0
-98,-349,0,0,0,0,0,0,0,0,0,-1,1126,1373,0,0
-91,-349,0,0,0,0,0,0,0,0,0,-1,1133,1373,0,0
-84,-349,0,0,0,0,0,0,0,0,0,-1,1140,1373,0,0
-77,-349,0,0,0,0,0,0,0,0,0,-1,1147,1373,0,0
-70,-349,0,0,0,0,0,0,0,0,0,-1,1154,1373,0,0
-63,-349,0,0,0,0,0,0,0,0,0,-1,1161,1373,0,0
-56,-349,0,0,0,0,0,0,0,0,0,-1,1168,1373,0,0
-49,-349,0,0,0,0,0,0,0,0,0,-1,1175,1373,0,0
-42,-349,0,0,0,0,0,0,0,0,0,-1,1182,1373,0,0
-35,-349,0,0,0,0,0,0,0,0,0,-1,1189,1373,0,0
-28,-349,0,0,0,0,0,0,0,0,0,-1,1196,1373,0,0
-21,-349,0,0,0,0,0,0,0,0,0,-1,1203,1373,0,0
-14,-349,0,0,0,0,0,0,0,0,0,-1,1210,1373,0,0
-7,-349,0,0,0,0,0,0,0,0,0,-1,1217,1373,0,0
0,-349,0,0,0,0,0,0,0,0,0,-1,1224,1373,0,0
7,-349,0,0,0,0,0,0,0,0,0,-1,1231,1373,0,0
14,-349,0,0,0,0,0,0,0,0,0,-1,1238,1373,0,0
21,-349,0,0,0,0,0,0,0,0,0,-1,1245,1373,0,0
28,-349,0,0,0,0,0,0,0,0,0,-1,1252,1373,0,0
35,-349,0,0,0,0,0,0,0,0,0,-1,1259,1373,0,0
42,-349,0,0,0,0,0,0,0,0,0,-1,1266,1373,0,0
49,-349,0,0,0,0,0,0,0,0,0,-1,1273,1373,0,0
56,-349,0,0,0,0,0,0,0,0,0,-1,1280,1373,0,0
63,-349,0,0,0,0,0,0,0,0,0,-1,1287,1373,0,0
70,-349,0,0,0,0,0,0,0,0,0,-1,1294,1373,0,0
77,-349,0,0,0,0,0,0,0,0,0,-1,1301,1373,0,0
84,-349,0,0,0,0,0,0,0,0,0,-1,1308,1373,0,0
91,-349,0,0,0,0,0,0,0,0,0,-1,1315,1373,0,0
98,-349,0,0,0,0,0,0,0,0,0,-1,1322,1373,0,0
105,-349,0,0,0,0,0,0,0,0,0,-1,1329,1373,0,0
112,-349,0,0,0,0,0,0,0,0,0,-1,1336,1373,0,0
119,-349,0,0,0,0,0,0,0,0,0,-1,1343,1373,0,0
126,-349,0,0,0,0,0,0,0,0,0,-1,1350,1373,0,0
133,-349,0,0,0,0,0,0,0,0,0,-1,1357,1373,0,0
140,-349,0,0,0,0,0,0,0,0,0,-1,1364,1373,0,0
147,-349,0,0,0,0,0,0,0,0,0,-1,1371,1373,0,0
154,-349,0,0,0,0,0,0,0,0,0,-1,1378,1373,0,0
161,-349,0,0,0,0,0,0,0,0,0,-1,1385,1373,0,0
168,-349,0,0,0,0,0,0,0,0,0,-1,1392,1373,0,0
175,-349,0,0,0,0,0,0,0,0,0,-1,1399,1373,0,0
182,-349,0,0,0,0,0,0,0,0,0,-1,1406,1373,0,0
189,-349,0,0,0,0,0,0,0,0,0,-1,1413,1373,0,0
196,-349,0,0,0,0,0,0,0,0,0,-1,1420,1373,0,0
203,-349,0,0,0,0,0,0,0,0,0,-1,1427,1373,0,0
210,-349,0,0,0,0,0,0,0,0,0,-1,1434,1373,0,0
217,-349,0,0,0,0,0,0,0,0,0,-1,1441,1373,0,0
224,-349,0,0,0,0,0,0,0,0,0,-1,1448,1373,0,0
231,-349,0,0,0,0,0,0,0,0,0,-1,1455,1373,0,0
238,-349,0,0,0,0,0,0,0,0,0,-1,1462,1373,0,0
245,-349,0,0,0,0,0,0,0,0,0,-1,1469,1373,0,0
252,-349,0,0,0,0,0,0,0,0,0,-1,1476,1373,0,0
259,-349,0,0,0,0,0,0,0,0,0,-1,1483,1373,0,0
266,-349,0,0,0,0,0,0,0,0,0,-1,1490,1373,0,0
273,-349,0,0,0,0,0,0,0,0,0,-1,1497,1373,0,0
280,-349,0,0,0,0,0,0,0,0,0,-1,1504,1373,0,0
287,-349,0,0,0,0,0,0,0,0,0,-1,1511,1373,0,0
294,-349,0,0,0,0,0,0,0,0,0,-1,1518,1373,0,0
301,-349,0,0,0,0,0,0,0,0,0,-1,1525,1373,0,0
308,-349,0,0,0,0,0,0,0,0,0,-1,1532,1373,0,0
315,-349,0,0,0,0,0,0,0,0,0,-1,1539,1373,0,0
322,-349,0,0,0,0,0,0,0,0,0,-1,1546,1373,0,0
329,-349,0,0,0,0,0,0,0,0,0,-1,1553,1373,0,0
336,-349,0,0,0,0,0,0,0,0,0,-1,1560,1373,0,0
343,-349,0,0,0,0,0,0,0,0,0,-1,1567,1373,0,0
350,-349,0,0,0,0,0,0,0,0,0,-1,1574,1373,0,0
357,-349,0,0,0,0,0,0,0,0,0,-1,1581,1373,0,0
364,-349,0,0,0,0,0,0,0,0,0,-1,1588,1373,0,0
371,-349,0,0,0,0,0,0,0,0,0,-1,1595,1373,0,0
378,-349,0,0,0,0,0,0,0,0,0,-1,1602,1373,0,0
385,-349,0,0,0,0,0,0,0,0,0,-1,1609,1373,0,0
392,-349,0,0,0,0,0,0,0,0,0,-1,1616,1373,0,0
399,-349,0,0,0,0,0,0,0,0,0,-1,1623,1373,0,0
406,-349,0,0,0,0,0,0,0,0,0,-1,1630,1373,0,0
413,-349,0,0,0,0,0,0,0,0,0,-1,1637,1373,0,0
420,-349,0,0,0,0,0,0,0,0,0,-1,1644,1373,0,0
427,-349,0,0,0,0,0,0,0,0,0,-1,1651,1373,0,0
434,-349,0,0,0,0,0,0,0,0,0,-1,1658,1373,0,0
441,-349,0,0,0,0,0,0,0,0,0,-1,1665,1373,0,0
448,-349,0,0,0,0,0,0,0,0,0,-1,1672,1373,0,0
455,-349,0,0,0,0,0,0,0,0,0,-1,1679,1373,0,0
462,-349,0,0,0,0,0,0,0,0,0,-1,1686,1373,0,0
469,-349,0,0,0,0,0,0,0,0,0,-1,1693,1373,0,0
476,-349,0,0,0,0,0,0,0,0,0,-1,1700,1373,0,0
483,-349,0,0,0,0,0,0,0,0,0,-1,1707,1373,0,0
490,-349,0,0,0,0,0,0,0,0,0,-1,1714,1373,0,0
497,-349,0,0,0,0,0,0,0,0,0,-1,1721,1373,0,0
504,-349,0,0,0,0,0,0,0,0,0,-1,1728,1373,0,0
511,-349,0,0,0,0,0,0,0,0,0,-1,1735,1373,0,0
518,-349,0,0,0,0,0,0,0,0,0,-1,1742,1373,0,0
525,-349,0,0,0,0,0,0,0,0,0,-1,1749,1373,0,0
532,-349,0,0,0,0,0,0,0,0,0,-1,1756,1373,0,0
539,-349,0,0,0,0,0,0,0,0,0,-1,1763,1373,0,0
546,-349,0,0,0,0,0,0,0,0,0,-1,1770,1373,0,0
553,-349,0,0,0,0,0,0,0,0,0,-1,1777,1373,0,0
560,-349,36.5105,6.17969,0,0,0,0,0,0,0,-1,1784,1373,36.5104,-6.17974
567,-349,36.2422,5.02686,0,0,0,0,0,0,0,-1,1791,1373,36.2422,-5.0268
574,-349,35.9885,3.77087,0,0,0,0,0,0,0,-1,1798,1373,35.9885,-3.77085
581,-349,35.2635,2.67859,0,0,0,0,0,0,0,-1,1805,1373,35.2635,-2.67863
588,-349,34.5067,2.00671,0,0,0,0,0,0,0,-1,1812,1373,34.5067,-2.00673
595,-349,32.3793,4.93115,0,0,0,0,0,0,0,-1,1819,1373,32.3793,-4.9312
602,-349,35.6641,3.26465,0,0,0,0,0,0,0,-1,1826,1373,35.6641,-3.26468
609,-349,34.7175,4.401,0,0,0,0,0,0,0,-1,1833,1373,34.7175,-4.40096
616,-349,27.1451,6.68274,0,0,0,0,0,0,0,-1,1840,1373,27.1451,-6.6828
623,-349,18.8478,2.75769,0,0,0,0,0,0,0,-1,1847,1373,18.8478,-2.75774
630,-349,15.4948,6.47644,0,0,0,0,0,0,0,-1,1854,1373,15.4947,-6.4765
637,-349,16.5161,6.92639,0,0,0,0,0,0,0,-1,1861,1373,16.5161,-6.92636
644,-349,25.5215,11.3942,0,0,0,0,0,0,0,-1,1868,1373,25.5215,-11.3941
651,-349,25.5226,10.9825,-0.00231034,0.00453308,-0.00202456,0.00508717,-0.00286443,-1.30366,0.00465026,0.0309836,1875,1373,25.5225,-10.9826
658,-349,25.4167,10.5885,-0.000878551,0.00194285,-0.000798287,0.00215306,-0.00108876,-1.31332,0.00190499,0.0257774,1882,1373,25.4168,-10.5885
665,-349,25.3999,10.1853,0.0001531,5.62964e-05,-0.000136277,0.000249315,-3.99193e-05,-0.614761,0.00018099,0.0203022,1889,1373,25.3999,-10.1854
672,-349,25.418,9.78027,0.000791685,-0.000198983,-7.04847e-05,0.000796674,-0.000203973,-0.0706742,0.000610572,0.0147303,1896,1373,25.418,-9.78026
679,-349,25.4164,9.39893,0.00124755,-0.000351549,9.19233e-05,0.00125281,-0.000356815,0.0572333,0.000976134,0.0144885,1903,1373,25.4164,-9.39887
686,-349,25.4701,9.0116,0.0016751,-0.000447049,0.000238809,0.00170164,-0.00047359,0.110688,0.0013209,0.0144027,1910,1373,25.4701,-9.01164
693,-349,25.4121,8.57813,0.0020301,-0.000487243,0.000394864,0.00209059,-0.000547727,0.151995,0.00160771,0.0168285,1917,1373,25.4121,-8.57808
700,-349,25.3865,8.17688,0.00227785,-0.000463182,0.000568012,0.0023909,-0.000576227,0.196451,0.00181673,0.0168398,1924,1373,25.3865,-8.17687
707,-349,25.4677,7.74463,0.00219265,-0.000261689,0.000765717,0.00241195,-0.000480987,0.278929,0.00178997,0.0327856,1931,1373,25.4677,-7.7446
714,-349,25.5964,7.22339,0,0,0,0,0,0,0,-1,1938,1373,25.5964,-7.22343
721,-349,19.6688,5.93604,0,0,0,0,0,0,0,-1,1945,1373,19.6688,-5.93606
728,-349,18.6333,3.73218,0,0,0,0,0,0,0,-1,1952,1373,18.6333,-3.73214
735,-349,18.1918,3.39954,0,0,0,0,0,0,0,-1,1959,1373,18.1918,-3.3995
742,-349,20.7345,2.07483,0,0,0,0,0,0,0,-1,1966,1373,20.7345,-2.07485
749,-349,21.9037,1.45789,0,0,0,0,0,0,0,-1,1973,1373,21.9037,-1.45788
756,-349,0,0,0,0,0,0,0,0,0,-1,1980,1373,0,0
763,-349,0,0,0,0,0,0,0,0,0,-1,1987,1373,0,0
770,-349,0,0,0,0,0,0,0,0,0,-1,1994,1373,0,0
777,-349,0,0,0,0,0,0,0,0,0,-1,2001,1373,0,0
784,-349,0,0,0,0,0,0,0,0,0,-1,2008,1373,0,0
791,-349,0,0,0,0,0,0,0,0,0,-1,2015,1373,0,0
798,-349,0,0,0,0,0,0,0,0,0,-1,2022,1373,0,0
805,-349,0,0,0,0,0,0,0,0,0,-1,2029,1373,0,0
812,-349,0,0,0,0,0,0,0,0,0,-1,2036,1373,0,0
-700,-356,0,0,0,0,0,0,0,0,0,-1,524,1380,0,0
-693,-356,0,0,0,0,0,0,0,0,0,-1,531,1380,0,0
-686,-356,0,0,0,0,0,0,0,0,0,-1,538,1380,0,0
-679,-356,0,0,0,0,0,0,0,0,0,-1,545,1380,0,0
-672,-356,0,0,0,0,0,0,0,0,0,-1,552,1380,0,0
-665,-356,0,0,0,0,0,0,0,0,0,-1,559,1380,0,0
-658,-356,0,0,0,0,0,0,0,0,0,-1,566,1380,0,0
-651,-356,0,0,0,0,0,0,0,0,0,-1,573,1380,0,0
-644,-356,0,0,0,0,0,0,0,0,0,-1,580,1380,0,0
-637,-356,0,0,0,0,0,0,0,0,0,-1,587,1380,0,0
-630,-356,-8.23126,-5.01917,0,0,0,0,0,0,0,-1,594,1380,-8.23124,5.0192
-623,-356,-0.263855,-0.675781,0,0,0,0,0,0,0,-1,601,1380,-0.263835,0.675841
-616,-356,-8.26532,-3.43945,0,0,0,0,0,0,0,-1,608,1380,-8.2653,3.43948
-609,-356,-4.88483,0.734497,0,0,0,0,0,0,0,-1,615,1380,-4.88485,-0.734532
-602,-356,-9.06635,2.4021,0,0,0,0,0,0,0,-1,622,1380,-9.06634,-2.40206
-595,-356,-8.45703,3.61853,0,0,0,0,0,0,0,-1,629,1380,-8.45706,-3.61848
-588,-356,-9.31738,4.14258,0,0,0,0,0,0,0,-1,636,1380,-9.31736,-4.14255
-581,-356,-12.307,5.37134,0,0,0,0,0,0,0,-1,643,1380,-12.307,-5.37128
-574,-356,-12.1738,5.68384,-0.00437033,-0.00264786,-0.00364183,0.000233181,-0.00725137,-0.901507,0.00491382,0.0425892,650,1380,-12.1738,-5.68381
-567,-356,-12.449,5.95581,-0.00305591,-0.00171906,-0.00263581,0.000331756,-0.00510673,-0.909577,0.00352029,0.0192541,657,1380,-12.449,-5.9558
-560,-356,-12.4019,6.45728,-0.00179839,-0.00120333,-0.00182115,0.000344435,-0.00334616,-0.86637,0.002354,0.0176254,664,1380,-12.4019,-6.45728
-553,-356,-12.4283,6.88538,-0.000420273,-0.000753426,-0.000941015,0.000368795,-0.00154249,-0.697797,0.00117079,0.0199626,671,1380,-12.4283,-6.88542
-546,-356,-12.5104,7.32385,0.000962974,-0.000374426,-5.08645e-05,0.000964906,-0.000376358,-0.0379593,0.000798843,0.0222155,678,1380,-12.5104,-7.32381
-539,-356,-12.4904,7.78479,0.00234736,-1.54228e-05,0.000855281,0.00262445,-0.000292521,0.313314,0.00185485,0.0163483,685,1380,-12.4903,-7.78475
-532,-356,-12.4738,8.24084,0.00377494,0.000316216,0.00179653,0.00453921,-0.000448056,0.402223,0.00318601,0.0152806,692,1380,-12.4738,-8.24087
-525,-356,-12.4672,8.69727,0.00530223,0.000685153,0.00282965,0.00664557,-0.000658193,0.443236,0.00466528,0.0121653,699,1380,-12.4672,-8.69727
-518,-356,-12.4664,9.15637,0.00681656,0.00101631,0.00390424,0.00877995,-0.000947077,0.465955,0.00619318,0.0123068,706,1380,-12.4664,-9.15641
-511,-356,-12.2455,9.70154,0.00837307,0.00147136,0.00506102,0.0110478,-0.00120334,0.486178,0.0077973,0.0432136,713,1380,-12.2455,-9.7015
-504,-356,-12.0259,10.3595,0,0,0,0,0,0,0,-1,720,1380,-12.0259,-10.3595
-497,-356,-5.68604,4.96387,0,0,0,0,0,0,0,-1,727,1380,-5.68605,-4.96385
-490,-356,-7.95288,5.5625,0,0,0,0,0,0,0,-1,734,1380,-7.95285,-5.56246
-483,-356,-7.2627,4.07446,0,0,0,0,0,0,0,-1,741,1380,-7.2627,-4.07441
-476,-356,-5.1936,4.16016,0,0,0,0,0,0,0,-1,748,1380,-5.1936,-4.16012
-469,-356,-10.0883,0.536011,0,0,0,0,0,0,0,-1,755,1380,-10.0883,-0.535989
-462,-356,-12.3481,-0.215698,0,0,0,0,0,0,0,-1,762,1380,-12.3481,0.215641
-455,-356,-13.1367,-0.264648,0,0,0,0,0,0,0,-1,769,1380,-13.1367,0.264647
-448,-356,-13.9116,-0.310181,0,0,0,0,0,0,0,-1,776,1380,-13.9115,0.310207
-441,-356,-13.1602,3.05603,0,0,0,0,0,0,0,-1,783,1380,-13.1602,-3.05609
-434,-356,0,0,0,0,0,0,0,0,0,-1,790,1380,0,0
-427,-356,0,0,0,0,0,0,0,0,0,-1,797,1380,0,0
-420,-356,0,0,0,0,0,0,0,0,0,-1,804,1380,0,0
-413,-356,0,0,0,0,0,0,0,0,0,-1,811,1380,0,0
-406,-356,0,0,0,0,0,0,0,0,0,-1,818,1380,0,0
-399,-356,0,0,0,0,0,0,0,0,0,-1,825,1380,0,0
-392,-356,0,0,0,0,0,0,0,0,0,-1,832,1380,0,0
-385,-356,0,0,0,0,0,0,0,0,0,-1,839,1380,0,0
-378,-356,0,0,0,0,0,0,0,0,0,-1,846,1380,0,0
-371,-356,0,0,0,0,0,0,0,0,0,-1,853,1380,0,0
-364,-356,0,0,0,0,0,0,0,0,0,-1,860,1380,0,0
-357,-356,0,0,0,0,0,0,0,0,0,-1,867,1380,0,0
-350,-356,0,0,0,0,0,0,0,0,0,-1,874,1380,0,0
-343,-356,0,0,0,0,0,0,0,0,0,-1,881,1380,0,0
-336,-356,0,0,0,0,0,0,0,0,0,-1,888,1380,0,0
-329,-356,0,0,0,0,0,0,0,0,0,-1,895,1380,0,0
-322,-356,0,0,0,0,0,0,0,0,0,-1,902,1380,0,0
-315,-356,0,0,0,0,0,0,0,0,0,-1,909,1380,0,0
-308,-356,0,0,0,0,0,0,0,0,0,-1,916,1380,0,0
-301,-356,0,0,0,0,0,0,0,0,0,-1,923,1380,0,0
-294,-356,0,0,0,0,0,0,0,0,0,-1,930,1380,0,0
-287,-356,0,0,0,0,0,0,0,0,0,-1,937,1380,0,0
-280,-356,0,0,0,0,0,0,0,0,0,-1,944,1380,0,0
-273,-356,0,0,0,0,0,0,0,0,0,-1,951,1380,0,0
-266,-356,0,0,0,0,0,0,0,0,0,-1,958,1380,0,0
-259,-356,0,0,0,0,0,0,0,0,0,-1,965,1380,0,0
-252,-356,0,0,0,0,0,0,0,0,0,-1,972,1380,0,0
-245,-356,0,0,0,0,0,0,0,0,0,-1,979,1380,0,0
-238,-356,0,0,0,0,0,0,0,0,0,-1,986,1380,0,0
-231,-356,0,0,0,0,0,0,0,0,0,-1,993,1380,0,0
-224,-356,0,0,0,0,0,0,0,0,0,-1,1000,1380,0,0
-217,-356,0,0,0,0,0,0,0,0,0,-1,1007,1380,0,0
-210,-356,0,0,0,0,0,0,0,0,0,-1,1014,1380,0,0
-203,-356,0,0,0,0,0,0,0,0,0,-1,1021,1380,0,0
-196,-356,0,0,0,0,0,0,0,0,0,-1,1028,1380,0,0
-189,-356,0,0,0,0,0,0,0,0,0,-1,1035,1380,0,0
-182,-356,0,0,0,0,0,0,0,0,0,-1,1042,1380,0,0
-175,-356,0,0,0,0,0,0,0,0,0,-1,1049,1380,0,0
-168,-356,0,0,0,0,0,0,0,0,0,-1,1056,1380,0,0
-161,-356,0,0,0,0,0,0,0,0,0,-1,1063,1380,0,0
-154,-356,0,0,0,0,0,0,0,0,0,-1,1070,1380,0,0
-147,-356,0,0,0,0,0,0,0,0,0,-1,1077,1380,0,0
-140,-356,0,0,0,0,0,0,0,0,0,-1,1084,1380,0,0
-133,-356,0,0,0,0,0,0,0,0,0,-1,1091,1380,0,0
-126,-356,0,0,0,0,0,0,0,0,0,-1,1098,1380,0,0
-119,-356,0,0,0,0,0,0,0,0,0,-1,1105,1380,0,0
-112,-356,0,0,0,0,0,0,0,0,0,-1,1112,1380,0,0
-105,-356,0,0,0,0,0,0,0,0,0,-1,1119,1380,0,0
-98,-356,0,0,0,0,0,0,0,0,0,-1,1126,1380,0,0
-91,-356,0,0,0,0,0,0,0,0,0,-1,1133,1380,0,0
-84,-356,0,0,0,0,0,0,0,0,0,-1,1140,1380,0,0
-77,-356,0,0,0,0,0,0,0,0,0,-1,1147,1380,0,0
-70,-356,0,0,0,0,0,0,0,0,0,-1,1154,1380,0,0
-63,-356,0,0,0,0,0,0,0,0,0,-1,1161,1380,0,0
-56,-356,0,0,0,0,0,0,0,0,0,-1,1168,1380,0,0
-49,-356,0,0,0,0,0,0,0,0,0,-1,1175,1380,0,0
-42,-356,0,0,0,0,0,0,0,0,0,-1,1182,1380,0,0
-35,-356,0,0,0,0,0,0,0,0,0,-1,1189,1380,0,0
-28,-356,0,0,0,0,0,0,0,0,0,-1,1196,1380,0,0
-21,-356,0,0,0,0,0,0,0,0,0,-1,1203,1380,0,0
-14,-356,0,0,0,0,0,0,0,0,0,-1,1210,1380,0,0
-7,-356,0,0,0,0,0,0,0,0,0,-1,1217,1380,0,0
0,-356,0,0,0,0,0,0,0,0,0,-1,1224,1380,0,0
7,-356,0,0,0,0,0,0,0,0,0,-1,1231,1380,0,0
14,-356,0,0,0,0,0,0,0,0,0,-1,1238,1380,0,0
21,-356,0,0,0,0,0,0,0,0,0,-1,1245,1380,0,0
28,-356,0,0,0,0,0,0,0,0,0,-1,1252,1380,0,0
35,-356,0,0,0,0,0,0,0,0,0,-1,1259,1380,0,0
42,-356,0,0,0,0,0,0,0,0,0,-1,1266,1380,0,0
49,-356,0,0,0,0,0,0,0,0,0,-1,1273,1380,0,0
56,-356,0,0,0,0,0,0,0,0,0,-1,1280,1380,0,0
63,-356,0,0,0,0,0,0,0,0,0,-1,1287,1380,0,0
70,-356,0,0,0,0,0,0,0,0,0,-1,1294,1380,0,0
77,-356,0,0,0,0,0,0,0,0,0,-1,1301,1380,0,0
84,-356,0,0,0,0,0,0,0,0,0,-1,1308,1380,0,0
91,-356,0,0,0,0,0,0,0,0,0,-1,1315,1380,0,0
98,-356,0,0,0,0,0,0,0,0,0,-1,1322,1380,0,0
105,-356,0,0,0,0,0,0,0,0,0,-1,1329,1380,0,0
112,-356,0,0,0,0,0,0,0,0,0,-1,1336,1380,0,0
119,-356,0,0,0,0,0,0,0,0,0,-1,1343,1380,0,0
126,-356,0,0,0,0,0,0,0,0,0,-1,1350,1380,0,0
133,-356,0,0,0,0,0,0,0,0,0,-1,1357,1380,0,0
140,-356,0,0,0,0,0,0,0,0,0,-1,1364,1380,0,0
147,-356,0,0,0,0,0,0,0,0,0,-1,1371,1380,0,0
154,-356,0,0,0,0,0,0,0,0,0,-1,1378,1380,0,0
161,-356,0,0,0,0,0,0,0,0,0,-1,1385,1380,0,0
168,-356,0,0,0,0,0,0,0,0,0,-1,1392,1380,0,0
175,-356,0,0,0,0,0,0,0,0,0,-1,1399,1380,0,0
182,-356,0,0,0,0,0,0,0,0,0,-1,1406,1380,0,0
189,-356,0,0,0,0,0,0,0,0,0,-1,1413,1380,0,0
196,-356,0,0,0,0,0,0,0,0,0,-1,1420,1380,0,0
203,-356,0,0,0,0,0,0,0,0,0,-1,1427,1380,0,0
210,-356,0,0,0,0,0,0,0,0,0,-1,1434,1380,0,0
217,-356,0,0,0,0,0,0,0,0,0,-1,1441,1380,0,0
224,-356,0,0,0,0,0,0,0,0,0,-1,1448,1380,0,0
231,-356,0,0,0,0,0,0,0,0,0,-1,1455,1380,0,0
238,-356,0,0,0,0,0,0,0,0,0,-1,1462,1380,0,0
245,-356,0,0,0,0,0,0,0,0,0,-1,1469,1380,0,0
252,-356,0,0,0,0,0,0,0,0,0,-1,1476,1380,0,0
259,-356,0,0,0,0,0,0,0,0,0,-1,1483,1380,0,0
266,-356,0,0,0,0,0,0,0,0,0,-1,1490,1380,0,0
273,-356,0,0,0,0,0,0,0,0,0,-1,1497,1380,0,0
280,-356,0,0,0,0,0,0,0,0,0,-1,1504,1380,0,0
287,-356,0,0,0,0,0,0,0,0,0,-1,1511,1380,0,0
294,-356,0,0,0,0,0,0,0,0,0,-1,1518,1380,0,0
301,-356,0,0,0,0,0,0,0,0,0,-1,1525,1380,0,0
308,-356,0,0,0,0,0,0,0,0,0,-1,1532,1380,0,0
315,-356,0,0,0,0,0,0,0,0,0,-1,1539,1380,0,0
322,-356,0,0,0,0,0,0,0,0,0,-1,1546,1380,0,0
329,-356,0,0,0,0,0,0,0,0,0,-1,1553,1380,0,0
336,-356,0,0,0,0,0,0,0,0,0,-1,1560,1380,0,0
343,-356,0,0,0,0,0,0,0,0,0,-1,1567,1380,0,0
350,-356,0,0,0,0,0,0,0,0,0,-1,1574,1380,0,0
357,-356,0,0,0,0,0,0,0,0,0,-1,1581,1380,0,0
364,-356,0,0,0,0,0,0,0,0,0,-1,1588,1380,0,0
371,-356,0,0,0,0,0,0,0,0,0,-1,1595,1380,0,0
378,-356,0,0,0,0,0,0,0,0,0,-1,1602,1380,0,0
385,-356,0,0,0,0,0,0,0,0,0,-1,1609,1380,0,0
392,-356,0,0,0,0,0,0,0,0,0,-1,1616,1380,0,0
399,-356,0,0,0,0,0,0,0,0,0,-1,1623,1380,0,0
406,-356,0,0,0,0,0,0,0,0,0,-1,1630,1380,0,0
413,-356,0,0,0,0,0,0,0,0,0,-1,1637,1380,0,0
420,-356,0,0,0,0,0,0,0,0,0,-1,1644,1380,0,0
427,-356,0,0,0,0,0,0,0,0,0,-1,1651,1380,0,0
434,-356,0,0,0,0,0,0,0,0,0,-1,1658,1380,0,0
441,-356,0,0,0,0,0,0,0,0,0,-1,1665,1380,0,0
448,-356,0,0,0,0,0,0,0,0,0,-1,1672,1380,0,0
455,-356,0,0,0,0,0,0,0,0,0,-1,1679,1380,0,0
462,-356,0,0,0,0,0,0,0,0,0,-1,1686,1380,0,0
469,-356,0,0,0,0,0,0,0,0,0,-1,1693,1380,0,0
476,-356,0,0,0,0,0,0,0,0,0,-1,1700,1380,0,0
483,-356,0,0,0,0,0,0,0,0,0,-1,1707,1380,0,0
490,-356,0,0,0,0,0,0,0,0,0,-1,1714,1380,0,0
497,-356,0,0,0,0,0,0,0,0,0,-1,1721,1380,0,0
504,-356,0,0,0,0,0,0,0,0,0,-1,1728,1380,0,0
511,-356,0,0,0,0,0,0,0,0,0,-1,1735,1380,0,0
518,-356,0,0,0,0,0,0,0,0,0,-1,1742,1380,0,0
525,-356,0,0,0,0,0,0,0,0,0,-1,1749,1380,0,0
532,-356,0,0,0,0,0,0,0,0,0,-1,1756,1380,0,0
539,-356,0,0,0,0,0,0,0,0,0,-1,1763,1380,0,0
546,-356,0,0,0,0,0,0,0,0,0,-1,1770,1380,0,0
553,-356,0,0,0,0,0,0,0,0,0,-1,1777,1380,0,0
560,-356,36.9399,5.42041,0,0,0,0,0,0,0,-1,1784,1380,36.9399,-5.4204
567,-356,36.7563,4.271,0,0,0,0,0,0,0,-1,1791,1380,36.7564,-4.27096
574,-356,36.4429,3.24304,0,0,0,0,0,0,0,-1,1798,1380,36.4429,-3.24309
581,-356,35.8042,2.13818,0,0,0,0,0,0,0,-1,1805,1380,35.8042,-2.13823
588,-356,32.496,1.32678,0,0,0,0,0,0,0,-1,1812,1380,32.496,-1.32676
595,-356,32.0834,5.86084,0,0,0,0,0,0,0,-1,1819,1380,32.0834,-5.86079
602,-356,30.1604,6.07104,0,0,0,0,0,0,0,-1,1826,1380,30.1604,-6.07104
609,-356,28.3435,6.48901,0,0,0,0,0,0,0,-1,1833,1380,28.3435,-6.48899
616,-356,26.9358,6.80872,0,0,0,0,0,0,0,-1,1840,1380,26.9358,-6.80877
623,-356,16.1803,1.07532,0,0,0,0,0,0,0,-1,1847,1380,16.1803,-1.07529
630,-356,16.4138,6.91553,0,0,0,0,0,0,0,-1,1854,1380,16.4138,-6.9155
637,-356,24.8021,12.0151,0,0,0,0,0,0,0,-1,1861,1380,24.8022,-12.0151
644,-356,25.1162,11.4502,0,0,0,0,0,0,0,-1,1868,1380,25.1162,-11.4502
651,-356,25.0823,10.9768,-0.000206389,0.00242529,-0.00196811,0.00347691,-0.00125802,-1.08006,0.002832,0.0170866,1875,1380,25.0823,-10.9768
658,-356,25.0287,10.5587,0.000135848,0.000988273,-0.000816402,0.00148302,-0.0003589,-1.02597,0.00112752,0.0138426,1882,1380,25.0287,-10.5588
665,-356,25.0057,10.2172,0.000543893,5.13422e-05,-0.00021831,0.000626724,-3.14884e-05,-0.362638,0.000428698,0.0136587,1889,1380,25.0057,-10.2171
672,-356,24.9833,9.84619,0.000972897,-0.000171927,3.08626e-05,0.000973728,-0.000172759,0.0269323,0.000713742,0.0146628,1896,1380,24.9833,-9.84616
679,-356,24.9944,9.42285,0.00143929,-0.000348083,0.000236341,0.00147001,-0.000378806,0.129269,0.00112769,0.0163883,1903,1380,24.9944,-9.42281
686,-356,25.0232,8.98926,0.00191876,-0.000493749,0.000427434,0.00199225,-0.000567241,0.170272,0.00155219,0.0167807,1910,1380,25.0232,-8.98927
693,-356,25.0093,8.58728,0.00237595,-0.000592694,0.000619338,0.00249998,-0.000716722,0.197645,0.00194997,0.0149672,1917,1380,25.0093,-8.58724
700,-356,25.0302,8.18982,0.00277101,-0.000629198,0.000825052,0.00296063,-0.00081882,0.225907,0.00229589,0.0212579,1924,1380,25.0301,-8.18978
707,-356,25.1844,7.61694,0,0,0,0,0,0,0,-1,1931,1380,25.1844,-7.61689
714,-356,19.6907,5.82129,0,0,0,0,0,0,0,-1,1938,1380,19.6907,-5.82132
721,-356,17.2948,4.1958,0,0,0,0,0,0,0,-1,1945,1380,17.2948,-4.19584
728,-356,19.1846,2.31519,0,0,0,0,0,0,0,-1,1952,1380,19.1846,-2.31514
735,-356,20.0731,2.50842,0,0,0,0,0,0,0,-1,1959,1380,20.0731,-2.50844
742,-356,21.0111,2.43762,0,0,0,0,0,0,0,-1,1966,1380,21.0112,-2.43762
749,-356,22.1411,1.83276,0,0,0,0,0,0,0,-1,1973,1380,22.1411,-1.83275
756,-356,0,0,0,0,0,0,0,0,0,-1,1980,1380,0,0
763,-356,0,0,0,0,0,0,0,0,0,-1,1987,1380,0,0
770,-356,0,0,0,0,0,0,0,0,0,-1,1994,1380,0,0
777,-356,0,0,0,0,0,0,0,0,0,-1,2001,1380,0,0
784,-356,0,0,0,0,0,0,0,0,0,-1,2008,1380,0,0
791,-356,0,0,0,0,0,0,0,0,0,-1,2015,1380,0,0
798,-356,0,0,0,0,0,0,0,0,0,-1,2022,1380,0,0
805,-356,0,0,0,0,0,0,0,0,0,-1,2029,1380,0,0
812,-356,0,0,0,0,0,0,0,0,0,-1,2036,1380,0,0
-700,-363,0,0,0,0,0,0,0,0,0,-1,524,1387,0,0
-693,-363,0,0,0,0,0,0,0,0,0,-1,531,1387,0,0
-686,-363,0,0,0,0,0,0,0,0,0,-1,538,1387,0,0
-679,-363,0,0,0,0,0,0,0,0,0,-1,545,1387,0,0
-672,-363,0,0,0,0,0,0,0,0,0,-1,552,1387,0,0
-665,-363,0,0,0,0,0,0,0,0,0,-1,559,1387,0,0
-658,-363,0,0,0,0,0,0,0,0,0,-1,566,1387,0,0
-651,-363,0,0,0,0,0,0,0,0,0,-1,573,1387,0,0
-644,-363,0,0,0,0,0,0,0,0,0,-1,580,1387,0,0
-637,-363,0,0,0,0,0,0,0,0,0,-1,587,1387,0,0
-630,-363,0,0,0,0,0,0,0,0,0,-1,594,1387,0,0
-623,-363,-9.67566,-5.91846,0,0,0,0,0,0,0,-1,601,1387,-9.67563,5.91847
-616,-363,-9.02985,-2.98083,0,0,0,0,0,0,0,-1,608,1387,-9.02987,2.98079
-609,-363,-4.90265,0.195679,0,0,0,0,0,0,0,-1,615,1387,-4.90263,-0.195721
-602,-363,-9.65009,3.5321,0,0,0,0,0,0,0,-1,622,1387,-9.65007,-3.53211
-595,-363,-8.00256,3.48853,0,0,0,0,0,0,0,-1,629,1387,-8.00256,-3.48855
-588,-363,-10.748,4.77527,0,0,0,0,0,0,0,-1,636,1387,-10.748,-4.77527
-581,-363,-11.1141,5.32556,0,0,0,0,0,0,0,-1,643,1387,-11.1141,-5.32556
-574,-363,-11.9491,5.51416,0,0,0,0,0,0,0,-1,650,1387,-11.9491,-5.51414
-567,-363,-11.9881,6.02209,-0.00416495,-0.00202917,-0.00330424,0.000375453,-0.00656958,-0.941694,0.00451008,0.0358585,657,1387,-11.9881,-6.02213
-560,-363,-11.9683,6.4209,-0.00266808,-0.00141734,-0.0023655,0.000404061,-0.00448948,-0.914627,0.00313636,0.0137178,664,1387,-11.9683,-6.42085
-553,-363,-11.9736,6.89758,-0.00113528,-0.000900932,-0.00140313,0.000389905,-0.00242611,-0.827056,0.00176182,0.0134177,671,1387,-11.9737,-6.89756
-546,-363,-11.988,7.34399,0.0003137,-0.000475409,-0.000464228,0.000528392,-0.000690101,-0.433176,0.000705559,0.0135084,678,1387,-11.9881,-7.34405
-539,-363,-11.9631,7.79065,0.00169876,-7.80052e-05,0.000459522,0.00181057,-0.000189815,0.238679,0.00127504,0.0157759,685,1387,-11.9631,-7.79062
-532,-363,-12.0053,8.24805,0.00305846,0.000297672,0.00139178,0.00363831,-0.00028217,0.394752,0.00252486,0.0130999,692,1387,-12.0053,-8.24804
-525,-363,-12.0267,8.69202,0.00444924,0.000742529,0.00239535,0.00562451,-0.000432748,0.45614,0.00390193,0.0103806,699,1387,-12.0266,-8.69204
-518,-363,-12.011,9.15833,0.00576662,0.00115297,0.00339419,0.00756369,-0.000644104,0.486933,0.0052703,0.00964584,706,1387,-12.0111,-9.15833
-511,-363,-11.9808,9.64673,0.00705669,0.00168261,0.00443967,0.00955915,-0.000819842,0.513268,0.00666288,0.0221924,713,1387,-11.9808,-9.64672
-504,-363,-11.6489,10.2421,0,0,0,0,0,0,0,-1,720,1387,-11.6489,-10.2421
-497,-363,-7.18842,7.29944,0,0,0,0,0,0,0,-1,727,1387,-7.18839,-7.29945
-490,-363,-5.42413,4.6958,0,0,0,0,0,0,0,-1,734,1387,-5.42412,-4.69583
-483,-363,-6.28375,4.1394,0,0,0,0,0,0,0,-1,741,1387,-6.28374,-4.13944
-476,-363,-5.83807,4.31018,0,0,0,0,0,0,0,-1,748,1387,-5.8381,-4.31013
-469,-363,-10.7125,0.697754,0,0,0,0,0,0,0,-1,755,1387,-10.7125,-0.697811
-462,-363,-9.55951,-0.0830078,0,0,0,0,0,0,0,-1,762,1387,-9.55949,0.0830163
-455,-363,-13.1008,-0.290894,0,0,0,0,0,0,0,-1,769,1387,-13.1008,0.290921
-448,-363,-11.7324,2.46606,0,0,0,0,0,0,0,-1,776,1387,-11.7324,-2.46605
-441,-363,-12.4464,2.5354,0,0,0,0,0,0,0,-1,783,1387,-12.4463,-2.53537
-434,-363,-13.6918,2.14661,0,0,0,0,0,0,0,-1,790,1387,-13.6918,-2.14662
-427,-363,0,0,0,0,0,0,0,0,0,-1,797,1387,0,0
-420,-363,0,0,0,0,0,0,0,0,0,-1,804,1387,0,0
-413,-363,0,0,0,0,0,0,0,0,0,-1,811,1387,0,0
-406,-363,0,0,0,0,0,0,0,0,0,-1,818,1387,0,0
-399,-363,0,0,0,0,0,0,0,0,0,-1,825,1387,0,0
-392,-363,0,0,0,0,0,0,0,0,0,-1,832,1387,0,0
-385,-363,0,0,0,0,0,0,0,0,0,-1,839,1387,0,0
-378,-363,0,0,0,0,0,0,0,0,0,-1,846,1387,0,0
-371,-363,0,0,0,0,0,0,0,0,0,-1,853,1387,0,0
-364,-363,0,0,0,0,0,0,0,0,0,-1,860,1387,0,0
-357,-363,0,0,0,0,0,0,0,0,0,-1,867,1387,0,0
-350,-363,0,0,0,0,0,0,0,0,0,-1,874,1387,0,0
-343,-363,0,0,0,0,0,0,0,0,0,-1,881,1387,0,0
-336,-363,0,0,0,0,0,0,0,0,0,-1,888,1387,0,0
-329,-363,0,0,0,0,0,0,0,0,0,-1,895,1387,0,0
-322,-363,0,0,0,0,0,0,0,0,0,-1,902,1387,0,0
-315,-363,0,0,0,0,0,0,0,0,0,-1,909,1387,0,0
-308,-363,0,0,0,0,0,0,0,0,0,-1,916,1387,0,0
-301,-363,0,0,0,0,0,0,0,0,0,-1,923,1387,0,0
-294,-363,0,0,0,0,0,0,0,0,0,-1,930,1387,0,0
-287,-363,0,0,0,0,0,0,0,0,0,-1,937,1387,0,0
-280,-363,0,0,0,0,0,0,0,0,0,-1,944,1387,0,0
-273,-363,0,0,0,0,0,0,0,0,0,-1,951,1387,0,0
-266,-363,0,0,0,0,0,0,0,0,0,-1,958,1387,0,0
-259,-363,0,0,0,0,0,0,0,0,0,-1,965,1387,0,0
-252,-363,0,0,0,0,0,0,0,0,0,-1,972,1387,0,0
-245,-363,0,0,0,0,0,0,0,0,0,-1,979,1387,0,0
-238,-363,0,0,0,0,0,0,0,0,0,-1,986,1387,0,0
-231,-363,0,0,0,0,0,0,0,0,0,-1,993,1387,0,0
-224,-363,0,0,0,0,0,0,0,0,0,-1,1000,1387,0,0
-217,-363,0,0,0,0,0,0,0,0,0,-1,1007,1387,0,0
-210,-363,0,0,0,0,0,0,0,0,0,-1,1014,1387,0,0
-203,-363,0,0,0,0,0,0,0,0,0,-1,1021,1387,0,0
-196,-363,0,0,0,0,0,0,0,0,0,-1,1028,1387,0,0
-189,-363,0,0,0,0,0,0,0,0,0,-1,1035,1387,0,0
-182,-363,0,0,0,0,0,0,0,0,0,-1,1042,1387,0,0
-175,-363,0,0,0,0,0,0,0,0,0,-1,1049,1387,0,0
-168,-363,0,0,0,0,0,0,0,0,0,-1,1056,1387,0,0
-161,-363,0,0,0,0,0,0,0,0,0,-1,1063,1387,0,0
-154,-363,0,0,0,0,0,0,0,0,0,-1,1070,1387,0,0
-147,-363,0,0,0,0,0,0,0,0,0,-1,1077,1387,0,0
-140,-363,0,0,0,0,0,0,0,0,0,-1,1084,1387,0,0
-133,-363,0,0,0,0,0,0,0,0,0,-1,1091,1387,0,0
-126,-363,0,0,0,0,0,0,0,0,0,-1,1098,1387,0,0
-119,-363,0,0,0,0,0,0,0,0,0,-1,1105,1387,0,0
-112,-363,0,0,0,0,0,0,0,0,0,-1,1112,1387,0,0
-105,-363,0,0,0,0,0,0,0,0,0,-1,1119,1387,0,0
-98,-363,0,0,0,0,0,0,0,0,0,-1,1126,1387,0,0
-91,-363,0,0,0,0,0,0,0,0,0,-1,1133,1387,0,0
-84,-363,0,0,0,0,0,0,0,0,0,-1,1140,1387,0,0
-77,-363,0,0,0,0,0,0,0,0,0,-1,1147,1387,0,0
-70,-363,0,0,0,0,0,0,0,0,0,-1,1154,1387,0,0
-63,-363,0,0,0,0,0,0,0,0,0,-1,1161,1387,0,0
-56,-363,0,0,0,0,0,0,0,0,0,-1,1168,1387,0,0
-49,-363,0,0,0,0,0,0,0,0,0,-1,1175,1387,0,0
-42,-363,0,0,0,0,0,0,0,0,0,-1,1182,1387,0,0
-35,-363,0,0,0,0,0,0,0,0,0,-1,1189,1387,0,0
-28,-363,0,0,0,0,0,0,0,0,0,-1,1196,1387,0,0
-21,-363,0,0,0,0,0,0,0,0,0,-1,1203,1387,0,0
-14,-363,0,0,0,0,0,0,0,0,0,-1,1210,1387,0,0
-7,-363,0,0,0,0,0,0,0,0,0,-1,1217,1387,0,0
0,-363,0,0,0,0,0,0,0,0,0,-1,1224,1387,0,0
7,-363,0,0,0,0,0,0,0,0,0,-1,1231,1387,0,0
14,-363,0,0,0,0,0,0,0,0,0,-1,1238,1387,0,0
21,-363,0,0,0,0,0,0,0,0,0,-1,1245,1387,0,0
28,-363,0,0,0,0,0,0,0,0,0,-1,1252,1387,0,0
35,-363,0,0,0,0,0,0,0,0,0,-1,1259,1387,0,0
42,-363,0,0,0,0,0,0,0,0,0,-1,1266,1387,0,0
49,-363,0,0,0,0,0,0,0,0,0,-1,1273,1387,0,0
56,-363,0,0,0,0,0,0,0,0,0,-1,1280,1387,0,0
63,-363,0,0,0,0,0,0,0,0,0,-1,1287,1387,0,0
70,-363,0,0,0,0,0,0,0,0,0,-1,1294,1387,0,0
77,-363,0,0,0,0,0,0,0,0,0,-1,1301,1387,0,0
84,-363,0,0,0,0,0,0,0,0,0,-1,1308,1387,0,0
91,-363,0,0,0,0,0,0,0,0,0,-1,1315,1387,0,0
98,-363,0,0,0,0,0,0,0,0,0,-1,1322,1387,0,0
105,-363,0,0,0,0,0,0,0,0,0,-1,1329,1387,0,0
112,-363,0,0,0,0,0,0,0,0,0,-1,1336,1387,0,0
119,-363,0,0,0,0,0,0,0,0,0,-1,1343,1387,0,0
126,-363,0,0,0,0,0,0,0,0,0,-1,1350,1387,0,0
133,-363,0,0,0,0,0,0,0,0,0,-1,1357,1387,0,0
140,-363,0,0,0,0,0,0,0,0,0,-1,1364,1387,0,0
147,-363,0,0,0,0,0,0,0,0,0,-1,1371,1387,0,0
154,-363,0,0,0,0,0,0,0,0,0,-1,1378,1387,0,0
161,-363,0,0,0,0,0,0,0,0,0,-1,1385,1387,0,0
168,-363,0,0,0,0,0,0,0,0,0,-1,1392,1387,0,0
175,-363,0,0,0,0,0,0,0,0,0,-1,1399,1387,0,0
182,-363,0,0,0,0,0,0,0,0,0,-1,1406,1387,0,0
189,-363,0,0,0,0,0,0,0,0,0,-1,1413,1387,0,0
196,-363,0,0,0,0,0,0,0,0,0,-1,1420,1387,0,0
203,-363,0,0,0,0,0,0,0,0,0,-1,1427,1387,0,0
210,-363,0,0,0,0,0,0,0,0,0,-1,1434,1387,0,0
217,-363,0,0,0,0,0,0,0,0,0,-1,1441,1387,0,0
224,-363,0,0,0,0,0,0,0,0,0,-1,1448,1387,0,0
231,-363,0,0,0,0,0,0,0,0,0,-1,1455,1387,0,0
238,-363,0,0,0,0,0,0,0,0,0,-1,1462,1387,0,0
245,-363,0,0,0,0,0,0,0,0,0,-1,1469,1387,0,0
252,-363,0,0,0,0,0,0,0,0,0,-1,1476,1387,0,0
259,-363,0,0,0,0,0,0,0,0,0,-1,1483,1387,0,0
266,-363,0,0,0,0,0,0,0,0,0,-1,1490,1387,0,0
273,-363,0,0,0,0,0,0,0,0,0,-1,1497,1387,0,0
280,-363,0,0,0,0,0,0,0,0,0,-1,1504,1387,0,0
287,-363,0,0,0,0,0,0,0,0,0,-1,1511,1387,0,0
294,-363,0,0,0,0,0,0,0,0,0,-1,1518,1387,0,0
301,-363,0,0,0,0,0,0,0,0,0,-1,1525,1387,0,0
308,-363,0,0,0,0,0,0,0,0,0,-1,1532,1387,0,0
315,-363,0,0,0,0,0,0,0,0,0,-1,1539,1387,0,0
322,-363,0,0,0,0,0,0,0,0,0,-1,1546,1387,0,0
329,-363,0,0,0,0,0,0,0,0,0,-1,1553,1387,0,0
336,-363,0,0,0,0,0,0,0,0,0,-1,1560,1387,0,0
343,-363,0,0,0,0,0,0,0,0,0,-1,1567,1387,0,0
350,-363,0,0,0,0,0,0,0,0,0,-1,1574,1387,0,0
357,-363,0,0,0,0,0,0,0,0,0,-1,1581,1387,0,0
364,-363,0,0,0,0,0,0,0,0,0,-1,1588,1387,0,0
371,-363,0,0,0,0,0,0,0,0,0,-1,1595,1387,0,0
378,-363,0,0,0,0,0,0,0,0,0,-1,1602,1387,0,0
385,-363,0,0,0,0,0,0,0,0,0,-1,1609,1387,0,0
392,-363,0,0,0,0,0,0,0,0,0,-1,1616,1387,0,0
399,-363,0,0,0,0,0,0,0,0,0,-1,1623,1387,0,0
406,-363,0,0,0,0,0,0,0,0,0,-1,1630,1387,0,0
413,-363,0,0,0,0,0,0,0,0,0,-1,1637,1387,0,0
420,-363,0,0,0,0,0,0,0,0,0,-1,1644,1387,0,0
427,-363,0,0,0,0,0,0,0,0,0,-1,1651,1387,0,0
434,-363,0,0,0,0,0,0,0,0,0,-1,1658,1387,0,0
441,-363,0,0,0,0,0,0,0,0,0,-1,1665,1387,0,0
448,-363,0,0,0,0,0,0,0,0,0,-1,1672,1387,0,0
455,-363,0,0,0,0,0,0,0,0,0,-1,1679,1387,0,0
462,-363,0,0,0,0,0,0,0,0,0,-1,1686,1387,0,0
469,-363,0,0,0,0,0,0,0,0,0,-1,1693,1387,0,0
476,-363,0,0,0,0,0,0,0,0,0,-1,1700,1387,0,0
483,-363,0,0,0,0,0,0,0,0,0,-1,1707,1387,0,0
490,-363,0,0,0,0,0,0,0,0,0,-1,1714,1387,0,0
497,-363,0,0,0,0,0,0,0,0,0,-1,1721,1387,0,0
504,-363,0,0,0,0,0,0,0,0,0,-1,1728,1387,0,0
511,-363,0,0,0,0,0,0,0,0,0,-1,1735,1387,0,0
518,-363,0,0,0,0,0,0,0,0,0,-1,1742,1387,0,0
525,-363,0,0,0,0,0,0,0,0,0,-1,1749,1387,0,0
532,-363,0,0,0,0,0,0,0,0,0,-1,1756,1387,0,0
539,-363,0,0,0,0,0,0,0,0,0,-1,1763,1387,0,0
546,-363,0,0,0,0,0,0,0,0,0,-1,1770,1387,0,0
553,-363,37.9039,5.52307,0,0,0,0,0,0,0,-1,1777,1387,37.9039,-5.52309
560,-363,37.6345,4.26685,0,0,0,0,0,0,0,-1,1784,1387,37.6345,-4.26688
567,-363,37.2367,3.52637,0,0,0,0,0,0,0,-1,1791,1387,37.2367,-3.52642
574,-363,36.9333,2.89648,0,0,0,0,0,0,0,-1,1798,1387,36.9333,-2.89643
581,-363,37.0035,3.00439,0,0,0,0,0,0,0,-1,1805,1387,37.0035,-3.00435
588,-363,32.5608,6.72131,0,0,0,0,0,0,0,-1,1812,1387,32.5608,-6.72131
595,-363,31.4688,6.95435,0,0,0,0,0,0,0,-1,1819,1387,31.4688,-6.95431
602,-363,25.7437,5.33667,0,0,0,0,0,0,0,-1,1826,1387,25.7437,-5.33667
609,-363,27.7048,7.06885,0,0,0,0,0,0,0,-1,1833,1387,27.7048,-7.06882
616,-363,16.229,1.08704,0,0,0,0,0,0,0,-1,1840,1387,16.229,-1.08706
623,-363,15.7283,7.16663,0,0,0,0,0,0,0,-1,1847,1387,15.7282,-7.16665
630,-363,18.3192,9.27844,0,0,0,0,0,0,0,-1,1854,1387,18.3192,-9.27843
637,-363,24.6211,11.9828,0,0,0,0,0,0,0,-1,1861,1387,24.6211,-11.9828
644,-363,24.6403,11.474,-1.80631e-05,0.00165889,-0.00174427,0.00275575,-0.00111492,-1.00944,0.00230069,0.014823,1868,1387,24.6402,-11.4739
651,-363,24.6445,11.0095,8.64326e-05,0.000993383,-0.00110375,0.00173318,-0.000653367,-0.98031,0.00142411,0.0111965,1875,1387,24.6445,-11.0095
658,-363,24.6367,10.5864,0.000454266,0.000409176,-0.000514655,0.00094687,-8.34278e-05,-0.763509,0.000660814,0.0113301,1882,1387,24.6367,-10.5864
665,-363,24.6116,10.2408,0.000851655,4.88529e-05,-0.000193465,0.000895845,4.66272e-06,-0.224562,0.000595682,0.0114189,1889,1387,24.6116,-10.2409
672,-363,24.5841,9.8822,0.00124727,-0.0001944,0.00010184,0.00125443,-0.000201559,0.0701757,0.000910936,0.0133408,1896,1387,24.5841,-9.8822
679,-363,24.5857,9.46387,0.0017347,-0.000389709,0.000346633,0.00178983,-0.000444837,0.157719,0.00136586,0.0142553,1903,1387,24.5856,-9.46391
686,-363,24.6068,9.00977,0.00227166,-0.000585579,0.000586107,0.00238721,-0.000701134,0.19466,0.00186954,0.0146791,1910,1387,24.6068,-9.00971
693,-363,24.5896,8.57861,0.00284843,-0.000741393,0.000809897,0.00302269,-0.000915654,0.211933,0.00237981,0.0136216,1917,1387,24.5896,-8.57867
700,-363,24.7303,8.15186,0.00342948,-0.00083574,0.00103724,0.00366834,-0.0010746,0.226342,0.00287159,0.0244359,1924,1387,24.7303,-8.15187
707,-363,24.995,7.76013,0,0,0,0,0,0,0,-1,1931,1387,24.995,-7.76012
714,-363,16.5782,5.3147,0,0,0,0,0,0,0,-1,1938,1387,16.5783,-5.31472
721,-363,14.4045,4.51685,0,0,0,0,0,0,0,-1,1945,1387,14.4045,-4.51685
728,-363,19.9756,0.853027,0,0,0,0,0,0,0,-1,1952,1387,19.9756,-0.853059
735,-363,21.4297,1.2981,0,0,0,0,0,0,0,-1,1959,1387,21.4297,-1.29811
742,-363,21.3621,2.79663,0,0,0,0,0,0,0,-1,1966,1387,21.362,-2.7966
749,-363,0,0,0,0,0,0,0,0,0,-1,1973,1387,0,0
756,-363,0,0,0,0,0,0,0,0,0,-1,1980,1387,0,0
763,-363,0,0,0,0,0,0,0,0,0,-1,1987,1387,0,0
770,-363,0,0,0,0,0,0,0,0,0,-1,1994,1387,0,0
777,-363,0,0,0,0,0,0,0,0,0,-1,2001,1387,0,0
784,-363,0,0,0,0,0,0,0,0,0,-1,2008,1387,0,0
791,-363,0,0,0,0,0,0,0,0,0,-1,2015,1387,0,0
798,-363,0,0,0,0,0,0,0,0,0,-1,2022,1387,0,0
805,-363,0,0,0,0,0,0,0,0,0,-1,2029,1387,0,0
812,-363,0,0,0,0,0,0,0,0,0,-1,2036,1387,0,0
-700,-370,0,0,0,0,0,0,0,0,0,-1,524,1394,0,0
-693,-370,0,0,0,0,0,0,0,0,0,-1,531,1394,0,0
-686,-370,0,0,0,0,0,0,0,0,0,-1,538,1394,0,0
-679,-370,0,0,0,0,0,0,0,0,0,-1,545,1394,0,0
-672,-370,0,0,0,0,0,0,0,0,0,-1,552,1394,0,0
-665,-370,0,0,0,0,0,0,0,0,0,-1,559,1394,0,0
-658,-370,0,0,0,0,0,0,0,0,0,-1,566,1394,0,0
-651,-370,0,0,0,0,0,0,0,0,0,-1,573,1394,0,0
-644,-370,0,0,0,0,0,0,0,0,0,-1,580,1394,0,0
-637,-370,0,0,0,0,0,0,0,0,0,-1,587,1394,0,0
-630,-370,0,0,0,0,0,0,0,0,0,-1,594,1394,0,0
-623,-370,-10.1758,-7.10486,0,0,0,0,0,0,0,-1,601,1394,-10.1758,7.10483
-616,-370,-8.85925,-1.61475,0,0,0,0,0,0,0,-1,608,1394,-8.85925,1.61476
-609,-370,-5.39325,0.0421143,0,0,0,0,0,0,0,-1,615,1394,-5.39328,-0.0421372
-602,-370,-12.3151,3.44592,0,0,0,0,0,0,0,-1,622,1394,-12.3151,-3.44595
-595,-370,-7.53284,5.44214,0,0,0,0,0,0,0,-1,629,1394,-7.53284,-5.44216
-588,-370,-10.5898,4.79407,0,0,0,0,0,0,0,-1,636,1394,-10.5898,-4.79403
-581,-370,-11.4446,5.47974,0,0,0,0,0,0,0,-1,643,1394,-11.4446,-5.47971
-574,-370,-11.3311,5.90442,0,0,0,0,0,0,0,-1,650,1394,-11.3311,-5.90439
-567,-370,-11.3543,6.10999,-0.00543414,-0.00228968,-0.00403525,0.000468806,-0.00819263,-0.971163,0.00562454,0.0451094,657,1394,-11.3543,-6.11003
-560,-370,-11.566,6.4071,-0.00373035,-0.00159563,-0.00297525,0.000497919,-0.0058239,-0.957621,0.00405877,0.0217981,664,1394,-11.566,-6.40713
-553,-370,-11.5258,6.89941,-0.00205856,-0.00103253,-0.00193788,0.000459095,-0.00355018,-0.914795,0.00253372,0.0107746,671,1394,-11.5258,-6.89935
-546,-370,-11.5001,7.33704,-0.000536582,-0.000582873,-0.000952409,0.000392962,-0.00151242,-0.773249,0.00116164,0.0147019,678,1394,-11.5001,-7.33706
-539,-370,-11.4668,7.82397,0.000869962,-0.000172654,-1.13594e-05,0.000870086,-0.000172778,-0.0108933,0.000645406,0.0193182,685,1394,-11.4668,-7.82403
-532,-370,-11.5485,8.26685,0.00221928,0.000226511,0.000921414,0.00258002,-0.000134228,0.373163,0.00176646,0.0194244,692,1394,-11.5485,-8.26684
-525,-370,-11.5707,8.69653,0.00356056,0.000708953,0.00190863,0.00451715,-0.000247635,0.464599,0.00309728,0.0150015,699,1394,-11.5707,-8.69656
-518,-370,-11.5623,9.15186,0.00484248,0.00118897,0.00289455,0.0064385,-0.000407054,0.503911,0.00443425,0.0114056,706,1394,-11.5623,-9.15191
-511,-370,-11.5469,9.63574,0.00608459,0.00177679,0.00391293,0.00839727,-0.000535895,0.533801,0.00578509,0.0154954,713,1394,-11.5469,-9.63579
-504,-370,-11.4289,10.1523,0.00743623,0.00266232,0.00513799,0.0107146,-0.000616102,0.567946,0.00735707,0.0460618,720,1394,-11.4289,-10.1523
-497,-370,-11.2342,10.6116,0,0,0,0,0,0,0,-1,727,1394,-11.2342,-10.6116
-490,-370,-5.30695,4.5271,0,0,0,0,0,0,0,-1,734,1394,-5.30698,-4.52704
-483,-370,-6.02997,4.59253,0,0,0,0,0,0,0,-1,741,1394,-6.02994,-4.5925
-476,-370,-6.75293,4.65796,0,0,0,0,0,0,0,-1,748,1394,-6.7529,-4.65795
-469,-370,-10.584,1.14294,0,0,0,0,0,0,0,-1,755,1394,-10.584,-1.14293
-462,-370,-9.54462,0.387207,0,0,0,0,0,0,0,-1,762,1394,-9.5446,-0.387176
-455,-370,-8.50525,-0.36853,0,0,0,0,0,0,0,-1,769,1394,-8.50523,0.368582
-448,-370,-10.9543,2.28833,0,0,0,0,0,0,0,-1,776,1394,-10.9543,-2.28835
-441,-370,-11.8699,1.8313,0,0,0,0,0,0,0,-1,783,1394,-11.8699,-1.83127
-434,-370,-12.7855,1.37415,0,0,0,0,0,0,0,-1,790,1394,-12.7855,-1.37419
-427,-370,0,0,0,0,0,0,0,0,0,-1,797,1394,0,0
-420,-370,0,0,0,0,0,0,0,0,0,-1,804,1394,0,0
-413,-370,0,0,0,0,0,0,0,0,0,-1,811,1394,0,0
-406,-370,0,0,0,0,0,0,0,0,0,-1,818,1394,0,0
-399,-370,0,0,0,0,0,0,0,0,0,-1,825,1394,0,0
-392,-370,0,0,0,0,0,0,0,0,0,-1,832,1394,0,0
-385,-370,0,0,0,0,0,0,0,0,0,-1,839,1394,0,0
-378,-370,0,0,0,0,0,0,0,0,0,-1,846,1394,0,0
-371,-370,0,0,0,0,0,0,0,0,0,-1,853,1394,0,0
-364,-370,0,0,0,0,0,0,0,0,0,-1,860,1394,0,0
-357,-370,0,0,0,0,0,0,0,0,0,-1,867,1394,0,0
-350,-370,0,0,0,0,0,0,0,0,0,-1,874,1394,0,0
-343,-370,0,0,0,0,0,0,0,0,0,-1,881,1394,0,0
-336,-370,0,0,0,0,0,0,0,0,0,-1,888,1394,0,0
-329,-370,0,0,0,0,0,0,0,0,0,-1,895,1394,0,0
-322,-370,0,0,0,0,0,0,0,0,0,-1,902,1394,0,0
-315,-370,0,0,0,0,0,0,0,0,0,-1,909,1394,0,0
-308,-370,0,0,0,0,0,0,0,0,0,-1,916,1394,0,0
-301,-370,0,0,0,0,0,0,0,0,0,-1,923,1394,0,0
-294,-370,0,0,0,0,0,0,0,0,0,-1,930,1394,0,0
-287,-370,0,0,0,0,0,0,0,0,0,-1,937,1394,0,0
-280,-370,0,0,0,0,0,0,0,0,0,-1,944,1394,0,0
-273,-370,0,0,0,0,0,0,0,0,0,-1,951,1394,0,0
-266,-370,0,0,0,0,0,0,0,0,0,-1,958,1394,0,0
-259,-370,0,0,0,0,0,0,0,0,0,-1,965,1394,0,0
-252,-370,0,0,0,0,0,0,0,0,0,-1,972,1394,0,0
-245,-370,0,0,0,0,0,0,0,0,0,-1,979,1394,0,0
-238,-370,0,0,0,0,0,0,0,0,0,-1,986,1394,0,0
-231,-370,0,0,0,0,0,0,0,0,0,-1,993,1394,0,0
-224,-370,0,0,0,0,0,0,0,0,0,-1,1000,1394,0,0
-217,-370,0,0,0,0,0,0,0,0,0,-1,1007,1394,0,0
-210,-370,0,0,0,0,0,0,0,0,0,-1,1014,1394,0,0
-203,-370,0,0,0,0,0,0,0,0,0,-1,1021,1394,0,0
-196,-370,0,0,0,0,0,0,0,0,0,-1,1028,1394,0,0
-189,-370,0,0,0,0,0,0,0,0,0,-1,1035,1394,0,0
-182,-370,0,0,0,0,0,0,0,0,0,-1,1042,1394,0,0
-175,-370,0,0,0,0,0,0,0,0,0,-1,1049,1394,0,0
-168,-370,0,0,0,0,0,0,0,0,0,-1,1056,1394,0,0
-161,-370,0,0,0,0,0,0,0,0,0,-1,1063,1394,0,0
-154,-370,0,0,0,0,0,0,0,0,0,-1,1070,1394,0,0
-147,-370,0,0,0,0,0,0,0,0,0,-1,1077,1394,0,0
-140,-370,0,0,0,0,0,0,0,0,0,-1,1084,1394,0,0
-133,-370,0,0,0,0,0,0,0,0,0,-1,1091,1394,0,0
-126,-370,0,0,0,0,0,0,0,0,0,-1,1098,1394,0,0
-119,-370,0,0,0,0,0,0,0,0,0,-1,1105,1394,0,0
-112,-370,0,0,0,0,0,0,0,0,0,-1,1112,1394,0,0
-105,-370,0,0,0,0,0,0,0,0,0,-1,1119,1394,0,0
-98,-370,0,0,0,0,0,0,0,0,0,-1,1126,1394,0,0
-91,-370,0,0,0,0,0,0,0,0,0,-1,1133,1394,0,0
-84,-370,0,0,0,0,0,0,0,0,0,-1,1140,1394,0,0
-77,-370,0,0,0,0,0,0,0,0,0,-1,1147,1394,0,0
-70,-370,0,0,0,0,0,0,0,0,0,-1,1154,1394,0,0
-63,-370,0,0,0,0,0,0,0,0,0,-1,1161,1394,0,0
-56,-370,0,0,0,0,0,0,0,0,0,-1,1168,1394,0,0
-49,-370,0,0,0,0,0,0,0,0,0,-1,1175,1394,0,0
-42,-370,0,0,0,0,0,0,0,0,0,-1,1182,1394,0,0
-35,-370,0,0,0,0,0,0,0,0,0,-1,1189,1394,0,0
-28,-370,0,0,0,0,0,0,0,0,0,-1,1196,1394,0,0
-21,-370,0,0,0,0,0,0,0,0,0,-1,1203,1394,0,0
-14,-370,0,0,0,0,0,0,0,0,0,-1,1210,1394,0,0
-7,-370,0,0,0,0,0,0,0,0,0,-1,1217,1394,0,0
0,-370,0,0,0,0,0,0,0,0,0,-1,1224,1394,0,0
7,-370,0,0,0,0,0,0,0,0,0,-1,1231,1394,0,0
14,-370,0,0,0,0,0,0,0,0,0,-1,1238,1394,0,0
21,-370,0,0,0,0,0,0,0,0,0,-1,1245,1394,0,0
28,-370,0,0,0,0,0,0,0,0,0,-1,1252,1394,0,0
35,-370,0,0,0,0,0,0,0,0,0,-1,1259,1394,0,0
42,-370,0,0,0,0,0,0,0,0,0,-1,1266,1394,0,0
49,-370,0,0,0,0,0,0,0,0,0,-1,1273,1394,0,0
56,-370,0,0,0,0,0,0,0,0,0,-1,1280,1394,0,0
63,-370,0,0,0,0,0,0,0,0,0,-1,1287,1394,0,0
70,-370,0,0,0,0,0,0,0,0,0,-1,1294,1394,0,0
77,-370,0,0,0,0,0,0,0,0,0,-1,1301,1394,0,0
84,-370,0,0,0,0,0,0,0,0,0,-1,1308,1394,0,0
91,-370,0,0,0,0,0,0,0,0,0,-1,1315,1394,0,0
98,-370,0,0,0,0,0,0,0,0,0,-1,1322,1394,0,0
105,-370,0,0,0,0,0,0,0,0,0,-1,1329,1394,0,0
112,-370,0,0,0,0,0,0,0,0,0,-1,1336,1394,0,0
119,-370,0,0,0,0,0,0,0,0,0,-1,1343,1394,0,0
126,-370,0,0,0,0,0,0,0,0,0,-1,1350,1394,0,0
133,-370,0,0,0,0,0,0,0,0,0,-1,1357,1394,0,0
140,-370,0,0,0,0,0,0,0,0,0,-1,1364,1394,0,0
147,-370,0,0,0,0,0,0,0,0,0,-1,1371,1394,0,0
154,-370,0,0,0,0,0,0,0,0,0,-1,1378,1394,0,0
161,-370,0,0,0,0,0,0,0,0,0,-1,1385,1394,0,0
168,-370,0,0,0,0,0,0,0,0,0,-1,1392,1394,0,0
175,-370,0,0,0,0,0,0,0,0,0,-1,1399,1394,0,0
182,-370,0,0,0,0,0,0,0,0,0,-1,1406,1394,0,0
189,-370,0,0,0,0,0,0,0,0,0,-1,1413,1394,0,0
196,-370,0,0,0,0,0,0,0,0,0,-1,1420,1394,0,0
203,-370,0,0,0,0,0,0,0,0,0,-1,1427,1394,0,0
210,-370,0,0,0,0,0,0,0,0,0,-1,1434,1394,0,0
217,-370,0,0,0,0,0,0,0,0,0,-1,1441,1394,0,0
224,-370,0,0,0,0,0,0,0,0,0,-1,1448,1394,0,0
231,-370,0,0,0,0,0,0,0,0,0,-1,1455,1394,0,0
238,-370,0,0,0,0,0,0,0,0,0,-1,1462,1394,0,0
245,-370,0,0,0,0,0,0,0,0,0,-1,1469,1394,0,0
252,-370,0,0,0,0,0,0,0,0,0,-1,1476,1394,0,0
259,-370,0,0,0,0,0,0,0,0,0,-1,1483,1394,0,0
266,-370,0,0,0,0,0,0,0,0,0,-1,1490,1394,0,0
273,-370,0,0,0,0,0,0,0,0,0,-1,1497,1394,0,0
280,-370,0,0,0,0,0,0,0,0,0,-1,1504,1394,0,0
287,-370,0,0,0,0,0,0,0,0,0,-1,1511,1394,0,0
294,-370,0,0,0,0,0,0,0,0,0,-1,1518,1394,0,0
301,-370,0,0,0,0,0,0,0,0,0,-1,1525,1394,0,0
308,-370,0,0,0,0,0,0,0,0,0,-1,1532,1394,0,0
315,-370,0,0,0,0,0,0,0,0,0,-1,1539,1394,0,0
322,-370,0,0,0,0,0,0,0,0,0,-1,1546,1394,0,0
329,-370,0,0,0,0,0,0,0,0,0,-1,1553,1394,0,0
336,-370,0,0,0,0,0,0,0,0,0,-1,1560,1394,0,0
343,-370,0,0,0,0,0,0,0,0,0,-1,1567,1394,0,0
350,-370,0,0,0,0,0,0,0,0,0,-1,1574,1394,0,0
357,-370,0,0,0,0,0,0,0,0,0,-1,1581,1394,0,0
364,-370,0,0,0,0,0,0,0,0,0,-1,1588,1394,0,0
371,-370,0,0,0,0,0,0,0,0,0,-1,1595,1394,0,0
378,-370,0,0,0,0,0,0,0,0,0,-1,1602,1394,0,0
385,-370,0,0,0,0,0,0,0,0,0,-1,1609,1394,0,0
392,-370,0,0,0,0,0,0,0,0,0,-1,1616,1394,0,0
399,-370,0,0,0,0,0,0,0,0,0,-1,1623,1394,0,0
406,-370,0,0,0,0,0,0,0,0,0,-1,1630,1394,0,0
413,-370,0,0,0,0,0,0,0,0,0,-1,1637,1394,0,0
420,-370,0,0,0,0,0,0,0,0,0,-1,1644,1394,0,0
427,-370,0,0,0,0,0,0,0,0,0,-1,1651,1394,0,0
434,-370,0,0,0,0,0,0,0,0,0,-1,1658,1394,0,0
441,-370,0,0,0,0,0,0,0,0,0,-1,1665,1394,0,0
448,-370,0,0,0,0,0,0,0,0,0,-1,1672,1394,0,0
455,-370,0,0,0,0,0,0,0,0,0,-1,1679,1394,0,0
462,-370,0,0,0,0,0,0,0,0,0,-1,1686,1394,0,0
469,-370,0,0,0,0,0,0,0,0,0,-1,1693,1394,0,0
476,-370,0,0,0,0,0,0,0,0,0,-1,1700,1394,0,0
483,-370,0,0,0,0,0,0,0,0,0,-1,1707,1394,0,0
490,-370,0,0,0,0,0,0,0,0,0,-1,1714,1394,0,0
497,-370,0,0,0,0,0,0,0,0,0,-1,1721,1394,0,0
504,-370,0,0,0,0,0,0,0,0,0,-1,1728,1394,0,0
511,-370,0,0,0,0,0,0,0,0,0,-1,1735,1394,0,0
518,-370,0,0,0,0,0,0,0,0,0,-1,1742,1394,0,0
525,-370,0,0,0,0,0,0,0,0,0,-1,1749,1394,0,0
532,-370,0,0,0,0,0,0,0,0,0,-1,1756,1394,0,0
539,-370,0,0,0,0,0,0,0,0,0,-1,1763,1394,0,0
546,-370,27.4949,2.81201,0,0,0,0,0,0,0,-1,1770,1394,27.4948,-2.81198
553,-370,26.5985,1.99329,0,0,0,0,0,0,0,-1,1777,1394,26.5985,-1.99327
560,-370,38.1403,3.45044,0,0,0,0,0,0,0,-1,1784,1394,38.1403,-3.45042
567,-370,37.7321,2.9021,0,0,0,0,0,0,0,-1,1791,1394,37.7321,-2.90213
574,-370,37.6722,2.68494,0,0,0,0,0,0,0,-1,1798,1394,37.6723,-2.68495
581,-370,26.7473,2.29626,0,0,0,0,0,0,0,-1,1805,1394,26.7473,-2.29625
588,-370,32.1333,7.8728,0,0,0,0,0,0,0,-1,1812,1394,32.1333,-7.87275
595,-370,25.793,4.5271,0,0,0,0,0,0,0,-1,1819,1394,25.793,-4.52711
602,-370,25.1077,5.34937,0,0,0,0,0,0,0,-1,1826,1394,25.1077,-5.34932
609,-370,16.712,0.993286,0,0,0,0,0,0,0,-1,1833,1394,16.7121,-0.99323
616,-370,16.7764,7.23315,0,0,0,0,0,0,0,-1,1840,1394,16.7764,-7.23313
623,-370,17.6625,8.94263,0,0,0,0,0,0,0,-1,1847,1394,17.6624,-8.94258
630,-370,20.9681,11.1785,0,0,0,0,0,0,0,-1,1854,1394,20.9681,-11.1784
637,-370,24.2301,11.8815,0,0,0,0,0,0,0,-1,1861,1394,24.2301,-11.8814
644,-370,24.2395,11.4553,0.000557905,0.000684475,-0.00103016,0.0016533,-0.000410916,-0.816076,0.00126167,0.0127282,1868,1394,24.2395,-11.4553
651,-370,24.2406,11.031,0.000503503,0.00045066,-0.000701204,0.00117878,-0.00022462,-0.766567,0.000870444,0.0121882,1875,1394,24.2406,-11.031
658,-370,24.2413,10.6229,0.000719715,0.000197328,-0.000374928,0.00091546,1.58302e-06,-0.481161,0.00060978,0.0119292,1882,1394,24.2414,-10.623
665,-370,24.2151,10.2443,0.00104168,-4.01848e-05,-7.70511e-05,0.00104714,-4.56449e-05,-0.0707447,0.000713795,0.0136962,1889,1394,24.215,-10.2443
672,-370,24.1798,9.83887,0.00143449,-0.000279569,0.000231544,0.00146522,-0.000310296,0.131935,0.001095,0.0150047,1896,1394,24.1798,-9.83883
679,-370,24.2,9.41589,0.00194642,-0.000502644,0.000510684,0.00204864,-0.000604866,0.197556,0.00160582,0.0139912,1903,1394,24.2,-9.41583
686,-370,24.1947,9.01282,0.00254248,-0.000767919,0.000804649,0.0027277,-0.000953139,0.226247,0.00220592,0.0142459,1910,1394,24.1947,-9.01286
693,-370,24.1674,8.5835,0.00324086,-0.00103602,0.00108211,0.00349906,-0.00129422,0.234229,0.00286333,0.0126205,1917,1394,24.1674,-8.58349
700,-370,24.3386,8.14111,0.00401802,-0.0013102,0.00138255,0.0043554,-0.00164757,0.239348,0.00358142,0.0294554,1924,1394,24.3386,-8.14114
707,-370,24.678,7.63989,0,0,0,0,0,0,0,-1,1931,1394,24.6779,-7.63994
714,-370,16.9116,5.93018,0,0,0,0,0,0,0,-1,1938,1394,16.9116,-5.93014
721,-370,17.2007,4.69153,0,0,0,0,0,0,0,-1,1945,1394,17.2007,-4.69158
728,-370,20.5315,-0.313354,0,0,0,0,0,0,0,-1,1952,1394,20.5315,0.313332
735,-370,22.3652,0.233398,0,0,0,0,0,0,0,-1,1959,1394,22.3652,-0.233355
742,-370,24.1989,0.780029,0,0,0,0,0,0,0,-1,1966,1394,24.1989,-0.780041
749,-370,0,0,0,0,0,0,0,0,0,-1,1973,1394,0,0
756,-370,0,0,0,0,0,0,0,0,0,-1,1980,1394,0,0
763,-370,0,0,0,0,0,0,0,0,0,-1,1987,1394,0,0
770,-370,0,0,0,0,0,0,0,0,0,-1,1994,1394,0,0
777,-370,0,0,0,0,0,0,0,0,0,-1,2001,1394,0,0
784,-370,0,0,0,0,0,0,0,0,0,-1,2008,1394,0,0
791,-370,0,0,0,0,0,0,0,0,0,-1,2015,1394,0,0
798,-370,0,0,0,0,0,0,0,0,0,-1,2022,1394,0,0
805,-370,0,0,0,0,0,0,0,0,0,-1,2029,1394,0,0
812,-370,0,0,0,0,0,0,0,0,0,-1,2036,1394,0,0
-700,-377,0,0,0,0,0,0,0,0,0,-1,524,1401,0,0
-693,-377,0,0,0,0,0,0,0,0,0,-1,531,1401,0,0
-686,-377,0,0,0,0,0,0,0,0,0,-1,538,1401,0,0
-679,-377,0,0,0,0,0,0,0,0,0,-1,545,1401,0,0
-672,-377,0,0,0,0,0,0,0,0,0,-1,552,1401,0,0
-665,-377,0,0,0,0,0,0,0,0,0,-1,559,1401,0,0
-658,-377,0,0,0,0,0,0,0,0,0,-1,566,1401,0,0
-651,-377,0,0,0,0,0,0,0,0,0,-1,573,1401,0,0
-644,-377,0,0,0,0,0,0,0,0,0,-1,580,1401,0,0
-637,-377,0,0,0,0,0,0,0,0,0,-1,587,1401,0,0
-630,-377,0,0,0,0,0,0,0,0,0,-1,594,1401,0,0
-623,-377,0,0,0,0,0,0,0,0,0,-1,601,1401,0,0
-616,-377,-9.43915,-2.4906,0,0,0,0,0,0,0,-1,608,1401,-9.43915,2.49062
-609,-377,-7.2821,-1.35278,0,0,0,0,0,0,0,-1,615,1401,-7.28208,1.35279
-602,-377,-14.9736,3.98279,0,0,0,0,0,0,0,-1,622,1401,-14.9737,-3.98276
-595,-377,-6.9082,1.18201,0,0,0,0,0,0,0,-1,629,1401,-6.90822,-1.18204
-588,-377,-9.32385,4.25415,0,0,0,0,0,0,0,-1,636,1401,-9.32383,-4.25418
-581,-377,-10.335,5.42224,0,0,0,0,0,0,0,-1,643,1401,-10.335,-5.42222
-574,-377,-11.0234,5.87622,0,0,0,0,0,0,0,-1,650,1401,-11.0234,-5.87628
-567,-377,-10.7787,6.22156,0,0,0,0,0,0,0,-1,657,1401,-10.7788,-6.22151
-560,-377,-11.0997,6.34106,0,0,0,0,0,0,0,-1,664,1401,-11.0998,-6.34104
-553,-377,-11.0729,6.88245,-0.00362318,-0.00109864,-0.00251817,0.000455917,-0.00517774,-1.01773,0.0036134,0.0136373,671,1401,-11.0729,-6.88242
-546,-377,-11.0688,7.39172,-0.00195998,-0.000647982,-0.00148208,0.000316792,-0.00292476,-0.993748,0.00206356,0.0161505,678,1401,-11.0688,-7.39172
-539,-377,-11.0389,7.83228,-0.000443305,-0.000254666,-0.000523563,0.000183005,-0.000880977,-0.874517,0.000656873,0.0220247,685,1401,-11.0389,-7.83229
-532,-377,-11.1002,8.2605,0.00100578,0.000144474,0.000412681,0.00117159,-2.13358e-05,0.382047,0.000788267,0.019701,692,1401,-11.1002,-8.26047
-525,-377,-11.0568,8.73279,0.00241964,0.000626409,0.00137393,0.00316364,-0.00011759,0.496301,0.00214936,0.0198135,699,1401,-11.0568,-8.73276
-518,-377,-11.0995,9.16821,0.00379722,0.00114118,0.00233729,0.00515743,-0.000219031,0.527048,0.00351357,0.0131579,706,1401,-11.0995,-9.16816
-511,-377,-11.1182,9.6377,0.00518286,0.00179771,0.00337434,0.00726533,-0.00028476,0.552934,0.00494121,0.0125168,713,1401,-11.1182,-9.63774
-504,-377,-11.1378,10.1086,0.00661202,0.00266783,0.00453055,0.00958108,-0.000301234,0.580122,0.00649013,0.0151262,720,1401,-11.1378,-10.1086
-497,-377,-11.1308,10.5483,0,0,0,0,0,0,0,-1,727,1401,-11.1308,-10.5483
-490,-377,-8.88409,10.1245,0,0,0,0,0,0,0,-1,734,1401,-8.8841,-10.1245
-483,-377,-5.6524,5.07324,0,0,0,0,0,0,0,-1,741,1401,-5.6524,-5.07325
-476,-377,-6.11682,5.10535,0,0,0,0,0,0,0,-1,748,1401,-6.11681,-5.10537
-469,-377,-10.3211,1.9281,0,0,0,0,0,0,0,-1,755,1401,-10.3211,-1.92808
-462,-377,-9.2204,1.0022,0,0,0,0,0,0,0,-1,762,1401,-9.22039,-1.00218
-455,-377,-8.11969,0.0762939,0,0,0,0,0,0,0,-1,769,1401,-8.11968,-0.0762759
-448,-377,-9.05334,0.877319,0,0,0,0,0,0,0,-1,776,1401,-9.05332,-0.877324
-441,-377,-11.212,0.763428,0,0,0,0,0,0,0,-1,783,1401,-11.212,-0.763415
-434,-377,-11.0984,0.996216,0,0,0,0,0,0,0,-1,790,1401,-11.0984,-0.996265
-427,-377,-11.1733,1.25732,0,0,0,0,0,0,0,-1,797,1401,-11.1733,-1.25732
-420,-377,0,0,0,0,0,0,0,0,0,-1,804,1401,0,0
-413,-377,0,0,0,0,0,0,0,0,0,-1,811,1401,0,0
-406,-377,0,0,0,0,0,0,0,0,0,-1,818,1401,0,0
-399,-377,0,0,0,0,0,0,0,0,0,-1,825,1401,0,0
-392,-377,0,0,0,0,0,0,0,0,0,-1,832,1401,0,0
-385,-377,0,0,0,0,0,0,0,0,0,-1,839,1401,0,0
-378,-377,0,0,0,0,0,0,0,0,0,-1,846,1401,0,0
-371,-377,0,0,0,0,0,0,0,0,0,-1,853,1401,0,0
-364,-377,0,0,0,0,0,0,0,0,0,-1,860,1401,0,0
-357,-377,0,0,0,0,0,0,0,0,0,-1,867,1401,0,0
-350,-377,0,0,0,0,0,0,0,0,0,-1,874,1401,0,0
-343,-377,0,0,0,0,0,0,0,0,0,-1,881,1401,0,0
-336,-377,0,0,0,0,0,0,0,0,0,-1,888,1401,0,0
-329,-377,0,0,0,0,0,0,0,0,0,-1,895,1401,0,0
-322,-377,0,0,0,0,0,0,0,0,0,-1,902,1401,0,0
-315,-377,0,0,0,0,0,0,0,0,0,-1,909,1401,0,0
-308,-377,0,0,0,0,0,0,0,0,0,-1,916,1401,0,0
-301,-377,0,0,0,0,0,0,0,0,0,-1,923,1401,0,0
-294,-377,0,0,0,0,0,0,0,0,0,-1,930,1401,0,0
-287,-377,0,0,0,0,0,0,0,0,0,-1,937,1401,0,0
-280,-377,0,0,0,0,0,0,0,0,0,-1,944,1401,0,0
-273,-377,0,0,0,0,0,0,0,0,0,-1,951,1401,0,0
-266,-377,0,0,0,0,0,0,0,0,0,-1,958,1401,0,0
-259,-377,0,0,0,0,0,0,0,0,0,-1,965,1401,0,0
-252,-377,0,0,0,0,0,0,0,0,0,-1,972,1401,0,0
-245,-377,0,0,0,0,0,0,0,0,0,-1,979,1401,0,0
-238,-377,0,0,0,0,0,0,0,0,0,-1,986,1401,0,0
-231,-377,0,0,0,0,0,0,0,0,0,-1,993,1401,0,0
-224,-377,0,0,0,0,0,0,0,0,0,-1,1000,1401,0,0
-217,-377,0,0,0,0,0,0,0,0,0,-1,1007,1401,0,0
-210,-377,0,0,0,0,0,0,0,0,0,-1,1014,1401,0,0
-203,-377,0,0,0,0,0,0,0,0,0,-1,1021,1401,0,0
-196,-377,0,0,0,0,0,0,0,0,0,-1,1028,1401,0,0
-189,-377,0,0,0,0,0,0,0,0,0,-1,1035,1401,0,0
-182,-377,0,0,0,0,0,0,0,0,0,-1,1042,1401,0,0
-175,-377,0,0,0,0,0,0,0,0,0,-1,1049,1401,0,0
-168,-377,0,0,0,0,0,0,0,0,0,-1,1056,1401,0,0
-161,-377,0,0,0,0,0,0,0,0,0,-1,1063,1401,0,0
-154,-377,0,0,0,0,0,0,0,0,0,-1,1070,1401,0,0
-147,-377,0,0,0,0,0,0,0,0,0,-1,1077,1401,0,0
-140,-377,0,0,0,0,0,0,0,0,0,-1,1084,1401,0,0
-133,-377,0,0,0,0,0,0,0,0,0,-1,1091,1401,0,0
-126,-377,0,0,0,0,0,0,0,0,0,-1,1098,1401,0,0
-119,-377,0,0,0,0,0,0,0,0,0,-1,1105,1401,0,0
-112,-377,0,0,0,0,0,0,0,0,0,-1,1112,1401,0,0
-105,-377,0,0,0,0,0,0,0,0,0,-1,1119,1401,0,0
-98,-377,0,0,0,0,0,0,0,0,0,-1,1126,1401,0,0
-91,-377,0,0,0,0,0,0,0,0,0,-1,1133,1401,0,0
-84,-377,0,0,0,0,0,0,0,0,0,-1,1140,1401,0,0
-77,-377,0,0,0,0,0,0,0,0,0,-1,1147,1401,0,0
-70,-377,0,0,0,0,0,0,0,0,0,-1,1154,1401,0,0
-63,-377,0,0,0,0,0,0,0,0,0,-1,1161,1401,0,0
-56,-377,0,0,0,0,0,0,0,0,0,-1,1168,1401,0,0
-49,-377,0,0,0,0,0,0,0,0,0,-1,1175,1401,0,0
-42,-377,0,0,0,0,0,0,0,0,0,-1,1182,1401,0,0
-35,-377,0,0,0,0,0,0,0,0,0,-1,1189,1401,0,0
-28,-377,0,0,0,0,0,0,0,0,0,-1,1196,1401,0,0
-21,-377,0,0,0,0,0,0,0,0,0,-1,1203,1401,0,0
-14,-377,0,0,0,0,0,0,0,0,0,-1,1210,1401,0,0
-7,-377,0,0,0,0,0,0,0,0,0,-1,1217,1401,0,0
0,-377,0,0,0,0,0,0,0,0,0,-1,1224,1401,0,0
7,-377,0,0,0,0,0,0,0,0,0,-1,1231,1401,0,0
14,-377,0,0,0,0,0,0,0,0,0,-1,1238,1401,0,0
21,-377,0,0,0,0,0,0,0,0,0,-1,1245,1401,0,0
28,-377,0,0,0,0,0,0,0,0,0,-1,1252,1401,0,0
35,-377,0,0,0,0,0,0,0,0,0,-1,1259,1401,0,0
42,-377,0,0,0,0,0,0,0,0,0,-1,1266,1401,0,0
49,-377,0,0,0,0,0,0,0,0,0,-1,1273,1401,0,0
56,-377,0,0,0,0,0,0,0,0,0,-1,1280,1401,0,0
63,-377,0,0,0,0,0,0,0,0,0,-1,1287,1401,0,0
70,-377,0,0,0,0,0,0,0,0,0,-1,1294,1401,0,0
77,-377,0,0,0,0,0,0,0,0,0,-1,1301,1401,0,0
84,-377,0,0,0,0,0,0,0,0,0,-1,1308,1401,0,0
91,-377,0,0,0,0,0,0,0,0,0,-1,1315,1401,0,0
98,-377,0,0,0,0,0,0,0,0,0,-1,1322,1401,0,0
105,-377,0,0,0,0,0,0,0,0,0,-1,1329,1401,0,0
112,-377,0,0,0,0,0,0,0,0,0,-1,1336,1401,0,0
119,-377,0,0,0,0,0,0,0,0,0,-1,1343,1401,0,0
126,-377,0,0,0,0,0,0,0,0,0,-1,1350,1401,0,0
133,-377,0,0,0,0,0,0,0,0,0,-1,1357,1401,0,0
140,-377,0,0,0,0,0,0,0,0,0,-1,1364,1401,0,0
147,-377,0,0,0,0,0,0,0,0,0,-1,1371,1401,0,0
154,-377,0,0,0,0,0,0,0,0,0,-1,1378,1401,0,0
161,-377,0,0,0,0,0,0,0,0,0,-1,1385,1401,0,0
168,-377,0,0,0,0,0,0,0,0,0,-1,1392,1401,0,0
175,-377,0,0,0,0,0,0,0,0,0,-1,1399,1401,0,0
182,-377,0,0,0,0,0,0,0,0,0,-1,1406,1401,0,0
189,-377,0,0,0,0,0,0,0,0,0,-1,1413,1401,0,0
196,-377,0,0,0,0,0,0,0,0,0,-1,1420,1401,0,0
203,-377,0,0,0,0,0,0,0,0,0,-1,1427,1401,0,0
210,-377,0,0,0,0,0,0,0,0,0,-1,1434,1401,0,0
217,-377,0,0,0,0,0,0,0,0,0,-1,1441,1401,0,0
224,-377,0,0,0,0,0,0,0,0,0,-1,1448,1401,0,0
231,-377,0,0,0,0,0,0,0,0,0,-1,1455,1401,0,0
238,-377,0,0,0,0,0,0,0,0,0,-1,1462,1401,0,0
245,-377,0,0,0,0,0,0,0,0,0,-1,1469,1401,0,0
252,-377,0,0,0,0,0,0,0,0,0,-1,1476,1401,0,0
259,-377,0,0,0,0,0,0,0,0,0,-1,1483,1401,0,0
266,-377,0,0,0,0,0,0,0,0,0,-1,1490,1401,0,0
273,-377,0,0,0,0,0,0,0,0,0,-1,1497,1401,0,0
280,-377,0,0,0,0,0,0,0,0,0,-1,1504,1401,0,0
287,-377,0,0,0,0,0,0,0,0,0,-1,1511,1401,0,0
294,-377,0,0,0,0,0,0,0,0,0,-1,1518,1401,0,0
301,-377,0,0,0,0,0,0,0,0,0,-1,1525,1401,0,0
308,-377,0,0,0,0,0,0,0,0,0,-1,1532,1401,0,0
315,-377,0,0,0,0,0,0,0,0,0,-1,1539,1401,0,0
322,-377,0,0,0,0,0,0,0,0,0,-1,1546,1401,0,0
329,-377,0,0,0,0,0,0,0,0,0,-1,1553,1401,0,0
336,-377,0,0,0,0,0,0,0,0,0,-1,1560,1401,0,0
343,-377,0,0,0,0,0,0,0,0,0,-1,1567,1401,0,0
350,-377,0,0,0,0,0,0,0,0,0,-1,1574,1401,0,0
357,-377,0,0,0,0,0,0,0,0,0,-1,1581,1401,0,0
364,-377,0,0,0,0,0,0,0,0,0,-1,1588,1401,0,0
371,-377,0,0,0,0,0,0,0,0,0,-1,1595,1401,0,0
378,-377,0,0,0,0,0,0,0,0,0,-1,1602,1401,0,0
385,-377,0,0,0,0,0,0,0,0,0,-1,1609,1401,0,0
392,-377,0,0,0,0,0,0,0,0,0,-1,1616,1401,0,0
399,-377,0,0,0,0,0,0,0,0,0,-1,1623,1401,0,0
406,-377,0,0,0,0,0,0,0,0,0,-1,1630,1401,0,0
413,-377,0,0,0,0,0,0,0,0,0,-1,1637,1401,0,0
420,-377,0,0,0,0,0,0,0,0,0,-1,1644,1401,0,0
427,-377,0,0,0,0,0,0,0,0,0,-1,1651,1401,0,0
434,-377,0,0,0,0,0,0,0,0,0,-1,1658,1401,0,0
441,-377,0,0,0,0,0,0,0,0,0,-1,1665,1401,0,0
448,-377,0,0,0,0,0,0,0,0,0,-1,1672,1401,0,0
455,-377,0,0,0,0,0,0,0,0,0,-1,1679,1401,0,0
462,-377,0,0,0,0,0,0,0,0,0,-1,1686,1401,0,0
469,-377,0,0,0,0,0,0,0,0,0,-1,1693,1401,0,0
476,-377,0,0,0,0,0,0,0,0,0,-1,1700,1401,0,0
483,-377,0,0,0,0,0,0,0,0,0,-1,1707,1401,0,0
490,-377,0,0,0,0,0,0,0,0,0,-1,1714,1401,0,0
497,-377,0,0,0,0,0,0,0,0,0,-1,1721,1401,0,0
504,-377,0,0,0,0,0,0,0,0,0,-1,1728,1401,0,0
511,-377,0,0,0,0,0,0,0,0,0,-1,1735,1401,0,0
518,-377,0,0,0,0,0,0,0,0,0,-1,1742,1401,0,0
525,-377,0,0,0,0,0,0,0,0,0,-1,1749,1401,0,0
532,-377,0,0,0,0,0,0,0,0,0,-1,1756,1401,0,0
539,-377,0,0,0,0,0,0,0,0,0,-1,1763,1401,0,0
546,-377,27.8485,2.34094,0,0,0,0,0,0,0,-1,1770,1401,27.8486,-2.34091
553,-377,27.2189,2.42493,0,0,0,0,0,0,0,-1,1777,1401,27.2188,-2.42498
560,-377,26.9808,1.78674,0,0,0,0,0,0,0,-1,1784,1401,26.9808,-1.78676
567,-377,27.4503,2.03894,0,0,0,0,0,0,0,-1,1791,1401,27.4503,-2.03893
574,-377,27.812,2.3855,0,0,0,0,0,0,0,-1,1798,1401,27.812,-2.38552
581,-377,26.3328,2.77588,0,0,0,0,0,0,0,-1,1805,1401,26.3328,-2.77582
588,-377,25.882,4.35217,0,0,0,0,0,0,0,-1,1812,1401,25.8819,-4.3522
595,-377,25.5392,5.11804,0,0,0,0,0,0,0,-1,1819,1401,25.5392,-5.11808
602,-377,24.816,5.79126,0,0,0,0,0,0,0,-1,1826,1401,24.816,-5.79124
609,-377,15.0223,4.76135,0,0,0,0,0,0,0,-1,1833,1401,15.0224,-4.76129
616,-377,14.1842,5.78992,0,0,0,0,0,0,0,-1,1840,1401,14.1842,-5.78987
623,-377,15.8248,8.76721,0,0,0,0,0,0,0,-1,1847,1401,15.8248,-8.76725
630,-377,23.4701,12.5525,0,0,0,0,0,0,0,-1,1854,1401,23.4701,-12.5525
637,-377,23.7329,11.9354,0.000880547,0.000470411,-0.000964997,0.00166202,-0.000311066,-0.680702,0.00122494,0.0270063,1861,1401,23.7329,-11.9354
644,-377,23.8301,11.474,0.000712389,0.000423436,-0.000730993,0.00131305,-0.000177221,-0.687834,0.000940023,0.01229,1868,1401,23.83,-11.474
651,-377,23.8226,11.042,0.000712714,0.00025934,-0.000471078,0.00100881,-3.67555e-05,-0.561147,0.00068512,0.0136896,1875,1401,23.8226,-11.042
658,-377,23.8152,10.6434,0.000899204,8.06929e-05,-0.000206615,0.000948402,3.14945e-05,-0.233763,0.000622036,0.0148229,1882,1401,23.8152,-10.6434
665,-377,23.811,10.2073,0.00119398,-0.000108971,6.9176e-05,0.00119764,-0.000112633,0.0528936,0.000838498,0.0181972,1889,1401,23.811,-10.2073
672,-377,23.7883,9.79358,0.00158427,-0.000330709,0.000375242,0.00165517,-0.000401613,0.186753,0.00125886,0.0174515,1896,1401,23.7883,-9.79356
679,-377,23.7382,9.41345,0.00210531,-0.000570717,0.000685753,0.0022708,-0.000736212,0.236805,0.00180989,0.0172848,1903,1401,23.7381,-9.4134
686,-377,23.7621,9.02722,0.00274146,-0.000895995,0.00104549,0.00302054,-0.00117508,0.260861,0.00249924,0.0154502,1910,1401,23.762,-9.02727
693,-377,23.7925,8.599,0.003547,-0.00127708,0.00140262,0.00392517,-0.00165525,0.263356,0.00330951,0.014292,1917,1401,23.7925,-8.599
700,-377,23.761,8.26367,0.00452275,-0.00176106,0.00182927,0.00501647,-0.00225479,0.263621,0.00429781,0.041372,1924,1401,23.761,-8.26363
707,-377,23.9086,7.83545,0,0,0,0,0,0,0,-1,1931,1401,23.9086,-7.8354
714,-377,16.5369,5.45959,0,0,0,0,0,0,0,-1,1938,1401,16.5369,-5.4596
721,-377,17.0913,5.42529,0,0,0,0,0,0,0,-1,1945,1401,17.0914,-5.42529
728,-377,14.5396,2.79724,0,0,0,0,0,0,0,-1,1952,1401,14.5396,-2.7972
735,-377,23.2977,-0.991089,0,0,0,0,0,0,0,-1,1959,1401,23.2978,0.991076
742,-377,0,0,0,0,0,0,0,0,0,-1,1966,1401,0,0
749,-377,0,0,0,0,0,0,0,0,0,-1,1973,1401,0,0
756,-377,0,0,0,0,0,0,0,0,0,-1,1980,1401,0,0
763,-377,0,0,0,0,0,0,0,0,0,-1,1987,1401,0,0
770,-377,0,0,0,0,0,0,0,0,0,-1,1994,1401,0,0
777,-377,0,0,0,0,0,0,0,0,0,-1,2001,1401,0,0
784,-377,0,0,0,0,0,0,0,0,0,-1,2008,1401,0,0
791,-377,0,0,0,0,0,0,0,0,0,-1,2015,1401,0,0
798,-377,0,0,0,0,0,0,0,0,0,-1,2022,1401,0,0
805,-377,0,0,0,0,0,0,0,0,0,-1,2029,1401,0,0
812,-377,0,0,0,0,0,0,0,0,0,-1,2036,1401,0,0
-700,-384,0,0,0,0,0,0,0,0,0,-1,524,1408,0,0
-693,-384,0,0,0,0,0,0,0,0,0,-1,531,1408,0,0
-686,-384,0,0,0,0,0,0,0,0,0,-1,538,1408,0,0
-679,-384,0,0,0,0,0,0,0,0,0,-1,545,1408,0,0
-672,-384,0,0,0,0,0,0,0,0,0,-1,552,1408,0,0
-665,-384,0,0,0,0,0,0,0,0,0,-1,559,1408,0,0
-658,-384,0,0,0,0,0,0,0,0,0,-1,566,1408,0,0
-651,-384,0,0,0,0,0,0,0,0,0,-1,573,1408,0,0
-644,-384,0,0,0,0,0,0,0,0,0,-1,580,1408,0,0
-637,-384,0,0,0,0,0,0,0,0,0,-1,587,1408,0,0
-630,-384,0,0,0,0,0,0,0,0,0,-1,594,1408,0,0
-623,-384,0,0,0,0,0,0,0,0,0,-1,601,1408,0,0
-616,-384,-10.019,-3.36646,0,0,0,0,0,0,0,-1,608,1408,-10.019,3.36648
-609,-384,-7.72357,-2.3418,0,0,0,0,0,0,0,-1,615,1408,-7.72358,2.34182
-602,-384,-11.7632,-2.85156,0,0,0,0,0,0,0,-1,622,1408,-11.7632,2.85157
-595,-384,-10.2217,2.8855,0,0,0,0,0,0,0,-1,629,1408,-10.2218,-2.88548
-588,-384,-9.71045,2.79968,0,0,0,0,0,0,0,-1,636,1408,-9.71046,-2.79971
-581,-384,-10.222,4.07129,0,0,0,0,0,0,0,-1,643,1408,-10.222,-4.07133
-574,-384,-10.1197,5.7074,0,0,0,0,0,0,0,-1,650,1408,-10.1197,-5.70736
-567,-384,-10.3054,6.25183,0,0,0,0,0,0,0,-1,657,1408,-10.3054,-6.25181
-560,-384,-10.7664,6.35645,0,0,0,0,0,0,0,-1,664,1408,-10.7663,-6.35641
-553,-384,-10.6284,6.90442,-0.00483817,-0.00103616,-0.00292671,0.000552744,-0.00642708,-1.07342,0.00448035,0.0306584,671,1408,-10.6284,-6.90446
-546,-384,-10.612,7.40955,-0.00307946,-0.00062504,-0.00188588,0.000397773,-0.00410227,-1.07384,0.00287662,0.0146654,678,1408,-10.612,-7.40956
-539,-384,-10.6442,7.83777,-0.0015059,-0.000283736,-0.000948731,0.000233681,-0.00202332,-1.07151,0.00143314,0.0166532,685,1408,-10.6442,-7.83774
-532,-384,-10.6369,8.2439,-2.97531e-05,8.90562e-05,-4.89428e-05,0.000106621,-4.73179e-05,-1.22623,9.10486e-05,0.0233361,692,1408,-10.6369,-8.24384
-525,-384,-10.6139,8.7522,0.00139256,0.000553276,0.000861878,0.00193153,1.43094e-05,0.558844,0.00128294,0.0238273,699,1408,-10.6139,-8.75218
-518,-384,-10.6493,9.20898,0.00276947,0.00107037,0.00176876,0.00388213,-4.22846e-05,0.561512,0.00260229,0.0136925,706,1408,-10.6493,-9.20898
-511,-384,-10.6797,9.67273,0.00418378,0.00174643,0.00277623,0.00599703,-6.68266e-05,0.578577,0.00402048,0.0107649,713,1408,-10.6797,-9.6727
-504,-384,-10.6698,10.1337,0.00567768,0.00262381,0.00389408,0.00833349,-3.19998e-05,0.598552,0.00556636,0.0121288,720,1408,-10.6698,-10.1336
-497,-384,-10.6175,10.646,0.00728089,0.00374144,0.00517901,0.0109842,3.81325e-05,0.620763,0.00731012,0.0331747,727,1408,-10.6175,-10.646
-490,-384,-10.2429,11.3114,0,0,0,0,0,0,0,-1,734,1408,-10.2429,-11.3115
-483,-384,-6.26471,7.61194,0,0,0,0,0,0,0,-1,741,1408,-6.26469,-7.61191
-476,-384,-6.02734,5.67761,0,0,0,0,0,0,0,-1,748,1408,-6.02736,-5.6776
-469,-384,-10.206,2.63721,0,0,0,0,0,0,0,-1,755,1408,-10.206,-2.6372
-462,-384,-9.04291,1.43542,0,0,0,0,0,0,0,-1,762,1408,-9.04293,-1.43545
-455,-384,-7.87988,0.233765,0,0,0,0,0,0,0,-1,769,1408,-7.87986,-0.233709
-448,-384,-9.35529,7.19226,0,0,0,0,0,0,0,-1,776,1408,-9.35531,-7.19226
-441,-384,-10.4697,1.79004,0,0,0,0,0,0,0,-1,783,1408,-10.4697,-1.79003
-434,-384,-10.6449,0.552246,0,0,0,0,0,0,0,-1,790,1408,-10.6449,-0.552216
-427,-384,-10.968,1.10583,0,0,0,0,0,0,0,-1,797,1408,-10.968,-1.10588
-420,-384,-12.5607,4.54858,0,0,0,0,0,0,0,-1,804,1408,-12.5607,-4.54859
-413,-384,0,0,0,0,0,0,0,0,0,-1,811,1408,0,0
-406,-384,0,0,0,0,0,0,0,0,0,-1,818,1408,0,0
-399,-384,0,0,0,0,0,0,0,0,0,-1,825,1408,0,0
-392,-384,0,0,0,0,0,0,0,0,0,-1,832,1408,0,0
-385,-384,0,0,0,0,0,0,0,0,0,-1,839,1408,0,0
-378,-384,0,0,0,0,0,0,0,0,0,-1,846,1408,0,0
-371,-384,0,0,0,0,0,0,0,0,0,-1,853,1408,0,0
-364,-384,0,0,0,0,0,0,0,0,0,-1,860,1408,0,0
-357,-384,0,0,0,0,0,0,0,0,0,-1,867,1408,0,0
-350,-384,0,0,0,0,0,0,0,0,0,-1,874,1408,0,0
-343,-384,0,0,0,0,0,0,0,0,0,-1,881,1408,0,0
-336,-384,0,0,0,0,0,0,0,0,0,-1,888,1408,0,0
-329,-384,0,0,0,0,0,0,0,0,0,-1,895,1408,0,0
-322,-384,0,0,0,0,0,0,0,0,0,-1,902,1408,0,0
-315,-384,0,0,0,0,0,0,0,0,0,-1,909,1408,0,0
-308,-384,0,0,0,0,0,0,0,0,0,-1,916,1408,0,0
-301,-384,0,0,0,0,0,0,0,0,0,-1,923,1408,0,0
-294,-384,0,0,0,0,0,0,0,0,0,-1,930,1408,0,0
-287,-384,0,0,0,0,0,0,0,0,0,-1,937,1408,0,0
-280,-384,0,0,0,0,0,0,0,0,0,-1,944,1408,0,0
-273,-384,0,0,0,0,0,0,0,0,0,-1,951,1408,0,0
-266,-384,0,0,0,0,0,0,0,0,0,-1,958,1408,0,0
-259,-384,0,0,0,0,0,0,0,0,0,-1,965,1408,0,0
-252,-384,0,0,0,0,0,0,0,0,0,-1,972,1408,0,0
-245,-384,0,0,0,0,0,0,0,0,0,-1,979,1408,0,0
-238,-384,0,0,0,0,0,0,0,0,0,-1,986,1408,0,0
-231,-384,0,0,0,0,0,0,0,0,0,-1,993,1408,0,0
-224,-384,0,0,0,0,0,0,0,0,0,-1,1000,1408,0,0
-217,-384,0,0,0,0,0,0,0,0,0,-1,1007,1408,0,0
-210,-384,0,0,0,0,0,0,0,0,0,-1,1014,1408,0,0
-203,-384,0,0,0,0,0,0,0,0,0,-1,1021,1408,0,0
-196,-384,0,0,0,0,0,0,0,0,0,-1,1028,1408,0,0
-189,-384,0,0,0,0,0,0,0,0,0,-1,1035,1408,0,0
-182,-384,0,0,0,0,0,0,0,0,0,-1,1042,1408,0,0
-175,-384,0,0,0,0,0,0,0,0,0,-1,1049,1408,0,0
-168,-384,0,0,0,0,0,0,0,0,0,-1,1056,1408,0,0
-161,-384,0,0,0,0,0,0,0,0,0,-1,1063,1408,0,0
-154,-384,0,0,0,0,0,0,0,0,0,-1,1070,1408,0,0
-147,-384,0,0,0,0,0,0,0,0,0,-1,1077,1408,0,0
-140,-384,0,0,0,0,0,0,0,0,0,-1,1084,1408,0,0
-133,-384,0,0,0,0,0,0,0,0,0,-1,1091,1408,0,0
-126,-384,0,0,0,0,0,0,0,0,0,-1,1098,1408,0,0
-119,-384,0,0,0,0,0,0,0,0,0,-1,1105,1408,0,0
-112,-384,0,0,0,0,0,0,0,0,0,-1,1112,1408,0,0
-105,-384,0,0,0,0,0,0,0,0,0,-1,1119,1408,0,0
-98,-384,0,0,0,0,0,0,0,0,0,-1,1126,1408,0,0
-91,-384,0,0,0,0,0,0,0,0,0,-1,1133,1408,0,0
-84,-384,0,0,0,0,0,0,0,0,0,-1,1140,1408,0,0
-77,-384,0,0,0,0,0,0,0,0,0,-1,1147,1408,0,0
-70,-384,0,0,0,0,0,0,0,0,0,-1,1154,1408,0,0
-63,-384,0,0,0,0,0,0,0,0,0,-1,1161,1408,0,0
-56,-384,0,0,0,0,0,0,0,0,0,-1,1168,1408,0,0
-49,-384,0,0,0,0,0,0,0,0,0,-1,1175,1408,0,0
-42,-384,0,0,0,0,0,0,0,0,0,-1,1182,1408,0,0
-35,-384,0,0,0,0,0,0,0,0,0,-1,1189,1408,0,0
-28,-384,0,0,0,0,0,0,0,0,0,-1,1196,1408,0,0
-21,-384,0,0,0,0,0,0,0,0,0,-1,1203,1408,0,0
-14,-384,0,0,0,0,0,0,0,0,0,-1,1210,1408,0,0
-7,-384,0,0,0,0,0,0,0,0,0,-1,1217,1408,0,0
0,-384,0,0,0,0,0,0,0,0,0,-1,1224,1408,0,0
7,-384,0,0,0,0,0,0,0,0,0,-1,1231,1408,0,0
14,-384,0,0,0,0,0,0,0,0,0,-1,1238,1408,0,0
21,-384,0,0,0,0,0,0,0,0,0,-1,1245,1408,0,0
28,-384,0,0,0,0,0,0,0,0,0,-1,1252,1408,0,0
35,-384,0,0,0,0,0,0,0,0,0,-1,1259,1408,0,0
42,-384,0,0,0,0,0,0,0,0,0,-1,1266,1408,0,0
49,-384,0,0,0,0,0,0,0,0,0,-1,1273,1408,0,0
56,-384,0,0,0,0,0,0,0,0,0,-1,1280,1408,0,0
63,-384,0,0,0,0,0,0,0,0,0,-1,1287,1408,0,0
70,-384,0,0,0,0,0,0,0,0,0,-1,1294,1408,0,0
77,-384,0,0,0,0,0,0,0,0,0,-1,1301,1408,0,0
84,-384,0,0,0,0,0,0,0,0,0,-1,1308,1408,0,0
91,-384,0,0,0,0,0,0,0,0,0,-1,1315,1408,0,0
98,-384,0,0,0,0,0,0,0,0,0,-1,1322,1408,0,0
105,-384,0,0,0,0,0,0,0,0,0,-1,1329,1408,0,0
112,-384,0,0,0,0,0,0,0,0,0,-1,1336,1408,0,0
119,-384,0,0,0,0,0,0,0,0,0,-1,1343,1408,0,0
126,-384,0,0,0,0,0,0,0,0,0,-1,1350,1408,0,0
133,-384,0,0,0,0,0,0,0,0,0,-1,1357,1408,0,0
140,-384,0,0,0,0,0,0,0,0,0,-1,1364,1408,0,0
147,-384,0,0,0,0,0,0,0,0,0,-1,1371,1408,0,0
154,-384,0,0,0,0,0,0,0,0,0,-1,1378,1408,0,0
161,-384,0,0,0,0,0,0,0,0,0,-1,1385,1408,0,0
168,-384,0,0,0,0,0,0,0,0,0,-1,1392,1408,0,0
175,-384,0,0,0,0,0,0,0,0,0,-1,1399,1408,0,0
182,-384,0,0,0,0,0,0,0,0,0,-1,1406,1408,0,0
189,-384,0,0,0,0,0,0,0,0,0,-1,1413,1408,0,0
196,-384,0,0,0,0,0,0,0,0,0,-1,1420,1408,0,0
203,-384,0,0,0,0,0,0,0,0,0,-1,1427,1408,0,0
210,-384,0,0,0,0,0,0,0,0,0,-1,1434,1408,0,0
217,-384,0,0,0,0,0,0,0,0,0,-1,1441,1408,0,0
224,-384,0,0,0,0,0,0,0,0,0,-1,1448,1408,0,0
231,-384,0,0,0,0,0,0,0,0,0,-1,1455,1408,0,0
238,-384,0,0,0,0,0,0,0,0,0,-1,1462,1408,0,0
245,-384,0,0,0,0,0,0,0,0,0,-1,1469,1408,0,0
252,-384,0,0,0,0,0,0,0,0,0,-1,1476,1408,0,0
259,-384,0,0,0,0,0,0,0,0,0,-1,1483,1408,0,0
266,-384,0,0,0,0,0,0,0,0,0,-1,1490,1408,0,0
273,-384,0,0,0,0,0,0,0,0,0,-1,1497,1408,0,0
280,-384,0,0,0,0,0,0,0,0,0,-1,1504,1408,0,0
287,-384,0,0,0,0,0,0,0,0,0,-1,1511,1408,0,0
294,-384,0,0,0,0,0,0,0,0,0,-1,1518,1408,0,0
301,-384,0,0,0,0,0,0,0,0,0,-1,1525,1408,0,0
308,-384,0,0,0,0,0,0,0,0,0,-1,1532,1408,0,0
315,-384,0,0,0,0,0,0,0,0,0,-1,1539,1408,0,0
322,-384,0,0,0,0,0,0,0,0,0,-1,1546,1408,0,0
329,-384,0,0,0,0,0,0,0,0,0,-1,1553,1408,0,0
336,-384,0,0,0,0,0,0,0,0,0,-1,1560,1408,0,0
343,-384,0,0,0,0,0,0,0,0,0,-1,1567,1408,0,0
350,-384,0,0,0,0,0,0,0,0,0,-1,1574,1408,0,0
357,-384,0,0,0,0,0,0,0,0,0,-1,1581,1408,0,0
364,-384,0,0,0,0,0,0,0,0,0,-1,1588,1408,0,0
371,-384,0,0,0,0,0,0,0,0,0,-1,1595,1408,0,0
378,-384,0,0,0,0,0,0,0,0,0,-1,1602,1408,0,0
385,-384,0,0,0,0,0,0,0,0,0,-1,1609,1408,0,0
392,-384,0,0,0,0,0,0,0,0,0,-1,1616,1408,0,0
399,-384,0,0,0,0,0,0,0,0,0,-1,1623,1408,0,0
406,-384,0,0,0,0,0,0,0,0,0,-1,1630,1408,0,0
413,-384,0,0,0,0,0,0,0,0,0,-1,1637,1408,0,0
420,-384,0,0,0,0,0,0,0,0,0,-1,1644,1408,0,0
427,-384,0,0,0,0,0,0,0,0,0,-1,1651,1408,0,0
434,-384,0,0,0,0,0,0,0,0,0,-1,1658,1408,0,0
441,-384,0,0,0,0,0,0,0,0,0,-1,1665,1408,0,0
448,-384,0,0,0,0,0,0,0,0,0,-1,1672,1408,0,0
455,-384,0,0,0,0,0,0,0,0,0,-1,1679,1408,0,0
462,-384,0,0,0,0,0,0,0,0,0,-1,1686,1408,0,0
469,-384,0,0,0,0,0,0,0,0,0,-1,1693,1408,0,0
476,-384,0,0,0,0,0,0,0,0,0,-1,1700,1408,0,0
483,-384,0,0,0,0,0,0,0,0,0,-1,1707,1408,0,0
490,-384,0,0,0,0,0,0,0,0,0,-1,1714,1408,0,0
497,-384,0,0,0,0,0,0,0,0,0,-1,1721,1408,0,0
504,-384,0,0,0,0,0,0,0,0,0,-1,1728,1408,0,0
511,-384,0,0,0,0,0,0,0,0,0,-1,1735,1408,0,0
518,-384,0,0,0,0,0,0,0,0,0,-1,1742,1408,0,0
525,-384,0,0,0,0,0,0,0,0,0,-1,1749,1408,0,0
532,-384,0,0,0,0,0,0,0,0,0,-1,1756,1408,0,0
539,-384,27.6886,2.85803,0,0,0,0,0,0,0,-1,1763,1408,27.6886,-2.85807
546,-384,27.5044,2.9425,0,0,0,0,0,0,0,-1,1770,1408,27.5044,-2.94255
553,-384,27.3052,2.78394,0,0,0,0,0,0,0,-1,1777,1408,27.3051,-2.78394
560,-384,26.833,3.19812,0,0,0,0,0,0,0,-1,1784,1408,26.833,-3.19816
567,-384,32.4751,6.03601,0,0,0,0,0,0,0,-1,1791,1408,32.4751,-6.03605
574,-384,25.8635,3.7915,0,0,0,0,0,0,0,-1,1798,1408,25.8636,-3.79148
581,-384,25.819,3.91846,0,0,0,0,0,0,0,-1,1805,1408,25.8189,-3.91848
588,-384,23.3721,4.25439,0,0,0,0,0,0,0,-1,1812,1408,23.3721,-4.25442
595,-384,24.981,5.59595,0,0,0,0,0,0,0,-1,1819,1408,24.981,-5.59598
602,-384,20.6605,4.17261,0,0,0,0,0,0,0,-1,1826,1408,20.6606,-4.17265
609,-384,14.158,5.49475,0,0,0,0,0,0,0,-1,1833,1408,14.158,-5.49474
616,-384,14.7997,7.6908,0,0,0,0,0,0,0,-1,1840,1408,14.7996,-7.69079
623,-384,16.4293,9.58899,0,0,0,0,0,0,0,-1,1847,1408,16.4294,-9.58901
630,-384,23.3922,12.3527,0,0,0,0,0,0,0,-1,1854,1408,23.3922,-12.3527
637,-384,23.4088,11.9207,0.000950623,0.00037005,-0.000739845,0.00145509,-0.000134419,-0.598446,0.00101783,0.018199,1861,1408,23.4088,-11.9207
644,-384,23.3927,11.5046,0.000830372,0.000307178,-0.000543656,0.0011721,-3.4545e-05,-0.561158,0.000793163,0.0158024,1868,1408,23.3927,-11.5046
651,-384,23.3855,11.0481,0.000873943,0.000158823,-0.000315685,0.000993359,3.94072e-05,-0.36164,0.000649502,0.0156816,1875,1408,23.3855,-11.0481
658,-384,23.3784,10.65,0.00102899,1.70589e-05,-8.22102e-05,0.00103562,1.04236e-05,-0.0805372,0.000686968,0.0159524,1882,1408,23.3784,-10.65
665,-384,23.3893,10.2484,0.00128975,-0.000150757,0.000184901,0.0013131,-0.000174112,0.125645,0.000938837,0.0174295,1889,1408,23.3893,-10.2485
672,-384,23.379,9.82739,0.00167685,-0.000363136,0.000493899,0.00179013,-0.000476423,0.225472,0.00137992,0.0144519,1896,1408,23.379,-9.82736
679,-384,23.342,9.42114,0.00219689,-0.000632095,0.000846405,0.00243079,-0.000865992,0.269614,0.00197357,0.0149048,1903,1408,23.342,-9.42109
686,-384,23.3365,9.03064,0.00287271,-0.00102191,0.00129072,0.00326163,-0.00141083,0.292668,0.00276729,0.0127216,1910,1408,23.3365,-9.03063
693,-384,23.3732,8.63916,0.00381044,-0.00151881,0.00175876,0.00433854,-0.00204691,0.291701,0.00376495,0.0204964,1917,1408,23.3731,-8.63916
700,-384,23.4241,8.26392,0,0,0,0,0,0,0,-1,1924,1408,23.424,-8.26391
707,-384,17.0566,6.62842,0,0,0,0,0,0,0,-1,1931,1408,17.0567,-6.62848
714,-384,16.038,5.0282,0,0,0,0,0,0,0,-1,1938,1408,16.038,-5.02819
721,-384,13.8843,2.8717,0,0,0,0,0,0,0,-1,1945,1408,13.8843,-2.87171
728,-384,15.4409,6.25745,0,0,0,0,0,0,0,-1,1952,1408,15.4409,-6.2574
735,-384,16.7598,6.71289,0,0,0,0,0,0,0,-1,1959,1408,16.7598,-6.71287
742,-384,0,0,0,0,0,0,0,0,0,-1,1966,1408,0,0
749,-384,0,0,0,0,0,0,0,0,0,-1,1973,1408,0,0
756,-384,0,0,0,0,0,0,0,0,0,-1,1980,1408,0,0
763,-384,0,0,0,0,0,0,0,0,0,-1,1987,1408,0,0
770,-384,0,0,0,0,0,0,0,0,0,-1,1994,1408,0,0
777,-384,0,0,0,0,0,0,0,0,0,-1,2001,1408,0,0
784,-384,0,0,0,0,0,0,0,0,0,-1,2008,1408,0,0
791,-384,0,0,0,0,0,0,0,0,0,-1,2015,1408,0,0
798,-384,0,0,0,0,0,0,0,0,0,-1,2022,1408,0,0
805,-384,0,0,0,0,0,0,0,0,0,-1,2029,1408,0,0
812,-384,0,0,0,0,0,0,0,0,0,-1,2036,1408,0,0
-700,-391,0,0,0,0,0,0,0,0,0,-1,524,1415,0,0
-693,-391,0,0,0,0,0,0,0,0,0,-1,531,1415,0,0
-686,-391,0,0,0,0,0,0,0,0,0,-1,538,1415,0,0
-679,-391,0,0,0,0,0,0,0,0,0,-1,545,1415,0,0
-672,-391,0,0,0,0,0,0,0,0,0,-1,552,1415,0,0
-665,-391,0,0,0,0,0,0,0,0,0,-1,559,1415,0,0
-658,-391,0,0,0,0,0,0,0,0,0,-1,566,1415,0,0
-651,-391,0,0,0,0,0,0,0,0,0,-1,573,1415,0,0
-644,-391,0,0,0,0,0,0,0,0,0,-1,580,1415,0,0
-637,-391,0,0,0,0,0,0,0,0,0,-1,587,1415,0,0
-630,-391,0,0,0,0,0,0,0,0,0,-1,594,1415,0,0
-623,-391,0,0,0,0,0,0,0,0,0,-1,601,1415,0,0
-616,-391,0,0,0,0,0,0,0,0,0,-1,608,1415,0,0
-609,-391,-7.71753,-3.69763,0,0,0,0,0,0,0,-1,615,1415,-7.71751,3.69759
-602,-391,-13.9493,-4.12805,0,0,0,0,0,0,0,-1,622,1415,-13.9493,4.12803
-595,-391,-10.8315,1.76172,0,0,0,0,0,0,0,-1,629,1415,-10.8315,-1.76171
-588,-391,-10.265,2.16431,0,0,0,0,0,0,0,-1,636,1415,-10.265,-2.16431
-581,-391,-10.071,3.51843,0,0,0,0,0,0,0,-1,643,1415,-10.071,-3.51848
-574,-391,-9.64874,5.70825,0,0,0,0,0,0,0,-1,650,1415,-9.64874,-5.70828
-567,-391,-9.82751,6.2439,0,0,0,0,0,0,0,-1,657,1415,-9.82752,-6.24389
-560,-391,-10.3815,6.51807,0,0,0,0,0,0,0,-1,664,1415,-10.3815,-6.51809
-553,-391,-10.1086,6.93201,-0.00625618,-0.00100571,-0.00349485,0.000740079,-0.00800197,-1.10752,0.00559767,0.0487596,671,1415,-10.1087,-6.93199
-546,-391,-10.1844,7.40503,-0.00434657,-0.000639732,-0.00242577,0.000559639,-0.00554594,-1.11162,0.00389726,0.0151654,678,1415,-10.1844,-7.40505
-539,-391,-10.1544,7.87231,-0.00267471,-0.000351077,-0.00148084,0.00036931,-0.0033951,-1.11803,0.00239601,0.0144572,685,1415,-10.1544,-7.87233
-532,-391,-10.1318,8.33813,-0.00114421,1.15994e-05,-0.000583134,0.000254682,-0.00138729,-1.17584,0.0010204,0.0260299,692,1415,-10.1318,-8.33819
-525,-391,-10.1282,8.81909,0.000310782,0.000470032,0.000315108,0.000715419,6.53946e-05,0.909154,0.000456711,0.0259167,699,1415,-10.1282,-8.81914
-518,-391,-10.2117,9.24182,0.0016952,0.00100616,0.00121036,0.00260911,9.22407e-05,0.646744,0.00170949,0.0156382,706,1415,-10.2117,-9.24188
-511,-391,-10.2236,9.6875,0.00311706,0.00169838,0.0022118,0.00473048,8.49655e-05,0.630226,0.00312572,0.0132881,713,1415,-10.2236,-9.68753
-504,-391,-10.2177,10.15,0.00461197,0.00257853,0.00331399,0.0070617,0.000128805,0.636557,0.00466545,0.0122574,720,1415,-10.2177,-10.1501
-497,-391,-10.2311,10.6072,0.00612651,0.00364903,0.00453214,0.00958615,0.000189386,0.651995,0.00632859,0.0133814,727,1415,-10.2312,-10.6071
-490,-391,-10.1752,11.1738,0.00793203,0.00503407,0.00602094,0.0126759,0.000290211,0.667316,0.00835554,0.0451365,734,1415,-10.1752,-11.1738
-483,-391,-10.0096,11.8826,0,0,0,0,0,0,0,-1,741,1415,-10.0097,-11.8826
-476,-391,-6.05731,6.85303,0,0,0,0,0,0,0,-1,748,1415,-6.05728,-6.85304
-469,-391,-3.88953,5.0979,0,0,0,0,0,0,0,-1,755,1415,-3.88955,-5.09794
-462,-391,-8.67688,2.03125,0,0,0,0,0,0,0,-1,762,1415,-8.67685,-2.03121
-455,-391,-8.65576,6.46997,0,0,0,0,0,0,0,-1,769,1415,-8.65579,-6.46999
-448,-391,-8.39618,4.38403,0,0,0,0,0,0,0,-1,776,1415,-8.39617,-4.38405
-441,-391,-9.77704,2.5946,0,0,0,0,0,0,0,-1,783,1415,-9.77702,-2.5946
-434,-391,-11.5403,2.12878,0,0,0,0,0,0,0,-1,790,1415,-11.5403,-2.12881
-427,-391,-10.5311,2.50403,0,0,0,0,0,0,0,-1,797,1415,-10.5311,-2.504
-420,-391,-14.7087,1.24365,0,0,0,0,0,0,0,-1,804,1415,-14.7088,-1.24365
-413,-391,0,0,0,0,0,0,0,0,0,-1,811,1415,0,0
-406,-391,0,0,0,0,0,0,0,0,0,-1,818,1415,0,0
-399,-391,0,0,0,0,0,0,0,0,0,-1,825,1415,0,0
-392,-391,0,0,0,0,0,0,0,0,0,-1,832,1415,0,0
-385,-391,0,0,0,0,0,0,0,0,0,-1,839,1415,0,0
-378,-391,0,0,0,0,0,0,0,0,0,-1,846,1415,0,0
-371,-391,0,0,0,0,0,0,0,0,0,-1,853,1415,0,0
-364,-391,0,0,0,0,0,0,0,0,0,-1,860,1415,0,0
-357,-391,0,0,0,0,0,0,0,0,0,-1,867,1415,0,0
-350,-391,0,0,0,0,0,0,0,0,0,-1,874,1415,0,0
-343,-391,0,0,0,0,0,0,0,0,0,-1,881,1415,0,0
-336,-391,0,0,0,0,0,0,0,0,0,-1,888,1415,0,0
-329,-391,0,0,0,0,0,0,0,0,0,-1,895,1415,0,0
-322,-391,0,0,0,0,0,0,0,0,0,-1,902,1415,0,0
-315,-391,0,0,0,0,0,0,0,0,0,-1,909,1415,0,0
-308,-391,0,0,0,0,0,0,0,0,0,-1,916,1415,0,0
-301,-391,0,0,0,0,0,0,0,0,0,-1,923,1415,0,0
-294,-391,0,0,0,0,0,0,0,0,0,-1,930,1415,0,0
-287,-391,0,0,0,0,0,0,0,0,0,-1,937,1415,0,0
-280,-391,0,0,0,0,0,0,0,0,0,-1,944,1415,0,0
-273,-391,0,0,0,0,0,0,0,0,0,-1,951,1415,0,0
-266,-391,0,0,0,0,0,0,0,0,0,-1,958,1415,0,0
-259,-391,0,0,0,0,0,0,0,0,0,-1,965,1415,0,0
-252,-391,0,0,0,0,0,0,0,0,0,-1,972,1415,0,0
-245,-391,0,0,0,0,0,0,0,0,0,-1,979,1415,0,0
-238,-391,0,0,0,0,0,0,0,0,0,-1,986,1415,0,0
-231,-391,0,0,0,0,0,0,0,0,0,-1,993,1415,0,0
-224,-391,0,0,0,0,0,0,0,0,0,-1,1000,1415,0,0
-217,-391,0,0,0,0,0,0,0,0,0,-1,1007,1415,0,0
-210,-391,0,0,0,0,0,0,0,0,0,-1,1014,1415,0,0
-203,-391,0,0,0,0,0,0,0,0,0,-1,1021,1415,0,0
-196,-391,0,0,0,0,0,0,0,0,0,-1,1028,1415,0,0
-189,-391,0,0,0,0,0,0,0,0,0,-1,1035,1415,0,0
-182,-391,0,0,0,0,0,0,0,0,0,-1,1042,1415,0,0
-175,-391,0,0,0,0,0,0,0,0,0,-1,1049,1415,0,0
-168,-391,0,0,0,0,0,0,0,0,0,-1,1056,1415,0,0
-161,-391,0,0,0,0,0,0,0,0,0,-1,1063,1415,0,0
-154,-391,0,0,0,0,0,0,0,0,0,-1,1070,1415,0,0
-147,-391,0,0,0,0,0,0,0,0,0,-1,1077,1415,0,0
-140,-391,0,0,0,0,0,0,0,0,0,-1,1084,1415,0,0
-133,-391,0,0,0,0,0,0,0,0,0,-1,1091,1415,0,0
-126,-391,0,0,0,0,0,0,0,0,0,-1,1098,1415,0,0
-119,-391,0,0,0,0,0,0,0,0,0,-1,1105,1415,0,0
-112,-391,0,0,0,0,0,0,0,0,0,-1,1112,1415,0,0
-105,-391,0,0,0,0,0,0,0,0,0,-1,1119,1415,0,0
-98,-391,0,0,0,0,0,0,0,0,0,-1,1126,1415,0,0
-91,-391,0,0,0,0,0,0,0,0,0,-1,1133,1415,0,0
-84,-391,0,0,0,0,0,0,0,0,0,-1,1140,1415,0,0
-77,-391,0,0,0,0,0,0,0,0,0,-1,1147,1415,0,0
-70,-391,0,0,0,0,0,0,0,0,0,-1,1154,1415,0,0
-63,-391,0,0,0,0,0,0,0,0,0,-1,1161,1415,0,0
-56,-391,0,0,0,0,0,0,0,0,0,-1,1168,1415,0,0
-49,-391,0,0,0,0,0,0,0,0,0,-1,1175,1415,0,0
-42,-391,0,0,0,0,0,0,0,0,0,-1,1182,1415,0,0
-35,-391,0,0,0,0,0,0,0,0,0,-1,1189,1415,0,0
-28,-391,0,0,0,0,0,0,0,0,0,-1,1196,1415,0,0
-21,-391,0,0,0,0,0,0,0,0,0,-1,1203,1415,0,0
-14,-391,0,0,0,0,0,0,0,0,0,-1,1210,1415,0,0
-7,-391,0,0,0,0,0,0,0,0,0,-1,1217,1415,0,0
0,-391,0,0,0,0,0,0,0,0,0,-1,1224,1415,0,0
7,-391,0,0,0,0,0,0,0,0,0,-1,1231,1415,0,0
14,-391,0,0,0,0,0,0,0,0,0,-1,1238,1415,0,0
21,-391,0,0,0,0,0,0,0,0,0,-1,1245,1415,0,0
28,-391,0,0,0,0,0,0,0,0,0,-1,1252,1415,0,0
35,-391,0,0,0,0,0,0,0,0,0,-1,1259,1415,0,0
42,-391,0,0,0,0,0,0,0,0,0,-1,1266,1415,0,0
49,-391,0,0,0,0,0,0,0,0,0,-1,1273,1415,0,0
56,-391,0,0,0,0,0,0,0,0,0,-1,1280,1415,0,0
63,-391,0,0,0,0,0,0,0,0,0,-1,1287,1415,0,0
70,-391,0,0,0,0,0,0,0,0,0,-1,1294,1415,0,0
77,-391,0,0,0,0,0,0,0,0,0,-1,1301,1415,0,0
84,-391,0,0,0,0,0,0,0,0,0,-1,1308,1415,0,0
91,-391,0,0,0,0,0,0,0,0,0,-1,1315,1415,0,0
98,-391,0,0,0,0,0,0,0,0,0,-1,1322,1415,0,0
105,-391,0,0,0,0,0,0,0,0,0,-1,1329,1415,0,0
112,-391,0,0,0,0,0,0,0,0,0,-1,1336,1415,0,0
119,-391,0,0,0,0,0,0,0,0,0,-1,1343,1415,0,0
126,-391,0,0,0,0,0,0,0,0,0,-1,1350,1415,0,0
133,-391,0,0,0,0,0,0,0,0,0,-1,1357,1415,0,0
140,-391,0,0,0,0,0,0,0,0,0,-1,1364,1415,0,0
147,-391,0,0,0,0,0,0,0,0,0,-1,1371,1415,0,0
154,-391,0,0,0,0,0,0,0,0,0,-1,1378,1415,0,0
161,-391,0,0,0,0,0,0,0,0,0,-1,1385,1415,0,0
168,-391,0,0,0,0,0,0,0,0,0,-1,1392,1415,0,0
175,-391,0,0,0,0,0,0,0,0,0,-1,1399,1415,0,0
182,-391,0,0,0,0,0,0,0,0,0,-1,1406,1415,0,0
189,-391,0,0,0,0,0,0,0,0,0,-1,1413,1415,0,0
196,-391,0,0,0,0,0,0,0,0,0,-1,1420,1415,0,0
203,-391,0,0,0,0,0,0,0,0,0,-1,1427,1415,0,0
210,-391,0,0,0,0,0,0,0,0,0,-1,1434,1415,0,0
217,-391,0,0,0,0,0,0,0,0,0,-1,1441,1415,0,0
224,-391,0,0,0,0,0,0,0,0,0,-1,1448,1415,0,0
231,-391,0,0,0,0,0,0,0,0,0,-1,1455,1415,0,0
238,-391,0,0,0,0,0,0,0,0,0,-1,1462,1415,0,0
245,-391,0,0,0,0,0,0,0,0,0,-1,1469,1415,0,0
252,-391,0,0,0,0,0,0,0,0,0,-1,1476,1415,0,0
259,-391,0,0,0,0,0,0,0,0,0,-1,1483,1415,0,0
266,-391,0,0,0,0,0,0,0,0,0,-1,1490,1415,0,0
273,-391,0,0,0,0,0,0,0,0,0,-1,1497,1415,0,0
280,-391,0,0,0,0,0,0,0,0,0,-1,1504,1415,0,0
287,-391,0,0,0,0,0,0,0,0,0,-1,1511,1415,0,0
294,-391,0,0,0,0,0,0,0,0,0,-1,1518,1415,0,0
301,-391,0,0,0,0,0,0,0,0,0,-1,1525,1415,0,0
308,-391,0,0,0,0,0,0,0,0,0,-1,1532,1415,0,0
315,-391,0,0,0,0,0,0,0,0,0,-1,1539,1415,0,0
322,-391,0,0,0,0,0,0,0,0,0,-1,1546,1415,0,0
329,-391,0,0,0,0,0,0,0,0,0,-1,1553,1415,0,0
336,-391,0,0,0,0,0,0,0,0,0,-1,1560,1415,0,0
343,-391,0,0,0,0,0,0,0,0,0,-1,1567,1415,0,0
350,-391,0,0,0,0,0,0,0,0,0,-1,1574,1415,0,0
357,-391,0,0,0,0,0,0,0,0,0,-1,1581,1415,0,0
364,-391,0,0,0,0,0,0,0,0,0,-1,1588,1415,0,0
371,-391,0,0,0,0,0,0,0,0,0,-1,1595,1415,0,0
378,-391,0,0,0,0,0,0,0,0,0,-1,1602,1415,0,0
385,-391,0,0,0,0,0,0,0,0,0,-1,1609,1415,0,0
392,-391,0,0,0,0,0,0,0,0,0,-1,1616,1415,0,0
399,-391,0,0,0,0,0,0,0,0,0,-1,1623,1415,0,0
406,-391,0,0,0,0,0,0,0,0,0,-1,1630,1415,0,0
413,-391,0,0,0,0,0,0,0,0,0,-1,1637,1415,0,0
420,-391,0,0,0,0,0,0,0,0,0,-1,1644,1415,0,0
427,-391,0,0,0,0,0,0,0,0,0,-1,1651,1415,0,0
434,-391,0,0,0,0,0,0,0,0,0,-1,1658,1415,0,0
441,-391,0,0,0,0,0,0,0,0,0,-1,1665,1415,0,0
448,-391,0,0,0,0,0,0,0,0,0,-1,1672,1415,0,0
455,-391,0,0,0,0,0,0,0,0,0,-1,1679,1415,0,0
462,-391,0,0,0,0,0,0,0,0,0,-1,1686,1415,0,0
469,-391,0,0,0,0,0,0,0,0,0,-1,1693,1415,0,0
476,-391,0,0,0,0,0,0,0,0,0,-1,1700,1415,0,0
483,-391,0,0,0,0,0,0,0,0,0,-1,1707,1415,0,0
490,-391,0,0,0,0,0,0,0,0,0,-1,1714,1415,0,0
497,-391,0,0,0,0,0,0,0,0,0,-1,1721,1415,0,0
504,-391,0,0,0,0,0,0,0,0,0,-1,1728,1415,0,0
511,-391,0,0,0,0,0,0,0,0,0,-1,1735,1415,0,0
518,-391,0,0,0,0,0,0,0,0,0,-1,1742,1415,0,0
525,-391,0,0,0,0,0,0,0,0,0,-1,1749,1415,0,0
532,-391,28.5959,3.02356,0,0,0,0,0,0,0,-1,1756,1415,28.596,-3.02358
539,-391,27.5881,3.25012,0,0,0,0,0,0,0,-1,1763,1415,27.5882,-3.25016
546,-391,27.2837,3.28064,0,0,0,0,0,0,0,-1,1770,1415,27.2837,-3.28064
553,-391,32.5952,5.04553,0,0,0,0,0,0,0,-1,1777,1415,32.5952,-5.04551
560,-391,31.2947,5.67017,0,0,0,0,0,0,0,-1,1784,1415,31.2947,-5.67011
567,-391,30.1473,6.17603,0,0,0,0,0,0,0,-1,1791,1415,30.1473,-6.17602
574,-391,27.5656,5.6842,0,0,0,0,0,0,0,-1,1798,1415,27.5655,-5.68422
581,-391,25.8883,5.76123,0,0,0,0,0,0,0,-1,1805,1415,25.8883,-5.76124
588,-391,24.2717,5.47986,0,0,0,0,0,0,0,-1,1812,1415,24.2717,-5.47982
595,-391,22.8827,6.1991,0,0,0,0,0,0,0,-1,1819,1415,22.8827,-6.19909
602,-391,15.1635,5.69849,0,0,0,0,0,0,0,-1,1826,1415,15.1635,-5.69847
609,-391,14.8285,7.50476,0,0,0,0,0,0,0,-1,1833,1415,14.8285,-7.50479
616,-391,20.7952,12.0503,0,0,0,0,0,0,0,-1,1840,1415,20.7952,-12.0503
623,-391,22.995,12.7196,0,0,0,0,0,0,0,-1,1847,1415,22.995,-12.7196
630,-391,23.0333,12.3092,0.00121224,0.000650841,-0.000778355,0.00175896,0.000104116,-0.612342,0.00113952,0.031321,1854,1415,23.0333,-12.3092
637,-391,23.0066,11.9221,0.00104346,0.000354635,-0.000600319,0.00139115,6.94732e-06,-0.524964,0.000925124,0.0152973,1861,1415,23.0066,-11.9221
644,-391,22.972,11.5082,0.000894082,0.000222529,-0.000391092,0.00107377,4.28454e-05,-0.430677,0.000701998,0.0157489,1868,1415,22.9721,-11.5082
651,-391,22.9602,11.0782,0.000902316,7.04613e-05,-0.000168607,0.000935192,3.75857e-05,-0.192567,0.000611318,0.01742,1875,1415,22.9602,-11.0783
658,-391,22.9722,10.6694,0.000984535,-4.94997e-05,5.07622e-05,0.000987021,-5.19857e-05,0.0489345,0.000676009,0.0179591,1882,1415,22.9722,-10.6694
665,-391,22.9792,10.2893,0.00117444,-0.000200466,0.000317909,0.00124439,-0.000270415,0.216577,0.000932887,0.0139516,1889,1415,22.9792,-10.2893
672,-391,22.9611,9.8667,0.00148982,-0.000389206,0.000638374,0.00168618,-0.000585566,0.298408,0.00136194,0.0114311,1896,1415,22.9611,-9.86664
679,-391,22.9369,9.43884,0.00193541,-0.000679253,0.00104259,0.00230023,-0.00104408,0.336605,0.00197572,0.0109058,1903,1415,22.9369,-9.43881
686,-391,22.942,9.04419,0.00253362,-0.00111887,0.00159409,0.00313148,-0.00171673,0.358814,0.00283856,0.0139357,1910,1415,22.942,-9.04416
693,-391,22.9319,8.79541,0.00339878,-0.00171841,0.00222776,0.00423272,-0.00255235,0.358194,0.0039572,0.0335719,1917,1415,22.9319,-8.79537
700,-391,22.9828,8.53601,0,0,0,0,0,0,0,-1,1924,1415,22.9828,-8.53597
707,-391,12.9524,5.96851,0,0,0,0,0,0,0,-1,1931,1415,12.9524,-5.96849
714,-391,15.6875,7.67896,0,0,0,0,0,0,0,-1,1938,1415,15.6875,-7.67893
721,-391,14.1808,8.08435,0,0,0,0,0,0,0,-1,1945,1415,14.1808,-8.08439
728,-391,13.8102,7.28174,0,0,0,0,0,0,0,-1,1952,1415,13.8102,-7.28174
735,-391,0,0,0,0,0,0,0,0,0,-1,1959,1415,0,0
742,-391,0,0,0,0,0,0,0,0,0,-1,1966,1415,0,0
749,-391,0,0,0,0,0,0,0,0,0,-1,1973,1415,0,0
756,-391,0,0,0,0,0,0,0,0,0,-1,1980,1415,0,0
763,-391,0,0,0,0,0,0,0,0,0,-1,1987,1415,0,0
770,-391,0,0,0,0,0,0,0,0,0,-1,1994,1415,0,0
777,-391,0,0,0,0,0,0,0,0,0,-1,2001,1415,0,0
784,-391,0,0,0,0,0,0,0,0,0,-1,2008,1415,0,0
791,-391,0,0,0,0,0,0,0,0,0,-1,2015,1415,0,0
798,-391,0,0,0,0,0,0,0,0,0,-1,2022,1415,0,0
805,-391,0,0,0,0,0,0,0,0,0,-1,2029,1415,0,0
812,-391,0,0,0,0,0,0,0,0,0,-1,2036,1415,0,0
-700,-398,0,0,0,0,0,0,0,0,0,-1,524,1422,0,0
-693,-398,0,0,0,0,0,0,0,0,0,-1,531,1422,0,0
-686,-398,0,0,0,0,0,0,0,0,0,-1,538,1422,0,0
-679,-398,0,0,0,0,0,0,0,0,0,-1,545,1422,0,0
-672,-398,0,0,0,0,0,0,0,0,0,-1,552,1422,0,0
-665,-398,0,0,0,0,0,0,0,0,0,-1,559,1422,0,0
-658,-398,0,0,0,0,0,0,0,0,0,-1,566,1422,0,0
-651,-398,0,0,0,0,0,0,0,0,0,-1,573,1422,0,0
-644,-398,0,0,0,0,0,0,0,0,0,-1,580,1422,0,0
-637,-398,0,0,0,0,0,0,0,0,0,-1,587,1422,0,0
-630,-398,0,0,0,0,0,0,0,0,0,-1,594,1422,0,0
-623,-398,0,0,0,0,0,0,0,0,0,-1,601,1422,0,0
-616,-398,0,0,0,0,0,0,0,0,0,-1,608,1422,0,0
-609,-398,-7.47125,-4.05322,0,0,0,0,0,0,0,-1,615,1422,-7.47128,4.05317
-602,-398,-4.58868,-2.77026,0,0,0,0,0,0,0,-1,622,1422,-4.58869,2.77023
-595,-398,-12.2224,-1.82007,0,0,0,0,0,0,0,-1,629,1422,-12.2224,1.82006
-588,-398,-10.6939,1.32336,0,0,0,0,0,0,0,-1,636,1422,-10.6939,-1.32337
-581,-398,-10.433,3.1123,0,0,0,0,0,0,0,-1,643,1422,-10.433,-3.11233
-574,-398,-6.07343,3.35437,0,0,0,0,0,0,0,-1,650,1422,-6.07343,-3.35439
-567,-398,-9.36688,6.2467,0,0,0,0,0,0,0,-1,657,1422,-9.36689,-6.24666
-560,-398,-8.87714,6.88599,0,0,0,0,0,0,0,-1,664,1422,-8.87711,-6.88598
-553,-398,-9.784,6.86353,0,0,0,0,0,0,0,-1,671,1422,-9.78402,-6.8635
-546,-398,-9.76166,7.41003,-0.00590287,-0.000666495,-0.00292324,0.00063963,-0.00720899,-1.1506,0.00503277,0.0245064,678,1422,-9.76168,-7.41006
-539,-398,-9.70044,7.90942,-0.00406489,-0.000438276,-0.00197839,0.000432091,-0.00493526,-1.15634,0.00344325,0.0130453,685,1422,-9.70042,-7.90938
-532,-398,-9.69281,8.38647,-0.0024241,-0.000102817,-0.001101,0.000336316,-0.00286323,-1.19128,0.00203024,0.0203017,692,1422,-9.6928,-8.38648
-525,-398,-9.73376,8.82336,-0.000879738,0.000319436,-0.000237921,0.000364916,-0.000925218,-1.38192,0.000767917,0.0204787,699,1422,-9.73374,-8.82331
-518,-398,-9.76746,9.24023,0.000563793,0.000838548,0.000620559,0.00133675,6.55879e-05,0.89433,0.000870131,0.0187417,706,1422,-9.76744,-9.24029
-511,-398,-9.75793,9.67639,0.0020108,0.00150199,0.00157594,0.00335274,0.000160051,0.705374,0.00218377,0.0140159,713,1422,-9.75792,-9.67635
-504,-398,-9.75262,10.1644,0.00351733,0.00234009,0.00262505,0.00561894,0.000238472,0.675107,0.00366906,0.0138411,720,1422,-9.7526,-10.1644
-497,-398,-9.77686,10.6116,0.00497331,0.00335904,0.00377643,0.0080279,0.000304456,0.680117,0.00525339,0.0104847,727,1422,-9.77683,-10.6115
-490,-398,-9.79541,11.0602,0.00653574,0.00459604,0.00507551,0.0107332,0.000398554,0.690994,0.0070264,0.0161585,734,1422,-9.79539,-11.0602
-483,-398,-9.78644,11.5254,0,0,0,0,0,0,0,-1,741,1422,-9.78641,-11.5254
-476,-398,-8.64392,11.9448,0,0,0,0,0,0,0,-1,748,1422,-8.6439,-11.9448
-469,-398,-8.91699,10.6276,0,0,0,0,0,0,0,-1,755,1422,-8.91697,-10.6275
-462,-398,-9.59753,9.32532,0,0,0,0,0,0,0,-1,762,1422,-9.59753,-9.32531
-455,-398,-8.08331,6.75024,0,0,0,0,0,0,0,-1,769,1422,-8.08333,-6.75022
-448,-398,-7.4505,5.25293,0,0,0,0,0,0,0,-1,776,1422,-7.4505,-5.25291
-441,-398,-7.61639,3.32141,0,0,0,0,0,0,0,-1,783,1422,-7.61637,-3.32145
-434,-398,-10.7618,3.297,0,0,0,0,0,0,0,-1,790,1422,-10.7618,-3.29704
-427,-398,-11.9061,2.24939,0,0,0,0,0,0,0,-1,797,1422,-11.9061,-2.24941
-420,-398,-13.467,2.32788,0,0,0,0,0,0,0,-1,804,1422,-13.467,-2.32787
-413,-398,-14.7983,2.15515,0,0,0,0,0,0,0,-1,811,1422,-14.7983,-2.15516
-406,-398,0,0,0,0,0,0,0,0,0,-1,818,1422,0,0
-399,-398,0,0,0,0,0,0,0,0,0,-1,825,1422,0,0
-392,-398,0,0,0,0,0,0,0,0,0,-1,832,1422,0,0
-385,-398,0,0,0,0,0,0,0,0,0,-1,839,1422,0,0
-378,-398,0,0,0,0,0,0,0,0,0,-1,846,1422,0,0
-371,-398,0,0,0,0,0,0,0,0,0,-1,853,1422,0,0
-364,-398,0,0,0,0,0,0,0,0,0,-1,860,1422,0,0
-357,-398,0,0,0,0,0,0,0,0,0,-1,867,1422,0,0
-350,-398,0,0,0,0,0,0,0,0,0,-1,874,1422,0,0
-343,-398,0,0,0,0,0,0,0,0,0,-1,881,1422,0,0
-336,-398,0,0,0,0,0,0,0,0,0,-1,888,1422,0,0
-329,-398,0,0,0,0,0,0,0,0,0,-1,895,1422,0,0
-322,-398,0,0,0,0,0,0,0,0,0,-1,902,1422,0,0
-315,-398,0,0,0,0,0,0,0,0,0,-1,909,1422,0,0
-308,-398,0,0,0,0,0,0,0,0,0,-1,916,1422,0,0
-301,-398,0,0,0,0,0,0,0,0,0,-1,923,1422,0,0
-294,-398,0,0,0,0,0,0,0,0,0,-1,930,1422,0,0
-287,-398,0,0,0,0,0,0,0,0,0,-1,937,1422,0,0
-280,-398,0,0,0,0,0,0,0,0,0,-1,944,1422,0,0
-273,-398,0,0,0,0,0,0,0,0,0,-1,951,1422,0,0
-266,-398,0,0,0,0,0,0,0,0,0,-1,958,1422,0,0
-259,-398,0,0,0,0,0,0,0,0,0,-1,965,1422,0,0
-252,-398,0,0,0,0,0,0,0,0,0,-1,972,1422,0,0
-245,-398,0,0,0,0,0,0,0,0,0,-1,979,1422,0,0
-238,-398,0,0,0,0,0,0,0,0,0,-1,986,1422,0,0
-231,-398,0,0,0,0,0,0,0,0,0,-1,993,1422,0,0
-224,-398,0,0,0,0,0,0,0,0,0,-1,1000,1422,0,0
-217,-398,0,0,0,0,0,0,0,0,0,-1,1007,1422,0,0
-210,-398,0,0,0,0,0,0,0,0,0,-1,1014,1422,0,0
-203,-398,0,0,0,0,0,0,0,0,0,-1,1021,1422,0,0
-196,-398,0,0,0,0,0,0,0,0,0,-1,1028,1422,0,0
-189,-398,0,0,0,0,0,0,0,0,0,-1,1035,1422,0,0
-182,-398,0,0,0,0,0,0,0,0,0,-1,1042,1422,0,0
-175,-398,0,0,0,0,0,0,0,0,0,-1,1049,1422,0,0
-168,-398,0,0,0,0,0,0,0,0,0,-1,1056,1422,0,0
-161,-398,0,0,0,0,0,0,0,0,0,-1,1063,1422,0,0
-154,-398,0,0,0,0,0,0,0,0,0,-1,1070,1422,0,0
-147,-398,0,0,0,0,0,0,0,0,0,-1,1077,1422,0,0
-140,-398,0,0,0,0,0,0,0,0,0,-1,1084,1422,0,0
-133,-398,0,0,0,0,0,0,0,0,0,-1,1091,1422,0,0
-126,-398,0,0,0,0,0,0,0,0,0,-1,1098,1422,0,0
-119,-398,0,0,0,0,0,0,0,0,0,-1,1105,1422,0,0
-112,-398,0,0,0,0,0,0,0,0,0,-1,1112,1422,0,0
-105,-398,0,0,0,0,0,0,0,0,0,-1,1119,1422,0,0
-98,-398,0,0,0,0,0,0,0,0,0,-1,1126,1422,0,0
-91,-398,0,0,0,0,0,0,0,0,0,-1,1133,1422,0,0
-84,-398,0,0,0,0,0,0,0,0,0,-1,1140,1422,0,0
-77,-398,0,0,0,0,0,0,0,0,0,-1,1147,1422,0,0
-70,-398,0,0,0,0,0,0,0,0,0,-1,1154,1422,0,0
-63,-398,0,0,0,0,0,0,0,0,0,-1,1161,1422,0,0
-56,-398,0,0,0,0,0,0,0,0,0,-1,1168,1422,0,0
-49,-398,0,0,0,0,0,0,0,0,0,-1,1175,1422,0,0
-42,-398,0,0,0,0,0,0,0,0,0,-1,1182,1422,0,0
-35,-398,0,0,0,0,0,0,0,0,0,-1,1189,1422,0,0
-28,-398,0,0,0,0,0,0,0,0,0,-1,1196,1422,0,0
-21,-398,0,0,0,0,0,0,0,0,0,-1,1203,1422,0,0
-14,-398,0,0,0,0,0,0,0,0,0,-1,1210,1422,0,0
-7,-398,0,0,0,0,0,0,0,0,0,-1,1217,1422,0,0
0,-398,0,0,0,0,0,0,0,0,0,-1,1224,1422,0,0
7,-398,0,0,0,0,0,0,0,0,0,-1,1231,1422,0,0
14,-398,0,0,0,0,0,0,0,0,0,-1,1238,1422,0,0
21,-398,0,0,0,0,0,0,0,0,0,-1,1245,1422,0,0
28,-398,0,0,0,0,0,0,0,0,0,-1,1252,1422,0,0
35,-398,0,0,0,0,0,0,0,0,0,-1,1259,1422,0,0
42,-398,0,0,0,0,0,0,0,0,0,-1,1266,1422,0,0
49,-398,0,0,0,0,0,0,0,0,0,-1,1273,1422,0,0
56,-398,0,0,0,0,0,0,0,0,0,-1,1280,1422,0,0
63,-398,0,0,0,0,0,0,0,0,0,-1,1287,1422,0,0
70,-398,0,0,0,0,0,0,0,0,0,-1,1294,1422,0,0
77,-398,0,0,0,0,0,0,0,0,0,-1,1301,1422,0,0
84,-398,0,0,0,0,0,0,0,0,0,-1,1308,1422,0,0
91,-398,0,0,0,0,0,0,0,0,0,-1,1315,1422,0,0
98,-398,0,0,0,0,0,0,0,0,0,-1,1322,1422,0,0
105,-398,0,0,0,0,0,0,0,0,0,-1,1329,1422,0,0
112,-398,0,0,0,0,0,0,0,0,0,-1,1336,1422,0,0
119,-398,0,0,0,0,0,0,0,0,0,-1,1343,1422,0,0
126,-398,0,0,0,0,0,0,0,0,0,-1,1350,1422,0,0
133,-398,0,0,0,0,0,0,0,0,0,-1,1357,1422,0,0
140,-398,0,0,0,0,0,0,0,0,0,-1,1364,1422,0,0
147,-398,0,0,0,0,0,0,0,0,0,-1,1371,1422,0,0
154,-398,0,0,0,0,0,0,0,0,0,-1,1378,1422,0,0
161,-398,0,0,0,0,0,0,0,0,0,-1,1385,1422,0,0
168,-398,0,0,0,0,0,0,0,0,0,-1,1392,1422,0,0
175,-398,0,0,0,0,0,0,0,0,0,-1,1399,1422,0,0
182,-398,0,0,0,0,0,0,0,0,0,-1,1406,1422,0,0
189,-398,0,0,0,0,0,0,0,0,0,-1,1413,1422,0,0
196,-398,0,0,0,0,0,0,0,0,0,-1,1420,1422,0,0
203,-398,0,0,0,0,0,0,0,0,0,-1,1427,1422,0,0
210,-398,0,0,0,0,0,0,0,0,0,-1,1434,1422,0,0
217,-398,0,0,0,0,0,0,0,0,0,-1,1441,1422,0,0
224,-398,0,0,0,0,0,0,0,0,0,-1,1448,1422,0,0
231,-398,0,0,0,0,0,0,0,0,0,-1,1455,1422,0,0
238,-398,0,0,0,0,0,0,0,0,0,-1,1462,1422,0,0
245,-398,0,0,0,0,0,0,0,0,0,-1,1469,1422,0,0
252,-398,0,0,0,0,0,0,0,0,0,-1,1476,1422,0,0
259,-398,0,0,0,0,0,0,0,0,0,-1,1483,1422,0,0
266,-398,0,0,0,0,0,0,0,0,0,-1,1490,1422,0,0
273,-398,0,0,0,0,0,0,0,0,0,-1,1497,1422,0,0
280,-398,0,0,0,0,0,0,0,0,0,-1,1504,1422,0,0
287,-398,0,0,0,0,0,0,0,0,0,-1,1511,1422,0,0
294,-398,0,0,0,0,0,0,0,0,0,-1,1518,1422,0,0
301,-398,0,0,0,0,0,0,0,0,0,-1,1525,1422,0,0
308,-398,0,0,0,0,0,0,0,0,0,-1,1532,1422,0,0
315,-398,0,0,0,0,0,0,0,0,0,-1,1539,1422,0,0
322,-398,0,0,0,0,0,0,0,0,0,-1,1546,1422,0,0
329,-398,0,0,0,0,0,0,0,0,0,-1,1553,1422,0,0
336,-398,0,0,0,0,0,0,0,0,0,-1,1560,1422,0,0
343,-398,0,0,0,0,0,0,0,0,0,-1,1567,1422,0,0
350,-398,0,0,0,0,0,0,0,0,0,-1,1574,1422,0,0
357,-398,0,0,0,0,0,0,0,0,0,-1,1581,1422,0,0
364,-398,0,0,0,0,0,0,0,0,0,-1,1588,1422,0,0
371,-398,0,0,0,0,0,0,0,0,0,-1,1595,1422,0,0
378,-398,0,0,0,0,0,0,0,0,0,-1,1602,1422,0,0
385,-398,0,0,0,0,0,0,0,0,0,-1,1609,1422,0,0
392,-398,0,0,0,0,0,0,0,0,0,-1,1616,1422,0,0
399,-398,0,0,0,0,0,0,0,0,0,-1,1623,1422,0,0
406,-398,0,0,0,0,0,0,0,0,0,-1,1630,1422,0,0
413,-398,0,0,0,0,0,0,0,0,0,-1,1637,1422,0,0
420,-398,0,0,0,0,0,0,0,0,0,-1,1644,1422,0,0
427,-398,0,0,0,0,0,0,0,0,0,-1,1651,1422,0,0
434,-398,0,0,0,0,0,0,0,0,0,-1,1658,1422,0,0
441,-398,0,0,0,0,0,0,0,0,0,-1,1665,1422,0,0
448,-398,0,0,0,0,0,0,0,0,0,-1,1672,1422,0,0
455,-398,0,0,0,0,0,0,0,0,0,-1,1679,1422,0,0
462,-398,0,0,0,0,0,0,0,0,0,-1,1686,1422,0,0
469,-398,0,0,0,0,0,0,0,0,0,-1,1693,1422,0,0
476,-398,0,0,0,0,0,0,0,0,0,-1,1700,1422,0,0
483,-398,0,0,0,0,0,0,0,0,0,-1,1707,1422,0,0
490,-398,0,0,0,0,0,0,0,0,0,-1,1714,1422,0,0
497,-398,0,0,0,0,0,0,0,0,0,-1,1721,1422,0,0
504,-398,0,0,0,0,0,0,0,0,0,-1,1728,1422,0,0
511,-398,0,0,0,0,0,0,0,0,0,-1,1735,1422,0,0
518,-398,0,0,0,0,0,0,0,0,0,-1,1742,1422,0,0
525,-398,0,0,0,0,0,0,0,0,0,-1,1749,1422,0,0
532,-398,28.4558,3.84094,0,0,0,0,0,0,0,-1,1756,1422,28.4558,-3.8409
539,-398,27.0594,3.33887,0,0,0,0,0,0,0,-1,1763,1422,27.0595,-3.3389
546,-398,31.6873,5.58582,0,0,0,0,0,0,0,-1,1770,1422,31.6872,-5.58585
553,-398,30.4392,5.92383,0,0,0,0,0,0,0,-1,1777,1422,30.4392,-5.92386
560,-398,29.1621,6.30469,0,0,0,0,0,0,0,-1,1784,1422,29.1621,-6.30469
567,-398,27.8411,6.55029,0,0,0,0,0,0,0,-1,1791,1422,27.8411,-6.55033
574,-398,26.411,6.8916,0,0,0,0,0,0,0,-1,1798,1422,26.411,-6.8916
581,-398,24.75,7.11145,0,0,0,0,0,0,0,-1,1805,1422,24.7499,-7.11142
588,-398,23.1649,7.67969,0,0,0,0,0,0,0,-1,1812,1422,23.1649,-7.67975
595,-398,21.4253,7.86023,0,0,0,0,0,0,0,-1,1819,1422,21.4253,-7.86029
602,-398,19.6857,8.04077,0,0,0,0,0,0,0,-1,1826,1422,19.6856,-8.04083
609,-398,21.1835,13.2628,0,0,0,0,0,0,0,-1,1833,1422,21.1835,-13.2628
616,-398,22.3431,13.3882,0,0,0,0,0,0,0,-1,1840,1422,22.3431,-13.3882
623,-398,22.61,12.7178,0.00155494,0.000969792,-0.000972689,0.0022781,0.000246629,-0.639308,0.00144357,0.0252389,1847,1422,22.6099,-12.7177
630,-398,22.614,12.3136,0.0012692,0.000531291,-0.000633161,0.00163306,0.000167428,-0.521591,0.00103741,0.0123786,1854,1422,22.614,-12.3137
637,-398,22.6029,11.9303,0.00107483,0.000235112,-0.000436773,0.00126082,4.91227e-05,-0.402571,0.00082466,0.0138272,1861,1422,22.6029,-11.9303
644,-398,22.5016,11.532,0.000947962,9.04207e-05,-0.00025419,0.00101765,2.07369e-05,-0.267567,0.000671625,0.0199635,1868,1422,22.5016,-11.5319
651,-398,22.5634,11.1569,0.000959632,-2.03342e-05,-7.65026e-05,0.000965568,-2.62706e-05,-0.0774413,0.000652645,0.030424,1875,1422,22.5634,-11.1568
658,-398,22.6,10.7401,0.00100496,-7.77237e-05,9.58345e-05,0.00101338,-8.61412e-05,0.0876079,0.000706054,0.0247852,1882,1422,22.5999,-10.7402
665,-398,22.5627,10.3066,0.00113901,-0.000157807,0.000322165,0.00121463,-0.000233432,0.230564,0.000897739,0.0152005,1889,1422,22.5627,-10.3067
672,-398,22.5482,9.88025,0.00137258,-0.00026238,0.000614248,0.00157763,-0.000467433,0.322196,0.00123735,0.0124571,1896,1422,22.5482,-9.88024
679,-398,22.5341,9.45251,0.00170856,-0.000517074,0.00103537,0.00211573,-0.000924242,0.374681,0.0017995,0.0114954,1903,1422,22.534,-9.45254
686,-398,22.5521,9.05151,0.00216292,-0.00093511,0.00166367,0.00288706,-0.00165925,0.410536,0.00265653,0.0201033,1910,1422,22.5522,-9.05146
693,-398,22.4587,8.95825,0,0,0,0,0,0,0,-1,1917,1422,22.4587,-8.95829
700,-398,14.0787,6.53918,0,0,0,0,0,0,0,-1,1924,1422,14.0787,-6.53921
707,-398,10.9731,5.479,0,0,0,0,0,0,0,-1,1931,1422,10.9732,-5.47896
714,-398,11.7313,6.17346,0,0,0,0,0,0,0,-1,1938,1422,11.7313,-6.17348
721,-398,13.9371,8.05103,0,0,0,0,0,0,0,-1,1945,1422,13.9372,-8.05102
728,-398,14.786,7.0282,0,0,0,0,0,0,0,-1,1952,1422,14.786,-7.0282
735,-398,0,0,0,0,0,0,0,0,0,-1,1959,1422,0,0
742,-398,0,0,0,0,0,0,0,0,0,-1,1966,1422,0,0
749,-398,0,0,0,0,0,0,0,0,0,-1,1973,1422,0,0
756,-398,0,0,0,0,0,0,0,0,0,-1,1980,1422,0,0
763,-398,0,0,0,0,0,0,0,0,0,-1,1987,1422,0,0
770,-398,0,0,0,0,0,0,0,0,0,-1,1994,1422,0,0
777,-398,0,0,0,0,0,0,0,0,0,-1,2001,1422,0,0
784,-398,0,0,0,0,0,0,0,0,0,-1,2008,1422,0,0
791,-398,0,0,0,0,0,0,0,0,0,-1,2015,1422,0,0
798,-398,0,0,0,0,0,0,0,0,0,-1,2022,1422,0,0
805,-398,0,0,0,0,0,0,0,0,0,-1,2029,1422,0,0
812,-398,0,0,0,0,0,0,0,0,0,-1,2036,1422,0,0
-700,-405,0,0,0,0,0,0,0,0,0,-1,524,1429,0,0
-693,-405,0,0,0,0,0,0,0,0,0,-1,531,1429,0,0
-686,-405,0,0,0,0,0,0,0,0,0,-1,538,1429,0,0
-679,-405,0,0,0,0,0,0,0,0,0,-1,545,1429,0,0
-672,-405,0,0,0,0,0,0,0,0,0,-1,552,1429,0,0
-665,-405,0,0,0,0,0,0,0,0,0,-1,559,1429,0,0
-658,-405,0,0,0,0,0,0,0,0,0,-1,566,1429,0,0
-651,-405,0,0,0,0,0,0,0,0,0,-1,573,1429,0,0
-644,-405,0,0,0,0,0,0,0,0,0,-1,580,1429,0,0
-637,-405,0,0,0,0,0,0,0,0,0,-1,587,1429,0,0
-630,-405,0,0,0,0,0,0,0,0,0,-1,594,1429,0,0
-623,-405,0,0,0,0,0,0,0,0,0,-1,601,1429,0,0
-616,-405,0,0,0,0,0,0,0,0,0,-1,608,1429,0,0
-609,-405,0,0,0,0,0,0,0,0,0,-1,615,1429,0,0
-602,-405,-5.80988,-3.46594,0,0,0,0,0,0,0,-1,622,1429,-5.80987,3.46592
-595,-405,-9.35413,2.01477,0,0,0,0,0,0,0,-1,629,1429,-9.35411,-2.01476
-588,-405,-7.35693,0.507202,0,0,0,0,0,0,0,-1,636,1429,-7.35696,-0.507187
-581,-405,-10.1284,1.62927,0,0,0,0,0,0,0,-1,643,1429,-10.1284,-1.62922
-574,-405,-9.32074,3.05896,0,0,0,0,0,0,0,-1,650,1429,-9.32077,-3.0589
-567,-405,-8.09094,7.31628,0,0,0,0,0,0,0,-1,657,1429,-8.09094,-7.31626
-560,-405,-8.19012,7.15186,0,0,0,0,0,0,0,-1,664,1429,-8.19011,-7.15187
-553,-405,-9.28894,6.95129,0,0,0,0,0,0,0,-1,671,1429,-9.28894,-6.95127
-546,-405,-9.29376,7.40747,-0.00645302,0.00140138,-0.00191166,0.00184194,-0.00689358,-1.34429,0.00531713,0.036567,678,1429,-9.29374,-7.40753
-539,-405,-9.2868,7.86365,-0.00452267,0.00129481,-0.00112163,0.00150357,-0.00473144,-1.38678,0.00375714,0.012465,685,1429,-9.28678,-7.86366
-532,-405,-9.28711,8.32214,-0.00288951,0.00129207,-0.000470055,0.00134426,-0.0029417,-1.46022,0.00253114,0.0145627,692,1429,-9.28712,-8.32211
-525,-405,-9.29816,8.79993,-0.0014063,0.00131691,0.000115626,0.00132181,-0.0014112,1.52844,0.00157819,0.0142412,699,1429,-9.29817,-8.79992
-518,-405,-9.29126,9.26025,-7.96614e-05,0.0014322,0.000677172,0.00169116,-0.000338616,1.20555,0.00125562,0.0161528,706,1429,-9.29123,-9.26024
-511,-405,-9.29767,9.70215,0.00119918,0.00167884,0.00131287,0.00277361,0.000104409,0.875741,0.00181527,0.0164644,713,1429,-9.29769,-9.70211
-504,-405,-9.30597,10.166,0.00252531,0.00209933,0.00203808,0.0043615,0.000263135,0.733335,0.00282405,0.0172974,720,1429,-9.30594,-10.166
-497,-405,-9.31293,10.6367,0.00379818,0.00271008,0.00287592,0.00618106,0.000327203,0.691916,0.00401608,0.0139636,727,1429,-9.31293,-10.6367
-490,-405,-9.33142,11.0859,0.00510598,0.00352424,0.00382168,0.00821777,0.000412453,0.683367,0.00534633,0.011519,734,1429,-9.33141,-11.0859
-483,-405,-9.28247,11.5739,0.00625918,0.00465727,0.00491554,0.0104386,0.000477856,0.704636,0.00680537,0.0188114,741,1429,-9.28248,-11.5738
-476,-405,-9.13165,12.2019,0,0,0,0,0,0,0,-1,748,1429,-9.13167,-12.2019
-469,-405,-9.50464,12.4514,0,0,0,0,0,0,0,-1,755,1429,-9.50465,-12.4514
-462,-405,-9.14862,11.3597,0,0,0,0,0,0,0,-1,762,1429,-9.14865,-11.3597
-455,-405,-9.021,9.51111,0,0,0,0,0,0,0,-1,769,1429,-9.021,-9.51109
-448,-405,-8.4649,6.82813,0,0,0,0,0,0,0,-1,776,1429,-8.46492,-6.82817
-441,-405,-6.6712,4.23767,0,0,0,0,0,0,0,-1,783,1429,-6.67121,-4.23764
-434,-405,-9.62549,3.94189,0,0,0,0,0,0,0,-1,790,1429,-9.62546,-3.94191
-427,-405,-10.9764,3.73926,0,0,0,0,0,0,0,-1,797,1429,-10.9764,-3.73923
-420,-405,-12.1187,3.68506,0,0,0,0,0,0,0,-1,804,1429,-12.1187,-3.68512
-413,-405,-13.5353,3.75659,0,0,0,0,0,0,0,-1,811,1429,-13.5353,-3.75655
-406,-405,-14.7374,3.99817,0,0,0,0,0,0,0,-1,818,1429,-14.7374,-3.99814
-399,-405,0,0,0,0,0,0,0,0,0,-1,825,1429,0,0
-392,-405,0,0,0,0,0,0,0,0,0,-1,832,1429,0,0
-385,-405,0,0,0,0,0,0,0,0,0,-1,839,1429,0,0
-378,-405,0,0,0,0,0,0,0,0,0,-1,846,1429,0,0
-371,-405,0,0,0,0,0,0,0,0,0,-1,853,1429,0,0
-364,-405,0,0,0,0,0,0,0,0,0,-1,860,1429,0,0
-357,-405,0,0,0,0,0,0,0,0,0,-1,867,1429,0,0
-350,-405,0,0,0,0,0,0,0,0,0,-1,874,1429,0,0
-343,-405,0,0,0,0,0,0,0,0,0,-1,881,1429,0,0
-336,-405,0,0,0,0,0,0,0,0,0,-1,888,1429,0,0
-329,-405,0,0,0,0,0,0,0,0,0,-1,895,1429,0,0
-322,-405,0,0,0,0,0,0,0,0,0,-1,902,1429,0,0
-315,-405,0,0,0,0,0,0,0,0,0,-1,909,1429,0,0
-308,-405,0,0,0,0,0,0,0,0,0,-1,916,1429,0,0
-301,-405,0,0,0,0,0,0,0,0,0,-1,923,1429,0,0
-294,-405,0,0,0,0,0,0,0,0,0,-1,930,1429,0,0
-287,-405,0,0,0,0,0,0,0,0,0,-1,937,1429,0,0
-280,-405,0,0,0,0,0,0,0,0,0,-1,944,1429,0,0
-273,-405,0,0,0,0,0,0,0,0,0,-1,951,1429,0,0
-266,-405,0,0,0,0,0,0,0,0,0,-1,958,1429,0,0
-259,-405,0,0,0,0,0,0,0,0,0,-1,965,1429,0,0
-252,-405,0,0,0,0,0,0,0,0,0,-1,972,1429,0,0
-245,-405,0,0,0,0,0,0,0,0,0,-1,979,1429,0,0
-238,-405,0,0,0,0,0,0,0,0,0,-1,986,1429,0,0
-231,-405,0,0,0,0,0,0,0,0,0,-1,993,1429,0,0
-224,-405,0,0,0,0,0,0,0,0,0,-1,1000,1429,0,0
-217,-405,0,0,0,0,0,0,0,0,0,-1,1007,1429,0,0
-210,-405,0,0,0,0,0,0,0,0,0,-1,1014,1429,0,0
-203,-405,0,0,0,0,0,0,0,0,0,-1,1021,1429,0,0
-196,-405,0,0,0,0,0,0,0,0,0,-1,1028,1429,0,0
-189,-405,0,0,0,0,0,0,0,0,0,-1,1035,1429,0,0
-182,-405,0,0,0,0,0,0,0,0,0,-1,1042,1429,0,0
-175,-405,0,0,0,0,0,0,0,0,0,-1,1049,1429,0,0
-168,-405,0,0,0,0,0,0,0,0,0,-1,1056,1429,0,0
-161,-405,0,0,0,0,0,0,0,0,0,-1,1063,1429,0,0
-154,-405,0,0,0,0,0,0,0,0,0,-1,1070,1429,0,0
-147,-405,0,0,0,0,0,0,0,0,0,-1,1077,1429,0,0
-140,-405,0,0,0,0,0,0,0,0,0,-1,1084,1429,0,0
-133,-405,0,0,0,0,0,0,0,0,0,-1,1091,1429,0,0
-126,-405,0,0,0,0,0,0,0,0,0,-1,1098,1429,0,0
-119,-405,0,0,0,0,0,0,0,0,0,-1,1105,1429,0,0
-112,-405,0,0,0,0,0,0,0,0,0,-1,1112,1429,0,0
-105,-405,0,0,0,0,0,0,0,0,0,-1,1119,1429,0,0
-98,-405,0,0,0,0,0,0,0,0,0,-1,1126,1429,0,0
-91,-405,0,0,0,0,0,0,0,0,0,-1,1133,1429,0,0
-84,-405,0,0,0,0,0,0,0,0,0,-1,1140,1429,0,0
-77,-405,0,0,0,0,0,0,0,0,0,-1,1147,1429,0,0
-70,-405,0,0,0,0,0,0,0,0,0,-1,1154,1429,0,0
-63,-405,0,0,0,0,0,0,0,0,0,-1,1161,1429,0,0
-56,-405,0,0,0,0,0,0,0,0,0,-1,1168,1429,0,0
-49,-405,0,0,0,0,0,0,0,0,0,-1,1175,1429,0,0
-42,-405,0,0,0,0,0,0,0,0,0,-1,1182,1429,0,0
-35,-405,0,0,0,0,0,0,0,0,0,-1,1189,1429,0,0
-28,-405,0,0,0,0,0,0,0,0,0,-1,1196,1429,0,0
-21,-405,0,0,0,0,0,0,0,0,0,-1,1203,1429,0,0
-14,-405,0,0,0,0,0,0,0,0,0,-1,1210,1429,0,0
-7,-405,0,0,0,0,0,0,0,0,0,-1,1217,1429,0,0
0,-405,0,0,0,0,0,0,0,0,0,-1,1224,1429,0,0
7,-405,0,0,0,0,0,0,0,0,0,-1,1231,1429,0,0
14,-405,0,0,0,0,0,0,0,0,0,-1,1238,1429,0,0
21,-405,0,0,0,0,0,0,0,0,0,-1,1245,1429,0,0
28,-405,0,0,0,0,0,0,0,0,0,-1,1252,1429,0,0
35,-405,0,0,0,0,0,0,0,0,0,-1,1259,1429,0,0
42,-405,0,0,0,0,0,0,0,0,0,-1,1266,1429,0,0
49,-405,0,0,0,0,0,0,0,0,0,-1,1273,1429,0,0
56,-405,0,0,0,0,0,0,0,0,0,-1,1280,1429,0,0
63,-405,0,0,0,0,0,0,0,0,0,-1,1287,1429,0,0
70,-405,0,0,0,0,0,0,0,0,0,-1,1294,1429,0,0
77,-405,0,0,0,0,0,0,0,0,0,-1,1301,1429,0,0
84,-405,0,0,0,0,0,0,0,0,0,-1,1308,1429,0,0
91,-405,0,0,0,0,0,0,0,0,0,-1,1315,1429,0,0
98,-405,0,0,0,0,0,0,0,0,0,-1,1322,1429,0,0
105,-405,0,0,0,0,0,0,0,0,0,-1,1329,1429,0,0
112,-405,0,0,0,0,0,0,0,0,0,-1,1336,1429,0,0
119,-405,0,0,0,0,0,0,0,0,0,-1,1343,1429,0,0
126,-405,0,0,0,0,0,0,0,0,0,-1,1350,1429,0,0
133,-405,0,0,0,0,0,0,0,0,0,-1,1357,1429,0,0
140,-405,0,0,0,0,0,0,0,0,0,-1,1364,1429,0,0
147,-405,0,0,0,0,0,0,0,0,0,-1,1371,1429,0,0
154,-405,0,0,0,0,0,0,0,0,0,-1,1378,1429,0,0
161,-405,0,0,0,0,0,0,0,0,0,-1,1385,1429,0,0
168,-405,0,0,0,0,0,0,0,0,0,-1,1392,1429,0,0
175,-405,0,0,0,0,0,0,0,0,0,-1,1399,1429,0,0
182,-405,0,0,0,0,0,0,0,0,0,-1,1406,1429,0,0
189,-405,0,0,0,0,0,0,0,0,0,-1,1413,1429,0,0
196,-405,0,0,0,0,0,0,0,0,0,-1,1420,1429,0,0
203,-405,0,0,0,0,0,0,0,0,0,-1,1427,1429,0,0
210,-405,0,0,0,0,0,0,0,0,0,-1,1434,1429,0,0
217,-405,0,0,0,0,0,0,0,0,0,-1,1441,1429,0,0
224,-405,0,0,0,0,0,0,0,0,0,-1,1448,1429,0,0
231,-405,0,0,0,0,0,0,0,0,0,-1,1455,1429,0,0
238,-405,0,0,0,0,0,0,0,0,0,-1,1462,1429,0,0
245,-405,0,0,0,0,0,0,0,0,0,-1,1469,1429,0,0
252,-405,0,0,0,0,0,0,0,0,0,-1,1476,1429,0,0
259,-405,0,0,0,0,0,0,0,0,0,-1,1483,1429,0,0
266,-405,0,0,0,0,0,0,0,0,0,-1,1490,1429,0,0
273,-405,0,0,0,0,0,0,0,0,0,-1,1497,1429,0,0
280,-405,0,0,0,0,0,0,0,0,0,-1,1504,1429,0,0
287,-405,0,0,0,0,0,0,0,0,0,-1,1511,1429,0,0
294,-405,0,0,0,0,0,0,0,0,0,-1,1518,1429,0,0
301,-405,0,0,0,0,0,0,0,0,0,-1,1525,1429,0,0
308,-405,0,0,0,0,0,0,0,0,0,-1,1532,1429,0,0
315,-405,0,0,0,0,0,0,0,0,0,-1,1539,1429,0,0
322,-405,0,0,0,0,0,0,0,0,0,-1,1546,1429,0,0
329,-405,0,0,0,0,0,0,0,0,0,-1,1553,1429,0,0
336,-405,0,0,0,0,0,0,0,0,0,-1,1560,1429,0,0
343,-405,0,0,0,0,0,0,0,0,0,-1,1567,1429,0,0
350,-405,0,0,0,0,0,0,0,0,0,-1,1574,1429,0,0
357,-405,0,0,0,0,0,0,0,0,0,-1,1581,1429,0,0
364,-405,0,0,0,0,0,0,0,0,0,-1,1588,1429,0,0
371,-405,0,0,0,0,0,0,0,0,0,-1,1595,1429,0,0
378,-405,0,0,0,0,0,0,0,0,0,-1,1602,1429,0,0
385,-405,0,0,0,0,0,0,0,0,0,-1,1609,1429,0,0
392,-405,0,0,0,0,0,0,0,0,0,-1,1616,1429,0,0
399,-405,0,0,0,0,0,0,0,0,0,-1,1623,1429,0,0
406,-405,0,0,0,0,0,0,0,0,0,-1,1630,1429,0,0
413,-405,0,0,0,0,0,0,0,0,0,-1,1637,1429,0,0
420,-405,0,0,0,0,0,0,0,0,0,-1,1644,1429,0,0
427,-405,0,0,0,0,0,0,0,0,0,-1,1651,1429,0,0
434,-405,0,0,0,0,0,0,0,0,0,-1,1658,1429,0,0
441,-405,0,0,0,0,0,0,0,0,0,-1,1665,1429,0,0
448,-405,0,0,0,0,0,0,0,0,0,-1,1672,1429,0,0
455,-405,0,0,0,0,0,0,0,0,0,-1,1679,1429,0,0
462,-405,0,0,0,0,0,0,0,0,0,-1,1686,1429,0,0
469,-405,0,0,0,0,0,0,0,0,0,-1,1693,1429,0,0
476,-405,0,0,0,0,0,0,0,0,0,-1,1700,1429,0,0
483,-405,0,0,0,0,0,0,0,0,0,-1,1707,1429,0,0
490,-405,0,0,0,0,0,0,0,0,0,-1,1714,1429,0,0
497,-405,0,0,0,0,0,0,0,0,0,-1,1721,1429,0,0
504,-405,0,0,0,0,0,0,0,0,0,-1,1728,1429,0,0
511,-405,0,0,0,0,0,0,0,0,0,-1,1735,1429,0,0
518,-405,0,0,0,0,0,0,0,0,0,-1,1742,1429,0,0
525,-405,31.1563,-1.40942,0,0,0,0,0,0,0,-1,1749,1429,31.1563,1.40937
532,-405,28.156,4.8783,0,0,0,0,0,0,0,-1,1756,1429,28.1561,-4.87833
539,-405,26.5133,3.02454,0,0,0,0,0,0,0,-1,1763,1429,26.5133,-3.0246
546,-405,29.5735,6.53052,0,0,0,0,0,0,0,-1,1770,1429,29.5735,-6.53049
553,-405,28.2911,6.70654,0,0,0,0,0,0,0,-1,1777,1429,28.2912,-6.70656
560,-405,26.9299,7.08472,0,0,0,0,0,0,0,-1,1784,1429,26.9299,-7.08469
567,-405,25.804,7.14661,0,0,0,0,0,0,0,-1,1791,1429,25.8039,-7.14665
574,-405,25.1151,8.07971,0,0,0,0,0,0,0,-1,1798,1429,25.1151,-8.07965
581,-405,23.5055,8.505,0,0,0,0,0,0,0,-1,1805,1429,23.5054,-8.50501
588,-405,21.7491,8.98254,0,0,0,0,0,0,0,-1,1812,1429,21.7491,-8.98254
595,-405,21.6327,10.7795,0,0,0,0,0,0,0,-1,1819,1429,21.6327,-10.7796
602,-405,21.6461,13.9199,0,0,0,0,0,0,0,-1,1826,1429,21.6461,-13.92
609,-405,21.9833,13.7714,0,0,0,0,0,0,0,-1,1833,1429,21.9833,-13.7714
616,-405,22.1516,13.2974,0.00199056,0.00170819,-0.00137309,0.0032297,0.00046905,-0.734168,0.00201506,0.0245642,1840,1429,22.1516,-13.2974
623,-405,22.1594,12.7947,0.00157239,0.000995019,-0.000911783,0.0022401,0.000327312,-0.632083,0.00139713,0.011581,1847,1429,22.1595,-12.7947
630,-405,22.1689,12.3418,0.00133356,0.000527468,-0.000620222,0.00167019,0.000190837,-0.497267,0.00105561,0.0111617,1854,1429,22.169,-12.3418
637,-405,22.1753,11.9413,0.00113595,0.000211804,-0.000418275,0.00129715,5.06068e-05,-0.367845,0.000848398,0.0115865,1861,1429,22.1753,-11.9412
644,-405,22.0885,11.5845,0.00101833,3.49678e-05,-0.000252764,0.00107949,-2.61986e-05,-0.237426,0.000728551,0.0291187,1868,1429,22.0885,-11.5845
651,-405,22.0668,11.1921,0.00100337,-6.12305e-05,-0.000101363,0.00101293,-7.07955e-05,-0.0940856,0.000700082,0.0344028,1875,1429,22.0668,-11.1922
658,-405,22.1218,10.7638,0.000985117,-8.34578e-05,5.06062e-05,0.000987508,-8.58491e-05,0.0472177,0.000688741,0.024291,1882,1429,22.1218,-10.7638
665,-405,22.1427,10.321,0.00103363,-0.000106676,0.000256605,0.00108871,-0.00016176,0.211454,0.0007853,0.0176028,1889,1429,22.1428,-10.321
672,-405,22.1427,9.88635,0.00113959,-0.000119541,0.000534529,0.0013359,-0.000315853,0.351969,0.00101244,0.0222595,1896,1429,22.1427,-9.88639
679,-405,22.1477,9.45618,0.00130239,-0.000330432,0.000988836,0.00176829,-0.000796332,0.440311,0.00151572,0.0220372,1903,1429,22.1477,-9.45617
686,-405,21.9917,9.02856,0.00152565,-0.00069577,0.00171607,0.00245909,-0.00162922,0.498182,0.00237654,0.0418498,1910,1429,21.9917,-9.02854
693,-405,21.7504,8.7074,0,0,0,0,0,0,0,-1,1917,1429,21.7504,-8.70742
700,-405,9.1958,4.02026,0,0,0,0,0,0,0,-1,1924,1429,9.19579,-4.02025
707,-405,7.40308,3.83191,0,0,0,0,0,0,0,-1,1931,1429,7.40311,-3.83194
714,-405,7.33252,3.47388,0,0,0,0,0,0,0,-1,1938,1429,7.33255,-3.47383
721,-405,9.23523,0.993896,0,0,0,0,0,0,0,-1,1945,1429,9.23523,-0.993884
728,-405,0,0,0,0,0,0,0,0,0,-1,1952,1429,0,0
735,-405,0,0,0,0,0,0,0,0,0,-1,1959,1429,0,0
742,-405,0,0,0,0,0,0,0,0,0,-1,1966,1429,0,0
749,-405,0,0,0,0,0,0,0,0,0,-1,1973,1429,0,0
756,-405,0,0,0,0,0,0,0,0,0,-1,1980,1429,0,0
763,-405,0,0,0,0,0,0,0,0,0,-1,1987,1429,0,0
770,-405,0,0,0,0,0,0,0,0,0,-1,1994,1429,0,0
777,-405,0,0,0,0,0,0,0,0,0,-1,2001,1429,0,0
784,-405,0,0,0,0,0,0,0,0,0,-1,2008,1429,0,0
791,-405,0,0,0,0,0,0,0,0,0,-1,2015,1429,0,0
798,-405,0,0,0,0,0,0,0,0,0,-1,2022,1429,0,0
805,-405,0,0,0,0,0,0,0,0,0,-1,2029,1429,0,0
812,-405,0,0,0,0,0,0,0,0,0,-1,2036,1429,0,0
-700,-412,0,0,0,0,0,0,0,0,0,-1,524,1436,0,0
-693,-412,0,0,0,0,0,0,0,0,0,-1,531,1436,0,0
-686,-412,0,0,0,0,0,0,0,0,0,-1,538,1436,0,0
-679,-412,0,0,0,0,0,0,0,0,0,-1,545,1436,0,0
-672,-412,0,0,0,0,0,0,0,0,0,-1,552,1436,0,0
-665,-412,0,0,0,0,0,0,0,0,0,-1,559,1436,0,0
-658,-412,0,0,0,0,0,0,0,0,0,-1,566,1436,0,0
-651,-412,0,0,0,0,0,0,0,0,0,-1,573,1436,0,0
-644,-412,0,0,0,0,0,0,0,0,0,-1,580,1436,0,0
-637,-412,0,0,0,0,0,0,0,0,0,-1,587,1436,0,0
-630,-412,0,0,0,0,0,0,0,0,0,-1,594,1436,0,0
-623,-412,0,0,0,0,0,0,0,0,0,-1,601,1436,0,0
-616,-412,0,0,0,0,0,0,0,0,0,-1,608,1436,0,0
-609,-412,0,0,0,0,0,0,0,0,0,-1,615,1436,0,0
-602,-412,-3.72766,-3.50012,0,0,0,0,0,0,0,-1,622,1436,-3.72764,3.50017
-595,-412,-10.3706,0.65564,0,0,0,0,0,0,0,-1,629,1436,-10.3706,-0.655672
-588,-412,-8.17957,1.94934,0,0,0,0,0,0,0,-1,636,1436,-8.17956,-1.94939
-581,-412,-6.60065,-0.0554199,0,0,0,0,0,0,0,-1,643,1436,-6.60063,0.0554733
-574,-412,-8.34131,5.25012,0,0,0,0,0,0,0,-1,650,1436,-8.34129,-5.25012
-567,-412,-7.50354,3.65454,0,0,0,0,0,0,0,-1,657,1436,-7.50356,-3.65452
-560,-412,-7.53949,7.48059,0,0,0,0,0,0,0,-1,664,1436,-7.53948,-7.48055
-553,-412,-7.36761,6.54651,0,0,0,0,0,0,0,-1,671,1436,-7.36763,-6.54654
-546,-412,-8.81982,7.45093,0,0,0,0,0,0,0,-1,678,1436,-8.81984,-7.45094
-539,-412,-8.79919,7.83643,-0.0014488,0.00433651,0.0023353,0.00516153,-0.00227381,1.2312,0.00439939,0.0220008,685,1436,-8.79919,-7.83641
-532,-412,-8.81769,8.36414,-0.000404202,0.00373649,0.00232013,0.00477569,-0.00144341,1.14968,0.00375849,0.0137277,692,1436,-8.81769,-8.36409
-525,-412,-8.82288,8.84155,0.000418456,0.00314326,0.00219822,0.00436704,-0.000805322,1.06281,0.00321361,0.0159517,699,1436,-8.82288,-8.84159
-518,-412,-8.82642,9.27551,0.00101048,0.00267224,0.00204106,0.00404506,-0.000362338,0.978697,0.00282524,0.0165181,706,1436,-8.82643,-9.27557
-511,-412,-8.85907,9.70203,0.00153826,0.00237325,0.00197607,0.00397544,-6.39362e-05,0.889505,0.00267186,0.0197722,713,1436,-8.8591,-9.70201
-504,-412,-8.87128,10.1688,0.00215004,0.00229726,0.00205086,0.00427584,0.00017147,0.803337,0.00279516,0.0201609,720,1436,-8.87126,-10.1688
-497,-412,-8.87866,10.6497,0.00275758,0.00245716,0.00229468,0.00490696,0.00030778,0.752714,0.00317369,0.0158012,727,1436,-8.87864,-10.6497
-490,-412,-8.87897,11.1021,0.00343441,0.00287633,0.00269877,0.00586853,0.000442214,0.733884,0.00377359,0.012196,734,1436,-8.87895,-11.102
-483,-412,-8.89093,11.5199,0.00415692,0.00362881,0.00334015,0.00724343,0.000542291,0.745953,0.00465872,0.00934498,741,1436,-8.89096,-11.5199
-476,-412,-8.77814,12.1512,0.00513932,0.00473615,0.00435199,0.0092944,0.000581077,0.762254,0.00601194,0.025316,748,1436,-8.77812,-12.1512
-469,-412,-8.87848,12.5199,0.00781828,0.00747262,0.00694476,0.0145924,0.000698534,0.772958,0.00950396,0.0475408,755,1436,-8.87847,-12.5198
-462,-412,-8.80261,12.9318,0,0,0,0,0,0,0,-1,762,1436,-8.80258,-12.9318
-455,-412,-8.25006,11.2572,0,0,0,0,0,0,0,-1,769,1436,-8.25007,-11.2572
-448,-412,-7.38086,8.78186,0,0,0,0,0,0,0,-1,776,1436,-7.38088,-8.78183
-441,-412,-8.79523,9.05286,0,0,0,0,0,0,0,-1,783,1436,-8.79521,-9.0529
-434,-412,-10.6305,8.03577,0,0,0,0,0,0,0,-1,790,1436,-10.6305,-8.0358
-427,-412,-10.0004,5.15271,0,0,0,0,0,0,0,-1,797,1436,-10.0004,-5.15266
-420,-412,-10.4468,4.9043,0,0,0,0,0,0,0,-1,804,1436,-10.4468,-4.90429
-413,-412,-11.5704,4.97766,0,0,0,0,0,0,0,-1,811,1436,-11.5704,-4.97771
-406,-412,-13.1968,5.70093,0,0,0,0,0,0,0,-1,818,1436,-13.1968,-5.70096
-399,-412,-10.5506,0.771973,0,0,0,0,0,0,0,-1,825,1436,-10.5506,-0.771954
-392,-412,0,0,0,0,0,0,0,0,0,-1,832,1436,0,0
-385,-412,0,0,0,0,0,0,0,0,0,-1,839,1436,0,0
-378,-412,0,0,0,0,0,0,0,0,0,-1,846,1436,0,0
-371,-412,0,0,0,0,0,0,0,0,0,-1,853,1436,0,0
-364,-412,0,0,0,0,0,0,0,0,0,-1,860,1436,0,0
-357,-412,0,0,0,0,0,0,0,0,0,-1,867,1436,0,0
-350,-412,0,0,0,0,0,0,0,0,0,-1,874,1436,0,0
-343,-412,0,0,0,0,0,0,0,0,0,-1,881,1436,0,0
-336,-412,0,0,0,0,0,0,0,0,0,-1,888,1436,0,0
-329,-412,0,0,0,0,0,0,0,0,0,-1,895,1436,0,0
-322,-412,0,0,0,0,0,0,0,0,0,-1,902,1436,0,0
-315,-412,0,0,0,0,0,0,0,0,0,-1,909,1436,0,0
-308,-412,0,0,0,0,0,0,0,0,0,-1,916,1436,0,0
-301,-412,0,0,0,0,0,0,0,0,0,-1,923,1436,0,0
-294,-412,0,0,0,0,0,0,0,0,0,-1,930,1436,0,0
-287,-412,0,0,0,0,0,0,0,0,0,-1,937,1436,0,0
-280,-412,0,0,0,0,0,0,0,0,0,-1,944,1436,0,0
-273,-412,0,0,0,0,0,0,0,0,0,-1,951,1436,0,0
-266,-412,0,0,0,0,0,0,0,0,0,-1,958,1436,0,0
-259,-412,0,0,0,0,0,0,0,0,0,-1,965,1436,0,0
-252,-412,0,0,0,0,0,0,0,0,0,-1,972,1436,0,0
-245,-412,0,0,0,0,0,0,0,0,0,-1,979,1436,0,0
-238,-412,0,0,0,0,0,0,0,0,0,-1,986,1436,0,0
-231,-412,0,0,0,0,0,0,0,0,0,-1,993,1436,0,0
-224,-412,0,0,0,0,0,0,0,0,0,-1,1000,1436,0,0
-217,-412,0,0,0,0,0,0,0,0,0,-1,1007,1436,0,0
-210,-412,0,0,0,0,0,0,0,0,0,-1,1014,1436,0,0
-203,-412,0,0,0,0,0,0,0,0,0,-1,1021,1436,0,0
-196,-412,0,0,0,0,0,0,0,0,0,-1,1028,1436,0,0
-189,-412,0,0,0,0,0,0,0,0,0,-1,1035,1436,0,0
-182,-412,0,0,0,0,0,0,0,0,0,-1,1042,1436,0,0
-175,-412,0,0,0,0,0,0,0,0,0,-1,1049,1436,0,0
-168,-412,0,0,0,0,0,0,0,0,0,-1,1056,1436,0,0
-161,-412,0,0,0,0,0,0,0,0,0,-1,1063,1436,0,0
-154,-412,0,0,0,0,0,0,0,0,0,-1,1070,1436,0,0
-147,-412,0,0,0,0,0,0,0,0,0,-1,1077,1436,0,0
-140,-412,0,0,0,0,0,0,0,0,0,-1,1084,1436,0,0
-133,-412,0,0,0,0,0,0,0,0,0,-1,1091,1436,0,0
-126,-412,0,0,0,0,0,0,0,0,0,-1,1098,1436,0,0
-119,-412,0,0,0,0,0,0,0,0,0,-1,1105,1436,0,0
-112,-412,0,0,0,0,0,0,0,0,0,-1,1112,1436,0,0
-105,-412,0,0,0,0,0,0,0,0,0,-1,1119,1436,0,0
-98,-412,0,0,0,0,0,0,0,0,0,-1,1126,1436,0,0
-91,-412,0,0,0,0,0,0,0,0,0,-1,1133,1436,0,0
-84,-412,0,0,0,0,0,0,0,0,0,-1,1140,1436,0,0
-77,-412,0,0,0,0,0,0,0,0,0,-1,1147,1436,0,0
-70,-412,0,0,0,0,0,0,0,0,0,-1,1154,1436,0,0
-63,-412,0,0,0,0,0,0,0,0,0,-1,1161,1436,0,0
-56,-412,0,0,0,0,0,0,0,0,0,-1,1168,1436,0,0
-49,-412,0,0,0,0,0,0,0,0,0,-1,1175,1436,0,0
-42,-412,0,0,0,0,0,0,0,0,0,-1,1182,1436,0,0
-35,-412,0,0,0,0,0,0,0,0,0,-1,1189,1436,0,0
-28,-412,0,0,0,0,0,0,0,0,0,-1,1196,1436,0,0
-21,-412,0,0,0,0,0,0,0,0,0,-1,1203,1436,0,0
-14,-412,0,0,0,0,0,0,0,0,0,-1,1210,1436,0,0
-7,-412,0,0,0,0,0,0,0,0,0,-1,1217,1436,0,0
0,-412,0,0,0,0,0,0,0,0,0,-1,1224,1436,0,0
7,-412,0,0,0,0,0,0,0,0,0,-1,1231,1436,0,0
14,-412,0,0,0,0,0,0,0,0,0,-1,1238,1436,0,0
21,-412,0,0,0,0,0,0,0,0,0,-1,1245,1436,0,0
28,-412,0,0,0,0,0,0,0,0,0,-1,1252,1436,0,0
35,-412,0,0,0,0,0,0,0,0,0,-1,1259,1436,0,0
42,-412,0,0,0,0,0,0,0,0,0,-1,1266,1436,0,0
49,-412,0,0,0,0,0,0,0,0,0,-1,1273,1436,0,0
56,-412,0,0,0,0,0,0,0,0,0,-1,1280,1436,0,0
63,-412,0,0,0,0,0,0,0,0,0,-1,1287,1436,0,0
70,-412,0,0,0,0,0,0,0,0,0,-1,1294,1436,0,0
77,-412,0,0,0,0,0,0,0,0,0,-1,1301,1436,0,0
84,-412,0,0,0,0,0,0,0,0,0,-1,1308,1436,0,0
91,-412,0,0,0,0,0,0,0,0,0,-1,1315,1436,0,0
98,-412,0,0,0,0,0,0,0,0,0,-1,1322,1436,0,0
105,-412,0,0,0,0,0,0,0,0,0,-1,1329,1436,0,0
112,-412,0,0,0,0,0,0,0,0,0,-1,1336,1436,0,0
119,-412,0,0,0,0,0,0,0,0,0,-1,1343,1436,0,0
126,-412,0,0,0,0,0,0,0,0,0,-1,1350,1436,0,0
133,-412,0,0,0,0,0,0,0,0,0,-1,1357,1436,0,0
140,-412,0,0,0,0,0,0,0,0,0,-1,1364,1436,0,0
147,-412,0,0,0,0,0,0,0,0,0,-1,1371,1436,0,0
154,-412,0,0,0,0,0,0,0,0,0,-1,1378,1436,0,0
161,-412,0,0,0,0,0,0,0,0,0,-1,1385,1436,0,0
168,-412,0,0,0,0,0,0,0,0,0,-1,1392,1436,0,0
175,-412,0,0,0,0,0,0,0,0,0,-1,1399,1436,0,0
182,-412,0,0,0,0,0,0,0,0,0,-1,1406,1436,0,0
189,-412,0,0,0,0,0,0,0,0,0,-1,1413,1436,0,0
196,-412,0,0,0,0,0,0,0,0,0,-1,1420,1436,0,0
203,-412,0,0,0,0,0,0,0,0,0,-1,1427,1436,0,0
210,-412,0,0,0,0,0,0,0,0,0,-1,1434,1436,0,0
217,-412,0,0,0,0,0,0,0,0,0,-1,1441,1436,0,0
224,-412,0,0,0,0,0,0,0,0,0,-1,1448,1436,0,0
231,-412,0,0,0,0,0,0,0,0,0,-1,1455,1436,0,0
238,-412,0,0,0,0,0,0,0,0,0,-1,1462,1436,0,0
245,-412,0,0,0,0,0,0,0,0,0,-1,1469,1436,0,0
252,-412,0,0,0,0,0,0,0,0,0,-1,1476,1436,0,0
259,-412,0,0,0,0,0,0,0,0,0,-1,1483,1436,0,0
266,-412,0,0,0,0,0,0,0,0,0,-1,1490,1436,0,0
273,-412,0,0,0,0,0,0,0,0,0,-1,1497,1436,0,0
280,-412,0,0,0,0,0,0,0,0,0,-1,1504,1436,0,0
287,-412,0,0,0,0,0,0,0,0,0,-1,1511,1436,0,0
294,-412,0,0,0,0,0,0,0,0,0,-1,1518,1436,0,0
301,-412,0,0,0,0,0,0,0,0,0,-1,1525,1436,0,0
308,-412,0,0,0,0,0,0,0,0,0,-1,1532,1436,0,0
315,-412,0,0,0,0,0,0,0,0,0,-1,1539,1436,0,0
322,-412,0,0,0,0,0,0,0,0,0,-1,1546,1436,0,0
329,-412,0,0,0,0,0,0,0,0,0,-1,1553,1436,0,0
336,-412,0,0,0,0,0,0,0,0,0,-1,1560,1436,0,0
343,-412,0,0,0,0,0,0,0,0,0,-1,1567,1436,0,0
350,-412,0,0,0,0,0,0,0,0,0,-1,1574,1436,0,0
357,-412,0,0,0,0,0,0,0,0,0,-1,1581,1436,0,0
364,-412,0,0,0,0,0,0,0,0,0,-1,1588,1436,0,0
371,-412,0,0,0,0,0,0,0,0,0,-1,1595,1436,0,0
378,-412,0,0,0,0,0,0,0,0,0,-1,1602,1436,0,0
385,-412,0,0,0,0,0,0,0,0,0,-1,1609,1436,0,0
392,-412,0,0,0,0,0,0,0,0,0,-1,1616,1436,0,0
399,-412,0,0,0,0,0,0,0,0,0,-1,1623,1436,0,0
406,-412,0,0,0,0,0,0,0,0,0,-1,1630,1436,0,0
413,-412,0,0,0,0,0,0,0,0,0,-1,1637,1436,0,0
420,-412,0,0,0,0,0,0,0,0,0,-1,1644,1436,0,0
427,-412,0,0,0,0,0,0,0,0,0,-1,1651,1436,0,0
434,-412,0,0,0,0,0,0,0,0,0,-1,1658,1436,0,0
441,-412,0,0,0,0,0,0,0,0,0,-1,1665,1436,0,0
448,-412,0,0,0,0,0,0,0,0,0,-1,1672,1436,0,0
455,-412,0,0,0,0,0,0,0,0,0,-1,1679,1436,0,0
462,-412,0,0,0,0,0,0,0,0,0,-1,1686,1436,0,0
469,-412,0,0,0,0,0,0,0,0,0,-1,1693,1436,0,0
476,-412,0,0,0,0,0,0,0,0,0,-1,1700,1436,0,0
483,-412,0,0,0,0,0,0,0,0,0,-1,1707,1436,0,0
490,-412,0,0,0,0,0,0,0,0,0,-1,1714,1436,0,0
497,-412,0,0,0,0,0,0,0,0,0,-1,1721,1436,0,0
504,-412,0,0,0,0,0,0,0,0,0,-1,1728,1436,0,0
511,-412,0,0,0,0,0,0,0,0,0,-1,1735,1436,0,0
518,-412,30.1038,-2.43384,0,0,0,0,0,0,0,-1,1742,1436,30.1038,2.43383
525,-412,29.5283,-1.42493,0,0,0,0,0,0,0,-1,1749,1436,29.5283,1.42495
532,-412,28.8533,-0.386597,0,0,0,0,0,0,0,-1,1756,1436,28.8533,0.386632
539,-412,25.8654,2.74683,0,0,0,0,0,0,0,-1,1763,1436,25.8654,-2.74685
546,-412,25.4265,2.4342,0,0,0,0,0,0,0,-1,1770,1436,25.4265,-2.4342
553,-412,26.3595,7.49255,0,0,0,0,0,0,0,-1,1777,1436,26.3595,-7.4925
560,-412,24.9116,7.94324,0,0,0,0,0,0,0,-1,1784,1436,24.9116,-7.94327
567,-412,23.668,7.94531,0,0,0,0,0,0,0,-1,1791,1436,23.6679,-7.94534
574,-412,23.0142,9.17236,0,0,0,0,0,0,0,-1,1798,1436,23.0141,-9.17235
581,-412,22.2615,10.0349,0,0,0,0,0,0,0,-1,1805,1436,22.2615,-10.0349
588,-412,21.6893,10.8069,0,0,0,0,0,0,0,-1,1812,1436,21.6893,-10.8069
595,-412,21.5137,14.3157,0,0,0,0,0,0,0,-1,1819,1436,21.5137,-14.3157
602,-412,21.7041,14.2037,0,0,0,0,0,0,0,-1,1826,1436,21.7041,-14.2037
609,-412,21.7695,13.6462,0.00219405,0.00262546,-0.00187617,0.00429828,0.000521232,-0.842633,0.00270855,0.0178459,1833,1436,21.7695,-13.6463
616,-412,21.7905,13.217,0.00178173,0.0016564,-0.00129525,0.00301583,0.000422298,-0.761227,0.00188562,0.00980926,1840,1436,21.7906,-13.2171
623,-412,21.7538,12.8026,0.00148801,0.00101502,-0.000907702,0.00218952,0.000313511,-0.65796,0.00136721,0.00948974,1847,1436,21.7538,-12.8026
630,-412,21.7496,12.3579,0.00130711,0.00054318,-0.000635366,0.00166649,0.000183803,-0.514758,0.00105507,0.0118074,1854,1436,21.7497,-12.3579
637,-412,21.7632,11.9297,0.00112914,0.000219664,-0.000411139,0.00128745,6.13597e-05,-0.367543,0.000838594,0.0133521,1861,1436,21.7632,-11.9297
644,-412,21.7703,11.535,0.00103464,1.45316e-05,-0.000246933,0.00109127,-4.20989e-05,-0.225437,0.000741943,0.0138641,1868,1436,21.7703,-11.535
651,-412,21.7438,11.1497,0.00100787,-8.33517e-05,-0.000107756,0.00101841,-9.38905e-05,-0.0974929,0.000712305,0.0248112,1875,1436,21.7437,-11.1496
658,-412,21.739,10.7311,0.000962598,-9.54704e-05,2.42944e-05,0.000963156,-9.60279e-05,0.0229449,0.000676389,0.0172941,1882,1436,21.739,-10.7311
665,-412,21.7183,10.3259,0.00095834,-8.45068e-05,0.000201893,0.000996061,-0.000122229,0.18471,0.000708308,0.0211689,1889,1436,21.7183,-10.3259
672,-412,21.7347,9.88037,0.000965166,-1.7896e-05,0.000439628,0.00113309,-0.000185816,0.364857,0.00082434,0.0269564,1896,1436,21.7348,-9.88035
679,-412,21.7609,9.45068,0.000982322,-0.000201577,0.00088381,0.0014541,-0.000673359,0.490324,0.00125556,0.0398056,1903,1436,21.7609,-9.45069
686,-412,21.6155,8.95374,0,0,0,0,0,0,0,-1,1910,1436,21.6155,-8.9537
693,-412,11.9346,6.02344,0,0,0,0,0,0,0,-1,1917,1436,11.9346,-6.02343
700,-412,8.82764,5.8844,0,0,0,0,0,0,0,-1,1924,1436,8.82761,-5.88444
707,-412,6.59998,1.68994,0,0,0,0,0,0,0,-1,1931,1436,6.60002,-1.68995
714,-412,4.77283,-2.39832,0,0,0,0,0,0,0,-1,1938,1436,4.77288,2.39835
721,-412,0,0,0,0,0,0,0,0,0,-1,1945,1436,0,0
728,-412,0,0,0,0,0,0,0,0,0,-1,1952,1436,0,0
735,-412,0,0,0,0,0,0,0,0,0,-1,1959,1436,0,0
742,-412,0,0,0,0,0,0,0,0,0,-1,1966,1436,0,0
749,-412,0,0,0,0,0,0,0,0,0,-1,1973,1436,0,0
756,-412,0,0,0,0,0,0,0,0,0,-1,1980,1436,0,0
763,-412,0,0,0,0,0,0,0,0,0,-1,1987,1436,0,0
770,-412,0,0,0,0,0,0,0,0,0,-1,1994,1436,0,0
777,-412,0,0,0,0,0,0,0,0,0,-1,2001,1436,0,0
784,-412,0,0,0,0,0,0,0,0,0,-1,2008,1436,0,0
791,-412,0,0,0,0,0,0,0,0,0,-1,2015,1436,0,0
798,-412,0,0,0,0,0,0,0,0,0,-1,2022,1436,0,0
805,-412,0,0,0,0,0,0,0,0,0,-1,2029,1436,0,0
812,-412,0,0,0,0,0,0,0,0,0,-1,2036,1436,0,0
-700,-419,0,0,0,0,0,0,0,0,0,-1,524,1443,0,0
-693,-419,0,0,0,0,0,0,0,0,0,-1,531,1443,0,0
-686,-419,0,0,0,0,0,0,0,0,0,-1,538,1443,0,0
-679,-419,0,0,0,0,0,0,0,0,0,-1,545,1443,0,0
-672,-419,0,0,0,0,0,0,0,0,0,-1,552,1443,0,0
-665,-419,0,0,0,0,0,0,0,0,0,-1,559,1443,0,0
-658,-419,0,0,0,0,0,0,0,0,0,-1,566,1443,0,0
-651,-419,0,0,0,0,0,0,0,0,0,-1,573,1443,0,0
-644,-419,0,0,0,0,0,0,0,0,0,-1,580,1443,0,0
-637,-419,0,0,0,0,0,0,0,0,0,-1,587,1443,0,0
-630,-419,0,0,0,0,0,0,0,0,0,-1,594,1443,0,0
-623,-419,0,0,0,0,0,0,0,0,0,-1,601,1443,0,0
-616,-419,0,0,0,0,0,0,0,0,0,-1,608,1443,0,0
-609,-419,0,0,0,0,0,0,0,0,0,-1,615,1443,0,0
-602,-419,0,0,0,0,0,0,0,0,0,-1,622,1443,0,0
-595,-419,-11.4904,-0.622681,0,0,0,0,0,0,0,-1,629,1443,-11.4903,0.622714
-588,-419,-9.09369,0.742432,0,0,0,0,0,0,0,-1,636,1443,-9.09366,-0.742482
-581,-419,-6.39172,2.14673,0,0,0,0,0,0,0,-1,643,1443,-6.39175,-2.14668
-574,-419,-4.09772,3.54773,0,0,0,0,0,0,0,-1,650,1443,-4.09772,-3.54767
-567,-419,-6.14038,3.22498,0,0,0,0,0,0,0,-1,657,1443,-6.14037,-3.22497
-560,-419,-4.52814,5.22253,0,0,0,0,0,0,0,-1,664,1443,-4.52816,-5.22251
-553,-419,-5.08331,6.11829,0,0,0,0,0,0,0,-1,671,1443,-5.08331,-6.1183
-546,-419,-7.94513,7.38538,0,0,0,0,0,0,0,-1,678,1443,-7.94514,-7.38538
-539,-419,-8.10876,7.90173,8.96253e-05,0.00723611,0.00516457,0.00994306,-0.00261732,1.08802,0.00765184,0.045617,685,1443,-8.10876,-7.90175
-532,-419,-8.36713,8.36536,0.000986891,0.00605662,0.00462799,0.00879848,-0.00175497,1.03595,0.00652974,0.0199412,692,1443,-8.36714,-8.3654
-525,-419,-8.36029,8.86609,0.00156179,0.00489047,0.00398171,0.00754169,-0.00108942,0.98336,0.0054275,0.0139572,699,1443,-8.3603,-8.86609
-518,-419,-8.36383,9.29468,0.0018561,0.00393616,0.0033414,0.00639564,-0.000603384,0.936274,0.00447846,0.0174946,706,1443,-8.36384,-9.29473
-511,-419,-8.38226,9.75537,0.00204111,0.00318981,0.00280427,0.00547795,-0.000247028,0.886408,0.00373703,0.0196446,713,1443,-8.38226,-9.7554
-504,-419,-8.41766,10.2063,0.00233121,0.00275178,0.00248438,0.00503476,4.82281e-05,0.827619,0.00334055,0.0204441,720,1443,-8.41767,-10.2063
-497,-419,-8.43463,10.6285,0.00267438,0.00261734,0.00239841,0.00504443,0.000247282,0.779453,0.00328363,0.0150081,727,1443,-8.43462,-10.6285
-490,-419,-8.4278,11.0828,0.00311808,0.00279918,0.00251778,0.00548146,0.000435805,0.753776,0.00351805,0.0116023,734,1443,-8.4278,-11.0827
-483,-419,-8.43164,11.546,0.00378282,0.00334813,0.00295824,0.00653169,0.000599263,0.748728,0.00416909,0.00977873,741,1443,-8.43167,-11.546
-476,-419,-8.41461,12.0273,0.00469465,0.00426737,0.00373778,0.00822489,0.00073713,0.756851,0.00525481,0.0125956,748,1443,-8.4146,-12.0274
-469,-419,-8.35291,12.6171,0.00706967,0.00655849,0.00588311,0.0127027,0.000925423,0.76369,0.00817749,0.0245093,755,1443,-8.35292,-12.6171
-462,-419,-8.23596,13.1964,0,0,0,0,0,0,0,-1,762,1443,-8.23599,-13.1964
-455,-419,-7.35645,11.9451,0,0,0,0,0,0,0,-1,769,1443,-7.35646,-11.9451
-448,-419,-7.49109,9.92444,0,0,0,0,0,0,0,-1,776,1443,-7.49109,-9.92442
-441,-419,-7.65527,8.75574,0,0,0,0,0,0,0,-1,783,1443,-7.65525,-8.75568
-434,-419,-11.3724,12.3643,0,0,0,0,0,0,0,-1,790,1443,-11.3724,-12.3643
-427,-419,-8.23193,7.89404,0,0,0,0,0,0,0,-1,797,1443,-8.23193,-7.89404
-420,-419,-8.74091,6.36597,0,0,0,0,0,0,0,-1,804,1443,-8.74089,-6.366
-413,-419,-9.88391,6.53955,0,0,0,0,0,0,0,-1,811,1443,-9.8839,-6.53955
-406,-419,-10.3372,2.75195,0,0,0,0,0,0,0,-1,818,1443,-10.3372,-2.75201
-399,-419,-11.5999,1.40002,0,0,0,0,0,0,0,-1,825,1443,-11.5999,-1.39998
-392,-419,0,0,0,0,0,0,0,0,0,-1,832,1443,0,0
-385,-419,0,0,0,0,0,0,0,0,0,-1,839,1443,0,0
-378,-419,0,0,0,0,0,0,0,0,0,-1,846,1443,0,0
-371,-419,0,0,0,0,0,0,0,0,0,-1,853,1443,0,0
-364,-419,0,0,0,0,0,0,0,0,0,-1,860,1443,0,0
-357,-419,0,0,0,0,0,0,0,0,0,-1,867,1443,0,0
-350,-419,0,0,0,0,0,0,0,0,0,-1,874,1443,0,0
-343,-419,0,0,0,0,0,0,0,0,0,-1,881,1443,0,0
-336,-419,0,0,0,0,0,0,0,0,0,-1,888,1443,0,0
-329,-419,0,0,0,0,0,0,0,0,0,-1,895,1443,0,0
-322,-419,0,0,0,0,0,0,0,0,0,-1,902,1443,0,0
-315,-419,0,0,0,0,0,0,0,0,0,-1,909,1443,0,0
-308,-419,0,0,0,0,0,0,0,0,0,-1,916,1443,0,0
-301,-419,0,0,0,0,0,0,0,0,0,-1,923,1443,0,0
-294,-419,0,0,0,0,0,0,0,0,0,-1,930,1443,0,0
-287,-419,0,0,0,0,0,0,0,0,0,-1,937,1443,0,0
-280,-419,0,0,0,0,0,0,0,0,0,-1,944,1443,0,0
-273,-419,0,0,0,0,0,0,0,0,0,-1,951,1443,0,0
-266,-419,0,0,0,0,0,0,0,0,0,-1,958,1443,0,0
-259,-419,0,0,0,0,0,0,0,0,0,-1,965,1443,0,0
-252,-419,0,0,0,0,0,0,0,0,0,-1,972,1443,0,0
-245,-419,0,0,0,0,0,0,0,0,0,-1,979,1443,0,0
-238,-419,0,0,0,0,0,0,0,0,0,-1,986,1443,0,0
-231,-419,0,0,0,0,0,0,0,0,0,-1,993,1443,0,0
-224,-419,0,0,0,0,0,0,0,0,0,-1,1000,1443,0,0
-217,-419,0,0,0,0,0,0,0,0,0,-1,1007,1443,0,0
-210,-419,0,0,0,0,0,0,0,0,0,-1,1014,1443,0,0
-203,-419,0,0,0,0,0,0,0,0,0,-1,1021,1443,0,0
-196,-419,0,0,0,0,0,0,0,0,0,-1,1028,1443,0,0
-189,-419,0,0,0,0,0,0,0,0,0,-1,1035,1443,0,0
-182,-419,0,0,0,0,0,0,0,0,0,-1,1042,1443,0,0
-175,-419,0,0,0,0,0,0,0,0,0,-1,1049,1443,0,0
-168,-419,0,0,0,0,0,0,0,0,0,-1,1056,1443,0,0
-161,-419,0,0,0,0,0,0,0,0,0,-1,1063,1443,0,0
-154,-419,0,0,0,0,0,0,0,0,0,-1,1070,1443,0,0
-147,-419,0,0,0,0,0,0,0,0,0,-1,1077,1443,0,0
-140,-419,0,0,0,0,0,0,0,0,0,-1,1084,1443,0,0
-133,-419,0,0,0,0,0,0,0,0,0,-1,1091,1443,0,0
-126,-419,0,0,0,0,0,0,0,0,0,-1,1098,1443,0,0
-119,-419,0,0,0,0,0,0,0,0,0,-1,1105,1443,0,0
-112,-419,0,0,0,0,0,0,0,0,0,-1,1112,1443,0,0
-105,-419,0,0,0,0,0,0,0,0,0,-1,1119,1443,0,0
-98,-419,0,0,0,0,0,0,0,0,0,-1,1126,1443,0,0
-91,-419,0,0,0,0,0,0,0,0,0,-1,1133,1443,0,0
-84,-419,0,0,0,0,0,0,0,0,0,-1,1140,1443,0,0
-77,-419,0,0,0,0,0,0,0,0,0,-1,1147,1443,0,0
-70,-419,0,0,0,0,0,0,0,0,0,-1,1154,1443,0,0
-63,-419,0,0,0,0,0,0,0,0,0,-1,1161,1443,0,0
-56,-419,0,0,0,0,0,0,0,0,0,-1,1168,1443,0,0
-49,-419,0,0,0,0,0,0,0,0,0,-1,1175,1443,0,0
-42,-419,0,0,0,0,0,0,0,0,0,-1,1182,1443,0,0
-35,-419,0,0,0,0,0,0,0,0,0,-1,1189,1443,0,0
-28,-419,0,0,0,0,0,0,0,0,0,-1,1196,1443,0,0
-21,-419,0,0,0,0,0,0,0,0,0,-1,1203,1443,0,0
-14,-419,0,0,0,0,0,0,0,0,0,-1,1210,1443,0,0
-7,-419,0,0,0,0,0,0,0,0,0,-1,1217,1443,0,0
0,-419,0,0,0,0,0,0,0,0,0,-1,1224,1443,0,0
7,-419,0,0,0,0,0,0,0,0,0,-1,1231,1443,0,0
14,-419,0,0,0,0,0,0,0,0,0,-1,1238,1443,0,0
21,-419,0,0,0,0,0,0,0,0,0,-1,1245,1443,0,0
28,-419,0,0,0,0,0,0,0,0,0,-1,1252,1443,0,0
35,-419,0,0,0,0,0,0,0,0,0,-1,1259,1443,0,0
42,-419,0,0,0,0,0,0,0,0,0,-1,1266,1443,0,0
49,-419,0,0,0,0,0,0,0,0,0,-1,1273,1443,0,0
56,-419,0,0,0,0,0,0,0,0,0,-1,1280,1443,0,0
63,-419,0,0,0,0,0,0,0,0,0,-1,1287,1443,0,0
70,-419,0,0,0,0,0,0,0,0,0,-1,1294,1443,0,0
77,-419,0,0,0,0,0,0,0,0,0,-1,1301,1443,0,0
84,-419,0,0,0,0,0,0,0,0,0,-1,1308,1443,0,0
91,-419,0,0,0,0,0,0,0,0,0,-1,1315,1443,0,0
98,-419,0,0,0,0,0,0,0,0,0,-1,1322,1443,0,0
105,-419,0,0,0,0,0,0,0,0,0,-1,1329,1443,0,0
112,-419,0,0,0,0,0,0,0,0,0,-1,1336,1443,0,0
119,-419,0,0,0,0,0,0,0,0,0,-1,1343,1443,0,0
126,-419,0,0,0,0,0,0,0,0,0,-1,1350,1443,0,0
133,-419,0,0,0,0,0,0,0,0,0,-1,1357,1443,0,0
140,-419,0,0,0,0,0,0,0,0,0,-1,1364,1443,0,0
147,-419,0,0,0,0,0,0,0,0,0,-1,1371,1443,0,0
154,-419,0,0,0,0,0,0,0,0,0,-1,1378,1443,0,0
161,-419,0,0,0,0,0,0,0,0,0,-1,1385,1443,0,0
168,-419,0,0,0,0,0,0,0,0,0,-1,1392,1443,0,0
175,-419,0,0,0,0,0,0,0,0,0,-1,1399,1443,0,0
182,-419,0,0,0,0,0,0,0,0,0,-1,1406,1443,0,0
189,-419,0,0,0,0,0,0,0,0,0,-1,1413,1443,0,0
196,-419,0,0,0,0,0,0,0,0,0,-1,1420,1443,0,0
203,-419,0,0,0,0,0,0,0,0,0,-1,1427,1443,0,0
210,-419,0,0,0,0,0,0,0,0,0,-1,1434,1443,0,0
217,-419,0,0,0,0,0,0,0,0,0,-1,1441,1443,0,0
224,-419,0,0,0,0,0,0,0,0,0,-1,1448,1443,0,0
231,-419,0,0,0,0,0,0,0,0,0,-1,1455,1443,0,0
238,-419,0,0,0,0,0,0,0,0,0,-1,1462,1443,0,0
245,-419,0,0,0,0,0,0,0,0,0,-1,1469,1443,0,0
252,-419,0,0,0,0,0,0,0,0,0,-1,1476,1443,0,0
259,-419,0,0,0,0,0,0,0,0,0,-1,1483,1443,0,0
266,-419,0,0,0,0,0,0,0,0,0,-1,1490,1443,0,0
273,-419,0,0,0,0,0,0,0,0,0,-1,1497,1443,0,0
280,-419,0,0,0,0,0,0,0,0,0,-1,1504,1443,0,0
287,-419,0,0,0,0,0,0,0,0,0,-1,1511,1443,0,0
294,-419,0,0,0,0,0,0,0,0,0,-1,1518,1443,0,0
301,-419,0,0,0,0,0,0,0,0,0,-1,1525,1443,0,0
308,-419,0,0,0,0,0,0,0,0,0,-1,1532,1443,0,0
315,-419,0,0,0,0,0,0,0,0,0,-1,1539,1443,0,0
322,-419,0,0,0,0,0,0,0,0,0,-1,1546,1443,0,0
329,-419,0,0,0,0,0,0,0,0,0,-1,1553,1443,0,0
336,-419,0,0,0,0,0,0,0,0,0,-1,1560,1443,0,0
343,-419,0,0,0,0,0,0,0,0,0,-1,1567,1443,0,0
350,-419,0,0,0,0,0,0,0,0,0,-1,1574,1443,0,0
357,-419,0,0,0,0,0,0,0,0,0,-1,1581,1443,0,0
364,-419,0,0,0,0,0,0,0,0,0,-1,1588,1443,0,0
371,-419,0,0,0,0,0,0,0,0,0,-1,1595,1443,0,0
378,-419,0,0,0,0,0,0,0,0,0,-1,1602,1443,0,0
385,-419,0,0,0,0,0,0,0,0,0,-1,1609,1443,0,0
392,-419,0,0,0,0,0,0,0,0,0,-1,1616,1443,0,0
399,-419,0,0,0,0,0,0,0,0,0,-1,1623,1443,0,0
406,-419,0,0,0,0,0,0,0,0,0,-1,1630,1443,0,0
413,-419,0,0,0,0,0,0,0,0,0,-1,1637,1443,0,0
420,-419,0,0,0,0,0,0,0,0,0,-1,1644,1443,0,0
427,-419,0,0,0,0,0,0,0,0,0,-1,1651,1443,0,0
434,-419,0,0,0,0,0,0,0,0,0,-1,1658,1443,0,0
441,-419,0,0,0,0,0,0,0,0,0,-1,1665,1443,0,0
448,-419,0,0,0,0,0,0,0,0,0,-1,1672,1443,0,0
455,-419,0,0,0,0,0,0,0,0,0,-1,1679,1443,0,0
462,-419,0,0,0,0,0,0,0,0,0,-1,1686,1443,0,0
469,-419,0,0,0,0,0,0,0,0,0,-1,1693,1443,0,0
476,-419,0,0,0,0,0,0,0,0,0,-1,1700,1443,0,0
483,-419,0,0,0,0,0,0,0,0,0,-1,1707,1443,0,0
490,-419,0,0,0,0,0,0,0,0,0,-1,1714,1443,0,0
497,-419,0,0,0,0,0,0,0,0,0,-1,1721,1443,0,0
504,-419,0,0,0,0,0,0,0,0,0,-1,1728,1443,0,0
511,-419,20.3005,3.7959,0,0,0,0,0,0,0,-1,1735,1443,20.3005,-3.79584
518,-419,21.3154,2.03027,0,0,0,0,0,0,0,-1,1742,1443,21.3155,-2.03029
525,-419,28.3439,-1.24475,0,0,0,0,0,0,0,-1,1749,1443,28.3438,1.24471
532,-419,27.5902,-0.272583,0,0,0,0,0,0,0,-1,1756,1443,27.5902,0.272526
539,-419,26.5278,1.60583,0,0,0,0,0,0,0,-1,1763,1443,26.5279,-1.60579
546,-419,24.9509,2.77539,0,0,0,0,0,0,0,-1,1770,1443,24.9509,-2.77537
553,-419,24.118,3.75525,0,0,0,0,0,0,0,-1,1777,1443,24.1181,-3.75526
560,-419,11.8199,8.26343,0,0,0,0,0,0,0,-1,1784,1443,11.82,-8.26341
567,-419,21.5143,8.74719,0,0,0,0,0,0,0,-1,1791,1443,21.5143,-8.74722
574,-419,19.5886,6.46155,0,0,0,0,0,0,0,-1,1798,1443,19.5886,-6.46157
581,-419,20.7926,11.4265,0,0,0,0,0,0,0,-1,1805,1443,20.7926,-11.4265
588,-419,19.4242,12.5363,0,0,0,0,0,0,0,-1,1812,1443,19.4242,-12.5362
595,-419,21.2045,14.6147,0,0,0,0,0,0,0,-1,1819,1443,21.2045,-14.6147
602,-419,21.3789,14.0446,0.00198678,0.00297175,-0.00206304,0.00460028,0.000358255,-0.902565,0.00295468,0.0232755,1826,1443,21.3789,-14.0445
609,-419,21.3809,13.6339,0.00183932,0.00230721,-0.00164545,0.00373527,0.000411261,-0.856014,0.00236504,0.0140611,1833,1443,21.3809,-13.634
616,-419,21.3682,13.2333,0.0015683,0.0015199,-0.00119662,0.00274096,0.000347236,-0.775289,0.00172326,0.0125264,1840,1443,21.3682,-13.2332
623,-419,21.3462,12.8262,0.00138324,0.00093972,-0.000850792,0.0020407,0.000282262,-0.65791,0.00127682,0.0098637,1847,1443,21.3462,-12.8262
630,-419,21.3456,12.3877,0.00127308,0.000482476,-0.000587666,0.00158602,0.00016953,-0.489327,0.00100561,0.0121165,1854,1443,21.3455,-12.3877
637,-419,21.3376,11.9861,0.00114608,0.000169746,-0.000348304,0.0012576,5.82276e-05,-0.309863,0.000819679,0.0130276,1861,1443,21.3376,-11.9861
644,-419,21.3427,11.5753,0.00109806,-3.63961e-05,-0.000187216,0.00112816,-6.64932e-05,-0.159398,0.000775221,0.0108876,1868,1443,21.3426,-11.5753
651,-419,21.3378,11.1771,0.00107521,-0.000121161,-6.13196e-05,0.00107834,-0.000124295,-0.0510763,0.000763706,0.0106896,1875,1443,21.3378,-11.1771
658,-419,21.3021,10.7539,0.00103171,-0.000116986,4.83967e-05,0.00103375,-0.000119021,0.0420325,0.00073207,0.0132486,1882,1443,21.3021,-10.7538
665,-419,21.3007,10.3428,0.00099572,-6.26457e-05,0.00018992,0.00102877,-9.56941e-05,0.172288,0.000719867,0.020602,1889,1443,21.3006,-10.3428
672,-419,21.3401,9.86292,0.000903716,0.000104345,0.000368313,0.00104754,-3.94792e-05,0.372286,0.000711885,0.0268452,1896,1443,21.3401,-9.86297
679,-419,21.4803,9.44714,0,0,0,0,0,0,0,-1,1903,1443,21.4804,-9.44712
686,-419,17.4127,8.03076,0,0,0,0,0,0,0,-1,1910,1443,17.4127,-8.03071
693,-419,8.76086,5.60535,0,0,0,0,0,0,0,-1,1917,1443,8.76091,-5.6054
700,-419,11.0498,4.85156,0,0,0,0,0,0,0,-1,1924,1443,11.0498,-4.85153
707,-419,9.5752,1.80042,0,0,0,0,0,0,0,-1,1931,1443,9.57523,-1.80037
714,-419,5.77576,-1.25061,0,0,0,0,0,0,0,-1,1938,1443,5.7757,1.25056
721,-419,0,0,0,0,0,0,0,0,0,-1,1945,1443,0,0
728,-419,0,0,0,0,0,0,0,0,0,-1,1952,1443,0,0
735,-419,0,0,0,0,0,0,0,0,0,-1,1959,1443,0,0
742,-419,0,0,0,0,0,0,0,0,0,-1,1966,1443,0,0
749,-419,0,0,0,0,0,0,0,0,0,-1,1973,1443,0,0
756,-419,0,0,0,0,0,0,0,0,0,-1,1980,1443,0,0
763,-419,0,0,0,0,0,0,0,0,0,-1,1987,1443,0,0
770,-419,0,0,0,0,0,0,0,0,0,-1,1994,1443,0,0
777,-419,0,0,0,0,0,0,0,0,0,-1,2001,1443,0,0
784,-419,0,0,0,0,0,0,0,0,0,-1,2008,1443,0,0
791,-419,0,0,0,0,0,0,0,0,0,-1,2015,1443,0,0
798,-419,0,0,0,0,0,0,0,0,0,-1,2022,1443,0,0
805,-419,0,0,0,0,0,0,0,0,0,-1,2029,1443,0,0
812,-419,0,0,0,0,0,0,0,0,0,-1,2036,1443,0,0
-700,-426,0,0,0,0,0,0,0,0,0,-1,524,1450,0,0
-693,-426,0,0,0,0,0,0,0,0,0,-1,531,1450,0,0
-686,-426,0,0,0,0,0,0,0,0,0,-1,538,1450,0,0
-679,-426,0,0,0,0,0,0,0,0,0,-1,545,1450,0,0
-672,-426,0,0,0,0,0,0,0,0,0,-1,552,1450,0,0
-665,-426,0,0,0,0,0,0,0,0,0,-1,559,1450,0,0
-658,-426,0,0,0,0,0,0,0,0,0,-1,566,1450,0,0
-651,-426,0,0,0,0,0,0,0,0,0,-1,573,1450,0,0
-644,-426,0,0,0,0,0,0,0,0,0,-1,580,1450,0,0
-637,-426,0,0,0,0,0,0,0,0,0,-1,587,1450,0,0
-630,-426,0,0,0,0,0,0,0,0,0,-1,594,1450,0,0
-623,-426,0,0,0,0,0,0,0,0,0,-1,601,1450,0,0
-616,-426,0,0,0,0,0,0,0,0,0,-1,608,1450,0,0
-609,-426,0,0,0,0,0,0,0,0,0,-1,615,1450,0,0
-602,-426,0,0,0,0,0,0,0,0,0,-1,622,1450,0,0
-595,-426,0,0,0,0,0,0,0,0,0,-1,629,1450,0,0
-588,-426,-10.184,-0.554321,0,0,0,0,0,0,0,-1,636,1450,-10.184,0.554321
-581,-426,-7.3349,1.48157,0,0,0,0,0,0,0,-1,643,1450,-7.33491,-1.48152
-574,-426,-5.02856,2.89319,0,0,0,0,0,0,0,-1,650,1450,-5.02858,-2.89319
-567,-426,-3.04797,1.72644,0,0,0,0,0,0,0,-1,657,1450,-3.04797,-1.72639
-560,-426,-5.55682,3.44397,0,0,0,0,0,0,0,-1,664,1450,-5.55684,-3.44399
-553,-426,-4.67017,6.66614,0,0,0,0,0,0,0,-1,671,1450,-4.67015,-6.66619
-546,-426,-6.9198,7.40088,0,0,0,0,0,0,0,-1,678,1450,-6.91977,-7.40083
-539,-426,-7.31567,7.9762,0.00446096,0.0129529,0.011221,0.0207044,-0.00329051,0.966271,0.0150204,0.0491371,685,1450,-7.31566,-7.97614
-532,-426,-7.78784,8.42004,0.00463921,0.0106808,0.00956228,0.0176881,-0.00236807,0.938391,0.0126555,0.0403791,692,1450,-7.78783,-8.42008
-525,-426,-7.9314,8.80554,0.00446728,0.00847165,0.0078504,0.0145712,-0.00163224,0.910258,0.0103014,0.0172054,699,1450,-7.93141,-8.80557
-518,-426,-7.9223,9.30811,0.00403236,0.00660472,0.00623618,0.011686,-0.0010489,0.887095,0.00816278,0.0162156,706,1450,-7.92229,-9.30805
-511,-426,-7.93646,9.78845,0.00349935,0.00503973,0.00480616,0.00913702,-0.000597941,0.864848,0.00630013,0.0154459,713,1450,-7.93646,-9.78841
-504,-426,-7.96741,10.2313,0.00317086,0.00391217,0.0037359,0.00729576,-0.000212732,0.834843,0.00493628,0.0148563,720,1450,-7.9674,-10.2313
-497,-426,-7.97668,10.6553,0.00302201,0.00320291,0.00302408,0.00613789,8.70312e-05,0.800349,0.00406323,0.0127475,727,1450,-7.97666,-10.6553
-490,-426,-7.96228,11.1055,0.00305888,0.00291054,0.00262856,0.00561432,0.000355107,0.771293,0.0036303,0.0127723,734,1450,-7.96225,-11.1055
-483,-426,-7.96924,11.5693,0.00348531,0.00305204,0.00267139,0.00594883,0.000588516,0.744939,0.003785,0.0123009,741,1450,-7.96923,-11.5694
-476,-426,-7.97693,12.0142,0.00417612,0.0036094,0.00308255,0.0069883,0.00079721,0.739565,0.00441718,0.00955264,748,1450,-7.97696,-12.0142
-469,-426,-7.99994,12.4543,0.00607151,0.00523334,0.00464046,0.0103118,0.000993082,0.740365,0.00656856,0.00866002,755,1450,-7.99995,-12.4544
-462,-426,-7.86011,13.0883,0.00903528,0.00759681,0.00711853,0.0154708,0.00116127,0.73505,0.00994941,0.0327531,762,1450,-7.86011,-13.0883
-455,-426,-7.69147,13.7964,0,0,0,0,0,0,0,-1,769,1450,-7.69148,-13.7964
-448,-426,-6.46545,10.1322,0,0,0,0,0,0,0,-1,776,1450,-6.46543,-10.1322
-441,-426,-10.9547,11.4747,0,0,0,0,0,0,0,-1,783,1450,-10.9546,-11.4748
-434,-426,-8.60004,11.0076,0,0,0,0,0,0,0,-1,790,1450,-8.60002,-11.0075
-427,-426,-9.36627,13.7396,0,0,0,0,0,0,0,-1,797,1450,-9.36628,-13.7396
-420,-426,-5.33765,7.95044,0,0,0,0,0,0,0,-1,804,1450,-5.33766,-7.95041
-413,-426,-10.1148,5.0415,0,0,0,0,0,0,0,-1,811,1450,-10.1148,-5.04152
-406,-426,-11.4199,3.6438,0,0,0,0,0,0,0,-1,818,1450,-11.4198,-3.64382
-399,-426,-12.7595,2.29004,0,0,0,0,0,0,0,-1,825,1450,-12.7595,-2.29003
-392,-426,-12.4147,0.537354,0,0,0,0,0,0,0,-1,832,1450,-12.4147,-0.53731
-385,-426,0,0,0,0,0,0,0,0,0,-1,839,1450,0,0
-378,-426,0,0,0,0,0,0,0,0,0,-1,846,1450,0,0
-371,-426,0,0,0,0,0,0,0,0,0,-1,853,1450,0,0
-364,-426,0,0,0,0,0,0,0,0,0,-1,860,1450,0,0
-357,-426,0,0,0,0,0,0,0,0,0,-1,867,1450,0,0
-350,-426,0,0,0,0,0,0,0,0,0,-1,874,1450,0,0
-343,-426,0,0,0,0,0,0,0,0,0,-1,881,1450,0,0
-336,-426,0,0,0,0,0,0,0,0,0,-1,888,1450,0,0
-329,-426,0,0,0,0,0,0,0,0,0,-1,895,1450,0,0
-322,-426,0,0,0,0,0,0,0,0,0,-1,902,1450,0,0
-315,-426,0,0,0,0,0,0,0,0,0,-1,909,1450,0,0
-308,-426,0,0,0,0,0,0,0,0,0,-1,916,1450,0,0
-301,-426,0,0,0,0,0,0,0,0,0,-1,923,1450,0,0
-294,-426,0,0,0,0,0,0,0,0,0,-1,930,1450,0,0
-287,-426,0,0,0,0,0,0,0,0,0,-1,937,1450,0,0
-280,-426,0,0,0,0,0,0,0,0,0,-1,944,1450,0,0
-273,-426,0,0,0,0,0,0,0,0,0,-1,951,1450,0,0
-266,-426,0,0,0,0,0,0,0,0,0,-1,958,1450,0,0
-259,-426,0,0,0,0,0,0,0,0,0,-1,965,1450,0,0
-252,-426,0,0,0,0,0,0,0,0,0,-1,972,1450,0,0
-245,-426,0,0,0,0,0,0,0,0,0,-1,979,1450,0,0
-238,-426,0,0,0,0,0,0,0,0,0,-1,986,1450,0,0
-231,-426,0,0,0,0,0,0,0,0,0,-1,993,1450,0,0
-224,-426,0,0,0,0,0,0,0,0,0,-1,1000,1450,0,0
-217,-426,0,0,0,0,0,0,0,0,0,-1,1007,1450,0,0
-210,-426,0,0,0,0,0,0,0,0,0,-1,1014,1450,0,0
-203,-426,0,0,0,0,0,0,0,0,0,-1,1021,1450,0,0
-196,-426,0,0,0,0,0,0,0,0,0,-1,1028,1450,0,0
-189,-426,0,0,0,0,0,0,0,0,0,-1,1035,1450,0,0
-182,-426,0,0,0,0,0,0,0,0,0,-1,1042,1450,0,0
-175,-426,0,0,0,0,0,0,0,0,0,-1,1049,1450,0,0
-168,-426,0,0,0,0,0,0,0,0,0,-1,1056,1450,0,0
-161,-426,0,0,0,0,0,0,0,0,0,-1,1063,1450,0,0
-154,-426,0,0,0,0,0,0,0,0,0,-1,1070,1450,0,0
-147,-426,0,0,0,0,0,0,0,0,0,-1,1077,1450,0,0
-140,-426,0,0,0,0,0,0,0,0,0,-1,1084,1450,0,0
-133,-426,0,0,0,0,0,0,0,0,0,-1,1091,1450,0,0
-126,-426,0,0,0,0,0,0,0,0,0,-1,1098,1450,0,0
-119,-426,0,0,0,0,0,0,0,0,0,-1,1105,1450,0,0
-112,-426,0,0,0,0,0,0,0,0,0,-1,1112,1450,0,0
-105,-426,0,0,0,0,0,0,0,0,0,-1,1119,1450,0,0
-98,-426,0,0,0,0,0,0,0,0,0,-1,1126,1450,0,0
-91,-426,0,0,0,0,0,0,0,0,0,-1,1133,1450,0,0
-84,-426,0,0,0,0,0,0,0,0,0,-1,1140,1450,0,0
-77,-426,0,0,0,0,0,0,0,0,0,-1,1147,1450,0,0
-70,-426,0,0,0,0,0,0,0,0,0,-1,1154,1450,0,0
-63,-426,0,0,0,0,0,0,0,0,0,-1,1161,1450,0,0
-56,-426,0,0,0,0,0,0,0,0,0,-1,1168,1450,0,0
-49,-426,0,0,0,0,0,0,0,0,0,-1,1175,1450,0,0
-42,-426,0,0,0,0,0,0,0,0,0,-1,1182,1450,0,0
-35,-426,0,0,0,0,0,0,0,0,0,-1,1189,1450,0,0
-28,-426,0,0,0,0,0,0,0,0,0,-1,1196,1450,0,0
-21,-426,0,0,0,0,0,0,0,0,0,-1,1203,1450,0,0
-14,-426,0,0,0,0,0,0,0,0,0,-1,1210,1450,0,0
-7,-426,0,0,0,0,0,0,0,0,0,-1,1217,1450,0,0
0,-426,0,0,0,0,0,0,0,0,0,-1,1224,1450,0,0
7,-426,0,0,0,0,0,0,0,0,0,-1,1231,1450,0,0
14,-426,0,0,0,0,0,0,0,0,0,-1,1238,1450,0,0
21,-426,0,0,0,0,0,0,0,0,0,-1,1245,1450,0,0
28,-426,0,0,0,0,0,0,0,0,0,-1,1252,1450,0,0
35,-426,0,0,0,0,0,0,0,0,0,-1,1259,1450,0,0
42,-426,0,0,0,0,0,0,0,0,0,-1,1266,1450,0,0
49,-426,0,0,0,0,0,0,0,0,0,-1,1273,1450,0,0
56,-426,0,0,0,0,0,0,0,0,0,-1,1280,1450,0,0
63,-426,0,0,0,0,0,0,0,0,0,-1,1287,1450,0,0
70,-426,0,0,0,0,0,0,0,0,0,-1,1294,1450,0,0
77,-426,0,0,0,0,0,0,0,0,0,-1,1301,1450,0,0
84,-426,0,0,0,0,0,0,0,0,0,-1,1308,1450,0,0
91,-426,0,0,0,0,0,0,0,0,0,-1,1315,1450,0,0
98,-426,0,0,0,0,0,0,0,0,0,-1,1322,1450,0,0
105,-426,0,0,0,0,0,0,0,0,0,-1,1329,1450,0,0
112,-426,0,0,0,0,0,0,0,0,0,-1,1336,1450,0,0
119,-426,0,0,0,0,0,0,0,0,0,-1,1343,1450,0,0
126,-426,0,0,0,0,0,0,0,0,0,-1,1350,1450,0,0
133,-426,0,0,0,0,0,0,0,0,0,-1,1357,1450,0,0
140,-426,0,0,0,0,0,0,0,0,0,-1,1364,1450,0,0
147,-426,0,0,0,0,0,0,0,0,0,-1,1371,1450,0,0
154,-426,0,0,0,0,0,0,0,0,0,-1,1378,1450,0,0
161,-426,0,0,0,0,0,0,0,0,0,-1,1385,1450,0,0
168,-426,0,0,0,0,0,0,0,0,0,-1,1392,1450,0,0
175,-426,0,0,0,0,0,0,0,0,0,-1,1399,1450,0,0
182,-426,0,0,0,0,0,0,0,0,0,-1,1406,1450,0,0
189,-426,0,0,0,0,0,0,0,0,0,-1,1413,1450,0,0
196,-426,0,0,0,0,0,0,0,0,0,-1,1420,1450,0,0
203,-426,0,0,0,0,0,0,0,0,0,-1,1427,1450,0,0
210,-426,0,0,0,0,0,0,0,0,0,-1,1434,1450,0,0
217,-426,0,0,0,0,0,0,0,0,0,-1,1441,1450,0,0
224,-426,0,0,0,0,0,0,0,0,0,-1,1448,1450,0,0
231,-426,0,0,0,0,0,0,0,0,0,-1,1455,1450,0,0
238,-426,0,0,0,0,0,0,0,0,0,-1,1462,1450,0,0
245,-426,0,0,0,0,0,0,0,0,0,-1,1469,1450,0,0
252,-426,0,0,0,0,0,0,0,0,0,-1,1476,1450,0,0
259,-426,0,0,0,0,0,0,0,0,0,-1,1483,1450,0,0
266,-426,0,0,0,0,0,0,0,0,0,-1,1490,1450,0,0
273,-426,0,0,0,0,0,0,0,0,0,-1,1497,1450,0,0
280,-426,0,0,0,0,0,0,0,0,0,-1,1504,1450,0,0
287,-426,0,0,0,0,0,0,0,0,0,-1,1511,1450,0,0
294,-426,0,0,0,0,0,0,0,0,0,-1,1518,1450,0,0
301,-426,0,0,0,0,0,0,0,0,0,-1,1525,1450,0,0
308,-426,0,0,0,0,0,0,0,0,0,-1,1532,1450,0,0
315,-426,0,0,0,0,0,0,0,0,0,-1,1539,1450,0,0
322,-426,0,0,0,0,0,0,0,0,0,-1,1546,1450,0,0
329,-426,0,0,0,0,0,0,0,0,0,-1,1553,1450,0,0
336,-426,0,0,0,0,0,0,0,0,0,-1,1560,1450,0,0
343,-426,0,0,0,0,0,0,0,0,0,-1,1567,1450,0,0
350,-426,0,0,0,0,0,0,0,0,0,-1,1574,1450,0,0
357,-426,0,0,0,0,0,0,0,0,0,-1,1581,1450,0,0
364,-426,0,0,0,0,0,0,0,0,0,-1,1588,1450,0,0
371,-426,0,0,0,0,0,0,0,0,0,-1,1595,1450,0,0
378,-426,0,0,0,0,0,0,0,0,0,-1,1602,1450,0,0
385,-426,0,0,0,0,0,0,0,0,0,-1,1609,1450,0,0
392,-426,0,0,0,0,0,0,0,0,0,-1,1616,1450,0,0
399,-426,0,0,0,0,0,0,0,0,0,-1,1623,1450,0,0
406,-426,0,0,0,0,0,0,0,0,0,-1,1630,1450,0,0
413,-426,0,0,0,0,0,0,0,0,0,-1,1637,1450,0,0
420,-426,0,0,0,0,0,0,0,0,0,-1,1644,1450,0,0
427,-426,0,0,0,0,0,0,0,0,0,-1,1651,1450,0,0
434,-426,0,0,0,0,0,0,0,0,0,-1,1658,1450,0,0
441,-426,0,0,0,0,0,0,0,0,0,-1,1665,1450,0,0
448,-426,0,0,0,0,0,0,0,0,0,-1,1672,1450,0,0
455,-426,0,0,0,0,0,0,0,0,0,-1,1679,1450,0,0
462,-426,0,0,0,0,0,0,0,0,0,-1,1686,1450,0,0
469,-426,0,0,0,0,0,0,0,0,0,-1,1693,1450,0,0
476,-426,0,0,0,0,0,0,0,0,0,-1,1700,1450,0,0
483,-426,0,0,0,0,0,0,0,0,0,-1,1707,1450,0,0
490,-426,0,0,0,0,0,0,0,0,0,-1,1714,1450,0,0
497,-426,0,0,0,0,0,0,0,0,0,-1,1721,1450,0,0
504,-426,20.6873,3.38367,0,0,0,0,0,0,0,-1,1728,1450,20.6873,-3.38361
511,-426,19.6676,3.53748,0,0,0,0,0,0,0,-1,1735,1450,19.6676,-3.53749
518,-426,18.6853,3.32288,0,0,0,0,0,0,0,-1,1742,1450,18.6853,-3.3229
525,-426,18.9552,2.71033,0,0,0,0,0,0,0,-1,1749,1450,18.9552,-2.71034
532,-426,19.4333,2.70764,0,0,0,0,0,0,0,-1,1756,1450,19.4334,-2.70764
539,-426,25.1482,2.56287,0,0,0,0,0,0,0,-1,1763,1450,25.1482,-2.56286
546,-426,24.1136,3.75659,0,0,0,0,0,0,0,-1,1770,1450,24.1136,-3.7566
553,-426,23.0791,4.95032,0,0,0,0,0,0,0,-1,1777,1450,23.0791,-4.95034
560,-426,12.9688,11.8289,0,0,0,0,0,0,0,-1,1784,1450,12.9688,-11.8288
567,-426,13.6388,11.5623,0,0,0,0,0,0,0,-1,1791,1450,13.6388,-11.5623
574,-426,14.3943,11.0286,0,0,0,0,0,0,0,-1,1798,1450,14.3942,-11.0285
581,-426,16.3879,11.4653,0,0,0,0,0,0,0,-1,1805,1450,16.3879,-11.4653
588,-426,18.1212,12.5547,0,0,0,0,0,0,0,-1,1812,1450,18.1212,-12.5547
595,-426,20.839,14.5035,0,0,0,0,0,0,0,-1,1819,1450,20.8389,-14.5035
602,-426,20.9077,14.0746,0.00171961,0.0025591,-0.00175022,0.0039392,0.000339505,-0.903087,0.0025206,0.02466,1826,1450,20.9077,-14.0746
609,-426,20.9537,13.6382,0.00166347,0.00204019,-0.00142767,0.00329187,0.000411782,-0.850987,0.00207101,0.0128179,1833,1450,20.9537,-13.6382
616,-426,20.9556,13.2231,0.00149189,0.00136258,-0.0010724,0.00250158,0.000352888,-0.75529,0.00156342,0.0147271,1840,1450,20.9555,-13.2232
623,-426,20.9388,12.824,0.00136841,0.000819432,-0.000777046,0.00191802,0.000269818,-0.615616,0.00119891,0.0115758,1847,1450,20.9388,-12.824
630,-426,20.9518,12.418,0.00131039,0.000369869,-0.000548349,0.00156251,0.000117751,-0.430955,0.00100472,0.0120793,1854,1450,20.9518,-12.4179
637,-426,20.9391,12.0208,0.00122423,6.24135e-05,-0.000327703,0.00131029,-2.36445e-05,-0.256811,0.000881511,0.0128318,1861,1450,20.9391,-12.0208
644,-426,20.9135,11.6106,0.00120645,-0.000138948,-0.000190888,0.00123301,-0.000165508,-0.138248,0.000882367,0.0118891,1868,1450,20.9135,-11.6106
651,-426,20.8817,11.1973,0.00117099,-0.000201325,-0.000100056,0.00117825,-0.000208582,-0.0723995,0.000863467,0.0111691,1875,1450,20.8817,-11.1973
658,-426,20.8938,10.7487,0.00112579,-0.000177314,-2.32752e-05,0.0011262,-0.000177729,-0.0178538,0.000816518,0.0117894,1882,1450,20.8938,-10.7487
665,-426,20.9288,10.2743,0.00105511,-6.14594e-05,7.59549e-05,0.00106025,-6.66025e-05,0.0676103,0.000730048,0.0208838,1889,1450,20.9288,-10.2743
672,-426,21.0549,9.89087,0,0,0,0,0,0,0,-1,1896,1450,21.0549,-9.89092
679,-426,17.1522,8.15784,0,0,0,0,0,0,0,-1,1903,1450,17.1522,-8.15784
686,-426,13.5326,8.03711,0,0,0,0,0,0,0,-1,1910,1450,13.5326,-8.03717
693,-426,11.8607,6.45215,0,0,0,0,0,0,0,-1,1917,1450,11.8607,-6.45215
700,-426,9.24304,2.95447,0,0,0,0,0,0,0,-1,1924,1450,9.24305,-2.95442
707,-426,8.44519,-1.21448,0,0,0,0,0,0,0,-1,1931,1450,8.44514,1.21454
714,-426,0,0,0,0,0,0,0,0,0,-1,1938,1450,0,0
721,-426,0,0,0,0,0,0,0,0,0,-1,1945,1450,0,0
728,-426,0,0,0,0,0,0,0,0,0,-1,1952,1450,0,0
735,-426,0,0,0,0,0,0,0,0,0,-1,1959,1450,0,0
742,-426,0,0,0,0,0,0,0,0,0,-1,1966,1450,0,0
749,-426,0,0,0,0,0,0,0,0,0,-1,1973,1450,0,0
756,-426,0,0,0,0,0,0,0,0,0,-1,1980,1450,0,0
763,-426,0,0,0,0,0,0,0,0,0,-1,1987,1450,0,0
770,-426,0,0,0,0,0,0,0,0,0,-1,1994,1450,0,0
777,-426,0,0,0,0,0,0,0,0,0,-1,2001,1450,0,0
784,-426,0,0,0,0,0,0,0,0,0,-1,2008,1450,0,0
791,-426,0,0,0,0,0,0,0,0,0,-1,2015,1450,0,0
798,-426,0,0,0,0,0,0,0,0,0,-1,2022,1450,0,0
805,-426,0,0,0,0,0,0,0,0,0,-1,2029,1450,0,0
812,-426,0,0,0,0,0,0,0,0,0,-1,2036,1450,0,0
-700,-433,0,0,0,0,0,0,0,0,0,-1,524,1457,0,0
-693,-433,0,0,0,0,0,0,0,0,0,-1,531,1457,0,0
-686,-433,0,0,0,0,0,0,0,0,0,-1,538,1457,0,0
-679,-433,0,0,0,0,0,0,0,0,0,-1,545,1457,0,0
-672,-433,0,0,0,0,0,0,0,0,0,-1,552,1457,0,0
-665,-433,0,0,0,0,0,0,0,0,0,-1,559,1457,0,0
-658,-433,0,0,0,0,0,0,0,0,0,-1,566,1457,0,0
-651,-433,0,0,0,0,0,0,0,0,0,-1,573,1457,0,0
-644,-433,0,0,0,0,0,0,0,0,0,-1,580,1457,0,0
-637,-433,0,0,0,0,0,0,0,0,0,-1,587,1457,0,0
-630,-433,0,0,0,0,0,0,0,0,0,-1,594,1457,0,0
-623,-433,0,0,0,0,0,0,0,0,0,-1,601,1457,0,0
-616,-433,0,0,0,0,0,0,0,0,0,-1,608,1457,0,0
-609,-433,0,0,0,0,0,0,0,0,0,-1,615,1457,0,0
-602,-433,0,0,0,0,0,0,0,0,0,-1,622,1457,0,0
-595,-433,0,0,0,0,0,0,0,0,0,-1,629,1457,0,0
-588,-433,-10.3756,-0.467041,0,0,0,0,0,0,0,-1,636,1457,-10.3756,0.467081
-581,-433,-8.12201,0.884033,0,0,0,0,0,0,0,-1,643,1457,-8.12204,-0.884056
-574,-433,-5.86847,2.23523,0,0,0,0,0,0,0,-1,650,1457,-5.86844,-2.23519
-567,-433,-5.42255,1.16833,0,0,0,0,0,0,0,-1,657,1457,-5.42254,-1.1683
-560,-433,-6.84027,1.86414,0,0,0,0,0,0,0,-1,664,1457,-6.84026,-1.86412
-553,-433,-5.74017,1.79163,0,0,0,0,0,0,0,-1,671,1457,-5.74015,-1.79166
-546,-433,-6.32709,7.43701,0,0,0,0,0,0,0,-1,678,1457,-6.32709,-7.43707
-539,-433,-6.74316,7.97632,0,0,0,0,0,0,0,-1,685,1457,-6.74316,-7.97628
-532,-433,-7.15924,8.5155,0,0,0,0,0,0,0,-1,692,1457,-7.15922,-8.5155
-525,-433,-7.42542,8.88586,0.00865751,0.0126009,0.0124346,0.0232191,-0.00196072,0.864026,0.0161727,0.0330981,699,1457,-7.4254,-8.88586
-518,-433,-7.47742,9.31824,0.00729945,0.00968334,0.00970217,0.0182665,-0.00128372,0.846519,0.0126273,0.0163535,706,1457,-7.47741,-9.31827
-511,-433,-7.49915,9.78992,0.00591965,0.00724918,0.00733095,0.0139454,-0.00077661,0.830614,0.00956634,0.0159258,713,1457,-7.49913,-9.78994
-504,-433,-7.51495,10.2327,0.00483522,0.00540365,0.00547617,0.010603,-0.000364106,0.811325,0.00719309,0.0126069,720,1457,-7.51496,-10.2327
-497,-433,-7.5191,10.6758,0.00407815,0.00412275,0.00413832,0.00823883,-3.79365e-05,0.788092,0.00550524,0.0128357,727,1457,-7.51908,-10.6758
-490,-433,-7.52795,11.1129,0.00361254,0.00337163,0.00324267,0.00673699,0.000247177,0.766833,0.00441124,0.0149939,734,1457,-7.52797,-11.113
-483,-433,-7.53119,11.6033,0.00366694,0.00312218,0.0028863,0.00629368,0.000495436,0.738352,0.00404078,0.0158719,741,1457,-7.53116,-11.6032
-476,-433,-7.52563,12.0459,0.0040136,0.00332628,0.00294189,0.00663184,0.000708047,0.727253,0.00420513,0.0106012,748,1457,-7.52563,-12.0459
-469,-433,-7.54449,12.4694,0.00531699,0.00432345,0.00395177,0.00880309,0.000837355,0.722872,0.00561048,0.0105541,755,1457,-7.54449,-12.4694
-462,-433,-7.58258,12.9243,0.00760219,0.00607841,0.00585855,0.0127482,0.00093242,0.720737,0.00820566,0.0123396,762,1457,-7.58256,-12.9243
-455,-433,-7.30829,13.6241,0.00945948,0.00750142,0.00733774,0.0158832,0.00107768,0.719078,0.0102485,0.048134,769,1457,-7.30828,-13.6242
-448,-433,-6.88324,14.3295,0,0,0,0,0,0,0,-1,776,1457,-6.88322,-14.3294
-441,-433,-8.32239,13.5532,0,0,0,0,0,0,0,-1,783,1457,-8.32239,-13.5532
-434,-433,-8.10785,12.1105,0,0,0,0,0,0,0,-1,790,1457,-8.10787,-12.1105
-427,-433,-7.8573,12.4749,0,0,0,0,0,0,0,-1,797,1457,-7.85731,-12.4748
-420,-433,-5.74658,9.49121,0,0,0,0,0,0,0,-1,804,1457,-5.7466,-9.49119
-413,-433,-3.63074,5.5813,0,0,0,0,0,0,0,-1,811,1457,-3.63072,-5.58129
-406,-433,-12.3472,4.69373,0,0,0,0,0,0,0,-1,818,1457,-12.3472,-4.69374
-399,-433,-12.055,2.83594,0,0,0,0,0,0,0,-1,825,1457,-12.055,-2.83594
-392,-433,-12.9772,1.6228,0,0,0,0,0,0,0,-1,832,1457,-12.9772,-1.62282
-385,-433,-13.7999,0.514771,0,0,0,0,0,0,0,-1,839,1457,-13.7999,-0.514788
-378,-433,0,0,0,0,0,0,0,0,0,-1,846,1457,0,0
-371,-433,0,0,0,0,0,0,0,0,0,-1,853,1457,0,0
-364,-433,0,0,0,0,0,0,0,0,0,-1,860,1457,0,0
-357,-433,0,0,0,0,0,0,0,0,0,-1,867,1457,0,0
-350,-433,0,0,0,0,0,0,0,0,0,-1,874,1457,0,0
-343,-433,0,0,0,0,0,0,0,0,0,-1,881,1457,0,0
-336,-433,0,0,0,0,0,0,0,0,0,-1,888,1457,0,0
-329,-433,0,0,0,0,0,0,0,0,0,-1,895,1457,0,0
-322,-433,0,0,0,0,0,0,0,0,0,-1,902,1457,0,0
-315,-433,0,0,0,0,0,0,0,0,0,-1,909,1457,0,0
-308,-433,0,0,0,0,0,0,0,0,0,-1,916,1457,0,0
-301,-433,0,0,0,0,0,0,0,0,0,-1,923,1457,0,0
-294,-433,0,0,0,0,0,0,0,0,0,-1,930,1457,0,0
-287,-433,0,0,0,0,0,0,0,0,0,-1,937,1457,0,0
-280,-433,0,0,0,0,0,0,0,0,0,-1,944,1457,0,0
-273,-433,0,0,0,0,0,0,0,0,0,-1,951,1457,0,0
-266,-433,0,0,0,0,0,0,0,0,0,-1,958,1457,0,0
-259,-433,0,0,0,0,0,0,0,0,0,-1,965,1457,0,0
-252,-433,0,0,0,0,0,0,0,0,0,-1,972,1457,0,0
-245,-433,0,0,0,0,0,0,0,0,0,-1,979,1457,0,0
-238,-433,0,0,0,0,0,0,0,0,0,-1,986,1457,0,0
-231,-433,0,0,0,0,0,0,0,0,0,-1,993,1457,0,0
-224,-433,0,0,0,0,0,0,0,0,0,-1,1000,1457,0,0
-217,-433,0,0,0,0,0,0,0,0,0,-1,1007,1457,0,0
-210,-433,0,0,0,0,0,0,0,0,0,-1,1014,1457,0,0
-203,-433,0,0,0,0,0,0,0,0,0,-1,1021,1457,0,0
-196,-433,0,0,0,0,0,0,0,0,0,-1,1028,1457,0,0
-189,-433,0,0,0,0,0,0,0,0,0,-1,1035,1457,0,0
-182,-433,0,0,0,0,0,0,0,0,0,-1,1042,1457,0,0
-175,-433,0,0,0,0,0,0,0,0,0,-1,1049,1457,0,0
-168,-433,0,0,0,0,0,0,0,0,0,-1,1056,1457,0,0
-161,-433,0,0,0,0,0,0,0,0,0,-1,1063,1457,0,0
-154,-433,0,0,0,0,0,0,0,0,0,-1,1070,1457,0,0
-147,-433,0,0,0,0,0,0,0,0,0,-1,1077,1457,0,0
-140,-433,0,0,0,0,0,0,0,0,0,-1,1084,1457,0,0
-133,-433,0,0,0,0,0,0,0,0,0,-1,1091,1457,0,0
-126,-433,0,0,0,0,0,0,0,0,0,-1,1098,1457,0,0
-119,-433,0,0,0,0,0,0,0,0,0,-1,1105,1457,0,0
-112,-433,0,0,0,0,0,0,0,0,0,-1,1112,1457,0,0
-105,-433,0,0,0,0,0,0,0,0,0,-1,1119,1457,0,0
-98,-433,0,0,0,0,0,0,0,0,0,-1,1126,1457,0,0
-91,-433,0,0,0,0,0,0,0,0,0,-1,1133,1457,0,0
-84,-433,0,0,0,0,0,0,0,0,0,-1,1140,1457,0,0
-77,-433,0,0,0,0,0,0,0,0,0,-1,1147,1457,0,0
-70,-433,0,0,0,0,0,0,0,0,0,-1,1154,1457,0,0
-63,-433,0,0,0,0,0,0,0,0,0,-1,1161,1457,0,0
-56,-433,0,0,0,0,0,0,0,0,0,-1,1168,1457,0,0
-49,-433,0,0,0,0,0,0,0,0,0,-1,1175,1457,0,0
-42,-433,0,0,0,0,0,0,0,0,0,-1,1182,1457,0,0
-35,-433,0,0,0,0,0,0,0,0,0,-1,1189,1457,0,0
-28,-433,0,0,0,0,0,0,0,0,0,-1,1196,1457,0,0
-21,-433,0,0,0,0,0,0,0,0,0,-1,1203,1457,0,0
-14,-433,0,0,0,0,0,0,0,0,0,-1,1210,1457,0,0
-7,-433,0,0,0,0,0,0,0,0,0,-1,1217,1457,0,0
0,-433,0,0,0,0,0,0,0,0,0,-1,1224,1457,0,0
7,-433,0,0,0,0,0,0,0,0,0,-1,1231,1457,0,0
14,-433,0,0,0,0,0,0,0,0,0,-1,1238,1457,0,0
21,-433,0,0,0,0,0,0,0,0,0,-1,1245,1457,0,0
28,-433,0,0,0,0,0,0,0,0,0,-1,1252,1457,0,0
35,-433,0,0,0,0,0,0,0,0,0,-1,1259,1457,0,0
42,-433,0,0,0,0,0,0,0,0,0,-1,1266,1457,0,0
49,-433,0,0,0,0,0,0,0,0,0,-1,1273,1457,0,0
56,-433,0,0,0,0,0,0,0,0,0,-1,1280,1457,0,0
63,-433,0,0,0,0,0,0,0,0,0,-1,1287,1457,0,0
70,-433,0,0,0,0,0,0,0,0,0,-1,1294,1457,0,0
77,-433,0,0,0,0,0,0,0,0,0,-1,1301,1457,0,0
84,-433,0,0,0,0,0,0,0,0,0,-1,1308,1457,0,0
91,-433,0,0,0,0,0,0,0,0,0,-1,1315,1457,0,0
98,-433,0,0,0,0,0,0,0,0,0,-1,1322,1457,0,0
105,-433,0,0,0,0,0,0,0,0,0,-1,1329,1457,0,0
112,-433,0,0,0,0,0,0,0,0,0,-1,1336,1457,0,0
119,-433,0,0,0,0,0,0,0,0,0,-1,1343,1457,0,0
126,-433,0,0,0,0,0,0,0,0,0,-1,1350,1457,0,0
133,-433,0,0,0,0,0,0,0,0,0,-1,1357,1457,0,0
140,-433,0,0,0,0,0,0,0,0,0,-1,1364,1457,0,0
147,-433,0,0,0,0,0,0,0,0,0,-1,1371,1457,0,0
154,-433,0,0,0,0,0,0,0,0,0,-1,1378,1457,0,0
161,-433,0,0,0,0,0,0,0,0,0,-1,1385,1457,0,0
168,-433,0,0,0,0,0,0,0,0,0,-1,1392,1457,0,0
175,-433,0,0,0,0,0,0,0,0,0,-1,1399,1457,0,0
182,-433,0,0,0,0,0,0,0,0,0,-1,1406,1457,0,0
189,-433,0,0,0,0,0,0,0,0,0,-1,1413,1457,0,0
196,-433,0,0,0,0,0,0,0,0,0,-1,1420,1457,0,0
203,-433,0,0,0,0,0,0,0,0,0,-1,1427,1457,0,0
210,-433,0,0,0,0,0,0,0,0,0,-1,1434,1457,0,0
217,-433,0,0,0,0,0,0,0,0,0,-1,1441,1457,0,0
224,-433,0,0,0,0,0,0,0,0,0,-1,1448,1457,0,0
231,-433,0,0,0,0,0,0,0,0,0,-1,1455,1457,0,0
238,-433,0,0,0,0,0,0,0,0,0,-1,1462,1457,0,0
245,-433,0,0,0,0,0,0,0,0,0,-1,1469,1457,0,0
252,-433,0,0,0,0,0,0,0,0,0,-1,1476,1457,0,0
259,-433,0,0,0,0,0,0,0,0,0,-1,1483,1457,0,0
266,-433,0,0,0,0,0,0,0,0,0,-1,1490,1457,0,0
273,-433,0,0,0,0,0,0,0,0,0,-1,1497,1457,0,0
280,-433,0,0,0,0,0,0,0,0,0,-1,1504,1457,0,0
287,-433,0,0,0,0,0,0,0,0,0,-1,1511,1457,0,0
294,-433,0,0,0,0,0,0,0,0,0,-1,1518,1457,0,0
301,-433,0,0,0,0,0,0,0,0,0,-1,1525,1457,0,0
308,-433,0,0,0,0,0,0,0,0,0,-1,1532,1457,0,0
315,-433,0,0,0,0,0,0,0,0,0,-1,1539,1457,0,0
322,-433,0,0,0,0,0,0,0,0,0,-1,1546,1457,0,0
329,-433,0,0,0,0,0,0,0,0,0,-1,1553,1457,0,0
336,-433,0,0,0,0,0,0,0,0,0,-1,1560,1457,0,0
343,-433,0,0,0,0,0,0,0,0,0,-1,1567,1457,0,0
350,-433,0,0,0,0,0,0,0,0,0,-1,1574,1457,0,0
357,-433,0,0,0,0,0,0,0,0,0,-1,1581,1457,0,0
364,-433,0,0,0,0,0,0,0,0,0,-1,1588,1457,0,0
371,-433,0,0,0,0,0,0,0,0,0,-1,1595,1457,0,0
378,-433,0,0,0,0,0,0,0,0,0,-1,1602,1457,0,0
385,-433,0,0,0,0,0,0,0,0,0,-1,1609,1457,0,0
392,-433,0,0,0,0,0,0,0,0,0,-1,1616,1457,0,0
399,-433,0,0,0,0,0,0,0,0,0,-1,1623,1457,0,0
406,-433,0,0,0,0,0,0,0,0,0,-1,1630,1457,0,0
413,-433,0,0,0,0,0,0,0,0,0,-1,1637,1457,0,0
420,-433,0,0,0,0,0,0,0,0,0,-1,1644,1457,0,0
427,-433,0,0,0,0,0,0,0,0,0,-1,1651,1457,0,0
434,-433,0,0,0,0,0,0,0,0,0,-1,1658,1457,0,0
441,-433,0,0,0,0,0,0,0,0,0,-1,1665,1457,0,0
448,-433,0,0,0,0,0,0,0,0,0,-1,1672,1457,0,0
455,-433,0,0,0,0,0,0,0,0,0,-1,1679,1457,0,0
462,-433,0,0,0,0,0,0,0,0,0,-1,1686,1457,0,0
469,-433,0,0,0,0,0,0,0,0,0,-1,1693,1457,0,0
476,-433,0,0,0,0,0,0,0,0,0,-1,1700,1457,0,0
483,-433,0,0,0,0,0,0,0,0,0,-1,1707,1457,0,0
490,-433,0,0,0,0,0,0,0,0,0,-1,1714,1457,0,0
497,-433,0,0,0,0,0,0,0,0,0,-1,1721,1457,0,0
504,-433,19.9058,3.03662,0,0,0,0,0,0,0,-1,1728,1457,19.9058,-3.03656
511,-433,19.0145,3.07837,0,0,0,0,0,0,0,-1,1735,1457,19.0146,-3.07834
518,-433,18.071,3.06433,0,0,0,0,0,0,0,-1,1742,1457,18.071,-3.06432
525,-433,17.2048,3.37085,0,0,0,0,0,0,0,-1,1749,1457,17.2049,-3.37083
532,-433,16.5637,3.36646,0,0,0,0,0,0,0,-1,1756,1457,16.5637,-3.36643
539,-433,15.9193,3.30396,0,0,0,0,0,0,0,-1,1763,1457,15.9193,-3.30394
546,-433,23.1903,4.81775,0,0,0,0,0,0,0,-1,1770,1457,23.1903,-4.81775
553,-433,13.9674,11.5781,0,0,0,0,0,0,0,-1,1777,1457,13.9674,-11.5781
560,-433,13.9855,11.7341,0,0,0,0,0,0,0,-1,1784,1457,13.9855,-11.7341
567,-433,13.9264,11.3364,0,0,0,0,0,0,0,-1,1791,1457,13.9263,-11.3364
574,-433,15.5305,12.3673,0,0,0,0,0,0,0,-1,1798,1457,15.5305,-12.3673
581,-433,16.6405,12.1898,0,0,0,0,0,0,0,-1,1805,1457,16.6405,-12.1898
588,-433,20.6864,15.2764,0,0,0,0,0,0,0,-1,1812,1457,20.6864,-15.2764
595,-433,20.5751,14.5682,0.00152744,0.00264751,-0.0017291,0.003905,0.000269947,-0.94201,0.00251818,0.0347313,1819,1457,20.5751,-14.5682
602,-433,20.5432,14.0917,0.00150827,0.00218184,-0.00148805,0.00337074,0.000319367,-0.896685,0.00214863,0.0223503,1826,1457,20.5432,-14.0916
609,-433,20.5446,13.6422,0.00149428,0.0017456,-0.00122058,0.00284697,0.000392908,-0.836692,0.00178151,0.0157408,1833,1457,20.5445,-13.6422
616,-433,20.5387,13.2269,0.00139902,0.00114818,-0.000922976,0.00220506,0.000342139,-0.717868,0.0013703,0.0134963,1840,1457,20.5386,-13.2269
623,-433,20.53,12.8146,0.00135077,0.000641719,-0.00066164,0.00174688,0.000245608,-0.539449,0.00109196,0.0107427,1847,1457,20.53,-12.8146
630,-433,20.5345,12.4011,0.00136744,0.000201576,-0.000454789,0.00152386,4.51548e-05,-0.331269,0.00100119,0.0137895,1854,1457,20.5345,-12.4011
637,-433,20.5183,11.9994,0.00135603,-9.91544e-05,-0.000256088,0.00139978,-0.000142906,-0.169213,0.000984287,0.0147786,1861,1457,20.5183,-11.9994
644,-433,20.5012,11.5957,0.00141638,-0.000291123,-0.000151133,0.00142966,-0.000304397,-0.0876031,0.00106911,0.0153713,1868,1457,20.5012,-11.5957
651,-433,20.479,11.1942,0.00145794,-0.000322907,-0.000123371,0.00146644,-0.000331413,-0.0688386,0.00110479,0.0117938,1875,1457,20.479,-11.1942
658,-433,20.4656,10.7416,0.00151553,-0.000279181,-0.000114835,0.00152285,-0.000286499,-0.0636393,0.00112298,0.0206772,1882,1457,20.4656,-10.7416
665,-433,20.6328,10.2133,0,0,0,0,0,0,0,-1,1889,1457,20.6328,-10.2133
672,-433,18.115,8.7207,0,0,0,0,0,0,0,-1,1896,1457,18.115,-8.72074
679,-433,17.2969,9.6355,0,0,0,0,0,0,0,-1,1903,1457,17.2968,-9.63548
686,-433,13.6356,8.61694,0,0,0,0,0,0,0,-1,1910,1457,13.6356,-8.61694
693,-433,13.4081,8.39624,0,0,0,0,0,0,0,-1,1917,1457,13.4081,-8.39624
700,-433,7.16809,-1.5166,0,0,0,0,0,0,0,-1,1924,1457,7.16806,1.51656
707,-433,8.68359,-2.82202,0,0,0,0,0,0,0,-1,1931,1457,8.68359,2.82197
714,-433,0,0,0,0,0,0,0,0,0,-1,1938,1457,0,0
721,-433,0,0,0,0,0,0,0,0,0,-1,1945,1457,0,0
728,-433,0,0,0,0,0,0,0,0,0,-1,1952,1457,0,0
735,-433,0,0,0,0,0,0,0,0,0,-1,1959,1457,0,0
742,-433,0,0,0,0,0,0,0,0,0,-1,1966,1457,0,0
749,-433,0,0,0,0,0,0,0,0,0,-1,1973,1457,0,0
756,-433,0,0,0,0,0,0,0,0,0,-1,1980,1457,0,0
763,-433,0,0,0,0,0,0,0,0,0,-1,1987,1457,0,0
770,-433,0,0,0,0,0,0,0,0,0,-1,1994,1457,0,0
777,-433,0,0,0,0,0,0,0,0,0,-1,2001,1457,0,0
784,-433,0,0,0,0,0,0,0,0,0,-1,2008,1457,0,0
791,-433,0,0,0,0,0,0,0,0,0,-1,2015,1457,0,0
798,-433,0,0,0,0,0,0,0,0,0,-1,2022,1457,0,0
805,-433,0,0,0,0,0,0,0,0,0,-1,2029,1457,0,0
812,-433,0,0,0,0,0,0,0,0,0,-1,2036,1457,0,0
-700,-440,0,0,0,0,0,0,0,0,0,-1,524,1464,0,0
-693,-440,0,0,0,0,0,0,0,0,0,-1,531,1464,0,0
-686,-440,0,0,0,0,0,0,0,0,0,-1,538,1464,0,0
-679,-440,0,0,0,0,0,0,0,0,0,-1,545,1464,0,0
-672,-440,0,0,0,0,0,0,0,0,0,-1,552,1464,0,0
-665,-440,0,0,0,0,0,0,0,0,0,-1,559,1464,0,0
-658,-440,0,0,0,0,0,0,0,0,0,-1,566,1464,0,0
-651,-440,0,0,0,0,0,0,0,0,0,-1,573,1464,0,0
-644,-440,0,0,0,0,0,0,0,0,0,-1,580,1464,0,0
-637,-440,0,0,0,0,0,0,0,0,0,-1,587,1464,0,0
-630,-440,0,0,0,0,0,0,0,0,0,-1,594,1464,0,0
-623,-440,0,0,0,0,0,0,0,0,0,-1,601,1464,0,0
-616,-440,0,0,0,0,0,0,0,0,0,-1,608,1464,0,0
-609,-440,0,0,0,0,0,0,0,0,0,-1,615,1464,0,0
-602,-440,0,0,0,0,0,0,0,0,0,-1,622,1464,0,0
-595,-440,0,0,0,0,0,0,0,0,0,-1,629,1464,0,0
-588,-440,0,0,0,0,0,0,0,0,0,-1,636,1464,0,0
-581,-440,-8.97278,0.254517,0,0,0,0,0,0,0,-1,643,1464,-8.97276,-0.254526
-574,-440,-7.00818,-0.918579,0,0,0,0,0,0,0,-1,650,1464,-7.00817,0.918538
-567,-440,-6.12152,-0.0766602,0,0,0,0,0,0,0,-1,657,1464,-6.12151,0.0767097
-560,-440,-5.46747,0.82251,0,0,0,0,0,0,0,-1,664,1464,-5.46748,-0.822551
-553,-440,-6.84729,0.0831299,0,0,0,0,0,0,0,-1,671,1464,-6.84732,-0.083136
-546,-440,-5.63446,-0.153198,0,0,0,0,0,0,0,-1,678,1464,-5.63447,0.153147
-539,-440,-6.26294,7.88818,0,0,0,0,0,0,0,-1,685,1464,-6.26295,-7.88815
-532,-440,-6.74982,8.30896,0,0,0,0,0,0,0,-1,692,1464,-6.74979,-8.30897
-525,-440,-7.03748,8.91602,0.0151349,0.0177065,0.0185881,0.0350533,-0.00221186,0.81993,0.0241399,0.037051,699,1464,-7.03747,-8.916
-518,-440,-7.06775,9.28186,0.0123119,0.0133698,0.0142837,0.0271343,-0.00145257,0.803905,0.0185927,0.0189692,706,1464,-7.06773,-9.28182
-511,-440,-7.0462,9.78088,0.00967283,0.00983115,0.0106665,0.0204187,-0.000914771,0.789109,0.0139274,0.0147245,713,1464,-7.04623,-9.78091
-504,-440,-7.05249,10.2448,0.0074977,0.00711529,0.00780963,0.0151185,-0.000505479,0.773159,0.0102516,0.0171956,720,1464,-7.05249,-10.2447
-497,-440,-7.05493,10.6805,0.00586617,0.00517532,0.00569198,0.0112232,-0.000181704,0.755092,0.00754343,0.0203049,727,1464,-7.0549,-10.6805
-490,-440,-7.05713,11.0624,0.00468449,0.00392988,0.00419392,0.00851804,9.63234e-05,0.740537,0.00564686,0.0215001,734,1464,-7.05713,-11.0623
-483,-440,-7.0907,11.5563,0.00415862,0.00328652,0.00335198,0.0071028,0.000342348,0.720718,0.00462531,0.0193308,741,1464,-7.09072,-11.5563
-476,-440,-7.08728,12.0125,0.00399505,0.00315651,0.00299584,0.00660082,0.000550745,0.715874,0.00422894,0.0124454,748,1464,-7.08726,-12.0125
-469,-440,-7.10522,12.4673,0.00458367,0.00362041,0.00341837,0.00755418,0.000649902,0.715411,0.00483407,0.0122705,755,1464,-7.10521,-12.4672
-462,-440,-7.15369,12.9016,0.00610305,0.00487804,0.00472221,0.0102523,0.000728774,0.720904,0.00660537,0.0156503,762,1464,-7.15368,-12.9016
-455,-440,-7.00378,13.454,0.00753395,0.0059999,0.00587973,0.0126965,0.00083737,0.720538,0.00819946,0.0295387,769,1464,-7.00377,-13.454
-448,-440,-6.55963,14.0861,0,0,0,0,0,0,0,-1,776,1464,-6.55966,-14.0861
-441,-440,-7.57263,13.8588,0,0,0,0,0,0,0,-1,783,1464,-7.57261,-13.8587
-434,-440,-8.30499,14.0881,0,0,0,0,0,0,0,-1,790,1464,-8.305,-14.0881
-427,-440,-8.05737,13.4551,0,0,0,0,0,0,0,-1,797,1464,-8.05736,-13.455
-420,-440,-6.86603,8.09216,0,0,0,0,0,0,0,-1,804,1464,-6.86602,-8.09222
-413,-440,-3.46796,5.72278,0,0,0,0,0,0,0,-1,811,1464,-3.46797,-5.72276
-406,-440,-5.2887,5.20264,0,0,0,0,0,0,0,-1,818,1464,-5.2887,-5.20261
-399,-440,-12.7318,3.94421,0,0,0,0,0,0,0,-1,825,1464,-12.7318,-3.94419
-392,-440,-13.5565,2.51855,0,0,0,0,0,0,0,-1,832,1464,-13.5565,-2.51861
-385,-440,-14.6741,1.39795,0,0,0,0,0,0,0,-1,839,1464,-14.6741,-1.39801
-378,-440,-15.8063,0.293457,0,0,0,0,0,0,0,-1,846,1464,-15.8063,-0.293412
-371,-440,0,0,0,0,0,0,0,0,0,-1,853,1464,0,0
-364,-440,0,0,0,0,0,0,0,0,0,-1,860,1464,0,0
-357,-440,0,0,0,0,0,0,0,0,0,-1,867,1464,0,0
-350,-440,0,0,0,0,0,0,0,0,0,-1,874,1464,0,0
-343,-440,0,0,0,0,0,0,0,0,0,-1,881,1464,0,0
-336,-440,0,0,0,0,0,0,0,0,0,-1,888,1464,0,0
-329,-440,0,0,0,0,0,0,0,0,0,-1,895,1464,0,0
-322,-440,0,0,0,0,0,0,0,0,0,-1,902,1464,0,0
-315,-440,0,0,0,0,0,0,0,0,0,-1,909,1464,0,0
-308,-440,0,0,0,0,0,0,0,0,0,-1,916,1464,0,0
-301,-440,0,0,0,0,0,0,0,0,0,-1,923,1464,0,0
-294,-440,0,0,0,0,0,0,0,0,0,-1,930,1464,0,0
-287,-440,0,0,0,0,0,0,0,0,0,-1,937,1464,0,0
-280,-440,0,0,0,0,0,0,0,0,0,-1,944,1464,0,0
-273,-440,0,0,0,0,0,0,0,0,0,-1,951,1464,0,0
-266,-440,0,0,0,0,0,0,0,0,0,-1,958,1464,0,0
-259,-440,0,0,0,0,0,0,0,0,0,-1,965,1464,0,0
-252,-440,0,0,0,0,0,0,0,0,0,-1,972,1464,0,0
-245,-440,0,0,0,0,0,0,0,0,0,-1,979,1464,0,0
-238,-440,0,0,0,0,0,0,0,0,0,-1,986,1464,0,0
-231,-440,0,0,0,0,0,0,0,0,0,-1,993,1464,0,0
-224,-440,0,0,0,0,0,0,0,0,0,-1,1000,1464,0,0
-217,-440,0,0,0,0,0,0,0,0,0,-1,1007,1464,0,0
-210,-440,0,0,0,0,0,0,0,0,0,-1,1014,1464,0,0
-203,-440,0,0,0,0,0,0,0,0,0,-1,1021,1464,0,0
-196,-440,0,0,0,0,0,0,0,0,0,-1,1028,1464,0,0
-189,-440,0,0,0,0,0,0,0,0,0,-1,1035,1464,0,0
-182,-440,0,0,0,0,0,0,0,0,0,-1,1042,1464,0,0
-175,-440,0,0,0,0,0,0,0,0,0,-1,1049,1464,0,0
-168,-440,0,0,0,0,0,0,0,0,0,-1,1056,1464,0,0
-161,-440,0,0,0,0,0,0,0,0,0,-1,1063,1464,0,0
-154,-440,0,0,0,0,0,0,0,0,0,-1,1070,1464,0,0
-147,-440,0,0,0,0,0,0,0,0,0,-1,1077,1464,0,0
-140,-440,0,0,0,0,0,0,0,0,0,-1,1084,1464,0,0
-133,-440,0,0,0,0,0,0,0,0,0,-1,1091,1464,0,0
-126,-440,0,0,0,0,0,0,0,0,0,-1,1098,1464,0,0
-119,-440,0,0,0,0,0,0,0,0,0,-1,1105,1464,0,0
-112,-440,0,0,0,0,0,0,0,0,0,-1,1112,1464,0,0
-105,-440,0,0,0,0,0,0,0,0,0,-1,1119,1464,0,0
-98,-440,0,0,0,0,0,0,0,0,0,-1,1126,1464,0,0
-91,-440,0,0,0,0,0,0,0,0,0,-1,1133,1464,0,0
-84,-440,0,0,0,0,0,0,0,0,0,-1,1140,1464,0,0
-77,-440,0,0,0,0,0,0,0,0,0,-1,1147,1464,0,0
-70,-440,0,0,0,0,0,0,0,0,0,-1,1154,1464,0,0
-63,-440,0,0,0,0,0,0,0,0,0,-1,1161,1464,0,0
-56,-440,0,0,0,0,0,0,0,0,0,-1,1168,1464,0,0
-49,-440,0,0,0,0,0,0,0,0,0,-1,1175,1464,0,0
-42,-440,0,0,0,0,0,0,0,0,0,-1,1182,1464,0,0
-35,-440,0,0,0,0,0,0,0,0,0,-1,1189,1464,0,0
-28,-440,0,0,0,0,0,0,0,0,0,-1,1196,1464,0,0
-21,-440,0,0,0,0,0,0,0,0,0,-1,1203,1464,0,0
-14,-440,0,0,0,0,0,0,0,0,0,-1,1210,1464,0,0
-7,-440,0,0,0,0,0,0,0,0,0,-1,1217,1464,0,0
0,-440,0,0,0,0,0,0,0,0,0,-1,1224,1464,0,0
7,-440,0,0,0,0,0,0,0,0,0,-1,1231,1464,0,0
14,-440,0,0,0,0,0,0,0,0,0,-1,1238,1464,0,0
21,-440,0,0,0,0,0,0,0,0,0,-1,1245,1464,0,0
28,-440,0,0,0,0,0,0,0,0,0,-1,1252,1464,0,0
35,-440,0,0,0,0,0,0,0,0,0,-1,1259,1464,0,0
42,-440,0,0,0,0,0,0,0,0,0,-1,1266,1464,0,0
49,-440,0,0,0,0,0,0,0,0,0,-1,1273,1464,0,0
56,-440,0,0,0,0,0,0,0,0,0,-1,1280,1464,0,0
63,-440,0,0,0,0,0,0,0,0,0,-1,1287,1464,0,0
70,-440,0,0,0,0,0,0,0,0,0,-1,1294,1464,0,0
77,-440,0,0,0,0,0,0,0,0,0,-1,1301,1464,0,0
84,-440,0,0,0,0,0,0,0,0,0,-1,1308,1464,0,0
91,-440,0,0,0,0,0,0,0,0,0,-1,1315,1464,0,0
98,-440,0,0,0,0,0,0,0,0,0,-1,1322,1464,0,0
105,-440,0,0,0,0,0,0,0,0,0,-1,1329,1464,0,0
112,-440,0,0,0,0,0,0,0,0,0,-1,1336,1464,0,0
119,-440,0,0,0,0,0,0,0,0,0,-1,1343,1464,0,0
126,-440,0,0,0,0,0,0,0,0,0,-1,1350,1464,0,0
133,-440,0,0,0,0,0,0,0,0,0,-1,1357,1464,0,0
140,-440,0,0,0,0,0,0,0,0,0,-1,1364,1464,0,0
147,-440,0,0,0,0,0,0,0,0,0,-1,1371,1464,0,0
154,-440,0,0,0,0,0,0,0,0,0,-1,1378,1464,0,0
161,-440,0,0,0,0,0,0,0,0,0,-1,1385,1464,0,0
168,-440,0,0,0,0,0,0,0,0,0,-1,1392,1464,0,0
175,-440,0,0,0,0,0,0,0,0,0,-1,1399,1464,0,0
182,-440,0,0,0,0,0,0,0,0,0,-1,1406,1464,0,0
189,-440,0,0,0,0,0,0,0,0,0,-1,1413,1464,0,0
196,-440,0,0,0,0,0,0,0,0,0,-1,1420,1464,0,0
203,-440,0,0,0,0,0,0,0,0,0,-1,1427,1464,0,0
210,-440,0,0,0,0,0,0,0,0,0,-1,1434,1464,0,0
217,-440,0,0,0,0,0,0,0,0,0,-1,1441,1464,0,0
224,-440,0,0,0,0,0,0,0,0,0,-1,1448,1464,0,0
231,-440,0,0,0,0,0,0,0,0,0,-1,1455,1464,0,0
238,-440,0,0,0,0,0,0,0,0,0,-1,1462,1464,0,0
245,-440,0,0,0,0,0,0,0,0,0,-1,1469,1464,0,0
252,-440,0,0,0,0,0,0,0,0,0,-1,1476,1464,0,0
259,-440,0,0,0,0,0,0,0,0,0,-1,1483,1464,0,0
266,-440,0,0,0,0,0,0,0,0,0,-1,1490,1464,0,0
273,-440,0,0,0,0,0,0,0,0,0,-1,1497,1464,0,0
280,-440,0,0,0,0,0,0,0,0,0,-1,1504,1464,0,0
287,-440,0,0,0,0,0,0,0,0,0,-1,1511,1464,0,0
294,-440,0,0,0,0,0,0,0,0,0,-1,1518,1464,0,0
301,-440,0,0,0,0,0,0,0,0,0,-1,1525,1464,0,0
308,-440,0,0,0,0,0,0,0,0,0,-1,1532,1464,0,0
315,-440,0,0,0,0,0,0,0,0,0,-1,1539,1464,0,0
322,-440,0,0,0,0,0,0,0,0,0,-1,1546,1464,0,0
329,-440,0,0,0,0,0,0,0,0,0,-1,1553,1464,0,0
336,-440,0,0,0,0,0,0,0,0,0,-1,1560,1464,0,0
343,-440,0,0,0,0,0,0,0,0,0,-1,1567,1464,0,0
350,-440,0,0,0,0,0,0,0,0,0,-1,1574,1464,0,0
357,-440,0,0,0,0,0,0,0,0,0,-1,1581,1464,0,0
364,-440,0,0,0,0,0,0,0,0,0,-1,1588,1464,0,0
371,-440,0,0,0,0,0,0,0,0,0,-1,1595,1464,0,0
378,-440,0,0,0,0,0,0,0,0,0,-1,1602,1464,0,0
385,-440,0,0,0,0,0,0,0,0,0,-1,1609,1464,0,0
392,-440,0,0,0,0,0,0,0,0,0,-1,1616,1464,0,0
399,-440,0,0,0,0,0,0,0,0,0,-1,1623,1464,0,0
406,-440,0,0,0,0,0,0,0,0,0,-1,1630,1464,0,0
413,-440,0,0,0,0,0,0,0,0,0,-1,1637,1464,0,0
420,-440,0,0,0,0,0,0,0,0,0,-1,1644,1464,0,0
427,-440,0,0,0,0,0,0,0,0,0,-1,1651,1464,0,0
434,-440,0,0,0,0,0,0,0,0,0,-1,1658,1464,0,0
441,-440,0,0,0,0,0,0,0,0,0,-1,1665,1464,0,0
448,-440,0,0,0,0,0,0,0,0,0,-1,1672,1464,0,0
455,-440,0,0,0,0,0,0,0,0,0,-1,1679,1464,0,0
462,-440,0,0,0,0,0,0,0,0,0,-1,1686,1464,0,0
469,-440,0,0,0,0,0,0,0,0,0,-1,1693,1464,0,0
476,-440,0,0,0,0,0,0,0,0,0,-1,1700,1464,0,0
483,-440,0,0,0,0,0,0,0,0,0,-1,1707,1464,0,0
490,-440,0,0,0,0,0,0,0,0,0,-1,1714,1464,0,0
497,-440,16.965,-0.528442,0,0,0,0,0,0,0,-1,1721,1464,16.965,0.528492
504,-440,15.8052,0.670166,0,0,0,0,0,0,0,-1,1728,1464,15.8052,-0.670145
511,-440,17.5754,2.77832,0,0,0,0,0,0,0,-1,1735,1464,17.5754,-2.77826
518,-440,16.9017,3.07861,0,0,0,0,0,0,0,-1,1742,1464,16.9018,-3.07859
525,-440,18.4495,12.0867,0,0,0,0,0,0,0,-1,1749,1464,18.4495,-12.0867
532,-440,15.4319,3.64392,0,0,0,0,0,0,0,-1,1756,1464,15.4318,-3.64391
539,-440,14.8214,3.41321,0,0,0,0,0,0,0,-1,1763,1464,14.8214,-3.4132
546,-440,14.8651,10.7683,0,0,0,0,0,0,0,-1,1770,1464,14.8651,-10.7683
553,-440,15.1213,11.4121,0,0,0,0,0,0,0,-1,1777,1464,15.1213,-11.4121
560,-440,17.4325,12.5394,0,0,0,0,0,0,0,-1,1784,1464,17.4325,-12.5394
567,-440,16.9025,12.4249,0,0,0,0,0,0,0,-1,1791,1464,16.9025,-12.425
574,-440,19.2841,14.8679,0,0,0,0,0,0,0,-1,1798,1464,19.2841,-14.868
581,-440,19.9814,15.5375,0,0,0,0,0,0,0,-1,1805,1464,19.9815,-15.5374
588,-440,20.1139,15.0096,0.0013842,0.00199196,-0.00107951,0.00280954,0.000566619,-0.922598,0.00171563,0.0460999,1812,1464,20.1139,-15.0097
595,-440,20.104,14.5471,0.00143238,0.00205773,-0.00137135,0.0031516,0.00033851,-0.897484,0.00199781,0.0219103,1819,1464,20.104,-14.5471
602,-440,20.1393,14.0582,0.00147755,0.0017513,-0.00125774,0.00287959,0.000349263,-0.839599,0.00181454,0.0195544,1826,1464,20.1393,-14.0582
609,-440,20.1479,13.6523,0.00148376,0.00139844,-0.0010367,0.00247867,0.000403527,-0.764833,0.00153572,0.0162657,1833,1464,20.1479,-13.6523
616,-440,20.1395,13.276,0.0014445,0.000890396,-0.000794825,0.00200917,0.00032572,-0.617699,0.00124516,0.0165498,1840,1464,20.1395,-13.2759
623,-440,20.1194,12.8397,0.0014538,0.000432862,-0.000565378,0.00170506,0.000181602,-0.418197,0.00108127,0.0138504,1847,1464,20.1194,-12.8397
630,-440,20.1001,12.399,0.00152624,1.79213e-05,-0.000373295,0.00161357,-6.94096e-05,-0.229813,0.00109958,0.0121704,1854,1464,20.1,-12.399
637,-440,20.1046,11.9999,0.00157492,-0.000255244,-0.000195689,0.00159561,-0.000275934,-0.105337,0.00116665,0.0163637,1861,1464,20.1046,-11.9999
644,-440,20.1171,11.613,0.00168142,-0.000412772,-0.000113778,0.00168758,-0.000418935,-0.0541179,0.00128762,0.0149761,1868,1464,20.1171,-11.6131
651,-440,20.13,11.1777,0.00175713,-0.000426482,-0.000101085,0.00176179,-0.000431151,-0.0461609,0.00134154,0.0173135,1875,1464,20.13,-11.1777
658,-440,19.9648,10.8788,0.00187248,-0.000382837,-0.000115067,0.00187834,-0.000388692,-0.0508444,0.00139989,0.0389185,1882,1464,19.9649,-10.8788
665,-440,19.8586,10.3806,0,0,0,0,0,0,0,-1,1889,1464,19.8586,-10.3806
672,-440,18.9385,9.6394,0,0,0,0,0,0,0,-1,1896,1464,18.9384,-9.63939
679,-440,16.9508,10.2336,0,0,0,0,0,0,0,-1,1903,1464,16.9508,-10.2337
686,-440,15.2556,8.44177,0,0,0,0,0,0,0,-1,1910,1464,15.2556,-8.44177
693,-440,9.88635,2.89795,0,0,0,0,0,0,0,-1,1917,1464,9.88638,-2.89798
700,-440,7.07825,-2.62061,0,0,0,0,0,0,0,-1,1924,1464,7.07829,2.62057
707,-440,0,0,0,0,0,0,0,0,0,-1,1931,1464,0,0
714,-440,0,0,0,0,0,0,0,0,0,-1,1938,1464,0,0
721,-440,0,0,0,0,0,0,0,0,0,-1,1945,1464,0,0
728,-440,0,0,0,0,0,0,0,0,0,-1,1952,1464,0,0
735,-440,0,0,0,0,0,0,0,0,0,-1,1959,1464,0,0
742,-440,0,0,0,0,0,0,0,0,0,-1,1966,1464,0,0
749,-440,0,0,0,0,0,0,0,0,0,-1,1973,1464,0,0
756,-440,0,0,0,0,0,0,0,0,0,-1,1980,1464,0,0
763,-440,0,0,0,0,0,0,0,0,0,-1,1987,1464,0,0
770,-440,0,0,0,0,0,0,0,0,0,-1,1994,1464,0,0
777,-440,0,0,0,0,0,0,0,0,0,-1,2001,1464,0,0
784,-440,0,0,0,0,0,0,0,0,0,-1,2008,1464,0,0
791,-440,0,0,0,0,0,0,0,0,0,-1,2015,1464,0,0
798,-440,0,0,0,0,0,0,0,0,0,-1,2022,1464,0,0
805,-440,0,0,0,0,0,0,0,0,0,-1,2029,1464,0,0
812,-440,0,0,0,0,0,0,0,0,0,-1,2036,1464,0,0
-700,-447,0,0,0,0,0,0,0,0,0,-1,524,1471,0,0
-693,-447,0,0,0,0,0,0,0,0,0,-1,531,1471,0,0
-686,-447,0,0,0,0,0,0,0,0,0,-1,538,1471,0,0
-679,-447,0,0,0,0,0,0,0,0,0,-1,545,1471,0,0
-672,-447,0,0,0,0,0,0,0,0,0,-1,552,1471,0,0
-665,-447,0,0,0,0,0,0,0,0,0,-1,559,1471,0,0
-658,-447,0,0,0,0,0,0,0,0,0,-1,566,1471,0,0
-651,-447,0,0,0,0,0,0,0,0,0,-1,573,1471,0,0
-644,-447,0,0,0,0,0,0,0,0,0,-1,580,1471,0,0
-637,-447,0,0,0,0,0,0,0,0,0,-1,587,1471,0,0
-630,-447,0,0,0,0,0,0,0,0,0,-1,594,1471,0,0
-623,-447,0,0,0,0,0,0,0,0,0,-1,601,1471,0,0
-616,-447,0,0,0,0,0,0,0,0,0,-1,608,1471,0,0
-609,-447,0,0,0,0,0,0,0,0,0,-1,615,1471,0,0
-602,-447,0,0,0,0,0,0,0,0,0,-1,622,1471,0,0
-595,-447,0,0,0,0,0,0,0,0,0,-1,629,1471,0,0
-588,-447,0,0,0,0,0,0,0,0,0,-1,636,1471,0,0
-581,-447,-7.06482,-1.50476,0,0,0,0,0,0,0,-1,643,1471,-7.0648,1.50474
-574,-447,-6.88092,-0.00585938,0,0,0,0,0,0,0,-1,650,1471,-6.88095,0.00589852
-567,-447,-6.8205,-1.32178,0,0,0,0,0,0,0,-1,657,1471,-6.82047,1.32172
-560,-447,-8.85748,2.80774,0,0,0,0,0,0,0,-1,664,1471,-8.85748,-2.80775
-553,-447,-7.60486,3.26794,0,0,0,0,0,0,0,-1,671,1471,-7.60487,-3.26799
-546,-447,-3.94501,1.8656,0,0,0,0,0,0,0,-1,678,1471,-3.945,-1.86554
-539,-447,-5.35492,4.50024,0,0,0,0,0,0,0,-1,685,1471,-5.35492,-4.50018
-532,-447,-5.99408,8.49463,0,0,0,0,0,0,0,-1,692,1471,-5.99408,-8.49462
-525,-447,-6.31024,9.07214,0,0,0,0,0,0,0,-1,699,1471,-6.31024,-9.07219
-518,-447,-6.65247,9.17981,0,0,0,0,0,0,0,-1,706,1471,-6.65244,-9.17976
-511,-447,-6.60358,9.74573,0.0139374,0.0127562,0.0144755,0.0278344,-0.00114075,0.76501,0.018948,0.0180601,713,1471,-6.60356,-9.74576
-504,-447,-6.58685,10.2762,0.0104505,0.00892805,0.0103611,0.0200783,-0.000699749,0.74873,0.0136248,0.0189252,720,1471,-6.58683,-10.2762
-497,-447,-6.57788,10.7323,0.00784017,0.00619073,0.00732226,0.014384,-0.000353108,0.729318,0.00970918,0.0242536,727,1471,-6.57787,-10.7323
-490,-447,-6.51941,11.1119,0.00593251,0.0043864,0.0051718,0.0103887,-6.97998e-05,0.71121,0.00694919,0.0245261,734,1471,-6.51943,-11.1119
-483,-447,-6.63965,11.537,0.00484856,0.00334489,0.00384729,0.00801679,0.000176668,0.688905,0.00528662,0.0221895,741,1471,-6.63964,-11.537
-476,-447,-6.65363,11.9943,0.00423943,0.00291873,0.00312975,0.00677774,0.00038042,0.681427,0.00439717,0.0139048,748,1471,-6.65362,-11.9943
-469,-447,-6.66174,12.4625,0.00425255,0.00295013,0.00306282,0.00673262,0.000470061,0.680649,0.00434022,0.0131147,755,1471,-6.66172,-12.4625
-462,-447,-6.68243,12.9286,0.00518489,0.00384327,0.00389506,0.00846648,0.000561678,0.700124,0.00546672,0.0134399,762,1471,-6.68246,-12.9286
-455,-447,-6.69196,13.401,0.00634327,0.00481051,0.00486564,0.0105025,0.00065127,0.707286,0.006795,0.017601,769,1471,-6.69198,-13.401
-448,-447,-6.51294,13.9695,0.00839057,0.00607745,0.00648441,0.0138208,0.000647269,0.697146,0.00900584,0.03692,776,1471,-6.51296,-13.9694
-441,-447,-6.64832,14.4283,0.0106953,0.00704221,0.00799311,0.0170679,0.000669614,0.673069,0.0111621,0.0482016,783,1471,-6.64829,-14.4283
-434,-447,-7.03412,15.0646,0,0,0,0,0,0,0,-1,790,1471,-7.0341,-15.0646
-427,-447,-7.68536,13.0878,0,0,0,0,0,0,0,-1,797,1471,-7.68538,-13.0877
-420,-447,-8.34583,12.5817,0,0,0,0,0,0,0,-1,804,1471,-8.3458,-12.5816
-413,-447,-4.27393,6.59705,0,0,0,0,0,0,0,-1,811,1471,-4.27392,-6.59707
-406,-447,-1.04279,6.18591,0,0,0,0,0,0,0,-1,818,1471,-1.04276,-6.18586
-399,-447,0.0134888,0.687622,0,0,0,0,0,0,0,-1,825,1471,0.0134841,-0.68767
-392,-447,-14.0646,3.76147,0,0,0,0,0,0,0,-1,832,1471,-14.0646,-3.7615
-385,-447,-15.1695,2.61865,0,0,0,0,0,0,0,-1,839,1471,-15.1695,-2.61871
-378,-447,-15.9424,1.49316,0,0,0,0,0,0,0,-1,846,1471,-15.9424,-1.49313
-371,-447,-17.3655,0.73291,0,0,0,0,0,0,0,-1,853,1471,-17.3655,-0.732946
-364,-447,0,0,0,0,0,0,0,0,0,-1,860,1471,0,0
-357,-447,0,0,0,0,0,0,0,0,0,-1,867,1471,0,0
-350,-447,0,0,0,0,0,0,0,0,0,-1,874,1471,0,0
-343,-447,0,0,0,0,0,0,0,0,0,-1,881,1471,0,0
-336,-447,0,0,0,0,0,0,0,0,0,-1,888,1471,0,0
-329,-447,0,0,0,0,0,0,0,0,0,-1,895,1471,0,0
-322,-447,0,0,0,0,0,0,0,0,0,-1,902,1471,0,0
-315,-447,0,0,0,0,0,0,0,0,0,-1,909,1471,0,0
-308,-447,0,0,0,0,0,0,0,0,0,-1,916,1471,0,0
-301,-447,0,0,0,0,0,0,0,0,0,-1,923,1471,0,0
-294,-447,0,0,0,0,0,0,0,0,0,-1,930,1471,0,0
-287,-447,0,0,0,0,0,0,0,0,0,-1,937,1471,0,0
-280,-447,0,0,0,0,0,0,0,0,0,-1,944,1471,0,0
-273,-447,0,0,0,0,0,0,0,0,0,-1,951,1471,0,0
-266,-447,0,0,0,0,0,0,0,0,0,-1,958,1471,0,0
-259,-447,0,0,0,0,0,0,0,0,0,-1,965,1471,0,0
-252,-447,0,0,0,0,0,0,0,0,0,-1,972,1471,0,0
-245,-447,0,0,0,0,0,0,0,0,0,-1,979,1471,0,0
-238,-447,0,0,0,0,0,0,0,0,0,-1,986,1471,0,0
-231,-447,0,0,0,0,0,0,0,0,0,-1,993,1471,0,0
-224,-447,0,0,0,0,0,0,0,0,0,-1,1000,1471,0,0
-217,-447,0,0,0,0,0,0,0,0,0,-1,1007,1471,0,0
-210,-447,0,0,0,0,0,0,0,0,0,-1,1014,1471,0,0
-203,-447,0,0,0,0,0,0,0,0,0,-1,1021,1471,0,0
-196,-447,0,0,0,0,0,0,0,0,0,-1,1028,1471,0,0
-189,-447,0,0,0,0,0,0,0,0,0,-1,1035,1471,0,0
-182,-447,0,0,0,0,0,0,0,0,0,-1,1042,1471,0,0
-175,-447,0,0,0,0,0,0,0,0,0,-1,1049,1471,0,0
-168,-447,0,0,0,0,0,0,0,0,0,-1,1056,1471,0,0
-161,-447,0,0,0,0,0,0,0,0,0,-1,1063,1471,0,0
-154,-447,0,0,0,0,0,0,0,0,0,-1,1070,1471,0,0
-147,-447,0,0,0,0,0,0,0,0,0,-1,1077,1471,0,0
-140,-447,0,0,0,0,0,0,0,0,0,-1,1084,1471,0,0
-133,-447,0,0,0,0,0,0,0,0,0,-1,1091,1471,0,0
-126,-447,0,0,0,0,0,0,0,0,0,-1,1098,1471,0,0
-119,-447,0,0,0,0,0,0,0,0,0,-1,1105,1471,0,0
-112,-447,0,0,0,0,0,0,0,0,0,-1,1112,1471,0,0
-105,-447,0,0,0,0,0,0,0,0,0,-1,1119,1471,0,0
-98,-447,0,0,0,0,0,0,0,0,0,-1,1126,1471,0,0
-91,-447,0,0,0,0,0,0,0,0,0,-1,1133,1471,0,0
-84,-447,0,0,0,0,0,0,0,0,0,-1,1140,1471,0,0
-77,-447,0,0,0,0,0,0,0,0,0,-1,1147,1471,0,0
-70,-447,0,0,0,0,0,0,0,0,0,-1,1154,1471,0,0
-63,-447,0,0,0,0,0,0,0,0,0,-1,1161,1471,0,0
-56,-447,0,0,0,0,0,0,0,0,0,-1,1168,1471,0,0
-49,-447,0,0,0,0,0,0,0,0,0,-1,1175,1471,0,0
-42,-447,0,0,0,0,0,0,0,0,0,-1,1182,1471,0,0
-35,-447,0,0,0,0,0,0,0,0,0,-1,1189,1471,0,0
-28,-447,0,0,0,0,0,0,0,0,0,-1,1196,1471,0,0
-21,-447,0,0,0,0,0,0,0,0,0,-1,1203,1471,0,0
-14,-447,0,0,0,0,0,0,0,0,0,-1,1210,1471,0,0
-7,-447,0,0,0,0,0,0,0,0,0,-1,1217,1471,0,0
0,-447,0,0,0,0,0,0,0,0,0,-1,1224,1471,0,0
7,-447,0,0,0,0,0,0,0,0,0,-1,1231,1471,0,0
14,-447,0,0,0,0,0,0,0,0,0,-1,1238,1471,0,0
21,-447,0,0,0,0,0,0,0,0,0,-1,1245,1471,0,0
28,-447,0,0,0,0,0,0,0,0,0,-1,1252,1471,0,0
35,-447,0,0,0,0,0,0,0,0,0,-1,1259,1471,0,0
42,-447,0,0,0,0,0,0,0,0,0,-1,1266,1471,0,0
49,-447,0,0,0,0,0,0,0,0,0,-1,1273,1471,0,0
56,-447,0,0,0,0,0,0,0,0,0,-1,1280,1471,0,0
63,-447,0,0,0,0,0,0,0,0,0,-1,1287,1471,0,0
70,-447,0,0,0,0,0,0,0,0,0,-1,1294,1471,0,0
77,-447,0,0,0,0,0,0,0,0,0,-1,1301,1471,0,0
84,-447,0,0,0,0,0,0,0,0,0,-1,1308,1471,0,0
91,-447,0,0,0,0,0,0,0,0,0,-1,1315,1471,0,0
98,-447,0,0,0,0,0,0,0,0,0,-1,1322,1471,0,0
105,-447,0,0,0,0,0,0,0,0,0,-1,1329,1471,0,0
112,-447,0,0,0,0,0,0,0,0,0,-1,1336,1471,0,0
119,-447,0,0,0,0,0,0,0,0,0,-1,1343,1471,0,0
126,-447,0,0,0,0,0,0,0,0,0,-1,1350,1471,0,0
133,-447,0,0,0,0,0,0,0,0,0,-1,1357,1471,0,0
140,-447,0,0,0,0,0,0,0,0,0,-1,1364,1471,0,0
147,-447,0,0,0,0,0,0,0,0,0,-1,1371,1471,0,0
154,-447,0,0,0,0,0,0,0,0,0,-1,1378,1471,0,0
161,-447,0,0,0,0,0,0,0,0,0,-1,1385,1471,0,0
168,-447,0,0,0,0,0,0,0,0,0,-1,1392,1471,0,0
175,-447,0,0,0,0,0,0,0,0,0,-1,1399,1471,0,0
182,-447,0,0,0,0,0,0,0,0,0,-1,1406,1471,0,0
189,-447,0,0,0,0,0,0,0,0,0,-1,1413,1471,0,0
196,-447,0,0,0,0,0,0,0,0,0,-1,1420,1471,0,0
203,-447,0,0,0,0,0,0,0,0,0,-1,1427,1471,0,0
210,-447,0,0,0,0,0,0,0,0,0,-1,1434,1471,0,0
217,-447,0,0,0,0,0,0,0,0,0,-1,1441,1471,0,0
224,-447,0,0,0,0,0,0,0,0,0,-1,1448,1471,0,0
231,-447,0,0,0,0,0,0,0,0,0,-1,1455,1471,0,0
238,-447,0,0,0,0,0,0,0,0,0,-1,1462,1471,0,0
245,-447,0,0,0,0,0,0,0,0,0,-1,1469,1471,0,0
252,-447,0,0,0,0,0,0,0,0,0,-1,1476,1471,0,0
259,-447,0,0,0,0,0,0,0,0,0,-1,1483,1471,0,0
266,-447,0,0,0,0,0,0,0,0,0,-1,1490,1471,0,0
273,-447,0,0,0,0,0,0,0,0,0,-1,1497,1471,0,0
280,-447,0,0,0,0,0,0,0,0,0,-1,1504,1471,0,0
287,-447,0,0,0,0,0,0,0,0,0,-1,1511,1471,0,0
294,-447,0,0,0,0,0,0,0,0,0,-1,1518,1471,0,0
301,-447,0,0,0,0,0,0,0,0,0,-1,1525,1471,0,0
308,-447,0,0,0,0,0,0,0,0,0,-1,1532,1471,0,0
315,-447,0,0,0,0,0,0,0,0,0,-1,1539,1471,0,0
322,-447,0,0,0,0,0,0,0,0,0,-1,1546,1471,0,0
329,-447,0,0,0,0,0,0,0,0,0,-1,1553,1471,0,0
336,-447,0,0,0,0,0,0,0,0,0,-1,1560,1471,0,0
343,-447,0,0,0,0,0,0,0,0,0,-1,1567,1471,0,0
350,-447,0,0,0,0,0,0,0,0,0,-1,1574,1471,0,0
357,-447,0,0,0,0,0,0,0,0,0,-1,1581,1471,0,0
364,-447,0,0,0,0,0,0,0,0,0,-1,1588,1471,0,0
371,-447,0,0,0,0,0,0,0,0,0,-1,1595,1471,0,0
378,-447,0,0,0,0,0,0,0,0,0,-1,1602,1471,0,0
385,-447,0,0,0,0,0,0,0,0,0,-1,1609,1471,0,0
392,-447,0,0,0,0,0,0,0,0,0,-1,1616,1471,0,0
399,-447,0,0,0,0,0,0,0,0,0,-1,1623,1471,0,0
406,-447,0,0,0,0,0,0,0,0,0,-1,1630,1471,0,0
413,-447,0,0,0,0,0,0,0,0,0,-1,1637,1471,0,0
420,-447,0,0,0,0,0,0,0,0,0,-1,1644,1471,0,0
427,-447,0,0,0,0,0,0,0,0,0,-1,1651,1471,0,0
434,-447,0,0,0,0,0,0,0,0,0,-1,1658,1471,0,0
441,-447,0,0,0,0,0,0,0,0,0,-1,1665,1471,0,0
448,-447,0,0,0,0,0,0,0,0,0,-1,1672,1471,0,0
455,-447,0,0,0,0,0,0,0,0,0,-1,1679,1471,0,0
462,-447,0,0,0,0,0,0,0,0,0,-1,1686,1471,0,0
469,-447,0,0,0,0,0,0,0,0,0,-1,1693,1471,0,0
476,-447,0,0,0,0,0,0,0,0,0,-1,1700,1471,0,0
483,-447,0,0,0,0,0,0,0,0,0,-1,1707,1471,0,0
490,-447,18.2214,-0.810303,0,0,0,0,0,0,0,-1,1714,1471,18.2215,0.810307
497,-447,17.0237,0.352417,0,0,0,0,0,0,0,-1,1721,1471,17.0237,-0.352442
504,-447,15.8998,1.53479,0,0,0,0,0,0,0,-1,1728,1471,15.8997,-1.53478
511,-447,14.7201,2.76111,0,0,0,0,0,0,0,-1,1735,1471,14.7201,-2.76107
518,-447,17.7618,13.2864,0,0,0,0,0,0,0,-1,1742,1471,17.7619,-13.2863
525,-447,17.1191,11.9014,0,0,0,0,0,0,0,-1,1749,1471,17.1191,-11.9013
532,-447,16.3959,10.0455,0,0,0,0,0,0,0,-1,1756,1471,16.3959,-10.0456
539,-447,14.1699,10.0204,0,0,0,0,0,0,0,-1,1763,1471,14.1699,-10.0204
546,-447,16.3715,11.8046,0,0,0,0,0,0,0,-1,1770,1471,16.3714,-11.8046
553,-447,17.5106,13.4012,0,0,0,0,0,0,0,-1,1777,1471,17.5107,-13.4012
560,-447,17.0187,13.168,0,0,0,0,0,0,0,-1,1784,1471,17.0187,-13.168
567,-447,18.9286,15.1703,0,0,0,0,0,0,0,-1,1791,1471,18.9286,-15.1703
574,-447,19.4043,16.0144,0,0,0,0,0,0,0,-1,1798,1471,19.4043,-16.0143
581,-447,19.6685,15.5081,0.00105223,0.00113965,-0.000173748,0.0012751,0.000916776,-0.908635,0.00075935,0.0316514,1805,1471,19.6684,-15.5081
588,-447,19.7469,14.9435,0.00120671,0.00139374,-0.000643615,0.0019506,0.000649852,-0.857541,0.00114689,0.0185269,1812,1471,19.747,-14.9435
595,-447,19.7446,14.4988,0.00138148,0.00153847,-0.00104922,0.00251213,0.000407826,-0.822734,0.00155672,0.0127037,1819,1471,19.7447,-14.4988
602,-447,19.7285,14.0593,0.0014638,0.00134168,-0.00104853,0.00245305,0.000352435,-0.756315,0.00153147,0.0117589,1826,1471,19.7285,-14.0593
609,-447,19.7314,13.6594,0.00147857,0.00105224,-0.00089234,0.00218286,0.000347961,-0.668154,0.00135423,0.0126393,1833,1471,19.7314,-13.6594
616,-447,19.7275,13.2692,0.00148009,0.000615395,-0.000715414,0.00188365,0.000211835,-0.513599,0.00119145,0.0139666,1840,1471,19.7276,-13.2692
623,-447,19.7131,12.8602,0.00153379,0.000195573,-0.000522416,0.00171358,1.57856e-05,-0.33145,0.00113716,0.0169099,1847,1471,19.7132,-12.8602
630,-447,19.698,12.4354,0.00165188,-0.000194768,-0.0003465,0.00171475,-0.000257644,-0.179506,0.00123802,0.01037,1854,1471,19.698,-12.4355
637,-447,19.7075,12.0184,0.00176572,-0.000434393,-0.000196573,0.00178314,-0.000451818,-0.0884136,0.00136453,0.0102828,1861,1471,19.7075,-12.0184
644,-447,19.7251,11.6066,0.00193403,-0.000544307,-0.000149267,0.00194299,-0.000553265,-0.05994,0.00151383,0.0108523,1868,1471,19.725,-11.6065
651,-447,19.7643,11.1764,0.00206196,-0.00053313,-0.000155287,0.00207122,-0.00054239,-0.0595556,0.0015927,0.0427434,1875,1471,19.7643,-11.1763
658,-447,19.917,10.6691,0,0,0,0,0,0,0,-1,1882,1471,19.917,-10.6691
665,-447,18.4946,9.79919,0,0,0,0,0,0,0,-1,1889,1471,18.4946,-9.79922
672,-447,18.9784,9.66077,0,0,0,0,0,0,0,-1,1896,1471,18.9784,-9.66081
679,-447,14.844,7.4248,0,0,0,0,0,0,0,-1,1903,1471,14.844,-7.42477
686,-447,9.81079,4.30859,0,0,0,0,0,0,0,-1,1910,1471,9.8108,-4.30864
693,-447,10.48,2.08643,0,0,0,0,0,0,0,-1,1917,1471,10.48,-2.08642
700,-447,0,0,0,0,0,0,0,0,0,-1,1924,1471,0,0
707,-447,0,0,0,0,0,0,0,0,0,-1,1931,1471,0,0
714,-447,0,0,0,0,0,0,0,0,0,-1,1938,1471,0,0
721,-447,0,0,0,0,0,0,0,0,0,-1,1945,1471,0,0
728,-447,0,0,0,0,0,0,0,0,0,-1,1952,1471,0,0
735,-447,0,0,0,0,0,0,0,0,0,-1,1959,1471,0,0
742,-447,0,0,0,0,0,0,0,0,0,-1,1966,1471,0,0
749,-447,0,0,0,0,0,0,0,0,0,-1,1973,1471,0,0
756,-447,0,0,0,0,0,0,0,0,0,-1,1980,1471,0,0
763,-447,0,0,0,0,0,0,0,0,0,-1,1987,1471,0,0
770,-447,0,0,0,0,0,0,0,0,0,-1,1994,1471,0,0
777,-447,0,0,0,0,0,0,0,0,0,-1,2001,1471,0,0
784,-447,0,0,0,0,0,0,0,0,0,-1,2008,1471,0,0
791,-447,0,0,0,0,0,0,0,0,0,-1,2015,1471,0,0
798,-447,0,0,0,0,0,0,0,0,0,-1,2022,1471,0,0
805,-447,0,0,0,0,0,0,0,0,0,-1,2029,1471,0,0
812,-447,0,0,0,0,0,0,0,0,0,-1,2036,1471,0,0
-700,-454,0,0,0,0,0,0,0,0,0,-1,524,1478,0,0
-693,-454,0,0,0,0,0,0,0,0,0,-1,531,1478,0,0
-686,-454,0,0,0,0,0,0,0,0,0,-1,538,1478,0,0
-679,-454,0,0,0,0,0,0,0,0,0,-1,545,1478,0,0
-672,-454,0,0,0,0,0,0,0,0,0,-1,552,1478,0,0
-665,-454,0,0,0,0,0,0,0,0,0,-1,559,1478,0,0
-658,-454,0,0,0,0,0,0,0,0,0,-1,566,1478,0,0
-651,-454,0,0,0,0,0,0,0,0,0,-1,573,1478,0,0
-644,-454,0,0,0,0,0,0,0,0,0,-1,580,1478,0,0
-637,-454,0,0,0,0,0,0,0,0,0,-1,587,1478,0,0
-630,-454,0,0,0,0,0,0,0,0,0,-1,594,1478,0,0
-623,-454,0,0,0,0,0,0,0,0,0,-1,601,1478,0,0
-616,-454,0,0,0,0,0,0,0,0,0,-1,608,1478,0,0
-609,-454,0,0,0,0,0,0,0,0,0,-1,615,1478,0,0
-602,-454,0,0,0,0,0,0,0,0,0,-1,622,1478,0,0
-595,-454,0,0,0,0,0,0,0,0,0,-1,629,1478,0,0
-588,-454,0,0,0,0,0,0,0,0,0,-1,636,1478,0,0
-581,-454,0,0,0,0,0,0,0,0,0,-1,643,1478,0,0
-574,-454,-8.4881,-0.465942,0,0,0,0,0,0,0,-1,650,1478,-8.4881,0.465885
-567,-454,-8.10046,0.922974,0,0,0,0,0,0,0,-1,657,1478,-8.10047,-0.923034
-560,-454,-10.656,3.51172,0,0,0,0,0,0,0,-1,664,1478,-10.656,-3.51176
-553,-454,-9.01129,3.95251,0,0,0,0,0,0,0,-1,671,1478,-9.0113,-3.95256
-546,-454,-9.61896,6.05237,0,0,0,0,0,0,0,-1,678,1478,-9.61897,-6.05239
-539,-454,-7.72589,4.96533,0,0,0,0,0,0,0,-1,685,1478,-7.72592,-4.96532
-532,-454,-7.03931,7.59985,0,0,0,0,0,0,0,-1,692,1478,-7.03929,-7.59981
-525,-454,-6.41846,8.57764,0.0324401,0.0311039,0.0349047,0.0666831,-0.00313909,0.775829,0.0455378,0.0496194,699,1478,-6.41845,-8.57758
-518,-454,-5.97235,9.60339,0.0249553,0.0224004,0.0257004,0.0494099,-0.00205431,0.760566,0.0336456,0.04997,706,1478,-5.97232,-9.60345
-511,-454,-6.20844,9.7157,0.0187177,0.0156988,0.0184915,0.0357613,-0.00134478,0.744673,0.0243015,0.0334819,713,1478,-6.20843,-9.71569
-504,-454,-6.1463,10.2457,0.0137237,0.0106576,0.0129577,0.0252387,-0.000857503,0.726517,0.0171188,0.0161125,720,1478,-6.14631,-10.2458
-497,-454,-6.13092,10.7308,0.010032,0.00709763,0.00892971,0.0176143,-0.000484603,0.703973,0.0119077,0.0194783,727,1478,-6.13092,-10.7309
-490,-454,-6.16241,11.1964,0.007333,0.00472622,0.00609266,0.0122601,-0.000200912,0.680023,0.00824121,0.0186443,734,1478,-6.16241,-11.1964
-483,-454,-6.19049,11.6169,0.00564386,0.00331529,0.00429207,0.00892676,3.23895e-05,0.652953,0.00594041,0.0166707,741,1478,-6.19051,-11.617
-476,-454,-6.22198,12.0177,0.0045745,0.0026367,0.00324264,0.0069899,0.0002213,0.640221,0.00458794,0.0136483,748,1478,-6.22197,-12.0177
-469,-454,-6.21704,12.479,0.00405498,0.00230933,0.00275665,0.00607369,0.000290621,0.632079,0.00395581,0.0101012,755,1478,-6.21705,-12.4791
-462,-454,-6.23102,12.9532,0.00444907,0.00288079,0.00318029,0.00694047,0.00038939,0.664528,0.0045028,0.0101644,762,1478,-6.23105,-12.9533
-455,-454,-6.2561,13.4059,0.00537522,0.00373376,0.004038,0.00867505,0.000433932,0.685138,0.00564428,0.0108612,769,1478,-6.25609,-13.4058
-448,-454,-6.23987,13.8606,0.0070344,0.00487757,0.00545719,0.0115187,0.000393256,0.687848,0.00755147,0.0160558,776,1478,-6.23984,-13.8606
-441,-454,-5.99194,14.495,0.00896013,0.00579982,0.00686107,0.0144206,0.0003393,0.672218,0.00950269,0.0355533,783,1478,-5.99193,-14.495
-434,-454,-6.11676,14.9001,0,0,0,0,0,0,0,-1,790,1478,-6.11677,-14.9002
-427,-454,-6.15985,15.3197,0,0,0,0,0,0,0,-1,797,1478,-6.15983,-15.3197
-420,-454,-5.80237,14.1311,0,0,0,0,0,0,0,-1,804,1478,-5.80239,-14.1311
-413,-454,-5.4408,13.674,0,0,0,0,0,0,0,-1,811,1478,-5.44079,-13.6739
-406,-454,-2.38208,10.0308,0,0,0,0,0,0,0,-1,818,1478,-2.38209,-10.0308
-399,-454,-1.21033,6.95447,0,0,0,0,0,0,0,-1,825,1478,-1.21035,-6.95452
-392,-454,0.0967407,0.985474,0,0,0,0,0,0,0,-1,832,1478,0.0967364,-0.985529
-385,-454,2.38629,3.297,0,0,0,0,0,0,0,-1,839,1478,2.38629,-3.29702
-378,-454,-15.9756,2.83997,0,0,0,0,0,0,0,-1,846,1478,-15.9756,-2.83994
-371,-454,-17.2753,2.01453,0,0,0,0,0,0,0,-1,853,1478,-17.2753,-2.01455
-364,-454,1.08124,0.819458,0,0,0,0,0,0,0,-1,860,1478,1.08124,-0.819513
-357,-454,0,0,0,0,0,0,0,0,0,-1,867,1478,0,0
-350,-454,0,0,0,0,0,0,0,0,0,-1,874,1478,0,0
-343,-454,0,0,0,0,0,0,0,0,0,-1,881,1478,0,0
-336,-454,0,0,0,0,0,0,0,0,0,-1,888,1478,0,0
-329,-454,0,0,0,0,0,0,0,0,0,-1,895,1478,0,0
-322,-454,0,0,0,0,0,0,0,0,0,-1,902,1478,0,0
-315,-454,0,0,0,0,0,0,0,0,0,-1,909,1478,0,0
-308,-454,0,0,0,0,0,0,0,0,0,-1,916,1478,0,0
-301,-454,0,0,0,0,0,0,0,0,0,-1,923,1478,0,0
-294,-454,0,0,0,0,0,0,0,0,0,-1,930,1478,0,0
-287,-454,0,0,0,0,0,0,0,0,0,-1,937,1478,0,0
-280,-454,0,0,0,0,0,0,0,0,0,-1,944,1478,0,0
-273,-454,0,0,0,0,0,0,0,0,0,-1,951,1478,0,0
-266,-454,0,0,0,0,0,0,0,0,0,-1,958,1478,0,0
-259,-454,0,0,0,0,0,0,0,0,0,-1,965,1478,0,0
-252,-454,0,0,0,0,0,0,0,0,0,-1,972,1478,0,0
-245,-454,0,0,0,0,0,0,0,0,0,-1,979,1478,0,0
-238,-454,0,0,0,0,0,0,0,0,0,-1,986,1478,0,0
-231,-454,0,0,0,0,0,0,0,0,0,-1,993,1478,0,0
-224,-454,0,0,0,0,0,0,0,0,0,-1,1000,1478,0,0
-217,-454,0,0,0,0,0,0,0,0,0,-1,1007,1478,0,0
-210,-454,0,0,0,0,0,0,0,0,0,-1,1014,1478,0,0
-203,-454,0,0,0,0,0,0,0,0,0,-1,1021,1478,0,0
-196,-454,0,0,0,0,0,0,0,0,0,-1,1028,1478,0,0
-189,-454,0,0,0,0,0,0,0,0,0,-1,1035,1478,0,0
-182,-454,0,0,0,0,0,0,0,0,0,-1,1042,1478,0,0
-175,-454,0,0,0,0,0,0,0,0,0,-1,1049,1478,0,0
-168,-454,0,0,0,0,0,0,0,0,0,-1,1056,1478,0,0
-161,-454,0,0,0,0,0,0,0,0,0,-1,1063,1478,0,0
-154,-454,0,0,0,0,0,0,0,0,0,-1,1070,1478,0,0
-147,-454,0,0,0,0,0,0,0,0,0,-1,1077,1478,0,0
-140,-454,0,0,0,0,0,0,0,0,0,-1,1084,1478,0,0
-133,-454,0,0,0,0,0,0,0,0,0,-1,1091,1478,0,0
-126,-454,0,0,0,0,0,0,0,0,0,-1,1098,1478,0,0
-119,-454,0,0,0,0,0,0,0,0,0,-1,1105,1478,0,0
-112,-454,0,0,0,0,0,0,0,0,0,-1,1112,1478,0,0
-105,-454,0,0,0,0,0,0,0,0,0,-1,1119,1478,0,0
-98,-454,0,0,0,0,0,0,0,0,0,-1,1126,1478,0,0
-91,-454,0,0,0,0,0,0,0,0,0,-1,1133,1478,0,0
-84,-454,0,0,0,0,0,0,0,0,0,-1,1140,1478,0,0
-77,-454,0,0,0,0,0,0,0,0,0,-1,1147,1478,0,0
-70,-454,0,0,0,0,0,0,0,0,0,-1,1154,1478,0,0
-63,-454,0,0,0,0,0,0,0,0,0,-1,1161,1478,0,0
-56,-454,0,0,0,0,0,0,0,0,0,-1,1168,1478,0,0
-49,-454,0,0,0,0,0,0,0,0,0,-1,1175,1478,0,0
-42,-454,0,0,0,0,0,0,0,0,0,-1,1182,1478,0,0
-35,-454,0,0,0,0,0,0,0,0,0,-1,1189,1478,0,0
-28,-454,0,0,0,0,0,0,0,0,0,-1,1196,1478,0,0
-21,-454,0,0,0,0,0,0,0,0,0,-1,1203,1478,0,0
-14,-454,0,0,0,0,0,0,0,0,0,-1,1210,1478,0,0
-7,-454,0,0,0,0,0,0,0,0,0,-1,1217,1478,0,0
0,-454,0,0,0,0,0,0,0,0,0,-1,1224,1478,0,0
7,-454,0,0,0,0,0,0,0,0,0,-1,1231,1478,0,0
14,-454,0,0,0,0,0,0,0,0,0,-1,1238,1478,0,0
21,-454,0,0,0,0,0,0,0,0,0,-1,1245,1478,0,0
28,-454,0,0,0,0,0,0,0,0,0,-1,1252,1478,0,0
35,-454,0,0,0,0,0,0,0,0,0,-1,1259,1478,0,0
42,-454,0,0,0,0,0,0,0,0,0,-1,1266,1478,0,0
49,-454,0,0,0,0,0,0,0,0,0,-1,1273,1478,0,0
56,-454,0,0,0,0,0,0,0,0,0,-1,1280,1478,0,0
63,-454,0,0,0,0,0,0,0,0,0,-1,1287,1478,0,0
70,-454,0,0,0,0,0,0,0,0,0,-1,1294,1478,0,0
77,-454,0,0,0,0,0,0,0,0,0,-1,1301,1478,0,0
84,-454,0,0,0,0,0,0,0,0,0,-1,1308,1478,0,0
91,-454,0,0,0,0,0,0,0,0,0,-1,1315,1478,0,0
98,-454,0,0,0,0,0,0,0,0,0,-1,1322,1478,0,0
105,-454,0,0,0,0,0,0,0,0,0,-1,1329,1478,0,0
112,-454,0,0,0,0,0,0,0,0,0,-1,1336,1478,0,0
119,-454,0,0,0,0,0,0,0,0,0,-1,1343,1478,0,0
126,-454,0,0,0,0,0,0,0,0,0,-1,1350,1478,0,0
133,-454,0,0,0,0,0,0,0,0,0,-1,1357,1478,0,0
140,-454,0,0,0,0,0,0,0,0,0,-1,1364,1478,0,0
147,-454,0,0,0,0,0,0,0,0,0,-1,1371,1478,0,0
154,-454,0,0,0,0,0,0,0,0,0,-1,1378,1478,0,0
161,-454,0,0,0,0,0,0,0,0,0,-1,1385,1478,0,0
168,-454,0,0,0,0,0,0,0,0,0,-1,1392,1478,0,0
175,-454,0,0,0,0,0,0,0,0,0,-1,1399,1478,0,0
182,-454,0,0,0,0,0,0,0,0,0,-1,1406,1478,0,0
189,-454,0,0,0,0,0,0,0,0,0,-1,1413,1478,0,0
196,-454,0,0,0,0,0,0,0,0,0,-1,1420,1478,0,0
203,-454,0,0,0,0,0,0,0,0,0,-1,1427,1478,0,0
210,-454,0,0,0,0,0,0,0,0,0,-1,1434,1478,0,0
217,-454,0,0,0,0,0,0,0,0,0,-1,1441,1478,0,0
224,-454,0,0,0,0,0,0,0,0,0,-1,1448,1478,0,0
231,-454,0,0,0,0,0,0,0,0,0,-1,1455,1478,0,0
238,-454,0,0,0,0,0,0,0,0,0,-1,1462,1478,0,0
245,-454,0,0,0,0,0,0,0,0,0,-1,1469,1478,0,0
252,-454,0,0,0,0,0,0,0,0,0,-1,1476,1478,0,0
259,-454,0,0,0,0,0,0,0,0,0,-1,1483,1478,0,0
266,-454,0,0,0,0,0,0,0,0,0,-1,1490,1478,0,0
273,-454,0,0,0,0,0,0,0,0,0,-1,1497,1478,0,0
280,-454,0,0,0,0,0,0,0,0,0,-1,1504,1478,0,0
287,-454,0,0,0,0,0,0,0,0,0,-1,1511,1478,0,0
294,-454,0,0,0,0,0,0,0,0,0,-1,1518,1478,0,0
301,-454,0,0,0,0,0,0,0,0,0,-1,1525,1478,0,0
308,-454,0,0,0,0,0,0,0,0,0,-1,1532,1478,0,0
315,-454,0,0,0,0,0,0,0,0,0,-1,1539,1478,0,0
322,-454,0,0,0,0,0,0,0,0,0,-1,1546,1478,0,0
329,-454,0,0,0,0,0,0,0,0,0,-1,1553,1478,0,0
336,-454,0,0,0,0,0,0,0,0,0,-1,1560,1478,0,0
343,-454,0,0,0,0,0,0,0,0,0,-1,1567,1478,0,0
350,-454,0,0,0,0,0,0,0,0,0,-1,1574,1478,0,0
357,-454,0,0,0,0,0,0,0,0,0,-1,1581,1478,0,0
364,-454,0,0,0,0,0,0,0,0,0,-1,1588,1478,0,0
371,-454,0,0,0,0,0,0,0,0,0,-1,1595,1478,0,0
378,-454,0,0,0,0,0,0,0,0,0,-1,1602,1478,0,0
385,-454,0,0,0,0,0,0,0,0,0,-1,1609,1478,0,0
392,-454,0,0,0,0,0,0,0,0,0,-1,1616,1478,0,0
399,-454,0,0,0,0,0,0,0,0,0,-1,1623,1478,0,0
406,-454,0,0,0,0,0,0,0,0,0,-1,1630,1478,0,0
413,-454,0,0,0,0,0,0,0,0,0,-1,1637,1478,0,0
420,-454,0,0,0,0,0,0,0,0,0,-1,1644,1478,0,0
427,-454,0,0,0,0,0,0,0,0,0,-1,1651,1478,0,0
434,-454,0,0,0,0,0,0,0,0,0,-1,1658,1478,0,0
441,-454,0,0,0,0,0,0,0,0,0,-1,1665,1478,0,0
448,-454,0,0,0,0,0,0,0,0,0,-1,1672,1478,0,0
455,-454,0,0,0,0,0,0,0,0,0,-1,1679,1478,0,0
462,-454,0,0,0,0,0,0,0,0,0,-1,1686,1478,0,0
469,-454,0,0,0,0,0,0,0,0,0,-1,1693,1478,0,0
476,-454,0,0,0,0,0,0,0,0,0,-1,1700,1478,0,0
483,-454,14.2399,3.97498,0,0,0,0,0,0,0,-1,1707,1478,14.2399,-3.97502
490,-454,18.1821,-0.175781,0,0,0,0,0,0,0,-1,1714,1478,18.1821,0.175822
497,-454,16.8854,1.01208,0,0,0,0,0,0,0,-1,1721,1478,16.8854,-1.01209
504,-454,15.587,2.05994,0,0,0,0,0,0,0,-1,1728,1478,15.5871,-2.05998
511,-454,17.0273,14.5258,0,0,0,0,0,0,0,-1,1735,1478,17.0273,-14.5258
518,-454,16.4158,13.1039,0,0,0,0,0,0,0,-1,1742,1478,16.4157,-13.1038
525,-454,15.7842,11.6628,0,0,0,0,0,0,0,-1,1749,1478,15.7841,-11.6629
532,-454,15.1094,10.2476,0,0,0,0,0,0,0,-1,1756,1478,15.1094,-10.2475
539,-454,13.7905,10.9373,0,0,0,0,0,0,0,-1,1763,1478,13.7906,-10.9372
546,-454,16.2002,13.2458,0,0,0,0,0,0,0,-1,1770,1478,16.2002,-13.2459
553,-454,15.6747,12.1868,0,0,0,0,0,0,0,-1,1777,1478,15.6747,-12.1868
560,-454,16.3895,14.0527,0,0,0,0,0,0,0,-1,1784,1478,16.3895,-14.0528
567,-454,19.4369,16.3317,0,0,0,0,0,0,0,-1,1791,1478,19.4369,-16.3317
574,-454,19.3453,15.7858,9.31214e-05,-0.000214106,0.00115898,0.00110862,-0.0012296,0.719511,0.00135058,0.0283049,1798,1478,19.3453,-15.7858
581,-454,19.3193,15.3448,0.000597307,0.000562087,0.000286851,0.000867088,0.000292307,0.754741,0.000509392,0.0178481,1805,1478,19.3193,-15.3449
588,-454,19.3489,14.9089,0.000876684,0.000911302,-0.000267377,0.00116193,0.000626056,-0.817721,0.000671514,0.0128814,1812,1478,19.3488,-14.9089
595,-454,19.3317,14.4987,0.00123316,0.00110603,-0.000779526,0.00195171,0.000387479,-0.744715,0.00119314,0.0115543,1819,1478,19.3317,-14.4986
602,-454,19.3152,14.0834,0.00145446,0.000994203,-0.000925285,0.00217781,0.000270859,-0.663515,0.00137054,0.00858062,1826,1478,19.3152,-14.0834
609,-454,19.3201,13.6918,0.00160548,0.000747573,-0.000892884,0.0021671,0.000185949,-0.561471,0.00138691,0.0106021,1833,1478,19.32,-13.6918
616,-454,19.3136,13.2939,0.00177015,0.000351619,-0.000835969,0.0021572,-3.54286e-05,-0.433606,0.00145008,0.0140081,1840,1478,19.3135,-13.2939
623,-454,19.3235,12.8746,0.00198966,-5.61153e-05,-0.000738941,0.00222865,-0.000295104,-0.312803,0.00159327,0.013539,1847,1478,19.3235,-12.8747
630,-454,19.3237,12.4545,0.00226767,-0.000441994,-0.000634558,0.00240891,-0.000583235,-0.219011,0.00183157,0.0129569,1854,1478,19.3237,-12.4545
637,-454,19.2816,12.0487,0.00255328,-0.000672593,-0.000560905,0.00264802,-0.000767339,-0.167336,0.00206911,0.0111539,1861,1478,19.2816,-12.0487
644,-454,19.3491,11.6223,0.00287056,-0.000812232,-0.000549492,0.0029508,-0.000892471,-0.144999,0.00232257,0.0221066,1868,1478,19.3492,-11.6223
651,-454,19.4617,11.0349,0,0,0,0,0,0,0,-1,1875,1478,19.4616,-11.0349
658,-454,17.2583,10.0765,0,0,0,0,0,0,0,-1,1882,1478,17.2583,-10.0765
665,-454,17.683,9.67566,0,0,0,0,0,0,0,-1,1889,1478,17.683,-9.67572
672,-454,16.5476,6.41931,0,0,0,0,0,0,0,-1,1896,1478,16.5476,-6.41929
679,-454,14.2161,5.45007,0,0,0,0,0,0,0,-1,1903,1478,14.2161,-5.45013
686,-454,10.3767,2.12842,0,0,0,0,0,0,0,-1,1910,1478,10.3767,-2.12839
693,-454,11.1857,1.48486,0,0,0,0,0,0,0,-1,1917,1478,11.1857,-1.48487
700,-454,0,0,0,0,0,0,0,0,0,-1,1924,1478,0,0
707,-454,0,0,0,0,0,0,0,0,0,-1,1931,1478,0,0
714,-454,0,0,0,0,0,0,0,0,0,-1,1938,1478,0,0
721,-454,0,0,0,0,0,0,0,0,0,-1,1945,1478,0,0
728,-454,0,0,0,0,0,0,0,0,0,-1,1952,1478,0,0
735,-454,0,0,0,0,0,0,0,0,0,-1,1959,1478,0,0
742,-454,0,0,0,0,0,0,0,0,0,-1,1966,1478,0,0
749,-454,0,0,0,0,0,0,0,0,0,-1,1973,1478,0,0
756,-454,0,0,0,0,0,0,0,0,0,-1,1980,1478,0,0
763,-454,0,0,0,0,0,0,0,0,0,-1,1987,1478,0,0
770,-454,0,0,0,0,0,0,0,0,0,-1,1994,1478,0,0
777,-454,0,0,0,0,0,0,0,0,0,-1,2001,1478,0,0
784,-454,0,0,0,0,0,0,0,0,0,-1,2008,1478,0,0
791,-454,0,0,0,0,0,0,0,0,0,-1,2015,1478,0,0
798,-454,0,0,0,0,0,0,0,0,0,-1,2022,1478,0,0
805,-454,0,0,0,0,0,0,0,0,0,-1,2029,1478,0,0
812,-454,0,0,0,0,0,0,0,0,0,-1,2036,1478,0,0
-700,-461,0,0,0,0,0,0,0,0,0,-1,524,1485,0,0
-693,-461,0,0,0,0,0,0,0,0,0,-1,531,1485,0,0
-686,-461,0,0,0,0,0,0,0,0,0,-1,538,1485,0,0
-679,-461,0,0,0,0,0,0,0,0,0,-1,545,1485,0,0
-672,-461,0,0,0,0,0,0,0,0,0,-1,552,1485,0,0
-665,-461,0,0,0,0,0,0,0,0,0,-1,559,1485,0,0
-658,-461,0,0,0,0,0,0,0,0,0,-1,566,1485,0,0
-651,-461,0,0,0,0,0,0,0,0,0,-1,573,1485,0,0
-644,-461,0,0,0,0,0,0,0,0,0,-1,580,1485,0,0
-637,-461,0,0,0,0,0,0,0,0,0,-1,587,1485,0,0
-630,-461,0,0,0,0,0,0,0,0,0,-1,594,1485,0,0
-623,-461,0,0,0,0,0,0,0,0,0,-1,601,1485,0,0
-616,-461,0,0,0,0,0,0,0,0,0,-1,608,1485,0,0
-609,-461,0,0,0,0,0,0,0,0,0,-1,615,1485,0,0
-602,-461,0,0,0,0,0,0,0,0,0,-1,622,1485,0,0
-595,-461,0,0,0,0,0,0,0,0,0,-1,629,1485,0,0
-588,-461,0,0,0,0,0,0,0,0,0,-1,636,1485,0,0
-581,-461,0,0,0,0,0,0,0,0,0,-1,643,1485,0,0
-574,-461,0,0,0,0,0,0,0,0,0,-1,650,1485,0,0
-567,-461,-9.69031,0.513306,0,0,0,0,0,0,0,-1,657,1485,-9.69032,-0.513305
-560,-461,-7.28815,1.54004,0,0,0,0,0,0,0,-1,664,1485,-7.28817,-1.54005
-553,-461,-11.9607,5.27783,0,0,0,0,0,0,0,-1,671,1485,-11.9607,-5.27778
-546,-461,-11.4215,4.44666,0,0,0,0,0,0,0,-1,678,1485,-11.4215,-4.4467
-539,-461,-9.36493,5.23438,0,0,0,0,0,0,0,-1,685,1485,-9.3649,-5.23432
-532,-461,-7.82898,6.78357,0,0,0,0,0,0,0,-1,692,1485,-7.829,-6.78363
-525,-461,-6.66876,7.70972,0.043859,0.0392092,0.0451754,0.0867693,-0.00370112,0.759688,0.0591186,0.0496648,699,1485,-6.66875,-7.70968
-518,-461,-5.77637,9.29895,0.0328912,0.0275486,0.0324256,0.0627553,-0.00231556,0.7443,0.0426297,0.0477051,706,1485,-5.7764,-9.29893
-511,-461,-5.84332,9.81006,0,0,0,0,0,0,0,-1,713,1485,-5.84332,-9.81008
-504,-461,-5.75488,10.2128,0.0172651,0.012408,0.0155145,0.03054,-0.000866832,0.707761,0.020655,0.0200831,720,1485,-5.75488,-10.2127
-497,-461,-5.70917,10.7434,0.0122791,0.0079473,0.0103426,0.0206802,-0.000453731,0.682182,0.0139405,0.0116042,727,1485,-5.70919,-10.7434
-490,-461,-5.73596,11.191,0.00865613,0.00497588,0.00674381,0.0138064,-0.000174351,0.65221,0.0092629,0.0135726,734,1485,-5.73597,-11.1911
-483,-461,-5.73553,11.6349,0.00630575,0.00320236,0.00446249,0.00947863,2.94857e-05,0.618077,0.00630928,0.0124261,741,1485,-5.73556,-11.6349
-476,-461,-5.75543,12.0826,0.00477271,0.00228595,0.00311446,0.00688281,0.000175853,0.595478,0.00453106,0.0110716,748,1485,-5.75541,-12.0826
-469,-461,-5.78485,12.546,0.00379413,0.00166179,0.0023074,0.00526977,0.000186149,0.568977,0.0034528,0.0131017,755,1485,-5.78483,-12.546
-462,-461,-5.7876,12.9878,0.00374921,0.00194787,0.00242693,0.00543721,0.000259876,0.607718,0.00354136,0.0176744,762,1485,-5.78763,-12.9878
-455,-461,-5.78833,13.4194,0.00449078,0.00269854,0.00323707,0.00695348,0.000235846,0.650365,0.00455907,0.0210008,769,1485,-5.78831,-13.4195
-448,-461,-5.79749,13.8668,0.00583201,0.00369367,0.00450272,0.00939076,0.00013492,0.668832,0.00621602,0.0185431,776,1485,-5.79751,-13.8668
-441,-461,-5.74438,14.3323,0.00753255,0.00459492,0.00589215,0.0121362,-8.72742e-06,0.663246,0.00809371,0.0195151,783,1485,-5.74441,-14.3323
-434,-461,-5.4162,14.7822,0,0,0,0,0,0,0,-1,790,1485,-5.41622,-14.7822
-427,-461,-5.47369,15.125,0,0,0,0,0,0,0,-1,797,1485,-5.4737,-15.125
-420,-461,-5.52527,15.7393,0,0,0,0,0,0,0,-1,804,1485,-5.52525,-15.7392
-413,-461,-5.57367,14.848,0,0,0,0,0,0,0,-1,811,1485,-5.57368,-14.848
-406,-461,-5.52667,14.839,0,0,0,0,0,0,0,-1,818,1485,-5.52666,-14.839
-399,-461,-1.93439,9.82849,0,0,0,0,0,0,0,-1,825,1485,-1.9344,-9.82846
-392,-461,-0.357544,5.55225,0,0,0,0,0,0,0,-1,832,1485,-0.357536,-5.55228
-385,-461,1.71509,3.35254,0,0,0,0,0,0,0,-1,839,1485,1.71511,-3.35255
-378,-461,1.95996,3.01111,0,0,0,0,0,0,0,-1,846,1485,1.95993,-3.01111
-371,-461,0.702881,2.33459,0,0,0,0,0,0,0,-1,853,1485,0.702859,-2.33459
-364,-461,-1.93097,2.56458,0,0,0,0,0,0,0,-1,860,1485,-1.93095,-2.56456
-357,-461,-2.41516,3.49487,0,0,0,0,0,0,0,-1,867,1485,-2.41517,-3.49487
-350,-461,0,0,0,0,0,0,0,0,0,-1,874,1485,0,0
-343,-461,0,0,0,0,0,0,0,0,0,-1,881,1485,0,0
-336,-461,0,0,0,0,0,0,0,0,0,-1,888,1485,0,0
-329,-461,0,0,0,0,0,0,0,0,0,-1,895,1485,0,0
-322,-461,0,0,0,0,0,0,0,0,0,-1,902,1485,0,0
-315,-461,0,0,0,0,0,0,0,0,0,-1,909,1485,0,0
-308,-461,0,0,0,0,0,0,0,0,0,-1,916,1485,0,0
-301,-461,0,0,0,0,0,0,0,0,0,-1,923,1485,0,0
-294,-461,0,0,0,0,0,0,0,0,0,-1,930,1485,0,0
-287,-461,0,0,0,0,0,0,0,0,0,-1,937,1485,0,0
-280,-461,0,0,0,0,0,0,0,0,0,-1,944,1485,0,0
-273,-461,0,0,0,0,0,0,0,0,0,-1,951,1485,0,0
-266,-461,0,0,0,0,0,0,0,0,0,-1,958,1485,0,0
-259,-461,0,0,0,0,0,0,0,0,0,-1,965,1485,0,0
-252,-461,0,0,0,0,0,0,0,0,0,-1,972,1485,0,0
-245,-461,0,0,0,0,0,0,0,0,0,-1,979,1485,0,0
-238,-461,0,0,0,0,0,0,0,0,0,-1,986,1485,0,0
-231,-461,0,0,0,0,0,0,0,0,0,-1,993,1485,0,0
-224,-461,0,0,0,0,0,0,0,0,0,-1,1000,1485,0,0
-217,-461,0,0,0,0,0,0,0,0,0,-1,1007,1485,0,0
-210,-461,0,0,0,0,0,0,0,0,0,-1,1014,1485,0,0
-203,-461,0,0,0,0,0,0,0,0,0,-1,1021,1485,0,0
-196,-461,0,0,0,0,0,0,0,0,0,-1,1028,1485,0,0
-189,-461,0,0,0,0,0,0,0,0,0,-1,1035,1485,0,0
-182,-461,0,0,0,0,0,0,0,0,0,-1,1042,1485,0,0
-175,-461,0,0,0,0,0,0,0,0,0,-1,1049,1485,0,0
-168,-461,0,0,0,0,0,0,0,0,0,-1,1056,1485,0,0
-161,-461,0,0,0,0,0,0,0,0,0,-1,1063,1485,0,0
-154,-461,0,0,0,0,0,0,0,0,0,-1,1070,1485,0,0
-147,-461,0,0,0,0,0,0,0,0,0,-1,1077,1485,0,0
-140,-461,0,0,0,0,0,0,0,0,0,-1,1084,1485,0,0
-133,-461,0,0,0,0,0,0,0,0,0,-1,1091,1485,0,0
-126,-461,0,0,0,0,0,0,0,0,0,-1,1098,1485,0,0
-119,-461,0,0,0,0,0,0,0,0,0,-1,1105,1485,0,0
-112,-461,0,0,0,0,0,0,0,0,0,-1,1112,1485,0,0
-105,-461,0,0,0,0,0,0,0,0,0,-1,1119,1485,0,0
-98,-461,0,0,0,0,0,0,0,0,0,-1,1126,1485,0,0
-91,-461,0,0,0,0,0,0,0,0,0,-1,1133,1485,0,0
-84,-461,0,0,0,0,0,0,0,0,0,-1,1140,1485,0,0
-77,-461,0,0,0,0,0,0,0,0,0,-1,1147,1485,0,0
-70,-461,0,0,0,0,0,0,0,0,0,-1,1154,1485,0,0
-63,-461,0,0,0,0,0,0,0,0,0,-1,1161,1485,0,0
-56,-461,0,0,0,0,0,0,0,0,0,-1,1168,1485,0,0
-49,-461,0,0,0,0,0,0,0,0,0,-1,1175,1485,0,0
-42,-461,0,0,0,0,0,0,0,0,0,-1,1182,1485,0,0
-35,-461,0,0,0,0,0,0,0,0,0,-1,1189,1485,0,0
-28,-461,0,0,0,0,0,0,0,0,0,-1,1196,1485,0,0
-21,-461,0,0,0,0,0,0,0,0,0,-1,1203,1485,0,0
-14,-461,0,0,0,0,0,0,0,0,0,-1,1210,1485,0,0
-7,-461,0,0,0,0,0,0,0,0,0,-1,1217,1485,0,0
0,-461,0,0,0,0,0,0,0,0,0,-1,1224,1485,0,0
7,-461,0,0,0,0,0,0,0,0,0,-1,1231,1485,0,0
14,-461,0,0,0,0,0,0,0,0,0,-1,1238,1485,0,0
21,-461,0,0,0,0,0,0,0,0,0,-1,1245,1485,0,0
28,-461,0,0,0,0,0,0,0,0,0,-1,1252,1485,0,0
35,-461,0,0,0,0,0,0,0,0,0,-1,1259,1485,0,0
42,-461,0,0,0,0,0,0,0,0,0,-1,1266,1485,0,0
49,-461,0,0,0,0,0,0,0,0,0,-1,1273,1485,0,0
56,-461,0,0,0,0,0,0,0,0,0,-1,1280,1485,0,0
63,-461,0,0,0,0,0,0,0,0,0,-1,1287,1485,0,0
70,-461,0,0,0,0,0,0,0,0,0,-1,1294,1485,0,0
77,-461,0,0,0,0,0,0,0,0,0,-1,1301,1485,0,0
84,-461,0,0,0,0,0,0,0,0,0,-1,1308,1485,0,0
91,-461,0,0,0,0,0,0,0,0,0,-1,1315,1485,0,0
98,-461,0,0,0,0,0,0,0,0,0,-1,1322,1485,0,0
105,-461,0,0,0,0,0,0,0,0,0,-1,1329,1485,0,0
112,-461,0,0,0,0,0,0,0,0,0,-1,1336,1485,0,0
119,-461,0,0,0,0,0,0,0,0,0,-1,1343,1485,0,0
126,-461,0,0,0,0,0,0,0,0,0,-1,1350,1485,0,0
133,-461,0,0,0,0,0,0,0,0,0,-1,1357,1485,0,0
140,-461,0,0,0,0,0,0,0,0,0,-1,1364,1485,0,0
147,-461,0,0,0,0,0,0,0,0,0,-1,1371,1485,0,0
154,-461,0,0,0,0,0,0,0,0,0,-1,1378,1485,0,0
161,-461,0,0,0,0,0,0,0,0,0,-1,1385,1485,0,0
168,-461,0,0,0,0,0,0,0,0,0,-1,1392,1485,0,0
175,-461,0,0,0,0,0,0,0,0,0,-1,1399,1485,0,0
182,-461,0,0,0,0,0,0,0,0,0,-1,1406,1485,0,0
189,-461,0,0,0,0,0,0,0,0,0,-1,1413,1485,0,0
196,-461,0,0,0,0,0,0,0,0,0,-1,1420,1485,0,0
203,-461,0,0,0,0,0,0,0,0,0,-1,1427,1485,0,0
210,-461,0,0,0,0,0,0,0,0,0,-1,1434,1485,0,0
217,-461,0,0,0,0,0,0,0,0,0,-1,1441,1485,0,0
224,-461,0,0,0,0,0,0,0,0,0,-1,1448,1485,0,0
231,-461,0,0,0,0,0,0,0,0,0,-1,1455,1485,0,0
238,-461,0,0,0,0,0,0,0,0,0,-1,1462,1485,0,0
245,-461,0,0,0,0,0,0,0,0,0,-1,1469,1485,0,0
252,-461,0,0,0,0,0,0,0,0,0,-1,1476,1485,0,0
259,-461,0,0,0,0,0,0,0,0,0,-1,1483,1485,0,0
266,-461,0,0,0,0,0,0,0,0,0,-1,1490,1485,0,0
273,-461,0,0,0,0,0,0,0,0,0,-1,1497,1485,0,0
280,-461,0,0,0,0,0,0,0,0,0,-1,1504,1485,0,0
287,-461,0,0,0,0,0,0,0,0,0,-1,1511,1485,0,0
294,-461,0,0,0,0,0,0,0,0,0,-1,1518,1485,0,0
301,-461,0,0,0,0,0,0,0,0,0,-1,1525,1485,0,0
308,-461,0,0,0,0,0,0,0,0,0,-1,1532,1485,0,0
315,-461,0,0,0,0,0,0,0,0,0,-1,1539,1485,0,0
322,-461,0,0,0,0,0,0,0,0,0,-1,1546,1485,0,0
329,-461,0,0,0,0,0,0,0,0,0,-1,1553,1485,0,0
336,-461,0,0,0,0,0,0,0,0,0,-1,1560,1485,0,0
343,-461,0,0,0,0,0,0,0,0,0,-1,1567,1485,0,0
350,-461,0,0,0,0,0,0,0,0,0,-1,1574,1485,0,0
357,-461,0,0,0,0,0,0,0,0,0,-1,1581,1485,0,0
364,-461,0,0,0,0,0,0,0,0,0,-1,1588,1485,0,0
371,-461,0,0,0,0,0,0,0,0,0,-1,1595,1485,0,0
378,-461,0,0,0,0,0,0,0,0,0,-1,1602,1485,0,0
385,-461,0,0,0,0,0,0,0,0,0,-1,1609,1485,0,0
392,-461,0,0,0,0,0,0,0,0,0,-1,1616,1485,0,0
399,-461,0,0,0,0,0,0,0,0,0,-1,1623,1485,0,0
406,-461,0,0,0,0,0,0,0,0,0,-1,1630,1485,0,0
413,-461,0,0,0,0,0,0,0,0,0,-1,1637,1485,0,0
420,-461,0,0,0,0,0,0,0,0,0,-1,1644,1485,0,0
427,-461,0,0,0,0,0,0,0,0,0,-1,1651,1485,0,0
434,-461,0,0,0,0,0,0,0,0,0,-1,1658,1485,0,0
441,-461,0,0,0,0,0,0,0,0,0,-1,1665,1485,0,0
448,-461,0,0,0,0,0,0,0,0,0,-1,1672,1485,0,0
455,-461,0,0,0,0,0,0,0,0,0,-1,1679,1485,0,0
462,-461,0,0,0,0,0,0,0,0,0,-1,1686,1485,0,0
469,-461,0,0,0,0,0,0,0,0,0,-1,1693,1485,0,0
476,-461,14.1906,0.690552,0,0,0,0,0,0,0,-1,1700,1485,14.1906,-0.690525
483,-461,10.6361,3.09106,0,0,0,0,0,0,0,-1,1707,1485,10.6361,-3.091
490,-461,17.9972,0.665894,0,0,0,0,0,0,0,-1,1714,1485,17.9972,-0.665876
497,-461,16.6829,1.87732,0,0,0,0,0,0,0,-1,1721,1485,16.6828,-1.87736
504,-461,15.3884,3.09216,0,0,0,0,0,0,0,-1,1728,1485,15.3885,-3.09212
511,-461,15.4292,14.3512,0,0,0,0,0,0,0,-1,1735,1485,15.4292,-14.3512
518,-461,14.8081,10.0085,0,0,0,0,0,0,0,-1,1742,1485,14.8081,-10.0086
525,-461,14.0022,10.8033,0,0,0,0,0,0,0,-1,1749,1485,14.0022,-10.8033
532,-461,17.1704,14.077,0,0,0,0,0,0,0,-1,1756,1485,17.1704,-14.077
539,-461,17.0229,14.7386,0,0,0,0,0,0,0,-1,1763,1485,17.0229,-14.7387
546,-461,16.2106,14.1372,0,0,0,0,0,0,0,-1,1770,1485,16.2106,-14.1372
553,-461,18.5734,16.6093,0,0,0,0,0,0,0,-1,1777,1485,18.5734,-16.6093
560,-461,18.9713,16.5554,0,0,0,0,0,0,0,-1,1784,1485,18.9713,-16.5554
567,-461,18.9863,16.0782,-0.000697585,-0.00182567,0.00243835,0.00124111,-0.00376436,0.671737,0.00300982,0.0268506,1791,1485,18.9863,-16.0783
574,-461,18.9805,15.7422,-5.24175e-05,-0.000689697,0.00134944,0.00101549,-0.0017576,0.669458,0.00162004,0.021432,1798,1485,18.9805,-15.7422
581,-461,18.974,15.3302,0.000454393,4.26033e-05,0.000494004,0.000783692,-0.000286696,0.587951,0.000639809,0.0149566,1805,1485,18.974,-15.3302
588,-461,18.9415,14.9333,0.000802873,0.000453384,-9.44684e-05,0.000826774,0.000429483,-0.247802,0.000477459,0.0108126,1812,1485,18.9416,-14.9334
595,-461,18.9061,14.5286,0.00127297,0.000686914,-0.000652001,0.00169476,0.000265118,-0.57421,0.00105266,0.00868556,1819,1485,18.9061,-14.5286
602,-461,18.9078,14.0995,0.00158554,0.000642983,-0.000884804,0.00211675,0.000111775,-0.540691,0.00137542,0.00932831,1826,1485,18.9079,-14.0994
609,-461,18.9167,13.687,0.00181763,0.000435021,-0.000932484,0.00228711,-3.44616e-05,-0.466424,0.00153636,0.0112009,1833,1485,18.9168,-13.687
616,-461,18.9224,13.2922,0.00208376,8.48818e-05,-0.000952717,0.0024651,-0.000296457,-0.380734,0.00175061,0.0134804,1840,1485,18.9223,-13.2923
623,-461,18.9258,12.8956,0.00242045,-0.000298384,-0.000923197,0.0027043,-0.000582228,-0.298285,0.00202503,0.0148694,1847,1485,18.9258,-12.8956
630,-461,18.9105,12.4883,0.00283424,-0.000662752,-0.000872427,0.00303981,-0.00086832,-0.231407,0.00236962,0.0140529,1854,1485,18.9106,-12.4883
637,-461,18.8926,12.0912,0.00333374,-0.000870213,-0.000877761,0.00350965,-0.00104612,-0.197788,0.00275549,0.0136573,1861,1485,18.8926,-12.0911
644,-461,18.96,11.7594,0.00386658,-0.00103012,-0.000916988,0.00403267,-0.00119621,-0.179181,0.00316349,0.0299398,1868,1485,18.96,-11.7595
651,-461,19.0789,11.3705,0,0,0,0,0,0,0,-1,1875,1485,19.0788,-11.3704
658,-461,16.8987,10.1084,0,0,0,0,0,0,0,-1,1882,1485,16.8986,-10.1084
665,-461,17.2638,9.81384,0,0,0,0,0,0,0,-1,1889,1485,17.2638,-9.81385
672,-461,14.4877,6.89429,0,0,0,0,0,0,0,-1,1896,1485,14.4876,-6.89431
679,-461,10.0535,2.16321,0,0,0,0,0,0,0,-1,1903,1485,10.0535,-2.16317
686,-461,10.8195,1.84192,0,0,0,0,0,0,0,-1,1910,1485,10.8194,-1.84195
693,-461,0,0,0,0,0,0,0,0,0,-1,1917,1485,0,0
700,-461,0,0,0,0,0,0,0,0,0,-1,1924,1485,0,0
707,-461,0,0,0,0,0,0,0,0,0,-1,1931,1485,0,0
714,-461,0,0,0,0,0,0,0,0,0,-1,1938,1485,0,0
721,-461,0,0,0,0,0,0,0,0,0,-1,1945,1485,0,0
728,-461,0,0,0,0,0,0,0,0,0,-1,1952,1485,0,0
735,-461,0,0,0,0,0,0,0,0,0,-1,1959,1485,0,0
742,-461,0,0,0,0,0,0,0,0,0,-1,1966,1485,0,0
749,-461,0,0,0,0,0,0,0,0,0,-1,1973,1485,0,0
756,-461,0,0,0,0,0,0,0,0,0,-1,1980,1485,0,0
763,-461,0,0,0,0,0,0,0,0,0,-1,1987,1485,0,0
770,-461,0,0,0,0,0,0,0,0,0,-1,1994,1485,0,0
777,-461,0,0,0,0,0,0,0,0,0,-1,2001,1485,0,0
784,-461,0,0,0,0,0,0,0,0,0,-1,2008,1485,0,0
791,-461,0,0,0,0,0,0,0,0,0,-1,2015,1485,0,0
798,-461,0,0,0,0,0,0,0,0,0,-1,2022,1485,0,0
805,-461,0,0,0,0,0,0,0,0,0,-1,2029,1485,0,0
812,-461,0,0,0,0,0,0,0,0,0,-1,2036,1485,0,0
-700,-468,0,0,0,0,0,0,0,0,0,-1,524,1492,0,0
-693,-468,0,0,0,0,0,0,0,0,0,-1,531,1492,0,0
-686,-468,0,0,0,0,0,0,0,0,0,-1,538,1492,0,0
-679,-468,0,0,0,0,0,0,0,0,0,-1,545,1492,0,0
-672,-468,0,0,0,0,0,0,0,0,0,-1,552,1492,0,0
-665,-468,0,0,0,0,0,0,0,0,0,-1,559,1492,0,0
-658,-468,0,0,0,0,0,0,0,0,0,-1,566,1492,0,0
-651,-468,0,0,0,0,0,0,0,0,0,-1,573,1492,0,0
-644,-468,0,0,0,0,0,0,0,0,0,-1,580,1492,0,0
-637,-468,0,0,0,0,0,0,0,0,0,-1,587,1492,0,0
-630,-468,0,0,0,0,0,0,0,0,0,-1,594,1492,0,0
-623,-468,0,0,0,0,0,0,0,0,0,-1,601,1492,0,0
-616,-468,0,0,0,0,0,0,0,0,0,-1,608,1492,0,0
-609,-468,0,0,0,0,0,0,0,0,0,-1,615,1492,0,0
-602,-468,0,0,0,0,0,0,0,0,0,-1,622,1492,0,0
-595,-468,0,0,0,0,0,0,0,0,0,-1,629,1492,0,0
-588,-468,0,0,0,0,0,0,0,0,0,-1,636,1492,0,0
-581,-468,0,0,0,0,0,0,0,0,0,-1,643,1492,0,0
-574,-468,0,0,0,0,0,0,0,0,0,-1,650,1492,0,0
-567,-468,-11.2603,1.8042,0,0,0,0,0,0,0,-1,657,1492,-11.2603,-1.80424
-560,-468,-8.77441,2.23694,0,0,0,0,0,0,0,-1,664,1492,-8.77443,-2.23692
-553,-468,-5.94061,9.26318,0,0,0,0,0,0,0,-1,671,1492,-5.94062,-9.26322
-546,-468,-10.47,5.43237,0,0,0,0,0,0,0,-1,678,1492,-10.47,-5.4324
-539,-468,-10.2468,5.45203,0,0,0,0,0,0,0,-1,685,1492,-10.2468,-5.45197
-532,-468,-8.39795,6.02783,0,0,0,0,0,0,0,-1,692,1492,-8.39793,-6.02789
-525,-468,-6.96466,7.10168,0,0,0,0,0,0,0,-1,699,1492,-6.96469,-7.1017
-518,-468,-5.77728,9.1095,0,0,0,0,0,0,0,-1,706,1492,-5.77728,-9.10946
-511,-468,-5.26678,9.76892,0,0,0,0,0,0,0,-1,713,1492,-5.2668,-9.76893
-504,-468,-5.21039,10.2449,0.0211762,0.01409,0.0182048,0.0361794,-0.000913218,0.689288,0.0244297,0.0307274,720,1492,-5.21036,-10.2448
-497,-468,-5.28601,10.7241,0.0147158,0.00866066,0.0117874,0.0238582,-0.000481747,0.659692,0.0160684,0.0147314,727,1492,-5.28604,-10.7241
-490,-468,-5.27496,11.2189,0.010079,0.00508477,0.0073985,0.0153904,-0.000226674,0.622644,0.0103367,0.0087925,734,1492,-5.27497,-11.2188
-483,-468,-5.28546,11.6613,0.00701635,0.00295761,0.00461425,0.0100278,-5.38174e-05,0.578226,0.0067032,0.00865859,741,1492,-5.28543,-11.6613
-476,-468,-5.30121,12.1061,0.00500105,0.00183292,0.00296215,0.00677609,5.78852e-05,0.539861,0.00449822,0.00911643,748,1492,-5.3012,-12.1061
-469,-468,-5.33868,12.5636,0.00360098,0.000996169,0.00186716,0.00457509,2.20512e-05,0.480865,0.00304274,0.0132308,755,1492,-5.33868,-12.5636
-462,-468,-5.31024,13.0172,0.00317474,0.00106864,0.00170732,0.00412764,0.00011573,0.509063,0.00271401,0.0226175,762,1492,-5.31022,-13.0172
-455,-468,-5.32111,13.4303,0.00374157,0.00176242,0.00244568,0.00539029,0.0001137,0.593156,0.00355623,0.0224266,769,1492,-5.3211,-13.4303
-448,-468,-5.35242,13.8518,0.004779,0.00264403,0.00351916,0.00738901,3.40124e-05,0.638141,0.00491471,0.0137794,776,1492,-5.35241,-13.8518
-441,-468,-5.34521,14.2878,0.00625346,0.00354344,0.00483133,0.0099162,-0.000119298,0.648679,0.00665093,0.0127866,783,1492,-5.34524,-14.2879
-434,-468,-5.30707,14.7701,0.00791198,0.00423399,0.00618302,0.0125237,-0.000377723,0.640851,0.00847785,0.0174022,790,1492,-5.30707,-14.7701
-427,-468,-5.22449,15.2325,0.00977552,0.00466242,0.00748429,0.0151279,-0.000689923,0.620817,0.0103229,0.0310789,797,1492,-5.22446,-15.2325
-420,-468,-5.16193,15.6188,0.0118464,0.00550361,0.00913137,0.0183415,-0.000991394,0.61826,0.0125711,0.0466097,804,1492,-5.16191,-15.6188
-413,-468,-4.91254,16.0626,0,0,0,0,0,0,0,-1,811,1492,-4.91253,-16.0627
-406,-468,-2.2356,9.396,0,0,0,0,0,0,0,-1,818,1492,-2.2356,-9.396
-399,-468,-0.940369,8.1936,0,0,0,0,0,0,0,-1,825,1492,-0.940365,-8.19357
-392,-468,-0.35144,8.14673,0,0,0,0,0,0,0,-1,832,1492,-0.351449,-8.14674
-385,-468,0.465759,5.35864,0,0,0,0,0,0,0,-1,839,1492,0.465732,-5.35864
-378,-468,1.99835,3.25391,0,0,0,0,0,0,0,-1,846,1492,1.99837,-3.2539
-371,-468,-0.31842,3.1532,0,0,0,0,0,0,0,-1,853,1492,-0.318441,-3.15324
-364,-468,-0.966736,2.14563,0,0,0,0,0,0,0,-1,860,1492,-0.966735,-2.14557
-357,-468,-3.06787,3.22742,0,0,0,0,0,0,0,-1,867,1492,-3.06784,-3.2274
-350,-468,-3.18658,4.12659,0,0,0,0,0,0,0,-1,874,1492,-3.18659,-4.12658
-343,-468,0,0,0,0,0,0,0,0,0,-1,881,1492,0,0
-336,-468,0,0,0,0,0,0,0,0,0,-1,888,1492,0,0
-329,-468,0,0,0,0,0,0,0,0,0,-1,895,1492,0,0
-322,-468,0,0,0,0,0,0,0,0,0,-1,902,1492,0,0
-315,-468,0,0,0,0,0,0,0,0,0,-1,909,1492,0,0
-308,-468,0,0,0,0,0,0,0,0,0,-1,916,1492,0,0
-301,-468,0,0,0,0,0,0,0,0,0,-1,923,1492,0,0
-294,-468,0,0,0,0,0,0,0,0,0,-1,930,1492,0,0
-287,-468,0,0,0,0,0,0,0,0,0,-1,937,1492,0,0
-280,-468,0,0,0,0,0,0,0,0,0,-1,944,1492,0,0
-273,-468,0,0,0,0,0,0,0,0,0,-1,951,1492,0,0
-266,-468,0,0,0,0,0,0,0,0,0,-1,958,1492,0,0
-259,-468,0,0,0,0,0,0,0,0,0,-1,965,1492,0,0
-252,-468,0,0,0,0,0,0,0,0,0,-1,972,1492,0,0
-245,-468,0,0,0,0,0,0,0,0,0,-1,979,1492,0,0
-238,-468,0,0,0,0,0,0,0,0,0,-1,986,1492,0,0
-231,-468,0,0,0,0,0,0,0,0,0,-1,993,1492,0,0
-224,-468,0,0,0,0,0,0,0,0,0,-1,1000,1492,0,0
-217,-468,0,0,0,0,0,0,0,0,0,-1,1007,1492,0,0
-210,-468,0,0,0,0,0,0,0,0,0,-1,1014,1492,0,0
-203,-468,0,0,0,0,0,0,0,0,0,-1,1021,1492,0,0
-196,-468,0,0,0,0,0,0,0,0,0,-1,1028,1492,0,0
-189,-468,0,0,0,0,0,0,0,0,0,-1,1035,1492,0,0
-182,-468,0,0,0,0,0,0,0,0,0,-1,1042,1492,0,0
-175,-468,0,0,0,0,0,0,0,0,0,-1,1049,1492,0,0
-168,-468,0,0,0,0,0,0,0,0,0,-1,1056,1492,0,0
-161,-468,0,0,0,0,0,0,0,0,0,-1,1063,1492,0,0
-154,-468,0,0,0,0,0,0,0,0,0,-1,1070,1492,0,0
-147,-468,0,0,0,0,0,0,0,0,0,-1,1077,1492,0,0
-140,-468,0,0,0,0,0,0,0,0,0,-1,1084,1492,0,0
-133,-468,0,0,0,0,0,0,0,0,0,-1,1091,1492,0,0
-126,-468,0,0,0,0,0,0,0,0,0,-1,1098,1492,0,0
-119,-468,0,0,0,0,0,0,0,0,0,-1,1105,1492,0,0
-112,-468,0,0,0,0,0,0,0,0,0,-1,1112,1492,0,0
-105,-468,0,0,0,0,0,0,0,0,0,-1,1119,1492,0,0
-98,-468,0,0,0,0,0,0,0,0,0,-1,1126,1492,0,0
-91,-468,0,0,0,0,0,0,0,0,0,-1,1133,1492,0,0
-84,-468,0,0,0,0,0,0,0,0,0,-1,1140,1492,0,0
-77,-468,0,0,0,0,0,0,0,0,0,-1,1147,1492,0,0
-70,-468,0,0,0,0,0,0,0,0,0,-1,1154,1492,0,0
-63,-468,0,0,0,0,0,0,0,0,0,-1,1161,1492,0,0
-56,-468,0,0,0,0,0,0,0,0,0,-1,1168,1492,0,0
-49,-468,0,0,0,0,0,0,0,0,0,-1,1175,1492,0,0
-42,-468,0,0,0,0,0,0,0,0,0,-1,1182,1492,0,0
-35,-468,0,0,0,0,0,0,0,0,0,-1,1189,1492,0,0
-28,-468,0,0,0,0,0,0,0,0,0,-1,1196,1492,0,0
-21,-468,0,0,0,0,0,0,0,0,0,-1,1203,1492,0,0
-14,-468,0,0,0,0,0,0,0,0,0,-1,1210,1492,0,0
-7,-468,0,0,0,0,0,0,0,0,0,-1,1217,1492,0,0
0,-468,0,0,0,0,0,0,0,0,0,-1,1224,1492,0,0
7,-468,0,0,0,0,0,0,0,0,0,-1,1231,1492,0,0
14,-468,0,0,0,0,0,0,0,0,0,-1,1238,1492,0,0
21,-468,0,0,0,0,0,0,0,0,0,-1,1245,1492,0,0
28,-468,0,0,0,0,0,0,0,0,0,-1,1252,1492,0,0
35,-468,0,0,0,0,0,0,0,0,0,-1,1259,1492,0,0
42,-468,0,0,0,0,0,0,0,0,0,-1,1266,1492,0,0
49,-468,0,0,0,0,0,0,0,0,0,-1,1273,1492,0,0
56,-468,0,0,0,0,0,0,0,0,0,-1,1280,1492,0,0
63,-468,0,0,0,0,0,0,0,0,0,-1,1287,1492,0,0
70,-468,0,0,0,0,0,0,0,0,0,-1,1294,1492,0,0
77,-468,0,0,0,0,0,0,0,0,0,-1,1301,1492,0,0
84,-468,0,0,0,0,0,0,0,0,0,-1,1308,1492,0,0
91,-468,0,0,0,0,0,0,0,0,0,-1,1315,1492,0,0
98,-468,0,0,0,0,0,0,0,0,0,-1,1322,1492,0,0
105,-468,0,0,0,0,0,0,0,0,0,-1,1329,1492,0,0
112,-468,0,0,0,0,0,0,0,0,0,-1,1336,1492,0,0
119,-468,0,0,0,0,0,0,0,0,0,-1,1343,1492,0,0
126,-468,0,0,0,0,0,0,0,0,0,-1,1350,1492,0,0
133,-468,0,0,0,0,0,0,0,0,0,-1,1357,1492,0,0
140,-468,0,0,0,0,0,0,0,0,0,-1,1364,1492,0,0
147,-468,0,0,0,0,0,0,0,0,0,-1,1371,1492,0,0
154,-468,0,0,0,0,0,0,0,0,0,-1,1378,1492,0,0
161,-468,0,0,0,0,0,0,0,0,0,-1,1385,1492,0,0
168,-468,0,0,0,0,0,0,0,0,0,-1,1392,1492,0,0
175,-468,0,0,0,0,0,0,0,0,0,-1,1399,1492,0,0
182,-468,0,0,0,0,0,0,0,0,0,-1,1406,1492,0,0
189,-468,0,0,0,0,0,0,0,0,0,-1,1413,1492,0,0
196,-468,0,0,0,0,0,0,0,0,0,-1,1420,1492,0,0
203,-468,0,0,0,0,0,0,0,0,0,-1,1427,1492,0,0
210,-468,0,0,0,0,0,0,0,0,0,-1,1434,1492,0,0
217,-468,0,0,0,0,0,0,0,0,0,-1,1441,1492,0,0
224,-468,0,0,0,0,0,0,0,0,0,-1,1448,1492,0,0
231,-468,0,0,0,0,0,0,0,0,0,-1,1455,1492,0,0
238,-468,0,0,0,0,0,0,0,0,0,-1,1462,1492,0,0
245,-468,0,0,0,0,0,0,0,0,0,-1,1469,1492,0,0
252,-468,0,0,0,0,0,0,0,0,0,-1,1476,1492,0,0
259,-468,0,0,0,0,0,0,0,0,0,-1,1483,1492,0,0
266,-468,0,0,0,0,0,0,0,0,0,-1,1490,1492,0,0
273,-468,0,0,0,0,0,0,0,0,0,-1,1497,1492,0,0
280,-468,0,0,0,0,0,0,0,0,0,-1,1504,1492,0,0
287,-468,0,0,0,0,0,0,0,0,0,-1,1511,1492,0,0
294,-468,0,0,0,0,0,0,0,0,0,-1,1518,1492,0,0
301,-468,0,0,0,0,0,0,0,0,0,-1,1525,1492,0,0
308,-468,0,0,0,0,0,0,0,0,0,-1,1532,1492,0,0
315,-468,0,0,0,0,0,0,0,0,0,-1,1539,1492,0,0
322,-468,0,0,0,0,0,0,0,0,0,-1,1546,1492,0,0
329,-468,0,0,0,0,0,0,0,0,0,-1,1553,1492,0,0
336,-468,0,0,0,0,0,0,0,0,0,-1,1560,1492,0,0
343,-468,0,0,0,0,0,0,0,0,0,-1,1567,1492,0,0
350,-468,0,0,0,0,0,0,0,0,0,-1,1574,1492,0,0
357,-468,0,0,0,0,0,0,0,0,0,-1,1581,1492,0,0
364,-468,0,0,0,0,0,0,0,0,0,-1,1588,1492,0,0
371,-468,0,0,0,0,0,0,0,0,0,-1,1595,1492,0,0
378,-468,0,0,0,0,0,0,0,0,0,-1,1602,1492,0,0
385,-468,0,0,0,0,0,0,0,0,0,-1,1609,1492,0,0
392,-468,0,0,0,0,0,0,0,0,0,-1,1616,1492,0,0
399,-468,0,0,0,0,0,0,0,0,0,-1,1623,1492,0,0
406,-468,0,0,0,0,0,0,0,0,0,-1,1630,1492,0,0
413,-468,0,0,0,0,0,0,0,0,0,-1,1637,1492,0,0
420,-468,0,0,0,0,0,0,0,0,0,-1,1644,1492,0,0
427,-468,0,0,0,0,0,0,0,0,0,-1,1651,1492,0,0
434,-468,0,0,0,0,0,0,0,0,0,-1,1658,1492,0,0
441,-468,0,0,0,0,0,0,0,0,0,-1,1665,1492,0,0
448,-468,0,0,0,0,0,0,0,0,0,-1,1672,1492,0,0
455,-468,0,0,0,0,0,0,0,0,0,-1,1679,1492,0,0
462,-468,0,0,0,0,0,0,0,0,0,-1,1686,1492,0,0
469,-468,15.6879,1.2677,0,0,0,0,0,0,0,-1,1693,1492,15.6879,-1.26772
476,-468,14.9318,1.61865,0,0,0,0,0,0,0,-1,1700,1492,14.9318,-1.61869
483,-468,11.265,4.64795,0,0,0,0,0,0,0,-1,1707,1492,11.265,-4.64798
490,-468,12.1316,3.51624,0,0,0,0,0,0,0,-1,1714,1492,12.1316,-3.51628
497,-468,16.5355,3.14587,0,0,0,0,0,0,0,-1,1721,1492,16.5356,-3.14583
504,-468,15.0642,4.10437,0,0,0,0,0,0,0,-1,1728,1492,15.0643,-4.10431
511,-468,15.6877,9.4801,0,0,0,0,0,0,0,-1,1735,1492,15.6878,-9.48007
518,-468,13.759,11.0887,0,0,0,0,0,0,0,-1,1742,1492,13.759,-11.0887
525,-468,16.6531,14.2238,0,0,0,0,0,0,0,-1,1749,1492,16.653,-14.2237
532,-468,16.9696,15.9641,0,0,0,0,0,0,0,-1,1756,1492,16.9696,-15.9641
539,-468,19.077,17.4264,0,0,0,0,0,0,0,-1,1763,1492,19.077,-17.4264
546,-468,18.397,17.0276,0,0,0,0,0,0,0,-1,1770,1492,18.397,-17.0276
553,-468,18.5492,16.7271,-0.00252988,-0.00568405,0.00585845,0.00196005,-0.010174,0.653916,0.00752162,0.0445298,1777,1492,18.5492,-16.727
560,-468,18.5443,16.5109,-0.00130891,-0.00365133,0.00386224,0.00155579,-0.00651603,0.638182,0.00494489,0.0335817,1784,1492,18.5443,-16.5109
567,-468,18.5421,16.1631,-0.000480339,-0.00189058,0.00230147,0.00122161,-0.00359252,0.636749,0.00288961,0.0190611,1791,1492,18.5421,-16.1631
574,-468,18.5721,15.7385,6.54435e-05,-0.000887051,0.00129164,0.000965836,-0.00178744,0.608773,0.00161303,0.0148334,1798,1492,18.5721,-15.7385
581,-468,18.5739,15.3518,0.00050303,-0.000257028,0.000488352,0.000741797,-0.000495796,0.454749,0.000719215,0.0151061,1805,1492,18.5738,-15.3518
588,-468,18.542,14.9585,0.000856552,0.000156281,-0.000110024,0.000873431,0.000139401,-0.152231,0.000541831,0.0122115,1812,1492,18.542,-14.9584
595,-468,18.5211,14.5435,0.00138179,0.000381978,-0.000685457,0.00173027,3.34993e-05,-0.470337,0.00114251,0.0102185,1819,1492,18.5211,-14.5435
602,-468,18.509,14.1061,0.00176729,0.000363627,-0.000986337,0.00227601,-0.00014509,-0.476179,0.00156794,0.00924783,1826,1492,18.5091,-14.106
609,-468,18.4911,13.6974,0.00208752,0.000171517,-0.00111664,0.0026008,-0.000341759,-0.430858,0.00185829,0.00966766,1833,1492,18.4911,-13.6973
616,-468,18.4917,13.2992,0.00247292,-0.00014464,-0.00122163,0.00295447,-0.000626191,-0.375485,0.00220817,0.00944318,1840,1492,18.4917,-13.2992
623,-468,18.4906,12.9091,0.00296157,-0.000508663,-0.00127525,0.0033798,-0.000926893,-0.316905,0.00261745,0.0104699,1847,1492,18.4907,-12.9091
630,-468,18.4875,12.4958,0.00353397,-0.000848634,-0.0012957,0.00388838,-0.00120304,-0.266997,0.0030728,0.0110683,1854,1492,18.4876,-12.4959
637,-468,18.4823,12.0769,0.00423758,-0.00101105,-0.0013809,0.00457872,-0.00135219,-0.242191,0.00358914,0.0144636,1861,1492,18.4823,-12.0769
644,-468,18.5778,11.774,0.00498929,-0.00118279,-0.00147074,0.00532184,-0.00151534,-0.222368,0.00414635,0.0412806,1868,1492,18.5777,-11.774
651,-468,18.8187,11.4404,0,0,0,0,0,0,0,-1,1875,1492,18.8188,-11.4404
658,-468,16.4969,10.0774,0,0,0,0,0,0,0,-1,1882,1492,16.497,-10.0774
665,-468,15.4673,8.59546,0,0,0,0,0,0,0,-1,1889,1492,15.4672,-8.59548
672,-468,9.96814,3.61133,0,0,0,0,0,0,0,-1,1896,1492,9.96817,-3.61139
679,-468,11.2191,1.91968,0,0,0,0,0,0,0,-1,1903,1492,11.2191,-1.91965
686,-468,11.9252,1.42285,0,0,0,0,0,0,0,-1,1910,1492,11.9252,-1.42291
693,-468,0,0,0,0,0,0,0,0,0,-1,1917,1492,0,0
700,-468,0,0,0,0,0,0,0,0,0,-1,1924,1492,0,0
707,-468,0,0,0,0,0,0,0,0,0,-1,1931,1492,0,0
714,-468,0,0,0,0,0,0,0,0,0,-1,1938,1492,0,0
721,-468,0,0,0,0,0,0,0,0,0,-1,1945,1492,0,0
728,-468,0,0,0,0,0,0,0,0,0,-1,1952,1492,0,0
735,-468,0,0,0,0,0,0,0,0,0,-1,1959,1492,0,0
742,-468,0,0,0,0,0,0,0,0,0,-1,1966,1492,0,0
749,-468,0,0,0,0,0,0,0,0,0,-1,1973,1492,0,0
756,-468,0,0,0,0,0,0,0,0,0,-1,1980,1492,0,0
763,-468,0,0,0,0,0,0,0,0,0,-1,1987,1492,0,0
770,-468,0,0,0,0,0,0,0,0,0,-1,1994,1492,0,0
777,-468,0,0,0,0,0,0,0,0,0,-1,2001,1492,0,0
784,-468,0,0,0,0,0,0,0,0,0,-1,2008,1492,0,0
791,-468,0,0,0,0,0,0,0,0,0,-1,2015,1492,0,0
798,-468,0,0,0,0,0,0,0,0,0,-1,2022,1492,0,0
805,-468,0,0,0,0,0,0,0,0,0,-1,2029,1492,0,0
812,-468,0,0,0,0,0,0,0,0,0,-1,2036,1492,0,0
-700,-475,0,0,0,0,0,0,0,0,0,-1,524,1499,0,0
-693,-475,0,0,0,0,0,0,0,0,0,-1,531,1499,0,0
-686,-475,0,0,0,0,0,0,0,0,0,-1,538,1499,0,0
-679,-475,0,0,0,0,0,0,0,0,0,-1,545,1499,0,0
-672,-475,0,0,0,0,0,0,0,0,0,-1,552,1499,0,0
-665,-475,0,0,0,0,0,0,0,0,0,-1,559,1499,0,0
-658,-475,0,0,0,0,0,0,0,0,0,-1,566,1499,0,0
-651,-475,0,0,0,0,0,0,0,0,0,-1,573,1499,0,0
-644,-475,0,0,0,0,0,0,0,0,0,-1,580,1499,0,0
-637,-475,0,0,0,0,0,0,0,0,0,-1,587,1499,0,0
-630,-475,0,0,0,0,0,0,0,0,0,-1,594,1499,0,0
-623,-475,0,0,0,0,0,0,0,0,0,-1,601,1499,0,0
-616,-475,0,0,0,0,0,0,0,0,0,-1,608,1499,0,0
-609,-475,0,0,0,0,0,0,0,0,0,-1,615,1499,0,0
-602,-475,0,0,0,0,0,0,0,0,0,-1,622,1499,0,0
-595,-475,0,0,0,0,0,0,0,0,0,-1,629,1499,0,0
-588,-475,0,0,0,0,0,0,0,0,0,-1,636,1499,0,0
-581,-475,0,0,0,0,0,0,0,0,0,-1,643,1499,0,0
-574,-475,0,0,0,0,0,0,0,0,0,-1,650,1499,0,0
-567,-475,0,0,0,0,0,0,0,0,0,-1,657,1499,0,0
-560,-475,-9.42731,9.29517,0,0,0,0,0,0,0,-1,664,1499,-9.42731,-9.29519
-553,-475,-8.15131,8.78369,0,0,0,0,0,0,0,-1,671,1499,-8.15131,-8.78367
-546,-475,-8.41254,8.20654,0,0,0,0,0,0,0,-1,678,1499,-8.41251,-8.20655
-539,-475,-4.7345,4.17419,0,0,0,0,0,0,0,-1,685,1499,-4.73449,-4.17418
-532,-475,-7.07379,4.25024,0,0,0,0,0,0,0,-1,692,1499,-7.07378,-4.2503
-525,-475,-7.31171,6.33899,0,0,0,0,0,0,0,-1,699,1499,-7.31171,-6.33899
-518,-475,-5.50153,7.75537,0.0524024,0.0386169,0.0476733,0.0936787,-0.00265941,0.713604,0.0633575,0.0487011,706,1499,-5.50155,-7.75532
-511,-475,-5.15588,9.01538,0,0,0,0,0,0,0,-1,713,1499,-5.15587,-9.01541
-504,-475,-4.82227,10.3883,0.0252567,0.0154183,0.0205554,0.0414733,-0.000798315,0.667951,0.0279188,0.0380222,720,1499,-4.82227,-10.3883
-497,-475,-4.83826,10.8369,0.0171291,0.00906272,0.0128546,0.0265684,-0.000376545,0.633384,0.0178391,0.0258115,727,1499,-4.83824,-10.8369
-490,-475,-4.83765,11.222,0.0113838,0.00495085,0.0076974,0.0165098,-0.000175065,0.587491,0.0110653,0.010196,734,1499,-4.83766,-11.222
-483,-475,-4.84241,11.7,0.00755502,0.00253455,0.004448,0.0101522,-6.26594e-05,0.528501,0.00678913,0.00914592,741,1499,-4.8424,-11.7
-476,-475,-4.86169,12.1243,0.00504809,0.00126065,0.00254175,0.00632401,-1.52756e-05,0.465237,0.00422111,0.0104356,748,1499,-4.86171,-12.1242
-469,-475,-4.86804,12.5669,0.00327488,0.000310337,0.00124955,0.00373129,-0.000146076,0.350207,0.00253762,0.0120477,755,1499,-4.86803,-12.5669
-462,-475,-4.84308,13.0259,0.00252903,0.000231352,0.000892437,0.00283493,-7.45512e-05,0.330222,0.00191529,0.016805,762,1499,-4.84309,-13.0259
-455,-475,-4.86896,13.4434,0.00292119,0.000888344,0.00158489,0.00378759,2.19489e-05,0.500274,0.00251777,0.0148426,769,1499,-4.86899,-13.4433
-448,-475,-4.91559,13.8577,0.00366719,0.00167962,0.00250041,0.00536407,-1.72586e-05,0.596246,0.00358182,0.0132944,776,1499,-4.91559,-13.8577
-441,-475,-4.90668,14.2948,0.0049257,0.00257584,0.00374715,0.00767781,-0.000176265,0.633477,0.00517829,0.0156899,783,1499,-4.90669,-14.2948
-434,-475,-4.89722,14.7239,0.00643259,0.00340184,0.00509765,0.0102353,-0.000400906,0.640923,0.00696104,0.010317,790,1499,-4.89721,-14.7239
-427,-475,-4.86218,15.2332,0.00814689,0.00415977,0.00646502,0.0129187,-0.000612079,0.635843,0.0088236,0.0232651,797,1499,-4.86218,-15.2331
-420,-475,-4.77753,15.7095,0.0100432,0.00534518,0.00814361,0.0161698,-0.000781439,0.644986,0.0110496,0.0393012,804,1499,-4.77751,-15.7095
-413,-475,-4.54523,16.2738,0,0,0,0,0,0,0,-1,811,1499,-4.54525,-16.2738
-406,-475,-2.56116,12.4956,0,0,0,0,0,0,0,-1,818,1499,-2.56116,-12.4956
-399,-475,-1.39667,6.1615,0,0,0,0,0,0,0,-1,825,1499,-1.39664,-6.16155
-392,-475,0.217163,8.61389,0,0,0,0,0,0,0,-1,832,1499,0.217167,-8.6139
-385,-475,1.18372,2.73999,0,0,0,0,0,0,0,-1,839,1499,1.18372,-2.73995
-378,-475,1.31409,2.90149,0,0,0,0,0,0,0,-1,846,1499,1.31411,-2.90151
-371,-475,2.3476,3.31116,0,0,0,0,0,0,0,-1,853,1499,2.34761,-3.31121
-364,-475,1.04462,9.05823,0,0,0,0,0,0,0,-1,860,1499,1.04461,-9.05825
-357,-475,-0.262756,7.97205,0,0,0,0,0,0,0,-1,867,1499,-0.262784,-7.97205
-350,-475,-2.77173,4.35486,0,0,0,0,0,0,0,-1,874,1499,-2.77175,-4.35491
-343,-475,-6.81641,-1.95203,0,0,0,0,0,0,0,-1,881,1499,-6.81643,1.95198
-336,-475,0,0,0,0,0,0,0,0,0,-1,888,1499,0,0
-329,-475,0,0,0,0,0,0,0,0,0,-1,895,1499,0,0
-322,-475,0,0,0,0,0,0,0,0,0,-1,902,1499,0,0
-315,-475,0,0,0,0,0,0,0,0,0,-1,909,1499,0,0
-308,-475,0,0,0,0,0,0,0,0,0,-1,916,1499,0,0
-301,-475,0,0,0,0,0,0,0,0,0,-1,923,1499,0,0
-294,-475,0,0,0,0,0,0,0,0,0,-1,930,1499,0,0
-287,-475,0,0,0,0,0,0,0,0,0,-1,937,1499,0,0
-280,-475,0,0,0,0,0,0,0,0,0,-1,944,1499,0,0
-273,-475,0,0,0,0,0,0,0,0,0,-1,951,1499,0,0
-266,-475,0,0,0,0,0,0,0,0,0,-1,958,1499,0,0
-259,-475,0,0,0,0,0,0,0,0,0,-1,965,1499,0,0
-252,-475,0,0,0,0,0,0,0,0,0,-1,972,1499,0,0
-245,-475,0,0,0,0,0,0,0,0,0,-1,979,1499,0,0
-238,-475,0,0,0,0,0,0,0,0,0,-1,986,1499,0,0
-231,-475,0,0,0,0,0,0,0,0,0,-1,993,1499,0,0
-224,-475,0,0,0,0,0,0,0,0,0,-1,1000,1499,0,0
-217,-475,0,0,0,0,0,0,0,0,0,-1,1007,1499,0,0
-210,-475,0,0,0,0,0,0,0,0,0,-1,1014,1499,0,0
-203,-475,0,0,0,0,0,0,0,0,0,-1,1021,1499,0,0
-196,-475,0,0,0,0,0,0,0,0,0,-1,1028,1499,0,0
-189,-475,0,0,0,0,0,0,0,0,0,-1,1035,1499,0,0
-182,-475,0,0,0,0,0,0,0,0,0,-1,1042,1499,0,0
-175,-475,0,0,0,0,0,0,0,0,0,-1,1049,1499,0,0
-168,-475,0,0,0,0,0,0,0,0,0,-1,1056,1499,0,0
-161,-475,0,0,0,0,0,0,0,0,0,-1,1063,1499,0,0
-154,-475,0,0,0,0,0,0,0,0,0,-1,1070,1499,0,0
-147,-475,0,0,0,0,0,0,0,0,0,-1,1077,1499,0,0
-140,-475,0,0,0,0,0,0,0,0,0,-1,1084,1499,0,0
-133,-475,0,0,0,0,0,0,0,0,0,-1,1091,1499,0,0
-126,-475,0,0,0,0,0,0,0,0,0,-1,1098,1499,0,0
-119,-475,0,0,0,0,0,0,0,0,0,-1,1105,1499,0,0
-112,-475,0,0,0,0,0,0,0,0,0,-1,1112,1499,0,0
-105,-475,0,0,0,0,0,0,0,0,0,-1,1119,1499,0,0
-98,-475,0,0,0,0,0,0,0,0,0,-1,1126,1499,0,0
-91,-475,0,0,0,0,0,0,0,0,0,-1,1133,1499,0,0
-84,-475,0,0,0,0,0,0,0,0,0,-1,1140,1499,0,0
-77,-475,0,0,0,0,0,0,0,0,0,-1,1147,1499,0,0
-70,-475,0,0,0,0,0,0,0,0,0,-1,1154,1499,0,0
-63,-475,0,0,0,0,0,0,0,0,0,-1,1161,1499,0,0
-56,-475,0,0,0,0,0,0,0,0,0,-1,1168,1499,0,0
-49,-475,0,0,0,0,0,0,0,0,0,-1,1175,1499,0,0
-42,-475,0,0,0,0,0,0,0,0,0,-1,1182,1499,0,0
-35,-475,0,0,0,0,0,0,0,0,0,-1,1189,1499,0,0
-28,-475,0,0,0,0,0,0,0,0,0,-1,1196,1499,0,0
-21,-475,0,0,0,0,0,0,0,0,0,-1,1203,1499,0,0
-14,-475,0,0,0,0,0,0,0,0,0,-1,1210,1499,0,0
-7,-475,0,0,0,0,0,0,0,0,0,-1,1217,1499,0,0
0,-475,0,0,0,0,0,0,0,0,0,-1,1224,1499,0,0
7,-475,0,0,0,0,0,0,0,0,0,-1,1231,1499,0,0
14,-475,0,0,0,0,0,0,0,0,0,-1,1238,1499,0,0
21,-475,0,0,0,0,0,0,0,0,0,-1,1245,1499,0,0
28,-475,0,0,0,0,0,0,0,0,0,-1,1252,1499,0,0
35,-475,0,0,0,0,0,0,0,0,0,-1,1259,1499,0,0
42,-475,0,0,0,0,0,0,0,0,0,-1,1266,1499,0,0
49,-475,0,0,0,0,0,0,0,0,0,-1,1273,1499,0,0
56,-475,0,0,0,0,0,0,0,0,0,-1,1280,1499,0,0
63,-475,0,0,0,0,0,0,0,0,0,-1,1287,1499,0,0
70,-475,0,0,0,0,0,0,0,0,0,-1,1294,1499,0,0
77,-475,0,0,0,0,0,0,0,0,0,-1,1301,1499,0,0
84,-475,0,0,0,0,0,0,0,0,0,-1,1308,1499,0,0
91,-475,0,0,0,0,0,0,0,0,0,-1,1315,1499,0,0
98,-475,0,0,0,0,0,0,0,0,0,-1,1322,1499,0,0
105,-475,0,0,0,0,0,0,0,0,0,-1,1329,1499,0,0
112,-475,0,0,0,0,0,0,0,0,0,-1,1336,1499,0,0
119,-475,0,0,0,0,0,0,0,0,0,-1,1343,1499,0,0
126,-475,0,0,0,0,0,0,0,0,0,-1,1350,1499,0,0
133,-475,0,0,0,0,0,0,0,0,0,-1,1357,1499,0,0
140,-475,0,0,0,0,0,0,0,0,0,-1,1364,1499,0,0
147,-475,0,0,0,0,0,0,0,0,0,-1,1371,1499,0,0
154,-475,0,0,0,0,0,0,0,0,0,-1,1378,1499,0,0
161,-475,0,0,0,0,0,0,0,0,0,-1,1385,1499,0,0
168,-475,0,0,0,0,0,0,0,0,0,-1,1392,1499,0,0
175,-475,0,0,0,0,0,0,0,0,0,-1,1399,1499,0,0
182,-475,0,0,0,0,0,0,0,0,0,-1,1406,1499,0,0
189,-475,0,0,0,0,0,0,0,0,0,-1,1413,1499,0,0
196,-475,0,0,0,0,0,0,0,0,0,-1,1420,1499,0,0
203,-475,0,0,0,0,0,0,0,0,0,-1,1427,1499,0,0
210,-475,0,0,0,0,0,0,0,0,0,-1,1434,1499,0,0
217,-475,0,0,0,0,0,0,0,0,0,-1,1441,1499,0,0
224,-475,0,0,0,0,0,0,0,0,0,-1,1448,1499,0,0
231,-475,0,0,0,0,0,0,0,0,0,-1,1455,1499,0,0
238,-475,0,0,0,0,0,0,0,0,0,-1,1462,1499,0,0
245,-475,0,0,0,0,0,0,0,0,0,-1,1469,1499,0,0
252,-475,0,0,0,0,0,0,0,0,0,-1,1476,1499,0,0
259,-475,0,0,0,0,0,0,0,0,0,-1,1483,1499,0,0
266,-475,0,0,0,0,0,0,0,0,0,-1,1490,1499,0,0
273,-475,0,0,0,0,0,0,0,0,0,-1,1497,1499,0,0
280,-475,0,0,0,0,0,0,0,0,0,-1,1504,1499,0,0
287,-475,0,0,0,0,0,0,0,0,0,-1,1511,1499,0,0
294,-475,0,0,0,0,0,0,0,0,0,-1,1518,1499,0,0
301,-475,0,0,0,0,0,0,0,0,0,-1,1525,1499,0,0
308,-475,0,0,0,0,0,0,0,0,0,-1,1532,1499,0,0
315,-475,0,0,0,0,0,0,0,0,0,-1,1539,1499,0,0
322,-475,0,0,0,0,0,0,0,0,0,-1,1546,1499,0,0
329,-475,0,0,0,0,0,0,0,0,0,-1,1553,1499,0,0
336,-475,0,0,0,0,0,0,0,0,0,-1,1560,1499,0,0
343,-475,0,0,0,0,0,0,0,0,0,-1,1567,1499,0,0
350,-475,0,0,0,0,0,0,0,0,0,-1,1574,1499,0,0
357,-475,0,0,0,0,0,0,0,0,0,-1,1581,1499,0,0
364,-475,0,0,0,0,0,0,0,0,0,-1,1588,1499,0,0
371,-475,0,0,0,0,0,0,0,0,0,-1,1595,1499,0,0
378,-475,0,0,0,0,0,0,0,0,0,-1,1602,1499,0,0
385,-475,0,0,0,0,0,0,0,0,0,-1,1609,1499,0,0
392,-475,0,0,0,0,0,0,0,0,0,-1,1616,1499,0,0
399,-475,0,0,0,0,0,0,0,0,0,-1,1623,1499,0,0
406,-475,0,0,0,0,0,0,0,0,0,-1,1630,1499,0,0
413,-475,0,0,0,0,0,0,0,0,0,-1,1637,1499,0,0
420,-475,0,0,0,0,0,0,0,0,0,-1,1644,1499,0,0
427,-475,0,0,0,0,0,0,0,0,0,-1,1651,1499,0,0
434,-475,0,0,0,0,0,0,0,0,0,-1,1658,1499,0,0
441,-475,0,0,0,0,0,0,0,0,0,-1,1665,1499,0,0
448,-475,0,0,0,0,0,0,0,0,0,-1,1672,1499,0,0
455,-475,0,0,0,0,0,0,0,0,0,-1,1679,1499,0,0
462,-475,12.6372,0.275391,0,0,0,0,0,0,0,-1,1686,1499,12.6372,-0.27536
469,-475,15.6437,2.28296,0,0,0,0,0,0,0,-1,1693,1499,15.6437,-2.28293
476,-475,15.3302,2.71436,0,0,0,0,0,0,0,-1,1700,1499,15.3303,-2.7143
483,-475,10.7461,5.91479,0,0,0,0,0,0,0,-1,1707,1499,10.7461,-5.91476
490,-475,11.9305,4.4364,0,0,0,0,0,0,0,-1,1714,1499,11.9305,-4.43644
497,-475,15.3451,4.3479,0,0,0,0,0,0,0,-1,1721,1499,15.3451,-4.34789
504,-475,16.9646,7.71265,0,0,0,0,0,0,0,-1,1728,1499,16.9646,-7.71265
511,-475,18.941,12.7572,0,0,0,0,0,0,0,-1,1735,1499,18.941,-12.7572
518,-475,17.0021,13.8564,0,0,0,0,0,0,0,-1,1742,1499,17.0021,-13.8564
525,-475,17.5637,15.2103,0,0,0,0,0,0,0,-1,1749,1499,17.5637,-15.2103
532,-475,18.4679,17.6262,0,0,0,0,0,0,0,-1,1756,1499,18.4679,-17.6262
539,-475,18.4429,17.4703,-0.00344255,-0.00860884,0.00880495,0.00315035,-0.0152017,0.642715,0.0113315,0.0443618,1763,1499,18.4428,-17.4704
546,-475,18.2734,17.2626,-0.0026329,-0.00653059,0.00671769,0.00241292,-0.0115764,0.644221,0.00863503,0.0424887,1770,1499,18.2735,-17.2626
553,-475,18.275,16.9473,-0.00171316,-0.00463537,0.00483197,0.00187378,-0.00822232,0.638577,0.00620123,0.0277856,1777,1499,18.275,-16.9473
560,-475,18.0205,16.6395,-0.000850658,-0.00310069,0.0032494,0.00146297,-0.00541431,0.618745,0.00418335,0.0218526,1784,1499,18.0205,-16.6396
567,-475,18.163,16.1321,-0.000212487,-0.00174097,0.00196539,0.00113202,-0.00308548,0.599969,0.00252053,0.0146232,1791,1499,18.163,-16.132
574,-475,18.1447,15.7411,0.000270539,-0.000898891,0.00104728,0.00088528,-0.00151363,0.530796,0.00140076,0.0144925,1798,1499,18.1446,-15.741
581,-475,18.1364,15.3663,0.000679857,-0.000381322,0.000303805,0.000760678,-0.000462143,0.260007,0.000712975,0.0118396,1805,1499,18.1364,-15.3664
588,-475,18.1219,14.9568,0.00105658,1.4315e-05,-0.000298983,0.00113625,-6.53605e-05,-0.260436,0.000780201,0.0100205,1812,1499,18.122,-14.9568
595,-475,18.1229,14.5469,0.00163034,0.000216701,-0.000884394,0.00205567,-0.000208621,-0.448267,0.00144501,0.0110885,1819,1499,18.123,-14.5468
602,-475,18.119,14.1218,0.00209521,0.000206228,-0.0012581,0.0027239,-0.000422459,-0.463416,0.00197189,0.013065,1826,1499,18.1191,-14.1218
609,-475,18.0947,13.717,0.00251759,1.73335e-05,-0.00148912,0.00321176,-0.000676837,-0.436212,0.00239883,0.0121876,1833,1499,18.0948,-13.7171
616,-475,18.082,13.3317,0.00304019,-0.00027768,-0.00169854,0.00375552,-0.000993006,-0.398597,0.00289208,0.0108553,1840,1499,18.082,-13.3317
623,-475,18.0765,12.9227,0.00370517,-0.000637249,-0.00186172,0.00439406,-0.00132613,-0.354404,0.00345726,0.0105448,1847,1499,18.0765,-12.9228
630,-475,18.083,12.5149,0.00446412,-0.000956796,-0.00198794,0.00511498,-0.00160766,-0.316406,0.00405357,0.0122209,1854,1499,18.083,-12.5149
637,-475,18.0985,12.0409,0.00541276,-0.00108894,-0.00217986,0.00607597,-0.00175214,-0.295344,0.00474381,0.0242051,1861,1499,18.0985,-12.0409
644,-475,18.1244,11.5997,0,0,0,0,0,0,0,-1,1868,1499,18.1243,-11.5998
651,-475,11.7965,7.57593,0,0,0,0,0,0,0,-1,1875,1499,11.7965,-7.5759
658,-475,14.6708,8.80322,0,0,0,0,0,0,0,-1,1882,1499,14.6708,-8.8032
665,-475,9.33435,5.43335,0,0,0,0,0,0,0,-1,1889,1499,9.33439,-5.43332
672,-475,9.38635,1.10474,0,0,0,0,0,0,0,-1,1896,1499,9.38629,-1.10475
679,-475,12.2594,1.31079,0,0,0,0,0,0,0,-1,1903,1499,12.2594,-1.31077
686,-475,0,0,0,0,0,0,0,0,0,-1,1910,1499,0,0
693,-475,0,0,0,0,0,0,0,0,0,-1,1917,1499,0,0
700,-475,0,0,0,0,0,0,0,0,0,-1,1924,1499,0,0
707,-475,0,0,0,0,0,0,0,0,0,-1,1931,1499,0,0
714,-475,0,0,0,0,0,0,0,0,0,-1,1938,1499,0,0
721,-475,0,0,0,0,0,0,0,0,0,-1,1945,1499,0,0
728,-475,0,0,0,0,0,0,0,0,0,-1,1952,1499,0,0
735,-475,0,0,0,0,0,0,0,0,0,-1,1959,1499,0,0
742,-475,0,0,0,0,0,0,0,0,0,-1,1966,1499,0,0
749,-475,0,0,0,0,0,0,0,0,0,-1,1973,1499,0,0
756,-475,0,0,0,0,0,0,0,0,0,-1,1980,1499,0,0
763,-475,0,0,0,0,0,0,0,0,0,-1,1987,1499,0,0
770,-475,0,0,0,0,0,0,0,0,0,-1,1994,1499,0,0
777,-475,0,0,0,0,0,0,0,0,0,-1,2001,1499,0,0
784,-475,0,0,0,0,0,0,0,0,0,-1,2008,1499,0,0
791,-475,0,0,0,0,0,0,0,0,0,-1,2015,1499,0,0
798,-475,0,0,0,0,0,0,0,0,0,-1,2022,1499,0,0
805,-475,0,0,0,0,0,0,0,0,0,-1,2029,1499,0,0
812,-475,0,0,0,0,0,0,0,0,0,-1,2036,1499,0,0
-700,-482,0,0,0,0,0,0,0,0,0,-1,524,1506,0,0
-693,-482,0,0,0,0,0,0,0,0,0,-1,531,1506,0,0
-686,-482,0,0,0,0,0,0,0,0,0,-1,538,1506,0,0
-679,-482,0,0,0,0,0,0,0,0,0,-1,545,1506,0,0
-672,-482,0,0,0,0,0,0,0,0,0,-1,552,1506,0,0
-665,-482,0,0,0,0,0,0,0,0,0,-1,559,1506,0,0
-658,-482,0,0,0,0,0,0,0,0,0,-1,566,1506,0,0
-651,-482,0,0,0,0,0,0,0,0,0,-1,573,1506,0,0
-644,-482,0,0,0,0,0,0,0,0,0,-1,580,1506,0,0
-637,-482,0,0,0,0,0,0,0,0,0,-1,587,1506,0,0
-630,-482,0,0,0,0,0,0,0,0,0,-1,594,1506,0,0
-623,-482,0,0,0,0,0,0,0,0,0,-1,601,1506,0,0
-616,-482,0,0,0,0,0,0,0,0,0,-1,608,1506,0,0
-609,-482,0,0,0,0,0,0,0,0,0,-1,615,1506,0,0
-602,-482,0,0,0,0,0,0,0,0,0,-1,622,1506,0,0
-595,-482,0,0,0,0,0,0,0,0,0,-1,629,1506,0,0
-588,-482,0,0,0,0,0,0,0,0,0,-1,636,1506,0,0
-581,-482,0,0,0,0,0,0,0,0,0,-1,643,1506,0,0
-574,-482,0,0,0,0,0,0,0,0,0,-1,650,1506,0,0
-567,-482,0,0,0,0,0,0,0,0,0,-1,657,1506,0,0
-560,-482,0,0,0,0,0,0,0,0,0,-1,664,1506,0,0
-553,-482,-9.06055,9.34314,0,0,0,0,0,0,0,-1,671,1506,-9.06056,-9.34312
-546,-482,-4.08624,8.34241,0,0,0,0,0,0,0,-1,678,1506,-4.08624,-8.3424
-539,-482,-4.29877,2.73499,0,0,0,0,0,0,0,-1,685,1506,-4.29879,-2.73494
-532,-482,-3.63611,4.23987,0,0,0,0,0,0,0,-1,692,1506,-3.63609,-4.23983
-525,-482,-6.19116,5.24927,0,0,0,0,0,0,0,-1,699,1506,-6.19117,-5.24927
-518,-482,-5.80792,7.01013,0,0,0,0,0,0,0,-1,706,1506,-5.80795,-7.01017
-511,-482,-4.93817,9.17651,0,0,0,0,0,0,0,-1,713,1506,-4.93819,-9.17657
-504,-482,-4.6701,10.1279,0.0294803,0.0165079,0.0225052,0.0464154,-0.000427155,0.645096,0.0310869,0.0451054,720,1506,-4.6701,-10.128
-497,-482,-4.33649,10.8717,0.0194277,0.00927666,0.0135259,0.028799,-9.46978e-05,0.605906,0.019231,0.037362,727,1506,-4.33651,-10.8717
-490,-482,-4.41858,11.2059,0.012475,0.00470725,0.00767645,0.0171942,-1.19098e-05,0.5512,0.0114668,0.0235383,734,1506,-4.41857,-11.2059
-483,-482,-4.40417,11.6942,0.00785145,0.00207585,0.00405401,0.00994103,-1.37379e-05,0.475921,0.00663194,0.00960087,741,1506,-4.40415,-11.6942
-476,-482,-4.41858,12.1309,0.00487441,0.000702077,0.00196624,0.00565498,-7.84968e-05,0.377907,0.00379643,0.010041,748,1506,-4.41856,-12.1309
-469,-482,-4.42773,12.5835,0.00280728,-0.000290652,0.000574331,0.00291033,-0.0003937,0.177534,0.00208389,0.0108927,755,1506,-4.42776,-12.5835
-462,-482,-4.42462,13.027,0.00183914,-0.000476806,0.000106636,0.00184404,-0.000481706,0.0459148,0.00141748,0.012821,762,1506,-4.4246,-13.0269
-455,-482,-4.44598,13.4504,0.00209029,0.000135165,0.000762703,0.00235263,-0.000127169,0.331278,0.00161248,0.0129897,769,1506,-4.44601,-13.4504
-448,-482,-4.46173,13.8817,0.0026009,0.000830793,0.00153855,0.0034908,-5.91088e-05,0.524387,0.00234715,0.0128565,776,1506,-4.46173,-13.8817
-441,-482,-4.46289,14.3141,0.00369063,0.0016998,0.00271309,0.00558514,-0.000194717,0.609575,0.00379,0.0128474,783,1506,-4.46287,-14.3141
-434,-482,-4.46643,14.7533,0.005065,0.00260434,0.00401886,0.00803764,-0.000368297,0.636858,0.00548531,0.0147923,790,1506,-4.46643,-14.7534
-427,-482,-4.47876,15.2272,0.00663524,0.00355148,0.00535456,0.0106655,-0.000478778,0.645213,0.00727518,0.0176429,797,1506,-4.47875,-15.2272
-420,-482,-4.39893,15.8799,0.00837564,0.00488452,0.00693756,0.0137839,-0.00052371,0.662151,0.0093687,0.04037,804,1506,-4.39892,-15.8798
-413,-482,-4.15051,16.4927,0,0,0,0,0,0,0,-1,811,1506,-4.15048,-16.4926
-406,-482,-2.51373,12.7556,0,0,0,0,0,0,0,-1,818,1506,-2.51376,-12.7556
-399,-482,-1.3822,9.22595,0,0,0,0,0,0,0,-1,825,1506,-1.38221,-9.22598
-392,-482,-1.06836,9.22729,0,0,0,0,0,0,0,-1,832,1506,-1.06835,-9.2273
-385,-482,0.0647583,8.90649,0,0,0,0,0,0,0,-1,839,1506,0.0647778,-8.90644
-378,-482,0.215698,5.96948,0,0,0,0,0,0,0,-1,846,1506,0.215681,-5.9695
-371,-482,-0.10907,8.10437,0,0,0,0,0,0,0,-1,853,1506,-0.109063,-8.10433
-364,-482,-0.154968,10.5032,0,0,0,0,0,0,0,-1,860,1506,-0.154976,-10.5032
-357,-482,2.14807,4.60144,0,0,0,0,0,0,0,-1,867,1506,2.14807,-4.60144
-350,-482,-7.5813,-1.45935,0,0,0,0,0,0,0,-1,874,1506,-7.58133,1.45937
-343,-482,-7.19983,-1.26416,0,0,0,0,0,0,0,-1,881,1506,-7.19981,1.26414
-336,-482,-6.78491,-1.18127,0,0,0,0,0,0,0,-1,888,1506,-6.78488,1.18125
-329,-482,0,0,0,0,0,0,0,0,0,-1,895,1506,0,0
-322,-482,0,0,0,0,0,0,0,0,0,-1,902,1506,0,0
-315,-482,0,0,0,0,0,0,0,0,0,-1,909,1506,0,0
-308,-482,0,0,0,0,0,0,0,0,0,-1,916,1506,0,0
-301,-482,0,0,0,0,0,0,0,0,0,-1,923,1506,0,0
-294,-482,0,0,0,0,0,0,0,0,0,-1,930,1506,0,0
-287,-482,0,0,0,0,0,0,0,0,0,-1,937,1506,0,0
-280,-482,0,0,0,0,0,0,0,0,0,-1,944,1506,0,0
-273,-482,0,0,0,0,0,0,0,0,0,-1,951,1506,0,0
-266,-482,0,0,0,0,0,0,0,0,0,-1,958,1506,0,0
-259,-482,0,0,0,0,0,0,0,0,0,-1,965,1506,0,0
-252,-482,0,0,0,0,0,0,0,0,0,-1,972,1506,0,0
-245,-482,0,0,0,0,0,0,0,0,0,-1,979,1506,0,0
-238,-482,0,0,0,0,0,0,0,0,0,-1,986,1506,0,0
-231,-482,0,0,0,0,0,0,0,0,0,-1,993,1506,0,0
-224,-482,0,0,0,0,0,0,0,0,0,-1,1000,1506,0,0
-217,-482,0,0,0,0,0,0,0,0,0,-1,1007,1506,0,0
-210,-482,0,0,0,0,0,0,0,0,0,-1,1014,1506,0,0
-203,-482,0,0,0,0,0,0,0,0,0,-1,1021,1506,0,0
-196,-482,0,0,0,0,0,0,0,0,0,-1,1028,1506,0,0
-189,-482,0,0,0,0,0,0,0,0,0,-1,1035,1506,0,0
-182,-482,0,0,0,0,0,0,0,0,0,-1,1042,1506,0,0
-175,-482,0,0,0,0,0,0,0,0,0,-1,1049,1506,0,0
-168,-482,0,0,0,0,0,0,0,0,0,-1,1056,1506,0,0
-161,-482,0,0,0,0,0,0,0,0,0,-1,1063,1506,0,0
-154,-482,0,0,0,0,0,0,0,0,0,-1,1070,1506,0,0
-147,-482,0,0,0,0,0,0,0,0,0,-1,1077,1506,0,0
-140,-482,0,0,0,0,0,0,0,0,0,-1,1084,1506,0,0
-133,-482,0,0,0,0,0,0,0,0,0,-1,1091,1506,0,0
-126,-482,0,0,0,0,0,0,0,0,0,-1,1098,1506,0,0
-119,-482,0,0,0,0,0,0,0,0,0,-1,1105,1506,0,0
-112,-482,0,0,0,0,0,0,0,0,0,-1,1112,1506,0,0
-105,-482,0,0,0,0,0,0,0,0,0,-1,1119,1506,0,0
-98,-482,0,0,0,0,0,0,0,0,0,-1,1126,1506,0,0
-91,-482,0,0,0,0,0,0,0,0,0,-1,1133,1506,0,0
-84,-482,0,0,0,0,0,0,0,0,0,-1,1140,1506,0,0
-77,-482,0,0,0,0,0,0,0,0,0,-1,1147,1506,0,0
-70,-482,0,0,0,0,0,0,0,0,0,-1,1154,1506,0,0
-63,-482,0,0,0,0,0,0,0,0,0,-1,1161,1506,0,0
-56,-482,0,0,0,0,0,0,0,0,0,-1,1168,1506,0,0
-49,-482,0,0,0,0,0,0,0,0,0,-1,1175,1506,0,0
-42,-482,0,0,0,0,0,0,0,0,0,-1,1182,1506,0,0
-35,-482,0,0,0,0,0,0,0,0,0,-1,1189,1506,0,0
-28,-482,0,0,0,0,0,0,0,0,0,-1,1196,1506,0,0
-21,-482,0,0,0,0,0,0,0,0,0,-1,1203,1506,0,0
-14,-482,0,0,0,0,0,0,0,0,0,-1,1210,1506,0,0
-7,-482,0,0,0,0,0,0,0,0,0,-1,1217,1506,0,0
0,-482,0,0,0,0,0,0,0,0,0,-1,1224,1506,0,0
7,-482,0,0,0,0,0,0,0,0,0,-1,1231,1506,0,0
14,-482,0,0,0,0,0,0,0,0,0,-1,1238,1506,0,0
21,-482,0,0,0,0,0,0,0,0,0,-1,1245,1506,0,0
28,-482,0,0,0,0,0,0,0,0,0,-1,1252,1506,0,0
35,-482,0,0,0,0,0,0,0,0,0,-1,1259,1506,0,0
42,-482,0,0,0,0,0,0,0,0,0,-1,1266,1506,0,0
49,-482,0,0,0,0,0,0,0,0,0,-1,1273,1506,0,0
56,-482,0,0,0,0,0,0,0,0,0,-1,1280,1506,0,0
63,-482,0,0,0,0,0,0,0,0,0,-1,1287,1506,0,0
70,-482,0,0,0,0,0,0,0,0,0,-1,1294,1506,0,0
77,-482,0,0,0,0,0,0,0,0,0,-1,1301,1506,0,0
84,-482,0,0,0,0,0,0,0,0,0,-1,1308,1506,0,0
91,-482,0,0,0,0,0,0,0,0,0,-1,1315,1506,0,0
98,-482,0,0,0,0,0,0,0,0,0,-1,1322,1506,0,0
105,-482,0,0,0,0,0,0,0,0,0,-1,1329,1506,0,0
112,-482,0,0,0,0,0,0,0,0,0,-1,1336,1506,0,0
119,-482,0,0,0,0,0,0,0,0,0,-1,1343,1506,0,0
126,-482,0,0,0,0,0,0,0,0,0,-1,1350,1506,0,0
133,-482,0,0,0,0,0,0,0,0,0,-1,1357,1506,0,0
140,-482,0,0,0,0,0,0,0,0,0,-1,1364,1506,0,0
147,-482,0,0,0,0,0,0,0,0,0,-1,1371,1506,0,0
154,-482,0,0,0,0,0,0,0,0,0,-1,1378,1506,0,0
161,-482,0,0,0,0,0,0,0,0,0,-1,1385,1506,0,0
168,-482,0,0,0,0,0,0,0,0,0,-1,1392,1506,0,0
175,-482,0,0,0,0,0,0,0,0,0,-1,1399,1506,0,0
182,-482,0,0,0,0,0,0,0,0,0,-1,1406,1506,0,0
189,-482,0,0,0,0,0,0,0,0,0,-1,1413,1506,0,0
196,-482,0,0,0,0,0,0,0,0,0,-1,1420,1506,0,0
203,-482,0,0,0,0,0,0,0,0,0,-1,1427,1506,0,0
210,-482,0,0,0,0,0,0,0,0,0,-1,1434,1506,0,0
217,-482,0,0,0,0,0,0,0,0,0,-1,1441,1506,0,0
224,-482,0,0,0,0,0,0,0,0,0,-1,1448,1506,0,0
231,-482,0,0,0,0,0,0,0,0,0,-1,1455,1506,0,0
238,-482,0,0,0,0,0,0,0,0,0,-1,1462,1506,0,0
245,-482,0,0,0,0,0,0,0,0,0,-1,1469,1506,0,0
252,-482,0,0,0,0,0,0,0,0,0,-1,1476,1506,0,0
259,-482,0,0,0,0,0,0,0,0,0,-1,1483,1506,0,0
266,-482,0,0,0,0,0,0,0,0,0,-1,1490,1506,0,0
273,-482,0,0,0,0,0,0,0,0,0,-1,1497,1506,0,0
280,-482,0,0,0,0,0,0,0,0,0,-1,1504,1506,0,0
287,-482,0,0,0,0,0,0,0,0,0,-1,1511,1506,0,0
294,-482,0,0,0,0,0,0,0,0,0,-1,1518,1506,0,0
301,-482,0,0,0,0,0,0,0,0,0,-1,1525,1506,0,0
308,-482,0,0,0,0,0,0,0,0,0,-1,1532,1506,0,0
315,-482,0,0,0,0,0,0,0,0,0,-1,1539,1506,0,0
322,-482,0,0,0,0,0,0,0,0,0,-1,1546,1506,0,0
329,-482,0,0,0,0,0,0,0,0,0,-1,1553,1506,0,0
336,-482,0,0,0,0,0,0,0,0,0,-1,1560,1506,0,0
343,-482,0,0,0,0,0,0,0,0,0,-1,1567,1506,0,0
350,-482,0,0,0,0,0,0,0,0,0,-1,1574,1506,0,0
357,-482,0,0,0,0,0,0,0,0,0,-1,1581,1506,0,0
364,-482,0,0,0,0,0,0,0,0,0,-1,1588,1506,0,0
371,-482,0,0,0,0,0,0,0,0,0,-1,1595,1506,0,0
378,-482,0,0,0,0,0,0,0,0,0,-1,1602,1506,0,0
385,-482,0,0,0,0,0,0,0,0,0,-1,1609,1506,0,0
392,-482,0,0,0,0,0,0,0,0,0,-1,1616,1506,0,0
399,-482,0,0,0,0,0,0,0,0,0,-1,1623,1506,0,0
406,-482,0,0,0,0,0,0,0,0,0,-1,1630,1506,0,0
413,-482,0,0,0,0,0,0,0,0,0,-1,1637,1506,0,0
420,-482,0,0,0,0,0,0,0,0,0,-1,1644,1506,0,0
427,-482,0,0,0,0,0,0,0,0,0,-1,1651,1506,0,0
434,-482,0,0,0,0,0,0,0,0,0,-1,1658,1506,0,0
441,-482,0,0,0,0,0,0,0,0,0,-1,1665,1506,0,0
448,-482,4.24146,1.55383,0,0,0,0,0,0,0,-1,1672,1506,4.24149,-1.55381
455,-482,12.4122,1.09729,0,0,0,0,0,0,0,-1,1679,1506,12.4122,-1.09734
462,-482,15.0673,3.13135,0,0,0,0,0,0,0,-1,1686,1506,15.0672,-3.13134
469,-482,15.3793,3.46301,0,0,0,0,0,0,0,-1,1693,1506,15.3793,-3.46307
476,-482,8.69751,9.18738,0,0,0,0,0,0,0,-1,1700,1506,8.69753,-9.18739
483,-482,10.0902,7.17432,0,0,0,0,0,0,0,-1,1707,1506,10.0902,-7.1743
490,-482,11.6289,5.4928,0,0,0,0,0,0,0,-1,1714,1506,11.6289,-5.49283
497,-482,15.9539,7.40222,0,0,0,0,0,0,0,-1,1721,1506,15.9538,-7.40219
504,-482,20.4233,12.006,0,0,0,0,0,0,0,-1,1728,1506,20.4233,-12.006
511,-482,18.4937,12.9175,0,0,0,0,0,0,0,-1,1735,1506,18.4936,-12.9174
518,-482,16.6002,13.9679,0,0,0,0,0,0,0,-1,1742,1506,16.6003,-13.9679
525,-482,18.495,15.9618,0,0,0,0,0,0,0,-1,1749,1506,18.495,-15.9618
532,-482,18.2516,16.8448,0,0,0,0,0,0,0,-1,1756,1506,18.2516,-16.8448
539,-482,17.8412,17.6079,-0.00160637,-0.00587686,0.00636682,0.00297372,-0.0104569,0.623607,0.00814553,0.037576,1763,1506,17.8412,-17.6079
546,-482,17.8094,17.4048,-0.00133571,-0.00467625,0.00503741,0.00230112,-0.00831308,0.625315,0.00644746,0.0226524,1770,1506,17.8094,-17.4048
553,-482,17.7208,16.9371,-0.000853667,-0.00344683,0.00371761,0.00178698,-0.00608747,0.61761,0.00476696,0.0200747,1777,1506,17.7208,-16.9371
560,-482,17.7028,16.5641,-0.000330772,-0.0023905,0.00255099,0.00139039,-0.00411166,0.593547,0.00330359,0.0139201,1784,1506,17.7028,-16.5641
567,-482,17.7687,16.1367,0.000127989,-0.00142871,0.00153975,0.00107494,-0.00237566,0.551377,0.00203884,0.0151722,1791,1506,17.7686,-16.1367
574,-482,17.7452,15.7745,0.000565003,-0.000757465,0.000699302,0.00086619,-0.00105865,0.406685,0.00111316,0.0137116,1798,1506,17.7452,-15.7746
581,-482,17.7303,15.38,0.000957373,-0.000367896,4.54537e-06,0.000957388,-0.000367912,0.00342972,0.000789989,0.00973554,1805,1506,17.7304,-15.38
588,-482,17.7125,14.9668,0.00137192,-2.31244e-05,-0.000612347,0.00160257,-0.000253776,-0.360233,0.00116224,0.0107083,1812,1506,17.7125,-14.9668
595,-482,17.7124,14.5415,0.00200198,0.000129334,-0.00121412,0.00259888,-0.000467569,-0.456934,0.00190764,0.0168712,1819,1506,17.7124,-14.5414
602,-482,17.7397,14.1106,0.00256363,0.000100611,-0.00167841,0.00341387,-0.000749631,-0.468893,0.00256261,0.0217811,1826,1506,17.7397,-14.1107
609,-482,17.7078,13.7245,0.00311477,-0.000108736,-0.00204602,0.00410762,-0.00110159,-0.451785,0.00317007,0.0165984,1833,1506,17.7078,-13.7245
616,-482,17.6777,13.3313,0.00382,-0.000398028,-0.00240202,0.00490749,-0.00148552,-0.425131,0.00386324,0.0111731,1840,1506,17.6777,-13.3313
623,-482,17.6571,12.9403,0.00472489,-0.000750401,-0.00273918,0.00585994,-0.00188545,-0.392839,0.00466393,0.0130005,1847,1506,17.6571,-12.9403
630,-482,17.7047,12.5509,0.00573012,-0.00104119,-0.00304685,0.00689924,-0.00221031,-0.366388,0.00548673,0.0256072,1854,1506,17.7047,-12.5508
637,-482,17.7474,12.0055,0,0,0,0,0,0,0,-1,1861,1506,17.7475,-12.0055
644,-482,17.5909,11.6163,0,0,0,0,0,0,0,-1,1868,1506,17.5909,-11.6163
651,-482,4.03845,7.05273,0,0,0,0,0,0,0,-1,1875,1506,4.03843,-7.05279
658,-482,10.0278,5.87903,0,0,0,0,0,0,0,-1,1882,1506,10.0279,-5.87902
665,-482,8.15198,3.22229,0,0,0,0,0,0,0,-1,1889,1506,8.15199,-3.22232
672,-482,9.87415,1.3147,0,0,0,0,0,0,0,-1,1896,1506,9.87416,-1.31473
679,-482,0,0,0,0,0,0,0,0,0,-1,1903,1506,0,0
686,-482,0,0,0,0,0,0,0,0,0,-1,1910,1506,0,0
693,-482,0,0,0,0,0,0,0,0,0,-1,1917,1506,0,0
700,-482,0,0,0,0,0,0,0,0,0,-1,1924,1506,0,0
707,-482,0,0,0,0,0,0,0,0,0,-1,1931,1506,0,0
714,-482,0,0,0,0,0,0,0,0,0,-1,1938,1506,0,0
721,-482,0,0,0,0,0,0,0,0,0,-1,1945,1506,0,0
728,-482,0,0,0,0,0,0,0,0,0,-1,1952,1506,0,0
735,-482,0,0,0,0,0,0,0,0,0,-1,1959,1506,0,0
742,-482,0,0,0,0,0,0,0,0,0,-1,1966,1506,0,0
749,-482,0,0,0,0,0,0,0,0,0,-1,1973,1506,0,0
756,-482,0,0,0,0,0,0,0,0,0,-1,1980,1506,0,0
763,-482,0,0,0,0,0,0,0,0,0,-1,1987,1506,0,0
770,-482,0,0,0,0,0,0,0,0,0,-1,1994,1506,0,0
777,-482,0,0,0,0,0,0,0,0,0,-1,2001,1506,0,0
784,-482,0,0,0,0,0,0,0,0,0,-1,2008,1506,0,0
791,-482,0,0,0,0,0,0,0,0,0,-1,2015,1506,0,0
798,-482,0,0,0,0,0,0,0,0,0,-1,2022,1506,0,0
805,-482,0,0,0,0,0,0,0,0,0,-1,2029,1506,0,0
812,-482,0,0,0,0,0,0,0,0,0,-1,2036,1506,0,0
-700,-489,0,0,0,0,0,0,0,0,0,-1,524,1513,0,0
-693,-489,0,0,0,0,0,0,0,0,0,-1,531,1513,0,0
-686,-489,0,0,0,0,0,0,0,0,0,-1,538,1513,0,0
-679,-489,0,0,0,0,0,0,0,0,0,-1,545,1513,0,0
-672,-489,0,0,0,0,0,0,0,0,0,-1,552,1513,0,0
-665,-489,0,0,0,0,0,0,0,0,0,-1,559,1513,0,0
-658,-489,0,0,0,0,0,0,0,0,0,-1,566,1513,0,0
-651,-489,0,0,0,0,0,0,0,0,0,-1,573,1513,0,0
-644,-489,0,0,0,0,0,0,0,0,0,-1,580,1513,0,0
-637,-489,0,0,0,0,0,0,0,0,0,-1,587,1513,0,0
-630,-489,0,0,0,0,0,0,0,0,0,-1,594,1513,0,0
-623,-489,0,0,0,0,0,0,0,0,0,-1,601,1513,0,0
-616,-489,0,0,0,0,0,0,0,0,0,-1,608,1513,0,0
-609,-489,0,0,0,0,0,0,0,0,0,-1,615,1513,0,0
-602,-489,0,0,0,0,0,0,0,0,0,-1,622,1513,0,0
-595,-489,0,0,0,0,0,0,0,0,0,-1,629,1513,0,0
-588,-489,0,0,0,0,0,0,0,0,0,-1,636,1513,0,0
-581,-489,0,0,0,0,0,0,0,0,0,-1,643,1513,0,0
-574,-489,0,0,0,0,0,0,0,0,0,-1,650,1513,0,0
-567,-489,0,0,0,0,0,0,0,0,0,-1,657,1513,0,0
-560,-489,0,0,0,0,0,0,0,0,0,-1,664,1513,0,0
-553,-489,-9.42206,8.5116,0,0,0,0,0,0,0,-1,671,1513,-9.42205,-8.51158
-546,-489,-7.80951,8.18506,0,0,0,0,0,0,0,-1,678,1513,-7.8095,-8.18503
-539,-489,-3.06879,2.82349,0,0,0,0,0,0,0,-1,685,1513,-3.06881,-2.82354
-532,-489,-3.14215,2.5835,0,0,0,0,0,0,0,-1,692,1513,-3.14213,-2.58353
-525,-489,-2.604,4.06274,0,0,0,0,0,0,0,-1,699,1513,-2.60399,-4.06274
-518,-489,-6.14227,6.17578,0,0,0,0,0,0,0,-1,706,1513,-6.14224,-6.1758
-511,-489,-4.77051,9.25623,0,0,0,0,0,0,0,-1,713,1513,-4.77051,-9.25619
-504,-489,-4.5069,9.96692,0.0322617,0.0166614,0.0230969,0.04884,8.31001e-05,0.622553,0.0325323,0.0497606,720,1513,-4.50688,-9.96697
-497,-489,-3.8551,10.8466,0.0207303,0.0089004,0.013309,0.0293796,0.000251142,0.576291,0.0195032,0.0471251,727,1513,-3.85509,-10.8465
-490,-489,-3.86469,11.2843,0.0128551,0.00409724,0.00708264,0.0168032,0.000149178,0.508529,0.0111527,0.0323138,734,1513,-3.86466,-11.2843
-483,-489,-3.99097,11.6548,0.00769857,0.00141689,0.0033295,0.00913489,-1.94414e-05,0.407274,0.00609642,0.0149891,741,1513,-3.99099,-11.6548
-476,-489,-3.99072,12.1321,0.00436953,5.12604e-05,0.00120405,0.00468256,-0.000261771,0.254351,0.00321252,0.00960222,748,1513,-3.99071,-12.1321
-469,-489,-4.00525,12.5851,0.00207929,-0.000889395,-0.000177037,0.00208981,-0.000899916,-0.0593545,0.0017711,0.00998927,755,1513,-4.00525,-12.5851
-462,-489,-4.00873,13.0363,0.000971595,-0.00109814,-0.000659762,0.00116402,-0.00129056,-0.283781,0.00141778,0.0155378,762,1513,-4.00876,-13.0363
-455,-489,-4.02026,13.4747,0.00112539,-0.000493881,-9.6025e-06,0.00112545,-0.000493938,-0.00592985,0.000958357,0.0186262,769,1513,-4.02026,-13.4748
-448,-489,-4.02893,13.8828,0.00147109,0.000139661,0.00066688,0.00174767,-0.000136911,0.393136,0.00121332,0.0157217,776,1513,-4.02893,-13.8828
-441,-489,-4.00891,14.3136,0.00245712,0.000993568,0.00178265,0.00365235,-0.000201662,0.590636,0.00250483,0.0146348,783,1513,-4.00888,-14.3136
-434,-489,-4.04822,14.7653,0.0037553,0.00196489,0.00304449,0.00603346,-0.000313276,0.642408,0.0041307,0.0171145,790,1513,-4.04821,-14.7653
-427,-489,-4.09125,15.2318,0.00523448,0.00302531,0.00433688,0.00860523,-0.000345438,0.660701,0.00585536,0.0190421,797,1513,-4.09127,-15.2319
-420,-489,-4.11072,15.7717,0.0068597,0.00436735,0.00579405,0.0115401,-0.000313027,0.679472,0.00779982,0.0223002,804,1513,-4.11073,-15.7718
-413,-489,-4.07062,16.3573,0,0,0,0,0,0,0,-1,811,1513,-4.07063,-16.3573
-406,-489,-3.10559,15.8143,0,0,0,0,0,0,0,-1,818,1513,-3.10556,-15.8143
-399,-489,-1.41241,9.10718,0,0,0,0,0,0,0,-1,825,1513,-1.41244,-9.10722
-392,-489,-1.0368,9.30469,0,0,0,0,0,0,0,-1,832,1513,-1.03682,-9.30466
-385,-489,-1.75165,10.6559,0,0,0,0,0,0,0,-1,839,1513,-1.75165,-10.6559
-378,-489,-0.401428,9.87048,0,0,0,0,0,0,0,-1,846,1513,-0.401415,-9.87047
-371,-489,-1.11633,10.6606,0,0,0,0,0,0,0,-1,853,1513,-1.11633,-10.6606
-364,-489,-0.503113,8.98486,0,0,0,0,0,0,0,-1,860,1513,-0.503097,-8.98482
-357,-489,-0.609924,10.9606,0,0,0,0,0,0,0,-1,867,1513,-0.609947,-10.9605
-350,-489,-7.94659,-0.358887,0,0,0,0,0,0,0,-1,874,1513,-7.94657,0.358912
-343,-489,-7.49323,-0.437866,0,0,0,0,0,0,0,-1,881,1513,-7.49322,0.437823
-336,-489,-7.02332,-0.53125,0,0,0,0,0,0,0,-1,888,1513,-7.0233,0.531295
-329,-489,-6.70221,-0.242432,0,0,0,0,0,0,0,-1,895,1513,-6.70221,0.2424
-322,-489,0,0,0,0,0,0,0,0,0,-1,902,1513,0,0
-315,-489,0,0,0,0,0,0,0,0,0,-1,909,1513,0,0
-308,-489,0,0,0,0,0,0,0,0,0,-1,916,1513,0,0
-301,-489,0,0,0,0,0,0,0,0,0,-1,923,1513,0,0
-294,-489,0,0,0,0,0,0,0,0,0,-1,930,1513,0,0
-287,-489,0,0,0,0,0,0,0,0,0,-1,937,1513,0,0
-280,-489,0,0,0,0,0,0,0,0,0,-1,944,1513,0,0
-273,-489,0,0,0,0,0,0,0,0,0,-1,951,1513,0,0
-266,-489,0,0,0,0,0,0,0,0,0,-1,958,1513,0,0
-259,-489,0,0,0,0,0,0,0,0,0,-1,965,1513,0,0
-252,-489,0,0,0,0,0,0,0,0,0,-1,972,1513,0,0
-245,-489,0,0,0,0,0,0,0,0,0,-1,979,1513,0,0
-238,-489,0,0,0,0,0,0,0,0,0,-1,986,1513,0,0
-231,-489,0,0,0,0,0,0,0,0,0,-1,993,1513,0,0
-224,-489,0,0,0,0,0,0,0,0,0,-1,1000,1513,0,0
-217,-489,0,0,0,0,0,0,0,0,0,-1,1007,1513,0,0
-210,-489,0,0,0,0,0,0,0,0,0,-1,1014,1513,0,0
-203,-489,0,0,0,0,0,0,0,0,0,-1,1021,1513,0,0
-196,-489,0,0,0,0,0,0,0,0,0,-1,1028,1513,0,0
-189,-489,0,0,0,0,0,0,0,0,0,-1,1035,1513,0,0
-182,-489,0,0,0,0,0,0,0,0,0,-1,1042,1513,0,0
-175,-489,0,0,0,0,0,0,0,0,0,-1,1049,1513,0,0
-168,-489,0,0,0,0,0,0,0,0,0,-1,1056,1513,0,0
-161,-489,0,0,0,0,0,0,0,0,0,-1,1063,1513,0,0
-154,-489,0,0,0,0,0,0,0,0,0,-1,1070,1513,0,0
-147,-489,0,0,0,0,0,0,0,0,0,-1,1077,1513,0,0
-140,-489,0,0,0,0,0,0,0,0,0,-1,1084,1513,0,0
-133,-489,0,0,0,0,0,0,0,0,0,-1,1091,1513,0,0
-126,-489,0,0,0,0,0,0,0,0,0,-1,1098,1513,0,0
-119,-489,0,0,0,0,0,0,0,0,0,-1,1105,1513,0,0
-112,-489,0,0,0,0,0,0,0,0,0,-1,1112,1513,0,0
-105,-489,0,0,0,0,0,0,0,0,0,-1,1119,1513,0,0
-98,-489,0,0,0,0,0,0,0,0,0,-1,1126,1513,0,0
-91,-489,0,0,0,0,0,0,0,0,0,-1,1133,1513,0,0
-84,-489,0,0,0,0,0,0,0,0,0,-1,1140,1513,0,0
-77,-489,0,0,0,0,0,0,0,0,0,-1,1147,1513,0,0
-70,-489,0,0,0,0,0,0,0,0,0,-1,1154,1513,0,0
-63,-489,0,0,0,0,0,0,0,0,0,-1,1161,1513,0,0
-56,-489,0,0,0,0,0,0,0,0,0,-1,1168,1513,0,0
-49,-489,0,0,0,0,0,0,0,0,0,-1,1175,1513,0,0
-42,-489,0,0,0,0,0,0,0,0,0,-1,1182,1513,0,0
-35,-489,0,0,0,0,0,0,0,0,0,-1,1189,1513,0,0
-28,-489,0,0,0,0,0,0,0,0,0,-1,1196,1513,0,0
-21,-489,0,0,0,0,0,0,0,0,0,-1,1203,1513,0,0
-14,-489,0,0,0,0,0,0,0,0,0,-1,1210,1513,0,0
-7,-489,0,0,0,0,0,0,0,0,0,-1,1217,1513,0,0
0,-489,0,0,0,0,0,0,0,0,0,-1,1224,1513,0,0
7,-489,0,0,0,0,0,0,0,0,0,-1,1231,1513,0,0
14,-489,0,0,0,0,0,0,0,0,0,-1,1238,1513,0,0
21,-489,0,0,0,0,0,0,0,0,0,-1,1245,1513,0,0
28,-489,0,0,0,0,0,0,0,0,0,-1,1252,1513,0,0
35,-489,0,0,0,0,0,0,0,0,0,-1,1259,1513,0,0
42,-489,0,0,0,0,0,0,0,0,0,-1,1266,1513,0,0
49,-489,0,0,0,0,0,0,0,0,0,-1,1273,1513,0,0
56,-489,0,0,0,0,0,0,0,0,0,-1,1280,1513,0,0
63,-489,0,0,0,0,0,0,0,0,0,-1,1287,1513,0,0
70,-489,0,0,0,0,0,0,0,0,0,-1,1294,1513,0,0
77,-489,0,0,0,0,0,0,0,0,0,-1,1301,1513,0,0
84,-489,0,0,0,0,0,0,0,0,0,-1,1308,1513,0,0
91,-489,0,0,0,0,0,0,0,0,0,-1,1315,1513,0,0
98,-489,0,0,0,0,0,0,0,0,0,-1,1322,1513,0,0
105,-489,0,0,0,0,0,0,0,0,0,-1,1329,1513,0,0
112,-489,0,0,0,0,0,0,0,0,0,-1,1336,1513,0,0
119,-489,0,0,0,0,0,0,0,0,0,-1,1343,1513,0,0
126,-489,0,0,0,0,0,0,0,0,0,-1,1350,1513,0,0
133,-489,0,0,0,0,0,0,0,0,0,-1,1357,1513,0,0
140,-489,0,0,0,0,0,0,0,0,0,-1,1364,1513,0,0
147,-489,0,0,0,0,0,0,0,0,0,-1,1371,1513,0,0
154,-489,0,0,0,0,0,0,0,0,0,-1,1378,1513,0,0
161,-489,0,0,0,0,0,0,0,0,0,-1,1385,1513,0,0
168,-489,0,0,0,0,0,0,0,0,0,-1,1392,1513,0,0
175,-489,0,0,0,0,0,0,0,0,0,-1,1399,1513,0,0
182,-489,0,0,0,0,0,0,0,0,0,-1,1406,1513,0,0
189,-489,0,0,0,0,0,0,0,0,0,-1,1413,1513,0,0
196,-489,0,0,0,0,0,0,0,0,0,-1,1420,1513,0,0
203,-489,0,0,0,0,0,0,0,0,0,-1,1427,1513,0,0
210,-489,0,0,0,0,0,0,0,0,0,-1,1434,1513,0,0
217,-489,0,0,0,0,0,0,0,0,0,-1,1441,1513,0,0
224,-489,0,0,0,0,0,0,0,0,0,-1,1448,1513,0,0
231,-489,0,0,0,0,0,0,0,0,0,-1,1455,1513,0,0
238,-489,0,0,0,0,0,0,0,0,0,-1,1462,1513,0,0
245,-489,0,0,0,0,0,0,0,0,0,-1,1469,1513,0,0
252,-489,0,0,0,0,0,0,0,0,0,-1,1476,1513,0,0
259,-489,0,0,0,0,0,0,0,0,0,-1,1483,1513,0,0
266,-489,0,0,0,0,0,0,0,0,0,-1,1490,1513,0,0
273,-489,0,0,0,0,0,0,0,0,0,-1,1497,1513,0,0
280,-489,0,0,0,0,0,0,0,0,0,-1,1504,1513,0,0
287,-489,0,0,0,0,0,0,0,0,0,-1,1511,1513,0,0
294,-489,0,0,0,0,0,0,0,0,0,-1,1518,1513,0,0
301,-489,0,0,0,0,0,0,0,0,0,-1,1525,1513,0,0
308,-489,0,0,0,0,0,0,0,0,0,-1,1532,1513,0,0
315,-489,0,0,0,0,0,0,0,0,0,-1,1539,1513,0,0
322,-489,0,0,0,0,0,0,0,0,0,-1,1546,1513,0,0
329,-489,0,0,0,0,0,0,0,0,0,-1,1553,1513,0,0
336,-489,0,0,0,0,0,0,0,0,0,-1,1560,1513,0,0
343,-489,0,0,0,0,0,0,0,0,0,-1,1567,1513,0,0
350,-489,0,0,0,0,0,0,0,0,0,-1,1574,1513,0,0
357,-489,0,0,0,0,0,0,0,0,0,-1,1581,1513,0,0
364,-489,0,0,0,0,0,0,0,0,0,-1,1588,1513,0,0
371,-489,0,0,0,0,0,0,0,0,0,-1,1595,1513,0,0
378,-489,0,0,0,0,0,0,0,0,0,-1,1602,1513,0,0
385,-489,0,0,0,0,0,0,0,0,0,-1,1609,1513,0,0
392,-489,0,0,0,0,0,0,0,0,0,-1,1616,1513,0,0
399,-489,0,0,0,0,0,0,0,0,0,-1,1623,1513,0,0
406,-489,0,0,0,0,0,0,0,0,0,-1,1630,1513,0,0
413,-489,0,0,0,0,0,0,0,0,0,-1,1637,1513,0,0
420,-489,0,0,0,0,0,0,0,0,0,-1,1644,1513,0,0
427,-489,0,0,0,0,0,0,0,0,0,-1,1651,1513,0,0
434,-489,0,0,0,0,0,0,0,0,0,-1,1658,1513,0,0
441,-489,11.4602,2.56787,0,0,0,0,0,0,0,-1,1665,1513,11.4602,-2.56786
448,-489,12.4425,1.72351,0,0,0,0,0,0,0,-1,1672,1513,12.4425,-1.72349
455,-489,12.5575,1.37463,0,0,0,0,0,0,0,-1,1679,1513,12.5575,-1.37469
462,-489,14.9784,3.84888,0,0,0,0,0,0,0,-1,1686,1513,14.9784,-3.84892
469,-489,15.1367,4.53101,0,0,0,0,0,0,0,-1,1693,1513,15.1368,-4.531
476,-489,15.5536,5.09338,0,0,0,0,0,0,0,-1,1700,1513,15.5536,-5.09339
483,-489,8.96912,8.37805,0,0,0,0,0,0,0,-1,1707,1513,8.96909,-8.37809
490,-489,10.5366,7.49561,0,0,0,0,0,0,0,-1,1714,1513,10.5367,-7.49558
497,-489,14.6051,11.8397,0,0,0,0,0,0,0,-1,1721,1513,14.6051,-11.8397
504,-489,16.7527,14.1735,0,0,0,0,0,0,0,-1,1728,1513,16.7527,-14.1735
511,-489,17.83,17.7993,0,0,0,0,0,0,0,-1,1735,1513,17.83,-17.7993
518,-489,16.4751,14.3682,0,0,0,0,0,0,0,-1,1742,1513,16.4751,-14.3682
525,-489,17.2606,17.4949,0,0,0,0,0,0,0,-1,1749,1513,17.2606,-17.4949
532,-489,17.2607,18.1918,0,0,0,0,0,0,0,-1,1756,1513,17.2607,-18.1917
539,-489,17.429,17.7175,-0.000249,-0.00370758,0.00432764,0.00268206,-0.00663864,0.595321,0.00554057,0.024602,1763,1513,17.4289,-17.7175
546,-489,17.3242,17.4816,-0.000322349,-0.00308044,0.00354009,0.00209782,-0.0055006,0.599665,0.00453121,0.0169405,1770,1513,17.3243,-17.4816
553,-489,17.306,17.02,-0.000121405,-0.00235981,0.00266487,0.00164974,-0.00413096,0.586591,0.00343844,0.0151363,1777,1513,17.306,-17.02
560,-489,17.3352,16.5616,0.000190862,-0.00166775,0.00183622,0.00131954,-0.00279643,0.551141,0.00242681,0.0134154,1784,1513,17.3352,-16.5616
567,-489,17.3666,16.1621,0.000552464,-0.00104456,0.00106141,0.00108219,-0.00157428,0.462908,0.00154246,0.0149629,1791,1513,17.3666,-16.1621
574,-489,17.3047,15.8049,0.000999547,-0.000527573,0.000288286,0.00105216,-0.000580183,0.180505,0.000955473,0.0143287,1798,1513,17.3047,-15.805
581,-489,17.3209,15.4032,0.00141899,-0.000260226,-0.000362055,0.00149373,-0.000334962,-0.203563,0.00112423,0.0103796,1805,1513,17.321,-15.4032
588,-489,17.324,14.9939,0.00190788,1.64719e-05,-0.000997307,0.00233658,-0.000412225,-0.405975,0.00171175,0.0128332,1812,1513,17.324,-14.9939
595,-489,17.3164,14.5712,0.00261401,0.000103006,-0.00162044,0.00340841,-0.000691393,-0.455808,0.00253437,0.0198062,1819,1513,17.3164,-14.5711
602,-489,17.3275,14.1586,0.00329435,3.89382e-05,-0.0021897,0.00439506,-0.00106177,-0.465784,0.00334068,0.0263606,1826,1513,17.3275,-14.1586
609,-489,17.3033,13.7478,0.00400661,-0.000202571,-0.00274066,0.00535752,-0.00155348,-0.457964,0.00418671,0.0176386,1833,1513,17.3034,-13.7478
616,-489,17.2968,13.3315,0.00493588,-0.000477794,-0.0033218,0.00651405,-0.00205597,-0.443527,0.00516624,0.0146658,1840,1513,17.2968,-13.3316
623,-489,17.2739,12.9166,0.00612936,-0.000795178,-0.00394205,0.00791371,-0.00257953,-0.425052,0.00631381,0.0280481,1847,1513,17.274,-12.9166
630,-489,17.2651,12.3936,0,0,0,0,0,0,0,-1,1854,1513,17.2652,-12.3935
637,-489,17.2048,11.8091,0,0,0,0,0,0,0,-1,1861,1513,17.2048,-11.8091
644,-489,9.67578,8.45874,0,0,0,0,0,0,0,-1,1868,1513,9.67576,-8.45879
651,-489,6.13818,6.85095,0,0,0,0,0,0,0,-1,1875,1513,6.13823,-6.85097
658,-489,5.43848,7.75513,0,0,0,0,0,0,0,-1,1882,1513,5.43844,-7.75509
665,-489,5.48438,8.59912,0,0,0,0,0,0,0,-1,1889,1513,5.48434,-8.59907
672,-489,0,0,0,0,0,0,0,0,0,-1,1896,1513,0,0
679,-489,0,0,0,0,0,0,0,0,0,-1,1903,1513,0,0
686,-489,0,0,0,0,0,0,0,0,0,-1,1910,1513,0,0
693,-489,0,0,0,0,0,0,0,0,0,-1,1917,1513,0,0
700,-489,0,0,0,0,0,0,0,0,0,-1,1924,1513,0,0
707,-489,0,0,0,0,0,0,0,0,0,-1,1931,1513,0,0
714,-489,0,0,0,0,0,0,0,0,0,-1,1938,1513,0,0
721,-489,0,0,0,0,0,0,0,0,0,-1,1945,1513,0,0
728,-489,0,0,0,0,0,0,0,0,0,-1,1952,1513,0,0
735,-489,0,0,0,0,0,0,0,0,0,-1,1959,1513,0,0
742,-489,0,0,0,0,0,0,0,0,0,-1,1966,1513,0,0
749,-489,0,0,0,0,0,0,0,0,0,-1,1973,1513,0,0
756,-489,0,0,0,0,0,0,0,0,0,-1,1980,1513,0,0
763,-489,0,0,0,0,0,0,0,0,0,-1,1987,1513,0,0
770,-489,0,0,0,0,0,0,0,0,0,-1,1994,1513,0,0
777,-489,0,0,0,0,0,0,0,0,0,-1,2001,1513,0,0
784,-489,0,0,0,0,0,0,0,0,0,-1,2008,1513,0,0
791,-489,0,0,0,0,0,0,0,0,0,-1,2015,1513,0,0
798,-489,0,0,0,0,0,0,0,0,0,-1,2022,1513,0,0
805,-489,0,0,0,0,0,0,0,0,0,-1,2029,1513,0,0
812,-489,0,0,0,0,0,0,0,0,0,-1,2036,1513,0,0
-700,-496,0,0,0,0,0,0,0,0,0,-1,524,1520,0,0
-693,-496,0,0,0,0,0,0,0,0,0,-1,531,1520,0,0
-686,-496,0,0,0,0,0,0,0,0,0,-1,538,1520,0,0
-679,-496,0,0,0,0,0,0,0,0,0,-1,545,1520,0,0
-672,-496,0,0,0,0,0,0,0,0,0,-1,552,1520,0,0
-665,-496,0,0,0,0,0,0,0,0,0,-1,559,1520,0,0
-658,-496,0,0,0,0,0,0,0,0,0,-1,566,1520,0,0
-651,-496,0,0,0,0,0,0,0,0,0,-1,573,1520,0,0
-644,-496,0,0,0,0,0,0,0,0,0,-1,580,1520,0,0
-637,-496,0,0,0,0,0,0,0,0,0,-1,587,1520,0,0
-630,-496,0,0,0,0,0,0,0,0,0,-1,594,1520,0,0
-623,-496,0,0,0,0,0,0,0,0,0,-1,601,1520,0,0
-616,-496,0,0,0,0,0,0,0,0,0,-1,608,1520,0,0
-609,-496,0,0,0,0,0,0,0,0,0,-1,615,1520,0,0
-602,-496,0,0,0,0,0,0,0,0,0,-1,622,1520,0,0
-595,-496,0,0,0,0,0,0,0,0,0,-1,629,1520,0,0
-588,-496,0,0,0,0,0,0,0,0,0,-1,636,1520,0,0
-581,-496,0,0,0,0,0,0,0,0,0,-1,643,1520,0,0
-574,-496,0,0,0,0,0,0,0,0,0,-1,650,1520,0,0
-567,-496,0,0,0,0,0,0,0,0,0,-1,657,1520,0,0
-560,-496,0,0,0,0,0,0,0,0,0,-1,664,1520,0,0
-553,-496,0,0,0,0,0,0,0,0,0,-1,671,1520,0,0
-546,-496,-8.09711,7.94836,0,0,0,0,0,0,0,-1,678,1520,-8.09712,-7.94842
-539,-496,-3.20129,1.16052,0,0,0,0,0,0,0,-1,685,1520,-3.20131,-1.16054
-532,-496,-2.98279,2.62146,0,0,0,0,0,0,0,-1,692,1520,-2.98278,-2.62151
-525,-496,-2.75201,4.08032,0,0,0,0,0,0,0,-1,699,1520,-2.75201,-4.08031
-518,-496,-2.6333,5.36072,0,0,0,0,0,0,0,-1,706,1520,-2.63328,-5.36077
-511,-496,-2.539,7.88379,0,0,0,0,0,0,0,-1,713,1520,-2.53901,-7.88385
-504,-496,-4.37549,9.67712,0,0,0,0,0,0,0,-1,720,1520,-4.37549,-9.67709
-497,-496,-3.4267,10.851,0,0,0,0,0,0,0,-1,727,1520,-3.42668,-10.8509
-490,-496,-3.53253,11.5637,0.0129872,0.00347283,0.00620616,0.0160496,0.000410343,0.458402,0.0105656,0.0421534,734,1520,-3.53252,-11.5637
-483,-496,-3.48224,11.7896,0.00745025,0.000874445,0.00251073,0.00829926,2.54335e-05,0.326083,0.00552438,0.0251763,741,1520,-3.48227,-11.7896
-476,-496,-3.55688,12.147,0.00390335,-0.000385535,0.000494852,0.0039597,-0.000441891,0.113395,0.00279875,0.0126625,748,1520,-3.55689,-12.1469
-469,-496,-3.5791,12.6091,0.00150401,-0.00119736,-0.00076076,0.00170352,-0.00139687,-0.256476,0.00179293,0.0100687,755,1520,-3.5791,-12.6092
-462,-496,-3.5921,13.0541,0.000347074,-0.00137084,-0.00116365,0.000934457,-0.00195822,-0.46746,0.0017046,0.0150145,762,1520,-3.59212,-13.0541
-455,-496,-3.59363,13.4977,0.000426442,-0.000772441,-0.00049509,0.000604461,-0.00095046,-0.345173,0.000905112,0.0195561,769,1520,-3.59364,-13.4977
-448,-496,-3.57593,13.9315,0.0006239,-0.000216434,9.80496e-05,0.000635189,-0.000227723,0.114628,0.000516385,0.0176128,776,1520,-3.57593,-13.9316
-441,-496,-3.57111,14.3516,0.00148713,0.000573302,0.00112714,0.00224645,-0.000186017,0.592833,0.00156333,0.014053,783,1520,-3.57108,-14.3515
-434,-496,-3.6131,14.7863,0.00265706,0.00152738,0.00229224,0.00445303,-0.000268591,0.664599,0.00306215,0.0133904,790,1520,-3.6131,-14.7863
-427,-496,-3.64807,15.2462,0.00398163,0.00260401,0.00348424,0.0068445,-0.000258854,0.68781,0.00465169,0.0172848,797,1520,-3.64805,-15.2462
-420,-496,-3.64514,15.6582,0.00542762,0.00383664,0.00475353,0.00945176,-0.000187505,0.702493,0.0063646,0.0184952,804,1520,-3.64512,-15.6582
-413,-496,-3.58063,16.1355,0.00704607,0.00558915,0.00637679,0.0127359,-0.000100654,0.728527,0.00852433,0.0251852,811,1520,-3.58065,-16.1355
-406,-496,-3.46021,16.788,0,0,0,0,0,0,0,-1,818,1520,-3.46021,-16.7879
-399,-496,-3.13202,17.4875,0,0,0,0,0,0,0,-1,825,1520,-3.13201,-17.4876
-392,-496,-1.49786,12.387,0,0,0,0,0,0,0,-1,832,1520,-1.49788,-12.387
-385,-496,-1.72437,11.4985,0,0,0,0,0,0,0,-1,839,1520,-1.72436,-11.4985
-378,-496,-1.45532,14.0719,0,0,0,0,0,0,0,-1,846,1520,-1.45533,-14.0719
-371,-496,0.0877075,12.5299,0,0,0,0,0,0,0,-1,853,1520,0.0876896,-12.5299
-364,-496,0.0881348,10.6422,0,0,0,0,0,0,0,-1,860,1520,0.0881368,-10.6423
-357,-496,0.323792,7.56812,0,0,0,0,0,0,0,-1,867,1520,0.323782,-7.56806
-350,-496,2.1535,7.18945,0,0,0,0,0,0,0,-1,874,1520,2.15348,-7.1894
-343,-496,-7.56244,0.335327,0,0,0,0,0,0,0,-1,881,1520,-7.56242,-0.335322
-336,-496,-3.99249,6.02222,0,0,0,0,0,0,0,-1,888,1520,-3.99246,-6.0222
-329,-496,-6.93689,-0.100342,0,0,0,0,0,0,0,-1,895,1520,-6.93686,0.1003
-322,-496,-6.17505,0.494385,0,0,0,0,0,0,0,-1,902,1520,-6.17507,-0.49437
-315,-496,-6.23718,4.75281,0,0,0,0,0,0,0,-1,909,1520,-6.23721,-4.7528
-308,-496,0,0,0,0,0,0,0,0,0,-1,916,1520,0,0
-301,-496,0,0,0,0,0,0,0,0,0,-1,923,1520,0,0
-294,-496,0,0,0,0,0,0,0,0,0,-1,930,1520,0,0
-287,-496,0,0,0,0,0,0,0,0,0,-1,937,1520,0,0
-280,-496,0,0,0,0,0,0,0,0,0,-1,944,1520,0,0
-273,-496,0,0,0,0,0,0,0,0,0,-1,951,1520,0,0
-266,-496,0,0,0,0,0,0,0,0,0,-1,958,1520,0,0
-259,-496,0,0,0,0,0,0,0,0,0,-1,965,1520,0,0
-252,-496,0,0,0,0,0,0,0,0,0,-1,972,1520,0,0
-245,-496,0,0,0,0,0,0,0,0,0,-1,979,1520,0,0
-238,-496,0,0,0,0,0,0,0,0,0,-1,986,1520,0,0
-231,-496,0,0,0,0,0,0,0,0,0,-1,993,1520,0,0
-224,-496,0,0,0,0,0,0,0,0,0,-1,1000,1520,0,0
-217,-496,0,0,0,0,0,0,0,0,0,-1,1007,1520,0,0
-210,-496,0,0,0,0,0,0,0,0,0,-1,1014,1520,0,0
-203,-496,0,0,0,0,0,0,0,0,0,-1,1021,1520,0,0
-196,-496,0,0,0,0,0,0,0,0,0,-1,1028,1520,0,0
-189,-496,0,0,0,0,0,0,0,0,0,-1,1035,1520,0,0
-182,-496,0,0,0,0,0,0,0,0,0,-1,1042,1520,0,0
-175,-496,0,0,0,0,0,0,0,0,0,-1,1049,1520,0,0
-168,-496,0,0,0,0,0,0,0,0,0,-1,1056,1520,0,0
-161,-496,0,0,0,0,0,0,0,0,0,-1,1063,1520,0,0
-154,-496,0,0,0,0,0,0,0,0,0,-1,1070,1520,0,0
-147,-496,0,0,0,0,0,0,0,0,0,-1,1077,1520,0,0
-140,-496,0,0,0,0,0,0,0,0,0,-1,1084,1520,0,0
-133,-496,0,0,0,0,0,0,0,0,0,-1,1091,1520,0,0
-126,-496,0,0,0,0,0,0,0,0,0,-1,1098,1520,0,0
-119,-496,0,0,0,0,0,0,0,0,0,-1,1105,1520,0,0
-112,-496,0,0,0,0,0,0,0,0,0,-1,1112,1520,0,0
-105,-496,0,0,0,0,0,0,0,0,0,-1,1119,1520,0,0
-98,-496,0,0,0,0,0,0,0,0,0,-1,1126,1520,0,0
-91,-496,0,0,0,0,0,0,0,0,0,-1,1133,1520,0,0
-84,-496,0,0,0,0,0,0,0,0,0,-1,1140,1520,0,0
-77,-496,0,0,0,0,0,0,0,0,0,-1,1147,1520,0,0
-70,-496,0,0,0,0,0,0,0,0,0,-1,1154,1520,0,0
-63,-496,0,0,0,0,0,0,0,0,0,-1,1161,1520,0,0
-56,-496,0,0,0,0,0,0,0,0,0,-1,1168,1520,0,0
-49,-496,0,0,0,0,0,0,0,0,0,-1,1175,1520,0,0
-42,-496,0,0,0,0,0,0,0,0,0,-1,1182,1520,0,0
-35,-496,0,0,0,0,0,0,0,0,0,-1,1189,1520,0,0
-28,-496,0,0,0,0,0,0,0,0,0,-1,1196,1520,0,0
-21,-496,0,0,0,0,0,0,0,0,0,-1,1203,1520,0,0
-14,-496,0,0,0,0,0,0,0,0,0,-1,1210,1520,0,0
-7,-496,0,0,0,0,0,0,0,0,0,-1,1217,1520,0,0
0,-496,0,0,0,0,0,0,0,0,0,-1,1224,1520,0,0
7,-496,0,0,0,0,0,0,0,0,0,-1,1231,1520,0,0
14,-496,0,0,0,0,0,0,0,0,0,-1,1238,1520,0,0
21,-496,0,0,0,0,0,0,0,0,0,-1,1245,1520,0,0
28,-496,0,0,0,0,0,0,0,0,0,-1,1252,1520,0,0
35,-496,0,0,0,0,0,0,0,0,0,-1,1259,1520,0,0
42,-496,0,0,0,0,0,0,0,0,0,-1,1266,1520,0,0
49,-496,0,0,0,0,0,0,0,0,0,-1,1273,1520,0,0
56,-496,0,0,0,0,0,0,0,0,0,-1,1280,1520,0,0
63,-496,0,0,0,0,0,0,0,0,0,-1,1287,1520,0,0
70,-496,0,0,0,0,0,0,0,0,0,-1,1294,1520,0,0
77,-496,0,0,0,0,0,0,0,0,0,-1,1301,1520,0,0
84,-496,0,0,0,0,0,0,0,0,0,-1,1308,1520,0,0
91,-496,0,0,0,0,0,0,0,0,0,-1,1315,1520,0,0
98,-496,0,0,0,0,0,0,0,0,0,-1,1322,1520,0,0
105,-496,0,0,0,0,0,0,0,0,0,-1,1329,1520,0,0
112,-496,0,0,0,0,0,0,0,0,0,-1,1336,1520,0,0
119,-496,0,0,0,0,0,0,0,0,0,-1,1343,1520,0,0
126,-496,0,0,0,0,0,0,0,0,0,-1,1350,1520,0,0
133,-496,0,0,0,0,0,0,0,0,0,-1,1357,1520,0,0
140,-496,0,0,0,0,0,0,0,0,0,-1,1364,1520,0,0
147,-496,0,0,0,0,0,0,0,0,0,-1,1371,1520,0,0
154,-496,0,0,0,0,0,0,0,0,0,-1,1378,1520,0,0
161,-496,0,0,0,0,0,0,0,0,0,-1,1385,1520,0,0
168,-496,0,0,0,0,0,0,0,0,0,-1,1392,1520,0,0
175,-496,0,0,0,0,0,0,0,0,0,-1,1399,1520,0,0
182,-496,0,0,0,0,0,0,0,0,0,-1,1406,1520,0,0
189,-496,0,0,0,0,0,0,0,0,0,-1,1413,1520,0,0
196,-496,0,0,0,0,0,0,0,0,0,-1,1420,1520,0,0
203,-496,0,0,0,0,0,0,0,0,0,-1,1427,1520,0,0
210,-496,0,0,0,0,0,0,0,0,0,-1,1434,1520,0,0
217,-496,0,0,0,0,0,0,0,0,0,-1,1441,1520,0,0
224,-496,0,0,0,0,0,0,0,0,0,-1,1448,1520,0,0
231,-496,0,0,0,0,0,0,0,0,0,-1,1455,1520,0,0
238,-496,0,0,0,0,0,0,0,0,0,-1,1462,1520,0,0
245,-496,0,0,0,0,0,0,0,0,0,-1,1469,1520,0,0
252,-496,0,0,0,0,0,0,0,0,0,-1,1476,1520,0,0
259,-496,0,0,0,0,0,0,0,0,0,-1,1483,1520,0,0
266,-496,0,0,0,0,0,0,0,0,0,-1,1490,1520,0,0
273,-496,0,0,0,0,0,0,0,0,0,-1,1497,1520,0,0
280,-496,0,0,0,0,0,0,0,0,0,-1,1504,1520,0,0
287,-496,0,0,0,0,0,0,0,0,0,-1,1511,1520,0,0
294,-496,0,0,0,0,0,0,0,0,0,-1,1518,1520,0,0
301,-496,0,0,0,0,0,0,0,0,0,-1,1525,1520,0,0
308,-496,0,0,0,0,0,0,0,0,0,-1,1532,1520,0,0
315,-496,0,0,0,0,0,0,0,0,0,-1,1539,1520,0,0
322,-496,0,0,0,0,0,0,0,0,0,-1,1546,1520,0,0
329,-496,0,0,0,0,0,0,0,0,0,-1,1553,1520,0,0
336,-496,0,0,0,0,0,0,0,0,0,-1,1560,1520,0,0
343,-496,0,0,0,0,0,0,0,0,0,-1,1567,1520,0,0
350,-496,0,0,0,0,0,0,0,0,0,-1,1574,1520,0,0
357,-496,0,0,0,0,0,0,0,0,0,-1,1581,1520,0,0
364,-496,0,0,0,0,0,0,0,0,0,-1,1588,1520,0,0
371,-496,0,0,0,0,0,0,0,0,0,-1,1595,1520,0,0
378,-496,0,0,0,0,0,0,0,0,0,-1,1602,1520,0,0
385,-496,0,0,0,0,0,0,0,0,0,-1,1609,1520,0,0
392,-496,0,0,0,0,0,0,0,0,0,-1,1616,1520,0,0
399,-496,0,0,0,0,0,0,0,0,0,-1,1623,1520,0,0
406,-496,0,0,0,0,0,0,0,0,0,-1,1630,1520,0,0
413,-496,0,0,0,0,0,0,0,0,0,-1,1637,1520,0,0
420,-496,0,0,0,0,0,0,0,0,0,-1,1644,1520,0,0
427,-496,0,0,0,0,0,0,0,0,0,-1,1651,1520,0,0
434,-496,11.0457,3.37732,0,0,0,0,0,0,0,-1,1658,1520,11.0456,-3.37736
441,-496,11.788,2.75488,0,0,0,0,0,0,0,-1,1665,1520,11.7879,-2.75485
448,-496,12.2146,2.18494,0,0,0,0,0,0,0,-1,1672,1520,12.2146,-2.18489
455,-496,12.3489,1.65173,0,0,0,0,0,0,0,-1,1679,1520,12.3489,-1.65178
462,-496,12.1912,1.32361,0,0,0,0,0,0,0,-1,1686,1520,12.1911,-1.32357
469,-496,14.8138,5.77954,0,0,0,0,0,0,0,-1,1693,1520,14.8138,-5.77958
476,-496,15.2449,6.27942,0,0,0,0,0,0,0,-1,1700,1520,15.2449,-6.27936
483,-496,9.19812,6.88367,0,0,0,0,0,0,0,-1,1707,1520,9.19812,-6.88361
490,-496,10.2123,7.97144,0,0,0,0,0,0,0,-1,1714,1520,10.2122,-7.97145
497,-496,13.9297,12.2981,0,0,0,0,0,0,0,-1,1721,1520,13.9297,-12.2982
504,-496,16.3271,16.6501,0,0,0,0,0,0,0,-1,1728,1520,16.3272,-16.6502
511,-496,17.6753,18.0685,0,0,0,0,0,0,0,-1,1735,1520,17.6753,-18.0685
518,-496,17.0537,17.3118,0,0,0,0,0,0,0,-1,1742,1520,17.0538,-17.3118
525,-496,16.4733,18.4662,0,0,0,0,0,0,0,-1,1749,1520,16.4733,-18.4662
532,-496,16.9023,18.1411,0.00137853,-0.00232431,0.00321196,0.00323446,-0.00418024,0.52395,0.00429247,0.0492131,1756,1520,16.9024,-18.1411
539,-496,16.959,17.8392,0.000741978,-0.00211121,0.00280732,0.00246438,-0.00383362,0.550317,0.00366468,0.0213627,1763,1520,16.959,-17.8392
546,-496,16.9001,17.42,0.000487492,-0.00184691,0.00235019,0.00194436,-0.00330378,0.55492,0.00306371,0.0126039,1770,1520,16.9001,-17.42
553,-496,16.9401,16.9882,0.000507434,-0.00146922,0.00176029,0.00153787,-0.00249965,0.5296,0.00235301,0.0156976,1777,1520,16.9401,-16.9882
560,-496,16.9619,16.5872,0.000674615,-0.00102968,0.00115532,0.00125806,-0.00161312,0.467644,0.00166189,0.014876,1784,1520,16.9619,-16.5872
567,-496,16.9586,16.1736,0.000974908,-0.000670208,0.000549017,0.0011413,-0.0008366,0.294273,0.00114645,0.0121456,1791,1520,16.9586,-16.1736
574,-496,16.9218,15.7814,0.00145226,-0.000267352,-0.000195389,0.00147418,-0.000289273,-0.111727,0.00109206,0.0119804,1798,1520,16.9218,-15.7813
581,-496,16.9088,15.4272,0.00191509,-8.47476e-05,-0.000830179,0.0022148,-0.000384458,-0.346457,0.00161996,0.0127032,1805,1520,16.9089,-15.4272
588,-496,16.9286,15.0424,0.00249913,0.000141325,-0.00150918,0.00323528,-0.000594829,-0.453827,0.00238004,0.0146657,1812,1520,16.9286,-15.0424
595,-496,16.9158,14.6222,0.00330276,0.000179302,-0.00218016,0.00442284,-0.000940775,-0.474595,0.00330706,0.0167695,1819,1520,16.9158,-14.6222
602,-496,16.9033,14.1858,0.00414927,0.000100406,-0.00289571,0.00565804,-0.00140836,-0.480333,0.00431871,0.0189448,1826,1520,16.9033,-14.1857
609,-496,16.9121,13.7539,0.00512037,-0.000146867,-0.00370829,0.00703509,-0.00206159,-0.47663,0.00550741,0.0159222,1833,1520,16.9121,-13.7539
616,-496,16.9528,13.2814,0.00640334,-0.000375387,-0.00461769,0.00874205,-0.0027141,-0.468809,0.00691268,0.0269907,1840,1520,16.9527,-13.2814
623,-496,16.8546,12.9066,0.00805818,-0.000632196,-0.00566581,0.0108532,-0.00342718,-0.458279,0.00860832,0.0440916,1847,1520,16.8546,-12.9066
630,-496,16.932,12.4685,0,0,0,0,0,0,0,-1,1854,1520,16.932,-12.4685
637,-496,14.6411,10.1016,0,0,0,0,0,0,0,-1,1861,1520,14.6411,-10.1016
644,-496,12.4537,10.087,0,0,0,0,0,0,0,-1,1868,1520,12.4537,-10.0871
651,-496,8.18506,5.47803,0,0,0,0,0,0,0,-1,1875,1520,8.18505,-5.47806
658,-496,7.79993,4.02563,0,0,0,0,0,0,0,-1,1882,1520,7.79997,-4.02568
665,-496,5.47583,7.90625,0,0,0,0,0,0,0,-1,1889,1520,5.47581,-7.90628
672,-496,0,0,0,0,0,0,0,0,0,-1,1896,1520,0,0
679,-496,0,0,0,0,0,0,0,0,0,-1,1903,1520,0,0
686,-496,0,0,0,0,0,0,0,0,0,-1,1910,1520,0,0
693,-496,0,0,0,0,0,0,0,0,0,-1,1917,1520,0,0
700,-496,0,0,0,0,0,0,0,0,0,-1,1924,1520,0,0
707,-496,0,0,0,0,0,0,0,0,0,-1,1931,1520,0,0
714,-496,0,0,0,0,0,0,0,0,0,-1,1938,1520,0,0
721,-496,0,0,0,0,0,0,0,0,0,-1,1945,1520,0,0
728,-496,0,0,0,0,0,0,0,0,0,-1,1952,1520,0,0
735,-496,0,0,0,0,0,0,0,0,0,-1,1959,1520,0,0
742,-496,0,0,0,0,0,0,0,0,0,-1,1966,1520,0,0
749,-496,0,0,0,0,0,0,0,0,0,-1,1973,1520,0,0
756,-496,0,0,0,0,0,0,0,0,0,-1,1980,1520,0,0
763,-496,0,0,0,0,0,0,0,0,0,-1,1987,1520,0,0
770,-496,0,0,0,0,0,0,0,0,0,-1,1994,1520,0,0
777,-496,0,0,0,0,0,0,0,0,0,-1,2001,1520,0,0
784,-496,0,0,0,0,0,0,0,0,0,-1,2008,1520,0,0
791,-496,0,0,0,0,0,0,0,0,0,-1,2015,1520,0,0
798,-496,0,0,0,0,0,0,0,0,0,-1,2022,1520,0,0
805,-496,0,0,0,0,0,0,0,0,0,-1,2029,1520,0,0
812,-496,0,0,0,0,0,0,0,0,0,-1,2036,1520,0,0
-700,-503,0,0,0,0,0,0,0,0,0,-1,524,1527,0,0
-693,-503,0,0,0,0,0,0,0,0,0,-1,531,1527,0,0
-686,-503,0,0,0,0,0,0,0,0,0,-1,538,1527,0,0
-679,-503,0,0,0,0,0,0,0,0,0,-1,545,1527,0,0
-672,-503,0,0,0,0,0,0,0,0,0,-1,552,1527,0,0
-665,-503,0,0,0,0,0,0,0,0,0,-1,559,1527,0,0
-658,-503,0,0,0,0,0,0,0,0,0,-1,566,1527,0,0
-651,-503,0,0,0,0,0,0,0,0,0,-1,573,1527,0,0
-644,-503,0,0,0,0,0,0,0,0,0,-1,580,1527,0,0
-637,-503,0,0,0,0,0,0,0,0,0,-1,587,1527,0,0
-630,-503,0,0,0,0,0,0,0,0,0,-1,594,1527,0,0
-623,-503,0,0,0,0,0,0,0,0,0,-1,601,1527,0,0
-616,-503,0,0,0,0,0,0,0,0,0,-1,608,1527,0,0
-609,-503,0,0,0,0,0,0,0,0,0,-1,615,1527,0,0
-602,-503,0,0,0,0,0,0,0,0,0,-1,622,1527,0,0
-595,-503,0,0,0,0,0,0,0,0,0,-1,629,1527,0,0
-588,-503,0,0,0,0,0,0,0,0,0,-1,636,1527,0,0
-581,-503,0,0,0,0,0,0,0,0,0,-1,643,1527,0,0
-574,-503,0,0,0,0,0,0,0,0,0,-1,650,1527,0,0
-567,-503,0,0,0,0,0,0,0,0,0,-1,657,1527,0,0
-560,-503,0,0,0,0,0,0,0,0,0,-1,664,1527,0,0
-553,-503,0,0,0,0,0,0,0,0,0,-1,671,1527,0,0
-546,-503,0,0,0,0,0,0,0,0,0,-1,678,1527,0,0
-539,-503,3.50177,4.26428,0,0,0,0,0,0,0,-1,685,1527,3.50177,-4.26424
-532,-503,-3.13196,1.05298,0,0,0,0,0,0,0,-1,692,1527,-3.13194,-1.05299
-525,-503,-2.94293,2.59314,0,0,0,0,0,0,0,-1,699,1527,-2.94296,-2.59314
-518,-503,-2.7395,4.05872,0,0,0,0,0,0,0,-1,706,1527,-2.73948,-4.05871
-511,-503,-2.46967,5.46399,0,0,0,0,0,0,0,-1,713,1527,-2.46967,-5.46394
-504,-503,-1.99615,9.11853,0,0,0,0,0,0,0,-1,720,1527,-1.99617,-9.11856
-497,-503,-3.14594,11.4833,0,0,0,0,0,0,0,-1,727,1527,-3.14592,-11.4833
-490,-503,-2.97491,11.7112,0.0124491,0.00289984,0.00518228,0.0147209,0.000627966,0.41316,0.00961147,0.0484543,734,1527,-2.97494,-11.7112
-483,-503,-2.96863,11.9608,0.0067734,0.000568623,0.00183259,0.00727424,6.77879e-05,0.266778,0.00482705,0.0433952,741,1527,-2.96864,-11.9608
-476,-503,-3.04102,12.2355,0.00323004,-0.000487914,0.000137728,0.00323514,-0.000493009,0.0369765,0.00233848,0.0225434,748,1527,-3.04099,-12.2354
-469,-503,-3.12579,12.6227,0.000920741,-0.00110837,-0.00083409,0.00121959,-0.00140722,-0.344043,0.00151788,0.0103829,755,1527,-3.1258,-12.6227
-462,-503,-3.14923,13.093,-0.000143793,-0.0012355,-0.00108048,0.000520886,-0.00190018,-0.5515,0.00147147,0.0119293,762,1527,-3.14923,-13.093
-455,-503,-3.14758,13.5464,-5.27483e-05,-0.000675626,-0.0003889,0.000134047,-0.000862421,-0.447778,0.000624444,0.017225,769,1527,-3.14759,-13.5464
-448,-503,-3.11279,13.9685,7.71069e-05,-0.000235661,0.000101267,0.000107032,-0.000265586,0.287327,0.000221528,0.0152616,776,1527,-3.11281,-13.9685
-441,-503,-3.13306,14.3898,0.000853396,0.000427595,0.000968127,0.00163176,-0.000350765,0.677166,0.00122166,0.0124951,783,1527,-3.13303,-14.3897
-434,-503,-3.1792,14.8,0.00189411,0.00128004,0.00193178,0.0035431,-0.00036895,0.706588,0.00249416,0.0102864,790,1527,-3.17917,-14.8
-427,-503,-3.20557,15.2275,0.00304525,0.00228509,0.00289982,0.00558979,-0.000259449,0.720234,0.00381595,0.0164833,797,1527,-3.20557,-15.2276
-420,-503,-3.18799,15.6105,0.00428538,0.00335325,0.00386463,0.00771195,-7.33184e-05,0.725389,0.00516591,0.0183078,804,1527,-3.188,-15.6105
-413,-503,-3.19067,16.0763,0.00561626,0.00485757,0.00503914,0.0102903,0.000183517,0.747829,0.00679986,0.0156818,811,1527,-3.19066,-16.0763
-406,-503,-3.19305,16.5255,0.0069154,0.00681384,0.00653377,0.0133986,0.000330649,0.781512,0.00882424,0.0228295,818,1527,-3.19305,-16.5256
-399,-503,-3.05359,17.1357,0.00843777,0.00941121,0.00825444,0.0171933,0.000655714,0.814846,0.01125,0.0362367,825,1527,-3.05359,-17.1357
-392,-503,-2.79993,17.8966,0,0,0,0,0,0,0,-1,832,1527,-2.79993,-17.8966
-385,-503,-2.00403,14.1218,0,0,0,0,0,0,0,-1,839,1527,-2.00403,-14.1218
-378,-503,-2.07043,13.8632,0,0,0,0,0,0,0,-1,846,1527,-2.07043,-13.8631
-371,-503,-1.67285,13.8081,0,0,0,0,0,0,0,-1,853,1527,-1.67285,-13.8081
-364,-503,0.181396,12.3768,0,0,0,0,0,0,0,-1,860,1527,0.18138,-12.3768
-357,-503,0.558533,9.25452,0,0,0,0,0,0,0,-1,867,1527,0.558542,-9.25446
-350,-503,0.219971,6.84827,0,0,0,0,0,0,0,-1,874,1527,0.21996,-6.84831
-343,-503,-3.5802,4.43274,0,0,0,0,0,0,0,-1,881,1527,-3.58018,-4.43276
-336,-503,-3.2384,6.40637,0,0,0,0,0,0,0,-1,888,1527,-3.2384,-6.40643
-329,-503,-1.70691,11.886,0,0,0,0,0,0,0,-1,895,1527,-1.70689,-11.886
-322,-503,-3.31317,8.81519,0,0,0,0,0,0,0,-1,902,1527,-3.31315,-8.81524
-315,-503,-3.90265,7.73853,0,0,0,0,0,0,0,-1,909,1527,-3.90264,-7.73854
-308,-503,-1.70264,7.35413,0,0,0,0,0,0,0,-1,916,1527,-1.70262,-7.35416
-301,-503,0,0,0,0,0,0,0,0,0,-1,923,1527,0,0
-294,-503,0,0,0,0,0,0,0,0,0,-1,930,1527,0,0
-287,-503,0,0,0,0,0,0,0,0,0,-1,937,1527,0,0
-280,-503,0,0,0,0,0,0,0,0,0,-1,944,1527,0,0
-273,-503,0,0,0,0,0,0,0,0,0,-1,951,1527,0,0
-266,-503,0,0,0,0,0,0,0,0,0,-1,958,1527,0,0
-259,-503,0,0,0,0,0,0,0,0,0,-1,965,1527,0,0
-252,-503,0,0,0,0,0,0,0,0,0,-1,972,1527,0,0
-245,-503,0,0,0,0,0,0,0,0,0,-1,979,1527,0,0
-238,-503,0,0,0,0,0,0,0,0,0,-1,986,1527,0,0
-231,-503,0,0,0,0,0,0,0,0,0,-1,993,1527,0,0
-224,-503,0,0,0,0,0,0,0,0,0,-1,1000,1527,0,0
-217,-503,0,0,0,0,0,0,0,0,0,-1,1007,1527,0,0
-210,-503,0,0,0,0,0,0,0,0,0,-1,1014,1527,0,0
-203,-503,0,0,0,0,0,0,0,0,0,-1,1021,1527,0,0
-196,-503,0,0,0,0,0,0,0,0,0,-1,1028,1527,0,0
-189,-503,0,0,0,0,0,0,0,0,0,-1,1035,1527,0,0
-182,-503,0,0,0,0,0,0,0,0,0,-1,1042,1527,0,0
-175,-503,0,0,0,0,0,0,0,0,0,-1,1049,1527,0,0
-168,-503,0,0,0,0,0,0,0,0,0,-1,1056,1527,0,0
-161,-503,0,0,0,0,0,0,0,0,0,-1,1063,1527,0,0
-154,-503,0,0,0,0,0,0,0,0,0,-1,1070,1527,0,0
-147,-503,0,0,0,0,0,0,0,0,0,-1,1077,1527,0,0
-140,-503,0,0,0,0,0,0,0,0,0,-1,1084,1527,0,0
-133,-503,0,0,0,0,0,0,0,0,0,-1,1091,1527,0,0
-126,-503,0,0,0,0,0,0,0,0,0,-1,1098,1527,0,0
-119,-503,0,0,0,0,0,0,0,0,0,-1,1105,1527,0,0
-112,-503,0,0,0,0,0,0,0,0,0,-1,1112,1527,0,0
-105,-503,0,0,0,0,0,0,0,0,0,-1,1119,1527,0,0
-98,-503,0,0,0,0,0,0,0,0,0,-1,1126,1527,0,0
-91,-503,0,0,0,0,0,0,0,0,0,-1,1133,1527,0,0
-84,-503,0,0,0,0,0,0,0,0,0,-1,1140,1527,0,0
-77,-503,0,0,0,0,0,0,0,0,0,-1,1147,1527,0,0
-70,-503,0,0,0,0,0,0,0,0,0,-1,1154,1527,0,0
-63,-503,0,0,0,0,0,0,0,0,0,-1,1161,1527,0,0
-56,-503,0,0,0,0,0,0,0,0,0,-1,1168,1527,0,0
-49,-503,0,0,0,0,0,0,0,0,0,-1,1175,1527,0,0
-42,-503,0,0,0,0,0,0,0,0,0,-1,1182,1527,0,0
-35,-503,0,0,0,0,0,0,0,0,0,-1,1189,1527,0,0
-28,-503,0,0,0,0,0,0,0,0,0,-1,1196,1527,0,0
-21,-503,0,0,0,0,0,0,0,0,0,-1,1203,1527,0,0
-14,-503,0,0,0,0,0,0,0,0,0,-1,1210,1527,0,0
-7,-503,0,0,0,0,0,0,0,0,0,-1,1217,1527,0,0
0,-503,0,0,0,0,0,0,0,0,0,-1,1224,1527,0,0
7,-503,0,0,0,0,0,0,0,0,0,-1,1231,1527,0,0
14,-503,0,0,0,0,0,0,0,0,0,-1,1238,1527,0,0
21,-503,0,0,0,0,0,0,0,0,0,-1,1245,1527,0,0
28,-503,0,0,0,0,0,0,0,0,0,-1,1252,1527,0,0
35,-503,0,0,0,0,0,0,0,0,0,-1,1259,1527,0,0
42,-503,0,0,0,0,0,0,0,0,0,-1,1266,1527,0,0
49,-503,0,0,0,0,0,0,0,0,0,-1,1273,1527,0,0
56,-503,0,0,0,0,0,0,0,0,0,-1,1280,1527,0,0
63,-503,0,0,0,0,0,0,0,0,0,-1,1287,1527,0,0
70,-503,0,0,0,0,0,0,0,0,0,-1,1294,1527,0,0
77,-503,0,0,0,0,0,0,0,0,0,-1,1301,1527,0,0
84,-503,0,0,0,0,0,0,0,0,0,-1,1308,1527,0,0
91,-503,0,0,0,0,0,0,0,0,0,-1,1315,1527,0,0
98,-503,0,0,0,0,0,0,0,0,0,-1,1322,1527,0,0
105,-503,0,0,0,0,0,0,0,0,0,-1,1329,1527,0,0
112,-503,0,0,0,0,0,0,0,0,0,-1,1336,1527,0,0
119,-503,0,0,0,0,0,0,0,0,0,-1,1343,1527,0,0
126,-503,0,0,0,0,0,0,0,0,0,-1,1350,1527,0,0
133,-503,0,0,0,0,0,0,0,0,0,-1,1357,1527,0,0
140,-503,0,0,0,0,0,0,0,0,0,-1,1364,1527,0,0
147,-503,0,0,0,0,0,0,0,0,0,-1,1371,1527,0,0
154,-503,0,0,0,0,0,0,0,0,0,-1,1378,1527,0,0
161,-503,0,0,0,0,0,0,0,0,0,-1,1385,1527,0,0
168,-503,0,0,0,0,0,0,0,0,0,-1,1392,1527,0,0
175,-503,0,0,0,0,0,0,0,0,0,-1,1399,1527,0,0
182,-503,0,0,0,0,0,0,0,0,0,-1,1406,1527,0,0
189,-503,0,0,0,0,0,0,0,0,0,-1,1413,1527,0,0
196,-503,0,0,0,0,0,0,0,0,0,-1,1420,1527,0,0
203,-503,0,0,0,0,0,0,0,0,0,-1,1427,1527,0,0
210,-503,0,0,0,0,0,0,0,0,0,-1,1434,1527,0,0
217,-503,0,0,0,0,0,0,0,0,0,-1,1441,1527,0,0
224,-503,0,0,0,0,0,0,0,0,0,-1,1448,1527,0,0
231,-503,0,0,0,0,0,0,0,0,0,-1,1455,1527,0,0
238,-503,0,0,0,0,0,0,0,0,0,-1,1462,1527,0,0
245,-503,0,0,0,0,0,0,0,0,0,-1,1469,1527,0,0
252,-503,0,0,0,0,0,0,0,0,0,-1,1476,1527,0,0
259,-503,0,0,0,0,0,0,0,0,0,-1,1483,1527,0,0
266,-503,0,0,0,0,0,0,0,0,0,-1,1490,1527,0,0
273,-503,0,0,0,0,0,0,0,0,0,-1,1497,1527,0,0
280,-503,0,0,0,0,0,0,0,0,0,-1,1504,1527,0,0
287,-503,0,0,0,0,0,0,0,0,0,-1,1511,1527,0,0
294,-503,0,0,0,0,0,0,0,0,0,-1,1518,1527,0,0
301,-503,0,0,0,0,0,0,0,0,0,-1,1525,1527,0,0
308,-503,0,0,0,0,0,0,0,0,0,-1,1532,1527,0,0
315,-503,0,0,0,0,0,0,0,0,0,-1,1539,1527,0,0
322,-503,0,0,0,0,0,0,0,0,0,-1,1546,1527,0,0
329,-503,0,0,0,0,0,0,0,0,0,-1,1553,1527,0,0
336,-503,0,0,0,0,0,0,0,0,0,-1,1560,1527,0,0
343,-503,0,0,0,0,0,0,0,0,0,-1,1567,1527,0,0
350,-503,0,0,0,0,0,0,0,0,0,-1,1574,1527,0,0
357,-503,0,0,0,0,0,0,0,0,0,-1,1581,1527,0,0
364,-503,0,0,0,0,0,0,0,0,0,-1,1588,1527,0,0
371,-503,0,0,0,0,0,0,0,0,0,-1,1595,1527,0,0
378,-503,0,0,0,0,0,0,0,0,0,-1,1602,1527,0,0
385,-503,0,0,0,0,0,0,0,0,0,-1,1609,1527,0,0
392,-503,0,0,0,0,0,0,0,0,0,-1,1616,1527,0,0
399,-503,0,0,0,0,0,0,0,0,0,-1,1623,1527,0,0
406,-503,0,0,0,0,0,0,0,0,0,-1,1630,1527,0,0
413,-503,0,0,0,0,0,0,0,0,0,-1,1637,1527,0,0
420,-503,0,0,0,0,0,0,0,0,0,-1,1644,1527,0,0
427,-503,10.5968,4.9856,0,0,0,0,0,0,0,-1,1651,1527,10.5969,-4.98563
434,-503,11.4329,3.97217,0,0,0,0,0,0,0,-1,1658,1527,11.4328,-3.97222
441,-503,12.0957,2.96509,0,0,0,0,0,0,0,-1,1665,1527,12.0957,-2.96512
448,-503,12.3259,2.53894,0,0,0,0,0,0,0,-1,1672,1527,12.326,-2.53895
455,-503,12.1669,2.18762,0,0,0,0,0,0,0,-1,1679,1527,12.1668,-2.18767
462,-503,11.59,2.60791,0,0,0,0,0,0,0,-1,1686,1527,11.5899,-2.60794
469,-503,11.1625,1.61853,0,0,0,0,0,0,0,-1,1693,1527,11.1625,-1.61856
476,-503,9.07703,5.81042,0,0,0,0,0,0,0,-1,1700,1527,9.07699,-5.81047
483,-503,9.74414,6.92432,0,0,0,0,0,0,0,-1,1707,1527,9.74417,-6.9243
490,-503,10.5033,10.1071,0,0,0,0,0,0,0,-1,1714,1527,10.5032,-10.107
497,-503,15.0057,17.9476,0,0,0,0,0,0,0,-1,1721,1527,15.0058,-17.9476
504,-503,16.4764,18.4486,0,0,0,0,0,0,0,-1,1728,1527,16.4764,-18.4486
511,-503,16.8276,18.3271,0,0,0,0,0,0,0,-1,1735,1527,16.8276,-18.3272
518,-503,17.2533,18.2738,0,0,0,0,0,0,0,-1,1742,1527,17.2533,-18.2738
525,-503,16.0321,18.7219,0,0,0,0,0,0,0,-1,1749,1527,16.0321,-18.722
532,-503,16.4467,18.2462,0.00208197,-0.000787898,0.00176896,0.00292481,-0.00163074,0.44464,0.00266529,0.0259531,1756,1527,16.4466,-18.2462
539,-503,16.5222,17.8204,0.0013876,-0.000902363,0.00163944,0.0022423,-0.00175706,0.480572,0.00231469,0.0151555,1763,1527,16.5223,-17.8204
546,-503,16.5359,17.3881,0.00104576,-0.000904811,0.001397,0.00177423,-0.00163328,0.480664,0.00196789,0.012102,1770,1527,16.5359,-17.3881
553,-503,16.5549,17.0063,0.000960689,-0.00078466,0.00101461,0.00142629,-0.00125026,0.430231,0.00154642,0.0143108,1777,1527,16.5549,-17.0063
560,-503,16.5428,16.6069,0.00104554,-0.000541253,0.000577663,0.00123356,-0.00072927,0.314665,0.00114564,0.0140196,1784,1527,16.5429,-16.6069
567,-503,16.5541,16.178,0.00132899,-0.000390356,9.57974e-05,0.00133431,-0.000395677,0.0554885,0.00104667,0.0127182,1791,1527,16.554,-16.178
574,-503,16.5372,15.7883,0.00187614,-6.78797e-05,-0.000648859,0.00207281,-0.000264553,-0.294305,0.00147797,0.0129777,1798,1527,16.5372,-15.7884
581,-503,16.5055,15.4276,0.00243388,7.48399e-05,-0.0013037,0.00301246,-0.000503739,-0.417683,0.00219557,0.0135377,1805,1527,16.5056,-15.4276
588,-503,16.4999,15.0747,0.00317646,0.000277963,-0.00206431,0.00424945,-0.000795029,-0.479348,0.0031318,0.015685,1812,1527,16.4999,-15.0747
595,-503,16.5167,14.6383,0.00414329,0.000298689,-0.00282894,0.00564124,-0.00119926,-0.486976,0.0042178,0.0125998,1819,1527,16.5167,-14.6383
602,-503,16.5541,14.176,0.00521373,0.000242696,-0.00374762,0.00722515,-0.00176873,-0.49259,0.00550194,0.0229994,1826,1527,16.5541,-14.176
609,-503,16.611,13.7002,0.00650354,-4.33818e-06,-0.00488606,0.00912001,-0.00262081,-0.491641,0.00711634,0.0458212,1833,1527,16.611,-13.7002
616,-503,16.4326,13.6057,0.00825797,-0.000153074,-0.00624397,0.0115806,-0.00347573,-0.489027,0.00910294,0.0386038,1840,1527,16.4326,-13.6058
623,-503,16.7909,12.791,0.0104594,-0.000371787,-0.00785174,0.014582,-0.00449446,-0.483498,0.0115157,0.0449748,1847,1527,16.7909,-12.791
630,-503,17.3356,12.0079,0,0,0,0,0,0,0,-1,1854,1527,17.3356,-12.008
637,-503,14.5564,9.20496,0,0,0,0,0,0,0,-1,1861,1527,14.5564,-9.2049
644,-503,11.4802,7.57214,0,0,0,0,0,0,0,-1,1868,1527,11.4802,-7.57215
651,-503,11.5718,6.5448,0,0,0,0,0,0,0,-1,1875,1527,11.5718,-6.54476
658,-503,8.25635,3.10498,0,0,0,0,0,0,0,-1,1882,1527,8.2563,-3.10493
665,-503,0,0,0,0,0,0,0,0,0,-1,1889,1527,0,0
672,-503,0,0,0,0,0,0,0,0,0,-1,1896,1527,0,0
679,-503,0,0,0,0,0,0,0,0,0,-1,1903,1527,0,0
686,-503,0,0,0,0,0,0,0,0,0,-1,1910,1527,0,0
693,-503,0,0,0,0,0,0,0,0,0,-1,1917,1527,0,0
700,-503,0,0,0,0,0,0,0,0,0,-1,1924,1527,0,0
707,-503,0,0,0,0,0,0,0,0,0,-1,1931,1527,0,0
714,-503,0,0,0,0,0,0,0,0,0,-1,1938,1527,0,0
721,-503,0,0,0,0,0,0,0,0,0,-1,1945,1527,0,0
728,-503,0,0,0,0,0,0,0,0,0,-1,1952,1527,0,0
735,-503,0,0,0,0,0,0,0,0,0,-1,1959,1527,0,0
742,-503,0,0,0,0,0,0,0,0,0,-1,1966,1527,0,0
749,-503,0,0,0,0,0,0,0,0,0,-1,1973,1527,0,0
756,-503,0,0,0,0,0,0,0,0,0,-1,1980,1527,0,0
763,-503,0,0,0,0,0,0,0,0,0,-1,1987,1527,0,0
770,-503,0,0,0,0,0,0,0,0,0,-1,1994,1527,0,0
777,-503,0,0,0,0,0,0,0,0,0,-1,2001,1527,0,0
784,-503,0,0,0,0,0,0,0,0,0,-1,2008,1527,0,0
791,-503,0,0,0,0,0,0,0,0,0,-1,2015,1527,0,0
798,-503,0,0,0,0,0,0,0,0,0,-1,2022,1527,0,0
805,-503,0,0,0,0,0,0,0,0,0,-1,2029,1527,0,0
812,-503,0,0,0,0,0,0,0,0,0,-1,2036,1527,0,0
-700,-510,0,0,0,0,0,0,0,0,0,-1,524,1534,0,0
-693,-510,0,0,0,0,0,0,0,0,0,-1,531,1534,0,0
-686,-510,0,0,0,0,0,0,0,0,0,-1,538,1534,0,0
-679,-510,0,0,0,0,0,0,0,0,0,-1,545,1534,0,0
-672,-510,0,0,0,0,0,0,0,0,0,-1,552,1534,0,0
-665,-510,0,0,0,0,0,0,0,0,0,-1,559,1534,0,0
-658,-510,0,0,0,0,0,0,0,0,0,-1,566,1534,0,0
-651,-510,0,0,0,0,0,0,0,0,0,-1,573,1534,0,0
-644,-510,0,0,0,0,0,0,0,0,0,-1,580,1534,0,0
-637,-510,0,0,0,0,0,0,0,0,0,-1,587,1534,0,0
-630,-510,0,0,0,0,0,0,0,0,0,-1,594,1534,0,0
-623,-510,0,0,0,0,0,0,0,0,0,-1,601,1534,0,0
-616,-510,0,0,0,0,0,0,0,0,0,-1,608,1534,0,0
-609,-510,0,0,0,0,0,0,0,0,0,-1,615,1534,0,0
-602,-510,0,0,0,0,0,0,0,0,0,-1,622,1534,0,0
-595,-510,0,0,0,0,0,0,0,0,0,-1,629,1534,0,0
-588,-510,0,0,0,0,0,0,0,0,0,-1,636,1534,0,0
-581,-510,0,0,0,0,0,0,0,0,0,-1,643,1534,0,0
-574,-510,0,0,0,0,0,0,0,0,0,-1,650,1534,0,0
-567,-510,0,0,0,0,0,0,0,0,0,-1,657,1534,0,0
-560,-510,0,0,0,0,0,0,0,0,0,-1,664,1534,0,0
-553,-510,0,0,0,0,0,0,0,0,0,-1,671,1534,0,0
-546,-510,0,0,0,0,0,0,0,0,0,-1,678,1534,0,0
-539,-510,0,0,0,0,0,0,0,0,0,-1,685,1534,0,0
-532,-510,-3.95129,4.52014,0,0,0,0,0,0,0,-1,692,1534,-3.95131,-4.5202
-525,-510,-2.77411,0.316772,0,0,0,0,0,0,0,-1,699,1534,-2.77409,-0.3168
-518,-510,-2.86847,2.71423,0,0,0,0,0,0,0,-1,706,1534,-2.86849,-2.71424
-511,-510,-2.28571,4.48083,0,0,0,0,0,0,0,-1,713,1534,-2.28571,-4.48086
-504,-510,-1.15045,9.35095,0,0,0,0,0,0,0,-1,720,1534,-1.15043,-9.35093
-497,-510,-2.82635,11.4733,0,0,0,0,0,0,0,-1,727,1534,-2.82633,-11.4733
-490,-510,-2.40698,11.9019,0,0,0,0,0,0,0,-1,734,1534,-2.40698,-11.9018
-483,-510,-2.38318,12.3385,0.00562358,-0.000202342,0.000606152,0.00568598,-0.000264741,0.10258,0.00388191,0.0411387,741,1534,-2.38318,-12.3384
-476,-510,-2.46179,12.2341,0.00215816,-0.00081468,-0.00056188,0.00226081,-0.000917333,-0.180703,0.00188876,0.0333786,748,1534,-2.4618,-12.2341
-469,-510,-2.66412,12.6533,5.92028e-05,-0.000994762,-0.00103538,0.000693998,-0.00162956,-0.549998,0.00137728,0.0136191,755,1534,-2.6641,-12.6533
-462,-510,-2.69202,13.0902,-0.000872074,-0.00102308,-0.00105561,0.000110736,-0.00200589,-0.749697,0.00137566,0.0112429,762,1534,-2.69199,-13.0902
-455,-510,-2.71625,13.5482,-0.000769356,-0.000526364,-0.000336956,-0.00028967,-0.00100605,-0.958428,0.000598005,0.013137,769,1534,-2.71623,-13.5482
-448,-510,-2.69983,13.9849,-0.000671093,-0.00020909,9.15967e-05,-0.000191593,-0.00068859,1.38204,0.000410385,0.0119068,776,1534,-2.69983,-13.9849
-441,-510,-2.73138,14.3898,4.45265e-05,0.000321915,0.000837365,0.00103199,-0.000665553,0.867469,0.000987662,0.01281,783,1534,-2.73138,-14.3898
-434,-510,-2.77826,14.8038,0.00100059,0.00106566,0.00165836,0.0026918,-0.000625552,0.795206,0.00203535,0.013429,790,1534,-2.77829,-14.8039
-427,-510,-2.80255,15.1906,0.00205446,0.00199327,0.00248665,0.0045107,-0.000462975,0.779247,0.00317274,0.0215604,797,1534,-2.80258,-15.1905
-420,-510,-2.79102,15.5824,0.00318606,0.00292211,0.00326499,0.00632174,-0.000213567,0.765199,0.00428745,0.0227748,804,1534,-2.791,-15.5825
-413,-510,-2.77448,16.1058,0.00437409,0.00421753,0.00417064,0.00846719,0.000124434,0.776014,0.00560377,0.0114323,811,1534,-2.77449,-16.1058
-406,-510,-2.81091,16.5134,0.00549332,0.00595315,0.00534066,0.0110688,0.000377634,0.80691,0.00725663,0.0105668,818,1534,-2.81089,-16.5134
-399,-510,-2.80383,16.9292,0.00670083,0.00825132,0.00664835,0.0141695,0.000782682,0.84344,0.00919653,0.0133579,825,1534,-2.80384,-16.9292
-392,-510,-2.64038,17.5548,0.00811274,0.0117282,0.00805028,0.0181712,0.00166972,0.895843,0.0115977,0.03717,832,1534,-2.64036,-17.5548
-385,-510,-2.37659,18.234,0,0,0,0,0,0,0,-1,839,1534,-2.37662,-18.2341
-378,-510,-1.78308,13.8044,0,0,0,0,0,0,0,-1,846,1534,-1.78309,-13.8044
-371,-510,-1.74982,13.8027,0,0,0,0,0,0,0,-1,853,1534,-1.74981,-13.8028
-364,-510,-1.3479,13.7771,0,0,0,0,0,0,0,-1,860,1534,-1.34791,-13.7771
-357,-510,-0.254395,8.89575,0,0,0,0,0,0,0,-1,867,1534,-0.254397,-8.89569
-350,-510,0.471191,6.06458,0,0,0,0,0,0,0,-1,874,1534,0.47118,-6.06453
-343,-510,-2.94617,5.00989,0,0,0,0,0,0,0,-1,881,1534,-2.94615,-5.00992
-336,-510,-1.85938,19.839,0,0,0,0,0,0,0,-1,888,1534,-1.85937,-19.839
-329,-510,-4.87781,20.6893,0,0,0,0,0,0,0,-1,895,1534,-4.87782,-20.6894
-322,-510,-0.251526,11.973,0,0,0,0,0,0,0,-1,902,1534,-0.251497,-11.9731
-315,-510,-1.73047,10.9796,0,0,0,0,0,0,0,-1,909,1534,-1.73049,-10.9796
-308,-510,-2.05328,9.72034,0,0,0,0,0,0,0,-1,916,1534,-2.05327,-9.72036
-301,-510,-1.85437,11.5869,0,0,0,0,0,0,0,-1,923,1534,-1.85437,-11.5869
-294,-510,0,0,0,0,0,0,0,0,0,-1,930,1534,0,0
-287,-510,0,0,0,0,0,0,0,0,0,-1,937,1534,0,0
-280,-510,0,0,0,0,0,0,0,0,0,-1,944,1534,0,0
-273,-510,0,0,0,0,0,0,0,0,0,-1,951,1534,0,0
-266,-510,0,0,0,0,0,0,0,0,0,-1,958,1534,0,0
-259,-510,0,0,0,0,0,0,0,0,0,-1,965,1534,0,0
-252,-510,0,0,0,0,0,0,0,0,0,-1,972,1534,0,0
-245,-510,0,0,0,0,0,0,0,0,0,-1,979,1534,0,0
-238,-510,0,0,0,0,0,0,0,0,0,-1,986,1534,0,0
-231,-510,0,0,0,0,0,0,0,0,0,-1,993,1534,0,0
-224,-510,0,0,0,0,0,0,0,0,0,-1,1000,1534,0,0
-217,-510,0,0,0,0,0,0,0,0,0,-1,1007,1534,0,0
-210,-510,0,0,0,0,0,0,0,0,0,-1,1014,1534,0,0
-203,-510,0,0,0,0,0,0,0,0,0,-1,1021,1534,0,0
-196,-510,0,0,0,0,0,0,0,0,0,-1,1028,1534,0,0
-189,-510,0,0,0,0,0,0,0,0,0,-1,1035,1534,0,0
-182,-510,0,0,0,0,0,0,0,0,0,-1,1042,1534,0,0
-175,-510,0,0,0,0,0,0,0,0,0,-1,1049,1534,0,0
-168,-510,0,0,0,0,0,0,0,0,0,-1,1056,1534,0,0
-161,-510,0,0,0,0,0,0,0,0,0,-1,1063,1534,0,0
-154,-510,0,0,0,0,0,0,0,0,0,-1,1070,1534,0,0
-147,-510,0,0,0,0,0,0,0,0,0,-1,1077,1534,0,0
-140,-510,0,0,0,0,0,0,0,0,0,-1,1084,1534,0,0
-133,-510,0,0,0,0,0,0,0,0,0,-1,1091,1534,0,0
-126,-510,0,0,0,0,0,0,0,0,0,-1,1098,1534,0,0
-119,-510,0,0,0,0,0,0,0,0,0,-1,1105,1534,0,0
-112,-510,0,0,0,0,0,0,0,0,0,-1,1112,1534,0,0
-105,-510,0,0,0,0,0,0,0,0,0,-1,1119,1534,0,0
-98,-510,0,0,0,0,0,0,0,0,0,-1,1126,1534,0,0
-91,-510,0,0,0,0,0,0,0,0,0,-1,1133,1534,0,0
-84,-510,0,0,0,0,0,0,0,0,0,-1,1140,1534,0,0
-77,-510,0,0,0,0,0,0,0,0,0,-1,1147,1534,0,0
-70,-510,0,0,0,0,0,0,0,0,0,-1,1154,1534,0,0
-63,-510,0,0,0,0,0,0,0,0,0,-1,1161,1534,0,0
-56,-510,0,0,0,0,0,0,0,0,0,-1,1168,1534,0,0
-49,-510,0,0,0,0,0,0,0,0,0,-1,1175,1534,0,0
-42,-510,0,0,0,0,0,0,0,0,0,-1,1182,1534,0,0
-35,-510,0,0,0,0,0,0,0,0,0,-1,1189,1534,0,0
-28,-510,0,0,0,0,0,0,0,0,0,-1,1196,1534,0,0
-21,-510,0,0,0,0,0,0,0,0,0,-1,1203,1534,0,0
-14,-510,0,0,0,0,0,0,0,0,0,-1,1210,1534,0,0
-7,-510,0,0,0,0,0,0,0,0,0,-1,1217,1534,0,0
0,-510,0,0,0,0,0,0,0,0,0,-1,1224,1534,0,0
7,-510,0,0,0,0,0,0,0,0,0,-1,1231,1534,0,0
14,-510,0,0,0,0,0,0,0,0,0,-1,1238,1534,0,0
21,-510,0,0,0,0,0,0,0,0,0,-1,1245,1534,0,0
28,-510,0,0,0,0,0,0,0,0,0,-1,1252,1534,0,0
35,-510,0,0,0,0,0,0,0,0,0,-1,1259,1534,0,0
42,-510,0,0,0,0,0,0,0,0,0,-1,1266,1534,0,0
49,-510,0,0,0,0,0,0,0,0,0,-1,1273,1534,0,0
56,-510,0,0,0,0,0,0,0,0,0,-1,1280,1534,0,0
63,-510,0,0,0,0,0,0,0,0,0,-1,1287,1534,0,0
70,-510,0,0,0,0,0,0,0,0,0,-1,1294,1534,0,0
77,-510,0,0,0,0,0,0,0,0,0,-1,1301,1534,0,0
84,-510,0,0,0,0,0,0,0,0,0,-1,1308,1534,0,0
91,-510,0,0,0,0,0,0,0,0,0,-1,1315,1534,0,0
98,-510,0,0,0,0,0,0,0,0,0,-1,1322,1534,0,0
105,-510,0,0,0,0,0,0,0,0,0,-1,1329,1534,0,0
112,-510,0,0,0,0,0,0,0,0,0,-1,1336,1534,0,0
119,-510,0,0,0,0,0,0,0,0,0,-1,1343,1534,0,0
126,-510,0,0,0,0,0,0,0,0,0,-1,1350,1534,0,0
133,-510,0,0,0,0,0,0,0,0,0,-1,1357,1534,0,0
140,-510,0,0,0,0,0,0,0,0,0,-1,1364,1534,0,0
147,-510,0,0,0,0,0,0,0,0,0,-1,1371,1534,0,0
154,-510,0,0,0,0,0,0,0,0,0,-1,1378,1534,0,0
161,-510,0,0,0,0,0,0,0,0,0,-1,1385,1534,0,0
168,-510,0,0,0,0,0,0,0,0,0,-1,1392,1534,0,0
175,-510,0,0,0,0,0,0,0,0,0,-1,1399,1534,0,0
182,-510,0,0,0,0,0,0,0,0,0,-1,1406,1534,0,0
189,-510,0,0,0,0,0,0,0,0,0,-1,1413,1534,0,0
196,-510,0,0,0,0,0,0,0,0,0,-1,1420,1534,0,0
203,-510,0,0,0,0,0,0,0,0,0,-1,1427,1534,0,0
210,-510,0,0,0,0,0,0,0,0,0,-1,1434,1534,0,0
217,-510,0,0,0,0,0,0,0,0,0,-1,1441,1534,0,0
224,-510,0,0,0,0,0,0,0,0,0,-1,1448,1534,0,0
231,-510,0,0,0,0,0,0,0,0,0,-1,1455,1534,0,0
238,-510,0,0,0,0,0,0,0,0,0,-1,1462,1534,0,0
245,-510,0,0,0,0,0,0,0,0,0,-1,1469,1534,0,0
252,-510,0,0,0,0,0,0,0,0,0,-1,1476,1534,0,0
259,-510,0,0,0,0,0,0,0,0,0,-1,1483,1534,0,0
266,-510,0,0,0,0,0,0,0,0,0,-1,1490,1534,0,0
273,-510,0,0,0,0,0,0,0,0,0,-1,1497,1534,0,0
280,-510,0,0,0,0,0,0,0,0,0,-1,1504,1534,0,0
287,-510,0,0,0,0,0,0,0,0,0,-1,1511,1534,0,0
294,-510,0,0,0,0,0,0,0,0,0,-1,1518,1534,0,0
301,-510,0,0,0,0,0,0,0,0,0,-1,1525,1534,0,0
308,-510,0,0,0,0,0,0,0,0,0,-1,1532,1534,0,0
315,-510,0,0,0,0,0,0,0,0,0,-1,1539,1534,0,0
322,-510,0,0,0,0,0,0,0,0,0,-1,1546,1534,0,0
329,-510,0,0,0,0,0,0,0,0,0,-1,1553,1534,0,0
336,-510,0,0,0,0,0,0,0,0,0,-1,1560,1534,0,0
343,-510,0,0,0,0,0,0,0,0,0,-1,1567,1534,0,0
350,-510,0,0,0,0,0,0,0,0,0,-1,1574,1534,0,0
357,-510,0,0,0,0,0,0,0,0,0,-1,1581,1534,0,0
364,-510,0,0,0,0,0,0,0,0,0,-1,1588,1534,0,0
371,-510,0,0,0,0,0,0,0,0,0,-1,1595,1534,0,0
378,-510,0,0,0,0,0,0,0,0,0,-1,1602,1534,0,0
385,-510,0,0,0,0,0,0,0,0,0,-1,1609,1534,0,0
392,-510,0,0,0,0,0,0,0,0,0,-1,1616,1534,0,0
399,-510,0,0,0,0,0,0,0,0,0,-1,1623,1534,0,0
406,-510,0,0,0,0,0,0,0,0,0,-1,1630,1534,0,0
413,-510,0,0,0,0,0,0,0,0,0,-1,1637,1534,0,0
420,-510,14.1888,6.71936,0,0,0,0,0,0,0,-1,1644,1534,14.1889,-6.71939
427,-510,10.2134,5.59485,0,0,0,0,0,0,0,-1,1651,1534,10.2134,-5.59485
434,-510,11.8219,4.07898,0,0,0,0,0,0,0,-1,1658,1534,11.8219,-4.07895
441,-510,12.6812,3.02991,0,0,0,0,0,0,0,-1,1665,1534,12.6811,-3.0299
448,-510,13.2379,2.2804,0,0,0,0,0,0,0,-1,1672,1534,13.2379,-2.28037
455,-510,9.76892,2.20642,0,0,0,0,0,0,0,-1,1679,1534,9.76894,-2.20647
462,-510,9.84692,2.49182,0,0,0,0,0,0,0,-1,1686,1534,9.84695,-2.49185
469,-510,16.6072,7.26941,0,0,0,0,0,0,0,-1,1693,1534,16.6072,-7.26945
476,-510,15.9199,7.8645,0,0,0,0,0,0,0,-1,1700,1534,15.9199,-7.86455
483,-510,13.0833,8.10938,0,0,0,0,0,0,0,-1,1707,1534,13.0833,-8.10932
490,-510,13.0841,15.3286,0,0,0,0,0,0,0,-1,1714,1534,13.0841,-15.3286
497,-510,15.5652,18.823,0,0,0,0,0,0,0,-1,1721,1534,15.5652,-18.823
504,-510,15.998,18.7478,0,0,0,0,0,0,0,-1,1728,1534,15.998,-18.7478
511,-510,15.9443,18.0476,0,0,0,0,0,0,0,-1,1735,1534,15.9443,-18.0476
518,-510,16.2159,19.4457,0,0,0,0,0,0,0,-1,1742,1534,16.216,-19.4456
525,-510,16.0646,18.7704,0.00340438,0.000871117,0.000501377,0.0035,0.000775496,0.188455,0.00212259,0.0441465,1749,1534,16.0646,-18.7704
532,-510,16.1176,18.2318,0.00244951,0.000288264,0.000689209,0.00265059,8.7187e-05,0.283871,0.00173873,0.0176363,1756,1534,16.1175,-18.2318
539,-510,16.1831,17.7711,0.00179518,-6.14908e-05,0.000751497,0.00206123,-0.00032754,0.340256,0.00149534,0.0124544,1763,1534,16.1832,-17.7711
546,-510,16.1553,17.4142,0.00144872,-0.00026608,0.000661055,0.00167397,-0.000491328,0.328403,0.00131082,0.0113635,1770,1534,16.1553,-17.4141
553,-510,16.1532,17.004,0.00133174,-0.00035844,0.000435275,0.00143725,-0.000463951,0.237813,0.0011446,0.0122672,1777,1534,16.1532,-17.0041
560,-510,16.1489,16.5881,0.00139813,-0.000281177,0.000128048,0.00140783,-0.000290884,0.0756679,0.00104905,0.0135652,1784,1534,16.149,-16.5882
567,-510,16.1428,16.1907,0.0017042,-0.000303164,-0.000258734,0.00173701,-0.000335977,-0.126146,0.00128473,0.0137595,1791,1534,16.1428,-16.1907
574,-510,16.1265,15.798,0.00233924,-5.23156e-05,-0.00101218,0.00271012,-0.000423191,-0.351219,0.00196307,0.0142946,1798,1534,16.1265,-15.798
581,-510,16.1014,15.4329,0.00302423,6.96265e-05,-0.00170503,0.00380294,-0.000709077,-0.428419,0.00280172,0.0120868,1805,1534,16.1014,-15.4328
588,-510,16.0977,15.0433,0.00396175,0.000248063,-0.00256104,0.00526827,-0.00105845,-0.471733,0.003913,0.012636,1812,1534,16.0976,-15.0433
595,-510,16.2195,14.5352,0.0051196,0.000257495,-0.00343544,0.00689715,-0.00152005,-0.477481,0.00517967,0.022952,1819,1534,16.2195,-14.5351
602,-510,16.2629,14.0574,0,0,0,0,0,0,0,-1,1826,1534,16.2629,-14.0573
609,-510,16.3375,13.6597,0,0,0,0,0,0,0,-1,1833,1534,16.3375,-13.6597
616,-510,16.0107,13.7545,0,0,0,0,0,0,0,-1,1840,1534,16.0107,-13.7545
623,-510,16.5166,12.6263,0,0,0,0,0,0,0,-1,1847,1534,16.5166,-12.6264
630,-510,13.7461,9.30334,0,0,0,0,0,0,0,-1,1854,1534,13.7461,-9.30335
637,-510,11.0155,7.38464,0,0,0,0,0,0,0,-1,1861,1534,11.0155,-7.38463
644,-510,11.5809,7.17126,0,0,0,0,0,0,0,-1,1868,1534,11.5809,-7.17123
651,-510,8.70471,3.5061,0,0,0,0,0,0,0,-1,1875,1534,8.70475,-3.50611
658,-510,0,0,0,0,0,0,0,0,0,-1,1882,1534,0,0
665,-510,0,0,0,0,0,0,0,0,0,-1,1889,1534,0,0
672,-510,0,0,0,0,0,0,0,0,0,-1,1896,1534,0,0
679,-510,0,0,0,0,0,0,0,0,0,-1,1903,1534,0,0
686,-510,0,0,0,0,0,0,0,0,0,-1,1910,1534,0,0
693,-510,0,0,0,0,0,0,0,0,0,-1,1917,1534,0,0
700,-510,0,0,0,0,0,0,0,0,0,-1,1924,1534,0,0
707,-510,0,0,0,0,0,0,0,0,0,-1,1931,1534,0,0
714,-510,0,0,0,0,0,0,0,0,0,-1,1938,1534,0,0
721,-510,0,0,0,0,0,0,0,0,0,-1,1945,1534,0,0
728,-510,0,0,0,0,0,0,0,0,0,-1,1952,1534,0,0
735,-510,0,0,0,0,0,0,0,0,0,-1,1959,1534,0,0
742,-510,0,0,0,0,0,0,0,0,0,-1,1966,1534,0,0
749,-510,0,0,0,0,0,0,0,0,0,-1,1973,1534,0,0
756,-510,0,0,0,0,0,0,0,0,0,-1,1980,1534,0,0
763,-510,0,0,0,0,0,0,0,0,0,-1,1987,1534,0,0
770,-510,0,0,0,0,0,0,0,0,0,-1,1994,1534,0,0
777,-510,0,0,0,0,0,0,0,0,0,-1,2001,1534,0,0
784,-510,0,0,0,0,0,0,0,0,0,-1,2008,1534,0,0
791,-510,0,0,0,0,0,0,0,0,0,-1,2015,1534,0,0
798,-510,0,0,0,0,0,0,0,0,0,-1,2022,1534,0,0
805,-510,0,0,0,0,0,0,0,0,0,-1,2029,1534,0,0
812,-510,0,0,0,0,0,0,0,0,0,-1,2036,1534,0,0
-700,-517,0,0,0,0,0,0,0,0,0,-1,524,1541,0,0
-693,-517,0,0,0,0,0,0,0,0,0,-1,531,1541,0,0
-686,-517,0,0,0,0,0,0,0,0,0,-1,538,1541,0,0
-679,-517,0,0,0,0,0,0,0,0,0,-1,545,1541,0,0
-672,-517,0,0,0,0,0,0,0,0,0,-1,552,1541,0,0
-665,-517,0,0,0,0,0,0,0,0,0,-1,559,1541,0,0
-658,-517,0,0,0,0,0,0,0,0,0,-1,566,1541,0,0
-651,-517,0,0,0,0,0,0,0,0,0,-1,573,1541,0,0
-644,-517,0,0,0,0,0,0,0,0,0,-1,580,1541,0,0
-637,-517,0,0,0,0,0,0,0,0,0,-1,587,1541,0,0
-630,-517,0,0,0,0,0,0,0,0,0,-1,594,1541,0,0
-623,-517,0,0,0,0,0,0,0,0,0,-1,601,1541,0,0
-616,-517,0,0,0,0,0,0,0,0,0,-1,608,1541,0,0
-609,-517,0,0,0,0,0,0,0,0,0,-1,615,1541,0,0
-602,-517,0,0,0,0,0,0,0,0,0,-1,622,1541,0,0
-595,-517,0,0,0,0,0,0,0,0,0,-1,629,1541,0,0
-588,-517,0,0,0,0,0,0,0,0,0,-1,636,1541,0,0
-581,-517,0,0,0,0,0,0,0,0,0,-1,643,1541,0,0
-574,-517,0,0,0,0,0,0,0,0,0,-1,650,1541,0,0
-567,-517,0,0,0,0,0,0,0,0,0,-1,657,1541,0,0
-560,-517,0,0,0,0,0,0,0,0,0,-1,664,1541,0,0
-553,-517,0,0,0,0,0,0,0,0,0,-1,671,1541,0,0
-546,-517,0,0,0,0,0,0,0,0,0,-1,678,1541,0,0
-539,-517,0,0,0,0,0,0,0,0,0,-1,685,1541,0,0
-532,-517,0,0,0,0,0,0,0,0,0,-1,692,1541,0,0
-525,-517,-3.62903,4.3606,0,0,0,0,0,0,0,-1,699,1541,-3.62904,-4.36056
-518,-517,-1.664,2.27209,0,0,0,0,0,0,0,-1,706,1541,-1.66399,-2.27207
-511,-517,-0.999146,5.52063,0,0,0,0,0,0,0,-1,713,1541,-0.999126,-5.52059
-504,-517,-1.06946,8.67432,0,0,0,0,0,0,0,-1,720,1541,-1.06947,-8.6743
-497,-517,-2.83087,11.739,0,0,0,0,0,0,0,-1,727,1541,-2.83086,-11.7391
-490,-517,-1.85242,12.5808,0,0,0,0,0,0,0,-1,734,1541,-1.85241,-12.5808
-483,-517,-1.83459,12.4746,0,0,0,0,0,0,0,-1,741,1541,-1.83459,-12.4746
-476,-517,-1.98267,12.2018,0,0,0,0,0,0,0,-1,748,1541,-1.98268,-12.2018
-469,-517,-2.17029,12.6669,-0.00108017,-0.000397327,-0.000882556,0.000207547,-0.00168504,-0.969959,0.00119855,0.0190922,755,1541,-2.17027,-12.6669
-462,-517,-2.27637,13.0863,-0.00155486,-0.000380775,-0.000550126,-0.000163295,-0.00177234,-1.19432,0.00113107,0.0186045,762,1541,-2.27635,-13.0863
-455,-517,-2.27747,13.5515,-0.00135516,-1.82107e-05,0.000164188,1.65758e-06,-0.00137503,1.45037,0.00091724,0.0141724,769,1541,-2.27745,-13.5515
-448,-517,-2.29388,13.9895,-0.00122213,0.000118055,0.000500009,0.000284044,-0.00138812,1.25027,0.00103319,0.0129805,776,1541,-2.29386,-13.9895
-441,-517,-2.32123,14.4126,-0.000539286,0.000451393,0.00106669,0.00113214,-0.00122004,1.00277,0.00135835,0.0113171,783,1541,-2.32124,-14.4126
-434,-517,-2.33136,14.8351,0.000335877,0.00100791,0.00167917,0.00238435,-0.00104056,0.884149,0.00202747,0.0141946,790,1541,-2.33137,-14.8351
-427,-517,-2.35095,15.2362,0.00128199,0.00177389,0.00230945,0.00385045,-0.000794572,0.838446,0.00286874,0.0141938,797,1541,-2.35093,-15.2363
-420,-517,-2.39508,15.6566,0.002283,0.00250429,0.00286056,0.00525634,-0.000469057,0.804728,0.00367058,0.0206,804,1541,-2.39511,-15.6566
-413,-517,-2.37726,16.1263,0.00331396,0.00353411,0.00348999,0.00691576,-6.76895e-05,0.801163,0.00463324,0.0107959,811,1541,-2.37728,-16.1263
-406,-517,-2.38293,16.5343,0.00426706,0.0050022,0.0043529,0.00900302,0.00026624,0.827519,0.00591526,0.0108108,818,1541,-2.38292,-16.5343
-399,-517,-2.37256,16.9502,0.00519489,0.00695526,0.0052973,0.011445,0.000705156,0.867725,0.00740615,0.010765,825,1541,-2.37258,-16.9502
-392,-517,-2.3562,17.3978,0.00623325,0.00987729,0.00627397,0.0145885,0.00152209,0.926716,0.00926006,0.0141074,832,1541,-2.35621,-17.3979
-385,-517,-2.2688,18.0597,0.00724587,0.0125607,0.00756674,0.0179231,0.00188346,0.954267,0.011373,0.0316029,839,1541,-2.26878,-18.0597
-378,-517,-2.14948,18.8242,0,0,0,0,0,0,0,-1,846,1541,-2.1495,-18.8242
-371,-517,-1.37585,13.2646,0,0,0,0,0,0,0,-1,853,1541,-1.37586,-13.2647
-364,-517,-1.26245,12.6289,0,0,0,0,0,0,0,-1,860,1541,-1.26243,-12.6289
-357,-517,-1.23889,12.979,0,0,0,0,0,0,0,-1,867,1541,-1.23891,-12.979
-350,-517,0.722412,10.0829,0,0,0,0,0,0,0,-1,874,1541,0.722399,-10.0828
-343,-517,-2.89331,17.5468,0,0,0,0,0,0,0,-1,881,1541,-2.89334,-17.5468
-336,-517,-1.67847,19.3165,0,0,0,0,0,0,0,-1,888,1541,-1.67849,-19.3165
-329,-517,-0.463623,21.0862,0,0,0,0,0,0,0,-1,895,1541,-0.463643,-21.0862
-322,-517,-4.21246,19.5819,0,0,0,0,0,0,0,-1,902,1541,-4.21244,-19.5819
-315,-517,-0.987976,7.29749,0,0,0,0,0,0,0,-1,909,1541,-0.987993,-7.29743
-308,-517,3.27911,17.621,0,0,0,0,0,0,0,-1,916,1541,3.27913,-17.621
-301,-517,-1.69141,8.87488,0,0,0,0,0,0,0,-1,923,1541,-1.69141,-8.87485
-294,-517,-1.72583,9.92566,0,0,0,0,0,0,0,-1,930,1541,-1.72584,-9.92571
-287,-517,-3.09045,12.1472,0,0,0,0,0,0,0,-1,937,1541,-3.09043,-12.1472
-280,-517,0,0,0,0,0,0,0,0,0,-1,944,1541,0,0
-273,-517,0,0,0,0,0,0,0,0,0,-1,951,1541,0,0
-266,-517,0,0,0,0,0,0,0,0,0,-1,958,1541,0,0
-259,-517,0,0,0,0,0,0,0,0,0,-1,965,1541,0,0
-252,-517,0,0,0,0,0,0,0,0,0,-1,972,1541,0,0
-245,-517,0,0,0,0,0,0,0,0,0,-1,979,1541,0,0
-238,-517,0,0,0,0,0,0,0,0,0,-1,986,1541,0,0
-231,-517,0,0,0,0,0,0,0,0,0,-1,993,1541,0,0
-224,-517,0,0,0,0,0,0,0,0,0,-1,1000,1541,0,0
-217,-517,0,0,0,0,0,0,0,0,0,-1,1007,1541,0,0
-210,-517,0,0,0,0,0,0,0,0,0,-1,1014,1541,0,0
-203,-517,0,0,0,0,0,0,0,0,0,-1,1021,1541,0,0
-196,-517,0,0,0,0,0,0,0,0,0,-1,1028,1541,0,0
-189,-517,0,0,0,0,0,0,0,0,0,-1,1035,1541,0,0
-182,-517,0,0,0,0,0,0,0,0,0,-1,1042,1541,0,0
-175,-517,0,0,0,0,0,0,0,0,0,-1,1049,1541,0,0
-168,-517,0,0,0,0,0,0,0,0,0,-1,1056,1541,0,0
-161,-517,0,0,0,0,0,0,0,0,0,-1,1063,1541,0,0
-154,-517,0,0,0,0,0,0,0,0,0,-1,1070,1541,0,0
-147,-517,0,0,0,0,0,0,0,0,0,-1,1077,1541,0,0
-140,-517,0,0,0,0,0,0,0,0,0,-1,1084,1541,0,0
-133,-517,0,0,0,0,0,0,0,0,0,-1,1091,1541,0,0
-126,-517,0,0,0,0,0,0,0,0,0,-1,1098,1541,0,0
-119,-517,0,0,0,0,0,0,0,0,0,-1,1105,1541,0,0
-112,-517,0,0,0,0,0,0,0,0,0,-1,1112,1541,0,0
-105,-517,0,0,0,0,0,0,0,0,0,-1,1119,1541,0,0
-98,-517,0,0,0,0,0,0,0,0,0,-1,1126,1541,0,0
-91,-517,0,0,0,0,0,0,0,0,0,-1,1133,1541,0,0
-84,-517,0,0,0,0,0,0,0,0,0,-1,1140,1541,0,0
-77,-517,0,0,0,0,0,0,0,0,0,-1,1147,1541,0,0
-70,-517,0,0,0,0,0,0,0,0,0,-1,1154,1541,0,0
-63,-517,0,0,0,0,0,0,0,0,0,-1,1161,1541,0,0
-56,-517,0,0,0,0,0,0,0,0,0,-1,1168,1541,0,0
-49,-517,0,0,0,0,0,0,0,0,0,-1,1175,1541,0,0
-42,-517,0,0,0,0,0,0,0,0,0,-1,1182,1541,0,0
-35,-517,0,0,0,0,0,0,0,0,0,-1,1189,1541,0,0
-28,-517,0,0,0,0,0,0,0,0,0,-1,1196,1541,0,0
-21,-517,0,0,0,0,0,0,0,0,0,-1,1203,1541,0,0
-14,-517,0,0,0,0,0,0,0,0,0,-1,1210,1541,0,0
-7,-517,0,0,0,0,0,0,0,0,0,-1,1217,1541,0,0
0,-517,0,0,0,0,0,0,0,0,0,-1,1224,1541,0,0
7,-517,0,0,0,0,0,0,0,0,0,-1,1231,1541,0,0
14,-517,0,0,0,0,0,0,0,0,0,-1,1238,1541,0,0
21,-517,0,0,0,0,0,0,0,0,0,-1,1245,1541,0,0
28,-517,0,0,0,0,0,0,0,0,0,-1,1252,1541,0,0
35,-517,0,0,0,0,0,0,0,0,0,-1,1259,1541,0,0
42,-517,0,0,0,0,0,0,0,0,0,-1,1266,1541,0,0
49,-517,0,0,0,0,0,0,0,0,0,-1,1273,1541,0,0
56,-517,0,0,0,0,0,0,0,0,0,-1,1280,1541,0,0
63,-517,0,0,0,0,0,0,0,0,0,-1,1287,1541,0,0
70,-517,0,0,0,0,0,0,0,0,0,-1,1294,1541,0,0
77,-517,0,0,0,0,0,0,0,0,0,-1,1301,1541,0,0
84,-517,0,0,0,0,0,0,0,0,0,-1,1308,1541,0,0
91,-517,0,0,0,0,0,0,0,0,0,-1,1315,1541,0,0
98,-517,0,0,0,0,0,0,0,0,0,-1,1322,1541,0,0
105,-517,0,0,0,0,0,0,0,0,0,-1,1329,1541,0,0
112,-517,0,0,0,0,0,0,0,0,0,-1,1336,1541,0,0
119,-517,0,0,0,0,0,0,0,0,0,-1,1343,1541,0,0
126,-517,0,0,0,0,0,0,0,0,0,-1,1350,1541,0,0
133,-517,0,0,0,0,0,0,0,0,0,-1,1357,1541,0,0
140,-517,0,0,0,0,0,0,0,0,0,-1,1364,1541,0,0
147,-517,0,0,0,0,0,0,0,0,0,-1,1371,1541,0,0
154,-517,0,0,0,0,0,0,0,0,0,-1,1378,1541,0,0
161,-517,0,0,0,0,0,0,0,0,0,-1,1385,1541,0,0
168,-517,0,0,0,0,0,0,0,0,0,-1,1392,1541,0,0
175,-517,0,0,0,0,0,0,0,0,0,-1,1399,1541,0,0
182,-517,0,0,0,0,0,0,0,0,0,-1,1406,1541,0,0
189,-517,0,0,0,0,0,0,0,0,0,-1,1413,1541,0,0
196,-517,0,0,0,0,0,0,0,0,0,-1,1420,1541,0,0
203,-517,0,0,0,0,0,0,0,0,0,-1,1427,1541,0,0
210,-517,0,0,0,0,0,0,0,0,0,-1,1434,1541,0,0
217,-517,0,0,0,0,0,0,0,0,0,-1,1441,1541,0,0
224,-517,0,0,0,0,0,0,0,0,0,-1,1448,1541,0,0
231,-517,0,0,0,0,0,0,0,0,0,-1,1455,1541,0,0
238,-517,0,0,0,0,0,0,0,0,0,-1,1462,1541,0,0
245,-517,0,0,0,0,0,0,0,0,0,-1,1469,1541,0,0
252,-517,0,0,0,0,0,0,0,0,0,-1,1476,1541,0,0
259,-517,0,0,0,0,0,0,0,0,0,-1,1483,1541,0,0
266,-517,0,0,0,0,0,0,0,0,0,-1,1490,1541,0,0
273,-517,0,0,0,0,0,0,0,0,0,-1,1497,1541,0,0
280,-517,0,0,0,0,0,0,0,0,0,-1,1504,1541,0,0
287,-517,0,0,0,0,0,0,0,0,0,-1,1511,1541,0,0
294,-517,0,0,0,0,0,0,0,0,0,-1,1518,1541,0,0
301,-517,0,0,0,0,0,0,0,0,0,-1,1525,1541,0,0
308,-517,0,0,0,0,0,0,0,0,0,-1,1532,1541,0,0
315,-517,0,0,0,0,0,0,0,0,0,-1,1539,1541,0,0
322,-517,0,0,0,0,0,0,0,0,0,-1,1546,1541,0,0
329,-517,0,0,0,0,0,0,0,0,0,-1,1553,1541,0,0
336,-517,0,0,0,0,0,0,0,0,0,-1,1560,1541,0,0
343,-517,0,0,0,0,0,0,0,0,0,-1,1567,1541,0,0
350,-517,0,0,0,0,0,0,0,0,0,-1,1574,1541,0,0
357,-517,0,0,0,0,0,0,0,0,0,-1,1581,1541,0,0
364,-517,0,0,0,0,0,0,0,0,0,-1,1588,1541,0,0
371,-517,0,0,0,0,0,0,0,0,0,-1,1595,1541,0,0
378,-517,0,0,0,0,0,0,0,0,0,-1,1602,1541,0,0
385,-517,0,0,0,0,0,0,0,0,0,-1,1609,1541,0,0
392,-517,0,0,0,0,0,0,0,0,0,-1,1616,1541,0,0
399,-517,0,0,0,0,0,0,0,0,0,-1,1623,1541,0,0
406,-517,13.1395,7.01978,0,0,0,0,0,0,0,-1,1630,1541,13.1396,-7.01981
413,-517,12.8859,6.31592,0,0,0,0,0,0,0,-1,1637,1541,12.8858,-6.31588
420,-517,12.4789,6.20337,0,0,0,0,0,0,0,-1,1644,1541,12.4789,-6.20333
427,-517,11.647,4.66516,0,0,0,0,0,0,0,-1,1651,1541,11.647,-4.66519
434,-517,12.3719,3.92773,0,0,0,0,0,0,0,-1,1658,1541,12.3719,-3.92776
441,-517,13.146,3.14124,0,0,0,0,0,0,0,-1,1665,1541,13.146,-3.14121
448,-517,13.8861,2.36682,0,0,0,0,0,0,0,-1,1672,1541,13.8861,-2.36684
455,-517,13.6012,4.06335,0,0,0,0,0,0,0,-1,1679,1541,13.6012,-4.06335
462,-517,14.8956,7.0752,0,0,0,0,0,0,0,-1,1686,1541,14.8956,-7.07525
469,-517,13.6292,6.87744,0,0,0,0,0,0,0,-1,1693,1541,13.6292,-6.87739
476,-517,17.1632,14.1487,0,0,0,0,0,0,0,-1,1700,1541,17.1632,-14.1487
483,-517,16.5157,15.0776,0,0,0,0,0,0,0,-1,1707,1541,16.5157,-15.0777
490,-517,15.5439,18.0258,0,0,0,0,0,0,0,-1,1714,1541,15.5439,-18.0258
497,-517,16.0292,18.7786,0,0,0,0,0,0,0,-1,1721,1541,16.0291,-18.7786
504,-517,15.49,19.7152,0,0,0,0,0,0,0,-1,1728,1541,15.49,-19.7153
511,-517,15.5829,19.4736,0,0,0,0,0,0,0,-1,1735,1541,15.5829,-19.4736
518,-517,15.7697,18.9648,0,0,0,0,0,0,0,-1,1742,1541,15.7697,-18.9648
525,-517,15.6501,18.6168,0.00351123,0.00179538,-0.000596912,0.00369846,0.00160816,-0.303938,0.00214135,0.01919,1749,1541,15.6501,-18.6168
532,-517,15.7946,18.1471,0.00259162,0.000987964,-0.000142722,0.00260422,0.000975361,-0.0880755,0.00151924,0.0104544,1756,1541,15.7945,-18.1471
539,-517,15.8047,17.7627,0.0019798,0.000401274,0.000149816,0.00199389,0.000387181,0.0937933,0.00122084,0.011758,1763,1541,15.8047,-17.7627
546,-517,15.796,17.3877,0.00161088,-3.2737e-05,0.000276617,0.00165619,-7.80423e-05,0.162342,0.00113104,0.012304,1770,1541,15.796,-17.3877
553,-517,15.7878,16.9739,0.00145193,-0.000367973,0.000264892,0.0014897,-0.000405745,0.141639,0.00115244,0.0155411,1777,1541,15.7879,-16.9738
560,-517,15.7958,16.5906,0.00149955,-0.000490459,0.000132966,0.0015084,-0.000499304,0.0664231,0.00120696,0.0169742,1784,1541,15.7958,-16.5905
567,-517,15.7734,16.2271,0.00182697,-0.000706327,-0.000121324,0.00183277,-0.000712124,-0.047746,0.00151604,0.0137595,1791,1541,15.7735,-16.2271
574,-517,15.7394,15.8204,0.00254673,-0.000570038,-0.000841537,0.00275943,-0.00078274,-0.247569,0.0021486,0.0136744,1798,1541,15.7394,-15.8204
581,-517,15.7124,15.4186,0.00338363,-0.000490903,-0.00156079,0.00393414,-0.00104142,-0.339092,0.00303015,0.0145809,1805,1541,15.7124,-15.4185
588,-517,15.7189,15.0232,0.00456135,-0.00037701,-0.0025158,0.00561724,-0.0014329,-0.397375,0.00430274,0.0166188,1812,1541,15.7189,-15.0231
595,-517,15.9408,14.4191,0,0,0,0,0,0,0,-1,1819,1541,15.9408,-14.4191
602,-517,15.8027,13.5498,0,0,0,0,0,0,0,-1,1826,1541,15.8027,-13.5498
609,-517,12.6417,10.8751,0,0,0,0,0,0,0,-1,1833,1541,12.6417,-10.8751
616,-517,14.205,10.3193,0,0,0,0,0,0,0,-1,1840,1541,14.205,-10.3194
623,-517,12.578,10.0779,0,0,0,0,0,0,0,-1,1847,1541,12.578,-10.0779
630,-517,11.7035,7.47815,0,0,0,0,0,0,0,-1,1854,1541,11.7035,-7.47812
637,-517,11.5172,5.79822,0,0,0,0,0,0,0,-1,1861,1541,11.5173,-5.79825
644,-517,11.4232,3.30579,0,0,0,0,0,0,0,-1,1868,1541,11.4232,-3.30574
651,-517,0,0,0,0,0,0,0,0,0,-1,1875,1541,0,0
658,-517,0,0,0,0,0,0,0,0,0,-1,1882,1541,0,0
665,-517,0,0,0,0,0,0,0,0,0,-1,1889,1541,0,0
672,-517,0,0,0,0,0,0,0,0,0,-1,1896,1541,0,0
679,-517,0,0,0,0,0,0,0,0,0,-1,1903,1541,0,0
686,-517,0,0,0,0,0,0,0,0,0,-1,1910,1541,0,0
693,-517,0,0,0,0,0,0,0,0,0,-1,1917,1541,0,0
700,-517,0,0,0,0,0,0,0,0,0,-1,1924,1541,0,0
707,-517,0,0,0,0,0,0,0,0,0,-1,1931,1541,0,0
714,-517,0,0,0,0,0,0,0,0,0,-1,1938,1541,0,0
721,-517,0,0,0,0,0,0,0,0,0,-1,1945,1541,0,0
728,-517,0,0,0,0,0,0,0,0,0,-1,1952,1541,0,0
735,-517,0,0,0,0,0,0,0,0,0,-1,1959,1541,0,0
742,-517,0,0,0,0,0,0,0,0,0,-1,1966,1541,0,0
749,-517,0,0,0,0,0,0,0,0,0,-1,1973,1541,0,0
756,-517,0,0,0,0,0,0,0,0,0,-1,1980,1541,0,0
763,-517,0,0,0,0,0,0,0,0,0,-1,1987,1541,0,0
770,-517,0,0,0,0,0,0,0,0,0,-1,1994,1541,0,0
777,-517,0,0,0,0,0,0,0,0,0,-1,2001,1541,0,0
784,-517,0,0,0,0,0,0,0,0,0,-1,2008,1541,0,0
791,-517,0,0,0,0,0,0,0,0,0,-1,2015,1541,0,0
798,-517,0,0,0,0,0,0,0,0,0,-1,2022,1541,0,0
805,-517,0,0,0,0,0,0,0,0,0,-1,2029,1541,0,0
812,-517,0,0,0,0,0,0,0,0,0,-1,2036,1541,0,0
-700,-524,0,0,0,0,0,0,0,0,0,-1,524,1548,0,0
-693,-524,0,0,0,0,0,0,0,0,0,-1,531,1548,0,0
-686,-524,0,0,0,0,0,0,0,0,0,-1,538,1548,0,0
-679,-524,0,0,0,0,0,0,0,0,0,-1,545,1548,0,0
-672,-524,0,0,0,0,0,0,0,0,0,-1,552,1548,0,0
-665,-524,0,0,0,0,0,0,0,0,0,-1,559,1548,0,0
-658,-524,0,0,0,0,0,0,0,0,0,-1,566,1548,0,0
-651,-524,0,0,0,0,0,0,0,0,0,-1,573,1548,0,0
-644,-524,0,0,0,0,0,0,0,0,0,-1,580,1548,0,0
-637,-524,0,0,0,0,0,0,0,0,0,-1,587,1548,0,0
-630,-524,0,0,0,0,0,0,0,0,0,-1,594,1548,0,0
-623,-524,0,0,0,0,0,0,0,0,0,-1,601,1548,0,0
-616,-524,0,0,0,0,0,0,0,0,0,-1,608,1548,0,0
-609,-524,0,0,0,0,0,0,0,0,0,-1,615,1548,0,0
-602,-524,0,0,0,0,0,0,0,0,0,-1,622,1548,0,0
-595,-524,0,0,0,0,0,0,0,0,0,-1,629,1548,0,0
-588,-524,0,0,0,0,0,0,0,0,0,-1,636,1548,0,0
-581,-524,0,0,0,0,0,0,0,0,0,-1,643,1548,0,0
-574,-524,0,0,0,0,0,0,0,0,0,-1,650,1548,0,0
-567,-524,0,0,0,0,0,0,0,0,0,-1,657,1548,0,0
-560,-524,0,0,0,0,0,0,0,0,0,-1,664,1548,0,0
-553,-524,0,0,0,0,0,0,0,0,0,-1,671,1548,0,0
-546,-524,0,0,0,0,0,0,0,0,0,-1,678,1548,0,0
-539,-524,0,0,0,0,0,0,0,0,0,-1,685,1548,0,0
-532,-524,0,0,0,0,0,0,0,0,0,-1,692,1548,0,0
-525,-524,-0.215515,3.97131,0,0,0,0,0,0,0,-1,699,1548,-0.215501,-3.97136
-518,-524,-0.806274,4.35632,0,0,0,0,0,0,0,-1,706,1548,-0.806259,-4.35633
-511,-524,-1.08301,4.29004,0,0,0,0,0,0,0,-1,713,1548,-1.08301,-4.29006
-504,-524,-1.28821,3.98145,0,0,0,0,0,0,0,-1,720,1548,-1.28822,-3.98151
-497,-524,-0.328491,8.63416,0,0,0,0,0,0,0,-1,727,1548,-0.328487,-8.63411
-490,-524,-1.23657,11.2687,0,0,0,0,0,0,0,-1,734,1548,-1.2366,-11.2687
-483,-524,-1.44281,11.7588,0,0,0,0,0,0,0,-1,741,1548,-1.44282,-11.7588
-476,-524,-1.59296,12.2991,0,0,0,0,0,0,0,-1,748,1548,-1.59293,-12.2991
-469,-524,-1.7113,12.7476,-0.00172995,0.000977622,0.00019893,0.00099216,-0.00174449,1.49785,0.00159978,0.0361444,755,1548,-1.71133,-12.7475
-462,-524,-1.7605,13.1971,-0.00202803,0.000816539,0.000639556,0.000953718,-0.00216521,1.35951,0.00184544,0.0297097,762,1548,-1.76047,-13.1972
-455,-524,-1.88123,13.5782,-0.00173382,0.000932717,0.00127482,0.00144411,-0.00224521,1.1893,0.0021467,0.0220065,769,1548,-1.88123,-13.5782
-448,-524,-1.86102,13.9991,-0.00157236,0.000780768,0.00143565,0.00146038,-0.00225197,1.12867,0.0021595,0.0132601,776,1548,-1.86104,-13.9991
-441,-524,-1.87543,14.4203,-0.000945015,0.000828658,0.00172854,0.00188459,-0.00200094,1.02242,0.00224365,0.0110444,783,1548,-1.87544,-14.4203
-434,-524,-1.86908,14.8357,-0.000175732,0.00112188,0.00204756,0.00262097,-0.00167482,0.938828,0.00250015,0.0128061,790,1548,-1.86909,-14.8356
-427,-524,-1.88757,15.2562,0.000639727,0.00166428,0.00241012,0.00361596,-0.00131196,0.890115,0.00294697,0.0137543,797,1548,-1.8876,-15.2563
-420,-524,-1.92584,15.7079,0.00149467,0.00218201,0.00269596,0.00455612,-0.000879436,0.848795,0.00336904,0.0106884,804,1548,-1.92583,-15.7078
-413,-524,-1.92926,16.1471,0.00237607,0.00295375,0.00304699,0.00572556,-0.000395741,0.832655,0.00395556,0.00985608,811,1548,-1.92923,-16.1471
-406,-524,-1.93573,16.5566,0.00320343,0.00416917,0.00361925,0.00733761,3.49809e-05,0.851715,0.00488012,0.0111906,818,1548,-1.93573,-16.5566
-399,-524,-1.95013,16.9626,0.0039175,0.00579561,0.00423902,0.00919834,0.000514771,0.894401,0.00596804,0.00948767,825,1548,-1.95015,-16.9626
-392,-524,-1.96088,17.3815,0.00467447,0.0081829,0.00483513,0.0115722,0.00128516,0.959417,0.0073241,0.00949484,832,1548,-1.96089,-17.3814
-385,-524,-1.97217,17.8381,0.00545645,0.0103794,0.00570432,0.0141307,0.00170518,0.989084,0.00890663,0.0133119,839,1548,-1.97219,-17.8381
-378,-524,-1.89679,18.505,0.00604268,0.0125,0.00617986,0.0162438,0.0022989,1.02612,0.01015,0.0417963,846,1548,-1.89678,-18.5051
-371,-524,-1.79657,19.1527,0,0,0,0,0,0,0,-1,853,1548,-1.79655,-19.1527
-364,-524,-0.712097,14.9871,0,0,0,0,0,0,0,-1,860,1548,-0.712116,-14.9871
-357,-524,-1.34052,14.7448,0,0,0,0,0,0,0,-1,867,1548,-1.34054,-14.7447
-350,-524,-2.63245,12.7522,0,0,0,0,0,0,0,-1,874,1548,-2.63245,-12.7522
-343,-524,-2.24896,17.5641,0,0,0,0,0,0,0,-1,881,1548,-2.24899,-17.5641
-336,-524,-2.74969,21.4781,0,0,0,0,0,0,0,-1,888,1548,-2.74967,-21.4781
-329,-524,-0.51886,20.425,0,0,0,0,0,0,0,-1,895,1548,-0.51886,-20.4251
-322,-524,-2.88702,18.4606,0,0,0,0,0,0,0,-1,902,1548,-2.88699,-18.4606
-315,-524,-1.90839,19.4824,0,0,0,0,0,0,0,-1,909,1548,-1.90838,-19.4824
-308,-524,-2.36938,19.3059,0,0,0,0,0,0,0,-1,916,1548,-2.3694,-19.3058
-301,-524,2.72394,17.7618,0,0,0,0,0,0,0,-1,923,1548,2.72396,-17.7619
-294,-524,-1.52515,9.05408,0,0,0,0,0,0,0,-1,930,1548,-1.52512,-9.05411
-287,-524,-0.962219,10.3199,0,0,0,0,0,0,0,-1,937,1548,-0.962241,-10.32
-280,-524,-1.36255,10.3859,0,0,0,0,0,0,0,-1,944,1548,-1.36253,-10.3859
-273,-524,0,0,0,0,0,0,0,0,0,-1,951,1548,0,0
-266,-524,0,0,0,0,0,0,0,0,0,-1,958,1548,0,0
-259,-524,0,0,0,0,0,0,0,0,0,-1,965,1548,0,0
-252,-524,0,0,0,0,0,0,0,0,0,-1,972,1548,0,0
-245,-524,0,0,0,0,0,0,0,0,0,-1,979,1548,0,0
-238,-524,0,0,0,0,0,0,0,0,0,-1,986,1548,0,0
-231,-524,0,0,0,0,0,0,0,0,0,-1,993,1548,0,0
-224,-524,0,0,0,0,0,0,0,0,0,-1,1000,1548,0,0
-217,-524,0,0,0,0,0,0,0,0,0,-1,1007,1548,0,0
-210,-524,0,0,0,0,0,0,0,0,0,-1,1014,1548,0,0
-203,-524,0,0,0,0,0,0,0,0,0,-1,1021,1548,0,0
-196,-524,0,0,0,0,0,0,0,0,0,-1,1028,1548,0,0
-189,-524,0,0,0,0,0,0,0,0,0,-1,1035,1548,0,0
-182,-524,0,0,0,0,0,0,0,0,0,-1,1042,1548,0,0
-175,-524,0,0,0,0,0,0,0,0,0,-1,1049,1548,0,0
-168,-524,0,0,0,0,0,0,0,0,0,-1,1056,1548,0,0
-161,-524,0,0,0,0,0,0,0,0,0,-1,1063,1548,0,0
-154,-524,0,0,0,0,0,0,0,0,0,-1,1070,1548,0,0
-147,-524,0,0,0,0,0,0,0,0,0,-1,1077,1548,0,0
-140,-524,0,0,0,0,0,0,0,0,0,-1,1084,1548,0,0
-133,-524,0,0,0,0,0,0,0,0,0,-1,1091,1548,0,0
-126,-524,0,0,0,0,0,0,0,0,0,-1,1098,1548,0,0
-119,-524,0,0,0,0,0,0,0,0,0,-1,1105,1548,0,0
-112,-524,0,0,0,0,0,0,0,0,0,-1,1112,1548,0,0
-105,-524,0,0,0,0,0,0,0,0,0,-1,1119,1548,0,0
-98,-524,0,0,0,0,0,0,0,0,0,-1,1126,1548,0,0
-91,-524,0,0,0,0,0,0,0,0,0,-1,1133,1548,0,0
-84,-524,0,0,0,0,0,0,0,0,0,-1,1140,1548,0,0
-77,-524,0,0,0,0,0,0,0,0,0,-1,1147,1548,0,0
-70,-524,0,0,0,0,0,0,0,0,0,-1,1154,1548,0,0
-63,-524,0,0,0,0,0,0,0,0,0,-1,1161,1548,0,0
-56,-524,0,0,0,0,0,0,0,0,0,-1,1168,1548,0,0
-49,-524,0,0,0,0,0,0,0,0,0,-1,1175,1548,0,0
-42,-524,0,0,0,0,0,0,0,0,0,-1,1182,1548,0,0
-35,-524,0,0,0,0,0,0,0,0,0,-1,1189,1548,0,0
-28,-524,0,0,0,0,0,0,0,0,0,-1,1196,1548,0,0
-21,-524,0,0,0,0,0,0,0,0,0,-1,1203,1548,0,0
-14,-524,0,0,0,0,0,0,0,0,0,-1,1210,1548,0,0
-7,-524,0,0,0,0,0,0,0,0,0,-1,1217,1548,0,0
0,-524,0,0,0,0,0,0,0,0,0,-1,1224,1548,0,0
7,-524,0,0,0,0,0,0,0,0,0,-1,1231,1548,0,0
14,-524,0,0,0,0,0,0,0,0,0,-1,1238,1548,0,0
21,-524,0,0,0,0,0,0,0,0,0,-1,1245,1548,0,0
28,-524,0,0,0,0,0,0,0,0,0,-1,1252,1548,0,0
35,-524,0,0,0,0,0,0,0,0,0,-1,1259,1548,0,0
42,-524,0,0,0,0,0,0,0,0,0,-1,1266,1548,0,0
49,-524,0,0,0,0,0,0,0,0,0,-1,1273,1548,0,0
56,-524,0,0,0,0,0,0,0,0,0,-1,1280,1548,0,0
63,-524,0,0,0,0,0,0,0,0,0,-1,1287,1548,0,0
70,-524,0,0,0,0,0,0,0,0,0,-1,1294,1548,0,0
77,-524,0,0,0,0,0,0,0,0,0,-1,1301,1548,0,0
84,-524,0,0,0,0,0,0,0,0,0,-1,1308,1548,0,0
91,-524,0,0,0,0,0,0,0,0,0,-1,1315,1548,0,0
98,-524,0,0,0,0,0,0,0,0,0,-1,1322,1548,0,0
105,-524,0,0,0,0,0,0,0,0,0,-1,1329,1548,0,0
112,-524,0,0,0,0,0,0,0,0,0,-1,1336,1548,0,0
119,-524,0,0,0,0,0,0,0,0,0,-1,1343,1548,0,0
126,-524,0,0,0,0,0,0,0,0,0,-1,1350,1548,0,0
133,-524,0,0,0,0,0,0,0,0,0,-1,1357,1548,0,0
140,-524,0,0,0,0,0,0,0,0,0,-1,1364,1548,0,0
147,-524,0,0,0,0,0,0,0,0,0,-1,1371,1548,0,0
154,-524,0,0,0,0,0,0,0,0,0,-1,1378,1548,0,0
161,-524,0,0,0,0,0,0,0,0,0,-1,1385,1548,0,0
168,-524,0,0,0,0,0,0,0,0,0,-1,1392,1548,0,0
175,-524,0,0,0,0,0,0,0,0,0,-1,1399,1548,0,0
182,-524,0,0,0,0,0,0,0,0,0,-1,1406,1548,0,0
189,-524,0,0,0,0,0,0,0,0,0,-1,1413,1548,0,0
196,-524,0,0,0,0,0,0,0,0,0,-1,1420,1548,0,0
203,-524,0,0,0,0,0,0,0,0,0,-1,1427,1548,0,0
210,-524,0,0,0,0,0,0,0,0,0,-1,1434,1548,0,0
217,-524,0,0,0,0,0,0,0,0,0,-1,1441,1548,0,0
224,-524,0,0,0,0,0,0,0,0,0,-1,1448,1548,0,0
231,-524,0,0,0,0,0,0,0,0,0,-1,1455,1548,0,0
238,-524,0,0,0,0,0,0,0,0,0,-1,1462,1548,0,0
245,-524,0,0,0,0,0,0,0,0,0,-1,1469,1548,0,0
252,-524,0,0,0,0,0,0,0,0,0,-1,1476,1548,0,0
259,-524,0,0,0,0,0,0,0,0,0,-1,1483,1548,0,0
266,-524,0,0,0,0,0,0,0,0,0,-1,1490,1548,0,0
273,-524,0,0,0,0,0,0,0,0,0,-1,1497,1548,0,0
280,-524,0,0,0,0,0,0,0,0,0,-1,1504,1548,0,0
287,-524,0,0,0,0,0,0,0,0,0,-1,1511,1548,0,0
294,-524,0,0,0,0,0,0,0,0,0,-1,1518,1548,0,0
301,-524,0,0,0,0,0,0,0,0,0,-1,1525,1548,0,0
308,-524,0,0,0,0,0,0,0,0,0,-1,1532,1548,0,0
315,-524,0,0,0,0,0,0,0,0,0,-1,1539,1548,0,0
322,-524,0,0,0,0,0,0,0,0,0,-1,1546,1548,0,0
329,-524,0,0,0,0,0,0,0,0,0,-1,1553,1548,0,0
336,-524,0,0,0,0,0,0,0,0,0,-1,1560,1548,0,0
343,-524,0,0,0,0,0,0,0,0,0,-1,1567,1548,0,0
350,-524,0,0,0,0,0,0,0,0,0,-1,1574,1548,0,0
357,-524,0,0,0,0,0,0,0,0,0,-1,1581,1548,0,0
364,-524,0,0,0,0,0,0,0,0,0,-1,1588,1548,0,0
371,-524,0,0,0,0,0,0,0,0,0,-1,1595,1548,0,0
378,-524,0,0,0,0,0,0,0,0,0,-1,1602,1548,0,0
385,-524,0,0,0,0,0,0,0,0,0,-1,1609,1548,0,0
392,-524,0,0,0,0,0,0,0,0,0,-1,1616,1548,0,0
399,-524,8.81848,5.05774,0,0,0,0,0,0,0,-1,1623,1548,8.81843,-5.05769
406,-524,8.64294,6.06799,0,0,0,0,0,0,0,-1,1630,1548,8.6429,-6.06805
413,-524,11.677,6.41858,0,0,0,0,0,0,0,-1,1637,1548,11.677,-6.41864
420,-524,11.4913,6.36401,0,0,0,0,0,0,0,-1,1644,1548,11.4913,-6.36402
427,-524,7.68335,6.17249,0,0,0,0,0,0,0,-1,1651,1548,7.68341,-6.17245
434,-524,10.432,11.6801,0,0,0,0,0,0,0,-1,1658,1548,10.432,-11.68
441,-524,8.78552,4.12305,0,0,0,0,0,0,0,-1,1665,1548,8.78553,-4.12301
448,-524,14.1854,4.78674,0,0,0,0,0,0,0,-1,1672,1548,14.1854,-4.78674
455,-524,12.4784,3.65576,0,0,0,0,0,0,0,-1,1679,1548,12.4784,-3.65572
462,-524,14.7551,9.29395,0,0,0,0,0,0,0,-1,1686,1548,14.7552,-9.29397
469,-524,16.3314,14.3779,0,0,0,0,0,0,0,-1,1693,1548,16.3314,-14.3779
476,-524,15.9106,15.1875,0,0,0,0,0,0,0,-1,1700,1548,15.9107,-15.1876
483,-524,15.2776,16.2268,0,0,0,0,0,0,0,-1,1707,1548,15.2776,-16.2269
490,-524,15.2563,18.5848,0,0,0,0,0,0,0,-1,1714,1548,15.2564,-18.5848
497,-524,15.5811,19.9082,0,0,0,0,0,0,0,-1,1721,1548,15.5811,-19.9082
504,-524,15.2928,19.6427,0,0,0,0,0,0,0,-1,1728,1548,15.2928,-19.6427
511,-524,15.3831,19.3364,0,0,0,0,0,0,0,-1,1735,1548,15.3831,-19.3364
518,-524,15.3993,18.9303,0.00466487,0.00332174,-0.00188039,0.00599002,0.00199659,-0.613887,0.00352181,0.0234761,1742,1548,15.3993,-18.9303
525,-524,15.3993,18.5696,0.00344681,0.00216458,-0.001104,0.00408235,0.00152904,-0.522338,0.00238155,0.0148776,1749,1548,15.3993,-18.5696
532,-524,15.4174,18.1704,0.00245418,0.00122254,-0.000479159,0.00261864,0.00105809,-0.330616,0.00152112,0.00957982,1756,1548,15.4174,-18.1704
539,-524,15.4135,17.7699,0.00178132,0.000464199,-2.04465e-05,0.00178163,0.000463882,-0.0155187,0.00106728,0.0106973,1763,1548,15.4134,-17.7699
546,-524,15.3915,17.3955,0.00130251,-0.000169011,0.000297974,0.00136056,-0.000227059,0.192399,0.00099143,0.0150116,1770,1548,15.3915,-17.3955
553,-524,15.4028,17.0123,0.00104003,-0.000724951,0.000483448,0.00116377,-0.000848697,0.250585,0.00116664,0.0246241,1777,1548,15.4029,-17.0123
560,-524,15.4055,16.6202,0.0010338,-0.0010493,0.000519186,0.00115603,-0.00117153,0.231213,0.00134383,0.0316291,1784,1548,15.4056,-16.6202
567,-524,15.349,16.2286,0.00136693,-0.00146645,0.00040422,0.00142346,-0.00152299,0.138971,0.00170146,0.0175959,1791,1548,15.349,-16.2286
574,-524,15.3573,15.8234,0.00217236,-0.00148812,-0.000249924,0.00218934,-0.0015051,-0.0678566,0.00214515,0.0123971,1798,1548,15.3573,-15.8234
581,-524,15.3585,15.4183,0.0032156,-0.00147792,-0.000983606,0.00341339,-0.00167572,-0.198446,0.00299475,0.0137475,1805,1548,15.3585,-15.4184
588,-524,15.403,15.0118,0.00472668,-0.00148695,-0.00203225,0.00533232,-0.00209259,-0.289635,0.00442071,0.0257049,1812,1548,15.403,-15.0118
595,-524,15.4777,14.4285,0,0,0,0,0,0,0,-1,1819,1548,15.4776,-14.4285
602,-524,13.837,12.0682,0,0,0,0,0,0,0,-1,1826,1548,13.837,-12.0683
609,-524,13.0056,10.5138,0,0,0,0,0,0,0,-1,1833,1548,13.0056,-10.5138
616,-524,11.6941,8.65515,0,0,0,0,0,0,0,-1,1840,1548,11.6941,-8.65514
623,-524,9.38452,5.15356,0,0,0,0,0,0,0,-1,1847,1548,9.38456,-5.15359
630,-524,11.0541,3.57434,0,0,0,0,0,0,0,-1,1854,1548,11.0541,-3.57438
637,-524,11.6067,3.20728,0,0,0,0,0,0,0,-1,1861,1548,11.6067,-3.20724
644,-524,12.2134,0.727173,0,0,0,0,0,0,0,-1,1868,1548,12.2134,-0.727222
651,-524,0,0,0,0,0,0,0,0,0,-1,1875,1548,0,0
658,-524,0,0,0,0,0,0,0,0,0,-1,1882,1548,0,0
665,-524,0,0,0,0,0,0,0,0,0,-1,1889,1548,0,0
672,-524,0,0,0,0,0,0,0,0,0,-1,1896,1548,0,0
679,-524,0,0,0,0,0,0,0,0,0,-1,1903,1548,0,0
686,-524,0,0,0,0,0,0,0,0,0,-1,1910,1548,0,0
693,-524,0,0,0,0,0,0,0,0,0,-1,1917,1548,0,0
700,-524,0,0,0,0,0,0,0,0,0,-1,1924,1548,0,0
707,-524,0,0,0,0,0,0,0,0,0,-1,1931,1548,0,0
714,-524,0,0,0,0,0,0,0,0,0,-1,1938,1548,0,0
721,-524,0,0,0,0,0,0,0,0,0,-1,1945,1548,0,0
728,-524,0,0,0,0,0,0,0,0,0,-1,1952,1548,0,0
735,-524,0,0,0,0,0,0,0,0,0,-1,1959,1548,0,0
742,-524,0,0,0,0,0,0,0,0,0,-1,1966,1548,0,0
749,-524,0,0,0,0,0,0,0,0,0,-1,1973,1548,0,0
756,-524,0,0,0,0,0,0,0,0,0,-1,1980,1548,0,0
763,-524,0,0,0,0,0,0,0,0,0,-1,1987,1548,0,0
770,-524,0,0,0,0,0,0,0,0,0,-1,1994,1548,0,0
777,-524,0,0,0,0,0,0,0,0,0,-1,2001,1548,0,0
784,-524,0,0,0,0,0,0,0,0,0,-1,2008,1548,0,0
791,-524,0,0,0,0,0,0,0,0,0,-1,2015,1548,0,0
798,-524,0,0,0,0,0,0,0,0,0,-1,2022,1548,0,0
805,-524,0,0,0,0,0,0,0,0,0,-1,2029,1548,0,0
812,-524,0,0,0,0,0,0,0,0,0,-1,2036,1548,0,0
-700,-531,0,0,0,0,0,0,0,0,0,-1,524,1555,0,0
-693,-531,0,0,0,0,0,0,0,0,0,-1,531,1555,0,0
-686,-531,0,0,0,0,0,0,0,0,0,-1,538,1555,0,0
-679,-531,0,0,0,0,0,0,0,0,0,-1,545,1555,0,0
-672,-531,0,0,0,0,0,0,0,0,0,-1,552,1555,0,0
-665,-531,0,0,0,0,0,0,0,0,0,-1,559,1555,0,0
-658,-531,0,0,0,0,0,0,0,0,0,-1,566,1555,0,0
-651,-531,0,0,0,0,0,0,0,0,0,-1,573,1555,0,0
-644,-531,0,0,0,0,0,0,0,0,0,-1,580,1555,0,0
-637,-531,0,0,0,0,0,0,0,0,0,-1,587,1555,0,0
-630,-531,0,0,0,0,0,0,0,0,0,-1,594,1555,0,0
-623,-531,0,0,0,0,0,0,0,0,0,-1,601,1555,0,0
-616,-531,0,0,0,0,0,0,0,0,0,-1,608,1555,0,0
-609,-531,0,0,0,0,0,0,0,0,0,-1,615,1555,0,0
-602,-531,0,0,0,0,0,0,0,0,0,-1,622,1555,0,0
-595,-531,0,0,0,0,0,0,0,0,0,-1,629,1555,0,0
-588,-531,0,0,0,0,0,0,0,0,0,-1,636,1555,0,0
-581,-531,0,0,0,0,0,0,0,0,0,-1,643,1555,0,0
-574,-531,0,0,0,0,0,0,0,0,0,-1,650,1555,0,0
-567,-531,0,0,0,0,0,0,0,0,0,-1,657,1555,0,0
-560,-531,0,0,0,0,0,0,0,0,0,-1,664,1555,0,0
-553,-531,0,0,0,0,0,0,0,0,0,-1,671,1555,0,0
-546,-531,0,0,0,0,0,0,0,0,0,-1,678,1555,0,0
-539,-531,0,0,0,0,0,0,0,0,0,-1,685,1555,0,0
-532,-531,0,0,0,0,0,0,0,0,0,-1,692,1555,0,0
-525,-531,0,0,0,0,0,0,0,0,0,-1,699,1555,0,0
-518,-531,-1.63983,4.03821,0,0,0,0,0,0,0,-1,706,1555,-1.63982,-4.03821
-511,-531,-2.9682,8.07483,0,0,0,0,0,0,0,-1,713,1555,-2.9682,-8.07479
-504,-531,-2.95978,0.557861,0,0,0,0,0,0,0,-1,720,1555,-2.95978,-0.557917
-497,-531,-2.46039,8.07422,0,0,0,0,0,0,0,-1,727,1555,-2.46039,-8.07423
-490,-531,-0.423462,7.92065,0,0,0,0,0,0,0,-1,734,1555,-0.42344,-7.92066
-483,-531,-1.30933,11.4504,0,0,0,0,0,0,0,-1,741,1555,-1.30932,-11.4504
-476,-531,-1.24622,12.4133,0,0,0,0,0,0,0,-1,748,1555,-1.24623,-12.4133
-469,-531,-1.18634,12.5654,-0.00235271,0.00275277,0.00199042,0.00343705,-0.00303699,1.23967,0.00374016,0.0415036,755,1555,-1.18636,-12.5654
-462,-531,-1.24255,13.1788,-0.00223767,0.0026003,0.00279097,0.00387469,-0.00351206,1.14246,0.00426646,0.0410155,762,1555,-1.24257,-13.1789
-455,-531,-1.44788,13.7308,-0.00183131,0.00234319,0.00320684,0.00408223,-0.00357034,1.07389,0.00442151,0.0340326,769,1555,-1.44788,-13.7309
-448,-531,-1.39606,14.0016,-0.00163719,0.00179374,0.00302721,0.00355776,-0.00340121,1.04318,0.0040181,0.0155894,776,1555,-1.39606,-14.0016
-441,-531,-1.448,14.4089,-0.0010955,0.00145311,0.00287764,0.00332597,-0.00296836,0.993836,0.00363599,0.0124327,783,1555,-1.44801,-14.409
-434,-531,-1.45294,14.8586,-0.000464775,0.00138956,0.00276625,0.00337988,-0.0024551,0.9471,0.00338291,0.0121939,790,1555,-1.45297,-14.8587
-427,-531,-1.46405,15.2892,0.000189615,0.00161877,0.00274924,0.00374478,-0.00193639,0.912544,0.00333496,0.0144313,797,1555,-1.46406,-15.2892
-420,-531,-1.48969,15.7324,0.000874542,0.0018795,0.00269496,0.00411842,-0.00136438,0.877566,0.00329593,0.0121808,804,1555,-1.48966,-15.7325
-413,-531,-1.50043,16.1595,0.00159796,0.00237132,0.00273316,0.00474502,-0.000775738,0.855671,0.00345111,0.0100399,811,1555,-1.50043,-16.1596
-406,-531,-1.51892,16.5613,0.0023137,0.00332245,0.00300984,0.00586988,-0.000233735,0.868414,0.00399344,0.0115616,818,1555,-1.51893,-16.5613
-399,-531,-1.53204,16.9614,0.00284695,0.00461564,0.0033346,0.00718117,0.000281417,0.915016,0.00469645,0.0137592,825,1555,-1.53202,-16.9614
-392,-531,-1.53809,17.3807,0.00337343,0.00646618,0.00359226,0.00883076,0.00100885,0.988648,0.00558137,0.0167864,832,1555,-1.53807,-17.3807
-385,-531,-1.57678,17.8145,0.00397791,0.00824043,0.00412375,0.0107511,0.00146724,1.02391,0.00673184,0.0144905,839,1555,-1.57679,-17.8145
-378,-531,-1.5874,18.1782,0.00445143,0.00989272,0.00441902,0.0123615,0.0019827,1.06133,0.00766602,0.0161971,846,1555,-1.58741,-18.1782
-371,-531,-1.49933,18.7167,0.00469247,0.0117641,0.00452549,0.0139713,0.00248529,1.11702,0.00860621,0.0303328,853,1555,-1.49931,-18.7167
-364,-531,-1.30139,19.5355,0,0,0,0,0,0,0,-1,860,1555,-1.30141,-19.5356
-357,-531,-1.48096,19.6919,0,0,0,0,0,0,0,-1,867,1555,-1.48099,-19.6919
-350,-531,-2.01654,20.5563,0,0,0,0,0,0,0,-1,874,1555,-2.01657,-20.5562
-343,-531,-1.98279,21.0615,0,0,0,0,0,0,0,-1,881,1555,-1.98279,-21.0615
-336,-531,-2.03314,21.0211,0,0,0,0,0,0,0,-1,888,1555,-2.03315,-21.0212
-329,-531,-2.11841,21.1429,0,0,0,0,0,0,0,-1,895,1555,-2.11841,-21.1429
-322,-531,-1.46075,17.7992,0,0,0,0,0,0,0,-1,902,1555,-1.46076,-17.7992
-315,-531,2.65302,22.1924,0,0,0,0,0,0,0,-1,909,1555,2.65303,-22.1924
-308,-531,-1.66455,19.0624,0,0,0,0,0,0,0,-1,916,1555,-1.66455,-19.0623
-301,-531,-2.02405,18.8912,0,0,0,0,0,0,0,-1,923,1555,-2.02407,-18.8913
-294,-531,-1.3244,8.1825,0,0,0,0,0,0,0,-1,930,1555,-1.3244,-8.18251
-287,-531,-1.78192,10.1661,0,0,0,0,0,0,0,-1,937,1555,-1.78192,-10.1661
-280,-531,-2.14508,10.3945,0,0,0,0,0,0,0,-1,944,1555,-2.14506,-10.3945
-273,-531,-2.50818,10.6229,0,0,0,0,0,0,0,-1,951,1555,-2.5082,-10.6229
-266,-531,-4.97742,17.9215,0,0,0,0,0,0,0,-1,958,1555,-4.97744,-17.9215
-259,-531,0,0,0,0,0,0,0,0,0,-1,965,1555,0,0
-252,-531,0,0,0,0,0,0,0,0,0,-1,972,1555,0,0
-245,-531,0,0,0,0,0,0,0,0,0,-1,979,1555,0,0
-238,-531,0,0,0,0,0,0,0,0,0,-1,986,1555,0,0
-231,-531,0,0,0,0,0,0,0,0,0,-1,993,1555,0,0
-224,-531,0,0,0,0,0,0,0,0,0,-1,1000,1555,0,0
-217,-531,0,0,0,0,0,0,0,0,0,-1,1007,1555,0,0
-210,-531,0,0,0,0,0,0,0,0,0,-1,1014,1555,0,0
-203,-531,0,0,0,0,0,0,0,0,0,-1,1021,1555,0,0
-196,-531,0,0,0,0,0,0,0,0,0,-1,1028,1555,0,0
-189,-531,0,0,0,0,0,0,0,0,0,-1,1035,1555,0,0
-182,-531,0,0,0,0,0,0,0,0,0,-1,1042,1555,0,0
-175,-531,0,0,0,0,0,0,0,0,0,-1,1049,1555,0,0
-168,-531,0,0,0,0,0,0,0,0,0,-1,1056,1555,0,0
-161,-531,0,0,0,0,0,0,0,0,0,-1,1063,1555,0,0
-154,-531,0,0,0,0,0,0,0,0,0,-1,1070,1555,0,0
-147,-531,0,0,0,0,0,0,0,0,0,-1,1077,1555,0,0
-140,-531,0,0,0,0,0,0,0,0,0,-1,1084,1555,0,0
-133,-531,0,0,0,0,0,0,0,0,0,-1,1091,1555,0,0
-126,-531,0,0,0,0,0,0,0,0,0,-1,1098,1555,0,0
-119,-531,0,0,0,0,0,0,0,0,0,-1,1105,1555,0,0
-112,-531,0,0,0,0,0,0,0,0,0,-1,1112,1555,0,0
-105,-531,0,0,0,0,0,0,0,0,0,-1,1119,1555,0,0
-98,-531,0,0,0,0,0,0,0,0,0,-1,1126,1555,0,0
-91,-531,0,0,0,0,0,0,0,0,0,-1,1133,1555,0,0
-84,-531,0,0,0,0,0,0,0,0,0,-1,1140,1555,0,0
-77,-531,0,0,0,0,0,0,0,0,0,-1,1147,1555,0,0
-70,-531,0,0,0,0,0,0,0,0,0,-1,1154,1555,0,0
-63,-531,0,0,0,0,0,0,0,0,0,-1,1161,1555,0,0
-56,-531,0,0,0,0,0,0,0,0,0,-1,1168,1555,0,0
-49,-531,0,0,0,0,0,0,0,0,0,-1,1175,1555,0,0
-42,-531,0,0,0,0,0,0,0,0,0,-1,1182,1555,0,0
-35,-531,0,0,0,0,0,0,0,0,0,-1,1189,1555,0,0
-28,-531,0,0,0,0,0,0,0,0,0,-1,1196,1555,0,0
-21,-531,0,0,0,0,0,0,0,0,0,-1,1203,1555,0,0
-14,-531,0,0,0,0,0,0,0,0,0,-1,1210,1555,0,0
-7,-531,0,0,0,0,0,0,0,0,0,-1,1217,1555,0,0
0,-531,0,0,0,0,0,0,0,0,0,-1,1224,1555,0,0
7,-531,0,0,0,0,0,0,0,0,0,-1,1231,1555,0,0
14,-531,0,0,0,0,0,0,0,0,0,-1,1238,1555,0,0
21,-531,0,0,0,0,0,0,0,0,0,-1,1245,1555,0,0
28,-531,0,0,0,0,0,0,0,0,0,-1,1252,1555,0,0
35,-531,0,0,0,0,0,0,0,0,0,-1,1259,1555,0,0
42,-531,0,0,0,0,0,0,0,0,0,-1,1266,1555,0,0
49,-531,0,0,0,0,0,0,0,0,0,-1,1273,1555,0,0
56,-531,0,0,0,0,0,0,0,0,0,-1,1280,1555,0,0
63,-531,0,0,0,0,0,0,0,0,0,-1,1287,1555,0,0
70,-531,0,0,0,0,0,0,0,0,0,-1,1294,1555,0,0
77,-531,0,0,0,0,0,0,0,0,0,-1,1301,1555,0,0
84,-531,0,0,0,0,0,0,0,0,0,-1,1308,1555,0,0
91,-531,0,0,0,0,0,0,0,0,0,-1,1315,1555,0,0
98,-531,0,0,0,0,0,0,0,0,0,-1,1322,1555,0,0
105,-531,0,0,0,0,0,0,0,0,0,-1,1329,1555,0,0
112,-531,0,0,0,0,0,0,0,0,0,-1,1336,1555,0,0
119,-531,0,0,0,0,0,0,0,0,0,-1,1343,1555,0,0
126,-531,0,0,0,0,0,0,0,0,0,-1,1350,1555,0,0
133,-531,0,0,0,0,0,0,0,0,0,-1,1357,1555,0,0
140,-531,0,0,0,0,0,0,0,0,0,-1,1364,1555,0,0
147,-531,0,0,0,0,0,0,0,0,0,-1,1371,1555,0,0
154,-531,0,0,0,0,0,0,0,0,0,-1,1378,1555,0,0
161,-531,0,0,0,0,0,0,0,0,0,-1,1385,1555,0,0
168,-531,0,0,0,0,0,0,0,0,0,-1,1392,1555,0,0
175,-531,0,0,0,0,0,0,0,0,0,-1,1399,1555,0,0
182,-531,0,0,0,0,0,0,0,0,0,-1,1406,1555,0,0
189,-531,0,0,0,0,0,0,0,0,0,-1,1413,1555,0,0
196,-531,0,0,0,0,0,0,0,0,0,-1,1420,1555,0,0
203,-531,0,0,0,0,0,0,0,0,0,-1,1427,1555,0,0
210,-531,0,0,0,0,0,0,0,0,0,-1,1434,1555,0,0
217,-531,0,0,0,0,0,0,0,0,0,-1,1441,1555,0,0
224,-531,0,0,0,0,0,0,0,0,0,-1,1448,1555,0,0
231,-531,0,0,0,0,0,0,0,0,0,-1,1455,1555,0,0
238,-531,0,0,0,0,0,0,0,0,0,-1,1462,1555,0,0
245,-531,0,0,0,0,0,0,0,0,0,-1,1469,1555,0,0
252,-531,0,0,0,0,0,0,0,0,0,-1,1476,1555,0,0
259,-531,0,0,0,0,0,0,0,0,0,-1,1483,1555,0,0
266,-531,0,0,0,0,0,0,0,0,0,-1,1490,1555,0,0
273,-531,0,0,0,0,0,0,0,0,0,-1,1497,1555,0,0
280,-531,0,0,0,0,0,0,0,0,0,-1,1504,1555,0,0
287,-531,0,0,0,0,0,0,0,0,0,-1,1511,1555,0,0
294,-531,0,0,0,0,0,0,0,0,0,-1,1518,1555,0,0
301,-531,0,0,0,0,0,0,0,0,0,-1,1525,1555,0,0
308,-531,0,0,0,0,0,0,0,0,0,-1,1532,1555,0,0
315,-531,0,0,0,0,0,0,0,0,0,-1,1539,1555,0,0
322,-531,0,0,0,0,0,0,0,0,0,-1,1546,1555,0,0
329,-531,0,0,0,0,0,0,0,0,0,-1,1553,1555,0,0
336,-531,0,0,0,0,0,0,0,0,0,-1,1560,1555,0,0
343,-531,0,0,0,0,0,0,0,0,0,-1,1567,1555,0,0
350,-531,0,0,0,0,0,0,0,0,0,-1,1574,1555,0,0
357,-531,0,0,0,0,0,0,0,0,0,-1,1581,1555,0,0
364,-531,0,0,0,0,0,0,0,0,0,-1,1588,1555,0,0
371,-531,0,0,0,0,0,0,0,0,0,-1,1595,1555,0,0
378,-531,0,0,0,0,0,0,0,0,0,-1,1602,1555,0,0
385,-531,3.48169,1.78625,0,0,0,0,0,0,0,-1,1609,1555,3.48165,-1.78624
392,-531,10.8781,9.09204,0,0,0,0,0,0,0,-1,1616,1555,10.8781,-9.09205
399,-531,8.26306,5.29602,0,0,0,0,0,0,0,-1,1623,1555,8.26302,-5.29607
406,-531,8.26147,5.42712,0,0,0,0,0,0,0,-1,1630,1555,8.26145,-5.42716
413,-531,8.20618,5.75012,0,0,0,0,0,0,0,-1,1637,1555,8.20619,-5.75017
420,-531,7.64868,7.09558,0,0,0,0,0,0,0,-1,1644,1555,7.64867,-7.09564
427,-531,9.93054,11.8412,0,0,0,0,0,0,0,-1,1651,1555,9.93059,-11.8412
434,-531,10.244,11.7072,0,0,0,0,0,0,0,-1,1658,1555,10.244,-11.7071
441,-531,11.4528,12.9397,0,0,0,0,0,0,0,-1,1665,1555,11.4528,-12.9397
448,-531,11.928,18.8029,0,0,0,0,0,0,0,-1,1672,1555,11.928,-18.8028
455,-531,14.4877,9.67065,0,0,0,0,0,0,0,-1,1679,1555,14.4876,-9.67066
462,-531,13.5253,12.2002,0,0,0,0,0,0,0,-1,1686,1555,13.5252,-12.2002
469,-531,15.5087,15.7894,0,0,0,0,0,0,0,-1,1693,1555,15.5086,-15.7895
476,-531,14.6582,16.2264,0,0,0,0,0,0,0,-1,1700,1555,14.6582,-16.2264
483,-531,14.755,18.5994,0,0,0,0,0,0,0,-1,1707,1555,14.7551,-18.5994
490,-531,14.6288,20.9493,0,0,0,0,0,0,0,-1,1714,1555,14.6288,-20.9493
497,-531,14.8462,20.3231,0,0,0,0,0,0,0,-1,1721,1555,14.8462,-20.3231
504,-531,14.926,19.8041,0.00619081,0.00549547,-0.00348724,0.00934767,0.00233861,-0.735713,0.00561694,0.0249149,1728,1555,14.9261,-19.804
511,-531,15.0018,19.3605,0.00537125,0.00456061,-0.00289759,0.00789174,0.00204013,-0.715908,0.00473012,0.0148624,1735,1555,15.0018,-19.3605
518,-531,15.0157,18.9503,0.00427332,0.00324147,-0.00204265,0.00586419,0.0016506,-0.661698,0.00349182,0.0162391,1742,1555,15.0157,-18.9503
525,-531,15.0251,18.5698,0.00313235,0.00202676,-0.00120569,0.00390593,0.00125318,-0.570452,0.00230284,0.0151692,1749,1555,15.0252,-18.5699
532,-531,15.0542,18.1843,0.00219424,0.000987779,-0.000488448,0.0023672,0.000814821,-0.34032,0.00138864,0.0109351,1756,1555,15.0542,-18.1844
539,-531,15.0273,17.7942,0.00155118,8.1362e-05,8.26714e-05,0.00155581,7.67267e-05,0.0560107,0.0010126,0.0124322,1763,1555,15.0273,-17.7941
546,-531,14.9623,17.4119,0.00102024,-0.000750999,0.000570261,0.00118796,-0.000918717,0.286041,0.0012196,0.0163882,1770,1555,14.9623,-17.4119
553,-531,15.0139,17.0682,0.000681,-0.00153255,0.000951547,0.00103381,-0.00188536,0.355063,0.00170912,0.0325773,1777,1555,15.0139,-17.0683
560,-531,14.9991,16.7035,0.000615409,-0.00208095,0.00116909,0.00105171,-0.00251725,0.357186,0.00211765,0.0324916,1784,1555,14.9992,-16.7035
567,-531,14.9147,16.251,0.00091497,-0.00271685,0.00122143,0.00128754,-0.00308942,0.296059,0.00259744,0.0189272,1791,1555,14.9146,-16.251
574,-531,14.9445,15.838,0.00175293,-0.00293509,0.000682556,0.00185029,-0.00303245,0.141678,0.00284646,0.0133435,1798,1555,14.9445,-15.838
581,-531,14.9746,15.4224,0.00298325,-0.00300431,-3.52211e-05,0.00298345,-0.00300452,-0.00588211,0.00345716,0.0156144,1805,1555,14.9747,-15.4224
588,-531,15.0217,14.9468,0.00484636,-0.00317268,-0.00114146,0.00500568,-0.003332,-0.138675,0.00484598,0.0299452,1812,1555,15.0217,-14.9468
595,-531,15.0693,14.4011,0,0,0,0,0,0,0,-1,1819,1555,15.0693,-14.4011
602,-531,13.701,11.8346,0,0,0,0,0,0,0,-1,1826,1555,13.701,-11.8347
609,-531,10.9072,8.50903,0,0,0,0,0,0,0,-1,1833,1555,10.9073,-8.50902
616,-531,10.5723,7.17859,0,0,0,0,0,0,0,-1,1840,1555,10.5723,-7.17855
623,-531,10.0674,5.08984,0,0,0,0,0,0,0,-1,1847,1555,10.0674,-5.08981
630,-531,11.672,3.18909,0,0,0,0,0,0,0,-1,1854,1555,11.672,-3.18904
637,-531,13.2546,1.38965,0,0,0,0,0,0,0,-1,1861,1555,13.2547,-1.3896
644,-531,0,0,0,0,0,0,0,0,0,-1,1868,1555,0,0
651,-531,0,0,0,0,0,0,0,0,0,-1,1875,1555,0,0
658,-531,0,0,0,0,0,0,0,0,0,-1,1882,1555,0,0
665,-531,0,0,0,0,0,0,0,0,0,-1,1889,1555,0,0
672,-531,0,0,0,0,0,0,0,0,0,-1,1896,1555,0,0
679,-531,0,0,0,0,0,0,0,0,0,-1,1903,1555,0,0
686,-531,0,0,0,0,0,0,0,0,0,-1,1910,1555,0,0
693,-531,0,0,0,0,0,0,0,0,0,-1,1917,1555,0,0
700,-531,0,0,0,0,0,0,0,0,0,-1,1924,1555,0,0
707,-531,0,0,0,0,0,0,0,0,0,-1,1931,1555,0,0
714,-531,0,0,0,0,0,0,0,0,0,-1,1938,1555,0,0
721,-531,0,0,0,0,0,0,0,0,0,-1,1945,1555,0,0
728,-531,0,0,0,0,0,0,0,0,0,-1,1952,1555,0,0
735,-531,0,0,0,0,0,0,0,0,0,-1,1959,1555,0,0
742,-531,0,0,0,0,0,0,0,0,0,-1,1966,1555,0,0
749,-531,0,0,0,0,0,0,0,0,0,-1,1973,1555,0,0
756,-531,0,0,0,0,0,0,0,0,0,-1,1980,1555,0,0
763,-531,0,0,0,0,0,0,0,0,0,-1,1987,1555,0,0
770,-531,0,0,0,0,0,0,0,0,0,-1,1994,1555,0,0
777,-531,0,0,0,0,0,0,0,0,0,-1,2001,1555,0,0
784,-531,0,0,0,0,0,0,0,0,0,-1,2008,1555,0,0
791,-531,0,0,0,0,0,0,0,0,0,-1,2015,1555,0,0
798,-531,0,0,0,0,0,0,0,0,0,-1,2022,1555,0,0
805,-531,0,0,0,0,0,0,0,0,0,-1,2029,1555,0,0
812,-531,0,0,0,0,0,0,0,0,0,-1,2036,1555,0,0
-700,-538,0,0,0,0,0,0,0,0,0,-1,524,1562,0,0
-693,-538,0,0,0,0,0,0,0,0,0,-1,531,1562,0,0
-686,-538,0,0,0,0,0,0,0,0,0,-1,538,1562,0,0
-679,-538,0,0,0,0,0,0,0,0,0,-1,545,1562,0,0
-672,-538,0,0,0,0,0,0,0,0,0,-1,552,1562,0,0
-665,-538,0,0,0,0,0,0,0,0,0,-1,559,1562,0,0
-658,-538,0,0,0,0,0,0,0,0,0,-1,566,1562,0,0
-651,-538,0,0,0,0,0,0,0,0,0,-1,573,1562,0,0
-644,-538,0,0,0,0,0,0,0,0,0,-1,580,1562,0,0
-637,-538,0,0,0,0,0,0,0,0,0,-1,587,1562,0,0
-630,-538,0,0,0,0,0,0,0,0,0,-1,594,1562,0,0
-623,-538,0,0,0,0,0,0,0,0,0,-1,601,1562,0,0
-616,-538,0,0,0,0,0,0,0,0,0,-1,608,1562,0,0
-609,-538,0,0,0,0,0,0,0,0,0,-1,615,1562,0,0
-602,-538,0,0,0,0,0,0,0,0,0,-1,622,1562,0,0
-595,-538,0,0,0,0,0,0,0,0,0,-1,629,1562,0,0
-588,-538,0,0,0,0,0,0,0,0,0,-1,636,1562,0,0
-581,-538,0,0,0,0,0,0,0,0,0,-1,643,1562,0,0
-574,-538,0,0,0,0,0,0,0,0,0,-1,650,1562,0,0
-567,-538,0,0,0,0,0,0,0,0,0,-1,657,1562,0,0
-560,-538,0,0,0,0,0,0,0,0,0,-1,664,1562,0,0
-553,-538,0,0,0,0,0,0,0,0,0,-1,671,1562,0,0
-546,-538,0,0,0,0,0,0,0,0,0,-1,678,1562,0,0
-539,-538,0,0,0,0,0,0,0,0,0,-1,685,1562,0,0
-532,-538,0,0,0,0,0,0,0,0,0,-1,692,1562,0,0
-525,-538,0,0,0,0,0,0,0,0,0,-1,699,1562,0,0
-518,-538,0,0,0,0,0,0,0,0,0,-1,706,1562,0,0
-511,-538,-2.6582,-1.54321,0,0,0,0,0,0,0,-1,713,1562,-2.65821,1.54327
-504,-538,-2.66455,-0.71167,0,0,0,0,0,0,0,-1,720,1562,-2.66456,0.711667
-497,-538,-0.763855,6.77747,0,0,0,0,0,0,0,-1,727,1562,-0.76385,-6.77743
-490,-538,-2.70453,8.01465,0,0,0,0,0,0,0,-1,734,1562,-2.70451,-8.0147
-483,-538,-0.933533,7.84644,0,0,0,0,0,0,0,-1,741,1562,-0.933548,-7.84638
-476,-538,-1.86597,11.7867,0,0,0,0,0,0,0,-1,748,1562,-1.866,-11.7868
-469,-538,-0.917419,12.4791,0,0,0,0,0,0,0,-1,755,1562,-0.917439,-12.4791
-462,-538,-0.725037,13.1924,-0.00216026,0.00517967,0.00625298,0.00876011,-0.0057407,1.05077,0.00843233,0.0444248,762,1562,-0.725011,-13.1924
-455,-538,-0.972412,13.6796,-0.00159551,0.00435589,0.00622919,0.00828364,-0.00552326,1.00822,0.00802435,0.0390495,769,1562,-0.97239,-13.6796
-448,-538,-0.934448,14.1039,-0.00139604,0.00323003,0.00541196,0.00680253,-0.00496853,0.987346,0.00682346,0.0181763,776,1562,-0.93443,-14.1039
-441,-538,-0.98761,14.5168,-0.00104238,0.00239076,0.00455609,0.00554293,-0.00419454,0.965556,0.00563987,0.0187375,783,1562,-0.9876,-14.5169
-434,-538,-1.039,14.8798,-0.000638082,0.00184347,0.0038224,0.00462143,-0.00341605,0.942336,0.0046578,0.0130486,790,1562,-1.039,-14.8797
-427,-538,-1.06665,15.2966,-0.000196311,0.00166494,0.00329023,0.00415362,-0.002685,0.923221,0.00397851,0.014274,797,1562,-1.06663,-15.2966
-420,-538,-1.09387,15.7305,0.000289378,0.00162332,0.00281072,0.00384512,-0.00193242,0.901892,0.00339605,0.0173047,804,1562,-1.09388,-15.7305
-413,-538,-1.10516,16.1653,0.000849946,0.00181928,0.00249893,0.00388011,-0.00121088,0.881184,0.003071,0.0166552,811,1562,-1.10518,-16.1653
-406,-538,-1.09943,16.5614,0.00147658,0.00249384,0.00247655,0.00451345,-0.000543031,0.886679,0.00320534,0.014,818,1562,-1.09943,-16.5615
-399,-538,-1.1156,16.9783,0.00188968,0.00345386,0.00254627,0.00533545,8.09436e-06,0.9344,0.00355427,0.0135112,825,1562,-1.11557,-16.9783
-392,-538,-1.11292,17.3937,0.00227137,0.00478691,0.00253181,0.00635616,0.000702124,1.01593,0.00402387,0.0148302,832,1562,-1.1129,-17.3937
-385,-538,-1.13635,17.8188,0.00279113,0.00619893,0.00282332,0.00779267,0.0011974,1.0569,0.00484555,0.0121833,839,1562,-1.13637,-17.8189
-378,-538,-1.14001,18.2164,0.00325454,0.0074763,0.00304274,0.00906867,0.00166217,1.08865,0.00557494,0.00987212,846,1562,-1.14003,-18.2164
-371,-538,-1.1604,18.5963,0.00352392,0.00888418,0.00311569,0.0103139,0.00209423,1.14059,0.00629504,0.0130684,853,1562,-1.16039,-18.5963
-364,-538,-1.11432,19.0879,0.00371853,0.0102671,0.00289462,0.0113632,0.00262249,1.20883,0.0068702,0.0164587,860,1562,-1.11429,-19.0879
-357,-538,-1.07916,19.589,0.00408532,0.0121253,0.00258156,0.0128828,0.00332778,1.28537,0.00772213,0.0355811,867,1562,-1.07914,-19.589
-350,-538,-1.30688,20.0597,0.00421477,0.0138634,0.00204474,0.0142789,0.00379934,1.37035,0.00853935,0.0446928,874,1562,-1.30688,-20.0597
-343,-538,-1.33661,20.5729,0.00417054,0.0153813,0.00100722,0.015471,0.00408077,1.4819,0.00925856,0.0491401,881,1562,-1.3366,-20.5728
-336,-538,-1.36029,20.5931,0,0,0,0,0,0,0,-1,888,1562,-1.36028,-20.5931
-329,-538,-1.48883,20.4579,0,0,0,0,0,0,0,-1,895,1562,-1.48885,-20.4579
-322,-538,-1.82544,20.4552,0,0,0,0,0,0,0,-1,902,1562,-1.82543,-20.4552
-315,-538,1.97791,21.545,0,0,0,0,0,0,0,-1,909,1562,1.97789,-21.545
-308,-538,2.00873,22.4119,0,0,0,0,0,0,0,-1,916,1562,2.00876,-22.4118
-301,-538,-0.452393,18.5101,0,0,0,0,0,0,0,-1,923,1562,-0.452367,-18.5102
-294,-538,1.23138,14.0757,0,0,0,0,0,0,0,-1,930,1562,1.23137,-14.0757
-287,-538,-2.60419,10.2361,0,0,0,0,0,0,0,-1,937,1562,-2.6042,-10.2361
-280,-538,-2.93475,10.5106,0,0,0,0,0,0,0,-1,944,1562,-2.93475,-10.5106
-273,-538,-3.26532,10.785,0,0,0,0,0,0,0,-1,951,1562,-3.26531,-10.785
-266,-538,-5.03412,15.9951,0,0,0,0,0,0,0,-1,958,1562,-5.03409,-15.9951
-259,-538,-5.89642,16.5184,0,0,0,0,0,0,0,-1,965,1562,-5.89644,-16.5184
-252,-538,0,0,0,0,0,0,0,0,0,-1,972,1562,0,0
-245,-538,0,0,0,0,0,0,0,0,0,-1,979,1562,0,0
-238,-538,0,0,0,0,0,0,0,0,0,-1,986,1562,0,0
-231,-538,0,0,0,0,0,0,0,0,0,-1,993,1562,0,0
-224,-538,0,0,0,0,0,0,0,0,0,-1,1000,1562,0,0
-217,-538,0,0,0,0,0,0,0,0,0,-1,1007,1562,0,0
-210,-538,0,0,0,0,0,0,0,0,0,-1,1014,1562,0,0
-203,-538,0,0,0,0,0,0,0,0,0,-1,1021,1562,0,0
-196,-538,0,0,0,0,0,0,0,0,0,-1,1028,1562,0,0
-189,-538,0,0,0,0,0,0,0,0,0,-1,1035,1562,0,0
-182,-538,0,0,0,0,0,0,0,0,0,-1,1042,1562,0,0
-175,-538,0,0,0,0,0,0,0,0,0,-1,1049,1562,0,0
-168,-538,0,0,0,0,0,0,0,0,0,-1,1056,1562,0,0
-161,-538,0,0,0,0,0,0,0,0,0,-1,1063,1562,0,0
-154,-538,0,0,0,0,0,0,0,0,0,-1,1070,1562,0,0
-147,-538,0,0,0,0,0,0,0,0,0,-1,1077,1562,0,0
-140,-538,0,0,0,0,0,0,0,0,0,-1,1084,1562,0,0
-133,-538,0,0,0,0,0,0,0,0,0,-1,1091,1562,0,0
-126,-538,0,0,0,0,0,0,0,0,0,-1,1098,1562,0,0
-119,-538,0,0,0,0,0,0,0,0,0,-1,1105,1562,0,0
-112,-538,0,0,0,0,0,0,0,0,0,-1,1112,1562,0,0
-105,-538,0,0,0,0,0,0,0,0,0,-1,1119,1562,0,0
-98,-538,0,0,0,0,0,0,0,0,0,-1,1126,1562,0,0
-91,-538,0,0,0,0,0,0,0,0,0,-1,1133,1562,0,0
-84,-538,0,0,0,0,0,0,0,0,0,-1,1140,1562,0,0
-77,-538,0,0,0,0,0,0,0,0,0,-1,1147,1562,0,0
-70,-538,0,0,0,0,0,0,0,0,0,-1,1154,1562,0,0
-63,-538,0,0,0,0,0,0,0,0,0,-1,1161,1562,0,0
-56,-538,0,0,0,0,0,0,0,0,0,-1,1168,1562,0,0
-49,-538,0,0,0,0,0,0,0,0,0,-1,1175,1562,0,0
-42,-538,0,0,0,0,0,0,0,0,0,-1,1182,1562,0,0
-35,-538,0,0,0,0,0,0,0,0,0,-1,1189,1562,0,0
-28,-538,0,0,0,0,0,0,0,0,0,-1,1196,1562,0,0
-21,-538,0,0,0,0,0,0,0,0,0,-1,1203,1562,0,0
-14,-538,0,0,0,0,0,0,0,0,0,-1,1210,1562,0,0
-7,-538,0,0,0,0,0,0,0,0,0,-1,1217,1562,0,0
0,-538,0,0,0,0,0,0,0,0,0,-1,1224,1562,0,0
7,-538,0,0,0,0,0,0,0,0,0,-1,1231,1562,0,0
14,-538,0,0,0,0,0,0,0,0,0,-1,1238,1562,0,0
21,-538,0,0,0,0,0,0,0,0,0,-1,1245,1562,0,0
28,-538,0,0,0,0,0,0,0,0,0,-1,1252,1562,0,0
35,-538,0,0,0,0,0,0,0,0,0,-1,1259,1562,0,0
42,-538,0,0,0,0,0,0,0,0,0,-1,1266,1562,0,0
49,-538,0,0,0,0,0,0,0,0,0,-1,1273,1562,0,0
56,-538,0,0,0,0,0,0,0,0,0,-1,1280,1562,0,0
63,-538,0,0,0,0,0,0,0,0,0,-1,1287,1562,0,0
70,-538,0,0,0,0,0,0,0,0,0,-1,1294,1562,0,0
77,-538,0,0,0,0,0,0,0,0,0,-1,1301,1562,0,0
84,-538,0,0,0,0,0,0,0,0,0,-1,1308,1562,0,0
91,-538,0,0,0,0,0,0,0,0,0,-1,1315,1562,0,0
98,-538,0,0,0,0,0,0,0,0,0,-1,1322,1562,0,0
105,-538,0,0,0,0,0,0,0,0,0,-1,1329,1562,0,0
112,-538,0,0,0,0,0,0,0,0,0,-1,1336,1562,0,0
119,-538,0,0,0,0,0,0,0,0,0,-1,1343,1562,0,0
126,-538,0,0,0,0,0,0,0,0,0,-1,1350,1562,0,0
133,-538,0,0,0,0,0,0,0,0,0,-1,1357,1562,0,0
140,-538,0,0,0,0,0,0,0,0,0,-1,1364,1562,0,0
147,-538,0,0,0,0,0,0,0,0,0,-1,1371,1562,0,0
154,-538,0,0,0,0,0,0,0,0,0,-1,1378,1562,0,0
161,-538,0,0,0,0,0,0,0,0,0,-1,1385,1562,0,0
168,-538,0,0,0,0,0,0,0,0,0,-1,1392,1562,0,0
175,-538,0,0,0,0,0,0,0,0,0,-1,1399,1562,0,0
182,-538,0,0,0,0,0,0,0,0,0,-1,1406,1562,0,0
189,-538,0,0,0,0,0,0,0,0,0,-1,1413,1562,0,0
196,-538,0,0,0,0,0,0,0,0,0,-1,1420,1562,0,0
203,-538,0,0,0,0,0,0,0,0,0,-1,1427,1562,0,0
210,-538,0,0,0,0,0,0,0,0,0,-1,1434,1562,0,0
217,-538,0,0,0,0,0,0,0,0,0,-1,1441,1562,0,0
224,-538,0,0,0,0,0,0,0,0,0,-1,1448,1562,0,0
231,-538,0,0,0,0,0,0,0,0,0,-1,1455,1562,0,0
238,-538,0,0,0,0,0,0,0,0,0,-1,1462,1562,0,0
245,-538,0,0,0,0,0,0,0,0,0,-1,1469,1562,0,0
252,-538,0,0,0,0,0,0,0,0,0,-1,1476,1562,0,0
259,-538,0,0,0,0,0,0,0,0,0,-1,1483,1562,0,0
266,-538,0,0,0,0,0,0,0,0,0,-1,1490,1562,0,0
273,-538,0,0,0,0,0,0,0,0,0,-1,1497,1562,0,0
280,-538,0,0,0,0,0,0,0,0,0,-1,1504,1562,0,0
287,-538,0,0,0,0,0,0,0,0,0,-1,1511,1562,0,0
294,-538,0,0,0,0,0,0,0,0,0,-1,1518,1562,0,0
301,-538,0,0,0,0,0,0,0,0,0,-1,1525,1562,0,0
308,-538,0,0,0,0,0,0,0,0,0,-1,1532,1562,0,0
315,-538,0,0,0,0,0,0,0,0,0,-1,1539,1562,0,0
322,-538,0,0,0,0,0,0,0,0,0,-1,1546,1562,0,0
329,-538,0,0,0,0,0,0,0,0,0,-1,1553,1562,0,0
336,-538,0,0,0,0,0,0,0,0,0,-1,1560,1562,0,0
343,-538,0,0,0,0,0,0,0,0,0,-1,1567,1562,0,0
350,-538,0,0,0,0,0,0,0,0,0,-1,1574,1562,0,0
357,-538,0,0,0,0,0,0,0,0,0,-1,1581,1562,0,0
364,-538,0,0,0,0,0,0,0,0,0,-1,1588,1562,0,0
371,-538,0,0,0,0,0,0,0,0,0,-1,1595,1562,0,0
378,-538,9.65479,5.82434,0,0,0,0,0,0,0,-1,1602,1562,9.6548,-5.82439
385,-538,10.5449,7.9502,0,0,0,0,0,0,0,-1,1609,1562,10.5449,-7.95014
392,-538,8.20361,7.07214,0,0,0,0,0,0,0,-1,1616,1562,8.20362,-7.07211
399,-538,7.85425,4.70508,0,0,0,0,0,0,0,-1,1623,1562,7.85425,-4.70512
406,-538,7.77734,4.96094,0,0,0,0,0,0,0,-1,1630,1562,7.77729,-4.96097
413,-538,13.0446,13.1765,0,0,0,0,0,0,0,-1,1637,1562,13.0446,-13.1765
420,-538,9.96216,12.7653,0,0,0,0,0,0,0,-1,1644,1562,9.96221,-12.7653
427,-538,10.1732,14.5863,0,0,0,0,0,0,0,-1,1651,1562,10.1732,-14.5863
434,-538,9.64331,14.7745,0,0,0,0,0,0,0,-1,1658,1562,9.64326,-14.7746
441,-538,11.5039,20.5195,0,0,0,0,0,0,0,-1,1665,1562,11.5039,-20.5195
448,-538,12.8766,22.4932,0,0,0,0,0,0,0,-1,1672,1562,12.8766,-22.4932
455,-538,12.5693,17.4128,0,0,0,0,0,0,0,-1,1679,1562,12.5694,-17.4128
462,-538,12.1389,17.017,0,0,0,0,0,0,0,-1,1686,1562,12.1389,-17.017
469,-538,14.3802,16.6945,0,0,0,0,0,0,0,-1,1693,1562,14.3803,-16.6945
476,-538,13.724,19.0608,0,0,0,0,0,0,0,-1,1700,1562,13.724,-19.0608
483,-538,14.5853,20.9366,0,0,0,0,0,0,0,-1,1707,1562,14.5853,-20.9367
490,-538,14.5197,20.4692,0.00542227,0.00630815,-0.00325249,0.00914772,0.0025827,-0.853074,0.0054457,0.0356596,1714,1562,14.5197,-20.4692
497,-538,14.58,20.1733,0.00523061,0.00517816,-0.0030005,0.008205,0.00220377,-0.781029,0.00490337,0.0256235,1721,1562,14.5799,-20.1733
504,-538,14.649,19.7079,0.00511253,0.0047252,-0.00307195,0.00799692,0.00184081,-0.753919,0.00483591,0.0129466,1728,1562,14.6491,-19.7079
511,-538,14.6456,19.3368,0.00439729,0.00379414,-0.00249963,0.00661347,0.00157796,-0.725365,0.00398844,0.00976711,1735,1562,14.6456,-19.3368
518,-538,14.6311,18.9572,0.00341008,0.00256568,-0.00168149,0.00472157,0.00125419,-0.662398,0.00282406,0.0112527,1742,1562,14.6311,-18.9571
525,-538,14.6167,18.5745,0.00237136,0.00140642,-0.000841566,0.00285895,0.000918833,-0.52512,0.00168535,0.0126126,1749,1562,14.6167,-18.5744
532,-538,14.6492,18.1917,0.00150848,0.000361754,-7.40188e-05,0.00151324,0.000356996,-0.0641927,0.000913387,0.0138998,1756,1562,14.6492,-18.1916
539,-538,14.6301,17.8224,0.00090996,-0.000629535,0.000587916,0.0011088,-0.000828373,0.32613,0.00112232,0.0165986,1763,1562,14.6301,-17.8224
546,-538,14.5751,17.4332,0.000348625,-0.00163164,0.00124137,0.000946375,-0.00222938,0.448757,0.00188274,0.0174427,1770,1562,14.5751,-17.4332
553,-538,14.5892,17.0631,-3.97076e-05,-0.00262965,0.00182713,0.000904819,-0.00357417,0.477112,0.00273475,0.0276918,1777,1562,14.5892,-17.0631
560,-538,14.5392,16.6973,-0.000140391,-0.0034297,0.00225074,0.00100256,-0.00457265,0.469876,0.00343179,0.0295819,1784,1562,14.5392,-16.6972
567,-538,14.509,16.2751,0.000136907,-0.00432795,0.00251254,0.00126552,-0.00545656,0.422182,0.00412478,0.0213524,1791,1562,14.5091,-16.2751
574,-538,14.5056,15.8475,0.00100385,-0.00483129,0.00215975,0.00171626,-0.0055437,0.318618,0.0043814,0.019192,1798,1562,14.5056,-15.8476
581,-538,14.563,15.4236,0.00244559,-0.00508245,0.00151543,0.0027392,-0.00537606,0.191377,0.00476708,0.0245382,1805,1562,14.563,-15.4236
588,-538,14.686,15.0409,0.00468997,-0.00562614,0.000453591,0.00470988,-0.00564604,0.0438563,0.00598713,0.0450491,1812,1562,14.686,-15.0409
595,-538,14.8507,14.5326,0,0,0,0,0,0,0,-1,1819,1562,14.8507,-14.5326
602,-538,10.314,8.94238,0,0,0,0,0,0,0,-1,1826,1562,10.314,-8.94238
609,-538,10.1046,7.05713,0,0,0,0,0,0,0,-1,1833,1562,10.1046,-7.05719
616,-538,9.92249,5.43506,0,0,0,0,0,0,0,-1,1840,1562,9.92254,-5.43507
623,-538,11.1711,4.31604,0,0,0,0,0,0,0,-1,1847,1562,11.1711,-4.316
630,-538,12.6112,2.61633,0,0,0,0,0,0,0,-1,1854,1562,12.6112,-2.61637
637,-538,0,0,0,0,0,0,0,0,0,-1,1861,1562,0,0
644,-538,0,0,0,0,0,0,0,0,0,-1,1868,1562,0,0
651,-538,0,0,0,0,0,0,0,0,0,-1,1875,1562,0,0
658,-538,0,0,0,0,0,0,0,0,0,-1,1882,1562,0,0
665,-538,0,0,0,0,0,0,0,0,0,-1,1889,1562,0,0
672,-538,0,0,0,0,0,0,0,0,0,-1,1896,1562,0,0
679,-538,0,0,0,0,0,0,0,0,0,-1,1903,1562,0,0
686,-538,0,0,0,0,0,0,0,0,0,-1,1910,1562,0,0
693,-538,0,0,0,0,0,0,0,0,0,-1,1917,1562,0,0
700,-538,0,0,0,0,0,0,0,0,0,-1,1924,1562,0,0
707,-538,0,0,0,0,0,0,0,0,0,-1,1931,1562,0,0
714,-538,0,0,0,0,0,0,0,0,0,-1,1938,1562,0,0
721,-538,0,0,0,0,0,0,0,0,0,-1,1945,1562,0,0
728,-538,0,0,0,0,0,0,0,0,0,-1,1952,1562,0,0
735,-538,0,0,0,0,0,0,0,0,0,-1,1959,1562,0,0
742,-538,0,0,0,0,0,0,0,0,0,-1,1966,1562,0,0
749,-538,0,0,0,0,0,0,0,0,0,-1,1973,1562,0,0
756,-538,0,0,0,0,0,0,0,0,0,-1,1980,1562,0,0
763,-538,0,0,0,0,0,0,0,0,0,-1,1987,1562,0,0
770,-538,0,0,0,0,0,0,0,0,0,-1,1994,1562,0,0
777,-538,0,0,0,0,0,0,0,0,0,-1,2001,1562,0,0
784,-538,0,0,0,0,0,0,0,0,0,-1,2008,1562,0,0
791,-538,0,0,0,0,0,0,0,0,0,-1,2015,1562,0,0
798,-538,0,0,0,0,0,0,0,0,0,-1,2022,1562,0,0
805,-538,0,0,0,0,0,0,0,0,0,-1,2029,1562,0,0
812,-538,0,0,0,0,0,0,0,0,0,-1,2036,1562,0,0
-700,-545,0,0,0,0,0,0,0,0,0,-1,524,1569,0,0
-693,-545,0,0,0,0,0,0,0,0,0,-1,531,1569,0,0
-686,-545,0,0,0,0,0,0,0,0,0,-1,538,1569,0,0
-679,-545,0,0,0,0,0,0,0,0,0,-1,545,1569,0,0
-672,-545,0,0,0,0,0,0,0,0,0,-1,552,1569,0,0
-665,-545,0,0,0,0,0,0,0,0,0,-1,559,1569,0,0
-658,-545,0,0,0,0,0,0,0,0,0,-1,566,1569,0,0
-651,-545,0,0,0,0,0,0,0,0,0,-1,573,1569,0,0
-644,-545,0,0,0,0,0,0,0,0,0,-1,580,1569,0,0
-637,-545,0,0,0,0,0,0,0,0,0,-1,587,1569,0,0
-630,-545,0,0,0,0,0,0,0,0,0,-1,594,1569,0,0
-623,-545,0,0,0,0,0,0,0,0,0,-1,601,1569,0,0
-616,-545,0,0,0,0,0,0,0,0,0,-1,608,1569,0,0
-609,-545,0,0,0,0,0,0,0,0,0,-1,615,1569,0,0
-602,-545,0,0,0,0,0,0,0,0,0,-1,622,1569,0,0
-595,-545,0,0,0,0,0,0,0,0,0,-1,629,1569,0,0
-588,-545,0,0,0,0,0,0,0,0,0,-1,636,1569,0,0
-581,-545,0,0,0,0,0,0,0,0,0,-1,643,1569,0,0
-574,-545,0,0,0,0,0,0,0,0,0,-1,650,1569,0,0
-567,-545,0,0,0,0,0,0,0,0,0,-1,657,1569,0,0
-560,-545,0,0,0,0,0,0,0,0,0,-1,664,1569,0,0
-553,-545,0,0,0,0,0,0,0,0,0,-1,671,1569,0,0
-546,-545,0,0,0,0,0,0,0,0,0,-1,678,1569,0,0
-539,-545,0,0,0,0,0,0,0,0,0,-1,685,1569,0,0
-532,-545,0,0,0,0,0,0,0,0,0,-1,692,1569,0,0
-525,-545,0,0,0,0,0,0,0,0,0,-1,699,1569,0,0
-518,-545,0,0,0,0,0,0,0,0,0,-1,706,1569,0,0
-511,-545,0,0,0,0,0,0,0,0,0,-1,713,1569,0,0
-504,-545,-3.55237,-2.5354,0,0,0,0,0,0,0,-1,720,1569,-3.55236,2.53545
-497,-545,2.26575,5.69214,0,0,0,0,0,0,0,-1,727,1569,2.26573,-5.6922
-490,-545,-2.17334,7.81396,0,0,0,0,0,0,0,-1,734,1569,-2.17334,-7.81399
-483,-545,-1.88336,5.8446,0,0,0,0,0,0,0,-1,741,1569,-1.88334,-5.84466
-476,-545,-1.13147,6.5741,0,0,0,0,0,0,0,-1,748,1569,-1.13149,-6.57405
-469,-545,-1.96332,11.137,0,0,0,0,0,0,0,-1,755,1569,-1.96332,-11.137
-462,-545,-0.84375,13.053,0,0,0,0,0,0,0,-1,762,1569,-0.843739,-13.053
-455,-545,-0.685364,13.5869,-0.00106648,0.00724092,0.0104547,0.0143369,-0.00816241,0.974488,0.013152,0.0449596,769,1569,-0.685375,-13.5869
-448,-545,-0.531677,14.0485,-0.000870592,0.0052501,0.0086608,0.0113753,-0.00699584,0.955229,0.0107066,0.0306628,776,1569,-0.531688,-14.0485
-441,-545,-0.512085,14.5994,-0.000893453,0.00378896,0.00685007,0.00868686,-0.00579136,0.950064,0.00841454,0.0226902,783,1569,-0.512067,-14.5994
-434,-545,-0.672241,14.9224,-0.000843688,0.00257336,0.0053543,0.00648511,-0.00475544,0.939839,0.0065153,0.0207865,790,1569,-0.672243,-14.9224
-427,-545,-0.655029,15.3081,-0.00067163,0.00186749,0.00420399,0.00498943,-0.00379358,0.932038,0.00508652,0.0194112,797,1569,-0.65503,-15.3081
-420,-545,-0.660706,15.7255,-0.000401194,0.00147669,0.00325423,0.00392473,-0.00284923,0.925848,0.00392735,0.0235013,804,1569,-0.660679,-15.7255
-413,-545,-0.674255,16.1456,3.97837e-07,0.00136422,0.00257669,0.0033477,-0.00198308,0.914756,0.00311116,0.0218341,811,1569,-0.674246,-16.1457
-406,-545,-0.663696,16.5687,0.000557085,0.00175665,0.00224758,0.0034831,-0.00116937,0.915788,0.00279463,0.0165779,818,1569,-0.663696,-16.5687
-399,-545,-0.692993,16.9869,0.000895847,0.00240275,0.00206893,0.00385116,-0.000552559,0.960021,0.00277006,0.0117957,825,1569,-0.69301,-16.987
-392,-545,-0.708069,17.4,0.00119983,0.00327497,0.00179988,0.00431493,0.000159869,1.04687,0.00282484,0.0119381,832,1569,-0.708039,-17.4
-385,-545,-0.697754,17.8206,0.00170365,0.00441197,0.00187099,0.00536743,0.000748192,1.09865,0.0033568,0.00978477,839,1569,-0.697778,-17.8206
-378,-545,-0.71405,18.2338,0.00222605,0.00542633,0.00201461,0.00639895,0.00125343,1.12102,0.00391561,0.0113541,846,1569,-0.714081,-18.2337
-371,-545,-0.725464,18.6558,0.00259212,0.0065253,0.00204736,0.00739758,0.00171984,1.16804,0.00447011,0.0154026,853,1569,-0.725486,-18.6557
-364,-545,-0.728149,19.0443,0.00291413,0.00757858,0.00185204,0.0082245,0.00226822,1.23523,0.00490497,0.0103254,860,1569,-0.728172,-19.0444
-357,-545,-0.660034,19.5313,0.00342508,0.00906672,0.00164905,0.00951338,0.00297843,1.30629,0.00561903,0.015453,867,1569,-0.660015,-19.5313
-350,-545,-0.63855,19.9727,0.00377977,0.0103827,0.0013164,0.0106355,0.003527,1.38109,0.00625538,0.0228912,874,1569,-0.638565,-19.9727
-343,-545,-0.663757,20.2921,0.00414218,0.0115453,0.000732565,0.0116171,0.00407039,1.47311,0.0068065,0.0326902,881,1569,-0.663727,-20.2921
-336,-545,-0.698792,20.1998,0,0,0,0,0,0,0,-1,888,1569,-0.698809,-20.1998
-329,-545,-1.0354,20.2448,0,0,0,0,0,0,0,-1,895,1569,-1.03538,-20.2448
-322,-545,-0.57019,18.6997,0,0,0,0,0,0,0,-1,902,1569,-0.570164,-18.6997
-315,-545,1.56641,24.0115,0,0,0,0,0,0,0,-1,909,1569,1.5664,-24.0115
-308,-545,1.29767,21.9224,0,0,0,0,0,0,0,-1,916,1569,1.29764,-21.9223
-301,-545,1.52191,17.5009,0,0,0,0,0,0,0,-1,923,1569,1.52192,-17.5008
-294,-545,-2.69287,8.42102,0,0,0,0,0,0,0,-1,930,1569,-2.69287,-8.42097
-287,-545,-3.47784,9.96021,0,0,0,0,0,0,0,-1,937,1569,-3.47785,-9.96021
-280,-545,-3.7879,10.5448,0,0,0,0,0,0,0,-1,944,1569,-3.78793,-10.5448
-273,-545,-5.10333,12.864,0,0,0,0,0,0,0,-1,951,1569,-5.10331,-12.864
-266,-545,-5.78955,13.3704,0,0,0,0,0,0,0,-1,958,1569,-5.78952,-13.3703
-259,-545,-6.32184,13.8101,0,0,0,0,0,0,0,-1,965,1569,-6.32182,-13.81
-252,-545,0.369263,7.54053,0,0,0,0,0,0,0,-1,972,1569,0.369276,-7.54056
-245,-545,-0.236633,6.65564,0,0,0,0,0,0,0,-1,979,1569,-0.236605,-6.65566
-238,-545,0,0,0,0,0,0,0,0,0,-1,986,1569,0,0
-231,-545,0,0,0,0,0,0,0,0,0,-1,993,1569,0,0
-224,-545,0,0,0,0,0,0,0,0,0,-1,1000,1569,0,0
-217,-545,0,0,0,0,0,0,0,0,0,-1,1007,1569,0,0
-210,-545,0,0,0,0,0,0,0,0,0,-1,1014,1569,0,0
-203,-545,0,0,0,0,0,0,0,0,0,-1,1021,1569,0,0
-196,-545,0,0,0,0,0,0,0,0,0,-1,1028,1569,0,0
-189,-545,0,0,0,0,0,0,0,0,0,-1,1035,1569,0,0
-182,-545,0,0,0,0,0,0,0,0,0,-1,1042,1569,0,0
-175,-545,0,0,0,0,0,0,0,0,0,-1,1049,1569,0,0
-168,-545,0,0,0,0,0,0,0,0,0,-1,1056,1569,0,0
-161,-545,0,0,0,0,0,0,0,0,0,-1,1063,1569,0,0
-154,-545,0,0,0,0,0,0,0,0,0,-1,1070,1569,0,0
-147,-545,0,0,0,0,0,0,0,0,0,-1,1077,1569,0,0
-140,-545,0,0,0,0,0,0,0,0,0,-1,1084,1569,0,0
-133,-545,0,0,0,0,0,0,0,0,0,-1,1091,1569,0,0
-126,-545,0,0,0,0,0,0,0,0,0,-1,1098,1569,0,0
-119,-545,0,0,0,0,0,0,0,0,0,-1,1105,1569,0,0
-112,-545,0,0,0,0,0,0,0,0,0,-1,1112,1569,0,0
-105,-545,0,0,0,0,0,0,0,0,0,-1,1119,1569,0,0
-98,-545,0,0,0,0,0,0,0,0,0,-1,1126,1569,0,0
-91,-545,0,0,0,0,0,0,0,0,0,-1,1133,1569,0,0
-84,-545,0,0,0,0,0,0,0,0,0,-1,1140,1569,0,0
-77,-545,0,0,0,0,0,0,0,0,0,-1,1147,1569,0,0
-70,-545,0,0,0,0,0,0,0,0,0,-1,1154,1569,0,0
-63,-545,0,0,0,0,0,0,0,0,0,-1,1161,1569,0,0
-56,-545,0,0,0,0,0,0,0,0,0,-1,1168,1569,0,0
-49,-545,0,0,0,0,0,0,0,0,0,-1,1175,1569,0,0
-42,-545,0,0,0,0,0,0,0,0,0,-1,1182,1569,0,0
-35,-545,0,0,0,0,0,0,0,0,0,-1,1189,1569,0,0
-28,-545,0,0,0,0,0,0,0,0,0,-1,1196,1569,0,0
-21,-545,0,0,0,0,0,0,0,0,0,-1,1203,1569,0,0
-14,-545,0,0,0,0,0,0,0,0,0,-1,1210,1569,0,0
-7,-545,0,0,0,0,0,0,0,0,0,-1,1217,1569,0,0
0,-545,0,0,0,0,0,0,0,0,0,-1,1224,1569,0,0
7,-545,0,0,0,0,0,0,0,0,0,-1,1231,1569,0,0
14,-545,0,0,0,0,0,0,0,0,0,-1,1238,1569,0,0
21,-545,0,0,0,0,0,0,0,0,0,-1,1245,1569,0,0
28,-545,0,0,0,0,0,0,0,0,0,-1,1252,1569,0,0
35,-545,0,0,0,0,0,0,0,0,0,-1,1259,1569,0,0
42,-545,0,0,0,0,0,0,0,0,0,-1,1266,1569,0,0
49,-545,0,0,0,0,0,0,0,0,0,-1,1273,1569,0,0
56,-545,0,0,0,0,0,0,0,0,0,-1,1280,1569,0,0
63,-545,0,0,0,0,0,0,0,0,0,-1,1287,1569,0,0
70,-545,0,0,0,0,0,0,0,0,0,-1,1294,1569,0,0
77,-545,0,0,0,0,0,0,0,0,0,-1,1301,1569,0,0
84,-545,0,0,0,0,0,0,0,0,0,-1,1308,1569,0,0
91,-545,0,0,0,0,0,0,0,0,0,-1,1315,1569,0,0
98,-545,0,0,0,0,0,0,0,0,0,-1,1322,1569,0,0
105,-545,0,0,0,0,0,0,0,0,0,-1,1329,1569,0,0
112,-545,0,0,0,0,0,0,0,0,0,-1,1336,1569,0,0
119,-545,0,0,0,0,0,0,0,0,0,-1,1343,1569,0,0
126,-545,0,0,0,0,0,0,0,0,0,-1,1350,1569,0,0
133,-545,0,0,0,0,0,0,0,0,0,-1,1357,1569,0,0
140,-545,0,0,0,0,0,0,0,0,0,-1,1364,1569,0,0
147,-545,0,0,0,0,0,0,0,0,0,-1,1371,1569,0,0
154,-545,0,0,0,0,0,0,0,0,0,-1,1378,1569,0,0
161,-545,0,0,0,0,0,0,0,0,0,-1,1385,1569,0,0
168,-545,0,0,0,0,0,0,0,0,0,-1,1392,1569,0,0
175,-545,0,0,0,0,0,0,0,0,0,-1,1399,1569,0,0
182,-545,0,0,0,0,0,0,0,0,0,-1,1406,1569,0,0
189,-545,0,0,0,0,0,0,0,0,0,-1,1413,1569,0,0
196,-545,0,0,0,0,0,0,0,0,0,-1,1420,1569,0,0
203,-545,0,0,0,0,0,0,0,0,0,-1,1427,1569,0,0
210,-545,0,0,0,0,0,0,0,0,0,-1,1434,1569,0,0
217,-545,0,0,0,0,0,0,0,0,0,-1,1441,1569,0,0
224,-545,0,0,0,0,0,0,0,0,0,-1,1448,1569,0,0
231,-545,0,0,0,0,0,0,0,0,0,-1,1455,1569,0,0
238,-545,0,0,0,0,0,0,0,0,0,-1,1462,1569,0,0
245,-545,0,0,0,0,0,0,0,0,0,-1,1469,1569,0,0
252,-545,0,0,0,0,0,0,0,0,0,-1,1476,1569,0,0
259,-545,0,0,0,0,0,0,0,0,0,-1,1483,1569,0,0
266,-545,0,0,0,0,0,0,0,0,0,-1,1490,1569,0,0
273,-545,0,0,0,0,0,0,0,0,0,-1,1497,1569,0,0
280,-545,0,0,0,0,0,0,0,0,0,-1,1504,1569,0,0
287,-545,0,0,0,0,0,0,0,0,0,-1,1511,1569,0,0
294,-545,0,0,0,0,0,0,0,0,0,-1,1518,1569,0,0
301,-545,0,0,0,0,0,0,0,0,0,-1,1525,1569,0,0
308,-545,0,0,0,0,0,0,0,0,0,-1,1532,1569,0,0
315,-545,0,0,0,0,0,0,0,0,0,-1,1539,1569,0,0
322,-545,0,0,0,0,0,0,0,0,0,-1,1546,1569,0,0
329,-545,0,0,0,0,0,0,0,0,0,-1,1553,1569,0,0
336,-545,0,0,0,0,0,0,0,0,0,-1,1560,1569,0,0
343,-545,0,0,0,0,0,0,0,0,0,-1,1567,1569,0,0
350,-545,0,0,0,0,0,0,0,0,0,-1,1574,1569,0,0
357,-545,0,0,0,0,0,0,0,0,0,-1,1581,1569,0,0
364,-545,7.19495,4.88098,0,0,0,0,0,0,0,-1,1588,1569,7.19497,-4.88095
371,-545,7.82324,3.84302,0,0,0,0,0,0,0,-1,1595,1569,7.82324,-3.84307
378,-545,7.65674,5.52673,0,0,0,0,0,0,0,-1,1602,1569,7.6567,-5.52667
385,-545,8.58447,1.16125,0,0,0,0,0,0,0,-1,1609,1569,8.5845,-1.1612
392,-545,12.5654,3.89526,0,0,0,0,0,0,0,-1,1616,1569,12.5655,-3.89532
399,-545,11.5869,5.6333,0,0,0,0,0,0,0,-1,1623,1569,11.5869,-5.63326
406,-545,11.234,6.36414,0,0,0,0,0,0,0,-1,1630,1569,11.234,-6.3641
413,-545,12.1521,13.4817,0,0,0,0,0,0,0,-1,1637,1569,12.1521,-13.4817
420,-545,11.1954,13.6047,0,0,0,0,0,0,0,-1,1644,1569,11.1954,-13.6047
427,-545,9.61072,14.9135,0,0,0,0,0,0,0,-1,1651,1569,9.61076,-14.9134
434,-545,13.1598,23.9921,0,0,0,0,0,0,0,-1,1658,1569,13.1598,-23.992
441,-545,12.2833,22.2238,0,0,0,0,0,0,0,-1,1665,1569,12.2833,-22.2237
448,-545,13.0082,21.941,0,0,0,0,0,0,0,-1,1672,1569,13.0082,-21.941
455,-545,13.733,21.6583,0,0,0,0,0,0,0,-1,1679,1569,13.733,-21.6583
462,-545,12.449,20.7413,0,0,0,0,0,0,0,-1,1686,1569,12.4489,-20.7413
469,-545,12.7837,17.7919,0,0,0,0,0,0,0,-1,1693,1569,12.7837,-17.7919
476,-545,14.0239,21.198,0,0,0,0,0,0,0,-1,1700,1569,14.024,-21.198
483,-545,14.1783,20.9459,0,0,0,0,0,0,0,-1,1707,1569,14.1783,-20.946
490,-545,14.2156,20.5099,0.00396037,0.00510116,-0.00228625,0.0068871,0.00217443,-0.907646,0.00406529,0.0201689,1714,1569,14.2155,-20.5099
497,-545,14.2319,20.1145,0.00397141,0.00411905,-0.00222762,0.00627408,0.00181639,-0.801961,0.0037278,0.0207246,1721,1569,14.2319,-20.1146
504,-545,14.327,19.7222,0.00394832,0.00374101,-0.00230213,0.00614912,0.00154021,-0.7629,0.00369462,0.0164959,1728,1569,14.327,-19.7222
511,-545,14.2969,19.3383,0.00336443,0.00283754,-0.00180971,0.00492977,0.0012722,-0.713119,0.00295518,0.0118695,1735,1569,14.2968,-19.3383
518,-545,14.2523,18.9731,0.00253075,0.00173989,-0.00110182,0.00330595,0.000964686,-0.613113,0.00196307,0.012998,1742,1569,14.2524,-18.9731
525,-545,14.2321,18.5929,0.00162624,0.000679562,-0.00032696,0.00172819,0.000577616,-0.302246,0.00101588,0.01399,1749,1569,14.2321,-18.5929
532,-545,14.2404,18.2057,0.000849064,-0.000329444,0.000439693,0.000995031,-0.000475411,0.320528,0.000866449,0.0145218,1756,1569,14.2404,-18.2057
539,-545,14.2434,17.8379,0.000278383,-0.00137701,0.00117058,0.00088433,-0.00198296,0.477666,0.00169545,0.0171042,1763,1569,14.2435,-17.8379
546,-545,14.1985,17.4479,-0.000333275,-0.00253828,0.00199114,0.00084022,-0.00371177,0.532557,0.00279698,0.0185092,1770,1569,14.1985,-17.4479
553,-545,14.2163,17.0404,-0.000805682,-0.00376413,0.0028082,0.000889066,-0.00545888,0.542989,0.00396894,0.0263467,1777,1569,14.2164,-17.0404
560,-545,14.204,16.6333,-0.00100988,-0.00487532,0.00349714,0.00105307,-0.00693828,0.532958,0.00501354,0.0271074,1784,1569,14.204,-16.6333
567,-545,14.2008,16.2013,0,0,0,0,0,0,0,-1,1791,1569,14.2008,-16.2013
574,-545,14.2214,15.7104,0,0,0,0,0,0,0,-1,1798,1569,14.2214,-15.7104
581,-545,14.2622,15.307,0,0,0,0,0,0,0,-1,1805,1569,14.2623,-15.307
588,-545,14.4496,15.0259,0,0,0,0,0,0,0,-1,1812,1569,14.4495,-15.0258
595,-545,10.2859,9.11218,0,0,0,0,0,0,0,-1,1819,1569,10.2858,-9.11215
602,-545,8.82117,6.32214,0,0,0,0,0,0,0,-1,1826,1569,8.82121,-6.32217
609,-545,10.2406,5.22351,0,0,0,0,0,0,0,-1,1833,1569,10.2406,-5.22353
616,-545,11.701,3.93188,0,0,0,0,0,0,0,-1,1840,1569,11.701,-3.93191
623,-545,13.2139,2.32043,0,0,0,0,0,0,0,-1,1847,1569,13.2139,-2.32042
630,-545,0,0,0,0,0,0,0,0,0,-1,1854,1569,0,0
637,-545,0,0,0,0,0,0,0,0,0,-1,1861,1569,0,0
644,-545,0,0,0,0,0,0,0,0,0,-1,1868,1569,0,0
651,-545,0,0,0,0,0,0,0,0,0,-1,1875,1569,0,0
658,-545,0,0,0,0,0,0,0,0,0,-1,1882,1569,0,0
665,-545,0,0,0,0,0,0,0,0,0,-1,1889,1569,0,0
672,-545,0,0,0,0,0,0,0,0,0,-1,1896,1569,0,0
679,-545,0,0,0,0,0,0,0,0,0,-1,1903,1569,0,0
686,-545,0,0,0,0,0,0,0,0,0,-1,1910,1569,0,0
693,-545,0,0,0,0,0,0,0,0,0,-1,1917,1569,0,0
700,-545,0,0,0,0,0,0,0,0,0,-1,1924,1569,0,0
707,-545,0,0,0,0,0,0,0,0,0,-1,1931,1569,0,0
714,-545,0,0,0,0,0,0,0,0,0,-1,1938,1569,0,0
721,-545,0,0,0,0,0,0,0,0,0,-1,1945,1569,0,0
728,-545,0,0,0,0,0,0,0,0,0,-1,1952,1569,0,0
735,-545,0,0,0,0,0,0,0,0,0,-1,1959,1569,0,0
742,-545,0,0,0,0,0,0,0,0,0,-1,1966,1569,0,0
749,-545,0,0,0,0,0,0,0,0,0,-1,1973,1569,0,0
756,-545,0,0,0,0,0,0,0,0,0,-1,1980,1569,0,0
763,-545,0,0,0,0,0,0,0,0,0,-1,1987,1569,0,0
770,-545,0,0,0,0,0,0,0,0,0,-1,1994,1569,0,0
777,-545,0,0,0,0,0,0,0,0,0,-1,2001,1569,0,0
784,-545,0,0,0,0,0,0,0,0,0,-1,2008,1569,0,0
791,-545,0,0,0,0,0,0,0,0,0,-1,2015,1569,0,0
798,-545,0,0,0,0,0,0,0,0,0,-1,2022,1569,0,0
805,-545,0,0,0,0,0,0,0,0,0,-1,2029,1569,0,0
812,-545,0,0,0,0,0,0,0,0,0,-1,2036,1569,0,0
-700,-552,0,0,0,0,0,0,0,0,0,-1,524,1576,0,0
-693,-552,0,0,0,0,0,0,0,0,0,-1,531,1576,0,0
-686,-552,0,0,0,0,0,0,0,0,0,-1,538,1576,0,0
-679,-552,0,0,0,0,0,0,0,0,0,-1,545,1576,0,0
-672,-552,0,0,0,0,0,0,0,0,0,-1,552,1576,0,0
-665,-552,0,0,0,0,0,0,0,0,0,-1,559,1576,0,0
-658,-552,0,0,0,0,0,0,0,0,0,-1,566,1576,0,0
-651,-552,0,0,0,0,0,0,0,0,0,-1,573,1576,0,0
-644,-552,0,0,0,0,0,0,0,0,0,-1,580,1576,0,0
-637,-552,0,0,0,0,0,0,0,0,0,-1,587,1576,0,0
-630,-552,0,0,0,0,0,0,0,0,0,-1,594,1576,0,0
-623,-552,0,0,0,0,0,0,0,0,0,-1,601,1576,0,0
-616,-552,0,0,0,0,0,0,0,0,0,-1,608,1576,0,0
-609,-552,0,0,0,0,0,0,0,0,0,-1,615,1576,0,0
-602,-552,0,0,0,0,0,0,0,0,0,-1,622,1576,0,0
-595,-552,0,0,0,0,0,0,0,0,0,-1,629,1576,0,0
-588,-552,0,0,0,0,0,0,0,0,0,-1,636,1576,0,0
-581,-552,0,0,0,0,0,0,0,0,0,-1,643,1576,0,0
-574,-552,0,0,0,0,0,0,0,0,0,-1,650,1576,0,0
-567,-552,0,0,0,0,0,0,0,0,0,-1,657,1576,0,0
-560,-552,0,0,0,0,0,0,0,0,0,-1,664,1576,0,0
-553,-552,0,0,0,0,0,0,0,0,0,-1,671,1576,0,0
-546,-552,0,0,0,0,0,0,0,0,0,-1,678,1576,0,0
-539,-552,0,0,0,0,0,0,0,0,0,-1,685,1576,0,0
-532,-552,0,0,0,0,0,0,0,0,0,-1,692,1576,0,0
-525,-552,0,0,0,0,0,0,0,0,0,-1,699,1576,0,0
-518,-552,0,0,0,0,0,0,0,0,0,-1,706,1576,0,0
-511,-552,0,0,0,0,0,0,0,0,0,-1,713,1576,0,0
-504,-552,0,0,0,0,0,0,0,0,0,-1,720,1576,0,0
-497,-552,1.51282,3.96924,0,0,0,0,0,0,0,-1,727,1576,1.5128,-3.96924
-490,-552,-3.82312,6.32104,0,0,0,0,0,0,0,-1,734,1576,-3.82314,-6.3211
-483,-552,-3.50586,6.47986,0,0,0,0,0,0,0,-1,741,1576,-3.50587,-6.47983
-476,-552,-1.95129,4.43054,0,0,0,0,0,0,0,-1,748,1576,-1.95128,-4.43054
-469,-552,-1.40491,7.9895,0,0,0,0,0,0,0,-1,755,1576,-1.40491,-7.98947
-462,-552,-1.99573,11.4446,0,0,0,0,0,0,0,-1,762,1576,-1.99571,-11.4445
-455,-552,-0.703369,12.7275,0,0,0,0,0,0,0,-1,769,1576,-0.703374,-12.7275
-448,-552,-0.603699,13.6061,0.000279538,0.00787849,0.0128151,0.0174455,-0.00928744,0.929513,0.015672,0.044968,776,1576,-0.603687,-13.606
-441,-552,-0.468994,14.5632,-0.000433567,0.00562147,0.00965654,0.012714,-0.00752606,0.937305,0.0118128,0.0387075,783,1576,-0.469005,-14.5632
-434,-552,-0.228943,15.2021,0,0,0,0,0,0,0,-1,790,1576,-0.228929,-15.2021
-427,-552,-0.286743,15.2864,-0.000966959,0.00212837,0.00525049,0.00605454,-0.00489313,0.928722,0.00633249,0.0252946,797,1576,-0.286751,-15.2863
-420,-552,-0.252014,15.7616,-0.000942137,0.00134986,0.00377281,0.00414688,-0.00373915,0.932846,0.00455503,0.0215933,804,1576,-0.25201,-15.7615
-413,-552,-0.246216,16.1519,-0.000711363,0.000944777,0.00272144,0.00296134,-0.00272793,0.933086,0.00328562,0.0170048,811,1576,-0.246239,-16.1519
-406,-552,-0.256409,16.5767,-0.000234413,0.00107785,0.00210269,0.0026244,-0.00178097,0.936633,0.00255893,0.0132354,818,1576,-0.256427,-16.5766
-399,-552,-0.276062,17.0188,2.89789e-05,0.00145696,0.00172127,0.00260645,-0.00112051,0.982,0.00220803,0.0144618,825,1576,-0.276046,-17.0188
-392,-552,-0.310242,17.4205,0.00024921,0.00195484,0.0012665,0.00262889,-0.000424842,1.08171,0.00191002,0.0157241,832,1576,-0.31026,-17.4206
-385,-552,-0.310852,17.8241,0.000706145,0.00291122,0.00119242,0.00343271,0.000184659,1.15852,0.00222947,0.0139283,839,1576,-0.310878,-17.824
-378,-552,-0.321106,18.2031,0.00123855,0.00375994,0.00131386,0.00432012,0.000678365,1.16777,0.0026827,0.0157116,846,1576,-0.321089,-18.2031
-371,-552,-0.327087,18.6339,0.00164763,0.00465692,0.00135581,0.00517765,0.0011269,1.20409,0.00314419,0.0196735,853,1576,-0.327082,-18.6339
-364,-552,-0.321106,19.037,0.00203675,0.00547388,0.00121736,0.00586137,0.00164926,1.26264,0.00349022,0.0149342,860,1576,-0.321131,-19.037
-357,-552,-0.306519,19.4218,0.00261624,0.00667605,0.00113084,0.00696979,0.00232251,1.31666,0.00409795,0.0103285,867,1576,-0.306518,-19.4218
-350,-552,-0.308472,19.8507,0.00309365,0.00767414,0.00096619,0.00786961,0.00289819,1.37119,0.00459578,0.0118413,874,1576,-0.308479,-19.8508
-343,-552,-0.327881,20.2216,0.00367442,0.008545,0.000694374,0.00864206,0.00357736,1.43192,0.00501407,0.0135688,881,1576,-0.32787,-20.2216
-336,-552,-0.260925,20.5057,0.00425177,0.00967285,0.00044363,0.00970891,0.0042157,1.48968,0.0056216,0.0238503,888,1576,-0.26095,-20.5058
-329,-552,-0.323364,20.9178,0.00520427,0.0104734,0.000438742,0.0105096,0.00516799,1.48829,0.00606802,0.0444067,895,1576,-0.323383,-20.9179
-322,-552,-0.140991,21.6821,0,0,0,0,0,0,0,-1,902,1576,-0.140985,-21.6821
-315,-552,0.0493164,22.6857,0,0,0,0,0,0,0,-1,909,1576,0.0493207,-22.6857
-308,-552,0.846558,23.8575,0,0,0,0,0,0,0,-1,916,1576,0.846537,-23.8576
-301,-552,1.39453,18.4995,0,0,0,0,0,0,0,-1,923,1576,1.3945,-18.4995
-294,-552,0.842163,13.7863,0,0,0,0,0,0,0,-1,930,1576,0.842149,-13.7863
-287,-552,-0.663757,13.3474,0,0,0,0,0,0,0,-1,937,1576,-0.663744,-13.3474
-280,-552,-5.47241,8.96765,0,0,0,0,0,0,0,-1,944,1576,-5.47239,-8.96766
-273,-552,1.64587,10.6685,0,0,0,0,0,0,0,-1,951,1576,1.6459,-10.6685
-266,-552,-1.32678,8.05688,0,0,0,0,0,0,0,-1,958,1576,-1.32677,-8.05683
-259,-552,-5.54321,8.31213,0,0,0,0,0,0,0,-1,965,1576,-5.54324,-8.31214
-252,-552,-1.93445,7.81543,0,0,0,0,0,0,0,-1,972,1576,-1.93445,-7.81546
-245,-552,-2.53613,6.92212,0,0,0,0,0,0,0,-1,979,1576,-2.53614,-6.92216
-238,-552,-6.5365,2.81885,0,0,0,0,0,0,0,-1,986,1576,-6.53649,-2.8188
-231,-552,-4.32239,4.34583,0,0,0,0,0,0,0,-1,993,1576,-4.32239,-4.34587
-224,-552,0,0,0,0,0,0,0,0,0,-1,1000,1576,0,0
-217,-552,0,0,0,0,0,0,0,0,0,-1,1007,1576,0,0
-210,-552,0,0,0,0,0,0,0,0,0,-1,1014,1576,0,0
-203,-552,0,0,0,0,0,0,0,0,0,-1,1021,1576,0,0
-196,-552,0,0,0,0,0,0,0,0,0,-1,1028,1576,0,0
-189,-552,0,0,0,0,0,0,0,0,0,-1,1035,1576,0,0
-182,-552,0,0,0,0,0,0,0,0,0,-1,1042,1576,0,0
-175,-552,0,0,0,0,0,0,0,0,0,-1,1049,1576,0,0
-168,-552,0,0,0,0,0,0,0,0,0,-1,1056,1576,0,0
-161,-552,0,0,0,0,0,0,0,0,0,-1,1063,1576,0,0
-154,-552,0,0,0,0,0,0,0,0,0,-1,1070,1576,0,0
-147,-552,0,0,0,0,0,0,0,0,0,-1,1077,1576,0,0
-140,-552,0,0,0,0,0,0,0,0,0,-1,1084,1576,0,0
-133,-552,0,0,0,0,0,0,0,0,0,-1,1091,1576,0,0
-126,-552,0,0,0,0,0,0,0,0,0,-1,1098,1576,0,0
-119,-552,0,0,0,0,0,0,0,0,0,-1,1105,1576,0,0
-112,-552,0,0,0,0,0,0,0,0,0,-1,1112,1576,0,0
-105,-552,0,0,0,0,0,0,0,0,0,-1,1119,1576,0,0
-98,-552,0,0,0,0,0,0,0,0,0,-1,1126,1576,0,0
-91,-552,0,0,0,0,0,0,0,0,0,-1,1133,1576,0,0
-84,-552,0,0,0,0,0,0,0,0,0,-1,1140,1576,0,0
-77,-552,0,0,0,0,0,0,0,0,0,-1,1147,1576,0,0
-70,-552,0,0,0,0,0,0,0,0,0,-1,1154,1576,0,0
-63,-552,0,0,0,0,0,0,0,0,0,-1,1161,1576,0,0
-56,-552,0,0,0,0,0,0,0,0,0,-1,1168,1576,0,0
-49,-552,0,0,0,0,0,0,0,0,0,-1,1175,1576,0,0
-42,-552,0,0,0,0,0,0,0,0,0,-1,1182,1576,0,0
-35,-552,0,0,0,0,0,0,0,0,0,-1,1189,1576,0,0
-28,-552,0,0,0,0,0,0,0,0,0,-1,1196,1576,0,0
-21,-552,0,0,0,0,0,0,0,0,0,-1,1203,1576,0,0
-14,-552,0,0,0,0,0,0,0,0,0,-1,1210,1576,0,0
-7,-552,0,0,0,0,0,0,0,0,0,-1,1217,1576,0,0
0,-552,0,0,0,0,0,0,0,0,0,-1,1224,1576,0,0
7,-552,0,0,0,0,0,0,0,0,0,-1,1231,1576,0,0
14,-552,0,0,0,0,0,0,0,0,0,-1,1238,1576,0,0
21,-552,0,0,0,0,0,0,0,0,0,-1,1245,1576,0,0
28,-552,0,0,0,0,0,0,0,0,0,-1,1252,1576,0,0
35,-552,0,0,0,0,0,0,0,0,0,-1,1259,1576,0,0
42,-552,0,0,0,0,0,0,0,0,0,-1,1266,1576,0,0
49,-552,0,0,0,0,0,0,0,0,0,-1,1273,1576,0,0
56,-552,0,0,0,0,0,0,0,0,0,-1,1280,1576,0,0
63,-552,0,0,0,0,0,0,0,0,0,-1,1287,1576,0,0
70,-552,0,0,0,0,0,0,0,0,0,-1,1294,1576,0,0
77,-552,0,0,0,0,0,0,0,0,0,-1,1301,1576,0,0
84,-552,0,0,0,0,0,0,0,0,0,-1,1308,1576,0,0
91,-552,0,0,0,0,0,0,0,0,0,-1,1315,1576,0,0
98,-552,0,0,0,0,0,0,0,0,0,-1,1322,1576,0,0
105,-552,0,0,0,0,0,0,0,0,0,-1,1329,1576,0,0
112,-552,0,0,0,0,0,0,0,0,0,-1,1336,1576,0,0
119,-552,0,0,0,0,0,0,0,0,0,-1,1343,1576,0,0
126,-552,0,0,0,0,0,0,0,0,0,-1,1350,1576,0,0
133,-552,0,0,0,0,0,0,0,0,0,-1,1357,1576,0,0
140,-552,0,0,0,0,0,0,0,0,0,-1,1364,1576,0,0
147,-552,0,0,0,0,0,0,0,0,0,-1,1371,1576,0,0
154,-552,0,0,0,0,0,0,0,0,0,-1,1378,1576,0,0
161,-552,0,0,0,0,0,0,0,0,0,-1,1385,1576,0,0
168,-552,0,0,0,0,0,0,0,0,0,-1,1392,1576,0,0
175,-552,0,0,0,0,0,0,0,0,0,-1,1399,1576,0,0
182,-552,0,0,0,0,0,0,0,0,0,-1,1406,1576,0,0
189,-552,0,0,0,0,0,0,0,0,0,-1,1413,1576,0,0
196,-552,0,0,0,0,0,0,0,0,0,-1,1420,1576,0,0
203,-552,0,0,0,0,0,0,0,0,0,-1,1427,1576,0,0
210,-552,0,0,0,0,0,0,0,0,0,-1,1434,1576,0,0
217,-552,0,0,0,0,0,0,0,0,0,-1,1441,1576,0,0
224,-552,0,0,0,0,0,0,0,0,0,-1,1448,1576,0,0
231,-552,0,0,0,0,0,0,0,0,0,-1,1455,1576,0,0
238,-552,0,0,0,0,0,0,0,0,0,-1,1462,1576,0,0
245,-552,0,0,0,0,0,0,0,0,0,-1,1469,1576,0,0
252,-552,0,0,0,0,0,0,0,0,0,-1,1476,1576,0,0
259,-552,0,0,0,0,0,0,0,0,0,-1,1483,1576,0,0
266,-552,0,0,0,0,0,0,0,0,0,-1,1490,1576,0,0
273,-552,0,0,0,0,0,0,0,0,0,-1,1497,1576,0,0
280,-552,0,0,0,0,0,0,0,0,0,-1,1504,1576,0,0
287,-552,0,0,0,0,0,0,0,0,0,-1,1511,1576,0,0
294,-552,0,0,0,0,0,0,0,0,0,-1,1518,1576,0,0
301,-552,0,0,0,0,0,0,0,0,0,-1,1525,1576,0,0
308,-552,0,0,0,0,0,0,0,0,0,-1,1532,1576,0,0
315,-552,0,0,0,0,0,0,0,0,0,-1,1539,1576,0,0
322,-552,0,0,0,0,0,0,0,0,0,-1,1546,1576,0,0
329,-552,0,0,0,0,0,0,0,0,0,-1,1553,1576,0,0
336,-552,0,0,0,0,0,0,0,0,0,-1,1560,1576,0,0
343,-552,0,0,0,0,0,0,0,0,0,-1,1567,1576,0,0
350,-552,4.97876,4.09888,0,0,0,0,0,0,0,-1,1574,1576,4.97875,-4.09883
357,-552,5.18469,4.10706,0,0,0,0,0,0,0,-1,1581,1576,5.1847,-4.10702
364,-552,5.80872,5.07031,0,0,0,0,0,0,0,-1,1588,1576,5.80874,-5.07037
371,-552,7.10657,5.64783,0,0,0,0,0,0,0,-1,1595,1576,7.10651,-5.64786
378,-552,6.44446,4.91492,0,0,0,0,0,0,0,-1,1602,1576,6.44448,-4.91496
385,-552,12.8276,3.16504,0,0,0,0,0,0,0,-1,1609,1576,12.8276,-3.16503
392,-552,12.1301,4.3363,0,0,0,0,0,0,0,-1,1616,1576,12.1302,-4.33631
399,-552,11.3486,5.6012,0,0,0,0,0,0,0,-1,1623,1576,11.3486,-5.60115
406,-552,10.7863,6.42542,0,0,0,0,0,0,0,-1,1630,1576,10.7863,-6.42536
413,-552,8.39307,10.365,0,0,0,0,0,0,0,-1,1637,1576,8.3931,-10.365
420,-552,10.2306,12.7225,0,0,0,0,0,0,0,-1,1644,1576,10.2305,-12.7226
427,-552,9.73267,14.783,0,0,0,0,0,0,0,-1,1651,1576,9.73269,-14.783
434,-552,12.0377,20.1364,0,0,0,0,0,0,0,-1,1658,1576,12.0377,-20.1364
441,-552,12.4963,21.5277,0,0,0,0,0,0,0,-1,1665,1576,12.4964,-21.5277
448,-552,12.9141,21.5482,0,0,0,0,0,0,0,-1,1672,1576,12.9141,-21.5482
455,-552,13.3318,21.5687,0,0,0,0,0,0,0,-1,1679,1576,13.3317,-21.5687
462,-552,12.745,20.5947,0,0,0,0,0,0,0,-1,1686,1576,12.745,-20.5947
469,-552,13.3871,21.968,0,0,0,0,0,0,0,-1,1693,1576,13.3871,-21.968
476,-552,13.7867,21.4008,0,0,0,0,0,0,0,-1,1700,1576,13.7868,-21.4007
483,-552,13.9414,20.7789,0.00253087,0.00534027,-0.00184268,0.0062526,0.00161854,-1.11107,0.00374727,0.0253228,1707,1576,13.9414,-20.7789
490,-552,13.8928,20.4385,0.00292571,0.00439726,-0.00181202,0.00561719,0.00170578,-0.978254,0.00332538,0.0146528,1714,1576,13.8928,-20.4385
497,-552,13.9427,20.0823,0.00301121,0.00346042,-0.00180676,0.00505648,0.00141515,-0.847238,0.00301219,0.0221914,1721,1576,13.9428,-20.0823
504,-552,13.9414,19.7211,0.00297544,0.00302706,-0.00178224,0.00478367,0.00121882,-0.792638,0.00287043,0.0246753,1728,1576,13.9414,-19.7211
511,-552,13.9122,19.3217,0.00244388,0.00203779,-0.00126192,0.00351898,0.00096269,-0.705631,0.00209998,0.0178833,1735,1576,13.9122,-19.3216
518,-552,13.8982,18.9476,0.00169152,0.000946419,-0.000562039,0.00199327,0.000644668,-0.492719,0.00117449,0.0150569,1742,1576,13.8982,-18.9477
525,-552,13.8695,18.5819,0.000851811,-0.000137819,0.000242106,0.000907865,-0.000193873,0.22752,0.000679155,0.0144407,1749,1576,13.8695,-18.5819
532,-552,13.8691,18.2092,9.39024e-05,-0.00123116,0.0010995,0.000715055,-0.00185231,0.514242,0.00152998,0.0148985,1756,1576,13.8692,-18.2093
539,-552,13.8695,17.8514,-0.000519347,-0.0024446,0.00199403,0.000732256,-0.0036962,0.56052,0.00274102,0.0183036,1763,1576,13.8696,-17.8515
546,-552,13.84,17.4663,-0.00123725,-0.00387104,0.00308346,0.000798755,-0.00590704,0.583581,0.0042295,0.0222564,1770,1576,13.84,-17.4662
553,-552,13.8979,17.0404,-0.00184492,-0.00543064,0.00425079,0.000975629,-0.00825119,0.585832,0.00585317,0.0259917,1777,1576,13.8979,-17.0404
560,-552,13.8425,16.7457,-0.00222428,-0.00698552,0.00534962,0.00125051,-0.0104603,0.576051,0.00742556,0.0465147,1784,1576,13.8426,-16.7457
567,-552,13.8667,16.0734,0,0,0,0,0,0,0,-1,1791,1576,13.8667,-16.0734
574,-552,12.8835,14.8463,0,0,0,0,0,0,0,-1,1798,1576,12.8836,-14.8463
581,-552,9.74841,9.98645,0,0,0,0,0,0,0,-1,1805,1576,9.74847,-9.9864
588,-552,10.5619,9.34924,0,0,0,0,0,0,0,-1,1812,1576,10.5619,-9.34921
595,-552,5.36194,6.62744,0,0,0,0,0,0,0,-1,1819,1576,5.36193,-6.62742
602,-552,10.6863,4.31616,0,0,0,0,0,0,0,-1,1826,1576,10.6862,-4.31619
609,-552,12.146,3.18286,0,0,0,0,0,0,0,-1,1833,1576,12.1459,-3.18281
616,-552,13.8762,2.08167,0,0,0,0,0,0,0,-1,1840,1576,13.8763,-2.08167
623,-552,0,0,0,0,0,0,0,0,0,-1,1847,1576,0,0
630,-552,0,0,0,0,0,0,0,0,0,-1,1854,1576,0,0
637,-552,0,0,0,0,0,0,0,0,0,-1,1861,1576,0,0
644,-552,0,0,0,0,0,0,0,0,0,-1,1868,1576,0,0
651,-552,0,0,0,0,0,0,0,0,0,-1,1875,1576,0,0
658,-552,0,0,0,0,0,0,0,0,0,-1,1882,1576,0,0
665,-552,0,0,0,0,0,0,0,0,0,-1,1889,1576,0,0
672,-552,0,0,0,0,0,0,0,0,0,-1,1896,1576,0,0
679,-552,0,0,0,0,0,0,0,0,0,-1,1903,1576,0,0
686,-552,0,0,0,0,0,0,0,0,0,-1,1910,1576,0,0
693,-552,0,0,0,0,0,0,0,0,0,-1,1917,1576,0,0
700,-552,0,0,0,0,0,0,0,0,0,-1,1924,1576,0,0
707,-552,0,0,0,0,0,0,0,0,0,-1,1931,1576,0,0
714,-552,0,0,0,0,0,0,0,0,0,-1,1938,1576,0,0
721,-552,0,0,0,0,0,0,0,0,0,-1,1945,1576,0,0
728,-552,0,0,0,0,0,0,0,0,0,-1,1952,1576,0,0
735,-552,0,0,0,0,0,0,0,0,0,-1,1959,1576,0,0
742,-552,0,0,0,0,0,0,0,0,0,-1,1966,1576,0,0
749,-552,0,0,0,0,0,0,0,0,0,-1,1973,1576,0,0
756,-552,0,0,0,0,0,0,0,0,0,-1,1980,1576,0,0
763,-552,0,0,0,0,0,0,0,0,0,-1,1987,1576,0,0
770,-552,0,0,0,0,0,0,0,0,0,-1,1994,1576,0,0
777,-552,0,0,0,0,0,0,0,0,0,-1,2001,1576,0,0
784,-552,0,0,0,0,0,0,0,0,0,-1,2008,1576,0,0
791,-552,0,0,0,0,0,0,0,0,0,-1,2015,1576,0,0
798,-552,0,0,0,0,0,0,0,0,0,-1,2022,1576,0,0
805,-552,0,0,0,0,0,0,0,0,0,-1,2029,1576,0,0
812,-552,0,0,0,0,0,0,0,0,0,-1,2036,1576,0,0
-700,-559,0,0,0,0,0,0,0,0,0,-1,524,1583,0,0
-693,-559,0,0,0,0,0,0,0,0,0,-1,531,1583,0,0
-686,-559,0,0,0,0,0,0,0,0,0,-1,538,1583,0,0
-679,-559,0,0,0,0,0,0,0,0,0,-1,545,1583,0,0
-672,-559,0,0,0,0,0,0,0,0,0,-1,552,1583,0,0
-665,-559,0,0,0,0,0,0,0,0,0,-1,559,1583,0,0
-658,-559,0,0,0,0,0,0,0,0,0,-1,566,1583,0,0
-651,-559,0,0,0,0,0,0,0,0,0,-1,573,1583,0,0
-644,-559,0,0,0,0,0,0,0,0,0,-1,580,1583,0,0
-637,-559,0,0,0,0,0,0,0,0,0,-1,587,1583,0,0
-630,-559,0,0,0,0,0,0,0,0,0,-1,594,1583,0,0
-623,-559,0,0,0,0,0,0,0,0,0,-1,601,1583,0,0
-616,-559,0,0,0,0,0,0,0,0,0,-1,608,1583,0,0
-609,-559,0,0,0,0,0,0,0,0,0,-1,615,1583,0,0
-602,-559,0,0,0,0,0,0,0,0,0,-1,622,1583,0,0
-595,-559,0,0,0,0,0,0,0,0,0,-1,629,1583,0,0
-588,-559,0,0,0,0,0,0,0,0,0,-1,636,1583,0,0
-581,-559,0,0,0,0,0,0,0,0,0,-1,643,1583,0,0
-574,-559,0,0,0,0,0,0,0,0,0,-1,650,1583,0,0
-567,-559,0,0,0,0,0,0,0,0,0,-1,657,1583,0,0
-560,-559,0,0,0,0,0,0,0,0,0,-1,664,1583,0,0
-553,-559,0,0,0,0,0,0,0,0,0,-1,671,1583,0,0
-546,-559,0,0,0,0,0,0,0,0,0,-1,678,1583,0,0
-539,-559,0,0,0,0,0,0,0,0,0,-1,685,1583,0,0
-532,-559,0,0,0,0,0,0,0,0,0,-1,692,1583,0,0
-525,-559,0,0,0,0,0,0,0,0,0,-1,699,1583,0,0
-518,-559,0,0,0,0,0,0,0,0,0,-1,706,1583,0,0
-511,-559,0,0,0,0,0,0,0,0,0,-1,713,1583,0,0
-504,-559,0,0,0,0,0,0,0,0,0,-1,720,1583,0,0
-497,-559,0,0,0,0,0,0,0,0,0,-1,727,1583,0,0
-490,-559,-5.49835,4.47424,0,0,0,0,0,0,0,-1,734,1583,-5.49833,-4.4743
-483,-559,-5.24078,4.74561,0,0,0,0,0,0,0,-1,741,1583,-5.24079,-4.74563
-476,-559,-4.98022,4.99316,0,0,0,0,0,0,0,-1,748,1583,-4.98024,-4.99321
-469,-559,-4.6424,5.38062,0,0,0,0,0,0,0,-1,755,1583,-4.64237,-5.38058
-462,-559,-0.161865,6.49438,0,0,0,0,0,0,0,-1,762,1583,-0.161835,-6.49444
-455,-559,1.08826,7.02527,0,0,0,0,0,0,0,-1,769,1583,1.08823,-7.02529
-448,-559,-0.627075,13.3721,0,0,0,0,0,0,0,-1,776,1583,-0.627048,-13.3721
-441,-559,-0.424133,14.4666,0,0,0,0,0,0,0,-1,783,1583,-0.424105,-14.4666
-434,-559,0.510925,15.109,0,0,0,0,0,0,0,-1,790,1583,0.510907,-15.109
-427,-559,0.23114,15.4508,-0.00126155,0.00276263,0.0066551,0.00770316,-0.00620207,0.932198,0.00804377,0.0334407,797,1583,0.231153,-15.4509
-420,-559,0.0806274,15.7593,-0.00153512,0.00152442,0.00451644,0.00476313,-0.00477383,0.94869,0.00550617,0.0370912,804,1583,0.0806456,-15.7592
-413,-559,0.139099,16.1807,-0.00151819,0.000827167,0.00301748,0.00289183,-0.00358285,0.97073,0.00374525,0.0156528,811,1583,0.139082,-16.1807
-406,-559,0.146606,16.6086,-0.00113809,0.000691516,0.00207328,0.00204285,-0.00248942,0.993169,0.00262094,0.0100833,818,1583,0.146597,-16.6086
-399,-559,0.135376,17.0361,-0.000932942,0.000794182,0.00148696,0.00165015,-0.00178891,1.04847,0.00198608,0.0137968,825,1583,0.135366,-17.0361
-392,-559,0.0855713,17.4216,-0.000759204,0.000946675,0.00087274,0.00131406,-0.00112658,1.17236,0.00141049,0.016425,832,1583,0.0855785,-17.4216
-385,-559,0.0774536,17.828,-0.000310013,0.00174718,0.000685794,0.00195484,-0.000517671,1.27677,0.00150574,0.0157988,839,1583,0.07746,-17.828
-378,-559,0.0924072,18.2291,0.000271042,0.00245626,0.000798959,0.00271721,1.00886e-05,1.2551,0.00180812,0.015152,846,1583,0.0923834,-18.2291
-371,-559,0.0861206,18.6373,0.0007661,0.00318617,0.000858421,0.00345974,0.000492535,1.26229,0.0021611,0.0214706,853,1583,0.0860953,-18.6373
-364,-559,0.0839844,19.0223,0.00124906,0.00380779,0.00077623,0.00402485,0.001032,1.29812,0.00241393,0.0192026,860,1583,0.0839664,-19.0223
-357,-559,0.0703735,19.42,0.00190092,0.00477272,0.000766403,0.00496445,0.00170919,1.32566,0.00291219,0.0122207,867,1583,0.0703702,-19.4201
-350,-559,0.0628662,19.8103,0.00250201,0.00552357,0.000709339,0.00568181,0.00234377,1.35131,0.00329709,0.0100115,874,1583,0.0628575,-19.8103
-343,-559,0.057251,20.2036,0.00325265,0.00618756,0.000635943,0.00631943,0.00312078,1.36633,0.00364862,0.0110988,881,1583,0.0572504,-20.2037
-336,-559,0.0192261,20.5519,0.00399145,0.00702845,0.000568228,0.00713128,0.00388861,1.39176,0.00412287,0.0173844,888,1583,0.019235,-20.5518
-329,-559,0.117859,21.1156,0.00499479,0.00767519,0.000707182,0.00785033,0.00481965,1.32803,0.00457145,0.0300016,895,1583,0.117849,-21.1156
-322,-559,0.434448,21.795,0,0,0,0,0,0,0,-1,902,1583,0.434452,-21.795
-315,-559,0.0907593,22.1923,0,0,0,0,0,0,0,-1,909,1583,0.0907523,-22.1922
-308,-559,-0.196045,22.9392,0,0,0,0,0,0,0,-1,916,1583,-0.196062,-22.9393
-301,-559,0.257202,23.5885,0,0,0,0,0,0,0,-1,923,1583,0.25721,-23.5885
-294,-559,0.945129,18.5165,0,0,0,0,0,0,0,-1,930,1583,0.945117,-18.5165
-287,-559,-0.11792,15.4912,0,0,0,0,0,0,0,-1,937,1583,-0.117939,-15.4912
-280,-559,0.191467,13.5093,0,0,0,0,0,0,0,-1,944,1583,0.191441,-13.5093
-273,-559,2.12836,10.3059,0,0,0,0,0,0,0,-1,951,1583,2.12839,-10.3059
-266,-559,-0.597046,6.68933,0,0,0,0,0,0,0,-1,958,1583,-0.597031,-6.68937
-259,-559,-7.00311,8.62756,0,0,0,0,0,0,0,-1,965,1583,-7.00312,-8.6275
-252,-559,-9.4483,2.87805,0,0,0,0,0,0,0,-1,972,1583,-9.44829,-2.87805
-245,-559,-4.80804,7.1803,0,0,0,0,0,0,0,-1,979,1583,-4.80804,-7.18027
-238,-559,-8.45764,2.54858,0,0,0,0,0,0,0,-1,986,1583,-8.45763,-2.54862
-231,-559,-5.86914,4.34021,0,0,0,0,0,0,0,-1,993,1583,-5.86914,-4.34019
-224,-559,-3.30505,6.22864,0,0,0,0,0,0,0,-1,1000,1583,-3.30505,-6.22859
-217,-559,0,0,0,0,0,0,0,0,0,-1,1007,1583,0,0
-210,-559,0,0,0,0,0,0,0,0,0,-1,1014,1583,0,0
-203,-559,0,0,0,0,0,0,0,0,0,-1,1021,1583,0,0
-196,-559,0,0,0,0,0,0,0,0,0,-1,1028,1583,0,0
-189,-559,0,0,0,0,0,0,0,0,0,-1,1035,1583,0,0
-182,-559,0,0,0,0,0,0,0,0,0,-1,1042,1583,0,0
-175,-559,0,0,0,0,0,0,0,0,0,-1,1049,1583,0,0
-168,-559,0,0,0,0,0,0,0,0,0,-1,1056,1583,0,0
-161,-559,0,0,0,0,0,0,0,0,0,-1,1063,1583,0,0
-154,-559,0,0,0,0,0,0,0,0,0,-1,1070,1583,0,0
-147,-559,0,0,0,0,0,0,0,0,0,-1,1077,1583,0,0
-140,-559,0,0,0,0,0,0,0,0,0,-1,1084,1583,0,0
-133,-559,0,0,0,0,0,0,0,0,0,-1,1091,1583,0,0
-126,-559,0,0,0,0,0,0,0,0,0,-1,1098,1583,0,0
-119,-559,0,0,0,0,0,0,0,0,0,-1,1105,1583,0,0
-112,-559,0,0,0,0,0,0,0,0,0,-1,1112,1583,0,0
-105,-559,0,0,0,0,0,0,0,0,0,-1,1119,1583,0,0
-98,-559,0,0,0,0,0,0,0,0,0,-1,1126,1583,0,0
-91,-559,0,0,0,0,0,0,0,0,0,-1,1133,1583,0,0
-84,-559,0,0,0,0,0,0,0,0,0,-1,1140,1583,0,0
-77,-559,0,0,0,0,0,0,0,0,0,-1,1147,1583,0,0
-70,-559,0,0,0,0,0,0,0,0,0,-1,1154,1583,0,0
-63,-559,0,0,0,0,0,0,0,0,0,-1,1161,1583,0,0
-56,-559,0,0,0,0,0,0,0,0,0,-1,1168,1583,0,0
-49,-559,0,0,0,0,0,0,0,0,0,-1,1175,1583,0,0
-42,-559,0,0,0,0,0,0,0,0,0,-1,1182,1583,0,0
-35,-559,0,0,0,0,0,0,0,0,0,-1,1189,1583,0,0
-28,-559,0,0,0,0,0,0,0,0,0,-1,1196,1583,0,0
-21,-559,0,0,0,0,0,0,0,0,0,-1,1203,1583,0,0
-14,-559,0,0,0,0,0,0,0,0,0,-1,1210,1583,0,0
-7,-559,0,0,0,0,0,0,0,0,0,-1,1217,1583,0,0
0,-559,0,0,0,0,0,0,0,0,0,-1,1224,1583,0,0
7,-559,0,0,0,0,0,0,0,0,0,-1,1231,1583,0,0
14,-559,0,0,0,0,0,0,0,0,0,-1,1238,1583,0,0
21,-559,0,0,0,0,0,0,0,0,0,-1,1245,1583,0,0
28,-559,0,0,0,0,0,0,0,0,0,-1,1252,1583,0,0
35,-559,0,0,0,0,0,0,0,0,0,-1,1259,1583,0,0
42,-559,0,0,0,0,0,0,0,0,0,-1,1266,1583,0,0
49,-559,0,0,0,0,0,0,0,0,0,-1,1273,1583,0,0
56,-559,0,0,0,0,0,0,0,0,0,-1,1280,1583,0,0
63,-559,0,0,0,0,0,0,0,0,0,-1,1287,1583,0,0
70,-559,0,0,0,0,0,0,0,0,0,-1,1294,1583,0,0
77,-559,0,0,0,0,0,0,0,0,0,-1,1301,1583,0,0
84,-559,0,0,0,0,0,0,0,0,0,-1,1308,1583,0,0
91,-559,0,0,0,0,0,0,0,0,0,-1,1315,1583,0,0
98,-559,0,0,0,0,0,0,0,0,0,-1,1322,1583,0,0
105,-559,0,0,0,0,0,0,0,0,0,-1,1329,1583,0,0
112,-559,0,0,0,0,0,0,0,0,0,-1,1336,1583,0,0
119,-559,0,0,0,0,0,0,0,0,0,-1,1343,1583,0,0
126,-559,0,0,0,0,0,0,0,0,0,-1,1350,1583,0,0
133,-559,0,0,0,0,0,0,0,0,0,-1,1357,1583,0,0
140,-559,0,0,0,0,0,0,0,0,0,-1,1364,1583,0,0
147,-559,0,0,0,0,0,0,0,0,0,-1,1371,1583,0,0
154,-559,0,0,0,0,0,0,0,0,0,-1,1378,1583,0,0
161,-559,0,0,0,0,0,0,0,0,0,-1,1385,1583,0,0
168,-559,0,0,0,0,0,0,0,0,0,-1,1392,1583,0,0
175,-559,0,0,0,0,0,0,0,0,0,-1,1399,1583,0,0
182,-559,0,0,0,0,0,0,0,0,0,-1,1406,1583,0,0
189,-559,0,0,0,0,0,0,0,0,0,-1,1413,1583,0,0
196,-559,0,0,0,0,0,0,0,0,0,-1,1420,1583,0,0
203,-559,0,0,0,0,0,0,0,0,0,-1,1427,1583,0,0
210,-559,0,0,0,0,0,0,0,0,0,-1,1434,1583,0,0
217,-559,0,0,0,0,0,0,0,0,0,-1,1441,1583,0,0
224,-559,0,0,0,0,0,0,0,0,0,-1,1448,1583,0,0
231,-559,0,0,0,0,0,0,0,0,0,-1,1455,1583,0,0
238,-559,0,0,0,0,0,0,0,0,0,-1,1462,1583,0,0
245,-559,0,0,0,0,0,0,0,0,0,-1,1469,1583,0,0
252,-559,0,0,0,0,0,0,0,0,0,-1,1476,1583,0,0
259,-559,0,0,0,0,0,0,0,0,0,-1,1483,1583,0,0
266,-559,0,0,0,0,0,0,0,0,0,-1,1490,1583,0,0
273,-559,0,0,0,0,0,0,0,0,0,-1,1497,1583,0,0
280,-559,0,0,0,0,0,0,0,0,0,-1,1504,1583,0,0
287,-559,0,0,0,0,0,0,0,0,0,-1,1511,1583,0,0
294,-559,0,0,0,0,0,0,0,0,0,-1,1518,1583,0,0
301,-559,0,0,0,0,0,0,0,0,0,-1,1525,1583,0,0
308,-559,0,0,0,0,0,0,0,0,0,-1,1532,1583,0,0
315,-559,0,0,0,0,0,0,0,0,0,-1,1539,1583,0,0
322,-559,0,0,0,0,0,0,0,0,0,-1,1546,1583,0,0
329,-559,0,0,0,0,0,0,0,0,0,-1,1553,1583,0,0
336,-559,5.97668,3.09827,0,0,0,0,0,0,0,-1,1560,1583,5.97667,-3.09824
343,-559,5.44824,2.88696,0,0,0,0,0,0,0,-1,1567,1583,5.44819,-2.88693
350,-559,4.69775,3.27051,0,0,0,0,0,0,0,-1,1574,1583,4.69771,-3.27048
357,-559,3.88025,3.60999,0,0,0,0,0,0,0,-1,1581,1583,3.88027,-3.60998
364,-559,5.00928,5.32605,0,0,0,0,0,0,0,-1,1588,1583,5.00928,-5.32607
371,-559,1.84436,2.52441,0,0,0,0,0,0,0,-1,1595,1583,1.84441,-2.52447
378,-559,6.34753,1.53137,0,0,0,0,0,0,0,-1,1602,1583,6.34752,-1.53139
385,-559,6.95911,1.48181,0,0,0,0,0,0,0,-1,1609,1583,6.95916,-1.48175
392,-559,11.6949,4.77734,0,0,0,0,0,0,0,-1,1616,1583,11.6949,-4.77731
399,-559,11.1104,5.56909,0,0,0,0,0,0,0,-1,1623,1583,11.1103,-5.56905
406,-559,10.3385,6.48657,0,0,0,0,0,0,0,-1,1630,1583,10.3385,-6.48661
413,-559,9.76147,6.97571,0,0,0,0,0,0,0,-1,1637,1583,9.76143,-6.97574
420,-559,7.77124,10.5851,0,0,0,0,0,0,0,-1,1644,1583,7.77128,-10.585
427,-559,10.1022,12.5565,0,0,0,0,0,0,0,-1,1651,1583,10.1021,-12.5565
434,-559,9.62769,14.6309,0,0,0,0,0,0,0,-1,1658,1583,9.62771,-14.6309
441,-559,12.6149,21.3678,0,0,0,0,0,0,0,-1,1665,1583,12.6149,-21.3678
448,-559,13.6484,22.1859,0,0,0,0,0,0,0,-1,1672,1583,13.6484,-22.1859
455,-559,13.573,22.2837,0,0,0,0,0,0,0,-1,1679,1583,13.573,-22.2837
462,-559,13.1729,22.3336,0,0,0,0,0,0,0,-1,1686,1583,13.1728,-22.3336
469,-559,13.3376,21.765,-6.66326e-05,0.0062894,0.000696921,0.00636492,-0.000142151,1.46286,0.00429145,0.0369204,1693,1583,13.3377,-21.765
476,-559,13.4894,21.2622,0.00108927,0.00586082,-0.000896839,0.00602381,0.00092627,-1.39101,0.00374549,0.0170512,1700,1583,13.4894,-21.2622
483,-559,13.5391,20.7998,0.00187682,0.00448792,-0.00146891,0.0051476,0.00121714,-1.14869,0.00310655,0.013514,1707,1583,13.5391,-20.7998
490,-559,13.4945,20.4229,0.00223818,0.00359174,-0.00144112,0.00450708,0.00132284,-1.00492,0.00267511,0.0156603,1714,1583,13.4946,-20.4229
497,-559,13.5383,20.1007,0.0022916,0.00273429,-0.00144051,0.00397036,0.00105553,-0.86163,0.0023746,0.0193793,1721,1583,13.5383,-20.1007
504,-559,13.5397,19.7269,0.0021541,0.00226135,-0.00128462,0.00349346,0.000921985,-0.806258,0.00209055,0.0237927,1728,1583,13.5396,-19.727
511,-559,13.4978,19.3352,0.00161006,0.00122345,-0.000706852,0.00214956,0.000683947,-0.651923,0.00126811,0.0208347,1735,1583,13.4978,-19.3352
518,-559,13.5347,18.9589,0.000887352,0.000165249,9.1891e-06,0.000887469,0.000165132,0.0127227,0.000545006,0.0139731,1742,1583,13.5347,-18.9589
525,-559,13.5128,18.592,7.448e-05,-0.000922357,0.00085799,0.000568316,-0.00141619,0.522264,0.0011801,0.0127189,1749,1583,13.5128,-18.592
532,-559,13.4974,18.212,-0.000699799,-0.00209503,0.00182475,0.000556142,-0.00335097,0.602818,0.00244057,0.0142937,1756,1583,13.4975,-18.2121
539,-559,13.4824,17.8496,-0.00140563,-0.00349226,0.00291385,0.000646053,-0.00554394,0.613483,0.00392906,0.0188044,1763,1583,13.4824,-17.8496
546,-559,13.4398,17.4773,-0.00228243,-0.0052296,0.00432138,0.000809706,-0.00832173,0.621081,0.00583648,0.0168158,1770,1583,13.4399,-17.4772
553,-559,13.5699,17.0437,-0.00309274,-0.00719691,0.00592439,0.0011249,-0.0114146,0.618676,0.00801104,0.021693,1777,1583,13.5699,-17.0437
560,-559,13.5396,16.8352,-0.00371701,-0.00934957,0.00755153,0.0015263,-0.0145929,0.606916,0.0102752,0.0433277,1784,1583,13.5396,-16.8352
567,-559,13.4083,16.4492,0,0,0,0,0,0,0,-1,1791,1583,13.4084,-16.4492
574,-559,10.5109,10.7317,0,0,0,0,0,0,0,-1,1798,1583,10.5108,-10.7317
581,-559,5.97095,5.96179,0,0,0,0,0,0,0,-1,1805,1583,5.97093,-5.96181
588,-559,5.79102,5.89954,0,0,0,0,0,0,0,-1,1812,1583,5.79098,-5.89949
595,-559,5.79089,6.24231,0,0,0,0,0,0,0,-1,1819,1583,5.7909,-6.24227
602,-559,12.478,2.35669,0,0,0,0,0,0,0,-1,1826,1583,12.4781,-2.35675
609,-559,14.0479,1.22681,0,0,0,0,0,0,0,-1,1833,1583,14.0479,-1.22681
616,-559,0,0,0,0,0,0,0,0,0,-1,1840,1583,0,0
623,-559,0,0,0,0,0,0,0,0,0,-1,1847,1583,0,0
630,-559,0,0,0,0,0,0,0,0,0,-1,1854,1583,0,0
637,-559,0,0,0,0,0,0,0,0,0,-1,1861,1583,0,0
644,-559,0,0,0,0,0,0,0,0,0,-1,1868,1583,0,0
651,-559,0,0,0,0,0,0,0,0,0,-1,1875,1583,0,0
658,-559,0,0,0,0,0,0,0,0,0,-1,1882,1583,0,0
665,-559,0,0,0,0,0,0,0,0,0,-1,1889,1583,0,0
672,-559,0,0,0,0,0,0,0,0,0,-1,1896,1583,0,0
679,-559,0,0,0,0,0,0,0,0,0,-1,1903,1583,0,0
686,-559,0,0,0,0,0,0,0,0,0,-1,1910,1583,0,0
693,-559,0,0,0,0,0,0,0,0,0,-1,1917,1583,0,0
700,-559,0,0,0,0,0,0,0,0,0,-1,1924,1583,0,0
707,-559,0,0,0,0,0,0,0,0,0,-1,1931,1583,0,0
714,-559,0,0,0,0,0,0,0,0,0,-1,1938,1583,0,0
721,-559,0,0,0,0,0,0,0,0,0,-1,1945,1583,0,0
728,-559,0,0,0,0,0,0,0,0,0,-1,1952,1583,0,0
735,-559,0,0,0,0,0,0,0,0,0,-1,1959,1583,0,0
742,-559,0,0,0,0,0,0,0,0,0,-1,1966,1583,0,0
749,-559,0,0,0,0,0,0,0,0,0,-1,1973,1583,0,0
756,-559,0,0,0,0,0,0,0,0,0,-1,1980,1583,0,0
763,-559,0,0,0,0,0,0,0,0,0,-1,1987,1583,0,0
770,-559,0,0,0,0,0,0,0,0,0,-1,1994,1583,0,0
777,-559,0,0,0,0,0,0,0,0,0,-1,2001,1583,0,0
784,-559,0,0,0,0,0,0,0,0,0,-1,2008,1583,0,0
791,-559,0,0,0,0,0,0,0,0,0,-1,2015,1583,0,0
798,-559,0,0,0,0,0,0,0,0,0,-1,2022,1583,0,0
805,-559,0,0,0,0,0,0,0,0,0,-1,2029,1583,0,0
812,-559,0,0,0,0,0,0,0,0,0,-1,2036,1583,0,0
-700,-566,0,0,0,0,0,0,0,0,0,-1,524,1590,0,0
-693,-566,0,0,0,0,0,0,0,0,0,-1,531,1590,0,0
-686,-566,0,0,0,0,0,0,0,0,0,-1,538,1590,0,0
-679,-566,0,0,0,0,0,0,0,0,0,-1,545,1590,0,0
-672,-566,0,0,0,0,0,0,0,0,0,-1,552,1590,0,0
-665,-566,0,0,0,0,0,0,0,0,0,-1,559,1590,0,0
-658,-566,0,0,0,0,0,0,0,0,0,-1,566,1590,0,0
-651,-566,0,0,0,0,0,0,0,0,0,-1,573,1590,0,0
-644,-566,0,0,0,0,0,0,0,0,0,-1,580,1590,0,0
-637,-566,0,0,0,0,0,0,0,0,0,-1,587,1590,0,0
-630,-566,0,0,0,0,0,0,0,0,0,-1,594,1590,0,0
-623,-566,0,0,0,0,0,0,0,0,0,-1,601,1590,0,0
-616,-566,0,0,0,0,0,0,0,0,0,-1,608,1590,0,0
-609,-566,0,0,0,0,0,0,0,0,0,-1,615,1590,0,0
-602,-566,0,0,0,0,0,0,0,0,0,-1,622,1590,0,0
-595,-566,0,0,0,0,0,0,0,0,0,-1,629,1590,0,0
-588,-566,0,0,0,0,0,0,0,0,0,-1,636,1590,0,0
-581,-566,0,0,0,0,0,0,0,0,0,-1,643,1590,0,0
-574,-566,0,0,0,0,0,0,0,0,0,-1,650,1590,0,0
-567,-566,0,0,0,0,0,0,0,0,0,-1,657,1590,0,0
-560,-566,0,0,0,0,0,0,0,0,0,-1,664,1590,0,0
-553,-566,0,0,0,0,0,0,0,0,0,-1,671,1590,0,0
-546,-566,0,0,0,0,0,0,0,0,0,-1,678,1590,0,0
-539,-566,0,0,0,0,0,0,0,0,0,-1,685,1590,0,0
-532,-566,0,0,0,0,0,0,0,0,0,-1,692,1590,0,0
-525,-566,0,0,0,0,0,0,0,0,0,-1,699,1590,0,0
-518,-566,0,0,0,0,0,0,0,0,0,-1,706,1590,0,0
-511,-566,0,0,0,0,0,0,0,0,0,-1,713,1590,0,0
-504,-566,0,0,0,0,0,0,0,0,0,-1,720,1590,0,0
-497,-566,0,0,0,0,0,0,0,0,0,-1,727,1590,0,0
-490,-566,0,0,0,0,0,0,0,0,0,-1,734,1590,0,0
-483,-566,-7.17084,2.78613,0,0,0,0,0,0,0,-1,741,1590,-7.17083,-2.78618
-476,-566,-7.13971,2.87183,0,0,0,0,0,0,0,-1,748,1590,-7.13971,-2.87184
-469,-566,-6.43829,3.2998,0,0,0,0,0,0,0,-1,755,1590,-6.43829,-3.2998
-462,-566,-0.459106,3.89343,0,0,0,0,0,0,0,-1,762,1590,-0.459095,-3.89341
-455,-566,0.280212,4.74023,0,0,0,0,0,0,0,-1,769,1590,0.280207,-4.74023
-448,-566,0.436951,5.51306,0,0,0,0,0,0,0,-1,776,1590,0.436971,-5.51301
-441,-566,-0.440735,12.4063,0,0,0,0,0,0,0,-1,783,1590,-0.440753,-12.4062
-434,-566,0.494263,14.8538,0,0,0,0,0,0,0,-1,790,1590,0.494265,-14.8537
-427,-566,0.397644,15.5812,0,0,0,0,0,0,0,-1,797,1590,0.397644,-15.5812
-420,-566,0.249939,16.0289,0,0,0,0,0,0,0,-1,804,1590,0.249935,-16.029
-413,-566,0.549805,16.2108,-0.00242604,0.000876811,0.00342331,0.0030262,-0.00457543,1.01014,0.00441909,0.0242426,811,1590,0.549793,-16.2108
-406,-566,0.555359,16.6161,-0.00213336,0.000472838,0.00213933,0.00167469,-0.00333521,1.05895,0.00294495,0.0111836,818,1590,0.555367,-16.616
-399,-566,0.53833,17.0186,-0.00195338,0.000292234,0.00135464,0.0009289,-0.00259004,1.13144,0.00210577,0.0102763,825,1590,0.538326,-17.0186
-392,-566,0.521729,17.4135,-0.00177973,0.000128867,0.000613789,0.000309215,-0.00196008,1.28501,0.00142105,0.0124557,832,1590,0.521714,-17.4135
-385,-566,0.532227,17.8512,-0.00130503,0.000790265,0.000342623,0.000844868,-0.00135963,1.41276,0.00128428,0.0143333,839,1590,0.532205,-17.8512
-378,-566,0.514282,18.2904,-0.000659061,0.0013838,0.000451483,0.00147913,-0.000754393,1.3627,0.00131196,0.0153382,846,1590,0.514271,-18.2904
-371,-566,0.474976,18.6924,-6.72421e-05,0.00198584,0.000529671,0.00211444,-0.000195837,1.33262,0.00147923,0.020487,853,1590,0.474989,-18.6924
-364,-566,0.464355,19.0636,0.000507689,0.00247853,0.000507053,0.00260133,0.000384887,1.33318,0.00162122,0.0211886,860,1590,0.464376,-19.0636
-357,-566,0.44873,19.4401,0.00121302,0.00328481,0.000558159,0.00342561,0.00107222,1.32369,0.00202336,0.0179801,867,1590,0.44874,-19.4401
-350,-566,0.444458,19.823,0.0018888,0.00391089,0.000576045,0.00406347,0.00173621,1.31186,0.00235431,0.0201098,874,1590,0.444448,-19.823
-343,-566,0.458923,20.1954,0.00271349,0.00447531,0.000624459,0.00467419,0.00251461,1.26247,0.00270124,0.0243997,881,1590,0.458907,-20.1954
-336,-566,0.372009,20.5977,0.0035508,0.00517958,0.000691938,0.00543384,0.00329654,1.21865,0.00316094,0.0253688,888,1590,0.371985,-20.5976
-329,-566,0.449951,20.9161,0.00452321,0.00579138,0.000895452,0.00625452,0.00406008,1.09347,0.00366421,0.0202336,895,1590,0.449946,-20.9162
-322,-566,0.544312,21.4166,0.00563885,0.00644816,0.00119286,0.00730313,0.00478387,0.948923,0.00428351,0.0271509,902,1590,0.544299,-21.4167
-315,-566,0.355042,21.8596,0.00686003,0.00747289,0.00155507,0.00875144,0.00558149,0.882678,0.00511619,0.0455288,909,1590,0.355049,-21.8596
-308,-566,0.581421,22.5778,0.00817135,0.00856999,0.0019195,0.0103005,0.00644085,0.837132,0.00600891,0.044123,916,1590,0.581406,-22.5777
-301,-566,1.09802,23.2224,0,0,0,0,0,0,0,-1,923,1590,1.09803,-23.2224
-294,-566,1.19623,23.403,0,0,0,0,0,0,0,-1,930,1590,1.19625,-23.403
-287,-566,1.25391,23.4589,0,0,0,0,0,0,0,-1,937,1590,1.2539,-23.4589
-280,-566,1.59406,17.8762,0,0,0,0,0,0,0,-1,944,1590,1.59405,-17.8762
-273,-566,0.49762,11.2427,0,0,0,0,0,0,0,-1,951,1590,0.497591,-11.2426
-266,-566,0.392151,6.90295,0,0,0,0,0,0,0,-1,958,1590,0.392151,-6.90294
-259,-566,0.343628,6.47437,0,0,0,0,0,0,0,-1,965,1590,0.34363,-6.47438
-252,-566,-7.68311,1.01343,0,0,0,0,0,0,0,-1,972,1590,-7.68308,-1.01348
-245,-566,-11.1835,1.97522,0,0,0,0,0,0,0,-1,979,1590,-11.1835,-1.97527
-238,-566,-10.4883,2.40491,0,0,0,0,0,0,0,-1,986,1590,-10.4883,-2.40487
-231,-566,-7.41827,4.22803,0,0,0,0,0,0,0,-1,993,1590,-7.41827,-4.22803
-224,-566,-4.67188,6.30859,0,0,0,0,0,0,0,-1,1000,1590,-4.67185,-6.30853
-217,-566,-2.82867,7.52527,0,0,0,0,0,0,0,-1,1007,1590,-2.82869,-7.52531
-210,-566,-1.03436,8.67737,0,0,0,0,0,0,0,-1,1014,1590,-1.03439,-8.67733
-203,-566,0,0,0,0,0,0,0,0,0,-1,1021,1590,0,0
-196,-566,0,0,0,0,0,0,0,0,0,-1,1028,1590,0,0
-189,-566,0,0,0,0,0,0,0,0,0,-1,1035,1590,0,0
-182,-566,0,0,0,0,0,0,0,0,0,-1,1042,1590,0,0
-175,-566,0,0,0,0,0,0,0,0,0,-1,1049,1590,0,0
-168,-566,0,0,0,0,0,0,0,0,0,-1,1056,1590,0,0
-161,-566,0,0,0,0,0,0,0,0,0,-1,1063,1590,0,0
-154,-566,0,0,0,0,0,0,0,0,0,-1,1070,1590,0,0
-147,-566,0,0,0,0,0,0,0,0,0,-1,1077,1590,0,0
-140,-566,0,0,0,0,0,0,0,0,0,-1,1084,1590,0,0
-133,-566,0,0,0,0,0,0,0,0,0,-1,1091,1590,0,0
-126,-566,0,0,0,0,0,0,0,0,0,-1,1098,1590,0,0
-119,-566,0,0,0,0,0,0,0,0,0,-1,1105,1590,0,0
-112,-566,0,0,0,0,0,0,0,0,0,-1,1112,1590,0,0
-105,-566,0,0,0,0,0,0,0,0,0,-1,1119,1590,0,0
-98,-566,0,0,0,0,0,0,0,0,0,-1,1126,1590,0,0
-91,-566,0,0,0,0,0,0,0,0,0,-1,1133,1590,0,0
-84,-566,0,0,0,0,0,0,0,0,0,-1,1140,1590,0,0
-77,-566,0,0,0,0,0,0,0,0,0,-1,1147,1590,0,0
-70,-566,0,0,0,0,0,0,0,0,0,-1,1154,1590,0,0
-63,-566,0,0,0,0,0,0,0,0,0,-1,1161,1590,0,0
-56,-566,0,0,0,0,0,0,0,0,0,-1,1168,1590,0,0
-49,-566,0,0,0,0,0,0,0,0,0,-1,1175,1590,0,0
-42,-566,0,0,0,0,0,0,0,0,0,-1,1182,1590,0,0
-35,-566,0,0,0,0,0,0,0,0,0,-1,1189,1590,0,0
-28,-566,0,0,0,0,0,0,0,0,0,-1,1196,1590,0,0
-21,-566,0,0,0,0,0,0,0,0,0,-1,1203,1590,0,0
-14,-566,0,0,0,0,0,0,0,0,0,-1,1210,1590,0,0
-7,-566,0,0,0,0,0,0,0,0,0,-1,1217,1590,0,0
0,-566,0,0,0,0,0,0,0,0,0,-1,1224,1590,0,0
7,-566,0,0,0,0,0,0,0,0,0,-1,1231,1590,0,0
14,-566,0,0,0,0,0,0,0,0,0,-1,1238,1590,0,0
21,-566,0,0,0,0,0,0,0,0,0,-1,1245,1590,0,0
28,-566,0,0,0,0,0,0,0,0,0,-1,1252,1590,0,0
35,-566,0,0,0,0,0,0,0,0,0,-1,1259,1590,0,0
42,-566,0,0,0,0,0,0,0,0,0,-1,1266,1590,0,0
49,-566,0,0,0,0,0,0,0,0,0,-1,1273,1590,0,0
56,-566,0,0,0,0,0,0,0,0,0,-1,1280,1590,0,0
63,-566,0,0,0,0,0,0,0,0,0,-1,1287,1590,0,0
70,-566,0,0,0,0,0,0,0,0,0,-1,1294,1590,0,0
77,-566,0,0,0,0,0,0,0,0,0,-1,1301,1590,0,0
84,-566,0,0,0,0,0,0,0,0,0,-1,1308,1590,0,0
91,-566,0,0,0,0,0,0,0,0,0,-1,1315,1590,0,0
98,-566,0,0,0,0,0,0,0,0,0,-1,1322,1590,0,0
105,-566,0,0,0,0,0,0,0,0,0,-1,1329,1590,0,0
112,-566,0,0,0,0,0,0,0,0,0,-1,1336,1590,0,0
119,-566,0,0,0,0,0,0,0,0,0,-1,1343,1590,0,0
126,-566,0,0,0,0,0,0,0,0,0,-1,1350,1590,0,0
133,-566,0,0,0,0,0,0,0,0,0,-1,1357,1590,0,0
140,-566,0,0,0,0,0,0,0,0,0,-1,1364,1590,0,0
147,-566,0,0,0,0,0,0,0,0,0,-1,1371,1590,0,0
154,-566,0,0,0,0,0,0,0,0,0,-1,1378,1590,0,0
161,-566,0,0,0,0,0,0,0,0,0,-1,1385,1590,0,0
168,-566,0,0,0,0,0,0,0,0,0,-1,1392,1590,0,0
175,-566,0,0,0,0,0,0,0,0,0,-1,1399,1590,0,0
182,-566,0,0,0,0,0,0,0,0,0,-1,1406,1590,0,0
189,-566,0,0,0,0,0,0,0,0,0,-1,1413,1590,0,0
196,-566,0,0,0,0,0,0,0,0,0,-1,1420,1590,0,0
203,-566,0,0,0,0,0,0,0,0,0,-1,1427,1590,0,0
210,-566,0,0,0,0,0,0,0,0,0,-1,1434,1590,0,0
217,-566,0,0,0,0,0,0,0,0,0,-1,1441,1590,0,0
224,-566,0,0,0,0,0,0,0,0,0,-1,1448,1590,0,0
231,-566,0,0,0,0,0,0,0,0,0,-1,1455,1590,0,0
238,-566,0,0,0,0,0,0,0,0,0,-1,1462,1590,0,0
245,-566,0,0,0,0,0,0,0,0,0,-1,1469,1590,0,0
252,-566,0,0,0,0,0,0,0,0,0,-1,1476,1590,0,0
259,-566,0,0,0,0,0,0,0,0,0,-1,1483,1590,0,0
266,-566,0,0,0,0,0,0,0,0,0,-1,1490,1590,0,0
273,-566,0,0,0,0,0,0,0,0,0,-1,1497,1590,0,0
280,-566,0,0,0,0,0,0,0,0,0,-1,1504,1590,0,0
287,-566,0,0,0,0,0,0,0,0,0,-1,1511,1590,0,0
294,-566,0,0,0,0,0,0,0,0,0,-1,1518,1590,0,0
301,-566,0,0,0,0,0,0,0,0,0,-1,1525,1590,0,0
308,-566,0,0,0,0,0,0,0,0,0,-1,1532,1590,0,0
315,-566,0,0,0,0,0,0,0,0,0,-1,1539,1590,0,0
322,-566,6.07983,4.44873,0,0,0,0,0,0,0,-1,1546,1590,6.07983,-4.44873
329,-566,5.77026,3.47534,0,0,0,0,0,0,0,-1,1553,1590,5.77026,-3.47535
336,-566,5.41138,2.62915,0,0,0,0,0,0,0,-1,1560,1590,5.41138,-2.62909
343,-566,4.81873,1.79089,0,0,0,0,0,0,0,-1,1567,1590,4.81878,-1.79095
350,-566,4.41663,2.44214,0,0,0,0,0,0,0,-1,1574,1590,4.41666,-2.44214
357,-566,6.34058,5.18579,0,0,0,0,0,0,0,-1,1581,1590,6.34059,-5.1858
364,-566,6.06262,4.20251,0,0,0,0,0,0,0,-1,1588,1590,6.06259,-4.20246
371,-566,5.78455,3.21912,0,0,0,0,0,0,0,-1,1595,1590,5.7846,-3.21912
378,-566,5.7439,0.695557,0,0,0,0,0,0,0,-1,1602,1590,5.74392,-0.695531
385,-566,5.67615,-0.573975,0,0,0,0,0,0,0,-1,1609,1590,5.67612,0.573956
392,-566,5.78638,1.82434,0,0,0,0,0,0,0,-1,1616,1590,5.78637,-1.82439
399,-566,5.36621,1.7373,0,0,0,0,0,0,0,-1,1623,1590,5.36627,-1.7373
406,-566,4.30359,5.26868,0,0,0,0,0,0,0,-1,1630,1590,4.30364,-5.26867
413,-566,4.27124,5.79492,0,0,0,0,0,0,0,-1,1637,1590,4.27123,-5.7949
420,-566,7.19812,8.25146,0,0,0,0,0,0,0,-1,1644,1590,7.19817,-8.25149
427,-566,10.455,10.6842,0,0,0,0,0,0,0,-1,1651,1590,10.455,-10.6842
434,-566,9.18567,14.3304,0,0,0,0,0,0,0,-1,1658,1590,9.18571,-14.3305
441,-566,13.6147,23.3807,0,0,0,0,0,0,0,-1,1665,1590,13.6148,-23.3807
448,-566,13.3186,22.4136,-0.00609579,0.00529429,0.00772171,0.00919395,-0.00999545,1.10314,0.0110822,0.0487657,1672,1590,13.3186,-22.4136
455,-566,13.049,22.3873,-0.00377087,0.00535809,0.00478509,0.00740659,-0.00581937,1.1663,0.00765432,0.0485126,1679,1590,13.049,-22.3873
462,-566,13.0096,22.1041,-0.00172391,0.00562737,0.00231664,0.00629652,-0.00239305,1.28961,0.00518291,0.0300227,1686,1590,13.0096,-22.1042
469,-566,13.1095,21.5636,-0.000302924,0.00518362,0.000768282,0.00528918,-0.000408476,1.43426,0.00366986,0.0156323,1693,1590,13.1095,-21.5635
476,-566,13.1588,21.1746,0.000624479,0.00473481,-0.000609548,0.0048233,0.00053599,-1.42663,0.0030526,0.0110655,1700,1590,13.1588,-21.1746
483,-566,13.147,20.8011,0.00131244,0.00358652,-0.00114565,0.0040636,0.000835359,-1.17621,0.002478,0.0105774,1707,1590,13.147,-20.8012
490,-566,13.1229,20.4298,0.00165344,0.00274997,-0.00112421,0.00345248,0.000950933,-1.01227,0.00205922,0.0113929,1714,1590,13.123,-20.4299
497,-566,13.1826,20.0889,0.00169097,0.00198129,-0.00113078,0.00297619,0.00069607,-0.849234,0.0017976,0.0154176,1721,1590,13.1827,-20.0889
504,-566,13.1925,19.7546,0.00147279,0.001478,-0.000864818,0.00234022,0.000610573,-0.786905,0.00140167,0.0203642,1728,1590,13.1925,-19.7546
511,-566,13.1544,19.377,0.000941272,0.000438142,-0.000252925,0.00104644,0.000332978,-0.394047,0.000617329,0.0197738,1735,1590,13.1544,-19.377
518,-566,13.1331,19.0013,0.000270461,-0.000542311,0.000460735,0.000478425,-0.000750275,0.423997,0.000715155,0.0124016,1742,1590,13.1331,-19.0014
525,-566,13.114,18.6094,-0.000502181,-0.00158494,0.00133718,0.000399058,-0.00248618,0.593051,0.00180523,0.011998,1749,1590,13.114,-18.6094
532,-566,13.1198,18.2102,-0.00130477,-0.00279215,0.00241349,0.000477011,-0.00457393,0.635946,0.00322009,0.0143282,1756,1590,13.1197,-18.2102
539,-566,13.1136,17.8263,-0.00215965,-0.00434103,0.00372496,0.00063102,-0.0071317,0.642976,0.00497816,0.0180982,1763,1590,13.1137,-17.8263
546,-566,13.1407,17.3987,-0.00329269,-0.006389,0.00551382,0.000886199,-0.0105679,0.648534,0.00735847,0.0208545,1770,1590,13.1407,-17.3987
553,-566,13.1917,17.209,-0.00442667,-0.00877267,0.00763466,0.00133822,-0.0145376,0.646753,0.0101672,0.0348446,1777,1590,13.1917,-17.209
560,-566,13.0013,17.2998,-0.0055472,-0.0115866,0.00995659,0.00183755,-0.0189713,0.638165,0.0133024,0.0439065,1784,1590,13.0014,-17.2998
567,-566,12.8644,17.2167,0,0,0,0,0,0,0,-1,1791,1590,12.8644,-17.2167
574,-566,7.99548,3.14514,0,0,0,0,0,0,0,-1,1798,1590,7.99543,-3.14511
581,-566,2.54102,5.1311,0,0,0,0,0,0,0,-1,1805,1590,2.54099,-5.13111
588,-566,-1.91321,8.39197,0,0,0,0,0,0,0,-1,1812,1590,-1.91316,-8.39199
595,-566,9.0271,4.66467,0,0,0,0,0,0,0,-1,1819,1590,9.02705,-4.66468
602,-566,9.953,3.54895,0,0,0,0,0,0,0,-1,1826,1590,9.953,-3.54898
609,-566,0,0,0,0,0,0,0,0,0,-1,1833,1590,0,0
616,-566,0,0,0,0,0,0,0,0,0,-1,1840,1590,0,0
623,-566,0,0,0,0,0,0,0,0,0,-1,1847,1590,0,0
630,-566,0,0,0,0,0,0,0,0,0,-1,1854,1590,0,0
637,-566,0,0,0,0,0,0,0,0,0,-1,1861,1590,0,0
644,-566,0,0,0,0,0,0,0,0,0,-1,1868,1590,0,0
651,-566,0,0,0,0,0,0,0,0,0,-1,1875,1590,0,0
658,-566,0,0,0,0,0,0,0,0,0,-1,1882,1590,0,0
665,-566,0,0,0,0,0,0,0,0,0,-1,1889,1590,0,0
672,-566,0,0,0,0,0,0,0,0,0,-1,1896,1590,0,0
679,-566,0,0,0,0,0,0,0,0,0,-1,1903,1590,0,0
686,-566,0,0,0,0,0,0,0,0,0,-1,1910,1590,0,0
693,-566,0,0,0,0,0,0,0,0,0,-1,1917,1590,0,0
700,-566,0,0,0,0,0,0,0,0,0,-1,1924,1590,0,0
707,-566,0,0,0,0,0,0,0,0,0,-1,1931,1590,0,0
714,-566,0,0,0,0,0,0,0,0,0,-1,1938,1590,0,0
721,-566,0,0,0,0,0,0,0,0,0,-1,1945,1590,0,0
728,-566,0,0,0,0,0,0,0,0,0,-1,1952,1590,0,0
735,-566,0,0,0,0,0,0,0,0,0,-1,1959,1590,0,0
742,-566,0,0,0,0,0,0,0,0,0,-1,1966,1590,0,0
749,-566,0,0,0,0,0,0,0,0,0,-1,1973,1590,0,0
756,-566,0,0,0,0,0,0,0,0,0,-1,1980,1590,0,0
763,-566,0,0,0,0,0,0,0,0,0,-1,1987,1590,0,0
770,-566,0,0,0,0,0,0,0,0,0,-1,1994,1590,0,0
777,-566,0,0,0,0,0,0,0,0,0,-1,2001,1590,0,0
784,-566,0,0,0,0,0,0,0,0,0,-1,2008,1590,0,0
791,-566,0,0,0,0,0,0,0,0,0,-1,2015,1590,0,0
798,-566,0,0,0,0,0,0,0,0,0,-1,2022,1590,0,0
805,-566,0,0,0,0,0,0,0,0,0,-1,2029,1590,0,0
812,-566,0,0,0,0,0,0,0,0,0,-1,2036,1590,0,0
-700,-573,0,0,0,0,0,0,0,0,0,-1,524,1597,0,0
-693,-573,0,0,0,0,0,0,0,0,0,-1,531,1597,0,0
-686,-573,0,0,0,0,0,0,0,0,0,-1,538,1597,0,0
-679,-573,0,0,0,0,0,0,0,0,0,-1,545,1597,0,0
-672,-573,0,0,0,0,0,0,0,0,0,-1,552,1597,0,0
-665,-573,0,0,0,0,0,0,0,0,0,-1,559,1597,0,0
-658,-573,0,0,0,0,0,0,0,0,0,-1,566,1597,0,0
-651,-573,0,0,0,0,0,0,0,0,0,-1,573,1597,0,0
-644,-573,0,0,0,0,0,0,0,0,0,-1,580,1597,0,0
-637,-573,0,0,0,0,0,0,0,0,0,-1,587,1597,0,0
-630,-573,0,0,0,0,0,0,0,0,0,-1,594,1597,0,0
-623,-573,0,0,0,0,0,0,0,0,0,-1,601,1597,0,0
-616,-573,0,0,0,0,0,0,0,0,0,-1,608,1597,0,0
-609,-573,0,0,0,0,0,0,0,0,0,-1,615,1597,0,0
-602,-573,0,0,0,0,0,0,0,0,0,-1,622,1597,0,0
-595,-573,0,0,0,0,0,0,0,0,0,-1,629,1597,0,0
-588,-573,0,0,0,0,0,0,0,0,0,-1,636,1597,0,0
-581,-573,0,0,0,0,0,0,0,0,0,-1,643,1597,0,0
-574,-573,0,0,0,0,0,0,0,0,0,-1,650,1597,0,0
-567,-573,0,0,0,0,0,0,0,0,0,-1,657,1597,0,0
-560,-573,0,0,0,0,0,0,0,0,0,-1,664,1597,0,0
-553,-573,0,0,0,0,0,0,0,0,0,-1,671,1597,0,0
-546,-573,0,0,0,0,0,0,0,0,0,-1,678,1597,0,0
-539,-573,0,0,0,0,0,0,0,0,0,-1,685,1597,0,0
-532,-573,0,0,0,0,0,0,0,0,0,-1,692,1597,0,0
-525,-573,0,0,0,0,0,0,0,0,0,-1,699,1597,0,0
-518,-573,0,0,0,0,0,0,0,0,0,-1,706,1597,0,0
-511,-573,0,0,0,0,0,0,0,0,0,-1,713,1597,0,0
-504,-573,0,0,0,0,0,0,0,0,0,-1,720,1597,0,0
-497,-573,0,0,0,0,0,0,0,0,0,-1,727,1597,0,0
-490,-573,0,0,0,0,0,0,0,0,0,-1,734,1597,0,0
-483,-573,0,0,0,0,0,0,0,0,0,-1,741,1597,0,0
-476,-573,-9.3327,0.972778,0,0,0,0,0,0,0,-1,748,1597,-9.33268,-0.972776
-469,-573,-1.41681,1.13379,0,0,0,0,0,0,0,-1,755,1597,-1.41681,-1.13382
-462,-573,-0.748535,2.02588,0,0,0,0,0,0,0,-1,762,1597,-0.748533,-2.02584
-455,-573,-0.112976,2.70703,0,0,0,0,0,0,0,-1,769,1597,-0.112988,-2.70697
-448,-573,-1.26172,3.33252,0,0,0,0,0,0,0,-1,776,1597,-1.26173,-3.33248
-441,-573,0.108582,5.06726,0,0,0,0,0,0,0,-1,783,1597,0.108584,-5.06721
-434,-573,1.61768,7.05444,0,0,0,0,0,0,0,-1,790,1597,1.61767,-7.05446
-427,-573,0.419617,15.7253,0,0,0,0,0,0,0,-1,797,1597,0.419623,-15.7254
-420,-573,1.17322,14.9247,0,0,0,0,0,0,0,-1,804,1597,1.1732,-14.9246
-413,-573,0.917114,16.0437,0,0,0,0,0,0,0,-1,811,1597,0.917118,-16.0437
-406,-573,0.961365,16.562,-0.00336315,0.000455135,0.00228521,0.00152374,-0.00443176,1.13339,0.00357243,0.0260904,818,1597,0.961359,-16.562
-399,-573,0.933838,17.0289,-0.00313267,1.24965e-06,0.00133166,0.000490665,-0.00362208,1.2186,0.00259379,0.0126867,825,1597,0.93382,-17.029
-392,-573,0.942444,17.4432,-0.00286034,-0.000448195,0.000504213,-0.000347041,-0.0029615,1.37281,0.00186942,0.0120121,832,1597,0.942471,-17.4432
-385,-573,0.933655,17.8597,-0.00229174,8.03898e-05,0.000172944,9.29324e-05,-0.00230428,1.4984,0.00156808,0.0140194,839,1597,0.933625,-17.8597
-378,-573,0.919617,18.2727,-0.0015452,0.000564562,0.000268207,0.000598125,-0.00157876,1.44631,0.00129864,0.0152255,846,1597,0.919594,-18.2727
-371,-573,0.886536,18.6877,-0.000837939,0.00105051,0.000348614,0.00111281,-0.000900239,1.39396,0.00116439,0.016261,853,1597,0.886534,-18.6878
-364,-573,0.848389,19.0732,-0.000169216,0.00143761,0.000363691,0.00151609,-0.000247701,1.35825,0.00110261,0.0191358,860,1597,0.848406,-19.0733
-357,-573,0.858643,19.4443,0.000578065,0.00209547,0.000441129,0.00221439,0.000459143,1.30747,0.0013495,0.0224839,867,1597,0.858641,-19.4443
-350,-573,0.869568,19.8375,0.00130317,0.00262067,0.000497096,0.00278718,0.00113666,1.24758,0.00161827,0.0171759,874,1597,0.869556,-19.8375
-343,-573,0.871521,20.2222,0.0021396,0.00310215,0.00060678,0.00339534,0.0018464,1.12068,0.00196281,0.0201393,881,1597,0.871527,-20.2222
-336,-573,0.848694,20.6527,0.00299373,0.0036782,0.00072424,0.004137,0.00253494,1.00612,0.00240865,0.0167112,888,1597,0.848667,-20.6528
-329,-573,0.857361,21.0079,0.00390315,0.00428474,0.000951751,0.00506463,0.00312326,0.88432,0.00295048,0.0179462,895,1597,0.857378,-21.0079
-322,-573,0.859802,21.3938,0.00485439,0.0048911,0.00123652,0.0061094,0.00363609,0.79282,0.00354849,0.0148393,902,1597,0.859779,-21.3938
-315,-573,0.987915,21.9214,0.0058546,0.00574283,0.00153954,0.00733927,0.00425816,0.767256,0.00425546,0.032484,909,1597,0.987893,-21.9213
-308,-573,1.04425,22.1981,0.00686599,0.00655712,0.00182461,0.00854269,0.00488042,0.743178,0.00494881,0.0496369,916,1597,1.04424,-22.1981
-301,-573,1.21667,22.3599,0,0,0,0,0,0,0,-1,923,1597,1.21668,-22.3599
-294,-573,1.2724,22.9473,0,0,0,0,0,0,0,-1,930,1597,1.27242,-22.9472
-287,-573,1.44409,23.449,0,0,0,0,0,0,0,-1,937,1597,1.44409,-23.449
-280,-573,2.23346,24.37,0,0,0,0,0,0,0,-1,944,1597,2.23346,-24.3701
-273,-573,2.24805,25.4375,0,0,0,0,0,0,0,-1,951,1597,2.24803,-25.4374
-266,-573,1.31116,7.1814,0,0,0,0,0,0,0,-1,958,1597,1.31118,-7.18142
-259,-573,1.2514,6.70959,0,0,0,0,0,0,0,-1,965,1597,1.25137,-6.70965
-252,-573,2.07874,5.27161,0,0,0,0,0,0,0,-1,972,1597,2.07875,-5.27157
-245,-573,-10.2592,1.09827,0,0,0,0,0,0,0,-1,979,1597,-10.2592,-1.09823
-238,-573,-11.5463,4.44141,0,0,0,0,0,0,0,-1,986,1597,-11.5463,-4.44146
-231,-573,-9.23431,4.14539,0,0,0,0,0,0,0,-1,993,1597,-9.23431,-4.14534
-224,-573,-6.70044,7.40857,0,0,0,0,0,0,0,-1,1000,1597,-6.70045,-7.40851
-217,-573,-4.25824,8.59119,0,0,0,0,0,0,0,-1,1007,1597,-4.25824,-8.59122
-210,-573,-2.39661,9.73914,0,0,0,0,0,0,0,-1,1014,1597,-2.39658,-9.73915
-203,-573,-0.557373,10.9005,0,0,0,0,0,0,0,-1,1021,1597,-0.557387,-10.9006
-196,-573,-1.65344,9.02246,0,0,0,0,0,0,0,-1,1028,1597,-1.65349,-9.02241
-189,-573,-6.12915,6.66882,0,0,0,0,0,0,0,-1,1035,1597,-6.12913,-6.66884
-182,-573,0,0,0,0,0,0,0,0,0,-1,1042,1597,0,0
-175,-573,0,0,0,0,0,0,0,0,0,-1,1049,1597,0,0
-168,-573,0,0,0,0,0,0,0,0,0,-1,1056,1597,0,0
-161,-573,0,0,0,0,0,0,0,0,0,-1,1063,1597,0,0
-154,-573,0,0,0,0,0,0,0,0,0,-1,1070,1597,0,0
-147,-573,0,0,0,0,0,0,0,0,0,-1,1077,1597,0,0
-140,-573,0,0,0,0,0,0,0,0,0,-1,1084,1597,0,0
-133,-573,0,0,0,0,0,0,0,0,0,-1,1091,1597,0,0
-126,-573,0,0,0,0,0,0,0,0,0,-1,1098,1597,0,0
-119,-573,0,0,0,0,0,0,0,0,0,-1,1105,1597,0,0
-112,-573,0,0,0,0,0,0,0,0,0,-1,1112,1597,0,0
-105,-573,0,0,0,0,0,0,0,0,0,-1,1119,1597,0,0
-98,-573,0,0,0,0,0,0,0,0,0,-1,1126,1597,0,0
-91,-573,0,0,0,0,0,0,0,0,0,-1,1133,1597,0,0
-84,-573,0,0,0,0,0,0,0,0,0,-1,1140,1597,0,0
-77,-573,0,0,0,0,0,0,0,0,0,-1,1147,1597,0,0
-70,-573,0,0,0,0,0,0,0,0,0,-1,1154,1597,0,0
-63,-573,0,0,0,0,0,0,0,0,0,-1,1161,1597,0,0
-56,-573,0,0,0,0,0,0,0,0,0,-1,1168,1597,0,0
-49,-573,0,0,0,0,0,0,0,0,0,-1,1175,1597,0,0
-42,-573,0,0,0,0,0,0,0,0,0,-1,1182,1597,0,0
-35,-573,0,0,0,0,0,0,0,0,0,-1,1189,1597,0,0
-28,-573,0,0,0,0,0,0,0,0,0,-1,1196,1597,0,0
-21,-573,0,0,0,0,0,0,0,0,0,-1,1203,1597,0,0
-14,-573,0,0,0,0,0,0,0,0,0,-1,1210,1597,0,0
-7,-573,0,0,0,0,0,0,0,0,0,-1,1217,1597,0,0
0,-573,0,0,0,0,0,0,0,0,0,-1,1224,1597,0,0
7,-573,0,0,0,0,0,0,0,0,0,-1,1231,1597,0,0
14,-573,0,0,0,0,0,0,0,0,0,-1,1238,1597,0,0
21,-573,0,0,0,0,0,0,0,0,0,-1,1245,1597,0,0
28,-573,0,0,0,0,0,0,0,0,0,-1,1252,1597,0,0
35,-573,0,0,0,0,0,0,0,0,0,-1,1259,1597,0,0
42,-573,0,0,0,0,0,0,0,0,0,-1,1266,1597,0,0
49,-573,0,0,0,0,0,0,0,0,0,-1,1273,1597,0,0
56,-573,0,0,0,0,0,0,0,0,0,-1,1280,1597,0,0
63,-573,0,0,0,0,0,0,0,0,0,-1,1287,1597,0,0
70,-573,0,0,0,0,0,0,0,0,0,-1,1294,1597,0,0
77,-573,0,0,0,0,0,0,0,0,0,-1,1301,1597,0,0
84,-573,0,0,0,0,0,0,0,0,0,-1,1308,1597,0,0
91,-573,0,0,0,0,0,0,0,0,0,-1,1315,1597,0,0
98,-573,0,0,0,0,0,0,0,0,0,-1,1322,1597,0,0
105,-573,0,0,0,0,0,0,0,0,0,-1,1329,1597,0,0
112,-573,0,0,0,0,0,0,0,0,0,-1,1336,1597,0,0
119,-573,0,0,0,0,0,0,0,0,0,-1,1343,1597,0,0
126,-573,0,0,0,0,0,0,0,0,0,-1,1350,1597,0,0
133,-573,0,0,0,0,0,0,0,0,0,-1,1357,1597,0,0
140,-573,0,0,0,0,0,0,0,0,0,-1,1364,1597,0,0
147,-573,0,0,0,0,0,0,0,0,0,-1,1371,1597,0,0
154,-573,0,0,0,0,0,0,0,0,0,-1,1378,1597,0,0
161,-573,0,0,0,0,0,0,0,0,0,-1,1385,1597,0,0
168,-573,0,0,0,0,0,0,0,0,0,-1,1392,1597,0,0
175,-573,0,0,0,0,0,0,0,0,0,-1,1399,1597,0,0
182,-573,0,0,0,0,0,0,0,0,0,-1,1406,1597,0,0
189,-573,0,0,0,0,0,0,0,0,0,-1,1413,1597,0,0
196,-573,0,0,0,0,0,0,0,0,0,-1,1420,1597,0,0
203,-573,0,0,0,0,0,0,0,0,0,-1,1427,1597,0,0
210,-573,0,0,0,0,0,0,0,0,0,-1,1434,1597,0,0
217,-573,0,0,0,0,0,0,0,0,0,-1,1441,1597,0,0
224,-573,0,0,0,0,0,0,0,0,0,-1,1448,1597,0,0
231,-573,0,0,0,0,0,0,0,0,0,-1,1455,1597,0,0
238,-573,0,0,0,0,0,0,0,0,0,-1,1462,1597,0,0
245,-573,0,0,0,0,0,0,0,0,0,-1,1469,1597,0,0
252,-573,0,0,0,0,0,0,0,0,0,-1,1476,1597,0,0
259,-573,0,0,0,0,0,0,0,0,0,-1,1483,1597,0,0
266,-573,0,0,0,0,0,0,0,0,0,-1,1490,1597,0,0
273,-573,0,0,0,0,0,0,0,0,0,-1,1497,1597,0,0
280,-573,0,0,0,0,0,0,0,0,0,-1,1504,1597,0,0
287,-573,0,0,0,0,0,0,0,0,0,-1,1511,1597,0,0
294,-573,0,0,0,0,0,0,0,0,0,-1,1518,1597,0,0
301,-573,0,0,0,0,0,0,0,0,0,-1,1525,1597,0,0
308,-573,5.93042,9.71143,0,0,0,0,0,0,0,-1,1532,1597,5.93046,-9.71144
315,-573,4.34204,11.719,0,0,0,0,0,0,0,-1,1539,1597,4.34205,-11.719
322,-573,10.3269,7.77563,0,0,0,0,0,0,0,-1,1546,1597,10.327,-7.77565
329,-573,4.99573,3.80273,0,0,0,0,0,0,0,-1,1553,1597,4.9957,-3.80273
336,-573,4.85693,2.53455,0,0,0,0,0,0,0,-1,1560,1597,4.8569,-2.53459
343,-573,5.5946,2.15894,0,0,0,0,0,0,0,-1,1567,1597,5.59456,-2.1589
350,-573,2.53748,1.56433,0,0,0,0,0,0,0,-1,1574,1597,2.53753,-1.5643
357,-573,7.40247,4.03613,0,0,0,0,0,0,0,-1,1581,1597,7.40244,-4.03614
364,-573,7.14551,3.02087,0,0,0,0,0,0,0,-1,1588,1597,7.14556,-3.02084
371,-573,6.88867,2.00549,0,0,0,0,0,0,0,-1,1595,1597,6.88868,-2.00553
378,-573,8.62012,6.09106,0,0,0,0,0,0,0,-1,1602,1597,8.62012,-6.09103
385,-573,6.54346,-0.951904,0,0,0,0,0,0,0,-1,1609,1597,6.54349,0.951901
392,-573,6.41833,-2.18225,0,0,0,0,0,0,0,-1,1616,1597,6.41831,2.18228
399,-573,4.26282,4.73657,0,0,0,0,0,0,0,-1,1623,1597,4.26285,-4.73652
406,-573,6.82715,10.823,0,0,0,0,0,0,0,-1,1630,1597,6.82719,-10.823
413,-573,8.90552,13.1737,0,0,0,0,0,0,0,-1,1637,1597,8.90553,-13.1737
420,-573,13.7928,23.4659,0,0,0,0,0,0,0,-1,1644,1597,13.7928,-23.466
427,-573,14.0095,23.952,0,0,0,0,0,0,0,-1,1651,1597,14.0095,-23.9521
434,-573,12.9045,23.5798,0,0,0,0,0,0,0,-1,1658,1597,12.9045,-23.5798
441,-573,13,23.0734,-0.00639479,0.00439122,0.00861041,0.00915812,-0.0111617,1.06518,0.0117506,0.0462564,1665,1597,12.9999,-23.0734
448,-573,12.7789,22.8127,-0.00480836,0.00421352,0.0064037,0.00753558,-0.00813043,1.09224,0.00904695,0.0358236,1672,1597,12.7789,-22.8128
455,-573,12.7344,22.3427,-0.00315601,0.00415034,0.00415924,0.00603295,-0.00503863,1.14575,0.00640077,0.0263247,1679,1597,12.7343,-22.3426
462,-573,12.7893,21.8636,-0.00158993,0.0043462,0.00214936,0.00504271,-0.00228645,1.25742,0.00433009,0.0197461,1686,1597,12.7893,-21.8637
469,-573,12.8013,21.5084,-0.000450766,0.00398276,0.000808475,0.00412559,-0.000593594,1.39594,0.00296811,0.0158021,1693,1597,12.8012,-21.5085
476,-573,12.8219,21.1636,0.000285118,0.00361912,-0.00040873,0.0036685,0.000235741,-1.45057,0.002371,0.0150414,1700,1597,12.8219,-21.1636
483,-573,12.8197,20.8137,0.000889771,0.0027746,-0.000967235,0.00318263,0.000481745,-1.1716,0.00198079,0.0119648,1707,1597,12.8197,-20.8137
490,-573,12.801,20.4401,0.00121346,0.0020875,-0.00100753,0.00274871,0.000552252,-0.990028,0.00167894,0.0115329,1714,1597,12.801,-20.44
497,-573,12.8052,20.0781,0.00124011,0.00148028,-0.00106011,0.00242708,0.000293304,-0.841796,0.00152969,0.0174209,1721,1597,12.8052,-20.0782
504,-573,12.8196,19.7595,0.000956332,0.00100514,-0.000734751,0.00171589,0.000245581,-0.802,0.00107149,0.0182457,1728,1597,12.8196,-19.7596
511,-573,12.8008,19.3746,0.000450536,3.41213e-05,-0.000127639,0.000486546,-1.88868e-06,-0.274976,0.000324995,0.0201113,1735,1597,12.8008,-19.3747
518,-573,12.7454,19.0042,-0.000153925,-0.0008282,0.000563493,0.000165585,-0.00114771,0.515814,0.000825887,0.014679,1742,1597,12.7453,-19.0042
525,-573,12.7365,18.6133,-0.000865504,-0.00180254,0.00146216,0.000201369,-0.00286941,0.630352,0.00198348,0.0168535,1749,1597,12.7365,-18.6133
532,-573,12.736,18.2446,-0.00168406,-0.00303747,0.00266638,0.000390149,-0.00511168,0.661126,0.003545,0.0158558,1756,1597,12.736,-18.2446
539,-573,12.7347,17.8826,-0.00269188,-0.00474931,0.00425458,0.00065658,-0.00809777,0.66678,0.00563015,0.02294,1763,1597,12.7348,-17.8826
546,-573,12.7565,17.5397,-0.00407292,-0.00719311,0.00652366,0.0010746,-0.0123406,0.66803,0.00860767,0.0412168,1770,1597,12.7565,-17.5397
553,-573,12.2357,17.4694,-0.00554563,-0.0100214,0.00926863,0.00175145,-0.0173185,0.666942,0.0121716,0.0463367,1777,1597,12.2357,-17.4694
560,-573,11.8805,17.4395,0,0,0,0,0,0,0,-1,1784,1597,11.8805,-17.4394
567,-573,4.99597,2.77759,0,0,0,0,0,0,0,-1,1791,1597,4.99596,-2.7776
574,-573,0.83374,5.7041,0,0,0,0,0,0,0,-1,1798,1597,0.833718,-5.70405
581,-573,-0.224854,7.41602,0,0,0,0,0,0,0,-1,1805,1597,-0.224904,-7.41596
588,-573,-0.134033,7.67065,0,0,0,0,0,0,0,-1,1812,1597,-0.134037,-7.67063
595,-573,-0.0825195,8.35083,0,0,0,0,0,0,0,-1,1819,1597,-0.0824684,-8.35088
602,-573,0,0,0,0,0,0,0,0,0,-1,1826,1597,0,0
609,-573,0,0,0,0,0,0,0,0,0,-1,1833,1597,0,0
616,-573,0,0,0,0,0,0,0,0,0,-1,1840,1597,0,0
623,-573,0,0,0,0,0,0,0,0,0,-1,1847,1597,0,0
630,-573,0,0,0,0,0,0,0,0,0,-1,1854,1597,0,0
637,-573,0,0,0,0,0,0,0,0,0,-1,1861,1597,0,0
644,-573,0,0,0,0,0,0,0,0,0,-1,1868,1597,0,0
651,-573,0,0,0,0,0,0,0,0,0,-1,1875,1597,0,0
658,-573,0,0,0,0,0,0,0,0,0,-1,1882,1597,0,0
665,-573,0,0,0,0,0,0,0,0,0,-1,1889,1597,0,0
672,-573,0,0,0,0,0,0,0,0,0,-1,1896,1597,0,0
679,-573,0,0,0,0,0,0,0,0,0,-1,1903,1597,0,0
686,-573,0,0,0,0,0,0,0,0,0,-1,1910,1597,0,0
693,-573,0,0,0,0,0,0,0,0,0,-1,1917,1597,0,0
700,-573,0,0,0,0,0,0,0,0,0,-1,1924,1597,0,0
707,-573,0,0,0,0,0,0,0,0,0,-1,1931,1597,0,0
714,-573,0,0,0,0,0,0,0,0,0,-1,1938,1597,0,0
721,-573,0,0,0,0,0,0,0,0,0,-1,1945,1597,0,0
728,-573,0,0,0,0,0,0,0,0,0,-1,1952,1597,0,0
735,-573,0,0,0,0,0,0,0,0,0,-1,1959,1597,0,0
742,-573,0,0,0,0,0,0,0,0,0,-1,1966,1597,0,0
749,-573,0,0,0,0,0,0,0,0,0,-1,1973,1597,0,0
756,-573,0,0,0,0,0,0,0,0,0,-1,1980,1597,0,0
763,-573,0,0,0,0,0,0,0,0,0,-1,1987,1597,0,0
770,-573,0,0,0,0,0,0,0,0,0,-1,1994,1597,0,0
777,-573,0,0,0,0,0,0,0,0,0,-1,2001,1597,0,0
784,-573,0,0,0,0,0,0,0,0,0,-1,2008,1597,0,0
791,-573,0,0,0,0,0,0,0,0,0,-1,2015,1597,0,0
798,-573,0,0,0,0,0,0,0,0,0,-1,2022,1597,0,0
805,-573,0,0,0,0,0,0,0,0,0,-1,2029,1597,0,0
812,-573,0,0,0,0,0,0,0,0,0,-1,2036,1597,0,0
-700,-580,0,0,0,0,0,0,0,0,0,-1,524,1604,0,0
-693,-580,0,0,0,0,0,0,0,0,0,-1,531,1604,0,0
-686,-580,0,0,0,0,0,0,0,0,0,-1,538,1604,0,0
-679,-580,0,0,0,0,0,0,0,0,0,-1,545,1604,0,0
-672,-580,0,0,0,0,0,0,0,0,0,-1,552,1604,0,0
-665,-580,0,0,0,0,0,0,0,0,0,-1,559,1604,0,0
-658,-580,0,0,0,0,0,0,0,0,0,-1,566,1604,0,0
-651,-580,0,0,0,0,0,0,0,0,0,-1,573,1604,0,0
-644,-580,0,0,0,0,0,0,0,0,0,-1,580,1604,0,0
-637,-580,0,0,0,0,0,0,0,0,0,-1,587,1604,0,0
-630,-580,0,0,0,0,0,0,0,0,0,-1,594,1604,0,0
-623,-580,0,0,0,0,0,0,0,0,0,-1,601,1604,0,0
-616,-580,0,0,0,0,0,0,0,0,0,-1,608,1604,0,0
-609,-580,0,0,0,0,0,0,0,0,0,-1,615,1604,0,0
-602,-580,0,0,0,0,0,0,0,0,0,-1,622,1604,0,0
-595,-580,0,0,0,0,0,0,0,0,0,-1,629,1604,0,0
-588,-580,0,0,0,0,0,0,0,0,0,-1,636,1604,0,0
-581,-580,0,0,0,0,0,0,0,0,0,-1,643,1604,0,0
-574,-580,0,0,0,0,0,0,0,0,0,-1,650,1604,0,0
-567,-580,0,0,0,0,0,0,0,0,0,-1,657,1604,0,0
-560,-580,0,0,0,0,0,0,0,0,0,-1,664,1604,0,0
-553,-580,0,0,0,0,0,0,0,0,0,-1,671,1604,0,0
-546,-580,0,0,0,0,0,0,0,0,0,-1,678,1604,0,0
-539,-580,0,0,0,0,0,0,0,0,0,-1,685,1604,0,0
-532,-580,0,0,0,0,0,0,0,0,0,-1,692,1604,0,0
-525,-580,0,0,0,0,0,0,0,0,0,-1,699,1604,0,0
-518,-580,0,0,0,0,0,0,0,0,0,-1,706,1604,0,0
-511,-580,0,0,0,0,0,0,0,0,0,-1,713,1604,0,0
-504,-580,0,0,0,0,0,0,0,0,0,-1,720,1604,0,0
-497,-580,0,0,0,0,0,0,0,0,0,-1,727,1604,0,0
-490,-580,0,0,0,0,0,0,0,0,0,-1,734,1604,0,0
-483,-580,0,0,0,0,0,0,0,0,0,-1,741,1604,0,0
-476,-580,0,0,0,0,0,0,0,0,0,-1,748,1604,0,0
-469,-580,-1.69189,-0.38916,0,0,0,0,0,0,0,-1,755,1604,-1.69192,0.389188
-462,-580,-0.859863,0.675293,0,0,0,0,0,0,0,-1,762,1604,-0.859834,-0.675245
-455,-580,-0.730164,0.651978,0,0,0,0,0,0,0,-1,769,1604,-0.730153,-0.651957
-448,-580,-3.31891,2.07544,0,0,0,0,0,0,0,-1,776,1604,-3.3189,-2.07539
-441,-580,-1.63843,3.9469,0,0,0,0,0,0,0,-1,783,1604,-1.63842,-3.94695
-434,-580,0.23291,5.97876,0,0,0,0,0,0,0,-1,790,1604,0.232901,-5.97878
-427,-580,1.62756,8.05493,0,0,0,0,0,0,0,-1,797,1604,1.62758,-8.05488
-420,-580,0.986572,11.2383,0,0,0,0,0,0,0,-1,804,1604,0.986544,-11.2382
-413,-580,1.83209,15.0063,0,0,0,0,0,0,0,-1,811,1604,1.83209,-15.0063
-406,-580,1.3504,16.5359,0,0,0,0,0,0,0,-1,818,1604,1.3504,-16.5359
-399,-580,1.35065,17.0444,-0.00457728,-1.97193e-05,0.00138371,0.00036749,-0.00496449,1.29794,0.00343871,0.0260378,825,1604,1.35065,-17.0444
-392,-580,1.3255,17.4757,-0.00408045,-0.000763613,0.000501939,-0.000689319,-0.00415475,1.42385,0.00257105,0.014844,832,1604,1.32548,-17.4757
-385,-580,1.32422,17.8809,-0.00333431,-0.000383273,0.000134783,-0.000377129,-0.00334045,1.52525,0.00211251,0.0122815,839,1604,1.32424,-17.8809
-378,-580,1.29926,18.2739,-0.00244225,-1.76449e-05,0.000204797,-4.68106e-07,-0.00245943,1.48712,0.00163946,0.0151159,846,1604,1.29925,-18.2739
-371,-580,1.27124,18.6991,-0.001599,0.000352358,0.000267229,0.000388292,-0.00163493,1.43713,0.00123982,0.0144465,853,1604,1.27126,-18.6991
-364,-580,1.23987,19.0723,-0.000833705,0.000645281,0.000297091,0.000702727,-0.000891152,1.37979,0.000922367,0.02045,860,1604,1.23987,-19.0723
-357,-580,1.26514,19.4468,-5.16255e-05,0.00114934,0.000371688,0.00125507,-0.000157351,1.29367,0.000893793,0.0140975,867,1604,1.26516,-19.4468
-350,-580,1.28192,19.8558,0.000711282,0.00158503,0.000438981,0.00176748,0.000528831,1.17689,0.00104753,0.0105412,874,1604,1.28193,-19.8559
-343,-580,1.27045,20.2444,0.00153943,0.00200169,0.000576971,0.0023921,0.00114902,0.975905,0.00138144,0.0105719,881,1604,1.27047,-20.2443
-336,-580,1.28046,20.6075,0.00239025,0.00245557,0.000698933,0.00312261,0.00172321,0.808747,0.00180607,0.0182531,888,1604,1.28045,-20.6076
-329,-580,1.26331,21.0132,0.00321969,0.00304239,0.000901893,0.00403728,0.0022248,0.736408,0.00233497,0.0180655,895,1604,1.2633,-21.0132
-322,-580,1.2453,21.3927,0.00403199,0.00362798,0.00118082,0.00502796,0.00263201,0.700681,0.00290396,0.0196726,902,1604,1.24528,-21.3927
-315,-580,1.26569,21.7546,0.0048469,0.00433594,0.00142509,0.00603923,0.00314361,0.696705,0.00348773,0.0194599,909,1604,1.26566,-21.7547
-308,-580,1.33289,22.2572,0.00562753,0.00494501,0.00163776,0.0069592,0.00361333,0.682684,0.00401889,0.0281134,916,1604,1.33286,-22.2572
-301,-580,1.42944,22.5017,0.00637021,0.00516061,0.00168693,0.00755748,0.00397334,0.613276,0.00436524,0.0270676,923,1604,1.42946,-22.5016
-294,-580,1.35345,22.7433,0.00740416,0.00538335,0.00210556,0.0087292,0.00405831,0.561689,0.00504394,0.0303414,930,1604,1.35348,-22.7433
-287,-580,1.67432,23.317,0,0,0,0,0,0,0,-1,937,1604,1.67435,-23.317
-280,-580,2.11115,24.0959,0,0,0,0,0,0,0,-1,944,1604,2.11117,-24.096
-273,-580,1.64441,24.6667,0,0,0,0,0,0,0,-1,951,1604,1.64439,-24.6668
-266,-580,1.71777,25.6515,0,0,0,0,0,0,0,-1,958,1604,1.71775,-25.6515
-259,-580,1.31091,9.11536,0,0,0,0,0,0,0,-1,965,1604,1.31092,-9.11539
-252,-580,1.07629,7.74097,0,0,0,0,0,0,0,-1,972,1604,1.07627,-7.74101
-245,-580,3.80304,9.16028,0,0,0,0,0,0,0,-1,979,1604,3.80306,-9.16034
-238,-580,-10.3588,1.57556,0,0,0,0,0,0,0,-1,986,1604,-10.3588,-1.5755
-231,-580,-10.576,6.43787,0,0,0,0,0,0,0,-1,993,1604,-10.576,-6.43783
-224,-580,-8.27435,7.58972,0,0,0,0,0,0,0,-1,1000,1604,-8.27435,-7.5897
-217,-580,-5.85632,9.51221,0,0,0,0,0,0,0,-1,1007,1604,-5.85632,-9.5122
-210,-580,-3.6684,11.1569,0,0,0,0,0,0,0,-1,1014,1604,-3.66839,-11.1569
-203,-580,-1.92474,12.7845,0,0,0,0,0,0,0,-1,1021,1604,-1.92477,-12.7845
-196,-580,-2.28552,10.3289,0,0,0,0,0,0,0,-1,1028,1604,-2.28552,-10.3288
-189,-580,-4.58252,7.59058,0,0,0,0,0,0,0,-1,1035,1604,-4.58256,-7.59057
-182,-580,-5.45874,7.65942,0,0,0,0,0,0,0,-1,1042,1604,-5.45876,-7.65939
-175,-580,-6.38977,7.55005,0,0,0,0,0,0,0,-1,1049,1604,-6.38981,-7.5501
-168,-580,0,0,0,0,0,0,0,0,0,-1,1056,1604,0,0
-161,-580,0,0,0,0,0,0,0,0,0,-1,1063,1604,0,0
-154,-580,0,0,0,0,0,0,0,0,0,-1,1070,1604,0,0
-147,-580,0,0,0,0,0,0,0,0,0,-1,1077,1604,0,0
-140,-580,0,0,0,0,0,0,0,0,0,-1,1084,1604,0,0
-133,-580,0,0,0,0,0,0,0,0,0,-1,1091,1604,0,0
-126,-580,0,0,0,0,0,0,0,0,0,-1,1098,1604,0,0
-119,-580,0,0,0,0,0,0,0,0,0,-1,1105,1604,0,0
-112,-580,0,0,0,0,0,0,0,0,0,-1,1112,1604,0,0
-105,-580,0,0,0,0,0,0,0,0,0,-1,1119,1604,0,0
-98,-580,0,0,0,0,0,0,0,0,0,-1,1126,1604,0,0
-91,-580,0,0,0,0,0,0,0,0,0,-1,1133,1604,0,0
-84,-580,0,0,0,0,0,0,0,0,0,-1,1140,1604,0,0
-77,-580,0,0,0,0,0,0,0,0,0,-1,1147,1604,0,0
-70,-580,0,0,0,0,0,0,0,0,0,-1,1154,1604,0,0
-63,-580,0,0,0,0,0,0,0,0,0,-1,1161,1604,0,0
-56,-580,0,0,0,0,0,0,0,0,0,-1,1168,1604,0,0
-49,-580,0,0,0,0,0,0,0,0,0,-1,1175,1604,0,0
-42,-580,0,0,0,0,0,0,0,0,0,-1,1182,1604,0,0
-35,-580,0,0,0,0,0,0,0,0,0,-1,1189,1604,0,0
-28,-580,0,0,0,0,0,0,0,0,0,-1,1196,1604,0,0
-21,-580,0,0,0,0,0,0,0,0,0,-1,1203,1604,0,0
-14,-580,0,0,0,0,0,0,0,0,0,-1,1210,1604,0,0
-7,-580,0,0,0,0,0,0,0,0,0,-1,1217,1604,0,0
0,-580,0,0,0,0,0,0,0,0,0,-1,1224,1604,0,0
7,-580,0,0,0,0,0,0,0,0,0,-1,1231,1604,0,0
14,-580,0,0,0,0,0,0,0,0,0,-1,1238,1604,0,0
21,-580,0,0,0,0,0,0,0,0,0,-1,1245,1604,0,0
28,-580,0,0,0,0,0,0,0,0,0,-1,1252,1604,0,0
35,-580,0,0,0,0,0,0,0,0,0,-1,1259,1604,0,0
42,-580,0,0,0,0,0,0,0,0,0,-1,1266,1604,0,0
49,-580,0,0,0,0,0,0,0,0,0,-1,1273,1604,0,0
56,-580,0,0,0,0,0,0,0,0,0,-1,1280,1604,0,0
63,-580,0,0,0,0,0,0,0,0,0,-1,1287,1604,0,0
70,-580,0,0,0,0,0,0,0,0,0,-1,1294,1604,0,0
77,-580,0,0,0,0,0,0,0,0,0,-1,1301,1604,0,0
84,-580,0,0,0,0,0,0,0,0,0,-1,1308,1604,0,0
91,-580,0,0,0,0,0,0,0,0,0,-1,1315,1604,0,0
98,-580,0,0,0,0,0,0,0,0,0,-1,1322,1604,0,0
105,-580,0,0,0,0,0,0,0,0,0,-1,1329,1604,0,0
112,-580,0,0,0,0,0,0,0,0,0,-1,1336,1604,0,0
119,-580,0,0,0,0,0,0,0,0,0,-1,1343,1604,0,0
126,-580,0,0,0,0,0,0,0,0,0,-1,1350,1604,0,0
133,-580,0,0,0,0,0,0,0,0,0,-1,1357,1604,0,0
140,-580,0,0,0,0,0,0,0,0,0,-1,1364,1604,0,0
147,-580,0,0,0,0,0,0,0,0,0,-1,1371,1604,0,0
154,-580,0,0,0,0,0,0,0,0,0,-1,1378,1604,0,0
161,-580,0,0,0,0,0,0,0,0,0,-1,1385,1604,0,0
168,-580,0,0,0,0,0,0,0,0,0,-1,1392,1604,0,0
175,-580,0,0,0,0,0,0,0,0,0,-1,1399,1604,0,0
182,-580,0,0,0,0,0,0,0,0,0,-1,1406,1604,0,0
189,-580,0,0,0,0,0,0,0,0,0,-1,1413,1604,0,0
196,-580,0,0,0,0,0,0,0,0,0,-1,1420,1604,0,0
203,-580,0,0,0,0,0,0,0,0,0,-1,1427,1604,0,0
210,-580,0,0,0,0,0,0,0,0,0,-1,1434,1604,0,0
217,-580,0,0,0,0,0,0,0,0,0,-1,1441,1604,0,0
224,-580,0,0,0,0,0,0,0,0,0,-1,1448,1604,0,0
231,-580,0,0,0,0,0,0,0,0,0,-1,1455,1604,0,0
238,-580,0,0,0,0,0,0,0,0,0,-1,1462,1604,0,0
245,-580,0,0,0,0,0,0,0,0,0,-1,1469,1604,0,0
252,-580,0,0,0,0,0,0,0,0,0,-1,1476,1604,0,0
259,-580,0,0,0,0,0,0,0,0,0,-1,1483,1604,0,0
266,-580,0,0,0,0,0,0,0,0,0,-1,1490,1604,0,0
273,-580,0,0,0,0,0,0,0,0,0,-1,1497,1604,0,0
280,-580,0,0,0,0,0,0,0,0,0,-1,1504,1604,0,0
287,-580,0,0,0,0,0,0,0,0,0,-1,1511,1604,0,0
294,-580,4.0437,0.177368,0,0,0,0,0,0,0,-1,1518,1604,4.04369,-0.177371
301,-580,7.55164,8.05798,0,0,0,0,0,0,0,-1,1525,1604,7.55158,-8.05802
308,-580,5.9126,9.99341,0,0,0,0,0,0,0,-1,1532,1604,5.91255,-9.99337
315,-580,4.27356,11.9287,0,0,0,0,0,0,0,-1,1539,1604,4.27352,-11.9287
322,-580,10.2366,7.50281,0,0,0,0,0,0,0,-1,1546,1604,10.2366,-7.50282
329,-580,10.5962,8.69641,0,0,0,0,0,0,0,-1,1553,1604,10.5962,-8.69642
336,-580,3.66431,1.58862,0,0,0,0,0,0,0,-1,1560,1604,3.6643,-1.58864
343,-580,3.32227,1.39636,0,0,0,0,0,0,0,-1,1567,1604,3.32222,-1.39633
350,-580,8.71277,4.0564,0,0,0,0,0,0,0,-1,1574,1604,8.71271,-4.05638
357,-580,8.52332,3.08154,0,0,0,0,0,0,0,-1,1581,1604,8.52332,-3.08157
364,-580,8.25818,2.07605,0,0,0,0,0,0,0,-1,1588,1604,8.25812,-2.07608
371,-580,7.42114,7.14282,0,0,0,0,0,0,0,-1,1595,1604,7.42119,-7.14281
378,-580,7.9718,6.6731,0,0,0,0,0,0,0,-1,1602,1604,7.9718,-6.67307
385,-580,8.52246,6.20337,0,0,0,0,0,0,0,-1,1609,1604,8.52241,-6.20334
392,-580,11.9287,23.7726,0,0,0,0,0,0,0,-1,1616,1604,11.9287,-23.7725
399,-580,6.52625,10.7247,0,0,0,0,0,0,0,-1,1623,1604,6.52628,-10.7248
406,-580,12.986,24.0366,0,0,0,0,0,0,0,-1,1630,1604,12.986,-24.0366
413,-580,12.8479,23.8901,0,0,0,0,0,0,0,-1,1637,1604,12.848,-23.8901
420,-580,13.0656,23.6151,-0.00599324,0.00531968,0.0115779,0.012549,-0.0132226,1.01262,0.0148809,0.0475187,1644,1604,13.0656,-23.6151
427,-580,13.0464,23.7811,-0.00608107,0.00460778,0.0102849,0.010854,-0.0123273,1.02501,0.0133927,0.0399288,1651,1604,13.0464,-23.7811
434,-580,12.5328,23.3646,-0.00587021,0.00408758,0.00875132,0.00917719,-0.0109598,1.04403,0.0116413,0.0285558,1658,1604,12.5329,-23.3646
441,-580,12.3746,22.9302,-0.00500766,0.00356228,0.00697624,0.00746443,-0.00890981,1.0608,0.00946594,0.0142704,1665,1604,12.3747,-22.9302
448,-580,12.4215,22.569,-0.00398875,0.00320662,0.00539315,0.00609195,-0.00687407,1.07954,0.00749047,0.0136479,1672,1604,12.4215,-22.569
455,-580,12.4784,22.2369,-0.00277105,0.00308545,0.00361228,0.00480727,-0.00449288,1.12599,0.00537047,0.0185,1679,1604,12.4784,-22.237
462,-580,12.4443,21.8698,-0.00148866,0.00325118,0.0018966,0.00391665,-0.00215414,1.23334,0.00355387,0.0219236,1686,1604,12.4443,-21.8697
469,-580,12.4579,21.5077,-0.000440305,0.00301019,0.000615853,0.00311681,-0.000546929,1.39936,0.00228214,0.0206896,1693,1604,12.4579,-21.5077
476,-580,12.4786,21.1587,0.000326161,0.00279387,-0.000586602,0.00292621,0.000193816,-1.3489,0.00188952,0.0153354,1700,1604,12.4787,-21.1586
483,-580,12.4606,20.8192,0.00103215,0.00230997,-0.00129777,0.00311758,0.000224548,-1.01414,0.00200772,0.0126334,1707,1604,12.4606,-20.8192
490,-580,12.4269,20.4641,0.00148696,0.00185131,-0.00153027,0.00321021,0.000128054,-0.844643,0.00209876,0.0158498,1714,1604,12.4269,-20.4641
497,-580,12.4061,20.1073,0.0016228,0.00147526,-0.00172834,0.00327895,-0.000180887,-0.76407,0.00224869,0.0127669,1721,1604,12.4061,-20.1072
504,-580,12.4027,19.7568,0.00135717,0.00109048,-0.00143021,0.00266024,-0.000212591,-0.738915,0.00184843,0.0172656,1728,1604,12.4027,-19.7568
511,-580,12.3971,19.3671,0.000901728,0.000257727,-0.000875906,0.00151295,-0.000353491,-0.609256,0.0011448,0.0186237,1735,1604,12.3971,-19.367
518,-580,12.3809,18.9994,0.000332174,-0.000451323,-0.000210893,0.000385333,-0.000504482,-0.246923,0.000515268,0.0166506,1742,1604,12.3809,-18.9994
525,-580,12.3655,18.6415,-0.000389682,-0.00134121,0.000734446,9.63185e-06,-0.00174053,0.497989,0.00116357,0.0163913,1749,1604,12.3655,-18.6415
532,-580,12.3628,18.295,-0.00134903,-0.00260333,0.00212223,0.000236775,-0.00418913,0.641729,0.00287493,0.0180592,1756,1604,12.3628,-18.2951
539,-580,12.3959,18.0505,-0.00278877,-0.00452388,0.00417863,0.000611412,-0.00792406,0.683044,0.00549786,0.0300822,1763,1604,12.3959,-18.0505
546,-580,12.7188,17.6809,0,0,0,0,0,0,0,-1,1770,1604,12.7188,-17.6809
553,-580,11.1733,17.5967,0,0,0,0,0,0,0,-1,1777,1604,11.1733,-17.5966
560,-580,7.09021,6.49438,0,0,0,0,0,0,0,-1,1784,1604,7.09016,-6.4944
567,-580,3.87708,4.0647,0,0,0,0,0,0,0,-1,1791,1604,3.87711,-4.06471
574,-580,2.31653,5.62952,0,0,0,0,0,0,0,-1,1798,1604,2.31654,-5.62947
581,-580,1.60876,6.67664,0,0,0,0,0,0,0,-1,1805,1604,1.60873,-6.67667
588,-580,1.38684,7.14441,0,0,0,0,0,0,0,-1,1812,1604,1.38689,-7.14443
595,-580,0,0,0,0,0,0,0,0,0,-1,1819,1604,0,0
602,-580,0,0,0,0,0,0,0,0,0,-1,1826,1604,0,0
609,-580,0,0,0,0,0,0,0,0,0,-1,1833,1604,0,0
616,-580,0,0,0,0,0,0,0,0,0,-1,1840,1604,0,0
623,-580,0,0,0,0,0,0,0,0,0,-1,1847,1604,0,0
630,-580,0,0,0,0,0,0,0,0,0,-1,1854,1604,0,0
637,-580,0,0,0,0,0,0,0,0,0,-1,1861,1604,0,0
644,-580,0,0,0,0,0,0,0,0,0,-1,1868,1604,0,0
651,-580,0,0,0,0,0,0,0,0,0,-1,1875,1604,0,0
658,-580,0,0,0,0,0,0,0,0,0,-1,1882,1604,0,0
665,-580,0,0,0,0,0,0,0,0,0,-1,1889,1604,0,0
672,-580,0,0,0,0,0,0,0,0,0,-1,1896,1604,0,0
679,-580,0,0,0,0,0,0,0,0,0,-1,1903,1604,0,0
686,-580,0,0,0,0,0,0,0,0,0,-1,1910,1604,0,0
693,-580,0,0,0,0,0,0,0,0,0,-1,1917,1604,0,0
700,-580,0,0,0,0,0,0,0,0,0,-1,1924,1604,0,0
707,-580,0,0,0,0,0,0,0,0,0,-1,1931,1604,0,0
714,-580,0,0,0,0,0,0,0,0,0,-1,1938,1604,0,0
721,-580,0,0,0,0,0,0,0,0,0,-1,1945,1604,0,0
728,-580,0,0,0,0,0,0,0,0,0,-1,1952,1604,0,0
735,-580,0,0,0,0,0,0,0,0,0,-1,1959,1604,0,0
742,-580,0,0,0,0,0,0,0,0,0,-1,1966,1604,0,0
749,-580,0,0,0,0,0,0,0,0,0,-1,1973,1604,0,0
756,-580,0,0,0,0,0,0,0,0,0,-1,1980,1604,0,0
763,-580,0,0,0,0,0,0,0,0,0,-1,1987,1604,0,0
770,-580,0,0,0,0,0,0,0,0,0,-1,1994,1604,0,0
777,-580,0,0,0,0,0,0,0,0,0,-1,2001,1604,0,0
784,-580,0,0,0,0,0,0,0,0,0,-1,2008,1604,0,0
791,-580,0,0,0,0,0,0,0,0,0,-1,2015,1604,0,0
798,-580,0,0,0,0,0,0,0,0,0,-1,2022,1604,0,0
805,-580,0,0,0,0,0,0,0,0,0,-1,2029,1604,0,0
812,-580,0,0,0,0,0,0,0,0,0,-1,2036,1604,0,0
-700,-587,0,0,0,0,0,0,0,0,0,-1,524,1611,0,0
-693,-587,0,0,0,0,0,0,0,0,0,-1,531,1611,0,0
-686,-587,0,0,0,0,0,0,0,0,0,-1,538,1611,0,0
-679,-587,0,0,0,0,0,0,0,0,0,-1,545,1611,0,0
-672,-587,0,0,0,0,0,0,0,0,0,-1,552,1611,0,0
-665,-587,0,0,0,0,0,0,0,0,0,-1,559,1611,0,0
-658,-587,0,0,0,0,0,0,0,0,0,-1,566,1611,0,0
-651,-587,0,0,0,0,0,0,0,0,0,-1,573,1611,0,0
-644,-587,0,0,0,0,0,0,0,0,0,-1,580,1611,0,0
-637,-587,0,0,0,0,0,0,0,0,0,-1,587,1611,0,0
-630,-587,0,0,0,0,0,0,0,0,0,-1,594,1611,0,0
-623,-587,0,0,0,0,0,0,0,0,0,-1,601,1611,0,0
-616,-587,0,0,0,0,0,0,0,0,0,-1,608,1611,0,0
-609,-587,0,0,0,0,0,0,0,0,0,-1,615,1611,0,0
-602,-587,0,0,0,0,0,0,0,0,0,-1,622,1611,0,0
-595,-587,0,0,0,0,0,0,0,0,0,-1,629,1611,0,0
-588,-587,0,0,0,0,0,0,0,0,0,-1,636,1611,0,0
-581,-587,0,0,0,0,0,0,0,0,0,-1,643,1611,0,0
-574,-587,0,0,0,0,0,0,0,0,0,-1,650,1611,0,0
-567,-587,0,0,0,0,0,0,0,0,0,-1,657,1611,0,0
-560,-587,0,0,0,0,0,0,0,0,0,-1,664,1611,0,0
-553,-587,0,0,0,0,0,0,0,0,0,-1,671,1611,0,0
-546,-587,0,0,0,0,0,0,0,0,0,-1,678,1611,0,0
-539,-587,0,0,0,0,0,0,0,0,0,-1,685,1611,0,0
-532,-587,0,0,0,0,0,0,0,0,0,-1,692,1611,0,0
-525,-587,0,0,0,0,0,0,0,0,0,-1,699,1611,0,0
-518,-587,0,0,0,0,0,0,0,0,0,-1,706,1611,0,0
-511,-587,0,0,0,0,0,0,0,0,0,-1,713,1611,0,0
-504,-587,0,0,0,0,0,0,0,0,0,-1,720,1611,0,0
-497,-587,0,0,0,0,0,0,0,0,0,-1,727,1611,0,0
-490,-587,0,0,0,0,0,0,0,0,0,-1,734,1611,0,0
-483,-587,0,0,0,0,0,0,0,0,0,-1,741,1611,0,0
-476,-587,0,0,0,0,0,0,0,0,0,-1,748,1611,0,0
-469,-587,0,0,0,0,0,0,0,0,0,-1,755,1611,0,0
-462,-587,-0.714355,-0.418457,0,0,0,0,0,0,0,-1,762,1611,-0.714359,0.418483
-455,-587,-0.619812,-0.522461,0,0,0,0,0,0,0,-1,769,1611,-0.619802,0.522515
-448,-587,-0.461731,-0.686523,0,0,0,0,0,0,0,-1,776,1611,-0.461739,0.686559
-441,-587,-3.56555,2.72253,0,0,0,0,0,0,0,-1,783,1611,-3.56555,-2.72259
-434,-587,-1.77319,4.76318,0,0,0,0,0,0,0,-1,790,1611,-1.77318,-4.76323
-427,-587,0.0346069,6.92944,0,0,0,0,0,0,0,-1,797,1611,0.034587,-6.92941
-420,-587,-0.647156,10.1157,0,0,0,0,0,0,0,-1,804,1611,-0.647128,-10.1158
-413,-587,2.13971,10.3901,0,0,0,0,0,0,0,-1,811,1611,2.13971,-10.3902
-406,-587,2.14221,16.5842,0,0,0,0,0,0,0,-1,818,1611,2.1422,-16.5842
-399,-587,1.94623,17.0563,-0.00635628,3.50639e-05,0.00131839,0.000296339,-0.00661756,1.37515,0.00451373,0.0455371,825,1611,1.9462,-17.0563
-392,-587,1.83148,17.4211,-0.00548718,-0.000941011,0.000481151,-0.000890645,-0.00553755,1.4665,0.00343354,0.0350678,832,1611,1.83149,-17.4212
-385,-587,1.66412,17.8516,-0.00443627,-0.000664,0.000158624,-0.000657342,-0.00444293,1.52885,0.00276897,0.0188017,839,1611,1.66414,-17.8515
-378,-587,1.64874,18.3008,-0.00333162,-0.000374191,0.000230075,-0.000356399,-0.00334942,1.49362,0.00212413,0.0138472,846,1611,1.64873,-18.3007
-371,-587,1.63196,18.7271,-0.00232192,-9.18648e-05,0.000282504,-5.66335e-05,-0.00235715,1.44673,0.0015529,0.0145753,853,1611,1.63194,-18.7271
-364,-587,1.64069,19.087,-0.00145,0.00012586,0.000323445,0.000189664,-0.0015138,1.37603,0.001078,0.017829,860,1611,1.64066,-19.087
-357,-587,1.64124,19.4226,-0.000635395,0.000475098,0.000378096,0.000591607,-0.000751904,1.27188,0.000777515,0.0168806,867,1611,1.64124,-19.4226
-350,-587,1.64044,19.8578,0.00015631,0.000829793,0.000434617,0.00104286,-5.67547e-05,1.11499,0.000714908,0.00961491,874,1611,1.64043,-19.8578
-343,-587,1.61902,20.2434,0.000960909,0.00119121,0.000570807,0.00165837,0.000493755,0.884931,0.000983226,0.0117569,881,1611,1.61904,-20.2434
-336,-587,1.61145,20.6,0.00179325,0.00153292,0.00066628,0.00234196,0.000984208,0.688934,0.00135785,0.0120246,888,1611,1.61143,-20.6
-329,-587,1.60797,20.9821,0.00252955,0.0020898,0.000808979,0.003148,0.00147135,0.652708,0.00181879,0.0143316,895,1611,1.60797,-20.9821
-322,-587,1.62268,21.3715,0.00320412,0.00261776,0.00104273,0.00399411,0.00182777,0.648354,0.00230876,0.0176125,902,1611,1.62271,-21.3715
-315,-587,1.61542,21.7253,0.00386867,0.00320936,0.00124096,0.00482301,0.00225502,0.655573,0.00278652,0.0142296,909,1611,1.61539,-21.7254
-308,-587,1.61395,22.11,0.0044722,0.00365916,0.00138993,0.00551384,0.00261752,0.64313,0.00318477,0.0144089,916,1611,1.61392,-22.11
-301,-587,1.68298,22.4921,0.00502189,0.00379876,0.00137704,0.00591706,0.00290359,0.576423,0.00341641,0.0151742,923,1611,1.68298,-22.4921
-294,-587,1.75092,22.8857,0.00580533,0.00402263,0.00165948,0.00679769,0.00303026,0.538946,0.00393233,0.0243313,930,1611,1.75094,-22.8857
-287,-587,1.74957,23.2634,0,0,0,0,0,0,0,-1,937,1611,1.74959,-23.2634
-280,-587,1.87512,23.6984,0,0,0,0,0,0,0,-1,944,1611,1.87514,-23.6984
-273,-587,1.79791,24.219,0,0,0,0,0,0,0,-1,951,1611,1.79793,-24.219
-266,-587,1.7207,24.7396,0,0,0,0,0,0,0,-1,958,1611,1.72072,-24.7396
-259,-587,0.317444,23.6786,0,0,0,0,0,0,0,-1,965,1611,0.317428,-23.6785
-252,-587,1.30188,10.3103,0,0,0,0,0,0,0,-1,972,1611,1.30188,-10.3104
-245,-587,1.09857,25.0017,0,0,0,0,0,0,0,-1,979,1611,1.09855,-25.0017
-238,-587,2.87799,9.53821,0,0,0,0,0,0,0,-1,986,1611,2.87797,-9.53823
-231,-587,2.49548,9.14465,0,0,0,0,0,0,0,-1,993,1611,2.49551,-9.14468
-224,-587,-9.72528,9.21069,0,0,0,0,0,0,0,-1,1000,1611,-9.72529,-9.21072
-217,-587,-7.07495,10.7847,0,0,0,0,0,0,0,-1,1007,1611,-7.07495,-10.7847
-210,-587,-4.72308,12.5889,0,0,0,0,0,0,0,-1,1014,1611,-4.72307,-12.5888
-203,-587,-3.2583,13.7289,0,0,0,0,0,0,0,-1,1021,1611,-3.25828,-13.7289
-196,-587,-1.953,14.8145,0,0,0,0,0,0,0,-1,1028,1611,-1.95302,-14.8144
-189,-587,-3.04138,8.66638,0,0,0,0,0,0,0,-1,1035,1611,-3.04136,-8.66635
-182,-587,-3.97095,9.7146,0,0,0,0,0,0,0,-1,1042,1611,-3.97093,-9.71461
-175,-587,-4.80969,8.37878,0,0,0,0,0,0,0,-1,1049,1611,-4.80964,-8.37883
-168,-587,-5.91394,8.72546,0,0,0,0,0,0,0,-1,1056,1611,-5.91398,-8.72542
-161,-587,-7.06946,8.88501,0,0,0,0,0,0,0,-1,1063,1611,-7.06947,-8.885
-154,-587,-2.24731,6.56519,0,0,0,0,0,0,0,-1,1070,1611,-2.24728,-6.56517
-147,-587,0,0,0,0,0,0,0,0,0,-1,1077,1611,0,0
-140,-587,0,0,0,0,0,0,0,0,0,-1,1084,1611,0,0
-133,-587,0,0,0,0,0,0,0,0,0,-1,1091,1611,0,0
-126,-587,0,0,0,0,0,0,0,0,0,-1,1098,1611,0,0
-119,-587,0,0,0,0,0,0,0,0,0,-1,1105,1611,0,0
-112,-587,0,0,0,0,0,0,0,0,0,-1,1112,1611,0,0
-105,-587,0,0,0,0,0,0,0,0,0,-1,1119,1611,0,0
-98,-587,0,0,0,0,0,0,0,0,0,-1,1126,1611,0,0
-91,-587,0,0,0,0,0,0,0,0,0,-1,1133,1611,0,0
-84,-587,0,0,0,0,0,0,0,0,0,-1,1140,1611,0,0
-77,-587,0,0,0,0,0,0,0,0,0,-1,1147,1611,0,0
-70,-587,0,0,0,0,0,0,0,0,0,-1,1154,1611,0,0
-63,-587,0,0,0,0,0,0,0,0,0,-1,1161,1611,0,0
-56,-587,0,0,0,0,0,0,0,0,0,-1,1168,1611,0,0
-49,-587,0,0,0,0,0,0,0,0,0,-1,1175,1611,0,0
-42,-587,0,0,0,0,0,0,0,0,0,-1,1182,1611,0,0
-35,-587,0,0,0,0,0,0,0,0,0,-1,1189,1611,0,0
-28,-587,0,0,0,0,0,0,0,0,0,-1,1196,1611,0,0
-21,-587,0,0,0,0,0,0,0,0,0,-1,1203,1611,0,0
-14,-587,0,0,0,0,0,0,0,0,0,-1,1210,1611,0,0
-7,-587,0,0,0,0,0,0,0,0,0,-1,1217,1611,0,0
0,-587,0,0,0,0,0,0,0,0,0,-1,1224,1611,0,0
7,-587,0,0,0,0,0,0,0,0,0,-1,1231,1611,0,0
14,-587,0,0,0,0,0,0,0,0,0,-1,1238,1611,0,0
21,-587,0,0,0,0,0,0,0,0,0,-1,1245,1611,0,0
28,-587,0,0,0,0,0,0,0,0,0,-1,1252,1611,0,0
35,-587,0,0,0,0,0,0,0,0,0,-1,1259,1611,0,0
42,-587,0,0,0,0,0,0,0,0,0,-1,1266,1611,0,0
49,-587,0,0,0,0,0,0,0,0,0,-1,1273,1611,0,0
56,-587,0,0,0,0,0,0,0,0,0,-1,1280,1611,0,0
63,-587,0,0,0,0,0,0,0,0,0,-1,1287,1611,0,0
70,-587,0,0,0,0,0,0,0,0,0,-1,1294,1611,0,0
77,-587,0,0,0,0,0,0,0,0,0,-1,1301,1611,0,0
84,-587,0,0,0,0,0,0,0,0,0,-1,1308,1611,0,0
91,-587,0,0,0,0,0,0,0,0,0,-1,1315,1611,0,0
98,-587,0,0,0,0,0,0,0,0,0,-1,1322,1611,0,0
105,-587,0,0,0,0,0,0,0,0,0,-1,1329,1611,0,0
112,-587,0,0,0,0,0,0,0,0,0,-1,1336,1611,0,0
119,-587,0,0,0,0,0,0,0,0,0,-1,1343,1611,0,0
126,-587,0,0,0,0,0,0,0,0,0,-1,1350,1611,0,0
133,-587,0,0,0,0,0,0,0,0,0,-1,1357,1611,0,0
140,-587,0,0,0,0,0,0,0,0,0,-1,1364,1611,0,0
147,-587,0,0,0,0,0,0,0,0,0,-1,1371,1611,0,0
154,-587,0,0,0,0,0,0,0,0,0,-1,1378,1611,0,0
161,-587,0,0,0,0,0,0,0,0,0,-1,1385,1611,0,0
168,-587,0,0,0,0,0,0,0,0,0,-1,1392,1611,0,0
175,-587,0,0,0,0,0,0,0,0,0,-1,1399,1611,0,0
182,-587,0,0,0,0,0,0,0,0,0,-1,1406,1611,0,0
189,-587,0,0,0,0,0,0,0,0,0,-1,1413,1611,0,0
196,-587,0,0,0,0,0,0,0,0,0,-1,1420,1611,0,0
203,-587,0,0,0,0,0,0,0,0,0,-1,1427,1611,0,0
210,-587,0,0,0,0,0,0,0,0,0,-1,1434,1611,0,0
217,-587,0,0,0,0,0,0,0,0,0,-1,1441,1611,0,0
224,-587,0,0,0,0,0,0,0,0,0,-1,1448,1611,0,0
231,-587,0,0,0,0,0,0,0,0,0,-1,1455,1611,0,0
238,-587,0,0,0,0,0,0,0,0,0,-1,1462,1611,0,0
245,-587,0,0,0,0,0,0,0,0,0,-1,1469,1611,0,0
252,-587,0,0,0,0,0,0,0,0,0,-1,1476,1611,0,0
259,-587,0,0,0,0,0,0,0,0,0,-1,1483,1611,0,0
266,-587,0,0,0,0,0,0,0,0,0,-1,1490,1611,0,0
273,-587,10.2936,6.35083,0,0,0,0,0,0,0,-1,1497,1611,10.2936,-6.35087
280,-587,2.09204,1.1217,0,0,0,0,0,0,0,-1,1504,1611,2.092,-1.12176
287,-587,3.2865,0.671509,0,0,0,0,0,0,0,-1,1511,1611,3.28656,-0.671538
294,-587,4.24646,1.58765,0,0,0,0,0,0,0,-1,1518,1611,4.24648,-1.58761
301,-587,7.60474,8.37085,0,0,0,0,0,0,0,-1,1525,1611,7.60478,-8.37084
308,-587,5.99316,10.2291,0,0,0,0,0,0,0,-1,1532,1611,5.99315,-10.2291
315,-587,4.34558,12.3289,0,0,0,0,0,0,0,-1,1539,1611,4.34556,-12.3288
322,-587,10.4526,6.38245,0,0,0,0,0,0,0,-1,1546,1611,10.4526,-6.38245
329,-587,10.7738,8.42444,0,0,0,0,0,0,0,-1,1553,1611,10.7738,-8.42438
336,-587,7.5531,5.96619,0,0,0,0,0,0,0,-1,1560,1611,7.55311,-5.96617
343,-587,9.57495,4.38391,0,0,0,0,0,0,0,-1,1567,1611,9.57494,-4.38397
350,-587,9.50378,3.45093,0,0,0,0,0,0,0,-1,1574,1611,9.50376,-3.4509
357,-587,9.40027,2.50806,0,0,0,0,0,0,0,-1,1581,1611,9.40022,-2.50803
364,-587,9.26477,1.34131,0,0,0,0,0,0,0,-1,1588,1611,9.26479,-1.34126
371,-587,6.98926,7.87561,0,0,0,0,0,0,0,-1,1595,1611,6.98928,-7.87564
378,-587,9.25146,13.8358,0,0,0,0,0,0,0,-1,1602,1611,9.2515,-13.8359
385,-587,11.6848,24.6086,0,0,0,0,0,0,0,-1,1609,1611,11.6848,-24.6087
392,-587,12.0034,25.6576,0,0,0,0,0,0,0,-1,1616,1611,12.0034,-25.6576
399,-587,12.3076,24.9918,0,0,0,0,0,0,0,-1,1623,1611,12.3076,-24.9919
406,-587,12.4595,24.2865,-0.000105758,0.00981402,0.00667647,0.0131713,-0.00346307,1.10487,0.0101344,0.0453661,1630,1611,12.4594,-24.2865
413,-587,12.2953,24.1221,-0.0023003,0.00698845,0.0078943,0.0115032,-0.00681508,1.05129,0.0106909,0.036327,1637,1611,12.2953,-24.122
420,-587,12.1742,23.9597,-0.00325846,0.00546501,0.00776605,0.0100104,-0.00780381,1.04127,0.0103113,0.0310264,1644,1611,12.1741,-23.9597
427,-587,12.1788,23.6697,-0.00382898,0.00435984,0.00725889,0.00859944,-0.00806857,1.04218,0.0096249,0.0240115,1651,1611,12.1788,-23.6697
434,-587,12.0966,23.2397,-0.00409087,0.00361066,0.00638342,0.00721485,-0.00769506,1.0568,0.00860973,0.0160935,1658,1611,12.0965,-23.2398
441,-587,12.087,22.8477,-0.00357035,0.00307796,0.00510746,0.00584775,-0.00634014,1.07388,0.0070386,0.0186614,1665,1611,12.087,-22.8476
448,-587,12.1075,22.5714,-0.00286613,0.00262182,0.00396089,0.00469635,-0.00494067,1.08833,0.00556453,0.0156171,1672,1611,12.1076,-22.5714
455,-587,12.1278,22.2517,-0.00191061,0.00243386,0.00256595,0.00362358,-0.00310033,1.13665,0.00388596,0.0139235,1679,1611,12.1279,-22.2517
462,-587,12.1046,21.8939,-0.000808832,0.0025064,0.00115787,0.00287075,-0.00117318,1.26593,0.00240236,0.0179953,1686,1611,12.1046,-21.8939
469,-587,12.0985,21.556,0.000196596,0.00226186,3.09945e-05,0.00226232,0.000196131,1.55579,0.00144727,0.0171479,1693,1611,12.0985,-21.556
476,-587,12.1089,21.2019,0.00100898,0.00205655,-0.00104072,0.00269786,0.000367671,-1.01854,0.00168941,0.0107099,1700,1611,12.1089,-21.2019
483,-587,12.0886,20.8271,0.00179739,0.00178538,-0.00176805,0.00355944,2.33293e-05,-0.783701,0.00236522,0.0129629,1707,1611,12.0886,-20.8272
490,-587,12.0607,20.4572,0.0023533,0.00145497,-0.0020891,0.00404098,-0.000232713,-0.679509,0.00277481,0.0160854,1714,1611,12.0607,-20.4572
497,-587,12.0364,20.109,0.0025807,0.00124596,-0.00236371,0.00436945,-0.000542786,-0.64781,0.00310973,0.0129337,1721,1611,12.0363,-20.1091
504,-587,12.0332,19.7642,0.00234217,0.000945843,-0.00209928,0.00385634,-0.000568327,-0.624866,0.00277977,0.0121745,1728,1611,12.0332,-19.7642
511,-587,12.0188,19.3907,0.00194531,0.000306561,-0.00164241,0.00296139,-0.000709519,-0.554021,0.0022484,0.0140265,1735,1611,12.0188,-19.3908
518,-587,12.0348,19.0209,0.00142051,-0.000141974,-0.0010796,0.00197189,-0.000693351,-0.47219,0.0015967,0.0138823,1742,1611,12.0348,-19.0209
525,-587,12.0297,18.675,0.000717393,-0.00077723,-0.000205484,0.000745129,-0.000804966,-0.134166,0.00089517,0.0159814,1749,1611,12.0297,-18.675
532,-587,12.057,18.3362,-0.000458389,-0.00185885,0.0012491,0.000273359,-0.0025906,0.529929,0.00182502,0.0274447,1756,1611,12.057,-18.3361
539,-587,12.1072,17.9631,0,0,0,0,0,0,0,-1,1763,1611,12.1072,-17.9632
546,-587,11.8756,16.158,0,0,0,0,0,0,0,-1,1770,1611,11.8756,-16.1579
553,-587,7.5813,8.45068,0,0,0,0,0,0,0,-1,1777,1611,7.58125,-8.45068
560,-587,4.21179,5.23547,0,0,0,0,0,0,0,-1,1784,1611,4.21185,-5.23553
567,-587,4.03711,5.46387,0,0,0,0,0,0,0,-1,1791,1611,4.03715,-5.46382
574,-587,3.83142,5.68884,0,0,0,0,0,0,0,-1,1798,1611,3.83141,-5.68881
581,-587,3.47168,6.00977,0,0,0,0,0,0,0,-1,1805,1611,3.47167,-6.00983
588,-587,0,0,0,0,0,0,0,0,0,-1,1812,1611,0,0
595,-587,0,0,0,0,0,0,0,0,0,-1,1819,1611,0,0
602,-587,0,0,0,0,0,0,0,0,0,-1,1826,1611,0,0
609,-587,0,0,0,0,0,0,0,0,0,-1,1833,1611,0,0
616,-587,0,0,0,0,0,0,0,0,0,-1,1840,1611,0,0
623,-587,0,0,0,0,0,0,0,0,0,-1,1847,1611,0,0
630,-587,0,0,0,0,0,0,0,0,0,-1,1854,1611,0,0
637,-587,0,0,0,0,0,0,0,0,0,-1,1861,1611,0,0
644,-587,0,0,0,0,0,0,0,0,0,-1,1868,1611,0,0
651,-587,0,0,0,0,0,0,0,0,0,-1,1875,1611,0,0
658,-587,0,0,0,0,0,0,0,0,0,-1,1882,1611,0,0
665,-587,0,0,0,0,0,0,0,0,0,-1,1889,1611,0,0
672,-587,0,0,0,0,0,0,0,0,0,-1,1896,1611,0,0
679,-587,0,0,0,0,0,0,0,0,0,-1,1903,1611,0,0
686,-587,0,0,0,0,0,0,0,0,0,-1,1910,1611,0,0
693,-587,0,0,0,0,0,0,0,0,0,-1,1917,1611,0,0
700,-587,0,0,0,0,0,0,0,0,0,-1,1924,1611,0,0
707,-587,0,0,0,0,0,0,0,0,0,-1,1931,1611,0,0
714,-587,0,0,0,0,0,0,0,0,0,-1,1938,1611,0,0
721,-587,0,0,0,0,0,0,0,0,0,-1,1945,1611,0,0
728,-587,0,0,0,0,0,0,0,0,0,-1,1952,1611,0,0
735,-587,0,0,0,0,0,0,0,0,0,-1,1959,1611,0,0
742,-587,0,0,0,0,0,0,0,0,0,-1,1966,1611,0,0
749,-587,0,0,0,0,0,0,0,0,0,-1,1973,1611,0,0
756,-587,0,0,0,0,0,0,0,0,0,-1,1980,1611,0,0
763,-587,0,0,0,0,0,0,0,0,0,-1,1987,1611,0,0
770,-587,0,0,0,0,0,0,0,0,0,-1,1994,1611,0,0
777,-587,0,0,0,0,0,0,0,0,0,-1,2001,1611,0,0
784,-587,0,0,0,0,0,0,0,0,0,-1,2008,1611,0,0
791,-587,0,0,0,0,0,0,0,0,0,-1,2015,1611,0,0
798,-587,0,0,0,0,0,0,0,0,0,-1,2022,1611,0,0
805,-587,0,0,0,0,0,0,0,0,0,-1,2029,1611,0,0
812,-587,0,0,0,0,0,0,0,0,0,-1,2036,1611,0,0
-700,-594,0,0,0,0,0,0,0,0,0,-1,524,1618,0,0
-693,-594,0,0,0,0,0,0,0,0,0,-1,531,1618,0,0
-686,-594,0,0,0,0,0,0,0,0,0,-1,538,1618,0,0
-679,-594,0,0,0,0,0,0,0,0,0,-1,545,1618,0,0
-672,-594,0,0,0,0,0,0,0,0,0,-1,552,1618,0,0
-665,-594,0,0,0,0,0,0,0,0,0,-1,559,1618,0,0
-658,-594,0,0,0,0,0,0,0,0,0,-1,566,1618,0,0
-651,-594,0,0,0,0,0,0,0,0,0,-1,573,1618,0,0
-644,-594,0,0,0,0,0,0,0,0,0,-1,580,1618,0,0
-637,-594,0,0,0,0,0,0,0,0,0,-1,587,1618,0,0
-630,-594,0,0,0,0,0,0,0,0,0,-1,594,1618,0,0
-623,-594,0,0,0,0,0,0,0,0,0,-1,601,1618,0,0
-616,-594,0,0,0,0,0,0,0,0,0,-1,608,1618,0,0
-609,-594,0,0,0,0,0,0,0,0,0,-1,615,1618,0,0
-602,-594,0,0,0,0,0,0,0,0,0,-1,622,1618,0,0
-595,-594,0,0,0,0,0,0,0,0,0,-1,629,1618,0,0
-588,-594,0,0,0,0,0,0,0,0,0,-1,636,1618,0,0
-581,-594,0,0,0,0,0,0,0,0,0,-1,643,1618,0,0
-574,-594,0,0,0,0,0,0,0,0,0,-1,650,1618,0,0
-567,-594,0,0,0,0,0,0,0,0,0,-1,657,1618,0,0
-560,-594,0,0,0,0,0,0,0,0,0,-1,664,1618,0,0
-553,-594,0,0,0,0,0,0,0,0,0,-1,671,1618,0,0
-546,-594,0,0,0,0,0,0,0,0,0,-1,678,1618,0,0
-539,-594,0,0,0,0,0,0,0,0,0,-1,685,1618,0,0
-532,-594,0,0,0,0,0,0,0,0,0,-1,692,1618,0,0
-525,-594,0,0,0,0,0,0,0,0,0,-1,699,1618,0,0
-518,-594,0,0,0,0,0,0,0,0,0,-1,706,1618,0,0
-511,-594,0,0,0,0,0,0,0,0,0,-1,713,1618,0,0
-504,-594,0,0,0,0,0,0,0,0,0,-1,720,1618,0,0
-497,-594,0,0,0,0,0,0,0,0,0,-1,727,1618,0,0
-490,-594,0,0,0,0,0,0,0,0,0,-1,734,1618,0,0
-483,-594,0,0,0,0,0,0,0,0,0,-1,741,1618,0,0
-476,-594,0,0,0,0,0,0,0,0,0,-1,748,1618,0,0
-469,-594,0,0,0,0,0,0,0,0,0,-1,755,1618,0,0
-462,-594,0,0,0,0,0,0,0,0,0,-1,762,1618,0,0
-455,-594,-0.509216,-1.58411,0,0,0,0,0,0,0,-1,769,1618,-0.509245,1.58415
-448,-594,-7.71887,-0.0559082,0,0,0,0,0,0,0,-1,776,1618,-7.71885,0.055939
-441,-594,-5.78473,1.18298,0,0,0,0,0,0,0,-1,783,1618,-5.78474,-1.18295
-434,-594,-3.93628,3.06213,0,0,0,0,0,0,0,-1,790,1618,-3.93631,-3.06208
-427,-594,-3.97693,6.77759,0,0,0,0,0,0,0,-1,797,1618,-3.97695,-6.77764
-420,-594,-2.53046,7.71606,0,0,0,0,0,0,0,-1,804,1618,-2.53047,-7.71609
-413,-594,-0.860413,8.00391,0,0,0,0,0,0,0,-1,811,1618,-0.860423,-8.00389
-406,-594,2.48694,13.3077,0,0,0,0,0,0,0,-1,818,1618,2.48691,-13.3077
-399,-594,2.49933,17.0591,0,0,0,0,0,0,0,-1,825,1618,2.49933,-17.059
-392,-594,2.4826,17.2729,-0.00744534,-0.000904046,0.000252563,-0.000894309,-0.00745508,1.53226,0.00470039,0.0475462,832,1618,2.48261,-17.273
-385,-594,2.14716,17.9963,-0.00589624,-0.000690194,4.20292e-05,-0.000689855,-0.00589658,1.56272,0.00372247,0.0301079,839,1618,2.14713,-17.9963
-378,-594,2.02838,18.3062,-0.0044572,-0.000450231,0.000154406,-0.00044429,-0.00446314,1.53234,0.00283894,0.013844,846,1618,2.02837,-18.3062
-371,-594,2.03296,18.7327,-0.00320448,-0.000262073,0.000228854,-0.00024438,-0.00322218,1.49364,0.00207147,0.0113663,853,1618,2.03294,-18.7326
-364,-594,2.02917,19.0991,-0.00217012,-0.0001462,0.000310459,-9.96474e-05,-0.00221668,1.42196,0.00144571,0.0101312,860,1618,2.0292,-19.0992
-357,-594,2.03143,19.4711,-0.00127676,9.6918e-06,0.000369877,0.000108455,-0.00137553,1.30987,0.000955224,0.0110384,867,1618,2.03146,-19.471
-350,-594,2.01282,19.8878,-0.000421202,0.000253007,0.000437947,0.000468566,-0.000636761,1.11341,0.000640619,0.0152175,874,1618,2.01284,-19.8878
-343,-594,1.99335,20.2896,0.000388158,0.00053858,0.000587371,0.00105554,-0.000128798,0.849075,0.000750317,0.0166759,881,1618,1.99337,-20.2895
-336,-594,1.97729,20.6298,0.00122944,0.000761721,0.000670877,0.00170605,0.000285111,0.61769,0.00105525,0.0149174,888,1618,1.97729,-20.6298
-329,-594,1.9754,20.9999,0.00190687,0.00128206,0.000766979,0.00242263,0.000766301,0.591996,0.00142982,0.0141289,895,1618,1.97541,-20.9999
-322,-594,2.00391,21.3918,0.00248439,0.00174091,0.000959079,0.00314125,0.00108404,0.600512,0.00184238,0.0154145,902,1618,2.00391,-21.3919
-315,-594,2.01324,21.7385,0.00303956,0.00222715,0.00111004,0.00381538,0.00145133,0.609998,0.00222372,0.0160712,909,1618,2.01322,-21.7386
-308,-594,2.01031,22.0957,0.00353506,0.00256659,0.00121233,0.00435628,0.00174536,0.595394,0.0025316,0.0146482,916,1618,2.01031,-22.0957
-301,-594,1.99603,22.4481,0.00395676,0.0026702,0.00115671,0.00463703,0.00198993,0.531629,0.00268614,0.0110763,923,1618,1.996,-22.4481
-294,-594,2.01617,22.7853,0.00456495,0.00290537,0.00132839,0.00530142,0.0021689,0.50622,0.00307758,0.0127203,930,1618,2.0162,-22.7853
-287,-594,1.97845,23.1256,0.00513692,0.00306266,0.001438,0.00587277,0.00232681,0.472981,0.00341491,0.0219801,937,1618,1.97844,-23.1256
-280,-594,2.05914,23.53,0.00580443,0.00320751,0.00155132,0.00652899,0.00248295,0.436947,0.00380535,0.0276183,944,1618,2.05917,-23.53
-273,-594,2.03326,23.9507,0.00637685,0.00318042,0.00153835,0.00699692,0.00256035,0.383157,0.0040878,0.0361237,951,1618,2.03324,-23.9507
-266,-594,2.00293,24.3473,0.00693929,0.00284969,0.00142736,0.0073882,0.00240078,0.304706,0.00435185,0.0444462,958,1618,2.00296,-24.3473
-259,-594,2.0025,24.662,0,0,0,0,0,0,0,-1,965,1618,2.00252,-24.662
-252,-594,2.01227,24.45,0,0,0,0,0,0,0,-1,972,1618,2.01226,-24.4499
-245,-594,2.75012,24.1007,0,0,0,0,0,0,0,-1,979,1618,2.75011,-24.1008
-238,-594,2.24548,25.8239,0,0,0,0,0,0,0,-1,986,1618,2.24551,-25.8239
-231,-594,1.93774,9.35388,0,0,0,0,0,0,0,-1,993,1618,1.93776,-9.35393
-224,-594,1.81824,8.62744,0,0,0,0,0,0,0,-1,1000,1618,1.81822,-8.62745
-217,-594,-8.24066,12.0752,0,0,0,0,0,0,0,-1,1007,1618,-8.24068,-12.0751
-210,-594,-5.61438,14.2119,0,0,0,0,0,0,0,-1,1014,1618,-5.6144,-14.212
-203,-594,-3.94507,15.5768,0,0,0,0,0,0,0,-1,1021,1618,-3.94506,-15.5768
-196,-594,2.78613,10.5815,0,0,0,0,0,0,0,-1,1028,1618,2.78612,-10.5815
-189,-594,2.60913,9.48865,0,0,0,0,0,0,0,-1,1035,1618,2.6091,-9.48871
-182,-594,1.2395,9.38806,0,0,0,0,0,0,0,-1,1042,1618,1.23951,-9.38804
-175,-594,0.234863,8.73792,0,0,0,0,0,0,0,-1,1049,1618,0.234812,-8.73786
-168,-594,-0.495483,8.46289,0,0,0,0,0,0,0,-1,1056,1618,-0.495513,-8.46285
-161,-594,-1.39734,8.28699,0,0,0,0,0,0,0,-1,1063,1618,-1.39729,-8.28699
-154,-594,-0.000854492,7.68445,0,0,0,0,0,0,0,-1,1070,1618,-0.000805755,-7.6845
-147,-594,0.348267,9.3385,0,0,0,0,0,0,0,-1,1077,1618,0.348237,-9.33849
-140,-594,0.675171,11.5884,0,0,0,0,0,0,0,-1,1084,1618,0.675204,-11.5884
-133,-594,0,0,0,0,0,0,0,0,0,-1,1091,1618,0,0
-126,-594,0,0,0,0,0,0,0,0,0,-1,1098,1618,0,0
-119,-594,0,0,0,0,0,0,0,0,0,-1,1105,1618,0,0
-112,-594,0,0,0,0,0,0,0,0,0,-1,1112,1618,0,0
-105,-594,0,0,0,0,0,0,0,0,0,-1,1119,1618,0,0
-98,-594,0,0,0,0,0,0,0,0,0,-1,1126,1618,0,0
-91,-594,0,0,0,0,0,0,0,0,0,-1,1133,1618,0,0
-84,-594,0,0,0,0,0,0,0,0,0,-1,1140,1618,0,0
-77,-594,0,0,0,0,0,0,0,0,0,-1,1147,1618,0,0
-70,-594,0,0,0,0,0,0,0,0,0,-1,1154,1618,0,0
-63,-594,0,0,0,0,0,0,0,0,0,-1,1161,1618,0,0
-56,-594,0,0,0,0,0,0,0,0,0,-1,1168,1618,0,0
-49,-594,0,0,0,0,0,0,0,0,0,-1,1175,1618,0,0
-42,-594,0,0,0,0,0,0,0,0,0,-1,1182,1618,0,0
-35,-594,0,0,0,0,0,0,0,0,0,-1,1189,1618,0,0
-28,-594,0,0,0,0,0,0,0,0,0,-1,1196,1618,0,0
-21,-594,0,0,0,0,0,0,0,0,0,-1,1203,1618,0,0
-14,-594,0,0,0,0,0,0,0,0,0,-1,1210,1618,0,0
-7,-594,0,0,0,0,0,0,0,0,0,-1,1217,1618,0,0
0,-594,0,0,0,0,0,0,0,0,0,-1,1224,1618,0,0
7,-594,0,0,0,0,0,0,0,0,0,-1,1231,1618,0,0
14,-594,0,0,0,0,0,0,0,0,0,-1,1238,1618,0,0
21,-594,0,0,0,0,0,0,0,0,0,-1,1245,1618,0,0
28,-594,0,0,0,0,0,0,0,0,0,-1,1252,1618,0,0
35,-594,0,0,0,0,0,0,0,0,0,-1,1259,1618,0,0
42,-594,0,0,0,0,0,0,0,0,0,-1,1266,1618,0,0
49,-594,0,0,0,0,0,0,0,0,0,-1,1273,1618,0,0
56,-594,0,0,0,0,0,0,0,0,0,-1,1280,1618,0,0
63,-594,0,0,0,0,0,0,0,0,0,-1,1287,1618,0,0
70,-594,0,0,0,0,0,0,0,0,0,-1,1294,1618,0,0
77,-594,0,0,0,0,0,0,0,0,0,-1,1301,1618,0,0
84,-594,0,0,0,0,0,0,0,0,0,-1,1308,1618,0,0
91,-594,0,0,0,0,0,0,0,0,0,-1,1315,1618,0,0
98,-594,0,0,0,0,0,0,0,0,0,-1,1322,1618,0,0
105,-594,0,0,0,0,0,0,0,0,0,-1,1329,1618,0,0
112,-594,0,0,0,0,0,0,0,0,0,-1,1336,1618,0,0
119,-594,0,0,0,0,0,0,0,0,0,-1,1343,1618,0,0
126,-594,0,0,0,0,0,0,0,0,0,-1,1350,1618,0,0
133,-594,0,0,0,0,0,0,0,0,0,-1,1357,1618,0,0
140,-594,0,0,0,0,0,0,0,0,0,-1,1364,1618,0,0
147,-594,0,0,0,0,0,0,0,0,0,-1,1371,1618,0,0
154,-594,0,0,0,0,0,0,0,0,0,-1,1378,1618,0,0
161,-594,0,0,0,0,0,0,0,0,0,-1,1385,1618,0,0
168,-594,0,0,0,0,0,0,0,0,0,-1,1392,1618,0,0
175,-594,0,0,0,0,0,0,0,0,0,-1,1399,1618,0,0
182,-594,0,0,0,0,0,0,0,0,0,-1,1406,1618,0,0
189,-594,0,0,0,0,0,0,0,0,0,-1,1413,1618,0,0
196,-594,0,0,0,0,0,0,0,0,0,-1,1420,1618,0,0
203,-594,0,0,0,0,0,0,0,0,0,-1,1427,1618,0,0
210,-594,0,0,0,0,0,0,0,0,0,-1,1434,1618,0,0
217,-594,0,0,0,0,0,0,0,0,0,-1,1441,1618,0,0
224,-594,0,0,0,0,0,0,0,0,0,-1,1448,1618,0,0
231,-594,0,0,0,0,0,0,0,0,0,-1,1455,1618,0,0
238,-594,0,0,0,0,0,0,0,0,0,-1,1462,1618,0,0
245,-594,0,0,0,0,0,0,0,0,0,-1,1469,1618,0,0
252,-594,3.03674,1.20996,0,0,0,0,0,0,0,-1,1476,1618,3.0368,-1.20999
259,-594,4.79834,1.53113,0,0,0,0,0,0,0,-1,1483,1618,4.79837,-1.53118
266,-594,3.71606,2.68152,0,0,0,0,0,0,0,-1,1490,1618,3.71609,-2.68149
273,-594,9.7655,6.33557,0,0,0,0,0,0,0,-1,1497,1618,9.76555,-6.33554
280,-594,3.13281,0.911255,0,0,0,0,0,0,0,-1,1504,1618,3.13277,-0.911207
287,-594,4.42749,1.51563,0,0,0,0,0,0,0,-1,1511,1618,4.42747,-1.51564
294,-594,5.36475,3.34937,0,0,0,0,0,0,0,-1,1518,1618,5.36475,-3.3494
301,-594,7.97144,9.04333,0,0,0,0,0,0,0,-1,1525,1618,7.9714,-9.04328
308,-594,6.30347,10.4633,0,0,0,0,0,0,0,-1,1532,1618,6.30351,-10.4633
315,-594,4.62012,11.934,0,0,0,0,0,0,0,-1,1539,1618,4.62006,-11.934
322,-594,2.91528,13.3134,0,0,0,0,0,0,0,-1,1546,1618,2.91523,-13.3133
329,-594,4.19861,9.77258,0,0,0,0,0,0,0,-1,1553,1618,4.19865,-9.77264
336,-594,10.1353,4.66528,0,0,0,0,0,0,0,-1,1560,1618,10.1353,-4.66533
343,-594,10.5729,3.71228,0,0,0,0,0,0,0,-1,1567,1618,10.5729,-3.71232
350,-594,10.219,2.98792,0,0,0,0,0,0,0,-1,1574,1618,10.219,-2.98797
357,-594,9.83154,1.96326,0,0,0,0,0,0,0,-1,1581,1618,9.8315,-1.96321
364,-594,9.74939,0.700562,0,0,0,0,0,0,0,-1,1588,1618,9.74939,-0.700615
371,-594,8.54297,14.3988,0,0,0,0,0,0,0,-1,1595,1618,8.54296,-14.3989
378,-594,8.9137,16.3073,0,0,0,0,0,0,0,-1,1602,1618,8.91369,-16.3072
385,-594,11.3584,26.4437,0,0,0,0,0,0,0,-1,1609,1618,11.3584,-26.4437
392,-594,11.6093,25.771,0.00817295,0.0192757,-0.00264311,0.0198728,0.00757585,-1.34862,0.011581,0.0494941,1616,1618,11.6092,-25.7709
399,-594,11.8381,25.0741,0.00450144,0.0137917,0.00100338,0.0138989,0.00439431,1.46443,0.00820331,0.0412267,1623,1618,11.8381,-25.0741
406,-594,11.8344,24.5959,0.00164552,0.00988526,0.00328371,0.0110338,0.000496991,1.23433,0.00719592,0.0271886,1630,1618,11.8344,-24.5959
413,-594,11.7723,24.2635,-0.000335766,0.00697262,0.0046418,0.009226,-0.00258915,1.11885,0.00717125,0.0197425,1637,1618,11.7723,-24.2636
420,-594,11.767,23.903,-0.00139907,0.00524588,0.00494719,0.00788273,-0.00403592,1.0811,0.00699969,0.0157638,1644,1618,11.7669,-23.903
427,-594,11.7621,23.6052,-0.00213372,0.00392744,0.00492911,0.0066831,-0.00488938,1.06103,0.00670807,0.0123376,1651,1618,11.7621,-23.6052
434,-594,11.743,23.2811,-0.00249301,0.00302532,0.00445129,0.00550323,-0.00497092,1.06285,0.00604986,0.0168422,1658,1618,11.743,-23.2811
441,-594,11.7404,22.9158,-0.00213166,0.00251282,0.00351306,0.00440181,-0.00402065,1.07744,0.00486436,0.0157592,1665,1618,11.7403,-22.9158
448,-594,11.7881,22.5748,-0.00160608,0.00196834,0.00269919,0.00341837,-0.00305611,1.07783,0.00374,0.0168643,1672,1618,11.7881,-22.5748
455,-594,11.7643,22.2338,-0.000793527,0.00170393,0.00161584,0.00249732,-0.00158692,1.11437,0.00237748,0.0122086,1679,1618,11.7642,-22.2338
462,-594,11.7522,21.9026,0.000198864,0.00165267,0.000486575,0.0018005,5.10429e-05,1.27586,0.00118368,0.0127958,1686,1618,11.7522,-21.9026
469,-594,11.74,21.5771,0.00119687,0.00135993,-0.000479873,0.00176515,0.000791651,-0.869546,0.00102091,0.0121176,1693,1618,11.7399,-21.5772
476,-594,11.7411,21.2288,0.00208152,0.00112394,-0.00140751,0.00308944,0.000116008,-0.621454,0.00202207,0.01294,1700,1618,11.741,-21.2288
483,-594,11.7429,20.8654,0.00297298,0.00101046,-0.00212766,0.00433476,-0.00035132,-0.569337,0.00301378,0.0156283,1707,1618,11.743,-20.8654
490,-594,11.7241,20.4812,0.00365959,0.000788891,-0.00253427,0.00513676,-0.000688279,-0.527734,0.00367548,0.0134257,1714,1618,11.7241,-20.4812
497,-594,11.7002,20.1206,0.00404452,0.000745218,-0.00290168,0.00573269,-0.000942958,-0.526924,0.00417179,0.0100308,1721,1618,11.7002,-20.1206
504,-594,11.6978,19.7596,0.00393621,0.000564227,-0.0027314,0.00546007,-0.000959632,-0.508891,0.00399849,0.0102357,1728,1618,11.6978,-19.7596
511,-594,11.7009,19.3756,0.00367861,0.000181258,-0.00245291,0.00494235,-0.00108248,-0.475734,0.00370876,0.0135323,1735,1618,11.7009,-19.3757
518,-594,11.6874,19.0055,0.00327797,9.24994e-05,-0.00210171,0.00432228,-0.000951807,-0.461152,0.00324565,0.0186303,1742,1618,11.6874,-19.0055
525,-594,11.676,18.5991,0.0026792,-9.37525e-05,-0.00144552,0.00329568,-0.000710232,-0.403121,0.00246816,0.0305341,1749,1618,11.676,-18.5991
532,-594,11.8571,17.9054,0.00125679,-0.000709123,-9.19445e-05,0.00126108,-0.000713414,-0.0466337,0.0011545,0.047226,1756,1618,11.857,-17.9054
539,-594,12.0048,17.4288,0,0,0,0,0,0,0,-1,1763,1618,12.0047,-17.4288
546,-594,7.48645,8.54785,0,0,0,0,0,0,0,-1,1770,1618,7.48639,-8.54789
553,-594,3.69714,5.68762,0,0,0,0,0,0,0,-1,1777,1618,3.69715,-5.68764
560,-594,6.06616,4.44482,0,0,0,0,0,0,0,-1,1784,1618,6.06621,-4.44477
567,-594,5.97266,4.73303,0,0,0,0,0,0,0,-1,1791,1618,5.97271,-4.73309
574,-594,5.9906,4.96326,0,0,0,0,0,0,0,-1,1798,1618,5.99065,-4.96326
581,-594,0,0,0,0,0,0,0,0,0,-1,1805,1618,0,0
588,-594,0,0,0,0,0,0,0,0,0,-1,1812,1618,0,0
595,-594,0,0,0,0,0,0,0,0,0,-1,1819,1618,0,0
602,-594,0,0,0,0,0,0,0,0,0,-1,1826,1618,0,0
609,-594,0,0,0,0,0,0,0,0,0,-1,1833,1618,0,0
616,-594,0,0,0,0,0,0,0,0,0,-1,1840,1618,0,0
623,-594,0,0,0,0,0,0,0,0,0,-1,1847,1618,0,0
630,-594,0,0,0,0,0,0,0,0,0,-1,1854,1618,0,0
637,-594,0,0,0,0,0,0,0,0,0,-1,1861,1618,0,0
644,-594,0,0,0,0,0,0,0,0,0,-1,1868,1618,0,0
651,-594,0,0,0,0,0,0,0,0,0,-1,1875,1618,0,0
658,-594,0,0,0,0,0,0,0,0,0,-1,1882,1618,0,0
665,-594,0,0,0,0,0,0,0,0,0,-1,1889,1618,0,0
672,-594,0,0,0,0,0,0,0,0,0,-1,1896,1618,0,0
679,-594,0,0,0,0,0,0,0,0,0,-1,1903,1618,0,0
686,-594,0,0,0,0,0,0,0,0,0,-1,1910,1618,0,0
693,-594,0,0,0,0,0,0,0,0,0,-1,1917,1618,0,0
700,-594,0,0,0,0,0,0,0,0,0,-1,1924,1618,0,0
707,-594,0,0,0,0,0,0,0,0,0,-1,1931,1618,0,0
714,-594,0,0,0,0,0,0,0,0,0,-1,1938,1618,0,0
721,-594,0,0,0,0,0,0,0,0,0,-1,1945,1618,0,0
728,-594,0,0,0,0,0,0,0,0,0,-1,1952,1618,0,0
735,-594,0,0,0,0,0,0,0,0,0,-1,1959,1618,0,0
742,-594,0,0,0,0,0,0,0,0,0,-1,1966,1618,0,0
749,-594,0,0,0,0,0,0,0,0,0,-1,1973,1618,0,0
756,-594,0,0,0,0,0,0,0,0,0,-1,1980,1618,0,0
763,-594,0,0,0,0,0,0,0,0,0,-1,1987,1618,0,0
770,-594,0,0,0,0,0,0,0,0,0,-1,1994,1618,0,0
777,-594,0,0,0,0,0,0,0,0,0,-1,2001,1618,0,0
784,-594,0,0,0,0,0,0,0,0,0,-1,2008,1618,0,0
791,-594,0,0,0,0,0,0,0,0,0,-1,2015,1618,0,0
798,-594,0,0,0,0,0,0,0,0,0,-1,2022,1618,0,0
805,-594,0,0,0,0,0,0,0,0,0,-1,2029,1618,0,0
812,-594,0,0,0,0,0,0,0,0,0,-1,2036,1618,0,0
-700,-601,0,0,0,0,0,0,0,0,0,-1,524,1625,0,0
-693,-601,0,0,0,0,0,0,0,0,0,-1,531,1625,0,0
-686,-601,0,0,0,0,0,0,0,0,0,-1,538,1625,0,0
-679,-601,0,0,0,0,0,0,0,0,0,-1,545,1625,0,0
-672,-601,0,0,0,0,0,0,0,0,0,-1,552,1625,0,0
-665,-601,0,0,0,0,0,0,0,0,0,-1,559,1625,0,0
-658,-601,0,0,0,0,0,0,0,0,0,-1,566,1625,0,0
-651,-601,0,0,0,0,0,0,0,0,0,-1,573,1625,0,0
-644,-601,0,0,0,0,0,0,0,0,0,-1,580,1625,0,0
-637,-601,0,0,0,0,0,0,0,0,0,-1,587,1625,0,0
-630,-601,0,0,0,0,0,0,0,0,0,-1,594,1625,0,0
-623,-601,0,0,0,0,0,0,0,0,0,-1,601,1625,0,0
-616,-601,0,0,0,0,0,0,0,0,0,-1,608,1625,0,0
-609,-601,0,0,0,0,0,0,0,0,0,-1,615,1625,0,0
-602,-601,0,0,0,0,0,0,0,0,0,-1,622,1625,0,0
-595,-601,0,0,0,0,0,0,0,0,0,-1,629,1625,0,0
-588,-601,0,0,0,0,0,0,0,0,0,-1,636,1625,0,0
-581,-601,0,0,0,0,0,0,0,0,0,-1,643,1625,0,0
-574,-601,0,0,0,0,0,0,0,0,0,-1,650,1625,0,0
-567,-601,0,0,0,0,0,0,0,0,0,-1,657,1625,0,0
-560,-601,0,0,0,0,0,0,0,0,0,-1,664,1625,0,0
-553,-601,0,0,0,0,0,0,0,0,0,-1,671,1625,0,0
-546,-601,0,0,0,0,0,0,0,0,0,-1,678,1625,0,0
-539,-601,0,0,0,0,0,0,0,0,0,-1,685,1625,0,0
-532,-601,0,0,0,0,0,0,0,0,0,-1,692,1625,0,0
-525,-601,0,0,0,0,0,0,0,0,0,-1,699,1625,0,0
-518,-601,0,0,0,0,0,0,0,0,0,-1,706,1625,0,0
-511,-601,0,0,0,0,0,0,0,0,0,-1,713,1625,0,0
-504,-601,0,0,0,0,0,0,0,0,0,-1,720,1625,0,0
-497,-601,0,0,0,0,0,0,0,0,0,-1,727,1625,0,0
-490,-601,0,0,0,0,0,0,0,0,0,-1,734,1625,0,0
-483,-601,0,0,0,0,0,0,0,0,0,-1,741,1625,0,0
-476,-601,0,0,0,0,0,0,0,0,0,-1,748,1625,0,0
-469,-601,0,0,0,0,0,0,0,0,0,-1,755,1625,0,0
-462,-601,0,0,0,0,0,0,0,0,0,-1,762,1625,0,0
-455,-601,0,0,0,0,0,0,0,0,0,-1,769,1625,0,0
-448,-601,-7.07623,2.7616,0,0,0,0,0,0,0,-1,776,1625,-7.07626,-2.76161
-441,-601,-6.06689,3.33447,0,0,0,0,0,0,0,-1,783,1625,-6.06691,-3.33448
-434,-601,-5.02655,3.8468,0,0,0,0,0,0,0,-1,790,1625,-5.02657,-3.84674
-427,-601,-5.78601,4.2406,0,0,0,0,0,0,0,-1,797,1625,-5.786,-4.24058
-420,-601,-5.5191,5.60364,0,0,0,0,0,0,0,-1,804,1625,-5.51907,-5.60368
-413,-601,-4.30756,5.86047,0,0,0,0,0,0,0,-1,811,1625,-4.30757,-5.86046
-406,-601,-1.67493,7.20422,0,0,0,0,0,0,0,-1,818,1625,-1.67493,-7.20428
-399,-601,1.40094,15.3108,0,0,0,0,0,0,0,-1,825,1625,1.40096,-15.3107
-392,-601,3.14807,17.0565,0,0,0,0,0,0,0,-1,832,1625,3.1481,-17.0565
-385,-601,2.39648,18.157,-0.0072864,-0.000569039,-8.09463e-05,-0.000568064,-0.00728738,-1.55875,0.0046804,0.0442738,839,1625,2.39648,-18.157
-378,-601,2.43915,18.4426,-0.0054916,-0.000361313,5.81308e-05,-0.000360654,-0.00549226,1.55947,0.0035474,0.035488,846,1625,2.43912,-18.4426
-371,-601,2.39838,18.7175,-0.00403452,-0.000230171,0.000135614,-0.000225343,-0.00403935,1.53521,0.00262102,0.0188915,853,1625,2.39841,-18.7175
-364,-601,2.40033,19.0984,-0.00288515,-0.000204469,0.000227122,-0.000185362,-0.00290426,1.48687,0.00187744,0.0111784,860,1625,2.40035,-19.0984
-357,-601,2.38483,19.4935,-0.00195163,-0.000229632,0.000270468,-0.00018815,-0.00199311,1.41861,0.00127068,0.0104536,867,1625,2.38484,-19.4935
-350,-601,2.40625,19.9299,-0.00106565,-7.70341e-05,0.000335446,2.60392e-05,-0.00116872,1.27268,0.00078797,0.0217148,874,1625,2.40624,-19.9299
-343,-601,2.36902,20.3523,-0.000274852,0.000149698,0.000481886,0.000463992,-0.000589146,0.992864,0.000609459,0.0237755,881,1625,2.36901,-20.3523
-336,-601,2.32703,20.7012,0.000562467,0.000279653,0.000545655,0.00098474,-0.00014262,0.658612,0.000708832,0.0199521,888,1625,2.32701,-20.7012
-329,-601,2.33228,21.0419,0.00118475,0.00077186,0.000598885,0.00161178,0.000344838,0.619417,0.000980008,0.0156884,895,1625,2.33225,-21.0419
-322,-601,2.34943,21.3953,0.00168535,0.00116872,0.000760531,0.00223024,0.000623832,0.621684,0.00132863,0.0117213,902,1625,2.34941,-21.3952
-315,-601,2.35443,21.7422,0.00215903,0.00155391,0.000878946,0.00278603,0.000926908,0.619637,0.00163826,0.0121203,909,1625,2.35441,-21.7422
-308,-601,2.34985,22.099,0.0025882,0.00180566,0.000952557,0.00322671,0.00116714,0.590526,0.00188654,0.0115805,916,1625,2.34984,-22.099
-301,-601,2.35114,22.4592,0.00295728,0.00189506,0.000885488,0.00345873,0.00139362,0.515264,0.0020094,0.00960198,923,1625,2.35115,-22.4593
-294,-601,2.33496,22.8101,0.00348142,0.00213682,0.00100584,0.00401895,0.00159928,0.490799,0.0023364,0.00995428,930,1625,2.33496,-22.81
-287,-601,2.31708,23.1615,0.00396996,0.00231705,0.00106881,0.00449458,0.00179243,0.456291,0.0026126,0.0108538,937,1625,2.31711,-23.1615
-280,-601,2.34363,23.5378,0.00457937,0.0024255,0.00117731,0.005098,0.00190687,0.414947,0.0029743,0.0144405,944,1625,2.34364,-23.5378
-273,-601,2.34064,23.92,0.00514145,0.00238282,0.00118921,0.00558333,0.00194095,0.355759,0.00327305,0.0158764,951,1625,2.34064,-23.92
-266,-601,2.37848,24.2664,0.00569385,0.00220653,0.00114399,0.00603563,0.00186475,0.290321,0.00356846,0.0193314,958,1625,2.37846,-24.2664
-259,-601,2.41986,24.4579,0.0063366,0.00193146,0.0012261,0.00665487,0.00161319,0.253975,0.00400855,0.0293512,965,1625,2.41985,-24.4579
-252,-601,2.31451,24.6403,0.00705619,0.00110913,0.00119993,0.00728917,0.000876147,0.191776,0.00459532,0.0456246,972,1625,2.3145,-24.6402
-245,-601,2.11096,24.873,0,0,0,0,0,0,0,-1,979,1625,2.11096,-24.8731
-238,-601,2.92462,24.7274,0,0,0,0,0,0,0,-1,986,1625,2.92465,-24.7274
-231,-601,2.66772,13.7051,0,0,0,0,0,0,0,-1,993,1625,2.6677,-13.7051
-224,-601,-0.0305176,9.13684,0,0,0,0,0,0,0,-1,1000,1625,-0.030498,-9.13681
-217,-601,3.39429,10.3898,0,0,0,0,0,0,0,-1,1007,1625,3.39431,-10.3898
-210,-601,-6.53699,15.7931,0,0,0,0,0,0,0,-1,1014,1625,-6.53697,-15.7931
-203,-601,2.69348,15.9099,0,0,0,0,0,0,0,-1,1021,1625,2.69351,-15.91
-196,-601,2.66992,16.1815,0,0,0,0,0,0,0,-1,1028,1625,2.66995,-16.1815
-189,-601,2.849,16.6105,0,0,0,0,0,0,0,-1,1035,1625,2.84902,-16.6104
-182,-601,1.82153,13.9752,0,0,0,0,0,0,0,-1,1042,1625,1.82155,-13.9752
-175,-601,0.544922,9.28687,0,0,0,0,0,0,0,-1,1049,1625,0.544879,-9.28685
-168,-601,-0.247559,8.97461,0,0,0,0,0,0,0,-1,1056,1625,-0.247598,-8.97466
-161,-601,-1.16833,8.80078,0,0,0,0,0,0,0,-1,1063,1625,-1.16837,-8.80081
-154,-601,1.12756,7.94861,0,0,0,0,0,0,0,-1,1070,1625,1.12762,-7.94855
-147,-601,1.35352,9.55432,0,0,0,0,0,0,0,-1,1077,1625,1.35351,-9.55429
-140,-601,1.72437,11.1498,0,0,0,0,0,0,0,-1,1084,1625,1.72432,-11.1498
-133,-601,2.13281,12.8347,0,0,0,0,0,0,0,-1,1091,1625,2.13287,-12.8348
-126,-601,3.09534,15.427,0,0,0,0,0,0,0,-1,1098,1625,3.0953,-15.4271
-119,-601,1.22485,9.43457,0,0,0,0,0,0,0,-1,1105,1625,1.22489,-9.43456
-112,-601,0,0,0,0,0,0,0,0,0,-1,1112,1625,0,0
-105,-601,0,0,0,0,0,0,0,0,0,-1,1119,1625,0,0
-98,-601,0,0,0,0,0,0,0,0,0,-1,1126,1625,0,0
-91,-601,0,0,0,0,0,0,0,0,0,-1,1133,1625,0,0
-84,-601,0,0,0,0,0,0,0,0,0,-1,1140,1625,0,0
-77,-601,0,0,0,0,0,0,0,0,0,-1,1147,1625,0,0
-70,-601,0,0,0,0,0,0,0,0,0,-1,1154,1625,0,0
-63,-601,0,0,0,0,0,0,0,0,0,-1,1161,1625,0,0
-56,-601,0,0,0,0,0,0,0,0,0,-1,1168,1625,0,0
-49,-601,0,0,0,0,0,0,0,0,0,-1,1175,1625,0,0
-42,-601,0,0,0,0,0,0,0,0,0,-1,1182,1625,0,0
-35,-601,0,0,0,0,0,0,0,0,0,-1,1189,1625,0,0
-28,-601,0,0,0,0,0,0,0,0,0,-1,1196,1625,0,0
-21,-601,0,0,0,0,0,0,0,0,0,-1,1203,1625,0,0
-14,-601,0,0,0,0,0,0,0,0,0,-1,1210,1625,0,0
-7,-601,0,0,0,0,0,0,0,0,0,-1,1217,1625,0,0
0,-601,0,0,0,0,0,0,0,0,0,-1,1224,1625,0,0
7,-601,0,0,0,0,0,0,0,0,0,-1,1231,1625,0,0
14,-601,0,0,0,0,0,0,0,0,0,-1,1238,1625,0,0
21,-601,0,0,0,0,0,0,0,0,0,-1,1245,1625,0,0
28,-601,0,0,0,0,0,0,0,0,0,-1,1252,1625,0,0
35,-601,0,0,0,0,0,0,0,0,0,-1,1259,1625,0,0
42,-601,0,0,0,0,0,0,0,0,0,-1,1266,1625,0,0
49,-601,0,0,0,0,0,0,0,0,0,-1,1273,1625,0,0
56,-601,0,0,0,0,0,0,0,0,0,-1,1280,1625,0,0
63,-601,0,0,0,0,0,0,0,0,0,-1,1287,1625,0,0
70,-601,0,0,0,0,0,0,0,0,0,-1,1294,1625,0,0
77,-601,0,0,0,0,0,0,0,0,0,-1,1301,1625,0,0
84,-601,0,0,0,0,0,0,0,0,0,-1,1308,1625,0,0
91,-601,0,0,0,0,0,0,0,0,0,-1,1315,1625,0,0
98,-601,0,0,0,0,0,0,0,0,0,-1,1322,1625,0,0
105,-601,0,0,0,0,0,0,0,0,0,-1,1329,1625,0,0
112,-601,0,0,0,0,0,0,0,0,0,-1,1336,1625,0,0
119,-601,0,0,0,0,0,0,0,0,0,-1,1343,1625,0,0
126,-601,0,0,0,0,0,0,0,0,0,-1,1350,1625,0,0
133,-601,0,0,0,0,0,0,0,0,0,-1,1357,1625,0,0
140,-601,0,0,0,0,0,0,0,0,0,-1,1364,1625,0,0
147,-601,0,0,0,0,0,0,0,0,0,-1,1371,1625,0,0
154,-601,0,0,0,0,0,0,0,0,0,-1,1378,1625,0,0
161,-601,0,0,0,0,0,0,0,0,0,-1,1385,1625,0,0
168,-601,0,0,0,0,0,0,0,0,0,-1,1392,1625,0,0
175,-601,0,0,0,0,0,0,0,0,0,-1,1399,1625,0,0
182,-601,0,0,0,0,0,0,0,0,0,-1,1406,1625,0,0
189,-601,0,0,0,0,0,0,0,0,0,-1,1413,1625,0,0
196,-601,0,0,0,0,0,0,0,0,0,-1,1420,1625,0,0
203,-601,0,0,0,0,0,0,0,0,0,-1,1427,1625,0,0
210,-601,0,0,0,0,0,0,0,0,0,-1,1434,1625,0,0
217,-601,0,0,0,0,0,0,0,0,0,-1,1441,1625,0,0
224,-601,0,0,0,0,0,0,0,0,0,-1,1448,1625,0,0
231,-601,-0.0371094,0.525879,0,0,0,0,0,0,0,-1,1455,1625,-0.0371518,-0.525824
238,-601,2.03369,-1.32861,0,0,0,0,0,0,0,-1,1462,1625,2.03364,1.32858
245,-601,2.71375,2.44983,0,0,0,0,0,0,0,-1,1469,1625,2.71371,-2.44979
252,-601,4.66943,2.28381,0,0,0,0,0,0,0,-1,1476,1625,4.66947,-2.28376
259,-601,6.42712,2.61987,0,0,0,0,0,0,0,-1,1483,1625,6.42711,-2.61985
266,-601,6.75317,1.68701,0,0,0,0,0,0,0,-1,1490,1625,6.75323,-1.687
273,-601,5.4314,2.92053,0,0,0,0,0,0,0,-1,1497,1625,5.43144,-2.92051
280,-601,4.64722,1.17786,0,0,0,0,0,0,0,-1,1504,1625,4.64722,-1.1779
287,-601,5.32532,2.6217,0,0,0,0,0,0,0,-1,1511,1625,5.32535,-2.62171
294,-601,5.97693,4.22693,0,0,0,0,0,0,0,-1,1518,1625,5.97697,-4.22694
301,-601,7.28162,9.50024,0,0,0,0,0,0,0,-1,1525,1625,7.28162,-9.50025
308,-601,6.53528,10.3927,0,0,0,0,0,0,0,-1,1532,1625,6.53529,-10.3927
315,-601,4.88013,11.7184,0,0,0,0,0,0,0,-1,1539,1625,4.88015,-11.7184
322,-601,3.38098,12.7864,0,0,0,0,0,0,0,-1,1546,1625,3.38104,-12.7864
329,-601,1.8772,13.8768,0,0,0,0,0,0,0,-1,1553,1625,1.87716,-13.8768
336,-601,4.67847,9.53308,0,0,0,0,0,0,0,-1,1560,1625,4.67848,-9.53309
343,-601,11.1404,3.14575,0,0,0,0,0,0,0,-1,1567,1625,11.1404,-3.1458
350,-601,10.9462,2.37769,0,0,0,0,0,0,0,-1,1574,1625,10.9461,-2.37764
357,-601,10.7518,1.6095,0,0,0,0,0,0,0,-1,1581,1625,10.7518,-1.60948
364,-601,5.33643,9.74426,0,0,0,0,0,0,0,-1,1588,1625,5.33637,-9.74429
371,-601,8.46387,16.2725,0,0,0,0,0,0,0,-1,1595,1625,8.46385,-16.2725
378,-601,10.8859,26.6842,0,0,0,0,0,0,0,-1,1602,1625,10.8859,-26.6842
385,-601,11.1443,26.0083,0,0,0,0,0,0,0,-1,1609,1625,11.1443,-26.0083
392,-601,11.2982,25.5443,0.00770176,0.0170505,-0.00379338,0.018396,0.0063562,-1.22993,0.0107886,0.0406625,1616,1625,11.2982,-25.5444
399,-601,11.3656,24.8922,0.00487297,0.0125667,-0.000838949,0.0126571,0.00478255,-1.46343,0.00737989,0.0206933,1623,1625,11.3656,-24.8922
406,-601,11.4297,24.5497,0.00255461,0.00917073,0.0011331,0.00935941,0.00236593,1.4058,0.00561951,0.0126678,1630,1625,11.4297,-24.5497
413,-601,11.4308,24.2152,0.00082027,0.00642634,0.0024788,0.00736516,-0.00011855,1.20875,0.0049501,0.0119823,1637,1625,11.4308,-24.2153
420,-601,11.4108,23.8882,-0.000236244,0.0046592,0.00301926,0.00609828,-0.00167533,1.12601,0.00472405,0.0106146,1644,1625,11.4107,-23.8882
427,-601,11.4176,23.5864,-0.000979404,0.00323296,0.00330008,0.00504168,-0.00278813,1.06942,0.00458253,0.0148286,1651,1625,11.4176,-23.5865
434,-601,11.4032,23.2535,-0.00127522,0.0022058,0.00309363,0.00401492,-0.00308435,1.04164,0.00411049,0.015927,1658,1625,11.4032,-23.2536
441,-601,11.4044,22.9148,-0.000925842,0.00173834,0.0023317,0.00309163,-0.00227913,1.04492,0.00311262,0.0172881,1665,1625,11.4044,-22.9148
448,-601,11.4333,22.5775,-0.000441212,0.00115922,0.00170542,0.00224283,-0.00152482,1.00476,0.00218838,0.0151586,1672,1625,11.4333,-22.5776
455,-601,11.4263,22.2354,0.000350754,0.000867667,0.000792827,0.0014431,-0.00022468,0.942963,0.00104504,0.0124087,1679,1625,11.4263,-22.2354
462,-601,11.4076,21.8986,0.00134327,0.000748838,-0.000182794,0.00139499,0.000697126,-0.275694,0.000805396,0.0102567,1686,1625,11.4076,-21.8986
469,-601,11.3922,21.578,0.00242877,0.000472099,-0.00110343,0.00292512,-2.42512e-05,-0.422708,0.00195822,0.010746,1693,1625,11.3923,-21.578
476,-601,11.3926,21.2328,0.00347864,0.000276343,-0.00199711,0.0044372,-0.000682219,-0.4475,0.0032098,0.0140175,1700,1625,11.3926,-21.2328
483,-601,11.3846,20.8723,0.00455645,0.00038347,-0.00280543,0.00596623,-0.00102631,-0.465659,0.00436004,0.0171365,1707,1625,11.3846,-20.8723
490,-601,11.3685,20.5114,0.00545311,0.000357122,-0.00339928,0.00715334,-0.00134311,-0.463786,0.00527392,0.0123916,1714,1625,11.3685,-20.5114
497,-601,11.3613,20.1466,0.00609381,0.000567222,-0.00395806,0.00815773,-0.0014967,-0.480659,0.00599994,0.00996297,1721,1625,11.3613,-20.1466
504,-601,11.3951,19.7638,0.00624354,0.000609654,-0.00399113,0.00831171,-0.00145851,-0.478094,0.00608585,0.0175363,1728,1625,11.3951,-19.7638
511,-601,11.3607,19.4716,0.00625382,0.00061765,-0.00400278,0.00833102,-0.00145955,-0.478684,0.00609902,0.0309639,1735,1625,11.3607,-19.4715
518,-601,11.4087,19.0802,0.00605167,0.000982837,-0.003951,0.00821126,-0.00117675,-0.500223,0.00590563,0.0430229,1742,1625,11.4087,-19.0801
525,-601,11.2987,18.4586,0,0,0,0,0,0,0,-1,1749,1625,11.2987,-18.4586
532,-601,11.6024,17.5468,0,0,0,0,0,0,0,-1,1756,1625,11.6024,-17.5467
539,-601,7.77112,11.4299,0,0,0,0,0,0,0,-1,1763,1625,7.77116,-11.4299
546,-601,6.56873,3.62354,0,0,0,0,0,0,0,-1,1770,1625,6.56867,-3.62352
553,-601,7.03015,4.25049,0,0,0,0,0,0,0,-1,1777,1625,7.03011,-4.25048
560,-601,7.50745,4.83374,0,0,0,0,0,0,0,-1,1784,1625,7.50744,-4.83376
567,-601,7.82043,3.83301,0,0,0,0,0,0,0,-1,1791,1625,7.82041,-3.83303
574,-601,0,0,0,0,0,0,0,0,0,-1,1798,1625,0,0
581,-601,0,0,0,0,0,0,0,0,0,-1,1805,1625,0,0
588,-601,0,0,0,0,0,0,0,0,0,-1,1812,1625,0,0
595,-601,0,0,0,0,0,0,0,0,0,-1,1819,1625,0,0
602,-601,0,0,0,0,0,0,0,0,0,-1,1826,1625,0,0
609,-601,0,0,0,0,0,0,0,0,0,-1,1833,1625,0,0
616,-601,0,0,0,0,0,0,0,0,0,-1,1840,1625,0,0
623,-601,0,0,0,0,0,0,0,0,0,-1,1847,1625,0,0
630,-601,0,0,0,0,0,0,0,0,0,-1,1854,1625,0,0
637,-601,0,0,0,0,0,0,0,0,0,-1,1861,1625,0,0
644,-601,0,0,0,0,0,0,0,0,0,-1,1868,1625,0,0
651,-601,0,0,0,0,0,0,0,0,0,-1,1875,1625,0,0
658,-601,0,0,0,0,0,0,0,0,0,-1,1882,1625,0,0
665,-601,0,0,0,0,0,0,0,0,0,-1,1889,1625,0,0
672,-601,0,0,0,0,0,0,0,0,0,-1,1896,1625,0,0
679,-601,0,0,0,0,0,0,0,0,0,-1,1903,1625,0,0
686,-601,0,0,0,0,0,0,0,0,0,-1,1910,1625,0,0
693,-601,0,0,0,0,0,0,0,0,0,-1,1917,1625,0,0
700,-601,0,0,0,0,0,0,0,0,0,-1,1924,1625,0,0
707,-601,0,0,0,0,0,0,0,0,0,-1,1931,1625,0,0
714,-601,0,0,0,0,0,0,0,0,0,-1,1938,1625,0,0
721,-601,0,0,0,0,0,0,0,0,0,-1,1945,1625,0,0
728,-601,0,0,0,0,0,0,0,0,0,-1,1952,1625,0,0
735,-601,0,0,0,0,0,0,0,0,0,-1,1959,1625,0,0
742,-601,0,0,0,0,0,0,0,0,0,-1,1966,1625,0,0
749,-601,0,0,0,0,0,0,0,0,0,-1,1973,1625,0,0
756,-601,0,0,0,0,0,0,0,0,0,-1,1980,1625,0,0
763,-601,0,0,0,0,0,0,0,0,0,-1,1987,1625,0,0
770,-601,0,0,0,0,0,0,0,0,0,-1,1994,1625,0,0
777,-601,0,0,0,0,0,0,0,0,0,-1,2001,1625,0,0
784,-601,0,0,0,0,0,0,0,0,0,-1,2008,1625,0,0
791,-601,0,0,0,0,0,0,0,0,0,-1,2015,1625,0,0
798,-601,0,0,0,0,0,0,0,0,0,-1,2022,1625,0,0
805,-601,0,0,0,0,0,0,0,0,0,-1,2029,1625,0,0
812,-601,0,0,0,0,0,0,0,0,0,-1,2036,1625,0,0
-700,-608,0,0,0,0,0,0,0,0,0,-1,524,1632,0,0
-693,-608,0,0,0,0,0,0,0,0,0,-1,531,1632,0,0
-686,-608,0,0,0,0,0,0,0,0,0,-1,538,1632,0,0
-679,-608,0,0,0,0,0,0,0,0,0,-1,545,1632,0,0
-672,-608,0,0,0,0,0,0,0,0,0,-1,552,1632,0,0
-665,-608,0,0,0,0,0,0,0,0,0,-1,559,1632,0,0
-658,-608,0,0,0,0,0,0,0,0,0,-1,566,1632,0,0
-651,-608,0,0,0,0,0,0,0,0,0,-1,573,1632,0,0
-644,-608,0,0,0,0,0,0,0,0,0,-1,580,1632,0,0
-637,-608,0,0,0,0,0,0,0,0,0,-1,587,1632,0,0
-630,-608,0,0,0,0,0,0,0,0,0,-1,594,1632,0,0
-623,-608,0,0,0,0,0,0,0,0,0,-1,601,1632,0,0
-616,-608,0,0,0,0,0,0,0,0,0,-1,608,1632,0,0
-609,-608,0,0,0,0,0,0,0,0,0,-1,615,1632,0,0
-602,-608,0,0,0,0,0,0,0,0,0,-1,622,1632,0,0
-595,-608,0,0,0,0,0,0,0,0,0,-1,629,1632,0,0
-588,-608,0,0,0,0,0,0,0,0,0,-1,636,1632,0,0
-581,-608,0,0,0,0,0,0,0,0,0,-1,643,1632,0,0
-574,-608,0,0,0,0,0,0,0,0,0,-1,650,1632,0,0
-567,-608,0,0,0,0,0,0,0,0,0,-1,657,1632,0,0
-560,-608,0,0,0,0,0,0,0,0,0,-1,664,1632,0,0
-553,-608,0,0,0,0,0,0,0,0,0,-1,671,1632,0,0
-546,-608,0,0,0,0,0,0,0,0,0,-1,678,1632,0,0
-539,-608,0,0,0,0,0,0,0,0,0,-1,685,1632,0,0
-532,-608,0,0,0,0,0,0,0,0,0,-1,692,1632,0,0
-525,-608,0,0,0,0,0,0,0,0,0,-1,699,1632,0,0
-518,-608,0,0,0,0,0,0,0,0,0,-1,706,1632,0,0
-511,-608,0,0,0,0,0,0,0,0,0,-1,713,1632,0,0
-504,-608,0,0,0,0,0,0,0,0,0,-1,720,1632,0,0
-497,-608,0,0,0,0,0,0,0,0,0,-1,727,1632,0,0
-490,-608,0,0,0,0,0,0,0,0,0,-1,734,1632,0,0
-483,-608,0,0,0,0,0,0,0,0,0,-1,741,1632,0,0
-476,-608,0,0,0,0,0,0,0,0,0,-1,748,1632,0,0
-469,-608,0,0,0,0,0,0,0,0,0,-1,755,1632,0,0
-462,-608,0,0,0,0,0,0,0,0,0,-1,762,1632,0,0
-455,-608,0,0,0,0,0,0,0,0,0,-1,769,1632,0,0
-448,-608,0,0,0,0,0,0,0,0,0,-1,776,1632,0,0
-441,-608,-7.34601,2.78052,0,0,0,0,0,0,0,-1,783,1632,-7.346,-2.78056
-434,-608,-6.34558,3.27405,0,0,0,0,0,0,0,-1,790,1632,-6.34555,-3.27406
-427,-608,-7.74335,4.17688,0,0,0,0,0,0,0,-1,797,1632,-7.74334,-4.17693
-420,-608,-6.82794,4.34839,0,0,0,0,0,0,0,-1,804,1632,-6.82794,-4.34838
-413,-608,-5.41919,5.66138,0,0,0,0,0,0,0,-1,811,1632,-5.41917,-5.66133
-406,-608,-4.79681,4.98999,0,0,0,0,0,0,0,-1,818,1632,-4.79684,-4.98997
-399,-608,-2.60645,6.34167,0,0,0,0,0,0,0,-1,825,1632,-2.60643,-6.34169
-392,-608,2.08356,15.437,0,0,0,0,0,0,0,-1,832,1632,2.08354,-15.437
-385,-608,2.78241,18.2594,0,0,0,0,0,0,0,-1,839,1632,2.78242,-18.2594
-378,-608,2.83179,18.5314,0,0,0,0,0,0,0,-1,846,1632,2.8318,-18.5313
-371,-608,2.72595,18.6129,0,0,0,0,0,0,0,-1,853,1632,2.72597,-18.6129
-364,-608,2.82965,18.9761,-0.00352034,-0.000245379,0.00014188,-0.000239243,-0.00352647,1.52758,0.00227543,0.0272898,860,1632,2.82964,-18.976
-357,-608,2.75244,19.426,-0.00252971,-0.000389857,0.000137051,-0.000381115,-0.00253846,1.5071,0.00158066,0.0194379,867,1632,2.75247,-19.4261
-350,-608,2.77252,19.8776,-0.00160546,-0.000254256,0.000185421,-0.000229273,-0.00163044,1.43687,0.00101917,0.019785,874,1632,2.77253,-19.8776
-343,-608,2.75842,20.2924,-0.000820482,-1.76626e-05,0.000314233,9.07043e-05,-0.000928849,1.23871,0.000651576,0.0238631,881,1632,2.75843,-20.2924
-336,-608,2.7168,20.7084,1.48589e-05,8.00853e-05,0.000348586,0.00039758,-0.000302636,0.832042,0.000405507,0.0161617,888,1632,2.71678,-20.7083
-329,-608,2.70227,21.0692,0.000585228,0.00056876,0.000363175,0.000940262,0.000213726,0.774064,0.000569137,0.0142605,895,1632,2.70224,-21.0692
-322,-608,2.69299,21.4121,0.0010164,0.000915995,0.000501531,0.00147023,0.000462159,0.735517,0.000868126,0.0141132,902,1632,2.69299,-21.4121
-315,-608,2.70605,21.7535,0.00141237,0.00120898,0.000603094,0.00192228,0.000699067,0.701875,0.0011235,0.0126675,909,1632,2.70604,-21.7536
-308,-608,2.69165,22.1139,0.00177672,0.00137903,0.000666215,0.00227313,0.000882616,0.640371,0.00132327,0.0132664,916,1632,2.69167,-22.1139
-301,-608,2.69067,22.4764,0.00209381,0.00144448,0.000611223,0.00246124,0.00107705,0.541263,0.00142468,0.0112735,923,1632,2.69067,-22.4764
-294,-608,2.68542,22.8269,0.00254839,0.00166462,0.000720573,0.00295178,0.00126123,0.510349,0.00171021,0.0107549,930,1632,2.68544,-22.8269
-287,-608,2.6701,23.1664,0.00298466,0.00182776,0.000784542,0.00338095,0.00143147,0.467733,0.00195961,0.0100948,937,1632,2.67008,-23.1664
-280,-608,2.69385,23.5038,0.00353658,0.00191398,0.000898371,0.00393576,0.00151479,0.418142,0.0022923,0.00839257,944,1632,2.69386,-23.5038
-273,-608,2.68359,23.8555,0.00407332,0.00186093,0.000937749,0.00441731,0.00151694,0.351586,0.00259169,0.00926698,951,1632,2.68357,-23.8555
-266,-608,2.70587,24.2146,0.00463636,0.00180919,0.000955484,0.00492899,0.00151656,0.297195,0.00291508,0.0100707,958,1632,2.70585,-24.2146
-259,-608,2.7572,24.5212,0.00529577,0.00171001,0.00102412,0.00556765,0.00143813,0.259492,0.00333733,0.0132091,965,1632,2.7572,-24.5213
-252,-608,2.80762,24.8307,0.00605678,0.00135106,0.00106321,0.00628585,0.00112199,0.212208,0.00387115,0.0257705,972,1632,2.80761,-24.8306
-245,-608,2.98492,25.2418,0.0071459,0.00130586,0.00130806,0.0074255,0.00102627,0.21058,0.00464618,0.036298,979,1632,2.98493,-25.2418
-238,-608,3.19928,25.611,0,0,0,0,0,0,0,-1,986,1632,3.19927,-25.611
-231,-608,3.20416,25.8154,0,0,0,0,0,0,0,-1,993,1632,3.20418,-25.8154
-224,-608,2.51642,15.3452,0,0,0,0,0,0,0,-1,1000,1632,2.5164,-15.3452
-217,-608,1.04419,12.8451,0,0,0,0,0,0,0,-1,1007,1632,1.04418,-12.8451
-210,-608,2.75903,15.9414,0,0,0,0,0,0,0,-1,1014,1632,2.75903,-15.9414
-203,-608,2.76776,16.217,0,0,0,0,0,0,0,-1,1021,1632,2.76773,-16.217
-196,-608,1.53955,18.6058,0,0,0,0,0,0,0,-1,1028,1632,1.53959,-18.6058
-189,-608,1.37634,19.119,0,0,0,0,0,0,0,-1,1035,1632,1.37634,-19.1191
-182,-608,2.89221,16.7092,0,0,0,0,0,0,0,-1,1042,1632,2.89224,-16.7093
-175,-608,0.219116,15.1643,0,0,0,0,0,0,0,-1,1049,1632,0.219173,-15.1644
-168,-608,0.000366211,9.48645,0,0,0,0,0,0,0,-1,1056,1632,0.000317105,-9.48648
-161,-608,2.27832,15.4423,0,0,0,0,0,0,0,-1,1063,1632,2.27826,-15.4423
-154,-608,1.3999,16.4037,0,0,0,0,0,0,0,-1,1070,1632,1.39987,-16.4037
-147,-608,2.4386,9.50317,0,0,0,0,0,0,0,-1,1077,1632,2.43858,-9.50313
-140,-608,2.60132,10.8401,0,0,0,0,0,0,0,-1,1084,1632,2.60134,-10.8401
-133,-608,3.2312,12.4738,0,0,0,0,0,0,0,-1,1091,1632,3.23116,-12.4738
-126,-608,3.76465,13.9644,0,0,0,0,0,0,0,-1,1098,1632,3.76466,-13.9644
-119,-608,4.28906,15.4196,0,0,0,0,0,0,0,-1,1105,1632,4.28911,-15.4195
-112,-608,0.745117,10.5587,0,0,0,0,0,0,0,-1,1112,1632,0.745145,-10.5587
-105,-608,-0.252319,1.42419,0,0,0,0,0,0,0,-1,1119,1632,-0.252331,-1.42418
-98,-608,-2.8595,3.0863,0,0,0,0,0,0,0,-1,1126,1632,-2.85948,-3.08625
-91,-608,-3.71948,1.73608,0,0,0,0,0,0,0,-1,1133,1632,-3.7195,-1.73607
-84,-608,0,0,0,0,0,0,0,0,0,-1,1140,1632,0,0
-77,-608,0,0,0,0,0,0,0,0,0,-1,1147,1632,0,0
-70,-608,0,0,0,0,0,0,0,0,0,-1,1154,1632,0,0
-63,-608,0,0,0,0,0,0,0,0,0,-1,1161,1632,0,0
-56,-608,0,0,0,0,0,0,0,0,0,-1,1168,1632,0,0
-49,-608,0,0,0,0,0,0,0,0,0,-1,1175,1632,0,0
-42,-608,0,0,0,0,0,0,0,0,0,-1,1182,1632,0,0
-35,-608,0,0,0,0,0,0,0,0,0,-1,1189,1632,0,0
-28,-608,0,0,0,0,0,0,0,0,0,-1,1196,1632,0,0
-21,-608,0,0,0,0,0,0,0,0,0,-1,1203,1632,0,0
-14,-608,0,0,0,0,0,0,0,0,0,-1,1210,1632,0,0
-7,-608,0,0,0,0,0,0,0,0,0,-1,1217,1632,0,0
0,-608,0,0,0,0,0,0,0,0,0,-1,1224,1632,0,0
7,-608,0,0,0,0,0,0,0,0,0,-1,1231,1632,0,0
14,-608,0,0,0,0,0,0,0,0,0,-1,1238,1632,0,0
21,-608,0,0,0,0,0,0,0,0,0,-1,1245,1632,0,0
28,-608,0,0,0,0,0,0,0,0,0,-1,1252,1632,0,0
35,-608,0,0,0,0,0,0,0,0,0,-1,1259,1632,0,0
42,-608,0,0,0,0,0,0,0,0,0,-1,1266,1632,0,0
49,-608,0,0,0,0,0,0,0,0,0,-1,1273,1632,0,0
56,-608,0,0,0,0,0,0,0,0,0,-1,1280,1632,0,0
63,-608,0,0,0,0,0,0,0,0,0,-1,1287,1632,0,0
70,-608,0,0,0,0,0,0,0,0,0,-1,1294,1632,0,0
77,-608,0,0,0,0,0,0,0,0,0,-1,1301,1632,0,0
84,-608,0,0,0,0,0,0,0,0,0,-1,1308,1632,0,0
91,-608,0,0,0,0,0,0,0,0,0,-1,1315,1632,0,0
98,-608,0,0,0,0,0,0,0,0,0,-1,1322,1632,0,0
105,-608,0,0,0,0,0,0,0,0,0,-1,1329,1632,0,0
112,-608,0,0,0,0,0,0,0,0,0,-1,1336,1632,0,0
119,-608,0,0,0,0,0,0,0,0,0,-1,1343,1632,0,0
126,-608,0,0,0,0,0,0,0,0,0,-1,1350,1632,0,0
133,-608,0,0,0,0,0,0,0,0,0,-1,1357,1632,0,0
140,-608,0,0,0,0,0,0,0,0,0,-1,1364,1632,0,0
147,-608,0,0,0,0,0,0,0,0,0,-1,1371,1632,0,0
154,-608,0,0,0,0,0,0,0,0,0,-1,1378,1632,0,0
161,-608,0,0,0,0,0,0,0,0,0,-1,1385,1632,0,0
168,-608,0,0,0,0,0,0,0,0,0,-1,1392,1632,0,0
175,-608,0,0,0,0,0,0,0,0,0,-1,1399,1632,0,0
182,-608,0,0,0,0,0,0,0,0,0,-1,1406,1632,0,0
189,-608,0,0,0,0,0,0,0,0,0,-1,1413,1632,0,0
196,-608,0,0,0,0,0,0,0,0,0,-1,1420,1632,0,0
203,-608,0,0,0,0,0,0,0,0,0,-1,1427,1632,0,0
210,-608,5.7157,-0.333008,0,0,0,0,0,0,0,-1,1434,1632,5.71566,0.333004
217,-608,4.49402,-0.831787,0,0,0,0,0,0,0,-1,1441,1632,4.49396,0.831738
224,-608,4.18018,-1.11792,0,0,0,0,0,0,0,-1,1448,1632,4.1802,1.11796
231,-608,0.361816,0.825195,0,0,0,0,0,0,0,-1,1455,1632,0.36185,-0.825226
238,-608,2.85388,-0.28833,0,0,0,0,0,0,0,-1,1462,1632,2.85391,0.288282
245,-608,3.87537,4.02173,0,0,0,0,0,0,0,-1,1469,1632,3.87538,-4.02168
252,-608,5.66956,3.5282,0,0,0,0,0,0,0,-1,1476,1632,5.6696,-3.52815
259,-608,7.47437,3.07178,0,0,0,0,0,0,0,-1,1483,1632,7.4744,-3.07172
266,-608,9.46936,2.34766,0,0,0,0,0,0,0,-1,1490,1632,9.46932,-2.34764
273,-608,6.03003,3.34241,0,0,0,0,0,0,0,-1,1497,1632,6.02997,-3.34245
280,-608,5.72461,2.0769,0,0,0,0,0,0,0,-1,1504,1632,5.72457,-2.07688
287,-608,6.20581,3.59338,0,0,0,0,0,0,0,-1,1511,1632,6.20585,-3.59341
294,-608,6.94922,5.17151,0,0,0,0,0,0,0,-1,1518,1632,6.94925,-5.17151
301,-608,7.60083,6.68018,0,0,0,0,0,0,0,-1,1525,1632,7.60086,-6.68013
308,-608,7.64746,9.93848,0,0,0,0,0,0,0,-1,1532,1632,7.64745,-9.93842
315,-608,5.30688,11.2054,0,0,0,0,0,0,0,-1,1539,1632,5.30694,-11.2054
322,-608,5.32617,13.7581,0,0,0,0,0,0,0,-1,1546,1632,5.32613,-13.758
329,-608,7.12231,13.9607,0,0,0,0,0,0,0,-1,1553,1632,7.12231,-13.9607
336,-608,5.48633,7.82446,0,0,0,0,0,0,0,-1,1560,1632,5.48634,-7.82446
343,-608,5.47192,5.61047,0,0,0,0,0,0,0,-1,1567,1632,5.47192,-5.61045
350,-608,11.6957,1.71387,0,0,0,0,0,0,0,-1,1574,1632,11.6957,-1.71388
357,-608,3.77002,5.10046,0,0,0,0,0,0,0,-1,1581,1632,3.77002,-5.10043
364,-608,5.6925,11.2163,0,0,0,0,0,0,0,-1,1588,1632,5.69255,-11.2163
371,-608,10.3903,27.0316,0,0,0,0,0,0,0,-1,1595,1632,10.3903,-27.0317
378,-608,10.7844,26.2026,0.0114921,0.0228529,-0.00931144,0.0280798,0.00626516,-1.05928,0.0170203,0.0428615,1602,1632,10.7844,-26.2026
385,-608,11.056,25.6694,0.00894905,0.0184329,-0.00661964,0.0218338,0.00554816,-1.0962,0.013104,0.0370064,1609,1632,11.056,-25.6694
392,-608,11.0505,25.1897,0.00680235,0.0144506,-0.00404437,0.0161925,0.00506042,-1.1641,0.00956531,0.0225569,1616,1632,11.0506,-25.1897
399,-608,11.0735,24.8444,0.00463247,0.0108724,-0.00174111,0.0113253,0.00417953,-1.31629,0.006613,0.0115978,1623,1632,11.0735,-24.8444
406,-608,11.1136,24.5276,0.00276746,0.00801295,-0.000111642,0.00801533,0.00276508,-1.54953,0.00470121,0.00957941,1630,1632,11.1137,-24.5276
413,-608,11.0995,24.2194,0.00130218,0.00555132,0.0011058,0.00582187,0.00103163,1.33085,0.00358716,0.0105191,1637,1632,11.0995,-24.2193
420,-608,11.0819,23.9027,0.000349194,0.00387782,0.00171218,0.00457203,-0.00034502,1.18559,0.0031693,0.0179542,1644,1632,11.0819,-23.9027
427,-608,11.0925,23.5702,-0.000280132,0.00246264,0.00212545,0.00362073,-0.00143822,1.0719,0.00301002,0.0192667,1651,1632,11.0925,-23.5702
434,-608,11.0884,23.2379,-0.000369621,0.00138531,0.00205831,0.00274538,-0.00172969,0.986886,0.00260577,0.0151789,1658,1632,11.0884,-23.2379
441,-608,11.094,22.906,0.000118417,0.00100122,0.00135424,0.00198418,-0.00086454,0.942939,0.00168652,0.0134966,1665,1632,11.094,-22.906
448,-608,11.1102,22.5924,0.000715461,0.000417846,0.000820445,0.00140048,-0.000267178,0.695687,0.00103428,0.0160139,1672,1632,11.1102,-22.5924
455,-608,11.1097,22.2566,0.00164185,9.78917e-05,6.57307e-06,0.00164187,9.78637e-05,0.00425719,0.00106346,0.0118546,1679,1632,11.1098,-22.2566
462,-608,11.0902,21.9166,0.00278362,-9.46667e-05,-0.000876958,0.00302976,-0.000340809,-0.273637,0.0021425,0.00997484,1686,1632,11.0902,-21.9166
469,-608,11.0664,21.584,0.00410186,-0.00036751,-0.00180297,0.00473851,-0.00100415,-0.33944,0.0035415,0.00782712,1693,1632,11.0664,-21.5839
476,-608,11.0447,21.233,0.00546739,-0.000533433,-0.00272049,0.00651711,-0.00158315,-0.368254,0.00495745,0.00877333,1700,1632,11.0447,-21.233
483,-608,11.0424,20.8806,0.00687528,-0.000243833,-0.00366395,0.00842404,-0.0017926,-0.399924,0.00629916,0.00838277,1707,1632,11.0424,-20.8806
490,-608,11.0421,20.5264,0.00811792,-8.08254e-05,-0.00450407,0.0101088,-0.00207173,-0.416201,0.00752546,0.00874743,1714,1632,11.0421,-20.5264
497,-608,11.0657,20.1531,0.00914778,0.00040341,-0.00530938,0.0116535,-0.00210231,-0.44095,0.00855629,0.0177617,1721,1632,11.0657,-20.153
504,-608,11.0262,19.8198,0.00970593,0.000728728,-0.00562251,0.0124118,-0.00197713,-0.448538,0.0090062,0.0411068,1728,1632,11.0263,-19.8198
511,-608,10.8711,19.5399,0.010126,0.00122368,-0.00600642,0.0131508,-0.00180111,-0.466518,0.00942511,0.0489202,1735,1632,10.8712,-19.5399
518,-608,11.2592,19.1466,0,0,0,0,0,0,0,-1,1742,1632,11.2592,-19.1466
525,-608,11.2109,16.2579,0,0,0,0,0,0,0,-1,1749,1632,11.2109,-16.2579
532,-608,8.27917,11.6693,0,0,0,0,0,0,0,-1,1756,1632,8.27919,-11.6694
539,-608,9.40796,1.43457,0,0,0,0,0,0,0,-1,1763,1632,9.40801,-1.43463
546,-608,9.94031,2.1134,0,0,0,0,0,0,0,-1,1770,1632,9.94031,-2.11346
553,-608,10.363,2.81335,0,0,0,0,0,0,0,-1,1777,1632,10.3631,-2.81333
560,-608,9.23999,4.5636,0,0,0,0,0,0,0,-1,1784,1632,9.24,-4.56354
567,-608,0,0,0,0,0,0,0,0,0,-1,1791,1632,0,0
574,-608,0,0,0,0,0,0,0,0,0,-1,1798,1632,0,0
581,-608,0,0,0,0,0,0,0,0,0,-1,1805,1632,0,0
588,-608,0,0,0,0,0,0,0,0,0,-1,1812,1632,0,0
595,-608,0,0,0,0,0,0,0,0,0,-1,1819,1632,0,0
602,-608,0,0,0,0,0,0,0,0,0,-1,1826,1632,0,0
609,-608,0,0,0,0,0,0,0,0,0,-1,1833,1632,0,0
616,-608,0,0,0,0,0,0,0,0,0,-1,1840,1632,0,0
623,-608,0,0,0,0,0,0,0,0,0,-1,1847,1632,0,0
630,-608,0,0,0,0,0,0,0,0,0,-1,1854,1632,0,0
637,-608,0,0,0,0,0,0,0,0,0,-1,1861,1632,0,0
644,-608,0,0,0,0,0,0,0,0,0,-1,1868,1632,0,0
651,-608,0,0,0,0,0,0,0,0,0,-1,1875,1632,0,0
658,-608,0,0,0,0,0,0,0,0,0,-1,1882,1632,0,0
665,-608,0,0,0,0,0,0,0,0,0,-1,1889,1632,0,0
672,-608,0,0,0,0,0,0,0,0,0,-1,1896,1632,0,0
679,-608,0,0,0,0,0,0,0,0,0,-1,1903,1632,0,0
686,-608,0,0,0,0,0,0,0,0,0,-1,1910,1632,0,0
693,-608,0,0,0,0,0,0,0,0,0,-1,1917,1632,0,0
700,-608,0,0,0,0,0,0,0,0,0,-1,1924,1632,0,0
707,-608,0,0,0,0,0,0,0,0,0,-1,1931,1632,0,0
714,-608,0,0,0,0,0,0,0,0,0,-1,1938,1632,0,0
721,-608,0,0,0,0,0,0,0,0,0,-1,1945,1632,0,0
728,-608,0,0,0,0,0,0,0,0,0,-1,1952,1632,0,0
735,-608,0,0,0,0,0,0,0,0,0,-1,1959,1632,0,0
742,-608,0,0,0,0,0,0,0,0,0,-1,1966,1632,0,0
749,-608,0,0,0,0,0,0,0,0,0,-1,1973,1632,0,0
756,-608,0,0,0,0,0,0,0,0,0,-1,1980,1632,0,0
763,-608,0,0,0,0,0,0,0,0,0,-1,1987,1632,0,0
770,-608,0,0,0,0,0,0,0,0,0,-1,1994,1632,0,0
777,-608,0,0,0,0,0,0,0,0,0,-1,2001,1632,0,0
784,-608,0,0,0,0,0,0,0,0,0,-1,2008,1632,0,0
791,-608,0,0,0,0,0,0,0,0,0,-1,2015,1632,0,0
798,-608,0,0,0,0,0,0,0,0,0,-1,2022,1632,0,0
805,-608,0,0,0,0,0,0,0,0,0,-1,2029,1632,0,0
812,-608,0,0,0,0,0,0,0,0,0,-1,2036,1632,0,0
-700,-615,0,0,0,0,0,0,0,0,0,-1,524,1639,0,0
-693,-615,0,0,0,0,0,0,0,0,0,-1,531,1639,0,0
-686,-615,0,0,0,0,0,0,0,0,0,-1,538,1639,0,0
-679,-615,0,0,0,0,0,0,0,0,0,-1,545,1639,0,0
-672,-615,0,0,0,0,0,0,0,0,0,-1,552,1639,0,0
-665,-615,0,0,0,0,0,0,0,0,0,-1,559,1639,0,0
-658,-615,0,0,0,0,0,0,0,0,0,-1,566,1639,0,0
-651,-615,0,0,0,0,0,0,0,0,0,-1,573,1639,0,0
-644,-615,0,0,0,0,0,0,0,0,0,-1,580,1639,0,0
-637,-615,0,0,0,0,0,0,0,0,0,-1,587,1639,0,0
-630,-615,0,0,0,0,0,0,0,0,0,-1,594,1639,0,0
-623,-615,0,0,0,0,0,0,0,0,0,-1,601,1639,0,0
-616,-615,0,0,0,0,0,0,0,0,0,-1,608,1639,0,0
-609,-615,0,0,0,0,0,0,0,0,0,-1,615,1639,0,0
-602,-615,0,0,0,0,0,0,0,0,0,-1,622,1639,0,0
-595,-615,0,0,0,0,0,0,0,0,0,-1,629,1639,0,0
-588,-615,0,0,0,0,0,0,0,0,0,-1,636,1639,0,0
-581,-615,0,0,0,0,0,0,0,0,0,-1,643,1639,0,0
-574,-615,0,0,0,0,0,0,0,0,0,-1,650,1639,0,0
-567,-615,0,0,0,0,0,0,0,0,0,-1,657,1639,0,0
-560,-615,0,0,0,0,0,0,0,0,0,-1,664,1639,0,0
-553,-615,0,0,0,0,0,0,0,0,0,-1,671,1639,0,0
-546,-615,0,0,0,0,0,0,0,0,0,-1,678,1639,0,0
-539,-615,0,0,0,0,0,0,0,0,0,-1,685,1639,0,0
-532,-615,0,0,0,0,0,0,0,0,0,-1,692,1639,0,0
-525,-615,0,0,0,0,0,0,0,0,0,-1,699,1639,0,0
-518,-615,0,0,0,0,0,0,0,0,0,-1,706,1639,0,0
-511,-615,0,0,0,0,0,0,0,0,0,-1,713,1639,0,0
-504,-615,0,0,0,0,0,0,0,0,0,-1,720,1639,0,0
-497,-615,0,0,0,0,0,0,0,0,0,-1,727,1639,0,0
-490,-615,0,0,0,0,0,0,0,0,0,-1,734,1639,0,0
-483,-615,0,0,0,0,0,0,0,0,0,-1,741,1639,0,0
-476,-615,0,0,0,0,0,0,0,0,0,-1,748,1639,0,0
-469,-615,0,0,0,0,0,0,0,0,0,-1,755,1639,0,0
-462,-615,0,0,0,0,0,0,0,0,0,-1,762,1639,0,0
-455,-615,0,0,0,0,0,0,0,0,0,-1,769,1639,0,0
-448,-615,0,0,0,0,0,0,0,0,0,-1,776,1639,0,0
-441,-615,0,0,0,0,0,0,0,0,0,-1,783,1639,0,0
-434,-615,-7.64508,2.98596,0,0,0,0,0,0,0,-1,790,1639,-7.64505,-2.98594
-427,-615,-9.0011,2.89404,0,0,0,0,0,0,0,-1,797,1639,-9.00107,-2.89399
-420,-615,-8.07568,3.0752,0,0,0,0,0,0,0,-1,804,1639,-8.07569,-3.07514
-413,-615,-7.09149,3.396,0,0,0,0,0,0,0,-1,811,1639,-7.09147,-3.39599
-406,-615,-6.21368,3.7312,0,0,0,0,0,0,0,-1,818,1639,-6.21366,-3.73114
-399,-615,-4.84875,3.91907,0,0,0,0,0,0,0,-1,825,1639,-4.84877,-3.91901
-392,-615,1.7395,13.3127,0,0,0,0,0,0,0,-1,832,1639,1.73953,-13.3128
-385,-615,3.42297,14.9401,0,0,0,0,0,0,0,-1,839,1639,3.42296,-14.94
-378,-615,2.54102,17.2609,0,0,0,0,0,0,0,-1,846,1639,2.54099,-17.2608
-371,-615,3.09943,18.8826,0,0,0,0,0,0,0,-1,853,1639,3.09943,-18.8826
-364,-615,3.08923,19.0746,0,0,0,0,0,0,0,-1,860,1639,3.08926,-19.0746
-357,-615,3.06378,19.4172,0,0,0,0,0,0,0,-1,867,1639,3.06379,-19.4173
-350,-615,3.10834,19.9873,-0.00205559,-0.000375679,8.36338e-05,-0.000371526,-0.00205975,1.52118,0.0012676,0.0350955,874,1639,3.10832,-19.9872
-343,-615,3.09399,20.2635,-0.00129716,-0.000115766,0.000180331,-8.88534e-05,-0.00132408,1.42265,0.000854641,0.0198196,881,1639,3.09401,-20.2635
-336,-615,3.08484,20.6719,-0.000504603,-7.25942e-05,0.00018408,-4.79672e-06,-0.0005724,1.21791,0.000380011,0.0108672,888,1639,3.08483,-20.6719
-329,-615,3.06775,21.0526,-1.28947e-05,0.000368002,0.000155291,0.000423289,-6.81817e-05,1.22877,0.000307451,0.0106179,895,1639,3.06777,-21.0526
-322,-615,3.05493,21.4318,0.000344936,0.000632006,0.000264904,0.000789762,0.00018718,1.03368,0.00047653,0.0109005,902,1639,3.05494,-21.4317
-315,-615,3.07001,21.8011,0.000667513,0.000818456,0.000350074,0.0011011,0.000384867,0.891567,0.000645246,0.0127346,909,1639,3.07,-21.8011
-308,-615,3.0484,22.1274,0.000983544,0.000918227,0.000409972,0.00136216,0.000539615,0.745652,0.000792075,0.0195236,916,1639,3.04842,-22.1274
-301,-615,3.05341,22.4698,0.00126899,0.000973985,0.000374711,0.00152419,0.000718792,0.597888,0.000880463,0.0130339,923,1639,3.05339,-22.4699
-294,-615,3.05365,22.8295,0.0016781,0.00118152,0.000474795,0.00196561,0.00089401,0.54448,0.00113639,0.00999912,930,1639,3.05365,-22.8295
-287,-615,3.02185,23.1724,0.00208317,0.00135057,0.000544453,0.00237307,0.00106066,0.489284,0.00137266,0.00785111,937,1639,3.02186,-23.1724
-280,-615,3.02991,23.5002,0.00259806,0.00145771,0.000659075,0.00289937,0.00115641,0.428797,0.00168533,0.00867248,944,1639,3.02991,-23.5002
-273,-615,3.02612,23.8507,0.00313615,0.00147557,0.000726847,0.00340935,0.00120237,0.359531,0.00199667,0.00913091,951,1639,3.02615,-23.8508
-266,-615,3.01923,24.1727,0.00367272,0.00152007,0.000762696,0.00391555,0.00127723,0.308241,0.00230572,0.00951223,958,1639,3.01921,-24.1727
-259,-615,3.04736,24.4729,0.00429729,0.00156417,0.000844437,0.00453714,0.00132432,0.27675,0.0026941,0.0113871,965,1639,3.04739,-24.4729
-252,-615,3.0636,24.8204,0.0050194,0.00149594,0.000905736,0.0052386,0.00127675,0.237438,0.00315416,0.0136347,972,1639,3.06362,-24.8204
-245,-615,3.14246,25.1924,0.00593304,0.00157398,0.00110763,0.00619834,0.00130868,0.235092,0.00377244,0.0206689,979,1639,3.14247,-25.1923
-238,-615,3.19299,25.5168,0.00691548,0.00170246,0.00128575,0.00721535,0.00140259,0.22913,0.00441756,0.0318666,986,1639,3.19299,-25.5168
-231,-615,3.33649,25.8086,0.00826124,0.00135942,0.00167727,0.00864725,0.000973405,0.226207,0.00546932,0.0498048,993,1639,3.33651,-25.8086
-224,-615,3.42651,26.3698,0,0,0,0,0,0,0,-1,1000,1639,3.42651,-26.3697
-217,-615,4.04681,25.5637,0,0,0,0,0,0,0,-1,1007,1639,4.04683,-25.5637
-210,-615,2.48901,18.9324,0,0,0,0,0,0,0,-1,1014,1639,2.48902,-18.9323
-203,-615,2.13684,18.6173,0,0,0,0,0,0,0,-1,1021,1639,2.13683,-18.6173
-196,-615,4.27161,21.3264,0,0,0,0,0,0,0,-1,1028,1639,4.27165,-21.3264
-189,-615,1.8269,19.6761,0,0,0,0,0,0,0,-1,1035,1639,1.82691,-19.6761
-182,-615,1.63489,20.2278,0,0,0,0,0,0,0,-1,1042,1639,1.63492,-20.2277
-175,-615,-0.609985,13.8434,0,0,0,0,0,0,0,-1,1049,1639,-0.610016,-13.8434
-168,-615,3.85754,15.472,0,0,0,0,0,0,0,-1,1056,1639,3.85757,-15.472
-161,-615,1.03137,24.9369,0,0,0,0,0,0,0,-1,1063,1639,1.03133,-24.9368
-154,-615,2.42737,24.3593,0,0,0,0,0,0,0,-1,1070,1639,2.42742,-24.3593
-147,-615,1.52502,17.3442,0,0,0,0,0,0,0,-1,1077,1639,1.52501,-17.3442
-140,-615,3.73401,10.2349,0,0,0,0,0,0,0,-1,1084,1639,3.73402,-10.2348
-133,-615,2.6178,17.45,0,0,0,0,0,0,0,-1,1091,1639,2.61776,-17.4499
-126,-615,4.43408,12.5017,0,0,0,0,0,0,0,-1,1098,1639,4.43403,-12.5018
-119,-615,4.82983,13.9279,0,0,0,0,0,0,0,-1,1105,1639,4.82986,-13.9278
-112,-615,3.65698,14.4874,0,0,0,0,0,0,0,-1,1112,1639,3.65695,-14.4875
-105,-615,0.958496,2.45398,0,0,0,0,0,0,0,-1,1119,1639,0.958452,-2.45398
-98,-615,-0.647705,2.12109,0,0,0,0,0,0,0,-1,1126,1639,-0.647756,-2.12105
-91,-615,-3.07983,2.97375,0,0,0,0,0,0,0,-1,1133,1639,-3.07989,-2.97376
-84,-615,-2.46509,0.703247,0,0,0,0,0,0,0,-1,1140,1639,-2.46505,-0.703273
-77,-615,-3.17859,1.23755,0,0,0,0,0,0,0,-1,1147,1639,-3.17865,-1.23752
-70,-615,-4.03943,1.43335,0,0,0,0,0,0,0,-1,1154,1639,-4.03942,-1.43339
-63,-615,-4.8877,1.45544,0,0,0,0,0,0,0,-1,1161,1639,-4.88766,-1.45549
-56,-615,0,0,0,0,0,0,0,0,0,-1,1168,1639,0,0
-49,-615,0,0,0,0,0,0,0,0,0,-1,1175,1639,0,0
-42,-615,0,0,0,0,0,0,0,0,0,-1,1182,1639,0,0
-35,-615,0,0,0,0,0,0,0,0,0,-1,1189,1639,0,0
-28,-615,0,0,0,0,0,0,0,0,0,-1,1196,1639,0,0
-21,-615,0,0,0,0,0,0,0,0,0,-1,1203,1639,0,0
-14,-615,0,0,0,0,0,0,0,0,0,-1,1210,1639,0,0
-7,-615,0,0,0,0,0,0,0,0,0,-1,1217,1639,0,0
0,-615,0,0,0,0,0,0,0,0,0,-1,1224,1639,0,0
7,-615,0,0,0,0,0,0,0,0,0,-1,1231,1639,0,0
14,-615,0,0,0,0,0,0,0,0,0,-1,1238,1639,0,0
21,-615,0,0,0,0,0,0,0,0,0,-1,1245,1639,0,0
28,-615,0,0,0,0,0,0,0,0,0,-1,1252,1639,0,0
35,-615,0,0,0,0,0,0,0,0,0,-1,1259,1639,0,0
42,-615,0,0,0,0,0,0,0,0,0,-1,1266,1639,0,0
49,-615,0,0,0,0,0,0,0,0,0,-1,1273,1639,0,0
56,-615,0,0,0,0,0,0,0,0,0,-1,1280,1639,0,0
63,-615,0,0,0,0,0,0,0,0,0,-1,1287,1639,0,0
70,-615,0,0,0,0,0,0,0,0,0,-1,1294,1639,0,0
77,-615,0,0,0,0,0,0,0,0,0,-1,1301,1639,0,0
84,-615,0,0,0,0,0,0,0,0,0,-1,1308,1639,0,0
91,-615,0,0,0,0,0,0,0,0,0,-1,1315,1639,0,0
98,-615,0,0,0,0,0,0,0,0,0,-1,1322,1639,0,0
105,-615,0,0,0,0,0,0,0,0,0,-1,1329,1639,0,0
112,-615,0,0,0,0,0,0,0,0,0,-1,1336,1639,0,0
119,-615,0,0,0,0,0,0,0,0,0,-1,1343,1639,0,0
126,-615,0,0,0,0,0,0,0,0,0,-1,1350,1639,0,0
133,-615,0,0,0,0,0,0,0,0,0,-1,1357,1639,0,0
140,-615,0,0,0,0,0,0,0,0,0,-1,1364,1639,0,0
147,-615,0,0,0,0,0,0,0,0,0,-1,1371,1639,0,0
154,-615,0,0,0,0,0,0,0,0,0,-1,1378,1639,0,0
161,-615,0,0,0,0,0,0,0,0,0,-1,1385,1639,0,0
168,-615,0,0,0,0,0,0,0,0,0,-1,1392,1639,0,0
175,-615,5.39648,-2.00879,0,0,0,0,0,0,0,-1,1399,1639,5.3965,2.00881
182,-615,5.65393,-1.51025,0,0,0,0,0,0,0,-1,1406,1639,5.65388,1.51028
189,-615,5.58972,-1.35608,0,0,0,0,0,0,0,-1,1413,1639,5.58967,1.35607
196,-615,5.49915,-0.693604,0,0,0,0,0,0,0,-1,1420,1639,5.4991,0.693602
203,-615,5.33411,-0.226685,0,0,0,0,0,0,0,-1,1427,1639,5.33414,0.226689
210,-615,5.60278,0.108276,0,0,0,0,0,0,0,-1,1434,1639,5.60284,-0.10831
217,-615,6.26331,-0.307373,0,0,0,0,0,0,0,-1,1441,1639,6.26331,0.307372
224,-615,5.45422,-0.333984,0,0,0,0,0,0,0,-1,1448,1639,5.45422,0.333992
231,-615,4.92542,1.80298,0,0,0,0,0,0,0,-1,1455,1639,4.92537,-1.80297
238,-615,4.76355,1.96729,0,0,0,0,0,0,0,-1,1462,1639,4.76357,-1.96734
245,-615,4.08643,3.15906,0,0,0,0,0,0,0,-1,1469,1639,4.08638,-3.159
252,-615,6.37805,3.73889,0,0,0,0,0,0,0,-1,1476,1639,6.37806,-3.73891
259,-615,8.35974,3.16443,0,0,0,0,0,0,0,-1,1483,1639,8.35975,-3.16444
266,-615,10.3414,2.58997,0,0,0,0,0,0,0,-1,1490,1639,10.3414,-2.58996
273,-615,6.57043,1.84766,0,0,0,0,0,0,0,-1,1497,1639,6.5704,-1.84771
280,-615,7.10449,3.23438,0,0,0,0,0,0,0,-1,1504,1639,7.10447,-3.23435
287,-615,7.35779,4.68542,0,0,0,0,0,0,0,-1,1511,1639,7.35776,-4.68546
294,-615,7.63733,6.29114,0,0,0,0,0,0,0,-1,1518,1639,7.63735,-6.29109
301,-615,8.47925,11.452,0,0,0,0,0,0,0,-1,1525,1639,8.47922,-11.452
308,-615,6.8114,10.9059,0,0,0,0,0,0,0,-1,1532,1639,6.81137,-10.9058
315,-615,5.1427,14.7251,0,0,0,0,0,0,0,-1,1539,1639,5.14269,-14.7251
322,-615,7.17981,17.6864,0,0,0,0,0,0,0,-1,1546,1639,7.17985,-17.6864
329,-615,7.62134,20.4354,0,0,0,0,0,0,0,-1,1553,1639,7.62139,-20.4354
336,-615,6.45007,14.1138,0,0,0,0,0,0,0,-1,1560,1639,6.45011,-14.1138
343,-615,2.40491,6.50134,0,0,0,0,0,0,0,-1,1567,1639,2.40489,-6.50137
350,-615,6.4458,15.4594,0,0,0,0,0,0,0,-1,1574,1639,6.44578,-15.4593
357,-615,10.077,27.4594,0,0,0,0,0,0,0,-1,1581,1639,10.0771,-27.4594
364,-615,10.109,27.0858,0,0,0,0,0,0,0,-1,1588,1639,10.1091,-27.0858
371,-615,10.4518,26.5728,0.0109478,0.0218474,-0.00998625,0.0277742,0.00502107,-1.03518,0.0170901,0.0453834,1595,1639,10.4518,-26.5728
378,-615,10.7634,25.739,0.00911908,0.0184915,-0.00763725,0.0227656,0.00484492,-1.06058,0.0138476,0.0199299,1602,1639,10.7634,-25.739
385,-615,10.7576,25.446,0.00733526,0.0151646,-0.00574674,0.0182033,0.00429654,-1.0844,0.0109871,0.0117213,1609,1639,10.7575,-25.4461
392,-615,10.7769,25.1332,0.00578202,0.0119904,-0.00385343,0.0138344,0.00393799,-1.12446,0.00823055,0.0106865,1616,1639,10.7769,-25.1332
399,-615,10.781,24.834,0.00411679,0.00911711,-0.00209066,0.00987604,0.00335787,-1.22258,0.00579843,0.0116855,1623,1639,10.7811,-24.8339
406,-615,10.7704,24.5289,0.00262872,0.00671323,-0.000785925,0.00685923,0.00248272,-1.38711,0.00401018,0.0120286,1630,1639,10.7704,-24.5289
413,-615,10.7593,24.2192,0.00141518,0.00453562,0.000256175,0.00455651,0.00139429,1.48943,0.0026959,0.0134539,1637,1639,10.7593,-24.2193
420,-615,10.7706,23.9027,0.000573821,0.00295811,0.000861503,0.00323681,0.000295117,1.25791,0.00206654,0.0135555,1644,1639,10.7706,-23.9027
427,-615,10.7833,23.5796,9.32652e-05,0.00156902,0.00132653,0.00234908,-0.0006868,1.03921,0.00183826,0.0138585,1651,1639,10.7834,-23.5796
434,-615,10.7861,23.2515,0.000272041,0.000432863,0.0013327,0.00168757,-0.000982668,0.81553,0.00155947,0.0128824,1658,1639,10.7862,-23.2514
441,-615,10.7948,22.9222,0.000964961,0.000123195,0.000633686,0.0013048,-0.000216646,0.492258,0.000950351,0.0131624,1665,1639,10.7948,-22.9222
448,-615,10.7886,22.6049,0.00175533,-0.000475143,0.0001495,0.0017653,-0.000485119,0.066629,0.00136756,0.0147632,1672,1639,10.7885,-22.6049
455,-615,10.7667,22.2799,0.00291753,-0.000842011,-0.000602212,0.00301164,-0.000936119,-0.155017,0.00238193,0.0140383,1679,1639,10.7668,-22.2799
462,-615,10.7549,21.9357,0.0043439,-0.00111358,-0.00143658,0.00469895,-0.00146863,-0.242297,0.0037201,0.0136648,1686,1639,10.7549,-21.9357
469,-615,10.7352,21.5858,0.00606578,-0.00136529,-0.00242293,0.00678598,-0.0020855,-0.288927,0.00535624,0.0109703,1693,1639,10.7353,-21.5858
476,-615,10.734,21.249,0.00796793,-0.00148515,-0.0034464,0.009091,-0.00260821,-0.315014,0.00709178,0.0102147,1700,1639,10.734,-21.249
483,-615,10.7358,20.8584,0.0099639,-0.00100137,-0.00461691,0.0116489,-0.00268638,-0.349944,0.00879917,0.0161873,1707,1639,10.7358,-20.8584
490,-615,10.7137,20.516,0.0118584,-0.000589889,-0.00582614,0.0141598,-0.00289123,-0.37619,0.0105367,0.0219619,1714,1639,10.7138,-20.5161
497,-615,10.6765,20.2343,0.0136322,0.000239169,-0.00703714,0.0166498,-0.00277847,-0.405098,0.0121325,0.032563,1721,1639,10.6765,-20.2342
504,-615,10.4323,19.8612,0,0,0,0,0,0,0,-1,1728,1639,10.4322,-19.8612
511,-615,10.4266,19.5375,0,0,0,0,0,0,0,-1,1735,1639,10.4267,-19.5375
518,-615,13.2416,9.81812,0,0,0,0,0,0,0,-1,1742,1639,13.2416,-9.81813
525,-615,4.37524,3.90491,0,0,0,0,0,0,0,-1,1749,1639,4.37518,-3.90495
532,-615,7.3645,0.848145,0,0,0,0,0,0,0,-1,1756,1639,7.36451,-0.848093
539,-615,12.8112,-0.0476074,0,0,0,0,0,0,0,-1,1763,1639,12.8111,0.0475553
546,-615,8.33813,2.94556,0,0,0,0,0,0,0,-1,1770,1639,8.33813,-2.9455
553,-615,5.82532,-2.04199,0,0,0,0,0,0,0,-1,1777,1639,5.82534,2.04195
560,-615,0,0,0,0,0,0,0,0,0,-1,1784,1639,0,0
567,-615,0,0,0,0,0,0,0,0,0,-1,1791,1639,0,0
574,-615,0,0,0,0,0,0,0,0,0,-1,1798,1639,0,0
581,-615,0,0,0,0,0,0,0,0,0,-1,1805,1639,0,0
588,-615,0,0,0,0,0,0,0,0,0,-1,1812,1639,0,0
595,-615,0,0,0,0,0,0,0,0,0,-1,1819,1639,0,0
602,-615,0,0,0,0,0,0,0,0,0,-1,1826,1639,0,0
609,-615,0,0,0,0,0,0,0,0,0,-1,1833,1639,0,0
616,-615,0,0,0,0,0,0,0,0,0,-1,1840,1639,0,0
623,-615,0,0,0,0,0,0,0,0,0,-1,1847,1639,0,0
630,-615,0,0,0,0,0,0,0,0,0,-1,1854,1639,0,0
637,-615,0,0,0,0,0,0,0,0,0,-1,1861,1639,0,0
644,-615,0,0,0,0,0,0,0,0,0,-1,1868,1639,0,0
651,-615,0,0,0,0,0,0,0,0,0,-1,1875,1639,0,0
658,-615,0,0,0,0,0,0,0,0,0,-1,1882,1639,0,0
665,-615,0,0,0,0,0,0,0,0,0,-1,1889,1639,0,0
672,-615,0,0,0,0,0,0,0,0,0,-1,1896,1639,0,0
679,-615,0,0,0,0,0,0,0,0,0,-1,1903,1639,0,0
686,-615,0,0,0,0,0,0,0,0,0,-1,1910,1639,0,0
693,-615,0,0,0,0,0,0,0,0,0,-1,1917,1639,0,0
700,-615,0,0,0,0,0,0,0,0,0,-1,1924,1639,0,0
707,-615,0,0,0,0,0,0,0,0,0,-1,1931,1639,0,0
714,-615,0,0,0,0,0,0,0,0,0,-1,1938,1639,0,0
721,-615,0,0,0,0,0,0,0,0,0,-1,1945,1639,0,0
728,-615,0,0,0,0,0,0,0,0,0,-1,1952,1639,0,0
735,-615,0,0,0,0,0,0,0,0,0,-1,1959,1639,0,0
742,-615,0,0,0,0,0,0,0,0,0,-1,1966,1639,0,0
749,-615,0,0,0,0,0,0,0,0,0,-1,1973,1639,0,0
756,-615,0,0,0,0,0,0,0,0,0,-1,1980,1639,0,0
763,-615,0,0,0,0,0,0,0,0,0,-1,1987,1639,0,0
770,-615,0,0,0,0,0,0,0,0,0,-1,1994,1639,0,0
777,-615,0,0,0,0,0,0,0,0,0,-1,2001,1639,0,0
784,-615,0,0,0,0,0,0,0,0,0,-1,2008,1639,0,0
791,-615,0,0,0,0,0,0,0,0,0,-1,2015,1639,0,0
798,-615,0,0,0,0,0,0,0,0,0,-1,2022,1639,0,0
805,-615,0,0,0,0,0,0,0,0,0,-1,2029,1639,0,0
812,-615,0,0,0,0,0,0,0,0,0,-1,2036,1639,0,0
-700,-622,0,0,0,0,0,0,0,0,0,-1,524,1646,0,0
-693,-622,0,0,0,0,0,0,0,0,0,-1,531,1646,0,0
-686,-622,0,0,0,0,0,0,0,0,0,-1,538,1646,0,0
-679,-622,0,0,0,0,0,0,0,0,0,-1,545,1646,0,0
-672,-622,0,0,0,0,0,0,0,0,0,-1,552,1646,0,0
-665,-622,0,0,0,0,0,0,0,0,0,-1,559,1646,0,0
-658,-622,0,0,0,0,0,0,0,0,0,-1,566,1646,0,0
-651,-622,0,0,0,0,0,0,0,0,0,-1,573,1646,0,0
-644,-622,0,0,0,0,0,0,0,0,0,-1,580,1646,0,0
-637,-622,0,0,0,0,0,0,0,0,0,-1,587,1646,0,0
-630,-622,0,0,0,0,0,0,0,0,0,-1,594,1646,0,0
-623,-622,0,0,0,0,0,0,0,0,0,-1,601,1646,0,0
-616,-622,0,0,0,0,0,0,0,0,0,-1,608,1646,0,0
-609,-622,0,0,0,0,0,0,0,0,0,-1,615,1646,0,0
-602,-622,0,0,0,0,0,0,0,0,0,-1,622,1646,0,0
-595,-622,0,0,0,0,0,0,0,0,0,-1,629,1646,0,0
-588,-622,0,0,0,0,0,0,0,0,0,-1,636,1646,0,0
-581,-622,0,0,0,0,0,0,0,0,0,-1,643,1646,0,0
-574,-622,0,0,0,0,0,0,0,0,0,-1,650,1646,0,0
-567,-622,0,0,0,0,0,0,0,0,0,-1,657,1646,0,0
-560,-622,0,0,0,0,0,0,0,0,0,-1,664,1646,0,0
-553,-622,0,0,0,0,0,0,0,0,0,-1,671,1646,0,0
-546,-622,0,0,0,0,0,0,0,0,0,-1,678,1646,0,0
-539,-622,0,0,0,0,0,0,0,0,0,-1,685,1646,0,0
-532,-622,0,0,0,0,0,0,0,0,0,-1,692,1646,0,0
-525,-622,0,0,0,0,0,0,0,0,0,-1,699,1646,0,0
-518,-622,0,0,0,0,0,0,0,0,0,-1,706,1646,0,0
-511,-622,0,0,0,0,0,0,0,0,0,-1,713,1646,0,0
-504,-622,0,0,0,0,0,0,0,0,0,-1,720,1646,0,0
-497,-622,0,0,0,0,0,0,0,0,0,-1,727,1646,0,0
-490,-622,0,0,0,0,0,0,0,0,0,-1,734,1646,0,0
-483,-622,0,0,0,0,0,0,0,0,0,-1,741,1646,0,0
-476,-622,0,0,0,0,0,0,0,0,0,-1,748,1646,0,0
-469,-622,0,0,0,0,0,0,0,0,0,-1,755,1646,0,0
-462,-622,0,0,0,0,0,0,0,0,0,-1,762,1646,0,0
-455,-622,0,0,0,0,0,0,0,0,0,-1,769,1646,0,0
-448,-622,0,0,0,0,0,0,0,0,0,-1,776,1646,0,0
-441,-622,0,0,0,0,0,0,0,0,0,-1,783,1646,0,0
-434,-622,0,0,0,0,0,0,0,0,0,-1,790,1646,0,0
-427,-622,-7.62891,3.48096,0,0,0,0,0,0,0,-1,797,1646,-7.62892,-3.48092
-420,-622,-9.35791,1.77185,0,0,0,0,0,0,0,-1,804,1646,-9.35789,-1.77183
-413,-622,-8.46075,1.96777,0,0,0,0,0,0,0,-1,811,1646,-8.46074,-1.96774
-406,-622,-4.44318,2.16858,0,0,0,0,0,0,0,-1,818,1646,-4.44315,-2.16859
-399,-622,-7.06976,1.51001,0,0,0,0,0,0,0,-1,825,1646,-7.06976,-1.51005
-392,-622,3.89551,5.85376,0,0,0,0,0,0,0,-1,832,1646,3.8955,-5.85379
-385,-622,2.00543,14.0448,0,0,0,0,0,0,0,-1,839,1646,2.00544,-14.0448
-378,-622,1.49036,15.3436,0,0,0,0,0,0,0,-1,846,1646,1.49033,-15.3436
-371,-622,3.14221,17.8623,0,0,0,0,0,0,0,-1,853,1646,3.14218,-17.8623
-364,-622,3.08319,18.5219,0,0,0,0,0,0,0,-1,860,1646,3.0832,-18.5218
-357,-622,3.02423,19.1814,0,0,0,0,0,0,0,-1,867,1646,3.02421,-19.1814
-350,-622,3.42548,20.072,0,0,0,0,0,0,0,-1,874,1646,3.42549,-20.072
-343,-622,3.40973,20.3486,-0.0016119,7.43021e-05,3.57455e-05,7.50595e-05,-0.00161266,1.54961,0.00110098,0.0258296,881,1646,3.40975,-20.3487
-336,-622,3.44635,20.6915,-0.000863857,-2.19217e-05,5.41286e-05,-1.8456e-05,-0.000867323,1.50686,0.000572162,0.00981844,888,1646,3.44636,-20.6915
-329,-622,3.42065,21.0447,-0.000454109,0.000293727,3.95756e-05,0.000295816,-0.000456198,1.51807,0.000437454,0.0084143,895,1646,3.42068,-21.0447
-322,-622,3.40747,21.4202,-0.000164543,0.000405715,0.000152216,0.000443802,-0.00020263,1.32562,0.000381777,0.00917416,902,1646,3.40749,-21.4201
-315,-622,3.4032,21.7915,8.28128e-05,0.000431258,0.00023862,0.00055249,-3.84188e-05,1.10073,0.000381778,0.0132812,909,1646,3.40317,-21.7915
-308,-622,3.40533,22.1141,0.000344255,0.000423866,0.000310326,0.000696929,7.11915e-05,0.849185,0.000442801,0.0149806,916,1646,3.40535,-22.1141
-301,-622,3.41333,22.4512,0.00059452,0.000440042,0.00030594,0.00083282,0.000201742,0.66175,0.000501675,0.0133096,923,1646,3.41333,-22.4511
-294,-622,3.38861,22.8245,0.000954321,0.000608286,0.000398323,0.00121558,0.000347027,0.580511,0.000723026,0.00905062,930,1646,3.38861,-22.8245
-287,-622,3.36853,23.165,0.0013211,0.000767794,0.000470021,0.00158985,0.000499052,0.5194,0.000938852,0.00770319,937,1646,3.36852,-23.1651
-280,-622,3.36987,23.4955,0.00177623,0.00089239,0.000560812,0.00204831,0.000620304,0.451709,0.00121285,0.00887144,944,1646,3.36989,-23.4955
-273,-622,3.38605,23.8348,0.0022754,0.000976096,0.000618625,0.00252282,0.000728672,0.38047,0.00149923,0.0123476,951,1646,3.38605,-23.8349
-266,-622,3.37262,24.1652,0.00275474,0.00109582,0.000641024,0.00297357,0.00087699,0.328974,0.00176427,0.0119257,958,1646,3.3726,-24.1652
-259,-622,3.37305,24.4922,0.00331249,0.00124338,0.000695581,0.00352459,0.00103128,0.295962,0.00209247,0.0116581,965,1646,3.37307,-24.4922
-252,-622,3.38092,24.8004,0.00397316,0.00140334,0.000734672,0.00416837,0.00120813,0.259701,0.00247646,0.0125048,972,1646,3.38089,-24.8005
-245,-622,3.42639,25.1113,0.0047209,0.00156855,0.000850627,0.00493579,0.00135366,0.247442,0.0029449,0.0104435,979,1646,3.4264,-25.1113
-238,-622,3.42969,25.4346,0.00554377,0.00174123,0.000946715,0.00576643,0.00151857,0.230999,0.00345132,0.0125908,986,1646,3.42968,-25.4346
-231,-622,3.48737,25.8282,0.00665675,0.0014898,0.00125893,0.00694716,0.00119939,0.226718,0.00428793,0.0197548,993,1646,3.48734,-25.8283
-224,-622,3.57782,26.0299,0.0077228,0.00169543,0.00165648,0.00814805,0.00127019,0.251288,0.00506204,0.0340102,1000,1646,3.57781,-26.0299
-217,-622,3.66351,26.286,0,0,0,0,0,0,0,-1,1007,1646,3.6635,-26.286
-210,-622,3.94043,26.2272,0,0,0,0,0,0,0,-1,1014,1646,3.94044,-26.2272
-203,-622,4.21375,20.9574,0,0,0,0,0,0,0,-1,1021,1646,4.21375,-20.9574
-196,-622,4.18518,21.2491,0,0,0,0,0,0,0,-1,1028,1646,4.18521,-21.2491
-189,-622,4.98254,25.8979,0,0,0,0,0,0,0,-1,1035,1646,4.98255,-25.8979
-182,-622,2.21411,20.6752,0,0,0,0,0,0,0,-1,1042,1646,2.21416,-20.6751
-175,-622,2.56091,11.0195,0,0,0,0,0,0,0,-1,1049,1646,2.56095,-11.0195
-168,-622,3.06982,25.405,0,0,0,0,0,0,0,-1,1056,1646,3.06986,-25.4051
-161,-622,2.52295,25.5879,0,0,0,0,0,0,0,-1,1063,1646,2.52299,-25.5879
-154,-622,1.97607,25.7706,0,0,0,0,0,0,0,-1,1070,1646,1.97613,-25.7706
-147,-622,3.7146,25.5477,0,0,0,0,0,0,0,-1,1077,1646,3.71464,-25.5478
-140,-622,3.27515,16.0353,0,0,0,0,0,0,0,-1,1084,1646,3.27519,-16.0353
-133,-622,3.09644,17.677,0,0,0,0,0,0,0,-1,1091,1646,3.09638,-17.677
-126,-622,3.5061,19.5251,0,0,0,0,0,0,0,-1,1098,1646,3.50616,-19.5252
-119,-622,4.06384,13.1715,0,0,0,0,0,0,0,-1,1105,1646,4.06379,-13.1716
-112,-622,4.33276,14.6605,0,0,0,0,0,0,0,-1,1112,1646,4.33281,-14.6605
-105,-622,0.306519,4.38159,0,0,0,0,0,0,0,-1,1119,1646,0.306536,-4.38159
-98,-622,-0.510376,3.5033,0,0,0,0,0,0,0,-1,1126,1646,-0.510393,-3.50324
-91,-622,-1.146,0.975952,0,0,0,0,0,0,0,-1,1133,1646,-1.14599,-0.97597
-84,-622,-2.04895,1.31787,0,0,0,0,0,0,0,-1,1140,1646,-2.0489,-1.31781
-77,-622,-1.80627,0.332275,0,0,0,0,0,0,0,-1,1147,1646,-1.80622,-0.33223
-70,-622,-3.65588,2.28149,0,0,0,0,0,0,0,-1,1154,1646,-3.65589,-2.28155
-63,-622,-2.49683,1.27087,0,0,0,0,0,0,0,-1,1161,1646,-2.49679,-1.27093
-56,-622,-2.44238,-0.575562,0,0,0,0,0,0,0,-1,1168,1646,-2.44242,0.575508
-49,-622,-2.41089,1.38818,0,0,0,0,0,0,0,-1,1175,1646,-2.41088,-1.38815
-42,-622,-2.71497,2.85242,0,0,0,0,0,0,0,-1,1182,1646,-2.71491,-2.85247
-35,-622,-3.0177,4.25842,0,0,0,0,0,0,0,-1,1189,1646,-3.01773,-4.25838
-28,-622,-0.896606,0.678833,0,0,0,0,0,0,0,-1,1196,1646,-0.89661,-0.678835
-21,-622,3.69312,26.7708,0,0,0,0,0,0,0,-1,1203,1646,3.69309,-26.7708
-14,-622,2.92554,36.8906,0,0,0,0,0,0,0,-1,1210,1646,2.92556,-36.8906
-7,-622,3.82739,37.1531,0,0,0,0,0,0,0,-1,1217,1646,3.82739,-37.153
0,-622,0,0,0,0,0,0,0,0,0,-1,1224,1646,0,0
7,-622,0,0,0,0,0,0,0,0,0,-1,1231,1646,0,0
14,-622,0,0,0,0,0,0,0,0,0,-1,1238,1646,0,0
21,-622,0,0,0,0,0,0,0,0,0,-1,1245,1646,0,0
28,-622,0,0,0,0,0,0,0,0,0,-1,1252,1646,0,0
35,-622,0,0,0,0,0,0,0,0,0,-1,1259,1646,0,0
42,-622,0,0,0,0,0,0,0,0,0,-1,1266,1646,0,0
49,-622,0,0,0,0,0,0,0,0,0,-1,1273,1646,0,0
56,-622,0,0,0,0,0,0,0,0,0,-1,1280,1646,0,0
63,-622,0,0,0,0,0,0,0,0,0,-1,1287,1646,0,0
70,-622,0,0,0,0,0,0,0,0,0,-1,1294,1646,0,0
77,-622,0,0,0,0,0,0,0,0,0,-1,1301,1646,0,0
84,-622,0,0,0,0,0,0,0,0,0,-1,1308,1646,0,0
91,-622,0,0,0,0,0,0,0,0,0,-1,1315,1646,0,0
98,-622,0,0,0,0,0,0,0,0,0,-1,1322,1646,0,0
105,-622,0,0,0,0,0,0,0,0,0,-1,1329,1646,0,0
112,-622,0,0,0,0,0,0,0,0,0,-1,1336,1646,0,0
119,-622,0,0,0,0,0,0,0,0,0,-1,1343,1646,0,0
126,-622,1.69116,27.097,0.0703043,-0.0181282,-0.0794985,0.117056,-0.0648795,-0.531607,0.10647,0.0463431,1350,1646,1.69115,-27.097
133,-622,2.40906,26.7802,0.098667,-0.0226949,-0.0797272,0.138179,-0.0622067,-0.460112,0.118432,0.0467366,1357,1646,2.40903,-26.7801
140,-622,3.47827,26.7289,0,0,0,0,0,0,0,-1,1364,1646,3.47821,-26.7289
147,-622,4.55933,26.6584,0,0,0,0,0,0,0,-1,1371,1646,4.55936,-26.6585
154,-622,9.93933,36.5293,0,0,0,0,0,0,0,-1,1378,1646,9.93937,-36.5293
161,-622,10.6884,6.46448,0,0,0,0,0,0,0,-1,1385,1646,10.6883,-6.46442
168,-622,12.2402,5.18091,0,0,0,0,0,0,0,-1,1392,1646,12.2403,-5.1809
175,-622,5.64355,-1.77075,0,0,0,0,0,0,0,-1,1399,1646,5.64351,1.77077
182,-622,5.88586,-1.32251,0,0,0,0,0,0,0,-1,1406,1646,5.88587,1.32256
189,-622,5.97986,-1.18005,0,0,0,0,0,0,0,-1,1413,1646,5.97986,1.18003
196,-622,5.85022,-0.244507,0,0,0,0,0,0,0,-1,1420,1646,5.85026,0.244478
203,-622,5.25159,0.138794,0,0,0,0,0,0,0,-1,1427,1646,5.25162,-0.138822
210,-622,6.66833,0.0397949,0,0,0,0,0,0,0,-1,1434,1646,6.6684,-0.0398278
217,-622,6.12061,0.0506592,0,0,0,0,0,0,0,-1,1441,1646,6.12058,-0.0507181
224,-622,5.57275,0.0616455,0,0,0,0,0,0,0,-1,1448,1646,5.57276,-0.0616084
231,-622,5.31348,1.3949,0,0,0,0,0,0,0,-1,1455,1646,5.31342,-1.39495
238,-622,3.76477,2.90686,0,0,0,0,0,0,0,-1,1462,1646,3.7648,-2.90686
245,-622,5.13794,2.67993,0,0,0,0,0,0,0,-1,1469,1646,5.13796,-2.67992
252,-622,6.66528,2.53992,0,0,0,0,0,0,0,-1,1476,1646,6.66522,-2.53991
259,-622,8.93787,3.31458,0,0,0,0,0,0,0,-1,1483,1646,8.93791,-3.31454
266,-622,5.72644,3.11926,0,0,0,0,0,0,0,-1,1490,1646,5.72647,-3.1192
273,-622,7.28076,3.61218,0,0,0,0,0,0,0,-1,1497,1646,7.28071,-3.61212
280,-622,8.43127,4.4447,0,0,0,0,0,0,0,-1,1504,1646,8.43123,-4.44467
287,-622,8.60315,5.94617,0,0,0,0,0,0,0,-1,1511,1646,8.60319,-5.94622
294,-622,7.62756,11.5143,0,0,0,0,0,0,0,-1,1518,1646,7.62762,-11.5143
301,-622,7.36548,11.6569,0,0,0,0,0,0,0,-1,1525,1646,7.36549,-11.6569
308,-622,7.10339,11.7994,0,0,0,0,0,0,0,-1,1532,1646,7.10335,-11.7995
315,-622,8.28687,16.5842,0,0,0,0,0,0,0,-1,1539,1646,8.28689,-16.5843
322,-622,7.43689,20.5786,0,0,0,0,0,0,0,-1,1546,1646,7.43685,-20.5786
329,-622,9.76477,26.4202,0,0,0,0,0,0,0,-1,1553,1646,9.7648,-26.4202
336,-622,10.2446,27.5854,0,0,0,0,0,0,0,-1,1560,1646,10.2446,-27.5854
343,-622,9.98206,27.1871,0,0,0,0,0,0,0,-1,1567,1646,9.982,-27.1871
350,-622,10.4219,26.9131,0,0,0,0,0,0,0,-1,1574,1646,10.4219,-26.913
357,-622,10.132,27.0568,0.0103015,0.0218907,-0.0105181,0.0281047,0.00408743,-1.03717,0.0175336,0.0499351,1581,1646,10.1319,-27.0567
364,-622,10.3638,26.6028,0.00946102,0.0196702,-0.00930802,0.0251814,0.00394976,-1.03621,0.0156382,0.0376635,1588,1646,10.3638,-26.6028
371,-622,10.4856,26.0342,0.00840749,0.0170174,-0.00763565,0.021478,0.00394683,-1.04208,0.0132012,0.0231662,1595,1646,10.4856,-26.0341
378,-622,10.4622,25.7129,0.00712915,0.0145708,-0.00606939,0.0179691,0.00373086,-1.06038,0.0109498,0.0112471,1602,1646,10.4622,-25.7129
385,-622,10.4471,25.4313,0.00585685,0.0120489,-0.00475854,0.0146299,0.0032758,-1.0738,0.00886542,0.00961492,1609,1646,10.4472,-25.4312
392,-622,10.4456,25.1499,0.0047041,0.00950979,-0.00338335,0.0112567,0.00295716,-1.09417,0.00673864,0.0103963,1616,1646,10.4456,-25.1499
399,-622,10.449,24.8354,0.00343404,0.00724891,-0.0020891,0.00817038,0.00251258,-1.15538,0.00483227,0.0114855,1623,1646,10.449,-24.8355
406,-622,10.427,24.499,0.00226835,0.00527078,-0.00109148,0.00562563,0.0019135,-1.25647,0.00330283,0.0148764,1630,1646,10.4269,-24.4991
413,-622,10.4193,24.1838,0.00128766,0.00340443,-0.000244615,0.00343233,0.00125976,-1.45723,0.00200488,0.0160674,1637,1646,10.4193,-24.1838
420,-622,10.4348,23.9044,0.000594506,0.00198782,0.000290282,0.00204588,0.000536448,1.3734,0.00122491,0.0149606,1644,1646,10.4348,-23.9045
427,-622,10.453,23.5894,0.000321181,0.000678253,0.00073174,0.00125292,-0.000253488,0.905054,0.000931348,0.0113187,1651,1646,10.453,-23.5894
434,-622,10.4641,23.2582,0.000834283,-0.000503922,0.000765553,0.00118192,-0.000851564,0.426263,0.00117919,0.0116867,1658,1646,10.4642,-23.2582
441,-622,10.4565,22.9418,0.00178612,-0.000750685,4.64956e-05,0.00178698,-0.000751537,0.0183202,0.0015057,0.0131723,1665,1646,10.4566,-22.9418
448,-622,10.4244,22.6249,0.00283738,-0.00138889,-0.000399879,0.00287489,-0.00142639,-0.0935118,0.00252985,0.0131751,1672,1646,10.4244,-22.6249
455,-622,10.3896,22.2719,0.00432414,-0.00184242,-0.00109391,0.00451244,-0.00203072,-0.170467,0.00386721,0.0147567,1679,1646,10.3897,-22.2719
462,-622,10.4208,21.9283,0.00615807,-0.00225093,-0.00188997,0.00656332,-0.00265619,-0.211224,0.0054799,0.0167143,1686,1646,10.4208,-21.9284
469,-622,10.4053,21.5835,0.00844163,-0.00255295,-0.00294315,0.00917991,-0.00329123,-0.245776,0.00746298,0.0176348,1693,1646,10.4053,-21.5835
476,-622,10.4429,21.2638,0.0110907,-0.0026889,-0.00410022,0.0122185,-0.00381665,-0.268409,0.00967222,0.0194884,1700,1646,10.4428,-21.2638
483,-622,10.4043,20.9454,0.0139434,-0.00207187,-0.00554462,0.0156757,-0.00380409,-0.302809,0.0119225,0.0289348,1707,1646,10.4043,-20.9455
490,-622,10.4507,20.5315,0.0168123,-0.00140935,-0.00721419,0.0193227,-0.00391969,-0.334868,0.0143677,0.0352759,1714,1646,10.4507,-20.5314
497,-622,10.3992,20.4379,0,0,0,0,0,0,0,-1,1721,1646,10.3992,-20.4379
504,-622,10.1399,18.9224,0,0,0,0,0,0,0,-1,1728,1646,10.1398,-18.9224
511,-622,5.29004,4.14587,0,0,0,0,0,0,0,-1,1735,1646,5.29008,-4.14589
518,-622,5.6001,1.55359,0,0,0,0,0,0,0,-1,1742,1646,5.60015,-1.5536
525,-622,5.83093,2.01807,0,0,0,0,0,0,0,-1,1749,1646,5.83097,-2.01802
532,-622,5.44202,0.57373,0,0,0,0,0,0,0,-1,1756,1646,5.44196,-0.573705
539,-622,9.32129,1.06116,0,0,0,0,0,0,0,-1,1763,1646,9.32131,-1.0612
546,-622,6.50977,-3.45618,0,0,0,0,0,0,0,-1,1770,1646,6.50981,3.4562
553,-622,0,0,0,0,0,0,0,0,0,-1,1777,1646,0,0
560,-622,0,0,0,0,0,0,0,0,0,-1,1784,1646,0,0
567,-622,0,0,0,0,0,0,0,0,0,-1,1791,1646,0,0
574,-622,0,0,0,0,0,0,0,0,0,-1,1798,1646,0,0
581,-622,0,0,0,0,0,0,0,0,0,-1,1805,1646,0,0
588,-622,0,0,0,0,0,0,0,0,0,-1,1812,1646,0,0
595,-622,0,0,0,0,0,0,0,0,0,-1,1819,1646,0,0
602,-622,0,0,0,0,0,0,0,0,0,-1,1826,1646,0,0
609,-622,0,0,0,0,0,0,0,0,0,-1,1833,1646,0,0
616,-622,0,0,0,0,0,0,0,0,0,-1,1840,1646,0,0
623,-622,0,0,0,0,0,0,0,0,0,-1,1847,1646,0,0
630,-622,0,0,0,0,0,0,0,0,0,-1,1854,1646,0,0
637,-622,0,0,0,0,0,0,0,0,0,-1,1861,1646,0,0
644,-622,0,0,0,0,0,0,0,0,0,-1,1868,1646,0,0
651,-622,0,0,0,0,0,0,0,0,0,-1,1875,1646,0,0
658,-622,0,0,0,0,0,0,0,0,0,-1,1882,1646,0,0
665,-622,0,0,0,0,0,0,0,0,0,-1,1889,1646,0,0
672,-622,0,0,0,0,0,0,0,0,0,-1,1896,1646,0,0
679,-622,0,0,0,0,0,0,0,0,0,-1,1903,1646,0,0
686,-622,0,0,0,0,0,0,0,0,0,-1,1910,1646,0,0
693,-622,0,0,0,0,0,0,0,0,0,-1,1917,1646,0,0
700,-622,0,0,0,0,0,0,0,0,0,-1,1924,1646,0,0
707,-622,0,0,0,0,0,0,0,0,0,-1,1931,1646,0,0
714,-622,0,0,0,0,0,0,0,0,0,-1,1938,1646,0,0
721,-622,0,0,0,0,0,0,0,0,0,-1,1945,1646,0,0
728,-622,0,0,0,0,0,0,0,0,0,-1,1952,1646,0,0
735,-622,0,0,0,0,0,0,0,0,0,-1,1959,1646,0,0
742,-622,0,0,0,0,0,0,0,0,0,-1,1966,1646,0,0
749,-622,0,0,0,0,0,0,0,0,0,-1,1973,1646,0,0
756,-622,0,0,0,0,0,0,0,0,0,-1,1980,1646,0,0
763,-622,0,0,0,0,0,0,0,0,0,-1,1987,1646,0,0
770,-622,0,0,0,0,0,0,0,0,0,-1,1994,1646,0,0
777,-622,0,0,0,0,0,0,0,0,0,-1,2001,1646,0,0
784,-622,0,0,0,0,0,0,0,0,0,-1,2008,1646,0,0
791,-622,0,0,0,0,0,0,0,0,0,-1,2015,1646,0,0
798,-622,0,0,0,0,0,0,0,0,0,-1,2022,1646,0,0
805,-622,0,0,0,0,0,0,0,0,0,-1,2029,1646,0,0
812,-622,0,0,0,0,0,0,0,0,0,-1,2036,1646,0,0
-700,-629,0,0,0,0,0,0,0,0,0,-1,524,1653,0,0
-693,-629,0,0,0,0,0,0,0,0,0,-1,531,1653,0,0
-686,-629,0,0,0,0,0,0,0,0,0,-1,538,1653,0,0
-679,-629,0,0,0,0,0,0,0,0,0,-1,545,1653,0,0
-672,-629,0,0,0,0,0,0,0,0,0,-1,552,1653,0,0
-665,-629,0,0,0,0,0,0,0,0,0,-1,559,1653,0,0
-658,-629,0,0,0,0,0,0,0,0,0,-1,566,1653,0,0
-651,-629,0,0,0,0,0,0,0,0,0,-1,573,1653,0,0
-644,-629,0,0,0,0,0,0,0,0,0,-1,580,1653,0,0
-637,-629,0,0,0,0,0,0,0,0,0,-1,587,1653,0,0
-630,-629,0,0,0,0,0,0,0,0,0,-1,594,1653,0,0
-623,-629,0,0,0,0,0,0,0,0,0,-1,601,1653,0,0
-616,-629,0,0,0,0,0,0,0,0,0,-1,608,1653,0,0
-609,-629,0,0,0,0,0,0,0,0,0,-1,615,1653,0,0
-602,-629,0,0,0,0,0,0,0,0,0,-1,622,1653,0,0
-595,-629,0,0,0,0,0,0,0,0,0,-1,629,1653,0,0
-588,-629,0,0,0,0,0,0,0,0,0,-1,636,1653,0,0
-581,-629,0,0,0,0,0,0,0,0,0,-1,643,1653,0,0
-574,-629,0,0,0,0,0,0,0,0,0,-1,650,1653,0,0
-567,-629,0,0,0,0,0,0,0,0,0,-1,657,1653,0,0
-560,-629,0,0,0,0,0,0,0,0,0,-1,664,1653,0,0
-553,-629,0,0,0,0,0,0,0,0,0,-1,671,1653,0,0
-546,-629,0,0,0,0,0,0,0,0,0,-1,678,1653,0,0
-539,-629,0,0,0,0,0,0,0,0,0,-1,685,1653,0,0
-532,-629,0,0,0,0,0,0,0,0,0,-1,692,1653,0,0
-525,-629,0,0,0,0,0,0,0,0,0,-1,699,1653,0,0
-518,-629,0,0,0,0,0,0,0,0,0,-1,706,1653,0,0
-511,-629,0,0,0,0,0,0,0,0,0,-1,713,1653,0,0
-504,-629,0,0,0,0,0,0,0,0,0,-1,720,1653,0,0
-497,-629,0,0,0,0,0,0,0,0,0,-1,727,1653,0,0
-490,-629,0,0,0,0,0,0,0,0,0,-1,734,1653,0,0
-483,-629,0,0,0,0,0,0,0,0,0,-1,741,1653,0,0
-476,-629,0,0,0,0,0,0,0,0,0,-1,748,1653,0,0
-469,-629,0,0,0,0,0,0,0,0,0,-1,755,1653,0,0
-462,-629,0,0,0,0,0,0,0,0,0,-1,762,1653,0,0
-455,-629,0,0,0,0,0,0,0,0,0,-1,769,1653,0,0
-448,-629,0,0,0,0,0,0,0,0,0,-1,776,1653,0,0
-441,-629,0,0,0,0,0,0,0,0,0,-1,783,1653,0,0
-434,-629,0,0,0,0,0,0,0,0,0,-1,790,1653,0,0
-427,-629,0,0,0,0,0,0,0,0,0,-1,797,1653,0,0
-420,-629,-3.87103,3.37634,0,0,0,0,0,0,0,-1,804,1653,-3.87101,-3.37633
-413,-629,-5.69751,1.33582,0,0,0,0,0,0,0,-1,811,1653,-5.69754,-1.3358
-406,-629,2.85406,6.01501,0,0,0,0,0,0,0,-1,818,1653,2.85405,-6.01507
-399,-629,-0.455627,10.8687,0,0,0,0,0,0,0,-1,825,1653,-0.455625,-10.8687
-392,-629,1.15369,11.1295,0,0,0,0,0,0,0,-1,832,1653,1.1537,-11.1295
-385,-629,1.81976,11.6935,0,0,0,0,0,0,0,-1,839,1653,1.81975,-11.6935
-378,-629,2.19452,14.7941,0,0,0,0,0,0,0,-1,846,1653,2.19451,-14.7941
-371,-629,3.60114,14.7299,0,0,0,0,0,0,0,-1,853,1653,3.60113,-14.7299
-364,-629,3.12482,18.519,0,0,0,0,0,0,0,-1,860,1653,3.1248,-18.519
-357,-629,4.38782,16.3444,0,0,0,0,0,0,0,-1,867,1653,4.38783,-16.3443
-350,-629,3.75519,20.0388,0,0,0,0,0,0,0,-1,874,1653,3.75522,-20.0389
-343,-629,3.78638,20.3873,-0.00180841,0.000419437,-0.000313836,0.000462803,-0.00185178,-1.43349,0.00141426,0.043204,881,1653,3.78639,-20.3874
-336,-629,3.76703,20.6949,-0.00114098,0.000205722,-0.000215469,0.000239356,-0.00117461,-1.41595,0.000873856,0.0193258,888,1653,3.76704,-20.6949
-329,-629,3.78748,21.0594,-0.000684752,0.000445908,-0.000111534,0.000456805,-0.000695649,-1.4734,0.000670116,0.0116805,895,1653,3.78746,-21.0595
-322,-629,3.77289,21.4115,-0.000316453,0.00044837,0.000103688,0.000462178,-0.000330261,1.43841,0.000459623,0.0111294,902,1653,3.77288,-21.4116
-315,-629,3.73303,21.7839,-2.46847e-05,0.00034827,0.000268822,0.000488962,-0.000165376,1.08864,0.000392878,0.0153111,909,1653,3.73303,-21.7839
-308,-629,3.73236,22.1401,0.000267359,0.000254473,0.000411701,0.000672667,-0.000150835,0.777574,0.000506269,0.0135406,916,1653,3.73239,-22.1402
-301,-629,3.75574,22.5111,0.000552614,0.000225284,0.000479799,0.000895894,-0.000117996,0.621031,0.00064023,0.0110966,923,1653,3.75576,-22.5111
-294,-629,3.73358,22.8534,0.000903669,0.000324932,0.000589987,0.00127143,-4.28284e-05,0.557403,0.000862251,0.0109768,930,1653,3.73358,-22.8534
-287,-629,3.72162,23.1652,0.00123966,0.000432764,0.000674402,0.00162208,5.03443e-05,0.515839,0.001065,0.00842172,937,1653,3.7216,-23.1652
-280,-629,3.72217,23.4999,0.00159882,0.000525162,0.000739964,0.00197617,0.000147807,0.471587,0.00127105,0.00939574,944,1653,3.72215,-23.4998
-273,-629,3.71899,23.8344,0.00197538,0.000598885,0.000769132,0.00231924,0.000255024,0.420421,0.00146855,0.0131401,951,1653,3.71898,-23.8343
-266,-629,3.71942,24.1748,0.00230818,0.000712368,0.000748799,0.00260451,0.000416037,0.37683,0.00161562,0.0136897,958,1653,3.71944,-24.1748
-259,-629,3.72577,24.5299,0.0026671,0.000885876,0.000756971,0.00294533,0.000607645,0.352231,0.00179561,0.0151385,965,1653,3.72574,-24.5299
-252,-629,3.71301,24.8105,0.00307786,0.00109867,0.000714761,0.00330899,0.000867533,0.31276,0.00198118,0.0115139,972,1653,3.71301,-24.8105
-245,-629,3.73383,25.13,0.00355719,0.00130491,0.00073658,0.00377669,0.00108542,0.289618,0.00224521,0.00834458,979,1653,3.73383,-25.13
-238,-629,3.73792,25.4457,0.00413483,0.00151095,0.000755248,0.00433669,0.00130909,0.261169,0.00256848,0.0106736,986,1653,3.73794,-25.4457
-231,-629,3.71051,25.7468,0.00496914,0.00141285,0.000966599,0.00521488,0.00116711,0.248958,0.00316023,0.0134369,993,1653,3.71052,-25.7469
-224,-629,3.79712,26.1356,0.00589022,0.0017475,0.00128785,0.00625793,0.00137978,0.278125,0.00379655,0.0163737,1000,1653,3.79712,-26.1356
-217,-629,3.74976,26.3678,0.00688553,0.0021987,0.00164526,0.00740542,0.00167882,0.306059,0.00448336,0.028157,1007,1653,3.74974,-26.3678
-210,-629,3.63586,26.9987,0,0,0,0,0,0,0,-1,1014,1653,3.63587,-26.9986
-203,-629,3.78967,27.5123,0,0,0,0,0,0,0,-1,1021,1653,3.78965,-27.5124
-196,-629,4.26892,27.4037,0,0,0,0,0,0,0,-1,1028,1653,4.26896,-27.4037
-189,-629,4.15088,27.5431,0,0,0,0,0,0,0,-1,1035,1653,4.1509,-27.5431
-182,-629,4.38489,27.7518,0,0,0,0,0,0,0,-1,1042,1653,4.38494,-27.7518
-175,-629,3.29102,19.1411,0,0,0,0,0,0,0,-1,1049,1653,3.29096,-19.1411
-168,-629,5.80334,27.567,0,0,0,0,0,0,0,-1,1056,1653,5.80329,-27.567
-161,-629,4.00061,29.0259,0,0,0,0,0,0,0,-1,1063,1653,4.00061,-29.0259
-154,-629,3.72168,29.1036,0,0,0,0,0,0,0,-1,1070,1653,3.7217,-29.1036
-147,-629,3.97644,26.3405,0,0,0,0,0,0,0,-1,1077,1653,3.9764,-26.3405
-140,-629,2.34851,19.2911,0,0,0,0,0,0,0,-1,1084,1653,2.34853,-19.2911
-133,-629,3.41248,17.6686,0,0,0,0,0,0,0,-1,1091,1653,3.41243,-17.6686
-126,-629,4.01025,19.5328,0,0,0,0,0,0,0,-1,1098,1653,4.01022,-19.5328
-119,-629,4.94177,13.5525,0,0,0,0,0,0,0,-1,1105,1653,4.94172,-13.5525
-112,-629,5.63123,15.9187,0,0,0,0,0,0,0,-1,1112,1653,5.63118,-15.9187
-105,-629,2.15881,4.38342,0,0,0,0,0,0,0,-1,1119,1653,2.15878,-4.38347
-98,-629,0.825806,4.19385,0,0,0,0,0,0,0,-1,1126,1653,0.825779,-4.1939
-91,-629,-0.452271,3.64465,0,0,0,0,0,0,0,-1,1133,1653,-0.452278,-3.6446
-84,-629,-2.6084,0.466797,0,0,0,0,0,0,0,-1,1140,1653,-2.6084,-0.466786
-77,-629,-3.50903,2.10706,0,0,0,0,0,0,0,-1,1147,1653,-3.509,-2.10707
-70,-629,-1.20886,2.52502,0,0,0,0,0,0,0,-1,1154,1653,-1.20886,-2.525
-63,-629,-0.960693,4.30212,0,0,0,0,0,0,0,-1,1161,1653,-0.960691,-4.30215
-56,-629,-1.31934,5.64343,0,0,0,0,0,0,0,-1,1168,1653,-1.31928,-5.6434
-49,-629,-2.15662,2.57458,0,0,0,0,0,0,0,-1,1175,1653,-2.15656,-2.57459
-42,-629,-2.46326,3.91467,0,0,0,0,0,0,0,-1,1182,1653,-2.4633,-3.91466
-35,-629,-2.67261,5.24292,0,0,0,0,0,0,0,-1,1189,1653,-2.67257,-5.24298
-28,-629,-0.402954,-0.866577,0,0,0,0,0,0,0,-1,1196,1653,-0.402943,0.866612
-21,-629,3.45508,27.0596,0,0,0,0,0,0,0,-1,1203,1653,3.45508,-27.0596
-14,-629,2.87146,37.087,0,0,0,0,0,0,0,-1,1210,1653,2.87143,-37.087
-7,-629,3.80481,37.3392,0,0,0,0,0,0,0,-1,1217,1653,3.80486,-37.3392
0,-629,4.72485,37.5277,0,0,0,0,0,0,0,-1,1224,1653,4.72485,-37.5277
7,-629,5.56152,37.0168,0,0,0,0,0,0,0,-1,1231,1653,5.5615,-37.0169
14,-629,7.67346,37.4277,0.0706746,-0.0853753,0.0476824,0.0840909,-0.0987916,0.274277,0.105701,0.0437495,1238,1653,7.67348,-37.4278
21,-629,7.78186,36.8612,0.0574334,-0.0672382,0.0354793,0.066823,-0.0766278,0.258718,0.0828858,0.0434422,1245,1653,7.78184,-36.8612
28,-629,7.87622,36.4198,0.0403087,-0.0491653,0.0225674,0.0456785,-0.0545351,0.233599,0.0579336,0.0460319,1252,1653,7.87618,-36.4198
35,-629,7.91797,37.1108,0.0202645,-0.0331815,0.0100346,0.0220864,-0.0350035,0.179606,0.0332409,0.0452814,1259,1653,7.91792,-37.1108
42,-629,7.89709,36.6206,-0.000630931,-0.0185082,-0.00188381,-0.000434582,-0.0187046,-0.103854,0.0123274,0.0478541,1266,1653,7.89715,-36.6206
49,-629,9.11597,37.0463,-0.0226208,-0.00722179,-0.0122605,-0.000443663,-0.0293989,-1.06577,0.0194531,0.0458633,1273,1653,9.11593,-37.0463
56,-629,8.46692,36.4376,-0.042729,-0.00094612,-0.0213232,0.00801422,-0.0516894,-1.17298,0.0374182,0.0468665,1280,1653,8.46694,-36.4376
63,-629,7.75012,36.0271,-0.0607513,0.000528179,-0.0293183,0.0122954,-0.0725186,-1.18912,0.0529225,0.0429467,1287,1653,7.75015,-36.0271
70,-629,6.76135,35.0685,-0.0653841,-0.000516831,-0.0364332,0.0158278,-0.0817288,-1.14909,0.0604564,0.0440474,1294,1653,6.76139,-35.0685
77,-629,5.74927,34.1486,-0.0607889,-0.00070724,-0.0428607,0.0215921,-0.0830882,-1.09106,0.0638189,0.0447839,1301,1653,5.7493,-34.1486
84,-629,4.00452,33.7299,-0.0521209,-0.000567022,-0.049115,0.0291244,-0.0818123,-1.02705,0.0664136,0.0437247,1308,1653,4.00454,-33.7298
91,-629,2.79907,33.2092,0,0,0,0,0,0,0,-1,1315,1653,2.79909,-33.2092
98,-629,1.6897,32.6731,-0.0301209,-0.0125172,-0.0567504,0.0361099,-0.078748,-0.862334,0.0678192,0.0465602,1322,1653,1.68973,-32.6731
105,-629,0.541748,32.5582,0,0,0,0,0,0,0,-1,1329,1653,0.541804,-32.5583
112,-629,-0.859375,32.3097,0,0,0,0,0,0,0,-1,1336,1653,-0.8594,-32.3097
119,-629,1.88635,27.3623,0.036798,-0.0360114,-0.0651549,0.0750288,-0.0742422,-0.530634,0.0861821,0.04389,1343,1653,1.88637,-27.3623
126,-629,2.59985,27.1655,0.061943,-0.0422923,-0.0667094,0.0944799,-0.0748293,-0.453792,0.0979699,0.0435647,1350,1653,2.59982,-27.1655
133,-629,3.30042,26.9396,0.0832727,-0.0490163,-0.0673632,0.111536,-0.07728,-0.397263,0.10961,0.0487667,1357,1653,3.30042,-26.9396
140,-629,4.03711,26.7417,0,0,0,0,0,0,0,-1,1364,1653,4.03706,-26.7417
147,-629,8.42822,34.9117,0,0,0,0,0,0,0,-1,1371,1653,8.42823,-34.9117
154,-629,10.6113,33.5126,0,0,0,0,0,0,0,-1,1378,1653,10.6113,-33.5126
161,-629,10.5461,6.83752,0,0,0,0,0,0,0,-1,1385,1653,10.5461,-6.83758
168,-629,12.0059,5.56348,0,0,0,0,0,0,0,-1,1392,1653,12.0059,-5.56352
175,-629,5.84485,-1.78845,0,0,0,0,0,0,0,-1,1399,1653,5.84479,1.7884
182,-629,5.99036,-1.27783,0,0,0,0,0,0,0,-1,1406,1653,5.99041,1.27778
189,-629,5.97668,-0.748535,0,0,0,0,0,0,0,-1,1413,1653,5.97671,0.748544
196,-629,4.52869,9.24695,0,0,0,0,0,0,0,-1,1420,1653,4.52869,-9.2469
203,-629,3.75085,6.88037,0,0,0,0,0,0,0,-1,1427,1653,3.75087,-6.88032
210,-629,3.5907,6.52637,0,0,0,0,0,0,0,-1,1434,1653,3.59067,-6.52642
217,-629,2.4585,4.84448,0,0,0,0,0,0,0,-1,1441,1653,2.45855,-4.84448
224,-629,1.31982,3.68481,0,0,0,0,0,0,0,-1,1448,1653,1.31986,-3.68487
231,-629,3.63025,1.73499,0,0,0,0,0,0,0,-1,1455,1653,3.6303,-1.735
238,-629,4.26428,2.11255,0,0,0,0,0,0,0,-1,1462,1653,4.26429,-2.11253
245,-629,5.61816,1.95361,0,0,0,0,0,0,0,-1,1469,1653,5.61815,-1.95359
252,-629,7.27136,2.18982,0,0,0,0,0,0,0,-1,1476,1653,7.27131,-2.18985
259,-629,8.67334,2.18628,0,0,0,0,0,0,0,-1,1483,1653,8.6733,-2.18633
266,-629,6.86475,3.72058,0,0,0,0,0,0,0,-1,1490,1653,6.86479,-3.72063
273,-629,7.9021,3.8717,0,0,0,0,0,0,0,-1,1497,1653,7.90205,-3.87171
280,-629,9.70837,4.39087,0,0,0,0,0,0,0,-1,1504,1653,9.7084,-4.39082
287,-629,9.82947,7.19348,0,0,0,0,0,0,0,-1,1511,1653,9.8295,-7.19347
294,-629,6.56555,11.6359,0,0,0,0,0,0,0,-1,1518,1653,6.5656,-11.6358
301,-629,6.93835,15.6102,0,0,0,0,0,0,0,-1,1525,1653,6.93835,-15.6103
308,-629,6.08264,12.1423,0,0,0,0,0,0,0,-1,1532,1653,6.08263,-12.1423
315,-629,6.82043,18.2764,0,0,0,0,0,0,0,-1,1539,1653,6.82049,-18.2764
322,-629,9.15906,26.3816,0,0,0,0,0,0,0,-1,1546,1653,9.1591,-26.3816
329,-629,9.90833,27.7839,0,0,0,0,0,0,0,-1,1553,1653,9.90829,-27.7839
336,-629,10.0416,27.4973,0.0083562,0.0174371,-0.00767206,0.0218116,0.00398171,-1.05259,0.0134123,0.0499189,1560,1653,10.0416,-27.4973
343,-629,9.90234,27.1707,0.0081491,0.017703,-0.0079744,0.0222217,0.00363033,-1.05525,0.0137649,0.0472901,1567,1653,9.90231,-27.1706
350,-629,10.1002,26.8818,0.00792733,0.0172853,-0.00794991,0.0218309,0.00338166,-1.05138,0.013568,0.0290081,1574,1653,10.1002,-26.8819
357,-629,10.1481,26.541,0.00752324,0.0161263,-0.00740413,0.0203878,0.00326181,-1.04855,0.0126456,0.0159425,1581,1653,10.1481,-26.541
364,-629,10.1301,26.2521,0.00698705,0.0146629,-0.0067103,0.0185553,0.00309466,-1.04517,0.0114785,0.0130872,1588,1653,10.1301,-26.2521
371,-629,10.1405,25.9786,0.00626076,0.0128212,-0.00567064,0.016092,0.00298993,-1.04761,0.00988326,0.0106548,1595,1653,10.1405,-25.9786
378,-629,10.1407,25.7026,0.00535195,0.0109942,-0.00462809,0.0135932,0.00275292,-1.05911,0.00829813,0.0104417,1602,1653,10.1408,-25.7027
385,-629,10.1454,25.4215,0.00443744,0.00904372,-0.00371713,0.0111134,0.00236777,-1.06275,0.00675935,0.0121629,1609,1653,10.1453,-25.4215
392,-629,10.1356,25.1426,0.00358704,0.00696911,-0.0027338,0.00849262,0.00206354,-1.06238,0.00511459,0.0101425,1616,1653,10.1356,-25.1426
399,-629,10.1399,24.8268,0.00258799,0.00511846,-0.00177624,0.00603402,0.00167244,-1.09487,0.00359721,0.0116302,1623,1653,10.1399,-24.8267
406,-629,10.1449,24.4901,0.00165595,0.00347543,-0.00101087,0.00392565,0.00120573,-1.15179,0.00232199,0.0149936,1630,1653,10.1449,-24.4901
413,-629,10.1235,24.1997,0.000869334,0.00192185,-0.000350068,0.00202765,0.000763536,-1.2773,0.00118249,0.0228882,1637,1653,10.1235,-24.1997
420,-629,10.1035,23.9285,0.000309433,0.000688088,9.63381e-05,0.000711189,0.000286332,1.33545,0.000413194,0.0212885,1644,1653,10.1035,-23.9284
427,-629,10.1234,23.6107,0.00024591,-0.000499396,0.000477448,0.00047892,-0.000732406,0.454027,0.000704445,0.013054,1651,1653,10.1235,-23.6107
434,-629,10.1248,23.2849,0.00111448,-0.00169344,0.000509679,0.00120414,-0.00178309,0.174117,0.00173544,0.0100629,1658,1653,10.1247,-23.285
441,-629,10.1185,22.9778,0.00235445,-0.0018589,-0.000251389,0.0023694,-0.00187385,-0.059384,0.0024554,0.0142693,1665,1653,10.1185,-22.9778
448,-629,10.0931,22.6246,0.00373821,-0.00249324,-0.000683769,0.00381236,-0.00256739,-0.108016,0.00370665,0.0151011,1672,1653,10.0931,-22.6246
455,-629,10.0754,22.2672,0.00567833,-0.00300475,-0.00134891,0.00588305,-0.00320948,-0.150622,0.00532468,0.014853,1679,1653,10.0755,-22.2673
462,-629,10.1013,21.9493,0.00808611,-0.00359222,-0.00211937,0.00845884,-0.00396494,-0.174086,0.00732762,0.0179292,1686,1653,10.1014,-21.9494
469,-629,10.0765,21.5984,0.0111642,-0.00399408,-0.00325646,0.0118341,-0.00466406,-0.202907,0.00982051,0.0210581,1693,1653,10.0765,-21.5984
476,-629,10.1124,21.3317,0.0148862,-0.00420871,-0.00459103,0.0159327,-0.00525519,-0.224111,0.0127401,0.0317731,1700,1653,10.1124,-21.3316
483,-629,10.1904,20.972,0.0190168,-0.00353544,-0.00638683,0.0206999,-0.00521859,-0.257675,0.0158289,0.0456191,1707,1653,10.1904,-20.972
490,-629,10.9006,19.7487,0.0233852,-0.00263956,-0.00864888,0.0259973,-0.00525168,-0.293308,0.0193215,0.0456533,1714,1653,10.9006,-19.7487
497,-629,11.0375,18.9696,0,0,0,0,0,0,0,-1,1721,1653,11.0374,-18.9696
504,-629,7.89453,15.5316,0,0,0,0,0,0,0,-1,1728,1653,7.89447,-15.5316
511,-629,6.29138,3.40295,0,0,0,0,0,0,0,-1,1735,1653,6.29137,-3.403
518,-629,5.84387,1.41858,0,0,0,0,0,0,0,-1,1742,1653,5.84391,-1.4186
525,-629,6.4729,1.02319,0,0,0,0,0,0,0,-1,1749,1653,6.47284,-1.02316
532,-629,6.86511,0.903687,0,0,0,0,0,0,0,-1,1756,1653,6.86514,-0.903691
539,-629,6.60803,0.746704,0,0,0,0,0,0,0,-1,1763,1653,6.60809,-0.746691
546,-629,0,0,0,0,0,0,0,0,0,-1,1770,1653,0,0
553,-629,0,0,0,0,0,0,0,0,0,-1,1777,1653,0,0
560,-629,0,0,0,0,0,0,0,0,0,-1,1784,1653,0,0
567,-629,0,0,0,0,0,0,0,0,0,-1,1791,1653,0,0
574,-629,0,0,0,0,0,0,0,0,0,-1,1798,1653,0,0
581,-629,0,0,0,0,0,0,0,0,0,-1,1805,1653,0,0
588,-629,0,0,0,0,0,0,0,0,0,-1,1812,1653,0,0
595,-629,0,0,0,0,0,0,0,0,0,-1,1819,1653,0,0
602,-629,0,0,0,0,0,0,0,0,0,-1,1826,1653,0,0
609,-629,0,0,0,0,0,0,0,0,0,-1,1833,1653,0,0
616,-629,0,0,0,0,0,0,0,0,0,-1,1840,1653,0,0
623,-629,0,0,0,0,0,0,0,0,0,-1,1847,1653,0,0
630,-629,0,0,0,0,0,0,0,0,0,-1,1854,1653,0,0
637,-629,0,0,0,0,0,0,0,0,0,-1,1861,1653,0,0
644,-629,0,0,0,0,0,0,0,0,0,-1,1868,1653,0,0
651,-629,0,0,0,0,0,0,0,0,0,-1,1875,1653,0,0
658,-629,0,0,0,0,0,0,0,0,0,-1,1882,1653,0,0
665,-629,0,0,0,0,0,0,0,0,0,-1,1889,1653,0,0
672,-629,0,0,0,0,0,0,0,0,0,-1,1896,1653,0,0
679,-629,0,0,0,0,0,0,0,0,0,-1,1903,1653,0,0
686,-629,0,0,0,0,0,0,0,0,0,-1,1910,1653,0,0
693,-629,0,0,0,0,0,0,0,0,0,-1,1917,1653,0,0
700,-629,0,0,0,0,0,0,0,0,0,-1,1924,1653,0,0
707,-629,0,0,0,0,0,0,0,0,0,-1,1931,1653,0,0
714,-629,0,0,0,0,0,0,0,0,0,-1,1938,1653,0,0
721,-629,0,0,0,0,0,0,0,0,0,-1,1945,1653,0,0
728,-629,0,0,0,0,0,0,0,0,0,-1,1952,1653,0,0
735,-629,0,0,0,0,0,0,0,0,0,-1,1959,1653,0,0
742,-629,0,0,0,0,0,0,0,0,0,-1,1966,1653,0,0
749,-629,0,0,0,0,0,0,0,0,0,-1,1973,1653,0,0
756,-629,0,0,0,0,0,0,0,0,0,-1,1980,1653,0,0
763,-629,0,0,0,0,0,0,0,0,0,-1,1987,1653,0,0
770,-629,0,0,0,0,0,0,0,0,0,-1,1994,1653,0,0
777,-629,0,0,0,0,0,0,0,0,0,-1,2001,1653,0,0
784,-629,0,0,0,0,0,0,0,0,0,-1,2008,1653,0,0
791,-629,0,0,0,0,0,0,0,0,0,-1,2015,1653,0,0
798,-629,0,0,0,0,0,0,0,0,0,-1,2022,1653,0,0
805,-629,0,0,0,0,0,0,0,0,0,-1,2029,1653,0,0
812,-629,0,0,0,0,0,0,0,0,0,-1,2036,1653,0,0
-700,-636,0,0,0,0,0,0,0,0,0,-1,524,1660,0,0
-693,-636,0,0,0,0,0,0,0,0,0,-1,531,1660,0,0
-686,-636,0,0,0,0,0,0,0,0,0,-1,538,1660,0,0
-679,-636,0,0,0,0,0,0,0,0,0,-1,545,1660,0,0
-672,-636,0,0,0,0,0,0,0,0,0,-1,552,1660,0,0
-665,-636,0,0,0,0,0,0,0,0,0,-1,559,1660,0,0
-658,-636,0,0,0,0,0,0,0,0,0,-1,566,1660,0,0
-651,-636,0,0,0,0,0,0,0,0,0,-1,573,1660,0,0
-644,-636,0,0,0,0,0,0,0,0,0,-1,580,1660,0,0
-637,-636,0,0,0,0,0,0,0,0,0,-1,587,1660,0,0
-630,-636,0,0,0,0,0,0,0,0,0,-1,594,1660,0,0
-623,-636,0,0,0,0,0,0,0,0,0,-1,601,1660,0,0
-616,-636,0,0,0,0,0,0,0,0,0,-1,608,1660,0,0
-609,-636,0,0,0,0,0,0,0,0,0,-1,615,1660,0,0
-602,-636,0,0,0,0,0,0,0,0,0,-1,622,1660,0,0
-595,-636,0,0,0,0,0,0,0,0,0,-1,629,1660,0,0
-588,-636,0,0,0,0,0,0,0,0,0,-1,636,1660,0,0
-581,-636,0,0,0,0,0,0,0,0,0,-1,643,1660,0,0
-574,-636,0,0,0,0,0,0,0,0,0,-1,650,1660,0,0
-567,-636,0,0,0,0,0,0,0,0,0,-1,657,1660,0,0
-560,-636,0,0,0,0,0,0,0,0,0,-1,664,1660,0,0
-553,-636,0,0,0,0,0,0,0,0,0,-1,671,1660,0,0
-546,-636,0,0,0,0,0,0,0,0,0,-1,678,1660,0,0
-539,-636,0,0,0,0,0,0,0,0,0,-1,685,1660,0,0
-532,-636,0,0,0,0,0,0,0,0,0,-1,692,1660,0,0
-525,-636,0,0,0,0,0,0,0,0,0,-1,699,1660,0,0
-518,-636,0,0,0,0,0,0,0,0,0,-1,706,1660,0,0
-511,-636,0,0,0,0,0,0,0,0,0,-1,713,1660,0,0
-504,-636,0,0,0,0,0,0,0,0,0,-1,720,1660,0,0
-497,-636,0,0,0,0,0,0,0,0,0,-1,727,1660,0,0
-490,-636,0,0,0,0,0,0,0,0,0,-1,734,1660,0,0
-483,-636,0,0,0,0,0,0,0,0,0,-1,741,1660,0,0
-476,-636,0,0,0,0,0,0,0,0,0,-1,748,1660,0,0
-469,-636,0,0,0,0,0,0,0,0,0,-1,755,1660,0,0
-462,-636,0,0,0,0,0,0,0,0,0,-1,762,1660,0,0
-455,-636,0,0,0,0,0,0,0,0,0,-1,769,1660,0,0
-448,-636,0,0,0,0,0,0,0,0,0,-1,776,1660,0,0
-441,-636,0,0,0,0,0,0,0,0,0,-1,783,1660,0,0
-434,-636,0,0,0,0,0,0,0,0,0,-1,790,1660,0,0
-427,-636,0,0,0,0,0,0,0,0,0,-1,797,1660,0,0
-420,-636,0,0,0,0,0,0,0,0,0,-1,804,1660,0,0
-413,-636,0,0,0,0,0,0,0,0,0,-1,811,1660,0,0
-406,-636,-0.591125,10.6943,0,0,0,0,0,0,0,-1,818,1660,-0.59115,-10.6943
-399,-636,0.0766602,11.2408,0,0,0,0,0,0,0,-1,825,1660,0.076685,-11.2409
-392,-636,0.75946,11.9233,0,0,0,0,0,0,0,-1,832,1660,0.759481,-11.9233
-385,-636,1.68878,12.517,0,0,0,0,0,0,0,-1,839,1660,1.6888,-12.5169
-378,-636,2.22107,13.0013,0,0,0,0,0,0,0,-1,846,1660,2.22107,-13.0014
-371,-636,2.52185,11.9684,0,0,0,0,0,0,0,-1,853,1660,2.52184,-11.9684
-364,-636,4.51947,14.8503,0,0,0,0,0,0,0,-1,860,1660,4.51949,-14.8504
-357,-636,4.55682,15.8809,0,0,0,0,0,0,0,-1,867,1660,4.55681,-15.8808
-350,-636,2.63104,14.4946,0,0,0,0,0,0,0,-1,874,1660,2.63102,-14.4946
-343,-636,4.18567,20.4888,0,0,0,0,0,0,0,-1,881,1660,4.18567,-20.4887
-336,-636,4.10645,20.6963,-0.00129013,0.000593765,-0.000465936,0.000702704,-0.00139906,-1.34112,0.00123546,0.0341851,888,1660,4.10645,-20.6963
-329,-636,4.16113,21.0591,-0.000727009,0.000782138,-0.000227964,0.000815822,-0.000760692,-1.4241,0.000910386,0.01993,895,1660,4.16113,-21.0591
-322,-636,4.14331,21.4313,-0.000224185,0.000672464,0.000137291,0.000693014,-0.000244735,1.42221,0.000561652,0.0122538,902,1660,4.14334,-21.4313
-315,-636,4.09155,21.7917,0.000114927,0.00045715,0.000392591,0.000714299,-0.000142222,0.990911,0.000530005,0.0131127,909,1660,4.09157,-21.7918
-308,-636,4.08173,22.1608,0.000446254,0.000284393,0.000616067,0.000986683,-0.000256036,0.720089,0.000757694,0.0113162,916,1660,4.08175,-22.1607
-301,-636,4.08679,22.5322,0.000762268,0.00020413,0.000757998,0.00129094,-0.000324539,0.609015,0.000986757,0.0114831,923,1660,4.08678,-22.5322
-294,-636,4.07123,22.8842,0.00109861,0.000252399,0.000873252,0.00164586,-0.000294848,0.559805,0.00120758,0.0142426,930,1660,4.07124,-22.8841
-287,-636,4.05005,23.1904,0.00140368,0.000321173,0.000951439,0.00195704,-0.000232194,0.526788,0.00138858,0.011082,937,1660,4.05002,-23.1904
-280,-636,4.04749,23.5153,0.00167356,0.000373054,0.000980764,0.00220005,-0.000153437,0.492665,0.00152043,0.0105913,944,1660,4.04748,-23.5152
-273,-636,4.04138,23.845,0.00194459,0.000425098,0.000970386,0.00241727,-4.75774e-05,0.453274,0.0016276,0.0119075,951,1660,4.04135,-23.845
-266,-636,4.04626,24.1946,0.00216037,0.000502892,0.000896261,0.00255233,0.000110938,0.41226,0.0016658,0.0134899,958,1660,4.04625,-24.1946
-259,-636,4.05371,24.5417,0.00236475,0.000659695,0.000867089,0.00272822,0.000296227,0.396932,0.00172855,0.0152914,965,1660,4.05371,-24.5417
-252,-636,4.04016,24.807,0.00259091,0.000851473,0.000765431,0.00287976,0.000562616,0.360854,0.00176249,0.0115351,972,1660,4.04017,-24.807
-245,-636,4.05591,25.1362,0.00287083,0.00104542,0.000716171,0.00311827,0.000797979,0.332661,0.00187048,0.0101879,979,1660,4.05592,-25.1362
-238,-636,4.06531,25.4597,0.00326982,0.00121956,0.000694079,0.00348269,0.00100669,0.297583,0.00206952,0.0114478,986,1660,4.06528,-25.4597
-231,-636,4.04596,25.7592,0.00388244,0.00120243,0.000848834,0.00412867,0.000956207,0.282329,0.00249554,0.0112992,993,1660,4.04597,-25.7592
-224,-636,4.06317,26.0549,0.00457018,0.00155016,0.00109741,0.00492684,0.00119351,0.314229,0.00296783,0.00929854,1000,1660,4.06317,-26.055
-217,-636,4.05823,26.4,0.0053435,0.00197778,0.0014087,0.00585529,0.001466,0.348475,0.00351819,0.0157771,1007,1660,4.0582,-26.4
-210,-636,4.05682,26.6785,0.00549008,0.00282652,0.00131492,0.00602984,0.00228677,0.389514,0.00351501,0.0261075,1014,1660,4.05683,-26.6785
-203,-636,4.06653,27.0133,0.00521854,0.00431294,0.000537059,0.00546821,0.00406327,0.435157,0.00327907,0.0321634,1021,1660,4.06649,-27.0133
-196,-636,4.2666,27.2224,0.0050157,0.00571302,0.000211578,0.00577219,0.00495652,1.29808,0.00360711,0.0332336,1028,1660,4.26654,-27.2225
-189,-636,4.25781,27.4554,0.00419288,0.00743504,-0.000741308,0.00759649,0.00403142,-1.35635,0.00438859,0.0319575,1035,1660,4.25779,-27.4554
-182,-636,4.45422,27.6071,0.00318395,0.00993368,-0.00166888,0.0103238,0.00279386,-1.34118,0.00616596,0.046569,1042,1660,4.45427,-27.607
-175,-636,4.57092,27.6598,0,0,0,0,0,0,0,-1,1049,1660,4.57088,-27.6597
-168,-636,4.46826,28.5914,0,0,0,0,0,0,0,-1,1056,1660,4.46825,-28.5914
-161,-636,4.3092,28.83,-0.00213116,0.020331,-0.00527925,0.0215099,-0.00331006,-1.35109,0.0155611,0.0488246,1063,1660,4.30922,-28.83
-154,-636,4.02136,28.8809,-0.00423954,0.0245008,-0.00642907,0.0258734,-0.00561214,-1.36046,0.0193922,0.0498333,1070,1660,4.02133,-28.8808
-147,-636,3.80981,28.9115,0,0,0,0,0,0,0,-1,1077,1660,3.80981,-28.9115
-140,-636,3.4729,27.1271,0,0,0,0,0,0,0,-1,1084,1660,3.47287,-27.1271
-133,-636,4.68311,18.0922,0,0,0,0,0,0,0,-1,1091,1660,4.68316,-18.0921
-126,-636,3.79028,18.2225,0,0,0,0,0,0,0,-1,1098,1660,3.79025,-18.2226
-119,-636,1.8667,13.8916,0,0,0,0,0,0,0,-1,1105,1660,1.86668,-13.8916
-112,-636,-1.24963,9.7998,0,0,0,0,0,0,0,-1,1112,1660,-1.24968,-9.79978
-105,-636,3.51624,4.72791,0,0,0,0,0,0,0,-1,1119,1660,3.51618,-4.7279
-98,-636,1.54504,5.11914,0,0,0,0,0,0,0,-1,1126,1660,1.54503,-5.11912
-91,-636,-1.87964,-2.25012,0,0,0,0,0,0,0,-1,1133,1660,-1.87966,2.25016
-84,-636,-2.84143,0.133667,0,0,0,0,0,0,0,-1,1140,1660,-2.84144,-0.133701
-77,-636,-3.57349,2.45935,0,0,0,0,0,0,0,-1,1147,1660,-3.57345,-2.45939
-70,-636,-4.23682,4.82312,0,0,0,0,0,0,0,-1,1154,1660,-4.23681,-4.82307
-63,-636,-2.21033,6.97168,0,0,0,0,0,0,0,-1,1161,1660,-2.21034,-6.97165
-56,-636,-2.51917,8.80359,0,0,0,0,0,0,0,-1,1168,1660,-2.51916,-8.80361
-49,-636,-3.13,10.4113,0,0,0,0,0,0,0,-1,1175,1660,-3.12996,-10.4112
-42,-636,-2.27771,4.90173,0,0,0,0,0,0,0,-1,1182,1660,-2.27775,-4.90173
-35,-636,-2.27698,5.89685,0,0,0,0,0,0,0,-1,1189,1660,-2.27695,-5.89686
-28,-636,-1.70654,4.83936,0,0,0,0,0,0,0,-1,1196,1660,-1.70656,-4.8393
-21,-636,4.24683,27.7834,0,0,0,0,0,0,0,-1,1203,1660,4.24687,-27.7835
-14,-636,4.36719,29.3376,0,0,0,0,0,0,0,-1,1210,1660,4.36721,-29.3376
-7,-636,3.7832,37.816,0,0,0,0,0,0,0,-1,1217,1660,3.78326,-37.8161
0,-636,4.51917,37.7771,0,0,0,0,0,0,0,-1,1224,1660,4.51916,-37.7771
7,-636,5.23828,37.797,0.0716215,-0.0671653,0.0654092,0.0975896,-0.0931333,0.377926,0.110124,0.0459686,1231,1660,5.23831,-37.797
14,-636,6.43616,37.9534,0.0648603,-0.0547567,0.0538046,0.0855005,-0.0753969,0.366301,0.0929552,0.0429269,1238,1660,6.43611,-37.9534
21,-636,6.69507,37.4717,0.0536174,-0.0409129,0.0412125,0.0690616,-0.0563572,0.358548,0.0725343,0.041684,1245,1660,6.69513,-37.4716
28,-636,7.09009,37.2546,0.0396405,-0.0273335,0.0287398,0.0502824,-0.0379753,0.354628,0.0511205,0.0429748,1252,1660,7.09008,-37.2547
35,-636,7.65686,37.1201,0.0230719,-0.0151461,0.0168384,0.0294322,-0.0215064,0.361159,0.0295279,0.0435756,1259,1660,7.65685,-37.1202
42,-636,7.94287,36.6852,0.00644766,-0.00380601,0.00573969,0.00901683,-0.00637517,0.420868,0.0089301,0.0473216,1266,1660,7.94281,-36.6852
49,-636,8.21313,36.3615,-0.0106011,0.00347501,-0.00403802,0.00455113,-0.0116772,-1.31035,0.00966585,0.0448412,1273,1660,8.21312,-36.3614
56,-636,8.47791,35.9956,-0.0259504,0.00664765,-0.0127113,0.0110183,-0.030321,-1.23962,0.0247193,0.0435683,1280,1660,8.47791,-35.9956
63,-636,7.6814,35.6495,-0.0400096,0.0068679,-0.0202712,0.0144178,-0.0475595,-1.21427,0.0374491,0.0429931,1287,1660,7.68141,-35.6496
70,-636,6.6676,35.0818,-0.0443833,0.00455039,-0.0272468,0.0167034,-0.0565363,-1.15124,0.0443206,0.0447676,1294,1660,6.66766,-35.0818
77,-636,5.50989,34.3475,-0.042693,0.00258862,-0.0335401,0.0204144,-0.0605188,-1.08229,0.0486015,0.0460335,1301,1660,5.50984,-34.3475
84,-636,4.34949,33.6753,-0.0369572,-0.000227333,-0.039442,0.0249157,-0.0621002,-1.00328,0.0517451,0.0453717,1308,1660,4.34954,-33.6753
91,-636,3.21362,33.0098,0,0,0,0,0,0,0,-1,1315,1660,3.21368,-33.0098
98,-636,2.40735,32.3506,0,0,0,0,0,0,0,-1,1322,1660,2.4074,-32.3506
105,-636,1.6084,32.0186,0,0,0,0,0,0,0,-1,1329,1660,1.60846,-32.0186
112,-636,2.0415,27.3779,0,0,0,0,0,0,0,-1,1336,1660,2.0415,-27.3779
119,-636,2.59204,27.4111,0.0334574,-0.0458556,-0.0554564,0.0619775,-0.0743758,-0.475006,0.078832,0.0478159,1343,1660,2.592,-27.4112
126,-636,3.1637,27.4706,0.0520638,-0.0539418,-0.0574877,0.0772539,-0.0791319,-0.412984,0.0902916,0.0474782,1350,1660,3.16364,-27.4706
133,-636,3.69617,27.5015,0,0,0,0,0,0,0,-1,1357,1660,3.69616,-27.5014
140,-636,3.47607,26.5756,0,0,0,0,0,0,0,-1,1364,1660,3.47604,-26.5756
147,-636,3.71606,26.5981,0,0,0,0,0,0,0,-1,1371,1660,3.71606,-26.5982
154,-636,8.72949,35.5201,0,0,0,0,0,0,0,-1,1378,1660,8.72954,-35.5201
161,-636,10.2961,7.13025,0,0,0,0,0,0,0,-1,1385,1660,10.2961,-7.13021
168,-636,11.7659,5.83899,0,0,0,0,0,0,0,-1,1392,1660,11.7658,-5.83899
175,-636,5.94592,-1.72888,0,0,0,0,0,0,0,-1,1399,1660,5.94598,1.72886
182,-636,5.93994,-1.11938,0,0,0,0,0,0,0,-1,1406,1660,5.93998,1.11936
189,-636,5.32544,11.9595,0,0,0,0,0,0,0,-1,1413,1660,5.32542,-11.9595
196,-636,5.3623,9.38025,0,0,0,0,0,0,0,-1,1420,1660,5.36225,-9.38027
203,-636,5.18542,9.02429,0,0,0,0,0,0,0,-1,1427,1660,5.18547,-9.0243
210,-636,4.09167,7.17041,0,0,0,0,0,0,0,-1,1434,1660,4.09173,-7.17041
217,-636,2.94897,5.28992,0,0,0,0,0,0,0,-1,1441,1660,2.94899,-5.28991
224,-636,1.49194,3.63916,0,0,0,0,0,0,0,-1,1448,1660,1.49197,-3.63918
231,-636,0.17749,2.24854,0,0,0,0,0,0,0,-1,1455,1660,0.177501,-2.24855
238,-636,-0.764648,1.00598,0,0,0,0,0,0,0,-1,1462,1660,-0.764704,-1.00595
245,-636,6.21204,1.18005,0,0,0,0,0,0,0,-1,1469,1660,6.21206,-1.18001
252,-636,7.70251,0.865723,0,0,0,0,0,0,0,-1,1476,1660,7.7025,-0.865692
259,-636,9.03601,0.787231,0,0,0,0,0,0,0,-1,1483,1660,9.03598,-0.787243
266,-636,10.1071,3.24109,0,0,0,0,0,0,0,-1,1490,1660,10.1071,-3.24103
273,-636,8.48535,5.02466,0,0,0,0,0,0,0,-1,1497,1660,8.48533,-5.02472
280,-636,8.37244,28.4524,0,0,0,0,0,0,0,-1,1504,1660,8.3724,-28.4523
287,-636,6.08606,11.49,0,0,0,0,0,0,0,-1,1511,1660,6.08606,-11.49
294,-636,6.69592,15.9669,0,0,0,0,0,0,0,-1,1518,1660,6.69595,-15.9669
301,-636,8.25903,23.0582,0,0,0,0,0,0,0,-1,1525,1660,8.25903,-23.0583
308,-636,9.57056,28.9271,0,0,0,0,0,0,0,-1,1532,1660,9.57056,-28.9271
315,-636,9.64417,28.5288,0,0,0,0,0,0,0,-1,1539,1660,9.64422,-28.5288
322,-636,10.0114,27.8893,0,0,0,0,0,0,0,-1,1546,1660,10.0114,-27.8892
329,-636,9.91113,27.5251,0.00645923,0.0110487,-0.00474633,0.0140259,0.00348202,-1.01057,0.00843307,0.0314142,1553,1660,9.91119,-27.5251
336,-636,9.86243,27.3108,0.00619894,0.0119405,-0.00489043,0.0147405,0.00339894,-1.05081,0.00891273,0.023421,1560,1660,9.86248,-27.3108
343,-636,9.81897,27.1582,0.00586544,0.0123264,-0.00519117,0.0152102,0.00298167,-1.06373,0.00930685,0.0225042,1567,1660,9.81894,-27.1583
350,-636,9.79456,26.8488,0.00562343,0.0121848,-0.00531207,0.0151476,0.00266063,-1.06202,0.00933871,0.0124538,1574,1660,9.7946,-26.8488
357,-636,9.83826,26.5435,0.00535234,0.0115155,-0.00508296,0.014378,0.0024898,-1.0579,0.00887265,0.010148,1581,1660,9.83824,-26.5435
364,-636,9.85083,26.2654,0.00496682,0.0104669,-0.00467196,0.0131381,0.0022956,-1.0514,0.00810266,0.0102324,1588,1660,9.85086,-26.2654
371,-636,9.84058,25.9912,0.0044457,0.00915844,-0.00407981,0.0115135,0.00209067,-1.04728,0.00708237,0.0090402,1595,1660,9.84055,-25.9912
378,-636,9.84912,25.7032,0.00381562,0.00771927,-0.00341662,0.00970227,0.00183261,-1.04491,0.00595211,0.00950326,1602,1660,9.84907,-25.7033
385,-636,9.85962,25.4078,0.00318957,0.00614114,-0.00278041,0.00781315,0.00151756,-1.02938,0.00478383,0.0145164,1609,1660,9.85957,-25.4078
392,-636,9.84534,25.1063,0.00254139,0.00438957,-0.00205773,0.00572118,0.00120977,-0.996443,0.00348164,0.0153146,1616,1660,9.84528,-25.1063
399,-636,9.83984,24.823,0.0017353,0.00280674,-0.00134262,0.00371657,0.000825467,-0.975225,0.00225353,0.0117561,1623,1660,9.83986,-24.823
406,-636,9.85583,24.5297,0.000979596,0.00141206,-0.000746092,0.00197262,0.000419034,-0.926444,0.00120004,0.0145146,1630,1660,9.85584,-24.5296
413,-636,9.85034,24.224,0.000340898,0.000142511,-0.000226706,0.000489161,-5.75237e-06,-0.579175,0.000328041,0.0235574,1637,1660,9.85029,-24.224
420,-636,9.81836,23.9073,-0.000135488,-0.000915101,0.000172721,-9.89363e-05,-0.000951653,0.208548,0.000604163,0.0242322,1644,1660,9.81836,-23.9073
427,-636,9.7998,23.6018,-2.81493e-05,-0.00195461,0.000521978,0.000104191,-0.00208695,0.248303,0.0014273,0.0143285,1651,1660,9.79976,-23.6018
434,-636,9.79248,23.2916,0.00117993,-0.00313587,0.000582293,0.00125712,-0.00321305,0.131782,0.00266193,0.0113567,1658,1660,9.7925,-23.2917
441,-636,9.80823,22.9669,0.00268169,-0.00321674,-0.000195845,0.00268819,-0.00322324,-0.0331542,0.00341762,0.0118821,1665,1660,9.80821,-22.9669
448,-636,9.81213,22.6442,0.0044152,-0.00378819,-0.000580913,0.00445613,-0.00382912,-0.070346,0.00478806,0.0144975,1672,1660,9.81213,-22.6441
455,-636,9.77844,22.3237,0.00691596,-0.00433159,-0.00115995,0.00703433,-0.00444997,-0.101703,0.00668619,0.0160178,1679,1660,9.77839,-22.3238
462,-636,9.7865,21.9934,0.0100739,-0.0052202,-0.00183289,0.0102905,-0.00543679,-0.117623,0.00922319,0.0197424,1686,1660,9.78651,-21.9934
469,-636,9.74719,21.6394,0.0142198,-0.00585961,-0.00298939,0.0146554,-0.00629522,-0.144698,0.0124127,0.0289816,1693,1660,9.74719,-21.6395
476,-636,9.75635,21.3763,0.0193716,-0.00622669,-0.00459247,0.0201705,-0.00702566,-0.172251,0.0163016,0.0432956,1700,1660,9.7564,-21.3764
483,-636,10.4861,20.9449,0.0253333,-0.00572262,-0.00687319,0.0267865,-0.00717578,-0.208355,0.020669,0.0492579,1707,1660,10.4861,-20.9449
490,-636,11.3248,20.8452,0,0,0,0,0,0,0,-1,1714,1660,11.3249,-20.8453
497,-636,9.55579,18.0111,0,0,0,0,0,0,0,-1,1721,1660,9.55574,-18.0111
504,-636,6.26428,19.4268,0,0,0,0,0,0,0,-1,1728,1660,6.26433,-19.4268
511,-636,5.65466,9.23218,0,0,0,0,0,0,0,-1,1735,1660,5.65461,-9.23216
518,-636,6.72791,1.07605,0,0,0,0,0,0,0,-1,1742,1660,6.7279,-1.0761
525,-636,7.04309,0.93335,0,0,0,0,0,0,0,-1,1749,1660,7.04308,-0.933298
532,-636,0,0,0,0,0,0,0,0,0,-1,1756,1660,0,0
539,-636,0,0,0,0,0,0,0,0,0,-1,1763,1660,0,0
546,-636,0,0,0,0,0,0,0,0,0,-1,1770,1660,0,0
553,-636,0,0,0,0,0,0,0,0,0,-1,1777,1660,0,0
560,-636,0,0,0,0,0,0,0,0,0,-1,1784,1660,0,0
567,-636,0,0,0,0,0,0,0,0,0,-1,1791,1660,0,0
574,-636,0,0,0,0,0,0,0,0,0,-1,1798,1660,0,0
581,-636,0,0,0,0,0,0,0,0,0,-1,1805,1660,0,0
588,-636,0,0,0,0,0,0,0,0,0,-1,1812,1660,0,0
595,-636,0,0,0,0,0,0,0,0,0,-1,1819,1660,0,0
602,-636,0,0,0,0,0,0,0,0,0,-1,1826,1660,0,0
609,-636,0,0,0,0,0,0,0,0,0,-1,1833,1660,0,0
616,-636,0,0,0,0,0,0,0,0,0,-1,1840,1660,0,0
623,-636,0,0,0,0,0,0,0,0,0,-1,1847,1660,0,0
630,-636,0,0,0,0,0,0,0,0,0,-1,1854,1660,0,0
637,-636,0,0,0,0,0,0,0,0,0,-1,1861,1660,0,0
644,-636,0,0,0,0,0,0,0,0,0,-1,1868,1660,0,0
651,-636,0,0,0,0,0,0,0,0,0,-1,1875,1660,0,0
658,-636,0,0,0,0,0,0,0,0,0,-1,1882,1660,0,0
665,-636,0,0,0,0,0,0,0,0,0,-1,1889,1660,0,0
672,-636,0,0,0,0,0,0,0,0,0,-1,1896,1660,0,0
679,-636,0,0,0,0,0,0,0,0,0,-1,1903,1660,0,0
686,-636,0,0,0,0,0,0,0,0,0,-1,1910,1660,0,0
693,-636,0,0,0,0,0,0,0,0,0,-1,1917,1660,0,0
700,-636,0,0,0,0,0,0,0,0,0,-1,1924,1660,0,0
707,-636,0,0,0,0,0,0,0,0,0,-1,1931,1660,0,0
714,-636,0,0,0,0,0,0,0,0,0,-1,1938,1660,0,0
721,-636,0,0,0,0,0,0,0,0,0,-1,1945,1660,0,0
728,-636,0,0,0,0,0,0,0,0,0,-1,1952,1660,0,0
735,-636,0,0,0,0,0,0,0,0,0,-1,1959,1660,0,0
742,-636,0,0,0,0,0,0,0,0,0,-1,1966,1660,0,0
749,-636,0,0,0,0,0,0,0,0,0,-1,1973,1660,0,0
756,-636,0,0,0,0,0,0,0,0,0,-1,1980,1660,0,0
763,-636,0,0,0,0,0,0,0,0,0,-1,1987,1660,0,0
770,-636,0,0,0,0,0,0,0,0,0,-1,1994,1660,0,0
777,-636,0,0,0,0,0,0,0,0,0,-1,2001,1660,0,0
784,-636,0,0,0,0,0,0,0,0,0,-1,2008,1660,0,0
791,-636,0,0,0,0,0,0,0,0,0,-1,2015,1660,0,0
798,-636,0,0,0,0,0,0,0,0,0,-1,2022,1660,0,0
805,-636,0,0,0,0,0,0,0,0,0,-1,2029,1660,0,0
812,-636,0,0,0,0,0,0,0,0,0,-1,2036,1660,0,0
-700,-643,0,0,0,0,0,0,0,0,0,-1,524,1667,0,0
-693,-643,0,0,0,0,0,0,0,0,0,-1,531,1667,0,0
-686,-643,0,0,0,0,0,0,0,0,0,-1,538,1667,0,0
-679,-643,0,0,0,0,0,0,0,0,0,-1,545,1667,0,0
-672,-643,0,0,0,0,0,0,0,0,0,-1,552,1667,0,0
-665,-643,0,0,0,0,0,0,0,0,0,-1,559,1667,0,0
-658,-643,0,0,0,0,0,0,0,0,0,-1,566,1667,0,0
-651,-643,0,0,0,0,0,0,0,0,0,-1,573,1667,0,0
-644,-643,0,0,0,0,0,0,0,0,0,-1,580,1667,0,0
-637,-643,0,0,0,0,0,0,0,0,0,-1,587,1667,0,0
-630,-643,0,0,0,0,0,0,0,0,0,-1,594,1667,0,0
-623,-643,0,0,0,0,0,0,0,0,0,-1,601,1667,0,0
-616,-643,0,0,0,0,0,0,0,0,0,-1,608,1667,0,0
-609,-643,0,0,0,0,0,0,0,0,0,-1,615,1667,0,0
-602,-643,0,0,0,0,0,0,0,0,0,-1,622,1667,0,0
-595,-643,0,0,0,0,0,0,0,0,0,-1,629,1667,0,0
-588,-643,0,0,0,0,0,0,0,0,0,-1,636,1667,0,0
-581,-643,0,0,0,0,0,0,0,0,0,-1,643,1667,0,0
-574,-643,0,0,0,0,0,0,0,0,0,-1,650,1667,0,0
-567,-643,0,0,0,0,0,0,0,0,0,-1,657,1667,0,0
-560,-643,0,0,0,0,0,0,0,0,0,-1,664,1667,0,0
-553,-643,0,0,0,0,0,0,0,0,0,-1,671,1667,0,0
-546,-643,0,0,0,0,0,0,0,0,0,-1,678,1667,0,0
-539,-643,0,0,0,0,0,0,0,0,0,-1,685,1667,0,0
-532,-643,0,0,0,0,0,0,0,0,0,-1,692,1667,0,0
-525,-643,0,0,0,0,0,0,0,0,0,-1,699,1667,0,0
-518,-643,0,0,0,0,0,0,0,0,0,-1,706,1667,0,0
-511,-643,0,0,0,0,0,0,0,0,0,-1,713,1667,0,0
-504,-643,0,0,0,0,0,0,0,0,0,-1,720,1667,0,0
-497,-643,0,0,0,0,0,0,0,0,0,-1,727,1667,0,0
-490,-643,0,0,0,0,0,0,0,0,0,-1,734,1667,0,0
-483,-643,0,0,0,0,0,0,0,0,0,-1,741,1667,0,0
-476,-643,0,0,0,0,0,0,0,0,0,-1,748,1667,0,0
-469,-643,0,0,0,0,0,0,0,0,0,-1,755,1667,0,0
-462,-643,0,0,0,0,0,0,0,0,0,-1,762,1667,0,0
-455,-643,0,0,0,0,0,0,0,0,0,-1,769,1667,0,0
-448,-643,0,0,0,0,0,0,0,0,0,-1,776,1667,0,0
-441,-643,0,0,0,0,0,0,0,0,0,-1,783,1667,0,0
-434,-643,0,0,0,0,0,0,0,0,0,-1,790,1667,0,0
-427,-643,0,0,0,0,0,0,0,0,0,-1,797,1667,0,0
-420,-643,0,0,0,0,0,0,0,0,0,-1,804,1667,0,0
-413,-643,0,0,0,0,0,0,0,0,0,-1,811,1667,0,0
-406,-643,0,0,0,0,0,0,0,0,0,-1,818,1667,0,0
-399,-643,0.589417,11.6465,0,0,0,0,0,0,0,-1,825,1667,0.58939,-11.6465
-392,-643,0.865295,12.6523,0,0,0,0,0,0,0,-1,832,1667,0.865315,-12.6523
-385,-643,1.72968,13.2692,0,0,0,0,0,0,0,-1,839,1667,1.72967,-13.2692
-378,-643,2.66522,13.8193,0,0,0,0,0,0,0,-1,846,1667,2.66524,-13.8193
-371,-643,0.466125,3.35095,0,0,0,0,0,0,0,-1,853,1667,0.466148,-3.351
-364,-643,1.69513,9.922,0,0,0,0,0,0,0,-1,860,1667,1.69511,-9.92205
-357,-643,1.14227,10.8429,0,0,0,0,0,0,0,-1,867,1667,1.14228,-10.8429
-350,-643,2.50061,9.96948,0,0,0,0,0,0,0,-1,874,1667,2.50059,-9.96954
-343,-643,2.61505,6.17407,0,0,0,0,0,0,0,-1,881,1667,2.61504,-6.17412
-336,-643,4.63391,20.7085,0,0,0,0,0,0,0,-1,888,1667,4.63393,-20.7085
-329,-643,4.5741,21.0624,-0.000625621,0.00134838,-0.000278682,0.00138697,-0.00066421,-1.4332,0.00120851,0.0396222,895,1667,4.57407,-21.0623
-322,-643,4.51678,21.4714,7.69226e-05,0.00105561,0.000277621,0.00112888,3.65567e-06,1.31277,0.00075137,0.0260499,902,1667,4.51676,-21.4714
-315,-643,4.44025,21.8278,0.000511227,0.000660483,0.000648852,0.00123898,-6.72741e-05,0.842655,0.000849303,0.0161708,909,1667,4.44024,-21.8278
-308,-643,4.43274,22.16,0.000896547,0.000350185,0.000970447,0.00163153,-0.000384798,0.648198,0.00123608,0.0113948,916,1667,4.43277,-22.16
-301,-643,4.43402,22.5237,0.00125222,0.00016712,0.00119652,0.00202345,-0.000604115,0.572544,0.00158909,0.0136377,923,1667,4.43404,-22.5236
-294,-643,4.41461,22.8586,0.00156408,0.000183433,0.00129195,0.00233857,-0.000591061,0.540034,0.00178892,0.0123312,930,1667,4.41463,-22.8586
-287,-643,4.39679,23.1863,0.00180405,0.00024381,0.00134067,0.00257505,-0.000527191,0.5219,0.00191675,0.00998671,937,1667,4.39679,-23.1862
-280,-643,4.38239,23.5161,0.00193533,0.000255007,0.00132783,0.00266647,-0.000476139,0.503328,0.00195578,0.0134686,944,1667,4.38241,-23.5161
-273,-643,4.36389,23.851,0.00206111,0.000312199,0.00125763,0.00271842,-0.000345113,0.481609,0.00193759,0.0124286,951,1667,4.36387,-23.851
-266,-643,4.34283,24.196,0.00213052,0.000383257,0.00111415,0.00267271,-0.000158934,0.452904,0.00183708,0.0121251,958,1667,4.34283,-24.196
-259,-643,4.34698,24.5118,0.00215986,0.000539156,0.00102764,0.00265822,4.0801e-05,0.451536,0.0017587,0.0114482,965,1667,4.34698,-24.5119
-252,-643,4.36096,24.8079,0.0021992,0.000724058,0.000850859,0.00258767,0.000335586,0.428299,0.00162485,0.0122529,972,1667,4.36098,-24.8078
-245,-643,4.36823,25.1337,0.00230679,0.000903395,0.000720925,0.00261113,0.000599055,0.399456,0.0015794,0.0111303,979,1667,4.36825,-25.1337
-238,-643,4.39636,25.4547,0.00254908,0.00104628,0.000640925,0.00278529,0.000810061,0.35311,0.00165433,0.0145629,986,1667,4.39634,-25.4547
-231,-643,4.34351,25.7753,0.00299756,0.00106759,0.000715404,0.00323383,0.00083133,0.318976,0.00193911,0.011524,993,1667,4.3435,-25.7753
-224,-643,4.3595,26.0421,0.00347841,0.00133027,0.000855515,0.00377749,0.00103119,0.336306,0.00225462,0.00940658,1000,1667,4.35952,-26.0421
-217,-643,4.37134,26.3046,0.00405772,0.00167429,0.00106061,0.00446133,0.00127068,0.363627,0.00265407,0.0083723,1007,1667,4.37132,-26.3045
-210,-643,4.36737,26.6147,0.00425143,0.00236452,0.000986658,0.00467311,0.00194284,0.403889,0.00271076,0.0112729,1014,1667,4.36737,-26.6147
-203,-643,4.37952,26.9727,0.00415283,0.00346377,0.000405635,0.00434051,0.0032761,0.433337,0.00261218,0.0151494,1021,1667,4.37946,-26.9726
-196,-643,4.40002,27.248,0.00408436,0.00444452,0.000170843,0.00451267,0.00401621,1.19126,0.00285737,0.0153382,1028,1667,4.4,-27.2481
-189,-643,4.4895,27.4763,0.0036021,0.00577647,-0.000465505,0.00587193,0.00350663,-1.36852,0.00341144,0.0153936,1035,1667,4.48949,-27.4763
-182,-643,4.53528,27.7134,0.00295536,0.00772002,-0.00106144,0.00794578,0.0027296,-1.36122,0.00466177,0.0227362,1042,1667,4.53529,-27.7134
-175,-643,4.60229,28.1703,0.00193036,0.00995514,-0.00178195,0.010333,0.00155247,-1.36182,0.00643394,0.0381923,1049,1667,4.60227,-28.1703
-168,-643,4.604,28.4001,0.000775961,0.0126566,-0.00248472,0.0131553,0.000277241,-1.37271,0.00867929,0.0403607,1056,1667,4.60394,-28.4002
-161,-643,4.55884,28.5992,-0.000360253,0.0155822,-0.00313288,0.0161758,-0.000953804,-1.38356,0.0111154,0.0441804,1063,1667,4.5588,-28.5993
-154,-643,4.56067,28.4508,-0.00164073,0.018919,-0.0037406,0.0195784,-0.00230014,-1.3963,0.0138826,0.0457774,1070,1667,4.56066,-28.4508
-147,-643,4.64246,28.7582,0,0,0,0,0,0,0,-1,1077,1667,4.64245,-28.7582
-140,-643,4.30322,22.9166,0,0,0,0,0,0,0,-1,1084,1667,4.30327,-22.9167
-133,-643,3.66748,21.6034,0,0,0,0,0,0,0,-1,1091,1667,3.66743,-21.6034
-126,-643,3.13904,17.689,0,0,0,0,0,0,0,-1,1098,1667,3.13909,-17.689
-119,-643,3.76282,14.1458,0,0,0,0,0,0,0,-1,1105,1667,3.76283,-14.1458
-112,-643,3.81458,16.2069,0,0,0,0,0,0,0,-1,1112,1667,3.81463,-16.2069
-105,-643,-2.23413,10.0996,0,0,0,0,0,0,0,-1,1119,1667,-2.23415,-10.0996
-98,-643,3.11035,4.68066,0,0,0,0,0,0,0,-1,1126,1667,3.11041,-4.68071
-91,-643,-1.74146,-2.5885,0,0,0,0,0,0,0,-1,1133,1667,-1.74146,2.58856
-84,-643,-3.07446,-0.199341,0,0,0,0,0,0,0,-1,1140,1667,-3.07449,0.199383
-77,-643,-3.63794,2.81165,0,0,0,0,0,0,0,-1,1147,1667,-3.63791,-2.8117
-70,-643,-3.36938,4.45203,0,0,0,0,0,0,0,-1,1154,1667,-3.36941,-4.452
-63,-643,-3.67822,6.26855,0,0,0,0,0,0,0,-1,1161,1667,-3.67823,-6.26856
-56,-643,-3.95142,8.1073,0,0,0,0,0,0,0,-1,1168,1667,-3.95139,-8.10732
-49,-643,-4.23535,9.90552,0,0,0,0,0,0,0,-1,1175,1667,-4.23537,-9.90557
-42,-643,-4.25195,10.7059,0,0,0,0,0,0,0,-1,1182,1667,-4.25192,-10.706
-35,-643,-4.10986,11.6588,0,0,0,0,0,0,0,-1,1189,1667,-4.10982,-11.6589
-28,-643,-1.38513,5.604,0,0,0,0,0,0,0,-1,1196,1667,-1.3851,-5.60403
-21,-643,1.61011,23.1276,0,0,0,0,0,0,0,-1,1203,1667,1.61011,-23.1275
-14,-643,5.88721,32.3837,0,0,0,0,0,0,0,-1,1210,1667,5.88715,-32.3837
-7,-643,4.90796,28.9844,0,0,0,0,0,0,0,-1,1217,1667,4.90792,-28.9843
0,-643,4.13977,38.7039,0,0,0,0,0,0,0,-1,1224,1667,4.1398,-38.7038
7,-643,4.88818,38.6147,0.063471,-0.0410065,0.0659276,0.0953473,-0.0728827,0.450364,0.0974159,0.0456275,1231,1667,4.88823,-38.6148
14,-643,5.61609,38.3604,0.0576298,-0.0311767,0.0550488,0.0839515,-0.0574985,0.446017,0.0821408,0.0426609,1238,1667,5.61608,-38.3603
21,-643,5.98193,38.1932,0.0484278,-0.0205935,0.0432875,0.0692777,-0.0414435,0.448869,0.0645947,0.0415474,1245,1667,5.98196,-38.1932
28,-643,6.45471,38.118,0.0372709,-0.0104156,0.0319936,0.0533287,-0.0264734,0.465171,0.0469353,0.0433559,1252,1667,6.45466,-38.1181
35,-643,7.8175,36.9332,0,0,0,0,0,0,0,-1,1259,1667,7.81756,-36.9332
42,-643,7.98621,36.5325,0.0106949,0.00756216,0.0111438,0.0203819,-0.00212483,0.715576,0.0143487,0.0468619,1266,1667,7.98616,-36.5324
49,-643,8.21802,36.1268,-0.00248287,0.0121718,0.00221246,0.0124985,-0.0028096,1.42418,0.00940973,0.0455897,1273,1667,8.21806,-36.1269
56,-643,8.32751,35.6432,-0.0142489,0.0134217,-0.00589492,0.0146252,-0.0154524,-1.3694,0.0173675,0.0445835,1280,1667,8.32747,-35.6432
63,-643,7.94519,35.2198,0,0,0,0,0,0,0,-1,1287,1667,7.94525,-35.2199
70,-643,6.64343,34.8328,0,0,0,0,0,0,0,-1,1294,1667,6.64345,-34.8327
77,-643,9.90234,33.7037,0,0,0,0,0,0,0,-1,1301,1667,9.90231,-33.7038
84,-643,4.94641,33.67,-0.0255471,0.00212889,-0.0309994,0.0222387,-0.0456569,-0.995325,0.0399692,0.045805,1308,1667,4.94638,-33.6701
91,-643,3.48071,32.9216,0,0,0,0,0,0,0,-1,1315,1667,3.48077,-32.9217
98,-643,2.02148,32.2065,0,0,0,0,0,0,0,-1,1322,1667,2.02143,-32.2066
105,-643,2.92932,27.175,-0.000192762,-0.0287711,-0.0417585,0.0296537,-0.0586175,-0.62055,0.0518698,0.0468739,1329,1667,2.92929,-27.1751
112,-643,2.99158,27.2927,0.0139117,-0.0391727,-0.04456,0.0392355,-0.0644965,-0.516791,0.0604787,0.0456753,1336,1667,2.99161,-27.2928
119,-643,3.29175,27.3585,0.0292215,-0.0484652,-0.0473984,0.0516596,-0.0709033,-0.442136,0.0710518,0.0460541,1343,1667,3.29174,-27.3585
126,-643,3.63354,27.1787,0,0,0,0,0,0,0,-1,1350,1667,3.6335,-27.1787
133,-643,3.63928,27.3582,0,0,0,0,0,0,0,-1,1357,1667,3.63927,-27.3582
140,-643,3.90442,27.4227,0.0590102,-0.0736965,-0.0508498,0.076254,-0.0909402,-0.326941,0.0966536,0.0467273,1364,1667,3.90447,-27.4227
147,-643,4.06177,27.405,0.0626561,-0.0783244,-0.0481472,0.0775299,-0.0931982,-0.299624,0.0987082,0.0471963,1371,1667,4.0618,-27.405
154,-643,4.32117,27.4125,0,0,0,0,0,0,0,-1,1378,1667,4.32121,-27.4124
161,-643,5.57935,26.2754,0,0,0,0,0,0,0,-1,1385,1667,5.57931,-26.2754
168,-643,10.5563,10.9818,0,0,0,0,0,0,0,-1,1392,1667,10.5562,-10.9819
175,-643,5.88525,-1.1698,0,0,0,0,0,0,0,-1,1399,1667,5.88526,1.16977
182,-643,5.80945,-0.418701,0,0,0,0,0,0,0,-1,1406,1667,5.80949,0.418712
189,-643,5.42297,12.9208,0,0,0,0,0,0,0,-1,1413,1667,5.42298,-12.9208
196,-643,5.51953,11.2415,0,0,0,0,0,0,0,-1,1420,1667,5.51948,-11.2414
203,-643,5.60828,9.82153,0,0,0,0,0,0,0,-1,1427,1667,5.60833,-9.82148
210,-643,4.73218,7.58728,0,0,0,0,0,0,0,-1,1434,1667,4.73222,-7.58728
217,-643,3.8031,5.28955,0,0,0,0,0,0,0,-1,1441,1667,3.80305,-5.28955
224,-643,2.96436,2.97095,0,0,0,0,0,0,0,-1,1448,1667,2.96432,-2.97095
231,-643,2.13403,1.08472,0,0,0,0,0,0,0,-1,1455,1667,2.13403,-1.08467
238,-643,1.18152,-0.261963,0,0,0,0,0,0,0,-1,1462,1667,1.18152,0.26192
245,-643,-0.157471,-1.79016,0,0,0,0,0,0,0,-1,1469,1667,-0.157517,1.7901
252,-643,8.08789,0.0202637,0,0,0,0,0,0,0,-1,1476,1667,8.08791,-0.0203056
259,-643,9.02979,-0.46936,0,0,0,0,0,0,0,-1,1483,1667,9.02974,0.46933
266,-643,4.55066,5.17554,0,0,0,0,0,0,0,-1,1490,1667,4.55063,-5.17556
273,-643,8.62341,28.6578,0,0,0,0,0,0,0,-1,1497,1667,8.62339,-28.6579
280,-643,8.47583,28.6935,0,0,0,0,0,0,0,-1,1504,1667,8.47585,-28.6935
287,-643,8.71777,29.0291,0,0,0,0,0,0,0,-1,1511,1667,8.71781,-29.0291
294,-643,9.28003,29.0062,0,0,0,0,0,0,0,-1,1518,1667,9.28005,-29.0062
301,-643,9.48718,28.6045,0,0,0,0,0,0,0,-1,1525,1667,9.4872,-28.6045
308,-643,9.396,28.464,0.00699892,0.00475765,-0.00241772,0.00854309,0.00321348,-0.568382,0.00498254,0.0472049,1532,1667,9.39602,-28.464
315,-643,9.41125,28.1798,0.00585822,0.00568202,-0.00223839,0.00801024,0.00353,-0.765729,0.00463555,0.0420511,1539,1667,9.4113,-28.1798
322,-643,9.51855,27.7898,0.00520781,0.00681798,-0.00257802,0.0087137,0.00331209,-0.936743,0.00507884,0.0265834,1546,1667,9.51855,-27.7897
329,-643,9.5332,27.5421,0.00488039,0.00756408,-0.00292272,0.00943827,0.0030062,-1.0006,0.00556756,0.016054,1553,1667,9.53324,-27.5421
336,-643,9.47351,27.3593,0.00454386,0.00820998,-0.00302416,0.00991326,0.00284059,-1.05786,0.00589471,0.0129666,1560,1667,9.47352,-27.3592
343,-643,9.51245,27.129,0.00415024,0.00842006,-0.00324241,0.0101673,0.002403,-1.07654,0.0061361,0.0139798,1567,1667,9.51248,-27.1291
350,-643,9.54773,26.8248,0.00387247,0.00822807,-0.00338455,0.0100749,0.0020256,-1.07128,0.00615358,0.0131605,1574,1667,9.54771,-26.8248
357,-643,9.55176,26.552,0.00369641,0.00779676,-0.00334724,0.00967179,0.00182138,-1.06018,0.00593464,0.0109637,1581,1667,9.55175,-26.552
364,-643,9.56104,26.2787,0.00342468,0.00697042,-0.00312604,0.00879132,0.00160377,-1.04335,0.00540617,0.00958632,1588,1667,9.561,-26.2786
371,-643,9.55066,26.0178,0.00303327,0.00591904,-0.00275245,0.00758387,0.00136844,-1.02682,0.00466713,0.00794733,1595,1667,9.5507,-26.0178
378,-643,9.55176,25.7471,0.00255764,0.00472473,-0.00229774,0.00618159,0.00110078,-1.00572,0.00380755,0.00934348,1602,1667,9.55174,-25.747
385,-643,9.57715,25.4518,0.0020839,0.00341932,-0.00183447,0.00470382,0.0007994,-0.959936,0.00290629,0.0153146,1609,1667,9.57714,-25.4517
392,-643,9.55554,25.1587,0.00154021,0.00193493,-0.00128353,0.00303618,0.00043896,-0.861683,0.00189483,0.0167147,1616,1667,9.5555,-25.1586
399,-643,9.54272,24.8794,0.000844275,0.000580232,-0.000736235,0.00146023,-3.57246e-05,-0.696681,0.000985612,0.0142036,1623,1667,9.54273,-24.8794
406,-643,9.55261,24.5569,0.000185157,-0.000611646,-0.000241783,0.000252784,-0.000679273,-0.272733,0.000556585,0.0131144,1630,1667,9.55262,-24.5569
413,-643,9.55359,24.2291,-0.000371953,-0.00163433,0.000189042,-0.000344252,-0.00166203,0.145499,0.00101296,0.0201038,1637,1667,9.55357,-24.2291
420,-643,9.51819,23.9196,-0.000820175,-0.00255275,0.000577915,-0.000645098,-0.00272783,0.294157,0.0016462,0.0191761,1644,1667,9.51822,-23.9195
427,-643,9.51746,23.6174,-0.000581722,-0.00350157,0.000919835,-0.000316109,-0.00376718,0.281114,0.00241299,0.0159052,1651,1667,9.51746,-23.6174
434,-643,9.51526,23.3018,0.00097414,-0.00474857,0.00104325,0.00115839,-0.00493282,0.174811,0.00373504,0.0166764,1658,1667,9.51531,-23.3018
441,-643,9.52417,22.9663,0.00276664,-0.00485974,0.00029011,0.00277766,-0.00487076,0.0379672,0.0044706,0.0167536,1665,1667,9.5242,-22.9663
448,-643,9.44141,22.6388,0.00492718,-0.00547507,-1.3211e-05,0.0049272,-0.00547509,-0.00127001,0.00600854,0.0221067,1672,1667,9.44136,-22.6388
455,-643,9.38599,22.2699,0.00813261,-0.00617382,-0.000462373,0.00814754,-0.00618875,-0.0322743,0.00830278,0.0307042,1679,1667,9.38605,-22.2699
462,-643,9.40405,22.0529,0.0122636,-0.00751523,-0.00101937,0.012316,-0.00756763,-0.0513572,0.0115884,0.0410625,1686,1667,9.40404,-22.0528
469,-643,9.3053,21.8728,0.0177626,-0.00860269,-0.00215116,0.017937,-0.00877705,-0.0808778,0.0157227,0.0467573,1693,1667,9.3053,-21.8728
476,-643,9.38757,21.6425,0.0247421,-0.00946687,-0.00389698,0.0251804,-0.00990518,-0.112005,0.0208868,0.0445258,1700,1667,9.38753,-21.6425
483,-643,9.73682,21.4221,0.0330284,-0.0095591,-0.00656865,0.0340186,-0.0105492,-0.149608,0.0268942,0.0494947,1707,1667,9.7368,-21.4221
490,-643,10.0681,21.1466,0,0,0,0,0,0,0,-1,1714,1667,10.0681,-21.1466
497,-643,9.23706,16.8604,0,0,0,0,0,0,0,-1,1721,1667,9.23707,-16.8604
504,-643,8.05591,19.0656,0,0,0,0,0,0,0,-1,1728,1667,8.0559,-19.0655
511,-643,7.74719,18.1564,0,0,0,0,0,0,0,-1,1735,1667,7.74724,-18.1563
518,-643,7.40564,0.922607,0,0,0,0,0,0,0,-1,1742,1667,7.4057,-0.922598
525,-643,0,0,0,0,0,0,0,0,0,-1,1749,1667,0,0
532,-643,0,0,0,0,0,0,0,0,0,-1,1756,1667,0,0
539,-643,0,0,0,0,0,0,0,0,0,-1,1763,1667,0,0
546,-643,0,0,0,0,0,0,0,0,0,-1,1770,1667,0,0
553,-643,0,0,0,0,0,0,0,0,0,-1,1777,1667,0,0
560,-643,0,0,0,0,0,0,0,0,0,-1,1784,1667,0,0
567,-643,0,0,0,0,0,0,0,0,0,-1,1791,1667,0,0
574,-643,0,0,0,0,0,0,0,0,0,-1,1798,1667,0,0
581,-643,0,0,0,0,0,0,0,0,0,-1,1805,1667,0,0
588,-643,0,0,0,0,0,0,0,0,0,-1,1812,1667,0,0
595,-643,0,0,0,0,0,0,0,0,0,-1,1819,1667,0,0
602,-643,0,0,0,0,0,0,0,0,0,-1,1826,1667,0,0
609,-643,0,0,0,0,0,0,0,0,0,-1,1833,1667,0,0
616,-643,0,0,0,0,0,0,0,0,0,-1,1840,1667,0,0
623,-643,0,0,0,0,0,0,0,0,0,-1,1847,1667,0,0
630,-643,0,0,0,0,0,0,0,0,0,-1,1854,1667,0,0
637,-643,0,0,0,0,0,0,0,0,0,-1,1861,1667,0,0
644,-643,0,0,0,0,0,0,0,0,0,-1,1868,1667,0,0
651,-643,0,0,0,0,0,0,0,0,0,-1,1875,1667,0,0
658,-643,0,0,0,0,0,0,0,0,0,-1,1882,1667,0,0
665,-643,0,0,0,0,0,0,0,0,0,-1,1889,1667,0,0
672,-643,0,0,0,0,0,0,0,0,0,-1,1896,1667,0,0
679,-643,0,0,0,0,0,0,0,0,0,-1,1903,1667,0,0
686,-643,0,0,0,0,0,0,0,0,0,-1,1910,1667,0,0
693,-643,0,0,0,0,0,0,0,0,0,-1,1917,1667,0,0
700,-643,0,0,0,0,0,0,0,0,0,-1,1924,1667,0,0
707,-643,0,0,0,0,0,0,0,0,0,-1,1931,1667,0,0
714,-643,0,0,0,0,0,0,0,0,0,-1,1938,1667,0,0
721,-643,0,0,0,0,0,0,0,0,0,-1,1945,1667,0,0
728,-643,0,0,0,0,0,0,0,0,0,-1,1952,1667,0,0
735,-643,0,0,0,0,0,0,0,0,0,-1,1959,1667,0,0
742,-643,0,0,0,0,0,0,0,0,0,-1,1966,1667,0,0
749,-643,0,0,0,0,0,0,0,0,0,-1,1973,1667,0,0
756,-643,0,0,0,0,0,0,0,0,0,-1,1980,1667,0,0
763,-643,0,0,0,0,0,0,0,0,0,-1,1987,1667,0,0
770,-643,0,0,0,0,0,0,0,0,0,-1,1994,1667,0,0
777,-643,0,0,0,0,0,0,0,0,0,-1,2001,1667,0,0
784,-643,0,0,0,0,0,0,0,0,0,-1,2008,1667,0,0
791,-643,0,0,0,0,0,0,0,0,0,-1,2015,1667,0,0
798,-643,0,0,0,0,0,0,0,0,0,-1,2022,1667,0,0
805,-643,0,0,0,0,0,0,0,0,0,-1,2029,1667,0,0
812,-643,0,0,0,0,0,0,0,0,0,-1,2036,1667,0,0
-700,-650,0,0,0,0,0,0,0,0,0,-1,524,1674,0,0
-693,-650,0,0,0,0,0,0,0,0,0,-1,531,1674,0,0
-686,-650,0,0,0,0,0,0,0,0,0,-1,538,1674,0,0
-679,-650,0,0,0,0,0,0,0,0,0,-1,545,1674,0,0
-672,-650,0,0,0,0,0,0,0,0,0,-1,552,1674,0,0
-665,-650,0,0,0,0,0,0,0,0,0,-1,559,1674,0,0
-658,-650,0,0,0,0,0,0,0,0,0,-1,566,1674,0,0
-651,-650,0,0,0,0,0,0,0,0,0,-1,573,1674,0,0
-644,-650,0,0,0,0,0,0,0,0,0,-1,580,1674,0,0
-637,-650,0,0,0,0,0,0,0,0,0,-1,587,1674,0,0
-630,-650,0,0,0,0,0,0,0,0,0,-1,594,1674,0,0
-623,-650,0,0,0,0,0,0,0,0,0,-1,601,1674,0,0
-616,-650,0,0,0,0,0,0,0,0,0,-1,608,1674,0,0
-609,-650,0,0,0,0,0,0,0,0,0,-1,615,1674,0,0
-602,-650,0,0,0,0,0,0,0,0,0,-1,622,1674,0,0
-595,-650,0,0,0,0,0,0,0,0,0,-1,629,1674,0,0
-588,-650,0,0,0,0,0,0,0,0,0,-1,636,1674,0,0
-581,-650,0,0,0,0,0,0,0,0,0,-1,643,1674,0,0
-574,-650,0,0,0,0,0,0,0,0,0,-1,650,1674,0,0
-567,-650,0,0,0,0,0,0,0,0,0,-1,657,1674,0,0
-560,-650,0,0,0,0,0,0,0,0,0,-1,664,1674,0,0
-553,-650,0,0,0,0,0,0,0,0,0,-1,671,1674,0,0
-546,-650,0,0,0,0,0,0,0,0,0,-1,678,1674,0,0
-539,-650,0,0,0,0,0,0,0,0,0,-1,685,1674,0,0
-532,-650,0,0,0,0,0,0,0,0,0,-1,692,1674,0,0
-525,-650,0,0,0,0,0,0,0,0,0,-1,699,1674,0,0
-518,-650,0,0,0,0,0,0,0,0,0,-1,706,1674,0,0
-511,-650,0,0,0,0,0,0,0,0,0,-1,713,1674,0,0
-504,-650,0,0,0,0,0,0,0,0,0,-1,720,1674,0,0
-497,-650,0,0,0,0,0,0,0,0,0,-1,727,1674,0,0
-490,-650,0,0,0,0,0,0,0,0,0,-1,734,1674,0,0
-483,-650,0,0,0,0,0,0,0,0,0,-1,741,1674,0,0
-476,-650,0,0,0,0,0,0,0,0,0,-1,748,1674,0,0
-469,-650,0,0,0,0,0,0,0,0,0,-1,755,1674,0,0
-462,-650,0,0,0,0,0,0,0,0,0,-1,762,1674,0,0
-455,-650,0,0,0,0,0,0,0,0,0,-1,769,1674,0,0
-448,-650,0,0,0,0,0,0,0,0,0,-1,776,1674,0,0
-441,-650,0,0,0,0,0,0,0,0,0,-1,783,1674,0,0
-434,-650,0,0,0,0,0,0,0,0,0,-1,790,1674,0,0
-427,-650,0,0,0,0,0,0,0,0,0,-1,797,1674,0,0
-420,-650,0,0,0,0,0,0,0,0,0,-1,804,1674,0,0
-413,-650,0,0,0,0,0,0,0,0,0,-1,811,1674,0,0
-406,-650,0,0,0,0,0,0,0,0,0,-1,818,1674,0,0
-399,-650,0,0,0,0,0,0,0,0,0,-1,825,1674,0,0
-392,-650,5.44415,6.85669,0,0,0,0,0,0,0,-1,832,1674,5.44414,-6.85674
-385,-650,1.74451,14.0183,0,0,0,0,0,0,0,-1,839,1674,1.74453,-14.0183
-378,-650,0.997986,4.11108,0,0,0,0,0,0,0,-1,846,1674,0.998006,-4.11113
-371,-650,-1.80096,3.78625,0,0,0,0,0,0,0,-1,853,1674,-1.80094,-3.78625
-364,-650,-2.95679,2.57507,0,0,0,0,0,0,0,-1,860,1674,-2.95681,-2.57506
-357,-650,1.97833,10.8362,0,0,0,0,0,0,0,-1,867,1674,1.97835,-10.8362
-350,-650,-5.30243,0.159912,0,0,0,0,0,0,0,-1,874,1674,-5.30244,-0.159866
-343,-650,-6.21338,-1.4425,0,0,0,0,0,0,0,-1,881,1674,-6.21341,1.44248
-336,-650,4.20111,17.2285,0,0,0,0,0,0,0,-1,888,1674,4.20113,-17.2285
-329,-650,4.95618,21.0699,0,0,0,0,0,0,0,-1,895,1674,4.9562,-21.0699
-322,-650,4.89703,21.4922,0.000784257,0.00166484,0.000647599,0.00200764,0.000441451,1.08395,0.00121824,0.0427593,902,1674,4.89704,-21.4922
-315,-650,4.82587,21.8215,0.00141606,0.00110253,0.00121312,0.0024825,3.60842e-05,0.721142,0.0016431,0.0374795,909,1674,4.82586,-21.8215
-308,-650,4.79871,22.1089,0.00190295,0.000614592,0.00166861,0.00304741,-0.000529868,0.601184,0.00222932,0.0211238,916,1674,4.7987,-22.1088
-301,-650,4.78632,22.5216,0.0023156,0.000284819,0.00197535,0.00352125,-0.000920835,0.547994,0.00270716,0.0124007,923,1674,4.78631,-22.5216
-294,-650,4.74982,22.8418,0.00259444,0.000227038,0.00202249,0.00375415,-0.000932677,0.520639,0.00286472,0.0104973,930,1674,4.74982,-22.8418
-287,-650,4.72601,23.1692,0.00274985,0.000239614,0.0020013,0.00385704,-0.000867578,0.505325,0.00290408,0.0132004,937,1674,4.72603,-23.1692
-280,-650,4.7179,23.4958,0.00272537,0.000130346,0.00188679,0.00371773,-0.000862018,0.484193,0.00281025,0.0147471,944,1674,4.71791,-23.4958
-273,-650,4.70819,23.8475,0.00267429,0.000149503,0.0016923,0.00352318,-0.000699383,0.464941,0.0026133,0.0142807,951,1674,4.70819,-23.8476
-266,-650,4.6358,24.1959,0.00256212,0.000183138,0.00143084,0.00323333,-0.00048807,0.438623,0.00233531,0.0114609,958,1674,4.63578,-24.1959
-259,-650,4.65863,24.5083,0.00238192,0.000326349,0.00123342,0.00295964,-0.000251379,0.438045,0.002062,0.0136481,965,1674,4.65864,-24.5083
-252,-650,4.67151,24.829,0.0021917,0.00049255,0.000938197,0.00260782,7.6427e-05,0.417465,0.00171364,0.0127379,972,1674,4.67151,-24.829
-245,-650,4.67206,25.1398,0.00207023,0.000673177,0.000695389,0.00235736,0.000386054,0.391573,0.00146,0.011358,979,1674,4.67206,-25.1398
-238,-650,4.65295,25.4817,0.00208745,0.000826552,0.000539095,0.00228651,0.000627489,0.353723,0.00136416,0.0126049,986,1674,4.65292,-25.4817
-231,-650,4.63275,25.7969,0.00230212,0.000930351,0.00052715,0.00248129,0.000751178,0.327641,0.00146927,0.0174415,993,1674,4.63275,-25.7968
-224,-650,4.65271,26.0596,0.00249751,0.00114686,0.0005686,0.002705,0.000939363,0.349905,0.00158583,0.0147441,1000,1674,4.65272,-26.0596
-217,-650,4.66473,26.319,0.00282286,0.00144959,0.000697415,0.00311492,0.00115753,0.396595,0.00181806,0.00995753,1007,1674,4.66474,-26.3189
-210,-650,4.67279,26.6118,0.00299934,0.00202378,0.000675818,0.00334502,0.00167809,0.472806,0.00193125,0.00885654,1014,1674,4.67279,-26.6119
-203,-650,4.69678,26.9026,0.0030135,0.00283396,0.000282384,0.00322004,0.00262742,0.631498,0.00197896,0.0131586,1021,1674,4.69674,-26.9026
-196,-650,4.70947,27.1609,0.003042,0.00351961,0.000147017,0.00356124,0.00300037,1.29488,0.00221105,0.0134161,1028,1674,4.70947,-27.1609
-189,-650,4.70276,27.4346,0.0028059,0.00445777,-0.000235335,0.00449065,0.00277302,-1.43201,0.00261644,0.011157,1035,1674,4.70275,-27.4346
-182,-650,4.74634,27.7241,0.00246793,0.00590144,-0.000595361,0.00600174,0.00236762,-1.40389,0.00349073,0.0102871,1042,1674,4.74638,-27.7242
-175,-650,4.77258,27.9791,0.00194227,0.00756276,-0.0010094,0.00773855,0.00176648,-1.39838,0.00468262,0.0153877,1049,1674,4.77261,-27.9792
-168,-650,4.75598,28.2228,0.00130131,0.00960684,-0.00140526,0.00983816,0.00106999,-1.40765,0.0062328,0.019407,1056,1674,4.75592,-28.2228
-161,-650,4.78223,28.4578,0.000647516,0.0119002,-0.00174726,0.0121653,0.000382453,-1.42024,0.00798575,0.0279422,1063,1674,4.78227,-28.4578
-154,-650,4.84668,28.6075,-7.36917e-05,0.0145909,-0.00205983,0.0148747,-0.000357527,-1.43386,0.0100378,0.0316476,1070,1674,4.84672,-28.6076
-147,-650,4.89539,28.8499,-0.000771298,0.0175822,-0.00230855,0.0178682,-0.00105722,-1.44757,0.0122797,0.0492528,1077,1674,4.8954,-28.8498
-140,-650,4.67493,29.4331,0,0,0,0,0,0,0,-1,1084,1674,4.67488,-29.433
-133,-650,4.62305,30.1603,0,0,0,0,0,0,0,-1,1091,1674,4.62299,-30.1602
-126,-650,5.25488,26.2078,0,0,0,0,0,0,0,-1,1098,1674,5.25489,-26.2078
-119,-650,5.16663,20.6232,0,0,0,0,0,0,0,-1,1105,1674,5.16665,-20.6232
-112,-650,3.86292,14.4513,0,0,0,0,0,0,0,-1,1112,1674,3.8629,-14.4513
-105,-650,4.9259,12.0626,0,0,0,0,0,0,0,-1,1119,1674,4.92591,-12.0626
-98,-650,3.3761,6.78003,0,0,0,0,0,0,0,-1,1126,1674,3.37611,-6.78009
-91,-650,3.66809,7.04443,0,0,0,0,0,0,0,-1,1133,1674,3.66806,-7.04439
-84,-650,-3.82666,-1.59521,0,0,0,0,0,0,0,-1,1140,1674,-3.82661,1.59517
-77,-650,-4.70557,1.90198,0,0,0,0,0,0,0,-1,1147,1674,-4.7056,-1.90194
-70,-650,-4.88171,3.81653,0,0,0,0,0,0,0,-1,1154,1674,-4.88176,-3.81651
-63,-650,-5.14612,5.56543,0,0,0,0,0,0,0,-1,1161,1674,-5.14612,-5.56547
-56,-650,-5.38367,7.41101,0,0,0,0,0,0,0,-1,1168,1674,-5.38361,-7.41102
-49,-650,-5.11316,8.23706,0,0,0,0,0,0,0,-1,1175,1674,-5.11317,-8.23708
-42,-650,-4.99487,9.6792,0,0,0,0,0,0,0,-1,1182,1674,-4.99484,-9.67921
-35,-650,-4.77771,11.3369,0,0,0,0,0,0,0,-1,1189,1674,-4.77769,-11.3369
-28,-650,-4.1936,13.1501,0,0,0,0,0,0,0,-1,1196,1674,-4.19358,-13.1501
-21,-650,4.11938,31.3551,0,0,0,0,0,0,0,-1,1203,1674,4.11944,-31.3551
-14,-650,6.57336,30.4391,0,0,0,0,0,0,0,-1,1210,1674,6.5734,-30.4391
-7,-650,9.5769,32.2417,0,0,0,0,0,0,0,-1,1217,1674,9.57689,-32.2417
0,-650,4.14941,39.8602,0,0,0,0,0,0,0,-1,1224,1674,4.14941,-39.8603
7,-650,4.69409,39.8811,0,0,0,0,0,0,0,-1,1231,1674,4.69405,-39.8812
14,-650,5.05139,39.0889,0,0,0,0,0,0,0,-1,1238,1674,5.05134,-39.0889
21,-650,5.51294,39.0016,0.0430447,-0.00524805,0.0431956,0.0683847,-0.0305881,0.530534,0.0585144,0.0448734,1245,1674,5.51294,-39.0015
28,-650,6.07495,38.8704,0.0342626,0.00234232,0.033294,0.0552242,-0.0186193,0.561895,0.0443453,0.0447373,1252,1674,6.07492,-38.8704
35,-650,6.61328,38.7009,0,0,0,0,0,0,0,-1,1259,1674,6.61322,-38.7009
42,-650,8.12231,35.9829,0,0,0,0,0,0,0,-1,1266,1674,8.12227,-35.9829
49,-650,8.14746,35.64,0.00312993,0.0187131,0.00688108,0.0213166,0.000526422,1.20908,0.0140389,0.0463044,1273,1674,8.1474,-35.64
56,-650,8.1178,35.199,-0.00590542,0.0187286,-0.000579508,0.0187423,-0.00591904,-1.54729,0.014866,0.0493705,1280,1674,8.11777,-35.199
63,-650,8.02429,34.7479,0,0,0,0,0,0,0,-1,1287,1674,8.02429,-34.748
70,-650,9.11499,33.3644,0,0,0,0,0,0,0,-1,1294,1674,9.115,-33.3644
77,-650,9.29077,33.5924,0,0,0,0,0,0,0,-1,1301,1674,9.29083,-33.5924
84,-650,9.46667,33.8206,0,0,0,0,0,0,0,-1,1308,1674,9.46666,-33.8205
91,-650,4.4574,32.8755,0,0,0,0,0,0,0,-1,1315,1674,4.45736,-32.8754
98,-650,3.2981,27.8995,-0.00533613,-0.0159522,-0.0304557,0.0202706,-0.041559,-0.699121,0.0363958,0.0478633,1322,1674,3.29813,-27.8996
105,-650,3.56189,27.7722,0.00284677,-0.0270625,-0.0340467,0.0250784,-0.0492941,-0.578464,0.0436911,0.0481161,1329,1674,3.56186,-27.7722
112,-650,3.59448,27.9048,0.0133881,-0.0374608,-0.037079,0.032922,-0.0569948,-0.484872,0.05253,0.0428771,1336,1674,3.59454,-27.9048
119,-650,3.88562,27.8613,0.0244183,-0.0465096,-0.04011,0.0424941,-0.0645854,-0.423399,0.0622594,0.0426807,1343,1674,3.88558,-27.8613
126,-650,4.04333,27.8801,0,0,0,0,0,0,0,-1,1350,1674,4.04334,-27.8801
133,-650,4.10498,28.1016,0.0417317,-0.0618957,-0.0443504,0.0581208,-0.0782848,-0.353972,0.0790401,0.0488382,1357,1674,4.10496,-28.1015
140,-650,4.37146,28.2095,0.0468373,-0.0676647,-0.0441269,0.0618695,-0.0826969,-0.328329,0.0837537,0.0442915,1364,1674,4.37143,-28.2095
147,-650,4.70825,28.3204,0.0502977,-0.0693962,-0.0419818,0.0635543,-0.0826528,-0.305861,0.0846525,0.0449736,1371,1674,4.70822,-28.3204
154,-650,5.02466,28.272,0,0,0,0,0,0,0,-1,1378,1674,5.02466,-28.272
161,-650,8.33691,35.147,0,0,0,0,0,0,0,-1,1385,1674,8.33687,-35.1469
168,-650,11.2113,7.87231,0,0,0,0,0,0,0,-1,1392,1674,11.2113,-7.87236
175,-650,5.62537,-0.230713,0,0,0,0,0,0,0,-1,1399,1674,5.62538,0.230745
182,-650,5.56006,0.421631,0,0,0,0,0,0,0,-1,1406,1674,5.56,-0.421652
189,-650,4.81543,11.0654,0,0,0,0,0,0,0,-1,1413,1674,4.81542,-11.0654
196,-650,5.39575,11.9077,0,0,0,0,0,0,0,-1,1420,1674,5.39575,-11.9078
203,-650,3.93628,11.8215,0,0,0,0,0,0,0,-1,1427,1674,3.93624,-11.8216
210,-650,5.40955,8.08594,0,0,0,0,0,0,0,-1,1434,1674,5.40958,-8.086
217,-650,5.12451,4.69739,0,0,0,0,0,0,0,-1,1441,1674,5.12451,-4.69738
224,-650,4.79041,1.45813,0,0,0,0,0,0,0,-1,1448,1674,4.79046,-1.45816
231,-650,4.04102,-0.642212,0,0,0,0,0,0,0,-1,1455,1674,4.04101,0.642209
238,-650,3.23022,-1.43396,0,0,0,0,0,0,0,-1,1462,1674,3.23023,1.43394
245,-650,1.65894,-2.55042,0,0,0,0,0,0,0,-1,1469,1674,1.65889,2.55036
252,-650,8.75342,0.355103,0,0,0,0,0,0,0,-1,1476,1674,8.75337,-0.355147
259,-650,5.61255,3.17566,0,0,0,0,0,0,0,-1,1483,1674,5.61257,-3.17572
266,-650,4.00403,6.10229,0,0,0,0,0,0,0,-1,1490,1674,4.00401,-6.10225
273,-650,8.74963,28.9419,0,0,0,0,0,0,0,-1,1497,1674,8.74958,-28.9419
280,-650,8.64868,29.0187,0.0111304,0.000752795,-0.0033641,0.0121255,-0.000242323,-0.287604,0.00816564,0.0496205,1504,1674,8.64869,-29.0187
287,-650,8.72986,29.047,0.0095147,0.00156596,-0.00269101,0.01034,0.000740622,-0.297592,0.00666022,0.0458405,1511,1674,8.72987,-29.047
294,-650,9.09143,28.929,0.00804348,0.0020777,-0.00223912,0.00879037,0.00133081,-0.321959,0.00547087,0.0461546,1518,1674,9.09145,-28.9289
301,-650,9.20288,28.5544,0.0067991,0.00233318,-0.00171469,0.00738151,0.00175077,-0.327429,0.00445364,0.035636,1525,1674,9.2029,-28.5545
308,-650,9.22363,28.3331,0.00577354,0.00316808,-0.00159471,0.00652999,0.00241163,-0.442916,0.00381277,0.0232107,1532,1674,9.22363,-28.3332
315,-650,9.21899,28.1216,0.00482745,0.0038367,-0.00147906,0.00589189,0.00277226,-0.623807,0.00340365,0.0172987,1539,1674,9.21903,-28.1216
322,-650,9.20288,27.8735,0.00416703,0.00456416,-0.00164586,0.00602339,0.0027078,-0.84543,0.0034835,0.0138291,1546,1674,9.20284,-27.8735
329,-650,9.24011,27.5719,0.00373716,0.00501042,-0.00184616,0.00632664,0.00242094,-0.951434,0.00368606,0.0172489,1553,1674,9.24017,-27.5719
336,-650,9.2356,27.3488,0.00335141,0.00544125,-0.00187367,0.00654167,0.00225099,-1.03976,0.00383754,0.014902,1560,1674,9.23565,-27.3487
343,-650,9.25256,27.1072,0.00287497,0.00544881,-0.00195438,0.00650192,0.00182186,-1.07656,0.0038729,0.0138843,1567,1674,9.25261,-27.1071
350,-650,9.28455,26.8405,0.00251237,0.00511661,-0.0020211,0.00621873,0.00141025,-1.07156,0.00376483,0.0163391,1574,1674,9.2845,-26.8404
357,-650,9.27002,26.5664,0.00229471,0.00468423,-0.0019811,0.00580295,0.00117598,-1.05674,0.00354232,0.0135162,1581,1674,9.27007,-26.5664
364,-650,9.27051,26.2843,0.00200595,0.00387793,-0.0017786,0.00495179,0.000932095,-1.02761,0.00303853,0.00988584,1588,1674,9.27055,-26.2843
371,-650,9.25122,26.0221,0.00163559,0.00287844,-0.00145759,0.00384155,0.000672489,-0.9869,0.0023689,0.0121301,1595,1674,9.25124,-26.0221
378,-650,9.24133,25.7361,0.00122449,0.00176333,-0.00107189,0.00259914,0.000388676,-0.908524,0.00161883,0.011942,1602,1674,9.24127,-25.7361
385,-650,9.25366,25.4445,0.000830046,0.000577258,-0.000677544,0.00139288,1.44194e-05,-0.693185,0.000923821,0.0132299,1609,1674,9.25369,-25.4444
392,-650,9.25952,25.1769,0.000347992,-0.000767341,-0.000223937,0.000391274,-0.000810624,-0.190926,0.000707855,0.0178353,1616,1674,9.25948,-25.1769
399,-650,9.24878,24.897,-0.00024832,-0.00198736,0.000197631,-0.000226144,-0.00200954,0.111745,0.00127103,0.0167057,1623,1674,9.2488,-24.897
406,-650,9.2467,24.5708,-0.000793064,-0.00303628,0.000600714,-0.000642327,-0.00318702,0.245854,0.00194623,0.0149287,1630,1674,9.2467,-24.5708
413,-650,9.2478,24.2318,-0.00122522,-0.00384765,0.000916961,-0.000936399,-0.00413647,0.305135,0.00250456,0.0160678,1637,1674,9.24781,-24.2319
420,-650,9.22351,23.9412,-0.00159279,-0.00456648,0.00123963,-0.00114382,-0.00501545,0.347487,0.00303508,0.0162713,1644,1674,9.22347,-23.9412
427,-650,9.21594,23.6481,-0.00118465,-0.00540657,0.00153176,-0.000687457,-0.00590376,0.313858,0.00372788,0.0153381,1651,1674,9.21596,-23.6481
434,-650,9.20593,23.3315,0.000775121,-0.00673186,0.00170251,0.00114319,-0.00709993,0.212914,0.00515676,0.0186287,1658,1674,9.20591,-23.3315
441,-650,9.17188,23.056,0.00289292,-0.00691615,0.000967159,0.00298737,-0.0070106,0.0973494,0.00592607,0.0314164,1665,1674,9.17191,-23.056
448,-650,9.08167,22.7589,0.00544448,-0.00759811,0.000818216,0.00549561,-0.00764924,0.062408,0.00762306,0.0460463,1672,1674,9.08161,-22.7589
455,-650,8.93848,22.4363,0.0093854,-0.008471,0.000595919,0.00940527,-0.00849086,0.0333234,0.0103368,0.047039,1679,1674,8.93843,-22.4362
462,-650,8.81531,22.1399,0,0,0,0,0,0,0,-1,1686,1674,8.81525,-22.1399
469,-650,8.74988,22.0646,0,0,0,0,0,0,0,-1,1693,1674,8.74993,-22.0646
476,-650,8.77979,21.9194,0,0,0,0,0,0,0,-1,1700,1674,8.77973,-21.9195
483,-650,9.19336,21.8174,0,0,0,0,0,0,0,-1,1707,1674,9.19339,-21.8173
490,-650,9.0553,16.6405,0,0,0,0,0,0,0,-1,1714,1674,9.05532,-16.6405
497,-650,10.4985,20.1362,0,0,0,0,0,0,0,-1,1721,1674,10.4986,-20.1362
504,-650,9.69458,18.7721,0,0,0,0,0,0,0,-1,1728,1674,9.6946,-18.772
511,-650,9.37158,17.7506,0,0,0,0,0,0,0,-1,1735,1674,9.37159,-17.7506
518,-650,0,0,0,0,0,0,0,0,0,-1,1742,1674,0,0
525,-650,0,0,0,0,0,0,0,0,0,-1,1749,1674,0,0
532,-650,0,0,0,0,0,0,0,0,0,-1,1756,1674,0,0
539,-650,0,0,0,0,0,0,0,0,0,-1,1763,1674,0,0
546,-650,0,0,0,0,0,0,0,0,0,-1,1770,1674,0,0
553,-650,0,0,0,0,0,0,0,0,0,-1,1777,1674,0,0
560,-650,0,0,0,0,0,0,0,0,0,-1,1784,1674,0,0
567,-650,0,0,0,0,0,0,0,0,0,-1,1791,1674,0,0
574,-650,0,0,0,0,0,0,0,0,0,-1,1798,1674,0,0
581,-650,0,0,0,0,0,0,0,0,0,-1,1805,1674,0,0
588,-650,0,0,0,0,0,0,0,0,0,-1,1812,1674,0,0
595,-650,0,0,0,0,0,0,0,0,0,-1,1819,1674,0,0
602,-650,0,0,0,0,0,0,0,0,0,-1,1826,1674,0,0
609,-650,0,0,0,0,0,0,0,0,0,-1,1833,1674,0,0
616,-650,0,0,0,0,0,0,0,0,0,-1,1840,1674,0,0
623,-650,0,0,0,0,0,0,0,0,0,-1,1847,1674,0,0
630,-650,0,0,0,0,0,0,0,0,0,-1,1854,1674,0,0
637,-650,0,0,0,0,0,0,0,0,0,-1,1861,1674,0,0
644,-650,0,0,0,0,0,0,0,0,0,-1,1868,1674,0,0
651,-650,0,0,0,0,0,0,0,0,0,-1,1875,1674,0,0
658,-650,0,0,0,0,0,0,0,0,0,-1,1882,1674,0,0
665,-650,0,0,0,0,0,0,0,0,0,-1,1889,1674,0,0
672,-650,0,0,0,0,0,0,0,0,0,-1,1896,1674,0,0
679,-650,0,0,0,0,0,0,0,0,0,-1,1903,1674,0,0
686,-650,0,0,0,0,0,0,0,0,0,-1,1910,1674,0,0
693,-650,0,0,0,0,0,0,0,0,0,-1,1917,1674,0,0
700,-650,0,0,0,0,0,0,0,0,0,-1,1924,1674,0,0
707,-650,0,0,0,0,0,0,0,0,0,-1,1931,1674,0,0
714,-650,0,0,0,0,0,0,0,0,0,-1,1938,1674,0,0
721,-650,0,0,0,0,0,0,0,0,0,-1,1945,1674,0,0
728,-650,0,0,0,0,0,0,0,0,0,-1,1952,1674,0,0
735,-650,0,0,0,0,0,0,0,0,0,-1,1959,1674,0,0
742,-650,0,0,0,0,0,0,0,0,0,-1,1966,1674,0,0
749,-650,0,0,0,0,0,0,0,0,0,-1,1973,1674,0,0
756,-650,0,0,0,0,0,0,0,0,0,-1,1980,1674,0,0
763,-650,0,0,0,0,0,0,0,0,0,-1,1987,1674,0,0
770,-650,0,0,0,0,0,0,0,0,0,-1,1994,1674,0,0
777,-650,0,0,0,0,0,0,0,0,0,-1,2001,1674,0,0
784,-650,0,0,0,0,0,0,0,0,0,-1,2008,1674,0,0
791,-650,0,0,0,0,0,0,0,0,0,-1,2015,1674,0,0
798,-650,0,0,0,0,0,0,0,0,0,-1,2022,1674,0,0
805,-650,0,0,0,0,0,0,0,0,0,-1,2029,1674,0,0
812,-650,0,0,0,0,0,0,0,0,0,-1,2036,1674,0,0
-700,-657,0,0,0,0,0,0,0,0,0,-1,524,1681,0,0
-693,-657,0,0,0,0,0,0,0,0,0,-1,531,1681,0,0
-686,-657,0,0,0,0,0,0,0,0,0,-1,538,1681,0,0
-679,-657,0,0,0,0,0,0,0,0,0,-1,545,1681,0,0
-672,-657,0,0,0,0,0,0,0,0,0,-1,552,1681,0,0
-665,-657,0,0,0,0,0,0,0,0,0,-1,559,1681,0,0
-658,-657,0,0,0,0,0,0,0,0,0,-1,566,1681,0,0
-651,-657,0,0,0,0,0,0,0,0,0,-1,573,1681,0,0
-644,-657,0,0,0,0,0,0,0,0,0,-1,580,1681,0,0
-637,-657,0,0,0,0,0,0,0,0,0,-1,587,1681,0,0
-630,-657,0,0,0,0,0,0,0,0,0,-1,594,1681,0,0
-623,-657,0,0,0,0,0,0,0,0,0,-1,601,1681,0,0
-616,-657,0,0,0,0,0,0,0,0,0,-1,608,1681,0,0
-609,-657,0,0,0,0,0,0,0,0,0,-1,615,1681,0,0
-602,-657,0,0,0,0,0,0,0,0,0,-1,622,1681,0,0
-595,-657,0,0,0,0,0,0,0,0,0,-1,629,1681,0,0
-588,-657,0,0,0,0,0,0,0,0,0,-1,636,1681,0,0
-581,-657,0,0,0,0,0,0,0,0,0,-1,643,1681,0,0
-574,-657,0,0,0,0,0,0,0,0,0,-1,650,1681,0,0
-567,-657,0,0,0,0,0,0,0,0,0,-1,657,1681,0,0
-560,-657,0,0,0,0,0,0,0,0,0,-1,664,1681,0,0
-553,-657,0,0,0,0,0,0,0,0,0,-1,671,1681,0,0
-546,-657,0,0,0,0,0,0,0,0,0,-1,678,1681,0,0
-539,-657,0,0,0,0,0,0,0,0,0,-1,685,1681,0,0
-532,-657,0,0,0,0,0,0,0,0,0,-1,692,1681,0,0
-525,-657,0,0,0,0,0,0,0,0,0,-1,699,1681,0,0
-518,-657,0,0,0,0,0,0,0,0,0,-1,706,1681,0,0
-511,-657,0,0,0,0,0,0,0,0,0,-1,713,1681,0,0
-504,-657,0,0,0,0,0,0,0,0,0,-1,720,1681,0,0
-497,-657,0,0,0,0,0,0,0,0,0,-1,727,1681,0,0
-490,-657,0,0,0,0,0,0,0,0,0,-1,734,1681,0,0
-483,-657,0,0,0,0,0,0,0,0,0,-1,741,1681,0,0
-476,-657,0,0,0,0,0,0,0,0,0,-1,748,1681,0,0
-469,-657,0,0,0,0,0,0,0,0,0,-1,755,1681,0,0
-462,-657,0,0,0,0,0,0,0,0,0,-1,762,1681,0,0
-455,-657,0,0,0,0,0,0,0,0,0,-1,769,1681,0,0
-448,-657,0,0,0,0,0,0,0,0,0,-1,776,1681,0,0
-441,-657,0,0,0,0,0,0,0,0,0,-1,783,1681,0,0
-434,-657,0,0,0,0,0,0,0,0,0,-1,790,1681,0,0
-427,-657,0,0,0,0,0,0,0,0,0,-1,797,1681,0,0
-420,-657,0,0,0,0,0,0,0,0,0,-1,804,1681,0,0
-413,-657,0,0,0,0,0,0,0,0,0,-1,811,1681,0,0
-406,-657,0,0,0,0,0,0,0,0,0,-1,818,1681,0,0
-399,-657,0,0,0,0,0,0,0,0,0,-1,825,1681,0,0
-392,-657,0,0,0,0,0,0,0,0,0,-1,832,1681,0,0
-385,-657,1.09814,6.18896,0,0,0,0,0,0,0,-1,839,1681,1.09814,-6.18894
-378,-657,0.31488,4.46753,0,0,0,0,0,0,0,-1,846,1681,0.31487,-4.46755
-371,-657,-0.519043,2.69421,0,0,0,0,0,0,0,-1,853,1681,-0.519064,-2.69422
-364,-657,-3.42017,4.18323,0,0,0,0,0,0,0,-1,860,1681,-3.42019,-4.18319
-357,-657,-4.41913,2.97168,0,0,0,0,0,0,0,-1,867,1681,-4.41913,-2.97165
-350,-657,-5.42291,1.70276,0,0,0,0,0,0,0,-1,874,1681,-5.42291,-1.70277
-343,-657,-6.51294,0.397339,0,0,0,0,0,0,0,-1,881,1681,-6.51295,-0.397335
-336,-657,4.4566,20.7173,0,0,0,0,0,0,0,-1,888,1681,4.45662,-20.7173
-329,-657,4.96381,20.7294,0,0,0,0,0,0,0,-1,895,1681,4.96383,-20.7293
-322,-657,5.20386,21.3906,0.00222842,0.00248207,0.00131828,0.00367961,0.00103088,0.833353,0.00219181,0.0456176,902,1681,5.20385,-21.3907
-315,-657,5.26331,21.829,0.00320076,0.00176927,0.0021312,0.0047332,0.000236836,0.623396,0.00307956,0.0447711,909,1681,5.26332,-21.829
-308,-657,5.21753,22.1045,0.00379425,0.00106479,0.00272924,0.00548096,-0.000621913,0.553558,0.00387794,0.0388294,916,1681,5.21751,-22.1045
-301,-657,5.14764,22.5233,0.00421907,0.000520023,0.00308755,0.00596867,-0.00122958,0.515547,0.00444601,0.0328799,923,1681,5.14766,-22.5233
-294,-657,5.06104,22.916,0.00439454,0.000414745,0.00305148,0.00604761,-0.00123833,0.49647,0.00450165,0.0205856,930,1681,5.06106,-22.916
-287,-657,5.0318,23.2198,0.00437118,0.000401518,0.00292336,0.00591985,-0.00114715,0.487167,0.00437932,0.0137429,937,1681,5.03178,-23.2199
-280,-657,5.01392,23.4967,0.00407619,0.00017964,0.00267923,0.00544063,-0.00118479,0.471031,0.00407977,0.0141448,944,1681,5.01391,-23.4967
-273,-657,5.01086,23.8477,0.00374989,0.000172975,0.00231807,0.00488924,-0.000966373,0.456829,0.00362481,0.0105238,951,1681,5.01088,-23.8477
-266,-657,4.97144,24.1793,0.00339457,0.000193246,0.0018975,0.00427638,-0.000688557,0.435025,0.00310598,0.0143827,958,1681,4.97141,-24.1793
-259,-657,4.98206,24.496,0.00293954,0.000368936,0.00154703,0.00366553,-0.000357057,0.438772,0.00257098,0.0182121,965,1681,4.98206,-24.496
-252,-657,4.97083,24.8395,0.00245389,0.000523461,0.00111621,0.00296433,1.30159e-05,0.428909,0.0019719,0.0130075,972,1681,4.97084,-24.8394
-245,-657,4.95184,25.156,0.00206359,0.00069625,0.000744108,0.00239041,0.000369425,0.413852,0.00148586,0.0140926,979,1681,4.95182,-25.156
-238,-657,4.96149,25.4669,0.00183641,0.000836766,0.000493656,0.00203909,0.000634079,0.389596,0.00120499,0.0185013,986,1681,4.96147,-25.4669
-231,-657,4.9624,25.7787,0.00181341,0.000993505,0.000383685,0.00196495,0.000841963,0.376156,0.00113833,0.0195704,993,1681,4.96243,-25.7787
-224,-657,4.94727,26.0576,0.00172531,0.00111886,0.0003099,0.00185566,0.000988515,0.398143,0.00107213,0.0159942,1000,1681,4.94725,-26.0576
-217,-657,4.94757,26.3569,0.00182558,0.00133019,0.000353782,0.00200976,0.00114601,0.479993,0.00116414,0.0100772,1007,1681,4.94757,-26.357
-210,-657,4.96393,26.6382,0.00199171,0.00175258,0.000376812,0.00226747,0.00147682,0.631766,0.00132896,0.0103416,1014,1681,4.96392,-26.6382
-203,-657,4.96484,26.905,0.00207694,0.00230794,0.000132831,0.00236847,0.00201642,1.14325,0.00147569,0.0123959,1021,1681,4.9648,-26.905
-196,-657,4.98291,27.1598,0.00215737,0.00274058,6.62345e-05,0.00274801,0.00214994,1.45912,0.00166876,0.0129019,1028,1681,4.98288,-27.1598
-189,-657,4.98792,27.4376,0.00208644,0.00335068,-0.000132646,0.00336445,0.00207267,-1.46738,0.00195983,0.00980756,1035,1681,4.98791,-27.4376
-182,-657,4.98853,27.704,0.00195879,0.00439614,-0.00033123,0.00444035,0.00191458,-1.4381,0.00257172,0.00837638,1042,1681,4.9885,-27.704
-175,-657,5.00903,27.9564,0.00174596,0.00566625,-0.000548382,0.00574151,0.0016707,-1.4344,0.00341004,0.0104724,1049,1681,5.00902,-27.9565
-168,-657,5.00439,28.2134,0.00144575,0.00720411,-0.000737815,0.00729714,0.00135272,-1.44537,0.00448242,0.0121766,1056,1681,5.00434,-28.2134
-161,-657,5.01624,28.4652,0.0011379,0.00898355,-0.000901388,0.00908578,0.00103567,-1.45787,0.00574317,0.0121449,1063,1681,5.01619,-28.4652
-154,-657,5.06982,28.6808,0.000792471,0.0111452,-0.00104771,0.0112501,0.000687506,-1.47094,0.00728175,0.0126606,1070,1681,5.06984,-28.6807
-147,-657,5.06689,28.9064,0.000448903,0.0134671,-0.00113988,0.0135662,0.000349849,-1.48412,0.0089298,0.0209716,1077,1681,5.06692,-28.9064
-140,-657,5.00293,29.2653,0.000225399,0.0159368,-0.00119613,0.0160274,0.000134857,-1.49525,0.0106403,0.0364475,1084,1681,5.00294,-29.2652
-133,-657,4.95276,29.7747,4.94958e-05,0.0185913,-0.00110667,0.0186571,-1.63224e-05,-1.51139,0.0124435,0.0470415,1091,1681,4.95277,-29.7747
-126,-657,4.97534,30.4005,0,0,0,0,0,0,0,-1,1098,1681,4.97532,-30.4006
-119,-657,5.09924,30.6332,0,0,0,0,0,0,0,-1,1105,1681,5.09929,-30.6332
-112,-657,4.6051,21.3439,0,0,0,0,0,0,0,-1,1112,1681,4.60512,-21.3438
-105,-657,3.82434,14.4906,0,0,0,0,0,0,0,-1,1119,1681,3.8244,-14.4906
-98,-657,3.78662,8.16785,0,0,0,0,0,0,0,-1,1126,1681,3.78663,-8.16786
-91,-657,3.6521,16.6017,0,0,0,0,0,0,0,-1,1133,1681,3.65215,-16.6017
-84,-657,4.08008,10.4579,0,0,0,0,0,0,0,-1,1140,1681,4.08006,-10.4579
-77,-657,-5.29846,0.396606,0,0,0,0,0,0,0,-1,1147,1681,-5.29842,-0.396573
-70,-657,-4.14893,2.14575,0,0,0,0,0,0,0,-1,1154,1681,-4.14893,-2.1458
-63,-657,-4.1239,3.177,0,0,0,0,0,0,0,-1,1161,1681,-4.12391,-3.17698
-56,-657,-6.40576,5.73987,0,0,0,0,0,0,0,-1,1168,1681,-6.40577,-5.7399
-49,-657,-5.98462,7.54053,0,0,0,0,0,0,0,-1,1175,1681,-5.98466,-7.5405
-42,-657,-5.71948,9.28955,0,0,0,0,0,0,0,-1,1182,1681,-5.71951,-9.2895
-35,-657,-5.44556,11.015,0,0,0,0,0,0,0,-1,1189,1681,-5.44555,-11.015
-28,-657,-1.3446,8.92847,0,0,0,0,0,0,0,-1,1196,1681,-1.34459,-8.92848
-21,-657,5.58093,31.0286,0,0,0,0,0,0,0,-1,1203,1681,5.58088,-31.0286
-14,-657,9.12964,30.7587,0,0,0,0,0,0,0,-1,1210,1681,9.1296,-30.7587
-7,-657,9.17676,31.5288,0.0473546,-0.013406,0.0672145,0.0907358,-0.0567872,0.573144,0.0859209,0.0441304,1217,1681,9.17677,-31.5289
0,-657,9.24329,32.3202,0.0484993,-0.0106477,0.0644647,0.0898504,-0.0519987,0.570343,0.0828628,0.0418406,1224,1681,9.2433,-32.3202
7,-657,4.21448,40.8909,0,0,0,0,0,0,0,-1,1231,1681,4.2145,-40.8908
14,-657,9.32727,33.6853,0,0,0,0,0,0,0,-1,1238,1681,9.3273,-33.6853
21,-657,5.0011,39.8163,0,0,0,0,0,0,0,-1,1245,1681,5.00115,-39.8163
28,-657,5.54736,39.5421,0,0,0,0,0,0,0,-1,1252,1681,5.54738,-39.5422
35,-657,6.04126,39.3678,0,0,0,0,0,0,0,-1,1259,1681,6.0412,-39.3678
42,-657,8.20044,35.46,0,0,0,0,0,0,0,-1,1266,1681,8.20038,-35.46
49,-657,8.1908,35.0881,0.00689557,0.0232247,0.01018,0.0281097,0.00201049,1.12338,0.0181069,0.0474267,1273,1681,8.19078,-35.0882
56,-657,8.21765,34.6826,-3.4273e-05,0.0224702,0.00341529,0.0229771,-0.000541163,1.42345,0.0155016,0.048753,1280,1681,8.21765,-34.6826
63,-657,8.21741,34.3098,0,0,0,0,0,0,0,-1,1287,1681,8.21741,-34.3098
70,-657,7.68457,33.7646,0,0,0,0,0,0,0,-1,1294,1681,7.68461,-33.7647
77,-657,8.64539,33.5117,-0.0113748,0.0133768,-0.012798,0.0188041,-0.016802,-1.16971,0.0205681,0.0452252,1301,1681,8.64532,-33.5117
84,-657,9.00403,33.5419,-0.00986823,0.00707019,-0.0173867,0.0179407,-0.0207387,-1.01204,0.0223511,0.0469953,1308,1681,9.00398,-33.5418
91,-657,9.12195,33.6295,0,0,0,0,0,0,0,-1,1315,1681,9.12189,-33.6295
98,-657,3.61279,28.8175,-0.0015174,-0.0132132,-0.0238628,0.0172036,-0.0319342,-0.665234,0.0287915,0.0449759,1322,1681,3.61284,-28.8175
105,-657,3.98767,28.5233,0.00440684,-0.0237474,-0.0272935,0.0210397,-0.0403802,-0.547307,0.036042,0.0467733,1329,1681,3.98764,-28.5233
112,-657,4.37341,28.5071,0.0119889,-0.0336111,-0.0304003,0.0271891,-0.0488113,-0.46365,0.0444669,0.0448395,1336,1681,4.37343,-28.507
119,-657,4.46204,28.4921,0.0196706,-0.042033,-0.0334599,0.0343314,-0.0566938,-0.412965,0.0530795,0.0479727,1343,1681,4.46204,-28.4921
126,-657,4.16431,28.8424,0,0,0,0,0,0,0,-1,1350,1681,4.16428,-28.8424
133,-657,4.4884,28.8934,0.0319449,-0.0558235,-0.0377892,0.0459731,-0.0698517,-0.355455,0.0673435,0.0477297,1357,1681,4.48844,-28.8934
140,-657,4.86145,28.9751,0.0365529,-0.0605384,-0.0378872,0.0495874,-0.073573,-0.331351,0.0715547,0.044517,1364,1681,4.86146,-28.9751
147,-657,5.12341,29.0476,0.0394646,-0.0616952,-0.0363597,0.0511772,-0.0734078,-0.311635,0.0723099,0.0482416,1371,1681,5.12345,-29.0476
154,-657,5.2439,29.0133,0,0,0,0,0,0,0,-1,1378,1681,5.24394,-29.0133
161,-657,4.2926,24.9226,0,0,0,0,0,0,0,-1,1385,1681,4.29264,-24.9226
168,-657,5.21643,0.70105,0,0,0,0,0,0,0,-1,1392,1681,5.21648,-0.7011
175,-657,5.52771,0.649048,0,0,0,0,0,0,0,-1,1399,1681,5.52774,-0.649019
182,-657,5.73999,1.02612,0,0,0,0,0,0,0,-1,1406,1681,5.73995,-1.02611
189,-657,5.92126,1.44116,0,0,0,0,0,0,0,-1,1413,1681,5.92126,-1.44115
196,-657,4.92834,9.59021,0,0,0,0,0,0,0,-1,1420,1681,4.9284,-9.59018
203,-657,6.26343,5.16492,0,0,0,0,0,0,0,-1,1427,1681,6.26345,-5.16488
210,-657,3.9856,5.28088,0,0,0,0,0,0,0,-1,1434,1681,3.98555,-5.28084
217,-657,3.95178,5.2843,0,0,0,0,0,0,0,-1,1441,1681,3.95174,-5.28431
224,-657,6.66736,-0.250244,0,0,0,0,0,0,0,-1,1448,1681,6.66737,0.250229
231,-657,6.85498,-1.70752,0,0,0,0,0,0,0,-1,1455,1681,6.855,1.70758
238,-657,5.34143,-2.89819,0,0,0,0,0,0,0,-1,1462,1681,5.34143,2.89813
245,-657,8.66003,-0.102783,0,0,0,0,0,0,0,-1,1469,1681,8.66,0.102824
252,-657,4.78955,0.623779,0,0,0,0,0,0,0,-1,1476,1681,4.7895,-0.623826
259,-657,2.61523,4.31909,0,0,0,0,0,0,0,-1,1483,1681,2.61523,-4.31908
266,-657,5.35437,11.4742,0,0,0,0,0,0,0,-1,1490,1681,5.35441,-11.4742
273,-657,8.92859,29.2166,0,0,0,0,0,0,0,-1,1497,1681,8.92854,-29.2165
280,-657,8.77686,29.2003,0.00839558,0.00055382,-0.00213696,0.00894011,9.29087e-06,-0.249506,0.00595698,0.0480237,1504,1681,8.77687,-29.2003
287,-657,8.75439,29.0045,0.00737546,0.00095498,-0.00169873,0.00779721,0.000533232,-0.243352,0.00502982,0.0363746,1511,1681,8.75436,-29.0045
294,-657,8.91687,28.8004,0.00636032,0.00129221,-0.0014464,0.00674406,0.000908476,-0.259331,0.00422589,0.0279646,1518,1681,8.91687,-28.8004
301,-657,8.92188,28.6063,0.00543816,0.00145624,-0.00111875,0.00573095,0.00116345,-0.255973,0.00349792,0.0186812,1525,1681,8.92186,-28.6063
308,-657,8.95813,28.3651,0.00460775,0.00195793,-0.00102206,0.00495616,0.00160952,-0.328535,0.00291944,0.0129261,1532,1681,8.95812,-28.3651
315,-657,8.98059,28.103,0.00382882,0.00240539,-0.000952211,0.00430591,0.00192831,-0.464469,0.00249052,0.0107308,1539,1681,8.98054,-28.1031
322,-657,8.98718,27.8373,0.00321631,0.00289953,-0.00104434,0.0041142,0.00200164,-0.710138,0.00237562,0.0129804,1546,1681,8.9872,-27.8373
329,-657,8.98499,27.592,0.00275676,0.00318805,-0.00117509,0.00416712,0.00177769,-0.876144,0.00241451,0.019732,1553,1681,8.98493,-27.592
336,-657,8.98486,27.3402,0.00235839,0.00348225,-0.00116093,0.00421009,0.00163055,-1.0108,0.0024512,0.017443,1560,1681,8.98489,-27.3403
343,-657,9.00513,27.1008,0.00188133,0.0033414,-0.00115791,0.0039802,0.00124253,-1.06666,0.00235139,0.0132795,1567,1681,9.00509,-27.1009
350,-657,8.99902,26.8436,0.00147734,0.00287628,-0.001149,0.00352197,0.000831652,-1.05882,0.0021257,0.01586,1574,1681,8.99908,-26.8436
357,-657,8.98376,26.5765,0.00122,0.00236857,-0.0010706,0.00300919,0.000579381,-1.03157,0.0018436,0.0153816,1581,1681,8.98379,-26.5765
364,-657,8.995,26.29,0.000906521,0.00149201,-0.0008402,0.002089,0.000309525,-0.953031,0.00130182,0.0113072,1588,1681,8.99502,-26.29
371,-657,8.98401,26.0336,0.000540087,0.000431379,-0.000515962,0.00100455,-3.30849e-05,-0.732919,0.000680996,0.0154612,1595,1681,8.984,-26.0335
378,-657,8.95813,25.7441,0.000156181,-0.000753733,-0.000123675,0.000172692,-0.000770243,-0.132712,0.000579698,0.0145122,1602,1681,8.95817,-25.7441
385,-657,8.93689,25.4335,-0.000208704,-0.00196983,0.000289454,-0.00016235,-0.00201619,0.158793,0.00129341,0.01268,1609,1681,8.93688,-25.4334
392,-657,8.94897,25.1682,-0.000671076,-0.00333684,0.000721836,-0.000488167,-0.00351975,0.248171,0.00220189,0.0129826,1616,1681,8.94896,-25.1683
399,-657,8.97424,24.8794,-0.00121549,-0.00456586,0.00107533,-0.000900056,-0.0048813,0.285336,0.00299954,0.0126815,1623,1681,8.97425,-24.8793
406,-657,8.9679,24.5668,-0.00170714,-0.00559715,0.00145654,-0.00122222,-0.00608207,0.321386,0.00371494,0.0142205,1630,1681,8.96788,-24.5668
413,-657,8.95142,24.2335,-0.00206886,-0.0063698,0.00174839,-0.0014478,-0.00699087,0.341317,0.00426078,0.0151687,1637,1681,8.9514,-24.2335
420,-657,8.95752,23.9075,-0.00239721,-0.00693146,0.00203142,-0.00162024,-0.00770843,0.36531,0.00469305,0.0177245,1644,1681,8.95757,-23.9075
427,-657,8.91333,23.5667,-0.00185841,-0.00769667,0.00229671,-0.00106322,-0.00849186,0.333313,0.00534222,0.0223768,1651,1681,8.91329,-23.5666
434,-657,8.9646,23.2689,0.000508744,-0.0091531,0.00255312,0.00114191,-0.00978627,0.243091,0.00693622,0.0310254,1658,1681,8.96464,-23.2689
441,-657,8.79773,23.1583,0,0,0,0,0,0,0,-1,1665,1681,8.79778,-23.1583
448,-657,8.71912,22.8701,0,0,0,0,0,0,0,-1,1672,1681,8.71906,-22.8701
455,-657,8.57813,22.5995,0,0,0,0,0,0,0,-1,1679,1681,8.57815,-22.5995
462,-657,6.51733,15.4801,0,0,0,0,0,0,0,-1,1686,1681,6.51737,-15.4801
469,-657,9.70483,21.9269,0,0,0,0,0,0,0,-1,1693,1681,9.70488,-21.9269
476,-657,8.9519,20.5712,0,0,0,0,0,0,0,-1,1700,1681,8.95194,-20.5712
483,-657,10.0663,21.8628,0,0,0,0,0,0,0,-1,1707,1681,10.0663,-21.8628
490,-657,11.6039,21.2185,0,0,0,0,0,0,0,-1,1714,1681,11.6038,-21.2185
497,-657,9.20862,17.8127,0,0,0,0,0,0,0,-1,1721,1681,9.2086,-17.8127
504,-657,0,0,0,0,0,0,0,0,0,-1,1728,1681,0,0
511,-657,0,0,0,0,0,0,0,0,0,-1,1735,1681,0,0
518,-657,0,0,0,0,0,0,0,0,0,-1,1742,1681,0,0
525,-657,0,0,0,0,0,0,0,0,0,-1,1749,1681,0,0
532,-657,0,0,0,0,0,0,0,0,0,-1,1756,1681,0,0
539,-657,0,0,0,0,0,0,0,0,0,-1,1763,1681,0,0
546,-657,0,0,0,0,0,0,0,0,0,-1,1770,1681,0,0
553,-657,0,0,0,0,0,0,0,0,0,-1,1777,1681,0,0
560,-657,0,0,0,0,0,0,0,0,0,-1,1784,1681,0,0
567,-657,0,0,0,0,0,0,0,0,0,-1,1791,1681,0,0
574,-657,0,0,0,0,0,0,0,0,0,-1,1798,1681,0,0
581,-657,0,0,0,0,0,0,0,0,0,-1,1805,1681,0,0
588,-657,0,0,0,0,0,0,0,0,0,-1,1812,1681,0,0
595,-657,0,0,0,0,0,0,0,0,0,-1,1819,1681,0,0
602,-657,0,0,0,0,0,0,0,0,0,-1,1826,1681,0,0
609,-657,0,0,0,0,0,0,0,0,0,-1,1833,1681,0,0
616,-657,0,0,0,0,0,0,0,0,0,-1,1840,1681,0,0
623,-657,0,0,0,0,0,0,0,0,0,-1,1847,1681,0,0
630,-657,0,0,0,0,0,0,0,0,0,-1,1854,1681,0,0
637,-657,0,0,0,0,0,0,0,0,0,-1,1861,1681,0,0
644,-657,0,0,0,0,0,0,0,0,0,-1,1868,1681,0,0
651,-657,0,0,0,0,0,0,0,0,0,-1,1875,1681,0,0
658,-657,0,0,0,0,0,0,0,0,0,-1,1882,1681,0,0
665,-657,0,0,0,0,0,0,0,0,0,-1,1889,1681,0,0
672,-657,0,0,0,0,0,0,0,0,0,-1,1896,1681,0,0
679,-657,0,0,0,0,0,0,0,0,0,-1,1903,1681,0,0
686,-657,0,0,0,0,0,0,0,0,0,-1,1910,1681,0,0
693,-657,0,0,0,0,0,0,0,0,0,-1,1917,1681,0,0
700,-657,0,0,0,0,0,0,0,0,0,-1,1924,1681,0,0
707,-657,0,0,0,0,0,0,0,0,0,-1,1931,1681,0,0
714,-657,0,0,0,0,0,0,0,0,0,-1,1938,1681,0,0
721,-657,0,0,0,0,0,0,0,0,0,-1,1945,1681,0,0
728,-657,0,0,0,0,0,0,0,0,0,-1,1952,1681,0,0
735,-657,0,0,0,0,0,0,0,0,0,-1,1959,1681,0,0
742,-657,0,0,0,0,0,0,0,0,0,-1,1966,1681,0,0
749,-657,0,0,0,0,0,0,0,0,0,-1,1973,1681,0,0
756,-657,0,0,0,0,0,0,0,0,0,-1,1980,1681,0,0
763,-657,0,0,0,0,0,0,0,0,0,-1,1987,1681,0,0
770,-657,0,0,0,0,0,0,0,0,0,-1,1994,1681,0,0
777,-657,0,0,0,0,0,0,0,0,0,-1,2001,1681,0,0
784,-657,0,0,0,0,0,0,0,0,0,-1,2008,1681,0,0
791,-657,0,0,0,0,0,0,0,0,0,-1,2015,1681,0,0
798,-657,0,0,0,0,0,0,0,0,0,-1,2022,1681,0,0
805,-657,0,0,0,0,0,0,0,0,0,-1,2029,1681,0,0
812,-657,0,0,0,0,0,0,0,0,0,-1,2036,1681,0,0
-700,-664,0,0,0,0,0,0,0,0,0,-1,524,1688,0,0
-693,-664,0,0,0,0,0,0,0,0,0,-1,531,1688,0,0
-686,-664,0,0,0,0,0,0,0,0,0,-1,538,1688,0,0
-679,-664,0,0,0,0,0,0,0,0,0,-1,545,1688,0,0
-672,-664,0,0,0,0,0,0,0,0,0,-1,552,1688,0,0
-665,-664,0,0,0,0,0,0,0,0,0,-1,559,1688,0,0
-658,-664,0,0,0,0,0,0,0,0,0,-1,566,1688,0,0
-651,-664,0,0,0,0,0,0,0,0,0,-1,573,1688,0,0
-644,-664,0,0,0,0,0,0,0,0,0,-1,580,1688,0,0
-637,-664,0,0,0,0,0,0,0,0,0,-1,587,1688,0,0
-630,-664,0,0,0,0,0,0,0,0,0,-1,594,1688,0,0
-623,-664,0,0,0,0,0,0,0,0,0,-1,601,1688,0,0
-616,-664,0,0,0,0,0,0,0,0,0,-1,608,1688,0,0
-609,-664,0,0,0,0,0,0,0,0,0,-1,615,1688,0,0
-602,-664,0,0,0,0,0,0,0,0,0,-1,622,1688,0,0
-595,-664,0,0,0,0,0,0,0,0,0,-1,629,1688,0,0
-588,-664,0,0,0,0,0,0,0,0,0,-1,636,1688,0,0
-581,-664,0,0,0,0,0,0,0,0,0,-1,643,1688,0,0
-574,-664,0,0,0,0,0,0,0,0,0,-1,650,1688,0,0
-567,-664,0,0,0,0,0,0,0,0,0,-1,657,1688,0,0
-560,-664,0,0,0,0,0,0,0,0,0,-1,664,1688,0,0
-553,-664,0,0,0,0,0,0,0,0,0,-1,671,1688,0,0
-546,-664,0,0,0,0,0,0,0,0,0,-1,678,1688,0,0
-539,-664,0,0,0,0,0,0,0,0,0,-1,685,1688,0,0
-532,-664,0,0,0,0,0,0,0,0,0,-1,692,1688,0,0
-525,-664,0,0,0,0,0,0,0,0,0,-1,699,1688,0,0
-518,-664,0,0,0,0,0,0,0,0,0,-1,706,1688,0,0
-511,-664,0,0,0,0,0,0,0,0,0,-1,713,1688,0,0
-504,-664,0,0,0,0,0,0,0,0,0,-1,720,1688,0,0
-497,-664,0,0,0,0,0,0,0,0,0,-1,727,1688,0,0
-490,-664,0,0,0,0,0,0,0,0,0,-1,734,1688,0,0
-483,-664,0,0,0,0,0,0,0,0,0,-1,741,1688,0,0
-476,-664,0,0,0,0,0,0,0,0,0,-1,748,1688,0,0
-469,-664,0,0,0,0,0,0,0,0,0,-1,755,1688,0,0
-462,-664,0,0,0,0,0,0,0,0,0,-1,762,1688,0,0
-455,-664,0,0,0,0,0,0,0,0,0,-1,769,1688,0,0
-448,-664,0,0,0,0,0,0,0,0,0,-1,776,1688,0,0
-441,-664,0,0,0,0,0,0,0,0,0,-1,783,1688,0,0
-434,-664,0,0,0,0,0,0,0,0,0,-1,790,1688,0,0
-427,-664,0,0,0,0,0,0,0,0,0,-1,797,1688,0,0
-420,-664,0,0,0,0,0,0,0,0,0,-1,804,1688,0,0
-413,-664,0,0,0,0,0,0,0,0,0,-1,811,1688,0,0
-406,-664,0,0,0,0,0,0,0,0,0,-1,818,1688,0,0
-399,-664,0,0,0,0,0,0,0,0,0,-1,825,1688,0,0
-392,-664,0,0,0,0,0,0,0,0,0,-1,832,1688,0,0
-385,-664,0,0,0,0,0,0,0,0,0,-1,839,1688,0,0
-378,-664,0,0,0,0,0,0,0,0,0,-1,846,1688,0,0
-371,-664,-1.61676,5.92737,0,0,0,0,0,0,0,-1,853,1688,-1.61675,-5.92735
-364,-664,-3.901,5.87024,0,0,0,0,0,0,0,-1,860,1688,-3.90097,-5.87027
-357,-664,-4.81012,4.53479,0,0,0,0,0,0,0,-1,867,1688,-4.81012,-4.5348
-350,-664,-5.7193,3.19934,0,0,0,0,0,0,0,-1,874,1688,-5.71927,-3.19932
-343,-664,2.96515,14.8083,0,0,0,0,0,0,0,-1,881,1688,2.96517,-14.8083
-336,-664,2.79852,15.5814,0,0,0,0,0,0,0,-1,888,1688,2.79853,-15.5814
-329,-664,4.664,21.8123,0,0,0,0,0,0,0,-1,895,1688,4.66403,-21.8122
-322,-664,5.41992,21.2125,0,0,0,0,0,0,0,-1,902,1688,5.41995,-21.2125
-315,-664,6.1076,21.8173,0,0,0,0,0,0,0,-1,909,1688,6.1076,-21.8173
-308,-664,6.21967,22.5365,0,0,0,0,0,0,0,-1,916,1688,6.21969,-22.5365
-301,-664,5.4884,22.4489,0,0,0,0,0,0,0,-1,923,1688,5.48838,-22.4488
-294,-664,5.4187,22.8918,0.00750002,0.000968536,0.00461417,0.00988721,-0.00141865,0.477439,0.00711168,0.0460411,930,1688,5.41871,-22.8918
-287,-664,5.42291,23.3007,0.00710578,0.000905371,0.00427284,0.00928463,-0.00127348,0.47156,0.00665499,0.0331918,937,1688,5.42289,-23.3006
-280,-664,5.29425,23.5691,0.00632744,0.00048228,0.00379027,0.00819106,-0.00138133,0.456972,0.00597462,0.023564,944,1688,5.29422,-23.569
-273,-664,5.33063,23.8473,0.00551056,0.000391962,0.00314302,0.00700448,-0.00110196,0.443704,0.00507699,0.0172649,951,1688,5.3306,-23.8473
-266,-664,5.29199,24.1755,0.00471292,0.000345719,0.00246409,0.00582171,-0.000763076,0.422838,0.0041589,0.0215876,958,1688,5.29199,-24.1756
-259,-664,5.28424,24.5249,0.00380928,0.000500256,0.00186963,0.00465136,-0.000341816,0.423182,0.00322089,0.0187912,965,1688,5.28424,-24.5249
-252,-664,5.29211,24.8539,0.00289139,0.000599717,0.00123268,0.00342854,6.25715e-05,0.410945,0.00226512,0.0163616,972,1688,5.29213,-24.8539
-245,-664,5.25061,25.158,0.0021309,0.000716398,0.000692892,0.00241375,0.000433546,0.387572,0.00148589,0.0195234,979,1688,5.25061,-25.158
-238,-664,5.2887,25.4607,0.00159079,0.000806314,0.000322208,0.00170616,0.000690941,0.343845,0.000990966,0.0222691,986,1688,5.28871,-25.4607
-231,-664,5.30469,25.7499,0.00130641,0.00098211,0.000112724,0.00134174,0.000946778,0.303743,0.000796194,0.019848,993,1688,5.30468,-25.7499
-224,-664,5.24866,26.057,0.000948048,0.000983227,-6.92862e-05,0.00103712,0.000894154,-0.909707,0.000649029,0.0143908,1000,1688,5.24868,-26.057
-217,-664,5.22552,26.355,0.000858346,0.00110508,-9.25942e-05,0.00113596,0.000827463,-1.24886,0.000678277,0.0101852,1007,1688,5.22552,-26.355
-210,-664,5.23956,26.6389,0.0010378,0.00140209,1.30567e-05,0.00140255,0.00103733,1.53502,0.000840186,0.0113558,1014,1688,5.23959,-26.6389
-203,-664,5.24097,26.9109,0.0012104,0.00178016,-6.73434e-05,0.00178801,0.00120255,-1.45473,0.0010526,0.0135143,1021,1688,5.24092,-26.9109
-196,-664,5.24744,27.1655,0.00136995,0.00205778,-3.55978e-05,0.00205962,0.00136811,-1.51923,0.00121032,0.0128317,1028,1688,5.24748,-27.1656
-189,-664,5.24426,27.4407,0.00142569,0.00241687,-8.08645e-05,0.00242343,0.00141914,-1.48993,0.00140598,0.00960759,1035,1688,5.24424,-27.4406
-182,-664,5.2561,27.7037,0.00143599,0.00316438,-0.000167014,0.00318037,0.00142,-1.47534,0.00183969,0.0098015,1042,1688,5.25608,-27.7038
-175,-664,5.26758,27.936,0.00141445,0.00417609,-0.000265742,0.00420143,0.00138911,-1.47573,0.00247165,0.0123055,1049,1688,5.26762,-27.9361
-168,-664,5.27368,28.1837,0.0013062,0.00535555,-0.000325946,0.00538161,0.00128013,-1.49099,0.00324629,0.0137404,1056,1688,5.27372,-28.1837
-161,-664,5.2616,28.4277,0.00118267,0.00675046,-0.00038361,0.00677677,0.00115637,-1.50233,0.00418597,0.0102523,1063,1688,5.26164,-28.4278
-154,-664,5.30908,28.6536,0.00107247,0.00847632,-0.000431029,0.00850133,0.00104746,-1.51284,0.00535267,0.0100776,1070,1688,5.30907,-28.6536
-147,-664,5.30164,28.8866,0.00098713,0.0103272,-0.000471985,0.010351,0.00096334,-1.52043,0.00660299,0.0131906,1077,1688,5.30166,-28.8866
-140,-664,5.31152,29.1458,0.000980938,0.012267,-0.000497002,0.0122888,0.000959094,-1.52687,0.00789232,0.0152881,1084,1688,5.31146,-29.1457
-133,-664,5.28259,29.4365,0.000982933,0.0143196,-0.000445367,0.0143345,0.000968076,-1.53745,0.00925052,0.017276,1091,1688,5.28258,-29.4365
-126,-664,5.37756,29.8931,0.00104134,0.016572,-0.000459966,0.0165856,0.00102773,-1.54121,0.0107309,0.0299238,1098,1688,5.37751,-29.893
-119,-664,5.34485,30.1775,0.00142374,0.0181918,-0.000553134,0.01821,0.00140552,-1.53786,0.0116997,0.045131,1105,1688,5.34481,-30.1774
-112,-664,5.2334,30.5315,0,0,0,0,0,0,0,-1,1112,1688,5.23345,-30.5316
-105,-664,4.48108,21.4276,0,0,0,0,0,0,0,-1,1119,1688,4.48104,-21.4276
-98,-664,4.98584,19.8645,0,0,0,0,0,0,0,-1,1126,1688,4.98586,-19.8645
-91,-664,5.41931,25.6302,0,0,0,0,0,0,0,-1,1133,1688,5.41932,-25.6302
-84,-664,3.48389,16.6913,0,0,0,0,0,0,0,-1,1140,1688,3.4839,-16.6913
-77,-664,4.52014,11.2122,0,0,0,0,0,0,0,-1,1147,1688,4.5202,-11.2122
-70,-664,4.20374,8.24524,0,0,0,0,0,0,0,-1,1154,1688,4.20379,-8.24519
-63,-664,-4.677,2.40503,0,0,0,0,0,0,0,-1,1161,1688,-4.67702,-2.40498
-56,-664,-4.66504,3.32727,0,0,0,0,0,0,0,-1,1168,1688,-4.6651,-3.32724
-49,-664,-2.54297,3.31848,0,0,0,0,0,0,0,-1,1175,1688,-2.54297,-3.31852
-42,-664,-0.359253,4.38684,0,0,0,0,0,0,0,-1,1182,1688,-0.359261,-4.38685
-35,-664,-0.705566,3.55017,0,0,0,0,0,0,0,-1,1189,1688,-0.705567,-3.55023
-28,-664,-1.54236,10.2538,0,0,0,0,0,0,0,-1,1196,1688,-1.54236,-10.2538
-21,-664,8.29175,30.1444,0,0,0,0,0,0,0,-1,1203,1688,8.29173,-30.1444
-14,-664,8.69165,30.6012,0.0395401,-0.00356168,0.0615664,0.0832185,-0.0472401,0.617042,0.0762691,0.0431016,1210,1688,8.69169,-30.6013
-7,-664,8.80371,30.9082,0.040674,-0.0025482,0.0602638,0.0830845,-0.0449587,0.613237,0.0750102,0.0479228,1217,1688,8.80368,-30.9082
0,-664,8.85486,31.5015,0.0413562,0.000248486,0.0576211,0.0819796,-0.0403749,0.614079,0.0719898,0.0469957,1224,1688,8.85491,-31.5014
7,-664,8.92139,32.1847,0.0401978,0.00418566,0.0525538,0.0777446,-0.0333611,0.620355,0.0658309,0.0431672,1231,1688,8.92135,-32.1847
14,-664,8.88794,32.8208,0.0371035,0.00879208,0.0461686,0.0712378,-0.0253422,0.636643,0.057821,0.0412771,1238,1688,8.88793,-32.8208
21,-664,8.88928,33.5062,0.0327595,0.0134487,0.0388186,0.0631055,-0.0168973,0.663506,0.0486901,0.0440767,1245,1688,8.88927,-33.5062
28,-664,4.96436,40.249,0,0,0,0,0,0,0,-1,1252,1688,4.96438,-40.249
35,-664,9.11853,34.8636,0.0209277,0.0214324,0.0246792,0.0458605,-0.00350045,0.790511,0.0318048,0.0467031,1259,1688,9.11858,-34.8636
42,-664,9.47058,34.8008,0,0,0,0,0,0,0,-1,1266,1688,9.47057,-34.8008
49,-664,8.35718,34.0048,0,0,0,0,0,0,0,-1,1273,1688,8.35722,-34.0048
56,-664,8.35693,34.1229,0,0,0,0,0,0,0,-1,1280,1688,8.35697,-34.123
63,-664,7.20654,33.6196,0,0,0,0,0,0,0,-1,1287,1688,7.20649,-33.6196
70,-664,7.49255,33.4825,-0.00423235,0.0196937,-0.00363127,0.0202326,-0.00477133,-1.42344,0.0153284,0.048955,1294,1688,7.49261,-33.4825
77,-664,7.94348,33.3647,-0.00557416,0.0153611,-0.00805342,0.0181006,-0.00831368,-1.24291,0.0155953,0.044439,1301,1688,7.94351,-33.3647
84,-664,8.16211,33.3948,-0.00476165,0.00899313,-0.0121263,0.0160565,-0.0118251,-1.04335,0.0161591,0.0478802,1308,1688,8.16208,-33.3947
91,-664,8.05017,33.4923,-0.00249417,-0.000540367,-0.0154484,0.013962,-0.0169965,-0.816974,0.0179025,0.0480491,1315,1688,8.05018,-33.4923
98,-664,7.33691,33.4889,0,0,0,0,0,0,0,-1,1322,1688,7.33697,-33.4889
105,-664,7.63428,33.3466,0,0,0,0,0,0,0,-1,1329,1688,7.63423,-33.3466
112,-664,4.93115,29.4397,0,0,0,0,0,0,0,-1,1336,1688,4.93117,-29.4397
119,-664,5.01843,29.1503,0,0,0,0,0,0,0,-1,1343,1688,5.0184,-29.1503
126,-664,4.02869,31.806,0,0,0,0,0,0,0,-1,1350,1688,4.02867,-31.806
133,-664,5.43311,30.9037,0,0,0,0,0,0,0,-1,1357,1688,5.43308,-30.9036
140,-664,5.23364,29.8818,0,0,0,0,0,0,0,-1,1364,1688,5.23364,-29.8819
147,-664,5.0437,29.9387,0,0,0,0,0,0,0,-1,1371,1688,5.04366,-29.9387
154,-664,4.76721,26.2594,0,0,0,0,0,0,0,-1,1378,1688,4.76723,-26.2594
161,-664,4.60132,1.56238,0,0,0,0,0,0,0,-1,1385,1688,4.60134,-1.56233
168,-664,5.172,1.25488,0,0,0,0,0,0,0,-1,1392,1688,5.17203,-1.25484
175,-664,5.58313,1.16467,0,0,0,0,0,0,0,-1,1399,1688,5.58317,-1.16466
182,-664,5.74268,1.41113,0,0,0,0,0,0,0,-1,1406,1688,5.74263,-1.41115
189,-664,5.87744,1.87061,0,0,0,0,0,0,0,-1,1413,1688,5.87745,-1.87065
196,-664,6.7594,5.97473,0,0,0,0,0,0,0,-1,1420,1688,6.75943,-5.97478
203,-664,5.38452,5.22034,0,0,0,0,0,0,0,-1,1427,1688,5.38453,-5.2203
210,-664,5.25549,6.45715,0,0,0,0,0,0,0,-1,1434,1688,5.25549,-6.45721
217,-664,5.72009,6.73975,0,0,0,0,0,0,0,-1,1441,1688,5.72014,-6.73972
224,-664,5.05725,7.42908,0,0,0,0,0,0,0,-1,1448,1688,5.05723,-7.42912
231,-664,5.13318,7.60864,0,0,0,0,0,0,0,-1,1455,1688,5.13313,-7.60862
238,-664,4.23193,6.45471,0,0,0,0,0,0,0,-1,1462,1688,4.23197,-6.45476
245,-664,4.42004,6.80896,0,0,0,0,0,0,0,-1,1469,1688,4.4201,-6.80901
252,-664,3.67346,6.85461,0,0,0,0,0,0,0,-1,1476,1688,3.6734,-6.85462
259,-664,4.55823,11.7435,0,0,0,0,0,0,0,-1,1483,1688,4.55826,-11.7435
266,-664,8.36438,29.1295,0,0,0,0,0,0,0,-1,1490,1688,8.36443,-29.1295
273,-664,8.60718,29.2838,0,0,0,0,0,0,0,-1,1497,1688,8.60714,-29.2838
280,-664,8.5769,29.1522,0.00611199,0.00014624,-0.00137355,0.00641305,-0.000154812,-0.215767,0.00432789,0.0302715,1504,1688,8.5769,-29.1522
287,-664,8.58997,28.9413,0.00548555,0.000415656,-0.00111845,0.00572133,0.000179882,-0.207761,0.00375569,0.0232045,1511,1688,8.59001,-28.9413
294,-664,8.66333,28.7615,0.00481226,0.000719268,-0.000988691,0.00503857,0.000492956,-0.225024,0.00320738,0.0162964,1518,1688,8.66329,-28.7615
301,-664,8.69861,28.554,0.00416631,0.00088311,-0.000813079,0.00435663,0.000692786,-0.229939,0.00270325,0.0105484,1525,1688,8.69865,-28.554
308,-664,8.72327,28.3212,0.00353755,0.00129716,-0.000785177,0.00378533,0.00104938,-0.305674,0.00225661,0.0102261,1532,1688,8.72331,-28.3211
315,-664,8.73376,28.0901,0.00292876,0.0016196,-0.000750519,0.00327005,0.00127831,-0.426785,0.00190288,0.0113527,1539,1688,8.73373,-28.0901
322,-664,8.74658,27.8541,0.00241324,0.00197107,-0.000804552,0.00302653,0.00135778,-0.651311,0.00175044,0.0143636,1546,1688,8.74656,-27.8542
329,-664,8.73523,27.6272,0.00195225,0.00209436,-0.000854115,0.00288037,0.00116624,-0.826897,0.00167298,0.0169208,1553,1688,8.73528,-27.6272
336,-664,8.74133,27.3561,0.00155128,0.00220672,-0.000770751,0.00271653,0.00104147,-0.986417,0.00158255,0.0149506,1560,1688,8.74139,-27.356
343,-664,8.73145,27.0962,0.00108795,0.00186215,-0.00067699,0.0022549,0.0006952,-1.04511,0.00133338,0.011908,1567,1688,8.73141,-27.0962
350,-664,8.71851,26.8419,0.000641055,0.00115674,-0.000548487,0.00150496,0.000292827,-1.00512,0.000921345,0.0135227,1574,1688,8.71856,-26.8419
357,-664,8.7168,26.5657,0.000327756,0.000454354,-0.000375805,0.000772154,9.95645e-06,-0.868833,0.000511483,0.0134209,1581,1688,8.71679,-26.5657
364,-664,8.7251,26.2834,-2.84284e-05,-0.000600219,-6.84967e-05,-2.03374e-05,-0.00060831,-0.117577,0.000398934,0.0106905,1588,1688,8.72507,-26.2835
371,-664,8.72815,26.0237,-0.000414441,-0.00183257,0.0003087,-0.000350156,-0.00189685,0.205308,0.00116552,0.0131499,1595,1688,8.72811,-26.0237
378,-664,8.71802,25.7373,-0.000799205,-0.00321047,0.000754304,-0.000582683,-0.003427,0.279533,0.00211733,0.0127949,1602,1688,8.71797,-25.7372
385,-664,8.69263,25.451,-0.00115577,-0.00453453,0.00121565,-0.00076385,-0.00492644,0.311874,0.00306161,0.0138042,1609,1688,8.69264,-25.4511
392,-664,8.65735,25.1857,-0.00159144,-0.00598913,0.00165711,-0.00103694,-0.00654364,0.32291,0.00406115,0.0170174,1616,1688,8.65734,-25.1857
399,-664,8.6759,24.8766,-0.00207692,-0.00730053,0.00197706,-0.00141301,-0.00796444,0.323975,0.00490691,0.0139275,1623,1688,8.67585,-24.8766
406,-664,8.69397,24.5614,-0.00251566,-0.00840755,0.00236907,-0.00168125,-0.00924197,0.338643,0.00568438,0.0148925,1630,1688,8.69397,-24.5614
413,-664,8.69775,24.2151,-0.00280985,-0.00925478,0.00267032,-0.00184724,-0.0102174,0.345986,0.00628697,0.0188441,1637,1688,8.69778,-24.215
420,-664,8.698,23.9313,-0.00311906,-0.00973972,0.00294883,-0.00199612,-0.0108627,0.363854,0.00667661,0.0405759,1644,1688,8.69797,-23.9313
427,-664,8.68481,23.4292,0,0,0,0,0,0,0,-1,1651,1688,8.68486,-23.4291
434,-664,8.55664,23.1221,0,0,0,0,0,0,0,-1,1658,1688,8.55661,-23.1221
441,-664,8.64893,22.582,0,0,0,0,0,0,0,-1,1665,1688,8.64888,-22.582
448,-664,7.27502,19.7417,0,0,0,0,0,0,0,-1,1672,1688,7.27505,-19.7417
455,-664,7.53198,11.3838,0,0,0,0,0,0,0,-1,1679,1688,7.53195,-11.3838
462,-664,4.3147,4.25439,0,0,0,0,0,0,0,-1,1686,1688,4.31467,-4.25435
469,-664,6.05469,7.49341,0,0,0,0,0,0,0,-1,1693,1688,6.05474,-7.49339
476,-664,10.2377,22.7128,0,0,0,0,0,0,0,-1,1700,1688,10.2377,-22.7128
483,-664,8.41895,10.9768,0,0,0,0,0,0,0,-1,1707,1688,8.41897,-10.9769
490,-664,3.90771,13.2842,0,0,0,0,0,0,0,-1,1714,1688,3.90776,-13.2841
497,-664,0,0,0,0,0,0,0,0,0,-1,1721,1688,0,0
504,-664,0,0,0,0,0,0,0,0,0,-1,1728,1688,0,0
511,-664,0,0,0,0,0,0,0,0,0,-1,1735,1688,0,0
518,-664,0,0,0,0,0,0,0,0,0,-1,1742,1688,0,0
525,-664,0,0,0,0,0,0,0,0,0,-1,1749,1688,0,0
532,-664,0,0,0,0,0,0,0,0,0,-1,1756,1688,0,0
539,-664,0,0,0,0,0,0,0,0,0,-1,1763,1688,0,0
546,-664,0,0,0,0,0,0,0,0,0,-1,1770,1688,0,0
553,-664,0,0,0,0,0,0,0,0,0,-1,1777,1688,0,0
560,-664,0,0,0,0,0,0,0,0,0,-1,1784,1688,0,0
567,-664,0,0,0,0,0,0,0,0,0,-1,1791,1688,0,0
574,-664,0,0,0,0,0,0,0,0,0,-1,1798,1688,0,0
581,-664,0,0,0,0,0,0,0,0,0,-1,1805,1688,0,0
588,-664,0,0,0,0,0,0,0,0,0,-1,1812,1688,0,0
595,-664,0,0,0,0,0,0,0,0,0,-1,1819,1688,0,0
602,-664,0,0,0,0,0,0,0,0,0,-1,1826,1688,0,0
609,-664,0,0,0,0,0,0,0,0,0,-1,1833,1688,0,0
616,-664,0,0,0,0,0,0,0,0,0,-1,1840,1688,0,0
623,-664,0,0,0,0,0,0,0,0,0,-1,1847,1688,0,0
630,-664,0,0,0,0,0,0,0,0,0,-1,1854,1688,0,0
637,-664,0,0,0,0,0,0,0,0,0,-1,1861,1688,0,0
644,-664,0,0,0,0,0,0,0,0,0,-1,1868,1688,0,0
651,-664,0,0,0,0,0,0,0,0,0,-1,1875,1688,0,0
658,-664,0,0,0,0,0,0,0,0,0,-1,1882,1688,0,0
665,-664,0,0,0,0,0,0,0,0,0,-1,1889,1688,0,0
672,-664,0,0,0,0,0,0,0,0,0,-1,1896,1688,0,0
679,-664,0,0,0,0,0,0,0,0,0,-1,1903,1688,0,0
686,-664,0,0,0,0,0,0,0,0,0,-1,1910,1688,0,0
693,-664,0,0,0,0,0,0,0,0,0,-1,1917,1688,0,0
700,-664,0,0,0,0,0,0,0,0,0,-1,1924,1688,0,0
707,-664,0,0,0,0,0,0,0,0,0,-1,1931,1688,0,0
714,-664,0,0,0,0,0,0,0,0,0,-1,1938,1688,0,0
721,-664,0,0,0,0,0,0,0,0,0,-1,1945,1688,0,0
728,-664,0,0,0,0,0,0,0,0,0,-1,1952,1688,0,0
735,-664,0,0,0,0,0,0,0,0,0,-1,1959,1688,0,0
742,-664,0,0,0,0,0,0,0,0,0,-1,1966,1688,0,0
749,-664,0,0,0,0,0,0,0,0,0,-1,1973,1688,0,0
756,-664,0,0,0,0,0,0,0,0,0,-1,1980,1688,0,0
763,-664,0,0,0,0,0,0,0,0,0,-1,1987,1688,0,0
770,-664,0,0,0,0,0,0,0,0,0,-1,1994,1688,0,0
777,-664,0,0,0,0,0,0,0,0,0,-1,2001,1688,0,0
784,-664,0,0,0,0,0,0,0,0,0,-1,2008,1688,0,0
791,-664,0,0,0,0,0,0,0,0,0,-1,2015,1688,0,0
798,-664,0,0,0,0,0,0,0,0,0,-1,2022,1688,0,0
805,-664,0,0,0,0,0,0,0,0,0,-1,2029,1688,0,0
812,-664,0,0,0,0,0,0,0,0,0,-1,2036,1688,0,0
-700,-671,0,0,0,0,0,0,0,0,0,-1,524,1695,0,0
-693,-671,0,0,0,0,0,0,0,0,0,-1,531,1695,0,0
-686,-671,0,0,0,0,0,0,0,0,0,-1,538,1695,0,0
-679,-671,0,0,0,0,0,0,0,0,0,-1,545,1695,0,0
-672,-671,0,0,0,0,0,0,0,0,0,-1,552,1695,0,0
-665,-671,0,0,0,0,0,0,0,0,0,-1,559,1695,0,0
-658,-671,0,0,0,0,0,0,0,0,0,-1,566,1695,0,0
-651,-671,0,0,0,0,0,0,0,0,0,-1,573,1695,0,0
-644,-671,0,0,0,0,0,0,0,0,0,-1,580,1695,0,0
-637,-671,0,0,0,0,0,0,0,0,0,-1,587,1695,0,0
-630,-671,0,0,0,0,0,0,0,0,0,-1,594,1695,0,0
-623,-671,0,0,0,0,0,0,0,0,0,-1,601,1695,0,0
-616,-671,0,0,0,0,0,0,0,0,0,-1,608,1695,0,0
-609,-671,0,0,0,0,0,0,0,0,0,-1,615,1695,0,0
-602,-671,0,0,0,0,0,0,0,0,0,-1,622,1695,0,0
-595,-671,0,0,0,0,0,0,0,0,0,-1,629,1695,0,0
-588,-671,0,0,0,0,0,0,0,0,0,-1,636,1695,0,0
-581,-671,0,0,0,0,0,0,0,0,0,-1,643,1695,0,0
-574,-671,0,0,0,0,0,0,0,0,0,-1,650,1695,0,0
-567,-671,0,0,0,0,0,0,0,0,0,-1,657,1695,0,0
-560,-671,0,0,0,0,0,0,0,0,0,-1,664,1695,0,0
-553,-671,0,0,0,0,0,0,0,0,0,-1,671,1695,0,0
-546,-671,0,0,0,0,0,0,0,0,0,-1,678,1695,0,0
-539,-671,0,0,0,0,0,0,0,0,0,-1,685,1695,0,0
-532,-671,0,0,0,0,0,0,0,0,0,-1,692,1695,0,0
-525,-671,0,0,0,0,0,0,0,0,0,-1,699,1695,0,0
-518,-671,0,0,0,0,0,0,0,0,0,-1,706,1695,0,0
-511,-671,0,0,0,0,0,0,0,0,0,-1,713,1695,0,0
-504,-671,0,0,0,0,0,0,0,0,0,-1,720,1695,0,0
-497,-671,0,0,0,0,0,0,0,0,0,-1,727,1695,0,0
-490,-671,0,0,0,0,0,0,0,0,0,-1,734,1695,0,0
-483,-671,0,0,0,0,0,0,0,0,0,-1,741,1695,0,0
-476,-671,0,0,0,0,0,0,0,0,0,-1,748,1695,0,0
-469,-671,0,0,0,0,0,0,0,0,0,-1,755,1695,0,0
-462,-671,0,0,0,0,0,0,0,0,0,-1,762,1695,0,0
-455,-671,0,0,0,0,0,0,0,0,0,-1,769,1695,0,0
-448,-671,0,0,0,0,0,0,0,0,0,-1,776,1695,0,0
-441,-671,0,0,0,0,0,0,0,0,0,-1,783,1695,0,0
-434,-671,0,0,0,0,0,0,0,0,0,-1,790,1695,0,0
-427,-671,0,0,0,0,0,0,0,0,0,-1,797,1695,0,0
-420,-671,0,0,0,0,0,0,0,0,0,-1,804,1695,0,0
-413,-671,0,0,0,0,0,0,0,0,0,-1,811,1695,0,0
-406,-671,0,0,0,0,0,0,0,0,0,-1,818,1695,0,0
-399,-671,0,0,0,0,0,0,0,0,0,-1,825,1695,0,0
-392,-671,0,0,0,0,0,0,0,0,0,-1,832,1695,0,0
-385,-671,0,0,0,0,0,0,0,0,0,-1,839,1695,0,0
-378,-671,0,0,0,0,0,0,0,0,0,-1,846,1695,0,0
-371,-671,0,0,0,0,0,0,0,0,0,-1,853,1695,0,0
-364,-671,-4.18738,7.51416,0,0,0,0,0,0,0,-1,860,1695,-4.18739,-7.51419
-357,-671,-5.02393,6.07129,0,0,0,0,0,0,0,-1,867,1695,-5.0239,-6.07135
-350,-671,-5.72333,4.58386,0,0,0,0,0,0,0,-1,874,1695,-5.72333,-4.58386
-343,-671,-6.4884,3.11353,0,0,0,0,0,0,0,-1,881,1695,-6.48839,-3.11349
-336,-671,2.55884,15.6338,0,0,0,0,0,0,0,-1,888,1695,2.55886,-15.6338
-329,-671,2.71729,16.1058,0,0,0,0,0,0,0,-1,895,1695,2.71729,-16.1058
-322,-671,4.3988,21.1218,0,0,0,0,0,0,0,-1,902,1695,4.39879,-21.1219
-315,-671,6.87555,21.6985,0,0,0,0,0,0,0,-1,909,1695,6.87557,-21.6985
-308,-671,5.1026,20.9993,0,0,0,0,0,0,0,-1,916,1695,5.10262,-20.9993
-301,-671,5.42084,21.1414,0,0,0,0,0,0,0,-1,923,1695,5.42084,-21.1413
-294,-671,5.46021,23.1923,0,0,0,0,0,0,0,-1,930,1695,5.46019,-23.1922
-287,-671,5.46613,23.5216,0.0111877,0.0020641,0.00613916,0.0142744,-0.00102257,0.465873,0.0098748,0.0472869,937,1695,5.46611,-23.5217
-280,-671,5.50256,23.7523,0.00973918,0.0012853,0.00532324,0.0123096,-0.00128511,0.449846,0.00866658,0.0414729,944,1695,5.50254,-23.7523
-273,-671,5.6272,23.949,0.00819727,0.00101453,0.0042508,0.0101707,-0.000958921,0.434645,0.00712167,0.0359353,951,1695,5.62721,-23.9489
-266,-671,5.72791,24.2537,0.0067669,0.000833762,0.00320322,0.00816624,-0.000565578,0.411868,0.00564214,0.027217,958,1695,5.72793,-24.2536
-259,-671,5.59711,24.5464,0.00524546,0.000924184,0.00226368,0.00621413,-4.44928e-05,0.404342,0.00415767,0.0236601,965,1695,5.59714,-24.5464
-252,-671,5.56702,24.8435,0.00375237,0.000908435,0.00136118,0.00429886,0.000361949,0.381781,0.0027532,0.0178063,972,1695,5.56699,-24.8435
-245,-671,5.54437,25.135,0.00251813,0.000916845,0.000619316,0.00272971,0.000705272,0.329193,0.00163619,0.0207218,979,1695,5.54436,-25.135
-238,-671,5.57562,25.4503,0.00159482,0.000916176,0.000111545,0.00161269,0.000898313,0.158801,0.000933101,0.0207194,986,1695,5.5756,-25.4503
-231,-671,5.57855,25.7683,0.00102728,0.00102563,-0.000177499,0.00120396,0.000848953,-0.783078,0.000714339,0.0157485,993,1695,5.57854,-25.7683
-224,-671,5.52777,26.0477,0.000378516,0.000814601,-0.000442725,0.00109006,0.000103053,-1.01421,0.000694911,0.0125747,1000,1695,5.52777,-26.0477
-217,-671,5.50128,26.326,9.38197e-05,0.000805711,-0.00051319,0.00107431,-0.000174783,-1.08861,0.000781017,0.011246,1007,1695,5.50127,-26.326
-210,-671,5.50537,26.6525,0.000306199,0.000941366,-0.00029887,0.00105988,0.000187683,-1.19327,0.000653079,0.0111662,1014,1695,5.50534,-26.6525
-203,-671,5.51331,26.9301,0.000563755,0.00113785,-0.000211946,0.00120762,0.000493987,-1.25279,0.000701054,0.0189734,1021,1695,5.51328,-26.93
-196,-671,5.50745,27.1855,0.000787987,0.00126102,-7.23492e-05,0.00127183,0.000777169,-1.42237,0.000740307,0.0156813,1028,1695,5.50745,-27.1856
-189,-671,5.50964,27.476,0.000938439,0.00139103,1.12743e-05,0.00139131,0.000938158,1.54591,0.000819379,0.0120671,1035,1695,5.50966,-27.4759
-182,-671,5.5094,27.7216,0.00106243,0.00189039,1.44815e-05,0.00189065,0.00106217,1.55331,0.00109434,0.00986396,1042,1695,5.50943,-27.7216
-175,-671,5.51392,27.9473,0.00116723,0.00271614,-1.05912e-05,0.00271621,0.00116715,-1.56396,0.00157337,0.0120353,1049,1695,5.51392,-27.9472
-168,-671,5.51282,28.1897,0.00115255,0.00364131,-4.58016e-07,0.00364131,0.00115255,-1.57061,0.00214898,0.0133383,1056,1695,5.51286,-28.1897
-161,-671,5.50403,28.4438,0.00110031,0.00477395,-1.76535e-05,0.00477403,0.00110023,-1.56599,0.0028867,0.00934971,1063,1695,5.50406,-28.4438
-154,-671,5.52856,28.6642,0.00108496,0.00619635,-3.40662e-05,0.00619658,0.00108473,-1.56413,0.00382115,0.0089755,1070,1695,5.52855,-28.6642
-147,-671,5.52661,28.9115,0.00109607,0.00773328,-8.35568e-05,0.00773433,0.00109502,-1.55821,0.00483274,0.0109409,1077,1695,5.5266,-28.9115
-140,-671,5.56458,29.1261,0.00114392,0.00928887,-0.00012714,0.00929086,0.00114193,-1.55519,0.00585053,0.012932,1084,1695,5.56458,-29.1262
-133,-671,5.58179,29.3278,0.00119129,0.010875,-0.000120238,0.0108765,0.0011898,-1.55838,0.00688871,0.0153201,1091,1695,5.58179,-29.3277
-126,-671,5.61719,29.5734,0.00132776,0.0125089,-0.000141105,0.0125107,0.00132598,-1.55818,0.00793548,0.0209302,1098,1695,5.61724,-29.5734
-119,-671,5.6554,29.9932,0.00168953,0.0135944,-0.000231108,0.0135989,0.00168504,-1.55139,0.00855971,0.0377917,1105,1695,5.65538,-29.9931
-112,-671,5.72205,30.5023,0,0,0,0,0,0,0,-1,1112,1695,5.72202,-30.5023
-105,-671,5.69995,30.4873,0,0,0,0,0,0,0,-1,1119,1695,5.69995,-30.4874
-98,-671,5.53442,30.4712,0,0,0,0,0,0,0,-1,1126,1695,5.53441,-30.4712
-91,-671,5.72449,30.676,0,0,0,0,0,0,0,-1,1133,1695,5.72444,-30.676
-84,-671,5.4209,26.2415,0,0,0,0,0,0,0,-1,1140,1695,5.42096,-26.2414
-77,-671,4.31763,16.489,0,0,0,0,0,0,0,-1,1147,1695,4.31757,-16.489
-70,-671,3.06067,10.7737,0,0,0,0,0,0,0,-1,1154,1695,3.0607,-10.7737
-63,-671,2.94592,6.90198,0,0,0,0,0,0,0,-1,1161,1695,2.94594,-6.90198
-56,-671,-3.07678,2.87976,0,0,0,0,0,0,0,-1,1168,1695,-3.07675,-2.87979
-49,-671,-1.05957,4.76917,0,0,0,0,0,0,0,-1,1175,1695,-1.05958,-4.76921
-42,-671,0.539307,3.7865,0,0,0,0,0,0,0,-1,1182,1695,0.539266,-3.78648
-35,-671,-0.272461,0.347534,0,0,0,0,0,0,0,-1,1189,1695,-0.272434,-0.347569
-28,-671,-10.4878,17.2009,0,0,0,0,0,0,0,-1,1196,1695,-10.4878,-17.2009
-21,-671,6.44385,31.6743,0,0,0,0,0,0,0,-1,1203,1695,6.44383,-31.6743
-14,-671,6.70251,31.7761,0,0,0,0,0,0,0,-1,1210,1695,6.70252,-31.7761
-7,-671,6.95825,31.9258,0,0,0,0,0,0,0,-1,1217,1695,6.95826,-31.9258
0,-671,7.11865,30.8737,0.0346343,0.00733987,0.0499116,0.0727308,-0.0307566,0.651946,0.0613648,0.0425219,1224,1695,7.11867,-30.8737
7,-671,7.70325,31.6003,0.0335413,0.0107392,0.045896,0.0694312,-0.0251506,0.663657,0.0565665,0.0404988,1231,1695,7.70328,-31.6004
14,-671,7.93726,32.358,0.0311405,0.0143309,0.0409132,0.0645033,-0.0190319,0.684093,0.0505547,0.0395262,1238,1695,7.93722,-32.358
21,-671,8.23987,33.0913,0.0279145,0.0179371,0.0350455,0.0583246,-0.012473,0.714698,0.043639,0.0439299,1245,1695,8.23982,-33.0913
28,-671,8.36719,33.6335,0.02402,0.0210966,0.0293474,0.0519421,-0.00682552,0.760516,0.0371131,0.0471195,1252,1695,8.36725,-33.6335
35,-671,8.59363,34.0734,0.0190371,0.0238397,0.0235215,0.0450822,-0.00220537,0.836267,0.0308162,0.0460863,1259,1695,8.59367,-34.0734
42,-671,7.74316,33.9546,0,0,0,0,0,0,0,-1,1266,1695,7.74315,-33.9545
49,-671,7.96631,33.6635,0.0102904,0.0268697,0.0131271,0.0341055,0.00305466,1.06702,0.0217902,0.0434805,1273,1695,7.96633,-33.6634
56,-671,8.15723,33.4143,0.00628821,0.025468,0.00788232,0.0282916,0.00346451,1.22681,0.0178189,0.044426,1280,1695,8.15721,-33.4143
63,-671,7.08203,32.9307,0.00223492,0.0239103,0.00359787,0.0244919,0.00165332,1.41053,0.0158057,0.0483329,1287,1695,7.08205,-32.9306
70,-671,7.42493,33.0707,-0.000139421,0.0205474,-0.000543605,0.0205616,-0.000153696,-1.54454,0.0137593,0.0480206,1294,1695,7.42497,-33.0706
77,-671,7.4856,33.0861,-0.00145149,0.0163708,-0.00433427,0.017369,-0.00244965,-1.34445,0.0124763,0.0479686,1301,1695,7.48554,-33.0861
84,-671,7.35425,33.0558,0,0,0,0,0,0,0,-1,1308,1695,7.35422,-33.0558
91,-671,7.56897,33.1835,0.00017719,0.00177372,-0.0108707,0.0118754,-0.00992447,-0.822049,0.0126029,0.0446942,1315,1695,7.56899,-33.1835
98,-671,7.29016,33.0819,0.00230229,-0.00668765,-0.0133947,0.0119361,-0.0163214,-0.623513,0.0163799,0.0468181,1322,1695,7.29022,-33.0819
105,-671,7.56909,33.0083,0.00482415,-0.0151283,-0.0163076,0.013965,-0.0242692,-0.51089,0.0223401,0.0446762,1329,1695,7.56909,-33.0084
112,-671,7.88147,32.9166,0,0,0,0,0,0,0,-1,1336,1695,7.88146,-32.9166
119,-671,4.98047,31.054,0,0,0,0,0,0,0,-1,1343,1695,4.98041,-31.0539
126,-671,5.91248,31.3844,0,0,0,0,0,0,0,-1,1350,1695,5.91242,-31.3844
133,-671,5.77759,31.1301,0.0171864,-0.0404967,-0.0258798,0.0270953,-0.0504056,-0.365663,0.0454148,0.0492355,1357,1695,5.77764,-31.1301
140,-671,5.59131,30.8632,0.020301,-0.0440949,-0.0264839,0.0297936,-0.0535875,-0.344165,0.0487891,0.0454252,1364,1695,5.59129,-30.8632
147,-671,5.42322,30.8058,0,0,0,0,0,0,0,-1,1371,1695,5.42321,-30.8058
154,-671,8.3103,31.953,0,0,0,0,0,0,0,-1,1378,1695,8.31029,-31.953
161,-671,4.49292,4.91272,0,0,0,0,0,0,0,-1,1385,1695,4.49297,-4.91273
168,-671,5.17639,6.1416,0,0,0,0,0,0,0,-1,1392,1695,5.1764,-6.14164
175,-671,5.6731,1.64685,0,0,0,0,0,0,0,-1,1399,1695,5.67313,-1.64691
182,-671,5.56812,1.71692,0,0,0,0,0,0,0,-1,1406,1695,5.56809,-1.71686
189,-671,6.98315,6.36169,0,0,0,0,0,0,0,-1,1413,1695,6.98312,-6.36175
196,-671,5.38123,5.69775,0,0,0,0,0,0,0,-1,1420,1695,5.38125,-5.69769
203,-671,5.95117,8.11658,0,0,0,0,0,0,0,-1,1427,1695,5.9512,-8.11662
210,-671,4.73596,8.39624,0,0,0,0,0,0,0,-1,1434,1695,4.736,-8.39618
217,-671,5.37097,11.863,0,0,0,0,0,0,0,-1,1441,1695,5.37094,-11.863
224,-671,5.08167,13.6694,0,0,0,0,0,0,0,-1,1448,1695,5.08165,-13.6695
231,-671,5.66663,15.3348,0,0,0,0,0,0,0,-1,1455,1695,5.66667,-15.3349
238,-671,6.32959,16.2036,0,0,0,0,0,0,0,-1,1462,1695,6.32961,-16.2037
245,-671,8.69019,29.451,0,0,0,0,0,0,0,-1,1469,1695,8.69015,-29.451
252,-671,8.3678,29.7164,0,0,0,0,0,0,0,-1,1476,1695,8.36777,-29.7165
259,-671,8.25623,29.4822,0,0,0,0,0,0,0,-1,1483,1695,8.25626,-29.4822
266,-671,8.34802,29.5392,0.00459489,0.000183656,-0.000893906,0.00476915,9.39541e-06,-0.192528,0.0031763,0.0374037,1490,1695,8.34808,-29.5392
273,-671,8.4137,29.3982,0.0046278,-1.85837e-05,-0.000951857,0.00481524,-0.00020602,-0.194429,0.00328099,0.0123856,1497,1695,8.41373,-29.3982
280,-671,8.41821,29.2145,0.0045293,-9.0587e-05,-0.000932688,0.00471049,-0.000271777,-0.191877,0.00323473,0.00899882,1504,1695,8.41823,-29.2145
287,-671,8.42688,28.9381,0.00411324,0.000172728,-0.000810289,0.00427336,1.26145e-05,-0.195088,0.00284471,0.0107833,1511,1695,8.42684,-28.9381
294,-671,8.43323,28.714,0.00362741,0.000503048,-0.000766472,0.00380531,0.000325145,-0.228067,0.00243573,0.0113164,1518,1695,8.43323,-28.714
301,-671,8.448,28.5431,0.00313236,0.000701354,-0.00069944,0.00331923,0.000514479,-0.26108,0.00206283,0.0103465,1525,1695,8.448,-28.5431
308,-671,8.4635,28.3326,0.0026138,0.00109774,-0.000733738,0.00291075,0.000800794,-0.384557,0.00173626,0.0107298,1532,1695,8.46347,-28.3326
315,-671,8.49316,28.111,0.00210412,0.00132503,-0.000725271,0.00253784,0.000891307,-0.538954,0.00148669,0.0127102,1539,1695,8.49321,-28.111
322,-671,8.49255,27.8909,0.00162582,0.00151938,-0.000723461,0.00229801,0.000847181,-0.748683,0.00134193,0.0147009,1546,1695,8.49258,-27.8909
329,-671,8.45703,27.6591,0.00117804,0.00153213,-0.000721538,0.00209803,0.000612142,-0.905706,0.00124582,0.0138398,1553,1695,8.45705,-27.659
336,-671,8.47473,27.3811,0.000791729,0.00147812,-0.000586882,0.00181479,0.000455061,-1.04997,0.0010903,0.0119128,1560,1695,8.47476,-27.3811
343,-671,8.48682,27.0919,0.000346233,0.000933138,-0.000419658,0.00115177,0.000127605,-1.09051,0.000729041,0.0111408,1567,1695,8.48687,-27.0919
350,-671,8.47632,26.8427,-0.000125302,-3.25913e-05,-0.00017446,0.000101567,-0.00025946,-0.915251,0.000214981,0.0109201,1574,1695,8.47634,-26.8427
357,-671,8.46826,26.5475,-0.000455534,-0.00095508,8.95157e-05,-0.000439978,-0.000970636,0.172064,0.000561212,0.010368,1581,1695,8.46821,-26.5475
364,-671,8.45227,26.2847,-0.00081714,-0.0022174,0.000473907,-0.00067183,-0.00236271,0.297521,0.00140577,0.0111118,1588,1695,8.45227,-26.2847
371,-671,8.4458,26.0344,-0.00119389,-0.00369422,0.00091607,-0.000894186,-0.00399392,0.316188,0.00242025,0.0128841,1595,1695,8.44576,-26.0344
378,-671,8.45068,25.7411,-0.00157314,-0.00534426,0.00143057,-0.00109188,-0.00582552,0.324522,0.00357573,0.0115614,1602,1695,8.45063,-25.741
385,-671,8.42017,25.4476,-0.00192747,-0.00690338,0.00197354,-0.00123977,-0.00759108,0.335303,0.00470226,0.0139328,1609,1695,8.42014,-25.4477
392,-671,8.36646,25.2173,-0.00234748,-0.00861903,0.0024701,-0.00149145,-0.00947506,0.333603,0.00588291,0.0198332,1616,1695,8.36652,-25.2173
399,-671,8.33459,24.8771,-0.00279301,-0.0102141,0.00281389,-0.00184671,-0.0111604,0.324413,0.00690746,0.0181787,1623,1695,8.33465,-24.877
406,-671,8.26721,24.5121,0,0,0,0,0,0,0,-1,1630,1695,8.26724,-24.5121
413,-671,8.30737,24.522,0,0,0,0,0,0,0,-1,1637,1695,8.30731,-24.522
420,-671,8.42896,24.145,0,0,0,0,0,0,0,-1,1644,1695,8.42902,-24.1451
427,-671,9.31738,21.7188,0,0,0,0,0,0,0,-1,1651,1695,9.31735,-21.7187
434,-671,8.24438,23.2827,0,0,0,0,0,0,0,-1,1658,1695,8.24433,-23.2828
441,-671,8.34961,20.6522,0,0,0,0,0,0,0,-1,1665,1695,8.34964,-20.6522
448,-671,7.44873,20.2306,0,0,0,0,0,0,0,-1,1672,1695,7.44872,-20.2306
455,-671,6.62805,19.8612,0,0,0,0,0,0,0,-1,1679,1695,6.62811,-19.8612
462,-671,5.86255,4.47961,0,0,0,0,0,0,0,-1,1686,1695,5.8625,-4.4796
469,-671,3.71301,3.76978,0,0,0,0,0,0,0,-1,1693,1695,3.71297,-3.76974
476,-671,3.75574,3.18848,0,0,0,0,0,0,0,-1,1700,1695,3.7558,-3.18847
483,-671,7.81824,12.1041,0,0,0,0,0,0,0,-1,1707,1695,7.81826,-12.1041
490,-671,0,0,0,0,0,0,0,0,0,-1,1714,1695,0,0
497,-671,0,0,0,0,0,0,0,0,0,-1,1721,1695,0,0
504,-671,0,0,0,0,0,0,0,0,0,-1,1728,1695,0,0
511,-671,0,0,0,0,0,0,0,0,0,-1,1735,1695,0,0
518,-671,0,0,0,0,0,0,0,0,0,-1,1742,1695,0,0
525,-671,0,0,0,0,0,0,0,0,0,-1,1749,1695,0,0
532,-671,0,0,0,0,0,0,0,0,0,-1,1756,1695,0,0
539,-671,0,0,0,0,0,0,0,0,0,-1,1763,1695,0,0
546,-671,0,0,0,0,0,0,0,0,0,-1,1770,1695,0,0
553,-671,0,0,0,0,0,0,0,0,0,-1,1777,1695,0,0
560,-671,0,0,0,0,0,0,0,0,0,-1,1784,1695,0,0
567,-671,0,0,0,0,0,0,0,0,0,-1,1791,1695,0,0
574,-671,0,0,0,0,0,0,0,0,0,-1,1798,1695,0,0
581,-671,0,0,0,0,0,0,0,0,0,-1,1805,1695,0,0
588,-671,0,0,0,0,0,0,0,0,0,-1,1812,1695,0,0
595,-671,0,0,0,0,0,0,0,0,0,-1,1819,1695,0,0
602,-671,0,0,0,0,0,0,0,0,0,-1,1826,1695,0,0
609,-671,0,0,0,0,0,0,0,0,0,-1,1833,1695,0,0
616,-671,0,0,0,0,0,0,0,0,0,-1,1840,1695,0,0
623,-671,0,0,0,0,0,0,0,0,0,-1,1847,1695,0,0
630,-671,0,0,0,0,0,0,0,0,0,-1,1854,1695,0,0
637,-671,0,0,0,0,0,0,0,0,0,-1,1861,1695,0,0
644,-671,0,0,0,0,0,0,0,0,0,-1,1868,1695,0,0
651,-671,0,0,0,0,0,0,0,0,0,-1,1875,1695,0,0
658,-671,0,0,0,0,0,0,0,0,0,-1,1882,1695,0,0
665,-671,0,0,0,0,0,0,0,0,0,-1,1889,1695,0,0
672,-671,0,0,0,0,0,0,0,0,0,-1,1896,1695,0,0
679,-671,0,0,0,0,0,0,0,0,0,-1,1903,1695,0,0
686,-671,0,0,0,0,0,0,0,0,0,-1,1910,1695,0,0
693,-671,0,0,0,0,0,0,0,0,0,-1,1917,1695,0,0
700,-671,0,0,0,0,0,0,0,0,0,-1,1924,1695,0,0
707,-671,0,0,0,0,0,0,0,0,0,-1,1931,1695,0,0
714,-671,0,0,0,0,0,0,0,0,0,-1,1938,1695,0,0
721,-671,0,0,0,0,0,0,0,0,0,-1,1945,1695,0,0
728,-671,0,0,0,0,0,0,0,0,0,-1,1952,1695,0,0
735,-671,0,0,0,0,0,0,0,0,0,-1,1959,1695,0,0
742,-671,0,0,0,0,0,0,0,0,0,-1,1966,1695,0,0
749,-671,0,0,0,0,0,0,0,0,0,-1,1973,1695,0,0
756,-671,0,0,0,0,0,0,0,0,0,-1,1980,1695,0,0
763,-671,0,0,0,0,0,0,0,0,0,-1,1987,1695,0,0
770,-671,0,0,0,0,0,0,0,0,0,-1,1994,1695,0,0
777,-671,0,0,0,0,0,0,0,0,0,-1,2001,1695,0,0
784,-671,0,0,0,0,0,0,0,0,0,-1,2008,1695,0,0
791,-671,0,0,0,0,0,0,0,0,0,-1,2015,1695,0,0
798,-671,0,0,0,0,0,0,0,0,0,-1,2022,1695,0,0
805,-671,0,0,0,0,0,0,0,0,0,-1,2029,1695,0,0
812,-671,0,0,0,0,0,0,0,0,0,-1,2036,1695,0,0
-700,-678,0,0,0,0,0,0,0,0,0,-1,524,1702,0,0
-693,-678,0,0,0,0,0,0,0,0,0,-1,531,1702,0,0
-686,-678,0,0,0,0,0,0,0,0,0,-1,538,1702,0,0
-679,-678,0,0,0,0,0,0,0,0,0,-1,545,1702,0,0
-672,-678,0,0,0,0,0,0,0,0,0,-1,552,1702,0,0
-665,-678,0,0,0,0,0,0,0,0,0,-1,559,1702,0,0
-658,-678,0,0,0,0,0,0,0,0,0,-1,566,1702,0,0
-651,-678,0,0,0,0,0,0,0,0,0,-1,573,1702,0,0
-644,-678,0,0,0,0,0,0,0,0,0,-1,580,1702,0,0
-637,-678,0,0,0,0,0,0,0,0,0,-1,587,1702,0,0
-630,-678,0,0,0,0,0,0,0,0,0,-1,594,1702,0,0
-623,-678,0,0,0,0,0,0,0,0,0,-1,601,1702,0,0
-616,-678,0,0,0,0,0,0,0,0,0,-1,608,1702,0,0
-609,-678,0,0,0,0,0,0,0,0,0,-1,615,1702,0,0
-602,-678,0,0,0,0,0,0,0,0,0,-1,622,1702,0,0
-595,-678,0,0,0,0,0,0,0,0,0,-1,629,1702,0,0
-588,-678,0,0,0,0,0,0,0,0,0,-1,636,1702,0,0
-581,-678,0,0,0,0,0,0,0,0,0,-1,643,1702,0,0
-574,-678,0,0,0,0,0,0,0,0,0,-1,650,1702,0,0
-567,-678,0,0,0,0,0,0,0,0,0,-1,657,1702,0,0
-560,-678,0,0,0,0,0,0,0,0,0,-1,664,1702,0,0
-553,-678,0,0,0,0,0,0,0,0,0,-1,671,1702,0,0
-546,-678,0,0,0,0,0,0,0,0,0,-1,678,1702,0,0
-539,-678,0,0,0,0,0,0,0,0,0,-1,685,1702,0,0
-532,-678,0,0,0,0,0,0,0,0,0,-1,692,1702,0,0
-525,-678,0,0,0,0,0,0,0,0,0,-1,699,1702,0,0
-518,-678,0,0,0,0,0,0,0,0,0,-1,706,1702,0,0
-511,-678,0,0,0,0,0,0,0,0,0,-1,713,1702,0,0
-504,-678,0,0,0,0,0,0,0,0,0,-1,720,1702,0,0
-497,-678,0,0,0,0,0,0,0,0,0,-1,727,1702,0,0
-490,-678,0,0,0,0,0,0,0,0,0,-1,734,1702,0,0
-483,-678,0,0,0,0,0,0,0,0,0,-1,741,1702,0,0
-476,-678,0,0,0,0,0,0,0,0,0,-1,748,1702,0,0
-469,-678,0,0,0,0,0,0,0,0,0,-1,755,1702,0,0
-462,-678,0,0,0,0,0,0,0,0,0,-1,762,1702,0,0
-455,-678,0,0,0,0,0,0,0,0,0,-1,769,1702,0,0
-448,-678,0,0,0,0,0,0,0,0,0,-1,776,1702,0,0
-441,-678,0,0,0,0,0,0,0,0,0,-1,783,1702,0,0
-434,-678,0,0,0,0,0,0,0,0,0,-1,790,1702,0,0
-427,-678,0,0,0,0,0,0,0,0,0,-1,797,1702,0,0
-420,-678,0,0,0,0,0,0,0,0,0,-1,804,1702,0,0
-413,-678,0,0,0,0,0,0,0,0,0,-1,811,1702,0,0
-406,-678,0,0,0,0,0,0,0,0,0,-1,818,1702,0,0
-399,-678,0,0,0,0,0,0,0,0,0,-1,825,1702,0,0
-392,-678,0,0,0,0,0,0,0,0,0,-1,832,1702,0,0
-385,-678,0,0,0,0,0,0,0,0,0,-1,839,1702,0,0
-378,-678,0,0,0,0,0,0,0,0,0,-1,846,1702,0,0
-371,-678,0,0,0,0,0,0,0,0,0,-1,853,1702,0,0
-364,-678,0,0,0,0,0,0,0,0,0,-1,860,1702,0,0
-357,-678,0,0,0,0,0,0,0,0,0,-1,867,1702,0,0
-350,-678,-5.79944,6.11865,0,0,0,0,0,0,0,-1,874,1702,-5.79942,-6.11864
-343,-678,-6.44891,4.52759,0,0,0,0,0,0,0,-1,881,1702,-6.4489,-4.52758
-336,-678,-6.91888,2.99438,0,0,0,0,0,0,0,-1,888,1702,-6.9189,-2.99435
-329,-678,-7.14575,1.29761,0,0,0,0,0,0,0,-1,895,1702,-7.14577,-1.29755
-322,-678,3.78455,20.3917,0,0,0,0,0,0,0,-1,902,1702,3.78457,-20.3917
-315,-678,4.74176,22.3245,0,0,0,0,0,0,0,-1,909,1702,4.74178,-22.3244
-308,-678,6.20105,22.7914,0,0,0,0,0,0,0,-1,916,1702,6.20108,-22.7914
-301,-678,5.29895,22.3046,0,0,0,0,0,0,0,-1,923,1702,5.29895,-22.3045
-294,-678,5.78693,21.5417,0,0,0,0,0,0,0,-1,930,1702,5.7869,-21.5418
-287,-678,5.60529,23.683,0,0,0,0,0,0,0,-1,937,1702,5.60528,-23.683
-280,-678,4.89246,23.683,0.0145162,0.00270706,0.00725981,0.0179694,-0.000746192,0.443993,0.0122359,0.0456988,944,1702,4.89243,-23.6829
-273,-678,5.45288,23.8796,0.0119736,0.00210416,0.00559658,0.0145004,-0.000422559,0.42408,0.0098108,0.0419879,951,1702,5.45289,-23.8797
-266,-678,5.96442,24.2646,0.00963935,0.00171118,0.00404661,0.01134,1.05491e-05,0.39785,0.00755648,0.0388718,958,1702,5.96444,-24.2647
-259,-678,5.88733,24.6127,0.00727747,0.00170437,0.00265219,0.00833786,0.000643977,0.380349,0.00535683,0.02458,965,1702,5.88732,-24.6127
-252,-678,5.84314,24.8674,0.00503463,0.00151479,0.00143812,0.00554749,0.00100193,0.342556,0.00341372,0.0181255,972,1702,5.84314,-24.8675
-245,-678,5.84973,25.1517,0.00321527,0.00135673,0.000482914,0.00333326,0.00123875,0.23963,0.00194548,0.0183107,979,1702,5.84971,-25.1517
-238,-678,5.85504,25.4673,0.0018374,0.00121988,-0.000162496,0.00187755,0.00117973,-0.242224,0.00109584,0.0151229,986,1702,5.85502,-25.4672
-231,-678,5.82379,25.7654,0.000945597,0.00122477,-0.00051665,0.00162036,0.00055001,-0.917337,0.000951457,0.012729,993,1702,5.82381,-25.7654
-224,-678,5.78265,26.0427,-1.18326e-05,0.000779891,-0.00084876,0.00132057,-0.000552507,-1.0036,0.00111131,0.0129996,1000,1702,5.78268,-26.0427
-217,-678,5.78931,26.3386,-0.000496373,0.000627761,-0.000947241,0.00116714,-0.00103575,-1.05316,0.00127259,0.0132158,1007,1702,5.78932,-26.3386
-210,-678,5.78015,26.688,-0.000283706,0.000598264,-0.000612083,0.000911675,-0.000597117,-1.09756,0.000877389,0.0140881,1014,1702,5.78016,-26.688
-203,-678,5.78967,26.9518,1.88264e-05,0.000618917,-0.000365252,0.000791562,-0.000153818,-1.12925,0.000585752,0.0183371,1021,1702,5.78962,-26.9517
-196,-678,5.77515,27.1963,0.000280362,0.000582766,-0.000120262,0.00062476,0.000238367,-1.23484,0.000364065,0.0179643,1028,1702,5.77519,-27.1963
-189,-678,5.75317,27.4661,0.000513398,0.000502206,8.81143e-05,0.000596094,0.00041951,0.753688,0.000353553,0.0103775,1035,1702,5.75315,-27.4661
-182,-678,5.76282,27.7256,0.000730107,0.000770314,0.000173556,0.000924927,0.000575494,0.843058,0.000539297,0.00972685,1042,1702,5.76287,-27.7256
-175,-678,5.75488,27.9666,0.000921799,0.00145027,0.000207292,0.00152188,0.000850192,1.23819,0.000880669,0.010414,1049,1702,5.75491,-27.9666
-168,-678,5.7467,28.2129,0.000983468,0.00213603,0.000275679,0.00219857,0.000920923,1.3477,0.0012749,0.00982324,1056,1702,5.74667,-28.2129
-161,-678,5.75244,28.4502,0.000987421,0.00303047,0.000286452,0.00306987,0.000948017,1.4341,0.00181507,0.00859766,1063,1702,5.75248,-28.4502
-154,-678,5.76086,28.6809,0.00105087,0.00417274,0.000291354,0.0041997,0.00102391,1.47853,0.00252857,0.00816122,1070,1702,5.76084,-28.681
-147,-678,5.75525,28.9189,0.00113866,0.00545449,0.000224017,0.00546608,0.00112706,1.51908,0.00333252,0.0101884,1077,1702,5.75529,-28.9189
-140,-678,5.79578,29.1384,0.00121387,0.00671919,0.000152032,0.00672339,0.00120968,1.54321,0.00413839,0.0118571,1084,1702,5.79583,-29.1384
-133,-678,5.82068,29.345,0.00127237,0.00796361,0.000113236,0.00796553,0.00127045,1.55388,0.00494161,0.0124058,1091,1702,5.82069,-29.3449
-126,-678,5.8197,29.5544,0.00139846,0.00918351,4.56775e-05,0.00918378,0.00139819,1.56493,0.00571377,0.0109842,1098,1702,5.81971,-29.5544
-119,-678,5.87708,29.933,0.00168045,0.00995339,-7.5187e-05,0.00995407,0.00167976,-1.56171,0.00615304,0.0271961,1105,1702,5.87709,-29.933
-112,-678,5.8739,30.1761,0.00200135,0.0104899,-0.000265355,0.0104982,0.00199307,-1.53958,0.00643812,0.0414783,1112,1702,5.8739,-30.1761
-105,-678,5.88184,30.3668,0.0025089,0.0106348,-0.000356257,0.0106504,0.00249331,-1.52707,0.0064323,0.042372,1119,1702,5.88189,-30.3668
-98,-678,5.85742,30.3743,0.0029912,0.0105145,-0.000311933,0.0105274,0.00297829,-1.52943,0.00626607,0.0252197,1126,1702,5.85742,-30.3743
-91,-678,5.92224,30.4453,0.0032992,0.0102333,-0.000857014,0.0103377,0.00319485,-1.44963,0.00611182,0.0282744,1133,1702,5.92225,-30.4454
-84,-678,5.98877,30.738,0,0,0,0,0,0,0,-1,1140,1702,5.98883,-30.738
-77,-678,5.95154,29.1879,0,0,0,0,0,0,0,-1,1147,1702,5.95156,-29.1878
-70,-678,4.75891,19.6552,0,0,0,0,0,0,0,-1,1154,1702,4.75895,-19.6551
-63,-678,3.41687,11.0365,0,0,0,0,0,0,0,-1,1161,1702,3.41682,-11.0365
-56,-678,1.72388,6.13159,0,0,0,0,0,0,0,-1,1168,1702,1.72388,-6.13157
-49,-678,-0.241699,5.29895,0,0,0,0,0,0,0,-1,1175,1702,-0.241682,-5.29897
-42,-678,0.297119,3.90649,0,0,0,0,0,0,0,-1,1182,1702,0.297139,-3.90655
-35,-678,0.498413,3.64038,0,0,0,0,0,0,0,-1,1189,1702,0.498471,-3.64038
-28,-678,0.132446,3.55994,0,0,0,0,0,0,0,-1,1196,1702,0.132432,-3.55993
-21,-678,6.43445,31.7439,0,0,0,0,0,0,0,-1,1203,1702,6.43444,-31.7438
-14,-678,6.67822,31.8042,0.02706,0.00784577,0.0440588,0.062547,-0.0276412,0.678052,0.0533543,0.041148,1210,1702,6.67822,-31.8042
-7,-678,6.87036,31.9249,0.0280437,0.00889129,0.0433666,0.0628788,-0.0259438,0.676732,0.0527389,0.0421805,1217,1702,6.87031,-31.9249
0,-678,6.81421,32.1779,0,0,0,0,0,0,0,-1,1224,1702,6.81417,-32.1778
7,-678,6.00769,32.634,0.0273979,0.0140821,0.0386353,0.0599447,-0.0184647,0.700072,0.0473342,0.0423574,1231,1702,6.00771,-32.6341
14,-678,6.86646,32.5948,0.0256015,0.0169165,0.034946,0.0564738,-0.0139558,0.723584,0.0430616,0.0436863,1238,1702,6.8665,-32.5949
21,-678,7.6543,32.6511,0.0232805,0.0197464,0.0304641,0.0520287,-0.00900181,0.756428,0.0380431,0.0432435,1245,1702,7.65429,-32.6512
28,-678,7.66626,32.9427,0.0204392,0.0221421,0.0260245,0.0473291,-0.00474777,0.801751,0.0332485,0.0445621,1252,1702,7.66627,-32.9427
35,-678,6.56177,33.6903,0,0,0,0,0,0,0,-1,1259,1702,6.56181,-33.6903
42,-678,7.06262,33.6508,0.0135802,0.0263194,0.0172291,0.0383187,0.00158094,0.962455,0.0250354,0.0434911,1266,1702,7.06265,-33.6508
49,-678,7.43958,33.2626,0.0104009,0.0261828,0.0129663,0.0334705,0.00311314,1.05875,0.0213517,0.0434277,1273,1702,7.43962,-33.2625
56,-678,6.99304,32.5782,0.00741301,0.0247636,0.00853981,0.0282616,0.00391501,1.18203,0.0176812,0.044136,1280,1702,6.99306,-32.5783
63,-678,6.99182,32.7844,0.00437669,0.0232281,0.00498058,0.0244631,0.00314172,1.32774,0.0153689,0.0460211,1287,1702,6.99185,-32.7844
70,-678,7.15906,33.0227,0.00243439,0.0201762,0.00155534,0.0203115,0.00229907,1.48401,0.0128434,0.0482852,1294,1702,7.15902,-33.0228
77,-678,7.39136,32.8046,0.00112522,0.016344,-0.00154157,0.0164986,0.000970635,-1.47086,0.0106902,0.0490487,1301,1702,7.39133,-32.8046
84,-678,7.51318,32.7479,0.000916835,0.0108421,-0.00447181,0.0125597,-0.000800713,-1.20409,0.00865236,0.0463317,1308,1702,7.51323,-32.7479
91,-678,7.91199,33.0222,0.00140388,0.00345944,-0.0070547,0.00956083,-0.00469752,-0.857733,0.00839016,0.0435183,1315,1702,7.91201,-33.0222
98,-678,8.13513,33.3542,0.00241403,-0.00388021,-0.00924778,0.00903552,-0.0105017,-0.62139,0.0112904,0.0438175,1322,1702,8.13518,-33.3542
105,-678,7.45984,32.6487,0.00367818,-0.0111348,-0.0117438,0.010156,-0.0176126,-0.504065,0.0162238,0.0409593,1329,1702,7.45982,-32.6487
112,-678,7.75635,32.5626,0,0,0,0,0,0,0,-1,1336,1702,7.7564,-32.5627
119,-678,7.57703,32.0494,0,0,0,0,0,0,0,-1,1343,1702,7.57703,-32.0495
126,-678,6.54724,31.3494,0.00900973,-0.0290982,-0.0185216,0.0165284,-0.0366168,-0.385616,0.0314056,0.0458709,1350,1702,6.54724,-31.3494
133,-678,6.27478,31.298,0.0107726,-0.0333797,-0.0200962,0.0185496,-0.0411568,-0.369241,0.0352856,0.0476122,1357,1702,6.27475,-31.298
140,-678,6.1637,31.3601,0.0129763,-0.0366367,-0.0207611,0.0205177,-0.0441781,-0.348427,0.0381757,0.0453558,1364,1702,6.16368,-31.3602
147,-678,7.74512,32.502,0,0,0,0,0,0,0,-1,1371,1702,7.74517,-32.5019
154,-678,8.61218,32.2789,0,0,0,0,0,0,0,-1,1378,1702,8.61217,-32.279
161,-678,7.77563,27.5094,0,0,0,0,0,0,0,-1,1385,1702,7.77565,-27.5094
168,-678,4.21863,5.25781,0,0,0,0,0,0,0,-1,1392,1702,4.21865,-5.25781
175,-678,5.21899,5.9635,0,0,0,0,0,0,0,-1,1399,1702,5.21894,-5.96346
182,-678,7.31262,6.75122,0,0,0,0,0,0,0,-1,1406,1702,7.3126,-6.75123
189,-678,5.96021,6.36853,0,0,0,0,0,0,0,-1,1413,1702,5.96018,-6.36851
196,-678,5.01599,8.15771,0,0,0,0,0,0,0,-1,1420,1702,5.01596,-8.15767
203,-678,4.64771,13.0559,0,0,0,0,0,0,0,-1,1427,1702,4.64766,-13.0559
210,-678,5.6532,18.5957,0,0,0,0,0,0,0,-1,1434,1702,5.65318,-18.5958
217,-678,6.88049,23.4835,0,0,0,0,0,0,0,-1,1441,1702,6.88047,-23.4835
224,-678,8.28186,30.979,0,0,0,0,0,0,0,-1,1448,1702,8.28183,-30.979
231,-678,7.99536,30.5823,0,0,0,0,0,0,0,-1,1455,1702,7.99533,-30.5822
238,-678,8.17993,30.5059,0,0,0,0,0,0,0,-1,1462,1702,8.17994,-30.5058
245,-678,8.17188,30.2578,0.00204915,0.00113698,0.000348487,0.00216705,0.00101908,0.326226,0.00125188,0.043832,1469,1702,8.17191,-30.2578
252,-678,8.18384,29.9806,0.00258074,0.00067464,5.01551e-06,0.00258075,0.000674627,0.00263127,0.00154551,0.0305921,1476,1702,8.18387,-29.9806
259,-678,8.19006,29.8497,0.00295861,0.000467973,-0.000299677,0.00299416,0.000432423,-0.118076,0.00186872,0.016997,1483,1702,8.19007,-29.8498
266,-678,8.20642,29.6429,0.0031792,0.000248652,-0.000541774,0.00327615,0.000151702,-0.177077,0.00213533,0.0113223,1490,1702,8.20647,-29.643
273,-678,8.20447,29.4332,0.00322136,9.65295e-05,-0.000647273,0.00335013,-3.22394e-05,-0.196377,0.00224424,0.010919,1497,1702,8.2045,-29.4333
280,-678,8.19617,29.2261,0.00319611,2.05488e-05,-0.000718621,0.00335117,-0.000134502,-0.212504,0.00228027,0.011131,1504,1702,8.19617,-29.226
287,-678,8.22302,28.9818,0.00292231,0.00025021,-0.000685876,0.00308808,8.44424e-05,-0.237139,0.00203116,0.0115574,1511,1702,8.22302,-28.9818
294,-678,8.22717,28.7566,0.00257618,0.000563012,-0.000700476,0.00279593,0.000343269,-0.303982,0.00176072,0.0127269,1518,1702,8.22719,-28.7566
301,-678,8.21741,28.5483,0.00220262,0.00075813,-0.000716136,0.00249748,0.000463277,-0.390575,0.00153406,0.0123223,1525,1702,8.2174,-28.5483
308,-678,8.22058,28.3256,0.00176338,0.00110456,-0.000791896,0.00229164,0.000576289,-0.588296,0.00137648,0.0130573,1532,1702,8.22059,-28.3256
315,-678,8.2345,28.108,0.001324,0.00120716,-0.000789493,0.00205724,0.000473933,-0.748467,0.00124398,0.0142341,1539,1702,8.23452,-28.108
322,-678,8.21863,27.9026,0.000924333,0.0013125,-0.000797124,0.00193883,0.000298006,-0.904816,0.00120556,0.0171433,1546,1702,8.21857,-27.9025
329,-678,8.21179,27.6415,0.000521376,0.001275,-0.00078785,0.00177151,2.48638e-05,-1.00846,0.00117281,0.0158064,1553,1702,8.21182,-27.6414
336,-678,8.20557,27.3671,0.000174227,0.00110895,-0.000634233,0.00142942,-0.000146242,-1.10293,0.00100525,0.0136666,1560,1702,8.20557,-27.367
343,-678,8.21655,27.1143,-0.000225307,0.00041965,-0.00042858,0.000633523,-0.00043918,-1.10793,0.000622704,0.0122256,1567,1702,8.21654,-27.1142
350,-678,8.22485,26.8469,-0.000695451,-0.000750431,-9.50938e-05,-0.000623953,-0.000821929,-0.644691,0.000495329,0.0121984,1574,1702,8.22484,-26.8469
357,-678,8.2113,26.5758,-0.00102744,-0.00185146,0.000250545,-0.000957237,-0.00192166,0.273177,0.00110947,0.00974812,1581,1702,8.21124,-26.5757
364,-678,8.17944,26.3105,-0.00138716,-0.00329944,0.000720328,-0.00114619,-0.00354041,0.322828,0.00208596,0.0104616,1588,1702,8.1794,-26.3106
371,-678,8.15601,26.0371,-0.00176504,-0.00504381,0.00126271,-0.00133512,-0.00547374,0.328163,0.00329553,0.0109294,1595,1702,8.15599,-26.0371
378,-678,8.15894,25.7374,-0.00217771,-0.00708044,0.00192336,-0.00151323,-0.00774492,0.332642,0.00474008,0.0122332,1602,1702,8.1589,-25.7374
385,-678,8.14819,25.4746,-0.00259143,-0.00903342,0.00265665,-0.00163719,-0.00998767,0.344838,0.00618537,0.0153003,1609,1702,8.1482,-25.4746
392,-678,8.13794,25.267,-0.00305671,-0.0112521,0.0033453,-0.00186459,-0.0124442,0.342327,0.00774973,0.0297307,1616,1702,8.138,-25.267
399,-678,8.04553,25.1324,-0.00353842,-0.0134381,0.0038663,-0.0022074,-0.0147691,0.331554,0.00919897,0.0396857,1623,1702,8.04553,-25.1325
406,-678,7.85254,25.1716,0,0,0,0,0,0,0,-1,1630,1702,7.85259,-25.1716
413,-678,7.77722,24.9354,0,0,0,0,0,0,0,-1,1637,1702,7.77717,-24.9355
420,-678,7.677,24.6936,0,0,0,0,0,0,0,-1,1644,1702,7.67697,-24.6936
427,-678,4.57483,10.1555,0,0,0,0,0,0,0,-1,1651,1702,4.57485,-10.1555
434,-678,9.48169,21.6665,0,0,0,0,0,0,0,-1,1658,1702,9.48169,-21.6665
441,-678,8.64539,21.1864,0,0,0,0,0,0,0,-1,1665,1702,8.64536,-21.1865
448,-678,7.62244,20.7195,0,0,0,0,0,0,0,-1,1672,1702,7.6224,-20.7195
455,-678,5.44678,5.54297,0,0,0,0,0,0,0,-1,1679,1702,5.44676,-5.54294
462,-678,3.86792,2.87402,0,0,0,0,0,0,0,-1,1686,1702,3.86796,-2.87406
469,-678,2.26587,1.98755,0,0,0,0,0,0,0,-1,1693,1702,2.26592,-1.98755
476,-678,0,0,0,0,0,0,0,0,0,-1,1700,1702,0,0
483,-678,0,0,0,0,0,0,0,0,0,-1,1707,1702,0,0
490,-678,0,0,0,0,0,0,0,0,0,-1,1714,1702,0,0
497,-678,0,0,0,0,0,0,0,0,0,-1,1721,1702,0,0
504,-678,0,0,0,0,0,0,0,0,0,-1,1728,1702,0,0
511,-678,0,0,0,0,0,0,0,0,0,-1,1735,1702,0,0
518,-678,0,0,0,0,0,0,0,0,0,-1,1742,1702,0,0
525,-678,0,0,0,0,0,0,0,0,0,-1,1749,1702,0,0
532,-678,0,0,0,0,0,0,0,0,0,-1,1756,1702,0,0
539,-678,0,0,0,0,0,0,0,0,0,-1,1763,1702,0,0
546,-678,0,0,0,0,0,0,0,0,0,-1,1770,1702,0,0
553,-678,0,0,0,0,0,0,0,0,0,-1,1777,1702,0,0
560,-678,0,0,0,0,0,0,0,0,0,-1,1784,1702,0,0
567,-678,0,0,0,0,0,0,0,0,0,-1,1791,1702,0,0
574,-678,0,0,0,0,0,0,0,0,0,-1,1798,1702,0,0
581,-678,0,0,0,0,0,0,0,0,0,-1,1805,1702,0,0
588,-678,0,0,0,0,0,0,0,0,0,-1,1812,1702,0,0
595,-678,0,0,0,0,0,0,0,0,0,-1,1819,1702,0,0
602,-678,0,0,0,0,0,0,0,0,0,-1,1826,1702,0,0
609,-678,0,0,0,0,0,0,0,0,0,-1,1833,1702,0,0
616,-678,0,0,0,0,0,0,0,0,0,-1,1840,1702,0,0
623,-678,0,0,0,0,0,0,0,0,0,-1,1847,1702,0,0
630,-678,0,0,0,0,0,0,0,0,0,-1,1854,1702,0,0
637,-678,0,0,0,0,0,0,0,0,0,-1,1861,1702,0,0
644,-678,0,0,0,0,0,0,0,0,0,-1,1868,1702,0,0
651,-678,0,0,0,0,0,0,0,0,0,-1,1875,1702,0,0
658,-678,0,0,0,0,0,0,0,0,0,-1,1882,1702,0,0
665,-678,0,0,0,0,0,0,0,0,0,-1,1889,1702,0,0
672,-678,0,0,0,0,0,0,0,0,0,-1,1896,1702,0,0
679,-678,0,0,0,0,0,0,0,0,0,-1,1903,1702,0,0
686,-678,0,0,0,0,0,0,0,0,0,-1,1910,1702,0,0
693,-678,0,0,0,0,0,0,0,0,0,-1,1917,1702,0,0
700,-678,0,0,0,0,0,0,0,0,0,-1,1924,1702,0,0
707,-678,0,0,0,0,0,0,0,0,0,-1,1931,1702,0,0
714,-678,0,0,0,0,0,0,0,0,0,-1,1938,1702,0,0
721,-678,0,0,0,0,0,0,0,0,0,-1,1945,1702,0,0
728,-678,0,0,0,0,0,0,0,0,0,-1,1952,1702,0,0
735,-678,0,0,0,0,0,0,0,0,0,-1,1959,1702,0,0
742,-678,0,0,0,0,0,0,0,0,0,-1,1966,1702,0,0
749,-678,0,0,0,0,0,0,0,0,0,-1,1973,1702,0,0
756,-678,0,0,0,0,0,0,0,0,0,-1,1980,1702,0,0
763,-678,0,0,0,0,0,0,0,0,0,-1,1987,1702,0,0
770,-678,0,0,0,0,0,0,0,0,0,-1,1994,1702,0,0
777,-678,0,0,0,0,0,0,0,0,0,-1,2001,1702,0,0
784,-678,0,0,0,0,0,0,0,0,0,-1,2008,1702,0,0
791,-678,0,0,0,0,0,0,0,0,0,-1,2015,1702,0,0
798,-678,0,0,0,0,0,0,0,0,0,-1,2022,1702,0,0
805,-678,0,0,0,0,0,0,0,0,0,-1,2029,1702,0,0
812,-678,0,0,0,0,0,0,0,0,0,-1,2036,1702,0,0
-700,-685,0,0,0,0,0,0,0,0,0,-1,524,1709,0,0
-693,-685,0,0,0,0,0,0,0,0,0,-1,531,1709,0,0
-686,-685,0,0,0,0,0,0,0,0,0,-1,538,1709,0,0
-679,-685,0,0,0,0,0,0,0,0,0,-1,545,1709,0,0
-672,-685,0,0,0,0,0,0,0,0,0,-1,552,1709,0,0
-665,-685,0,0,0,0,0,0,0,0,0,-1,559,1709,0,0
-658,-685,0,0,0,0,0,0,0,0,0,-1,566,1709,0,0
-651,-685,0,0,0,0,0,0,0,0,0,-1,573,1709,0,0
-644,-685,0,0,0,0,0,0,0,0,0,-1,580,1709,0,0
-637,-685,0,0,0,0,0,0,0,0,0,-1,587,1709,0,0
-630,-685,0,0,0,0,0,0,0,0,0,-1,594,1709,0,0
-623,-685,0,0,0,0,0,0,0,0,0,-1,601,1709,0,0
-616,-685,0,0,0,0,0,0,0,0,0,-1,608,1709,0,0
-609,-685,0,0,0,0,0,0,0,0,0,-1,615,1709,0,0
-602,-685,0,0,0,0,0,0,0,0,0,-1,622,1709,0,0
-595,-685,0,0,0,0,0,0,0,0,0,-1,629,1709,0,0
-588,-685,0,0,0,0,0,0,0,0,0,-1,636,1709,0,0
-581,-685,0,0,0,0,0,0,0,0,0,-1,643,1709,0,0
-574,-685,0,0,0,0,0,0,0,0,0,-1,650,1709,0,0
-567,-685,0,0,0,0,0,0,0,0,0,-1,657,1709,0,0
-560,-685,0,0,0,0,0,0,0,0,0,-1,664,1709,0,0
-553,-685,0,0,0,0,0,0,0,0,0,-1,671,1709,0,0
-546,-685,0,0,0,0,0,0,0,0,0,-1,678,1709,0,0
-539,-685,0,0,0,0,0,0,0,0,0,-1,685,1709,0,0
-532,-685,0,0,0,0,0,0,0,0,0,-1,692,1709,0,0
-525,-685,0,0,0,0,0,0,0,0,0,-1,699,1709,0,0
-518,-685,0,0,0,0,0,0,0,0,0,-1,706,1709,0,0
-511,-685,0,0,0,0,0,0,0,0,0,-1,713,1709,0,0
-504,-685,0,0,0,0,0,0,0,0,0,-1,720,1709,0,0
-497,-685,0,0,0,0,0,0,0,0,0,-1,727,1709,0,0
-490,-685,0,0,0,0,0,0,0,0,0,-1,734,1709,0,0
-483,-685,0,0,0,0,0,0,0,0,0,-1,741,1709,0,0
-476,-685,0,0,0,0,0,0,0,0,0,-1,748,1709,0,0
-469,-685,0,0,0,0,0,0,0,0,0,-1,755,1709,0,0
-462,-685,0,0,0,0,0,0,0,0,0,-1,762,1709,0,0
-455,-685,0,0,0,0,0,0,0,0,0,-1,769,1709,0,0
-448,-685,0,0,0,0,0,0,0,0,0,-1,776,1709,0,0
-441,-685,0,0,0,0,0,0,0,0,0,-1,783,1709,0,0
-434,-685,0,0,0,0,0,0,0,0,0,-1,790,1709,0,0
-427,-685,0,0,0,0,0,0,0,0,0,-1,797,1709,0,0
-420,-685,0,0,0,0,0,0,0,0,0,-1,804,1709,0,0
-413,-685,0,0,0,0,0,0,0,0,0,-1,811,1709,0,0
-406,-685,0,0,0,0,0,0,0,0,0,-1,818,1709,0,0
-399,-685,0,0,0,0,0,0,0,0,0,-1,825,1709,0,0
-392,-685,0,0,0,0,0,0,0,0,0,-1,832,1709,0,0
-385,-685,0,0,0,0,0,0,0,0,0,-1,839,1709,0,0
-378,-685,0,0,0,0,0,0,0,0,0,-1,846,1709,0,0
-371,-685,0,0,0,0,0,0,0,0,0,-1,853,1709,0,0
-364,-685,0,0,0,0,0,0,0,0,0,-1,860,1709,0,0
-357,-685,0,0,0,0,0,0,0,0,0,-1,867,1709,0,0
-350,-685,0,0,0,0,0,0,0,0,0,-1,874,1709,0,0
-343,-685,-5.98505,6.56335,0,0,0,0,0,0,0,-1,881,1709,-5.98505,-6.56329
-336,-685,-6.51312,5.10571,0,0,0,0,0,0,0,-1,888,1709,-6.51311,-5.10575
-329,-685,-6.81384,3.34106,0,0,0,0,0,0,0,-1,895,1709,-6.81385,-3.341
-322,-685,3.83191,16.7219,0,0,0,0,0,0,0,-1,902,1709,3.8319,-16.7219
-315,-685,5.15784,21.4388,0,0,0,0,0,0,0,-1,909,1709,5.15783,-21.4389
-308,-685,6.36969,21.0303,0,0,0,0,0,0,0,-1,916,1709,6.36968,-21.0302
-301,-685,7.71271,20.1454,0,0,0,0,0,0,0,-1,923,1709,7.71272,-20.1454
-294,-685,5.5744,23.4772,0,0,0,0,0,0,0,-1,930,1709,5.57441,-23.4771
-287,-685,4.71088,23.0372,0,0,0,0,0,0,0,-1,937,1709,4.71089,-23.0373
-280,-685,5.11346,23.4083,0.0210034,0.00488808,0.00966832,0.0255316,0.000359952,0.438007,0.0169023,0.0497576,944,1709,5.11344,-23.4083
-273,-685,5.37195,23.7881,0.0169982,0.003805,0.00719383,0.020162,0.000641154,0.41434,0.0132328,0.0457888,951,1709,5.37197,-23.7881
-266,-685,6.30096,24.3934,0,0,0,0,0,0,0,-1,958,1709,6.30098,-24.3935
-259,-685,6.22223,24.7079,0.00991012,0.00291942,0.00294873,0.0109878,0.00184175,0.350388,0.00679499,0.0421809,965,1709,6.22221,-24.7079
-252,-685,6.25507,24.9873,0.00668591,0.00246095,0.001362,0.00708692,0.00205994,0.286334,0.00420947,0.0350215,972,1709,6.25508,-24.9874
-245,-685,6.20502,25.2205,0.00415235,0.00204587,0.000184282,0.00416835,0.00202987,0.0866068,0.00240687,0.0314733,979,1709,6.20503,-25.2204
-238,-685,6.19519,25.501,0.00224681,0.00170205,-0.000593986,0.00262789,0.00132097,-0.570421,0.00151722,0.0242273,986,1709,6.19518,-25.501
-231,-685,6.11737,25.7932,0.00101842,0.00150832,-0.000967449,0.00226135,0.000265395,-0.909386,0.00142735,0.0170564,993,1709,6.11736,-25.7932
-224,-685,6.06616,26.0553,-0.000236635,0.000756794,-0.00132162,0.00167196,-0.0011518,-0.96515,0.0016395,0.0149252,1000,1709,6.06616,-26.0553
-217,-685,6.07037,26.3632,-0.000903406,0.000426916,-0.00140874,0.00131963,-0.00179612,-1.00597,0.00180588,0.0107552,1007,1709,6.07036,-26.3632
-210,-685,6.05194,26.6862,-0.000681754,0.000207534,-0.000917028,0.000782031,-0.00125625,-1.01114,0.00118737,0.014984,1014,1709,6.05195,-26.6862
-203,-685,6.05457,26.9564,-0.000347632,4.63589e-05,-0.000500721,0.000387442,-0.000688715,-0.97281,0.000629383,0.0158864,1021,1709,6.05452,-26.9564
-196,-685,6.0293,27.1962,-6.36968e-05,-0.000159466,-0.000139464,3.58742e-05,-0.000259037,-0.62003,0.000185807,0.0139672,1028,1709,6.02931,-27.1961
-189,-685,6.02039,27.4421,0.000253332,-0.00042302,0.000193829,0.000304941,-0.000474629,0.260225,0.000453625,0.00916505,1035,1709,6.02038,-27.4422
-182,-685,6.01355,27.7053,0.000529698,-0.000353183,0.000343415,0.000647546,-0.00047103,0.330573,0.000648485,0.012454,1042,1709,6.01355,-27.7053
-175,-685,5.99609,27.955,0.000727616,0.000236156,0.000413708,0.000963069,7.02508e-07,0.517412,0.000641812,0.0127975,1049,1709,5.99609,-27.955
-168,-685,5.98694,28.2079,0.000805377,0.000742663,0.000521144,0.00129611,0.000251933,0.75535,0.000793538,0.00990118,1056,1709,5.98698,-28.2079
-161,-685,5.99951,28.4655,0.000809183,0.00145112,0.000538796,0.00175731,0.000502998,1.05403,0.00104503,0.0100912,1063,1709,5.99945,-28.4654
-154,-685,6.01086,28.7094,0.00090287,0.0023767,0.000548036,0.00255814,0.000721423,1.25107,0.00152302,0.0091147,1070,1709,6.01081,-28.7094
-147,-685,6.00159,28.9296,0.00102446,0.00350297,0.000450204,0.00358221,0.000945221,1.39657,0.00214369,0.00864549,1077,1709,6.00162,-28.9296
-140,-685,6.00732,29.1425,0.00109068,0.00460151,0.000349352,0.00463593,0.00105625,1.47257,0.00280562,0.0117935,1084,1709,6.00732,-29.1424
-133,-685,6.02637,29.356,0.00114283,0.00564918,0.000283158,0.0056669,0.0011251,1.50829,0.00346434,0.0117241,1091,1709,6.02634,-29.3559
-126,-685,6.02979,29.5603,0.00125019,0.00663752,0.000184747,0.00664385,0.00124386,1.53656,0.00407834,0.0096877,1098,1709,6.02976,-29.5603
-119,-685,6.06165,29.7552,0.00148123,0.00726993,6.45806e-05,0.00727065,0.00148051,1.55964,0.00443672,0.0127075,1105,1709,6.0616,-29.7553
-112,-685,6.06433,29.9448,0.00177219,0.00765435,-9.23411e-05,0.0076558,0.00177074,-1.5551,0.00462795,0.0122509,1112,1709,6.06431,-29.9449
-105,-685,6.04553,30.1437,0.00218019,0.00764611,-0.000207852,0.007654,0.0021723,-1.53284,0.00455465,0.0120762,1119,1709,6.04559,-30.1436
-98,-685,6.12207,30.2977,0.00257784,0.00736389,-0.000264717,0.00737849,0.00256325,-1.51571,0.0043256,0.0168191,1126,1709,6.12208,-30.2978
-91,-685,6.12292,30.4323,0.00289359,0.00684715,-0.000627987,0.00694451,0.00279623,-1.417,0.00403466,0.0239202,1133,1709,6.12295,-30.4323
-84,-685,6.10864,30.6193,0.00343434,0.00608802,-0.000987684,0.00641527,0.00310709,-1.25085,0.00370447,0.0360084,1140,1709,6.10862,-30.6192
-77,-685,6.13611,30.8582,0,0,0,0,0,0,0,-1,1147,1709,6.1361,-30.8581
-70,-685,6.26636,31.0642,0,0,0,0,0,0,0,-1,1154,1709,6.26634,-31.0642
-63,-685,6.03015,29.7728,0,0,0,0,0,0,0,-1,1161,1709,6.0302,-29.7728
-56,-685,3.93909,15.8704,0,0,0,0,0,0,0,-1,1168,1709,3.93905,-15.8704
-49,-685,3.07471,9.86011,0,0,0,0,0,0,0,-1,1175,1709,3.07467,-9.86009
-42,-685,2.70618,7.54504,0,0,0,0,0,0,0,-1,1182,1709,2.7062,-7.54504
-35,-685,2.95264,7.91516,0,0,0,0,0,0,0,-1,1189,1709,2.95262,-7.91517
-28,-685,6.3811,31.9059,0,0,0,0,0,0,0,-1,1196,1709,6.38113,-31.9059
-21,-685,6.54834,31.6831,0,0,0,0,0,0,0,-1,1203,1709,6.54837,-31.6831
-14,-685,6.59741,31.8647,0.0219863,0.0102889,0.0351312,0.0517523,-0.0194771,0.702914,0.0425082,0.0301146,1210,1709,6.59741,-31.8648
-7,-685,6.69299,31.988,0.0229274,0.0116093,0.0351145,0.0528359,-0.0182992,0.705505,0.0426529,0.040206,1217,1709,6.69305,-31.9881
0,-685,6.7301,32.1252,0.0231885,0.0136767,0.0339672,0.0527312,-0.015866,0.715843,0.0414672,0.0475413,1224,1709,6.73007,-32.1253
7,-685,6.62231,32.4124,0.0225084,0.0161862,0.031967,0.0514702,-0.0127756,0.736115,0.039271,0.0439169,1231,1709,6.62232,-32.4123
14,-685,6.87695,32.4491,0.0213055,0.0184636,0.0294158,0.0493347,-0.00956561,0.761265,0.0364986,0.0433209,1238,1709,6.87699,-32.4492
21,-685,7.09656,32.6036,0.0198159,0.0207332,0.026161,0.0464395,-0.00589048,0.794163,0.0330984,0.0391204,1245,1709,7.09656,-32.6037
28,-685,7.11182,32.6832,0.0179624,0.0225839,0.0228332,0.043223,-0.00267674,0.835827,0.0297477,0.0414082,1252,1709,7.11187,-32.6833
35,-685,7.02319,32.6284,0.0155758,0.0240168,0.0193138,0.0395659,2.67718e-05,0.892968,0.0263683,0.0432959,1259,1709,7.0232,-32.6284
42,-685,7.06604,32.8007,0.0133901,0.0256568,0.0160488,0.0367043,0.00234256,0.967917,0.0237273,0.0456116,1266,1709,7.06603,-32.8007
49,-685,7.09546,32.7223,0.0113494,0.0252867,0.012648,0.0327588,0.00387736,1.03719,0.0206683,0.0476204,1273,1709,7.09547,-32.7223
56,-685,6.85229,32.4858,0.00931013,0.023775,0.00896699,0.0280628,0.00502237,1.12476,0.0172794,0.0443584,1280,1709,6.85233,-32.4858
63,-685,6.98291,32.6439,0.00722327,0.0221967,0.00607449,0.0243511,0.00506892,1.22998,0.0148359,0.0427827,1287,1709,6.98288,-32.6439
70,-685,7.17273,32.7343,0.00572449,0.0192923,0.00334426,0.0200718,0.00494497,1.34179,0.0120753,0.0455022,1294,1709,7.17272,-32.7343
77,-685,7.31909,32.7485,0.00463123,0.0157315,0.000868833,0.0157991,0.00456364,1.49316,0.00938881,0.0460544,1301,1709,7.31912,-32.7485
84,-685,7.35205,32.6093,0.00416213,0.0107188,-0.00149979,0.0110456,0.00383536,-1.35627,0.00647565,0.0450537,1308,1709,7.35209,-32.6092
91,-685,7.43359,32.511,0.00399872,0.00437339,-0.00368452,0.00787533,0.000496773,-0.810798,0.00509271,0.0449173,1315,1709,7.43365,-32.511
98,-685,7.45789,32.5199,0.0041022,-0.00187656,-0.00554732,0.00741433,-0.0051887,-0.538263,0.00731409,0.0401082,1322,1709,7.45792,-32.5198
105,-685,7.46582,32.3387,0.00432935,-0.00790987,-0.00760149,0.00796845,-0.011549,-0.446491,0.0113314,0.0401174,1329,1709,7.46577,-32.3388
112,-685,7.61401,32.2166,0.00497663,-0.0136731,-0.00971821,0.00912012,-0.0178166,-0.403025,0.0158198,0.0421454,1336,1709,7.61405,-32.2166
119,-685,7.50208,32.043,0.00541881,-0.0184716,-0.011745,0.0102257,-0.0232785,-0.388474,0.0198269,0.0412909,1343,1709,7.50202,-32.0429
126,-685,6.87317,31.4576,0.00574362,-0.0228879,-0.013435,0.0110605,-0.0282048,-0.376836,0.023379,0.0463418,1350,1709,6.87321,-31.4576
133,-685,6.8551,31.5764,0.00636569,-0.0264733,-0.014803,0.0120534,-0.032161,-0.366836,0.0263925,0.0480183,1357,1709,6.85509,-31.5764
140,-685,7.5741,32.4521,0,0,0,0,0,0,0,-1,1364,1709,7.57409,-32.4522
147,-685,7.61182,32.2825,0,0,0,0,0,0,0,-1,1371,1709,7.61187,-32.2825
154,-685,7.64966,32.1128,0,0,0,0,0,0,0,-1,1378,1709,7.64964,-32.1128
161,-685,7.86365,31.9097,0,0,0,0,0,0,0,-1,1385,1709,7.86368,-31.9096
168,-685,4.37524,10.8778,0,0,0,0,0,0,0,-1,1392,1709,4.37525,-10.8778
175,-685,3.97522,8.94324,0,0,0,0,0,0,0,-1,1399,1709,3.97519,-8.94328
182,-685,3.98218,9.19739,0,0,0,0,0,0,0,-1,1406,1709,3.98221,-9.1974
189,-685,4.53479,15.2343,0,0,0,0,0,0,0,-1,1413,1709,4.53474,-15.2343
196,-685,7.80249,31.4576,0,0,0,0,0,0,0,-1,1420,1709,7.80253,-31.4576
203,-685,7.83008,31.2324,0,0,0,0,0,0,0,-1,1427,1709,7.83009,-31.2325
210,-685,7.95093,31.0195,0,0,0,0,0,0,0,-1,1434,1709,7.95093,-31.0195
217,-685,7.8938,30.8103,0,0,0,0,0,0,0,-1,1441,1709,7.89383,-30.8103
224,-685,8.10266,30.8081,0.000163983,0.00172236,0.00196125,0.00305354,-0.0011672,0.974482,0.00251666,0.0446922,1448,1709,8.10268,-30.8082
231,-685,7.91675,30.5669,0.000344615,0.00117048,0.00129888,0.00212049,-0.000605391,0.939304,0.00165284,0.0264855,1455,1709,7.9167,-30.5669
238,-685,7.95654,30.329,0.000818961,0.000956103,0.000711847,0.00160267,0.00017239,0.833414,0.00101587,0.0172502,1462,1709,7.95648,-30.329
245,-685,7.93909,30.1416,0.00130744,0.000828379,0.000364389,0.00150397,0.000631842,0.494639,0.000872005,0.0186416,1469,1709,7.93904,-30.1416
252,-685,7.95728,29.9911,0.00167006,0.000577845,6.12683e-05,0.00167348,0.000574419,0.055862,0.000981886,0.0145664,1476,1709,7.95732,-29.991
259,-685,7.99084,29.8501,0.00195504,0.000445941,-0.000198663,0.00198076,0.000420227,-0.128722,0.00120511,0.0109394,1483,1709,7.9909,-29.8501
266,-685,8.00793,29.6443,0.00211093,0.000322008,-0.000408755,0.0021999,0.000233036,-0.214324,0.00139542,0.0120259,1490,1709,8.00798,-29.6443
273,-685,7.99915,29.4213,0.00213019,0.000289802,-0.000530192,0.002272,0.000147988,-0.261358,0.00146783,0.0140373,1497,1709,7.99914,-29.4213
280,-685,7.98987,29.2152,0.00212743,0.000263161,-0.000650467,0.00233195,5.8642e-05,-0.304632,0.00153546,0.0152635,1504,1709,7.98992,-29.2151
287,-685,8.00427,29.0095,0.00195387,0.000496192,-0.00067795,0.00222043,0.00022963,-0.374621,0.00140999,0.0120147,1511,1709,8.00427,-29.0095
294,-685,8.00842,28.7847,0.00170369,0.000815491,-0.00072547,0.0021102,0.000408983,-0.510745,0.00129223,0.0111703,1518,1709,8.00841,-28.7847
301,-685,7.98682,28.5435,0.00140826,0.00101362,-0.00080464,0.00203942,0.00038246,-0.665158,0.00125176,0.013533,1525,1709,7.98676,-28.5435
308,-685,7.9801,28.3098,0.00104532,0.00137828,-0.000948928,0.00217522,0.000248377,-0.872234,0.00137485,0.0146379,1532,1709,7.98016,-28.3099
315,-685,8.00085,28.0957,0.00067836,0.0014469,-0.000981676,0.00211684,8.42276e-06,-0.971952,0.00140842,0.0131617,1539,1709,8.00086,-28.0957
322,-685,7.97778,27.8588,0.000359809,0.00156569,-0.00104069,0.00216549,-0.000239989,-1.04795,0.00152994,0.0204677,1546,1709,7.97775,-27.8587
329,-685,7.9762,27.6284,7.33811e-06,0.00154428,-0.00105276,0.00207921,-0.000527594,-1.10067,0.00159143,0.0192677,1553,1709,7.97625,-27.6284
336,-685,7.97363,27.3605,-0.000296873,0.00133216,-0.000912633,0.00174089,-0.000705606,-1.14972,0.00145403,0.0136914,1560,1709,7.97369,-27.3605
343,-685,7.97437,27.1205,-0.000659027,0.000542675,-0.00069479,0.000860385,-0.000976738,-1.14191,0.00106137,0.0120008,1567,1709,7.97434,-27.1205
350,-685,7.97656,26.8446,-0.0011465,-0.000817252,-0.000278886,-0.000658027,-0.00130573,-1.05203,0.00075387,0.0126046,1574,1709,7.97651,-26.8447
357,-685,7.95898,26.5742,-0.00150789,-0.0021323,0.000167607,-0.00146574,-0.00217444,0.246345,0.00128052,0.0107372,1581,1709,7.95903,-26.5743
364,-685,7.91028,26.3219,-0.00190442,-0.00385379,0.000774494,-0.00163418,-0.00412403,0.335723,0.00239804,0.010127,1588,1709,7.91026,-26.322
371,-685,7.91785,26.0431,-0.00234509,-0.006053,0.00151492,-0.00180486,-0.00659323,0.342549,0.00393437,0.0150983,1595,1709,7.91785,-26.0431
378,-685,7.83167,25.7778,-0.00288835,-0.00876853,0.00246509,-0.00199168,-0.00966521,0.348872,0.00589286,0.0227167,1602,1709,7.83161,-25.7778
385,-685,7.73108,25.5461,-0.00346925,-0.0114558,0.0035656,-0.00210905,-0.012816,0.364439,0.00793499,0.0406425,1609,1709,7.73105,-25.5462
392,-685,7.86584,25.6567,-0.00399911,-0.0146423,0.00466352,-0.00224485,-0.0163966,0.359793,0.0102649,0.0423904,1616,1709,7.8658,-25.6568
399,-685,7.76892,25.5723,-0.00460526,-0.0178438,0.00560087,-0.00255362,-0.0198954,0.351127,0.0124996,0.0432196,1623,1709,7.7689,-25.5723
406,-685,7.3562,25.2397,0,0,0,0,0,0,0,-1,1630,1709,7.35617,-25.2398
413,-685,7.44983,25.5658,0,0,0,0,0,0,0,-1,1637,1709,7.44983,-25.5658
420,-685,4.84631,10.3781,0,0,0,0,0,0,0,-1,1644,1709,4.84634,-10.378
427,-685,6.05151,9.21155,0,0,0,0,0,0,0,-1,1651,1709,6.05156,-9.21156
434,-685,4.87769,8.91418,0,0,0,0,0,0,0,-1,1658,1709,4.87768,-8.91413
441,-685,5.62,8.75549,0,0,0,0,0,0,0,-1,1665,1709,5.61996,-8.75545
448,-685,6.4043,8.58972,0,0,0,0,0,0,0,-1,1672,1709,6.40435,-8.58971
455,-685,2.31958,4.09802,0,0,0,0,0,0,0,-1,1679,1709,2.31957,-4.09803
462,-685,0,0,0,0,0,0,0,0,0,-1,1686,1709,0,0
469,-685,0,0,0,0,0,0,0,0,0,-1,1693,1709,0,0
476,-685,0,0,0,0,0,0,0,0,0,-1,1700,1709,0,0
483,-685,0,0,0,0,0,0,0,0,0,-1,1707,1709,0,0
490,-685,0,0,0,0,0,0,0,0,0,-1,1714,1709,0,0
497,-685,0,0,0,0,0,0,0,0,0,-1,1721,1709,0,0
504,-685,0,0,0,0,0,0,0,0,0,-1,1728,1709,0,0
511,-685,0,0,0,0,0,0,0,0,0,-1,1735,1709,0,0
518,-685,0,0,0,0,0,0,0,0,0,-1,1742,1709,0,0
525,-685,0,0,0,0,0,0,0,0,0,-1,1749,1709,0,0
532,-685,0,0,0,0,0,0,0,0,0,-1,1756,1709,0,0
539,-685,0,0,0,0,0,0,0,0,0,-1,1763,1709,0,0
546,-685,0,0,0,0,0,0,0,0,0,-1,1770,1709,0,0
553,-685,0,0,0,0,0,0,0,0,0,-1,1777,1709,0,0
560,-685,0,0,0,0,0,0,0,0,0,-1,1784,1709,0,0
567,-685,0,0,0,0,0,0,0,0,0,-1,1791,1709,0,0
574,-685,0,0,0,0,0,0,0,0,0,-1,1798,1709,0,0
581,-685,0,0,0,0,0,0,0,0,0,-1,1805,1709,0,0
588,-685,0,0,0,0,0,0,0,0,0,-1,1812,1709,0,0
595,-685,0,0,0,0,0,0,0,0,0,-1,1819,1709,0,0
602,-685,0,0,0,0,0,0,0,0,0,-1,1826,1709,0,0
609,-685,0,0,0,0,0,0,0,0,0,-1,1833,1709,0,0
616,-685,0,0,0,0,0,0,0,0,0,-1,1840,1709,0,0
623,-685,0,0,0,0,0,0,0,0,0,-1,1847,1709,0,0
630,-685,0,0,0,0,0,0,0,0,0,-1,1854,1709,0,0
637,-685,0,0,0,0,0,0,0,0,0,-1,1861,1709,0,0
644,-685,0,0,0,0,0,0,0,0,0,-1,1868,1709,0,0
651,-685,0,0,0,0,0,0,0,0,0,-1,1875,1709,0,0
658,-685,0,0,0,0,0,0,0,0,0,-1,1882,1709,0,0
665,-685,0,0,0,0,0,0,0,0,0,-1,1889,1709,0,0
672,-685,0,0,0,0,0,0,0,0,0,-1,1896,1709,0,0
679,-685,0,0,0,0,0,0,0,0,0,-1,1903,1709,0,0
686,-685,0,0,0,0,0,0,0,0,0,-1,1910,1709,0,0
693,-685,0,0,0,0,0,0,0,0,0,-1,1917,1709,0,0
700,-685,0,0,0,0,0,0,0,0,0,-1,1924,1709,0,0
707,-685,0,0,0,0,0,0,0,0,0,-1,1931,1709,0,0
714,-685,0,0,0,0,0,0,0,0,0,-1,1938,1709,0,0
721,-685,0,0,0,0,0,0,0,0,0,-1,1945,1709,0,0
728,-685,0,0,0,0,0,0,0,0,0,-1,1952,1709,0,0
735,-685,0,0,0,0,0,0,0,0,0,-1,1959,1709,0,0
742,-685,0,0,0,0,0,0,0,0,0,-1,1966,1709,0,0
749,-685,0,0,0,0,0,0,0,0,0,-1,1973,1709,0,0
756,-685,0,0,0,0,0,0,0,0,0,-1,1980,1709,0,0
763,-685,0,0,0,0,0,0,0,0,0,-1,1987,1709,0,0
770,-685,0,0,0,0,0,0,0,0,0,-1,1994,1709,0,0
777,-685,0,0,0,0,0,0,0,0,0,-1,2001,1709,0,0
784,-685,0,0,0,0,0,0,0,0,0,-1,2008,1709,0,0
791,-685,0,0,0,0,0,0,0,0,0,-1,2015,1709,0,0
798,-685,0,0,0,0,0,0,0,0,0,-1,2022,1709,0,0
805,-685,0,0,0,0,0,0,0,0,0,-1,2029,1709,0,0
812,-685,0,0,0,0,0,0,0,0,0,-1,2036,1709,0,0
-700,-692,0,0,0,0,0,0,0,0,0,-1,524,1716,0,0
-693,-692,0,0,0,0,0,0,0,0,0,-1,531,1716,0,0
-686,-692,0,0,0,0,0,0,0,0,0,-1,538,1716,0,0
-679,-692,0,0,0,0,0,0,0,0,0,-1,545,1716,0,0
-672,-692,0,0,0,0,0,0,0,0,0,-1,552,1716,0,0
-665,-692,0,0,0,0,0,0,0,0,0,-1,559,1716,0,0
-658,-692,0,0,0,0,0,0,0,0,0,-1,566,1716,0,0
-651,-692,0,0,0,0,0,0,0,0,0,-1,573,1716,0,0
-644,-692,0,0,0,0,0,0,0,0,0,-1,580,1716,0,0
-637,-692,0,0,0,0,0,0,0,0,0,-1,587,1716,0,0
-630,-692,0,0,0,0,0,0,0,0,0,-1,594,1716,0,0
-623,-692,0,0,0,0,0,0,0,0,0,-1,601,1716,0,0
-616,-692,0,0,0,0,0,0,0,0,0,-1,608,1716,0,0
-609,-692,0,0,0,0,0,0,0,0,0,-1,615,1716,0,0
-602,-692,0,0,0,0,0,0,0,0,0,-1,622,1716,0,0
-595,-692,0,0,0,0,0,0,0,0,0,-1,629,1716,0,0
-588,-692,0,0,0,0,0,0,0,0,0,-1,636,1716,0,0
-581,-692,0,0,0,0,0,0,0,0,0,-1,643,1716,0,0
-574,-692,0,0,0,0,0,0,0,0,0,-1,650,1716,0,0
-567,-692,0,0,0,0,0,0,0,0,0,-1,657,1716,0,0
-560,-692,0,0,0,0,0,0,0,0,0,-1,664,1716,0,0
-553,-692,0,0,0,0,0,0,0,0,0,-1,671,1716,0,0
-546,-692,0,0,0,0,0,0,0,0,0,-1,678,1716,0,0
-539,-692,0,0,0,0,0,0,0,0,0,-1,685,1716,0,0
-532,-692,0,0,0,0,0,0,0,0,0,-1,692,1716,0,0
-525,-692,0,0,0,0,0,0,0,0,0,-1,699,1716,0,0
-518,-692,0,0,0,0,0,0,0,0,0,-1,706,1716,0,0
-511,-692,0,0,0,0,0,0,0,0,0,-1,713,1716,0,0
-504,-692,0,0,0,0,0,0,0,0,0,-1,720,1716,0,0
-497,-692,0,0,0,0,0,0,0,0,0,-1,727,1716,0,0
-490,-692,0,0,0,0,0,0,0,0,0,-1,734,1716,0,0
-483,-692,0,0,0,0,0,0,0,0,0,-1,741,1716,0,0
-476,-692,0,0,0,0,0,0,0,0,0,-1,748,1716,0,0
-469,-692,0,0,0,0,0,0,0,0,0,-1,755,1716,0,0
-462,-692,0,0,0,0,0,0,0,0,0,-1,762,1716,0,0
-455,-692,0,0,0,0,0,0,0,0,0,-1,769,1716,0,0
-448,-692,0,0,0,0,0,0,0,0,0,-1,776,1716,0,0
-441,-692,0,0,0,0,0,0,0,0,0,-1,783,1716,0,0
-434,-692,0,0,0,0,0,0,0,0,0,-1,790,1716,0,0
-427,-692,0,0,0,0,0,0,0,0,0,-1,797,1716,0,0
-420,-692,0,0,0,0,0,0,0,0,0,-1,804,1716,0,0
-413,-692,0,0,0,0,0,0,0,0,0,-1,811,1716,0,0
-406,-692,0,0,0,0,0,0,0,0,0,-1,818,1716,0,0
-399,-692,0,0,0,0,0,0,0,0,0,-1,825,1716,0,0
-392,-692,0,0,0,0,0,0,0,0,0,-1,832,1716,0,0
-385,-692,0,0,0,0,0,0,0,0,0,-1,839,1716,0,0
-378,-692,0,0,0,0,0,0,0,0,0,-1,846,1716,0,0
-371,-692,0,0,0,0,0,0,0,0,0,-1,853,1716,0,0
-364,-692,0,0,0,0,0,0,0,0,0,-1,860,1716,0,0
-357,-692,0,0,0,0,0,0,0,0,0,-1,867,1716,0,0
-350,-692,0,0,0,0,0,0,0,0,0,-1,874,1716,0,0
-343,-692,0,0,0,0,0,0,0,0,0,-1,881,1716,0,0
-336,-692,0,0,0,0,0,0,0,0,0,-1,888,1716,0,0
-329,-692,3.03107,4.10266,0,0,0,0,0,0,0,-1,895,1716,3.03105,-4.10267
-322,-692,4.43713,18.5242,0,0,0,0,0,0,0,-1,902,1716,4.43711,-18.5241
-315,-692,5.38965,17.975,0,0,0,0,0,0,0,-1,909,1716,5.38963,-17.975
-308,-692,5.86938,17.4392,0,0,0,0,0,0,0,-1,916,1716,5.86937,-17.4392
-301,-692,8.65558,20.7662,0,0,0,0,0,0,0,-1,923,1716,8.65556,-20.7663
-294,-692,6.66138,19.0796,0,0,0,0,0,0,0,-1,930,1716,6.66141,-19.0796
-287,-692,6.9306,22.2611,0,0,0,0,0,0,0,-1,937,1716,6.93061,-22.2611
-280,-692,5.39349,23.2716,0,0,0,0,0,0,0,-1,944,1716,5.39349,-23.2716
-273,-692,5.34174,23.8719,0,0,0,0,0,0,0,-1,951,1716,5.34171,-23.8719
-266,-692,7.54712,24.6576,0,0,0,0,0,0,0,-1,958,1716,7.54715,-24.6576
-259,-692,6.5719,24.787,0,0,0,0,0,0,0,-1,965,1716,6.57191,-24.787
-252,-692,6.71997,25.151,0,0,0,0,0,0,0,-1,972,1716,6.72,-25.151
-245,-692,6.90582,24.9042,0.00560019,0.00321899,-0.000323322,0.00564331,0.00317587,-0.132584,0.00326671,0.0459714,979,1716,6.90582,-24.9041
-238,-692,6.83667,25.2891,0.00305917,0.00253173,-0.00124383,0.00406693,0.00152397,-0.680934,0.00237249,0.0402518,986,1716,6.83665,-25.2891
-231,-692,6.49225,25.8604,0.00146758,0.0019535,-0.00157735,0.00330648,0.00011459,-0.861813,0.00216714,0.036125,993,1716,6.49224,-25.8604
-224,-692,6.34576,26.0848,-0.000136543,0.000751024,-0.00190289,0.00226119,-0.00164671,-0.899958,0.00226551,0.0185212,1000,1716,6.34575,-26.0849
-217,-692,6.3324,26.3652,-0.00101883,0.000169804,-0.00192624,0.00159133,-0.00244035,-0.935033,0.00234483,0.0120364,1007,1716,6.33237,-26.3652
-210,-692,6.31586,26.6532,-0.000843833,-0.000271484,-0.00123293,0.000708051,-0.00182337,-0.899433,0.00150806,0.0132619,1014,1716,6.31583,-26.6533
-203,-692,6.31384,26.9203,-0.000537172,-0.000611352,-0.000636884,6.37007e-05,-0.00121222,-0.756313,0.000830199,0.0157301,1021,1716,6.31383,-26.9203
-196,-692,6.31421,27.1888,-0.000259702,-0.00101051,-0.000136026,-0.000235818,-0.0010344,-0.173815,0.000625979,0.0179889,1028,1716,6.31416,-27.1888
-189,-692,6.27991,27.4337,0.000116434,-0.00143011,0.000332028,0.000184703,-0.00149838,0.202788,0.00106583,0.00904179,1035,1716,6.27985,-27.4337
-182,-692,6.25891,27.6896,0.000432575,-0.00152496,0.000550253,0.000576645,-0.00166903,0.256077,0.0013467,0.0119902,1042,1716,6.25896,-27.6896
-175,-692,6.2251,27.9529,0.000619367,-0.00100076,0.00065894,0.000853527,-0.00123492,0.341442,0.00121245,0.0140788,1049,1716,6.22509,-27.9529
-168,-692,6.2301,28.2095,0.000701747,-0.000644918,0.000805113,0.00107798,-0.00102115,0.437149,0.00121208,0.0115282,1056,1716,6.23006,-28.2095
-161,-692,6.25916,28.4653,0.000710966,-9.44206e-05,0.000838208,0.00123819,-0.000621649,0.561467,0.00109327,0.0124909,1063,1716,6.25918,-28.4653
-154,-692,6.24548,28.7324,0.000838534,0.000638718,0.000861075,0.00160548,-0.000128226,0.727643,0.00111552,0.0129222,1070,1716,6.24546,-28.7324
-147,-692,6.23633,28.9373,0.00099512,0.00165315,0.000739217,0.00213327,0.000515006,0.994779,0.00128537,0.013159,1077,1716,6.23629,-28.9373
-140,-692,6.2345,29.1431,0.0010394,0.00264726,0.000614255,0.00285506,0.000831594,1.24457,0.00169557,0.0105207,1084,1716,6.23444,-29.143
-133,-692,6.23877,29.3589,0.0010566,0.0035861,0.000521726,0.00368949,0.000953214,1.37517,0.00221149,0.00988272,1091,1716,6.23872,-29.3589
-126,-692,6.2467,29.5566,0.00109369,0.00446762,0.000384635,0.00451091,0.0010504,1.45871,0.00272547,0.00790099,1098,1716,6.24664,-29.5566
-119,-692,6.24744,29.7656,0.00120483,0.00510331,0.000252724,0.00511963,0.00118852,1.50633,0.00309396,0.0109014,1105,1716,6.24739,-29.7656
-112,-692,6.2511,29.955,0.00139708,0.00548992,0.000111543,0.00549296,0.00139404,1.54357,0.00329704,0.01022,1112,1716,6.25105,-29.955
-105,-692,6.28979,30.1287,0.00161998,0.00555949,-3.49034e-05,0.0055598,0.00161967,-1.56194,0.00330183,0.0143668,1119,1716,6.28982,-30.1287
-98,-692,6.33496,30.3008,0.00186053,0.00543077,-0.000157236,0.00543768,0.00185362,-1.52687,0.003192,0.016986,1126,1716,6.33499,-30.3008
-91,-692,6.32275,30.4807,0.0021394,0.0050159,-0.000392577,0.00506852,0.00208678,-1.43756,0.00294148,0.0199781,1133,1716,6.3228,-30.4808
-84,-692,6.32813,30.6392,0.00258061,0.00443573,-0.000633603,0.00463148,0.00238486,-1.27115,0.00267438,0.0213759,1140,1716,6.32814,-30.6392
-77,-692,6.35022,30.8535,0.00301434,0.00364797,-0.00122626,0.00459769,0.00206463,-0.911813,0.00265906,0.0171088,1147,1716,6.35024,-30.8536
-70,-692,6.38953,30.9785,0.00320785,0.00256238,-0.00171112,0.00462641,0.00114382,-0.692188,0.0027825,0.0319748,1154,1716,6.38951,-30.9785
-63,-692,6.40491,31.0691,0,0,0,0,0,0,0,-1,1161,1716,6.40491,-31.0691
-56,-692,6.38257,31.2179,0,0,0,0,0,0,0,-1,1168,1716,6.38253,-31.2179
-49,-692,6.38806,31.4286,0,0,0,0,0,0,0,-1,1175,1716,6.38802,-31.4286
-42,-692,6.44446,31.5725,0,0,0,0,0,0,0,-1,1182,1716,6.44448,-31.5725
-35,-692,6.54651,31.7821,0,0,0,0,0,0,0,-1,1189,1716,6.54652,-31.7821
-28,-692,6.49622,31.847,0.0132556,0.00854594,0.0228305,0.0338523,-0.0120508,0.734008,0.0274805,0.0458397,1196,1716,6.49625,-31.847
-21,-692,6.58398,31.7609,0.0144765,0.00935148,0.0247016,0.0367481,-0.0129202,0.733714,0.0297557,0.0321088,1203,1716,6.58395,-31.7609
-14,-692,6.63208,31.8508,0.0155674,0.0107991,0.0262084,0.0394999,-0.0131334,0.740039,0.0316333,0.0170608,1210,1716,6.63212,-31.8508
-7,-692,6.64795,31.9917,0.0164652,0.0123624,0.0268089,0.0413011,-0.0124735,0.747213,0.0324998,0.0153084,1217,1716,6.64794,-31.9917
0,-692,6.67627,32.0839,0.0167948,0.0143047,0.0263992,0.0419783,-0.0108788,0.761835,0.0322297,0.018331,1224,1716,6.67625,-32.0839
7,-692,6.69824,32.1443,0.0164092,0.0164955,0.0253102,0.0417626,-0.00885789,0.786251,0.0312161,0.0229359,1231,1716,6.69821,-32.1443
14,-692,6.78369,32.3059,0.0157601,0.0183718,0.0237473,0.0408491,-0.00671723,0.812865,0.0297259,0.024212,1238,1716,6.7837,-32.3059
21,-692,6.90076,32.3981,0.0150145,0.0201768,0.0215686,0.0393182,-0.00412689,0.84495,0.0276904,0.024194,1245,1716,6.90071,-32.3981
28,-692,6.91626,32.3782,0.0140365,0.0215943,0.0192466,0.0374295,-0.00179871,0.882336,0.0255737,0.0251233,1252,1716,6.91624,-32.3782
35,-692,6.91565,32.4476,0.0127598,0.0225935,0.0167475,0.0351309,0.000222329,0.928181,0.0233469,0.0254988,1259,1716,6.91567,-32.4477
42,-692,6.95117,32.5514,0.0115098,0.0237397,0.0143123,0.0331886,0.00206084,0.987287,0.0214718,0.0243978,1266,1716,6.95115,-32.5514
49,-692,7.03345,32.5328,0.0103329,0.0232267,0.0116751,0.0301166,0.00344298,1.03766,0.0190342,0.0284499,1273,1716,7.03346,-32.5328
56,-692,7.02551,32.4849,0.00909423,0.0217209,0.00872028,0.0261733,0.00464181,1.09872,0.0161259,0.0359656,1280,1716,7.02553,-32.4849
63,-692,7.04968,32.5042,0.00785918,0.0200725,0.00644718,0.0228461,0.00508568,1.16454,0.0138503,0.0354997,1287,1716,7.04966,-32.5042
70,-692,7.13,32.5807,0.00678631,0.0174805,0.00433355,0.0190161,0.00525074,1.23026,0.0113399,0.0298483,1294,1716,7.13005,-32.5806
77,-692,7.20984,32.5969,0.00587977,0.0143639,0.00235572,0.0149741,0.00526956,1.31734,0.00877078,0.0320008,1301,1716,7.20986,-32.5969
84,-692,7.14673,32.4639,0.00534703,0.010087,0.000388843,0.0101187,0.00531534,1.48949,0.00584454,0.0395511,1308,1716,7.14673,-32.4638
91,-692,7.24451,32.4564,0.00482558,0.00500777,-0.00145436,0.00637389,0.00345946,-0.816674,0.00368445,0.0395591,1315,1716,7.24456,-32.4564
98,-692,7.276,32.4055,0.00437335,5.5625e-05,-0.00302784,0.00593316,-0.00150418,-0.475698,0.00454066,0.0324467,1322,1716,7.27597,-32.4056
105,-692,7.30896,32.3497,0.0040388,-0.00463277,-0.00471787,0.00611061,-0.00670458,-0.413788,0.0074015,0.0377149,1329,1716,7.30896,-32.3497
112,-692,7.3595,32.302,0.00400749,-0.00909855,-0.00647144,0.00666434,-0.0117554,-0.389567,0.0107692,0.0386909,1336,1716,7.35945,-32.3021
119,-692,7.34143,32.192,0.00375123,-0.0127902,-0.00814833,0.00709085,-0.0161298,-0.388972,0.0137409,0.0320599,1343,1716,7.34138,-32.192
126,-692,7.35889,32.0824,0.00346412,-0.0162098,-0.00955527,0.00734098,-0.0200867,-0.385437,0.0163954,0.0330092,1350,1716,7.35886,-32.0824
133,-692,7.39856,32.0383,0.00352113,-0.0189426,-0.0106795,0.00778784,-0.0232093,-0.380096,0.0186199,0.0262078,1357,1716,7.3985,-32.0383
140,-692,7.42029,32.0846,0.00401913,-0.0207716,-0.0112763,0.00838086,-0.0251333,-0.369079,0.0201391,0.0302709,1364,1716,7.42027,-32.0846
147,-692,7.49097,32.111,0.0044813,-0.0216587,-0.0112204,0.00863692,-0.0258143,-0.354699,0.0206982,0.0328816,1371,1716,7.491,-32.111
154,-692,7.4751,31.9532,0.00475614,-0.0211411,-0.0103589,0.00838987,-0.0247748,-0.337371,0.0199113,0.028083,1378,1716,7.47505,-31.9533
161,-692,7.64685,31.8658,0.00500438,-0.0203306,-0.00927981,0.00803976,-0.023366,-0.316126,0.0188381,0.0381988,1385,1716,7.6468,-31.8658
168,-692,7.58142,31.7749,0,0,0,0,0,0,0,-1,1392,1716,7.58145,-31.7748
175,-692,7.64441,31.6401,0,0,0,0,0,0,0,-1,1399,1716,7.64439,-31.6401
182,-692,7.65161,31.4888,0,0,0,0,0,0,0,-1,1406,1716,7.65159,-31.4888
189,-692,7.65918,31.359,0,0,0,0,0,0,0,-1,1413,1716,7.65916,-31.3591
196,-692,7.68823,31.2554,0.00296314,-0.0019046,0.000883482,0.00311853,-0.00205999,0.174102,0.00301057,0.0364387,1420,1716,7.68823,-31.2554
203,-692,7.68726,31.1522,0.00119682,0.00111082,0.00239698,0.00355118,-0.00124354,0.77643,0.00287312,0.0232218,1427,1716,7.68727,-31.1523
210,-692,7.73792,31.0079,0.000574929,0.000980247,0.00231261,0.00309906,-0.00154389,0.829103,0.00273027,0.0183116,1434,1716,7.73789,-31.0079
217,-692,7.73779,30.8336,7.01522e-05,0.000707924,0.00188404,0.00229988,-0.0015218,0.869232,0.00222164,0.016595,1441,1716,7.73781,-30.8336
224,-692,7.74097,30.689,8.21392e-06,0.000716878,0.0016099,0.00201098,-0.00128588,0.893719,0.00191873,0.0130777,1448,1716,7.74092,-30.689
231,-692,7.74438,30.5387,9.60954e-05,0.000544886,0.00111745,0.00146025,-0.000819267,0.884485,0.00133331,0.0112421,1455,1716,7.74438,-30.5387
238,-692,7.75684,30.3518,0.000402216,0.000577036,0.000653932,0.00114937,-0.000170122,0.851838,0.000828797,0.0165123,1462,1716,7.7569,-30.3518
245,-692,7.74756,30.1548,0.000754051,0.000667026,0.000313815,0.00102736,0.000393721,0.716509,0.000598511,0.0190475,1469,1716,7.7476,-30.1548
252,-692,7.7782,29.9738,0.00103207,0.000666833,-4.82159e-07,0.00103207,0.000666832,-0.00132012,0.000604288,0.0176211,1476,1716,7.77822,-29.9737
259,-692,7.78418,29.8385,0.00125205,0.000678627,-0.000270964,0.00135983,0.000570845,-0.378583,0.00078846,0.00969474,1483,1716,7.78424,-29.8385
266,-692,7.79065,29.6512,0.00134872,0.000699032,-0.000493017,0.00161429,0.000433462,-0.494098,0.000964731,0.0101465,1490,1716,7.79059,-29.6512
273,-692,7.78931,29.4109,0.00134032,0.000812926,-0.000650335,0.00177839,0.00037486,-0.592787,0.00108249,0.0143317,1497,1716,7.78936,-29.4109
280,-692,7.79431,29.194,0.00133563,0.000843621,-0.000815559,0.00194148,0.000237771,-0.638919,0.00122279,0.0140139,1504,1716,7.79432,-29.194
287,-692,7.80188,29.0078,0.00118978,0.00110979,-0.000900621,0.00205129,0.000248278,-0.763208,0.00129274,0.0113111,1511,1716,7.80183,-29.0078
294,-692,7.79272,28.8118,0.000985996,0.00139912,-0.000975367,0.00218956,0.000195557,-0.889745,0.00139908,0.0106507,1518,1716,7.7927,-28.8118
301,-692,7.77515,28.598,0.000728373,0.00160017,-0.00108186,0.00233065,-2.10514e-06,-0.976907,0.00155447,0.0143056,1525,1716,7.77519,-28.5981
308,-692,7.75867,28.3588,0.000389843,0.00197576,-0.00125946,0.0026711,-0.000305497,-1.06635,0.00189081,0.0178568,1532,1716,7.75869,-28.3588
315,-692,7.76965,28.1024,7.22178e-05,0.00207208,-0.00133071,0.00273668,-0.000592377,-1.10761,0.00205063,0.01691,1539,1716,7.76971,-28.1024
322,-692,7.73181,27.8473,-0.00018345,0.00224993,-0.00144041,0.00291874,-0.000852259,-1.1361,0.00228356,0.0205294,1546,1716,7.73178,-27.8473
329,-692,7.7218,27.603,-0.000498474,0.00228515,-0.00146691,0.00291546,-0.00112878,-1.16497,0.0024097,0.016928,1553,1716,7.72178,-27.603
336,-692,7.72437,27.3596,-0.000768723,0.00205258,-0.00133639,0.00258509,-0.00130123,-1.19161,0.00228422,0.0122829,1560,1716,7.72439,-27.3596
343,-692,7.7323,27.1376,-0.00111107,0.00116416,-0.00109126,0.00160294,-0.00154985,-1.18849,0.00182035,0.012934,1567,1716,7.73229,-27.1375
350,-692,7.74438,26.8892,-0.00163437,-0.000418592,-0.0005588,-0.000200778,-0.00185219,-1.19912,0.0011736,0.0142668,1574,1716,7.74439,-26.8891
357,-692,7.71448,26.5791,-0.00203888,-0.00203477,3.96133e-05,-0.00199716,-0.00207649,0.811339,0.00135865,0.0187332,1581,1716,7.71451,-26.5791
364,-692,7.68677,26.2882,-0.00248486,-0.00416824,0.000852138,-0.00212881,-0.00452429,0.395782,0.00261361,0.024721,1588,1716,7.6868,-26.2883
371,-692,7.73804,26.0868,-0.00301615,-0.0070722,0.00188997,-0.00227202,-0.00781633,0.375089,0.00464271,0.0371889,1595,1716,7.738,-26.0867
378,-692,7.50793,25.8997,0,0,0,0,0,0,0,-1,1602,1716,7.50794,-25.8997
385,-692,7.30127,25.592,0,0,0,0,0,0,0,-1,1609,1716,7.30129,-25.592
392,-692,7.26245,25.8362,0,0,0,0,0,0,0,-1,1616,1716,7.26245,-25.8362
399,-692,7.56335,25.9261,0,0,0,0,0,0,0,-1,1623,1716,7.56335,-25.9262
406,-692,4.73633,10.6808,0,0,0,0,0,0,0,-1,1630,1716,4.73637,-10.6808
413,-692,4.25085,10.5685,0,0,0,0,0,0,0,-1,1637,1716,4.2508,-10.5685
420,-692,5.48901,10.4845,0,0,0,0,0,0,0,-1,1644,1716,5.48906,-10.4845
427,-692,3.79578,8.60339,0,0,0,0,0,0,0,-1,1651,1716,3.79577,-8.6034
434,-692,4.78516,8.64636,0,0,0,0,0,0,0,-1,1658,1716,4.78512,-8.64634
441,-692,5.8208,8.74036,0,0,0,0,0,0,0,-1,1665,1716,5.82084,-8.7404
448,-692,6.73792,8.51013,0,0,0,0,0,0,0,-1,1672,1716,6.73793,-8.5101
455,-692,0,0,0,0,0,0,0,0,0,-1,1679,1716,0,0
462,-692,0,0,0,0,0,0,0,0,0,-1,1686,1716,0,0
469,-692,0,0,0,0,0,0,0,0,0,-1,1693,1716,0,0
476,-692,0,0,0,0,0,0,0,0,0,-1,1700,1716,0,0
483,-692,0,0,0,0,0,0,0,0,0,-1,1707,1716,0,0
490,-692,0,0,0,0,0,0,0,0,0,-1,1714,1716,0,0
497,-692,0,0,0,0,0,0,0,0,0,-1,1721,1716,0,0
504,-692,0,0,0,0,0,0,0,0,0,-1,1728,1716,0,0
511,-692,0,0,0,0,0,0,0,0,0,-1,1735,1716,0,0
518,-692,0,0,0,0,0,0,0,0,0,-1,1742,1716,0,0
525,-692,0,0,0,0,0,0,0,0,0,-1,1749,1716,0,0
532,-692,0,0,0,0,0,0,0,0,0,-1,1756,1716,0,0
539,-692,0,0,0,0,0,0,0,0,0,-1,1763,1716,0,0
546,-692,0,0,0,0,0,0,0,0,0,-1,1770,1716,0,0
553,-692,0,0,0,0,0,0,0,0,0,-1,1777,1716,0,0
560,-692,0,0,0,0,0,0,0,0,0,-1,1784,1716,0,0
567,-692,0,0,0,0,0,0,0,0,0,-1,1791,1716,0,0
574,-692,0,0,0,0,0,0,0,0,0,-1,1798,1716,0,0
581,-692,0,0,0,0,0,0,0,0,0,-1,1805,1716,0,0
588,-692,0,0,0,0,0,0,0,0,0,-1,1812,1716,0,0
595,-692,0,0,0,0,0,0,0,0,0,-1,1819,1716,0,0
602,-692,0,0,0,0,0,0,0,0,0,-1,1826,1716,0,0
609,-692,0,0,0,0,0,0,0,0,0,-1,1833,1716,0,0
616,-692,0,0,0,0,0,0,0,0,0,-1,1840,1716,0,0
623,-692,0,0,0,0,0,0,0,0,0,-1,1847,1716,0,0
630,-692,0,0,0,0,0,0,0,0,0,-1,1854,1716,0,0
637,-692,0,0,0,0,0,0,0,0,0,-1,1861,1716,0,0
644,-692,0,0,0,0,0,0,0,0,0,-1,1868,1716,0,0
651,-692,0,0,0,0,0,0,0,0,0,-1,1875,1716,0,0
658,-692,0,0,0,0,0,0,0,0,0,-1,1882,1716,0,0
665,-692,0,0,0,0,0,0,0,0,0,-1,1889,1716,0,0
672,-692,0,0,0,0,0,0,0,0,0,-1,1896,1716,0,0
679,-692,0,0,0,0,0,0,0,0,0,-1,1903,1716,0,0
686,-692,0,0,0,0,0,0,0,0,0,-1,1910,1716,0,0
693,-692,0,0,0,0,0,0,0,0,0,-1,1917,1716,0,0
700,-692,0,0,0,0,0,0,0,0,0,-1,1924,1716,0,0
707,-692,0,0,0,0,0,0,0,0,0,-1,1931,1716,0,0
714,-692,0,0,0,0,0,0,0,0,0,-1,1938,1716,0,0
721,-692,0,0,0,0,0,0,0,0,0,-1,1945,1716,0,0
728,-692,0,0,0,0,0,0,0,0,0,-1,1952,1716,0,0
735,-692,0,0,0,0,0,0,0,0,0,-1,1959,1716,0,0
742,-692,0,0,0,0,0,0,0,0,0,-1,1966,1716,0,0
749,-692,0,0,0,0,0,0,0,0,0,-1,1973,1716,0,0
756,-692,0,0,0,0,0,0,0,0,0,-1,1980,1716,0,0
763,-692,0,0,0,0,0,0,0,0,0,-1,1987,1716,0,0
770,-692,0,0,0,0,0,0,0,0,0,-1,1994,1716,0,0
777,-692,0,0,0,0,0,0,0,0,0,-1,2001,1716,0,0
784,-692,0,0,0,0,0,0,0,0,0,-1,2008,1716,0,0
791,-692,0,0,0,0,0,0,0,0,0,-1,2015,1716,0,0
798,-692,0,0,0,0,0,0,0,0,0,-1,2022,1716,0,0
805,-692,0,0,0,0,0,0,0,0,0,-1,2029,1716,0,0
812,-692,0,0,0,0,0,0,0,0,0,-1,2036,1716,0,0
-700,-699,0,0,0,0,0,0,0,0,0,-1,524,1723,0,0
-693,-699,0,0,0,0,0,0,0,0,0,-1,531,1723,0,0
-686,-699,0,0,0,0,0,0,0,0,0,-1,538,1723,0,0
-679,-699,0,0,0,0,0,0,0,0,0,-1,545,1723,0,0
-672,-699,0,0,0,0,0,0,0,0,0,-1,552,1723,0,0
-665,-699,0,0,0,0,0,0,0,0,0,-1,559,1723,0,0
-658,-699,0,0,0,0,0,0,0,0,0,-1,566,1723,0,0
-651,-699,0,0,0,0,0,0,0,0,0,-1,573,1723,0,0
-644,-699,0,0,0,0,0,0,0,0,0,-1,580,1723,0,0
-637,-699,0,0,0,0,0,0,0,0,0,-1,587,1723,0,0
-630,-699,0,0,0,0,0,0,0,0,0,-1,594,1723,0,0
-623,-699,0,0,0,0,0,0,0,0,0,-1,601,1723,0,0
-616,-699,0,0,0,0,0,0,0,0,0,-1,608,1723,0,0
-609,-699,0,0,0,0,0,0,0,0,0,-1,615,1723,0,0
-602,-699,0,0,0,0,0,0,0,0,0,-1,622,1723,0,0
-595,-699,0,0,0,0,0,0,0,0,0,-1,629,1723,0,0
-588,-699,0,0,0,0,0,0,0,0,0,-1,636,1723,0,0
-581,-699,0,0,0,0,0,0,0,0,0,-1,643,1723,0,0
-574,-699,0,0,0,0,0,0,0,0,0,-1,650,1723,0,0
-567,-699,0,0,0,0,0,0,0,0,0,-1,657,1723,0,0
-560,-699,0,0,0,0,0,0,0,0,0,-1,664,1723,0,0
-553,-699,0,0,0,0,0,0,0,0,0,-1,671,1723,0,0
-546,-699,0,0,0,0,0,0,0,0,0,-1,678,1723,0,0
-539,-699,0,0,0,0,0,0,0,0,0,-1,685,1723,0,0
-532,-699,0,0,0,0,0,0,0,0,0,-1,692,1723,0,0
-525,-699,0,0,0,0,0,0,0,0,0,-1,699,1723,0,0
-518,-699,0,0,0,0,0,0,0,0,0,-1,706,1723,0,0
-511,-699,0,0,0,0,0,0,0,0,0,-1,713,1723,0,0
-504,-699,0,0,0,0,0,0,0,0,0,-1,720,1723,0,0
-497,-699,0,0,0,0,0,0,0,0,0,-1,727,1723,0,0
-490,-699,0,0,0,0,0,0,0,0,0,-1,734,1723,0,0
-483,-699,0,0,0,0,0,0,0,0,0,-1,741,1723,0,0
-476,-699,0,0,0,0,0,0,0,0,0,-1,748,1723,0,0
-469,-699,0,0,0,0,0,0,0,0,0,-1,755,1723,0,0
-462,-699,0,0,0,0,0,0,0,0,0,-1,762,1723,0,0
-455,-699,0,0,0,0,0,0,0,0,0,-1,769,1723,0,0
-448,-699,0,0,0,0,0,0,0,0,0,-1,776,1723,0,0
-441,-699,0,0,0,0,0,0,0,0,0,-1,783,1723,0,0
-434,-699,0,0,0,0,0,0,0,0,0,-1,790,1723,0,0
-427,-699,0,0,0,0,0,0,0,0,0,-1,797,1723,0,0
-420,-699,0,0,0,0,0,0,0,0,0,-1,804,1723,0,0
-413,-699,0,0,0,0,0,0,0,0,0,-1,811,1723,0,0
-406,-699,0,0,0,0,0,0,0,0,0,-1,818,1723,0,0
-399,-699,0,0,0,0,0,0,0,0,0,-1,825,1723,0,0
-392,-699,0,0,0,0,0,0,0,0,0,-1,832,1723,0,0
-385,-699,0,0,0,0,0,0,0,0,0,-1,839,1723,0,0
-378,-699,0,0,0,0,0,0,0,0,0,-1,846,1723,0,0
-371,-699,0,0,0,0,0,0,0,0,0,-1,853,1723,0,0
-364,-699,0,0,0,0,0,0,0,0,0,-1,860,1723,0,0
-357,-699,0,0,0,0,0,0,0,0,0,-1,867,1723,0,0
-350,-699,0,0,0,0,0,0,0,0,0,-1,874,1723,0,0
-343,-699,0,0,0,0,0,0,0,0,0,-1,881,1723,0,0
-336,-699,0,0,0,0,0,0,0,0,0,-1,888,1723,0,0
-329,-699,0,0,0,0,0,0,0,0,0,-1,895,1723,0,0
-322,-699,0,0,0,0,0,0,0,0,0,-1,902,1723,0,0
-315,-699,6.20001,19.5193,0,0,0,0,0,0,0,-1,909,1723,6.20001,-19.5193
-308,-699,6.98151,18.9218,0,0,0,0,0,0,0,-1,916,1723,6.98151,-18.9217
-301,-699,4.72729,12.8752,0,0,0,0,0,0,0,-1,923,1723,4.72732,-12.8752
-294,-699,6.90332,19.8601,0,0,0,0,0,0,0,-1,930,1723,6.90332,-19.8601
-287,-699,7.09802,22.7235,0,0,0,0,0,0,0,-1,937,1723,7.09805,-22.7235
-280,-699,7.36841,23.5389,0,0,0,0,0,0,0,-1,944,1723,7.36842,-23.539
-273,-699,7.97113,23.2939,0,0,0,0,0,0,0,-1,951,1723,7.97116,-23.294
-266,-699,6.81915,20.8951,0,0,0,0,0,0,0,-1,958,1723,6.81914,-20.8952
-259,-699,5.39758,14.5466,0,0,0,0,0,0,0,-1,965,1723,5.39759,-14.5466
-252,-699,5.95953,22.7152,0,0,0,0,0,0,0,-1,972,1723,5.95951,-22.7152
-245,-699,7.59692,24.7074,0,0,0,0,0,0,0,-1,979,1723,7.5969,-24.7074
-238,-699,7.39185,25.1644,0,0,0,0,0,0,0,-1,986,1723,7.39185,-25.1644
-231,-699,6.4754,26.1791,0.00228017,0.00259878,-0.00232906,0.00477398,0.000104976,-0.819545,0.00314824,0.0424521,993,1723,6.47539,-26.1791
-224,-699,6.61133,26.1058,0.000311058,0.000848138,-0.00253195,0.00312575,-0.00196655,-0.838231,0.00296532,0.0389027,1000,1723,6.61131,-26.1059
-217,-699,6.62421,26.3535,-0.000812282,-2.5981e-05,-0.00242807,0.00204056,-0.00287882,-0.865661,0.00285392,0.0272974,1007,1723,6.62421,-26.3535
-210,-699,6.61407,26.6714,-0.000665672,-0.000753382,-0.00148547,0.000776588,-0.00219564,-0.770641,0.00178002,0.018266,1014,1723,6.61407,-26.6714
-203,-699,6.59912,26.9005,-0.000393127,-0.00132964,-0.000715573,-6.21675e-06,-0.00171655,-0.495675,0.0011423,0.0211414,1021,1723,6.59909,-26.9005
-196,-699,6.57214,27.1622,-0.000146617,-0.00197722,-5.89416e-05,-0.000144721,-0.00197911,-0.0321536,0.00127391,0.0172625,1028,1723,6.57214,-27.1622
-189,-699,6.53577,27.4619,0.000276008,-0.00251901,0.000539322,0.000376465,-0.00261947,0.184153,0.00188438,0.00885732,1035,1723,6.53576,-27.4619
-182,-699,6.51257,27.709,0.000576233,-0.00273952,0.000799321,0.000758865,-0.00292215,0.224627,0.00224424,0.0113305,1042,1723,6.51253,-27.7089
-175,-699,6.49023,27.9766,0.000657691,-0.00222412,0.000921544,0.00092718,-0.00249361,0.2845,0.00204285,0.0140918,1049,1723,6.49025,-27.9766
-168,-699,6.50171,28.2338,0.000666907,-0.00196431,0.00107593,0.00105084,-0.00234824,0.342755,0.00200955,0.0158385,1056,1723,6.50167,-28.2337
-161,-699,6.5072,28.4655,0.000599208,-0.00149754,0.00109797,0.00106893,-0.00196727,0.40425,0.00177834,0.0129329,1063,1723,6.50717,-28.4654
-154,-699,6.47583,28.712,0.000681287,-0.000877592,0.00111661,0.00126359,-0.0014599,0.480693,0.00157377,0.0123863,1070,1723,6.47586,-28.712
-147,-699,6.45984,28.9152,0.00079417,0.000122029,0.000959974,0.0014752,-0.000559001,0.617024,0.0012135,0.0145511,1077,1723,6.45986,-28.9151
-140,-699,6.45337,29.1282,0.000755012,0.00110967,0.000804326,0.00175598,0.000108698,0.893896,0.00113616,0.0098657,1084,1723,6.45335,-29.1281
-133,-699,6.45398,29.3561,0.000695684,0.00202652,0.000694385,0.00232284,0.000399358,1.16745,0.0014341,0.00879739,1091,1723,6.454,-29.356
-126,-699,6.45483,29.556,0.000622237,0.00289215,0.000521575,0.00300626,0.000508127,1.35541,0.0018581,0.0115019,1098,1723,6.45478,-29.556
-119,-699,6.45288,29.7627,0.000619623,0.00358366,0.000390041,0.00363412,0.000569156,1.44212,0.00225708,0.0164082,1105,1723,6.45283,-29.7627
-112,-699,6.43835,29.9564,0.000736422,0.003994,0.000277857,0.00401753,0.000712892,1.48631,0.00247518,0.0112959,1112,1723,6.43836,-29.9564
-105,-699,6.44421,30.1406,0.000869635,0.00413286,0.000130397,0.00413806,0.000864433,1.53092,0.00252047,0.012007,1119,1723,6.44425,-30.1407
-98,-699,6.48816,30.3029,0.00106285,0.00408554,1.42607e-05,0.00408561,0.00106279,1.56608,0.00244764,0.014323,1126,1723,6.48813,-30.3028
-91,-699,6.51404,30.4708,0.00131058,0.0038108,-0.000121576,0.0038167,0.00130469,-1.52232,0.00224002,0.0207248,1133,1723,6.51402,-30.4709
-84,-699,6.51086,30.6522,0.00166082,0.00339303,-0.000273806,0.00343528,0.00161857,-1.4177,0.00198446,0.0245707,1140,1723,6.51088,-30.6523
-77,-699,6.51379,30.8258,0.00204881,0.00287203,-0.000657325,0.00323598,0.00168486,-1.06512,0.00186883,0.0163241,1147,1723,6.51379,-30.8258
-70,-699,6.52014,30.9625,0.00227253,0.00211455,-0.000992468,0.00318915,0.00119793,-0.745686,0.00186014,0.0168314,1154,1723,6.52016,-30.9625
-63,-699,6.52734,31.1105,0.00294104,0.000364183,0.000583567,0.00306704,0.000238186,0.212644,0.0019701,0.0148912,1161,1723,6.52731,-31.1104
-56,-699,6.5321,31.2441,0.00364186,0.000859837,0.00259279,0.0051932,-0.000691507,0.539191,0.00371416,0.0114308,1168,1723,6.53215,-31.2441
-49,-699,6.54907,31.4019,0.00458401,0.00308481,0.00637198,0.0102503,-0.00258151,0.726847,0.00783708,0.024833,1175,1723,6.54904,-31.4019
-42,-699,6.56848,31.5406,0.00619436,0.00430099,0.00969542,0.0149892,-0.00449385,0.736731,0.01178,0.0274544,1182,1723,6.56853,-31.5406
-35,-699,6.59119,31.688,0.00786884,0.00568575,0.0126013,0.0194258,-0.00587118,0.742195,0.0152881,0.0254517,1189,1723,6.59119,-31.688
-28,-699,6.65515,31.7394,0.00918088,0.00687534,0.0148738,0.0229466,-0.00689034,0.746724,0.0180386,0.0199025,1196,1723,6.65521,-31.7394
-21,-699,6.66333,31.7865,0.0100509,0.00802777,0.0166771,0.0257471,-0.00766842,0.755107,0.0202117,0.0135672,1203,1723,6.66337,-31.7865
-14,-699,6.66577,31.895,0.0108964,0.00941569,0.0181668,0.0283379,-0.00802585,0.765033,0.0220594,0.0119223,1210,1723,6.66582,-31.8951
-7,-699,6.68799,31.9969,0.0116358,0.0110196,0.0190682,0.0303984,-0.00774297,0.777319,0.0232798,0.00833081,1217,1723,6.68802,-31.9969
0,-699,6.72607,32.0754,0.0119585,0.0128221,0.0192345,0.0316296,-0.00684904,0.796621,0.0237016,0.00960774,1224,1723,6.72612,-32.0755
7,-699,6.74841,32.1311,0.0117309,0.0147174,0.0188601,0.0321433,-0.00569492,0.824904,0.0235577,0.0150538,1231,1723,6.74836,-32.1311
14,-699,6.77991,32.2209,0.011305,0.0162681,0.0179972,0.031954,-0.00438084,0.853909,0.0229031,0.0164028,1238,1723,6.7799,-32.2209
21,-699,6.83704,32.2439,0.0108255,0.017658,0.0166064,0.0311959,-0.00271245,0.886842,0.0217579,0.0161257,1245,1723,6.83708,-32.2439
28,-699,6.86694,32.2543,0.0101557,0.0186561,0.0150317,0.0300269,-0.0012151,0.923177,0.020435,0.0161656,1252,1723,6.86693,-32.2542
35,-699,6.88049,32.3252,0.00945915,0.0193158,0.0133482,0.0286164,0.00015851,0.962241,0.019025,0.0147364,1259,1723,6.88047,-32.3253
42,-699,6.91858,32.3947,0.00866665,0.0200166,0.011594,0.0272501,0.00143323,1.01299,0.0177083,0.0136415,1266,1723,6.91861,-32.3947
49,-699,6.98608,32.4353,0.00790646,0.0194755,0.00964349,0.0249363,0.00244564,1.05555,0.0158719,0.0154494,1273,1723,6.98609,-32.4353
56,-699,7.03357,32.4675,0.00711251,0.0182334,0.00745655,0.0219745,0.00337142,1.10577,0.0136652,0.0163704,1280,1723,7.03358,-32.4675
63,-699,7.06287,32.4581,0.00634534,0.0168149,0.00581157,0.0194017,0.00375854,1.15201,0.0118815,0.0131987,1287,1723,7.06284,-32.4581
70,-699,7.07629,32.4553,0.00560571,0.0148,0.00430588,0.0165016,0.0039041,1.19445,0.00995817,0.0109887,1294,1723,7.07626,-32.4554
77,-699,7.06433,32.4475,0.00497308,0.0123112,0.00282265,0.0132713,0.00401296,1.24292,0.00785917,0.0117536,1301,1723,7.06429,-32.4475
84,-699,7.05713,32.3988,0.00457541,0.00900061,0.0013121,0.0093604,0.00421561,1.30316,0.0054131,0.0147889,1308,1723,7.05716,-32.3988
91,-699,7.13013,32.3977,0.00406724,0.00534819,-8.88276e-05,0.00535432,0.00406111,-1.50189,0.00322606,0.0135796,1315,1723,7.13012,-32.3977
98,-699,7.1875,32.4044,0.00355565,0.00178531,-0.00128355,0.00422965,0.0011113,-0.483533,0.00253198,0.0117111,1322,1723,7.18746,-32.4044
105,-699,7.20984,32.3759,0.00313275,-0.00159987,-0.00257912,0.00426662,-0.00273375,-0.414201,0.00407383,0.0161575,1329,1723,7.2098,-32.3758
112,-699,7.24805,32.3202,0.00294387,-0.00481287,-0.00390927,0.00457223,-0.00644124,-0.394683,0.00638908,0.0217053,1336,1723,7.24805,-32.3202
119,-699,7.24402,32.269,0.00254905,-0.00749504,-0.00517816,0.00474048,-0.00968647,-0.400351,0.008491,0.0159178,1343,1723,7.24403,-32.269
126,-699,7.28723,32.2057,0.0021255,-0.00996218,-0.00624662,0.00477351,-0.0126102,-0.400948,0.0103709,0.0171905,1350,1723,7.28717,-32.2057
133,-699,7.3479,32.1478,0.00199757,-0.0118521,-0.0070838,0.00497897,-0.0148335,-0.398372,0.0119011,0.0158793,1357,1723,7.34795,-32.1478
140,-699,7.39868,32.0858,0.00208184,-0.0129469,-0.00755142,0.00522063,-0.0160857,-0.393929,0.0128233,0.0181155,1364,1723,7.39864,-32.0858
147,-699,7.39478,32.02,0.00236684,-0.0134383,-0.00748128,0.00534637,-0.0164178,-0.37901,0.0130963,0.0141433,1371,1723,7.39479,-32.02
154,-699,7.38794,31.9294,0.00257853,-0.0128524,-0.00673229,0.00510281,-0.0153766,-0.358727,0.0123098,0.0136798,1378,1723,7.38791,-31.9294
161,-699,7.43896,31.8192,0.00281753,-0.0120411,-0.00581128,0.00482037,-0.014044,-0.331898,0.011317,0.0101546,1385,1723,7.43896,-31.8192
168,-699,7.46033,31.7432,0.00284501,-0.0102961,-0.00485151,0.00444203,-0.0118932,-0.318008,0.00975269,0.0118113,1392,1723,7.46033,-31.7432
175,-699,7.48792,31.6564,0.00277474,-0.0080125,-0.00356654,0.00384729,-0.00908505,-0.292122,0.0076679,0.0144432,1399,1723,7.48795,-31.6563
182,-699,7.52112,31.5216,0.00289026,-0.00572102,-0.00220404,0.0034216,-0.00625236,-0.236559,0.0056644,0.0145356,1406,1723,7.5211,-31.5216
189,-699,7.52002,31.3865,0.0025166,-0.00284221,-0.000387036,0.00254441,-0.00287002,-0.0717282,0.0031279,0.016246,1413,1723,7.52007,-31.3864
196,-699,7.53943,31.2655,0.00189762,0.000168383,0.00108143,0.00241759,-0.000351579,0.448176,0.00174079,0.0161148,1420,1723,7.53942,-31.2655
203,-699,7.53845,31.1354,0.000924935,0.00101265,0.00155069,0.0025201,-0.000582518,0.799536,0.00190418,0.0132148,1427,1723,7.53846,-31.1353
210,-699,7.53821,30.9916,0.000469498,0.000985602,0.00146,0.00221018,-0.000755078,0.872869,0.00177937,0.0128725,1434,1723,7.53815,-30.9916
217,-699,7.55249,30.8555,8.90484e-05,0.000896726,0.00111958,0.00168307,-0.000697299,0.958488,0.00141305,0.0136419,1441,1723,7.55249,-30.8555
224,-699,7.56335,30.6882,2.7383e-05,0.000991907,0.000863108,0.00149835,-0.000479057,1.04017,0.00119114,0.0148964,1448,1723,7.5633,-30.6882
231,-699,7.58887,30.5288,5.17608e-05,0.000994188,0.000499898,0.00120995,-0.000164005,1.16333,0.000866493,0.0112794,1455,1723,7.58888,-30.5288
238,-699,7.58081,30.3612,0.000242216,0.00109823,0.000165257,0.00112903,0.000211421,1.38656,0.000693044,0.00964817,1462,1723,7.58081,-30.3612
245,-699,7.57581,30.176,0.000490089,0.001222,-0.000112695,0.00123896,0.00047313,-1.42143,0.000721938,0.0113058,1469,1723,7.57583,-30.176
252,-699,7.58264,29.9956,0.00067346,0.00126802,-0.000366601,0.00144273,0.000498753,-1.12608,0.000846075,0.0103514,1476,1723,7.58261,-29.9956
259,-699,7.57642,29.8391,0.000793627,0.00123972,-0.000566829,0.00162581,0.00040754,-0.972845,0.00097679,0.0104705,1483,1723,7.57642,-29.8391
266,-699,7.58484,29.6401,0.000795774,0.0012732,-0.000734073,0.0018064,0.000262575,-0.942599,0.00112698,0.0128439,1490,1723,7.58481,-29.6402
273,-699,7.59656,29.4183,0.000737872,0.00146264,-0.000883351,0.00205505,0.000145463,-0.980049,0.00132421,0.0120666,1497,1723,7.5966,-29.4183
280,-699,7.59497,29.1848,0.00069962,0.00152246,-0.00105056,0.00223929,-1.72125e-05,-0.972028,0.00149863,0.0123566,1504,1723,7.59492,-29.1848
287,-699,7.57996,28.9854,0.000549007,0.00184513,-0.00117276,0.00253698,-0.000142839,-1.03781,0.00174089,0.010759,1511,1723,7.57997,-28.9853
294,-699,7.57776,28.7954,0.000360783,0.00215278,-0.00126902,0.00281023,-0.000296671,-1.09279,0.0019798,0.0107667,1518,1723,7.5778,-28.7954
301,-699,7.57385,28.6069,0.000118675,0.00240522,-0.00140454,0.00307297,-0.000549075,-1.127,0.00225408,0.0130248,1525,1723,7.5739,-28.6069
308,-699,7.57166,28.3773,-0.000212332,0.00284077,-0.00162319,0.00354247,-0.00091403,-1.16276,0.00271804,0.0182143,1532,1723,7.57166,-28.3773
315,-699,7.58801,28.1162,-0.000501148,0.00302391,-0.00174042,0.00373839,-0.00121563,-1.18125,0.00298126,0.0210707,1539,1723,7.58806,-28.1162
322,-699,7.53687,27.8737,-0.000705215,0.00332082,-0.00191315,0.00408492,-0.00146932,-1.19081,0.00332315,0.0203592,1546,1723,7.53687,-27.8737
329,-699,7.49353,27.626,-0.000978139,0.0034621,-0.00196473,0.00420662,-0.00172266,-1.20857,0.00352198,0.0158947,1553,1723,7.4935,-27.626
336,-699,7.50745,27.408,-0.00119779,0.00324177,-0.00186716,0.00392264,-0.00187865,-1.22113,0.00341797,0.0172726,1560,1723,7.50739,-27.408
343,-699,7.552,27.1885,-0.00150751,0.00226735,-0.00160924,0.00286025,-0.00210041,-1.21779,0.00287522,0.0228862,1567,1723,7.55195,-27.1885
350,-699,7.53882,26.9398,-0.00205327,0.000442796,-0.000947815,0.000761907,-0.00237238,-1.24604,0.00188753,0.0327852,1574,1723,7.53879,-26.9398
357,-699,7.44641,26.7107,-0.0024749,-0.00153947,-0.000170398,-0.0015094,-0.00250497,-1.39611,0.00145635,0.0393505,1581,1723,7.44643,-26.7107
364,-699,7.35132,26.6061,-0.00293438,-0.00420499,0.000906297,-0.00246289,-0.00467648,0.479702,0.00270124,0.0420018,1588,1723,7.35136,-26.6061
371,-699,7.55469,26.1733,0,0,0,0,0,0,0,-1,1595,1723,7.55465,-26.1733
378,-699,7.21777,25.9105,0,0,0,0,0,0,0,-1,1602,1723,7.21773,-25.9105
385,-699,6.32727,24.7136,0,0,0,0,0,0,0,-1,1609,1723,6.32725,-24.7136
392,-699,6.84766,24.4685,0,0,0,0,0,0,0,-1,1616,1723,6.84761,-24.4686
399,-699,3.91516,9.81726,0,0,0,0,0,0,0,-1,1623,1723,3.9152,-9.81721
406,-699,5.50757,21.6672,0,0,0,0,0,0,0,-1,1630,1723,5.50755,-21.6672
413,-699,9.31396,23.2781,0,0,0,0,0,0,0,-1,1637,1723,9.31396,-23.278
420,-699,2.15076,7.65527,0,0,0,0,0,0,0,-1,1644,1723,2.15079,-7.65522
427,-699,3.36328,8.2428,0,0,0,0,0,0,0,-1,1651,1723,3.36332,-8.24283
434,-699,4.66455,8.90222,0,0,0,0,0,0,0,-1,1658,1723,4.66456,-8.90223
441,-699,0,0,0,0,0,0,0,0,0,-1,1665,1723,0,0
448,-699,0,0,0,0,0,0,0,0,0,-1,1672,1723,0,0
455,-699,0,0,0,0,0,0,0,0,0,-1,1679,1723,0,0
462,-699,0,0,0,0,0,0,0,0,0,-1,1686,1723,0,0
469,-699,0,0,0,0,0,0,0,0,0,-1,1693,1723,0,0
476,-699,0,0,0,0,0,0,0,0,0,-1,1700,1723,0,0
483,-699,0,0,0,0,0,0,0,0,0,-1,1707,1723,0,0
490,-699,0,0,0,0,0,0,0,0,0,-1,1714,1723,0,0
497,-699,0,0,0,0,0,0,0,0,0,-1,1721,1723,0,0
504,-699,0,0,0,0,0,0,0,0,0,-1,1728,1723,0,0
511,-699,0,0,0,0,0,0,0,0,0,-1,1735,1723,0,0
518,-699,0,0,0,0,0,0,0,0,0,-1,1742,1723,0,0
525,-699,0,0,0,0,0,0,0,0,0,-1,1749,1723,0,0
532,-699,0,0,0,0,0,0,0,0,0,-1,1756,1723,0,0
539,-699,0,0,0,0,0,0,0,0,0,-1,1763,1723,0,0
546,-699,0,0,0,0,0,0,0,0,0,-1,1770,1723,0,0
553,-699,0,0,0,0,0,0,0,0,0,-1,1777,1723,0,0
560,-699,0,0,0,0,0,0,0,0,0,-1,1784,1723,0,0
567,-699,0,0,0,0,0,0,0,0,0,-1,1791,1723,0,0
574,-699,0,0,0,0,0,0,0,0,0,-1,1798,1723,0,0
581,-699,0,0,0,0,0,0,0,0,0,-1,1805,1723,0,0
588,-699,0,0,0,0,0,0,0,0,0,-1,1812,1723,0,0
595,-699,0,0,0,0,0,0,0,0,0,-1,1819,1723,0,0
602,-699,0,0,0,0,0,0,0,0,0,-1,1826,1723,0,0
609,-699,0,0,0,0,0,0,0,0,0,-1,1833,1723,0,0
616,-699,0,0,0,0,0,0,0,0,0,-1,1840,1723,0,0
623,-699,0,0,0,0,0,0,0,0,0,-1,1847,1723,0,0
630,-699,0,0,0,0,0,0,0,0,0,-1,1854,1723,0,0
637,-699,0,0,0,0,0,0,0,0,0,-1,1861,1723,0,0
644,-699,0,0,0,0,0,0,0,0,0,-1,1868,1723,0,0
651,-699,0,0,0,0,0,0,0,0,0,-1,1875,1723,0,0
658,-699,0,0,0,0,0,0,0,0,0,-1,1882,1723,0,0
665,-699,0,0,0,0,0,0,0,0,0,-1,1889,1723,0,0
672,-699,0,0,0,0,0,0,0,0,0,-1,1896,1723,0,0
679,-699,0,0,0,0,0,0,0,0,0,-1,1903,1723,0,0
686,-699,0,0,0,0,0,0,0,0,0,-1,1910,1723,0,0
693,-699,0,0,0,0,0,0,0,0,0,-1,1917,1723,0,0
700,-699,0,0,0,0,0,0,0,0,0,-1,1924,1723,0,0
707,-699,0,0,0,0,0,0,0,0,0,-1,1931,1723,0,0
714,-699,0,0,0,0,0,0,0,0,0,-1,1938,1723,0,0
721,-699,0,0,0,0,0,0,0,0,0,-1,1945,1723,0,0
728,-699,0,0,0,0,0,0,0,0,0,-1,1952,1723,0,0
735,-699,0,0,0,0,0,0,0,0,0,-1,1959,1723,0,0
742,-699,0,0,0,0,0,0,0,0,0,-1,1966,1723,0,0
749,-699,0,0,0,0,0,0,0,0,0,-1,1973,1723,0,0
756,-699,0,0,0,0,0,0,0,0,0,-1,1980,1723,0,0
763,-699,0,0,0,0,0,0,0,0,0,-1,1987,1723,0,0
770,-699,0,0,0,0,0,0,0,0,0,-1,1994,1723,0,0
777,-699,0,0,0,0,0,0,0,0,0,-1,2001,1723,0,0
784,-699,0,0,0,0,0,0,0,0,0,-1,2008,1723,0,0
791,-699,0,0,0,0,0,0,0,0,0,-1,2015,1723,0,0
798,-699,0,0,0,0,0,0,0,0,0,-1,2022,1723,0,0
805,-699,0,0,0,0,0,0,0,0,0,-1,2029,1723,0,0
812,-699,0,0,0,0,0,0,0,0,0,-1,2036,1723,0,0
-700,-706,0,0,0,0,0,0,0,0,0,-1,524,1730,0,0
-693,-706,0,0,0,0,0,0,0,0,0,-1,531,1730,0,0
-686,-706,0,0,0,0,0,0,0,0,0,-1,538,1730,0,0
-679,-706,0,0,0,0,0,0,0,0,0,-1,545,1730,0,0
-672,-706,0,0,0,0,0,0,0,0,0,-1,552,1730,0,0
-665,-706,0,0,0,0,0,0,0,0,0,-1,559,1730,0,0
-658,-706,0,0,0,0,0,0,0,0,0,-1,566,1730,0,0
-651,-706,0,0,0,0,0,0,0,0,0,-1,573,1730,0,0
-644,-706,0,0,0,0,0,0,0,0,0,-1,580,1730,0,0
-637,-706,0,0,0,0,0,0,0,0,0,-1,587,1730,0,0
-630,-706,0,0,0,0,0,0,0,0,0,-1,594,1730,0,0
-623,-706,0,0,0,0,0,0,0,0,0,-1,601,1730,0,0
-616,-706,0,0,0,0,0,0,0,0,0,-1,608,1730,0,0
-609,-706,0,0,0,0,0,0,0,0,0,-1,615,1730,0,0
-602,-706,0,0,0,0,0,0,0,0,0,-1,622,1730,0,0
-595,-706,0,0,0,0,0,0,0,0,0,-1,629,1730,0,0
-588,-706,0,0,0,0,0,0,0,0,0,-1,636,1730,0,0
-581,-706,0,0,0,0,0,0,0,0,0,-1,643,1730,0,0
-574,-706,0,0,0,0,0,0,0,0,0,-1,650,1730,0,0
-567,-706,0,0,0,0,0,0,0,0,0,-1,657,1730,0,0
-560,-706,0,0,0,0,0,0,0,0,0,-1,664,1730,0,0
-553,-706,0,0,0,0,0,0,0,0,0,-1,671,1730,0,0
-546,-706,0,0,0,0,0,0,0,0,0,-1,678,1730,0,0
-539,-706,0,0,0,0,0,0,0,0,0,-1,685,1730,0,0
-532,-706,0,0,0,0,0,0,0,0,0,-1,692,1730,0,0
-525,-706,0,0,0,0,0,0,0,0,0,-1,699,1730,0,0
-518,-706,0,0,0,0,0,0,0,0,0,-1,706,1730,0,0
-511,-706,0,0,0,0,0,0,0,0,0,-1,713,1730,0,0
-504,-706,0,0,0,0,0,0,0,0,0,-1,720,1730,0,0
-497,-706,0,0,0,0,0,0,0,0,0,-1,727,1730,0,0
-490,-706,0,0,0,0,0,0,0,0,0,-1,734,1730,0,0
-483,-706,0,0,0,0,0,0,0,0,0,-1,741,1730,0,0
-476,-706,0,0,0,0,0,0,0,0,0,-1,748,1730,0,0
-469,-706,0,0,0,0,0,0,0,0,0,-1,755,1730,0,0
-462,-706,0,0,0,0,0,0,0,0,0,-1,762,1730,0,0
-455,-706,0,0,0,0,0,0,0,0,0,-1,769,1730,0,0
-448,-706,0,0,0,0,0,0,0,0,0,-1,776,1730,0,0
-441,-706,0,0,0,0,0,0,0,0,0,-1,783,1730,0,0
-434,-706,0,0,0,0,0,0,0,0,0,-1,790,1730,0,0
-427,-706,0,0,0,0,0,0,0,0,0,-1,797,1730,0,0
-420,-706,0,0,0,0,0,0,0,0,0,-1,804,1730,0,0
-413,-706,0,0,0,0,0,0,0,0,0,-1,811,1730,0,0
-406,-706,0,0,0,0,0,0,0,0,0,-1,818,1730,0,0
-399,-706,0,0,0,0,0,0,0,0,0,-1,825,1730,0,0
-392,-706,0,0,0,0,0,0,0,0,0,-1,832,1730,0,0
-385,-706,0,0,0,0,0,0,0,0,0,-1,839,1730,0,0
-378,-706,0,0,0,0,0,0,0,0,0,-1,846,1730,0,0
-371,-706,0,0,0,0,0,0,0,0,0,-1,853,1730,0,0
-364,-706,0,0,0,0,0,0,0,0,0,-1,860,1730,0,0
-357,-706,0,0,0,0,0,0,0,0,0,-1,867,1730,0,0
-350,-706,0,0,0,0,0,0,0,0,0,-1,874,1730,0,0
-343,-706,0,0,0,0,0,0,0,0,0,-1,881,1730,0,0
-336,-706,0,0,0,0,0,0,0,0,0,-1,888,1730,0,0
-329,-706,0,0,0,0,0,0,0,0,0,-1,895,1730,0,0
-322,-706,0,0,0,0,0,0,0,0,0,-1,902,1730,0,0
-315,-706,0,0,0,0,0,0,0,0,0,-1,909,1730,0,0
-308,-706,5.08191,14.6245,0,0,0,0,0,0,0,-1,916,1730,5.08188,-14.6245
-301,-706,7.45007,21.1975,0,0,0,0,0,0,0,-1,923,1730,7.45005,-21.1976
-294,-706,11.8603,21.026,0,0,0,0,0,0,0,-1,930,1730,11.8603,-21.026
-287,-706,10.3292,20.8425,0,0,0,0,0,0,0,-1,937,1730,10.3292,-20.8425
-280,-706,7.9162,21.8951,0,0,0,0,0,0,0,-1,944,1730,7.9162,-21.8952
-273,-706,7.38953,20.6355,0,0,0,0,0,0,0,-1,951,1730,7.38955,-20.6355
-266,-706,9.66724,22.8231,0,0,0,0,0,0,0,-1,958,1730,9.66722,-22.8231
-259,-706,3.47852,20.7363,0,0,0,0,0,0,0,-1,965,1730,3.47851,-20.7364
-252,-706,3.84259,20.1979,0,0,0,0,0,0,0,-1,972,1730,3.84256,-20.1979
-245,-706,4.698,19.2992,0,0,0,0,0,0,0,-1,979,1730,4.69799,-19.2991
-238,-706,6.94562,24.3839,0,0,0,0,0,0,0,-1,986,1730,6.94561,-24.3839
-231,-706,6.6488,26.1836,0,0,0,0,0,0,0,-1,993,1730,6.64883,-26.1835
-224,-706,6.81775,26.0854,0.00125241,0.000836505,-0.00334277,0.00439369,-0.00230478,-0.754333,0.00392955,0.0498002,1000,1730,6.81773,-26.0854
-217,-706,6.94116,26.2533,-0.000158882,-0.000403563,-0.00301811,0.00273937,-0.00330181,-0.765141,0.00349291,0.0455917,1007,1730,6.94114,-26.2533
-210,-706,7.20715,26.4596,-3.41219e-05,-0.00149381,-0.00171877,0.00110334,-0.00263128,-0.584619,0.00221552,0.0377372,1014,1730,7.20718,-26.4596
-203,-706,6.89868,26.9572,0.000192411,-0.00241035,-0.000693023,0.000365437,-0.00258337,-0.244666,0.00185609,0.0305399,1021,1730,6.89868,-26.9572
-196,-706,6.80774,27.2245,0.000390544,-0.00336578,0.000176179,0.000398789,-0.00337403,0.046765,0.00239338,0.0230186,1028,1730,6.8077,-27.2245
-189,-706,6.7561,27.4905,0.000867579,-0.00394159,0.00093045,0.00104132,-0.00411533,0.184602,0.00314859,0.0172654,1035,1730,6.75607,-27.4905
-182,-706,6.76038,27.7433,0.00110762,-0.00420732,0.00121966,0.00137414,-0.00447384,0.215138,0.00353089,0.0134445,1042,1730,6.76036,-27.7433
-175,-706,6.75549,27.9872,0.000997803,-0.00360883,0.00134254,0.00136051,-0.00397154,0.263866,0.00319913,0.0148632,1049,1730,6.75555,-27.9871
-168,-706,6.74585,28.2324,0.000882774,-0.00336232,0.00147697,0.00134608,-0.00382563,0.303966,0.00309817,0.0160622,1056,1730,6.74586,-28.2325
-161,-706,6.72083,28.4679,0.000684919,-0.00288041,0.00145114,0.00120088,-0.00339638,0.341618,0.00275327,0.0134011,1063,1730,6.72086,-28.4679
-154,-706,6.68652,28.7004,0.000665232,-0.00226941,0.00142586,0.00124391,-0.00284809,0.385534,0.00242227,0.0121857,1070,1730,6.6865,-28.7005
-147,-706,6.6665,28.9187,0.000675986,-0.0011751,0.00119802,0.00126434,-0.00176346,0.456505,0.001756,0.0112334,1077,1730,6.66656,-28.9187
-140,-706,6.6781,29.147,0.000497713,-9.70785e-05,0.000985368,0.00122959,-0.000828952,0.638839,0.00119598,0.00984671,1084,1730,6.67813,-29.147
-133,-706,6.66028,29.3491,0.00031594,0.000878374,0.000844431,0.00148718,-0.000292869,0.946135,0.00110213,0.00758346,1091,1730,6.66028,-29.3491
-126,-706,6.66003,29.5616,9.44216e-05,0.00180504,0.000618819,0.00200542,-0.000105964,1.25763,0.00137363,0.0126236,1098,1730,6.65998,-29.5617
-119,-706,6.65356,29.7915,-4.31955e-05,0.00259126,0.00048092,0.0026763,-0.000128242,1.39576,0.00182845,0.0185996,1105,1730,6.65354,-29.7915
-112,-706,6.63367,29.983,-1.93159e-06,0.00304361,0.000404523,0.00309642,-5.47463e-05,1.44097,0.00208277,0.0131689,1112,1730,6.63368,-29.983
-105,-706,6.62341,30.1719,4.23257e-05,0.00326358,0.00028279,0.00328822,1.76885e-05,1.48389,0.00218627,0.00923553,1119,1730,6.62338,-30.1719
-98,-706,6.66284,30.329,0.000192009,0.00330742,0.00022938,0.00332422,0.000175211,1.49769,0.00216011,0.0106216,1126,1730,6.66289,-30.329
-91,-706,6.67322,30.4893,0.000415908,0.0031875,0.000172589,0.00319821,0.000405202,1.50884,0.00201073,0.0150598,1133,1730,6.67324,-30.4892
-84,-706,6.63818,30.6609,0.000679831,0.00291252,8.46222e-05,0.00291572,0.000676629,1.53297,0.00176212,0.0173851,1140,1730,6.63814,-30.6609
-77,-706,6.63428,30.8322,0.00105149,0.00259918,-0.000129588,0.00260995,0.00104071,-1.48784,0.00151712,0.01617,1147,1730,6.63426,-30.8321
-70,-706,6.63538,30.9949,0.0013306,0.00207449,-0.000359476,0.00221981,0.00118527,-1.18662,0.00128259,0.0179514,1154,1730,6.63543,-30.9949
-63,-706,6.64355,31.1378,0.00178771,0.00109435,0.000339297,0.00192612,0.000955943,0.387317,0.00111206,0.0136486,1161,1730,6.6435,-31.1378
-56,-706,6.68005,31.251,0.00230136,0.00115249,0.00134928,0.0031934,0.000260454,0.584153,0.00204764,0.0135565,1168,1730,6.68005,-31.251
-49,-706,6.68372,31.3738,0.00291949,0.00217917,0.00337303,0.00594261,-0.000843954,0.730747,0.00427095,0.0140326,1175,1730,6.68369,-31.3738
-42,-706,6.68738,31.5284,0.00399479,0.0027965,0.00528993,0.0087194,-0.00192811,0.729008,0.00655091,0.0184622,1182,1730,6.68733,-31.5285
-35,-706,6.68823,31.6313,0.00520486,0.00356342,0.00708814,0.0115196,-0.00275136,0.727761,0.0087424,0.0174846,1189,1730,6.68822,-31.6314
-28,-706,6.72998,31.7069,0.00611966,0.00446271,0.00868648,0.0140171,-0.00343471,0.737854,0.0106754,0.0103923,1196,1730,6.73003,-31.7069
-21,-706,6.75781,31.8162,0.00672038,0.00541974,0.0101251,0.016216,-0.00407585,0.753328,0.0123947,0.0103329,1203,1730,6.75784,-31.8161
-14,-706,6.77173,31.9081,0.00735063,0.00645635,0.0113939,0.0183061,-0.00449915,0.765786,0.0139478,0.0103804,1210,1730,6.77175,-31.9081
-7,-706,6.78503,32.0063,0.00791286,0.00778874,0.0122766,0.0201276,-0.004426,0.78287,0.0151114,0.00854049,1217,1730,6.78498,-32.0063
0,-706,6.81763,32.0919,0.00822111,0.00930034,0.0127658,0.0215379,-0.00401645,0.806521,0.0158678,0.0119302,1224,1730,6.81764,-32.0919
7,-706,6.83521,32.1407,0.00814643,0.0108618,0.0128679,0.0224435,-0.00343523,0.837959,0.0162291,0.0139686,1231,1730,6.83517,-32.1407
14,-706,6.84595,32.2037,0.00790797,0.0121546,0.012527,0.022737,-0.00267436,0.869351,0.0161235,0.013575,1238,1730,6.846,-32.2038
21,-706,6.87378,32.2518,0.00762252,0.0132803,0.0117703,0.0225569,-0.00165404,0.903333,0.0156185,0.0118912,1245,1730,6.87372,-32.2518
28,-706,6.88416,32.3088,0.00718695,0.0140874,0.0108224,0.0219962,-0.000721903,0.939706,0.0149106,0.012794,1252,1730,6.88415,-32.3089
35,-706,6.9082,32.353,0.0067472,0.014606,0.00973014,0.0211702,0.000182999,0.977304,0.0140529,0.0148489,1259,1730,6.90825,-32.353
42,-706,6.93604,32.405,0.00623774,0.0151028,0.00854676,0.0202981,0.00104248,1.02462,0.0131983,0.012572,1266,1730,6.93597,-32.405
49,-706,6.9801,32.4417,0.00570273,0.0148295,0.00722593,0.0188124,0.00171986,1.06704,0.0120094,0.0141909,1273,1730,6.98012,-32.4416
56,-706,7.02234,32.4508,0.00514517,0.0140332,0.00572489,0.0168365,0.00234187,1.11545,0.0105309,0.013067,1280,1730,7.02229,-32.4508
63,-706,7.04529,32.442,0.00458763,0.0131248,0.00463193,0.0151551,0.00255737,1.1577,0.00936802,0.010678,1287,1730,7.04527,-32.442
70,-706,7.04333,32.4316,0.00400808,0.0118312,0.00362369,0.0132518,0.00258753,1.19719,0.00811076,0.0114809,1294,1730,7.04331,-32.4316
77,-706,7.05188,32.4335,0.00353409,0.010044,0.00258238,0.0109439,0.00263412,1.23545,0.00659565,0.0112728,1301,1730,7.05191,-32.4335
84,-706,7.0719,32.4236,0.00319458,0.00777456,0.00152403,0.00823534,0.0027338,1.27719,0.00484335,0.00924249,1308,1730,7.07192,-32.4235
91,-706,7.10608,32.4264,0.00271821,0.00539816,0.000567565,0.00551341,0.00260297,1.37047,0.00318482,0.00979137,1315,1730,7.10605,-32.4264
98,-706,7.13342,32.4121,0.0022018,0.00305966,-0.000234003,0.00311934,0.00214212,-1.32108,0.00184234,0.0131971,1322,1730,7.13347,-32.4121
105,-706,7.16125,32.3915,0.00175756,0.000810343,-0.00114285,0.00252105,4.6858e-05,-0.588963,0.0016653,0.0164867,1329,1730,7.16121,-32.3915
112,-706,7.15881,32.3505,0.00150446,-0.00133513,-0.00207533,0.00259918,-0.00242985,-0.485401,0.00290406,0.0160267,1336,1730,7.15887,-32.3504
119,-706,7.18726,32.3118,0.00109508,-0.00315568,-0.00296011,0.00261381,-0.0046744,-0.474044,0.00426354,0.0132206,1343,1730,7.18728,-32.3118
126,-706,7.21069,32.2524,0.000672684,-0.00482872,-0.00371397,0.00254367,-0.0066997,-0.466658,0.00551354,0.0139803,1350,1730,7.21064,-32.2524
133,-706,7.24426,32.1691,0.000495821,-0.00605776,-0.00429214,0.00261902,-0.00818096,-0.459375,0.00650516,0.0119404,1357,1730,7.24426,-32.1691
140,-706,7.28625,32.0679,0.000489082,-0.00669654,-0.0046019,0.00273457,-0.00894203,-0.45396,0.00705189,0.0120638,1364,1730,7.28628,-32.0679
147,-706,7.31323,31.9785,0.000657704,-0.00695535,-0.00454252,0.00277774,-0.00907538,-0.436662,0.00715813,0.0203064,1371,1730,7.3132,-31.9785
154,-706,7.32373,31.9242,0.000864942,-0.00653948,-0.00398341,0.00260092,-0.00827546,-0.410985,0.00655818,0.0207068,1378,1730,7.32368,-31.9242
161,-706,7.31799,31.8416,0.00110456,-0.0059186,-0.00330635,0.00241617,-0.00723021,-0.377652,0.0057959,0.0113032,1385,1730,7.31797,-31.8416
168,-706,7.33667,31.7411,0.00121837,-0.00472116,-0.00268144,0.00224981,-0.0057526,-0.367211,0.00476544,0.00999357,1392,1730,7.33665,-31.741
175,-706,7.35864,31.6465,0.00131226,-0.00327591,-0.00186164,0.00197258,-0.00393624,-0.340855,0.00347368,0.00976384,1399,1730,7.35868,-31.6465
182,-706,7.37329,31.5212,0.00144324,-0.00184233,-0.000969747,0.00170811,-0.0021072,-0.266631,0.00220678,0.0102646,1406,1730,7.37325,-31.5212
189,-706,7.3783,31.3904,0.00127662,-0.000347389,5.50603e-05,0.00127849,-0.000349253,0.0338521,0.000989505,0.0141131,1413,1730,7.37835,-31.3904
196,-706,7.38696,31.252,0.000991859,0.000952096,0.000664945,0.00163722,0.000306736,0.770453,0.00100496,0.0125862,1420,1730,7.38691,-31.2519
203,-706,7.3822,31.1191,0.000576998,0.00115523,0.000687402,0.00161184,0.000120387,0.984464,0.00103676,0.0131939,1427,1730,7.38222,-31.1191
210,-706,7.37549,30.9861,0.000294385,0.00129153,0.000566599,0.00154768,3.82331e-05,1.14621,0.00101928,0.0127217,1434,1730,7.37549,-30.9861
217,-706,7.37,30.8632,5.43071e-05,0.00139868,0.000284013,0.00145622,-3.23122e-06,1.37091,0.000971892,0.0129028,1441,1730,7.37003,-30.8632
224,-706,7.37622,30.7118,2.23691e-05,0.00160183,3.65969e-05,0.00160268,2.15216e-05,1.54764,0.00106135,0.0164536,1448,1730,7.37627,-30.7117
231,-706,7.40967,30.5203,1.18859e-05,0.0017683,-0.000229734,0.00179785,-1.76654e-05,-1.44287,0.0012045,0.0124609,1455,1730,7.40963,-30.5202
238,-706,7.40076,30.3472,0.000125738,0.00194764,-0.000460382,0.00205737,1.60108e-05,-1.33682,0.00136627,0.00859987,1462,1730,7.40074,-30.3471
245,-706,7.40247,30.1682,0.000305464,0.00210154,-0.00068246,0.00233143,7.55732e-05,-1.24588,0.00152972,0.0108639,1469,1730,7.40245,-30.1682
252,-706,7.39868,30.0005,0.000419471,0.00217679,-0.000876719,0.00253937,5.68897e-05,-1.17865,0.00167427,0.0110536,1476,1730,7.39866,-30.0004
259,-706,7.41296,29.8221,0.000455771,0.00211973,-0.00101758,0.00260216,-2.66585e-05,-1.12809,0.00174372,0.0123043,1483,1730,7.41295,-29.8222
266,-706,7.39807,29.6412,0.000388083,0.00216711,-0.00114348,0.00272631,-0.000171119,-1.11596,0.00187718,0.0128718,1490,1730,7.39807,-29.6413
273,-706,7.39624,29.4279,0.000312162,0.00241787,-0.00128807,0.00302863,-0.000298602,-1.12803,0.00212563,0.0119691,1497,1730,7.3962,-29.4278
280,-706,7.37964,29.2056,0.000261151,0.00250613,-0.00144877,0.00321638,-0.000449095,-1.11499,0.00230856,0.00974231,1504,1730,7.37964,-29.2056
287,-706,7.35107,28.9866,0.000124135,0.00289597,-0.00160408,0.00362992,-0.000609819,-1.14168,0.00264674,0.0102665,1511,1730,7.35112,-28.9865
294,-706,7.36902,28.78,-3.02091e-05,0.00323136,-0.00172148,0.00397185,-0.000770701,-1.16457,0.00293868,0.0103468,1518,1730,7.36907,-28.78
301,-706,7.36523,28.5691,-0.000249924,0.00356379,-0.00187326,0.00432999,-0.00101612,-1.18254,0.00327829,0.0100126,1525,1730,7.36526,-28.5691
308,-706,7.36768,28.3506,-0.000583514,0.00404743,-0.00210915,0.00486404,-0.00140012,-1.2014,0.00379646,0.0122751,1532,1730,7.36772,-28.3506
315,-706,7.3634,28.1337,-0.000850755,0.00440361,-0.00228157,0.00525603,-0.00170318,-1.21324,0.0041888,0.0203851,1539,1730,7.3634,-28.1336
322,-706,7.31628,27.9435,-0.00101465,0.00491014,-0.00253021,0.00584361,-0.00194812,-1.21736,0.00468221,0.0273852,1546,1730,7.31632,-27.9435
329,-706,7.35193,27.6232,-0.0012546,0.00523215,-0.00261151,0.00615284,-0.00217529,-1.23185,0.0049877,0.0252271,1553,1730,7.35188,-27.6232
336,-706,7.32605,27.2666,-0.00143839,0.00510912,-0.00255478,0.005988,-0.00231726,-1.23946,0.0049487,0.0349968,1560,1730,7.32604,-27.2666
343,-706,7.2406,27.1233,-0.00178956,0.00407141,-0.00228961,0.0048598,-0.00257796,-1.23918,0.00436103,0.0370654,1567,1730,7.24055,-27.1233
350,-706,7.24011,26.9421,-0.00245568,0.00199236,-0.00148915,0.00244487,-0.00290819,-1.27579,0.00309445,0.0431616,1574,1730,7.24009,-26.9421
357,-706,7.22449,26.3871,-0.00290892,-0.000305551,-0.000540327,-0.000197862,-0.00301661,-1.37407,0.00194847,0.0490689,1581,1730,7.22447,-26.3871
364,-706,6.93933,26.9064,0,0,0,0,0,0,0,-1,1588,1730,6.9393,-26.9063
371,-706,6.27881,24.0759,0,0,0,0,0,0,0,-1,1595,1730,6.27883,-24.0759
378,-706,4.80444,25.0989,0,0,0,0,0,0,0,-1,1602,1730,4.80445,-25.0989
385,-706,5.55212,24.9753,0,0,0,0,0,0,0,-1,1609,1730,5.55214,-24.9753
392,-706,6.2998,24.8518,0,0,0,0,0,0,0,-1,1616,1730,6.29983,-24.8518
399,-706,3.9502,25.5428,0,0,0,0,0,0,0,-1,1623,1730,3.95019,-25.5428
406,-706,6.04211,18.8085,0,0,0,0,0,0,0,-1,1630,1730,6.04216,-18.8085
413,-706,6.23413,20.7725,0,0,0,0,0,0,0,-1,1637,1730,6.23413,-20.7725
420,-706,6.51294,21.9171,0,0,0,0,0,0,0,-1,1644,1730,6.51292,-21.9171
427,-706,0,0,0,0,0,0,0,0,0,-1,1651,1730,0,0
434,-706,0,0,0,0,0,0,0,0,0,-1,1658,1730,0,0
441,-706,0,0,0,0,0,0,0,0,0,-1,1665,1730,0,0
448,-706,0,0,0,0,0,0,0,0,0,-1,1672,1730,0,0
455,-706,0,0,0,0,0,0,0,0,0,-1,1679,1730,0,0
462,-706,0,0,0,0,0,0,0,0,0,-1,1686,1730,0,0
469,-706,0,0,0,0,0,0,0,0,0,-1,1693,1730,0,0
476,-706,0,0,0,0,0,0,0,0,0,-1,1700,1730,0,0
483,-706,0,0,0,0,0,0,0,0,0,-1,1707,1730,0,0
490,-706,0,0,0,0,0,0,0,0,0,-1,1714,1730,0,0
497,-706,0,0,0,0,0,0,0,0,0,-1,1721,1730,0,0
504,-706,0,0,0,0,0,0,0,0,0,-1,1728,1730,0,0
511,-706,0,0,0,0,0,0,0,0,0,-1,1735,1730,0,0
518,-706,0,0,0,0,0,0,0,0,0,-1,1742,1730,0,0
525,-706,0,0,0,0,0,0,0,0,0,-1,1749,1730,0,0
532,-706,0,0,0,0,0,0,0,0,0,-1,1756,1730,0,0
539,-706,0,0,0,0,0,0,0,0,0,-1,1763,1730,0,0
546,-706,0,0,0,0,0,0,0,0,0,-1,1770,1730,0,0
553,-706,0,0,0,0,0,0,0,0,0,-1,1777,1730,0,0
560,-706,0,0,0,0,0,0,0,0,0,-1,1784,1730,0,0
567,-706,0,0,0,0,0,0,0,0,0,-1,1791,1730,0,0
574,-706,0,0,0,0,0,0,0,0,0,-1,1798,1730,0,0
581,-706,0,0,0,0,0,0,0,0,0,-1,1805,1730,0,0
588,-706,0,0,0,0,0,0,0,0,0,-1,1812,1730,0,0
595,-706,0,0,0,0,0,0,0,0,0,-1,1819,1730,0,0
602,-706,0,0,0,0,0,0,0,0,0,-1,1826,1730,0,0
609,-706,0,0,0,0,0,0,0,0,0,-1,1833,1730,0,0
616,-706,0,0,0,0,0,0,0,0,0,-1,1840,1730,0,0
623,-706,0,0,0,0,0,0,0,0,0,-1,1847,1730,0,0
630,-706,0,0,0,0,0,0,0,0,0,-1,1854,1730,0,0
637,-706,0,0,0,0,0,0,0,0,0,-1,1861,1730,0,0
644,-706,0,0,0,0,0,0,0,0,0,-1,1868,1730,0,0
651,-706,0,0,0,0,0,0,0,0,0,-1,1875,1730,0,0
658,-706,0,0,0,0,0,0,0,0,0,-1,1882,1730,0,0
665,-706,0,0,0,0,0,0,0,0,0,-1,1889,1730,0,0
672,-706,0,0,0,0,0,0,0,0,0,-1,1896,1730,0,0
679,-706,0,0,0,0,0,0,0,0,0,-1,1903,1730,0,0
686,-706,0,0,0,0,0,0,0,0,0,-1,1910,1730,0,0
693,-706,0,0,0,0,0,0,0,0,0,-1,1917,1730,0,0
700,-706,0,0,0,0,0,0,0,0,0,-1,1924,1730,0,0
707,-706,0,0,0,0,0,0,0,0,0,-1,1931,1730,0,0
714,-706,0,0,0,0,0,0,0,0,0,-1,1938,1730,0,0
721,-706,0,0,0,0,0,0,0,0,0,-1,1945,1730,0,0
728,-706,0,0,0,0,0,0,0,0,0,-1,1952,1730,0,0
735,-706,0,0,0,0,0,0,0,0,0,-1,1959,1730,0,0
742,-706,0,0,0,0,0,0,0,0,0,-1,1966,1730,0,0
749,-706,0,0,0,0,0,0,0,0,0,-1,1973,1730,0,0
756,-706,0,0,0,0,0,0,0,0,0,-1,1980,1730,0,0
763,-706,0,0,0,0,0,0,0,0,0,-1,1987,1730,0,0
770,-706,0,0,0,0,0,0,0,0,0,-1,1994,1730,0,0
777,-706,0,0,0,0,0,0,0,0,0,-1,2001,1730,0,0
784,-706,0,0,0,0,0,0,0,0,0,-1,2008,1730,0,0
791,-706,0,0,0,0,0,0,0,0,0,-1,2015,1730,0,0
798,-706,0,0,0,0,0,0,0,0,0,-1,2022,1730,0,0
805,-706,0,0,0,0,0,0,0,0,0,-1,2029,1730,0,0
812,-706,0,0,0,0,0,0,0,0,0,-1,2036,1730,0,0
-700,-713,0,0,0,0,0,0,0,0,0,-1,524,1737,0,0
-693,-713,0,0,0,0,0,0,0,0,0,-1,531,1737,0,0
-686,-713,0,0,0,0,0,0,0,0,0,-1,538,1737,0,0
-679,-713,0,0,0,0,0,0,0,0,0,-1,545,1737,0,0
-672,-713,0,0,0,0,0,0,0,0,0,-1,552,1737,0,0
-665,-713,0,0,0,0,0,0,0,0,0,-1,559,1737,0,0
-658,-713,0,0,0,0,0,0,0,0,0,-1,566,1737,0,0
-651,-713,0,0,0,0,0,0,0,0,0,-1,573,1737,0,0
-644,-713,0,0,0,0,0,0,0,0,0,-1,580,1737,0,0
-637,-713,0,0,0,0,0,0,0,0,0,-1,587,1737,0,0
-630,-713,0,0,0,0,0,0,0,0,0,-1,594,1737,0,0
-623,-713,0,0,0,0,0,0,0,0,0,-1,601,1737,0,0
-616,-713,0,0,0,0,0,0,0,0,0,-1,608,1737,0,0
-609,-713,0,0,0,0,0,0,0,0,0,-1,615,1737,0,0
-602,-713,0,0,0,0,0,0,0,0,0,-1,622,1737,0,0
-595,-713,0,0,0,0,0,0,0,0,0,-1,629,1737,0,0
-588,-713,0,0,0,0,0,0,0,0,0,-1,636,1737,0,0
-581,-713,0,0,0,0,0,0,0,0,0,-1,643,1737,0,0
-574,-713,0,0,0,0,0,0,0,0,0,-1,650,1737,0,0
-567,-713,0,0,0,0,0,0,0,0,0,-1,657,1737,0,0
-560,-713,0,0,0,0,0,0,0,0,0,-1,664,1737,0,0
-553,-713,0,0,0,0,0,0,0,0,0,-1,671,1737,0,0
-546,-713,0,0,0,0,0,0,0,0,0,-1,678,1737,0,0
-539,-713,0,0,0,0,0,0,0,0,0,-1,685,1737,0,0
-532,-713,0,0,0,0,0,0,0,0,0,-1,692,1737,0,0
-525,-713,0,0,0,0,0,0,0,0,0,-1,699,1737,0,0
-518,-713,0,0,0,0,0,0,0,0,0,-1,706,1737,0,0
-511,-713,0,0,0,0,0,0,0,0,0,-1,713,1737,0,0
-504,-713,0,0,0,0,0,0,0,0,0,-1,720,1737,0,0
-497,-713,0,0,0,0,0,0,0,0,0,-1,727,1737,0,0
-490,-713,0,0,0,0,0,0,0,0,0,-1,734,1737,0,0
-483,-713,0,0,0,0,0,0,0,0,0,-1,741,1737,0,0
-476,-713,0,0,0,0,0,0,0,0,0,-1,748,1737,0,0
-469,-713,0,0,0,0,0,0,0,0,0,-1,755,1737,0,0
-462,-713,0,0,0,0,0,0,0,0,0,-1,762,1737,0,0
-455,-713,0,0,0,0,0,0,0,0,0,-1,769,1737,0,0
-448,-713,0,0,0,0,0,0,0,0,0,-1,776,1737,0,0
-441,-713,0,0,0,0,0,0,0,0,0,-1,783,1737,0,0
-434,-713,0,0,0,0,0,0,0,0,0,-1,790,1737,0,0
-427,-713,0,0,0,0,0,0,0,0,0,-1,797,1737,0,0
-420,-713,0,0,0,0,0,0,0,0,0,-1,804,1737,0,0
-413,-713,0,0,0,0,0,0,0,0,0,-1,811,1737,0,0
-406,-713,0,0,0,0,0,0,0,0,0,-1,818,1737,0,0
-399,-713,0,0,0,0,0,0,0,0,0,-1,825,1737,0,0
-392,-713,0,0,0,0,0,0,0,0,0,-1,832,1737,0,0
-385,-713,0,0,0,0,0,0,0,0,0,-1,839,1737,0,0
-378,-713,0,0,0,0,0,0,0,0,0,-1,846,1737,0,0
-371,-713,0,0,0,0,0,0,0,0,0,-1,853,1737,0,0
-364,-713,0,0,0,0,0,0,0,0,0,-1,860,1737,0,0
-357,-713,0,0,0,0,0,0,0,0,0,-1,867,1737,0,0
-350,-713,0,0,0,0,0,0,0,0,0,-1,874,1737,0,0
-343,-713,0,0,0,0,0,0,0,0,0,-1,881,1737,0,0
-336,-713,0,0,0,0,0,0,0,0,0,-1,888,1737,0,0
-329,-713,0,0,0,0,0,0,0,0,0,-1,895,1737,0,0
-322,-713,0,0,0,0,0,0,0,0,0,-1,902,1737,0,0
-315,-713,0,0,0,0,0,0,0,0,0,-1,909,1737,0,0
-308,-713,0,0,0,0,0,0,0,0,0,-1,916,1737,0,0
-301,-713,0,0,0,0,0,0,0,0,0,-1,923,1737,0,0
-294,-713,7.17883,22.0453,0,0,0,0,0,0,0,-1,930,1737,7.17881,-22.0453
-287,-713,11.8916,21.5834,0,0,0,0,0,0,0,-1,937,1737,11.8916,-21.5833
-280,-713,10.2786,21.3551,0,0,0,0,0,0,0,-1,944,1737,10.2787,-21.3551
-273,-713,11.1981,23.8683,0,0,0,0,0,0,0,-1,951,1737,11.198,-23.8683
-266,-713,3.17981,19.8851,0,0,0,0,0,0,0,-1,958,1737,3.17983,-19.8851
-259,-713,3.5921,19.6868,0,0,0,0,0,0,0,-1,965,1737,3.59207,-19.6868
-252,-713,4.55469,20.5758,0,0,0,0,0,0,0,-1,972,1737,4.55466,-20.5758
-245,-713,3.89014,25.9825,0,0,0,0,0,0,0,-1,979,1737,3.89013,-25.9826
-238,-713,5.06873,23.7134,0,0,0,0,0,0,0,-1,986,1737,5.06872,-23.7133
-231,-713,8.19263,24.1144,0,0,0,0,0,0,0,-1,993,1737,8.19264,-24.1144
-224,-713,7.20367,25.8557,0,0,0,0,0,0,0,-1,1000,1737,7.20365,-25.8558
-217,-713,7.37469,26.0076,0,0,0,0,0,0,0,-1,1007,1737,7.37472,-26.0075
-210,-713,7.83002,26.207,0,0,0,0,0,0,0,-1,1014,1737,7.83001,-26.2071
-203,-713,7.06274,26.8904,0,0,0,0,0,0,0,-1,1021,1737,7.06274,-26.8904
-196,-713,7.02698,27.2977,0.00146457,-0.00558155,0.000615267,0.00151789,-0.00563487,0.0864481,0.0043517,0.0458989,1028,1737,7.02696,-27.2977
-189,-713,7.02344,27.5682,0.00197954,-0.00597925,0.00157038,0.00227819,-0.0062779,0.187934,0.00511661,0.04227,1035,1737,7.02343,-27.5682
-182,-713,6.8949,27.6917,0.00207139,-0.00606293,0.00190798,0.00249669,-0.00648823,0.21932,0.00535536,0.0285948,1042,1737,6.89485,-27.6916
-175,-713,7.01196,27.85,0.00164013,-0.00522882,0.00203456,0.00219753,-0.00578622,0.267404,0.00476211,0.0277292,1049,1737,7.01191,-27.85
-168,-713,6.99817,28.2386,0,0,0,0,0,0,0,-1,1056,1737,6.99821,-28.2387
-161,-713,6.974,28.4515,0.000955739,-0.00426061,0.0020393,0.00165835,-0.00496322,0.3318,0.00397852,0.0185908,1063,1737,6.974,-28.4515
-154,-713,6.89282,28.699,0.000779925,-0.003557,0.00194069,0.00152154,-0.00429861,0.365012,0.00348544,0.012862,1070,1737,6.89283,-28.699
-147,-713,6.88135,28.9482,0.000636337,-0.00227741,0.00160801,0.00134929,-0.00299037,0.417335,0.00256452,0.0177519,1077,1737,6.8813,-28.9483
-140,-713,6.89697,29.1957,0.000275616,-0.00103992,0.00130814,0.00108205,-0.00184636,0.552445,0.0017098,0.0161241,1084,1737,6.89698,-29.1956
-133,-713,6.85938,29.3801,-6.33592e-05,4.46463e-05,0.00110891,0.00110086,-0.00111958,0.809729,0.00128199,0.0100497,1091,1737,6.85938,-29.3802
-126,-713,6.854,29.5555,-0.000462165,0.00108067,0.000804219,0.00142363,-0.000805133,1.16769,0.00130319,0.0164871,1098,1737,6.85401,-29.5555
-119,-713,6.86487,29.761,-0.00074878,0.00200037,0.000638582,0.00214146,-0.000889871,1.35335,0.00179918,0.0266847,1105,1737,6.86486,-29.761
-112,-713,6.80371,29.9684,-0.000788978,0.00252485,0.000583381,0.00262455,-0.00088868,1.40153,0.00210928,0.0139982,1112,1737,6.80371,-29.9684
-105,-713,6.81384,30.1525,-0.000842412,0.00285571,0.000478795,0.00291669,-0.000903395,1.44411,0.00230537,0.0104126,1119,1737,6.81389,-30.1525
-98,-713,6.84595,30.3318,-0.000741216,0.0030342,0.000476837,0.00309349,-0.000800509,1.44708,0.00237458,0.00950659,1126,1737,6.84598,-30.3318
-91,-713,6.81592,30.4955,-0.000535375,0.00309285,0.000474567,0.0031539,-0.000596421,1.44286,0.00232702,0.010175,1133,1737,6.81592,-30.4955
-84,-713,6.78308,30.668,-0.000356177,0.00294026,0.000432878,0.00299615,-0.000412074,1.44238,0.00214801,0.00929309,1140,1737,6.78304,-30.668
-77,-713,6.78491,30.8436,2.46989e-05,0.00279147,0.000361946,0.00283804,-2.18666e-05,1.44285,0.00189936,0.0129252,1147,1737,6.78487,-30.8437
-70,-713,6.7887,30.9978,0.00038861,0.00241333,0.000205947,0.00243407,0.000367874,1.47045,0.00151505,0.0148408,1154,1737,6.78867,-30.9978
-63,-713,6.80225,31.1483,0.000669853,0.00177068,0.000336116,0.00186519,0.000575341,1.29669,0.00110289,0.0128108,1161,1737,6.8023,-31.1483
-56,-713,6.81567,31.2745,0.00100981,0.00140991,0.000586344,0.00182939,0.000590327,0.9498,0.00107811,0.0129591,1168,1737,6.81564,-31.2746
-49,-713,6.79785,31.3872,0.00138166,0.00144521,0.00131483,0.00272865,9.82176e-05,0.797481,0.00178726,0.0151321,1175,1737,6.79789,-31.3872
-42,-713,6.8075,31.5123,0.00203501,0.00149325,0.00219729,0.00397806,-0.000449797,0.724069,0.00281398,0.0183865,1182,1737,6.80755,-31.5123
-35,-713,6.83118,31.6002,0.00286131,0.00169305,0.00315234,0.00548318,-0.000928828,0.693787,0.00400116,0.0153223,1189,1737,6.8312,-31.6003
-28,-713,6.84485,31.7148,0.00354333,0.00205805,0.00412778,0.00699474,-0.00139337,0.696394,0.00519034,0.0126341,1196,1737,6.84484,-31.7148
-21,-713,6.84863,31.8264,0.00403495,0.00254661,0.00514611,0.00849042,-0.00190886,0.713592,0.00639228,0.00922421,1203,1737,6.84866,-31.8264
-14,-713,6.85803,31.9126,0.00455241,0.00314291,0.00614501,0.010033,-0.00233764,0.728304,0.00758883,0.0105415,1210,1737,6.85804,-31.9126
-7,-713,6.87219,32.0085,0.00502364,0.00409212,0.0069413,0.0115148,-0.00239903,0.751898,0.00858863,0.00955955,1217,1737,6.87219,-32.0086
0,-713,6.89221,32.0873,0.00534636,0.00525794,0.00756874,0.012871,-0.00226672,0.782477,0.00942753,0.0151322,1224,1737,6.89221,-32.0873
7,-713,6.9137,32.1334,0.00540839,0.00648198,0.00794897,0.0139123,-0.00202189,0.819112,0.0100171,0.0177075,1231,1737,6.91366,-32.1334
14,-713,6.92981,32.1947,0.00532662,0.00755669,0.00797546,0.0144947,-0.00161137,0.854852,0.0102426,0.0116433,1238,1737,6.92975,-32.1947
21,-713,6.92139,32.2743,0.00518111,0.00849792,0.00769217,0.0147084,-0.0010294,0.891571,0.0101661,0.0100199,1245,1737,6.92136,-32.2743
28,-713,6.9126,32.3369,0.00489267,0.00925017,0.00723069,0.0146232,-0.000480394,0.931732,0.00991284,0.0113048,1252,1737,6.91258,-32.3369
35,-713,6.93628,32.3721,0.00459023,0.00977404,0.00657924,0.0142535,0.000110755,0.973039,0.00946564,0.0108641,1259,1737,6.93633,-32.3721
42,-713,6.97119,32.4227,0.00424058,0.0102502,0.00584684,0.0138191,0.000671613,1.02276,0.00899725,0.0106534,1266,1737,6.97114,-32.4227
49,-713,6.98853,32.4242,0.00382647,0.0102819,0.00504731,0.0130453,0.00106307,1.06988,0.00836507,0.0107104,1273,1737,6.98849,-32.4242
56,-713,7.00647,32.4319,0.00338026,0.00996076,0.00409377,0.0119226,0.0014184,1.1239,0.00752034,0.0107166,1280,1737,7.00645,-32.4319
63,-713,7.02173,32.4396,0.00291318,0.00952572,0.00339973,0.0109618,0.00147713,1.17113,0.00686862,0.0113261,1287,1737,7.02175,-32.4395
70,-713,7.02991,32.4406,0.00241577,0.00884967,0.00276782,0.0098765,0.00138895,1.21555,0.00617365,0.0116483,1294,1737,7.02995,-32.4405
77,-713,7.03711,32.4481,0.00200651,0.00774199,0.00207939,0.00841654,0.00133197,1.25711,0.00522395,0.0115085,1301,1737,7.03717,-32.4481
84,-713,7.06799,32.4543,0.00167527,0.00635304,0.00138731,0.00673353,0.00129478,1.30311,0.00412572,0.0108517,1308,1737,7.06803,-32.4543
91,-713,7.08008,32.4534,0.00127323,0.00495888,0.000810073,0.00512907,0.00110304,1.36372,0.00311744,0.0107936,1315,1737,7.08003,-32.4534
98,-713,7.08752,32.4103,0.000866216,0.00353895,0.000352738,0.00358472,0.000820447,1.44176,0.00216869,0.0109488,1322,1737,7.08751,-32.4103
105,-713,7.10828,32.3834,0.00050419,0.00213123,-0.000217893,0.0021599,0.000475516,-1.43995,0.00131051,0.013589,1329,1737,7.10833,-32.3834
112,-713,7.1283,32.3762,0.000307482,0.000771565,-0.000808304,0.00138047,-0.000301427,-0.925175,0.00103552,0.0140809,1336,1737,7.12825,-32.3763
119,-713,7.14771,32.3275,3.27572e-06,-0.000418324,-0.0013635,0.00117218,-0.00158723,-0.708705,0.00159914,0.0144101,1343,1737,7.14773,-32.3275
126,-713,7.15234,32.2698,-0.000280525,-0.00151282,-0.00184597,0.00104941,-0.00284275,-0.624321,0.00232529,0.0130953,1350,1737,7.15229,-32.2698
133,-713,7.15967,32.182,-0.000340014,-0.0022888,-0.00218384,0.00107695,-0.00370576,-0.575561,0.002897,0.0116983,1357,1737,7.15966,-32.182
140,-713,7.19531,32.0844,-0.000283252,-0.00265851,-0.00233601,0.00114969,-0.00409145,-0.550225,0.00318089,0.0125435,1364,1737,7.19535,-32.0843
147,-713,7.22034,31.9951,-0.000139934,-0.00282334,-0.00229979,0.00118092,-0.00414419,-0.521335,0.00322923,0.0133111,1371,1737,7.22034,-31.9951
154,-713,7.20898,31.9374,7.80926e-05,-0.00262608,-0.00196063,0.00110764,-0.00365563,-0.483536,0.00287824,0.0141839,1378,1737,7.20898,-31.9374
161,-713,7.2019,31.8444,0.000302951,-0.00225542,-0.00154773,0.00103169,-0.00298416,-0.440054,0.00240817,0.0107804,1385,1737,7.20196,-31.8444
168,-713,7.21643,31.7411,0.000437263,-0.00160335,-0.00122534,0.00101147,-0.00217756,-0.438223,0.00188177,0.00959139,1392,1737,7.21648,-31.7411
175,-713,7.22961,31.6246,0.000526837,-0.00082735,-0.000832967,0.000923191,-0.0012237,-0.444128,0.00124355,0.0120524,1399,1737,7.22962,-31.6246
182,-713,7.23669,31.5135,0.000571324,-4.41915e-05,-0.000423546,0.000787118,-0.000259985,-0.471213,0.000629562,0.010695,1406,1737,7.23669,-31.5136
189,-713,7.24487,31.387,0.000484302,0.000659081,-3.96325e-05,0.000667648,0.000475735,-1.35791,0.000396907,0.0109626,1413,1737,7.24489,-31.387
196,-713,7.25342,31.2601,0.000333467,0.00115198,2.12802e-05,0.00115254,0.000332914,1.54482,0.00068491,0.0123169,1420,1737,7.25338,-31.2602
203,-713,7.24475,31.1389,0.000167769,0.00153532,-0.000197783,0.00156335,0.000139739,-1.43001,0.000998918,0.0160546,1427,1737,7.2447,-31.1389
210,-713,7.23376,31.0018,7.40469e-05,0.00191094,-0.000376697,0.00198519,-2.0233e-07,-1.37619,0.00132353,0.0132246,1434,1737,7.23378,-31.0019
217,-713,7.24829,30.8575,-1.42921e-05,0.00224059,-0.000629832,0.00240458,-0.000178289,-1.31607,0.00166567,0.0103489,1441,1737,7.24835,-30.8575
224,-713,7.23572,30.7062,1.16138e-05,0.00258952,-0.000880636,0.00286163,-0.000260497,-1.27111,0.00200025,0.0106513,1448,1737,7.23567,-30.7062
231,-713,7.24072,30.5284,2.00923e-05,0.00289318,-0.0011011,0.00326663,-0.000353358,-1.24381,0.00230459,0.0107625,1455,1737,7.24067,-30.5285
238,-713,7.23511,30.35,0.000150423,0.00317272,-0.00127057,0.00363589,-0.000312742,-1.22123,0.00253461,0.00899605,1462,1737,7.23508,-30.35
245,-713,7.23926,30.1892,0.000358361,0.00339096,-0.00146489,0.003983,-0.000233673,-1.18672,0.00273655,0.0115225,1469,1737,7.23922,-30.1892
252,-713,7.23914,30.0103,0.000463767,0.00349135,-0.00161604,0.00419187,-0.00023675,-1.16177,0.00287674,0.0114986,1476,1737,7.23914,-30.0102
259,-713,7.25671,29.8123,0.000449824,0.00340603,-0.0017041,0.00418376,-0.0003279,-1.14265,0.00290465,0.0119847,1483,1737,7.25675,-29.8123
266,-713,7.23413,29.6453,0.000324905,0.00346493,-0.00179111,0.00427673,-0.000486892,-1.14525,0.00302653,0.0112683,1490,1737,7.23418,-29.6452
273,-713,7.20508,29.4613,0.000228406,0.00377236,-0.0019285,0.00461935,-0.000618589,-1.15696,0.00330512,0.00902396,1497,1737,7.20511,-29.4613
280,-713,7.172,29.2463,0.000143031,0.00389931,-0.00207171,0.00481748,-0.000775145,-1.15361,0.00349878,0.00952684,1504,1737,7.17199,-29.2463
287,-713,7.15002,29.04,-2.07073e-05,0.00438114,-0.00225385,0.00533044,-0.000970006,-1.17216,0.0039172,0.0105405,1511,1737,7.15006,-29.04
294,-713,7.1676,28.8455,-0.000191562,0.00475698,-0.00238798,0.00572138,-0.00115596,-1.18697,0.00425228,0.0177384,1518,1737,7.16757,-28.8454
301,-713,7.19141,28.6375,-0.000450191,0.00521056,-0.00252774,0.00617498,-0.00141461,-1.20631,0.00466032,0.0215685,1525,1737,7.19143,-28.6375
308,-713,7.19531,28.4061,-0.000858214,0.00570226,-0.0027318,0.00669083,-0.00184678,-1.22358,0.00518692,0.022165,1532,1737,7.19534,-28.4061
315,-713,7.12756,28.1073,-0.00114961,0.00636548,-0.00297173,0.00739858,-0.00218271,-1.23622,0.00579855,0.0291042,1539,1737,7.12759,-28.1073
322,-713,7.2428,27.6331,-0.0013147,0.0072318,-0.00331471,0.00836669,-0.00244958,-1.24093,0.00654885,0.0393239,1546,1737,7.24283,-27.6331
329,-713,7.34326,27.6494,-0.00154413,0.00785869,-0.00343553,0.00898017,-0.00266562,-1.25526,0.00704547,0.0482006,1553,1737,7.3432,-27.6495
336,-713,7.37927,27.4231,0,0,0,0,0,0,0,-1,1560,1737,7.37932,-27.423
343,-713,6.72449,27.2479,0,0,0,0,0,0,0,-1,1567,1737,6.72454,-27.2479
350,-713,6.81262,26.9888,0,0,0,0,0,0,0,-1,1574,1737,6.81265,-26.9888
357,-713,6.8197,26.0476,0,0,0,0,0,0,0,-1,1581,1737,6.81968,-26.0477
364,-713,7.35474,20.9537,0,0,0,0,0,0,0,-1,1588,1737,7.35472,-20.9537
371,-713,3.07507,25.4108,0,0,0,0,0,0,0,-1,1595,1737,3.07502,-25.4107
378,-713,4.21838,25.306,0,0,0,0,0,0,0,-1,1602,1737,4.21837,-25.306
385,-713,5.078,25.3104,0,0,0,0,0,0,0,-1,1609,1737,5.07795,-25.3104
392,-713,5.92114,25.3118,0,0,0,0,0,0,0,-1,1616,1737,5.92112,-25.3118
399,-713,3.14368,25.2808,0,0,0,0,0,0,0,-1,1623,1737,3.14369,-25.2808
406,-713,1.82678,26.7354,0,0,0,0,0,0,0,-1,1630,1737,1.82679,-26.7354
413,-713,3.24731,18.2787,0,0,0,0,0,0,0,-1,1637,1737,3.24726,-18.2787
420,-713,0,0,0,0,0,0,0,0,0,-1,1644,1737,0,0
427,-713,0,0,0,0,0,0,0,0,0,-1,1651,1737,0,0
434,-713,0,0,0,0,0,0,0,0,0,-1,1658,1737,0,0
441,-713,0,0,0,0,0,0,0,0,0,-1,1665,1737,0,0
448,-713,0,0,0,0,0,0,0,0,0,-1,1672,1737,0,0
455,-713,0,0,0,0,0,0,0,0,0,-1,1679,1737,0,0
462,-713,0,0,0,0,0,0,0,0,0,-1,1686,1737,0,0
469,-713,0,0,0,0,0,0,0,0,0,-1,1693,1737,0,0
476,-713,0,0,0,0,0,0,0,0,0,-1,1700,1737,0,0
483,-713,0,0,0,0,0,0,0,0,0,-1,1707,1737,0,0
490,-713,0,0,0,0,0,0,0,0,0,-1,1714,1737,0,0
497,-713,0,0,0,0,0,0,0,0,0,-1,1721,1737,0,0
504,-713,0,0,0,0,0,0,0,0,0,-1,1728,1737,0,0
511,-713,0,0,0,0,0,0,0,0,0,-1,1735,1737,0,0
518,-713,0,0,0,0,0,0,0,0,0,-1,1742,1737,0,0
525,-713,0,0,0,0,0,0,0,0,0,-1,1749,1737,0,0
532,-713,0,0,0,0,0,0,0,0,0,-1,1756,1737,0,0
539,-713,0,0,0,0,0,0,0,0,0,-1,1763,1737,0,0
546,-713,0,0,0,0,0,0,0,0,0,-1,1770,1737,0,0
553,-713,0,0,0,0,0,0,0,0,0,-1,1777,1737,0,0
560,-713,0,0,0,0,0,0,0,0,0,-1,1784,1737,0,0
567,-713,0,0,0,0,0,0,0,0,0,-1,1791,1737,0,0
574,-713,0,0,0,0,0,0,0,0,0,-1,1798,1737,0,0
581,-713,0,0,0,0,0,0,0,0,0,-1,1805,1737,0,0
588,-713,0,0,0,0,0,0,0,0,0,-1,1812,1737,0,0
595,-713,0,0,0,0,0,0,0,0,0,-1,1819,1737,0,0
602,-713,0,0,0,0,0,0,0,0,0,-1,1826,1737,0,0
609,-713,0,0,0,0,0,0,0,0,0,-1,1833,1737,0,0
616,-713,0,0,0,0,0,0,0,0,0,-1,1840,1737,0,0
623,-713,0,0,0,0,0,0,0,0,0,-1,1847,1737,0,0
630,-713,0,0,0,0,0,0,0,0,0,-1,1854,1737,0,0
637,-713,0,0,0,0,0,0,0,0,0,-1,1861,1737,0,0
644,-713,0,0,0,0,0,0,0,0,0,-1,1868,1737,0,0
651,-713,0,0,0,0,0,0,0,0,0,-1,1875,1737,0,0
658,-713,0,0,0,0,0,0,0,0,0,-1,1882,1737,0,0
665,-713,0,0,0,0,0,0,0,0,0,-1,1889,1737,0,0
672,-713,0,0,0,0,0,0,0,0,0,-1,1896,1737,0,0
679,-713,0,0,0,0,0,0,0,0,0,-1,1903,1737,0,0
686,-713,0,0,0,0,0,0,0,0,0,-1,1910,1737,0,0
693,-713,0,0,0,0,0,0,0,0,0,-1,1917,1737,0,0
700,-713,0,0,0,0,0,0,0,0,0,-1,1924,1737,0,0
707,-713,0,0,0,0,0,0,0,0,0,-1,1931,1737,0,0
714,-713,0,0,0,0,0,0,0,0,0,-1,1938,1737,0,0
721,-713,0,0,0,0,0,0,0,0,0,-1,1945,1737,0,0
728,-713,0,0,0,0,0,0,0,0,0,-1,1952,1737,0,0
735,-713,0,0,0,0,0,0,0,0,0,-1,1959,1737,0,0
742,-713,0,0,0,0,0,0,0,0,0,-1,1966,1737,0,0
749,-713,0,0,0,0,0,0,0,0,0,-1,1973,1737,0,0
756,-713,0,0,0,0,0,0,0,0,0,-1,1980,1737,0,0
763,-713,0,0,0,0,0,0,0,0,0,-1,1987,1737,0,0
770,-713,0,0,0,0,0,0,0,0,0,-1,1994,1737,0,0
777,-713,0,0,0,0,0,0,0,0,0,-1,2001,1737,0,0
784,-713,0,0,0,0,0,0,0,0,0,-1,2008,1737,0,0
791,-713,0,0,0,0,0,0,0,0,0,-1,2015,1737,0,0
798,-713,0,0,0,0,0,0,0,0,0,-1,2022,1737,0,0
805,-713,0,0,0,0,0,0,0,0,0,-1,2029,1737,0,0
812,-713,0,0,0,0,0,0,0,0,0,-1,2036,1737,0,0
-700,-720,0,0,0,0,0,0,0,0,0,-1,524,1744,0,0
-693,-720,0,0,0,0,0,0,0,0,0,-1,531,1744,0,0
-686,-720,0,0,0,0,0,0,0,0,0,-1,538,1744,0,0
-679,-720,0,0,0,0,0,0,0,0,0,-1,545,1744,0,0
-672,-720,0,0,0,0,0,0,0,0,0,-1,552,1744,0,0
-665,-720,0,0,0,0,0,0,0,0,0,-1,559,1744,0,0
-658,-720,0,0,0,0,0,0,0,0,0,-1,566,1744,0,0
-651,-720,0,0,0,0,0,0,0,0,0,-1,573,1744,0,0
-644,-720,0,0,0,0,0,0,0,0,0,-1,580,1744,0,0
-637,-720,0,0,0,0,0,0,0,0,0,-1,587,1744,0,0
-630,-720,0,0,0,0,0,0,0,0,0,-1,594,1744,0,0
-623,-720,0,0,0,0,0,0,0,0,0,-1,601,1744,0,0
-616,-720,0,0,0,0,0,0,0,0,0,-1,608,1744,0,0
-609,-720,0,0,0,0,0,0,0,0,0,-1,615,1744,0,0
-602,-720,0,0,0,0,0,0,0,0,0,-1,622,1744,0,0
-595,-720,0,0,0,0,0,0,0,0,0,-1,629,1744,0,0
-588,-720,0,0,0,0,0,0,0,0,0,-1,636,1744,0,0
-581,-720,0,0,0,0,0,0,0,0,0,-1,643,1744,0,0
-574,-720,0,0,0,0,0,0,0,0,0,-1,650,1744,0,0
-567,-720,0,0,0,0,0,0,0,0,0,-1,657,1744,0,0
-560,-720,0,0,0,0,0,0,0,0,0,-1,664,1744,0,0
-553,-720,0,0,0,0,0,0,0,0,0,-1,671,1744,0,0
-546,-720,0,0,0,0,0,0,0,0,0,-1,678,1744,0,0
-539,-720,0,0,0,0,0,0,0,0,0,-1,685,1744,0,0
-532,-720,0,0,0,0,0,0,0,0,0,-1,692,1744,0,0
-525,-720,0,0,0,0,0,0,0,0,0,-1,699,1744,0,0
-518,-720,0,0,0,0,0,0,0,0,0,-1,706,1744,0,0
-511,-720,0,0,0,0,0,0,0,0,0,-1,713,1744,0,0
-504,-720,0,0,0,0,0,0,0,0,0,-1,720,1744,0,0
-497,-720,0,0,0,0,0,0,0,0,0,-1,727,1744,0,0
-490,-720,0,0,0,0,0,0,0,0,0,-1,734,1744,0,0
-483,-720,0,0,0,0,0,0,0,0,0,-1,741,1744,0,0
-476,-720,0,0,0,0,0,0,0,0,0,-1,748,1744,0,0
-469,-720,0,0,0,0,0,0,0,0,0,-1,755,1744,0,0
-462,-720,0,0,0,0,0,0,0,0,0,-1,762,1744,0,0
-455,-720,0,0,0,0,0,0,0,0,0,-1,769,1744,0,0
-448,-720,0,0,0,0,0,0,0,0,0,-1,776,1744,0,0
-441,-720,0,0,0,0,0,0,0,0,0,-1,783,1744,0,0
-434,-720,0,0,0,0,0,0,0,0,0,-1,790,1744,0,0
-427,-720,0,0,0,0,0,0,0,0,0,-1,797,1744,0,0
-420,-720,0,0,0,0,0,0,0,0,0,-1,804,1744,0,0
-413,-720,0,0,0,0,0,0,0,0,0,-1,811,1744,0,0
-406,-720,0,0,0,0,0,0,0,0,0,-1,818,1744,0,0
-399,-720,0,0,0,0,0,0,0,0,0,-1,825,1744,0,0
-392,-720,0,0,0,0,0,0,0,0,0,-1,832,1744,0,0
-385,-720,0,0,0,0,0,0,0,0,0,-1,839,1744,0,0
-378,-720,0,0,0,0,0,0,0,0,0,-1,846,1744,0,0
-371,-720,0,0,0,0,0,0,0,0,0,-1,853,1744,0,0
-364,-720,0,0,0,0,0,0,0,0,0,-1,860,1744,0,0
-357,-720,0,0,0,0,0,0,0,0,0,-1,867,1744,0,0
-350,-720,0,0,0,0,0,0,0,0,0,-1,874,1744,0,0
-343,-720,0,0,0,0,0,0,0,0,0,-1,881,1744,0,0
-336,-720,0,0,0,0,0,0,0,0,0,-1,888,1744,0,0
-329,-720,0,0,0,0,0,0,0,0,0,-1,895,1744,0,0
-322,-720,0,0,0,0,0,0,0,0,0,-1,902,1744,0,0
-315,-720,0,0,0,0,0,0,0,0,0,-1,909,1744,0,0
-308,-720,0,0,0,0,0,0,0,0,0,-1,916,1744,0,0
-301,-720,0,0,0,0,0,0,0,0,0,-1,923,1744,0,0
-294,-720,0,0,0,0,0,0,0,0,0,-1,930,1744,0,0
-287,-720,0,0,0,0,0,0,0,0,0,-1,937,1744,0,0
-280,-720,6.46796,22.6417,0,0,0,0,0,0,0,-1,944,1744,6.46793,-22.6417
-273,-720,8.54633,13.262,0,0,0,0,0,0,0,-1,951,1744,8.54636,-13.2619
-266,-720,7.28027,13.3165,0,0,0,0,0,0,0,-1,958,1744,7.28026,-13.3166
-259,-720,3.70563,18.6372,0,0,0,0,0,0,0,-1,965,1744,3.70564,-18.6372
-252,-720,4.00989,18.5059,0,0,0,0,0,0,0,-1,972,1744,4.00988,-18.5058
-245,-720,4.63318,20.3199,0,0,0,0,0,0,0,-1,979,1744,4.6332,-20.32
-238,-720,5.02216,24.1455,0,0,0,0,0,0,0,-1,986,1744,5.02217,-24.1455
-231,-720,6.34106,21.7759,0,0,0,0,0,0,0,-1,993,1744,6.34103,-21.7758
-224,-720,7.65991,19.4061,0,0,0,0,0,0,0,-1,1000,1744,7.6599,-19.4061
-217,-720,6.88,25.8169,0,0,0,0,0,0,0,-1,1007,1744,6.88,-25.8168
-210,-720,8.34711,25.9569,0,0,0,0,0,0,0,-1,1014,1744,8.34711,-25.9569
-203,-720,5.97998,25.9202,0,0,0,0,0,0,0,-1,1021,1744,5.97995,-25.9202
-196,-720,7.25891,27.3967,0,0,0,0,0,0,0,-1,1028,1744,7.25897,-27.3968
-189,-720,6.65967,27.4872,0,0,0,0,0,0,0,-1,1035,1744,6.65967,-27.4871
-182,-720,6.92188,27.9043,0.00375942,-0.00857329,0.0028381,0.0043812,-0.00919507,0.215675,0.00800082,0.0467521,1042,1744,6.92192,-27.9043
-175,-720,7.04016,28.1897,0.0028283,-0.00714837,0.00297771,0.00364946,-0.00796953,0.269082,0.00686105,0.0452005,1049,1744,7.04019,-28.1897
-168,-720,6.99426,28.3008,0,0,0,0,0,0,0,-1,1056,1744,6.99423,-28.3008
-161,-720,6.89783,28.4666,0.00157685,-0.00549937,0.00282786,0.00256809,-0.00649061,0.337144,0.005391,0.0408375,1063,1744,6.89785,-28.4665
-154,-720,7.17725,28.7847,0.0011362,-0.00453256,0.00263314,0.00217056,-0.00556692,0.374305,0.00460846,0.0330713,1070,1744,7.1773,-28.7846
-147,-720,7.10059,29.0776,0.000730553,-0.00291887,0.00217454,0.00174453,-0.00393285,0.436324,0.00335802,0.0284968,1077,1744,7.1006,-29.0777
-140,-720,7.10852,29.269,9.6133e-05,-0.00141655,0.00177021,0.00126481,-0.00258523,0.583506,0.00226597,0.0211205,1084,1744,7.10849,-29.269
-133,-720,7.06604,29.395,-0.000473006,-0.00015963,0.00149931,0.00119116,-0.00182379,0.837463,0.00175341,0.0135113,1091,1744,7.06601,-29.395
-126,-720,7.04395,29.579,-0.00110226,0.00102537,0.00110112,0.00149262,-0.00156951,1.16948,0.00176811,0.0128484,1098,1744,7.04396,-29.5789
-119,-720,7.01221,29.7563,-0.00156355,0.00210091,0.000894643,0.00230766,-0.00177031,1.34368,0.00236122,0.0148894,1105,1744,7.01226,-29.7563
-112,-720,6.99414,29.9397,-0.0016929,0.00270463,0.000851636,0.0028638,-0.00185207,1.38603,0.00274351,0.0138376,1112,1744,6.9942,-29.9397
-105,-720,6.99768,30.1235,-0.00184295,0.00313761,0.000756259,0.00324991,-0.00195525,1.42338,0.00303603,0.0123816,1119,1744,6.99771,-30.1235
-98,-720,7.00647,30.3141,-0.00178211,0.00343085,0.000788815,0.0035476,-0.00189885,1.42386,0.00319218,0.00974703,1126,1744,7.00651,-30.3141
-91,-720,6.97229,30.4939,-0.00157294,0.00363456,0.000818227,0.0037601,-0.00169847,1.41856,0.00322556,0.00955331,1133,1744,6.97235,-30.4939
-84,-720,6.95752,30.683,-0.00146162,0.00353985,0.00079513,0.00366322,-0.00158498,1.41687,0.00310823,0.00984039,1140,1744,6.95753,-30.6829
-77,-720,6.95947,30.8567,-0.00103287,0.00343312,0.000825828,0.00358093,-0.00118068,1.39368,0.00286318,0.0124206,1147,1744,6.95942,-30.8567
-70,-720,6.94775,30.9908,-0.000552019,0.00309636,0.000716213,0.00323193,-0.000687581,1.38373,0.00241664,0.0113474,1154,1744,6.94772,-30.9909
-63,-720,6.92944,31.1329,-0.000417921,0.00243789,0.000494414,0.00252106,-0.000501095,1.40413,0.00187025,0.0101202,1161,1744,6.9295,-31.1329
-56,-720,6.95032,31.276,-0.000226536,0.00187089,0.00032523,0.00192016,-0.000275809,1.42044,0.00138125,0.0125998,1168,1744,6.95032,-31.276
-49,-720,6.91443,31.4028,-4.08648e-05,0.00138829,0.00025959,0.00143398,-8.65557e-05,1.39657,0.000986106,0.0194111,1175,1744,6.91438,-31.4028
-42,-720,6.92151,31.5087,0.000294621,0.00106456,0.000359223,0.00120613,0.000153052,1.19539,0.000758235,0.0221257,1182,1744,6.92151,-31.5086
-35,-720,6.95874,31.6073,0.000819941,0.000877766,0.00058163,0.0014312,0.000266505,0.810233,0.000878874,0.0190645,1189,1744,6.95871,-31.6073
-28,-720,6.95654,31.7212,0.00133349,0.000847305,0.000915797,0.00203791,0.000142885,0.655669,0.00131357,0.0105636,1196,1744,6.95657,-31.7212
-21,-720,6.94324,31.8398,0.00176453,0.000940769,0.00143075,0.0028415,-0.0001362,0.645248,0.00194133,0.00870682,1203,1744,6.94319,-31.8399
-14,-720,6.93738,31.9181,0.00220333,0.00108711,0.00196584,0.00368875,-0.000398313,0.647085,0.00260212,0.0103739,1210,1744,6.93733,-31.918
-7,-720,6.94116,32.0137,0.0026166,0.00161546,0.00251081,0.00467626,-0.000444193,0.687005,0.00327563,0.01143,1217,1744,6.94114,-32.0137
0,-720,6.96228,32.0939,0.0029502,0.00240204,0.00301843,0.00570698,-0.000354728,0.740121,0.00392824,0.0127876,1224,1744,6.96229,-32.0938
7,-720,6.97266,32.1526,0.00309886,0.00327525,0.00340238,0.00659057,-0.000216466,0.798356,0.00446762,0.0145845,1231,1744,6.97265,-32.1526
14,-720,6.99158,32.2089,0.0031076,0.00411106,0.00358098,0.00722528,-6.62543e-06,0.855001,0.00481907,0.012571,1238,1744,6.99162,-32.2088
21,-720,6.97803,32.2816,0.00301258,0.00483053,0.00357853,0.00761373,0.000229384,0.909772,0.00500111,0.0103481,1245,1744,6.97804,-32.2817
28,-720,6.96936,32.3436,0.00282638,0.00551485,0.00351128,0.00793041,0.00041082,0.968209,0.00515546,0.0109,1252,1744,6.96931,-32.3436
35,-720,6.98462,32.384,0.00264272,0.00602531,0.0032817,0.00802591,0.000642129,1.02333,0.00514992,0.0101837,1259,1744,6.98459,-32.384
42,-720,6.99744,32.4161,0.00244627,0.00647567,0.00305584,0.00812118,0.00080076,1.07684,0.00516792,0.0102872,1266,1744,6.99748,-32.4162
49,-720,7.00476,32.4183,0.00220485,0.00670138,0.0027545,0.00800867,0.000897565,1.12767,0.0050665,0.0107684,1273,1744,7.00472,-32.4183
56,-720,7.02246,32.4369,0.00196074,0.00667743,0.00234602,0.00764558,0.000992582,1.17941,0.00480052,0.00944849,1280,1744,7.0225,-32.4369
63,-720,7.03931,32.4517,0.00167866,0.00648455,0.00209193,0.00726756,0.000895648,1.21264,0.0045758,0.0115582,1287,1744,7.03935,-32.4516
70,-720,7.05408,32.4574,0.00138243,0.00610871,0.00185512,0.00674988,0.000741251,1.23803,0.00427432,0.0133143,1294,1744,7.05408,-32.4573
77,-720,7.04065,32.464,0.0011644,0.00538302,0.00153971,0.0058852,0.000662219,1.25552,0.00372241,0.014682,1301,1744,7.04061,-32.464
84,-720,7.05933,32.449,0.000998861,0.0044259,0.00112354,0.0047614,0.000663356,1.28061,0.00297788,0.0129893,1308,1744,7.05929,-32.4489
91,-720,7.06665,32.4393,0.000832264,0.00360043,0.000830062,0.00383026,0.000602443,1.30069,0.00237826,0.0117343,1315,1744,7.0666,-32.4394
98,-720,7.0553,32.4083,0.000639206,0.00258768,0.000507415,0.0027119,0.000514986,1.33071,0.00166306,0.0112675,1322,1744,7.05526,-32.4084
105,-720,7.06445,32.3796,0.000424785,0.00156335,9.93997e-05,0.00157197,0.000416172,1.48437,0.000940465,0.0114006,1329,1744,7.06442,-32.3796
112,-720,7.09009,32.3568,0.0003243,0.000577186,-0.000322498,0.000797143,0.000104343,-0.972225,0.000500288,0.0106644,1336,1744,7.09014,-32.3568
119,-720,7.10071,32.3181,0.000146955,-0.000294352,-0.000730242,0.000689152,-0.000836549,-0.638677,0.000882233,0.0109626,1343,1744,7.10067,-32.3182
126,-720,7.10681,32.246,1.61836e-05,-0.00100993,-0.00107827,0.00069724,-0.00169098,-0.563343,0.00141807,0.0109418,1350,1744,7.10679,-32.2459
133,-720,7.10413,32.1827,1.14864e-05,-0.00151448,-0.00132012,0.00077325,-0.00227624,-0.523368,0.00183052,0.0124574,1357,1744,7.10418,-32.1828
140,-720,7.12097,32.1351,5.86534e-05,-0.00167261,-0.00136834,0.000812176,-0.00242613,-0.503369,0.0019455,0.0185806,1364,1744,7.12098,-32.1352
147,-720,7.12122,32.0284,0.000141891,-0.00165525,-0.00128125,0.00080826,-0.00232162,-0.479592,0.00187613,0.0190718,1371,1744,7.12117,-32.0284
154,-720,7.12451,31.9354,0.000241577,-0.00142563,-0.00105526,0.000752768,-0.00193682,-0.451107,0.00160221,0.0127296,1378,1744,7.12452,-31.9354
161,-720,7.13586,31.8375,0.000317433,-0.00106216,-0.00078732,0.000674389,-0.00141912,-0.425662,0.00123392,0.00926971,1385,1744,7.13589,-31.8375
168,-720,7.14465,31.7429,0.000360914,-0.00060746,-0.000626344,0.000668399,-0.000914944,-0.456357,0.00091783,0.00928191,1392,1744,7.14467,-31.7429
175,-720,7.12988,31.6226,0.000320148,-9.71283e-05,-0.000541286,0.000691613,-0.000468594,-0.601448,0.000673958,0.0144489,1399,1744,7.12993,-31.6225
182,-720,7.13171,31.5037,0.000169832,0.00035985,-0.000529412,0.000802711,-0.000273028,-0.874184,0.000645688,0.0144961,1406,1744,7.13171,-31.5037
189,-720,7.1344,31.3867,-8.5047e-06,0.000920494,-0.000494283,0.00113428,-0.000222294,-1.16257,0.000840148,0.0126389,1413,1744,7.13446,-31.3867
196,-720,7.1272,31.2526,-0.00019214,0.00116897,-0.000689728,0.00145737,-0.000480544,-1.17475,0.00116527,0.0134039,1420,1744,7.12725,-31.2525
203,-720,7.09705,31.1221,-0.000279484,0.0021612,-0.00110954,0.0025902,-0.000708483,-1.20186,0.00200512,0.0147913,1427,1744,7.09705,-31.122
210,-720,7.09521,31.0151,-0.000172338,0.002857,-0.0013757,0.00338849,-0.000703833,-1.20212,0.0025265,0.0128114,1434,1744,7.09521,-31.0151
217,-720,7.1106,30.8585,-9.61618e-05,0.00345434,-0.00163198,0.0040905,-0.000732314,-1.19911,0.00300103,0.0120091,1441,1744,7.11063,-30.8585
224,-720,7.10474,30.6847,1.51822e-05,0.00400423,-0.00190291,0.00476637,-0.000746957,-1.18985,0.0034536,0.00910135,1448,1744,7.10468,-30.6847
231,-720,7.0957,30.5156,7.09882e-05,0.00448345,-0.00212159,0.00533803,-0.000783598,-1.18787,0.00384659,0.0100033,1455,1744,7.09575,-30.5157
238,-720,7.08521,30.3368,0.000258604,0.00490529,-0.00227333,0.00583248,-0.000668584,-1.18354,0.00412926,0.00925371,1462,1744,7.08517,-30.3368
245,-720,7.07996,30.1906,0.000537892,0.00522122,-0.0024623,0.00627754,-0.000518427,-1.16554,0.0043681,0.011595,1469,1744,7.07995,-30.1905
252,-720,7.07568,30.0178,0.000673135,0.00536283,-0.00258535,0.0065083,-0.000472336,-1.15373,0.00450458,0.0112268,1476,1744,7.0757,-30.0178
259,-720,7.07141,29.8253,0.000640993,0.00525371,-0.00262547,0.00644197,-0.000547271,-1.14579,0.00448821,0.0102761,1483,1744,7.07141,-29.8253
266,-720,7.03821,29.6543,0.000482395,0.00531899,-0.00266937,0.0065026,-0.000701208,-1.15344,0.0045867,0.00871976,1490,1744,7.03818,-29.6543
273,-720,7.00073,29.4595,0.00038081,0.00567239,-0.00278427,0.00686749,-0.000814282,-1.16535,0.00487248,0.0144499,1497,1744,7.00076,-29.4595
280,-720,6.92651,29.2579,0.000268354,0.00584257,-0.00288233,0.00706493,-0.000954003,-1.1697,0.00505803,0.0224098,1504,1744,6.92656,-29.2579
287,-720,6.85547,28.9894,7.6704e-05,0.00643015,-0.00306355,0.00766669,-0.00115984,-1.18716,0.00553837,0.0385406,1511,1744,6.85542,-28.9893
294,-720,7.05676,28.6975,-0.000121892,0.00683896,-0.00319035,0.00807994,-0.00136287,-1.19983,0.00589368,0.039766,1518,1744,7.05679,-28.6976
301,-720,7.02722,28.5347,-0.000454,0.00744879,-0.00325703,0.00861812,-0.00162332,-1.22611,0.006356,0.0419098,1525,1744,7.02716,-28.5347
308,-720,6.86975,28.3918,-0.0010033,0.00783792,-0.00333065,0.0089522,-0.00211758,-1.24795,0.00678505,0.040668,1532,1744,6.86977,-28.3919
315,-720,6.75049,27.954,-0.00135246,0.00900199,-0.00365448,0.0101619,-0.00251234,-1.26347,0.00774899,0.0438195,1539,1744,6.75046,-27.9539
322,-720,6.65417,27.675,0,0,0,0,0,0,0,-1,1546,1744,6.65418,-27.675
329,-720,7.33362,27.7767,0,0,0,0,0,0,0,-1,1553,1744,7.33361,-27.7767
336,-720,6.14148,26.5682,0,0,0,0,0,0,0,-1,1560,1744,6.14151,-26.5683
343,-720,6.78552,21.3625,0,0,0,0,0,0,0,-1,1567,1744,6.78551,-21.3625
350,-720,4.0741,11.1836,0,0,0,0,0,0,0,-1,1574,1744,4.07412,-11.1836
357,-720,6.90833,21.4504,0,0,0,0,0,0,0,-1,1581,1744,6.90827,-21.4505
364,-720,5.83777,24.1599,0,0,0,0,0,0,0,-1,1588,1744,5.83773,-24.1599
371,-720,5.46997,23.6176,0,0,0,0,0,0,0,-1,1595,1744,5.47001,-23.6176
378,-720,3.88257,25.5404,0,0,0,0,0,0,0,-1,1602,1744,3.88262,-25.5404
385,-720,4.63611,25.6746,0,0,0,0,0,0,0,-1,1609,1744,4.63612,-25.6746
392,-720,3.49377,23.5042,0,0,0,0,0,0,0,-1,1616,1744,3.4938,-23.5042
399,-720,2.37317,24.7166,0,0,0,0,0,0,0,-1,1623,1744,2.37317,-24.7166
406,-720,0,0,0,0,0,0,0,0,0,-1,1630,1744,0,0
413,-720,0,0,0,0,0,0,0,0,0,-1,1637,1744,0,0
420,-720,0,0,0,0,0,0,0,0,0,-1,1644,1744,0,0
427,-720,0,0,0,0,0,0,0,0,0,-1,1651,1744,0,0
434,-720,0,0,0,0,0,0,0,0,0,-1,1658,1744,0,0
441,-720,0,0,0,0,0,0,0,0,0,-1,1665,1744,0,0
448,-720,0,0,0,0,0,0,0,0,0,-1,1672,1744,0,0
455,-720,0,0,0,0,0,0,0,0,0,-1,1679,1744,0,0
462,-720,0,0,0,0,0,0,0,0,0,-1,1686,1744,0,0
469,-720,0,0,0,0,0,0,0,0,0,-1,1693,1744,0,0
476,-720,0,0,0,0,0,0,0,0,0,-1,1700,1744,0,0
483,-720,0,0,0,0,0,0,0,0,0,-1,1707,1744,0,0
490,-720,0,0,0,0,0,0,0,0,0,-1,1714,1744,0,0
497,-720,0,0,0,0,0,0,0,0,0,-1,1721,1744,0,0
504,-720,0,0,0,0,0,0,0,0,0,-1,1728,1744,0,0
511,-720,0,0,0,0,0,0,0,0,0,-1,1735,1744,0,0
518,-720,0,0,0,0,0,0,0,0,0,-1,1742,1744,0,0
525,-720,0,0,0,0,0,0,0,0,0,-1,1749,1744,0,0
532,-720,0,0,0,0,0,0,0,0,0,-1,1756,1744,0,0
539,-720,0,0,0,0,0,0,0,0,0,-1,1763,1744,0,0
546,-720,0,0,0,0,0,0,0,0,0,-1,1770,1744,0,0
553,-720,0,0,0,0,0,0,0,0,0,-1,1777,1744,0,0
560,-720,0,0,0,0,0,0,0,0,0,-1,1784,1744,0,0
567,-720,0,0,0,0,0,0,0,0,0,-1,1791,1744,0,0
574,-720,0,0,0,0,0,0,0,0,0,-1,1798,1744,0,0
581,-720,0,0,0,0,0,0,0,0,0,-1,1805,1744,0,0
588,-720,0,0,0,0,0,0,0,0,0,-1,1812,1744,0,0
595,-720,0,0,0,0,0,0,0,0,0,-1,1819,1744,0,0
602,-720,0,0,0,0,0,0,0,0,0,-1,1826,1744,0,0
609,-720,0,0,0,0,0,0,0,0,0,-1,1833,1744,0,0
616,-720,0,0,0,0,0,0,0,0,0,-1,1840,1744,0,0
623,-720,0,0,0,0,0,0,0,0,0,-1,1847,1744,0,0
630,-720,0,0,0,0,0,0,0,0,0,-1,1854,1744,0,0
637,-720,0,0,0,0,0,0,0,0,0,-1,1861,1744,0,0
644,-720,0,0,0,0,0,0,0,0,0,-1,1868,1744,0,0
651,-720,0,0,0,0,0,0,0,0,0,-1,1875,1744,0,0
658,-720,0,0,0,0,0,0,0,0,0,-1,1882,1744,0,0
665,-720,0,0,0,0,0,0,0,0,0,-1,1889,1744,0,0
672,-720,0,0,0,0,0,0,0,0,0,-1,1896,1744,0,0
679,-720,0,0,0,0,0,0,0,0,0,-1,1903,1744,0,0
686,-720,0,0,0,0,0,0,0,0,0,-1,1910,1744,0,0
693,-720,0,0,0,0,0,0,0,0,0,-1,1917,1744,0,0
700,-720,0,0,0,0,0,0,0,0,0,-1,1924,1744,0,0
707,-720,0,0,0,0,0,0,0,0,0,-1,1931,1744,0,0
714,-720,0,0,0,0,0,0,0,0,0,-1,1938,1744,0,0
721,-720,0,0,0,0,0,0,0,0,0,-1,1945,1744,0,0
728,-720,0,0,0,0,0,0,0,0,0,-1,1952,1744,0,0
735,-720,0,0,0,0,0,0,0,0,0,-1,1959,1744,0,0
742,-720,0,0,0,0,0,0,0,0,0,-1,1966,1744,0,0
749,-720,0,0,0,0,0,0,0,0,0,-1,1973,1744,0,0
756,-720,0,0,0,0,0,0,0,0,0,-1,1980,1744,0,0
763,-720,0,0,0,0,0,0,0,0,0,-1,1987,1744,0,0
770,-720,0,0,0,0,0,0,0,0,0,-1,1994,1744,0,0
777,-720,0,0,0,0,0,0,0,0,0,-1,2001,1744,0,0
784,-720,0,0,0,0,0,0,0,0,0,-1,2008,1744,0,0
791,-720,0,0,0,0,0,0,0,0,0,-1,2015,1744,0,0
798,-720,0,0,0,0,0,0,0,0,0,-1,2022,1744,0,0
805,-720,0,0,0,0,0,0,0,0,0,-1,2029,1744,0,0
812,-720,0,0,0,0,0,0,0,0,0,-1,2036,1744,0,0
-700,-727,0,0,0,0,0,0,0,0,0,-1,524,1751,0,0
-693,-727,0,0,0,0,0,0,0,0,0,-1,531,1751,0,0
-686,-727,0,0,0,0,0,0,0,0,0,-1,538,1751,0,0
-679,-727,0,0,0,0,0,0,0,0,0,-1,545,1751,0,0
-672,-727,0,0,0,0,0,0,0,0,0,-1,552,1751,0,0
-665,-727,0,0,0,0,0,0,0,0,0,-1,559,1751,0,0
-658,-727,0,0,0,0,0,0,0,0,0,-1,566,1751,0,0
-651,-727,0,0,0,0,0,0,0,0,0,-1,573,1751,0,0
-644,-727,0,0,0,0,0,0,0,0,0,-1,580,1751,0,0
-637,-727,0,0,0,0,0,0,0,0,0,-1,587,1751,0,0
-630,-727,0,0,0,0,0,0,0,0,0,-1,594,1751,0,0
-623,-727,0,0,0,0,0,0,0,0,0,-1,601,1751,0,0
-616,-727,0,0,0,0,0,0,0,0,0,-1,608,1751,0,0
-609,-727,0,0,0,0,0,0,0,0,0,-1,615,1751,0,0
-602,-727,0,0,0,0,0,0,0,0,0,-1,622,1751,0,0
-595,-727,0,0,0,0,0,0,0,0,0,-1,629,1751,0,0
-588,-727,0,0,0,0,0,0,0,0,0,-1,636,1751,0,0
-581,-727,0,0,0,0,0,0,0,0,0,-1,643,1751,0,0
-574,-727,0,0,0,0,0,0,0,0,0,-1,650,1751,0,0
-567,-727,0,0,0,0,0,0,0,0,0,-1,657,1751,0,0
-560,-727,0,0,0,0,0,0,0,0,0,-1,664,1751,0,0
-553,-727,0,0,0,0,0,0,0,0,0,-1,671,1751,0,0
-546,-727,0,0,0,0,0,0,0,0,0,-1,678,1751,0,0
-539,-727,0,0,0,0,0,0,0,0,0,-1,685,1751,0,0
-532,-727,0,0,0,0,0,0,0,0,0,-1,692,1751,0,0
-525,-727,0,0,0,0,0,0,0,0,0,-1,699,1751,0,0
-518,-727,0,0,0,0,0,0,0,0,0,-1,706,1751,0,0
-511,-727,0,0,0,0,0,0,0,0,0,-1,713,1751,0,0
-504,-727,0,0,0,0,0,0,0,0,0,-1,720,1751,0,0
-497,-727,0,0,0,0,0,0,0,0,0,-1,727,1751,0,0
-490,-727,0,0,0,0,0,0,0,0,0,-1,734,1751,0,0
-483,-727,0,0,0,0,0,0,0,0,0,-1,741,1751,0,0
-476,-727,0,0,0,0,0,0,0,0,0,-1,748,1751,0,0
-469,-727,0,0,0,0,0,0,0,0,0,-1,755,1751,0,0
-462,-727,0,0,0,0,0,0,0,0,0,-1,762,1751,0,0
-455,-727,0,0,0,0,0,0,0,0,0,-1,769,1751,0,0
-448,-727,0,0,0,0,0,0,0,0,0,-1,776,1751,0,0
-441,-727,0,0,0,0,0,0,0,0,0,-1,783,1751,0,0
-434,-727,0,0,0,0,0,0,0,0,0,-1,790,1751,0,0
-427,-727,0,0,0,0,0,0,0,0,0,-1,797,1751,0,0
-420,-727,0,0,0,0,0,0,0,0,0,-1,804,1751,0,0
-413,-727,0,0,0,0,0,0,0,0,0,-1,811,1751,0,0
-406,-727,0,0,0,0,0,0,0,0,0,-1,818,1751,0,0
-399,-727,0,0,0,0,0,0,0,0,0,-1,825,1751,0,0
-392,-727,0,0,0,0,0,0,0,0,0,-1,832,1751,0,0
-385,-727,0,0,0,0,0,0,0,0,0,-1,839,1751,0,0
-378,-727,0,0,0,0,0,0,0,0,0,-1,846,1751,0,0
-371,-727,0,0,0,0,0,0,0,0,0,-1,853,1751,0,0
-364,-727,0,0,0,0,0,0,0,0,0,-1,860,1751,0,0
-357,-727,0,0,0,0,0,0,0,0,0,-1,867,1751,0,0
-350,-727,0,0,0,0,0,0,0,0,0,-1,874,1751,0,0
-343,-727,0,0,0,0,0,0,0,0,0,-1,881,1751,0,0
-336,-727,0,0,0,0,0,0,0,0,0,-1,888,1751,0,0
-329,-727,0,0,0,0,0,0,0,0,0,-1,895,1751,0,0
-322,-727,0,0,0,0,0,0,0,0,0,-1,902,1751,0,0
-315,-727,0,0,0,0,0,0,0,0,0,-1,909,1751,0,0
-308,-727,0,0,0,0,0,0,0,0,0,-1,916,1751,0,0
-301,-727,0,0,0,0,0,0,0,0,0,-1,923,1751,0,0
-294,-727,0,0,0,0,0,0,0,0,0,-1,930,1751,0,0
-287,-727,0,0,0,0,0,0,0,0,0,-1,937,1751,0,0
-280,-727,0,0,0,0,0,0,0,0,0,-1,944,1751,0,0
-273,-727,0,0,0,0,0,0,0,0,0,-1,951,1751,0,0
-266,-727,4.24805,7.61145,0,0,0,0,0,0,0,-1,958,1751,4.24802,-7.6115
-259,-727,3.65228,5.4082,0,0,0,0,0,0,0,-1,965,1751,3.65229,-5.40818
-252,-727,6.35193,19.5046,0,0,0,0,0,0,0,-1,972,1751,6.35193,-19.5046
-245,-727,6.6543,20.9005,0,0,0,0,0,0,0,-1,979,1751,6.65433,-20.9005
-238,-727,4.31769,18.0181,0,0,0,0,0,0,0,-1,986,1751,4.31766,-18.018
-231,-727,6.50403,21.7985,0,0,0,0,0,0,0,-1,993,1751,6.50403,-21.7985
-224,-727,5.36774,18.8488,0,0,0,0,0,0,0,-1,1000,1751,5.36772,-18.8487
-217,-727,5.94122,16.1447,0,0,0,0,0,0,0,-1,1007,1751,5.9412,-16.1446
-210,-727,7.2597,25.5667,0,0,0,0,0,0,0,-1,1014,1751,7.25973,-25.5667
-203,-727,6.22131,26.5745,0,0,0,0,0,0,0,-1,1021,1751,6.22136,-26.5744
-196,-727,7.06787,25.3236,0,0,0,0,0,0,0,-1,1028,1751,7.06784,-25.3236
-189,-727,7.06104,26.8652,0,0,0,0,0,0,0,-1,1035,1751,7.06101,-26.8653
-182,-727,6.97058,28.2665,0,0,0,0,0,0,0,-1,1042,1751,6.97058,-28.2665
-175,-727,7.10791,28.6429,0,0,0,0,0,0,0,-1,1049,1751,7.10796,-28.643
-168,-727,6.66614,28.714,0,0,0,0,0,0,0,-1,1056,1751,6.66615,-28.714
-161,-727,7.22876,28.6575,0,0,0,0,0,0,0,-1,1063,1751,7.22874,-28.6575
-154,-727,7.63953,28.7975,0,0,0,0,0,0,0,-1,1070,1751,7.63954,-28.7974
-147,-727,6.9397,28.8998,0,0,0,0,0,0,0,-1,1077,1751,6.93964,-28.8998
-140,-727,7.17712,28.9849,5.7115e-05,-0.00151448,0.00235606,0.00175496,-0.00321232,0.624438,0.00290872,0.0341431,1084,1751,7.17708,-28.9848
-133,-727,7.29187,29.2675,-0.000829864,3.48128e-05,0.00199219,0.00164103,-0.00243608,0.89225,0.0023688,0.0245678,1091,1751,7.29188,-29.2674
-126,-727,7.1897,29.5365,-0.00174881,0.00145258,0.00148632,0.00203624,-0.00233247,1.19661,0.0025242,0.0155316,1098,1751,7.18968,-29.5365
-119,-727,7.18152,29.7759,-0.00241491,0.00274908,0.00122734,0.00302594,-0.00269177,1.34893,0.003303,0.0123907,1105,1751,7.18153,-29.7759
-112,-727,7.20178,29.9276,-0.00264842,0.00348283,0.00119054,0.00370589,-0.00287148,1.38558,0.00380762,0.0137419,1112,1751,7.20181,-29.9276
-105,-727,7.17517,30.1312,-0.00289625,0.00403465,0.00110446,0.00420639,-0.00306799,1.41653,0.00421698,0.0130319,1119,1751,7.17516,-30.1312
-98,-727,7.15283,30.3226,-0.00287439,0.00443722,0.00115834,0.00461634,-0.00305351,1.41737,0.00445873,0.0106581,1126,1751,7.15284,-30.3227
-91,-727,7.13757,30.4958,-0.00265543,0.00475855,0.00120605,0.00494981,-0.00284669,1.41352,0.00455558,0.0104938,1133,1751,7.13763,-30.4958
-84,-727,7.10974,30.6711,-0.00261172,0.00467871,0.00118624,0.00486687,-0.00279988,1.41349,0.0044797,0.0105515,1140,1751,7.10973,-30.6712
-77,-727,7.10095,30.8389,-0.00211197,0.00453303,0.00129431,0.00477623,-0.00235517,1.38506,0.00419567,0.0111414,1147,1751,7.10097,-30.8389
-70,-727,7.09216,30.9891,-0.00148822,0.0041042,0.00119392,0.00434842,-0.00173244,1.36902,0.00361746,0.0125905,1154,1751,7.09211,-30.9891
-63,-727,7.06995,31.1183,-0.00149129,0.00304167,0.000788279,0.00317484,-0.00162446,1.40344,0.00281866,0.0102664,1161,1751,7.06999,-31.1183
-56,-727,7.06006,31.2646,-0.00143557,0.00220822,0.000383077,0.00224805,-0.00147541,1.46717,0.00216512,0.0109393,1168,1751,7.06001,-31.2647
-49,-727,7.04688,31.4005,-0.00130027,0.0015928,0.000119691,0.00159774,-0.00130522,1.52952,0.00167886,0.0144884,1175,1751,7.04692,-31.4005
-42,-727,7.04675,31.5326,-0.00113936,0.00118087,1.77247e-05,0.00118101,-0.00113949,1.56316,0.00133981,0.0171183,1182,1751,7.04674,-31.5326
-35,-727,7.03345,31.625,-0.000837389,0.000846295,-6.25635e-05,0.000848616,-0.000839711,-1.53371,0.000974761,0.0144996,1189,1751,7.03348,-31.6251
-28,-727,7.05115,31.7174,-0.000493366,0.000672485,-9.42262e-05,0.000680052,-0.000500932,-1.49067,0.000684451,0.00849908,1196,1751,7.05118,-31.7174
-21,-727,7.03882,31.8267,0.000175988,0.000436331,-0.000111862,0.000477792,0.000134527,-1.21585,0.000284493,0.00918652,1203,1751,7.03879,-31.8267
-14,-727,7.02576,31.9171,0.000729249,0.00026953,-0.000159738,0.000779303,0.000219476,-0.303659,0.000464014,0.0105326,1210,1751,7.02572,-31.9171
-7,-727,7.0199,32.0227,0.00107862,0.000440383,-7.98072e-05,0.00108845,0.000430555,-0.12253,0.000632967,0.0139493,1217,1751,7.01985,-32.0227
0,-727,7.03381,32.1019,0.00153389,0.00110545,0.000151369,0.00158197,0.00105737,0.307572,0.000930457,0.0140571,1224,1751,7.03376,-32.1019
7,-727,7.03943,32.1555,0.00188429,0.00169328,0.000273098,0.0020781,0.00149947,0.617197,0.00123843,0.013393,1231,1751,7.03945,-32.1555
14,-727,7.03052,32.2174,0.0020987,0.00232276,0.000339628,0.00256836,0.0018531,0.944707,0.00153058,0.0132762,1238,1751,7.03052,-32.2174
21,-727,7.01624,32.2919,0.0022064,0.00290225,0.000412279,0.00309379,0.00201486,1.13587,0.00181324,0.0119464,1245,1751,7.01627,-32.2919
28,-727,7.03052,32.333,0.00225352,0.00354051,0.000626913,0.0037954,0.00199863,1.18462,0.00219231,0.010817,1252,1751,7.03054,-32.333
35,-727,7.05115,32.364,0.00227682,0.00402834,0.000791311,0.00433289,0.00197227,1.2034,0.00250494,0.0109782,1259,1751,7.05113,-32.364
42,-727,7.03162,32.3956,0.00227059,0.00453088,0.00103266,0.00493162,0.00186985,1.20062,0.00287486,0.01135,1266,1751,7.03156,-32.3957
49,-727,7.02087,32.4083,0.00219688,0.00490293,0.00130408,0.00542908,0.00167073,1.18731,0.0032108,0.0106213,1273,1751,7.02086,-32.4083
56,-727,7.03125,32.449,0.00209522,0.00505132,0.00151573,0.00569035,0.00145618,1.17181,0.00341333,0.00944228,1280,1751,7.03126,-32.4489
63,-727,7.04553,32.4672,0.00177892,0.00502474,0.00186202,0.00587184,0.000931815,1.14384,0.00364389,0.01198,1287,1751,7.04551,-32.4671
70,-727,7.06702,32.47,0.00150034,0.00487391,0.00213323,0.00590667,0.00046758,1.11993,0.00379154,0.0144487,1294,1751,7.06702,-32.47
77,-727,7.06213,32.4808,0.00126631,0.00436764,0.00222798,0.00553146,0.000102484,1.08942,0.00365396,0.0161069,1301,1751,7.06209,-32.4808
84,-727,7.0592,32.4449,0.000871331,0.00370038,0.00219054,0.00489341,-0.000321702,1.07209,0.00337462,0.0150004,1308,1751,7.05922,-32.445
91,-727,7.05725,32.4106,0.000654592,0.00319546,0.00217491,0.0044438,-0.000593747,1.04973,0.00317898,0.0146586,1315,1751,7.05723,-32.4106
98,-727,7.03687,32.4015,0.000599686,0.00235589,0.00191806,0.00358729,-0.000631718,1.00006,0.00262754,0.0127942,1322,1751,7.03684,-32.4014
105,-727,7.0459,32.3809,0.000339131,0.00132288,0.00143639,0.00234928,-0.000687269,0.95036,0.00183861,0.0131377,1329,1751,7.04594,-32.3809
112,-727,7.06689,32.3455,0.000171017,0.000547192,0.00100866,0.00138515,-0.000666939,0.877576,0.00120872,0.011503,1336,1751,7.06686,-32.3454
119,-727,7.07422,32.2987,-2.7573e-06,-0.00020408,0.000532013,0.000438034,-0.000644871,0.691899,0.000629006,0.00889931,1343,1751,7.07418,-32.2987
126,-727,7.06799,32.2151,-9.56609e-05,-0.000796114,6.32512e-05,-8.99951e-05,-0.00080178,0.0893374,0.00050719,0.0102506,1350,1751,7.06803,-32.215
133,-727,7.0658,32.1925,-0.000105456,-0.00121875,-0.000373597,8.2929e-06,-0.0013325,-0.295552,0.000891111,0.0145282,1357,1751,7.06581,-32.1926
140,-727,7.06396,32.1604,-4.60562e-05,-0.00128751,-0.000571878,0.000177222,-0.00151079,-0.37223,0.00107117,0.020771,1364,1751,7.06397,-32.1604
147,-727,7.04468,32.0322,4.93204e-05,-0.00121364,-0.000615169,0.00029943,-0.00146375,-0.386157,0.00108945,0.0181979,1371,1751,7.04465,-32.0322
154,-727,7.03967,31.9121,9.15912e-05,-0.00102529,-0.000585788,0.000342473,-0.00127617,-0.404647,0.000984991,0.0114117,1378,1751,7.03964,-31.9121
161,-727,7.05054,31.832,8.84417e-05,-0.000708106,-0.000508471,0.000336051,-0.000955715,-0.453168,0.000773876,0.00911915,1385,1751,7.0506,-31.8321
168,-727,7.03723,31.7473,0.00026344,-0.000420307,-0.000628538,0.000637065,-0.000793932,-0.536317,0.000827839,0.0113231,1392,1751,7.03727,-31.7473
175,-727,7.03174,31.6411,0.000105046,-6.50188e-05,-0.000806647,0.00083113,-0.000791103,-0.732885,0.000936692,0.0155896,1399,1751,7.03179,-31.6411
182,-727,7.04248,31.5128,-0.000235287,0.000330992,-0.00103602,0.00112187,-0.00102616,-0.918789,0.00124057,0.0178928,1406,1751,7.0425,-31.5128
189,-727,7.01941,31.3811,-0.000473441,0.00115343,-0.00103677,0.00165778,-0.000977795,-1.11803,0.00153844,0.0118182,1413,1751,7.01943,-31.3811
196,-727,7.00061,31.2572,-0.000668518,0.00130755,-0.0013475,0.00199043,-0.0013514,-1.10174,0.00194113,0.0132249,1420,1751,7.00065,-31.2572
203,-727,6.97107,31.1201,-0.000753806,0.00303408,-0.00204673,0.00392871,-0.00164843,-1.15872,0.00330846,0.0149847,1427,1751,6.97107,-31.1201
210,-727,6.95776,30.9984,-0.000425089,0.00414834,-0.0024379,0.00520414,-0.00148089,-1.1621,0.00405424,0.0145384,1434,1751,6.9578,-30.9984
217,-727,6.96667,30.856,-0.000161165,0.00506594,-0.00273917,0.00623838,-0.0013336,-1.16637,0.0046674,0.0114262,1441,1751,6.96669,-30.856
224,-727,6.96265,30.6758,7.11727e-05,0.00588911,-0.00305365,0.00719758,-0.00123731,-1.16597,0.00525956,0.0120358,1448,1751,6.9626,-30.6758
231,-727,6.95715,30.5135,0.000214589,0.00660861,-0.00330629,0.00801078,-0.00118758,-1.1697,0.00577721,0.0100022,1455,1751,6.95721,-30.5135
238,-727,6.94434,30.3375,0.000498811,0.00722291,-0.00347973,0.00869944,-0.00097772,-1.1695,0.00615149,0.0102641,1462,1751,6.94429,-30.3375
245,-727,6.91699,30.179,0.000890707,0.00767051,-0.00368812,0.00928997,-0.000728747,-1.15704,0.00644996,0.00958923,1469,1751,6.91695,-30.179
252,-727,6.88525,30.0125,0.00110531,0.00787257,-0.00380415,0.00958015,-0.000602282,-1.14888,0.0065967,0.0104634,1476,1751,6.88528,-30.0125
259,-727,6.88623,29.8229,0.00110258,0.00773784,-0.00380996,0.00947218,-0.000631768,-1.14362,0.00653557,0.0143652,1483,1751,6.8862,-29.8229
266,-727,6.91528,29.6722,0.000950001,0.00778064,-0.00381699,0.00948722,-0.000756574,-1.15036,0.00659149,0.0203371,1490,1751,6.91529,-29.6722
273,-727,6.98059,29.5441,0.000869193,0.00813063,-0.00390573,0.00983253,-0.000832711,-1.15986,0.00684949,0.0385143,1497,1751,6.98054,-29.5441
280,-727,6.64551,29.3193,0,0,0,0,0,0,0,-1,1504,1751,6.64548,-29.3193
287,-727,6.54639,28.803,0,0,0,0,0,0,0,-1,1511,1751,6.54634,-28.803
294,-727,6.82861,28.5245,0,0,0,0,0,0,0,-1,1518,1751,6.82865,-28.5246
301,-727,6.73083,28.6069,0,0,0,0,0,0,0,-1,1525,1751,6.73083,-28.6069
308,-727,6.52661,28.5869,0,0,0,0,0,0,0,-1,1532,1751,6.5266,-28.5869
315,-727,6.32043,27.8269,0,0,0,0,0,0,0,-1,1539,1751,6.32044,-27.8269
322,-727,5.75818,18.2477,0,0,0,0,0,0,0,-1,1546,1751,5.75815,-18.2477
329,-727,6.61853,11.6267,0,0,0,0,0,0,0,-1,1553,1751,6.61859,-11.6267
336,-727,5.55823,20.2439,0,0,0,0,0,0,0,-1,1560,1751,5.55829,-20.2438
343,-727,2.41699,8.72095,0,0,0,0,0,0,0,-1,1567,1751,2.41702,-8.72098
350,-727,3.89783,7.50195,0,0,0,0,0,0,0,-1,1574,1751,3.89782,-7.50193
357,-727,4.48462,10.2948,0,0,0,0,0,0,0,-1,1581,1751,4.48464,-10.2948
364,-727,6.96729,17.2365,0,0,0,0,0,0,0,-1,1588,1751,6.96732,-17.2365
371,-727,5.04565,23.2227,0,0,0,0,0,0,0,-1,1595,1751,5.04564,-23.2227
378,-727,4.56726,23.0574,0,0,0,0,0,0,0,-1,1602,1751,4.56727,-23.0574
385,-727,3.52307,22.6431,0,0,0,0,0,0,0,-1,1609,1751,3.52303,-22.643
392,-727,0,0,0,0,0,0,0,0,0,-1,1616,1751,0,0
399,-727,0,0,0,0,0,0,0,0,0,-1,1623,1751,0,0
406,-727,0,0,0,0,0,0,0,0,0,-1,1630,1751,0,0
413,-727,0,0,0,0,0,0,0,0,0,-1,1637,1751,0,0
420,-727,0,0,0,0,0,0,0,0,0,-1,1644,1751,0,0
427,-727,0,0,0,0,0,0,0,0,0,-1,1651,1751,0,0
434,-727,0,0,0,0,0,0,0,0,0,-1,1658,1751,0,0
441,-727,0,0,0,0,0,0,0,0,0,-1,1665,1751,0,0
448,-727,0,0,0,0,0,0,0,0,0,-1,1672,1751,0,0
455,-727,0,0,0,0,0,0,0,0,0,-1,1679,1751,0,0
462,-727,0,0,0,0,0,0,0,0,0,-1,1686,1751,0,0
469,-727,0,0,0,0,0,0,0,0,0,-1,1693,1751,0,0
476,-727,0,0,0,0,0,0,0,0,0,-1,1700,1751,0,0
483,-727,0,0,0,0,0,0,0,0,0,-1,1707,1751,0,0
490,-727,0,0,0,0,0,0,0,0,0,-1,1714,1751,0,0
497,-727,0,0,0,0,0,0,0,0,0,-1,1721,1751,0,0
504,-727,0,0,0,0,0,0,0,0,0,-1,1728,1751,0,0
511,-727,0,0,0,0,0,0,0,0,0,-1,1735,1751,0,0
518,-727,0,0,0,0,0,0,0,0,0,-1,1742,1751,0,0
525,-727,0,0,0,0,0,0,0,0,0,-1,1749,1751,0,0
532,-727,0,0,0,0,0,0,0,0,0,-1,1756,1751,0,0
539,-727,0,0,0,0,0,0,0,0,0,-1,1763,1751,0,0
546,-727,0,0,0,0,0,0,0,0,0,-1,1770,1751,0,0
553,-727,0,0,0,0,0,0,0,0,0,-1,1777,1751,0,0
560,-727,0,0,0,0,0,0,0,0,0,-1,1784,1751,0,0
567,-727,0,0,0,0,0,0,0,0,0,-1,1791,1751,0,0
574,-727,0,0,0,0,0,0,0,0,0,-1,1798,1751,0,0
581,-727,0,0,0,0,0,0,0,0,0,-1,1805,1751,0,0
588,-727,0,0,0,0,0,0,0,0,0,-1,1812,1751,0,0
595,-727,0,0,0,0,0,0,0,0,0,-1,1819,1751,0,0
602,-727,0,0,0,0,0,0,0,0,0,-1,1826,1751,0,0
609,-727,0,0,0,0,0,0,0,0,0,-1,1833,1751,0,0
616,-727,0,0,0,0,0,0,0,0,0,-1,1840,1751,0,0
623,-727,0,0,0,0,0,0,0,0,0,-1,1847,1751,0,0
630,-727,0,0,0,0,0,0,0,0,0,-1,1854,1751,0,0
637,-727,0,0,0,0,0,0,0,0,0,-1,1861,1751,0,0
644,-727,0,0,0,0,0,0,0,0,0,-1,1868,1751,0,0
651,-727,0,0,0,0,0,0,0,0,0,-1,1875,1751,0,0
658,-727,0,0,0,0,0,0,0,0,0,-1,1882,1751,0,0
665,-727,0,0,0,0,0,0,0,0,0,-1,1889,1751,0,0
672,-727,0,0,0,0,0,0,0,0,0,-1,1896,1751,0,0
679,-727,0,0,0,0,0,0,0,0,0,-1,1903,1751,0,0
686,-727,0,0,0,0,0,0,0,0,0,-1,1910,1751,0,0
693,-727,0,0,0,0,0,0,0,0,0,-1,1917,1751,0,0
700,-727,0,0,0,0,0,0,0,0,0,-1,1924,1751,0,0
707,-727,0,0,0,0,0,0,0,0,0,-1,1931,1751,0,0
714,-727,0,0,0,0,0,0,0,0,0,-1,1938,1751,0,0
721,-727,0,0,0,0,0,0,0,0,0,-1,1945,1751,0,0
728,-727,0,0,0,0,0,0,0,0,0,-1,1952,1751,0,0
735,-727,0,0,0,0,0,0,0,0,0,-1,1959,1751,0,0
742,-727,0,0,0,0,0,0,0,0,0,-1,1966,1751,0,0
749,-727,0,0,0,0,0,0,0,0,0,-1,1973,1751,0,0
756,-727,0,0,0,0,0,0,0,0,0,-1,1980,1751,0,0
763,-727,0,0,0,0,0,0,0,0,0,-1,1987,1751,0,0
770,-727,0,0,0,0,0,0,0,0,0,-1,1994,1751,0,0
777,-727,0,0,0,0,0,0,0,0,0,-1,2001,1751,0,0
784,-727,0,0,0,0,0,0,0,0,0,-1,2008,1751,0,0
791,-727,0,0,0,0,0,0,0,0,0,-1,2015,1751,0,0
798,-727,0,0,0,0,0,0,0,0,0,-1,2022,1751,0,0
805,-727,0,0,0,0,0,0,0,0,0,-1,2029,1751,0,0
812,-727,0,0,0,0,0,0,0,0,0,-1,2036,1751,0,0
-700,-734,0,0,0,0,0,0,0,0,0,-1,524,1758,0,0
-693,-734,0,0,0,0,0,0,0,0,0,-1,531,1758,0,0
-686,-734,0,0,0,0,0,0,0,0,0,-1,538,1758,0,0
-679,-734,0,0,0,0,0,0,0,0,0,-1,545,1758,0,0
-672,-734,0,0,0,0,0,0,0,0,0,-1,552,1758,0,0
-665,-734,0,0,0,0,0,0,0,0,0,-1,559,1758,0,0
-658,-734,0,0,0,0,0,0,0,0,0,-1,566,1758,0,0
-651,-734,0,0,0,0,0,0,0,0,0,-1,573,1758,0,0
-644,-734,0,0,0,0,0,0,0,0,0,-1,580,1758,0,0
-637,-734,0,0,0,0,0,0,0,0,0,-1,587,1758,0,0
-630,-734,0,0,0,0,0,0,0,0,0,-1,594,1758,0,0
-623,-734,0,0,0,0,0,0,0,0,0,-1,601,1758,0,0
-616,-734,0,0,0,0,0,0,0,0,0,-1,608,1758,0,0
-609,-734,0,0,0,0,0,0,0,0,0,-1,615,1758,0,0
-602,-734,0,0,0,0,0,0,0,0,0,-1,622,1758,0,0
-595,-734,0,0,0,0,0,0,0,0,0,-1,629,1758,0,0
-588,-734,0,0,0,0,0,0,0,0,0,-1,636,1758,0,0
-581,-734,0,0,0,0,0,0,0,0,0,-1,643,1758,0,0
-574,-734,0,0,0,0,0,0,0,0,0,-1,650,1758,0,0
-567,-734,0,0,0,0,0,0,0,0,0,-1,657,1758,0,0
-560,-734,0,0,0,0,0,0,0,0,0,-1,664,1758,0,0
-553,-734,0,0,0,0,0,0,0,0,0,-1,671,1758,0,0
-546,-734,0,0,0,0,0,0,0,0,0,-1,678,1758,0,0
-539,-734,0,0,0,0,0,0,0,0,0,-1,685,1758,0,0
-532,-734,0,0,0,0,0,0,0,0,0,-1,692,1758,0,0
-525,-734,0,0,0,0,0,0,0,0,0,-1,699,1758,0,0
-518,-734,0,0,0,0,0,0,0,0,0,-1,706,1758,0,0
-511,-734,0,0,0,0,0,0,0,0,0,-1,713,1758,0,0
-504,-734,0,0,0,0,0,0,0,0,0,-1,720,1758,0,0
-497,-734,0,0,0,0,0,0,0,0,0,-1,727,1758,0,0
-490,-734,0,0,0,0,0,0,0,0,0,-1,734,1758,0,0
-483,-734,0,0,0,0,0,0,0,0,0,-1,741,1758,0,0
-476,-734,0,0,0,0,0,0,0,0,0,-1,748,1758,0,0
-469,-734,0,0,0,0,0,0,0,0,0,-1,755,1758,0,0
-462,-734,0,0,0,0,0,0,0,0,0,-1,762,1758,0,0
-455,-734,0,0,0,0,0,0,0,0,0,-1,769,1758,0,0
-448,-734,0,0,0,0,0,0,0,0,0,-1,776,1758,0,0
-441,-734,0,0,0,0,0,0,0,0,0,-1,783,1758,0,0
-434,-734,0,0,0,0,0,0,0,0,0,-1,790,1758,0,0
-427,-734,0,0,0,0,0,0,0,0,0,-1,797,1758,0,0
-420,-734,0,0,0,0,0,0,0,0,0,-1,804,1758,0,0
-413,-734,0,0,0,0,0,0,0,0,0,-1,811,1758,0,0
-406,-734,0,0,0,0,0,0,0,0,0,-1,818,1758,0,0
-399,-734,0,0,0,0,0,0,0,0,0,-1,825,1758,0,0
-392,-734,0,0,0,0,0,0,0,0,0,-1,832,1758,0,0
-385,-734,0,0,0,0,0,0,0,0,0,-1,839,1758,0,0
-378,-734,0,0,0,0,0,0,0,0,0,-1,846,1758,0,0
-371,-734,0,0,0,0,0,0,0,0,0,-1,853,1758,0,0
-364,-734,0,0,0,0,0,0,0,0,0,-1,860,1758,0,0
-357,-734,0,0,0,0,0,0,0,0,0,-1,867,1758,0,0
-350,-734,0,0,0,0,0,0,0,0,0,-1,874,1758,0,0
-343,-734,0,0,0,0,0,0,0,0,0,-1,881,1758,0,0
-336,-734,0,0,0,0,0,0,0,0,0,-1,888,1758,0,0
-329,-734,0,0,0,0,0,0,0,0,0,-1,895,1758,0,0
-322,-734,0,0,0,0,0,0,0,0,0,-1,902,1758,0,0
-315,-734,0,0,0,0,0,0,0,0,0,-1,909,1758,0,0
-308,-734,0,0,0,0,0,0,0,0,0,-1,916,1758,0,0
-301,-734,0,0,0,0,0,0,0,0,0,-1,923,1758,0,0
-294,-734,0,0,0,0,0,0,0,0,0,-1,930,1758,0,0
-287,-734,0,0,0,0,0,0,0,0,0,-1,937,1758,0,0
-280,-734,0,0,0,0,0,0,0,0,0,-1,944,1758,0,0
-273,-734,0,0,0,0,0,0,0,0,0,-1,951,1758,0,0
-266,-734,0,0,0,0,0,0,0,0,0,-1,958,1758,0,0
-259,-734,0,0,0,0,0,0,0,0,0,-1,965,1758,0,0
-252,-734,6.93439,18.351,0,0,0,0,0,0,0,-1,972,1758,6.93438,-18.3509
-245,-734,6.95746,19.5341,0,0,0,0,0,0,0,-1,979,1758,6.95746,-19.5341
-238,-734,6.69128,15.3165,0,0,0,0,0,0,0,-1,986,1758,6.69128,-15.3166
-231,-734,7.35022,15.5492,0,0,0,0,0,0,0,-1,993,1758,7.3502,-15.5492
-224,-734,7.4632,15.9962,0,0,0,0,0,0,0,-1,1000,1758,7.46319,-15.9962
-217,-734,7.54193,16.1692,0,0,0,0,0,0,0,-1,1007,1758,7.54194,-16.1691
-210,-734,7.62262,16.1628,0,0,0,0,0,0,0,-1,1014,1758,7.6226,-16.1628
-203,-734,5.32764,21.4656,0,0,0,0,0,0,0,-1,1021,1758,5.32762,-21.4655
-196,-734,7.18115,22.1609,0,0,0,0,0,0,0,-1,1028,1758,7.18112,-22.1609
-189,-734,7.84216,27.2157,0,0,0,0,0,0,0,-1,1035,1758,7.8422,-27.2157
-182,-734,7.24097,28.4713,0,0,0,0,0,0,0,-1,1042,1758,7.24098,-28.4714
-175,-734,7.3667,26.2832,0,0,0,0,0,0,0,-1,1049,1758,7.3667,-26.2832
-168,-734,7.36365,28.0737,0,0,0,0,0,0,0,-1,1056,1758,7.36368,-28.0737
-161,-734,7.7168,29.0051,0,0,0,0,0,0,0,-1,1063,1758,7.71681,-29.0051
-154,-734,6.89697,28.6519,0,0,0,0,0,0,0,-1,1070,1758,6.89699,-28.6519
-147,-734,7.19214,28.8385,0,0,0,0,0,0,0,-1,1077,1758,7.19215,-28.8385
-140,-734,7.48535,28.9512,0.00017994,-0.000898803,0.00296649,0.00265569,-0.00337456,0.69547,0.0034898,0.0491095,1084,1758,7.4853,-28.9512
-133,-734,7.62463,29.3168,-0.00115438,0.00110459,0.00244622,0.00266949,-0.00271929,1.00168,0.00311126,0.0484575,1091,1758,7.62467,-29.3168
-126,-734,7.33203,29.4753,-0.00246,0.00287347,0.00177934,0.00341259,-0.00299913,1.2766,0.00370437,0.0400133,1098,1758,7.33204,-29.4753
-119,-734,7.39807,29.856,0,0,0,0,0,0,0,-1,1105,1758,7.39802,-29.8559
-112,-734,7.39282,29.9076,-0.00373564,0.0054024,0.00138877,0.0056088,-0.00394204,1.42326,0.0055421,0.0341271,1112,1758,7.39279,-29.9076
-105,-734,7.35217,30.1063,-0.00407547,0.00609718,0.00131315,0.00626396,-0.00424224,1.44447,0.00610308,0.025964,1119,1758,7.35213,-30.1063
-98,-734,7.37097,30.218,-0.00407678,0.00659452,0.00137898,0.00676983,-0.00425209,1.44434,0.00641862,0.0259615,1126,1758,7.37099,-30.218
-91,-734,7.32898,30.403,-0.00382712,0.00697148,0.00144176,0.00716066,-0.0040163,1.44033,0.00653759,0.030161,1133,1758,7.32895,-30.403
-84,-734,7.22644,30.6157,-0.00383393,0.00679882,0.00142352,0.0069861,-0.00402122,1.43998,0.00643146,0.0280736,1140,1758,7.22648,-30.6157
-77,-734,7.20569,30.7845,-0.00321295,0.00641608,0.00161828,0.00668077,-0.00347765,1.40867,0.00596136,0.0307793,1147,1758,7.20574,-30.7846
-70,-734,7.15527,30.7939,-0.00240906,0.00567026,0.00153557,0.00595227,-0.00269107,1.38917,0.00510726,0.0291606,1154,1758,7.15525,-30.7939
-63,-734,7.16101,30.9589,-0.00253425,0.00374561,0.000947644,0.00388549,-0.00267413,1.42424,0.00380867,0.0232111,1161,1758,7.16096,-30.9589
-56,-734,7.20239,31.2555,-0.00257108,0.00242403,0.000373469,0.0024518,-0.00259885,1.49658,0.00291641,0.0157925,1168,1758,7.20235,-31.2555
-49,-734,7.18347,31.4102,-0.00248973,0.00185299,0.000110994,0.00185582,-0.00249257,1.54526,0.0025195,0.0135298,1175,1758,7.18348,-31.4101
-42,-734,7.1499,31.5372,-0.00217983,0.00157357,0.000144695,0.00157914,-0.0021854,1.53232,0.00218283,0.0137854,1182,1758,7.14988,-31.5372
-35,-734,7.15466,31.6202,-0.00175483,0.00122365,0.000104732,0.00122733,-0.0017585,1.53569,0.00173294,0.0132947,1189,1758,7.15469,-31.6202
-28,-734,7.16309,31.7222,-0.00146555,0.00108844,-1.91464e-06,0.00108844,-0.00146555,-1.57005,0.0014799,0.00971919,1196,1758,7.1631,-31.7222
-21,-734,7.1908,31.827,-0.000466916,0.000686552,-0.000242277,0.000735373,-0.000515738,-1.37195,0.00072603,0.0145929,1203,1758,7.19077,-31.827
-14,-734,7.1394,31.9417,0.000242593,0.000445494,-0.000455734,0.000810933,-0.000122846,-0.894917,0.000585879,0.0148363,1210,1758,7.13936,-31.9416
-7,-734,7.10742,32.0194,0.00050767,0.000447225,-0.000555944,0.00103421,-7.93175e-05,-0.758244,0.000717377,0.016793,1217,1758,7.10741,-32.0195
0,-734,7.10474,32.0907,0.00100091,0.00103456,-0.000411589,0.00142967,0.000605801,-0.805822,0.000828613,0.0168989,1224,1758,7.10468,-32.0907
7,-734,7.09412,32.1608,0.0014344,0.00140973,-0.00040465,0.0018269,0.00101722,-0.770159,0.00105703,0.0133874,1231,1758,7.09407,-32.1607
14,-734,7.07385,32.2487,0.00173143,0.00181002,-0.000430988,0.0022035,0.00133795,-0.830857,0.0012819,0.0140405,1238,1758,7.07386,-32.2487
21,-734,7.05334,32.3021,0.00192844,0.00220214,-0.000300431,0.00239542,0.00173516,-0.999112,0.00142865,0.0122294,1245,1758,7.05331,-32.3021
28,-734,7.06592,32.3365,0.0020719,0.00273349,0.000134957,0.00275996,0.00204543,1.37712,0.00165407,0.0113856,1252,1758,7.0659,-32.3366
35,-734,7.07776,32.3762,0.00216359,0.00311497,0.000514121,0.00333971,0.00193885,1.15869,0.0019365,0.0138255,1259,1758,7.07776,-32.3762
42,-734,7.07727,32.3845,0.00221028,0.00359614,0.00102102,0.00413716,0.00166926,1.08353,0.00240338,0.0118328,1266,1758,7.0773,-32.3845
49,-734,7.0614,32.4073,0.00226273,0.00400767,0.00159526,0.00495345,0.00131694,1.03563,0.00296255,0.0102255,1273,1758,7.06145,-32.4074
56,-734,7.05005,32.4556,0.00236863,0.00425607,0.00203978,0.00555986,0.00106484,1.00206,0.00340755,0.00961202,1280,1758,7.04999,-32.4555
63,-734,7.04102,32.4598,0.00218877,0.00437918,0.00259358,0.00609932,0.000468637,0.985178,0.00391935,0.0126392,1287,1758,7.04108,-32.4598
70,-734,7.0343,32.4714,0.00205811,0.00446295,0.00307579,0.006563,-4.19389e-05,0.97173,0.00438938,0.0134517,1294,1758,7.03425,-32.4714
77,-734,7.04272,32.5161,0.0020164,0.00411967,0.00330966,0.00654075,-0.000404689,0.939227,0.00450147,0.0171399,1301,1758,7.0427,-32.5161
84,-734,7.03259,32.4478,0.00159896,0.003613,0.00332921,0.00608416,-0.000872196,0.932264,0.00437591,0.0154631,1308,1758,7.03265,-32.4478
91,-734,7.02588,32.4089,0.0014763,0.0031706,0.0032275,0.00566027,-0.00101337,0.913743,0.00415273,0.0168198,1315,1758,7.02592,-32.409
98,-734,7.01953,32.4059,0.00171221,0.00239632,0.0028404,0.00491519,-0.000806658,0.845322,0.00357614,0.0129826,1322,1758,7.01955,-32.4059
105,-734,7.02576,32.3812,0.00152659,0.0012316,0.00214612,0.00353028,-0.000772088,0.751088,0.00264866,0.0151136,1329,1758,7.02578,-32.3812
112,-734,7.04138,32.3267,0.00135821,0.000374541,0.00154472,0.00248751,-0.000754756,0.631274,0.00195901,0.0136928,1336,1758,7.04142,-32.3266
119,-734,7.02441,32.2587,0.00114835,-0.000514126,0.000881648,0.00152883,-0.000894605,0.407409,0.00141505,0.0135142,1343,1758,7.02435,-32.2587
126,-734,7.01343,32.1921,0.000937891,-0.00127836,0.000147132,0.000947616,-0.00128808,0.066002,0.00129576,0.0150893,1350,1758,7.01341,-32.1921
133,-734,6.99536,32.1508,0.000727198,-0.00189934,-0.000585482,0.000851797,-0.00202394,-0.209686,0.00170566,0.0135559,1357,1758,6.9954,-32.1508
140,-734,6.9917,32.1229,0.000563818,-0.00210044,-0.00093342,0.000858294,-0.00239491,-0.305598,0.00194683,0.0178886,1364,1758,6.99174,-32.123
147,-734,6.97278,32.001,0.000434308,-0.00218891,-0.00111208,0.000842302,-0.00259691,-0.351629,0.00206997,0.0137263,1371,1758,6.97276,-32.001
154,-734,6.9585,31.9204,0.000181321,-0.00221687,-0.00122488,0.000696334,-0.00273189,-0.398018,0.00209236,0.00983217,1378,1758,6.95845,-31.9205
161,-734,6.95361,31.8407,-0.00010073,-0.00211773,-0.00119915,0.000457627,-0.00267609,-0.435772,0.00195454,0.00894551,1385,1758,6.95358,-31.8407
168,-734,6.91125,31.7347,2.20336e-05,-0.00197665,-0.00144241,0.000777468,-0.00273208,-0.482451,0.00212841,0.0137037,1392,1758,6.91121,-31.7347
175,-734,6.91309,31.6318,-0.000217997,-0.00160115,-0.0017798,0.00099987,-0.00281902,-0.600092,0.0022867,0.0162358,1399,1758,6.91308,-31.6319
182,-734,6.94214,31.5073,-0.000717882,-0.00087016,-0.0020072,0.00121463,-0.00280267,-0.766441,0.00237903,0.0145744,1406,1758,6.94211,-31.5073
189,-734,6.91785,31.3894,-0.0009433,0.000891803,-0.00169107,0.00189821,-0.00194971,-1.03397,0.00222166,0.0110075,1413,1758,6.91779,-31.3894
196,-734,6.88721,31.2794,-0.00104699,0.00157142,-0.00193622,0.00259952,-0.00207509,-1.08267,0.00270454,0.0130687,1420,1758,6.88721,-31.2795
203,-734,6.88818,31.1237,-0.00124626,0.00418854,-0.00302309,0.00553603,-0.00259375,-1.1515,0.0047951,0.0162891,1427,1758,6.88823,-31.1237
210,-734,6.88586,30.9672,-0.000657868,0.00587147,-0.00360309,0.00746893,-0.00225533,-1.15348,0.00587713,0.0207621,1434,1758,6.88588,-30.9671
217,-734,6.86011,30.7988,-0.000183566,0.00723953,-0.00401961,0.00899908,-0.00194311,-1.15818,0.00674109,0.0173563,1441,1758,6.86007,-30.7989
224,-734,6.90259,30.6182,0.000203686,0.00849105,-0.00442602,0.0104104,-0.00171561,-1.16163,0.00757713,0.0175057,1448,1758,6.90253,-30.6182
231,-734,6.83875,30.5029,0.00048397,0.00959289,-0.00476498,0.0116299,-0.00155309,-1.1668,0.00831946,0.0159568,1455,1758,6.83878,-30.5029
238,-734,6.75476,30.358,0.000911636,0.0105124,-0.00501623,0.0126551,-0.00123105,-1.1671,0.00887556,0.0172126,1462,1758,6.75478,-30.3581
245,-734,6.73206,30.1205,0.00146237,0.0111807,-0.00528973,0.0135044,-0.000861271,-1.1569,0.0093033,0.0218783,1469,1758,6.73203,-30.1205
252,-734,6.71167,29.9103,0.00181504,0.0115257,-0.00544267,0.013964,-0.000623252,-1.14961,0.00952387,0.0264163,1476,1758,6.7117,-29.9103
259,-734,6.77319,29.8419,0.00189571,0.0114301,-0.00544873,0.0139027,-0.00057689,-1.14479,0.00946665,0.0375371,1483,1758,6.77315,-29.8419
266,-734,6.80737,29.7391,0.00178592,0.0114833,-0.00544165,0.013923,-0.000653832,-1.14932,0.00950747,0.0491812,1490,1758,6.80741,-29.7391
273,-734,6.97913,29.726,0,0,0,0,0,0,0,-1,1497,1758,6.97915,-29.726
280,-734,16.6191,7.38013,0,0,0,0,0,0,0,-1,1504,1758,16.6192,-7.38011
287,-734,6.11633,28.7136,0,0,0,0,0,0,0,-1,1511,1758,6.11631,-28.7136
294,-734,6.19409,27.6177,0,0,0,0,0,0,0,-1,1518,1758,6.19414,-27.6177
301,-734,10.1803,10.5541,0,0,0,0,0,0,0,-1,1525,1758,10.1803,-10.5541
308,-734,9.00854,5.43774,0,0,0,0,0,0,0,-1,1532,1758,9.00857,-5.4377
315,-734,5.3158,17.4298,0,0,0,0,0,0,0,-1,1539,1758,5.31581,-17.4299
322,-734,9.85913,7.48096,0,0,0,0,0,0,0,-1,1546,1758,9.85916,-7.48098
329,-734,5.45972,12.4125,0,0,0,0,0,0,0,-1,1553,1758,5.45969,-12.4125
336,-734,5.92188,13.8751,0,0,0,0,0,0,0,-1,1560,1758,5.92183,-13.8751
343,-734,5.54968,5.14221,0,0,0,0,0,0,0,-1,1567,1758,5.54973,-5.14225
350,-734,5.07397,6.73242,0,0,0,0,0,0,0,-1,1574,1758,5.07402,-6.73243
357,-734,5.05542,7.19189,0,0,0,0,0,0,0,-1,1581,1758,5.05541,-7.19184
364,-734,4.43896,10.4904,0,0,0,0,0,0,0,-1,1588,1758,4.43893,-10.4904
371,-734,7.36975,17.4751,0,0,0,0,0,0,0,-1,1595,1758,7.36972,-17.4752
378,-734,0,0,0,0,0,0,0,0,0,-1,1602,1758,0,0
385,-734,0,0,0,0,0,0,0,0,0,-1,1609,1758,0,0
392,-734,0,0,0,0,0,0,0,0,0,-1,1616,1758,0,0
399,-734,0,0,0,0,0,0,0,0,0,-1,1623,1758,0,0
406,-734,0,0,0,0,0,0,0,0,0,-1,1630,1758,0,0
413,-734,0,0,0,0,0,0,0,0,0,-1,1637,1758,0,0
420,-734,0,0,0,0,0,0,0,0,0,-1,1644,1758,0,0
427,-734,0,0,0,0,0,0,0,0,0,-1,1651,1758,0,0
434,-734,0,0,0,0,0,0,0,0,0,-1,1658,1758,0,0
441,-734,0,0,0,0,0,0,0,0,0,-1,1665,1758,0,0
448,-734,0,0,0,0,0,0,0,0,0,-1,1672,1758,0,0
455,-734,0,0,0,0,0,0,0,0,0,-1,1679,1758,0,0
462,-734,0,0,0,0,0,0,0,0,0,-1,1686,1758,0,0
469,-734,0,0,0,0,0,0,0,0,0,-1,1693,1758,0,0
476,-734,0,0,0,0,0,0,0,0,0,-1,1700,1758,0,0
483,-734,0,0,0,0,0,0,0,0,0,-1,1707,1758,0,0
490,-734,0,0,0,0,0,0,0,0,0,-1,1714,1758,0,0
497,-734,0,0,0,0,0,0,0,0,0,-1,1721,1758,0,0
504,-734,0,0,0,0,0,0,0,0,0,-1,1728,1758,0,0
511,-734,0,0,0,0,0,0,0,0,0,-1,1735,1758,0,0
518,-734,0,0,0,0,0,0,0,0,0,-1,1742,1758,0,0
525,-734,0,0,0,0,0,0,0,0,0,-1,1749,1758,0,0
532,-734,0,0,0,0,0,0,0,0,0,-1,1756,1758,0,0
539,-734,0,0,0,0,0,0,0,0,0,-1,1763,1758,0,0
546,-734,0,0,0,0,0,0,0,0,0,-1,1770,1758,0,0
553,-734,0,0,0,0,0,0,0,0,0,-1,1777,1758,0,0
560,-734,0,0,0,0,0,0,0,0,0,-1,1784,1758,0,0
567,-734,0,0,0,0,0,0,0,0,0,-1,1791,1758,0,0
574,-734,0,0,0,0,0,0,0,0,0,-1,1798,1758,0,0
581,-734,0,0,0,0,0,0,0,0,0,-1,1805,1758,0,0
588,-734,0,0,0,0,0,0,0,0,0,-1,1812,1758,0,0
595,-734,0,0,0,0,0,0,0,0,0,-1,1819,1758,0,0
602,-734,0,0,0,0,0,0,0,0,0,-1,1826,1758,0,0
609,-734,0,0,0,0,0,0,0,0,0,-1,1833,1758,0,0
616,-734,0,0,0,0,0,0,0,0,0,-1,1840,1758,0,0
623,-734,0,0,0,0,0,0,0,0,0,-1,1847,1758,0,0
630,-734,0,0,0,0,0,0,0,0,0,-1,1854,1758,0,0
637,-734,0,0,0,0,0,0,0,0,0,-1,1861,1758,0,0
644,-734,0,0,0,0,0,0,0,0,0,-1,1868,1758,0,0
651,-734,0,0,0,0,0,0,0,0,0,-1,1875,1758,0,0
658,-734,0,0,0,0,0,0,0,0,0,-1,1882,1758,0,0
665,-734,0,0,0,0,0,0,0,0,0,-1,1889,1758,0,0
672,-734,0,0,0,0,0,0,0,0,0,-1,1896,1758,0,0
679,-734,0,0,0,0,0,0,0,0,0,-1,1903,1758,0,0
686,-734,0,0,0,0,0,0,0,0,0,-1,1910,1758,0,0
693,-734,0,0,0,0,0,0,0,0,0,-1,1917,1758,0,0
700,-734,0,0,0,0,0,0,0,0,0,-1,1924,1758,0,0
707,-734,0,0,0,0,0,0,0,0,0,-1,1931,1758,0,0
714,-734,0,0,0,0,0,0,0,0,0,-1,1938,1758,0,0
721,-734,0,0,0,0,0,0,0,0,0,-1,1945,1758,0,0
728,-734,0,0,0,0,0,0,0,0,0,-1,1952,1758,0,0
735,-734,0,0,0,0,0,0,0,0,0,-1,1959,1758,0,0
742,-734,0,0,0,0,0,0,0,0,0,-1,1966,1758,0,0
749,-734,0,0,0,0,0,0,0,0,0,-1,1973,1758,0,0
756,-734,0,0,0,0,0,0,0,0,0,-1,1980,1758,0,0
763,-734,0,0,0,0,0,0,0,0,0,-1,1987,1758,0,0
770,-734,0,0,0,0,0,0,0,0,0,-1,1994,1758,0,0
777,-734,0,0,0,0,0,0,0,0,0,-1,2001,1758,0,0
784,-734,0,0,0,0,0,0,0,0,0,-1,2008,1758,0,0
791,-734,0,0,0,0,0,0,0,0,0,-1,2015,1758,0,0
798,-734,0,0,0,0,0,0,0,0,0,-1,2022,1758,0,0
805,-734,0,0,0,0,0,0,0,0,0,-1,2029,1758,0,0
812,-734,0,0,0,0,0,0,0,0,0,-1,2036,1758,0,0
-700,-741,0,0,0,0,0,0,0,0,0,-1,524,1765,0,0
-693,-741,0,0,0,0,0,0,0,0,0,-1,531,1765,0,0
-686,-741,0,0,0,0,0,0,0,0,0,-1,538,1765,0,0
-679,-741,0,0,0,0,0,0,0,0,0,-1,545,1765,0,0
-672,-741,0,0,0,0,0,0,0,0,0,-1,552,1765,0,0
-665,-741,0,0,0,0,0,0,0,0,0,-1,559,1765,0,0
-658,-741,0,0,0,0,0,0,0,0,0,-1,566,1765,0,0
-651,-741,0,0,0,0,0,0,0,0,0,-1,573,1765,0,0
-644,-741,0,0,0,0,0,0,0,0,0,-1,580,1765,0,0
-637,-741,0,0,0,0,0,0,0,0,0,-1,587,1765,0,0
-630,-741,0,0,0,0,0,0,0,0,0,-1,594,1765,0,0
-623,-741,0,0,0,0,0,0,0,0,0,-1,601,1765,0,0
-616,-741,0,0,0,0,0,0,0,0,0,-1,608,1765,0,0
-609,-741,0,0,0,0,0,0,0,0,0,-1,615,1765,0,0
-602,-741,0,0,0,0,0,0,0,0,0,-1,622,1765,0,0
-595,-741,0,0,0,0,0,0,0,0,0,-1,629,1765,0,0
-588,-741,0,0,0,0,0,0,0,0,0,-1,636,1765,0,0
-581,-741,0,0,0,0,0,0,0,0,0,-1,643,1765,0,0
-574,-741,0,0,0,0,0,0,0,0,0,-1,650,1765,0,0
-567,-741,0,0,0,0,0,0,0,0,0,-1,657,1765,0,0
-560,-741,0,0,0,0,0,0,0,0,0,-1,664,1765,0,0
-553,-741,0,0,0,0,0,0,0,0,0,-1,671,1765,0,0
-546,-741,0,0,0,0,0,0,0,0,0,-1,678,1765,0,0
-539,-741,0,0,0,0,0,0,0,0,0,-1,685,1765,0,0
-532,-741,0,0,0,0,0,0,0,0,0,-1,692,1765,0,0
-525,-741,0,0,0,0,0,0,0,0,0,-1,699,1765,0,0
-518,-741,0,0,0,0,0,0,0,0,0,-1,706,1765,0,0
-511,-741,0,0,0,0,0,0,0,0,0,-1,713,1765,0,0
-504,-741,0,0,0,0,0,0,0,0,0,-1,720,1765,0,0
-497,-741,0,0,0,0,0,0,0,0,0,-1,727,1765,0,0
-490,-741,0,0,0,0,0,0,0,0,0,-1,734,1765,0,0
-483,-741,0,0,0,0,0,0,0,0,0,-1,741,1765,0,0
-476,-741,0,0,0,0,0,0,0,0,0,-1,748,1765,0,0
-469,-741,0,0,0,0,0,0,0,0,0,-1,755,1765,0,0
-462,-741,0,0,0,0,0,0,0,0,0,-1,762,1765,0,0
-455,-741,0,0,0,0,0,0,0,0,0,-1,769,1765,0,0
-448,-741,0,0,0,0,0,0,0,0,0,-1,776,1765,0,0
-441,-741,0,0,0,0,0,0,0,0,0,-1,783,1765,0,0
-434,-741,0,0,0,0,0,0,0,0,0,-1,790,1765,0,0
-427,-741,0,0,0,0,0,0,0,0,0,-1,797,1765,0,0
-420,-741,0,0,0,0,0,0,0,0,0,-1,804,1765,0,0
-413,-741,0,0,0,0,0,0,0,0,0,-1,811,1765,0,0
-406,-741,0,0,0,0,0,0,0,0,0,-1,818,1765,0,0
-399,-741,0,0,0,0,0,0,0,0,0,-1,825,1765,0,0
-392,-741,0,0,0,0,0,0,0,0,0,-1,832,1765,0,0
-385,-741,0,0,0,0,0,0,0,0,0,-1,839,1765,0,0
-378,-741,0,0,0,0,0,0,0,0,0,-1,846,1765,0,0
-371,-741,0,0,0,0,0,0,0,0,0,-1,853,1765,0,0
-364,-741,0,0,0,0,0,0,0,0,0,-1,860,1765,0,0
-357,-741,0,0,0,0,0,0,0,0,0,-1,867,1765,0,0
-350,-741,0,0,0,0,0,0,0,0,0,-1,874,1765,0,0
-343,-741,0,0,0,0,0,0,0,0,0,-1,881,1765,0,0
-336,-741,0,0,0,0,0,0,0,0,0,-1,888,1765,0,0
-329,-741,0,0,0,0,0,0,0,0,0,-1,895,1765,0,0
-322,-741,0,0,0,0,0,0,0,0,0,-1,902,1765,0,0
-315,-741,0,0,0,0,0,0,0,0,0,-1,909,1765,0,0
-308,-741,0,0,0,0,0,0,0,0,0,-1,916,1765,0,0
-301,-741,0,0,0,0,0,0,0,0,0,-1,923,1765,0,0
-294,-741,0,0,0,0,0,0,0,0,0,-1,930,1765,0,0
-287,-741,0,0,0,0,0,0,0,0,0,-1,937,1765,0,0
-280,-741,0,0,0,0,0,0,0,0,0,-1,944,1765,0,0
-273,-741,0,0,0,0,0,0,0,0,0,-1,951,1765,0,0
-266,-741,0,0,0,0,0,0,0,0,0,-1,958,1765,0,0
-259,-741,0,0,0,0,0,0,0,0,0,-1,965,1765,0,0
-252,-741,0,0,0,0,0,0,0,0,0,-1,972,1765,0,0
-245,-741,0,0,0,0,0,0,0,0,0,-1,979,1765,0,0
-238,-741,5.63202,14.9113,0,0,0,0,0,0,0,-1,986,1765,5.632,-14.9112
-231,-741,6.10602,15.245,0,0,0,0,0,0,0,-1,993,1765,6.10605,-15.245
-224,-741,6.60541,15.9323,0,0,0,0,0,0,0,-1,1000,1765,6.60538,-15.9323
-217,-741,6.99121,16.5245,0,0,0,0,0,0,0,-1,1007,1765,6.99118,-16.5245
-210,-741,5.80957,23.4917,0,0,0,0,0,0,0,-1,1014,1765,5.8096,-23.4917
-203,-741,5.50122,22.6226,0,0,0,0,0,0,0,-1,1021,1765,5.50125,-22.6225
-196,-741,6.81299,22.079,0,0,0,0,0,0,0,-1,1028,1765,6.81296,-22.079
-189,-741,7.14319,22.3441,0,0,0,0,0,0,0,-1,1035,1765,7.1432,-22.3441
-182,-741,7.4458,23.6536,0,0,0,0,0,0,0,-1,1042,1765,7.44582,-23.6536
-175,-741,7.26477,24.616,0,0,0,0,0,0,0,-1,1049,1765,7.26471,-24.616
-168,-741,5.4801,16.3933,0,0,0,0,0,0,0,-1,1056,1765,5.4801,-16.3933
-161,-741,3.73047,14.4974,0,0,0,0,0,0,0,-1,1063,1765,3.73043,-14.4974
-154,-741,2.46143,9.75415,0,0,0,0,0,0,0,-1,1070,1765,2.46145,-9.75416
-147,-741,7.20508,29.0835,0,0,0,0,0,0,0,-1,1077,1765,7.20509,-29.0835
-140,-741,7.80591,29.0317,0,0,0,0,0,0,0,-1,1084,1765,7.80585,-29.0317
-133,-741,8.07617,29.5637,0,0,0,0,0,0,0,-1,1091,1765,8.0762,-29.5637
-126,-741,7.50452,29.526,0,0,0,0,0,0,0,-1,1098,1765,7.50453,-29.5261
-119,-741,6.82251,29.251,0,0,0,0,0,0,0,-1,1105,1765,6.82256,-29.251
-112,-741,7.57617,29.8801,0,0,0,0,0,0,0,-1,1112,1765,7.57613,-29.8801
-105,-741,7.5509,30.0415,0,0,0,0,0,0,0,-1,1119,1765,7.55085,-30.0415
-98,-741,7.59167,30.1451,0,0,0,0,0,0,0,-1,1126,1765,7.59162,-30.1451
-91,-741,7.43274,30.3103,0,0,0,0,0,0,0,-1,1133,1765,7.4327,-30.3103
-84,-741,7.2655,30.3507,0,0,0,0,0,0,0,-1,1140,1765,7.26548,-30.3507
-77,-741,7.2699,29.9852,0,0,0,0,0,0,0,-1,1147,1765,7.26992,-29.9852
-70,-741,7.13733,30.1436,0,0,0,0,0,0,0,-1,1154,1765,7.13733,-30.1435
-63,-741,7.15125,30.7117,0,0,0,0,0,0,0,-1,1161,1765,7.15126,-30.7117
-56,-741,7.35608,31.2463,0,0,0,0,0,0,0,-1,1168,1765,7.3561,-31.2463
-49,-741,7.3208,31.439,0,0,0,0,0,0,0,-1,1175,1765,7.32079,-31.439
-42,-741,7.24695,31.5259,0,0,0,0,0,0,0,-1,1182,1765,7.24696,-31.5259
-35,-741,7.25757,31.605,-0.00110957,0.00328329,0.000991772,0.00349682,-0.0013231,1.35873,0.00287557,0.0238669,1189,1765,7.25753,-31.605
-28,-741,7.27014,31.735,-0.000433326,0.00303656,0.00104878,0.00332892,-0.000725689,1.29893,0.00249658,0.0141744,1196,1765,7.27009,-31.7349
-21,-741,7.28235,31.8424,0.00124431,0.00227288,0.000794123,0.0027047,0.00081249,1.07275,0.0016025,0.0175924,1203,1765,7.28238,-31.8424
-14,-741,7.23254,31.9454,0.00223558,0.00172683,0.00044349,0.00249247,0.00146994,0.525017,0.00144674,0.0174104,1210,1765,7.23259,-31.9454
-7,-741,7.20532,32.0013,0.00257266,0.00138906,0.00019359,0.00260352,0.0013582,0.158074,0.00150361,0.0152299,1217,1765,7.20529,-32.0013
0,-741,7.17822,32.0684,0.00323235,0.00170626,0.00030819,0.00329224,0.00164637,0.19193,0.00190077,0.0157251,1224,1765,7.17826,-32.0683
7,-741,7.1488,32.1268,0.0037843,0.00175368,0.000203314,0.00380446,0.00173352,0.098817,0.00219938,0.0177577,1231,1765,7.14876,-32.1269
14,-741,7.13599,32.2219,0.00412154,0.00186562,6.13152e-05,0.00412321,0.00186396,0.0271529,0.00238418,0.0167794,1238,1765,7.136,-32.222
21,-741,7.12012,32.2889,0.00427977,0.00207173,0.000264104,0.00431092,0.00204058,0.117404,0.00249009,0.0124486,1245,1765,7.1201,-32.2889
28,-741,7.10742,32.3516,0.00432857,0.00241976,0.000807213,0.00462416,0.00212417,0.351019,0.00267269,0.0128487,1252,1765,7.10747,-32.3516
35,-741,7.11621,32.3867,0.00426722,0.00270252,0.00134287,0.00503901,0.00193072,0.521635,0.00293564,0.0150442,1259,1765,7.11626,-32.3867
42,-741,7.10437,32.3928,0.00409578,0.00311523,0.00202758,0.00569152,0.0015195,0.666773,0.00340288,0.0155079,1266,1765,7.10442,-32.3929
49,-741,7.08728,32.4131,0.00397658,0.00357967,0.00280374,0.00658888,0.000967368,0.750066,0.00410827,0.010497,1273,1765,7.08734,-32.4131
56,-741,7.06714,32.4489,0.00394267,0.00391043,0.00339943,0.00732602,0.000527085,0.783027,0.00471814,0.0099479,1280,1765,7.06711,-32.4488
63,-741,7.04395,32.4441,0.00352087,0.00415611,0.0041005,0.00795127,-0.000274296,0.82405,0.0053946,0.0142986,1287,1765,7.04397,-32.4441
70,-741,7.03894,32.4559,0.00317469,0.00441474,0.00471097,0.00854632,-0.000956886,0.850828,0.00604182,0.0167223,1294,1765,7.03892,-32.456
77,-741,7.02332,32.4938,0.00299603,0.00415688,0.00498548,0.00859561,-0.0014427,0.843349,0.0062669,0.0140191,1301,1765,7.02326,-32.4938
84,-741,7.00562,32.4502,0.00227763,0.00373694,0.00494638,0.0080072,-0.00199262,0.858626,0.0061116,0.0160885,1308,1765,7.00563,-32.4502
91,-741,6.9928,32.4375,0.00210868,0.00333573,0.00475773,0.00751933,-0.00207492,0.849521,0.00582896,0.0133022,1315,1765,6.99284,-32.4375
98,-741,6.98206,32.4044,0.00251005,0.0025583,0.00419342,0.00672767,-0.00165931,0.788275,0.00512849,0.0102554,1322,1765,6.982,-32.4044
105,-741,6.98767,32.3561,0.00226744,0.00121422,0.00315664,0.0049411,-0.00145943,0.702746,0.0038733,0.0108294,1329,1765,6.98768,-32.3561
112,-741,7.00281,32.3016,0.002053,0.000216406,0.00227343,0.00358659,-0.00131719,0.593455,0.00293052,0.0112549,1336,1765,7.00279,-32.3017
119,-741,6.97217,32.2594,0.00178392,-0.000861234,0.00130793,0.00232142,-0.00139874,0.389916,0.00216974,0.0133816,1343,1765,6.97216,-32.2595
126,-741,6.95508,32.2058,0.00145203,-0.00189314,0.00011923,0.00145627,-0.00189739,0.0355823,0.00194181,0.0171965,1350,1765,6.95504,-32.2058
133,-741,6.94373,32.1414,0.00107127,-0.00273823,-0.000984954,0.00131086,-0.00297782,-0.238619,0.00253765,0.0135297,1357,1765,6.94378,-32.1414
140,-741,6.90442,32.064,0.000766304,-0.00320437,-0.00159609,0.00132833,-0.0037664,-0.33857,0.00305165,0.010795,1364,1765,6.90447,-32.0639
147,-741,6.89673,31.9874,0.000518464,-0.00358861,-0.00198657,0.00132211,-0.00439225,-0.384412,0.00345427,0.0100706,1371,1765,6.89674,-31.9875
154,-741,6.89038,31.9313,9.24551e-05,-0.00395504,-0.00228769,0.00112306,-0.00498565,-0.423271,0.00375453,0.00846373,1378,1765,6.89038,-31.9313
161,-741,6.87561,31.85,-0.00036661,-0.00408343,-0.00231822,0.00074615,-0.00519618,-0.447524,0.00373775,0.0107913,1385,1765,6.87567,-31.85
168,-741,6.85669,31.7516,-0.000125557,-0.00403334,-0.00272423,0.00127303,-0.00543192,-0.474301,0.00411185,0.0249899,1392,1765,6.85673,-31.7515
175,-741,6.79602,31.6271,0,0,0,0,0,0,0,-1,1399,1765,6.79603,-31.6271
182,-741,6.8396,31.5178,0,0,0,0,0,0,0,-1,1406,1765,6.83954,-31.5179
189,-741,6.79297,31.4331,0,0,0,0,0,0,0,-1,1413,1765,6.793,-31.4331
196,-741,6.771,31.3116,0,0,0,0,0,0,0,-1,1420,1765,6.77095,-31.3116
203,-741,6.78247,31.1011,0,0,0,0,0,0,0,-1,1427,1765,6.78244,-31.1011
210,-741,6.75745,30.847,0,0,0,0,0,0,0,-1,1434,1765,6.75739,-30.8471
217,-741,6.91895,30.6376,0,0,0,0,0,0,0,-1,1441,1765,6.91893,-30.6376
224,-741,6.92957,30.4741,0,0,0,0,0,0,0,-1,1448,1765,6.92957,-30.4742
231,-741,6.60339,30.5165,0,0,0,0,0,0,0,-1,1455,1765,6.60341,-30.5165
238,-741,6.5426,30.371,0.00125792,0.0155074,-0.00697495,0.0183532,-0.00158789,-1.18341,0.0127976,0.0425359,1462,1765,6.54258,-30.371
245,-741,6.53064,29.9862,0.00206594,0.01654,-0.00737281,0.0196341,-0.0010282,-1.17345,0.0134452,0.0463814,1469,1765,6.53063,-29.9862
252,-741,6.66028,29.3789,0.00266687,0.0171481,-0.00761855,0.0204179,-0.000602921,-1.16538,0.0138173,0.0461672,1476,1765,6.66034,-29.3789
259,-741,6.60913,29.938,0,0,0,0,0,0,0,-1,1483,1765,6.60919,-29.9379
266,-741,6.63513,29.8971,0,0,0,0,0,0,0,-1,1490,1765,6.63518,-29.8971
273,-741,17.0328,7.54468,0,0,0,0,0,0,0,-1,1497,1765,17.0328,-7.54474
280,-741,16.2363,9.84546,0,0,0,0,0,0,0,-1,1504,1765,16.2363,-9.84547
287,-741,14.5045,8.71423,0,0,0,0,0,0,0,-1,1511,1765,14.5045,-8.71429
294,-741,12.1156,8.16724,0,0,0,0,0,0,0,-1,1518,1765,12.1156,-8.16724
301,-741,11.036,7.02612,0,0,0,0,0,0,0,-1,1525,1765,11.036,-7.02617
308,-741,10.4718,6.09814,0,0,0,0,0,0,0,-1,1532,1765,10.4718,-6.0981
315,-741,9.70715,6.86963,0,0,0,0,0,0,0,-1,1539,1765,9.70712,-6.86963
322,-741,9.21252,8.54858,0,0,0,0,0,0,0,-1,1546,1765,9.21251,-8.54858
329,-741,8.5603,10.1146,0,0,0,0,0,0,0,-1,1553,1765,8.56033,-10.1146
336,-741,4.74475,14.6453,0,0,0,0,0,0,0,-1,1560,1765,4.7447,-14.6452
343,-741,5.42297,5.93701,0,0,0,0,0,0,0,-1,1567,1765,5.42296,-5.937
350,-741,4.90369,5.44666,0,0,0,0,0,0,0,-1,1574,1765,4.90368,-5.44664
357,-741,4.02063,5.16626,0,0,0,0,0,0,0,-1,1581,1765,4.02058,-5.1662
364,-741,0,0,0,0,0,0,0,0,0,-1,1588,1765,0,0
371,-741,0,0,0,0,0,0,0,0,0,-1,1595,1765,0,0
378,-741,0,0,0,0,0,0,0,0,0,-1,1602,1765,0,0
385,-741,0,0,0,0,0,0,0,0,0,-1,1609,1765,0,0
392,-741,0,0,0,0,0,0,0,0,0,-1,1616,1765,0,0
399,-741,0,0,0,0,0,0,0,0,0,-1,1623,1765,0,0
406,-741,0,0,0,0,0,0,0,0,0,-1,1630,1765,0,0
413,-741,0,0,0,0,0,0,0,0,0,-1,1637,1765,0,0
420,-741,0,0,0,0,0,0,0,0,0,-1,1644,1765,0,0
427,-741,0,0,0,0,0,0,0,0,0,-1,1651,1765,0,0
434,-741,0,0,0,0,0,0,0,0,0,-1,1658,1765,0,0
441,-741,0,0,0,0,0,0,0,0,0,-1,1665,1765,0,0
448,-741,0,0,0,0,0,0,0,0,0,-1,1672,1765,0,0
455,-741,0,0,0,0,0,0,0,0,0,-1,1679,1765,0,0
462,-741,0,0,0,0,0,0,0,0,0,-1,1686,1765,0,0
469,-741,0,0,0,0,0,0,0,0,0,-1,1693,1765,0,0
476,-741,0,0,0,0,0,0,0,0,0,-1,1700,1765,0,0
483,-741,0,0,0,0,0,0,0,0,0,-1,1707,1765,0,0
490,-741,0,0,0,0,0,0,0,0,0,-1,1714,1765,0,0
497,-741,0,0,0,0,0,0,0,0,0,-1,1721,1765,0,0
504,-741,0,0,0,0,0,0,0,0,0,-1,1728,1765,0,0
511,-741,0,0,0,0,0,0,0,0,0,-1,1735,1765,0,0
518,-741,0,0,0,0,0,0,0,0,0,-1,1742,1765,0,0
525,-741,0,0,0,0,0,0,0,0,0,-1,1749,1765,0,0
532,-741,0,0,0,0,0,0,0,0,0,-1,1756,1765,0,0
539,-741,0,0,0,0,0,0,0,0,0,-1,1763,1765,0,0
546,-741,0,0,0,0,0,0,0,0,0,-1,1770,1765,0,0
553,-741,0,0,0,0,0,0,0,0,0,-1,1777,1765,0,0
560,-741,0,0,0,0,0,0,0,0,0,-1,1784,1765,0,0
567,-741,0,0,0,0,0,0,0,0,0,-1,1791,1765,0,0
574,-741,0,0,0,0,0,0,0,0,0,-1,1798,1765,0,0
581,-741,0,0,0,0,0,0,0,0,0,-1,1805,1765,0,0
588,-741,0,0,0,0,0,0,0,0,0,-1,1812,1765,0,0
595,-741,0,0,0,0,0,0,0,0,0,-1,1819,1765,0,0
602,-741,0,0,0,0,0,0,0,0,0,-1,1826,1765,0,0
609,-741,0,0,0,0,0,0,0,0,0,-1,1833,1765,0,0
616,-741,0,0,0,0,0,0,0,0,0,-1,1840,1765,0,0
623,-741,0,0,0,0,0,0,0,0,0,-1,1847,1765,0,0
630,-741,0,0,0,0,0,0,0,0,0,-1,1854,1765,0,0
637,-741,0,0,0,0,0,0,0,0,0,-1,1861,1765,0,0
644,-741,0,0,0,0,0,0,0,0,0,-1,1868,1765,0,0
651,-741,0,0,0,0,0,0,0,0,0,-1,1875,1765,0,0
658,-741,0,0,0,0,0,0,0,0,0,-1,1882,1765,0,0
665,-741,0,0,0,0,0,0,0,0,0,-1,1889,1765,0,0
672,-741,0,0,0,0,0,0,0,0,0,-1,1896,1765,0,0
679,-741,0,0,0,0,0,0,0,0,0,-1,1903,1765,0,0
686,-741,0,0,0,0,0,0,0,0,0,-1,1910,1765,0,0
693,-741,0,0,0,0,0,0,0,0,0,-1,1917,1765,0,0
700,-741,0,0,0,0,0,0,0,0,0,-1,1924,1765,0,0
707,-741,0,0,0,0,0,0,0,0,0,-1,1931,1765,0,0
714,-741,0,0,0,0,0,0,0,0,0,-1,1938,1765,0,0
721,-741,0,0,0,0,0,0,0,0,0,-1,1945,1765,0,0
728,-741,0,0,0,0,0,0,0,0,0,-1,1952,1765,0,0
735,-741,0,0,0,0,0,0,0,0,0,-1,1959,1765,0,0
742,-741,0,0,0,0,0,0,0,0,0,-1,1966,1765,0,0
749,-741,0,0,0,0,0,0,0,0,0,-1,1973,1765,0,0
756,-741,0,0,0,0,0,0,0,0,0,-1,1980,1765,0,0
763,-741,0,0,0,0,0,0,0,0,0,-1,1987,1765,0,0
770,-741,0,0,0,0,0,0,0,0,0,-1,1994,1765,0,0
777,-741,0,0,0,0,0,0,0,0,0,-1,2001,1765,0,0
784,-741,0,0,0,0,0,0,0,0,0,-1,2008,1765,0,0
791,-741,0,0,0,0,0,0,0,0,0,-1,2015,1765,0,0
798,-741,0,0,0,0,0,0,0,0,0,-1,2022,1765,0,0
805,-741,0,0,0,0,0,0,0,0,0,-1,2029,1765,0,0
812,-741,0,0,0,0,0,0,0,0,0,-1,2036,1765,0,0
-700,-748,0,0,0,0,0,0,0,0,0,-1,524,1772,0,0
-693,-748,0,0,0,0,0,0,0,0,0,-1,531,1772,0,0
-686,-748,0,0,0,0,0,0,0,0,0,-1,538,1772,0,0
-679,-748,0,0,0,0,0,0,0,0,0,-1,545,1772,0,0
-672,-748,0,0,0,0,0,0,0,0,0,-1,552,1772,0,0
-665,-748,0,0,0,0,0,0,0,0,0,-1,559,1772,0,0
-658,-748,0,0,0,0,0,0,0,0,0,-1,566,1772,0,0
-651,-748,0,0,0,0,0,0,0,0,0,-1,573,1772,0,0
-644,-748,0,0,0,0,0,0,0,0,0,-1,580,1772,0,0
-637,-748,0,0,0,0,0,0,0,0,0,-1,587,1772,0,0
-630,-748,0,0,0,0,0,0,0,0,0,-1,594,1772,0,0
-623,-748,0,0,0,0,0,0,0,0,0,-1,601,1772,0,0
-616,-748,0,0,0,0,0,0,0,0,0,-1,608,1772,0,0
-609,-748,0,0,0,0,0,0,0,0,0,-1,615,1772,0,0
-602,-748,0,0,0,0,0,0,0,0,0,-1,622,1772,0,0
-595,-748,0,0,0,0,0,0,0,0,0,-1,629,1772,0,0
-588,-748,0,0,0,0,0,0,0,0,0,-1,636,1772,0,0
-581,-748,0,0,0,0,0,0,0,0,0,-1,643,1772,0,0
-574,-748,0,0,0,0,0,0,0,0,0,-1,650,1772,0,0
-567,-748,0,0,0,0,0,0,0,0,0,-1,657,1772,0,0
-560,-748,0,0,0,0,0,0,0,0,0,-1,664,1772,0,0
-553,-748,0,0,0,0,0,0,0,0,0,-1,671,1772,0,0
-546,-748,0,0,0,0,0,0,0,0,0,-1,678,1772,0,0
-539,-748,0,0,0,0,0,0,0,0,0,-1,685,1772,0,0
-532,-748,0,0,0,0,0,0,0,0,0,-1,692,1772,0,0
-525,-748,0,0,0,0,0,0,0,0,0,-1,699,1772,0,0
-518,-748,0,0,0,0,0,0,0,0,0,-1,706,1772,0,0
-511,-748,0,0,0,0,0,0,0,0,0,-1,713,1772,0,0
-504,-748,0,0,0,0,0,0,0,0,0,-1,720,1772,0,0
-497,-748,0,0,0,0,0,0,0,0,0,-1,727,1772,0,0
-490,-748,0,0,0,0,0,0,0,0,0,-1,734,1772,0,0
-483,-748,0,0,0,0,0,0,0,0,0,-1,741,1772,0,0
-476,-748,0,0,0,0,0,0,0,0,0,-1,748,1772,0,0
-469,-748,0,0,0,0,0,0,0,0,0,-1,755,1772,0,0
-462,-748,0,0,0,0,0,0,0,0,0,-1,762,1772,0,0
-455,-748,0,0,0,0,0,0,0,0,0,-1,769,1772,0,0
-448,-748,0,0,0,0,0,0,0,0,0,-1,776,1772,0,0
-441,-748,0,0,0,0,0,0,0,0,0,-1,783,1772,0,0
-434,-748,0,0,0,0,0,0,0,0,0,-1,790,1772,0,0
-427,-748,0,0,0,0,0,0,0,0,0,-1,797,1772,0,0
-420,-748,0,0,0,0,0,0,0,0,0,-1,804,1772,0,0
-413,-748,0,0,0,0,0,0,0,0,0,-1,811,1772,0,0
-406,-748,0,0,0,0,0,0,0,0,0,-1,818,1772,0,0
-399,-748,0,0,0,0,0,0,0,0,0,-1,825,1772,0,0
-392,-748,0,0,0,0,0,0,0,0,0,-1,832,1772,0,0
-385,-748,0,0,0,0,0,0,0,0,0,-1,839,1772,0,0
-378,-748,0,0,0,0,0,0,0,0,0,-1,846,1772,0,0
-371,-748,0,0,0,0,0,0,0,0,0,-1,853,1772,0,0
-364,-748,0,0,0,0,0,0,0,0,0,-1,860,1772,0,0
-357,-748,0,0,0,0,0,0,0,0,0,-1,867,1772,0,0
-350,-748,0,0,0,0,0,0,0,0,0,-1,874,1772,0,0
-343,-748,0,0,0,0,0,0,0,0,0,-1,881,1772,0,0
-336,-748,0,0,0,0,0,0,0,0,0,-1,888,1772,0,0
-329,-748,0,0,0,0,0,0,0,0,0,-1,895,1772,0,0
-322,-748,0,0,0,0,0,0,0,0,0,-1,902,1772,0,0
-315,-748,0,0,0,0,0,0,0,0,0,-1,909,1772,0,0
-308,-748,0,0,0,0,0,0,0,0,0,-1,916,1772,0,0
-301,-748,0,0,0,0,0,0,0,0,0,-1,923,1772,0,0
-294,-748,0,0,0,0,0,0,0,0,0,-1,930,1772,0,0
-287,-748,0,0,0,0,0,0,0,0,0,-1,937,1772,0,0
-280,-748,0,0,0,0,0,0,0,0,0,-1,944,1772,0,0
-273,-748,0,0,0,0,0,0,0,0,0,-1,951,1772,0,0
-266,-748,0,0,0,0,0,0,0,0,0,-1,958,1772,0,0
-259,-748,0,0,0,0,0,0,0,0,0,-1,965,1772,0,0
-252,-748,0,0,0,0,0,0,0,0,0,-1,972,1772,0,0
-245,-748,0,0,0,0,0,0,0,0,0,-1,979,1772,0,0
-238,-748,0,0,0,0,0,0,0,0,0,-1,986,1772,0,0
-231,-748,0,0,0,0,0,0,0,0,0,-1,993,1772,0,0
-224,-748,0,0,0,0,0,0,0,0,0,-1,1000,1772,0,0
-217,-748,6.45807,16.5496,0,0,0,0,0,0,0,-1,1007,1772,6.45805,-16.5495
-210,-748,5.46893,25.1432,0,0,0,0,0,0,0,-1,1014,1772,5.4689,-25.1432
-203,-748,5.40662,24.1573,0,0,0,0,0,0,0,-1,1021,1772,5.40657,-24.1574
-196,-748,5.15344,22.8755,0,0,0,0,0,0,0,-1,1028,1772,5.15342,-22.8754
-189,-748,7.13208,21.4095,0,0,0,0,0,0,0,-1,1035,1772,7.13211,-21.4095
-182,-748,3.94958,20.8662,0,0,0,0,0,0,0,-1,1042,1772,3.94959,-20.8662
-175,-748,3.56726,19.4518,0,0,0,0,0,0,0,-1,1049,1772,3.5673,-19.4518
-168,-748,3.04858,18.0109,0,0,0,0,0,0,0,-1,1056,1772,3.04853,-18.0108
-161,-748,3.50562,13.2729,0,0,0,0,0,0,0,-1,1063,1772,3.5056,-13.2729
-154,-748,-3.38562,10.6989,0,0,0,0,0,0,0,-1,1070,1772,-3.38564,-10.6989
-147,-748,-6.38733,11.0702,0,0,0,0,0,0,0,-1,1077,1772,-6.38731,-11.0702
-140,-748,7.42126,23.8113,0,0,0,0,0,0,0,-1,1084,1772,7.42133,-23.8113
-133,-748,7.44727,22.0308,0,0,0,0,0,0,0,-1,1091,1772,7.44728,-22.0308
-126,-748,5.98035,22.6067,0,0,0,0,0,0,0,-1,1098,1772,5.9803,-22.6067
-119,-748,6.63342,26.309,0,0,0,0,0,0,0,-1,1105,1772,6.6334,-26.3089
-112,-748,6.91333,24.923,0,0,0,0,0,0,0,-1,1112,1772,6.91339,-24.923
-105,-748,6.83313,25.0537,0,0,0,0,0,0,0,-1,1119,1772,6.83311,-25.0537
-98,-748,6.99341,13.5935,0,0,0,0,0,0,0,-1,1126,1772,6.99343,-13.5935
-91,-748,4.85352,15.3033,0,0,0,0,0,0,0,-1,1133,1772,4.85351,-15.3033
-84,-748,-0.192017,7.26196,0,0,0,0,0,0,0,-1,1140,1772,-0.192047,-7.26201
-77,-748,4.42615,13.5537,0,0,0,0,0,0,0,-1,1147,1772,4.4261,-13.5538
-70,-748,4.46191,13.7446,0,0,0,0,0,0,0,-1,1154,1772,4.4619,-13.7446
-63,-748,4.49768,13.9355,0,0,0,0,0,0,0,-1,1161,1772,4.49769,-13.9355
-56,-748,3.05762,7.87817,0,0,0,0,0,0,0,-1,1168,1772,3.05768,-7.87822
-49,-748,3.04102,7.82471,0,0,0,0,0,0,0,-1,1175,1772,3.04096,-7.82468
-42,-748,0.793457,14.9474,0,0,0,0,0,0,0,-1,1182,1772,0.793413,-14.9474
-35,-748,7.40918,31.5387,0,0,0,0,0,0,0,-1,1189,1772,7.40919,-31.5387
-28,-748,7.37842,31.7642,0.00169061,0.00539289,0.00278582,0.00688652,0.000196976,1.07864,0.00452679,0.0492536,1196,1772,7.37838,-31.7641
-21,-748,7.36206,31.8771,0.0039288,0.00414917,0.00213266,0.00617449,0.00190348,0.811209,0.00365115,0.0237488,1203,1772,7.36209,-31.877
-14,-748,7.29297,31.9193,0.00502019,0.00344113,0.0014798,0.00590791,0.00255342,0.540339,0.00342137,0.0161562,1210,1772,7.29301,-31.9194
-7,-748,7.26013,31.9872,0.00540294,0.00280877,0.000990015,0.00573759,0.00247412,0.325967,0.00332304,0.0158492,1217,1772,7.26017,-31.9872
0,-748,7.23792,32.0446,0.0061474,0.00291997,0.000903007,0.00638287,0.00268449,0.255085,0.00370062,0.0162356,1224,1772,7.23791,-32.0445
7,-748,7.22192,32.1152,0.00674752,0.00272841,0.000521707,0.00681414,0.0026618,0.127003,0.00396539,0.0149133,1231,1772,7.22188,-32.1153
14,-748,7.20313,32.1985,0.00705742,0.0026615,0.000105395,0.00705994,0.00265897,0.0239572,0.00411721,0.0152126,1238,1772,7.20307,-32.1984
21,-748,7.19482,32.2649,0.00793579,0.0027906,0.000599852,0.0080048,0.00272159,0.114539,0.00469979,0.0107315,1245,1772,7.19479,-32.2649
28,-748,7.16626,32.3259,0.00854979,0.00337757,0.00152766,0.0089673,0.00296006,0.266783,0.00527597,0.0113348,1252,1772,7.1662,-32.3259
35,-748,7.14844,32.3708,0.00880776,0.0037543,0.00242107,0.00978045,0.00278161,0.382023,0.00581909,0.0123755,1259,1772,7.14848,-32.3709
42,-748,7.12451,32.3911,0.00906554,0.00434885,0.00362038,0.0110279,0.00238644,0.496716,0.00669969,0.0136051,1266,1772,7.12455,-32.3911
49,-748,7.10718,32.4027,0.00940588,0.00507924,0.00496328,0.0126568,0.00182831,0.579879,0.00789928,0.0107609,1273,1772,7.1072,-32.4027
56,-748,7.07898,32.4343,0.009884,0.00565926,0.00605822,0.0141876,0.00135571,0.61765,0.00904042,0.00996892,1280,1772,7.07901,-32.4344
63,-748,7.05396,32.4406,0.0097127,0.00612059,0.00723406,0.0153703,0.000462962,0.66372,0.0100961,0.0118074,1287,1772,7.05395,-32.4406
70,-748,7.04614,32.4447,0.00947437,0.00662952,0.00821351,0.0163877,-0.000283831,0.699658,0.011021,0.0136059,1294,1772,7.04613,-32.4448
77,-748,7.02686,32.4443,0.00915434,0.0064018,0.00858105,0.0164688,-0.000912649,0.705883,0.0112957,0.0130394,1301,1772,7.02682,-32.4444
84,-748,6.99243,32.4275,0.00792999,0.00590155,0.008576,0.0155515,-0.00171999,0.72654,0.010986,0.0146261,1308,1772,6.99249,-32.4275
91,-748,6.97314,32.4355,0.00729228,0.005223,0.00817064,0.0144935,-0.00197825,0.722419,0.0103848,0.0121238,1315,1772,6.97313,-32.4355
98,-748,6.94373,32.4001,0.00721205,0.00410117,0.00706885,0.0128946,-0.00158135,0.677103,0.00916906,0.0107491,1322,1772,6.94371,-32.4001
105,-748,6.9386,32.3414,0.00622126,0.00216758,0.00529484,0.00986394,-0.0014751,0.602605,0.00711878,0.0109653,1329,1772,6.93855,-32.3414
112,-748,6.95374,32.2926,0.00520824,0.000637474,0.00370642,0.00727723,-0.00143151,0.50913,0.00539237,0.0140867,1336,1772,6.95372,-32.2926
119,-748,6.93091,32.2596,0.00421112,-0.00103991,0.00204625,0.00491434,-0.00174313,0.331017,0.0039864,0.0128918,1343,1772,6.93085,-32.2597
126,-748,6.91418,32.2238,0.00251913,-0.0027483,-0.000231639,0.0025293,-0.00275847,-0.0438628,0.00305385,0.013483,1350,1772,6.91416,-32.2237
133,-748,6.86768,32.1456,0.00151682,-0.00447233,-0.00203211,0.00214122,-0.00509673,-0.298109,0.00429339,0.00828042,1357,1772,6.86772,-32.1456
140,-748,6.84021,32.0575,0.00126789,-0.00538343,-0.00287725,0.0023398,-0.00645534,-0.356617,0.00525992,0.0114326,1364,1772,6.84016,-32.0575
147,-748,6.8606,31.9941,0.000981751,-0.00622585,-0.00352081,0.00241615,-0.00766025,-0.386875,0.00607456,0.0131687,1371,1772,6.86057,-31.9941
154,-748,6.82385,31.9377,0.000475534,-0.00702555,-0.00401425,0.0022187,-0.00876871,-0.409674,0.0067088,0.0117697,1378,1772,6.82383,-31.9377
161,-748,6.79285,31.8748,-8.60931e-05,-0.00740463,-0.00407291,0.00172993,-0.00922066,-0.419422,0.00679753,0.019067,1385,1772,6.79288,-31.8748
168,-748,6.77393,31.824,0,0,0,0,0,0,0,-1,1392,1772,6.77393,-31.824
175,-748,11.6235,16.8242,0,0,0,0,0,0,0,-1,1399,1772,11.6236,-16.8242
182,-748,7.62476,10.3058,0,0,0,0,0,0,0,-1,1406,1772,7.62476,-10.3058
189,-748,6.15857,6.95898,0,0,0,0,0,0,0,-1,1413,1772,6.15862,-6.95896
196,-748,3.9425,8.46021,0,0,0,0,0,0,0,-1,1420,1772,3.9425,-8.46026
203,-748,3.9668,12.9835,0,0,0,0,0,0,0,-1,1427,1772,3.96678,-12.9836
210,-748,4.71472,16.8318,0,0,0,0,0,0,0,-1,1434,1772,4.71471,-16.8317
217,-748,5.38452,21.5551,0,0,0,0,0,0,0,-1,1441,1772,5.38455,-21.555
224,-748,6.14258,25.2345,0,0,0,0,0,0,0,-1,1448,1772,6.14263,-25.2345
231,-748,6.59912,29.5377,0,0,0,0,0,0,0,-1,1455,1772,6.59918,-29.5377
238,-748,5.89758,29.6982,0,0,0,0,0,0,0,-1,1462,1772,5.89754,-29.6983
245,-748,6.33948,29.83,0,0,0,0,0,0,0,-1,1469,1772,6.33949,-29.83
252,-748,6.61365,28.8884,0,0,0,0,0,0,0,-1,1476,1772,6.61367,-28.8884
259,-748,6.68872,28.8757,0,0,0,0,0,0,0,-1,1483,1772,6.68869,-28.8758
266,-748,17.9011,7.59448,0,0,0,0,0,0,0,-1,1490,1772,17.9011,-7.59452
273,-748,16.4131,7.57129,0,0,0,0,0,0,0,-1,1497,1772,16.413,-7.57125
280,-748,15.2177,7.24829,0,0,0,0,0,0,0,-1,1504,1772,15.2176,-7.24833
287,-748,14.161,8.32813,0,0,0,0,0,0,0,-1,1511,1772,14.161,-8.32808
294,-748,12.2117,7.453,0,0,0,0,0,0,0,-1,1518,1772,12.2116,-7.45297
301,-748,11.7134,7.3595,0,0,0,0,0,0,0,-1,1525,1772,11.7133,-7.35949
308,-748,9.92456,7.80225,0,0,0,0,0,0,0,-1,1532,1772,9.92453,-7.80224
315,-748,8.91541,8.29773,0,0,0,0,0,0,0,-1,1539,1772,8.91544,-8.29773
322,-748,7.83618,8.87122,0,0,0,0,0,0,0,-1,1546,1772,7.83613,-8.87124
329,-748,3.48315,14.6533,0,0,0,0,0,0,0,-1,1553,1772,3.48316,-14.6534
336,-748,3.76001,15.8163,0,0,0,0,0,0,0,-1,1560,1772,3.75995,-15.8163
343,-748,0,0,0,0,0,0,0,0,0,-1,1567,1772,0,0
350,-748,0,0,0,0,0,0,0,0,0,-1,1574,1772,0,0
357,-748,0,0,0,0,0,0,0,0,0,-1,1581,1772,0,0
364,-748,0,0,0,0,0,0,0,0,0,-1,1588,1772,0,0
371,-748,0,0,0,0,0,0,0,0,0,-1,1595,1772,0,0
378,-748,0,0,0,0,0,0,0,0,0,-1,1602,1772,0,0
385,-748,0,0,0,0,0,0,0,0,0,-1,1609,1772,0,0
392,-748,0,0,0,0,0,0,0,0,0,-1,1616,1772,0,0
399,-748,0,0,0,0,0,0,0,0,0,-1,1623,1772,0,0
406,-748,0,0,0,0,0,0,0,0,0,-1,1630,1772,0,0
413,-748,0,0,0,0,0,0,0,0,0,-1,1637,1772,0,0
420,-748,0,0,0,0,0,0,0,0,0,-1,1644,1772,0,0
427,-748,0,0,0,0,0,0,0,0,0,-1,1651,1772,0,0
434,-748,0,0,0,0,0,0,0,0,0,-1,1658,1772,0,0
441,-748,0,0,0,0,0,0,0,0,0,-1,1665,1772,0,0
448,-748,0,0,0,0,0,0,0,0,0,-1,1672,1772,0,0
455,-748,0,0,0,0,0,0,0,0,0,-1,1679,1772,0,0
462,-748,0,0,0,0,0,0,0,0,0,-1,1686,1772,0,0
469,-748,0,0,0,0,0,0,0,0,0,-1,1693,1772,0,0
476,-748,0,0,0,0,0,0,0,0,0,-1,1700,1772,0,0
483,-748,0,0,0,0,0,0,0,0,0,-1,1707,1772,0,0
490,-748,0,0,0,0,0,0,0,0,0,-1,1714,1772,0,0
497,-748,0,0,0,0,0,0,0,0,0,-1,1721,1772,0,0
504,-748,0,0,0,0,0,0,0,0,0,-1,1728,1772,0,0
511,-748,0,0,0,0,0,0,0,0,0,-1,1735,1772,0,0
518,-748,0,0,0,0,0,0,0,0,0,-1,1742,1772,0,0
525,-748,0,0,0,0,0,0,0,0,0,-1,1749,1772,0,0
532,-748,0,0,0,0,0,0,0,0,0,-1,1756,1772,0,0
539,-748,0,0,0,0,0,0,0,0,0,-1,1763,1772,0,0
546,-748,0,0,0,0,0,0,0,0,0,-1,1770,1772,0,0
553,-748,0,0,0,0,0,0,0,0,0,-1,1777,1772,0,0
560,-748,0,0,0,0,0,0,0,0,0,-1,1784,1772,0,0
567,-748,0,0,0,0,0,0,0,0,0,-1,1791,1772,0,0
574,-748,0,0,0,0,0,0,0,0,0,-1,1798,1772,0,0
581,-748,0,0,0,0,0,0,0,0,0,-1,1805,1772,0,0
588,-748,0,0,0,0,0,0,0,0,0,-1,1812,1772,0,0
595,-748,0,0,0,0,0,0,0,0,0,-1,1819,1772,0,0
602,-748,0,0,0,0,0,0,0,0,0,-1,1826,1772,0,0
609,-748,0,0,0,0,0,0,0,0,0,-1,1833,1772,0,0
616,-748,0,0,0,0,0,0,0,0,0,-1,1840,1772,0,0
623,-748,0,0,0,0,0,0,0,0,0,-1,1847,1772,0,0
630,-748,0,0,0,0,0,0,0,0,0,-1,1854,1772,0,0
637,-748,0,0,0,0,0,0,0,0,0,-1,1861,1772,0,0
644,-748,0,0,0,0,0,0,0,0,0,-1,1868,1772,0,0
651,-748,0,0,0,0,0,0,0,0,0,-1,1875,1772,0,0
658,-748,0,0,0,0,0,0,0,0,0,-1,1882,1772,0,0
665,-748,0,0,0,0,0,0,0,0,0,-1,1889,1772,0,0
672,-748,0,0,0,0,0,0,0,0,0,-1,1896,1772,0,0
679,-748,0,0,0,0,0,0,0,0,0,-1,1903,1772,0,0
686,-748,0,0,0,0,0,0,0,0,0,-1,1910,1772,0,0
693,-748,0,0,0,0,0,0,0,0,0,-1,1917,1772,0,0
700,-748,0,0,0,0,0,0,0,0,0,-1,1924,1772,0,0
707,-748,0,0,0,0,0,0,0,0,0,-1,1931,1772,0,0
714,-748,0,0,0,0,0,0,0,0,0,-1,1938,1772,0,0
721,-748,0,0,0,0,0,0,0,0,0,-1,1945,1772,0,0
728,-748,0,0,0,0,0,0,0,0,0,-1,1952,1772,0,0
735,-748,0,0,0,0,0,0,0,0,0,-1,1959,1772,0,0
742,-748,0,0,0,0,0,0,0,0,0,-1,1966,1772,0,0
749,-748,0,0,0,0,0,0,0,0,0,-1,1973,1772,0,0
756,-748,0,0,0,0,0,0,0,0,0,-1,1980,1772,0,0
763,-748,0,0,0,0,0,0,0,0,0,-1,1987,1772,0,0
770,-748,0,0,0,0,0,0,0,0,0,-1,1994,1772,0,0
777,-748,0,0,0,0,0,0,0,0,0,-1,2001,1772,0,0
784,-748,0,0,0,0,0,0,0,0,0,-1,2008,1772,0,0
791,-748,0,0,0,0,0,0,0,0,0,-1,2015,1772,0,0
798,-748,0,0,0,0,0,0,0,0,0,-1,2022,1772,0,0
805,-748,0,0,0,0,0,0,0,0,0,-1,2029,1772,0,0
812,-748,0,0,0,0,0,0,0,0,0,-1,2036,1772,0,0
-700,-755,0,0,0,0,0,0,0,0,0,-1,524,1779,0,0
-693,-755,0,0,0,0,0,0,0,0,0,-1,531,1779,0,0
-686,-755,0,0,0,0,0,0,0,0,0,-1,538,1779,0,0
-679,-755,0,0,0,0,0,0,0,0,0,-1,545,1779,0,0
-672,-755,0,0,0,0,0,0,0,0,0,-1,552,1779,0,0
-665,-755,0,0,0,0,0,0,0,0,0,-1,559,1779,0,0
-658,-755,0,0,0,0,0,0,0,0,0,-1,566,1779,0,0
-651,-755,0,0,0,0,0,0,0,0,0,-1,573,1779,0,0
-644,-755,0,0,0,0,0,0,0,0,0,-1,580,1779,0,0
-637,-755,0,0,0,0,0,0,0,0,0,-1,587,1779,0,0
-630,-755,0,0,0,0,0,0,0,0,0,-1,594,1779,0,0
-623,-755,0,0,0,0,0,0,0,0,0,-1,601,1779,0,0
-616,-755,0,0,0,0,0,0,0,0,0,-1,608,1779,0,0
-609,-755,0,0,0,0,0,0,0,0,0,-1,615,1779,0,0
-602,-755,0,0,0,0,0,0,0,0,0,-1,622,1779,0,0
-595,-755,0,0,0,0,0,0,0,0,0,-1,629,1779,0,0
-588,-755,0,0,0,0,0,0,0,0,0,-1,636,1779,0,0
-581,-755,0,0,0,0,0,0,0,0,0,-1,643,1779,0,0
-574,-755,0,0,0,0,0,0,0,0,0,-1,650,1779,0,0
-567,-755,0,0,0,0,0,0,0,0,0,-1,657,1779,0,0
-560,-755,0,0,0,0,0,0,0,0,0,-1,664,1779,0,0
-553,-755,0,0,0,0,0,0,0,0,0,-1,671,1779,0,0
-546,-755,0,0,0,0,0,0,0,0,0,-1,678,1779,0,0
-539,-755,0,0,0,0,0,0,0,0,0,-1,685,1779,0,0
-532,-755,0,0,0,0,0,0,0,0,0,-1,692,1779,0,0
-525,-755,0,0,0,0,0,0,0,0,0,-1,699,1779,0,0
-518,-755,0,0,0,0,0,0,0,0,0,-1,706,1779,0,0
-511,-755,0,0,0,0,0,0,0,0,0,-1,713,1779,0,0
-504,-755,0,0,0,0,0,0,0,0,0,-1,720,1779,0,0
-497,-755,0,0,0,0,0,0,0,0,0,-1,727,1779,0,0
-490,-755,0,0,0,0,0,0,0,0,0,-1,734,1779,0,0
-483,-755,0,0,0,0,0,0,0,0,0,-1,741,1779,0,0
-476,-755,0,0,0,0,0,0,0,0,0,-1,748,1779,0,0
-469,-755,0,0,0,0,0,0,0,0,0,-1,755,1779,0,0
-462,-755,0,0,0,0,0,0,0,0,0,-1,762,1779,0,0
-455,-755,0,0,0,0,0,0,0,0,0,-1,769,1779,0,0
-448,-755,0,0,0,0,0,0,0,0,0,-1,776,1779,0,0
-441,-755,0,0,0,0,0,0,0,0,0,-1,783,1779,0,0
-434,-755,0,0,0,0,0,0,0,0,0,-1,790,1779,0,0
-427,-755,0,0,0,0,0,0,0,0,0,-1,797,1779,0,0
-420,-755,0,0,0,0,0,0,0,0,0,-1,804,1779,0,0
-413,-755,0,0,0,0,0,0,0,0,0,-1,811,1779,0,0
-406,-755,0,0,0,0,0,0,0,0,0,-1,818,1779,0,0
-399,-755,0,0,0,0,0,0,0,0,0,-1,825,1779,0,0
-392,-755,0,0,0,0,0,0,0,0,0,-1,832,1779,0,0
-385,-755,0,0,0,0,0,0,0,0,0,-1,839,1779,0,0
-378,-755,0,0,0,0,0,0,0,0,0,-1,846,1779,0,0
-371,-755,0,0,0,0,0,0,0,0,0,-1,853,1779,0,0
-364,-755,0,0,0,0,0,0,0,0,0,-1,860,1779,0,0
-357,-755,0,0,0,0,0,0,0,0,0,-1,867,1779,0,0
-350,-755,0,0,0,0,0,0,0,0,0,-1,874,1779,0,0
-343,-755,0,0,0,0,0,0,0,0,0,-1,881,1779,0,0
-336,-755,0,0,0,0,0,0,0,0,0,-1,888,1779,0,0
-329,-755,0,0,0,0,0,0,0,0,0,-1,895,1779,0,0
-322,-755,0,0,0,0,0,0,0,0,0,-1,902,1779,0,0
-315,-755,0,0,0,0,0,0,0,0,0,-1,909,1779,0,0
-308,-755,0,0,0,0,0,0,0,0,0,-1,916,1779,0,0
-301,-755,0,0,0,0,0,0,0,0,0,-1,923,1779,0,0
-294,-755,0,0,0,0,0,0,0,0,0,-1,930,1779,0,0
-287,-755,0,0,0,0,0,0,0,0,0,-1,937,1779,0,0
-280,-755,0,0,0,0,0,0,0,0,0,-1,944,1779,0,0
-273,-755,0,0,0,0,0,0,0,0,0,-1,951,1779,0,0
-266,-755,0,0,0,0,0,0,0,0,0,-1,958,1779,0,0
-259,-755,0,0,0,0,0,0,0,0,0,-1,965,1779,0,0
-252,-755,0,0,0,0,0,0,0,0,0,-1,972,1779,0,0
-245,-755,0,0,0,0,0,0,0,0,0,-1,979,1779,0,0
-238,-755,0,0,0,0,0,0,0,0,0,-1,986,1779,0,0
-231,-755,0,0,0,0,0,0,0,0,0,-1,993,1779,0,0
-224,-755,0,0,0,0,0,0,0,0,0,-1,1000,1779,0,0
-217,-755,0,0,0,0,0,0,0,0,0,-1,1007,1779,0,0
-210,-755,0,0,0,0,0,0,0,0,0,-1,1014,1779,0,0
-203,-755,5.47998,25.527,0,0,0,0,0,0,0,-1,1021,1779,5.47993,-25.527
-196,-755,5.18445,23.9307,0,0,0,0,0,0,0,-1,1028,1779,5.1844,-23.9306
-189,-755,4.8175,22.4788,0,0,0,0,0,0,0,-1,1035,1779,4.81745,-22.4788
-182,-755,4.021,20.8032,0,0,0,0,0,0,0,-1,1042,1779,4.02094,-20.8032
-175,-755,3.79993,18.8242,0,0,0,0,0,0,0,-1,1049,1779,3.79995,-18.8242
-168,-755,3.14294,16.9865,0,0,0,0,0,0,0,-1,1056,1779,3.14291,-16.9864
-161,-755,-2.85889,11.5868,0,0,0,0,0,0,0,-1,1063,1779,-2.85887,-11.5868
-154,-755,-5.39026,8.51416,0,0,0,0,0,0,0,-1,1070,1779,-5.3903,-8.51417
-147,-755,-6.45593,10.2422,0,0,0,0,0,0,0,-1,1077,1779,-6.45594,-10.2422
-140,-755,1.33521,21.3856,0,0,0,0,0,0,0,-1,1084,1779,1.33522,-21.3857
-133,-755,2.89417,21.0964,0,0,0,0,0,0,0,-1,1091,1779,2.89422,-21.0964
-126,-755,3.26404,20.9304,0,0,0,0,0,0,0,-1,1098,1779,3.26399,-20.9305
-119,-755,5.17761,21.9325,0,0,0,0,0,0,0,-1,1105,1779,5.17761,-21.9325
-112,-755,5.40247,24.5646,0,0,0,0,0,0,0,-1,1112,1779,5.40244,-24.5646
-105,-755,6.6344,19.6062,0,0,0,0,0,0,0,-1,1119,1779,6.63439,-19.6062
-98,-755,6.32544,15.6812,0,0,0,0,0,0,0,-1,1126,1779,6.32543,-15.6812
-91,-755,5.51025,12.0438,0,0,0,0,0,0,0,-1,1133,1779,5.51022,-12.0439
-84,-755,0.169312,8.66443,0,0,0,0,0,0,0,-1,1140,1779,0.16932,-8.66446
-77,-755,-0.0491943,6.87439,0,0,0,0,0,0,0,-1,1147,1779,-0.0491385,-6.87443
-70,-755,4.5686,13.2169,0,0,0,0,0,0,0,-1,1154,1779,4.56865,-13.2169
-63,-755,-1.36316,7.3147,0,0,0,0,0,0,0,-1,1161,1779,-1.36312,-7.31473
-56,-755,0.0483398,5.06079,0,0,0,0,0,0,0,-1,1168,1779,0.0483138,-5.06084
-49,-755,-1.32263,5.33716,0,0,0,0,0,0,0,-1,1175,1779,-1.32264,-5.33718
-42,-755,-2.03613,4.01672,0,0,0,0,0,0,0,-1,1182,1779,-2.0361,-4.01671
-35,-755,-2.72498,2.37476,0,0,0,0,0,0,0,-1,1189,1779,-2.72502,-2.37473
-28,-755,7.3645,31.8379,0,0,0,0,0,0,0,-1,1196,1779,7.36445,-31.8379
-21,-755,7.38342,31.9788,0,0,0,0,0,0,0,-1,1203,1779,7.38348,-31.9787
-14,-755,7.48462,31.9004,0.00877899,0.00621179,0.00323507,0.0109758,0.00401497,0.596536,0.00641251,0.0323086,1210,1779,7.48467,-31.9004
-7,-755,7.33044,31.9686,0.00930118,0.00517914,0.00251264,0.01049,0.00399037,0.441911,0.00611386,0.0225529,1217,1779,7.3304,-31.9686
0,-755,7.29663,32.032,0.0102204,0.00495257,0.00221425,0.0110275,0.00414549,0.349525,0.00643173,0.0144812,1224,1779,7.29658,-32.032
7,-755,7.28735,32.1078,0.0109742,0.00445036,0.00155756,0.011327,0.00409757,0.222743,0.00662242,0.0123699,1231,1779,7.2873,-32.1077
14,-755,7.26965,32.1978,0.0113423,0.00415083,0.000857259,0.0114431,0.00405006,0.117021,0.00669996,0.0108017,1238,1779,7.26969,-32.1978
21,-755,7.24585,32.2827,0.0126614,0.00416934,0.00168102,0.0129821,0.00384869,0.188484,0.00769944,0.0148978,1245,1779,7.24583,-32.2827
28,-755,7.22522,32.3087,0.0139517,0.00586165,0.00365878,0.0153609,0.00445242,0.367652,0.00912599,0.0182064,1252,1779,7.22523,-32.3087
35,-755,7.20703,32.3785,0.0152893,0.00668265,0.00545182,0.0179315,0.0040404,0.451297,0.010861,0.0181717,1259,1779,7.207,-32.3785
42,-755,7.16724,32.3981,0.0162622,0.00788076,0.00760448,0.0207543,0.00338873,0.533559,0.0128563,0.0135847,1266,1779,7.16719,-32.3981
49,-755,7.14319,32.3944,0.0174105,0.00934043,0.00994406,0.024107,0.00264394,0.59266,0.0152665,0.00960935,1273,1779,7.14324,-32.3944
56,-755,7.10291,32.4218,0.018842,0.0106181,0.0119622,0.0273793,0.00208082,0.619852,0.0176003,0.00844869,1280,1779,7.10286,-32.4217
63,-755,7.07288,32.4427,0.0193484,0.0116625,0.0139738,0.0299981,0.00101283,0.651211,0.0196698,0.00869811,1287,1779,7.07288,-32.4427
70,-755,7.0636,32.4302,0.0197592,0.0127792,0.0156892,0.0323419,0.000196498,0.675957,0.021496,0.0114293,1294,1779,7.06359,-32.4302
77,-755,7.03088,32.4066,0.019703,0.0126635,0.0162753,0.0328348,-0.000468329,0.678908,0.0220477,0.0109676,1301,1779,7.03086,-32.4066
84,-755,7.00928,32.4019,0.0181735,0.0119424,0.0161743,0.0315295,-0.0014137,0.690252,0.0215064,0.011792,1308,1779,7.00927,-32.4019
91,-755,6.96741,32.3844,0.0171191,0.0106727,0.0152758,0.029508,-0.00171625,0.681424,0.0202683,0.0122248,1315,1779,6.96738,-32.3844
98,-755,6.92041,32.3582,0.0164545,0.00870684,0.0132473,0.0263828,-0.00122141,0.643152,0.0180095,0.0132425,1322,1779,6.92041,-32.3581
105,-755,6.92236,32.3435,0.014479,0.00560743,0.0102476,0.0212096,-0.00112318,0.581142,0.0145286,0.0154475,1329,1779,6.92242,-32.3436
112,-755,6.90186,32.2882,0.0122185,0.00285672,0.00734023,0.0162433,-0.00116812,0.501557,0.0112385,0.0206186,1336,1779,6.90189,-32.2882
119,-755,6.8656,32.2452,0.00993561,-0.000128048,0.0043335,0.0115445,-0.00173689,0.355485,0.00833581,0.0216397,1343,1779,6.86565,-32.2452
126,-755,6.85413,32.2509,0.00660019,-0.00314849,0.00036678,0.00661397,-0.00316227,0.0375528,0.00576039,0.0225921,1350,1779,6.85417,-32.2508
133,-755,6.7832,32.204,0.00403421,-0.00730476,-0.00331164,0.00493054,-0.0082011,-0.264329,0.00765954,0.0230512,1357,1779,6.78321,-32.2039
140,-755,6.67542,32.1259,0.00236571,-0.00881276,-0.0048808,0.00419684,-0.0106439,-0.358919,0.00883369,0.030812,1364,1779,6.67541,-32.1258
147,-755,6.83813,32.0586,0.00200653,-0.0102589,-0.00584167,0.00434348,-0.0125959,-0.380548,0.0101594,0.0338565,1371,1779,6.83816,-32.0587
154,-755,6.73584,32.0254,0.00138876,-0.0116048,-0.00656867,0.00413079,-0.0143468,-0.395451,0.0111984,0.0352413,1378,1779,6.73587,-32.0254
161,-755,6.72913,31.9332,0,0,0,0,0,0,0,-1,1385,1779,6.72914,-31.9332
168,-755,3.98181,7.35901,0,0,0,0,0,0,0,-1,1392,1779,3.98184,-7.35904
175,-755,8.17065,1.34363,0,0,0,0,0,0,0,-1,1399,1779,8.1706,-1.34368
182,-755,8.09216,2.96924,0,0,0,0,0,0,0,-1,1406,1779,8.09213,-2.9693
189,-755,8.04419,4.68042,0,0,0,0,0,0,0,-1,1413,1779,8.04419,-4.68046
196,-755,7.74841,7.4541,0,0,0,0,0,0,0,-1,1420,1779,7.74842,-7.45405
203,-755,4.80554,6.88696,0,0,0,0,0,0,0,-1,1427,1779,4.80554,-6.88697
210,-755,25.1694,7.35693,0,0,0,0,0,0,0,-1,1434,1779,25.1694,-7.35688
217,-755,5.01648,16.411,0,0,0,0,0,0,0,-1,1441,1779,5.01646,-16.411
224,-755,5.18103,22.6283,0,0,0,0,0,0,0,-1,1448,1779,5.18101,-22.6283
231,-755,5.7489,30.15,0,0,0,0,0,0,0,-1,1455,1779,5.74885,-30.15
238,-755,5.51196,28.8774,0,0,0,0,0,0,0,-1,1462,1779,5.51201,-28.8774
245,-755,5.76453,29.2085,0,0,0,0,0,0,0,-1,1469,1779,5.76455,-29.2085
252,-755,5.57678,29.0841,0,0,0,0,0,0,0,-1,1476,1779,5.57682,-29.0841
259,-755,5.37292,29.1577,0,0,0,0,0,0,0,-1,1483,1779,5.37293,-29.1577
266,-755,17.255,7.86096,0,0,0,0,0,0,0,-1,1490,1779,17.255,-7.86092
273,-755,15.7932,7.59778,0,0,0,0,0,0,0,-1,1497,1779,15.7932,-7.59777
280,-755,14.6255,7.34802,0,0,0,0,0,0,0,-1,1504,1779,14.6254,-7.34806
287,-755,13.8279,7.83105,0,0,0,0,0,0,0,-1,1511,1779,13.8279,-7.83104
294,-755,12.5695,7.96814,0,0,0,0,0,0,0,-1,1518,1779,12.5694,-7.9682
301,-755,11.2659,8.27087,0,0,0,0,0,0,0,-1,1525,1779,11.2658,-8.27087
308,-755,9.94434,8.55811,0,0,0,0,0,0,0,-1,1532,1779,9.94428,-8.55806
315,-755,8.64502,9.04492,0,0,0,0,0,0,0,-1,1539,1779,8.64497,-9.04488
322,-755,0,0,0,0,0,0,0,0,0,-1,1546,1779,0,0
329,-755,0,0,0,0,0,0,0,0,0,-1,1553,1779,0,0
336,-755,0,0,0,0,0,0,0,0,0,-1,1560,1779,0,0
343,-755,0,0,0,0,0,0,0,0,0,-1,1567,1779,0,0
350,-755,0,0,0,0,0,0,0,0,0,-1,1574,1779,0,0
357,-755,0,0,0,0,0,0,0,0,0,-1,1581,1779,0,0
364,-755,0,0,0,0,0,0,0,0,0,-1,1588,1779,0,0
371,-755,0,0,0,0,0,0,0,0,0,-1,1595,1779,0,0
378,-755,0,0,0,0,0,0,0,0,0,-1,1602,1779,0,0
385,-755,0,0,0,0,0,0,0,0,0,-1,1609,1779,0,0
392,-755,0,0,0,0,0,0,0,0,0,-1,1616,1779,0,0
399,-755,0,0,0,0,0,0,0,0,0,-1,1623,1779,0,0
406,-755,0,0,0,0,0,0,0,0,0,-1,1630,1779,0,0
413,-755,0,0,0,0,0,0,0,0,0,-1,1637,1779,0,0
420,-755,0,0,0,0,0,0,0,0,0,-1,1644,1779,0,0
427,-755,0,0,0,0,0,0,0,0,0,-1,1651,1779,0,0
434,-755,0,0,0,0,0,0,0,0,0,-1,1658,1779,0,0
441,-755,0,0,0,0,0,0,0,0,0,-1,1665,1779,0,0
448,-755,0,0,0,0,0,0,0,0,0,-1,1672,1779,0,0
455,-755,0,0,0,0,0,0,0,0,0,-1,1679,1779,0,0
462,-755,0,0,0,0,0,0,0,0,0,-1,1686,1779,0,0
469,-755,0,0,0,0,0,0,0,0,0,-1,1693,1779,0,0
476,-755,0,0,0,0,0,0,0,0,0,-1,1700,1779,0,0
483,-755,0,0,0,0,0,0,0,0,0,-1,1707,1779,0,0
490,-755,0,0,0,0,0,0,0,0,0,-1,1714,1779,0,0
497,-755,0,0,0,0,0,0,0,0,0,-1,1721,1779,0,0
504,-755,0,0,0,0,0,0,0,0,0,-1,1728,1779,0,0
511,-755,0,0,0,0,0,0,0,0,0,-1,1735,1779,0,0
518,-755,0,0,0,0,0,0,0,0,0,-1,1742,1779,0,0
525,-755,0,0,0,0,0,0,0,0,0,-1,1749,1779,0,0
532,-755,0,0,0,0,0,0,0,0,0,-1,1756,1779,0,0
539,-755,0,0,0,0,0,0,0,0,0,-1,1763,1779,0,0
546,-755,0,0,0,0,0,0,0,0,0,-1,1770,1779,0,0
553,-755,0,0,0,0,0,0,0,0,0,-1,1777,1779,0,0
560,-755,0,0,0,0,0,0,0,0,0,-1,1784,1779,0,0
567,-755,0,0,0,0,0,0,0,0,0,-1,1791,1779,0,0
574,-755,0,0,0,0,0,0,0,0,0,-1,1798,1779,0,0
581,-755,0,0,0,0,0,0,0,0,0,-1,1805,1779,0,0
588,-755,0,0,0,0,0,0,0,0,0,-1,1812,1779,0,0
595,-755,0,0,0,0,0,0,0,0,0,-1,1819,1779,0,0
602,-755,0,0,0,0,0,0,0,0,0,-1,1826,1779,0,0
609,-755,0,0,0,0,0,0,0,0,0,-1,1833,1779,0,0
616,-755,0,0,0,0,0,0,0,0,0,-1,1840,1779,0,0
623,-755,0,0,0,0,0,0,0,0,0,-1,1847,1779,0,0
630,-755,0,0,0,0,0,0,0,0,0,-1,1854,1779,0,0
637,-755,0,0,0,0,0,0,0,0,0,-1,1861,1779,0,0
644,-755,0,0,0,0,0,0,0,0,0,-1,1868,1779,0,0
651,-755,0,0,0,0,0,0,0,0,0,-1,1875,1779,0,0
658,-755,0,0,0,0,0,0,0,0,0,-1,1882,1779,0,0
665,-755,0,0,0,0,0,0,0,0,0,-1,1889,1779,0,0
672,-755,0,0,0,0,0,0,0,0,0,-1,1896,1779,0,0
679,-755,0,0,0,0,0,0,0,0,0,-1,1903,1779,0,0
686,-755,0,0,0,0,0,0,0,0,0,-1,1910,1779,0,0
693,-755,0,0,0,0,0,0,0,0,0,-1,1917,1779,0,0
700,-755,0,0,0,0,0,0,0,0,0,-1,1924,1779,0,0
707,-755,0,0,0,0,0,0,0,0,0,-1,1931,1779,0,0
714,-755,0,0,0,0,0,0,0,0,0,-1,1938,1779,0,0
721,-755,0,0,0,0,0,0,0,0,0,-1,1945,1779,0,0
728,-755,0,0,0,0,0,0,0,0,0,-1,1952,1779,0,0
735,-755,0,0,0,0,0,0,0,0,0,-1,1959,1779,0,0
742,-755,0,0,0,0,0,0,0,0,0,-1,1966,1779,0,0
749,-755,0,0,0,0,0,0,0,0,0,-1,1973,1779,0,0
756,-755,0,0,0,0,0,0,0,0,0,-1,1980,1779,0,0
763,-755,0,0,0,0,0,0,0,0,0,-1,1987,1779,0,0
770,-755,0,0,0,0,0,0,0,0,0,-1,1994,1779,0,0
777,-755,0,0,0,0,0,0,0,0,0,-1,2001,1779,0,0
784,-755,0,0,0,0,0,0,0,0,0,-1,2008,1779,0,0
791,-755,0,0,0,0,0,0,0,0,0,-1,2015,1779,0,0
798,-755,0,0,0,0,0,0,0,0,0,-1,2022,1779,0,0
805,-755,0,0,0,0,0,0,0,0,0,-1,2029,1779,0,0
812,-755,0,0,0,0,0,0,0,0,0,-1,2036,1779,0,0
-700,-762,0,0,0,0,0,0,0,0,0,-1,524,1786,0,0
-693,-762,0,0,0,0,0,0,0,0,0,-1,531,1786,0,0
-686,-762,0,0,0,0,0,0,0,0,0,-1,538,1786,0,0
-679,-762,0,0,0,0,0,0,0,0,0,-1,545,1786,0,0
-672,-762,0,0,0,0,0,0,0,0,0,-1,552,1786,0,0
-665,-762,0,0,0,0,0,0,0,0,0,-1,559,1786,0,0
-658,-762,0,0,0,0,0,0,0,0,0,-1,566,1786,0,0
-651,-762,0,0,0,0,0,0,0,0,0,-1,573,1786,0,0
-644,-762,0,0,0,0,0,0,0,0,0,-1,580,1786,0,0
-637,-762,0,0,0,0,0,0,0,0,0,-1,587,1786,0,0
-630,-762,0,0,0,0,0,0,0,0,0,-1,594,1786,0,0
-623,-762,0,0,0,0,0,0,0,0,0,-1,601,1786,0,0
-616,-762,0,0,0,0,0,0,0,0,0,-1,608,1786,0,0
-609,-762,0,0,0,0,0,0,0,0,0,-1,615,1786,0,0
-602,-762,0,0,0,0,0,0,0,0,0,-1,622,1786,0,0
-595,-762,0,0,0,0,0,0,0,0,0,-1,629,1786,0,0
-588,-762,0,0,0,0,0,0,0,0,0,-1,636,1786,0,0
-581,-762,0,0,0,0,0,0,0,0,0,-1,643,1786,0,0
-574,-762,0,0,0,0,0,0,0,0,0,-1,650,1786,0,0
-567,-762,0,0,0,0,0,0,0,0,0,-1,657,1786,0,0
-560,-762,0,0,0,0,0,0,0,0,0,-1,664,1786,0,0
-553,-762,0,0,0,0,0,0,0,0,0,-1,671,1786,0,0
-546,-762,0,0,0,0,0,0,0,0,0,-1,678,1786,0,0
-539,-762,0,0,0,0,0,0,0,0,0,-1,685,1786,0,0
-532,-762,0,0,0,0,0,0,0,0,0,-1,692,1786,0,0
-525,-762,0,0,0,0,0,0,0,0,0,-1,699,1786,0,0
-518,-762,0,0,0,0,0,0,0,0,0,-1,706,1786,0,0
-511,-762,0,0,0,0,0,0,0,0,0,-1,713,1786,0,0
-504,-762,0,0,0,0,0,0,0,0,0,-1,720,1786,0,0
-497,-762,0,0,0,0,0,0,0,0,0,-1,727,1786,0,0
-490,-762,0,0,0,0,0,0,0,0,0,-1,734,1786,0,0
-483,-762,0,0,0,0,0,0,0,0,0,-1,741,1786,0,0
-476,-762,0,0,0,0,0,0,0,0,0,-1,748,1786,0,0
-469,-762,0,0,0,0,0,0,0,0,0,-1,755,1786,0,0
-462,-762,0,0,0,0,0,0,0,0,0,-1,762,1786,0,0
-455,-762,0,0,0,0,0,0,0,0,0,-1,769,1786,0,0
-448,-762,0,0,0,0,0,0,0,0,0,-1,776,1786,0,0
-441,-762,0,0,0,0,0,0,0,0,0,-1,783,1786,0,0
-434,-762,0,0,0,0,0,0,0,0,0,-1,790,1786,0,0
-427,-762,0,0,0,0,0,0,0,0,0,-1,797,1786,0,0
-420,-762,0,0,0,0,0,0,0,0,0,-1,804,1786,0,0
-413,-762,0,0,0,0,0,0,0,0,0,-1,811,1786,0,0
-406,-762,0,0,0,0,0,0,0,0,0,-1,818,1786,0,0
-399,-762,0,0,0,0,0,0,0,0,0,-1,825,1786,0,0
-392,-762,0,0,0,0,0,0,0,0,0,-1,832,1786,0,0
-385,-762,0,0,0,0,0,0,0,0,0,-1,839,1786,0,0
-378,-762,0,0,0,0,0,0,0,0,0,-1,846,1786,0,0
-371,-762,0,0,0,0,0,0,0,0,0,-1,853,1786,0,0
-364,-762,0,0,0,0,0,0,0,0,0,-1,860,1786,0,0
-357,-762,0,0,0,0,0,0,0,0,0,-1,867,1786,0,0
-350,-762,0,0,0,0,0,0,0,0,0,-1,874,1786,0,0
-343,-762,0,0,0,0,0,0,0,0,0,-1,881,1786,0,0
-336,-762,0,0,0,0,0,0,0,0,0,-1,888,1786,0,0
-329,-762,0,0,0,0,0,0,0,0,0,-1,895,1786,0,0
-322,-762,0,0,0,0,0,0,0,0,0,-1,902,1786,0,0
-315,-762,0,0,0,0,0,0,0,0,0,-1,909,1786,0,0
-308,-762,0,0,0,0,0,0,0,0,0,-1,916,1786,0,0
-301,-762,0,0,0,0,0,0,0,0,0,-1,923,1786,0,0
-294,-762,0,0,0,0,0,0,0,0,0,-1,930,1786,0,0
-287,-762,0,0,0,0,0,0,0,0,0,-1,937,1786,0,0
-280,-762,0,0,0,0,0,0,0,0,0,-1,944,1786,0,0
-273,-762,0,0,0,0,0,0,0,0,0,-1,951,1786,0,0
-266,-762,0,0,0,0,0,0,0,0,0,-1,958,1786,0,0
-259,-762,0,0,0,0,0,0,0,0,0,-1,965,1786,0,0
-252,-762,0,0,0,0,0,0,0,0,0,-1,972,1786,0,0
-245,-762,0,0,0,0,0,0,0,0,0,-1,979,1786,0,0
-238,-762,0,0,0,0,0,0,0,0,0,-1,986,1786,0,0
-231,-762,0,0,0,0,0,0,0,0,0,-1,993,1786,0,0
-224,-762,0,0,0,0,0,0,0,0,0,-1,1000,1786,0,0
-217,-762,0,0,0,0,0,0,0,0,0,-1,1007,1786,0,0
-210,-762,0,0,0,0,0,0,0,0,0,-1,1014,1786,0,0
-203,-762,0,0,0,0,0,0,0,0,0,-1,1021,1786,0,0
-196,-762,0,0,0,0,0,0,0,0,0,-1,1028,1786,0,0
-189,-762,0,0,0,0,0,0,0,0,0,-1,1035,1786,0,0
-182,-762,4.44226,13.2462,0,0,0,0,0,0,0,-1,1042,1786,4.44227,-13.2462
-175,-762,4.3219,18.3975,0,0,0,0,0,0,0,-1,1049,1786,4.32192,-18.3974
-168,-762,-2.08618,13.0768,0,0,0,0,0,0,0,-1,1056,1786,-2.08623,-13.0768
-161,-762,-3.29077,11.9508,0,0,0,0,0,0,0,-1,1063,1786,-3.29076,-11.9508
-154,-762,-4.55823,11.1176,0,0,0,0,0,0,0,-1,1070,1786,-4.55828,-11.1175
-147,-762,-6.52454,9.41418,0,0,0,0,0,0,0,-1,1077,1786,-6.52458,-9.41419
-140,-762,4.99792,5.28589,0,0,0,0,0,0,0,-1,1084,1786,4.99793,-5.28587
-133,-762,0.689819,19.2172,0,0,0,0,0,0,0,-1,1091,1786,0.689867,-19.2171
-126,-762,1.48743,19.9288,0,0,0,0,0,0,0,-1,1098,1786,1.48738,-19.9289
-119,-762,2.65637,20.208,0,0,0,0,0,0,0,-1,1105,1786,2.65632,-20.208
-112,-762,3.09082,20.488,0,0,0,0,0,0,0,-1,1112,1786,3.09077,-20.488
-105,-762,6.20923,21.3702,0,0,0,0,0,0,0,-1,1119,1786,6.20928,-21.3703
-98,-762,5.58447,17.7201,0,0,0,0,0,0,0,-1,1126,1786,5.58445,-17.7201
-91,-762,4.74573,14.093,0,0,0,0,0,0,0,-1,1133,1786,4.74571,-14.0931
-84,-762,3.96375,10.4547,0,0,0,0,0,0,0,-1,1140,1786,3.96371,-10.4548
-77,-762,0.305054,8.49365,0,0,0,0,0,0,0,-1,1147,1786,0.305008,-8.49362
-70,-762,0.183716,6.74622,0,0,0,0,0,0,0,-1,1154,1786,0.183696,-6.74621
-63,-762,-0.883057,9.08813,0,0,0,0,0,0,0,-1,1161,1786,-0.88311,-9.08808
-56,-762,-0.578979,5.10254,0,0,0,0,0,0,0,-1,1168,1786,-0.578951,-5.10249
-49,-762,-2.04541,3.66321,0,0,0,0,0,0,0,-1,1175,1786,-2.0454,-3.66319
-42,-762,-2.23462,3.474,0,0,0,0,0,0,0,-1,1182,1786,-2.23459,-3.47399
-35,-762,-3.28992,1.68164,0,0,0,0,0,0,0,-1,1189,1786,-3.28998,-1.68164
-28,-762,-3.75378,1.37769,0,0,0,0,0,0,0,-1,1196,1786,-3.75373,-1.37767
-21,-762,7.74878,32.3607,0,0,0,0,0,0,0,-1,1203,1786,7.74876,-32.3607
-14,-762,7.55933,32.3396,0.0141627,0.0103517,0.00610564,0.0186533,0.00586113,0.634141,0.0110145,0.0476505,1210,1786,7.55932,-32.3396
-7,-762,7.51636,32.0638,0.0149584,0.00869614,0.00506246,0.0177798,0.00587475,0.508441,0.0104601,0.049616,1217,1786,7.51633,-32.0638
0,-762,7.37512,32.0618,0.0160882,0.00781167,0.00437409,0.0179713,0.00592847,0.406549,0.010574,0.0369157,1224,1786,7.37515,-32.0618
7,-762,7.36414,32.1125,0.0170388,0.00683545,0.00332582,0.0180271,0.00584712,0.288858,0.0106199,0.0199993,1231,1786,7.36411,-32.1125
14,-762,7.31274,32.2722,0.017487,0.00618599,0.00222785,0.0179103,0.00576266,0.187781,0.0105573,0.0327439,1238,1786,7.31272,-32.2722
21,-762,7.29626,32.4275,0.0194741,0.00605037,0.00344732,0.0203077,0.00521683,0.23724,0.0121778,0.0416876,1245,1786,7.2963,-32.4275
28,-762,7.28271,32.4893,0.0215086,0.00864717,0.00640899,0.0241569,0.00599883,0.391854,0.014524,0.0421898,1252,1786,7.28267,-32.4892
35,-762,7.24658,32.4893,0.0237536,0.00983779,0.00906247,0.0282211,0.00537025,0.458009,0.0173041,0.0430713,1259,1786,7.2466,-32.4893
42,-762,7.20105,32.4597,0.0254066,0.0115174,0.012175,0.0324784,0.0044456,0.526214,0.020333,0.0414276,1266,1786,7.20103,-32.4597
49,-762,7.18091,32.4624,0.0273204,0.0136347,0.0155224,0.0374413,0.00351377,0.577794,0.023876,0.033409,1273,1786,7.18089,-32.4624
56,-762,7.16443,32.4606,0.0296764,0.0155154,0.01844,0.0423485,0.00284329,0.60209,0.0273339,0.0236665,1280,1786,7.16443,-32.4606
63,-762,7.10474,32.4619,0.0307452,0.0170431,0.0212397,0.0462115,0.00157692,0.629387,0.0302957,0.0219336,1287,1786,7.10469,-32.4619
70,-762,7.04858,32.4424,0.0316892,0.0187132,0.0236469,0.049722,0.000680322,0.651508,0.0329236,0.0220169,1294,1786,7.04858,-32.4424
77,-762,7.00391,32.3738,0.0317605,0.0186439,0.0243569,0.0504266,-2.22474e-05,0.653887,0.0336252,0.0289774,1301,1786,7.00386,-32.3737
84,-762,6.96484,32.465,0,0,0,0,0,0,0,-1,1308,1786,6.9649,-32.465
91,-762,6.89551,32.3909,0,0,0,0,0,0,0,-1,1315,1786,6.89548,-32.3908
98,-762,6.93005,32.395,0.0269332,0.0128087,0.0195228,0.0406318,-0.000889963,0.611849,0.0273893,0.0460529,1322,1786,6.93004,-32.3951
105,-762,6.9386,32.3672,0.0238799,0.0084423,0.015092,0.0331124,-0.000790238,0.549016,0.022343,0.0431407,1329,1786,6.93864,-32.3671
112,-762,6.75024,32.2362,0.0202458,0.0043352,0.0106531,0.0255862,-0.00100521,0.464687,0.0174022,0.0419014,1336,1786,6.75019,-32.2362
119,-762,6.54175,32.3094,0.0165466,-0.000136455,0.00607952,0.018527,-0.00211682,0.314905,0.013114,0.0423942,1343,1786,6.54174,-32.3094
126,-762,6.54797,32.4438,0.0112112,-0.00469202,7.85181e-05,0.0112116,-0.00469241,0.00493708,0.00943582,0.0430921,1350,1786,6.54794,-32.4438
133,-762,6.69226,32.2584,0.00700492,-0.01145,-0.00555825,0.00854965,-0.0129947,-0.271076,0.0125266,0.0461496,1357,1786,6.6923,-32.2585
140,-762,6.44934,31.7777,0.00412793,-0.0138758,-0.00790876,0.00710864,-0.0168565,-0.360424,0.0142127,0.0447088,1364,1786,6.44931,-31.7777
147,-762,6.84436,32.0709,0.00364585,-0.0162323,-0.00930954,0.00732488,-0.0199113,-0.376352,0.0162749,0.0447218,1371,1786,6.84434,-32.0709
154,-762,6.58398,32.1436,0,0,0,0,0,0,0,-1,1378,1786,6.58401,-32.1436
161,-762,7.08264,30.7461,0,0,0,0,0,0,0,-1,1385,1786,7.08263,-30.7461
168,-762,8.19287,0.880615,0,0,0,0,0,0,0,-1,1392,1786,8.19291,-0.880603
175,-762,8.33997,1.95947,0,0,0,0,0,0,0,-1,1399,1786,8.33997,-1.95942
182,-762,8.28418,3.56482,0,0,0,0,0,0,0,-1,1406,1786,8.28415,-3.56485
189,-762,8.21179,5.23389,0,0,0,0,0,0,0,-1,1413,1786,8.21183,-5.23383
196,-762,8.05969,6.95483,0,0,0,0,0,0,0,-1,1420,1786,8.05972,-6.9548
203,-762,24.0077,7.10425,0,0,0,0,0,0,0,-1,1427,1786,24.0077,-7.10426
210,-762,23.8073,7.6499,0,0,0,0,0,0,0,-1,1434,1786,23.8073,-7.64987
217,-762,23.3193,8.24426,0,0,0,0,0,0,0,-1,1441,1786,23.3194,-8.2442
224,-762,2.65149,20.6106,0,0,0,0,0,0,0,-1,1448,1786,2.65153,-20.6106
231,-762,5.46655,23.521,0,0,0,0,0,0,0,-1,1455,1786,5.46653,-23.521
238,-762,5.35632,29.7203,0,0,0,0,0,0,0,-1,1462,1786,5.35629,-29.7203
245,-762,5.84509,28.6954,0,0,0,0,0,0,0,-1,1469,1786,5.84509,-28.6954
252,-762,5.82837,27.7246,0,0,0,0,0,0,0,-1,1476,1786,5.82839,-27.7247
259,-762,10.7311,18.3031,0,0,0,0,0,0,0,-1,1483,1786,10.7311,-18.3031
266,-762,16.451,7.67773,0,0,0,0,0,0,0,-1,1490,1786,16.4511,-7.67773
273,-762,15.287,7.5304,0,0,0,0,0,0,0,-1,1497,1786,15.2869,-7.53044
280,-762,14.1501,7.38379,0,0,0,0,0,0,0,-1,1504,1786,14.1502,-7.38376
287,-762,12.6891,7.99133,0,0,0,0,0,0,0,-1,1511,1786,12.6891,-7.99135
294,-762,12.6959,8.30371,0,0,0,0,0,0,0,-1,1518,1786,12.6959,-8.30368
301,-762,11.4222,8.84143,0,0,0,0,0,0,0,-1,1525,1786,11.4223,-8.84149
308,-762,0,0,0,0,0,0,0,0,0,-1,1532,1786,0,0
315,-762,0,0,0,0,0,0,0,0,0,-1,1539,1786,0,0
322,-762,0,0,0,0,0,0,0,0,0,-1,1546,1786,0,0
329,-762,0,0,0,0,0,0,0,0,0,-1,1553,1786,0,0
336,-762,0,0,0,0,0,0,0,0,0,-1,1560,1786,0,0
343,-762,0,0,0,0,0,0,0,0,0,-1,1567,1786,0,0
350,-762,0,0,0,0,0,0,0,0,0,-1,1574,1786,0,0
357,-762,0,0,0,0,0,0,0,0,0,-1,1581,1786,0,0
364,-762,0,0,0,0,0,0,0,0,0,-1,1588,1786,0,0
371,-762,0,0,0,0,0,0,0,0,0,-1,1595,1786,0,0
378,-762,0,0,0,0,0,0,0,0,0,-1,1602,1786,0,0
385,-762,0,0,0,0,0,0,0,0,0,-1,1609,1786,0,0
392,-762,0,0,0,0,0,0,0,0,0,-1,1616,1786,0,0
399,-762,0,0,0,0,0,0,0,0,0,-1,1623,1786,0,0
406,-762,0,0,0,0,0,0,0,0,0,-1,1630,1786,0,0
413,-762,0,0,0,0,0,0,0,0,0,-1,1637,1786,0,0
420,-762,0,0,0,0,0,0,0,0,0,-1,1644,1786,0,0
427,-762,0,0,0,0,0,0,0,0,0,-1,1651,1786,0,0
434,-762,0,0,0,0,0,0,0,0,0,-1,1658,1786,0,0
441,-762,0,0,0,0,0,0,0,0,0,-1,1665,1786,0,0
448,-762,0,0,0,0,0,0,0,0,0,-1,1672,1786,0,0
455,-762,0,0,0,0,0,0,0,0,0,-1,1679,1786,0,0
462,-762,0,0,0,0,0,0,0,0,0,-1,1686,1786,0,0
469,-762,0,0,0,0,0,0,0,0,0,-1,1693,1786,0,0
476,-762,0,0,0,0,0,0,0,0,0,-1,1700,1786,0,0
483,-762,0,0,0,0,0,0,0,0,0,-1,1707,1786,0,0
490,-762,0,0,0,0,0,0,0,0,0,-1,1714,1786,0,0
497,-762,0,0,0,0,0,0,0,0,0,-1,1721,1786,0,0
504,-762,0,0,0,0,0,0,0,0,0,-1,1728,1786,0,0
511,-762,0,0,0,0,0,0,0,0,0,-1,1735,1786,0,0
518,-762,0,0,0,0,0,0,0,0,0,-1,1742,1786,0,0
525,-762,0,0,0,0,0,0,0,0,0,-1,1749,1786,0,0
532,-762,0,0,0,0,0,0,0,0,0,-1,1756,1786,0,0
539,-762,0,0,0,0,0,0,0,0,0,-1,1763,1786,0,0
546,-762,0,0,0,0,0,0,0,0,0,-1,1770,1786,0,0
553,-762,0,0,0,0,0,0,0,0,0,-1,1777,1786,0,0
560,-762,0,0,0,0,0,0,0,0,0,-1,1784,1786,0,0
567,-762,0,0,0,0,0,0,0,0,0,-1,1791,1786,0,0
574,-762,0,0,0,0,0,0,0,0,0,-1,1798,1786,0,0
581,-762,0,0,0,0,0,0,0,0,0,-1,1805,1786,0,0
588,-762,0,0,0,0,0,0,0,0,0,-1,1812,1786,0,0
595,-762,0,0,0,0,0,0,0,0,0,-1,1819,1786,0,0
602,-762,0,0,0,0,0,0,0,0,0,-1,1826,1786,0,0
609,-762,0,0,0,0,0,0,0,0,0,-1,1833,1786,0,0
616,-762,0,0,0,0,0,0,0,0,0,-1,1840,1786,0,0
623,-762,0,0,0,0,0,0,0,0,0,-1,1847,1786,0,0
630,-762,0,0,0,0,0,0,0,0,0,-1,1854,1786,0,0
637,-762,0,0,0,0,0,0,0,0,0,-1,1861,1786,0,0
644,-762,0,0,0,0,0,0,0,0,0,-1,1868,1786,0,0
651,-762,0,0,0,0,0,0,0,0,0,-1,1875,1786,0,0
658,-762,0,0,0,0,0,0,0,0,0,-1,1882,1786,0,0
665,-762,0,0,0,0,0,0,0,0,0,-1,1889,1786,0,0
672,-762,0,0,0,0,0,0,0,0,0,-1,1896,1786,0,0
679,-762,0,0,0,0,0,0,0,0,0,-1,1903,1786,0,0
686,-762,0,0,0,0,0,0,0,0,0,-1,1910,1786,0,0
693,-762,0,0,0,0,0,0,0,0,0,-1,1917,1786,0,0
700,-762,0,0,0,0,0,0,0,0,0,-1,1924,1786,0,0
707,-762,0,0,0,0,0,0,0,0,0,-1,1931,1786,0,0
714,-762,0,0,0,0,0,0,0,0,0,-1,1938,1786,0,0
721,-762,0,0,0,0,0,0,0,0,0,-1,1945,1786,0,0
728,-762,0,0,0,0,0,0,0,0,0,-1,1952,1786,0,0
735,-762,0,0,0,0,0,0,0,0,0,-1,1959,1786,0,0
742,-762,0,0,0,0,0,0,0,0,0,-1,1966,1786,0,0
749,-762,0,0,0,0,0,0,0,0,0,-1,1973,1786,0,0
756,-762,0,0,0,0,0,0,0,0,0,-1,1980,1786,0,0
763,-762,0,0,0,0,0,0,0,0,0,-1,1987,1786,0,0
770,-762,0,0,0,0,0,0,0,0,0,-1,1994,1786,0,0
777,-762,0,0,0,0,0,0,0,0,0,-1,2001,1786,0,0
784,-762,0,0,0,0,0,0,0,0,0,-1,2008,1786,0,0
791,-762,0,0,0,0,0,0,0,0,0,-1,2015,1786,0,0
798,-762,0,0,0,0,0,0,0,0,0,-1,2022,1786,0,0
805,-762,0,0,0,0,0,0,0,0,0,-1,2029,1786,0,0
812,-762,0,0,0,0,0,0,0,0,0,-1,2036,1786,0,0
-700,-769,0,0,0,0,0,0,0,0,0,-1,524,1793,0,0
-693,-769,0,0,0,0,0,0,0,0,0,-1,531,1793,0,0
-686,-769,0,0,0,0,0,0,0,0,0,-1,538,1793,0,0
-679,-769,0,0,0,0,0,0,0,0,0,-1,545,1793,0,0
-672,-769,0,0,0,0,0,0,0,0,0,-1,552,1793,0,0
-665,-769,0,0,0,0,0,0,0,0,0,-1,559,1793,0,0
-658,-769,0,0,0,0,0,0,0,0,0,-1,566,1793,0,0
-651,-769,0,0,0,0,0,0,0,0,0,-1,573,1793,0,0
-644,-769,0,0,0,0,0,0,0,0,0,-1,580,1793,0,0
-637,-769,0,0,0,0,0,0,0,0,0,-1,587,1793,0,0
-630,-769,0,0,0,0,0,0,0,0,0,-1,594,1793,0,0
-623,-769,0,0,0,0,0,0,0,0,0,-1,601,1793,0,0
-616,-769,0,0,0,0,0,0,0,0,0,-1,608,1793,0,0
-609,-769,0,0,0,0,0,0,0,0,0,-1,615,1793,0,0
-602,-769,0,0,0,0,0,0,0,0,0,-1,622,1793,0,0
-595,-769,0,0,0,0,0,0,0,0,0,-1,629,1793,0,0
-588,-769,0,0,0,0,0,0,0,0,0,-1,636,1793,0,0
-581,-769,0,0,0,0,0,0,0,0,0,-1,643,1793,0,0
-574,-769,0,0,0,0,0,0,0,0,0,-1,650,1793,0,0
-567,-769,0,0,0,0,0,0,0,0,0,-1,657,1793,0,0
-560,-769,0,0,0,0,0,0,0,0,0,-1,664,1793,0,0
-553,-769,0,0,0,0,0,0,0,0,0,-1,671,1793,0,0
-546,-769,0,0,0,0,0,0,0,0,0,-1,678,1793,0,0
-539,-769,0,0,0,0,0,0,0,0,0,-1,685,1793,0,0
-532,-769,0,0,0,0,0,0,0,0,0,-1,692,1793,0,0
-525,-769,0,0,0,0,0,0,0,0,0,-1,699,1793,0,0
-518,-769,0,0,0,0,0,0,0,0,0,-1,706,1793,0,0
-511,-769,0,0,0,0,0,0,0,0,0,-1,713,1793,0,0
-504,-769,0,0,0,0,0,0,0,0,0,-1,720,1793,0,0
-497,-769,0,0,0,0,0,0,0,0,0,-1,727,1793,0,0
-490,-769,0,0,0,0,0,0,0,0,0,-1,734,1793,0,0
-483,-769,0,0,0,0,0,0,0,0,0,-1,741,1793,0,0
-476,-769,0,0,0,0,0,0,0,0,0,-1,748,1793,0,0
-469,-769,0,0,0,0,0,0,0,0,0,-1,755,1793,0,0
-462,-769,0,0,0,0,0,0,0,0,0,-1,762,1793,0,0
-455,-769,0,0,0,0,0,0,0,0,0,-1,769,1793,0,0
-448,-769,0,0,0,0,0,0,0,0,0,-1,776,1793,0,0
-441,-769,0,0,0,0,0,0,0,0,0,-1,783,1793,0,0
-434,-769,0,0,0,0,0,0,0,0,0,-1,790,1793,0,0
-427,-769,0,0,0,0,0,0,0,0,0,-1,797,1793,0,0
-420,-769,0,0,0,0,0,0,0,0,0,-1,804,1793,0,0
-413,-769,0,0,0,0,0,0,0,0,0,-1,811,1793,0,0
-406,-769,0,0,0,0,0,0,0,0,0,-1,818,1793,0,0
-399,-769,0,0,0,0,0,0,0,0,0,-1,825,1793,0,0
-392,-769,0,0,0,0,0,0,0,0,0,-1,832,1793,0,0
-385,-769,0,0,0,0,0,0,0,0,0,-1,839,1793,0,0
-378,-769,0,0,0,0,0,0,0,0,0,-1,846,1793,0,0
-371,-769,0,0,0,0,0,0,0,0,0,-1,853,1793,0,0
-364,-769,0,0,0,0,0,0,0,0,0,-1,860,1793,0,0
-357,-769,0,0,0,0,0,0,0,0,0,-1,867,1793,0,0
-350,-769,0,0,0,0,0,0,0,0,0,-1,874,1793,0,0
-343,-769,0,0,0,0,0,0,0,0,0,-1,881,1793,0,0
-336,-769,0,0,0,0,0,0,0,0,0,-1,888,1793,0,0
-329,-769,0,0,0,0,0,0,0,0,0,-1,895,1793,0,0
-322,-769,0,0,0,0,0,0,0,0,0,-1,902,1793,0,0
-315,-769,0,0,0,0,0,0,0,0,0,-1,909,1793,0,0
-308,-769,0,0,0,0,0,0,0,0,0,-1,916,1793,0,0
-301,-769,0,0,0,0,0,0,0,0,0,-1,923,1793,0,0
-294,-769,0,0,0,0,0,0,0,0,0,-1,930,1793,0,0
-287,-769,0,0,0,0,0,0,0,0,0,-1,937,1793,0,0
-280,-769,0,0,0,0,0,0,0,0,0,-1,944,1793,0,0
-273,-769,0,0,0,0,0,0,0,0,0,-1,951,1793,0,0
-266,-769,0,0,0,0,0,0,0,0,0,-1,958,1793,0,0
-259,-769,0,0,0,0,0,0,0,0,0,-1,965,1793,0,0
-252,-769,0,0,0,0,0,0,0,0,0,-1,972,1793,0,0
-245,-769,0,0,0,0,0,0,0,0,0,-1,979,1793,0,0
-238,-769,0,0,0,0,0,0,0,0,0,-1,986,1793,0,0
-231,-769,0,0,0,0,0,0,0,0,0,-1,993,1793,0,0
-224,-769,0,0,0,0,0,0,0,0,0,-1,1000,1793,0,0
-217,-769,0,0,0,0,0,0,0,0,0,-1,1007,1793,0,0
-210,-769,0,0,0,0,0,0,0,0,0,-1,1014,1793,0,0
-203,-769,0,0,0,0,0,0,0,0,0,-1,1021,1793,0,0
-196,-769,0,0,0,0,0,0,0,0,0,-1,1028,1793,0,0
-189,-769,0,0,0,0,0,0,0,0,0,-1,1035,1793,0,0
-182,-769,0,0,0,0,0,0,0,0,0,-1,1042,1793,0,0
-175,-769,0,0,0,0,0,0,0,0,0,-1,1049,1793,0,0
-168,-769,0,0,0,0,0,0,0,0,0,-1,1056,1793,0,0
-161,-769,-3.61145,12.4761,0,0,0,0,0,0,0,-1,1063,1793,-3.6114,-12.476
-154,-769,-0.813232,5.32874,0,0,0,0,0,0,0,-1,1070,1793,-0.813269,-5.32872
-147,-769,4.26587,4.7002,0,0,0,0,0,0,0,-1,1077,1793,4.26593,-4.70022
-140,-769,4.10376,5.28589,0,0,0,0,0,0,0,-1,1084,1793,4.10371,-5.28584
-133,-769,6.422,8.21777,0,0,0,0,0,0,0,-1,1091,1793,6.42198,-8.21773
-126,-769,-0.352295,19.326,0,0,0,0,0,0,0,-1,1098,1793,-0.352235,-19.326
-119,-769,6.01685,16.2577,0,0,0,0,0,0,0,-1,1105,1793,6.01689,-16.2576
-112,-769,2.77722,20.0741,0,0,0,0,0,0,0,-1,1112,1793,2.77727,-20.0741
-105,-769,4.55212,21.8363,0,0,0,0,0,0,0,-1,1119,1793,4.55214,-21.8363
-98,-769,4.71545,19.8396,0,0,0,0,0,0,0,-1,1126,1793,4.71539,-19.8396
-91,-769,3.96802,16.1481,0,0,0,0,0,0,0,-1,1133,1793,3.96803,-16.1481
-84,-769,3.2207,12.4565,0,0,0,0,0,0,0,-1,1140,1793,3.22066,-12.4565
-77,-769,2.48816,8.98486,0,0,0,0,0,0,0,-1,1147,1793,2.48815,-8.98489
-70,-769,1.04944,11.9852,0,0,0,0,0,0,0,-1,1154,1793,1.04947,-11.9852
-63,-769,-2.39709,9.60339,0,0,0,0,0,0,0,-1,1161,1793,-2.39706,-9.6034
-56,-769,-5.84363,7.22156,0,0,0,0,0,0,0,-1,1168,1793,-5.84359,-7.22157
-49,-769,-2.41443,3.95471,0,0,0,0,0,0,0,-1,1175,1793,-2.41446,-3.95471
-42,-769,-3.1991,2.64941,0,0,0,0,0,0,0,-1,1182,1793,-3.19914,-2.64944
-35,-769,-3.50183,1.73389,0,0,0,0,0,0,0,-1,1189,1793,-3.50189,-1.7339
-28,-769,-3.96985,1.14075,0,0,0,0,0,0,0,-1,1196,1793,-3.96985,-1.14078
-21,-769,5.89856,30.3566,0,0,0,0,0,0,0,-1,1203,1793,5.89861,-30.3566
-14,-769,7.57666,32.6934,0,0,0,0,0,0,0,-1,1210,1793,7.57661,-32.6933
-7,-769,7.6731,32.1355,0,0,0,0,0,0,0,-1,1217,1793,7.67309,-32.1354
0,-769,7.35535,32.1162,0,0,0,0,0,0,0,-1,1224,1793,7.35539,-32.1162
7,-769,7.34875,31.9323,0.0251455,0.00990747,0.00601746,0.0272352,0.00781776,0.334244,0.0161927,0.0412221,1231,1793,7.34871,-31.9323
14,-769,7.40552,32.074,0.025703,0.00870271,0.00436317,0.0267575,0.00764829,0.237117,0.0159138,0.0413673,1238,1793,7.40547,-32.074
21,-769,7.43848,32.298,0.0286564,0.00828605,0.00613421,0.030361,0.00658147,0.271043,0.0184425,0.0457934,1245,1793,7.43847,-32.2979
28,-769,7.47266,32.6172,0,0,0,0,0,0,0,-1,1252,1793,7.47271,-32.6172
35,-769,7.40637,32.623,0.0355095,0.013984,0.014317,0.042658,0.00683552,0.46309,0.0264562,0.0441427,1259,1793,7.40635,-32.6231
42,-769,7.17676,32.6057,0.0382509,0.0163408,0.0187069,0.0489745,0.00561721,0.52051,0.0309476,0.0448297,1266,1793,7.17677,-32.6058
49,-769,7.19238,32.5571,0.0413588,0.0193808,0.0233918,0.0562142,0.00452541,0.565807,0.0360624,0.0451639,1273,1793,7.19235,-32.5571
56,-769,7.16626,32.3232,0.0450925,0.0221188,0.0275133,0.0634205,0.00379074,0.587647,0.0410751,0.0458052,1280,1793,7.16621,-32.3233
63,-769,7.02258,32.136,0.0470969,0.0243415,0.0313212,0.069043,0.00239545,0.61118,0.0452513,0.0459287,1287,1793,7.02262,-32.136
70,-769,6.93872,32.1665,0,0,0,0,0,0,0,-1,1294,1793,6.9387,-32.1665
77,-769,6.26721,32.0516,0.0493278,0.0269039,0.0354954,0.0753399,0.000891816,0.632422,0.049932,0.0432805,1301,1793,6.26717,-32.0516
84,-769,6.50513,32.343,0.0471122,0.0257097,0.0351799,0.0731824,-0.000360467,0.637751,0.0489089,0.0444206,1308,1793,6.50514,-32.3431
91,-769,6.50305,32.2869,0.0449788,0.0227794,0.0328631,0.0685661,-0.000807922,0.622536,0.0459824,0.0467645,1315,1793,6.50309,-32.2868
98,-769,6.72021,32.3197,0.0425486,0.0186223,0.0281477,0.0611699,9.36911e-07,0.584457,0.0407796,0.0453458,1322,1793,6.7202,-32.3197
105,-769,6.89246,32.2351,0.0379941,0.0126559,0.0218061,0.0505443,0.000105731,0.522236,0.033661,0.0462895,1329,1793,6.89248,-32.2351
112,-769,6.67908,32.0883,0,0,0,0,0,0,0,-1,1336,1793,6.67907,-32.0883
119,-769,6.20667,32.2651,0,0,0,0,0,0,0,-1,1343,1793,6.20668,-32.2651
126,-769,6.46606,33.2693,0,0,0,0,0,0,0,-1,1350,1793,6.46606,-33.2693
133,-769,6.39624,32.4546,0.0115806,-0.0172772,-0.00883664,0.0140715,-0.0197681,-0.274753,0.0196294,0.0484404,1357,1793,6.39626,-32.4545
140,-769,6.37891,31.5518,0.00661326,-0.0210505,-0.012316,0.0113018,-0.025739,-0.363745,0.0219203,0.048314,1364,1793,6.37896,-31.5518
147,-769,6.42273,30.7302,0,0,0,0,0,0,0,-1,1371,1793,6.42279,-30.7303
154,-769,6.68298,30.837,0,0,0,0,0,0,0,-1,1378,1793,6.68301,-30.8371
161,-769,6.57019,1.53223,0,0,0,0,0,0,0,-1,1385,1793,6.57019,-1.53226
168,-769,8.27637,0.756958,0,0,0,0,0,0,0,-1,1392,1793,8.27639,-0.756944
175,-769,8.47144,2.41174,0,0,0,0,0,0,0,-1,1399,1793,8.47147,-2.4118
182,-769,8.41479,4.05994,0,0,0,0,0,0,0,-1,1406,1793,8.41479,-4.05997
189,-769,8.25049,5.68433,0,0,0,0,0,0,0,-1,1413,1793,8.25054,-5.68428
196,-769,7.97729,7.42847,0,0,0,0,0,0,0,-1,1420,1793,7.9773,-7.42848
203,-769,22.0977,6.73889,0,0,0,0,0,0,0,-1,1427,1793,22.0977,-6.7389
210,-769,22.1115,7.77246,0,0,0,0,0,0,0,-1,1434,1793,22.1115,-7.77248
217,-769,22.4723,8.79102,0,0,0,0,0,0,0,-1,1441,1793,22.4723,-8.79099
224,-769,22.1348,9.35278,0,0,0,0,0,0,0,-1,1448,1793,22.1348,-9.35283
231,-769,3.13318,19.7184,0,0,0,0,0,0,0,-1,1455,1793,3.13323,-19.7184
238,-769,5.74512,18.6597,0,0,0,0,0,0,0,-1,1462,1793,5.74512,-18.6596
245,-769,5.80798,22.87,0,0,0,0,0,0,0,-1,1469,1793,5.80796,-22.87
252,-769,8.39099,20.3199,0,0,0,0,0,0,0,-1,1476,1793,8.39098,-20.3199
259,-769,10.974,17.7698,0,0,0,0,0,0,0,-1,1483,1793,10.974,-17.7698
266,-769,15.8488,7.3905,0,0,0,0,0,0,0,-1,1490,1793,15.8488,-7.39046
273,-769,14.8075,7.56152,0,0,0,0,0,0,0,-1,1497,1793,14.8075,-7.56152
280,-769,13.6519,7.43054,0,0,0,0,0,0,0,-1,1504,1793,13.6518,-7.43058
287,-769,0,0,0,0,0,0,0,0,0,-1,1511,1793,0,0
294,-769,0,0,0,0,0,0,0,0,0,-1,1518,1793,0,0
301,-769,0,0,0,0,0,0,0,0,0,-1,1525,1793,0,0
308,-769,0,0,0,0,0,0,0,0,0,-1,1532,1793,0,0
315,-769,0,0,0,0,0,0,0,0,0,-1,1539,1793,0,0
322,-769,0,0,0,0,0,0,0,0,0,-1,1546,1793,0,0
329,-769,0,0,0,0,0,0,0,0,0,-1,1553,1793,0,0
336,-769,0,0,0,0,0,0,0,0,0,-1,1560,1793,0,0
343,-769,0,0,0,0,0,0,0,0,0,-1,1567,1793,0,0
350,-769,0,0,0,0,0,0,0,0,0,-1,1574,1793,0,0
357,-769,0,0,0,0,0,0,0,0,0,-1,1581,1793,0,0
364,-769,0,0,0,0,0,0,0,0,0,-1,1588,1793,0,0
371,-769,0,0,0,0,0,0,0,0,0,-1,1595,1793,0,0
378,-769,0,0,0,0,0,0,0,0,0,-1,1602,1793,0,0
385,-769,0,0,0,0,0,0,0,0,0,-1,1609,1793,0,0
392,-769,0,0,0,0,0,0,0,0,0,-1,1616,1793,0,0
399,-769,0,0,0,0,0,0,0,0,0,-1,1623,1793,0,0
406,-769,0,0,0,0,0,0,0,0,0,-1,1630,1793,0,0
413,-769,0,0,0,0,0,0,0,0,0,-1,1637,1793,0,0
420,-769,0,0,0,0,0,0,0,0,0,-1,1644,1793,0,0
427,-769,0,0,0,0,0,0,0,0,0,-1,1651,1793,0,0
434,-769,0,0,0,0,0,0,0,0,0,-1,1658,1793,0,0
441,-769,0,0,0,0,0,0,0,0,0,-1,1665,1793,0,0
448,-769,0,0,0,0,0,0,0,0,0,-1,1672,1793,0,0
455,-769,0,0,0,0,0,0,0,0,0,-1,1679,1793,0,0
462,-769,0,0,0,0,0,0,0,0,0,-1,1686,1793,0,0
469,-769,0,0,0,0,0,0,0,0,0,-1,1693,1793,0,0
476,-769,0,0,0,0,0,0,0,0,0,-1,1700,1793,0,0
483,-769,0,0,0,0,0,0,0,0,0,-1,1707,1793,0,0
490,-769,0,0,0,0,0,0,0,0,0,-1,1714,1793,0,0
497,-769,0,0,0,0,0,0,0,0,0,-1,1721,1793,0,0
504,-769,0,0,0,0,0,0,0,0,0,-1,1728,1793,0,0
511,-769,0,0,0,0,0,0,0,0,0,-1,1735,1793,0,0
518,-769,0,0,0,0,0,0,0,0,0,-1,1742,1793,0,0
525,-769,0,0,0,0,0,0,0,0,0,-1,1749,1793,0,0
532,-769,0,0,0,0,0,0,0,0,0,-1,1756,1793,0,0
539,-769,0,0,0,0,0,0,0,0,0,-1,1763,1793,0,0
546,-769,0,0,0,0,0,0,0,0,0,-1,1770,1793,0,0
553,-769,0,0,0,0,0,0,0,0,0,-1,1777,1793,0,0
560,-769,0,0,0,0,0,0,0,0,0,-1,1784,1793,0,0
567,-769,0,0,0,0,0,0,0,0,0,-1,1791,1793,0,0
574,-769,0,0,0,0,0,0,0,0,0,-1,1798,1793,0,0
581,-769,0,0,0,0,0,0,0,0,0,-1,1805,1793,0,0
588,-769,0,0,0,0,0,0,0,0,0,-1,1812,1793,0,0
595,-769,0,0,0,0,0,0,0,0,0,-1,1819,1793,0,0
602,-769,0,0,0,0,0,0,0,0,0,-1,1826,1793,0,0
609,-769,0,0,0,0,0,0,0,0,0,-1,1833,1793,0,0
616,-769,0,0,0,0,0,0,0,0,0,-1,1840,1793,0,0
623,-769,0,0,0,0,0,0,0,0,0,-1,1847,1793,0,0
630,-769,0,0,0,0,0,0,0,0,0,-1,1854,1793,0,0
637,-769,0,0,0,0,0,0,0,0,0,-1,1861,1793,0,0
644,-769,0,0,0,0,0,0,0,0,0,-1,1868,1793,0,0
651,-769,0,0,0,0,0,0,0,0,0,-1,1875,1793,0,0
658,-769,0,0,0,0,0,0,0,0,0,-1,1882,1793,0,0
665,-769,0,0,0,0,0,0,0,0,0,-1,1889,1793,0,0
672,-769,0,0,0,0,0,0,0,0,0,-1,1896,1793,0,0
679,-769,0,0,0,0,0,0,0,0,0,-1,1903,1793,0,0
686,-769,0,0,0,0,0,0,0,0,0,-1,1910,1793,0,0
693,-769,0,0,0,0,0,0,0,0,0,-1,1917,1793,0,0
700,-769,0,0,0,0,0,0,0,0,0,-1,1924,1793,0,0
707,-769,0,0,0,0,0,0,0,0,0,-1,1931,1793,0,0
714,-769,0,0,0,0,0,0,0,0,0,-1,1938,1793,0,0
721,-769,0,0,0,0,0,0,0,0,0,-1,1945,1793,0,0
728,-769,0,0,0,0,0,0,0,0,0,-1,1952,1793,0,0
735,-769,0,0,0,0,0,0,0,0,0,-1,1959,1793,0,0
742,-769,0,0,0,0,0,0,0,0,0,-1,1966,1793,0,0
749,-769,0,0,0,0,0,0,0,0,0,-1,1973,1793,0,0
756,-769,0,0,0,0,0,0,0,0,0,-1,1980,1793,0,0
763,-769,0,0,0,0,0,0,0,0,0,-1,1987,1793,0,0
770,-769,0,0,0,0,0,0,0,0,0,-1,1994,1793,0,0
777,-769,0,0,0,0,0,0,0,0,0,-1,2001,1793,0,0
784,-769,0,0,0,0,0,0,0,0,0,-1,2008,1793,0,0
791,-769,0,0,0,0,0,0,0,0,0,-1,2015,1793,0,0
798,-769,0,0,0,0,0,0,0,0,0,-1,2022,1793,0,0
805,-769,0,0,0,0,0,0,0,0,0,-1,2029,1793,0,0
812,-769,0,0,0,0,0,0,0,0,0,-1,2036,1793,0,0
-700,-776,0,0,0,0,0,0,0,0,0,-1,524,1800,0,0
-693,-776,0,0,0,0,0,0,0,0,0,-1,531,1800,0,0
-686,-776,0,0,0,0,0,0,0,0,0,-1,538,1800,0,0
-679,-776,0,0,0,0,0,0,0,0,0,-1,545,1800,0,0
-672,-776,0,0,0,0,0,0,0,0,0,-1,552,1800,0,0
-665,-776,0,0,0,0,0,0,0,0,0,-1,559,1800,0,0
-658,-776,0,0,0,0,0,0,0,0,0,-1,566,1800,0,0
-651,-776,0,0,0,0,0,0,0,0,0,-1,573,1800,0,0
-644,-776,0,0,0,0,0,0,0,0,0,-1,580,1800,0,0
-637,-776,0,0,0,0,0,0,0,0,0,-1,587,1800,0,0
-630,-776,0,0,0,0,0,0,0,0,0,-1,594,1800,0,0
-623,-776,0,0,0,0,0,0,0,0,0,-1,601,1800,0,0
-616,-776,0,0,0,0,0,0,0,0,0,-1,608,1800,0,0
-609,-776,0,0,0,0,0,0,0,0,0,-1,615,1800,0,0
-602,-776,0,0,0,0,0,0,0,0,0,-1,622,1800,0,0
-595,-776,0,0,0,0,0,0,0,0,0,-1,629,1800,0,0
-588,-776,0,0,0,0,0,0,0,0,0,-1,636,1800,0,0
-581,-776,0,0,0,0,0,0,0,0,0,-1,643,1800,0,0
-574,-776,0,0,0,0,0,0,0,0,0,-1,650,1800,0,0
-567,-776,0,0,0,0,0,0,0,0,0,-1,657,1800,0,0
-560,-776,0,0,0,0,0,0,0,0,0,-1,664,1800,0,0
-553,-776,0,0,0,0,0,0,0,0,0,-1,671,1800,0,0
-546,-776,0,0,0,0,0,0,0,0,0,-1,678,1800,0,0
-539,-776,0,0,0,0,0,0,0,0,0,-1,685,1800,0,0
-532,-776,0,0,0,0,0,0,0,0,0,-1,692,1800,0,0
-525,-776,0,0,0,0,0,0,0,0,0,-1,699,1800,0,0
-518,-776,0,0,0,0,0,0,0,0,0,-1,706,1800,0,0
-511,-776,0,0,0,0,0,0,0,0,0,-1,713,1800,0,0
-504,-776,0,0,0,0,0,0,0,0,0,-1,720,1800,0,0
-497,-776,0,0,0,0,0,0,0,0,0,-1,727,1800,0,0
-490,-776,0,0,0,0,0,0,0,0,0,-1,734,1800,0,0
-483,-776,0,0,0,0,0,0,0,0,0,-1,741,1800,0,0
-476,-776,0,0,0,0,0,0,0,0,0,-1,748,1800,0,0
-469,-776,0,0,0,0,0,0,0,0,0,-1,755,1800,0,0
-462,-776,0,0,0,0,0,0,0,0,0,-1,762,1800,0,0
-455,-776,0,0,0,0,0,0,0,0,0,-1,769,1800,0,0
-448,-776,0,0,0,0,0,0,0,0,0,-1,776,1800,0,0
-441,-776,0,0,0,0,0,0,0,0,0,-1,783,1800,0,0
-434,-776,0,0,0,0,0,0,0,0,0,-1,790,1800,0,0
-427,-776,0,0,0,0,0,0,0,0,0,-1,797,1800,0,0
-420,-776,0,0,0,0,0,0,0,0,0,-1,804,1800,0,0
-413,-776,0,0,0,0,0,0,0,0,0,-1,811,1800,0,0
-406,-776,0,0,0,0,0,0,0,0,0,-1,818,1800,0,0
-399,-776,0,0,0,0,0,0,0,0,0,-1,825,1800,0,0
-392,-776,0,0,0,0,0,0,0,0,0,-1,832,1800,0,0
-385,-776,0,0,0,0,0,0,0,0,0,-1,839,1800,0,0
-378,-776,0,0,0,0,0,0,0,0,0,-1,846,1800,0,0
-371,-776,0,0,0,0,0,0,0,0,0,-1,853,1800,0,0
-364,-776,0,0,0,0,0,0,0,0,0,-1,860,1800,0,0
-357,-776,0,0,0,0,0,0,0,0,0,-1,867,1800,0,0
-350,-776,0,0,0,0,0,0,0,0,0,-1,874,1800,0,0
-343,-776,0,0,0,0,0,0,0,0,0,-1,881,1800,0,0
-336,-776,0,0,0,0,0,0,0,0,0,-1,888,1800,0,0
-329,-776,0,0,0,0,0,0,0,0,0,-1,895,1800,0,0
-322,-776,0,0,0,0,0,0,0,0,0,-1,902,1800,0,0
-315,-776,0,0,0,0,0,0,0,0,0,-1,909,1800,0,0
-308,-776,0,0,0,0,0,0,0,0,0,-1,916,1800,0,0
-301,-776,0,0,0,0,0,0,0,0,0,-1,923,1800,0,0
-294,-776,0,0,0,0,0,0,0,0,0,-1,930,1800,0,0
-287,-776,0,0,0,0,0,0,0,0,0,-1,937,1800,0,0
-280,-776,0,0,0,0,0,0,0,0,0,-1,944,1800,0,0
-273,-776,0,0,0,0,0,0,0,0,0,-1,951,1800,0,0
-266,-776,0,0,0,0,0,0,0,0,0,-1,958,1800,0,0
-259,-776,0,0,0,0,0,0,0,0,0,-1,965,1800,0,0
-252,-776,0,0,0,0,0,0,0,0,0,-1,972,1800,0,0
-245,-776,0,0,0,0,0,0,0,0,0,-1,979,1800,0,0
-238,-776,0,0,0,0,0,0,0,0,0,-1,986,1800,0,0
-231,-776,0,0,0,0,0,0,0,0,0,-1,993,1800,0,0
-224,-776,0,0,0,0,0,0,0,0,0,-1,1000,1800,0,0
-217,-776,0,0,0,0,0,0,0,0,0,-1,1007,1800,0,0
-210,-776,0,0,0,0,0,0,0,0,0,-1,1014,1800,0,0
-203,-776,0,0,0,0,0,0,0,0,0,-1,1021,1800,0,0
-196,-776,0,0,0,0,0,0,0,0,0,-1,1028,1800,0,0
-189,-776,0,0,0,0,0,0,0,0,0,-1,1035,1800,0,0
-182,-776,0,0,0,0,0,0,0,0,0,-1,1042,1800,0,0
-175,-776,0,0,0,0,0,0,0,0,0,-1,1049,1800,0,0
-168,-776,0,0,0,0,0,0,0,0,0,-1,1056,1800,0,0
-161,-776,0,0,0,0,0,0,0,0,0,-1,1063,1800,0,0
-154,-776,0,0,0,0,0,0,0,0,0,-1,1070,1800,0,0
-147,-776,0,0,0,0,0,0,0,0,0,-1,1077,1800,0,0
-140,-776,2.98499,5.20911,0,0,0,0,0,0,0,-1,1084,1800,2.98493,-5.2091
-133,-776,6.72363,9.35828,0,0,0,0,0,0,0,-1,1091,1800,6.72358,-9.35824
-126,-776,6.55029,13.7832,0,0,0,0,0,0,0,-1,1098,1800,6.55029,-13.7832
-119,-776,5.72107,13.7787,0,0,0,0,0,0,0,-1,1105,1800,5.72106,-13.7787
-112,-776,6.84998,20.4421,0,0,0,0,0,0,0,-1,1112,1800,6.84993,-20.4421
-105,-776,2.15039,19.7095,0,0,0,0,0,0,0,-1,1119,1800,2.1504,-19.7095
-98,-776,3.92517,21.9519,0,0,0,0,0,0,0,-1,1126,1800,3.92517,-21.9519
-91,-776,3.30225,18.134,0,0,0,0,0,0,0,-1,1133,1800,3.30222,-18.134
-84,-776,2.67932,14.3162,0,0,0,0,0,0,0,-1,1140,1800,2.67926,-14.3161
-77,-776,0.580078,11.1272,0,0,0,0,0,0,0,-1,1147,1800,0.58002,-11.1272
-70,-776,-0.562866,12.3163,0,0,0,0,0,0,0,-1,1154,1800,-0.562897,-12.3163
-63,-776,-3.96106,9.97656,0,0,0,0,0,0,0,-1,1161,1800,-3.961,-9.97654
-56,-776,-7.35913,7.63672,0,0,0,0,0,0,0,-1,1168,1800,-7.3591,-7.63676
-49,-776,-7.62952,3.1908,0,0,0,0,0,0,0,-1,1175,1800,-7.62955,-3.19076
-42,-776,-3.41272,3.0249,0,0,0,0,0,0,0,-1,1182,1800,-3.41269,-3.02488
-35,-776,-3.71753,1.63635,0,0,0,0,0,0,0,-1,1189,1800,-3.71755,-1.63631
-28,-776,-4.03979,0.716064,0,0,0,0,0,0,0,-1,1196,1800,-4.03977,-0.716055
-21,-776,7.0907,30.7811,0,0,0,0,0,0,0,-1,1203,1800,7.09068,-30.7811
-14,-776,7.22046,30.7543,0,0,0,0,0,0,0,-1,1210,1800,7.22044,-30.7543
-7,-776,7.43372,31.0515,0,0,0,0,0,0,0,-1,1217,1800,7.43377,-31.0515
0,-776,7.42444,31.2654,0.0338836,0.0165025,0.0122184,0.0401869,0.0101993,0.476274,0.0241213,0.0455924,1224,1800,7.42438,-31.2654
7,-776,7.4292,31.4772,0.0354263,0.0136671,0.00982368,0.0392051,0.00988826,0.367221,0.0235433,0.0446317,1231,1800,7.42922,-31.4772
14,-776,7.45203,31.7632,0.0361152,0.011648,0.00741525,0.0381871,0.00957611,0.27246,0.0229422,0.044629,1238,1800,7.45197,-31.7631
21,-776,7.48535,31.9929,0.0404265,0.0107867,0.00994242,0.0434526,0.00776056,0.295458,0.0267593,0.0465415,1245,1800,7.48531,-31.9929
28,-776,7.48633,32.3359,0.0453025,0.0168684,0.0162857,0.0527038,0.00946715,0.426556,0.0324439,0.0450786,1252,1800,7.48637,-32.3359
35,-776,11.1095,34.6375,0.0511168,0.0193122,0.0215965,0.0620341,0.00839492,0.468049,0.0388612,0.0447742,1259,1800,11.1094,-34.6374
42,-776,7.1394,32.7191,0.0555159,0.0226202,0.0276363,0.0712285,0.00690758,0.516973,0.0453588,0.0437612,1266,1800,7.13936,-32.7192
49,-776,7.28564,32.6267,0.0604163,0.0269401,0.0340614,0.08163,0.0057264,0.557022,0.0526152,0.0469432,1273,1800,7.28564,-32.6267
56,-776,7.15417,32.1385,0,0,0,0,0,0,0,-1,1280,1800,7.15423,-32.1385
63,-776,6.97925,31.7096,0,0,0,0,0,0,0,-1,1287,1800,6.97928,-31.7096
70,-776,4.90967,31.5483,0.0728688,0.0376826,0.0493071,0.107628,0.00292392,0.614036,0.0707972,0.0474843,1294,1800,4.90968,-31.5484
77,-776,5.17297,31.7043,0.0738857,0.03816,0.0504277,0.109521,0.00252485,0.615181,0.072187,0.0481126,1301,1800,5.173,-31.7044
84,-776,5.92651,32.4513,0.0716991,0.0367989,0.0500445,0.107249,0.00124935,0.617644,0.0710863,0.0481643,1308,1800,5.92652,-32.4513
91,-776,6.02136,32.3024,0.0689385,0.0326443,0.0466092,0.100809,0.000774074,0.599754,0.0669493,0.0446396,1315,1800,6.0213,-32.3023
98,-776,6.1814,32.0105,0.064934,0.0268317,0.0397493,0.0899618,0.00180393,0.56193,0.0593823,0.0417309,1322,1800,6.18136,-32.0105
105,-776,6.80334,32.0854,0,0,0,0,0,0,0,-1,1329,1800,6.8033,-32.0854
112,-776,7.54907,30.7684,0.0500826,0.0104375,0.0215174,0.0595164,0.00100367,0.413187,0.0393473,0.0448628,1336,1800,7.54912,-30.7685
119,-776,5.92603,32.194,0,0,0,0,0,0,0,-1,1343,1800,5.92608,-32.194
126,-776,6.33008,33.7,0.0290979,-0.00822669,-0.000688822,0.0291106,-0.0082394,-0.0184465,0.0226585,0.0405147,1350,1800,6.33009,-33.7
133,-776,6.36145,32.9614,0.0184045,-0.0251826,-0.0134044,0.0221968,-0.0289749,-0.275711,0.0296303,0.0462669,1357,1800,6.36143,-32.9614
140,-776,6.33044,32.0886,0,0,0,0,0,0,0,-1,1364,1800,6.33046,-32.0886
147,-776,5.58093,28.9237,0,0,0,0,0,0,0,-1,1371,1800,5.58088,-28.9237
154,-776,38.4338,21.854,0,0,0,0,0,0,0,-1,1378,1800,38.4339,-21.854
161,-776,6.50293,1.1731,0,0,0,0,0,0,0,-1,1385,1800,6.5029,-1.17313
168,-776,8.44971,1.22913,0,0,0,0,0,0,0,-1,1392,1800,8.44974,-1.22915
175,-776,8.61523,2.87061,0,0,0,0,0,0,0,-1,1399,1800,8.6152,-2.87063
182,-776,8.54065,4.60645,0,0,0,0,0,0,0,-1,1406,1800,8.5407,-4.60643
189,-776,8.35303,6.28223,0,0,0,0,0,0,0,-1,1413,1800,8.35297,-6.28225
196,-776,8.0387,8.21704,0,0,0,0,0,0,0,-1,1420,1800,8.03865,-8.217
203,-776,7.91736,9.79919,0,0,0,0,0,0,0,-1,1427,1800,7.91735,-9.79922
210,-776,20.2479,7.85718,0,0,0,0,0,0,0,-1,1434,1800,20.248,-7.85719
217,-776,21.5171,9.3418,0,0,0,0,0,0,0,-1,1441,1800,21.5171,-9.34182
224,-776,3.09253,14.9313,0,0,0,0,0,0,0,-1,1448,1800,3.09254,-14.9313
231,-776,20.8671,9.21057,0,0,0,0,0,0,0,-1,1455,1800,20.867,-9.21054
238,-776,20.7511,9.05847,0,0,0,0,0,0,0,-1,1462,1800,20.7511,-9.05848
245,-776,3.80823,15.4108,0,0,0,0,0,0,0,-1,1469,1800,3.80826,-15.4108
252,-776,8.57837,20.2009,0,0,0,0,0,0,0,-1,1476,1800,8.57841,-20.2009
259,-776,14.1882,7.69055,0,0,0,0,0,0,0,-1,1483,1800,14.1882,-7.69061
266,-776,0,0,0,0,0,0,0,0,0,-1,1490,1800,0,0
273,-776,0,0,0,0,0,0,0,0,0,-1,1497,1800,0,0
280,-776,0,0,0,0,0,0,0,0,0,-1,1504,1800,0,0
287,-776,0,0,0,0,0,0,0,0,0,-1,1511,1800,0,0
294,-776,0,0,0,0,0,0,0,0,0,-1,1518,1800,0,0
301,-776,0,0,0,0,0,0,0,0,0,-1,1525,1800,0,0
308,-776,0,0,0,0,0,0,0,0,0,-1,1532,1800,0,0
315,-776,0,0,0,0,0,0,0,0,0,-1,1539,1800,0,0
322,-776,0,0,0,0,0,0,0,0,0,-1,1546,1800,0,0
329,-776,0,0,0,0,0,0,0,0,0,-1,1553,1800,0,0
336,-776,0,0,0,0,0,0,0,0,0,-1,1560,1800,0,0
343,-776,0,0,0,0,0,0,0,0,0,-1,1567,1800,0,0
350,-776,0,0,0,0,0,0,0,0,0,-1,1574,1800,0,0
357,-776,0,0,0,0,0,0,0,0,0,-1,1581,1800,0,0
364,-776,0,0,0,0,0,0,0,0,0,-1,1588,1800,0,0
371,-776,0,0,0,0,0,0,0,0,0,-1,1595,1800,0,0
378,-776,0,0,0,0,0,0,0,0,0,-1,1602,1800,0,0
385,-776,0,0,0,0,0,0,0,0,0,-1,1609,1800,0,0
392,-776,0,0,0,0,0,0,0,0,0,-1,1616,1800,0,0
399,-776,0,0,0,0,0,0,0,0,0,-1,1623,1800,0,0
406,-776,0,0,0,0,0,0,0,0,0,-1,1630,1800,0,0
413,-776,0,0,0,0,0,0,0,0,0,-1,1637,1800,0,0
420,-776,0,0,0,0,0,0,0,0,0,-1,1644,1800,0,0
427,-776,0,0,0,0,0,0,0,0,0,-1,1651,1800,0,0
434,-776,0,0,0,0,0,0,0,0,0,-1,1658,1800,0,0
441,-776,0,0,0,0,0,0,0,0,0,-1,1665,1800,0,0
448,-776,0,0,0,0,0,0,0,0,0,-1,1672,1800,0,0
455,-776,0,0,0,0,0,0,0,0,0,-1,1679,1800,0,0
462,-776,0,0,0,0,0,0,0,0,0,-1,1686,1800,0,0
469,-776,0,0,0,0,0,0,0,0,0,-1,1693,1800,0,0
476,-776,0,0,0,0,0,0,0,0,0,-1,1700,1800,0,0
483,-776,0,0,0,0,0,0,0,0,0,-1,1707,1800,0,0
490,-776,0,0,0,0,0,0,0,0,0,-1,1714,1800,0,0
497,-776,0,0,0,0,0,0,0,0,0,-1,1721,1800,0,0
504,-776,0,0,0,0,0,0,0,0,0,-1,1728,1800,0,0
511,-776,0,0,0,0,0,0,0,0,0,-1,1735,1800,0,0
518,-776,0,0,0,0,0,0,0,0,0,-1,1742,1800,0,0
525,-776,0,0,0,0,0,0,0,0,0,-1,1749,1800,0,0
532,-776,0,0,0,0,0,0,0,0,0,-1,1756,1800,0,0
539,-776,0,0,0,0,0,0,0,0,0,-1,1763,1800,0,0
546,-776,0,0,0,0,0,0,0,0,0,-1,1770,1800,0,0
553,-776,0,0,0,0,0,0,0,0,0,-1,1777,1800,0,0
560,-776,0,0,0,0,0,0,0,0,0,-1,1784,1800,0,0
567,-776,0,0,0,0,0,0,0,0,0,-1,1791,1800,0,0
574,-776,0,0,0,0,0,0,0,0,0,-1,1798,1800,0,0
581,-776,0,0,0,0,0,0,0,0,0,-1,1805,1800,0,0
588,-776,0,0,0,0,0,0,0,0,0,-1,1812,1800,0,0
595,-776,0,0,0,0,0,0,0,0,0,-1,1819,1800,0,0
602,-776,0,0,0,0,0,0,0,0,0,-1,1826,1800,0,0
609,-776,0,0,0,0,0,0,0,0,0,-1,1833,1800,0,0
616,-776,0,0,0,0,0,0,0,0,0,-1,1840,1800,0,0
623,-776,0,0,0,0,0,0,0,0,0,-1,1847,1800,0,0
630,-776,0,0,0,0,0,0,0,0,0,-1,1854,1800,0,0
637,-776,0,0,0,0,0,0,0,0,0,-1,1861,1800,0,0
644,-776,0,0,0,0,0,0,0,0,0,-1,1868,1800,0,0
651,-776,0,0,0,0,0,0,0,0,0,-1,1875,1800,0,0
658,-776,0,0,0,0,0,0,0,0,0,-1,1882,1800,0,0
665,-776,0,0,0,0,0,0,0,0,0,-1,1889,1800,0,0
672,-776,0,0,0,0,0,0,0,0,0,-1,1896,1800,0,0
679,-776,0,0,0,0,0,0,0,0,0,-1,1903,1800,0,0
686,-776,0,0,0,0,0,0,0,0,0,-1,1910,1800,0,0
693,-776,0,0,0,0,0,0,0,0,0,-1,1917,1800,0,0
700,-776,0,0,0,0,0,0,0,0,0,-1,1924,1800,0,0
707,-776,0,0,0,0,0,0,0,0,0,-1,1931,1800,0,0
714,-776,0,0,0,0,0,0,0,0,0,-1,1938,1800,0,0
721,-776,0,0,0,0,0,0,0,0,0,-1,1945,1800,0,0
728,-776,0,0,0,0,0,0,0,0,0,-1,1952,1800,0,0
735,-776,0,0,0,0,0,0,0,0,0,-1,1959,1800,0,0
742,-776,0,0,0,0,0,0,0,0,0,-1,1966,1800,0,0
749,-776,0,0,0,0,0,0,0,0,0,-1,1973,1800,0,0
756,-776,0,0,0,0,0,0,0,0,0,-1,1980,1800,0,0
763,-776,0,0,0,0,0,0,0,0,0,-1,1987,1800,0,0
770,-776,0,0,0,0,0,0,0,0,0,-1,1994,1800,0,0
777,-776,0,0,0,0,0,0,0,0,0,-1,2001,1800,0,0
784,-776,0,0,0,0,0,0,0,0,0,-1,2008,1800,0,0
791,-776,0,0,0,0,0,0,0,0,0,-1,2015,1800,0,0
798,-776,0,0,0,0,0,0,0,0,0,-1,2022,1800,0,0
805,-776,0,0,0,0,0,0,0,0,0,-1,2029,1800,0,0
812,-776,0,0,0,0,0,0,0,0,0,-1,2036,1800,0,0
-700,-783,0,0,0,0,0,0,0,0,0,-1,524,1807,0,0
-693,-783,0,0,0,0,0,0,0,0,0,-1,531,1807,0,0
-686,-783,0,0,0,0,0,0,0,0,0,-1,538,1807,0,0
-679,-783,0,0,0,0,0,0,0,0,0,-1,545,1807,0,0
-672,-783,0,0,0,0,0,0,0,0,0,-1,552,1807,0,0
-665,-783,0,0,0,0,0,0,0,0,0,-1,559,1807,0,0
-658,-783,0,0,0,0,0,0,0,0,0,-1,566,1807,0,0
-651,-783,0,0,0,0,0,0,0,0,0,-1,573,1807,0,0
-644,-783,0,0,0,0,0,0,0,0,0,-1,580,1807,0,0
-637,-783,0,0,0,0,0,0,0,0,0,-1,587,1807,0,0
-630,-783,0,0,0,0,0,0,0,0,0,-1,594,1807,0,0
-623,-783,0,0,0,0,0,0,0,0,0,-1,601,1807,0,0
-616,-783,0,0,0,0,0,0,0,0,0,-1,608,1807,0,0
-609,-783,0,0,0,0,0,0,0,0,0,-1,615,1807,0,0
-602,-783,0,0,0,0,0,0,0,0,0,-1,622,1807,0,0
-595,-783,0,0,0,0,0,0,0,0,0,-1,629,1807,0,0
-588,-783,0,0,0,0,0,0,0,0,0,-1,636,1807,0,0
-581,-783,0,0,0,0,0,0,0,0,0,-1,643,1807,0,0
-574,-783,0,0,0,0,0,0,0,0,0,-1,650,1807,0,0
-567,-783,0,0,0,0,0,0,0,0,0,-1,657,1807,0,0
-560,-783,0,0,0,0,0,0,0,0,0,-1,664,1807,0,0
-553,-783,0,0,0,0,0,0,0,0,0,-1,671,1807,0,0
-546,-783,0,0,0,0,0,0,0,0,0,-1,678,1807,0,0
-539,-783,0,0,0,0,0,0,0,0,0,-1,685,1807,0,0
-532,-783,0,0,0,0,0,0,0,0,0,-1,692,1807,0,0
-525,-783,0,0,0,0,0,0,0,0,0,-1,699,1807,0,0
-518,-783,0,0,0,0,0,0,0,0,0,-1,706,1807,0,0
-511,-783,0,0,0,0,0,0,0,0,0,-1,713,1807,0,0
-504,-783,0,0,0,0,0,0,0,0,0,-1,720,1807,0,0
-497,-783,0,0,0,0,0,0,0,0,0,-1,727,1807,0,0
-490,-783,0,0,0,0,0,0,0,0,0,-1,734,1807,0,0
-483,-783,0,0,0,0,0,0,0,0,0,-1,741,1807,0,0
-476,-783,0,0,0,0,0,0,0,0,0,-1,748,1807,0,0
-469,-783,0,0,0,0,0,0,0,0,0,-1,755,1807,0,0
-462,-783,0,0,0,0,0,0,0,0,0,-1,762,1807,0,0
-455,-783,0,0,0,0,0,0,0,0,0,-1,769,1807,0,0
-448,-783,0,0,0,0,0,0,0,0,0,-1,776,1807,0,0
-441,-783,0,0,0,0,0,0,0,0,0,-1,783,1807,0,0
-434,-783,0,0,0,0,0,0,0,0,0,-1,790,1807,0,0
-427,-783,0,0,0,0,0,0,0,0,0,-1,797,1807,0,0
-420,-783,0,0,0,0,0,0,0,0,0,-1,804,1807,0,0
-413,-783,0,0,0,0,0,0,0,0,0,-1,811,1807,0,0
-406,-783,0,0,0,0,0,0,0,0,0,-1,818,1807,0,0
-399,-783,0,0,0,0,0,0,0,0,0,-1,825,1807,0,0
-392,-783,0,0,0,0,0,0,0,0,0,-1,832,1807,0,0
-385,-783,0,0,0,0,0,0,0,0,0,-1,839,1807,0,0
-378,-783,0,0,0,0,0,0,0,0,0,-1,846,1807,0,0
-371,-783,0,0,0,0,0,0,0,0,0,-1,853,1807,0,0
-364,-783,0,0,0,0,0,0,0,0,0,-1,860,1807,0,0
-357,-783,0,0,0,0,0,0,0,0,0,-1,867,1807,0,0
-350,-783,0,0,0,0,0,0,0,0,0,-1,874,1807,0,0
-343,-783,0,0,0,0,0,0,0,0,0,-1,881,1807,0,0
-336,-783,0,0,0,0,0,0,0,0,0,-1,888,1807,0,0
-329,-783,0,0,0,0,0,0,0,0,0,-1,895,1807,0,0
-322,-783,0,0,0,0,0,0,0,0,0,-1,902,1807,0,0
-315,-783,0,0,0,0,0,0,0,0,0,-1,909,1807,0,0
-308,-783,0,0,0,0,0,0,0,0,0,-1,916,1807,0,0
-301,-783,0,0,0,0,0,0,0,0,0,-1,923,1807,0,0
-294,-783,0,0,0,0,0,0,0,0,0,-1,930,1807,0,0
-287,-783,0,0,0,0,0,0,0,0,0,-1,937,1807,0,0
-280,-783,0,0,0,0,0,0,0,0,0,-1,944,1807,0,0
-273,-783,0,0,0,0,0,0,0,0,0,-1,951,1807,0,0
-266,-783,0,0,0,0,0,0,0,0,0,-1,958,1807,0,0
-259,-783,0,0,0,0,0,0,0,0,0,-1,965,1807,0,0
-252,-783,0,0,0,0,0,0,0,0,0,-1,972,1807,0,0
-245,-783,0,0,0,0,0,0,0,0,0,-1,979,1807,0,0
-238,-783,0,0,0,0,0,0,0,0,0,-1,986,1807,0,0
-231,-783,0,0,0,0,0,0,0,0,0,-1,993,1807,0,0
-224,-783,0,0,0,0,0,0,0,0,0,-1,1000,1807,0,0
-217,-783,0,0,0,0,0,0,0,0,0,-1,1007,1807,0,0
-210,-783,0,0,0,0,0,0,0,0,0,-1,1014,1807,0,0
-203,-783,0,0,0,0,0,0,0,0,0,-1,1021,1807,0,0
-196,-783,0,0,0,0,0,0,0,0,0,-1,1028,1807,0,0
-189,-783,0,0,0,0,0,0,0,0,0,-1,1035,1807,0,0
-182,-783,0,0,0,0,0,0,0,0,0,-1,1042,1807,0,0
-175,-783,0,0,0,0,0,0,0,0,0,-1,1049,1807,0,0
-168,-783,0,0,0,0,0,0,0,0,0,-1,1056,1807,0,0
-161,-783,0,0,0,0,0,0,0,0,0,-1,1063,1807,0,0
-154,-783,0,0,0,0,0,0,0,0,0,-1,1070,1807,0,0
-147,-783,0,0,0,0,0,0,0,0,0,-1,1077,1807,0,0
-140,-783,0,0,0,0,0,0,0,0,0,-1,1084,1807,0,0
-133,-783,0,0,0,0,0,0,0,0,0,-1,1091,1807,0,0
-126,-783,0,0,0,0,0,0,0,0,0,-1,1098,1807,0,0
-119,-783,0,0,0,0,0,0,0,0,0,-1,1105,1807,0,0
-112,-783,5.33936,14.7699,0,0,0,0,0,0,0,-1,1112,1807,5.33931,-14.7699
-105,-783,6.44263,21.2224,0,0,0,0,0,0,0,-1,1119,1807,6.44263,-21.2224
-98,-783,5.54773,20.5695,0,0,0,0,0,0,0,-1,1126,1807,5.54772,-20.5695
-91,-783,2.6106,20.2491,0,0,0,0,0,0,0,-1,1133,1807,2.61056,-20.2492
-84,-783,-0.0491943,14.5743,0,0,0,0,0,0,0,-1,1140,1807,-0.0491562,-14.5743
-77,-783,0.332764,12.7788,0,0,0,0,0,0,0,-1,1147,1807,0.332743,-12.7788
-70,-783,-1.93176,5.12817,0,0,0,0,0,0,0,-1,1154,1807,-1.93171,-5.12813
-63,-783,-5.31702,10.54,0,0,0,0,0,0,0,-1,1161,1807,-5.31703,-10.54
-56,-783,-6.26135,6.9679,0,0,0,0,0,0,0,-1,1168,1807,-6.26136,-6.96785
-49,-783,-3.17688,4.59705,0,0,0,0,0,0,0,-1,1175,1807,-3.17685,-4.5971
-42,-783,-3.72876,3.1405,0,0,0,0,0,0,0,-1,1182,1807,-3.72874,-3.14055
-35,-783,-3.97046,1.59399,0,0,0,0,0,0,0,-1,1189,1807,-3.97041,-1.59401
-28,-783,-4.12195,0.270386,0,0,0,0,0,0,0,-1,1196,1807,-4.12197,-0.270408
-21,-783,7.32007,30.9943,0,0,0,0,0,0,0,-1,1203,1807,7.3201,-30.9942
-14,-783,7.19739,30.6857,0,0,0,0,0,0,0,-1,1210,1807,7.19734,-30.6856
-7,-783,7.75391,30.6653,0,0,0,0,0,0,0,-1,1217,1807,7.75385,-30.6653
0,-783,7.56555,30.8741,0.0459625,0.0223917,0.0183546,0.0559896,0.0123646,0.499999,0.0339636,0.042863,1224,1807,7.56559,-30.8742
7,-783,7.44519,31.1508,0.0479384,0.0180209,0.0149185,0.054106,0.0118533,0.392026,0.0328406,0.0439766,1231,1807,7.44513,-31.1507
14,-783,7.6792,31.7294,0.0487521,0.014887,0.011507,0.052292,0.0113471,0.298444,0.0317619,0.0451955,1238,1807,7.67919,-31.7294
21,-783,7.56787,31.8065,0,0,0,0,0,0,0,-1,1245,1807,7.56793,-31.8066
28,-783,9.82874,33.4387,0.0622346,0.022631,0.0241478,0.0736614,0.0112041,0.441982,0.0458317,0.0456183,1252,1807,9.8287,-33.4387
35,-783,10.4888,34.3303,0.071103,0.026042,0.0312985,0.0871369,0.010008,0.473433,0.0550593,0.0457368,1259,1807,10.4887,-34.3303
42,-783,11.2554,34.9194,0,0,0,0,0,0,0,-1,1266,1807,11.2554,-34.9194
49,-783,2.89221,29.871,0,0,0,0,0,0,0,-1,1273,1807,2.89221,-29.871
56,-783,3.34924,30.2523,0,0,0,0,0,0,0,-1,1280,1807,3.34924,-30.2523
63,-783,3.84705,30.924,0,0,0,0,0,0,0,-1,1287,1807,3.84705,-30.924
70,-783,4.0614,31.1292,0.104919,0.0521062,0.0684751,0.151903,0.00512218,0.601369,0.0996049,0.049162,1294,1807,4.06136,-31.1291
77,-783,4.005,31.5952,0.107096,0.0533027,0.0700361,0.155223,0.00517613,0.602062,0.1018,0.0480193,1301,1807,4.00495,-31.5952
84,-783,5.9978,33.3604,0,0,0,0,0,0,0,-1,1308,1807,5.99786,-33.3603
91,-783,5.5343,32.3234,0.102196,0.0462433,0.0648016,0.144802,0.00363696,0.581622,0.0953458,0.0459604,1315,1807,5.53427,-32.3234
98,-783,5.72534,31.7985,0.0960928,0.038333,0.0551372,0.129456,0.00497011,0.544152,0.0846957,0.0460459,1322,1807,5.7254,-31.7985
105,-783,6.85583,31.3989,0.0870609,0.0281293,0.0432751,0.109949,0.00524086,0.486504,0.0716165,0.0441352,1329,1807,6.85585,-31.3989
112,-783,7.52686,30.5862,0.075317,0.0164221,0.0301828,0.0880377,0.00370141,0.398865,0.0574977,0.0444551,1336,1807,7.52689,-30.5862
119,-783,6.08435,34.7616,0,0,0,0,0,0,0,-1,1343,1807,6.08441,-34.7616
126,-783,6.27209,34.1974,0.0450688,-0.00926735,-0.000569567,0.0450747,-0.00927332,-0.0104807,0.0335706,0.0448127,1350,1807,6.27208,-34.1974
133,-783,6.41724,33.6211,0.0285233,-0.0356366,-0.0194307,0.0339491,-0.0410623,-0.272299,0.0433727,0.0480177,1357,1807,6.41719,-33.6211
140,-783,6.23572,33.2679,0.0139677,-0.0438984,-0.0268622,0.0245149,-0.0544457,-0.37415,0.0466669,0.0493553,1364,1807,6.23577,-33.2679
147,-783,5.98328,32.6539,0,0,0,0,0,0,0,-1,1371,1807,5.98324,-32.6539
154,-783,38.2109,17.545,0,0,0,0,0,0,0,-1,1378,1807,38.2109,-17.545
161,-783,39.5087,17.5449,0,0,0,0,0,0,0,-1,1385,1807,39.5087,-17.545
168,-783,8.62561,1.79944,0,0,0,0,0,0,0,-1,1392,1807,8.62561,-1.79946
175,-783,8.78699,3.40857,0,0,0,0,0,0,0,-1,1399,1807,8.78697,-3.40854
182,-783,8.70984,5.14661,0,0,0,0,0,0,0,-1,1406,1807,8.70989,-5.14666
189,-783,8.55762,6.79871,0,0,0,0,0,0,0,-1,1413,1807,8.55766,-6.79872
196,-783,8.25488,8.66626,0,0,0,0,0,0,0,-1,1420,1807,8.25492,-8.66628
203,-783,7.86755,10.5735,0,0,0,0,0,0,0,-1,1427,1807,7.8676,-10.5734
210,-783,5.6969,8.99231,0,0,0,0,0,0,0,-1,1434,1807,5.69693,-8.99234
217,-783,5.28503,3.80872,0,0,0,0,0,0,0,-1,1441,1807,5.285,-3.80868
224,-783,3.22571,6.62903,0,0,0,0,0,0,0,-1,1448,1807,3.2257,-6.62907
231,-783,4.27942,4.56262,0,0,0,0,0,0,0,-1,1455,1807,4.27948,-4.56267
238,-783,0,0,0,0,0,0,0,0,0,-1,1462,1807,0,0
245,-783,0,0,0,0,0,0,0,0,0,-1,1469,1807,0,0
252,-783,0,0,0,0,0,0,0,0,0,-1,1476,1807,0,0
259,-783,0,0,0,0,0,0,0,0,0,-1,1483,1807,0,0
266,-783,0,0,0,0,0,0,0,0,0,-1,1490,1807,0,0
273,-783,0,0,0,0,0,0,0,0,0,-1,1497,1807,0,0
280,-783,0,0,0,0,0,0,0,0,0,-1,1504,1807,0,0
287,-783,0,0,0,0,0,0,0,0,0,-1,1511,1807,0,0
294,-783,0,0,0,0,0,0,0,0,0,-1,1518,1807,0,0
301,-783,0,0,0,0,0,0,0,0,0,-1,1525,1807,0,0
308,-783,0,0,0,0,0,0,0,0,0,-1,1532,1807,0,0
315,-783,0,0,0,0,0,0,0,0,0,-1,1539,1807,0,0
322,-783,0,0,0,0,0,0,0,0,0,-1,1546,1807,0,0
329,-783,0,0,0,0,0,0,0,0,0,-1,1553,1807,0,0
336,-783,0,0,0,0,0,0,0,0,0,-1,1560,1807,0,0
343,-783,0,0,0,0,0,0,0,0,0,-1,1567,1807,0,0
350,-783,0,0,0,0,0,0,0,0,0,-1,1574,1807,0,0
357,-783,0,0,0,0,0,0,0,0,0,-1,1581,1807,0,0
364,-783,0,0,0,0,0,0,0,0,0,-1,1588,1807,0,0
371,-783,0,0,0,0,0,0,0,0,0,-1,1595,1807,0,0
378,-783,0,0,0,0,0,0,0,0,0,-1,1602,1807,0,0
385,-783,0,0,0,0,0,0,0,0,0,-1,1609,1807,0,0
392,-783,0,0,0,0,0,0,0,0,0,-1,1616,1807,0,0
399,-783,0,0,0,0,0,0,0,0,0,-1,1623,1807,0,0
406,-783,0,0,0,0,0,0,0,0,0,-1,1630,1807,0,0
413,-783,0,0,0,0,0,0,0,0,0,-1,1637,1807,0,0
420,-783,0,0,0,0,0,0,0,0,0,-1,1644,1807,0,0
427,-783,0,0,0,0,0,0,0,0,0,-1,1651,1807,0,0
434,-783,0,0,0,0,0,0,0,0,0,-1,1658,1807,0,0
441,-783,0,0,0,0,0,0,0,0,0,-1,1665,1807,0,0
448,-783,0,0,0,0,0,0,0,0,0,-1,1672,1807,0,0
455,-783,0,0,0,0,0,0,0,0,0,-1,1679,1807,0,0
462,-783,0,0,0,0,0,0,0,0,0,-1,1686,1807,0,0
469,-783,0,0,0,0,0,0,0,0,0,-1,1693,1807,0,0
476,-783,0,0,0,0,0,0,0,0,0,-1,1700,1807,0,0
483,-783,0,0,0,0,0,0,0,0,0,-1,1707,1807,0,0
490,-783,0,0,0,0,0,0,0,0,0,-1,1714,1807,0,0
497,-783,0,0,0,0,0,0,0,0,0,-1,1721,1807,0,0
504,-783,0,0,0,0,0,0,0,0,0,-1,1728,1807,0,0
511,-783,0,0,0,0,0,0,0,0,0,-1,1735,1807,0,0
518,-783,0,0,0,0,0,0,0,0,0,-1,1742,1807,0,0
525,-783,0,0,0,0,0,0,0,0,0,-1,1749,1807,0,0
532,-783,0,0,0,0,0,0,0,0,0,-1,1756,1807,0,0
539,-783,0,0,0,0,0,0,0,0,0,-1,1763,1807,0,0
546,-783,0,0,0,0,0,0,0,0,0,-1,1770,1807,0,0
553,-783,0,0,0,0,0,0,0,0,0,-1,1777,1807,0,0
560,-783,0,0,0,0,0,0,0,0,0,-1,1784,1807,0,0
567,-783,0,0,0,0,0,0,0,0,0,-1,1791,1807,0,0
574,-783,0,0,0,0,0,0,0,0,0,-1,1798,1807,0,0
581,-783,0,0,0,0,0,0,0,0,0,-1,1805,1807,0,0
588,-783,0,0,0,0,0,0,0,0,0,-1,1812,1807,0,0
595,-783,0,0,0,0,0,0,0,0,0,-1,1819,1807,0,0
602,-783,0,0,0,0,0,0,0,0,0,-1,1826,1807,0,0
609,-783,0,0,0,0,0,0,0,0,0,-1,1833,1807,0,0
616,-783,0,0,0,0,0,0,0,0,0,-1,1840,1807,0,0
623,-783,0,0,0,0,0,0,0,0,0,-1,1847,1807,0,0
630,-783,0,0,0,0,0,0,0,0,0,-1,1854,1807,0,0
637,-783,0,0,0,0,0,0,0,0,0,-1,1861,1807,0,0
644,-783,0,0,0,0,0,0,0,0,0,-1,1868,1807,0,0
651,-783,0,0,0,0,0,0,0,0,0,-1,1875,1807,0,0
658,-783,0,0,0,0,0,0,0,0,0,-1,1882,1807,0,0
665,-783,0,0,0,0,0,0,0,0,0,-1,1889,1807,0,0
672,-783,0,0,0,0,0,0,0,0,0,-1,1896,1807,0,0
679,-783,0,0,0,0,0,0,0,0,0,-1,1903,1807,0,0
686,-783,0,0,0,0,0,0,0,0,0,-1,1910,1807,0,0
693,-783,0,0,0,0,0,0,0,0,0,-1,1917,1807,0,0
700,-783,0,0,0,0,0,0,0,0,0,-1,1924,1807,0,0
707,-783,0,0,0,0,0,0,0,0,0,-1,1931,1807,0,0
714,-783,0,0,0,0,0,0,0,0,0,-1,1938,1807,0,0
721,-783,0,0,0,0,0,0,0,0,0,-1,1945,1807,0,0
728,-783,0,0,0,0,0,0,0,0,0,-1,1952,1807,0,0
735,-783,0,0,0,0,0,0,0,0,0,-1,1959,1807,0,0
742,-783,0,0,0,0,0,0,0,0,0,-1,1966,1807,0,0
749,-783,0,0,0,0,0,0,0,0,0,-1,1973,1807,0,0
756,-783,0,0,0,0,0,0,0,0,0,-1,1980,1807,0,0
763,-783,0,0,0,0,0,0,0,0,0,-1,1987,1807,0,0
770,-783,0,0,0,0,0,0,0,0,0,-1,1994,1807,0,0
777,-783,0,0,0,0,0,0,0,0,0,-1,2001,1807,0,0
784,-783,0,0,0,0,0,0,0,0,0,-1,2008,1807,0,0
791,-783,0,0,0,0,0,0,0,0,0,-1,2015,1807,0,0
798,-783,0,0,0,0,0,0,0,0,0,-1,2022,1807,0,0
805,-783,0,0,0,0,0,0,0,0,0,-1,2029,1807,0,0
812,-783,0,0,0,0,0,0,0,0,0,-1,2036,1807,0,0
-700,-790,0,0,0,0,0,0,0,0,0,-1,524,1814,0,0
-693,-790,0,0,0,0,0,0,0,0,0,-1,531,1814,0,0
-686,-790,0,0,0,0,0,0,0,0,0,-1,538,1814,0,0
-679,-790,0,0,0,0,0,0,0,0,0,-1,545,1814,0,0
-672,-790,0,0,0,0,0,0,0,0,0,-1,552,1814,0,0
-665,-790,0,0,0,0,0,0,0,0,0,-1,559,1814,0,0
-658,-790,0,0,0,0,0,0,0,0,0,-1,566,1814,0,0
-651,-790,0,0,0,0,0,0,0,0,0,-1,573,1814,0,0
-644,-790,0,0,0,0,0,0,0,0,0,-1,580,1814,0,0
-637,-790,0,0,0,0,0,0,0,0,0,-1,587,1814,0,0
-630,-790,0,0,0,0,0,0,0,0,0,-1,594,1814,0,0
-623,-790,0,0,0,0,0,0,0,0,0,-1,601,1814,0,0
-616,-790,0,0,0,0,0,0,0,0,0,-1,608,1814,0,0
-609,-790,0,0,0,0,0,0,0,0,0,-1,615,1814,0,0
-602,-790,0,0,0,0,0,0,0,0,0,-1,622,1814,0,0
-595,-790,0,0,0,0,0,0,0,0,0,-1,629,1814,0,0
-588,-790,0,0,0,0,0,0,0,0,0,-1,636,1814,0,0
-581,-790,0,0,0,0,0,0,0,0,0,-1,643,1814,0,0
-574,-790,0,0,0,0,0,0,0,0,0,-1,650,1814,0,0
-567,-790,0,0,0,0,0,0,0,0,0,-1,657,1814,0,0
-560,-790,0,0,0,0,0,0,0,0,0,-1,664,1814,0,0
-553,-790,0,0,0,0,0,0,0,0,0,-1,671,1814,0,0
-546,-790,0,0,0,0,0,0,0,0,0,-1,678,1814,0,0
-539,-790,0,0,0,0,0,0,0,0,0,-1,685,1814,0,0
-532,-790,0,0,0,0,0,0,0,0,0,-1,692,1814,0,0
-525,-790,0,0,0,0,0,0,0,0,0,-1,699,1814,0,0
-518,-790,0,0,0,0,0,0,0,0,0,-1,706,1814,0,0
-511,-790,0,0,0,0,0,0,0,0,0,-1,713,1814,0,0
-504,-790,0,0,0,0,0,0,0,0,0,-1,720,1814,0,0
-497,-790,0,0,0,0,0,0,0,0,0,-1,727,1814,0,0
-490,-790,0,0,0,0,0,0,0,0,0,-1,734,1814,0,0
-483,-790,0,0,0,0,0,0,0,0,0,-1,741,1814,0,0
-476,-790,0,0,0,0,0,0,0,0,0,-1,748,1814,0,0
-469,-790,0,0,0,0,0,0,0,0,0,-1,755,1814,0,0
-462,-790,0,0,0,0,0,0,0,0,0,-1,762,1814,0,0
-455,-790,0,0,0,0,0,0,0,0,0,-1,769,1814,0,0
-448,-790,0,0,0,0,0,0,0,0,0,-1,776,1814,0,0
-441,-790,0,0,0,0,0,0,0,0,0,-1,783,1814,0,0
-434,-790,0,0,0,0,0,0,0,0,0,-1,790,1814,0,0
-427,-790,0,0,0,0,0,0,0,0,0,-1,797,1814,0,0
-420,-790,0,0,0,0,0,0,0,0,0,-1,804,1814,0,0
-413,-790,0,0,0,0,0,0,0,0,0,-1,811,1814,0,0
-406,-790,0,0,0,0,0,0,0,0,0,-1,818,1814,0,0
-399,-790,0,0,0,0,0,0,0,0,0,-1,825,1814,0,0
-392,-790,0,0,0,0,0,0,0,0,0,-1,832,1814,0,0
-385,-790,0,0,0,0,0,0,0,0,0,-1,839,1814,0,0
-378,-790,0,0,0,0,0,0,0,0,0,-1,846,1814,0,0
-371,-790,0,0,0,0,0,0,0,0,0,-1,853,1814,0,0
-364,-790,0,0,0,0,0,0,0,0,0,-1,860,1814,0,0
-357,-790,0,0,0,0,0,0,0,0,0,-1,867,1814,0,0
-350,-790,0,0,0,0,0,0,0,0,0,-1,874,1814,0,0
-343,-790,0,0,0,0,0,0,0,0,0,-1,881,1814,0,0
-336,-790,0,0,0,0,0,0,0,0,0,-1,888,1814,0,0
-329,-790,0,0,0,0,0,0,0,0,0,-1,895,1814,0,0
-322,-790,0,0,0,0,0,0,0,0,0,-1,902,1814,0,0
-315,-790,0,0,0,0,0,0,0,0,0,-1,909,1814,0,0
-308,-790,0,0,0,0,0,0,0,0,0,-1,916,1814,0,0
-301,-790,0,0,0,0,0,0,0,0,0,-1,923,1814,0,0
-294,-790,0,0,0,0,0,0,0,0,0,-1,930,1814,0,0
-287,-790,0,0,0,0,0,0,0,0,0,-1,937,1814,0,0
-280,-790,0,0,0,0,0,0,0,0,0,-1,944,1814,0,0
-273,-790,0,0,0,0,0,0,0,0,0,-1,951,1814,0,0
-266,-790,0,0,0,0,0,0,0,0,0,-1,958,1814,0,0
-259,-790,0,0,0,0,0,0,0,0,0,-1,965,1814,0,0
-252,-790,0,0,0,0,0,0,0,0,0,-1,972,1814,0,0
-245,-790,0,0,0,0,0,0,0,0,0,-1,979,1814,0,0
-238,-790,0,0,0,0,0,0,0,0,0,-1,986,1814,0,0
-231,-790,0,0,0,0,0,0,0,0,0,-1,993,1814,0,0
-224,-790,0,0,0,0,0,0,0,0,0,-1,1000,1814,0,0
-217,-790,0,0,0,0,0,0,0,0,0,-1,1007,1814,0,0
-210,-790,0,0,0,0,0,0,0,0,0,-1,1014,1814,0,0
-203,-790,0,0,0,0,0,0,0,0,0,-1,1021,1814,0,0
-196,-790,0,0,0,0,0,0,0,0,0,-1,1028,1814,0,0
-189,-790,0,0,0,0,0,0,0,0,0,-1,1035,1814,0,0
-182,-790,0,0,0,0,0,0,0,0,0,-1,1042,1814,0,0
-175,-790,0,0,0,0,0,0,0,0,0,-1,1049,1814,0,0
-168,-790,0,0,0,0,0,0,0,0,0,-1,1056,1814,0,0
-161,-790,0,0,0,0,0,0,0,0,0,-1,1063,1814,0,0
-154,-790,0,0,0,0,0,0,0,0,0,-1,1070,1814,0,0
-147,-790,0,0,0,0,0,0,0,0,0,-1,1077,1814,0,0
-140,-790,0,0,0,0,0,0,0,0,0,-1,1084,1814,0,0
-133,-790,0,0,0,0,0,0,0,0,0,-1,1091,1814,0,0
-126,-790,0,0,0,0,0,0,0,0,0,-1,1098,1814,0,0
-119,-790,0,0,0,0,0,0,0,0,0,-1,1105,1814,0,0
-112,-790,0,0,0,0,0,0,0,0,0,-1,1112,1814,0,0
-105,-790,0,0,0,0,0,0,0,0,0,-1,1119,1814,0,0
-98,-790,0,0,0,0,0,0,0,0,0,-1,1126,1814,0,0
-91,-790,0,0,0,0,0,0,0,0,0,-1,1133,1814,0,0
-84,-790,0,0,0,0,0,0,0,0,0,-1,1140,1814,0,0
-77,-790,-0.969238,5.30847,0,0,0,0,0,0,0,-1,1147,1814,-0.969277,-5.3085
-70,-790,-1.23169,4.98914,0,0,0,0,0,0,0,-1,1154,1814,-1.23163,-4.98916
-63,-790,-1.69128,4.32263,0,0,0,0,0,0,0,-1,1161,1814,-1.69128,-4.32258
-56,-790,-2.24756,3.75305,0,0,0,0,0,0,0,-1,1168,1814,-2.24758,-3.75302
-49,-790,-3.11011,3.35779,0,0,0,0,0,0,0,-1,1175,1814,-3.11006,-3.35781
-42,-790,0.593262,1.19165,0,0,0,0,0,0,0,-1,1182,1814,0.593225,-1.19165
-35,-790,0.307129,-0.20105,0,0,0,0,0,0,0,-1,1189,1814,0.307178,0.201006
-28,-790,-2.78467,0.785156,0,0,0,0,0,0,0,-1,1196,1814,-2.78471,-0.785183
-21,-790,6.46069,30.0066,0,0,0,0,0,0,0,-1,1203,1814,6.46066,-30.0066
-14,-790,6.89514,30.2137,0.0474208,0.0499735,0.0365599,0.0852793,0.012115,0.802846,0.0532757,0.0493056,1210,1814,6.89508,-30.2138
-7,-790,7.36804,30.4866,0,0,0,0,0,0,0,-1,1217,1814,7.36807,-30.4866
0,-790,7.42175,30.5856,0,0,0,0,0,0,0,-1,1224,1814,7.4218,-30.5856
7,-790,6.95068,30.7764,0,0,0,0,0,0,0,-1,1231,1814,6.95072,-30.7763
14,-790,7.63611,31.7662,0.0635194,0.018206,0.0166883,0.0690021,0.0127233,0.317426,0.0424015,0.0431645,1238,1814,7.63613,-31.7663
21,-790,8.55151,32.6544,0.0722131,0.0158267,0.0217079,0.079602,0.00843775,0.328079,0.050491,0.0449921,1245,1814,8.55146,-32.6545
28,-790,9.32532,33.5536,0.0828845,0.0298234,0.0345345,0.0999027,0.0128052,0.457864,0.0627703,0.0446114,1252,1814,9.32527,-33.5536
35,-790,10.0562,34.4789,0,0,0,0,0,0,0,-1,1259,1814,10.0562,-34.4789
42,-790,2.36157,29.493,0,0,0,0,0,0,0,-1,1266,1814,2.36154,-29.4931
49,-790,2.36926,29.9762,0.11731,0.049408,0.066048,0.157622,0.00909588,0.547992,0.102184,0.0481197,1273,1814,2.36925,-29.9762
56,-790,2.65967,30.2375,0,0,0,0,0,0,0,-1,1280,1814,2.65963,-30.2376
63,-790,2.99231,30.4167,0,0,0,0,0,0,0,-1,1287,1814,2.9923,-30.4167
70,-790,3.03577,30.9293,0.146745,0.0710746,0.0930801,0.209386,0.00843392,0.592359,0.136866,0.042634,1294,1814,3.03575,-30.9294
77,-790,3.13513,31.4592,0.150894,0.0734911,0.0954245,0.215166,0.00921856,0.592748,0.140472,0.0413112,1301,1814,3.13519,-31.4592
84,-790,5.7522,33.1951,0,0,0,0,0,0,0,-1,1308,1814,5.75221,-33.195
91,-790,4.81848,32.2554,0,0,0,0,0,0,0,-1,1315,1814,4.81848,-32.2554
98,-790,5.37085,31.6201,0,0,0,0,0,0,0,-1,1322,1814,5.37087,-31.6201
105,-790,6.98352,30.9954,0,0,0,0,0,0,0,-1,1329,1814,6.98349,-30.9954
112,-790,3.06042,29.9109,0,0,0,0,0,0,0,-1,1336,1814,3.06038,-29.9108
119,-790,6.05103,35.1691,0,0,0,0,0,0,0,-1,1343,1814,6.05101,-35.169
126,-790,6.30127,34.6565,0,0,0,0,0,0,0,-1,1350,1814,6.30133,-34.6564
133,-790,6.54443,34.111,0,0,0,0,0,0,0,-1,1357,1814,6.54441,-34.111
140,-790,6.07251,34.0214,0,0,0,0,0,0,0,-1,1364,1814,6.07249,-34.0213
147,-790,5.82251,33.3347,0,0,0,0,0,0,0,-1,1371,1814,5.82254,-33.3347
154,-790,38.121,13.0201,0,0,0,0,0,0,0,-1,1378,1814,38.1209,-13.0202
161,-790,39.3429,13.0336,0,0,0,0,0,0,0,-1,1385,1814,39.3429,-13.0336
168,-790,7.04077,2.23279,0,0,0,0,0,0,0,-1,1392,1814,7.04082,-2.23275
175,-790,9.03918,3.98535,0,0,0,0,0,0,0,-1,1399,1814,9.0392,-3.98535
182,-790,8.96997,5.67896,0,0,0,0,0,0,0,-1,1406,1814,8.97001,-5.6789
189,-790,8.59729,6.86975,0,0,0,0,0,0,0,-1,1413,1814,8.59728,-6.86972
196,-790,8.21924,9.29053,0,0,0,0,0,0,0,-1,1420,1814,8.21924,-9.29048
203,-790,0,0,0,0,0,0,0,0,0,-1,1427,1814,0,0
210,-790,0,0,0,0,0,0,0,0,0,-1,1434,1814,0,0
217,-790,0,0,0,0,0,0,0,0,0,-1,1441,1814,0,0
224,-790,0,0,0,0,0,0,0,0,0,-1,1448,1814,0,0
231,-790,0,0,0,0,0,0,0,0,0,-1,1455,1814,0,0
238,-790,0,0,0,0,0,0,0,0,0,-1,1462,1814,0,0
245,-790,0,0,0,0,0,0,0,0,0,-1,1469,1814,0,0
252,-790,0,0,0,0,0,0,0,0,0,-1,1476,1814,0,0
259,-790,0,0,0,0,0,0,0,0,0,-1,1483,1814,0,0
266,-790,0,0,0,0,0,0,0,0,0,-1,1490,1814,0,0
273,-790,0,0,0,0,0,0,0,0,0,-1,1497,1814,0,0
280,-790,0,0,0,0,0,0,0,0,0,-1,1504,1814,0,0
287,-790,0,0,0,0,0,0,0,0,0,-1,1511,1814,0,0
294,-790,0,0,0,0,0,0,0,0,0,-1,1518,1814,0,0
301,-790,0,0,0,0,0,0,0,0,0,-1,1525,1814,0,0
308,-790,0,0,0,0,0,0,0,0,0,-1,1532,1814,0,0
315,-790,0,0,0,0,0,0,0,0,0,-1,1539,1814,0,0
322,-790,0,0,0,0,0,0,0,0,0,-1,1546,1814,0,0
329,-790,0,0,0,0,0,0,0,0,0,-1,1553,1814,0,0
336,-790,0,0,0,0,0,0,0,0,0,-1,1560,1814,0,0
343,-790,0,0,0,0,0,0,0,0,0,-1,1567,1814,0,0
350,-790,0,0,0,0,0,0,0,0,0,-1,1574,1814,0,0
357,-790,0,0,0,0,0,0,0,0,0,-1,1581,1814,0,0
364,-790,0,0,0,0,0,0,0,0,0,-1,1588,1814,0,0
371,-790,0,0,0,0,0,0,0,0,0,-1,1595,1814,0,0
378,-790,0,0,0,0,0,0,0,0,0,-1,1602,1814,0,0
385,-790,0,0,0,0,0,0,0,0,0,-1,1609,1814,0,0
392,-790,0,0,0,0,0,0,0,0,0,-1,1616,1814,0,0
399,-790,0,0,0,0,0,0,0,0,0,-1,1623,1814,0,0
406,-790,0,0,0,0,0,0,0,0,0,-1,1630,1814,0,0
413,-790,0,0,0,0,0,0,0,0,0,-1,1637,1814,0,0
420,-790,0,0,0,0,0,0,0,0,0,-1,1644,1814,0,0
427,-790,0,0,0,0,0,0,0,0,0,-1,1651,1814,0,0
434,-790,0,0,0,0,0,0,0,0,0,-1,1658,1814,0,0
441,-790,0,0,0,0,0,0,0,0,0,-1,1665,1814,0,0
448,-790,0,0,0,0,0,0,0,0,0,-1,1672,1814,0,0
455,-790,0,0,0,0,0,0,0,0,0,-1,1679,1814,0,0
462,-790,0,0,0,0,0,0,0,0,0,-1,1686,1814,0,0
469,-790,0,0,0,0,0,0,0,0,0,-1,1693,1814,0,0
476,-790,0,0,0,0,0,0,0,0,0,-1,1700,1814,0,0
483,-790,0,0,0,0,0,0,0,0,0,-1,1707,1814,0,0
490,-790,0,0,0,0,0,0,0,0,0,-1,1714,1814,0,0
497,-790,0,0,0,0,0,0,0,0,0,-1,1721,1814,0,0
504,-790,0,0,0,0,0,0,0,0,0,-1,1728,1814,0,0
511,-790,0,0,0,0,0,0,0,0,0,-1,1735,1814,0,0
518,-790,0,0,0,0,0,0,0,0,0,-1,1742,1814,0,0
525,-790,0,0,0,0,0,0,0,0,0,-1,1749,1814,0,0
532,-790,0,0,0,0,0,0,0,0,0,-1,1756,1814,0,0
539,-790,0,0,0,0,0,0,0,0,0,-1,1763,1814,0,0
546,-790,0,0,0,0,0,0,0,0,0,-1,1770,1814,0,0
553,-790,0,0,0,0,0,0,0,0,0,-1,1777,1814,0,0
560,-790,0,0,0,0,0,0,0,0,0,-1,1784,1814,0,0
567,-790,0,0,0,0,0,0,0,0,0,-1,1791,1814,0,0
574,-790,0,0,0,0,0,0,0,0,0,-1,1798,1814,0,0
581,-790,0,0,0,0,0,0,0,0,0,-1,1805,1814,0,0
588,-790,0,0,0,0,0,0,0,0,0,-1,1812,1814,0,0
595,-790,0,0,0,0,0,0,0,0,0,-1,1819,1814,0,0
602,-790,0,0,0,0,0,0,0,0,0,-1,1826,1814,0,0
609,-790,0,0,0,0,0,0,0,0,0,-1,1833,1814,0,0
616,-790,0,0,0,0,0,0,0,0,0,-1,1840,1814,0,0
623,-790,0,0,0,0,0,0,0,0,0,-1,1847,1814,0,0
630,-790,0,0,0,0,0,0,0,0,0,-1,1854,1814,0,0
637,-790,0,0,0,0,0,0,0,0,0,-1,1861,1814,0,0
644,-790,0,0,0,0,0,0,0,0,0,-1,1868,1814,0,0
651,-790,0,0,0,0,0,0,0,0,0,-1,1875,1814,0,0
658,-790,0,0,0,0,0,0,0,0,0,-1,1882,1814,0,0
665,-790,0,0,0,0,0,0,0,0,0,-1,1889,1814,0,0
672,-790,0,0,0,0,0,0,0,0,0,-1,1896,1814,0,0
679,-790,0,0,0,0,0,0,0,0,0,-1,1903,1814,0,0
686,-790,0,0,0,0,0,0,0,0,0,-1,1910,1814,0,0
693,-790,0,0,0,0,0,0,0,0,0,-1,1917,1814,0,0
700,-790,0,0,0,0,0,0,0,0,0,-1,1924,1814,0,0
707,-790,0,0,0,0,0,0,0,0,0,-1,1931,1814,0,0
714,-790,0,0,0,0,0,0,0,0,0,-1,1938,1814,0,0
721,-790,0,0,0,0,0,0,0,0,0,-1,1945,1814,0,0
728,-790,0,0,0,0,0,0,0,0,0,-1,1952,1814,0,0
735,-790,0,0,0,0,0,0,0,0,0,-1,1959,1814,0,0
742,-790,0,0,0,0,0,0,0,0,0,-1,1966,1814,0,0
749,-790,0,0,0,0,0,0,0,0,0,-1,1973,1814,0,0
756,-790,0,0,0,0,0,0,0,0,0,-1,1980,1814,0,0
763,-790,0,0,0,0,0,0,0,0,0,-1,1987,1814,0,0
770,-790,0,0,0,0,0,0,0,0,0,-1,1994,1814,0,0
777,-790,0,0,0,0,0,0,0,0,0,-1,2001,1814,0,0
784,-790,0,0,0,0,0,0,0,0,0,-1,2008,1814,0,0
791,-790,0,0,0,0,0,0,0,0,0,-1,2015,1814,0,0
798,-790,0,0,0,0,0,0,0,0,0,-1,2022,1814,0,0
805,-790,0,0,0,0,0,0,0,0,0,-1,2029,1814,0,0
812,-790,0,0,0,0,0,0,0,0,0,-1,2036,1814,0,0
-700,-797,0,0,0,0,0,0,0,0,0,-1,524,1821,0,0
-693,-797,0,0,0,0,0,0,0,0,0,-1,531,1821,0,0
-686,-797,0,0,0,0,0,0,0,0,0,-1,538,1821,0,0
-679,-797,0,0,0,0,0,0,0,0,0,-1,545,1821,0,0
-672,-797,0,0,0,0,0,0,0,0,0,-1,552,1821,0,0
-665,-797,0,0,0,0,0,0,0,0,0,-1,559,1821,0,0
-658,-797,0,0,0,0,0,0,0,0,0,-1,566,1821,0,0
-651,-797,0,0,0,0,0,0,0,0,0,-1,573,1821,0,0
-644,-797,0,0,0,0,0,0,0,0,0,-1,580,1821,0,0
-637,-797,0,0,0,0,0,0,0,0,0,-1,587,1821,0,0
-630,-797,0,0,0,0,0,0,0,0,0,-1,594,1821,0,0
-623,-797,0,0,0,0,0,0,0,0,0,-1,601,1821,0,0
-616,-797,0,0,0,0,0,0,0,0,0,-1,608,1821,0,0
-609,-797,0,0,0,0,0,0,0,0,0,-1,615,1821,0,0
-602,-797,0,0,0,0,0,0,0,0,0,-1,622,1821,0,0
-595,-797,0,0,0,0,0,0,0,0,0,-1,629,1821,0,0
-588,-797,0,0,0,0,0,0,0,0,0,-1,636,1821,0,0
-581,-797,0,0,0,0,0,0,0,0,0,-1,643,1821,0,0
-574,-797,0,0,0,0,0,0,0,0,0,-1,650,1821,0,0
-567,-797,0,0,0,0,0,0,0,0,0,-1,657,1821,0,0
-560,-797,0,0,0,0,0,0,0,0,0,-1,664,1821,0,0
-553,-797,0,0,0,0,0,0,0,0,0,-1,671,1821,0,0
-546,-797,0,0,0,0,0,0,0,0,0,-1,678,1821,0,0
-539,-797,0,0,0,0,0,0,0,0,0,-1,685,1821,0,0
-532,-797,0,0,0,0,0,0,0,0,0,-1,692,1821,0,0
-525,-797,0,0,0,0,0,0,0,0,0,-1,699,1821,0,0
-518,-797,0,0,0,0,0,0,0,0,0,-1,706,1821,0,0
-511,-797,0,0,0,0,0,0,0,0,0,-1,713,1821,0,0
-504,-797,0,0,0,0,0,0,0,0,0,-1,720,1821,0,0
-497,-797,0,0,0,0,0,0,0,0,0,-1,727,1821,0,0
-490,-797,0,0,0,0,0,0,0,0,0,-1,734,1821,0,0
-483,-797,0,0,0,0,0,0,0,0,0,-1,741,1821,0,0
-476,-797,0,0,0,0,0,0,0,0,0,-1,748,1821,0,0
-469,-797,0,0,0,0,0,0,0,0,0,-1,755,1821,0,0
-462,-797,0,0,0,0,0,0,0,0,0,-1,762,1821,0,0
-455,-797,0,0,0,0,0,0,0,0,0,-1,769,1821,0,0
-448,-797,0,0,0,0,0,0,0,0,0,-1,776,1821,0,0
-441,-797,0,0,0,0,0,0,0,0,0,-1,783,1821,0,0
-434,-797,0,0,0,0,0,0,0,0,0,-1,790,1821,0,0
-427,-797,0,0,0,0,0,0,0,0,0,-1,797,1821,0,0
-420,-797,0,0,0,0,0,0,0,0,0,-1,804,1821,0,0
-413,-797,0,0,0,0,0,0,0,0,0,-1,811,1821,0,0
-406,-797,0,0,0,0,0,0,0,0,0,-1,818,1821,0,0
-399,-797,0,0,0,0,0,0,0,0,0,-1,825,1821,0,0
-392,-797,0,0,0,0,0,0,0,0,0,-1,832,1821,0,0
-385,-797,0,0,0,0,0,0,0,0,0,-1,839,1821,0,0
-378,-797,0,0,0,0,0,0,0,0,0,-1,846,1821,0,0
-371,-797,0,0,0,0,0,0,0,0,0,-1,853,1821,0,0
-364,-797,0,0,0,0,0,0,0,0,0,-1,860,1821,0,0
-357,-797,0,0,0,0,0,0,0,0,0,-1,867,1821,0,0
-350,-797,0,0,0,0,0,0,0,0,0,-1,874,1821,0,0
-343,-797,0,0,0,0,0,0,0,0,0,-1,881,1821,0,0
-336,-797,0,0,0,0,0,0,0,0,0,-1,888,1821,0,0
-329,-797,0,0,0,0,0,0,0,0,0,-1,895,1821,0,0
-322,-797,0,0,0,0,0,0,0,0,0,-1,902,1821,0,0
-315,-797,0,0,0,0,0,0,0,0,0,-1,909,1821,0,0
-308,-797,0,0,0,0,0,0,0,0,0,-1,916,1821,0,0
-301,-797,0,0,0,0,0,0,0,0,0,-1,923,1821,0,0
-294,-797,0,0,0,0,0,0,0,0,0,-1,930,1821,0,0
-287,-797,0,0,0,0,0,0,0,0,0,-1,937,1821,0,0
-280,-797,0,0,0,0,0,0,0,0,0,-1,944,1821,0,0
-273,-797,0,0,0,0,0,0,0,0,0,-1,951,1821,0,0
-266,-797,0,0,0,0,0,0,0,0,0,-1,958,1821,0,0
-259,-797,0,0,0,0,0,0,0,0,0,-1,965,1821,0,0
-252,-797,0,0,0,0,0,0,0,0,0,-1,972,1821,0,0
-245,-797,0,0,0,0,0,0,0,0,0,-1,979,1821,0,0
-238,-797,0,0,0,0,0,0,0,0,0,-1,986,1821,0,0
-231,-797,0,0,0,0,0,0,0,0,0,-1,993,1821,0,0
-224,-797,0,0,0,0,0,0,0,0,0,-1,1000,1821,0,0
-217,-797,0,0,0,0,0,0,0,0,0,-1,1007,1821,0,0
-210,-797,0,0,0,0,0,0,0,0,0,-1,1014,1821,0,0
-203,-797,0,0,0,0,0,0,0,0,0,-1,1021,1821,0,0
-196,-797,0,0,0,0,0,0,0,0,0,-1,1028,1821,0,0
-189,-797,0,0,0,0,0,0,0,0,0,-1,1035,1821,0,0
-182,-797,0,0,0,0,0,0,0,0,0,-1,1042,1821,0,0
-175,-797,0,0,0,0,0,0,0,0,0,-1,1049,1821,0,0
-168,-797,0,0,0,0,0,0,0,0,0,-1,1056,1821,0,0
-161,-797,0,0,0,0,0,0,0,0,0,-1,1063,1821,0,0
-154,-797,0,0,0,0,0,0,0,0,0,-1,1070,1821,0,0
-147,-797,0,0,0,0,0,0,0,0,0,-1,1077,1821,0,0
-140,-797,0,0,0,0,0,0,0,0,0,-1,1084,1821,0,0
-133,-797,0,0,0,0,0,0,0,0,0,-1,1091,1821,0,0
-126,-797,0,0,0,0,0,0,0,0,0,-1,1098,1821,0,0
-119,-797,0,0,0,0,0,0,0,0,0,-1,1105,1821,0,0
-112,-797,0,0,0,0,0,0,0,0,0,-1,1112,1821,0,0
-105,-797,0,0,0,0,0,0,0,0,0,-1,1119,1821,0,0
-98,-797,0,0,0,0,0,0,0,0,0,-1,1126,1821,0,0
-91,-797,0,0,0,0,0,0,0,0,0,-1,1133,1821,0,0
-84,-797,0,0,0,0,0,0,0,0,0,-1,1140,1821,0,0
-77,-797,0,0,0,0,0,0,0,0,0,-1,1147,1821,0,0
-70,-797,0,0,0,0,0,0,0,0,0,-1,1154,1821,0,0
-63,-797,0,0,0,0,0,0,0,0,0,-1,1161,1821,0,0
-56,-797,0,0,0,0,0,0,0,0,0,-1,1168,1821,0,0
-49,-797,0,0,0,0,0,0,0,0,0,-1,1175,1821,0,0
-42,-797,0.579834,0.692871,0,0,0,0,0,0,0,-1,1182,1821,0.579856,-0.692816
-35,-797,-0.185425,5.55396,0,0,0,0,0,0,0,-1,1189,1821,-0.18542,-5.55396
-28,-797,-0.310181,4.71509,0,0,0,0,0,0,0,-1,1196,1821,-0.310228,-4.71503
-21,-797,6.22522,29.062,0,0,0,0,0,0,0,-1,1203,1821,6.22523,-29.062
-14,-797,6.71948,29.4492,0,0,0,0,0,0,0,-1,1210,1821,6.71946,-29.4492
-7,-797,7.16125,30.1464,0,0,0,0,0,0,0,-1,1217,1821,7.16123,-30.1464
0,-797,6.19397,29.8434,0,0,0,0,0,0,0,-1,1224,1821,6.19402,-29.8433
7,-797,6.93359,30.7719,0,0,0,0,0,0,0,-1,1231,1821,6.93356,-30.7718
14,-797,7.63184,31.7638,0.0801521,0.0213576,0.0229523,0.0880511,0.0134586,0.331451,0.0547685,0.0452656,1238,1821,7.63186,-31.7638
21,-797,8.38916,32.7357,0.0922269,0.0178297,0.0300865,0.102871,0.00718552,0.340044,0.0663155,0.0472063,1245,1821,8.38919,-32.7357
28,-797,9.1001,33.7101,0.107445,0.0389957,0.0480184,0.132187,0.0142535,0.475785,0.0837789,0.0451921,1252,1821,9.10008,-33.7101
35,-797,2.09973,28.1124,0.126137,0.0451246,0.0596705,0.157751,0.0135107,0.487209,0.100966,0.0471845,1259,1821,2.09974,-28.1124
42,-797,2.15857,29.2567,0,0,0,0,0,0,0,-1,1266,1821,2.15859,-29.2567
49,-797,1.89404,30.2938,0,0,0,0,0,0,0,-1,1273,1821,1.89407,-30.2939
56,-797,1.96997,30.2229,0,0,0,0,0,0,0,-1,1280,1821,1.97003,-30.2228
63,-797,2.03101,30.3683,0,0,0,0,0,0,0,-1,1287,1821,2.03103,-30.3683
70,-797,1.95654,30.9442,0.200381,0.0960644,0.124326,0.283046,0.0133986,0.586785,0.184394,0.0405828,1294,1821,1.95655,-30.9442
77,-797,5.94995,34.6938,0.207724,0.100426,0.128018,0.29288,0.0152694,0.586979,0.190368,0.0399494,1301,1821,5.95,-34.6939
84,-797,5.07263,33.0543,0.210413,0.0995909,0.128242,0.294703,0.0153006,0.581472,0.191572,0.0462762,1308,1821,5.07259,-33.0543
91,-797,4.17297,31.9326,0,0,0,0,0,0,0,-1,1315,1821,4.17294,-31.9326
98,-797,3.48694,31.0458,0,0,0,0,0,0,0,-1,1322,1821,3.48699,-31.0457
105,-797,3.05688,30.2491,0,0,0,0,0,0,0,-1,1329,1821,3.0569,-30.2491
112,-797,2.61804,29.452,0,0,0,0,0,0,0,-1,1336,1821,2.61806,-29.4521
119,-797,2.15161,28.5671,0,0,0,0,0,0,0,-1,1343,1821,2.15167,-28.5672
126,-797,6.46936,35.0533,0,0,0,0,0,0,0,-1,1350,1821,6.46935,-35.0534
133,-797,6.73254,34.6301,0,0,0,0,0,0,0,-1,1357,1821,6.73251,-34.6301
140,-797,5.7948,34.5854,0,0,0,0,0,0,0,-1,1364,1821,5.79481,-34.5854
147,-797,5.65173,33.6549,0,0,0,0,0,0,0,-1,1371,1821,5.65175,-33.6549
154,-797,37.9336,8.93274,0,0,0,0,0,0,0,-1,1378,1821,37.9336,-8.93275
161,-797,39.0011,8.83545,0,0,0,0,0,0,0,-1,1385,1821,39.0011,-8.8354
168,-797,0,0,0,0,0,0,0,0,0,-1,1392,1821,0,0
175,-797,0,0,0,0,0,0,0,0,0,-1,1399,1821,0,0
182,-797,0,0,0,0,0,0,0,0,0,-1,1406,1821,0,0
189,-797,0,0,0,0,0,0,0,0,0,-1,1413,1821,0,0
196,-797,0,0,0,0,0,0,0,0,0,-1,1420,1821,0,0
203,-797,0,0,0,0,0,0,0,0,0,-1,1427,1821,0,0
210,-797,0,0,0,0,0,0,0,0,0,-1,1434,1821,0,0
217,-797,0,0,0,0,0,0,0,0,0,-1,1441,1821,0,0
224,-797,0,0,0,0,0,0,0,0,0,-1,1448,1821,0,0
231,-797,0,0,0,0,0,0,0,0,0,-1,1455,1821,0,0
238,-797,0,0,0,0,0,0,0,0,0,-1,1462,1821,0,0
245,-797,0,0,0,0,0,0,0,0,0,-1,1469,1821,0,0
252,-797,0,0,0,0,0,0,0,0,0,-1,1476,1821,0,0
259,-797,0,0,0,0,0,0,0,0,0,-1,1483,1821,0,0
266,-797,0,0,0,0,0,0,0,0,0,-1,1490,1821,0,0
273,-797,0,0,0,0,0,0,0,0,0,-1,1497,1821,0,0
280,-797,0,0,0,0,0,0,0,0,0,-1,1504,1821,0,0
287,-797,0,0,0,0,0,0,0,0,0,-1,1511,1821,0,0
294,-797,0,0,0,0,0,0,0,0,0,-1,1518,1821,0,0
301,-797,0,0,0,0,0,0,0,0,0,-1,1525,1821,0,0
308,-797,0,0,0,0,0,0,0,0,0,-1,1532,1821,0,0
315,-797,0,0,0,0,0,0,0,0,0,-1,1539,1821,0,0
322,-797,0,0,0,0,0,0,0,0,0,-1,1546,1821,0,0
329,-797,0,0,0,0,0,0,0,0,0,-1,1553,1821,0,0
336,-797,0,0,0,0,0,0,0,0,0,-1,1560,1821,0,0
343,-797,0,0,0,0,0,0,0,0,0,-1,1567,1821,0,0
350,-797,0,0,0,0,0,0,0,0,0,-1,1574,1821,0,0
357,-797,0,0,0,0,0,0,0,0,0,-1,1581,1821,0,0
364,-797,0,0,0,0,0,0,0,0,0,-1,1588,1821,0,0
371,-797,0,0,0,0,0,0,0,0,0,-1,1595,1821,0,0
378,-797,0,0,0,0,0,0,0,0,0,-1,1602,1821,0,0
385,-797,0,0,0,0,0,0,0,0,0,-1,1609,1821,0,0
392,-797,0,0,0,0,0,0,0,0,0,-1,1616,1821,0,0
399,-797,0,0,0,0,0,0,0,0,0,-1,1623,1821,0,0
406,-797,0,0,0,0,0,0,0,0,0,-1,1630,1821,0,0
413,-797,0,0,0,0,0,0,0,0,0,-1,1637,1821,0,0
420,-797,0,0,0,0,0,0,0,0,0,-1,1644,1821,0,0
427,-797,0,0,0,0,0,0,0,0,0,-1,1651,1821,0,0
434,-797,0,0,0,0,0,0,0,0,0,-1,1658,1821,0,0
441,-797,0,0,0,0,0,0,0,0,0,-1,1665,1821,0,0
448,-797,0,0,0,0,0,0,0,0,0,-1,1672,1821,0,0
455,-797,0,0,0,0,0,0,0,0,0,-1,1679,1821,0,0
462,-797,0,0,0,0,0,0,0,0,0,-1,1686,1821,0,0
469,-797,0,0,0,0,0,0,0,0,0,-1,1693,1821,0,0
476,-797,0,0,0,0,0,0,0,0,0,-1,1700,1821,0,0
483,-797,0,0,0,0,0,0,0,0,0,-1,1707,1821,0,0
490,-797,0,0,0,0,0,0,0,0,0,-1,1714,1821,0,0
497,-797,0,0,0,0,0,0,0,0,0,-1,1721,1821,0,0
504,-797,0,0,0,0,0,0,0,0,0,-1,1728,1821,0,0
511,-797,0,0,0,0,0,0,0,0,0,-1,1735,1821,0,0
518,-797,0,0,0,0,0,0,0,0,0,-1,1742,1821,0,0
525,-797,0,0,0,0,0,0,0,0,0,-1,1749,1821,0,0
532,-797,0,0,0,0,0,0,0,0,0,-1,1756,1821,0,0
539,-797,0,0,0,0,0,0,0,0,0,-1,1763,1821,0,0
546,-797,0,0,0,0,0,0,0,0,0,-1,1770,1821,0,0
553,-797,0,0,0,0,0,0,0,0,0,-1,1777,1821,0,0
560,-797,0,0,0,0,0,0,0,0,0,-1,1784,1821,0,0
567,-797,0,0,0,0,0,0,0,0,0,-1,1791,1821,0,0
574,-797,0,0,0,0,0,0,0,0,0,-1,1798,1821,0,0
581,-797,0,0,0,0,0,0,0,0,0,-1,1805,1821,0,0
588,-797,0,0,0,0,0,0,0,0,0,-1,1812,1821,0,0
595,-797,0,0,0,0,0,0,0,0,0,-1,1819,1821,0,0
602,-797,0,0,0,0,0,0,0,0,0,-1,1826,1821,0,0
609,-797,0,0,0,0,0,0,0,0,0,-1,1833,1821,0,0
616,-797,0,0,0,0,0,0,0,0,0,-1,1840,1821,0,0
623,-797,0,0,0,0,0,0,0,0,0,-1,1847,1821,0,0
630,-797,0,0,0,0,0,0,0,0,0,-1,1854,1821,0,0
637,-797,0,0,0,0,0,0,0,0,0,-1,1861,1821,0,0
644,-797,0,0,0,0,0,0,0,0,0,-1,1868,1821,0,0
651,-797,0,0,0,0,0,0,0,0,0,-1,1875,1821,0,0
658,-797,0,0,0,0,0,0,0,0,0,-1,1882,1821,0,0
665,-797,0,0,0,0,0,0,0,0,0,-1,1889,1821,0,0
672,-797,0,0,0,0,0,0,0,0,0,-1,1896,1821,0,0
679,-797,0,0,0,0,0,0,0,0,0,-1,1903,1821,0,0
686,-797,0,0,0,0,0,0,0,0,0,-1,1910,1821,0,0
693,-797,0,0,0,0,0,0,0,0,0,-1,1917,1821,0,0
700,-797,0,0,0,0,0,0,0,0,0,-1,1924,1821,0,0
707,-797,0,0,0,0,0,0,0,0,0,-1,1931,1821,0,0
714,-797,0,0,0,0,0,0,0,0,0,-1,1938,1821,0,0
721,-797,0,0,0,0,0,0,0,0,0,-1,1945,1821,0,0
728,-797,0,0,0,0,0,0,0,0,0,-1,1952,1821,0,0
735,-797,0,0,0,0,0,0,0,0,0,-1,1959,1821,0,0
742,-797,0,0,0,0,0,0,0,0,0,-1,1966,1821,0,0
749,-797,0,0,0,0,0,0,0,0,0,-1,1973,1821,0,0
756,-797,0,0,0,0,0,0,0,0,0,-1,1980,1821,0,0
763,-797,0,0,0,0,0,0,0,0,0,-1,1987,1821,0,0
770,-797,0,0,0,0,0,0,0,0,0,-1,1994,1821,0,0
777,-797,0,0,0,0,0,0,0,0,0,-1,2001,1821,0,0
784,-797,0,0,0,0,0,0,0,0,0,-1,2008,1821,0,0
791,-797,0,0,0,0,0,0,0,0,0,-1,2015,1821,0,0
798,-797,0,0,0,0,0,0,0,0,0,-1,2022,1821,0,0
805,-797,0,0,0,0,0,0,0,0,0,-1,2029,1821,0,0
812,-797,0,0,0,0,0,0,0,0,0,-1,2036,1821,0,0
-700,-804,0,0,0,0,0,0,0,0,0,-1,524,1828,0,0
-693,-804,0,0,0,0,0,0,0,0,0,-1,531,1828,0,0
-686,-804,0,0,0,0,0,0,0,0,0,-1,538,1828,0,0
-679,-804,0,0,0,0,0,0,0,0,0,-1,545,1828,0,0
-672,-804,0,0,0,0,0,0,0,0,0,-1,552,1828,0,0
-665,-804,0,0,0,0,0,0,0,0,0,-1,559,1828,0,0
-658,-804,0,0,0,0,0,0,0,0,0,-1,566,1828,0,0
-651,-804,0,0,0,0,0,0,0,0,0,-1,573,1828,0,0
-644,-804,0,0,0,0,0,0,0,0,0,-1,580,1828,0,0
-637,-804,0,0,0,0,0,0,0,0,0,-1,587,1828,0,0
-630,-804,0,0,0,0,0,0,0,0,0,-1,594,1828,0,0
-623,-804,0,0,0,0,0,0,0,0,0,-1,601,1828,0,0
-616,-804,0,0,0,0,0,0,0,0,0,-1,608,1828,0,0
-609,-804,0,0,0,0,0,0,0,0,0,-1,615,1828,0,0
-602,-804,0,0,0,0,0,0,0,0,0,-1,622,1828,0,0
-595,-804,0,0,0,0,0,0,0,0,0,-1,629,1828,0,0
-588,-804,0,0,0,0,0,0,0,0,0,-1,636,1828,0,0
-581,-804,0,0,0,0,0,0,0,0,0,-1,643,1828,0,0
-574,-804,0,0,0,0,0,0,0,0,0,-1,650,1828,0,0
-567,-804,0,0,0,0,0,0,0,0,0,-1,657,1828,0,0
-560,-804,0,0,0,0,0,0,0,0,0,-1,664,1828,0,0
-553,-804,0,0,0,0,0,0,0,0,0,-1,671,1828,0,0
-546,-804,0,0,0,0,0,0,0,0,0,-1,678,1828,0,0
-539,-804,0,0,0,0,0,0,0,0,0,-1,685,1828,0,0
-532,-804,0,0,0,0,0,0,0,0,0,-1,692,1828,0,0
-525,-804,0,0,0,0,0,0,0,0,0,-1,699,1828,0,0
-518,-804,0,0,0,0,0,0,0,0,0,-1,706,1828,0,0
-511,-804,0,0,0,0,0,0,0,0,0,-1,713,1828,0,0
-504,-804,0,0,0,0,0,0,0,0,0,-1,720,1828,0,0
-497,-804,0,0,0,0,0,0,0,0,0,-1,727,1828,0,0
-490,-804,0,0,0,0,0,0,0,0,0,-1,734,1828,0,0
-483,-804,0,0,0,0,0,0,0,0,0,-1,741,1828,0,0
-476,-804,0,0,0,0,0,0,0,0,0,-1,748,1828,0,0
-469,-804,0,0,0,0,0,0,0,0,0,-1,755,1828,0,0
-462,-804,0,0,0,0,0,0,0,0,0,-1,762,1828,0,0
-455,-804,0,0,0,0,0,0,0,0,0,-1,769,1828,0,0
-448,-804,0,0,0,0,0,0,0,0,0,-1,776,1828,0,0
-441,-804,0,0,0,0,0,0,0,0,0,-1,783,1828,0,0
-434,-804,0,0,0,0,0,0,0,0,0,-1,790,1828,0,0
-427,-804,0,0,0,0,0,0,0,0,0,-1,797,1828,0,0
-420,-804,0,0,0,0,0,0,0,0,0,-1,804,1828,0,0
-413,-804,0,0,0,0,0,0,0,0,0,-1,811,1828,0,0
-406,-804,0,0,0,0,0,0,0,0,0,-1,818,1828,0,0
-399,-804,0,0,0,0,0,0,0,0,0,-1,825,1828,0,0
-392,-804,0,0,0,0,0,0,0,0,0,-1,832,1828,0,0
-385,-804,0,0,0,0,0,0,0,0,0,-1,839,1828,0,0
-378,-804,0,0,0,0,0,0,0,0,0,-1,846,1828,0,0
-371,-804,0,0,0,0,0,0,0,0,0,-1,853,1828,0,0
-364,-804,0,0,0,0,0,0,0,0,0,-1,860,1828,0,0
-357,-804,0,0,0,0,0,0,0,0,0,-1,867,1828,0,0
-350,-804,0,0,0,0,0,0,0,0,0,-1,874,1828,0,0
-343,-804,0,0,0,0,0,0,0,0,0,-1,881,1828,0,0
-336,-804,0,0,0,0,0,0,0,0,0,-1,888,1828,0,0
-329,-804,0,0,0,0,0,0,0,0,0,-1,895,1828,0,0
-322,-804,0,0,0,0,0,0,0,0,0,-1,902,1828,0,0
-315,-804,0,0,0,0,0,0,0,0,0,-1,909,1828,0,0
-308,-804,0,0,0,0,0,0,0,0,0,-1,916,1828,0,0
-301,-804,0,0,0,0,0,0,0,0,0,-1,923,1828,0,0
-294,-804,0,0,0,0,0,0,0,0,0,-1,930,1828,0,0
-287,-804,0,0,0,0,0,0,0,0,0,-1,937,1828,0,0
-280,-804,0,0,0,0,0,0,0,0,0,-1,944,1828,0,0
-273,-804,0,0,0,0,0,0,0,0,0,-1,951,1828,0,0
-266,-804,0,0,0,0,0,0,0,0,0,-1,958,1828,0,0
-259,-804,0,0,0,0,0,0,0,0,0,-1,965,1828,0,0
-252,-804,0,0,0,0,0,0,0,0,0,-1,972,1828,0,0
-245,-804,0,0,0,0,0,0,0,0,0,-1,979,1828,0,0
-238,-804,0,0,0,0,0,0,0,0,0,-1,986,1828,0,0
-231,-804,0,0,0,0,0,0,0,0,0,-1,993,1828,0,0
-224,-804,0,0,0,0,0,0,0,0,0,-1,1000,1828,0,0
-217,-804,0,0,0,0,0,0,0,0,0,-1,1007,1828,0,0
-210,-804,0,0,0,0,0,0,0,0,0,-1,1014,1828,0,0
-203,-804,0,0,0,0,0,0,0,0,0,-1,1021,1828,0,0
-196,-804,0,0,0,0,0,0,0,0,0,-1,1028,1828,0,0
-189,-804,0,0,0,0,0,0,0,0,0,-1,1035,1828,0,0
-182,-804,0,0,0,0,0,0,0,0,0,-1,1042,1828,0,0
-175,-804,0,0,0,0,0,0,0,0,0,-1,1049,1828,0,0
-168,-804,0,0,0,0,0,0,0,0,0,-1,1056,1828,0,0
-161,-804,0,0,0,0,0,0,0,0,0,-1,1063,1828,0,0
-154,-804,0,0,0,0,0,0,0,0,0,-1,1070,1828,0,0
-147,-804,0,0,0,0,0,0,0,0,0,-1,1077,1828,0,0
-140,-804,0,0,0,0,0,0,0,0,0,-1,1084,1828,0,0
-133,-804,0,0,0,0,0,0,0,0,0,-1,1091,1828,0,0
-126,-804,0,0,0,0,0,0,0,0,0,-1,1098,1828,0,0
-119,-804,0,0,0,0,0,0,0,0,0,-1,1105,1828,0,0
-112,-804,0,0,0,0,0,0,0,0,0,-1,1112,1828,0,0
-105,-804,0,0,0,0,0,0,0,0,0,-1,1119,1828,0,0
-98,-804,0,0,0,0,0,0,0,0,0,-1,1126,1828,0,0
-91,-804,0,0,0,0,0,0,0,0,0,-1,1133,1828,0,0
-84,-804,0,0,0,0,0,0,0,0,0,-1,1140,1828,0,0
-77,-804,0,0,0,0,0,0,0,0,0,-1,1147,1828,0,0
-70,-804,0,0,0,0,0,0,0,0,0,-1,1154,1828,0,0
-63,-804,0,0,0,0,0,0,0,0,0,-1,1161,1828,0,0
-56,-804,0,0,0,0,0,0,0,0,0,-1,1168,1828,0,0
-49,-804,0,0,0,0,0,0,0,0,0,-1,1175,1828,0,0
-42,-804,0,0,0,0,0,0,0,0,0,-1,1182,1828,0,0
-35,-804,0,0,0,0,0,0,0,0,0,-1,1189,1828,0,0
-28,-804,0,0,0,0,0,0,0,0,0,-1,1196,1828,0,0
-21,-804,0,0,0,0,0,0,0,0,0,-1,1203,1828,0,0
-14,-804,0,0,0,0,0,0,0,0,0,-1,1210,1828,0,0
-7,-804,0,0,0,0,0,0,0,0,0,-1,1217,1828,0,0
0,-804,0,0,0,0,0,0,0,0,0,-1,1224,1828,0,0
7,-804,0,0,0,0,0,0,0,0,0,-1,1231,1828,0,0
14,-804,0,0,0,0,0,0,0,0,0,-1,1238,1828,0,0
21,-804,0,0,0,0,0,0,0,0,0,-1,1245,1828,0,0
28,-804,0,0,0,0,0,0,0,0,0,-1,1252,1828,0,0
35,-804,0.60498,27.6981,0,0,0,0,0,0,0,-1,1259,1828,0.604922,-27.6982
42,-804,1.37476,29.4888,0,0,0,0,0,0,0,-1,1266,1828,1.37482,-29.4887
49,-804,1.08472,30.4354,0,0,0,0,0,0,0,-1,1273,1828,1.08474,-30.4354
56,-804,0.338501,30.9777,0,0,0,0,0,0,0,-1,1280,1828,0.338546,-30.9776
63,-804,0.60022,31.045,0,0,0,0,0,0,0,-1,1287,1828,0.600256,-31.045
70,-804,0.917236,31.1038,0.2687,0.129309,0.163907,0.377114,0.020895,0.584372,0.244742,0.0456643,1294,1828,0.917181,-31.1038
77,-804,1.08081,31.3226,0.281102,0.136726,0.169866,0.393483,0.0243454,0.584477,0.254595,0.0453564,1301,1828,1.08083,-31.3226
84,-804,4.72363,33.28,0.288564,0.136625,0.170702,0.399439,0.0257508,0.576036,0.258137,0.0439137,1308,1828,4.72368,-33.28
91,-804,0,0,0,0,0,0,0,0,0,-1,1315,1828,0,0
98,-804,0,0,0,0,0,0,0,0,0,-1,1322,1828,0,0
105,-804,0,0,0,0,0,0,0,0,0,-1,1329,1828,0,0
112,-804,0,0,0,0,0,0,0,0,0,-1,1336,1828,0,0
119,-804,0,0,0,0,0,0,0,0,0,-1,1343,1828,0,0
126,-804,0,0,0,0,0,0,0,0,0,-1,1350,1828,0,0
133,-804,0,0,0,0,0,0,0,0,0,-1,1357,1828,0,0
140,-804,0,0,0,0,0,0,0,0,0,-1,1364,1828,0,0
147,-804,0,0,0,0,0,0,0,0,0,-1,1371,1828,0,0
154,-804,0,0,0,0,0,0,0,0,0,-1,1378,1828,0,0
161,-804,0,0,0,0,0,0,0,0,0,-1,1385,1828,0,0
168,-804,0,0,0,0,0,0,0,0,0,-1,1392,1828,0,0
175,-804,0,0,0,0,0,0,0,0,0,-1,1399,1828,0,0
182,-804,0,0,0,0,0,0,0,0,0,-1,1406,1828,0,0
189,-804,0,0,0,0,0,0,0,0,0,-1,1413,1828,0,0
196,-804,0,0,0,0,0,0,0,0,0,-1,1420,1828,0,0
203,-804,0,0,0,0,0,0,0,0,0,-1,1427,1828,0,0
210,-804,0,0,0,0,0,0,0,0,0,-1,1434,1828,0,0
217,-804,0,0,0,0,0,0,0,0,0,-1,1441,1828,0,0
224,-804,0,0,0,0,0,0,0,0,0,-1,1448,1828,0,0
231,-804,0,0,0,0,0,0,0,0,0,-1,1455,1828,0,0
238,-804,0,0,0,0,0,0,0,0,0,-1,1462,1828,0,0
245,-804,0,0,0,0,0,0,0,0,0,-1,1469,1828,0,0
252,-804,0,0,0,0,0,0,0,0,0,-1,1476,1828,0,0
259,-804,0,0,0,0,0,0,0,0,0,-1,1483,1828,0,0
266,-804,0,0,0,0,0,0,0,0,0,-1,1490,1828,0,0
273,-804,0,0,0,0,0,0,0,0,0,-1,1497,1828,0,0
280,-804,0,0,0,0,0,0,0,0,0,-1,1504,1828,0,0
287,-804,0,0,0,0,0,0,0,0,0,-1,1511,1828,0,0
294,-804,0,0,0,0,0,0,0,0,0,-1,1518,1828,0,0
301,-804,0,0,0,0,0,0,0,0,0,-1,1525,1828,0,0
308,-804,0,0,0,0,0,0,0,0,0,-1,1532,1828,0,0
315,-804,0,0,0,0,0,0,0,0,0,-1,1539,1828,0,0
322,-804,0,0,0,0,0,0,0,0,0,-1,1546,1828,0,0
329,-804,0,0,0,0,0,0,0,0,0,-1,1553,1828,0,0
336,-804,0,0,0,0,0,0,0,0,0,-1,1560,1828,0,0
343,-804,0,0,0,0,0,0,0,0,0,-1,1567,1828,0,0
350,-804,0,0,0,0,0,0,0,0,0,-1,1574,1828,0,0
357,-804,0,0,0,0,0,0,0,0,0,-1,1581,1828,0,0
364,-804,0,0,0,0,0,0,0,0,0,-1,1588,1828,0,0
371,-804,0,0,0,0,0,0,0,0,0,-1,1595,1828,0,0
378,-804,0,0,0,0,0,0,0,0,0,-1,1602,1828,0,0
385,-804,0,0,0,0,0,0,0,0,0,-1,1609,1828,0,0
392,-804,0,0,0,0,0,0,0,0,0,-1,1616,1828,0,0
399,-804,0,0,0,0,0,0,0,0,0,-1,1623,1828,0,0
406,-804,0,0,0,0,0,0,0,0,0,-1,1630,1828,0,0
413,-804,0,0,0,0,0,0,0,0,0,-1,1637,1828,0,0
420,-804,0,0,0,0,0,0,0,0,0,-1,1644,1828,0,0
427,-804,0,0,0,0,0,0,0,0,0,-1,1651,1828,0,0
434,-804,0,0,0,0,0,0,0,0,0,-1,1658,1828,0,0
441,-804,0,0,0,0,0,0,0,0,0,-1,1665,1828,0,0
448,-804,0,0,0,0,0,0,0,0,0,-1,1672,1828,0,0
455,-804,0,0,0,0,0,0,0,0,0,-1,1679,1828,0,0
462,-804,0,0,0,0,0,0,0,0,0,-1,1686,1828,0,0
469,-804,0,0,0,0,0,0,0,0,0,-1,1693,1828,0,0
476,-804,0,0,0,0,0,0,0,0,0,-1,1700,1828,0,0
483,-804,0,0,0,0,0,0,0,0,0,-1,1707,1828,0,0
490,-804,0,0,0,0,0,0,0,0,0,-1,1714,1828,0,0
497,-804,0,0,0,0,0,0,0,0,0,-1,1721,1828,0,0
504,-804,0,0,0,0,0,0,0,0,0,-1,1728,1828,0,0
511,-804,0,0,0,0,0,0,0,0,0,-1,1735,1828,0,0
518,-804,0,0,0,0,0,0,0,0,0,-1,1742,1828,0,0
525,-804,0,0,0,0,0,0,0,0,0,-1,1749,1828,0,0
532,-804,0,0,0,0,0,0,0,0,0,-1,1756,1828,0,0
539,-804,0,0,0,0,0,0,0,0,0,-1,1763,1828,0,0
546,-804,0,0,0,0,0,0,0,0,0,-1,1770,1828,0,0
553,-804,0,0,0,0,0,0,0,0,0,-1,1777,1828,0,0
560,-804,0,0,0,0,0,0,0,0,0,-1,1784,1828,0,0
567,-804,0,0,0,0,0,0,0,0,0,-1,1791,1828,0,0
574,-804,0,0,0,0,0,0,0,0,0,-1,1798,1828,0,0
581,-804,0,0,0,0,0,0,0,0,0,-1,1805,1828,0,0
588,-804,0,0,0,0,0,0,0,0,0,-1,1812,1828,0,0
595,-804,0,0,0,0,0,0,0,0,0,-1,1819,1828,0,0
602,-804,0,0,0,0,0,0,0,0,0,-1,1826,1828,0,0
609,-804,0,0,0,0,0,0,0,0,0,-1,1833,1828,0,0
616,-804,0,0,0,0,0,0,0,0,0,-1,1840,1828,0,0
623,-804,0,0,0,0,0,0,0,0,0,-1,1847,1828,0,0
630,-804,0,0,0,0,0,0,0,0,0,-1,1854,1828,0,0
637,-804,0,0,0,0,0,0,0,0,0,-1,1861,1828,0,0
644,-804,0,0,0,0,0,0,0,0,0,-1,1868,1828,0,0
651,-804,0,0,0,0,0,0,0,0,0,-1,1875,1828,0,0
658,-804,0,0,0,0,0,0,0,0,0,-1,1882,1828,0,0
665,-804,0,0,0,0,0,0,0,0,0,-1,1889,1828,0,0
672,-804,0,0,0,0,0,0,0,0,0,-1,1896,1828,0,0
679,-804,0,0,0,0,0,0,0,0,0,-1,1903,1828,0,0
686,-804,0,0,0,0,0,0,0,0,0,-1,1910,1828,0,0
693,-804,0,0,0,0,0,0,0,0,0,-1,1917,1828,0,0
700,-804,0,0,0,0,0,0,0,0,0,-1,1924,1828,0,0
707,-804,0,0,0,0,0,0,0,0,0,-1,1931,1828,0,0
714,-804,0,0,0,0,0,0,0,0,0,-1,1938,1828,0,0
721,-804,0,0,0,0,0,0,0,0,0,-1,1945,1828,0,0
728,-804,0,0,0,0,0,0,0,0,0,-1,1952,1828,0,0
735,-804,0,0,0,0,0,0,0,0,0,-1,1959,1828,0,0
742,-804,0,0,0,0,0,0,0,0,0,-1,1966,1828,0,0
749,-804,0,0,0,0,0,0,0,0,0,-1,1973,1828,0,0
756,-804,0,0,0,0,0,0,0,0,0,-1,1980,1828,0,0
763,-804,0,0,0,0,0,0,0,0,0,-1,1987,1828,0,0
770,-804,0,0,0,0,0,0,0,0,0,-1,1994,1828,0,0
777,-804,0,0,0,0,0,0,0,0,0,-1,2001,1828,0,0
784,-804,0,0,0,0,0,0,0,0,0,-1,2008,1828,0,0
791,-804,0,0,0,0,0,0,0,0,0,-1,2015,1828,0,0
798,-804,0,0,0,0,0,0,0,0,0,-1,2022,1828,0,0
805,-804,0,0,0,0,0,0,0,0,0,-1,2029,1828,0,0
812,-804,0,0,0,0,0,0,0,0,0,-1,2036,1828,0,0

