 "x_c",  "y_c",  "u_c",  "v_c",  "exx",  "eyy",  "exy",  "e1",  "e2",  "gamma",  "e_vonmises",  "sigma",  "x",  "y",  "u",  "v"
-700,715,0,0,0,0,0,0,0,0,0,-1,524,309,0,0
-693,715,0,0,0,0,0,0,0,0,0,-1,531,309,0,0
-686,715,0,0,0,0,0,0,0,0,0,-1,538,309,0,0
-679,715,0,0,0,0,0,0,0,0,0,-1,545,309,0,0
-672,715,0,0,0,0,0,0,0,0,0,-1,552,309,0,0
-665,715,0,0,0,0,0,0,0,0,0,-1,559,309,0,0
-658,715,0,0,0,0,0,0,0,0,0,-1,566,309,0,0
-651,715,0,0,0,0,0,0,0,0,0,-1,573,309,0,0
-644,715,0,0,0,0,0,0,0,0,0,-1,580,309,0,0
-637,715,0,0,0,0,0,0,0,0,0,-1,587,309,0,0
-630,715,0,0,0,0,0,0,0,0,0,-1,594,309,0,0
-623,715,0,0,0,0,0,0,0,0,0,-1,601,309,0,0
-616,715,0,0,0,0,0,0,0,0,0,-1,608,309,0,0
-609,715,0,0,0,0,0,0,0,0,0,-1,615,309,0,0
-602,715,0,0,0,0,0,0,0,0,0,-1,622,309,0,0
-595,715,0,0,0,0,0,0,0,0,0,-1,629,309,0,0
-588,715,0,0,0,0,0,0,0,0,0,-1,636,309,0,0
-581,715,0,0,0,0,0,0,0,0,0,-1,643,309,0,0
-574,715,0,0,0,0,0,0,0,0,0,-1,650,309,0,0
-567,715,0,0,0,0,0,0,0,0,0,-1,657,309,0,0
-560,715,0,0,0,0,0,0,0,0,0,-1,664,309,0,0
-553,715,0,0,0,0,0,0,0,0,0,-1,671,309,0,0
-546,715,0,0,0,0,0,0,0,0,0,-1,678,309,0,0
-539,715,0,0,0,0,0,0,0,0,0,-1,685,309,0,0
-532,715,0,0,0,0,0,0,0,0,0,-1,692,309,0,0
-525,715,0,0,0,0,0,0,0,0,0,-1,699,309,0,0
-518,715,0,0,0,0,0,0,0,0,0,-1,706,309,0,0
-511,715,0,0,0,0,0,0,0,0,0,-1,713,309,0,0
-504,715,0,0,0,0,0,0,0,0,0,-1,720,309,0,0
-497,715,0,0,0,0,0,0,0,0,0,-1,727,309,0,0
-490,715,0,0,0,0,0,0,0,0,0,-1,734,309,0,0
-483,715,0,0,0,0,0,0,0,0,0,-1,741,309,0,0
-476,715,0,0,0,0,0,0,0,0,0,-1,748,309,0,0
-469,715,0,0,0,0,0,0,0,0,0,-1,755,309,0,0
-462,715,0,0,0,0,0,0,0,0,0,-1,762,309,0,0
-455,715,0,0,0,0,0,0,0,0,0,-1,769,309,0,0
-448,715,0,0,0,0,0,0,0,0,0,-1,776,309,0,0
-441,715,0,0,0,0,0,0,0,0,0,-1,783,309,0,0
-434,715,0,0,0,0,0,0,0,0,0,-1,790,309,0,0
-427,715,0,0,0,0,0,0,0,0,0,-1,797,309,0,0
-420,715,0,0,0,0,0,0,0,0,0,-1,804,309,0,0
-413,715,0,0,0,0,0,0,0,0,0,-1,811,309,0,0
-406,715,0,0,0,0,0,0,0,0,0,-1,818,309,0,0
-399,715,0,0,0,0,0,0,0,0,0,-1,825,309,0,0
-392,715,0,0,0,0,0,0,0,0,0,-1,832,309,0,0
-385,715,0,0,0,0,0,0,0,0,0,-1,839,309,0,0
-378,715,0,0,0,0,0,0,0,0,0,-1,846,309,0,0
-371,715,0,0,0,0,0,0,0,0,0,-1,853,309,0,0
-364,715,0,0,0,0,0,0,0,0,0,-1,860,309,0,0
-357,715,0,0,0,0,0,0,0,0,0,-1,867,309,0,0
-350,715,0,0,0,0,0,0,0,0,0,-1,874,309,0,0
-343,715,0,0,0,0,0,0,0,0,0,-1,881,309,0,0
-336,715,0,0,0,0,0,0,0,0,0,-1,888,309,0,0
-329,715,0,0,0,0,0,0,0,0,0,-1,895,309,0,0
-322,715,0,0,0,0,0,0,0,0,0,-1,902,309,0,0
-315,715,0,0,0,0,0,0,0,0,0,-1,909,309,0,0
-308,715,0,0,0,0,0,0,0,0,0,-1,916,309,0,0
-301,715,0,0,0,0,0,0,0,0,0,-1,923,309,0,0
-294,715,0,0,0,0,0,0,0,0,0,-1,930,309,0,0
-287,715,0,0,0,0,0,0,0,0,0,-1,937,309,0,0
-280,715,0,0,0,0,0,0,0,0,0,-1,944,309,0,0
-273,715,0,0,0,0,0,0,0,0,0,-1,951,309,0,0
-266,715,0,0,0,0,0,0,0,0,0,-1,958,309,0,0
-259,715,0,0,0,0,0,0,0,0,0,-1,965,309,0,0
-252,715,0,0,0,0,0,0,0,0,0,-1,972,309,0,0
-245,715,0,0,0,0,0,0,0,0,0,-1,979,309,0,0
-238,715,0,0,0,0,0,0,0,0,0,-1,986,309,0,0
-231,715,0,0,0,0,0,0,0,0,0,-1,993,309,0,0
-224,715,0,0,0,0,0,0,0,0,0,-1,1000,309,0,0
-217,715,0,0,0,0,0,0,0,0,0,-1,1007,309,0,0
-210,715,0,0,0,0,0,0,0,0,0,-1,1014,309,0,0
-203,715,0,0,0,0,0,0,0,0,0,-1,1021,309,0,0
-196,715,0,0,0,0,0,0,0,0,0,-1,1028,309,0,0
-189,715,0,0,0,0,0,0,0,0,0,-1,1035,309,0,0
-182,715,0,0,0,0,0,0,0,0,0,-1,1042,309,0,0
-175,715,0,0,0,0,0,0,0,0,0,-1,1049,309,0,0
-168,715,0,0,0,0,0,0,0,0,0,-1,1056,309,0,0
-161,715,0,0,0,0,0,0,0,0,0,-1,1063,309,0,0
-154,715,0,0,0,0,0,0,0,0,0,-1,1070,309,0,0
-147,715,0,0,0,0,0,0,0,0,0,-1,1077,309,0,0
-140,715,0,0,0,0,0,0,0,0,0,-1,1084,309,0,0
-133,715,0,0,0,0,0,0,0,0,0,-1,1091,309,0,0
-126,715,0,0,0,0,0,0,0,0,0,-1,1098,309,0,0
-119,715,0,0,0,0,0,0,0,0,0,-1,1105,309,0,0
-112,715,0,0,0,0,0,0,0,0,0,-1,1112,309,0,0
-105,715,0,0,0,0,0,0,0,0,0,-1,1119,309,0,0
-98,715,0,0,0,0,0,0,0,0,0,-1,1126,309,0,0
-91,715,0,0,0,0,0,0,0,0,0,-1,1133,309,0,0
-84,715,0,0,0,0,0,0,0,0,0,-1,1140,309,0,0
-77,715,0,0,0,0,0,0,0,0,0,-1,1147,309,0,0
-70,715,0,0,0,0,0,0,0,0,0,-1,1154,309,0,0
-63,715,0,0,0,0,0,0,0,0,0,-1,1161,309,0,0
-56,715,0,0,0,0,0,0,0,0,0,-1,1168,309,0,0
-49,715,0,0,0,0,0,0,0,0,0,-1,1175,309,0,0
-42,715,0,0,0,0,0,0,0,0,0,-1,1182,309,0,0
-35,715,0,0,0,0,0,0,0,0,0,-1,1189,309,0,0
-28,715,0,0,0,0,0,0,0,0,0,-1,1196,309,0,0
-21,715,0,0,0,0,0,0,0,0,0,-1,1203,309,0,0
-14,715,0,0,0,0,0,0,0,0,0,-1,1210,309,0,0
-7,715,0,0,0,0,0,0,0,0,0,-1,1217,309,0,0
0,715,0,0,0,0,0,0,0,0,0,-1,1224,309,0,0
7,715,0,0,0,0,0,0,0,0,0,-1,1231,309,0,0
14,715,0,0,0,0,0,0,0,0,0,-1,1238,309,0,0
21,715,0,0,0,0,0,0,0,0,0,-1,1245,309,0,0
28,715,0,0,0,0,0,0,0,0,0,-1,1252,309,0,0
35,715,0,0,0,0,0,0,0,0,0,-1,1259,309,0,0
42,715,0,0,0,0,0,0,0,0,0,-1,1266,309,0,0
49,715,0,0,0,0,0,0,0,0,0,-1,1273,309,0,0
56,715,0,0,0,0,0,0,0,0,0,-1,1280,309,0,0
63,715,3.47461,-38.6854,0,0,0,0,0,0,0,-1,1287,309,3.47466,38.6854
70,715,3.77258,-39.4853,0,0,0,0,0,0,0,-1,1294,309,3.77254,39.4853
77,715,0,0,0,0,0,0,0,0,0,-1,1301,309,0,0
84,715,0,0,0,0,0,0,0,0,0,-1,1308,309,0,0
91,715,0,0,0,0,0,0,0,0,0,-1,1315,309,0,0
98,715,0,0,0,0,0,0,0,0,0,-1,1322,309,0,0
105,715,0,0,0,0,0,0,0,0,0,-1,1329,309,0,0
112,715,0,0,0,0,0,0,0,0,0,-1,1336,309,0,0
119,715,0,0,0,0,0,0,0,0,0,-1,1343,309,0,0
126,715,0,0,0,0,0,0,0,0,0,-1,1350,309,0,0
133,715,0,0,0,0,0,0,0,0,0,-1,1357,309,0,0
140,715,0,0,0,0,0,0,0,0,0,-1,1364,309,0,0
147,715,0,0,0,0,0,0,0,0,0,-1,1371,309,0,0
154,715,0,0,0,0,0,0,0,0,0,-1,1378,309,0,0
161,715,0,0,0,0,0,0,0,0,0,-1,1385,309,0,0
168,715,0,0,0,0,0,0,0,0,0,-1,1392,309,0,0
175,715,0,0,0,0,0,0,0,0,0,-1,1399,309,0,0
182,715,0,0,0,0,0,0,0,0,0,-1,1406,309,0,0
189,715,0,0,0,0,0,0,0,0,0,-1,1413,309,0,0
196,715,0,0,0,0,0,0,0,0,0,-1,1420,309,0,0
203,715,0,0,0,0,0,0,0,0,0,-1,1427,309,0,0
210,715,0,0,0,0,0,0,0,0,0,-1,1434,309,0,0
217,715,0,0,0,0,0,0,0,0,0,-1,1441,309,0,0
224,715,0,0,0,0,0,0,0,0,0,-1,1448,309,0,0
231,715,0,0,0,0,0,0,0,0,0,-1,1455,309,0,0
238,715,0,0,0,0,0,0,0,0,0,-1,1462,309,0,0
245,715,0,0,0,0,0,0,0,0,0,-1,1469,309,0,0
252,715,0,0,0,0,0,0,0,0,0,-1,1476,309,0,0
259,715,0,0,0,0,0,0,0,0,0,-1,1483,309,0,0
266,715,0,0,0,0,0,0,0,0,0,-1,1490,309,0,0
273,715,0,0,0,0,0,0,0,0,0,-1,1497,309,0,0
280,715,0,0,0,0,0,0,0,0,0,-1,1504,309,0,0
287,715,0,0,0,0,0,0,0,0,0,-1,1511,309,0,0
294,715,0,0,0,0,0,0,0,0,0,-1,1518,309,0,0
301,715,0,0,0,0,0,0,0,0,0,-1,1525,309,0,0
308,715,0,0,0,0,0,0,0,0,0,-1,1532,309,0,0
315,715,0,0,0,0,0,0,0,0,0,-1,1539,309,0,0
322,715,0,0,0,0,0,0,0,0,0,-1,1546,309,0,0
329,715,0,0,0,0,0,0,0,0,0,-1,1553,309,0,0
336,715,0,0,0,0,0,0,0,0,0,-1,1560,309,0,0
343,715,0,0,0,0,0,0,0,0,0,-1,1567,309,0,0
350,715,0,0,0,0,0,0,0,0,0,-1,1574,309,0,0
357,715,0,0,0,0,0,0,0,0,0,-1,1581,309,0,0
364,715,0,0,0,0,0,0,0,0,0,-1,1588,309,0,0
371,715,0,0,0,0,0,0,0,0,0,-1,1595,309,0,0
378,715,0,0,0,0,0,0,0,0,0,-1,1602,309,0,0
385,715,0,0,0,0,0,0,0,0,0,-1,1609,309,0,0
392,715,0,0,0,0,0,0,0,0,0,-1,1616,309,0,0
399,715,0,0,0,0,0,0,0,0,0,-1,1623,309,0,0
406,715,0,0,0,0,0,0,0,0,0,-1,1630,309,0,0
413,715,0,0,0,0,0,0,0,0,0,-1,1637,309,0,0
420,715,0,0,0,0,0,0,0,0,0,-1,1644,309,0,0
427,715,0,0,0,0,0,0,0,0,0,-1,1651,309,0,0
434,715,0,0,0,0,0,0,0,0,0,-1,1658,309,0,0
441,715,0,0,0,0,0,0,0,0,0,-1,1665,309,0,0
448,715,0,0,0,0,0,0,0,0,0,-1,1672,309,0,0
455,715,0,0,0,0,0,0,0,0,0,-1,1679,309,0,0
462,715,0,0,0,0,0,0,0,0,0,-1,1686,309,0,0
469,715,0,0,0,0,0,0,0,0,0,-1,1693,309,0,0
476,715,0,0,0,0,0,0,0,0,0,-1,1700,309,0,0
483,715,0,0,0,0,0,0,0,0,0,-1,1707,309,0,0
490,715,0,0,0,0,0,0,0,0,0,-1,1714,309,0,0
497,715,0,0,0,0,0,0,0,0,0,-1,1721,309,0,0
504,715,0,0,0,0,0,0,0,0,0,-1,1728,309,0,0
511,715,0,0,0,0,0,0,0,0,0,-1,1735,309,0,0
518,715,0,0,0,0,0,0,0,0,0,-1,1742,309,0,0
525,715,0,0,0,0,0,0,0,0,0,-1,1749,309,0,0
532,715,0,0,0,0,0,0,0,0,0,-1,1756,309,0,0
539,715,0,0,0,0,0,0,0,0,0,-1,1763,309,0,0
546,715,0,0,0,0,0,0,0,0,0,-1,1770,309,0,0
553,715,0,0,0,0,0,0,0,0,0,-1,1777,309,0,0
560,715,0,0,0,0,0,0,0,0,0,-1,1784,309,0,0
567,715,0,0,0,0,0,0,0,0,0,-1,1791,309,0,0
574,715,0,0,0,0,0,0,0,0,0,-1,1798,309,0,0
581,715,0,0,0,0,0,0,0,0,0,-1,1805,309,0,0
588,715,0,0,0,0,0,0,0,0,0,-1,1812,309,0,0
595,715,0,0,0,0,0,0,0,0,0,-1,1819,309,0,0
602,715,0,0,0,0,0,0,0,0,0,-1,1826,309,0,0
609,715,0,0,0,0,0,0,0,0,0,-1,1833,309,0,0
616,715,0,0,0,0,0,0,0,0,0,-1,1840,309,0,0
623,715,0,0,0,0,0,0,0,0,0,-1,1847,309,0,0
630,715,0,0,0,0,0,0,0,0,0,-1,1854,309,0,0
637,715,0,0,0,0,0,0,0,0,0,-1,1861,309,0,0
644,715,0,0,0,0,0,0,0,0,0,-1,1868,309,0,0
651,715,0,0,0,0,0,0,0,0,0,-1,1875,309,0,0
658,715,0,0,0,0,0,0,0,0,0,-1,1882,309,0,0
665,715,0,0,0,0,0,0,0,0,0,-1,1889,309,0,0
672,715,0,0,0,0,0,0,0,0,0,-1,1896,309,0,0
679,715,0,0,0,0,0,0,0,0,0,-1,1903,309,0,0
686,715,0,0,0,0,0,0,0,0,0,-1,1910,309,0,0
693,715,0,0,0,0,0,0,0,0,0,-1,1917,309,0,0
700,715,0,0,0,0,0,0,0,0,0,-1,1924,309,0,0
707,715,0,0,0,0,0,0,0,0,0,-1,1931,309,0,0
714,715,0,0,0,0,0,0,0,0,0,-1,1938,309,0,0
721,715,0,0,0,0,0,0,0,0,0,-1,1945,309,0,0
728,715,0,0,0,0,0,0,0,0,0,-1,1952,309,0,0
735,715,0,0,0,0,0,0,0,0,0,-1,1959,309,0,0
742,715,0,0,0,0,0,0,0,0,0,-1,1966,309,0,0
749,715,0,0,0,0,0,0,0,0,0,-1,1973,309,0,0
756,715,0,0,0,0,0,0,0,0,0,-1,1980,309,0,0
763,715,0,0,0,0,0,0,0,0,0,-1,1987,309,0,0
770,715,0,0,0,0,0,0,0,0,0,-1,1994,309,0,0
777,715,0,0,0,0,0,0,0,0,0,-1,2001,309,0,0
784,715,0,0,0,0,0,0,0,0,0,-1,2008,309,0,0
791,715,0,0,0,0,0,0,0,0,0,-1,2015,309,0,0
798,715,0,0,0,0,0,0,0,0,0,-1,2022,309,0,0
805,715,0,0,0,0,0,0,0,0,0,-1,2029,309,0,0
812,715,0,0,0,0,0,0,0,0,0,-1,2036,309,0,0
-700,708,0,0,0,0,0,0,0,0,0,-1,524,316,0,0
-693,708,0,0,0,0,0,0,0,0,0,-1,531,316,0,0
-686,708,0,0,0,0,0,0,0,0,0,-1,538,316,0,0
-679,708,0,0,0,0,0,0,0,0,0,-1,545,316,0,0
-672,708,0,0,0,0,0,0,0,0,0,-1,552,316,0,0
-665,708,0,0,0,0,0,0,0,0,0,-1,559,316,0,0
-658,708,0,0,0,0,0,0,0,0,0,-1,566,316,0,0
-651,708,0,0,0,0,0,0,0,0,0,-1,573,316,0,0
-644,708,0,0,0,0,0,0,0,0,0,-1,580,316,0,0
-637,708,0,0,0,0,0,0,0,0,0,-1,587,316,0,0
-630,708,0,0,0,0,0,0,0,0,0,-1,594,316,0,0
-623,708,0,0,0,0,0,0,0,0,0,-1,601,316,0,0
-616,708,0,0,0,0,0,0,0,0,0,-1,608,316,0,0
-609,708,0,0,0,0,0,0,0,0,0,-1,615,316,0,0
-602,708,0,0,0,0,0,0,0,0,0,-1,622,316,0,0
-595,708,0,0,0,0,0,0,0,0,0,-1,629,316,0,0
-588,708,0,0,0,0,0,0,0,0,0,-1,636,316,0,0
-581,708,0,0,0,0,0,0,0,0,0,-1,643,316,0,0
-574,708,0,0,0,0,0,0,0,0,0,-1,650,316,0,0
-567,708,0,0,0,0,0,0,0,0,0,-1,657,316,0,0
-560,708,0,0,0,0,0,0,0,0,0,-1,664,316,0,0
-553,708,0,0,0,0,0,0,0,0,0,-1,671,316,0,0
-546,708,0,0,0,0,0,0,0,0,0,-1,678,316,0,0
-539,708,0,0,0,0,0,0,0,0,0,-1,685,316,0,0
-532,708,0,0,0,0,0,0,0,0,0,-1,692,316,0,0
-525,708,0,0,0,0,0,0,0,0,0,-1,699,316,0,0
-518,708,0,0,0,0,0,0,0,0,0,-1,706,316,0,0
-511,708,0,0,0,0,0,0,0,0,0,-1,713,316,0,0
-504,708,0,0,0,0,0,0,0,0,0,-1,720,316,0,0
-497,708,0,0,0,0,0,0,0,0,0,-1,727,316,0,0
-490,708,0,0,0,0,0,0,0,0,0,-1,734,316,0,0
-483,708,0,0,0,0,0,0,0,0,0,-1,741,316,0,0
-476,708,0,0,0,0,0,0,0,0,0,-1,748,316,0,0
-469,708,0,0,0,0,0,0,0,0,0,-1,755,316,0,0
-462,708,0,0,0,0,0,0,0,0,0,-1,762,316,0,0
-455,708,0,0,0,0,0,0,0,0,0,-1,769,316,0,0
-448,708,0,0,0,0,0,0,0,0,0,-1,776,316,0,0
-441,708,0,0,0,0,0,0,0,0,0,-1,783,316,0,0
-434,708,0,0,0,0,0,0,0,0,0,-1,790,316,0,0
-427,708,0,0,0,0,0,0,0,0,0,-1,797,316,0,0
-420,708,0,0,0,0,0,0,0,0,0,-1,804,316,0,0
-413,708,0,0,0,0,0,0,0,0,0,-1,811,316,0,0
-406,708,0,0,0,0,0,0,0,0,0,-1,818,316,0,0
-399,708,0,0,0,0,0,0,0,0,0,-1,825,316,0,0
-392,708,0,0,0,0,0,0,0,0,0,-1,832,316,0,0
-385,708,0,0,0,0,0,0,0,0,0,-1,839,316,0,0
-378,708,0,0,0,0,0,0,0,0,0,-1,846,316,0,0
-371,708,0,0,0,0,0,0,0,0,0,-1,853,316,0,0
-364,708,0,0,0,0,0,0,0,0,0,-1,860,316,0,0
-357,708,0,0,0,0,0,0,0,0,0,-1,867,316,0,0
-350,708,0,0,0,0,0,0,0,0,0,-1,874,316,0,0
-343,708,0,0,0,0,0,0,0,0,0,-1,881,316,0,0
-336,708,0,0,0,0,0,0,0,0,0,-1,888,316,0,0
-329,708,0,0,0,0,0,0,0,0,0,-1,895,316,0,0
-322,708,0,0,0,0,0,0,0,0,0,-1,902,316,0,0
-315,708,0,0,0,0,0,0,0,0,0,-1,909,316,0,0
-308,708,0,0,0,0,0,0,0,0,0,-1,916,316,0,0
-301,708,0,0,0,0,0,0,0,0,0,-1,923,316,0,0
-294,708,0,0,0,0,0,0,0,0,0,-1,930,316,0,0
-287,708,0,0,0,0,0,0,0,0,0,-1,937,316,0,0
-280,708,0,0,0,0,0,0,0,0,0,-1,944,316,0,0
-273,708,0,0,0,0,0,0,0,0,0,-1,951,316,0,0
-266,708,0,0,0,0,0,0,0,0,0,-1,958,316,0,0
-259,708,0,0,0,0,0,0,0,0,0,-1,965,316,0,0
-252,708,0,0,0,0,0,0,0,0,0,-1,972,316,0,0
-245,708,0,0,0,0,0,0,0,0,0,-1,979,316,0,0
-238,708,0,0,0,0,0,0,0,0,0,-1,986,316,0,0
-231,708,0,0,0,0,0,0,0,0,0,-1,993,316,0,0
-224,708,0,0,0,0,0,0,0,0,0,-1,1000,316,0,0
-217,708,0,0,0,0,0,0,0,0,0,-1,1007,316,0,0
-210,708,0,0,0,0,0,0,0,0,0,-1,1014,316,0,0
-203,708,0,0,0,0,0,0,0,0,0,-1,1021,316,0,0
-196,708,0,0,0,0,0,0,0,0,0,-1,1028,316,0,0
-189,708,0,0,0,0,0,0,0,0,0,-1,1035,316,0,0
-182,708,0,0,0,0,0,0,0,0,0,-1,1042,316,0,0
-175,708,0,0,0,0,0,0,0,0,0,-1,1049,316,0,0
-168,708,0,0,0,0,0,0,0,0,0,-1,1056,316,0,0
-161,708,0,0,0,0,0,0,0,0,0,-1,1063,316,0,0
-154,708,0,0,0,0,0,0,0,0,0,-1,1070,316,0,0
-147,708,0,0,0,0,0,0,0,0,0,-1,1077,316,0,0
-140,708,0,0,0,0,0,0,0,0,0,-1,1084,316,0,0
-133,708,0,0,0,0,0,0,0,0,0,-1,1091,316,0,0
-126,708,0,0,0,0,0,0,0,0,0,-1,1098,316,0,0
-119,708,0,0,0,0,0,0,0,0,0,-1,1105,316,0,0
-112,708,0,0,0,0,0,0,0,0,0,-1,1112,316,0,0
-105,708,0,0,0,0,0,0,0,0,0,-1,1119,316,0,0
-98,708,0,0,0,0,0,0,0,0,0,-1,1126,316,0,0
-91,708,0,0,0,0,0,0,0,0,0,-1,1133,316,0,0
-84,708,0,0,0,0,0,0,0,0,0,-1,1140,316,0,0
-77,708,0,0,0,0,0,0,0,0,0,-1,1147,316,0,0
-70,708,0,0,0,0,0,0,0,0,0,-1,1154,316,0,0
-63,708,0,0,0,0,0,0,0,0,0,-1,1161,316,0,0
-56,708,0,0,0,0,0,0,0,0,0,-1,1168,316,0,0
-49,708,0,0,0,0,0,0,0,0,0,-1,1175,316,0,0
-42,708,0,0,0,0,0,0,0,0,0,-1,1182,316,0,0
-35,708,-2.71204,-6.31558,0,0,0,0,0,0,0,-1,1189,316,-2.712,6.3156
-28,708,-2.92371,-5.53253,0,0,0,0,0,0,0,-1,1196,316,-2.92375,5.53254
-21,708,-0.417969,-24.5911,0,0,0,0,0,0,0,-1,1203,316,-0.418022,24.5911
-14,708,4.25549,-31.4833,0,0,0,0,0,0,0,-1,1210,316,4.25544,31.4833
-7,708,7.18506,-37.5637,0,0,0,0,0,0,0,-1,1217,316,7.18508,37.5637
0,708,11.1522,-34.6584,0,0,0,0,0,0,0,-1,1224,316,11.1522,34.6584
7,708,4.05432,-35.1484,0,0,0,0,0,0,0,-1,1231,316,4.05432,35.1484
14,708,4.09692,-35.6233,-0.0195372,-0.0235515,-0.0348562,0.0133696,-0.0564583,-0.756638,0.0427972,0.0435217,1238,316,4.0969,35.6233
21,708,3.98096,-35.9424,-0.0203281,-0.0311401,-0.0346252,0.00931051,-0.0607788,-0.707959,0.0439526,0.0425595,1245,316,3.9809,35.9424
28,708,3.7334,-36.0913,-0.0209313,-0.0395179,-0.0293341,0.000546454,-0.0609956,-0.631996,0.0408471,0.0451154,1252,316,3.7334,36.0913
35,708,3.52429,-36.3026,0,0,0,0,0,0,0,-1,1259,316,3.52428,36.3025
42,708,3.30518,-36.8961,-0.0199908,-0.0436391,-0.0140685,-0.0134374,-0.0501924,-0.43593,0.0300029,0.0461769,1266,316,3.30516,36.8961
49,708,3.32825,-37.3485,-0.0170953,-0.0439353,-0.00607356,-0.0157849,-0.0452457,-0.212496,0.0265174,0.0453812,1273,316,3.32824,37.3485
56,708,3.43579,-37.6135,-0.0129876,-0.0425378,0.00327736,-0.0126285,-0.0428969,0.109141,0.025455,0.0457011,1280,316,3.43581,37.6135
63,708,3.46814,-37.8333,-0.00988276,-0.0373023,0.00846867,-0.00747806,-0.039707,0.27667,0.0243642,0.0460865,1287,316,3.4681,37.8333
70,708,4.3092,-38.4977,0,0,0,0,0,0,0,-1,1294,316,4.3092,38.4976
77,708,4.9707,-39.238,-0.00351153,-0.0282595,0.0138655,0.00269857,-0.0344696,0.42109,0.02393,0.0430351,1301,316,4.97074,39.238
84,708,1.16431,-33.9317,0.000925306,-0.0206802,0.0135747,0.00747106,-0.027226,0.44931,0.0210869,0.0454347,1308,316,1.16429,33.9317
91,708,2.44031,-34.618,0,0,0,0,0,0,0,-1,1315,316,2.4403,34.618
98,708,2.97998,-35.4932,0,0,0,0,0,0,0,-1,1322,316,2.97999,35.4932
105,708,3.6825,-34.0883,0,0,0,0,0,0,0,-1,1329,316,3.68245,34.0883
112,708,3.64001,-35.3427,0.0134128,-0.00539511,-0.0169581,0.0233998,-0.0153822,-0.532237,0.0225497,0.0445495,1336,316,3.63996,35.3427
119,708,3.46924,-36.3447,0.0132624,-0.00857467,-0.027421,0.0318587,-0.027171,-0.59593,0.0341166,0.0423534,1343,316,3.46928,36.3447
126,708,3.9967,-37.6292,0,0,0,0,0,0,0,-1,1350,316,3.99673,37.6292
133,708,6.54431,-42.3206,0,0,0,0,0,0,0,-1,1357,316,6.54431,42.3206
140,708,3.34326,-29.6664,0,0,0,0,0,0,0,-1,1364,316,3.34327,29.6664
147,708,3.2384,-30.1555,0,0,0,0,0,0,0,-1,1371,316,3.23836,30.1555
154,708,0,0,0,0,0,0,0,0,0,-1,1378,316,0,0
161,708,0,0,0,0,0,0,0,0,0,-1,1385,316,0,0
168,708,0,0,0,0,0,0,0,0,0,-1,1392,316,0,0
175,708,0,0,0,0,0,0,0,0,0,-1,1399,316,0,0
182,708,0,0,0,0,0,0,0,0,0,-1,1406,316,0,0
189,708,0,0,0,0,0,0,0,0,0,-1,1413,316,0,0
196,708,0,0,0,0,0,0,0,0,0,-1,1420,316,0,0
203,708,0,0,0,0,0,0,0,0,0,-1,1427,316,0,0
210,708,0,0,0,0,0,0,0,0,0,-1,1434,316,0,0
217,708,0,0,0,0,0,0,0,0,0,-1,1441,316,0,0
224,708,0,0,0,0,0,0,0,0,0,-1,1448,316,0,0
231,708,0,0,0,0,0,0,0,0,0,-1,1455,316,0,0
238,708,0,0,0,0,0,0,0,0,0,-1,1462,316,0,0
245,708,0,0,0,0,0,0,0,0,0,-1,1469,316,0,0
252,708,0,0,0,0,0,0,0,0,0,-1,1476,316,0,0
259,708,0,0,0,0,0,0,0,0,0,-1,1483,316,0,0
266,708,0,0,0,0,0,0,0,0,0,-1,1490,316,0,0
273,708,0,0,0,0,0,0,0,0,0,-1,1497,316,0,0
280,708,0,0,0,0,0,0,0,0,0,-1,1504,316,0,0
287,708,0,0,0,0,0,0,0,0,0,-1,1511,316,0,0
294,708,0,0,0,0,0,0,0,0,0,-1,1518,316,0,0
301,708,0,0,0,0,0,0,0,0,0,-1,1525,316,0,0
308,708,0,0,0,0,0,0,0,0,0,-1,1532,316,0,0
315,708,0,0,0,0,0,0,0,0,0,-1,1539,316,0,0
322,708,0,0,0,0,0,0,0,0,0,-1,1546,316,0,0
329,708,0,0,0,0,0,0,0,0,0,-1,1553,316,0,0
336,708,0,0,0,0,0,0,0,0,0,-1,1560,316,0,0
343,708,0,0,0,0,0,0,0,0,0,-1,1567,316,0,0
350,708,0,0,0,0,0,0,0,0,0,-1,1574,316,0,0
357,708,0,0,0,0,0,0,0,0,0,-1,1581,316,0,0
364,708,0,0,0,0,0,0,0,0,0,-1,1588,316,0,0
371,708,0,0,0,0,0,0,0,0,0,-1,1595,316,0,0
378,708,0,0,0,0,0,0,0,0,0,-1,1602,316,0,0
385,708,0,0,0,0,0,0,0,0,0,-1,1609,316,0,0
392,708,0,0,0,0,0,0,0,0,0,-1,1616,316,0,0
399,708,0,0,0,0,0,0,0,0,0,-1,1623,316,0,0
406,708,0,0,0,0,0,0,0,0,0,-1,1630,316,0,0
413,708,0,0,0,0,0,0,0,0,0,-1,1637,316,0,0
420,708,0,0,0,0,0,0,0,0,0,-1,1644,316,0,0
427,708,0,0,0,0,0,0,0,0,0,-1,1651,316,0,0
434,708,0,0,0,0,0,0,0,0,0,-1,1658,316,0,0
441,708,0,0,0,0,0,0,0,0,0,-1,1665,316,0,0
448,708,0,0,0,0,0,0,0,0,0,-1,1672,316,0,0
455,708,0,0,0,0,0,0,0,0,0,-1,1679,316,0,0
462,708,0,0,0,0,0,0,0,0,0,-1,1686,316,0,0
469,708,0,0,0,0,0,0,0,0,0,-1,1693,316,0,0
476,708,0,0,0,0,0,0,0,0,0,-1,1700,316,0,0
483,708,0,0,0,0,0,0,0,0,0,-1,1707,316,0,0
490,708,0,0,0,0,0,0,0,0,0,-1,1714,316,0,0
497,708,0,0,0,0,0,0,0,0,0,-1,1721,316,0,0
504,708,0,0,0,0,0,0,0,0,0,-1,1728,316,0,0
511,708,0,0,0,0,0,0,0,0,0,-1,1735,316,0,0
518,708,0,0,0,0,0,0,0,0,0,-1,1742,316,0,0
525,708,0,0,0,0,0,0,0,0,0,-1,1749,316,0,0
532,708,0,0,0,0,0,0,0,0,0,-1,1756,316,0,0
539,708,0,0,0,0,0,0,0,0,0,-1,1763,316,0,0
546,708,0,0,0,0,0,0,0,0,0,-1,1770,316,0,0
553,708,0,0,0,0,0,0,0,0,0,-1,1777,316,0,0
560,708,0,0,0,0,0,0,0,0,0,-1,1784,316,0,0
567,708,0,0,0,0,0,0,0,0,0,-1,1791,316,0,0
574,708,0,0,0,0,0,0,0,0,0,-1,1798,316,0,0
581,708,0,0,0,0,0,0,0,0,0,-1,1805,316,0,0
588,708,0,0,0,0,0,0,0,0,0,-1,1812,316,0,0
595,708,0,0,0,0,0,0,0,0,0,-1,1819,316,0,0
602,708,0,0,0,0,0,0,0,0,0,-1,1826,316,0,0
609,708,0,0,0,0,0,0,0,0,0,-1,1833,316,0,0
616,708,0,0,0,0,0,0,0,0,0,-1,1840,316,0,0
623,708,0,0,0,0,0,0,0,0,0,-1,1847,316,0,0
630,708,0,0,0,0,0,0,0,0,0,-1,1854,316,0,0
637,708,0,0,0,0,0,0,0,0,0,-1,1861,316,0,0
644,708,0,0,0,0,0,0,0,0,0,-1,1868,316,0,0
651,708,0,0,0,0,0,0,0,0,0,-1,1875,316,0,0
658,708,0,0,0,0,0,0,0,0,0,-1,1882,316,0,0
665,708,0,0,0,0,0,0,0,0,0,-1,1889,316,0,0
672,708,0,0,0,0,0,0,0,0,0,-1,1896,316,0,0
679,708,0,0,0,0,0,0,0,0,0,-1,1903,316,0,0
686,708,0,0,0,0,0,0,0,0,0,-1,1910,316,0,0
693,708,0,0,0,0,0,0,0,0,0,-1,1917,316,0,0
700,708,0,0,0,0,0,0,0,0,0,-1,1924,316,0,0
707,708,0,0,0,0,0,0,0,0,0,-1,1931,316,0,0
714,708,0,0,0,0,0,0,0,0,0,-1,1938,316,0,0
721,708,0,0,0,0,0,0,0,0,0,-1,1945,316,0,0
728,708,0,0,0,0,0,0,0,0,0,-1,1952,316,0,0
735,708,0,0,0,0,0,0,0,0,0,-1,1959,316,0,0
742,708,0,0,0,0,0,0,0,0,0,-1,1966,316,0,0
749,708,0,0,0,0,0,0,0,0,0,-1,1973,316,0,0
756,708,0,0,0,0,0,0,0,0,0,-1,1980,316,0,0
763,708,0,0,0,0,0,0,0,0,0,-1,1987,316,0,0
770,708,0,0,0,0,0,0,0,0,0,-1,1994,316,0,0
777,708,0,0,0,0,0,0,0,0,0,-1,2001,316,0,0
784,708,0,0,0,0,0,0,0,0,0,-1,2008,316,0,0
791,708,0,0,0,0,0,0,0,0,0,-1,2015,316,0,0
798,708,0,0,0,0,0,0,0,0,0,-1,2022,316,0,0
805,708,0,0,0,0,0,0,0,0,0,-1,2029,316,0,0
812,708,0,0,0,0,0,0,0,0,0,-1,2036,316,0,0
-700,701,0,0,0,0,0,0,0,0,0,-1,524,323,0,0
-693,701,0,0,0,0,0,0,0,0,0,-1,531,323,0,0
-686,701,0,0,0,0,0,0,0,0,0,-1,538,323,0,0
-679,701,0,0,0,0,0,0,0,0,0,-1,545,323,0,0
-672,701,0,0,0,0,0,0,0,0,0,-1,552,323,0,0
-665,701,0,0,0,0,0,0,0,0,0,-1,559,323,0,0
-658,701,0,0,0,0,0,0,0,0,0,-1,566,323,0,0
-651,701,0,0,0,0,0,0,0,0,0,-1,573,323,0,0
-644,701,0,0,0,0,0,0,0,0,0,-1,580,323,0,0
-637,701,0,0,0,0,0,0,0,0,0,-1,587,323,0,0
-630,701,0,0,0,0,0,0,0,0,0,-1,594,323,0,0
-623,701,0,0,0,0,0,0,0,0,0,-1,601,323,0,0
-616,701,0,0,0,0,0,0,0,0,0,-1,608,323,0,0
-609,701,0,0,0,0,0,0,0,0,0,-1,615,323,0,0
-602,701,0,0,0,0,0,0,0,0,0,-1,622,323,0,0
-595,701,0,0,0,0,0,0,0,0,0,-1,629,323,0,0
-588,701,0,0,0,0,0,0,0,0,0,-1,636,323,0,0
-581,701,0,0,0,0,0,0,0,0,0,-1,643,323,0,0
-574,701,0,0,0,0,0,0,0,0,0,-1,650,323,0,0
-567,701,0,0,0,0,0,0,0,0,0,-1,657,323,0,0
-560,701,0,0,0,0,0,0,0,0,0,-1,664,323,0,0
-553,701,0,0,0,0,0,0,0,0,0,-1,671,323,0,0
-546,701,0,0,0,0,0,0,0,0,0,-1,678,323,0,0
-539,701,0,0,0,0,0,0,0,0,0,-1,685,323,0,0
-532,701,0,0,0,0,0,0,0,0,0,-1,692,323,0,0
-525,701,0,0,0,0,0,0,0,0,0,-1,699,323,0,0
-518,701,0,0,0,0,0,0,0,0,0,-1,706,323,0,0
-511,701,0,0,0,0,0,0,0,0,0,-1,713,323,0,0
-504,701,0,0,0,0,0,0,0,0,0,-1,720,323,0,0
-497,701,0,0,0,0,0,0,0,0,0,-1,727,323,0,0
-490,701,0,0,0,0,0,0,0,0,0,-1,734,323,0,0
-483,701,0,0,0,0,0,0,0,0,0,-1,741,323,0,0
-476,701,0,0,0,0,0,0,0,0,0,-1,748,323,0,0
-469,701,0,0,0,0,0,0,0,0,0,-1,755,323,0,0
-462,701,0,0,0,0,0,0,0,0,0,-1,762,323,0,0
-455,701,0,0,0,0,0,0,0,0,0,-1,769,323,0,0
-448,701,0,0,0,0,0,0,0,0,0,-1,776,323,0,0
-441,701,0,0,0,0,0,0,0,0,0,-1,783,323,0,0
-434,701,0,0,0,0,0,0,0,0,0,-1,790,323,0,0
-427,701,0,0,0,0,0,0,0,0,0,-1,797,323,0,0
-420,701,0,0,0,0,0,0,0,0,0,-1,804,323,0,0
-413,701,0,0,0,0,0,0,0,0,0,-1,811,323,0,0
-406,701,0,0,0,0,0,0,0,0,0,-1,818,323,0,0
-399,701,0,0,0,0,0,0,0,0,0,-1,825,323,0,0
-392,701,0,0,0,0,0,0,0,0,0,-1,832,323,0,0
-385,701,0,0,0,0,0,0,0,0,0,-1,839,323,0,0
-378,701,0,0,0,0,0,0,0,0,0,-1,846,323,0,0
-371,701,0,0,0,0,0,0,0,0,0,-1,853,323,0,0
-364,701,0,0,0,0,0,0,0,0,0,-1,860,323,0,0
-357,701,0,0,0,0,0,0,0,0,0,-1,867,323,0,0
-350,701,0,0,0,0,0,0,0,0,0,-1,874,323,0,0
-343,701,0,0,0,0,0,0,0,0,0,-1,881,323,0,0
-336,701,0,0,0,0,0,0,0,0,0,-1,888,323,0,0
-329,701,0,0,0,0,0,0,0,0,0,-1,895,323,0,0
-322,701,0,0,0,0,0,0,0,0,0,-1,902,323,0,0
-315,701,0,0,0,0,0,0,0,0,0,-1,909,323,0,0
-308,701,0,0,0,0,0,0,0,0,0,-1,916,323,0,0
-301,701,0,0,0,0,0,0,0,0,0,-1,923,323,0,0
-294,701,0,0,0,0,0,0,0,0,0,-1,930,323,0,0
-287,701,0,0,0,0,0,0,0,0,0,-1,937,323,0,0
-280,701,0,0,0,0,0,0,0,0,0,-1,944,323,0,0
-273,701,0,0,0,0,0,0,0,0,0,-1,951,323,0,0
-266,701,0,0,0,0,0,0,0,0,0,-1,958,323,0,0
-259,701,0,0,0,0,0,0,0,0,0,-1,965,323,0,0
-252,701,0,0,0,0,0,0,0,0,0,-1,972,323,0,0
-245,701,0,0,0,0,0,0,0,0,0,-1,979,323,0,0
-238,701,0,0,0,0,0,0,0,0,0,-1,986,323,0,0
-231,701,0,0,0,0,0,0,0,0,0,-1,993,323,0,0
-224,701,0,0,0,0,0,0,0,0,0,-1,1000,323,0,0
-217,701,0,0,0,0,0,0,0,0,0,-1,1007,323,0,0
-210,701,0,0,0,0,0,0,0,0,0,-1,1014,323,0,0
-203,701,0,0,0,0,0,0,0,0,0,-1,1021,323,0,0
-196,701,0,0,0,0,0,0,0,0,0,-1,1028,323,0,0
-189,701,0,0,0,0,0,0,0,0,0,-1,1035,323,0,0
-182,701,0,0,0,0,0,0,0,0,0,-1,1042,323,0,0
-175,701,0,0,0,0,0,0,0,0,0,-1,1049,323,0,0
-168,701,0,0,0,0,0,0,0,0,0,-1,1056,323,0,0
-161,701,0,0,0,0,0,0,0,0,0,-1,1063,323,0,0
-154,701,0,0,0,0,0,0,0,0,0,-1,1070,323,0,0
-147,701,0,0,0,0,0,0,0,0,0,-1,1077,323,0,0
-140,701,0,0,0,0,0,0,0,0,0,-1,1084,323,0,0
-133,701,0,0,0,0,0,0,0,0,0,-1,1091,323,0,0
-126,701,0,0,0,0,0,0,0,0,0,-1,1098,323,0,0
-119,701,0,0,0,0,0,0,0,0,0,-1,1105,323,0,0
-112,701,0,0,0,0,0,0,0,0,0,-1,1112,323,0,0
-105,701,0,0,0,0,0,0,0,0,0,-1,1119,323,0,0
-98,701,0,0,0,0,0,0,0,0,0,-1,1126,323,0,0
-91,701,0,0,0,0,0,0,0,0,0,-1,1133,323,0,0
-84,701,0,0,0,0,0,0,0,0,0,-1,1140,323,0,0
-77,701,0,0,0,0,0,0,0,0,0,-1,1147,323,0,0
-70,701,-12.7566,-30.413,0,0,0,0,0,0,0,-1,1154,323,-12.7566,30.413
-63,701,-18.3169,-21.2322,0,0,0,0,0,0,0,-1,1161,323,-18.3169,21.2322
-56,701,-0.420166,-0.101776,0,0,0,0,0,0,0,-1,1168,323,-0.420119,0.101777
-49,701,-1.09021,-0.155762,0,0,0,0,0,0,0,-1,1175,323,-1.09024,0.155768
-42,701,-0.210327,-0.299133,0,0,0,0,0,0,0,-1,1182,323,-0.210379,0.29914
-35,701,-2.9635,-7.98676,0,0,0,0,0,0,0,-1,1189,323,-2.9635,7.98676
-28,701,-6.64417,-5.4917,0,0,0,0,0,0,0,-1,1196,323,-6.64411,5.4917
-21,701,5.22729,-32.2801,0,0,0,0,0,0,0,-1,1203,323,5.22728,32.2801
-14,701,6.23523,-36.6221,0,0,0,0,0,0,0,-1,1210,323,6.23522,36.6221
-7,701,5.46277,-36.2389,0,0,0,0,0,0,0,-1,1217,323,5.46281,36.2389
0,701,4.55554,-35.3915,0,0,0,0,0,0,0,-1,1224,323,4.55556,35.3915
7,701,4.27722,-35.3584,-0.02096,-0.00310478,-0.0265772,0.0160042,-0.040069,-0.947433,0.0333529,0.0456932,1231,323,4.2772,35.3584
14,701,4.58923,-35.6615,-0.020911,-0.00770632,-0.027067,0.013552,-0.0421693,-0.905025,0.0335552,0.0464687,1238,323,4.58919,35.6615
21,701,4.49194,-35.8828,-0.0220483,-0.0128135,-0.0271505,0.0101095,-0.0449712,-0.869626,0.0338576,0.0477262,1245,323,4.49192,35.8828
28,701,4.37097,-35.7064,-0.022659,-0.0179309,-0.0238622,0.00368414,-0.044274,-0.834773,0.0308175,0.0462601,1252,323,4.37092,35.7064
35,701,4.19446,-35.9464,0,0,0,0,0,0,0,-1,1259,323,4.19443,35.9464
42,701,3.32983,-35.9965,-0.021474,-0.0194033,-0.013968,-0.00643232,-0.034445,-0.822392,0.0211479,0.0452588,1266,323,3.32985,35.9965
49,701,3.3324,-36.4807,-0.0186768,-0.0188159,-0.00887926,-0.00986683,-0.0276259,-0.781484,0.0161653,0.0445123,1273,323,3.33238,36.4807
56,701,3.43018,-36.7888,-0.0146994,-0.0165688,-0.00286361,-0.0126218,-0.0186464,-0.627645,0.0109878,0.0448952,1280,323,3.43019,36.7888
63,701,3.46082,-37.0547,-0.0111633,-0.0118617,0.00056972,-0.0108443,-0.0121807,0.510462,0.00771371,0.0455266,1287,323,3.46084,37.0547
70,701,3.51855,-37.3722,0,0,0,0,0,0,0,-1,1294,323,3.51854,37.3722
77,701,0.789917,-33.9767,-0.00378726,-0.00462019,0.00380181,-0.000379175,-0.00802828,0.730843,0.00523038,0.0448606,1301,323,0.789886,33.9767
84,701,1.78711,-34.776,0.00103066,0.00108318,0.00322598,0.00428301,-0.00216917,0.789468,0.00379122,0.0430499,1308,323,1.78717,34.776
91,701,2.57947,-35.3137,0,0,0,0,0,0,0,-1,1315,323,2.57944,35.3137
98,701,3.15027,-35.8596,0,0,0,0,0,0,0,-1,1322,323,3.15026,35.8596
105,701,4.552,-34.741,0,0,0,0,0,0,0,-1,1329,323,4.55205,34.741
112,701,4.44873,-35.6833,0.0144994,0.00862733,-0.0145595,0.026416,-0.00328918,-0.685903,0.0188032,0.0427122,1336,323,4.44873,35.6834
119,701,4.203,-36.5329,0.0146735,0.0059456,-0.020246,0.0310206,-0.0104015,-0.67925,0.0248831,0.0432412,1343,323,4.20302,36.5329
126,701,4.25024,-36.7913,0.0144371,-0.00123409,-0.0249819,0.0327834,-0.0195804,-0.633432,0.0305509,0.0460862,1350,323,4.2502,36.7913
133,701,4.33032,-36.3385,0,0,0,0,0,0,0,-1,1357,323,4.33032,36.3385
140,701,7.1908,-45.2809,0,0,0,0,0,0,0,-1,1364,323,7.19076,45.2809
147,701,3.36877,-31.2296,0,0,0,0,0,0,0,-1,1371,323,3.36877,31.2296
154,701,3.06628,-31.4759,0,0,0,0,0,0,0,-1,1378,323,3.06631,31.4759
161,701,2.62903,-31.4281,0,0,0,0,0,0,0,-1,1385,323,2.62906,31.4281
168,701,30.7272,1.76184,0,0,0,0,0,0,0,-1,1392,323,30.7272,-1.76184
175,701,31.5035,2.25711,0,0,0,0,0,0,0,-1,1399,323,31.5036,-2.25712
182,701,8.80652,5.42807,0,0,0,0,0,0,0,-1,1406,323,8.8065,-5.42808
189,701,8.58081,4.24493,0,0,0,0,0,0,0,-1,1413,323,8.58082,-4.24494
196,701,0,0,0,0,0,0,0,0,0,-1,1420,323,0,0
203,701,0,0,0,0,0,0,0,0,0,-1,1427,323,0,0
210,701,0,0,0,0,0,0,0,0,0,-1,1434,323,0,0
217,701,0,0,0,0,0,0,0,0,0,-1,1441,323,0,0
224,701,0,0,0,0,0,0,0,0,0,-1,1448,323,0,0
231,701,0,0,0,0,0,0,0,0,0,-1,1455,323,0,0
238,701,0,0,0,0,0,0,0,0,0,-1,1462,323,0,0
245,701,0,0,0,0,0,0,0,0,0,-1,1469,323,0,0
252,701,0,0,0,0,0,0,0,0,0,-1,1476,323,0,0
259,701,0,0,0,0,0,0,0,0,0,-1,1483,323,0,0
266,701,0,0,0,0,0,0,0,0,0,-1,1490,323,0,0
273,701,0,0,0,0,0,0,0,0,0,-1,1497,323,0,0
280,701,0,0,0,0,0,0,0,0,0,-1,1504,323,0,0
287,701,0,0,0,0,0,0,0,0,0,-1,1511,323,0,0
294,701,0,0,0,0,0,0,0,0,0,-1,1518,323,0,0
301,701,0,0,0,0,0,0,0,0,0,-1,1525,323,0,0
308,701,0,0,0,0,0,0,0,0,0,-1,1532,323,0,0
315,701,0,0,0,0,0,0,0,0,0,-1,1539,323,0,0
322,701,0,0,0,0,0,0,0,0,0,-1,1546,323,0,0
329,701,0,0,0,0,0,0,0,0,0,-1,1553,323,0,0
336,701,0,0,0,0,0,0,0,0,0,-1,1560,323,0,0
343,701,0,0,0,0,0,0,0,0,0,-1,1567,323,0,0
350,701,0,0,0,0,0,0,0,0,0,-1,1574,323,0,0
357,701,0,0,0,0,0,0,0,0,0,-1,1581,323,0,0
364,701,0,0,0,0,0,0,0,0,0,-1,1588,323,0,0
371,701,0,0,0,0,0,0,0,0,0,-1,1595,323,0,0
378,701,0,0,0,0,0,0,0,0,0,-1,1602,323,0,0
385,701,0,0,0,0,0,0,0,0,0,-1,1609,323,0,0
392,701,0,0,0,0,0,0,0,0,0,-1,1616,323,0,0
399,701,0,0,0,0,0,0,0,0,0,-1,1623,323,0,0
406,701,0,0,0,0,0,0,0,0,0,-1,1630,323,0,0
413,701,0,0,0,0,0,0,0,0,0,-1,1637,323,0,0
420,701,0,0,0,0,0,0,0,0,0,-1,1644,323,0,0
427,701,0,0,0,0,0,0,0,0,0,-1,1651,323,0,0
434,701,0,0,0,0,0,0,0,0,0,-1,1658,323,0,0
441,701,0,0,0,0,0,0,0,0,0,-1,1665,323,0,0
448,701,0,0,0,0,0,0,0,0,0,-1,1672,323,0,0
455,701,0,0,0,0,0,0,0,0,0,-1,1679,323,0,0
462,701,0,0,0,0,0,0,0,0,0,-1,1686,323,0,0
469,701,0,0,0,0,0,0,0,0,0,-1,1693,323,0,0
476,701,0,0,0,0,0,0,0,0,0,-1,1700,323,0,0
483,701,0,0,0,0,0,0,0,0,0,-1,1707,323,0,0
490,701,0,0,0,0,0,0,0,0,0,-1,1714,323,0,0
497,701,0,0,0,0,0,0,0,0,0,-1,1721,323,0,0
504,701,0,0,0,0,0,0,0,0,0,-1,1728,323,0,0
511,701,0,0,0,0,0,0,0,0,0,-1,1735,323,0,0
518,701,0,0,0,0,0,0,0,0,0,-1,1742,323,0,0
525,701,0,0,0,0,0,0,0,0,0,-1,1749,323,0,0
532,701,0,0,0,0,0,0,0,0,0,-1,1756,323,0,0
539,701,0,0,0,0,0,0,0,0,0,-1,1763,323,0,0
546,701,0,0,0,0,0,0,0,0,0,-1,1770,323,0,0
553,701,0,0,0,0,0,0,0,0,0,-1,1777,323,0,0
560,701,0,0,0,0,0,0,0,0,0,-1,1784,323,0,0
567,701,0,0,0,0,0,0,0,0,0,-1,1791,323,0,0
574,701,0,0,0,0,0,0,0,0,0,-1,1798,323,0,0
581,701,0,0,0,0,0,0,0,0,0,-1,1805,323,0,0
588,701,0,0,0,0,0,0,0,0,0,-1,1812,323,0,0
595,701,0,0,0,0,0,0,0,0,0,-1,1819,323,0,0
602,701,0,0,0,0,0,0,0,0,0,-1,1826,323,0,0
609,701,0,0,0,0,0,0,0,0,0,-1,1833,323,0,0
616,701,0,0,0,0,0,0,0,0,0,-1,1840,323,0,0
623,701,0,0,0,0,0,0,0,0,0,-1,1847,323,0,0
630,701,0,0,0,0,0,0,0,0,0,-1,1854,323,0,0
637,701,0,0,0,0,0,0,0,0,0,-1,1861,323,0,0
644,701,0,0,0,0,0,0,0,0,0,-1,1868,323,0,0
651,701,0,0,0,0,0,0,0,0,0,-1,1875,323,0,0
658,701,0,0,0,0,0,0,0,0,0,-1,1882,323,0,0
665,701,0,0,0,0,0,0,0,0,0,-1,1889,323,0,0
672,701,0,0,0,0,0,0,0,0,0,-1,1896,323,0,0
679,701,0,0,0,0,0,0,0,0,0,-1,1903,323,0,0
686,701,0,0,0,0,0,0,0,0,0,-1,1910,323,0,0
693,701,0,0,0,0,0,0,0,0,0,-1,1917,323,0,0
700,701,0,0,0,0,0,0,0,0,0,-1,1924,323,0,0
707,701,0,0,0,0,0,0,0,0,0,-1,1931,323,0,0
714,701,0,0,0,0,0,0,0,0,0,-1,1938,323,0,0
721,701,0,0,0,0,0,0,0,0,0,-1,1945,323,0,0
728,701,0,0,0,0,0,0,0,0,0,-1,1952,323,0,0
735,701,0,0,0,0,0,0,0,0,0,-1,1959,323,0,0
742,701,0,0,0,0,0,0,0,0,0,-1,1966,323,0,0
749,701,0,0,0,0,0,0,0,0,0,-1,1973,323,0,0
756,701,0,0,0,0,0,0,0,0,0,-1,1980,323,0,0
763,701,0,0,0,0,0,0,0,0,0,-1,1987,323,0,0
770,701,0,0,0,0,0,0,0,0,0,-1,1994,323,0,0
777,701,0,0,0,0,0,0,0,0,0,-1,2001,323,0,0
784,701,0,0,0,0,0,0,0,0,0,-1,2008,323,0,0
791,701,0,0,0,0,0,0,0,0,0,-1,2015,323,0,0
798,701,0,0,0,0,0,0,0,0,0,-1,2022,323,0,0
805,701,0,0,0,0,0,0,0,0,0,-1,2029,323,0,0
812,701,0,0,0,0,0,0,0,0,0,-1,2036,323,0,0
-700,694,0,0,0,0,0,0,0,0,0,-1,524,330,0,0
-693,694,0,0,0,0,0,0,0,0,0,-1,531,330,0,0
-686,694,0,0,0,0,0,0,0,0,0,-1,538,330,0,0
-679,694,0,0,0,0,0,0,0,0,0,-1,545,330,0,0
-672,694,0,0,0,0,0,0,0,0,0,-1,552,330,0,0
-665,694,0,0,0,0,0,0,0,0,0,-1,559,330,0,0
-658,694,0,0,0,0,0,0,0,0,0,-1,566,330,0,0
-651,694,0,0,0,0,0,0,0,0,0,-1,573,330,0,0
-644,694,0,0,0,0,0,0,0,0,0,-1,580,330,0,0
-637,694,0,0,0,0,0,0,0,0,0,-1,587,330,0,0
-630,694,0,0,0,0,0,0,0,0,0,-1,594,330,0,0
-623,694,0,0,0,0,0,0,0,0,0,-1,601,330,0,0
-616,694,0,0,0,0,0,0,0,0,0,-1,608,330,0,0
-609,694,0,0,0,0,0,0,0,0,0,-1,615,330,0,0
-602,694,0,0,0,0,0,0,0,0,0,-1,622,330,0,0
-595,694,0,0,0,0,0,0,0,0,0,-1,629,330,0,0
-588,694,0,0,0,0,0,0,0,0,0,-1,636,330,0,0
-581,694,0,0,0,0,0,0,0,0,0,-1,643,330,0,0
-574,694,0,0,0,0,0,0,0,0,0,-1,650,330,0,0
-567,694,0,0,0,0,0,0,0,0,0,-1,657,330,0,0
-560,694,0,0,0,0,0,0,0,0,0,-1,664,330,0,0
-553,694,0,0,0,0,0,0,0,0,0,-1,671,330,0,0
-546,694,0,0,0,0,0,0,0,0,0,-1,678,330,0,0
-539,694,0,0,0,0,0,0,0,0,0,-1,685,330,0,0
-532,694,0,0,0,0,0,0,0,0,0,-1,692,330,0,0
-525,694,0,0,0,0,0,0,0,0,0,-1,699,330,0,0
-518,694,0,0,0,0,0,0,0,0,0,-1,706,330,0,0
-511,694,0,0,0,0,0,0,0,0,0,-1,713,330,0,0
-504,694,0,0,0,0,0,0,0,0,0,-1,720,330,0,0
-497,694,0,0,0,0,0,0,0,0,0,-1,727,330,0,0
-490,694,0,0,0,0,0,0,0,0,0,-1,734,330,0,0
-483,694,0,0,0,0,0,0,0,0,0,-1,741,330,0,0
-476,694,0,0,0,0,0,0,0,0,0,-1,748,330,0,0
-469,694,0,0,0,0,0,0,0,0,0,-1,755,330,0,0
-462,694,0,0,0,0,0,0,0,0,0,-1,762,330,0,0
-455,694,0,0,0,0,0,0,0,0,0,-1,769,330,0,0
-448,694,0,0,0,0,0,0,0,0,0,-1,776,330,0,0
-441,694,0,0,0,0,0,0,0,0,0,-1,783,330,0,0
-434,694,0,0,0,0,0,0,0,0,0,-1,790,330,0,0
-427,694,0,0,0,0,0,0,0,0,0,-1,797,330,0,0
-420,694,0,0,0,0,0,0,0,0,0,-1,804,330,0,0
-413,694,0,0,0,0,0,0,0,0,0,-1,811,330,0,0
-406,694,0,0,0,0,0,0,0,0,0,-1,818,330,0,0
-399,694,0,0,0,0,0,0,0,0,0,-1,825,330,0,0
-392,694,0,0,0,0,0,0,0,0,0,-1,832,330,0,0
-385,694,0,0,0,0,0,0,0,0,0,-1,839,330,0,0
-378,694,0,0,0,0,0,0,0,0,0,-1,846,330,0,0
-371,694,0,0,0,0,0,0,0,0,0,-1,853,330,0,0
-364,694,0,0,0,0,0,0,0,0,0,-1,860,330,0,0
-357,694,0,0,0,0,0,0,0,0,0,-1,867,330,0,0
-350,694,0,0,0,0,0,0,0,0,0,-1,874,330,0,0
-343,694,0,0,0,0,0,0,0,0,0,-1,881,330,0,0
-336,694,0,0,0,0,0,0,0,0,0,-1,888,330,0,0
-329,694,0,0,0,0,0,0,0,0,0,-1,895,330,0,0
-322,694,0,0,0,0,0,0,0,0,0,-1,902,330,0,0
-315,694,0,0,0,0,0,0,0,0,0,-1,909,330,0,0
-308,694,0,0,0,0,0,0,0,0,0,-1,916,330,0,0
-301,694,0,0,0,0,0,0,0,0,0,-1,923,330,0,0
-294,694,0,0,0,0,0,0,0,0,0,-1,930,330,0,0
-287,694,0,0,0,0,0,0,0,0,0,-1,937,330,0,0
-280,694,0,0,0,0,0,0,0,0,0,-1,944,330,0,0
-273,694,0,0,0,0,0,0,0,0,0,-1,951,330,0,0
-266,694,0,0,0,0,0,0,0,0,0,-1,958,330,0,0
-259,694,0,0,0,0,0,0,0,0,0,-1,965,330,0,0
-252,694,0,0,0,0,0,0,0,0,0,-1,972,330,0,0
-245,694,0,0,0,0,0,0,0,0,0,-1,979,330,0,0
-238,694,0,0,0,0,0,0,0,0,0,-1,986,330,0,0
-231,694,0,0,0,0,0,0,0,0,0,-1,993,330,0,0
-224,694,0,0,0,0,0,0,0,0,0,-1,1000,330,0,0
-217,694,0,0,0,0,0,0,0,0,0,-1,1007,330,0,0
-210,694,0,0,0,0,0,0,0,0,0,-1,1014,330,0,0
-203,694,0,0,0,0,0,0,0,0,0,-1,1021,330,0,0
-196,694,0,0,0,0,0,0,0,0,0,-1,1028,330,0,0
-189,694,0,0,0,0,0,0,0,0,0,-1,1035,330,0,0
-182,694,0,0,0,0,0,0,0,0,0,-1,1042,330,0,0
-175,694,0,0,0,0,0,0,0,0,0,-1,1049,330,0,0
-168,694,0,0,0,0,0,0,0,0,0,-1,1056,330,0,0
-161,694,0,0,0,0,0,0,0,0,0,-1,1063,330,0,0
-154,694,0,0,0,0,0,0,0,0,0,-1,1070,330,0,0
-147,694,0,0,0,0,0,0,0,0,0,-1,1077,330,0,0
-140,694,0,0,0,0,0,0,0,0,0,-1,1084,330,0,0
-133,694,0,0,0,0,0,0,0,0,0,-1,1091,330,0,0
-126,694,0,0,0,0,0,0,0,0,0,-1,1098,330,0,0
-119,694,0,0,0,0,0,0,0,0,0,-1,1105,330,0,0
-112,694,0,0,0,0,0,0,0,0,0,-1,1112,330,0,0
-105,694,2.5188,-19.3963,0,0,0,0,0,0,0,-1,1119,330,2.51882,19.3963
-98,694,1.34875,-10.1051,0,0,0,0,0,0,0,-1,1126,330,1.34874,10.1051
-91,694,7.12927,-43.3935,0,0,0,0,0,0,0,-1,1133,330,7.12929,43.3935
-84,694,0.937744,-38.53,0,0,0,0,0,0,0,-1,1140,330,0.937727,38.53
-77,694,-5.51379,-31.2714,0,0,0,0,0,0,0,-1,1147,330,-5.51383,31.2714
-70,694,-11.9945,-25.5143,0,0,0,0,0,0,0,-1,1154,330,-11.9945,25.5143
-63,694,-18.4752,-19.7572,0,0,0,0,0,0,0,-1,1161,330,-18.4752,19.7572
-56,694,-6.50623,-0.649139,0,0,0,0,0,0,0,-1,1168,330,-6.5062,0.649126
-49,694,-1.11426,0.0341797,0,0,0,0,0,0,0,-1,1175,330,-1.11424,-0.0341846
-42,694,-0.346313,-0.709595,0,0,0,0,0,0,0,-1,1182,330,-0.346298,0.709581
-35,694,-0.459106,-1.24713,0,0,0,0,0,0,0,-1,1189,330,-0.459142,1.24714
-28,694,-6.48413,-3.95972,0,0,0,0,0,0,0,-1,1196,330,-6.48414,3.9597
-21,694,5.24939,-32.4167,0,0,0,0,0,0,0,-1,1203,330,5.24945,32.4167
-14,694,5.74548,-36.2938,0,0,0,0,0,0,0,-1,1210,330,5.74548,36.2938
-7,694,5.39392,-36.3945,-0.0201316,0.00768212,-0.0180997,0.0166007,-0.0290502,-1.11297,0.0266812,0.0463633,1217,330,5.39397,36.3945
0,694,5.03027,-36.5158,-0.0200899,0.0073884,-0.0195709,0.0175613,-0.0302628,-1.09144,0.027934,0.0471158,1224,330,5.03032,36.5158
7,694,4.79065,-35.383,-0.0205191,0.00601144,-0.0205548,0.0172097,-0.0317174,-1.07195,0.0286591,0.0449341,1231,330,4.79068,35.383
14,694,4.61401,-35.5888,-0.0204023,0.00269557,-0.0208894,0.015016,-0.0327227,-1.03792,0.0281868,0.0444504,1238,330,4.61402,35.5888
21,694,4.65125,-35.8593,-0.0216358,-0.000539429,-0.0211044,0.0125061,-0.0346813,-1.01715,0.0282286,0.0454304,1245,330,4.65128,35.8593
28,694,4.73706,-36.1698,0,0,0,0,0,0,0,-1,1252,330,4.73708,36.1698
35,694,6.276,-36.9897,-0.021749,-0.0028562,-0.0153967,0.00576098,-0.0303661,-1.06055,0.0224126,0.0459717,1259,330,6.27604,36.9897
42,694,5.89258,-36.3723,-0.0209547,-0.00336146,-0.0128864,0.00344444,-0.0277606,-1.08488,0.0197556,0.0482682,1266,330,5.89255,36.3723
49,694,3.39917,-35.7101,-0.0184157,-0.00239026,-0.00969729,0.00217641,-0.0229824,-1.13068,0.0160962,0.0467701,1273,330,3.39919,35.7101
56,694,4.25208,-36.3063,0,0,0,0,0,0,0,-1,1280,330,4.25203,36.3063
63,694,3.37244,-36.079,-0.0113287,0.00408203,-0.00365289,0.00490405,-0.0121507,-1.34945,0.0101385,0.0435765,1287,330,3.37238,36.079
70,694,3.35278,-36.3399,-0.00774169,0.00704092,-0.00269769,0.00751783,-0.0082186,-1.39582,0.00908844,0.0432345,1294,330,3.35283,36.34
77,694,2.68518,-36.6265,-0.00400213,0.00946874,-0.00163326,0.00966394,-0.00419732,-1.45185,0.00820764,0.0458623,1301,330,2.68517,36.6265
84,694,2.33276,-35.5949,0.000573494,0.0135793,-0.00220012,0.0139414,0.000211393,-1.40768,0.00922463,0.0436525,1308,330,2.33281,35.5949
91,694,2.98621,-36.4568,0,0,0,0,0,0,0,-1,1315,330,2.98619,36.4568
98,694,3.47119,-36.468,0.00904378,0.0169996,-0.00598746,0.0202102,0.00583328,-1.07861,0.0120108,0.0448192,1322,330,3.47115,36.4681
105,694,3.96362,-36.4726,0.0124892,0.0175971,-0.00868176,0.0240928,0.00599357,-0.92845,0.0144835,0.0457722,1329,330,3.96366,36.4726
112,694,3.81067,-35.3744,0.0131436,0.0164477,-0.0119272,0.0268367,0.00275463,-0.854217,0.0170473,0.0430021,1336,330,3.81063,35.3743
119,694,4.44373,-36.1237,0.0133975,0.0142657,-0.0147744,0.0286123,-0.00094918,-0.800085,0.019399,0.0424181,1343,330,4.44369,36.1236
126,694,4.35596,-36.1342,0.0137643,0.0088567,-0.0165869,0.0280779,-0.00545694,-0.711963,0.0207779,0.042965,1350,330,4.35599,36.1343
133,694,4.4707,-36.0809,0.0129515,0.00493583,-0.01948,0.0288317,-0.0109443,-0.683943,0.0237261,0.0471938,1357,330,4.47065,36.0809
140,694,4.6106,-36.0645,0,0,0,0,0,0,0,-1,1364,330,4.61062,36.0645
147,694,4.41223,-34.072,0,0,0,0,0,0,0,-1,1371,330,4.41229,34.072
154,694,2.94763,-32.0768,0,0,0,0,0,0,0,-1,1378,330,2.94761,32.0767
161,694,2.71069,-31.7711,0,0,0,0,0,0,0,-1,1385,330,2.71067,31.7711
168,694,30.451,0.196686,0,0,0,0,0,0,0,-1,1392,330,30.4511,-0.196674
175,694,31.0701,0.869873,0,0,0,0,0,0,0,-1,1399,330,31.07,-0.869874
182,694,8.29028,5.75238,0,0,0,0,0,0,0,-1,1406,330,8.29034,-5.75237
189,694,7.9801,4.46118,0,0,0,0,0,0,0,-1,1413,330,7.9801,-4.46118
196,694,7.39331,3.32632,0,0,0,0,0,0,0,-1,1420,330,7.39329,-3.32633
203,694,7.04492,2.20529,0,0,0,0,0,0,0,-1,1427,330,7.04496,-2.20529
210,694,6.44714,0.646912,0,0,0,0,0,0,0,-1,1434,330,6.44717,-0.646903
217,694,7.12061,-0.644958,0,0,0,0,0,0,0,-1,1441,330,7.12059,0.644961
224,694,6.74011,-1.70544,0,0,0,0,0,0,0,-1,1448,330,6.74013,1.70546
231,694,0,0,0,0,0,0,0,0,0,-1,1455,330,0,0
238,694,0,0,0,0,0,0,0,0,0,-1,1462,330,0,0
245,694,0,0,0,0,0,0,0,0,0,-1,1469,330,0,0
252,694,0,0,0,0,0,0,0,0,0,-1,1476,330,0,0
259,694,0,0,0,0,0,0,0,0,0,-1,1483,330,0,0
266,694,0,0,0,0,0,0,0,0,0,-1,1490,330,0,0
273,694,0,0,0,0,0,0,0,0,0,-1,1497,330,0,0
280,694,0,0,0,0,0,0,0,0,0,-1,1504,330,0,0
287,694,0,0,0,0,0,0,0,0,0,-1,1511,330,0,0
294,694,0,0,0,0,0,0,0,0,0,-1,1518,330,0,0
301,694,0,0,0,0,0,0,0,0,0,-1,1525,330,0,0
308,694,0,0,0,0,0,0,0,0,0,-1,1532,330,0,0
315,694,0,0,0,0,0,0,0,0,0,-1,1539,330,0,0
322,694,0,0,0,0,0,0,0,0,0,-1,1546,330,0,0
329,694,0,0,0,0,0,0,0,0,0,-1,1553,330,0,0
336,694,0,0,0,0,0,0,0,0,0,-1,1560,330,0,0
343,694,0,0,0,0,0,0,0,0,0,-1,1567,330,0,0
350,694,0,0,0,0,0,0,0,0,0,-1,1574,330,0,0
357,694,0,0,0,0,0,0,0,0,0,-1,1581,330,0,0
364,694,0,0,0,0,0,0,0,0,0,-1,1588,330,0,0
371,694,0,0,0,0,0,0,0,0,0,-1,1595,330,0,0
378,694,0,0,0,0,0,0,0,0,0,-1,1602,330,0,0
385,694,0,0,0,0,0,0,0,0,0,-1,1609,330,0,0
392,694,0,0,0,0,0,0,0,0,0,-1,1616,330,0,0
399,694,0,0,0,0,0,0,0,0,0,-1,1623,330,0,0
406,694,0,0,0,0,0,0,0,0,0,-1,1630,330,0,0
413,694,0,0,0,0,0,0,0,0,0,-1,1637,330,0,0
420,694,0,0,0,0,0,0,0,0,0,-1,1644,330,0,0
427,694,0,0,0,0,0,0,0,0,0,-1,1651,330,0,0
434,694,0,0,0,0,0,0,0,0,0,-1,1658,330,0,0
441,694,0,0,0,0,0,0,0,0,0,-1,1665,330,0,0
448,694,0,0,0,0,0,0,0,0,0,-1,1672,330,0,0
455,694,0,0,0,0,0,0,0,0,0,-1,1679,330,0,0
462,694,0,0,0,0,0,0,0,0,0,-1,1686,330,0,0
469,694,0,0,0,0,0,0,0,0,0,-1,1693,330,0,0
476,694,0,0,0,0,0,0,0,0,0,-1,1700,330,0,0
483,694,0,0,0,0,0,0,0,0,0,-1,1707,330,0,0
490,694,0,0,0,0,0,0,0,0,0,-1,1714,330,0,0
497,694,0,0,0,0,0,0,0,0,0,-1,1721,330,0,0
504,694,0,0,0,0,0,0,0,0,0,-1,1728,330,0,0
511,694,0,0,0,0,0,0,0,0,0,-1,1735,330,0,0
518,694,0,0,0,0,0,0,0,0,0,-1,1742,330,0,0
525,694,0,0,0,0,0,0,0,0,0,-1,1749,330,0,0
532,694,0,0,0,0,0,0,0,0,0,-1,1756,330,0,0
539,694,0,0,0,0,0,0,0,0,0,-1,1763,330,0,0
546,694,0,0,0,0,0,0,0,0,0,-1,1770,330,0,0
553,694,0,0,0,0,0,0,0,0,0,-1,1777,330,0,0
560,694,0,0,0,0,0,0,0,0,0,-1,1784,330,0,0
567,694,0,0,0,0,0,0,0,0,0,-1,1791,330,0,0
574,694,0,0,0,0,0,0,0,0,0,-1,1798,330,0,0
581,694,0,0,0,0,0,0,0,0,0,-1,1805,330,0,0
588,694,0,0,0,0,0,0,0,0,0,-1,1812,330,0,0
595,694,0,0,0,0,0,0,0,0,0,-1,1819,330,0,0
602,694,0,0,0,0,0,0,0,0,0,-1,1826,330,0,0
609,694,0,0,0,0,0,0,0,0,0,-1,1833,330,0,0
616,694,0,0,0,0,0,0,0,0,0,-1,1840,330,0,0
623,694,0,0,0,0,0,0,0,0,0,-1,1847,330,0,0
630,694,0,0,0,0,0,0,0,0,0,-1,1854,330,0,0
637,694,0,0,0,0,0,0,0,0,0,-1,1861,330,0,0
644,694,0,0,0,0,0,0,0,0,0,-1,1868,330,0,0
651,694,0,0,0,0,0,0,0,0,0,-1,1875,330,0,0
658,694,0,0,0,0,0,0,0,0,0,-1,1882,330,0,0
665,694,0,0,0,0,0,0,0,0,0,-1,1889,330,0,0
672,694,0,0,0,0,0,0,0,0,0,-1,1896,330,0,0
679,694,0,0,0,0,0,0,0,0,0,-1,1903,330,0,0
686,694,0,0,0,0,0,0,0,0,0,-1,1910,330,0,0
693,694,0,0,0,0,0,0,0,0,0,-1,1917,330,0,0
700,694,0,0,0,0,0,0,0,0,0,-1,1924,330,0,0
707,694,0,0,0,0,0,0,0,0,0,-1,1931,330,0,0
714,694,0,0,0,0,0,0,0,0,0,-1,1938,330,0,0
721,694,0,0,0,0,0,0,0,0,0,-1,1945,330,0,0
728,694,0,0,0,0,0,0,0,0,0,-1,1952,330,0,0
735,694,0,0,0,0,0,0,0,0,0,-1,1959,330,0,0
742,694,0,0,0,0,0,0,0,0,0,-1,1966,330,0,0
749,694,0,0,0,0,0,0,0,0,0,-1,1973,330,0,0
756,694,0,0,0,0,0,0,0,0,0,-1,1980,330,0,0
763,694,0,0,0,0,0,0,0,0,0,-1,1987,330,0,0
770,694,0,0,0,0,0,0,0,0,0,-1,1994,330,0,0
777,694,0,0,0,0,0,0,0,0,0,-1,2001,330,0,0
784,694,0,0,0,0,0,0,0,0,0,-1,2008,330,0,0
791,694,0,0,0,0,0,0,0,0,0,-1,2015,330,0,0
798,694,0,0,0,0,0,0,0,0,0,-1,2022,330,0,0
805,694,0,0,0,0,0,0,0,0,0,-1,2029,330,0,0
812,694,0,0,0,0,0,0,0,0,0,-1,2036,330,0,0
-700,687,0,0,0,0,0,0,0,0,0,-1,524,337,0,0
-693,687,0,0,0,0,0,0,0,0,0,-1,531,337,0,0
-686,687,0,0,0,0,0,0,0,0,0,-1,538,337,0,0
-679,687,0,0,0,0,0,0,0,0,0,-1,545,337,0,0
-672,687,0,0,0,0,0,0,0,0,0,-1,552,337,0,0
-665,687,0,0,0,0,0,0,0,0,0,-1,559,337,0,0
-658,687,0,0,0,0,0,0,0,0,0,-1,566,337,0,0
-651,687,0,0,0,0,0,0,0,0,0,-1,573,337,0,0
-644,687,0,0,0,0,0,0,0,0,0,-1,580,337,0,0
-637,687,0,0,0,0,0,0,0,0,0,-1,587,337,0,0
-630,687,0,0,0,0,0,0,0,0,0,-1,594,337,0,0
-623,687,0,0,0,0,0,0,0,0,0,-1,601,337,0,0
-616,687,0,0,0,0,0,0,0,0,0,-1,608,337,0,0
-609,687,0,0,0,0,0,0,0,0,0,-1,615,337,0,0
-602,687,0,0,0,0,0,0,0,0,0,-1,622,337,0,0
-595,687,0,0,0,0,0,0,0,0,0,-1,629,337,0,0
-588,687,0,0,0,0,0,0,0,0,0,-1,636,337,0,0
-581,687,0,0,0,0,0,0,0,0,0,-1,643,337,0,0
-574,687,0,0,0,0,0,0,0,0,0,-1,650,337,0,0
-567,687,0,0,0,0,0,0,0,0,0,-1,657,337,0,0
-560,687,0,0,0,0,0,0,0,0,0,-1,664,337,0,0
-553,687,0,0,0,0,0,0,0,0,0,-1,671,337,0,0
-546,687,0,0,0,0,0,0,0,0,0,-1,678,337,0,0
-539,687,0,0,0,0,0,0,0,0,0,-1,685,337,0,0
-532,687,0,0,0,0,0,0,0,0,0,-1,692,337,0,0
-525,687,0,0,0,0,0,0,0,0,0,-1,699,337,0,0
-518,687,0,0,0,0,0,0,0,0,0,-1,706,337,0,0
-511,687,0,0,0,0,0,0,0,0,0,-1,713,337,0,0
-504,687,0,0,0,0,0,0,0,0,0,-1,720,337,0,0
-497,687,0,0,0,0,0,0,0,0,0,-1,727,337,0,0
-490,687,0,0,0,0,0,0,0,0,0,-1,734,337,0,0
-483,687,0,0,0,0,0,0,0,0,0,-1,741,337,0,0
-476,687,0,0,0,0,0,0,0,0,0,-1,748,337,0,0
-469,687,0,0,0,0,0,0,0,0,0,-1,755,337,0,0
-462,687,0,0,0,0,0,0,0,0,0,-1,762,337,0,0
-455,687,0,0,0,0,0,0,0,0,0,-1,769,337,0,0
-448,687,0,0,0,0,0,0,0,0,0,-1,776,337,0,0
-441,687,0,0,0,0,0,0,0,0,0,-1,783,337,0,0
-434,687,0,0,0,0,0,0,0,0,0,-1,790,337,0,0
-427,687,0,0,0,0,0,0,0,0,0,-1,797,337,0,0
-420,687,0,0,0,0,0,0,0,0,0,-1,804,337,0,0
-413,687,0,0,0,0,0,0,0,0,0,-1,811,337,0,0
-406,687,0,0,0,0,0,0,0,0,0,-1,818,337,0,0
-399,687,0,0,0,0,0,0,0,0,0,-1,825,337,0,0
-392,687,0,0,0,0,0,0,0,0,0,-1,832,337,0,0
-385,687,0,0,0,0,0,0,0,0,0,-1,839,337,0,0
-378,687,0,0,0,0,0,0,0,0,0,-1,846,337,0,0
-371,687,0,0,0,0,0,0,0,0,0,-1,853,337,0,0
-364,687,0,0,0,0,0,0,0,0,0,-1,860,337,0,0
-357,687,0,0,0,0,0,0,0,0,0,-1,867,337,0,0
-350,687,0,0,0,0,0,0,0,0,0,-1,874,337,0,0
-343,687,0,0,0,0,0,0,0,0,0,-1,881,337,0,0
-336,687,0,0,0,0,0,0,0,0,0,-1,888,337,0,0
-329,687,0,0,0,0,0,0,0,0,0,-1,895,337,0,0
-322,687,0,0,0,0,0,0,0,0,0,-1,902,337,0,0
-315,687,0,0,0,0,0,0,0,0,0,-1,909,337,0,0
-308,687,0,0,0,0,0,0,0,0,0,-1,916,337,0,0
-301,687,0,0,0,0,0,0,0,0,0,-1,923,337,0,0
-294,687,0,0,0,0,0,0,0,0,0,-1,930,337,0,0
-287,687,0,0,0,0,0,0,0,0,0,-1,937,337,0,0
-280,687,0,0,0,0,0,0,0,0,0,-1,944,337,0,0
-273,687,0,0,0,0,0,0,0,0,0,-1,951,337,0,0
-266,687,0,0,0,0,0,0,0,0,0,-1,958,337,0,0
-259,687,0,0,0,0,0,0,0,0,0,-1,965,337,0,0
-252,687,0,0,0,0,0,0,0,0,0,-1,972,337,0,0
-245,687,0,0,0,0,0,0,0,0,0,-1,979,337,0,0
-238,687,0,0,0,0,0,0,0,0,0,-1,986,337,0,0
-231,687,0,0,0,0,0,0,0,0,0,-1,993,337,0,0
-224,687,0,0,0,0,0,0,0,0,0,-1,1000,337,0,0
-217,687,0,0,0,0,0,0,0,0,0,-1,1007,337,0,0
-210,687,0,0,0,0,0,0,0,0,0,-1,1014,337,0,0
-203,687,0,0,0,0,0,0,0,0,0,-1,1021,337,0,0
-196,687,0,0,0,0,0,0,0,0,0,-1,1028,337,0,0
-189,687,0,0,0,0,0,0,0,0,0,-1,1035,337,0,0
-182,687,0,0,0,0,0,0,0,0,0,-1,1042,337,0,0
-175,687,0,0,0,0,0,0,0,0,0,-1,1049,337,0,0
-168,687,0,0,0,0,0,0,0,0,0,-1,1056,337,0,0
-161,687,0,0,0,0,0,0,0,0,0,-1,1063,337,0,0
-154,687,0,0,0,0,0,0,0,0,0,-1,1070,337,0,0
-147,687,0,0,0,0,0,0,0,0,0,-1,1077,337,0,0
-140,687,0,0,0,0,0,0,0,0,0,-1,1084,337,0,0
-133,687,6.84326,-32.093,0,0,0,0,0,0,0,-1,1091,337,6.84323,32.093
-126,687,5.5741,-31.6367,0,0,0,0,0,0,0,-1,1098,337,5.57406,31.6367
-119,687,4.27832,-31.2111,0,0,0,0,0,0,0,-1,1105,337,4.27837,31.2111
-112,687,2.78003,-30.5394,0,0,0,0,0,0,0,-1,1112,337,2.77999,30.5394
-105,687,1.3208,-29.8313,0,0,0,0,0,0,0,-1,1119,337,1.3208,29.8313
-98,687,13.5825,-44.6227,0,0,0,0,0,0,0,-1,1126,337,13.5825,44.6227
-91,687,7.80652,-40.6695,0,0,0,0,0,0,0,-1,1133,337,7.80654,40.6695
-84,687,1.58215,-34.1306,0,0,0,0,0,0,0,-1,1140,337,1.58212,34.1306
-77,687,-5.29199,-26.4802,0,0,0,0,0,0,0,-1,1147,337,-5.29201,26.4802
-70,687,-11.6842,-19.8473,0,0,0,0,0,0,0,-1,1154,337,-11.6842,19.8473
-63,687,-17.6757,-14.8966,0,0,0,0,0,0,0,-1,1161,337,-17.6756,14.8966
-56,687,-18.104,7.81931,0,0,0,0,0,0,0,-1,1168,337,-18.104,-7.81931
-49,687,-15.6449,-9.94391,0,0,0,0,0,0,0,-1,1175,337,-15.6449,9.94392
-42,687,-4.2019,-0.405609,0,0,0,0,0,0,0,-1,1182,337,-4.20192,0.405614
-35,687,-4.42273,-0.688171,0,0,0,0,0,0,0,-1,1189,337,-4.42276,0.688178
-28,687,-1.14038,-1.39072,0,0,0,0,0,0,0,-1,1196,337,-1.14035,1.3907
-21,687,5.23584,-36.4943,0,0,0,0,0,0,0,-1,1203,337,5.23585,36.4943
-14,687,5.41016,-36.6177,-0.0193804,0.0109737,-0.01219,0.015263,-0.0236697,-1.23246,0.0226518,0.0488063,1210,337,5.41012,36.6177
-7,687,5.34338,-36.4944,-0.0184402,0.012114,-0.0140216,0.0175733,-0.0238995,-1.19951,0.024037,0.0452512,1217,337,5.34335,36.4944
0,687,4.71289,-36.501,-0.0188249,0.0122565,-0.0150482,0.0183482,-0.0249166,-1.18615,0.0250747,0.0454534,1224,337,4.71288,36.501
7,687,5.6499,-35.4177,0,0,0,0,0,0,0,-1,1231,337,5.64996,35.4177
14,687,5.04944,-35.7471,-0.0187938,0.00932667,-0.0159259,0.0165108,-0.025978,-1.14703,0.0247331,0.0449159,1238,337,5.04944,35.7471
21,687,5.12598,-36.1817,-0.0199687,0.00745981,-0.0161802,0.014956,-0.0274648,-1.13695,0.0248441,0.0416708,1245,337,5.12595,36.1817
28,687,5.38245,-37.3275,0,0,0,0,0,0,0,-1,1252,337,5.38244,37.3275
35,687,5.65076,-36.8704,-0.0199827,0.00694607,-0.0127594,0.0120314,-0.025068,-1.19154,0.0218557,0.0472114,1259,337,5.6508,36.8704
42,687,5.12158,-36.4405,-0.019254,0.00694663,-0.011316,0.0111573,-0.0234647,-1.21457,0.0204056,0.0494023,1266,337,5.12155,36.4405
49,687,3.96887,-36.8398,-0.0170511,0.00801145,-0.00937725,0.0111316,-0.0201712,-1.24959,0.0183221,0.0480154,1273,337,3.9689,36.8398
56,687,4.42725,-36.6865,-0.0139375,0.0104307,-0.0069971,0.0122969,-0.0158038,-1.31015,0.016266,0.0495112,1280,337,4.42721,36.6865
63,687,4.54004,-36.5375,0,0,0,0,0,0,0,-1,1287,337,4.54,36.5375
70,687,3.69861,-35.4185,-0.00745014,0.0156762,-0.00503762,0.0167259,-0.00849983,-1.36536,0.01482,0.0381565,1294,337,3.69863,35.4185
77,687,2.00122,-35.9311,-0.00407634,0.017357,-0.00431146,0.0181917,-0.00491111,-1.37955,0.0140539,0.0460858,1301,337,2.00118,35.9311
84,687,2.87939,-36.4727,-3.06661e-05,0.0201796,-0.00476018,0.0212447,-0.00109572,-1.35068,0.0145421,0.0451453,1308,337,2.87937,36.4727
91,687,3.51782,-37.0701,0.00387525,0.021511,-0.00627917,0.0235182,0.00186802,-1.2614,0.0150947,0.0452953,1315,337,3.51788,37.0701
98,687,3.66846,-36.9124,0.00736355,0.0215613,-0.00675941,0.0242646,0.0046602,-1.19034,0.0148685,0.0467857,1322,337,3.66842,36.9124
105,687,4.22339,-35.2741,0.0103541,0.0215206,-0.00790275,0.0256134,0.00626128,-1.09293,0.0154183,0.045196,1329,337,4.22343,35.2741
112,687,4.4613,-35.5354,0.0108558,0.0202614,-0.00941455,0.0260824,0.00503481,-1.01703,0.0159767,0.0451272,1336,337,4.46135,35.5354
119,687,4.6814,-35.7298,0.0110932,0.0184954,-0.0105865,0.0260091,0.00357952,-0.953561,0.0162779,0.0442315,1343,337,4.68135,35.7298
126,687,4.54614,-35.8206,0.0117052,0.0143828,-0.0108227,0.0239492,0.00213883,-0.846939,0.0153031,0.0447671,1350,337,4.54612,35.8207
133,687,4.66138,-36.1102,0.0110849,0.011078,-0.0117556,0.022837,-0.000674096,-0.785252,0.0154543,0.047279,1357,337,4.66136,36.1102
140,687,5.11707,-36.4531,0.0103003,0.00706269,-0.011978,0.0207684,-0.00340538,-0.718231,0.0151092,0.0480232,1364,337,5.11707,36.4531
147,687,5.44763,-36.4299,0,0,0,0,0,0,0,-1,1371,337,5.44758,36.4299
154,687,5.39526,-32.6595,0,0,0,0,0,0,0,-1,1378,337,5.39527,32.6595
161,687,29.3895,-1.90628,0,0,0,0,0,0,0,-1,1385,337,29.3895,1.90628
168,687,29.8564,-1.19434,0,0,0,0,0,0,0,-1,1392,337,29.8564,1.19434
175,687,30.3419,-0.453583,0,0,0,0,0,0,0,-1,1399,337,30.3419,0.45357
182,687,6.67249,0.289917,0,0,0,0,0,0,0,-1,1406,337,6.67247,-0.289916
189,687,7.76062,4.53635,0,0,0,0,0,0,0,-1,1413,337,7.76064,-4.53636
196,687,6.99048,3.2966,0,0,0,0,0,0,0,-1,1420,337,6.99046,-3.2966
203,687,6.36499,2.1445,0,0,0,0,0,0,0,-1,1427,337,6.36499,-2.14451
210,687,6.68066,0.674652,0,0,0,0,0,0,0,-1,1434,337,6.68062,-0.674655
217,687,5.99683,-0.630493,0,0,0,0,0,0,0,-1,1441,337,5.99684,0.630497
224,687,5.52917,0.524902,0,0,0,0,0,0,0,-1,1448,337,5.5292,-0.524915
231,687,5.85583,-1.73651,0,0,0,0,0,0,0,-1,1455,337,5.85577,1.73651
238,687,5.96582,-2.96774,0,0,0,0,0,0,0,-1,1462,337,5.96577,2.96773
245,687,1.28259,2.32211,0,0,0,0,0,0,0,-1,1469,337,1.28258,-2.32211
252,687,1.97278,3.88422,0,0,0,0,0,0,0,-1,1476,337,1.97281,-3.88421
259,687,0,0,0,0,0,0,0,0,0,-1,1483,337,0,0
266,687,0,0,0,0,0,0,0,0,0,-1,1490,337,0,0
273,687,0,0,0,0,0,0,0,0,0,-1,1497,337,0,0
280,687,0,0,0,0,0,0,0,0,0,-1,1504,337,0,0
287,687,0,0,0,0,0,0,0,0,0,-1,1511,337,0,0
294,687,0,0,0,0,0,0,0,0,0,-1,1518,337,0,0
301,687,0,0,0,0,0,0,0,0,0,-1,1525,337,0,0
308,687,0,0,0,0,0,0,0,0,0,-1,1532,337,0,0
315,687,0,0,0,0,0,0,0,0,0,-1,1539,337,0,0
322,687,0,0,0,0,0,0,0,0,0,-1,1546,337,0,0
329,687,0,0,0,0,0,0,0,0,0,-1,1553,337,0,0
336,687,0,0,0,0,0,0,0,0,0,-1,1560,337,0,0
343,687,0,0,0,0,0,0,0,0,0,-1,1567,337,0,0
350,687,0,0,0,0,0,0,0,0,0,-1,1574,337,0,0
357,687,0,0,0,0,0,0,0,0,0,-1,1581,337,0,0
364,687,0,0,0,0,0,0,0,0,0,-1,1588,337,0,0
371,687,0,0,0,0,0,0,0,0,0,-1,1595,337,0,0
378,687,0,0,0,0,0,0,0,0,0,-1,1602,337,0,0
385,687,0,0,0,0,0,0,0,0,0,-1,1609,337,0,0
392,687,0,0,0,0,0,0,0,0,0,-1,1616,337,0,0
399,687,0,0,0,0,0,0,0,0,0,-1,1623,337,0,0
406,687,0,0,0,0,0,0,0,0,0,-1,1630,337,0,0
413,687,0,0,0,0,0,0,0,0,0,-1,1637,337,0,0
420,687,0,0,0,0,0,0,0,0,0,-1,1644,337,0,0
427,687,0,0,0,0,0,0,0,0,0,-1,1651,337,0,0
434,687,0,0,0,0,0,0,0,0,0,-1,1658,337,0,0
441,687,0,0,0,0,0,0,0,0,0,-1,1665,337,0,0
448,687,0,0,0,0,0,0,0,0,0,-1,1672,337,0,0
455,687,0,0,0,0,0,0,0,0,0,-1,1679,337,0,0
462,687,0,0,0,0,0,0,0,0,0,-1,1686,337,0,0
469,687,0,0,0,0,0,0,0,0,0,-1,1693,337,0,0
476,687,0,0,0,0,0,0,0,0,0,-1,1700,337,0,0
483,687,0,0,0,0,0,0,0,0,0,-1,1707,337,0,0
490,687,0,0,0,0,0,0,0,0,0,-1,1714,337,0,0
497,687,0,0,0,0,0,0,0,0,0,-1,1721,337,0,0
504,687,0,0,0,0,0,0,0,0,0,-1,1728,337,0,0
511,687,0,0,0,0,0,0,0,0,0,-1,1735,337,0,0
518,687,0,0,0,0,0,0,0,0,0,-1,1742,337,0,0
525,687,0,0,0,0,0,0,0,0,0,-1,1749,337,0,0
532,687,0,0,0,0,0,0,0,0,0,-1,1756,337,0,0
539,687,0,0,0,0,0,0,0,0,0,-1,1763,337,0,0
546,687,0,0,0,0,0,0,0,0,0,-1,1770,337,0,0
553,687,0,0,0,0,0,0,0,0,0,-1,1777,337,0,0
560,687,0,0,0,0,0,0,0,0,0,-1,1784,337,0,0
567,687,0,0,0,0,0,0,0,0,0,-1,1791,337,0,0
574,687,0,0,0,0,0,0,0,0,0,-1,1798,337,0,0
581,687,0,0,0,0,0,0,0,0,0,-1,1805,337,0,0
588,687,0,0,0,0,0,0,0,0,0,-1,1812,337,0,0
595,687,0,0,0,0,0,0,0,0,0,-1,1819,337,0,0
602,687,0,0,0,0,0,0,0,0,0,-1,1826,337,0,0
609,687,0,0,0,0,0,0,0,0,0,-1,1833,337,0,0
616,687,0,0,0,0,0,0,0,0,0,-1,1840,337,0,0
623,687,0,0,0,0,0,0,0,0,0,-1,1847,337,0,0
630,687,0,0,0,0,0,0,0,0,0,-1,1854,337,0,0
637,687,0,0,0,0,0,0,0,0,0,-1,1861,337,0,0
644,687,0,0,0,0,0,0,0,0,0,-1,1868,337,0,0
651,687,0,0,0,0,0,0,0,0,0,-1,1875,337,0,0
658,687,0,0,0,0,0,0,0,0,0,-1,1882,337,0,0
665,687,0,0,0,0,0,0,0,0,0,-1,1889,337,0,0
672,687,0,0,0,0,0,0,0,0,0,-1,1896,337,0,0
679,687,0,0,0,0,0,0,0,0,0,-1,1903,337,0,0
686,687,0,0,0,0,0,0,0,0,0,-1,1910,337,0,0
693,687,0,0,0,0,0,0,0,0,0,-1,1917,337,0,0
700,687,0,0,0,0,0,0,0,0,0,-1,1924,337,0,0
707,687,0,0,0,0,0,0,0,0,0,-1,1931,337,0,0
714,687,0,0,0,0,0,0,0,0,0,-1,1938,337,0,0
721,687,0,0,0,0,0,0,0,0,0,-1,1945,337,0,0
728,687,0,0,0,0,0,0,0,0,0,-1,1952,337,0,0
735,687,0,0,0,0,0,0,0,0,0,-1,1959,337,0,0
742,687,0,0,0,0,0,0,0,0,0,-1,1966,337,0,0
749,687,0,0,0,0,0,0,0,0,0,-1,1973,337,0,0
756,687,0,0,0,0,0,0,0,0,0,-1,1980,337,0,0
763,687,0,0,0,0,0,0,0,0,0,-1,1987,337,0,0
770,687,0,0,0,0,0,0,0,0,0,-1,1994,337,0,0
777,687,0,0,0,0,0,0,0,0,0,-1,2001,337,0,0
784,687,0,0,0,0,0,0,0,0,0,-1,2008,337,0,0
791,687,0,0,0,0,0,0,0,0,0,-1,2015,337,0,0
798,687,0,0,0,0,0,0,0,0,0,-1,2022,337,0,0
805,687,0,0,0,0,0,0,0,0,0,-1,2029,337,0,0
812,687,0,0,0,0,0,0,0,0,0,-1,2036,337,0,0
-700,680,0,0,0,0,0,0,0,0,0,-1,524,344,0,0
-693,680,0,0,0,0,0,0,0,0,0,-1,531,344,0,0
-686,680,0,0,0,0,0,0,0,0,0,-1,538,344,0,0
-679,680,0,0,0,0,0,0,0,0,0,-1,545,344,0,0
-672,680,0,0,0,0,0,0,0,0,0,-1,552,344,0,0
-665,680,0,0,0,0,0,0,0,0,0,-1,559,344,0,0
-658,680,0,0,0,0,0,0,0,0,0,-1,566,344,0,0
-651,680,0,0,0,0,0,0,0,0,0,-1,573,344,0,0
-644,680,0,0,0,0,0,0,0,0,0,-1,580,344,0,0
-637,680,0,0,0,0,0,0,0,0,0,-1,587,344,0,0
-630,680,0,0,0,0,0,0,0,0,0,-1,594,344,0,0
-623,680,0,0,0,0,0,0,0,0,0,-1,601,344,0,0
-616,680,0,0,0,0,0,0,0,0,0,-1,608,344,0,0
-609,680,0,0,0,0,0,0,0,0,0,-1,615,344,0,0
-602,680,0,0,0,0,0,0,0,0,0,-1,622,344,0,0
-595,680,0,0,0,0,0,0,0,0,0,-1,629,344,0,0
-588,680,0,0,0,0,0,0,0,0,0,-1,636,344,0,0
-581,680,0,0,0,0,0,0,0,0,0,-1,643,344,0,0
-574,680,0,0,0,0,0,0,0,0,0,-1,650,344,0,0
-567,680,0,0,0,0,0,0,0,0,0,-1,657,344,0,0
-560,680,0,0,0,0,0,0,0,0,0,-1,664,344,0,0
-553,680,0,0,0,0,0,0,0,0,0,-1,671,344,0,0
-546,680,0,0,0,0,0,0,0,0,0,-1,678,344,0,0
-539,680,0,0,0,0,0,0,0,0,0,-1,685,344,0,0
-532,680,0,0,0,0,0,0,0,0,0,-1,692,344,0,0
-525,680,0,0,0,0,0,0,0,0,0,-1,699,344,0,0
-518,680,0,0,0,0,0,0,0,0,0,-1,706,344,0,0
-511,680,0,0,0,0,0,0,0,0,0,-1,713,344,0,0
-504,680,0,0,0,0,0,0,0,0,0,-1,720,344,0,0
-497,680,0,0,0,0,0,0,0,0,0,-1,727,344,0,0
-490,680,0,0,0,0,0,0,0,0,0,-1,734,344,0,0
-483,680,0,0,0,0,0,0,0,0,0,-1,741,344,0,0
-476,680,0,0,0,0,0,0,0,0,0,-1,748,344,0,0
-469,680,0,0,0,0,0,0,0,0,0,-1,755,344,0,0
-462,680,0,0,0,0,0,0,0,0,0,-1,762,344,0,0
-455,680,0,0,0,0,0,0,0,0,0,-1,769,344,0,0
-448,680,0,0,0,0,0,0,0,0,0,-1,776,344,0,0
-441,680,0,0,0,0,0,0,0,0,0,-1,783,344,0,0
-434,680,0,0,0,0,0,0,0,0,0,-1,790,344,0,0
-427,680,0,0,0,0,0,0,0,0,0,-1,797,344,0,0
-420,680,0,0,0,0,0,0,0,0,0,-1,804,344,0,0
-413,680,0,0,0,0,0,0,0,0,0,-1,811,344,0,0
-406,680,0,0,0,0,0,0,0,0,0,-1,818,344,0,0
-399,680,0,0,0,0,0,0,0,0,0,-1,825,344,0,0
-392,680,0,0,0,0,0,0,0,0,0,-1,832,344,0,0
-385,680,0,0,0,0,0,0,0,0,0,-1,839,344,0,0
-378,680,0,0,0,0,0,0,0,0,0,-1,846,344,0,0
-371,680,0,0,0,0,0,0,0,0,0,-1,853,344,0,0
-364,680,0,0,0,0,0,0,0,0,0,-1,860,344,0,0
-357,680,0,0,0,0,0,0,0,0,0,-1,867,344,0,0
-350,680,0,0,0,0,0,0,0,0,0,-1,874,344,0,0
-343,680,0,0,0,0,0,0,0,0,0,-1,881,344,0,0
-336,680,0,0,0,0,0,0,0,0,0,-1,888,344,0,0
-329,680,0,0,0,0,0,0,0,0,0,-1,895,344,0,0
-322,680,0,0,0,0,0,0,0,0,0,-1,902,344,0,0
-315,680,0,0,0,0,0,0,0,0,0,-1,909,344,0,0
-308,680,0,0,0,0,0,0,0,0,0,-1,916,344,0,0
-301,680,0,0,0,0,0,0,0,0,0,-1,923,344,0,0
-294,680,0,0,0,0,0,0,0,0,0,-1,930,344,0,0
-287,680,0,0,0,0,0,0,0,0,0,-1,937,344,0,0
-280,680,0,0,0,0,0,0,0,0,0,-1,944,344,0,0
-273,680,0,0,0,0,0,0,0,0,0,-1,951,344,0,0
-266,680,0,0,0,0,0,0,0,0,0,-1,958,344,0,0
-259,680,0,0,0,0,0,0,0,0,0,-1,965,344,0,0
-252,680,0,0,0,0,0,0,0,0,0,-1,972,344,0,0
-245,680,0,0,0,0,0,0,0,0,0,-1,979,344,0,0
-238,680,0,0,0,0,0,0,0,0,0,-1,986,344,0,0
-231,680,0,0,0,0,0,0,0,0,0,-1,993,344,0,0
-224,680,0,0,0,0,0,0,0,0,0,-1,1000,344,0,0
-217,680,0,0,0,0,0,0,0,0,0,-1,1007,344,0,0
-210,680,0,0,0,0,0,0,0,0,0,-1,1014,344,0,0
-203,680,0,0,0,0,0,0,0,0,0,-1,1021,344,0,0
-196,680,0,0,0,0,0,0,0,0,0,-1,1028,344,0,0
-189,680,0,0,0,0,0,0,0,0,0,-1,1035,344,0,0
-182,680,0,0,0,0,0,0,0,0,0,-1,1042,344,0,0
-175,680,0,0,0,0,0,0,0,0,0,-1,1049,344,0,0
-168,680,0,0,0,0,0,0,0,0,0,-1,1056,344,0,0
-161,680,0,0,0,0,0,0,0,0,0,-1,1063,344,0,0
-154,680,2.25244,-29.1442,0,0,0,0,0,0,0,-1,1070,344,2.25241,29.1442
-147,680,9.29614,-33.0369,0,0,0,0,0,0,0,-1,1077,344,9.29612,33.0369
-140,680,8.07202,-32.6062,0,0,0,0,0,0,0,-1,1084,344,8.07199,32.6062
-133,680,6.85718,-32.1518,0,0,0,0,0,0,0,-1,1091,344,6.85716,32.1518
-126,680,5.60144,-31.697,0,0,0,0,0,0,0,-1,1098,344,5.60138,31.697
-119,680,4.28528,-31.3249,0,0,0,0,0,0,0,-1,1105,344,4.28524,31.3249
-112,680,2.8811,-30.7639,0,0,0,0,0,0,0,-1,1112,344,2.88115,30.7639
-105,680,8.12,-27.7806,0,0,0,0,0,0,0,-1,1119,344,8.12,27.7806
-98,680,14.1224,-39.1392,0,0,0,0,0,0,0,-1,1126,344,14.1225,39.1392
-91,680,8.3208,-33.7806,0,0,0,0,0,0,0,-1,1133,344,8.32075,33.7806
-84,680,1.82312,-29.4396,0,0,0,0,0,0,0,-1,1140,344,1.82314,29.4396
-77,680,-4.53333,-23.1014,-0.0955418,-0.343124,0.212374,0.0264861,-0.465152,0.521526,0.319296,0.0458698,1147,344,-4.53331,23.1014
-70,680,-10.91,-16.7621,-0.093274,-0.329219,0.204456,0.0248036,-0.447297,0.523727,0.3068,0.0474892,1154,344,-10.91,16.7621
-63,680,-17.3995,-10.3387,0,0,0,0,0,0,0,-1,1161,344,-17.3996,10.3386
-56,680,-6.96912,-8.83356,0,0,0,0,0,0,0,-1,1168,344,-6.96907,8.83354
-49,680,-6.7677,-2.24063,0,0,0,0,0,0,0,-1,1175,344,-6.76772,2.24063
-42,680,-1.02368,0.618805,0,0,0,0,0,0,0,-1,1182,344,-1.0237,-0.618797
-35,680,-0.947876,-0.942719,0,0,0,0,0,0,0,-1,1189,344,-0.947842,0.942731
-28,680,-1.46118,-1.10574,0,0,0,0,0,0,0,-1,1196,344,-1.4612,1.10575
-21,680,5.75427,-36.5112,0,0,0,0,0,0,0,-1,1203,344,5.75432,36.5112
-14,680,5.6709,-36.5667,-0.0164536,0.0134093,-0.00945249,0.0161498,-0.0191941,-1.28861,0.020431,0.0471163,1210,344,5.67085,36.5667
-7,680,5.4635,-36.654,-0.0162046,0.0144096,-0.0106312,0.0177393,-0.0195343,-1.26728,0.0215282,0.0444965,1217,344,5.46356,36.654
0,680,5.70386,-35.6871,0,0,0,0,0,0,0,-1,1224,344,5.70387,35.6871
7,680,5.56934,-35.9569,0,0,0,0,0,0,0,-1,1231,344,5.56935,35.957
14,680,5.45996,-36.254,-0.016534,0.0131739,-0.0119322,0.017373,-0.0207331,-1.23242,0.022029,0.0441809,1238,344,5.46,36.254
21,680,5.26501,-36.5559,-0.0175612,0.0122569,-0.0121807,0.0166001,-0.0219044,-1.22829,0.0223008,0.045602,1245,344,5.26504,36.556
28,680,5.38037,-37.0021,0,0,0,0,0,0,0,-1,1252,344,5.38038,37.0021
35,680,5.2738,-37.0405,0,0,0,0,0,0,0,-1,1259,344,5.27383,37.0405
42,680,5.25928,-37.0084,0,0,0,0,0,0,0,-1,1266,344,5.25933,37.0084
49,680,4.57849,-37.0526,-0.0150282,0.0140405,-0.00840743,0.016297,-0.0172847,-1.30858,0.0193912,0.0420366,1273,344,4.57849,37.0526
56,680,4.6333,-37.08,-0.0124465,0.0161881,-0.00697409,0.0177964,-0.0140547,-1.34416,0.0184315,0.0432366,1280,344,4.63325,37.08
63,680,4.64575,-36.9406,-0.00976074,0.0186101,-0.00617088,0.0198942,-0.0110448,-1.36563,0.0181046,0.0439959,1287,344,4.6457,36.9406
70,680,4.57593,-36.7837,-0.0068696,0.0199528,-0.00580818,0.0211565,-0.00807329,-1.36645,0.0174302,0.0407764,1294,344,4.57596,36.7837
77,680,4.38037,-36.796,-0.00398408,0.0210554,-0.00527967,0.0221231,-0.00505179,-1.37126,0.0166895,0.0441776,1301,344,4.38041,36.796
84,680,4.93384,-37.1807,0,0,0,0,0,0,0,-1,1308,344,4.93378,37.1807
91,680,3.73132,-37.2604,0.00265524,0.0235223,-0.006492,0.0253772,0.00080038,-1.2925,0.0166578,0.0442486,1315,344,3.73129,37.2604
98,680,3.95081,-37.1527,0.00554481,0.0230327,-0.00641802,0.0251353,0.0034422,-1.25421,0.0157354,0.0458952,1322,344,3.95084,37.1527
105,680,4.14929,-37.0522,0.00800447,0.0226677,-0.00663598,0.0252249,0.00544727,-1.20298,0.015327,0.0479479,1329,344,4.14926,37.0523
112,680,4.55872,-35.6924,0,0,0,0,0,0,0,-1,1336,344,4.55867,35.6924
119,680,4.69629,-35.8374,0.00854867,0.0200212,-0.0073343,0.023596,0.00497383,-1.11727,0.0143627,0.0452235,1343,344,4.69629,35.8374
126,680,4.59753,-36.1389,0.00919896,0.0168838,-0.0067783,0.020833,0.00524976,-1.04325,0.0125115,0.0447716,1350,344,4.59754,36.1389
133,680,4.48743,-36.502,0.00867136,0.0141555,-0.00660333,0.0185634,0.0042634,-0.982192,0.0112276,0.046738,1357,344,4.48741,36.5019
140,680,4.59705,-36.6843,0.00770772,0.0111649,-0.00629107,0.0159606,0.00291209,-0.919474,0.00981475,0.0499454,1364,344,4.59704,36.6843
147,680,4.68518,-36.7957,0.00699461,0.0104241,-0.00387486,0.0129466,0.00447202,-0.993708,0.00759289,0.0478034,1371,344,4.6852,36.7958
154,680,4.8811,-37.1199,0,0,0,0,0,0,0,-1,1378,344,4.8811,37.1199
161,680,4.41431,-32.7739,0,0,0,0,0,0,0,-1,1385,344,4.41429,32.7739
168,680,29.4142,-2.51651,0,0,0,0,0,0,0,-1,1392,344,29.4142,2.51652
175,680,6.66541,0.942078,0,0,0,0,0,0,0,-1,1399,344,6.66538,-0.942088
182,680,6.52917,0.532379,0,0,0,0,0,0,0,-1,1406,344,6.52922,-0.532385
189,680,7.55884,4.77695,0,0,0,0,0,0,0,-1,1413,344,7.55886,-4.77694
196,680,6.55627,3.35254,0,0,0,0,0,0,0,-1,1420,344,6.55622,-3.35255
203,680,5.7334,1.90753,0,0,0,0,0,0,0,-1,1427,344,5.73341,-1.90754
210,680,5.27515,0.493622,0,0,0,0,0,0,0,-1,1434,344,5.27514,-0.493632
217,680,6.56384,-0.374176,0,0,0,0,0,0,0,-1,1441,344,6.56379,0.374176
224,680,3.9491,-0.640228,0,0,0,0,0,0,0,-1,1448,344,3.94908,0.64024
231,680,4.24866,-1.96881,0,0,0,0,0,0,0,-1,1455,344,4.2486,1.96882
238,680,4.29333,-3.23984,0,0,0,0,0,0,0,-1,1462,344,4.29332,3.23984
245,680,2.44397,0.985382,0,0,0,0,0,0,0,-1,1469,344,2.44402,-0.985394
252,680,3.07349,2.18951,0,0,0,0,0,0,0,-1,1476,344,3.0735,-2.18952
259,680,2.82971,1.30682,0,0,0,0,0,0,0,-1,1483,344,2.82972,-1.30684
266,680,2.67554,1.44067,0,0,0,0,0,0,0,-1,1490,344,2.67551,-1.44066
273,680,2.46411,1.54666,0,0,0,0,0,0,0,-1,1497,344,2.46407,-1.54666
280,680,0,0,0,0,0,0,0,0,0,-1,1504,344,0,0
287,680,0,0,0,0,0,0,0,0,0,-1,1511,344,0,0
294,680,0,0,0,0,0,0,0,0,0,-1,1518,344,0,0
301,680,0,0,0,0,0,0,0,0,0,-1,1525,344,0,0
308,680,0,0,0,0,0,0,0,0,0,-1,1532,344,0,0
315,680,0,0,0,0,0,0,0,0,0,-1,1539,344,0,0
322,680,0,0,0,0,0,0,0,0,0,-1,1546,344,0,0
329,680,0,0,0,0,0,0,0,0,0,-1,1553,344,0,0
336,680,0,0,0,0,0,0,0,0,0,-1,1560,344,0,0
343,680,0,0,0,0,0,0,0,0,0,-1,1567,344,0,0
350,680,0,0,0,0,0,0,0,0,0,-1,1574,344,0,0
357,680,0,0,0,0,0,0,0,0,0,-1,1581,344,0,0
364,680,0,0,0,0,0,0,0,0,0,-1,1588,344,0,0
371,680,0,0,0,0,0,0,0,0,0,-1,1595,344,0,0
378,680,0,0,0,0,0,0,0,0,0,-1,1602,344,0,0
385,680,0,0,0,0,0,0,0,0,0,-1,1609,344,0,0
392,680,0,0,0,0,0,0,0,0,0,-1,1616,344,0,0
399,680,0,0,0,0,0,0,0,0,0,-1,1623,344,0,0
406,680,0,0,0,0,0,0,0,0,0,-1,1630,344,0,0
413,680,0,0,0,0,0,0,0,0,0,-1,1637,344,0,0
420,680,0,0,0,0,0,0,0,0,0,-1,1644,344,0,0
427,680,0,0,0,0,0,0,0,0,0,-1,1651,344,0,0
434,680,0,0,0,0,0,0,0,0,0,-1,1658,344,0,0
441,680,0,0,0,0,0,0,0,0,0,-1,1665,344,0,0
448,680,0,0,0,0,0,0,0,0,0,-1,1672,344,0,0
455,680,0,0,0,0,0,0,0,0,0,-1,1679,344,0,0
462,680,0,0,0,0,0,0,0,0,0,-1,1686,344,0,0
469,680,0,0,0,0,0,0,0,0,0,-1,1693,344,0,0
476,680,0,0,0,0,0,0,0,0,0,-1,1700,344,0,0
483,680,0,0,0,0,0,0,0,0,0,-1,1707,344,0,0
490,680,0,0,0,0,0,0,0,0,0,-1,1714,344,0,0
497,680,0,0,0,0,0,0,0,0,0,-1,1721,344,0,0
504,680,0,0,0,0,0,0,0,0,0,-1,1728,344,0,0
511,680,0,0,0,0,0,0,0,0,0,-1,1735,344,0,0
518,680,0,0,0,0,0,0,0,0,0,-1,1742,344,0,0
525,680,0,0,0,0,0,0,0,0,0,-1,1749,344,0,0
532,680,0,0,0,0,0,0,0,0,0,-1,1756,344,0,0
539,680,0,0,0,0,0,0,0,0,0,-1,1763,344,0,0
546,680,0,0,0,0,0,0,0,0,0,-1,1770,344,0,0
553,680,0,0,0,0,0,0,0,0,0,-1,1777,344,0,0
560,680,0,0,0,0,0,0,0,0,0,-1,1784,344,0,0
567,680,0,0,0,0,0,0,0,0,0,-1,1791,344,0,0
574,680,0,0,0,0,0,0,0,0,0,-1,1798,344,0,0
581,680,0,0,0,0,0,0,0,0,0,-1,1805,344,0,0
588,680,0,0,0,0,0,0,0,0,0,-1,1812,344,0,0
595,680,0,0,0,0,0,0,0,0,0,-1,1819,344,0,0
602,680,0,0,0,0,0,0,0,0,0,-1,1826,344,0,0
609,680,0,0,0,0,0,0,0,0,0,-1,1833,344,0,0
616,680,0,0,0,0,0,0,0,0,0,-1,1840,344,0,0
623,680,0,0,0,0,0,0,0,0,0,-1,1847,344,0,0
630,680,0,0,0,0,0,0,0,0,0,-1,1854,344,0,0
637,680,0,0,0,0,0,0,0,0,0,-1,1861,344,0,0
644,680,0,0,0,0,0,0,0,0,0,-1,1868,344,0,0
651,680,0,0,0,0,0,0,0,0,0,-1,1875,344,0,0
658,680,0,0,0,0,0,0,0,0,0,-1,1882,344,0,0
665,680,0,0,0,0,0,0,0,0,0,-1,1889,344,0,0
672,680,0,0,0,0,0,0,0,0,0,-1,1896,344,0,0
679,680,0,0,0,0,0,0,0,0,0,-1,1903,344,0,0
686,680,0,0,0,0,0,0,0,0,0,-1,1910,344,0,0
693,680,0,0,0,0,0,0,0,0,0,-1,1917,344,0,0
700,680,0,0,0,0,0,0,0,0,0,-1,1924,344,0,0
707,680,0,0,0,0,0,0,0,0,0,-1,1931,344,0,0
714,680,0,0,0,0,0,0,0,0,0,-1,1938,344,0,0
721,680,0,0,0,0,0,0,0,0,0,-1,1945,344,0,0
728,680,0,0,0,0,0,0,0,0,0,-1,1952,344,0,0
735,680,0,0,0,0,0,0,0,0,0,-1,1959,344,0,0
742,680,0,0,0,0,0,0,0,0,0,-1,1966,344,0,0
749,680,0,0,0,0,0,0,0,0,0,-1,1973,344,0,0
756,680,0,0,0,0,0,0,0,0,0,-1,1980,344,0,0
763,680,0,0,0,0,0,0,0,0,0,-1,1987,344,0,0
770,680,0,0,0,0,0,0,0,0,0,-1,1994,344,0,0
777,680,0,0,0,0,0,0,0,0,0,-1,2001,344,0,0
784,680,0,0,0,0,0,0,0,0,0,-1,2008,344,0,0
791,680,0,0,0,0,0,0,0,0,0,-1,2015,344,0,0
798,680,0,0,0,0,0,0,0,0,0,-1,2022,344,0,0
805,680,0,0,0,0,0,0,0,0,0,-1,2029,344,0,0
812,680,0,0,0,0,0,0,0,0,0,-1,2036,344,0,0
-700,673,0,0,0,0,0,0,0,0,0,-1,524,351,0,0
-693,673,0,0,0,0,0,0,0,0,0,-1,531,351,0,0
-686,673,0,0,0,0,0,0,0,0,0,-1,538,351,0,0
-679,673,0,0,0,0,0,0,0,0,0,-1,545,351,0,0
-672,673,0,0,0,0,0,0,0,0,0,-1,552,351,0,0
-665,673,0,0,0,0,0,0,0,0,0,-1,559,351,0,0
-658,673,0,0,0,0,0,0,0,0,0,-1,566,351,0,0
-651,673,0,0,0,0,0,0,0,0,0,-1,573,351,0,0
-644,673,0,0,0,0,0,0,0,0,0,-1,580,351,0,0
-637,673,0,0,0,0,0,0,0,0,0,-1,587,351,0,0
-630,673,0,0,0,0,0,0,0,0,0,-1,594,351,0,0
-623,673,0,0,0,0,0,0,0,0,0,-1,601,351,0,0
-616,673,0,0,0,0,0,0,0,0,0,-1,608,351,0,0
-609,673,0,0,0,0,0,0,0,0,0,-1,615,351,0,0
-602,673,0,0,0,0,0,0,0,0,0,-1,622,351,0,0
-595,673,0,0,0,0,0,0,0,0,0,-1,629,351,0,0
-588,673,0,0,0,0,0,0,0,0,0,-1,636,351,0,0
-581,673,0,0,0,0,0,0,0,0,0,-1,643,351,0,0
-574,673,0,0,0,0,0,0,0,0,0,-1,650,351,0,0
-567,673,0,0,0,0,0,0,0,0,0,-1,657,351,0,0
-560,673,0,0,0,0,0,0,0,0,0,-1,664,351,0,0
-553,673,0,0,0,0,0,0,0,0,0,-1,671,351,0,0
-546,673,0,0,0,0,0,0,0,0,0,-1,678,351,0,0
-539,673,0,0,0,0,0,0,0,0,0,-1,685,351,0,0
-532,673,0,0,0,0,0,0,0,0,0,-1,692,351,0,0
-525,673,0,0,0,0,0,0,0,0,0,-1,699,351,0,0
-518,673,0,0,0,0,0,0,0,0,0,-1,706,351,0,0
-511,673,0,0,0,0,0,0,0,0,0,-1,713,351,0,0
-504,673,0,0,0,0,0,0,0,0,0,-1,720,351,0,0
-497,673,0,0,0,0,0,0,0,0,0,-1,727,351,0,0
-490,673,0,0,0,0,0,0,0,0,0,-1,734,351,0,0
-483,673,0,0,0,0,0,0,0,0,0,-1,741,351,0,0
-476,673,0,0,0,0,0,0,0,0,0,-1,748,351,0,0
-469,673,0,0,0,0,0,0,0,0,0,-1,755,351,0,0
-462,673,0,0,0,0,0,0,0,0,0,-1,762,351,0,0
-455,673,0,0,0,0,0,0,0,0,0,-1,769,351,0,0
-448,673,0,0,0,0,0,0,0,0,0,-1,776,351,0,0
-441,673,0,0,0,0,0,0,0,0,0,-1,783,351,0,0
-434,673,0,0,0,0,0,0,0,0,0,-1,790,351,0,0
-427,673,0,0,0,0,0,0,0,0,0,-1,797,351,0,0
-420,673,0,0,0,0,0,0,0,0,0,-1,804,351,0,0
-413,673,0,0,0,0,0,0,0,0,0,-1,811,351,0,0
-406,673,0,0,0,0,0,0,0,0,0,-1,818,351,0,0
-399,673,0,0,0,0,0,0,0,0,0,-1,825,351,0,0
-392,673,0,0,0,0,0,0,0,0,0,-1,832,351,0,0
-385,673,0,0,0,0,0,0,0,0,0,-1,839,351,0,0
-378,673,0,0,0,0,0,0,0,0,0,-1,846,351,0,0
-371,673,0,0,0,0,0,0,0,0,0,-1,853,351,0,0
-364,673,0,0,0,0,0,0,0,0,0,-1,860,351,0,0
-357,673,0,0,0,0,0,0,0,0,0,-1,867,351,0,0
-350,673,0,0,0,0,0,0,0,0,0,-1,874,351,0,0
-343,673,0,0,0,0,0,0,0,0,0,-1,881,351,0,0
-336,673,0,0,0,0,0,0,0,0,0,-1,888,351,0,0
-329,673,0,0,0,0,0,0,0,0,0,-1,895,351,0,0
-322,673,0,0,0,0,0,0,0,0,0,-1,902,351,0,0
-315,673,0,0,0,0,0,0,0,0,0,-1,909,351,0,0
-308,673,0,0,0,0,0,0,0,0,0,-1,916,351,0,0
-301,673,0,0,0,0,0,0,0,0,0,-1,923,351,0,0
-294,673,0,0,0,0,0,0,0,0,0,-1,930,351,0,0
-287,673,0,0,0,0,0,0,0,0,0,-1,937,351,0,0
-280,673,0,0,0,0,0,0,0,0,0,-1,944,351,0,0
-273,673,0,0,0,0,0,0,0,0,0,-1,951,351,0,0
-266,673,0,0,0,0,0,0,0,0,0,-1,958,351,0,0
-259,673,0,0,0,0,0,0,0,0,0,-1,965,351,0,0
-252,673,0,0,0,0,0,0,0,0,0,-1,972,351,0,0
-245,673,0,0,0,0,0,0,0,0,0,-1,979,351,0,0
-238,673,0,0,0,0,0,0,0,0,0,-1,986,351,0,0
-231,673,0,0,0,0,0,0,0,0,0,-1,993,351,0,0
-224,673,0,0,0,0,0,0,0,0,0,-1,1000,351,0,0
-217,673,0,0,0,0,0,0,0,0,0,-1,1007,351,0,0
-210,673,0,0,0,0,0,0,0,0,0,-1,1014,351,0,0
-203,673,0,0,0,0,0,0,0,0,0,-1,1021,351,0,0
-196,673,0,0,0,0,0,0,0,0,0,-1,1028,351,0,0
-189,673,0,0,0,0,0,0,0,0,0,-1,1035,351,0,0
-182,673,0,0,0,0,0,0,0,0,0,-1,1042,351,0,0
-175,673,9.33264,-32.7477,0,0,0,0,0,0,0,-1,1049,351,9.3327,32.7477
-168,673,9.9248,-33.8084,0,0,0,0,0,0,0,-1,1056,351,9.92476,33.8084
-161,673,3.83179,-32.918,0,0,0,0,0,0,0,-1,1063,351,3.83178,32.918
-154,673,6.04431,-32.6277,0,0,0,0,0,0,0,-1,1070,351,6.04435,32.6278
-147,673,5.61096,-30.1121,0,0,0,0,0,0,0,-1,1077,351,5.61101,30.1121
-140,673,8.06702,-32.7234,0,0,0,0,0,0,0,-1,1084,351,8.06698,32.7234
-133,673,6.7699,-31.9966,0,0,0,0,0,0,0,-1,1091,351,6.76984,31.9966
-126,673,5.62671,-31.7184,0,0,0,0,0,0,0,-1,1098,351,5.62665,31.7184
-119,673,4.35425,-31.4535,0,0,0,0,0,0,0,-1,1105,351,4.35425,31.4535
-112,673,6.6344,-29.6632,0,0,0,0,0,0,0,-1,1112,351,6.63446,29.6632
-105,673,6.17139,-28.5951,0,0,0,0,0,0,0,-1,1119,351,6.17133,28.5951
-98,673,14.6038,-34.1646,0,0,0,0,0,0,0,-1,1126,351,14.6038,34.1646
-91,673,8.68872,-31.1782,0,0,0,0,0,0,0,-1,1133,351,8.68868,31.1781
-84,673,2.53418,-25.4857,0,0,0,0,0,0,0,-1,1140,351,2.53421,25.4857
-77,673,-3.77112,-19.5626,-0.0729791,-0.253966,0.158463,0.0190091,-0.345954,0.525961,0.237226,0.0438946,1147,351,-3.77116,19.5625
-70,673,-10.0929,-13.4835,-0.0713905,-0.243044,0.152223,0.0175338,-0.331969,0.528701,0.227382,0.043794,1154,351,-10.0929,13.4835
-63,673,-16.5951,-7.37228,0,0,0,0,0,0,0,-1,1161,351,-16.595,7.37228
-56,673,-18.0282,2.79053,0,0,0,0,0,0,0,-1,1168,351,-18.0283,-2.79052
-49,673,-0.926758,-0.115448,0,0,0,0,0,0,0,-1,1175,351,-0.926732,0.115444
-42,673,-1.15015,0.289917,0,0,0,0,0,0,0,-1,1182,351,-1.15017,-0.289932
-35,673,-0.919556,-1.00711,0,0,0,0,0,0,0,-1,1189,351,-0.919514,1.00711
-28,673,3.19104,-25.0986,0,0,0,0,0,0,0,-1,1196,351,3.19099,25.0986
-21,673,5.50818,-36.572,0,0,0,0,0,0,0,-1,1203,351,5.50821,36.572
-14,673,5.48193,-36.7305,-0.013583,0.0141504,-0.00713737,0.0158795,-0.015312,-1.33312,0.0180094,0.0440777,1210,351,5.48189,36.7305
-7,673,5.42993,-36.8736,-0.0136761,0.0150199,-0.00786791,0.0170355,-0.0156917,-1.32,0.0189004,0.0420507,1217,351,5.42993,36.8736
0,673,5.35254,-36.966,-0.014234,0.0155495,-0.00839394,0.0177523,-0.0164368,-1.31416,0.0197439,0.0460091,1224,351,5.35249,36.966
7,673,5.25049,-37.0389,0,0,0,0,0,0,0,-1,1231,351,5.25043,37.0389
14,673,5.375,-36.8184,-0.0139187,0.0148253,-0.00874947,0.0172791,-0.0163725,-1.29737,0.0194311,0.0433038,1238,351,5.37505,36.8184
21,673,5.23035,-37.2021,-0.014756,0.0145303,-0.00896457,0.0170565,-0.0172822,-1.29612,0.0198256,0.0300995,1245,351,5.23035,37.2021
28,673,5.17859,-37.3276,-0.015056,0.0146307,-0.00887895,0.0170836,-0.0175089,-1.30126,0.0199725,0.0219682,1252,351,5.17863,37.3276
35,673,5.14172,-37.2922,-0.0146469,0.0155552,-0.00807163,0.0175771,-0.0166687,-1.32536,0.0197741,0.0315129,1259,351,5.14172,37.2922
42,673,5.00427,-37.2836,-0.014114,0.0159375,-0.00771883,0.0178041,-0.0159806,-1.33352,0.0195151,0.0311171,1266,351,5.00422,37.2836
49,673,4.8678,-37.4155,-0.012647,0.0167943,-0.00710822,0.0184207,-0.0142734,-1.34587,0.0189265,0.0190516,1273,351,4.8678,37.4155
56,673,4.8429,-37.3995,-0.0105914,0.0185867,-0.00628326,0.0198822,-0.0118869,-1.36746,0.0185345,0.0169285,1280,351,4.84294,37.3995
63,673,4.90051,-37.2022,-0.00843276,0.0203506,-0.00585371,0.0214956,-0.0095777,-1.37764,0.0183747,0.0207205,1287,351,4.90047,37.2022
70,673,4.86633,-37.1319,-0.00606637,0.0211453,-0.00562404,0.0222619,-0.00718292,-1.37481,0.0177274,0.0317561,1294,351,4.8663,37.1319
77,673,5.22375,-37.0768,0,0,0,0,0,0,0,-1,1301,351,5.22378,37.0767
84,673,4.9292,-37.3493,0,0,0,0,0,0,0,-1,1308,351,4.92918,37.3493
91,673,4.81287,-37.479,0,0,0,0,0,0,0,-1,1315,351,4.81281,37.479
98,673,4.47375,-37.3468,0,0,0,0,0,0,0,-1,1322,351,4.47378,37.3468
105,673,4.20227,-37.1617,0,0,0,0,0,0,0,-1,1329,351,4.20227,37.1617
112,673,4.42517,-36.3097,0,0,0,0,0,0,0,-1,1336,351,4.42523,36.3097
119,673,4.48022,-36.5775,0,0,0,0,0,0,0,-1,1343,351,4.48027,36.5775
126,673,4.3573,-36.4876,0.00675245,0.0173521,-0.00392628,0.018648,0.00545653,-1.25199,0.0110709,0.04411,1350,351,4.35731,36.4876
133,673,4.42139,-36.4555,0.00627852,0.0151787,-0.00319087,0.0162044,0.00525276,-1.25976,0.00954654,0.0437594,1357,351,4.42142,36.4555
140,673,4.53296,-36.338,0.00527626,0.0130357,-0.00261629,0.0138354,0.00447653,-1.27414,0.00815196,0.04357,1364,351,4.5329,36.3381
147,673,3.92456,-36.2489,0.00446848,0.0126417,-0.00076845,0.0127133,0.00439686,-1.47786,0.00745541,0.0456681,1371,351,3.92451,36.2489
154,673,4.02124,-35.6252,0.00375058,0.0122617,0.000981123,0.0123733,0.00363895,1.4575,0.00734287,0.0422209,1378,351,4.02124,35.6252
161,673,4.07751,-35.5889,0,0,0,0,0,0,0,-1,1385,351,4.07751,35.5889
168,673,6.87061,1.83954,0,0,0,0,0,0,0,-1,1392,351,6.87063,-1.83953
175,673,6.6228,1.1459,0,0,0,0,0,0,0,-1,1399,351,6.62276,-1.14591
182,673,6.37244,0.796112,0,0,0,0,0,0,0,-1,1406,351,6.3724,-0.796102
189,673,6.12097,0.265472,0,0,0,0,0,0,0,-1,1413,351,6.121,-0.265482
196,673,6.02173,3.12717,0,0,0,0,0,0,0,-1,1420,351,6.02176,-3.12717
203,673,5.04456,1.6351,0,0,0,0,0,0,0,-1,1427,351,5.04455,-1.63509
210,673,4.79224,0.447479,0,0,0,0,0,0,0,-1,1434,351,4.79229,-0.447469
217,673,2.01648,0.972687,0,0,0,0,0,0,0,-1,1441,351,2.01644,-0.972691
224,673,2.3689,-1.80539,0,0,0,0,0,0,0,-1,1448,351,2.36896,1.80539
231,673,2.65857,-2.18497,0,0,0,0,0,0,0,-1,1455,351,2.65852,2.18496
238,673,3.77844,-2.06088,0,0,0,0,0,0,0,-1,1462,351,3.77839,2.06088
245,673,3.5376,-0.190399,0,0,0,0,0,0,0,-1,1469,351,3.53759,0.1904
252,673,3.80518,0.55603,0,0,0,0,0,0,0,-1,1476,351,3.80519,-0.556022
259,673,3.88562,1.29617,0,0,0,0,0,0,0,-1,1483,351,3.88562,-1.29618
266,673,4.22424,2.04834,0,0,0,0,0,0,0,-1,1490,351,4.22429,-2.04834
273,673,6.07886,0.385895,0,0,0,0,0,0,0,-1,1497,351,6.0789,-0.385906
280,673,6.97534,-0.0820007,0,0,0,0,0,0,0,-1,1504,351,6.97536,0.0820122
287,673,7.66968,-0.348541,0,0,0,0,0,0,0,-1,1511,351,7.66969,0.348534
294,673,8.20996,0.28537,0,0,0,0,0,0,0,-1,1518,351,8.20993,-0.28536
301,673,0,0,0,0,0,0,0,0,0,-1,1525,351,0,0
308,673,0,0,0,0,0,0,0,0,0,-1,1532,351,0,0
315,673,0,0,0,0,0,0,0,0,0,-1,1539,351,0,0
322,673,0,0,0,0,0,0,0,0,0,-1,1546,351,0,0
329,673,0,0,0,0,0,0,0,0,0,-1,1553,351,0,0
336,673,0,0,0,0,0,0,0,0,0,-1,1560,351,0,0
343,673,0,0,0,0,0,0,0,0,0,-1,1567,351,0,0
350,673,0,0,0,0,0,0,0,0,0,-1,1574,351,0,0
357,673,0,0,0,0,0,0,0,0,0,-1,1581,351,0,0
364,673,0,0,0,0,0,0,0,0,0,-1,1588,351,0,0
371,673,0,0,0,0,0,0,0,0,0,-1,1595,351,0,0
378,673,0,0,0,0,0,0,0,0,0,-1,1602,351,0,0
385,673,0,0,0,0,0,0,0,0,0,-1,1609,351,0,0
392,673,0,0,0,0,0,0,0,0,0,-1,1616,351,0,0
399,673,0,0,0,0,0,0,0,0,0,-1,1623,351,0,0
406,673,0,0,0,0,0,0,0,0,0,-1,1630,351,0,0
413,673,0,0,0,0,0,0,0,0,0,-1,1637,351,0,0
420,673,0,0,0,0,0,0,0,0,0,-1,1644,351,0,0
427,673,0,0,0,0,0,0,0,0,0,-1,1651,351,0,0
434,673,0,0,0,0,0,0,0,0,0,-1,1658,351,0,0
441,673,0,0,0,0,0,0,0,0,0,-1,1665,351,0,0
448,673,0,0,0,0,0,0,0,0,0,-1,1672,351,0,0
455,673,0,0,0,0,0,0,0,0,0,-1,1679,351,0,0
462,673,0,0,0,0,0,0,0,0,0,-1,1686,351,0,0
469,673,0,0,0,0,0,0,0,0,0,-1,1693,351,0,0
476,673,0,0,0,0,0,0,0,0,0,-1,1700,351,0,0
483,673,0,0,0,0,0,0,0,0,0,-1,1707,351,0,0
490,673,0,0,0,0,0,0,0,0,0,-1,1714,351,0,0
497,673,0,0,0,0,0,0,0,0,0,-1,1721,351,0,0
504,673,0,0,0,0,0,0,0,0,0,-1,1728,351,0,0
511,673,0,0,0,0,0,0,0,0,0,-1,1735,351,0,0
518,673,0,0,0,0,0,0,0,0,0,-1,1742,351,0,0
525,673,0,0,0,0,0,0,0,0,0,-1,1749,351,0,0
532,673,0,0,0,0,0,0,0,0,0,-1,1756,351,0,0
539,673,0,0,0,0,0,0,0,0,0,-1,1763,351,0,0
546,673,0,0,0,0,0,0,0,0,0,-1,1770,351,0,0
553,673,0,0,0,0,0,0,0,0,0,-1,1777,351,0,0
560,673,0,0,0,0,0,0,0,0,0,-1,1784,351,0,0
567,673,0,0,0,0,0,0,0,0,0,-1,1791,351,0,0
574,673,0,0,0,0,0,0,0,0,0,-1,1798,351,0,0
581,673,0,0,0,0,0,0,0,0,0,-1,1805,351,0,0
588,673,0,0,0,0,0,0,0,0,0,-1,1812,351,0,0
595,673,0,0,0,0,0,0,0,0,0,-1,1819,351,0,0
602,673,0,0,0,0,0,0,0,0,0,-1,1826,351,0,0
609,673,0,0,0,0,0,0,0,0,0,-1,1833,351,0,0
616,673,0,0,0,0,0,0,0,0,0,-1,1840,351,0,0
623,673,0,0,0,0,0,0,0,0,0,-1,1847,351,0,0
630,673,0,0,0,0,0,0,0,0,0,-1,1854,351,0,0
637,673,0,0,0,0,0,0,0,0,0,-1,1861,351,0,0
644,673,0,0,0,0,0,0,0,0,0,-1,1868,351,0,0
651,673,0,0,0,0,0,0,0,0,0,-1,1875,351,0,0
658,673,0,0,0,0,0,0,0,0,0,-1,1882,351,0,0
665,673,0,0,0,0,0,0,0,0,0,-1,1889,351,0,0
672,673,0,0,0,0,0,0,0,0,0,-1,1896,351,0,0
679,673,0,0,0,0,0,0,0,0,0,-1,1903,351,0,0
686,673,0,0,0,0,0,0,0,0,0,-1,1910,351,0,0
693,673,0,0,0,0,0,0,0,0,0,-1,1917,351,0,0
700,673,0,0,0,0,0,0,0,0,0,-1,1924,351,0,0
707,673,0,0,0,0,0,0,0,0,0,-1,1931,351,0,0
714,673,0,0,0,0,0,0,0,0,0,-1,1938,351,0,0
721,673,0,0,0,0,0,0,0,0,0,-1,1945,351,0,0
728,673,0,0,0,0,0,0,0,0,0,-1,1952,351,0,0
735,673,0,0,0,0,0,0,0,0,0,-1,1959,351,0,0
742,673,0,0,0,0,0,0,0,0,0,-1,1966,351,0,0
749,673,0,0,0,0,0,0,0,0,0,-1,1973,351,0,0
756,673,0,0,0,0,0,0,0,0,0,-1,1980,351,0,0
763,673,0,0,0,0,0,0,0,0,0,-1,1987,351,0,0
770,673,0,0,0,0,0,0,0,0,0,-1,1994,351,0,0
777,673,0,0,0,0,0,0,0,0,0,-1,2001,351,0,0
784,673,0,0,0,0,0,0,0,0,0,-1,2008,351,0,0
791,673,0,0,0,0,0,0,0,0,0,-1,2015,351,0,0
798,673,0,0,0,0,0,0,0,0,0,-1,2022,351,0,0
805,673,0,0,0,0,0,0,0,0,0,-1,2029,351,0,0
812,673,0,0,0,0,0,0,0,0,0,-1,2036,351,0,0
-700,666,0,0,0,0,0,0,0,0,0,-1,524,358,0,0
-693,666,0,0,0,0,0,0,0,0,0,-1,531,358,0,0
-686,666,0,0,0,0,0,0,0,0,0,-1,538,358,0,0
-679,666,0,0,0,0,0,0,0,0,0,-1,545,358,0,0
-672,666,0,0,0,0,0,0,0,0,0,-1,552,358,0,0
-665,666,0,0,0,0,0,0,0,0,0,-1,559,358,0,0
-658,666,0,0,0,0,0,0,0,0,0,-1,566,358,0,0
-651,666,0,0,0,0,0,0,0,0,0,-1,573,358,0,0
-644,666,0,0,0,0,0,0,0,0,0,-1,580,358,0,0
-637,666,0,0,0,0,0,0,0,0,0,-1,587,358,0,0
-630,666,0,0,0,0,0,0,0,0,0,-1,594,358,0,0
-623,666,0,0,0,0,0,0,0,0,0,-1,601,358,0,0
-616,666,0,0,0,0,0,0,0,0,0,-1,608,358,0,0
-609,666,0,0,0,0,0,0,0,0,0,-1,615,358,0,0
-602,666,0,0,0,0,0,0,0,0,0,-1,622,358,0,0
-595,666,0,0,0,0,0,0,0,0,0,-1,629,358,0,0
-588,666,0,0,0,0,0,0,0,0,0,-1,636,358,0,0
-581,666,0,0,0,0,0,0,0,0,0,-1,643,358,0,0
-574,666,0,0,0,0,0,0,0,0,0,-1,650,358,0,0
-567,666,0,0,0,0,0,0,0,0,0,-1,657,358,0,0
-560,666,0,0,0,0,0,0,0,0,0,-1,664,358,0,0
-553,666,0,0,0,0,0,0,0,0,0,-1,671,358,0,0
-546,666,0,0,0,0,0,0,0,0,0,-1,678,358,0,0
-539,666,0,0,0,0,0,0,0,0,0,-1,685,358,0,0
-532,666,0,0,0,0,0,0,0,0,0,-1,692,358,0,0
-525,666,0,0,0,0,0,0,0,0,0,-1,699,358,0,0
-518,666,0,0,0,0,0,0,0,0,0,-1,706,358,0,0
-511,666,0,0,0,0,0,0,0,0,0,-1,713,358,0,0
-504,666,0,0,0,0,0,0,0,0,0,-1,720,358,0,0
-497,666,0,0,0,0,0,0,0,0,0,-1,727,358,0,0
-490,666,0,0,0,0,0,0,0,0,0,-1,734,358,0,0
-483,666,0,0,0,0,0,0,0,0,0,-1,741,358,0,0
-476,666,0,0,0,0,0,0,0,0,0,-1,748,358,0,0
-469,666,0,0,0,0,0,0,0,0,0,-1,755,358,0,0
-462,666,0,0,0,0,0,0,0,0,0,-1,762,358,0,0
-455,666,0,0,0,0,0,0,0,0,0,-1,769,358,0,0
-448,666,0,0,0,0,0,0,0,0,0,-1,776,358,0,0
-441,666,0,0,0,0,0,0,0,0,0,-1,783,358,0,0
-434,666,0,0,0,0,0,0,0,0,0,-1,790,358,0,0
-427,666,0,0,0,0,0,0,0,0,0,-1,797,358,0,0
-420,666,0,0,0,0,0,0,0,0,0,-1,804,358,0,0
-413,666,0,0,0,0,0,0,0,0,0,-1,811,358,0,0
-406,666,0,0,0,0,0,0,0,0,0,-1,818,358,0,0
-399,666,0,0,0,0,0,0,0,0,0,-1,825,358,0,0
-392,666,0,0,0,0,0,0,0,0,0,-1,832,358,0,0
-385,666,0,0,0,0,0,0,0,0,0,-1,839,358,0,0
-378,666,0,0,0,0,0,0,0,0,0,-1,846,358,0,0
-371,666,0,0,0,0,0,0,0,0,0,-1,853,358,0,0
-364,666,0,0,0,0,0,0,0,0,0,-1,860,358,0,0
-357,666,0,0,0,0,0,0,0,0,0,-1,867,358,0,0
-350,666,0,0,0,0,0,0,0,0,0,-1,874,358,0,0
-343,666,0,0,0,0,0,0,0,0,0,-1,881,358,0,0
-336,666,0,0,0,0,0,0,0,0,0,-1,888,358,0,0
-329,666,0,0,0,0,0,0,0,0,0,-1,895,358,0,0
-322,666,0,0,0,0,0,0,0,0,0,-1,902,358,0,0
-315,666,0,0,0,0,0,0,0,0,0,-1,909,358,0,0
-308,666,0,0,0,0,0,0,0,0,0,-1,916,358,0,0
-301,666,0,0,0,0,0,0,0,0,0,-1,923,358,0,0
-294,666,0,0,0,0,0,0,0,0,0,-1,930,358,0,0
-287,666,0,0,0,0,0,0,0,0,0,-1,937,358,0,0
-280,666,0,0,0,0,0,0,0,0,0,-1,944,358,0,0
-273,666,0,0,0,0,0,0,0,0,0,-1,951,358,0,0
-266,666,0,0,0,0,0,0,0,0,0,-1,958,358,0,0
-259,666,0,0,0,0,0,0,0,0,0,-1,965,358,0,0
-252,666,0,0,0,0,0,0,0,0,0,-1,972,358,0,0
-245,666,0,0,0,0,0,0,0,0,0,-1,979,358,0,0
-238,666,0,0,0,0,0,0,0,0,0,-1,986,358,0,0
-231,666,0,0,0,0,0,0,0,0,0,-1,993,358,0,0
-224,666,0,0,0,0,0,0,0,0,0,-1,1000,358,0,0
-217,666,0,0,0,0,0,0,0,0,0,-1,1007,358,0,0
-210,666,0,0,0,0,0,0,0,0,0,-1,1014,358,0,0
-203,666,0,0,0,0,0,0,0,0,0,-1,1021,358,0,0
-196,666,7.92236,-27.6686,0,0,0,0,0,0,0,-1,1028,358,7.92241,27.6686
-189,666,7.07886,-28.8208,0,0,0,0,0,0,0,-1,1035,358,7.07886,28.8208
-182,666,6.23694,-29.9142,0,0,0,0,0,0,0,-1,1042,358,6.23689,29.9142
-175,666,8.39709,-31.924,0,0,0,0,0,0,0,-1,1049,358,8.39714,31.924
-168,666,4.02051,-31.6763,0,0,0,0,0,0,0,-1,1056,358,4.02045,31.6763
-161,666,4.15894,-32.6132,0,0,0,0,0,0,0,-1,1063,358,4.1589,32.6132
-154,666,4.29736,-33.5501,0,0,0,0,0,0,0,-1,1070,358,4.29735,33.5502
-147,666,5.96008,-32.2537,0,0,0,0,0,0,0,-1,1077,358,5.96009,32.2537
-140,666,8.11902,-31.8993,0,0,0,0,0,0,0,-1,1084,358,8.11903,31.8993
-133,666,6.89063,-31.8772,0,0,0,0,0,0,0,-1,1091,358,6.89067,31.8772
-126,666,5.61548,-31.9033,0,0,0,0,0,0,0,-1,1098,358,5.61542,31.9033
-119,666,6.81653,-33.7501,0,0,0,0,0,0,0,-1,1105,358,6.81651,33.7501
-112,666,6.13318,-30.696,0,0,0,0,0,0,0,-1,1112,358,6.13319,30.696
-105,666,6.30908,-29.0855,0,0,0,0,0,0,0,-1,1119,358,6.30905,29.0855
-98,666,3.5968,-23.5447,0,0,0,0,0,0,0,-1,1126,358,3.59686,23.5447
-91,666,9.5127,-25.1347,0,0,0,0,0,0,0,-1,1133,358,9.51269,25.1347
-84,666,3.21387,-21.3196,0,0,0,0,0,0,0,-1,1140,358,3.21393,21.3196
-77,666,-3.04004,-15.7236,0,0,0,0,0,0,0,-1,1147,358,-3.04,15.7236
-70,666,-9.33752,-9.77725,0,0,0,0,0,0,0,-1,1154,358,-9.33753,9.77726
-63,666,-11.7778,-0.975189,0,0,0,0,0,0,0,-1,1161,358,-11.7778,0.97519
-56,666,0.424683,-2.04132,0,0,0,0,0,0,0,-1,1168,358,0.424665,2.04132
-49,666,0.754395,-2.23169,0,0,0,0,0,0,0,-1,1175,358,0.754383,2.23169
-42,666,1.34473,-3.53897,0,0,0,0,0,0,0,-1,1182,358,1.34476,3.53896
-35,666,5.26318,-36.7814,0,0,0,0,0,0,0,-1,1189,358,5.26321,36.7814
-28,666,5.43372,-36.7621,0,0,0,0,0,0,0,-1,1196,358,5.4337,36.7621
-21,666,5.34644,-36.7558,-0.0134599,0.00207473,0.00166174,0.0022505,-0.0136357,1.46541,0.00992604,0.0331007,1203,358,5.34648,36.7558
-14,666,5.25098,-36.9081,-0.0108282,0.0135492,-0.00521849,0.0146193,-0.0118983,-1.36853,0.0153368,0.0306211,1210,358,5.25097,36.9081
-7,666,5.26099,-37.0368,-0.0110421,0.0143093,-0.00565044,0.0155117,-0.0122444,-1.36113,0.016062,0.0206424,1217,358,5.26104,37.0368
0,666,5.28076,-37.1803,-0.0115104,0.0148786,-0.00603061,0.0161914,-0.0128232,-1.35644,0.0167892,0.0138623,1224,358,5.28072,37.1803
7,666,5.20007,-37.2689,-0.0113306,0.0151718,-0.00622531,0.0165613,-0.0127201,-1.3512,0.016954,0.0187162,1231,358,5.20011,37.2688
14,666,5.15503,-37.2872,-0.0111653,0.0147477,-0.00625222,0.0161774,-0.0125949,-1.346,0.0166546,0.0189347,1238,358,5.15508,37.2872
21,666,5.10486,-37.4403,-0.0118023,0.0148172,-0.0064269,0.0162876,-0.0132728,-1.34587,0.0170963,0.013997,1245,358,5.10481,37.4403
28,666,5.05591,-37.5567,-0.0120099,0.0151891,-0.00654225,0.0166809,-0.0135017,-1.3466,0.0174581,0.0152528,1252,358,5.05592,37.5567
35,666,5.03918,-37.5496,-0.0116614,0.0159854,-0.00613312,0.0172849,-0.0129608,-1.362,0.0175217,0.01414,1259,358,5.03914,37.5496
42,666,4.96997,-37.5911,-0.0112314,0.0163788,-0.00601498,0.0176322,-0.0124849,-1.36534,0.0174726,0.0137529,1266,358,4.96998,37.5911
49,666,4.89624,-37.6427,-0.0101049,0.0170597,-0.0057196,0.0182149,-0.0112601,-1.37151,0.0171746,0.0117648,1273,358,4.89621,37.6427
56,666,4.87195,-37.6514,-0.00853599,0.0184742,-0.00527524,0.0194679,-0.00952972,-1.3846,0.0170664,0.0142093,1280,358,4.87191,37.6514
63,666,4.81042,-37.702,-0.00689431,0.0196986,-0.00507605,0.0206346,-0.00783028,-1.38845,0.0169794,0.0167848,1287,358,4.81044,37.702
70,666,4.79846,-37.6516,-0.00506508,0.0201139,-0.00492562,0.0210432,-0.00599435,-1.38433,0.0163963,0.0157044,1294,358,4.79845,37.6516
77,666,4.75354,-37.5442,-0.00323494,0.0205286,-0.00460386,0.0213894,-0.0040957,-1.38597,0.0158028,0.0214214,1301,358,4.75356,37.5442
84,666,4.75989,-37.5934,-0.00113592,0.0212041,-0.00468292,0.022146,-0.00207785,-1.3723,0.0155031,0.0301558,1308,358,4.75985,37.5934
91,666,4.71375,-37.6176,0.000825716,0.0211652,-0.00489646,0.0222826,-0.000291657,-1.34644,0.0149532,0.0257415,1315,358,4.71372,37.6176
98,666,4.57642,-37.5171,0.00255259,0.0203709,-0.00438372,0.021391,0.0015325,-1.34216,0.0137783,0.0208656,1322,358,4.57645,37.5171
105,666,4.49072,-37.369,0.00400752,0.0198963,-0.00383277,0.0207726,0.00313129,-1.34604,0.0129316,0.0234507,1329,358,4.49071,37.369
112,666,4.46423,-37.2594,0,0,0,0,0,0,0,-1,1336,358,4.4642,37.2594
119,666,4.33118,-36.9301,0,0,0,0,0,0,0,-1,1343,358,4.3312,36.9301
126,666,4.30103,-36.8246,0.00466697,0.0163964,-0.00196689,0.0167175,0.00434593,-1.409,0.0100157,0.0314267,1350,358,4.30105,36.8246
133,666,4.26892,-36.7403,0.00424168,0.0147409,-0.00102047,0.0148392,0.00414342,-1.4748,0.00884143,0.0273976,1357,358,4.26895,36.7403
140,666,4.21838,-36.7351,0.00330932,0.0132716,-0.000365556,0.013285,0.00329592,-1.53417,0.00798802,0.0259874,1364,358,4.21844,36.7351
147,666,4.11755,-36.5248,0.00252228,0.0130727,0.00100142,0.013167,0.00242807,1.477,0.00809098,0.024013,1371,358,4.11759,36.5248
154,666,4.11194,-36.1706,0.00172532,0.0128168,0.00224018,0.0132521,0.00128995,1.37884,0.00843771,0.0219725,1378,358,4.11198,36.1706
161,666,4.14282,-35.9646,0.00111536,0.012889,0.003284,0.013743,0.000261311,1.31637,0.00907617,0.0290519,1385,358,4.14281,35.9646
168,666,4.06592,-36.0295,0,0,0,0,0,0,0,-1,1392,358,4.06588,36.0295
175,666,4.18945,-35.9155,0,0,0,0,0,0,0,-1,1399,358,4.18946,35.9155
182,666,2.60876,-5.17068,0,0,0,0,0,0,0,-1,1406,358,2.6088,5.17068
189,666,2.46973,-5.49979,0,0,0,0,0,0,0,-1,1413,358,2.46975,5.49979
196,666,2.32458,-5.23651,0,0,0,0,0,0,0,-1,1420,358,2.32461,5.23653
203,666,2.28064,-3.88004,0,0,0,0,0,0,0,-1,1427,358,2.28059,3.88003
210,666,3.02576,-5.83548,0,0,0,0,0,0,0,-1,1434,358,3.02581,5.83547
217,666,2.30444,-5.36011,0,0,0,0,0,0,0,-1,1441,358,2.30447,5.3601
224,666,1.82324,-6.03101,0,0,0,0,0,0,0,-1,1448,358,1.82322,6.031
231,666,2.29797,-10.1093,0,0,0,0,0,0,0,-1,1455,358,2.29801,10.1093
238,666,2.52429,-6.10568,0,0,0,0,0,0,0,-1,1462,358,2.52423,6.10567
245,666,4.53345,-1.38205,0,0,0,0,0,0,0,-1,1469,358,4.53349,1.38204
252,666,4.77405,-0.246979,0,0,0,0,0,0,0,-1,1476,358,4.77405,0.246993
259,666,4.83655,1.14087,0,0,0,0,0,0,0,-1,1483,358,4.83652,-1.14087
266,666,6.14148,0.749512,0,0,0,0,0,0,0,-1,1490,358,6.14144,-0.749519
273,666,2.61304,-1.53772,0,0,0,0,0,0,0,-1,1497,358,2.613,1.53773
280,666,-8.74878,-17.2596,0,0,0,0,0,0,0,-1,1504,358,-8.74875,17.2596
287,666,-7.06934,-20.3464,0,0,0,0,0,0,0,-1,1511,358,-7.06933,20.3464
294,666,-6.58936,-22.1429,0,0,0,0,0,0,0,-1,1518,358,-6.58934,22.1429
301,666,-6.78711,-23.9803,0,0,0,0,0,0,0,-1,1525,358,-6.78706,23.9803
308,666,1.08496,-1.87576,0,0,0,0,0,0,0,-1,1532,358,1.08491,1.87575
315,666,1.76294,-0.284027,0,0,0,0,0,0,0,-1,1539,358,1.76291,0.284016
322,666,0,0,0,0,0,0,0,0,0,-1,1546,358,0,0
329,666,0,0,0,0,0,0,0,0,0,-1,1553,358,0,0
336,666,0,0,0,0,0,0,0,0,0,-1,1560,358,0,0
343,666,0,0,0,0,0,0,0,0,0,-1,1567,358,0,0
350,666,0,0,0,0,0,0,0,0,0,-1,1574,358,0,0
357,666,0,0,0,0,0,0,0,0,0,-1,1581,358,0,0
364,666,0,0,0,0,0,0,0,0,0,-1,1588,358,0,0
371,666,0,0,0,0,0,0,0,0,0,-1,1595,358,0,0
378,666,0,0,0,0,0,0,0,0,0,-1,1602,358,0,0
385,666,0,0,0,0,0,0,0,0,0,-1,1609,358,0,0
392,666,0,0,0,0,0,0,0,0,0,-1,1616,358,0,0
399,666,0,0,0,0,0,0,0,0,0,-1,1623,358,0,0
406,666,0,0,0,0,0,0,0,0,0,-1,1630,358,0,0
413,666,0,0,0,0,0,0,0,0,0,-1,1637,358,0,0
420,666,0,0,0,0,0,0,0,0,0,-1,1644,358,0,0
427,666,0,0,0,0,0,0,0,0,0,-1,1651,358,0,0
434,666,0,0,0,0,0,0,0,0,0,-1,1658,358,0,0
441,666,0,0,0,0,0,0,0,0,0,-1,1665,358,0,0
448,666,0,0,0,0,0,0,0,0,0,-1,1672,358,0,0
455,666,0,0,0,0,0,0,0,0,0,-1,1679,358,0,0
462,666,0,0,0,0,0,0,0,0,0,-1,1686,358,0,0
469,666,0,0,0,0,0,0,0,0,0,-1,1693,358,0,0
476,666,0,0,0,0,0,0,0,0,0,-1,1700,358,0,0
483,666,0,0,0,0,0,0,0,0,0,-1,1707,358,0,0
490,666,0,0,0,0,0,0,0,0,0,-1,1714,358,0,0
497,666,0,0,0,0,0,0,0,0,0,-1,1721,358,0,0
504,666,0,0,0,0,0,0,0,0,0,-1,1728,358,0,0
511,666,0,0,0,0,0,0,0,0,0,-1,1735,358,0,0
518,666,0,0,0,0,0,0,0,0,0,-1,1742,358,0,0
525,666,0,0,0,0,0,0,0,0,0,-1,1749,358,0,0
532,666,0,0,0,0,0,0,0,0,0,-1,1756,358,0,0
539,666,0,0,0,0,0,0,0,0,0,-1,1763,358,0,0
546,666,0,0,0,0,0,0,0,0,0,-1,1770,358,0,0
553,666,0,0,0,0,0,0,0,0,0,-1,1777,358,0,0
560,666,0,0,0,0,0,0,0,0,0,-1,1784,358,0,0
567,666,0,0,0,0,0,0,0,0,0,-1,1791,358,0,0
574,666,0,0,0,0,0,0,0,0,0,-1,1798,358,0,0
581,666,0,0,0,0,0,0,0,0,0,-1,1805,358,0,0
588,666,0,0,0,0,0,0,0,0,0,-1,1812,358,0,0
595,666,0,0,0,0,0,0,0,0,0,-1,1819,358,0,0
602,666,0,0,0,0,0,0,0,0,0,-1,1826,358,0,0
609,666,0,0,0,0,0,0,0,0,0,-1,1833,358,0,0
616,666,0,0,0,0,0,0,0,0,0,-1,1840,358,0,0
623,666,0,0,0,0,0,0,0,0,0,-1,1847,358,0,0
630,666,0,0,0,0,0,0,0,0,0,-1,1854,358,0,0
637,666,0,0,0,0,0,0,0,0,0,-1,1861,358,0,0
644,666,0,0,0,0,0,0,0,0,0,-1,1868,358,0,0
651,666,0,0,0,0,0,0,0,0,0,-1,1875,358,0,0
658,666,0,0,0,0,0,0,0,0,0,-1,1882,358,0,0
665,666,0,0,0,0,0,0,0,0,0,-1,1889,358,0,0
672,666,0,0,0,0,0,0,0,0,0,-1,1896,358,0,0
679,666,0,0,0,0,0,0,0,0,0,-1,1903,358,0,0
686,666,0,0,0,0,0,0,0,0,0,-1,1910,358,0,0
693,666,0,0,0,0,0,0,0,0,0,-1,1917,358,0,0
700,666,0,0,0,0,0,0,0,0,0,-1,1924,358,0,0
707,666,0,0,0,0,0,0,0,0,0,-1,1931,358,0,0
714,666,0,0,0,0,0,0,0,0,0,-1,1938,358,0,0
721,666,0,0,0,0,0,0,0,0,0,-1,1945,358,0,0
728,666,0,0,0,0,0,0,0,0,0,-1,1952,358,0,0
735,666,0,0,0,0,0,0,0,0,0,-1,1959,358,0,0
742,666,0,0,0,0,0,0,0,0,0,-1,1966,358,0,0
749,666,0,0,0,0,0,0,0,0,0,-1,1973,358,0,0
756,666,0,0,0,0,0,0,0,0,0,-1,1980,358,0,0
763,666,0,0,0,0,0,0,0,0,0,-1,1987,358,0,0
770,666,0,0,0,0,0,0,0,0,0,-1,1994,358,0,0
777,666,0,0,0,0,0,0,0,0,0,-1,2001,358,0,0
784,666,0,0,0,0,0,0,0,0,0,-1,2008,358,0,0
791,666,0,0,0,0,0,0,0,0,0,-1,2015,358,0,0
798,666,0,0,0,0,0,0,0,0,0,-1,2022,358,0,0
805,666,0,0,0,0,0,0,0,0,0,-1,2029,358,0,0
812,666,0,0,0,0,0,0,0,0,0,-1,2036,358,0,0
-700,659,0,0,0,0,0,0,0,0,0,-1,524,365,0,0
-693,659,0,0,0,0,0,0,0,0,0,-1,531,365,0,0
-686,659,0,0,0,0,0,0,0,0,0,-1,538,365,0,0
-679,659,0,0,0,0,0,0,0,0,0,-1,545,365,0,0
-672,659,0,0,0,0,0,0,0,0,0,-1,552,365,0,0
-665,659,0,0,0,0,0,0,0,0,0,-1,559,365,0,0
-658,659,0,0,0,0,0,0,0,0,0,-1,566,365,0,0
-651,659,0,0,0,0,0,0,0,0,0,-1,573,365,0,0
-644,659,0,0,0,0,0,0,0,0,0,-1,580,365,0,0
-637,659,0,0,0,0,0,0,0,0,0,-1,587,365,0,0
-630,659,0,0,0,0,0,0,0,0,0,-1,594,365,0,0
-623,659,0,0,0,0,0,0,0,0,0,-1,601,365,0,0
-616,659,0,0,0,0,0,0,0,0,0,-1,608,365,0,0
-609,659,0,0,0,0,0,0,0,0,0,-1,615,365,0,0
-602,659,0,0,0,0,0,0,0,0,0,-1,622,365,0,0
-595,659,0,0,0,0,0,0,0,0,0,-1,629,365,0,0
-588,659,0,0,0,0,0,0,0,0,0,-1,636,365,0,0
-581,659,0,0,0,0,0,0,0,0,0,-1,643,365,0,0
-574,659,0,0,0,0,0,0,0,0,0,-1,650,365,0,0
-567,659,0,0,0,0,0,0,0,0,0,-1,657,365,0,0
-560,659,0,0,0,0,0,0,0,0,0,-1,664,365,0,0
-553,659,0,0,0,0,0,0,0,0,0,-1,671,365,0,0
-546,659,0,0,0,0,0,0,0,0,0,-1,678,365,0,0
-539,659,0,0,0,0,0,0,0,0,0,-1,685,365,0,0
-532,659,0,0,0,0,0,0,0,0,0,-1,692,365,0,0
-525,659,0,0,0,0,0,0,0,0,0,-1,699,365,0,0
-518,659,0,0,0,0,0,0,0,0,0,-1,706,365,0,0
-511,659,0,0,0,0,0,0,0,0,0,-1,713,365,0,0
-504,659,0,0,0,0,0,0,0,0,0,-1,720,365,0,0
-497,659,0,0,0,0,0,0,0,0,0,-1,727,365,0,0
-490,659,0,0,0,0,0,0,0,0,0,-1,734,365,0,0
-483,659,0,0,0,0,0,0,0,0,0,-1,741,365,0,0
-476,659,0,0,0,0,0,0,0,0,0,-1,748,365,0,0
-469,659,0,0,0,0,0,0,0,0,0,-1,755,365,0,0
-462,659,0,0,0,0,0,0,0,0,0,-1,762,365,0,0
-455,659,0,0,0,0,0,0,0,0,0,-1,769,365,0,0
-448,659,0,0,0,0,0,0,0,0,0,-1,776,365,0,0
-441,659,0,0,0,0,0,0,0,0,0,-1,783,365,0,0
-434,659,0,0,0,0,0,0,0,0,0,-1,790,365,0,0
-427,659,0,0,0,0,0,0,0,0,0,-1,797,365,0,0
-420,659,0,0,0,0,0,0,0,0,0,-1,804,365,0,0
-413,659,0,0,0,0,0,0,0,0,0,-1,811,365,0,0
-406,659,0,0,0,0,0,0,0,0,0,-1,818,365,0,0
-399,659,0,0,0,0,0,0,0,0,0,-1,825,365,0,0
-392,659,0,0,0,0,0,0,0,0,0,-1,832,365,0,0
-385,659,0,0,0,0,0,0,0,0,0,-1,839,365,0,0
-378,659,0,0,0,0,0,0,0,0,0,-1,846,365,0,0
-371,659,0,0,0,0,0,0,0,0,0,-1,853,365,0,0
-364,659,0,0,0,0,0,0,0,0,0,-1,860,365,0,0
-357,659,0,0,0,0,0,0,0,0,0,-1,867,365,0,0
-350,659,0,0,0,0,0,0,0,0,0,-1,874,365,0,0
-343,659,0,0,0,0,0,0,0,0,0,-1,881,365,0,0
-336,659,0,0,0,0,0,0,0,0,0,-1,888,365,0,0
-329,659,0,0,0,0,0,0,0,0,0,-1,895,365,0,0
-322,659,0,0,0,0,0,0,0,0,0,-1,902,365,0,0
-315,659,0,0,0,0,0,0,0,0,0,-1,909,365,0,0
-308,659,0,0,0,0,0,0,0,0,0,-1,916,365,0,0
-301,659,0,0,0,0,0,0,0,0,0,-1,923,365,0,0
-294,659,0,0,0,0,0,0,0,0,0,-1,930,365,0,0
-287,659,0,0,0,0,0,0,0,0,0,-1,937,365,0,0
-280,659,0,0,0,0,0,0,0,0,0,-1,944,365,0,0
-273,659,0,0,0,0,0,0,0,0,0,-1,951,365,0,0
-266,659,0,0,0,0,0,0,0,0,0,-1,958,365,0,0
-259,659,0,0,0,0,0,0,0,0,0,-1,965,365,0,0
-252,659,0,0,0,0,0,0,0,0,0,-1,972,365,0,0
-245,659,0,0,0,0,0,0,0,0,0,-1,979,365,0,0
-238,659,0,0,0,0,0,0,0,0,0,-1,986,365,0,0
-231,659,0,0,0,0,0,0,0,0,0,-1,993,365,0,0
-224,659,0,0,0,0,0,0,0,0,0,-1,1000,365,0,0
-217,659,10.1305,-25.2622,0.0236609,0.439175,0.0471714,0.444463,0.018373,1.45916,0.290378,0.0447825,1007,365,10.1305,25.2622
-210,659,9.65643,-25.515,0,0,0,0,0,0,0,-1,1014,365,9.65642,25.515
-203,659,8.58911,-25.7432,0,0,0,0,0,0,0,-1,1021,365,8.58916,25.7432
-196,659,7.54065,-26.3817,0,0,0,0,0,0,0,-1,1028,365,7.54062,26.3816
-189,659,6.68689,-27.565,0,0,0,0,0,0,0,-1,1035,365,6.68692,27.565
-182,659,5.84875,-28.8775,0,0,0,0,0,0,0,-1,1042,365,5.8488,28.8775
-175,659,5.24695,-30.3049,0,0,0,0,0,0,0,-1,1049,365,5.24691,30.3049
-168,659,4.37744,-31.3949,0,0,0,0,0,0,0,-1,1056,365,4.37747,31.3949
-161,659,4.47546,-32.267,0,0,0,0,0,0,0,-1,1063,365,4.47547,32.267
-154,659,4.57349,-33.139,0,0,0,0,0,0,0,-1,1070,365,4.57347,33.139
-147,659,6.13574,-31.2281,0,0,0,0,0,0,0,-1,1077,365,6.13573,31.2281
-140,659,6.4021,-31.6709,0,0,0,0,0,0,0,-1,1084,365,6.40213,31.6709
-133,659,6.6217,-31.9478,0,0,0,0,0,0,0,-1,1091,365,6.62171,31.9478
-126,659,5.5293,-32.9108,0,0,0,0,0,0,0,-1,1098,365,5.52929,32.9108
-119,659,6.48425,-33.7245,0,0,0,0,0,0,0,-1,1105,365,6.48423,33.7245
-112,659,6.03796,-33.4952,0,0,0,0,0,0,0,-1,1112,365,6.03795,33.4952
-105,659,5.38696,-30.5854,0,0,0,0,0,0,0,-1,1119,365,5.387,30.5854
-98,659,4.68042,-26.2438,0,0,0,0,0,0,0,-1,1126,365,4.68041,26.2438
-91,659,4.20776,-20.8654,0,0,0,0,0,0,0,-1,1133,365,4.20777,20.8654
-84,659,2.8584,-17.8303,0,0,0,0,0,0,0,-1,1140,365,2.85836,17.8303
-77,659,2.80139,-15.3457,0,0,0,0,0,0,0,-1,1147,365,2.80139,15.3457
-70,659,2.9353,-12.7028,0,0,0,0,0,0,0,-1,1154,365,2.93533,12.7028
-63,659,2.11267,-9.7796,0,0,0,0,0,0,0,-1,1161,365,2.11266,9.7796
-56,659,2.11182,-9.91541,0,0,0,0,0,0,0,-1,1168,365,2.11178,9.91541
-49,659,5.41577,-36.2115,0,0,0,0,0,0,0,-1,1175,365,5.41578,36.2115
-42,659,5.4187,-36.4472,0,0,0,0,0,0,0,-1,1182,365,5.41869,36.4472
-35,659,5.33105,-36.6826,-0.0161557,-0.021562,0.0166202,-0.00202021,-0.0356974,0.704784,0.0231543,0.0427955,1189,365,5.331,36.6826
-28,659,5.34753,-36.78,-0.0131807,-0.00904197,0.00880545,-0.00206598,-0.0201566,0.900807,0.0128048,0.0161975,1196,365,5.3475,36.78
-21,659,5.302,-36.9579,-0.0100148,0.0042334,0.000810252,0.00427933,-0.0100608,1.51417,0.00850059,0.0125663,1203,365,5.30199,36.9579
-14,659,5.22656,-37.1242,-0.00824078,0.0120459,-0.00368428,0.0126942,-0.00888916,-1.39659,0.0125256,0.0109344,1210,365,5.22659,37.1242
-7,659,5.19495,-37.2296,-0.0084335,0.0126105,-0.00391228,0.0133143,-0.00913729,-1.39281,0.013037,0.0110064,1217,365,5.19494,37.2295
0,659,5.17346,-37.3381,-0.00876651,0.0130686,-0.00418056,0.0138416,-0.00953955,-1.38795,0.0135751,0.00913063,1224,365,5.17342,37.3381
7,659,5.13721,-37.4299,-0.0085775,0.0133529,-0.00431246,0.0141704,-0.00939504,-1.38344,0.0136983,0.00826037,1231,365,5.13717,37.4299
14,659,5.10486,-37.4943,-0.00841674,0.0131404,-0.00432474,0.0139756,-0.009252,-1.38001,0.0135026,0.0110884,1238,365,5.10488,37.4943
21,659,5.06287,-37.5716,-0.00886331,0.013344,-0.00446263,0.0142072,-0.00972653,-1.37972,0.0138986,0.0111877,1245,365,5.06282,37.5716
28,659,5.00354,-37.6544,-0.00898693,0.0137711,-0.00467202,0.0146929,-0.00990872,-1.376,0.014293,0.0105463,1252,365,5.00353,37.6544
35,659,4.97034,-37.7143,-0.008699,0.0143975,-0.00450569,0.0152453,-0.00954685,-1.3848,0.0144393,0.0119154,1259,365,4.97031,37.7143
42,659,4.94031,-37.7621,-0.00836189,0.0147546,-0.00451131,0.0156038,-0.0092111,-1.38473,0.0144845,0.0120917,1266,365,4.94031,37.7622
49,659,4.89233,-37.788,-0.00753093,0.015278,-0.00440667,0.0160998,-0.00835269,-1.38643,0.0143519,0.0116039,1273,365,4.89232,37.788
56,659,4.82996,-37.7818,-0.00638712,0.0163603,-0.00420295,0.017112,-0.00713884,-1.39381,0.0143905,0.0153653,1280,365,4.82995,37.7818
63,659,4.81897,-37.8163,-0.00521022,0.0171974,-0.00414793,0.0179406,-0.0059534,-1.39351,0.0143622,0.0169394,1287,365,4.81898,37.8163
70,659,4.79346,-37.8161,-0.00387839,0.0173983,-0.00405673,0.0181455,-0.00462562,-1.38864,0.0138979,0.0175977,1294,365,4.79348,37.8161
77,659,4.72217,-37.7691,-0.00252466,0.0176703,-0.0038094,0.018365,-0.00321934,-1.39042,0.0134455,0.0176301,1301,365,4.72214,37.7691
84,659,4.67554,-37.7573,-0.000987142,0.0180614,-0.00384024,0.0188064,-0.00173221,-1.37916,0.0131531,0.0127081,1308,365,4.67548,37.7573
91,659,4.62866,-37.7051,0.000429357,0.0179324,-0.00390028,0.0187622,-0.00040042,-1.36117,0.0126437,0.010994,1315,365,4.62865,37.7051
98,659,4.60657,-37.6232,0.00166715,0.0172077,-0.00336914,0.0179067,0.000968171,-1.36623,0.0116285,0.00822315,1322,365,4.60652,37.6232
105,659,4.58215,-37.5039,0.00270817,0.0168104,-0.0027415,0.0173246,0.00219397,-1.38539,0.0108923,0.00991078,1329,365,4.58216,37.5039
112,659,4.55176,-37.392,0.00278862,0.0161609,-0.00223626,0.0165249,0.00242457,-1.40941,0.010304,0.01453,1336,365,4.55181,37.392
119,659,4.49976,-37.2576,0.00280022,0.0155121,-0.00165496,0.015724,0.0025883,-1.44343,0.00973529,0.0160813,1343,365,4.49979,37.2576
126,659,4.4314,-37.114,0.003109,0.0142949,-0.00077143,0.0143479,0.00305605,-1.50226,0.00872678,0.013816,1350,365,4.43139,37.114
133,659,4.39111,-36.9979,0.00273734,0.0131396,0.00018333,0.0131428,0.00273411,1.55318,0.00800763,0.0127956,1357,365,4.39106,36.9979
140,659,4.34534,-36.8782,0.00194434,0.0122424,0.000819973,0.0123073,0.00187946,1.49184,0.00765568,0.0102109,1364,365,4.34531,36.8783
147,659,4.30676,-36.7125,0.00125414,0.0122363,0.00181696,0.0125291,0.00096134,1.41102,0.00805141,0.0092271,1371,365,4.30675,36.7125
154,659,4.26025,-36.5016,0.000516625,0.0121709,0.00269036,0.012762,-7.44592e-05,1.35453,0.00853293,0.010627,1378,365,4.2602,36.5016
161,659,4.22876,-36.2997,-0.000103586,0.0121645,0.00340266,0.013045,-0.000984141,1.31757,0.0090426,0.0119062,1385,365,4.22871,36.2997
168,659,4.19995,-36.0861,-0.000581684,0.0125197,0.0047548,0.0140634,-0.00212542,1.25686,0.0101585,0.0186323,1392,365,4.1999,36.0861
175,659,4.19287,-35.8847,-0.0010832,0.0134385,0.00634955,0.0158232,-0.0034679,1.21153,0.0118748,0.0419147,1399,365,4.19282,35.8847
182,659,4.07129,-35.6679,0,0,0,0,0,0,0,-1,1406,365,4.07134,35.6679
189,659,4.08862,-35.3562,0,0,0,0,0,0,0,-1,1413,365,4.0886,35.3562
196,659,2.41248,-13.4371,0,0,0,0,0,0,0,-1,1420,365,2.41243,13.4371
203,659,2.38623,-12.2163,0,0,0,0,0,0,0,-1,1427,365,2.38617,12.2163
210,659,2.20789,-13.9792,0,0,0,0,0,0,0,-1,1434,365,2.20794,13.9792
217,659,2.24121,-13.487,0,0,0,0,0,0,0,-1,1441,365,2.24116,13.487
224,659,2.3479,-15.2926,0,0,0,0,0,0,0,-1,1448,365,2.34793,15.2926
231,659,2.47974,-17.8629,0,0,0,0,0,0,0,-1,1455,365,2.47976,17.8628
238,659,3.57886,-21.1258,0,0,0,0,0,0,0,-1,1462,365,3.57889,21.1258
245,659,3.29883,-25.0283,0,0,0,0,0,0,0,-1,1469,365,3.29889,25.0283
252,659,2.81909,-24.1604,0,0,0,0,0,0,0,-1,1476,365,2.81905,24.1604
259,659,2.33069,-3.36703,0,0,0,0,0,0,0,-1,1483,365,2.33073,3.36702
266,659,1.72681,-17.183,0,0,0,0,0,0,0,-1,1490,365,1.72683,17.183
273,659,3.4823,-31.9166,0,0,0,0,0,0,0,-1,1497,365,3.48227,31.9166
280,659,-6.6676,-18.5519,0,0,0,0,0,0,0,-1,1504,365,-6.66758,18.5519
287,659,-6.62354,-18.6266,0,0,0,0,0,0,0,-1,1511,365,-6.62352,18.6265
294,659,-5.4126,-20.5808,0,0,0,0,0,0,0,-1,1518,365,-5.41258,20.5808
301,659,-4.7179,-22.3497,0,0,0,0,0,0,0,-1,1525,365,-4.7179,22.3497
308,659,-5.40784,-23.3611,0,0,0,0,0,0,0,-1,1532,365,-5.40784,23.3611
315,659,-5.05042,-23.7235,0,0,0,0,0,0,0,-1,1539,365,-5.05045,23.7235
322,659,0.382813,-2.2424,0,0,0,0,0,0,0,-1,1546,365,0.382801,2.2424
329,659,0.604004,-1.75998,0,0,0,0,0,0,0,-1,1553,365,0.603966,1.75998
336,659,4.55933,-25.2647,0,0,0,0,0,0,0,-1,1560,365,4.55935,25.2647
343,659,0,0,0,0,0,0,0,0,0,-1,1567,365,0,0
350,659,0,0,0,0,0,0,0,0,0,-1,1574,365,0,0
357,659,0,0,0,0,0,0,0,0,0,-1,1581,365,0,0
364,659,0,0,0,0,0,0,0,0,0,-1,1588,365,0,0
371,659,0,0,0,0,0,0,0,0,0,-1,1595,365,0,0
378,659,0,0,0,0,0,0,0,0,0,-1,1602,365,0,0
385,659,0,0,0,0,0,0,0,0,0,-1,1609,365,0,0
392,659,0,0,0,0,0,0,0,0,0,-1,1616,365,0,0
399,659,0,0,0,0,0,0,0,0,0,-1,1623,365,0,0
406,659,0,0,0,0,0,0,0,0,0,-1,1630,365,0,0
413,659,0,0,0,0,0,0,0,0,0,-1,1637,365,0,0
420,659,0,0,0,0,0,0,0,0,0,-1,1644,365,0,0
427,659,0,0,0,0,0,0,0,0,0,-1,1651,365,0,0
434,659,0,0,0,0,0,0,0,0,0,-1,1658,365,0,0
441,659,0,0,0,0,0,0,0,0,0,-1,1665,365,0,0
448,659,0,0,0,0,0,0,0,0,0,-1,1672,365,0,0
455,659,0,0,0,0,0,0,0,0,0,-1,1679,365,0,0
462,659,0,0,0,0,0,0,0,0,0,-1,1686,365,0,0
469,659,0,0,0,0,0,0,0,0,0,-1,1693,365,0,0
476,659,0,0,0,0,0,0,0,0,0,-1,1700,365,0,0
483,659,0,0,0,0,0,0,0,0,0,-1,1707,365,0,0
490,659,0,0,0,0,0,0,0,0,0,-1,1714,365,0,0
497,659,0,0,0,0,0,0,0,0,0,-1,1721,365,0,0
504,659,0,0,0,0,0,0,0,0,0,-1,1728,365,0,0
511,659,0,0,0,0,0,0,0,0,0,-1,1735,365,0,0
518,659,0,0,0,0,0,0,0,0,0,-1,1742,365,0,0
525,659,0,0,0,0,0,0,0,0,0,-1,1749,365,0,0
532,659,0,0,0,0,0,0,0,0,0,-1,1756,365,0,0
539,659,0,0,0,0,0,0,0,0,0,-1,1763,365,0,0
546,659,0,0,0,0,0,0,0,0,0,-1,1770,365,0,0
553,659,0,0,0,0,0,0,0,0,0,-1,1777,365,0,0
560,659,0,0,0,0,0,0,0,0,0,-1,1784,365,0,0
567,659,0,0,0,0,0,0,0,0,0,-1,1791,365,0,0
574,659,0,0,0,0,0,0,0,0,0,-1,1798,365,0,0
581,659,0,0,0,0,0,0,0,0,0,-1,1805,365,0,0
588,659,0,0,0,0,0,0,0,0,0,-1,1812,365,0,0
595,659,0,0,0,0,0,0,0,0,0,-1,1819,365,0,0
602,659,0,0,0,0,0,0,0,0,0,-1,1826,365,0,0
609,659,0,0,0,0,0,0,0,0,0,-1,1833,365,0,0
616,659,0,0,0,0,0,0,0,0,0,-1,1840,365,0,0
623,659,0,0,0,0,0,0,0,0,0,-1,1847,365,0,0
630,659,0,0,0,0,0,0,0,0,0,-1,1854,365,0,0
637,659,0,0,0,0,0,0,0,0,0,-1,1861,365,0,0
644,659,0,0,0,0,0,0,0,0,0,-1,1868,365,0,0
651,659,0,0,0,0,0,0,0,0,0,-1,1875,365,0,0
658,659,0,0,0,0,0,0,0,0,0,-1,1882,365,0,0
665,659,0,0,0,0,0,0,0,0,0,-1,1889,365,0,0
672,659,0,0,0,0,0,0,0,0,0,-1,1896,365,0,0
679,659,0,0,0,0,0,0,0,0,0,-1,1903,365,0,0
686,659,0,0,0,0,0,0,0,0,0,-1,1910,365,0,0
693,659,0,0,0,0,0,0,0,0,0,-1,1917,365,0,0
700,659,0,0,0,0,0,0,0,0,0,-1,1924,365,0,0
707,659,0,0,0,0,0,0,0,0,0,-1,1931,365,0,0
714,659,0,0,0,0,0,0,0,0,0,-1,1938,365,0,0
721,659,0,0,0,0,0,0,0,0,0,-1,1945,365,0,0
728,659,0,0,0,0,0,0,0,0,0,-1,1952,365,0,0
735,659,0,0,0,0,0,0,0,0,0,-1,1959,365,0,0
742,659,0,0,0,0,0,0,0,0,0,-1,1966,365,0,0
749,659,0,0,0,0,0,0,0,0,0,-1,1973,365,0,0
756,659,0,0,0,0,0,0,0,0,0,-1,1980,365,0,0
763,659,0,0,0,0,0,0,0,0,0,-1,1987,365,0,0
770,659,0,0,0,0,0,0,0,0,0,-1,1994,365,0,0
777,659,0,0,0,0,0,0,0,0,0,-1,2001,365,0,0
784,659,0,0,0,0,0,0,0,0,0,-1,2008,365,0,0
791,659,0,0,0,0,0,0,0,0,0,-1,2015,365,0,0
798,659,0,0,0,0,0,0,0,0,0,-1,2022,365,0,0
805,659,0,0,0,0,0,0,0,0,0,-1,2029,365,0,0
812,659,0,0,0,0,0,0,0,0,0,-1,2036,365,0,0
-700,652,0,0,0,0,0,0,0,0,0,-1,524,372,0,0
-693,652,0,0,0,0,0,0,0,0,0,-1,531,372,0,0
-686,652,0,0,0,0,0,0,0,0,0,-1,538,372,0,0
-679,652,0,0,0,0,0,0,0,0,0,-1,545,372,0,0
-672,652,0,0,0,0,0,0,0,0,0,-1,552,372,0,0
-665,652,0,0,0,0,0,0,0,0,0,-1,559,372,0,0
-658,652,0,0,0,0,0,0,0,0,0,-1,566,372,0,0
-651,652,0,0,0,0,0,0,0,0,0,-1,573,372,0,0
-644,652,0,0,0,0,0,0,0,0,0,-1,580,372,0,0
-637,652,0,0,0,0,0,0,0,0,0,-1,587,372,0,0
-630,652,0,0,0,0,0,0,0,0,0,-1,594,372,0,0
-623,652,0,0,0,0,0,0,0,0,0,-1,601,372,0,0
-616,652,0,0,0,0,0,0,0,0,0,-1,608,372,0,0
-609,652,0,0,0,0,0,0,0,0,0,-1,615,372,0,0
-602,652,0,0,0,0,0,0,0,0,0,-1,622,372,0,0
-595,652,0,0,0,0,0,0,0,0,0,-1,629,372,0,0
-588,652,0,0,0,0,0,0,0,0,0,-1,636,372,0,0
-581,652,0,0,0,0,0,0,0,0,0,-1,643,372,0,0
-574,652,0,0,0,0,0,0,0,0,0,-1,650,372,0,0
-567,652,0,0,0,0,0,0,0,0,0,-1,657,372,0,0
-560,652,0,0,0,0,0,0,0,0,0,-1,664,372,0,0
-553,652,0,0,0,0,0,0,0,0,0,-1,671,372,0,0
-546,652,0,0,0,0,0,0,0,0,0,-1,678,372,0,0
-539,652,0,0,0,0,0,0,0,0,0,-1,685,372,0,0
-532,652,0,0,0,0,0,0,0,0,0,-1,692,372,0,0
-525,652,0,0,0,0,0,0,0,0,0,-1,699,372,0,0
-518,652,0,0,0,0,0,0,0,0,0,-1,706,372,0,0
-511,652,0,0,0,0,0,0,0,0,0,-1,713,372,0,0
-504,652,0,0,0,0,0,0,0,0,0,-1,720,372,0,0
-497,652,0,0,0,0,0,0,0,0,0,-1,727,372,0,0
-490,652,0,0,0,0,0,0,0,0,0,-1,734,372,0,0
-483,652,0,0,0,0,0,0,0,0,0,-1,741,372,0,0
-476,652,0,0,0,0,0,0,0,0,0,-1,748,372,0,0
-469,652,0,0,0,0,0,0,0,0,0,-1,755,372,0,0
-462,652,0,0,0,0,0,0,0,0,0,-1,762,372,0,0
-455,652,0,0,0,0,0,0,0,0,0,-1,769,372,0,0
-448,652,0,0,0,0,0,0,0,0,0,-1,776,372,0,0
-441,652,0,0,0,0,0,0,0,0,0,-1,783,372,0,0
-434,652,0,0,0,0,0,0,0,0,0,-1,790,372,0,0
-427,652,0,0,0,0,0,0,0,0,0,-1,797,372,0,0
-420,652,0,0,0,0,0,0,0,0,0,-1,804,372,0,0
-413,652,0,0,0,0,0,0,0,0,0,-1,811,372,0,0
-406,652,0,0,0,0,0,0,0,0,0,-1,818,372,0,0
-399,652,0,0,0,0,0,0,0,0,0,-1,825,372,0,0
-392,652,0,0,0,0,0,0,0,0,0,-1,832,372,0,0
-385,652,0,0,0,0,0,0,0,0,0,-1,839,372,0,0
-378,652,0,0,0,0,0,0,0,0,0,-1,846,372,0,0
-371,652,0,0,0,0,0,0,0,0,0,-1,853,372,0,0
-364,652,0,0,0,0,0,0,0,0,0,-1,860,372,0,0
-357,652,0,0,0,0,0,0,0,0,0,-1,867,372,0,0
-350,652,0,0,0,0,0,0,0,0,0,-1,874,372,0,0
-343,652,0,0,0,0,0,0,0,0,0,-1,881,372,0,0
-336,652,0,0,0,0,0,0,0,0,0,-1,888,372,0,0
-329,652,0,0,0,0,0,0,0,0,0,-1,895,372,0,0
-322,652,0,0,0,0,0,0,0,0,0,-1,902,372,0,0
-315,652,0,0,0,0,0,0,0,0,0,-1,909,372,0,0
-308,652,0,0,0,0,0,0,0,0,0,-1,916,372,0,0
-301,652,0,0,0,0,0,0,0,0,0,-1,923,372,0,0
-294,652,0,0,0,0,0,0,0,0,0,-1,930,372,0,0
-287,652,0,0,0,0,0,0,0,0,0,-1,937,372,0,0
-280,652,0,0,0,0,0,0,0,0,0,-1,944,372,0,0
-273,652,0,0,0,0,0,0,0,0,0,-1,951,372,0,0
-266,652,0,0,0,0,0,0,0,0,0,-1,958,372,0,0
-259,652,0,0,0,0,0,0,0,0,0,-1,965,372,0,0
-252,652,0,0,0,0,0,0,0,0,0,-1,972,372,0,0
-245,652,0,0,0,0,0,0,0,0,0,-1,979,372,0,0
-238,652,0,0,0,0,0,0,0,0,0,-1,986,372,0,0
-231,652,8.79358,-27.1656,0,0,0,0,0,0,0,-1,993,372,8.79357,27.1656
-224,652,8.84552,-27.675,0.0274165,0.388659,0.0400993,0.393056,0.0230189,1.46156,0.254712,0.0403532,1000,372,8.84555,27.675
-217,652,9.03113,-27.7474,0.0249045,0.367616,0.0354076,0.371236,0.0212845,1.46891,0.24071,0.0450542,1007,372,9.0311,27.7474
-210,652,8.83337,-27.7903,0,0,0,0,0,0,0,-1,1014,372,8.83339,27.7902
-203,652,7.69299,-26.2878,0,0,0,0,0,0,0,-1,1021,372,7.69297,26.2877
-196,652,7.17163,-25.2094,0,0,0,0,0,0,0,-1,1028,372,7.17158,25.2094
-189,652,5.80371,-26.3524,0,0,0,0,0,0,0,-1,1035,372,5.80368,26.3524
-182,652,5.25073,-27.8436,0,0,0,0,0,0,0,-1,1042,372,5.25075,27.8436
-175,652,4.75916,-29.5285,0,0,0,0,0,0,0,-1,1049,372,4.75918,29.5285
-168,652,4.65015,-31.0288,0,0,0,0,0,0,0,-1,1056,372,4.65019,31.0288
-161,652,4.75562,-31.9877,0.00881289,-0.0161371,-0.0452726,0.0432978,-0.050622,-0.650958,0.0542796,0.0422622,1063,372,4.75556,31.9877
-154,652,4.86584,-32.9241,0.00743628,-0.0123552,-0.0410978,0.0398129,-0.0447319,-0.667254,0.0488395,0.0442091,1070,372,4.86581,32.9241
-147,652,5.10535,-33.6923,0,0,0,0,0,0,0,-1,1077,372,5.1053,33.6923
-140,652,4.64819,-32.2287,0,0,0,0,0,0,0,-1,1084,372,4.64822,32.2287
-133,652,5.53442,-32.5159,0,0,0,0,0,0,0,-1,1091,372,5.53448,32.5159
-126,652,5.50452,-32.8802,-0.00241217,-0.010236,-0.0114094,0.00573732,-0.0183855,-0.620244,0.0145515,0.0451918,1098,372,5.50454,32.8802
-119,652,5.89722,-33.5002,-0.0086873,-0.0259745,0.00506816,-0.00731101,-0.0273508,0.265161,0.0163511,0.0411996,1105,372,5.89728,33.5003
-112,652,5.69385,-33.6673,-0.0127859,-0.035491,0.0157436,-0.00472868,-0.0435482,0.473028,0.0275913,0.0424657,1112,372,5.69391,33.6673
-105,652,5.60876,-33.8057,0,0,0,0,0,0,0,-1,1119,372,5.60871,33.8057
-98,652,5.6936,-33.6853,0,0,0,0,0,0,0,-1,1126,372,5.69355,33.6853
-91,652,5.66296,-32.9003,0,0,0,0,0,0,0,-1,1133,372,5.66297,32.9003
-84,652,5.46057,-34.9186,0,0,0,0,0,0,0,-1,1140,372,5.46057,34.9186
-77,652,5.4364,-35.1937,0,0,0,0,0,0,0,-1,1147,372,5.43642,35.1937
-70,652,5.41296,-35.5425,0,0,0,0,0,0,0,-1,1154,372,5.41291,35.5425
-63,652,5.39343,-35.8049,0,0,0,0,0,0,0,-1,1161,372,5.39346,35.8049
-56,652,5.22815,-35.9814,0,0,0,0,0,0,0,-1,1168,372,5.22811,35.9813
-49,652,5.30286,-36.2514,-0.0165701,-0.034541,0.0239633,3.70126e-05,-0.0511481,0.606028,0.0341111,0.0381441,1175,372,5.30288,36.2514
-42,652,5.25977,-36.4316,-0.0136362,-0.0231936,0.0169336,-0.000819983,-0.0360099,0.647873,0.023738,0.012627,1182,372,5.25978,36.4316
-35,652,5.23315,-36.623,-0.0110852,-0.0120842,0.0104466,-0.00112613,-0.0220433,0.761509,0.0143349,0.00967089,1189,372,5.2331,36.6231
-28,652,5.20313,-36.8033,-0.00914656,-0.00396725,0.00561605,-0.000372545,-0.0127413,1.00143,0.00837276,0.00785216,1196,372,5.20315,36.8033
-21,652,5.15771,-36.985,-0.00700772,0.00479158,0.000609359,0.00482296,-0.00703911,1.51934,0.00688829,0.00811834,1203,372,5.15772,36.985
-14,652,5.13025,-37.1344,-0.00579794,0.00990752,-0.002167,0.010201,-0.00609145,-1.43617,0.00950569,0.0108115,1210,372,5.13031,37.1344
-7,652,5.0907,-37.2689,-0.00593385,0.0103452,-0.0021883,0.0106342,-0.00622288,-1.43948,0.00984289,0.0139854,1217,372,5.09066,37.2689
0,652,5.04529,-37.388,-0.00617135,0.0107466,-0.00231968,0.0110589,-0.00648364,-1.43697,0.0102424,0.0129757,1224,372,5.0453,37.388
7,652,5.02502,-37.436,-0.00603207,0.0110796,-0.0023749,0.0114031,-0.00635557,-1.43542,0.0103901,0.0131677,1231,372,5.02499,37.436
14,652,5.01245,-37.5415,-0.0059659,0.0111112,-0.00235588,0.0114302,-0.00628494,-1.43619,0.0103706,0.0122689,1238,372,5.0124,37.5415
21,652,4.96924,-37.6494,-0.00632884,0.011448,-0.00246704,0.011784,-0.00666486,-1.43543,0.0107873,0.0106885,1245,372,4.9692,37.6494
28,652,4.93542,-37.725,-0.00640444,0.0121549,-0.00286334,0.0125866,-0.00683615,-1.42115,0.0113764,0.00940745,1252,372,4.93541,37.725
35,652,4.91272,-37.7676,-0.00614967,0.0127989,-0.00314573,0.0133074,-0.00665825,-1.41051,0.0117383,0.00989034,1259,372,4.91275,37.7676
42,652,4.88232,-37.7984,-0.00587739,0.0133093,-0.00341679,0.0138996,-0.0064677,-1.39972,0.0120172,0.0109115,1266,372,4.88238,37.7984
49,652,4.87378,-37.8253,-0.00523939,0.0138581,-0.00366171,0.0145361,-0.0059174,-1.38771,0.0121533,0.0126198,1273,372,4.87377,37.8253
56,652,4.83618,-37.8231,-0.00437834,0.0147569,-0.00386468,0.015508,-0.00512939,-1.37885,0.0124071,0.0145493,1280,372,4.83622,37.823
63,652,4.81213,-37.8519,-0.00351635,0.0153433,-0.00410735,0.016199,-0.00437204,-1.3654,0.0125139,0.0186481,1287,372,4.81218,37.8519
70,652,4.79883,-37.8269,-0.00251736,0.015368,-0.00421048,0.0163096,-0.00345899,-1.35078,0.0121908,0.0167194,1294,372,4.79881,37.8269
77,652,4.74133,-37.8018,-0.00149554,0.0154052,-0.00410754,0.0163506,-0.00244095,-1.34457,0.0117985,0.0163067,1301,372,4.74139,37.8018
84,652,4.7356,-37.7852,-0.000371406,0.0153765,-0.00411894,0.0163888,-0.00138367,-1.32981,0.0114151,0.0138071,1308,372,4.73555,37.7852
91,652,4.69531,-37.7786,0.000632078,0.0150196,-0.00402499,0.016069,-0.000417388,-1.31574,0.0108545,0.0165689,1315,372,4.69527,37.7786
98,652,4.6991,-37.6785,0.00150221,0.0141285,-0.00340109,0.0149864,0.000644359,-1.32372,0.00978319,0.0137997,1322,372,4.69905,37.6785
105,652,4.66711,-37.56,0.00224276,0.0135549,-0.00260792,0.0141272,0.00167048,-1.35478,0.00891363,0.0122785,1329,372,4.6671,37.56
112,652,4.62048,-37.4589,0.00226931,0.0128688,-0.00188665,0.0131946,0.00194351,-1.3998,0.00822543,0.0100164,1336,372,4.62043,37.4589
119,652,4.59705,-37.3185,0.00225696,0.0122305,-0.00112446,0.0123557,0.00213176,-1.45991,0.00762651,0.0102634,1343,372,4.59703,37.3185
126,652,4.54712,-37.185,0.00242167,0.0113472,-0.000184244,0.011351,0.00241787,-1.55017,0.00690397,0.012498,1350,372,4.54711,37.185
133,652,4.50757,-37.0728,0.00200897,0.0104033,0.000926203,0.0105043,0.00190799,1.4622,0.00646147,0.0126253,1357,372,4.50758,37.0728
140,652,4.48438,-36.9159,0.0012886,0.0100256,0.00174117,0.0103598,0.000954397,1.38116,0.00661142,0.00948069,1364,372,4.48439,36.9159
147,652,4.47705,-36.7484,0.00071314,0.0102033,0.00241288,0.0107815,0.000134895,1.33558,0.00714315,0.00967014,1371,372,4.47706,36.7484
154,652,4.44397,-36.5601,7.90973e-05,0.0103497,0.00298796,0.0111557,-0.00072692,1.30731,0.00769088,0.00987334,1378,372,4.44402,36.5601
161,652,4.39355,-36.3429,-0.000483339,0.0104456,0.00344677,0.0114418,-0.00147957,1.28943,0.00816589,0.0109916,1385,372,4.39357,36.3429
168,652,4.35645,-36.1343,-0.00096842,0.0108864,0.00414322,0.0121909,-0.00227292,1.26577,0.00898127,0.012293,1392,372,4.35641,36.1343
175,652,4.33447,-35.9183,-0.00144753,0.0115565,0.0048856,0.0131875,-0.00307848,1.2486,0.00997739,0.0126814,1399,372,4.33451,35.9183
182,652,4.29419,-35.71,-0.00193537,0.0120709,0.00541849,0.0139224,-0.00378684,1.24154,0.0107682,0.0179939,1406,372,4.29423,35.71
189,652,4.29028,-35.4698,-0.00267341,0.0119002,0.00569708,0.013863,-0.00463616,1.23901,0.0111145,0.0300749,1413,372,4.29024,35.4698
196,652,4.22729,-35.1956,0,0,0,0,0,0,0,-1,1420,372,4.22733,35.1956
203,652,4.18567,-34.895,0,0,0,0,0,0,0,-1,1427,372,4.18568,34.895
210,652,4.25281,-34.5218,0,0,0,0,0,0,0,-1,1434,372,4.25282,34.5218
217,652,4.1676,-34.3387,0,0,0,0,0,0,0,-1,1441,372,4.16765,34.3387
224,652,3.63794,-31.2791,0,0,0,0,0,0,0,-1,1448,372,3.63799,31.2791
231,652,3.83936,-30.4812,0,0,0,0,0,0,0,-1,1455,372,3.8393,30.4812
238,652,4.05029,-33.1684,0,0,0,0,0,0,0,-1,1462,372,4.0503,33.1684
245,652,3.90967,-32.937,0,0,0,0,0,0,0,-1,1469,372,3.90963,32.9371
252,652,4.05286,-32.5327,0,0,0,0,0,0,0,-1,1476,372,4.05289,32.5327
259,652,3.44922,-31.2655,0,0,0,0,0,0,0,-1,1483,372,3.44921,31.2655
266,652,3.50903,-31.731,0,0,0,0,0,0,0,-1,1490,372,3.50909,31.731
273,652,3.77356,-31.6901,0,0,0,0,0,0,0,-1,1497,372,3.77351,31.6901
280,652,4.03882,-31.286,0,0,0,0,0,0,0,-1,1504,372,4.03879,31.286
287,652,-4.85657,-17.9135,0,0,0,0,0,0,0,-1,1511,372,-4.85654,17.9135
294,652,-4.04944,-19.3749,0,0,0,0,0,0,0,-1,1518,372,-4.04947,19.3749
301,652,-3.20532,-20.8242,0,0,0,0,0,0,0,-1,1525,372,-3.20529,20.8242
308,652,-2.45239,-22.425,0,0,0,0,0,0,0,-1,1532,372,-2.4524,22.4249
315,652,-1.26086,-21.9686,0,0,0,0,0,0,0,-1,1539,372,-1.26084,21.9686
322,652,-0.665649,-22.1747,0,0,0,0,0,0,0,-1,1546,372,-0.665604,22.1748
329,652,3.6593,-22.1693,0,0,0,0,0,0,0,-1,1553,372,3.65935,22.1693
336,652,3.52173,-24.2133,0,0,0,0,0,0,0,-1,1560,372,3.52174,24.2133
343,652,4.85767,-24.4762,0,0,0,0,0,0,0,-1,1567,372,4.85772,24.4762
350,652,5.28394,-25.6715,0,0,0,0,0,0,0,-1,1574,372,5.28393,25.6715
357,652,0,0,0,0,0,0,0,0,0,-1,1581,372,0,0
364,652,0,0,0,0,0,0,0,0,0,-1,1588,372,0,0
371,652,0,0,0,0,0,0,0,0,0,-1,1595,372,0,0
378,652,0,0,0,0,0,0,0,0,0,-1,1602,372,0,0
385,652,0,0,0,0,0,0,0,0,0,-1,1609,372,0,0
392,652,0,0,0,0,0,0,0,0,0,-1,1616,372,0,0
399,652,0,0,0,0,0,0,0,0,0,-1,1623,372,0,0
406,652,0,0,0,0,0,0,0,0,0,-1,1630,372,0,0
413,652,0,0,0,0,0,0,0,0,0,-1,1637,372,0,0
420,652,0,0,0,0,0,0,0,0,0,-1,1644,372,0,0
427,652,0,0,0,0,0,0,0,0,0,-1,1651,372,0,0
434,652,0,0,0,0,0,0,0,0,0,-1,1658,372,0,0
441,652,0,0,0,0,0,0,0,0,0,-1,1665,372,0,0
448,652,0,0,0,0,0,0,0,0,0,-1,1672,372,0,0
455,652,0,0,0,0,0,0,0,0,0,-1,1679,372,0,0
462,652,0,0,0,0,0,0,0,0,0,-1,1686,372,0,0
469,652,0,0,0,0,0,0,0,0,0,-1,1693,372,0,0
476,652,0,0,0,0,0,0,0,0,0,-1,1700,372,0,0
483,652,0,0,0,0,0,0,0,0,0,-1,1707,372,0,0
490,652,0,0,0,0,0,0,0,0,0,-1,1714,372,0,0
497,652,0,0,0,0,0,0,0,0,0,-1,1721,372,0,0
504,652,0,0,0,0,0,0,0,0,0,-1,1728,372,0,0
511,652,0,0,0,0,0,0,0,0,0,-1,1735,372,0,0
518,652,0,0,0,0,0,0,0,0,0,-1,1742,372,0,0
525,652,0,0,0,0,0,0,0,0,0,-1,1749,372,0,0
532,652,0,0,0,0,0,0,0,0,0,-1,1756,372,0,0
539,652,0,0,0,0,0,0,0,0,0,-1,1763,372,0,0
546,652,0,0,0,0,0,0,0,0,0,-1,1770,372,0,0
553,652,0,0,0,0,0,0,0,0,0,-1,1777,372,0,0
560,652,0,0,0,0,0,0,0,0,0,-1,1784,372,0,0
567,652,0,0,0,0,0,0,0,0,0,-1,1791,372,0,0
574,652,0,0,0,0,0,0,0,0,0,-1,1798,372,0,0
581,652,0,0,0,0,0,0,0,0,0,-1,1805,372,0,0
588,652,0,0,0,0,0,0,0,0,0,-1,1812,372,0,0
595,652,0,0,0,0,0,0,0,0,0,-1,1819,372,0,0
602,652,0,0,0,0,0,0,0,0,0,-1,1826,372,0,0
609,652,0,0,0,0,0,0,0,0,0,-1,1833,372,0,0
616,652,0,0,0,0,0,0,0,0,0,-1,1840,372,0,0
623,652,0,0,0,0,0,0,0,0,0,-1,1847,372,0,0
630,652,0,0,0,0,0,0,0,0,0,-1,1854,372,0,0
637,652,0,0,0,0,0,0,0,0,0,-1,1861,372,0,0
644,652,0,0,0,0,0,0,0,0,0,-1,1868,372,0,0
651,652,0,0,0,0,0,0,0,0,0,-1,1875,372,0,0
658,652,0,0,0,0,0,0,0,0,0,-1,1882,372,0,0
665,652,0,0,0,0,0,0,0,0,0,-1,1889,372,0,0
672,652,0,0,0,0,0,0,0,0,0,-1,1896,372,0,0
679,652,0,0,0,0,0,0,0,0,0,-1,1903,372,0,0
686,652,0,0,0,0,0,0,0,0,0,-1,1910,372,0,0
693,652,0,0,0,0,0,0,0,0,0,-1,1917,372,0,0
700,652,0,0,0,0,0,0,0,0,0,-1,1924,372,0,0
707,652,0,0,0,0,0,0,0,0,0,-1,1931,372,0,0
714,652,0,0,0,0,0,0,0,0,0,-1,1938,372,0,0
721,652,0,0,0,0,0,0,0,0,0,-1,1945,372,0,0
728,652,0,0,0,0,0,0,0,0,0,-1,1952,372,0,0
735,652,0,0,0,0,0,0,0,0,0,-1,1959,372,0,0
742,652,0,0,0,0,0,0,0,0,0,-1,1966,372,0,0
749,652,0,0,0,0,0,0,0,0,0,-1,1973,372,0,0
756,652,0,0,0,0,0,0,0,0,0,-1,1980,372,0,0
763,652,0,0,0,0,0,0,0,0,0,-1,1987,372,0,0
770,652,0,0,0,0,0,0,0,0,0,-1,1994,372,0,0
777,652,0,0,0,0,0,0,0,0,0,-1,2001,372,0,0
784,652,0,0,0,0,0,0,0,0,0,-1,2008,372,0,0
791,652,0,0,0,0,0,0,0,0,0,-1,2015,372,0,0
798,652,0,0,0,0,0,0,0,0,0,-1,2022,372,0,0
805,652,0,0,0,0,0,0,0,0,0,-1,2029,372,0,0
812,652,0,0,0,0,0,0,0,0,0,-1,2036,372,0,0
-700,645,0,0,0,0,0,0,0,0,0,-1,524,379,0,0
-693,645,0,0,0,0,0,0,0,0,0,-1,531,379,0,0
-686,645,0,0,0,0,0,0,0,0,0,-1,538,379,0,0
-679,645,0,0,0,0,0,0,0,0,0,-1,545,379,0,0
-672,645,0,0,0,0,0,0,0,0,0,-1,552,379,0,0
-665,645,0,0,0,0,0,0,0,0,0,-1,559,379,0,0
-658,645,0,0,0,0,0,0,0,0,0,-1,566,379,0,0
-651,645,0,0,0,0,0,0,0,0,0,-1,573,379,0,0
-644,645,0,0,0,0,0,0,0,0,0,-1,580,379,0,0
-637,645,0,0,0,0,0,0,0,0,0,-1,587,379,0,0
-630,645,0,0,0,0,0,0,0,0,0,-1,594,379,0,0
-623,645,0,0,0,0,0,0,0,0,0,-1,601,379,0,0
-616,645,0,0,0,0,0,0,0,0,0,-1,608,379,0,0
-609,645,0,0,0,0,0,0,0,0,0,-1,615,379,0,0
-602,645,0,0,0,0,0,0,0,0,0,-1,622,379,0,0
-595,645,0,0,0,0,0,0,0,0,0,-1,629,379,0,0
-588,645,0,0,0,0,0,0,0,0,0,-1,636,379,0,0
-581,645,0,0,0,0,0,0,0,0,0,-1,643,379,0,0
-574,645,0,0,0,0,0,0,0,0,0,-1,650,379,0,0
-567,645,0,0,0,0,0,0,0,0,0,-1,657,379,0,0
-560,645,0,0,0,0,0,0,0,0,0,-1,664,379,0,0
-553,645,0,0,0,0,0,0,0,0,0,-1,671,379,0,0
-546,645,0,0,0,0,0,0,0,0,0,-1,678,379,0,0
-539,645,0,0,0,0,0,0,0,0,0,-1,685,379,0,0
-532,645,0,0,0,0,0,0,0,0,0,-1,692,379,0,0
-525,645,0,0,0,0,0,0,0,0,0,-1,699,379,0,0
-518,645,0,0,0,0,0,0,0,0,0,-1,706,379,0,0
-511,645,0,0,0,0,0,0,0,0,0,-1,713,379,0,0
-504,645,0,0,0,0,0,0,0,0,0,-1,720,379,0,0
-497,645,0,0,0,0,0,0,0,0,0,-1,727,379,0,0
-490,645,0,0,0,0,0,0,0,0,0,-1,734,379,0,0
-483,645,0,0,0,0,0,0,0,0,0,-1,741,379,0,0
-476,645,0,0,0,0,0,0,0,0,0,-1,748,379,0,0
-469,645,0,0,0,0,0,0,0,0,0,-1,755,379,0,0
-462,645,0,0,0,0,0,0,0,0,0,-1,762,379,0,0
-455,645,0,0,0,0,0,0,0,0,0,-1,769,379,0,0
-448,645,0,0,0,0,0,0,0,0,0,-1,776,379,0,0
-441,645,0,0,0,0,0,0,0,0,0,-1,783,379,0,0
-434,645,0,0,0,0,0,0,0,0,0,-1,790,379,0,0
-427,645,0,0,0,0,0,0,0,0,0,-1,797,379,0,0
-420,645,0,0,0,0,0,0,0,0,0,-1,804,379,0,0
-413,645,0,0,0,0,0,0,0,0,0,-1,811,379,0,0
-406,645,0,0,0,0,0,0,0,0,0,-1,818,379,0,0
-399,645,0,0,0,0,0,0,0,0,0,-1,825,379,0,0
-392,645,0,0,0,0,0,0,0,0,0,-1,832,379,0,0
-385,645,0,0,0,0,0,0,0,0,0,-1,839,379,0,0
-378,645,0,0,0,0,0,0,0,0,0,-1,846,379,0,0
-371,645,0,0,0,0,0,0,0,0,0,-1,853,379,0,0
-364,645,0,0,0,0,0,0,0,0,0,-1,860,379,0,0
-357,645,0,0,0,0,0,0,0,0,0,-1,867,379,0,0
-350,645,0,0,0,0,0,0,0,0,0,-1,874,379,0,0
-343,645,0,0,0,0,0,0,0,0,0,-1,881,379,0,0
-336,645,0,0,0,0,0,0,0,0,0,-1,888,379,0,0
-329,645,0,0,0,0,0,0,0,0,0,-1,895,379,0,0
-322,645,0,0,0,0,0,0,0,0,0,-1,902,379,0,0
-315,645,0,0,0,0,0,0,0,0,0,-1,909,379,0,0
-308,645,0,0,0,0,0,0,0,0,0,-1,916,379,0,0
-301,645,0,0,0,0,0,0,0,0,0,-1,923,379,0,0
-294,645,0,0,0,0,0,0,0,0,0,-1,930,379,0,0
-287,645,0,0,0,0,0,0,0,0,0,-1,937,379,0,0
-280,645,0,0,0,0,0,0,0,0,0,-1,944,379,0,0
-273,645,0,0,0,0,0,0,0,0,0,-1,951,379,0,0
-266,645,0,0,0,0,0,0,0,0,0,-1,958,379,0,0
-259,645,0,0,0,0,0,0,0,0,0,-1,965,379,0,0
-252,645,2.95691,-26.9133,0,0,0,0,0,0,0,-1,972,379,2.9569,26.9133
-245,645,2.73169,-27.0215,0,0,0,0,0,0,0,-1,979,379,2.73172,27.0215
-238,645,2.6665,-26.9464,0,0,0,0,0,0,0,-1,986,379,2.66649,26.9464
-231,645,7.26807,-29.1054,0,0,0,0,0,0,0,-1,993,379,7.26806,29.1054
-224,645,7.69073,-29.5737,0.0246663,0.318983,0.0294728,0.321905,0.0217439,1.47196,0.207735,0.0419194,1000,379,7.69071,29.5737
-217,645,8.24072,-30.3526,0.0226924,0.298507,0.0251816,0.300788,0.0204122,1.48049,0.194079,0.0481606,1007,379,8.24072,30.3526
-210,645,8.59003,-30.9099,0,0,0,0,0,0,0,-1,1014,379,8.59,30.9099
-203,645,4.20886,-26.3378,0,0,0,0,0,0,0,-1,1021,379,4.20887,26.3378
-196,645,4.20337,-24.2487,0,0,0,0,0,0,0,-1,1028,379,4.20342,24.2487
-189,645,4.88623,-24.089,0,0,0,0,0,0,0,-1,1035,379,4.8862,24.089
-182,645,4.67676,-26.9863,0,0,0,0,0,0,0,-1,1042,379,4.67676,26.9863
-175,645,5.37683,-31.4236,0,0,0,0,0,0,0,-1,1049,379,5.37688,31.4236
-168,645,5.62158,-31.5915,0,0,0,0,0,0,0,-1,1056,379,5.6216,31.5915
-161,645,5.21436,-31.6968,0.00490902,-0.00622662,-0.032825,0.0326351,-0.0339527,-0.701387,0.038447,0.0488857,1063,379,5.21439,31.6968
-154,645,5.58435,-31.6354,0.00403625,-0.0043922,-0.0299004,0.0300179,-0.0303739,-0.715388,0.0348674,0.0431688,1070,379,5.5844,31.6354
-147,645,5.05408,-31.8514,0.00310719,-0.00149474,-0.0265437,0.0274495,-0.025837,-0.742163,0.0307697,0.043518,1077,379,5.05413,31.8514
-140,645,4.97742,-32.2969,0.00220964,0.00117839,-0.0230827,0.0247824,-0.0213944,-0.774231,0.0266841,0.0449402,1084,379,4.97742,32.2969
-133,645,5.51392,-32.8063,0,0,0,0,0,0,0,-1,1091,379,5.51387,32.8063
-126,645,5.48132,-33.0378,-0.00171103,-0.00200755,-0.0108292,0.00897091,-0.0126895,-0.778553,0.0125669,0.0392319,1098,379,5.48126,33.0378
-119,645,5.44373,-33.4929,-0.00527176,-0.0106164,-0.000826927,-0.00514674,-0.0107414,-0.150048,0.00620335,0.0224511,1105,379,5.44368,33.4929
-112,645,5.40173,-33.8495,-0.00774749,-0.0161398,0.00601485,-0.00460974,-0.0192776,0.480831,0.0116239,0.015204,1112,379,5.4017,33.8495
-105,645,5.3728,-34.0845,-0.0108939,-0.0225759,0.0134561,-0.00206576,-0.031404,0.58063,0.0202825,0.0258703,1119,379,5.37286,34.0845
-98,645,5.31458,-34.2606,-0.0131191,-0.0282193,0.0199778,0.00068775,-0.0420261,0.604732,0.0282494,0.0422563,1126,379,5.31453,34.2606
-91,645,5.36841,-34.5364,0,0,0,0,0,0,0,-1,1133,379,5.36841,34.5364
-84,645,5.25098,-35.0562,-0.0153182,-0.040173,0.027434,0.00237183,-0.0578631,0.572728,0.0393898,0.0495913,1140,379,5.25101,35.0561
-77,645,5.25537,-35.3684,-0.0155107,-0.0416093,0.027921,0.0022599,-0.0593799,0.566797,0.040361,0.0332917,1147,379,5.25542,35.3684
-70,645,5.16931,-35.5882,-0.0156181,-0.0406673,0.027304,0.00189685,-0.0581823,0.570362,0.0394357,0.0142832,1154,379,5.16928,35.5882
-63,645,5.14954,-35.8251,-0.0141943,-0.0350598,0.0235772,0.00115522,-0.0504093,0.577101,0.0339978,0.0119409,1161,379,5.14955,35.8251
-56,645,5.11926,-36.0417,-0.012295,-0.0278243,0.0189429,0.000412876,-0.0405321,0.590894,0.0271601,0.0123459,1168,379,5.11921,36.0417
-49,645,5.12073,-36.2481,-0.0105109,-0.0201087,0.0143829,-0.00014739,-0.0304722,0.624379,0.0202658,0.0104957,1175,379,5.12073,36.2481
-42,645,5.08679,-36.4403,-0.00871074,-0.0133626,0.0102753,-0.00050143,-0.0215719,0.674093,0.0142171,0.0103228,1182,379,5.08682,36.4403
-35,645,5.05933,-36.6538,-0.00713113,-0.00657796,0.00646911,-0.000379525,-0.0133296,0.806763,0.00876261,0.0110105,1189,379,5.05936,36.6538
-28,645,5.03003,-36.8503,-0.00592168,-0.00163844,0.00363353,0.000437645,-0.00799777,1.05169,0.00548355,0.00889445,1196,379,5.03008,36.8503
-21,645,4.99097,-37.001,-0.00454135,0.00379441,0.000652107,0.00384511,-0.00459205,1.4932,0.00487756,0.0101143,1203,379,4.99093,37.001
-14,645,4.9834,-37.1599,-0.00372384,0.00690893,-0.00097544,0.00699768,-0.00381258,-1.48007,0.00633097,0.0110481,1210,379,4.98336,37.1599
-7,645,4.9762,-37.309,-0.00377419,0.00706794,-0.000827214,0.00713069,-0.00383694,-1.49508,0.00642664,0.0144519,1217,379,4.97618,37.309
0,645,4.92932,-37.4027,-0.00390441,0.00729661,-0.000841477,0.00735947,-0.00396727,-1.49623,0.00663653,0.0242093,1224,379,4.92928,37.4027
7,645,4.91882,-37.4689,-0.00380983,0.00751862,-0.000812542,0.0075766,-0.00386782,-1.49956,0.0067221,0.0177155,1231,379,4.91884,37.4689
14,645,4.91663,-37.5487,-0.00375462,0.00759936,-0.00074766,0.00764839,-0.00380364,-1.50532,0.00673489,0.0169492,1238,379,4.91667,37.5488
21,645,4.89807,-37.6729,-0.00397679,0.00787074,-0.000796182,0.00792401,-0.00403006,-1.50399,0.00702268,0.0107455,1245,379,4.89812,37.6729
28,645,4.88037,-37.7483,-0.00409869,0.00836488,-0.00112095,0.0084649,-0.00419871,-1.48181,0.00744835,0.00914805,1252,379,4.88039,37.7483
35,645,4.85901,-37.7917,-0.00402902,0.00880646,-0.00130316,0.00893743,-0.00416,-1.47063,0.00772767,0.00841152,1259,379,4.85905,37.7917
42,645,4.8468,-37.8355,-0.00389857,0.00920672,-0.00151958,0.00938061,-0.00407246,-1.45686,0.00796612,0.00841908,1266,379,4.84675,37.8355
49,645,4.86243,-37.865,-0.00353954,0.00959138,-0.0017571,0.00982243,-0.0037706,-1.44005,0.00810306,0.0112383,1273,379,4.86247,37.865
56,645,4.84863,-37.861,-0.00304787,0.0101945,-0.00198823,0.0104866,-0.00333994,-1.42494,0.00833064,0.0111923,1280,379,4.84862,37.861
63,645,4.82458,-37.8792,-0.00255897,0.0105603,-0.00224684,0.0109344,-0.0029331,-1.4058,0.00843898,0.0113559,1287,379,4.82458,37.8792
70,645,4.79822,-37.8674,-0.0019856,0.0105553,-0.00234467,0.0109793,-0.00240962,-1.39188,0.00824101,0.0151398,1294,379,4.79816,37.8674
77,645,4.78113,-37.8469,-0.00135514,0.0106601,-0.00229369,0.0110831,-0.00177811,-1.38844,0.00804719,0.0187116,1301,379,4.78112,37.8469
84,645,4.79907,-37.8001,-0.000628872,0.0105999,-0.00235773,0.0110749,-0.00110384,-1.37201,0.00777736,0.0141937,1308,379,4.79905,37.8002
91,645,4.75928,-37.7566,8.06364e-06,0.0104103,-0.00233113,0.0109088,-0.000490449,-1.36012,0.00744144,0.0150577,1315,379,4.75931,37.7566
98,645,4.75635,-37.6786,0.000595818,0.00984102,-0.00196604,0.0102417,0.000195098,-1.36973,0.00676373,0.0136734,1322,379,4.75637,37.6787
105,645,4.75269,-37.582,0.00115702,0.00944011,-0.00137823,0.00966342,0.000933715,-1.41017,0.00615469,0.0111171,1329,379,4.75264,37.582
112,645,4.7135,-37.4799,0.00128062,0.00902647,-0.000856327,0.00912001,0.00118708,-1.46199,0.00572548,0.00904626,1336,379,4.7135,37.4799
119,645,4.70557,-37.3409,0.00136524,0.00864883,-0.00031339,0.00866229,0.00135178,-1.52788,0.00538116,0.00879415,1343,379,4.7056,37.3409
126,645,4.68665,-37.2028,0.00155363,0.00820332,0.000325236,0.00821919,0.00153776,1.52204,0.00504559,0.0117015,1350,379,4.68659,37.2028
133,645,4.66992,-37.0716,0.00140203,0.00776421,0.00111068,0.00795253,0.00121371,1.40284,0.004947,0.0122614,1357,379,4.66989,37.0716
140,645,4.66565,-36.9212,0.000988872,0.0076834,0.00159289,0.00804309,0.000629188,1.34871,0.00516512,0.0119269,1364,379,4.66569,36.9212
147,645,4.62927,-36.7723,0.000560149,0.00788615,0.00202637,0.00840929,3.70112e-05,1.31815,0.0055939,0.013644,1371,379,4.62922,36.7723
154,645,4.61621,-36.6016,8.89203e-05,0.00807643,0.00239705,0.00874056,-0.000575212,1.30051,0.00602794,0.0124931,1378,379,4.6162,36.6015
161,645,4.59351,-36.3919,-0.000333526,0.00819626,0.00268904,0.00897321,-0.00111048,1.28952,0.00638457,0.014674,1385,379,4.59348,36.3919
168,645,4.55286,-36.174,-0.000738249,0.00854633,0.00305609,0.00946196,-0.00165388,1.2797,0.00692541,0.0169012,1392,379,4.55287,36.174
175,645,4.56226,-35.9725,-0.00113933,0.00898187,0.00343324,0.0100366,-0.00219403,1.27275,0.0075297,0.0147254,1399,379,4.56227,35.9725
182,645,4.5343,-35.743,-0.00154216,0.00913233,0.0037391,0.0103118,-0.00272159,1.26524,0.00793876,0.0106133,1406,379,4.53434,35.743
189,645,4.50586,-35.4739,-0.00206044,0.00910626,0.00393538,0.0103538,-0.00330798,1.26381,0.00822986,0.0115586,1413,379,4.50582,35.474
196,645,4.45801,-35.2363,-0.00239093,0.00914765,0.00375711,0.0102632,-0.00350644,1.28218,0.00826277,0.0118362,1420,379,4.45807,35.2363
203,645,4.39722,-34.9489,-0.00234847,0.0101539,0.00347813,0.0110564,-0.00325093,1.31693,0.0086604,0.0115727,1427,379,4.39722,34.9489
210,645,4.42029,-34.5829,-0.00266196,0.00925309,0.00333725,0.0101241,-0.00353301,1.31549,0.00818532,0.0211799,1434,379,4.42034,34.5829
217,645,4.39954,-34.372,-0.00248774,0.00953454,0.0032754,0.010369,-0.00332219,1.32134,0.00824623,0.0420861,1441,379,4.39948,34.372
224,645,4.30981,-34.0666,0,0,0,0,0,0,0,-1,1448,379,4.30985,34.0666
231,645,4.26355,-33.7152,0,0,0,0,0,0,0,-1,1455,379,4.26353,33.7152
238,645,4.21692,-33.3605,-0.000713218,0.0126284,0.00447113,0.0139882,-0.00207302,1.27556,0.0100877,0.0328746,1462,379,4.21691,33.3605
245,645,4.20435,-33.0387,-0.000801918,0.0140656,0.00486038,0.0155135,-0.00224983,1.28127,0.0111681,0.0188351,1469,379,4.20434,33.0387
252,645,4.24097,-32.5328,-0.000435602,0.0154337,0.00540386,0.017099,-0.00210097,1.27185,0.0121603,0.031758,1476,379,4.24102,32.5328
259,645,4.38403,-32.1321,0,0,0,0,0,0,0,-1,1483,379,4.38403,32.1321
266,645,3.94629,-31.8752,0.000179103,0.0188548,0.00699742,0.0211857,-0.00215178,1.24925,0.014893,0.0372097,1490,379,3.94627,31.8752
273,645,4.0144,-31.5711,0.000290417,0.0210308,0.00804498,0.0237855,-0.00246427,1.2409,0.016739,0.0226163,1497,379,4.0144,31.5711
280,645,4.09094,-31.2078,0.00114261,0.0231697,0.00880651,0.0262577,-0.00194537,1.23355,0.0181883,0.0484272,1504,379,4.09097,31.2078
287,645,4.15967,-30.8701,0,0,0,0,0,0,0,-1,1511,379,4.15961,30.8701
294,645,3.82507,-30.2775,0,0,0,0,0,0,0,-1,1518,379,3.82508,30.2775
301,645,-1.69275,-19.2987,0,0,0,0,0,0,0,-1,1525,379,-1.69269,19.2987
308,645,0.388428,-19.7402,0,0,0,0,0,0,0,-1,1532,379,0.388487,19.7402
315,645,2.61792,-20.2319,0,0,0,0,0,0,0,-1,1539,379,2.61791,20.2319
322,645,3.82935,-29.5213,0,0,0,0,0,0,0,-1,1546,379,3.82929,29.5213
329,645,3.61487,-26.396,0,0,0,0,0,0,0,-1,1553,379,3.61483,26.396
336,645,4.32666,-28.5038,0,0,0,0,0,0,0,-1,1560,379,4.32665,28.5038
343,645,4.77185,-23.7191,0,0,0,0,0,0,0,-1,1567,379,4.77184,23.7191
350,645,4.76404,-22.1987,0,0,0,0,0,0,0,-1,1574,379,4.76399,22.1987
357,645,4.61316,-21.967,0,0,0,0,0,0,0,-1,1581,379,4.61316,21.967
364,645,-0.0794678,-3.22021,0,0,0,0,0,0,0,-1,1588,379,-0.0794987,3.22021
371,645,0,0,0,0,0,0,0,0,0,-1,1595,379,0,0
378,645,0,0,0,0,0,0,0,0,0,-1,1602,379,0,0
385,645,0,0,0,0,0,0,0,0,0,-1,1609,379,0,0
392,645,0,0,0,0,0,0,0,0,0,-1,1616,379,0,0
399,645,0,0,0,0,0,0,0,0,0,-1,1623,379,0,0
406,645,0,0,0,0,0,0,0,0,0,-1,1630,379,0,0
413,645,0,0,0,0,0,0,0,0,0,-1,1637,379,0,0
420,645,0,0,0,0,0,0,0,0,0,-1,1644,379,0,0
427,645,0,0,0,0,0,0,0,0,0,-1,1651,379,0,0
434,645,0,0,0,0,0,0,0,0,0,-1,1658,379,0,0
441,645,0,0,0,0,0,0,0,0,0,-1,1665,379,0,0
448,645,0,0,0,0,0,0,0,0,0,-1,1672,379,0,0
455,645,0,0,0,0,0,0,0,0,0,-1,1679,379,0,0
462,645,0,0,0,0,0,0,0,0,0,-1,1686,379,0,0
469,645,0,0,0,0,0,0,0,0,0,-1,1693,379,0,0
476,645,0,0,0,0,0,0,0,0,0,-1,1700,379,0,0
483,645,0,0,0,0,0,0,0,0,0,-1,1707,379,0,0
490,645,0,0,0,0,0,0,0,0,0,-1,1714,379,0,0
497,645,0,0,0,0,0,0,0,0,0,-1,1721,379,0,0
504,645,0,0,0,0,0,0,0,0,0,-1,1728,379,0,0
511,645,0,0,0,0,0,0,0,0,0,-1,1735,379,0,0
518,645,0,0,0,0,0,0,0,0,0,-1,1742,379,0,0
525,645,0,0,0,0,0,0,0,0,0,-1,1749,379,0,0
532,645,0,0,0,0,0,0,0,0,0,-1,1756,379,0,0
539,645,0,0,0,0,0,0,0,0,0,-1,1763,379,0,0
546,645,0,0,0,0,0,0,0,0,0,-1,1770,379,0,0
553,645,0,0,0,0,0,0,0,0,0,-1,1777,379,0,0
560,645,0,0,0,0,0,0,0,0,0,-1,1784,379,0,0
567,645,0,0,0,0,0,0,0,0,0,-1,1791,379,0,0
574,645,0,0,0,0,0,0,0,0,0,-1,1798,379,0,0
581,645,0,0,0,0,0,0,0,0,0,-1,1805,379,0,0
588,645,0,0,0,0,0,0,0,0,0,-1,1812,379,0,0
595,645,0,0,0,0,0,0,0,0,0,-1,1819,379,0,0
602,645,0,0,0,0,0,0,0,0,0,-1,1826,379,0,0
609,645,0,0,0,0,0,0,0,0,0,-1,1833,379,0,0
616,645,0,0,0,0,0,0,0,0,0,-1,1840,379,0,0
623,645,0,0,0,0,0,0,0,0,0,-1,1847,379,0,0
630,645,0,0,0,0,0,0,0,0,0,-1,1854,379,0,0
637,645,0,0,0,0,0,0,0,0,0,-1,1861,379,0,0
644,645,0,0,0,0,0,0,0,0,0,-1,1868,379,0,0
651,645,0,0,0,0,0,0,0,0,0,-1,1875,379,0,0
658,645,0,0,0,0,0,0,0,0,0,-1,1882,379,0,0
665,645,0,0,0,0,0,0,0,0,0,-1,1889,379,0,0
672,645,0,0,0,0,0,0,0,0,0,-1,1896,379,0,0
679,645,0,0,0,0,0,0,0,0,0,-1,1903,379,0,0
686,645,0,0,0,0,0,0,0,0,0,-1,1910,379,0,0
693,645,0,0,0,0,0,0,0,0,0,-1,1917,379,0,0
700,645,0,0,0,0,0,0,0,0,0,-1,1924,379,0,0
707,645,0,0,0,0,0,0,0,0,0,-1,1931,379,0,0
714,645,0,0,0,0,0,0,0,0,0,-1,1938,379,0,0
721,645,0,0,0,0,0,0,0,0,0,-1,1945,379,0,0
728,645,0,0,0,0,0,0,0,0,0,-1,1952,379,0,0
735,645,0,0,0,0,0,0,0,0,0,-1,1959,379,0,0
742,645,0,0,0,0,0,0,0,0,0,-1,1966,379,0,0
749,645,0,0,0,0,0,0,0,0,0,-1,1973,379,0,0
756,645,0,0,0,0,0,0,0,0,0,-1,1980,379,0,0
763,645,0,0,0,0,0,0,0,0,0,-1,1987,379,0,0
770,645,0,0,0,0,0,0,0,0,0,-1,1994,379,0,0
777,645,0,0,0,0,0,0,0,0,0,-1,2001,379,0,0
784,645,0,0,0,0,0,0,0,0,0,-1,2008,379,0,0
791,645,0,0,0,0,0,0,0,0,0,-1,2015,379,0,0
798,645,0,0,0,0,0,0,0,0,0,-1,2022,379,0,0
805,645,0,0,0,0,0,0,0,0,0,-1,2029,379,0,0
812,645,0,0,0,0,0,0,0,0,0,-1,2036,379,0,0
-700,638,0,0,0,0,0,0,0,0,0,-1,524,386,0,0
-693,638,0,0,0,0,0,0,0,0,0,-1,531,386,0,0
-686,638,0,0,0,0,0,0,0,0,0,-1,538,386,0,0
-679,638,0,0,0,0,0,0,0,0,0,-1,545,386,0,0
-672,638,0,0,0,0,0,0,0,0,0,-1,552,386,0,0
-665,638,0,0,0,0,0,0,0,0,0,-1,559,386,0,0
-658,638,0,0,0,0,0,0,0,0,0,-1,566,386,0,0
-651,638,0,0,0,0,0,0,0,0,0,-1,573,386,0,0
-644,638,0,0,0,0,0,0,0,0,0,-1,580,386,0,0
-637,638,0,0,0,0,0,0,0,0,0,-1,587,386,0,0
-630,638,0,0,0,0,0,0,0,0,0,-1,594,386,0,0
-623,638,0,0,0,0,0,0,0,0,0,-1,601,386,0,0
-616,638,0,0,0,0,0,0,0,0,0,-1,608,386,0,0
-609,638,0,0,0,0,0,0,0,0,0,-1,615,386,0,0
-602,638,0,0,0,0,0,0,0,0,0,-1,622,386,0,0
-595,638,0,0,0,0,0,0,0,0,0,-1,629,386,0,0
-588,638,0,0,0,0,0,0,0,0,0,-1,636,386,0,0
-581,638,0,0,0,0,0,0,0,0,0,-1,643,386,0,0
-574,638,0,0,0,0,0,0,0,0,0,-1,650,386,0,0
-567,638,0,0,0,0,0,0,0,0,0,-1,657,386,0,0
-560,638,0,0,0,0,0,0,0,0,0,-1,664,386,0,0
-553,638,0,0,0,0,0,0,0,0,0,-1,671,386,0,0
-546,638,0,0,0,0,0,0,0,0,0,-1,678,386,0,0
-539,638,0,0,0,0,0,0,0,0,0,-1,685,386,0,0
-532,638,0,0,0,0,0,0,0,0,0,-1,692,386,0,0
-525,638,0,0,0,0,0,0,0,0,0,-1,699,386,0,0
-518,638,0,0,0,0,0,0,0,0,0,-1,706,386,0,0
-511,638,0,0,0,0,0,0,0,0,0,-1,713,386,0,0
-504,638,0,0,0,0,0,0,0,0,0,-1,720,386,0,0
-497,638,0,0,0,0,0,0,0,0,0,-1,727,386,0,0
-490,638,0,0,0,0,0,0,0,0,0,-1,734,386,0,0
-483,638,0,0,0,0,0,0,0,0,0,-1,741,386,0,0
-476,638,0,0,0,0,0,0,0,0,0,-1,748,386,0,0
-469,638,0,0,0,0,0,0,0,0,0,-1,755,386,0,0
-462,638,0,0,0,0,0,0,0,0,0,-1,762,386,0,0
-455,638,0,0,0,0,0,0,0,0,0,-1,769,386,0,0
-448,638,0,0,0,0,0,0,0,0,0,-1,776,386,0,0
-441,638,0,0,0,0,0,0,0,0,0,-1,783,386,0,0
-434,638,0,0,0,0,0,0,0,0,0,-1,790,386,0,0
-427,638,0,0,0,0,0,0,0,0,0,-1,797,386,0,0
-420,638,0,0,0,0,0,0,0,0,0,-1,804,386,0,0
-413,638,0,0,0,0,0,0,0,0,0,-1,811,386,0,0
-406,638,0,0,0,0,0,0,0,0,0,-1,818,386,0,0
-399,638,0,0,0,0,0,0,0,0,0,-1,825,386,0,0
-392,638,0,0,0,0,0,0,0,0,0,-1,832,386,0,0
-385,638,0,0,0,0,0,0,0,0,0,-1,839,386,0,0
-378,638,0,0,0,0,0,0,0,0,0,-1,846,386,0,0
-371,638,0,0,0,0,0,0,0,0,0,-1,853,386,0,0
-364,638,0,0,0,0,0,0,0,0,0,-1,860,386,0,0
-357,638,0,0,0,0,0,0,0,0,0,-1,867,386,0,0
-350,638,0,0,0,0,0,0,0,0,0,-1,874,386,0,0
-343,638,0,0,0,0,0,0,0,0,0,-1,881,386,0,0
-336,638,0,0,0,0,0,0,0,0,0,-1,888,386,0,0
-329,638,0,0,0,0,0,0,0,0,0,-1,895,386,0,0
-322,638,0,0,0,0,0,0,0,0,0,-1,902,386,0,0
-315,638,0,0,0,0,0,0,0,0,0,-1,909,386,0,0
-308,638,0,0,0,0,0,0,0,0,0,-1,916,386,0,0
-301,638,0,0,0,0,0,0,0,0,0,-1,923,386,0,0
-294,638,0,0,0,0,0,0,0,0,0,-1,930,386,0,0
-287,638,0,0,0,0,0,0,0,0,0,-1,937,386,0,0
-280,638,0,0,0,0,0,0,0,0,0,-1,944,386,0,0
-273,638,0,0,0,0,0,0,0,0,0,-1,951,386,0,0
-266,638,11.033,-30.7778,0,0,0,0,0,0,0,-1,958,386,11.033,30.7778
-259,638,10.9623,-30.0927,0,0,0,0,0,0,0,-1,965,386,10.9623,30.0927
-252,638,10.8915,-29.4076,0,0,0,0,0,0,0,-1,972,386,10.8916,29.4076
-245,638,3.35309,-26.4681,0,0,0,0,0,0,0,-1,979,386,3.35311,26.4681
-238,638,2.93518,-26.3649,0,0,0,0,0,0,0,-1,986,386,2.93516,26.3649
-231,638,2.36829,-26.0088,0,0,0,0,0,0,0,-1,993,386,2.3683,26.0088
-224,638,6.3465,-30.9124,0,0,0,0,0,0,0,-1,1000,386,6.34648,30.9124
-217,638,7.41205,-32.7263,0,0,0,0,0,0,0,-1,1007,386,7.41204,32.7262
-210,638,3.00073,-28.7896,0,0,0,0,0,0,0,-1,1014,386,3.00073,28.7896
-203,638,4.32593,-27.5803,0,0,0,0,0,0,0,-1,1021,386,4.32594,27.5803
-196,638,5.43237,-26.3858,0,0,0,0,0,0,0,-1,1028,386,5.43235,26.3858
-189,638,5.25891,-24.3591,0,0,0,0,0,0,0,-1,1035,386,5.25892,24.3591
-182,638,5.20044,-29.7939,0,0,0,0,0,0,0,-1,1042,386,5.20042,29.7939
-175,638,5.24146,-30.6642,0.00673074,0.0482929,-0.0175922,0.0547394,0.000284279,-1.21955,0.0363985,0.0466639,1049,386,5.24151,30.6642
-168,638,5.26123,-31.2698,0.00384235,0.0238124,-0.0213795,0.0374236,-0.00976887,-1.00386,0.0287637,0.0421852,1056,386,5.26119,31.2698
-161,638,5.33545,-31.6309,0.00243451,-0.000304158,-0.0236959,0.0248006,-0.0226703,-0.756536,0.0274165,0.0418908,1063,386,5.3354,31.6309
-154,638,5.37769,-31.8725,0.00192966,0.000323698,-0.0216282,0.0227698,-0.0205165,-0.766843,0.0250026,0.0371177,1070,386,5.37763,31.8725
-147,638,5.29688,-32.1208,0.00137357,0.00181951,-0.0192794,0.0208773,-0.0176842,-0.791181,0.0222889,0.0297125,1077,386,5.29688,32.1207
-140,638,5.26196,-32.4601,0.000837568,0.00311249,-0.0168655,0.0188788,-0.0149288,-0.819069,0.0195632,0.0253267,1084,386,5.26202,32.4601
-133,638,5.23035,-32.9441,0.000371797,0.00475203,-0.0143527,0.0170807,-0.0119569,-0.861111,0.0168516,0.0224137,1091,386,5.23037,32.9441
-126,638,5.20605,-33.2691,-0.00125659,0.00187331,-0.00921234,0.00965268,-0.00903596,-0.869533,0.0107919,0.0184588,1098,386,5.20604,33.2691
-119,638,5.13892,-33.6263,-0.00315903,-0.00255355,-0.00320102,0.000359015,-0.00607159,-0.832545,0.00417255,0.0174604,1105,386,5.13886,33.6263
-112,638,5.12891,-33.9683,-0.00454548,-0.00549818,0.00106207,-0.00385782,-0.00618584,0.57459,0.00360762,0.0152247,1112,386,5.12886,33.9683
-105,638,5.1062,-34.2743,-0.00644108,-0.00907983,0.00571655,-0.00189363,-0.0136273,0.671985,0.00852405,0.015904,1119,386,5.10624,34.2743
-98,638,5.07605,-34.5603,-0.00769574,-0.0123405,0.00981208,6.50464e-05,-0.0201013,0.669193,0.0134226,0.0156164,1126,386,5.07608,34.5603
-91,638,5.00891,-34.8415,-0.00835559,-0.0169747,0.0127112,0.000756713,-0.026087,0.62196,0.017649,0.013228,1133,386,5.00892,34.8414
-84,638,4.97461,-35.1169,-0.00879515,-0.0200482,0.0145707,0.00119762,-0.030041,0.601142,0.0204382,0.0147984,1140,386,4.97466,35.1169
-77,638,4.95642,-35.3644,-0.00882983,-0.021098,0.0148783,0.00112931,-0.0310572,0.589873,0.0210913,0.0115933,1147,386,4.9564,35.3644
-70,638,4.93616,-35.5984,-0.00887589,-0.0208097,0.0146009,0.000930309,-0.0306159,0.59142,0.0207277,0.0110256,1154,386,4.9361,35.5984
-63,638,4.92224,-35.8542,-0.00800876,-0.0179658,0.0125847,0.000546379,-0.0265209,0.597044,0.0178655,0.011246,1161,386,4.92221,35.8542
-56,638,4.91675,-36.0849,-0.0067949,-0.0143419,0.0101386,0.000249621,-0.0213864,0.607244,0.0143416,0.0143528,1168,386,4.9168,36.0849
-49,638,4.91443,-36.2786,-0.00567077,-0.0103672,0.00765722,-9.80031e-06,-0.0160282,0.636617,0.0106822,0.0124988,1175,386,4.91445,36.2785
-42,638,4.9093,-36.4762,-0.00451615,-0.00699743,0.00553089,-8.84626e-05,-0.0114251,0.675069,0.00758743,0.0114387,1182,386,4.90929,36.4762
-35,638,4.89661,-36.6785,-0.00351753,-0.00351291,0.00361538,0.000100157,-0.00713061,0.785718,0.00478747,0.011357,1189,386,4.89665,36.6785
-28,638,4.89246,-36.8643,-0.00277546,-0.00104451,0.00223054,0.000482572,-0.00430255,0.970463,0.00304201,0.0108375,1196,386,4.89248,36.8643
-21,638,4.85254,-37.0059,-0.00187461,0.00176812,0.000703869,0.0018994,-0.00200588,1.38641,0.00225499,0.0119904,1203,386,4.85256,37.0059
-14,638,4.83447,-37.1651,-0.0012723,0.00328595,-0.000116266,0.00328892,-0.00127527,-1.54531,0.00271927,0.0120698,1210,386,4.83452,37.1651
-7,638,4.84619,-37.3498,-0.00113229,0.00303027,0.000134601,0.00303462,-0.00113664,1.53851,0.00248999,0.0171763,1217,386,4.84622,37.3498
0,638,4.8114,-37.4016,-0.000950882,0.00283914,0.000259601,0.00285684,-0.000968581,1.50272,0.00229655,0.0315924,1224,386,4.81138,37.4016
7,638,4.80237,-37.4912,-0.000721083,0.00252425,0.000525136,0.00260711,-0.000803942,1.4143,0.00205905,0.0273497,1231,386,4.80234,37.4912
14,638,4.79834,-37.5867,-0.000498262,0.00233827,0.00089863,0.002599,-0.000758988,1.28841,0.00203344,0.0139508,1238,386,4.79838,37.5867
21,638,4.81055,-37.7025,-0.000477911,0.0023845,0.00120965,0.00282722,-0.000920631,1.21995,0.00225522,0.0106093,1245,386,4.81055,37.7025
28,638,4.80737,-37.7737,-0.000405609,0.00239765,0.00136779,0.00295444,-0.000962399,1.18421,0.00235686,0.00861882,1252,386,4.80741,37.7737
35,638,4.80847,-37.8136,-0.000271348,0.00244215,0.00166847,0.00323588,-0.00106508,1.12676,0.00258644,0.0101651,1259,386,4.80848,37.8136
42,638,4.82654,-37.8593,-0.000214347,0.00252366,0.00193889,0.00352815,-0.00121884,1.09279,0.00284673,0.00956198,1266,386,4.82648,37.8593
49,638,4.84937,-37.8729,-9.30836e-05,0.00267473,0.00207989,0.00378905,-0.0012074,1.07895,0.00301032,0.00848652,1273,386,4.84935,37.8729
56,638,4.84058,-37.8846,2.27381e-05,0.0031178,0.00215523,0.00422355,-0.00108301,1.09676,0.00323765,0.0108703,1280,386,4.84057,37.8846
63,638,4.82544,-37.8991,2.41678e-05,0.00343648,0.00203685,0.00438734,-0.000926687,1.13404,0.00327775,0.0128864,1287,386,4.82542,37.8991
70,638,4.81677,-37.8985,8.30713e-05,0.00362585,0.00191419,0.00446251,-0.000753591,1.15873,0.00325541,0.0176737,1294,386,4.81672,37.8985
77,638,4.81177,-37.8684,0.000194491,0.00397366,0.00176952,0.00467285,-0.000504691,1.1945,0.00329636,0.0181063,1301,386,4.81178,37.8684
84,638,4.83862,-37.8104,0.00035294,0.00418764,0.00140781,0.00464898,-0.000108399,1.25412,0.00313608,0.0132871,1308,386,4.83865,37.8104
91,638,4.82678,-37.7415,0.000453026,0.00432151,0.00106703,0.00459631,0.000178232,1.31874,0.00300655,0.0136369,1315,386,4.82673,37.7415
98,638,4.81396,-37.6703,0.0005453,0.00424759,0.000859436,0.00443737,0.000355522,1.35347,0.00284715,0.0121341,1322,386,4.81394,37.6704
105,638,4.82556,-37.5876,0.000658546,0.00430921,0.000765916,0.00446339,0.000504367,1.37215,0.00282253,0.00970537,1329,386,4.82558,37.5876
112,638,4.81506,-37.4895,0.000708533,0.00447521,0.000530057,0.00454838,0.000635363,1.43362,0.00284422,0.0101584,1336,386,4.81512,37.4895
119,638,4.8269,-37.3699,0.000789282,0.00436651,0.000370196,0.00440442,0.000751373,1.46875,0.00272063,0.0120811,1343,386,4.82686,37.3699
126,638,4.83154,-37.2206,0.000981084,0.00424471,0.000420181,0.00429794,0.000927855,1.44479,0.00261154,0.0155144,1350,386,4.8315,37.2206
133,638,4.81812,-37.0722,0.000957348,0.00437401,0.000674292,0.00450227,0.000829089,1.38283,0.00276687,0.0159214,1357,386,4.81806,37.0722
140,638,4.80859,-36.9517,0.000783367,0.00459631,0.000829693,0.00476903,0.000610651,1.36556,0.00299661,0.0172929,1364,386,4.80859,36.9517
147,638,4.79382,-36.7989,0.000596881,0.00490136,0.0010424,0.00514051,0.000357735,1.34528,0.0033142,0.0188432,1371,386,4.79384,36.7989
154,638,4.79175,-36.6533,0.000343152,0.00515592,0.00131064,0.00548969,9.37865e-06,1.32143,0.00365667,0.0165071,1378,386,4.79169,36.6533
161,638,4.78333,-36.431,9.63556e-05,0.0053007,0.00154315,0.00572386,-0.0003268,1.30316,0.00392937,0.0192731,1385,386,4.78333,36.431
168,638,4.79224,-36.1697,-0.000164073,0.0056713,0.00180063,0.00618219,-0.000674965,1.29433,0.00436388,0.02364,1392,386,4.79221,36.1697
175,638,4.79041,-35.9778,-0.000468864,0.00604064,0.00203846,0.00662629,-0.00105452,1.29103,0.00480774,0.0197054,1399,386,4.79044,35.9778
182,638,4.73889,-35.7695,-0.000827801,0.00619603,0.00226167,0.00686128,-0.00149305,1.28472,0.0051446,0.0135517,1406,386,4.73892,35.7695
189,638,4.7301,-35.498,-0.00119151,0.00637007,0.00242681,0.00708192,-0.00190336,1.28547,0.0054673,0.0118781,1413,386,4.73007,35.498
196,638,4.69995,-35.2498,-0.00142607,0.00659012,0.00242842,0.00726839,-0.00210435,1.29843,0.00567854,0.0146113,1420,386,4.69992,35.2499
203,638,4.65088,-35.0142,-0.00149356,0.00736992,0.00240859,0.00798215,-0.00210579,1.32188,0.00614484,0.0195715,1427,386,4.65083,35.0141
210,638,4.63818,-34.7269,-0.00178089,0.00705418,0.0024478,0.00768703,-0.00241373,1.3178,0.00609083,0.0164122,1434,386,4.63815,34.7269
217,638,4.64429,-34.4242,-0.00172648,0.00743993,0.0024786,0.00806722,-0.00235377,1.32292,0.00631079,0.0126654,1441,386,4.64429,34.4242
224,638,4.61267,-34.0941,-0.00146564,0.00815724,0.00265289,0.00884014,-0.00214854,1.31885,0.006725,0.0117086,1448,386,4.61262,34.0941
231,638,4.55334,-33.7606,-0.000926911,0.00872278,0.00298067,0.00956922,-0.00177335,1.2941,0.00704539,0.013123,1455,386,4.55331,33.7606
238,638,4.51953,-33.4247,-0.000651821,0.00988891,0.00359143,0.0109962,-0.00175916,1.27172,0.00798209,0.0137879,1462,386,4.51956,33.4247
245,638,4.50391,-33.0945,-0.00083138,0.0110262,0.00395521,0.0122244,-0.00202959,1.27664,0.00890359,0.0157729,1469,386,4.50385,33.0944
252,638,4.49451,-32.7496,-0.000656241,0.0121829,0.00444162,0.0135696,-0.00204301,1.26817,0.00979869,0.0216601,1476,386,4.49455,32.7496
259,638,4.45032,-32.415,-0.000480407,0.0135145,0.00504719,0.0151448,-0.00211073,1.25836,0.0108686,0.0212601,1483,386,4.45037,32.415
266,638,4.35913,-32.0395,-0.000342008,0.0150685,0.00583956,0.0170313,-0.00230482,1.24654,0.0121953,0.013102,1490,386,4.35912,32.0395
273,638,4.34766,-31.6766,-0.000328839,0.0168185,0.00669789,0.0191246,-0.00263495,1.23921,0.0137127,0.0111857,1497,386,4.34768,31.6766
280,638,4.40356,-31.2298,0.000329054,0.0185292,0.00732583,0.0211116,-0.0022533,1.2319,0.0148825,0.0214126,1504,386,4.40362,31.2298
287,638,4.62573,-30.5185,0.00153418,0.0203035,0.00821253,0.0233895,-0.00155182,1.21135,0.0161352,0.0389535,1511,386,4.62571,30.5185
294,638,4.25537,-30.2115,0.00262668,0.0222279,0.00906417,0.0257768,-0.000922292,1.19761,0.0175001,0.0491805,1518,386,4.25531,30.2115
301,638,4.13843,-29.67,0,0,0,0,0,0,0,-1,1525,386,4.13848,29.67
308,638,4.36377,-29.1561,0,0,0,0,0,0,0,-1,1532,386,4.36371,29.1561
315,638,4.57898,-28.7047,0,0,0,0,0,0,0,-1,1539,386,4.57902,28.7047
322,638,4.34888,-29.0851,0,0,0,0,0,0,0,-1,1546,386,4.34882,29.0851
329,638,3.82532,-28.4431,0,0,0,0,0,0,0,-1,1553,386,3.82537,28.4431
336,638,4.12573,-27.7598,0,0,0,0,0,0,0,-1,1560,386,4.12573,27.7598
343,638,4.1908,-28.0948,0,0,0,0,0,0,0,-1,1567,386,4.19082,28.0949
350,638,5.91162,-19.0222,0,0,0,0,0,0,0,-1,1574,386,5.91165,19.0222
357,638,0.387329,-3.01077,0,0,0,0,0,0,0,-1,1581,386,0.387332,3.01077
364,638,3.78149,-6.45215,0,0,0,0,0,0,0,-1,1588,386,3.78155,6.45216
371,638,4.18604,-6.71164,0,0,0,0,0,0,0,-1,1595,386,4.18598,6.71164
378,638,4.59045,-6.97113,0,0,0,0,0,0,0,-1,1602,386,4.5904,6.97112
385,638,0,0,0,0,0,0,0,0,0,-1,1609,386,0,0
392,638,0,0,0,0,0,0,0,0,0,-1,1616,386,0,0
399,638,0,0,0,0,0,0,0,0,0,-1,1623,386,0,0
406,638,0,0,0,0,0,0,0,0,0,-1,1630,386,0,0
413,638,0,0,0,0,0,0,0,0,0,-1,1637,386,0,0
420,638,0,0,0,0,0,0,0,0,0,-1,1644,386,0,0
427,638,0,0,0,0,0,0,0,0,0,-1,1651,386,0,0
434,638,0,0,0,0,0,0,0,0,0,-1,1658,386,0,0
441,638,0,0,0,0,0,0,0,0,0,-1,1665,386,0,0
448,638,0,0,0,0,0,0,0,0,0,-1,1672,386,0,0
455,638,0,0,0,0,0,0,0,0,0,-1,1679,386,0,0
462,638,0,0,0,0,0,0,0,0,0,-1,1686,386,0,0
469,638,0,0,0,0,0,0,0,0,0,-1,1693,386,0,0
476,638,0,0,0,0,0,0,0,0,0,-1,1700,386,0,0
483,638,0,0,0,0,0,0,0,0,0,-1,1707,386,0,0
490,638,0,0,0,0,0,0,0,0,0,-1,1714,386,0,0
497,638,0,0,0,0,0,0,0,0,0,-1,1721,386,0,0
504,638,0,0,0,0,0,0,0,0,0,-1,1728,386,0,0
511,638,0,0,0,0,0,0,0,0,0,-1,1735,386,0,0
518,638,0,0,0,0,0,0,0,0,0,-1,1742,386,0,0
525,638,0,0,0,0,0,0,0,0,0,-1,1749,386,0,0
532,638,0,0,0,0,0,0,0,0,0,-1,1756,386,0,0
539,638,0,0,0,0,0,0,0,0,0,-1,1763,386,0,0
546,638,0,0,0,0,0,0,0,0,0,-1,1770,386,0,0
553,638,0,0,0,0,0,0,0,0,0,-1,1777,386,0,0
560,638,0,0,0,0,0,0,0,0,0,-1,1784,386,0,0
567,638,0,0,0,0,0,0,0,0,0,-1,1791,386,0,0
574,638,0,0,0,0,0,0,0,0,0,-1,1798,386,0,0
581,638,0,0,0,0,0,0,0,0,0,-1,1805,386,0,0
588,638,0,0,0,0,0,0,0,0,0,-1,1812,386,0,0
595,638,0,0,0,0,0,0,0,0,0,-1,1819,386,0,0
602,638,0,0,0,0,0,0,0,0,0,-1,1826,386,0,0
609,638,0,0,0,0,0,0,0,0,0,-1,1833,386,0,0
616,638,0,0,0,0,0,0,0,0,0,-1,1840,386,0,0
623,638,0,0,0,0,0,0,0,0,0,-1,1847,386,0,0
630,638,0,0,0,0,0,0,0,0,0,-1,1854,386,0,0
637,638,0,0,0,0,0,0,0,0,0,-1,1861,386,0,0
644,638,0,0,0,0,0,0,0,0,0,-1,1868,386,0,0
651,638,0,0,0,0,0,0,0,0,0,-1,1875,386,0,0
658,638,0,0,0,0,0,0,0,0,0,-1,1882,386,0,0
665,638,0,0,0,0,0,0,0,0,0,-1,1889,386,0,0
672,638,0,0,0,0,0,0,0,0,0,-1,1896,386,0,0
679,638,0,0,0,0,0,0,0,0,0,-1,1903,386,0,0
686,638,0,0,0,0,0,0,0,0,0,-1,1910,386,0,0
693,638,0,0,0,0,0,0,0,0,0,-1,1917,386,0,0
700,638,0,0,0,0,0,0,0,0,0,-1,1924,386,0,0
707,638,0,0,0,0,0,0,0,0,0,-1,1931,386,0,0
714,638,0,0,0,0,0,0,0,0,0,-1,1938,386,0,0
721,638,0,0,0,0,0,0,0,0,0,-1,1945,386,0,0
728,638,0,0,0,0,0,0,0,0,0,-1,1952,386,0,0
735,638,0,0,0,0,0,0,0,0,0,-1,1959,386,0,0
742,638,0,0,0,0,0,0,0,0,0,-1,1966,386,0,0
749,638,0,0,0,0,0,0,0,0,0,-1,1973,386,0,0
756,638,0,0,0,0,0,0,0,0,0,-1,1980,386,0,0
763,638,0,0,0,0,0,0,0,0,0,-1,1987,386,0,0
770,638,0,0,0,0,0,0,0,0,0,-1,1994,386,0,0
777,638,0,0,0,0,0,0,0,0,0,-1,2001,386,0,0
784,638,0,0,0,0,0,0,0,0,0,-1,2008,386,0,0
791,638,0,0,0,0,0,0,0,0,0,-1,2015,386,0,0
798,638,0,0,0,0,0,0,0,0,0,-1,2022,386,0,0
805,638,0,0,0,0,0,0,0,0,0,-1,2029,386,0,0
812,638,0,0,0,0,0,0,0,0,0,-1,2036,386,0,0
-700,631,0,0,0,0,0,0,0,0,0,-1,524,393,0,0
-693,631,0,0,0,0,0,0,0,0,0,-1,531,393,0,0
-686,631,0,0,0,0,0,0,0,0,0,-1,538,393,0,0
-679,631,0,0,0,0,0,0,0,0,0,-1,545,393,0,0
-672,631,0,0,0,0,0,0,0,0,0,-1,552,393,0,0
-665,631,0,0,0,0,0,0,0,0,0,-1,559,393,0,0
-658,631,0,0,0,0,0,0,0,0,0,-1,566,393,0,0
-651,631,0,0,0,0,0,0,0,0,0,-1,573,393,0,0
-644,631,0,0,0,0,0,0,0,0,0,-1,580,393,0,0
-637,631,0,0,0,0,0,0,0,0,0,-1,587,393,0,0
-630,631,0,0,0,0,0,0,0,0,0,-1,594,393,0,0
-623,631,0,0,0,0,0,0,0,0,0,-1,601,393,0,0
-616,631,0,0,0,0,0,0,0,0,0,-1,608,393,0,0
-609,631,0,0,0,0,0,0,0,0,0,-1,615,393,0,0
-602,631,0,0,0,0,0,0,0,0,0,-1,622,393,0,0
-595,631,0,0,0,0,0,0,0,0,0,-1,629,393,0,0
-588,631,0,0,0,0,0,0,0,0,0,-1,636,393,0,0
-581,631,0,0,0,0,0,0,0,0,0,-1,643,393,0,0
-574,631,0,0,0,0,0,0,0,0,0,-1,650,393,0,0
-567,631,0,0,0,0,0,0,0,0,0,-1,657,393,0,0
-560,631,0,0,0,0,0,0,0,0,0,-1,664,393,0,0
-553,631,0,0,0,0,0,0,0,0,0,-1,671,393,0,0
-546,631,0,0,0,0,0,0,0,0,0,-1,678,393,0,0
-539,631,0,0,0,0,0,0,0,0,0,-1,685,393,0,0
-532,631,0,0,0,0,0,0,0,0,0,-1,692,393,0,0
-525,631,0,0,0,0,0,0,0,0,0,-1,699,393,0,0
-518,631,0,0,0,0,0,0,0,0,0,-1,706,393,0,0
-511,631,0,0,0,0,0,0,0,0,0,-1,713,393,0,0
-504,631,0,0,0,0,0,0,0,0,0,-1,720,393,0,0
-497,631,0,0,0,0,0,0,0,0,0,-1,727,393,0,0
-490,631,0,0,0,0,0,0,0,0,0,-1,734,393,0,0
-483,631,0,0,0,0,0,0,0,0,0,-1,741,393,0,0
-476,631,0,0,0,0,0,0,0,0,0,-1,748,393,0,0
-469,631,0,0,0,0,0,0,0,0,0,-1,755,393,0,0
-462,631,0,0,0,0,0,0,0,0,0,-1,762,393,0,0
-455,631,0,0,0,0,0,0,0,0,0,-1,769,393,0,0
-448,631,0,0,0,0,0,0,0,0,0,-1,776,393,0,0
-441,631,0,0,0,0,0,0,0,0,0,-1,783,393,0,0
-434,631,0,0,0,0,0,0,0,0,0,-1,790,393,0,0
-427,631,0,0,0,0,0,0,0,0,0,-1,797,393,0,0
-420,631,0,0,0,0,0,0,0,0,0,-1,804,393,0,0
-413,631,0,0,0,0,0,0,0,0,0,-1,811,393,0,0
-406,631,0,0,0,0,0,0,0,0,0,-1,818,393,0,0
-399,631,0,0,0,0,0,0,0,0,0,-1,825,393,0,0
-392,631,0,0,0,0,0,0,0,0,0,-1,832,393,0,0
-385,631,0,0,0,0,0,0,0,0,0,-1,839,393,0,0
-378,631,0,0,0,0,0,0,0,0,0,-1,846,393,0,0
-371,631,0,0,0,0,0,0,0,0,0,-1,853,393,0,0
-364,631,0,0,0,0,0,0,0,0,0,-1,860,393,0,0
-357,631,0,0,0,0,0,0,0,0,0,-1,867,393,0,0
-350,631,0,0,0,0,0,0,0,0,0,-1,874,393,0,0
-343,631,0,0,0,0,0,0,0,0,0,-1,881,393,0,0
-336,631,0,0,0,0,0,0,0,0,0,-1,888,393,0,0
-329,631,0,0,0,0,0,0,0,0,0,-1,895,393,0,0
-322,631,0,0,0,0,0,0,0,0,0,-1,902,393,0,0
-315,631,0,0,0,0,0,0,0,0,0,-1,909,393,0,0
-308,631,0,0,0,0,0,0,0,0,0,-1,916,393,0,0
-301,631,0,0,0,0,0,0,0,0,0,-1,923,393,0,0
-294,631,0,0,0,0,0,0,0,0,0,-1,930,393,0,0
-287,631,0,0,0,0,0,0,0,0,0,-1,937,393,0,0
-280,631,8.60339,-27.6646,0,0,0,0,0,0,0,-1,944,393,8.6034,27.6645
-273,631,8.9472,-28.1023,0,0,0,0,0,0,0,-1,951,393,8.94721,28.1023
-266,631,9.4726,-28.8027,0,0,0,0,0,0,0,-1,958,393,9.47259,28.8027
-259,631,9.76935,-29.4612,0,0,0,0,0,0,0,-1,965,393,9.76935,29.4613
-252,631,10.028,-29.6031,0,0,0,0,0,0,0,-1,972,393,10.028,29.6031
-245,631,4.06909,-25.853,0,0,0,0,0,0,0,-1,979,393,4.06911,25.853
-238,631,3.05438,-25.4099,0,0,0,0,0,0,0,-1,986,393,3.0544,25.4099
-231,631,2.14966,-25.2306,0,0,0,0,0,0,0,-1,993,393,2.14968,25.2306
-224,631,6.83575,-19.7909,0,0,0,0,0,0,0,-1,1000,393,6.83575,19.7909
-217,631,5.05188,-18.3867,0,0,0,0,0,0,0,-1,1007,393,5.0519,18.3866
-210,631,3.37842,-26.3769,0,0,0,0,0,0,0,-1,1014,393,3.37839,26.3769
-203,631,5.05298,-26.4169,0,0,0,0,0,0,0,-1,1021,393,5.05302,26.4169
-196,631,5.12305,-28.7096,0,0,0,0,0,0,0,-1,1028,393,5.12308,28.7096
-189,631,5.27246,-29.0206,0,0,0,0,0,0,0,-1,1035,393,5.27249,29.0206
-182,631,5.26208,-29.907,0,0,0,0,0,0,0,-1,1042,393,5.26209,29.907
-175,631,5.19739,-30.5259,0.00430191,0.034963,-0.0139382,0.040352,-0.00108707,-1.20186,0.0272709,0.0409076,1049,393,5.19742,30.5259
-168,631,5.0459,-31.1501,0.00210434,0.0183287,-0.0160122,0.0281664,-0.0077334,-1.01986,0.0218172,0.0226637,1056,393,5.04587,31.1501
-161,631,5.02625,-31.582,0.00101579,0.00308892,-0.0170193,0.0191032,-0.0149985,-0.815813,0.0197361,0.0125382,1063,393,5.02629,31.582
-154,631,5.00256,-31.9962,0.000778132,0.00294533,-0.015566,0.0174654,-0.0137419,-0.820149,0.0180602,0.0126543,1070,393,5.00251,31.9962
-147,631,4.97473,-32.3387,0.000479383,0.00349915,-0.0138854,0.0159566,-0.011978,-0.839555,0.0161825,0.0125743,1077,393,4.97476,32.3388
-140,631,4.95239,-32.6779,0.000195778,0.00388817,-0.0121696,0.0143508,-0.0102669,-0.860677,0.0142781,0.0103308,1084,393,4.95237,32.6779
-133,631,4.91138,-33.0125,-3.42061e-05,0.00463597,-0.0103616,0.0129224,-0.00832061,-0.896226,0.0123602,0.00843512,1091,393,4.91143,33.0125
-126,631,4.89209,-33.3183,-0.000835296,0.00324855,-0.00724391,0.00873282,-0.00631958,-0.922774,0.00872766,0.0134177,1098,393,4.89209,33.3183
-119,631,4.84729,-33.6397,-0.00176329,0.00106199,-0.00361783,0.00353319,-0.00423449,-0.971528,0.00449077,0.0166399,1105,393,4.84734,33.6397
-112,631,4.83081,-33.9809,-0.00245374,-0.00040102,-0.00100851,1.1544e-05,-0.0028663,-1.18248,0.00191473,0.015141,1112,393,4.83087,33.9809
-105,631,4.88379,-34.2871,-0.00347128,-0.00221678,0.00174569,-0.00098907,-0.00469899,0.957871,0.00286055,0.0197377,1119,393,4.88376,34.2871
-98,631,4.84583,-34.5701,-0.00402736,-0.00389202,0.00406986,0.000110731,-0.00803011,0.793711,0.0053907,0.0170108,1126,393,4.84588,34.5701
-91,631,4.77307,-34.85,-0.00418699,-0.00643454,0.00561466,0.000415253,-0.0110368,0.686628,0.00750011,0.0184244,1133,393,4.77306,34.85
-84,631,4.76294,-35.1241,-0.00423204,-0.00807041,0.0065556,0.000679526,-0.012982,0.643,0.00888982,0.0175748,1140,393,4.7629,35.124
-77,631,4.7334,-35.3834,-0.00405467,-0.00852367,0.00656768,0.000648226,-0.0132266,0.621427,0.00904153,0.0113349,1147,393,4.73343,35.3834
-70,631,4.71826,-35.614,-0.00391166,-0.00833626,0.00632669,0.000578374,-0.0128263,0.617205,0.00875003,0.0120425,1154,393,4.71831,35.614
-63,631,4.7157,-35.867,-0.00333681,-0.00709924,0.00536523,0.000467448,-0.0109035,0.61678,0.00742972,0.0132202,1161,393,4.71574,35.867
-56,631,4.70581,-36.1191,-0.00258449,-0.005659,0.00427565,0.000421853,-0.00866534,0.612826,0.00592252,0.0139991,1168,393,4.70576,36.1191
-49,631,4.71313,-36.311,-0.00189587,-0.00424665,0.00328553,0.000418187,-0.0065607,0.613618,0.00451965,0.0107448,1175,393,4.71308,36.311
-42,631,4.71143,-36.5022,-0.00116637,-0.00333986,0.0026479,0.000609118,-0.00511534,0.590671,0.00363034,0.00921295,1182,393,4.71144,36.5022
-35,631,4.72168,-36.6854,-0.000539735,-0.0023509,0.00205945,0.000804444,-0.00369508,0.578262,0.00277074,0.0104443,1189,393,4.72169,36.6854
-28,631,4.72473,-36.8537,-9.24554e-05,-0.00183268,0.00182545,0.00105965,-0.00298479,0.562998,0.00242163,0.0135495,1196,393,4.7247,36.8537
-21,631,4.69421,-37.0142,0.000517204,-0.00107448,0.00146723,0.00139053,-0.00194781,0.536899,0.00193632,0.0119462,1203,393,4.69421,37.0142
-14,631,4.68066,-37.1687,0.00105255,-0.000920762,0.00138418,0.00176573,-0.00163394,0.475763,0.00196329,0.013974,1210,393,4.68063,37.1687
-7,631,4.71191,-37.3506,0.00139974,-0.0017021,0.00193652,0.00232984,-0.0026322,0.447759,0.00286661,0.0219084,1217,393,4.71197,37.3507
0,631,4.71887,-37.4695,0.00174389,-0.00245882,0.00251325,0.00291853,-0.00363346,0.437211,0.00379029,0.0259683,1224,393,4.71882,37.4695
7,631,4.69312,-37.5364,0.00201137,-0.00343597,0.00334758,0.00360333,-0.00502793,0.443901,0.00500583,0.0213871,1231,393,4.69318,37.5364
14,631,4.71948,-37.6381,0.00229938,-0.00404336,0.00434291,0.0045056,-0.00624958,0.470031,0.00623666,0.0115569,1238,393,4.71948,37.6381
21,631,4.74329,-37.7307,0.00244795,-0.00439592,0.00533238,0.00536194,-0.00730991,0.500129,0.00734485,0.012518,1245,393,4.7433,37.7307
28,631,4.73242,-37.7797,0.00255911,-0.00484412,0.00629908,0.00616369,-0.00844869,0.519756,0.00847077,0.01426,1252,393,4.73238,37.7797
35,631,4.78235,-37.8132,0.0026091,-0.00519389,0.00744131,0.00710967,-0.00969446,0.543948,0.00974005,0.0138617,1259,393,4.78233,37.8132
42,631,4.83069,-37.8541,0.00251485,-0.00541842,0.00849741,0.00792586,-0.0108294,0.567028,0.0108715,0.0126363,1266,393,4.83065,37.8541
49,631,4.8208,-37.8889,0.00239869,-0.00542362,0.00919202,0.00847704,-0.011502,0.584253,0.0115789,0.0116233,1273,393,4.8208,37.8889
56,631,4.8302,-37.923,0.00217637,-0.00516188,0.00966416,0.00884448,-0.01183,0.603972,0.0119778,0.0130703,1280,393,4.83016,37.923
63,631,4.82959,-37.9619,0.00183853,-0.00484587,0.00977566,0.00882754,-0.0118349,0.620682,0.0119715,0.0144795,1287,393,4.82961,37.9619
70,631,4.84497,-37.908,0.00156797,-0.00450299,0.00958532,0.00858697,-0.011522,0.632054,0.0116511,0.0151504,1294,393,4.84497,37.908
77,631,4.8479,-37.8685,0.00136437,-0.00399772,0.00917411,0.00824117,-0.0108745,0.643237,0.0110713,0.0148924,1301,393,4.84784,37.8685
84,631,4.86023,-37.8333,0.00118215,-0.00358955,0.00832242,0.00745395,-0.00986135,0.645803,0.0100292,0.0129066,1308,393,4.86026,37.8333
91,631,4.87671,-37.7663,0.000926093,-0.00316913,0.00727811,0.00643914,-0.00868218,0.648274,0.00876226,0.015939,1315,393,4.87677,37.7663
98,631,4.89258,-37.696,0.000745295,-0.00280656,0.00610193,0.00532448,-0.00738575,0.643788,0.00737035,0.0130253,1322,393,4.89253,37.696
105,631,4.8927,-37.6085,0.000734937,-0.00231213,0.00485333,0.00429825,-0.00587544,0.633311,0.00589726,0.0106843,1329,393,4.89265,37.6085
112,631,4.91089,-37.5105,0.000825979,-0.00160673,0.00339989,0.00322054,-0.00400129,0.613611,0.00417765,0.0122168,1336,393,4.91085,37.5105
119,631,4.92175,-37.4137,0.000929306,-0.00141292,0.00209863,0.00216147,-0.00264509,0.530901,0.00277975,0.0131951,1343,393,4.9218,37.4137
126,631,4.93237,-37.2456,0.00113219,-0.00115241,0.0011355,0.00160055,-0.00162077,0.391205,0.00185984,0.0179148,1350,393,4.93236,37.2456
133,631,4.93542,-37.1021,0.00121457,-0.000472894,0.000486205,0.00134464,-0.000602958,0.261388,0.0011513,0.0192766,1357,393,4.93542,37.1021
140,631,4.93799,-37.0055,0.00120727,0.000182762,-2.12204e-05,0.00120771,0.000182323,-0.0207009,0.00075177,0.0208731,1364,393,4.93797,37.0055
147,631,4.93555,-36.8093,0.0011794,0.000803316,-0.000195978,0.00126296,0.000719756,-0.403031,0.000731541,0.0230101,1371,393,4.9355,36.8093
154,631,4.97461,-36.6104,0.0010393,0.00124816,5.3541e-05,0.00126108,0.00102638,1.33392,0.000774434,0.0216286,1378,393,4.97457,36.6104
161,631,5.01514,-36.3917,0.000908271,0.00172273,0.000277388,0.00180823,0.000822774,1.27181,0.00104539,0.0241274,1385,393,5.01508,36.3917
168,631,5.02905,-36.1567,0.00071237,0.00228383,0.0004646,0.00241091,0.000585288,1.3038,0.00145205,0.0283918,1392,393,5.02904,36.1567
175,631,4.97864,-36.0043,0.000418926,0.00280521,0.000682581,0.00298666,0.000237475,1.31097,0.00191686,0.0213715,1399,393,4.97862,36.0043
182,631,4.94897,-35.7924,7.72322e-05,0.00318551,0.000882327,0.0034185,-0.000155763,1.31262,0.00233266,0.0115765,1406,393,4.94901,35.7924
189,631,4.94739,-35.514,-0.000204743,0.00366357,0.00108127,0.00394529,-0.000486464,1.31592,0.00280644,0.010832,1413,393,4.94743,35.514
196,631,4.93652,-35.2565,-0.000342704,0.00411968,0.00124857,0.00444527,-0.000668295,1.31571,0.00320956,0.0119373,1420,393,4.93649,35.2565
203,631,4.93201,-35.0086,-0.000504366,0.00485061,0.00140512,0.00519691,-0.000850666,1.32916,0.0037802,0.0137564,1427,393,4.93195,35.0086
210,631,4.91479,-34.7338,-0.000800596,0.00496598,0.00157372,0.0053675,-0.00120211,1.32099,0.00403911,0.0156961,1434,393,4.91478,34.7338
217,631,4.9176,-34.4584,-0.000852414,0.00542817,0.00169592,0.00585686,-0.0012811,1.32321,0.0043943,0.0177037,1441,393,4.91762,34.4584
224,631,4.89807,-34.1592,-0.000751636,0.00603847,0.00190405,0.00653594,-0.00124911,1.31524,0.00482783,0.014974,1448,393,4.89809,34.1592
231,631,4.85217,-33.8162,-0.000444198,0.00654095,0.00223215,0.00719332,-0.00109657,1.28645,0.00519976,0.0122955,1455,393,4.85222,33.8162
238,631,4.81409,-33.4482,-0.000311397,0.00748188,0.00275074,0.00835498,-0.00118449,1.26345,0.00600389,0.0179802,1462,393,4.8141,33.4482
245,631,4.82324,-33.1183,-0.000509888,0.00840799,0.00308318,0.00937013,-0.00147203,1.26831,0.00679082,0.0196515,1469,393,4.82329,33.1183
252,631,4.77979,-32.8135,-0.000457204,0.00939782,0.00350801,0.010519,-0.00157837,1.26145,0.00759366,0.0193801,1476,393,4.7798,32.8135
259,631,4.73267,-32.4566,-0.000398884,0.0105179,0.00403153,0.0118453,-0.00172631,1.25272,0.00853072,0.0139065,1483,393,4.73263,32.4566
266,631,4.7312,-32.1027,-0.000359321,0.011797,0.00469496,0.0133991,-0.00196144,1.24194,0.0096532,0.0118785,1490,393,4.73119,32.1027
273,631,4.70972,-31.6989,-0.000412782,0.0131926,0.00538734,0.0150674,-0.00228766,1.23589,0.0108879,0.0140701,1497,393,4.70974,31.6989
280,631,4.69702,-31.2903,6.38671e-05,0.0145582,0.00590426,0.0166588,-0.00203679,1.22898,0.0118433,0.0127628,1504,393,4.69707,31.2903
287,631,4.66943,-30.8878,0.000968271,0.015954,0.00662598,0.0184635,-0.00154119,1.20876,0.0128536,0.0144691,1511,393,4.66937,30.8878
294,631,4.61328,-30.4038,0.00173567,0.017429,0.00730148,0.0203006,-0.00113596,1.19608,0.0139279,0.0186422,1518,393,4.61322,30.4038
301,631,4.52429,-29.8894,0.0028666,0.0188561,0.00794049,0.0221293,-0.000406631,1.1798,0.0148903,0.0259916,1525,393,4.52431,29.8894
308,631,4.64429,-29.398,0.00440775,0.0200996,0.00845331,0.023787,0.000720387,1.15947,0.0156234,0.0354417,1532,393,4.64431,29.398
315,631,4.75854,-28.9388,0.00644149,0.0213463,0.00902509,0.0255982,0.00218959,1.13052,0.0163844,0.0473873,1539,393,4.75853,28.9387
322,631,4.66272,-28.6206,0,0,0,0,0,0,0,-1,1546,393,4.66276,28.6206
329,631,4.25671,-28.2454,0.0113555,0.0227959,0.010043,0.0286335,0.00551789,1.04427,0.0175414,0.0487051,1553,393,4.25667,28.2454
336,631,4.59924,-27.7376,0.0137173,0.0234208,0.0102318,0.0298929,0.00724522,1.00679,0.0180061,0.0474939,1560,393,4.59928,27.7376
343,631,4.90527,-27.2756,0,0,0,0,0,0,0,-1,1567,393,4.90526,27.2756
350,631,2.1344,-9.23401,0,0,0,0,0,0,0,-1,1574,393,2.13439,9.23401
357,631,2.6449,-9.60303,0,0,0,0,0,0,0,-1,1581,393,2.64491,9.60304
364,631,3.39136,-5.7594,0,0,0,0,0,0,0,-1,1588,393,3.39137,5.75939
371,631,3.72839,-6.0574,0,0,0,0,0,0,0,-1,1595,393,3.72845,6.05742
378,631,4.06555,-6.35544,0,0,0,0,0,0,0,-1,1602,393,4.06553,6.35544
385,631,3.90442,-3.58298,0,0,0,0,0,0,0,-1,1609,393,3.90437,3.58299
392,631,0.352295,-2.21301,0,0,0,0,0,0,0,-1,1616,393,0.352345,2.213
399,631,0,0,0,0,0,0,0,0,0,-1,1623,393,0,0
406,631,0,0,0,0,0,0,0,0,0,-1,1630,393,0,0
413,631,0,0,0,0,0,0,0,0,0,-1,1637,393,0,0
420,631,0,0,0,0,0,0,0,0,0,-1,1644,393,0,0
427,631,0,0,0,0,0,0,0,0,0,-1,1651,393,0,0
434,631,0,0,0,0,0,0,0,0,0,-1,1658,393,0,0
441,631,0,0,0,0,0,0,0,0,0,-1,1665,393,0,0
448,631,0,0,0,0,0,0,0,0,0,-1,1672,393,0,0
455,631,0,0,0,0,0,0,0,0,0,-1,1679,393,0,0
462,631,0,0,0,0,0,0,0,0,0,-1,1686,393,0,0
469,631,0,0,0,0,0,0,0,0,0,-1,1693,393,0,0
476,631,0,0,0,0,0,0,0,0,0,-1,1700,393,0,0
483,631,0,0,0,0,0,0,0,0,0,-1,1707,393,0,0
490,631,0,0,0,0,0,0,0,0,0,-1,1714,393,0,0
497,631,0,0,0,0,0,0,0,0,0,-1,1721,393,0,0
504,631,0,0,0,0,0,0,0,0,0,-1,1728,393,0,0
511,631,0,0,0,0,0,0,0,0,0,-1,1735,393,0,0
518,631,0,0,0,0,0,0,0,0,0,-1,1742,393,0,0
525,631,0,0,0,0,0,0,0,0,0,-1,1749,393,0,0
532,631,0,0,0,0,0,0,0,0,0,-1,1756,393,0,0
539,631,0,0,0,0,0,0,0,0,0,-1,1763,393,0,0
546,631,0,0,0,0,0,0,0,0,0,-1,1770,393,0,0
553,631,0,0,0,0,0,0,0,0,0,-1,1777,393,0,0
560,631,0,0,0,0,0,0,0,0,0,-1,1784,393,0,0
567,631,0,0,0,0,0,0,0,0,0,-1,1791,393,0,0
574,631,0,0,0,0,0,0,0,0,0,-1,1798,393,0,0
581,631,0,0,0,0,0,0,0,0,0,-1,1805,393,0,0
588,631,0,0,0,0,0,0,0,0,0,-1,1812,393,0,0
595,631,0,0,0,0,0,0,0,0,0,-1,1819,393,0,0
602,631,0,0,0,0,0,0,0,0,0,-1,1826,393,0,0
609,631,0,0,0,0,0,0,0,0,0,-1,1833,393,0,0
616,631,0,0,0,0,0,0,0,0,0,-1,1840,393,0,0
623,631,0,0,0,0,0,0,0,0,0,-1,1847,393,0,0
630,631,0,0,0,0,0,0,0,0,0,-1,1854,393,0,0
637,631,0,0,0,0,0,0,0,0,0,-1,1861,393,0,0
644,631,0,0,0,0,0,0,0,0,0,-1,1868,393,0,0
651,631,0,0,0,0,0,0,0,0,0,-1,1875,393,0,0
658,631,0,0,0,0,0,0,0,0,0,-1,1882,393,0,0
665,631,0,0,0,0,0,0,0,0,0,-1,1889,393,0,0
672,631,0,0,0,0,0,0,0,0,0,-1,1896,393,0,0
679,631,0,0,0,0,0,0,0,0,0,-1,1903,393,0,0
686,631,0,0,0,0,0,0,0,0,0,-1,1910,393,0,0
693,631,0,0,0,0,0,0,0,0,0,-1,1917,393,0,0
700,631,0,0,0,0,0,0,0,0,0,-1,1924,393,0,0
707,631,0,0,0,0,0,0,0,0,0,-1,1931,393,0,0
714,631,0,0,0,0,0,0,0,0,0,-1,1938,393,0,0
721,631,0,0,0,0,0,0,0,0,0,-1,1945,393,0,0
728,631,0,0,0,0,0,0,0,0,0,-1,1952,393,0,0
735,631,0,0,0,0,0,0,0,0,0,-1,1959,393,0,0
742,631,0,0,0,0,0,0,0,0,0,-1,1966,393,0,0
749,631,0,0,0,0,0,0,0,0,0,-1,1973,393,0,0
756,631,0,0,0,0,0,0,0,0,0,-1,1980,393,0,0
763,631,0,0,0,0,0,0,0,0,0,-1,1987,393,0,0
770,631,0,0,0,0,0,0,0,0,0,-1,1994,393,0,0
777,631,0,0,0,0,0,0,0,0,0,-1,2001,393,0,0
784,631,0,0,0,0,0,0,0,0,0,-1,2008,393,0,0
791,631,0,0,0,0,0,0,0,0,0,-1,2015,393,0,0
798,631,0,0,0,0,0,0,0,0,0,-1,2022,393,0,0
805,631,0,0,0,0,0,0,0,0,0,-1,2029,393,0,0
812,631,0,0,0,0,0,0,0,0,0,-1,2036,393,0,0
-700,624,0,0,0,0,0,0,0,0,0,-1,524,400,0,0
-693,624,0,0,0,0,0,0,0,0,0,-1,531,400,0,0
-686,624,0,0,0,0,0,0,0,0,0,-1,538,400,0,0
-679,624,0,0,0,0,0,0,0,0,0,-1,545,400,0,0
-672,624,0,0,0,0,0,0,0,0,0,-1,552,400,0,0
-665,624,0,0,0,0,0,0,0,0,0,-1,559,400,0,0
-658,624,0,0,0,0,0,0,0,0,0,-1,566,400,0,0
-651,624,0,0,0,0,0,0,0,0,0,-1,573,400,0,0
-644,624,0,0,0,0,0,0,0,0,0,-1,580,400,0,0
-637,624,0,0,0,0,0,0,0,0,0,-1,587,400,0,0
-630,624,0,0,0,0,0,0,0,0,0,-1,594,400,0,0
-623,624,0,0,0,0,0,0,0,0,0,-1,601,400,0,0
-616,624,0,0,0,0,0,0,0,0,0,-1,608,400,0,0
-609,624,0,0,0,0,0,0,0,0,0,-1,615,400,0,0
-602,624,0,0,0,0,0,0,0,0,0,-1,622,400,0,0
-595,624,0,0,0,0,0,0,0,0,0,-1,629,400,0,0
-588,624,0,0,0,0,0,0,0,0,0,-1,636,400,0,0
-581,624,0,0,0,0,0,0,0,0,0,-1,643,400,0,0
-574,624,0,0,0,0,0,0,0,0,0,-1,650,400,0,0
-567,624,0,0,0,0,0,0,0,0,0,-1,657,400,0,0
-560,624,0,0,0,0,0,0,0,0,0,-1,664,400,0,0
-553,624,0,0,0,0,0,0,0,0,0,-1,671,400,0,0
-546,624,0,0,0,0,0,0,0,0,0,-1,678,400,0,0
-539,624,0,0,0,0,0,0,0,0,0,-1,685,400,0,0
-532,624,0,0,0,0,0,0,0,0,0,-1,692,400,0,0
-525,624,0,0,0,0,0,0,0,0,0,-1,699,400,0,0
-518,624,0,0,0,0,0,0,0,0,0,-1,706,400,0,0
-511,624,0,0,0,0,0,0,0,0,0,-1,713,400,0,0
-504,624,0,0,0,0,0,0,0,0,0,-1,720,400,0,0
-497,624,0,0,0,0,0,0,0,0,0,-1,727,400,0,0
-490,624,0,0,0,0,0,0,0,0,0,-1,734,400,0,0
-483,624,0,0,0,0,0,0,0,0,0,-1,741,400,0,0
-476,624,0,0,0,0,0,0,0,0,0,-1,748,400,0,0
-469,624,0,0,0,0,0,0,0,0,0,-1,755,400,0,0
-462,624,0,0,0,0,0,0,0,0,0,-1,762,400,0,0
-455,624,0,0,0,0,0,0,0,0,0,-1,769,400,0,0
-448,624,0,0,0,0,0,0,0,0,0,-1,776,400,0,0
-441,624,0,0,0,0,0,0,0,0,0,-1,783,400,0,0
-434,624,0,0,0,0,0,0,0,0,0,-1,790,400,0,0
-427,624,0,0,0,0,0,0,0,0,0,-1,797,400,0,0
-420,624,0,0,0,0,0,0,0,0,0,-1,804,400,0,0
-413,624,0,0,0,0,0,0,0,0,0,-1,811,400,0,0
-406,624,0,0,0,0,0,0,0,0,0,-1,818,400,0,0
-399,624,0,0,0,0,0,0,0,0,0,-1,825,400,0,0
-392,624,0,0,0,0,0,0,0,0,0,-1,832,400,0,0
-385,624,0,0,0,0,0,0,0,0,0,-1,839,400,0,0
-378,624,0,0,0,0,0,0,0,0,0,-1,846,400,0,0
-371,624,0,0,0,0,0,0,0,0,0,-1,853,400,0,0
-364,624,0,0,0,0,0,0,0,0,0,-1,860,400,0,0
-357,624,0,0,0,0,0,0,0,0,0,-1,867,400,0,0
-350,624,0,0,0,0,0,0,0,0,0,-1,874,400,0,0
-343,624,0,0,0,0,0,0,0,0,0,-1,881,400,0,0
-336,624,0,0,0,0,0,0,0,0,0,-1,888,400,0,0
-329,624,0,0,0,0,0,0,0,0,0,-1,895,400,0,0
-322,624,0,0,0,0,0,0,0,0,0,-1,902,400,0,0
-315,624,0,0,0,0,0,0,0,0,0,-1,909,400,0,0
-308,624,0,0,0,0,0,0,0,0,0,-1,916,400,0,0
-301,624,0,0,0,0,0,0,0,0,0,-1,923,400,0,0
-294,624,-3.88867,-16.7909,0,0,0,0,0,0,0,-1,930,400,-3.88868,16.7909
-287,624,-1.1264,-16.1147,0,0,0,0,0,0,0,-1,937,400,-1.12642,16.1147
-280,624,6.62939,-26.5046,0,0,0,0,0,0,0,-1,944,400,6.62939,26.5046
-273,624,7.30109,-27.0413,0,0,0,0,0,0,0,-1,951,400,7.30109,27.0413
-266,624,7.83124,-27.8354,0,0,0,0,0,0,0,-1,958,400,7.83121,27.8354
-259,624,8.02167,-28.5853,0,0,0,0,0,0,0,-1,965,400,8.02164,28.5853
-252,624,8.22632,-29.2663,0,0,0,0,0,0,0,-1,972,400,8.2263,29.2663
-245,624,4.72278,-25.3516,0,0,0,0,0,0,0,-1,979,400,4.72279,25.3516
-238,624,4.08038,-25.0565,0,0,0,0,0,0,0,-1,986,400,4.0804,25.0565
-231,624,4.95148,-20.7456,0,0,0,0,0,0,0,-1,993,400,4.95146,20.7456
-224,624,4.59351,-27.4048,0,0,0,0,0,0,0,-1,1000,400,4.59353,27.4048
-217,624,5.05896,-27.989,0,0,0,0,0,0,0,-1,1007,400,5.05896,27.989
-210,624,4.99176,-28.5726,0,0,0,0,0,0,0,-1,1014,400,4.99176,28.5726
-203,624,4.79773,-29.0992,0,0,0,0,0,0,0,-1,1021,400,4.79774,29.0992
-196,624,4.79736,-29.1573,0.00623076,0.0659917,-0.00527724,0.0664542,0.00576833,-1.48339,0.0425106,0.0451799,1028,400,4.79742,29.1573
-189,624,4.83337,-29.5672,0.00495017,0.0505599,-0.00779766,0.0518562,0.00365389,-1.40606,0.0334195,0.0433011,1035,400,4.8334,29.5672
-182,624,4.89722,-30.138,0.00370922,0.0365824,-0.00948587,0.0391233,0.00116837,-1.30908,0.0257016,0.0353141,1042,400,4.89724,30.138
-175,624,4.8302,-30.7776,0.0026512,0.0249054,-0.010756,0.0292542,-0.00169762,-1.18658,0.0200926,0.0236879,1049,400,4.8302,30.7776
-168,624,4.72815,-31.2045,0.00109163,0.0139112,-0.011742,0.020879,-0.00587615,-1.03524,0.0162364,0.014121,1056,400,4.72817,31.2045
-161,624,4.69336,-31.6197,0.00033015,0.00428737,-0.0120422,0.0145124,-0.00989487,-0.866824,0.0141753,0.0117217,1063,400,4.69334,31.6197
-154,624,4.68738,-31.9884,0.000250869,0.00363255,-0.0109569,0.0130283,-0.00914487,-0.861953,0.012867,0.0110603,1070,400,4.68736,31.9884
-147,624,4.6731,-32.3582,0.000114163,0.00349936,-0.00968885,0.0116423,-0.00802882,-0.871873,0.0114208,0.0114587,1077,400,4.67313,32.3583
-140,624,4.63843,-32.6995,-5.55898e-06,0.00324757,-0.00840859,0.0101855,-0.00694347,-0.880938,0.00994827,0.00983387,1084,400,4.63838,32.6995
-133,624,4.58923,-33.0265,-8.03404e-05,0.00332211,-0.00705608,0.00887915,-0.00563738,-0.903691,0.00845049,0.0113857,1091,400,4.58924,33.0265
-126,624,4.56396,-33.3397,-0.000334475,0.0029405,-0.0053384,0.00688691,-0.00428089,-0.934211,0.00650598,0.0138678,1098,400,4.56391,33.3397
-119,624,4.54321,-33.6506,-0.000593312,0.00238663,-0.00346252,0.00466616,-0.00287283,-0.98858,0.0043935,0.015358,1105,400,4.54324,33.6506
-112,624,4.54663,-33.9838,-0.000792686,0.00200704,-0.00207467,0.00310995,-0.0018956,-1.08218,0.00291817,0.0179195,1112,400,4.54663,33.9838
-105,624,4.57544,-34.2867,-0.00115928,0.00150181,-0.000746412,0.00169688,-0.00135435,-1.31518,0.00176532,0.0140367,1119,400,4.57538,34.2867
-98,624,4.52539,-34.5623,-0.00121129,0.000996531,0.000253844,0.00102534,-0.0012401,1.45779,0.00130991,0.0134552,1126,400,4.52533,34.5623
-91,624,4.51538,-34.8473,-0.00103187,-1.88055e-05,0.000810338,0.000430289,-0.00148097,1.06473,0.00115771,0.0198207,1133,400,4.51539,34.8473
-84,624,4.55554,-35.1376,-0.00079906,-0.000636448,0.00111006,0.000395279,-0.00183079,0.821955,0.00137141,0.0195708,1140,400,4.5556,35.1376
-77,624,4.53662,-35.3986,-0.000471435,-0.000769526,0.00101269,0.000403119,-0.00164408,0.712334,0.00125225,0.0143463,1147,400,4.53666,35.3986
-70,624,4.53162,-35.6086,-0.00014299,-0.000699614,0.000858622,0.000481299,-0.0013239,0.628672,0.00107942,0.0146112,1154,400,4.53156,35.6086
-63,624,4.52478,-35.8552,0.000318097,-0.00041052,0.000590202,0.000647372,-0.000739796,0.508891,0.000801474,0.0164748,1161,400,4.52483,35.8552
-56,624,4.50269,-36.1151,0.000741154,-0.000283733,0.000423516,0.000893514,-0.000436093,0.345335,0.000782645,0.0135314,1168,400,4.50272,36.115
-49,624,4.51941,-36.3354,0.00105624,-0.000705371,0.000507744,0.0011921,-0.000841238,0.261463,0.00117976,0.0105379,1175,400,4.51936,36.3355
-42,624,4.52026,-36.5141,0.0015658,-0.00166932,0.00111791,0.00191451,-0.00201803,0.302366,0.00227071,0.0102656,1182,400,4.52025,36.5141
-35,624,4.52905,-36.6895,0.00197905,-0.00260364,0.00163781,0.00250421,-0.0031288,0.310289,0.00325888,0.0155924,1189,400,4.52901,36.6895
-28,624,4.52368,-36.8761,0.00228057,-0.0035682,0.00251481,0.00321317,-0.0045008,0.35512,0.0044743,0.0208645,1196,400,4.52365,36.8761
-21,624,4.52649,-37.0204,0.00280359,-0.00444267,0.00332675,0.00409924,-0.00573831,0.37139,0.00570593,0.0147224,1203,400,4.52649,37.0204
-14,624,4.55261,-37.1564,0.00331549,-0.00545936,0.00420085,0.00500233,-0.0071462,0.381839,0.00705026,0.0152358,1210,400,4.5526,37.1564
-7,624,4.57251,-37.2953,0.00375397,-0.00676598,0.00543094,0.00605458,-0.00906659,0.400694,0.00878775,0.021091,1217,400,4.57245,37.2953
0,624,4.61536,-37.4268,0.0041853,-0.00802176,0.00675112,0.00718291,-0.0110194,0.417867,0.0105866,0.0220803,1224,400,4.61539,37.4268
7,624,4.60266,-37.5453,0.00445956,-0.00953913,0.00841647,0.0084068,-0.0134864,0.438534,0.0127529,0.0161555,1231,400,4.60264,37.5453
14,624,4.67554,-37.6584,0.0047155,-0.0104637,0.0102632,0.00989052,-0.0156387,0.467026,0.0148633,0.0131384,1238,400,4.67556,37.6584
21,624,4.69019,-37.7243,0.00476509,-0.0111383,0.0120752,0.0112716,-0.0176449,0.494229,0.0168296,0.0134572,1245,400,4.69022,37.7243
28,624,4.67761,-37.7825,0.0047563,-0.0119843,0.0139359,0.0126424,-0.0198705,0.514958,0.0189253,0.0126347,1252,400,4.67764,37.7825
35,624,4.71375,-37.8073,0.00467754,-0.0126062,0.0159579,0.0141833,-0.0221119,0.537235,0.0211211,0.015382,1259,400,4.71375,37.8073
42,624,4.77856,-37.8547,0.0044114,-0.0130572,0.0178922,0.0155874,-0.0242332,0.558332,0.0231703,0.0175346,1266,400,4.77851,37.8547
49,624,4.81396,-37.8799,0.00407255,-0.0130428,0.0193861,0.0167058,-0.0256761,0.577544,0.0246512,0.0194621,1273,400,4.81398,37.8799
56,624,4.8208,-37.942,0.00353352,-0.01281,0.0204556,0.0173893,-0.0266657,0.595366,0.0256224,0.0194316,1280,400,4.8208,37.942
63,624,4.86304,-37.9343,0.00285837,-0.0123421,0.0210454,0.0176338,-0.0271176,0.612117,0.0260299,0.0144301,1287,400,4.86301,37.9343
70,624,4.86536,-37.9245,0.00227996,-0.011662,0.0211173,0.0175471,-0.0269291,0.625975,0.0258681,0.0126772,1294,400,4.86541,37.9245
77,624,4.87939,-37.8875,0.00180077,-0.010832,0.0208279,0.017249,-0.0262803,0.638174,0.0253113,0.0139194,1301,400,4.87936,37.8875
84,624,4.90796,-37.8453,0.00132091,-0.0100362,0.0198329,0.0162721,-0.0249875,0.645968,0.0239978,0.0127276,1308,400,4.9079,37.8453
91,624,4.94324,-37.7747,0.000826706,-0.00912356,0.0183454,0.0148596,-0.0231565,0.652987,0.0221221,0.0136014,1315,400,4.94321,37.7747
98,624,4.96021,-37.7049,0.000457757,-0.00816297,0.0163981,0.0131026,-0.0208078,0.656877,0.0197459,0.0139695,1322,400,4.9602,37.7049
105,624,4.98303,-37.6451,0.00029493,-0.00715889,0.0141386,0.0111896,-0.0180535,0.65653,0.0170378,0.0143356,1329,400,4.98298,37.6451
112,624,5.0177,-37.554,0.000350642,-0.00594547,0.0113886,0.00901832,-0.0146131,0.650555,0.0137705,0.0144313,1336,400,5.01774,37.5541
119,624,5.03479,-37.4522,0.000518427,-0.0055164,0.00857334,0.00658985,-0.0115878,0.616192,0.0106263,0.0158382,1343,400,5.03477,37.4522
126,624,5.03772,-37.2851,0.000911953,-0.00503068,0.00605416,0.00468464,-0.00880337,0.557272,0.0079074,0.0195386,1350,400,5.03776,37.2851
133,624,5.08313,-37.1198,0.00118702,-0.00402852,0.00379995,0.00318795,-0.00602944,0.484674,0.0054053,0.0191811,1357,400,5.08318,37.1198
140,624,5.09509,-36.9904,0.00136887,-0.00324,0.00178577,0.0019798,-0.00385094,0.329632,0.00342367,0.0183045,1364,400,5.09509,36.9905
147,624,5.09717,-36.7758,0.0016067,-0.00252686,0.000302896,0.00162878,-0.00254894,0.0727592,0.00243143,0.0219947,1371,400,5.09712,36.7758
154,624,5.17334,-36.5998,0.0017616,-0.00226765,-0.00027916,0.00178085,-0.0022869,-0.068845,0.00235457,0.025448,1378,400,5.17334,36.5998
161,624,5.21533,-36.4185,0.00195773,-0.00172539,-0.000564703,0.00204237,-0.00181003,-0.14877,0.00222553,0.024099,1385,400,5.21538,36.4186
168,624,5.2262,-36.2004,0.00194526,-0.00108209,-0.00070775,0.00210255,-0.00123938,-0.218684,0.0019508,0.0235043,1392,400,5.22621,36.2004
175,624,5.21179,-36.0368,0.00171302,-0.000436188,-0.000695362,0.00191838,-0.000641546,-0.287162,0.00153803,0.0180285,1399,400,5.21173,36.0368
182,624,5.20081,-35.809,0.00133283,0.000227875,-0.000464059,0.00150186,5.88388e-05,-0.349319,0.000982217,0.0107133,1406,400,5.20083,35.809
189,624,5.18909,-35.5383,0.0010097,0.00103818,-0.000177888,0.0012024,0.000845485,-0.825342,0.000713053,0.0103149,1413,400,5.18908,35.5383
196,624,5.17175,-35.2786,0.000822008,0.00173578,0.00013436,0.00175513,0.000802662,1.42779,0.00101455,0.0114944,1420,400,5.17179,35.2786
203,624,5.1908,-35.0064,0.000574456,0.00251761,0.000429053,0.00260813,0.000483937,1.36287,0.00160199,0.0144283,1427,400,5.19078,35.0064
210,624,5.20349,-34.7371,0.000219775,0.00299834,0.000703725,0.0031664,5.17089e-05,1.33636,0.00209391,0.01785,1434,400,5.20352,34.7371
217,624,5.1897,-34.4361,4.5541e-05,0.0035821,0.000928577,0.00381109,-0.000183444,1.32902,0.00260403,0.0224056,1441,400,5.18973,34.4361
224,624,5.17139,-34.1266,-1.08877e-05,0.00420295,0.00119045,0.00451601,-0.000323944,1.31365,0.00312425,0.0186319,1448,400,5.17136,34.1266
231,624,5.16101,-33.8423,8.44835e-05,0.00475182,0.00154371,0.0052162,-0.000379893,1.27859,0.00361076,0.0126365,1455,400,5.16102,33.8423
238,624,5.13647,-33.5345,0.00010919,0.00557056,0.00199669,0.00622268,-0.000542939,1.25511,0.00434077,0.0173343,1462,400,5.13653,33.5344
245,624,5.15015,-33.2136,-7.53283e-05,0.00637933,0.00231101,0.00712144,-0.000817437,1.26008,0.00504224,0.0184339,1469,400,5.15013,33.2136
252,624,5.11047,-32.8373,-0.000103658,0.00725778,0.00268672,0.00813405,-0.000979928,1.25553,0.00577711,0.0138901,1476,400,5.11042,32.8373
259,624,5.07947,-32.4898,-0.000131401,0.00820987,0.00313834,0.00925875,-0.00118029,1.24825,0.0066012,0.0096966,1483,400,5.07946,32.4898
266,624,5.08337,-32.1017,-0.000164618,0.0092604,0.00368942,0.0105328,-0.00143705,1.23868,0.00754665,0.0132476,1490,400,5.08336,32.1017
273,624,5.07397,-31.7169,-0.000261476,0.0103899,0.00425391,0.0118803,-0.00175185,1.23381,0.00856408,0.0162042,1497,400,5.07398,31.7169
280,624,5.03296,-31.3512,6.15387e-05,0.0115003,0.00469148,0.0131783,-0.00161646,1.22731,0.00937095,0.0148048,1504,400,5.0329,31.3512
287,624,5.00159,-30.9892,0.000724964,0.0126173,0.00528438,0.0146261,-0.00128384,1.20753,0.0102056,0.0116312,1511,400,5.00162,30.9892
294,624,4.96594,-30.5879,0.00125633,0.0137648,0.00582529,0.0160575,-0.00103633,1.19584,0.0110666,0.0106141,1518,400,4.96595,30.5878
301,624,4.92395,-30.1265,0.00203386,0.0148596,0.00633453,0.0174607,-0.000567212,1.18117,0.0118341,0.011345,1525,400,4.92396,30.1265
308,624,4.9043,-29.6662,0.00309548,0.0158225,0.00676267,0.0187449,0.000173097,1.1629,0.0124393,0.0147191,1532,400,4.90427,29.6662
315,624,4.91211,-29.2231,0.00444965,0.0168105,0.00723367,0.0201445,0.00111569,1.13892,0.0130736,0.0202644,1539,400,4.91208,29.2231
322,624,4.88379,-28.7843,0.00596548,0.0174775,0.00772616,0.0213561,0.00208691,1.10555,0.0135952,0.0334779,1546,400,4.88377,28.7843
329,624,4.82837,-28.3026,0.00751455,0.0179529,0.00806915,0.0223437,0.00312378,1.07246,0.0139714,0.0488424,1553,400,4.82837,28.3026
336,624,4.8905,-27.8544,0.00881798,0.0184755,0.00829094,0.0232414,0.00405213,1.04909,0.0143357,0.0446052,1560,400,4.89051,27.8544
343,624,4.98083,-27.4149,0,0,0,0,0,0,0,-1,1567,400,4.98082,27.4149
350,624,1.99194,-7.29742,0,0,0,0,0,0,0,-1,1574,400,1.99198,7.29741
357,624,2.64075,-3.13092,0,0,0,0,0,0,0,-1,1581,400,2.64076,3.13091
364,624,3.16565,-4.9458,0,0,0,0,0,0,0,-1,1588,400,3.16564,4.94579
371,624,3.37561,-5.23529,0,0,0,0,0,0,0,-1,1595,400,3.37563,5.23529
378,624,1.50439,-5.22165,0,0,0,0,0,0,0,-1,1602,400,1.50438,5.22164
385,624,1.2301,-10.5866,0,0,0,0,0,0,0,-1,1609,400,1.2301,10.5866
392,624,4.26819,-5.14236,0,0,0,0,0,0,0,-1,1616,400,4.26818,5.14236
399,624,2.22168,-9.19293,0,0,0,0,0,0,0,-1,1623,400,2.22173,9.19294
406,624,2.68213,-9.91171,0,0,0,0,0,0,0,-1,1630,400,2.68213,9.91171
413,624,0,0,0,0,0,0,0,0,0,-1,1637,400,0,0
420,624,0,0,0,0,0,0,0,0,0,-1,1644,400,0,0
427,624,0,0,0,0,0,0,0,0,0,-1,1651,400,0,0
434,624,0,0,0,0,0,0,0,0,0,-1,1658,400,0,0
441,624,0,0,0,0,0,0,0,0,0,-1,1665,400,0,0
448,624,0,0,0,0,0,0,0,0,0,-1,1672,400,0,0
455,624,0,0,0,0,0,0,0,0,0,-1,1679,400,0,0
462,624,0,0,0,0,0,0,0,0,0,-1,1686,400,0,0
469,624,0,0,0,0,0,0,0,0,0,-1,1693,400,0,0
476,624,0,0,0,0,0,0,0,0,0,-1,1700,400,0,0
483,624,0,0,0,0,0,0,0,0,0,-1,1707,400,0,0
490,624,0,0,0,0,0,0,0,0,0,-1,1714,400,0,0
497,624,0,0,0,0,0,0,0,0,0,-1,1721,400,0,0
504,624,0,0,0,0,0,0,0,0,0,-1,1728,400,0,0
511,624,0,0,0,0,0,0,0,0,0,-1,1735,400,0,0
518,624,0,0,0,0,0,0,0,0,0,-1,1742,400,0,0
525,624,0,0,0,0,0,0,0,0,0,-1,1749,400,0,0
532,624,0,0,0,0,0,0,0,0,0,-1,1756,400,0,0
539,624,0,0,0,0,0,0,0,0,0,-1,1763,400,0,0
546,624,0,0,0,0,0,0,0,0,0,-1,1770,400,0,0
553,624,0,0,0,0,0,0,0,0,0,-1,1777,400,0,0
560,624,0,0,0,0,0,0,0,0,0,-1,1784,400,0,0
567,624,0,0,0,0,0,0,0,0,0,-1,1791,400,0,0
574,624,0,0,0,0,0,0,0,0,0,-1,1798,400,0,0
581,624,0,0,0,0,0,0,0,0,0,-1,1805,400,0,0
588,624,0,0,0,0,0,0,0,0,0,-1,1812,400,0,0
595,624,0,0,0,0,0,0,0,0,0,-1,1819,400,0,0
602,624,0,0,0,0,0,0,0,0,0,-1,1826,400,0,0
609,624,0,0,0,0,0,0,0,0,0,-1,1833,400,0,0
616,624,0,0,0,0,0,0,0,0,0,-1,1840,400,0,0
623,624,0,0,0,0,0,0,0,0,0,-1,1847,400,0,0
630,624,0,0,0,0,0,0,0,0,0,-1,1854,400,0,0
637,624,0,0,0,0,0,0,0,0,0,-1,1861,400,0,0
644,624,0,0,0,0,0,0,0,0,0,-1,1868,400,0,0
651,624,0,0,0,0,0,0,0,0,0,-1,1875,400,0,0
658,624,0,0,0,0,0,0,0,0,0,-1,1882,400,0,0
665,624,0,0,0,0,0,0,0,0,0,-1,1889,400,0,0
672,624,0,0,0,0,0,0,0,0,0,-1,1896,400,0,0
679,624,0,0,0,0,0,0,0,0,0,-1,1903,400,0,0
686,624,0,0,0,0,0,0,0,0,0,-1,1910,400,0,0
693,624,0,0,0,0,0,0,0,0,0,-1,1917,400,0,0
700,624,0,0,0,0,0,0,0,0,0,-1,1924,400,0,0
707,624,0,0,0,0,0,0,0,0,0,-1,1931,400,0,0
714,624,0,0,0,0,0,0,0,0,0,-1,1938,400,0,0
721,624,0,0,0,0,0,0,0,0,0,-1,1945,400,0,0
728,624,0,0,0,0,0,0,0,0,0,-1,1952,400,0,0
735,624,0,0,0,0,0,0,0,0,0,-1,1959,400,0,0
742,624,0,0,0,0,0,0,0,0,0,-1,1966,400,0,0
749,624,0,0,0,0,0,0,0,0,0,-1,1973,400,0,0
756,624,0,0,0,0,0,0,0,0,0,-1,1980,400,0,0
763,624,0,0,0,0,0,0,0,0,0,-1,1987,400,0,0
770,624,0,0,0,0,0,0,0,0,0,-1,1994,400,0,0
777,624,0,0,0,0,0,0,0,0,0,-1,2001,400,0,0
784,624,0,0,0,0,0,0,0,0,0,-1,2008,400,0,0
791,624,0,0,0,0,0,0,0,0,0,-1,2015,400,0,0
798,624,0,0,0,0,0,0,0,0,0,-1,2022,400,0,0
805,624,0,0,0,0,0,0,0,0,0,-1,2029,400,0,0
812,624,0,0,0,0,0,0,0,0,0,-1,2036,400,0,0
-700,617,0,0,0,0,0,0,0,0,0,-1,524,407,0,0
-693,617,0,0,0,0,0,0,0,0,0,-1,531,407,0,0
-686,617,0,0,0,0,0,0,0,0,0,-1,538,407,0,0
-679,617,0,0,0,0,0,0,0,0,0,-1,545,407,0,0
-672,617,0,0,0,0,0,0,0,0,0,-1,552,407,0,0
-665,617,0,0,0,0,0,0,0,0,0,-1,559,407,0,0
-658,617,0,0,0,0,0,0,0,0,0,-1,566,407,0,0
-651,617,0,0,0,0,0,0,0,0,0,-1,573,407,0,0
-644,617,0,0,0,0,0,0,0,0,0,-1,580,407,0,0
-637,617,0,0,0,0,0,0,0,0,0,-1,587,407,0,0
-630,617,0,0,0,0,0,0,0,0,0,-1,594,407,0,0
-623,617,0,0,0,0,0,0,0,0,0,-1,601,407,0,0
-616,617,0,0,0,0,0,0,0,0,0,-1,608,407,0,0
-609,617,0,0,0,0,0,0,0,0,0,-1,615,407,0,0
-602,617,0,0,0,0,0,0,0,0,0,-1,622,407,0,0
-595,617,0,0,0,0,0,0,0,0,0,-1,629,407,0,0
-588,617,0,0,0,0,0,0,0,0,0,-1,636,407,0,0
-581,617,0,0,0,0,0,0,0,0,0,-1,643,407,0,0
-574,617,0,0,0,0,0,0,0,0,0,-1,650,407,0,0
-567,617,0,0,0,0,0,0,0,0,0,-1,657,407,0,0
-560,617,0,0,0,0,0,0,0,0,0,-1,664,407,0,0
-553,617,0,0,0,0,0,0,0,0,0,-1,671,407,0,0
-546,617,0,0,0,0,0,0,0,0,0,-1,678,407,0,0
-539,617,0,0,0,0,0,0,0,0,0,-1,685,407,0,0
-532,617,0,0,0,0,0,0,0,0,0,-1,692,407,0,0
-525,617,0,0,0,0,0,0,0,0,0,-1,699,407,0,0
-518,617,0,0,0,0,0,0,0,0,0,-1,706,407,0,0
-511,617,0,0,0,0,0,0,0,0,0,-1,713,407,0,0
-504,617,0,0,0,0,0,0,0,0,0,-1,720,407,0,0
-497,617,0,0,0,0,0,0,0,0,0,-1,727,407,0,0
-490,617,0,0,0,0,0,0,0,0,0,-1,734,407,0,0
-483,617,0,0,0,0,0,0,0,0,0,-1,741,407,0,0
-476,617,0,0,0,0,0,0,0,0,0,-1,748,407,0,0
-469,617,0,0,0,0,0,0,0,0,0,-1,755,407,0,0
-462,617,0,0,0,0,0,0,0,0,0,-1,762,407,0,0
-455,617,0,0,0,0,0,0,0,0,0,-1,769,407,0,0
-448,617,0,0,0,0,0,0,0,0,0,-1,776,407,0,0
-441,617,0,0,0,0,0,0,0,0,0,-1,783,407,0,0
-434,617,0,0,0,0,0,0,0,0,0,-1,790,407,0,0
-427,617,0,0,0,0,0,0,0,0,0,-1,797,407,0,0
-420,617,0,0,0,0,0,0,0,0,0,-1,804,407,0,0
-413,617,0,0,0,0,0,0,0,0,0,-1,811,407,0,0
-406,617,0,0,0,0,0,0,0,0,0,-1,818,407,0,0
-399,617,0,0,0,0,0,0,0,0,0,-1,825,407,0,0
-392,617,0,0,0,0,0,0,0,0,0,-1,832,407,0,0
-385,617,0,0,0,0,0,0,0,0,0,-1,839,407,0,0
-378,617,0,0,0,0,0,0,0,0,0,-1,846,407,0,0
-371,617,0,0,0,0,0,0,0,0,0,-1,853,407,0,0
-364,617,0,0,0,0,0,0,0,0,0,-1,860,407,0,0
-357,617,0,0,0,0,0,0,0,0,0,-1,867,407,0,0
-350,617,0,0,0,0,0,0,0,0,0,-1,874,407,0,0
-343,617,0,0,0,0,0,0,0,0,0,-1,881,407,0,0
-336,617,0,0,0,0,0,0,0,0,0,-1,888,407,0,0
-329,617,0,0,0,0,0,0,0,0,0,-1,895,407,0,0
-322,617,0,0,0,0,0,0,0,0,0,-1,902,407,0,0
-315,617,0,0,0,0,0,0,0,0,0,-1,909,407,0,0
-308,617,0,0,0,0,0,0,0,0,0,-1,916,407,0,0
-301,617,6.8504,-26.4473,0,0,0,0,0,0,0,-1,923,407,6.85041,26.4473
-294,617,8.41962,-26.4389,0,0,0,0,0,0,0,-1,930,407,8.41964,26.4389
-287,617,4.55206,-24.8128,0,0,0,0,0,0,0,-1,937,407,4.55207,24.8128
-280,617,5.17279,-25.0622,0,0,0,0,0,0,0,-1,944,407,5.17279,25.0622
-273,617,5.97894,-25.6442,0,0,0,0,0,0,0,-1,951,407,5.97892,25.6442
-266,617,6.0816,-27.0438,0,0,0,0,0,0,0,-1,958,407,6.08162,27.0438
-259,617,6.35059,-27.4279,0,0,0,0,0,0,0,-1,965,407,6.35059,27.4279
-252,617,5.17645,-26.7679,0,0,0,0,0,0,0,-1,972,407,5.17646,26.7679
-245,617,5.09534,-26.8346,0,0,0,0,0,0,0,-1,979,407,5.09536,26.8346
-238,617,4.34875,-27.1967,0,0,0,0,0,0,0,-1,986,407,4.34873,27.1967
-231,617,4.38507,-27.0219,0,0,0,0,0,0,0,-1,993,407,4.38506,27.0219
-224,617,4.35468,-27.5267,0.00722373,0.0891186,0.000920058,0.0891289,0.00721339,1.55956,0.0571667,0.0496456,1000,407,4.3547,27.5267
-217,617,4.59937,-28.1123,0.00660788,0.0805985,-0.000461108,0.0806014,0.00660501,-1.56456,0.0516735,0.0462667,1007,407,4.59936,28.1123
-210,617,4.59186,-28.713,0.00609862,0.0683792,-0.00223846,0.0684595,0.00601827,-1.53492,0.0437717,0.0328359,1014,407,4.59187,28.713
-203,617,4.49146,-29.2224,0.00511829,0.0551356,-0.00384255,0.055429,0.00482481,-1.49457,0.035454,0.0220524,1021,407,4.49143,29.2224
-196,617,4.47632,-29.6018,0.00389599,0.0436914,-0.00523804,0.0443693,0.00321809,-1.44209,0.0285673,0.0165103,1028,407,4.47626,29.6018
-189,617,4.42822,-29.9855,0.00310675,0.0338296,-0.00665625,0.0352097,0.00172664,-1.36635,0.0229193,0.0155565,1035,407,4.42825,29.9855
-182,617,4.43433,-30.4015,0.00233179,0.0248916,-0.00743875,0.0271236,9.98033e-05,-1.27929,0.0180492,0.0186202,1042,407,4.43432,30.4015
-175,617,4.40857,-30.795,0.00162322,0.0172799,-0.00797305,0.0206253,-0.00172218,-1.17352,0.0143587,0.0167103,1049,407,4.40856,30.795
-168,617,4.36963,-31.2312,0.00057502,0.0100345,-0.00828,0.0148404,-0.0042309,-1.04489,0.0115648,0.0117726,1056,407,4.36959,31.2312
-161,617,4.33875,-31.6406,8.90336e-05,0.00378414,-0.00819714,0.0103394,-0.00646618,-0.896241,0.0097882,0.0112845,1063,407,4.33877,31.6406
-154,617,4.33533,-32.0039,0.000110455,0.00284295,-0.00735191,0.00895448,-0.00600108,-0.877268,0.00869054,0.0124381,1070,407,4.33535,32.0039
-147,617,4.3385,-32.3507,8.05837e-05,0.00227258,-0.00635586,0.00762625,-0.00527308,-0.870778,0.00748863,0.0166503,1077,407,4.33854,32.3507
-140,617,4.3136,-32.7275,6.95401e-05,0.00162978,-0.00535719,0.00626335,-0.00456404,-0.8577,0.00627681,0.012159,1084,407,4.31364,32.7275
-133,617,4.27734,-33.0488,9.747e-05,0.00125084,-0.0043029,0.00501553,-0.00366722,-0.852012,0.0050331,0.0146716,1091,407,4.27737,33.0488
-126,617,4.24854,-33.35,0.00013618,0.0011039,-0.00326565,0.00392135,-0.00268126,-0.858946,0.00383436,0.0145611,1098,407,4.24856,33.35
-119,617,4.23535,-33.6865,0.000239767,0.00108363,-0.00224786,0.00294882,-0.00162541,-0.878171,0.00267752,0.0141935,1105,407,4.23539,33.6865
-112,617,4.23804,-33.9648,0.000317261,0.00101837,-0.00146523,0.0021744,-0.000838768,-0.902815,0.00179572,0.0152065,1112,407,4.23807,33.9648
-105,617,4.23682,-34.2647,0.000335533,0.000868839,-0.00083263,0.00147647,-0.0002721,-0.940365,0.00108643,0.0157948,1119,407,4.23682,34.2647
-98,617,4.23584,-34.5627,0.000527331,0.000558967,-0.000428111,0.000971552,0.000114746,-0.803864,0.000613043,0.0122719,1126,407,4.23579,34.5627
-91,617,4.24731,-34.8557,0.000799542,3.89076e-05,-0.000234761,0.000866163,-2.77136e-05,-0.276513,0.000586898,0.0171864,1133,407,4.24728,34.8558
-84,617,4.28992,-35.1448,0.00108707,-0.000355037,-7.83087e-05,0.00109131,-0.000359277,-0.0540894,0.000872323,0.0180638,1140,407,4.28992,35.1448
-77,617,4.29321,-35.3896,0.00141066,-0.000655579,2.41353e-05,0.00141095,-0.000655861,0.0116786,0.00121953,0.0144619,1147,407,4.29327,35.3896
-70,617,4.31311,-35.6164,0.00185261,-0.000907614,7.17803e-05,0.00185447,-0.000909479,0.0259818,0.00162656,0.015409,1154,407,4.31311,35.6164
-63,617,4.32043,-35.8507,0.00232894,-0.00107691,7.94574e-05,0.0023308,-0.00107876,0.0233128,0.00201226,0.0180365,1161,407,4.32038,35.8507
-56,617,4.28308,-36.0848,0.00265086,-0.0012135,0.000186061,0.0026598,-0.00122244,0.0479999,0.00229205,0.0136915,1168,407,4.28306,36.0848
-49,617,4.30176,-36.3121,0.00292798,-0.00217947,0.000498455,0.00297617,-0.00222766,0.0963819,0.00301478,0.0108657,1175,407,4.30172,36.3121
-42,617,4.33569,-36.5301,0.00369315,-0.0037072,0.00174522,0.00408407,-0.00409812,0.22036,0.00472399,0.012547,1182,407,4.33573,36.5301
-35,617,4.36621,-36.7027,0.00414478,-0.00534188,0.002912,0.00496732,-0.00616442,0.275294,0.00643929,0.0173341,1189,407,4.36626,36.7027
-28,617,4.35547,-36.8638,0.00451277,-0.00675684,0.00472364,0.00623077,-0.00847484,0.34883,0.00852318,0.0207009,1196,407,4.35551,36.8638
-21,617,4.40222,-37.0042,0.00511445,-0.00826054,0.00650256,0.00775465,-0.0109007,0.385689,0.0108216,0.0150519,1203,407,4.40224,37.0042
-14,617,4.41296,-37.1426,0.00559976,-0.00984396,0.00833525,0.00924027,-0.0134845,0.41179,0.0131962,0.0153446,1210,407,4.41292,37.1427
-7,617,4.41553,-37.2476,0.00610041,-0.0114773,0.0104448,0.0109621,-0.016339,0.435642,0.0158639,0.0186818,1217,407,4.41547,37.2476
0,617,4.46606,-37.3604,0.00659862,-0.0130362,0.012642,0.0127875,-0.0192252,0.455253,0.0186067,0.0168348,1224,407,4.46609,37.3604
7,617,4.53674,-37.5338,0.00688405,-0.0149845,0.0151033,0.0145956,-0.022696,0.472083,0.021699,0.0124273,1231,407,4.53671,37.5338
14,617,4.57056,-37.6335,0.00710417,-0.0161613,0.0178102,0.0167441,-0.0258012,0.496106,0.0247483,0.0141673,1238,407,4.57056,37.6335
21,617,4.60315,-37.6944,0.00709279,-0.0170618,0.0204192,0.018739,-0.028708,0.518337,0.0275943,0.013065,1245,407,4.60316,37.6944
28,617,4.64465,-37.7921,0.00701744,-0.0181921,0.0230398,0.0206751,-0.0318497,0.535097,0.0305531,0.0118892,1252,407,4.64465,37.7921
35,617,4.65283,-37.8492,0.00685251,-0.019028,0.0258694,0.0228376,-0.0350131,0.553489,0.0336458,0.0132573,1259,407,4.65283,37.8492
42,617,4.74194,-37.8343,0.00647331,-0.0197143,0.0286516,0.0248813,-0.0381222,0.571068,0.0366419,0.019931,1266,407,4.74189,37.8343
49,617,4.78076,-37.8493,0.00591802,-0.0196373,0.0309118,0.0265889,-0.0403082,0.589413,0.0388929,0.0204594,1273,407,4.78076,37.8493
56,617,4.78552,-37.8845,0.00505785,-0.01923,0.0326536,0.0277526,-0.0419248,0.607372,0.0405047,0.0150527,1280,407,4.78557,37.8845
63,617,4.84998,-37.9106,0.00397464,-0.0184864,0.033836,0.0283952,-0.0429069,0.625164,0.0414495,0.0109401,1287,407,4.84999,37.9106
70,617,4.87781,-37.9146,0.00297003,-0.0173323,0.0343332,0.0286213,-0.0429835,0.64166,0.0416173,0.0151099,1294,407,4.8778,37.9146
77,617,4.93115,-37.8852,0.00203787,-0.0160495,0.0343529,0.0285176,-0.0425292,0.656689,0.0412839,0.0135238,1301,407,4.93114,37.8852
84,617,4.97852,-37.842,0.00107401,-0.0147202,0.0334079,0.0275055,-0.0411517,0.669336,0.0398994,0.010231,1308,407,4.97851,37.842
91,617,5.0249,-37.7669,0.000151356,-0.0132005,0.0316778,0.025849,-0.0388981,0.681546,0.037634,0.0100955,1315,407,5.02487,37.7669
98,617,5.07703,-37.6962,-0.0006507,-0.0116148,0.0291941,0.0235716,-0.0358371,0.692589,0.0345425,0.0117912,1322,407,5.077,37.6962
105,617,5.11243,-37.6268,-0.00119606,-0.0100805,0.0261424,0.0208789,-0.0321555,0.70124,0.0308493,0.0130199,1329,407,5.11249,37.6268
112,617,5.14111,-37.5358,-0.00133733,-0.0083266,0.0223941,0.0178332,-0.0274971,0.707997,0.026369,0.0159406,1336,407,5.14109,37.5358
119,617,5.1427,-37.4078,-0.00122477,-0.00769297,0.0182582,0.0140835,-0.0230013,0.697742,0.0216163,0.019347,1343,407,5.14276,37.4078
126,617,5.1604,-37.293,-0.000724467,-0.00713983,0.0142625,0.0106866,-0.0185509,0.674787,0.0170827,0.0221813,1350,407,5.16035,37.293
133,617,5.19556,-37.1328,-0.00026674,-0.00598107,0.0103735,0.00763583,-0.0138836,0.651015,0.0125976,0.0190855,1357,407,5.19561,37.1328
140,617,5.26367,-36.9805,0.000191326,-0.00523216,0.00647785,0.00450213,-0.00954296,0.587172,0.00828119,0.0153202,1364,407,5.26366,36.9805
147,617,5.29785,-36.7965,0.000881856,-0.00462253,0.00337795,0.00248685,-0.00622752,0.443562,0.00518345,0.0183628,1371,407,5.29791,36.7965
154,617,5.34583,-36.6621,0.00167214,-0.00501899,0.00124625,0.00189672,-0.00524357,0.178292,0.00427074,0.0229148,1378,407,5.34581,36.6621
161,617,5.3844,-36.4912,0.0025457,-0.0048793,-0.000224021,0.00255245,-0.00488605,-0.0301347,0.0043645,0.0237351,1385,407,5.38437,36.4912
168,617,5.41382,-36.2756,0.00304784,-0.0044056,-0.00126477,0.00325661,-0.00461437,-0.163591,0.00456679,0.0214154,1392,407,5.41377,36.2756
175,617,5.42163,-36.0633,0.0031327,-0.00385594,-0.00193466,0.00363252,-0.00435577,-0.252824,0.00461834,0.0177652,1399,407,5.42161,36.0633
182,617,5.43982,-35.8162,0.00270142,-0.00289588,-0.00167391,0.00316382,-0.00335828,-0.269516,0.00376609,0.0117552,1406,407,5.43987,35.8162
189,617,5.43127,-35.5557,0.00231359,-0.00170046,-0.00131173,0.00270423,-0.0020911,-0.289441,0.00277612,0.0113872,1413,407,5.43122,35.5557
196,617,5.41675,-35.3029,0.00207315,-0.000696907,-0.000886491,0.00233256,-0.000956315,-0.284675,0.00195346,0.0154196,1420,407,5.4167,35.3029
203,617,5.41943,-35.0446,0.00172177,0.000315518,-0.000539498,0.0019049,0.000132391,-0.327236,0.00122818,0.0155994,1427,407,5.41946,35.0445
210,617,5.46497,-34.7437,0.00127576,0.00111237,-0.000171751,0.00138426,0.00100387,-0.563398,0.000825782,0.0149794,1434,407,5.46498,34.7437
217,617,5.47974,-34.4454,0.000977021,0.00184586,0.000164256,0.00187588,0.000947005,1.39005,0.00108306,0.0208315,1441,407,5.47973,34.4454
224,617,5.49365,-34.1565,0.000775398,0.00254239,0.00049225,0.00267027,0.000647521,1.31663,0.00160839,0.0205346,1448,407,5.49368,34.1565
231,617,5.49683,-33.8529,0.000683063,0.00318346,0.000886815,0.00346605,0.000400474,1.26231,0.00218945,0.01482,1455,407,5.49685,33.853
238,617,5.4707,-33.5571,0.000629865,0.00393071,0.00129604,0.00437877,0.000181807,1.23795,0.0028605,0.0151382,1462,407,5.4707,33.5571
245,617,5.4812,-33.253,0.000476803,0.00464518,0.00159514,0.00518555,-6.35686e-05,1.24417,0.00347842,0.0126694,1469,407,5.48119,33.253
252,617,5.46021,-32.8714,0.000390608,0.00542259,0.00192751,0.00607607,-0.000262863,1.24393,0.00414111,0.0135295,1476,407,5.46026,32.8714
259,617,5.4176,-32.4979,0.000292016,0.00620476,0.00231097,0.00700081,-0.00050404,1.23906,0.00484397,0.0114457,1483,407,5.41757,32.4979
266,617,5.40918,-32.1118,0.000197073,0.00702907,0.00275657,0.00800257,-0.000776432,1.23131,0.00561179,0.0139875,1490,407,5.4092,32.1119
273,617,5.4187,-31.7202,6.91336e-05,0.00792537,0.00321347,0.00907234,-0.00107783,1.22797,0.00643765,0.0152202,1497,407,5.41866,31.7202
280,617,5.37793,-31.3687,0.000252706,0.00882119,0.00359265,0.0101282,-0.00105428,1.22188,0.00712958,0.0136766,1504,407,5.37799,31.3687
287,617,5.35437,-30.9897,0.000705956,0.00971403,0.00408391,0.0112898,-0.000869864,1.20254,0.00783264,0.0123977,1511,407,5.35442,30.9898
294,617,5.33411,-30.597,0.00105353,0.0106178,0.00452939,0.0124223,-0.000751001,1.19167,0.0085429,0.0100609,1518,407,5.33407,30.5971
301,617,5.30811,-30.1857,0.00156114,0.0114825,0.00494961,0.0135295,-0.000485813,1.17866,0.00918587,0.0080205,1525,407,5.30813,30.1857
308,617,5.28149,-29.7565,0.00227059,0.0122528,0.00532741,0.0145618,-3.84757e-05,1.16181,0.00972073,0.00809101,1532,407,5.28146,29.7565
315,617,5.26892,-29.338,0.00314466,0.0130747,0.00573572,0.0156958,0.000523511,1.14215,0.0102938,0.00977313,1539,407,5.26892,29.338
322,617,5.24829,-28.8882,0.00407722,0.0136491,0.00614627,0.016653,0.00107329,1.1162,0.0107621,0.0141147,1546,407,5.24825,28.8882
329,617,5.2395,-28.4194,0.00496864,0.0140469,0.00646405,0.0174063,0.00160919,1.0915,0.0111068,0.0161126,1553,407,5.23947,28.4194
336,617,5.2793,-27.9059,0.00561649,0.0144994,0.00670384,0.0180996,0.00201629,1.07796,0.0114536,0.0310669,1560,407,5.27935,27.9059
343,617,5.11523,-27.4651,0,0,0,0,0,0,0,-1,1567,407,5.11524,27.4651
350,617,5.10022,-26.5681,0,0,0,0,0,0,0,-1,1574,407,5.10026,26.5681
357,617,2.1748,-7.16504,0,0,0,0,0,0,0,-1,1581,407,2.1748,7.16505
364,617,2.30127,-7.60257,0,0,0,0,0,0,0,-1,1588,407,2.30125,7.60258
371,617,2.60266,-6.20667,0,0,0,0,0,0,0,-1,1595,407,2.60261,6.20668
378,617,1.56921,-10.3601,0,0,0,0,0,0,0,-1,1602,407,1.56918,10.3601
385,617,1.74146,-10.3561,0,0,0,0,0,0,0,-1,1609,407,1.7414,10.3561
392,617,1.96936,-5.10449,0,0,0,0,0,0,0,-1,1616,407,1.96931,5.10451
399,617,2.48889,-5.81256,0,0,0,0,0,0,0,-1,1623,407,2.48888,5.81255
406,617,3.01465,-6.51642,0,0,0,0,0,0,0,-1,1630,407,3.01461,6.51643
413,617,3.6427,-7.2074,0,0,0,0,0,0,0,-1,1637,407,3.64274,7.20739
420,617,3.42737,-4.47391,0,0,0,0,0,0,0,-1,1644,407,3.42737,4.47391
427,617,0,0,0,0,0,0,0,0,0,-1,1651,407,0,0
434,617,0,0,0,0,0,0,0,0,0,-1,1658,407,0,0
441,617,0,0,0,0,0,0,0,0,0,-1,1665,407,0,0
448,617,0,0,0,0,0,0,0,0,0,-1,1672,407,0,0
455,617,0,0,0,0,0,0,0,0,0,-1,1679,407,0,0
462,617,0,0,0,0,0,0,0,0,0,-1,1686,407,0,0
469,617,0,0,0,0,0,0,0,0,0,-1,1693,407,0,0
476,617,0,0,0,0,0,0,0,0,0,-1,1700,407,0,0
483,617,0,0,0,0,0,0,0,0,0,-1,1707,407,0,0
490,617,0,0,0,0,0,0,0,0,0,-1,1714,407,0,0
497,617,0,0,0,0,0,0,0,0,0,-1,1721,407,0,0
504,617,0,0,0,0,0,0,0,0,0,-1,1728,407,0,0
511,617,0,0,0,0,0,0,0,0,0,-1,1735,407,0,0
518,617,0,0,0,0,0,0,0,0,0,-1,1742,407,0,0
525,617,0,0,0,0,0,0,0,0,0,-1,1749,407,0,0
532,617,0,0,0,0,0,0,0,0,0,-1,1756,407,0,0
539,617,0,0,0,0,0,0,0,0,0,-1,1763,407,0,0
546,617,0,0,0,0,0,0,0,0,0,-1,1770,407,0,0
553,617,0,0,0,0,0,0,0,0,0,-1,1777,407,0,0
560,617,0,0,0,0,0,0,0,0,0,-1,1784,407,0,0
567,617,0,0,0,0,0,0,0,0,0,-1,1791,407,0,0
574,617,0,0,0,0,0,0,0,0,0,-1,1798,407,0,0
581,617,0,0,0,0,0,0,0,0,0,-1,1805,407,0,0
588,617,0,0,0,0,0,0,0,0,0,-1,1812,407,0,0
595,617,0,0,0,0,0,0,0,0,0,-1,1819,407,0,0
602,617,0,0,0,0,0,0,0,0,0,-1,1826,407,0,0
609,617,0,0,0,0,0,0,0,0,0,-1,1833,407,0,0
616,617,0,0,0,0,0,0,0,0,0,-1,1840,407,0,0
623,617,0,0,0,0,0,0,0,0,0,-1,1847,407,0,0
630,617,0,0,0,0,0,0,0,0,0,-1,1854,407,0,0
637,617,0,0,0,0,0,0,0,0,0,-1,1861,407,0,0
644,617,0,0,0,0,0,0,0,0,0,-1,1868,407,0,0
651,617,0,0,0,0,0,0,0,0,0,-1,1875,407,0,0
658,617,0,0,0,0,0,0,0,0,0,-1,1882,407,0,0
665,617,0,0,0,0,0,0,0,0,0,-1,1889,407,0,0
672,617,0,0,0,0,0,0,0,0,0,-1,1896,407,0,0
679,617,0,0,0,0,0,0,0,0,0,-1,1903,407,0,0
686,617,0,0,0,0,0,0,0,0,0,-1,1910,407,0,0
693,617,0,0,0,0,0,0,0,0,0,-1,1917,407,0,0
700,617,0,0,0,0,0,0,0,0,0,-1,1924,407,0,0
707,617,0,0,0,0,0,0,0,0,0,-1,1931,407,0,0
714,617,0,0,0,0,0,0,0,0,0,-1,1938,407,0,0
721,617,0,0,0,0,0,0,0,0,0,-1,1945,407,0,0
728,617,0,0,0,0,0,0,0,0,0,-1,1952,407,0,0
735,617,0,0,0,0,0,0,0,0,0,-1,1959,407,0,0
742,617,0,0,0,0,0,0,0,0,0,-1,1966,407,0,0
749,617,0,0,0,0,0,0,0,0,0,-1,1973,407,0,0
756,617,0,0,0,0,0,0,0,0,0,-1,1980,407,0,0
763,617,0,0,0,0,0,0,0,0,0,-1,1987,407,0,0
770,617,0,0,0,0,0,0,0,0,0,-1,1994,407,0,0
777,617,0,0,0,0,0,0,0,0,0,-1,2001,407,0,0
784,617,0,0,0,0,0,0,0,0,0,-1,2008,407,0,0
791,617,0,0,0,0,0,0,0,0,0,-1,2015,407,0,0
798,617,0,0,0,0,0,0,0,0,0,-1,2022,407,0,0
805,617,0,0,0,0,0,0,0,0,0,-1,2029,407,0,0
812,617,0,0,0,0,0,0,0,0,0,-1,2036,407,0,0
-700,610,0,0,0,0,0,0,0,0,0,-1,524,414,0,0
-693,610,0,0,0,0,0,0,0,0,0,-1,531,414,0,0
-686,610,0,0,0,0,0,0,0,0,0,-1,538,414,0,0
-679,610,0,0,0,0,0,0,0,0,0,-1,545,414,0,0
-672,610,0,0,0,0,0,0,0,0,0,-1,552,414,0,0
-665,610,0,0,0,0,0,0,0,0,0,-1,559,414,0,0
-658,610,0,0,0,0,0,0,0,0,0,-1,566,414,0,0
-651,610,0,0,0,0,0,0,0,0,0,-1,573,414,0,0
-644,610,0,0,0,0,0,0,0,0,0,-1,580,414,0,0
-637,610,0,0,0,0,0,0,0,0,0,-1,587,414,0,0
-630,610,0,0,0,0,0,0,0,0,0,-1,594,414,0,0
-623,610,0,0,0,0,0,0,0,0,0,-1,601,414,0,0
-616,610,0,0,0,0,0,0,0,0,0,-1,608,414,0,0
-609,610,0,0,0,0,0,0,0,0,0,-1,615,414,0,0
-602,610,0,0,0,0,0,0,0,0,0,-1,622,414,0,0
-595,610,0,0,0,0,0,0,0,0,0,-1,629,414,0,0
-588,610,0,0,0,0,0,0,0,0,0,-1,636,414,0,0
-581,610,0,0,0,0,0,0,0,0,0,-1,643,414,0,0
-574,610,0,0,0,0,0,0,0,0,0,-1,650,414,0,0
-567,610,0,0,0,0,0,0,0,0,0,-1,657,414,0,0
-560,610,0,0,0,0,0,0,0,0,0,-1,664,414,0,0
-553,610,0,0,0,0,0,0,0,0,0,-1,671,414,0,0
-546,610,0,0,0,0,0,0,0,0,0,-1,678,414,0,0
-539,610,0,0,0,0,0,0,0,0,0,-1,685,414,0,0
-532,610,0,0,0,0,0,0,0,0,0,-1,692,414,0,0
-525,610,0,0,0,0,0,0,0,0,0,-1,699,414,0,0
-518,610,0,0,0,0,0,0,0,0,0,-1,706,414,0,0
-511,610,0,0,0,0,0,0,0,0,0,-1,713,414,0,0
-504,610,0,0,0,0,0,0,0,0,0,-1,720,414,0,0
-497,610,0,0,0,0,0,0,0,0,0,-1,727,414,0,0
-490,610,0,0,0,0,0,0,0,0,0,-1,734,414,0,0
-483,610,0,0,0,0,0,0,0,0,0,-1,741,414,0,0
-476,610,0,0,0,0,0,0,0,0,0,-1,748,414,0,0
-469,610,0,0,0,0,0,0,0,0,0,-1,755,414,0,0
-462,610,0,0,0,0,0,0,0,0,0,-1,762,414,0,0
-455,610,0,0,0,0,0,0,0,0,0,-1,769,414,0,0
-448,610,0,0,0,0,0,0,0,0,0,-1,776,414,0,0
-441,610,0,0,0,0,0,0,0,0,0,-1,783,414,0,0
-434,610,0,0,0,0,0,0,0,0,0,-1,790,414,0,0
-427,610,0,0,0,0,0,0,0,0,0,-1,797,414,0,0
-420,610,0,0,0,0,0,0,0,0,0,-1,804,414,0,0
-413,610,0,0,0,0,0,0,0,0,0,-1,811,414,0,0
-406,610,0,0,0,0,0,0,0,0,0,-1,818,414,0,0
-399,610,0,0,0,0,0,0,0,0,0,-1,825,414,0,0
-392,610,0,0,0,0,0,0,0,0,0,-1,832,414,0,0
-385,610,0,0,0,0,0,0,0,0,0,-1,839,414,0,0
-378,610,0,0,0,0,0,0,0,0,0,-1,846,414,0,0
-371,610,0,0,0,0,0,0,0,0,0,-1,853,414,0,0
-364,610,0,0,0,0,0,0,0,0,0,-1,860,414,0,0
-357,610,0,0,0,0,0,0,0,0,0,-1,867,414,0,0
-350,610,0,0,0,0,0,0,0,0,0,-1,874,414,0,0
-343,610,0,0,0,0,0,0,0,0,0,-1,881,414,0,0
-336,610,0,0,0,0,0,0,0,0,0,-1,888,414,0,0
-329,610,0,0,0,0,0,0,0,0,0,-1,895,414,0,0
-322,610,0,0,0,0,0,0,0,0,0,-1,902,414,0,0
-315,610,8.08594,-20.6403,0,0,0,0,0,0,0,-1,909,414,8.08595,20.6403
-308,610,3.97559,-24.1635,0,0,0,0,0,0,0,-1,916,414,3.97556,24.1635
-301,610,4.95953,-24.3575,0,0,0,0,0,0,0,-1,923,414,4.95952,24.3575
-294,610,6.20813,-24.3114,0,0,0,0,0,0,0,-1,930,414,6.20815,24.3114
-287,610,2.427,-24.4821,0,0,0,0,0,0,0,-1,937,414,2.42702,24.4821
-280,610,3.89569,-23.4206,0,0,0,0,0,0,0,-1,944,414,3.89572,23.4206
-273,610,4.6828,-24.2032,0,0,0,0,0,0,0,-1,951,414,4.68281,24.2032
-266,610,4.64044,-25.9664,0,0,0,0,0,0,0,-1,958,414,4.64043,25.9664
-259,610,4.31921,-26.5207,0,0,0,0,0,0,0,-1,965,414,4.31922,26.5207
-252,610,4.42023,-26.6022,0,0,0,0,0,0,0,-1,972,414,4.42024,26.6022
-245,610,4.53827,-26.6516,0.00315253,0.0631666,-8.41706e-05,0.0631667,0.00315241,-1.56939,0.0411007,0.0475611,979,414,4.53828,26.6516
-238,610,4.23236,-27.0848,0.00376335,0.0624084,-0.000414112,0.0624114,0.00376043,-1.56374,0.0404125,0.0445709,986,414,4.23235,27.0848
-231,610,3.80286,-27.549,0,0,0,0,0,0,0,-1,993,414,3.80284,27.5491
-224,610,4.12994,-27.7341,0.00400841,0.0560398,-0.00169172,0.0560947,0.00395346,-1.53833,0.0361508,0.0271725,1000,414,4.12995,27.7341
-217,610,4.19666,-28.3087,0.00374954,0.0509058,-0.00242809,0.0510305,0.00362485,-1.51949,0.0328787,0.0190395,1007,414,4.19668,28.3087
-210,610,4.17413,-28.8262,0.00356106,0.04329,-0.00328997,0.0435606,0.00329046,-1.48873,0.0280081,0.0133102,1014,414,4.17411,28.8262
-203,610,4.14673,-29.2739,0.00303015,0.0350541,-0.00397259,0.0355395,0.00254471,-1.4492,0.022892,0.0149221,1021,414,4.14669,29.2739
-196,610,4.11499,-29.6881,0.00234101,0.0280183,-0.00459354,0.0288153,0.00154399,-1.399,0.0187168,0.0142689,1028,414,4.11493,29.6881
-189,610,4.09766,-30.0676,0.00196105,0.0219695,-0.00530899,0.0232909,0.000639637,-1.32685,0.0153185,0.0119143,1035,414,4.0977,30.0676
-182,610,4.07068,-30.4489,0.00157488,0.0163759,-0.00557526,0.018241,-0.000290196,-1.24797,0.0122585,0.0130136,1042,414,4.07064,30.4489
-175,610,4.03711,-30.8374,0.00117646,0.0114466,-0.0057049,0.0139871,-0.00136407,-1.15184,0.00981108,0.0139988,1049,414,4.03708,30.8374
-168,610,3.99451,-31.2378,0.000529511,0.00660162,-0.00563743,0.00996855,-0.00283742,-1.0324,0.00776625,0.0122653,1056,414,3.99449,31.2378
-161,610,3.98364,-31.6637,0.000267948,0.00240564,-0.00535575,0.00679815,-0.00412457,-0.883889,0.0063689,0.0112214,1063,414,3.98367,31.6637
-154,610,3.99048,-32.0192,0.000358729,0.00129928,-0.00465458,0.00550727,-0.00384927,-0.835745,0.0054302,0.0145261,1070,414,3.99042,32.0192
-147,610,4.00061,-32.3451,0.000396237,0.000419786,-0.00381517,0.0042232,-0.00340717,-0.786941,0.00441378,0.0162491,1077,414,4.00063,32.3451
-140,610,3.97607,-32.7101,0.000446593,-0.000497212,-0.002972,0.00298392,-0.00303454,-0.706664,0.0034748,0.012123,1084,414,3.97609,32.71
-133,610,3.96082,-33.0182,0.000524489,-0.00123933,-0.00208183,0.0019035,-0.00261834,-0.585046,0.00262154,0.0134786,1091,414,3.96079,33.0182
-126,610,3.9502,-33.3312,0.000614816,-0.00175376,-0.00122515,0.0011345,-0.00227345,-0.401178,0.00200387,0.0134196,1098,414,3.95025,33.3312
-119,610,3.94312,-33.672,0.000756192,-0.00212204,-0.000417934,0.00081565,-0.0021815,-0.141318,0.0017893,0.0114427,1105,414,3.9431,33.672
-112,610,3.94934,-33.9545,0.00089502,-0.00245424,0.000202652,0.000907237,-0.00246646,0.0602137,0.00201595,0.0178473,1112,414,3.94934,33.9545
-105,610,3.93994,-34.2527,0.00106796,-0.0028544,0.000614577,0.001162,-0.00294844,0.151839,0.00244674,0.0170816,1119,414,3.93992,34.2527
-98,610,3.96741,-34.5516,0.00131868,-0.0034217,0.000818123,0.0014559,-0.00355892,0.166184,0.00297897,0.012914,1126,414,3.96743,34.5516
-91,610,3.98376,-34.8456,0.00162511,-0.00367652,0.000796282,0.00174212,-0.00379353,0.145908,0.00326834,0.013699,1133,414,3.98371,34.8456
-84,610,4.01282,-35.1217,0.00199966,-0.00371053,0.000754658,0.00209771,-0.00380858,0.129205,0.00345736,0.0145165,1140,414,4.01284,35.1217
-77,610,4.00171,-35.4025,0.00245506,-0.00370898,0.000789637,0.0025546,-0.00380853,0.125406,0.00369746,0.0121308,1147,414,4.00167,35.4025
-70,610,4.04504,-35.6557,0.00318487,-0.00363179,0.000669513,0.00325,-0.00369692,0.0969825,0.00401357,0.0142377,1154,414,4.04503,35.6557
-63,610,4.06042,-35.8702,0.00391679,-0.00340652,0.000474056,0.00394735,-0.00343708,0.0643744,0.0042668,0.0132813,1161,414,4.0604,35.8702
-56,610,4.06396,-36.059,0.00434068,-0.00299059,0.000478082,0.00437173,-0.00302164,0.0648452,0.00429222,0.0113595,1168,414,4.06392,36.059
-49,610,4.10168,-36.2776,0.00468159,-0.00416787,0.000843904,0.00476135,-0.00424763,0.0942305,0.00520415,0.0117728,1175,414,4.10167,36.2776
-42,610,4.14587,-36.4923,0.00582909,-0.0062305,0.00294554,0.00651008,-0.00691149,0.227202,0.0077501,0.0163762,1182,414,4.14592,36.4923
-35,610,4.16406,-36.6895,0.00634328,-0.00846758,0.00494338,0.00784164,-0.00996594,0.294302,0.0103056,0.016157,1189,414,4.16404,36.6895
-28,610,4.19397,-36.8596,0.00678888,-0.0101679,0.00830245,0.010177,-0.013556,0.387457,0.0137485,0.0138075,1196,414,4.19398,36.8597
-21,610,4.24609,-36.9918,0.00757614,-0.0119637,0.0113801,0.0128048,-0.0171924,0.430691,0.0173805,0.011963,1203,414,4.2461,36.9918
-14,610,4.2699,-37.1277,0.00809558,-0.0137555,0.014305,0.01517,-0.02083,0.459274,0.0208701,0.0124076,1210,414,4.26993,37.1277
-7,610,4.30457,-37.2245,0.00856952,-0.0156012,0.0174345,0.0176978,-0.0247295,0.48233,0.0246073,0.0143033,1217,414,4.3046,37.2245
0,610,4.35742,-37.3525,0.00898158,-0.0174084,0.0207154,0.0203474,-0.0287742,0.50182,0.0284991,0.0119165,1224,414,4.35738,37.3525
7,610,4.40564,-37.4807,0.00921816,-0.0197151,0.0239624,0.0227423,-0.0332392,0.513823,0.0325098,0.0133857,1231,414,4.40558,37.4807
14,610,4.50159,-37.5522,0.0092887,-0.021096,0.0275019,0.0255155,-0.0373228,0.533052,0.0364925,0.0176006,1238,414,4.50153,37.5521
21,610,4.56726,-37.619,0.00918837,-0.022189,0.0308925,0.0281476,-0.0411483,0.550445,0.040242,0.0164267,1245,414,4.56727,37.619
28,610,4.56335,-37.7209,0.00902138,-0.0235966,0.0342413,0.0306393,-0.0452145,0.563146,0.0440629,0.0162963,1252,414,4.56339,37.7209
35,610,4.71606,-37.7554,0.00869174,-0.024639,0.037893,0.0334222,-0.0493695,0.578228,0.0480945,0.0185251,1259,414,4.71611,37.7554
42,610,4.73889,-37.7682,0.00812804,-0.0254814,0.0415697,0.0361612,-0.0535146,0.593314,0.0520965,0.0166652,1266,414,4.73891,37.7682
49,610,4.75122,-37.8348,0.00732426,-0.0252904,0.0446466,0.0385485,-0.0565146,0.610299,0.0552104,0.0158143,1273,414,4.75124,37.8348
56,610,4.82288,-37.8463,0.00617509,-0.0247331,0.0470545,0.0402483,-0.0588063,0.626733,0.0575228,0.0151727,1280,414,4.82289,37.8463
63,610,4.82605,-37.787,0.00476055,-0.0237412,0.0488418,0.041388,-0.0603687,0.64345,0.0590889,0.0221604,1287,414,4.82603,37.7871
70,610,4.90222,-37.7542,0.00342663,-0.022208,0.0497568,0.0419905,-0.0607718,0.659339,0.0596592,0.0318761,1294,414,4.90227,37.7542
77,610,5.02356,-37.731,0.002126,-0.0205546,0.050175,0.0422262,-0.0606548,0.674258,0.0597152,0.0364297,1301,414,5.0236,37.731
84,610,5.08899,-37.7762,0.000764239,-0.0187918,0.0494113,0.0413557,-0.0593833,0.687715,0.0584713,0.0332217,1308,414,5.08897,37.7761
91,610,5.14075,-37.7392,-0.00054844,-0.016795,0.047637,0.0396529,-0.0569963,0.700948,0.0560991,0.0257185,1315,414,5.14077,37.7392
98,610,5.25378,-37.678,-0.00172878,-0.0146953,0.0448679,0.0371219,-0.053546,0.713646,0.0526326,0.0231916,1322,414,5.25378,37.678
105,610,5.25903,-37.5911,-0.00260589,-0.0126537,0.0411888,0.0338642,-0.0491239,0.724711,0.0481824,0.0190133,1329,414,5.25897,37.5911
112,610,5.24829,-37.5053,-0.00302346,-0.0104191,0.0366261,0.030091,-0.0435336,0.735088,0.0427427,0.0135764,1336,414,5.24824,37.5054
119,610,5.26294,-37.4041,-0.00307557,-0.00951703,0.0313917,0.0252602,-0.0378528,0.734278,0.0366792,0.0192595,1343,414,5.26293,37.4041
126,610,5.33643,-37.2797,-0.00272482,-0.00879155,0.0259606,0.0203791,-0.0318954,0.727239,0.0304238,0.0272548,1350,414,5.33648,37.2797
133,610,5.39905,-37.12,-0.00233775,-0.00723701,0.0203363,0.0156959,-0.0252706,0.725459,0.0238664,0.0219977,1357,414,5.39903,37.12
140,610,5.45154,-36.9784,-0.0016838,-0.00631762,0.0140843,0.0102729,-0.0182743,0.703877,0.0166962,0.0169616,1364,414,5.4516,36.9784
147,610,5.44385,-36.7952,-0.000532453,-0.00565744,0.00844334,0.00572868,-0.0119186,0.638069,0.0103955,0.0174373,1371,414,5.44382,36.7952
154,610,5.48413,-36.6237,0.00106002,-0.00699753,0.00382264,0.00258495,-0.00852246,0.379575,0.00671133,0.0229588,1378,414,5.48418,36.6237
161,610,5.55396,-36.4332,0.00283186,-0.00736238,0.000841899,0.00290092,-0.00743144,0.0818468,0.00615358,0.0272954,1385,414,5.55393,36.4332
168,610,5.59985,-36.2414,0.00405755,-0.00718995,-0.00145055,0.00424161,-0.00737401,-0.126215,0.00678707,0.0261547,1392,414,5.59982,36.2414
175,610,5.64368,-36.0492,0.00463117,-0.00692242,-0.00316509,0.00544142,-0.00773267,-0.250614,0.00764431,0.0208214,1399,414,5.64364,36.0492
182,610,5.66052,-35.813,0.00413466,-0.00572578,-0.00286361,0.00490595,-0.00649708,-0.263101,0.00660488,0.0151482,1406,414,5.66046,35.813
189,610,5.67114,-35.5414,0.00366938,-0.00419208,-0.00242271,0.00435603,-0.00487872,-0.276178,0.00533453,0.0142928,1413,414,5.67119,35.5414
196,610,5.69702,-35.297,0.00339144,-0.00294567,-0.00188297,0.00390871,-0.00346294,-0.268098,0.00425862,0.0145989,1420,414,5.69706,35.297
203,610,5.70325,-35.0441,0.00293321,-0.00168712,-0.00149534,0.00337493,-0.00212885,-0.287233,0.00320464,0.0152569,1427,414,5.7032,35.0441
210,610,5.71667,-34.7651,0.00235009,-0.000658423,-0.00105205,0.00268148,-0.000989814,-0.305156,0.00219335,0.0114098,1434,414,5.71667,34.7651
217,610,5.77722,-34.4603,0.00192088,0.000248952,-0.000596562,0.00211191,5.79188e-05,-0.309905,0.00138904,0.0176739,1441,414,5.77718,34.4603
224,610,5.81042,-34.1704,0.00158554,0.00108563,-0.000189898,0.0016495,0.00102168,-0.32485,0.000961344,0.0204649,1448,414,5.81048,34.1704
231,610,5.79321,-33.8604,0.00133023,0.00186142,0.000263274,0.0019698,0.00122185,1.1803,0.00114818,0.0152048,1455,414,5.79318,33.8603
238,610,5.77197,-33.5299,0.00122626,0.00258283,0.000650475,0.00284432,0.000964762,1.18856,0.00167024,0.011763,1462,414,5.77199,33.5299
245,610,5.80164,-33.2041,0.00111519,0.00322253,0.000937625,0.00357931,0.000758415,1.2072,0.00217787,0.0132186,1469,414,5.80162,33.2041
252,610,5.79541,-32.8628,0.000986191,0.00390546,0.00123177,0.00435575,0.000535906,1.22033,0.0027427,0.0144086,1476,414,5.79545,32.8628
259,610,5.7793,-32.4895,0.000824999,0.00449691,0.00154018,0.00505739,0.000264523,1.22179,0.00328697,0.0119399,1483,414,5.77933,32.4895
266,610,5.76672,-32.1055,0.000671337,0.00508507,0.00187563,0.00577445,-1.80446e-05,1.21858,0.00385566,0.0121093,1490,414,5.76667,32.1055
273,610,5.7572,-31.7389,0.000513519,0.00576043,0.00223203,0.00658146,-0.000307511,1.21832,0.00449365,0.0106736,1497,414,5.7572,31.7389
280,610,5.74133,-31.3623,0.00056632,0.00644068,0.00255873,0.00739889,-0.000391898,1.21247,0.00506828,0.0100965,1504,414,5.74138,31.3623
287,610,5.72241,-30.9654,0.000828911,0.00712313,0.00296006,0.00829647,-0.000344428,1.19341,0.00564929,0.0122297,1511,414,5.72237,30.9654
294,610,5.71985,-30.5755,0.00102278,0.00782061,0.00333145,0.00918102,-0.000337631,1.18311,0.00623627,0.011062,1518,414,5.71988,30.5755
301,610,5.71936,-30.1918,0.00131581,0.0085043,0.00368571,0.0100582,-0.000238059,1.17182,0.00678619,0.0102138,1525,414,5.71939,30.1918
308,610,5.69971,-29.771,0.00176308,0.0091197,0.00403168,0.0108989,-1.61198e-05,1.1552,0.00727131,0.011649,1532,414,5.69975,29.771
315,610,5.66187,-29.3762,0.00229795,0.00982412,0.00440157,0.0118519,0.000270124,1.13908,0.00781281,0.0127707,1539,414,5.66189,29.3761
322,610,5.63574,-28.9277,0.00283721,0.0103514,0.00476859,0.0126651,0.000523446,1.11905,0.00827445,0.0126872,1546,414,5.63576,28.9277
329,610,5.60522,-28.4668,0.0033123,0.0107254,0.00508,0.0133073,0.00073037,1.10057,0.00863837,0.0116646,1553,414,5.60526,28.4668
336,610,5.60156,-28.0165,0.00357651,0.0111556,0.00533655,0.0139112,0.000820865,1.09414,0.00901299,0.0111106,1560,414,5.60161,28.0165
343,610,5.57617,-27.551,0.00388378,0.0115,0.00557497,0.0144433,0.000940434,1.08503,0.0093312,0.0192378,1567,414,5.57622,27.551
350,610,5.56152,-27.077,0,0,0,0,0,0,0,-1,1574,414,5.56156,27.077
357,610,5.58008,-26.3521,0,0,0,0,0,0,0,-1,1581,414,5.58003,26.3521
364,610,5.78979,-25.9261,0,0,0,0,0,0,0,-1,1588,414,5.78978,25.9261
371,610,3.54138,-13.3788,0,0,0,0,0,0,0,-1,1595,414,3.54137,13.3788
378,610,3.5752,-12.1958,0,0,0,0,0,0,0,-1,1602,414,3.57517,12.1958
385,610,2.57104,-10.3878,0,0,0,0,0,0,0,-1,1609,414,2.57109,10.3878
392,610,1.99744,-1.83582,0,0,0,0,0,0,0,-1,1616,414,1.99741,1.8358
399,610,2.77136,-2.60333,0,0,0,0,0,0,0,-1,1623,414,2.77133,2.60332
406,610,3.54529,-3.37085,0,0,0,0,0,0,0,-1,1630,414,3.54525,3.37084
413,610,3.01929,-3.20306,0,0,0,0,0,0,0,-1,1637,414,3.01929,3.20306
420,610,4.78149,-3.64041,0,0,0,0,0,0,0,-1,1644,414,4.78152,3.64042
427,610,1.70154,-19.6262,0,0,0,0,0,0,0,-1,1651,414,1.70159,19.6262
434,610,4.02295,-19.389,0,0,0,0,0,0,0,-1,1658,414,4.0229,19.389
441,610,0,0,0,0,0,0,0,0,0,-1,1665,414,0,0
448,610,0,0,0,0,0,0,0,0,0,-1,1672,414,0,0
455,610,0,0,0,0,0,0,0,0,0,-1,1679,414,0,0
462,610,0,0,0,0,0,0,0,0,0,-1,1686,414,0,0
469,610,0,0,0,0,0,0,0,0,0,-1,1693,414,0,0
476,610,0,0,0,0,0,0,0,0,0,-1,1700,414,0,0
483,610,0,0,0,0,0,0,0,0,0,-1,1707,414,0,0
490,610,0,0,0,0,0,0,0,0,0,-1,1714,414,0,0
497,610,0,0,0,0,0,0,0,0,0,-1,1721,414,0,0
504,610,0,0,0,0,0,0,0,0,0,-1,1728,414,0,0
511,610,0,0,0,0,0,0,0,0,0,-1,1735,414,0,0
518,610,0,0,0,0,0,0,0,0,0,-1,1742,414,0,0
525,610,0,0,0,0,0,0,0,0,0,-1,1749,414,0,0
532,610,0,0,0,0,0,0,0,0,0,-1,1756,414,0,0
539,610,0,0,0,0,0,0,0,0,0,-1,1763,414,0,0
546,610,0,0,0,0,0,0,0,0,0,-1,1770,414,0,0
553,610,0,0,0,0,0,0,0,0,0,-1,1777,414,0,0
560,610,0,0,0,0,0,0,0,0,0,-1,1784,414,0,0
567,610,0,0,0,0,0,0,0,0,0,-1,1791,414,0,0
574,610,0,0,0,0,0,0,0,0,0,-1,1798,414,0,0
581,610,0,0,0,0,0,0,0,0,0,-1,1805,414,0,0
588,610,0,0,0,0,0,0,0,0,0,-1,1812,414,0,0
595,610,0,0,0,0,0,0,0,0,0,-1,1819,414,0,0
602,610,0,0,0,0,0,0,0,0,0,-1,1826,414,0,0
609,610,0,0,0,0,0,0,0,0,0,-1,1833,414,0,0
616,610,0,0,0,0,0,0,0,0,0,-1,1840,414,0,0
623,610,0,0,0,0,0,0,0,0,0,-1,1847,414,0,0
630,610,0,0,0,0,0,0,0,0,0,-1,1854,414,0,0
637,610,0,0,0,0,0,0,0,0,0,-1,1861,414,0,0
644,610,0,0,0,0,0,0,0,0,0,-1,1868,414,0,0
651,610,0,0,0,0,0,0,0,0,0,-1,1875,414,0,0
658,610,0,0,0,0,0,0,0,0,0,-1,1882,414,0,0
665,610,0,0,0,0,0,0,0,0,0,-1,1889,414,0,0
672,610,0,0,0,0,0,0,0,0,0,-1,1896,414,0,0
679,610,0,0,0,0,0,0,0,0,0,-1,1903,414,0,0
686,610,0,0,0,0,0,0,0,0,0,-1,1910,414,0,0
693,610,0,0,0,0,0,0,0,0,0,-1,1917,414,0,0
700,610,0,0,0,0,0,0,0,0,0,-1,1924,414,0,0
707,610,0,0,0,0,0,0,0,0,0,-1,1931,414,0,0
714,610,0,0,0,0,0,0,0,0,0,-1,1938,414,0,0
721,610,0,0,0,0,0,0,0,0,0,-1,1945,414,0,0
728,610,0,0,0,0,0,0,0,0,0,-1,1952,414,0,0
735,610,0,0,0,0,0,0,0,0,0,-1,1959,414,0,0
742,610,0,0,0,0,0,0,0,0,0,-1,1966,414,0,0
749,610,0,0,0,0,0,0,0,0,0,-1,1973,414,0,0
756,610,0,0,0,0,0,0,0,0,0,-1,1980,414,0,0
763,610,0,0,0,0,0,0,0,0,0,-1,1987,414,0,0
770,610,0,0,0,0,0,0,0,0,0,-1,1994,414,0,0
777,610,0,0,0,0,0,0,0,0,0,-1,2001,414,0,0
784,610,0,0,0,0,0,0,0,0,0,-1,2008,414,0,0
791,610,0,0,0,0,0,0,0,0,0,-1,2015,414,0,0
798,610,0,0,0,0,0,0,0,0,0,-1,2022,414,0,0
805,610,0,0,0,0,0,0,0,0,0,-1,2029,414,0,0
812,610,0,0,0,0,0,0,0,0,0,-1,2036,414,0,0
-700,603,0,0,0,0,0,0,0,0,0,-1,524,421,0,0
-693,603,0,0,0,0,0,0,0,0,0,-1,531,421,0,0
-686,603,0,0,0,0,0,0,0,0,0,-1,538,421,0,0
-679,603,0,0,0,0,0,0,0,0,0,-1,545,421,0,0
-672,603,0,0,0,0,0,0,0,0,0,-1,552,421,0,0
-665,603,0,0,0,0,0,0,0,0,0,-1,559,421,0,0
-658,603,0,0,0,0,0,0,0,0,0,-1,566,421,0,0
-651,603,0,0,0,0,0,0,0,0,0,-1,573,421,0,0
-644,603,0,0,0,0,0,0,0,0,0,-1,580,421,0,0
-637,603,0,0,0,0,0,0,0,0,0,-1,587,421,0,0
-630,603,0,0,0,0,0,0,0,0,0,-1,594,421,0,0
-623,603,0,0,0,0,0,0,0,0,0,-1,601,421,0,0
-616,603,0,0,0,0,0,0,0,0,0,-1,608,421,0,0
-609,603,0,0,0,0,0,0,0,0,0,-1,615,421,0,0
-602,603,0,0,0,0,0,0,0,0,0,-1,622,421,0,0
-595,603,0,0,0,0,0,0,0,0,0,-1,629,421,0,0
-588,603,0,0,0,0,0,0,0,0,0,-1,636,421,0,0
-581,603,0,0,0,0,0,0,0,0,0,-1,643,421,0,0
-574,603,0,0,0,0,0,0,0,0,0,-1,650,421,0,0
-567,603,0,0,0,0,0,0,0,0,0,-1,657,421,0,0
-560,603,0,0,0,0,0,0,0,0,0,-1,664,421,0,0
-553,603,0,0,0,0,0,0,0,0,0,-1,671,421,0,0
-546,603,0,0,0,0,0,0,0,0,0,-1,678,421,0,0
-539,603,0,0,0,0,0,0,0,0,0,-1,685,421,0,0
-532,603,0,0,0,0,0,0,0,0,0,-1,692,421,0,0
-525,603,0,0,0,0,0,0,0,0,0,-1,699,421,0,0
-518,603,0,0,0,0,0,0,0,0,0,-1,706,421,0,0
-511,603,0,0,0,0,0,0,0,0,0,-1,713,421,0,0
-504,603,0,0,0,0,0,0,0,0,0,-1,720,421,0,0
-497,603,0,0,0,0,0,0,0,0,0,-1,727,421,0,0
-490,603,0,0,0,0,0,0,0,0,0,-1,734,421,0,0
-483,603,0,0,0,0,0,0,0,0,0,-1,741,421,0,0
-476,603,0,0,0,0,0,0,0,0,0,-1,748,421,0,0
-469,603,0,0,0,0,0,0,0,0,0,-1,755,421,0,0
-462,603,0,0,0,0,0,0,0,0,0,-1,762,421,0,0
-455,603,0,0,0,0,0,0,0,0,0,-1,769,421,0,0
-448,603,0,0,0,0,0,0,0,0,0,-1,776,421,0,0
-441,603,0,0,0,0,0,0,0,0,0,-1,783,421,0,0
-434,603,0,0,0,0,0,0,0,0,0,-1,790,421,0,0
-427,603,0,0,0,0,0,0,0,0,0,-1,797,421,0,0
-420,603,0,0,0,0,0,0,0,0,0,-1,804,421,0,0
-413,603,0,0,0,0,0,0,0,0,0,-1,811,421,0,0
-406,603,0,0,0,0,0,0,0,0,0,-1,818,421,0,0
-399,603,0,0,0,0,0,0,0,0,0,-1,825,421,0,0
-392,603,0,0,0,0,0,0,0,0,0,-1,832,421,0,0
-385,603,0,0,0,0,0,0,0,0,0,-1,839,421,0,0
-378,603,0,0,0,0,0,0,0,0,0,-1,846,421,0,0
-371,603,0,0,0,0,0,0,0,0,0,-1,853,421,0,0
-364,603,0,0,0,0,0,0,0,0,0,-1,860,421,0,0
-357,603,0,0,0,0,0,0,0,0,0,-1,867,421,0,0
-350,603,0,0,0,0,0,0,0,0,0,-1,874,421,0,0
-343,603,0,0,0,0,0,0,0,0,0,-1,881,421,0,0
-336,603,0,0,0,0,0,0,0,0,0,-1,888,421,0,0
-329,603,4.09686,-17.9702,0,0,0,0,0,0,0,-1,895,421,4.09687,17.9702
-322,603,5.98431,-20.9071,0,0,0,0,0,0,0,-1,902,421,5.98431,20.9071
-315,603,5.99744,-20.4501,0,0,0,0,0,0,0,-1,909,421,5.99745,20.4501
-308,603,5.92249,-20.778,0,0,0,0,0,0,0,-1,916,421,5.92248,20.778
-301,603,2.87506,-22.5246,0,0,0,0,0,0,0,-1,923,421,2.87504,22.5246
-294,603,3.17743,-23.8659,0,0,0,0,0,0,0,-1,930,421,3.17742,23.8659
-287,603,3.67932,-24.1376,0,0,0,0,0,0,0,-1,937,421,3.67935,24.1376
-280,603,3.81903,-24.4882,0,0,0,0,0,0,0,-1,944,421,3.81903,24.4882
-273,603,3.72406,-25.2849,0,0,0,0,0,0,0,-1,951,421,3.72408,25.2849
-266,603,3.85614,-24.6133,0,0,0,0,0,0,0,-1,958,421,3.85616,24.6133
-259,603,3.93665,-25.0481,0,0,0,0,0,0,0,-1,965,421,3.93665,25.0481
-252,603,3.94934,-26.1897,0,0,0,0,0,0,0,-1,972,421,3.94936,26.1897
-245,603,3.95551,-26.5148,0.00152478,0.0347048,-0.00269333,0.034922,0.00130758,-1.49033,0.022858,0.0337825,979,421,3.9555,26.5148
-238,603,3.87769,-26.9122,0.00210668,0.0346006,-0.00273604,0.0348293,0.00187791,-1.48738,0.0226196,0.0217308,986,421,3.87766,26.9122
-231,603,3.84424,-27.4449,0.00250266,0.0337493,-0.00287081,0.0340109,0.00224109,-1.47993,0.021965,0.0142762,993,421,3.84423,27.4449
-224,603,3.82617,-27.9501,0.00256766,0.0314724,-0.0031967,0.0318217,0.00221834,-1.46195,0.0205151,0.0143083,1000,421,3.82619,27.9501
-217,603,3.80267,-28.3986,0.00251635,0.0288157,-0.00347247,0.0292665,0.00206558,-1.44171,0.0188602,0.0133483,1007,421,3.80269,28.3986
-210,603,3.77454,-28.8342,0.00248333,0.0244926,-0.00373047,0.0251077,0.00186822,-1.40738,0.0161518,0.0116916,1014,421,3.77456,28.8342
-203,603,3.76135,-29.2956,0.00221438,0.019816,-0.00383098,0.0206137,0.00141671,-1.36552,0.0132954,0.0169549,1021,421,3.7613,29.2955
-196,603,3.78455,-29.7415,0.00181804,0.0158522,-0.00393015,0.0168778,0.000792393,-1.31552,0.0109973,0.0190918,1028,421,3.78451,29.7415
-189,603,3.7677,-30.081,0.00163935,0.0124118,-0.00415876,0.0138305,0.000220673,-1.24205,0.00914766,0.016264,1035,421,3.76766,30.081
-182,603,3.71265,-30.4718,0.00145384,0.00913741,-0.00406994,0.0108924,-0.000301131,-1.16368,0.00736402,0.0116222,1042,421,3.71267,30.4718
-175,603,3.68042,-30.8545,0.00122357,0.00614392,-0.00389728,0.00829257,-0.000925072,-1.06694,0.00586112,0.0121166,1049,421,3.68039,30.8545
-168,603,3.64233,-31.2322,0.000831346,0.00299754,-0.00355629,0.00563201,-0.00180313,-0.933214,0.00447839,0.0146988,1056,421,3.64234,31.2322
-161,603,3.61707,-31.6487,0.00067727,0.000342877,-0.00307651,0.00359112,-0.00257097,-0.758252,0.0035739,0.0139694,1063,421,3.61706,31.6487
-154,603,3.63831,-32.0316,0.000794292,-0.000882944,-0.00243524,0.00253127,-0.00261992,-0.619574,0.00297419,0.0130067,1070,421,3.63825,32.0317
-147,603,3.6582,-32.3553,0.000862931,-0.0020086,-0.00167518,0.00163344,-0.00277911,-0.431103,0.00257605,0.0139261,1077,421,3.65824,32.3554
-140,603,3.64929,-32.6871,0.000939421,-0.00315893,-0.000916287,0.00113495,-0.00335446,-0.21024,0.00269548,0.0118701,1084,421,3.64935,32.6871
-133,603,3.62122,-33.0038,0.00102896,-0.00423078,-0.000111061,0.0010313,-0.00423313,-0.0211028,0.00322136,0.012088,1091,421,3.62124,33.0038
-126,603,3.63416,-33.3023,0.00114125,-0.00510833,0.000644806,0.00120709,-0.00517417,0.101748,0.00391435,0.0112446,1098,421,3.63413,33.3023
-119,603,3.65283,-33.6335,0.00129162,-0.00583763,0.00131409,0.00152612,-0.00607214,0.176595,0.0046412,0.0113432,1105,421,3.65284,33.6335
-112,603,3.66638,-33.9848,0.00146612,-0.00644976,0.00183424,0.00187049,-0.00685413,0.216985,0.00530402,0.0159636,1112,421,3.66643,33.9848
-105,603,3.67004,-34.2927,0.00175069,-0.00709137,0.00210365,0.00222566,-0.00756634,0.222062,0.00592709,0.0151299,1119,421,3.67009,34.2927
-98,603,3.67944,-34.5462,0.0020421,-0.00787316,0.00218529,0.00250237,-0.00833342,0.207586,0.00655103,0.0135043,1126,421,3.6794,34.5462
-91,603,3.70508,-34.8099,0.00238594,-0.00791699,0.00198509,0.00275518,-0.00828622,0.183905,0.00663601,0.0101368,1133,421,3.70509,34.8099
-84,603,3.73376,-35.1117,0.00283595,-0.00762449,0.00178627,0.00313257,-0.00792111,0.164554,0.00657843,0.0110156,1140,421,3.73375,35.1117
-77,603,3.75793,-35.4338,0.0034267,-0.0073661,0.00176602,0.00370833,-0.00764772,0.158137,0.00668662,0.0181665,1147,421,3.75798,35.4338
-70,603,3.71521,-35.6515,0,0,0,0,0,0,0,-1,1154,421,3.71521,35.6515
-63,603,3.76379,-35.8464,0,0,0,0,0,0,0,-1,1161,421,3.76385,35.8464
-56,603,3.84045,-36.0461,0,0,0,0,0,0,0,-1,1168,421,3.84049,36.0462
-49,603,3.91833,-36.2579,0,0,0,0,0,0,0,-1,1175,421,3.91832,36.2579
-42,603,3.95447,-36.477,0,0,0,0,0,0,0,-1,1182,421,3.95445,36.477
-35,603,3.89368,-36.5932,0.0089167,-0.0121666,0.00770668,0.0114333,-0.0146833,0.315637,0.0151173,0.0414082,1189,421,3.89368,36.5932
-28,603,3.93726,-36.7305,0.00938849,-0.0140017,0.0130543,0.0152202,-0.0198334,0.42013,0.0202965,0.0267207,1196,421,3.93724,36.7305
-21,603,4.04163,-36.8706,0.0103939,-0.0157647,0.0178159,0.0194161,-0.0247869,0.468763,0.0255833,0.0226223,1203,421,4.04166,36.8706
-14,603,4.14648,-37.0221,0.0109507,-0.0173977,0.0220326,0.0229747,-0.0294216,0.499563,0.0303273,0.0213634,1210,421,4.14647,37.0221
-7,603,4.1676,-37.1358,0.0110017,-0.0192149,0.0262853,0.0262113,-0.0344246,0.524563,0.035115,0.0251618,1217,421,4.16757,37.1358
0,603,4.14783,-37.3057,0.0109548,-0.0211597,0.0308064,0.0296376,-0.0398425,0.545154,0.0402583,0.0325395,1224,421,4.1478,37.3057
7,603,4.22021,-37.2701,0.0110121,-0.0236669,0.0347626,0.0325197,-0.0451745,0.554056,0.0450547,0.0422645,1231,421,4.22024,37.2701
14,603,4.49036,-37.1494,0.0108408,-0.0252189,0.0390842,0.0358534,-0.0502315,0.569289,0.0499317,0.041586,1238,421,4.4904,37.1494
21,603,4.50818,-37.2564,0.0106974,-0.0265289,0.0432891,0.0392054,-0.0550368,0.582361,0.0546661,0.0319879,1245,421,4.50818,37.2564
28,603,4.53589,-37.331,0.0104687,-0.02821,0.0473962,0.0423192,-0.0600606,0.591691,0.0594041,0.0363902,1252,421,4.53591,37.331
35,603,4.59924,-37.2798,0.0099612,-0.0294424,0.0518671,0.0457423,-0.0652235,0.603889,0.0643944,0.0455008,1259,421,4.59924,37.2798
42,603,4.75415,-37.509,0.00925628,-0.0304178,0.0564527,0.0492558,-0.0704173,0.616441,0.0694524,0.0397145,1266,421,4.75417,37.509
49,603,4.79614,-37.7195,0.00824769,-0.0301089,0.060308,0.0523533,-0.0742145,0.631452,0.0734364,0.0200608,1273,421,4.79609,37.7195
56,603,4.73291,-37.6025,0.00689046,-0.029387,0.0633757,0.0546721,-0.0771686,0.646019,0.0764867,0.0388118,1280,421,4.7329,37.6026
63,603,4.76172,-37.5708,0,0,0,0,0,0,0,-1,1287,421,4.76167,37.5708
70,603,4.87793,-37.5274,0,0,0,0,0,0,0,-1,1294,421,4.8779,37.5274
77,603,5.12708,-37.5418,0,0,0,0,0,0,0,-1,1301,421,5.12704,37.5418
84,603,5.19678,-37.7136,0,0,0,0,0,0,0,-1,1308,421,5.1968,37.7136
91,603,5.58752,-37.619,0,0,0,0,0,0,0,-1,1315,421,5.58753,37.619
98,603,5.60217,-37.5082,-0.00350702,-0.0162171,0.0620554,0.052518,-0.072242,0.734372,0.0723297,0.0474869,1322,421,5.60218,37.5082
105,603,5.58203,-37.3918,-0.00481806,-0.0135207,0.0580065,0.0490001,-0.0673389,0.747961,0.0674459,0.046397,1329,421,5.58206,37.3918
112,603,5.4751,-37.2154,-0.00577031,-0.0108185,0.053147,0.0449125,-0.0615013,0.76167,0.0616864,0.0409346,1336,421,5.47512,37.2154
119,603,5.62073,-37.1257,-0.0063127,-0.00950302,0.0475951,0.039714,-0.0555297,0.768647,0.0552411,0.0422232,1343,421,5.62078,37.1257
126,603,5.56165,-37.107,0,0,0,0,0,0,0,-1,1350,421,5.56162,37.107
133,603,5.69739,-36.7305,-0.00676331,-0.00644821,0.0350832,0.0284778,-0.0416893,0.787644,0.0407497,0.0421045,1357,421,5.69744,36.7305
140,603,5.78162,-36.653,-0.00604211,-0.00533949,0.027006,0.0213174,-0.0326991,0.791902,0.0314164,0.0298558,1364,421,5.7816,36.653
147,603,5.64209,-36.5826,-0.00455851,-0.00465095,0.0185097,0.0139051,-0.0231145,0.78415,0.0215926,0.0240644,1371,421,5.64208,36.5826
154,603,5.67444,-36.5033,-0.00179452,-0.00745777,0.0101551,0.00591637,-0.0151687,0.649433,0.012558,0.0318088,1378,421,5.67445,36.5033
161,603,5.79382,-36.3367,0.00146927,-0.00884443,0.00459339,0.00321838,-0.0105935,0.363836,0.00834466,0.0334331,1385,421,5.79383,36.3367
168,603,5.83984,-36.1487,0.00456705,-0.00972012,-0.000880619,0.00462112,-0.00977419,-0.0613277,0.00848678,0.0326785,1392,421,5.83985,36.1487
175,603,6.03699,-35.9654,0.00615197,-0.0102468,-0.00464079,0.0073742,-0.011469,-0.257519,0.0109644,0.0357642,1399,421,6.03702,35.9654
182,603,6.08618,-35.7523,0.005594,-0.00873293,-0.00423798,0.00675374,-0.00989267,-0.267114,0.0096676,0.0429664,1406,421,6.08615,35.7523
189,603,6.03711,-35.4754,0.00505243,-0.00679018,-0.00366573,0.00609527,-0.00783303,-0.277163,0.00806234,0.0379115,1413,421,6.03716,35.4754
196,603,5.98108,-35.1595,0.00474657,-0.00524319,-0.00294756,0.00555142,-0.00604805,-0.26656,0.006699,0.0283676,1420,421,5.98113,35.1595
203,603,5.9906,-34.9775,0.00416152,-0.00361427,-0.00248044,0.00488539,-0.00433814,-0.283943,0.00532833,0.0169828,1427,421,5.99065,34.9775
210,603,6.01697,-34.7983,0.00342215,-0.00230146,-0.0019326,0.00401359,-0.0028929,-0.296981,0.00400492,0.0135122,1434,421,6.01695,34.7983
217,603,6.03784,-34.4677,0.00285978,-0.00117444,-0.00134884,0.00326921,-0.00158387,-0.294705,0.00285769,0.0155031,1441,421,6.03783,34.4677
224,603,6.09729,-34.1467,0.00239865,-0.000135321,-0.000854059,0.00265963,-0.000396298,-0.296561,0.00191887,0.0181785,1448,421,6.09728,34.1467
231,603,6.08508,-33.8401,0.00200339,0.000814176,-0.000325169,0.00208649,0.000731072,-0.250217,0.00122248,0.0147275,1455,421,6.0851,33.8401
238,603,6.10229,-33.5225,0.00187569,0.00155385,6.47762e-05,0.00188824,0.0015413,0.191344,0.00116059,0.0112725,1462,421,6.1023,33.5225
245,603,6.13184,-33.2041,0.0018139,0.00212902,0.000343535,0.0023494,0.00159351,1.00041,0.00138487,0.0125839,1469,421,6.13188,33.2041
252,603,6.13855,-32.8561,0.00165493,0.00271991,0.000605876,0.00299404,0.0013808,1.14591,0.00173035,0.0108595,1476,421,6.13849,32.8561
259,603,6.13123,-32.4943,0.00144008,0.00310796,0.000842688,0.00345959,0.00108845,1.17549,0.00204264,0.0103552,1483,421,6.13128,32.4943
266,603,6.12402,-32.1131,0.00123357,0.00345218,0.00107288,0.00388613,0.000799625,1.18644,0.00236962,0.0116324,1490,421,6.12406,32.1131
273,603,6.12305,-31.7445,0.00104858,0.00390988,0.00133704,0.0044374,0.000521064,1.195,0.00280078,0.0109528,1497,421,6.12307,31.7445
280,603,6.12976,-31.3623,0.000976979,0.00433762,0.0015991,0.00497691,0.000337688,1.19048,0.0032113,0.0122335,1504,421,6.12982,31.3623
287,603,6.13245,-30.9557,0.00106423,0.00480215,0.00190674,0.00560315,0.000263233,1.17309,0.00365085,0.0109748,1511,421,6.13242,30.9557
294,603,6.10291,-30.5673,0.00112723,0.00531522,0.00220371,0.00626115,0.0001813,1.16534,0.004115,0.00962451,1518,421,6.10284,30.5673
301,603,6.09216,-30.1707,0.00124724,0.00584561,0.00249444,0.00693884,0.000154013,1.15774,0.00457542,0.0113263,1525,421,6.09222,30.1707
308,603,6.09119,-29.7665,0.00149658,0.00632541,0.00280656,0.00761318,0.000208806,1.14061,0.0050073,0.0156138,1532,421,6.09121,29.7665
315,603,6.06702,-29.3694,0.00178868,0.00694251,0.0031414,0.00842871,0.000302484,1.1289,0.00552107,0.0147445,1539,421,6.06704,29.3693
322,603,6.03967,-28.9333,0.00206528,0.00745645,0.00348518,0.00916685,0.000354891,1.11457,0.00599643,0.0152818,1546,421,6.03966,28.9333
329,603,6.00623,-28.4697,0.00228719,0.00785118,0.00381063,0.00978728,0.000351087,1.10071,0.00641103,0.0115202,1553,421,6.00628,28.4697
336,603,5.99524,-28.0364,0.00234229,0.00830083,0.00410585,0.0103944,0.000248687,1.09925,0.00684823,0.0100246,1560,421,5.99523,28.0364
343,603,6.00098,-27.5887,0.00240388,0.00874265,0.0044007,0.0109965,0.000150063,1.09748,0.00728147,0.0121283,1567,421,6.00098,27.5887
350,603,5.97363,-27.1175,0.00246593,0.00964261,0.00493493,0.0121559,-4.73466e-05,1.09975,0.00811976,0.0206727,1574,421,5.97365,27.1175
357,603,5.94482,-26.5613,0.0021566,0.0104752,0.00549343,0.0132063,-0.000574482,1.10943,0.00900182,0.0297897,1581,421,5.94486,26.5613
364,603,5.93225,-26.0287,0.00160888,0.0112948,0.00597668,0.0141443,-0.00124069,1.12589,0.00986915,0.0471952,1588,421,5.93223,26.0287
371,603,5.84265,-25.323,0,0,0,0,0,0,0,-1,1595,421,5.84268,25.323
378,603,5.77185,-25.2952,0,0,0,0,0,0,0,-1,1602,421,5.77184,25.2952
385,603,5.51343,-24.4957,0,0,0,0,0,0,0,-1,1609,421,5.51342,24.4957
392,603,4.90527,-19.605,0,0,0,0,0,0,0,-1,1616,421,4.90526,19.605
399,603,2.94299,0.638214,0,0,0,0,0,0,0,-1,1623,421,2.94293,-0.638215
406,603,3.01917,-2.37219,0,0,0,0,0,0,0,-1,1630,421,3.01915,2.37219
413,603,2.38928,-2.41275,0,0,0,0,0,0,0,-1,1637,421,2.38926,2.41274
420,603,-0.228882,-19.7886,0,0,0,0,0,0,0,-1,1644,421,-0.228908,19.7886
427,603,2.09583,-19.588,0,0,0,0,0,0,0,-1,1651,421,2.09584,19.588
434,603,4.43604,-19.4135,0,0,0,0,0,0,0,-1,1658,421,4.436,19.4135
441,603,6.76819,-19.3591,0,0,0,0,0,0,0,-1,1665,421,6.76819,19.3591
448,603,1.14355,-4.59842,0,0,0,0,0,0,0,-1,1672,421,1.14355,4.59841
455,603,0,0,0,0,0,0,0,0,0,-1,1679,421,0,0
462,603,0,0,0,0,0,0,0,0,0,-1,1686,421,0,0
469,603,0,0,0,0,0,0,0,0,0,-1,1693,421,0,0
476,603,0,0,0,0,0,0,0,0,0,-1,1700,421,0,0
483,603,0,0,0,0,0,0,0,0,0,-1,1707,421,0,0
490,603,0,0,0,0,0,0,0,0,0,-1,1714,421,0,0
497,603,0,0,0,0,0,0,0,0,0,-1,1721,421,0,0
504,603,0,0,0,0,0,0,0,0,0,-1,1728,421,0,0
511,603,0,0,0,0,0,0,0,0,0,-1,1735,421,0,0
518,603,0,0,0,0,0,0,0,0,0,-1,1742,421,0,0
525,603,0,0,0,0,0,0,0,0,0,-1,1749,421,0,0
532,603,0,0,0,0,0,0,0,0,0,-1,1756,421,0,0
539,603,0,0,0,0,0,0,0,0,0,-1,1763,421,0,0
546,603,0,0,0,0,0,0,0,0,0,-1,1770,421,0,0
553,603,0,0,0,0,0,0,0,0,0,-1,1777,421,0,0
560,603,0,0,0,0,0,0,0,0,0,-1,1784,421,0,0
567,603,0,0,0,0,0,0,0,0,0,-1,1791,421,0,0
574,603,0,0,0,0,0,0,0,0,0,-1,1798,421,0,0
581,603,0,0,0,0,0,0,0,0,0,-1,1805,421,0,0
588,603,0,0,0,0,0,0,0,0,0,-1,1812,421,0,0
595,603,0,0,0,0,0,0,0,0,0,-1,1819,421,0,0
602,603,0,0,0,0,0,0,0,0,0,-1,1826,421,0,0
609,603,0,0,0,0,0,0,0,0,0,-1,1833,421,0,0
616,603,0,0,0,0,0,0,0,0,0,-1,1840,421,0,0
623,603,0,0,0,0,0,0,0,0,0,-1,1847,421,0,0
630,603,0,0,0,0,0,0,0,0,0,-1,1854,421,0,0
637,603,0,0,0,0,0,0,0,0,0,-1,1861,421,0,0
644,603,0,0,0,0,0,0,0,0,0,-1,1868,421,0,0
651,603,0,0,0,0,0,0,0,0,0,-1,1875,421,0,0
658,603,0,0,0,0,0,0,0,0,0,-1,1882,421,0,0
665,603,0,0,0,0,0,0,0,0,0,-1,1889,421,0,0
672,603,0,0,0,0,0,0,0,0,0,-1,1896,421,0,0
679,603,0,0,0,0,0,0,0,0,0,-1,1903,421,0,0
686,603,0,0,0,0,0,0,0,0,0,-1,1910,421,0,0
693,603,0,0,0,0,0,0,0,0,0,-1,1917,421,0,0
700,603,0,0,0,0,0,0,0,0,0,-1,1924,421,0,0
707,603,0,0,0,0,0,0,0,0,0,-1,1931,421,0,0
714,603,0,0,0,0,0,0,0,0,0,-1,1938,421,0,0
721,603,0,0,0,0,0,0,0,0,0,-1,1945,421,0,0
728,603,0,0,0,0,0,0,0,0,0,-1,1952,421,0,0
735,603,0,0,0,0,0,0,0,0,0,-1,1959,421,0,0
742,603,0,0,0,0,0,0,0,0,0,-1,1966,421,0,0
749,603,0,0,0,0,0,0,0,0,0,-1,1973,421,0,0
756,603,0,0,0,0,0,0,0,0,0,-1,1980,421,0,0
763,603,0,0,0,0,0,0,0,0,0,-1,1987,421,0,0
770,603,0,0,0,0,0,0,0,0,0,-1,1994,421,0,0
777,603,0,0,0,0,0,0,0,0,0,-1,2001,421,0,0
784,603,0,0,0,0,0,0,0,0,0,-1,2008,421,0,0
791,603,0,0,0,0,0,0,0,0,0,-1,2015,421,0,0
798,603,0,0,0,0,0,0,0,0,0,-1,2022,421,0,0
805,603,0,0,0,0,0,0,0,0,0,-1,2029,421,0,0
812,603,0,0,0,0,0,0,0,0,0,-1,2036,421,0,0
-700,596,0,0,0,0,0,0,0,0,0,-1,524,428,0,0
-693,596,0,0,0,0,0,0,0,0,0,-1,531,428,0,0
-686,596,0,0,0,0,0,0,0,0,0,-1,538,428,0,0
-679,596,0,0,0,0,0,0,0,0,0,-1,545,428,0,0
-672,596,0,0,0,0,0,0,0,0,0,-1,552,428,0,0
-665,596,0,0,0,0,0,0,0,0,0,-1,559,428,0,0
-658,596,0,0,0,0,0,0,0,0,0,-1,566,428,0,0
-651,596,0,0,0,0,0,0,0,0,0,-1,573,428,0,0
-644,596,0,0,0,0,0,0,0,0,0,-1,580,428,0,0
-637,596,0,0,0,0,0,0,0,0,0,-1,587,428,0,0
-630,596,0,0,0,0,0,0,0,0,0,-1,594,428,0,0
-623,596,0,0,0,0,0,0,0,0,0,-1,601,428,0,0
-616,596,0,0,0,0,0,0,0,0,0,-1,608,428,0,0
-609,596,0,0,0,0,0,0,0,0,0,-1,615,428,0,0
-602,596,0,0,0,0,0,0,0,0,0,-1,622,428,0,0
-595,596,0,0,0,0,0,0,0,0,0,-1,629,428,0,0
-588,596,0,0,0,0,0,0,0,0,0,-1,636,428,0,0
-581,596,0,0,0,0,0,0,0,0,0,-1,643,428,0,0
-574,596,0,0,0,0,0,0,0,0,0,-1,650,428,0,0
-567,596,0,0,0,0,0,0,0,0,0,-1,657,428,0,0
-560,596,0,0,0,0,0,0,0,0,0,-1,664,428,0,0
-553,596,0,0,0,0,0,0,0,0,0,-1,671,428,0,0
-546,596,0,0,0,0,0,0,0,0,0,-1,678,428,0,0
-539,596,0,0,0,0,0,0,0,0,0,-1,685,428,0,0
-532,596,0,0,0,0,0,0,0,0,0,-1,692,428,0,0
-525,596,0,0,0,0,0,0,0,0,0,-1,699,428,0,0
-518,596,0,0,0,0,0,0,0,0,0,-1,706,428,0,0
-511,596,0,0,0,0,0,0,0,0,0,-1,713,428,0,0
-504,596,0,0,0,0,0,0,0,0,0,-1,720,428,0,0
-497,596,0,0,0,0,0,0,0,0,0,-1,727,428,0,0
-490,596,0,0,0,0,0,0,0,0,0,-1,734,428,0,0
-483,596,0,0,0,0,0,0,0,0,0,-1,741,428,0,0
-476,596,0,0,0,0,0,0,0,0,0,-1,748,428,0,0
-469,596,0,0,0,0,0,0,0,0,0,-1,755,428,0,0
-462,596,0,0,0,0,0,0,0,0,0,-1,762,428,0,0
-455,596,0,0,0,0,0,0,0,0,0,-1,769,428,0,0
-448,596,0,0,0,0,0,0,0,0,0,-1,776,428,0,0
-441,596,0,0,0,0,0,0,0,0,0,-1,783,428,0,0
-434,596,0,0,0,0,0,0,0,0,0,-1,790,428,0,0
-427,596,0,0,0,0,0,0,0,0,0,-1,797,428,0,0
-420,596,0,0,0,0,0,0,0,0,0,-1,804,428,0,0
-413,596,0,0,0,0,0,0,0,0,0,-1,811,428,0,0
-406,596,0,0,0,0,0,0,0,0,0,-1,818,428,0,0
-399,596,0,0,0,0,0,0,0,0,0,-1,825,428,0,0
-392,596,0,0,0,0,0,0,0,0,0,-1,832,428,0,0
-385,596,0,0,0,0,0,0,0,0,0,-1,839,428,0,0
-378,596,0,0,0,0,0,0,0,0,0,-1,846,428,0,0
-371,596,0,0,0,0,0,0,0,0,0,-1,853,428,0,0
-364,596,0,0,0,0,0,0,0,0,0,-1,860,428,0,0
-357,596,0,0,0,0,0,0,0,0,0,-1,867,428,0,0
-350,596,0,0,0,0,0,0,0,0,0,-1,874,428,0,0
-343,596,0,0,0,0,0,0,0,0,0,-1,881,428,0,0
-336,596,-0.98291,-20.0836,0,0,0,0,0,0,0,-1,888,428,-0.982933,20.0836
-329,596,4.43048,-20.1666,0,0,0,0,0,0,0,-1,895,428,4.43045,20.1666
-322,596,4.29657,-19.996,0,0,0,0,0,0,0,-1,902,428,4.29655,19.996
-315,596,4.20044,-19.8317,0,0,0,0,0,0,0,-1,909,428,4.20045,19.8317
-308,596,0.254761,-20.841,0,0,0,0,0,0,0,-1,916,428,0.254731,20.841
-301,596,3.74567,-22.2614,0,0,0,0,0,0,0,-1,923,428,3.74568,22.2614
-294,596,2.44946,-23.3419,0,0,0,0,0,0,0,-1,930,428,2.44946,23.3419
-287,596,4.03796,-23.6326,0,0,0,0,0,0,0,-1,937,428,4.03794,23.6326
-280,596,3.87836,-24.2209,0,0,0,0,0,0,0,-1,944,428,3.87835,24.2209
-273,596,3.48071,-25.0072,-0.00823721,0.0132154,-0.00607008,0.0148139,-0.00983566,-1.31331,0.0143278,0.0458295,951,428,3.48069,25.0072
-266,596,3.47919,-24.8785,-0.00411952,0.0156804,-0.00561789,0.0171633,-0.00560244,-1.31272,0.0136971,0.0422187,958,428,3.47922,24.8785
-259,596,3.48669,-25.3469,-0.00202971,0.0161014,-0.00466012,0.017229,-0.00315734,-1.33338,0.0126703,0.0357601,965,428,3.48668,25.3469
-252,596,3.49475,-26.0796,-0.000997992,0.0164518,-0.00439152,0.0174946,-0.00204086,-1.33764,0.0123995,0.0193833,972,428,3.49477,26.0795
-245,596,3.4751,-26.6127,-0.000288554,0.0165521,-0.00429778,0.0175855,-0.00132195,-1.33483,0.0121882,0.0149738,979,428,3.47508,26.6127
-238,596,3.48053,-27.0809,0.000236713,0.0164508,-0.00415477,0.0174534,-0.000765924,-1.334,0.0118991,0.0126347,986,428,3.48056,27.0809
-231,596,3.43634,-27.5379,0.000644973,0.0160087,-0.00405756,0.0170144,-0.000360792,-1.32782,0.0114651,0.0134215,993,428,3.43636,27.5379
-224,596,3.40973,-27.9963,0.000884855,0.0149202,-0.00398766,0.015974,-0.000168977,-1.31243,0.0107061,0.0139299,1000,428,3.4097,27.9963
-217,596,3.38733,-28.4459,0.00106272,0.0137241,-0.00388246,0.0148198,-3.29632e-05,-1.29573,0.00989089,0.0147645,1007,428,3.38736,28.4459
-210,596,3.38477,-28.8517,0.00124024,0.0115187,-0.00360487,0.0126569,0.000101986,-1.26495,0.00840418,0.0125679,1014,428,3.38476,28.8516
-203,596,3.37805,-29.2741,0.00127967,0.00928708,-0.0031966,0.0104066,0.000160107,-1.23391,0.00688501,0.0156748,1021,428,3.37802,29.2741
-196,596,3.38892,-29.6905,0.00121815,0.00734373,-0.00287595,0.00848235,7.9541e-05,-1.19382,0.00562857,0.016425,1028,428,3.38891,29.6905
-189,596,3.36182,-30.08,0.00128149,0.00558433,-0.00272272,0.00690304,-3.72236e-05,-1.11976,0.00461448,0.0133095,1035,428,3.36186,30.08
-182,596,3.32446,-30.4711,0.00133374,0.00381714,-0.00238437,0.00526375,-0.000112882,-1.02546,0.00354739,0.0120825,1042,428,3.32449,30.4711
-175,596,3.31165,-30.8601,0.00128362,0.00209604,-0.00200768,0.0037382,-0.000358535,-0.885215,0.00261983,0.0141346,1049,428,3.31168,30.8601
-168,596,3.30676,-31.2313,0.00113017,0.000100667,-0.00149443,0.00219602,-0.000965182,-0.619539,0.00187067,0.016517,1056,428,3.30679,31.2313
-161,596,3.28467,-31.6401,0.00113904,-0.00186509,-0.000970473,0.00142527,-0.00215133,-0.286811,0.00207909,0.0147884,1063,428,3.28471,31.6401
-154,596,3.28357,-32.0406,0.00127818,-0.00323749,-0.000427524,0.0013183,-0.00327761,-0.0935677,0.00273264,0.012835,1070,428,3.28353,32.0405
-147,596,3.30469,-32.3524,0.00137477,-0.00462784,0.00021195,0.00138225,-0.00463532,0.035251,0.00363953,0.0135782,1077,428,3.30463,32.3525
-140,596,3.31482,-32.6575,0.00147704,-0.00611415,0.000876665,0.00157696,-0.00621408,0.113494,0.00475633,0.014322,1084,428,3.31479,32.6575
-133,596,3.30603,-33.0068,0.00158696,-0.00763606,0.00159317,0.00185441,-0.00790351,0.16632,0.0059837,0.0144268,1091,428,3.30609,33.0068
-126,596,3.32092,-33.3135,0.0017381,-0.00901651,0.00225906,0.00219335,-0.00947176,0.198861,0.00715852,0.0112348,1098,428,3.32087,33.3135
-119,596,3.32739,-33.6347,0.00192313,-0.0102662,0.00280512,0.00253769,-0.0108808,0.215676,0.00823118,0.0146642,1105,428,3.32743,33.6347
-112,596,3.3208,-33.9604,0.00216675,-0.0113046,0.00325423,0.00291168,-0.0120495,0.225032,0.00915914,0.0162219,1112,428,3.32083,33.9604
-105,596,3.34888,-34.2815,0.00255815,-0.0122356,0.00352694,0.00335597,-0.0130334,0.222464,0.00999714,0.0164689,1119,428,3.34892,34.2815
-98,596,3.39465,-34.5474,0.00287367,-0.0130397,0.00370425,0.00369368,-0.0138597,0.217856,0.010686,0.0144979,1126,428,3.39465,34.5474
-91,596,3.41968,-34.9353,0.00328541,-0.0129365,0.00335903,0.00395344,-0.0136045,0.196316,0.0106353,0.0346982,1133,428,3.41971,34.9353
-84,596,3.61816,-35.5497,0,0,0,0,0,0,0,-1,1140,428,3.61819,35.5497
-77,596,3.54468,-35.5162,0,0,0,0,0,0,0,-1,1147,428,3.54469,35.5162
-70,596,3.50696,-32.137,0,0,0,0,0,0,0,-1,1154,428,3.50696,32.137
-63,596,1.95569,-12.2758,0,0,0,0,0,0,0,-1,1161,428,1.95563,12.2759
-56,596,1.60107,-10.5827,0,0,0,0,0,0,0,-1,1168,428,1.60108,10.5827
-49,596,1.59473,-10.0393,0,0,0,0,0,0,0,-1,1175,428,1.59472,10.0393
-42,596,1.99585,-6.6246,0,0,0,0,0,0,0,-1,1182,428,1.99586,6.62459
-35,596,3.43018,-36.3344,0,0,0,0,0,0,0,-1,1189,428,3.43019,36.3344
-28,596,3.70398,-36.5341,0,0,0,0,0,0,0,-1,1196,428,3.70398,36.5341
-21,596,3.65552,-36.5246,0,0,0,0,0,0,0,-1,1203,428,3.65548,36.5246
-14,596,3.71021,-36.6525,0,0,0,0,0,0,0,-1,1210,428,3.71025,36.6525
-7,596,4.01392,-36.95,0,0,0,0,0,0,0,-1,1217,428,4.01386,36.9499
0,596,3.89929,-37.2203,0,0,0,0,0,0,0,-1,1224,428,3.89926,37.2203
7,596,3.48438,-36.5131,0,0,0,0,0,0,0,-1,1231,428,3.4844,36.5131
14,596,4.51404,-36.6281,0,0,0,0,0,0,0,-1,1238,428,4.51408,36.6281
21,596,4.48425,-36.6831,0,0,0,0,0,0,0,-1,1245,428,4.48421,36.6831
28,596,4.41748,-36.5855,0,0,0,0,0,0,0,-1,1252,428,4.41744,36.5856
35,596,4.23938,-36.6934,0.0115713,-0.0341861,0.0670343,0.0595235,-0.0821384,0.620947,0.0821352,0.0483535,1259,428,4.23941,36.6934
42,596,4.15271,-36.8202,0.0106975,-0.0354277,0.0726953,0.0639008,-0.088631,0.631795,0.0884492,0.0492495,1266,428,4.1527,36.8202
49,596,4.20642,-37.1892,0,0,0,0,0,0,0,-1,1273,428,4.20637,37.1892
56,596,4.66174,-37.432,0,0,0,0,0,0,0,-1,1280,428,4.66171,37.432
63,596,7.16833,-31.3697,0,0,0,0,0,0,0,-1,1287,428,7.16833,31.3696
70,596,7.3877,-30.6678,0,0,0,0,0,0,0,-1,1294,428,7.38776,30.6678
77,596,6.62244,-32.3037,0,0,0,0,0,0,0,-1,1301,428,6.62238,32.3037
84,596,6.28601,-31.5088,0,0,0,0,0,0,0,-1,1308,428,6.28604,31.5088
91,596,5.54773,-30.3478,0,0,0,0,0,0,0,-1,1315,428,5.54774,30.3478
98,596,5.89209,-37.3994,0,0,0,0,0,0,0,-1,1322,428,5.89212,37.3994
105,596,5.86926,-37.2545,0,0,0,0,0,0,0,-1,1329,428,5.86926,37.2545
112,596,5.72412,-36.8484,0,0,0,0,0,0,0,-1,1336,428,5.72409,36.8484
119,596,6.05432,-36.603,0,0,0,0,0,0,0,-1,1343,428,6.05426,36.603
126,596,1.31384,-35.9825,0,0,0,0,0,0,0,-1,1350,428,1.31384,35.9825
133,596,6.03259,-36.207,0,0,0,0,0,0,0,-1,1357,428,6.03258,36.207
140,596,6.1554,-36.1122,0,0,0,0,0,0,0,-1,1364,428,6.15542,36.1122
147,596,5.87231,-36.0643,0,0,0,0,0,0,0,-1,1371,428,5.87226,36.0643
154,596,5.75806,-36.1725,0,0,0,0,0,0,0,-1,1378,428,5.75803,36.1725
161,596,6.08765,-36.0799,0,0,0,0,0,0,0,-1,1385,428,6.08764,36.0799
168,596,6.16174,-35.7863,0,0,0,0,0,0,0,-1,1392,428,6.16176,35.7863
175,596,6.34546,-35.5982,0,0,0,0,0,0,0,-1,1399,428,6.34551,35.5982
182,596,6.45093,-35.6038,0,0,0,0,0,0,0,-1,1406,428,6.45098,35.6038
189,596,6.38025,-35.415,0,0,0,0,0,0,0,-1,1413,428,6.3802,35.415
196,596,6.30322,-34.9306,0,0,0,0,0,0,0,-1,1420,428,6.30317,34.9306
203,596,6.24792,-34.9288,0,0,0,0,0,0,0,-1,1427,428,6.24788,34.9288
210,596,6.27454,-34.8358,0,0,0,0,0,0,0,-1,1434,428,6.27455,34.8358
217,596,6.30713,-34.4578,0,0,0,0,0,0,0,-1,1441,428,6.30711,34.4578
224,596,6.38269,-34.127,0,0,0,0,0,0,0,-1,1448,428,6.3827,34.127
231,596,6.4436,-33.8553,0.0026799,7.17622e-05,-0.000878405,0.00294815,-0.000196489,-0.296389,0.0020341,0.0214064,1455,428,6.44365,33.8553
238,596,6.44971,-33.5175,0.00255483,0.000871913,-0.000456204,0.00267054,0.000756201,-0.248401,0.00158943,0.0163611,1462,428,6.44971,33.5175
245,596,6.47375,-33.192,0.00254648,0.00138132,-0.0001828,0.00257449,0.00135331,-0.152023,0.00148703,0.0133014,1469,428,6.47379,33.192
252,596,6.47937,-32.8395,0.00236892,0.00187511,5.45647e-05,0.00237487,0.00186915,0.10875,0.00144449,0.010213,1476,428,6.47942,32.8395
259,596,6.4751,-32.4919,0.00210983,0.00203127,0.000217889,0.00229195,0.00184915,0.696225,0.00140384,0.00895286,1483,428,6.47514,32.4919
266,596,6.47632,-32.126,0.00185696,0.00211702,0.000343625,0.00235439,0.00161958,0.966274,0.00139094,0.0103776,1490,428,6.47635,32.126
273,596,6.49121,-31.7563,0.00164853,0.00235486,0.000521002,0.00263111,0.00137228,1.08325,0.00151954,0.0122376,1497,428,6.49122,31.7563
280,596,6.51245,-31.3884,0.00146809,0.00251686,0.000718505,0.00288198,0.00110296,1.10063,0.0016791,0.0129009,1504,428,6.51243,31.3884
287,596,6.51282,-30.9903,0.00140167,0.00275633,0.000936392,0.00323468,0.000923319,1.09851,0.00192401,0.011073,1511,428,6.51287,30.9903
294,596,6.47827,-30.5875,0.00133536,0.00312088,0.00116593,0.00369659,0.000759651,1.11214,0.00225426,0.0087184,1518,428,6.47824,30.5875
301,596,6.47729,-30.1789,0.00130196,0.0035272,0.00140337,0.0042055,0.000623662,1.12057,0.00262063,0.0101935,1525,428,6.47733,30.1789
308,596,6.48987,-29.7837,0.00139267,0.0038711,0.00167957,0.00471913,0.000544633,1.10323,0.00298117,0.0157279,1532,428,6.48987,29.7837
315,596,6.46301,-29.3528,0.00149832,0.00440545,0.00197843,0.00540688,0.000496881,1.10222,0.00345091,0.0163036,1539,428,6.46305,29.3528
322,596,6.4657,-28.9077,0.00158749,0.00490511,0.00230121,0.00608306,0.000409539,1.09769,0.00392598,0.0142159,1546,428,6.46575,28.9078
329,596,6.43555,-28.473,0.001651,0.00532223,0.00263083,0.00669453,0.000278694,1.09,0.00437309,0.0107261,1553,428,6.4356,28.473
336,596,6.39624,-28.0516,0.00160439,0.00578677,0.0029417,0.00730483,8.63362e-05,1.09439,0.00484136,0.00964971,1560,428,6.3963,28.0516
343,596,6.41919,-27.6145,0.00155475,0.00627741,0.0032519,0.00793488,-0.000102713,1.09943,0.00532449,0.0118591,1567,428,6.41913,27.6145
350,596,6.42371,-27.141,0.00150078,0.00715233,0.00374354,0.00901688,-0.000363764,1.10869,0.0061361,0.0117299,1574,428,6.42372,27.141
357,596,6.36389,-26.6713,0.00121768,0.00795729,0.0042618,0.0100206,-0.000845618,1.11992,0.00697936,0.00953789,1581,428,6.36392,26.6713
364,596,6.3252,-26.162,0.000774279,0.00874386,0.00472138,0.0109373,-0.00141911,1.1359,0.00780765,0.0135936,1588,428,6.32526,26.162
371,596,6.31787,-25.7151,0.000243709,0.0097048,0.00515688,0.0119722,-0.00202371,1.15655,0.00873455,0.0202779,1595,428,6.31786,25.7152
378,596,6.24951,-25.3065,-0.000245256,0.0110824,0.00570768,0.0134595,-0.00262236,1.17617,0.00996282,0.0288915,1602,428,6.24956,25.3065
385,596,6.14111,-24.6717,-0.0012513,0.0122174,0.00618803,0.0146287,-0.00366262,1.19922,0.0111752,0.0458883,1609,428,6.14117,24.6717
392,596,6.00513,-24.0879,0,0,0,0,0,0,0,-1,1616,428,6.00518,24.0879
399,596,6.14185,-23.0456,0,0,0,0,0,0,0,-1,1623,428,6.14182,23.0456
406,596,3.60034,-10.1525,0,0,0,0,0,0,0,-1,1630,428,3.60028,10.1525
413,596,3.39124,-2.63528,0,0,0,0,0,0,0,-1,1637,428,3.39122,2.6353
420,596,2.6344,-3.06308,0,0,0,0,0,0,0,-1,1644,428,2.63439,3.06308
427,596,3.77856,-20.1826,0,0,0,0,0,0,0,-1,1651,428,3.77859,20.1826
434,596,4.93384,-19.4499,0,0,0,0,0,0,0,-1,1658,428,4.93385,19.4499
441,596,6.08911,-18.7172,0,0,0,0,0,0,0,-1,1665,428,6.08912,18.7172
448,596,1.0769,0.0083313,0,0,0,0,0,0,0,-1,1672,428,1.07684,-0.00832231
455,596,2.00769,-1.43329,0,0,0,0,0,0,0,-1,1679,428,2.00765,1.4333
462,596,0,0,0,0,0,0,0,0,0,-1,1686,428,0,0
469,596,0,0,0,0,0,0,0,0,0,-1,1693,428,0,0
476,596,0,0,0,0,0,0,0,0,0,-1,1700,428,0,0
483,596,0,0,0,0,0,0,0,0,0,-1,1707,428,0,0
490,596,0,0,0,0,0,0,0,0,0,-1,1714,428,0,0
497,596,0,0,0,0,0,0,0,0,0,-1,1721,428,0,0
504,596,0,0,0,0,0,0,0,0,0,-1,1728,428,0,0
511,596,0,0,0,0,0,0,0,0,0,-1,1735,428,0,0
518,596,0,0,0,0,0,0,0,0,0,-1,1742,428,0,0
525,596,0,0,0,0,0,0,0,0,0,-1,1749,428,0,0
532,596,0,0,0,0,0,0,0,0,0,-1,1756,428,0,0
539,596,0,0,0,0,0,0,0,0,0,-1,1763,428,0,0
546,596,0,0,0,0,0,0,0,0,0,-1,1770,428,0,0
553,596,0,0,0,0,0,0,0,0,0,-1,1777,428,0,0
560,596,0,0,0,0,0,0,0,0,0,-1,1784,428,0,0
567,596,0,0,0,0,0,0,0,0,0,-1,1791,428,0,0
574,596,0,0,0,0,0,0,0,0,0,-1,1798,428,0,0
581,596,0,0,0,0,0,0,0,0,0,-1,1805,428,0,0
588,596,0,0,0,0,0,0,0,0,0,-1,1812,428,0,0
595,596,0,0,0,0,0,0,0,0,0,-1,1819,428,0,0
602,596,0,0,0,0,0,0,0,0,0,-1,1826,428,0,0
609,596,0,0,0,0,0,0,0,0,0,-1,1833,428,0,0
616,596,0,0,0,0,0,0,0,0,0,-1,1840,428,0,0
623,596,0,0,0,0,0,0,0,0,0,-1,1847,428,0,0
630,596,0,0,0,0,0,0,0,0,0,-1,1854,428,0,0
637,596,0,0,0,0,0,0,0,0,0,-1,1861,428,0,0
644,596,0,0,0,0,0,0,0,0,0,-1,1868,428,0,0
651,596,0,0,0,0,0,0,0,0,0,-1,1875,428,0,0
658,596,0,0,0,0,0,0,0,0,0,-1,1882,428,0,0
665,596,0,0,0,0,0,0,0,0,0,-1,1889,428,0,0
672,596,0,0,0,0,0,0,0,0,0,-1,1896,428,0,0
679,596,0,0,0,0,0,0,0,0,0,-1,1903,428,0,0
686,596,0,0,0,0,0,0,0,0,0,-1,1910,428,0,0
693,596,0,0,0,0,0,0,0,0,0,-1,1917,428,0,0
700,596,0,0,0,0,0,0,0,0,0,-1,1924,428,0,0
707,596,0,0,0,0,0,0,0,0,0,-1,1931,428,0,0
714,596,0,0,0,0,0,0,0,0,0,-1,1938,428,0,0
721,596,0,0,0,0,0,0,0,0,0,-1,1945,428,0,0
728,596,0,0,0,0,0,0,0,0,0,-1,1952,428,0,0
735,596,0,0,0,0,0,0,0,0,0,-1,1959,428,0,0
742,596,0,0,0,0,0,0,0,0,0,-1,1966,428,0,0
749,596,0,0,0,0,0,0,0,0,0,-1,1973,428,0,0
756,596,0,0,0,0,0,0,0,0,0,-1,1980,428,0,0
763,596,0,0,0,0,0,0,0,0,0,-1,1987,428,0,0
770,596,0,0,0,0,0,0,0,0,0,-1,1994,428,0,0
777,596,0,0,0,0,0,0,0,0,0,-1,2001,428,0,0
784,596,0,0,0,0,0,0,0,0,0,-1,2008,428,0,0
791,596,0,0,0,0,0,0,0,0,0,-1,2015,428,0,0
798,596,0,0,0,0,0,0,0,0,0,-1,2022,428,0,0
805,596,0,0,0,0,0,0,0,0,0,-1,2029,428,0,0
812,596,0,0,0,0,0,0,0,0,0,-1,2036,428,0,0
-700,589,0,0,0,0,0,0,0,0,0,-1,524,435,0,0
-693,589,0,0,0,0,0,0,0,0,0,-1,531,435,0,0
-686,589,0,0,0,0,0,0,0,0,0,-1,538,435,0,0
-679,589,0,0,0,0,0,0,0,0,0,-1,545,435,0,0
-672,589,0,0,0,0,0,0,0,0,0,-1,552,435,0,0
-665,589,0,0,0,0,0,0,0,0,0,-1,559,435,0,0
-658,589,0,0,0,0,0,0,0,0,0,-1,566,435,0,0
-651,589,0,0,0,0,0,0,0,0,0,-1,573,435,0,0
-644,589,0,0,0,0,0,0,0,0,0,-1,580,435,0,0
-637,589,0,0,0,0,0,0,0,0,0,-1,587,435,0,0
-630,589,0,0,0,0,0,0,0,0,0,-1,594,435,0,0
-623,589,0,0,0,0,0,0,0,0,0,-1,601,435,0,0
-616,589,0,0,0,0,0,0,0,0,0,-1,608,435,0,0
-609,589,0,0,0,0,0,0,0,0,0,-1,615,435,0,0
-602,589,0,0,0,0,0,0,0,0,0,-1,622,435,0,0
-595,589,0,0,0,0,0,0,0,0,0,-1,629,435,0,0
-588,589,0,0,0,0,0,0,0,0,0,-1,636,435,0,0
-581,589,0,0,0,0,0,0,0,0,0,-1,643,435,0,0
-574,589,0,0,0,0,0,0,0,0,0,-1,650,435,0,0
-567,589,0,0,0,0,0,0,0,0,0,-1,657,435,0,0
-560,589,0,0,0,0,0,0,0,0,0,-1,664,435,0,0
-553,589,0,0,0,0,0,0,0,0,0,-1,671,435,0,0
-546,589,0,0,0,0,0,0,0,0,0,-1,678,435,0,0
-539,589,0,0,0,0,0,0,0,0,0,-1,685,435,0,0
-532,589,0,0,0,0,0,0,0,0,0,-1,692,435,0,0
-525,589,0,0,0,0,0,0,0,0,0,-1,699,435,0,0
-518,589,0,0,0,0,0,0,0,0,0,-1,706,435,0,0
-511,589,0,0,0,0,0,0,0,0,0,-1,713,435,0,0
-504,589,0,0,0,0,0,0,0,0,0,-1,720,435,0,0
-497,589,0,0,0,0,0,0,0,0,0,-1,727,435,0,0
-490,589,0,0,0,0,0,0,0,0,0,-1,734,435,0,0
-483,589,0,0,0,0,0,0,0,0,0,-1,741,435,0,0
-476,589,0,0,0,0,0,0,0,0,0,-1,748,435,0,0
-469,589,0,0,0,0,0,0,0,0,0,-1,755,435,0,0
-462,589,0,0,0,0,0,0,0,0,0,-1,762,435,0,0
-455,589,0,0,0,0,0,0,0,0,0,-1,769,435,0,0
-448,589,0,0,0,0,0,0,0,0,0,-1,776,435,0,0
-441,589,0,0,0,0,0,0,0,0,0,-1,783,435,0,0
-434,589,0,0,0,0,0,0,0,0,0,-1,790,435,0,0
-427,589,0,0,0,0,0,0,0,0,0,-1,797,435,0,0
-420,589,0,0,0,0,0,0,0,0,0,-1,804,435,0,0
-413,589,0,0,0,0,0,0,0,0,0,-1,811,435,0,0
-406,589,0,0,0,0,0,0,0,0,0,-1,818,435,0,0
-399,589,0,0,0,0,0,0,0,0,0,-1,825,435,0,0
-392,589,0,0,0,0,0,0,0,0,0,-1,832,435,0,0
-385,589,0,0,0,0,0,0,0,0,0,-1,839,435,0,0
-378,589,0,0,0,0,0,0,0,0,0,-1,846,435,0,0
-371,589,0,0,0,0,0,0,0,0,0,-1,853,435,0,0
-364,589,0,0,0,0,0,0,0,0,0,-1,860,435,0,0
-357,589,0,0,0,0,0,0,0,0,0,-1,867,435,0,0
-350,589,-0.799927,-20.664,0,0,0,0,0,0,0,-1,874,435,-0.799952,20.664
-343,589,-0.370911,-19.1543,0,0,0,0,0,0,0,-1,881,435,-0.370922,19.1543
-336,589,-0.836914,-18.9103,0,0,0,0,0,0,0,-1,888,435,-0.836925,18.9103
-329,589,2.58252,-16.902,0,0,0,0,0,0,0,-1,895,435,2.58251,16.902
-322,589,4.80298,-20.4898,0,0,0,0,0,0,0,-1,902,435,4.80296,20.4898
-315,589,3.52466,-21.407,0,0,0,0,0,0,0,-1,909,435,3.52468,21.407
-308,589,3.12079,-22.5075,0,0,0,0,0,0,0,-1,916,435,3.1208,22.5075
-301,589,3.24005,-22.491,0,0,0,0,0,0,0,-1,923,435,3.24008,22.491
-294,589,2.92035,-22.8718,0,0,0,0,0,0,0,-1,930,435,2.92034,22.8718
-287,589,3.32721,-23.5822,-0.0115661,0.0105289,-0.00723391,0.0126866,-0.0137238,-1.28092,0.0152519,0.0448606,937,435,3.32721,23.5821
-280,589,3.29767,-24.1527,-0.00888032,0.0097958,-0.00597291,0.0115426,-0.0106272,-1.28627,0.0128034,0.0351974,944,435,3.29764,24.1527
-273,589,3.21338,-24.6912,-0.00698254,0.00959786,-0.00553544,0.011276,-0.00866072,-1.27643,0.0115435,0.0211061,951,435,3.21337,24.6912
-266,589,3.1366,-25.1768,-0.00430074,0.00885154,-0.00506625,0.0105768,-0.00602596,-1.24258,0.00970487,0.0187715,958,435,3.13658,25.1768
-259,589,3.0816,-25.6679,-0.00273553,0.00827205,-0.00413151,0.0096502,-0.00411368,-1.24883,0.00815806,0.0164019,965,435,3.08159,25.6679
-252,589,3.07977,-26.2051,-0.00197821,0.00778858,-0.00374251,0.00905774,-0.00324737,-1.24385,0.00736363,0.0109766,972,435,3.07975,26.2051
-245,589,3.08862,-26.6683,-0.00145589,0.00726375,-0.00352129,0.00850817,-0.00270031,-1.2311,0.0067546,0.010804,979,435,3.08863,26.6683
-238,589,3.06134,-27.1261,-0.00102962,0.00677881,-0.00326433,0.00796368,-0.00221449,-1.22261,0.00618096,0.0143566,986,435,3.06133,27.1261
-231,589,3.02557,-27.5481,-0.000646164,0.00625164,-0.00305646,0.00741109,-0.00180561,-1.20822,0.00563978,0.0152001,993,435,3.02559,27.5481
-224,589,2.98059,-27.9883,-0.000280212,0.00553972,-0.00282876,0.00668806,-0.00142854,-1.18517,0.00500333,0.014927,1000,435,2.98061,27.9883
-217,589,2.95813,-28.4432,8.37648e-05,0.00489639,-0.0026139,0.00604294,-0.00106278,-1.15743,0.00442563,0.0154875,1007,435,2.95814,28.4432
-210,589,2.9704,-28.8575,0.000441132,0.00365641,-0.00228272,0.00484078,-0.000743233,-1.09219,0.00350132,0.0143985,1014,435,2.9704,28.8575
-203,589,2.97217,-29.2521,0.000798116,0.00256322,-0.00189752,0.00377339,-0.000412055,-1.00307,0.00266359,0.0109989,1021,435,2.97214,29.2521
-196,589,2.94958,-29.6701,0.00107311,0.00159552,-0.00154627,0.00290249,-0.000233863,-0.869071,0.00201747,0.0135998,1028,435,2.94957,29.6701
-189,589,2.92749,-30.1202,0.00137423,0.000604889,-0.0013351,0.00237898,-0.000399855,-0.645136,0.0017347,0.0174248,1035,435,2.92748,30.1202
-182,589,2.92847,-30.4577,0.0016501,-0.000462058,-0.00102573,0.00206624,-0.000878193,-0.385409,0.00174548,0.0129323,1042,435,2.92849,30.4577
-175,589,2.9375,-30.8349,0.00181269,-0.00156087,-0.00067274,0.00194189,-0.00169008,-0.189749,0.0020986,0.0162672,1049,435,2.93754,30.8349
-168,589,2.95276,-31.2455,0.0018891,-0.00309722,-0.000187181,0.00189612,-0.00310424,-0.0374686,0.00291491,0.0137144,1056,435,2.95277,31.2455
-161,589,2.94177,-31.6243,0.00201393,-0.00489008,0.000314549,0.00202823,-0.00490438,0.0454348,0.00411576,0.0118978,1063,435,2.94182,31.6243
-154,589,2.93103,-31.9802,0.00215721,-0.0064134,0.000818162,0.00223461,-0.00649081,0.0943262,0.00523359,0.0119907,1070,435,2.931,31.9802
-147,589,2.95264,-32.3338,0.00225021,-0.00802245,0.0014303,0.00244564,-0.00821788,0.135793,0.00645024,0.0129657,1077,435,2.95266,32.3338
-140,589,2.96655,-32.6548,0.00231722,-0.00979175,0.00211284,0.00267529,-0.0101498,0.167879,0.00781252,0.0143625,1084,435,2.96654,32.6548
-133,589,2.97437,-32.9841,0.00235034,-0.0117094,0.00287667,0.00291615,-0.0122752,0.19421,0.00930902,0.0136561,1091,435,2.97433,32.9841
-126,589,3.00952,-33.3131,0.00242462,-0.0135696,0.00359161,0.00319411,-0.0143391,0.211058,0.010783,0.0112593,1098,435,3.0095,33.3131
-119,589,2.99475,-33.6099,0.00250333,-0.0153401,0.00413582,0.00341533,-0.0162521,0.21704,0.0121344,0.0182774,1105,435,2.9948,33.6099
-112,589,3.00256,-33.8985,0.00266388,-0.0168149,0.00461977,0.00370401,-0.017855,0.221455,0.0133109,0.019331,1112,435,3.00258,33.8985
-105,589,3.04492,-34.278,0.00293269,-0.0180134,0.00495987,0.00404778,-0.0191285,0.221146,0.0142939,0.0248728,1119,435,3.04492,34.278
-98,589,3.08655,-34.6193,0,0,0,0,0,0,0,-1,1126,435,3.08653,34.6193
-91,589,3.20239,-35.2791,0,0,0,0,0,0,0,-1,1133,435,3.20242,35.2791
-84,589,2.76538,-22.6013,0,0,0,0,0,0,0,-1,1140,435,2.76539,22.6014
-77,589,2.18152,-14.8023,0,0,0,0,0,0,0,-1,1147,435,2.18155,14.8023
-70,589,1.48267,-9.90961,0,0,0,0,0,0,0,-1,1154,435,1.48264,9.9096
-63,589,0.880127,-5.50586,0,0,0,0,0,0,0,-1,1161,435,0.880186,5.50587
-56,589,-2.78052,-7.28082,0,0,0,0,0,0,0,-1,1168,435,-2.78053,7.28082
-49,589,-0.525757,-2.76703,0,0,0,0,0,0,0,-1,1175,435,-0.525771,2.76702
-42,589,-2.7738,-2.87921,0,0,0,0,0,0,0,-1,1182,435,-2.77383,2.87922
-35,589,-2.55225,-3.27551,0,0,0,0,0,0,0,-1,1189,435,-2.55223,3.27552
-28,589,-0.0632324,-3.42938,0,0,0,0,0,0,0,-1,1196,435,-0.063241,3.42938
-21,589,3.23279,-36.0923,0,0,0,0,0,0,0,-1,1203,435,3.2328,36.0923
-14,589,3.2865,-36.4383,0,0,0,0,0,0,0,-1,1210,435,3.28654,36.4383
-7,589,3.34033,-36.7842,0,0,0,0,0,0,0,-1,1217,435,3.34029,36.7842
0,589,2.66663,-36.2037,0,0,0,0,0,0,0,-1,1224,435,2.66667,36.2037
7,589,2.90063,-36.0087,0.0151739,-0.0293796,0.0595377,0.0564659,-0.0706716,0.60638,0.0735555,0.0479487,1231,435,2.9006,36.0087
14,589,3.10962,-35.8381,0,0,0,0,0,0,0,-1,1238,435,3.10961,35.8381
21,589,3.02771,-35.5864,0.0142311,-0.033681,0.0711766,0.0653749,-0.0848249,0.623067,0.08696,0.0452688,1245,435,3.02767,35.5864
28,589,3.09155,-35.2537,0.0137707,-0.0360919,0.0771344,0.0699029,-0.0922241,0.629088,0.0938993,0.0445934,1252,435,3.09154,35.2537
35,589,3.98608,-36.3774,0,0,0,0,0,0,0,-1,1259,435,3.98606,36.3774
42,589,3.65369,-36.4771,0,0,0,0,0,0,0,-1,1266,435,3.65364,36.4771
49,589,4.94092,-34.462,0.0103226,-0.0392559,0.0962354,0.0849102,-0.113843,0.659343,0.115155,0.046224,1273,435,4.94089,34.462
56,589,5.49866,-34.2281,0.0083638,-0.0383181,0.100963,0.0886489,-0.118603,0.671802,0.120073,0.0437043,1280,435,5.4987,34.2281
63,589,5.3446,-31.2198,0.00576275,-0.036349,0.104363,0.0911732,-0.121759,0.685857,0.123359,0.0424299,1287,435,5.34465,31.2198
70,589,5.47717,-30.7249,0.00320394,-0.033322,0.106314,0.0928119,-0.12293,0.700336,0.124963,0.0425923,1294,435,5.47717,30.7249
77,589,4.89636,-31.329,0.000408303,-0.0298861,0.107487,0.0938103,-0.123288,0.715399,0.125726,0.0457885,1301,435,4.89633,31.329
84,589,4.94971,-30.0954,-0.00277223,-0.0259294,0.107039,0.0933127,-0.122014,0.731522,0.124687,0.0423349,1308,435,4.94965,30.0954
91,589,4.19299,-28.9345,-0.00609734,-0.0214053,0.104906,0.0914338,-0.118936,0.748983,0.121803,0.0488853,1315,435,4.19302,28.9345
98,589,3.49817,-27.7903,0,0,0,0,0,0,0,-1,1322,435,3.49816,27.7903
105,589,4.21082,-24.9256,0,0,0,0,0,0,0,-1,1329,435,4.21082,24.9256
112,589,2.3114,-36.7512,0,0,0,0,0,0,0,-1,1336,435,2.31143,36.7512
119,589,2.12109,-36.9648,0,0,0,0,0,0,0,-1,1343,435,2.12109,36.9648
126,589,1.62659,-36.517,0,0,0,0,0,0,0,-1,1350,435,1.62658,36.517
133,589,1.02283,-36.1655,0,0,0,0,0,0,0,-1,1357,435,1.02286,36.1655
140,589,0.270752,-35.7926,0,0,0,0,0,0,0,-1,1364,435,0.270761,35.7926
147,589,-0.289673,-35.8461,0,0,0,0,0,0,0,-1,1371,435,-0.289705,35.8461
154,589,5.89856,-34.8948,0,0,0,0,0,0,0,-1,1378,435,5.89857,34.8948
161,589,6.19861,-34.7,0,0,0,0,0,0,0,-1,1385,435,6.19856,34.7
168,589,6.44202,-34.4625,0,0,0,0,0,0,0,-1,1392,435,6.44207,34.4625
175,589,8.66992,-7.65527,0,0,0,0,0,0,0,-1,1399,435,8.66994,7.65528
182,589,3.8136,-2.45389,0,0,0,0,0,0,0,-1,1406,435,3.81363,2.4539
189,589,3.69983,-3.68149,0,0,0,0,0,0,0,-1,1413,435,3.69987,3.68147
196,589,3.31055,-5.31677,0,0,0,0,0,0,0,-1,1420,435,3.31059,5.31678
203,589,2.72559,-8.84338,0,0,0,0,0,0,0,-1,1427,435,2.72558,8.84338
210,589,3.62378,-14.4032,0,0,0,0,0,0,0,-1,1434,435,3.62378,14.4032
217,589,4.65601,-22.3745,0,0,0,0,0,0,0,-1,1441,435,4.65607,22.3745
224,589,6.79028,-33.9412,0,0,0,0,0,0,0,-1,1448,435,6.79028,33.9412
231,589,6.79956,-33.9098,0,0,0,0,0,0,0,-1,1455,435,6.79955,33.9098
238,589,6.80054,-33.5252,0,0,0,0,0,0,0,-1,1462,435,6.80059,33.5252
245,589,6.771,-33.1534,0.00366728,0.00136322,-0.000630178,0.00382837,0.00120213,-0.250275,0.00226071,0.0376267,1469,435,6.77095,33.1534
252,589,6.81177,-32.8033,0.00342238,0.00163374,-0.000431943,0.00352123,0.00153489,-0.224971,0.00203854,0.0145877,1476,435,6.81182,32.8033
259,589,6.83484,-32.4862,0.00305282,0.00140285,-0.000366286,0.00313047,0.00132519,-0.208923,0.00181445,0.00902803,1483,435,6.83479,32.4862
266,589,6.85022,-32.1229,0.00268844,0.00113062,-0.000354251,0.00276521,0.00105384,-0.21342,0.00161147,0.00943482,1490,435,6.85026,32.1229
273,589,6.87402,-31.7692,0.00240139,0.0010951,-0.000256299,0.00244987,0.00104662,-0.186973,0.00141942,0.0119488,1497,435,6.87397,31.7691
280,589,6.89832,-31.4013,0.00207343,0.000925476,-0.000122346,0.00208633,0.000912582,-0.105006,0.00120768,0.0129616,1504,435,6.89828,31.4013
287,589,6.8949,-31.0069,0.00183662,0.000919028,1.68534e-05,0.00183693,0.000918718,0.0183587,0.00106055,0.0108954,1511,435,6.89493,31.0069
294,589,6.88831,-30.5828,0.00163931,0.00113845,0.000189869,0.00170315,0.00107461,0.324358,0.000994492,0.00937007,1518,435,6.88834,30.5828
301,589,6.89209,-30.1687,0.00147272,0.00142796,0.000381576,0.00183257,0.00106811,0.756101,0.00106287,0.00983963,1525,435,6.89207,30.1687
308,589,6.88489,-29.7631,0.00141959,0.00161657,0.000608229,0.00213423,0.000901929,0.865669,0.00123711,0.0100585,1532,435,6.88483,29.7631
315,589,6.88708,-29.3548,0.00136911,0.00205003,0.000851672,0.00262677,0.00079237,0.975547,0.00155584,0.0109963,1539,435,6.88707,29.3548
322,589,6.90112,-28.9248,0.00131924,0.00253625,0.0011465,0.00322572,0.000629772,1.02937,0.00197433,0.0120742,1546,435,6.90112,28.9248
329,589,6.87085,-28.4824,0.00127615,0.00299305,0.00147884,0.00384454,0.000424661,1.04837,0.00243385,0.0105997,1553,435,6.87087,28.4824
336,589,6.84814,-28.0543,0.0011742,0.00349834,0.00180947,0.00448676,0.000185777,1.07084,0.00293121,0.00987094,1560,435,6.84814,28.0543
343,589,6.84033,-27.6404,0.00106257,0.00406071,0.00214446,0.00517811,-5.48316e-05,1.09044,0.0034705,0.0106628,1567,435,6.84036,27.6404
350,589,6.82336,-27.1863,0.000959632,0.00496328,0.00263227,0.00626844,-0.000345525,1.11049,0.00429876,0.0152155,1574,435,6.82336,27.1863
357,589,6.81653,-26.6918,0.000729896,0.00581889,0.00316127,0.00733249,-0.0007837,1.12426,0.0051694,0.0131949,1581,435,6.81657,26.6918
364,589,6.80957,-26.2042,0.000400783,0.0066719,0.00366169,0.0083571,-0.00128442,1.13947,0.0060452,0.0110848,1588,435,6.80963,26.2042
371,589,6.75977,-25.7203,1.67807e-05,0.00764486,0.00413933,0.0094594,-0.00179776,1.15766,0.00698309,0.0113092,1595,435,6.75973,25.7203
378,589,6.73938,-25.2277,-0.000346317,0.00886516,0.00465553,0.0108082,-0.00228938,1.17541,0.00807749,0.0126045,1602,435,6.73937,25.2277
385,589,6.72009,-24.7003,-0.000987362,0.00986388,0.0050459,0.0118476,-0.00297109,1.19622,0.00905277,0.0164201,1609,435,6.72007,24.7004
392,589,6.69019,-24.0807,-0.00141369,0.010938,0.0054366,0.01299,-0.0034657,1.20989,0.0100171,0.021745,1616,435,6.69021,24.0807
399,589,6.68201,-23.4221,-0.000825686,0.0124953,0.00652285,0.0151573,-0.00348773,1.18332,0.011446,0.0350514,1623,435,6.68202,23.4222
406,589,6.6532,-22.9683,0,0,0,0,0,0,0,-1,1630,435,6.65321,22.9683
413,589,5.61377,-19.0606,0,0,0,0,0,0,0,-1,1637,435,5.61372,19.0606
420,589,2.79724,-5.79956,0,0,0,0,0,0,0,-1,1644,435,2.7973,5.79955
427,589,6.2356,-21.6231,0,0,0,0,0,0,0,-1,1651,435,6.23554,21.6231
434,589,5.69861,-19.5508,0,0,0,0,0,0,0,-1,1658,435,5.69858,19.5508
441,589,6.29358,-18.8969,0,0,0,0,0,0,0,-1,1665,435,6.29358,18.8969
448,589,0.453735,-3.2868,0,0,0,0,0,0,0,-1,1672,435,0.453701,3.28681
455,589,0.664307,-3.46848,0,0,0,0,0,0,0,-1,1679,435,0.66425,3.46846
462,589,3.46716,-4.41891,0,0,0,0,0,0,0,-1,1686,435,3.4672,4.41891
469,589,0.0238037,-3.81497,0,0,0,0,0,0,0,-1,1693,435,0.0237965,3.81498
476,589,0,0,0,0,0,0,0,0,0,-1,1700,435,0,0
483,589,0,0,0,0,0,0,0,0,0,-1,1707,435,0,0
490,589,0,0,0,0,0,0,0,0,0,-1,1714,435,0,0
497,589,0,0,0,0,0,0,0,0,0,-1,1721,435,0,0
504,589,0,0,0,0,0,0,0,0,0,-1,1728,435,0,0
511,589,0,0,0,0,0,0,0,0,0,-1,1735,435,0,0
518,589,0,0,0,0,0,0,0,0,0,-1,1742,435,0,0
525,589,0,0,0,0,0,0,0,0,0,-1,1749,435,0,0
532,589,0,0,0,0,0,0,0,0,0,-1,1756,435,0,0
539,589,0,0,0,0,0,0,0,0,0,-1,1763,435,0,0
546,589,0,0,0,0,0,0,0,0,0,-1,1770,435,0,0
553,589,0,0,0,0,0,0,0,0,0,-1,1777,435,0,0
560,589,0,0,0,0,0,0,0,0,0,-1,1784,435,0,0
567,589,0,0,0,0,0,0,0,0,0,-1,1791,435,0,0
574,589,0,0,0,0,0,0,0,0,0,-1,1798,435,0,0
581,589,0,0,0,0,0,0,0,0,0,-1,1805,435,0,0
588,589,0,0,0,0,0,0,0,0,0,-1,1812,435,0,0
595,589,0,0,0,0,0,0,0,0,0,-1,1819,435,0,0
602,589,0,0,0,0,0,0,0,0,0,-1,1826,435,0,0
609,589,0,0,0,0,0,0,0,0,0,-1,1833,435,0,0
616,589,0,0,0,0,0,0,0,0,0,-1,1840,435,0,0
623,589,0,0,0,0,0,0,0,0,0,-1,1847,435,0,0
630,589,0,0,0,0,0,0,0,0,0,-1,1854,435,0,0
637,589,0,0,0,0,0,0,0,0,0,-1,1861,435,0,0
644,589,0,0,0,0,0,0,0,0,0,-1,1868,435,0,0
651,589,0,0,0,0,0,0,0,0,0,-1,1875,435,0,0
658,589,0,0,0,0,0,0,0,0,0,-1,1882,435,0,0
665,589,0,0,0,0,0,0,0,0,0,-1,1889,435,0,0
672,589,0,0,0,0,0,0,0,0,0,-1,1896,435,0,0
679,589,0,0,0,0,0,0,0,0,0,-1,1903,435,0,0
686,589,0,0,0,0,0,0,0,0,0,-1,1910,435,0,0
693,589,0,0,0,0,0,0,0,0,0,-1,1917,435,0,0
700,589,0,0,0,0,0,0,0,0,0,-1,1924,435,0,0
707,589,0,0,0,0,0,0,0,0,0,-1,1931,435,0,0
714,589,0,0,0,0,0,0,0,0,0,-1,1938,435,0,0
721,589,0,0,0,0,0,0,0,0,0,-1,1945,435,0,0
728,589,0,0,0,0,0,0,0,0,0,-1,1952,435,0,0
735,589,0,0,0,0,0,0,0,0,0,-1,1959,435,0,0
742,589,0,0,0,0,0,0,0,0,0,-1,1966,435,0,0
749,589,0,0,0,0,0,0,0,0,0,-1,1973,435,0,0
756,589,0,0,0,0,0,0,0,0,0,-1,1980,435,0,0
763,589,0,0,0,0,0,0,0,0,0,-1,1987,435,0,0
770,589,0,0,0,0,0,0,0,0,0,-1,1994,435,0,0
777,589,0,0,0,0,0,0,0,0,0,-1,2001,435,0,0
784,589,0,0,0,0,0,0,0,0,0,-1,2008,435,0,0
791,589,0,0,0,0,0,0,0,0,0,-1,2015,435,0,0
798,589,0,0,0,0,0,0,0,0,0,-1,2022,435,0,0
805,589,0,0,0,0,0,0,0,0,0,-1,2029,435,0,0
812,589,0,0,0,0,0,0,0,0,0,-1,2036,435,0,0
-700,582,0,0,0,0,0,0,0,0,0,-1,524,442,0,0
-693,582,0,0,0,0,0,0,0,0,0,-1,531,442,0,0
-686,582,0,0,0,0,0,0,0,0,0,-1,538,442,0,0
-679,582,0,0,0,0,0,0,0,0,0,-1,545,442,0,0
-672,582,0,0,0,0,0,0,0,0,0,-1,552,442,0,0
-665,582,0,0,0,0,0,0,0,0,0,-1,559,442,0,0
-658,582,0,0,0,0,0,0,0,0,0,-1,566,442,0,0
-651,582,0,0,0,0,0,0,0,0,0,-1,573,442,0,0
-644,582,0,0,0,0,0,0,0,0,0,-1,580,442,0,0
-637,582,0,0,0,0,0,0,0,0,0,-1,587,442,0,0
-630,582,0,0,0,0,0,0,0,0,0,-1,594,442,0,0
-623,582,0,0,0,0,0,0,0,0,0,-1,601,442,0,0
-616,582,0,0,0,0,0,0,0,0,0,-1,608,442,0,0
-609,582,0,0,0,0,0,0,0,0,0,-1,615,442,0,0
-602,582,0,0,0,0,0,0,0,0,0,-1,622,442,0,0
-595,582,0,0,0,0,0,0,0,0,0,-1,629,442,0,0
-588,582,0,0,0,0,0,0,0,0,0,-1,636,442,0,0
-581,582,0,0,0,0,0,0,0,0,0,-1,643,442,0,0
-574,582,0,0,0,0,0,0,0,0,0,-1,650,442,0,0
-567,582,0,0,0,0,0,0,0,0,0,-1,657,442,0,0
-560,582,0,0,0,0,0,0,0,0,0,-1,664,442,0,0
-553,582,0,0,0,0,0,0,0,0,0,-1,671,442,0,0
-546,582,0,0,0,0,0,0,0,0,0,-1,678,442,0,0
-539,582,0,0,0,0,0,0,0,0,0,-1,685,442,0,0
-532,582,0,0,0,0,0,0,0,0,0,-1,692,442,0,0
-525,582,0,0,0,0,0,0,0,0,0,-1,699,442,0,0
-518,582,0,0,0,0,0,0,0,0,0,-1,706,442,0,0
-511,582,0,0,0,0,0,0,0,0,0,-1,713,442,0,0
-504,582,0,0,0,0,0,0,0,0,0,-1,720,442,0,0
-497,582,0,0,0,0,0,0,0,0,0,-1,727,442,0,0
-490,582,0,0,0,0,0,0,0,0,0,-1,734,442,0,0
-483,582,0,0,0,0,0,0,0,0,0,-1,741,442,0,0
-476,582,0,0,0,0,0,0,0,0,0,-1,748,442,0,0
-469,582,0,0,0,0,0,0,0,0,0,-1,755,442,0,0
-462,582,0,0,0,0,0,0,0,0,0,-1,762,442,0,0
-455,582,0,0,0,0,0,0,0,0,0,-1,769,442,0,0
-448,582,0,0,0,0,0,0,0,0,0,-1,776,442,0,0
-441,582,0,0,0,0,0,0,0,0,0,-1,783,442,0,0
-434,582,0,0,0,0,0,0,0,0,0,-1,790,442,0,0
-427,582,0,0,0,0,0,0,0,0,0,-1,797,442,0,0
-420,582,0,0,0,0,0,0,0,0,0,-1,804,442,0,0
-413,582,0,0,0,0,0,0,0,0,0,-1,811,442,0,0
-406,582,0,0,0,0,0,0,0,0,0,-1,818,442,0,0
-399,582,0,0,0,0,0,0,0,0,0,-1,825,442,0,0
-392,582,0,0,0,0,0,0,0,0,0,-1,832,442,0,0
-385,582,0,0,0,0,0,0,0,0,0,-1,839,442,0,0
-378,582,0,0,0,0,0,0,0,0,0,-1,846,442,0,0
-371,582,0,0,0,0,0,0,0,0,0,-1,853,442,0,0
-364,582,0,0,0,0,0,0,0,0,0,-1,860,442,0,0
-357,582,-1.4903,-21.5295,0,0,0,0,0,0,0,-1,867,442,-1.49031,21.5295
-350,582,-0.880859,-19.7966,0,0,0,0,0,0,0,-1,874,442,-0.880885,19.7966
-343,582,-0.208557,-18.0078,0,0,0,0,0,0,0,-1,881,442,-0.208576,18.0078
-336,582,-0.167114,-18.7637,0,0,0,0,0,0,0,-1,888,442,-0.167108,18.7637
-329,582,5.38007,-19.6819,0,0,0,0,0,0,0,-1,895,442,5.38008,19.6819
-322,582,4.1911,-20.3858,-0.0250599,0.0136351,-0.0110774,0.0165819,-0.0280066,-1.3108,0.0260233,0.0476659,902,442,4.19112,20.3858
-315,582,3.14844,-21.331,-0.0213718,0.0129292,-0.0104056,0.015839,-0.0242816,-1.29812,0.023334,0.0473918,909,442,3.14846,21.3309
-308,582,2.87714,-22.1759,-0.0176013,0.0124355,-0.00966218,0.0152752,-0.020441,-1.28495,0.0206925,0.049564,916,442,2.87713,22.1759
-301,582,2.70319,-22.5433,-0.0139649,0.0116957,-0.0087242,0.0143809,-0.01665,-1.27222,0.0179316,0.0464103,923,442,2.70317,22.5433
-294,582,2.64569,-23.0468,-0.011,0.0105758,-0.00735311,0.0128434,-0.0132677,-1.27166,0.0150759,0.0438348,930,442,2.64572,23.0468
-287,582,2.69769,-23.6302,-0.00866826,0.009468,-0.00618153,0.0113745,-0.0105747,-1.27164,0.0126752,0.036875,937,442,2.69767,23.6302
-280,582,2.7475,-24.1683,-0.00667711,0.00857361,-0.0051783,0.0101657,-0.00826917,-1.27252,0.0106621,0.0183083,944,442,2.74749,24.1683
-273,582,2.758,-24.7067,-0.00537517,0.00811502,-0.00472945,0.00960789,-0.00686804,-1.26504,0.00955612,0.0117022,951,442,2.75801,24.7067
-266,582,2.7146,-25.2307,-0.0032921,0.00712221,-0.00425315,0.00863843,-0.00480832,-1.22835,0.00786776,0.010947,958,442,2.71459,25.2307
-259,582,2.67737,-25.7321,-0.00197013,0.00637271,-0.00332823,0.00753775,-0.00313518,-1.23408,0.00633436,0.00889886,965,442,2.67736,25.7321
-252,582,2.65497,-26.2041,-0.0012934,0.00571371,-0.00283313,0.00671588,-0.00229557,-1.2308,0.00540738,0.00809601,972,442,2.655,26.2041
-245,582,2.65411,-26.642,-0.000833524,0.00497403,-0.00250801,0.00590718,-0.00176668,-1.2146,0.0046405,0.0118032,979,442,2.65414,26.642
-238,582,2.63391,-27.0921,-0.000453128,0.00423555,-0.00217407,0.00508848,-0.00130606,-1.19693,0.00390124,0.0168146,986,442,2.6339,27.0921
-231,582,2.60126,-27.5337,-0.000115053,0.00349433,-0.00189569,0.00430699,-0.000927717,-1.1658,0.00322535,0.0137817,993,442,2.60126,27.5337
-224,582,2.59137,-27.9689,0.00023592,0.00264509,-0.00155558,0.00340795,-0.000526945,-1.11485,0.00246645,0.0113714,1000,442,2.59139,27.9689
-217,582,2.56097,-28.4132,0.000585013,0.00182411,-0.00128204,0.00262845,-0.000219329,-1.01048,0.0018298,0.0129502,1007,442,2.56099,28.4132
-210,582,2.5614,-28.8259,0.000943098,0.00059088,-0.000967831,0.00175071,-0.000216735,-0.695401,0.00124569,0.0129974,1014,442,2.5614,28.8259
-203,582,2.56415,-29.2457,0.00137284,-0.000443266,-0.000697261,0.00160966,-0.000680086,-0.327419,0.00135781,0.0101687,1021,442,2.56418,29.2457
-196,582,2.55615,-29.6973,0.00172159,-0.00141418,-0.000408254,0.00177387,-0.00146646,-0.127365,0.00187361,0.014611,1028,442,2.55614,29.6973
-189,582,2.51978,-30.1132,0.00206601,-0.00248468,-0.000233788,0.00207799,-0.00249666,-0.0511946,0.00264486,0.0219211,1035,442,2.51983,30.1132
-182,582,2.5293,-30.4792,0.00239899,-0.00356806,-1.23702e-05,0.00239902,-0.00356809,-0.00207307,0.00346708,0.0164535,1042,442,2.52935,30.4792
-175,582,2.54895,-30.8217,0.00265107,-0.00459008,0.000255853,0.0026601,-0.00459911,0.0352745,0.00424065,0.0141011,1049,442,2.54889,30.8217
-168,582,2.55603,-31.2313,0.00283615,-0.00618055,0.000657642,0.00288386,-0.00622826,0.0724252,0.0053777,0.0118277,1056,442,2.55597,31.2313
-161,582,2.56287,-31.5992,0.00302616,-0.00814651,0.00114686,0.00314267,-0.00826302,0.101242,0.00680267,0.012462,1063,442,2.56282,31.5991
-154,582,2.57117,-31.9302,0.0031833,-0.00988457,0.00161801,0.00338065,-0.0100819,0.121374,0.00808723,0.011706,1070,442,2.57118,31.9302
-147,582,2.59033,-32.2975,0.0032507,-0.0116434,0.00220879,0.00357136,-0.0119641,0.144167,0.00939557,0.0120823,1077,442,2.5903,32.2976
-140,582,2.58972,-32.6311,0.00324312,-0.0137137,0.00297064,0.00374848,-0.0142191,0.168505,0.010945,0.0136879,1084,442,2.58975,32.6311
-133,582,2.63184,-32.9517,0.00314797,-0.0160736,0.00389199,0.00390612,-0.0168317,0.192388,0.0127246,0.016157,1091,442,2.63189,32.9517
-126,582,2.66174,-33.2159,0.00309495,-0.0185452,0.00480672,0.00411458,-0.0195648,0.209028,0.0146092,0.0151338,1098,442,2.6618,33.2159
-119,582,2.63025,-33.3794,0.00299328,-0.0209638,0.00555043,0.00421673,-0.0221872,0.216956,0.016379,0.019978,1105,442,2.63021,33.3794
-112,582,2.6178,-33.6916,0.00298685,-0.0230527,0.00624511,0.00440716,-0.024473,0.223623,0.0179655,0.0299913,1112,442,2.61784,33.6915
-105,582,2.64038,-34.0422,0,0,0,0,0,0,0,-1,1119,442,2.6404,34.0422
-98,582,2.61938,-32.8673,0,0,0,0,0,0,0,-1,1126,442,2.61944,32.8673
-91,582,2.16492,-24.1119,0,0,0,0,0,0,0,-1,1133,442,2.16496,24.1119
-84,582,2.10278,-16.7533,0,0,0,0,0,0,0,-1,1140,442,2.10279,16.7533
-77,582,2.30212,-11.4907,0,0,0,0,0,0,0,-1,1147,442,2.30207,11.4907
-70,582,1.49255,-6.36548,0,0,0,0,0,0,0,-1,1154,442,1.49251,6.36549
-63,582,-4.62915,-4.0347,0,0,0,0,0,0,0,-1,1161,442,-4.6292,4.03471
-56,582,-5.81714,-5.24149,0,0,0,0,0,0,0,-1,1168,442,-5.81718,5.24149
-49,582,-3.88672,-10.1064,0,0,0,0,0,0,0,-1,1175,442,-3.88678,10.1064
-42,582,-0.948975,1.13968,0,0,0,0,0,0,0,-1,1182,442,-0.949003,-1.13969
-35,582,-2.58435,-3.86911,0,0,0,0,0,0,0,-1,1189,442,-2.58437,3.86912
-28,582,-0.825317,-3.45941,0,0,0,0,0,0,0,-1,1196,442,-0.825377,3.45942
-21,582,2.94421,-35.6796,0,0,0,0,0,0,0,-1,1203,442,2.94423,35.6796
-14,582,2.96033,-36.0433,0,0,0,0,0,0,0,-1,1210,442,2.96027,36.0433
-7,582,3.02856,-36.5295,0,0,0,0,0,0,0,-1,1217,442,3.02852,36.5295
0,582,3.00964,-37.1419,0,0,0,0,0,0,0,-1,1224,442,3.00964,37.1419
7,582,2.1936,-35.7798,0,0,0,0,0,0,0,-1,1231,442,2.19359,35.7798
14,582,2.6521,-35.2813,0,0,0,0,0,0,0,-1,1238,442,2.65204,35.2813
21,582,2.28516,-35.2784,0.0155068,-0.0353931,0.0863483,0.0800775,-0.0999639,0.642088,0.104158,0.0429681,1245,442,2.28513,35.2784
28,582,2.43848,-34.8777,0.0148579,-0.0381792,0.0935497,0.0855751,-0.108896,0.647286,0.112547,0.0437413,1252,442,2.43845,34.8777
35,582,2.8844,-34.3928,0.0137105,-0.0404554,0.101232,0.0914196,-0.118164,0.654692,0.121331,0.046111,1259,442,2.88438,34.3928
42,582,3.47412,-33.7919,0.0125134,-0.0422702,0.109374,0.0978731,-0.12763,0.662701,0.130571,0.0487392,1266,442,3.47407,33.7919
49,582,4.17542,-33.4704,0.0107936,-0.0421055,0.116168,0.103485,-0.134797,0.673465,0.137968,0.0451186,1273,442,4.17545,33.4704
56,582,3.42676,-31.4954,0.00861561,-0.0411352,0.121798,0.108052,-0.140572,0.684666,0.143952,0.0450766,1280,442,3.42675,31.4953
63,582,3.51318,-31.1255,0.00563912,-0.0389068,0.125785,0.111108,-0.144376,0.697771,0.14792,0.0404872,1287,442,3.5132,31.1255
70,582,3.38904,-30.7886,0.00263895,-0.0353688,0.128152,0.113189,-0.145919,0.711789,0.149993,0.0447597,1294,442,3.38907,30.7886
77,582,3.12646,-30.1194,-0.000761264,-0.0312515,0.129562,0.11445,-0.146463,0.726834,0.151015,0.0489289,1301,442,3.12649,30.1194
84,582,3.33606,-28.9523,-0.0047587,-0.0262753,0.129191,0.114121,-0.145155,0.743857,0.15005,0.0473161,1308,442,3.33601,28.9523
91,582,3.5199,-27.7568,-0.0090777,-0.0204458,0.126808,0.112174,-0.141697,0.763001,0.146903,0.0465574,1315,442,3.51985,27.7568
98,582,3.70471,-26.5984,0,0,0,0,0,0,0,-1,1322,442,3.70474,26.5984
105,582,2.48218,-24.4861,0,0,0,0,0,0,0,-1,1329,442,2.48213,24.4861
112,582,2.00513,-23.3634,0,0,0,0,0,0,0,-1,1336,442,2.00508,23.3634
119,582,1.55969,-22.8253,0,0,0,0,0,0,0,-1,1343,442,1.55969,22.8253
126,582,1.81018,-37.0039,0,0,0,0,0,0,0,-1,1350,442,1.81013,37.0039
133,582,1.16809,-36.7112,0,0,0,0,0,0,0,-1,1357,442,1.16804,36.7112
140,582,0.369873,-36.3085,0,0,0,0,0,0,0,-1,1364,442,0.369928,36.3085
147,582,-0.545166,-35.8076,0,0,0,0,0,0,0,-1,1371,442,-0.545213,35.8076
154,582,6.22632,-34.6269,0,0,0,0,0,0,0,-1,1378,442,6.22637,34.6269
161,582,6.5332,-34.3286,0,0,0,0,0,0,0,-1,1385,442,6.53319,34.3286
168,582,7.16553,-31.7727,0,0,0,0,0,0,0,-1,1392,442,7.1655,31.7727
175,582,6.50549,-2.00424,0,0,0,0,0,0,0,-1,1399,442,6.50546,2.00425
182,582,5.18958,-2.18652,0,0,0,0,0,0,0,-1,1406,442,5.1896,2.18652
189,582,6.19751,-0.880951,0,0,0,0,0,0,0,-1,1413,442,6.19754,0.88096
196,582,4.87354,-2.22327,0,0,0,0,0,0,0,-1,1420,442,4.87348,2.22325
203,582,3.11401,-4.48257,0,0,0,0,0,0,0,-1,1427,442,3.11404,4.48259
210,582,2.93115,-11.0731,0,0,0,0,0,0,0,-1,1434,442,2.93113,11.0731
217,582,4.94092,-16.5476,0,0,0,0,0,0,0,-1,1441,442,4.94087,16.5476
224,582,5.21008,-20.9908,0,0,0,0,0,0,0,-1,1448,442,5.21006,20.9908
231,582,5.70032,-25.622,0,0,0,0,0,0,0,-1,1455,442,5.70026,25.6221
238,582,6.44189,-30.7028,0,0,0,0,0,0,0,-1,1462,442,6.44195,30.7028
245,582,7.35461,-33.4142,0,0,0,0,0,0,0,-1,1469,442,7.35458,33.4142
252,582,7.24963,-32.9642,0.00412923,0.00243736,-0.000494015,0.00426292,0.00230368,-0.264282,0.00246387,0.0367871,1476,442,7.24958,32.9642
259,582,7.1748,-32.5606,0.00371654,0.0016006,-0.000590993,0.00387042,0.00144672,-0.254714,0.00225819,0.0236839,1483,442,7.17482,32.5606
266,582,7.20239,-32.1683,0.00330471,0.000807844,-0.000765432,0.00352068,0.000591875,-0.275004,0.00217681,0.0167893,1490,442,7.20236,32.1683
273,582,7.26099,-31.7867,0.00300473,0.000384302,-0.000804437,0.00323197,0.000157057,-0.275316,0.00210425,0.0143693,1497,442,7.26101,31.7867
280,582,7.2821,-31.4081,0.00259657,-0.000281075,-0.000809231,0.00280852,-0.00049303,-0.256167,0.00205649,0.0123609,1504,442,7.28215,31.4081
287,582,7.30188,-30.998,0.00225536,-0.00063176,-0.000805108,0.0024647,-0.000841096,-0.254377,0.00198385,0.0112225,1511,442,7.30188,30.998
294,582,7.30127,-30.5716,0.00197836,-0.000593777,-0.000727364,0.0021698,-0.000785217,-0.25736,0.0017674,0.00938846,1518,442,7.30122,30.5716
301,582,7.30212,-30.153,0.00173383,-0.000450739,-0.00060508,0.00189023,-0.000607137,-0.252939,0.00150395,0.0096545,1525,442,7.30209,30.153
308,582,7.30212,-29.7582,0.00159204,-0.00045271,-0.000449223,0.00168638,-0.00054705,-0.206999,0.00134423,0.0122304,1532,442,7.30217,29.7582
315,582,7.30579,-29.3405,0.00138221,-0.000143077,-0.000291848,0.00143614,-0.000197012,-0.182743,0.0010294,0.0137127,1539,442,7.30581,29.3405
322,582,7.29919,-28.9029,0.00119513,0.000317719,-2.56074e-05,0.00119588,0.000316973,-0.029152,0.000715398,0.0102844,1546,442,7.29916,28.9029
329,582,7.28528,-28.4715,0.00106426,0.000819245,0.000312162,0.00127709,0.000606411,0.59841,0.00073764,0.0100448,1553,442,7.28533,28.4715
336,582,7.28528,-28.0483,0.000923581,0.00137148,0.000662569,0.00184692,0.000448136,0.94837,0.00111241,0.0106347,1560,442,7.28529,28.0483
343,582,7.28723,-27.6127,0.000763266,0.00199567,0.00101541,0.00256722,0.000191716,1.05812,0.00165129,0.0130011,1567,442,7.2872,27.6127
350,582,7.27759,-27.1678,0.000616955,0.00289657,0.00148907,0.00363199,-0.000118466,1.11206,0.00246177,0.0161757,1574,442,7.27754,27.1678
357,582,7.27441,-26.6769,0.000454915,0.00375817,0.0020244,0.00471921,-0.000506132,1.12757,0.00332771,0.0142404,1581,442,7.27446,26.6769
364,582,7.25781,-26.1885,0.000247016,0.00462977,0.00256281,0.00581035,-0.00093357,1.13911,0.00421933,0.0111077,1588,442,7.25784,26.1885
371,582,7.21802,-25.7079,1.51397e-05,0.00556593,0.00308037,0.0069368,-0.00135573,1.15208,0.00513643,0.0152303,1595,442,7.21803,25.7079
378,582,7.19238,-25.2317,-0.000209056,0.00663958,0.00359319,0.00817883,-0.0017483,1.16607,0.00611914,0.0156358,1602,442,7.19236,25.2317
385,582,7.17041,-24.7604,-0.000584075,0.00754068,0.00397316,0.00916063,-0.00220403,1.18365,0.00695909,0.011634,1609,442,7.17039,24.7604
392,582,7.14868,-24.2666,-0.000728292,0.00840046,0.00439137,0.0101699,-0.00249777,1.18775,0.00774794,0.0108033,1616,442,7.14874,24.2666
399,582,7.11023,-23.7734,-0.000194057,0.00960038,0.00536535,0.0119674,-0.00256111,1.15531,0.00895492,0.0190968,1623,442,7.1102,23.7734
406,582,7.10791,-23.1284,0.000624302,0.0112627,0.00689758,0.0146539,-0.00276686,1.11385,0.0108102,0.0352192,1630,442,7.10796,23.1285
413,582,7.01379,-22.71,0,0,0,0,0,0,0,-1,1637,442,7.01385,22.71
420,582,6.97754,-22.1447,0,0,0,0,0,0,0,-1,1644,442,6.97754,22.1447
427,582,6.85535,-21.6113,0,0,0,0,0,0,0,-1,1651,442,6.8553,21.6113
434,582,6.79895,-21.0508,0,0,0,0,0,0,0,-1,1658,442,6.79891,21.0508
441,582,6.5614,-19.617,0,0,0,0,0,0,0,-1,1665,442,6.56138,19.617
448,582,8.46167,-19.4977,0,0,0,0,0,0,0,-1,1672,442,8.46167,19.4977
455,582,5.93567,-16.3171,0,0,0,0,0,0,0,-1,1679,442,5.93569,16.3171
462,582,6.7699,-17.5673,0,0,0,0,0,0,0,-1,1686,442,6.76989,17.5673
469,582,5.90674,-15.9182,0,0,0,0,0,0,0,-1,1693,442,5.90676,15.9182
476,582,1.93579,-8.53891,0,0,0,0,0,0,0,-1,1700,442,1.93579,8.53892
483,582,0,0,0,0,0,0,0,0,0,-1,1707,442,0,0
490,582,0,0,0,0,0,0,0,0,0,-1,1714,442,0,0
497,582,0,0,0,0,0,0,0,0,0,-1,1721,442,0,0
504,582,0,0,0,0,0,0,0,0,0,-1,1728,442,0,0
511,582,0,0,0,0,0,0,0,0,0,-1,1735,442,0,0
518,582,0,0,0,0,0,0,0,0,0,-1,1742,442,0,0
525,582,0,0,0,0,0,0,0,0,0,-1,1749,442,0,0
532,582,0,0,0,0,0,0,0,0,0,-1,1756,442,0,0
539,582,0,0,0,0,0,0,0,0,0,-1,1763,442,0,0
546,582,0,0,0,0,0,0,0,0,0,-1,1770,442,0,0
553,582,0,0,0,0,0,0,0,0,0,-1,1777,442,0,0
560,582,0,0,0,0,0,0,0,0,0,-1,1784,442,0,0
567,582,0,0,0,0,0,0,0,0,0,-1,1791,442,0,0
574,582,0,0,0,0,0,0,0,0,0,-1,1798,442,0,0
581,582,0,0,0,0,0,0,0,0,0,-1,1805,442,0,0
588,582,0,0,0,0,0,0,0,0,0,-1,1812,442,0,0
595,582,0,0,0,0,0,0,0,0,0,-1,1819,442,0,0
602,582,0,0,0,0,0,0,0,0,0,-1,1826,442,0,0
609,582,0,0,0,0,0,0,0,0,0,-1,1833,442,0,0
616,582,0,0,0,0,0,0,0,0,0,-1,1840,442,0,0
623,582,0,0,0,0,0,0,0,0,0,-1,1847,442,0,0
630,582,0,0,0,0,0,0,0,0,0,-1,1854,442,0,0
637,582,0,0,0,0,0,0,0,0,0,-1,1861,442,0,0
644,582,0,0,0,0,0,0,0,0,0,-1,1868,442,0,0
651,582,0,0,0,0,0,0,0,0,0,-1,1875,442,0,0
658,582,0,0,0,0,0,0,0,0,0,-1,1882,442,0,0
665,582,0,0,0,0,0,0,0,0,0,-1,1889,442,0,0
672,582,0,0,0,0,0,0,0,0,0,-1,1896,442,0,0
679,582,0,0,0,0,0,0,0,0,0,-1,1903,442,0,0
686,582,0,0,0,0,0,0,0,0,0,-1,1910,442,0,0
693,582,0,0,0,0,0,0,0,0,0,-1,1917,442,0,0
700,582,0,0,0,0,0,0,0,0,0,-1,1924,442,0,0
707,582,0,0,0,0,0,0,0,0,0,-1,1931,442,0,0
714,582,0,0,0,0,0,0,0,0,0,-1,1938,442,0,0
721,582,0,0,0,0,0,0,0,0,0,-1,1945,442,0,0
728,582,0,0,0,0,0,0,0,0,0,-1,1952,442,0,0
735,582,0,0,0,0,0,0,0,0,0,-1,1959,442,0,0
742,582,0,0,0,0,0,0,0,0,0,-1,1966,442,0,0
749,582,0,0,0,0,0,0,0,0,0,-1,1973,442,0,0
756,582,0,0,0,0,0,0,0,0,0,-1,1980,442,0,0
763,582,0,0,0,0,0,0,0,0,0,-1,1987,442,0,0
770,582,0,0,0,0,0,0,0,0,0,-1,1994,442,0,0
777,582,0,0,0,0,0,0,0,0,0,-1,2001,442,0,0
784,582,0,0,0,0,0,0,0,0,0,-1,2008,442,0,0
791,582,0,0,0,0,0,0,0,0,0,-1,2015,442,0,0
798,582,0,0,0,0,0,0,0,0,0,-1,2022,442,0,0
805,582,0,0,0,0,0,0,0,0,0,-1,2029,442,0,0
812,582,0,0,0,0,0,0,0,0,0,-1,2036,442,0,0
-700,575,0,0,0,0,0,0,0,0,0,-1,524,449,0,0
-693,575,0,0,0,0,0,0,0,0,0,-1,531,449,0,0
-686,575,0,0,0,0,0,0,0,0,0,-1,538,449,0,0
-679,575,0,0,0,0,0,0,0,0,0,-1,545,449,0,0
-672,575,0,0,0,0,0,0,0,0,0,-1,552,449,0,0
-665,575,0,0,0,0,0,0,0,0,0,-1,559,449,0,0
-658,575,0,0,0,0,0,0,0,0,0,-1,566,449,0,0
-651,575,0,0,0,0,0,0,0,0,0,-1,573,449,0,0
-644,575,0,0,0,0,0,0,0,0,0,-1,580,449,0,0
-637,575,0,0,0,0,0,0,0,0,0,-1,587,449,0,0
-630,575,0,0,0,0,0,0,0,0,0,-1,594,449,0,0
-623,575,0,0,0,0,0,0,0,0,0,-1,601,449,0,0
-616,575,0,0,0,0,0,0,0,0,0,-1,608,449,0,0
-609,575,0,0,0,0,0,0,0,0,0,-1,615,449,0,0
-602,575,0,0,0,0,0,0,0,0,0,-1,622,449,0,0
-595,575,0,0,0,0,0,0,0,0,0,-1,629,449,0,0
-588,575,0,0,0,0,0,0,0,0,0,-1,636,449,0,0
-581,575,0,0,0,0,0,0,0,0,0,-1,643,449,0,0
-574,575,0,0,0,0,0,0,0,0,0,-1,650,449,0,0
-567,575,0,0,0,0,0,0,0,0,0,-1,657,449,0,0
-560,575,0,0,0,0,0,0,0,0,0,-1,664,449,0,0
-553,575,0,0,0,0,0,0,0,0,0,-1,671,449,0,0
-546,575,0,0,0,0,0,0,0,0,0,-1,678,449,0,0
-539,575,0,0,0,0,0,0,0,0,0,-1,685,449,0,0
-532,575,0,0,0,0,0,0,0,0,0,-1,692,449,0,0
-525,575,0,0,0,0,0,0,0,0,0,-1,699,449,0,0
-518,575,0,0,0,0,0,0,0,0,0,-1,706,449,0,0
-511,575,0,0,0,0,0,0,0,0,0,-1,713,449,0,0
-504,575,0,0,0,0,0,0,0,0,0,-1,720,449,0,0
-497,575,0,0,0,0,0,0,0,0,0,-1,727,449,0,0
-490,575,0,0,0,0,0,0,0,0,0,-1,734,449,0,0
-483,575,0,0,0,0,0,0,0,0,0,-1,741,449,0,0
-476,575,0,0,0,0,0,0,0,0,0,-1,748,449,0,0
-469,575,0,0,0,0,0,0,0,0,0,-1,755,449,0,0
-462,575,0,0,0,0,0,0,0,0,0,-1,762,449,0,0
-455,575,0,0,0,0,0,0,0,0,0,-1,769,449,0,0
-448,575,0,0,0,0,0,0,0,0,0,-1,776,449,0,0
-441,575,0,0,0,0,0,0,0,0,0,-1,783,449,0,0
-434,575,0,0,0,0,0,0,0,0,0,-1,790,449,0,0
-427,575,0,0,0,0,0,0,0,0,0,-1,797,449,0,0
-420,575,0,0,0,0,0,0,0,0,0,-1,804,449,0,0
-413,575,0,0,0,0,0,0,0,0,0,-1,811,449,0,0
-406,575,0,0,0,0,0,0,0,0,0,-1,818,449,0,0
-399,575,0,0,0,0,0,0,0,0,0,-1,825,449,0,0
-392,575,0,0,0,0,0,0,0,0,0,-1,832,449,0,0
-385,575,0,0,0,0,0,0,0,0,0,-1,839,449,0,0
-378,575,0,0,0,0,0,0,0,0,0,-1,846,449,0,0
-371,575,0.56897,-3.52304,0,0,0,0,0,0,0,-1,853,449,0.568955,3.52306
-364,575,1.49805,-4.67191,0,0,0,0,0,0,0,-1,860,449,1.49803,4.6719
-357,575,3.15521,-8.29892,0,0,0,0,0,0,0,-1,867,449,3.15521,8.29891
-350,575,-0.825928,-18.5347,0,0,0,0,0,0,0,-1,874,449,-0.825948,18.5347
-343,575,0.465393,-16.3569,0,0,0,0,0,0,0,-1,881,449,0.465397,16.3569
-336,575,3.1994,-17.5725,0,0,0,0,0,0,0,-1,888,449,3.19941,17.5725
-329,575,4.0556,-19.0708,0,0,0,0,0,0,0,-1,895,449,4.05558,19.0708
-322,575,3.36847,-20.2455,-0.0167289,0.0134279,-0.0086772,0.0157464,-0.0190474,-1.3097,0.0201183,0.0457162,902,449,3.36844,20.2455
-315,575,2.83771,-21.2976,-0.0146963,0.0123319,-0.00817518,0.0146123,-0.0169766,-1.29878,0.0182549,0.0417171,909,449,2.8377,21.2977
-308,575,2.53461,-22.152,-0.0123802,0.0114757,-0.00766294,0.013725,-0.0146296,-1.28528,0.0163733,0.0449812,916,449,2.53463,22.152
-301,575,2.47162,-22.6984,-0.0100074,0.0104677,-0.00701013,0.0126378,-0.0121775,-1.27059,0.0143279,0.0333432,923,449,2.47164,22.6984
-294,575,2.38519,-23.1912,-0.00798695,0.00921251,-0.006009,0.0111039,-0.00987833,-1.26586,0.012121,0.0245203,930,449,2.38519,23.1912
-287,575,2.3197,-23.7175,-0.00632219,0.00805279,-0.0050825,0.00966825,-0.00793765,-1.26305,0.0101811,0.018573,937,449,2.31968,23.7175
-280,575,2.31873,-24.2402,-0.00484921,0.00709818,-0.00426581,0.00846494,-0.00621596,-1.26073,0.00850911,0.0145039,944,449,2.31875,24.2402
-273,575,2.31848,-24.7598,-0.00395149,0.00650025,-0.0038242,0.00775004,-0.00520128,-1.25493,0.00752556,0.0118606,951,449,2.31849,24.7598
-266,575,2.2912,-25.2581,-0.00236073,0.00537865,-0.00338302,0.00664893,-0.00363101,-1.2116,0.00601978,0.0127498,958,449,2.29119,25.2581
-259,575,2.24695,-25.7311,-0.00127161,0.00456465,-0.00251733,0.0055004,-0.00220736,-1.2149,0.00458346,0.0123291,965,449,2.24694,25.7311
-252,575,2.19049,-26.1971,-0.000676817,0.00375043,-0.00195046,0.00448713,-0.00141352,-1.20965,0.00355747,0.0109489,972,449,2.19052,26.1971
-245,575,2.17328,-26.639,-0.00026718,0.00284751,-0.00154065,0.00348081,-0.000900481,-1.18079,0.00267177,0.0143961,979,449,2.17328,26.639
-238,575,2.17963,-27.093,8.79657e-05,0.00189181,-0.00113589,0.0024403,-0.000460528,-1.12094,0.00180012,0.0154517,986,449,2.17964,27.093
-231,575,2.18188,-27.5224,0.000405201,0.000942996,-0.000781225,0.00150031,-0.000152109,-0.951147,0.00105457,0.0134411,993,449,2.18191,27.5224
-224,575,2.16107,-27.9518,0.000774784,-0.000119049,-0.000347184,0.000893792,-0.000238057,-0.33023,0.00068906,0.0131095,1000,449,2.16109,27.9518
-217,575,2.15466,-28.3866,0.0011454,-0.00121399,-1.29121e-05,0.00114547,-0.00121406,-0.00547243,0.00136247,0.0113049,1007,449,2.15468,28.3866
-210,575,2.16113,-28.8145,0.00153868,-0.0025447,0.00028183,0.00155804,-0.00256406,0.0685854,0.00240341,0.0101091,1014,449,2.16114,28.8144
-203,575,2.15021,-29.2401,0.00207419,-0.00358236,0.000434015,0.0021073,-0.00361547,0.0761338,0.00334207,0.0127589,1021,449,2.1502,29.24
-196,575,2.13611,-29.6806,0.0025271,-0.00459228,0.000625532,0.00258165,-0.00464683,0.0869752,0.00422976,0.0154314,1028,449,2.13611,29.6806
-189,575,2.13623,-30.0709,0.00293067,-0.00577279,0.000721874,0.00299014,-0.00583226,0.0821926,0.00518097,0.0165566,1035,449,2.13622,30.0709
-182,575,2.13367,-30.443,0.00332324,-0.00689608,0.000817487,0.00338822,-0.00696106,0.079322,0.0060927,0.0156325,1042,449,2.13372,30.443
-175,575,2.16406,-30.8201,0.00364963,-0.00782978,0.000960874,0.00372951,-0.00790965,0.082935,0.00686281,0.0123739,1049,449,2.16404,30.8201
-168,575,2.16956,-31.1988,0.00393037,-0.00945425,0.00123336,0.00404308,-0.00956696,0.0911251,0.00807061,0.0108691,1056,449,2.16958,31.1988
-161,575,2.18005,-31.5583,0.00417594,-0.0115675,0.00167178,0.0043515,-0.0117431,0.104635,0.0096133,0.0155207,1063,449,2.18001,31.5584
-154,575,2.19238,-31.8843,0.00432828,-0.0135141,0.00208562,0.00456883,-0.0137546,0.114829,0.0110132,0.0187759,1070,449,2.19238,31.8843
-147,575,2.23132,-32.1884,0.0043387,-0.0153681,0.00265541,0.00469024,-0.0157197,0.131619,0.0123439,0.0178477,1077,449,2.23135,32.1884
-140,575,2.21008,-32.4628,0.00419421,-0.0178354,0.00357024,0.00475837,-0.0183995,0.156723,0.0141223,0.0236899,1084,449,2.21006,32.4628
-133,575,2.23328,-32.7198,0.00388269,-0.0208104,0.00478178,0.00477633,-0.021704,0.184754,0.0162965,0.0329087,1091,449,2.2333,32.7198
-126,575,2.18933,-32.6665,0.00361773,-0.0242201,0.00608857,0.00489114,-0.0254936,0.206176,0.0188389,0.0363805,1098,449,2.18928,32.6665
-119,575,2.08081,-32.6658,0.00329304,-0.0277332,0.0072694,0.0049118,-0.029352,0.219106,0.021394,0.0351328,1105,449,2.08079,32.6658
-112,575,2.10693,-32.8721,0.00307783,-0.0309664,0.00843014,0.00505097,-0.0329396,0.229919,0.0238225,0.0432973,1112,449,2.10695,32.8721
-105,575,2.0863,-33.1761,0,0,0,0,0,0,0,-1,1119,449,2.08629,33.176
-98,575,1.521,-25.6961,0,0,0,0,0,0,0,-1,1126,449,1.52105,25.6961
-91,575,1.60803,-16.4247,0,0,0,0,0,0,0,-1,1133,449,1.60802,16.4247
-84,575,1.16553,-11.9056,0,0,0,0,0,0,0,-1,1140,449,1.16558,11.9056
-77,575,0.205078,-11.2584,0,0,0,0,0,0,0,-1,1147,449,0.205117,11.2584
-70,575,-4.2467,-1.78738,0,0,0,0,0,0,0,-1,1154,449,-4.24674,1.78739
-63,575,-4.52209,-3.48798,0,0,0,0,0,0,0,-1,1161,449,-4.5221,3.48796
-56,575,-5.5968,-5.4928,0,0,0,0,0,0,0,-1,1168,449,-5.59683,5.49281
-49,575,-5.96863,-7.17612,0,0,0,0,0,0,0,-1,1175,449,-5.96868,7.1761
-42,575,-0.830322,0.773499,0,0,0,0,0,0,0,-1,1182,449,-0.83038,-0.77351
-35,575,-0.62085,0.205139,0,0,0,0,0,0,0,-1,1189,449,-0.620855,-0.205126
-28,575,0.49292,-3.87988,0,0,0,0,0,0,0,-1,1196,449,0.492941,3.87989
-21,575,0.648438,-33.8834,0,0,0,0,0,0,0,-1,1203,449,0.648384,33.8834
-14,575,2.66138,-35.6288,0,0,0,0,0,0,0,-1,1210,449,2.66143,35.6288
-7,575,2.86829,-36.1097,0,0,0,0,0,0,0,-1,1217,449,2.8683,36.1097
0,575,2.86694,-36.753,0,0,0,0,0,0,0,-1,1224,449,2.867,36.753
7,575,1.38269,-35.7502,0.0184069,-0.0286448,0.0854672,0.0835271,-0.093765,0.651093,0.102416,0.0481221,1231,449,1.38272,35.7502
14,575,1.70276,-35.8489,0.01696,-0.031983,0.0931242,0.0887743,-0.103797,0.656911,0.111294,0.0470235,1238,449,1.70282,35.8489
21,575,1.43469,-34.9146,0.0162171,-0.0352776,0.101679,0.0953581,-0.114419,0.661394,0.121281,0.0430763,1245,449,1.43472,34.9146
28,575,1.76501,-34.4644,0.0152807,-0.0383595,0.110449,0.102119,-0.125198,0.666289,0.131467,0.0443352,1252,449,1.76496,34.4644
35,575,2.28833,-34.0334,0.0138304,-0.0409568,0.119469,0.109007,-0.136133,0.672699,0.14182,0.0440632,1259,449,2.28829,34.0334
42,575,1.73401,-32.7672,0.0124936,-0.0429731,0.128941,0.11665,-0.14713,0.679469,0.152632,0.0449286,1266,449,1.73395,32.7672
49,575,1.79309,-31.9577,0.0106394,-0.0429589,0.136714,0.123156,-0.155476,0.688614,0.161229,0.0464709,1273,449,1.79308,31.9577
56,575,1.72205,-31.1972,0.00837453,-0.0420219,0.143236,0.128612,-0.162259,0.698329,0.168309,0.0445152,1280,449,1.72199,31.1972
63,575,1.69751,-30.7422,0.00513325,-0.0396174,0.147787,0.132229,-0.166713,0.710267,0.172977,0.0417141,1287,449,1.69757,30.7422
70,575,1.53357,-30.0845,0.00178347,-0.0356526,0.150603,0.134828,-0.168697,0.723572,0.175603,0.0446056,1294,449,1.53355,30.0845
77,575,1.48999,-29.3748,-0.00218652,-0.0309209,0.15227,0.136393,-0.1695,0.738361,0.176952,0.0493248,1301,449,1.48996,29.3747
84,575,1.58618,-28.2139,-0.00705837,-0.0248957,0.152023,0.136308,-0.168262,0.756099,0.176165,0.0474905,1308,449,1.58622,28.2139
91,575,1.86475,-27.2061,-0.0125471,-0.017587,0.149378,0.134332,-0.164466,0.776964,0.172803,0.0455638,1315,449,1.8648,27.2061
98,575,1.82227,-24.8165,-0.0181938,-0.00942318,0.144751,0.131009,-0.158626,0.800541,0.167474,0.044286,1322,449,1.82226,24.8165
105,575,0.996948,-23.9682,-0.0237427,-0.00124299,0.13851,0.126474,-0.151459,0.825919,0.160681,0.0426228,1329,449,0.996923,23.9682
112,575,0.315063,-23.4599,-0.0290587,0.00525571,0.132705,0.121908,-0.145711,0.849686,0.154714,0.0439575,1336,449,0.315068,23.4599
119,575,-0.0909424,-23.0005,-0.0328156,0.0112329,0.127956,0.119046,-0.140629,0.870625,0.150096,0.0468255,1343,449,-0.0909045,23.0006
126,575,-0.499634,-22.5441,0,0,0,0,0,0,0,-1,1350,449,-0.499692,22.5441
133,575,1.77222,-36.9861,0,0,0,0,0,0,0,-1,1357,449,1.77227,36.9861
140,575,0.961426,-36.5266,0,0,0,0,0,0,0,-1,1364,449,0.961469,36.5265
147,575,0.118164,-36.1235,0,0,0,0,0,0,0,-1,1371,449,0.118149,36.1235
154,575,-0.672119,-35.7405,0,0,0,0,0,0,0,-1,1378,449,-0.672075,35.7405
161,575,8.12451,-30.6601,0,0,0,0,0,0,0,-1,1385,449,8.12449,30.6601
168,575,7.5509,-35.3165,0,0,0,0,0,0,0,-1,1392,449,7.5509,35.3165
175,575,4.32617,1.93634,0,0,0,0,0,0,0,-1,1399,449,4.32612,-1.93634
182,575,6.3147,-2.88345,0,0,0,0,0,0,0,-1,1406,449,6.31466,2.88346
189,575,6.10449,-1.30817,0,0,0,0,0,0,0,-1,1413,449,6.10455,1.30817
196,575,5.79895,0.818359,0,0,0,0,0,0,0,-1,1420,449,5.79895,-0.81837
203,575,3.29724,-1.46378,0,0,0,0,0,0,0,-1,1427,449,3.29722,1.46377
210,575,2.32739,-7.74503,0,0,0,0,0,0,0,-1,1434,449,2.32741,7.74502
217,575,3.33618,-11.5521,0,0,0,0,0,0,0,-1,1441,449,3.3362,11.5521
224,575,5.51709,-16.3903,0,0,0,0,0,0,0,-1,1448,449,5.51713,16.3903
231,575,5.48572,-20.4595,0,0,0,0,0,0,0,-1,1455,449,5.48571,20.4595
238,575,5.33484,-22.3575,0,0,0,0,0,0,0,-1,1462,449,5.33478,22.3575
245,575,5.59741,-23.513,0,0,0,0,0,0,0,-1,1469,449,5.5974,23.513
252,575,7.67786,-33.3126,0,0,0,0,0,0,0,-1,1476,449,7.67781,33.3126
259,575,7.53918,-32.7788,0,0,0,0,0,0,0,-1,1483,449,7.53917,32.7788
266,575,7.56128,-32.296,0,0,0,0,0,0,0,-1,1490,449,7.56127,32.296
273,575,7.60791,-31.8376,0,0,0,0,0,0,0,-1,1497,449,7.60787,31.8376
280,575,7.64514,-31.407,0,0,0,0,0,0,0,-1,1504,449,7.64519,31.407
287,575,7.65161,-31.0422,0.0032063,-0.00157875,-0.00142516,0.0035986,-0.00197105,-0.268615,0.00326108,0.0279746,1511,449,7.65156,31.0422
294,575,7.6991,-30.6107,0.00279586,-0.00177929,-0.00147566,0.00323052,-0.00221395,-0.286453,0.00316158,0.012832,1518,449,7.69908,30.6107
301,575,7.72546,-30.1693,0.00241702,-0.00185694,-0.0014501,0.00286258,-0.00230249,-0.298101,0.00298789,0.00996305,1525,449,7.72547,30.1693
308,575,7.7334,-29.7637,0.00210322,-0.00216475,-0.00141407,0.00252922,-0.00259075,-0.292606,0.00295608,0.0109858,1532,449,7.73342,29.7637
315,575,7.72717,-29.3412,0.00164325,-0.00206913,-0.0013802,0.00210015,-0.00252603,-0.319685,0.0026747,0.0113048,1539,449,7.72722,29.3412
322,575,7.72461,-28.8965,0.00123517,-0.00169981,-0.00116014,0.00163836,-0.002103,-0.33448,0.00216562,0.00941304,1546,449,7.72461,28.8965
329,575,7.72083,-28.4657,0.000931214,-0.00119832,-0.00083249,0.00121803,-0.00148513,-0.331789,0.00156321,0.00996023,1553,449,7.72087,28.4657
336,575,7.71313,-28.0399,0.000666222,-0.000632479,-0.00048115,0.000825055,-0.000791312,-0.318849,0.000933278,0.0119744,1560,449,7.71319,28.0399
343,575,7.74414,-27.5809,0.000393496,1.43427e-05,-0.000136547,0.000437552,-2.97136e-05,-0.312101,0.000302094,0.0131199,1567,449,7.74417,27.5809
350,575,7.73535,-27.1309,0.000196733,0.000898737,0.00033287,0.00103148,6.39947e-05,1.19135,0.000667342,0.012689,1574,449,7.7354,27.1309
357,575,7.71936,-26.6511,5.12205e-05,0.00177013,0.000868311,0.00213241,-0.000311055,1.17554,0.00153583,0.0116142,1581,449,7.71938,26.6511
364,575,7.69202,-26.1775,-7.69284e-05,0.0026706,0.00143288,0.00328188,-0.000688204,1.16757,0.00244976,0.0104054,1588,449,7.69208,26.1775
371,575,7.67627,-25.7134,-0.000187666,0.00358359,0.00197595,0.00442926,-0.00103333,1.1664,0.00335082,0.0188521,1595,449,7.67632,25.7134
378,575,7.672,-25.2273,-0.000294491,0.0045464,0.00247795,0.00558988,-0.00133798,1.17223,0.00424348,0.0175856,1602,449,7.67206,25.2273
385,575,7.64221,-24.7507,-0.000429886,0.00539993,0.00285202,0.0065631,-0.00159306,1.18355,0.00499188,0.0115121,1609,449,7.64217,24.7507
392,575,7.60205,-24.2852,-0.000348003,0.0061314,0.00328886,0.00750822,-0.00172482,1.17433,0.00566858,0.00998239,1616,449,7.60209,24.2852
399,575,7.58789,-23.8102,0.000153834,0.00709151,0.00416604,0.00904381,-0.00179847,1.13256,0.00670953,0.0108472,1623,449,7.58787,23.8102
406,575,7.56848,-23.2604,0.0008456,0.00847287,0.0054973,0.0113498,-0.00203137,1.08865,0.00832669,0.0123298,1630,449,7.56847,23.2604
413,575,7.55334,-22.7153,0.00123257,0.00935098,0.0064655,0.0129259,-0.00234235,1.06571,0.00949485,0.0153215,1637,449,7.55335,22.7153
420,575,7.50049,-22.1773,0.0019006,0.0104591,0.00695737,0.0143479,-0.00198819,1.06111,0.0102922,0.0146996,1644,449,7.50052,22.1773
427,575,7.43787,-21.627,0.0028101,0.0122718,0.00748683,0.0163972,-0.00131532,1.06717,0.0113953,0.0167653,1651,449,7.43788,21.627
434,575,7.3468,-21.1649,0.00406549,0.0143381,0.00842637,0.0190702,-0.000666619,1.0591,0.0129414,0.0283247,1658,449,7.34681,21.1649
441,575,7.44214,-20.7291,0,0,0,0,0,0,0,-1,1665,449,7.44216,20.7291
448,575,8.46521,-19.5887,0,0,0,0,0,0,0,-1,1672,449,8.46522,19.5887
455,575,8.53613,-18.8625,0,0,0,0,0,0,0,-1,1679,449,8.53616,18.8625
462,575,6.39746,-17.8187,0,0,0,0,0,0,0,-1,1686,449,6.39743,17.8187
469,575,6.57361,-18.0842,0,0,0,0,0,0,0,-1,1693,449,6.57358,18.0842
476,575,6.6687,-17.4833,0,0,0,0,0,0,0,-1,1700,449,6.66873,17.4833
483,575,6.16272,-18.33,0,0,0,0,0,0,0,-1,1707,449,6.16276,18.33
490,575,5.97229,-17.9191,0,0,0,0,0,0,0,-1,1714,449,5.97233,17.9191
497,575,0,0,0,0,0,0,0,0,0,-1,1721,449,0,0
504,575,0,0,0,0,0,0,0,0,0,-1,1728,449,0,0
511,575,0,0,0,0,0,0,0,0,0,-1,1735,449,0,0
518,575,0,0,0,0,0,0,0,0,0,-1,1742,449,0,0
525,575,0,0,0,0,0,0,0,0,0,-1,1749,449,0,0
532,575,0,0,0,0,0,0,0,0,0,-1,1756,449,0,0
539,575,0,0,0,0,0,0,0,0,0,-1,1763,449,0,0
546,575,0,0,0,0,0,0,0,0,0,-1,1770,449,0,0
553,575,0,0,0,0,0,0,0,0,0,-1,1777,449,0,0
560,575,0,0,0,0,0,0,0,0,0,-1,1784,449,0,0
567,575,0,0,0,0,0,0,0,0,0,-1,1791,449,0,0
574,575,0,0,0,0,0,0,0,0,0,-1,1798,449,0,0
581,575,0,0,0,0,0,0,0,0,0,-1,1805,449,0,0
588,575,0,0,0,0,0,0,0,0,0,-1,1812,449,0,0
595,575,0,0,0,0,0,0,0,0,0,-1,1819,449,0,0
602,575,0,0,0,0,0,0,0,0,0,-1,1826,449,0,0
609,575,0,0,0,0,0,0,0,0,0,-1,1833,449,0,0
616,575,0,0,0,0,0,0,0,0,0,-1,1840,449,0,0
623,575,0,0,0,0,0,0,0,0,0,-1,1847,449,0,0
630,575,0,0,0,0,0,0,0,0,0,-1,1854,449,0,0
637,575,0,0,0,0,0,0,0,0,0,-1,1861,449,0,0
644,575,0,0,0,0,0,0,0,0,0,-1,1868,449,0,0
651,575,0,0,0,0,0,0,0,0,0,-1,1875,449,0,0
658,575,0,0,0,0,0,0,0,0,0,-1,1882,449,0,0
665,575,0,0,0,0,0,0,0,0,0,-1,1889,449,0,0
672,575,0,0,0,0,0,0,0,0,0,-1,1896,449,0,0
679,575,0,0,0,0,0,0,0,0,0,-1,1903,449,0,0
686,575,0,0,0,0,0,0,0,0,0,-1,1910,449,0,0
693,575,0,0,0,0,0,0,0,0,0,-1,1917,449,0,0
700,575,0,0,0,0,0,0,0,0,0,-1,1924,449,0,0
707,575,0,0,0,0,0,0,0,0,0,-1,1931,449,0,0
714,575,0,0,0,0,0,0,0,0,0,-1,1938,449,0,0
721,575,0,0,0,0,0,0,0,0,0,-1,1945,449,0,0
728,575,0,0,0,0,0,0,0,0,0,-1,1952,449,0,0
735,575,0,0,0,0,0,0,0,0,0,-1,1959,449,0,0
742,575,0,0,0,0,0,0,0,0,0,-1,1966,449,0,0
749,575,0,0,0,0,0,0,0,0,0,-1,1973,449,0,0
756,575,0,0,0,0,0,0,0,0,0,-1,1980,449,0,0
763,575,0,0,0,0,0,0,0,0,0,-1,1987,449,0,0
770,575,0,0,0,0,0,0,0,0,0,-1,1994,449,0,0
777,575,0,0,0,0,0,0,0,0,0,-1,2001,449,0,0
784,575,0,0,0,0,0,0,0,0,0,-1,2008,449,0,0
791,575,0,0,0,0,0,0,0,0,0,-1,2015,449,0,0
798,575,0,0,0,0,0,0,0,0,0,-1,2022,449,0,0
805,575,0,0,0,0,0,0,0,0,0,-1,2029,449,0,0
812,575,0,0,0,0,0,0,0,0,0,-1,2036,449,0,0
-700,568,0,0,0,0,0,0,0,0,0,-1,524,456,0,0
-693,568,0,0,0,0,0,0,0,0,0,-1,531,456,0,0
-686,568,0,0,0,0,0,0,0,0,0,-1,538,456,0,0
-679,568,0,0,0,0,0,0,0,0,0,-1,545,456,0,0
-672,568,0,0,0,0,0,0,0,0,0,-1,552,456,0,0
-665,568,0,0,0,0,0,0,0,0,0,-1,559,456,0,0
-658,568,0,0,0,0,0,0,0,0,0,-1,566,456,0,0
-651,568,0,0,0,0,0,0,0,0,0,-1,573,456,0,0
-644,568,0,0,0,0,0,0,0,0,0,-1,580,456,0,0
-637,568,0,0,0,0,0,0,0,0,0,-1,587,456,0,0
-630,568,0,0,0,0,0,0,0,0,0,-1,594,456,0,0
-623,568,0,0,0,0,0,0,0,0,0,-1,601,456,0,0
-616,568,0,0,0,0,0,0,0,0,0,-1,608,456,0,0
-609,568,0,0,0,0,0,0,0,0,0,-1,615,456,0,0
-602,568,0,0,0,0,0,0,0,0,0,-1,622,456,0,0
-595,568,0,0,0,0,0,0,0,0,0,-1,629,456,0,0
-588,568,0,0,0,0,0,0,0,0,0,-1,636,456,0,0
-581,568,0,0,0,0,0,0,0,0,0,-1,643,456,0,0
-574,568,0,0,0,0,0,0,0,0,0,-1,650,456,0,0
-567,568,0,0,0,0,0,0,0,0,0,-1,657,456,0,0
-560,568,0,0,0,0,0,0,0,0,0,-1,664,456,0,0
-553,568,0,0,0,0,0,0,0,0,0,-1,671,456,0,0
-546,568,0,0,0,0,0,0,0,0,0,-1,678,456,0,0
-539,568,0,0,0,0,0,0,0,0,0,-1,685,456,0,0
-532,568,0,0,0,0,0,0,0,0,0,-1,692,456,0,0
-525,568,0,0,0,0,0,0,0,0,0,-1,699,456,0,0
-518,568,0,0,0,0,0,0,0,0,0,-1,706,456,0,0
-511,568,0,0,0,0,0,0,0,0,0,-1,713,456,0,0
-504,568,0,0,0,0,0,0,0,0,0,-1,720,456,0,0
-497,568,0,0,0,0,0,0,0,0,0,-1,727,456,0,0
-490,568,0,0,0,0,0,0,0,0,0,-1,734,456,0,0
-483,568,0,0,0,0,0,0,0,0,0,-1,741,456,0,0
-476,568,0,0,0,0,0,0,0,0,0,-1,748,456,0,0
-469,568,0,0,0,0,0,0,0,0,0,-1,755,456,0,0
-462,568,0,0,0,0,0,0,0,0,0,-1,762,456,0,0
-455,568,0,0,0,0,0,0,0,0,0,-1,769,456,0,0
-448,568,0,0,0,0,0,0,0,0,0,-1,776,456,0,0
-441,568,0,0,0,0,0,0,0,0,0,-1,783,456,0,0
-434,568,0,0,0,0,0,0,0,0,0,-1,790,456,0,0
-427,568,0,0,0,0,0,0,0,0,0,-1,797,456,0,0
-420,568,0,0,0,0,0,0,0,0,0,-1,804,456,0,0
-413,568,0,0,0,0,0,0,0,0,0,-1,811,456,0,0
-406,568,0,0,0,0,0,0,0,0,0,-1,818,456,0,0
-399,568,0,0,0,0,0,0,0,0,0,-1,825,456,0,0
-392,568,0,0,0,0,0,0,0,0,0,-1,832,456,0,0
-385,568,0,0,0,0,0,0,0,0,0,-1,839,456,0,0
-378,568,0.321777,-7.29929,0,0,0,0,0,0,0,-1,846,456,0.321806,7.29927
-371,568,1.09595,-7.46707,0,0,0,0,0,0,0,-1,853,456,1.09597,7.46707
-364,568,1.87787,-7.61115,0,0,0,0,0,0,0,-1,860,456,1.87784,7.61116
-357,568,2.14166,-7.67645,0,0,0,0,0,0,0,-1,867,456,2.14167,7.67646
-350,568,2.7467,-11.2507,0,0,0,0,0,0,0,-1,874,456,2.7467,11.2507
-343,568,2.16516,-11.3762,0,0,0,0,0,0,0,-1,881,456,2.16514,11.3762
-336,568,0.938232,-21.3005,0,0,0,0,0,0,0,-1,888,456,0.938216,21.3005
-329,568,1.60858,-20.9109,-0.0112109,0.0142526,-0.00751483,0.016305,-0.0132632,-1.30419,0.0171013,0.0448953,895,456,1.60857,20.9109
-322,568,2.38831,-20.4412,-0.0108989,0.0124277,-0.00684798,0.0142894,-0.0127607,-1.30534,0.0156257,0.04088,902,456,2.38829,20.4412
-315,568,2.35327,-21.3264,-0.00985109,0.0111501,-0.00638344,0.0129382,-0.0116391,-1.29769,0.0141963,0.0366924,909,456,2.35328,21.3264
-308,568,2.05231,-22.1754,-0.00850725,0.0101605,-0.0059654,0.0119039,-0.0102507,-1.28645,0.0128028,0.0310262,916,456,2.05228,22.1753
-301,568,1.97595,-22.7671,-0.00702918,0.00901369,-0.00544023,0.0106845,-0.00869999,-1.27282,0.0112112,0.0179611,923,456,1.97594,22.7671
-294,568,1.92902,-23.2454,-0.00566604,0.00771717,-0.00466304,0.00918164,-0.00713051,-1.26649,0.00944261,0.0130171,930,456,1.92899,23.2454
-287,568,1.89063,-23.761,-0.0044842,0.00655529,-0.0039079,0.00779863,-0.00572754,-1.26276,0.0078398,0.0109201,937,456,1.89062,23.761
-280,568,1.87128,-24.2851,-0.00339634,0.00559058,-0.00323417,0.00663345,-0.00443922,-1.25887,0.00643452,0.0111572,944,456,1.8713,24.2851
-273,568,1.85626,-24.78,-0.00276236,0.00491113,-0.0028156,0.0058334,-0.00368463,-1.25425,0.00554172,0.012081,951,456,1.85626,24.78
-266,568,1.82269,-25.2475,-0.00156455,0.00373108,-0.0024231,0.00467246,-0.00250594,-1.20024,0.0042069,0.0116065,958,456,1.82267,25.2475
-259,568,1.78766,-25.729,-0.000678082,0.00288764,-0.00165982,0.00354068,-0.00133112,-1.19596,0.00290757,0.0125561,965,456,1.78766,25.729
-252,568,1.73688,-26.1913,-0.000147618,0.00192306,-0.00106973,0.00237643,-0.000600987,-1.16993,0.00181803,0.0125736,972,456,1.73687,26.1913
-245,568,1.73297,-26.6104,0.000235339,0.000858473,-0.000612706,0.00123428,-0.000140468,-1.02061,0.000873449,0.0146671,979,456,1.73295,26.6104
-238,568,1.76062,-27.0604,0.000589876,-0.000319451,-0.000163158,0.000618265,-0.000347839,-0.17227,0.000565017,0.0139921,986,456,1.76063,27.0604
-231,568,1.73199,-27.5125,0.000911905,-0.00148798,0.000253793,0.000938451,-0.00151453,0.104216,0.00142919,0.0124136,993,456,1.732,27.5126
-224,568,1.7066,-27.9427,0.00130545,-0.00278444,0.000757373,0.0014412,-0.00292018,0.17735,0.00256585,0.0135888,1000,456,1.70662,27.9427
-217,568,1.72498,-28.373,0.0017073,-0.00418138,0.00113689,0.00191917,-0.00439325,0.184245,0.00373662,0.0117471,1007,456,1.72496,28.373
-210,568,1.72211,-28.7939,0.00215382,-0.00563769,0.00140437,0.00239922,-0.00588309,0.172993,0.00492079,0.0120505,1014,456,1.72211,28.7939
-203,568,1.7171,-29.2176,0.00279995,-0.00665594,0.00143248,0.00301219,-0.00686818,0.147095,0.00584745,0.0108498,1021,456,1.71712,29.2176
-196,568,1.75403,-29.601,0.00336877,-0.00766553,0.00152278,0.00357506,-0.00787183,0.134652,0.00676228,0.0138827,1028,456,1.75402,29.601
-189,568,1.74866,-29.9892,0.00386302,-0.00890298,0.00152605,0.0040429,-0.00908287,0.117338,0.00776215,0.0140598,1035,456,1.74869,29.9892
-182,568,1.76587,-30.4073,0.0043412,-0.0100158,0.00148218,0.00449262,-0.0101672,0.101806,0.00867266,0.015847,1042,456,1.76585,30.4074
-175,568,1.78699,-30.7784,0.004767,-0.0108171,0.00147832,0.00490599,-0.0109561,0.0937469,0.00937739,0.0157649,1049,456,1.787,30.7783
-168,568,1.78687,-31.0401,0.00518101,-0.0124429,0.00158268,0.00532201,-0.0125839,0.0888559,0.0106176,0.0217766,1056,456,1.78682,31.0401
-161,568,1.74377,-31.3871,0.00553442,-0.01471,0.00195096,0.00572072,-0.0148963,0.0952025,0.0122899,0.034817,1063,456,1.74382,31.3871
-154,568,1.89746,-31.9028,0.00571995,-0.0169799,0.00227355,0.00594543,-0.0172054,0.0988489,0.0138831,0.0420451,1070,456,1.89747,31.9028
-147,568,1.92432,-32.15,0.00567168,-0.0188846,0.00277622,0.00598163,-0.0191946,0.111186,0.0151881,0.0445435,1077,456,1.92427,32.15
-140,568,1.93103,-32.1927,0.00532098,-0.0219812,0.00389775,0.00586653,-0.0225268,0.139063,0.017308,0.0442893,1084,456,1.93099,32.1927
-133,568,1.92371,-32.5299,0.00467242,-0.0258891,0.00551495,0.00563716,-0.0268538,0.17318,0.0200476,0.0475232,1091,456,1.92374,32.5299
-126,568,1.92651,-32.8035,0.00408027,-0.0306866,0.0074148,0.00559559,-0.0322019,0.201589,0.0235557,0.0487287,1098,456,1.92653,32.8035
-119,568,1.89392,-33.0636,0,0,0,0,0,0,0,-1,1105,456,1.89393,33.0636
-112,568,1.55273,-31.9359,0,0,0,0,0,0,0,-1,1112,456,1.5527,31.936
-105,568,2.02454,-25.038,0,0,0,0,0,0,0,-1,1119,456,2.02459,25.038
-98,568,1.58618,-14.7874,0,0,0,0,0,0,0,-1,1126,456,1.58617,14.7874
-91,568,1.11621,-11.1853,0,0,0,0,0,0,0,-1,1133,456,1.11626,11.1853
-84,568,0.461792,-9.7959,0,0,0,0,0,0,0,-1,1140,456,0.461793,9.7959
-77,568,-1.13806,-8.57822,0,0,0,0,0,0,0,-1,1147,456,-1.13807,8.57821
-70,568,-4.09766,-1.42911,0,0,0,0,0,0,0,-1,1154,456,-4.09767,1.4291
-63,568,-5.92273,-3.70752,0,0,0,0,0,0,0,-1,1161,456,-5.92272,3.70751
-56,568,-5.24158,-6.01385,0,0,0,0,0,0,0,-1,1168,456,-5.24161,6.01386
-49,568,-5.24365,-8.33557,0,0,0,0,0,0,0,-1,1175,456,-5.24371,8.33557
-42,568,-0.664795,0.521973,0,0,0,0,0,0,0,-1,1182,456,-0.664829,-0.521984
-35,568,-0.153076,-1.67731,0,0,0,0,0,0,0,-1,1189,456,-0.153068,1.67731
-28,568,1.25439,-4.48798,0,0,0,0,0,0,0,-1,1196,456,1.2544,4.48797
-21,568,2.76404,-34.6259,0,0,0,0,0,0,0,-1,1203,456,2.76399,34.6259
-14,568,2.75159,-35.1708,0.027596,-0.0257598,0.0676322,0.0736218,-0.0717856,0.597539,0.0839532,0.0462729,1210,456,2.75155,35.1708
-7,568,2.93469,-35.8678,0,0,0,0,0,0,0,-1,1217,456,2.93475,35.8678
0,568,2.99854,-36.4857,0,0,0,0,0,0,0,-1,1224,456,2.99857,36.4857
7,568,0.401367,-35.4014,0.0194738,-0.024771,0.0967019,0.0965515,-0.101849,0.672949,0.11456,0.0492573,1231,456,0.401423,35.4014
14,568,0.671997,-35.4783,0.0172876,-0.0287372,0.106014,0.102758,-0.114208,0.678522,0.125323,0.0449757,1238,456,0.671958,35.4783
21,568,0.367065,-34.5904,0.0160066,-0.0326569,0.116604,0.110791,-0.127441,0.682539,0.137655,0.0396817,1245,456,0.36704,34.5904
28,568,0.933594,-34.0914,0.0146493,-0.0358484,0.127269,0.119149,-0.140349,0.687475,0.149988,0.0430148,1252,456,0.933587,34.0914
35,568,0.50647,-33.4472,0.0128309,-0.0386183,0.137654,0.127143,-0.15293,0.693024,0.161929,0.0447603,1259,456,0.506432,33.4472
42,568,0.702881,-32.6736,0.0113905,-0.0406546,0.148345,0.135978,-0.165242,0.698572,0.174183,0.0453277,1266,456,0.70286,32.6736
49,568,0.875366,-31.894,0.00952017,-0.0407765,0.156905,0.143279,-0.174536,0.705935,0.183786,0.0474932,1273,456,0.875384,31.894
56,568,1.07471,-31.1415,0,0,0,0,0,0,0,-1,1280,456,1.07475,31.1415
63,568,-0.0849609,-30.0657,0.00409674,-0.0374428,0.169224,0.153821,-0.187167,0.724336,0.197183,0.042823,1287,456,-0.0850132,30.0657
70,568,-0.154175,-29.2971,0.000597092,-0.0331959,0.172502,0.157028,-0.189627,0.736579,0.200436,0.0453149,1294,456,-0.154231,29.2972
77,568,0.205566,-28.7078,-0.00380412,-0.027993,0.174471,0.158992,-0.190789,0.750793,0.202224,0.0458351,1301,456,0.205565,28.7078
84,568,0.277954,-27.849,-0.00951895,-0.0210219,0.174495,0.159319,-0.18986,0.768924,0.201856,0.0464691,1308,456,0.27797,27.849
91,568,0.176758,-26.8259,0,0,0,0,0,0,0,-1,1315,456,0.176713,26.8259
98,568,-0.109863,-25.047,-0.0236754,-0.00198091,0.166474,0.153999,-0.179655,0.817932,0.192825,0.0437331,1322,456,-0.109908,25.047
105,568,-0.671753,-24.1174,-0.0314859,0.00854026,0.15926,0.149039,-0.171985,0.847902,0.185501,0.0476251,1329,456,-0.671693,24.1174
112,568,-1.24719,-23.5443,-0.0393154,0.0168548,0.152955,0.144282,-0.166742,0.876195,0.179726,0.0483796,1336,456,-1.24725,23.5443
119,568,-1.73193,-23.1516,-0.0449872,0.0254314,0.148087,0.142437,-0.161993,0.902112,0.175884,0.0461865,1343,456,-1.73189,23.1516
126,568,-2.14746,-22.7044,0,0,0,0,0,0,0,-1,1350,456,-2.14751,22.7044
133,568,2.97095,-38.0658,0,0,0,0,0,0,0,-1,1357,456,2.97094,38.0658
140,568,1.61389,-37.0061,0,0,0,0,0,0,0,-1,1364,456,1.61395,37.0061
147,568,0.774048,-36.4785,0,0,0,0,0,0,0,-1,1371,456,0.774097,36.4785
154,568,7.85583,-30.0557,0,0,0,0,0,0,0,-1,1378,456,7.85579,30.0557
161,568,8.42847,-30.5151,0,0,0,0,0,0,0,-1,1385,456,8.42841,30.5151
168,568,11.2393,-28.6589,0,0,0,0,0,0,0,-1,1392,456,11.2393,28.6589
175,568,10.5151,0.747498,0,0,0,0,0,0,0,-1,1399,456,10.5152,-0.747501
182,568,6.35095,-3.63361,0,0,0,0,0,0,0,-1,1406,456,6.35093,3.63359
189,568,6.17493,-1.70911,0,0,0,0,0,0,0,-1,1413,456,6.17497,1.70911
196,568,6.04724,0.200836,0,0,0,0,0,0,0,-1,1420,456,6.04724,-0.200835
203,568,5.9281,2.08649,0,0,0,0,0,0,0,-1,1427,456,5.92812,-2.08648
210,568,1.46216,-2.50446,0,0,0,0,0,0,0,-1,1434,456,1.46219,2.50446
217,568,2.62366,-7.86703,0,0,0,0,0,0,0,-1,1441,456,2.62365,7.86704
224,568,3.43494,-12.1555,0,0,0,0,0,0,0,-1,1448,456,3.43492,12.1555
231,568,4.38245,-9.3205,0,0,0,0,0,0,0,-1,1455,456,4.38244,9.32048
238,568,5.88879,-20.7448,0,0,0,0,0,0,0,-1,1462,456,5.88876,20.7449
245,568,3.34387,-10.6774,0,0,0,0,0,0,0,-1,1469,456,3.34389,10.6774
252,568,3.56946,-9.28928,0,0,0,0,0,0,0,-1,1476,456,3.56948,9.28928
259,568,3.38843,-8.73068,0,0,0,0,0,0,0,-1,1483,456,3.38842,8.73068
266,568,3.104,-9.16876,0,0,0,0,0,0,0,-1,1490,456,3.10397,9.16876
273,568,3.77869,-13.1147,0,0,0,0,0,0,0,-1,1497,456,3.77869,13.1147
280,568,4.40002,-14.9322,0,0,0,0,0,0,0,-1,1504,456,4.4,14.9322
287,568,8.03772,-31.154,0,0,0,0,0,0,0,-1,1511,456,8.03778,31.154
294,568,8.14709,-30.4813,0.00330529,-0.00278277,-0.00229827,0.00407547,-0.00355295,-0.323349,0.00440771,0.0418034,1518,456,8.14707,30.4813
301,568,8.12854,-30.1028,0.00286921,-0.00302081,-0.00232885,0.00367874,-0.00383035,-0.334546,0.00433567,0.0207369,1525,456,8.12851,30.1028
308,568,8.1499,-29.7043,0.0024673,-0.00364,-0.00240888,0.00330306,-0.00447575,-0.333953,0.00450808,0.0145849,1532,456,8.14989,29.7042
315,568,8.14954,-29.3239,0.00183097,-0.00377049,-0.00251131,0.00279199,-0.00473151,-0.365484,0.00439154,0.0089654,1539,456,8.14949,29.3239
322,568,8.15662,-28.9054,0.0013115,-0.00349165,-0.00232573,0.00225306,-0.00443321,-0.384678,0.00392813,0.00969566,1546,456,8.15666,28.9054
329,568,8.17395,-28.4552,0.000951257,-0.00299262,-0.00199749,0.00178619,-0.00382755,-0.395918,0.00331175,0.010581,1553,456,8.17391,28.4552
336,568,8.17664,-27.9929,0.000655813,-0.00243361,-0.00164195,0.00136546,-0.00314326,-0.407951,0.00266971,0.0113118,1560,456,8.17664,27.9929
343,568,8.20557,-27.5368,0.000336872,-0.0018054,-0.00131011,0.000957988,-0.00242652,-0.44271,0.00201442,0.0115707,1567,456,8.20557,27.5368
350,568,8.20325,-27.1145,0.000121887,-0.00097308,-0.000846321,0.00058237,-0.00143356,-0.498302,0.00119798,0.0103398,1574,456,8.20329,27.1145
357,568,8.177,-26.6577,-2.50976e-06,-0.000113375,-0.00030055,0.000247677,-0.000363562,-0.694205,0.000355007,0.00936278,1581,456,8.17703,26.6577
364,568,8.1615,-26.1842,-9.12493e-05,0.000806474,0.000293941,0.000894155,-0.00017893,1.2809,0.000663834,0.0111123,1588,456,8.16149,26.1842
371,568,8.13965,-25.6904,-0.000143912,0.00170277,0.000862596,0.00204301,-0.000484149,1.1951,0.00154882,0.0194471,1595,456,8.1397,25.6904
378,568,8.14502,-25.207,-0.000187778,0.00261846,0.00138073,0.00318388,-0.000753202,1.18212,0.00241316,0.0190848,1602,456,8.14503,25.207
385,568,8.10718,-24.743,-0.000245641,0.00350438,0.00180263,0.00423036,-0.000971621,1.18794,0.00319377,0.00974312,1609,456,8.10716,24.743
392,568,8.07251,-24.2679,-0.000125442,0.00419717,0.00226349,0.0051655,-0.00109378,1.16655,0.00386026,0.0108423,1616,456,8.07255,24.268
399,568,8.0376,-23.8259,0.000304491,0.00501867,0.00306457,0.00652778,-0.00120461,1.11322,0.004804,0.0179443,1623,456,8.03755,23.8259
406,568,8.05249,-23.2894,0.00084855,0.00621005,0.00422225,0.00853068,-0.00147208,1.06825,0.006236,0.0156565,1630,456,8.05252,23.2894
413,568,8.03442,-22.7372,0.00112721,0.00701825,0.00509701,0.00995963,-0.00181417,1.0474,0.0073198,0.0130594,1637,456,8.03438,22.7372
420,568,7.99719,-22.2012,0.00163555,0.00797002,0.00557755,0.0112169,-0.0016113,1.04362,0.00806881,0.0116928,1644,456,7.99722,22.2012
427,568,7.9635,-21.6487,0.00229047,0.00938468,0.00603926,0.0128415,-0.00116633,1.05093,0.00897506,0.013529,1651,456,7.96351,21.6487
434,568,7.97681,-21.1017,0.00316677,0.0109249,0.00680951,0.0148827,-0.000791045,1.0443,0.0101957,0.0200161,1658,456,7.97675,21.1017
441,568,7.97021,-20.6465,0.0040873,0.0125725,0.00746083,0.0169126,-0.000252863,1.04392,0.0113603,0.0286315,1665,456,7.97022,20.6465
448,568,8.3728,-19.8224,0.00477773,0.0144351,0.00780159,0.0187814,0.000431391,1.06251,0.0123797,0.0383156,1672,456,8.37285,19.8224
455,568,8.62646,-19.0004,0.00538167,0.0162724,0.00772797,0.0202808,0.00137328,1.09231,0.0130868,0.0497796,1679,456,8.62644,19.0004
462,568,8.86328,-18.1929,0,0,0,0,0,0,0,-1,1686,456,8.86324,18.1929
469,568,7.35205,-18.2742,0.00595678,0.0210399,0.00623685,0.0232847,0.00371195,1.2253,0.0144457,0.0456006,1693,456,7.35208,18.2742
476,568,7.44336,-17.6991,0.00575101,0.022951,0.0045096,0.0240617,0.00464037,1.32932,0.0147399,0.0496138,1700,456,7.4434,17.6991
483,568,7.55371,-17.0974,0,0,0,0,0,0,0,-1,1707,456,7.55376,17.0975
490,568,7.57776,-15.8477,0,0,0,0,0,0,0,-1,1714,456,7.57774,15.8478
497,568,7.37231,-14.514,0,0,0,0,0,0,0,-1,1721,456,7.3723,14.514
504,568,0,0,0,0,0,0,0,0,0,-1,1728,456,0,0
511,568,0,0,0,0,0,0,0,0,0,-1,1735,456,0,0
518,568,0,0,0,0,0,0,0,0,0,-1,1742,456,0,0
525,568,0,0,0,0,0,0,0,0,0,-1,1749,456,0,0
532,568,0,0,0,0,0,0,0,0,0,-1,1756,456,0,0
539,568,0,0,0,0,0,0,0,0,0,-1,1763,456,0,0
546,568,0,0,0,0,0,0,0,0,0,-1,1770,456,0,0
553,568,0,0,0,0,0,0,0,0,0,-1,1777,456,0,0
560,568,0,0,0,0,0,0,0,0,0,-1,1784,456,0,0
567,568,0,0,0,0,0,0,0,0,0,-1,1791,456,0,0
574,568,0,0,0,0,0,0,0,0,0,-1,1798,456,0,0
581,568,0,0,0,0,0,0,0,0,0,-1,1805,456,0,0
588,568,0,0,0,0,0,0,0,0,0,-1,1812,456,0,0
595,568,0,0,0,0,0,0,0,0,0,-1,1819,456,0,0
602,568,0,0,0,0,0,0,0,0,0,-1,1826,456,0,0
609,568,0,0,0,0,0,0,0,0,0,-1,1833,456,0,0
616,568,0,0,0,0,0,0,0,0,0,-1,1840,456,0,0
623,568,0,0,0,0,0,0,0,0,0,-1,1847,456,0,0
630,568,0,0,0,0,0,0,0,0,0,-1,1854,456,0,0
637,568,0,0,0,0,0,0,0,0,0,-1,1861,456,0,0
644,568,0,0,0,0,0,0,0,0,0,-1,1868,456,0,0
651,568,0,0,0,0,0,0,0,0,0,-1,1875,456,0,0
658,568,0,0,0,0,0,0,0,0,0,-1,1882,456,0,0
665,568,0,0,0,0,0,0,0,0,0,-1,1889,456,0,0
672,568,0,0,0,0,0,0,0,0,0,-1,1896,456,0,0
679,568,0,0,0,0,0,0,0,0,0,-1,1903,456,0,0
686,568,0,0,0,0,0,0,0,0,0,-1,1910,456,0,0
693,568,0,0,0,0,0,0,0,0,0,-1,1917,456,0,0
700,568,0,0,0,0,0,0,0,0,0,-1,1924,456,0,0
707,568,0,0,0,0,0,0,0,0,0,-1,1931,456,0,0
714,568,0,0,0,0,0,0,0,0,0,-1,1938,456,0,0
721,568,0,0,0,0,0,0,0,0,0,-1,1945,456,0,0
728,568,0,0,0,0,0,0,0,0,0,-1,1952,456,0,0
735,568,0,0,0,0,0,0,0,0,0,-1,1959,456,0,0
742,568,0,0,0,0,0,0,0,0,0,-1,1966,456,0,0
749,568,0,0,0,0,0,0,0,0,0,-1,1973,456,0,0
756,568,0,0,0,0,0,0,0,0,0,-1,1980,456,0,0
763,568,0,0,0,0,0,0,0,0,0,-1,1987,456,0,0
770,568,0,0,0,0,0,0,0,0,0,-1,1994,456,0,0
777,568,0,0,0,0,0,0,0,0,0,-1,2001,456,0,0
784,568,0,0,0,0,0,0,0,0,0,-1,2008,456,0,0
791,568,0,0,0,0,0,0,0,0,0,-1,2015,456,0,0
798,568,0,0,0,0,0,0,0,0,0,-1,2022,456,0,0
805,568,0,0,0,0,0,0,0,0,0,-1,2029,456,0,0
812,568,0,0,0,0,0,0,0,0,0,-1,2036,456,0,0
-700,561,0,0,0,0,0,0,0,0,0,-1,524,463,0,0
-693,561,0,0,0,0,0,0,0,0,0,-1,531,463,0,0
-686,561,0,0,0,0,0,0,0,0,0,-1,538,463,0,0
-679,561,0,0,0,0,0,0,0,0,0,-1,545,463,0,0
-672,561,0,0,0,0,0,0,0,0,0,-1,552,463,0,0
-665,561,0,0,0,0,0,0,0,0,0,-1,559,463,0,0
-658,561,0,0,0,0,0,0,0,0,0,-1,566,463,0,0
-651,561,0,0,0,0,0,0,0,0,0,-1,573,463,0,0
-644,561,0,0,0,0,0,0,0,0,0,-1,580,463,0,0
-637,561,0,0,0,0,0,0,0,0,0,-1,587,463,0,0
-630,561,0,0,0,0,0,0,0,0,0,-1,594,463,0,0
-623,561,0,0,0,0,0,0,0,0,0,-1,601,463,0,0
-616,561,0,0,0,0,0,0,0,0,0,-1,608,463,0,0
-609,561,0,0,0,0,0,0,0,0,0,-1,615,463,0,0
-602,561,0,0,0,0,0,0,0,0,0,-1,622,463,0,0
-595,561,0,0,0,0,0,0,0,0,0,-1,629,463,0,0
-588,561,0,0,0,0,0,0,0,0,0,-1,636,463,0,0
-581,561,0,0,0,0,0,0,0,0,0,-1,643,463,0,0
-574,561,0,0,0,0,0,0,0,0,0,-1,650,463,0,0
-567,561,0,0,0,0,0,0,0,0,0,-1,657,463,0,0
-560,561,0,0,0,0,0,0,0,0,0,-1,664,463,0,0
-553,561,0,0,0,0,0,0,0,0,0,-1,671,463,0,0
-546,561,0,0,0,0,0,0,0,0,0,-1,678,463,0,0
-539,561,0,0,0,0,0,0,0,0,0,-1,685,463,0,0
-532,561,0,0,0,0,0,0,0,0,0,-1,692,463,0,0
-525,561,0,0,0,0,0,0,0,0,0,-1,699,463,0,0
-518,561,0,0,0,0,0,0,0,0,0,-1,706,463,0,0
-511,561,0,0,0,0,0,0,0,0,0,-1,713,463,0,0
-504,561,0,0,0,0,0,0,0,0,0,-1,720,463,0,0
-497,561,0,0,0,0,0,0,0,0,0,-1,727,463,0,0
-490,561,0,0,0,0,0,0,0,0,0,-1,734,463,0,0
-483,561,0,0,0,0,0,0,0,0,0,-1,741,463,0,0
-476,561,0,0,0,0,0,0,0,0,0,-1,748,463,0,0
-469,561,0,0,0,0,0,0,0,0,0,-1,755,463,0,0
-462,561,0,0,0,0,0,0,0,0,0,-1,762,463,0,0
-455,561,0,0,0,0,0,0,0,0,0,-1,769,463,0,0
-448,561,0,0,0,0,0,0,0,0,0,-1,776,463,0,0
-441,561,0,0,0,0,0,0,0,0,0,-1,783,463,0,0
-434,561,0,0,0,0,0,0,0,0,0,-1,790,463,0,0
-427,561,0,0,0,0,0,0,0,0,0,-1,797,463,0,0
-420,561,0,0,0,0,0,0,0,0,0,-1,804,463,0,0
-413,561,0,0,0,0,0,0,0,0,0,-1,811,463,0,0
-406,561,0,0,0,0,0,0,0,0,0,-1,818,463,0,0
-399,561,0,0,0,0,0,0,0,0,0,-1,825,463,0,0
-392,561,4.92407,-2.54578,0,0,0,0,0,0,0,-1,832,463,4.92408,2.54576
-385,561,5.55634,-1.02338,0,0,0,0,0,0,0,-1,839,463,5.55634,1.02338
-378,561,0.160522,-4.51785,0,0,0,0,0,0,0,-1,846,463,0.160542,4.51785
-371,561,1.06299,-7.56818,0,0,0,0,0,0,0,-1,853,463,1.06297,7.56817
-364,561,1.45264,-7.57684,0,0,0,0,0,0,0,-1,860,463,1.45264,7.57684
-357,561,0.948242,-12.2803,0,0,0,0,0,0,0,-1,867,463,0.948262,12.2803
-350,561,1.33124,-11.9406,0,0,0,0,0,0,0,-1,874,463,1.33127,11.9406
-343,561,1.13214,-14.1837,0,0,0,0,0,0,0,-1,881,463,1.13217,14.1837
-336,561,1.50293,-20.244,0,0,0,0,0,0,0,-1,888,463,1.50293,20.244
-329,561,1.45703,-20.8184,-0.00668539,0.0128848,-0.00620101,0.0146842,-0.0084848,-1.28837,0.0135353,0.0424794,895,463,1.45705,20.8184
-322,561,1.37549,-21.1868,-0.00696069,0.0111088,-0.00544293,0.0126216,-0.00847356,-1.29969,0.0122575,0.0348252,902,463,1.37546,21.1868
-315,561,1.56769,-21.5187,-0.00651362,0.00978908,-0.00496585,0.0111826,-0.00790712,-1.29722,0.0110754,0.023442,909,463,1.56771,21.5187
-308,561,1.56036,-22.1309,-0.00573653,0.00875379,-0.00457287,0.0100762,-0.00705896,-1.28929,0.00994399,0.0189997,916,463,1.56037,22.1309
-301,561,1.48596,-22.7953,-0.00481079,0.00753982,-0.00409951,0.00877669,-0.00604767,-1.27777,0.00860706,0.0139072,923,463,1.48598,22.7953
-294,561,1.44202,-23.3002,-0.00387147,0.00623103,-0.00344672,0.00729493,-0.00493536,-1.27141,0.00710483,0.0120322,930,463,1.44201,23.3002
-287,561,1.41522,-23.7769,-0.00300861,0.00506973,-0.00279937,0.00594497,-0.00388385,-1.26777,0.00571611,0.0101142,937,463,1.4152,23.7769
-280,561,1.37921,-24.2526,-0.0021875,0.00409938,-0.00222023,0.0048044,-0.00289252,-1.26332,0.00448928,0.0129327,944,463,1.37921,24.2526
-273,561,1.35522,-24.7244,-0.00173064,0.00333107,-0.00179456,0.00390275,-0.00230231,-1.2624,0.00362199,0.0156366,951,463,1.35524,24.7244
-266,561,1.34485,-25.1991,-0.00085978,0.00210777,-0.00142462,0.00268097,-0.00143298,-1.18827,0.00241134,0.0100872,958,463,1.34488,25.1991
-259,561,1.33069,-25.6965,-0.000156806,0.00123822,-0.000763858,0.00157511,-0.000493704,-1.15541,0.00124764,0.010869,965,463,1.33067,25.6965
-252,561,1.30212,-26.1591,0.000312103,0.000109892,-0.000163902,0.000403575,1.84201e-05,-0.509034,0.000263125,0.0152832,972,463,1.30215,26.1591
-245,561,1.28552,-26.5987,0.000683813,-0.00106717,0.000322243,0.000741234,-0.00112459,0.176341,0.00108478,0.0168416,979,463,1.28553,26.5987
-238,561,1.31207,-27.0457,0.00106773,-0.00238882,0.000793885,0.00124135,-0.00256243,0.215301,0.00223983,0.01322,986,463,1.31205,27.0457
-231,561,1.28833,-27.5065,0.00142434,-0.00370696,0.00124316,0.00170966,-0.00399227,0.225602,0.0033788,0.0118153,993,463,1.28834,27.5065
-224,561,1.27661,-27.9374,0.00185917,-0.00517682,0.00179539,0.00229082,-0.00560847,0.235944,0.00469282,0.0115339,1000,463,1.27661,27.9374
-217,561,1.29828,-28.3615,0.00233038,-0.00681504,0.00219089,0.00282814,-0.0073128,0.223403,0.0060427,0.0109974,1007,463,1.29827,28.3615
-210,561,1.2901,-28.7793,0.00286697,-0.00836646,0.00241002,0.00336218,-0.00886167,0.202661,0.00729164,0.0120427,1014,463,1.2901,28.7793
-203,561,1.28577,-29.1802,0.00366239,-0.00935809,0.00229422,0.00405481,-0.0097505,0.169407,0.0081935,0.0138536,1021,463,1.28577,29.1802
-196,561,1.2793,-29.5439,0.00439125,-0.0103711,0.0022569,0.00472858,-0.0107085,0.148368,0.00913277,0.0152999,1028,463,1.27934,29.5439
-189,561,1.30823,-29.9059,0.00501068,-0.011701,0.00214927,0.00528267,-0.011973,0.12588,0.0102091,0.0187149,1035,463,1.30818,29.9059
-182,561,1.39441,-30.2932,0.00558536,-0.0128553,0.00195336,0.00579,-0.01306,0.104383,0.0111496,0.0233065,1042,463,1.39445,30.2932
-175,561,1.32922,-30.6069,0.00611111,-0.0135714,0.00178745,0.00627211,-0.0137324,0.0898347,0.0118143,0.0360129,1049,463,1.32924,30.6069
-168,561,1.60498,-30.8919,0.00661078,-0.0152905,0.0017273,0.00674617,-0.0154258,0.0782233,0.0131239,0.0488295,1056,463,1.60497,30.8919
-161,561,1.50684,-31.3911,0.0070891,-0.0178208,0.00203556,0.00725434,-0.017986,0.0810009,0.0150052,0.0480044,1063,463,1.5069,31.3911
-154,561,1.7063,-32.0648,0.00738276,-0.0206353,0.00221156,0.00755625,-0.0208088,0.0782871,0.0169619,0.0492432,1070,463,1.70624,32.0648
-147,561,1.82373,-32.538,0,0,0,0,0,0,0,-1,1077,463,1.82368,32.538
-140,561,1.67078,-31.8897,0,0,0,0,0,0,0,-1,1084,463,1.67083,31.8897
-133,561,1.73828,-32.3343,0,0,0,0,0,0,0,-1,1091,463,1.73832,32.3343
-126,561,1.80688,-32.7461,0,0,0,0,0,0,0,-1,1098,463,1.80686,32.7461
-119,561,1.40186,-32.0946,0,0,0,0,0,0,0,-1,1105,463,1.40192,32.0946
-112,561,1.24365,-29.1982,0,0,0,0,0,0,0,-1,1112,463,1.2437,29.1981
-105,561,0.530518,-13.5379,0,0,0,0,0,0,0,-1,1119,463,0.530477,13.5379
-98,561,1.5387,-7.54352,0,0,0,0,0,0,0,-1,1126,463,1.53871,7.54351
-91,561,1.29553,-6.57968,0,0,0,0,0,0,0,-1,1133,463,1.29549,6.5797
-84,561,1.23364,-5.84555,0,0,0,0,0,0,0,-1,1140,463,1.23363,5.84556
-77,561,-2.36023,1.00204,0,0,0,0,0,0,0,-1,1147,463,-2.3602,-1.00205
-70,561,-3.90015,-1.41541,0,0,0,0,0,0,0,-1,1154,463,-3.90009,1.4154
-63,561,-6.95691,-4.02756,0,0,0,0,0,0,0,-1,1161,463,-6.95696,4.02756
-56,561,-5.37988,-6.66855,0,0,0,0,0,0,0,-1,1168,463,-5.37988,6.66854
-49,561,-5.7439,-9.11029,0,0,0,0,0,0,0,-1,1175,463,-5.74387,9.1103
-42,561,-1.72644,-5.63065,0,0,0,0,0,0,0,-1,1182,463,-1.72648,5.63064
-35,561,-1.65674,-4.87994,0,0,0,0,0,0,0,-1,1189,463,-1.6567,4.87993
-28,561,-1.91418,-3.86896,0,0,0,0,0,0,0,-1,1196,463,-1.91414,3.86895
-21,561,2.46423,-34.2722,0,0,0,0,0,0,0,-1,1203,463,2.46427,34.2722
-14,561,2.47034,-34.7842,0,0,0,0,0,0,0,-1,1210,463,2.47035,34.7842
-7,561,2.75623,-35.4201,0,0,0,0,0,0,0,-1,1217,463,2.75621,35.4201
0,561,-0.934082,-35.0607,0,0,0,0,0,0,0,-1,1224,463,-0.934094,35.0607
7,561,-0.567627,-35.0704,0,0,0,0,0,0,0,-1,1231,463,-0.567591,35.0704
14,561,-0.20105,-35.0801,0,0,0,0,0,0,0,-1,1238,463,-0.201089,35.0801
21,561,-0.80481,-34.4292,0.0141862,-0.0263499,0.130118,0.125605,-0.137769,0.708136,0.152113,0.0395013,1245,463,-0.804808,34.4292
28,561,-0.653809,-33.7856,0.0122742,-0.0293422,0.142852,0.135825,-0.152893,0.713075,0.166789,0.0427158,1252,463,-0.653811,33.7855
35,561,-0.466675,-33.2334,0.0100159,-0.0320056,0.154355,0.144783,-0.166773,0.717754,0.180026,0.0425838,1259,463,-0.466677,33.2334
42,561,-0.358398,-32.4832,0.00856628,-0.0337533,0.165862,0.154613,-0.1798,0.721953,0.193255,0.0437427,1266,463,-0.358386,32.4832
49,561,-0.733398,-31.7025,0.00688875,-0.0339345,0.174726,0.162391,-0.189437,0.727251,0.203328,0.043706,1273,463,-0.733422,31.7024
56,561,-2.41614,-29.6947,0,0,0,0,0,0,0,-1,1280,463,-2.41616,29.6947
63,561,-1.85327,-29.3885,0.0023078,-0.0307586,0.187671,0.174172,-0.202623,0.741463,0.21775,0.0435782,1287,463,-1.85327,29.3885
70,561,-2.09668,-28.7789,-0.000946624,-0.0264546,0.191301,0.178025,-0.205426,0.752113,0.221574,0.0454545,1294,463,-2.09666,28.7789
77,561,-1.1167,-28.1885,-0.00545015,-0.0209946,0.19353,0.180463,-0.206908,0.765329,0.223823,0.0442013,1301,463,-1.11666,28.1885
84,561,-1.42004,-27.4698,-0.0117736,-0.0133706,0.194051,0.18148,-0.206624,0.783341,0.224229,0.0450544,1308,463,-1.42005,27.4698
91,561,-1.62805,-26.4538,-0.0198367,-0.00327666,0.191459,0.180081,-0.203195,0.807008,0.221419,0.0440205,1315,463,-1.62804,26.4538
98,561,-1.95862,-25.278,-0.0290928,0.00899996,0.185901,0.176828,-0.196921,0.836447,0.215888,0.0464375,1322,463,-1.95868,25.278
105,561,-2.29504,-24.2723,0,0,0,0,0,0,0,-1,1329,463,-2.29501,24.2723
112,561,-2.88135,-23.6841,0,0,0,0,0,0,0,-1,1336,463,-2.88133,23.6841
119,561,-3.3783,-23.3114,0,0,0,0,0,0,0,-1,1343,463,-3.37831,23.3114
126,561,-5.2688,-22.3213,0,0,0,0,0,0,0,-1,1350,463,-5.26885,22.3213
133,561,-6.04993,-21.0376,0,0,0,0,0,0,0,-1,1357,463,-6.04988,21.0376
140,561,7.61194,-29.9378,0,0,0,0,0,0,0,-1,1364,463,7.61189,29.9378
147,561,8.30542,-30.9806,0,0,0,0,0,0,0,-1,1371,463,8.30538,30.9806
154,561,8.98169,-31.9977,0,0,0,0,0,0,0,-1,1378,463,8.9817,31.9977
161,561,9.41711,-30.3617,0,0,0,0,0,0,0,-1,1385,463,9.41717,30.3617
168,561,10.4425,-30.6379,0,0,0,0,0,0,0,-1,1392,463,10.4425,30.6379
175,561,10.4185,0.276398,0,0,0,0,0,0,0,-1,1399,463,10.4185,-0.276394
182,561,6.45703,-4.02127,0,0,0,0,0,0,0,-1,1406,463,6.45704,4.02127
189,561,6.50854,-2.08685,0,0,0,0,0,0,0,-1,1413,463,6.50851,2.08686
196,561,6.44775,-0.27182,0,0,0,0,0,0,0,-1,1420,463,6.44773,0.271814
203,561,6.18591,1.1301,0,0,0,0,0,0,0,-1,1427,463,6.18592,-1.13009
210,561,5.68713,2.68427,0,0,0,0,0,0,0,-1,1434,463,5.6871,-2.68425
217,561,3.61743,-7.33582,0,0,0,0,0,0,0,-1,1441,463,3.61738,7.33581
224,561,4.27466,-8.59171,0,0,0,0,0,0,0,-1,1448,463,4.27466,8.59171
231,561,4.93188,-9.8476,0,0,0,0,0,0,0,-1,1455,463,4.93193,9.84761
238,561,2.18018,-5.18359,0,0,0,0,0,0,0,-1,1462,463,2.18023,5.18359
245,561,3.07568,-3.50238,0,0,0,0,0,0,0,-1,1469,463,3.0757,3.50238
252,561,3.47412,-3.71109,0,0,0,0,0,0,0,-1,1476,463,3.47413,3.71109
259,561,3.42212,-3.2334,0,0,0,0,0,0,0,-1,1483,463,3.42214,3.2334
266,561,4.44373,-5.90027,0,0,0,0,0,0,0,-1,1490,463,4.44372,5.90026
273,561,2.59485,-3.65268,0,0,0,0,0,0,0,-1,1497,463,2.5948,3.65268
280,561,3.10767,-6.38235,0,0,0,0,0,0,0,-1,1504,463,3.10766,6.38235
287,561,4.91809,-14.429,0,0,0,0,0,0,0,-1,1511,463,4.9181,14.429
294,561,8.53235,-30.2602,0,0,0,0,0,0,0,-1,1518,463,8.53239,30.2602
301,561,8.56665,-29.834,0,0,0,0,0,0,0,-1,1525,463,8.56666,29.834
308,561,8.5968,-29.5703,0.00272656,-0.00537009,-0.0035364,0.00405365,-0.00669718,-0.359003,0.00626924,0.0332671,1532,463,8.59676,29.5703
315,561,8.61023,-29.2787,0.00184506,-0.00563196,-0.0037863,0.0034275,-0.0072144,-0.395875,0.00627244,0.0192732,1539,463,8.61018,29.2787
322,561,8.59937,-28.9077,0.0011947,-0.00535275,-0.00361284,0.00279641,-0.00695447,-0.417301,0.00579778,0.0178291,1546,463,8.59935,28.9077
329,561,8.61682,-28.4409,0.000785554,-0.00479057,-0.00326326,0.0022896,-0.00629461,-0.431883,0.00513275,0.0134038,1553,463,8.61683,28.4409
336,561,8.64221,-27.9667,0.000469122,-0.0042082,-0.0028935,0.0018509,-0.00558997,-0.445523,0.00447313,0.0108571,1560,463,8.64219,27.9667
343,561,8.64648,-27.5302,0.0001052,-0.00357376,-0.00256881,0.00142522,-0.00489378,-0.474679,0.0038271,0.0100546,1567,463,8.64645,27.5302
350,561,8.64111,-27.0859,-0.000120205,-0.00278903,-0.00210422,0.00103705,-0.00394629,-0.502818,0.00303616,0.00951599,1574,463,8.64109,27.0859
357,561,8.63379,-26.6333,-0.000211918,-0.00194419,-0.00154092,0.000689609,-0.00284571,-0.52936,0.00216396,0.00958061,1581,463,8.63377,26.6333
364,561,8.60925,-26.1926,-0.000251021,-0.00100259,-0.000908113,0.000355988,-0.0016096,-0.589222,0.00120932,0.00916085,1588,463,8.60928,26.1926
371,561,8.57581,-25.7065,-0.000226994,-9.42072e-05,-0.000298886,0.000145571,-0.000466772,-0.894692,0.000369393,0.015534,1595,463,8.57575,25.7065
378,561,8.58411,-25.2314,-0.000183941,0.000829859,0.000265098,0.000894994,-0.000249077,1.32987,0.000694734,0.0121472,1602,463,8.58409,25.2314
385,561,8.59302,-24.7229,-0.000150127,0.00180346,0.000777279,0.00207498,-0.000421648,1.23473,0.00154319,0.0103762,1609,463,8.59302,24.7229
392,561,8.59485,-24.2112,4.75917e-06,0.00252673,0.00128837,0.00306852,-0.000537023,1.17273,0.00224619,0.0136127,1616,463,8.59481,24.2111
399,561,8.5769,-23.7524,0.000379004,0.00327841,0.0020324,0.00432516,-0.000667748,1.0952,0.00312986,0.0195875,1623,463,8.57687,23.7524
406,561,8.55371,-23.2375,0.000809028,0.00433933,0.003037,0.00608689,-0.00093853,1.04864,0.00440423,0.0179556,1630,463,8.55375,23.2375
413,561,8.52002,-22.7103,0.00103168,0.00513341,0.00384744,0.00744246,-0.00127737,1.03026,0.00543768,0.0174469,1637,463,8.51997,22.7103
420,561,8.50183,-22.1813,0.00144087,0.00598904,0.00434261,0.00861697,-0.00118706,1.0266,0.00617846,0.0144801,1644,463,8.50186,22.1813
427,561,8.49036,-21.6431,0.00192326,0.00711767,0.00476874,0.00995059,-0.000909667,1.03475,0.0069568,0.0115013,1651,463,8.4903,21.6431
434,561,8.47278,-21.0963,0.00254382,0.00828765,0.00541312,0.0115435,-0.000712054,1.02929,0.00794367,0.0133798,1658,463,8.47275,21.0963
441,561,8.45862,-20.5892,0.00317309,0.00950982,0.00596247,0.0130935,-0.000410549,1.02962,0.00886899,0.0157128,1665,463,8.45861,20.5892
448,561,8.46313,-20.0216,0.00362592,0.0109042,0.00629156,0.0145333,-3.15718e-06,1.0476,0.00968992,0.0222563,1672,463,8.46316,20.0216
455,561,8.59155,-19.4247,0.00404169,0.0122412,0.0063045,0.0156617,0.000621157,1.07369,0.0102404,0.0405371,1679,463,8.59155,19.4247
462,561,8.37048,-18.8901,0.0043616,0.0137852,0.0060489,0.0167409,0.00140592,1.11629,0.0107227,0.0399077,1686,463,8.37043,18.8901
469,561,8.13928,-18.4567,0.00443058,0.0151506,0.00538518,0.0173886,0.00219257,1.17693,0.0109351,0.0257281,1693,463,8.13924,18.4567
476,561,8.0918,-18.0406,0.00434493,0.016107,0.0042369,0.0174743,0.00297766,1.25864,0.0107947,0.0422778,1700,463,8.09176,18.0406
483,561,7.76917,-17.6181,0,0,0,0,0,0,0,-1,1707,463,7.76913,17.6181
490,561,7.63403,-17.1606,0,0,0,0,0,0,0,-1,1714,463,7.63403,17.1606
497,561,9.07434,-12.3982,0,0,0,0,0,0,0,-1,1721,463,9.07437,12.3982
504,561,10.0769,-0.811401,0,0,0,0,0,0,0,-1,1728,463,10.0769,0.8114
511,561,0,0,0,0,0,0,0,0,0,-1,1735,463,0,0
518,561,0,0,0,0,0,0,0,0,0,-1,1742,463,0,0
525,561,0,0,0,0,0,0,0,0,0,-1,1749,463,0,0
532,561,0,0,0,0,0,0,0,0,0,-1,1756,463,0,0
539,561,0,0,0,0,0,0,0,0,0,-1,1763,463,0,0
546,561,0,0,0,0,0,0,0,0,0,-1,1770,463,0,0
553,561,0,0,0,0,0,0,0,0,0,-1,1777,463,0,0
560,561,0,0,0,0,0,0,0,0,0,-1,1784,463,0,0
567,561,0,0,0,0,0,0,0,0,0,-1,1791,463,0,0
574,561,0,0,0,0,0,0,0,0,0,-1,1798,463,0,0
581,561,0,0,0,0,0,0,0,0,0,-1,1805,463,0,0
588,561,0,0,0,0,0,0,0,0,0,-1,1812,463,0,0
595,561,0,0,0,0,0,0,0,0,0,-1,1819,463,0,0
602,561,0,0,0,0,0,0,0,0,0,-1,1826,463,0,0
609,561,0,0,0,0,0,0,0,0,0,-1,1833,463,0,0
616,561,0,0,0,0,0,0,0,0,0,-1,1840,463,0,0
623,561,0,0,0,0,0,0,0,0,0,-1,1847,463,0,0
630,561,0,0,0,0,0,0,0,0,0,-1,1854,463,0,0
637,561,0,0,0,0,0,0,0,0,0,-1,1861,463,0,0
644,561,0,0,0,0,0,0,0,0,0,-1,1868,463,0,0
651,561,0,0,0,0,0,0,0,0,0,-1,1875,463,0,0
658,561,0,0,0,0,0,0,0,0,0,-1,1882,463,0,0
665,561,0,0,0,0,0,0,0,0,0,-1,1889,463,0,0
672,561,0,0,0,0,0,0,0,0,0,-1,1896,463,0,0
679,561,0,0,0,0,0,0,0,0,0,-1,1903,463,0,0
686,561,0,0,0,0,0,0,0,0,0,-1,1910,463,0,0
693,561,0,0,0,0,0,0,0,0,0,-1,1917,463,0,0
700,561,0,0,0,0,0,0,0,0,0,-1,1924,463,0,0
707,561,0,0,0,0,0,0,0,0,0,-1,1931,463,0,0
714,561,0,0,0,0,0,0,0,0,0,-1,1938,463,0,0
721,561,0,0,0,0,0,0,0,0,0,-1,1945,463,0,0
728,561,0,0,0,0,0,0,0,0,0,-1,1952,463,0,0
735,561,0,0,0,0,0,0,0,0,0,-1,1959,463,0,0
742,561,0,0,0,0,0,0,0,0,0,-1,1966,463,0,0
749,561,0,0,0,0,0,0,0,0,0,-1,1973,463,0,0
756,561,0,0,0,0,0,0,0,0,0,-1,1980,463,0,0
763,561,0,0,0,0,0,0,0,0,0,-1,1987,463,0,0
770,561,0,0,0,0,0,0,0,0,0,-1,1994,463,0,0
777,561,0,0,0,0,0,0,0,0,0,-1,2001,463,0,0
784,561,0,0,0,0,0,0,0,0,0,-1,2008,463,0,0
791,561,0,0,0,0,0,0,0,0,0,-1,2015,463,0,0
798,561,0,0,0,0,0,0,0,0,0,-1,2022,463,0,0
805,561,0,0,0,0,0,0,0,0,0,-1,2029,463,0,0
812,561,0,0,0,0,0,0,0,0,0,-1,2036,463,0,0
-700,554,0,0,0,0,0,0,0,0,0,-1,524,470,0,0
-693,554,0,0,0,0,0,0,0,0,0,-1,531,470,0,0
-686,554,0,0,0,0,0,0,0,0,0,-1,538,470,0,0
-679,554,0,0,0,0,0,0,0,0,0,-1,545,470,0,0
-672,554,0,0,0,0,0,0,0,0,0,-1,552,470,0,0
-665,554,0,0,0,0,0,0,0,0,0,-1,559,470,0,0
-658,554,0,0,0,0,0,0,0,0,0,-1,566,470,0,0
-651,554,0,0,0,0,0,0,0,0,0,-1,573,470,0,0
-644,554,0,0,0,0,0,0,0,0,0,-1,580,470,0,0
-637,554,0,0,0,0,0,0,0,0,0,-1,587,470,0,0
-630,554,0,0,0,0,0,0,0,0,0,-1,594,470,0,0
-623,554,0,0,0,0,0,0,0,0,0,-1,601,470,0,0
-616,554,0,0,0,0,0,0,0,0,0,-1,608,470,0,0
-609,554,0,0,0,0,0,0,0,0,0,-1,615,470,0,0
-602,554,0,0,0,0,0,0,0,0,0,-1,622,470,0,0
-595,554,0,0,0,0,0,0,0,0,0,-1,629,470,0,0
-588,554,0,0,0,0,0,0,0,0,0,-1,636,470,0,0
-581,554,0,0,0,0,0,0,0,0,0,-1,643,470,0,0
-574,554,0,0,0,0,0,0,0,0,0,-1,650,470,0,0
-567,554,0,0,0,0,0,0,0,0,0,-1,657,470,0,0
-560,554,0,0,0,0,0,0,0,0,0,-1,664,470,0,0
-553,554,0,0,0,0,0,0,0,0,0,-1,671,470,0,0
-546,554,0,0,0,0,0,0,0,0,0,-1,678,470,0,0
-539,554,0,0,0,0,0,0,0,0,0,-1,685,470,0,0
-532,554,0,0,0,0,0,0,0,0,0,-1,692,470,0,0
-525,554,0,0,0,0,0,0,0,0,0,-1,699,470,0,0
-518,554,0,0,0,0,0,0,0,0,0,-1,706,470,0,0
-511,554,0,0,0,0,0,0,0,0,0,-1,713,470,0,0
-504,554,0,0,0,0,0,0,0,0,0,-1,720,470,0,0
-497,554,0,0,0,0,0,0,0,0,0,-1,727,470,0,0
-490,554,0,0,0,0,0,0,0,0,0,-1,734,470,0,0
-483,554,0,0,0,0,0,0,0,0,0,-1,741,470,0,0
-476,554,0,0,0,0,0,0,0,0,0,-1,748,470,0,0
-469,554,0,0,0,0,0,0,0,0,0,-1,755,470,0,0
-462,554,0,0,0,0,0,0,0,0,0,-1,762,470,0,0
-455,554,0,0,0,0,0,0,0,0,0,-1,769,470,0,0
-448,554,0,0,0,0,0,0,0,0,0,-1,776,470,0,0
-441,554,0,0,0,0,0,0,0,0,0,-1,783,470,0,0
-434,554,0,0,0,0,0,0,0,0,0,-1,790,470,0,0
-427,554,0,0,0,0,0,0,0,0,0,-1,797,470,0,0
-420,554,0,0,0,0,0,0,0,0,0,-1,804,470,0,0
-413,554,0,0,0,0,0,0,0,0,0,-1,811,470,0,0
-406,554,0,0,0,0,0,0,0,0,0,-1,818,470,0,0
-399,554,-1.32275,-3.95142,0,0,0,0,0,0,0,-1,825,470,-1.32275,3.95141
-392,554,-1.35632,-3.7406,0,0,0,0,0,0,0,-1,832,470,-1.35632,3.7406
-385,554,-0.849243,-4.14447,0,0,0,0,0,0,0,-1,839,470,-0.849262,4.14446
-378,554,-0.982666,-4.55084,0,0,0,0,0,0,0,-1,846,470,-0.982671,4.55084
-371,554,-1.74542,-4.63467,0,0,0,0,0,0,0,-1,853,470,-1.74541,4.63468
-364,554,1.04883,-7.68756,0,0,0,0,0,0,0,-1,860,470,1.0488,7.68757
-357,554,1.06714,-11.5403,0,0,0,0,0,0,0,-1,867,470,1.06715,11.5403
-350,554,1.17157,-18.1341,0,0,0,0,0,0,0,-1,874,470,1.17156,18.1341
-343,554,1.26563,-19.6612,0,0,0,0,0,0,0,-1,881,470,1.26562,19.6612
-336,554,1.17657,-20.0786,-0.00281675,0.0126417,-0.00604596,0.0147255,-0.0049005,-1.23889,0.0117949,0.0432925,888,470,1.17659,20.0785
-329,554,1.06464,-20.7018,-0.00369325,0.0111724,-0.00521137,0.0128173,-0.00533816,-1.26505,0.0107744,0.0207964,895,470,1.06463,20.7019
-322,554,1.01044,-21.2459,-0.00425997,0.00950394,-0.00437238,0.0107755,-0.00553148,-1.2878,0.00957571,0.0133567,902,470,1.01046,21.2459
-315,554,1.01971,-21.7481,-0.00414535,0.00821548,-0.00384091,0.00931175,-0.00524161,-1.29277,0.00851122,0.012881,909,470,1.0197,21.7481
-308,554,1.00861,-22.2584,-0.00369649,0.00719623,-0.00341687,0.00817933,-0.00467958,-1.29065,0.00751519,0.0135875,916,470,1.0086,22.2584
-301,554,0.999268,-22.7928,-0.00311679,0.00597171,-0.00293087,0.00683488,-0.00397996,-1.28438,0.00631605,0.0141347,923,470,0.999287,22.7927
-294,554,0.95459,-23.2947,-0.00243608,0.00470731,-0.00233492,0.0054028,-0.00313157,-1.2813,0.00498514,0.0131269,930,470,0.954613,23.2947
-287,554,0.927795,-23.7714,-0.00176236,0.00359384,-0.00174229,0.00411071,-0.00227923,-1.28241,0.0037394,0.0124455,937,470,0.927772,23.7714
-280,554,0.913879,-24.2399,-0.0011235,0.00264826,-0.00121332,0.00300486,-0.0014801,-1.28495,0.0026388,0.0116819,944,470,0.913909,24.2399
-273,554,0.878723,-24.7187,-0.000734776,0.00182808,-0.000768114,0.00204066,-0.000947354,-1.3008,0.0017632,0.0150527,951,470,0.878735,24.7187
-266,554,0.856873,-25.1961,-9.67833e-05,0.000620194,-0.000410544,0.000806738,-0.000283327,-1.1443,0.000653085,0.0124754,958,470,0.856854,25.1961
-259,554,0.85553,-25.6423,0.000456063,-0.000233859,0.000137218,0.000482352,-0.000260148,0.189295,0.000435035,0.0127011,965,470,0.855517,25.6423
-252,554,0.829163,-26.0854,0.000864307,-0.00151784,0.000723668,0.00106692,-0.00172045,0.272986,0.00162396,0.0151313,972,470,0.829165,26.0854
-245,554,0.813721,-26.5584,0.00121562,-0.00278825,0.00121111,0.00155345,-0.00312608,0.272033,0.00275212,0.0153226,979,470,0.813718,26.5584
-238,554,0.831238,-27.0385,0.00161074,-0.00420833,0.00166792,0.00205491,-0.0046525,0.260263,0.00396815,0.0112756,986,470,0.831237,27.0384
-231,554,0.844971,-27.4967,0.00197208,-0.00566964,0.00213346,0.00252736,-0.00622492,0.254624,0.00520127,0.0106668,993,470,0.844956,27.4967
-224,554,0.857727,-27.9058,0.00240935,-0.00732786,0.00272022,0.00311775,-0.00803625,0.254759,0.00664519,0.0107385,1000,470,0.857725,27.9058
-217,554,0.87207,-28.3196,0.00290899,-0.00924371,0.00312721,0.00366649,-0.0100012,0.23765,0.00816868,0.0104341,1007,470,0.87206,28.3196
-210,554,0.866272,-28.7473,0.00350209,-0.0109544,0.00329229,0.00421656,-0.0116688,0.2137,0.00950189,0.0145986,1014,470,0.866287,28.7473
-203,554,0.859131,-29.0929,0.00443099,-0.0119722,0.0030164,0.00496809,-0.0125093,0.176214,0.0103989,0.0246642,1021,470,0.859149,29.0929
-196,554,0.816772,-29.3196,0.00533639,-0.0130367,0.00281388,0.00575768,-0.013458,0.148615,0.0113872,0.0317469,1028,470,0.81677,29.3196
-189,554,0.904053,-29.6395,0.00616444,-0.0144835,0.00254063,0.00647246,-0.0147915,0.120648,0.012586,0.0399756,1035,470,0.904003,29.6395
-182,554,0.959229,-30.1421,0,0,0,0,0,0,0,-1,1042,470,0.959172,30.1421
-175,554,0.863647,-30.4168,0,0,0,0,0,0,0,-1,1049,470,0.863692,30.4168
-168,554,1.4126,-30.6961,0,0,0,0,0,0,0,-1,1056,470,1.41257,30.6961
-161,554,1.2052,-31.2634,0,0,0,0,0,0,0,-1,1063,470,1.20521,31.2634
-154,554,1.56042,-32.1469,0,0,0,0,0,0,0,-1,1070,470,1.56038,32.1469
-147,554,1.72546,-31.2171,0,0,0,0,0,0,0,-1,1077,470,1.72546,31.2171
-140,554,3.14563,-26.981,0,0,0,0,0,0,0,-1,1084,470,3.14569,26.981
-133,554,2.422,-32.2281,0,0,0,0,0,0,0,-1,1091,470,2.42197,32.2281
-126,554,1.76379,-32.0261,0,0,0,0,0,0,0,-1,1098,470,1.76376,32.0261
-119,554,1.50964,-29.6382,0,0,0,0,0,0,0,-1,1105,470,1.5096,29.6383
-112,554,1.03162,-24.5784,0,0,0,0,0,0,0,-1,1112,470,1.03156,24.5784
-105,554,0.608765,-21.0475,0,0,0,0,0,0,0,-1,1119,470,0.608728,21.0475
-98,554,1.51929,-7.3624,0,0,0,0,0,0,0,-1,1126,470,1.51928,7.36241
-91,554,1.41089,-6.5864,0,0,0,0,0,0,0,-1,1133,470,1.41093,6.58638
-84,554,1.62305,-5.87186,0,0,0,0,0,0,0,-1,1140,470,1.62299,5.87186
-77,554,-2.56958,1.33258,0,0,0,0,0,0,0,-1,1147,470,-2.56959,-1.33257
-70,554,-3.68164,-1.18332,0,0,0,0,0,0,0,-1,1154,470,-3.68158,1.18331
-63,554,-4.86853,-3.88708,0,0,0,0,0,0,0,-1,1161,470,-4.86853,3.88708
-56,554,-5.69958,-6.45422,0,0,0,0,0,0,0,-1,1168,470,-5.69955,6.45422
-49,554,-6.23645,-8.8569,0,0,0,0,0,0,0,-1,1175,470,-6.23643,8.85689
-42,554,-6.62524,-11.5382,0,0,0,0,0,0,0,-1,1182,470,-6.62522,11.5382
-35,554,-2.40173,-4.59482,0,0,0,0,0,0,0,-1,1189,470,-2.40169,4.59481
-28,554,-0.760132,-1.65555,0,0,0,0,0,0,0,-1,1196,470,-0.760095,1.65556
-21,554,-6.11462,-31.9121,0,0,0,0,0,0,0,-1,1203,470,-6.11458,31.9122
-14,554,2.19788,-34.4213,0,0,0,0,0,0,0,-1,1210,470,2.19784,34.4213
-7,554,0.0767822,-33.0583,0,0,0,0,0,0,0,-1,1217,470,0.076815,33.0583
0,554,3.71729,-46.879,0,0,0,0,0,0,0,-1,1224,470,3.71733,46.8791
7,554,-1.46704,-34.7722,0,0,0,0,0,0,0,-1,1231,470,-1.46699,34.7722
14,554,4.75671,-43.9092,0,0,0,0,0,0,0,-1,1238,470,4.75674,43.9092
21,554,-1.95618,-34.2476,0,0,0,0,0,0,0,-1,1245,470,-1.95622,34.2475
28,554,-1.79614,-33.6543,0.00669743,-0.017395,0.154169,0.149291,-0.159988,0.746409,0.178598,0.0437084,1252,470,-1.79619,33.6543
35,554,-1.52869,-33.1151,0.00400945,-0.0194371,0.165888,0.158588,-0.174015,0.750122,0.192097,0.0406369,1259,470,-1.52867,33.1152
42,554,-1.17566,-32.1064,0.00283445,-0.0203318,0.177206,0.168836,-0.186333,0.752762,0.20514,0.0408315,1266,470,-1.17564,32.1064
49,554,-5.01807,-29.5174,0.0017651,-0.0203611,0.18525,0.176282,-0.194878,0.755574,0.214379,0.0478599,1273,470,-5.01811,29.5174
56,554,-4.77332,-29.1334,0,0,0,0,0,0,0,-1,1280,470,-4.77335,29.1334
63,554,-4.51575,-28.7683,-0.000560713,-0.0172908,0.197011,0.188263,-0.206115,0.764181,0.227772,0.0431204,1287,470,-4.51575,28.7684
70,554,-4.42114,-28.2081,-0.00276761,-0.0131412,0.200362,0.192475,-0.208384,0.772458,0.231496,0.0445181,1294,470,-4.42109,28.2081
77,554,-2.64514,-27.54,-0.00658085,-0.00748231,0.202083,0.195052,-0.209115,0.784283,0.233393,0.0454009,1301,470,-2.64509,27.54
84,554,-3.3811,-27.1196,-0.0127493,0.000351344,0.202885,0.196792,-0.20919,0.801535,0.23443,0.0459935,1308,470,-3.38112,27.1196
91,554,-3.63464,-26.1403,-0.0215479,0.0111819,0.200791,0.196274,-0.20664,0.826059,0.232648,0.0446326,1315,470,-3.6346,26.1403
98,554,-3.85767,-25.2145,-0.0320888,0.0251007,0.195611,0.194196,-0.201184,0.857975,0.228285,0.0468445,1322,470,-3.85768,25.2145
105,554,-4.51196,-24.5932,0,0,0,0,0,0,0,-1,1329,470,-4.51198,24.5932
112,554,-5.33459,-23.815,-0.0635014,0.0540936,0.179371,0.184058,-0.193466,0.943779,0.217986,0.0438424,1336,470,-5.33456,23.815
119,554,-5.94385,-23.0547,0,0,0,0,0,0,0,-1,1343,470,-5.94385,23.0547
126,554,-6.46826,-21.9065,0,0,0,0,0,0,0,-1,1350,470,-6.46828,21.9065
133,554,-6.9967,-20.7496,0,0,0,0,0,0,0,-1,1357,470,-6.99665,20.7496
140,554,7.38538,-29.6203,0,0,0,0,0,0,0,-1,1364,470,7.38532,29.6203
147,554,8.12561,-30.7091,0,0,0,0,0,0,0,-1,1371,470,8.12557,30.7091
154,554,9.43494,-30.4296,0,0,0,0,0,0,0,-1,1378,470,9.43493,30.4296
161,554,10.1082,-30.5726,0,0,0,0,0,0,0,-1,1385,470,10.1081,30.5726
168,554,10.8447,-30.7538,0,0,0,0,0,0,0,-1,1392,470,10.8448,30.7537
175,554,10.663,0.286957,0,0,0,0,0,0,0,-1,1399,470,10.663,-0.286966
182,554,6.71106,-4.50217,0,0,0,0,0,0,0,-1,1406,470,6.71107,4.50215
189,554,6.90479,-2.50348,0,0,0,0,0,0,0,-1,1413,470,6.90477,2.50348
196,554,6.96216,-0.740906,0,0,0,0,0,0,0,-1,1420,470,6.96214,0.740912
203,554,6.43518,0.414154,0,0,0,0,0,0,0,-1,1427,470,6.43523,-0.414141
210,554,6.21167,1.96707,0,0,0,0,0,0,0,-1,1434,470,6.21165,-1.96706
217,554,5.64551,3.4989,0,0,0,0,0,0,0,-1,1441,470,5.64555,-3.49891
224,554,4.85144,-8.85172,0,0,0,0,0,0,0,-1,1448,470,4.85146,8.85173
231,554,3.25073,-5.29642,0,0,0,0,0,0,0,-1,1455,470,3.25078,5.29642
238,554,4.28625,-3.25253,0,0,0,0,0,0,0,-1,1462,470,4.28622,3.25252
245,554,4.0752,-2.90033,0,0,0,0,0,0,0,-1,1469,470,4.07515,2.90032
252,554,3.52112,-0.934998,0,0,0,0,0,0,0,-1,1476,470,3.52113,0.934996
259,554,3.96448,-2.16425,0,0,0,0,0,0,0,-1,1483,470,3.96446,2.16424
266,554,3.0592,-2.71716,0,0,0,0,0,0,0,-1,1490,470,3.05923,2.71718
273,554,2.58521,-3.06876,0,0,0,0,0,0,0,-1,1497,470,2.58524,3.06874
280,554,2.83301,-0.991699,0,0,0,0,0,0,0,-1,1504,470,2.83303,0.991704
287,554,3.54126,-4.12277,0,0,0,0,0,0,0,-1,1511,470,3.54123,4.12277
294,554,3.62036,-8.50146,0,0,0,0,0,0,0,-1,1518,470,3.62031,8.50145
301,554,8.6012,-28.8787,0,0,0,0,0,0,0,-1,1525,470,8.60124,28.8786
308,554,9.04907,-29.4601,0,0,0,0,0,0,0,-1,1532,470,9.04912,29.4601
315,554,9.09888,-29.2469,0,0,0,0,0,0,0,-1,1539,470,9.09887,29.2469
322,554,8.97021,-28.5409,0,0,0,0,0,0,0,-1,1546,470,8.97023,28.5409
329,554,9.06592,-28.1673,0.000206676,-0.00684557,-0.00477064,0.00261288,-0.00925178,-0.467144,0.00719865,0.0407771,1553,470,9.06594,28.1673
336,554,9.0553,-27.9187,-7.08082e-05,-0.0061695,-0.00434191,0.00218557,-0.00842588,-0.479262,0.00647001,0.0256473,1560,470,9.05531,27.9187
343,554,9.05933,-27.5416,-0.000437552,-0.00545653,-0.00398809,0.0017649,-0.00765898,-0.504575,0.00578474,0.0147896,1567,470,9.05937,27.5416
350,554,9.09338,-27.0696,-0.00063036,-0.00466963,-0.00348794,0.00138047,-0.00668046,-0.522968,0.00497802,0.0103902,1574,470,9.09332,27.0696
357,554,9.10315,-26.6176,-0.000641602,-0.00379877,-0.00287237,0.00105738,-0.00549775,-0.534139,0.00406374,0.0112609,1581,470,9.10313,26.6176
364,554,9.08423,-26.1842,-0.000596462,-0.00279711,-0.00217426,0.000740035,-0.00413361,-0.551152,0.00303267,0.00865408,1588,470,9.08425,26.1842
371,554,9.06775,-25.7139,-0.000464942,-0.00183572,-0.00149877,0.000497721,-0.00279839,-0.570944,0.00205172,0.00845694,1595,470,9.06779,25.7139
378,554,9.08093,-25.2129,-0.000306721,-0.000826263,-0.000848565,0.000320944,-0.00145393,-0.636863,0.0010921,0.0103364,1602,470,9.08099,25.2129
385,554,9.08679,-24.7066,-0.000162755,0.000289277,-0.000206171,0.000369185,-0.000242663,-1.20104,0.000355759,0.00986342,1609,470,9.08674,24.7066
392,554,9.073,-24.2129,3.39724e-05,0.00110541,0.000379532,0.00122622,-8.6845e-05,1.26261,0.000847914,0.0128934,1616,470,9.07295,24.2129
399,554,9.05835,-23.7091,0.000366757,0.00184332,0.00108309,0.00241582,-0.000205746,1.08455,0.00168333,0.0174552,1623,470,9.05837,23.7091
406,554,9.02209,-23.2085,0.000706321,0.00281789,0.00194968,0.0039793,-0.000455084,1.03355,0.00281684,0.0163967,1630,470,9.02207,23.2085
413,554,9.02344,-22.6696,0.000905743,0.0036344,0.00271117,0.00530517,-0.000765028,1.01851,0.00381743,0.0155583,1637,470,9.02344,22.6696
420,554,9.02014,-22.1758,0.00125169,0.00443192,0.00323236,0.00644411,-0.000760505,1.01399,0.00457071,0.0163957,1644,470,9.02012,22.1758
427,554,9.00049,-21.6537,0.0016065,0.00534437,0.00363875,0.00756609,-0.000615215,1.02264,0.00526113,0.0116699,1651,470,9.00053,21.6538
434,554,8.95569,-21.1301,0.00204206,0.00623756,0.00418171,0.0088182,-0.000538575,1.01788,0.0060663,0.0101478,1658,470,8.95572,21.1301
441,554,8.9436,-20.5972,0.00247366,0.00713066,0.00465462,0.0100067,-0.000402399,1.01732,0.00680924,0.0116067,1665,470,8.9436,20.5972
448,554,8.91064,-20.0206,0.00277272,0.00814696,0.0049786,0.0111173,-0.00019764,1.03286,0.00747829,0.0176923,1672,470,8.91067,20.0206
455,554,8.8717,-19.4765,0.00307125,0.00907877,0.00506658,0.0119651,0.000184946,1.05297,0.00791579,0.0185379,1679,470,8.87171,19.4765
462,554,8.79993,-18.9693,0.00330688,0.0100205,0.00498132,0.0126705,0.00065688,1.08189,0.00823678,0.01987,1686,470,8.79997,18.9693
469,554,8.76001,-18.4512,0.0033491,0.0107309,0.0045975,0.0129357,0.00114426,1.12362,0.00826884,0.0244082,1693,470,8.75997,18.4512
476,554,8.74988,-17.951,0.0032827,0.0110141,0.00389691,0.0126374,0.00165936,1.17609,0.00792991,0.0428624,1700,470,8.74988,17.951
483,554,8.75354,-17.4948,0,0,0,0,0,0,0,-1,1707,470,8.75354,17.4948
490,554,11.1191,-11.7417,0,0,0,0,0,0,0,-1,1714,470,11.1192,11.7417
497,554,10.9613,1.60983,0,0,0,0,0,0,0,-1,1721,470,10.9613,-1.60982
504,554,2.13257,-3.81628,0,0,0,0,0,0,0,-1,1728,470,2.1326,3.8163
511,554,1.31396,-4.02713,0,0,0,0,0,0,0,-1,1735,470,1.31398,4.02712
518,554,5.04236,-5.9472,0,0,0,0,0,0,0,-1,1742,470,5.04231,5.94721
525,554,0,0,0,0,0,0,0,0,0,-1,1749,470,0,0
532,554,0,0,0,0,0,0,0,0,0,-1,1756,470,0,0
539,554,0,0,0,0,0,0,0,0,0,-1,1763,470,0,0
546,554,0,0,0,0,0,0,0,0,0,-1,1770,470,0,0
553,554,0,0,0,0,0,0,0,0,0,-1,1777,470,0,0
560,554,0,0,0,0,0,0,0,0,0,-1,1784,470,0,0
567,554,0,0,0,0,0,0,0,0,0,-1,1791,470,0,0
574,554,0,0,0,0,0,0,0,0,0,-1,1798,470,0,0
581,554,0,0,0,0,0,0,0,0,0,-1,1805,470,0,0
588,554,0,0,0,0,0,0,0,0,0,-1,1812,470,0,0
595,554,0,0,0,0,0,0,0,0,0,-1,1819,470,0,0
602,554,0,0,0,0,0,0,0,0,0,-1,1826,470,0,0
609,554,0,0,0,0,0,0,0,0,0,-1,1833,470,0,0
616,554,0,0,0,0,0,0,0,0,0,-1,1840,470,0,0
623,554,0,0,0,0,0,0,0,0,0,-1,1847,470,0,0
630,554,0,0,0,0,0,0,0,0,0,-1,1854,470,0,0
637,554,0,0,0,0,0,0,0,0,0,-1,1861,470,0,0
644,554,0,0,0,0,0,0,0,0,0,-1,1868,470,0,0
651,554,0,0,0,0,0,0,0,0,0,-1,1875,470,0,0
658,554,0,0,0,0,0,0,0,0,0,-1,1882,470,0,0
665,554,0,0,0,0,0,0,0,0,0,-1,1889,470,0,0
672,554,0,0,0,0,0,0,0,0,0,-1,1896,470,0,0
679,554,0,0,0,0,0,0,0,0,0,-1,1903,470,0,0
686,554,0,0,0,0,0,0,0,0,0,-1,1910,470,0,0
693,554,0,0,0,0,0,0,0,0,0,-1,1917,470,0,0
700,554,0,0,0,0,0,0,0,0,0,-1,1924,470,0,0
707,554,0,0,0,0,0,0,0,0,0,-1,1931,470,0,0
714,554,0,0,0,0,0,0,0,0,0,-1,1938,470,0,0
721,554,0,0,0,0,0,0,0,0,0,-1,1945,470,0,0
728,554,0,0,0,0,0,0,0,0,0,-1,1952,470,0,0
735,554,0,0,0,0,0,0,0,0,0,-1,1959,470,0,0
742,554,0,0,0,0,0,0,0,0,0,-1,1966,470,0,0
749,554,0,0,0,0,0,0,0,0,0,-1,1973,470,0,0
756,554,0,0,0,0,0,0,0,0,0,-1,1980,470,0,0
763,554,0,0,0,0,0,0,0,0,0,-1,1987,470,0,0
770,554,0,0,0,0,0,0,0,0,0,-1,1994,470,0,0
777,554,0,0,0,0,0,0,0,0,0,-1,2001,470,0,0
784,554,0,0,0,0,0,0,0,0,0,-1,2008,470,0,0
791,554,0,0,0,0,0,0,0,0,0,-1,2015,470,0,0
798,554,0,0,0,0,0,0,0,0,0,-1,2022,470,0,0
805,554,0,0,0,0,0,0,0,0,0,-1,2029,470,0,0
812,554,0,0,0,0,0,0,0,0,0,-1,2036,470,0,0
-700,547,0,0,0,0,0,0,0,0,0,-1,524,477,0,0
-693,547,0,0,0,0,0,0,0,0,0,-1,531,477,0,0
-686,547,0,0,0,0,0,0,0,0,0,-1,538,477,0,0
-679,547,0,0,0,0,0,0,0,0,0,-1,545,477,0,0
-672,547,0,0,0,0,0,0,0,0,0,-1,552,477,0,0
-665,547,0,0,0,0,0,0,0,0,0,-1,559,477,0,0
-658,547,0,0,0,0,0,0,0,0,0,-1,566,477,0,0
-651,547,0,0,0,0,0,0,0,0,0,-1,573,477,0,0
-644,547,0,0,0,0,0,0,0,0,0,-1,580,477,0,0
-637,547,0,0,0,0,0,0,0,0,0,-1,587,477,0,0
-630,547,0,0,0,0,0,0,0,0,0,-1,594,477,0,0
-623,547,0,0,0,0,0,0,0,0,0,-1,601,477,0,0
-616,547,0,0,0,0,0,0,0,0,0,-1,608,477,0,0
-609,547,0,0,0,0,0,0,0,0,0,-1,615,477,0,0
-602,547,0,0,0,0,0,0,0,0,0,-1,622,477,0,0
-595,547,0,0,0,0,0,0,0,0,0,-1,629,477,0,0
-588,547,0,0,0,0,0,0,0,0,0,-1,636,477,0,0
-581,547,0,0,0,0,0,0,0,0,0,-1,643,477,0,0
-574,547,0,0,0,0,0,0,0,0,0,-1,650,477,0,0
-567,547,0,0,0,0,0,0,0,0,0,-1,657,477,0,0
-560,547,0,0,0,0,0,0,0,0,0,-1,664,477,0,0
-553,547,0,0,0,0,0,0,0,0,0,-1,671,477,0,0
-546,547,0,0,0,0,0,0,0,0,0,-1,678,477,0,0
-539,547,0,0,0,0,0,0,0,0,0,-1,685,477,0,0
-532,547,0,0,0,0,0,0,0,0,0,-1,692,477,0,0
-525,547,0,0,0,0,0,0,0,0,0,-1,699,477,0,0
-518,547,0,0,0,0,0,0,0,0,0,-1,706,477,0,0
-511,547,0,0,0,0,0,0,0,0,0,-1,713,477,0,0
-504,547,0,0,0,0,0,0,0,0,0,-1,720,477,0,0
-497,547,0,0,0,0,0,0,0,0,0,-1,727,477,0,0
-490,547,0,0,0,0,0,0,0,0,0,-1,734,477,0,0
-483,547,0,0,0,0,0,0,0,0,0,-1,741,477,0,0
-476,547,0,0,0,0,0,0,0,0,0,-1,748,477,0,0
-469,547,0,0,0,0,0,0,0,0,0,-1,755,477,0,0
-462,547,0,0,0,0,0,0,0,0,0,-1,762,477,0,0
-455,547,0,0,0,0,0,0,0,0,0,-1,769,477,0,0
-448,547,0,0,0,0,0,0,0,0,0,-1,776,477,0,0
-441,547,0,0,0,0,0,0,0,0,0,-1,783,477,0,0
-434,547,0,0,0,0,0,0,0,0,0,-1,790,477,0,0
-427,547,0,0,0,0,0,0,0,0,0,-1,797,477,0,0
-420,547,0,0,0,0,0,0,0,0,0,-1,804,477,0,0
-413,547,0,0,0,0,0,0,0,0,0,-1,811,477,0,0
-406,547,0.144592,-11.0292,0,0,0,0,0,0,0,-1,818,477,0.144583,11.0292
-399,547,0.775513,-10.0294,0,0,0,0,0,0,0,-1,825,477,0.775482,10.0295
-392,547,-1.52271,-4.41675,0,0,0,0,0,0,0,-1,832,477,-1.52273,4.41674
-385,547,-1.73743,-4.6431,0,0,0,0,0,0,0,-1,839,477,-1.73743,4.64308
-378,547,-2.41339,-4.60071,0,0,0,0,0,0,0,-1,846,477,-2.41337,4.60071
-371,547,1.64569,-11.1445,0,0,0,0,0,0,0,-1,853,477,1.64569,11.1445
-364,547,0.271729,-4.58582,0,0,0,0,0,0,0,-1,860,477,0.271753,4.5858
-357,547,1.01337,-17.8671,0,0,0,0,0,0,0,-1,867,477,1.01337,17.8671
-350,547,0.78479,-18.4349,0,0,0,0,0,0,0,-1,874,477,0.784803,18.4349
-343,547,0.63501,-19.3571,0.000471168,0.01207,-0.00628633,0.0148235,-0.00228226,-1.15796,0.0107243,0.0466743,881,477,0.635019,19.3571
-336,547,0.662292,-20.1353,-0.000968722,0.0106191,-0.00515488,0.0125804,-0.00292995,-1.20725,0.00951514,0.0192249,888,477,0.662299,20.1353
-329,547,0.580383,-20.7019,-0.00180203,0.00922847,-0.00429878,0.0107059,-0.00327945,-1.23976,0.00844539,0.0110118,895,477,0.580391,20.7019
-322,547,0.550293,-21.2311,-0.00245322,0.00770379,-0.00343485,0.00875631,-0.00350573,-1.27346,0.00729263,0.0111881,902,477,0.550265,21.2311
-315,547,0.517517,-21.7691,-0.00247936,0.00650936,-0.00287642,0.00735101,-0.00332101,-1.28614,0.00630623,0.00987475,909,477,0.517534,21.7691
-308,547,0.50885,-22.2737,-0.0021879,0.00555918,-0.00243153,0.00625911,-0.00288783,-1.29052,0.00539923,0.0114557,916,477,0.508834,22.2737
-301,547,0.504822,-22.7872,-0.00180182,0.00437919,-0.00192782,0.00493117,-0.0023538,-1.29193,0.00429283,0.0114274,923,477,0.504827,22.7872
-294,547,0.471558,-23.282,-0.00129652,0.00318507,-0.00135646,0.00356366,-0.00167511,-1.29862,0.00308942,0.0104443,930,477,0.471572,23.282
-287,547,0.447693,-23.763,-0.000769527,0.00211555,-0.000791983,0.00231866,-0.000972635,-1.31975,0.00195248,0.0120456,937,477,0.447695,23.763
-280,547,0.44635,-24.2465,-0.000277513,0.0011938,-0.000278249,0.00124466,-0.000328376,-1.39,0.000958175,0.0126776,944,477,0.446353,24.2465
-273,547,0.412659,-24.7203,7.38232e-05,0.000325401,0.000206271,0.000441212,-4.19882e-05,1.0592,0.00030909,0.0121528,951,477,0.412681,24.7203
-266,547,0.37793,-25.1853,0.000517349,-0.000844101,0.000574911,0.00072764,-0.00105439,0.350663,0.00103461,0.0121821,958,477,0.377944,25.1853
-259,547,0.377197,-25.633,0.000928523,-0.00165395,0.00102279,0.00128452,-0.00200995,0.334953,0.00191737,0.011267,965,477,0.377178,25.633
-252,547,0.399963,-26.0988,0.00126778,-0.00308218,0.00159541,0.00179018,-0.00360459,0.316438,0.00317285,0.0109666,972,477,0.399949,26.0988
-245,547,0.408081,-26.5658,0.00159169,-0.00443259,0.00208472,0.00224275,-0.00508366,0.302704,0.00433461,0.0116647,979,477,0.408063,26.5658
-238,547,0.394165,-27.0291,0.00202058,-0.00590743,0.00250587,0.00274621,-0.00663307,0.281864,0.00556797,0.00864027,986,477,0.394191,27.0291
-231,547,0.386414,-27.4708,0.00242002,-0.0074678,0.0029613,0.00323906,-0.00828684,0.269834,0.00686391,0.0085233,993,477,0.386386,27.4708
-224,547,0.407471,-27.8631,0.0028836,-0.00927995,0.00356405,0.00385097,-0.0102473,0.265039,0.00841427,0.011577,1000,477,0.407464,27.8631
-217,547,0.431091,-28.2643,0.00344788,-0.0114564,0.00396372,0.00443644,-0.0124449,0.244417,0.0101054,0.0199546,1007,477,0.431101,28.2643
-210,547,0.420105,-28.5583,0.00413161,-0.01335,0.0040554,0.00502656,-0.014245,0.217202,0.0115429,0.0352726,1014,477,0.420109,28.5583
-203,547,0.447144,-28.524,0.005218,-0.0144121,0.00359314,0.00585502,-0.0150491,0.175466,0.0124521,0.0458565,1021,477,0.447144,28.5241
-196,547,0.419556,-28.5112,0,0,0,0,0,0,0,-1,1028,477,0.41952,28.5112
-189,547,0.521606,-29.3286,0,0,0,0,0,0,0,-1,1035,477,0.521603,29.3286
-182,547,-0.0454102,-23.1846,0,0,0,0,0,0,0,-1,1042,477,-0.0454543,23.1846
-175,547,-0.350098,-12.3584,0,0,0,0,0,0,0,-1,1049,477,-0.350098,12.3584
-168,547,-0.00317383,-30.214,0,0,0,0,0,0,0,-1,1056,477,-0.00312615,30.214
-161,547,1.33276,-29.5373,0,0,0,0,0,0,0,-1,1063,477,1.33273,29.5373
-154,547,1.40674,-30.6192,0,0,0,0,0,0,0,-1,1070,477,1.40675,30.6192
-147,547,3.69434,-26.413,0,0,0,0,0,0,0,-1,1077,477,3.69437,26.413
-140,547,1.55676,-22.5229,0,0,0,0,0,0,0,-1,1084,477,1.5568,22.5229
-133,547,2.31665,-17.9421,0,0,0,0,0,0,0,-1,1091,477,2.31667,17.9421
-126,547,1.7063,-26.5276,0,0,0,0,0,0,0,-1,1098,477,1.70634,26.5276
-119,547,0.967651,-24.9351,0,0,0,0,0,0,0,-1,1105,477,0.967657,24.9351
-112,547,1.15674,-22.2276,0,0,0,0,0,0,0,-1,1112,477,1.15677,22.2276
-105,547,0.966797,-20.5777,0,0,0,0,0,0,0,-1,1119,477,0.966804,20.5777
-98,547,0.70166,-18.9755,0,0,0,0,0,0,0,-1,1126,477,0.701713,18.9755
-91,547,1.37805,-7.12024,0,0,0,0,0,0,0,-1,1133,477,1.37804,7.12025
-84,547,1.94202,-6.66241,0,0,0,0,0,0,0,-1,1140,477,1.94201,6.66241
-77,547,-2.28357,1.8588,0,0,0,0,0,0,0,-1,1147,477,-2.28356,-1.85879
-70,547,-3.70178,-0.874908,0,0,0,0,0,0,0,-1,1154,477,-3.70182,0.874918
-63,547,-5.12012,-3.60861,0,0,0,0,0,0,0,-1,1161,477,-5.12009,3.60862
-56,547,-6.01917,-6.2399,0,0,0,0,0,0,0,-1,1168,477,-6.01921,6.23991
-49,547,-6.729,-8.60349,0,0,0,0,0,0,0,-1,1175,477,-6.72899,8.60348
-42,547,-2.41736,-5.53012,0,0,0,0,0,0,0,-1,1182,477,-2.41734,5.53011
-35,547,-2.96838,-4.45734,0,0,0,0,0,0,0,-1,1189,477,-2.96839,4.45734
-28,547,-0.869141,-1.29901,0,0,0,0,0,0,0,-1,1196,477,-0.869135,1.29901
-21,547,-7.68262,-30.8089,0,0,0,0,0,0,0,-1,1203,477,-7.68256,30.8089
-14,547,-0.369873,-32.6582,0,0,0,0,0,0,0,-1,1210,477,-0.369835,32.6582
-7,547,-0.265503,-32.8521,0,0,0,0,0,0,0,-1,1217,477,-0.265543,32.8521
0,547,-0.160889,-33.0137,0,0,0,0,0,0,0,-1,1224,477,-0.160899,33.0137
7,547,4.97021,-44.3665,0,0,0,0,0,0,0,-1,1231,477,4.97026,44.3665
14,547,0,0,0,0,0,0,0,0,0,-1,1238,477,0,0
21,547,0,0,0,0,0,0,0,0,0,-1,1245,477,0,0
28,547,0,0,0,0,0,0,0,0,0,-1,1252,477,0,0
35,547,0,0,0,0,0,0,0,0,0,-1,1259,477,0,0
42,547,0,0,0,0,0,0,0,0,0,-1,1266,477,0,0
49,547,0,0,0,0,0,0,0,0,0,-1,1273,477,0,0
56,547,0,0,0,0,0,0,0,0,0,-1,1280,477,0,0
63,547,0,0,0,0,0,0,0,0,0,-1,1287,477,0,0
70,547,0,0,0,0,0,0,0,0,0,-1,1294,477,0,0
77,547,0,0,0,0,0,0,0,0,0,-1,1301,477,0,0
84,547,0,0,0,0,0,0,0,0,0,-1,1308,477,0,0
91,547,0,0,0,0,0,0,0,0,0,-1,1315,477,0,0
98,547,0,0,0,0,0,0,0,0,0,-1,1322,477,0,0
105,547,-6.30908,-24.7713,0,0,0,0,0,0,0,-1,1329,477,-6.30902,24.7713
112,547,-6.78662,-23.713,0,0,0,0,0,0,0,-1,1336,477,-6.78663,23.713
119,547,-7.47571,-23.0082,0,0,0,0,0,0,0,-1,1343,477,-7.47572,23.0082
126,547,-8.00269,-21.3792,0,0,0,0,0,0,0,-1,1350,477,-8.00267,21.3792
133,547,6.35803,-28.3137,0,0,0,0,0,0,0,-1,1357,477,6.35804,28.3137
140,547,7.08582,-29.3252,0,0,0,0,0,0,0,-1,1364,477,7.08587,29.3252
147,547,7.78662,-30.3904,0,0,0,0,0,0,0,-1,1371,477,7.78667,30.3903
154,547,10.1906,-30.7652,0,0,0,0,0,0,0,-1,1378,477,10.1906,30.7652
161,547,10.8639,-30.8779,0,0,0,0,0,0,0,-1,1385,477,10.8639,30.8779
168,547,13.4181,-26.3557,0,0,0,0,0,0,0,-1,1392,477,13.4181,26.3557
175,547,3.35034,-0.26532,0,0,0,0,0,0,0,-1,1399,477,3.3503,0.265306
182,547,4.26038,3.72672,0,0,0,0,0,0,0,-1,1406,477,4.26039,-3.7267
189,547,3.40454,1.28671,0,0,0,0,0,0,0,-1,1413,477,3.40457,-1.28673
196,547,3.53931,1.87793,0,0,0,0,0,0,0,-1,1420,477,3.53928,-1.87794
203,547,6.49414,-0.425842,0,0,0,0,0,0,0,-1,1427,477,6.4941,0.425844
210,547,4.82092,0.53595,0,0,0,0,0,0,0,-1,1434,477,4.82096,-0.535942
217,547,4.68579,0.480072,0,0,0,0,0,0,0,-1,1441,477,4.68577,-0.480069
224,547,4.55615,0.739807,0,0,0,0,0,0,0,-1,1448,477,4.55613,-0.73981
231,547,5.90869,-3.57721,0,0,0,0,0,0,0,-1,1455,477,5.90871,3.57722
238,547,5.50049,-3.15356,0,0,0,0,0,0,0,-1,1462,477,5.50045,3.15356
245,547,5.13708,-2.65213,0,0,0,0,0,0,0,-1,1469,477,5.13708,2.65212
252,547,3.73511,-0.645233,0,0,0,0,0,0,0,-1,1476,477,3.73515,0.645237
259,547,5.86816,-3.20816,0,0,0,0,0,0,0,-1,1483,477,5.86815,3.20816
266,547,5.40222,-2.45731,0,0,0,0,0,0,0,-1,1490,477,5.40221,2.45732
273,547,3.05737,0.495789,0,0,0,0,0,0,0,-1,1497,477,3.05742,-0.49578
280,547,2.0885,1.47797,0,0,0,0,0,0,0,-1,1504,477,2.08848,-1.47795
287,547,2.31177,-2.21716,0,0,0,0,0,0,0,-1,1511,477,2.31174,2.21717
294,547,2.4823,-3.03659,0,0,0,0,0,0,0,-1,1518,477,2.48229,3.0366
301,547,4.72119,-3.93454,0,0,0,0,0,0,0,-1,1525,477,4.72119,3.93453
308,547,4.07471,-5.42175,0,0,0,0,0,0,0,-1,1532,477,4.07468,5.42174
315,547,3.58496,-6.62112,0,0,0,0,0,0,0,-1,1539,477,3.58497,6.62113
322,547,5.73926,-14.1878,0,0,0,0,0,0,0,-1,1546,477,5.73926,14.1878
329,547,9.39124,-28.0462,0,0,0,0,0,0,0,-1,1553,477,9.39122,28.0462
336,547,9.47253,-28.0959,0,0,0,0,0,0,0,-1,1560,477,9.47249,28.0959
343,547,9.67554,-27.6349,-0.00143445,-0.00745392,-0.00561726,0.00192857,-0.0108169,-0.53946,0.00793269,0.0498826,1567,477,9.67556,27.6349
350,547,9.5636,-27.0743,-0.00153653,-0.00661942,-0.00503806,0.00156481,-0.00972076,-0.551798,0.00706015,0.0283051,1574,477,9.56363,27.0743
357,547,9.56946,-26.617,-0.00139294,-0.00567999,-0.00432504,0.00129062,-0.00836354,-0.555334,0.00605195,0.0150117,1581,477,9.56946,26.617
364,547,9.55774,-26.1654,-0.00120409,-0.00457932,-0.0035289,0.00101997,-0.00680338,-0.562359,0.00491101,0.00972767,1588,477,9.55779,26.1654
371,547,9.55554,-25.6774,-0.000909693,-0.0035146,-0.00275686,0.000836897,-0.00526119,-0.564719,0.00381713,0.0090412,1595,477,9.55551,25.6774
378,547,9.54761,-25.1898,-0.00058837,-0.00237463,-0.0019935,0.000702928,-0.00366593,-0.574795,0.00270883,0.0107378,1602,477,9.5476,25.1898
385,547,9.5459,-24.7056,-0.000268277,-0.00107439,-0.00117518,0.000571039,-0.00191371,-0.620196,0.00150276,0.0111917,1609,477,9.54595,24.7056
392,547,9.53894,-24.2242,1.95065e-05,-0.000116211,-0.000484808,0.000441182,-0.000537887,-0.715865,0.000566184,0.0113698,1616,477,9.53898,24.2242
399,547,9.50574,-23.7288,0.000345362,0.000656474,0.000204782,0.000758082,0.000243754,1.11021,0.000446875,0.0132498,1623,477,9.50577,23.7288
406,547,9.51318,-23.2292,0.000632392,0.00158275,0.00096309,0.0021815,3.36352e-05,1.01457,0.00144326,0.0129967,1630,477,9.51314,23.2292
413,547,9.5304,-22.6923,0.000845469,0.00245615,0.00170743,0.00353864,-0.000237021,1.00576,0.00244194,0.0128599,1637,477,9.53041,22.6923
420,547,9.52539,-22.2045,0.00115965,0.00323496,0.00228429,0.00470623,-0.000311627,0.998592,0.00324635,0.0150835,1644,477,9.52541,22.2045
427,547,9.50745,-21.6782,0.00141272,0.00398671,0.00269522,0.00568645,-0.000287012,1.00815,0.00389017,0.0148334,1651,477,9.50746,21.6782
434,547,9.45203,-21.1516,0.00169654,0.00467494,0.00316735,0.00668572,-0.000314237,1.00515,0.0045655,0.0104868,1658,477,9.45201,21.1516
441,547,9.42285,-20.6419,0.00197288,0.00531957,0.00358926,0.00760638,-0.000313937,1.00352,0.00517874,0.0109033,1665,477,9.42282,20.6419
448,547,9.39209,-20.0775,0.00215198,0.00603898,0.00391353,0.00846502,-0.000274065,1.01586,0.00573689,0.0106706,1672,477,9.39207,20.0775
455,547,9.37695,-19.5344,0.00234787,0.00665781,0.00405864,0.0090981,-9.24189e-05,1.02945,0.00609644,0.0116043,1679,477,9.37701,19.5343
462,547,9.34692,-18.9873,0.00250324,0.00718321,0.00409801,0.00956225,0.000124194,1.04481,0.00633384,0.0118304,1686,477,9.34689,18.9873
469,547,9.30078,-18.4069,0.00250948,0.00745993,0.00391219,0.00961417,0.000355234,1.06746,0.00629438,0.0193558,1693,477,9.30076,18.4069
476,547,9.40906,-17.7877,0.00242885,0.00731819,0.00350644,0.00914805,0.000599,1.08982,0.00590916,0.0345705,1700,477,9.40911,17.7877
483,547,9.56787,-17.1751,0,0,0,0,0,0,0,-1,1707,477,9.56784,17.1751
490,547,3.65271,-3.71707,0,0,0,0,0,0,0,-1,1714,477,3.65277,3.71708
497,547,2.55481,-3.81421,0,0,0,0,0,0,0,-1,1721,477,2.55476,3.8142
504,547,4.01953,-2.22714,0,0,0,0,0,0,0,-1,1728,477,4.0195,2.22713
511,547,5.2146,-6.9552,0,0,0,0,0,0,0,-1,1735,477,5.21464,6.95521
518,547,5.24243,-6.56122,0,0,0,0,0,0,0,-1,1742,477,5.24241,6.56121
525,547,5.89368,-5.49866,0,0,0,0,0,0,0,-1,1749,477,5.89372,5.49866
532,547,0,0,0,0,0,0,0,0,0,-1,1756,477,0,0
539,547,0,0,0,0,0,0,0,0,0,-1,1763,477,0,0
546,547,0,0,0,0,0,0,0,0,0,-1,1770,477,0,0
553,547,0,0,0,0,0,0,0,0,0,-1,1777,477,0,0
560,547,0,0,0,0,0,0,0,0,0,-1,1784,477,0,0
567,547,0,0,0,0,0,0,0,0,0,-1,1791,477,0,0
574,547,0,0,0,0,0,0,0,0,0,-1,1798,477,0,0
581,547,0,0,0,0,0,0,0,0,0,-1,1805,477,0,0
588,547,0,0,0,0,0,0,0,0,0,-1,1812,477,0,0
595,547,0,0,0,0,0,0,0,0,0,-1,1819,477,0,0
602,547,0,0,0,0,0,0,0,0,0,-1,1826,477,0,0
609,547,0,0,0,0,0,0,0,0,0,-1,1833,477,0,0
616,547,0,0,0,0,0,0,0,0,0,-1,1840,477,0,0
623,547,0,0,0,0,0,0,0,0,0,-1,1847,477,0,0
630,547,0,0,0,0,0,0,0,0,0,-1,1854,477,0,0
637,547,0,0,0,0,0,0,0,0,0,-1,1861,477,0,0
644,547,0,0,0,0,0,0,0,0,0,-1,1868,477,0,0
651,547,0,0,0,0,0,0,0,0,0,-1,1875,477,0,0
658,547,0,0,0,0,0,0,0,0,0,-1,1882,477,0,0
665,547,0,0,0,0,0,0,0,0,0,-1,1889,477,0,0
672,547,0,0,0,0,0,0,0,0,0,-1,1896,477,0,0
679,547,0,0,0,0,0,0,0,0,0,-1,1903,477,0,0
686,547,0,0,0,0,0,0,0,0,0,-1,1910,477,0,0
693,547,0,0,0,0,0,0,0,0,0,-1,1917,477,0,0
700,547,0,0,0,0,0,0,0,0,0,-1,1924,477,0,0
707,547,0,0,0,0,0,0,0,0,0,-1,1931,477,0,0
714,547,0,0,0,0,0,0,0,0,0,-1,1938,477,0,0
721,547,0,0,0,0,0,0,0,0,0,-1,1945,477,0,0
728,547,0,0,0,0,0,0,0,0,0,-1,1952,477,0,0
735,547,0,0,0,0,0,0,0,0,0,-1,1959,477,0,0
742,547,0,0,0,0,0,0,0,0,0,-1,1966,477,0,0
749,547,0,0,0,0,0,0,0,0,0,-1,1973,477,0,0
756,547,0,0,0,0,0,0,0,0,0,-1,1980,477,0,0
763,547,0,0,0,0,0,0,0,0,0,-1,1987,477,0,0
770,547,0,0,0,0,0,0,0,0,0,-1,1994,477,0,0
777,547,0,0,0,0,0,0,0,0,0,-1,2001,477,0,0
784,547,0,0,0,0,0,0,0,0,0,-1,2008,477,0,0
791,547,0,0,0,0,0,0,0,0,0,-1,2015,477,0,0
798,547,0,0,0,0,0,0,0,0,0,-1,2022,477,0,0
805,547,0,0,0,0,0,0,0,0,0,-1,2029,477,0,0
812,547,0,0,0,0,0,0,0,0,0,-1,2036,477,0,0
-700,540,0,0,0,0,0,0,0,0,0,-1,524,484,0,0
-693,540,0,0,0,0,0,0,0,0,0,-1,531,484,0,0
-686,540,0,0,0,0,0,0,0,0,0,-1,538,484,0,0
-679,540,0,0,0,0,0,0,0,0,0,-1,545,484,0,0
-672,540,0,0,0,0,0,0,0,0,0,-1,552,484,0,0
-665,540,0,0,0,0,0,0,0,0,0,-1,559,484,0,0
-658,540,0,0,0,0,0,0,0,0,0,-1,566,484,0,0
-651,540,0,0,0,0,0,0,0,0,0,-1,573,484,0,0
-644,540,0,0,0,0,0,0,0,0,0,-1,580,484,0,0
-637,540,0,0,0,0,0,0,0,0,0,-1,587,484,0,0
-630,540,0,0,0,0,0,0,0,0,0,-1,594,484,0,0
-623,540,0,0,0,0,0,0,0,0,0,-1,601,484,0,0
-616,540,0,0,0,0,0,0,0,0,0,-1,608,484,0,0
-609,540,0,0,0,0,0,0,0,0,0,-1,615,484,0,0
-602,540,0,0,0,0,0,0,0,0,0,-1,622,484,0,0
-595,540,0,0,0,0,0,0,0,0,0,-1,629,484,0,0
-588,540,0,0,0,0,0,0,0,0,0,-1,636,484,0,0
-581,540,0,0,0,0,0,0,0,0,0,-1,643,484,0,0
-574,540,0,0,0,0,0,0,0,0,0,-1,650,484,0,0
-567,540,0,0,0,0,0,0,0,0,0,-1,657,484,0,0
-560,540,0,0,0,0,0,0,0,0,0,-1,664,484,0,0
-553,540,0,0,0,0,0,0,0,0,0,-1,671,484,0,0
-546,540,0,0,0,0,0,0,0,0,0,-1,678,484,0,0
-539,540,0,0,0,0,0,0,0,0,0,-1,685,484,0,0
-532,540,0,0,0,0,0,0,0,0,0,-1,692,484,0,0
-525,540,0,0,0,0,0,0,0,0,0,-1,699,484,0,0
-518,540,0,0,0,0,0,0,0,0,0,-1,706,484,0,0
-511,540,0,0,0,0,0,0,0,0,0,-1,713,484,0,0
-504,540,0,0,0,0,0,0,0,0,0,-1,720,484,0,0
-497,540,0,0,0,0,0,0,0,0,0,-1,727,484,0,0
-490,540,0,0,0,0,0,0,0,0,0,-1,734,484,0,0
-483,540,0,0,0,0,0,0,0,0,0,-1,741,484,0,0
-476,540,0,0,0,0,0,0,0,0,0,-1,748,484,0,0
-469,540,0,0,0,0,0,0,0,0,0,-1,755,484,0,0
-462,540,0,0,0,0,0,0,0,0,0,-1,762,484,0,0
-455,540,0,0,0,0,0,0,0,0,0,-1,769,484,0,0
-448,540,0,0,0,0,0,0,0,0,0,-1,776,484,0,0
-441,540,0,0,0,0,0,0,0,0,0,-1,783,484,0,0
-434,540,0,0,0,0,0,0,0,0,0,-1,790,484,0,0
-427,540,0,0,0,0,0,0,0,0,0,-1,797,484,0,0
-420,540,0.227051,-10.0402,0,0,0,0,0,0,0,-1,804,484,0.227063,10.0402
-413,540,-0.0393677,-10.3862,0,0,0,0,0,0,0,-1,811,484,-0.0393683,10.3862
-406,540,-0.518372,-11.5288,0,0,0,0,0,0,0,-1,818,484,-0.518402,11.5288
-399,540,0.0863037,-11.3801,0,0,0,0,0,0,0,-1,825,484,0.0863201,11.3801
-392,540,-0.517395,-10.6735,0,0,0,0,0,0,0,-1,832,484,-0.517377,10.6735
-385,540,-2.29407,-5.03418,0,0,0,0,0,0,0,-1,839,484,-2.29408,5.03418
-378,540,1.06445,-10.5824,0,0,0,0,0,0,0,-1,846,484,1.06446,10.5824
-371,540,1.14825,-10.7452,0,0,0,0,0,0,0,-1,853,484,1.14827,10.7452
-364,540,0.283691,-18.2653,0,0,0,0,0,0,0,-1,860,484,0.283721,18.2653
-357,540,0.205383,-18.4521,0,0,0,0,0,0,0,-1,867,484,0.205372,18.4522
-350,540,0.222473,-18.7568,0.00355838,0.0121579,-0.00725931,0.0162953,-0.000579001,-1.05277,0.0110616,0.0377058,874,484,0.222476,18.7568
-343,540,0.160645,-19.5386,0.0014262,0.00997894,-0.0054845,0.0126572,-0.00125207,-1.11652,0.00888495,0.019685,881,484,0.160647,19.5386
-336,540,0.0841675,-20.2334,0.000161121,0.00857679,-0.0043552,0.0104248,-0.00168692,-1.16949,0.00757506,0.0132907,888,484,0.0841598,20.2334
-329,540,0.0598755,-20.7402,-0.000581751,0.00726758,-0.00349508,0.00859825,-0.00191242,-1.20701,0.00646463,0.0102999,895,484,0.0598536,20.7402
-322,540,0.0337524,-21.244,-0.00123347,0.00590587,-0.00263963,0.00677582,-0.00210341,-1.25244,0.0053578,0.0136024,902,484,0.0337229,21.244
-315,540,0.0124512,-21.7541,-0.00132164,0.00479894,-0.00206567,0.00543085,-0.00195356,-1.27392,0.00441815,0.0126651,909,484,0.0124383,21.7541
-308,540,0.0155029,-22.2469,-0.00111381,0.00390025,-0.00159167,0.00436283,-0.0015764,-1.28796,0.00355258,0.012485,916,484,0.0154921,22.2469
-301,540,-0.0209351,-22.7249,-0.000847688,0.00276521,-0.00105338,0.0030499,-0.00113238,-1.30684,0.0024978,0.0127626,923,484,-0.0209076,22.725
-294,540,-0.0281982,-23.2242,-0.000454459,0.00164727,-0.000475477,0.00174983,-0.000557022,-1.35835,0.00138994,0.0115666,930,484,-0.0282002,23.2241
-287,540,-0.0192871,-23.7473,-1.49132e-05,0.00061659,8.76384e-05,0.000628527,-2.68498e-05,1.43543,0.000428249,0.00870459,937,484,-0.0192647,23.7474
-280,540,-0.0328369,-24.2445,0.000382798,-0.000278982,0.000622777,0.000757131,-0.000653315,0.541206,0.000815056,0.00952769,944,484,-0.0328232,24.2445
-273,540,-0.0446167,-24.7044,0.000739966,-0.00117922,0.00118523,0.00130536,-0.00174462,0.445107,0.00176699,0.0115151,951,484,-0.04464,24.7044
-266,540,-0.0526733,-25.1684,0.00105483,-0.00226579,0.00160209,0.00170175,-0.00291271,0.383777,0.00269457,0.0131557,958,484,-0.052682,25.1684
-259,540,-0.0644531,-25.6297,0.00136128,-0.00295164,0.00197413,0.00212843,-0.00371879,0.370643,0.00341726,0.0125084,965,484,-0.06444,25.6297
-252,540,-0.0492554,-26.0717,0.00165104,-0.00445179,0.00253338,0.00256562,-0.00536637,0.346452,0.00467373,0.0116496,972,484,-0.0492591,26.0717
-245,540,-0.0415649,-26.5294,0.00196312,-0.00581356,0.0030073,0.00299037,-0.00684081,0.329159,0.00581934,0.0108095,979,484,-0.0415463,26.5294
-238,540,-0.0700073,-26.972,0.00244278,-0.00724596,0.0033522,0.00348952,-0.0082927,0.302661,0.00698834,0.00933505,986,484,-0.0700361,26.972
-231,540,-0.0400391,-27.4072,0.00289549,-0.00883481,0.00375428,0.00399415,-0.00993346,0.284692,0.00828124,0.0154277,993,484,-0.0400295,27.4072
-224,540,-0.0230713,-27.7771,0.00338031,-0.0107493,0.00433728,0.00460546,-0.0119745,0.275299,0.00988256,0.0275337,1000,484,-0.0230555,27.7771
-217,540,-0.0599365,-28.0137,0.00401846,-0.013049,0.0046189,0.00518828,-0.0142188,0.248051,0.011602,0.0389171,1007,484,-0.0599257,28.0137
-210,540,0.0423584,-28.3786,0.00480236,-0.0152146,0.00455238,0.00578906,-0.0162013,0.213441,0.013162,0.0470436,1014,484,0.0423663,28.3786
-203,540,-0.0566406,-28.1841,0,0,0,0,0,0,0,-1,1021,484,-0.0566287,28.1841
-196,540,-0.143799,-26.0272,0,0,0,0,0,0,0,-1,1028,484,-0.143848,26.0272
-189,540,-0.726807,-22.826,0,0,0,0,0,0,0,-1,1035,484,-0.72684,22.8259
-182,540,0.109375,-15.2948,0,0,0,0,0,0,0,-1,1042,484,0.109331,15.2948
-175,540,1.73413,-10.728,0,0,0,0,0,0,0,-1,1049,484,1.73414,10.728
-168,540,1.18164,-7.65347,0,0,0,0,0,0,0,-1,1056,484,1.18163,7.65347
-161,540,-0.405884,-9.86481,0,0,0,0,0,0,0,-1,1063,484,-0.405886,9.8648
-154,540,1.96863,-22.0727,0,0,0,0,0,0,0,-1,1070,484,1.96859,22.0727
-147,540,1.32764,-21.9952,0,0,0,0,0,0,0,-1,1077,484,1.32762,21.9952
-140,540,1.40735,-15.6289,0,0,0,0,0,0,0,-1,1084,484,1.4073,15.6289
-133,540,2.28345,-17.6413,0,0,0,0,0,0,0,-1,1091,484,2.2835,17.6413
-126,540,1.25293,-23.9108,0,0,0,0,0,0,0,-1,1098,484,1.25288,23.9108
-119,540,1.55969,-23.0125,0,0,0,0,0,0,0,-1,1105,484,1.55968,23.0125
-112,540,1.4801,-21.6515,0,0,0,0,0,0,0,-1,1112,484,1.4801,21.6515
-105,540,1.30078,-19.8938,0,0,0,0,0,0,0,-1,1119,484,1.30077,19.8938
-98,540,1.08105,-18.1304,0,0,0,0,0,0,0,-1,1126,484,1.08101,18.1304
-91,540,1.56519,-7.48666,0,0,0,0,0,0,0,-1,1133,484,1.56514,7.48667
-84,540,-0.945923,4.43073,0,0,0,0,0,0,0,-1,1140,484,-0.945891,-4.43074
-77,540,-2.28894,2.14368,0,0,0,0,0,0,0,-1,1147,484,-2.28894,-2.14368
-70,540,-3.75244,-0.452576,0,0,0,0,0,0,0,-1,1154,484,-3.75244,0.452576
-63,540,-5.26257,-3.04767,0,0,0,0,0,0,0,-1,1161,484,-5.26262,3.04766
-56,540,-5.19055,-6.12595,0,0,0,0,0,0,0,-1,1168,484,-5.19057,6.12595
-49,540,-5.63867,-8.52298,0,0,0,0,0,0,0,-1,1175,484,-5.63871,8.52298
-42,540,0,0,0,0,0,0,0,0,0,-1,1182,484,0,0
-35,540,0,0,0,0,0,0,0,0,0,-1,1189,484,0,0
-28,540,0,0,0,0,0,0,0,0,0,-1,1196,484,0,0
-21,540,0,0,0,0,0,0,0,0,0,-1,1203,484,0,0
-14,540,0,0,0,0,0,0,0,0,0,-1,1210,484,0,0
-7,540,0,0,0,0,0,0,0,0,0,-1,1217,484,0,0
0,540,0,0,0,0,0,0,0,0,0,-1,1224,484,0,0
7,540,0,0,0,0,0,0,0,0,0,-1,1231,484,0,0
14,540,0,0,0,0,0,0,0,0,0,-1,1238,484,0,0
21,540,0,0,0,0,0,0,0,0,0,-1,1245,484,0,0
28,540,0,0,0,0,0,0,0,0,0,-1,1252,484,0,0
35,540,0,0,0,0,0,0,0,0,0,-1,1259,484,0,0
42,540,0,0,0,0,0,0,0,0,0,-1,1266,484,0,0
49,540,0,0,0,0,0,0,0,0,0,-1,1273,484,0,0
56,540,0,0,0,0,0,0,0,0,0,-1,1280,484,0,0
63,540,0,0,0,0,0,0,0,0,0,-1,1287,484,0,0
70,540,0,0,0,0,0,0,0,0,0,-1,1294,484,0,0
77,540,0,0,0,0,0,0,0,0,0,-1,1301,484,0,0
84,540,0,0,0,0,0,0,0,0,0,-1,1308,484,0,0
91,540,0,0,0,0,0,0,0,0,0,-1,1315,484,0,0
98,540,0,0,0,0,0,0,0,0,0,-1,1322,484,0,0
105,540,0,0,0,0,0,0,0,0,0,-1,1329,484,0,0
112,540,0,0,0,0,0,0,0,0,0,-1,1336,484,0,0
119,540,0,0,0,0,0,0,0,0,0,-1,1343,484,0,0
126,540,0,0,0,0,0,0,0,0,0,-1,1350,484,0,0
133,540,0,0,0,0,0,0,0,0,0,-1,1357,484,0,0
140,540,0,0,0,0,0,0,0,0,0,-1,1364,484,0,0
147,540,0,0,0,0,0,0,0,0,0,-1,1371,484,0,0
154,540,0,0,0,0,0,0,0,0,0,-1,1378,484,0,0
161,540,0,0,0,0,0,0,0,0,0,-1,1385,484,0,0
168,540,3.05078,-0.0010376,0,0,0,0,0,0,0,-1,1392,484,3.05084,0.00102554
175,540,3.37708,0.617035,0,0,0,0,0,0,0,-1,1399,484,3.37707,-0.617046
182,540,3.32678,1.23267,0,0,0,0,0,0,0,-1,1406,484,3.32678,-1.23266
189,540,3.5813,2.15619,0,0,0,0,0,0,0,-1,1413,484,3.58129,-2.1562
196,540,1.84448,-0.801483,0,0,0,0,0,0,0,-1,1420,484,1.84446,0.80148
203,540,4.14648,0.702087,0,0,0,0,0,0,0,-1,1427,484,4.14645,-0.702089
210,540,4.50671,-0.56076,0,0,0,0,0,0,0,-1,1434,484,4.50667,0.560771
217,540,5.00452,-0.278717,0,0,0,0,0,0,0,-1,1441,484,5.00452,0.278709
224,540,6.44458,-2.83527,0,0,0,0,0,0,0,-1,1448,484,6.44457,2.83525
231,540,6.9231,-3.10504,0,0,0,0,0,0,0,-1,1455,484,6.92307,3.10505
238,540,6.4823,-2.58365,0,0,0,0,0,0,0,-1,1462,484,6.48225,2.58363
245,540,6.02087,-1.97916,0,0,0,0,0,0,0,-1,1469,484,6.02088,1.97915
252,540,6.50647,-3.56006,0,0,0,0,0,0,0,-1,1476,484,6.50649,3.56006
259,540,6.01941,-2.798,0,0,0,0,0,0,0,-1,1483,484,6.01941,2.79801
266,540,5.5332,-2.02853,0,0,0,0,0,0,0,-1,1490,484,5.53323,2.02855
273,540,5.06787,-1.28137,0,0,0,0,0,0,0,-1,1497,484,5.06786,1.28136
280,540,1.62903,-2.14609,0,0,0,0,0,0,0,-1,1504,484,1.62906,2.1461
287,540,1.97156,-2.45053,0,0,0,0,0,0,0,-1,1511,484,1.97159,2.45053
294,540,2.44165,-2.6185,0,0,0,0,0,0,0,-1,1518,484,2.44167,2.6185
301,540,4.36169,-2.54272,0,0,0,0,0,0,0,-1,1525,484,4.36165,2.54272
308,540,4.2019,-4.30469,0,0,0,0,0,0,0,-1,1532,484,4.20193,4.3047
315,540,4.45923,-5.32101,0,0,0,0,0,0,0,-1,1539,484,4.45923,5.32103
322,540,4.71655,-6.33737,0,0,0,0,0,0,0,-1,1546,484,4.71653,6.33736
329,540,5.8949,-12.9383,0,0,0,0,0,0,0,-1,1553,484,5.89492,12.9383
336,540,7.16467,-17.7826,0,0,0,0,0,0,0,-1,1560,484,7.16469,17.7826
343,540,10.3546,-27.8426,0,0,0,0,0,0,0,-1,1567,484,10.3546,27.8426
350,540,10.2169,-26.733,0,0,0,0,0,0,0,-1,1574,484,10.2169,26.733
357,540,10.1227,-26.3783,-0.00282107,-0.00786048,-0.00613963,0.00129578,-0.0119773,-0.590678,0.00845,0.0406053,1581,484,10.1226,26.3783
364,540,10.0131,-26.081,-0.00234553,-0.00654712,-0.00514063,0.001107,-0.00999966,-0.591421,0.00706441,0.0221049,1588,484,10.0131,26.081
371,540,10.0106,-25.6419,-0.00174708,-0.00524658,-0.00417644,0.00103133,-0.00802499,-0.587027,0.00572482,0.014163,1595,484,10.0107,25.6419
378,540,10.0269,-25.1731,-0.00113946,-0.00383996,-0.0032093,0.000992066,-0.00597149,-0.586274,0.00434956,0.0122467,1602,484,10.0268,25.1731
385,540,10.0317,-24.6837,-0.00055222,-0.00227854,-0.00214952,0.000900968,-0.00373173,-0.594473,0.00283625,0.0138226,1609,484,10.0318,24.6837
392,540,10.0275,-24.1881,-0.000112185,-0.00112116,-0.00131782,0.000794414,-0.00202776,-0.602594,0.00168045,0.0118214,1616,484,10.0275,24.1882
399,540,10.0032,-23.72,0.000249174,-0.000257795,-0.000606195,0.000652749,-0.00066137,-0.587368,0.000758712,0.0156319,1623,484,10.0032,23.72
406,540,10.0271,-23.2339,0.000530746,0.000649225,7.70067e-05,0.000687142,0.00049283,1.11326,0.00040901,0.016412,1630,484,10.0271,23.234
413,540,10.0219,-22.6952,0.000797495,0.00158794,0.000825057,0.00210755,0.000277884,1.00876,0.00132218,0.0127671,1637,484,10.0218,22.6952
420,540,10.0111,-22.1614,0.00111929,0.00236025,0.0014724,0.00333757,0.000141973,0.98481,0.00217926,0.0124849,1644,484,10.0111,22.1614
427,540,9.98267,-21.6711,0.00130397,0.00298715,0.00190545,0.00422859,6.25271e-05,0.993354,0.00279845,0.0136647,1651,484,9.98266,21.671
434,540,9.96741,-21.1545,0.00147458,0.00351458,0.00233154,0.00503948,-5.03138e-05,0.991594,0.00337655,0.0166915,1658,484,9.96745,21.1546
441,540,9.97327,-20.5941,0.00164644,0.00397714,0.00272197,0.00577273,-0.000149147,0.987657,0.00389915,0.0198856,1665,484,9.97331,20.5941
448,540,9.93811,-20.0779,0.00176491,0.00447076,0.00305289,0.00645708,-0.000221402,0.993975,0.00438038,0.0111609,1672,484,9.9381,20.0779
455,540,9.9104,-19.5311,0.00190205,0.00486382,0.00324265,0.00694773,-0.000181865,0.9996,0.00469362,0.0106842,1679,484,9.91043,19.5311
462,540,9.86304,-18.971,0.00201165,0.00512212,0.00336788,0.00727652,-0.000142749,1.0017,0.00489929,0.0108034,1686,484,9.863,18.971
469,540,9.82849,-18.4131,0.00200926,0.00513948,0.00331736,0.0072424,-9.36652e-05,1.00581,0.00485979,0.0131267,1693,484,9.82844,18.4131
476,540,9.84448,-17.8764,0.00193441,0.00476349,0.00310924,0.00676483,-6.69418e-05,0.998878,0.00453237,0.0185965,1700,484,9.84442,17.8764
483,540,9.91699,-17.3331,0.00180792,0.00461634,0.00256517,0.00613649,0.00028777,1.03583,0.00399852,0.0316022,1707,484,9.91693,17.3331
490,540,10.0649,-16.9218,0,0,0,0,0,0,0,-1,1714,484,10.065,16.9218
497,540,9.9397,-15.875,0,0,0,0,0,0,0,-1,1721,484,9.93969,15.875
504,540,5.96704,-6.98599,0,0,0,0,0,0,0,-1,1728,484,5.96708,6.98598
511,540,5.82471,-6.83521,0,0,0,0,0,0,0,-1,1735,484,5.82465,6.83522
518,540,9.98181,-12.4608,0,0,0,0,0,0,0,-1,1742,484,9.98187,12.4608
525,540,11.2628,-13.8818,0,0,0,0,0,0,0,-1,1749,484,11.2629,13.8818
532,540,2.84265,-1.07925,0,0,0,0,0,0,0,-1,1756,484,2.84269,1.07927
539,540,0,0,0,0,0,0,0,0,0,-1,1763,484,0,0
546,540,0,0,0,0,0,0,0,0,0,-1,1770,484,0,0
553,540,0,0,0,0,0,0,0,0,0,-1,1777,484,0,0
560,540,0,0,0,0,0,0,0,0,0,-1,1784,484,0,0
567,540,0,0,0,0,0,0,0,0,0,-1,1791,484,0,0
574,540,0,0,0,0,0,0,0,0,0,-1,1798,484,0,0
581,540,0,0,0,0,0,0,0,0,0,-1,1805,484,0,0
588,540,0,0,0,0,0,0,0,0,0,-1,1812,484,0,0
595,540,0,0,0,0,0,0,0,0,0,-1,1819,484,0,0
602,540,0,0,0,0,0,0,0,0,0,-1,1826,484,0,0
609,540,0,0,0,0,0,0,0,0,0,-1,1833,484,0,0
616,540,0,0,0,0,0,0,0,0,0,-1,1840,484,0,0
623,540,0,0,0,0,0,0,0,0,0,-1,1847,484,0,0
630,540,0,0,0,0,0,0,0,0,0,-1,1854,484,0,0
637,540,0,0,0,0,0,0,0,0,0,-1,1861,484,0,0
644,540,0,0,0,0,0,0,0,0,0,-1,1868,484,0,0
651,540,0,0,0,0,0,0,0,0,0,-1,1875,484,0,0
658,540,0,0,0,0,0,0,0,0,0,-1,1882,484,0,0
665,540,0,0,0,0,0,0,0,0,0,-1,1889,484,0,0
672,540,0,0,0,0,0,0,0,0,0,-1,1896,484,0,0
679,540,0,0,0,0,0,0,0,0,0,-1,1903,484,0,0
686,540,0,0,0,0,0,0,0,0,0,-1,1910,484,0,0
693,540,0,0,0,0,0,0,0,0,0,-1,1917,484,0,0
700,540,0,0,0,0,0,0,0,0,0,-1,1924,484,0,0
707,540,0,0,0,0,0,0,0,0,0,-1,1931,484,0,0
714,540,0,0,0,0,0,0,0,0,0,-1,1938,484,0,0
721,540,0,0,0,0,0,0,0,0,0,-1,1945,484,0,0
728,540,0,0,0,0,0,0,0,0,0,-1,1952,484,0,0
735,540,0,0,0,0,0,0,0,0,0,-1,1959,484,0,0
742,540,0,0,0,0,0,0,0,0,0,-1,1966,484,0,0
749,540,0,0,0,0,0,0,0,0,0,-1,1973,484,0,0
756,540,0,0,0,0,0,0,0,0,0,-1,1980,484,0,0
763,540,0,0,0,0,0,0,0,0,0,-1,1987,484,0,0
770,540,0,0,0,0,0,0,0,0,0,-1,1994,484,0,0
777,540,0,0,0,0,0,0,0,0,0,-1,2001,484,0,0
784,540,0,0,0,0,0,0,0,0,0,-1,2008,484,0,0
791,540,0,0,0,0,0,0,0,0,0,-1,2015,484,0,0
798,540,0,0,0,0,0,0,0,0,0,-1,2022,484,0,0
805,540,0,0,0,0,0,0,0,0,0,-1,2029,484,0,0
812,540,0,0,0,0,0,0,0,0,0,-1,2036,484,0,0
-700,533,0,0,0,0,0,0,0,0,0,-1,524,491,0,0
-693,533,0,0,0,0,0,0,0,0,0,-1,531,491,0,0
-686,533,0,0,0,0,0,0,0,0,0,-1,538,491,0,0
-679,533,0,0,0,0,0,0,0,0,0,-1,545,491,0,0
-672,533,0,0,0,0,0,0,0,0,0,-1,552,491,0,0
-665,533,0,0,0,0,0,0,0,0,0,-1,559,491,0,0
-658,533,0,0,0,0,0,0,0,0,0,-1,566,491,0,0
-651,533,0,0,0,0,0,0,0,0,0,-1,573,491,0,0
-644,533,0,0,0,0,0,0,0,0,0,-1,580,491,0,0
-637,533,0,0,0,0,0,0,0,0,0,-1,587,491,0,0
-630,533,0,0,0,0,0,0,0,0,0,-1,594,491,0,0
-623,533,0,0,0,0,0,0,0,0,0,-1,601,491,0,0
-616,533,0,0,0,0,0,0,0,0,0,-1,608,491,0,0
-609,533,0,0,0,0,0,0,0,0,0,-1,615,491,0,0
-602,533,0,0,0,0,0,0,0,0,0,-1,622,491,0,0
-595,533,0,0,0,0,0,0,0,0,0,-1,629,491,0,0
-588,533,0,0,0,0,0,0,0,0,0,-1,636,491,0,0
-581,533,0,0,0,0,0,0,0,0,0,-1,643,491,0,0
-574,533,0,0,0,0,0,0,0,0,0,-1,650,491,0,0
-567,533,0,0,0,0,0,0,0,0,0,-1,657,491,0,0
-560,533,0,0,0,0,0,0,0,0,0,-1,664,491,0,0
-553,533,0,0,0,0,0,0,0,0,0,-1,671,491,0,0
-546,533,0,0,0,0,0,0,0,0,0,-1,678,491,0,0
-539,533,0,0,0,0,0,0,0,0,0,-1,685,491,0,0
-532,533,0,0,0,0,0,0,0,0,0,-1,692,491,0,0
-525,533,0,0,0,0,0,0,0,0,0,-1,699,491,0,0
-518,533,0,0,0,0,0,0,0,0,0,-1,706,491,0,0
-511,533,0,0,0,0,0,0,0,0,0,-1,713,491,0,0
-504,533,0,0,0,0,0,0,0,0,0,-1,720,491,0,0
-497,533,0,0,0,0,0,0,0,0,0,-1,727,491,0,0
-490,533,0,0,0,0,0,0,0,0,0,-1,734,491,0,0
-483,533,0,0,0,0,0,0,0,0,0,-1,741,491,0,0
-476,533,0,0,0,0,0,0,0,0,0,-1,748,491,0,0
-469,533,0,0,0,0,0,0,0,0,0,-1,755,491,0,0
-462,533,0,0,0,0,0,0,0,0,0,-1,762,491,0,0
-455,533,0,0,0,0,0,0,0,0,0,-1,769,491,0,0
-448,533,0,0,0,0,0,0,0,0,0,-1,776,491,0,0
-441,533,0,0,0,0,0,0,0,0,0,-1,783,491,0,0
-434,533,0,0,0,0,0,0,0,0,0,-1,790,491,0,0
-427,533,0.559814,-4.40222,0,0,0,0,0,0,0,-1,797,491,0.559816,4.40222
-420,533,-1.11127,-10.9054,0,0,0,0,0,0,0,-1,804,491,-1.11124,10.9054
-413,533,-0.704773,-11.0942,0,0,0,0,0,0,0,-1,811,491,-0.704742,11.0942
-406,533,-0.670898,-12.0899,0,0,0,0,0,0,0,-1,818,491,-0.670908,12.0899
-399,533,-0.455017,-12.4423,0,0,0,0,0,0,0,-1,825,491,-0.455032,12.4423
-392,533,-1.89661,-10.3905,0,0,0,0,0,0,0,-1,832,491,-1.89661,10.3905
-385,533,-1.69116,-6.64645,0,0,0,0,0,0,0,-1,839,491,-1.69115,6.64645
-378,533,-0.713379,-16.271,0,0,0,0,0,0,0,-1,846,491,-0.713404,16.271
-371,533,-0.36499,-17.7671,0,0,0,0,0,0,0,-1,853,491,-0.365016,17.7671
-364,533,-0.322571,-18.1166,0.00956299,0.0155602,-0.0112231,0.0241784,0.000944808,-0.91594,0.0158134,0.0405058,860,491,-0.322568,18.1166
-357,533,-0.298706,-18.4754,0.00622703,0.0125344,-0.0085851,0.0185268,0.000234704,-0.96142,0.0122737,0.0250186,867,491,-0.298729,18.4754
-350,533,-0.303467,-19.0736,0.0036569,0.00997637,-0.00637477,0.0139315,-0.000298251,-1.01548,0.00938868,0.0152689,874,491,-0.303493,19.0737
-343,533,-0.358765,-19.6613,0.00183804,0.00785869,-0.00463977,0.0103791,-0.000682417,-1.07317,0.00715776,0.01281,881,491,-0.358771,19.6613
-336,533,-0.397339,-20.2239,0.000763915,0.00655523,-0.00355469,0.0082444,-0.000925259,-1.12719,0.00582922,0.0155212,888,491,-0.397319,20.2239
-329,533,-0.418762,-20.729,0.000156311,0.0053576,-0.00273061,0.00652784,-0.00101393,-1.16591,0.00472626,0.0138249,895,491,-0.418739,20.729
-322,533,-0.450378,-21.2319,-0.000409323,0.00412993,-0.00188837,0.00481278,-0.00109218,-1.22382,0.0036278,0.0116168,902,491,-0.450358,21.2319
-315,533,-0.473816,-21.7416,-0.00048536,0.00312887,-0.0012935,0.00354409,-0.000900588,-1.26018,0.00271321,0.0130176,909,491,-0.473816,21.7417
-308,533,-0.491638,-22.224,-0.00029336,0.00229262,-0.000787664,0.00251364,-0.000514384,-1.29723,0.00187094,0.0125804,916,491,-0.491616,22.224
-301,533,-0.538269,-22.6895,-8.28295e-05,0.00121704,-0.000206582,0.00124908,-0.000114871,-1.41692,0.000873534,0.0132142,923,491,-0.53827,22.6895
-294,533,-0.530273,-23.1829,0.000250827,0.000202544,0.00038962,0.000617052,-0.000163682,0.754457,0.000475416,0.0118751,930,491,-0.530271,23.183
-287,533,-0.513428,-23.7102,0.000647556,-0.000766335,0.000961344,0.00113391,-0.00125269,0.468361,0.00137847,0.00950368,937,491,-0.5134,23.7102
-280,533,-0.519226,-24.218,0.000982341,-0.00162545,0.00152938,0.00168821,-0.00233132,0.432408,0.00233056,0.00856155,944,491,-0.519245,24.2179
-273,533,-0.516052,-24.6818,0.00135673,-0.00254845,0.00217358,0.00232596,-0.00351768,0.419453,0.00339714,0.0116747,951,491,-0.516038,24.6818
-266,533,-0.519043,-25.1375,0.00156216,-0.00353244,0.00264014,0.00268352,-0.0046538,0.401647,0.00428681,0.0119559,958,491,-0.519038,25.1375
-259,533,-0.509094,-25.5953,0.00175767,-0.00405767,0.00292389,0.00297355,-0.00527355,0.39409,0.00482279,0.0123861,965,491,-0.509115,25.5953
-252,533,-0.506714,-26.0363,0.00196132,-0.00562497,0.00344501,0.00329224,-0.00695588,0.368669,0.00604147,0.0153742,972,491,-0.506684,26.0363
-245,533,-0.573853,-26.4584,0.00221055,-0.00701916,0.00387875,0.00362409,-0.0084327,0.349474,0.00714315,0.0251262,979,491,-0.573877,26.4584
-238,533,-0.466492,-26.8336,0.00271971,-0.0083645,0.00408251,0.00406105,-0.00970584,0.317446,0.00816799,0.0330524,986,491,-0.466469,26.8336
-231,533,-0.301636,-27.222,0,0,0,0,0,0,0,-1,993,491,-0.30161,27.222
-224,533,-0.401306,-27.7716,0,0,0,0,0,0,0,-1,1000,491,-0.401332,27.7716
-217,533,-0.397217,-27.9493,0.00439216,-0.0142543,0.00501847,0.00565702,-0.0155191,0.246899,0.0126603,0.047567,1007,491,-0.397233,27.9493
-210,533,-0.427307,-28.6122,0.00532102,-0.0166451,0.00474418,0.00630186,-0.0176259,0.203873,0.0143211,0.0494074,1014,491,-0.427319,28.6122
-203,533,-0.431274,-29.1487,0,0,0,0,0,0,0,-1,1021,491,-0.431292,29.1487
-196,533,0.688354,-19.5743,0,0,0,0,0,0,0,-1,1028,491,0.688406,19.5743
-189,533,-0.169189,-15.0303,0,0,0,0,0,0,0,-1,1035,491,-0.169241,15.0303
-182,533,1.26123,-11.4969,0,0,0,0,0,0,0,-1,1042,491,1.26128,11.4969
-175,533,0.937744,-7.36966,0,0,0,0,0,0,0,-1,1049,491,0.937769,7.36965
-168,533,2.64807,-2.7543,0,0,0,0,0,0,0,-1,1056,491,2.64812,2.7543
-161,533,1.91833,-1.76553,0,0,0,0,0,0,0,-1,1063,491,1.91836,1.76554
-154,533,0.376709,-11.0633,0,0,0,0,0,0,0,-1,1070,491,0.376715,11.0632
-147,533,0.383789,-12.1586,0,0,0,0,0,0,0,-1,1077,491,0.383829,12.1586
-140,533,1.14001,-15.4608,0,0,0,0,0,0,0,-1,1084,491,1.14005,15.4608
-133,533,0.189941,-16.0795,0,0,0,0,0,0,0,-1,1091,491,0.18994,16.0795
-126,533,2.89612,-2.59003,0,0,0,0,0,0,0,-1,1098,491,2.89608,2.59003
-119,533,1.78284,-22.5394,0,0,0,0,0,0,0,-1,1105,491,1.78279,22.5394
-112,533,1.83862,-21.2401,0,0,0,0,0,0,0,-1,1112,491,1.83859,21.24
-105,533,1.67554,-19.4018,0,0,0,0,0,0,0,-1,1119,491,1.6755,19.4018
-98,533,-1.39392,-5.16367,0,0,0,0,0,0,0,-1,1126,491,-1.39394,5.16367
-91,533,0.367432,4.49753,0,0,0,0,0,0,0,-1,1133,491,0.367468,-4.49754
-84,533,-0.88623,3.03604,0,0,0,0,0,0,0,-1,1140,491,-0.886288,-3.03605
-77,533,0,0,0,0,0,0,0,0,0,-1,1147,491,0,0
-70,533,0,0,0,0,0,0,0,0,0,-1,1154,491,0,0
-63,533,0,0,0,0,0,0,0,0,0,-1,1161,491,0,0
-56,533,0,0,0,0,0,0,0,0,0,-1,1168,491,0,0
-49,533,0,0,0,0,0,0,0,0,0,-1,1175,491,0,0
-42,533,0,0,0,0,0,0,0,0,0,-1,1182,491,0,0
-35,533,0,0,0,0,0,0,0,0,0,-1,1189,491,0,0
-28,533,0,0,0,0,0,0,0,0,0,-1,1196,491,0,0
-21,533,0,0,0,0,0,0,0,0,0,-1,1203,491,0,0
-14,533,0,0,0,0,0,0,0,0,0,-1,1210,491,0,0
-7,533,0,0,0,0,0,0,0,0,0,-1,1217,491,0,0
0,533,0,0,0,0,0,0,0,0,0,-1,1224,491,0,0
7,533,0,0,0,0,0,0,0,0,0,-1,1231,491,0,0
14,533,0,0,0,0,0,0,0,0,0,-1,1238,491,0,0
21,533,0,0,0,0,0,0,0,0,0,-1,1245,491,0,0
28,533,0,0,0,0,0,0,0,0,0,-1,1252,491,0,0
35,533,0,0,0,0,0,0,0,0,0,-1,1259,491,0,0
42,533,0,0,0,0,0,0,0,0,0,-1,1266,491,0,0
49,533,0,0,0,0,0,0,0,0,0,-1,1273,491,0,0
56,533,0,0,0,0,0,0,0,0,0,-1,1280,491,0,0
63,533,0,0,0,0,0,0,0,0,0,-1,1287,491,0,0
70,533,0,0,0,0,0,0,0,0,0,-1,1294,491,0,0
77,533,0,0,0,0,0,0,0,0,0,-1,1301,491,0,0
84,533,0,0,0,0,0,0,0,0,0,-1,1308,491,0,0
91,533,0,0,0,0,0,0,0,0,0,-1,1315,491,0,0
98,533,0,0,0,0,0,0,0,0,0,-1,1322,491,0,0
105,533,0,0,0,0,0,0,0,0,0,-1,1329,491,0,0
112,533,0,0,0,0,0,0,0,0,0,-1,1336,491,0,0
119,533,0,0,0,0,0,0,0,0,0,-1,1343,491,0,0
126,533,0,0,0,0,0,0,0,0,0,-1,1350,491,0,0
133,533,0,0,0,0,0,0,0,0,0,-1,1357,491,0,0
140,533,0,0,0,0,0,0,0,0,0,-1,1364,491,0,0
147,533,0,0,0,0,0,0,0,0,0,-1,1371,491,0,0
154,533,0,0,0,0,0,0,0,0,0,-1,1378,491,0,0
161,533,0,0,0,0,0,0,0,0,0,-1,1385,491,0,0
168,533,0,0,0,0,0,0,0,0,0,-1,1392,491,0,0
175,533,0,0,0,0,0,0,0,0,0,-1,1399,491,0,0
182,533,0,0,0,0,0,0,0,0,0,-1,1406,491,0,0
189,533,0,0,0,0,0,0,0,0,0,-1,1413,491,0,0
196,533,0,0,0,0,0,0,0,0,0,-1,1420,491,0,0
203,533,3.7887,1.16193,0,0,0,0,0,0,0,-1,1427,491,3.78872,-1.16193
210,533,5.09558,-0.216034,0,0,0,0,0,0,0,-1,1434,491,5.09559,0.216028
217,533,6.91614,-2.46814,0,0,0,0,0,0,0,-1,1441,491,6.91618,2.46814
224,533,7.23621,-2.1857,0,0,0,0,0,0,0,-1,1448,491,7.23621,2.1857
231,533,7.23474,-1.92282,0,0,0,0,0,0,0,-1,1455,491,7.2347,1.92282
238,533,7.23535,-1.67258,0,0,0,0,0,0,0,-1,1462,491,7.23539,1.67258
245,533,6.86682,-1.2301,0,0,0,0,0,0,0,-1,1469,491,6.86686,1.23011
252,533,6.63354,-3.07825,0,0,0,0,0,0,0,-1,1476,491,6.6335,3.07824
259,533,6.16431,-2.35037,0,0,0,0,0,0,0,-1,1483,491,6.1643,2.35037
266,533,5.68884,-1.6214,0,0,0,0,0,0,0,-1,1490,491,5.68885,1.6214
273,533,5.21399,-0.864227,0,0,0,0,0,0,0,-1,1497,491,5.21403,0.864227
280,533,1.41089,-1.97946,0,0,0,0,0,0,0,-1,1504,491,1.41087,1.97946
287,533,1.6814,-2.44443,0,0,0,0,0,0,0,-1,1511,491,1.6814,2.44444
294,533,2.2384,-2.57626,0,0,0,0,0,0,0,-1,1518,491,2.23839,2.57625
301,533,3.39941,-4.0817,0,0,0,0,0,0,0,-1,1525,491,3.3994,4.08171
308,533,4.13733,-4.14752,0,0,0,0,0,0,0,-1,1532,491,4.13727,4.14752
315,533,4.80762,-5.29349,0,0,0,0,0,0,0,-1,1539,491,4.80762,5.29347
322,533,5.47803,-6.43942,0,0,0,0,0,0,0,-1,1546,491,5.47798,6.43943
329,533,3.88477,-3.86301,0,0,0,0,0,0,0,-1,1553,491,3.88475,3.86299
336,533,6.70923,-13.2003,0,0,0,0,0,0,0,-1,1560,491,6.70926,13.2004
343,533,7.06677,-17.1133,0,0,0,0,0,0,0,-1,1567,491,7.06673,17.1133
350,533,10.0876,-23.7254,0,0,0,0,0,0,0,-1,1574,491,10.0877,23.7254
357,533,10.629,-26.146,0,0,0,0,0,0,0,-1,1581,491,10.629,26.146
364,533,10.7269,-25.7618,-0.00391792,-0.00827707,-0.0068751,0.00111483,-0.0133098,-0.631897,0.0092672,0.0425521,1588,491,10.727,25.7618
371,533,10.4792,-25.5182,-0.00288002,-0.0065988,-0.00562708,0.00118691,-0.0106657,-0.625828,0.00753734,0.0387278,1595,491,10.4792,25.5182
378,533,10.473,-25.1107,-0.00188327,-0.00481995,-0.00437596,0.00126412,-0.00796735,-0.623527,0.00577921,0.0284448,1602,491,10.473,25.1107
385,533,10.5403,-24.6348,-0.000941693,-0.00299585,-0.00300943,0.0012111,-0.00514864,-0.620953,0.00389933,0.0213461,1609,491,10.5402,24.6348
392,533,10.5353,-24.1827,-0.000307422,-0.00167325,-0.00202474,0.00114647,-0.00312714,-0.622747,0.00255417,0.0128486,1616,491,10.5352,24.1827
399,533,10.5313,-23.7213,0.000113119,-0.000792395,-0.00130468,0.00104137,-0.00172065,-0.618388,0.00161065,0.0116674,1623,491,10.5313,23.7213
406,533,10.5447,-23.2302,0.000423822,1.90506e-05,-0.000700595,0.000950678,-0.000507805,-0.644788,0.000854898,0.0142352,1630,491,10.5447,23.2302
413,533,10.5288,-22.6715,0.000778898,0.000961697,4.6265e-05,0.000972739,0.000767855,1.33651,0.000592134,0.0131061,1637,491,10.5288,22.6715
420,533,10.4991,-22.1492,0.00113436,0.00169055,0.000759757,0.00222151,0.000603402,0.960839,0.00132644,0.0129418,1644,491,10.4991,22.1492
427,533,10.4971,-21.63,0.00126947,0.00220171,0.0012184,0.00304011,0.000431067,0.968093,0.00189943,0.01412,1651,491,10.497,21.63
434,533,10.4781,-21.1121,0.00135364,0.00261251,0.00160872,0.00371055,0.0002556,0.971875,0.00239305,0.0133822,1658,491,10.4782,21.1121
441,533,10.4731,-20.5798,0.00145216,0.00295217,0.00197708,0.00431672,8.76116e-05,0.966687,0.00284906,0.0148426,1665,491,10.4731,20.5798
448,533,10.4664,-20.067,0.0015306,0.00328914,0.00231978,0.0048907,-7.09579e-05,0.966548,0.00328438,0.0154818,1672,491,10.4665,20.067
455,533,10.4274,-19.5144,0.00161594,0.00355186,0.00254893,0.00531044,-0.000142632,0.966863,0.00358878,0.0150314,1679,491,10.4273,19.5144
462,533,10.3805,-18.9272,0.00168009,0.00366065,0.00273011,0.00557453,-0.000233788,0.959382,0.00379668,0.0145866,1686,491,10.3805,18.9272
469,533,10.3702,-18.4131,0.00166549,0.0035537,0.00277623,0.00554197,-0.000322774,0.949298,0.0038068,0.00961457,1693,491,10.3702,18.4131
476,533,10.3829,-17.8503,0.00158445,0.00309114,0.00271271,0.00515317,-0.000477575,0.92084,0.0036052,0.0113876,1700,491,10.3829,17.8502
483,533,10.4126,-17.2529,0.00145616,0.00284184,0.00234754,0.00459664,-0.000298645,0.928893,0.00316867,0.0183695,1707,491,10.4126,17.2529
490,533,10.5013,-16.7922,0.00126068,0.00217169,0.00205222,0.00381836,-0.000385976,0.894606,0.0026835,0.0434925,1714,491,10.5014,16.7922
497,533,10.3772,-16.1134,0.000889141,0.00128494,0.00146578,0.00256613,-0.00039204,0.8525,0.00185529,0.0483751,1721,491,10.3772,16.1134
504,533,10.474,-15.427,0,0,0,0,0,0,0,-1,1728,491,10.474,15.427
511,533,10.6604,-15.0155,0,0,0,0,0,0,0,-1,1735,491,10.6604,15.0155
518,533,10.4703,-14.6209,0,0,0,0,0,0,0,-1,1742,491,10.4703,14.6209
525,533,10.3145,-14.1846,0,0,0,0,0,0,0,-1,1749,491,10.3145,14.1846
532,533,10.1688,-13.4953,0,0,0,0,0,0,0,-1,1756,491,10.1689,13.4953
539,533,3.61609,1.62427,0,0,0,0,0,0,0,-1,1763,491,3.61606,-1.62426
546,533,3.59607,1.65799,0,0,0,0,0,0,0,-1,1770,491,3.59605,-1.658
553,533,0,0,0,0,0,0,0,0,0,-1,1777,491,0,0
560,533,0,0,0,0,0,0,0,0,0,-1,1784,491,0,0
567,533,0,0,0,0,0,0,0,0,0,-1,1791,491,0,0
574,533,0,0,0,0,0,0,0,0,0,-1,1798,491,0,0
581,533,0,0,0,0,0,0,0,0,0,-1,1805,491,0,0
588,533,0,0,0,0,0,0,0,0,0,-1,1812,491,0,0
595,533,0,0,0,0,0,0,0,0,0,-1,1819,491,0,0
602,533,0,0,0,0,0,0,0,0,0,-1,1826,491,0,0
609,533,0,0,0,0,0,0,0,0,0,-1,1833,491,0,0
616,533,0,0,0,0,0,0,0,0,0,-1,1840,491,0,0
623,533,0,0,0,0,0,0,0,0,0,-1,1847,491,0,0
630,533,0,0,0,0,0,0,0,0,0,-1,1854,491,0,0
637,533,0,0,0,0,0,0,0,0,0,-1,1861,491,0,0
644,533,0,0,0,0,0,0,0,0,0,-1,1868,491,0,0
651,533,0,0,0,0,0,0,0,0,0,-1,1875,491,0,0
658,533,0,0,0,0,0,0,0,0,0,-1,1882,491,0,0
665,533,0,0,0,0,0,0,0,0,0,-1,1889,491,0,0
672,533,0,0,0,0,0,0,0,0,0,-1,1896,491,0,0
679,533,0,0,0,0,0,0,0,0,0,-1,1903,491,0,0
686,533,0,0,0,0,0,0,0,0,0,-1,1910,491,0,0
693,533,0,0,0,0,0,0,0,0,0,-1,1917,491,0,0
700,533,0,0,0,0,0,0,0,0,0,-1,1924,491,0,0
707,533,0,0,0,0,0,0,0,0,0,-1,1931,491,0,0
714,533,0,0,0,0,0,0,0,0,0,-1,1938,491,0,0
721,533,0,0,0,0,0,0,0,0,0,-1,1945,491,0,0
728,533,0,0,0,0,0,0,0,0,0,-1,1952,491,0,0
735,533,0,0,0,0,0,0,0,0,0,-1,1959,491,0,0
742,533,0,0,0,0,0,0,0,0,0,-1,1966,491,0,0
749,533,0,0,0,0,0,0,0,0,0,-1,1973,491,0,0
756,533,0,0,0,0,0,0,0,0,0,-1,1980,491,0,0
763,533,0,0,0,0,0,0,0,0,0,-1,1987,491,0,0
770,533,0,0,0,0,0,0,0,0,0,-1,1994,491,0,0
777,533,0,0,0,0,0,0,0,0,0,-1,2001,491,0,0
784,533,0,0,0,0,0,0,0,0,0,-1,2008,491,0,0
791,533,0,0,0,0,0,0,0,0,0,-1,2015,491,0,0
798,533,0,0,0,0,0,0,0,0,0,-1,2022,491,0,0
805,533,0,0,0,0,0,0,0,0,0,-1,2029,491,0,0
812,533,0,0,0,0,0,0,0,0,0,-1,2036,491,0,0
-700,526,0,0,0,0,0,0,0,0,0,-1,524,498,0,0
-693,526,0,0,0,0,0,0,0,0,0,-1,531,498,0,0
-686,526,0,0,0,0,0,0,0,0,0,-1,538,498,0,0
-679,526,0,0,0,0,0,0,0,0,0,-1,545,498,0,0
-672,526,0,0,0,0,0,0,0,0,0,-1,552,498,0,0
-665,526,0,0,0,0,0,0,0,0,0,-1,559,498,0,0
-658,526,0,0,0,0,0,0,0,0,0,-1,566,498,0,0
-651,526,0,0,0,0,0,0,0,0,0,-1,573,498,0,0
-644,526,0,0,0,0,0,0,0,0,0,-1,580,498,0,0
-637,526,0,0,0,0,0,0,0,0,0,-1,587,498,0,0
-630,526,0,0,0,0,0,0,0,0,0,-1,594,498,0,0
-623,526,0,0,0,0,0,0,0,0,0,-1,601,498,0,0
-616,526,0,0,0,0,0,0,0,0,0,-1,608,498,0,0
-609,526,0,0,0,0,0,0,0,0,0,-1,615,498,0,0
-602,526,0,0,0,0,0,0,0,0,0,-1,622,498,0,0
-595,526,0,0,0,0,0,0,0,0,0,-1,629,498,0,0
-588,526,0,0,0,0,0,0,0,0,0,-1,636,498,0,0
-581,526,0,0,0,0,0,0,0,0,0,-1,643,498,0,0
-574,526,0,0,0,0,0,0,0,0,0,-1,650,498,0,0
-567,526,0,0,0,0,0,0,0,0,0,-1,657,498,0,0
-560,526,0,0,0,0,0,0,0,0,0,-1,664,498,0,0
-553,526,0,0,0,0,0,0,0,0,0,-1,671,498,0,0
-546,526,0,0,0,0,0,0,0,0,0,-1,678,498,0,0
-539,526,0,0,0,0,0,0,0,0,0,-1,685,498,0,0
-532,526,0,0,0,0,0,0,0,0,0,-1,692,498,0,0
-525,526,0,0,0,0,0,0,0,0,0,-1,699,498,0,0
-518,526,0,0,0,0,0,0,0,0,0,-1,706,498,0,0
-511,526,0,0,0,0,0,0,0,0,0,-1,713,498,0,0
-504,526,0,0,0,0,0,0,0,0,0,-1,720,498,0,0
-497,526,0,0,0,0,0,0,0,0,0,-1,727,498,0,0
-490,526,0,0,0,0,0,0,0,0,0,-1,734,498,0,0
-483,526,0,0,0,0,0,0,0,0,0,-1,741,498,0,0
-476,526,0,0,0,0,0,0,0,0,0,-1,748,498,0,0
-469,526,0,0,0,0,0,0,0,0,0,-1,755,498,0,0
-462,526,0,0,0,0,0,0,0,0,0,-1,762,498,0,0
-455,526,0,0,0,0,0,0,0,0,0,-1,769,498,0,0
-448,526,0,0,0,0,0,0,0,0,0,-1,776,498,0,0
-441,526,0,0,0,0,0,0,0,0,0,-1,783,498,0,0
-434,526,-0.153564,-5.96649,0,0,0,0,0,0,0,-1,790,498,-0.153589,5.9665
-427,526,1.23206,-4.59808,0,0,0,0,0,0,0,-1,797,498,1.23208,4.59809
-420,526,-1.76373,-11.6241,0,0,0,0,0,0,0,-1,804,498,-1.76373,11.6241
-413,526,-1.38965,-11.7916,0,0,0,0,0,0,0,-1,811,498,-1.38963,11.7916
-406,526,-1.35187,-12.5182,0,0,0,0,0,0,0,-1,818,498,-1.35185,12.5181
-399,526,-1.32715,-13.2116,0,0,0,0,0,0,0,-1,825,498,-1.32713,13.2116
-392,526,-2.27356,-11.5593,0,0,0,0,0,0,0,-1,832,498,-2.27357,11.5593
-385,526,-1.62982,-15.8354,0,0,0,0,0,0,0,-1,839,498,-1.62984,15.8354
-378,526,-1.1958,-16.454,0.0160119,0.0207024,-0.0173205,0.0358357,0.000878558,-0.85269,0.0236031,0.0452593,846,498,-1.19583,16.4541
-371,526,-0.788574,-17.2166,0.0120314,0.016557,-0.0128789,0.0273704,0.001218,-0.872359,0.0178548,0.0361043,853,498,-0.788592,17.2166
-364,526,-0.837463,-17.9127,0.00870662,0.0131128,-0.00970065,0.0208574,0.00096204,-0.897058,0.0135956,0.0196483,860,498,-0.837474,17.9127
-357,526,-0.81427,-18.5313,0.00618254,0.0104123,-0.00728998,0.015888,0.000706869,-0.926577,0.0103644,0.0132544,867,498,-0.814274,18.5312
-350,526,-0.831116,-19.0798,0.00414536,0.00805234,-0.00524644,0.0116972,0.000500524,-0.963619,0.00763675,0.0119931,874,498,-0.831091,19.0798
-343,526,-0.880493,-19.6319,0.00264131,0.00602437,-0.0035955,0.00830637,0.000359315,-1.00527,0.00542177,0.015583,881,498,-0.880514,19.6319
-336,526,-0.897095,-20.157,0.00173692,0.00480353,-0.00258051,0.0062719,0.000268552,-1.05347,0.00409468,0.0154271,888,498,-0.897074,20.157
-329,526,-0.901794,-20.6868,0.00120628,0.00368358,-0.00182524,0.00465077,0.000239087,-1.08352,0.00302397,0.0155627,895,498,-0.90178,20.6868
-322,526,-0.922241,-21.1872,0.00065809,0.00253249,-0.00104978,0.00300255,0.000188031,-1.1498,0.00194206,0.0107868,902,498,-0.922221,21.1872
-315,526,-0.94635,-21.7178,0.000485546,0.00159708,-0.00048637,0.00177985,0.000302779,-1.21134,0.00109962,0.0097003,909,498,-0.946334,21.7178
-308,526,-0.979065,-22.2371,0.000533014,0.000779957,-2.25158e-06,0.000779977,0.000532994,-1.56168,0.000460301,0.00885938,916,498,-0.979067,22.2371
-301,526,-1.03046,-22.7036,0.000569106,-0.000265222,0.000566447,0.000855425,-0.000551541,0.46801,0.000818603,0.0101358,923,498,-1.03043,22.7036
-294,526,-1.02045,-23.1707,0.000733998,-0.00118564,0.00112472,0.00125278,-0.00170442,0.432171,0.00171396,0.00970489,930,498,-1.02045,23.1707
-287,526,-1.02368,-23.6694,0.00100657,-0.00209157,0.0016594,0.00172757,-0.00281258,0.409887,0.00264609,0.00986123,937,498,-1.0237,23.6694
-280,526,-1.04425,-24.1707,0.00122746,-0.00292625,0.00223961,0.00220497,-0.00390377,0.411543,0.00357205,0.0121926,944,498,-1.04426,24.1707
-273,526,-1.03461,-24.6542,0.00162373,-0.00387818,0.00294975,0.00290623,-0.00516068,0.410128,0.00471767,0.0102547,951,498,-1.03463,24.6542
-266,526,-1.03345,-25.1183,0.00192545,-0.004709,0.00348556,0.00342,-0.00620354,0.405069,0.0056331,0.0113384,958,498,-1.03347,25.1184
-259,526,-0.98468,-25.5537,0.00216643,-0.00500484,0.00374712,0.00376709,-0.0066055,0.403708,0.0060629,0.0262682,965,498,-0.984685,25.5537
-252,526,-1.09607,-25.7992,0.00232285,-0.00662472,0.00426936,0.0040331,-0.00833496,0.381011,0.00728326,0.0441658,972,498,-1.09609,25.7992
-245,526,-1.03253,-26.421,0,0,0,0,0,0,0,-1,979,498,-1.03251,26.421
-238,526,-0.901855,-26.7643,0,0,0,0,0,0,0,-1,986,498,-0.901836,26.7643
-231,526,-0.547424,-25.8486,0,0,0,0,0,0,0,-1,993,498,-0.547419,25.8486
-224,526,-0.292603,-23.2656,0,0,0,0,0,0,0,-1,1000,498,-0.292617,23.2656
-217,526,-0.377747,-27.9628,0,0,0,0,0,0,0,-1,1007,498,-0.377729,27.9628
-210,526,-0.271851,-28.2935,0,0,0,0,0,0,0,-1,1014,498,-0.271868,28.2935
-203,526,-0.659302,-18.8818,0,0,0,0,0,0,0,-1,1021,498,-0.659273,18.8818
-196,526,-0.328247,-12.179,0,0,0,0,0,0,0,-1,1028,498,-0.328238,12.179
-189,526,0.401245,-5.96826,0,0,0,0,0,0,0,-1,1035,498,0.401197,5.96826
-182,526,1.7323,-2.99405,0,0,0,0,0,0,0,-1,1042,498,1.73226,2.99404
-175,526,2.27637,-2.07983,0,0,0,0,0,0,0,-1,1049,498,2.27639,2.07984
-168,526,2.12036,-1.66049,0,0,0,0,0,0,0,-1,1056,498,2.12035,1.66048
-161,526,2.09082,-1.20572,0,0,0,0,0,0,0,-1,1063,498,2.09086,1.2057
-154,526,-1.3446,-5.37799,0,0,0,0,0,0,0,-1,1070,498,-1.34457,5.37799
-147,526,-0.472656,-6.64996,0,0,0,0,0,0,0,-1,1077,498,-0.472659,6.64997
-140,526,0.422852,-8.03339,0,0,0,0,0,0,0,-1,1084,498,0.422844,8.0334
-133,526,1.09583,-9.2215,0,0,0,0,0,0,0,-1,1091,498,1.09581,9.2215
-126,526,3.42529,-2.36053,0,0,0,0,0,0,0,-1,1098,498,3.42523,2.36052
-119,526,2.7771,-0.764099,0,0,0,0,0,0,0,-1,1105,498,2.7771,0.764107
-112,526,2.57715,-1.1893,0,0,0,0,0,0,0,-1,1112,498,2.57718,1.1893
-105,526,0,0,0,0,0,0,0,0,0,-1,1119,498,0,0
-98,526,0,0,0,0,0,0,0,0,0,-1,1126,498,0,0
-91,526,0,0,0,0,0,0,0,0,0,-1,1133,498,0,0
-84,526,0,0,0,0,0,0,0,0,0,-1,1140,498,0,0
-77,526,0,0,0,0,0,0,0,0,0,-1,1147,498,0,0
-70,526,0,0,0,0,0,0,0,0,0,-1,1154,498,0,0
-63,526,0,0,0,0,0,0,0,0,0,-1,1161,498,0,0
-56,526,0,0,0,0,0,0,0,0,0,-1,1168,498,0,0
-49,526,0,0,0,0,0,0,0,0,0,-1,1175,498,0,0
-42,526,0,0,0,0,0,0,0,0,0,-1,1182,498,0,0
-35,526,0,0,0,0,0,0,0,0,0,-1,1189,498,0,0
-28,526,0,0,0,0,0,0,0,0,0,-1,1196,498,0,0
-21,526,0,0,0,0,0,0,0,0,0,-1,1203,498,0,0
-14,526,0,0,0,0,0,0,0,0,0,-1,1210,498,0,0
-7,526,0,0,0,0,0,0,0,0,0,-1,1217,498,0,0
0,526,0,0,0,0,0,0,0,0,0,-1,1224,498,0,0
7,526,0,0,0,0,0,0,0,0,0,-1,1231,498,0,0
14,526,0,0,0,0,0,0,0,0,0,-1,1238,498,0,0
21,526,0,0,0,0,0,0,0,0,0,-1,1245,498,0,0
28,526,0,0,0,0,0,0,0,0,0,-1,1252,498,0,0
35,526,0,0,0,0,0,0,0,0,0,-1,1259,498,0,0
42,526,0,0,0,0,0,0,0,0,0,-1,1266,498,0,0
49,526,0,0,0,0,0,0,0,0,0,-1,1273,498,0,0
56,526,0,0,0,0,0,0,0,0,0,-1,1280,498,0,0
63,526,0,0,0,0,0,0,0,0,0,-1,1287,498,0,0
70,526,0,0,0,0,0,0,0,0,0,-1,1294,498,0,0
77,526,0,0,0,0,0,0,0,0,0,-1,1301,498,0,0
84,526,0,0,0,0,0,0,0,0,0,-1,1308,498,0,0
91,526,0,0,0,0,0,0,0,0,0,-1,1315,498,0,0
98,526,0,0,0,0,0,0,0,0,0,-1,1322,498,0,0
105,526,0,0,0,0,0,0,0,0,0,-1,1329,498,0,0
112,526,0,0,0,0,0,0,0,0,0,-1,1336,498,0,0
119,526,0,0,0,0,0,0,0,0,0,-1,1343,498,0,0
126,526,0,0,0,0,0,0,0,0,0,-1,1350,498,0,0
133,526,0,0,0,0,0,0,0,0,0,-1,1357,498,0,0
140,526,0,0,0,0,0,0,0,0,0,-1,1364,498,0,0
147,526,0,0,0,0,0,0,0,0,0,-1,1371,498,0,0
154,526,0,0,0,0,0,0,0,0,0,-1,1378,498,0,0
161,526,0,0,0,0,0,0,0,0,0,-1,1385,498,0,0
168,526,0,0,0,0,0,0,0,0,0,-1,1392,498,0,0
175,526,0,0,0,0,0,0,0,0,0,-1,1399,498,0,0
182,526,0,0,0,0,0,0,0,0,0,-1,1406,498,0,0
189,526,0,0,0,0,0,0,0,0,0,-1,1413,498,0,0
196,526,0,0,0,0,0,0,0,0,0,-1,1420,498,0,0
203,526,0,0,0,0,0,0,0,0,0,-1,1427,498,0,0
210,526,0,0,0,0,0,0,0,0,0,-1,1434,498,0,0
217,526,0,0,0,0,0,0,0,0,0,-1,1441,498,0,0
224,526,0,0,0,0,0,0,0,0,0,-1,1448,498,0,0
231,526,7.93237,-1.30618,0,0,0,0,0,0,0,-1,1455,498,7.93238,1.30618
238,526,7.97717,-1.08197,0,0,0,0,0,0,0,-1,1462,498,7.97723,1.08196
245,526,7.2793,-0.792938,0,0,0,0,0,0,0,-1,1469,498,7.27931,0.792926
252,526,6.73523,-2.23608,0,0,0,0,0,0,0,-1,1476,498,6.73525,2.23608
259,526,6.22949,-1.84967,0,0,0,0,0,0,0,-1,1483,498,6.22953,1.84968
266,526,5.72375,-1.46329,0,0,0,0,0,0,0,-1,1490,498,5.72381,1.46328
273,526,4.33984,0.49173,0,0,0,0,0,0,0,-1,1497,498,4.33979,-0.491727
280,526,1.4585,-1.59897,0,0,0,0,0,0,0,-1,1504,498,1.45846,1.59895
287,526,1.46411,-2.40134,0,0,0,0,0,0,0,-1,1511,498,1.46406,2.40133
294,526,5.57471,-4.59085,0,0,0,0,0,0,0,-1,1518,498,5.57466,4.59084
301,526,4.42786,-3.99677,0,0,0,0,0,0,0,-1,1525,498,4.42788,3.99676
308,526,5.79529,-4.19366,0,0,0,0,0,0,0,-1,1532,498,5.79528,4.19368
315,526,5.09851,-5.20068,0,0,0,0,0,0,0,-1,1539,498,5.09851,5.20068
322,526,5.50708,-4.72348,0,0,0,0,0,0,0,-1,1546,498,5.50713,4.72347
329,526,3.88672,-4.345,0,0,0,0,0,0,0,-1,1553,498,3.88674,4.34501
336,526,4.97876,-2.23828,0,0,0,0,0,0,0,-1,1560,498,4.97877,2.23828
343,526,3.31665,-2.69696,0,0,0,0,0,0,0,-1,1567,498,3.31667,2.69696
350,526,6.06287,-6.12015,0,0,0,0,0,0,0,-1,1574,498,6.06286,6.12014
357,526,11.7467,-26.2321,0,0,0,0,0,0,0,-1,1581,498,11.7467,26.2321
364,526,11.2477,-25.7327,0,0,0,0,0,0,0,-1,1588,498,11.2477,25.7327
371,526,11.0309,-25.6519,0,0,0,0,0,0,0,-1,1595,498,11.0309,25.6519
378,526,10.905,-25.264,0,0,0,0,0,0,0,-1,1602,498,10.905,25.264
385,526,11.0328,-24.694,0,0,0,0,0,0,0,-1,1609,498,11.0328,24.694
392,526,11.152,-24.213,-0.000548255,-0.00178066,-0.00261602,0.00152315,-0.00385207,-0.669732,0.00319901,0.0403779,1616,498,11.152,24.2129
399,526,11.0286,-23.72,-1.59096e-05,-0.000878935,-0.00185195,0.00145413,-0.00234898,-0.670938,0.00221589,0.0219936,1623,498,11.0285,23.72
406,526,11.0427,-23.1757,0.000371376,-0.000186303,-0.00130059,0.00142268,-0.0012376,-0.679799,0.00153715,0.0116462,1630,498,11.0427,23.1757
413,526,11.0253,-22.6487,0.000841893,0.000725996,-0.00054267,0.0013297,0.000238189,-0.732208,0.000818703,0.0124634,1637,498,11.0253,22.6487
420,526,11.0122,-22.1451,0.0012265,0.00137412,0.000229334,0.00154123,0.00105939,0.94109,0.000910418,0.013671,1644,498,11.0122,22.1452
427,526,11.0208,-21.6149,0.00130777,0.00175933,0.000700087,0.00226914,0.000797957,0.941383,0.00132917,0.0145516,1651,498,11.0208,21.6149
434,526,11.0046,-21.0618,0.00130287,0.0020568,0.0010459,0.0027916,0.000568074,0.958362,0.00170358,0.0129513,1658,498,11.0047,21.0618
441,526,10.9857,-20.5443,0.0013299,0.00228499,0.00138062,0.00326832,0.000346571,0.951905,0.00207303,0.011512,1665,498,10.9857,20.5443
448,526,10.985,-20.029,0.00137763,0.00247292,0.00171143,0.00372219,0.00012836,0.940246,0.0024398,0.010332,1672,498,10.985,20.029
455,526,10.9501,-19.5047,0.00141497,0.00262234,0.00194639,0.00405652,-1.91953e-05,0.935773,0.00271076,0.0131143,1679,498,10.9501,19.5047
462,526,10.9313,-18.9414,0.00144088,0.00265501,0.00215172,0.00428366,-0.000187768,0.922889,0.00292038,0.0104911,1686,498,10.9313,18.9414
469,526,10.9364,-18.4113,0.00142227,0.00250045,0.00225938,0.00428416,-0.000361444,0.902509,0.00298389,0.00750758,1693,498,10.9364,18.4113
476,526,10.921,-17.8683,0.00133953,0.00203616,0.00229531,0.00400943,-0.000633738,0.860699,0.00290731,0.00951423,1700,498,10.921,17.8683
483,526,10.9103,-17.257,0.00121233,0.00175818,0.00206077,0.00356402,-0.00059351,0.851235,0.00259656,0.0134779,1707,498,10.9103,17.2569
490,526,10.9705,-16.6176,0.00101306,0.00112925,0.00187236,0.00294442,-0.0008021,0.800907,0.00227788,0.0256538,1714,498,10.9704,16.6175
497,526,10.8744,-16.2263,0.000689049,0.000352401,0.00146721,0.00199756,-0.000956113,0.728286,0.00174028,0.0307054,1721,498,10.8744,16.2263
504,526,10.8391,-15.6031,0.000205274,-0.000696137,0.000694233,0.000582273,-0.00107314,0.497487,0.000969655,0.032922,1728,498,10.8391,15.6031
511,526,10.9857,-15.049,-0.000279144,-0.00205168,-0.000451945,-0.000170563,-0.00216026,-0.235785,0.00138682,0.0425732,1735,498,10.9857,15.049
518,526,10.8536,-14.5652,-0.000563952,-0.00312807,-0.00170186,0.000284716,-0.00397673,-0.462584,0.00275098,0.0452427,1742,498,10.8537,14.5652
525,526,10.7576,-14.1817,-0.00113926,-0.0043386,-0.00332024,0.000946577,-0.00642444,-0.56091,0.00463084,0.0469248,1749,498,10.7576,14.1817
532,526,10.6693,-13.5574,-0.00178544,-0.00543651,-0.00565645,0.00233276,-0.00955472,-0.629307,0.00727319,0.049242,1756,498,10.6693,13.5574
539,526,10.6063,-12.9149,0,0,0,0,0,0,0,-1,1763,498,10.6063,12.9149
546,526,3.36731,1.07721,0,0,0,0,0,0,0,-1,1770,498,3.36735,-1.07719
553,526,3.40796,1.37137,0,0,0,0,0,0,0,-1,1777,498,3.40792,-1.37138
560,526,0,0,0,0,0,0,0,0,0,-1,1784,498,0,0
567,526,0,0,0,0,0,0,0,0,0,-1,1791,498,0,0
574,526,0,0,0,0,0,0,0,0,0,-1,1798,498,0,0
581,526,0,0,0,0,0,0,0,0,0,-1,1805,498,0,0
588,526,0,0,0,0,0,0,0,0,0,-1,1812,498,0,0
595,526,0,0,0,0,0,0,0,0,0,-1,1819,498,0,0
602,526,0,0,0,0,0,0,0,0,0,-1,1826,498,0,0
609,526,0,0,0,0,0,0,0,0,0,-1,1833,498,0,0
616,526,0,0,0,0,0,0,0,0,0,-1,1840,498,0,0
623,526,0,0,0,0,0,0,0,0,0,-1,1847,498,0,0
630,526,0,0,0,0,0,0,0,0,0,-1,1854,498,0,0
637,526,0,0,0,0,0,0,0,0,0,-1,1861,498,0,0
644,526,0,0,0,0,0,0,0,0,0,-1,1868,498,0,0
651,526,0,0,0,0,0,0,0,0,0,-1,1875,498,0,0
658,526,0,0,0,0,0,0,0,0,0,-1,1882,498,0,0
665,526,0,0,0,0,0,0,0,0,0,-1,1889,498,0,0
672,526,0,0,0,0,0,0,0,0,0,-1,1896,498,0,0
679,526,0,0,0,0,0,0,0,0,0,-1,1903,498,0,0
686,526,0,0,0,0,0,0,0,0,0,-1,1910,498,0,0
693,526,0,0,0,0,0,0,0,0,0,-1,1917,498,0,0
700,526,0,0,0,0,0,0,0,0,0,-1,1924,498,0,0
707,526,0,0,0,0,0,0,0,0,0,-1,1931,498,0,0
714,526,0,0,0,0,0,0,0,0,0,-1,1938,498,0,0
721,526,0,0,0,0,0,0,0,0,0,-1,1945,498,0,0
728,526,0,0,0,0,0,0,0,0,0,-1,1952,498,0,0
735,526,0,0,0,0,0,0,0,0,0,-1,1959,498,0,0
742,526,0,0,0,0,0,0,0,0,0,-1,1966,498,0,0
749,526,0,0,0,0,0,0,0,0,0,-1,1973,498,0,0
756,526,0,0,0,0,0,0,0,0,0,-1,1980,498,0,0
763,526,0,0,0,0,0,0,0,0,0,-1,1987,498,0,0
770,526,0,0,0,0,0,0,0,0,0,-1,1994,498,0,0
777,526,0,0,0,0,0,0,0,0,0,-1,2001,498,0,0
784,526,0,0,0,0,0,0,0,0,0,-1,2008,498,0,0
791,526,0,0,0,0,0,0,0,0,0,-1,2015,498,0,0
798,526,0,0,0,0,0,0,0,0,0,-1,2022,498,0,0
805,526,0,0,0,0,0,0,0,0,0,-1,2029,498,0,0
812,526,0,0,0,0,0,0,0,0,0,-1,2036,498,0,0
-700,519,0,0,0,0,0,0,0,0,0,-1,524,505,0,0
-693,519,0,0,0,0,0,0,0,0,0,-1,531,505,0,0
-686,519,0,0,0,0,0,0,0,0,0,-1,538,505,0,0
-679,519,0,0,0,0,0,0,0,0,0,-1,545,505,0,0
-672,519,0,0,0,0,0,0,0,0,0,-1,552,505,0,0
-665,519,0,0,0,0,0,0,0,0,0,-1,559,505,0,0
-658,519,0,0,0,0,0,0,0,0,0,-1,566,505,0,0
-651,519,0,0,0,0,0,0,0,0,0,-1,573,505,0,0
-644,519,0,0,0,0,0,0,0,0,0,-1,580,505,0,0
-637,519,0,0,0,0,0,0,0,0,0,-1,587,505,0,0
-630,519,0,0,0,0,0,0,0,0,0,-1,594,505,0,0
-623,519,0,0,0,0,0,0,0,0,0,-1,601,505,0,0
-616,519,0,0,0,0,0,0,0,0,0,-1,608,505,0,0
-609,519,0,0,0,0,0,0,0,0,0,-1,615,505,0,0
-602,519,0,0,0,0,0,0,0,0,0,-1,622,505,0,0
-595,519,0,0,0,0,0,0,0,0,0,-1,629,505,0,0
-588,519,0,0,0,0,0,0,0,0,0,-1,636,505,0,0
-581,519,0,0,0,0,0,0,0,0,0,-1,643,505,0,0
-574,519,0,0,0,0,0,0,0,0,0,-1,650,505,0,0
-567,519,0,0,0,0,0,0,0,0,0,-1,657,505,0,0
-560,519,0,0,0,0,0,0,0,0,0,-1,664,505,0,0
-553,519,0,0,0,0,0,0,0,0,0,-1,671,505,0,0
-546,519,0,0,0,0,0,0,0,0,0,-1,678,505,0,0
-539,519,0,0,0,0,0,0,0,0,0,-1,685,505,0,0
-532,519,0,0,0,0,0,0,0,0,0,-1,692,505,0,0
-525,519,0,0,0,0,0,0,0,0,0,-1,699,505,0,0
-518,519,0,0,0,0,0,0,0,0,0,-1,706,505,0,0
-511,519,0,0,0,0,0,0,0,0,0,-1,713,505,0,0
-504,519,0,0,0,0,0,0,0,0,0,-1,720,505,0,0
-497,519,0,0,0,0,0,0,0,0,0,-1,727,505,0,0
-490,519,0,0,0,0,0,0,0,0,0,-1,734,505,0,0
-483,519,0,0,0,0,0,0,0,0,0,-1,741,505,0,0
-476,519,0,0,0,0,0,0,0,0,0,-1,748,505,0,0
-469,519,0,0,0,0,0,0,0,0,0,-1,755,505,0,0
-462,519,0,0,0,0,0,0,0,0,0,-1,762,505,0,0
-455,519,0,0,0,0,0,0,0,0,0,-1,769,505,0,0
-448,519,0,0,0,0,0,0,0,0,0,-1,776,505,0,0
-441,519,1.34839,-5.29346,0,0,0,0,0,0,0,-1,783,505,1.3484,5.29347
-434,519,0.949585,-5.77313,0,0,0,0,0,0,0,-1,790,505,0.949598,5.77315
-427,519,-0.0523682,-9.31567,0,0,0,0,0,0,0,-1,797,505,-0.0523854,9.31568
-420,519,-2.38867,-12.1938,0,0,0,0,0,0,0,-1,804,505,-2.38867,12.1938
-413,519,-2.2298,-12.4998,0,0,0,0,0,0,0,-1,811,505,-2.22979,12.4998
-406,519,-1.44373,-12.3475,0,0,0,0,0,0,0,-1,818,505,-1.44376,12.3475
-399,519,-1.41022,-14.1157,0,0,0,0,0,0,0,-1,825,505,-1.41019,14.1157
-392,519,-1.74365,-15.2379,0,0,0,0,0,0,0,-1,832,505,-1.74367,15.2378
-385,519,-1.71454,-15.786,0,0,0,0,0,0,0,-1,839,505,-1.71457,15.786
-378,519,-1.48083,-16.5945,0.012453,0.0177305,-0.0145835,0.0299121,0.00027141,-0.8749,0.0198516,0.0313056,846,505,-1.48086,16.5945
-371,519,-1.31464,-17.2509,0.0096507,0.0138368,-0.0110123,0.0229532,0.000534271,-0.87931,0.0151272,0.0185608,853,505,-1.31463,17.2509
-364,519,-1.32263,-17.9376,0.00722016,0.0106622,-0.00822093,0.0173403,0.00054202,-0.88858,0.0113838,0.0113286,860,505,-1.32263,17.9376
-357,519,-1.32996,-18.5383,0.0053199,0.00822021,-0.00607506,0.0130158,0.000524309,-0.902559,0.00850782,0.0105022,867,505,-1.32996,18.5383
-350,519,-1.34863,-19.0818,0.00374104,0.00606071,-0.00423135,0.00928831,0.00051344,-0.919165,0.00602835,0.0128563,874,505,-1.34861,19.0818
-343,519,-1.40881,-19.5872,0.00255333,0.00414404,-0.00270678,0.00616989,0.000527475,-0.928295,0.0039492,0.0160401,881,505,-1.40882,19.5872
-336,519,-1.44305,-20.1047,0.0018602,0.00300271,-0.00177172,0.00429299,0.000569918,-0.94135,0.00269221,0.0155856,888,505,-1.44306,20.1047
-329,519,-1.42847,-20.6346,0.00147813,0.00196006,-0.00109236,0.00283771,0.000600476,-0.893955,0.00172681,0.0135095,895,505,-1.42849,20.6346
-322,519,-1.43756,-21.1678,0.00105881,0.000904646,-0.000405773,0.00139476,0.000568697,-0.691537,0.000809819,0.0113617,902,505,-1.43754,21.1678
-315,519,-1.4447,-21.704,0.000903342,5.625e-05,0.00011033,0.000917476,4.21159e-05,0.127414,0.000598106,0.00969691,909,505,-1.44468,21.704
-308,519,-1.4762,-22.2455,0.000909871,-0.000730075,0.000561129,0.00108349,-0.000903692,0.300065,0.00114886,0.00815091,916,505,-1.47622,22.2456
-301,519,-1.52026,-22.7325,0.00086817,-0.00171648,0.00111058,0.00127981,-0.00212812,0.354953,0.00198779,0.012534,923,505,-1.52028,22.7325
-294,519,-1.52917,-23.1774,0.000923476,-0.00251003,0.00162221,0.00156867,-0.00315522,0.378545,0.00277814,0.0155285,930,505,-1.52918,23.1774
-287,519,-1.5451,-23.6583,0.00108939,-0.0033261,0.00211113,0.00193632,-0.00417303,0.381515,0.00360517,0.0111954,937,505,-1.5451,23.6583
-280,519,-1.56946,-24.1625,0.00122618,-0.00413185,0.00270207,0.00235221,-0.00525787,0.394842,0.00449917,0.0170577,944,505,-1.56944,24.1625
-273,519,-1.53027,-24.672,0.0016466,-0.00512133,0.00349035,0.00312409,-0.00659882,0.400436,0.00573177,0.0316005,951,505,-1.53026,24.672
-266,519,-1.61609,-25.1657,0.00207322,-0.00581577,0.00413306,0.00384198,-0.00758453,0.404369,0.00671401,0.048371,958,505,-1.61608,25.1657
-259,519,-1.45605,-25.6331,0,0,0,0,0,0,0,-1,965,505,-1.45604,25.6331
-252,519,-1.71973,-25.5843,0,0,0,0,0,0,0,-1,972,505,-1.71973,25.5843
-245,519,-1.23254,-23.2696,0,0,0,0,0,0,0,-1,979,505,-1.23256,23.2696
-238,519,-1.06903,-23.1753,0,0,0,0,0,0,0,-1,986,505,-1.06904,23.1753
-231,519,0.337585,-11.2798,0,0,0,0,0,0,0,-1,993,505,0.337568,11.2798
-224,519,-0.0494995,-7.97394,0,0,0,0,0,0,0,-1,1000,505,-0.0495123,7.97392
-217,519,-0.283691,-23.8409,0,0,0,0,0,0,0,-1,1007,505,-0.283683,23.8409
-210,519,-2.14398,-4.74774,0,0,0,0,0,0,0,-1,1014,505,-2.14397,4.74775
-203,519,-0.513611,-5.39017,0,0,0,0,0,0,0,-1,1021,505,-0.513585,5.39017
-196,519,-0.374023,-5.41635,0,0,0,0,0,0,0,-1,1028,505,-0.374047,5.41635
-189,519,-0.234497,-5.44254,0,0,0,0,0,0,0,-1,1035,505,-0.234508,5.44253
-182,519,2.76697,-1.19659,0,0,0,0,0,0,0,-1,1042,505,2.76696,1.19661
-175,519,2.31323,-0.960938,0,0,0,0,0,0,0,-1,1049,505,2.31319,0.960941
-168,519,2.01074,-0.721405,0,0,0,0,0,0,0,-1,1056,505,2.01072,0.721407
-161,519,2.32056,-0.522339,0,0,0,0,0,0,0,-1,1063,505,2.32057,0.522328
-154,519,2.55566,0.116669,0,0,0,0,0,0,0,-1,1070,505,2.55563,-0.116661
-147,519,-0.55127,-6.14001,0,0,0,0,0,0,0,-1,1077,505,-0.551252,6.14001
-140,519,0.240601,-7.53503,0,0,0,0,0,0,0,-1,1084,505,0.240653,7.53501
-133,519,2.70911,-4.4516,0,0,0,0,0,0,0,-1,1091,505,2.70915,4.45161
-126,519,0,0,0,0,0,0,0,0,0,-1,1098,505,0,0
-119,519,0,0,0,0,0,0,0,0,0,-1,1105,505,0,0
-112,519,0,0,0,0,0,0,0,0,0,-1,1112,505,0,0
-105,519,0,0,0,0,0,0,0,0,0,-1,1119,505,0,0
-98,519,0,0,0,0,0,0,0,0,0,-1,1126,505,0,0
-91,519,0,0,0,0,0,0,0,0,0,-1,1133,505,0,0
-84,519,0,0,0,0,0,0,0,0,0,-1,1140,505,0,0
-77,519,0,0,0,0,0,0,0,0,0,-1,1147,505,0,0
-70,519,0,0,0,0,0,0,0,0,0,-1,1154,505,0,0
-63,519,0,0,0,0,0,0,0,0,0,-1,1161,505,0,0
-56,519,0,0,0,0,0,0,0,0,0,-1,1168,505,0,0
-49,519,0,0,0,0,0,0,0,0,0,-1,1175,505,0,0
-42,519,0,0,0,0,0,0,0,0,0,-1,1182,505,0,0
-35,519,0,0,0,0,0,0,0,0,0,-1,1189,505,0,0
-28,519,0,0,0,0,0,0,0,0,0,-1,1196,505,0,0
-21,519,0,0,0,0,0,0,0,0,0,-1,1203,505,0,0
-14,519,0,0,0,0,0,0,0,0,0,-1,1210,505,0,0
-7,519,0,0,0,0,0,0,0,0,0,-1,1217,505,0,0
0,519,0,0,0,0,0,0,0,0,0,-1,1224,505,0,0
7,519,0,0,0,0,0,0,0,0,0,-1,1231,505,0,0
14,519,0,0,0,0,0,0,0,0,0,-1,1238,505,0,0
21,519,0,0,0,0,0,0,0,0,0,-1,1245,505,0,0
28,519,0,0,0,0,0,0,0,0,0,-1,1252,505,0,0
35,519,0,0,0,0,0,0,0,0,0,-1,1259,505,0,0
42,519,0,0,0,0,0,0,0,0,0,-1,1266,505,0,0
49,519,0,0,0,0,0,0,0,0,0,-1,1273,505,0,0
56,519,0,0,0,0,0,0,0,0,0,-1,1280,505,0,0
63,519,0,0,0,0,0,0,0,0,0,-1,1287,505,0,0
70,519,0,0,0,0,0,0,0,0,0,-1,1294,505,0,0
77,519,0,0,0,0,0,0,0,0,0,-1,1301,505,0,0
84,519,0,0,0,0,0,0,0,0,0,-1,1308,505,0,0
91,519,0,0,0,0,0,0,0,0,0,-1,1315,505,0,0
98,519,0,0,0,0,0,0,0,0,0,-1,1322,505,0,0
105,519,0,0,0,0,0,0,0,0,0,-1,1329,505,0,0
112,519,0,0,0,0,0,0,0,0,0,-1,1336,505,0,0
119,519,0,0,0,0,0,0,0,0,0,-1,1343,505,0,0
126,519,0,0,0,0,0,0,0,0,0,-1,1350,505,0,0
133,519,0,0,0,0,0,0,0,0,0,-1,1357,505,0,0
140,519,0,0,0,0,0,0,0,0,0,-1,1364,505,0,0
147,519,0,0,0,0,0,0,0,0,0,-1,1371,505,0,0
154,519,0,0,0,0,0,0,0,0,0,-1,1378,505,0,0
161,519,0,0,0,0,0,0,0,0,0,-1,1385,505,0,0
168,519,0,0,0,0,0,0,0,0,0,-1,1392,505,0,0
175,519,0,0,0,0,0,0,0,0,0,-1,1399,505,0,0
182,519,0,0,0,0,0,0,0,0,0,-1,1406,505,0,0
189,519,0,0,0,0,0,0,0,0,0,-1,1413,505,0,0
196,519,0,0,0,0,0,0,0,0,0,-1,1420,505,0,0
203,519,0,0,0,0,0,0,0,0,0,-1,1427,505,0,0
210,519,0,0,0,0,0,0,0,0,0,-1,1434,505,0,0
217,519,0,0,0,0,0,0,0,0,0,-1,1441,505,0,0
224,519,0,0,0,0,0,0,0,0,0,-1,1448,505,0,0
231,519,0,0,0,0,0,0,0,0,0,-1,1455,505,0,0
238,519,0,0,0,0,0,0,0,0,0,-1,1462,505,0,0
245,519,0,0,0,0,0,0,0,0,0,-1,1469,505,0,0
252,519,5.26208,0.0938416,0,0,0,0,0,0,0,-1,1476,505,5.26207,-0.0938493
259,519,6.14246,-1.36441,0,0,0,0,0,0,0,-1,1483,505,6.14241,1.36441
266,519,5.31909,-0.400787,0,0,0,0,0,0,0,-1,1490,505,5.31912,0.400773
273,519,4.02393,0.325531,0,0,0,0,0,0,0,-1,1497,505,4.0239,-0.325522
280,519,4.68848,0.53006,0,0,0,0,0,0,0,-1,1504,505,4.68842,-0.530073
287,519,7.9519,-3.80801,0,0,0,0,0,0,0,-1,1511,505,7.95193,3.808
294,519,6.92273,-3.38889,0,0,0,0,0,0,0,-1,1518,505,6.92268,3.38888
301,519,5.35669,-2.92661,0,0,0,0,0,0,0,-1,1525,505,5.35675,2.9266
308,519,7.37549,-5.64529,0,0,0,0,0,0,0,-1,1532,505,7.3755,5.64529
315,519,6.30029,-4.53754,0,0,0,0,0,0,0,-1,1539,505,6.30024,4.53753
322,519,5.84302,-5.45117,0,0,0,0,0,0,0,-1,1546,505,5.84303,5.45116
329,519,4.92407,0.62384,0,0,0,0,0,0,0,-1,1553,505,4.92403,-0.623832
336,519,3.10095,-0.329285,0,0,0,0,0,0,0,-1,1560,505,3.1009,0.329283
343,519,2.49146,-2.31119,0,0,0,0,0,0,0,-1,1567,505,2.49145,2.31119
350,519,3.47729,-2.22516,0,0,0,0,0,0,0,-1,1574,505,3.47726,2.22515
357,519,9.01709,-24.3693,0,0,0,0,0,0,0,-1,1581,505,9.01713,24.3693
364,519,11.5016,-25.733,0,0,0,0,0,0,0,-1,1588,505,11.5016,25.733
371,519,8.9231,-23.3576,0,0,0,0,0,0,0,-1,1595,505,8.92307,23.3576
378,519,6.36597,-10.0967,0,0,0,0,0,0,0,-1,1602,505,6.36597,10.0967
385,519,6.24756,-9.72186,0,0,0,0,0,0,0,-1,1609,505,6.24752,9.72183
392,519,11.5444,-24.4431,0,0,0,0,0,0,0,-1,1616,505,11.5444,24.443
399,519,11.4708,-23.7351,0,0,0,0,0,0,0,-1,1623,505,11.4708,23.7351
406,519,11.5214,-23.1652,0.000204935,-0.000133978,-0.00188104,0.00192414,-0.00185318,-0.740476,0.00218096,0.0339365,1630,505,11.5214,23.1652
413,519,11.5695,-22.633,0.000876338,0.000776739,-0.00105922,0.00188693,-0.000233853,-0.761908,0.00134271,0.0151537,1637,505,11.5694,22.633
420,519,11.5376,-22.1012,0.00134746,0.00135915,-0.000188394,0.00154179,0.00116482,-0.800904,0.000928083,0.0155999,1644,505,11.5376,22.1012
427,519,11.5496,-21.6202,0.00141367,0.00162879,0.000316312,0.00185533,0.00118713,0.94929,0.00108505,0.0141738,1651,505,11.5496,21.6202
434,519,11.5483,-21.0817,0.00133884,0.00182131,0.000633295,0.00225776,0.000902392,0.967371,0.00131223,0.0127674,1658,505,11.5484,21.0817
441,519,11.5216,-20.5325,0.00131257,0.00195241,0.000937859,0.00262341,0.000641563,0.949768,0.00157914,0.0125562,1665,505,11.5216,20.5325
448,519,11.5106,-20.0084,0.00134682,0.00200139,0.00124697,0.00296331,0.000384898,0.913736,0.00186056,0.00975161,1672,505,11.5106,20.0083
455,519,11.4844,-19.4936,0.00133461,0.00204962,0.00146248,0.00319766,0.000186574,0.905272,0.00207238,0.0111594,1679,505,11.4844,19.4936
462,519,11.4735,-18.9455,0.0013117,0.00203092,0.0016541,0.00336405,-2.14233e-05,0.892436,0.00224987,0.0105268,1686,505,11.4735,18.9455
469,519,11.4854,-18.389,0.00127743,0.00186237,0.00179372,0.0033873,-0.000247507,0.866213,0.00234506,0.0104133,1693,505,11.4854,18.389
476,519,11.4777,-17.8229,0.00117588,0.00143696,0.00189348,0.00320439,-0.000591551,0.819816,0.00235831,0.0132323,1700,505,11.4776,17.8229
483,519,11.4492,-17.2679,0.00102771,0.00115598,0.001748,0.00284102,-0.00065733,0.803736,0.00214693,0.0164272,1707,505,11.4492,17.2679
490,519,11.4156,-16.6676,0.000801878,0.000597624,0.00161008,0.00231306,-0.000913562,0.753726,0.00192042,0.0139575,1714,505,11.4156,16.6676
497,519,11.3781,-16.1584,0.000505126,-4.4012e-05,0.00133022,0.00158882,-0.00112771,0.683623,0.0015759,0.0160335,1721,505,11.3781,16.1584
504,519,11.3269,-15.5594,9.88697e-05,-0.000861168,0.000778287,0.000533262,-0.00129556,0.509071,0.00108602,0.0155713,1728,505,11.3269,15.5594
511,519,11.3623,-14.9227,-0.000358346,-0.00186758,-8.39483e-05,-0.000353691,-0.00187223,-0.0553955,0.00114856,0.0225719,1735,505,11.3623,14.9227
518,519,11.3153,-14.4443,-0.000768254,-0.00271721,-0.0011387,-0.000243983,-0.00324148,-0.431478,0.00208443,0.0412715,1742,505,11.3153,14.4443
525,519,11.3348,-14.1306,-0.00141097,-0.00362628,-0.00258812,0.000296562,-0.0053338,-0.583203,0.00365873,0.0469323,1749,505,11.3348,14.1306
532,519,11.4502,-13.6322,-0.0021126,-0.00440119,-0.00460382,0.00148701,-0.00800079,-0.66359,0.00589241,0.0498266,1756,505,11.4502,13.6322
539,519,11.6276,-13.1102,0,0,0,0,0,0,0,-1,1763,505,11.6275,13.1102
546,519,4.62024,-2.89774,0,0,0,0,0,0,0,-1,1770,505,4.62023,2.89775
553,519,4.14136,0.0667419,0,0,0,0,0,0,0,-1,1777,505,4.14141,-0.0667503
560,519,3.77856,0.279724,0,0,0,0,0,0,0,-1,1784,505,3.77861,-0.279731
567,519,0,0,0,0,0,0,0,0,0,-1,1791,505,0,0
574,519,0,0,0,0,0,0,0,0,0,-1,1798,505,0,0
581,519,0,0,0,0,0,0,0,0,0,-1,1805,505,0,0
588,519,0,0,0,0,0,0,0,0,0,-1,1812,505,0,0
595,519,0,0,0,0,0,0,0,0,0,-1,1819,505,0,0
602,519,0,0,0,0,0,0,0,0,0,-1,1826,505,0,0
609,519,0,0,0,0,0,0,0,0,0,-1,1833,505,0,0
616,519,0,0,0,0,0,0,0,0,0,-1,1840,505,0,0
623,519,0,0,0,0,0,0,0,0,0,-1,1847,505,0,0
630,519,0,0,0,0,0,0,0,0,0,-1,1854,505,0,0
637,519,0,0,0,0,0,0,0,0,0,-1,1861,505,0,0
644,519,0,0,0,0,0,0,0,0,0,-1,1868,505,0,0
651,519,0,0,0,0,0,0,0,0,0,-1,1875,505,0,0
658,519,0,0,0,0,0,0,0,0,0,-1,1882,505,0,0
665,519,0,0,0,0,0,0,0,0,0,-1,1889,505,0,0
672,519,0,0,0,0,0,0,0,0,0,-1,1896,505,0,0
679,519,0,0,0,0,0,0,0,0,0,-1,1903,505,0,0
686,519,0,0,0,0,0,0,0,0,0,-1,1910,505,0,0
693,519,0,0,0,0,0,0,0,0,0,-1,1917,505,0,0
700,519,0,0,0,0,0,0,0,0,0,-1,1924,505,0,0
707,519,0,0,0,0,0,0,0,0,0,-1,1931,505,0,0
714,519,0,0,0,0,0,0,0,0,0,-1,1938,505,0,0
721,519,0,0,0,0,0,0,0,0,0,-1,1945,505,0,0
728,519,0,0,0,0,0,0,0,0,0,-1,1952,505,0,0
735,519,0,0,0,0,0,0,0,0,0,-1,1959,505,0,0
742,519,0,0,0,0,0,0,0,0,0,-1,1966,505,0,0
749,519,0,0,0,0,0,0,0,0,0,-1,1973,505,0,0
756,519,0,0,0,0,0,0,0,0,0,-1,1980,505,0,0
763,519,0,0,0,0,0,0,0,0,0,-1,1987,505,0,0
770,519,0,0,0,0,0,0,0,0,0,-1,1994,505,0,0
777,519,0,0,0,0,0,0,0,0,0,-1,2001,505,0,0
784,519,0,0,0,0,0,0,0,0,0,-1,2008,505,0,0
791,519,0,0,0,0,0,0,0,0,0,-1,2015,505,0,0
798,519,0,0,0,0,0,0,0,0,0,-1,2022,505,0,0
805,519,0,0,0,0,0,0,0,0,0,-1,2029,505,0,0
812,519,0,0,0,0,0,0,0,0,0,-1,2036,505,0,0
-700,512,0,0,0,0,0,0,0,0,0,-1,524,512,0,0
-693,512,0,0,0,0,0,0,0,0,0,-1,531,512,0,0
-686,512,0,0,0,0,0,0,0,0,0,-1,538,512,0,0
-679,512,0,0,0,0,0,0,0,0,0,-1,545,512,0,0
-672,512,0,0,0,0,0,0,0,0,0,-1,552,512,0,0
-665,512,0,0,0,0,0,0,0,0,0,-1,559,512,0,0
-658,512,0,0,0,0,0,0,0,0,0,-1,566,512,0,0
-651,512,0,0,0,0,0,0,0,0,0,-1,573,512,0,0
-644,512,0,0,0,0,0,0,0,0,0,-1,580,512,0,0
-637,512,0,0,0,0,0,0,0,0,0,-1,587,512,0,0
-630,512,0,0,0,0,0,0,0,0,0,-1,594,512,0,0
-623,512,0,0,0,0,0,0,0,0,0,-1,601,512,0,0
-616,512,0,0,0,0,0,0,0,0,0,-1,608,512,0,0
-609,512,0,0,0,0,0,0,0,0,0,-1,615,512,0,0
-602,512,0,0,0,0,0,0,0,0,0,-1,622,512,0,0
-595,512,0,0,0,0,0,0,0,0,0,-1,629,512,0,0
-588,512,0,0,0,0,0,0,0,0,0,-1,636,512,0,0
-581,512,0,0,0,0,0,0,0,0,0,-1,643,512,0,0
-574,512,0,0,0,0,0,0,0,0,0,-1,650,512,0,0
-567,512,0,0,0,0,0,0,0,0,0,-1,657,512,0,0
-560,512,0,0,0,0,0,0,0,0,0,-1,664,512,0,0
-553,512,0,0,0,0,0,0,0,0,0,-1,671,512,0,0
-546,512,0,0,0,0,0,0,0,0,0,-1,678,512,0,0
-539,512,0,0,0,0,0,0,0,0,0,-1,685,512,0,0
-532,512,0,0,0,0,0,0,0,0,0,-1,692,512,0,0
-525,512,0,0,0,0,0,0,0,0,0,-1,699,512,0,0
-518,512,0,0,0,0,0,0,0,0,0,-1,706,512,0,0
-511,512,0,0,0,0,0,0,0,0,0,-1,713,512,0,0
-504,512,0,0,0,0,0,0,0,0,0,-1,720,512,0,0
-497,512,0,0,0,0,0,0,0,0,0,-1,727,512,0,0
-490,512,0,0,0,0,0,0,0,0,0,-1,734,512,0,0
-483,512,0,0,0,0,0,0,0,0,0,-1,741,512,0,0
-476,512,0,0,0,0,0,0,0,0,0,-1,748,512,0,0
-469,512,0,0,0,0,0,0,0,0,0,-1,755,512,0,0
-462,512,0,0,0,0,0,0,0,0,0,-1,762,512,0,0
-455,512,0,0,0,0,0,0,0,0,0,-1,769,512,0,0
-448,512,1.96283,-4.15674,0,0,0,0,0,0,0,-1,776,512,1.96285,4.15677
-441,512,1.78198,-4.88824,0,0,0,0,0,0,0,-1,783,512,1.78201,4.88826
-434,512,0.0726929,-9.85822,0,0,0,0,0,0,0,-1,790,512,0.0727008,9.85819
-427,512,-0.384583,-9.94824,0,0,0,0,0,0,0,-1,797,512,-0.384552,9.94823
-420,512,-2.93219,-12.4855,0,0,0,0,0,0,0,-1,804,512,-2.93219,12.4855
-413,512,-2.22711,-11.4485,0,0,0,0,0,0,0,-1,811,512,-2.22712,11.4485
-406,512,-2.31512,-12.948,0,0,0,0,0,0,0,-1,818,512,-2.31514,12.948
-399,512,-1.83765,-14.8572,0,0,0,0,0,0,0,-1,825,512,-1.83766,14.8572
-392,512,-1.72302,-15.5686,0,0,0,0,0,0,0,-1,832,512,-1.72304,15.5686
-385,512,-1.80334,-16.2161,0,0,0,0,0,0,0,-1,839,512,-1.80337,16.2161
-378,512,-1.83984,-16.7851,0.00944626,0.0148107,-0.0121148,0.0245367,-0.000279695,-0.894341,0.0164518,0.0159406,846,512,-1.83981,16.7851
-371,512,-1.83795,-17.3883,0.00724424,0.0112141,-0.00935498,0.0187924,-0.000334078,-0.889937,0.0126411,0.0127297,853,512,-1.83797,17.3883
-364,512,-1.84766,-17.9992,0.00537324,0.00830928,-0.00702295,0.014016,-0.000333484,-0.888431,0.00945712,0.00997917,860,512,-1.84764,17.9992
-357,512,-1.87006,-18.5321,0.00391713,0.00610319,-0.00518927,0.0103133,-0.000292975,-0.889197,0.00697524,0.0112291,867,512,-1.87003,18.5321
-350,512,-1.89233,-19.0782,0.00270949,0.00415154,-0.00358996,0.00709217,-0.000231137,-0.884502,0.00480701,0.0122818,874,512,-1.89233,19.0782
-343,512,-1.93365,-19.5985,0.00182119,0.00237928,-0.00222476,0.00434242,-0.000141956,-0.847786,0.00294341,0.0133239,881,512,-1.93368,19.5985
-336,512,-1.96515,-20.1146,0.00138794,0.00132029,-0.00135018,0.00270472,3.51388e-06,-0.772874,0.00180198,0.0139384,888,512,-1.96514,20.1146
-329,512,-1.94415,-20.645,0.00126903,0.000364894,-0.000687028,0.00163938,-5.45755e-06,-0.494408,0.00109474,0.0153062,895,512,-1.94413,20.645
-322,512,-1.96692,-21.1713,0.0011703,-0.000563145,-1.7559e-05,0.00117048,-0.000563323,-0.0101282,0.00102127,0.0127972,902,512,-1.96694,21.1713
-315,512,-1.97388,-21.6907,0.00125557,-0.00129184,0.000554182,0.00137091,-0.00140717,0.205195,0.00160397,0.0108345,909,512,-1.97387,21.6907
-308,512,-1.99353,-22.2047,0.00144948,-0.00202814,0.00109565,0.00176588,-0.00234454,0.281136,0.00238098,0.01058,916,512,-1.99356,22.2047
-301,512,-2.01636,-22.7025,0.0015316,-0.00292247,0.00175823,0.002142,-0.00353288,0.334151,0.00330904,0.0151419,923,512,-2.01636,22.7024
-294,512,-2.0097,-23.1535,0.0016185,-0.00356689,0.00236079,0.00253228,-0.00448067,0.369308,0.00410069,0.016096,930,512,-2.0097,23.1535
-287,512,-2.11334,-23.571,0.00176832,-0.00428553,0.00289171,0.00292759,-0.0054448,0.381278,0.00490608,0.0247322,937,512,-2.11332,23.571
-280,512,-2.01294,-24.1283,0.00185752,-0.00511613,0.0035804,0.00336842,-0.00662703,0.399319,0.00587221,0.0428345,944,512,-2.01293,24.1283
-273,512,-1.87439,-24.7231,0,0,0,0,0,0,0,-1,951,512,-1.8744,24.7232
-266,512,-2.13153,-25.3021,0,0,0,0,0,0,0,-1,958,512,-2.13154,25.302
-259,512,-0.525452,-14.0815,0,0,0,0,0,0,0,-1,965,512,-0.525475,14.0815
-252,512,1.45941,-3.43475,0,0,0,0,0,0,0,-1,972,512,1.45938,3.43475
-245,512,-1.6731,-22.8959,0,0,0,0,0,0,0,-1,979,512,-1.67312,22.8959
-238,512,0.227051,-8.92969,0,0,0,0,0,0,0,-1,986,512,0.227073,8.92968
-231,512,-2.54437,-10.169,0,0,0,0,0,0,0,-1,993,512,-2.54439,10.169
-224,512,-4.84601,-7.52783,0,0,0,0,0,0,0,-1,1000,512,-4.84602,7.52786
-217,512,-7.37274,-3.89563,0,0,0,0,0,0,0,-1,1007,512,-7.37274,3.89561
-210,512,-3.76642,-1.94702,0,0,0,0,0,0,0,-1,1014,512,-3.76641,1.94702
-203,512,-2.48328,-5.19061,0,0,0,0,0,0,0,-1,1021,512,-2.48328,5.19059
-196,512,-1.14929,-4.63202,0,0,0,0,0,0,0,-1,1028,512,-1.14934,4.632
-189,512,0.197998,4.55505,0,0,0,0,0,0,0,-1,1035,512,0.197996,-4.55506
-182,512,2.73938,0.0778503,0,0,0,0,0,0,0,-1,1042,512,2.73944,-0.077852
-175,512,2.29565,0.209808,0,0,0,0,0,0,0,-1,1049,512,2.29565,-0.209813
-168,512,2.09399,-0.302856,0,0,0,0,0,0,0,-1,1056,512,2.09403,0.302826
-161,512,2.76636,0.0921021,0,0,0,0,0,0,0,-1,1063,512,2.76633,-0.0921104
-154,512,3.41382,0.466187,0,0,0,0,0,0,0,-1,1070,512,3.41382,-0.466178
-147,512,0,0,0,0,0,0,0,0,0,-1,1077,512,0,0
-140,512,0,0,0,0,0,0,0,0,0,-1,1084,512,0,0
-133,512,0,0,0,0,0,0,0,0,0,-1,1091,512,0,0
-126,512,0,0,0,0,0,0,0,0,0,-1,1098,512,0,0
-119,512,0,0,0,0,0,0,0,0,0,-1,1105,512,0,0
-112,512,0,0,0,0,0,0,0,0,0,-1,1112,512,0,0
-105,512,0,0,0,0,0,0,0,0,0,-1,1119,512,0,0
-98,512,0,0,0,0,0,0,0,0,0,-1,1126,512,0,0
-91,512,0,0,0,0,0,0,0,0,0,-1,1133,512,0,0
-84,512,0,0,0,0,0,0,0,0,0,-1,1140,512,0,0
-77,512,0,0,0,0,0,0,0,0,0,-1,1147,512,0,0
-70,512,0,0,0,0,0,0,0,0,0,-1,1154,512,0,0
-63,512,0,0,0,0,0,0,0,0,0,-1,1161,512,0,0
-56,512,0,0,0,0,0,0,0,0,0,-1,1168,512,0,0
-49,512,0,0,0,0,0,0,0,0,0,-1,1175,512,0,0
-42,512,0,0,0,0,0,0,0,0,0,-1,1182,512,0,0
-35,512,0,0,0,0,0,0,0,0,0,-1,1189,512,0,0
-28,512,0,0,0,0,0,0,0,0,0,-1,1196,512,0,0
-21,512,0,0,0,0,0,0,0,0,0,-1,1203,512,0,0
-14,512,0,0,0,0,0,0,0,0,0,-1,1210,512,0,0
-7,512,0,0,0,0,0,0,0,0,0,-1,1217,512,0,0
0,512,0,0,0,0,0,0,0,0,0,-1,1224,512,0,0
7,512,0,0,0,0,0,0,0,0,0,-1,1231,512,0,0
14,512,0,0,0,0,0,0,0,0,0,-1,1238,512,0,0
21,512,0,0,0,0,0,0,0,0,0,-1,1245,512,0,0
28,512,0,0,0,0,0,0,0,0,0,-1,1252,512,0,0
35,512,0,0,0,0,0,0,0,0,0,-1,1259,512,0,0
42,512,0,0,0,0,0,0,0,0,0,-1,1266,512,0,0
49,512,0,0,0,0,0,0,0,0,0,-1,1273,512,0,0
56,512,0,0,0,0,0,0,0,0,0,-1,1280,512,0,0
63,512,0,0,0,0,0,0,0,0,0,-1,1287,512,0,0
70,512,0,0,0,0,0,0,0,0,0,-1,1294,512,0,0
77,512,0,0,0,0,0,0,0,0,0,-1,1301,512,0,0
84,512,0,0,0,0,0,0,0,0,0,-1,1308,512,0,0
91,512,0,0,0,0,0,0,0,0,0,-1,1315,512,0,0
98,512,0,0,0,0,0,0,0,0,0,-1,1322,512,0,0
105,512,0,0,0,0,0,0,0,0,0,-1,1329,512,0,0
112,512,0,0,0,0,0,0,0,0,0,-1,1336,512,0,0
119,512,0,0,0,0,0,0,0,0,0,-1,1343,512,0,0
126,512,0,0,0,0,0,0,0,0,0,-1,1350,512,0,0
133,512,0,0,0,0,0,0,0,0,0,-1,1357,512,0,0
140,512,0,0,0,0,0,0,0,0,0,-1,1364,512,0,0
147,512,0,0,0,0,0,0,0,0,0,-1,1371,512,0,0
154,512,0,0,0,0,0,0,0,0,0,-1,1378,512,0,0
161,512,0,0,0,0,0,0,0,0,0,-1,1385,512,0,0
168,512,0,0,0,0,0,0,0,0,0,-1,1392,512,0,0
175,512,0,0,0,0,0,0,0,0,0,-1,1399,512,0,0
182,512,0,0,0,0,0,0,0,0,0,-1,1406,512,0,0
189,512,0,0,0,0,0,0,0,0,0,-1,1413,512,0,0
196,512,0,0,0,0,0,0,0,0,0,-1,1420,512,0,0
203,512,0,0,0,0,0,0,0,0,0,-1,1427,512,0,0
210,512,0,0,0,0,0,0,0,0,0,-1,1434,512,0,0
217,512,0,0,0,0,0,0,0,0,0,-1,1441,512,0,0
224,512,0,0,0,0,0,0,0,0,0,-1,1448,512,0,0
231,512,0,0,0,0,0,0,0,0,0,-1,1455,512,0,0
238,512,0,0,0,0,0,0,0,0,0,-1,1462,512,0,0
245,512,0,0,0,0,0,0,0,0,0,-1,1469,512,0,0
252,512,0,0,0,0,0,0,0,0,0,-1,1476,512,0,0
259,512,0,0,0,0,0,0,0,0,0,-1,1483,512,0,0
266,512,0,0,0,0,0,0,0,0,0,-1,1490,512,0,0
273,512,4.00745,0.618622,0,0,0,0,0,0,0,-1,1497,512,4.00747,-0.618611
280,512,4.49609,0.649841,0,0,0,0,0,0,0,-1,1504,512,4.49612,-0.649834
287,512,4.77234,0.458069,0,0,0,0,0,0,0,-1,1511,512,4.77233,-0.458083
294,512,8.54956,-2.36273,0,0,0,0,0,0,0,-1,1518,512,8.54952,2.36274
301,512,6.302,-1.69092,0,0,0,0,0,0,0,-1,1525,512,6.30196,1.69093
308,512,8.2439,-6.22754,0,0,0,0,0,0,0,-1,1532,512,8.24394,6.22757
315,512,7.53687,-6.04211,0,0,0,0,0,0,0,-1,1539,512,7.53691,6.04211
322,512,6.82983,-5.85663,0,0,0,0,0,0,0,-1,1546,512,6.82988,5.85666
329,512,4.38147,-0.329651,0,0,0,0,0,0,0,-1,1553,512,4.38144,0.329662
336,512,4.41467,-0.741455,0,0,0,0,0,0,0,-1,1560,512,4.41467,0.741442
343,512,4.44727,-1.21667,0,0,0,0,0,0,0,-1,1567,512,4.44732,1.21666
350,512,4.55469,-1.65082,0,0,0,0,0,0,0,-1,1574,512,4.5547,1.65083
357,512,5.79993,-2.67456,0,0,0,0,0,0,0,-1,1581,512,5.79991,2.67454
364,512,8.56641,-24.3753,0,0,0,0,0,0,0,-1,1588,512,8.56646,24.3753
371,512,5.28467,-7.69269,0,0,0,0,0,0,0,-1,1595,512,5.28464,7.69269
378,512,6.29407,-9.88055,0,0,0,0,0,0,0,-1,1602,512,6.29412,9.88057
385,512,6.45569,-9.32233,0,0,0,0,0,0,0,-1,1609,512,6.45565,9.3223
392,512,6.35522,-8.98425,0,0,0,0,0,0,0,-1,1616,512,6.35526,8.98422
399,512,7.5304,-12.1449,0,0,0,0,0,0,0,-1,1623,512,7.53042,12.1449
406,512,12.0885,-23.2454,0,0,0,0,0,0,0,-1,1630,512,12.0885,23.2454
413,512,12.1234,-22.654,0,0,0,0,0,0,0,-1,1637,512,12.1234,22.654
420,512,12.1136,-22.1343,0.00227002,0.00196303,1.38007e-05,0.00227064,0.00196241,0.0448339,0.00142219,0.026308,1644,512,12.1136,22.1343
427,512,12.1066,-21.6024,0.00213385,0.00215195,0.000407269,0.00255027,0.00173553,0.79651,0.00150405,0.0145627,1651,512,12.1066,21.6024
434,512,12.0901,-21.086,0.0017828,0.00216065,0.000555505,0.00255848,0.00138497,0.94931,0.00147882,0.010828,1658,512,12.0901,21.086
441,512,12.0613,-20.5355,0.00152175,0.00209445,0.000693269,0.00255818,0.00105802,0.981248,0.0014843,0.0129103,1665,512,12.0613,20.5355
448,512,12.028,-20.0184,0.0013953,0.0019048,0.000859044,0.00254607,0.000754031,0.929543,0.00151015,0.00949686,1672,512,12.0279,20.0184
455,512,11.9988,-19.4805,0.00120997,0.00174967,0.000961958,0.00247891,0.000480727,0.922144,0.00151795,0.00920028,1679,512,11.9988,19.4805
462,512,11.9972,-18.9305,0.00104988,0.00158499,0.00107191,0.00242223,0.00021264,0.9077,0.00154881,0.00962478,1686,512,11.9972,18.9305
469,512,11.9939,-18.364,0.000946402,0.00132706,0.00120855,0.00236017,-8.67114e-05,0.863499,0.00160313,0.0109124,1693,512,11.9939,18.364
476,512,11.9855,-17.8059,0.000809446,0.000891105,0.00135482,0.00220571,-0.000505158,0.800462,0.00166461,0.0143797,1700,512,11.9855,17.8059
483,512,11.9777,-17.2321,0.00065271,0.000571236,0.00130297,0.00191558,-0.000691631,0.769771,0.00155958,0.0142847,1707,512,11.9776,17.2321
490,512,11.9692,-16.6608,0.000427036,6.90721e-05,0.00123242,0.0014934,-0.000997295,0.713288,0.00144748,0.0109422,1714,512,11.9692,16.6608
497,512,11.9304,-16.0853,0.000184996,-0.000459153,0.00107827,0.000988263,-0.00126242,0.640268,0.00130264,0.011375,1721,512,11.9304,16.0852
504,512,11.8607,-15.4882,-0.000109496,-0.00105966,0.000750876,0.000303971,-0.00147312,0.503339,0.00109753,0.0122274,1728,512,11.8608,15.4882
511,512,11.819,-14.8888,-0.000502362,-0.00171878,0.000174788,-0.000477745,-0.0017434,0.13992,0.00104025,0.0146838,1735,512,11.819,14.8888
518,512,11.8662,-14.3219,-0.000989849,-0.00232972,-0.000674641,-0.00070902,-0.00261055,-0.394449,0.00155874,0.01971,1742,512,11.8662,14.3219
525,512,11.9137,-13.7829,-0.00165205,-0.00293051,-0.00186538,-0.000319406,-0.00426315,-0.620328,0.00274184,0.0435509,1749,512,11.9138,13.7829
532,512,11.8779,-13.5992,0,0,0,0,0,0,0,-1,1756,512,11.8779,13.5992
539,512,7.05908,-7.00647,0,0,0,0,0,0,0,-1,1763,512,7.05909,7.00647
546,512,2.77551,-0.66449,0,0,0,0,0,0,0,-1,1770,512,2.77548,0.664503
553,512,3.927,-0.448853,0,0,0,0,0,0,0,-1,1777,512,3.92704,0.448843
560,512,3.55762,-0.201233,0,0,0,0,0,0,0,-1,1784,512,3.55768,0.201259
567,512,3.09045,0.191193,0,0,0,0,0,0,0,-1,1791,512,3.09045,-0.191203
574,512,0,0,0,0,0,0,0,0,0,-1,1798,512,0,0
581,512,0,0,0,0,0,0,0,0,0,-1,1805,512,0,0
588,512,0,0,0,0,0,0,0,0,0,-1,1812,512,0,0
595,512,0,0,0,0,0,0,0,0,0,-1,1819,512,0,0
602,512,0,0,0,0,0,0,0,0,0,-1,1826,512,0,0
609,512,0,0,0,0,0,0,0,0,0,-1,1833,512,0,0
616,512,0,0,0,0,0,0,0,0,0,-1,1840,512,0,0
623,512,0,0,0,0,0,0,0,0,0,-1,1847,512,0,0
630,512,0,0,0,0,0,0,0,0,0,-1,1854,512,0,0
637,512,0,0,0,0,0,0,0,0,0,-1,1861,512,0,0
644,512,0,0,0,0,0,0,0,0,0,-1,1868,512,0,0
651,512,0,0,0,0,0,0,0,0,0,-1,1875,512,0,0
658,512,0,0,0,0,0,0,0,0,0,-1,1882,512,0,0
665,512,0,0,0,0,0,0,0,0,0,-1,1889,512,0,0
672,512,0,0,0,0,0,0,0,0,0,-1,1896,512,0,0
679,512,0,0,0,0,0,0,0,0,0,-1,1903,512,0,0
686,512,0,0,0,0,0,0,0,0,0,-1,1910,512,0,0
693,512,0,0,0,0,0,0,0,0,0,-1,1917,512,0,0
700,512,0,0,0,0,0,0,0,0,0,-1,1924,512,0,0
707,512,0,0,0,0,0,0,0,0,0,-1,1931,512,0,0
714,512,0,0,0,0,0,0,0,0,0,-1,1938,512,0,0
721,512,0,0,0,0,0,0,0,0,0,-1,1945,512,0,0
728,512,0,0,0,0,0,0,0,0,0,-1,1952,512,0,0
735,512,0,0,0,0,0,0,0,0,0,-1,1959,512,0,0
742,512,0,0,0,0,0,0,0,0,0,-1,1966,512,0,0
749,512,0,0,0,0,0,0,0,0,0,-1,1973,512,0,0
756,512,0,0,0,0,0,0,0,0,0,-1,1980,512,0,0
763,512,0,0,0,0,0,0,0,0,0,-1,1987,512,0,0
770,512,0,0,0,0,0,0,0,0,0,-1,1994,512,0,0
777,512,0,0,0,0,0,0,0,0,0,-1,2001,512,0,0
784,512,0,0,0,0,0,0,0,0,0,-1,2008,512,0,0
791,512,0,0,0,0,0,0,0,0,0,-1,2015,512,0,0
798,512,0,0,0,0,0,0,0,0,0,-1,2022,512,0,0
805,512,0,0,0,0,0,0,0,0,0,-1,2029,512,0,0
812,512,0,0,0,0,0,0,0,0,0,-1,2036,512,0,0
-700,505,0,0,0,0,0,0,0,0,0,-1,524,519,0,0
-693,505,0,0,0,0,0,0,0,0,0,-1,531,519,0,0
-686,505,0,0,0,0,0,0,0,0,0,-1,538,519,0,0
-679,505,0,0,0,0,0,0,0,0,0,-1,545,519,0,0
-672,505,0,0,0,0,0,0,0,0,0,-1,552,519,0,0
-665,505,0,0,0,0,0,0,0,0,0,-1,559,519,0,0
-658,505,0,0,0,0,0,0,0,0,0,-1,566,519,0,0
-651,505,0,0,0,0,0,0,0,0,0,-1,573,519,0,0
-644,505,0,0,0,0,0,0,0,0,0,-1,580,519,0,0
-637,505,0,0,0,0,0,0,0,0,0,-1,587,519,0,0
-630,505,0,0,0,0,0,0,0,0,0,-1,594,519,0,0
-623,505,0,0,0,0,0,0,0,0,0,-1,601,519,0,0
-616,505,0,0,0,0,0,0,0,0,0,-1,608,519,0,0
-609,505,0,0,0,0,0,0,0,0,0,-1,615,519,0,0
-602,505,0,0,0,0,0,0,0,0,0,-1,622,519,0,0
-595,505,0,0,0,0,0,0,0,0,0,-1,629,519,0,0
-588,505,0,0,0,0,0,0,0,0,0,-1,636,519,0,0
-581,505,0,0,0,0,0,0,0,0,0,-1,643,519,0,0
-574,505,0,0,0,0,0,0,0,0,0,-1,650,519,0,0
-567,505,0,0,0,0,0,0,0,0,0,-1,657,519,0,0
-560,505,0,0,0,0,0,0,0,0,0,-1,664,519,0,0
-553,505,0,0,0,0,0,0,0,0,0,-1,671,519,0,0
-546,505,0,0,0,0,0,0,0,0,0,-1,678,519,0,0
-539,505,0,0,0,0,0,0,0,0,0,-1,685,519,0,0
-532,505,0,0,0,0,0,0,0,0,0,-1,692,519,0,0
-525,505,0,0,0,0,0,0,0,0,0,-1,699,519,0,0
-518,505,0,0,0,0,0,0,0,0,0,-1,706,519,0,0
-511,505,0,0,0,0,0,0,0,0,0,-1,713,519,0,0
-504,505,0,0,0,0,0,0,0,0,0,-1,720,519,0,0
-497,505,0,0,0,0,0,0,0,0,0,-1,727,519,0,0
-490,505,0,0,0,0,0,0,0,0,0,-1,734,519,0,0
-483,505,0,0,0,0,0,0,0,0,0,-1,741,519,0,0
-476,505,0,0,0,0,0,0,0,0,0,-1,748,519,0,0
-469,505,0,0,0,0,0,0,0,0,0,-1,755,519,0,0
-462,505,0,0,0,0,0,0,0,0,0,-1,762,519,0,0
-455,505,2.72137,-3.26379,0,0,0,0,0,0,0,-1,769,519,2.72135,3.26377
-448,505,2.51111,-3.94989,0,0,0,0,0,0,0,-1,776,519,2.51112,3.94986
-441,505,2.80212,-6.8902,0,0,0,0,0,0,0,-1,783,519,2.80209,6.89019
-434,505,-0.155212,-10.6374,0,0,0,0,0,0,0,-1,790,519,-0.155194,10.6374
-427,505,-0.474426,-10.4702,0,0,0,0,0,0,0,-1,797,519,-0.474433,10.4702
-420,505,-0.922546,-10.1928,0,0,0,0,0,0,0,-1,804,519,-0.92257,10.1928
-413,505,-3.33948,-13.6183,0,0,0,0,0,0,0,-1,811,519,-3.33949,13.6184
-406,505,-2.7348,-13.2132,0,0,0,0,0,0,0,-1,818,519,-2.73481,13.2132
-399,505,-2.50958,-14.2987,0.0136305,0.0261322,-0.0190949,0.0399733,-0.000210611,-0.943579,0.0267193,0.049489,825,519,-2.50959,14.2987
-392,505,-2.27478,-15.6133,0.01121,0.0205977,-0.015541,0.0321382,-0.000330498,-0.932058,0.0215365,0.0236501,832,519,-2.27479,15.6133
-385,505,-2.31696,-16.2654,0.00909441,0.0158305,-0.012346,0.0252596,-0.000334691,-0.918561,0.0169524,0.0101188,839,519,-2.31693,16.2654
-378,505,-2.36591,-16.8463,0.00736404,0.0120353,-0.00974478,0.0197204,-0.000321102,-0.903019,0.0132553,0.0111888,846,519,-2.36589,16.8463
-371,505,-2.36658,-17.4441,0.00577641,0.00881993,-0.00749734,0.0149484,-0.000352047,-0.885525,0.010085,0.0137656,853,519,-2.36658,17.4441
-364,505,-2.37573,-18.0004,0.00437993,0.0061813,-0.00554348,0.0108968,-0.000335565,-0.865933,0.00737893,0.0150413,860,519,-2.37574,18.0003
-357,505,-2.38995,-18.5355,0.00330918,0.0041951,-0.00397668,0.00775342,-0.000249135,-0.840865,0.00525396,0.012693,867,519,-2.38996,18.5355
-350,505,-2.4176,-19.0552,0.00243549,0.00246594,-0.0026111,0.00506186,-0.000160433,-0.788314,0.0034293,0.0118336,874,519,-2.41759,19.0552
-343,505,-2.43976,-19.5825,0.00179511,0.000881528,-0.00143509,0.00284436,-0.000167716,-0.631317,0.00195454,0.00963166,881,519,-2.43976,19.5825
-336,505,-2.46918,-20.106,0.00152678,-9.38572e-05,-0.000656539,0.00175937,-0.000326447,-0.340471,0.00129552,0.0124538,888,519,-2.46919,20.106
-329,505,-2.46167,-20.6226,0.0015421,-0.000962024,-5.39147e-05,0.00154326,-0.000963184,-0.0215171,0.00145996,0.017629,895,519,-2.46167,20.6226
-322,505,-2.46088,-21.1734,0.00164736,-0.00174742,0.000532312,0.00172887,-0.00182893,0.151946,0.00205437,0.020063,902,519,-2.46089,21.1734
-315,505,-2.47809,-21.682,0.00184616,-0.00235046,0.00109654,0.0021154,-0.0026197,0.240775,0.00273897,0.0143063,909,519,-2.47807,21.682
-308,505,-2.50818,-22.1609,0.00209906,-0.00304536,0.00167904,0.00259856,-0.00354487,0.289157,0.00356091,0.0112924,916,519,-2.50818,22.1609
-301,505,-2.49451,-22.6799,0.00221469,-0.00383361,0.0024328,0.00307178,-0.0046907,0.338726,0.00451404,0.0170016,923,519,-2.49448,22.6799
-294,505,-2.52899,-22.9515,0.00225449,-0.0043186,0.00312857,0.0035055,-0.00556961,0.380389,0.0052845,0.0380997,930,519,-2.52898,22.9515
-287,505,-2.58374,-23.642,0,0,0,0,0,0,0,-1,937,519,-2.58374,23.642
-280,505,-2.44269,-24.3484,0,0,0,0,0,0,0,-1,944,519,-2.44271,24.3485
-273,505,-0.0680542,-9.44867,0,0,0,0,0,0,0,-1,951,519,-0.0680462,9.44866
-266,505,-0.036377,-9.07922,0,0,0,0,0,0,0,-1,958,519,-0.0364055,9.0792
-259,505,0.10321,-6.69824,0,0,0,0,0,0,0,-1,965,519,0.103235,6.69826
-252,505,6.82312,-15.6972,0,0,0,0,0,0,0,-1,972,519,6.82314,15.6972
-245,505,4.26727,-12.9861,0,0,0,0,0,0,0,-1,979,519,4.2673,12.9861
-238,505,1.67432,-11.2307,0,0,0,0,0,0,0,-1,986,519,1.67429,11.2307
-231,505,-0.958435,-8.3075,0,0,0,0,0,0,0,-1,993,519,-0.958421,8.30751
-224,505,-3.69653,-5.12732,0,0,0,0,0,0,0,-1,1000,519,-3.69653,5.12733
-217,505,-6.34302,-1.65533,0,0,0,0,0,0,0,-1,1007,519,-6.34299,1.65535
-210,505,-3.06128,-0.396301,0,0,0,0,0,0,0,-1,1014,519,-3.06129,0.396294
-203,505,-4.26465,2.03607,0,0,0,0,0,0,0,-1,1021,519,-4.26462,-2.03606
-196,505,-5.47595,4.27295,0,0,0,0,0,0,0,-1,1028,519,-5.47597,-4.27292
-189,505,1.51526,5.56207,0,0,0,0,0,0,0,-1,1035,519,1.51523,-5.56209
-182,505,2.97815,7.5097,0,0,0,0,0,0,0,-1,1042,519,2.97812,-7.5097
-175,505,-2.38416,-2.17548,0,0,0,0,0,0,0,-1,1049,519,-2.38411,2.1755
-168,505,0,0,0,0,0,0,0,0,0,-1,1056,519,0,0
-161,505,0,0,0,0,0,0,0,0,0,-1,1063,519,0,0
-154,505,0,0,0,0,0,0,0,0,0,-1,1070,519,0,0
-147,505,0,0,0,0,0,0,0,0,0,-1,1077,519,0,0
-140,505,0,0,0,0,0,0,0,0,0,-1,1084,519,0,0
-133,505,0,0,0,0,0,0,0,0,0,-1,1091,519,0,0
-126,505,0,0,0,0,0,0,0,0,0,-1,1098,519,0,0
-119,505,0,0,0,0,0,0,0,0,0,-1,1105,519,0,0
-112,505,0,0,0,0,0,0,0,0,0,-1,1112,519,0,0
-105,505,0,0,0,0,0,0,0,0,0,-1,1119,519,0,0
-98,505,0,0,0,0,0,0,0,0,0,-1,1126,519,0,0
-91,505,0,0,0,0,0,0,0,0,0,-1,1133,519,0,0
-84,505,0,0,0,0,0,0,0,0,0,-1,1140,519,0,0
-77,505,0,0,0,0,0,0,0,0,0,-1,1147,519,0,0
-70,505,0,0,0,0,0,0,0,0,0,-1,1154,519,0,0
-63,505,0,0,0,0,0,0,0,0,0,-1,1161,519,0,0
-56,505,0,0,0,0,0,0,0,0,0,-1,1168,519,0,0
-49,505,0,0,0,0,0,0,0,0,0,-1,1175,519,0,0
-42,505,0,0,0,0,0,0,0,0,0,-1,1182,519,0,0
-35,505,0,0,0,0,0,0,0,0,0,-1,1189,519,0,0
-28,505,0,0,0,0,0,0,0,0,0,-1,1196,519,0,0
-21,505,0,0,0,0,0,0,0,0,0,-1,1203,519,0,0
-14,505,0,0,0,0,0,0,0,0,0,-1,1210,519,0,0
-7,505,0,0,0,0,0,0,0,0,0,-1,1217,519,0,0
0,505,0,0,0,0,0,0,0,0,0,-1,1224,519,0,0
7,505,0,0,0,0,0,0,0,0,0,-1,1231,519,0,0
14,505,0,0,0,0,0,0,0,0,0,-1,1238,519,0,0
21,505,0,0,0,0,0,0,0,0,0,-1,1245,519,0,0
28,505,0,0,0,0,0,0,0,0,0,-1,1252,519,0,0
35,505,0,0,0,0,0,0,0,0,0,-1,1259,519,0,0
42,505,0,0,0,0,0,0,0,0,0,-1,1266,519,0,0
49,505,0,0,0,0,0,0,0,0,0,-1,1273,519,0,0
56,505,0,0,0,0,0,0,0,0,0,-1,1280,519,0,0
63,505,0,0,0,0,0,0,0,0,0,-1,1287,519,0,0
70,505,0,0,0,0,0,0,0,0,0,-1,1294,519,0,0
77,505,0,0,0,0,0,0,0,0,0,-1,1301,519,0,0
84,505,0,0,0,0,0,0,0,0,0,-1,1308,519,0,0
91,505,0,0,0,0,0,0,0,0,0,-1,1315,519,0,0
98,505,0,0,0,0,0,0,0,0,0,-1,1322,519,0,0
105,505,0,0,0,0,0,0,0,0,0,-1,1329,519,0,0
112,505,0,0,0,0,0,0,0,0,0,-1,1336,519,0,0
119,505,0,0,0,0,0,0,0,0,0,-1,1343,519,0,0
126,505,0,0,0,0,0,0,0,0,0,-1,1350,519,0,0
133,505,0,0,0,0,0,0,0,0,0,-1,1357,519,0,0
140,505,0,0,0,0,0,0,0,0,0,-1,1364,519,0,0
147,505,0,0,0,0,0,0,0,0,0,-1,1371,519,0,0
154,505,0,0,0,0,0,0,0,0,0,-1,1378,519,0,0
161,505,0,0,0,0,0,0,0,0,0,-1,1385,519,0,0
168,505,0,0,0,0,0,0,0,0,0,-1,1392,519,0,0
175,505,0,0,0,0,0,0,0,0,0,-1,1399,519,0,0
182,505,0,0,0,0,0,0,0,0,0,-1,1406,519,0,0
189,505,0,0,0,0,0,0,0,0,0,-1,1413,519,0,0
196,505,0,0,0,0,0,0,0,0,0,-1,1420,519,0,0
203,505,0,0,0,0,0,0,0,0,0,-1,1427,519,0,0
210,505,0,0,0,0,0,0,0,0,0,-1,1434,519,0,0
217,505,0,0,0,0,0,0,0,0,0,-1,1441,519,0,0
224,505,0,0,0,0,0,0,0,0,0,-1,1448,519,0,0
231,505,0,0,0,0,0,0,0,0,0,-1,1455,519,0,0
238,505,0,0,0,0,0,0,0,0,0,-1,1462,519,0,0
245,505,0,0,0,0,0,0,0,0,0,-1,1469,519,0,0
252,505,0,0,0,0,0,0,0,0,0,-1,1476,519,0,0
259,505,0,0,0,0,0,0,0,0,0,-1,1483,519,0,0
266,505,0,0,0,0,0,0,0,0,0,-1,1490,519,0,0
273,505,0,0,0,0,0,0,0,0,0,-1,1497,519,0,0
280,505,0,0,0,0,0,0,0,0,0,-1,1504,519,0,0
287,505,4.39478,0.499512,0,0,0,0,0,0,0,-1,1511,519,4.39476,-0.499506
294,505,4.88867,0.0822754,0,0,0,0,0,0,0,-1,1518,519,4.88871,-0.0822748
301,505,4.82153,-0.0704346,0,0,0,0,0,0,0,-1,1525,519,4.82156,0.0704312
308,505,4.67761,-0.29187,0,0,0,0,0,0,0,-1,1532,519,4.67762,0.291845
315,505,8.44055,-6.54352,0,0,0,0,0,0,0,-1,1539,519,8.44059,6.54349
322,505,4.78955,-0.594116,0,0,0,0,0,0,0,-1,1546,519,4.78957,0.594096
329,505,5.16321,0.434631,0,0,0,0,0,0,0,-1,1553,519,5.16316,-0.434614
336,505,4.94495,-0.920471,0,0,0,0,0,0,0,-1,1560,519,4.945,0.920495
343,505,5.01855,-1.4823,0,0,0,0,0,0,0,-1,1567,519,5.01851,1.48227
350,505,5.33154,-1.77838,0,0,0,0,0,0,0,-1,1574,519,5.33152,1.77838
357,505,5.56567,-1.9425,0,0,0,0,0,0,0,-1,1581,519,5.56562,1.94248
364,505,5.85205,-2.6579,0,0,0,0,0,0,0,-1,1588,519,5.85211,2.65788
371,505,5.88477,-7.00922,0,0,0,0,0,0,0,-1,1595,519,5.88473,7.00924
378,505,5.44104,-7.10162,0,0,0,0,0,0,0,-1,1602,519,5.44099,7.10162
385,505,6.64661,-8.65015,0,0,0,0,0,0,0,-1,1609,519,6.64662,8.65014
392,505,6.34558,-8.3429,0,0,0,0,0,0,0,-1,1616,519,6.34554,8.34288
399,505,7.45898,-9.70386,0,0,0,0,0,0,0,-1,1623,519,7.45899,9.70388
406,505,7.08679,-9.4928,0,0,0,0,0,0,0,-1,1630,519,7.08678,9.49278
413,505,8.4032,-14.0308,0,0,0,0,0,0,0,-1,1637,519,8.4032,14.0308
420,505,12.6425,-22.2936,0,0,0,0,0,0,0,-1,1644,519,12.6425,22.2936
427,505,12.6425,-21.6994,0.00235179,0.00306616,0.000628637,0.003432,0.00198595,1.04375,0.00198962,0.0311074,1651,519,12.6425,21.6994
434,505,12.6133,-21.0897,0.00185201,0.00288928,0.000603723,0.00316655,0.00157474,1.14026,0.00182822,0.0125347,1658,519,12.6133,21.0897
441,505,12.601,-20.5038,0.0015368,0.0026402,0.000586529,0.00289373,0.00128327,1.1628,0.00167425,0.0107869,1665,519,12.601,20.5038
448,505,12.5835,-19.9768,0.00142589,0.0022669,0.000634585,0.00260766,0.00108513,1.07801,0.00151258,0.0104794,1672,519,12.5835,19.9768
455,505,12.5583,-19.4386,0.00123509,0.00195992,0.000650717,0.00234234,0.000852671,1.03948,0.00136892,0.010803,1679,519,12.5584,19.4386
462,505,12.5247,-18.8936,0.00108075,0.0017002,0.000689723,0.00214655,0.000634398,0.996434,0.00127338,0.0109841,1686,519,12.5246,18.8936
469,505,12.5374,-18.3319,0.00101474,0.00139905,0.000829828,0.00205868,0.000355112,0.899173,0.00127073,0.010849,1693,519,12.5373,18.3319
476,505,12.5199,-17.7853,0.000913107,0.000990636,0.00101328,0.00196589,-6.21486e-05,0.804517,0.00133179,0.0113475,1700,519,12.5199,17.7853
483,505,12.5212,-17.225,0.000779383,0.000643554,0.00104202,0.0017557,-0.000332762,0.752856,0.00129571,0.0120086,1707,519,12.5213,17.2249
490,505,12.5216,-16.6465,0.000553431,0.000203173,0.00101547,0.00140876,-0.000652159,0.700008,0.00121631,0.0112794,1714,519,12.5216,16.6465
497,505,12.476,-16.0867,0.000307455,-0.000244726,0.000935349,0.00100661,-0.000943881,0.641886,0.00112631,0.0115653,1721,519,12.4759,16.0866
504,505,12.4131,-15.4971,2.83681e-05,-0.000729082,0.000727882,0.000470158,-0.00117087,0.545516,0.000975816,0.0123568,1728,519,12.4131,15.4971
511,505,12.3784,-14.9202,-0.000378312,-0.00121659,0.00031879,-0.000270854,-0.00132405,0.32512,0.000807697,0.0144302,1735,519,12.3784,14.9202
518,505,12.426,-14.3235,-0.000926223,-0.00168955,-0.000356586,-0.000785564,-0.00183021,-0.375721,0.0010602,0.0221899,1742,519,12.426,14.3236
525,505,12.297,-13.7283,-0.0016068,-0.00222166,-0.00134587,-0.000533695,-0.00329476,-0.673112,0.00204199,0.0339172,1749,519,12.297,13.7283
532,505,12.3356,-12.9256,0,0,0,0,0,0,0,-1,1756,519,12.3356,12.9256
539,505,7.90369,-7.11932,0,0,0,0,0,0,0,-1,1763,519,7.90373,7.11932
546,505,7.94946,-6.64539,0,0,0,0,0,0,0,-1,1770,519,7.94947,6.64539
553,505,2.82837,0.162659,0,0,0,0,0,0,0,-1,1777,519,2.82841,-0.162672
560,505,3.66223,-0.479797,0,0,0,0,0,0,0,-1,1784,519,3.66219,0.47982
567,505,4.65271,-0.950256,0,0,0,0,0,0,0,-1,1791,519,4.65274,0.95028
574,505,5.54443,-1.19977,0,0,0,0,0,0,0,-1,1798,519,5.54443,1.19974
581,505,0,0,0,0,0,0,0,0,0,-1,1805,519,0,0
588,505,0,0,0,0,0,0,0,0,0,-1,1812,519,0,0
595,505,0,0,0,0,0,0,0,0,0,-1,1819,519,0,0
602,505,0,0,0,0,0,0,0,0,0,-1,1826,519,0,0
609,505,0,0,0,0,0,0,0,0,0,-1,1833,519,0,0
616,505,0,0,0,0,0,0,0,0,0,-1,1840,519,0,0
623,505,0,0,0,0,0,0,0,0,0,-1,1847,519,0,0
630,505,0,0,0,0,0,0,0,0,0,-1,1854,519,0,0
637,505,0,0,0,0,0,0,0,0,0,-1,1861,519,0,0
644,505,0,0,0,0,0,0,0,0,0,-1,1868,519,0,0
651,505,0,0,0,0,0,0,0,0,0,-1,1875,519,0,0
658,505,0,0,0,0,0,0,0,0,0,-1,1882,519,0,0
665,505,0,0,0,0,0,0,0,0,0,-1,1889,519,0,0
672,505,0,0,0,0,0,0,0,0,0,-1,1896,519,0,0
679,505,0,0,0,0,0,0,0,0,0,-1,1903,519,0,0
686,505,0,0,0,0,0,0,0,0,0,-1,1910,519,0,0
693,505,0,0,0,0,0,0,0,0,0,-1,1917,519,0,0
700,505,0,0,0,0,0,0,0,0,0,-1,1924,519,0,0
707,505,0,0,0,0,0,0,0,0,0,-1,1931,519,0,0
714,505,0,0,0,0,0,0,0,0,0,-1,1938,519,0,0
721,505,0,0,0,0,0,0,0,0,0,-1,1945,519,0,0
728,505,0,0,0,0,0,0,0,0,0,-1,1952,519,0,0
735,505,0,0,0,0,0,0,0,0,0,-1,1959,519,0,0
742,505,0,0,0,0,0,0,0,0,0,-1,1966,519,0,0
749,505,0,0,0,0,0,0,0,0,0,-1,1973,519,0,0
756,505,0,0,0,0,0,0,0,0,0,-1,1980,519,0,0
763,505,0,0,0,0,0,0,0,0,0,-1,1987,519,0,0
770,505,0,0,0,0,0,0,0,0,0,-1,1994,519,0,0
777,505,0,0,0,0,0,0,0,0,0,-1,2001,519,0,0
784,505,0,0,0,0,0,0,0,0,0,-1,2008,519,0,0
791,505,0,0,0,0,0,0,0,0,0,-1,2015,519,0,0
798,505,0,0,0,0,0,0,0,0,0,-1,2022,519,0,0
805,505,0,0,0,0,0,0,0,0,0,-1,2029,519,0,0
812,505,0,0,0,0,0,0,0,0,0,-1,2036,519,0,0
-700,498,0,0,0,0,0,0,0,0,0,-1,524,526,0,0
-693,498,0,0,0,0,0,0,0,0,0,-1,531,526,0,0
-686,498,0,0,0,0,0,0,0,0,0,-1,538,526,0,0
-679,498,0,0,0,0,0,0,0,0,0,-1,545,526,0,0
-672,498,0,0,0,0,0,0,0,0,0,-1,552,526,0,0
-665,498,0,0,0,0,0,0,0,0,0,-1,559,526,0,0
-658,498,0,0,0,0,0,0,0,0,0,-1,566,526,0,0
-651,498,0,0,0,0,0,0,0,0,0,-1,573,526,0,0
-644,498,0,0,0,0,0,0,0,0,0,-1,580,526,0,0
-637,498,0,0,0,0,0,0,0,0,0,-1,587,526,0,0
-630,498,0,0,0,0,0,0,0,0,0,-1,594,526,0,0
-623,498,0,0,0,0,0,0,0,0,0,-1,601,526,0,0
-616,498,0,0,0,0,0,0,0,0,0,-1,608,526,0,0
-609,498,0,0,0,0,0,0,0,0,0,-1,615,526,0,0
-602,498,0,0,0,0,0,0,0,0,0,-1,622,526,0,0
-595,498,0,0,0,0,0,0,0,0,0,-1,629,526,0,0
-588,498,0,0,0,0,0,0,0,0,0,-1,636,526,0,0
-581,498,0,0,0,0,0,0,0,0,0,-1,643,526,0,0
-574,498,0,0,0,0,0,0,0,0,0,-1,650,526,0,0
-567,498,0,0,0,0,0,0,0,0,0,-1,657,526,0,0
-560,498,0,0,0,0,0,0,0,0,0,-1,664,526,0,0
-553,498,0,0,0,0,0,0,0,0,0,-1,671,526,0,0
-546,498,0,0,0,0,0,0,0,0,0,-1,678,526,0,0
-539,498,0,0,0,0,0,0,0,0,0,-1,685,526,0,0
-532,498,0,0,0,0,0,0,0,0,0,-1,692,526,0,0
-525,498,0,0,0,0,0,0,0,0,0,-1,699,526,0,0
-518,498,0,0,0,0,0,0,0,0,0,-1,706,526,0,0
-511,498,0,0,0,0,0,0,0,0,0,-1,713,526,0,0
-504,498,0,0,0,0,0,0,0,0,0,-1,720,526,0,0
-497,498,0,0,0,0,0,0,0,0,0,-1,727,526,0,0
-490,498,0,0,0,0,0,0,0,0,0,-1,734,526,0,0
-483,498,0,0,0,0,0,0,0,0,0,-1,741,526,0,0
-476,498,0,0,0,0,0,0,0,0,0,-1,748,526,0,0
-469,498,0,0,0,0,0,0,0,0,0,-1,755,526,0,0
-462,498,6.81024,1.15515,0,0,0,0,0,0,0,-1,762,526,6.81026,-1.15514
-455,498,3.25757,-3.0592,0,0,0,0,0,0,0,-1,769,526,3.25754,3.05921
-448,498,3.05939,-3.74298,0,0,0,0,0,0,0,-1,776,526,3.05939,3.74296
-441,498,2.77191,-6.08209,0,0,0,0,0,0,0,-1,783,526,2.77189,6.08207
-434,498,2.10681,-6.95929,0,0,0,0,0,0,0,-1,790,526,2.10682,6.9593
-427,498,-0.368042,-10.7726,0,0,0,0,0,0,0,-1,797,526,-0.36807,10.7726
-420,498,-1.05035,-10.5142,0,0,0,0,0,0,0,-1,804,526,-1.05034,10.5142
-413,498,-3.35309,-13.2208,0,0,0,0,0,0,0,-1,811,526,-3.35309,13.2208
-406,498,-3.08881,-14.0749,0.0111313,0.025833,-0.0175748,0.0375323,-0.00056804,-0.983472,0.025213,0.0494217,818,526,-3.08879,14.0749
-399,498,-2.80072,-14.9868,0.00963208,0.0208084,-0.0147199,0.0309652,-0.000524698,-0.966812,0.0208206,0.0250939,825,526,-2.80074,14.9868
-392,498,-2.84705,-15.6945,0.00810793,0.0163904,-0.012048,0.024989,-0.000490672,-0.950937,0.0168253,0.0127465,832,526,-2.84702,15.6945
-385,498,-2.86914,-16.2656,0.00678044,0.0125086,-0.00959694,0.0196597,-0.000370671,-0.930409,0.0132318,0.00910814,839,526,-2.86912,16.2655
-378,498,-2.88739,-16.8362,0.00567049,0.00936369,-0.00754776,0.0152875,-0.000253275,-0.905369,0.0102771,0.0105622,846,526,-2.88737,16.8362
-371,498,-2.90436,-17.4072,0.00457032,0.00660343,-0.00570554,0.0113823,-0.000208516,-0.873558,0.00765863,0.01604,853,526,-2.90439,17.4072
-364,498,-2.91638,-17.9691,0.0035797,0.00427894,-0.00406945,0.00801376,-0.000155122,-0.82825,0.00539496,0.0156805,860,526,-2.9164,17.9691
-357,498,-2.91815,-18.4988,0.00284139,0.00253223,-0.00275042,0.00544157,-6.79488e-05,-0.757326,0.00365057,0.0111127,867,526,-2.91815,18.4988
-350,498,-2.93982,-19.0204,0.00227607,0.00105607,-0.00162596,0.00340269,-7.05456e-05,-0.605942,0.00229234,0.0113736,874,526,-2.93981,19.0204
-343,498,-2.95587,-19.5422,0.00187984,-0.000290927,-0.00066673,0.00206827,-0.000479351,-0.275427,0.00156332,0.0115359,881,526,-2.95589,19.5422
-336,498,-2.97235,-20.0734,0.00176326,-0.00119461,-3.25651e-06,0.00176326,-0.00119461,-0.00110096,0.00171822,0.0145777,888,526,-2.97237,20.0733
-329,498,-2.97839,-20.5875,0.00189213,-0.0020165,0.000519391,0.00195998,-0.00208434,0.129881,0.00233535,0.0212712,895,526,-2.97839,20.5875
-322,498,-2.99261,-21.1293,0.00220352,-0.00270853,0.000977799,0.00239101,-0.00289602,0.189443,0.0030571,0.0231972,902,526,-2.99264,21.1293
-315,498,-3.0014,-21.6538,0.00252026,-0.00326318,0.00148326,0.00287848,-0.0036214,0.236971,0.00376087,0.017033,909,526,-3.00139,21.6538
-308,498,-3.02386,-22.1337,0.00282546,-0.00401857,0.00205194,0.00339352,-0.00458662,0.270073,0.00462447,0.0194757,916,526,-3.02386,22.1337
-301,498,-2.94598,-22.6875,0.0029695,-0.00479246,0.00286643,0.00391329,-0.00573625,0.318077,0.00560421,0.0395593,923,526,-2.946,22.6875
-294,498,-2.85437,-23.2449,0,0,0,0,0,0,0,-1,930,526,-2.85435,23.2449
-287,498,-0.91394,-13.4327,0,0,0,0,0,0,0,-1,937,526,-0.913935,13.4327
-280,498,-0.341614,-8.66608,0,0,0,0,0,0,0,-1,944,526,-0.341589,8.66606
-273,498,-0.988892,-8.62921,0,0,0,0,0,0,0,-1,951,526,-0.988906,8.62922
-266,498,0.362488,-6.33545,0,0,0,0,0,0,0,-1,958,526,0.362478,6.33547
-259,498,10.9454,-17.3615,0,0,0,0,0,0,0,-1,965,526,10.9454,17.3614
-252,498,8.56586,-14.6886,0,0,0,0,0,0,0,-1,972,526,8.56584,14.6886
-245,498,5.97382,-11.928,0,0,0,0,0,0,0,-1,979,526,5.97381,11.928
-238,498,2.24841,-13.8145,0,0,0,0,0,0,0,-1,986,526,2.24838,13.8145
-231,498,0.665894,-10.4898,0,0,0,0,0,0,0,-1,993,526,0.665863,10.4898
-224,498,-2.11243,-4.76312,0,0,0,0,0,0,0,-1,1000,526,-2.11245,4.76314
-217,498,-3.82239,-1.42841,0,0,0,0,0,0,0,-1,1007,526,-3.82241,1.42843
-210,498,-1.80591,-0.358215,0,0,0,0,0,0,0,-1,1014,526,-1.8059,0.3582
-203,498,-3.17316,1.06641,0,0,0,0,0,0,0,-1,1021,526,-3.17313,-1.0664
-196,498,-0.103271,5.40527,0,0,0,0,0,0,0,-1,1028,526,-0.103285,-5.40528
-189,498,3.00256,6.47137,0,0,0,0,0,0,0,-1,1035,526,3.00256,-6.47139
-182,498,0,0,0,0,0,0,0,0,0,-1,1042,526,0,0
-175,498,0,0,0,0,0,0,0,0,0,-1,1049,526,0,0
-168,498,0,0,0,0,0,0,0,0,0,-1,1056,526,0,0
-161,498,0,0,0,0,0,0,0,0,0,-1,1063,526,0,0
-154,498,0,0,0,0,0,0,0,0,0,-1,1070,526,0,0
-147,498,0,0,0,0,0,0,0,0,0,-1,1077,526,0,0
-140,498,0,0,0,0,0,0,0,0,0,-1,1084,526,0,0
-133,498,0,0,0,0,0,0,0,0,0,-1,1091,526,0,0
-126,498,0,0,0,0,0,0,0,0,0,-1,1098,526,0,0
-119,498,0,0,0,0,0,0,0,0,0,-1,1105,526,0,0
-112,498,0,0,0,0,0,0,0,0,0,-1,1112,526,0,0
-105,498,0,0,0,0,0,0,0,0,0,-1,1119,526,0,0
-98,498,0,0,0,0,0,0,0,0,0,-1,1126,526,0,0
-91,498,0,0,0,0,0,0,0,0,0,-1,1133,526,0,0
-84,498,0,0,0,0,0,0,0,0,0,-1,1140,526,0,0
-77,498,0,0,0,0,0,0,0,0,0,-1,1147,526,0,0
-70,498,0,0,0,0,0,0,0,0,0,-1,1154,526,0,0
-63,498,0,0,0,0,0,0,0,0,0,-1,1161,526,0,0
-56,498,0,0,0,0,0,0,0,0,0,-1,1168,526,0,0
-49,498,0,0,0,0,0,0,0,0,0,-1,1175,526,0,0
-42,498,0,0,0,0,0,0,0,0,0,-1,1182,526,0,0
-35,498,0,0,0,0,0,0,0,0,0,-1,1189,526,0,0
-28,498,0,0,0,0,0,0,0,0,0,-1,1196,526,0,0
-21,498,0,0,0,0,0,0,0,0,0,-1,1203,526,0,0
-14,498,0,0,0,0,0,0,0,0,0,-1,1210,526,0,0
-7,498,0,0,0,0,0,0,0,0,0,-1,1217,526,0,0
0,498,0,0,0,0,0,0,0,0,0,-1,1224,526,0,0
7,498,0,0,0,0,0,0,0,0,0,-1,1231,526,0,0
14,498,0,0,0,0,0,0,0,0,0,-1,1238,526,0,0
21,498,0,0,0,0,0,0,0,0,0,-1,1245,526,0,0
28,498,0,0,0,0,0,0,0,0,0,-1,1252,526,0,0
35,498,0,0,0,0,0,0,0,0,0,-1,1259,526,0,0
42,498,0,0,0,0,0,0,0,0,0,-1,1266,526,0,0
49,498,0,0,0,0,0,0,0,0,0,-1,1273,526,0,0
56,498,0,0,0,0,0,0,0,0,0,-1,1280,526,0,0
63,498,0,0,0,0,0,0,0,0,0,-1,1287,526,0,0
70,498,0,0,0,0,0,0,0,0,0,-1,1294,526,0,0
77,498,0,0,0,0,0,0,0,0,0,-1,1301,526,0,0
84,498,0,0,0,0,0,0,0,0,0,-1,1308,526,0,0
91,498,0,0,0,0,0,0,0,0,0,-1,1315,526,0,0
98,498,0,0,0,0,0,0,0,0,0,-1,1322,526,0,0
105,498,0,0,0,0,0,0,0,0,0,-1,1329,526,0,0
112,498,0,0,0,0,0,0,0,0,0,-1,1336,526,0,0
119,498,0,0,0,0,0,0,0,0,0,-1,1343,526,0,0
126,498,0,0,0,0,0,0,0,0,0,-1,1350,526,0,0
133,498,0,0,0,0,0,0,0,0,0,-1,1357,526,0,0
140,498,0,0,0,0,0,0,0,0,0,-1,1364,526,0,0
147,498,0,0,0,0,0,0,0,0,0,-1,1371,526,0,0
154,498,0,0,0,0,0,0,0,0,0,-1,1378,526,0,0
161,498,0,0,0,0,0,0,0,0,0,-1,1385,526,0,0
168,498,0,0,0,0,0,0,0,0,0,-1,1392,526,0,0
175,498,0,0,0,0,0,0,0,0,0,-1,1399,526,0,0
182,498,0,0,0,0,0,0,0,0,0,-1,1406,526,0,0
189,498,0,0,0,0,0,0,0,0,0,-1,1413,526,0,0
196,498,0,0,0,0,0,0,0,0,0,-1,1420,526,0,0
203,498,0,0,0,0,0,0,0,0,0,-1,1427,526,0,0
210,498,0,0,0,0,0,0,0,0,0,-1,1434,526,0,0
217,498,0,0,0,0,0,0,0,0,0,-1,1441,526,0,0
224,498,0,0,0,0,0,0,0,0,0,-1,1448,526,0,0
231,498,0,0,0,0,0,0,0,0,0,-1,1455,526,0,0
238,498,0,0,0,0,0,0,0,0,0,-1,1462,526,0,0
245,498,0,0,0,0,0,0,0,0,0,-1,1469,526,0,0
252,498,0,0,0,0,0,0,0,0,0,-1,1476,526,0,0
259,498,0,0,0,0,0,0,0,0,0,-1,1483,526,0,0
266,498,0,0,0,0,0,0,0,0,0,-1,1490,526,0,0
273,498,0,0,0,0,0,0,0,0,0,-1,1497,526,0,0
280,498,0,0,0,0,0,0,0,0,0,-1,1504,526,0,0
287,498,0,0,0,0,0,0,0,0,0,-1,1511,526,0,0
294,498,0,0,0,0,0,0,0,0,0,-1,1518,526,0,0
301,498,0,0,0,0,0,0,0,0,0,-1,1525,526,0,0
308,498,4.77942,-0.293884,0,0,0,0,0,0,0,-1,1532,526,4.77939,0.293899
315,498,4.56091,-0.564148,0,0,0,0,0,0,0,-1,1539,526,4.56097,0.564142
322,498,4.52344,-0.447266,0,0,0,0,0,0,0,-1,1546,526,4.52341,0.447295
329,498,4.63232,-0.156982,0,0,0,0,0,0,0,-1,1553,526,4.63238,0.156991
336,498,5.22644,0.0925903,0,0,0,0,0,0,0,-1,1560,526,5.22648,-0.0926188
343,498,6.22607,-1.67615,0,0,0,0,0,0,0,-1,1567,526,6.22605,1.67617
350,498,6.19373,-1.59906,0,0,0,0,0,0,0,-1,1574,526,6.19367,1.59906
357,498,6.21472,-1.58929,0,0,0,0,0,0,0,-1,1581,526,6.21476,1.58927
364,498,5.73547,-1.2019,0,0,0,0,0,0,0,-1,1588,526,5.73547,1.20192
371,498,3.27087,-4.55334,0,0,0,0,0,0,0,-1,1595,526,3.27089,4.55332
378,498,8.42944,-4.70624,0,0,0,0,0,0,0,-1,1602,526,8.42942,4.70624
385,498,4.7793,-5.15314,0,0,0,0,0,0,0,-1,1609,526,4.77935,5.15311
392,498,9.12439,-8.57953,0,0,0,0,0,0,0,-1,1616,526,9.12443,8.57955
399,498,7.98938,-9.46021,0,0,0,0,0,0,0,-1,1623,526,7.98936,9.4602
406,498,7.58081,-9.26819,0,0,0,0,0,0,0,-1,1630,526,7.58085,9.26817
413,498,7.17236,-9.07611,0,0,0,0,0,0,0,-1,1637,526,7.17234,9.07614
420,498,11.4314,-16.1147,0,0,0,0,0,0,0,-1,1644,526,11.4313,16.1147
427,498,12.9089,-21.6199,0,0,0,0,0,0,0,-1,1651,526,12.9089,21.62
434,498,13.0276,-21.0995,0.00194016,0.00368903,0.000692025,0.00392973,0.00169946,1.23606,0.00227572,0.0390762,1658,526,13.0276,21.0995
441,498,13.1315,-20.5245,0.00153841,0.00322718,0.000495352,0.00336175,0.00140383,1.30553,0.00194968,0.0138945,1665,526,13.1315,20.5245
448,498,13.1617,-19.946,0.00142283,0.00268913,0.000411242,0.00281097,0.001301,1.28278,0.00162441,0.0100463,1672,526,13.1618,19.946
455,498,13.1187,-19.3967,0.0011874,0.00227609,0.000330653,0.00236864,0.00109484,1.29786,0.00136884,0.0139556,1679,526,13.1187,19.3967
462,498,13.1016,-18.8683,0.000997907,0.00197099,0.000295587,0.00205374,0.000915155,1.29783,0.00118806,0.0163421,1686,526,13.1015,18.8684
469,498,13.0865,-18.3259,0.000926941,0.00167117,0.000434362,0.00187102,0.000727094,1.13958,0.00108913,0.0142998,1693,526,13.0865,18.3259
476,498,13.0828,-17.7822,0.000830184,0.00133035,0.000645281,0.00177231,0.000388219,0.970263,0.00107574,0.0103688,1700,526,13.0827,17.7821
483,498,13.0646,-17.2274,0.000703731,0.000974846,0.000751682,0.0016031,7.54815e-05,0.874609,0.00104448,0.0081378,1707,526,13.0645,17.2273
490,498,13.0415,-16.6598,0.000476767,0.000605606,0.00076551,0.0013094,-0.00022703,0.827376,0.000957624,0.010025,1714,526,13.0415,16.6598
497,498,13.0151,-16.0896,0.000241289,0.00022803,0.000753531,0.00098822,-0.0005189,0.780999,0.000884087,0.0119786,1721,526,13.0151,16.0896
504,498,12.9823,-15.5016,-2.2715e-06,-0.000180147,0.000644927,0.000559822,-0.00074224,0.716879,0.000754201,0.014118,1728,526,12.9823,15.5017
511,498,12.9471,-14.9196,-0.000373155,-0.000566346,0.000378051,-7.95542e-05,-0.000859947,0.660319,0.000548706,0.0156408,1735,526,12.9472,14.9196
518,498,12.9926,-14.3348,-0.000888325,-0.000942484,-0.00011132,-0.000800839,-0.00102997,-0.666085,0.000624443,0.0166983,1742,526,12.9926,14.3348
525,498,12.9082,-13.7541,-0.00148973,-0.00142439,-0.000854831,-0.000601604,-0.00231251,-0.804499,0.00138539,0.024868,1749,526,12.9082,13.7541
532,498,12.7246,-13.1956,-0.00216565,-0.00180394,-0.00177282,-0.00020278,-0.00376682,-0.83623,0.00244642,0.0419986,1756,526,12.7246,13.1956
539,498,12.7373,-12.6406,0,0,0,0,0,0,0,-1,1763,526,12.7373,12.6406
546,498,10.2014,-8.47589,0,0,0,0,0,0,0,-1,1770,526,10.2014,8.47589
553,498,5.93958,-1.71448,0,0,0,0,0,0,0,-1,1777,526,5.93956,1.71447
560,498,3.69385,-0.615112,0,0,0,0,0,0,0,-1,1784,526,3.69381,0.615118
567,498,5.12695,-0.581604,0,0,0,0,0,0,0,-1,1791,526,5.12699,0.58159
574,498,3.88,0.0286255,0,0,0,0,0,0,0,-1,1798,526,3.87999,-0.0286535
581,498,10.8722,2.58551,0,0,0,0,0,0,0,-1,1805,526,10.8723,-2.58551
588,498,0,0,0,0,0,0,0,0,0,-1,1812,526,0,0
595,498,0,0,0,0,0,0,0,0,0,-1,1819,526,0,0
602,498,0,0,0,0,0,0,0,0,0,-1,1826,526,0,0
609,498,0,0,0,0,0,0,0,0,0,-1,1833,526,0,0
616,498,0,0,0,0,0,0,0,0,0,-1,1840,526,0,0
623,498,0,0,0,0,0,0,0,0,0,-1,1847,526,0,0
630,498,0,0,0,0,0,0,0,0,0,-1,1854,526,0,0
637,498,0,0,0,0,0,0,0,0,0,-1,1861,526,0,0
644,498,0,0,0,0,0,0,0,0,0,-1,1868,526,0,0
651,498,0,0,0,0,0,0,0,0,0,-1,1875,526,0,0
658,498,0,0,0,0,0,0,0,0,0,-1,1882,526,0,0
665,498,0,0,0,0,0,0,0,0,0,-1,1889,526,0,0
672,498,0,0,0,0,0,0,0,0,0,-1,1896,526,0,0
679,498,0,0,0,0,0,0,0,0,0,-1,1903,526,0,0
686,498,0,0,0,0,0,0,0,0,0,-1,1910,526,0,0
693,498,0,0,0,0,0,0,0,0,0,-1,1917,526,0,0
700,498,0,0,0,0,0,0,0,0,0,-1,1924,526,0,0
707,498,0,0,0,0,0,0,0,0,0,-1,1931,526,0,0
714,498,0,0,0,0,0,0,0,0,0,-1,1938,526,0,0
721,498,0,0,0,0,0,0,0,0,0,-1,1945,526,0,0
728,498,0,0,0,0,0,0,0,0,0,-1,1952,526,0,0
735,498,0,0,0,0,0,0,0,0,0,-1,1959,526,0,0
742,498,0,0,0,0,0,0,0,0,0,-1,1966,526,0,0
749,498,0,0,0,0,0,0,0,0,0,-1,1973,526,0,0
756,498,0,0,0,0,0,0,0,0,0,-1,1980,526,0,0
763,498,0,0,0,0,0,0,0,0,0,-1,1987,526,0,0
770,498,0,0,0,0,0,0,0,0,0,-1,1994,526,0,0
777,498,0,0,0,0,0,0,0,0,0,-1,2001,526,0,0
784,498,0,0,0,0,0,0,0,0,0,-1,2008,526,0,0
791,498,0,0,0,0,0,0,0,0,0,-1,2015,526,0,0
798,498,0,0,0,0,0,0,0,0,0,-1,2022,526,0,0
805,498,0,0,0,0,0,0,0,0,0,-1,2029,526,0,0
812,498,0,0,0,0,0,0,0,0,0,-1,2036,526,0,0
-700,491,0,0,0,0,0,0,0,0,0,-1,524,533,0,0
-693,491,0,0,0,0,0,0,0,0,0,-1,531,533,0,0
-686,491,0,0,0,0,0,0,0,0,0,-1,538,533,0,0
-679,491,0,0,0,0,0,0,0,0,0,-1,545,533,0,0
-672,491,0,0,0,0,0,0,0,0,0,-1,552,533,0,0
-665,491,0,0,0,0,0,0,0,0,0,-1,559,533,0,0
-658,491,0,0,0,0,0,0,0,0,0,-1,566,533,0,0
-651,491,0,0,0,0,0,0,0,0,0,-1,573,533,0,0
-644,491,0,0,0,0,0,0,0,0,0,-1,580,533,0,0
-637,491,0,0,0,0,0,0,0,0,0,-1,587,533,0,0
-630,491,0,0,0,0,0,0,0,0,0,-1,594,533,0,0
-623,491,0,0,0,0,0,0,0,0,0,-1,601,533,0,0
-616,491,0,0,0,0,0,0,0,0,0,-1,608,533,0,0
-609,491,0,0,0,0,0,0,0,0,0,-1,615,533,0,0
-602,491,0,0,0,0,0,0,0,0,0,-1,622,533,0,0
-595,491,0,0,0,0,0,0,0,0,0,-1,629,533,0,0
-588,491,0,0,0,0,0,0,0,0,0,-1,636,533,0,0
-581,491,0,0,0,0,0,0,0,0,0,-1,643,533,0,0
-574,491,0,0,0,0,0,0,0,0,0,-1,650,533,0,0
-567,491,0,0,0,0,0,0,0,0,0,-1,657,533,0,0
-560,491,0,0,0,0,0,0,0,0,0,-1,664,533,0,0
-553,491,0,0,0,0,0,0,0,0,0,-1,671,533,0,0
-546,491,0,0,0,0,0,0,0,0,0,-1,678,533,0,0
-539,491,0,0,0,0,0,0,0,0,0,-1,685,533,0,0
-532,491,0,0,0,0,0,0,0,0,0,-1,692,533,0,0
-525,491,0,0,0,0,0,0,0,0,0,-1,699,533,0,0
-518,491,0,0,0,0,0,0,0,0,0,-1,706,533,0,0
-511,491,0,0,0,0,0,0,0,0,0,-1,713,533,0,0
-504,491,0,0,0,0,0,0,0,0,0,-1,720,533,0,0
-497,491,0,0,0,0,0,0,0,0,0,-1,727,533,0,0
-490,491,0,0,0,0,0,0,0,0,0,-1,734,533,0,0
-483,491,0,0,0,0,0,0,0,0,0,-1,741,533,0,0
-476,491,0,0,0,0,0,0,0,0,0,-1,748,533,0,0
-469,491,-5.85913,4.55011,0,0,0,0,0,0,0,-1,755,533,-5.8591,-4.55009
-462,491,-9.93713,4.90381,0,0,0,0,0,0,0,-1,762,533,-9.93716,-4.9038
-455,491,1.9494,-0.27887,0,0,0,0,0,0,0,-1,769,533,1.94941,0.27885
-448,491,2.68909,-1.8999,0,0,0,0,0,0,0,-1,776,533,2.6891,1.89988
-441,491,3.46069,-3.51855,0,0,0,0,0,0,0,-1,783,533,3.46071,3.51854
-434,491,2.67145,-7.44061,0,0,0,0,0,0,0,-1,790,533,2.67146,7.44061
-427,491,2.27136,-8.34546,0,0,0,0,0,0,0,-1,797,533,2.27136,8.34546
-420,491,-1.52142,-8.1123,0,0,0,0,0,0,0,-1,804,533,-1.52142,8.11228
-413,491,-3.4104,-13.7538,0,0,0,0,0,0,0,-1,811,533,-3.41042,13.7538
-406,491,-3.34082,-14.5115,0.0074592,0.0199847,-0.0131035,0.0282451,-0.000801226,-1.00832,0.0191028,0.0264163,818,533,-3.34079,14.5114
-399,491,-3.33514,-15.1726,0.00664643,0.0161288,-0.0110427,0.0234051,-0.000629833,-0.988174,0.0158175,0.0117981,825,533,-3.33516,15.1726
-392,491,-3.39252,-15.7581,0.00573859,0.0125845,-0.00903105,0.0188195,-0.000496414,-0.966544,0.0127151,0.0104243,832,533,-3.39249,15.7581
-385,491,-3.41296,-16.2833,0.00494417,0.00943158,-0.00714792,0.0146797,-0.000303921,-0.937476,0.00988931,0.00897829,839,533,-3.41294,16.2833
-378,491,-3.42847,-16.8221,0.00427245,0.00682113,-0.00553989,0.0112314,-0.000137784,-0.898446,0.00753392,0.0129007,846,533,-3.42849,16.8221
-371,491,-3.42896,-17.3703,0.00354617,0.00446723,-0.00404211,0.00807496,-6.15609e-05,-0.84212,0.00540394,0.0144805,853,533,-3.42895,17.3703
-364,491,-3.44965,-17.9198,0.00288866,0.00245947,-0.00269124,0.00537384,-2.57168e-05,-0.745613,0.00359116,0.0132639,860,533,-3.44965,17.9198
-357,491,-3.45898,-18.452,0.0024385,0.000960076,-0.00160921,0.00347016,-7.15818e-05,-0.570091,0.00233767,0.0118178,867,533,-3.45895,18.452
-350,491,-3.47577,-18.9771,0.00217226,-0.000229502,-0.000746439,0.00238534,-0.000442582,-0.278067,0.00175644,0.0146379,874,533,-3.47575,18.9771
-343,491,-3.47864,-19.4858,0.00204311,-0.00126572,-4.74027e-05,0.00204379,-0.0012664,-0.0143222,0.00192863,0.0225022,881,533,-3.47866,19.4858
-336,491,-3.4751,-20.0022,0.00210737,-0.00206323,0.000470606,0.00215982,-0.00211568,0.11098,0.0024685,0.0228043,888,533,-3.47507,20.0022
-329,491,-3.50824,-20.5317,0.00238111,-0.00281862,0.000895481,0.00253101,-0.00296851,0.165854,0.0031785,0.0241595,895,533,-3.50825,20.5317
-322,491,-3.56122,-21.0625,0.00296763,-0.00337571,0.00119039,0.00318366,-0.00359174,0.179525,0.00391415,0.0231289,902,533,-3.56124,21.0625
-315,491,-3.56201,-21.5489,0.00348056,-0.0038789,0.00160257,0.00381439,-0.00421273,0.205371,0.00463636,0.020357,909,533,-3.562,21.5489
-308,491,-3.52539,-22.1967,0,0,0,0,0,0,0,-1,916,533,-3.5254,22.1967
-301,491,-3.48822,-23.0268,0,0,0,0,0,0,0,-1,923,533,-3.48824,23.0268
-294,491,-0.777283,-8.60913,0,0,0,0,0,0,0,-1,930,533,-0.777288,8.6091
-287,491,-0.26123,-8.69055,0,0,0,0,0,0,0,-1,937,533,-0.261204,8.69053
-280,491,0.2948,-5.99219,0,0,0,0,0,0,0,-1,944,533,0.294811,5.99221
-273,491,0.369995,-5.33691,0,0,0,0,0,0,0,-1,951,533,0.369985,5.33693
-266,491,1.1167,-5.0321,0,0,0,0,0,0,0,-1,958,533,1.11668,5.0321
-259,491,12.0862,-16.9615,0,0,0,0,0,0,0,-1,965,533,12.0862,16.9615
-252,491,9.72443,-13.8417,0,0,0,0,0,0,0,-1,972,533,9.72444,13.8418
-245,491,5.27258,-14.3619,0,0,0,0,0,0,0,-1,979,533,5.27255,14.3619
-238,491,3.65381,-11.1472,0,0,0,0,0,0,0,-1,986,533,3.6538,11.1472
-231,491,2.17719,-7.86835,0,0,0,0,0,0,0,-1,993,533,2.17719,7.86832
-224,491,0.554626,-4.61725,0,0,0,0,0,0,0,-1,1000,533,0.554608,4.61727
-217,491,-2.92743,-1.0766,0,0,0,0,0,0,0,-1,1007,533,-2.92743,1.07659
-210,491,-0.92395,0.374512,0,0,0,0,0,0,0,-1,1014,533,-0.923959,-0.374531
-203,491,0.417419,4.77161,0,0,0,0,0,0,0,-1,1021,533,0.417446,-4.77162
-196,491,0,0,0,0,0,0,0,0,0,-1,1028,533,0,0
-189,491,0,0,0,0,0,0,0,0,0,-1,1035,533,0,0
-182,491,0,0,0,0,0,0,0,0,0,-1,1042,533,0,0
-175,491,0,0,0,0,0,0,0,0,0,-1,1049,533,0,0
-168,491,0,0,0,0,0,0,0,0,0,-1,1056,533,0,0
-161,491,0,0,0,0,0,0,0,0,0,-1,1063,533,0,0
-154,491,0,0,0,0,0,0,0,0,0,-1,1070,533,0,0
-147,491,0,0,0,0,0,0,0,0,0,-1,1077,533,0,0
-140,491,0,0,0,0,0,0,0,0,0,-1,1084,533,0,0
-133,491,0,0,0,0,0,0,0,0,0,-1,1091,533,0,0
-126,491,0,0,0,0,0,0,0,0,0,-1,1098,533,0,0
-119,491,0,0,0,0,0,0,0,0,0,-1,1105,533,0,0
-112,491,0,0,0,0,0,0,0,0,0,-1,1112,533,0,0
-105,491,0,0,0,0,0,0,0,0,0,-1,1119,533,0,0
-98,491,0,0,0,0,0,0,0,0,0,-1,1126,533,0,0
-91,491,0,0,0,0,0,0,0,0,0,-1,1133,533,0,0
-84,491,0,0,0,0,0,0,0,0,0,-1,1140,533,0,0
-77,491,0,0,0,0,0,0,0,0,0,-1,1147,533,0,0
-70,491,0,0,0,0,0,0,0,0,0,-1,1154,533,0,0
-63,491,0,0,0,0,0,0,0,0,0,-1,1161,533,0,0
-56,491,0,0,0,0,0,0,0,0,0,-1,1168,533,0,0
-49,491,0,0,0,0,0,0,0,0,0,-1,1175,533,0,0
-42,491,0,0,0,0,0,0,0,0,0,-1,1182,533,0,0
-35,491,0,0,0,0,0,0,0,0,0,-1,1189,533,0,0
-28,491,0,0,0,0,0,0,0,0,0,-1,1196,533,0,0
-21,491,0,0,0,0,0,0,0,0,0,-1,1203,533,0,0
-14,491,0,0,0,0,0,0,0,0,0,-1,1210,533,0,0
-7,491,0,0,0,0,0,0,0,0,0,-1,1217,533,0,0
0,491,0,0,0,0,0,0,0,0,0,-1,1224,533,0,0
7,491,0,0,0,0,0,0,0,0,0,-1,1231,533,0,0
14,491,0,0,0,0,0,0,0,0,0,-1,1238,533,0,0
21,491,0,0,0,0,0,0,0,0,0,-1,1245,533,0,0
28,491,0,0,0,0,0,0,0,0,0,-1,1252,533,0,0
35,491,0,0,0,0,0,0,0,0,0,-1,1259,533,0,0
42,491,0,0,0,0,0,0,0,0,0,-1,1266,533,0,0
49,491,0,0,0,0,0,0,0,0,0,-1,1273,533,0,0
56,491,0,0,0,0,0,0,0,0,0,-1,1280,533,0,0
63,491,0,0,0,0,0,0,0,0,0,-1,1287,533,0,0
70,491,0,0,0,0,0,0,0,0,0,-1,1294,533,0,0
77,491,0,0,0,0,0,0,0,0,0,-1,1301,533,0,0
84,491,0,0,0,0,0,0,0,0,0,-1,1308,533,0,0
91,491,0,0,0,0,0,0,0,0,0,-1,1315,533,0,0
98,491,0,0,0,0,0,0,0,0,0,-1,1322,533,0,0
105,491,0,0,0,0,0,0,0,0,0,-1,1329,533,0,0
112,491,0,0,0,0,0,0,0,0,0,-1,1336,533,0,0
119,491,0,0,0,0,0,0,0,0,0,-1,1343,533,0,0
126,491,0,0,0,0,0,0,0,0,0,-1,1350,533,0,0
133,491,0,0,0,0,0,0,0,0,0,-1,1357,533,0,0
140,491,0,0,0,0,0,0,0,0,0,-1,1364,533,0,0
147,491,0,0,0,0,0,0,0,0,0,-1,1371,533,0,0
154,491,0,0,0,0,0,0,0,0,0,-1,1378,533,0,0
161,491,0,0,0,0,0,0,0,0,0,-1,1385,533,0,0
168,491,0,0,0,0,0,0,0,0,0,-1,1392,533,0,0
175,491,0,0,0,0,0,0,0,0,0,-1,1399,533,0,0
182,491,0,0,0,0,0,0,0,0,0,-1,1406,533,0,0
189,491,0,0,0,0,0,0,0,0,0,-1,1413,533,0,0
196,491,0,0,0,0,0,0,0,0,0,-1,1420,533,0,0
203,491,0,0,0,0,0,0,0,0,0,-1,1427,533,0,0
210,491,0,0,0,0,0,0,0,0,0,-1,1434,533,0,0
217,491,0,0,0,0,0,0,0,0,0,-1,1441,533,0,0
224,491,0,0,0,0,0,0,0,0,0,-1,1448,533,0,0
231,491,0,0,0,0,0,0,0,0,0,-1,1455,533,0,0
238,491,0,0,0,0,0,0,0,0,0,-1,1462,533,0,0
245,491,0,0,0,0,0,0,0,0,0,-1,1469,533,0,0
252,491,0,0,0,0,0,0,0,0,0,-1,1476,533,0,0
259,491,0,0,0,0,0,0,0,0,0,-1,1483,533,0,0
266,491,0,0,0,0,0,0,0,0,0,-1,1490,533,0,0
273,491,0,0,0,0,0,0,0,0,0,-1,1497,533,0,0
280,491,0,0,0,0,0,0,0,0,0,-1,1504,533,0,0
287,491,0,0,0,0,0,0,0,0,0,-1,1511,533,0,0
294,491,0,0,0,0,0,0,0,0,0,-1,1518,533,0,0
301,491,0,0,0,0,0,0,0,0,0,-1,1525,533,0,0
308,491,0,0,0,0,0,0,0,0,0,-1,1532,533,0,0
315,491,0,0,0,0,0,0,0,0,0,-1,1539,533,0,0
322,491,4.26331,-0.734314,0,0,0,0,0,0,0,-1,1546,533,4.26326,0.734324
329,491,4.25354,-0.783752,0,0,0,0,0,0,0,-1,1553,533,4.25359,0.783734
336,491,4.81604,-0.722107,0,0,0,0,0,0,0,-1,1560,533,4.81605,0.722115
343,491,6.14478,-1.44281,0,0,0,0,0,0,0,-1,1567,533,6.14474,1.44281
350,491,6.36353,-1.30792,0,0,0,0,0,0,0,-1,1574,533,6.36352,1.3079
357,491,6.69482,-1.06018,0,0,0,0,0,0,0,-1,1581,533,6.69489,1.06018
364,491,8.01086,-1.69604,0,0,0,0,0,0,0,-1,1588,533,8.01087,1.69607
371,491,8.2135,-0.539307,0,0,0,0,0,0,0,-1,1595,533,8.21348,0.53929
378,491,13.3589,2.17267,0,0,0,0,0,0,0,-1,1602,533,13.3589,-2.17264
385,491,8.08228,-4.95471,0,0,0,0,0,0,0,-1,1609,533,8.08227,4.95474
392,491,2.88721,-4.30988,0,0,0,0,0,0,0,-1,1616,533,2.88716,4.30986
399,491,8.95862,-8.55518,0,0,0,0,0,0,0,-1,1623,533,8.95864,8.55516
406,491,8.16541,-9.00806,0,0,0,0,0,0,0,-1,1630,533,8.16535,9.00807
413,491,5.31848,-3.7124,0,0,0,0,0,0,0,-1,1637,533,5.31849,3.7124
420,491,4.86389,-3.95892,0,0,0,0,0,0,0,-1,1644,533,4.86387,3.95893
427,491,11.5096,-15.2742,0,0,0,0,0,0,0,-1,1651,533,11.5096,15.2742
434,491,13.5027,-21.1384,0,0,0,0,0,0,0,-1,1658,533,13.5027,21.1385
441,491,13.6045,-20.6141,0,0,0,0,0,0,0,-1,1665,533,13.6045,20.6142
448,491,13.7021,-20.0053,0.00151504,0.00325515,0.000267027,0.0032952,0.00147499,1.42191,0.00190596,0.0337904,1672,533,13.7022,20.0053
455,491,13.6555,-19.3949,0.00119742,0.00270206,5.95658e-05,0.00270442,0.00119506,1.53129,0.00156491,0.0173364,1679,533,13.6555,19.3949
462,491,13.6512,-18.8551,0.000967335,0.00231277,-5.16639e-05,0.00231475,0.000965354,-1.53247,0.00134254,0.0158111,1686,533,13.6513,18.8551
469,491,13.6252,-18.3371,0.00087216,0.00197602,7.56853e-05,0.00198118,0.000866994,1.50266,0.0011468,0.0157573,1693,533,13.6253,18.3371
476,491,13.6373,-17.7833,0.000774207,0.00167219,0.000297827,0.00176199,0.000684409,1.27795,0.00102569,0.0109191,1700,533,13.6374,17.7833
483,491,13.6193,-17.2001,0.000662621,0.00128184,0.000474071,0.00153845,0.000406015,1.07467,0.000920638,0.0112991,1707,533,13.6193,17.2001
490,491,13.6017,-16.6617,0.000446399,0.00096306,0.000520126,0.00128548,0.000123983,1.01589,0.000818791,0.00989394,1714,533,13.6017,16.6618
497,491,13.588,-16.1013,0.000231866,0.000628359,0.000564189,0.00102812,-0.000167894,0.954352,0.000747687,0.0114944,1721,533,13.588,16.1013
504,491,13.5781,-15.4904,3.22648e-05,0.00026955,0.000538713,0.000702531,-0.000400716,0.893784,0.000644856,0.0129472,1728,533,13.5782,15.4904
511,491,13.5292,-14.8958,-0.000292476,-4.36881e-05,0.000393952,0.000245042,-0.000581207,0.938324,0.000490019,0.0117741,1735,533,13.5292,14.8958
518,491,13.5133,-14.3496,-0.000770457,-0.000347726,6.483e-05,-0.000338008,-0.000780176,1.42199,0.000451771,0.00970718,1742,533,13.5132,14.3496
525,491,13.5201,-13.7615,-0.00129785,-0.000765614,-0.000461592,-0.000498923,-0.00156454,-1.04689,0.000922829,0.0101681,1749,533,13.5201,13.7615
532,491,13.4921,-13.1779,-0.00186646,-0.00105578,-0.00108175,-0.000305922,-0.00261632,-0.964655,0.00165171,0.0213517,1756,533,13.4921,13.1779
539,491,13.3661,-12.6911,-0.00251391,-0.00124821,-0.00186623,8.95534e-05,-0.00385168,-0.948866,0.00259815,0.0404023,1763,533,13.3661,12.6911
546,491,13.1449,-11.98,0,0,0,0,0,0,0,-1,1770,533,13.145,11.98
553,491,10.5021,-7.77869,0,0,0,0,0,0,0,-1,1777,533,10.502,7.77871
560,491,6.28455,-1.43585,0,0,0,0,0,0,0,-1,1784,533,6.28458,1.43586
567,491,5.67651,-1.3562,0,0,0,0,0,0,0,-1,1791,533,5.67649,1.3562
574,491,8.0719,1.58325,0,0,0,0,0,0,0,-1,1798,533,8.07195,-1.58326
581,491,9.44812,1.60931,0,0,0,0,0,0,0,-1,1805,533,9.44808,-1.60933
588,491,11.0497,1.54962,0,0,0,0,0,0,0,-1,1812,533,11.0496,-1.54963
595,491,0,0,0,0,0,0,0,0,0,-1,1819,533,0,0
602,491,0,0,0,0,0,0,0,0,0,-1,1826,533,0,0
609,491,0,0,0,0,0,0,0,0,0,-1,1833,533,0,0
616,491,0,0,0,0,0,0,0,0,0,-1,1840,533,0,0
623,491,0,0,0,0,0,0,0,0,0,-1,1847,533,0,0
630,491,0,0,0,0,0,0,0,0,0,-1,1854,533,0,0
637,491,0,0,0,0,0,0,0,0,0,-1,1861,533,0,0
644,491,0,0,0,0,0,0,0,0,0,-1,1868,533,0,0
651,491,0,0,0,0,0,0,0,0,0,-1,1875,533,0,0
658,491,0,0,0,0,0,0,0,0,0,-1,1882,533,0,0
665,491,0,0,0,0,0,0,0,0,0,-1,1889,533,0,0
672,491,0,0,0,0,0,0,0,0,0,-1,1896,533,0,0
679,491,0,0,0,0,0,0,0,0,0,-1,1903,533,0,0
686,491,0,0,0,0,0,0,0,0,0,-1,1910,533,0,0
693,491,0,0,0,0,0,0,0,0,0,-1,1917,533,0,0
700,491,0,0,0,0,0,0,0,0,0,-1,1924,533,0,0
707,491,0,0,0,0,0,0,0,0,0,-1,1931,533,0,0
714,491,0,0,0,0,0,0,0,0,0,-1,1938,533,0,0
721,491,0,0,0,0,0,0,0,0,0,-1,1945,533,0,0
728,491,0,0,0,0,0,0,0,0,0,-1,1952,533,0,0
735,491,0,0,0,0,0,0,0,0,0,-1,1959,533,0,0
742,491,0,0,0,0,0,0,0,0,0,-1,1966,533,0,0
749,491,0,0,0,0,0,0,0,0,0,-1,1973,533,0,0
756,491,0,0,0,0,0,0,0,0,0,-1,1980,533,0,0
763,491,0,0,0,0,0,0,0,0,0,-1,1987,533,0,0
770,491,0,0,0,0,0,0,0,0,0,-1,1994,533,0,0
777,491,0,0,0,0,0,0,0,0,0,-1,2001,533,0,0
784,491,0,0,0,0,0,0,0,0,0,-1,2008,533,0,0
791,491,0,0,0,0,0,0,0,0,0,-1,2015,533,0,0
798,491,0,0,0,0,0,0,0,0,0,-1,2022,533,0,0
805,491,0,0,0,0,0,0,0,0,0,-1,2029,533,0,0
812,491,0,0,0,0,0,0,0,0,0,-1,2036,533,0,0
-700,484,0,0,0,0,0,0,0,0,0,-1,524,540,0,0
-693,484,0,0,0,0,0,0,0,0,0,-1,531,540,0,0
-686,484,0,0,0,0,0,0,0,0,0,-1,538,540,0,0
-679,484,0,0,0,0,0,0,0,0,0,-1,545,540,0,0
-672,484,0,0,0,0,0,0,0,0,0,-1,552,540,0,0
-665,484,0,0,0,0,0,0,0,0,0,-1,559,540,0,0
-658,484,0,0,0,0,0,0,0,0,0,-1,566,540,0,0
-651,484,0,0,0,0,0,0,0,0,0,-1,573,540,0,0
-644,484,0,0,0,0,0,0,0,0,0,-1,580,540,0,0
-637,484,0,0,0,0,0,0,0,0,0,-1,587,540,0,0
-630,484,0,0,0,0,0,0,0,0,0,-1,594,540,0,0
-623,484,0,0,0,0,0,0,0,0,0,-1,601,540,0,0
-616,484,0,0,0,0,0,0,0,0,0,-1,608,540,0,0
-609,484,0,0,0,0,0,0,0,0,0,-1,615,540,0,0
-602,484,0,0,0,0,0,0,0,0,0,-1,622,540,0,0
-595,484,0,0,0,0,0,0,0,0,0,-1,629,540,0,0
-588,484,0,0,0,0,0,0,0,0,0,-1,636,540,0,0
-581,484,0,0,0,0,0,0,0,0,0,-1,643,540,0,0
-574,484,0,0,0,0,0,0,0,0,0,-1,650,540,0,0
-567,484,0,0,0,0,0,0,0,0,0,-1,657,540,0,0
-560,484,0,0,0,0,0,0,0,0,0,-1,664,540,0,0
-553,484,0,0,0,0,0,0,0,0,0,-1,671,540,0,0
-546,484,0,0,0,0,0,0,0,0,0,-1,678,540,0,0
-539,484,0,0,0,0,0,0,0,0,0,-1,685,540,0,0
-532,484,0,0,0,0,0,0,0,0,0,-1,692,540,0,0
-525,484,0,0,0,0,0,0,0,0,0,-1,699,540,0,0
-518,484,0,0,0,0,0,0,0,0,0,-1,706,540,0,0
-511,484,0,0,0,0,0,0,0,0,0,-1,713,540,0,0
-504,484,0,0,0,0,0,0,0,0,0,-1,720,540,0,0
-497,484,0,0,0,0,0,0,0,0,0,-1,727,540,0,0
-490,484,0,0,0,0,0,0,0,0,0,-1,734,540,0,0
-483,484,0,0,0,0,0,0,0,0,0,-1,741,540,0,0
-476,484,-8.46552,1.44702,0,0,0,0,0,0,0,-1,748,540,-8.46554,-1.44702
-469,484,-7.82343,1.70355,0,0,0,0,0,0,0,-1,755,540,-7.82345,-1.70355
-462,484,-8.36987,3.08612,0,0,0,0,0,0,0,-1,762,540,-8.36988,-3.0861
-455,484,-6.77197,2.07092,0,0,0,0,0,0,0,-1,769,540,-6.77197,-2.07094
-448,484,3.54895,-1.40106,0,0,0,0,0,0,0,-1,776,540,3.54897,1.40106
-441,484,4.28906,-3.05884,0,0,0,0,0,0,0,-1,783,540,4.28905,3.05883
-434,484,-2.17548,-5.07245,0,0,0,0,0,0,0,-1,790,540,-2.17546,5.07243
-427,484,-3.88837,-12.1911,0,0,0,0,0,0,0,-1,797,540,-3.88834,12.1911
-420,484,-3.71094,-13.1756,0,0,0,0,0,0,0,-1,804,540,-3.71093,13.1756
-413,484,-3.73401,-13.8809,0.00476076,0.0180757,-0.0108881,0.0241804,-0.00134395,-1.05979,0.0165864,0.0309629,811,540,-3.73399,13.8808
-406,484,-3.82306,-14.5531,0.0048068,0.0150327,-0.0095075,0.0207149,-0.000875387,-1.0321,0.0141108,0.0159432,818,540,-3.82306,14.5531
-399,484,-3.89618,-15.16,0.00446642,0.0120311,-0.00799159,0.0170902,-0.000592719,-1.00642,0.0115961,0.0162285,825,540,-3.89621,15.16
-392,484,-3.92371,-15.7153,0.00399869,0.00918439,-0.00646314,0.0135554,-0.000372297,-0.976157,0.00916354,0.0178754,832,540,-3.9237,15.7153
-385,484,-3.95294,-16.2764,0.00358938,0.00662625,-0.00501232,0.0103451,-0.00012946,-0.932474,0.00694028,0.0122507,839,540,-3.95292,16.2764
-378,484,-3.97443,-16.8177,0.0032341,0.00446039,-0.00374211,0.00763925,5.52309e-05,-0.866602,0.00507452,0.013537,846,540,-3.97441,16.8177
-371,484,-3.96735,-17.3519,0.00279631,0.00247148,-0.00252331,0.00516243,0.000105361,-0.753259,0.00340704,0.0154002,853,540,-3.96735,17.3519
-364,484,-3.98413,-17.881,0.00240701,0.000778355,-0.00142365,0.00323278,-4.74083e-05,-0.525609,0.00217116,0.0117041,860,540,-3.9841,17.8811
-357,484,-4.01013,-18.4081,0.00219076,-0.000465756,-0.000565137,0.00230599,-0.000580983,-0.201135,0.00176319,0.012493,867,540,-4.01013,18.4081
-350,484,-4.02911,-18.9303,0.00218881,-0.00132164,1.84251e-05,0.00218891,-0.00132174,0.00524845,0.00204738,0.0147385,874,540,-4.02913,18.9303
-343,484,-4.00702,-19.4693,0.00231268,-0.00195268,0.000415459,0.00235277,-0.00199277,0.0961982,0.00251177,0.0224212,881,540,-4.00699,19.4693
-336,484,-4.02997,-19.9921,0.00254077,-0.00257751,0.000754826,0.00264977,-0.00268651,0.14341,0.00308093,0.0246547,888,540,-4.02995,19.9921
-329,484,-4.04614,-20.4797,0.00294742,-0.00320701,0.00104645,0.00312048,-0.00338008,0.163898,0.0037541,0.0363194,895,540,-4.04617,20.4797
-322,484,-4.02008,-21.1011,0,0,0,0,0,0,0,-1,902,540,-4.02011,21.1011
-315,484,-3.92261,-21.5661,0,0,0,0,0,0,0,-1,909,540,-3.92262,21.5661
-308,484,-1.32623,-8.9317,0,0,0,0,0,0,0,-1,916,540,-1.32626,8.93173
-301,484,-1.33453,-6.52667,0,0,0,0,0,0,0,-1,923,540,-1.33454,6.5267
-294,484,-1.61224,-8.17059,0,0,0,0,0,0,0,-1,930,540,-1.61227,8.17058
-287,484,-0.715759,-5.62103,0,0,0,0,0,0,0,-1,937,540,-0.715772,5.62105
-280,484,2.66742,-1.6795,0,0,0,0,0,0,0,-1,944,540,2.6674,1.67949
-273,484,2.53125,-2.22296,0,0,0,0,0,0,0,-1,951,540,2.53128,2.22295
-266,484,2.6778,-2.72058,0,0,0,0,0,0,0,-1,958,540,2.6778,2.72061
-259,484,2.41718,-2.59894,0,0,0,0,0,0,0,-1,965,540,2.41717,2.59892
-252,484,10.6069,-11.696,0,0,0,0,0,0,0,-1,972,540,10.6069,11.696
-245,484,6.34106,-11.6107,0,0,0,0,0,0,0,-1,979,540,6.34104,11.6107
-238,484,4.89319,-8.54059,0,0,0,0,0,0,0,-1,986,540,4.89321,8.5406
-231,484,3.47675,-5.22064,0,0,0,0,0,0,0,-1,993,540,3.47676,5.22067
-224,484,1.71344,-2.03473,0,0,0,0,0,0,0,-1,1000,540,1.71342,2.03472
-217,484,-0.745056,1.17358,0,0,0,0,0,0,0,-1,1007,540,-0.745043,-1.17359
-210,484,0,0,0,0,0,0,0,0,0,-1,1014,540,0,0
-203,484,0,0,0,0,0,0,0,0,0,-1,1021,540,0,0
-196,484,0,0,0,0,0,0,0,0,0,-1,1028,540,0,0
-189,484,0,0,0,0,0,0,0,0,0,-1,1035,540,0,0
-182,484,0,0,0,0,0,0,0,0,0,-1,1042,540,0,0
-175,484,0,0,0,0,0,0,0,0,0,-1,1049,540,0,0
-168,484,0,0,0,0,0,0,0,0,0,-1,1056,540,0,0
-161,484,0,0,0,0,0,0,0,0,0,-1,1063,540,0,0
-154,484,0,0,0,0,0,0,0,0,0,-1,1070,540,0,0
-147,484,0,0,0,0,0,0,0,0,0,-1,1077,540,0,0
-140,484,0,0,0,0,0,0,0,0,0,-1,1084,540,0,0
-133,484,0,0,0,0,0,0,0,0,0,-1,1091,540,0,0
-126,484,0,0,0,0,0,0,0,0,0,-1,1098,540,0,0
-119,484,0,0,0,0,0,0,0,0,0,-1,1105,540,0,0
-112,484,0,0,0,0,0,0,0,0,0,-1,1112,540,0,0
-105,484,0,0,0,0,0,0,0,0,0,-1,1119,540,0,0
-98,484,0,0,0,0,0,0,0,0,0,-1,1126,540,0,0
-91,484,0,0,0,0,0,0,0,0,0,-1,1133,540,0,0
-84,484,0,0,0,0,0,0,0,0,0,-1,1140,540,0,0
-77,484,0,0,0,0,0,0,0,0,0,-1,1147,540,0,0
-70,484,0,0,0,0,0,0,0,0,0,-1,1154,540,0,0
-63,484,0,0,0,0,0,0,0,0,0,-1,1161,540,0,0
-56,484,0,0,0,0,0,0,0,0,0,-1,1168,540,0,0
-49,484,0,0,0,0,0,0,0,0,0,-1,1175,540,0,0
-42,484,0,0,0,0,0,0,0,0,0,-1,1182,540,0,0
-35,484,0,0,0,0,0,0,0,0,0,-1,1189,540,0,0
-28,484,0,0,0,0,0,0,0,0,0,-1,1196,540,0,0
-21,484,0,0,0,0,0,0,0,0,0,-1,1203,540,0,0
-14,484,0,0,0,0,0,0,0,0,0,-1,1210,540,0,0
-7,484,0,0,0,0,0,0,0,0,0,-1,1217,540,0,0
0,484,0,0,0,0,0,0,0,0,0,-1,1224,540,0,0
7,484,0,0,0,0,0,0,0,0,0,-1,1231,540,0,0
14,484,0,0,0,0,0,0,0,0,0,-1,1238,540,0,0
21,484,0,0,0,0,0,0,0,0,0,-1,1245,540,0,0
28,484,0,0,0,0,0,0,0,0,0,-1,1252,540,0,0
35,484,0,0,0,0,0,0,0,0,0,-1,1259,540,0,0
42,484,0,0,0,0,0,0,0,0,0,-1,1266,540,0,0
49,484,0,0,0,0,0,0,0,0,0,-1,1273,540,0,0
56,484,0,0,0,0,0,0,0,0,0,-1,1280,540,0,0
63,484,0,0,0,0,0,0,0,0,0,-1,1287,540,0,0
70,484,0,0,0,0,0,0,0,0,0,-1,1294,540,0,0
77,484,0,0,0,0,0,0,0,0,0,-1,1301,540,0,0
84,484,0,0,0,0,0,0,0,0,0,-1,1308,540,0,0
91,484,0,0,0,0,0,0,0,0,0,-1,1315,540,0,0
98,484,0,0,0,0,0,0,0,0,0,-1,1322,540,0,0
105,484,0,0,0,0,0,0,0,0,0,-1,1329,540,0,0
112,484,0,0,0,0,0,0,0,0,0,-1,1336,540,0,0
119,484,0,0,0,0,0,0,0,0,0,-1,1343,540,0,0
126,484,0,0,0,0,0,0,0,0,0,-1,1350,540,0,0
133,484,0,0,0,0,0,0,0,0,0,-1,1357,540,0,0
140,484,0,0,0,0,0,0,0,0,0,-1,1364,540,0,0
147,484,0,0,0,0,0,0,0,0,0,-1,1371,540,0,0
154,484,0,0,0,0,0,0,0,0,0,-1,1378,540,0,0
161,484,0,0,0,0,0,0,0,0,0,-1,1385,540,0,0
168,484,0,0,0,0,0,0,0,0,0,-1,1392,540,0,0
175,484,0,0,0,0,0,0,0,0,0,-1,1399,540,0,0
182,484,0,0,0,0,0,0,0,0,0,-1,1406,540,0,0
189,484,0,0,0,0,0,0,0,0,0,-1,1413,540,0,0
196,484,0,0,0,0,0,0,0,0,0,-1,1420,540,0,0
203,484,0,0,0,0,0,0,0,0,0,-1,1427,540,0,0
210,484,0,0,0,0,0,0,0,0,0,-1,1434,540,0,0
217,484,0,0,0,0,0,0,0,0,0,-1,1441,540,0,0
224,484,0,0,0,0,0,0,0,0,0,-1,1448,540,0,0
231,484,0,0,0,0,0,0,0,0,0,-1,1455,540,0,0
238,484,0,0,0,0,0,0,0,0,0,-1,1462,540,0,0
245,484,0,0,0,0,0,0,0,0,0,-1,1469,540,0,0
252,484,0,0,0,0,0,0,0,0,0,-1,1476,540,0,0
259,484,0,0,0,0,0,0,0,0,0,-1,1483,540,0,0
266,484,0,0,0,0,0,0,0,0,0,-1,1490,540,0,0
273,484,0,0,0,0,0,0,0,0,0,-1,1497,540,0,0
280,484,0,0,0,0,0,0,0,0,0,-1,1504,540,0,0
287,484,0,0,0,0,0,0,0,0,0,-1,1511,540,0,0
294,484,0,0,0,0,0,0,0,0,0,-1,1518,540,0,0
301,484,0,0,0,0,0,0,0,0,0,-1,1525,540,0,0
308,484,0,0,0,0,0,0,0,0,0,-1,1532,540,0,0
315,484,0,0,0,0,0,0,0,0,0,-1,1539,540,0,0
322,484,0,0,0,0,0,0,0,0,0,-1,1546,540,0,0
329,484,0,0,0,0,0,0,0,0,0,-1,1553,540,0,0
336,484,4.38708,-1.64136,0,0,0,0,0,0,0,-1,1560,540,4.38704,1.64138
343,484,7.57996,-1.05457,0,0,0,0,0,0,0,-1,1567,540,7.57995,1.05454
350,484,8.10425,-1.18878,0,0,0,0,0,0,0,-1,1574,540,8.1043,1.18877
357,484,7.74902,-3.80286,0,0,0,0,0,0,0,-1,1581,540,7.74901,3.80287
364,484,6.31262,-3.87213,0,0,0,0,0,0,0,-1,1588,540,6.31263,3.87215
371,484,7.21008,0.973511,0,0,0,0,0,0,0,-1,1595,540,7.21014,-0.973541
378,484,11.0563,1.5014,0,0,0,0,0,0,0,-1,1602,540,11.0563,-1.5014
385,484,14.3469,2.5545,0,0,0,0,0,0,0,-1,1609,540,14.3469,-2.55453
392,484,7.39453,-4.95026,0,0,0,0,0,0,0,-1,1616,540,7.39448,4.95023
399,484,7.14417,-2.5639,0,0,0,0,0,0,0,-1,1623,540,7.14417,2.56391
406,484,7.88953,-2.47321,0,0,0,0,0,0,0,-1,1630,540,7.88954,2.47323
413,484,4.4895,-1.08673,0,0,0,0,0,0,0,-1,1637,540,4.48952,1.08674
420,484,4.50012,-2.11255,0,0,0,0,0,0,0,-1,1644,540,4.50012,2.11256
427,484,5.28601,-3.54053,0,0,0,0,0,0,0,-1,1651,540,5.28599,3.54051
434,484,11.1488,-13.5359,0,0,0,0,0,0,0,-1,1658,540,11.1489,13.5359
441,484,13.205,-18.1697,0,0,0,0,0,0,0,-1,1665,540,13.205,18.1697
448,484,14.2194,-20.1395,0,0,0,0,0,0,0,-1,1672,540,14.2194,20.1395
455,484,14.1578,-19.4791,0,0,0,0,0,0,0,-1,1679,540,14.1578,19.479
462,484,14.2294,-18.8611,0.000916098,0.00267334,-0.000394784,0.00275796,0.00083148,-1.35965,0.0016336,0.0242949,1686,540,14.2294,18.8612
469,484,14.2347,-18.329,0.000813184,0.00228841,-0.000255164,0.0023313,0.000770296,-1.40427,0.00137154,0.0180292,1693,540,14.2348,18.329
476,484,14.1978,-17.7368,0.000744579,0.00200955,-1.39577e-05,0.0020097,0.000744425,-1.55976,0.00117322,0.0161512,1700,540,14.1977,17.7367
483,484,14.1841,-17.1806,0.000678342,0.00157309,0.000241869,0.00163429,0.000617146,1.32298,0.000952932,0.0120948,1707,540,14.1841,17.1806
490,484,14.1777,-16.6526,0.000493056,0.00129829,0.000328659,0.0014154,0.000375945,1.22849,0.000846583,0.0117532,1714,540,14.1777,16.6526
497,484,14.1467,-16.0862,0.000305385,0.000989481,0.00042597,0.00119374,0.00010113,1.12368,0.000764348,0.0138278,1721,540,14.1467,16.0863
504,484,14.1517,-15.4767,0.000145548,0.000658612,0.000466333,0.000934317,-0.000130157,1.03686,0.000670488,0.0151264,1728,540,14.1518,15.4767
511,484,14.142,-14.8876,-0.00013121,0.00039389,0.000419049,0.000625844,-0.000363164,1.06525,0.000577679,0.017431,1735,540,14.142,14.8877
518,484,14.1082,-14.3605,-0.000561433,0.00014267,0.00021731,0.000204338,-0.000623101,1.29429,0.000497698,0.0152161,1742,540,14.1081,14.3605
525,484,14.0853,-13.7623,-0.00101812,-0.000213251,-0.000146844,-0.000187297,-0.00104408,-1.39586,0.000642781,0.0133993,1749,540,14.0853,13.7623
532,484,14.0651,-13.1347,-0.00150681,-0.000425388,-0.000566589,-0.000182906,-0.0017493,-1.16642,0.00111026,0.0153048,1756,540,14.0651,13.1347
539,484,14.0087,-12.5123,-0.00205755,-0.000588712,-0.00110923,7.1968e-06,-0.00265346,-1.07781,0.00177138,0.0374441,1763,540,14.0087,12.5123
546,484,13.9934,-11.7886,0,0,0,0,0,0,0,-1,1770,540,13.9935,11.7886
553,484,12.4246,-8.96423,0,0,0,0,0,0,0,-1,1777,540,12.4246,8.96422
560,484,10.0549,-5.47931,0,0,0,0,0,0,0,-1,1784,540,10.055,5.47928
567,484,7.78223,-1.38312,0,0,0,0,0,0,0,-1,1791,540,7.78224,1.38311
574,484,5.74463,1.50922,0,0,0,0,0,0,0,-1,1798,540,5.74463,-1.50924
581,484,10.34,2.9491,0,0,0,0,0,0,0,-1,1805,540,10.34,-2.94912
588,484,10.6669,2.88568,0,0,0,0,0,0,0,-1,1812,540,10.6669,-2.88567
595,484,10.7233,1.04767,0,0,0,0,0,0,0,-1,1819,540,10.7233,-1.04766
602,484,0,0,0,0,0,0,0,0,0,-1,1826,540,0,0
609,484,0,0,0,0,0,0,0,0,0,-1,1833,540,0,0
616,484,0,0,0,0,0,0,0,0,0,-1,1840,540,0,0
623,484,0,0,0,0,0,0,0,0,0,-1,1847,540,0,0
630,484,0,0,0,0,0,0,0,0,0,-1,1854,540,0,0
637,484,0,0,0,0,0,0,0,0,0,-1,1861,540,0,0
644,484,0,0,0,0,0,0,0,0,0,-1,1868,540,0,0
651,484,0,0,0,0,0,0,0,0,0,-1,1875,540,0,0
658,484,0,0,0,0,0,0,0,0,0,-1,1882,540,0,0
665,484,0,0,0,0,0,0,0,0,0,-1,1889,540,0,0
672,484,0,0,0,0,0,0,0,0,0,-1,1896,540,0,0
679,484,0,0,0,0,0,0,0,0,0,-1,1903,540,0,0
686,484,0,0,0,0,0,0,0,0,0,-1,1910,540,0,0
693,484,0,0,0,0,0,0,0,0,0,-1,1917,540,0,0
700,484,0,0,0,0,0,0,0,0,0,-1,1924,540,0,0
707,484,0,0,0,0,0,0,0,0,0,-1,1931,540,0,0
714,484,0,0,0,0,0,0,0,0,0,-1,1938,540,0,0
721,484,0,0,0,0,0,0,0,0,0,-1,1945,540,0,0
728,484,0,0,0,0,0,0,0,0,0,-1,1952,540,0,0
735,484,0,0,0,0,0,0,0,0,0,-1,1959,540,0,0
742,484,0,0,0,0,0,0,0,0,0,-1,1966,540,0,0
749,484,0,0,0,0,0,0,0,0,0,-1,1973,540,0,0
756,484,0,0,0,0,0,0,0,0,0,-1,1980,540,0,0
763,484,0,0,0,0,0,0,0,0,0,-1,1987,540,0,0
770,484,0,0,0,0,0,0,0,0,0,-1,1994,540,0,0
777,484,0,0,0,0,0,0,0,0,0,-1,2001,540,0,0
784,484,0,0,0,0,0,0,0,0,0,-1,2008,540,0,0
791,484,0,0,0,0,0,0,0,0,0,-1,2015,540,0,0
798,484,0,0,0,0,0,0,0,0,0,-1,2022,540,0,0
805,484,0,0,0,0,0,0,0,0,0,-1,2029,540,0,0
812,484,0,0,0,0,0,0,0,0,0,-1,2036,540,0,0
-700,477,0,0,0,0,0,0,0,0,0,-1,524,547,0,0
-693,477,0,0,0,0,0,0,0,0,0,-1,531,547,0,0
-686,477,0,0,0,0,0,0,0,0,0,-1,538,547,0,0
-679,477,0,0,0,0,0,0,0,0,0,-1,545,547,0,0
-672,477,0,0,0,0,0,0,0,0,0,-1,552,547,0,0
-665,477,0,0,0,0,0,0,0,0,0,-1,559,547,0,0
-658,477,0,0,0,0,0,0,0,0,0,-1,566,547,0,0
-651,477,0,0,0,0,0,0,0,0,0,-1,573,547,0,0
-644,477,0,0,0,0,0,0,0,0,0,-1,580,547,0,0
-637,477,0,0,0,0,0,0,0,0,0,-1,587,547,0,0
-630,477,0,0,0,0,0,0,0,0,0,-1,594,547,0,0
-623,477,0,0,0,0,0,0,0,0,0,-1,601,547,0,0
-616,477,0,0,0,0,0,0,0,0,0,-1,608,547,0,0
-609,477,0,0,0,0,0,0,0,0,0,-1,615,547,0,0
-602,477,0,0,0,0,0,0,0,0,0,-1,622,547,0,0
-595,477,0,0,0,0,0,0,0,0,0,-1,629,547,0,0
-588,477,0,0,0,0,0,0,0,0,0,-1,636,547,0,0
-581,477,0,0,0,0,0,0,0,0,0,-1,643,547,0,0
-574,477,0,0,0,0,0,0,0,0,0,-1,650,547,0,0
-567,477,0,0,0,0,0,0,0,0,0,-1,657,547,0,0
-560,477,0,0,0,0,0,0,0,0,0,-1,664,547,0,0
-553,477,0,0,0,0,0,0,0,0,0,-1,671,547,0,0
-546,477,0,0,0,0,0,0,0,0,0,-1,678,547,0,0
-539,477,0,0,0,0,0,0,0,0,0,-1,685,547,0,0
-532,477,0,0,0,0,0,0,0,0,0,-1,692,547,0,0
-525,477,0,0,0,0,0,0,0,0,0,-1,699,547,0,0
-518,477,0,0,0,0,0,0,0,0,0,-1,706,547,0,0
-511,477,0,0,0,0,0,0,0,0,0,-1,713,547,0,0
-504,477,0,0,0,0,0,0,0,0,0,-1,720,547,0,0
-497,477,0,0,0,0,0,0,0,0,0,-1,727,547,0,0
-490,477,0,0,0,0,0,0,0,0,0,-1,734,547,0,0
-483,477,-7.73151,-0.224182,0,0,0,0,0,0,0,-1,741,547,-7.73152,0.224176
-476,477,-6.25806,-0.310547,0,0,0,0,0,0,0,-1,748,547,-6.25804,0.310549
-469,477,-7.26617,0.525085,0,0,0,0,0,0,0,-1,755,547,-7.2662,-0.525111
-462,477,-6.65143,1.06042,0,0,0,0,0,0,0,-1,762,547,-6.65143,-1.06043
-455,477,-5.31757,0.429016,0,0,0,0,0,0,0,-1,769,547,-5.31756,-0.42902
-448,477,-4.0697,0.273376,0,0,0,0,0,0,0,-1,776,547,-4.06971,-0.273363
-441,477,-2.47504,-4.76971,0,0,0,0,0,0,0,-1,783,547,-2.47505,4.76973
-434,477,-4.16193,-12.3304,0,0,0,0,0,0,0,-1,790,547,-4.16191,12.3305
-427,477,-4.36084,-12.5863,0.00145923,0.0184601,-0.00934859,0.022595,-0.00267575,-1.15436,0.0160299,0.0429779,797,547,-4.36087,12.5863
-420,477,-4.37744,-13.0672,0.00232505,0.0159874,-0.00863754,0.0201686,-0.00185613,-1.11997,0.0141052,0.0351061,804,547,-4.37743,13.0672
-413,477,-4.35742,-13.8896,0.00275346,0.0134009,-0.00774065,0.0174718,-0.00131748,-1.08663,0.012111,0.0193896,811,547,-4.35741,13.8897
-406,477,-4.41046,-14.5458,0.00301561,0.0110697,-0.00672841,0.0148841,-0.00079882,-1.05506,0.0101994,0.0116507,818,547,-4.41048,14.5458
-399,477,-4.43384,-15.1123,0.00295765,0.00872712,-0.00560539,0.0121465,-0.000461746,-1.02304,0.0082559,0.0194742,825,547,-4.43382,15.1123
-392,477,-4.46503,-15.6872,0.0027785,0.00643412,-0.0044465,0.00941383,-0.000201211,-0.980403,0.00634402,0.0169695,832,547,-4.465,15.6872
-385,477,-4.47058,-16.2392,0.00262974,0.00436011,-0.00333015,0.00693563,5.42202e-05,-0.91249,0.00460579,0.0155719,839,547,-4.47056,16.2392
-378,477,-4.50641,-16.7928,0.00249157,0.00255158,-0.00231349,0.00483526,0.000207888,-0.791882,0.00315649,0.0138393,846,547,-4.50639,16.7928
-371,477,-4.53241,-17.3191,0.0022771,0.000869784,-0.00130634,0.00305724,8.96398e-05,-0.538356,0.00200895,0.0131493,853,547,-4.53239,17.3191
-364,477,-4.54132,-17.8398,0.00211663,-0.000560406,-0.000396641,0.00217417,-0.000617937,-0.144042,0.00169343,0.0132014,860,547,-4.54133,17.8399
-357,477,-4.56244,-18.3759,0.00210854,-0.00162802,0.000303757,0.00213307,-0.00165255,0.0805883,0.00219149,0.0109461,867,547,-4.56243,18.3759
-350,477,-4.57697,-18.8972,0.00236874,-0.00222959,0.000665752,0.00246318,-0.00232403,0.140927,0.00276429,0.0107202,874,547,-4.57698,18.8972
-343,477,-4.5246,-19.473,0.00277281,-0.00252693,0.000813774,0.00289495,-0.00264907,0.148978,0.00320189,0.0200736,881,547,-4.52462,19.473
-336,477,-4.46313,-20.02,0.00319828,-0.00308662,0.00104108,0.00336625,-0.00325458,0.159958,0.00382272,0.0406061,888,547,-4.46313,20.02
-329,477,-4.45856,-20.5811,0,0,0,0,0,0,0,-1,895,547,-4.45857,20.5811
-322,477,-2.04822,-12.0026,0,0,0,0,0,0,0,-1,902,547,-2.04819,12.0026
-315,477,-1.67358,-9.15253,0,0,0,0,0,0,0,-1,909,547,-1.67356,9.15253
-308,477,-1.30127,-6.55188,0,0,0,0,0,0,0,-1,916,547,-1.30128,6.55185
-301,477,-1.21185,-6.28351,0,0,0,0,0,0,0,-1,923,547,-1.21184,6.28352
-294,477,-0.352905,3.27142,0,0,0,0,0,0,0,-1,930,547,-0.35292,-3.27144
-287,477,3.54364,2.15399,0,0,0,0,0,0,0,-1,937,547,3.54362,-2.15396
-280,477,1.97308,-0.954163,0,0,0,0,0,0,0,-1,944,547,1.9731,0.954178
-273,477,2.11621,-3.76709,0,0,0,0,0,0,0,-1,951,547,2.11619,3.76706
-266,477,2.04669,-3.42389,0,0,0,0,0,0,0,-1,958,547,2.04671,3.42391
-259,477,-1.33478,-3.41205,0,0,0,0,0,0,0,-1,965,547,-1.3348,3.41206
-252,477,0.597168,-5.32922,0,0,0,0,0,0,0,-1,972,547,0.597144,5.32924
-245,477,8.2309,-8.48492,0,0,0,0,0,0,0,-1,979,547,8.23091,8.48494
-238,477,6.60938,-5.64063,0,0,0,0,0,0,0,-1,986,547,6.60938,5.64063
-231,477,4.71716,-2.52484,0,0,0,0,0,0,0,-1,993,547,4.71716,2.52483
-224,477,0,0,0,0,0,0,0,0,0,-1,1000,547,0,0
-217,477,0,0,0,0,0,0,0,0,0,-1,1007,547,0,0
-210,477,0,0,0,0,0,0,0,0,0,-1,1014,547,0,0
-203,477,0,0,0,0,0,0,0,0,0,-1,1021,547,0,0
-196,477,0,0,0,0,0,0,0,0,0,-1,1028,547,0,0
-189,477,0,0,0,0,0,0,0,0,0,-1,1035,547,0,0
-182,477,0,0,0,0,0,0,0,0,0,-1,1042,547,0,0
-175,477,0,0,0,0,0,0,0,0,0,-1,1049,547,0,0
-168,477,0,0,0,0,0,0,0,0,0,-1,1056,547,0,0
-161,477,0,0,0,0,0,0,0,0,0,-1,1063,547,0,0
-154,477,0,0,0,0,0,0,0,0,0,-1,1070,547,0,0
-147,477,0,0,0,0,0,0,0,0,0,-1,1077,547,0,0
-140,477,0,0,0,0,0,0,0,0,0,-1,1084,547,0,0
-133,477,0,0,0,0,0,0,0,0,0,-1,1091,547,0,0
-126,477,0,0,0,0,0,0,0,0,0,-1,1098,547,0,0
-119,477,0,0,0,0,0,0,0,0,0,-1,1105,547,0,0
-112,477,0,0,0,0,0,0,0,0,0,-1,1112,547,0,0
-105,477,0,0,0,0,0,0,0,0,0,-1,1119,547,0,0
-98,477,0,0,0,0,0,0,0,0,0,-1,1126,547,0,0
-91,477,0,0,0,0,0,0,0,0,0,-1,1133,547,0,0
-84,477,0,0,0,0,0,0,0,0,0,-1,1140,547,0,0
-77,477,0,0,0,0,0,0,0,0,0,-1,1147,547,0,0
-70,477,0,0,0,0,0,0,0,0,0,-1,1154,547,0,0
-63,477,0,0,0,0,0,0,0,0,0,-1,1161,547,0,0
-56,477,0,0,0,0,0,0,0,0,0,-1,1168,547,0,0
-49,477,0,0,0,0,0,0,0,0,0,-1,1175,547,0,0
-42,477,0,0,0,0,0,0,0,0,0,-1,1182,547,0,0
-35,477,0,0,0,0,0,0,0,0,0,-1,1189,547,0,0
-28,477,0,0,0,0,0,0,0,0,0,-1,1196,547,0,0
-21,477,0,0,0,0,0,0,0,0,0,-1,1203,547,0,0
-14,477,0,0,0,0,0,0,0,0,0,-1,1210,547,0,0
-7,477,0,0,0,0,0,0,0,0,0,-1,1217,547,0,0
0,477,0,0,0,0,0,0,0,0,0,-1,1224,547,0,0
7,477,0,0,0,0,0,0,0,0,0,-1,1231,547,0,0
14,477,0,0,0,0,0,0,0,0,0,-1,1238,547,0,0
21,477,0,0,0,0,0,0,0,0,0,-1,1245,547,0,0
28,477,0,0,0,0,0,0,0,0,0,-1,1252,547,0,0
35,477,0,0,0,0,0,0,0,0,0,-1,1259,547,0,0
42,477,0,0,0,0,0,0,0,0,0,-1,1266,547,0,0
49,477,0,0,0,0,0,0,0,0,0,-1,1273,547,0,0
56,477,0,0,0,0,0,0,0,0,0,-1,1280,547,0,0
63,477,0,0,0,0,0,0,0,0,0,-1,1287,547,0,0
70,477,0,0,0,0,0,0,0,0,0,-1,1294,547,0,0
77,477,0,0,0,0,0,0,0,0,0,-1,1301,547,0,0
84,477,0,0,0,0,0,0,0,0,0,-1,1308,547,0,0
91,477,0,0,0,0,0,0,0,0,0,-1,1315,547,0,0
98,477,0,0,0,0,0,0,0,0,0,-1,1322,547,0,0
105,477,0,0,0,0,0,0,0,0,0,-1,1329,547,0,0
112,477,0,0,0,0,0,0,0,0,0,-1,1336,547,0,0
119,477,0,0,0,0,0,0,0,0,0,-1,1343,547,0,0
126,477,0,0,0,0,0,0,0,0,0,-1,1350,547,0,0
133,477,0,0,0,0,0,0,0,0,0,-1,1357,547,0,0
140,477,0,0,0,0,0,0,0,0,0,-1,1364,547,0,0
147,477,0,0,0,0,0,0,0,0,0,-1,1371,547,0,0
154,477,0,0,0,0,0,0,0,0,0,-1,1378,547,0,0
161,477,0,0,0,0,0,0,0,0,0,-1,1385,547,0,0
168,477,0,0,0,0,0,0,0,0,0,-1,1392,547,0,0
175,477,0,0,0,0,0,0,0,0,0,-1,1399,547,0,0
182,477,0,0,0,0,0,0,0,0,0,-1,1406,547,0,0
189,477,0,0,0,0,0,0,0,0,0,-1,1413,547,0,0
196,477,0,0,0,0,0,0,0,0,0,-1,1420,547,0,0
203,477,0,0,0,0,0,0,0,0,0,-1,1427,547,0,0
210,477,0,0,0,0,0,0,0,0,0,-1,1434,547,0,0
217,477,0,0,0,0,0,0,0,0,0,-1,1441,547,0,0
224,477,0,0,0,0,0,0,0,0,0,-1,1448,547,0,0
231,477,0,0,0,0,0,0,0,0,0,-1,1455,547,0,0
238,477,0,0,0,0,0,0,0,0,0,-1,1462,547,0,0
245,477,0,0,0,0,0,0,0,0,0,-1,1469,547,0,0
252,477,0,0,0,0,0,0,0,0,0,-1,1476,547,0,0
259,477,0,0,0,0,0,0,0,0,0,-1,1483,547,0,0
266,477,0,0,0,0,0,0,0,0,0,-1,1490,547,0,0
273,477,0,0,0,0,0,0,0,0,0,-1,1497,547,0,0
280,477,0,0,0,0,0,0,0,0,0,-1,1504,547,0,0
287,477,0,0,0,0,0,0,0,0,0,-1,1511,547,0,0
294,477,0,0,0,0,0,0,0,0,0,-1,1518,547,0,0
301,477,0,0,0,0,0,0,0,0,0,-1,1525,547,0,0
308,477,0,0,0,0,0,0,0,0,0,-1,1532,547,0,0
315,477,0,0,0,0,0,0,0,0,0,-1,1539,547,0,0
322,477,0,0,0,0,0,0,0,0,0,-1,1546,547,0,0
329,477,0,0,0,0,0,0,0,0,0,-1,1553,547,0,0
336,477,0,0,0,0,0,0,0,0,0,-1,1560,547,0,0
343,477,0,0,0,0,0,0,0,0,0,-1,1567,547,0,0
350,477,1.7699,-3.32275,0,0,0,0,0,0,0,-1,1574,547,1.7699,3.32272
357,477,3.073,-4.83313,0,0,0,0,0,0,0,-1,1581,547,3.07303,4.83316
364,477,4.30127,-4.22864,0,0,0,0,0,0,0,-1,1588,547,4.30125,4.22865
371,477,4.57703,0.283264,0,0,0,0,0,0,0,-1,1595,547,4.57706,-0.283262
378,477,8.57947,1.05969,0,0,0,0,0,0,0,-1,1602,547,8.5795,-1.05972
385,477,12.3726,2.02356,0,0,0,0,0,0,0,-1,1609,547,12.3725,-2.02355
392,477,16.4678,2.76843,0,0,0,0,0,0,0,-1,1616,547,16.4678,-2.76845
399,477,8.00037,-2.29523,0,0,0,0,0,0,0,-1,1623,547,8.00031,2.2952
406,477,4.82495,2.7475,0,0,0,0,0,0,0,-1,1630,547,4.825,-2.74752
413,477,4.88171,-0.336426,0,0,0,0,0,0,0,-1,1637,547,4.88169,0.336398
420,477,3.34875,0.102722,0,0,0,0,0,0,0,-1,1644,547,3.34871,-0.1027
427,477,1.66772,-0.373108,0,0,0,0,0,0,0,-1,1651,547,1.66768,0.373104
434,477,3.76978,-2.30798,0,0,0,0,0,0,0,-1,1658,547,3.76974,2.30801
441,477,4.05444,-2.80402,0,0,0,0,0,0,0,-1,1665,547,4.05444,2.804
448,477,10.4247,-11.7421,0,0,0,0,0,0,0,-1,1672,547,10.4247,11.7421
455,477,13.3054,-16.8109,0,0,0,0,0,0,0,-1,1679,547,13.3054,16.8109
462,477,14.7992,-18.9918,0,0,0,0,0,0,0,-1,1686,547,14.7992,18.9917
469,477,14.8435,-18.2689,0.000666695,0.00257886,-0.000445904,0.00267773,0.000567825,-1.3526,0.0016292,0.0440018,1693,547,14.8435,18.2689
476,477,14.7612,-17.7253,0.000676537,0.00232945,-0.00021194,0.00235619,0.000649794,-1.44528,0.0014052,0.0216625,1700,547,14.7612,17.7253
483,477,14.7749,-17.1706,0.000719269,0.00185116,0.000118996,0.00186353,0.000706894,1.46718,0.00108631,0.0124604,1707,547,14.7749,17.1706
490,477,14.7368,-16.6175,0.000607873,0.00162172,0.000231739,0.00167218,0.000557415,1.35641,0.000983148,0.0120084,1714,547,14.7369,16.6175
497,477,14.7012,-16.034,0.000472161,0.00132984,0.000359856,0.00146082,0.000341179,1.22172,0.000882419,0.013611,1721,547,14.7012,16.034
504,477,14.7057,-15.4612,0.000363669,0.00100712,0.000433886,0.00122554,0.000145242,1.10442,0.000773176,0.0169777,1728,547,14.7057,15.4613
511,477,14.7489,-14.9346,0.00014436,0.000763166,0.000446448,0.000996944,-8.94176e-05,1.08842,0.000696352,0.0218967,1735,547,14.7488,14.9346
518,477,14.7233,-14.3537,-0.000230497,0.000538966,0.000333187,0.000663186,-0.000354717,1.21393,0.000596614,0.0197045,1742,547,14.7233,14.3537
525,477,14.6576,-13.7314,-0.000623966,0.000229081,8.5578e-05,0.000237582,-0.000632466,1.47179,0.000519282,0.0164675,1749,547,14.6575,13.7314
532,477,14.593,-13.1147,-0.00105587,5.97538e-05,-0.000197004,9.35201e-05,-0.00108964,-1.40105,0.000759521,0.0192329,1756,547,14.593,13.1148
539,477,14.587,-12.485,-0.00154395,-7.83442e-05,-0.000567244,0.000115549,-0.00173784,-1.24143,0.00119893,0.0174931,1763,547,14.587,12.485
546,477,14.5155,-11.9604,-0.00205782,-8.06131e-05,-0.000980345,0.000323052,-0.00246149,-1.18019,0.0017586,0.0376342,1770,547,14.5155,11.9605
553,477,14.5542,-11.0292,0,0,0,0,0,0,0,-1,1777,547,14.5542,11.0292
560,477,14.2111,-9.5968,0,0,0,0,0,0,0,-1,1784,547,14.211,9.59678
567,477,13.9529,-8.70972,0,0,0,0,0,0,0,-1,1791,547,13.9529,8.7097
574,477,6.82593,-0.916992,0,0,0,0,0,0,0,-1,1798,547,6.82598,0.916977
581,477,9.29321,-0.557007,0,0,0,0,0,0,0,-1,1805,547,9.29324,0.55703
588,477,9.75195,0.422729,0,0,0,0,0,0,0,-1,1812,547,9.75198,-0.42273
595,477,9.89172,1.21326,0,0,0,0,0,0,0,-1,1819,547,9.89174,-1.21328
602,477,6.5271,-0.964417,0,0,0,0,0,0,0,-1,1826,547,6.52706,0.964427
609,477,0,0,0,0,0,0,0,0,0,-1,1833,547,0,0
616,477,0,0,0,0,0,0,0,0,0,-1,1840,547,0,0
623,477,0,0,0,0,0,0,0,0,0,-1,1847,547,0,0
630,477,0,0,0,0,0,0,0,0,0,-1,1854,547,0,0
637,477,0,0,0,0,0,0,0,0,0,-1,1861,547,0,0
644,477,0,0,0,0,0,0,0,0,0,-1,1868,547,0,0
651,477,0,0,0,0,0,0,0,0,0,-1,1875,547,0,0
658,477,0,0,0,0,0,0,0,0,0,-1,1882,547,0,0
665,477,0,0,0,0,0,0,0,0,0,-1,1889,547,0,0
672,477,0,0,0,0,0,0,0,0,0,-1,1896,547,0,0
679,477,0,0,0,0,0,0,0,0,0,-1,1903,547,0,0
686,477,0,0,0,0,0,0,0,0,0,-1,1910,547,0,0
693,477,0,0,0,0,0,0,0,0,0,-1,1917,547,0,0
700,477,0,0,0,0,0,0,0,0,0,-1,1924,547,0,0
707,477,0,0,0,0,0,0,0,0,0,-1,1931,547,0,0
714,477,0,0,0,0,0,0,0,0,0,-1,1938,547,0,0
721,477,0,0,0,0,0,0,0,0,0,-1,1945,547,0,0
728,477,0,0,0,0,0,0,0,0,0,-1,1952,547,0,0
735,477,0,0,0,0,0,0,0,0,0,-1,1959,547,0,0
742,477,0,0,0,0,0,0,0,0,0,-1,1966,547,0,0
749,477,0,0,0,0,0,0,0,0,0,-1,1973,547,0,0
756,477,0,0,0,0,0,0,0,0,0,-1,1980,547,0,0
763,477,0,0,0,0,0,0,0,0,0,-1,1987,547,0,0
770,477,0,0,0,0,0,0,0,0,0,-1,1994,547,0,0
777,477,0,0,0,0,0,0,0,0,0,-1,2001,547,0,0
784,477,0,0,0,0,0,0,0,0,0,-1,2008,547,0,0
791,477,0,0,0,0,0,0,0,0,0,-1,2015,547,0,0
798,477,0,0,0,0,0,0,0,0,0,-1,2022,547,0,0
805,477,0,0,0,0,0,0,0,0,0,-1,2029,547,0,0
812,477,0,0,0,0,0,0,0,0,0,-1,2036,547,0,0
-700,470,0,0,0,0,0,0,0,0,0,-1,524,554,0,0
-693,470,0,0,0,0,0,0,0,0,0,-1,531,554,0,0
-686,470,0,0,0,0,0,0,0,0,0,-1,538,554,0,0
-679,470,0,0,0,0,0,0,0,0,0,-1,545,554,0,0
-672,470,0,0,0,0,0,0,0,0,0,-1,552,554,0,0
-665,470,0,0,0,0,0,0,0,0,0,-1,559,554,0,0
-658,470,0,0,0,0,0,0,0,0,0,-1,566,554,0,0
-651,470,0,0,0,0,0,0,0,0,0,-1,573,554,0,0
-644,470,0,0,0,0,0,0,0,0,0,-1,580,554,0,0
-637,470,0,0,0,0,0,0,0,0,0,-1,587,554,0,0
-630,470,0,0,0,0,0,0,0,0,0,-1,594,554,0,0
-623,470,0,0,0,0,0,0,0,0,0,-1,601,554,0,0
-616,470,0,0,0,0,0,0,0,0,0,-1,608,554,0,0
-609,470,0,0,0,0,0,0,0,0,0,-1,615,554,0,0
-602,470,0,0,0,0,0,0,0,0,0,-1,622,554,0,0
-595,470,0,0,0,0,0,0,0,0,0,-1,629,554,0,0
-588,470,0,0,0,0,0,0,0,0,0,-1,636,554,0,0
-581,470,0,0,0,0,0,0,0,0,0,-1,643,554,0,0
-574,470,0,0,0,0,0,0,0,0,0,-1,650,554,0,0
-567,470,0,0,0,0,0,0,0,0,0,-1,657,554,0,0
-560,470,0,0,0,0,0,0,0,0,0,-1,664,554,0,0
-553,470,0,0,0,0,0,0,0,0,0,-1,671,554,0,0
-546,470,0,0,0,0,0,0,0,0,0,-1,678,554,0,0
-539,470,0,0,0,0,0,0,0,0,0,-1,685,554,0,0
-532,470,0,0,0,0,0,0,0,0,0,-1,692,554,0,0
-525,470,0,0,0,0,0,0,0,0,0,-1,699,554,0,0
-518,470,0,0,0,0,0,0,0,0,0,-1,706,554,0,0
-511,470,0,0,0,0,0,0,0,0,0,-1,713,554,0,0
-504,470,0,0,0,0,0,0,0,0,0,-1,720,554,0,0
-497,470,0,0,0,0,0,0,0,0,0,-1,727,554,0,0
-490,470,-9.13263,-1.03125,0,0,0,0,0,0,0,-1,734,554,-9.1326,1.03127
-483,470,-7.68677,-1.03955,0,0,0,0,0,0,0,-1,741,554,-7.68678,1.03958
-476,470,-6.17969,-1.03394,0,0,0,0,0,0,0,-1,748,554,-6.17971,1.03395
-469,470,-6.23016,-0.651855,0,0,0,0,0,0,0,-1,755,554,-6.23014,0.651829
-462,470,-4.87915,-1.03705,0,0,0,0,0,0,0,-1,762,554,-4.87914,1.03702
-455,470,-4.14777,-1.37079,0,0,0,0,0,0,0,-1,769,554,-4.14779,1.37078
-448,470,-2.9314,-5.74518,0,0,0,0,0,0,0,-1,776,554,-2.93137,5.74518
-441,470,-4.65295,-11.4927,0,0,0,0,0,0,0,-1,783,554,-4.65298,11.4927
-434,470,-4.69086,-12.2289,-0.00110056,0.0154436,-0.00715998,0.0181119,-0.00376889,-1.21407,0.0135073,0.0485176,790,554,-4.69085,12.2289
-427,470,-4.93536,-12.7349,4.72165e-05,0.0135728,-0.00659205,0.016254,-0.00263406,-1.18449,0.0118124,0.0221254,797,554,-4.93538,12.7348
-420,470,-4.91669,-13.3325,0.000837196,0.0117057,-0.00602489,0.014385,-0.00184215,-1.15235,0.0102593,0.0156423,804,554,-4.91666,13.3324
-413,470,-4.93939,-13.9451,0.00130585,0.0096717,-0.00527603,0.0122218,-0.00124422,-1.12057,0.00859268,0.0134447,811,554,-4.93938,13.9451
-406,470,-4.96667,-14.5086,0.00165919,0.00784635,-0.0044672,0.0101866,-0.000681021,-1.08824,0.00702905,0.0116398,818,554,-4.96665,14.5086
-399,470,-4.98395,-15.0857,0.00177836,0.00601231,-0.00360281,0.00807407,-0.000283407,-1.05102,0.00547962,0.0146292,825,554,-4.98394,15.0857
-392,470,-4.98407,-15.6519,0.00181324,0.0041526,-0.00270426,0.00592931,3.65321e-05,-0.989514,0.00394075,0.0135757,832,554,-4.98407,15.6518
-385,470,-4.99707,-16.1908,0.00188376,0.00246418,-0.00184318,0.00403986,0.000308082,-0.863483,0.00259664,0.0118017,839,554,-4.9971,16.1908
-378,470,-5.01874,-16.7544,0.00195403,0.000940003,-0.00103164,0.00259651,0.000297523,-0.556999,0.00164085,0.0166805,846,554,-5.01872,16.7544
-371,470,-5.06274,-17.2979,0.00200063,-0.000475526,-0.000228271,0.0020215,-0.000496394,-0.091164,0.00154003,0.0138802,853,554,-5.06273,17.2979
-364,470,-5.07593,-17.7962,0.00214821,-0.00166036,0.000462017,0.00220346,-0.0017156,0.11901,0.00226851,0.0145464,860,554,-5.07594,17.7962
-357,470,-5.1026,-18.3375,0.0024509,-0.00258965,0.000949709,0.0026239,-0.00276265,0.180186,0.00311027,0.0148473,867,554,-5.10261,18.3375
-350,470,-5.11084,-18.9045,0.00310377,-0.0029776,0.00100387,0.0032652,-0.00313903,0.15944,0.00369772,0.0116722,874,554,-5.11081,18.9045
-343,470,-4.99994,-19.4224,0.00394465,-0.00297855,0.000795522,0.00403489,-0.00306878,0.112946,0.00411393,0.0402449,881,554,-4.99996,19.4224
-336,470,-4.82172,-20.044,0,0,0,0,0,0,0,-1,888,554,-4.82169,20.044
-329,470,-2.78516,-12.3594,0,0,0,0,0,0,0,-1,895,554,-2.78517,12.3594
-322,470,-2.30829,-11.4527,0,0,0,0,0,0,0,-1,902,554,-2.30827,11.4527
-315,470,-1.04797,-8.29529,0,0,0,0,0,0,0,-1,909,554,-1.04797,8.29526
-308,470,-1.39368,-6.68152,0,0,0,0,0,0,0,-1,916,554,-1.39369,6.68149
-301,470,-0.0340576,3.34888,0,0,0,0,0,0,0,-1,923,554,-0.0340496,-3.3489
-294,470,-1.18378,3.22266,0,0,0,0,0,0,0,-1,930,554,-1.18376,-3.22268
-287,470,-2.15454,3.2204,0,0,0,0,0,0,0,-1,937,554,-2.15452,-3.22037
-280,470,-3.00537,3.099,0,0,0,0,0,0,0,-1,944,554,-3.00536,-3.09898
-273,470,-12.3932,3.65009,0,0,0,0,0,0,0,-1,951,554,-12.3932,-3.65011
-266,470,-11.5706,1.16028,0,0,0,0,0,0,0,-1,958,554,-11.5706,-1.16031
-259,470,-7.50415,-2.77167,0,0,0,0,0,0,0,-1,965,554,-7.50413,2.7717
-252,470,-0.371155,-5.87823,0,0,0,0,0,0,0,-1,972,554,-0.37114,5.87821
-245,470,1.33221,-6.81122,0,0,0,0,0,0,0,-1,979,554,1.33223,6.8112
-238,470,0,0,0,0,0,0,0,0,0,-1,986,554,0,0
-231,470,0,0,0,0,0,0,0,0,0,-1,993,554,0,0
-224,470,0,0,0,0,0,0,0,0,0,-1,1000,554,0,0
-217,470,0,0,0,0,0,0,0,0,0,-1,1007,554,0,0
-210,470,0,0,0,0,0,0,0,0,0,-1,1014,554,0,0
-203,470,0,0,0,0,0,0,0,0,0,-1,1021,554,0,0
-196,470,0,0,0,0,0,0,0,0,0,-1,1028,554,0,0
-189,470,0,0,0,0,0,0,0,0,0,-1,1035,554,0,0
-182,470,0,0,0,0,0,0,0,0,0,-1,1042,554,0,0
-175,470,0,0,0,0,0,0,0,0,0,-1,1049,554,0,0
-168,470,0,0,0,0,0,0,0,0,0,-1,1056,554,0,0
-161,470,0,0,0,0,0,0,0,0,0,-1,1063,554,0,0
-154,470,0,0,0,0,0,0,0,0,0,-1,1070,554,0,0
-147,470,0,0,0,0,0,0,0,0,0,-1,1077,554,0,0
-140,470,0,0,0,0,0,0,0,0,0,-1,1084,554,0,0
-133,470,0,0,0,0,0,0,0,0,0,-1,1091,554,0,0
-126,470,0,0,0,0,0,0,0,0,0,-1,1098,554,0,0
-119,470,0,0,0,0,0,0,0,0,0,-1,1105,554,0,0
-112,470,0,0,0,0,0,0,0,0,0,-1,1112,554,0,0
-105,470,0,0,0,0,0,0,0,0,0,-1,1119,554,0,0
-98,470,0,0,0,0,0,0,0,0,0,-1,1126,554,0,0
-91,470,0,0,0,0,0,0,0,0,0,-1,1133,554,0,0
-84,470,0,0,0,0,0,0,0,0,0,-1,1140,554,0,0
-77,470,0,0,0,0,0,0,0,0,0,-1,1147,554,0,0
-70,470,0,0,0,0,0,0,0,0,0,-1,1154,554,0,0
-63,470,0,0,0,0,0,0,0,0,0,-1,1161,554,0,0
-56,470,0,0,0,0,0,0,0,0,0,-1,1168,554,0,0
-49,470,0,0,0,0,0,0,0,0,0,-1,1175,554,0,0
-42,470,0,0,0,0,0,0,0,0,0,-1,1182,554,0,0
-35,470,0,0,0,0,0,0,0,0,0,-1,1189,554,0,0
-28,470,0,0,0,0,0,0,0,0,0,-1,1196,554,0,0
-21,470,0,0,0,0,0,0,0,0,0,-1,1203,554,0,0
-14,470,0,0,0,0,0,0,0,0,0,-1,1210,554,0,0
-7,470,0,0,0,0,0,0,0,0,0,-1,1217,554,0,0
0,470,0,0,0,0,0,0,0,0,0,-1,1224,554,0,0
7,470,0,0,0,0,0,0,0,0,0,-1,1231,554,0,0
14,470,0,0,0,0,0,0,0,0,0,-1,1238,554,0,0
21,470,0,0,0,0,0,0,0,0,0,-1,1245,554,0,0
28,470,0,0,0,0,0,0,0,0,0,-1,1252,554,0,0
35,470,0,0,0,0,0,0,0,0,0,-1,1259,554,0,0
42,470,0,0,0,0,0,0,0,0,0,-1,1266,554,0,0
49,470,0,0,0,0,0,0,0,0,0,-1,1273,554,0,0
56,470,0,0,0,0,0,0,0,0,0,-1,1280,554,0,0
63,470,0,0,0,0,0,0,0,0,0,-1,1287,554,0,0
70,470,0,0,0,0,0,0,0,0,0,-1,1294,554,0,0
77,470,0,0,0,0,0,0,0,0,0,-1,1301,554,0,0
84,470,0,0,0,0,0,0,0,0,0,-1,1308,554,0,0
91,470,0,0,0,0,0,0,0,0,0,-1,1315,554,0,0
98,470,0,0,0,0,0,0,0,0,0,-1,1322,554,0,0
105,470,0,0,0,0,0,0,0,0,0,-1,1329,554,0,0
112,470,0,0,0,0,0,0,0,0,0,-1,1336,554,0,0
119,470,0,0,0,0,0,0,0,0,0,-1,1343,554,0,0
126,470,0,0,0,0,0,0,0,0,0,-1,1350,554,0,0
133,470,0,0,0,0,0,0,0,0,0,-1,1357,554,0,0
140,470,0,0,0,0,0,0,0,0,0,-1,1364,554,0,0
147,470,0,0,0,0,0,0,0,0,0,-1,1371,554,0,0
154,470,0,0,0,0,0,0,0,0,0,-1,1378,554,0,0
161,470,0,0,0,0,0,0,0,0,0,-1,1385,554,0,0
168,470,0,0,0,0,0,0,0,0,0,-1,1392,554,0,0
175,470,0,0,0,0,0,0,0,0,0,-1,1399,554,0,0
182,470,0,0,0,0,0,0,0,0,0,-1,1406,554,0,0
189,470,0,0,0,0,0,0,0,0,0,-1,1413,554,0,0
196,470,0,0,0,0,0,0,0,0,0,-1,1420,554,0,0
203,470,0,0,0,0,0,0,0,0,0,-1,1427,554,0,0
210,470,0,0,0,0,0,0,0,0,0,-1,1434,554,0,0
217,470,0,0,0,0,0,0,0,0,0,-1,1441,554,0,0
224,470,0,0,0,0,0,0,0,0,0,-1,1448,554,0,0
231,470,0,0,0,0,0,0,0,0,0,-1,1455,554,0,0
238,470,0,0,0,0,0,0,0,0,0,-1,1462,554,0,0
245,470,0,0,0,0,0,0,0,0,0,-1,1469,554,0,0
252,470,0,0,0,0,0,0,0,0,0,-1,1476,554,0,0
259,470,0,0,0,0,0,0,0,0,0,-1,1483,554,0,0
266,470,0,0,0,0,0,0,0,0,0,-1,1490,554,0,0
273,470,0,0,0,0,0,0,0,0,0,-1,1497,554,0,0
280,470,0,0,0,0,0,0,0,0,0,-1,1504,554,0,0
287,470,0,0,0,0,0,0,0,0,0,-1,1511,554,0,0
294,470,0,0,0,0,0,0,0,0,0,-1,1518,554,0,0
301,470,0,0,0,0,0,0,0,0,0,-1,1525,554,0,0
308,470,0,0,0,0,0,0,0,0,0,-1,1532,554,0,0
315,470,0,0,0,0,0,0,0,0,0,-1,1539,554,0,0
322,470,0,0,0,0,0,0,0,0,0,-1,1546,554,0,0
329,470,0,0,0,0,0,0,0,0,0,-1,1553,554,0,0
336,470,0,0,0,0,0,0,0,0,0,-1,1560,554,0,0
343,470,0,0,0,0,0,0,0,0,0,-1,1567,554,0,0
350,470,0,0,0,0,0,0,0,0,0,-1,1574,554,0,0
357,470,0,0,0,0,0,0,0,0,0,-1,1581,554,0,0
364,470,1.33423,0.293335,0,0,0,0,0,0,0,-1,1588,554,1.33422,-0.293348
371,470,2.22498,-0.0305176,0,0,0,0,0,0,0,-1,1595,554,2.22494,0.0305046
378,470,6.27051,0.710083,0,0,0,0,0,0,0,-1,1602,554,6.27054,-0.710093
385,470,10.3657,1.47296,0,0,0,0,0,0,0,-1,1609,554,10.3657,-1.47299
392,470,15.3881,3.01935,0,0,0,0,0,0,0,-1,1616,554,15.388,-3.01937
399,470,18.4479,2.93793,0,0,0,0,0,0,0,-1,1623,554,18.4479,-2.93792
406,470,15.1896,1.36676,0,0,0,0,0,0,0,-1,1630,554,15.1896,-1.36679
413,470,6.55383,1.99207,0,0,0,0,0,0,0,-1,1637,554,6.5538,-1.99208
420,470,4.47095,0.845703,0,0,0,0,0,0,0,-1,1644,554,4.47098,-0.845718
427,470,3.51038,1.19684,0,0,0,0,0,0,0,-1,1651,554,3.51039,-1.19684
434,470,3.31775,-1.37427,0,0,0,0,0,0,0,-1,1658,554,3.31781,1.37426
441,470,2.55457,-2.05902,0,0,0,0,0,0,0,-1,1665,554,2.55461,2.05904
448,470,3.27258,-2.64032,0,0,0,0,0,0,0,-1,1672,554,3.27257,2.64029
455,470,10.3658,-9.82233,0,0,0,0,0,0,0,-1,1679,554,10.3659,9.82233
462,470,11.0651,-11.9958,0,0,0,0,0,0,0,-1,1686,554,11.0651,11.9958
469,470,15.2338,-18.4585,0,0,0,0,0,0,0,-1,1693,554,15.2338,18.4585
476,470,15.3339,-17.7906,0,0,0,0,0,0,0,-1,1700,554,15.3338,17.7907
483,470,15.3519,-17.1484,0.000829338,0.0020504,0.000107667,0.00205982,0.000819917,1.48352,0.00119745,0.0169209,1707,554,15.3519,17.1483
490,470,15.3038,-16.5767,0.000850164,0.00190166,0.000259912,0.0019624,0.000789427,1.34123,0.00114018,0.0116456,1714,554,15.3038,16.5767
497,470,15.283,-15.9998,0.000786296,0.00164143,0.000423947,0.00181598,0.000611746,1.18022,0.00106689,0.0122561,1721,554,15.283,15.9998
504,470,15.2838,-15.4377,0.000731945,0.00133161,0.000516787,0.00162924,0.000434309,1.04826,0.000974215,0.0185152,1728,554,15.2838,15.4377
511,470,15.2804,-14.9077,0.000576588,0.00109853,0.000565257,0.00146015,0.000214967,1.00166,0.000910281,0.0251217,1735,554,15.2804,14.9077
518,470,15.3008,-14.3493,0.000263143,0.000885708,0.000516187,0.00117721,-2.83559e-05,1.05673,0.000794426,0.0254085,1742,554,15.3008,14.3493
525,470,15.241,-13.7007,-8.16165e-05,0.000609251,0.000352209,0.000757148,-0.000229514,1.17324,0.000596183,0.015805,1749,554,15.241,13.7007
532,470,15.1807,-13.0679,-0.000486435,0.000457077,0.000155146,0.000481934,-0.000511292,1.41193,0.000573522,0.0140554,1756,554,15.1807,13.0679
539,470,15.1638,-12.489,-0.000948494,0.000323637,-0.000107512,0.000332659,-0.000957516,-1.48707,0.000773456,0.0168063,1763,554,15.1638,12.489
546,470,15.141,-11.9112,-0.0014302,0.000314544,-0.000402827,0.000403058,-0.00151871,-1.3545,0.0011702,0.015065,1770,554,15.141,11.9112
553,470,15.1561,-11.2787,-0.00194143,0.000542746,-0.000694557,0.00072375,-0.00212244,-1.31586,0.00170811,0.0225938,1777,554,15.1561,11.2787
560,470,15.2236,-10.4649,0,0,0,0,0,0,0,-1,1784,554,15.2236,10.4649
567,470,15.1024,-9.84088,0,0,0,0,0,0,0,-1,1791,554,15.1024,9.8409
574,470,14.2793,-8.07147,0,0,0,0,0,0,0,-1,1798,554,14.2793,8.07147
581,470,8.24646,-4.06317,0,0,0,0,0,0,0,-1,1805,554,8.24648,4.06318
588,470,11.1803,1.74927,0,0,0,0,0,0,0,-1,1812,554,11.1803,-1.74926
595,470,4.72192,3.44116,0,0,0,0,0,0,0,-1,1819,554,4.72191,-3.44116
602,470,14.4307,2.76141,0,0,0,0,0,0,0,-1,1826,554,14.4306,-2.76139
609,470,20.9181,4.41058,0,0,0,0,0,0,0,-1,1833,554,20.9181,-4.4106
616,470,0,0,0,0,0,0,0,0,0,-1,1840,554,0,0
623,470,0,0,0,0,0,0,0,0,0,-1,1847,554,0,0
630,470,0,0,0,0,0,0,0,0,0,-1,1854,554,0,0
637,470,0,0,0,0,0,0,0,0,0,-1,1861,554,0,0
644,470,0,0,0,0,0,0,0,0,0,-1,1868,554,0,0
651,470,0,0,0,0,0,0,0,0,0,-1,1875,554,0,0
658,470,0,0,0,0,0,0,0,0,0,-1,1882,554,0,0
665,470,0,0,0,0,0,0,0,0,0,-1,1889,554,0,0
672,470,0,0,0,0,0,0,0,0,0,-1,1896,554,0,0
679,470,0,0,0,0,0,0,0,0,0,-1,1903,554,0,0
686,470,0,0,0,0,0,0,0,0,0,-1,1910,554,0,0
693,470,0,0,0,0,0,0,0,0,0,-1,1917,554,0,0
700,470,0,0,0,0,0,0,0,0,0,-1,1924,554,0,0
707,470,0,0,0,0,0,0,0,0,0,-1,1931,554,0,0
714,470,0,0,0,0,0,0,0,0,0,-1,1938,554,0,0
721,470,0,0,0,0,0,0,0,0,0,-1,1945,554,0,0
728,470,0,0,0,0,0,0,0,0,0,-1,1952,554,0,0
735,470,0,0,0,0,0,0,0,0,0,-1,1959,554,0,0
742,470,0,0,0,0,0,0,0,0,0,-1,1966,554,0,0
749,470,0,0,0,0,0,0,0,0,0,-1,1973,554,0,0
756,470,0,0,0,0,0,0,0,0,0,-1,1980,554,0,0
763,470,0,0,0,0,0,0,0,0,0,-1,1987,554,0,0
770,470,0,0,0,0,0,0,0,0,0,-1,1994,554,0,0
777,470,0,0,0,0,0,0,0,0,0,-1,2001,554,0,0
784,470,0,0,0,0,0,0,0,0,0,-1,2008,554,0,0
791,470,0,0,0,0,0,0,0,0,0,-1,2015,554,0,0
798,470,0,0,0,0,0,0,0,0,0,-1,2022,554,0,0
805,470,0,0,0,0,0,0,0,0,0,-1,2029,554,0,0
812,470,0,0,0,0,0,0,0,0,0,-1,2036,554,0,0
-700,463,0,0,0,0,0,0,0,0,0,-1,524,561,0,0
-693,463,0,0,0,0,0,0,0,0,0,-1,531,561,0,0
-686,463,0,0,0,0,0,0,0,0,0,-1,538,561,0,0
-679,463,0,0,0,0,0,0,0,0,0,-1,545,561,0,0
-672,463,0,0,0,0,0,0,0,0,0,-1,552,561,0,0
-665,463,0,0,0,0,0,0,0,0,0,-1,559,561,0,0
-658,463,0,0,0,0,0,0,0,0,0,-1,566,561,0,0
-651,463,0,0,0,0,0,0,0,0,0,-1,573,561,0,0
-644,463,0,0,0,0,0,0,0,0,0,-1,580,561,0,0
-637,463,0,0,0,0,0,0,0,0,0,-1,587,561,0,0
-630,463,0,0,0,0,0,0,0,0,0,-1,594,561,0,0
-623,463,0,0,0,0,0,0,0,0,0,-1,601,561,0,0
-616,463,0,0,0,0,0,0,0,0,0,-1,608,561,0,0
-609,463,0,0,0,0,0,0,0,0,0,-1,615,561,0,0
-602,463,0,0,0,0,0,0,0,0,0,-1,622,561,0,0
-595,463,0,0,0,0,0,0,0,0,0,-1,629,561,0,0
-588,463,0,0,0,0,0,0,0,0,0,-1,636,561,0,0
-581,463,0,0,0,0,0,0,0,0,0,-1,643,561,0,0
-574,463,0,0,0,0,0,0,0,0,0,-1,650,561,0,0
-567,463,0,0,0,0,0,0,0,0,0,-1,657,561,0,0
-560,463,0,0,0,0,0,0,0,0,0,-1,664,561,0,0
-553,463,0,0,0,0,0,0,0,0,0,-1,671,561,0,0
-546,463,0,0,0,0,0,0,0,0,0,-1,678,561,0,0
-539,463,0,0,0,0,0,0,0,0,0,-1,685,561,0,0
-532,463,0,0,0,0,0,0,0,0,0,-1,692,561,0,0
-525,463,0,0,0,0,0,0,0,0,0,-1,699,561,0,0
-518,463,0,0,0,0,0,0,0,0,0,-1,706,561,0,0
-511,463,0,0,0,0,0,0,0,0,0,-1,713,561,0,0
-504,463,0,0,0,0,0,0,0,0,0,-1,720,561,0,0
-497,463,-9.81451,-1.67126,0,0,0,0,0,0,0,-1,727,561,-9.81452,1.67127
-490,463,-8.57043,-1.58942,0,0,0,0,0,0,0,-1,734,561,-8.57045,1.58944
-483,463,-7.29224,-1.7226,0,0,0,0,0,0,0,-1,741,561,-7.29226,1.72261
-476,463,-5.77704,-1.7312,0,0,0,0,0,0,0,-1,748,561,-5.77703,1.73121
-469,463,-5.14545,-2.138,0,0,0,0,0,0,0,-1,755,561,-5.14546,2.13799
-462,463,-3.13672,-3.07977,0,0,0,0,0,0,0,-1,762,561,-3.13672,3.07974
-455,463,-2.91406,-5.61798,0,0,0,0,0,0,0,-1,769,561,-2.91406,5.61801
-448,463,-4.00177,-8.54681,0,0,0,0,0,0,0,-1,776,561,-4.00175,8.54683
-441,463,-5.54132,-11.3796,0,0,0,0,0,0,0,-1,783,561,-5.54134,11.3796
-434,463,-5.44397,-12.1616,-0.00139832,0.0115714,-0.00532692,0.0134788,-0.00330569,-1.22696,0.0102667,0.0268657,790,561,-5.44396,12.1616
-427,463,-5.46655,-12.7548,-0.000476863,0.0100004,-0.00472665,0.0118176,-0.00229404,-1.20376,0.00874394,0.0112094,797,561,-5.46652,12.7548
-420,463,-5.46283,-13.3279,0.000220862,0.00845763,-0.00419907,0.0102208,-0.00154236,-1.17325,0.00738193,0.0100339,804,561,-5.46284,13.328
-413,463,-5.48596,-13.9161,0.000668769,0.00672564,-0.003516,0.00833765,-0.000943232,-1.14092,0.00589804,0.00950036,811,561,-5.48597,13.9161
-406,463,-5.521,-14.4816,0.00104996,0.00521825,-0.00282779,0.00664694,-0.000378737,-1.10297,0.00456278,0.00962595,818,561,-5.52097,14.4816
-399,463,-5.54718,-15.044,0.00126669,0.00372121,-0.00213201,0.00495395,3.39421e-05,-1.04655,0.00329138,0.0105227,825,561,-5.54715,15.044
-392,463,-5.56622,-15.6054,0.0014323,0.00216993,-0.00141138,0.00325989,0.000342342,-0.913198,0.00206861,0.0101694,832,561,-5.56625,15.6054
-385,463,-5.573,-16.1821,0.00163167,0.000777762,-0.000729937,0.00205035,0.000359082,-0.520769,0.00126432,0.0109596,839,561,-5.57298,16.1821
-378,463,-5.58264,-16.7468,0.00181184,-0.000517637,-5.31239e-05,0.00181305,-0.000518848,-0.0227893,0.00141375,0.0122734,846,561,-5.58262,16.7468
-371,463,-5.59668,-17.3044,0.00202732,-0.00167499,0.00060056,0.00212231,-0.00176997,0.156856,0.00225027,0.0119598,853,561,-5.59668,17.3044
-364,463,-5.59601,-17.7842,0.00240053,-0.0025786,0.00110967,0.00263664,-0.00281471,0.209647,0.0031479,0.0143983,860,561,-5.59601,17.7842
-357,463,-5.62805,-18.2955,0.00292999,-0.00332063,0.00141949,0.00323725,-0.00362788,0.213168,0.00396573,0.0212027,867,561,-5.62808,18.2955
-350,463,-5.57239,-18.9128,0.0039141,-0.0033686,0.00118048,0.00410067,-0.00355517,0.156748,0.00442384,0.0408231,874,561,-5.5724,18.9128
-343,463,-5.29309,-19.472,0,0,0,0,0,0,0,-1,881,561,-5.29309,19.472
-336,463,-2.94928,-12.2127,0,0,0,0,0,0,0,-1,888,561,-2.94925,12.2127
-329,463,-2.64307,-12.7037,0,0,0,0,0,0,0,-1,895,561,-2.64307,12.7038
-322,463,-1.82898,-9.11957,0,0,0,0,0,0,0,-1,902,561,-1.829,9.11957
-315,463,-0.944763,-5.96234,0,0,0,0,0,0,0,-1,909,561,-0.94479,5.96237
-308,463,-1.1535,-3.17889,0,0,0,0,0,0,0,-1,916,561,-1.15352,3.17889
-301,463,-1.50366,-3.15338,0,0,0,0,0,0,0,-1,923,561,-1.50364,3.15341
-294,463,-2.35889,-3.93463,0,0,0,0,0,0,0,-1,930,561,-2.35886,3.93465
-287,463,-2.80322,2.73999,0,0,0,0,0,0,0,-1,937,561,-2.80322,-2.74
-280,463,-12.864,5.25146,0,0,0,0,0,0,0,-1,944,561,-12.864,-5.25149
-273,463,-12.4598,3.39178,0,0,0,0,0,0,0,-1,951,561,-12.4598,-3.3918
-266,463,-8.78101,-3.7356,0,0,0,0,0,0,0,-1,958,561,-8.78098,3.73562
-259,463,-6.23285,-5.68842,0,0,0,0,0,0,0,-1,965,561,-6.23288,5.68843
-252,463,0,0,0,0,0,0,0,0,0,-1,972,561,0,0
-245,463,0,0,0,0,0,0,0,0,0,-1,979,561,0,0
-238,463,0,0,0,0,0,0,0,0,0,-1,986,561,0,0
-231,463,0,0,0,0,0,0,0,0,0,-1,993,561,0,0
-224,463,0,0,0,0,0,0,0,0,0,-1,1000,561,0,0
-217,463,0,0,0,0,0,0,0,0,0,-1,1007,561,0,0
-210,463,0,0,0,0,0,0,0,0,0,-1,1014,561,0,0
-203,463,0,0,0,0,0,0,0,0,0,-1,1021,561,0,0
-196,463,0,0,0,0,0,0,0,0,0,-1,1028,561,0,0
-189,463,0,0,0,0,0,0,0,0,0,-1,1035,561,0,0
-182,463,0,0,0,0,0,0,0,0,0,-1,1042,561,0,0
-175,463,0,0,0,0,0,0,0,0,0,-1,1049,561,0,0
-168,463,0,0,0,0,0,0,0,0,0,-1,1056,561,0,0
-161,463,0,0,0,0,0,0,0,0,0,-1,1063,561,0,0
-154,463,0,0,0,0,0,0,0,0,0,-1,1070,561,0,0
-147,463,0,0,0,0,0,0,0,0,0,-1,1077,561,0,0
-140,463,0,0,0,0,0,0,0,0,0,-1,1084,561,0,0
-133,463,0,0,0,0,0,0,0,0,0,-1,1091,561,0,0
-126,463,0,0,0,0,0,0,0,0,0,-1,1098,561,0,0
-119,463,0,0,0,0,0,0,0,0,0,-1,1105,561,0,0
-112,463,0,0,0,0,0,0,0,0,0,-1,1112,561,0,0
-105,463,0,0,0,0,0,0,0,0,0,-1,1119,561,0,0
-98,463,0,0,0,0,0,0,0,0,0,-1,1126,561,0,0
-91,463,0,0,0,0,0,0,0,0,0,-1,1133,561,0,0
-84,463,0,0,0,0,0,0,0,0,0,-1,1140,561,0,0
-77,463,0,0,0,0,0,0,0,0,0,-1,1147,561,0,0
-70,463,0,0,0,0,0,0,0,0,0,-1,1154,561,0,0
-63,463,0,0,0,0,0,0,0,0,0,-1,1161,561,0,0
-56,463,0,0,0,0,0,0,0,0,0,-1,1168,561,0,0
-49,463,0,0,0,0,0,0,0,0,0,-1,1175,561,0,0
-42,463,0,0,0,0,0,0,0,0,0,-1,1182,561,0,0
-35,463,0,0,0,0,0,0,0,0,0,-1,1189,561,0,0
-28,463,0,0,0,0,0,0,0,0,0,-1,1196,561,0,0
-21,463,0,0,0,0,0,0,0,0,0,-1,1203,561,0,0
-14,463,0,0,0,0,0,0,0,0,0,-1,1210,561,0,0
-7,463,0,0,0,0,0,0,0,0,0,-1,1217,561,0,0
0,463,0,0,0,0,0,0,0,0,0,-1,1224,561,0,0
7,463,0,0,0,0,0,0,0,0,0,-1,1231,561,0,0
14,463,0,0,0,0,0,0,0,0,0,-1,1238,561,0,0
21,463,0,0,0,0,0,0,0,0,0,-1,1245,561,0,0
28,463,0,0,0,0,0,0,0,0,0,-1,1252,561,0,0
35,463,0,0,0,0,0,0,0,0,0,-1,1259,561,0,0
42,463,0,0,0,0,0,0,0,0,0,-1,1266,561,0,0
49,463,0,0,0,0,0,0,0,0,0,-1,1273,561,0,0
56,463,0,0,0,0,0,0,0,0,0,-1,1280,561,0,0
63,463,0,0,0,0,0,0,0,0,0,-1,1287,561,0,0
70,463,0,0,0,0,0,0,0,0,0,-1,1294,561,0,0
77,463,0,0,0,0,0,0,0,0,0,-1,1301,561,0,0
84,463,0,0,0,0,0,0,0,0,0,-1,1308,561,0,0
91,463,0,0,0,0,0,0,0,0,0,-1,1315,561,0,0
98,463,0,0,0,0,0,0,0,0,0,-1,1322,561,0,0
105,463,0,0,0,0,0,0,0,0,0,-1,1329,561,0,0
112,463,0,0,0,0,0,0,0,0,0,-1,1336,561,0,0
119,463,0,0,0,0,0,0,0,0,0,-1,1343,561,0,0
126,463,0,0,0,0,0,0,0,0,0,-1,1350,561,0,0
133,463,0,0,0,0,0,0,0,0,0,-1,1357,561,0,0
140,463,0,0,0,0,0,0,0,0,0,-1,1364,561,0,0
147,463,0,0,0,0,0,0,0,0,0,-1,1371,561,0,0
154,463,0,0,0,0,0,0,0,0,0,-1,1378,561,0,0
161,463,0,0,0,0,0,0,0,0,0,-1,1385,561,0,0
168,463,0,0,0,0,0,0,0,0,0,-1,1392,561,0,0
175,463,0,0,0,0,0,0,0,0,0,-1,1399,561,0,0
182,463,0,0,0,0,0,0,0,0,0,-1,1406,561,0,0
189,463,0,0,0,0,0,0,0,0,0,-1,1413,561,0,0
196,463,0,0,0,0,0,0,0,0,0,-1,1420,561,0,0
203,463,0,0,0,0,0,0,0,0,0,-1,1427,561,0,0
210,463,0,0,0,0,0,0,0,0,0,-1,1434,561,0,0
217,463,0,0,0,0,0,0,0,0,0,-1,1441,561,0,0
224,463,0,0,0,0,0,0,0,0,0,-1,1448,561,0,0
231,463,0,0,0,0,0,0,0,0,0,-1,1455,561,0,0
238,463,0,0,0,0,0,0,0,0,0,-1,1462,561,0,0
245,463,0,0,0,0,0,0,0,0,0,-1,1469,561,0,0
252,463,0,0,0,0,0,0,0,0,0,-1,1476,561,0,0
259,463,0,0,0,0,0,0,0,0,0,-1,1483,561,0,0
266,463,0,0,0,0,0,0,0,0,0,-1,1490,561,0,0
273,463,0,0,0,0,0,0,0,0,0,-1,1497,561,0,0
280,463,0,0,0,0,0,0,0,0,0,-1,1504,561,0,0
287,463,0,0,0,0,0,0,0,0,0,-1,1511,561,0,0
294,463,0,0,0,0,0,0,0,0,0,-1,1518,561,0,0
301,463,0,0,0,0,0,0,0,0,0,-1,1525,561,0,0
308,463,0,0,0,0,0,0,0,0,0,-1,1532,561,0,0
315,463,0,0,0,0,0,0,0,0,0,-1,1539,561,0,0
322,463,0,0,0,0,0,0,0,0,0,-1,1546,561,0,0
329,463,0,0,0,0,0,0,0,0,0,-1,1553,561,0,0
336,463,0,0,0,0,0,0,0,0,0,-1,1560,561,0,0
343,463,0,0,0,0,0,0,0,0,0,-1,1567,561,0,0
350,463,0,0,0,0,0,0,0,0,0,-1,1574,561,0,0
357,463,0,0,0,0,0,0,0,0,0,-1,1581,561,0,0
364,463,0,0,0,0,0,0,0,0,0,-1,1588,561,0,0
371,463,1.75842,0.152588,0,0,0,0,0,0,0,-1,1595,561,1.75844,-0.152558
378,463,4.58813,-0.0444336,0,0,0,0,0,0,0,-1,1602,561,4.58809,0.0444505
385,463,8.88574,1.65057,0,0,0,0,0,0,0,-1,1609,561,8.88575,-1.65055
392,463,14.0912,2.50513,0,0,0,0,0,0,0,-1,1616,561,14.0912,-2.5051
399,463,21.4769,2.7002,0,0,0,0,0,0,0,-1,1623,561,21.477,-2.70017
406,463,26.2987,4.32318,0,0,0,0,0,0,0,-1,1630,561,26.2987,-4.3232
413,463,26.5011,2.65222,0,0,0,0,0,0,0,-1,1637,561,26.5011,-2.65224
420,463,8.849,2.26611,0,0,0,0,0,0,0,-1,1644,561,8.84899,-2.26613
427,463,5.12207,1.69183,0,0,0,0,0,0,0,-1,1651,561,5.12206,-1.69184
434,463,4.59814,1.81995,0,0,0,0,0,0,0,-1,1658,561,4.59812,-1.81994
441,463,1.76392,-5.99225,0,0,0,0,0,0,0,-1,1665,561,1.7639,5.99225
448,463,2.49939,-4.30536,0,0,0,0,0,0,0,-1,1672,561,2.49941,4.30536
455,463,4.40295,-3.02557,0,0,0,0,0,0,0,-1,1679,561,4.40299,3.02558
462,463,5.38293,-4.06445,0,0,0,0,0,0,0,-1,1686,561,5.38289,4.06444
469,463,5.94373,-4.50647,0,0,0,0,0,0,0,-1,1693,561,5.94368,4.50646
476,463,15.2559,-17.3189,0,0,0,0,0,0,0,-1,1700,561,15.2558,17.3189
483,463,15.903,-17.2125,0,0,0,0,0,0,0,-1,1707,561,15.903,17.2125
490,463,15.8848,-16.5529,0.00133044,0.002038,0.000271361,0.00213009,0.00123835,1.24364,0.00123522,0.0231088,1714,561,15.8847,16.5529
497,463,15.8654,-15.986,0.00131911,0.00183793,0.000472541,0.00211758,0.00103946,1.03642,0.00122265,0.0130651,1721,561,15.8653,15.986
504,463,15.8593,-15.3901,0.0012562,0.0015594,0.000576645,0.00200404,0.000811564,0.913939,0.00116398,0.0159481,1728,561,15.8593,15.3902
511,463,15.8226,-14.831,0.00109142,0.00133724,0.000657137,0.00188286,0.000545796,0.877849,0.00111861,0.0223235,1735,561,15.8227,14.831
518,463,15.8331,-14.2757,0.000765412,0.00114172,0.000685846,0.00166475,0.000242378,0.919272,0.00103851,0.0238975,1742,561,15.8332,14.2757
525,463,15.7958,-13.6841,0.000389512,0.000935374,0.000619979,0.00133984,-1.49528e-05,0.992746,0.000898251,0.0189566,1749,561,15.7958,13.6841
532,463,15.8114,-13.0715,-6.00201e-05,0.000824788,0.000514246,0.00106074,-0.000295974,1.14062,0.000823739,0.0164796,1756,561,15.8114,13.0715
539,463,15.7903,-12.448,-0.000552118,0.000722874,0.000363852,0.000819401,-0.000648645,1.31148,0.000849485,0.0176464,1763,561,15.7903,12.448
546,463,15.7371,-11.9081,-0.00103563,0.000742405,0.000187968,0.000762059,-0.00105528,1.46661,0.00105378,0.0139037,1770,561,15.737,11.9082
553,463,15.7393,-11.2916,-0.00151505,0.000892825,1.08552e-06,0.000892825,-0.00151505,1.57035,0.00140557,0.0109354,1777,561,15.7392,11.2916
560,463,15.7472,-10.5626,-0.00191887,0.00108137,-0.000159631,0.00108984,-0.00192734,-1.51779,0.0017642,0.0206772,1784,561,15.7471,10.5626
567,463,15.6021,-9.98077,-0.00217083,0.00128681,-0.000300588,0.00131275,-0.00219676,-1.48472,0.00204753,0.0281828,1791,561,15.602,9.98078
574,463,15.678,-9.42236,0,0,0,0,0,0,0,-1,1798,561,15.6779,9.42236
581,463,9.4939,-3.88245,0,0,0,0,0,0,0,-1,1805,561,9.49392,3.88245
588,463,1.97424,2.16016,0,0,0,0,0,0,0,-1,1812,561,1.97422,-2.16013
595,463,9.98657,2.99854,0,0,0,0,0,0,0,-1,1819,561,9.98662,-2.99856
602,463,17.2202,4.91302,0,0,0,0,0,0,0,-1,1826,561,17.2202,-4.91305
609,463,17.96,4.03131,0,0,0,0,0,0,0,-1,1833,561,17.96,-4.03132
616,463,20.8352,3.15131,0,0,0,0,0,0,0,-1,1840,561,20.8352,-3.1513
623,463,0,0,0,0,0,0,0,0,0,-1,1847,561,0,0
630,463,0,0,0,0,0,0,0,0,0,-1,1854,561,0,0
637,463,0,0,0,0,0,0,0,0,0,-1,1861,561,0,0
644,463,0,0,0,0,0,0,0,0,0,-1,1868,561,0,0
651,463,0,0,0,0,0,0,0,0,0,-1,1875,561,0,0
658,463,0,0,0,0,0,0,0,0,0,-1,1882,561,0,0
665,463,0,0,0,0,0,0,0,0,0,-1,1889,561,0,0
672,463,0,0,0,0,0,0,0,0,0,-1,1896,561,0,0
679,463,0,0,0,0,0,0,0,0,0,-1,1903,561,0,0
686,463,0,0,0,0,0,0,0,0,0,-1,1910,561,0,0
693,463,0,0,0,0,0,0,0,0,0,-1,1917,561,0,0
700,463,0,0,0,0,0,0,0,0,0,-1,1924,561,0,0
707,463,0,0,0,0,0,0,0,0,0,-1,1931,561,0,0
714,463,0,0,0,0,0,0,0,0,0,-1,1938,561,0,0
721,463,0,0,0,0,0,0,0,0,0,-1,1945,561,0,0
728,463,0,0,0,0,0,0,0,0,0,-1,1952,561,0,0
735,463,0,0,0,0,0,0,0,0,0,-1,1959,561,0,0
742,463,0,0,0,0,0,0,0,0,0,-1,1966,561,0,0
749,463,0,0,0,0,0,0,0,0,0,-1,1973,561,0,0
756,463,0,0,0,0,0,0,0,0,0,-1,1980,561,0,0
763,463,0,0,0,0,0,0,0,0,0,-1,1987,561,0,0
770,463,0,0,0,0,0,0,0,0,0,-1,1994,561,0,0
777,463,0,0,0,0,0,0,0,0,0,-1,2001,561,0,0
784,463,0,0,0,0,0,0,0,0,0,-1,2008,561,0,0
791,463,0,0,0,0,0,0,0,0,0,-1,2015,561,0,0
798,463,0,0,0,0,0,0,0,0,0,-1,2022,561,0,0
805,463,0,0,0,0,0,0,0,0,0,-1,2029,561,0,0
812,463,0,0,0,0,0,0,0,0,0,-1,2036,561,0,0
-700,456,0,0,0,0,0,0,0,0,0,-1,524,568,0,0
-693,456,0,0,0,0,0,0,0,0,0,-1,531,568,0,0
-686,456,0,0,0,0,0,0,0,0,0,-1,538,568,0,0
-679,456,0,0,0,0,0,0,0,0,0,-1,545,568,0,0
-672,456,0,0,0,0,0,0,0,0,0,-1,552,568,0,0
-665,456,0,0,0,0,0,0,0,0,0,-1,559,568,0,0
-658,456,0,0,0,0,0,0,0,0,0,-1,566,568,0,0
-651,456,0,0,0,0,0,0,0,0,0,-1,573,568,0,0
-644,456,0,0,0,0,0,0,0,0,0,-1,580,568,0,0
-637,456,0,0,0,0,0,0,0,0,0,-1,587,568,0,0
-630,456,0,0,0,0,0,0,0,0,0,-1,594,568,0,0
-623,456,0,0,0,0,0,0,0,0,0,-1,601,568,0,0
-616,456,0,0,0,0,0,0,0,0,0,-1,608,568,0,0
-609,456,0,0,0,0,0,0,0,0,0,-1,615,568,0,0
-602,456,0,0,0,0,0,0,0,0,0,-1,622,568,0,0
-595,456,0,0,0,0,0,0,0,0,0,-1,629,568,0,0
-588,456,0,0,0,0,0,0,0,0,0,-1,636,568,0,0
-581,456,0,0,0,0,0,0,0,0,0,-1,643,568,0,0
-574,456,0,0,0,0,0,0,0,0,0,-1,650,568,0,0
-567,456,0,0,0,0,0,0,0,0,0,-1,657,568,0,0
-560,456,0,0,0,0,0,0,0,0,0,-1,664,568,0,0
-553,456,0,0,0,0,0,0,0,0,0,-1,671,568,0,0
-546,456,0,0,0,0,0,0,0,0,0,-1,678,568,0,0
-539,456,0,0,0,0,0,0,0,0,0,-1,685,568,0,0
-532,456,0,0,0,0,0,0,0,0,0,-1,692,568,0,0
-525,456,0,0,0,0,0,0,0,0,0,-1,699,568,0,0
-518,456,0,0,0,0,0,0,0,0,0,-1,706,568,0,0
-511,456,0,0,0,0,0,0,0,0,0,-1,713,568,0,0
-504,456,-10.3994,-2.34839,0,0,0,0,0,0,0,-1,720,568,-10.3994,2.3484
-497,456,-9.21375,-2.38068,0,0,0,0,0,0,0,-1,727,568,-9.21372,2.38069
-490,456,-8.09058,-2.31824,0,0,0,0,0,0,0,-1,734,568,-8.09057,2.31821
-483,456,-6.66119,-2.24329,0,0,0,0,0,0,0,-1,741,568,-6.66121,2.24331
-476,456,-5.1499,-2.21185,0,0,0,0,0,0,0,-1,748,568,-5.14992,2.21184
-469,456,-2.81238,-3.51501,0,0,0,0,0,0,0,-1,755,568,-2.81237,3.51501
-462,456,-4.2431,-5.27478,0,0,0,0,0,0,0,-1,762,568,-4.24312,5.27476
-455,456,-5.98364,-8.72119,0,0,0,0,0,0,0,-1,769,568,-5.98364,8.72122
-448,456,-6.06982,-10.5726,0,0,0,0,0,0,0,-1,776,568,-6.06984,10.5726
-441,456,-5.9212,-11.5108,-0.00221195,0.0104207,-0.00491922,0.0121103,-0.00390154,-1.23995,0.00964088,0.030904,783,568,-5.92123,11.5108
-434,456,-6.02283,-12.161,-0.00129436,0.0087632,-0.00412833,0.0102407,-0.00277186,-1.22711,0.00791458,0.0160531,790,568,-6.02282,12.161
-427,456,-6.02704,-12.7414,-0.000543398,0.00731684,-0.0034781,0.00863487,-0.00186142,-1.20857,0.00646698,0.00920499,797,568,-6.02706,12.7414
-420,456,-6.03912,-13.3154,6.33924e-05,0.00593023,-0.00292802,0.00714148,-0.00114786,-1.17856,0.00518612,0.00928566,804,568,-6.03913,13.3154
-413,456,-6.06274,-13.8965,0.000466851,0.0043647,-0.00225033,0.00539274,-0.000561183,-1.14227,0.00379607,0.0084692,811,568,-6.06277,13.8965
-406,456,-6.10181,-14.459,0.000832345,0.00304009,-0.00161129,0.00388936,-1.69312e-05,-1.08572,0.00259857,0.00874908,818,568,-6.10178,14.4591
-399,456,-6.12177,-15.0114,0.00108497,0.00175928,-0.00100848,0.00248548,0.000358778,-0.946716,0.00155128,0.010739,825,568,-6.12179,15.0114
-392,456,-6.12805,-15.5664,0.00131983,0.000429587,-0.000398481,0.00147214,0.00027728,-0.365084,0.000903296,0.0103598,832,568,-6.12805,15.5664
-385,456,-6.14282,-16.1269,0.00158318,-0.000737753,0.000168944,0.00159541,-0.000749986,0.0722836,0.00138313,0.00972658,839,568,-6.14284,16.1269
-378,456,-6.16235,-16.7097,0.00180015,-0.00186025,0.000777258,0.00195836,-0.00201846,0.200802,0.0022961,0.0111511,846,568,-6.16237,16.7097
-371,456,-6.16675,-17.264,0.00211191,-0.00278402,0.00134031,0.00245482,-0.00312693,0.250469,0.0032304,0.0116753,853,568,-6.16676,17.264
-364,456,-6.14642,-17.7626,0.00263816,-0.00340013,0.00171851,0.00309299,-0.00385496,0.258734,0.00401944,0.023261,860,568,-6.1464,17.7625
-357,456,-6.11633,-18.3638,0,0,0,0,0,0,0,-1,867,568,-6.11632,18.3638
-350,456,-5.95618,-19.1252,0,0,0,0,0,0,0,-1,874,568,-5.95616,19.1253
-343,456,-3.39081,-12.0217,0,0,0,0,0,0,0,-1,881,568,-3.39078,12.0217
-336,456,-3.04517,-12.4623,0,0,0,0,0,0,0,-1,888,568,-3.04519,12.4624
-329,456,-1.06183,-10.7184,0,0,0,0,0,0,0,-1,895,568,-1.06184,10.7184
-322,456,-0.662537,-7.66632,0,0,0,0,0,0,0,-1,902,568,-0.662564,7.66633
-315,456,-0.675476,-3.38397,0,0,0,0,0,0,0,-1,909,568,-0.675473,3.38399
-308,456,-1.1618,-3.15314,0,0,0,0,0,0,0,-1,916,568,-1.16178,3.15314
-301,456,-1.83551,-3.26447,0,0,0,0,0,0,0,-1,923,568,-1.8355,3.26449
-294,456,-2.93414,-3.35449,0,0,0,0,0,0,0,-1,930,568,-2.93413,3.35451
-287,456,-3.7569,-3.53101,0,0,0,0,0,0,0,-1,937,568,-3.75692,3.53101
-280,456,-13.072,4.52856,0,0,0,0,0,0,0,-1,944,568,-13.072,-4.52855
-273,456,-8.26538,-6.66748,0,0,0,0,0,0,0,-1,951,568,-8.26536,6.66745
-266,456,-5.71527,-9.36884,0,0,0,0,0,0,0,-1,958,568,-5.71529,9.36885
-259,456,0,0,0,0,0,0,0,0,0,-1,965,568,0,0
-252,456,0,0,0,0,0,0,0,0,0,-1,972,568,0,0
-245,456,0,0,0,0,0,0,0,0,0,-1,979,568,0,0
-238,456,0,0,0,0,0,0,0,0,0,-1,986,568,0,0
-231,456,0,0,0,0,0,0,0,0,0,-1,993,568,0,0
-224,456,0,0,0,0,0,0,0,0,0,-1,1000,568,0,0
-217,456,0,0,0,0,0,0,0,0,0,-1,1007,568,0,0
-210,456,0,0,0,0,0,0,0,0,0,-1,1014,568,0,0
-203,456,0,0,0,0,0,0,0,0,0,-1,1021,568,0,0
-196,456,0,0,0,0,0,0,0,0,0,-1,1028,568,0,0
-189,456,0,0,0,0,0,0,0,0,0,-1,1035,568,0,0
-182,456,0,0,0,0,0,0,0,0,0,-1,1042,568,0,0
-175,456,0,0,0,0,0,0,0,0,0,-1,1049,568,0,0
-168,456,0,0,0,0,0,0,0,0,0,-1,1056,568,0,0
-161,456,0,0,0,0,0,0,0,0,0,-1,1063,568,0,0
-154,456,0,0,0,0,0,0,0,0,0,-1,1070,568,0,0
-147,456,0,0,0,0,0,0,0,0,0,-1,1077,568,0,0
-140,456,0,0,0,0,0,0,0,0,0,-1,1084,568,0,0
-133,456,0,0,0,0,0,0,0,0,0,-1,1091,568,0,0
-126,456,0,0,0,0,0,0,0,0,0,-1,1098,568,0,0
-119,456,0,0,0,0,0,0,0,0,0,-1,1105,568,0,0
-112,456,0,0,0,0,0,0,0,0,0,-1,1112,568,0,0
-105,456,0,0,0,0,0,0,0,0,0,-1,1119,568,0,0
-98,456,0,0,0,0,0,0,0,0,0,-1,1126,568,0,0
-91,456,0,0,0,0,0,0,0,0,0,-1,1133,568,0,0
-84,456,0,0,0,0,0,0,0,0,0,-1,1140,568,0,0
-77,456,0,0,0,0,0,0,0,0,0,-1,1147,568,0,0
-70,456,0,0,0,0,0,0,0,0,0,-1,1154,568,0,0
-63,456,0,0,0,0,0,0,0,0,0,-1,1161,568,0,0
-56,456,0,0,0,0,0,0,0,0,0,-1,1168,568,0,0
-49,456,0,0,0,0,0,0,0,0,0,-1,1175,568,0,0
-42,456,0,0,0,0,0,0,0,0,0,-1,1182,568,0,0
-35,456,0,0,0,0,0,0,0,0,0,-1,1189,568,0,0
-28,456,0,0,0,0,0,0,0,0,0,-1,1196,568,0,0
-21,456,0,0,0,0,0,0,0,0,0,-1,1203,568,0,0
-14,456,0,0,0,0,0,0,0,0,0,-1,1210,568,0,0
-7,456,0,0,0,0,0,0,0,0,0,-1,1217,568,0,0
0,456,0,0,0,0,0,0,0,0,0,-1,1224,568,0,0
7,456,0,0,0,0,0,0,0,0,0,-1,1231,568,0,0
14,456,0,0,0,0,0,0,0,0,0,-1,1238,568,0,0
21,456,0,0,0,0,0,0,0,0,0,-1,1245,568,0,0
28,456,0,0,0,0,0,0,0,0,0,-1,1252,568,0,0
35,456,0,0,0,0,0,0,0,0,0,-1,1259,568,0,0
42,456,0,0,0,0,0,0,0,0,0,-1,1266,568,0,0
49,456,0,0,0,0,0,0,0,0,0,-1,1273,568,0,0
56,456,0,0,0,0,0,0,0,0,0,-1,1280,568,0,0
63,456,0,0,0,0,0,0,0,0,0,-1,1287,568,0,0
70,456,0,0,0,0,0,0,0,0,0,-1,1294,568,0,0
77,456,0,0,0,0,0,0,0,0,0,-1,1301,568,0,0
84,456,0,0,0,0,0,0,0,0,0,-1,1308,568,0,0
91,456,0,0,0,0,0,0,0,0,0,-1,1315,568,0,0
98,456,0,0,0,0,0,0,0,0,0,-1,1322,568,0,0
105,456,0,0,0,0,0,0,0,0,0,-1,1329,568,0,0
112,456,0,0,0,0,0,0,0,0,0,-1,1336,568,0,0
119,456,0,0,0,0,0,0,0,0,0,-1,1343,568,0,0
126,456,0,0,0,0,0,0,0,0,0,-1,1350,568,0,0
133,456,0,0,0,0,0,0,0,0,0,-1,1357,568,0,0
140,456,0,0,0,0,0,0,0,0,0,-1,1364,568,0,0
147,456,0,0,0,0,0,0,0,0,0,-1,1371,568,0,0
154,456,0,0,0,0,0,0,0,0,0,-1,1378,568,0,0
161,456,0,0,0,0,0,0,0,0,0,-1,1385,568,0,0
168,456,0,0,0,0,0,0,0,0,0,-1,1392,568,0,0
175,456,0,0,0,0,0,0,0,0,0,-1,1399,568,0,0
182,456,0,0,0,0,0,0,0,0,0,-1,1406,568,0,0
189,456,0,0,0,0,0,0,0,0,0,-1,1413,568,0,0
196,456,0,0,0,0,0,0,0,0,0,-1,1420,568,0,0
203,456,0,0,0,0,0,0,0,0,0,-1,1427,568,0,0
210,456,0,0,0,0,0,0,0,0,0,-1,1434,568,0,0
217,456,0,0,0,0,0,0,0,0,0,-1,1441,568,0,0
224,456,0,0,0,0,0,0,0,0,0,-1,1448,568,0,0
231,456,0,0,0,0,0,0,0,0,0,-1,1455,568,0,0
238,456,0,0,0,0,0,0,0,0,0,-1,1462,568,0,0
245,456,0,0,0,0,0,0,0,0,0,-1,1469,568,0,0
252,456,0,0,0,0,0,0,0,0,0,-1,1476,568,0,0
259,456,0,0,0,0,0,0,0,0,0,-1,1483,568,0,0
266,456,0,0,0,0,0,0,0,0,0,-1,1490,568,0,0
273,456,0,0,0,0,0,0,0,0,0,-1,1497,568,0,0
280,456,0,0,0,0,0,0,0,0,0,-1,1504,568,0,0
287,456,0,0,0,0,0,0,0,0,0,-1,1511,568,0,0
294,456,0,0,0,0,0,0,0,0,0,-1,1518,568,0,0
301,456,0,0,0,0,0,0,0,0,0,-1,1525,568,0,0
308,456,0,0,0,0,0,0,0,0,0,-1,1532,568,0,0
315,456,0,0,0,0,0,0,0,0,0,-1,1539,568,0,0
322,456,0,0,0,0,0,0,0,0,0,-1,1546,568,0,0
329,456,0,0,0,0,0,0,0,0,0,-1,1553,568,0,0
336,456,0,0,0,0,0,0,0,0,0,-1,1560,568,0,0
343,456,0,0,0,0,0,0,0,0,0,-1,1567,568,0,0
350,456,0,0,0,0,0,0,0,0,0,-1,1574,568,0,0
357,456,0,0,0,0,0,0,0,0,0,-1,1581,568,0,0
364,456,0,0,0,0,0,0,0,0,0,-1,1588,568,0,0
371,456,0,0,0,0,0,0,0,0,0,-1,1595,568,0,0
378,456,0,0,0,0,0,0,0,0,0,-1,1602,568,0,0
385,456,5.66284,0.660645,0,0,0,0,0,0,0,-1,1609,568,5.66285,-0.660615
392,456,17.5027,4.32971,0,0,0,0,0,0,0,-1,1616,568,17.5026,-4.32971
399,456,24.1917,5.99652,0,0,0,0,0,0,0,-1,1623,568,24.1916,-5.99651
406,456,24.446,4.53003,0,0,0,0,0,0,0,-1,1630,568,24.446,-4.53005
413,456,24.9418,2.90521,0,0,0,0,0,0,0,-1,1637,568,24.9418,-2.90524
420,456,25.3048,1.04712,0,0,0,0,0,0,0,-1,1644,568,25.3048,-1.04713
427,456,6.21375,2.02905,0,0,0,0,0,0,0,-1,1651,568,6.21372,-2.02904
434,456,3.0719,-4.86285,0,0,0,0,0,0,0,-1,1658,568,3.07184,4.86287
441,456,2.90344,-4.70459,0,0,0,0,0,0,0,-1,1665,568,2.90346,4.7046
448,456,3.06995,-4.93689,0,0,0,0,0,0,0,-1,1672,568,3.06991,4.93687
455,456,3.46582,-3.43701,0,0,0,0,0,0,0,-1,1679,568,3.46585,3.43698
462,456,4.68445,-4.45831,0,0,0,0,0,0,0,-1,1686,568,4.68439,4.45833
469,456,4.93201,-2.289,0,0,0,0,0,0,0,-1,1693,568,4.93197,2.28903
476,456,4.8363,-2.79364,0,0,0,0,0,0,0,-1,1700,568,4.83636,2.79363
483,456,12.8522,-13.692,0,0,0,0,0,0,0,-1,1707,568,12.8522,13.6919
490,456,16.4197,-16.5955,0,0,0,0,0,0,0,-1,1714,568,16.4197,16.5954
497,456,16.5085,-16.0937,0.00200462,0.00202293,0.000778017,0.00279185,0.00123571,0.791283,0.00161541,0.04881,1721,568,16.5085,16.0937
504,456,16.4183,-15.4044,0.00191704,0.0017309,0.000812448,0.00264173,0.00100621,0.72837,0.00153956,0.0126472,1728,568,16.4183,15.4044
511,456,16.4305,-14.8241,0.00175169,0.00145836,0.000828827,0.00244673,0.000763324,0.697827,0.00144553,0.0141694,1735,568,16.4305,14.8241
518,456,16.4114,-14.2364,0.00143944,0.00123928,0.000843421,0.0021887,0.000490026,0.726345,0.00132632,0.0172453,1742,568,16.4114,14.2364
525,456,16.3757,-13.6421,0.00105798,0.0011038,0.000783019,0.00186425,0.000297538,0.800024,0.00115648,0.0165805,1749,568,16.3757,13.6421
532,456,16.3875,-13.0406,0.000599341,0.0010198,0.000672084,0.00151377,0.000105373,0.936978,0.000975952,0.0161995,1756,568,16.3875,13.0406
539,456,16.3707,-12.3977,0.000123243,0.000945924,0.000543038,0.00121583,-0.00014666,1.10953,0.000863598,0.0199909,1763,568,16.3707,12.3977
546,456,16.3225,-11.8378,-0.000320057,0.000990211,0.000403273,0.00110438,-0.000434228,1.29491,0.000915973,0.0219869,1770,568,16.3225,11.8379
553,456,16.291,-11.2387,-0.000739761,0.00108426,0.000263409,0.00112153,-0.000777039,1.43021,0.00110214,0.0133573,1777,568,16.2911,11.2387
560,456,16.2827,-10.6473,-0.00108189,0.00125224,0.000175652,0.00126539,-0.00109504,1.4961,0.00136397,0.0106131,1784,568,16.2828,10.6473
567,456,16.2772,-10.0228,-0.00123141,0.00148836,0.000185715,0.00150098,-0.00124403,1.50293,0.00158715,0.0175674,1791,568,16.2772,10.0228
574,456,16.2098,-9.5946,-0.00131704,0.00167138,0.000162577,0.0016802,-0.00132586,1.51661,0.00173956,0.0498689,1798,568,16.2098,9.59458
581,456,16.2228,-9.08563,0,0,0,0,0,0,0,-1,1805,568,16.2228,9.08562
588,456,5.23901,-0.0901489,0,0,0,0,0,0,0,-1,1812,568,5.23906,0.0901656
595,456,6.90063,3.14886,0,0,0,0,0,0,0,-1,1819,568,6.90066,-3.14887
602,456,16.894,4.10938,0,0,0,0,0,0,0,-1,1826,568,16.8941,-4.1094
609,456,14.9966,3.5708,0,0,0,0,0,0,0,-1,1833,568,14.9966,-3.57083
616,456,17.7407,2.6579,0,0,0,0,0,0,0,-1,1840,568,17.7408,-2.6579
623,456,20.6838,1.7121,0,0,0,0,0,0,0,-1,1847,568,20.6838,-1.71208
630,456,0,0,0,0,0,0,0,0,0,-1,1854,568,0,0
637,456,0,0,0,0,0,0,0,0,0,-1,1861,568,0,0
644,456,0,0,0,0,0,0,0,0,0,-1,1868,568,0,0
651,456,0,0,0,0,0,0,0,0,0,-1,1875,568,0,0
658,456,0,0,0,0,0,0,0,0,0,-1,1882,568,0,0
665,456,0,0,0,0,0,0,0,0,0,-1,1889,568,0,0
672,456,0,0,0,0,0,0,0,0,0,-1,1896,568,0,0
679,456,0,0,0,0,0,0,0,0,0,-1,1903,568,0,0
686,456,0,0,0,0,0,0,0,0,0,-1,1910,568,0,0
693,456,0,0,0,0,0,0,0,0,0,-1,1917,568,0,0
700,456,0,0,0,0,0,0,0,0,0,-1,1924,568,0,0
707,456,0,0,0,0,0,0,0,0,0,-1,1931,568,0,0
714,456,0,0,0,0,0,0,0,0,0,-1,1938,568,0,0
721,456,0,0,0,0,0,0,0,0,0,-1,1945,568,0,0
728,456,0,0,0,0,0,0,0,0,0,-1,1952,568,0,0
735,456,0,0,0,0,0,0,0,0,0,-1,1959,568,0,0
742,456,0,0,0,0,0,0,0,0,0,-1,1966,568,0,0
749,456,0,0,0,0,0,0,0,0,0,-1,1973,568,0,0
756,456,0,0,0,0,0,0,0,0,0,-1,1980,568,0,0
763,456,0,0,0,0,0,0,0,0,0,-1,1987,568,0,0
770,456,0,0,0,0,0,0,0,0,0,-1,1994,568,0,0
777,456,0,0,0,0,0,0,0,0,0,-1,2001,568,0,0
784,456,0,0,0,0,0,0,0,0,0,-1,2008,568,0,0
791,456,0,0,0,0,0,0,0,0,0,-1,2015,568,0,0
798,456,0,0,0,0,0,0,0,0,0,-1,2022,568,0,0
805,456,0,0,0,0,0,0,0,0,0,-1,2029,568,0,0
812,456,0,0,0,0,0,0,0,0,0,-1,2036,568,0,0
-700,449,0,0,0,0,0,0,0,0,0,-1,524,575,0,0
-693,449,0,0,0,0,0,0,0,0,0,-1,531,575,0,0
-686,449,0,0,0,0,0,0,0,0,0,-1,538,575,0,0
-679,449,0,0,0,0,0,0,0,0,0,-1,545,575,0,0
-672,449,0,0,0,0,0,0,0,0,0,-1,552,575,0,0
-665,449,0,0,0,0,0,0,0,0,0,-1,559,575,0,0
-658,449,0,0,0,0,0,0,0,0,0,-1,566,575,0,0
-651,449,0,0,0,0,0,0,0,0,0,-1,573,575,0,0
-644,449,0,0,0,0,0,0,0,0,0,-1,580,575,0,0
-637,449,0,0,0,0,0,0,0,0,0,-1,587,575,0,0
-630,449,0,0,0,0,0,0,0,0,0,-1,594,575,0,0
-623,449,0,0,0,0,0,0,0,0,0,-1,601,575,0,0
-616,449,0,0,0,0,0,0,0,0,0,-1,608,575,0,0
-609,449,0,0,0,0,0,0,0,0,0,-1,615,575,0,0
-602,449,0,0,0,0,0,0,0,0,0,-1,622,575,0,0
-595,449,0,0,0,0,0,0,0,0,0,-1,629,575,0,0
-588,449,0,0,0,0,0,0,0,0,0,-1,636,575,0,0
-581,449,0,0,0,0,0,0,0,0,0,-1,643,575,0,0
-574,449,0,0,0,0,0,0,0,0,0,-1,650,575,0,0
-567,449,0,0,0,0,0,0,0,0,0,-1,657,575,0,0
-560,449,0,0,0,0,0,0,0,0,0,-1,664,575,0,0
-553,449,0,0,0,0,0,0,0,0,0,-1,671,575,0,0
-546,449,0,0,0,0,0,0,0,0,0,-1,678,575,0,0
-539,449,0,0,0,0,0,0,0,0,0,-1,685,575,0,0
-532,449,0,0,0,0,0,0,0,0,0,-1,692,575,0,0
-525,449,0,0,0,0,0,0,0,0,0,-1,699,575,0,0
-518,449,0,0,0,0,0,0,0,0,0,-1,706,575,0,0
-511,449,-0.941345,-4.4519,0,0,0,0,0,0,0,-1,713,575,-0.941356,4.45191
-504,449,-14.1078,0.318237,0,0,0,0,0,0,0,-1,720,575,-14.1078,-0.318231
-497,449,-8.61292,-3.09009,0,0,0,0,0,0,0,-1,727,575,-8.61291,3.09011
-490,449,-7.50995,-2.96252,0,0,0,0,0,0,0,-1,734,575,-7.50995,2.96251
-483,449,-5.77789,-2.50061,0,0,0,0,0,0,0,-1,741,575,-5.77792,2.50059
-476,449,-4.1723,-2.07739,0,0,0,0,0,0,0,-1,748,575,-4.17228,2.0774
-469,449,-4.02954,-4.56329,0,0,0,0,0,0,0,-1,755,575,-4.02951,4.56329
-462,449,-6.54181,-9.54535,0,0,0,0,0,0,0,-1,762,575,-6.54178,9.54536
-455,449,-6.74561,-9.99408,0,0,0,0,0,0,0,-1,769,575,-6.7456,9.99405
-448,449,-6.51154,-10.842,-0.00276532,0.00940129,-0.00478116,0.0110553,-0.00441933,-1.23774,0.00920404,0.0417802,776,575,-6.51151,10.842
-441,449,-6.5188,-11.6357,-0.00193684,0.00771207,-0.00375983,0.00900412,-0.0032289,-1.23979,0.00732039,0.0200585,783,575,-6.51879,11.6358
-434,449,-6.60303,-12.1876,-0.00120816,0.00622553,-0.00294107,0.00724839,-0.00223102,-1.2361,0.00572278,0.0126047,790,575,-6.60302,12.1876
-427,449,-6.61121,-12.7338,-0.000594897,0.00491071,-0.00226455,0.00572248,-0.00140666,-1.2266,0.00436017,0.0125158,797,575,-6.61123,12.7338
-420,449,-6.61029,-13.2985,-5.78141e-05,0.00368117,-0.00171548,0.00434898,-0.00072562,-1.19956,0.00316901,0.0128656,804,575,-6.61032,13.2984
-413,449,-6.63165,-13.8797,0.000326442,0.00230531,-0.00107857,0.00277953,-0.000147782,-1.15656,0.0019042,0.0103706,811,575,-6.63165,13.8797
-406,449,-6.65607,-14.4523,0.000700142,0.00118358,-0.000529224,0.00152368,0.000360049,-0.999623,0.000919572,0.009364,818,575,-6.65608,14.4522
-399,449,-6.67151,-15.0069,0.00102584,0.0001477,-7.42784e-05,0.00103208,0.000141461,-0.083793,0.00064608,0.00926953,825,575,-6.67153,15.0069
-392,449,-6.67395,-15.5554,0.00138525,-0.000898155,0.000347326,0.00143691,-0.000949817,0.147661,0.00138751,0.0102099,832,575,-6.67396,15.5554
-385,449,-6.69519,-16.0931,0.00177528,-0.00177184,0.000708156,0.00191143,-0.00190799,0.189945,0.00220515,0.0107152,839,575,-6.69518,16.0931
-378,449,-6.73212,-16.6524,0.00210572,-0.0026478,0.00114445,0.0023669,-0.00290899,0.224376,0.00305139,0.0103141,846,575,-6.73209,16.6524
-371,449,-6.73004,-17.227,0.00260758,-0.00325368,0.00150197,0.00297005,-0.00361615,0.236802,0.00380864,0.0161418,853,575,-6.73002,17.227
-364,449,-6.65387,-17.8113,0,0,0,0,0,0,0,-1,860,575,-6.6539,17.8114
-357,449,-5.88049,-15.8704,0,0,0,0,0,0,0,-1,867,575,-5.88051,15.8704
-350,449,-2.8764,-9.90204,0,0,0,0,0,0,0,-1,874,575,-2.87638,9.90203
-343,449,-2.98492,-9.2254,0,0,0,0,0,0,0,-1,881,575,-2.98491,9.22541
-336,449,-1.29523,-9.54626,0,0,0,0,0,0,0,-1,888,575,-1.29525,9.54626
-329,449,-0.733398,-7.78937,0,0,0,0,0,0,0,-1,895,575,-0.733398,7.78937
-322,449,-0.628845,-3.16669,0,0,0,0,0,0,0,-1,902,575,-0.628861,3.16667
-315,449,-0.540344,-3.21918,0,0,0,0,0,0,0,-1,909,575,-0.540336,3.21917
-308,449,-1.04413,-2.99341,0,0,0,0,0,0,0,-1,916,575,-1.04415,2.99338
-301,449,-1.58691,-2.80725,0,0,0,0,0,0,0,-1,923,575,-1.58692,2.80728
-294,449,-3.71118,-2.76086,0,0,0,0,0,0,0,-1,930,575,-3.71119,2.76087
-287,449,-4.4082,-2.69525,0,0,0,0,0,0,0,-1,937,575,-4.40822,2.69526
-280,449,-1.69043,-12.275,0,0,0,0,0,0,0,-1,944,575,-1.69042,12.275
-273,449,0,0,0,0,0,0,0,0,0,-1,951,575,0,0
-266,449,0,0,0,0,0,0,0,0,0,-1,958,575,0,0
-259,449,0,0,0,0,0,0,0,0,0,-1,965,575,0,0
-252,449,0,0,0,0,0,0,0,0,0,-1,972,575,0,0
-245,449,0,0,0,0,0,0,0,0,0,-1,979,575,0,0
-238,449,0,0,0,0,0,0,0,0,0,-1,986,575,0,0
-231,449,0,0,0,0,0,0,0,0,0,-1,993,575,0,0
-224,449,0,0,0,0,0,0,0,0,0,-1,1000,575,0,0
-217,449,0,0,0,0,0,0,0,0,0,-1,1007,575,0,0
-210,449,0,0,0,0,0,0,0,0,0,-1,1014,575,0,0
-203,449,0,0,0,0,0,0,0,0,0,-1,1021,575,0,0
-196,449,0,0,0,0,0,0,0,0,0,-1,1028,575,0,0
-189,449,0,0,0,0,0,0,0,0,0,-1,1035,575,0,0
-182,449,0,0,0,0,0,0,0,0,0,-1,1042,575,0,0
-175,449,0,0,0,0,0,0,0,0,0,-1,1049,575,0,0
-168,449,0,0,0,0,0,0,0,0,0,-1,1056,575,0,0
-161,449,0,0,0,0,0,0,0,0,0,-1,1063,575,0,0
-154,449,0,0,0,0,0,0,0,0,0,-1,1070,575,0,0
-147,449,0,0,0,0,0,0,0,0,0,-1,1077,575,0,0
-140,449,0,0,0,0,0,0,0,0,0,-1,1084,575,0,0
-133,449,0,0,0,0,0,0,0,0,0,-1,1091,575,0,0
-126,449,0,0,0,0,0,0,0,0,0,-1,1098,575,0,0
-119,449,0,0,0,0,0,0,0,0,0,-1,1105,575,0,0
-112,449,0,0,0,0,0,0,0,0,0,-1,1112,575,0,0
-105,449,0,0,0,0,0,0,0,0,0,-1,1119,575,0,0
-98,449,0,0,0,0,0,0,0,0,0,-1,1126,575,0,0
-91,449,0,0,0,0,0,0,0,0,0,-1,1133,575,0,0
-84,449,0,0,0,0,0,0,0,0,0,-1,1140,575,0,0
-77,449,0,0,0,0,0,0,0,0,0,-1,1147,575,0,0
-70,449,0,0,0,0,0,0,0,0,0,-1,1154,575,0,0
-63,449,0,0,0,0,0,0,0,0,0,-1,1161,575,0,0
-56,449,0,0,0,0,0,0,0,0,0,-1,1168,575,0,0
-49,449,0,0,0,0,0,0,0,0,0,-1,1175,575,0,0
-42,449,0,0,0,0,0,0,0,0,0,-1,1182,575,0,0
-35,449,0,0,0,0,0,0,0,0,0,-1,1189,575,0,0
-28,449,0,0,0,0,0,0,0,0,0,-1,1196,575,0,0
-21,449,0,0,0,0,0,0,0,0,0,-1,1203,575,0,0
-14,449,0,0,0,0,0,0,0,0,0,-1,1210,575,0,0
-7,449,0,0,0,0,0,0,0,0,0,-1,1217,575,0,0
0,449,0,0,0,0,0,0,0,0,0,-1,1224,575,0,0
7,449,0,0,0,0,0,0,0,0,0,-1,1231,575,0,0
14,449,0,0,0,0,0,0,0,0,0,-1,1238,575,0,0
21,449,0,0,0,0,0,0,0,0,0,-1,1245,575,0,0
28,449,0,0,0,0,0,0,0,0,0,-1,1252,575,0,0
35,449,0,0,0,0,0,0,0,0,0,-1,1259,575,0,0
42,449,0,0,0,0,0,0,0,0,0,-1,1266,575,0,0
49,449,0,0,0,0,0,0,0,0,0,-1,1273,575,0,0
56,449,0,0,0,0,0,0,0,0,0,-1,1280,575,0,0
63,449,0,0,0,0,0,0,0,0,0,-1,1287,575,0,0
70,449,0,0,0,0,0,0,0,0,0,-1,1294,575,0,0
77,449,0,0,0,0,0,0,0,0,0,-1,1301,575,0,0
84,449,0,0,0,0,0,0,0,0,0,-1,1308,575,0,0
91,449,0,0,0,0,0,0,0,0,0,-1,1315,575,0,0
98,449,0,0,0,0,0,0,0,0,0,-1,1322,575,0,0
105,449,0,0,0,0,0,0,0,0,0,-1,1329,575,0,0
112,449,0,0,0,0,0,0,0,0,0,-1,1336,575,0,0
119,449,0,0,0,0,0,0,0,0,0,-1,1343,575,0,0
126,449,0,0,0,0,0,0,0,0,0,-1,1350,575,0,0
133,449,0,0,0,0,0,0,0,0,0,-1,1357,575,0,0
140,449,0,0,0,0,0,0,0,0,0,-1,1364,575,0,0
147,449,0,0,0,0,0,0,0,0,0,-1,1371,575,0,0
154,449,0,0,0,0,0,0,0,0,0,-1,1378,575,0,0
161,449,0,0,0,0,0,0,0,0,0,-1,1385,575,0,0
168,449,0,0,0,0,0,0,0,0,0,-1,1392,575,0,0
175,449,0,0,0,0,0,0,0,0,0,-1,1399,575,0,0
182,449,0,0,0,0,0,0,0,0,0,-1,1406,575,0,0
189,449,0,0,0,0,0,0,0,0,0,-1,1413,575,0,0
196,449,0,0,0,0,0,0,0,0,0,-1,1420,575,0,0
203,449,0,0,0,0,0,0,0,0,0,-1,1427,575,0,0
210,449,0,0,0,0,0,0,0,0,0,-1,1434,575,0,0
217,449,0,0,0,0,0,0,0,0,0,-1,1441,575,0,0
224,449,0,0,0,0,0,0,0,0,0,-1,1448,575,0,0
231,449,0,0,0,0,0,0,0,0,0,-1,1455,575,0,0
238,449,0,0,0,0,0,0,0,0,0,-1,1462,575,0,0
245,449,0,0,0,0,0,0,0,0,0,-1,1469,575,0,0
252,449,0,0,0,0,0,0,0,0,0,-1,1476,575,0,0
259,449,0,0,0,0,0,0,0,0,0,-1,1483,575,0,0
266,449,0,0,0,0,0,0,0,0,0,-1,1490,575,0,0
273,449,0,0,0,0,0,0,0,0,0,-1,1497,575,0,0
280,449,0,0,0,0,0,0,0,0,0,-1,1504,575,0,0
287,449,0,0,0,0,0,0,0,0,0,-1,1511,575,0,0
294,449,0,0,0,0,0,0,0,0,0,-1,1518,575,0,0
301,449,0,0,0,0,0,0,0,0,0,-1,1525,575,0,0
308,449,0,0,0,0,0,0,0,0,0,-1,1532,575,0,0
315,449,0,0,0,0,0,0,0,0,0,-1,1539,575,0,0
322,449,0,0,0,0,0,0,0,0,0,-1,1546,575,0,0
329,449,0,0,0,0,0,0,0,0,0,-1,1553,575,0,0
336,449,0,0,0,0,0,0,0,0,0,-1,1560,575,0,0
343,449,0,0,0,0,0,0,0,0,0,-1,1567,575,0,0
350,449,0,0,0,0,0,0,0,0,0,-1,1574,575,0,0
357,449,0,0,0,0,0,0,0,0,0,-1,1581,575,0,0
364,449,0,0,0,0,0,0,0,0,0,-1,1588,575,0,0
371,449,0,0,0,0,0,0,0,0,0,-1,1595,575,0,0
378,449,0,0,0,0,0,0,0,0,0,-1,1602,575,0,0
385,449,0,0,0,0,0,0,0,0,0,-1,1609,575,0,0
392,449,7.95471,3.66217,0,0,0,0,0,0,0,-1,1616,575,7.95471,-3.66218
399,449,19.9791,5.565,0,0,0,0,0,0,0,-1,1623,575,19.9791,-5.56499
406,449,24.9847,4.55969,0,0,0,0,0,0,0,-1,1630,575,24.9848,-4.55968
413,449,30.4159,3.15027,0,0,0,0,0,0,0,-1,1637,575,30.4159,-3.15028
420,449,23.9675,1.29718,0,0,0,0,0,0,0,-1,1644,575,23.9675,-1.29721
427,449,24.4276,-0.596558,0,0,0,0,0,0,0,-1,1651,575,24.4277,0.596569
434,449,25.61,-2.96594,0,0,0,0,0,0,0,-1,1658,575,25.61,2.96595
441,449,3.89856,-6.06458,0,0,0,0,0,0,0,-1,1665,575,3.89855,6.06459
448,449,4.03198,-5.18207,0,0,0,0,0,0,0,-1,1672,575,4.03197,5.18207
455,449,4.21948,-4.09467,0,0,0,0,0,0,0,-1,1679,575,4.21952,4.09465
462,449,4.23181,-2.96924,0,0,0,0,0,0,0,-1,1686,575,4.23185,2.96926
469,449,4.51672,-2.95135,0,0,0,0,0,0,0,-1,1693,575,4.51672,2.95135
476,449,4.71838,-1.86688,0,0,0,0,0,0,0,-1,1700,575,4.71842,1.86689
483,449,4.87878,-1.73126,0,0,0,0,0,0,0,-1,1707,575,4.87875,1.73128
490,449,5.73279,-2.74573,0,0,0,0,0,0,0,-1,1714,575,5.73282,2.74575
497,449,17.0422,-16.3264,0,0,0,0,0,0,0,-1,1721,575,17.0423,16.3264
504,449,17.0024,-15.4255,0,0,0,0,0,0,0,-1,1728,575,17.0025,15.4255
511,449,17.0137,-14.8173,0.00244763,0.00170018,0.0011483,0.00328149,0.000866327,0.628074,0.00196365,0.0120701,1735,575,17.0137,14.8173
518,449,17.0076,-14.2219,0.00220576,0.00133827,0.00111246,0.00296605,0.000577986,0.599514,0.00181563,0.0135633,1742,575,17.0076,14.2219
525,449,16.9626,-13.6309,0.00184532,0.00119683,0.00102672,0.00259779,0.000444372,0.632452,0.00160438,0.0131871,1749,575,16.9626,13.6308
532,449,16.927,-13.0513,0.00138756,0.00105929,0.000877189,0.00211584,0.000331011,0.692909,0.00131419,0.0109437,1756,575,16.927,13.0513
539,449,16.8975,-12.4349,0.000924334,0.000960981,0.00073789,0.00168078,0.000204539,0.797812,0.00105894,0.013815,1763,575,16.8975,12.4349
546,449,16.9019,-11.8369,0.000494828,0.000979696,0.000598733,0.00138322,9.13089e-05,0.977765,0.000893264,0.0240739,1770,575,16.9018,11.8368
553,449,16.8772,-11.2751,8.61336e-05,0.0010041,0.000465446,0.0011988,-0.000108569,1.1746,0.00083774,0.0169145,1777,575,16.8772,11.2752
560,449,16.8854,-10.6829,-0.000268808,0.00113403,0.000390577,0.00123544,-0.000370221,1.31676,0.000970855,0.0132372,1784,575,16.8853,10.6829
567,449,16.8407,-10.0652,-0.000449551,0.00135904,0.000432321,0.00145706,-0.000547579,1.34782,0.00119643,0.00982403,1791,575,16.8407,10.0652
574,449,16.8571,-9.43323,-0.000544295,0.00154618,0.000464821,0.00164487,-0.000642989,1.36158,0.00136246,0.0226532,1798,575,16.8571,9.43322
581,449,16.8965,-8.71667,0,0,0,0,0,0,0,-1,1805,575,16.8965,8.71668
588,449,12.3274,-4.5672,0,0,0,0,0,0,0,-1,1812,575,12.3274,4.5672
595,449,15.9352,-5.65479,0,0,0,0,0,0,0,-1,1819,575,15.9352,5.65478
602,449,9.46167,4.17444,0,0,0,0,0,0,0,-1,1826,575,9.46164,-4.17442
609,449,12.2028,3.18652,0,0,0,0,0,0,0,-1,1833,575,12.2027,-3.18655
616,449,14.9438,2.19867,0,0,0,0,0,0,0,-1,1840,575,14.9438,-2.19867
623,449,9.83789,-0.0820313,0,0,0,0,0,0,0,-1,1847,575,9.83794,0.0820443
630,449,8.90686,4.99329,0,0,0,0,0,0,0,-1,1854,575,8.90685,-4.99327
637,449,0,0,0,0,0,0,0,0,0,-1,1861,575,0,0
644,449,0,0,0,0,0,0,0,0,0,-1,1868,575,0,0
651,449,0,0,0,0,0,0,0,0,0,-1,1875,575,0,0
658,449,0,0,0,0,0,0,0,0,0,-1,1882,575,0,0
665,449,0,0,0,0,0,0,0,0,0,-1,1889,575,0,0
672,449,0,0,0,0,0,0,0,0,0,-1,1896,575,0,0
679,449,0,0,0,0,0,0,0,0,0,-1,1903,575,0,0
686,449,0,0,0,0,0,0,0,0,0,-1,1910,575,0,0
693,449,0,0,0,0,0,0,0,0,0,-1,1917,575,0,0
700,449,0,0,0,0,0,0,0,0,0,-1,1924,575,0,0
707,449,0,0,0,0,0,0,0,0,0,-1,1931,575,0,0
714,449,0,0,0,0,0,0,0,0,0,-1,1938,575,0,0
721,449,0,0,0,0,0,0,0,0,0,-1,1945,575,0,0
728,449,0,0,0,0,0,0,0,0,0,-1,1952,575,0,0
735,449,0,0,0,0,0,0,0,0,0,-1,1959,575,0,0
742,449,0,0,0,0,0,0,0,0,0,-1,1966,575,0,0
749,449,0,0,0,0,0,0,0,0,0,-1,1973,575,0,0
756,449,0,0,0,0,0,0,0,0,0,-1,1980,575,0,0
763,449,0,0,0,0,0,0,0,0,0,-1,1987,575,0,0
770,449,0,0,0,0,0,0,0,0,0,-1,1994,575,0,0
777,449,0,0,0,0,0,0,0,0,0,-1,2001,575,0,0
784,449,0,0,0,0,0,0,0,0,0,-1,2008,575,0,0
791,449,0,0,0,0,0,0,0,0,0,-1,2015,575,0,0
798,449,0,0,0,0,0,0,0,0,0,-1,2022,575,0,0
805,449,0,0,0,0,0,0,0,0,0,-1,2029,575,0,0
812,449,0,0,0,0,0,0,0,0,0,-1,2036,575,0,0
-700,442,0,0,0,0,0,0,0,0,0,-1,524,582,0,0
-693,442,0,0,0,0,0,0,0,0,0,-1,531,582,0,0
-686,442,0,0,0,0,0,0,0,0,0,-1,538,582,0,0
-679,442,0,0,0,0,0,0,0,0,0,-1,545,582,0,0
-672,442,0,0,0,0,0,0,0,0,0,-1,552,582,0,0
-665,442,0,0,0,0,0,0,0,0,0,-1,559,582,0,0
-658,442,0,0,0,0,0,0,0,0,0,-1,566,582,0,0
-651,442,0,0,0,0,0,0,0,0,0,-1,573,582,0,0
-644,442,0,0,0,0,0,0,0,0,0,-1,580,582,0,0
-637,442,0,0,0,0,0,0,0,0,0,-1,587,582,0,0
-630,442,0,0,0,0,0,0,0,0,0,-1,594,582,0,0
-623,442,0,0,0,0,0,0,0,0,0,-1,601,582,0,0
-616,442,0,0,0,0,0,0,0,0,0,-1,608,582,0,0
-609,442,0,0,0,0,0,0,0,0,0,-1,615,582,0,0
-602,442,0,0,0,0,0,0,0,0,0,-1,622,582,0,0
-595,442,0,0,0,0,0,0,0,0,0,-1,629,582,0,0
-588,442,0,0,0,0,0,0,0,0,0,-1,636,582,0,0
-581,442,0,0,0,0,0,0,0,0,0,-1,643,582,0,0
-574,442,0,0,0,0,0,0,0,0,0,-1,650,582,0,0
-567,442,0,0,0,0,0,0,0,0,0,-1,657,582,0,0
-560,442,0,0,0,0,0,0,0,0,0,-1,664,582,0,0
-553,442,0,0,0,0,0,0,0,0,0,-1,671,582,0,0
-546,442,0,0,0,0,0,0,0,0,0,-1,678,582,0,0
-539,442,0,0,0,0,0,0,0,0,0,-1,685,582,0,0
-532,442,0,0,0,0,0,0,0,0,0,-1,692,582,0,0
-525,442,0,0,0,0,0,0,0,0,0,-1,699,582,0,0
-518,442,-0.493774,-5.72943,0,0,0,0,0,0,0,-1,706,582,-0.493791,5.72946
-511,442,-1.33008,-6.18512,0,0,0,0,0,0,0,-1,713,582,-1.33006,6.18511
-504,442,-3.20807,-6.34082,0,0,0,0,0,0,0,-1,720,582,-3.2081,6.34083
-497,442,-13.6886,-0.250122,0,0,0,0,0,0,0,-1,727,582,-13.6886,0.250143
-490,442,-9.09039,-3.64862,0,0,0,0,0,0,0,-1,734,582,-9.09037,3.64861
-483,442,-7.36499,-1.01892,0,0,0,0,0,0,0,-1,741,582,-7.365,1.01895
-476,442,-4.84369,-4.14868,0,0,0,0,0,0,0,-1,748,582,-4.84367,4.14867
-469,442,-6.75372,-8.58112,0,0,0,0,0,0,0,-1,755,582,-6.7537,8.58112
-462,442,-6.99615,-9.66223,-0.00366535,0.0104714,-0.00623035,0.0128253,-0.00601924,-1.20956,0.0111139,0.0460841,762,582,-6.99614,9.66225
-455,442,-7.19214,-10.3517,-0.00284514,0.00885735,-0.00501553,0.0107128,-0.00470055,-1.21647,0.00912176,0.0442039,769,582,-7.19212,10.3517
-448,442,-7.07117,-10.966,-0.00218177,0.00708652,-0.00384893,0.00847646,-0.00357171,-1.22425,0.00714556,0.0181242,776,582,-7.07119,10.966
-441,442,-7.1217,-11.5802,-0.00155373,0.00553378,-0.00287077,0.00655068,-0.00257063,-1.23036,0.00543073,0.0151129,783,582,-7.12168,11.5802
-434,442,-7.15466,-12.1673,-0.000967602,0.0042087,-0.00207635,0.00493865,-0.00169755,-1.23274,0.00398081,0.0135307,790,582,-7.15464,12.1673
-427,442,-7.17865,-12.718,-0.000447664,0.0030193,-0.00142009,0.00352671,-0.000955076,-1.22762,0.00272585,0.0129458,797,582,-7.17865,12.718
-420,442,-7.17511,-13.2945,4.48717e-05,0.00193461,-0.000898689,0.00229374,-0.000314261,-1.19062,0.00164396,0.013474,804,582,-7.17508,13.2945
-413,442,-7.18488,-13.8748,0.000428084,0.000750235,-0.000320525,0.000947882,0.000230437,-1.01824,0.000570829,0.0113509,811,582,-7.18485,13.8747
-406,442,-7.2088,-14.442,0.00081239,-0.000185002,0.000142003,0.000832214,-0.000204826,0.138703,0.000634207,0.00926206,818,582,-7.2088,14.442
-399,442,-7.22882,-14.9988,0.00120776,-0.0010026,0.000473195,0.0013048,-0.00109964,0.202273,0.00138989,0.00838343,825,582,-7.22884,14.9988
-392,442,-7.24426,-15.5457,0.00169349,-0.00177038,0.000743888,0.00184649,-0.00192337,0.202843,0.00217668,0.0105024,832,582,-7.24423,15.5457
-385,442,-7.27228,-16.0725,0.00220107,-0.00235442,0.000948007,0.00239048,-0.00254382,0.197199,0.00284928,0.0125799,839,582,-7.2723,16.0725
-378,442,-7.28577,-16.6443,0.00263833,-0.00298694,0.0012731,0.00291304,-0.00326165,0.212522,0.00356685,0.0151423,846,582,-7.28576,16.6443
-371,442,-7.25958,-17.2996,0,0,0,0,0,0,0,-1,853,582,-7.25961,17.2996
-364,442,-6.89764,-17.5333,0,0,0,0,0,0,0,-1,860,582,-6.89765,17.5333
-357,442,-4.9115,-11.2649,0,0,0,0,0,0,0,-1,867,582,-4.91147,11.2649
-350,442,-1.75372,-6.27618,0,0,0,0,0,0,0,-1,874,582,-1.75371,6.27618
-343,442,-1.4599,-4.63605,0,0,0,0,0,0,0,-1,881,582,-1.4599,4.63607
-336,442,-1.4054,-2.64313,0,0,0,0,0,0,0,-1,888,582,-1.40539,2.64315
-329,442,-0.952576,-2.76923,0,0,0,0,0,0,0,-1,895,582,-0.952571,2.7692
-322,442,-0.972534,-2.63208,0,0,0,0,0,0,0,-1,902,582,-0.972512,2.6321
-315,442,-0.445557,-2.89764,0,0,0,0,0,0,0,-1,909,582,-0.445582,2.89765
-308,442,-0.654175,-3.07831,0,0,0,0,0,0,0,-1,916,582,-0.654145,3.07832
-301,442,-1.37427,-2.41455,0,0,0,0,0,0,0,-1,923,582,-1.37425,2.41453
-294,442,-2.99963,-2.07855,0,0,0,0,0,0,0,-1,930,582,-2.99964,2.07857
-287,442,-2.26624,-4.73987,0,0,0,0,0,0,0,-1,937,582,-2.26626,4.73987
-280,442,0,0,0,0,0,0,0,0,0,-1,944,582,0,0
-273,442,0,0,0,0,0,0,0,0,0,-1,951,582,0,0
-266,442,0,0,0,0,0,0,0,0,0,-1,958,582,0,0
-259,442,0,0,0,0,0,0,0,0,0,-1,965,582,0,0
-252,442,0,0,0,0,0,0,0,0,0,-1,972,582,0,0
-245,442,0,0,0,0,0,0,0,0,0,-1,979,582,0,0
-238,442,0,0,0,0,0,0,0,0,0,-1,986,582,0,0
-231,442,0,0,0,0,0,0,0,0,0,-1,993,582,0,0
-224,442,0,0,0,0,0,0,0,0,0,-1,1000,582,0,0
-217,442,0,0,0,0,0,0,0,0,0,-1,1007,582,0,0
-210,442,0,0,0,0,0,0,0,0,0,-1,1014,582,0,0
-203,442,0,0,0,0,0,0,0,0,0,-1,1021,582,0,0
-196,442,0,0,0,0,0,0,0,0,0,-1,1028,582,0,0
-189,442,0,0,0,0,0,0,0,0,0,-1,1035,582,0,0
-182,442,0,0,0,0,0,0,0,0,0,-1,1042,582,0,0
-175,442,0,0,0,0,0,0,0,0,0,-1,1049,582,0,0
-168,442,0,0,0,0,0,0,0,0,0,-1,1056,582,0,0
-161,442,0,0,0,0,0,0,0,0,0,-1,1063,582,0,0
-154,442,0,0,0,0,0,0,0,0,0,-1,1070,582,0,0
-147,442,0,0,0,0,0,0,0,0,0,-1,1077,582,0,0
-140,442,0,0,0,0,0,0,0,0,0,-1,1084,582,0,0
-133,442,0,0,0,0,0,0,0,0,0,-1,1091,582,0,0
-126,442,0,0,0,0,0,0,0,0,0,-1,1098,582,0,0
-119,442,0,0,0,0,0,0,0,0,0,-1,1105,582,0,0
-112,442,0,0,0,0,0,0,0,0,0,-1,1112,582,0,0
-105,442,0,0,0,0,0,0,0,0,0,-1,1119,582,0,0
-98,442,0,0,0,0,0,0,0,0,0,-1,1126,582,0,0
-91,442,0,0,0,0,0,0,0,0,0,-1,1133,582,0,0
-84,442,0,0,0,0,0,0,0,0,0,-1,1140,582,0,0
-77,442,0,0,0,0,0,0,0,0,0,-1,1147,582,0,0
-70,442,0,0,0,0,0,0,0,0,0,-1,1154,582,0,0
-63,442,0,0,0,0,0,0,0,0,0,-1,1161,582,0,0
-56,442,0,0,0,0,0,0,0,0,0,-1,1168,582,0,0
-49,442,0,0,0,0,0,0,0,0,0,-1,1175,582,0,0
-42,442,0,0,0,0,0,0,0,0,0,-1,1182,582,0,0
-35,442,0,0,0,0,0,0,0,0,0,-1,1189,582,0,0
-28,442,0,0,0,0,0,0,0,0,0,-1,1196,582,0,0
-21,442,0,0,0,0,0,0,0,0,0,-1,1203,582,0,0
-14,442,0,0,0,0,0,0,0,0,0,-1,1210,582,0,0
-7,442,0,0,0,0,0,0,0,0,0,-1,1217,582,0,0
0,442,0,0,0,0,0,0,0,0,0,-1,1224,582,0,0
7,442,0,0,0,0,0,0,0,0,0,-1,1231,582,0,0
14,442,0,0,0,0,0,0,0,0,0,-1,1238,582,0,0
21,442,0,0,0,0,0,0,0,0,0,-1,1245,582,0,0
28,442,0,0,0,0,0,0,0,0,0,-1,1252,582,0,0
35,442,0,0,0,0,0,0,0,0,0,-1,1259,582,0,0
42,442,0,0,0,0,0,0,0,0,0,-1,1266,582,0,0
49,442,0,0,0,0,0,0,0,0,0,-1,1273,582,0,0
56,442,0,0,0,0,0,0,0,0,0,-1,1280,582,0,0
63,442,0,0,0,0,0,0,0,0,0,-1,1287,582,0,0
70,442,0,0,0,0,0,0,0,0,0,-1,1294,582,0,0
77,442,0,0,0,0,0,0,0,0,0,-1,1301,582,0,0
84,442,0,0,0,0,0,0,0,0,0,-1,1308,582,0,0
91,442,0,0,0,0,0,0,0,0,0,-1,1315,582,0,0
98,442,0,0,0,0,0,0,0,0,0,-1,1322,582,0,0
105,442,0,0,0,0,0,0,0,0,0,-1,1329,582,0,0
112,442,0,0,0,0,0,0,0,0,0,-1,1336,582,0,0
119,442,0,0,0,0,0,0,0,0,0,-1,1343,582,0,0
126,442,0,0,0,0,0,0,0,0,0,-1,1350,582,0,0
133,442,0,0,0,0,0,0,0,0,0,-1,1357,582,0,0
140,442,0,0,0,0,0,0,0,0,0,-1,1364,582,0,0
147,442,0,0,0,0,0,0,0,0,0,-1,1371,582,0,0
154,442,0,0,0,0,0,0,0,0,0,-1,1378,582,0,0
161,442,0,0,0,0,0,0,0,0,0,-1,1385,582,0,0
168,442,0,0,0,0,0,0,0,0,0,-1,1392,582,0,0
175,442,0,0,0,0,0,0,0,0,0,-1,1399,582,0,0
182,442,0,0,0,0,0,0,0,0,0,-1,1406,582,0,0
189,442,0,0,0,0,0,0,0,0,0,-1,1413,582,0,0
196,442,0,0,0,0,0,0,0,0,0,-1,1420,582,0,0
203,442,0,0,0,0,0,0,0,0,0,-1,1427,582,0,0
210,442,0,0,0,0,0,0,0,0,0,-1,1434,582,0,0
217,442,0,0,0,0,0,0,0,0,0,-1,1441,582,0,0
224,442,0,0,0,0,0,0,0,0,0,-1,1448,582,0,0
231,442,0,0,0,0,0,0,0,0,0,-1,1455,582,0,0
238,442,0,0,0,0,0,0,0,0,0,-1,1462,582,0,0
245,442,0,0,0,0,0,0,0,0,0,-1,1469,582,0,0
252,442,0,0,0,0,0,0,0,0,0,-1,1476,582,0,0
259,442,0,0,0,0,0,0,0,0,0,-1,1483,582,0,0
266,442,0,0,0,0,0,0,0,0,0,-1,1490,582,0,0
273,442,0,0,0,0,0,0,0,0,0,-1,1497,582,0,0
280,442,0,0,0,0,0,0,0,0,0,-1,1504,582,0,0
287,442,0,0,0,0,0,0,0,0,0,-1,1511,582,0,0
294,442,0,0,0,0,0,0,0,0,0,-1,1518,582,0,0
301,442,0,0,0,0,0,0,0,0,0,-1,1525,582,0,0
308,442,0,0,0,0,0,0,0,0,0,-1,1532,582,0,0
315,442,0,0,0,0,0,0,0,0,0,-1,1539,582,0,0
322,442,0,0,0,0,0,0,0,0,0,-1,1546,582,0,0
329,442,0,0,0,0,0,0,0,0,0,-1,1553,582,0,0
336,442,0,0,0,0,0,0,0,0,0,-1,1560,582,0,0
343,442,0,0,0,0,0,0,0,0,0,-1,1567,582,0,0
350,442,0,0,0,0,0,0,0,0,0,-1,1574,582,0,0
357,442,0,0,0,0,0,0,0,0,0,-1,1581,582,0,0
364,442,0,0,0,0,0,0,0,0,0,-1,1588,582,0,0
371,442,0,0,0,0,0,0,0,0,0,-1,1595,582,0,0
378,442,0,0,0,0,0,0,0,0,0,-1,1602,582,0,0
385,442,0,0,0,0,0,0,0,0,0,-1,1609,582,0,0
392,442,0,0,0,0,0,0,0,0,0,-1,1616,582,0,0
399,442,0,0,0,0,0,0,0,0,0,-1,1623,582,0,0
406,442,17.6321,4.08295,0,0,0,0,0,0,0,-1,1630,582,17.6321,-4.08293
413,442,25.4768,2.74445,0,0,0,0,0,0,0,-1,1637,582,25.4768,-2.74444
420,442,22.7478,1.55011,0,0,0,0,0,0,0,-1,1644,582,22.7478,-1.55009
427,442,23.2969,-0.456787,0,0,0,0,0,0,0,-1,1651,582,23.2968,0.456769
434,442,23.9512,-2.49365,0,0,0,0,0,0,0,-1,1658,582,23.9512,2.49366
441,442,24.8251,-4.43958,0,0,0,0,0,0,0,-1,1665,582,24.8251,4.43956
448,442,4.7749,-5.88562,0,0,0,0,0,0,0,-1,1672,582,4.7749,5.8856
455,442,4.87024,-4.60687,0,0,0,0,0,0,0,-1,1679,582,4.87019,4.60686
462,442,5.02307,-3.72821,0,0,0,0,0,0,0,-1,1686,582,5.02311,3.7282
469,442,5.12976,-2.98834,0,0,0,0,0,0,0,-1,1693,582,5.12971,2.98834
476,442,5.4624,1.76947,0,0,0,0,0,0,0,-1,1700,582,5.46234,-1.76944
483,442,5.98486,1.87042,0,0,0,0,0,0,0,-1,1707,582,5.98492,-1.87045
490,442,5.04407,-2.35834,0,0,0,0,0,0,0,-1,1714,582,5.04411,2.35837
497,442,6.20984,-3.07831,0,0,0,0,0,0,0,-1,1721,582,6.2098,3.07833
504,442,17.4924,-15.4713,0,0,0,0,0,0,0,-1,1728,582,17.4924,15.4713
511,442,17.5449,-14.8099,0.00306497,0.00209813,0.00140033,0.00406297,0.00110012,0.619193,0.00242654,0.0355705,1735,582,17.5449,14.8099
518,442,17.5911,-14.1811,0.00290209,0.00155079,0.00135897,0.0037441,0.000708779,0.554703,0.00229656,0.0122395,1742,582,17.591,14.1811
525,442,17.5525,-13.606,0.00255336,0.00138447,0.00128136,0.00337727,0.00056056,0.571437,0.00208987,0.0108045,1749,582,17.5525,13.606
532,442,17.5347,-13.0146,0.00208689,0.00116316,0.00111096,0.00282817,0.000421881,0.588401,0.00176174,0.0109289,1756,582,17.5346,13.0146
539,442,17.5096,-12.4056,0.00163372,0.00103031,0.000974311,0.00235197,0.000312061,0.635252,0.001475,0.0123052,1763,582,17.5097,12.4056
546,442,17.5044,-11.8453,0.00121376,0.00100241,0.000839839,0.00195454,0.000261621,0.722813,0.00122517,0.0167712,1770,582,17.5044,11.8454
553,442,17.4646,-11.2665,0.00081564,0.00095345,0.00071027,0.00159815,0.000170941,0.833753,0.00101327,0.0177692,1777,582,17.4646,11.2665
560,442,17.4589,-10.6541,0.000454222,0.00102927,0.000632342,0.00143639,4.71061e-05,0.998776,0.000942284,0.0145093,1784,582,17.4588,10.6541
567,442,17.4171,-10.045,0.000256111,0.00120686,0.00067176,0.00155444,-9.14607e-05,1.09332,0.00106808,0.0100865,1791,582,17.4171,10.045
574,442,17.4092,-9.42419,0.000183003,0.00139301,0.000736699,0.0017413,-0.000165279,1.12918,0.0012197,0.01185,1798,582,17.4091,9.42417
581,442,17.4626,-8.72565,0.000236244,0.00161642,0.0008451,0.00201739,-0.00016473,1.12778,0.00140307,0.0265667,1805,582,17.4626,8.72565
588,442,17.574,-8.00983,0,0,0,0,0,0,0,-1,1812,582,17.574,8.00983
595,442,16.27,-6.47083,0,0,0,0,0,0,0,-1,1819,582,16.27,6.47082
602,442,16.2213,-4.49225,0,0,0,0,0,0,0,-1,1826,582,16.2213,4.49223
609,442,12.761,2.97223,0,0,0,0,0,0,0,-1,1833,582,12.761,-2.97221
616,442,9.78345,-0.103394,0,0,0,0,0,0,0,-1,1840,582,9.78341,0.103424
623,442,9.23828,0.326721,0,0,0,0,0,0,0,-1,1847,582,9.23829,-0.326727
630,442,7.74304,2.3924,0,0,0,0,0,0,0,-1,1854,582,7.7431,-2.39238
637,442,5.87805,1.84027,0,0,0,0,0,0,0,-1,1861,582,5.87807,-1.84025
644,442,0,0,0,0,0,0,0,0,0,-1,1868,582,0,0
651,442,0,0,0,0,0,0,0,0,0,-1,1875,582,0,0
658,442,0,0,0,0,0,0,0,0,0,-1,1882,582,0,0
665,442,0,0,0,0,0,0,0,0,0,-1,1889,582,0,0
672,442,0,0,0,0,0,0,0,0,0,-1,1896,582,0,0
679,442,0,0,0,0,0,0,0,0,0,-1,1903,582,0,0
686,442,0,0,0,0,0,0,0,0,0,-1,1910,582,0,0
693,442,0,0,0,0,0,0,0,0,0,-1,1917,582,0,0
700,442,0,0,0,0,0,0,0,0,0,-1,1924,582,0,0
707,442,0,0,0,0,0,0,0,0,0,-1,1931,582,0,0
714,442,0,0,0,0,0,0,0,0,0,-1,1938,582,0,0
721,442,0,0,0,0,0,0,0,0,0,-1,1945,582,0,0
728,442,0,0,0,0,0,0,0,0,0,-1,1952,582,0,0
735,442,0,0,0,0,0,0,0,0,0,-1,1959,582,0,0
742,442,0,0,0,0,0,0,0,0,0,-1,1966,582,0,0
749,442,0,0,0,0,0,0,0,0,0,-1,1973,582,0,0
756,442,0,0,0,0,0,0,0,0,0,-1,1980,582,0,0
763,442,0,0,0,0,0,0,0,0,0,-1,1987,582,0,0
770,442,0,0,0,0,0,0,0,0,0,-1,1994,582,0,0
777,442,0,0,0,0,0,0,0,0,0,-1,2001,582,0,0
784,442,0,0,0,0,0,0,0,0,0,-1,2008,582,0,0
791,442,0,0,0,0,0,0,0,0,0,-1,2015,582,0,0
798,442,0,0,0,0,0,0,0,0,0,-1,2022,582,0,0
805,442,0,0,0,0,0,0,0,0,0,-1,2029,582,0,0
812,442,0,0,0,0,0,0,0,0,0,-1,2036,582,0,0
-700,435,0,0,0,0,0,0,0,0,0,-1,524,589,0,0
-693,435,0,0,0,0,0,0,0,0,0,-1,531,589,0,0
-686,435,0,0,0,0,0,0,0,0,0,-1,538,589,0,0
-679,435,0,0,0,0,0,0,0,0,0,-1,545,589,0,0
-672,435,0,0,0,0,0,0,0,0,0,-1,552,589,0,0
-665,435,0,0,0,0,0,0,0,0,0,-1,559,589,0,0
-658,435,0,0,0,0,0,0,0,0,0,-1,566,589,0,0
-651,435,0,0,0,0,0,0,0,0,0,-1,573,589,0,0
-644,435,0,0,0,0,0,0,0,0,0,-1,580,589,0,0
-637,435,0,0,0,0,0,0,0,0,0,-1,587,589,0,0
-630,435,0,0,0,0,0,0,0,0,0,-1,594,589,0,0
-623,435,0,0,0,0,0,0,0,0,0,-1,601,589,0,0
-616,435,0,0,0,0,0,0,0,0,0,-1,608,589,0,0
-609,435,0,0,0,0,0,0,0,0,0,-1,615,589,0,0
-602,435,0,0,0,0,0,0,0,0,0,-1,622,589,0,0
-595,435,0,0,0,0,0,0,0,0,0,-1,629,589,0,0
-588,435,0,0,0,0,0,0,0,0,0,-1,636,589,0,0
-581,435,0,0,0,0,0,0,0,0,0,-1,643,589,0,0
-574,435,0,0,0,0,0,0,0,0,0,-1,650,589,0,0
-567,435,0,0,0,0,0,0,0,0,0,-1,657,589,0,0
-560,435,0,0,0,0,0,0,0,0,0,-1,664,589,0,0
-553,435,0,0,0,0,0,0,0,0,0,-1,671,589,0,0
-546,435,0,0,0,0,0,0,0,0,0,-1,678,589,0,0
-539,435,0,0,0,0,0,0,0,0,0,-1,685,589,0,0
-532,435,0,0,0,0,0,0,0,0,0,-1,692,589,0,0
-525,435,-10.0776,10.0547,0,0,0,0,0,0,0,-1,699,589,-10.0776,-10.0547
-518,435,-1.83093,-5.82367,0,0,0,0,0,0,0,-1,706,589,-1.83093,5.8237
-511,435,-2.45154,-5.33118,0,0,0,0,0,0,0,-1,713,589,-2.45151,5.33115
-504,435,-3.07208,-4.83862,0,0,0,0,0,0,0,-1,720,589,-3.0721,4.8386
-497,435,-6.31012,-5.84698,0,0,0,0,0,0,0,-1,727,589,-6.31012,5.84697
-490,435,-5.81903,-0.458679,0,0,0,0,0,0,0,-1,734,589,-5.81902,0.458684
-483,435,-6.96503,-3.01624,0,0,0,0,0,0,0,-1,741,589,-6.96505,3.01623
-476,435,-7.66174,-7.9057,0,0,0,0,0,0,0,-1,748,589,-7.66174,7.9057
-469,435,-7.55505,-8.73254,-0.00343353,0.0104184,-0.00631904,0.0128679,-0.00588303,-1.20099,0.0110734,0.0379682,755,589,-7.55507,8.73255
-462,435,-7.5235,-9.71375,-0.00268266,0.00857018,-0.00517712,0.0105896,-0.0047021,-1.19888,0.00904417,0.0234794,762,589,-7.52348,9.71374
-455,435,-7.67493,-10.3279,-0.00204458,0.00702201,-0.00411329,0.00860999,-0.00363255,-1.20237,0.00726035,0.0212841,769,589,-7.6749,10.3279
-448,435,-7.67029,-10.9829,-0.00148425,0.00538639,-0.00309132,0.00657251,-0.00267037,-1.20443,0.00549261,0.0133153,776,589,-7.67032,10.9829
-441,435,-7.68396,-11.5569,-0.000959173,0.00397633,-0.00221885,0.00482718,-0.00181002,-1.20463,0.00396177,0.0114819,783,589,-7.68396,11.5569
-434,435,-7.71368,-12.1105,-0.000458842,0.00279305,-0.00149552,0.00337624,-0.00104203,-1.19898,0.00266692,0.012506,790,589,-7.71366,12.1106
-427,435,-7.74353,-12.705,-3.66198e-06,0.00169819,-0.00088376,0.00207409,-0.000379564,-1.16863,0.00152508,0.0102449,797,589,-7.7435,12.7049
-420,435,-7.74927,-13.2752,0.000438916,0.000702778,-0.000388302,0.000980949,0.000160744,-0.949162,0.000607515,0.0103887,804,589,-7.74924,13.2752
-413,435,-7.7619,-13.8455,0.000791622,-0.000345143,0.000145048,0.000809838,-0.000363359,0.124931,0.000693503,0.01192,811,589,-7.76191,13.8455
-406,435,-7.78186,-14.408,0.00111789,-0.00119606,0.000562812,0.00124752,-0.00132569,0.226375,0.00148587,0.0119498,818,589,-7.78188,14.408
-399,435,-7.80884,-14.9622,0.00148538,-0.00193493,0.00084025,0.00168065,-0.00213021,0.228343,0.0022053,0.00934452,825,589,-7.80884,14.9622
-392,435,-7.84198,-15.5225,0.00198721,-0.00257285,0.00105175,0.0022181,-0.00280374,0.216101,0.00290593,0.0101997,832,589,-7.84198,15.5225
-385,435,-7.84076,-16.074,0.00247602,-0.00304866,0.00121199,0.00273021,-0.00330285,0.206731,0.00348842,0.0190915,839,589,-7.84077,16.074
-378,435,-7.87036,-16.5155,0.00287723,-0.00365523,0.00156264,0.00323178,-0.00400979,0.223119,0.00418896,0.0414579,846,589,-7.87035,16.5155
-371,435,-8.11719,-17.0409,0,0,0,0,0,0,0,-1,853,589,-8.1172,17.0409
-364,435,-5.62848,-11.5937,0,0,0,0,0,0,0,-1,860,589,-5.62847,11.5937
-357,435,-5.57343,-10.9666,0,0,0,0,0,0,0,-1,867,589,-5.57342,10.9666
-350,435,-0.86676,-3.69836,0,0,0,0,0,0,0,-1,874,589,-0.866784,3.69834
-343,435,-1.60706,-2.36835,0,0,0,0,0,0,0,-1,881,589,-1.60706,2.36838
-336,435,-2.07263,-1.94012,0,0,0,0,0,0,0,-1,888,589,-2.07265,1.94014
-329,435,-2.55963,-1.5517,0,0,0,0,0,0,0,-1,895,589,-2.5596,1.55168
-322,435,-3.08545,-1.55255,0,0,0,0,0,0,0,-1,902,589,-3.08544,1.55254
-315,435,-0.404297,-2.63763,0,0,0,0,0,0,0,-1,909,589,-0.404276,2.63761
-308,435,-1.70056,-1.90369,0,0,0,0,0,0,0,-1,916,589,-1.70056,1.90367
-301,435,-1.25232,-2.05511,0,0,0,0,0,0,0,-1,923,589,-1.25234,2.05514
-294,435,-1.79974,-1.97321,0,0,0,0,0,0,0,-1,930,589,-1.79973,1.97322
-287,435,0,0,0,0,0,0,0,0,0,-1,937,589,0,0
-280,435,0,0,0,0,0,0,0,0,0,-1,944,589,0,0
-273,435,0,0,0,0,0,0,0,0,0,-1,951,589,0,0
-266,435,0,0,0,0,0,0,0,0,0,-1,958,589,0,0
-259,435,0,0,0,0,0,0,0,0,0,-1,965,589,0,0
-252,435,0,0,0,0,0,0,0,0,0,-1,972,589,0,0
-245,435,0,0,0,0,0,0,0,0,0,-1,979,589,0,0
-238,435,0,0,0,0,0,0,0,0,0,-1,986,589,0,0
-231,435,0,0,0,0,0,0,0,0,0,-1,993,589,0,0
-224,435,0,0,0,0,0,0,0,0,0,-1,1000,589,0,0
-217,435,0,0,0,0,0,0,0,0,0,-1,1007,589,0,0
-210,435,0,0,0,0,0,0,0,0,0,-1,1014,589,0,0
-203,435,0,0,0,0,0,0,0,0,0,-1,1021,589,0,0
-196,435,0,0,0,0,0,0,0,0,0,-1,1028,589,0,0
-189,435,0,0,0,0,0,0,0,0,0,-1,1035,589,0,0
-182,435,0,0,0,0,0,0,0,0,0,-1,1042,589,0,0
-175,435,0,0,0,0,0,0,0,0,0,-1,1049,589,0,0
-168,435,0,0,0,0,0,0,0,0,0,-1,1056,589,0,0
-161,435,0,0,0,0,0,0,0,0,0,-1,1063,589,0,0
-154,435,0,0,0,0,0,0,0,0,0,-1,1070,589,0,0
-147,435,0,0,0,0,0,0,0,0,0,-1,1077,589,0,0
-140,435,0,0,0,0,0,0,0,0,0,-1,1084,589,0,0
-133,435,0,0,0,0,0,0,0,0,0,-1,1091,589,0,0
-126,435,0,0,0,0,0,0,0,0,0,-1,1098,589,0,0
-119,435,0,0,0,0,0,0,0,0,0,-1,1105,589,0,0
-112,435,0,0,0,0,0,0,0,0,0,-1,1112,589,0,0
-105,435,0,0,0,0,0,0,0,0,0,-1,1119,589,0,0
-98,435,0,0,0,0,0,0,0,0,0,-1,1126,589,0,0
-91,435,0,0,0,0,0,0,0,0,0,-1,1133,589,0,0
-84,435,0,0,0,0,0,0,0,0,0,-1,1140,589,0,0
-77,435,0,0,0,0,0,0,0,0,0,-1,1147,589,0,0
-70,435,0,0,0,0,0,0,0,0,0,-1,1154,589,0,0
-63,435,0,0,0,0,0,0,0,0,0,-1,1161,589,0,0
-56,435,0,0,0,0,0,0,0,0,0,-1,1168,589,0,0
-49,435,0,0,0,0,0,0,0,0,0,-1,1175,589,0,0
-42,435,0,0,0,0,0,0,0,0,0,-1,1182,589,0,0
-35,435,0,0,0,0,0,0,0,0,0,-1,1189,589,0,0
-28,435,0,0,0,0,0,0,0,0,0,-1,1196,589,0,0
-21,435,0,0,0,0,0,0,0,0,0,-1,1203,589,0,0
-14,435,0,0,0,0,0,0,0,0,0,-1,1210,589,0,0
-7,435,0,0,0,0,0,0,0,0,0,-1,1217,589,0,0
0,435,0,0,0,0,0,0,0,0,0,-1,1224,589,0,0
7,435,0,0,0,0,0,0,0,0,0,-1,1231,589,0,0
14,435,0,0,0,0,0,0,0,0,0,-1,1238,589,0,0
21,435,0,0,0,0,0,0,0,0,0,-1,1245,589,0,0
28,435,0,0,0,0,0,0,0,0,0,-1,1252,589,0,0
35,435,0,0,0,0,0,0,0,0,0,-1,1259,589,0,0
42,435,0,0,0,0,0,0,0,0,0,-1,1266,589,0,0
49,435,0,0,0,0,0,0,0,0,0,-1,1273,589,0,0
56,435,0,0,0,0,0,0,0,0,0,-1,1280,589,0,0
63,435,0,0,0,0,0,0,0,0,0,-1,1287,589,0,0
70,435,0,0,0,0,0,0,0,0,0,-1,1294,589,0,0
77,435,0,0,0,0,0,0,0,0,0,-1,1301,589,0,0
84,435,0,0,0,0,0,0,0,0,0,-1,1308,589,0,0
91,435,0,0,0,0,0,0,0,0,0,-1,1315,589,0,0
98,435,0,0,0,0,0,0,0,0,0,-1,1322,589,0,0
105,435,0,0,0,0,0,0,0,0,0,-1,1329,589,0,0
112,435,0,0,0,0,0,0,0,0,0,-1,1336,589,0,0
119,435,0,0,0,0,0,0,0,0,0,-1,1343,589,0,0
126,435,0,0,0,0,0,0,0,0,0,-1,1350,589,0,0
133,435,0,0,0,0,0,0,0,0,0,-1,1357,589,0,0
140,435,0,0,0,0,0,0,0,0,0,-1,1364,589,0,0
147,435,0,0,0,0,0,0,0,0,0,-1,1371,589,0,0
154,435,0,0,0,0,0,0,0,0,0,-1,1378,589,0,0
161,435,0,0,0,0,0,0,0,0,0,-1,1385,589,0,0
168,435,0,0,0,0,0,0,0,0,0,-1,1392,589,0,0
175,435,0,0,0,0,0,0,0,0,0,-1,1399,589,0,0
182,435,0,0,0,0,0,0,0,0,0,-1,1406,589,0,0
189,435,0,0,0,0,0,0,0,0,0,-1,1413,589,0,0
196,435,0,0,0,0,0,0,0,0,0,-1,1420,589,0,0
203,435,0,0,0,0,0,0,0,0,0,-1,1427,589,0,0
210,435,0,0,0,0,0,0,0,0,0,-1,1434,589,0,0
217,435,0,0,0,0,0,0,0,0,0,-1,1441,589,0,0
224,435,0,0,0,0,0,0,0,0,0,-1,1448,589,0,0
231,435,0,0,0,0,0,0,0,0,0,-1,1455,589,0,0
238,435,0,0,0,0,0,0,0,0,0,-1,1462,589,0,0
245,435,0,0,0,0,0,0,0,0,0,-1,1469,589,0,0
252,435,0,0,0,0,0,0,0,0,0,-1,1476,589,0,0
259,435,0,0,0,0,0,0,0,0,0,-1,1483,589,0,0
266,435,0,0,0,0,0,0,0,0,0,-1,1490,589,0,0
273,435,0,0,0,0,0,0,0,0,0,-1,1497,589,0,0
280,435,0,0,0,0,0,0,0,0,0,-1,1504,589,0,0
287,435,0,0,0,0,0,0,0,0,0,-1,1511,589,0,0
294,435,0,0,0,0,0,0,0,0,0,-1,1518,589,0,0
301,435,0,0,0,0,0,0,0,0,0,-1,1525,589,0,0
308,435,0,0,0,0,0,0,0,0,0,-1,1532,589,0,0
315,435,0,0,0,0,0,0,0,0,0,-1,1539,589,0,0
322,435,0,0,0,0,0,0,0,0,0,-1,1546,589,0,0
329,435,0,0,0,0,0,0,0,0,0,-1,1553,589,0,0
336,435,0,0,0,0,0,0,0,0,0,-1,1560,589,0,0
343,435,0,0,0,0,0,0,0,0,0,-1,1567,589,0,0
350,435,0,0,0,0,0,0,0,0,0,-1,1574,589,0,0
357,435,0,0,0,0,0,0,0,0,0,-1,1581,589,0,0
364,435,0,0,0,0,0,0,0,0,0,-1,1588,589,0,0
371,435,0,0,0,0,0,0,0,0,0,-1,1595,589,0,0
378,435,0,0,0,0,0,0,0,0,0,-1,1602,589,0,0
385,435,0,0,0,0,0,0,0,0,0,-1,1609,589,0,0
392,435,0,0,0,0,0,0,0,0,0,-1,1616,589,0,0
399,435,0,0,0,0,0,0,0,0,0,-1,1623,589,0,0
406,435,0,0,0,0,0,0,0,0,0,-1,1630,589,0,0
413,435,20.4565,3.49835,0,0,0,0,0,0,0,-1,1637,589,20.4565,-3.49836
420,435,21.4015,1.49609,0,0,0,0,0,0,0,-1,1644,589,21.4015,-1.49609
427,435,22.0464,-0.373962,0,0,0,0,0,0,0,-1,1651,589,22.0464,0.373972
434,435,22.1863,-1.54407,0,0,0,0,0,0,0,-1,1658,589,22.1862,1.54405
441,435,22.3992,-2.38287,0,0,0,0,0,0,0,-1,1665,589,22.3992,2.38289
448,435,7.4585,-0.00292969,0,0,0,0,0,0,0,-1,1672,589,7.45848,0.00294131
455,435,5.49915,-5.047,0,0,0,0,0,0,0,-1,1679,589,5.49914,5.04703
462,435,5.60669,-4.71466,0,0,0,0,0,0,0,-1,1686,589,5.60675,4.71469
469,435,5.87708,1.22351,0,0,0,0,0,0,0,-1,1693,589,5.87703,-1.22351
476,435,6.14136,1.37714,0,0,0,0,0,0,0,-1,1700,589,6.14138,-1.37712
483,435,6.49243,1.36169,0,0,0,0,0,0,0,-1,1707,589,6.49242,-1.36171
490,435,4.38391,-1.36218,0,0,0,0,0,0,0,-1,1714,589,4.38389,1.3622
497,435,7.23499,-3.64551,0,0,0,0,0,0,0,-1,1721,589,7.23495,3.64551
504,435,7.31189,-3.75909,0,0,0,0,0,0,0,-1,1728,589,7.31184,3.75911
511,435,18.1149,-14.8042,0,0,0,0,0,0,0,-1,1735,589,18.1149,14.8042
518,435,18.1727,-14.175,0.003773,0.00160576,0.00162108,0.00463929,0.000739468,0.490779,0.00287821,0.0265252,1742,589,18.1727,14.175
525,435,18.1525,-13.5845,0.00335534,0.00146712,0.00155124,0.00422718,0.000595278,0.512034,0.00264214,0.0134048,1749,589,18.1524,13.5845
532,435,18.1561,-12.9778,0.00281108,0.00119458,0.00134656,0.00357334,0.000432322,0.515102,0.002252,0.0145306,1756,589,18.1561,12.9778
539,435,18.1461,-12.3798,0.00231565,0.00107997,0.00120515,0.00305211,0.000343518,0.548534,0.00193045,0.01549,1763,589,18.1462,12.3798
546,435,18.0938,-11.7974,0.00185477,0.00103858,0.00106645,0.00258854,0.000304812,0.602659,0.00163359,0.0155851,1770,589,18.0938,11.7973
553,435,18.0529,-11.2264,0.00142531,0.000966585,0.000930918,0.00215471,0.00023719,0.664612,0.0013643,0.0112342,1777,589,18.0528,11.2264
560,435,18.027,-10.6248,0.00102245,0.00102952,0.000837958,0.00186395,0.000188017,0.787506,0.00118494,0.00934185,1784,589,18.0269,10.6248
567,435,18.0264,-10.0072,0.000760396,0.00120169,0.000854215,0.00186329,9.87908e-05,0.911787,0.00121061,0.00867555,1791,589,18.0264,10.0072
574,435,17.9938,-9.40314,0.000651446,0.00141355,0.0009155,0.00202413,4.08622e-05,0.982605,0.00133601,0.00958742,1798,589,17.9938,9.40315
581,435,17.9781,-8.79028,0.000699662,0.00168182,0.00104639,0.00234663,3.48459e-05,1.00479,0.00155294,0.0169533,1805,589,17.9782,8.79026
588,435,17.9658,-8.23065,0.00110783,0.00212458,0.00140571,0.00311102,0.00012139,0.958906,0.00203476,0.0419592,1812,589,17.9658,8.23065
595,435,17.8291,-7.34546,0,0,0,0,0,0,0,-1,1819,589,17.8291,7.34544
602,435,16.8671,-6.39026,0,0,0,0,0,0,0,-1,1826,589,16.867,6.39024
609,435,15.2611,-3.42242,0,0,0,0,0,0,0,-1,1833,589,15.2611,3.42242
616,435,5.05151,-2.75269,0,0,0,0,0,0,0,-1,1840,589,5.05157,2.7527
623,435,11.7588,3.9704,0,0,0,0,0,0,0,-1,1847,589,11.7587,-3.97043
630,435,4.72742,-0.87561,0,0,0,0,0,0,0,-1,1854,589,4.7274,0.875636
637,435,5.05286,1.48792,0,0,0,0,0,0,0,-1,1861,589,5.05291,-1.48792
644,435,0,0,0,0,0,0,0,0,0,-1,1868,589,0,0
651,435,0,0,0,0,0,0,0,0,0,-1,1875,589,0,0
658,435,0,0,0,0,0,0,0,0,0,-1,1882,589,0,0
665,435,0,0,0,0,0,0,0,0,0,-1,1889,589,0,0
672,435,0,0,0,0,0,0,0,0,0,-1,1896,589,0,0
679,435,0,0,0,0,0,0,0,0,0,-1,1903,589,0,0
686,435,0,0,0,0,0,0,0,0,0,-1,1910,589,0,0
693,435,0,0,0,0,0,0,0,0,0,-1,1917,589,0,0
700,435,0,0,0,0,0,0,0,0,0,-1,1924,589,0,0
707,435,0,0,0,0,0,0,0,0,0,-1,1931,589,0,0
714,435,0,0,0,0,0,0,0,0,0,-1,1938,589,0,0
721,435,0,0,0,0,0,0,0,0,0,-1,1945,589,0,0
728,435,0,0,0,0,0,0,0,0,0,-1,1952,589,0,0
735,435,0,0,0,0,0,0,0,0,0,-1,1959,589,0,0
742,435,0,0,0,0,0,0,0,0,0,-1,1966,589,0,0
749,435,0,0,0,0,0,0,0,0,0,-1,1973,589,0,0
756,435,0,0,0,0,0,0,0,0,0,-1,1980,589,0,0
763,435,0,0,0,0,0,0,0,0,0,-1,1987,589,0,0
770,435,0,0,0,0,0,0,0,0,0,-1,1994,589,0,0
777,435,0,0,0,0,0,0,0,0,0,-1,2001,589,0,0
784,435,0,0,0,0,0,0,0,0,0,-1,2008,589,0,0
791,435,0,0,0,0,0,0,0,0,0,-1,2015,589,0,0
798,435,0,0,0,0,0,0,0,0,0,-1,2022,589,0,0
805,435,0,0,0,0,0,0,0,0,0,-1,2029,589,0,0
812,435,0,0,0,0,0,0,0,0,0,-1,2036,589,0,0
-700,428,0,0,0,0,0,0,0,0,0,-1,524,596,0,0
-693,428,0,0,0,0,0,0,0,0,0,-1,531,596,0,0
-686,428,0,0,0,0,0,0,0,0,0,-1,538,596,0,0
-679,428,0,0,0,0,0,0,0,0,0,-1,545,596,0,0
-672,428,0,0,0,0,0,0,0,0,0,-1,552,596,0,0
-665,428,0,0,0,0,0,0,0,0,0,-1,559,596,0,0
-658,428,0,0,0,0,0,0,0,0,0,-1,566,596,0,0
-651,428,0,0,0,0,0,0,0,0,0,-1,573,596,0,0
-644,428,0,0,0,0,0,0,0,0,0,-1,580,596,0,0
-637,428,0,0,0,0,0,0,0,0,0,-1,587,596,0,0
-630,428,0,0,0,0,0,0,0,0,0,-1,594,596,0,0
-623,428,0,0,0,0,0,0,0,0,0,-1,601,596,0,0
-616,428,0,0,0,0,0,0,0,0,0,-1,608,596,0,0
-609,428,0,0,0,0,0,0,0,0,0,-1,615,596,0,0
-602,428,0,0,0,0,0,0,0,0,0,-1,622,596,0,0
-595,428,0,0,0,0,0,0,0,0,0,-1,629,596,0,0
-588,428,0,0,0,0,0,0,0,0,0,-1,636,596,0,0
-581,428,0,0,0,0,0,0,0,0,0,-1,643,596,0,0
-574,428,0,0,0,0,0,0,0,0,0,-1,650,596,0,0
-567,428,0,0,0,0,0,0,0,0,0,-1,657,596,0,0
-560,428,0,0,0,0,0,0,0,0,0,-1,664,596,0,0
-553,428,0,0,0,0,0,0,0,0,0,-1,671,596,0,0
-546,428,0,0,0,0,0,0,0,0,0,-1,678,596,0,0
-539,428,0,0,0,0,0,0,0,0,0,-1,685,596,0,0
-532,428,0,0,0,0,0,0,0,0,0,-1,692,596,0,0
-525,428,-9.59918,7.58618,0,0,0,0,0,0,0,-1,699,596,-9.59918,-7.5862
-518,428,-2.92285,-4.81854,0,0,0,0,0,0,0,-1,706,596,-2.92285,4.81856
-511,428,-3.68811,-4.79474,0,0,0,0,0,0,0,-1,713,596,-3.68811,4.79474
-504,428,-4.45337,-4.77094,0,0,0,0,0,0,0,-1,720,596,-4.45337,4.77092
-497,428,-2.98108,-3.77502,0,0,0,0,0,0,0,-1,727,596,-2.98106,3.77505
-490,428,-6.39044,-2.80481,0,0,0,0,0,0,0,-1,734,596,-6.39047,2.80483
-483,428,-8.01685,-6.95386,0,0,0,0,0,0,0,-1,741,596,-8.01687,6.95387
-476,428,-8.10541,-8.40869,0,0,0,0,0,0,0,-1,748,596,-8.10542,8.40867
-469,428,-8.0578,-9.04401,-0.00246674,0.008582,-0.00509063,0.0105698,-0.00445458,-1.19852,0.00891064,0.026074,755,596,-8.05781,9.04402
-462,428,-8.14771,-9.60144,-0.00187829,0.00689264,-0.00415541,0.00854868,-0.00353432,-1.19156,0.00717357,0.0268773,762,596,-8.14773,9.60147
-455,428,-8.22833,-10.3054,-0.00134954,0.00545029,-0.00326177,0.00676192,-0.00266116,-1.18846,0.00560951,0.0153745,769,596,-8.22836,10.3054
-448,428,-8.26044,-10.9216,-0.000849716,0.00396979,-0.00240079,0.00496161,-0.00184153,-1.17903,0.00406316,0.0115176,776,596,-8.26044,10.9216
-441,428,-8.28046,-11.5067,-0.000399057,0.00268983,-0.00163181,0.00339218,-0.00110141,-1.16435,0.00270442,0.0131259,783,596,-8.28046,11.5066
-434,428,-8.27704,-12.0988,3.51622e-05,0.00162137,-0.000975025,0.00208512,-0.00042859,-1.12683,0.00155279,0.0102093,790,596,-8.27705,12.0988
-427,428,-8.29791,-12.6767,0.000434394,0.000590086,-0.000403252,0.000922937,0.000101543,-0.880748,0.000584392,0.0110137,797,596,-8.2979,12.6767
-420,428,-8.31793,-13.237,0.000821693,-0.000369157,8.00091e-05,0.000827045,-0.000374509,0.0667864,0.000709928,0.0114179,804,596,-8.31796,13.237
-413,428,-8.34332,-13.7949,0.0011346,-0.00132797,0.000577023,0.0012631,-0.00145647,0.219122,0.00157146,0.0153787,811,596,-8.34333,13.7949
-406,428,-8.36292,-14.3431,0.00137499,-0.00218319,0.000964533,0.00161963,-0.00242783,0.248398,0.00235228,0.018182,818,596,-8.36289,14.3431
-399,428,-8.36987,-14.9209,0.00166984,-0.00296862,0.00120921,0.00196615,-0.00326493,0.240303,0.00305103,0.0152863,825,596,-8.36988,14.9209
-392,428,-8.36432,-15.5303,0.0021421,-0.00362311,0.00139687,0.00246272,-0.00394373,0.22562,0.00373157,0.0260872,832,596,-8.36433,15.5303
-385,428,-8.38361,-16.0662,0,0,0,0,0,0,0,-1,839,596,-8.38359,16.0662
-378,428,-8.55188,-16.4147,0,0,0,0,0,0,0,-1,846,596,-8.55188,16.4147
-371,428,-5.96155,-11.0703,0,0,0,0,0,0,0,-1,853,596,-5.96154,11.0702
-364,428,-6.33643,-10.7223,0,0,0,0,0,0,0,-1,860,596,-6.33645,10.7223
-357,428,-3.20996,-4.70966,0,0,0,0,0,0,0,-1,867,596,-3.20997,4.70965
-350,428,-1.62793,-3.94055,0,0,0,0,0,0,0,-1,874,596,-1.62794,3.94055
-343,428,-0.0567017,-4.80994,0,0,0,0,0,0,0,-1,881,596,-0.0567096,4.80996
-336,428,-3.29175,-1.39569,0,0,0,0,0,0,0,-1,888,596,-3.29172,1.39568
-329,428,-3.71564,-0.791321,0,0,0,0,0,0,0,-1,895,596,-3.71564,0.791299
-322,428,-5.52863,-3.59827,0,0,0,0,0,0,0,-1,902,596,-5.52865,3.59829
-315,428,-4.57172,-1.22052,0,0,0,0,0,0,0,-1,909,596,-4.57171,1.22052
-308,428,-5.94324,-0.810791,0,0,0,0,0,0,0,-1,916,596,-5.94321,0.810803
-301,428,0,0,0,0,0,0,0,0,0,-1,923,596,0,0
-294,428,0,0,0,0,0,0,0,0,0,-1,930,596,0,0
-287,428,0,0,0,0,0,0,0,0,0,-1,937,596,0,0
-280,428,0,0,0,0,0,0,0,0,0,-1,944,596,0,0
-273,428,0,0,0,0,0,0,0,0,0,-1,951,596,0,0
-266,428,0,0,0,0,0,0,0,0,0,-1,958,596,0,0
-259,428,0,0,0,0,0,0,0,0,0,-1,965,596,0,0
-252,428,0,0,0,0,0,0,0,0,0,-1,972,596,0,0
-245,428,0,0,0,0,0,0,0,0,0,-1,979,596,0,0
-238,428,0,0,0,0,0,0,0,0,0,-1,986,596,0,0
-231,428,0,0,0,0,0,0,0,0,0,-1,993,596,0,0
-224,428,0,0,0,0,0,0,0,0,0,-1,1000,596,0,0
-217,428,0,0,0,0,0,0,0,0,0,-1,1007,596,0,0
-210,428,0,0,0,0,0,0,0,0,0,-1,1014,596,0,0
-203,428,0,0,0,0,0,0,0,0,0,-1,1021,596,0,0
-196,428,0,0,0,0,0,0,0,0,0,-1,1028,596,0,0
-189,428,0,0,0,0,0,0,0,0,0,-1,1035,596,0,0
-182,428,0,0,0,0,0,0,0,0,0,-1,1042,596,0,0
-175,428,0,0,0,0,0,0,0,0,0,-1,1049,596,0,0
-168,428,0,0,0,0,0,0,0,0,0,-1,1056,596,0,0
-161,428,0,0,0,0,0,0,0,0,0,-1,1063,596,0,0
-154,428,0,0,0,0,0,0,0,0,0,-1,1070,596,0,0
-147,428,0,0,0,0,0,0,0,0,0,-1,1077,596,0,0
-140,428,0,0,0,0,0,0,0,0,0,-1,1084,596,0,0
-133,428,0,0,0,0,0,0,0,0,0,-1,1091,596,0,0
-126,428,0,0,0,0,0,0,0,0,0,-1,1098,596,0,0
-119,428,0,0,0,0,0,0,0,0,0,-1,1105,596,0,0
-112,428,0,0,0,0,0,0,0,0,0,-1,1112,596,0,0
-105,428,0,0,0,0,0,0,0,0,0,-1,1119,596,0,0
-98,428,0,0,0,0,0,0,0,0,0,-1,1126,596,0,0
-91,428,0,0,0,0,0,0,0,0,0,-1,1133,596,0,0
-84,428,0,0,0,0,0,0,0,0,0,-1,1140,596,0,0
-77,428,0,0,0,0,0,0,0,0,0,-1,1147,596,0,0
-70,428,0,0,0,0,0,0,0,0,0,-1,1154,596,0,0
-63,428,0,0,0,0,0,0,0,0,0,-1,1161,596,0,0
-56,428,0,0,0,0,0,0,0,0,0,-1,1168,596,0,0
-49,428,0,0,0,0,0,0,0,0,0,-1,1175,596,0,0
-42,428,0,0,0,0,0,0,0,0,0,-1,1182,596,0,0
-35,428,0,0,0,0,0,0,0,0,0,-1,1189,596,0,0
-28,428,0,0,0,0,0,0,0,0,0,-1,1196,596,0,0
-21,428,0,0,0,0,0,0,0,0,0,-1,1203,596,0,0
-14,428,0,0,0,0,0,0,0,0,0,-1,1210,596,0,0
-7,428,0,0,0,0,0,0,0,0,0,-1,1217,596,0,0
0,428,0,0,0,0,0,0,0,0,0,-1,1224,596,0,0
7,428,0,0,0,0,0,0,0,0,0,-1,1231,596,0,0
14,428,0,0,0,0,0,0,0,0,0,-1,1238,596,0,0
21,428,0,0,0,0,0,0,0,0,0,-1,1245,596,0,0
28,428,0,0,0,0,0,0,0,0,0,-1,1252,596,0,0
35,428,0,0,0,0,0,0,0,0,0,-1,1259,596,0,0
42,428,0,0,0,0,0,0,0,0,0,-1,1266,596,0,0
49,428,0,0,0,0,0,0,0,0,0,-1,1273,596,0,0
56,428,0,0,0,0,0,0,0,0,0,-1,1280,596,0,0
63,428,0,0,0,0,0,0,0,0,0,-1,1287,596,0,0
70,428,0,0,0,0,0,0,0,0,0,-1,1294,596,0,0
77,428,0,0,0,0,0,0,0,0,0,-1,1301,596,0,0
84,428,0,0,0,0,0,0,0,0,0,-1,1308,596,0,0
91,428,0,0,0,0,0,0,0,0,0,-1,1315,596,0,0
98,428,0,0,0,0,0,0,0,0,0,-1,1322,596,0,0
105,428,0,0,0,0,0,0,0,0,0,-1,1329,596,0,0
112,428,0,0,0,0,0,0,0,0,0,-1,1336,596,0,0
119,428,0,0,0,0,0,0,0,0,0,-1,1343,596,0,0
126,428,0,0,0,0,0,0,0,0,0,-1,1350,596,0,0
133,428,0,0,0,0,0,0,0,0,0,-1,1357,596,0,0
140,428,0,0,0,0,0,0,0,0,0,-1,1364,596,0,0
147,428,0,0,0,0,0,0,0,0,0,-1,1371,596,0,0
154,428,0,0,0,0,0,0,0,0,0,-1,1378,596,0,0
161,428,0,0,0,0,0,0,0,0,0,-1,1385,596,0,0
168,428,0,0,0,0,0,0,0,0,0,-1,1392,596,0,0
175,428,0,0,0,0,0,0,0,0,0,-1,1399,596,0,0
182,428,0,0,0,0,0,0,0,0,0,-1,1406,596,0,0
189,428,0,0,0,0,0,0,0,0,0,-1,1413,596,0,0
196,428,0,0,0,0,0,0,0,0,0,-1,1420,596,0,0
203,428,0,0,0,0,0,0,0,0,0,-1,1427,596,0,0
210,428,0,0,0,0,0,0,0,0,0,-1,1434,596,0,0
217,428,0,0,0,0,0,0,0,0,0,-1,1441,596,0,0
224,428,0,0,0,0,0,0,0,0,0,-1,1448,596,0,0
231,428,0,0,0,0,0,0,0,0,0,-1,1455,596,0,0
238,428,0,0,0,0,0,0,0,0,0,-1,1462,596,0,0
245,428,0,0,0,0,0,0,0,0,0,-1,1469,596,0,0
252,428,0,0,0,0,0,0,0,0,0,-1,1476,596,0,0
259,428,0,0,0,0,0,0,0,0,0,-1,1483,596,0,0
266,428,0,0,0,0,0,0,0,0,0,-1,1490,596,0,0
273,428,0,0,0,0,0,0,0,0,0,-1,1497,596,0,0
280,428,0,0,0,0,0,0,0,0,0,-1,1504,596,0,0
287,428,0,0,0,0,0,0,0,0,0,-1,1511,596,0,0
294,428,0,0,0,0,0,0,0,0,0,-1,1518,596,0,0
301,428,0,0,0,0,0,0,0,0,0,-1,1525,596,0,0
308,428,0,0,0,0,0,0,0,0,0,-1,1532,596,0,0
315,428,0,0,0,0,0,0,0,0,0,-1,1539,596,0,0
322,428,0,0,0,0,0,0,0,0,0,-1,1546,596,0,0
329,428,0,0,0,0,0,0,0,0,0,-1,1553,596,0,0
336,428,0,0,0,0,0,0,0,0,0,-1,1560,596,0,0
343,428,0,0,0,0,0,0,0,0,0,-1,1567,596,0,0
350,428,0,0,0,0,0,0,0,0,0,-1,1574,596,0,0
357,428,0,0,0,0,0,0,0,0,0,-1,1581,596,0,0
364,428,0,0,0,0,0,0,0,0,0,-1,1588,596,0,0
371,428,0,0,0,0,0,0,0,0,0,-1,1595,596,0,0
378,428,0,0,0,0,0,0,0,0,0,-1,1602,596,0,0
385,428,0,0,0,0,0,0,0,0,0,-1,1609,596,0,0
392,428,0,0,0,0,0,0,0,0,0,-1,1616,596,0,0
399,428,0,0,0,0,0,0,0,0,0,-1,1623,596,0,0
406,428,0,0,0,0,0,0,0,0,0,-1,1630,596,0,0
413,428,0,0,0,0,0,0,0,0,0,-1,1637,596,0,0
420,428,19.8469,1.3399,0,0,0,0,0,0,0,-1,1644,596,19.8469,-1.33992
427,428,20.7299,-0.225281,0,0,0,0,0,0,0,-1,1651,596,20.7299,0.225262
434,428,19.8915,-0.583069,0,0,0,0,0,0,0,-1,1658,596,19.8915,0.583075
441,428,8.17993,0.607483,0,0,0,0,0,0,0,-1,1665,596,8.17997,-0.607513
448,428,7.84338,-0.385986,0,0,0,0,0,0,0,-1,1672,596,7.84336,0.385978
455,428,6.64038,2.1123,0,0,0,0,0,0,0,-1,1679,596,6.64037,-2.11229
462,428,4.84106,4.12341,0,0,0,0,0,0,0,-1,1686,596,4.84107,-4.12339
469,428,7.83789,3.10083,0,0,0,0,0,0,0,-1,1693,596,7.83785,-3.10086
476,428,7.61255,1.73956,0,0,0,0,0,0,0,-1,1700,596,7.61252,-1.73958
483,428,7.22766,1.05121,0,0,0,0,0,0,0,-1,1707,596,7.2277,-1.05121
490,428,5.4071,-3.2793,0,0,0,0,0,0,0,-1,1714,596,5.40707,3.27929
497,428,7.84106,-3.65491,0,0,0,0,0,0,0,-1,1721,596,7.84107,3.65491
504,428,6.92139,-2.83356,0,0,0,0,0,0,0,-1,1728,596,6.92137,2.83353
511,428,7.88501,-3.78723,0,0,0,0,0,0,0,-1,1735,596,7.88502,3.78722
518,428,18.7284,-14.1848,0,0,0,0,0,0,0,-1,1742,596,18.7285,14.1848
525,428,18.7152,-13.5608,0,0,0,0,0,0,0,-1,1749,596,18.7152,13.5608
532,428,18.717,-12.9325,0.00389355,0.00117347,0.00169605,0.00470751,0.000359505,0.447453,0.00302563,0.0220587,1756,596,18.717,12.9325
539,428,18.7463,-12.3466,0.00329534,0.00106403,0.00147192,0.00402664,0.00033274,0.46111,0.00258067,0.0206521,1763,596,18.7464,12.3466
546,428,18.7045,-11.793,0.00272458,0.000983746,0.00127359,0.00339678,0.000311553,0.485636,0.00216814,0.0160612,1770,596,18.7045,11.793
553,428,18.6639,-11.2078,0.00219232,0.00089115,0.00109157,0.00281248,0.000270995,0.516657,0.0017915,0.0112827,1777,596,18.6639,11.2077
560,428,18.6641,-10.5939,0.00167055,0.000942039,0.000956718,0.00233001,0.00028258,0.603504,0.00146824,0.0120548,1784,596,18.6641,10.5939
567,428,18.6519,-9.9917,0.00125818,0.00111421,0.000933592,0.00212256,0.000249831,0.746923,0.00133955,0.0111121,1791,596,18.6518,9.99171
574,428,18.6155,-9.39423,0.000996598,0.00135329,0.000981235,0.00217226,0.000177634,0.875296,0.00139274,0.0130577,1798,596,18.6155,9.39425
581,428,18.5647,-8.76495,0.000884105,0.00166895,0.00113042,0.00247312,7.99329e-05,0.952464,0.00162276,0.0112175,1805,596,18.5647,8.76497
588,428,18.5457,-8.14783,0.0010243,0.0021954,0.00147794,0.00319956,2.01467e-05,0.974009,0.00212636,0.0164356,1812,596,18.5456,8.14785
595,428,18.5031,-7.50684,0.0013327,0.00289191,0.00193466,0.00419814,2.64677e-05,0.976929,0.00278998,0.0251431,1819,596,18.5031,7.50683
602,428,18.6106,-6.81891,0,0,0,0,0,0,0,-1,1826,596,18.6105,6.81889
609,428,17.2073,-4.82446,0,0,0,0,0,0,0,-1,1833,596,17.2073,4.82447
616,428,15.7817,-3.09558,0,0,0,0,0,0,0,-1,1840,596,15.7817,3.09556
623,428,9.53577,1.12518,0,0,0,0,0,0,0,-1,1847,596,9.5358,-1.1252
630,428,7.07996,6.88562,0,0,0,0,0,0,0,-1,1854,596,7.0799,-6.88565
637,428,3.95435,1.90857,0,0,0,0,0,0,0,-1,1861,596,3.95439,-1.90858
644,428,5.75476,0.888977,0,0,0,0,0,0,0,-1,1868,596,5.75472,-0.888955
651,428,0,0,0,0,0,0,0,0,0,-1,1875,596,0,0
658,428,0,0,0,0,0,0,0,0,0,-1,1882,596,0,0
665,428,0,0,0,0,0,0,0,0,0,-1,1889,596,0,0
672,428,0,0,0,0,0,0,0,0,0,-1,1896,596,0,0
679,428,0,0,0,0,0,0,0,0,0,-1,1903,596,0,0
686,428,0,0,0,0,0,0,0,0,0,-1,1910,596,0,0
693,428,0,0,0,0,0,0,0,0,0,-1,1917,596,0,0
700,428,0,0,0,0,0,0,0,0,0,-1,1924,596,0,0
707,428,0,0,0,0,0,0,0,0,0,-1,1931,596,0,0
714,428,0,0,0,0,0,0,0,0,0,-1,1938,596,0,0
721,428,0,0,0,0,0,0,0,0,0,-1,1945,596,0,0
728,428,0,0,0,0,0,0,0,0,0,-1,1952,596,0,0
735,428,0,0,0,0,0,0,0,0,0,-1,1959,596,0,0
742,428,0,0,0,0,0,0,0,0,0,-1,1966,596,0,0
749,428,0,0,0,0,0,0,0,0,0,-1,1973,596,0,0
756,428,0,0,0,0,0,0,0,0,0,-1,1980,596,0,0
763,428,0,0,0,0,0,0,0,0,0,-1,1987,596,0,0
770,428,0,0,0,0,0,0,0,0,0,-1,1994,596,0,0
777,428,0,0,0,0,0,0,0,0,0,-1,2001,596,0,0
784,428,0,0,0,0,0,0,0,0,0,-1,2008,596,0,0
791,428,0,0,0,0,0,0,0,0,0,-1,2015,596,0,0
798,428,0,0,0,0,0,0,0,0,0,-1,2022,596,0,0
805,428,0,0,0,0,0,0,0,0,0,-1,2029,596,0,0
812,428,0,0,0,0,0,0,0,0,0,-1,2036,596,0,0
-700,421,0,0,0,0,0,0,0,0,0,-1,524,603,0,0
-693,421,0,0,0,0,0,0,0,0,0,-1,531,603,0,0
-686,421,0,0,0,0,0,0,0,0,0,-1,538,603,0,0
-679,421,0,0,0,0,0,0,0,0,0,-1,545,603,0,0
-672,421,0,0,0,0,0,0,0,0,0,-1,552,603,0,0
-665,421,0,0,0,0,0,0,0,0,0,-1,559,603,0,0
-658,421,0,0,0,0,0,0,0,0,0,-1,566,603,0,0
-651,421,0,0,0,0,0,0,0,0,0,-1,573,603,0,0
-644,421,0,0,0,0,0,0,0,0,0,-1,580,603,0,0
-637,421,0,0,0,0,0,0,0,0,0,-1,587,603,0,0
-630,421,0,0,0,0,0,0,0,0,0,-1,594,603,0,0
-623,421,0,0,0,0,0,0,0,0,0,-1,601,603,0,0
-616,421,0,0,0,0,0,0,0,0,0,-1,608,603,0,0
-609,421,0,0,0,0,0,0,0,0,0,-1,615,603,0,0
-602,421,0,0,0,0,0,0,0,0,0,-1,622,603,0,0
-595,421,0,0,0,0,0,0,0,0,0,-1,629,603,0,0
-588,421,0,0,0,0,0,0,0,0,0,-1,636,603,0,0
-581,421,0,0,0,0,0,0,0,0,0,-1,643,603,0,0
-574,421,0,0,0,0,0,0,0,0,0,-1,650,603,0,0
-567,421,0,0,0,0,0,0,0,0,0,-1,657,603,0,0
-560,421,0,0,0,0,0,0,0,0,0,-1,664,603,0,0
-553,421,0,0,0,0,0,0,0,0,0,-1,671,603,0,0
-546,421,0,0,0,0,0,0,0,0,0,-1,678,603,0,0
-539,421,0,0,0,0,0,0,0,0,0,-1,685,603,0,0
-532,421,-8.97382,6.95636,0,0,0,0,0,0,0,-1,692,603,-8.97384,-6.95634
-525,421,-2.11481,-8.04272,0,0,0,0,0,0,0,-1,699,603,-2.11483,8.0427
-518,421,-3.05908,-5.07233,0,0,0,0,0,0,0,-1,706,603,-3.0591,5.07235
-511,421,-4.63525,-4.08447,0,0,0,0,0,0,0,-1,713,603,-4.63524,4.08449
-504,421,-5.17029,-4.94458,0,0,0,0,0,0,0,-1,720,603,-5.17029,4.9446
-497,421,-6.63141,-2.32501,0,0,0,0,0,0,0,-1,727,603,-6.6314,2.32498
-490,421,-6.7616,-4.14783,0,0,0,0,0,0,0,-1,734,603,-6.76159,4.1478
-483,421,-8.75134,-7.7262,0,0,0,0,0,0,0,-1,741,603,-8.75136,7.72622
-476,421,-8.64587,-8.63177,-0.00201561,0.00870007,-0.00499188,0.0106652,-0.0039807,-1.19577,0.00874443,0.0356918,748,603,-8.6459,8.63179
-469,421,-8.76282,-9.06067,-0.00166133,0.00680012,-0.00408917,0.0084533,-0.00331451,-1.1866,0.00700675,0.0263997,755,603,-8.76283,9.06065
-462,421,-8.76965,-9.72095,-0.00122127,0.00528253,-0.00328826,0.0066553,-0.00259403,-1.17532,0.00550902,0.0212401,762,603,-8.76967,9.72094
-455,421,-8.79059,-10.3294,-0.000792088,0.0039587,-0.00252555,0.00505042,-0.00188381,-1.16278,0.00414029,0.0202191,769,603,-8.79062,10.3294
-448,421,-8.83643,-10.8945,-0.000355566,0.00262554,-0.00177886,0.00345578,-0.00118581,-1.13412,0.0027846,0.0194272,776,603,-8.83645,10.8945
-441,421,-8.85632,-11.4868,2.92987e-05,0.00145746,-0.00108262,0.00204029,-0.000553535,-1.07694,0.00157742,0.0145758,783,603,-8.85632,11.4868
-434,421,-8.86462,-12.0773,0.000413957,0.000490632,-0.000473249,0.000927094,-2.25047e-05,-0.825814,0.000625699,0.0103991,790,603,-8.86462,12.0773
-427,421,-8.87042,-12.6461,0.000777587,-0.000474905,7.54585e-05,0.000782116,-0.000479435,0.0599577,0.000735312,0.00977693,797,603,-8.87042,12.6461
-420,421,-8.88672,-13.2053,0.00112691,-0.00139787,0.000572067,0.00125048,-0.00152144,0.21274,0.00160292,0.0114112,804,603,-8.88675,13.2053
-413,421,-8.9079,-13.7562,0.00142628,-0.00223455,0.00104619,0.00170417,-0.00251244,0.259622,0.00244932,0.0149922,811,603,-8.90788,13.7562
-406,421,-8.94885,-14.3373,0.00161036,-0.00306825,0.00141058,0.00200273,-0.00346062,0.271307,0.00319148,0.0205628,818,603,-8.94888,14.3373
-399,421,-8.89557,-15.0005,0.00186261,-0.00388948,0.00162513,0.00229,-0.00431687,0.257164,0.00387385,0.0302636,825,603,-8.89556,15.0006
-392,421,-8.78271,-15.6043,0,0,0,0,0,0,0,-1,832,603,-8.78269,15.6043
-385,421,-8.80859,-15.2676,0,0,0,0,0,0,0,-1,839,603,-8.80859,15.2676
-378,421,-4.94733,-8.87909,0,0,0,0,0,0,0,-1,846,603,-4.94731,8.87906
-371,421,-5.65082,-7.01849,0,0,0,0,0,0,0,-1,853,603,-5.65082,7.0185
-364,421,-5.94189,-7.09875,0,0,0,0,0,0,0,-1,860,603,-5.94192,7.09878
-357,421,-7.62531,-8.26337,0,0,0,0,0,0,0,-1,867,603,-7.62532,8.26337
-350,421,-5.38019,-3.75024,0,0,0,0,0,0,0,-1,874,603,-5.38017,3.75026
-343,421,-6.22797,-2.57123,0,0,0,0,0,0,0,-1,881,603,-6.22798,2.57121
-336,421,-6.22882,-2.59369,0,0,0,0,0,0,0,-1,888,603,-6.22883,2.5937
-329,421,-4.50134,-1.49469,0,0,0,0,0,0,0,-1,895,603,-4.50137,1.49468
-322,421,-7.55817,1.13263,0,0,0,0,0,0,0,-1,902,603,-7.55818,-1.13263
-315,421,-4.47821,-1.26733,0,0,0,0,0,0,0,-1,909,603,-4.47824,1.26732
-308,421,0,0,0,0,0,0,0,0,0,-1,916,603,0,0
-301,421,0,0,0,0,0,0,0,0,0,-1,923,603,0,0
-294,421,0,0,0,0,0,0,0,0,0,-1,930,603,0,0
-287,421,0,0,0,0,0,0,0,0,0,-1,937,603,0,0
-280,421,0,0,0,0,0,0,0,0,0,-1,944,603,0,0
-273,421,0,0,0,0,0,0,0,0,0,-1,951,603,0,0
-266,421,0,0,0,0,0,0,0,0,0,-1,958,603,0,0
-259,421,0,0,0,0,0,0,0,0,0,-1,965,603,0,0
-252,421,0,0,0,0,0,0,0,0,0,-1,972,603,0,0
-245,421,0,0,0,0,0,0,0,0,0,-1,979,603,0,0
-238,421,0,0,0,0,0,0,0,0,0,-1,986,603,0,0
-231,421,0,0,0,0,0,0,0,0,0,-1,993,603,0,0
-224,421,0,0,0,0,0,0,0,0,0,-1,1000,603,0,0
-217,421,0,0,0,0,0,0,0,0,0,-1,1007,603,0,0
-210,421,0,0,0,0,0,0,0,0,0,-1,1014,603,0,0
-203,421,0,0,0,0,0,0,0,0,0,-1,1021,603,0,0
-196,421,0,0,0,0,0,0,0,0,0,-1,1028,603,0,0
-189,421,0,0,0,0,0,0,0,0,0,-1,1035,603,0,0
-182,421,0,0,0,0,0,0,0,0,0,-1,1042,603,0,0
-175,421,0,0,0,0,0,0,0,0,0,-1,1049,603,0,0
-168,421,0,0,0,0,0,0,0,0,0,-1,1056,603,0,0
-161,421,0,0,0,0,0,0,0,0,0,-1,1063,603,0,0
-154,421,0,0,0,0,0,0,0,0,0,-1,1070,603,0,0
-147,421,0,0,0,0,0,0,0,0,0,-1,1077,603,0,0
-140,421,0,0,0,0,0,0,0,0,0,-1,1084,603,0,0
-133,421,0,0,0,0,0,0,0,0,0,-1,1091,603,0,0
-126,421,0,0,0,0,0,0,0,0,0,-1,1098,603,0,0
-119,421,0,0,0,0,0,0,0,0,0,-1,1105,603,0,0
-112,421,0,0,0,0,0,0,0,0,0,-1,1112,603,0,0
-105,421,0,0,0,0,0,0,0,0,0,-1,1119,603,0,0
-98,421,0,0,0,0,0,0,0,0,0,-1,1126,603,0,0
-91,421,0,0,0,0,0,0,0,0,0,-1,1133,603,0,0
-84,421,0,0,0,0,0,0,0,0,0,-1,1140,603,0,0
-77,421,0,0,0,0,0,0,0,0,0,-1,1147,603,0,0
-70,421,0,0,0,0,0,0,0,0,0,-1,1154,603,0,0
-63,421,0,0,0,0,0,0,0,0,0,-1,1161,603,0,0
-56,421,0,0,0,0,0,0,0,0,0,-1,1168,603,0,0
-49,421,0,0,0,0,0,0,0,0,0,-1,1175,603,0,0
-42,421,0,0,0,0,0,0,0,0,0,-1,1182,603,0,0
-35,421,0,0,0,0,0,0,0,0,0,-1,1189,603,0,0
-28,421,0,0,0,0,0,0,0,0,0,-1,1196,603,0,0
-21,421,0,0,0,0,0,0,0,0,0,-1,1203,603,0,0
-14,421,0,0,0,0,0,0,0,0,0,-1,1210,603,0,0
-7,421,0,0,0,0,0,0,0,0,0,-1,1217,603,0,0
0,421,0,0,0,0,0,0,0,0,0,-1,1224,603,0,0
7,421,0,0,0,0,0,0,0,0,0,-1,1231,603,0,0
14,421,0,0,0,0,0,0,0,0,0,-1,1238,603,0,0
21,421,0,0,0,0,0,0,0,0,0,-1,1245,603,0,0
28,421,0,0,0,0,0,0,0,0,0,-1,1252,603,0,0
35,421,0,0,0,0,0,0,0,0,0,-1,1259,603,0,0
42,421,0,0,0,0,0,0,0,0,0,-1,1266,603,0,0
49,421,0,0,0,0,0,0,0,0,0,-1,1273,603,0,0
56,421,0,0,0,0,0,0,0,0,0,-1,1280,603,0,0
63,421,0,0,0,0,0,0,0,0,0,-1,1287,603,0,0
70,421,0,0,0,0,0,0,0,0,0,-1,1294,603,0,0
77,421,0,0,0,0,0,0,0,0,0,-1,1301,603,0,0
84,421,0,0,0,0,0,0,0,0,0,-1,1308,603,0,0
91,421,0,0,0,0,0,0,0,0,0,-1,1315,603,0,0
98,421,0,0,0,0,0,0,0,0,0,-1,1322,603,0,0
105,421,0,0,0,0,0,0,0,0,0,-1,1329,603,0,0
112,421,0,0,0,0,0,0,0,0,0,-1,1336,603,0,0
119,421,0,0,0,0,0,0,0,0,0,-1,1343,603,0,0
126,421,0,0,0,0,0,0,0,0,0,-1,1350,603,0,0
133,421,0,0,0,0,0,0,0,0,0,-1,1357,603,0,0
140,421,0,0,0,0,0,0,0,0,0,-1,1364,603,0,0
147,421,0,0,0,0,0,0,0,0,0,-1,1371,603,0,0
154,421,0,0,0,0,0,0,0,0,0,-1,1378,603,0,0
161,421,0,0,0,0,0,0,0,0,0,-1,1385,603,0,0
168,421,0,0,0,0,0,0,0,0,0,-1,1392,603,0,0
175,421,0,0,0,0,0,0,0,0,0,-1,1399,603,0,0
182,421,0,0,0,0,0,0,0,0,0,-1,1406,603,0,0
189,421,0,0,0,0,0,0,0,0,0,-1,1413,603,0,0
196,421,0,0,0,0,0,0,0,0,0,-1,1420,603,0,0
203,421,0,0,0,0,0,0,0,0,0,-1,1427,603,0,0
210,421,0,0,0,0,0,0,0,0,0,-1,1434,603,0,0
217,421,0,0,0,0,0,0,0,0,0,-1,1441,603,0,0
224,421,0,0,0,0,0,0,0,0,0,-1,1448,603,0,0
231,421,0,0,0,0,0,0,0,0,0,-1,1455,603,0,0
238,421,0,0,0,0,0,0,0,0,0,-1,1462,603,0,0
245,421,0,0,0,0,0,0,0,0,0,-1,1469,603,0,0
252,421,0,0,0,0,0,0,0,0,0,-1,1476,603,0,0
259,421,0,0,0,0,0,0,0,0,0,-1,1483,603,0,0
266,421,0,0,0,0,0,0,0,0,0,-1,1490,603,0,0
273,421,0,0,0,0,0,0,0,0,0,-1,1497,603,0,0
280,421,0,0,0,0,0,0,0,0,0,-1,1504,603,0,0
287,421,0,0,0,0,0,0,0,0,0,-1,1511,603,0,0
294,421,0,0,0,0,0,0,0,0,0,-1,1518,603,0,0
301,421,0,0,0,0,0,0,0,0,0,-1,1525,603,0,0
308,421,0,0,0,0,0,0,0,0,0,-1,1532,603,0,0
315,421,0,0,0,0,0,0,0,0,0,-1,1539,603,0,0
322,421,0,0,0,0,0,0,0,0,0,-1,1546,603,0,0
329,421,0,0,0,0,0,0,0,0,0,-1,1553,603,0,0
336,421,0,0,0,0,0,0,0,0,0,-1,1560,603,0,0
343,421,0,0,0,0,0,0,0,0,0,-1,1567,603,0,0
350,421,0,0,0,0,0,0,0,0,0,-1,1574,603,0,0
357,421,0,0,0,0,0,0,0,0,0,-1,1581,603,0,0
364,421,0,0,0,0,0,0,0,0,0,-1,1588,603,0,0
371,421,0,0,0,0,0,0,0,0,0,-1,1595,603,0,0
378,421,0,0,0,0,0,0,0,0,0,-1,1602,603,0,0
385,421,0,0,0,0,0,0,0,0,0,-1,1609,603,0,0
392,421,0,0,0,0,0,0,0,0,0,-1,1616,603,0,0
399,421,0,0,0,0,0,0,0,0,0,-1,1623,603,0,0
406,421,0,0,0,0,0,0,0,0,0,-1,1630,603,0,0
413,421,0,0,0,0,0,0,0,0,0,-1,1637,603,0,0
420,421,0,0,0,0,0,0,0,0,0,-1,1644,603,0,0
427,421,0,0,0,0,0,0,0,0,0,-1,1651,603,0,0
434,421,3.68176,-0.0327759,0,0,0,0,0,0,0,-1,1658,603,3.6818,0.0328037
441,421,8.06689,0.527832,0,0,0,0,0,0,0,-1,1665,603,8.06693,-0.527851
448,421,6.93921,0.802246,0,0,0,0,0,0,0,-1,1672,603,6.93923,-0.802251
455,421,7.29456,2.14825,0,0,0,0,0,0,0,-1,1679,603,7.29461,-2.14827
462,421,7.86902,3.53174,0,0,0,0,0,0,0,-1,1686,603,7.869,-3.53173
469,421,8.06604,2.81213,0,0,0,0,0,0,0,-1,1693,603,8.06606,-2.81212
476,421,8.26306,2.09253,0,0,0,0,0,0,0,-1,1700,603,8.26312,-2.09251
483,421,8.05322,0.798096,0,0,0,0,0,0,0,-1,1707,603,8.05323,-0.7981
490,421,7.51233,0.213074,0,0,0,0,0,0,0,-1,1714,603,7.51235,-0.213043
497,421,7.49634,-2.86688,0,0,0,0,0,0,0,-1,1721,603,7.4963,2.86688
504,421,6.90491,-2.18671,0,0,0,0,0,0,0,-1,1728,603,6.90491,2.18669
511,421,6.31348,-1.50653,0,0,0,0,0,0,0,-1,1735,603,6.31353,1.5065
518,421,6.27588,-2.49878,0,0,0,0,0,0,0,-1,1742,603,6.2759,2.4988
525,421,19.0415,-13.8569,0,0,0,0,0,0,0,-1,1749,603,19.0415,13.8569
532,421,19.1769,-12.9695,0.00492436,0.00121079,0.00201261,0.00580586,0.000329288,0.412824,0.00376561,0.046007,1756,603,19.1769,12.9695
539,421,19.3157,-12.3309,0.00419728,0.0011048,0.00169642,0.0049464,0.000355673,0.41584,0.00318567,0.0225558,1763,603,19.3157,12.3309
546,421,19.2878,-11.7689,0.00349706,0.000958857,0.00143766,0.00414564,0.000310283,0.423795,0.00266635,0.0129007,1770,603,19.2878,11.7689
553,421,19.27,-11.1628,0.00286807,0.000838224,0.00121335,0.00343501,0.000271283,0.437107,0.00220515,0.0126078,1777,603,19.27,11.1628
560,421,19.2534,-10.5471,0.00225669,0.0008556,0.00104176,0.00281155,0.000300742,0.489397,0.00178259,0.0152118,1784,603,19.2534,10.5471
567,421,19.243,-9.95282,0.00174967,0.000992493,0.000986635,0.00242786,0.000314305,0.602202,0.00152464,0.0170006,1791,603,19.243,9.95282
574,421,19.2135,-9.35394,0.00141327,0.00122743,0.00103273,0.00235725,0.000283447,0.740532,0.00148606,0.0184485,1798,603,19.2134,9.35395
581,421,19.1727,-8.7196,0.00123928,0.00155164,0.00119869,0.00260428,0.000186636,0.85018,0.00167744,0.0153126,1805,603,19.1728,8.71962
588,421,19.1403,-8.15656,0.00126715,0.00209622,0.00152842,0.00326533,9.80465e-05,0.917822,0.00214495,0.011325,1812,603,19.1403,8.15653
595,421,19.1642,-7.54523,0.001502,0.00281484,0.00200854,0.0042715,4.534e-05,0.943335,0.00283268,0.0180942,1819,603,19.1641,7.54523
602,421,19.1803,-6.88806,0,0,0,0,0,0,0,-1,1826,603,19.1803,6.88803
609,421,17.6451,-5.54187,0,0,0,0,0,0,0,-1,1833,603,17.6451,5.54189
616,421,17.7633,-4.72491,0,0,0,0,0,0,0,-1,1840,603,17.7633,4.7249
623,421,6.19885,0.376648,0,0,0,0,0,0,0,-1,1847,603,6.19881,-0.376624
630,421,6.54993,0.778748,0,0,0,0,0,0,0,-1,1854,603,6.54991,-0.778744
637,421,3.74512,1.65405,0,0,0,0,0,0,0,-1,1861,603,3.74517,-1.65407
644,421,3.58081,0.354675,0,0,0,0,0,0,0,-1,1868,603,3.58082,-0.354704
651,421,3.28687,3.66351,0,0,0,0,0,0,0,-1,1875,603,3.28688,-3.66353
658,421,0,0,0,0,0,0,0,0,0,-1,1882,603,0,0
665,421,0,0,0,0,0,0,0,0,0,-1,1889,603,0,0
672,421,0,0,0,0,0,0,0,0,0,-1,1896,603,0,0
679,421,0,0,0,0,0,0,0,0,0,-1,1903,603,0,0
686,421,0,0,0,0,0,0,0,0,0,-1,1910,603,0,0
693,421,0,0,0,0,0,0,0,0,0,-1,1917,603,0,0
700,421,0,0,0,0,0,0,0,0,0,-1,1924,603,0,0
707,421,0,0,0,0,0,0,0,0,0,-1,1931,603,0,0
714,421,0,0,0,0,0,0,0,0,0,-1,1938,603,0,0
721,421,0,0,0,0,0,0,0,0,0,-1,1945,603,0,0
728,421,0,0,0,0,0,0,0,0,0,-1,1952,603,0,0
735,421,0,0,0,0,0,0,0,0,0,-1,1959,603,0,0
742,421,0,0,0,0,0,0,0,0,0,-1,1966,603,0,0
749,421,0,0,0,0,0,0,0,0,0,-1,1973,603,0,0
756,421,0,0,0,0,0,0,0,0,0,-1,1980,603,0,0
763,421,0,0,0,0,0,0,0,0,0,-1,1987,603,0,0
770,421,0,0,0,0,0,0,0,0,0,-1,1994,603,0,0
777,421,0,0,0,0,0,0,0,0,0,-1,2001,603,0,0
784,421,0,0,0,0,0,0,0,0,0,-1,2008,603,0,0
791,421,0,0,0,0,0,0,0,0,0,-1,2015,603,0,0
798,421,0,0,0,0,0,0,0,0,0,-1,2022,603,0,0
805,421,0,0,0,0,0,0,0,0,0,-1,2029,603,0,0
812,421,0,0,0,0,0,0,0,0,0,-1,2036,603,0,0
-700,414,0,0,0,0,0,0,0,0,0,-1,524,610,0,0
-693,414,0,0,0,0,0,0,0,0,0,-1,531,610,0,0
-686,414,0,0,0,0,0,0,0,0,0,-1,538,610,0,0
-679,414,0,0,0,0,0,0,0,0,0,-1,545,610,0,0
-672,414,0,0,0,0,0,0,0,0,0,-1,552,610,0,0
-665,414,0,0,0,0,0,0,0,0,0,-1,559,610,0,0
-658,414,0,0,0,0,0,0,0,0,0,-1,566,610,0,0
-651,414,0,0,0,0,0,0,0,0,0,-1,573,610,0,0
-644,414,0,0,0,0,0,0,0,0,0,-1,580,610,0,0
-637,414,0,0,0,0,0,0,0,0,0,-1,587,610,0,0
-630,414,0,0,0,0,0,0,0,0,0,-1,594,610,0,0
-623,414,0,0,0,0,0,0,0,0,0,-1,601,610,0,0
-616,414,0,0,0,0,0,0,0,0,0,-1,608,610,0,0
-609,414,0,0,0,0,0,0,0,0,0,-1,615,610,0,0
-602,414,0,0,0,0,0,0,0,0,0,-1,622,610,0,0
-595,414,0,0,0,0,0,0,0,0,0,-1,629,610,0,0
-588,414,0,0,0,0,0,0,0,0,0,-1,636,610,0,0
-581,414,0,0,0,0,0,0,0,0,0,-1,643,610,0,0
-574,414,0,0,0,0,0,0,0,0,0,-1,650,610,0,0
-567,414,0,0,0,0,0,0,0,0,0,-1,657,610,0,0
-560,414,0,0,0,0,0,0,0,0,0,-1,664,610,0,0
-553,414,0,0,0,0,0,0,0,0,0,-1,671,610,0,0
-546,414,0,0,0,0,0,0,0,0,0,-1,678,610,0,0
-539,414,-7.50146,5.65619,0,0,0,0,0,0,0,-1,685,610,-7.50149,-5.65617
-532,414,-8.15204,4.01605,0,0,0,0,0,0,0,-1,692,610,-8.15206,-4.01606
-525,414,-3.47137,-3.27924,0,0,0,0,0,0,0,-1,699,610,-3.47136,3.27922
-518,414,-4.12909,-4.36908,0,0,0,0,0,0,0,-1,706,610,-4.12909,4.36909
-511,414,-3.92542,-4.97021,0,0,0,0,0,0,0,-1,713,610,-3.92542,4.97023
-504,414,-9.35394,-5.49896,0,0,0,0,0,0,0,-1,720,610,-9.35394,5.49898
-497,414,-9.17554,-6.03741,0,0,0,0,0,0,0,-1,727,610,-9.17551,6.03743
-490,414,-9.53833,-6.91229,0,0,0,0,0,0,0,-1,734,610,-9.53833,6.91232
-483,414,-9.30157,-7.93774,-0.00123644,0.00921692,-0.00502037,0.0112375,-0.00325699,-1.18816,0.00878101,0.0447356,741,610,-9.30156,7.93773
-476,414,-9.34259,-8.56586,-0.00115185,0.00707679,-0.00405592,0.00873985,-0.00281491,-1.18167,0.00695735,0.0240069,748,610,-9.34258,8.56586
-469,414,-9.37787,-9.10547,-0.000876014,0.00541977,-0.00329971,0.00683228,-0.00228853,-1.16633,0.00547939,0.0141704,755,610,-9.37788,9.1055
-462,414,-9.36273,-9.69135,-0.000518177,0.0040742,-0.00262059,0.00526226,-0.00170624,-1.14516,0.00419424,0.0220351,762,610,-9.36276,9.69135
-455,414,-9.38525,-10.3147,-0.000155342,0.00286462,-0.00196936,0.00383626,-0.00112698,-1.11246,0.00300447,0.0244527,769,610,-9.38528,10.3147
-448,414,-9.41083,-10.8904,0.000237283,0.00166684,-0.00132426,0.00245691,-0.000552788,-1.03287,0.00184994,0.0246296,776,610,-9.41083,10.8905
-441,414,-9.42633,-11.4834,0.000567954,0.000596101,-0.000694517,0.00127669,-0.000112632,-0.795529,0.000891045,0.0172415,783,610,-9.42632,11.4834
-434,414,-9.4505,-12.0574,0.000894662,-0.000311171,-0.000119875,0.000906464,-0.000322973,-0.0981328,0.00073598,0.00965679,790,610,-9.45051,12.0574
-427,414,-9.45935,-12.6235,0.00118728,-0.00127343,0.000432826,0.00126119,-0.00134734,0.169134,0.00150631,0.0102335,797,610,-9.45935,12.6235
-420,414,-9.47162,-13.1903,0.00143684,-0.00225636,0.000998149,0.00168935,-0.00250887,0.247773,0.00243918,0.0100481,804,610,-9.47163,13.1903
-413,414,-9.50775,-13.7714,0.0016524,-0.00306724,0.00151118,0.00209479,-0.00350964,0.284792,0.00326991,0.0111582,811,610,-9.50773,13.7713
-406,414,-9.50354,-14.4232,0.00169155,-0.00401794,0.00192755,0.00228137,-0.00460776,0.296947,0.00405233,0.0250664,818,610,-9.50351,14.4232
-399,414,-9.42401,-15.0443,0,0,0,0,0,0,0,-1,825,610,-9.42401,15.0442
-392,414,-9.43781,-14.5624,0,0,0,0,0,0,0,-1,832,610,-9.43779,14.5624
-385,414,-8.14691,-13.0653,0,0,0,0,0,0,0,-1,839,610,-8.14692,13.0653
-378,414,-8.04907,-11.3331,0,0,0,0,0,0,0,-1,846,610,-8.04905,11.3331
-371,414,-5.20886,-8.05151,0,0,0,0,0,0,0,-1,853,610,-5.20887,8.05153
-364,414,-6.76282,-6.58759,0,0,0,0,0,0,0,-1,860,610,-6.7628,6.58756
-357,414,-9.08685,-8.86188,0,0,0,0,0,0,0,-1,867,610,-9.08688,8.86187
-350,414,-6.4502,-2.41821,0,0,0,0,0,0,0,-1,874,610,-6.45021,2.41822
-343,414,-6.80249,-2.32117,0,0,0,0,0,0,0,-1,881,610,-6.80252,2.32116
-336,414,-7.11017,-2.52026,0,0,0,0,0,0,0,-1,888,610,-7.11016,2.52026
-329,414,-7.59747,-2.70313,0,0,0,0,0,0,0,-1,895,610,-7.59747,2.70315
-322,414,-4.42236,-1.29163,0,0,0,0,0,0,0,-1,902,610,-4.42238,1.2916
-315,414,0,0,0,0,0,0,0,0,0,-1,909,610,0,0
-308,414,0,0,0,0,0,0,0,0,0,-1,916,610,0,0
-301,414,0,0,0,0,0,0,0,0,0,-1,923,610,0,0
-294,414,0,0,0,0,0,0,0,0,0,-1,930,610,0,0
-287,414,0,0,0,0,0,0,0,0,0,-1,937,610,0,0
-280,414,0,0,0,0,0,0,0,0,0,-1,944,610,0,0
-273,414,0,0,0,0,0,0,0,0,0,-1,951,610,0,0
-266,414,0,0,0,0,0,0,0,0,0,-1,958,610,0,0
-259,414,0,0,0,0,0,0,0,0,0,-1,965,610,0,0
-252,414,0,0,0,0,0,0,0,0,0,-1,972,610,0,0
-245,414,0,0,0,0,0,0,0,0,0,-1,979,610,0,0
-238,414,0,0,0,0,0,0,0,0,0,-1,986,610,0,0
-231,414,0,0,0,0,0,0,0,0,0,-1,993,610,0,0
-224,414,0,0,0,0,0,0,0,0,0,-1,1000,610,0,0
-217,414,0,0,0,0,0,0,0,0,0,-1,1007,610,0,0
-210,414,0,0,0,0,0,0,0,0,0,-1,1014,610,0,0
-203,414,0,0,0,0,0,0,0,0,0,-1,1021,610,0,0
-196,414,0,0,0,0,0,0,0,0,0,-1,1028,610,0,0
-189,414,0,0,0,0,0,0,0,0,0,-1,1035,610,0,0
-182,414,0,0,0,0,0,0,0,0,0,-1,1042,610,0,0
-175,414,0,0,0,0,0,0,0,0,0,-1,1049,610,0,0
-168,414,0,0,0,0,0,0,0,0,0,-1,1056,610,0,0
-161,414,0,0,0,0,0,0,0,0,0,-1,1063,610,0,0
-154,414,0,0,0,0,0,0,0,0,0,-1,1070,610,0,0
-147,414,0,0,0,0,0,0,0,0,0,-1,1077,610,0,0
-140,414,0,0,0,0,0,0,0,0,0,-1,1084,610,0,0
-133,414,0,0,0,0,0,0,0,0,0,-1,1091,610,0,0
-126,414,0,0,0,0,0,0,0,0,0,-1,1098,610,0,0
-119,414,0,0,0,0,0,0,0,0,0,-1,1105,610,0,0
-112,414,0,0,0,0,0,0,0,0,0,-1,1112,610,0,0
-105,414,0,0,0,0,0,0,0,0,0,-1,1119,610,0,0
-98,414,0,0,0,0,0,0,0,0,0,-1,1126,610,0,0
-91,414,0,0,0,0,0,0,0,0,0,-1,1133,610,0,0
-84,414,0,0,0,0,0,0,0,0,0,-1,1140,610,0,0
-77,414,0,0,0,0,0,0,0,0,0,-1,1147,610,0,0
-70,414,0,0,0,0,0,0,0,0,0,-1,1154,610,0,0
-63,414,0,0,0,0,0,0,0,0,0,-1,1161,610,0,0
-56,414,0,0,0,0,0,0,0,0,0,-1,1168,610,0,0
-49,414,0,0,0,0,0,0,0,0,0,-1,1175,610,0,0
-42,414,0,0,0,0,0,0,0,0,0,-1,1182,610,0,0
-35,414,0,0,0,0,0,0,0,0,0,-1,1189,610,0,0
-28,414,0,0,0,0,0,0,0,0,0,-1,1196,610,0,0
-21,414,0,0,0,0,0,0,0,0,0,-1,1203,610,0,0
-14,414,0,0,0,0,0,0,0,0,0,-1,1210,610,0,0
-7,414,0,0,0,0,0,0,0,0,0,-1,1217,610,0,0
0,414,0,0,0,0,0,0,0,0,0,-1,1224,610,0,0
7,414,0,0,0,0,0,0,0,0,0,-1,1231,610,0,0
14,414,0,0,0,0,0,0,0,0,0,-1,1238,610,0,0
21,414,0,0,0,0,0,0,0,0,0,-1,1245,610,0,0
28,414,0,0,0,0,0,0,0,0,0,-1,1252,610,0,0
35,414,0,0,0,0,0,0,0,0,0,-1,1259,610,0,0
42,414,0,0,0,0,0,0,0,0,0,-1,1266,610,0,0
49,414,0,0,0,0,0,0,0,0,0,-1,1273,610,0,0
56,414,0,0,0,0,0,0,0,0,0,-1,1280,610,0,0
63,414,0,0,0,0,0,0,0,0,0,-1,1287,610,0,0
70,414,0,0,0,0,0,0,0,0,0,-1,1294,610,0,0
77,414,0,0,0,0,0,0,0,0,0,-1,1301,610,0,0
84,414,0,0,0,0,0,0,0,0,0,-1,1308,610,0,0
91,414,0,0,0,0,0,0,0,0,0,-1,1315,610,0,0
98,414,0,0,0,0,0,0,0,0,0,-1,1322,610,0,0
105,414,0,0,0,0,0,0,0,0,0,-1,1329,610,0,0
112,414,0,0,0,0,0,0,0,0,0,-1,1336,610,0,0
119,414,0,0,0,0,0,0,0,0,0,-1,1343,610,0,0
126,414,0,0,0,0,0,0,0,0,0,-1,1350,610,0,0
133,414,0,0,0,0,0,0,0,0,0,-1,1357,610,0,0
140,414,0,0,0,0,0,0,0,0,0,-1,1364,610,0,0
147,414,0,0,0,0,0,0,0,0,0,-1,1371,610,0,0
154,414,0,0,0,0,0,0,0,0,0,-1,1378,610,0,0
161,414,0,0,0,0,0,0,0,0,0,-1,1385,610,0,0
168,414,0,0,0,0,0,0,0,0,0,-1,1392,610,0,0
175,414,0,0,0,0,0,0,0,0,0,-1,1399,610,0,0
182,414,0,0,0,0,0,0,0,0,0,-1,1406,610,0,0
189,414,0,0,0,0,0,0,0,0,0,-1,1413,610,0,0
196,414,0,0,0,0,0,0,0,0,0,-1,1420,610,0,0
203,414,0,0,0,0,0,0,0,0,0,-1,1427,610,0,0
210,414,0,0,0,0,0,0,0,0,0,-1,1434,610,0,0
217,414,0,0,0,0,0,0,0,0,0,-1,1441,610,0,0
224,414,0,0,0,0,0,0,0,0,0,-1,1448,610,0,0
231,414,0,0,0,0,0,0,0,0,0,-1,1455,610,0,0
238,414,0,0,0,0,0,0,0,0,0,-1,1462,610,0,0
245,414,0,0,0,0,0,0,0,0,0,-1,1469,610,0,0
252,414,0,0,0,0,0,0,0,0,0,-1,1476,610,0,0
259,414,0,0,0,0,0,0,0,0,0,-1,1483,610,0,0
266,414,0,0,0,0,0,0,0,0,0,-1,1490,610,0,0
273,414,0,0,0,0,0,0,0,0,0,-1,1497,610,0,0
280,414,0,0,0,0,0,0,0,0,0,-1,1504,610,0,0
287,414,0,0,0,0,0,0,0,0,0,-1,1511,610,0,0
294,414,0,0,0,0,0,0,0,0,0,-1,1518,610,0,0
301,414,0,0,0,0,0,0,0,0,0,-1,1525,610,0,0
308,414,0,0,0,0,0,0,0,0,0,-1,1532,610,0,0
315,414,0,0,0,0,0,0,0,0,0,-1,1539,610,0,0
322,414,0,0,0,0,0,0,0,0,0,-1,1546,610,0,0
329,414,0,0,0,0,0,0,0,0,0,-1,1553,610,0,0
336,414,0,0,0,0,0,0,0,0,0,-1,1560,610,0,0
343,414,0,0,0,0,0,0,0,0,0,-1,1567,610,0,0
350,414,0,0,0,0,0,0,0,0,0,-1,1574,610,0,0
357,414,0,0,0,0,0,0,0,0,0,-1,1581,610,0,0
364,414,0,0,0,0,0,0,0,0,0,-1,1588,610,0,0
371,414,0,0,0,0,0,0,0,0,0,-1,1595,610,0,0
378,414,0,0,0,0,0,0,0,0,0,-1,1602,610,0,0
385,414,0,0,0,0,0,0,0,0,0,-1,1609,610,0,0
392,414,0,0,0,0,0,0,0,0,0,-1,1616,610,0,0
399,414,0,0,0,0,0,0,0,0,0,-1,1623,610,0,0
406,414,0,0,0,0,0,0,0,0,0,-1,1630,610,0,0
413,414,0,0,0,0,0,0,0,0,0,-1,1637,610,0,0
420,414,0,0,0,0,0,0,0,0,0,-1,1644,610,0,0
427,414,0,0,0,0,0,0,0,0,0,-1,1651,610,0,0
434,414,0,0,0,0,0,0,0,0,0,-1,1658,610,0,0
441,414,7.84375,0.584412,0,0,0,0,0,0,0,-1,1665,610,7.84379,-0.584394
448,414,7.40808,1.25446,0,0,0,0,0,0,0,-1,1672,610,7.40807,-1.25446
455,414,6.3512,1.73846,0,0,0,0,0,0,0,-1,1679,610,6.3512,-1.73847
462,414,8.18103,3.22113,0,0,0,0,0,0,0,-1,1686,610,8.18108,-3.22112
469,414,8.38513,2.49579,0,0,0,0,0,0,0,-1,1693,610,8.38516,-2.49576
476,414,8.64099,1.71161,0,0,0,0,0,0,0,-1,1700,610,8.64097,-1.71164
483,414,8.62744,0.687622,0,0,0,0,0,0,0,-1,1707,610,8.62749,-0.687615
490,414,8.38831,-0.0302734,0,0,0,0,0,0,0,-1,1714,610,8.38835,0.0302913
497,414,4.71094,-0.110046,0,0,0,0,0,0,0,-1,1721,610,4.71089,0.110024
504,414,7.19568,-1.43835,0,0,0,0,0,0,0,-1,1728,610,7.19563,1.43836
511,414,5.94153,-1.28772,0,0,0,0,0,0,0,-1,1735,610,5.94151,1.28769
518,414,4.53381,-0.0996704,0,0,0,0,0,0,0,-1,1742,610,4.53378,0.0996819
525,414,6.18811,-1.64056,0,0,0,0,0,0,0,-1,1749,610,6.18814,1.64055
532,414,19.7516,-13.2182,0,0,0,0,0,0,0,-1,1756,610,19.7515,13.2182
539,414,19.8368,-12.333,0,0,0,0,0,0,0,-1,1763,610,19.8368,12.333
546,414,19.8558,-11.7403,0.00450087,0.00106054,0.00176073,0.00524224,0.000319175,0.398525,0.00339344,0.0146614,1770,610,19.8558,11.7403
553,414,19.8591,-11.1374,0.00369989,0.000890439,0.00146978,0.00432827,0.000262062,0.404013,0.00280225,0.0130903,1777,610,19.8591,11.1374
560,414,19.8523,-10.5214,0.00294428,0.000840947,0.00123244,0.00351278,0.000272455,0.432189,0.00225652,0.015452,1784,610,19.8522,10.5214
567,414,19.8375,-9.91077,0.00229955,0.000899281,0.00110507,0.00290761,0.000291225,0.50303,0.00184899,0.0244108,1791,610,19.8375,9.91078
574,414,19.7899,-9.32666,0.00184817,0.00109679,0.00110274,0.00263747,0.000307499,0.621221,0.0016653,0.0206919,1798,610,19.7899,9.32667
581,414,19.7865,-8.73547,0.00156682,0.00140211,0.00122491,0.00271213,0.000256789,0.751832,0.00172886,0.0162818,1805,610,19.7865,8.73547
588,414,19.7207,-8.11652,0.00145342,0.00192264,0.00147434,0.00318092,0.000195138,0.864302,0.00205865,0.01651,1812,610,19.7207,8.11654
595,414,19.7054,-7.46692,0.00157678,0.00261793,0.00188801,0.00405582,0.000138886,0.919919,0.00265879,0.0223846,1819,610,19.7054,7.46691
602,414,19.7095,-6.90253,0.00190809,0.00358125,0.00247565,0.00535785,0.000131489,0.948336,0.00352889,0.0241251,1826,610,19.7094,6.90253
609,414,19.7086,-6.25983,0,0,0,0,0,0,0,-1,1833,610,19.7086,6.25983
616,414,19.9379,-5.37915,0,0,0,0,0,0,0,-1,1840,610,19.9379,5.37912
623,414,9.6969,0.0378418,0,0,0,0,0,0,0,-1,1847,610,9.69685,-0.0378644
630,414,5.47144,0.499329,0,0,0,0,0,0,0,-1,1854,610,5.47142,-0.499303
637,414,8.36707,4.16278,0,0,0,0,0,0,0,-1,1861,610,8.36709,-4.16278
644,414,5.87073,1.51422,0,0,0,0,0,0,0,-1,1868,610,5.87076,-1.51424
651,414,3.6377,0.820557,0,0,0,0,0,0,0,-1,1875,610,3.6377,-0.820543
658,414,2.29761,3.87323,0,0,0,0,0,0,0,-1,1882,610,2.29758,-3.87325
665,414,0,0,0,0,0,0,0,0,0,-1,1889,610,0,0
672,414,0,0,0,0,0,0,0,0,0,-1,1896,610,0,0
679,414,0,0,0,0,0,0,0,0,0,-1,1903,610,0,0
686,414,0,0,0,0,0,0,0,0,0,-1,1910,610,0,0
693,414,0,0,0,0,0,0,0,0,0,-1,1917,610,0,0
700,414,0,0,0,0,0,0,0,0,0,-1,1924,610,0,0
707,414,0,0,0,0,0,0,0,0,0,-1,1931,610,0,0
714,414,0,0,0,0,0,0,0,0,0,-1,1938,610,0,0
721,414,0,0,0,0,0,0,0,0,0,-1,1945,610,0,0
728,414,0,0,0,0,0,0,0,0,0,-1,1952,610,0,0
735,414,0,0,0,0,0,0,0,0,0,-1,1959,610,0,0
742,414,0,0,0,0,0,0,0,0,0,-1,1966,610,0,0
749,414,0,0,0,0,0,0,0,0,0,-1,1973,610,0,0
756,414,0,0,0,0,0,0,0,0,0,-1,1980,610,0,0
763,414,0,0,0,0,0,0,0,0,0,-1,1987,610,0,0
770,414,0,0,0,0,0,0,0,0,0,-1,1994,610,0,0
777,414,0,0,0,0,0,0,0,0,0,-1,2001,610,0,0
784,414,0,0,0,0,0,0,0,0,0,-1,2008,610,0,0
791,414,0,0,0,0,0,0,0,0,0,-1,2015,610,0,0
798,414,0,0,0,0,0,0,0,0,0,-1,2022,610,0,0
805,414,0,0,0,0,0,0,0,0,0,-1,2029,610,0,0
812,414,0,0,0,0,0,0,0,0,0,-1,2036,610,0,0
-700,407,0,0,0,0,0,0,0,0,0,-1,524,617,0,0
-693,407,0,0,0,0,0,0,0,0,0,-1,531,617,0,0
-686,407,0,0,0,0,0,0,0,0,0,-1,538,617,0,0
-679,407,0,0,0,0,0,0,0,0,0,-1,545,617,0,0
-672,407,0,0,0,0,0,0,0,0,0,-1,552,617,0,0
-665,407,0,0,0,0,0,0,0,0,0,-1,559,617,0,0
-658,407,0,0,0,0,0,0,0,0,0,-1,566,617,0,0
-651,407,0,0,0,0,0,0,0,0,0,-1,573,617,0,0
-644,407,0,0,0,0,0,0,0,0,0,-1,580,617,0,0
-637,407,0,0,0,0,0,0,0,0,0,-1,587,617,0,0
-630,407,0,0,0,0,0,0,0,0,0,-1,594,617,0,0
-623,407,0,0,0,0,0,0,0,0,0,-1,601,617,0,0
-616,407,0,0,0,0,0,0,0,0,0,-1,608,617,0,0
-609,407,0,0,0,0,0,0,0,0,0,-1,615,617,0,0
-602,407,0,0,0,0,0,0,0,0,0,-1,622,617,0,0
-595,407,0,0,0,0,0,0,0,0,0,-1,629,617,0,0
-588,407,0,0,0,0,0,0,0,0,0,-1,636,617,0,0
-581,407,0,0,0,0,0,0,0,0,0,-1,643,617,0,0
-574,407,0,0,0,0,0,0,0,0,0,-1,650,617,0,0
-567,407,0,0,0,0,0,0,0,0,0,-1,657,617,0,0
-560,407,0,0,0,0,0,0,0,0,0,-1,664,617,0,0
-553,407,0,0,0,0,0,0,0,0,0,-1,671,617,0,0
-546,407,-8.54517,-0.658142,0,0,0,0,0,0,0,-1,678,617,-8.54515,0.658112
-539,407,-6.09442,-1.01154,0,0,0,0,0,0,0,-1,685,617,-6.09441,1.01155
-532,407,-7.75665,1.62152,0,0,0,0,0,0,0,-1,692,617,-7.75667,-1.62154
-525,407,-3.78247,-2.67639,0,0,0,0,0,0,0,-1,699,617,-3.78246,2.67638
-518,407,-5.013,-5.87323,0,0,0,0,0,0,0,-1,706,617,-5.013,5.87324
-511,407,-9.42743,-4.94189,0,0,0,0,0,0,0,-1,713,617,-9.42745,4.94191
-504,407,-9.80591,-7.48315,0,0,0,0,0,0,0,-1,720,617,-9.80588,7.48317
-497,407,-9.84467,-6.81641,0,0,0,0,0,0,0,-1,727,617,-9.84468,6.8164
-490,407,-10.0148,-7.07092,0,0,0,0,0,0,0,-1,734,617,-10.0148,7.07095
-483,407,-9.85626,-7.93176,-0.000582818,0.00767595,-0.00417215,0.00941672,-0.00232358,-1.17552,0.0071788,0.032847,741,617,-9.85627,7.93176
-476,407,-9.89404,-8.48187,-0.000531003,0.0057817,-0.00332742,0.00721166,-0.00196097,-1.16491,0.00557754,0.0163811,748,617,-9.89402,8.48189
-469,407,-9.93561,-9.04053,-0.000309177,0.00431359,-0.00266444,0.00552949,-0.00152508,-1.14268,0.0042861,0.0132335,755,617,-9.93558,9.04053
-462,407,-9.9964,-9.63824,-1.14147e-05,0.00309861,-0.00206411,0.0041279,-0.00104071,-1.10822,0.00315655,0.0191562,762,617,-9.9964,9.63824
-455,407,-10.0229,-10.2596,0.000309167,0.00197356,-0.0014921,0.00284984,-0.000567122,-1.03978,0.00211444,0.0208904,769,617,-10.0229,10.2596
-448,407,-9.97455,-10.8741,0.000681745,0.000889961,-0.000929926,0.00172159,-0.000149882,-0.841142,0.00120081,0.0195382,776,617,-9.97453,10.8741
-441,407,-10.0013,-11.4493,0.000999748,-9.51533e-05,-0.000363607,0.0011095,-0.000204903,-0.29314,0.000816581,0.0148324,783,617,-10.0013,11.4493
-434,407,-10.054,-11.9984,0.00132113,-0.000971333,0.000175275,0.00133445,-0.000984657,0.0758691,0.00134401,0.0108978,790,617,-10.054,11.9983
-427,407,-10.0498,-12.5787,0.00159716,-0.00197643,0.000733159,0.00174172,-0.002121,0.194686,0.00223373,0.0113418,797,617,-10.0498,12.5787
-420,407,-10.0524,-13.1633,0.00179796,-0.00309566,0.00137962,0.00216011,-0.00345781,0.256705,0.00327222,0.0107337,804,617,-10.0524,13.1633
-413,407,-10.0513,-13.704,0.00199345,-0.00397311,0.00194748,0.00257284,-0.0045525,0.289171,0.00416641,0.0134568,811,617,-10.0513,13.704
-406,407,-10.1218,-14.0793,0.0019303,-0.00519097,0.00245206,0.00269294,-0.0059536,0.301536,0.00510904,0.0402223,818,617,-10.1218,14.0794
-399,407,-9.9939,-14.4941,0,0,0,0,0,0,0,-1,825,617,-9.9939,14.4941
-392,407,-8.33612,-12.195,0,0,0,0,0,0,0,-1,832,617,-8.33611,12.195
-385,407,-7.65765,-10.7744,0,0,0,0,0,0,0,-1,839,617,-7.65767,10.7744
-378,407,-6.08655,-7.42291,0,0,0,0,0,0,0,-1,846,617,-6.08652,7.42292
-371,407,-7.4007,-5.79449,0,0,0,0,0,0,0,-1,853,617,-7.40072,5.79447
-364,407,-10.0638,-6.6228,0,0,0,0,0,0,0,-1,860,617,-10.0639,6.62279
-357,407,-6.64447,-1.83337,0,0,0,0,0,0,0,-1,867,617,-6.64446,1.8334
-350,407,-7.03351,-1.77551,0,0,0,0,0,0,0,-1,874,617,-7.03349,1.77551
-343,407,-7.40967,-1.95026,0,0,0,0,0,0,0,-1,881,617,-7.40969,1.95026
-336,407,-8.10229,-2.40662,0,0,0,0,0,0,0,-1,888,617,-8.10229,2.40664
-329,407,-8.81232,-2.76331,0,0,0,0,0,0,0,-1,895,617,-8.81235,2.76331
-322,407,0,0,0,0,0,0,0,0,0,-1,902,617,0,0
-315,407,0,0,0,0,0,0,0,0,0,-1,909,617,0,0
-308,407,0,0,0,0,0,0,0,0,0,-1,916,617,0,0
-301,407,0,0,0,0,0,0,0,0,0,-1,923,617,0,0
-294,407,0,0,0,0,0,0,0,0,0,-1,930,617,0,0
-287,407,0,0,0,0,0,0,0,0,0,-1,937,617,0,0
-280,407,0,0,0,0,0,0,0,0,0,-1,944,617,0,0
-273,407,0,0,0,0,0,0,0,0,0,-1,951,617,0,0
-266,407,0,0,0,0,0,0,0,0,0,-1,958,617,0,0
-259,407,0,0,0,0,0,0,0,0,0,-1,965,617,0,0
-252,407,0,0,0,0,0,0,0,0,0,-1,972,617,0,0
-245,407,0,0,0,0,0,0,0,0,0,-1,979,617,0,0
-238,407,0,0,0,0,0,0,0,0,0,-1,986,617,0,0
-231,407,0,0,0,0,0,0,0,0,0,-1,993,617,0,0
-224,407,0,0,0,0,0,0,0,0,0,-1,1000,617,0,0
-217,407,0,0,0,0,0,0,0,0,0,-1,1007,617,0,0
-210,407,0,0,0,0,0,0,0,0,0,-1,1014,617,0,0
-203,407,0,0,0,0,0,0,0,0,0,-1,1021,617,0,0
-196,407,0,0,0,0,0,0,0,0,0,-1,1028,617,0,0
-189,407,0,0,0,0,0,0,0,0,0,-1,1035,617,0,0
-182,407,0,0,0,0,0,0,0,0,0,-1,1042,617,0,0
-175,407,0,0,0,0,0,0,0,0,0,-1,1049,617,0,0
-168,407,0,0,0,0,0,0,0,0,0,-1,1056,617,0,0
-161,407,0,0,0,0,0,0,0,0,0,-1,1063,617,0,0
-154,407,0,0,0,0,0,0,0,0,0,-1,1070,617,0,0
-147,407,0,0,0,0,0,0,0,0,0,-1,1077,617,0,0
-140,407,0,0,0,0,0,0,0,0,0,-1,1084,617,0,0
-133,407,0,0,0,0,0,0,0,0,0,-1,1091,617,0,0
-126,407,0,0,0,0,0,0,0,0,0,-1,1098,617,0,0
-119,407,0,0,0,0,0,0,0,0,0,-1,1105,617,0,0
-112,407,0,0,0,0,0,0,0,0,0,-1,1112,617,0,0
-105,407,0,0,0,0,0,0,0,0,0,-1,1119,617,0,0
-98,407,0,0,0,0,0,0,0,0,0,-1,1126,617,0,0
-91,407,0,0,0,0,0,0,0,0,0,-1,1133,617,0,0
-84,407,0,0,0,0,0,0,0,0,0,-1,1140,617,0,0
-77,407,0,0,0,0,0,0,0,0,0,-1,1147,617,0,0
-70,407,0,0,0,0,0,0,0,0,0,-1,1154,617,0,0
-63,407,0,0,0,0,0,0,0,0,0,-1,1161,617,0,0
-56,407,0,0,0,0,0,0,0,0,0,-1,1168,617,0,0
-49,407,0,0,0,0,0,0,0,0,0,-1,1175,617,0,0
-42,407,0,0,0,0,0,0,0,0,0,-1,1182,617,0,0
-35,407,0,0,0,0,0,0,0,0,0,-1,1189,617,0,0
-28,407,0,0,0,0,0,0,0,0,0,-1,1196,617,0,0
-21,407,0,0,0,0,0,0,0,0,0,-1,1203,617,0,0
-14,407,0,0,0,0,0,0,0,0,0,-1,1210,617,0,0
-7,407,0,0,0,0,0,0,0,0,0,-1,1217,617,0,0
0,407,0,0,0,0,0,0,0,0,0,-1,1224,617,0,0
7,407,0,0,0,0,0,0,0,0,0,-1,1231,617,0,0
14,407,0,0,0,0,0,0,0,0,0,-1,1238,617,0,0
21,407,0,0,0,0,0,0,0,0,0,-1,1245,617,0,0
28,407,0,0,0,0,0,0,0,0,0,-1,1252,617,0,0
35,407,0,0,0,0,0,0,0,0,0,-1,1259,617,0,0
42,407,0,0,0,0,0,0,0,0,0,-1,1266,617,0,0
49,407,0,0,0,0,0,0,0,0,0,-1,1273,617,0,0
56,407,0,0,0,0,0,0,0,0,0,-1,1280,617,0,0
63,407,0,0,0,0,0,0,0,0,0,-1,1287,617,0,0
70,407,0,0,0,0,0,0,0,0,0,-1,1294,617,0,0
77,407,0,0,0,0,0,0,0,0,0,-1,1301,617,0,0
84,407,0,0,0,0,0,0,0,0,0,-1,1308,617,0,0
91,407,0,0,0,0,0,0,0,0,0,-1,1315,617,0,0
98,407,0,0,0,0,0,0,0,0,0,-1,1322,617,0,0
105,407,0,0,0,0,0,0,0,0,0,-1,1329,617,0,0
112,407,0,0,0,0,0,0,0,0,0,-1,1336,617,0,0
119,407,0,0,0,0,0,0,0,0,0,-1,1343,617,0,0
126,407,0,0,0,0,0,0,0,0,0,-1,1350,617,0,0
133,407,0,0,0,0,0,0,0,0,0,-1,1357,617,0,0
140,407,0,0,0,0,0,0,0,0,0,-1,1364,617,0,0
147,407,0,0,0,0,0,0,0,0,0,-1,1371,617,0,0
154,407,0,0,0,0,0,0,0,0,0,-1,1378,617,0,0
161,407,0,0,0,0,0,0,0,0,0,-1,1385,617,0,0
168,407,0,0,0,0,0,0,0,0,0,-1,1392,617,0,0
175,407,0,0,0,0,0,0,0,0,0,-1,1399,617,0,0
182,407,0,0,0,0,0,0,0,0,0,-1,1406,617,0,0
189,407,0,0,0,0,0,0,0,0,0,-1,1413,617,0,0
196,407,0,0,0,0,0,0,0,0,0,-1,1420,617,0,0
203,407,0,0,0,0,0,0,0,0,0,-1,1427,617,0,0
210,407,0,0,0,0,0,0,0,0,0,-1,1434,617,0,0
217,407,0,0,0,0,0,0,0,0,0,-1,1441,617,0,0
224,407,0,0,0,0,0,0,0,0,0,-1,1448,617,0,0
231,407,0,0,0,0,0,0,0,0,0,-1,1455,617,0,0
238,407,0,0,0,0,0,0,0,0,0,-1,1462,617,0,0
245,407,0,0,0,0,0,0,0,0,0,-1,1469,617,0,0
252,407,0,0,0,0,0,0,0,0,0,-1,1476,617,0,0
259,407,0,0,0,0,0,0,0,0,0,-1,1483,617,0,0
266,407,0,0,0,0,0,0,0,0,0,-1,1490,617,0,0
273,407,0,0,0,0,0,0,0,0,0,-1,1497,617,0,0
280,407,0,0,0,0,0,0,0,0,0,-1,1504,617,0,0
287,407,0,0,0,0,0,0,0,0,0,-1,1511,617,0,0
294,407,0,0,0,0,0,0,0,0,0,-1,1518,617,0,0
301,407,0,0,0,0,0,0,0,0,0,-1,1525,617,0,0
308,407,0,0,0,0,0,0,0,0,0,-1,1532,617,0,0
315,407,0,0,0,0,0,0,0,0,0,-1,1539,617,0,0
322,407,0,0,0,0,0,0,0,0,0,-1,1546,617,0,0
329,407,0,0,0,0,0,0,0,0,0,-1,1553,617,0,0
336,407,0,0,0,0,0,0,0,0,0,-1,1560,617,0,0
343,407,0,0,0,0,0,0,0,0,0,-1,1567,617,0,0
350,407,0,0,0,0,0,0,0,0,0,-1,1574,617,0,0
357,407,0,0,0,0,0,0,0,0,0,-1,1581,617,0,0
364,407,0,0,0,0,0,0,0,0,0,-1,1588,617,0,0
371,407,0,0,0,0,0,0,0,0,0,-1,1595,617,0,0
378,407,0,0,0,0,0,0,0,0,0,-1,1602,617,0,0
385,407,0,0,0,0,0,0,0,0,0,-1,1609,617,0,0
392,407,0,0,0,0,0,0,0,0,0,-1,1616,617,0,0
399,407,0,0,0,0,0,0,0,0,0,-1,1623,617,0,0
406,407,0,0,0,0,0,0,0,0,0,-1,1630,617,0,0
413,407,0,0,0,0,0,0,0,0,0,-1,1637,617,0,0
420,407,0,0,0,0,0,0,0,0,0,-1,1644,617,0,0
427,407,0,0,0,0,0,0,0,0,0,-1,1651,617,0,0
434,407,0,0,0,0,0,0,0,0,0,-1,1658,617,0,0
441,407,0,0,0,0,0,0,0,0,0,-1,1665,617,0,0
448,407,7.02893,2.13843,0,0,0,0,0,0,0,-1,1672,617,7.02899,-2.13844
455,407,7.55237,2.29242,0,0,0,0,0,0,0,-1,1679,617,7.55236,-2.29244
462,407,8.2926,2.46173,0,0,0,0,0,0,0,-1,1686,617,8.29261,-2.46174
469,407,8.71509,2.22681,0,0,0,0,0,0,0,-1,1693,617,8.71511,-2.22681
476,407,8.89917,1.47766,0,0,0,0,0,0,0,-1,1700,617,8.89914,-1.47768
483,407,9.02612,0.682983,0,0,0,0,0,0,0,-1,1707,617,9.02608,-0.683004
490,407,9.12659,0.000671387,0,0,0,0,0,0,0,-1,1714,617,9.12653,-0.000675931
497,407,7.76819,0.855835,0,0,0,0,0,0,0,-1,1721,617,7.7682,-0.855865
504,407,4.69336,0.160706,0,0,0,0,0,0,0,-1,1728,617,4.69337,-0.1607
511,407,4.07104,-0.00140381,0,0,0,0,0,0,0,-1,1735,617,4.07109,0.00141425
518,407,6.09534,1.9411,0,0,0,0,0,0,0,-1,1742,617,6.09532,-1.94113
525,407,5.72534,-1.35986,0,0,0,0,0,0,0,-1,1749,617,5.72529,1.35988
532,407,18.5767,-10.6388,0,0,0,0,0,0,0,-1,1756,617,18.5766,10.6388
539,407,20.4102,-12.3549,0,0,0,0,0,0,0,-1,1763,617,20.4101,12.3549
546,407,20.4567,-11.727,0.00558526,0.00128011,0.00218715,0.00650143,0.000363932,0.396683,0.00421821,0.021385,1770,617,20.4567,11.727
553,407,20.4436,-11.1324,0.00460179,0.00105129,0.00178228,0.00534209,0.000310984,0.393687,0.00346239,0.0166507,1777,617,20.4436,11.1324
560,407,20.4653,-10.4811,0.0037059,0.000905366,0.00144018,0.00431433,0.000296936,0.399724,0.00278253,0.0175883,1784,617,20.4654,10.4811
567,407,20.4235,-9.88715,0.00292774,0.000852561,0.00120597,0.00348105,0.000299252,0.430154,0.00222766,0.0305085,1791,617,20.4234,9.88715
574,407,20.4009,-9.35034,0.00236792,0.000989658,0.00113727,0.00300856,0.000349022,0.513005,0.00190008,0.0246296,1798,617,20.4009,9.35036
581,407,20.3879,-8.72351,0.00198232,0.00126222,0.00120663,0.00288148,0.000363062,0.640406,0.00181213,0.0172875,1805,617,20.3879,8.72349
588,407,20.3243,-8.09607,0.00175174,0.00173865,0.00139207,0.00313728,0.000353115,0.783048,0.00198432,0.0127339,1812,617,20.3243,8.0961
595,407,20.333,-7.48059,0.00180163,0.00237748,0.00176571,0.00387858,0.000300521,0.866219,0.0024916,0.0243507,1819,617,20.333,7.48059
602,407,20.3243,-6.84302,0.00212246,0.00324647,0.00233757,0.00508864,0.000280289,0.90337,0.00330297,0.0199005,1826,617,20.3244,6.84302
609,407,20.2689,-6.19635,0.00274495,0.00439087,0.0031493,0.00682295,0.000312862,0.913198,0.00444802,0.0165815,1833,617,20.2689,6.19634
616,407,20.3173,-5.46442,0.00367581,0.00594483,0.00420694,0.00916755,0.000453088,0.917103,0.00596641,0.0290123,1840,617,20.3172,5.46442
623,407,20.585,-4.6236,0,0,0,0,0,0,0,-1,1847,617,20.5849,4.62362
630,407,7.06177,0.814575,0,0,0,0,0,0,0,-1,1854,617,7.06178,-0.814579
637,407,9.54077,0.151917,0,0,0,0,0,0,0,-1,1861,617,9.5408,-0.151923
644,407,5.09766,2.27747,0,0,0,0,0,0,0,-1,1868,617,5.09764,-2.27746
651,407,7.37524,0.0513916,0,0,0,0,0,0,0,-1,1875,617,7.3752,-0.0513923
658,407,3.76685,0.594177,0,0,0,0,0,0,0,-1,1882,617,3.76683,-0.594184
665,407,5.76123,0.375061,0,0,0,0,0,0,0,-1,1889,617,5.76118,-0.37509
672,407,0,0,0,0,0,0,0,0,0,-1,1896,617,0,0
679,407,0,0,0,0,0,0,0,0,0,-1,1903,617,0,0
686,407,0,0,0,0,0,0,0,0,0,-1,1910,617,0,0
693,407,0,0,0,0,0,0,0,0,0,-1,1917,617,0,0
700,407,0,0,0,0,0,0,0,0,0,-1,1924,617,0,0
707,407,0,0,0,0,0,0,0,0,0,-1,1931,617,0,0
714,407,0,0,0,0,0,0,0,0,0,-1,1938,617,0,0
721,407,0,0,0,0,0,0,0,0,0,-1,1945,617,0,0
728,407,0,0,0,0,0,0,0,0,0,-1,1952,617,0,0
735,407,0,0,0,0,0,0,0,0,0,-1,1959,617,0,0
742,407,0,0,0,0,0,0,0,0,0,-1,1966,617,0,0
749,407,0,0,0,0,0,0,0,0,0,-1,1973,617,0,0
756,407,0,0,0,0,0,0,0,0,0,-1,1980,617,0,0
763,407,0,0,0,0,0,0,0,0,0,-1,1987,617,0,0
770,407,0,0,0,0,0,0,0,0,0,-1,1994,617,0,0
777,407,0,0,0,0,0,0,0,0,0,-1,2001,617,0,0
784,407,0,0,0,0,0,0,0,0,0,-1,2008,617,0,0
791,407,0,0,0,0,0,0,0,0,0,-1,2015,617,0,0
798,407,0,0,0,0,0,0,0,0,0,-1,2022,617,0,0
805,407,0,0,0,0,0,0,0,0,0,-1,2029,617,0,0
812,407,0,0,0,0,0,0,0,0,0,-1,2036,617,0,0
-700,400,0,0,0,0,0,0,0,0,0,-1,524,624,0,0
-693,400,0,0,0,0,0,0,0,0,0,-1,531,624,0,0
-686,400,0,0,0,0,0,0,0,0,0,-1,538,624,0,0
-679,400,0,0,0,0,0,0,0,0,0,-1,545,624,0,0
-672,400,0,0,0,0,0,0,0,0,0,-1,552,624,0,0
-665,400,0,0,0,0,0,0,0,0,0,-1,559,624,0,0
-658,400,0,0,0,0,0,0,0,0,0,-1,566,624,0,0
-651,400,0,0,0,0,0,0,0,0,0,-1,573,624,0,0
-644,400,0,0,0,0,0,0,0,0,0,-1,580,624,0,0
-637,400,0,0,0,0,0,0,0,0,0,-1,587,624,0,0
-630,400,0,0,0,0,0,0,0,0,0,-1,594,624,0,0
-623,400,0,0,0,0,0,0,0,0,0,-1,601,624,0,0
-616,400,0,0,0,0,0,0,0,0,0,-1,608,624,0,0
-609,400,0,0,0,0,0,0,0,0,0,-1,615,624,0,0
-602,400,0,0,0,0,0,0,0,0,0,-1,622,624,0,0
-595,400,0,0,0,0,0,0,0,0,0,-1,629,624,0,0
-588,400,0,0,0,0,0,0,0,0,0,-1,636,624,0,0
-581,400,0,0,0,0,0,0,0,0,0,-1,643,624,0,0
-574,400,0,0,0,0,0,0,0,0,0,-1,650,624,0,0
-567,400,0,0,0,0,0,0,0,0,0,-1,657,624,0,0
-560,400,0,0,0,0,0,0,0,0,0,-1,664,624,0,0
-553,400,0,0,0,0,0,0,0,0,0,-1,671,624,0,0
-546,400,-8.41174,-1.4599,0,0,0,0,0,0,0,-1,678,624,-8.41173,1.45989
-539,400,-5.69104,-1.7337,0,0,0,0,0,0,0,-1,685,624,-5.69103,1.7337
-532,400,-3.03632,-2.03912,0,0,0,0,0,0,0,-1,692,624,-3.03632,2.03909
-525,400,-6.20813,-7.04071,0,0,0,0,0,0,0,-1,699,624,-6.20814,7.04071
-518,400,-5.26544,-1.58661,0,0,0,0,0,0,0,-1,706,624,-5.26544,1.58658
-511,400,-10.6307,-6.7121,0,0,0,0,0,0,0,-1,713,624,-10.6307,6.71209
-504,400,-10.2663,-6.55109,0,0,0,0,0,0,0,-1,720,624,-10.2663,6.55106
-497,400,-10.5945,-6.5307,0,0,0,0,0,0,0,-1,727,624,-10.5946,6.53073
-490,400,-10.4394,-7.20044,0.000156801,0.00852581,-0.00447262,0.0104662,-0.00178359,-1.16146,0.0076417,0.0313704,734,624,-10.4394,7.20044
-483,400,-10.4634,-7.87531,1.51496e-05,0.00630594,-0.00349773,0.00786455,-0.00154345,-1.1516,0.00582607,0.0174571,741,624,-10.4634,7.8753
-476,400,-10.4825,-8.45801,5.02405e-05,0.00463501,-0.00275332,0.00592534,-0.00124009,-1.13255,0.00442193,0.014458,748,624,-10.4825,8.45802
-469,400,-10.5126,-9.04962,0.000238023,0.00333128,-0.00216227,0.00444312,-0.000873821,-1.09585,0.00329224,0.015487,755,624,-10.5126,9.04965
-462,400,-10.5323,-9.66418,0.000492501,0.00223189,-0.00162473,0.00320506,-0.000480663,-1.03114,0.00231363,0.0189176,762,624,-10.5323,9.66417
-455,400,-10.5595,-10.244,0.000783519,0.00118906,-0.00111771,0.00212225,-0.000149669,-0.87513,0.00146727,0.0198875,769,624,-10.5595,10.2439
-448,400,-10.5663,-10.8329,0.00113909,0.00022695,-0.000631195,0.00146174,-9.57011e-05,-0.472548,0.00100791,0.0160064,776,624,-10.5663,10.8329
-441,400,-10.5845,-11.389,0.00145357,-0.000648762,-0.000135737,0.0014623,-0.000657489,-0.0642096,0.00125292,0.0155683,783,624,-10.5845,11.3891
-434,400,-10.6217,-11.9456,0.00177292,-0.00147866,0.00036095,0.0018125,-0.00151824,0.109236,0.00192551,0.0120358,790,624,-10.6217,11.9456
-427,400,-10.6434,-12.5245,0.0020244,-0.00250876,0.000926036,0.00220627,-0.00269063,0.193932,0.00283184,0.0104269,797,624,-10.6434,12.5245
-420,400,-10.6012,-13.1246,0.00214955,-0.00376075,0.00166853,0.00258805,-0.00419926,0.256998,0.00395529,0.0154817,804,624,-10.6012,13.1246
-413,400,-10.6319,-13.5479,0.00226806,-0.00470462,0.00231114,0.00296454,-0.00540109,0.2927,0.00489771,0.0358594,811,624,-10.6319,13.5479
-406,400,-10.6265,-13.6173,0,0,0,0,0,0,0,-1,818,624,-10.6266,13.6173
-399,400,-11.0176,-13.2944,0,0,0,0,0,0,0,-1,825,624,-11.0176,13.2944
-392,400,-4.92285,-6.63354,0,0,0,0,0,0,0,-1,832,624,-4.92285,6.63354
-385,400,-3.68738,-5.04205,0,0,0,0,0,0,0,-1,839,624,-3.68736,5.04207
-378,400,-6.84064,-1.28662,0,0,0,0,0,0,0,-1,846,624,-6.84062,1.28662
-371,400,-6.98865,-1.2572,0,0,0,0,0,0,0,-1,853,624,-6.98865,1.25721
-364,400,-6.97247,-1.24133,0,0,0,0,0,0,0,-1,860,624,-6.97249,1.24135
-357,400,-7.18329,-1.23218,0,0,0,0,0,0,0,-1,867,624,-7.18327,1.2322
-350,400,-7.40186,-1.19409,0,0,0,0,0,0,0,-1,874,624,-7.40187,1.19407
-343,400,-8.09357,-1.51147,0,0,0,0,0,0,0,-1,881,624,-8.09355,1.51148
-336,400,0,0,0,0,0,0,0,0,0,-1,888,624,0,0
-329,400,0,0,0,0,0,0,0,0,0,-1,895,624,0,0
-322,400,0,0,0,0,0,0,0,0,0,-1,902,624,0,0
-315,400,0,0,0,0,0,0,0,0,0,-1,909,624,0,0
-308,400,0,0,0,0,0,0,0,0,0,-1,916,624,0,0
-301,400,0,0,0,0,0,0,0,0,0,-1,923,624,0,0
-294,400,0,0,0,0,0,0,0,0,0,-1,930,624,0,0
-287,400,0,0,0,0,0,0,0,0,0,-1,937,624,0,0
-280,400,0,0,0,0,0,0,0,0,0,-1,944,624,0,0
-273,400,0,0,0,0,0,0,0,0,0,-1,951,624,0,0
-266,400,0,0,0,0,0,0,0,0,0,-1,958,624,0,0
-259,400,0,0,0,0,0,0,0,0,0,-1,965,624,0,0
-252,400,0,0,0,0,0,0,0,0,0,-1,972,624,0,0
-245,400,0,0,0,0,0,0,0,0,0,-1,979,624,0,0
-238,400,0,0,0,0,0,0,0,0,0,-1,986,624,0,0
-231,400,0,0,0,0,0,0,0,0,0,-1,993,624,0,0
-224,400,0,0,0,0,0,0,0,0,0,-1,1000,624,0,0
-217,400,0,0,0,0,0,0,0,0,0,-1,1007,624,0,0
-210,400,0,0,0,0,0,0,0,0,0,-1,1014,624,0,0
-203,400,0,0,0,0,0,0,0,0,0,-1,1021,624,0,0
-196,400,0,0,0,0,0,0,0,0,0,-1,1028,624,0,0
-189,400,0,0,0,0,0,0,0,0,0,-1,1035,624,0,0
-182,400,0,0,0,0,0,0,0,0,0,-1,1042,624,0,0
-175,400,0,0,0,0,0,0,0,0,0,-1,1049,624,0,0
-168,400,0,0,0,0,0,0,0,0,0,-1,1056,624,0,0
-161,400,0,0,0,0,0,0,0,0,0,-1,1063,624,0,0
-154,400,0,0,0,0,0,0,0,0,0,-1,1070,624,0,0
-147,400,0,0,0,0,0,0,0,0,0,-1,1077,624,0,0
-140,400,0,0,0,0,0,0,0,0,0,-1,1084,624,0,0
-133,400,0,0,0,0,0,0,0,0,0,-1,1091,624,0,0
-126,400,0,0,0,0,0,0,0,0,0,-1,1098,624,0,0
-119,400,0,0,0,0,0,0,0,0,0,-1,1105,624,0,0
-112,400,0,0,0,0,0,0,0,0,0,-1,1112,624,0,0
-105,400,0,0,0,0,0,0,0,0,0,-1,1119,624,0,0
-98,400,0,0,0,0,0,0,0,0,0,-1,1126,624,0,0
-91,400,0,0,0,0,0,0,0,0,0,-1,1133,624,0,0
-84,400,0,0,0,0,0,0,0,0,0,-1,1140,624,0,0
-77,400,0,0,0,0,0,0,0,0,0,-1,1147,624,0,0
-70,400,0,0,0,0,0,0,0,0,0,-1,1154,624,0,0
-63,400,0,0,0,0,0,0,0,0,0,-1,1161,624,0,0
-56,400,0,0,0,0,0,0,0,0,0,-1,1168,624,0,0
-49,400,0,0,0,0,0,0,0,0,0,-1,1175,624,0,0
-42,400,0,0,0,0,0,0,0,0,0,-1,1182,624,0,0
-35,400,0,0,0,0,0,0,0,0,0,-1,1189,624,0,0
-28,400,0,0,0,0,0,0,0,0,0,-1,1196,624,0,0
-21,400,0,0,0,0,0,0,0,0,0,-1,1203,624,0,0
-14,400,0,0,0,0,0,0,0,0,0,-1,1210,624,0,0
-7,400,0,0,0,0,0,0,0,0,0,-1,1217,624,0,0
0,400,0,0,0,0,0,0,0,0,0,-1,1224,624,0,0
7,400,0,0,0,0,0,0,0,0,0,-1,1231,624,0,0
14,400,0,0,0,0,0,0,0,0,0,-1,1238,624,0,0
21,400,0,0,0,0,0,0,0,0,0,-1,1245,624,0,0
28,400,0,0,0,0,0,0,0,0,0,-1,1252,624,0,0
35,400,0,0,0,0,0,0,0,0,0,-1,1259,624,0,0
42,400,0,0,0,0,0,0,0,0,0,-1,1266,624,0,0
49,400,0,0,0,0,0,0,0,0,0,-1,1273,624,0,0
56,400,0,0,0,0,0,0,0,0,0,-1,1280,624,0,0
63,400,0,0,0,0,0,0,0,0,0,-1,1287,624,0,0
70,400,0,0,0,0,0,0,0,0,0,-1,1294,624,0,0
77,400,0,0,0,0,0,0,0,0,0,-1,1301,624,0,0
84,400,0,0,0,0,0,0,0,0,0,-1,1308,624,0,0
91,400,0,0,0,0,0,0,0,0,0,-1,1315,624,0,0
98,400,0,0,0,0,0,0,0,0,0,-1,1322,624,0,0
105,400,0,0,0,0,0,0,0,0,0,-1,1329,624,0,0
112,400,0,0,0,0,0,0,0,0,0,-1,1336,624,0,0
119,400,0,0,0,0,0,0,0,0,0,-1,1343,624,0,0
126,400,0,0,0,0,0,0,0,0,0,-1,1350,624,0,0
133,400,0,0,0,0,0,0,0,0,0,-1,1357,624,0,0
140,400,0,0,0,0,0,0,0,0,0,-1,1364,624,0,0
147,400,0,0,0,0,0,0,0,0,0,-1,1371,624,0,0
154,400,0,0,0,0,0,0,0,0,0,-1,1378,624,0,0
161,400,0,0,0,0,0,0,0,0,0,-1,1385,624,0,0
168,400,0,0,0,0,0,0,0,0,0,-1,1392,624,0,0
175,400,0,0,0,0,0,0,0,0,0,-1,1399,624,0,0
182,400,0,0,0,0,0,0,0,0,0,-1,1406,624,0,0
189,400,0,0,0,0,0,0,0,0,0,-1,1413,624,0,0
196,400,0,0,0,0,0,0,0,0,0,-1,1420,624,0,0
203,400,0,0,0,0,0,0,0,0,0,-1,1427,624,0,0
210,400,0,0,0,0,0,0,0,0,0,-1,1434,624,0,0
217,400,0,0,0,0,0,0,0,0,0,-1,1441,624,0,0
224,400,0,0,0,0,0,0,0,0,0,-1,1448,624,0,0
231,400,0,0,0,0,0,0,0,0,0,-1,1455,624,0,0
238,400,0,0,0,0,0,0,0,0,0,-1,1462,624,0,0
245,400,0,0,0,0,0,0,0,0,0,-1,1469,624,0,0
252,400,0,0,0,0,0,0,0,0,0,-1,1476,624,0,0
259,400,0,0,0,0,0,0,0,0,0,-1,1483,624,0,0
266,400,0,0,0,0,0,0,0,0,0,-1,1490,624,0,0
273,400,0,0,0,0,0,0,0,0,0,-1,1497,624,0,0
280,400,0,0,0,0,0,0,0,0,0,-1,1504,624,0,0
287,400,0,0,0,0,0,0,0,0,0,-1,1511,624,0,0
294,400,0,0,0,0,0,0,0,0,0,-1,1518,624,0,0
301,400,0,0,0,0,0,0,0,0,0,-1,1525,624,0,0
308,400,0,0,0,0,0,0,0,0,0,-1,1532,624,0,0
315,400,0,0,0,0,0,0,0,0,0,-1,1539,624,0,0
322,400,0,0,0,0,0,0,0,0,0,-1,1546,624,0,0
329,400,0,0,0,0,0,0,0,0,0,-1,1553,624,0,0
336,400,0,0,0,0,0,0,0,0,0,-1,1560,624,0,0
343,400,0,0,0,0,0,0,0,0,0,-1,1567,624,0,0
350,400,0,0,0,0,0,0,0,0,0,-1,1574,624,0,0
357,400,0,0,0,0,0,0,0,0,0,-1,1581,624,0,0
364,400,0,0,0,0,0,0,0,0,0,-1,1588,624,0,0
371,400,0,0,0,0,0,0,0,0,0,-1,1595,624,0,0
378,400,0,0,0,0,0,0,0,0,0,-1,1602,624,0,0
385,400,0,0,0,0,0,0,0,0,0,-1,1609,624,0,0
392,400,0,0,0,0,0,0,0,0,0,-1,1616,624,0,0
399,400,0,0,0,0,0,0,0,0,0,-1,1623,624,0,0
406,400,0,0,0,0,0,0,0,0,0,-1,1630,624,0,0
413,400,0,0,0,0,0,0,0,0,0,-1,1637,624,0,0
420,400,0,0,0,0,0,0,0,0,0,-1,1644,624,0,0
427,400,0,0,0,0,0,0,0,0,0,-1,1651,624,0,0
434,400,0,0,0,0,0,0,0,0,0,-1,1658,624,0,0
441,400,0,0,0,0,0,0,0,0,0,-1,1665,624,0,0
448,400,0,0,0,0,0,0,0,0,0,-1,1672,624,0,0
455,400,8.91309,2.75885,0,0,0,0,0,0,0,-1,1679,624,8.91312,-2.75885
462,400,8.90356,2.37878,0,0,0,0,0,0,0,-1,1686,624,8.90353,-2.37878
469,400,9.14429,1.76849,0,0,0,0,0,0,0,-1,1693,624,9.14432,-1.76847
476,400,9.23254,1.25995,0,0,0,0,0,0,0,-1,1700,624,9.23252,-1.25994
483,400,9.59766,0.562439,0,0,0,0,0,0,0,-1,1707,624,9.59771,-0.56242
490,400,9.92578,-0.213745,0,0,0,0,0,0,0,-1,1714,624,9.92579,0.21376
497,400,9.19141,0.175232,0,0,0,0,0,0,0,-1,1721,624,9.19138,-0.175209
504,400,9.23438,0.00823975,0,0,0,0,0,0,0,-1,1728,624,9.23436,-0.00823766
511,400,6.16687,3.3501,0,0,0,0,0,0,0,-1,1735,624,6.16682,-3.35007
518,400,6.55237,1.74994,0,0,0,0,0,0,0,-1,1742,624,6.55236,-1.74993
525,400,6.99731,1.08783,0,0,0,0,0,0,0,-1,1749,624,6.99736,-1.08785
532,400,6.96582,-1.74982,0,0,0,0,0,0,0,-1,1756,624,6.96585,1.74983
539,400,21.2305,-10.5841,0,0,0,0,0,0,0,-1,1763,624,21.2304,10.5841
546,400,21.0874,-11.7161,0,0,0,0,0,0,0,-1,1770,624,21.0874,11.7161
553,400,21.0062,-11.1318,0.00574691,0.00119281,0.00205414,0.00653653,0.00040319,0.366989,0.0042297,0.0379783,1777,624,21.0062,11.1318
560,400,21.05,-10.4426,0.0046309,0.00101611,0.00165173,0.00527195,0.000375058,0.370213,0.00339653,0.0161788,1784,624,21.0501,10.4427
567,400,21.0433,-9.85352,0.00364779,0.000894092,0.00133626,0.00418961,0.000352271,0.385219,0.00268337,0.0184314,1791,624,21.0433,9.85353
574,400,21.0184,-9.33588,0.0029202,0.00100216,0.00122222,0.00351474,0.000407625,0.452742,0.0022198,0.0194975,1798,624,21.0184,9.33589
581,400,20.9644,-8.68408,0.00238272,0.00125751,0.00124687,0.00318804,0.000452188,0.573466,0.00199182,0.019722,1805,624,20.9644,8.6841
588,400,20.9137,-8.0329,0.00201459,0.0016806,0.00137396,0.00323167,0.000463528,0.724924,0.00201776,0.0162046,1812,624,20.9137,8.03292
595,400,20.9229,-7.4519,0.00195669,0.00223944,0.0016871,0.00379108,0.000405052,0.827199,0.00240377,0.0152413,1819,624,20.9229,7.45188
602,400,20.9329,-6.8382,0.00218463,0.00297561,0.0021889,0.00480446,0.000355783,0.874774,0.00309121,0.0144802,1826,624,20.9328,6.83819
609,400,20.8563,-6.2052,0.00265582,0.00390491,0.0028569,0.00620474,0.000355993,0.89301,0.00402308,0.0141338,1833,624,20.8563,6.20519
616,400,20.8264,-5.58423,0.00342684,0.00514022,0.00374512,0.00812539,0.000441678,0.897838,0.00527587,0.0188499,1840,624,20.8264,5.58422
623,400,20.8878,-4.94489,0,0,0,0,0,0,0,-1,1847,624,20.8879,4.94488
630,400,11.9432,0.09021,0,0,0,0,0,0,0,-1,1854,624,11.9432,-0.0902007
637,400,6.92896,1.01917,0,0,0,0,0,0,0,-1,1861,624,6.92899,-1.01918
644,400,8.65381,1.4599,0,0,0,0,0,0,0,-1,1868,624,8.65379,-1.45991
651,400,7.90601,0.424072,0,0,0,0,0,0,0,-1,1875,624,7.90598,-0.424097
658,400,8.69031,1.0484,0,0,0,0,0,0,0,-1,1882,624,8.6903,-1.0484
665,400,5.98438,0.522522,0,0,0,0,0,0,0,-1,1889,624,5.98442,-0.522552
672,400,0,0,0,0,0,0,0,0,0,-1,1896,624,0,0
679,400,0,0,0,0,0,0,0,0,0,-1,1903,624,0,0
686,400,0,0,0,0,0,0,0,0,0,-1,1910,624,0,0
693,400,0,0,0,0,0,0,0,0,0,-1,1917,624,0,0
700,400,0,0,0,0,0,0,0,0,0,-1,1924,624,0,0
707,400,0,0,0,0,0,0,0,0,0,-1,1931,624,0,0
714,400,0,0,0,0,0,0,0,0,0,-1,1938,624,0,0
721,400,0,0,0,0,0,0,0,0,0,-1,1945,624,0,0
728,400,0,0,0,0,0,0,0,0,0,-1,1952,624,0,0
735,400,0,0,0,0,0,0,0,0,0,-1,1959,624,0,0
742,400,0,0,0,0,0,0,0,0,0,-1,1966,624,0,0
749,400,0,0,0,0,0,0,0,0,0,-1,1973,624,0,0
756,400,0,0,0,0,0,0,0,0,0,-1,1980,624,0,0
763,400,0,0,0,0,0,0,0,0,0,-1,1987,624,0,0
770,400,0,0,0,0,0,0,0,0,0,-1,1994,624,0,0
777,400,0,0,0,0,0,0,0,0,0,-1,2001,624,0,0
784,400,0,0,0,0,0,0,0,0,0,-1,2008,624,0,0
791,400,0,0,0,0,0,0,0,0,0,-1,2015,624,0,0
798,400,0,0,0,0,0,0,0,0,0,-1,2022,624,0,0
805,400,0,0,0,0,0,0,0,0,0,-1,2029,624,0,0
812,400,0,0,0,0,0,0,0,0,0,-1,2036,624,0,0
-700,393,0,0,0,0,0,0,0,0,0,-1,524,631,0,0
-693,393,0,0,0,0,0,0,0,0,0,-1,531,631,0,0
-686,393,0,0,0,0,0,0,0,0,0,-1,538,631,0,0
-679,393,0,0,0,0,0,0,0,0,0,-1,545,631,0,0
-672,393,0,0,0,0,0,0,0,0,0,-1,552,631,0,0
-665,393,0,0,0,0,0,0,0,0,0,-1,559,631,0,0
-658,393,0,0,0,0,0,0,0,0,0,-1,566,631,0,0
-651,393,0,0,0,0,0,0,0,0,0,-1,573,631,0,0
-644,393,0,0,0,0,0,0,0,0,0,-1,580,631,0,0
-637,393,0,0,0,0,0,0,0,0,0,-1,587,631,0,0
-630,393,0,0,0,0,0,0,0,0,0,-1,594,631,0,0
-623,393,0,0,0,0,0,0,0,0,0,-1,601,631,0,0
-616,393,0,0,0,0,0,0,0,0,0,-1,608,631,0,0
-609,393,0,0,0,0,0,0,0,0,0,-1,615,631,0,0
-602,393,0,0,0,0,0,0,0,0,0,-1,622,631,0,0
-595,393,0,0,0,0,0,0,0,0,0,-1,629,631,0,0
-588,393,0,0,0,0,0,0,0,0,0,-1,636,631,0,0
-581,393,0,0,0,0,0,0,0,0,0,-1,643,631,0,0
-574,393,0,0,0,0,0,0,0,0,0,-1,650,631,0,0
-567,393,0,0,0,0,0,0,0,0,0,-1,657,631,0,0
-560,393,0,0,0,0,0,0,0,0,0,-1,664,631,0,0
-553,393,-2.35107,3.92633,0,0,0,0,0,0,0,-1,671,631,-2.35108,-3.92634
-546,393,-1.78778,2.4856,0,0,0,0,0,0,0,-1,678,631,-1.78778,-2.48557
-539,393,-5.2113,-2.20245,0,0,0,0,0,0,0,-1,685,631,-5.21128,2.20247
-532,393,-2.83643,-2.01624,0,0,0,0,0,0,0,-1,692,631,-2.83642,2.01626
-525,393,-5.9505,-0.952698,0,0,0,0,0,0,0,-1,699,631,-5.95053,0.95268
-518,393,-5.80219,-1.57739,0,0,0,0,0,0,0,-1,706,631,-5.80219,1.57738
-511,393,-6.15527,-2.09906,0,0,0,0,0,0,0,-1,713,631,-6.15526,2.09903
-504,393,-11.4282,-5.41144,0,0,0,0,0,0,0,-1,720,631,-11.4282,5.41142
-497,393,-11.0724,-6.33398,0.00097779,0.00931295,-0.00485036,0.0115403,-0.00124953,-1.14031,0.00814204,0.0396561,727,631,-11.0724,6.33397
-490,393,-11.0123,-7.22839,0.000671349,0.00700131,-0.0037631,0.00875345,-0.00108079,-1.13504,0.00622724,0.0199612,734,631,-11.0123,7.2284
-483,393,-11.0452,-7.84235,0.000501302,0.00511672,-0.00291429,0.00652635,-0.000908324,-1.12028,0.00468313,0.0204591,741,631,-11.0451,7.84237
-476,393,-11.079,-8.43707,0.000509958,0.00367585,-0.00226906,0.00485956,-0.000673749,-1.08996,0.00348606,0.0172444,748,631,-11.079,8.43706
-469,393,-11.0831,-9.03503,0.000660754,0.00253661,-0.00174893,0.00358324,-0.000385879,-1.03152,0.00252729,0.0130822,755,631,-11.0831,9.03501
-462,393,-11.1039,-9.64734,0.00089042,0.00156755,-0.0012847,0.00255755,-9.95826e-05,-0.914236,0.00173918,0.0149219,762,631,-11.1039,9.64735
-455,393,-11.1289,-10.234,0.00117508,0.000624451,-0.000855481,0.00179846,1.07609e-06,-0.629719,0.00119861,0.0149313,769,631,-11.1289,10.234
-448,393,-11.1589,-10.8318,0.00153775,-0.000191406,-0.000463192,0.00165401,-0.000307666,-0.245916,0.00121825,0.0143526,776,631,-11.159,10.8319
-441,393,-11.1848,-11.3941,0.00189641,-0.000926528,-7.32134e-05,0.00189831,-0.000928426,-0.0259119,0.00166373,0.0132994,783,631,-11.1847,11.3941
-434,393,-11.2033,-11.9321,0.0022678,-0.00170506,0.000347613,0.00229798,-0.00173525,0.08662,0.00233613,0.0120106,790,631,-11.2033,11.9321
-427,393,-11.1868,-12.5313,0.00254703,-0.00276772,0.000898389,0.00269478,-0.00291548,0.163005,0.00323992,0.0206687,797,631,-11.1868,12.5313
-420,393,-11.2018,-13.0449,0.00265113,-0.00418616,0.0017467,0.00307151,-0.00460654,0.236178,0.00446235,0.0463357,804,631,-11.2018,13.0449
-413,393,-11.4381,-13.563,0,0,0,0,0,0,0,-1,811,631,-11.4381,13.563
-406,393,-11.826,-12.7987,0,0,0,0,0,0,0,-1,818,631,-11.8261,12.7987
-399,393,-5.07343,-5.92365,0,0,0,0,0,0,0,-1,825,631,-5.07344,5.92364
-392,393,-2.08063,-3.02386,0,0,0,0,0,0,0,-1,832,631,-2.08063,3.02384
-385,393,-3.16931,-0.624756,0,0,0,0,0,0,0,-1,839,631,-3.16928,0.624764
-378,393,-7.33081,-0.872314,0,0,0,0,0,0,0,-1,846,631,-7.33081,0.872325
-371,393,-7.47858,-0.811096,0,0,0,0,0,0,0,-1,853,631,-7.47859,0.811075
-364,393,-7.64917,-0.662415,0,0,0,0,0,0,0,-1,860,631,-7.64917,0.662406
-357,393,-8.09686,-0.726013,0,0,0,0,0,0,0,-1,867,631,-8.09689,0.726029
-350,393,-8.38788,-0.511841,0,0,0,0,0,0,0,-1,874,631,-8.38785,0.511811
-343,393,0,0,0,0,0,0,0,0,0,-1,881,631,0,0
-336,393,0,0,0,0,0,0,0,0,0,-1,888,631,0,0
-329,393,0,0,0,0,0,0,0,0,0,-1,895,631,0,0
-322,393,0,0,0,0,0,0,0,0,0,-1,902,631,0,0
-315,393,0,0,0,0,0,0,0,0,0,-1,909,631,0,0
-308,393,0,0,0,0,0,0,0,0,0,-1,916,631,0,0
-301,393,0,0,0,0,0,0,0,0,0,-1,923,631,0,0
-294,393,0,0,0,0,0,0,0,0,0,-1,930,631,0,0
-287,393,0,0,0,0,0,0,0,0,0,-1,937,631,0,0
-280,393,0,0,0,0,0,0,0,0,0,-1,944,631,0,0
-273,393,0,0,0,0,0,0,0,0,0,-1,951,631,0,0
-266,393,0,0,0,0,0,0,0,0,0,-1,958,631,0,0
-259,393,0,0,0,0,0,0,0,0,0,-1,965,631,0,0
-252,393,0,0,0,0,0,0,0,0,0,-1,972,631,0,0
-245,393,0,0,0,0,0,0,0,0,0,-1,979,631,0,0
-238,393,0,0,0,0,0,0,0,0,0,-1,986,631,0,0
-231,393,0,0,0,0,0,0,0,0,0,-1,993,631,0,0
-224,393,0,0,0,0,0,0,0,0,0,-1,1000,631,0,0
-217,393,0,0,0,0,0,0,0,0,0,-1,1007,631,0,0
-210,393,0,0,0,0,0,0,0,0,0,-1,1014,631,0,0
-203,393,0,0,0,0,0,0,0,0,0,-1,1021,631,0,0
-196,393,0,0,0,0,0,0,0,0,0,-1,1028,631,0,0
-189,393,0,0,0,0,0,0,0,0,0,-1,1035,631,0,0
-182,393,0,0,0,0,0,0,0,0,0,-1,1042,631,0,0
-175,393,0,0,0,0,0,0,0,0,0,-1,1049,631,0,0
-168,393,0,0,0,0,0,0,0,0,0,-1,1056,631,0,0
-161,393,0,0,0,0,0,0,0,0,0,-1,1063,631,0,0
-154,393,0,0,0,0,0,0,0,0,0,-1,1070,631,0,0
-147,393,0,0,0,0,0,0,0,0,0,-1,1077,631,0,0
-140,393,0,0,0,0,0,0,0,0,0,-1,1084,631,0,0
-133,393,0,0,0,0,0,0,0,0,0,-1,1091,631,0,0
-126,393,0,0,0,0,0,0,0,0,0,-1,1098,631,0,0
-119,393,0,0,0,0,0,0,0,0,0,-1,1105,631,0,0
-112,393,0,0,0,0,0,0,0,0,0,-1,1112,631,0,0
-105,393,0,0,0,0,0,0,0,0,0,-1,1119,631,0,0
-98,393,0,0,0,0,0,0,0,0,0,-1,1126,631,0,0
-91,393,0,0,0,0,0,0,0,0,0,-1,1133,631,0,0
-84,393,0,0,0,0,0,0,0,0,0,-1,1140,631,0,0
-77,393,0,0,0,0,0,0,0,0,0,-1,1147,631,0,0
-70,393,0,0,0,0,0,0,0,0,0,-1,1154,631,0,0
-63,393,0,0,0,0,0,0,0,0,0,-1,1161,631,0,0
-56,393,0,0,0,0,0,0,0,0,0,-1,1168,631,0,0
-49,393,0,0,0,0,0,0,0,0,0,-1,1175,631,0,0
-42,393,0,0,0,0,0,0,0,0,0,-1,1182,631,0,0
-35,393,0,0,0,0,0,0,0,0,0,-1,1189,631,0,0
-28,393,0,0,0,0,0,0,0,0,0,-1,1196,631,0,0
-21,393,0,0,0,0,0,0,0,0,0,-1,1203,631,0,0
-14,393,0,0,0,0,0,0,0,0,0,-1,1210,631,0,0
-7,393,0,0,0,0,0,0,0,0,0,-1,1217,631,0,0
0,393,0,0,0,0,0,0,0,0,0,-1,1224,631,0,0
7,393,0,0,0,0,0,0,0,0,0,-1,1231,631,0,0
14,393,0,0,0,0,0,0,0,0,0,-1,1238,631,0,0
21,393,0,0,0,0,0,0,0,0,0,-1,1245,631,0,0
28,393,0,0,0,0,0,0,0,0,0,-1,1252,631,0,0
35,393,0,0,0,0,0,0,0,0,0,-1,1259,631,0,0
42,393,0,0,0,0,0,0,0,0,0,-1,1266,631,0,0
49,393,0,0,0,0,0,0,0,0,0,-1,1273,631,0,0
56,393,0,0,0,0,0,0,0,0,0,-1,1280,631,0,0
63,393,0,0,0,0,0,0,0,0,0,-1,1287,631,0,0
70,393,0,0,0,0,0,0,0,0,0,-1,1294,631,0,0
77,393,0,0,0,0,0,0,0,0,0,-1,1301,631,0,0
84,393,0,0,0,0,0,0,0,0,0,-1,1308,631,0,0
91,393,0,0,0,0,0,0,0,0,0,-1,1315,631,0,0
98,393,0,0,0,0,0,0,0,0,0,-1,1322,631,0,0
105,393,0,0,0,0,0,0,0,0,0,-1,1329,631,0,0
112,393,0,0,0,0,0,0,0,0,0,-1,1336,631,0,0
119,393,0,0,0,0,0,0,0,0,0,-1,1343,631,0,0
126,393,0,0,0,0,0,0,0,0,0,-1,1350,631,0,0
133,393,0,0,0,0,0,0,0,0,0,-1,1357,631,0,0
140,393,0,0,0,0,0,0,0,0,0,-1,1364,631,0,0
147,393,0,0,0,0,0,0,0,0,0,-1,1371,631,0,0
154,393,0,0,0,0,0,0,0,0,0,-1,1378,631,0,0
161,393,0,0,0,0,0,0,0,0,0,-1,1385,631,0,0
168,393,0,0,0,0,0,0,0,0,0,-1,1392,631,0,0
175,393,0,0,0,0,0,0,0,0,0,-1,1399,631,0,0
182,393,0,0,0,0,0,0,0,0,0,-1,1406,631,0,0
189,393,0,0,0,0,0,0,0,0,0,-1,1413,631,0,0
196,393,0,0,0,0,0,0,0,0,0,-1,1420,631,0,0
203,393,0,0,0,0,0,0,0,0,0,-1,1427,631,0,0
210,393,0,0,0,0,0,0,0,0,0,-1,1434,631,0,0
217,393,0,0,0,0,0,0,0,0,0,-1,1441,631,0,0
224,393,0,0,0,0,0,0,0,0,0,-1,1448,631,0,0
231,393,0,0,0,0,0,0,0,0,0,-1,1455,631,0,0
238,393,0,0,0,0,0,0,0,0,0,-1,1462,631,0,0
245,393,0,0,0,0,0,0,0,0,0,-1,1469,631,0,0
252,393,0,0,0,0,0,0,0,0,0,-1,1476,631,0,0
259,393,0,0,0,0,0,0,0,0,0,-1,1483,631,0,0
266,393,0,0,0,0,0,0,0,0,0,-1,1490,631,0,0
273,393,0,0,0,0,0,0,0,0,0,-1,1497,631,0,0
280,393,0,0,0,0,0,0,0,0,0,-1,1504,631,0,0
287,393,0,0,0,0,0,0,0,0,0,-1,1511,631,0,0
294,393,0,0,0,0,0,0,0,0,0,-1,1518,631,0,0
301,393,0,0,0,0,0,0,0,0,0,-1,1525,631,0,0
308,393,0,0,0,0,0,0,0,0,0,-1,1532,631,0,0
315,393,0,0,0,0,0,0,0,0,0,-1,1539,631,0,0
322,393,0,0,0,0,0,0,0,0,0,-1,1546,631,0,0
329,393,0,0,0,0,0,0,0,0,0,-1,1553,631,0,0
336,393,0,0,0,0,0,0,0,0,0,-1,1560,631,0,0
343,393,0,0,0,0,0,0,0,0,0,-1,1567,631,0,0
350,393,0,0,0,0,0,0,0,0,0,-1,1574,631,0,0
357,393,0,0,0,0,0,0,0,0,0,-1,1581,631,0,0
364,393,0,0,0,0,0,0,0,0,0,-1,1588,631,0,0
371,393,0,0,0,0,0,0,0,0,0,-1,1595,631,0,0
378,393,0,0,0,0,0,0,0,0,0,-1,1602,631,0,0
385,393,0,0,0,0,0,0,0,0,0,-1,1609,631,0,0
392,393,0,0,0,0,0,0,0,0,0,-1,1616,631,0,0
399,393,0,0,0,0,0,0,0,0,0,-1,1623,631,0,0
406,393,0,0,0,0,0,0,0,0,0,-1,1630,631,0,0
413,393,0,0,0,0,0,0,0,0,0,-1,1637,631,0,0
420,393,0,0,0,0,0,0,0,0,0,-1,1644,631,0,0
427,393,0,0,0,0,0,0,0,0,0,-1,1651,631,0,0
434,393,0,0,0,0,0,0,0,0,0,-1,1658,631,0,0
441,393,0,0,0,0,0,0,0,0,0,-1,1665,631,0,0
448,393,0,0,0,0,0,0,0,0,0,-1,1672,631,0,0
455,393,0,0,0,0,0,0,0,0,0,-1,1679,631,0,0
462,393,8.51099,1.89502,0,0,0,0,0,0,0,-1,1686,631,8.51103,-1.89504
469,393,9.39465,1.51703,0,0,0,0,0,0,0,-1,1693,631,9.39465,-1.51703
476,393,9.95569,1.185,0,0,0,0,0,0,0,-1,1700,631,9.95575,-1.18497
483,393,10.5267,0.887329,0,0,0,0,0,0,0,-1,1707,631,10.5267,-0.887321
490,393,10.9303,0.761414,0,0,0,0,0,0,0,-1,1714,631,10.9303,-0.761386
497,393,8.32153,1.88104,0,0,0,0,0,0,0,-1,1721,631,8.32148,-1.88103
504,393,9.46985,1.78711,0,0,0,0,0,0,0,-1,1728,631,9.46986,-1.78713
511,393,9.66565,-0.375977,0,0,0,0,0,0,0,-1,1735,631,9.66571,0.375949
518,393,7.01599,1.62482,0,0,0,0,0,0,0,-1,1742,631,7.01597,-1.62483
525,393,7.88245,-1.13422,0,0,0,0,0,0,0,-1,1749,631,7.88246,1.13423
532,393,7.06335,-1.18103,0,0,0,0,0,0,0,-1,1756,631,7.06332,1.18101
539,393,9.91626,-2.46301,0,0,0,0,0,0,0,-1,1763,631,9.91625,2.46302
546,393,16.4094,-8.04651,0,0,0,0,0,0,0,-1,1770,631,16.4094,8.04649
553,393,21.5515,-11.345,0,0,0,0,0,0,0,-1,1777,631,21.5515,11.345
560,393,21.6508,-10.5172,0.00583651,0.00104212,0.00197603,0.00654596,0.00033267,0.344694,0.00425742,0.0388864,1784,631,21.6508,10.5172
567,393,21.6219,-9.87488,0.00453076,0.000829352,0.00149988,0.00506223,0.000297883,0.340537,0.00328004,0.0152147,1791,631,21.622,9.87485
574,393,21.6172,-9.2912,0.00354925,0.000895007,0.00127628,0.00406336,0.000380898,0.382935,0.00259129,0.0150114,1798,631,21.6172,9.29119
581,393,21.5453,-8.64496,0.00279353,0.00113176,0.00120535,0.00342663,0.000498662,0.483634,0.00213767,0.015837,1805,631,21.5453,8.64497
588,393,21.5277,-8.00354,0.002255,0.0015069,0.00124657,0.00318243,0.000579469,0.639642,0.00195727,0.0185466,1812,631,21.5278,8.00352
595,393,21.5403,-7.43115,0.00206542,0.00201212,0.00148099,0.00352,0.000557536,0.776401,0.00218467,0.0155508,1819,631,21.5402,7.43117
602,393,21.5331,-6.82092,0.00218883,0.00266865,0.00190618,0.00434996,0.000507522,0.847999,0.00274647,0.0165479,1826,631,21.5331,6.82095
609,393,21.4861,-6.18134,0.00251706,0.00348438,0.00245583,0.00550372,0.000497713,0.882626,0.00351501,0.0164948,1833,631,21.4861,6.18132
616,393,21.4486,-5.5733,0.0030931,0.00454344,0.00317625,0.00707625,0.00056029,0.897629,0.00454227,0.0163347,1840,631,21.4486,5.57332
623,393,21.4779,-4.86725,0.00433216,0.00570836,0.00427556,0.00935084,0.000689685,0.865183,0.00601719,0.0322352,1847,631,21.4779,4.86723
630,393,21.5402,-4.04022,0,0,0,0,0,0,0,-1,1854,631,21.5402,4.04021
637,393,11.4626,0.608887,0,0,0,0,0,0,0,-1,1861,631,11.4627,-0.608904
644,393,8.97583,1.30585,0,0,0,0,0,0,0,-1,1868,631,8.97586,-1.30584
651,393,11.348,0.53302,0,0,0,0,0,0,0,-1,1875,631,11.348,-0.53305
658,393,9.21338,1.50836,0,0,0,0,0,0,0,-1,1882,631,9.21338,-1.50834
665,393,6.1001,2.32129,0,0,0,0,0,0,0,-1,1889,631,6.10012,-2.3213
672,393,7.14575,2.43225,0,0,0,0,0,0,0,-1,1896,631,7.14572,-2.43222
679,393,0,0,0,0,0,0,0,0,0,-1,1903,631,0,0
686,393,0,0,0,0,0,0,0,0,0,-1,1910,631,0,0
693,393,0,0,0,0,0,0,0,0,0,-1,1917,631,0,0
700,393,0,0,0,0,0,0,0,0,0,-1,1924,631,0,0
707,393,0,0,0,0,0,0,0,0,0,-1,1931,631,0,0
714,393,0,0,0,0,0,0,0,0,0,-1,1938,631,0,0
721,393,0,0,0,0,0,0,0,0,0,-1,1945,631,0,0
728,393,0,0,0,0,0,0,0,0,0,-1,1952,631,0,0
735,393,0,0,0,0,0,0,0,0,0,-1,1959,631,0,0
742,393,0,0,0,0,0,0,0,0,0,-1,1966,631,0,0
749,393,0,0,0,0,0,0,0,0,0,-1,1973,631,0,0
756,393,0,0,0,0,0,0,0,0,0,-1,1980,631,0,0
763,393,0,0,0,0,0,0,0,0,0,-1,1987,631,0,0
770,393,0,0,0,0,0,0,0,0,0,-1,1994,631,0,0
777,393,0,0,0,0,0,0,0,0,0,-1,2001,631,0,0
784,393,0,0,0,0,0,0,0,0,0,-1,2008,631,0,0
791,393,0,0,0,0,0,0,0,0,0,-1,2015,631,0,0
798,393,0,0,0,0,0,0,0,0,0,-1,2022,631,0,0
805,393,0,0,0,0,0,0,0,0,0,-1,2029,631,0,0
812,393,0,0,0,0,0,0,0,0,0,-1,2036,631,0,0
-700,386,0,0,0,0,0,0,0,0,0,-1,524,638,0,0
-693,386,0,0,0,0,0,0,0,0,0,-1,531,638,0,0
-686,386,0,0,0,0,0,0,0,0,0,-1,538,638,0,0
-679,386,0,0,0,0,0,0,0,0,0,-1,545,638,0,0
-672,386,0,0,0,0,0,0,0,0,0,-1,552,638,0,0
-665,386,0,0,0,0,0,0,0,0,0,-1,559,638,0,0
-658,386,0,0,0,0,0,0,0,0,0,-1,566,638,0,0
-651,386,0,0,0,0,0,0,0,0,0,-1,573,638,0,0
-644,386,0,0,0,0,0,0,0,0,0,-1,580,638,0,0
-637,386,0,0,0,0,0,0,0,0,0,-1,587,638,0,0
-630,386,0,0,0,0,0,0,0,0,0,-1,594,638,0,0
-623,386,0,0,0,0,0,0,0,0,0,-1,601,638,0,0
-616,386,0,0,0,0,0,0,0,0,0,-1,608,638,0,0
-609,386,0,0,0,0,0,0,0,0,0,-1,615,638,0,0
-602,386,0,0,0,0,0,0,0,0,0,-1,622,638,0,0
-595,386,0,0,0,0,0,0,0,0,0,-1,629,638,0,0
-588,386,0,0,0,0,0,0,0,0,0,-1,636,638,0,0
-581,386,0,0,0,0,0,0,0,0,0,-1,643,638,0,0
-574,386,0,0,0,0,0,0,0,0,0,-1,650,638,0,0
-567,386,0,0,0,0,0,0,0,0,0,-1,657,638,0,0
-560,386,-3.97229,-5.13898,0,0,0,0,0,0,0,-1,664,638,-3.97232,5.13897
-553,386,-4.94244,-5.54309,0,0,0,0,0,0,0,-1,671,638,-4.94242,5.5431
-546,386,-1.78668,1.72827,0,0,0,0,0,0,0,-1,678,638,-1.78668,-1.72829
-539,386,-0.879456,-2.90009,0,0,0,0,0,0,0,-1,685,638,-0.879442,2.90008
-532,386,-5.4884,1.73328,0,0,0,0,0,0,0,-1,692,638,-5.4884,-1.73325
-525,386,-6.64148,-1.50604,0,0,0,0,0,0,0,-1,699,638,-6.64149,1.50603
-518,386,-9.71906,-3.39722,0,0,0,0,0,0,0,-1,706,638,-9.71906,3.3972
-511,386,-11.6152,-4.59857,0,0,0,0,0,0,0,-1,713,638,-11.6152,4.59855
-504,386,-11.5886,-5.78357,0.00319876,0.0114499,-0.00680116,0.015279,-0.000630288,-1.05803,0.0104024,0.039265,720,638,-11.5885,5.7836
-497,386,-11.6564,-6.59717,0.00195886,0.00824388,-0.00475832,0.0108037,-0.000600995,-1.07723,0.00741096,0.019823,727,638,-11.6564,6.59717
-490,386,-11.5977,-7.2793,0.0011541,0.00570927,-0.00319986,0.00735934,-0.00049597,-1.09469,0.00507963,0.0138343,734,638,-11.5977,7.27932
-483,386,-11.6114,-7.888,0.000895712,0.00408567,-0.00237513,0.00535168,-0.000370291,-1.08108,0.0036974,0.0173783,741,638,-11.6114,7.88802
-476,386,-11.643,-8.46674,0.000934017,0.00288233,-0.00185102,0.00399988,-0.000183538,-1.02762,0.00272982,0.0162699,748,638,-11.643,8.46676
-469,386,-11.6674,-9.03613,0.00108481,0.00191315,-0.00142552,0.00298345,1.45151e-05,-0.926775,0.00198414,0.0116729,755,638,-11.6674,9.03613
-462,386,-11.673,-9.62799,0.00130571,0.0010856,-0.00105905,0.00226041,0.000130896,-0.733624,0.00146526,0.0110864,762,638,-11.6731,9.62797
-455,386,-11.6984,-10.2002,0.00159127,0.00025078,-0.000728735,0.00191111,-6.90679e-05,-0.413592,0.00129771,0.0130367,769,638,-11.6983,10.2002
-448,386,-11.728,-10.8019,0.00196138,-0.000396543,-0.000460673,0.00204818,-0.00048335,-0.186251,0.00155187,0.013013,776,638,-11.7279,10.8019
-441,386,-11.7633,-11.3779,0.00238506,-0.000961851,-0.000225097,0.00240013,-0.000976922,-0.066854,0.00200663,0.0135164,783,638,-11.7633,11.3779
-434,386,-11.7414,-11.9938,0.00283055,-0.00170192,8.04086e-05,0.00283198,-0.00170334,0.0177331,0.00264536,0.035815,790,638,-11.7414,11.9938
-427,386,-11.7145,-12.5814,0,0,0,0,0,0,0,-1,797,638,-11.7146,12.5814
-420,386,-11.8151,-13.0501,0,0,0,0,0,0,0,-1,804,638,-11.8151,13.0501
-413,386,-5.45691,-5.35785,0,0,0,0,0,0,0,-1,811,638,-5.45691,5.35783
-406,386,-4.51135,-4.10999,0,0,0,0,0,0,0,-1,818,638,-4.51135,4.10996
-399,386,-3.57117,-3.42126,0,0,0,0,0,0,0,-1,825,638,-3.57116,3.42129
-392,386,-4.00977,0.403625,0,0,0,0,0,0,0,-1,832,638,-4.0098,-0.403616
-385,386,-3.2406,-0.118469,0,0,0,0,0,0,0,-1,839,638,-3.24058,0.118485
-378,386,-2.55243,-1.22748,0,0,0,0,0,0,0,-1,846,638,-2.55243,1.22748
-371,386,-7.95807,-0.330261,0,0,0,0,0,0,0,-1,853,638,-7.95806,0.330284
-364,386,-8.90637,-0.665955,0,0,0,0,0,0,0,-1,860,638,-8.90635,0.665951
-357,386,-9.10364,-0.388733,0,0,0,0,0,0,0,-1,867,638,-9.10364,0.388744
-350,386,0,0,0,0,0,0,0,0,0,-1,874,638,0,0
-343,386,0,0,0,0,0,0,0,0,0,-1,881,638,0,0
-336,386,0,0,0,0,0,0,0,0,0,-1,888,638,0,0
-329,386,0,0,0,0,0,0,0,0,0,-1,895,638,0,0
-322,386,0,0,0,0,0,0,0,0,0,-1,902,638,0,0
-315,386,0,0,0,0,0,0,0,0,0,-1,909,638,0,0
-308,386,0,0,0,0,0,0,0,0,0,-1,916,638,0,0
-301,386,0,0,0,0,0,0,0,0,0,-1,923,638,0,0
-294,386,0,0,0,0,0,0,0,0,0,-1,930,638,0,0
-287,386,0,0,0,0,0,0,0,0,0,-1,937,638,0,0
-280,386,0,0,0,0,0,0,0,0,0,-1,944,638,0,0
-273,386,0,0,0,0,0,0,0,0,0,-1,951,638,0,0
-266,386,0,0,0,0,0,0,0,0,0,-1,958,638,0,0
-259,386,0,0,0,0,0,0,0,0,0,-1,965,638,0,0
-252,386,0,0,0,0,0,0,0,0,0,-1,972,638,0,0
-245,386,0,0,0,0,0,0,0,0,0,-1,979,638,0,0
-238,386,0,0,0,0,0,0,0,0,0,-1,986,638,0,0
-231,386,0,0,0,0,0,0,0,0,0,-1,993,638,0,0
-224,386,0,0,0,0,0,0,0,0,0,-1,1000,638,0,0
-217,386,0,0,0,0,0,0,0,0,0,-1,1007,638,0,0
-210,386,0,0,0,0,0,0,0,0,0,-1,1014,638,0,0
-203,386,0,0,0,0,0,0,0,0,0,-1,1021,638,0,0
-196,386,0,0,0,0,0,0,0,0,0,-1,1028,638,0,0
-189,386,0,0,0,0,0,0,0,0,0,-1,1035,638,0,0
-182,386,0,0,0,0,0,0,0,0,0,-1,1042,638,0,0
-175,386,0,0,0,0,0,0,0,0,0,-1,1049,638,0,0
-168,386,0,0,0,0,0,0,0,0,0,-1,1056,638,0,0
-161,386,0,0,0,0,0,0,0,0,0,-1,1063,638,0,0
-154,386,0,0,0,0,0,0,0,0,0,-1,1070,638,0,0
-147,386,0,0,0,0,0,0,0,0,0,-1,1077,638,0,0
-140,386,0,0,0,0,0,0,0,0,0,-1,1084,638,0,0
-133,386,0,0,0,0,0,0,0,0,0,-1,1091,638,0,0
-126,386,0,0,0,0,0,0,0,0,0,-1,1098,638,0,0
-119,386,0,0,0,0,0,0,0,0,0,-1,1105,638,0,0
-112,386,0,0,0,0,0,0,0,0,0,-1,1112,638,0,0
-105,386,0,0,0,0,0,0,0,0,0,-1,1119,638,0,0
-98,386,0,0,0,0,0,0,0,0,0,-1,1126,638,0,0
-91,386,0,0,0,0,0,0,0,0,0,-1,1133,638,0,0
-84,386,0,0,0,0,0,0,0,0,0,-1,1140,638,0,0
-77,386,0,0,0,0,0,0,0,0,0,-1,1147,638,0,0
-70,386,0,0,0,0,0,0,0,0,0,-1,1154,638,0,0
-63,386,0,0,0,0,0,0,0,0,0,-1,1161,638,0,0
-56,386,0,0,0,0,0,0,0,0,0,-1,1168,638,0,0
-49,386,0,0,0,0,0,0,0,0,0,-1,1175,638,0,0
-42,386,0,0,0,0,0,0,0,0,0,-1,1182,638,0,0
-35,386,0,0,0,0,0,0,0,0,0,-1,1189,638,0,0
-28,386,0,0,0,0,0,0,0,0,0,-1,1196,638,0,0
-21,386,0,0,0,0,0,0,0,0,0,-1,1203,638,0,0
-14,386,0,0,0,0,0,0,0,0,0,-1,1210,638,0,0
-7,386,0,0,0,0,0,0,0,0,0,-1,1217,638,0,0
0,386,0,0,0,0,0,0,0,0,0,-1,1224,638,0,0
7,386,0,0,0,0,0,0,0,0,0,-1,1231,638,0,0
14,386,0,0,0,0,0,0,0,0,0,-1,1238,638,0,0
21,386,0,0,0,0,0,0,0,0,0,-1,1245,638,0,0
28,386,0,0,0,0,0,0,0,0,0,-1,1252,638,0,0
35,386,0,0,0,0,0,0,0,0,0,-1,1259,638,0,0
42,386,0,0,0,0,0,0,0,0,0,-1,1266,638,0,0
49,386,0,0,0,0,0,0,0,0,0,-1,1273,638,0,0
56,386,0,0,0,0,0,0,0,0,0,-1,1280,638,0,0
63,386,0,0,0,0,0,0,0,0,0,-1,1287,638,0,0
70,386,0,0,0,0,0,0,0,0,0,-1,1294,638,0,0
77,386,0,0,0,0,0,0,0,0,0,-1,1301,638,0,0
84,386,0,0,0,0,0,0,0,0,0,-1,1308,638,0,0
91,386,0,0,0,0,0,0,0,0,0,-1,1315,638,0,0
98,386,0,0,0,0,0,0,0,0,0,-1,1322,638,0,0
105,386,0,0,0,0,0,0,0,0,0,-1,1329,638,0,0
112,386,0,0,0,0,0,0,0,0,0,-1,1336,638,0,0
119,386,0,0,0,0,0,0,0,0,0,-1,1343,638,0,0
126,386,0,0,0,0,0,0,0,0,0,-1,1350,638,0,0
133,386,0,0,0,0,0,0,0,0,0,-1,1357,638,0,0
140,386,0,0,0,0,0,0,0,0,0,-1,1364,638,0,0
147,386,0,0,0,0,0,0,0,0,0,-1,1371,638,0,0
154,386,0,0,0,0,0,0,0,0,0,-1,1378,638,0,0
161,386,0,0,0,0,0,0,0,0,0,-1,1385,638,0,0
168,386,0,0,0,0,0,0,0,0,0,-1,1392,638,0,0
175,386,0,0,0,0,0,0,0,0,0,-1,1399,638,0,0
182,386,0,0,0,0,0,0,0,0,0,-1,1406,638,0,0
189,386,0,0,0,0,0,0,0,0,0,-1,1413,638,0,0
196,386,0,0,0,0,0,0,0,0,0,-1,1420,638,0,0
203,386,0,0,0,0,0,0,0,0,0,-1,1427,638,0,0
210,386,0,0,0,0,0,0,0,0,0,-1,1434,638,0,0
217,386,0,0,0,0,0,0,0,0,0,-1,1441,638,0,0
224,386,0,0,0,0,0,0,0,0,0,-1,1448,638,0,0
231,386,0,0,0,0,0,0,0,0,0,-1,1455,638,0,0
238,386,0,0,0,0,0,0,0,0,0,-1,1462,638,0,0
245,386,0,0,0,0,0,0,0,0,0,-1,1469,638,0,0
252,386,0,0,0,0,0,0,0,0,0,-1,1476,638,0,0
259,386,0,0,0,0,0,0,0,0,0,-1,1483,638,0,0
266,386,0,0,0,0,0,0,0,0,0,-1,1490,638,0,0
273,386,0,0,0,0,0,0,0,0,0,-1,1497,638,0,0
280,386,0,0,0,0,0,0,0,0,0,-1,1504,638,0,0
287,386,0,0,0,0,0,0,0,0,0,-1,1511,638,0,0
294,386,0,0,0,0,0,0,0,0,0,-1,1518,638,0,0
301,386,0,0,0,0,0,0,0,0,0,-1,1525,638,0,0
308,386,0,0,0,0,0,0,0,0,0,-1,1532,638,0,0
315,386,0,0,0,0,0,0,0,0,0,-1,1539,638,0,0
322,386,0,0,0,0,0,0,0,0,0,-1,1546,638,0,0
329,386,0,0,0,0,0,0,0,0,0,-1,1553,638,0,0
336,386,0,0,0,0,0,0,0,0,0,-1,1560,638,0,0
343,386,0,0,0,0,0,0,0,0,0,-1,1567,638,0,0
350,386,0,0,0,0,0,0,0,0,0,-1,1574,638,0,0
357,386,0,0,0,0,0,0,0,0,0,-1,1581,638,0,0
364,386,0,0,0,0,0,0,0,0,0,-1,1588,638,0,0
371,386,0,0,0,0,0,0,0,0,0,-1,1595,638,0,0
378,386,0,0,0,0,0,0,0,0,0,-1,1602,638,0,0
385,386,0,0,0,0,0,0,0,0,0,-1,1609,638,0,0
392,386,0,0,0,0,0,0,0,0,0,-1,1616,638,0,0
399,386,0,0,0,0,0,0,0,0,0,-1,1623,638,0,0
406,386,0,0,0,0,0,0,0,0,0,-1,1630,638,0,0
413,386,0,0,0,0,0,0,0,0,0,-1,1637,638,0,0
420,386,0,0,0,0,0,0,0,0,0,-1,1644,638,0,0
427,386,0,0,0,0,0,0,0,0,0,-1,1651,638,0,0
434,386,0,0,0,0,0,0,0,0,0,-1,1658,638,0,0
441,386,0,0,0,0,0,0,0,0,0,-1,1665,638,0,0
448,386,0,0,0,0,0,0,0,0,0,-1,1672,638,0,0
455,386,0,0,0,0,0,0,0,0,0,-1,1679,638,0,0
462,386,0,0,0,0,0,0,0,0,0,-1,1686,638,0,0
469,386,9.84692,1.55804,0,0,0,0,0,0,0,-1,1693,638,9.84691,-1.55807
476,386,10.6145,0.986511,0,0,0,0,0,0,0,-1,1700,638,10.6145,-0.986529
483,386,11.4113,0.732971,0,0,0,0,0,0,0,-1,1707,638,11.4112,-0.732958
490,386,7.79785,1.79572,0,0,0,0,0,0,0,-1,1714,638,7.79788,-1.7957
497,386,8.96362,1.77081,0,0,0,0,0,0,0,-1,1721,638,8.96357,-1.77081
504,386,10.0555,1.69427,0,0,0,0,0,0,0,-1,1728,638,10.0555,-1.69426
511,386,11.2172,1.534,0,0,0,0,0,0,0,-1,1735,638,11.2172,-1.53398
518,386,7.41553,1.75238,0,0,0,0,0,0,0,-1,1742,638,7.41547,-1.75238
525,386,8.82422,-1.1449,0,0,0,0,0,0,0,-1,1749,638,8.82426,1.14492
532,386,10.6432,0.617371,0,0,0,0,0,0,0,-1,1756,638,10.6432,-0.617359
539,386,9.62061,-0.393616,0,0,0,0,0,0,0,-1,1763,638,9.62059,0.393634
546,386,10.7963,-2.854,0,0,0,0,0,0,0,-1,1770,638,10.7962,2.854
553,386,16.9939,-7.27942,0,0,0,0,0,0,0,-1,1777,638,16.9939,7.27944
560,386,22.1669,-10.7664,0,0,0,0,0,0,0,-1,1784,638,22.1668,10.7664
567,386,22.1572,-9.87604,0.00560835,0.00086364,0.0018138,0.00622229,0.000249704,0.326376,0.00406751,0.0335167,1791,638,22.1572,9.87603
574,386,22.2098,-9.23706,0.00428965,0.000855144,0.00142323,0.00480277,0.00034203,0.346023,0.00309414,0.0141661,1798,638,22.2098,9.23708
581,386,22.1548,-8.64532,0.00325829,0.00104213,0.00121085,0.00379156,0.000508869,0.414844,0.00237631,0.014351,1805,638,22.1548,8.6453
588,386,22.1613,-8.03943,0.00252024,0.00132974,0.00113862,0.00320982,0.000640161,0.544545,0.00196163,0.0139482,1812,638,22.1612,8.03944
595,386,22.1498,-7.42334,0.00217353,0.00175049,0.00127059,0.00325008,0.000673932,0.702918,0.00198067,0.0150595,1819,638,22.1498,7.42333
602,386,22.1189,-6.80951,0.00217009,0.00230116,0.00160015,0.00383712,0.000634137,0.805864,0.00237509,0.0161914,1826,638,22.1189,6.80951
609,386,22.1107,-6.1958,0.002368,0.00298424,0.00203569,0.004735,0.000617246,0.860507,0.00297236,0.0158943,1833,638,22.1107,6.19581
616,386,22.085,-5.57373,0.00280473,0.00385087,0.00261233,0.00599198,0.000663611,0.884207,0.00379285,0.0125207,1840,638,22.0849,5.57371
623,386,22.0498,-4.95355,0.0037291,0.00477255,0.00345475,0.00774474,0.000756905,0.86034,0.00493027,0.0108229,1847,638,22.0498,4.95354
630,386,22.1326,-4.30151,0.00486598,0.00576517,0.00429801,0.00963704,0.000994111,0.837512,0.0061203,0.0377036,1854,638,22.1326,4.30153
637,386,22.2814,-3.62109,0,0,0,0,0,0,0,-1,1861,638,22.2814,3.62106
644,386,11.6521,0.723328,0,0,0,0,0,0,0,-1,1868,638,11.6521,-0.723355
651,386,9.3866,1.31097,0,0,0,0,0,0,0,-1,1875,638,9.3866,-1.31095
658,386,12.0731,-0.00415039,0,0,0,0,0,0,0,-1,1882,638,12.0731,0.00412803
665,386,6.33167,1.78601,0,0,0,0,0,0,0,-1,1889,638,6.33171,-1.78601
672,386,7.23352,2.14435,0,0,0,0,0,0,0,-1,1896,638,7.23353,-2.14433
679,386,8.07764,2.57104,0,0,0,0,0,0,0,-1,1903,638,8.07758,-2.57103
686,386,0,0,0,0,0,0,0,0,0,-1,1910,638,0,0
693,386,0,0,0,0,0,0,0,0,0,-1,1917,638,0,0
700,386,0,0,0,0,0,0,0,0,0,-1,1924,638,0,0
707,386,0,0,0,0,0,0,0,0,0,-1,1931,638,0,0
714,386,0,0,0,0,0,0,0,0,0,-1,1938,638,0,0
721,386,0,0,0,0,0,0,0,0,0,-1,1945,638,0,0
728,386,0,0,0,0,0,0,0,0,0,-1,1952,638,0,0
735,386,0,0,0,0,0,0,0,0,0,-1,1959,638,0,0
742,386,0,0,0,0,0,0,0,0,0,-1,1966,638,0,0
749,386,0,0,0,0,0,0,0,0,0,-1,1973,638,0,0
756,386,0,0,0,0,0,0,0,0,0,-1,1980,638,0,0
763,386,0,0,0,0,0,0,0,0,0,-1,1987,638,0,0
770,386,0,0,0,0,0,0,0,0,0,-1,1994,638,0,0
777,386,0,0,0,0,0,0,0,0,0,-1,2001,638,0,0
784,386,0,0,0,0,0,0,0,0,0,-1,2008,638,0,0
791,386,0,0,0,0,0,0,0,0,0,-1,2015,638,0,0
798,386,0,0,0,0,0,0,0,0,0,-1,2022,638,0,0
805,386,0,0,0,0,0,0,0,0,0,-1,2029,638,0,0
812,386,0,0,0,0,0,0,0,0,0,-1,2036,638,0,0
-700,379,0,0,0,0,0,0,0,0,0,-1,524,645,0,0
-693,379,0,0,0,0,0,0,0,0,0,-1,531,645,0,0
-686,379,0,0,0,0,0,0,0,0,0,-1,538,645,0,0
-679,379,0,0,0,0,0,0,0,0,0,-1,545,645,0,0
-672,379,0,0,0,0,0,0,0,0,0,-1,552,645,0,0
-665,379,0,0,0,0,0,0,0,0,0,-1,559,645,0,0
-658,379,0,0,0,0,0,0,0,0,0,-1,566,645,0,0
-651,379,0,0,0,0,0,0,0,0,0,-1,573,645,0,0
-644,379,0,0,0,0,0,0,0,0,0,-1,580,645,0,0
-637,379,0,0,0,0,0,0,0,0,0,-1,587,645,0,0
-630,379,0,0,0,0,0,0,0,0,0,-1,594,645,0,0
-623,379,0,0,0,0,0,0,0,0,0,-1,601,645,0,0
-616,379,0,0,0,0,0,0,0,0,0,-1,608,645,0,0
-609,379,0,0,0,0,0,0,0,0,0,-1,615,645,0,0
-602,379,0,0,0,0,0,0,0,0,0,-1,622,645,0,0
-595,379,0,0,0,0,0,0,0,0,0,-1,629,645,0,0
-588,379,0,0,0,0,0,0,0,0,0,-1,636,645,0,0
-581,379,0,0,0,0,0,0,0,0,0,-1,643,645,0,0
-574,379,0,0,0,0,0,0,0,0,0,-1,650,645,0,0
-567,379,-8.78058,0.59668,0,0,0,0,0,0,0,-1,657,645,-8.7806,-0.596692
-560,379,-9.53485,-0.211304,0,0,0,0,0,0,0,-1,664,645,-9.53487,0.211282
-553,379,-5.17108,-4.53119,0,0,0,0,0,0,0,-1,671,645,-5.17106,4.53117
-546,379,-6.23053,-4.92102,0,0,0,0,0,0,0,-1,678,645,-6.23054,4.92105
-539,379,-0.71698,-2.19427,0,0,0,0,0,0,0,-1,685,645,-0.716959,2.19427
-532,379,-7.69611,0.217224,0,0,0,0,0,0,0,-1,692,645,-7.69614,-0.217204
-525,379,-7.09833,-1.13043,0,0,0,0,0,0,0,-1,699,645,-7.0983,1.13041
-518,379,-10.5613,-3.82849,0,0,0,0,0,0,0,-1,706,645,-10.5613,3.82849
-511,379,-12.0551,-5.55426,0,0,0,0,0,0,0,-1,713,645,-12.0551,5.55429
-504,379,-12.1301,-6.08295,0.00325739,0.00994876,-0.00604047,0.0135082,-0.000302052,-1.03831,0.00910783,0.0276282,720,645,-12.1301,6.08297
-497,379,-12.1929,-6.64673,0.00211375,0.00690671,-0.00407141,0.00923458,-0.000214121,-1.0514,0.00622899,0.0141999,727,645,-12.1929,6.64675
-490,379,-12.1912,-7.24939,0.00129034,0.00436146,-0.00248351,0.00574579,-9.3984e-05,-1.06228,0.00386223,0.0125419,734,645,-12.1912,7.24941
-483,379,-12.192,-7.85498,0.0010816,0.00302954,-0.00179515,0.00409791,1.32278e-05,-1.03395,0.00272754,0.0136433,741,645,-12.1919,7.855
-476,379,-12.2053,-8.42249,0.00117379,0.00208748,-0.00143064,0.00313244,0.000128826,-0.939946,0.0020467,0.0133439,748,645,-12.2053,8.42251
-469,379,-12.2541,-8.9881,0.00136007,0.00133635,-0.00115269,0.00250096,0.000195456,-0.780255,0.00160613,0.011815,755,645,-12.2541,8.9881
-462,379,-12.2745,-9.58655,0.00163099,0.0007111,-0.000946035,0.00222296,0.000119127,-0.559132,0.0014439,0.00935386,762,645,-12.2745,9.58653
-455,379,-12.2898,-10.1646,0.00198254,4.91115e-05,-0.000777079,0.00225614,-0.000224493,-0.338538,0.00158423,0.0100864,769,645,-12.2898,10.1646
-448,379,-12.297,-10.7247,0.00243027,-0.000335038,-0.00071499,0.00260419,-0.000508964,-0.238623,0.0019283,0.011642,776,645,-12.297,10.7247
-441,379,-12.3083,-11.3651,0.0030102,-0.000626281,-0.000737421,0.00315405,-0.000770128,-0.192649,0.00240094,0.0230217,783,645,-12.3083,11.3651
-434,379,-12.2472,-12.155,0,0,0,0,0,0,0,-1,790,645,-12.2472,12.155
-427,379,-4.16113,-4.13452,0,0,0,0,0,0,0,-1,797,645,-4.16116,4.1345
-420,379,-4.63953,-3.46869,0,0,0,0,0,0,0,-1,804,645,-4.63953,3.46872
-413,379,-4.62543,-3.7912,0,0,0,0,0,0,0,-1,811,645,-4.62541,3.79123
-406,379,-4.64063,-4.38489,0,0,0,0,0,0,0,-1,818,645,-4.64065,4.3849
-399,379,-2.93536,-1.40118,0,0,0,0,0,0,0,-1,825,645,-2.93534,1.40119
-392,379,-4.16711,-0.466003,0,0,0,0,0,0,0,-1,832,645,-4.16714,0.465992
-385,379,-3.51862,0.441101,0,0,0,0,0,0,0,-1,839,645,-3.51859,-0.441072
-378,379,-5.3504,0.212219,0,0,0,0,0,0,0,-1,846,645,-5.35038,-0.212241
-371,379,-4.32092,-0.186707,0,0,0,0,0,0,0,-1,853,645,-4.3209,0.186707
-364,379,-3.40887,-0.549805,0,0,0,0,0,0,0,-1,860,645,-3.4089,0.549802
-357,379,0,0,0,0,0,0,0,0,0,-1,867,645,0,0
-350,379,0,0,0,0,0,0,0,0,0,-1,874,645,0,0
-343,379,0,0,0,0,0,0,0,0,0,-1,881,645,0,0
-336,379,0,0,0,0,0,0,0,0,0,-1,888,645,0,0
-329,379,0,0,0,0,0,0,0,0,0,-1,895,645,0,0
-322,379,0,0,0,0,0,0,0,0,0,-1,902,645,0,0
-315,379,0,0,0,0,0,0,0,0,0,-1,909,645,0,0
-308,379,0,0,0,0,0,0,0,0,0,-1,916,645,0,0
-301,379,0,0,0,0,0,0,0,0,0,-1,923,645,0,0
-294,379,0,0,0,0,0,0,0,0,0,-1,930,645,0,0
-287,379,0,0,0,0,0,0,0,0,0,-1,937,645,0,0
-280,379,0,0,0,0,0,0,0,0,0,-1,944,645,0,0
-273,379,0,0,0,0,0,0,0,0,0,-1,951,645,0,0
-266,379,0,0,0,0,0,0,0,0,0,-1,958,645,0,0
-259,379,0,0,0,0,0,0,0,0,0,-1,965,645,0,0
-252,379,0,0,0,0,0,0,0,0,0,-1,972,645,0,0
-245,379,0,0,0,0,0,0,0,0,0,-1,979,645,0,0
-238,379,0,0,0,0,0,0,0,0,0,-1,986,645,0,0
-231,379,0,0,0,0,0,0,0,0,0,-1,993,645,0,0
-224,379,0,0,0,0,0,0,0,0,0,-1,1000,645,0,0
-217,379,0,0,0,0,0,0,0,0,0,-1,1007,645,0,0
-210,379,0,0,0,0,0,0,0,0,0,-1,1014,645,0,0
-203,379,0,0,0,0,0,0,0,0,0,-1,1021,645,0,0
-196,379,0,0,0,0,0,0,0,0,0,-1,1028,645,0,0
-189,379,0,0,0,0,0,0,0,0,0,-1,1035,645,0,0
-182,379,0,0,0,0,0,0,0,0,0,-1,1042,645,0,0
-175,379,0,0,0,0,0,0,0,0,0,-1,1049,645,0,0
-168,379,0,0,0,0,0,0,0,0,0,-1,1056,645,0,0
-161,379,0,0,0,0,0,0,0,0,0,-1,1063,645,0,0
-154,379,0,0,0,0,0,0,0,0,0,-1,1070,645,0,0
-147,379,0,0,0,0,0,0,0,0,0,-1,1077,645,0,0
-140,379,0,0,0,0,0,0,0,0,0,-1,1084,645,0,0
-133,379,0,0,0,0,0,0,0,0,0,-1,1091,645,0,0
-126,379,0,0,0,0,0,0,0,0,0,-1,1098,645,0,0
-119,379,0,0,0,0,0,0,0,0,0,-1,1105,645,0,0
-112,379,0,0,0,0,0,0,0,0,0,-1,1112,645,0,0
-105,379,0,0,0,0,0,0,0,0,0,-1,1119,645,0,0
-98,379,0,0,0,0,0,0,0,0,0,-1,1126,645,0,0
-91,379,0,0,0,0,0,0,0,0,0,-1,1133,645,0,0
-84,379,0,0,0,0,0,0,0,0,0,-1,1140,645,0,0
-77,379,0,0,0,0,0,0,0,0,0,-1,1147,645,0,0
-70,379,0,0,0,0,0,0,0,0,0,-1,1154,645,0,0
-63,379,0,0,0,0,0,0,0,0,0,-1,1161,645,0,0
-56,379,0,0,0,0,0,0,0,0,0,-1,1168,645,0,0
-49,379,0,0,0,0,0,0,0,0,0,-1,1175,645,0,0
-42,379,0,0,0,0,0,0,0,0,0,-1,1182,645,0,0
-35,379,0,0,0,0,0,0,0,0,0,-1,1189,645,0,0
-28,379,0,0,0,0,0,0,0,0,0,-1,1196,645,0,0
-21,379,0,0,0,0,0,0,0,0,0,-1,1203,645,0,0
-14,379,0,0,0,0,0,0,0,0,0,-1,1210,645,0,0
-7,379,0,0,0,0,0,0,0,0,0,-1,1217,645,0,0
0,379,0,0,0,0,0,0,0,0,0,-1,1224,645,0,0
7,379,0,0,0,0,0,0,0,0,0,-1,1231,645,0,0
14,379,0,0,0,0,0,0,0,0,0,-1,1238,645,0,0
21,379,0,0,0,0,0,0,0,0,0,-1,1245,645,0,0
28,379,0,0,0,0,0,0,0,0,0,-1,1252,645,0,0
35,379,0,0,0,0,0,0,0,0,0,-1,1259,645,0,0
42,379,0,0,0,0,0,0,0,0,0,-1,1266,645,0,0
49,379,0,0,0,0,0,0,0,0,0,-1,1273,645,0,0
56,379,0,0,0,0,0,0,0,0,0,-1,1280,645,0,0
63,379,0,0,0,0,0,0,0,0,0,-1,1287,645,0,0
70,379,0,0,0,0,0,0,0,0,0,-1,1294,645,0,0
77,379,0,0,0,0,0,0,0,0,0,-1,1301,645,0,0
84,379,0,0,0,0,0,0,0,0,0,-1,1308,645,0,0
91,379,0,0,0,0,0,0,0,0,0,-1,1315,645,0,0
98,379,0,0,0,0,0,0,0,0,0,-1,1322,645,0,0
105,379,0,0,0,0,0,0,0,0,0,-1,1329,645,0,0
112,379,0,0,0,0,0,0,0,0,0,-1,1336,645,0,0
119,379,0,0,0,0,0,0,0,0,0,-1,1343,645,0,0
126,379,0,0,0,0,0,0,0,0,0,-1,1350,645,0,0
133,379,0,0,0,0,0,0,0,0,0,-1,1357,645,0,0
140,379,0,0,0,0,0,0,0,0,0,-1,1364,645,0,0
147,379,0,0,0,0,0,0,0,0,0,-1,1371,645,0,0
154,379,0,0,0,0,0,0,0,0,0,-1,1378,645,0,0
161,379,0,0,0,0,0,0,0,0,0,-1,1385,645,0,0
168,379,0,0,0,0,0,0,0,0,0,-1,1392,645,0,0
175,379,0,0,0,0,0,0,0,0,0,-1,1399,645,0,0
182,379,0,0,0,0,0,0,0,0,0,-1,1406,645,0,0
189,379,0,0,0,0,0,0,0,0,0,-1,1413,645,0,0
196,379,0,0,0,0,0,0,0,0,0,-1,1420,645,0,0
203,379,0,0,0,0,0,0,0,0,0,-1,1427,645,0,0
210,379,0,0,0,0,0,0,0,0,0,-1,1434,645,0,0
217,379,0,0,0,0,0,0,0,0,0,-1,1441,645,0,0
224,379,0,0,0,0,0,0,0,0,0,-1,1448,645,0,0
231,379,0,0,0,0,0,0,0,0,0,-1,1455,645,0,0
238,379,0,0,0,0,0,0,0,0,0,-1,1462,645,0,0
245,379,0,0,0,0,0,0,0,0,0,-1,1469,645,0,0
252,379,0,0,0,0,0,0,0,0,0,-1,1476,645,0,0
259,379,0,0,0,0,0,0,0,0,0,-1,1483,645,0,0
266,379,0,0,0,0,0,0,0,0,0,-1,1490,645,0,0
273,379,0,0,0,0,0,0,0,0,0,-1,1497,645,0,0
280,379,0,0,0,0,0,0,0,0,0,-1,1504,645,0,0
287,379,0,0,0,0,0,0,0,0,0,-1,1511,645,0,0
294,379,0,0,0,0,0,0,0,0,0,-1,1518,645,0,0
301,379,0,0,0,0,0,0,0,0,0,-1,1525,645,0,0
308,379,0,0,0,0,0,0,0,0,0,-1,1532,645,0,0
315,379,0,0,0,0,0,0,0,0,0,-1,1539,645,0,0
322,379,0,0,0,0,0,0,0,0,0,-1,1546,645,0,0
329,379,0,0,0,0,0,0,0,0,0,-1,1553,645,0,0
336,379,0,0,0,0,0,0,0,0,0,-1,1560,645,0,0
343,379,0,0,0,0,0,0,0,0,0,-1,1567,645,0,0
350,379,0,0,0,0,0,0,0,0,0,-1,1574,645,0,0
357,379,0,0,0,0,0,0,0,0,0,-1,1581,645,0,0
364,379,0,0,0,0,0,0,0,0,0,-1,1588,645,0,0
371,379,0,0,0,0,0,0,0,0,0,-1,1595,645,0,0
378,379,0,0,0,0,0,0,0,0,0,-1,1602,645,0,0
385,379,0,0,0,0,0,0,0,0,0,-1,1609,645,0,0
392,379,0,0,0,0,0,0,0,0,0,-1,1616,645,0,0
399,379,0,0,0,0,0,0,0,0,0,-1,1623,645,0,0
406,379,0,0,0,0,0,0,0,0,0,-1,1630,645,0,0
413,379,0,0,0,0,0,0,0,0,0,-1,1637,645,0,0
420,379,0,0,0,0,0,0,0,0,0,-1,1644,645,0,0
427,379,0,0,0,0,0,0,0,0,0,-1,1651,645,0,0
434,379,0,0,0,0,0,0,0,0,0,-1,1658,645,0,0
441,379,0,0,0,0,0,0,0,0,0,-1,1665,645,0,0
448,379,0,0,0,0,0,0,0,0,0,-1,1672,645,0,0
455,379,0,0,0,0,0,0,0,0,0,-1,1679,645,0,0
462,379,0,0,0,0,0,0,0,0,0,-1,1686,645,0,0
469,379,0,0,0,0,0,0,0,0,0,-1,1693,645,0,0
476,379,11.1787,0.830383,0,0,0,0,0,0,0,-1,1700,645,11.1787,-0.830365
483,379,7.4231,1.54321,0,0,0,0,0,0,0,-1,1707,645,7.42314,-1.54324
490,379,8.52881,1.56677,0,0,0,0,0,0,0,-1,1714,645,8.52878,-1.56677
497,379,9.63599,1.49573,0,0,0,0,0,0,0,-1,1721,645,9.63604,-1.4957
504,379,10.0833,1.35229,0,0,0,0,0,0,0,-1,1728,645,10.0832,-1.35227
511,379,8.14343,1.59912,0,0,0,0,0,0,0,-1,1735,645,8.14347,-1.59912
518,379,12.7955,-0.324097,0,0,0,0,0,0,0,-1,1742,645,12.7955,0.324101
525,379,6.03711,1.10352,0,0,0,0,0,0,0,-1,1749,645,6.03711,-1.10351
532,379,8.70947,0.887817,0,0,0,0,0,0,0,-1,1756,645,8.70953,-0.887808
539,379,9.87097,0.111389,0,0,0,0,0,0,0,-1,1763,645,9.87095,-0.111395
546,379,8.42383,-0.730652,0,0,0,0,0,0,0,-1,1770,645,8.42378,0.730638
553,379,19.2905,-7.67834,0,0,0,0,0,0,0,-1,1777,645,19.2905,7.67837
560,379,22.344,-10.4136,0,0,0,0,0,0,0,-1,1784,645,22.344,10.4136
567,379,22.5649,-9.79541,0.00686028,0.000857312,0.00211766,0.00753213,0.000185463,0.307216,0.00496076,0.047371,1791,645,22.5649,9.79542
574,379,22.8154,-9.20197,0.00516305,0.000821404,0.00160487,0.00569187,0.00029258,0.318307,0.00370091,0.0148649,1798,645,22.8154,9.20196
581,379,22.8018,-8.62091,0.00385887,0.000990248,0.00128929,0.00435316,0.000495954,0.366102,0.00275173,0.0159955,1805,645,22.8017,8.62091
588,379,22.7825,-8.01544,0.00292796,0.00119995,0.00113424,0.00348979,0.000638116,0.459911,0.00214569,0.018147,1812,645,22.7824,8.01546
595,379,22.7573,-7.38928,0.00241267,0.00155178,0.00117688,0.00323535,0.000729092,0.61008,0.00195961,0.0154786,1819,645,22.7574,7.38931
602,379,22.7388,-6.80005,0.00225492,0.00200128,0.00140602,0.00353983,0.000716377,0.740421,0.00216104,0.0158518,1826,645,22.7388,6.80003
609,379,22.7024,-6.22278,0.00229522,0.00254805,0.00172878,0.00415503,0.000688238,0.821896,0.00257149,0.016877,1833,645,22.7023,6.22278
616,379,22.6677,-5.59473,0.0025591,0.00322161,0.00217083,0.00508632,0.000694395,0.861112,0.00318475,0.0133145,1840,645,22.6678,5.59473
623,379,22.6509,-4.94104,0.00310062,0.00392027,0.00279453,0.00633487,0.000686024,0.858205,0.00401416,0.0118567,1847,645,22.6508,4.94107
630,379,22.645,-4.33173,0.00366218,0.00465849,0.00340983,0.00760636,0.000714306,0.857932,0.00485037,0.0135449,1854,645,22.645,4.3317
637,379,22.6588,-3.60962,0.00420135,0.00554814,0.00409301,0.00902278,0.000726717,0.866929,0.00578818,0.0432347,1861,645,22.6589,3.60959
644,379,22.8628,-2.77344,0,0,0,0,0,0,0,-1,1868,645,22.8628,2.77345
651,379,12.9515,0.220825,0,0,0,0,0,0,0,-1,1875,645,12.9515,-0.220814
658,379,13.7498,0.37439,0,0,0,0,0,0,0,-1,1882,645,13.7498,-0.374371
665,379,11.9719,0.353333,0,0,0,0,0,0,0,-1,1889,645,11.9719,-0.353321
672,379,7.57605,2.15326,0,0,0,0,0,0,0,-1,1896,645,7.57599,-2.15326
679,379,8.55078,2.50409,0,0,0,0,0,0,0,-1,1903,645,8.55073,-2.50406
686,379,0,0,0,0,0,0,0,0,0,-1,1910,645,0,0
693,379,0,0,0,0,0,0,0,0,0,-1,1917,645,0,0
700,379,0,0,0,0,0,0,0,0,0,-1,1924,645,0,0
707,379,0,0,0,0,0,0,0,0,0,-1,1931,645,0,0
714,379,0,0,0,0,0,0,0,0,0,-1,1938,645,0,0
721,379,0,0,0,0,0,0,0,0,0,-1,1945,645,0,0
728,379,0,0,0,0,0,0,0,0,0,-1,1952,645,0,0
735,379,0,0,0,0,0,0,0,0,0,-1,1959,645,0,0
742,379,0,0,0,0,0,0,0,0,0,-1,1966,645,0,0
749,379,0,0,0,0,0,0,0,0,0,-1,1973,645,0,0
756,379,0,0,0,0,0,0,0,0,0,-1,1980,645,0,0
763,379,0,0,0,0,0,0,0,0,0,-1,1987,645,0,0
770,379,0,0,0,0,0,0,0,0,0,-1,1994,645,0,0
777,379,0,0,0,0,0,0,0,0,0,-1,2001,645,0,0
784,379,0,0,0,0,0,0,0,0,0,-1,2008,645,0,0
791,379,0,0,0,0,0,0,0,0,0,-1,2015,645,0,0
798,379,0,0,0,0,0,0,0,0,0,-1,2022,645,0,0
805,379,0,0,0,0,0,0,0,0,0,-1,2029,645,0,0
812,379,0,0,0,0,0,0,0,0,0,-1,2036,645,0,0
-700,372,0,0,0,0,0,0,0,0,0,-1,524,652,0,0
-693,372,0,0,0,0,0,0,0,0,0,-1,531,652,0,0
-686,372,0,0,0,0,0,0,0,0,0,-1,538,652,0,0
-679,372,0,0,0,0,0,0,0,0,0,-1,545,652,0,0
-672,372,0,0,0,0,0,0,0,0,0,-1,552,652,0,0
-665,372,0,0,0,0,0,0,0,0,0,-1,559,652,0,0
-658,372,0,0,0,0,0,0,0,0,0,-1,566,652,0,0
-651,372,0,0,0,0,0,0,0,0,0,-1,573,652,0,0
-644,372,0,0,0,0,0,0,0,0,0,-1,580,652,0,0
-637,372,0,0,0,0,0,0,0,0,0,-1,587,652,0,0
-630,372,0,0,0,0,0,0,0,0,0,-1,594,652,0,0
-623,372,0,0,0,0,0,0,0,0,0,-1,601,652,0,0
-616,372,0,0,0,0,0,0,0,0,0,-1,608,652,0,0
-609,372,0,0,0,0,0,0,0,0,0,-1,615,652,0,0
-602,372,0,0,0,0,0,0,0,0,0,-1,622,652,0,0
-595,372,0,0,0,0,0,0,0,0,0,-1,629,652,0,0
-588,372,0,0,0,0,0,0,0,0,0,-1,636,652,0,0
-581,372,0,0,0,0,0,0,0,0,0,-1,643,652,0,0
-574,372,0,0,0,0,0,0,0,0,0,-1,650,652,0,0
-567,372,-7.93744,0.73407,0,0,0,0,0,0,0,-1,657,652,-7.93741,-0.734076
-560,372,-8.78552,-0.158203,0,0,0,0,0,0,0,-1,664,652,-8.78552,0.158216
-553,372,-7.95551,1.61694,0,0,0,0,0,0,0,-1,671,652,-7.95552,-1.61697
-546,372,-4.2403,-3.75372,0,0,0,0,0,0,0,-1,678,652,-4.24028,3.75369
-539,372,-7.92285,-0.0650024,0,0,0,0,0,0,0,-1,685,652,-7.92287,0.0649772
-532,372,-8.59589,-0.419556,0,0,0,0,0,0,0,-1,692,652,-8.59591,0.419539
-525,372,-8.03674,-1.36804,0,0,0,0,0,0,0,-1,699,652,-8.03676,1.36806
-518,372,-12.7125,-4.75543,0,0,0,0,0,0,0,-1,706,652,-12.7126,4.75541
-511,372,-12.7167,-5.47504,0.00520187,0.0123611,-0.00811063,0.0176469,-8.39587e-05,-0.993215,0.0117927,0.0334863,713,652,-12.7166,5.47502
-504,372,-12.7662,-6.01953,0.00338574,0.0084492,-0.00535297,0.0118389,-4.00934e-06,-1.00629,0.00789397,0.0163537,720,652,-12.7662,6.01952
-497,372,-12.741,-6.63983,0.00232149,0.0056911,-0.00356435,0.00794878,6.38166e-05,-1.00618,0.00527804,0.0120303,727,652,-12.741,6.63984
-490,372,-12.7585,-7.20972,0.00149032,0.00327667,-0.00206267,0.00463124,0.000135742,-0.98972,0.00304326,0.013658,734,652,-12.7585,7.20971
-483,372,-12.7816,-7.7807,0.00131645,0.00218398,-0.0014841,0.00329641,0.000204028,-0.927576,0.00213285,0.0133773,741,652,-12.7816,7.78071
-476,372,-12.7971,-8.35828,0.00144781,0.00145085,-0.00122105,0.00267038,0.000228279,-0.786019,0.00170925,0.0138093,748,652,-12.797,8.35828
-469,372,-12.8385,-8.93866,0.00165902,0.000882991,-0.00103387,0.00237529,0.000166726,-0.605879,0.00153098,0.0115741,755,652,-12.8385,8.93866
-462,372,-12.8625,-9.53998,0.0019606,0.000435984,-0.000920808,0.0023937,2.88396e-06,-0.439646,0.00159484,0.0101193,762,652,-12.8625,9.53997
-455,372,-12.8843,-10.1334,0.00235522,-6.97615e-05,-0.000837498,0.00261635,-0.000330884,-0.302237,0.00186434,0.0109212,769,652,-12.8843,10.1333
-448,372,-12.8784,-10.6992,0.00284985,-0.000174956,-0.000910331,0.00310269,-0.000427791,-0.270911,0.00222481,0.0129023,776,652,-12.8784,10.6992
-441,372,-12.7132,-11.4581,0,0,0,0,0,0,0,-1,783,652,-12.7132,11.4582
-434,372,-9.86865,-9.68494,0,0,0,0,0,0,0,-1,790,652,-9.86863,9.68492
-427,372,-4.54248,-3.56268,0,0,0,0,0,0,0,-1,797,652,-4.54247,3.56266
-420,372,-4.66168,-2.93597,0,0,0,0,0,0,0,-1,804,652,-4.66166,2.93599
-413,372,-4.74762,-3.29541,0,0,0,0,0,0,0,-1,811,652,-4.74763,3.29542
-406,372,-0.885437,-0.583923,0,0,0,0,0,0,0,-1,818,652,-0.885437,0.5839
-399,372,-3.97357,-0.825012,0,0,0,0,0,0,0,-1,825,652,-3.97359,0.825037
-392,372,-7.64337,0.173035,0,0,0,0,0,0,0,-1,832,652,-7.64337,-0.173019
-385,372,-6.48871,-0.0271606,0,0,0,0,0,0,0,-1,839,652,-6.48874,0.0271353
-378,372,-5.33044,-0.242432,0,0,0,0,0,0,0,-1,846,652,-5.33042,0.242457
-371,372,-4.40802,-0.495667,0,0,0,0,0,0,0,-1,853,652,-4.40802,0.495661
-364,372,0,0,0,0,0,0,0,0,0,-1,860,652,0,0
-357,372,0,0,0,0,0,0,0,0,0,-1,867,652,0,0
-350,372,0,0,0,0,0,0,0,0,0,-1,874,652,0,0
-343,372,0,0,0,0,0,0,0,0,0,-1,881,652,0,0
-336,372,0,0,0,0,0,0,0,0,0,-1,888,652,0,0
-329,372,0,0,0,0,0,0,0,0,0,-1,895,652,0,0
-322,372,0,0,0,0,0,0,0,0,0,-1,902,652,0,0
-315,372,0,0,0,0,0,0,0,0,0,-1,909,652,0,0
-308,372,0,0,0,0,0,0,0,0,0,-1,916,652,0,0
-301,372,0,0,0,0,0,0,0,0,0,-1,923,652,0,0
-294,372,0,0,0,0,0,0,0,0,0,-1,930,652,0,0
-287,372,0,0,0,0,0,0,0,0,0,-1,937,652,0,0
-280,372,0,0,0,0,0,0,0,0,0,-1,944,652,0,0
-273,372,0,0,0,0,0,0,0,0,0,-1,951,652,0,0
-266,372,0,0,0,0,0,0,0,0,0,-1,958,652,0,0
-259,372,0,0,0,0,0,0,0,0,0,-1,965,652,0,0
-252,372,0,0,0,0,0,0,0,0,0,-1,972,652,0,0
-245,372,0,0,0,0,0,0,0,0,0,-1,979,652,0,0
-238,372,0,0,0,0,0,0,0,0,0,-1,986,652,0,0
-231,372,0,0,0,0,0,0,0,0,0,-1,993,652,0,0
-224,372,0,0,0,0,0,0,0,0,0,-1,1000,652,0,0
-217,372,0,0,0,0,0,0,0,0,0,-1,1007,652,0,0
-210,372,0,0,0,0,0,0,0,0,0,-1,1014,652,0,0
-203,372,0,0,0,0,0,0,0,0,0,-1,1021,652,0,0
-196,372,0,0,0,0,0,0,0,0,0,-1,1028,652,0,0
-189,372,0,0,0,0,0,0,0,0,0,-1,1035,652,0,0
-182,372,0,0,0,0,0,0,0,0,0,-1,1042,652,0,0
-175,372,0,0,0,0,0,0,0,0,0,-1,1049,652,0,0
-168,372,0,0,0,0,0,0,0,0,0,-1,1056,652,0,0
-161,372,0,0,0,0,0,0,0,0,0,-1,1063,652,0,0
-154,372,0,0,0,0,0,0,0,0,0,-1,1070,652,0,0
-147,372,0,0,0,0,0,0,0,0,0,-1,1077,652,0,0
-140,372,0,0,0,0,0,0,0,0,0,-1,1084,652,0,0
-133,372,0,0,0,0,0,0,0,0,0,-1,1091,652,0,0
-126,372,0,0,0,0,0,0,0,0,0,-1,1098,652,0,0
-119,372,0,0,0,0,0,0,0,0,0,-1,1105,652,0,0
-112,372,0,0,0,0,0,0,0,0,0,-1,1112,652,0,0
-105,372,0,0,0,0,0,0,0,0,0,-1,1119,652,0,0
-98,372,0,0,0,0,0,0,0,0,0,-1,1126,652,0,0
-91,372,0,0,0,0,0,0,0,0,0,-1,1133,652,0,0
-84,372,0,0,0,0,0,0,0,0,0,-1,1140,652,0,0
-77,372,0,0,0,0,0,0,0,0,0,-1,1147,652,0,0
-70,372,0,0,0,0,0,0,0,0,0,-1,1154,652,0,0
-63,372,0,0,0,0,0,0,0,0,0,-1,1161,652,0,0
-56,372,0,0,0,0,0,0,0,0,0,-1,1168,652,0,0
-49,372,0,0,0,0,0,0,0,0,0,-1,1175,652,0,0
-42,372,0,0,0,0,0,0,0,0,0,-1,1182,652,0,0
-35,372,0,0,0,0,0,0,0,0,0,-1,1189,652,0,0
-28,372,0,0,0,0,0,0,0,0,0,-1,1196,652,0,0
-21,372,0,0,0,0,0,0,0,0,0,-1,1203,652,0,0
-14,372,0,0,0,0,0,0,0,0,0,-1,1210,652,0,0
-7,372,0,0,0,0,0,0,0,0,0,-1,1217,652,0,0
0,372,0,0,0,0,0,0,0,0,0,-1,1224,652,0,0
7,372,0,0,0,0,0,0,0,0,0,-1,1231,652,0,0
14,372,0,0,0,0,0,0,0,0,0,-1,1238,652,0,0
21,372,0,0,0,0,0,0,0,0,0,-1,1245,652,0,0
28,372,0,0,0,0,0,0,0,0,0,-1,1252,652,0,0
35,372,0,0,0,0,0,0,0,0,0,-1,1259,652,0,0
42,372,0,0,0,0,0,0,0,0,0,-1,1266,652,0,0
49,372,0,0,0,0,0,0,0,0,0,-1,1273,652,0,0
56,372,0,0,0,0,0,0,0,0,0,-1,1280,652,0,0
63,372,0,0,0,0,0,0,0,0,0,-1,1287,652,0,0
70,372,0,0,0,0,0,0,0,0,0,-1,1294,652,0,0
77,372,0,0,0,0,0,0,0,0,0,-1,1301,652,0,0
84,372,0,0,0,0,0,0,0,0,0,-1,1308,652,0,0
91,372,0,0,0,0,0,0,0,0,0,-1,1315,652,0,0
98,372,0,0,0,0,0,0,0,0,0,-1,1322,652,0,0
105,372,0,0,0,0,0,0,0,0,0,-1,1329,652,0,0
112,372,0,0,0,0,0,0,0,0,0,-1,1336,652,0,0
119,372,0,0,0,0,0,0,0,0,0,-1,1343,652,0,0
126,372,0,0,0,0,0,0,0,0,0,-1,1350,652,0,0
133,372,0,0,0,0,0,0,0,0,0,-1,1357,652,0,0
140,372,0,0,0,0,0,0,0,0,0,-1,1364,652,0,0
147,372,0,0,0,0,0,0,0,0,0,-1,1371,652,0,0
154,372,0,0,0,0,0,0,0,0,0,-1,1378,652,0,0
161,372,0,0,0,0,0,0,0,0,0,-1,1385,652,0,0
168,372,0,0,0,0,0,0,0,0,0,-1,1392,652,0,0
175,372,0,0,0,0,0,0,0,0,0,-1,1399,652,0,0
182,372,0,0,0,0,0,0,0,0,0,-1,1406,652,0,0
189,372,0,0,0,0,0,0,0,0,0,-1,1413,652,0,0
196,372,0,0,0,0,0,0,0,0,0,-1,1420,652,0,0
203,372,0,0,0,0,0,0,0,0,0,-1,1427,652,0,0
210,372,0,0,0,0,0,0,0,0,0,-1,1434,652,0,0
217,372,0,0,0,0,0,0,0,0,0,-1,1441,652,0,0
224,372,0,0,0,0,0,0,0,0,0,-1,1448,652,0,0
231,372,0,0,0,0,0,0,0,0,0,-1,1455,652,0,0
238,372,0,0,0,0,0,0,0,0,0,-1,1462,652,0,0
245,372,0,0,0,0,0,0,0,0,0,-1,1469,652,0,0
252,372,0,0,0,0,0,0,0,0,0,-1,1476,652,0,0
259,372,0,0,0,0,0,0,0,0,0,-1,1483,652,0,0
266,372,0,0,0,0,0,0,0,0,0,-1,1490,652,0,0
273,372,0,0,0,0,0,0,0,0,0,-1,1497,652,0,0
280,372,0,0,0,0,0,0,0,0,0,-1,1504,652,0,0
287,372,0,0,0,0,0,0,0,0,0,-1,1511,652,0,0
294,372,0,0,0,0,0,0,0,0,0,-1,1518,652,0,0
301,372,0,0,0,0,0,0,0,0,0,-1,1525,652,0,0
308,372,0,0,0,0,0,0,0,0,0,-1,1532,652,0,0
315,372,0,0,0,0,0,0,0,0,0,-1,1539,652,0,0
322,372,0,0,0,0,0,0,0,0,0,-1,1546,652,0,0
329,372,0,0,0,0,0,0,0,0,0,-1,1553,652,0,0
336,372,0,0,0,0,0,0,0,0,0,-1,1560,652,0,0
343,372,0,0,0,0,0,0,0,0,0,-1,1567,652,0,0
350,372,0,0,0,0,0,0,0,0,0,-1,1574,652,0,0
357,372,0,0,0,0,0,0,0,0,0,-1,1581,652,0,0
364,372,0,0,0,0,0,0,0,0,0,-1,1588,652,0,0
371,372,0,0,0,0,0,0,0,0,0,-1,1595,652,0,0
378,372,0,0,0,0,0,0,0,0,0,-1,1602,652,0,0
385,372,0,0,0,0,0,0,0,0,0,-1,1609,652,0,0
392,372,0,0,0,0,0,0,0,0,0,-1,1616,652,0,0
399,372,0,0,0,0,0,0,0,0,0,-1,1623,652,0,0
406,372,0,0,0,0,0,0,0,0,0,-1,1630,652,0,0
413,372,0,0,0,0,0,0,0,0,0,-1,1637,652,0,0
420,372,0,0,0,0,0,0,0,0,0,-1,1644,652,0,0
427,372,0,0,0,0,0,0,0,0,0,-1,1651,652,0,0
434,372,0,0,0,0,0,0,0,0,0,-1,1658,652,0,0
441,372,0,0,0,0,0,0,0,0,0,-1,1665,652,0,0
448,372,0,0,0,0,0,0,0,0,0,-1,1672,652,0,0
455,372,0,0,0,0,0,0,0,0,0,-1,1679,652,0,0
462,372,0,0,0,0,0,0,0,0,0,-1,1686,652,0,0
469,372,0,0,0,0,0,0,0,0,0,-1,1693,652,0,0
476,372,0,0,0,0,0,0,0,0,0,-1,1700,652,0,0
483,372,8.74182,1.53125,0,0,0,0,0,0,0,-1,1707,652,8.74186,-1.53126
490,372,9.78455,1.67096,0,0,0,0,0,0,0,-1,1714,652,9.7846,-1.67093
497,372,9.97644,1.46069,0,0,0,0,0,0,0,-1,1721,652,9.97647,-1.46071
504,372,10.1216,1.28375,0,0,0,0,0,0,0,-1,1728,652,10.1216,-1.28376
511,372,11.7367,-0.0272217,0,0,0,0,0,0,0,-1,1735,652,11.7367,0.0272326
518,372,12.0657,-0.0995483,0,0,0,0,0,0,0,-1,1742,652,12.0657,0.0995285
525,372,12.3947,-0.171814,0,0,0,0,0,0,0,-1,1749,652,12.3946,0.171824
532,372,9.36597,1.72034,0,0,0,0,0,0,0,-1,1756,652,9.36597,-1.72036
539,372,7.82886,-0.0865479,0,0,0,0,0,0,0,-1,1763,652,7.82882,0.0865771
546,372,10.953,-0.187195,0,0,0,0,0,0,0,-1,1770,652,10.953,0.187181
553,372,14.1201,-4.83234,0,0,0,0,0,0,0,-1,1777,652,14.1201,4.83235
560,372,20.1057,-8.06934,0,0,0,0,0,0,0,-1,1784,652,20.1058,8.06936
567,372,22.9983,-9.755,0,0,0,0,0,0,0,-1,1791,652,22.9983,9.75501
574,372,23.4534,-9.11237,0.00594176,0.000845381,0.00181182,0.00652022,0.000266918,0.309043,0.00426063,0.0361147,1798,652,23.4534,9.11236
581,372,23.4355,-8.59045,0.00437223,0.000973995,0.00139075,0.00486884,0.00047739,0.342964,0.00309904,0.0207304,1805,652,23.4356,8.59048
588,372,23.415,-7.98987,0.0032669,0.00107379,0.00115118,0.0037602,0.000580487,0.404848,0.00233745,0.0159539,1812,652,23.4151,7.9899
595,372,23.3792,-7.36639,0.00259574,0.00133764,0.0010979,0.00323203,0.000701346,0.525249,0.00196312,0.0136971,1819,652,23.3791,7.36638
602,372,23.3741,-6.79315,0.00229695,0.00167196,0.00121936,0.00324322,0.000725691,0.659959,0.00196543,0.0149705,1826,652,23.3741,6.79318
609,372,23.292,-6.20801,0.00221926,0.0020857,0.00144669,0.00360071,0.000704245,0.762334,0.00220356,0.0165355,1833,652,23.292,6.20804
616,372,23.2705,-5.5733,0.00235758,0.00259608,0.00178092,0.00426174,0.000691925,0.818829,0.00264091,0.016426,1840,652,23.2705,5.57328
623,372,23.2815,-4.91443,0.00263858,0.00314176,0.00224196,0.00514621,0.000634138,0.841274,0.00324018,0.0138083,1847,652,23.2815,4.9144
630,372,23.2819,-4.29364,0.0028897,0.00372486,0.00270046,0.00603984,0.000574721,0.862107,0.00384931,0.017539,1854,652,23.2819,4.29363
637,372,23.2799,-3.70575,0.00315588,0.00439772,0.00320473,0.00704113,0.000512464,0.881088,0.00453293,0.0268974,1861,652,23.2799,3.70577
644,372,23.5023,-3.05176,0,0,0,0,0,0,0,-1,1868,652,23.5023,3.05176
651,372,21.3998,-0.888,0,0,0,0,0,0,0,-1,1875,652,21.3998,0.887992
658,372,14.157,0.280273,0,0,0,0,0,0,0,-1,1882,652,14.157,-0.280264
665,372,15.2286,0.463867,0,0,0,0,0,0,0,-1,1889,652,15.2287,-0.463854
672,372,9.34106,1.48444,0,0,0,0,0,0,0,-1,1896,652,9.34109,-1.48444
679,372,10.7308,2.32391,0,0,0,0,0,0,0,-1,1903,652,10.7309,-2.3239
686,372,11.6295,2.52997,0,0,0,0,0,0,0,-1,1910,652,11.6296,-2.52996
693,372,0,0,0,0,0,0,0,0,0,-1,1917,652,0,0
700,372,0,0,0,0,0,0,0,0,0,-1,1924,652,0,0
707,372,0,0,0,0,0,0,0,0,0,-1,1931,652,0,0
714,372,0,0,0,0,0,0,0,0,0,-1,1938,652,0,0
721,372,0,0,0,0,0,0,0,0,0,-1,1945,652,0,0
728,372,0,0,0,0,0,0,0,0,0,-1,1952,652,0,0
735,372,0,0,0,0,0,0,0,0,0,-1,1959,652,0,0
742,372,0,0,0,0,0,0,0,0,0,-1,1966,652,0,0
749,372,0,0,0,0,0,0,0,0,0,-1,1973,652,0,0
756,372,0,0,0,0,0,0,0,0,0,-1,1980,652,0,0
763,372,0,0,0,0,0,0,0,0,0,-1,1987,652,0,0
770,372,0,0,0,0,0,0,0,0,0,-1,1994,652,0,0
777,372,0,0,0,0,0,0,0,0,0,-1,2001,652,0,0
784,372,0,0,0,0,0,0,0,0,0,-1,2008,652,0,0
791,372,0,0,0,0,0,0,0,0,0,-1,2015,652,0,0
798,372,0,0,0,0,0,0,0,0,0,-1,2022,652,0,0
805,372,0,0,0,0,0,0,0,0,0,-1,2029,652,0,0
812,372,0,0,0,0,0,0,0,0,0,-1,2036,652,0,0
-700,365,0,0,0,0,0,0,0,0,0,-1,524,659,0,0
-693,365,0,0,0,0,0,0,0,0,0,-1,531,659,0,0
-686,365,0,0,0,0,0,0,0,0,0,-1,538,659,0,0
-679,365,0,0,0,0,0,0,0,0,0,-1,545,659,0,0
-672,365,0,0,0,0,0,0,0,0,0,-1,552,659,0,0
-665,365,0,0,0,0,0,0,0,0,0,-1,559,659,0,0
-658,365,0,0,0,0,0,0,0,0,0,-1,566,659,0,0
-651,365,0,0,0,0,0,0,0,0,0,-1,573,659,0,0
-644,365,0,0,0,0,0,0,0,0,0,-1,580,659,0,0
-637,365,0,0,0,0,0,0,0,0,0,-1,587,659,0,0
-630,365,0,0,0,0,0,0,0,0,0,-1,594,659,0,0
-623,365,0,0,0,0,0,0,0,0,0,-1,601,659,0,0
-616,365,0,0,0,0,0,0,0,0,0,-1,608,659,0,0
-609,365,0,0,0,0,0,0,0,0,0,-1,615,659,0,0
-602,365,0,0,0,0,0,0,0,0,0,-1,622,659,0,0
-595,365,0,0,0,0,0,0,0,0,0,-1,629,659,0,0
-588,365,0,0,0,0,0,0,0,0,0,-1,636,659,0,0
-581,365,0,0,0,0,0,0,0,0,0,-1,643,659,0,0
-574,365,-7.69281,1.59015,0,0,0,0,0,0,0,-1,650,659,-7.69282,-1.59018
-567,365,-8.2583,1.72638,0,0,0,0,0,0,0,-1,657,659,-8.25827,-1.72637
-560,365,-7.17767,0.275757,0,0,0,0,0,0,0,-1,664,659,-7.17768,-0.27577
-553,365,-10.0349,-0.169617,0,0,0,0,0,0,0,-1,671,659,-10.0349,0.169593
-546,365,-10.6303,-1.51642,0,0,0,0,0,0,0,-1,678,659,-10.6303,1.5164
-539,365,-8.38599,1.52936,0,0,0,0,0,0,0,-1,685,659,-8.38598,-1.52935
-532,365,-8.52863,0.166504,0,0,0,0,0,0,0,-1,692,659,-8.52863,-0.166501
-525,365,-9.28229,-2.62726,0,0,0,0,0,0,0,-1,699,659,-9.28227,2.62724
-518,365,-13.3063,-4.68842,0,0,0,0,0,0,0,-1,706,659,-13.3063,4.6884
-511,365,-13.337,-5.39209,0.00523411,0.0107569,-0.00734256,0.0158401,0.000150853,-0.965256,0.0105102,0.034501,713,659,-13.337,5.39211
-504,365,-13.3146,-6.00116,0.00350045,0.0071723,-0.00480995,0.0104848,0.00018795,-0.967711,0.00692807,0.0123937,720,659,-13.3146,6.00115
-497,365,-13.301,-6.60901,0.00246825,0.00467034,-0.00316298,0.00691844,0.000220151,-0.95289,0.00454069,0.012672,727,659,-13.301,6.60899
-490,365,-13.3443,-7.1983,0.00161324,0.00241834,-0.00173941,0.00380117,0.000230413,-0.899111,0.00246091,0.0137914,734,659,-13.3443,7.19828
-483,365,-13.3906,-7.75739,0.00145835,0.00152026,-0.00125056,0.00274025,0.000238365,-0.797773,0.00175279,0.0128197,741,659,-13.3906,7.75736
-476,365,-13.3575,-8.34399,0.00161377,0.000959763,-0.00106509,0.00240092,0.000172609,-0.636456,0.00154629,0.0164525,748,659,-13.3575,8.34398
-469,365,-13.3937,-8.93884,0.00184866,0.00054919,-0.000944306,0.00234516,5.26833e-05,-0.484066,0.00154618,0.0167458,755,659,-13.3937,8.93886
-462,365,-13.4512,-9.51825,0.00219263,0.000256515,-0.000895013,0.00254297,-9.38297e-05,-0.373107,0.00172744,0.0139609,762,659,-13.4512,9.51824
-455,365,-13.4708,-10.1092,0.00264995,-0.000127321,-0.000849707,0.0028893,-0.000366662,-0.274562,0.00205933,0.0156287,769,659,-13.4708,10.1092
-448,365,-13.3873,-10.7793,0.00320854,4.01883e-05,-0.00100003,0.00349778,-0.000249048,-0.281545,0.00241914,0.0379064,776,659,-13.3873,10.7793
-441,365,-13.1606,-11.531,0,0,0,0,0,0,0,-1,783,659,-13.1606,11.531
-434,365,-5.45056,-3.98041,0,0,0,0,0,0,0,-1,790,659,-5.45055,3.98042
-427,365,-5.05377,-4.74689,0,0,0,0,0,0,0,-1,797,659,-5.05376,4.7469
-420,365,-4.58813,-3.16376,0,0,0,0,0,0,0,-1,804,659,-4.58816,3.16374
-413,365,0.141357,0.672729,0,0,0,0,0,0,0,-1,811,659,0.141365,-0.672714
-406,365,-1.75067,-0.934448,0,0,0,0,0,0,0,-1,818,659,-1.7507,0.934424
-399,365,-4.10242,-1.25439,0,0,0,0,0,0,0,-1,825,659,-4.10244,1.25438
-392,365,-7.46545,-0.779724,0,0,0,0,0,0,0,-1,832,659,-7.46543,0.779744
-385,365,-6.27875,-0.887573,0,0,0,0,0,0,0,-1,839,659,-6.27874,0.887545
-378,365,-5.34503,-0.263306,0,0,0,0,0,0,0,-1,846,659,-5.34504,0.263275
-371,365,0,0,0,0,0,0,0,0,0,-1,853,659,0,0
-364,365,0,0,0,0,0,0,0,0,0,-1,860,659,0,0
-357,365,0,0,0,0,0,0,0,0,0,-1,867,659,0,0
-350,365,0,0,0,0,0,0,0,0,0,-1,874,659,0,0
-343,365,0,0,0,0,0,0,0,0,0,-1,881,659,0,0
-336,365,0,0,0,0,0,0,0,0,0,-1,888,659,0,0
-329,365,0,0,0,0,0,0,0,0,0,-1,895,659,0,0
-322,365,0,0,0,0,0,0,0,0,0,-1,902,659,0,0
-315,365,0,0,0,0,0,0,0,0,0,-1,909,659,0,0
-308,365,0,0,0,0,0,0,0,0,0,-1,916,659,0,0
-301,365,0,0,0,0,0,0,0,0,0,-1,923,659,0,0
-294,365,0,0,0,0,0,0,0,0,0,-1,930,659,0,0
-287,365,0,0,0,0,0,0,0,0,0,-1,937,659,0,0
-280,365,0,0,0,0,0,0,0,0,0,-1,944,659,0,0
-273,365,0,0,0,0,0,0,0,0,0,-1,951,659,0,0
-266,365,0,0,0,0,0,0,0,0,0,-1,958,659,0,0
-259,365,0,0,0,0,0,0,0,0,0,-1,965,659,0,0
-252,365,0,0,0,0,0,0,0,0,0,-1,972,659,0,0
-245,365,0,0,0,0,0,0,0,0,0,-1,979,659,0,0
-238,365,0,0,0,0,0,0,0,0,0,-1,986,659,0,0
-231,365,0,0,0,0,0,0,0,0,0,-1,993,659,0,0
-224,365,0,0,0,0,0,0,0,0,0,-1,1000,659,0,0
-217,365,0,0,0,0,0,0,0,0,0,-1,1007,659,0,0
-210,365,0,0,0,0,0,0,0,0,0,-1,1014,659,0,0
-203,365,0,0,0,0,0,0,0,0,0,-1,1021,659,0,0
-196,365,0,0,0,0,0,0,0,0,0,-1,1028,659,0,0
-189,365,0,0,0,0,0,0,0,0,0,-1,1035,659,0,0
-182,365,0,0,0,0,0,0,0,0,0,-1,1042,659,0,0
-175,365,0,0,0,0,0,0,0,0,0,-1,1049,659,0,0
-168,365,0,0,0,0,0,0,0,0,0,-1,1056,659,0,0
-161,365,0,0,0,0,0,0,0,0,0,-1,1063,659,0,0
-154,365,0,0,0,0,0,0,0,0,0,-1,1070,659,0,0
-147,365,0,0,0,0,0,0,0,0,0,-1,1077,659,0,0
-140,365,0,0,0,0,0,0,0,0,0,-1,1084,659,0,0
-133,365,0,0,0,0,0,0,0,0,0,-1,1091,659,0,0
-126,365,0,0,0,0,0,0,0,0,0,-1,1098,659,0,0
-119,365,0,0,0,0,0,0,0,0,0,-1,1105,659,0,0
-112,365,0,0,0,0,0,0,0,0,0,-1,1112,659,0,0
-105,365,0,0,0,0,0,0,0,0,0,-1,1119,659,0,0
-98,365,0,0,0,0,0,0,0,0,0,-1,1126,659,0,0
-91,365,0,0,0,0,0,0,0,0,0,-1,1133,659,0,0
-84,365,0,0,0,0,0,0,0,0,0,-1,1140,659,0,0
-77,365,0,0,0,0,0,0,0,0,0,-1,1147,659,0,0
-70,365,0,0,0,0,0,0,0,0,0,-1,1154,659,0,0
-63,365,0,0,0,0,0,0,0,0,0,-1,1161,659,0,0
-56,365,0,0,0,0,0,0,0,0,0,-1,1168,659,0,0
-49,365,0,0,0,0,0,0,0,0,0,-1,1175,659,0,0
-42,365,0,0,0,0,0,0,0,0,0,-1,1182,659,0,0
-35,365,0,0,0,0,0,0,0,0,0,-1,1189,659,0,0
-28,365,0,0,0,0,0,0,0,0,0,-1,1196,659,0,0
-21,365,0,0,0,0,0,0,0,0,0,-1,1203,659,0,0
-14,365,0,0,0,0,0,0,0,0,0,-1,1210,659,0,0
-7,365,0,0,0,0,0,0,0,0,0,-1,1217,659,0,0
0,365,0,0,0,0,0,0,0,0,0,-1,1224,659,0,0
7,365,0,0,0,0,0,0,0,0,0,-1,1231,659,0,0
14,365,0,0,0,0,0,0,0,0,0,-1,1238,659,0,0
21,365,0,0,0,0,0,0,0,0,0,-1,1245,659,0,0
28,365,0,0,0,0,0,0,0,0,0,-1,1252,659,0,0
35,365,0,0,0,0,0,0,0,0,0,-1,1259,659,0,0
42,365,0,0,0,0,0,0,0,0,0,-1,1266,659,0,0
49,365,0,0,0,0,0,0,0,0,0,-1,1273,659,0,0
56,365,0,0,0,0,0,0,0,0,0,-1,1280,659,0,0
63,365,0,0,0,0,0,0,0,0,0,-1,1287,659,0,0
70,365,0,0,0,0,0,0,0,0,0,-1,1294,659,0,0
77,365,0,0,0,0,0,0,0,0,0,-1,1301,659,0,0
84,365,0,0,0,0,0,0,0,0,0,-1,1308,659,0,0
91,365,0,0,0,0,0,0,0,0,0,-1,1315,659,0,0
98,365,0,0,0,0,0,0,0,0,0,-1,1322,659,0,0
105,365,0,0,0,0,0,0,0,0,0,-1,1329,659,0,0
112,365,0,0,0,0,0,0,0,0,0,-1,1336,659,0,0
119,365,0,0,0,0,0,0,0,0,0,-1,1343,659,0,0
126,365,0,0,0,0,0,0,0,0,0,-1,1350,659,0,0
133,365,0,0,0,0,0,0,0,0,0,-1,1357,659,0,0
140,365,0,0,0,0,0,0,0,0,0,-1,1364,659,0,0
147,365,0,0,0,0,0,0,0,0,0,-1,1371,659,0,0
154,365,0,0,0,0,0,0,0,0,0,-1,1378,659,0,0
161,365,0,0,0,0,0,0,0,0,0,-1,1385,659,0,0
168,365,0,0,0,0,0,0,0,0,0,-1,1392,659,0,0
175,365,0,0,0,0,0,0,0,0,0,-1,1399,659,0,0
182,365,0,0,0,0,0,0,0,0,0,-1,1406,659,0,0
189,365,0,0,0,0,0,0,0,0,0,-1,1413,659,0,0
196,365,0,0,0,0,0,0,0,0,0,-1,1420,659,0,0
203,365,0,0,0,0,0,0,0,0,0,-1,1427,659,0,0
210,365,0,0,0,0,0,0,0,0,0,-1,1434,659,0,0
217,365,0,0,0,0,0,0,0,0,0,-1,1441,659,0,0
224,365,0,0,0,0,0,0,0,0,0,-1,1448,659,0,0
231,365,0,0,0,0,0,0,0,0,0,-1,1455,659,0,0
238,365,0,0,0,0,0,0,0,0,0,-1,1462,659,0,0
245,365,0,0,0,0,0,0,0,0,0,-1,1469,659,0,0
252,365,0,0,0,0,0,0,0,0,0,-1,1476,659,0,0
259,365,0,0,0,0,0,0,0,0,0,-1,1483,659,0,0
266,365,0,0,0,0,0,0,0,0,0,-1,1490,659,0,0
273,365,0,0,0,0,0,0,0,0,0,-1,1497,659,0,0
280,365,0,0,0,0,0,0,0,0,0,-1,1504,659,0,0
287,365,0,0,0,0,0,0,0,0,0,-1,1511,659,0,0
294,365,0,0,0,0,0,0,0,0,0,-1,1518,659,0,0
301,365,0,0,0,0,0,0,0,0,0,-1,1525,659,0,0
308,365,0,0,0,0,0,0,0,0,0,-1,1532,659,0,0
315,365,0,0,0,0,0,0,0,0,0,-1,1539,659,0,0
322,365,0,0,0,0,0,0,0,0,0,-1,1546,659,0,0
329,365,0,0,0,0,0,0,0,0,0,-1,1553,659,0,0
336,365,0,0,0,0,0,0,0,0,0,-1,1560,659,0,0
343,365,0,0,0,0,0,0,0,0,0,-1,1567,659,0,0
350,365,0,0,0,0,0,0,0,0,0,-1,1574,659,0,0
357,365,0,0,0,0,0,0,0,0,0,-1,1581,659,0,0
364,365,0,0,0,0,0,0,0,0,0,-1,1588,659,0,0
371,365,0,0,0,0,0,0,0,0,0,-1,1595,659,0,0
378,365,0,0,0,0,0,0,0,0,0,-1,1602,659,0,0
385,365,0,0,0,0,0,0,0,0,0,-1,1609,659,0,0
392,365,0,0,0,0,0,0,0,0,0,-1,1616,659,0,0
399,365,0,0,0,0,0,0,0,0,0,-1,1623,659,0,0
406,365,0,0,0,0,0,0,0,0,0,-1,1630,659,0,0
413,365,0,0,0,0,0,0,0,0,0,-1,1637,659,0,0
420,365,0,0,0,0,0,0,0,0,0,-1,1644,659,0,0
427,365,0,0,0,0,0,0,0,0,0,-1,1651,659,0,0
434,365,0,0,0,0,0,0,0,0,0,-1,1658,659,0,0
441,365,0,0,0,0,0,0,0,0,0,-1,1665,659,0,0
448,365,0,0,0,0,0,0,0,0,0,-1,1672,659,0,0
455,365,0,0,0,0,0,0,0,0,0,-1,1679,659,0,0
462,365,0,0,0,0,0,0,0,0,0,-1,1686,659,0,0
469,365,0,0,0,0,0,0,0,0,0,-1,1693,659,0,0
476,365,0,0,0,0,0,0,0,0,0,-1,1700,659,0,0
483,365,0,0,0,0,0,0,0,0,0,-1,1707,659,0,0
490,365,8.39551,0.471252,0,0,0,0,0,0,0,-1,1714,659,8.39551,-0.471241
497,365,9.89233,1.35394,0,0,0,0,0,0,0,-1,1721,659,9.89237,-1.35396
504,365,10.1414,1.18005,0,0,0,0,0,0,0,-1,1728,659,10.1413,-1.18004
511,365,10.5151,0.993896,0,0,0,0,0,0,0,-1,1735,659,10.5152,-0.993894
518,365,11.2029,0.398132,0,0,0,0,0,0,0,-1,1742,659,11.2029,-0.398136
525,365,15.5748,3.85303,0,0,0,0,0,0,0,-1,1749,659,15.5748,-3.85303
532,365,11.2446,1.00629,0,0,0,0,0,0,0,-1,1756,659,11.2446,-1.00631
539,365,12.6301,1.03204,0,0,0,0,0,0,0,-1,1763,659,12.6302,-1.03204
546,365,11.647,0.84198,0,0,0,0,0,0,0,-1,1770,659,11.6469,-0.841955
553,365,12.028,-0.558899,0,0,0,0,0,0,0,-1,1777,659,12.028,0.558873
560,365,14.5372,-4.55548,0,0,0,0,0,0,0,-1,1784,659,14.5373,4.55547
567,365,20.5676,-7.53888,0,0,0,0,0,0,0,-1,1791,659,20.5676,7.53887
574,365,24.2697,-9.03577,0,0,0,0,0,0,0,-1,1798,659,24.2697,9.03579
581,365,24.0481,-8.48999,0,0,0,0,0,0,0,-1,1805,659,24.0481,8.49
588,365,23.9653,-8.06042,0.00362555,0.001013,0.0012151,0.00410332,0.000535235,0.374626,0.00257574,0.0228427,1812,659,23.9653,8.06043
595,365,23.9945,-7.33899,0.0027776,0.00119677,0.00107064,0.00331798,0.000656389,0.467426,0.0020289,0.0122963,1819,659,23.9945,7.339
602,365,23.9532,-6.73285,0.00230892,0.00141147,0.00107318,0.00302341,0.000696978,0.587381,0.00182812,0.0149572,1826,659,23.9532,6.73284
609,365,23.8712,-6.11719,0.0021149,0.00169669,0.00121258,0.00313627,0.000675317,0.700016,0.00190605,0.0163462,1833,659,23.8712,6.11717
616,365,23.8849,-5.48273,0.00213507,0.00205918,0.00144934,0.00354696,0.000647284,0.77231,0.00218113,0.018431,1840,659,23.8849,5.48275
623,365,23.9197,-4.88184,0.00221223,0.00247117,0.00177143,0.00411786,0.000565543,0.821877,0.00257749,0.0130066,1847,659,23.9197,4.88184
630,365,23.8776,-4.27576,0.00225515,0.0029234,0.00210882,0.0047244,0.000454149,0.863966,0.00300966,0.0168344,1854,659,23.8776,4.27578
637,365,23.8502,-3.70013,0.00232838,0.00342069,0.0024683,0.00540253,0.000346533,0.894278,0.00349191,0.0220094,1861,659,23.8502,3.70013
644,365,23.8474,-3.08313,0.00220634,0.004041,0.00285446,0.00612191,0.000125436,0.94087,0.00404011,0.0239121,1868,659,23.8474,3.08314
651,365,23.988,-2.33453,0,0,0,0,0,0,0,-1,1875,659,23.988,2.33455
658,365,21.6173,-1.22028,0,0,0,0,0,0,0,-1,1882,659,21.6173,1.22025
665,365,14.0961,0.769043,0,0,0,0,0,0,0,-1,1889,659,14.0961,-0.769063
672,365,10.0579,2.15088,0,0,0,0,0,0,0,-1,1896,659,10.0579,-2.15088
679,365,10.9718,2.19208,0,0,0,0,0,0,0,-1,1903,659,10.9718,-2.19211
686,365,12.2134,2.17108,0,0,0,0,0,0,0,-1,1910,659,12.2134,-2.17109
693,365,13.7141,1.98279,0,0,0,0,0,0,0,-1,1917,659,13.7141,-1.98278
700,365,0,0,0,0,0,0,0,0,0,-1,1924,659,0,0
707,365,0,0,0,0,0,0,0,0,0,-1,1931,659,0,0
714,365,0,0,0,0,0,0,0,0,0,-1,1938,659,0,0
721,365,0,0,0,0,0,0,0,0,0,-1,1945,659,0,0
728,365,0,0,0,0,0,0,0,0,0,-1,1952,659,0,0
735,365,0,0,0,0,0,0,0,0,0,-1,1959,659,0,0
742,365,0,0,0,0,0,0,0,0,0,-1,1966,659,0,0
749,365,0,0,0,0,0,0,0,0,0,-1,1973,659,0,0
756,365,0,0,0,0,0,0,0,0,0,-1,1980,659,0,0
763,365,0,0,0,0,0,0,0,0,0,-1,1987,659,0,0
770,365,0,0,0,0,0,0,0,0,0,-1,1994,659,0,0
777,365,0,0,0,0,0,0,0,0,0,-1,2001,659,0,0
784,365,0,0,0,0,0,0,0,0,0,-1,2008,659,0,0
791,365,0,0,0,0,0,0,0,0,0,-1,2015,659,0,0
798,365,0,0,0,0,0,0,0,0,0,-1,2022,659,0,0
805,365,0,0,0,0,0,0,0,0,0,-1,2029,659,0,0
812,365,0,0,0,0,0,0,0,0,0,-1,2036,659,0,0
-700,358,0,0,0,0,0,0,0,0,0,-1,524,666,0,0
-693,358,0,0,0,0,0,0,0,0,0,-1,531,666,0,0
-686,358,0,0,0,0,0,0,0,0,0,-1,538,666,0,0
-679,358,0,0,0,0,0,0,0,0,0,-1,545,666,0,0
-672,358,0,0,0,0,0,0,0,0,0,-1,552,666,0,0
-665,358,0,0,0,0,0,0,0,0,0,-1,559,666,0,0
-658,358,0,0,0,0,0,0,0,0,0,-1,566,666,0,0
-651,358,0,0,0,0,0,0,0,0,0,-1,573,666,0,0
-644,358,0,0,0,0,0,0,0,0,0,-1,580,666,0,0
-637,358,0,0,0,0,0,0,0,0,0,-1,587,666,0,0
-630,358,0,0,0,0,0,0,0,0,0,-1,594,666,0,0
-623,358,0,0,0,0,0,0,0,0,0,-1,601,666,0,0
-616,358,0,0,0,0,0,0,0,0,0,-1,608,666,0,0
-609,358,0,0,0,0,0,0,0,0,0,-1,615,666,0,0
-602,358,0,0,0,0,0,0,0,0,0,-1,622,666,0,0
-595,358,0,0,0,0,0,0,0,0,0,-1,629,666,0,0
-588,358,0,0,0,0,0,0,0,0,0,-1,636,666,0,0
-581,358,-8.31616,1.61993,0,0,0,0,0,0,0,-1,643,666,-8.31614,-1.61993
-574,358,-8.22406,1.75385,0,0,0,0,0,0,0,-1,650,666,-8.22408,-1.75383
-567,358,-8.14215,1.91577,0,0,0,0,0,0,0,-1,657,666,-8.14214,-1.91579
-560,358,-10.6086,2.18872,0,0,0,0,0,0,0,-1,664,666,-10.6086,-2.18873
-553,358,-13.4767,1.09552,0,0,0,0,0,0,0,-1,671,666,-13.4767,-1.09551
-546,358,-13.3743,-0.185059,0,0,0,0,0,0,0,-1,678,666,-13.3743,0.185037
-539,358,-9.43884,-2.04785,0,0,0,0,0,0,0,-1,685,666,-9.43884,2.04785
-532,358,-12.4141,-2.36572,0,0,0,0,0,0,0,-1,692,666,-12.4141,2.3657
-525,358,-12.731,-3.88031,0,0,0,0,0,0,0,-1,699,666,-12.731,3.88029
-518,358,-13.8796,-4.79132,0,0,0,0,0,0,0,-1,706,666,-13.8796,4.79133
-511,358,-13.8952,-5.37408,0.00499568,0.00934805,-0.00645421,0.0139831,0.000360653,-0.947999,0.00920418,0.0167878,713,666,-13.8952,5.37411
-504,358,-13.9018,-5.96204,0.00339731,0.00604963,-0.0041386,0.00906936,0.000377588,-0.940448,0.00592439,0.0119452,720,666,-13.9018,5.96202
-497,358,-13.8872,-6.57513,0.00243996,0.00376672,-0.00263462,0.0058202,0.000386492,-0.908731,0.00375793,0.0112763,727,666,-13.8872,6.57514
-490,358,-13.9113,-7.1615,0.00163877,0.00170608,-0.00134394,0.00301678,0.000328066,-0.797916,0.00191124,0.010665,734,666,-13.9113,7.16151
-483,358,-13.9698,-7.73639,0.00154635,0.000983345,-0.000977252,0.00228184,0.000247861,-0.645166,0.0014457,0.0100584,741,666,-13.9699,7.73641
-476,358,-13.9491,-8.29907,0.00175008,0.00056717,-0.000897226,0.00223326,8.39941e-05,-0.493988,0.00146165,0.0134348,748,666,-13.9491,8.2991
-469,358,-13.982,-8.88458,0.00205268,0.000293324,-0.000889091,0.00242373,-7.77236e-05,-0.39536,0.00164234,0.0173983,755,666,-13.982,8.88457
-462,358,-14.0454,-9.48761,0.00248993,0.000130866,-0.000951804,0.00282606,-0.000205262,-0.339477,0.00195605,0.0176632,762,666,-14.0454,9.48758
-455,358,-13.9669,-10.1219,0.00307829,-0.000119884,-0.000997812,0.00336406,-0.00040566,-0.278936,0.00238943,0.0413614,769,666,-13.9669,10.1219
-448,358,-13.7707,-10.8713,0,0,0,0,0,0,0,-1,776,666,-13.7707,10.8713
-441,358,-5.56293,-3.98041,0,0,0,0,0,0,0,-1,783,666,-5.56291,3.98043
-434,358,-5.21558,-4.43127,0,0,0,0,0,0,0,-1,790,666,-5.21559,4.43125
-427,358,-3.56189,-3.15729,0,0,0,0,0,0,0,-1,797,666,-3.56192,3.15729
-420,358,0.200195,1.08234,0,0,0,0,0,0,0,-1,804,666,0.200174,-1.08231
-413,358,0.0325317,0.161072,0,0,0,0,0,0,0,-1,811,666,0.0325501,-0.161098
-406,358,-3.85846,0.753113,0,0,0,0,0,0,0,-1,818,666,-3.85846,-0.753129
-399,358,-1.31213,0.190735,0,0,0,0,0,0,0,-1,825,666,-1.31215,-0.190763
-392,358,-3.73914,-0.832214,0,0,0,0,0,0,0,-1,832,666,-3.73915,0.832202
-385,358,-5.95178,-1.69141,0,0,0,0,0,0,0,-1,839,666,-5.9518,1.69143
-378,358,0,0,0,0,0,0,0,0,0,-1,846,666,0,0
-371,358,0,0,0,0,0,0,0,0,0,-1,853,666,0,0
-364,358,0,0,0,0,0,0,0,0,0,-1,860,666,0,0
-357,358,0,0,0,0,0,0,0,0,0,-1,867,666,0,0
-350,358,0,0,0,0,0,0,0,0,0,-1,874,666,0,0
-343,358,0,0,0,0,0,0,0,0,0,-1,881,666,0,0
-336,358,0,0,0,0,0,0,0,0,0,-1,888,666,0,0
-329,358,0,0,0,0,0,0,0,0,0,-1,895,666,0,0
-322,358,0,0,0,0,0,0,0,0,0,-1,902,666,0,0
-315,358,0,0,0,0,0,0,0,0,0,-1,909,666,0,0
-308,358,0,0,0,0,0,0,0,0,0,-1,916,666,0,0
-301,358,0,0,0,0,0,0,0,0,0,-1,923,666,0,0
-294,358,0,0,0,0,0,0,0,0,0,-1,930,666,0,0
-287,358,0,0,0,0,0,0,0,0,0,-1,937,666,0,0
-280,358,0,0,0,0,0,0,0,0,0,-1,944,666,0,0
-273,358,0,0,0,0,0,0,0,0,0,-1,951,666,0,0
-266,358,0,0,0,0,0,0,0,0,0,-1,958,666,0,0
-259,358,0,0,0,0,0,0,0,0,0,-1,965,666,0,0
-252,358,0,0,0,0,0,0,0,0,0,-1,972,666,0,0
-245,358,0,0,0,0,0,0,0,0,0,-1,979,666,0,0
-238,358,0,0,0,0,0,0,0,0,0,-1,986,666,0,0
-231,358,0,0,0,0,0,0,0,0,0,-1,993,666,0,0
-224,358,0,0,0,0,0,0,0,0,0,-1,1000,666,0,0
-217,358,0,0,0,0,0,0,0,0,0,-1,1007,666,0,0
-210,358,0,0,0,0,0,0,0,0,0,-1,1014,666,0,0
-203,358,0,0,0,0,0,0,0,0,0,-1,1021,666,0,0
-196,358,0,0,0,0,0,0,0,0,0,-1,1028,666,0,0
-189,358,0,0,0,0,0,0,0,0,0,-1,1035,666,0,0
-182,358,0,0,0,0,0,0,0,0,0,-1,1042,666,0,0
-175,358,0,0,0,0,0,0,0,0,0,-1,1049,666,0,0
-168,358,0,0,0,0,0,0,0,0,0,-1,1056,666,0,0
-161,358,0,0,0,0,0,0,0,0,0,-1,1063,666,0,0
-154,358,0,0,0,0,0,0,0,0,0,-1,1070,666,0,0
-147,358,0,0,0,0,0,0,0,0,0,-1,1077,666,0,0
-140,358,0,0,0,0,0,0,0,0,0,-1,1084,666,0,0
-133,358,0,0,0,0,0,0,0,0,0,-1,1091,666,0,0
-126,358,0,0,0,0,0,0,0,0,0,-1,1098,666,0,0
-119,358,0,0,0,0,0,0,0,0,0,-1,1105,666,0,0
-112,358,0,0,0,0,0,0,0,0,0,-1,1112,666,0,0
-105,358,0,0,0,0,0,0,0,0,0,-1,1119,666,0,0
-98,358,0,0,0,0,0,0,0,0,0,-1,1126,666,0,0
-91,358,0,0,0,0,0,0,0,0,0,-1,1133,666,0,0
-84,358,0,0,0,0,0,0,0,0,0,-1,1140,666,0,0
-77,358,0,0,0,0,0,0,0,0,0,-1,1147,666,0,0
-70,358,0,0,0,0,0,0,0,0,0,-1,1154,666,0,0
-63,358,0,0,0,0,0,0,0,0,0,-1,1161,666,0,0
-56,358,0,0,0,0,0,0,0,0,0,-1,1168,666,0,0
-49,358,0,0,0,0,0,0,0,0,0,-1,1175,666,0,0
-42,358,0,0,0,0,0,0,0,0,0,-1,1182,666,0,0
-35,358,0,0,0,0,0,0,0,0,0,-1,1189,666,0,0
-28,358,0,0,0,0,0,0,0,0,0,-1,1196,666,0,0
-21,358,0,0,0,0,0,0,0,0,0,-1,1203,666,0,0
-14,358,0,0,0,0,0,0,0,0,0,-1,1210,666,0,0
-7,358,0,0,0,0,0,0,0,0,0,-1,1217,666,0,0
0,358,0,0,0,0,0,0,0,0,0,-1,1224,666,0,0
7,358,0,0,0,0,0,0,0,0,0,-1,1231,666,0,0
14,358,0,0,0,0,0,0,0,0,0,-1,1238,666,0,0
21,358,0,0,0,0,0,0,0,0,0,-1,1245,666,0,0
28,358,0,0,0,0,0,0,0,0,0,-1,1252,666,0,0
35,358,0,0,0,0,0,0,0,0,0,-1,1259,666,0,0
42,358,0,0,0,0,0,0,0,0,0,-1,1266,666,0,0
49,358,0,0,0,0,0,0,0,0,0,-1,1273,666,0,0
56,358,0,0,0,0,0,0,0,0,0,-1,1280,666,0,0
63,358,0,0,0,0,0,0,0,0,0,-1,1287,666,0,0
70,358,0,0,0,0,0,0,0,0,0,-1,1294,666,0,0
77,358,0,0,0,0,0,0,0,0,0,-1,1301,666,0,0
84,358,0,0,0,0,0,0,0,0,0,-1,1308,666,0,0
91,358,0,0,0,0,0,0,0,0,0,-1,1315,666,0,0
98,358,0,0,0,0,0,0,0,0,0,-1,1322,666,0,0
105,358,0,0,0,0,0,0,0,0,0,-1,1329,666,0,0
112,358,0,0,0,0,0,0,0,0,0,-1,1336,666,0,0
119,358,0,0,0,0,0,0,0,0,0,-1,1343,666,0,0
126,358,0,0,0,0,0,0,0,0,0,-1,1350,666,0,0
133,358,0,0,0,0,0,0,0,0,0,-1,1357,666,0,0
140,358,0,0,0,0,0,0,0,0,0,-1,1364,666,0,0
147,358,0,0,0,0,0,0,0,0,0,-1,1371,666,0,0
154,358,0,0,0,0,0,0,0,0,0,-1,1378,666,0,0
161,358,0,0,0,0,0,0,0,0,0,-1,1385,666,0,0
168,358,0,0,0,0,0,0,0,0,0,-1,1392,666,0,0
175,358,0,0,0,0,0,0,0,0,0,-1,1399,666,0,0
182,358,0,0,0,0,0,0,0,0,0,-1,1406,666,0,0
189,358,0,0,0,0,0,0,0,0,0,-1,1413,666,0,0
196,358,0,0,0,0,0,0,0,0,0,-1,1420,666,0,0
203,358,0,0,0,0,0,0,0,0,0,-1,1427,666,0,0
210,358,0,0,0,0,0,0,0,0,0,-1,1434,666,0,0
217,358,0,0,0,0,0,0,0,0,0,-1,1441,666,0,0
224,358,0,0,0,0,0,0,0,0,0,-1,1448,666,0,0
231,358,0,0,0,0,0,0,0,0,0,-1,1455,666,0,0
238,358,0,0,0,0,0,0,0,0,0,-1,1462,666,0,0
245,358,0,0,0,0,0,0,0,0,0,-1,1469,666,0,0
252,358,0,0,0,0,0,0,0,0,0,-1,1476,666,0,0
259,358,0,0,0,0,0,0,0,0,0,-1,1483,666,0,0
266,358,0,0,0,0,0,0,0,0,0,-1,1490,666,0,0
273,358,0,0,0,0,0,0,0,0,0,-1,1497,666,0,0
280,358,0,0,0,0,0,0,0,0,0,-1,1504,666,0,0
287,358,0,0,0,0,0,0,0,0,0,-1,1511,666,0,0
294,358,0,0,0,0,0,0,0,0,0,-1,1518,666,0,0
301,358,0,0,0,0,0,0,0,0,0,-1,1525,666,0,0
308,358,0,0,0,0,0,0,0,0,0,-1,1532,666,0,0
315,358,0,0,0,0,0,0,0,0,0,-1,1539,666,0,0
322,358,0,0,0,0,0,0,0,0,0,-1,1546,666,0,0
329,358,0,0,0,0,0,0,0,0,0,-1,1553,666,0,0
336,358,0,0,0,0,0,0,0,0,0,-1,1560,666,0,0
343,358,0,0,0,0,0,0,0,0,0,-1,1567,666,0,0
350,358,0,0,0,0,0,0,0,0,0,-1,1574,666,0,0
357,358,0,0,0,0,0,0,0,0,0,-1,1581,666,0,0
364,358,0,0,0,0,0,0,0,0,0,-1,1588,666,0,0
371,358,0,0,0,0,0,0,0,0,0,-1,1595,666,0,0
378,358,0,0,0,0,0,0,0,0,0,-1,1602,666,0,0
385,358,0,0,0,0,0,0,0,0,0,-1,1609,666,0,0
392,358,0,0,0,0,0,0,0,0,0,-1,1616,666,0,0
399,358,0,0,0,0,0,0,0,0,0,-1,1623,666,0,0
406,358,0,0,0,0,0,0,0,0,0,-1,1630,666,0,0
413,358,0,0,0,0,0,0,0,0,0,-1,1637,666,0,0
420,358,0,0,0,0,0,0,0,0,0,-1,1644,666,0,0
427,358,0,0,0,0,0,0,0,0,0,-1,1651,666,0,0
434,358,0,0,0,0,0,0,0,0,0,-1,1658,666,0,0
441,358,0,0,0,0,0,0,0,0,0,-1,1665,666,0,0
448,358,0,0,0,0,0,0,0,0,0,-1,1672,666,0,0
455,358,0,0,0,0,0,0,0,0,0,-1,1679,666,0,0
462,358,0,0,0,0,0,0,0,0,0,-1,1686,666,0,0
469,358,0,0,0,0,0,0,0,0,0,-1,1693,666,0,0
476,358,0,0,0,0,0,0,0,0,0,-1,1700,666,0,0
483,358,0,0,0,0,0,0,0,0,0,-1,1707,666,0,0
490,358,0,0,0,0,0,0,0,0,0,-1,1714,666,0,0
497,358,8.57239,1.1322,0,0,0,0,0,0,0,-1,1721,666,8.57234,-1.13219
504,358,10.5972,0.832947,0,0,0,0,0,0,0,-1,1728,666,10.5972,-0.832968
511,358,10.6873,0.868469,0,0,0,0,0,0,0,-1,1735,666,10.6872,-0.868484
518,358,16.5884,2.34894,0,0,0,0,0,0,0,-1,1742,666,16.5884,-2.34894
525,358,15.7626,3.65344,0,0,0,0,0,0,0,-1,1749,666,15.7626,-3.65342
532,358,14.9368,4.95789,0,0,0,0,0,0,0,-1,1756,666,14.9367,-4.9579
539,358,15.1597,3.42694,0,0,0,0,0,0,0,-1,1763,666,15.1597,-3.42692
546,358,12.3792,1.53558,0,0,0,0,0,0,0,-1,1770,666,12.3792,-1.5356
553,358,11.6584,1.26172,0,0,0,0,0,0,0,-1,1777,666,11.6585,-1.26175
560,358,10.8234,1.43042,0,0,0,0,0,0,0,-1,1784,666,10.8233,-1.43041
567,358,10.1333,-0.955139,0,0,0,0,0,0,0,-1,1791,666,10.1333,0.955132
574,358,14.7886,-2.69293,0,0,0,0,0,0,0,-1,1798,666,14.7885,2.6929
581,358,20.1738,-6.76135,0,0,0,0,0,0,0,-1,1805,666,20.1738,6.76137
588,358,24.3979,-8.16254,0,0,0,0,0,0,0,-1,1812,666,24.398,8.16254
595,358,24.5621,-7.31567,0.00295537,0.0011433,0.00112251,0.00349188,0.000606791,0.445855,0.00215433,0.0157774,1819,666,24.5621,7.31565
602,358,24.5245,-6.67572,0.00232738,0.00124396,0.000988508,0.00291288,0.000658465,0.534743,0.00176389,0.0129492,1826,666,24.5246,6.67575
609,358,24.4644,-6.08533,0.00205198,0.00141103,0.00104544,0.00282496,0.000638049,0.636671,0.00171075,0.0165367,1833,666,24.4643,6.08535
616,358,24.4633,-5.47485,0.00198155,0.00164105,0.00120035,0.00302366,0.000598928,0.714951,0.00184876,0.0160602,1840,666,24.4633,5.47482
623,358,24.5178,-4.87799,0.00190795,0.00193727,0.00141032,0.003333,0.000512221,0.790595,0.00207247,0.0145922,1847,666,24.5178,4.87801
630,358,24.4686,-4.28735,0.00178115,0.00227431,0.00165442,0.00370043,0.000355032,0.859374,0.00235754,0.0181682,1854,666,24.4687,4.28737
637,358,24.3728,-3.72577,0.00163669,0.00266109,0.0019,0.00411673,0.000181059,0.917058,0.00268617,0.0261833,1861,666,24.3728,3.72575
644,358,24.4225,-3.09442,0.00127729,0.00310174,0.00212317,0.00450036,-0.000121334,0.988301,0.00304149,0.0210077,1868,666,24.4225,3.09441
651,358,24.5579,-2.32935,0.000547745,0.0037145,0.00231651,0.00493706,-0.000674818,1.08519,0.00353783,0.0371392,1875,666,24.5578,2.32932
658,358,24.5768,-1.4118,0,0,0,0,0,0,0,-1,1882,666,24.5768,1.41183
665,358,23.3575,-0.825623,0,0,0,0,0,0,0,-1,1889,666,23.3576,0.82563
672,358,12.4299,1.47272,0,0,0,0,0,0,0,-1,1896,666,12.4299,-1.4727
679,358,12.1294,2.19702,0,0,0,0,0,0,0,-1,1903,666,12.1294,-2.19703
686,358,11.9557,2.2002,0,0,0,0,0,0,0,-1,1910,666,11.9557,-2.20021
693,358,13.188,2.52203,0,0,0,0,0,0,0,-1,1917,666,13.188,-2.52202
700,358,0,0,0,0,0,0,0,0,0,-1,1924,666,0,0
707,358,0,0,0,0,0,0,0,0,0,-1,1931,666,0,0
714,358,0,0,0,0,0,0,0,0,0,-1,1938,666,0,0
721,358,0,0,0,0,0,0,0,0,0,-1,1945,666,0,0
728,358,0,0,0,0,0,0,0,0,0,-1,1952,666,0,0
735,358,0,0,0,0,0,0,0,0,0,-1,1959,666,0,0
742,358,0,0,0,0,0,0,0,0,0,-1,1966,666,0,0
749,358,0,0,0,0,0,0,0,0,0,-1,1973,666,0,0
756,358,0,0,0,0,0,0,0,0,0,-1,1980,666,0,0
763,358,0,0,0,0,0,0,0,0,0,-1,1987,666,0,0
770,358,0,0,0,0,0,0,0,0,0,-1,1994,666,0,0
777,358,0,0,0,0,0,0,0,0,0,-1,2001,666,0,0
784,358,0,0,0,0,0,0,0,0,0,-1,2008,666,0,0
791,358,0,0,0,0,0,0,0,0,0,-1,2015,666,0,0
798,358,0,0,0,0,0,0,0,0,0,-1,2022,666,0,0
805,358,0,0,0,0,0,0,0,0,0,-1,2029,666,0,0
812,358,0,0,0,0,0,0,0,0,0,-1,2036,666,0,0
-700,351,0,0,0,0,0,0,0,0,0,-1,524,673,0,0
-693,351,0,0,0,0,0,0,0,0,0,-1,531,673,0,0
-686,351,0,0,0,0,0,0,0,0,0,-1,538,673,0,0
-679,351,0,0,0,0,0,0,0,0,0,-1,545,673,0,0
-672,351,0,0,0,0,0,0,0,0,0,-1,552,673,0,0
-665,351,0,0,0,0,0,0,0,0,0,-1,559,673,0,0
-658,351,0,0,0,0,0,0,0,0,0,-1,566,673,0,0
-651,351,0,0,0,0,0,0,0,0,0,-1,573,673,0,0
-644,351,0,0,0,0,0,0,0,0,0,-1,580,673,0,0
-637,351,0,0,0,0,0,0,0,0,0,-1,587,673,0,0
-630,351,0,0,0,0,0,0,0,0,0,-1,594,673,0,0
-623,351,0,0,0,0,0,0,0,0,0,-1,601,673,0,0
-616,351,0,0,0,0,0,0,0,0,0,-1,608,673,0,0
-609,351,0,0,0,0,0,0,0,0,0,-1,615,673,0,0
-602,351,0,0,0,0,0,0,0,0,0,-1,622,673,0,0
-595,351,0,0,0,0,0,0,0,0,0,-1,629,673,0,0
-588,351,0,0,0,0,0,0,0,0,0,-1,636,673,0,0
-581,351,-9.0647,1.71906,0,0,0,0,0,0,0,-1,643,673,-9.06472,-1.71908
-574,351,-8.23584,2.64764,0,0,0,0,0,0,0,-1,650,673,-8.23584,-2.64764
-567,351,-10.8027,4.56836,0,0,0,0,0,0,0,-1,657,673,-10.8027,-4.56839
-560,351,-14.2001,2.17084,0,0,0,0,0,0,0,-1,664,673,-14.2002,-2.17086
-553,351,-13.4979,0.779541,0,0,0,0,0,0,0,-1,671,673,-13.4978,-0.779519
-546,351,-14.0065,0.73645,0,0,0,0,0,0,0,-1,678,673,-14.0065,-0.736473
-539,351,-12.8123,-1.46393,0,0,0,0,0,0,0,-1,685,673,-12.8123,1.46395
-532,351,-14.1657,-3.36011,0,0,0,0,0,0,0,-1,692,673,-14.1657,3.36012
-525,351,-14.4811,-3.98688,0,0,0,0,0,0,0,-1,699,673,-14.4812,3.98686
-518,351,-14.4682,-4.73804,0.00686883,0.0122024,-0.00863141,0.0185696,0.000501624,-0.935228,0.012216,0.0197866,706,673,-14.4682,4.73803
-511,351,-14.4611,-5.35107,0.00466813,0.00796089,-0.00556102,0.0121141,0.000514898,-0.929316,0.00791003,0.0113651,713,673,-14.4611,5.3511
-504,351,-14.486,-5.93817,0.00318444,0.00492518,-0.00344436,0.00760743,0.000502186,-0.909155,0.00491279,0.0107042,720,673,-14.486,5.93815
-497,351,-14.4928,-6.5191,0.00228333,0.00283892,-0.00206672,0.00464643,0.000475821,-0.852204,0.00295182,0.0108076,727,673,-14.4928,6.51908
-490,351,-14.5082,-7.09869,0.00157182,0.00104697,-0.000959279,0.00230392,0.000314869,-0.651883,0.00144249,0.010308,734,673,-14.5082,7.0987
-483,351,-14.5458,-7.68872,0.00154033,0.000499544,-0.000716532,0.00190551,0.000134371,-0.471329,0.001228,0.0114547,741,673,-14.5458,7.68871
-476,351,-14.5892,-8.27246,0.00175705,0.000224151,-0.0007262,0.00204644,-6.52465e-05,-0.379221,0.00138656,0.0107447,748,673,-14.5892,8.27249
-469,351,-14.6058,-8.83557,0.00210798,0.000109096,-0.000838424,0.00241308,-0.000196008,-0.349005,0.00167788,0.0132719,755,673,-14.6058,8.83555
-462,351,-14.5955,-9.44849,0.00264431,0.000128187,-0.0010559,0.0030287,-0.000256202,-0.349127,0.00210973,0.0300775,762,673,-14.5955,9.44848
-455,351,-14.3481,-10.2215,0,0,0,0,0,0,0,-1,769,673,-14.3481,10.2215
-448,351,-6.61456,-4.38654,0,0,0,0,0,0,0,-1,776,673,-6.61456,4.38654
-441,351,-4.31567,-2.3009,0,0,0,0,0,0,0,-1,783,673,-4.31565,2.30089
-434,351,-3.81708,-2.28003,0,0,0,0,0,0,0,-1,790,673,-3.81706,2.28006
-427,351,-2.05157,-2.7785,0,0,0,0,0,0,0,-1,797,673,-2.05157,2.77848
-420,351,-1.06989,-2.43665,0,0,0,0,0,0,0,-1,804,673,-1.06991,2.43663
-413,351,-0.392334,-2.06671,0,0,0,0,0,0,0,-1,811,673,-0.392363,2.06672
-406,351,-1.86316,-2.58105,0,0,0,0,0,0,0,-1,818,673,-1.86313,2.58106
-399,351,1.00952,-1.53455,0,0,0,0,0,0,0,-1,825,673,1.00954,1.53457
-392,351,-1.02197,0.877136,0,0,0,0,0,0,0,-1,832,673,-1.02195,-0.877143
-385,351,-1.47205,1.04437,0,0,0,0,0,0,0,-1,839,673,-1.47207,-1.04435
-378,351,0,0,0,0,0,0,0,0,0,-1,846,673,0,0
-371,351,0,0,0,0,0,0,0,0,0,-1,853,673,0,0
-364,351,0,0,0,0,0,0,0,0,0,-1,860,673,0,0
-357,351,0,0,0,0,0,0,0,0,0,-1,867,673,0,0
-350,351,0,0,0,0,0,0,0,0,0,-1,874,673,0,0
-343,351,0,0,0,0,0,0,0,0,0,-1,881,673,0,0
-336,351,0,0,0,0,0,0,0,0,0,-1,888,673,0,0
-329,351,0,0,0,0,0,0,0,0,0,-1,895,673,0,0
-322,351,0,0,0,0,0,0,0,0,0,-1,902,673,0,0
-315,351,0,0,0,0,0,0,0,0,0,-1,909,673,0,0
-308,351,0,0,0,0,0,0,0,0,0,-1,916,673,0,0
-301,351,0,0,0,0,0,0,0,0,0,-1,923,673,0,0
-294,351,0,0,0,0,0,0,0,0,0,-1,930,673,0,0
-287,351,0,0,0,0,0,0,0,0,0,-1,937,673,0,0
-280,351,0,0,0,0,0,0,0,0,0,-1,944,673,0,0
-273,351,0,0,0,0,0,0,0,0,0,-1,951,673,0,0
-266,351,0,0,0,0,0,0,0,0,0,-1,958,673,0,0
-259,351,0,0,0,0,0,0,0,0,0,-1,965,673,0,0
-252,351,0,0,0,0,0,0,0,0,0,-1,972,673,0,0
-245,351,0,0,0,0,0,0,0,0,0,-1,979,673,0,0
-238,351,0,0,0,0,0,0,0,0,0,-1,986,673,0,0
-231,351,0,0,0,0,0,0,0,0,0,-1,993,673,0,0
-224,351,0,0,0,0,0,0,0,0,0,-1,1000,673,0,0
-217,351,0,0,0,0,0,0,0,0,0,-1,1007,673,0,0
-210,351,0,0,0,0,0,0,0,0,0,-1,1014,673,0,0
-203,351,0,0,0,0,0,0,0,0,0,-1,1021,673,0,0
-196,351,0,0,0,0,0,0,0,0,0,-1,1028,673,0,0
-189,351,0,0,0,0,0,0,0,0,0,-1,1035,673,0,0
-182,351,0,0,0,0,0,0,0,0,0,-1,1042,673,0,0
-175,351,0,0,0,0,0,0,0,0,0,-1,1049,673,0,0
-168,351,0,0,0,0,0,0,0,0,0,-1,1056,673,0,0
-161,351,0,0,0,0,0,0,0,0,0,-1,1063,673,0,0
-154,351,0,0,0,0,0,0,0,0,0,-1,1070,673,0,0
-147,351,0,0,0,0,0,0,0,0,0,-1,1077,673,0,0
-140,351,0,0,0,0,0,0,0,0,0,-1,1084,673,0,0
-133,351,0,0,0,0,0,0,0,0,0,-1,1091,673,0,0
-126,351,0,0,0,0,0,0,0,0,0,-1,1098,673,0,0
-119,351,0,0,0,0,0,0,0,0,0,-1,1105,673,0,0
-112,351,0,0,0,0,0,0,0,0,0,-1,1112,673,0,0
-105,351,0,0,0,0,0,0,0,0,0,-1,1119,673,0,0
-98,351,0,0,0,0,0,0,0,0,0,-1,1126,673,0,0
-91,351,0,0,0,0,0,0,0,0,0,-1,1133,673,0,0
-84,351,0,0,0,0,0,0,0,0,0,-1,1140,673,0,0
-77,351,0,0,0,0,0,0,0,0,0,-1,1147,673,0,0
-70,351,0,0,0,0,0,0,0,0,0,-1,1154,673,0,0
-63,351,0,0,0,0,0,0,0,0,0,-1,1161,673,0,0
-56,351,0,0,0,0,0,0,0,0,0,-1,1168,673,0,0
-49,351,0,0,0,0,0,0,0,0,0,-1,1175,673,0,0
-42,351,0,0,0,0,0,0,0,0,0,-1,1182,673,0,0
-35,351,0,0,0,0,0,0,0,0,0,-1,1189,673,0,0
-28,351,0,0,0,0,0,0,0,0,0,-1,1196,673,0,0
-21,351,0,0,0,0,0,0,0,0,0,-1,1203,673,0,0
-14,351,0,0,0,0,0,0,0,0,0,-1,1210,673,0,0
-7,351,0,0,0,0,0,0,0,0,0,-1,1217,673,0,0
0,351,0,0,0,0,0,0,0,0,0,-1,1224,673,0,0
7,351,0,0,0,0,0,0,0,0,0,-1,1231,673,0,0
14,351,0,0,0,0,0,0,0,0,0,-1,1238,673,0,0
21,351,0,0,0,0,0,0,0,0,0,-1,1245,673,0,0
28,351,0,0,0,0,0,0,0,0,0,-1,1252,673,0,0
35,351,0,0,0,0,0,0,0,0,0,-1,1259,673,0,0
42,351,0,0,0,0,0,0,0,0,0,-1,1266,673,0,0
49,351,0,0,0,0,0,0,0,0,0,-1,1273,673,0,0
56,351,0,0,0,0,0,0,0,0,0,-1,1280,673,0,0
63,351,0,0,0,0,0,0,0,0,0,-1,1287,673,0,0
70,351,0,0,0,0,0,0,0,0,0,-1,1294,673,0,0
77,351,0,0,0,0,0,0,0,0,0,-1,1301,673,0,0
84,351,0,0,0,0,0,0,0,0,0,-1,1308,673,0,0
91,351,0,0,0,0,0,0,0,0,0,-1,1315,673,0,0
98,351,0,0,0,0,0,0,0,0,0,-1,1322,673,0,0
105,351,0,0,0,0,0,0,0,0,0,-1,1329,673,0,0
112,351,0,0,0,0,0,0,0,0,0,-1,1336,673,0,0
119,351,0,0,0,0,0,0,0,0,0,-1,1343,673,0,0
126,351,0,0,0,0,0,0,0,0,0,-1,1350,673,0,0
133,351,0,0,0,0,0,0,0,0,0,-1,1357,673,0,0
140,351,0,0,0,0,0,0,0,0,0,-1,1364,673,0,0
147,351,0,0,0,0,0,0,0,0,0,-1,1371,673,0,0
154,351,0,0,0,0,0,0,0,0,0,-1,1378,673,0,0
161,351,0,0,0,0,0,0,0,0,0,-1,1385,673,0,0
168,351,0,0,0,0,0,0,0,0,0,-1,1392,673,0,0
175,351,0,0,0,0,0,0,0,0,0,-1,1399,673,0,0
182,351,0,0,0,0,0,0,0,0,0,-1,1406,673,0,0
189,351,0,0,0,0,0,0,0,0,0,-1,1413,673,0,0
196,351,0,0,0,0,0,0,0,0,0,-1,1420,673,0,0
203,351,0,0,0,0,0,0,0,0,0,-1,1427,673,0,0
210,351,0,0,0,0,0,0,0,0,0,-1,1434,673,0,0
217,351,0,0,0,0,0,0,0,0,0,-1,1441,673,0,0
224,351,0,0,0,0,0,0,0,0,0,-1,1448,673,0,0
231,351,0,0,0,0,0,0,0,0,0,-1,1455,673,0,0
238,351,0,0,0,0,0,0,0,0,0,-1,1462,673,0,0
245,351,0,0,0,0,0,0,0,0,0,-1,1469,673,0,0
252,351,0,0,0,0,0,0,0,0,0,-1,1476,673,0,0
259,351,0,0,0,0,0,0,0,0,0,-1,1483,673,0,0
266,351,0,0,0,0,0,0,0,0,0,-1,1490,673,0,0
273,351,0,0,0,0,0,0,0,0,0,-1,1497,673,0,0
280,351,0,0,0,0,0,0,0,0,0,-1,1504,673,0,0
287,351,0,0,0,0,0,0,0,0,0,-1,1511,673,0,0
294,351,0,0,0,0,0,0,0,0,0,-1,1518,673,0,0
301,351,0,0,0,0,0,0,0,0,0,-1,1525,673,0,0
308,351,0,0,0,0,0,0,0,0,0,-1,1532,673,0,0
315,351,0,0,0,0,0,0,0,0,0,-1,1539,673,0,0
322,351,0,0,0,0,0,0,0,0,0,-1,1546,673,0,0
329,351,0,0,0,0,0,0,0,0,0,-1,1553,673,0,0
336,351,0,0,0,0,0,0,0,0,0,-1,1560,673,0,0
343,351,0,0,0,0,0,0,0,0,0,-1,1567,673,0,0
350,351,0,0,0,0,0,0,0,0,0,-1,1574,673,0,0
357,351,0,0,0,0,0,0,0,0,0,-1,1581,673,0,0
364,351,0,0,0,0,0,0,0,0,0,-1,1588,673,0,0
371,351,0,0,0,0,0,0,0,0,0,-1,1595,673,0,0
378,351,0,0,0,0,0,0,0,0,0,-1,1602,673,0,0
385,351,0,0,0,0,0,0,0,0,0,-1,1609,673,0,0
392,351,0,0,0,0,0,0,0,0,0,-1,1616,673,0,0
399,351,0,0,0,0,0,0,0,0,0,-1,1623,673,0,0
406,351,0,0,0,0,0,0,0,0,0,-1,1630,673,0,0
413,351,0,0,0,0,0,0,0,0,0,-1,1637,673,0,0
420,351,0,0,0,0,0,0,0,0,0,-1,1644,673,0,0
427,351,0,0,0,0,0,0,0,0,0,-1,1651,673,0,0
434,351,0,0,0,0,0,0,0,0,0,-1,1658,673,0,0
441,351,0,0,0,0,0,0,0,0,0,-1,1665,673,0,0
448,351,0,0,0,0,0,0,0,0,0,-1,1672,673,0,0
455,351,0,0,0,0,0,0,0,0,0,-1,1679,673,0,0
462,351,0,0,0,0,0,0,0,0,0,-1,1686,673,0,0
469,351,0,0,0,0,0,0,0,0,0,-1,1693,673,0,0
476,351,0,0,0,0,0,0,0,0,0,-1,1700,673,0,0
483,351,0,0,0,0,0,0,0,0,0,-1,1707,673,0,0
490,351,0,0,0,0,0,0,0,0,0,-1,1714,673,0,0
497,351,0,0,0,0,0,0,0,0,0,-1,1721,673,0,0
504,351,10.8842,1.61615,0,0,0,0,0,0,0,-1,1728,673,10.8842,-1.61618
511,351,15.4548,0.0236816,0,0,0,0,0,0,0,-1,1735,673,15.4549,-0.0236664
518,351,16.7448,2.49268,0,0,0,0,0,0,0,-1,1742,673,16.7448,-2.49269
525,351,16.0701,3.43225,0,0,0,0,0,0,0,-1,1749,673,16.07,-3.43227
532,351,32.3822,3.03021,0,0,0,0,0,0,0,-1,1756,673,32.3822,-3.03019
539,351,15.3387,3.54486,0,0,0,0,0,0,0,-1,1763,673,15.3387,-3.54485
546,351,13.9387,4.59357,0,0,0,0,0,0,0,-1,1770,673,13.9388,-4.59359
553,351,12.0682,2.02832,0,0,0,0,0,0,0,-1,1777,673,12.0683,-2.02831
560,351,12.0173,0.55304,0,0,0,0,0,0,0,-1,1784,673,12.0174,-0.553028
567,351,10.7827,0.130188,0,0,0,0,0,0,0,-1,1791,673,10.7827,-0.130183
574,351,13.405,-1.09204,0,0,0,0,0,0,0,-1,1798,673,13.405,1.09207
581,351,15.2351,-3.06049,0,0,0,0,0,0,0,-1,1805,673,15.2351,3.06046
588,351,24.9197,-8.10571,0,0,0,0,0,0,0,-1,1812,673,24.9196,8.1057
595,351,25.1746,-7.44751,0.00316868,0.00127465,0.0013623,0.00388078,0.000562539,0.481663,0.00242156,0.0433468,1819,673,25.1745,7.44754
602,351,25.1528,-6.69037,0.00233157,0.00118325,0.000987703,0.00289987,0.000614951,0.522117,0.00176436,0.0184955,1826,673,25.1529,6.69035
609,351,25.1549,-6.11414,0.00197761,0.00117912,0.000915726,0.00257734,0.000579391,0.579829,0.00156135,0.0177088,1833,673,25.1549,6.11414
616,351,25.1074,-5.49091,0.00182945,0.00124818,0.000974375,0.00255561,0.000522016,0.640461,0.00155914,0.0146974,1840,673,25.1074,5.4909
623,351,25.1479,-4.87634,0.00165283,0.00143038,0.00107792,0.00262525,0.000457961,0.733988,0.00161925,0.0157288,1847,673,25.1479,4.87634
630,351,25.0886,-4.28241,0.00143096,0.00166209,0.00124343,0.00279532,0.000297733,0.831736,0.00177265,0.025996,1854,673,25.0886,4.28242
637,351,24.9882,-3.66553,0.00116586,0.00195962,0.00140065,0.00301853,0.000106952,0.923458,0.00197767,0.0303127,1861,673,24.9882,3.66554
644,351,25.0077,-3.02844,0.000684274,0.0022833,0.00151315,0.00319517,-0.000227596,1.02844,0.00220989,0.0216201,1868,673,25.0077,3.02844
651,351,25.0297,-2.36499,-0.000123716,0.00274646,0.00158002,0.00344583,-0.00082309,1.15408,0.00261513,0.0164544,1875,673,25.0297,2.36497
658,351,24.9844,-1.68915,-0.00137563,0.00315264,0.00145976,0.00358242,-0.00180542,1.28446,0.00316656,0.0348616,1882,673,24.9844,1.68918
665,351,24.7894,-0.955078,0,0,0,0,0,0,0,-1,1889,673,24.7894,0.955088
672,351,24.0544,-0.50647,0,0,0,0,0,0,0,-1,1896,673,24.0544,0.506471
679,351,14.1252,1.85681,0,0,0,0,0,0,0,-1,1903,673,14.1253,-1.85682
686,351,13.0294,2.1189,0,0,0,0,0,0,0,-1,1910,673,13.0294,-2.11892
693,351,13.5187,2.34595,0,0,0,0,0,0,0,-1,1917,673,13.5187,-2.34596
700,351,14.5629,-2.40173,0,0,0,0,0,0,0,-1,1924,673,14.5629,2.40172
707,351,0,0,0,0,0,0,0,0,0,-1,1931,673,0,0
714,351,0,0,0,0,0,0,0,0,0,-1,1938,673,0,0
721,351,0,0,0,0,0,0,0,0,0,-1,1945,673,0,0
728,351,0,0,0,0,0,0,0,0,0,-1,1952,673,0,0
735,351,0,0,0,0,0,0,0,0,0,-1,1959,673,0,0
742,351,0,0,0,0,0,0,0,0,0,-1,1966,673,0,0
749,351,0,0,0,0,0,0,0,0,0,-1,1973,673,0,0
756,351,0,0,0,0,0,0,0,0,0,-1,1980,673,0,0
763,351,0,0,0,0,0,0,0,0,0,-1,1987,673,0,0
770,351,0,0,0,0,0,0,0,0,0,-1,1994,673,0,0
777,351,0,0,0,0,0,0,0,0,0,-1,2001,673,0,0
784,351,0,0,0,0,0,0,0,0,0,-1,2008,673,0,0
791,351,0,0,0,0,0,0,0,0,0,-1,2015,673,0,0
798,351,0,0,0,0,0,0,0,0,0,-1,2022,673,0,0
805,351,0,0,0,0,0,0,0,0,0,-1,2029,673,0,0
812,351,0,0,0,0,0,0,0,0,0,-1,2036,673,0,0
-700,344,0,0,0,0,0,0,0,0,0,-1,524,680,0,0
-693,344,0,0,0,0,0,0,0,0,0,-1,531,680,0,0
-686,344,0,0,0,0,0,0,0,0,0,-1,538,680,0,0
-679,344,0,0,0,0,0,0,0,0,0,-1,545,680,0,0
-672,344,0,0,0,0,0,0,0,0,0,-1,552,680,0,0
-665,344,0,0,0,0,0,0,0,0,0,-1,559,680,0,0
-658,344,0,0,0,0,0,0,0,0,0,-1,566,680,0,0
-651,344,0,0,0,0,0,0,0,0,0,-1,573,680,0,0
-644,344,0,0,0,0,0,0,0,0,0,-1,580,680,0,0
-637,344,0,0,0,0,0,0,0,0,0,-1,587,680,0,0
-630,344,0,0,0,0,0,0,0,0,0,-1,594,680,0,0
-623,344,0,0,0,0,0,0,0,0,0,-1,601,680,0,0
-616,344,0,0,0,0,0,0,0,0,0,-1,608,680,0,0
-609,344,0,0,0,0,0,0,0,0,0,-1,615,680,0,0
-602,344,0,0,0,0,0,0,0,0,0,-1,622,680,0,0
-595,344,0,0,0,0,0,0,0,0,0,-1,629,680,0,0
-588,344,-9.27826,1.47302,0,0,0,0,0,0,0,-1,636,680,-9.27829,-1.473
-581,344,-10.0098,1.71753,0,0,0,0,0,0,0,-1,643,680,-10.0098,-1.7175
-574,344,-10.2208,3.04871,0,0,0,0,0,0,0,-1,650,680,-10.2208,-3.04869
-567,344,-14.3779,2.29016,0,0,0,0,0,0,0,-1,657,680,-14.3779,-2.29014
-560,344,-14.1238,1.8374,0,0,0,0,0,0,0,-1,664,680,-14.1238,-1.83743
-553,344,-14.7884,2.00116,0,0,0,0,0,0,0,-1,671,680,-14.7884,-2.00115
-546,344,-15.9006,-0.302063,0,0,0,0,0,0,0,-1,678,680,-15.9007,0.302038
-539,344,-15.0072,-2.42023,0,0,0,0,0,0,0,-1,685,680,-15.0072,2.42022
-532,344,-14.9877,-3.42316,0,0,0,0,0,0,0,-1,692,680,-14.9876,3.42315
-525,344,-15.0911,-4.06006,0.00878322,0.015588,-0.0109877,0.0236881,0.000683179,-0.935544,0.0155693,0.0409436,699,680,-15.091,4.06004
-518,344,-15.0519,-4.74609,0.00609543,0.0103619,-0.00726763,0.0158029,0.000654417,-0.928151,0.010324,0.0201495,706,680,-15.052,4.7461
-511,344,-15.0796,-5.33124,0.00412707,0.00651062,-0.00454708,0.0100195,0.000618179,-0.913564,0.00648345,0.0164299,713,680,-15.0796,5.33125
-504,344,-15.0809,-5.92383,0.00279673,0.00373174,-0.00265992,0.00596493,0.000563543,-0.872389,0.00380272,0.0166542,720,680,-15.0809,5.92382
-497,344,-15.092,-6.51251,0.00196835,0.00182595,-0.00142437,0.00332331,0.000471001,-0.760426,0.00207642,0.0151561,727,680,-15.0921,6.51249
-490,344,-15.1137,-7.09583,0.00140088,0.000379117,-0.000576819,0.00166053,0.000119466,-0.422973,0.00106942,0.0136633,734,680,-15.1137,7.09585
-483,344,-15.1213,-7.67041,0.00145169,-1.8489e-06,-0.000489701,0.00160128,-0.000151436,-0.296463,0.00112141,0.0128274,741,680,-15.1213,7.67042
-476,344,-15.1637,-8.25433,0.00167003,-0.000151331,-0.000601469,0.00185072,-0.000332027,-0.291847,0.00135809,0.0128547,748,680,-15.1637,8.25433
-469,344,-15.2102,-8.85809,0.0020832,-6.97755e-05,-0.000888771,0.00240268,-0.000389261,-0.345085,0.00174607,0.0180711,755,680,-15.2102,8.8581
-462,344,-15.2467,-9.4632,0,0,0,0,0,0,0,-1,762,680,-15.2467,9.46319
-455,344,-12.1653,-7.99176,0,0,0,0,0,0,0,-1,769,680,-12.1653,7.99174
-448,344,-5.67657,-2.72864,0,0,0,0,0,0,0,-1,776,680,-5.6766,2.72863
-441,344,-5.09229,-2.34167,0,0,0,0,0,0,0,-1,783,680,-5.09229,2.34168
-434,344,-4.28778,-2.08807,0,0,0,0,0,0,0,-1,790,680,-4.28778,2.08809
-427,344,-3.06506,-1.45404,0,0,0,0,0,0,0,-1,797,680,-3.06505,1.45402
-420,344,-1.96582,-1.57574,0,0,0,0,0,0,0,-1,804,680,-1.96579,1.57574
-413,344,-0.817993,-1.4751,0,0,0,0,0,0,0,-1,811,680,-0.818017,1.47511
-406,344,-0.00714111,-1.25189,0,0,0,0,0,0,0,-1,818,680,-0.00714956,1.25191
-399,344,0.240051,-1.75769,0,0,0,0,0,0,0,-1,825,680,0.240079,1.75767
-392,344,1.11353,-2.05615,0,0,0,0,0,0,0,-1,832,680,1.11351,2.05616
-385,344,0,0,0,0,0,0,0,0,0,-1,839,680,0,0
-378,344,0,0,0,0,0,0,0,0,0,-1,846,680,0,0
-371,344,0,0,0,0,0,0,0,0,0,-1,853,680,0,0
-364,344,0,0,0,0,0,0,0,0,0,-1,860,680,0,0
-357,344,0,0,0,0,0,0,0,0,0,-1,867,680,0,0
-350,344,0,0,0,0,0,0,0,0,0,-1,874,680,0,0
-343,344,0,0,0,0,0,0,0,0,0,-1,881,680,0,0
-336,344,0,0,0,0,0,0,0,0,0,-1,888,680,0,0
-329,344,0,0,0,0,0,0,0,0,0,-1,895,680,0,0
-322,344,0,0,0,0,0,0,0,0,0,-1,902,680,0,0
-315,344,0,0,0,0,0,0,0,0,0,-1,909,680,0,0
-308,344,0,0,0,0,0,0,0,0,0,-1,916,680,0,0
-301,344,0,0,0,0,0,0,0,0,0,-1,923,680,0,0
-294,344,0,0,0,0,0,0,0,0,0,-1,930,680,0,0
-287,344,0,0,0,0,0,0,0,0,0,-1,937,680,0,0
-280,344,0,0,0,0,0,0,0,0,0,-1,944,680,0,0
-273,344,0,0,0,0,0,0,0,0,0,-1,951,680,0,0
-266,344,0,0,0,0,0,0,0,0,0,-1,958,680,0,0
-259,344,0,0,0,0,0,0,0,0,0,-1,965,680,0,0
-252,344,0,0,0,0,0,0,0,0,0,-1,972,680,0,0
-245,344,0,0,0,0,0,0,0,0,0,-1,979,680,0,0
-238,344,0,0,0,0,0,0,0,0,0,-1,986,680,0,0
-231,344,0,0,0,0,0,0,0,0,0,-1,993,680,0,0
-224,344,0,0,0,0,0,0,0,0,0,-1,1000,680,0,0
-217,344,0,0,0,0,0,0,0,0,0,-1,1007,680,0,0
-210,344,0,0,0,0,0,0,0,0,0,-1,1014,680,0,0
-203,344,0,0,0,0,0,0,0,0,0,-1,1021,680,0,0
-196,344,0,0,0,0,0,0,0,0,0,-1,1028,680,0,0
-189,344,0,0,0,0,0,0,0,0,0,-1,1035,680,0,0
-182,344,0,0,0,0,0,0,0,0,0,-1,1042,680,0,0
-175,344,0,0,0,0,0,0,0,0,0,-1,1049,680,0,0
-168,344,0,0,0,0,0,0,0,0,0,-1,1056,680,0,0
-161,344,0,0,0,0,0,0,0,0,0,-1,1063,680,0,0
-154,344,0,0,0,0,0,0,0,0,0,-1,1070,680,0,0
-147,344,0,0,0,0,0,0,0,0,0,-1,1077,680,0,0
-140,344,0,0,0,0,0,0,0,0,0,-1,1084,680,0,0
-133,344,0,0,0,0,0,0,0,0,0,-1,1091,680,0,0
-126,344,0,0,0,0,0,0,0,0,0,-1,1098,680,0,0
-119,344,0,0,0,0,0,0,0,0,0,-1,1105,680,0,0
-112,344,0,0,0,0,0,0,0,0,0,-1,1112,680,0,0
-105,344,0,0,0,0,0,0,0,0,0,-1,1119,680,0,0
-98,344,0,0,0,0,0,0,0,0,0,-1,1126,680,0,0
-91,344,0,0,0,0,0,0,0,0,0,-1,1133,680,0,0
-84,344,0,0,0,0,0,0,0,0,0,-1,1140,680,0,0
-77,344,0,0,0,0,0,0,0,0,0,-1,1147,680,0,0
-70,344,0,0,0,0,0,0,0,0,0,-1,1154,680,0,0
-63,344,0,0,0,0,0,0,0,0,0,-1,1161,680,0,0
-56,344,0,0,0,0,0,0,0,0,0,-1,1168,680,0,0
-49,344,0,0,0,0,0,0,0,0,0,-1,1175,680,0,0
-42,344,0,0,0,0,0,0,0,0,0,-1,1182,680,0,0
-35,344,0,0,0,0,0,0,0,0,0,-1,1189,680,0,0
-28,344,0,0,0,0,0,0,0,0,0,-1,1196,680,0,0
-21,344,0,0,0,0,0,0,0,0,0,-1,1203,680,0,0
-14,344,0,0,0,0,0,0,0,0,0,-1,1210,680,0,0
-7,344,0,0,0,0,0,0,0,0,0,-1,1217,680,0,0
0,344,0,0,0,0,0,0,0,0,0,-1,1224,680,0,0
7,344,0,0,0,0,0,0,0,0,0,-1,1231,680,0,0
14,344,0,0,0,0,0,0,0,0,0,-1,1238,680,0,0
21,344,0,0,0,0,0,0,0,0,0,-1,1245,680,0,0
28,344,0,0,0,0,0,0,0,0,0,-1,1252,680,0,0
35,344,0,0,0,0,0,0,0,0,0,-1,1259,680,0,0
42,344,0,0,0,0,0,0,0,0,0,-1,1266,680,0,0
49,344,0,0,0,0,0,0,0,0,0,-1,1273,680,0,0
56,344,0,0,0,0,0,0,0,0,0,-1,1280,680,0,0
63,344,0,0,0,0,0,0,0,0,0,-1,1287,680,0,0
70,344,0,0,0,0,0,0,0,0,0,-1,1294,680,0,0
77,344,0,0,0,0,0,0,0,0,0,-1,1301,680,0,0
84,344,0,0,0,0,0,0,0,0,0,-1,1308,680,0,0
91,344,0,0,0,0,0,0,0,0,0,-1,1315,680,0,0
98,344,0,0,0,0,0,0,0,0,0,-1,1322,680,0,0
105,344,0,0,0,0,0,0,0,0,0,-1,1329,680,0,0
112,344,0,0,0,0,0,0,0,0,0,-1,1336,680,0,0
119,344,0,0,0,0,0,0,0,0,0,-1,1343,680,0,0
126,344,0,0,0,0,0,0,0,0,0,-1,1350,680,0,0
133,344,0,0,0,0,0,0,0,0,0,-1,1357,680,0,0
140,344,0,0,0,0,0,0,0,0,0,-1,1364,680,0,0
147,344,0,0,0,0,0,0,0,0,0,-1,1371,680,0,0
154,344,0,0,0,0,0,0,0,0,0,-1,1378,680,0,0
161,344,0,0,0,0,0,0,0,0,0,-1,1385,680,0,0
168,344,0,0,0,0,0,0,0,0,0,-1,1392,680,0,0
175,344,0,0,0,0,0,0,0,0,0,-1,1399,680,0,0
182,344,0,0,0,0,0,0,0,0,0,-1,1406,680,0,0
189,344,0,0,0,0,0,0,0,0,0,-1,1413,680,0,0
196,344,0,0,0,0,0,0,0,0,0,-1,1420,680,0,0
203,344,0,0,0,0,0,0,0,0,0,-1,1427,680,0,0
210,344,0,0,0,0,0,0,0,0,0,-1,1434,680,0,0
217,344,0,0,0,0,0,0,0,0,0,-1,1441,680,0,0
224,344,0,0,0,0,0,0,0,0,0,-1,1448,680,0,0
231,344,0,0,0,0,0,0,0,0,0,-1,1455,680,0,0
238,344,0,0,0,0,0,0,0,0,0,-1,1462,680,0,0
245,344,0,0,0,0,0,0,0,0,0,-1,1469,680,0,0
252,344,0,0,0,0,0,0,0,0,0,-1,1476,680,0,0
259,344,0,0,0,0,0,0,0,0,0,-1,1483,680,0,0
266,344,0,0,0,0,0,0,0,0,0,-1,1490,680,0,0
273,344,0,0,0,0,0,0,0,0,0,-1,1497,680,0,0
280,344,0,0,0,0,0,0,0,0,0,-1,1504,680,0,0
287,344,0,0,0,0,0,0,0,0,0,-1,1511,680,0,0
294,344,0,0,0,0,0,0,0,0,0,-1,1518,680,0,0
301,344,0,0,0,0,0,0,0,0,0,-1,1525,680,0,0
308,344,0,0,0,0,0,0,0,0,0,-1,1532,680,0,0
315,344,0,0,0,0,0,0,0,0,0,-1,1539,680,0,0
322,344,0,0,0,0,0,0,0,0,0,-1,1546,680,0,0
329,344,0,0,0,0,0,0,0,0,0,-1,1553,680,0,0
336,344,0,0,0,0,0,0,0,0,0,-1,1560,680,0,0
343,344,0,0,0,0,0,0,0,0,0,-1,1567,680,0,0
350,344,0,0,0,0,0,0,0,0,0,-1,1574,680,0,0
357,344,0,0,0,0,0,0,0,0,0,-1,1581,680,0,0
364,344,0,0,0,0,0,0,0,0,0,-1,1588,680,0,0
371,344,0,0,0,0,0,0,0,0,0,-1,1595,680,0,0
378,344,0,0,0,0,0,0,0,0,0,-1,1602,680,0,0
385,344,0,0,0,0,0,0,0,0,0,-1,1609,680,0,0
392,344,0,0,0,0,0,0,0,0,0,-1,1616,680,0,0
399,344,0,0,0,0,0,0,0,0,0,-1,1623,680,0,0
406,344,0,0,0,0,0,0,0,0,0,-1,1630,680,0,0
413,344,0,0,0,0,0,0,0,0,0,-1,1637,680,0,0
420,344,0,0,0,0,0,0,0,0,0,-1,1644,680,0,0
427,344,0,0,0,0,0,0,0,0,0,-1,1651,680,0,0
434,344,0,0,0,0,0,0,0,0,0,-1,1658,680,0,0
441,344,0,0,0,0,0,0,0,0,0,-1,1665,680,0,0
448,344,0,0,0,0,0,0,0,0,0,-1,1672,680,0,0
455,344,0,0,0,0,0,0,0,0,0,-1,1679,680,0,0
462,344,0,0,0,0,0,0,0,0,0,-1,1686,680,0,0
469,344,0,0,0,0,0,0,0,0,0,-1,1693,680,0,0
476,344,0,0,0,0,0,0,0,0,0,-1,1700,680,0,0
483,344,0,0,0,0,0,0,0,0,0,-1,1707,680,0,0
490,344,0,0,0,0,0,0,0,0,0,-1,1714,680,0,0
497,344,0,0,0,0,0,0,0,0,0,-1,1721,680,0,0
504,344,0,0,0,0,0,0,0,0,0,-1,1728,680,0,0
511,344,15.4819,0.452637,0,0,0,0,0,0,0,-1,1735,680,15.4819,-0.452656
518,344,17.1357,2.31207,0,0,0,0,0,0,0,-1,1742,680,17.1358,-2.31207
525,344,31.5201,2.6217,0,0,0,0,0,0,0,-1,1749,680,31.5201,-2.62168
532,344,31.9766,2.61047,0,0,0,0,0,0,0,-1,1756,680,31.9765,-2.6105
539,344,32.4379,2.65314,0,0,0,0,0,0,0,-1,1763,680,32.4378,-2.65316
546,344,14.6722,4.30243,0,0,0,0,0,0,0,-1,1770,680,14.6722,-4.30241
553,344,14.8136,4.35681,0,0,0,0,0,0,0,-1,1777,680,14.8136,-4.35679
560,344,11.9363,2.14185,0,0,0,0,0,0,0,-1,1784,680,11.9362,-2.14182
567,344,11.397,0.925842,0,0,0,0,0,0,0,-1,1791,680,11.397,-0.92583
574,344,10.0004,0.504639,0,0,0,0,0,0,0,-1,1798,680,10.0004,-0.504645
581,344,13.6709,-0.969604,0,0,0,0,0,0,0,-1,1805,680,13.6709,0.969629
588,344,16.1447,-3.15948,0,0,0,0,0,0,0,-1,1812,680,16.1447,3.15946
595,344,25.6914,-7.50287,0,0,0,0,0,0,0,-1,1819,680,25.6914,7.50284
602,344,25.8527,-6.73639,0,0,0,0,0,0,0,-1,1826,680,25.8527,6.73639
609,344,25.7766,-6.07062,0.00186877,0.00105909,0.000852866,0.002408,0.000519856,0.563805,0.00146316,0.0160302,1833,680,25.7766,6.07059
616,344,25.7356,-5.43329,0.00170222,0.00098632,0.00086438,0.00227983,0.000408705,0.589092,0.00140363,0.0214286,1840,680,25.7356,5.43326
623,344,25.7665,-4.82513,0.00149261,0.00107255,0.000900164,0.00220693,0.000358241,0.670786,0.0013676,0.0198159,1847,680,25.7665,4.82513
630,344,25.73,-4.24872,0.00124341,0.00120474,0.00101313,0.00223739,0.000210758,0.775856,0.00142654,0.0261659,1854,680,25.73,4.2487
637,344,25.6759,-3.63171,0.000903507,0.00142192,0.00110242,0.0022952,3.02268e-05,0.900863,0.00152016,0.0246987,1861,680,25.6759,3.63173
644,344,25.6451,-3.00897,0.00035868,0.00165429,0.00112757,0.00230689,-0.000293924,1.04613,0.00164468,0.0164799,1868,680,25.6451,3.009
651,344,25.6366,-2.37378,-0.000466613,0.00200217,0.00109976,0.00242101,-0.000885459,1.2069,0.00197642,0.0119555,1875,680,25.6366,2.37379
658,344,25.6437,-1.67804,-0.00167535,0.00237249,0.000933571,0.00257743,-0.00188029,1.3547,0.00258413,0.0240398,1882,680,25.6436,1.67803
665,344,25.4972,-1.09113,-0.00339007,0.00273742,0.00059168,0.00279403,-0.00344668,1.47541,0.00360964,0.0385666,1889,680,25.4972,1.09111
672,344,25.5293,-0.5401,0,0,0,0,0,0,0,-1,1896,680,25.5293,0.54011
679,344,25.8064,-0.17218,0,0,0,0,0,0,0,-1,1903,680,25.8064,0.172207
686,344,15.024,1.82709,0,0,0,0,0,0,0,-1,1910,680,15.024,-1.82706
693,344,12.4362,-1.42346,0,0,0,0,0,0,0,-1,1917,680,12.4361,1.42348
700,344,17.5396,2.61206,0,0,0,0,0,0,0,-1,1924,680,17.5396,-2.61204
707,344,18.5829,3.29352,0,0,0,0,0,0,0,-1,1931,680,18.5828,-3.2935
714,344,0,0,0,0,0,0,0,0,0,-1,1938,680,0,0
721,344,0,0,0,0,0,0,0,0,0,-1,1945,680,0,0
728,344,0,0,0,0,0,0,0,0,0,-1,1952,680,0,0
735,344,0,0,0,0,0,0,0,0,0,-1,1959,680,0,0
742,344,0,0,0,0,0,0,0,0,0,-1,1966,680,0,0
749,344,0,0,0,0,0,0,0,0,0,-1,1973,680,0,0
756,344,0,0,0,0,0,0,0,0,0,-1,1980,680,0,0
763,344,0,0,0,0,0,0,0,0,0,-1,1987,680,0,0
770,344,0,0,0,0,0,0,0,0,0,-1,1994,680,0,0
777,344,0,0,0,0,0,0,0,0,0,-1,2001,680,0,0
784,344,0,0,0,0,0,0,0,0,0,-1,2008,680,0,0
791,344,0,0,0,0,0,0,0,0,0,-1,2015,680,0,0
798,344,0,0,0,0,0,0,0,0,0,-1,2022,680,0,0
805,344,0,0,0,0,0,0,0,0,0,-1,2029,680,0,0
812,344,0,0,0,0,0,0,0,0,0,-1,2036,680,0,0
-700,337,0,0,0,0,0,0,0,0,0,-1,524,687,0,0
-693,337,0,0,0,0,0,0,0,0,0,-1,531,687,0,0
-686,337,0,0,0,0,0,0,0,0,0,-1,538,687,0,0
-679,337,0,0,0,0,0,0,0,0,0,-1,545,687,0,0
-672,337,0,0,0,0,0,0,0,0,0,-1,552,687,0,0
-665,337,0,0,0,0,0,0,0,0,0,-1,559,687,0,0
-658,337,0,0,0,0,0,0,0,0,0,-1,566,687,0,0
-651,337,0,0,0,0,0,0,0,0,0,-1,573,687,0,0
-644,337,0,0,0,0,0,0,0,0,0,-1,580,687,0,0
-637,337,0,0,0,0,0,0,0,0,0,-1,587,687,0,0
-630,337,0,0,0,0,0,0,0,0,0,-1,594,687,0,0
-623,337,0,0,0,0,0,0,0,0,0,-1,601,687,0,0
-616,337,0,0,0,0,0,0,0,0,0,-1,608,687,0,0
-609,337,0,0,0,0,0,0,0,0,0,-1,615,687,0,0
-602,337,0,0,0,0,0,0,0,0,0,-1,622,687,0,0
-595,337,0,0,0,0,0,0,0,0,0,-1,629,687,0,0
-588,337,-10.8413,1.27863,0,0,0,0,0,0,0,-1,636,687,-10.8413,-1.27861
-581,337,-11.2157,1.31567,0,0,0,0,0,0,0,-1,643,687,-11.2157,-1.3157
-574,337,-6.03339,2.0321,0,0,0,0,0,0,0,-1,650,687,-6.03337,-2.03213
-567,337,-13.8102,1.56787,0,0,0,0,0,0,0,-1,657,687,-13.8102,-1.56789
-560,337,-15.5435,2.34247,0,0,0,0,0,0,0,-1,664,687,-15.5435,-2.34247
-553,337,-16.5103,0.444519,0,0,0,0,0,0,0,-1,671,687,-16.5103,-0.44452
-546,337,-16.0406,-1.06934,0.019103,0.0362194,-0.02561,0.0546633,0.000658998,-0.946651,0.0362246,0.049629,678,687,-16.0407,1.06935
-539,337,-15.4984,-2.71735,0.0139951,0.0262344,-0.0184612,0.0395638,0.000665657,-0.945442,0.0261568,0.0415371,685,687,-15.4984,2.71732
-532,337,-15.539,-3.52032,0.0101836,0.0186681,-0.0130877,0.0281839,0.000667769,-0.942126,0.0185707,0.03016,692,687,-15.539,3.5203
-525,337,-15.6499,-4.12921,0.00726416,0.0126956,-0.0089017,0.0192866,0.000673143,-0.933453,0.0126393,0.0163616,699,687,-15.6499,4.12922
-518,337,-15.6506,-4.74731,0.00503213,0.008224,-0.00574925,0.0125947,0.000661421,-0.920784,0.00818491,0.0222578,706,687,-15.6506,4.74729
-511,337,-15.6851,-5.32513,0.00339906,0.00487629,-0.00341429,0.00763095,0.000644399,-0.891922,0.00488668,0.0232199,713,687,-15.6851,5.32512
-504,337,-15.6813,-5.92236,0.00231568,0.00242348,-0.00179096,0.00416135,0.000577808,-0.800441,0.00260309,0.0228792,720,687,-15.6813,5.92237
-497,337,-15.6835,-6.5069,0.00174202,0.000716655,-0.000785218,0.0021671,0.000291567,-0.496187,0.00135802,0.0161955,727,687,-15.6835,6.50688
-490,337,-15.718,-7.08954,0.00164381,-0.000371048,-0.000368786,0.00170919,-0.000436427,-0.175458,0.00130941,0.0135708,734,687,-15.718,7.08952
-483,337,-15.7151,-7.67773,0.00223866,-0.000740241,-0.000660934,0.00237872,-0.000880298,-0.208819,0.00194676,0.0137036,741,687,-15.7151,7.67775
-476,337,-15.7281,-8.28052,0.00312806,-0.00106951,-0.00120255,0.00344817,-0.00138962,-0.260156,0.00287615,0.015584,748,687,-15.7281,8.2805
-469,337,-15.7654,-8.88379,0,0,0,0,0,0,0,-1,755,687,-15.7654,8.88381
-462,337,-14.186,-8.89264,0,0,0,0,0,0,0,-1,762,687,-14.186,8.89266
-455,337,-6.00574,-3.12933,0,0,0,0,0,0,0,-1,769,687,-6.00576,3.12934
-448,337,-5.30627,-2.07202,0,0,0,0,0,0,0,-1,776,687,-5.30628,2.07205
-441,337,-4.24762,-1.49597,0,0,0,0,0,0,0,-1,783,687,-4.24762,1.49598
-434,337,-6.86908,1.37531,0,0,0,0,0,0,0,-1,790,687,-6.86908,-1.3753
-427,337,-9.92004,2.487,0,0,0,0,0,0,0,-1,797,687,-9.92002,-2.48701
-420,337,-2.95996,-1.76697,0,0,0,0,0,0,0,-1,804,687,-2.95998,1.76696
-413,337,-1.29169,-1.99487,0,0,0,0,0,0,0,-1,811,687,-1.29171,1.9949
-406,337,-1.02356,-1.89563,0,0,0,0,0,0,0,-1,818,687,-1.02357,1.89564
-399,337,-0.472839,-2.21338,0,0,0,0,0,0,0,-1,825,687,-0.472837,2.2134
-392,337,0,0,0,0,0,0,0,0,0,-1,832,687,0,0
-385,337,0,0,0,0,0,0,0,0,0,-1,839,687,0,0
-378,337,0,0,0,0,0,0,0,0,0,-1,846,687,0,0
-371,337,0,0,0,0,0,0,0,0,0,-1,853,687,0,0
-364,337,0,0,0,0,0,0,0,0,0,-1,860,687,0,0
-357,337,0,0,0,0,0,0,0,0,0,-1,867,687,0,0
-350,337,0,0,0,0,0,0,0,0,0,-1,874,687,0,0
-343,337,0,0,0,0,0,0,0,0,0,-1,881,687,0,0
-336,337,0,0,0,0,0,0,0,0,0,-1,888,687,0,0
-329,337,0,0,0,0,0,0,0,0,0,-1,895,687,0,0
-322,337,0,0,0,0,0,0,0,0,0,-1,902,687,0,0
-315,337,0,0,0,0,0,0,0,0,0,-1,909,687,0,0
-308,337,0,0,0,0,0,0,0,0,0,-1,916,687,0,0
-301,337,0,0,0,0,0,0,0,0,0,-1,923,687,0,0
-294,337,0,0,0,0,0,0,0,0,0,-1,930,687,0,0
-287,337,0,0,0,0,0,0,0,0,0,-1,937,687,0,0
-280,337,0,0,0,0,0,0,0,0,0,-1,944,687,0,0
-273,337,0,0,0,0,0,0,0,0,0,-1,951,687,0,0
-266,337,0,0,0,0,0,0,0,0,0,-1,958,687,0,0
-259,337,0,0,0,0,0,0,0,0,0,-1,965,687,0,0
-252,337,0,0,0,0,0,0,0,0,0,-1,972,687,0,0
-245,337,0,0,0,0,0,0,0,0,0,-1,979,687,0,0
-238,337,0,0,0,0,0,0,0,0,0,-1,986,687,0,0
-231,337,0,0,0,0,0,0,0,0,0,-1,993,687,0,0
-224,337,0,0,0,0,0,0,0,0,0,-1,1000,687,0,0
-217,337,0,0,0,0,0,0,0,0,0,-1,1007,687,0,0
-210,337,0,0,0,0,0,0,0,0,0,-1,1014,687,0,0
-203,337,0,0,0,0,0,0,0,0,0,-1,1021,687,0,0
-196,337,0,0,0,0,0,0,0,0,0,-1,1028,687,0,0
-189,337,0,0,0,0,0,0,0,0,0,-1,1035,687,0,0
-182,337,0,0,0,0,0,0,0,0,0,-1,1042,687,0,0
-175,337,0,0,0,0,0,0,0,0,0,-1,1049,687,0,0
-168,337,0,0,0,0,0,0,0,0,0,-1,1056,687,0,0
-161,337,0,0,0,0,0,0,0,0,0,-1,1063,687,0,0
-154,337,0,0,0,0,0,0,0,0,0,-1,1070,687,0,0
-147,337,0,0,0,0,0,0,0,0,0,-1,1077,687,0,0
-140,337,0,0,0,0,0,0,0,0,0,-1,1084,687,0,0
-133,337,0,0,0,0,0,0,0,0,0,-1,1091,687,0,0
-126,337,0,0,0,0,0,0,0,0,0,-1,1098,687,0,0
-119,337,0,0,0,0,0,0,0,0,0,-1,1105,687,0,0
-112,337,0,0,0,0,0,0,0,0,0,-1,1112,687,0,0
-105,337,0,0,0,0,0,0,0,0,0,-1,1119,687,0,0
-98,337,0,0,0,0,0,0,0,0,0,-1,1126,687,0,0
-91,337,0,0,0,0,0,0,0,0,0,-1,1133,687,0,0
-84,337,0,0,0,0,0,0,0,0,0,-1,1140,687,0,0
-77,337,0,0,0,0,0,0,0,0,0,-1,1147,687,0,0
-70,337,0,0,0,0,0,0,0,0,0,-1,1154,687,0,0
-63,337,0,0,0,0,0,0,0,0,0,-1,1161,687,0,0
-56,337,0,0,0,0,0,0,0,0,0,-1,1168,687,0,0
-49,337,0,0,0,0,0,0,0,0,0,-1,1175,687,0,0
-42,337,0,0,0,0,0,0,0,0,0,-1,1182,687,0,0
-35,337,0,0,0,0,0,0,0,0,0,-1,1189,687,0,0
-28,337,0,0,0,0,0,0,0,0,0,-1,1196,687,0,0
-21,337,0,0,0,0,0,0,0,0,0,-1,1203,687,0,0
-14,337,0,0,0,0,0,0,0,0,0,-1,1210,687,0,0
-7,337,0,0,0,0,0,0,0,0,0,-1,1217,687,0,0
0,337,0,0,0,0,0,0,0,0,0,-1,1224,687,0,0
7,337,0,0,0,0,0,0,0,0,0,-1,1231,687,0,0
14,337,0,0,0,0,0,0,0,0,0,-1,1238,687,0,0
21,337,0,0,0,0,0,0,0,0,0,-1,1245,687,0,0
28,337,0,0,0,0,0,0,0,0,0,-1,1252,687,0,0
35,337,0,0,0,0,0,0,0,0,0,-1,1259,687,0,0
42,337,0,0,0,0,0,0,0,0,0,-1,1266,687,0,0
49,337,0,0,0,0,0,0,0,0,0,-1,1273,687,0,0
56,337,0,0,0,0,0,0,0,0,0,-1,1280,687,0,0
63,337,0,0,0,0,0,0,0,0,0,-1,1287,687,0,0
70,337,0,0,0,0,0,0,0,0,0,-1,1294,687,0,0
77,337,0,0,0,0,0,0,0,0,0,-1,1301,687,0,0
84,337,0,0,0,0,0,0,0,0,0,-1,1308,687,0,0
91,337,0,0,0,0,0,0,0,0,0,-1,1315,687,0,0
98,337,0,0,0,0,0,0,0,0,0,-1,1322,687,0,0
105,337,0,0,0,0,0,0,0,0,0,-1,1329,687,0,0
112,337,0,0,0,0,0,0,0,0,0,-1,1336,687,0,0
119,337,0,0,0,0,0,0,0,0,0,-1,1343,687,0,0
126,337,0,0,0,0,0,0,0,0,0,-1,1350,687,0,0
133,337,0,0,0,0,0,0,0,0,0,-1,1357,687,0,0
140,337,0,0,0,0,0,0,0,0,0,-1,1364,687,0,0
147,337,0,0,0,0,0,0,0,0,0,-1,1371,687,0,0
154,337,0,0,0,0,0,0,0,0,0,-1,1378,687,0,0
161,337,0,0,0,0,0,0,0,0,0,-1,1385,687,0,0
168,337,0,0,0,0,0,0,0,0,0,-1,1392,687,0,0
175,337,0,0,0,0,0,0,0,0,0,-1,1399,687,0,0
182,337,0,0,0,0,0,0,0,0,0,-1,1406,687,0,0
189,337,0,0,0,0,0,0,0,0,0,-1,1413,687,0,0
196,337,0,0,0,0,0,0,0,0,0,-1,1420,687,0,0
203,337,0,0,0,0,0,0,0,0,0,-1,1427,687,0,0
210,337,0,0,0,0,0,0,0,0,0,-1,1434,687,0,0
217,337,0,0,0,0,0,0,0,0,0,-1,1441,687,0,0
224,337,0,0,0,0,0,0,0,0,0,-1,1448,687,0,0
231,337,0,0,0,0,0,0,0,0,0,-1,1455,687,0,0
238,337,0,0,0,0,0,0,0,0,0,-1,1462,687,0,0
245,337,0,0,0,0,0,0,0,0,0,-1,1469,687,0,0
252,337,0,0,0,0,0,0,0,0,0,-1,1476,687,0,0
259,337,0,0,0,0,0,0,0,0,0,-1,1483,687,0,0
266,337,0,0,0,0,0,0,0,0,0,-1,1490,687,0,0
273,337,0,0,0,0,0,0,0,0,0,-1,1497,687,0,0
280,337,0,0,0,0,0,0,0,0,0,-1,1504,687,0,0
287,337,0,0,0,0,0,0,0,0,0,-1,1511,687,0,0
294,337,0,0,0,0,0,0,0,0,0,-1,1518,687,0,0
301,337,0,0,0,0,0,0,0,0,0,-1,1525,687,0,0
308,337,0,0,0,0,0,0,0,0,0,-1,1532,687,0,0
315,337,0,0,0,0,0,0,0,0,0,-1,1539,687,0,0
322,337,0,0,0,0,0,0,0,0,0,-1,1546,687,0,0
329,337,0,0,0,0,0,0,0,0,0,-1,1553,687,0,0
336,337,0,0,0,0,0,0,0,0,0,-1,1560,687,0,0
343,337,0,0,0,0,0,0,0,0,0,-1,1567,687,0,0
350,337,0,0,0,0,0,0,0,0,0,-1,1574,687,0,0
357,337,0,0,0,0,0,0,0,0,0,-1,1581,687,0,0
364,337,0,0,0,0,0,0,0,0,0,-1,1588,687,0,0
371,337,0,0,0,0,0,0,0,0,0,-1,1595,687,0,0
378,337,0,0,0,0,0,0,0,0,0,-1,1602,687,0,0
385,337,0,0,0,0,0,0,0,0,0,-1,1609,687,0,0
392,337,0,0,0,0,0,0,0,0,0,-1,1616,687,0,0
399,337,0,0,0,0,0,0,0,0,0,-1,1623,687,0,0
406,337,0,0,0,0,0,0,0,0,0,-1,1630,687,0,0
413,337,0,0,0,0,0,0,0,0,0,-1,1637,687,0,0
420,337,0,0,0,0,0,0,0,0,0,-1,1644,687,0,0
427,337,0,0,0,0,0,0,0,0,0,-1,1651,687,0,0
434,337,0,0,0,0,0,0,0,0,0,-1,1658,687,0,0
441,337,0,0,0,0,0,0,0,0,0,-1,1665,687,0,0
448,337,0,0,0,0,0,0,0,0,0,-1,1672,687,0,0
455,337,0,0,0,0,0,0,0,0,0,-1,1679,687,0,0
462,337,0,0,0,0,0,0,0,0,0,-1,1686,687,0,0
469,337,0,0,0,0,0,0,0,0,0,-1,1693,687,0,0
476,337,0,0,0,0,0,0,0,0,0,-1,1700,687,0,0
483,337,0,0,0,0,0,0,0,0,0,-1,1707,687,0,0
490,337,0,0,0,0,0,0,0,0,0,-1,1714,687,0,0
497,337,0,0,0,0,0,0,0,0,0,-1,1721,687,0,0
504,337,0,0,0,0,0,0,0,0,0,-1,1728,687,0,0
511,337,0,0,0,0,0,0,0,0,0,-1,1735,687,0,0
518,337,18.0369,1.64581,0,0,0,0,0,0,0,-1,1742,687,18.0368,-1.64581
525,337,31.0717,2.13745,0,0,0,0,0,0,0,-1,1749,687,31.0717,-2.13747
532,337,31.5126,2.13904,0,0,0,0,0,0,0,-1,1756,687,31.5125,-2.13905
539,337,31.9684,2.15594,0,0,0,0,0,0,0,-1,1763,687,31.9684,-2.15596
546,337,32.3584,1.43719,0,0,0,0,0,0,0,-1,1770,687,32.3585,-1.43722
553,337,32.1809,1.36395,0,0,0,0,0,0,0,-1,1777,687,32.181,-1.36396
560,337,18.4053,3.62793,0,0,0,0,0,0,0,-1,1784,687,18.4052,-3.6279
567,337,11.9288,1.38776,0,0,0,0,0,0,0,-1,1791,687,11.9288,-1.38777
574,337,10.704,1.19476,0,0,0,0,0,0,0,-1,1798,687,10.704,-1.19478
581,337,8.50427,0.561768,0,0,0,0,0,0,0,-1,1805,687,8.5043,-0.561754
588,337,8.5885,-0.0536499,0,0,0,0,0,0,0,-1,1812,687,8.58844,0.0536788
595,337,13.8816,-1.70703,0,0,0,0,0,0,0,-1,1819,687,13.8816,1.70702
602,337,26.3887,-6.71484,0,0,0,0,0,0,0,-1,1826,687,26.3887,6.71484
609,337,26.3772,-5.99457,0.00195461,0.00101884,0.000868381,0.00247313,0.000500319,0.538297,0.00150987,0.0273952,1833,687,26.3772,5.99459
616,337,26.3499,-5.38831,0.00170812,0.000813638,0.0008361,0.00220908,0.000312676,0.539805,0.00138035,0.0170536,1840,687,26.3498,5.38832
623,337,26.3506,-4.7959,0.0014469,0.00081354,0.000809495,0.00199946,0.000260987,0.598945,0.00125505,0.0148952,1847,687,26.3506,4.79588
630,337,26.3329,-4.2121,0.00116946,0.000855384,0.000872069,0.00189851,0.000126324,0.696316,0.00122574,0.0198156,1854,687,26.3329,4.21209
637,337,26.3024,-3.60107,0.000753598,0.00100982,0.000895825,0.00178665,-2.32302e-05,0.856421,0.00119892,0.0169006,1861,687,26.3024,3.60105
644,337,26.2555,-2.97009,0.000155162,0.00119467,0.000864723,0.00168382,-0.000333988,1.056,0.00124886,0.010516,1868,687,26.2554,2.97011
651,337,26.2412,-2.35095,-0.00068875,0.00152809,0.000802546,0.00178813,-0.000948788,1.25745,0.00160473,0.00951836,1875,687,26.2413,2.35098
658,337,26.236,-1.73462,-0.00184978,0.00192821,0.000647907,0.00203624,-0.0019578,1.40559,0.00230611,0.0115833,1882,687,26.236,1.73461
665,337,26.2388,-1.1189,-0.00342361,0.00238328,0.00037286,0.00240712,-0.00344745,1.50694,0.00339788,0.0162273,1889,687,26.2387,1.11891
672,337,26.192,-0.571045,-0.00556547,0.0029496,-0.000178338,0.00295333,-0.0055692,-1.54986,0.00499715,0.0341487,1896,687,26.192,0.57107
679,337,26.4797,-0.0963745,0,0,0,0,0,0,0,-1,1903,687,26.4798,0.0963502
686,337,18.5614,1.68597,0,0,0,0,0,0,0,-1,1910,687,18.5614,-1.68598
693,337,16.5415,2.21411,0,0,0,0,0,0,0,-1,1917,687,16.5415,-2.2141
700,337,17.2661,2.44379,0,0,0,0,0,0,0,-1,1924,687,17.2661,-2.44378
707,337,17.3544,5.61853,0,0,0,0,0,0,0,-1,1931,687,17.3543,-5.61851
714,337,0,0,0,0,0,0,0,0,0,-1,1938,687,0,0
721,337,0,0,0,0,0,0,0,0,0,-1,1945,687,0,0
728,337,0,0,0,0,0,0,0,0,0,-1,1952,687,0,0
735,337,0,0,0,0,0,0,0,0,0,-1,1959,687,0,0
742,337,0,0,0,0,0,0,0,0,0,-1,1966,687,0,0
749,337,0,0,0,0,0,0,0,0,0,-1,1973,687,0,0
756,337,0,0,0,0,0,0,0,0,0,-1,1980,687,0,0
763,337,0,0,0,0,0,0,0,0,0,-1,1987,687,0,0
770,337,0,0,0,0,0,0,0,0,0,-1,1994,687,0,0
777,337,0,0,0,0,0,0,0,0,0,-1,2001,687,0,0
784,337,0,0,0,0,0,0,0,0,0,-1,2008,687,0,0
791,337,0,0,0,0,0,0,0,0,0,-1,2015,687,0,0
798,337,0,0,0,0,0,0,0,0,0,-1,2022,687,0,0
805,337,0,0,0,0,0,0,0,0,0,-1,2029,687,0,0
812,337,0,0,0,0,0,0,0,0,0,-1,2036,687,0,0
-700,330,0,0,0,0,0,0,0,0,0,-1,524,694,0,0
-693,330,0,0,0,0,0,0,0,0,0,-1,531,694,0,0
-686,330,0,0,0,0,0,0,0,0,0,-1,538,694,0,0
-679,330,0,0,0,0,0,0,0,0,0,-1,545,694,0,0
-672,330,0,0,0,0,0,0,0,0,0,-1,552,694,0,0
-665,330,0,0,0,0,0,0,0,0,0,-1,559,694,0,0
-658,330,0,0,0,0,0,0,0,0,0,-1,566,694,0,0
-651,330,0,0,0,0,0,0,0,0,0,-1,573,694,0,0
-644,330,0,0,0,0,0,0,0,0,0,-1,580,694,0,0
-637,330,0,0,0,0,0,0,0,0,0,-1,587,694,0,0
-630,330,0,0,0,0,0,0,0,0,0,-1,594,694,0,0
-623,330,0,0,0,0,0,0,0,0,0,-1,601,694,0,0
-616,330,0,0,0,0,0,0,0,0,0,-1,608,694,0,0
-609,330,0,0,0,0,0,0,0,0,0,-1,615,694,0,0
-602,330,0,0,0,0,0,0,0,0,0,-1,622,694,0,0
-595,330,-4.67883,1.65515,0,0,0,0,0,0,0,-1,629,694,-4.67881,-1.65515
-588,330,-8.5047,2.67346,0,0,0,0,0,0,0,-1,636,694,-8.50469,-2.67348
-581,330,-12.4227,0.947083,0,0,0,0,0,0,0,-1,643,694,-12.4227,-0.947109
-574,330,-9.02118,1.87952,0,0,0,0,0,0,0,-1,650,694,-9.02115,-1.87953
-567,330,-8.35577,0.909973,0,0,0,0,0,0,0,-1,657,694,-8.35575,-0.909945
-560,330,-13.1036,-0.584656,0,0,0,0,0,0,0,-1,664,694,-13.1035,0.584658
-553,330,-16.1126,-1.13672,0,0,0,0,0,0,0,-1,671,694,-16.1126,1.13673
-546,330,-16.0454,-2.04547,0.0141831,0.0278974,-0.0192302,0.0414564,0.000624077,-0.956663,0.027432,0.0431054,678,694,-16.0454,2.04549
-539,330,-16.0455,-2.93683,0.0107559,0.0204766,-0.0141254,0.0305545,0.0006781,-0.951096,0.0201474,0.0219196,685,694,-16.0455,2.93682
-532,330,-16.2403,-3.5025,0.00802983,0.0145865,-0.0100857,0.0219133,0.000702986,-0.942535,0.0143803,0.0159552,692,694,-16.2403,3.50249
-525,330,-16.2104,-4.13586,0.00582723,0.00983136,-0.00682113,0.0149382,0.00072042,-0.928144,0.00972753,0.0104725,699,694,-16.2104,4.13584
-518,330,-16.2188,-4.6925,0.00408501,0.00618638,-0.00428191,0.00954463,0.000726766,-0.90571,0.00613519,0.0137721,706,694,-16.2188,4.69248
-511,330,-16.2713,-5.28656,0.0027705,0.00341336,-0.00236364,0.00547733,0.000706534,-0.852979,0.00344031,0.0192504,713,694,-16.2713,5.28655
-504,330,-16.2703,-5.89142,0.00198356,0.00135341,-0.00106497,0.00277908,0.000557881,-0.641575,0.0016976,0.0185713,720,694,-16.2703,5.89141
-497,330,-16.2891,-6.45752,0.00162189,-5.34051e-05,-0.00029153,0.00167118,-0.000102686,-0.167461,0.00114987,0.0136215,727,694,-16.2891,6.45753
-490,330,-16.2971,-7.05261,0.00194369,-0.000610729,-0.000309172,0.00198057,-0.000647617,-0.11875,0.0015811,0.0136183,734,694,-16.2971,7.0526
-483,330,-16.2909,-7.66034,0.0029755,-0.000822986,-0.000934279,0.00319286,-0.00104034,-0.228582,0.00254718,0.0142075,741,694,-16.2909,7.66036
-476,330,-16.3309,-8.31409,0.00435192,-0.0011749,-0.00181882,0.00489677,-0.00171975,-0.291052,0.00396412,0.0488406,748,694,-16.3309,8.31411
-469,330,-15.9957,-9.20313,0,0,0,0,0,0,0,-1,755,694,-15.9957,9.20311
-462,330,-7.26733,-3.84833,0,0,0,0,0,0,0,-1,762,694,-7.26731,3.84832
-455,330,-5.04254,-1.79303,0,0,0,0,0,0,0,-1,769,694,-5.04252,1.79305
-448,330,-4.89886,-1.66156,0,0,0,0,0,0,0,-1,776,694,-4.89886,1.66157
-441,330,-5.30676,-2.34045,0,0,0,0,0,0,0,-1,783,694,-5.30679,2.34048
-434,330,-7.20428,1.00024,0,0,0,0,0,0,0,-1,790,694,-7.20431,-1.00027
-427,330,-16.0428,2.89258,0,0,0,0,0,0,0,-1,797,694,-16.0428,-2.89259
-420,330,-29.0331,0.271606,0,0,0,0,0,0,0,-1,804,694,-29.0331,-0.27158
-413,330,-29.0896,0.56366,0,0,0,0,0,0,0,-1,811,694,-29.0896,-0.563671
-406,330,-1.65375,-1.74371,0,0,0,0,0,0,0,-1,818,694,-1.65375,1.74371
-399,330,0,0,0,0,0,0,0,0,0,-1,825,694,0,0
-392,330,0,0,0,0,0,0,0,0,0,-1,832,694,0,0
-385,330,0,0,0,0,0,0,0,0,0,-1,839,694,0,0
-378,330,0,0,0,0,0,0,0,0,0,-1,846,694,0,0
-371,330,0,0,0,0,0,0,0,0,0,-1,853,694,0,0
-364,330,0,0,0,0,0,0,0,0,0,-1,860,694,0,0
-357,330,0,0,0,0,0,0,0,0,0,-1,867,694,0,0
-350,330,0,0,0,0,0,0,0,0,0,-1,874,694,0,0
-343,330,0,0,0,0,0,0,0,0,0,-1,881,694,0,0
-336,330,0,0,0,0,0,0,0,0,0,-1,888,694,0,0
-329,330,0,0,0,0,0,0,0,0,0,-1,895,694,0,0
-322,330,0,0,0,0,0,0,0,0,0,-1,902,694,0,0
-315,330,0,0,0,0,0,0,0,0,0,-1,909,694,0,0
-308,330,0,0,0,0,0,0,0,0,0,-1,916,694,0,0
-301,330,0,0,0,0,0,0,0,0,0,-1,923,694,0,0
-294,330,0,0,0,0,0,0,0,0,0,-1,930,694,0,0
-287,330,0,0,0,0,0,0,0,0,0,-1,937,694,0,0
-280,330,0,0,0,0,0,0,0,0,0,-1,944,694,0,0
-273,330,0,0,0,0,0,0,0,0,0,-1,951,694,0,0
-266,330,0,0,0,0,0,0,0,0,0,-1,958,694,0,0
-259,330,0,0,0,0,0,0,0,0,0,-1,965,694,0,0
-252,330,0,0,0,0,0,0,0,0,0,-1,972,694,0,0
-245,330,0,0,0,0,0,0,0,0,0,-1,979,694,0,0
-238,330,0,0,0,0,0,0,0,0,0,-1,986,694,0,0
-231,330,0,0,0,0,0,0,0,0,0,-1,993,694,0,0
-224,330,0,0,0,0,0,0,0,0,0,-1,1000,694,0,0
-217,330,0,0,0,0,0,0,0,0,0,-1,1007,694,0,0
-210,330,0,0,0,0,0,0,0,0,0,-1,1014,694,0,0
-203,330,0,0,0,0,0,0,0,0,0,-1,1021,694,0,0
-196,330,0,0,0,0,0,0,0,0,0,-1,1028,694,0,0
-189,330,0,0,0,0,0,0,0,0,0,-1,1035,694,0,0
-182,330,0,0,0,0,0,0,0,0,0,-1,1042,694,0,0
-175,330,0,0,0,0,0,0,0,0,0,-1,1049,694,0,0
-168,330,0,0,0,0,0,0,0,0,0,-1,1056,694,0,0
-161,330,0,0,0,0,0,0,0,0,0,-1,1063,694,0,0
-154,330,0,0,0,0,0,0,0,0,0,-1,1070,694,0,0
-147,330,0,0,0,0,0,0,0,0,0,-1,1077,694,0,0
-140,330,0,0,0,0,0,0,0,0,0,-1,1084,694,0,0
-133,330,0,0,0,0,0,0,0,0,0,-1,1091,694,0,0
-126,330,0,0,0,0,0,0,0,0,0,-1,1098,694,0,0
-119,330,0,0,0,0,0,0,0,0,0,-1,1105,694,0,0
-112,330,0,0,0,0,0,0,0,0,0,-1,1112,694,0,0
-105,330,0,0,0,0,0,0,0,0,0,-1,1119,694,0,0
-98,330,0,0,0,0,0,0,0,0,0,-1,1126,694,0,0
-91,330,0,0,0,0,0,0,0,0,0,-1,1133,694,0,0
-84,330,0,0,0,0,0,0,0,0,0,-1,1140,694,0,0
-77,330,0,0,0,0,0,0,0,0,0,-1,1147,694,0,0
-70,330,0,0,0,0,0,0,0,0,0,-1,1154,694,0,0
-63,330,0,0,0,0,0,0,0,0,0,-1,1161,694,0,0
-56,330,0,0,0,0,0,0,0,0,0,-1,1168,694,0,0
-49,330,0,0,0,0,0,0,0,0,0,-1,1175,694,0,0
-42,330,0,0,0,0,0,0,0,0,0,-1,1182,694,0,0
-35,330,0,0,0,0,0,0,0,0,0,-1,1189,694,0,0
-28,330,0,0,0,0,0,0,0,0,0,-1,1196,694,0,0
-21,330,0,0,0,0,0,0,0,0,0,-1,1203,694,0,0
-14,330,0,0,0,0,0,0,0,0,0,-1,1210,694,0,0
-7,330,0,0,0,0,0,0,0,0,0,-1,1217,694,0,0
0,330,0,0,0,0,0,0,0,0,0,-1,1224,694,0,0
7,330,0,0,0,0,0,0,0,0,0,-1,1231,694,0,0
14,330,0,0,0,0,0,0,0,0,0,-1,1238,694,0,0
21,330,0,0,0,0,0,0,0,0,0,-1,1245,694,0,0
28,330,0,0,0,0,0,0,0,0,0,-1,1252,694,0,0
35,330,0,0,0,0,0,0,0,0,0,-1,1259,694,0,0
42,330,0,0,0,0,0,0,0,0,0,-1,1266,694,0,0
49,330,0,0,0,0,0,0,0,0,0,-1,1273,694,0,0
56,330,0,0,0,0,0,0,0,0,0,-1,1280,694,0,0
63,330,0,0,0,0,0,0,0,0,0,-1,1287,694,0,0
70,330,0,0,0,0,0,0,0,0,0,-1,1294,694,0,0
77,330,0,0,0,0,0,0,0,0,0,-1,1301,694,0,0
84,330,0,0,0,0,0,0,0,0,0,-1,1308,694,0,0
91,330,0,0,0,0,0,0,0,0,0,-1,1315,694,0,0
98,330,0,0,0,0,0,0,0,0,0,-1,1322,694,0,0
105,330,0,0,0,0,0,0,0,0,0,-1,1329,694,0,0
112,330,0,0,0,0,0,0,0,0,0,-1,1336,694,0,0
119,330,0,0,0,0,0,0,0,0,0,-1,1343,694,0,0
126,330,0,0,0,0,0,0,0,0,0,-1,1350,694,0,0
133,330,0,0,0,0,0,0,0,0,0,-1,1357,694,0,0
140,330,0,0,0,0,0,0,0,0,0,-1,1364,694,0,0
147,330,0,0,0,0,0,0,0,0,0,-1,1371,694,0,0
154,330,0,0,0,0,0,0,0,0,0,-1,1378,694,0,0
161,330,0,0,0,0,0,0,0,0,0,-1,1385,694,0,0
168,330,0,0,0,0,0,0,0,0,0,-1,1392,694,0,0
175,330,0,0,0,0,0,0,0,0,0,-1,1399,694,0,0
182,330,0,0,0,0,0,0,0,0,0,-1,1406,694,0,0
189,330,0,0,0,0,0,0,0,0,0,-1,1413,694,0,0
196,330,0,0,0,0,0,0,0,0,0,-1,1420,694,0,0
203,330,0,0,0,0,0,0,0,0,0,-1,1427,694,0,0
210,330,0,0,0,0,0,0,0,0,0,-1,1434,694,0,0
217,330,0,0,0,0,0,0,0,0,0,-1,1441,694,0,0
224,330,0,0,0,0,0,0,0,0,0,-1,1448,694,0,0
231,330,0,0,0,0,0,0,0,0,0,-1,1455,694,0,0
238,330,0,0,0,0,0,0,0,0,0,-1,1462,694,0,0
245,330,0,0,0,0,0,0,0,0,0,-1,1469,694,0,0
252,330,0,0,0,0,0,0,0,0,0,-1,1476,694,0,0
259,330,0,0,0,0,0,0,0,0,0,-1,1483,694,0,0
266,330,0,0,0,0,0,0,0,0,0,-1,1490,694,0,0
273,330,0,0,0,0,0,0,0,0,0,-1,1497,694,0,0
280,330,0,0,0,0,0,0,0,0,0,-1,1504,694,0,0
287,330,0,0,0,0,0,0,0,0,0,-1,1511,694,0,0
294,330,0,0,0,0,0,0,0,0,0,-1,1518,694,0,0
301,330,0,0,0,0,0,0,0,0,0,-1,1525,694,0,0
308,330,0,0,0,0,0,0,0,0,0,-1,1532,694,0,0
315,330,0,0,0,0,0,0,0,0,0,-1,1539,694,0,0
322,330,0,0,0,0,0,0,0,0,0,-1,1546,694,0,0
329,330,0,0,0,0,0,0,0,0,0,-1,1553,694,0,0
336,330,0,0,0,0,0,0,0,0,0,-1,1560,694,0,0
343,330,0,0,0,0,0,0,0,0,0,-1,1567,694,0,0
350,330,0,0,0,0,0,0,0,0,0,-1,1574,694,0,0
357,330,0,0,0,0,0,0,0,0,0,-1,1581,694,0,0
364,330,0,0,0,0,0,0,0,0,0,-1,1588,694,0,0
371,330,0,0,0,0,0,0,0,0,0,-1,1595,694,0,0
378,330,0,0,0,0,0,0,0,0,0,-1,1602,694,0,0
385,330,0,0,0,0,0,0,0,0,0,-1,1609,694,0,0
392,330,0,0,0,0,0,0,0,0,0,-1,1616,694,0,0
399,330,0,0,0,0,0,0,0,0,0,-1,1623,694,0,0
406,330,0,0,0,0,0,0,0,0,0,-1,1630,694,0,0
413,330,0,0,0,0,0,0,0,0,0,-1,1637,694,0,0
420,330,0,0,0,0,0,0,0,0,0,-1,1644,694,0,0
427,330,0,0,0,0,0,0,0,0,0,-1,1651,694,0,0
434,330,0,0,0,0,0,0,0,0,0,-1,1658,694,0,0
441,330,0,0,0,0,0,0,0,0,0,-1,1665,694,0,0
448,330,0,0,0,0,0,0,0,0,0,-1,1672,694,0,0
455,330,0,0,0,0,0,0,0,0,0,-1,1679,694,0,0
462,330,0,0,0,0,0,0,0,0,0,-1,1686,694,0,0
469,330,0,0,0,0,0,0,0,0,0,-1,1693,694,0,0
476,330,0,0,0,0,0,0,0,0,0,-1,1700,694,0,0
483,330,0,0,0,0,0,0,0,0,0,-1,1707,694,0,0
490,330,0,0,0,0,0,0,0,0,0,-1,1714,694,0,0
497,330,0,0,0,0,0,0,0,0,0,-1,1721,694,0,0
504,330,0,0,0,0,0,0,0,0,0,-1,1728,694,0,0
511,330,0,0,0,0,0,0,0,0,0,-1,1735,694,0,0
518,330,0,0,0,0,0,0,0,0,0,-1,1742,694,0,0
525,330,30.6694,0.69519,0,0,0,0,0,0,0,-1,1749,694,30.6694,-0.695206
532,330,30.9469,1.32501,0,0,0,0,0,0,0,-1,1756,694,30.9469,-1.32501
539,330,31.5155,1.62506,0,0,0,0,0,0,0,-1,1763,694,31.5155,-1.62507
546,330,31.4187,1.85651,0,0,0,0,0,0,0,-1,1770,694,31.4187,-1.85651
553,330,31.8452,1.81476,0,0,0,0,0,0,0,-1,1777,694,31.8452,-1.81475
560,330,32.2401,2.43225,0,0,0,0,0,0,0,-1,1784,694,32.2401,-2.43227
567,330,18.0321,3.98578,0,0,0,0,0,0,0,-1,1791,694,18.0321,-3.98576
574,330,12.0454,2.1662,0,0,0,0,0,0,0,-1,1798,694,12.0455,-2.16618
581,330,11.4215,4.50836,0,0,0,0,0,0,0,-1,1805,694,11.4215,-4.50837
588,330,6.45667,-0.0630493,0,0,0,0,0,0,0,-1,1812,694,6.45661,0.0630695
595,330,8.23193,-0.258484,0,0,0,0,0,0,0,-1,1819,694,8.23188,0.258459
602,330,26.6985,-6.7663,0,0,0,0,0,0,0,-1,1826,694,26.6985,6.76627
609,330,26.8917,-6.01276,0.00204065,0.00111325,0.000915728,0.00260339,0.000550514,0.551032,0.0015843,0.0398581,1833,694,26.8918,6.01278
616,330,26.9668,-5.37732,0.00173351,0.00072575,0.000848441,0.00221642,0.000242843,0.517441,0.00140368,0.0117919,1840,694,26.9668,5.37733
623,330,26.9657,-4.78156,0.00144946,0.000640654,0.000777611,0.00192154,0.000168576,0.545615,0.0012287,0.0126352,1847,694,26.9657,4.78158
630,330,26.9551,-4.18475,0.00117343,0.000613562,0.000802451,0.00174337,4.3619e-05,0.617574,0.00114799,0.0132721,1854,694,26.955,4.18475
637,330,26.9183,-3.56848,0.000709628,0.000722967,0.000772668,0.00148899,-5.63998e-05,0.789714,0.00101199,0.0119744,1861,694,26.9183,3.56845
644,330,26.8613,-2.94324,9.31457e-05,0.000889494,0.000706713,0.00130248,-0.000319843,1.04194,0.000992271,0.00766964,1868,694,26.8613,2.94321
651,330,26.8442,-2.3299,-0.0007248,0.00122131,0.00062422,0.00140432,-0.00090781,1.28561,0.00134513,0.0103664,1875,694,26.8443,2.32989
658,330,26.8181,-1.70966,-0.00179662,0.00164914,0.000482885,0.00171553,-0.00186301,1.43416,0.00206666,0.0109083,1882,694,26.8181,1.70966
665,330,26.7893,-1.08014,-0.00318946,0.00216868,0.000261244,0.00218139,-0.00320217,1.52219,0.00312677,0.0102605,1889,694,26.7893,1.08015
672,330,26.83,-0.439941,-0.00501664,0.00284404,-0.000128413,0.00284614,-0.00501874,-1.55447,0.00459818,0.0262465,1896,694,26.8299,0.43996
679,330,26.3955,0.147095,-0.0076559,0.00366863,-0.000777744,0.00372179,-0.00770907,-1.50255,0.00673211,0.0423518,1903,694,26.3955,-0.147101
686,330,26.0276,0.935608,0,0,0,0,0,0,0,-1,1910,694,26.0276,-0.935628
693,330,17.3999,2.5976,0,0,0,0,0,0,0,-1,1917,694,17.4,-2.59759
700,330,17.1072,4.13,0,0,0,0,0,0,0,-1,1924,694,17.1071,-4.13002
707,330,16.663,4.88672,0,0,0,0,0,0,0,-1,1931,694,16.6629,-4.88673
714,330,16.5454,5.80896,0,0,0,0,0,0,0,-1,1938,694,16.5454,-5.80899
721,330,0,0,0,0,0,0,0,0,0,-1,1945,694,0,0
728,330,0,0,0,0,0,0,0,0,0,-1,1952,694,0,0
735,330,0,0,0,0,0,0,0,0,0,-1,1959,694,0,0
742,330,0,0,0,0,0,0,0,0,0,-1,1966,694,0,0
749,330,0,0,0,0,0,0,0,0,0,-1,1973,694,0,0
756,330,0,0,0,0,0,0,0,0,0,-1,1980,694,0,0
763,330,0,0,0,0,0,0,0,0,0,-1,1987,694,0,0
770,330,0,0,0,0,0,0,0,0,0,-1,1994,694,0,0
777,330,0,0,0,0,0,0,0,0,0,-1,2001,694,0,0
784,330,0,0,0,0,0,0,0,0,0,-1,2008,694,0,0
791,330,0,0,0,0,0,0,0,0,0,-1,2015,694,0,0
798,330,0,0,0,0,0,0,0,0,0,-1,2022,694,0,0
805,330,0,0,0,0,0,0,0,0,0,-1,2029,694,0,0
812,330,0,0,0,0,0,0,0,0,0,-1,2036,694,0,0
-700,323,0,0,0,0,0,0,0,0,0,-1,524,701,0,0
-693,323,0,0,0,0,0,0,0,0,0,-1,531,701,0,0
-686,323,0,0,0,0,0,0,0,0,0,-1,538,701,0,0
-679,323,0,0,0,0,0,0,0,0,0,-1,545,701,0,0
-672,323,0,0,0,0,0,0,0,0,0,-1,552,701,0,0
-665,323,0,0,0,0,0,0,0,0,0,-1,559,701,0,0
-658,323,0,0,0,0,0,0,0,0,0,-1,566,701,0,0
-651,323,0,0,0,0,0,0,0,0,0,-1,573,701,0,0
-644,323,0,0,0,0,0,0,0,0,0,-1,580,701,0,0
-637,323,0,0,0,0,0,0,0,0,0,-1,587,701,0,0
-630,323,0,0,0,0,0,0,0,0,0,-1,594,701,0,0
-623,323,0,0,0,0,0,0,0,0,0,-1,601,701,0,0
-616,323,0,0,0,0,0,0,0,0,0,-1,608,701,0,0
-609,323,0,0,0,0,0,0,0,0,0,-1,615,701,0,0
-602,323,-4.15833,2.12256,0,0,0,0,0,0,0,-1,622,701,-4.1583,-2.12257
-595,323,-4.052,1.79156,0,0,0,0,0,0,0,-1,629,701,-4.05198,-1.79158
-588,323,-4.07019,1.94543,0,0,0,0,0,0,0,-1,636,701,-4.07019,-1.94542
-581,323,-6.63727,0.562805,0,0,0,0,0,0,0,-1,643,701,-6.63728,-0.56279
-574,323,-6.15887,0.426697,0,0,0,0,0,0,0,-1,650,701,-6.15887,-0.426727
-567,323,-10.0015,0.0371094,0,0,0,0,0,0,0,-1,657,701,-10.0015,-0.037126
-560,323,-16.3503,-1.16956,0,0,0,0,0,0,0,-1,664,701,-16.3503,1.16957
-553,323,-16.7779,-1.83362,0,0,0,0,0,0,0,-1,671,701,-16.7779,1.8336
-546,323,-16.7405,-2.34644,0.0105954,0.0210185,-0.014099,0.0308384,0.000775578,-0.962429,0.0203053,0.0237636,678,701,-16.7405,2.34646
-539,323,-16.7252,-2.87958,0.00822749,0.0157057,-0.0105335,0.0231441,0.000789122,-0.955947,0.0151732,0.0199852,685,701,-16.7252,2.87958
-532,323,-16.768,-3.50702,0.00624768,0.0112446,-0.00756807,0.016716,0.000776326,-0.944832,0.0108944,0.0114815,692,701,-16.768,3.50701
-525,323,-16.8071,-4.10303,0.00454419,0.00757075,-0.00508472,0.0113626,0.000752343,-0.930032,0.00733715,0.00868952,699,701,-16.8072,4.10302
-518,323,-16.8267,-4.66168,0.00318327,0.00459102,-0.00308088,0.00704741,0.000726883,-0.897703,0.00447569,0.0102695,706,701,-16.8267,4.66167
-511,323,-16.8617,-5.24323,0.00207339,0.00222364,-0.00153634,0.0036867,0.000610337,-0.809827,0.00228173,0.0136985,713,701,-16.8617,5.24324
-504,323,-16.8943,-5.84253,0.00146606,0.000324548,-0.00056213,0.0016964,9.42097e-05,-0.388891,0.00110088,0.0150708,720,701,-16.8943,5.84253
-497,323,-16.8915,-6.40302,0.00109851,-0.00107938,-1.5027e-05,0.00109861,-0.00107948,-0.00689937,0.00125754,0.0122011,727,701,-16.8915,6.403
-490,323,-16.9091,-6.99921,0.00146695,-0.00158646,-0.00041383,0.00152204,-0.00164155,-0.13235,0.00182693,0.0132404,734,701,-16.9091,6.99919
-483,323,-16.9004,-7.58673,0.0023692,-0.002246,-0.00133101,0.00272555,-0.00260235,-0.26159,0.00307634,0.0283393,741,701,-16.9004,7.58673
-476,323,-16.7148,-8.53857,0,0,0,0,0,0,0,-1,748,701,-16.7148,8.5386
-469,323,-8.33301,-3.64001,0,0,0,0,0,0,0,-1,755,701,-8.33298,3.64
-462,323,-5.29431,-1.45697,0,0,0,0,0,0,0,-1,762,701,-5.29431,1.45699
-455,323,-5.0658,-1.36639,0,0,0,0,0,0,0,-1,769,701,-5.06578,1.3664
-448,323,-4.91608,-1.59601,0,0,0,0,0,0,0,-1,776,701,-4.91606,1.59604
-441,323,-14.4006,0.535217,0,0,0,0,0,0,0,-1,783,701,-14.4006,-0.535203
-434,323,-15.3158,2.479,0,0,0,0,0,0,0,-1,790,701,-15.3158,-2.47898
-427,323,-28.3923,1.16797,0,0,0,0,0,0,0,-1,797,701,-28.3923,-1.16796
-420,323,-28.7292,1.09302,0,0,0,0,0,0,0,-1,804,701,-28.7292,-1.09304
-413,323,-28.7955,1.22418,0,0,0,0,0,0,0,-1,811,701,-28.7956,-1.22419
-406,323,0,0,0,0,0,0,0,0,0,-1,818,701,0,0
-399,323,0,0,0,0,0,0,0,0,0,-1,825,701,0,0
-392,323,0,0,0,0,0,0,0,0,0,-1,832,701,0,0
-385,323,0,0,0,0,0,0,0,0,0,-1,839,701,0,0
-378,323,0,0,0,0,0,0,0,0,0,-1,846,701,0,0
-371,323,0,0,0,0,0,0,0,0,0,-1,853,701,0,0
-364,323,0,0,0,0,0,0,0,0,0,-1,860,701,0,0
-357,323,0,0,0,0,0,0,0,0,0,-1,867,701,0,0
-350,323,0,0,0,0,0,0,0,0,0,-1,874,701,0,0
-343,323,0,0,0,0,0,0,0,0,0,-1,881,701,0,0
-336,323,0,0,0,0,0,0,0,0,0,-1,888,701,0,0
-329,323,0,0,0,0,0,0,0,0,0,-1,895,701,0,0
-322,323,0,0,0,0,0,0,0,0,0,-1,902,701,0,0
-315,323,0,0,0,0,0,0,0,0,0,-1,909,701,0,0
-308,323,0,0,0,0,0,0,0,0,0,-1,916,701,0,0
-301,323,0,0,0,0,0,0,0,0,0,-1,923,701,0,0
-294,323,0,0,0,0,0,0,0,0,0,-1,930,701,0,0
-287,323,0,0,0,0,0,0,0,0,0,-1,937,701,0,0
-280,323,0,0,0,0,0,0,0,0,0,-1,944,701,0,0
-273,323,0,0,0,0,0,0,0,0,0,-1,951,701,0,0
-266,323,0,0,0,0,0,0,0,0,0,-1,958,701,0,0
-259,323,0,0,0,0,0,0,0,0,0,-1,965,701,0,0
-252,323,0,0,0,0,0,0,0,0,0,-1,972,701,0,0
-245,323,0,0,0,0,0,0,0,0,0,-1,979,701,0,0
-238,323,0,0,0,0,0,0,0,0,0,-1,986,701,0,0
-231,323,0,0,0,0,0,0,0,0,0,-1,993,701,0,0
-224,323,0,0,0,0,0,0,0,0,0,-1,1000,701,0,0
-217,323,0,0,0,0,0,0,0,0,0,-1,1007,701,0,0
-210,323,0,0,0,0,0,0,0,0,0,-1,1014,701,0,0
-203,323,0,0,0,0,0,0,0,0,0,-1,1021,701,0,0
-196,323,0,0,0,0,0,0,0,0,0,-1,1028,701,0,0
-189,323,0,0,0,0,0,0,0,0,0,-1,1035,701,0,0
-182,323,0,0,0,0,0,0,0,0,0,-1,1042,701,0,0
-175,323,0,0,0,0,0,0,0,0,0,-1,1049,701,0,0
-168,323,0,0,0,0,0,0,0,0,0,-1,1056,701,0,0
-161,323,0,0,0,0,0,0,0,0,0,-1,1063,701,0,0
-154,323,0,0,0,0,0,0,0,0,0,-1,1070,701,0,0
-147,323,0,0,0,0,0,0,0,0,0,-1,1077,701,0,0
-140,323,0,0,0,0,0,0,0,0,0,-1,1084,701,0,0
-133,323,0,0,0,0,0,0,0,0,0,-1,1091,701,0,0
-126,323,0,0,0,0,0,0,0,0,0,-1,1098,701,0,0
-119,323,0,0,0,0,0,0,0,0,0,-1,1105,701,0,0
-112,323,0,0,0,0,0,0,0,0,0,-1,1112,701,0,0
-105,323,0,0,0,0,0,0,0,0,0,-1,1119,701,0,0
-98,323,0,0,0,0,0,0,0,0,0,-1,1126,701,0,0
-91,323,0,0,0,0,0,0,0,0,0,-1,1133,701,0,0
-84,323,0,0,0,0,0,0,0,0,0,-1,1140,701,0,0
-77,323,0,0,0,0,0,0,0,0,0,-1,1147,701,0,0
-70,323,0,0,0,0,0,0,0,0,0,-1,1154,701,0,0
-63,323,0,0,0,0,0,0,0,0,0,-1,1161,701,0,0
-56,323,0,0,0,0,0,0,0,0,0,-1,1168,701,0,0
-49,323,0,0,0,0,0,0,0,0,0,-1,1175,701,0,0
-42,323,0,0,0,0,0,0,0,0,0,-1,1182,701,0,0
-35,323,0,0,0,0,0,0,0,0,0,-1,1189,701,0,0
-28,323,0,0,0,0,0,0,0,0,0,-1,1196,701,0,0
-21,323,0,0,0,0,0,0,0,0,0,-1,1203,701,0,0
-14,323,0,0,0,0,0,0,0,0,0,-1,1210,701,0,0
-7,323,0,0,0,0,0,0,0,0,0,-1,1217,701,0,0
0,323,0,0,0,0,0,0,0,0,0,-1,1224,701,0,0
7,323,0,0,0,0,0,0,0,0,0,-1,1231,701,0,0
14,323,0,0,0,0,0,0,0,0,0,-1,1238,701,0,0
21,323,0,0,0,0,0,0,0,0,0,-1,1245,701,0,0
28,323,0,0,0,0,0,0,0,0,0,-1,1252,701,0,0
35,323,0,0,0,0,0,0,0,0,0,-1,1259,701,0,0
42,323,0,0,0,0,0,0,0,0,0,-1,1266,701,0,0
49,323,0,0,0,0,0,0,0,0,0,-1,1273,701,0,0
56,323,0,0,0,0,0,0,0,0,0,-1,1280,701,0,0
63,323,0,0,0,0,0,0,0,0,0,-1,1287,701,0,0
70,323,0,0,0,0,0,0,0,0,0,-1,1294,701,0,0
77,323,0,0,0,0,0,0,0,0,0,-1,1301,701,0,0
84,323,0,0,0,0,0,0,0,0,0,-1,1308,701,0,0
91,323,0,0,0,0,0,0,0,0,0,-1,1315,701,0,0
98,323,0,0,0,0,0,0,0,0,0,-1,1322,701,0,0
105,323,0,0,0,0,0,0,0,0,0,-1,1329,701,0,0
112,323,0,0,0,0,0,0,0,0,0,-1,1336,701,0,0
119,323,0,0,0,0,0,0,0,0,0,-1,1343,701,0,0
126,323,0,0,0,0,0,0,0,0,0,-1,1350,701,0,0
133,323,0,0,0,0,0,0,0,0,0,-1,1357,701,0,0
140,323,0,0,0,0,0,0,0,0,0,-1,1364,701,0,0
147,323,0,0,0,0,0,0,0,0,0,-1,1371,701,0,0
154,323,0,0,0,0,0,0,0,0,0,-1,1378,701,0,0
161,323,0,0,0,0,0,0,0,0,0,-1,1385,701,0,0
168,323,0,0,0,0,0,0,0,0,0,-1,1392,701,0,0
175,323,0,0,0,0,0,0,0,0,0,-1,1399,701,0,0
182,323,0,0,0,0,0,0,0,0,0,-1,1406,701,0,0
189,323,0,0,0,0,0,0,0,0,0,-1,1413,701,0,0
196,323,0,0,0,0,0,0,0,0,0,-1,1420,701,0,0
203,323,0,0,0,0,0,0,0,0,0,-1,1427,701,0,0
210,323,0,0,0,0,0,0,0,0,0,-1,1434,701,0,0
217,323,0,0,0,0,0,0,0,0,0,-1,1441,701,0,0
224,323,0,0,0,0,0,0,0,0,0,-1,1448,701,0,0
231,323,0,0,0,0,0,0,0,0,0,-1,1455,701,0,0
238,323,0,0,0,0,0,0,0,0,0,-1,1462,701,0,0
245,323,0,0,0,0,0,0,0,0,0,-1,1469,701,0,0
252,323,0,0,0,0,0,0,0,0,0,-1,1476,701,0,0
259,323,0,0,0,0,0,0,0,0,0,-1,1483,701,0,0
266,323,0,0,0,0,0,0,0,0,0,-1,1490,701,0,0
273,323,0,0,0,0,0,0,0,0,0,-1,1497,701,0,0
280,323,0,0,0,0,0,0,0,0,0,-1,1504,701,0,0
287,323,0,0,0,0,0,0,0,0,0,-1,1511,701,0,0
294,323,0,0,0,0,0,0,0,0,0,-1,1518,701,0,0
301,323,0,0,0,0,0,0,0,0,0,-1,1525,701,0,0
308,323,0,0,0,0,0,0,0,0,0,-1,1532,701,0,0
315,323,0,0,0,0,0,0,0,0,0,-1,1539,701,0,0
322,323,0,0,0,0,0,0,0,0,0,-1,1546,701,0,0
329,323,0,0,0,0,0,0,0,0,0,-1,1553,701,0,0
336,323,0,0,0,0,0,0,0,0,0,-1,1560,701,0,0
343,323,0,0,0,0,0,0,0,0,0,-1,1567,701,0,0
350,323,0,0,0,0,0,0,0,0,0,-1,1574,701,0,0
357,323,0,0,0,0,0,0,0,0,0,-1,1581,701,0,0
364,323,0,0,0,0,0,0,0,0,0,-1,1588,701,0,0
371,323,0,0,0,0,0,0,0,0,0,-1,1595,701,0,0
378,323,0,0,0,0,0,0,0,0,0,-1,1602,701,0,0
385,323,0,0,0,0,0,0,0,0,0,-1,1609,701,0,0
392,323,0,0,0,0,0,0,0,0,0,-1,1616,701,0,0
399,323,0,0,0,0,0,0,0,0,0,-1,1623,701,0,0
406,323,0,0,0,0,0,0,0,0,0,-1,1630,701,0,0
413,323,0,0,0,0,0,0,0,0,0,-1,1637,701,0,0
420,323,0,0,0,0,0,0,0,0,0,-1,1644,701,0,0
427,323,0,0,0,0,0,0,0,0,0,-1,1651,701,0,0
434,323,0,0,0,0,0,0,0,0,0,-1,1658,701,0,0
441,323,0,0,0,0,0,0,0,0,0,-1,1665,701,0,0
448,323,0,0,0,0,0,0,0,0,0,-1,1672,701,0,0
455,323,0,0,0,0,0,0,0,0,0,-1,1679,701,0,0
462,323,0,0,0,0,0,0,0,0,0,-1,1686,701,0,0
469,323,0,0,0,0,0,0,0,0,0,-1,1693,701,0,0
476,323,0,0,0,0,0,0,0,0,0,-1,1700,701,0,0
483,323,0,0,0,0,0,0,0,0,0,-1,1707,701,0,0
490,323,0,0,0,0,0,0,0,0,0,-1,1714,701,0,0
497,323,0,0,0,0,0,0,0,0,0,-1,1721,701,0,0
504,323,0,0,0,0,0,0,0,0,0,-1,1728,701,0,0
511,323,0,0,0,0,0,0,0,0,0,-1,1735,701,0,0
518,323,0,0,0,0,0,0,0,0,0,-1,1742,701,0,0
525,323,0,0,0,0,0,0,0,0,0,-1,1749,701,0,0
532,323,33.6193,1.69446,0,0,0,0,0,0,0,-1,1756,701,33.6193,-1.69444
539,323,32.2698,2.44037,0,0,0,0,0,0,0,-1,1763,701,32.2697,-2.44036
546,323,31.1644,3.9444,0,0,0,0,0,0,0,-1,1770,701,31.1644,-3.94438
553,323,30.2488,5.8775,0,0,0,0,0,0,0,-1,1777,701,30.2487,-5.87752
560,323,40.6711,1.25153,0,0,0,0,0,0,0,-1,1784,701,40.6711,-1.25154
567,323,42.1637,2.01208,0,0,0,0,0,0,0,-1,1791,701,42.1637,-2.01207
574,323,12.514,5.89685,0,0,0,0,0,0,0,-1,1798,701,12.5141,-5.89683
581,323,11.821,5.3476,0,0,0,0,0,0,0,-1,1805,701,11.821,-5.34762
588,323,11.7933,7.00818,0,0,0,0,0,0,0,-1,1812,701,11.7933,-7.00819
595,323,6.67847,0.06604,0,0,0,0,0,0,0,-1,1819,701,6.67841,-0.0660418
602,323,11.2856,-0.595459,0,0,0,0,0,0,0,-1,1826,701,11.2856,0.595433
609,323,27.3639,-6.04626,0,0,0,0,0,0,0,-1,1833,701,27.3639,6.04627
616,323,27.5684,-5.3479,0.00224456,0.00339807,0.000978045,0.00395675,0.00168588,1.0518,0.00229274,0.0139147,1840,701,27.5684,5.34789
623,323,27.5717,-4.75256,0.00178774,0.00189986,0.000830132,0.00267583,0.00101178,0.819112,0.00156011,0.0129989,1847,701,27.5716,4.75258
630,323,27.5452,-4.1308,0.00141028,0.00107877,0.000792537,0.00205421,0.00043484,0.682312,0.00125,0.0140952,1854,701,27.5451,4.13082
637,323,27.5299,-3.51202,0.000839553,0.000669262,0.000714088,0.00147355,3.52611e-05,0.72606,0.000970829,0.0106384,1861,701,27.5299,3.512
644,323,27.4865,-2.92645,0.000205256,0.000623788,0.000620411,0.00106928,-0.000240231,0.948058,0.000804966,0.00799869,1868,701,27.4864,2.92644
651,323,27.4652,-2.30042,-0.000561611,0.000976664,0.000536696,0.0011454,-0.000730352,1.26618,0.00109177,0.0102414,1875,701,27.4652,2.30042
658,323,27.4081,-1.65552,-0.00152616,0.00146104,0.000421836,0.00151947,-0.00158458,1.43317,0.00179226,0.0143,1882,701,27.408,1.65553
665,323,27.3647,-1.05219,-0.00273788,0.00205733,0.00026156,0.00207155,-0.0027521,1.51646,0.00279416,0.0122668,1889,701,27.3647,1.0522
672,323,27.3986,-0.398865,-0.00426574,0.00284064,1.99651e-05,0.0028407,-0.0042658,1.56799,0.00413034,0.0146638,1896,701,27.3986,0.398861
679,323,27.2672,0.226318,-0.00637067,0.00383456,-0.000366002,0.00384767,-0.00638378,-1.53499,0.00596731,0.0403219,1903,701,27.2672,-0.226291
686,323,27.163,0.704529,0,0,0,0,0,0,0,-1,1910,701,27.163,-0.704531
693,323,23.8806,1.08844,0,0,0,0,0,0,0,-1,1917,701,23.8806,-1.08845
700,323,10.7705,0.828613,0,0,0,0,0,0,0,-1,1924,701,10.7705,-0.828591
707,323,16.9005,4.79193,0,0,0,0,0,0,0,-1,1931,701,16.9005,-4.7919
714,323,16.2346,6.25958,0,0,0,0,0,0,0,-1,1938,701,16.2346,-6.25956
721,323,0,0,0,0,0,0,0,0,0,-1,1945,701,0,0
728,323,0,0,0,0,0,0,0,0,0,-1,1952,701,0,0
735,323,0,0,0,0,0,0,0,0,0,-1,1959,701,0,0
742,323,0,0,0,0,0,0,0,0,0,-1,1966,701,0,0
749,323,0,0,0,0,0,0,0,0,0,-1,1973,701,0,0
756,323,0,0,0,0,0,0,0,0,0,-1,1980,701,0,0
763,323,0,0,0,0,0,0,0,0,0,-1,1987,701,0,0
770,323,0,0,0,0,0,0,0,0,0,-1,1994,701,0,0
777,323,0,0,0,0,0,0,0,0,0,-1,2001,701,0,0
784,323,0,0,0,0,0,0,0,0,0,-1,2008,701,0,0
791,323,0,0,0,0,0,0,0,0,0,-1,2015,701,0,0
798,323,0,0,0,0,0,0,0,0,0,-1,2022,701,0,0
805,323,0,0,0,0,0,0,0,0,0,-1,2029,701,0,0
812,323,0,0,0,0,0,0,0,0,0,-1,2036,701,0,0
-700,316,0,0,0,0,0,0,0,0,0,-1,524,708,0,0
-693,316,0,0,0,0,0,0,0,0,0,-1,531,708,0,0
-686,316,0,0,0,0,0,0,0,0,0,-1,538,708,0,0
-679,316,0,0,0,0,0,0,0,0,0,-1,545,708,0,0
-672,316,0,0,0,0,0,0,0,0,0,-1,552,708,0,0
-665,316,0,0,0,0,0,0,0,0,0,-1,559,708,0,0
-658,316,0,0,0,0,0,0,0,0,0,-1,566,708,0,0
-651,316,0,0,0,0,0,0,0,0,0,-1,573,708,0,0
-644,316,0,0,0,0,0,0,0,0,0,-1,580,708,0,0
-637,316,0,0,0,0,0,0,0,0,0,-1,587,708,0,0
-630,316,0,0,0,0,0,0,0,0,0,-1,594,708,0,0
-623,316,0,0,0,0,0,0,0,0,0,-1,601,708,0,0
-616,316,0,0,0,0,0,0,0,0,0,-1,608,708,0,0
-609,316,0,0,0,0,0,0,0,0,0,-1,615,708,0,0
-602,316,-0.451782,-0.0494995,0,0,0,0,0,0,0,-1,622,708,-0.451768,0.0495022
-595,316,-3.3761,2.17188,0,0,0,0,0,0,0,-1,629,708,-3.37609,-2.17189
-588,316,-5.00177,2.60675,0,0,0,0,0,0,0,-1,636,708,-5.00175,-2.60676
-581,316,-3.94653,0.393433,0,0,0,0,0,0,0,-1,643,708,-3.94655,-0.39342
-574,316,-9.67395,1.06067,0,0,0,0,0,0,0,-1,650,708,-9.67396,-1.06065
-567,316,-10.1962,0.448425,0,0,0,0,0,0,0,-1,657,708,-10.1962,-0.448411
-560,316,-17.1331,-1.41382,0,0,0,0,0,0,0,-1,664,708,-17.1331,1.41383
-553,316,-17.2193,-1.84131,0,0,0,0,0,0,0,-1,671,708,-17.2193,1.84132
-546,316,-17.4037,-2.26617,0.00769352,0.0155019,-0.00996838,0.0223034,0.000892041,-0.972045,0.0145807,0.0288287,678,708,-17.4037,2.26616
-539,316,-17.3174,-2.91211,0.00609049,0.0117522,-0.00756643,0.017,0.000842689,-0.964403,0.0110631,0.013709,685,708,-17.3174,2.91214
-532,316,-17.3535,-3.48499,0.00465792,0.00845135,-0.00548645,0.0123597,0.000749579,-0.951822,0.00800165,0.0113275,692,708,-17.3535,3.48497
-525,316,-17.3925,-4.05804,0.00335637,0.0055962,-0.00358456,0.00823171,0.000720856,-0.936808,0.005264,0.0105583,699,708,-17.3925,4.05803
-518,316,-17.4004,-4.64124,0.00227588,0.00310575,-0.00197759,0.00471147,0.00067016,-0.888806,0.00294314,0.0107956,706,708,-17.4004,4.64121
-511,316,-17.4278,-5.22559,0.00117806,0.000893743,-0.000690775,0.00174115,0.000330649,-0.683919,0.00106775,0.011658,713,708,-17.4278,5.22559
-504,316,-17.4547,-5.84009,0.000601618,-0.00116205,9.27793e-05,0.000606486,-0.00116692,0.052413,0.00104078,0.0152243,720,708,-17.4547,5.84008
-497,316,-17.4578,-6.38202,4.6393e-06,-0.00302348,0.000593819,0.000116924,-0.00313577,0.186883,0.00213056,0.0132233,727,708,-17.4578,6.38204
-490,316,-17.4806,-6.96521,1.04804e-05,-0.00429088,0.000176361,1.76991e-05,-0.0042981,0.0409096,0.00287132,0.0174787,734,708,-17.4806,6.96524
-483,316,-17.4947,-7.62872,0,0,0,0,0,0,0,-1,741,708,-17.4947,7.62875
-476,316,-8.90894,-3.31207,0,0,0,0,0,0,0,-1,748,708,-8.90896,3.31206
-469,316,-6.24194,-1.42725,0,0,0,0,0,0,0,-1,755,708,-6.24192,1.42725
-462,316,-5.74237,-1.40039,0,0,0,0,0,0,0,-1,762,708,-5.74238,1.40039
-455,316,-5.44745,-1.21899,0,0,0,0,0,0,0,-1,769,708,-5.44746,1.21898
-448,316,-14.8945,0.655396,0,0,0,0,0,0,0,-1,776,708,-14.8946,-0.655396
-441,316,-14.9626,0.576111,0,0,0,0,0,0,0,-1,783,708,-14.9626,-0.576115
-434,316,-27.7723,1.15576,0,0,0,0,0,0,0,-1,790,708,-27.7723,-1.15579
-427,316,-28.0504,1.31427,0,0,0,0,0,0,0,-1,797,708,-28.0504,-1.31427
-420,316,-28.198,1.62891,0,0,0,0,0,0,0,-1,804,708,-28.198,-1.62889
-413,316,0,0,0,0,0,0,0,0,0,-1,811,708,0,0
-406,316,0,0,0,0,0,0,0,0,0,-1,818,708,0,0
-399,316,0,0,0,0,0,0,0,0,0,-1,825,708,0,0
-392,316,0,0,0,0,0,0,0,0,0,-1,832,708,0,0
-385,316,0,0,0,0,0,0,0,0,0,-1,839,708,0,0
-378,316,0,0,0,0,0,0,0,0,0,-1,846,708,0,0
-371,316,0,0,0,0,0,0,0,0,0,-1,853,708,0,0
-364,316,0,0,0,0,0,0,0,0,0,-1,860,708,0,0
-357,316,0,0,0,0,0,0,0,0,0,-1,867,708,0,0
-350,316,0,0,0,0,0,0,0,0,0,-1,874,708,0,0
-343,316,0,0,0,0,0,0,0,0,0,-1,881,708,0,0
-336,316,0,0,0,0,0,0,0,0,0,-1,888,708,0,0
-329,316,0,0,0,0,0,0,0,0,0,-1,895,708,0,0
-322,316,0,0,0,0,0,0,0,0,0,-1,902,708,0,0
-315,316,0,0,0,0,0,0,0,0,0,-1,909,708,0,0
-308,316,0,0,0,0,0,0,0,0,0,-1,916,708,0,0
-301,316,0,0,0,0,0,0,0,0,0,-1,923,708,0,0
-294,316,0,0,0,0,0,0,0,0,0,-1,930,708,0,0
-287,316,0,0,0,0,0,0,0,0,0,-1,937,708,0,0
-280,316,0,0,0,0,0,0,0,0,0,-1,944,708,0,0
-273,316,0,0,0,0,0,0,0,0,0,-1,951,708,0,0
-266,316,0,0,0,0,0,0,0,0,0,-1,958,708,0,0
-259,316,0,0,0,0,0,0,0,0,0,-1,965,708,0,0
-252,316,0,0,0,0,0,0,0,0,0,-1,972,708,0,0
-245,316,0,0,0,0,0,0,0,0,0,-1,979,708,0,0
-238,316,0,0,0,0,0,0,0,0,0,-1,986,708,0,0
-231,316,0,0,0,0,0,0,0,0,0,-1,993,708,0,0
-224,316,0,0,0,0,0,0,0,0,0,-1,1000,708,0,0
-217,316,0,0,0,0,0,0,0,0,0,-1,1007,708,0,0
-210,316,0,0,0,0,0,0,0,0,0,-1,1014,708,0,0
-203,316,0,0,0,0,0,0,0,0,0,-1,1021,708,0,0
-196,316,0,0,0,0,0,0,0,0,0,-1,1028,708,0,0
-189,316,0,0,0,0,0,0,0,0,0,-1,1035,708,0,0
-182,316,0,0,0,0,0,0,0,0,0,-1,1042,708,0,0
-175,316,0,0,0,0,0,0,0,0,0,-1,1049,708,0,0
-168,316,0,0,0,0,0,0,0,0,0,-1,1056,708,0,0
-161,316,0,0,0,0,0,0,0,0,0,-1,1063,708,0,0
-154,316,0,0,0,0,0,0,0,0,0,-1,1070,708,0,0
-147,316,0,0,0,0,0,0,0,0,0,-1,1077,708,0,0
-140,316,0,0,0,0,0,0,0,0,0,-1,1084,708,0,0
-133,316,0,0,0,0,0,0,0,0,0,-1,1091,708,0,0
-126,316,0,0,0,0,0,0,0,0,0,-1,1098,708,0,0
-119,316,0,0,0,0,0,0,0,0,0,-1,1105,708,0,0
-112,316,0,0,0,0,0,0,0,0,0,-1,1112,708,0,0
-105,316,0,0,0,0,0,0,0,0,0,-1,1119,708,0,0
-98,316,0,0,0,0,0,0,0,0,0,-1,1126,708,0,0
-91,316,0,0,0,0,0,0,0,0,0,-1,1133,708,0,0
-84,316,0,0,0,0,0,0,0,0,0,-1,1140,708,0,0
-77,316,0,0,0,0,0,0,0,0,0,-1,1147,708,0,0
-70,316,0,0,0,0,0,0,0,0,0,-1,1154,708,0,0
-63,316,0,0,0,0,0,0,0,0,0,-1,1161,708,0,0
-56,316,0,0,0,0,0,0,0,0,0,-1,1168,708,0,0
-49,316,0,0,0,0,0,0,0,0,0,-1,1175,708,0,0
-42,316,0,0,0,0,0,0,0,0,0,-1,1182,708,0,0
-35,316,0,0,0,0,0,0,0,0,0,-1,1189,708,0,0
-28,316,0,0,0,0,0,0,0,0,0,-1,1196,708,0,0
-21,316,0,0,0,0,0,0,0,0,0,-1,1203,708,0,0
-14,316,0,0,0,0,0,0,0,0,0,-1,1210,708,0,0
-7,316,0,0,0,0,0,0,0,0,0,-1,1217,708,0,0
0,316,0,0,0,0,0,0,0,0,0,-1,1224,708,0,0
7,316,0,0,0,0,0,0,0,0,0,-1,1231,708,0,0
14,316,0,0,0,0,0,0,0,0,0,-1,1238,708,0,0
21,316,0,0,0,0,0,0,0,0,0,-1,1245,708,0,0
28,316,0,0,0,0,0,0,0,0,0,-1,1252,708,0,0
35,316,0,0,0,0,0,0,0,0,0,-1,1259,708,0,0
42,316,0,0,0,0,0,0,0,0,0,-1,1266,708,0,0
49,316,0,0,0,0,0,0,0,0,0,-1,1273,708,0,0
56,316,0,0,0,0,0,0,0,0,0,-1,1280,708,0,0
63,316,0,0,0,0,0,0,0,0,0,-1,1287,708,0,0
70,316,0,0,0,0,0,0,0,0,0,-1,1294,708,0,0
77,316,0,0,0,0,0,0,0,0,0,-1,1301,708,0,0
84,316,0,0,0,0,0,0,0,0,0,-1,1308,708,0,0
91,316,0,0,0,0,0,0,0,0,0,-1,1315,708,0,0
98,316,0,0,0,0,0,0,0,0,0,-1,1322,708,0,0
105,316,0,0,0,0,0,0,0,0,0,-1,1329,708,0,0
112,316,0,0,0,0,0,0,0,0,0,-1,1336,708,0,0
119,316,0,0,0,0,0,0,0,0,0,-1,1343,708,0,0
126,316,0,0,0,0,0,0,0,0,0,-1,1350,708,0,0
133,316,0,0,0,0,0,0,0,0,0,-1,1357,708,0,0
140,316,0,0,0,0,0,0,0,0,0,-1,1364,708,0,0
147,316,0,0,0,0,0,0,0,0,0,-1,1371,708,0,0
154,316,0,0,0,0,0,0,0,0,0,-1,1378,708,0,0
161,316,0,0,0,0,0,0,0,0,0,-1,1385,708,0,0
168,316,0,0,0,0,0,0,0,0,0,-1,1392,708,0,0
175,316,0,0,0,0,0,0,0,0,0,-1,1399,708,0,0
182,316,0,0,0,0,0,0,0,0,0,-1,1406,708,0,0
189,316,0,0,0,0,0,0,0,0,0,-1,1413,708,0,0
196,316,0,0,0,0,0,0,0,0,0,-1,1420,708,0,0
203,316,0,0,0,0,0,0,0,0,0,-1,1427,708,0,0
210,316,0,0,0,0,0,0,0,0,0,-1,1434,708,0,0
217,316,0,0,0,0,0,0,0,0,0,-1,1441,708,0,0
224,316,0,0,0,0,0,0,0,0,0,-1,1448,708,0,0
231,316,0,0,0,0,0,0,0,0,0,-1,1455,708,0,0
238,316,0,0,0,0,0,0,0,0,0,-1,1462,708,0,0
245,316,0,0,0,0,0,0,0,0,0,-1,1469,708,0,0
252,316,0,0,0,0,0,0,0,0,0,-1,1476,708,0,0
259,316,0,0,0,0,0,0,0,0,0,-1,1483,708,0,0
266,316,0,0,0,0,0,0,0,0,0,-1,1490,708,0,0
273,316,0,0,0,0,0,0,0,0,0,-1,1497,708,0,0
280,316,0,0,0,0,0,0,0,0,0,-1,1504,708,0,0
287,316,0,0,0,0,0,0,0,0,0,-1,1511,708,0,0
294,316,0,0,0,0,0,0,0,0,0,-1,1518,708,0,0
301,316,0,0,0,0,0,0,0,0,0,-1,1525,708,0,0
308,316,0,0,0,0,0,0,0,0,0,-1,1532,708,0,0
315,316,0,0,0,0,0,0,0,0,0,-1,1539,708,0,0
322,316,0,0,0,0,0,0,0,0,0,-1,1546,708,0,0
329,316,0,0,0,0,0,0,0,0,0,-1,1553,708,0,0
336,316,0,0,0,0,0,0,0,0,0,-1,1560,708,0,0
343,316,0,0,0,0,0,0,0,0,0,-1,1567,708,0,0
350,316,0,0,0,0,0,0,0,0,0,-1,1574,708,0,0
357,316,0,0,0,0,0,0,0,0,0,-1,1581,708,0,0
364,316,0,0,0,0,0,0,0,0,0,-1,1588,708,0,0
371,316,0,0,0,0,0,0,0,0,0,-1,1595,708,0,0
378,316,0,0,0,0,0,0,0,0,0,-1,1602,708,0,0
385,316,0,0,0,0,0,0,0,0,0,-1,1609,708,0,0
392,316,0,0,0,0,0,0,0,0,0,-1,1616,708,0,0
399,316,0,0,0,0,0,0,0,0,0,-1,1623,708,0,0
406,316,0,0,0,0,0,0,0,0,0,-1,1630,708,0,0
413,316,0,0,0,0,0,0,0,0,0,-1,1637,708,0,0
420,316,0,0,0,0,0,0,0,0,0,-1,1644,708,0,0
427,316,0,0,0,0,0,0,0,0,0,-1,1651,708,0,0
434,316,0,0,0,0,0,0,0,0,0,-1,1658,708,0,0
441,316,0,0,0,0,0,0,0,0,0,-1,1665,708,0,0
448,316,0,0,0,0,0,0,0,0,0,-1,1672,708,0,0
455,316,0,0,0,0,0,0,0,0,0,-1,1679,708,0,0
462,316,0,0,0,0,0,0,0,0,0,-1,1686,708,0,0
469,316,0,0,0,0,0,0,0,0,0,-1,1693,708,0,0
476,316,0,0,0,0,0,0,0,0,0,-1,1700,708,0,0
483,316,0,0,0,0,0,0,0,0,0,-1,1707,708,0,0
490,316,0,0,0,0,0,0,0,0,0,-1,1714,708,0,0
497,316,0,0,0,0,0,0,0,0,0,-1,1721,708,0,0
504,316,0,0,0,0,0,0,0,0,0,-1,1728,708,0,0
511,316,0,0,0,0,0,0,0,0,0,-1,1735,708,0,0
518,316,0,0,0,0,0,0,0,0,0,-1,1742,708,0,0
525,316,0,0,0,0,0,0,0,0,0,-1,1749,708,0,0
532,316,33.8604,0.531128,0,0,0,0,0,0,0,-1,1756,708,33.8604,-0.531151
539,316,44.4543,2.73468,0,0,0,0,0,0,0,-1,1763,708,44.4543,-2.7347
546,316,44.713,3.35498,0,0,0,0,0,0,0,-1,1770,708,44.7131,-3.35501
553,316,39.9031,6.57275,0,0,0,0,0,0,0,-1,1777,708,39.9031,-6.57274
560,316,39.1196,1.10046,0,0,0,0,0,0,0,-1,1784,708,39.1197,-1.10048
567,316,47.3683,6.04919,0,0,0,0,0,0,0,-1,1791,708,47.3683,-6.04918
574,316,45.9872,6.7655,0,0,0,0,0,0,0,-1,1798,708,45.9871,-6.76552
581,316,24.6815,7.77496,0,0,0,0,0,0,0,-1,1805,708,24.6815,-7.77499
588,316,19.7659,2.90198,0,0,0,0,0,0,0,-1,1812,708,19.7659,-2.902
595,316,12.5363,1.50702,0,0,0,0,0,0,0,-1,1819,708,12.5363,-1.50701
602,316,7.79919,0.0422363,0,0,0,0,0,0,0,-1,1826,708,7.79923,-0.0422066
609,316,28.1357,-5.95709,0,0,0,0,0,0,0,-1,1833,708,28.1358,5.95707
616,316,28.1545,-5.30664,0.00376342,0.00726196,-0.000688331,0.00739251,0.00363287,-1.38335,0.00426828,0.01574,1840,708,28.1545,5.30662
623,316,28.1538,-4.70313,0.00276913,0.00403094,-0.000293162,0.00409572,0.00270435,-1.3533,0.00240483,0.0113202,1847,708,28.1538,4.70314
630,316,28.1277,-4.1297,0.00224162,0.00202987,-6.31422e-05,0.00225902,0.00201247,-0.268874,0.00143093,0.0128336,1854,708,28.1277,4.12971
637,316,28.114,-3.4751,0.00136638,0.000825093,0.000203745,0.0014345,0.000756974,0.322649,0.000828633,0.0120442,1861,708,28.1141,3.47509
644,316,28.1012,-2.86859,0.000456676,0.000380278,0.000411567,0.000831813,5.14096e-06,0.739124,0.000552837,0.0123963,1868,708,28.1012,2.86862
651,316,28.0576,-2.26794,-0.000344162,0.000782198,0.000473311,0.000954678,-0.000516642,1.22134,0.000861924,0.0148082,1875,708,28.0576,2.26793
658,316,28.0083,-1.6344,-0.00111926,0.00134938,0.000438547,0.00142497,-0.00119485,1.4001,0.0015145,0.025015,1882,708,28.0083,1.63442
665,316,27.9569,-1.02356,-0.00199865,0.00203205,0.000416799,0.0020747,-0.0020413,1.46883,0.0023764,0.0184958,1889,708,27.9569,1.02356
672,316,27.9861,-0.431458,-0.00309126,0.00291107,0.000369619,0.00293375,-0.00311393,1.50953,0.00349214,0.0131345,1896,708,27.9861,0.431474
679,316,28.0153,0.257935,-0.00448096,0.00402555,0.000285825,0.00403515,-0.00449056,1.53725,0.00492466,0.0355986,1903,708,28.0153,-0.257918
686,316,28.0763,0.936707,0,0,0,0,0,0,0,-1,1910,708,28.0763,-0.936687
693,316,26.4315,1.80652,0,0,0,0,0,0,0,-1,1917,708,26.4315,-1.80651
700,316,12.8749,2.89136,0,0,0,0,0,0,0,-1,1924,708,12.8748,-2.89137
707,316,15.7089,5.41486,0,0,0,0,0,0,0,-1,1931,708,15.7088,-5.41487
714,316,16.1727,5.52045,0,0,0,0,0,0,0,-1,1938,708,16.1728,-5.52042
721,316,16.7094,6.53351,0,0,0,0,0,0,0,-1,1945,708,16.7094,-6.5335
728,316,0,0,0,0,0,0,0,0,0,-1,1952,708,0,0
735,316,0,0,0,0,0,0,0,0,0,-1,1959,708,0,0
742,316,0,0,0,0,0,0,0,0,0,-1,1966,708,0,0
749,316,0,0,0,0,0,0,0,0,0,-1,1973,708,0,0
756,316,0,0,0,0,0,0,0,0,0,-1,1980,708,0,0
763,316,0,0,0,0,0,0,0,0,0,-1,1987,708,0,0
770,316,0,0,0,0,0,0,0,0,0,-1,1994,708,0,0
777,316,0,0,0,0,0,0,0,0,0,-1,2001,708,0,0
784,316,0,0,0,0,0,0,0,0,0,-1,2008,708,0,0
791,316,0,0,0,0,0,0,0,0,0,-1,2015,708,0,0
798,316,0,0,0,0,0,0,0,0,0,-1,2022,708,0,0
805,316,0,0,0,0,0,0,0,0,0,-1,2029,708,0,0
812,316,0,0,0,0,0,0,0,0,0,-1,2036,708,0,0
-700,309,0,0,0,0,0,0,0,0,0,-1,524,715,0,0
-693,309,0,0,0,0,0,0,0,0,0,-1,531,715,0,0
-686,309,0,0,0,0,0,0,0,0,0,-1,538,715,0,0
-679,309,0,0,0,0,0,0,0,0,0,-1,545,715,0,0
-672,309,0,0,0,0,0,0,0,0,0,-1,552,715,0,0
-665,309,0,0,0,0,0,0,0,0,0,-1,559,715,0,0
-658,309,0,0,0,0,0,0,0,0,0,-1,566,715,0,0
-651,309,0,0,0,0,0,0,0,0,0,-1,573,715,0,0
-644,309,0,0,0,0,0,0,0,0,0,-1,580,715,0,0
-637,309,0,0,0,0,0,0,0,0,0,-1,587,715,0,0
-630,309,0,0,0,0,0,0,0,0,0,-1,594,715,0,0
-623,309,0,0,0,0,0,0,0,0,0,-1,601,715,0,0
-616,309,0,0,0,0,0,0,0,0,0,-1,608,715,0,0
-609,309,-5.95392,-3.93689,0,0,0,0,0,0,0,-1,615,715,-5.95392,3.93686
-602,309,-4.99786,-3.31287,0,0,0,0,0,0,0,-1,622,715,-4.99786,3.31284
-595,309,-6.80847,2.4046,0,0,0,0,0,0,0,-1,629,715,-6.80845,-2.40458
-588,309,-6.08795,2.19324,0,0,0,0,0,0,0,-1,636,715,-6.08793,-2.19325
-581,309,-5.97552,1.3277,0,0,0,0,0,0,0,-1,643,715,-5.97552,-1.32769
-574,309,-8.73602,0.208435,0,0,0,0,0,0,0,-1,650,715,-8.73604,-0.208437
-567,309,-10.3909,0.85968,0,0,0,0,0,0,0,-1,657,715,-10.3909,-0.859696
-560,309,-17.5211,-1.47913,0,0,0,0,0,0,0,-1,664,715,-17.5211,1.47911
-553,309,-18.0444,-1.6275,0,0,0,0,0,0,0,-1,671,715,-18.0444,1.62752
-546,309,-17.9716,-2.26984,0.00573198,0.0110776,-0.00682591,0.0157353,0.00107425,-0.972007,0.0101511,0.0232548,678,715,-17.9716,2.26981
-539,309,-17.9144,-2.90778,0.00448496,0.00839899,-0.00515905,0.0119597,0.000924208,-0.966681,0.00768364,0.0149725,685,715,-17.9145,2.90775
-532,309,-17.9269,-3.47321,0.00329002,0.00594859,-0.0036485,0.00850242,0.000736189,-0.960093,0.00543951,0.0122953,692,715,-17.9269,3.47323
-525,309,-17.9546,-4.05823,0.00227961,0.00377197,-0.00222541,0.00537297,0.000678608,-0.947158,0.00337857,0.0155268,699,715,-17.9546,4.0582
-518,309,-17.9822,-4.62775,0.0014925,0.00170061,-0.00104945,0.00265116,0.000541955,-0.834813,0.00161734,0.0166512,706,715,-17.9823,4.62773
-511,309,-17.9986,-5.18909,0.000462784,-0.000336791,-0.00017286,0.000498554,-0.000372562,-0.204052,0.000504689,0.0131651,713,715,-17.9986,5.18907
-504,309,-18.0228,-5.77515,-7.7108e-05,-0.00244403,0.000146572,-6.80659e-05,-0.00245307,0.0616113,0.00161317,0.0108374,720,715,-18.0227,5.77517
-497,309,-18.0497,-6.33325,-0.000828495,-0.0046065,0.000246443,-0.000812487,-0.0046225,0.0648646,0.00284971,0.0149637,727,715,-18.0497,6.33325
-490,309,-18.0065,-6.93787,-0.00120986,-0.00653736,-0.000532639,-0.00115712,-0.00659009,-0.0986777,0.00406299,0.0491778,734,715,-18.0065,6.93787
-483,309,-17.7261,-7.75836,0,0,0,0,0,0,0,-1,741,715,-17.7261,7.75839
-476,309,-5.29486,-1.2262,0,0,0,0,0,0,0,-1,748,715,-5.29484,1.22622
-469,309,-4.22717,-0.592896,0,0,0,0,0,0,0,-1,755,715,-4.2272,0.592905
-462,309,-10.428,2.46948,0,0,0,0,0,0,0,-1,762,715,-10.428,-2.46947
-455,309,-15.8216,0.00915527,0,0,0,0,0,0,0,-1,769,715,-15.8216,-0.00913359
-448,309,-37.3543,-1.02441,0,0,0,0,0,0,0,-1,776,715,-37.3543,1.02444
-441,309,-19.8181,1.4425,0,0,0,0,0,0,0,-1,783,715,-19.8181,-1.44249
-434,309,-28.3196,0.95105,0,0,0,0,0,0,0,-1,790,715,-28.3196,-0.951068
-427,309,-27.8553,1.40332,0,0,0,0,0,0,0,-1,797,715,-27.8553,-1.40334
-420,309,-27.3148,1.90747,0,0,0,0,0,0,0,-1,804,715,-27.3148,-1.90745
-413,309,0,0,0,0,0,0,0,0,0,-1,811,715,0,0
-406,309,0,0,0,0,0,0,0,0,0,-1,818,715,0,0
-399,309,0,0,0,0,0,0,0,0,0,-1,825,715,0,0
-392,309,0,0,0,0,0,0,0,0,0,-1,832,715,0,0
-385,309,0,0,0,0,0,0,0,0,0,-1,839,715,0,0
-378,309,0,0,0,0,0,0,0,0,0,-1,846,715,0,0
-371,309,0,0,0,0,0,0,0,0,0,-1,853,715,0,0
-364,309,0,0,0,0,0,0,0,0,0,-1,860,715,0,0
-357,309,0,0,0,0,0,0,0,0,0,-1,867,715,0,0
-350,309,0,0,0,0,0,0,0,0,0,-1,874,715,0,0
-343,309,0,0,0,0,0,0,0,0,0,-1,881,715,0,0
-336,309,0,0,0,0,0,0,0,0,0,-1,888,715,0,0
-329,309,0,0,0,0,0,0,0,0,0,-1,895,715,0,0
-322,309,0,0,0,0,0,0,0,0,0,-1,902,715,0,0
-315,309,0,0,0,0,0,0,0,0,0,-1,909,715,0,0
-308,309,0,0,0,0,0,0,0,0,0,-1,916,715,0,0
-301,309,0,0,0,0,0,0,0,0,0,-1,923,715,0,0
-294,309,0,0,0,0,0,0,0,0,0,-1,930,715,0,0
-287,309,0,0,0,0,0,0,0,0,0,-1,937,715,0,0
-280,309,0,0,0,0,0,0,0,0,0,-1,944,715,0,0
-273,309,0,0,0,0,0,0,0,0,0,-1,951,715,0,0
-266,309,0,0,0,0,0,0,0,0,0,-1,958,715,0,0
-259,309,0,0,0,0,0,0,0,0,0,-1,965,715,0,0
-252,309,0,0,0,0,0,0,0,0,0,-1,972,715,0,0
-245,309,0,0,0,0,0,0,0,0,0,-1,979,715,0,0
-238,309,0,0,0,0,0,0,0,0,0,-1,986,715,0,0
-231,309,0,0,0,0,0,0,0,0,0,-1,993,715,0,0
-224,309,0,0,0,0,0,0,0,0,0,-1,1000,715,0,0
-217,309,0,0,0,0,0,0,0,0,0,-1,1007,715,0,0
-210,309,0,0,0,0,0,0,0,0,0,-1,1014,715,0,0
-203,309,0,0,0,0,0,0,0,0,0,-1,1021,715,0,0
-196,309,0,0,0,0,0,0,0,0,0,-1,1028,715,0,0
-189,309,0,0,0,0,0,0,0,0,0,-1,1035,715,0,0
-182,309,0,0,0,0,0,0,0,0,0,-1,1042,715,0,0
-175,309,0,0,0,0,0,0,0,0,0,-1,1049,715,0,0
-168,309,0,0,0,0,0,0,0,0,0,-1,1056,715,0,0
-161,309,0,0,0,0,0,0,0,0,0,-1,1063,715,0,0
-154,309,0,0,0,0,0,0,0,0,0,-1,1070,715,0,0
-147,309,0,0,0,0,0,0,0,0,0,-1,1077,715,0,0
-140,309,0,0,0,0,0,0,0,0,0,-1,1084,715,0,0
-133,309,0,0,0,0,0,0,0,0,0,-1,1091,715,0,0
-126,309,0,0,0,0,0,0,0,0,0,-1,1098,715,0,0
-119,309,0,0,0,0,0,0,0,0,0,-1,1105,715,0,0
-112,309,0,0,0,0,0,0,0,0,0,-1,1112,715,0,0
-105,309,0,0,0,0,0,0,0,0,0,-1,1119,715,0,0
-98,309,0,0,0,0,0,0,0,0,0,-1,1126,715,0,0
-91,309,0,0,0,0,0,0,0,0,0,-1,1133,715,0,0
-84,309,0,0,0,0,0,0,0,0,0,-1,1140,715,0,0
-77,309,0,0,0,0,0,0,0,0,0,-1,1147,715,0,0
-70,309,0,0,0,0,0,0,0,0,0,-1,1154,715,0,0
-63,309,0,0,0,0,0,0,0,0,0,-1,1161,715,0,0
-56,309,0,0,0,0,0,0,0,0,0,-1,1168,715,0,0
-49,309,0,0,0,0,0,0,0,0,0,-1,1175,715,0,0
-42,309,0,0,0,0,0,0,0,0,0,-1,1182,715,0,0
-35,309,0,0,0,0,0,0,0,0,0,-1,1189,715,0,0
-28,309,0,0,0,0,0,0,0,0,0,-1,1196,715,0,0
-21,309,0,0,0,0,0,0,0,0,0,-1,1203,715,0,0
-14,309,0,0,0,0,0,0,0,0,0,-1,1210,715,0,0
-7,309,0,0,0,0,0,0,0,0,0,-1,1217,715,0,0
0,309,0,0,0,0,0,0,0,0,0,-1,1224,715,0,0
7,309,0,0,0,0,0,0,0,0,0,-1,1231,715,0,0
14,309,0,0,0,0,0,0,0,0,0,-1,1238,715,0,0
21,309,0,0,0,0,0,0,0,0,0,-1,1245,715,0,0
28,309,0,0,0,0,0,0,0,0,0,-1,1252,715,0,0
35,309,0,0,0,0,0,0,0,0,0,-1,1259,715,0,0
42,309,0,0,0,0,0,0,0,0,0,-1,1266,715,0,0
49,309,0,0,0,0,0,0,0,0,0,-1,1273,715,0,0
56,309,0,0,0,0,0,0,0,0,0,-1,1280,715,0,0
63,309,0,0,0,0,0,0,0,0,0,-1,1287,715,0,0
70,309,0,0,0,0,0,0,0,0,0,-1,1294,715,0,0
77,309,0,0,0,0,0,0,0,0,0,-1,1301,715,0,0
84,309,0,0,0,0,0,0,0,0,0,-1,1308,715,0,0
91,309,0,0,0,0,0,0,0,0,0,-1,1315,715,0,0
98,309,0,0,0,0,0,0,0,0,0,-1,1322,715,0,0
105,309,0,0,0,0,0,0,0,0,0,-1,1329,715,0,0
112,309,0,0,0,0,0,0,0,0,0,-1,1336,715,0,0
119,309,0,0,0,0,0,0,0,0,0,-1,1343,715,0,0
126,309,0,0,0,0,0,0,0,0,0,-1,1350,715,0,0
133,309,0,0,0,0,0,0,0,0,0,-1,1357,715,0,0
140,309,0,0,0,0,0,0,0,0,0,-1,1364,715,0,0
147,309,0,0,0,0,0,0,0,0,0,-1,1371,715,0,0
154,309,0,0,0,0,0,0,0,0,0,-1,1378,715,0,0
161,309,0,0,0,0,0,0,0,0,0,-1,1385,715,0,0
168,309,0,0,0,0,0,0,0,0,0,-1,1392,715,0,0
175,309,0,0,0,0,0,0,0,0,0,-1,1399,715,0,0
182,309,0,0,0,0,0,0,0,0,0,-1,1406,715,0,0
189,309,0,0,0,0,0,0,0,0,0,-1,1413,715,0,0
196,309,0,0,0,0,0,0,0,0,0,-1,1420,715,0,0
203,309,0,0,0,0,0,0,0,0,0,-1,1427,715,0,0
210,309,0,0,0,0,0,0,0,0,0,-1,1434,715,0,0
217,309,0,0,0,0,0,0,0,0,0,-1,1441,715,0,0
224,309,0,0,0,0,0,0,0,0,0,-1,1448,715,0,0
231,309,0,0,0,0,0,0,0,0,0,-1,1455,715,0,0
238,309,0,0,0,0,0,0,0,0,0,-1,1462,715,0,0
245,309,0,0,0,0,0,0,0,0,0,-1,1469,715,0,0
252,309,0,0,0,0,0,0,0,0,0,-1,1476,715,0,0
259,309,0,0,0,0,0,0,0,0,0,-1,1483,715,0,0
266,309,0,0,0,0,0,0,0,0,0,-1,1490,715,0,0
273,309,0,0,0,0,0,0,0,0,0,-1,1497,715,0,0
280,309,0,0,0,0,0,0,0,0,0,-1,1504,715,0,0
287,309,0,0,0,0,0,0,0,0,0,-1,1511,715,0,0
294,309,0,0,0,0,0,0,0,0,0,-1,1518,715,0,0
301,309,0,0,0,0,0,0,0,0,0,-1,1525,715,0,0
308,309,0,0,0,0,0,0,0,0,0,-1,1532,715,0,0
315,309,0,0,0,0,0,0,0,0,0,-1,1539,715,0,0
322,309,0,0,0,0,0,0,0,0,0,-1,1546,715,0,0
329,309,0,0,0,0,0,0,0,0,0,-1,1553,715,0,0
336,309,0,0,0,0,0,0,0,0,0,-1,1560,715,0,0
343,309,0,0,0,0,0,0,0,0,0,-1,1567,715,0,0
350,309,0,0,0,0,0,0,0,0,0,-1,1574,715,0,0
357,309,0,0,0,0,0,0,0,0,0,-1,1581,715,0,0
364,309,0,0,0,0,0,0,0,0,0,-1,1588,715,0,0
371,309,0,0,0,0,0,0,0,0,0,-1,1595,715,0,0
378,309,0,0,0,0,0,0,0,0,0,-1,1602,715,0,0
385,309,0,0,0,0,0,0,0,0,0,-1,1609,715,0,0
392,309,0,0,0,0,0,0,0,0,0,-1,1616,715,0,0
399,309,0,0,0,0,0,0,0,0,0,-1,1623,715,0,0
406,309,0,0,0,0,0,0,0,0,0,-1,1630,715,0,0
413,309,0,0,0,0,0,0,0,0,0,-1,1637,715,0,0
420,309,0,0,0,0,0,0,0,0,0,-1,1644,715,0,0
427,309,0,0,0,0,0,0,0,0,0,-1,1651,715,0,0
434,309,0,0,0,0,0,0,0,0,0,-1,1658,715,0,0
441,309,0,0,0,0,0,0,0,0,0,-1,1665,715,0,0
448,309,0,0,0,0,0,0,0,0,0,-1,1672,715,0,0
455,309,0,0,0,0,0,0,0,0,0,-1,1679,715,0,0
462,309,0,0,0,0,0,0,0,0,0,-1,1686,715,0,0
469,309,0,0,0,0,0,0,0,0,0,-1,1693,715,0,0
476,309,0,0,0,0,0,0,0,0,0,-1,1700,715,0,0
483,309,0,0,0,0,0,0,0,0,0,-1,1707,715,0,0
490,309,0,0,0,0,0,0,0,0,0,-1,1714,715,0,0
497,309,0,0,0,0,0,0,0,0,0,-1,1721,715,0,0
504,309,0,0,0,0,0,0,0,0,0,-1,1728,715,0,0
511,309,0,0,0,0,0,0,0,0,0,-1,1735,715,0,0
518,309,0,0,0,0,0,0,0,0,0,-1,1742,715,0,0
525,309,0,0,0,0,0,0,0,0,0,-1,1749,715,0,0
532,309,0,0,0,0,0,0,0,0,0,-1,1756,715,0,0
539,309,44.2073,2.66235,0,0,0,0,0,0,0,-1,1763,715,44.2073,-2.66238
546,309,44.4976,3.25531,0,0,0,0,0,0,0,-1,1770,715,44.4976,-3.25533
553,309,47.9611,4.06433,0,0,0,0,0,0,0,-1,1777,715,47.9611,-4.06434
560,309,47.9784,4.64801,0,0,0,0,0,0,0,-1,1784,715,47.9784,-4.64799
567,309,47.0073,5.43121,0,0,0,0,0,0,0,-1,1791,715,47.0073,-5.43121
574,309,45.8746,6.53271,0,0,0,0,0,0,0,-1,1798,715,45.8747,-6.53269
581,309,45.0629,7.73468,0,0,0,0,0,0,0,-1,1805,715,45.0629,-7.73471
588,309,26.2064,7.76422,0,0,0,0,0,0,0,-1,1812,715,26.2064,-7.7642
595,309,19.585,3.71558,0,0,0,0,0,0,0,-1,1819,715,19.5849,-3.71555
602,309,11.0811,3.47772,0,0,0,0,0,0,0,-1,1826,715,11.0811,-3.47772
609,309,28.7651,-5.9967,0,0,0,0,0,0,0,-1,1833,715,28.7651,5.99671
616,309,28.7759,-5.31219,0.00367885,0.0108862,-0.00167558,0.0112567,0.00330836,-1.35318,0.00668057,0.0263494,1840,715,28.7759,5.3122
623,309,28.772,-4.67236,0.00281243,0.00649552,-0.00107683,0.00678725,0.0025207,-1.30623,0.0039616,0.011503,1847,715,28.772,4.67237
630,309,28.7277,-4.09741,0.00254559,0.00345276,-0.000807139,0.00392503,0.00207332,-1.04139,0.00226732,0.0107419,1854,715,28.7277,4.09739
637,309,28.7019,-3.46252,0.0016398,0.00124784,-0.00027167,0.0017788,0.00110884,-0.472929,0.00103736,0.0134067,1861,715,28.7019,3.46251
644,309,28.6637,-2.84222,0.000603458,0.000191579,0.000220604,0.000699309,9.57289e-05,0.409882,0.000437799,0.0149407,1868,715,28.6637,2.84225
651,309,28.6423,-2.23224,-0.000178941,0.00057438,0.000407055,0.000752307,-0.000356868,1.15872,0.000653807,0.0148518,1875,715,28.6423,2.23221
658,309,28.6543,-1.6109,-0.000767981,0.00116668,0.000423149,0.00125519,-0.000856483,1.36462,0.0012264,0.020403,1882,715,28.6543,1.6109
665,309,28.6514,-1.03058,-0.00139644,0.00189136,0.000495333,0.00196437,-0.00146945,1.42446,0.00198936,0.0166578,1889,715,28.6513,1.03056
672,309,28.5988,-0.433472,-0.00217,0.00280618,0.000571109,0.00287089,-0.00223471,1.45798,0.00295533,0.0158083,1896,715,28.5988,0.43349
679,309,28.6289,0.23407,-0.00307983,0.00395522,0.000667921,0.00401807,-0.00314269,1.47697,0.00414455,0.0213229,1903,715,28.6289,-0.234058
686,309,28.4066,0.975708,-0.00405807,0.0053974,0.000901956,0.00548267,-0.00414334,1.47654,0.00557548,0.0369255,1910,715,28.4066,-0.975684
693,309,27.8738,1.66467,0,0,0,0,0,0,0,-1,1917,715,27.8737,-1.66468
700,309,23.0179,3.08337,0,0,0,0,0,0,0,-1,1924,715,23.018,-3.08336
707,309,15.6318,4.58655,0,0,0,0,0,0,0,-1,1931,715,15.6318,-4.58657
714,309,16.7573,6.68286,0,0,0,0,0,0,0,-1,1938,715,16.7574,-6.68284
721,309,16.8337,5.4458,0,0,0,0,0,0,0,-1,1945,715,16.8338,-5.44582
728,309,0,0,0,0,0,0,0,0,0,-1,1952,715,0,0
735,309,0,0,0,0,0,0,0,0,0,-1,1959,715,0,0
742,309,0,0,0,0,0,0,0,0,0,-1,1966,715,0,0
749,309,0,0,0,0,0,0,0,0,0,-1,1973,715,0,0
756,309,0,0,0,0,0,0,0,0,0,-1,1980,715,0,0
763,309,0,0,0,0,0,0,0,0,0,-1,1987,715,0,0
770,309,0,0,0,0,0,0,0,0,0,-1,1994,715,0,0
777,309,0,0,0,0,0,0,0,0,0,-1,2001,715,0,0
784,309,0,0,0,0,0,0,0,0,0,-1,2008,715,0,0
791,309,0,0,0,0,0,0,0,0,0,-1,2015,715,0,0
798,309,0,0,0,0,0,0,0,0,0,-1,2022,715,0,0
805,309,0,0,0,0,0,0,0,0,0,-1,2029,715,0,0
812,309,0,0,0,0,0,0,0,0,0,-1,2036,715,0,0
-700,302,0,0,0,0,0,0,0,0,0,-1,524,722,0,0
-693,302,0,0,0,0,0,0,0,0,0,-1,531,722,0,0
-686,302,0,0,0,0,0,0,0,0,0,-1,538,722,0,0
-679,302,0,0,0,0,0,0,0,0,0,-1,545,722,0,0
-672,302,0,0,0,0,0,0,0,0,0,-1,552,722,0,0
-665,302,0,0,0,0,0,0,0,0,0,-1,559,722,0,0
-658,302,0,0,0,0,0,0,0,0,0,-1,566,722,0,0
-651,302,0,0,0,0,0,0,0,0,0,-1,573,722,0,0
-644,302,0,0,0,0,0,0,0,0,0,-1,580,722,0,0
-637,302,0,0,0,0,0,0,0,0,0,-1,587,722,0,0
-630,302,0,0,0,0,0,0,0,0,0,-1,594,722,0,0
-623,302,0,0,0,0,0,0,0,0,0,-1,601,722,0,0
-616,302,0,0,0,0,0,0,0,0,0,-1,608,722,0,0
-609,302,-7.79266,-3.71649,0,0,0,0,0,0,0,-1,615,722,-7.79267,3.7165
-602,302,0.92865,-1.99158,0,0,0,0,0,0,0,-1,622,722,0.928637,1.99157
-595,302,-7.89941,2.13641,0,0,0,0,0,0,0,-1,629,722,-7.89939,-2.13639
-588,302,-7.10895,1.79163,0,0,0,0,0,0,0,-1,636,722,-7.10896,-1.79163
-581,302,-9.17566,1.09448,0,0,0,0,0,0,0,-1,643,722,-9.17569,-1.09445
-574,302,-11.5183,-0.344543,0,0,0,0,0,0,0,-1,650,722,-11.5183,0.344557
-567,302,-12.1534,-0.672241,0,0,0,0,0,0,0,-1,657,722,-12.1535,0.672246
-560,302,-18.5909,-1.02155,0,0,0,0,0,0,0,-1,664,722,-18.5909,1.02156
-553,302,-18.5051,-1.63464,0.00520943,0.00970786,-0.00582182,0.0136998,0.00121745,-0.969737,0.00875567,0.0256281,671,722,-18.5052,1.63465
-546,302,-18.499,-2.29578,0.00407483,0.00760129,-0.00453005,0.0106992,0.000976963,-0.970992,0.00683045,0.0160389,678,722,-18.499,2.29577
-539,302,-18.5084,-2.85846,0.0031187,0.00569596,-0.00329339,0.00794385,0.000870802,-0.97188,0.00503082,0.0150408,685,722,-18.5084,2.85845
-532,302,-18.5241,-3.43335,0.00216403,0.00385852,-0.00216459,0.00533577,0.000686783,-0.971939,0.00335179,0.014107,692,722,-18.5241,3.43335
-525,302,-18.4908,-4.05963,0.00144253,0.00225088,-0.00115205,0.0030676,0.000625808,-0.954106,0.00187167,0.018646,699,722,-18.4909,4.05962
-518,302,-18.5311,-4.62042,0.000953135,0.000511627,-0.000375033,0.00116756,0.000297201,-0.519391,0.000700643,0.0214046,706,722,-18.531,4.62042
-511,302,-18.5731,-5.16809,-3.11334e-05,-0.00133239,0.000109737,-2.1944e-05,-0.00134158,0.0835454,0.000887161,0.0111509,713,722,-18.5731,5.1681
-504,302,-18.5999,-5.72095,-0.000450379,-0.00336124,-2.55397e-05,-0.000450155,-0.00336146,-0.00877306,0.00210701,0.00994904,720,722,-18.5999,5.72094
-497,302,-18.6672,-6.27777,-0.00114049,-0.00552074,-0.000324212,-0.00111662,-0.00554461,-0.0734831,0.00338614,0.0149129,727,722,-18.6672,6.27776
-490,302,-18.7449,-6.84113,0,0,0,0,0,0,0,-1,734,722,-18.7449,6.84112
-483,302,-9.53412,-3.1673,0,0,0,0,0,0,0,-1,741,722,-9.53411,3.1673
-476,302,-4.29749,-0.203491,0,0,0,0,0,0,0,-1,748,722,-4.29751,0.203464
-469,302,-12.369,1.42859,0,0,0,0,0,0,0,-1,755,722,-12.3689,-1.42857
-462,302,-17.4766,0.310791,0,0,0,0,0,0,0,-1,762,722,-17.4766,-0.310788
-455,302,-36.7368,-2.97418,0,0,0,0,0,0,0,-1,769,722,-36.7368,2.97416
-448,302,-37.3755,-1.21204,0,0,0,0,0,0,0,-1,776,722,-37.3755,1.21201
-441,302,-38.1774,-1.19635,0,0,0,0,0,0,0,-1,783,722,-38.1774,1.19636
-434,302,-38.5441,-0.682678,0,0,0,0,0,0,0,-1,790,722,-38.5441,0.682664
-427,302,-27.1735,1.81506,0,0,0,0,0,0,0,-1,797,722,-27.1735,-1.81504
-420,302,0,0,0,0,0,0,0,0,0,-1,804,722,0,0
-413,302,0,0,0,0,0,0,0,0,0,-1,811,722,0,0
-406,302,0,0,0,0,0,0,0,0,0,-1,818,722,0,0
-399,302,0,0,0,0,0,0,0,0,0,-1,825,722,0,0
-392,302,0,0,0,0,0,0,0,0,0,-1,832,722,0,0
-385,302,0,0,0,0,0,0,0,0,0,-1,839,722,0,0
-378,302,0,0,0,0,0,0,0,0,0,-1,846,722,0,0
-371,302,0,0,0,0,0,0,0,0,0,-1,853,722,0,0
-364,302,0,0,0,0,0,0,0,0,0,-1,860,722,0,0
-357,302,0,0,0,0,0,0,0,0,0,-1,867,722,0,0
-350,302,0,0,0,0,0,0,0,0,0,-1,874,722,0,0
-343,302,0,0,0,0,0,0,0,0,0,-1,881,722,0,0
-336,302,0,0,0,0,0,0,0,0,0,-1,888,722,0,0
-329,302,0,0,0,0,0,0,0,0,0,-1,895,722,0,0
-322,302,0,0,0,0,0,0,0,0,0,-1,902,722,0,0
-315,302,0,0,0,0,0,0,0,0,0,-1,909,722,0,0
-308,302,0,0,0,0,0,0,0,0,0,-1,916,722,0,0
-301,302,0,0,0,0,0,0,0,0,0,-1,923,722,0,0
-294,302,0,0,0,0,0,0,0,0,0,-1,930,722,0,0
-287,302,0,0,0,0,0,0,0,0,0,-1,937,722,0,0
-280,302,0,0,0,0,0,0,0,0,0,-1,944,722,0,0
-273,302,0,0,0,0,0,0,0,0,0,-1,951,722,0,0
-266,302,0,0,0,0,0,0,0,0,0,-1,958,722,0,0
-259,302,0,0,0,0,0,0,0,0,0,-1,965,722,0,0
-252,302,0,0,0,0,0,0,0,0,0,-1,972,722,0,0
-245,302,0,0,0,0,0,0,0,0,0,-1,979,722,0,0
-238,302,0,0,0,0,0,0,0,0,0,-1,986,722,0,0
-231,302,0,0,0,0,0,0,0,0,0,-1,993,722,0,0
-224,302,0,0,0,0,0,0,0,0,0,-1,1000,722,0,0
-217,302,0,0,0,0,0,0,0,0,0,-1,1007,722,0,0
-210,302,0,0,0,0,0,0,0,0,0,-1,1014,722,0,0
-203,302,0,0,0,0,0,0,0,0,0,-1,1021,722,0,0
-196,302,0,0,0,0,0,0,0,0,0,-1,1028,722,0,0
-189,302,0,0,0,0,0,0,0,0,0,-1,1035,722,0,0
-182,302,0,0,0,0,0,0,0,0,0,-1,1042,722,0,0
-175,302,0,0,0,0,0,0,0,0,0,-1,1049,722,0,0
-168,302,0,0,0,0,0,0,0,0,0,-1,1056,722,0,0
-161,302,0,0,0,0,0,0,0,0,0,-1,1063,722,0,0
-154,302,0,0,0,0,0,0,0,0,0,-1,1070,722,0,0
-147,302,0,0,0,0,0,0,0,0,0,-1,1077,722,0,0
-140,302,0,0,0,0,0,0,0,0,0,-1,1084,722,0,0
-133,302,0,0,0,0,0,0,0,0,0,-1,1091,722,0,0
-126,302,0,0,0,0,0,0,0,0,0,-1,1098,722,0,0
-119,302,0,0,0,0,0,0,0,0,0,-1,1105,722,0,0
-112,302,0,0,0,0,0,0,0,0,0,-1,1112,722,0,0
-105,302,0,0,0,0,0,0,0,0,0,-1,1119,722,0,0
-98,302,0,0,0,0,0,0,0,0,0,-1,1126,722,0,0
-91,302,0,0,0,0,0,0,0,0,0,-1,1133,722,0,0
-84,302,0,0,0,0,0,0,0,0,0,-1,1140,722,0,0
-77,302,0,0,0,0,0,0,0,0,0,-1,1147,722,0,0
-70,302,0,0,0,0,0,0,0,0,0,-1,1154,722,0,0
-63,302,0,0,0,0,0,0,0,0,0,-1,1161,722,0,0
-56,302,0,0,0,0,0,0,0,0,0,-1,1168,722,0,0
-49,302,0,0,0,0,0,0,0,0,0,-1,1175,722,0,0
-42,302,0,0,0,0,0,0,0,0,0,-1,1182,722,0,0
-35,302,0,0,0,0,0,0,0,0,0,-1,1189,722,0,0
-28,302,0,0,0,0,0,0,0,0,0,-1,1196,722,0,0
-21,302,0,0,0,0,0,0,0,0,0,-1,1203,722,0,0
-14,302,0,0,0,0,0,0,0,0,0,-1,1210,722,0,0
-7,302,0,0,0,0,0,0,0,0,0,-1,1217,722,0,0
0,302,0,0,0,0,0,0,0,0,0,-1,1224,722,0,0
7,302,0,0,0,0,0,0,0,0,0,-1,1231,722,0,0
14,302,0,0,0,0,0,0,0,0,0,-1,1238,722,0,0
21,302,0,0,0,0,0,0,0,0,0,-1,1245,722,0,0
28,302,0,0,0,0,0,0,0,0,0,-1,1252,722,0,0
35,302,0,0,0,0,0,0,0,0,0,-1,1259,722,0,0
42,302,0,0,0,0,0,0,0,0,0,-1,1266,722,0,0
49,302,0,0,0,0,0,0,0,0,0,-1,1273,722,0,0
56,302,0,0,0,0,0,0,0,0,0,-1,1280,722,0,0
63,302,0,0,0,0,0,0,0,0,0,-1,1287,722,0,0
70,302,0,0,0,0,0,0,0,0,0,-1,1294,722,0,0
77,302,0,0,0,0,0,0,0,0,0,-1,1301,722,0,0
84,302,0,0,0,0,0,0,0,0,0,-1,1308,722,0,0
91,302,0,0,0,0,0,0,0,0,0,-1,1315,722,0,0
98,302,0,0,0,0,0,0,0,0,0,-1,1322,722,0,0
105,302,0,0,0,0,0,0,0,0,0,-1,1329,722,0,0
112,302,0,0,0,0,0,0,0,0,0,-1,1336,722,0,0
119,302,0,0,0,0,0,0,0,0,0,-1,1343,722,0,0
126,302,0,0,0,0,0,0,0,0,0,-1,1350,722,0,0
133,302,0,0,0,0,0,0,0,0,0,-1,1357,722,0,0
140,302,0,0,0,0,0,0,0,0,0,-1,1364,722,0,0
147,302,0,0,0,0,0,0,0,0,0,-1,1371,722,0,0
154,302,0,0,0,0,0,0,0,0,0,-1,1378,722,0,0
161,302,0,0,0,0,0,0,0,0,0,-1,1385,722,0,0
168,302,0,0,0,0,0,0,0,0,0,-1,1392,722,0,0
175,302,0,0,0,0,0,0,0,0,0,-1,1399,722,0,0
182,302,0,0,0,0,0,0,0,0,0,-1,1406,722,0,0
189,302,0,0,0,0,0,0,0,0,0,-1,1413,722,0,0
196,302,0,0,0,0,0,0,0,0,0,-1,1420,722,0,0
203,302,0,0,0,0,0,0,0,0,0,-1,1427,722,0,0
210,302,0,0,0,0,0,0,0,0,0,-1,1434,722,0,0
217,302,0,0,0,0,0,0,0,0,0,-1,1441,722,0,0
224,302,0,0,0,0,0,0,0,0,0,-1,1448,722,0,0
231,302,0,0,0,0,0,0,0,0,0,-1,1455,722,0,0
238,302,0,0,0,0,0,0,0,0,0,-1,1462,722,0,0
245,302,0,0,0,0,0,0,0,0,0,-1,1469,722,0,0
252,302,0,0,0,0,0,0,0,0,0,-1,1476,722,0,0
259,302,0,0,0,0,0,0,0,0,0,-1,1483,722,0,0
266,302,0,0,0,0,0,0,0,0,0,-1,1490,722,0,0
273,302,0,0,0,0,0,0,0,0,0,-1,1497,722,0,0
280,302,0,0,0,0,0,0,0,0,0,-1,1504,722,0,0
287,302,0,0,0,0,0,0,0,0,0,-1,1511,722,0,0
294,302,0,0,0,0,0,0,0,0,0,-1,1518,722,0,0
301,302,0,0,0,0,0,0,0,0,0,-1,1525,722,0,0
308,302,0,0,0,0,0,0,0,0,0,-1,1532,722,0,0
315,302,0,0,0,0,0,0,0,0,0,-1,1539,722,0,0
322,302,0,0,0,0,0,0,0,0,0,-1,1546,722,0,0
329,302,0,0,0,0,0,0,0,0,0,-1,1553,722,0,0
336,302,0,0,0,0,0,0,0,0,0,-1,1560,722,0,0
343,302,0,0,0,0,0,0,0,0,0,-1,1567,722,0,0
350,302,0,0,0,0,0,0,0,0,0,-1,1574,722,0,0
357,302,0,0,0,0,0,0,0,0,0,-1,1581,722,0,0
364,302,0,0,0,0,0,0,0,0,0,-1,1588,722,0,0
371,302,0,0,0,0,0,0,0,0,0,-1,1595,722,0,0
378,302,0,0,0,0,0,0,0,0,0,-1,1602,722,0,0
385,302,0,0,0,0,0,0,0,0,0,-1,1609,722,0,0
392,302,0,0,0,0,0,0,0,0,0,-1,1616,722,0,0
399,302,0,0,0,0,0,0,0,0,0,-1,1623,722,0,0
406,302,0,0,0,0,0,0,0,0,0,-1,1630,722,0,0
413,302,0,0,0,0,0,0,0,0,0,-1,1637,722,0,0
420,302,0,0,0,0,0,0,0,0,0,-1,1644,722,0,0
427,302,0,0,0,0,0,0,0,0,0,-1,1651,722,0,0
434,302,0,0,0,0,0,0,0,0,0,-1,1658,722,0,0
441,302,0,0,0,0,0,0,0,0,0,-1,1665,722,0,0
448,302,0,0,0,0,0,0,0,0,0,-1,1672,722,0,0
455,302,0,0,0,0,0,0,0,0,0,-1,1679,722,0,0
462,302,0,0,0,0,0,0,0,0,0,-1,1686,722,0,0
469,302,0,0,0,0,0,0,0,0,0,-1,1693,722,0,0
476,302,0,0,0,0,0,0,0,0,0,-1,1700,722,0,0
483,302,0,0,0,0,0,0,0,0,0,-1,1707,722,0,0
490,302,0,0,0,0,0,0,0,0,0,-1,1714,722,0,0
497,302,0,0,0,0,0,0,0,0,0,-1,1721,722,0,0
504,302,0,0,0,0,0,0,0,0,0,-1,1728,722,0,0
511,302,0,0,0,0,0,0,0,0,0,-1,1735,722,0,0
518,302,0,0,0,0,0,0,0,0,0,-1,1742,722,0,0
525,302,0,0,0,0,0,0,0,0,0,-1,1749,722,0,0
532,302,0,0,0,0,0,0,0,0,0,-1,1756,722,0,0
539,302,0,0,0,0,0,0,0,0,0,-1,1763,722,0,0
546,302,48.9873,1.50562,0,0,0,0,0,0,0,-1,1770,722,48.9873,-1.50562
553,302,48.5511,2.79346,0,0,0,0,0,0,0,-1,1777,722,48.5512,-2.79343
560,302,47.9004,3.90967,0,0,0,0,0,0,0,-1,1784,722,47.9004,-3.90967
567,302,46.8901,4.84912,0,0,0,0,0,0,0,-1,1791,722,46.8901,-4.84912
574,302,45.9537,6.00867,0,0,0,0,0,0,0,-1,1798,722,45.9537,-6.00864
581,302,45.137,7.38043,0,0,0,0,0,0,0,-1,1805,722,45.1369,-7.38044
588,302,26.9731,7.19983,0,0,0,0,0,0,0,-1,1812,722,26.9732,-7.19981
595,302,27.3826,8.13104,0,0,0,0,0,0,0,-1,1819,722,27.3825,-8.13102
602,302,14.7349,5.21246,0,0,0,0,0,0,0,-1,1826,722,14.7349,-5.21247
609,302,28.6851,-5.53937,0,0,0,0,0,0,0,-1,1833,722,28.685,5.53938
616,302,29.4524,-5.19244,0,0,0,0,0,0,0,-1,1840,722,29.4523,5.19245
623,302,29.3854,-4.63617,0.00250609,0.00767801,-0.00143577,0.00804986,0.00213424,-1.31738,0.00481548,0.0155806,1847,722,29.3853,4.6362
630,302,29.3315,-4.05499,0.00247116,0.00431518,-0.00132821,0.00501003,0.00177631,-1.0888,0.00293305,0.0114758,1854,722,29.3315,4.05499
637,302,29.2881,-3.44275,0.00165253,0.00147815,-0.000702226,0.00227296,0.000857721,-0.723635,0.00132539,0.0146577,1861,722,29.2881,3.44276
644,302,29.2761,-2.82495,0.000556319,-0.000131943,-2.12938e-05,0.000556977,-0.000132601,-0.0308991,0.000422512,0.0154122,1868,722,29.2761,2.82497
651,302,29.2627,-2.19189,-0.000174723,0.00027451,0.000288504,0.000415526,-0.000315739,1.11616,0.000423505,0.0157452,1875,722,29.2627,2.19192
658,302,29.2686,-1.59937,-0.000544105,0.000903617,0.000333639,0.000976806,-0.000617295,1.35485,0.000928124,0.0161097,1882,722,29.2686,1.59938
665,302,29.2426,-1.02808,-0.000959686,0.00166185,0.000459314,0.00173999,-0.00103783,1.40227,0.00162077,0.0144326,1889,722,29.2425,1.02807
672,302,29.202,-0.435181,-0.00147275,0.00260324,0.000620547,0.00269562,-0.00156513,1.42301,0.00248864,0.012049,1896,722,29.2021,0.435155
679,302,29.1885,0.214783,-0.00201074,0.00375261,0.000831069,0.00387005,-0.00212819,1.43041,0.00351142,0.00990449,1903,722,29.1885,-0.214764
686,302,29.1769,0.858337,-0.00250109,0.00516018,0.00118745,0.00534001,-0.00268092,1.4205,0.00471495,0.019945,1910,722,29.1769,-0.858358
693,302,29.0206,1.44501,0,0,0,0,0,0,0,-1,1917,722,29.0206,-1.44503
700,302,25.4069,1.97308,0,0,0,0,0,0,0,-1,1924,722,25.4068,-1.97311
707,302,16.7321,4.76685,0,0,0,0,0,0,0,-1,1931,722,16.7321,-4.76687
714,302,17.2,5.77594,0,0,0,0,0,0,0,-1,1938,722,17.2,-5.77595
721,302,17.7914,6.60394,0,0,0,0,0,0,0,-1,1945,722,17.7914,-6.60395
728,302,17.2798,4.81702,0,0,0,0,0,0,0,-1,1952,722,17.2798,-4.81703
735,302,0,0,0,0,0,0,0,0,0,-1,1959,722,0,0
742,302,0,0,0,0,0,0,0,0,0,-1,1966,722,0,0
749,302,0,0,0,0,0,0,0,0,0,-1,1973,722,0,0
756,302,0,0,0,0,0,0,0,0,0,-1,1980,722,0,0
763,302,0,0,0,0,0,0,0,0,0,-1,1987,722,0,0
770,302,0,0,0,0,0,0,0,0,0,-1,1994,722,0,0
777,302,0,0,0,0,0,0,0,0,0,-1,2001,722,0,0
784,302,0,0,0,0,0,0,0,0,0,-1,2008,722,0,0
791,302,0,0,0,0,0,0,0,0,0,-1,2015,722,0,0
798,302,0,0,0,0,0,0,0,0,0,-1,2022,722,0,0
805,302,0,0,0,0,0,0,0,0,0,-1,2029,722,0,0
812,302,0,0,0,0,0,0,0,0,0,-1,2036,722,0,0
-700,295,0,0,0,0,0,0,0,0,0,-1,524,729,0,0
-693,295,0,0,0,0,0,0,0,0,0,-1,531,729,0,0
-686,295,0,0,0,0,0,0,0,0,0,-1,538,729,0,0
-679,295,0,0,0,0,0,0,0,0,0,-1,545,729,0,0
-672,295,0,0,0,0,0,0,0,0,0,-1,552,729,0,0
-665,295,0,0,0,0,0,0,0,0,0,-1,559,729,0,0
-658,295,0,0,0,0,0,0,0,0,0,-1,566,729,0,0
-651,295,0,0,0,0,0,0,0,0,0,-1,573,729,0,0
-644,295,0,0,0,0,0,0,0,0,0,-1,580,729,0,0
-637,295,0,0,0,0,0,0,0,0,0,-1,587,729,0,0
-630,295,0,0,0,0,0,0,0,0,0,-1,594,729,0,0
-623,295,0,0,0,0,0,0,0,0,0,-1,601,729,0,0
-616,295,-13.4911,1.31738,0,0,0,0,0,0,0,-1,608,729,-13.4911,-1.3174
-609,295,-10.2864,0.832031,0,0,0,0,0,0,0,-1,615,729,-10.2863,-0.832034
-602,295,-8.19006,3.01587,0,0,0,0,0,0,0,-1,622,729,-8.19005,-3.01588
-595,295,-0.615479,-1.95447,0,0,0,0,0,0,0,-1,629,729,-0.615481,1.95445
-588,295,-7.98999,1.56903,0,0,0,0,0,0,0,-1,636,729,-7.98997,-1.56905
-581,295,-12.0404,0.150574,0,0,0,0,0,0,0,-1,643,729,-12.0404,-0.150604
-574,295,-12.1605,-0.0739746,0,0,0,0,0,0,0,-1,650,729,-12.1605,0.0739856
-567,295,-18.6068,-0.524048,0,0,0,0,0,0,0,-1,657,729,-18.6068,0.524022
-560,295,-18.9879,-1.08636,0.00502586,0.00756288,-0.0049679,0.0114217,0.00116707,-0.910398,0.00725677,0.0343761,664,729,-18.9878,1.08639
-553,295,-19.0461,-1.70856,0.0038828,0.00641027,-0.0039297,0.00927443,0.00101863,-0.940968,0.00587293,0.0181174,671,729,-19.0461,1.70856
-546,295,-19.1071,-2.30841,0.00289875,0.00495007,-0.00290474,0.00700492,0.000843906,-0.955114,0.00441561,0.0198962,678,729,-19.107,2.30839
-539,295,-19.107,-2.83398,0.00206338,0.003545,-0.00188563,0.00483012,0.000778256,-0.972571,0.00299456,0.0185721,685,729,-19.107,2.83398
-532,295,-19.1273,-3.39215,0.00120948,0.0021138,-0.000976799,0.00273801,0.000585265,-1.00216,0.0016649,0.0155539,692,729,-19.1273,3.39214
-525,295,-19.1245,-4.00256,0.00074803,0.00096818,-0.00026734,0.00114722,0.00056899,-0.980692,0.000662355,0.0147997,699,729,-19.1245,4.00257
-518,295,-19.119,-4.56934,0.000518735,-0.000500165,0.000205966,0.000558795,-0.000540225,0.1921,0.000634549,0.0114734,706,729,-19.119,4.56932
-511,295,-19.1502,-5.12415,-0.000471118,-0.0021186,0.000352569,-0.000398838,-0.00219088,0.202209,0.00134746,0.00946715,713,729,-19.1502,5.12417
-504,295,-19.1768,-5.69061,-0.000755167,-0.00394988,-0.000145337,-0.000748568,-0.00395648,-0.0453682,0.00242692,0.0110142,720,729,-19.1768,5.69062
-497,295,-19.2591,-6.20691,-0.00132017,-0.00589558,-0.000758913,-0.00119758,-0.00601818,-0.160156,0.00367849,0.0217753,727,729,-19.2591,6.20693
-490,295,-19.3511,-6.69647,0,0,0,0,0,0,0,-1,734,729,-19.3511,6.69649
-483,295,-6.84503,-0.454651,0,0,0,0,0,0,0,-1,741,729,-6.84505,0.454639
-476,295,-13.1738,-0.836243,0,0,0,0,0,0,0,-1,748,729,-13.1738,0.836223
-469,295,-26.5608,-0.466187,0,0,0,0,0,0,0,-1,755,729,-26.5608,0.466162
-462,295,-29.7701,-0.792664,0,0,0,0,0,0,0,-1,762,729,-29.7701,0.792642
-455,295,-37.9785,-0.938904,0,0,0,0,0,0,0,-1,769,729,-37.9785,0.938906
-448,295,-37.5112,-1.31531,0,0,0,0,0,0,0,-1,776,729,-37.5112,1.31531
-441,295,-37.28,-1.02405,0,0,0,0,0,0,0,-1,783,729,-37.28,1.02408
-434,295,-37.5234,-0.676086,0,0,0,0,0,0,0,-1,790,729,-37.5234,0.676077
-427,295,0,0,0,0,0,0,0,0,0,-1,797,729,0,0
-420,295,0,0,0,0,0,0,0,0,0,-1,804,729,0,0
-413,295,0,0,0,0,0,0,0,0,0,-1,811,729,0,0
-406,295,0,0,0,0,0,0,0,0,0,-1,818,729,0,0
-399,295,0,0,0,0,0,0,0,0,0,-1,825,729,0,0
-392,295,0,0,0,0,0,0,0,0,0,-1,832,729,0,0
-385,295,0,0,0,0,0,0,0,0,0,-1,839,729,0,0
-378,295,0,0,0,0,0,0,0,0,0,-1,846,729,0,0
-371,295,0,0,0,0,0,0,0,0,0,-1,853,729,0,0
-364,295,0,0,0,0,0,0,0,0,0,-1,860,729,0,0
-357,295,0,0,0,0,0,0,0,0,0,-1,867,729,0,0
-350,295,0,0,0,0,0,0,0,0,0,-1,874,729,0,0
-343,295,0,0,0,0,0,0,0,0,0,-1,881,729,0,0
-336,295,0,0,0,0,0,0,0,0,0,-1,888,729,0,0
-329,295,0,0,0,0,0,0,0,0,0,-1,895,729,0,0
-322,295,0,0,0,0,0,0,0,0,0,-1,902,729,0,0
-315,295,0,0,0,0,0,0,0,0,0,-1,909,729,0,0
-308,295,0,0,0,0,0,0,0,0,0,-1,916,729,0,0
-301,295,0,0,0,0,0,0,0,0,0,-1,923,729,0,0
-294,295,0,0,0,0,0,0,0,0,0,-1,930,729,0,0
-287,295,0,0,0,0,0,0,0,0,0,-1,937,729,0,0
-280,295,0,0,0,0,0,0,0,0,0,-1,944,729,0,0
-273,295,0,0,0,0,0,0,0,0,0,-1,951,729,0,0
-266,295,0,0,0,0,0,0,0,0,0,-1,958,729,0,0
-259,295,0,0,0,0,0,0,0,0,0,-1,965,729,0,0
-252,295,0,0,0,0,0,0,0,0,0,-1,972,729,0,0
-245,295,0,0,0,0,0,0,0,0,0,-1,979,729,0,0
-238,295,0,0,0,0,0,0,0,0,0,-1,986,729,0,0
-231,295,0,0,0,0,0,0,0,0,0,-1,993,729,0,0
-224,295,0,0,0,0,0,0,0,0,0,-1,1000,729,0,0
-217,295,0,0,0,0,0,0,0,0,0,-1,1007,729,0,0
-210,295,0,0,0,0,0,0,0,0,0,-1,1014,729,0,0
-203,295,0,0,0,0,0,0,0,0,0,-1,1021,729,0,0
-196,295,0,0,0,0,0,0,0,0,0,-1,1028,729,0,0
-189,295,0,0,0,0,0,0,0,0,0,-1,1035,729,0,0
-182,295,0,0,0,0,0,0,0,0,0,-1,1042,729,0,0
-175,295,0,0,0,0,0,0,0,0,0,-1,1049,729,0,0
-168,295,0,0,0,0,0,0,0,0,0,-1,1056,729,0,0
-161,295,0,0,0,0,0,0,0,0,0,-1,1063,729,0,0
-154,295,0,0,0,0,0,0,0,0,0,-1,1070,729,0,0
-147,295,0,0,0,0,0,0,0,0,0,-1,1077,729,0,0
-140,295,0,0,0,0,0,0,0,0,0,-1,1084,729,0,0
-133,295,0,0,0,0,0,0,0,0,0,-1,1091,729,0,0
-126,295,0,0,0,0,0,0,0,0,0,-1,1098,729,0,0
-119,295,0,0,0,0,0,0,0,0,0,-1,1105,729,0,0
-112,295,0,0,0,0,0,0,0,0,0,-1,1112,729,0,0
-105,295,0,0,0,0,0,0,0,0,0,-1,1119,729,0,0
-98,295,0,0,0,0,0,0,0,0,0,-1,1126,729,0,0
-91,295,0,0,0,0,0,0,0,0,0,-1,1133,729,0,0
-84,295,0,0,0,0,0,0,0,0,0,-1,1140,729,0,0
-77,295,0,0,0,0,0,0,0,0,0,-1,1147,729,0,0
-70,295,0,0,0,0,0,0,0,0,0,-1,1154,729,0,0
-63,295,0,0,0,0,0,0,0,0,0,-1,1161,729,0,0
-56,295,0,0,0,0,0,0,0,0,0,-1,1168,729,0,0
-49,295,0,0,0,0,0,0,0,0,0,-1,1175,729,0,0
-42,295,0,0,0,0,0,0,0,0,0,-1,1182,729,0,0
-35,295,0,0,0,0,0,0,0,0,0,-1,1189,729,0,0
-28,295,0,0,0,0,0,0,0,0,0,-1,1196,729,0,0
-21,295,0,0,0,0,0,0,0,0,0,-1,1203,729,0,0
-14,295,0,0,0,0,0,0,0,0,0,-1,1210,729,0,0
-7,295,0,0,0,0,0,0,0,0,0,-1,1217,729,0,0
0,295,0,0,0,0,0,0,0,0,0,-1,1224,729,0,0
7,295,0,0,0,0,0,0,0,0,0,-1,1231,729,0,0
14,295,0,0,0,0,0,0,0,0,0,-1,1238,729,0,0
21,295,0,0,0,0,0,0,0,0,0,-1,1245,729,0,0
28,295,0,0,0,0,0,0,0,0,0,-1,1252,729,0,0
35,295,0,0,0,0,0,0,0,0,0,-1,1259,729,0,0
42,295,0,0,0,0,0,0,0,0,0,-1,1266,729,0,0
49,295,0,0,0,0,0,0,0,0,0,-1,1273,729,0,0
56,295,0,0,0,0,0,0,0,0,0,-1,1280,729,0,0
63,295,0,0,0,0,0,0,0,0,0,-1,1287,729,0,0
70,295,0,0,0,0,0,0,0,0,0,-1,1294,729,0,0
77,295,0,0,0,0,0,0,0,0,0,-1,1301,729,0,0
84,295,0,0,0,0,0,0,0,0,0,-1,1308,729,0,0
91,295,0,0,0,0,0,0,0,0,0,-1,1315,729,0,0
98,295,0,0,0,0,0,0,0,0,0,-1,1322,729,0,0
105,295,0,0,0,0,0,0,0,0,0,-1,1329,729,0,0
112,295,0,0,0,0,0,0,0,0,0,-1,1336,729,0,0
119,295,0,0,0,0,0,0,0,0,0,-1,1343,729,0,0
126,295,0,0,0,0,0,0,0,0,0,-1,1350,729,0,0
133,295,0,0,0,0,0,0,0,0,0,-1,1357,729,0,0
140,295,0,0,0,0,0,0,0,0,0,-1,1364,729,0,0
147,295,0,0,0,0,0,0,0,0,0,-1,1371,729,0,0
154,295,0,0,0,0,0,0,0,0,0,-1,1378,729,0,0
161,295,0,0,0,0,0,0,0,0,0,-1,1385,729,0,0
168,295,0,0,0,0,0,0,0,0,0,-1,1392,729,0,0
175,295,0,0,0,0,0,0,0,0,0,-1,1399,729,0,0
182,295,0,0,0,0,0,0,0,0,0,-1,1406,729,0,0
189,295,0,0,0,0,0,0,0,0,0,-1,1413,729,0,0
196,295,0,0,0,0,0,0,0,0,0,-1,1420,729,0,0
203,295,0,0,0,0,0,0,0,0,0,-1,1427,729,0,0
210,295,0,0,0,0,0,0,0,0,0,-1,1434,729,0,0
217,295,0,0,0,0,0,0,0,0,0,-1,1441,729,0,0
224,295,0,0,0,0,0,0,0,0,0,-1,1448,729,0,0
231,295,0,0,0,0,0,0,0,0,0,-1,1455,729,0,0
238,295,0,0,0,0,0,0,0,0,0,-1,1462,729,0,0
245,295,0,0,0,0,0,0,0,0,0,-1,1469,729,0,0
252,295,0,0,0,0,0,0,0,0,0,-1,1476,729,0,0
259,295,0,0,0,0,0,0,0,0,0,-1,1483,729,0,0
266,295,0,0,0,0,0,0,0,0,0,-1,1490,729,0,0
273,295,0,0,0,0,0,0,0,0,0,-1,1497,729,0,0
280,295,0,0,0,0,0,0,0,0,0,-1,1504,729,0,0
287,295,0,0,0,0,0,0,0,0,0,-1,1511,729,0,0
294,295,0,0,0,0,0,0,0,0,0,-1,1518,729,0,0
301,295,0,0,0,0,0,0,0,0,0,-1,1525,729,0,0
308,295,0,0,0,0,0,0,0,0,0,-1,1532,729,0,0
315,295,0,0,0,0,0,0,0,0,0,-1,1539,729,0,0
322,295,0,0,0,0,0,0,0,0,0,-1,1546,729,0,0
329,295,0,0,0,0,0,0,0,0,0,-1,1553,729,0,0
336,295,0,0,0,0,0,0,0,0,0,-1,1560,729,0,0
343,295,0,0,0,0,0,0,0,0,0,-1,1567,729,0,0
350,295,0,0,0,0,0,0,0,0,0,-1,1574,729,0,0
357,295,0,0,0,0,0,0,0,0,0,-1,1581,729,0,0
364,295,0,0,0,0,0,0,0,0,0,-1,1588,729,0,0
371,295,0,0,0,0,0,0,0,0,0,-1,1595,729,0,0
378,295,0,0,0,0,0,0,0,0,0,-1,1602,729,0,0
385,295,0,0,0,0,0,0,0,0,0,-1,1609,729,0,0
392,295,0,0,0,0,0,0,0,0,0,-1,1616,729,0,0
399,295,0,0,0,0,0,0,0,0,0,-1,1623,729,0,0
406,295,0,0,0,0,0,0,0,0,0,-1,1630,729,0,0
413,295,0,0,0,0,0,0,0,0,0,-1,1637,729,0,0
420,295,0,0,0,0,0,0,0,0,0,-1,1644,729,0,0
427,295,0,0,0,0,0,0,0,0,0,-1,1651,729,0,0
434,295,0,0,0,0,0,0,0,0,0,-1,1658,729,0,0
441,295,0,0,0,0,0,0,0,0,0,-1,1665,729,0,0
448,295,0,0,0,0,0,0,0,0,0,-1,1672,729,0,0
455,295,0,0,0,0,0,0,0,0,0,-1,1679,729,0,0
462,295,0,0,0,0,0,0,0,0,0,-1,1686,729,0,0
469,295,0,0,0,0,0,0,0,0,0,-1,1693,729,0,0
476,295,0,0,0,0,0,0,0,0,0,-1,1700,729,0,0
483,295,0,0,0,0,0,0,0,0,0,-1,1707,729,0,0
490,295,0,0,0,0,0,0,0,0,0,-1,1714,729,0,0
497,295,0,0,0,0,0,0,0,0,0,-1,1721,729,0,0
504,295,0,0,0,0,0,0,0,0,0,-1,1728,729,0,0
511,295,0,0,0,0,0,0,0,0,0,-1,1735,729,0,0
518,295,0,0,0,0,0,0,0,0,0,-1,1742,729,0,0
525,295,0,0,0,0,0,0,0,0,0,-1,1749,729,0,0
532,295,0,0,0,0,0,0,0,0,0,-1,1756,729,0,0
539,295,0,0,0,0,0,0,0,0,0,-1,1763,729,0,0
546,295,48.8486,1.93115,0,0,0,0,0,0,0,-1,1770,729,48.8486,-1.93117
553,295,48.7095,2.24249,0,0,0,0,0,0,0,-1,1777,729,48.7095,-2.24251
560,295,47.8405,3.19769,0,0,0,0,0,0,0,-1,1784,729,47.8405,-3.19772
567,295,46.9696,2.94031,0,0,0,0,0,0,0,-1,1791,729,46.9696,-2.94032
574,295,45.8945,5.06598,0,0,0,0,0,0,0,-1,1798,729,45.8945,-5.06597
581,295,37.8191,2.19592,0,0,0,0,0,0,0,-1,1805,729,37.8191,-2.19594
588,295,39.0542,2.45679,0,0,0,0,0,0,0,-1,1812,729,39.0542,-2.45676
595,295,27.2102,6.99121,0,0,0,0,0,0,0,-1,1819,729,27.2103,-6.99121
602,295,26.9065,7.82141,0,0,0,0,0,0,0,-1,1826,729,26.9064,-7.8214
609,295,11.7737,2.19989,0,0,0,0,0,0,0,-1,1833,729,11.7736,-2.19988
616,295,30.1169,-5.19122,0,0,0,0,0,0,0,-1,1840,729,30.1169,5.19121
623,295,30.0011,-4.61603,0.00222105,0.00802931,-0.00160048,0.00844112,0.00180923,-1.31895,0.00513177,0.0326119,1847,729,30.0011,4.61604
630,295,29.9205,-4.01324,0.00239352,0.00473164,-0.0016744,0.00560471,0.00152045,-1.09016,0.00334683,0.0129783,1854,729,29.9205,4.01326
637,295,29.8937,-3.39514,0.00173274,0.00166552,-0.00106254,0.0027622,0.000636058,-0.769589,0.00167032,0.0139235,1861,729,29.8937,3.39514
644,295,29.8931,-2.78589,0.000587523,-0.000421535,-0.000229462,0.000637252,-0.000471264,-0.213421,0.00064239,0.0131485,1868,729,29.8931,2.78587
651,295,29.8875,-2.17322,-0.000107704,-3.29753e-05,0.000199912,0.000133034,-0.000273714,0.877784,0.000239472,0.0137654,1875,729,29.8875,2.1732
658,295,29.8453,-1.56775,-0.000216009,0.000596717,0.000287291,0.000688016,-0.000307307,1.2631,0.000588495,0.0129404,1882,729,29.8454,1.56777
665,295,29.7947,-0.983276,-0.00042755,0.0013631,0.000462533,0.00147552,-0.000539966,1.33237,0.0012047,0.0118468,1889,729,29.7947,0.98328
672,295,29.7837,-0.397888,-0.000759353,0.00229576,0.000678484,0.00243966,-0.000903254,1.3618,0.00199682,0.0135225,1896,729,29.7837,0.397915
679,295,29.7764,0.235413,-0.00104554,0.00341144,0.000994996,0.00362348,-0.00125758,1.36083,0.00292635,0.0107104,1903,729,29.7764,-0.235415
686,295,29.7916,0.833679,-0.00125031,0.00474385,0.00144091,0.00507223,-0.00157869,1.34672,0.00401261,0.0113025,1910,729,29.7917,-0.833684
693,295,29.7462,1.44019,-0.00131767,0.00622068,0.00201782,0.00672682,-0.00182381,1.32503,0.00520021,0.0473122,1917,729,29.7462,-1.44019
700,295,29.7863,2.05499,0,0,0,0,0,0,0,-1,1924,729,29.7862,-2.05502
707,295,22.2661,3.05206,0,0,0,0,0,0,0,-1,1931,729,22.2662,-3.05207
714,295,17.4906,4.63068,0,0,0,0,0,0,0,-1,1938,729,17.4906,-4.63066
721,295,18.3792,5.32281,0,0,0,0,0,0,0,-1,1945,729,18.3791,-5.32283
728,295,17.379,3.74866,0,0,0,0,0,0,0,-1,1952,729,17.379,-3.74863
735,295,0,0,0,0,0,0,0,0,0,-1,1959,729,0,0
742,295,0,0,0,0,0,0,0,0,0,-1,1966,729,0,0
749,295,0,0,0,0,0,0,0,0,0,-1,1973,729,0,0
756,295,0,0,0,0,0,0,0,0,0,-1,1980,729,0,0
763,295,0,0,0,0,0,0,0,0,0,-1,1987,729,0,0
770,295,0,0,0,0,0,0,0,0,0,-1,1994,729,0,0
777,295,0,0,0,0,0,0,0,0,0,-1,2001,729,0,0
784,295,0,0,0,0,0,0,0,0,0,-1,2008,729,0,0
791,295,0,0,0,0,0,0,0,0,0,-1,2015,729,0,0
798,295,0,0,0,0,0,0,0,0,0,-1,2022,729,0,0
805,295,0,0,0,0,0,0,0,0,0,-1,2029,729,0,0
812,295,0,0,0,0,0,0,0,0,0,-1,2036,729,0,0
-700,288,0,0,0,0,0,0,0,0,0,-1,524,736,0,0
-693,288,0,0,0,0,0,0,0,0,0,-1,531,736,0,0
-686,288,0,0,0,0,0,0,0,0,0,-1,538,736,0,0
-679,288,0,0,0,0,0,0,0,0,0,-1,545,736,0,0
-672,288,0,0,0,0,0,0,0,0,0,-1,552,736,0,0
-665,288,0,0,0,0,0,0,0,0,0,-1,559,736,0,0
-658,288,0,0,0,0,0,0,0,0,0,-1,566,736,0,0
-651,288,0,0,0,0,0,0,0,0,0,-1,573,736,0,0
-644,288,0,0,0,0,0,0,0,0,0,-1,580,736,0,0
-637,288,0,0,0,0,0,0,0,0,0,-1,587,736,0,0
-630,288,0,0,0,0,0,0,0,0,0,-1,594,736,0,0
-623,288,0,0,0,0,0,0,0,0,0,-1,601,736,0,0
-616,288,-11.7584,2.4425,0,0,0,0,0,0,0,-1,608,736,-11.7584,-2.44251
-609,288,-10.3007,2.32178,0,0,0,0,0,0,0,-1,615,736,-10.3007,-2.32178
-602,288,-10.1458,-1.85559,0,0,0,0,0,0,0,-1,622,736,-10.1458,1.85556
-595,288,-7.63208,1.81769,0,0,0,0,0,0,0,-1,629,736,-7.63205,-1.81766
-588,288,-8.19269,1.50598,0,0,0,0,0,0,0,-1,636,736,-8.19268,-1.50601
-581,288,-13.1915,0.659241,0,0,0,0,0,0,0,-1,643,736,-13.1915,-0.659228
-574,288,-19.1862,0.0115967,0,0,0,0,0,0,0,-1,650,736,-19.1862,-0.011572
-567,288,-19.3584,-0.536377,0.00542654,0.00543446,-0.00481428,0.0102448,0.000616222,-0.78581,0.00663399,0.0380682,657,736,-19.3584,0.53637
-560,288,-19.623,-1.13,0.00391172,0.0048031,-0.00363156,0.00801622,0.000698605,-0.846456,0.00512717,0.0180278,664,736,-19.623,1.13001
-553,288,-19.6131,-1.65607,0.00284235,0.00399885,-0.00264719,0.00613021,0.000710996,-0.892929,0.00387163,0.0175467,671,736,-19.6131,1.65608
-546,288,-19.6619,-2.27045,0.00195227,0.00291557,-0.0017157,0.00421595,0.000651894,-0.922242,0.0026205,0.0193969,678,736,-19.6619,2.27043
-539,288,-19.6749,-2.81647,0.00120038,0.00180248,-0.000772521,0.00233054,0.000672325,-0.971195,0.00138509,0.0171807,685,736,-19.6749,2.81649
-532,288,-19.6496,-3.3725,0.000420341,0.000619588,3.08175e-05,0.000624245,0.000415683,1.42079,0.000366961,0.0139656,692,736,-19.6496,3.37251
-525,288,-19.6861,-3.95343,0.000238166,-0.000110861,0.000482237,0.000576495,-0.00044919,0.611788,0.000593698,0.0130037,699,736,-19.6861,3.95341
-518,288,-19.7361,-4.51965,0.000223489,-0.00134806,0.000698013,0.000488744,-0.00161332,0.36316,0.0012702,0.0119104,706,736,-19.7361,4.51965
-511,288,-19.7435,-5.0899,-0.000816544,-0.00273953,0.000558274,-0.000666219,-0.00288985,0.263029,0.00174735,0.00872628,713,736,-19.7436,5.08989
-504,288,-19.7618,-5.66071,-0.00107796,-0.00433635,-0.000212451,-0.00106417,-0.00435015,-0.0648353,0.00261848,0.0106029,720,736,-19.7618,5.66068
-497,288,-19.7961,-6.05865,-0.00160468,-0.00601901,-0.00103298,-0.00137492,-0.00624878,-0.218866,0.00379157,0.032644,727,736,-19.7961,6.05863
-490,288,-19.7354,-6.40521,0,0,0,0,0,0,0,-1,734,736,-19.7353,6.40523
-483,288,-17.3287,0.564758,0,0,0,0,0,0,0,-1,741,736,-17.3287,-0.56477
-476,288,-26.136,0.452148,0,0,0,0,0,0,0,-1,748,736,-26.136,-0.452177
-469,288,-27.7904,0.649841,0,0,0,0,0,0,0,-1,755,736,-27.7904,-0.649854
-462,288,-37.9703,-0.50116,0,0,0,0,0,0,0,-1,762,736,-37.9703,0.501165
-455,288,-37.684,-0.519958,-0.0088213,-0.0384056,-0.0132571,-0.00374995,-0.043477,-0.365363,0.027819,0.0483177,769,736,-37.684,0.519953
-448,288,-37.1351,-0.759033,0,0,0,0,0,0,0,-1,776,736,-37.135,0.759008
-441,288,-36.8298,-0.803833,0,0,0,0,0,0,0,-1,783,736,-36.8299,0.803834
-434,288,-36.2269,-0.579102,0,0,0,0,0,0,0,-1,790,736,-36.2268,0.579116
-427,288,0,0,0,0,0,0,0,0,0,-1,797,736,0,0
-420,288,0,0,0,0,0,0,0,0,0,-1,804,736,0,0
-413,288,0,0,0,0,0,0,0,0,0,-1,811,736,0,0
-406,288,0,0,0,0,0,0,0,0,0,-1,818,736,0,0
-399,288,0,0,0,0,0,0,0,0,0,-1,825,736,0,0
-392,288,0,0,0,0,0,0,0,0,0,-1,832,736,0,0
-385,288,0,0,0,0,0,0,0,0,0,-1,839,736,0,0
-378,288,0,0,0,0,0,0,0,0,0,-1,846,736,0,0
-371,288,0,0,0,0,0,0,0,0,0,-1,853,736,0,0
-364,288,0,0,0,0,0,0,0,0,0,-1,860,736,0,0
-357,288,0,0,0,0,0,0,0,0,0,-1,867,736,0,0
-350,288,0,0,0,0,0,0,0,0,0,-1,874,736,0,0
-343,288,0,0,0,0,0,0,0,0,0,-1,881,736,0,0
-336,288,0,0,0,0,0,0,0,0,0,-1,888,736,0,0
-329,288,0,0,0,0,0,0,0,0,0,-1,895,736,0,0
-322,288,0,0,0,0,0,0,0,0,0,-1,902,736,0,0
-315,288,0,0,0,0,0,0,0,0,0,-1,909,736,0,0
-308,288,0,0,0,0,0,0,0,0,0,-1,916,736,0,0
-301,288,0,0,0,0,0,0,0,0,0,-1,923,736,0,0
-294,288,0,0,0,0,0,0,0,0,0,-1,930,736,0,0
-287,288,0,0,0,0,0,0,0,0,0,-1,937,736,0,0
-280,288,0,0,0,0,0,0,0,0,0,-1,944,736,0,0
-273,288,0,0,0,0,0,0,0,0,0,-1,951,736,0,0
-266,288,0,0,0,0,0,0,0,0,0,-1,958,736,0,0
-259,288,0,0,0,0,0,0,0,0,0,-1,965,736,0,0
-252,288,0,0,0,0,0,0,0,0,0,-1,972,736,0,0
-245,288,0,0,0,0,0,0,0,0,0,-1,979,736,0,0
-238,288,0,0,0,0,0,0,0,0,0,-1,986,736,0,0
-231,288,0,0,0,0,0,0,0,0,0,-1,993,736,0,0
-224,288,0,0,0,0,0,0,0,0,0,-1,1000,736,0,0
-217,288,0,0,0,0,0,0,0,0,0,-1,1007,736,0,0
-210,288,0,0,0,0,0,0,0,0,0,-1,1014,736,0,0
-203,288,0,0,0,0,0,0,0,0,0,-1,1021,736,0,0
-196,288,0,0,0,0,0,0,0,0,0,-1,1028,736,0,0
-189,288,0,0,0,0,0,0,0,0,0,-1,1035,736,0,0
-182,288,0,0,0,0,0,0,0,0,0,-1,1042,736,0,0
-175,288,0,0,0,0,0,0,0,0,0,-1,1049,736,0,0
-168,288,0,0,0,0,0,0,0,0,0,-1,1056,736,0,0
-161,288,0,0,0,0,0,0,0,0,0,-1,1063,736,0,0
-154,288,0,0,0,0,0,0,0,0,0,-1,1070,736,0,0
-147,288,0,0,0,0,0,0,0,0,0,-1,1077,736,0,0
-140,288,0,0,0,0,0,0,0,0,0,-1,1084,736,0,0
-133,288,0,0,0,0,0,0,0,0,0,-1,1091,736,0,0
-126,288,0,0,0,0,0,0,0,0,0,-1,1098,736,0,0
-119,288,0,0,0,0,0,0,0,0,0,-1,1105,736,0,0
-112,288,0,0,0,0,0,0,0,0,0,-1,1112,736,0,0
-105,288,0,0,0,0,0,0,0,0,0,-1,1119,736,0,0
-98,288,0,0,0,0,0,0,0,0,0,-1,1126,736,0,0
-91,288,0,0,0,0,0,0,0,0,0,-1,1133,736,0,0
-84,288,0,0,0,0,0,0,0,0,0,-1,1140,736,0,0
-77,288,0,0,0,0,0,0,0,0,0,-1,1147,736,0,0
-70,288,0,0,0,0,0,0,0,0,0,-1,1154,736,0,0
-63,288,0,0,0,0,0,0,0,0,0,-1,1161,736,0,0
-56,288,0,0,0,0,0,0,0,0,0,-1,1168,736,0,0
-49,288,0,0,0,0,0,0,0,0,0,-1,1175,736,0,0
-42,288,0,0,0,0,0,0,0,0,0,-1,1182,736,0,0
-35,288,0,0,0,0,0,0,0,0,0,-1,1189,736,0,0
-28,288,0,0,0,0,0,0,0,0,0,-1,1196,736,0,0
-21,288,0,0,0,0,0,0,0,0,0,-1,1203,736,0,0
-14,288,0,0,0,0,0,0,0,0,0,-1,1210,736,0,0
-7,288,0,0,0,0,0,0,0,0,0,-1,1217,736,0,0
0,288,0,0,0,0,0,0,0,0,0,-1,1224,736,0,0
7,288,0,0,0,0,0,0,0,0,0,-1,1231,736,0,0
14,288,0,0,0,0,0,0,0,0,0,-1,1238,736,0,0
21,288,0,0,0,0,0,0,0,0,0,-1,1245,736,0,0
28,288,0,0,0,0,0,0,0,0,0,-1,1252,736,0,0
35,288,0,0,0,0,0,0,0,0,0,-1,1259,736,0,0
42,288,0,0,0,0,0,0,0,0,0,-1,1266,736,0,0
49,288,0,0,0,0,0,0,0,0,0,-1,1273,736,0,0
56,288,0,0,0,0,0,0,0,0,0,-1,1280,736,0,0
63,288,0,0,0,0,0,0,0,0,0,-1,1287,736,0,0
70,288,0,0,0,0,0,0,0,0,0,-1,1294,736,0,0
77,288,0,0,0,0,0,0,0,0,0,-1,1301,736,0,0
84,288,0,0,0,0,0,0,0,0,0,-1,1308,736,0,0
91,288,0,0,0,0,0,0,0,0,0,-1,1315,736,0,0
98,288,0,0,0,0,0,0,0,0,0,-1,1322,736,0,0
105,288,0,0,0,0,0,0,0,0,0,-1,1329,736,0,0
112,288,0,0,0,0,0,0,0,0,0,-1,1336,736,0,0
119,288,0,0,0,0,0,0,0,0,0,-1,1343,736,0,0
126,288,0,0,0,0,0,0,0,0,0,-1,1350,736,0,0
133,288,0,0,0,0,0,0,0,0,0,-1,1357,736,0,0
140,288,0,0,0,0,0,0,0,0,0,-1,1364,736,0,0
147,288,0,0,0,0,0,0,0,0,0,-1,1371,736,0,0
154,288,0,0,0,0,0,0,0,0,0,-1,1378,736,0,0
161,288,0,0,0,0,0,0,0,0,0,-1,1385,736,0,0
168,288,0,0,0,0,0,0,0,0,0,-1,1392,736,0,0
175,288,0,0,0,0,0,0,0,0,0,-1,1399,736,0,0
182,288,0,0,0,0,0,0,0,0,0,-1,1406,736,0,0
189,288,0,0,0,0,0,0,0,0,0,-1,1413,736,0,0
196,288,0,0,0,0,0,0,0,0,0,-1,1420,736,0,0
203,288,0,0,0,0,0,0,0,0,0,-1,1427,736,0,0
210,288,0,0,0,0,0,0,0,0,0,-1,1434,736,0,0
217,288,0,0,0,0,0,0,0,0,0,-1,1441,736,0,0
224,288,0,0,0,0,0,0,0,0,0,-1,1448,736,0,0
231,288,0,0,0,0,0,0,0,0,0,-1,1455,736,0,0
238,288,0,0,0,0,0,0,0,0,0,-1,1462,736,0,0
245,288,0,0,0,0,0,0,0,0,0,-1,1469,736,0,0
252,288,0,0,0,0,0,0,0,0,0,-1,1476,736,0,0
259,288,0,0,0,0,0,0,0,0,0,-1,1483,736,0,0
266,288,0,0,0,0,0,0,0,0,0,-1,1490,736,0,0
273,288,0,0,0,0,0,0,0,0,0,-1,1497,736,0,0
280,288,0,0,0,0,0,0,0,0,0,-1,1504,736,0,0
287,288,0,0,0,0,0,0,0,0,0,-1,1511,736,0,0
294,288,0,0,0,0,0,0,0,0,0,-1,1518,736,0,0
301,288,0,0,0,0,0,0,0,0,0,-1,1525,736,0,0
308,288,0,0,0,0,0,0,0,0,0,-1,1532,736,0,0
315,288,0,0,0,0,0,0,0,0,0,-1,1539,736,0,0
322,288,0,0,0,0,0,0,0,0,0,-1,1546,736,0,0
329,288,0,0,0,0,0,0,0,0,0,-1,1553,736,0,0
336,288,0,0,0,0,0,0,0,0,0,-1,1560,736,0,0
343,288,0,0,0,0,0,0,0,0,0,-1,1567,736,0,0
350,288,0,0,0,0,0,0,0,0,0,-1,1574,736,0,0
357,288,0,0,0,0,0,0,0,0,0,-1,1581,736,0,0
364,288,0,0,0,0,0,0,0,0,0,-1,1588,736,0,0
371,288,0,0,0,0,0,0,0,0,0,-1,1595,736,0,0
378,288,0,0,0,0,0,0,0,0,0,-1,1602,736,0,0
385,288,0,0,0,0,0,0,0,0,0,-1,1609,736,0,0
392,288,0,0,0,0,0,0,0,0,0,-1,1616,736,0,0
399,288,0,0,0,0,0,0,0,0,0,-1,1623,736,0,0
406,288,0,0,0,0,0,0,0,0,0,-1,1630,736,0,0
413,288,0,0,0,0,0,0,0,0,0,-1,1637,736,0,0
420,288,0,0,0,0,0,0,0,0,0,-1,1644,736,0,0
427,288,0,0,0,0,0,0,0,0,0,-1,1651,736,0,0
434,288,0,0,0,0,0,0,0,0,0,-1,1658,736,0,0
441,288,0,0,0,0,0,0,0,0,0,-1,1665,736,0,0
448,288,0,0,0,0,0,0,0,0,0,-1,1672,736,0,0
455,288,0,0,0,0,0,0,0,0,0,-1,1679,736,0,0
462,288,0,0,0,0,0,0,0,0,0,-1,1686,736,0,0
469,288,0,0,0,0,0,0,0,0,0,-1,1693,736,0,0
476,288,0,0,0,0,0,0,0,0,0,-1,1700,736,0,0
483,288,0,0,0,0,0,0,0,0,0,-1,1707,736,0,0
490,288,0,0,0,0,0,0,0,0,0,-1,1714,736,0,0
497,288,0,0,0,0,0,0,0,0,0,-1,1721,736,0,0
504,288,0,0,0,0,0,0,0,0,0,-1,1728,736,0,0
511,288,0,0,0,0,0,0,0,0,0,-1,1735,736,0,0
518,288,0,0,0,0,0,0,0,0,0,-1,1742,736,0,0
525,288,0,0,0,0,0,0,0,0,0,-1,1749,736,0,0
532,288,0,0,0,0,0,0,0,0,0,-1,1756,736,0,0
539,288,0,0,0,0,0,0,0,0,0,-1,1763,736,0,0
546,288,0,0,0,0,0,0,0,0,0,-1,1770,736,0,0
553,288,48.1055,1.96002,0,0,0,0,0,0,0,-1,1777,736,48.1055,-1.96004
560,288,47.8082,2.60095,0,0,0,0,0,0,0,-1,1784,736,47.8083,-2.60093
567,288,47.3468,3.09174,0,0,0,0,0,0,0,-1,1791,736,47.3468,-3.09172
574,288,46.9019,3.56555,0,0,0,0,0,0,0,-1,1798,736,46.9018,-3.56554
581,288,47.3462,4.99207,0,0,0,0,0,0,0,-1,1805,736,47.3462,-4.99204
588,288,47.9396,4.94324,0,0,0,0,0,0,0,-1,1812,736,47.9396,-4.94326
595,288,47.035,3.35156,0,0,0,0,0,0,0,-1,1819,736,47.035,-3.35157
602,288,26.7634,7.61279,0,0,0,0,0,0,0,-1,1826,736,26.7635,-7.61279
609,288,17.5223,4.86414,0,0,0,0,0,0,0,-1,1833,736,17.5223,-4.86412
616,288,13.4886,0.801331,0,0,0,0,0,0,0,-1,1840,736,13.4886,-0.80132
623,288,30.4509,-4.64984,0,0,0,0,0,0,0,-1,1847,736,30.4509,4.64986
630,288,30.4906,-4.00623,0.00264663,0.00520964,-0.00197046,0.00627866,0.00157761,-1.07371,0.00377154,0.0255166,1854,736,30.4905,4.00625
637,288,30.511,-3.36676,0.0021031,0.0020554,-0.00142292,0.00350237,0.000656132,-0.777018,0.00214984,0.0111426,1861,736,30.511,3.36677
644,288,30.4958,-2.76288,0.000831747,-0.00055558,-0.000422353,0.000950211,-0.000674044,-0.273459,0.000942272,0.0104418,1868,736,30.4959,2.76288
651,288,30.4813,-2.16016,4.79172e-05,-0.000333228,0.000141972,9.49869e-05,-0.000380298,0.320138,0.000290419,0.011521,1875,736,30.4814,2.16015
658,288,30.4373,-1.52679,0.000133509,0.000184452,0.000255772,0.000416018,-9.80572e-05,0.835027,0.000315157,0.0162985,1882,736,30.4373,1.52677
665,288,30.4174,-0.95166,9.50874e-05,0.000937424,0.000484631,0.00115832,-0.000125811,1.14312,0.000817386,0.017087,1889,736,30.4174,0.951661
672,288,30.3964,-0.369507,-0.000112217,0.00184337,0.000743763,0.00209409,-0.000362945,1.24565,0.00153145,0.0157994,1896,736,30.3964,0.369482
679,288,30.4055,0.253357,-0.00025997,0.0029338,0.00112367,0.00328952,-0.000615691,1.26421,0.00242444,0.0137845,1903,736,30.4055,-0.253334
686,288,30.3793,0.823547,-0.000321635,0.00420105,0.00160363,0.00471194,-0.000832528,1.26238,0.00345243,0.010734,1910,736,30.3792,-0.823563
693,288,30.3947,1.50372,-0.000237967,0.00560969,0.00222897,0.00636242,-0.000990694,1.24512,0.00460749,0.0226617,1917,736,30.3946,-1.50369
700,288,30.2581,2.28174,6.20529e-05,0.00746877,0.00313163,0.00861536,-0.00108454,1.21982,0.00613711,0.0496285,1924,736,30.258,-2.28171
707,288,30.3297,3.10901,0,0,0,0,0,0,0,-1,1931,736,30.3297,-3.10903
714,288,23.0149,3.82544,0,0,0,0,0,0,0,-1,1938,736,23.0149,-3.82541
721,288,18.0732,3.69385,0,0,0,0,0,0,0,-1,1945,736,18.0732,-3.69387
728,288,19.3208,3.91455,0,0,0,0,0,0,0,-1,1952,736,19.3209,-3.91455
735,288,18.7712,3.51312,0,0,0,0,0,0,0,-1,1959,736,18.7713,-3.51309
742,288,0,0,0,0,0,0,0,0,0,-1,1966,736,0,0
749,288,0,0,0,0,0,0,0,0,0,-1,1973,736,0,0
756,288,0,0,0,0,0,0,0,0,0,-1,1980,736,0,0
763,288,0,0,0,0,0,0,0,0,0,-1,1987,736,0,0
770,288,0,0,0,0,0,0,0,0,0,-1,1994,736,0,0
777,288,0,0,0,0,0,0,0,0,0,-1,2001,736,0,0
784,288,0,0,0,0,0,0,0,0,0,-1,2008,736,0,0
791,288,0,0,0,0,0,0,0,0,0,-1,2015,736,0,0
798,288,0,0,0,0,0,0,0,0,0,-1,2022,736,0,0
805,288,0,0,0,0,0,0,0,0,0,-1,2029,736,0,0
812,288,0,0,0,0,0,0,0,0,0,-1,2036,736,0,0
-700,281,0,0,0,0,0,0,0,0,0,-1,524,743,0,0
-693,281,0,0,0,0,0,0,0,0,0,-1,531,743,0,0
-686,281,0,0,0,0,0,0,0,0,0,-1,538,743,0,0
-679,281,0,0,0,0,0,0,0,0,0,-1,545,743,0,0
-672,281,0,0,0,0,0,0,0,0,0,-1,552,743,0,0
-665,281,0,0,0,0,0,0,0,0,0,-1,559,743,0,0
-658,281,0,0,0,0,0,0,0,0,0,-1,566,743,0,0
-651,281,0,0,0,0,0,0,0,0,0,-1,573,743,0,0
-644,281,0,0,0,0,0,0,0,0,0,-1,580,743,0,0
-637,281,0,0,0,0,0,0,0,0,0,-1,587,743,0,0
-630,281,0,0,0,0,0,0,0,0,0,-1,594,743,0,0
-623,281,-19.1697,5.67017,0,0,0,0,0,0,0,-1,601,743,-19.1697,-5.67019
-616,281,-11.5906,2.6853,0,0,0,0,0,0,0,-1,608,743,-11.5906,-2.68529
-609,281,-16.1972,4.14838,0,0,0,0,0,0,0,-1,615,743,-16.1972,-4.14837
-602,281,-12.7697,3.94086,0,0,0,0,0,0,0,-1,622,743,-12.7697,-3.94086
-595,281,-10.4797,-1.07404,0,0,0,0,0,0,0,-1,629,743,-10.4798,1.07402
-588,281,-13.277,1.49817,0,0,0,0,0,0,0,-1,636,743,-13.2771,-1.49817
-581,281,-20.4655,0.540894,0,0,0,0,0,0,0,-1,643,743,-20.4654,-0.540892
-574,281,-20.0068,0.0165405,0.00582952,0.00243818,-0.0042104,0.00867288,-0.000405178,-0.593968,0.0059216,0.0405904,650,743,-20.0068,-0.0165423
-567,281,-20.1575,-0.50061,0.00391669,0.00246903,-0.0029153,0.00619667,0.000189038,-0.663716,0.00406957,0.020846,657,743,-20.1575,0.50064
-560,281,-20.221,-1.07166,0.00248828,0.00210591,-0.00183833,0.00414534,0.00044885,-0.733585,0.00262676,0.00906072,664,743,-20.221,1.07165
-553,281,-20.202,-1.65002,0.00149157,0.00157109,-0.000986018,0.00251815,0.000544514,-0.805549,0.00152991,0.0138494,671,743,-20.202,1.65002
-546,281,-20.2188,-2.21039,0.000723294,0.000846695,-0.000245429,0.00103806,0.000531929,-0.908546,0.000599386,0.0161644,678,743,-20.2188,2.21037
-539,281,-20.24,-2.78375,0.000122898,2.73129e-05,0.000513094,0.00059042,-0.000440209,0.738959,0.000597137,0.0141777,685,743,-20.24,2.78376
-532,281,-20.2438,-3.32135,-0.000430883,-0.000859919,0.0011178,0.000492798,-0.0017836,0.690595,0.00138292,0.0141546,692,743,-20.2438,3.32134
-525,281,-20.3008,-3.91125,-0.00013262,-0.00110429,0.0012293,0.000703366,-0.00194027,0.597212,0.00158101,0.0169113,699,743,-20.3008,3.91126
-518,281,-20.3245,-4.49738,0.0002186,-0.00206978,0.00117255,0.000712713,-0.00256389,0.398819,0.00198984,0.0135493,706,743,-20.3244,4.49737
-511,281,-20.3379,-5.07971,-0.000721728,-0.0032732,0.000826607,-0.000477339,-0.00351759,0.287465,0.00220325,0.0114263,713,743,-20.3379,5.07973
-504,281,-20.3743,-5.66364,-0.000899573,-0.00463437,-8.91028e-05,-0.000897448,-0.0046365,-0.0238394,0.00283952,0.015353,720,743,-20.3743,5.66363
-497,281,-20.2975,-6.258,-0.00131383,-0.00606508,-0.00100939,-0.00110828,-0.00627063,-0.200891,0.00386434,0.0497081,727,743,-20.2975,6.25798
-490,281,-20.1537,-6.75519,0,0,0,0,0,0,0,-1,734,743,-20.1537,6.75519
-483,281,-22.1078,-2.34973,0,0,0,0,0,0,0,-1,741,743,-22.1078,2.3497
-476,281,-28.0016,2.17786,0,0,0,0,0,0,0,-1,748,743,-28.0016,-2.17786
-469,281,-34.6448,0.171692,0,0,0,0,0,0,0,-1,755,743,-34.6448,-0.171685
-462,281,-36.8687,-0.0911865,0,0,0,0,0,0,0,-1,762,743,-36.8687,0.0912127
-455,281,-37.4255,-0.152527,0,0,0,0,0,0,0,-1,769,743,-37.4254,0.15252
-448,281,-37.1731,-0.25061,0,0,0,0,0,0,0,-1,776,743,-37.1731,0.250634
-441,281,-35.7243,0.524963,0,0,0,0,0,0,0,-1,783,743,-35.7243,-0.524959
-434,281,0,0,0,0,0,0,0,0,0,-1,790,743,0,0
-427,281,0,0,0,0,0,0,0,0,0,-1,797,743,0,0
-420,281,0,0,0,0,0,0,0,0,0,-1,804,743,0,0
-413,281,0,0,0,0,0,0,0,0,0,-1,811,743,0,0
-406,281,0,0,0,0,0,0,0,0,0,-1,818,743,0,0
-399,281,0,0,0,0,0,0,0,0,0,-1,825,743,0,0
-392,281,0,0,0,0,0,0,0,0,0,-1,832,743,0,0
-385,281,0,0,0,0,0,0,0,0,0,-1,839,743,0,0
-378,281,0,0,0,0,0,0,0,0,0,-1,846,743,0,0
-371,281,0,0,0,0,0,0,0,0,0,-1,853,743,0,0
-364,281,0,0,0,0,0,0,0,0,0,-1,860,743,0,0
-357,281,0,0,0,0,0,0,0,0,0,-1,867,743,0,0
-350,281,0,0,0,0,0,0,0,0,0,-1,874,743,0,0
-343,281,0,0,0,0,0,0,0,0,0,-1,881,743,0,0
-336,281,0,0,0,0,0,0,0,0,0,-1,888,743,0,0
-329,281,0,0,0,0,0,0,0,0,0,-1,895,743,0,0
-322,281,0,0,0,0,0,0,0,0,0,-1,902,743,0,0
-315,281,0,0,0,0,0,0,0,0,0,-1,909,743,0,0
-308,281,0,0,0,0,0,0,0,0,0,-1,916,743,0,0
-301,281,0,0,0,0,0,0,0,0,0,-1,923,743,0,0
-294,281,0,0,0,0,0,0,0,0,0,-1,930,743,0,0
-287,281,0,0,0,0,0,0,0,0,0,-1,937,743,0,0
-280,281,0,0,0,0,0,0,0,0,0,-1,944,743,0,0
-273,281,0,0,0,0,0,0,0,0,0,-1,951,743,0,0
-266,281,0,0,0,0,0,0,0,0,0,-1,958,743,0,0
-259,281,0,0,0,0,0,0,0,0,0,-1,965,743,0,0
-252,281,0,0,0,0,0,0,0,0,0,-1,972,743,0,0
-245,281,0,0,0,0,0,0,0,0,0,-1,979,743,0,0
-238,281,0,0,0,0,0,0,0,0,0,-1,986,743,0,0
-231,281,0,0,0,0,0,0,0,0,0,-1,993,743,0,0
-224,281,0,0,0,0,0,0,0,0,0,-1,1000,743,0,0
-217,281,0,0,0,0,0,0,0,0,0,-1,1007,743,0,0
-210,281,0,0,0,0,0,0,0,0,0,-1,1014,743,0,0
-203,281,0,0,0,0,0,0,0,0,0,-1,1021,743,0,0
-196,281,0,0,0,0,0,0,0,0,0,-1,1028,743,0,0
-189,281,0,0,0,0,0,0,0,0,0,-1,1035,743,0,0
-182,281,0,0,0,0,0,0,0,0,0,-1,1042,743,0,0
-175,281,0,0,0,0,0,0,0,0,0,-1,1049,743,0,0
-168,281,0,0,0,0,0,0,0,0,0,-1,1056,743,0,0
-161,281,0,0,0,0,0,0,0,0,0,-1,1063,743,0,0
-154,281,0,0,0,0,0,0,0,0,0,-1,1070,743,0,0
-147,281,0,0,0,0,0,0,0,0,0,-1,1077,743,0,0
-140,281,0,0,0,0,0,0,0,0,0,-1,1084,743,0,0
-133,281,0,0,0,0,0,0,0,0,0,-1,1091,743,0,0
-126,281,0,0,0,0,0,0,0,0,0,-1,1098,743,0,0
-119,281,0,0,0,0,0,0,0,0,0,-1,1105,743,0,0
-112,281,0,0,0,0,0,0,0,0,0,-1,1112,743,0,0
-105,281,0,0,0,0,0,0,0,0,0,-1,1119,743,0,0
-98,281,0,0,0,0,0,0,0,0,0,-1,1126,743,0,0
-91,281,0,0,0,0,0,0,0,0,0,-1,1133,743,0,0
-84,281,0,0,0,0,0,0,0,0,0,-1,1140,743,0,0
-77,281,0,0,0,0,0,0,0,0,0,-1,1147,743,0,0
-70,281,0,0,0,0,0,0,0,0,0,-1,1154,743,0,0
-63,281,0,0,0,0,0,0,0,0,0,-1,1161,743,0,0
-56,281,0,0,0,0,0,0,0,0,0,-1,1168,743,0,0
-49,281,0,0,0,0,0,0,0,0,0,-1,1175,743,0,0
-42,281,0,0,0,0,0,0,0,0,0,-1,1182,743,0,0
-35,281,0,0,0,0,0,0,0,0,0,-1,1189,743,0,0
-28,281,0,0,0,0,0,0,0,0,0,-1,1196,743,0,0
-21,281,0,0,0,0,0,0,0,0,0,-1,1203,743,0,0
-14,281,0,0,0,0,0,0,0,0,0,-1,1210,743,0,0
-7,281,0,0,0,0,0,0,0,0,0,-1,1217,743,0,0
0,281,0,0,0,0,0,0,0,0,0,-1,1224,743,0,0
7,281,0,0,0,0,0,0,0,0,0,-1,1231,743,0,0
14,281,0,0,0,0,0,0,0,0,0,-1,1238,743,0,0
21,281,0,0,0,0,0,0,0,0,0,-1,1245,743,0,0
28,281,0,0,0,0,0,0,0,0,0,-1,1252,743,0,0
35,281,0,0,0,0,0,0,0,0,0,-1,1259,743,0,0
42,281,0,0,0,0,0,0,0,0,0,-1,1266,743,0,0
49,281,0,0,0,0,0,0,0,0,0,-1,1273,743,0,0
56,281,0,0,0,0,0,0,0,0,0,-1,1280,743,0,0
63,281,0,0,0,0,0,0,0,0,0,-1,1287,743,0,0
70,281,0,0,0,0,0,0,0,0,0,-1,1294,743,0,0
77,281,0,0,0,0,0,0,0,0,0,-1,1301,743,0,0
84,281,0,0,0,0,0,0,0,0,0,-1,1308,743,0,0
91,281,0,0,0,0,0,0,0,0,0,-1,1315,743,0,0
98,281,0,0,0,0,0,0,0,0,0,-1,1322,743,0,0
105,281,0,0,0,0,0,0,0,0,0,-1,1329,743,0,0
112,281,0,0,0,0,0,0,0,0,0,-1,1336,743,0,0
119,281,0,0,0,0,0,0,0,0,0,-1,1343,743,0,0
126,281,0,0,0,0,0,0,0,0,0,-1,1350,743,0,0
133,281,0,0,0,0,0,0,0,0,0,-1,1357,743,0,0
140,281,0,0,0,0,0,0,0,0,0,-1,1364,743,0,0
147,281,0,0,0,0,0,0,0,0,0,-1,1371,743,0,0
154,281,0,0,0,0,0,0,0,0,0,-1,1378,743,0,0
161,281,0,0,0,0,0,0,0,0,0,-1,1385,743,0,0
168,281,0,0,0,0,0,0,0,0,0,-1,1392,743,0,0
175,281,0,0,0,0,0,0,0,0,0,-1,1399,743,0,0
182,281,0,0,0,0,0,0,0,0,0,-1,1406,743,0,0
189,281,0,0,0,0,0,0,0,0,0,-1,1413,743,0,0
196,281,0,0,0,0,0,0,0,0,0,-1,1420,743,0,0
203,281,0,0,0,0,0,0,0,0,0,-1,1427,743,0,0
210,281,0,0,0,0,0,0,0,0,0,-1,1434,743,0,0
217,281,0,0,0,0,0,0,0,0,0,-1,1441,743,0,0
224,281,0,0,0,0,0,0,0,0,0,-1,1448,743,0,0
231,281,0,0,0,0,0,0,0,0,0,-1,1455,743,0,0
238,281,0,0,0,0,0,0,0,0,0,-1,1462,743,0,0
245,281,0,0,0,0,0,0,0,0,0,-1,1469,743,0,0
252,281,0,0,0,0,0,0,0,0,0,-1,1476,743,0,0
259,281,0,0,0,0,0,0,0,0,0,-1,1483,743,0,0
266,281,0,0,0,0,0,0,0,0,0,-1,1490,743,0,0
273,281,0,0,0,0,0,0,0,0,0,-1,1497,743,0,0
280,281,0,0,0,0,0,0,0,0,0,-1,1504,743,0,0
287,281,0,0,0,0,0,0,0,0,0,-1,1511,743,0,0
294,281,0,0,0,0,0,0,0,0,0,-1,1518,743,0,0
301,281,0,0,0,0,0,0,0,0,0,-1,1525,743,0,0
308,281,0,0,0,0,0,0,0,0,0,-1,1532,743,0,0
315,281,0,0,0,0,0,0,0,0,0,-1,1539,743,0,0
322,281,0,0,0,0,0,0,0,0,0,-1,1546,743,0,0
329,281,0,0,0,0,0,0,0,0,0,-1,1553,743,0,0
336,281,0,0,0,0,0,0,0,0,0,-1,1560,743,0,0
343,281,0,0,0,0,0,0,0,0,0,-1,1567,743,0,0
350,281,0,0,0,0,0,0,0,0,0,-1,1574,743,0,0
357,281,0,0,0,0,0,0,0,0,0,-1,1581,743,0,0
364,281,0,0,0,0,0,0,0,0,0,-1,1588,743,0,0
371,281,0,0,0,0,0,0,0,0,0,-1,1595,743,0,0
378,281,0,0,0,0,0,0,0,0,0,-1,1602,743,0,0
385,281,0,0,0,0,0,0,0,0,0,-1,1609,743,0,0
392,281,0,0,0,0,0,0,0,0,0,-1,1616,743,0,0
399,281,0,0,0,0,0,0,0,0,0,-1,1623,743,0,0
406,281,0,0,0,0,0,0,0,0,0,-1,1630,743,0,0
413,281,0,0,0,0,0,0,0,0,0,-1,1637,743,0,0
420,281,0,0,0,0,0,0,0,0,0,-1,1644,743,0,0
427,281,0,0,0,0,0,0,0,0,0,-1,1651,743,0,0
434,281,0,0,0,0,0,0,0,0,0,-1,1658,743,0,0
441,281,0,0,0,0,0,0,0,0,0,-1,1665,743,0,0
448,281,0,0,0,0,0,0,0,0,0,-1,1672,743,0,0
455,281,0,0,0,0,0,0,0,0,0,-1,1679,743,0,0
462,281,0,0,0,0,0,0,0,0,0,-1,1686,743,0,0
469,281,0,0,0,0,0,0,0,0,0,-1,1693,743,0,0
476,281,0,0,0,0,0,0,0,0,0,-1,1700,743,0,0
483,281,0,0,0,0,0,0,0,0,0,-1,1707,743,0,0
490,281,0,0,0,0,0,0,0,0,0,-1,1714,743,0,0
497,281,0,0,0,0,0,0,0,0,0,-1,1721,743,0,0
504,281,0,0,0,0,0,0,0,0,0,-1,1728,743,0,0
511,281,0,0,0,0,0,0,0,0,0,-1,1735,743,0,0
518,281,0,0,0,0,0,0,0,0,0,-1,1742,743,0,0
525,281,0,0,0,0,0,0,0,0,0,-1,1749,743,0,0
532,281,0,0,0,0,0,0,0,0,0,-1,1756,743,0,0
539,281,0,0,0,0,0,0,0,0,0,-1,1763,743,0,0
546,281,0,0,0,0,0,0,0,0,0,-1,1770,743,0,0
553,281,0,0,0,0,0,0,0,0,0,-1,1777,743,0,0
560,281,48.1221,2.78314,0,0,0,0,0,0,0,-1,1784,743,48.1221,-2.78313
567,281,47.6973,3.24493,0,0,0,0,0,0,0,-1,1791,743,47.6972,-3.24495
574,281,47.1931,3.90771,0,0,0,0,0,0,0,-1,1798,743,47.1931,-3.90772
581,281,47.6267,4.44257,0,0,0,0,0,0,0,-1,1805,743,47.6267,-4.44255
588,281,47.8744,5.26105,0,0,0,0,0,0,0,-1,1812,743,47.8745,-5.26104
595,281,48.5212,5.06024,0,0,0,0,0,0,0,-1,1819,743,48.5212,-5.06024
602,281,45.9985,3.98254,0,0,0,0,0,0,0,-1,1826,743,45.9985,-3.98254
609,281,32.7925,1.28723,0,0,0,0,0,0,0,-1,1833,743,32.7925,-1.28722
616,281,21.3191,-0.253906,0,0,0,0,0,0,0,-1,1840,743,21.3191,0.253931
623,281,30.5835,-4.11304,0,0,0,0,0,0,0,-1,1847,743,30.5835,4.11306
630,281,31.0382,-3.98132,0,0,0,0,0,0,0,-1,1854,743,31.0382,3.9813
637,281,31.0809,-3.35901,0.00194385,0.00252191,-0.00196309,0.00421713,0.00024863,-0.85849,0.00273232,0.0157428,1861,743,31.0809,3.359
644,281,31.0834,-2.74994,0.000630337,-0.00044298,-0.000823758,0.00107683,-0.000889469,-0.496692,0.00113696,0.0106487,1868,743,31.0834,2.74994
651,281,31.0748,-2.14996,-0.000187237,-0.00046168,-0.000104807,-0.00015179,-0.000497127,-0.326132,0.000294178,0.0119502,1875,743,31.0748,2.14993
658,281,31.0597,-1.53711,0.000136523,-0.000163941,5.84736e-05,0.000147501,-0.000174919,0.185591,0.000186374,0.0202235,1882,743,31.0597,1.5371
665,281,31.0406,-0.981201,0.000330669,0.000501036,0.000366282,0.00079191,3.97957e-05,0.899648,0.000515187,0.0216184,1889,743,31.0406,0.981209
672,281,31.0089,-0.342285,0.00026461,0.00136006,0.000693517,0.00169606,-7.13898e-05,1.11964,0.00115524,0.0134407,1896,743,31.0089,0.342279
679,281,30.9772,0.257568,0.000247272,0.00245819,0.00111302,0.00292144,-0.000215978,1.17639,0.00202347,0.0206189,1903,743,30.9772,-0.257551
686,281,30.939,0.824402,0.000322662,0.00370075,0.00159948,0.00433791,-0.000314496,1.19171,0.00300227,0.0160137,1910,743,30.939,-0.824409
693,281,30.9432,1.43518,0.000548755,0.00508137,0.00222913,0.00599392,-0.000363801,1.18223,0.00412257,0.0118376,1917,743,30.9432,-1.43519
700,281,30.9036,2.07159,0.000980439,0.00681956,0.003101,0.00815911,-0.000359111,1.16303,0.00556297,0.0308364,1924,743,30.9036,-2.07157
707,281,30.9246,2.68433,0,0,0,0,0,0,0,-1,1931,743,30.9245,-2.68434
714,281,25.0125,2.5105,0,0,0,0,0,0,0,-1,1938,743,25.0124,-2.51053
721,281,16.9656,3.22174,0,0,0,0,0,0,0,-1,1945,743,16.9656,-3.22172
728,281,19.0251,3.63934,0,0,0,0,0,0,0,-1,1952,743,19.0252,-3.63932
735,281,19.0869,2.50311,0,0,0,0,0,0,0,-1,1959,743,19.0869,-2.5031
742,281,0,0,0,0,0,0,0,0,0,-1,1966,743,0,0
749,281,0,0,0,0,0,0,0,0,0,-1,1973,743,0,0
756,281,0,0,0,0,0,0,0,0,0,-1,1980,743,0,0
763,281,0,0,0,0,0,0,0,0,0,-1,1987,743,0,0
770,281,0,0,0,0,0,0,0,0,0,-1,1994,743,0,0
777,281,0,0,0,0,0,0,0,0,0,-1,2001,743,0,0
784,281,0,0,0,0,0,0,0,0,0,-1,2008,743,0,0
791,281,0,0,0,0,0,0,0,0,0,-1,2015,743,0,0
798,281,0,0,0,0,0,0,0,0,0,-1,2022,743,0,0
805,281,0,0,0,0,0,0,0,0,0,-1,2029,743,0,0
812,281,0,0,0,0,0,0,0,0,0,-1,2036,743,0,0
-700,274,0,0,0,0,0,0,0,0,0,-1,524,750,0,0
-693,274,0,0,0,0,0,0,0,0,0,-1,531,750,0,0
-686,274,0,0,0,0,0,0,0,0,0,-1,538,750,0,0
-679,274,0,0,0,0,0,0,0,0,0,-1,545,750,0,0
-672,274,0,0,0,0,0,0,0,0,0,-1,552,750,0,0
-665,274,0,0,0,0,0,0,0,0,0,-1,559,750,0,0
-658,274,0,0,0,0,0,0,0,0,0,-1,566,750,0,0
-651,274,0,0,0,0,0,0,0,0,0,-1,573,750,0,0
-644,274,0,0,0,0,0,0,0,0,0,-1,580,750,0,0
-637,274,0,0,0,0,0,0,0,0,0,-1,587,750,0,0
-630,274,0,0,0,0,0,0,0,0,0,-1,594,750,0,0
-623,274,-19.6909,5.12701,0,0,0,0,0,0,0,-1,601,750,-19.6908,-5.12703
-616,274,-17.9133,3.9024,0,0,0,0,0,0,0,-1,608,750,-17.9133,-3.90239
-609,274,-18.6586,4.92523,0,0,0,0,0,0,0,-1,615,750,-18.6586,-4.92526
-602,274,-18.191,4.28918,0,0,0,0,0,0,0,-1,622,750,-18.191,-4.28919
-595,274,-18.4185,1.95624,0,0,0,0,0,0,0,-1,629,750,-18.4185,-1.95626
-588,274,-20.9514,1.12573,0,0,0,0,0,0,0,-1,636,750,-20.9513,-1.12571
-581,274,-20.8037,0.59845,0.00875062,0.00105362,-0.00630749,0.012291,-0.00248674,-0.511474,0.00913642,0.0480384,643,750,-20.8037,-0.598421
-574,274,-20.5952,0.0471802,0.00601633,0.00130271,-0.00425802,0.00852627,-0.00120723,-0.532635,0.00612637,0.0254523,650,750,-20.5952,-0.0471936
-567,274,-20.743,-0.500977,0.00401853,0.00124447,-0.00275338,0.00571451,-0.000451517,-0.552075,0.00396875,0.0248644,657,750,-20.7431,0.501003
-560,274,-20.7572,-1.07269,0.00247292,0.000905038,-0.00154714,0.00342339,-4.5435e-05,-0.5509,0.00229756,0.0149621,664,750,-20.7572,1.07272
-553,274,-20.7855,-1.63477,0.00131131,0.000411422,-0.00059049,0.00160375,0.000118987,-0.459834,0.00103179,0.00995862,671,750,-20.7855,1.63478
-546,274,-20.8272,-2.20844,0.000399912,-0.000171502,0.000202055,0.00046414,-0.00023573,0.307775,0.000411181,0.0117142,678,750,-20.8272,2.20843
-539,274,-20.8438,-2.77405,-0.000294286,-0.000934622,0.00100728,0.000442488,-0.0016714,0.631521,0.00128736,0.012132,685,750,-20.8438,2.77407
-532,274,-20.8469,-3.31677,-0.000840979,-0.00171233,0.00161362,0.000394753,-0.00294806,0.653544,0.00210931,0.0133082,692,750,-20.8469,3.31679
-525,274,-20.8741,-3.87939,-0.000217582,-0.00162757,0.00151565,0.000749012,-0.00259416,0.567711,0.00202581,0.0142673,699,750,-20.8741,3.87938
-518,274,-20.8857,-4.47308,0.000358571,-0.00242002,0.0012747,0.000854747,-0.0029162,0.371204,0.00228302,0.013204,706,750,-20.8858,4.47311
-511,274,-20.901,-5.0686,-0.000504514,-0.00349214,0.000785862,-0.000310412,-0.00368624,0.242146,0.00236084,0.0137237,713,750,-20.901,5.06862
-504,274,-20.9709,-5.70111,-0.000637468,-0.00463372,-0.000214484,-0.000625989,-0.00464519,-0.0534665,0.00291066,0.0266696,720,750,-20.9709,5.70112
-497,274,-21.0775,-6.33936,0,0,0,0,0,0,0,-1,727,750,-21.0775,6.33938
-490,274,-13.6545,-3.58826,0,0,0,0,0,0,0,-1,734,750,-13.6546,3.58825
-483,274,-27.8608,1.30981,0,0,0,0,0,0,0,-1,741,750,-27.8608,-1.30979
-476,274,-33.7561,-0.508606,0,0,0,0,0,0,0,-1,748,750,-33.7561,0.508636
-469,274,-36.297,0.23468,0,0,0,0,0,0,0,-1,755,750,-36.297,-0.234708
-462,274,-36.8137,0.222473,-0.0147091,-0.0292361,-0.00984543,-0.00973776,-0.0342074,-0.46759,0.020351,0.0489007,762,750,-36.8137,-0.222463
-455,274,-37.3273,0.201111,0,0,0,0,0,0,0,-1,769,750,-37.3273,-0.201105
-448,274,-37.8226,0.155518,0,0,0,0,0,0,0,-1,776,750,-37.8227,-0.155508
-441,274,0,0,0,0,0,0,0,0,0,-1,783,750,0,0
-434,274,0,0,0,0,0,0,0,0,0,-1,790,750,0,0
-427,274,0,0,0,0,0,0,0,0,0,-1,797,750,0,0
-420,274,0,0,0,0,0,0,0,0,0,-1,804,750,0,0
-413,274,0,0,0,0,0,0,0,0,0,-1,811,750,0,0
-406,274,0,0,0,0,0,0,0,0,0,-1,818,750,0,0
-399,274,0,0,0,0,0,0,0,0,0,-1,825,750,0,0
-392,274,0,0,0,0,0,0,0,0,0,-1,832,750,0,0
-385,274,0,0,0,0,0,0,0,0,0,-1,839,750,0,0
-378,274,0,0,0,0,0,0,0,0,0,-1,846,750,0,0
-371,274,0,0,0,0,0,0,0,0,0,-1,853,750,0,0
-364,274,0,0,0,0,0,0,0,0,0,-1,860,750,0,0
-357,274,0,0,0,0,0,0,0,0,0,-1,867,750,0,0
-350,274,0,0,0,0,0,0,0,0,0,-1,874,750,0,0
-343,274,0,0,0,0,0,0,0,0,0,-1,881,750,0,0
-336,274,0,0,0,0,0,0,0,0,0,-1,888,750,0,0
-329,274,0,0,0,0,0,0,0,0,0,-1,895,750,0,0
-322,274,0,0,0,0,0,0,0,0,0,-1,902,750,0,0
-315,274,0,0,0,0,0,0,0,0,0,-1,909,750,0,0
-308,274,0,0,0,0,0,0,0,0,0,-1,916,750,0,0
-301,274,0,0,0,0,0,0,0,0,0,-1,923,750,0,0
-294,274,0,0,0,0,0,0,0,0,0,-1,930,750,0,0
-287,274,0,0,0,0,0,0,0,0,0,-1,937,750,0,0
-280,274,0,0,0,0,0,0,0,0,0,-1,944,750,0,0
-273,274,0,0,0,0,0,0,0,0,0,-1,951,750,0,0
-266,274,0,0,0,0,0,0,0,0,0,-1,958,750,0,0
-259,274,0,0,0,0,0,0,0,0,0,-1,965,750,0,0
-252,274,0,0,0,0,0,0,0,0,0,-1,972,750,0,0
-245,274,0,0,0,0,0,0,0,0,0,-1,979,750,0,0
-238,274,0,0,0,0,0,0,0,0,0,-1,986,750,0,0
-231,274,0,0,0,0,0,0,0,0,0,-1,993,750,0,0
-224,274,0,0,0,0,0,0,0,0,0,-1,1000,750,0,0
-217,274,0,0,0,0,0,0,0,0,0,-1,1007,750,0,0
-210,274,0,0,0,0,0,0,0,0,0,-1,1014,750,0,0
-203,274,0,0,0,0,0,0,0,0,0,-1,1021,750,0,0
-196,274,0,0,0,0,0,0,0,0,0,-1,1028,750,0,0
-189,274,0,0,0,0,0,0,0,0,0,-1,1035,750,0,0
-182,274,0,0,0,0,0,0,0,0,0,-1,1042,750,0,0
-175,274,0,0,0,0,0,0,0,0,0,-1,1049,750,0,0
-168,274,0,0,0,0,0,0,0,0,0,-1,1056,750,0,0
-161,274,0,0,0,0,0,0,0,0,0,-1,1063,750,0,0
-154,274,0,0,0,0,0,0,0,0,0,-1,1070,750,0,0
-147,274,0,0,0,0,0,0,0,0,0,-1,1077,750,0,0
-140,274,0,0,0,0,0,0,0,0,0,-1,1084,750,0,0
-133,274,0,0,0,0,0,0,0,0,0,-1,1091,750,0,0
-126,274,0,0,0,0,0,0,0,0,0,-1,1098,750,0,0
-119,274,0,0,0,0,0,0,0,0,0,-1,1105,750,0,0
-112,274,0,0,0,0,0,0,0,0,0,-1,1112,750,0,0
-105,274,0,0,0,0,0,0,0,0,0,-1,1119,750,0,0
-98,274,0,0,0,0,0,0,0,0,0,-1,1126,750,0,0
-91,274,0,0,0,0,0,0,0,0,0,-1,1133,750,0,0
-84,274,0,0,0,0,0,0,0,0,0,-1,1140,750,0,0
-77,274,0,0,0,0,0,0,0,0,0,-1,1147,750,0,0
-70,274,0,0,0,0,0,0,0,0,0,-1,1154,750,0,0
-63,274,0,0,0,0,0,0,0,0,0,-1,1161,750,0,0
-56,274,0,0,0,0,0,0,0,0,0,-1,1168,750,0,0
-49,274,0,0,0,0,0,0,0,0,0,-1,1175,750,0,0
-42,274,0,0,0,0,0,0,0,0,0,-1,1182,750,0,0
-35,274,0,0,0,0,0,0,0,0,0,-1,1189,750,0,0
-28,274,0,0,0,0,0,0,0,0,0,-1,1196,750,0,0
-21,274,0,0,0,0,0,0,0,0,0,-1,1203,750,0,0
-14,274,0,0,0,0,0,0,0,0,0,-1,1210,750,0,0
-7,274,0,0,0,0,0,0,0,0,0,-1,1217,750,0,0
0,274,0,0,0,0,0,0,0,0,0,-1,1224,750,0,0
7,274,0,0,0,0,0,0,0,0,0,-1,1231,750,0,0
14,274,0,0,0,0,0,0,0,0,0,-1,1238,750,0,0
21,274,0,0,0,0,0,0,0,0,0,-1,1245,750,0,0
28,274,0,0,0,0,0,0,0,0,0,-1,1252,750,0,0
35,274,0,0,0,0,0,0,0,0,0,-1,1259,750,0,0
42,274,0,0,0,0,0,0,0,0,0,-1,1266,750,0,0
49,274,0,0,0,0,0,0,0,0,0,-1,1273,750,0,0
56,274,0,0,0,0,0,0,0,0,0,-1,1280,750,0,0
63,274,0,0,0,0,0,0,0,0,0,-1,1287,750,0,0
70,274,0,0,0,0,0,0,0,0,0,-1,1294,750,0,0
77,274,0,0,0,0,0,0,0,0,0,-1,1301,750,0,0
84,274,0,0,0,0,0,0,0,0,0,-1,1308,750,0,0
91,274,0,0,0,0,0,0,0,0,0,-1,1315,750,0,0
98,274,0,0,0,0,0,0,0,0,0,-1,1322,750,0,0
105,274,0,0,0,0,0,0,0,0,0,-1,1329,750,0,0
112,274,0,0,0,0,0,0,0,0,0,-1,1336,750,0,0
119,274,0,0,0,0,0,0,0,0,0,-1,1343,750,0,0
126,274,0,0,0,0,0,0,0,0,0,-1,1350,750,0,0
133,274,0,0,0,0,0,0,0,0,0,-1,1357,750,0,0
140,274,0,0,0,0,0,0,0,0,0,-1,1364,750,0,0
147,274,0,0,0,0,0,0,0,0,0,-1,1371,750,0,0
154,274,0,0,0,0,0,0,0,0,0,-1,1378,750,0,0
161,274,0,0,0,0,0,0,0,0,0,-1,1385,750,0,0
168,274,0,0,0,0,0,0,0,0,0,-1,1392,750,0,0
175,274,0,0,0,0,0,0,0,0,0,-1,1399,750,0,0
182,274,0,0,0,0,0,0,0,0,0,-1,1406,750,0,0
189,274,0,0,0,0,0,0,0,0,0,-1,1413,750,0,0
196,274,0,0,0,0,0,0,0,0,0,-1,1420,750,0,0
203,274,0,0,0,0,0,0,0,0,0,-1,1427,750,0,0
210,274,0,0,0,0,0,0,0,0,0,-1,1434,750,0,0
217,274,0,0,0,0,0,0,0,0,0,-1,1441,750,0,0
224,274,0,0,0,0,0,0,0,0,0,-1,1448,750,0,0
231,274,0,0,0,0,0,0,0,0,0,-1,1455,750,0,0
238,274,0,0,0,0,0,0,0,0,0,-1,1462,750,0,0
245,274,0,0,0,0,0,0,0,0,0,-1,1469,750,0,0
252,274,0,0,0,0,0,0,0,0,0,-1,1476,750,0,0
259,274,0,0,0,0,0,0,0,0,0,-1,1483,750,0,0
266,274,0,0,0,0,0,0,0,0,0,-1,1490,750,0,0
273,274,0,0,0,0,0,0,0,0,0,-1,1497,750,0,0
280,274,0,0,0,0,0,0,0,0,0,-1,1504,750,0,0
287,274,0,0,0,0,0,0,0,0,0,-1,1511,750,0,0
294,274,0,0,0,0,0,0,0,0,0,-1,1518,750,0,0
301,274,0,0,0,0,0,0,0,0,0,-1,1525,750,0,0
308,274,0,0,0,0,0,0,0,0,0,-1,1532,750,0,0
315,274,0,0,0,0,0,0,0,0,0,-1,1539,750,0,0
322,274,0,0,0,0,0,0,0,0,0,-1,1546,750,0,0
329,274,0,0,0,0,0,0,0,0,0,-1,1553,750,0,0
336,274,0,0,0,0,0,0,0,0,0,-1,1560,750,0,0
343,274,0,0,0,0,0,0,0,0,0,-1,1567,750,0,0
350,274,0,0,0,0,0,0,0,0,0,-1,1574,750,0,0
357,274,0,0,0,0,0,0,0,0,0,-1,1581,750,0,0
364,274,0,0,0,0,0,0,0,0,0,-1,1588,750,0,0
371,274,0,0,0,0,0,0,0,0,0,-1,1595,750,0,0
378,274,0,0,0,0,0,0,0,0,0,-1,1602,750,0,0
385,274,0,0,0,0,0,0,0,0,0,-1,1609,750,0,0
392,274,0,0,0,0,0,0,0,0,0,-1,1616,750,0,0
399,274,0,0,0,0,0,0,0,0,0,-1,1623,750,0,0
406,274,0,0,0,0,0,0,0,0,0,-1,1630,750,0,0
413,274,0,0,0,0,0,0,0,0,0,-1,1637,750,0,0
420,274,0,0,0,0,0,0,0,0,0,-1,1644,750,0,0
427,274,0,0,0,0,0,0,0,0,0,-1,1651,750,0,0
434,274,0,0,0,0,0,0,0,0,0,-1,1658,750,0,0
441,274,0,0,0,0,0,0,0,0,0,-1,1665,750,0,0
448,274,0,0,0,0,0,0,0,0,0,-1,1672,750,0,0
455,274,0,0,0,0,0,0,0,0,0,-1,1679,750,0,0
462,274,0,0,0,0,0,0,0,0,0,-1,1686,750,0,0
469,274,0,0,0,0,0,0,0,0,0,-1,1693,750,0,0
476,274,0,0,0,0,0,0,0,0,0,-1,1700,750,0,0
483,274,0,0,0,0,0,0,0,0,0,-1,1707,750,0,0
490,274,0,0,0,0,0,0,0,0,0,-1,1714,750,0,0
497,274,0,0,0,0,0,0,0,0,0,-1,1721,750,0,0
504,274,0,0,0,0,0,0,0,0,0,-1,1728,750,0,0
511,274,0,0,0,0,0,0,0,0,0,-1,1735,750,0,0
518,274,0,0,0,0,0,0,0,0,0,-1,1742,750,0,0
525,274,0,0,0,0,0,0,0,0,0,-1,1749,750,0,0
532,274,0,0,0,0,0,0,0,0,0,-1,1756,750,0,0
539,274,0,0,0,0,0,0,0,0,0,-1,1763,750,0,0
546,274,0,0,0,0,0,0,0,0,0,-1,1770,750,0,0
553,274,0,0,0,0,0,0,0,0,0,-1,1777,750,0,0
560,274,48.2606,3.16077,0,0,0,0,0,0,0,-1,1784,750,48.2606,-3.16077
567,274,48.171,3.20801,0,0,0,0,0,0,0,-1,1791,750,48.171,-3.20803
574,274,49.3464,2.89081,0,0,0,0,0,0,0,-1,1798,750,49.3464,-2.89081
581,274,48.1221,3.98376,-0.00151085,0.054294,0.00135386,0.0543268,-0.00154367,1.54655,0.0367432,0.043289,1805,750,48.122,-3.98376
588,274,48.2682,4.46643,0.00183375,0.0430635,-0.00111286,0.0430936,0.00180373,-1.54383,0.0281471,0.044624,1812,750,48.2682,-4.46646
595,274,49.5925,2.79187,0,0,0,0,0,0,0,-1,1819,750,49.5925,-2.79184
602,274,51.6603,3.05664,0,0,0,0,0,0,0,-1,1826,750,51.6603,-3.05665
609,274,44.6676,3.10461,0,0,0,0,0,0,0,-1,1833,750,44.6676,-3.1046
616,274,32.7869,1.78436,0,0,0,0,0,0,0,-1,1840,750,32.7868,-1.78437
623,274,24.8231,-1.80353,0,0,0,0,0,0,0,-1,1847,750,24.8232,1.80351
630,274,31.7925,-3.94696,0,0,0,0,0,0,0,-1,1854,750,31.7925,3.94696
637,274,31.6687,-3.35919,0.00186812,0.00279056,-0.00238351,0.00475706,-9.83779e-05,-0.88097,0.00320467,0.0179602,1861,750,31.6687,3.35922
644,274,31.6559,-2.73462,0.00048739,-0.000279297,-0.0012374,0.00139947,-0.00119137,-0.635188,0.00149743,0.0117806,1868,750,31.6559,2.73459
651,274,31.6537,-2.15057,-0.000422171,-0.000486255,-0.000469721,1.65991e-05,-0.000925025,-0.751344,0.00062229,0.0131845,1875,750,31.6537,2.15058
658,274,31.6382,-1.55231,4.18795e-05,-0.000439131,-0.000305327,0.000190048,-0.000587299,-0.451801,0.000467929,0.0156981,1882,750,31.6382,1.55231
665,274,31.6261,-0.921265,0.000459893,6.45522e-05,5.46121e-05,0.000467298,5.71468e-05,0.134777,0.000294338,0.0168606,1889,750,31.6261,0.921245
672,274,31.6117,-0.313477,0.000575432,0.000812741,0.000455123,0.00116442,0.000223751,0.912914,0.00071349,0.0142901,1896,750,31.6117,0.313473
679,274,31.5822,0.276001,0.00073534,0.00186643,0.000936867,0.00239522,0.000206554,1.05695,0.00153261,0.014722,1903,750,31.5822,-0.275999
686,274,31.5461,0.857056,0.00101674,0.00307855,0.00146436,0.00383849,0.00025681,1.0921,0.00247783,0.0162981,1910,750,31.5461,-0.857032
693,274,31.5269,1.4729,0.00143443,0.00441209,0.00214066,0.00553076,0.000315764,1.08925,0.00358655,0.0126566,1917,750,31.5269,-1.4729
700,274,31.5081,2.10083,0.00202226,0.00599107,0.00302994,0.0076286,0.000384733,1.07532,0.00496246,0.0153211,1924,750,31.5081,-2.10085
707,274,31.4486,2.72015,0.00288781,0.00776989,0.00430815,0.0102805,0.000377197,1.04315,0.00673146,0.028042,1931,750,31.4486,-2.72015
714,274,31.3969,3.38397,0,0,0,0,0,0,0,-1,1938,750,31.3969,-3.38399
721,274,25.6215,3.91144,0,0,0,0,0,0,0,-1,1945,750,25.6214,-3.91141
728,274,19.2209,3.95154,0,0,0,0,0,0,0,-1,1952,750,19.221,-3.95151
735,274,20.6608,4.10931,0,0,0,0,0,0,0,-1,1959,750,20.6607,-4.10932
742,274,11.7815,-0.740234,0,0,0,0,0,0,0,-1,1966,750,11.7815,0.740253
749,274,0,0,0,0,0,0,0,0,0,-1,1973,750,0,0
756,274,0,0,0,0,0,0,0,0,0,-1,1980,750,0,0
763,274,0,0,0,0,0,0,0,0,0,-1,1987,750,0,0
770,274,0,0,0,0,0,0,0,0,0,-1,1994,750,0,0
777,274,0,0,0,0,0,0,0,0,0,-1,2001,750,0,0
784,274,0,0,0,0,0,0,0,0,0,-1,2008,750,0,0
791,274,0,0,0,0,0,0,0,0,0,-1,2015,750,0,0
798,274,0,0,0,0,0,0,0,0,0,-1,2022,750,0,0
805,274,0,0,0,0,0,0,0,0,0,-1,2029,750,0,0
812,274,0,0,0,0,0,0,0,0,0,-1,2036,750,0,0
-700,267,0,0,0,0,0,0,0,0,0,-1,524,757,0,0
-693,267,0,0,0,0,0,0,0,0,0,-1,531,757,0,0
-686,267,0,0,0,0,0,0,0,0,0,-1,538,757,0,0
-679,267,0,0,0,0,0,0,0,0,0,-1,545,757,0,0
-672,267,0,0,0,0,0,0,0,0,0,-1,552,757,0,0
-665,267,0,0,0,0,0,0,0,0,0,-1,559,757,0,0
-658,267,0,0,0,0,0,0,0,0,0,-1,566,757,0,0
-651,267,0,0,0,0,0,0,0,0,0,-1,573,757,0,0
-644,267,0,0,0,0,0,0,0,0,0,-1,580,757,0,0
-637,267,0,0,0,0,0,0,0,0,0,-1,587,757,0,0
-630,267,-21.3979,5.17529,0,0,0,0,0,0,0,-1,594,757,-21.3979,-5.17529
-623,267,-20.043,4.43115,0,0,0,0,0,0,0,-1,601,757,-20.043,-4.43116
-616,267,-18.6576,5.19214,0,0,0,0,0,0,0,-1,608,757,-18.6576,-5.19215
-609,267,-18.6078,4.34973,0,0,0,0,0,0,0,-1,615,757,-18.6078,-4.34976
-602,267,-19.3658,2.84296,0,0,0,0,0,0,0,-1,622,757,-19.3658,-2.84295
-595,267,-21.4646,2.07178,0,0,0,0,0,0,0,-1,629,757,-21.4646,-2.07175
-588,267,-21.3134,1.45129,0.0120563,0.00167706,-0.010009,0.0181411,-0.0044077,-0.54623,0.0138,0.0493278,636,757,-21.3134,-1.4513
-581,267,-21.2203,0.801575,0.00847582,0.00155793,-0.00701407,0.0128375,-0.00280371,-0.556325,0.0096299,0.0357316,643,757,-21.2203,-0.801556
-574,267,-21.2177,0.132141,0.005862,0.00141644,-0.00474864,0.00888234,-0.0016039,-0.566502,0.00652227,0.0201706,650,757,-21.2177,-0.132156
-567,267,-21.2938,-0.47699,0.00385014,0.00109735,-0.00302777,0.00579968,-0.000852187,-0.572065,0.00417958,0.0249396,657,757,-21.2938,0.476966
-560,267,-21.3017,-1.06,0.0022368,0.000613145,-0.00164472,0.00325914,-0.000409199,-0.556143,0.00232121,0.0222598,664,757,-21.3017,1.06001
-553,267,-21.3521,-1.62103,0.00094406,-7.27592e-06,-0.000512436,0.00116757,-0.000230787,-0.411296,0.000865626,0.0186929,671,757,-21.3521,1.62101
-546,267,-21.3987,-2.18274,-8.35629e-05,-0.000658815,0.000421908,0.000139433,-0.000881811,0.48622,0.00063944,0.0124329,678,757,-21.3988,2.18276
-539,267,-21.3977,-2.75916,-0.000796895,-0.00156833,0.00132445,0.00019686,-0.00256209,0.643702,0.00177732,0.011705,685,757,-21.3977,2.75914
-532,267,-21.3835,-3.32465,-0.00125941,-0.00241722,0.00195816,0.000203618,-0.00388025,0.641673,0.00265731,0.0125389,692,757,-21.3835,3.32462
-525,267,-21.4345,-3.86218,-0.00030813,-0.00216905,0.00168299,0.000684481,-0.00316166,0.532879,0.00236913,0.0118978,699,757,-21.4345,3.86218
-518,267,-21.456,-4.42889,0.000459709,-0.00287045,0.00130676,0.000911255,-0.003322,0.332702,0.00257278,0.0117301,706,757,-21.456,4.42892
-511,267,-21.4478,-5.00989,-0.000259721,-0.00382141,0.000715677,-0.000121295,-0.00395984,0.191061,0.0026004,0.0198859,713,757,-21.4478,5.0099
-504,267,-21.6097,-5.40167,-0.000341324,-0.00475412,-0.000317031,-0.000318664,-0.00477678,-0.0713551,0.00308379,0.0354495,720,757,-21.6097,5.40166
-497,267,-21.8517,-5.79993,0,0,0,0,0,0,0,-1,727,757,-21.8517,5.79993
-490,267,-23.4949,-0.494995,0,0,0,0,0,0,0,-1,734,757,-23.4949,0.494981
-483,267,-33.2785,-0.448425,0,0,0,0,0,0,0,-1,741,757,-33.2785,0.448407
-476,267,-36.7314,2.05817,0,0,0,0,0,0,0,-1,748,757,-36.7314,-2.05819
-469,267,-36.3751,0.375793,-0.0091742,-0.017319,-0.00743127,-0.00477263,-0.0217206,-0.534741,0.0131808,0.0449877,755,757,-36.3751,-0.375768
-462,267,-36.7299,0.573425,-0.0151835,-0.0242838,-0.00928237,-0.00939602,-0.0300712,-0.557512,0.0177641,0.0474473,762,757,-36.7299,-0.573441
-455,267,-37.25,0.582336,0,0,0,0,0,0,0,-1,769,757,-37.25,-0.582329
-448,267,-34.98,1.41986,0,0,0,0,0,0,0,-1,776,757,-34.98,-1.41989
-441,267,0,0,0,0,0,0,0,0,0,-1,783,757,0,0
-434,267,0,0,0,0,0,0,0,0,0,-1,790,757,0,0
-427,267,0,0,0,0,0,0,0,0,0,-1,797,757,0,0
-420,267,0,0,0,0,0,0,0,0,0,-1,804,757,0,0
-413,267,0,0,0,0,0,0,0,0,0,-1,811,757,0,0
-406,267,0,0,0,0,0,0,0,0,0,-1,818,757,0,0
-399,267,0,0,0,0,0,0,0,0,0,-1,825,757,0,0
-392,267,0,0,0,0,0,0,0,0,0,-1,832,757,0,0
-385,267,0,0,0,0,0,0,0,0,0,-1,839,757,0,0
-378,267,0,0,0,0,0,0,0,0,0,-1,846,757,0,0
-371,267,0,0,0,0,0,0,0,0,0,-1,853,757,0,0
-364,267,0,0,0,0,0,0,0,0,0,-1,860,757,0,0
-357,267,0,0,0,0,0,0,0,0,0,-1,867,757,0,0
-350,267,0,0,0,0,0,0,0,0,0,-1,874,757,0,0
-343,267,0,0,0,0,0,0,0,0,0,-1,881,757,0,0
-336,267,0,0,0,0,0,0,0,0,0,-1,888,757,0,0
-329,267,0,0,0,0,0,0,0,0,0,-1,895,757,0,0
-322,267,0,0,0,0,0,0,0,0,0,-1,902,757,0,0
-315,267,0,0,0,0,0,0,0,0,0,-1,909,757,0,0
-308,267,0,0,0,0,0,0,0,0,0,-1,916,757,0,0
-301,267,0,0,0,0,0,0,0,0,0,-1,923,757,0,0
-294,267,0,0,0,0,0,0,0,0,0,-1,930,757,0,0
-287,267,0,0,0,0,0,0,0,0,0,-1,937,757,0,0
-280,267,0,0,0,0,0,0,0,0,0,-1,944,757,0,0
-273,267,0,0,0,0,0,0,0,0,0,-1,951,757,0,0
-266,267,0,0,0,0,0,0,0,0,0,-1,958,757,0,0
-259,267,0,0,0,0,0,0,0,0,0,-1,965,757,0,0
-252,267,0,0,0,0,0,0,0,0,0,-1,972,757,0,0
-245,267,0,0,0,0,0,0,0,0,0,-1,979,757,0,0
-238,267,0,0,0,0,0,0,0,0,0,-1,986,757,0,0
-231,267,0,0,0,0,0,0,0,0,0,-1,993,757,0,0
-224,267,0,0,0,0,0,0,0,0,0,-1,1000,757,0,0
-217,267,0,0,0,0,0,0,0,0,0,-1,1007,757,0,0
-210,267,0,0,0,0,0,0,0,0,0,-1,1014,757,0,0
-203,267,0,0,0,0,0,0,0,0,0,-1,1021,757,0,0
-196,267,0,0,0,0,0,0,0,0,0,-1,1028,757,0,0
-189,267,0,0,0,0,0,0,0,0,0,-1,1035,757,0,0
-182,267,0,0,0,0,0,0,0,0,0,-1,1042,757,0,0
-175,267,0,0,0,0,0,0,0,0,0,-1,1049,757,0,0
-168,267,0,0,0,0,0,0,0,0,0,-1,1056,757,0,0
-161,267,0,0,0,0,0,0,0,0,0,-1,1063,757,0,0
-154,267,0,0,0,0,0,0,0,0,0,-1,1070,757,0,0
-147,267,0,0,0,0,0,0,0,0,0,-1,1077,757,0,0
-140,267,0,0,0,0,0,0,0,0,0,-1,1084,757,0,0
-133,267,0,0,0,0,0,0,0,0,0,-1,1091,757,0,0
-126,267,0,0,0,0,0,0,0,0,0,-1,1098,757,0,0
-119,267,0,0,0,0,0,0,0,0,0,-1,1105,757,0,0
-112,267,0,0,0,0,0,0,0,0,0,-1,1112,757,0,0
-105,267,0,0,0,0,0,0,0,0,0,-1,1119,757,0,0
-98,267,0,0,0,0,0,0,0,0,0,-1,1126,757,0,0
-91,267,0,0,0,0,0,0,0,0,0,-1,1133,757,0,0
-84,267,0,0,0,0,0,0,0,0,0,-1,1140,757,0,0
-77,267,0,0,0,0,0,0,0,0,0,-1,1147,757,0,0
-70,267,0,0,0,0,0,0,0,0,0,-1,1154,757,0,0
-63,267,0,0,0,0,0,0,0,0,0,-1,1161,757,0,0
-56,267,0,0,0,0,0,0,0,0,0,-1,1168,757,0,0
-49,267,0,0,0,0,0,0,0,0,0,-1,1175,757,0,0
-42,267,0,0,0,0,0,0,0,0,0,-1,1182,757,0,0
-35,267,0,0,0,0,0,0,0,0,0,-1,1189,757,0,0
-28,267,0,0,0,0,0,0,0,0,0,-1,1196,757,0,0
-21,267,0,0,0,0,0,0,0,0,0,-1,1203,757,0,0
-14,267,0,0,0,0,0,0,0,0,0,-1,1210,757,0,0
-7,267,0,0,0,0,0,0,0,0,0,-1,1217,757,0,0
0,267,0,0,0,0,0,0,0,0,0,-1,1224,757,0,0
7,267,0,0,0,0,0,0,0,0,0,-1,1231,757,0,0
14,267,0,0,0,0,0,0,0,0,0,-1,1238,757,0,0
21,267,0,0,0,0,0,0,0,0,0,-1,1245,757,0,0
28,267,0,0,0,0,0,0,0,0,0,-1,1252,757,0,0
35,267,0,0,0,0,0,0,0,0,0,-1,1259,757,0,0
42,267,0,0,0,0,0,0,0,0,0,-1,1266,757,0,0
49,267,0,0,0,0,0,0,0,0,0,-1,1273,757,0,0
56,267,0,0,0,0,0,0,0,0,0,-1,1280,757,0,0
63,267,0,0,0,0,0,0,0,0,0,-1,1287,757,0,0
70,267,0,0,0,0,0,0,0,0,0,-1,1294,757,0,0
77,267,0,0,0,0,0,0,0,0,0,-1,1301,757,0,0
84,267,0,0,0,0,0,0,0,0,0,-1,1308,757,0,0
91,267,0,0,0,0,0,0,0,0,0,-1,1315,757,0,0
98,267,0,0,0,0,0,0,0,0,0,-1,1322,757,0,0
105,267,0,0,0,0,0,0,0,0,0,-1,1329,757,0,0
112,267,0,0,0,0,0,0,0,0,0,-1,1336,757,0,0
119,267,0,0,0,0,0,0,0,0,0,-1,1343,757,0,0
126,267,0,0,0,0,0,0,0,0,0,-1,1350,757,0,0
133,267,0,0,0,0,0,0,0,0,0,-1,1357,757,0,0
140,267,0,0,0,0,0,0,0,0,0,-1,1364,757,0,0
147,267,0,0,0,0,0,0,0,0,0,-1,1371,757,0,0
154,267,0,0,0,0,0,0,0,0,0,-1,1378,757,0,0
161,267,0,0,0,0,0,0,0,0,0,-1,1385,757,0,0
168,267,0,0,0,0,0,0,0,0,0,-1,1392,757,0,0
175,267,0,0,0,0,0,0,0,0,0,-1,1399,757,0,0
182,267,0,0,0,0,0,0,0,0,0,-1,1406,757,0,0
189,267,0,0,0,0,0,0,0,0,0,-1,1413,757,0,0
196,267,0,0,0,0,0,0,0,0,0,-1,1420,757,0,0
203,267,0,0,0,0,0,0,0,0,0,-1,1427,757,0,0
210,267,0,0,0,0,0,0,0,0,0,-1,1434,757,0,0
217,267,0,0,0,0,0,0,0,0,0,-1,1441,757,0,0
224,267,0,0,0,0,0,0,0,0,0,-1,1448,757,0,0
231,267,0,0,0,0,0,0,0,0,0,-1,1455,757,0,0
238,267,0,0,0,0,0,0,0,0,0,-1,1462,757,0,0
245,267,0,0,0,0,0,0,0,0,0,-1,1469,757,0,0
252,267,0,0,0,0,0,0,0,0,0,-1,1476,757,0,0
259,267,0,0,0,0,0,0,0,0,0,-1,1483,757,0,0
266,267,0,0,0,0,0,0,0,0,0,-1,1490,757,0,0
273,267,0,0,0,0,0,0,0,0,0,-1,1497,757,0,0
280,267,0,0,0,0,0,0,0,0,0,-1,1504,757,0,0
287,267,0,0,0,0,0,0,0,0,0,-1,1511,757,0,0
294,267,0,0,0,0,0,0,0,0,0,-1,1518,757,0,0
301,267,0,0,0,0,0,0,0,0,0,-1,1525,757,0,0
308,267,0,0,0,0,0,0,0,0,0,-1,1532,757,0,0
315,267,0,0,0,0,0,0,0,0,0,-1,1539,757,0,0
322,267,0,0,0,0,0,0,0,0,0,-1,1546,757,0,0
329,267,0,0,0,0,0,0,0,0,0,-1,1553,757,0,0
336,267,0,0,0,0,0,0,0,0,0,-1,1560,757,0,0
343,267,0,0,0,0,0,0,0,0,0,-1,1567,757,0,0
350,267,0,0,0,0,0,0,0,0,0,-1,1574,757,0,0
357,267,0,0,0,0,0,0,0,0,0,-1,1581,757,0,0
364,267,0,0,0,0,0,0,0,0,0,-1,1588,757,0,0
371,267,0,0,0,0,0,0,0,0,0,-1,1595,757,0,0
378,267,0,0,0,0,0,0,0,0,0,-1,1602,757,0,0
385,267,0,0,0,0,0,0,0,0,0,-1,1609,757,0,0
392,267,0,0,0,0,0,0,0,0,0,-1,1616,757,0,0
399,267,0,0,0,0,0,0,0,0,0,-1,1623,757,0,0
406,267,0,0,0,0,0,0,0,0,0,-1,1630,757,0,0
413,267,0,0,0,0,0,0,0,0,0,-1,1637,757,0,0
420,267,0,0,0,0,0,0,0,0,0,-1,1644,757,0,0
427,267,0,0,0,0,0,0,0,0,0,-1,1651,757,0,0
434,267,0,0,0,0,0,0,0,0,0,-1,1658,757,0,0
441,267,0,0,0,0,0,0,0,0,0,-1,1665,757,0,0
448,267,0,0,0,0,0,0,0,0,0,-1,1672,757,0,0
455,267,0,0,0,0,0,0,0,0,0,-1,1679,757,0,0
462,267,0,0,0,0,0,0,0,0,0,-1,1686,757,0,0
469,267,0,0,0,0,0,0,0,0,0,-1,1693,757,0,0
476,267,0,0,0,0,0,0,0,0,0,-1,1700,757,0,0
483,267,0,0,0,0,0,0,0,0,0,-1,1707,757,0,0
490,267,0,0,0,0,0,0,0,0,0,-1,1714,757,0,0
497,267,0,0,0,0,0,0,0,0,0,-1,1721,757,0,0
504,267,0,0,0,0,0,0,0,0,0,-1,1728,757,0,0
511,267,0,0,0,0,0,0,0,0,0,-1,1735,757,0,0
518,267,0,0,0,0,0,0,0,0,0,-1,1742,757,0,0
525,267,0,0,0,0,0,0,0,0,0,-1,1749,757,0,0
532,267,0,0,0,0,0,0,0,0,0,-1,1756,757,0,0
539,267,0,0,0,0,0,0,0,0,0,-1,1763,757,0,0
546,267,0,0,0,0,0,0,0,0,0,-1,1770,757,0,0
553,267,0,0,0,0,0,0,0,0,0,-1,1777,757,0,0
560,267,0,0,0,0,0,0,0,0,0,-1,1784,757,0,0
567,267,49.1682,2.97028,0,0,0,0,0,0,0,-1,1791,757,49.1682,-2.97027
574,267,49.3586,2.78003,-0.00595966,0.0536684,0.00529141,0.0541343,-0.00642558,1.48297,0.038411,0.0493067,1798,757,49.3587,-2.78005
581,267,48.6334,3.5094,-0.000715028,0.0457352,0.000358226,0.0457379,-0.000717791,1.56308,0.030734,0.0481045,1805,757,48.6335,-3.50942
588,267,48.7031,3.66034,0.0019481,0.0369885,-0.0020383,0.0371066,0.00182994,-1.51289,0.0241509,0.048488,1812,757,48.7031,-3.66033
595,267,49.436,2.68579,0.00292711,0.0286237,-0.00306864,0.0289851,0.00256574,-1.45357,0.0185275,0.0445669,1819,757,49.436,-2.68581
602,267,49.2843,2.90967,0,0,0,0,0,0,0,-1,1826,757,49.2843,-2.90964
609,267,50.7717,3.49438,0,0,0,0,0,0,0,-1,1833,757,50.7717,-3.4944
616,267,44.2543,3.28918,0,0,0,0,0,0,0,-1,1840,757,44.2542,-3.28918
623,267,24.1475,-1.1391,0,0,0,0,0,0,0,-1,1847,757,24.1475,1.13913
630,267,32.6211,-3.47772,0,0,0,0,0,0,0,-1,1854,757,32.6211,3.47769
637,267,32.3768,-3.13849,0.00175699,0.00275837,-0.00242603,0.00473483,-0.000219475,-0.887161,0.0032322,0.0387641,1861,757,32.3769,3.13847
644,267,32.2719,-2.69922,0.000439963,-9.97241e-05,-0.00133813,0.00153519,-0.00119495,-0.685904,0.00158032,0.0123758,1868,757,32.2718,2.6992
651,267,32.2329,-2.10498,-0.0005002,-0.000366353,-0.000614075,0.000184435,-0.00105099,-0.839675,0.00076954,0.0135054,1875,757,32.2329,2.10501
658,267,32.2285,-1.50555,-3.68455e-05,-0.000531623,-0.000538292,0.000308184,-0.000876653,-0.570002,0.000709825,0.0142925,1882,757,32.2285,1.50556
665,267,32.2345,-0.88092,0.00042795,-0.000247183,-0.000250131,0.000510522,-0.000329755,-0.318852,0.000488862,0.0157229,1889,757,32.2345,0.880919
672,267,32.219,-0.297974,0.000551928,0.000289057,0.000133784,0.000608038,0.000232946,0.397126,0.000354234,0.0143368,1896,757,32.2189,0.297987
679,267,32.187,0.283875,0.000729427,0.00119787,0.000619622,0.00162606,0.000301236,0.966101,0.000998887,0.0121879,1903,757,32.187,-0.283876
686,267,32.1564,0.889954,0.00108088,0.00233425,0.00114991,0.00301716,0.000397975,1.03489,0.00189278,0.0130653,1910,757,32.1563,-0.889948
693,267,32.1183,1.46881,0.00159745,0.00360844,0.00186763,0.00472405,0.00048184,1.03234,0.00300167,0.0137969,1917,757,32.1183,-1.46879
700,267,32.0978,2.07269,0.00226345,0.00504701,0.00277004,0.00675526,0.000555205,1.0182,0.00433032,0.0149315,1924,757,32.0978,-2.0727
707,267,32.0673,2.6626,0.00314764,0.00666308,0.00399804,0.00927273,0.000537994,0.992503,0.00601052,0.0153056,1931,757,32.0673,-2.6626
714,267,32.3674,3.26129,0.00456834,0.0087413,0.00585752,0.0128729,0.00043679,0.956494,0.00844007,0.0354019,1938,757,32.3674,-3.26131
721,267,32.798,3.85815,0,0,0,0,0,0,0,-1,1945,757,32.798,-3.85818
728,267,26.7886,3.90027,0,0,0,0,0,0,0,-1,1952,757,26.7886,-3.90028
735,267,24.6713,2.82483,0,0,0,0,0,0,0,-1,1959,757,24.6713,-2.82483
742,267,18.1177,3.56561,0,0,0,0,0,0,0,-1,1966,757,18.1176,-3.56564
749,267,0,0,0,0,0,0,0,0,0,-1,1973,757,0,0
756,267,0,0,0,0,0,0,0,0,0,-1,1980,757,0,0
763,267,0,0,0,0,0,0,0,0,0,-1,1987,757,0,0
770,267,0,0,0,0,0,0,0,0,0,-1,1994,757,0,0
777,267,0,0,0,0,0,0,0,0,0,-1,2001,757,0,0
784,267,0,0,0,0,0,0,0,0,0,-1,2008,757,0,0
791,267,0,0,0,0,0,0,0,0,0,-1,2015,757,0,0
798,267,0,0,0,0,0,0,0,0,0,-1,2022,757,0,0
805,267,0,0,0,0,0,0,0,0,0,-1,2029,757,0,0
812,267,0,0,0,0,0,0,0,0,0,-1,2036,757,0,0
-700,260,0,0,0,0,0,0,0,0,0,-1,524,764,0,0
-693,260,0,0,0,0,0,0,0,0,0,-1,531,764,0,0
-686,260,0,0,0,0,0,0,0,0,0,-1,538,764,0,0
-679,260,0,0,0,0,0,0,0,0,0,-1,545,764,0,0
-672,260,0,0,0,0,0,0,0,0,0,-1,552,764,0,0
-665,260,0,0,0,0,0,0,0,0,0,-1,559,764,0,0
-658,260,0,0,0,0,0,0,0,0,0,-1,566,764,0,0
-651,260,0,0,0,0,0,0,0,0,0,-1,573,764,0,0
-644,260,0,0,0,0,0,0,0,0,0,-1,580,764,0,0
-637,260,0,0,0,0,0,0,0,0,0,-1,587,764,0,0
-630,260,-21.8905,4.49341,0,0,0,0,0,0,0,-1,594,764,-21.8905,-4.49342
-623,260,-20.3127,3.53546,0,0,0,0,0,0,0,-1,601,764,-20.3127,-3.53544
-616,260,-23.4346,3.65009,0,0,0,0,0,0,0,-1,608,764,-23.4345,-3.65008
-609,260,-18.557,3.77429,0,0,0,0,0,0,0,-1,615,764,-18.557,-3.77426
-602,260,-20.5432,2.90839,0,0,0,0,0,0,0,-1,622,764,-20.5432,-2.90838
-595,260,-22.8453,2.68585,0,0,0,0,0,0,0,-1,629,764,-22.8453,-2.68588
-588,260,-22.3602,1.65485,0.0108704,0.00273189,-0.0101564,0.0177425,-0.00414016,-0.594862,0.0134229,0.0447063,636,764,-22.3602,-1.65485
-581,260,-21.8668,0.677734,0.00777182,0.00219268,-0.00717023,0.012676,-0.0027115,-0.599883,0.00948459,0.0278045,643,764,-21.8668,-0.677715
-574,260,-21.8516,0.136902,0.00535333,0.00170755,-0.0048439,0.00870599,-0.00164511,-0.605431,0.00642298,0.0172739,650,764,-21.8516,-0.136885
-567,260,-21.8636,-0.43396,0.00339571,0.00111243,-0.00300667,0.00547018,-0.000962048,-0.603954,0.00400616,0.0161122,657,764,-21.8636,0.433984
-560,260,-21.8605,-1.02325,0.00177494,0.000429901,-0.00151026,0.00275565,-0.000550807,-0.575928,0.00204557,0.0184159,664,764,-21.8605,1.02328
-553,260,-21.9141,-1.57904,0.000422161,-0.000378723,-0.000265304,0.000502073,-0.000458635,-0.292566,0.000554854,0.0176697,671,764,-21.9142,1.57905
-546,260,-21.9511,-2.15051,-0.000632823,-0.00119224,0.000750797,-0.000111326,-0.00171374,0.607087,0.00110725,0.012392,678,764,-21.9511,2.15052
-539,260,-21.9395,-2.70404,-0.00124441,-0.00232261,0.00168255,-1.67027e-05,-0.00355032,0.630362,0.00236133,0.0133465,685,764,-21.9395,2.70402
-532,260,-21.9343,-3.23364,-0.0015247,-0.00326034,0.0022849,5.16286e-05,-0.00483667,0.603909,0.00324179,0.0178615,692,764,-21.9343,3.23363
-525,260,-21.9949,-3.83997,-0.00029522,-0.00285089,0.00183658,0.000664333,-0.00381044,0.481459,0.00278824,0.015409,699,764,-21.9949,3.83996
-518,260,-22.0565,-4.40686,0.00060593,-0.00338542,0.0013682,0.0010299,-0.00380939,0.300492,0.00294357,0.0179101,706,764,-22.0565,4.40686
-511,260,-22.0506,-4.93195,5.36997e-05,-0.00415158,0.000732337,0.000177584,-0.00427547,0.167577,0.00291131,0.0346491,713,764,-22.0506,4.93197
-504,260,-22.1556,-5.164,0,0,0,0,0,0,0,-1,720,764,-22.1556,5.16401
-497,260,-16.6542,-3.67334,0,0,0,0,0,0,0,-1,727,764,-16.6542,3.67331
-490,260,-29.4557,0.921387,0,0,0,0,0,0,0,-1,734,764,-29.4557,-0.921369
-483,260,-37.2101,2.12671,0,0,0,0,0,0,0,-1,741,764,-37.2101,-2.1267
-476,260,-36.7755,1.80872,-0.00409112,-0.0101631,-0.0054516,-0.000887139,-0.0133671,-0.531337,0.00863088,0.0477609,748,764,-36.7755,-1.80872
-469,260,-36.7008,1.07623,-0.00776079,-0.0136323,-0.00716584,-0.00295266,-0.0184405,-0.590983,0.0114372,0.0458452,755,764,-36.7008,-1.07623
-462,260,-36.6207,0.880066,-0.0134557,-0.0183419,-0.0088751,-0.0066936,-0.025104,-0.651089,0.0150108,0.0430911,762,764,-36.6207,-0.880081
-455,260,-37.1401,0.849365,-0.0211965,-0.0231987,-0.0107463,-0.0114048,-0.0329904,-0.738952,0.019347,0.0472018,769,764,-37.1402,-0.849395
-448,260,0,0,0,0,0,0,0,0,0,-1,776,764,0,0
-441,260,0,0,0,0,0,0,0,0,0,-1,783,764,0,0
-434,260,0,0,0,0,0,0,0,0,0,-1,790,764,0,0
-427,260,0,0,0,0,0,0,0,0,0,-1,797,764,0,0
-420,260,0,0,0,0,0,0,0,0,0,-1,804,764,0,0
-413,260,0,0,0,0,0,0,0,0,0,-1,811,764,0,0
-406,260,0,0,0,0,0,0,0,0,0,-1,818,764,0,0
-399,260,0,0,0,0,0,0,0,0,0,-1,825,764,0,0
-392,260,0,0,0,0,0,0,0,0,0,-1,832,764,0,0
-385,260,0,0,0,0,0,0,0,0,0,-1,839,764,0,0
-378,260,0,0,0,0,0,0,0,0,0,-1,846,764,0,0
-371,260,0,0,0,0,0,0,0,0,0,-1,853,764,0,0
-364,260,0,0,0,0,0,0,0,0,0,-1,860,764,0,0
-357,260,0,0,0,0,0,0,0,0,0,-1,867,764,0,0
-350,260,0,0,0,0,0,0,0,0,0,-1,874,764,0,0
-343,260,0,0,0,0,0,0,0,0,0,-1,881,764,0,0
-336,260,0,0,0,0,0,0,0,0,0,-1,888,764,0,0
-329,260,0,0,0,0,0,0,0,0,0,-1,895,764,0,0
-322,260,0,0,0,0,0,0,0,0,0,-1,902,764,0,0
-315,260,0,0,0,0,0,0,0,0,0,-1,909,764,0,0
-308,260,0,0,0,0,0,0,0,0,0,-1,916,764,0,0
-301,260,0,0,0,0,0,0,0,0,0,-1,923,764,0,0
-294,260,0,0,0,0,0,0,0,0,0,-1,930,764,0,0
-287,260,0,0,0,0,0,0,0,0,0,-1,937,764,0,0
-280,260,0,0,0,0,0,0,0,0,0,-1,944,764,0,0
-273,260,0,0,0,0,0,0,0,0,0,-1,951,764,0,0
-266,260,0,0,0,0,0,0,0,0,0,-1,958,764,0,0
-259,260,0,0,0,0,0,0,0,0,0,-1,965,764,0,0
-252,260,0,0,0,0,0,0,0,0,0,-1,972,764,0,0
-245,260,0,0,0,0,0,0,0,0,0,-1,979,764,0,0
-238,260,0,0,0,0,0,0,0,0,0,-1,986,764,0,0
-231,260,0,0,0,0,0,0,0,0,0,-1,993,764,0,0
-224,260,0,0,0,0,0,0,0,0,0,-1,1000,764,0,0
-217,260,0,0,0,0,0,0,0,0,0,-1,1007,764,0,0
-210,260,0,0,0,0,0,0,0,0,0,-1,1014,764,0,0
-203,260,0,0,0,0,0,0,0,0,0,-1,1021,764,0,0
-196,260,0,0,0,0,0,0,0,0,0,-1,1028,764,0,0
-189,260,0,0,0,0,0,0,0,0,0,-1,1035,764,0,0
-182,260,0,0,0,0,0,0,0,0,0,-1,1042,764,0,0
-175,260,0,0,0,0,0,0,0,0,0,-1,1049,764,0,0
-168,260,0,0,0,0,0,0,0,0,0,-1,1056,764,0,0
-161,260,0,0,0,0,0,0,0,0,0,-1,1063,764,0,0
-154,260,0,0,0,0,0,0,0,0,0,-1,1070,764,0,0
-147,260,0,0,0,0,0,0,0,0,0,-1,1077,764,0,0
-140,260,0,0,0,0,0,0,0,0,0,-1,1084,764,0,0
-133,260,0,0,0,0,0,0,0,0,0,-1,1091,764,0,0
-126,260,0,0,0,0,0,0,0,0,0,-1,1098,764,0,0
-119,260,0,0,0,0,0,0,0,0,0,-1,1105,764,0,0
-112,260,0,0,0,0,0,0,0,0,0,-1,1112,764,0,0
-105,260,0,0,0,0,0,0,0,0,0,-1,1119,764,0,0
-98,260,0,0,0,0,0,0,0,0,0,-1,1126,764,0,0
-91,260,0,0,0,0,0,0,0,0,0,-1,1133,764,0,0
-84,260,0,0,0,0,0,0,0,0,0,-1,1140,764,0,0
-77,260,0,0,0,0,0,0,0,0,0,-1,1147,764,0,0
-70,260,0,0,0,0,0,0,0,0,0,-1,1154,764,0,0
-63,260,0,0,0,0,0,0,0,0,0,-1,1161,764,0,0
-56,260,0,0,0,0,0,0,0,0,0,-1,1168,764,0,0
-49,260,0,0,0,0,0,0,0,0,0,-1,1175,764,0,0
-42,260,0,0,0,0,0,0,0,0,0,-1,1182,764,0,0
-35,260,0,0,0,0,0,0,0,0,0,-1,1189,764,0,0
-28,260,0,0,0,0,0,0,0,0,0,-1,1196,764,0,0
-21,260,0,0,0,0,0,0,0,0,0,-1,1203,764,0,0
-14,260,0,0,0,0,0,0,0,0,0,-1,1210,764,0,0
-7,260,0,0,0,0,0,0,0,0,0,-1,1217,764,0,0
0,260,0,0,0,0,0,0,0,0,0,-1,1224,764,0,0
7,260,0,0,0,0,0,0,0,0,0,-1,1231,764,0,0
14,260,0,0,0,0,0,0,0,0,0,-1,1238,764,0,0
21,260,0,0,0,0,0,0,0,0,0,-1,1245,764,0,0
28,260,0,0,0,0,0,0,0,0,0,-1,1252,764,0,0
35,260,0,0,0,0,0,0,0,0,0,-1,1259,764,0,0
42,260,0,0,0,0,0,0,0,0,0,-1,1266,764,0,0
49,260,0,0,0,0,0,0,0,0,0,-1,1273,764,0,0
56,260,0,0,0,0,0,0,0,0,0,-1,1280,764,0,0
63,260,0,0,0,0,0,0,0,0,0,-1,1287,764,0,0
70,260,0,0,0,0,0,0,0,0,0,-1,1294,764,0,0
77,260,0,0,0,0,0,0,0,0,0,-1,1301,764,0,0
84,260,0,0,0,0,0,0,0,0,0,-1,1308,764,0,0
91,260,0,0,0,0,0,0,0,0,0,-1,1315,764,0,0
98,260,0,0,0,0,0,0,0,0,0,-1,1322,764,0,0
105,260,0,0,0,0,0,0,0,0,0,-1,1329,764,0,0
112,260,0,0,0,0,0,0,0,0,0,-1,1336,764,0,0
119,260,0,0,0,0,0,0,0,0,0,-1,1343,764,0,0
126,260,0,0,0,0,0,0,0,0,0,-1,1350,764,0,0
133,260,0,0,0,0,0,0,0,0,0,-1,1357,764,0,0
140,260,0,0,0,0,0,0,0,0,0,-1,1364,764,0,0
147,260,0,0,0,0,0,0,0,0,0,-1,1371,764,0,0
154,260,0,0,0,0,0,0,0,0,0,-1,1378,764,0,0
161,260,0,0,0,0,0,0,0,0,0,-1,1385,764,0,0
168,260,0,0,0,0,0,0,0,0,0,-1,1392,764,0,0
175,260,0,0,0,0,0,0,0,0,0,-1,1399,764,0,0
182,260,0,0,0,0,0,0,0,0,0,-1,1406,764,0,0
189,260,0,0,0,0,0,0,0,0,0,-1,1413,764,0,0
196,260,0,0,0,0,0,0,0,0,0,-1,1420,764,0,0
203,260,0,0,0,0,0,0,0,0,0,-1,1427,764,0,0
210,260,0,0,0,0,0,0,0,0,0,-1,1434,764,0,0
217,260,0,0,0,0,0,0,0,0,0,-1,1441,764,0,0
224,260,0,0,0,0,0,0,0,0,0,-1,1448,764,0,0
231,260,0,0,0,0,0,0,0,0,0,-1,1455,764,0,0
238,260,0,0,0,0,0,0,0,0,0,-1,1462,764,0,0
245,260,0,0,0,0,0,0,0,0,0,-1,1469,764,0,0
252,260,0,0,0,0,0,0,0,0,0,-1,1476,764,0,0
259,260,0,0,0,0,0,0,0,0,0,-1,1483,764,0,0
266,260,0,0,0,0,0,0,0,0,0,-1,1490,764,0,0
273,260,0,0,0,0,0,0,0,0,0,-1,1497,764,0,0
280,260,0,0,0,0,0,0,0,0,0,-1,1504,764,0,0
287,260,0,0,0,0,0,0,0,0,0,-1,1511,764,0,0
294,260,0,0,0,0,0,0,0,0,0,-1,1518,764,0,0
301,260,0,0,0,0,0,0,0,0,0,-1,1525,764,0,0
308,260,0,0,0,0,0,0,0,0,0,-1,1532,764,0,0
315,260,0,0,0,0,0,0,0,0,0,-1,1539,764,0,0
322,260,0,0,0,0,0,0,0,0,0,-1,1546,764,0,0
329,260,0,0,0,0,0,0,0,0,0,-1,1553,764,0,0
336,260,0,0,0,0,0,0,0,0,0,-1,1560,764,0,0
343,260,0,0,0,0,0,0,0,0,0,-1,1567,764,0,0
350,260,0,0,0,0,0,0,0,0,0,-1,1574,764,0,0
357,260,0,0,0,0,0,0,0,0,0,-1,1581,764,0,0
364,260,0,0,0,0,0,0,0,0,0,-1,1588,764,0,0
371,260,0,0,0,0,0,0,0,0,0,-1,1595,764,0,0
378,260,0,0,0,0,0,0,0,0,0,-1,1602,764,0,0
385,260,0,0,0,0,0,0,0,0,0,-1,1609,764,0,0
392,260,0,0,0,0,0,0,0,0,0,-1,1616,764,0,0
399,260,0,0,0,0,0,0,0,0,0,-1,1623,764,0,0
406,260,0,0,0,0,0,0,0,0,0,-1,1630,764,0,0
413,260,0,0,0,0,0,0,0,0,0,-1,1637,764,0,0
420,260,0,0,0,0,0,0,0,0,0,-1,1644,764,0,0
427,260,0,0,0,0,0,0,0,0,0,-1,1651,764,0,0
434,260,0,0,0,0,0,0,0,0,0,-1,1658,764,0,0
441,260,0,0,0,0,0,0,0,0,0,-1,1665,764,0,0
448,260,0,0,0,0,0,0,0,0,0,-1,1672,764,0,0
455,260,0,0,0,0,0,0,0,0,0,-1,1679,764,0,0
462,260,0,0,0,0,0,0,0,0,0,-1,1686,764,0,0
469,260,0,0,0,0,0,0,0,0,0,-1,1693,764,0,0
476,260,0,0,0,0,0,0,0,0,0,-1,1700,764,0,0
483,260,0,0,0,0,0,0,0,0,0,-1,1707,764,0,0
490,260,0,0,0,0,0,0,0,0,0,-1,1714,764,0,0
497,260,0,0,0,0,0,0,0,0,0,-1,1721,764,0,0
504,260,0,0,0,0,0,0,0,0,0,-1,1728,764,0,0
511,260,0,0,0,0,0,0,0,0,0,-1,1735,764,0,0
518,260,0,0,0,0,0,0,0,0,0,-1,1742,764,0,0
525,260,0,0,0,0,0,0,0,0,0,-1,1749,764,0,0
532,260,0,0,0,0,0,0,0,0,0,-1,1756,764,0,0
539,260,0,0,0,0,0,0,0,0,0,-1,1763,764,0,0
546,260,0,0,0,0,0,0,0,0,0,-1,1770,764,0,0
553,260,0,0,0,0,0,0,0,0,0,-1,1777,764,0,0
560,260,0,0,0,0,0,0,0,0,0,-1,1784,764,0,0
567,260,0,0,0,0,0,0,0,0,0,-1,1791,764,0,0
574,260,49.3806,2.55682,-0.00627612,0.0404402,0.00592352,0.0411796,-0.0070155,1.44662,0.0300657,0.0407964,1798,764,49.3806,-2.55685
581,260,49.0743,3.00769,-0.000823879,0.0367692,0.000275973,0.0367713,-0.000825904,1.56346,0.0247941,0.0477667,1805,764,49.0744,-3.00771
588,260,49.2637,2.91156,0.00175638,0.0308551,-0.00239613,0.0310511,0.00156039,-1.48918,0.0202007,0.0496624,1812,764,49.2636,-2.91154
595,260,49.382,2.61993,0.0025371,0.024426,-0.00339635,0.0249409,0.00202223,-1.42035,0.0159959,0.0426482,1819,764,49.382,-2.61996
602,260,49.3036,2.72028,0.00250029,0.0185639,-0.00363955,0.01935,0.00171415,-1.35806,0.0123683,0.04192,1826,764,49.3035,-2.72025
609,260,49.2189,2.83936,0,0,0,0,0,0,0,-1,1833,764,49.2189,-2.83936
616,260,46.0709,2.74542,0,0,0,0,0,0,0,-1,1840,764,46.0709,-2.74545
623,260,32.2268,3.25836,0,0,0,0,0,0,0,-1,1847,764,32.2268,-3.25833
630,260,24.3739,-0.536316,0,0,0,0,0,0,0,-1,1854,764,24.3739,0.536343
637,260,33.0411,-3.24335,0,0,0,0,0,0,0,-1,1861,764,33.0411,3.24332
644,260,32.9768,-2.66089,0.000146933,2.80253e-05,-0.0013448,0.0014336,-0.00125864,-0.763307,0.00155546,0.0317498,1868,764,32.9767,2.66091
651,260,32.8772,-2.05286,-0.000772016,-0.000212069,-0.000677979,0.00024147,-0.00122555,-0.981209,0.00090829,0.0152303,1875,764,32.8772,2.05285
658,260,32.8298,-1.45746,-0.000369364,-0.000496032,-0.000692614,0.000262805,-0.0011282,-0.739804,0.000853334,0.0163386,1882,764,32.8298,1.45746
665,260,32.8271,-0.857361,8.40022e-05,-0.000408271,-0.000515609,0.000409211,-0.000733479,-0.562708,0.000668529,0.0166658,1889,764,32.8272,0.857358
672,260,32.8104,-0.254211,0.000185489,-0.000123381,-0.000198416,0.000282488,-0.00022038,-0.454702,0.000291068,0.014362,1896,764,32.8105,0.254237
679,260,32.7699,0.330688,0.000354516,0.000592218,0.000242532,0.000743454,0.00020328,1.01322,0.000443681,0.0118605,1903,764,32.7699,-0.330711
686,260,32.7205,0.924255,0.000762728,0.00160152,0.000723576,0.00201846,0.000345789,1.04805,0.00124647,0.0156441,1910,764,32.7204,-0.924274
693,260,32.6541,1.46606,0.00138245,0.00279039,0.00143298,0.00368298,0.000489852,1.01371,0.00230942,0.0160836,1917,764,32.654,-1.46609
700,260,32.6403,2.06818,0.0021481,0.00409504,0.00231666,0.00563445,0.00060869,0.984298,0.00357074,0.0140722,1924,764,32.6402,-2.06817
707,260,32.652,2.66113,0.00308023,0.00557061,0.00345894,0.00800166,0.000649173,0.958172,0.00513175,0.0144372,1931,764,32.652,-2.66112
714,260,32.6814,3.2525,0.00442455,0.0074213,0.00510645,0.0112447,0.000601182,0.928106,0.00730431,0.0274747,1938,764,32.6814,-3.25252
721,260,32.7279,3.8548,0,0,0,0,0,0,0,-1,1945,764,32.7279,-3.85482
728,260,33.4344,5.75409,0,0,0,0,0,0,0,-1,1952,764,33.4345,-5.75408
735,260,26.9788,4.85681,0,0,0,0,0,0,0,-1,1959,764,26.9787,-4.85678
742,260,32.1443,1.73688,0,0,0,0,0,0,0,-1,1966,764,32.1442,-1.73688
749,260,33.6013,2.94733,0,0,0,0,0,0,0,-1,1973,764,33.6013,-2.9473
756,260,0,0,0,0,0,0,0,0,0,-1,1980,764,0,0
763,260,0,0,0,0,0,0,0,0,0,-1,1987,764,0,0
770,260,0,0,0,0,0,0,0,0,0,-1,1994,764,0,0
777,260,0,0,0,0,0,0,0,0,0,-1,2001,764,0,0
784,260,0,0,0,0,0,0,0,0,0,-1,2008,764,0,0
791,260,0,0,0,0,0,0,0,0,0,-1,2015,764,0,0
798,260,0,0,0,0,0,0,0,0,0,-1,2022,764,0,0
805,260,0,0,0,0,0,0,0,0,0,-1,2029,764,0,0
812,260,0,0,0,0,0,0,0,0,0,-1,2036,764,0,0
-700,253,0,0,0,0,0,0,0,0,0,-1,524,771,0,0
-693,253,0,0,0,0,0,0,0,0,0,-1,531,771,0,0
-686,253,0,0,0,0,0,0,0,0,0,-1,538,771,0,0
-679,253,0,0,0,0,0,0,0,0,0,-1,545,771,0,0
-672,253,0,0,0,0,0,0,0,0,0,-1,552,771,0,0
-665,253,0,0,0,0,0,0,0,0,0,-1,559,771,0,0
-658,253,0,0,0,0,0,0,0,0,0,-1,566,771,0,0
-651,253,0,0,0,0,0,0,0,0,0,-1,573,771,0,0
-644,253,0,0,0,0,0,0,0,0,0,-1,580,771,0,0
-637,253,-24.7979,-0.491394,0,0,0,0,0,0,0,-1,587,771,-24.7978,0.491371
-630,253,-25.156,0.540405,0,0,0,0,0,0,0,-1,594,771,-25.156,-0.540421
-623,253,-20.808,2.84314,0,0,0,0,0,0,0,-1,601,771,-20.8081,-2.84312
-616,253,-25.0877,2.96875,0,0,0,0,0,0,0,-1,608,771,-25.0877,-2.96876
-609,253,-24.28,2.08228,0,0,0,0,0,0,0,-1,615,771,-24.2801,-2.08227
-602,253,-22.4836,2.97498,0,0,0,0,0,0,0,-1,622,771,-22.4836,-2.97498
-595,253,-22.447,2.28265,0.013077,0.00429569,-0.0137607,0.0231305,-0.00575782,-0.630968,0.0176554,0.0478701,629,771,-22.447,-2.28265
-588,253,-22.3898,1.39264,0.00943791,0.00343269,-0.00987482,0.0167565,-0.00388593,-0.637806,0.0126666,0.0386155,636,771,-22.3898,-1.39267
-581,253,-22.4229,0.644226,0.00683856,0.0026132,-0.00701328,0.0120505,-0.00259871,-0.639101,0.00902546,0.0258438,643,771,-22.4229,-0.644226
-574,253,-22.4285,0.124634,0.00467198,0.00187049,-0.00470675,0.008182,-0.00163953,-0.64077,0.00607537,0.0201772,650,771,-22.4285,-0.124656
-567,253,-22.4639,-0.449463,0.00282722,0.00105553,-0.00281577,0.00489321,-0.00101045,-0.632999,0.00364593,0.0161216,657,771,-22.464,0.44948
-560,253,-22.4603,-0.96991,0.00124557,0.00020681,-0.001251,0.00208072,-0.000628338,-0.588639,0.00163729,0.013053,664,771,-22.4603,0.969905
-553,253,-22.4894,-1.53699,-0.000120851,-0.000750781,5.13843e-05,-0.000116687,-0.000754945,0.080859,0.000469262,0.0124476,671,771,-22.4895,1.53697
-546,253,-22.5135,-2.09558,-0.00119435,-0.00169034,0.0010946,-0.000320004,-0.00256469,0.673996,0.00161374,0.0114523,678,771,-22.5135,2.09556
-539,253,-22.5481,-2.66913,-0.0017311,-0.00297674,0.00198792,-0.000270717,-0.00443711,0.63359,0.00287209,0.0132051,685,771,-22.5481,2.66911
-532,253,-22.5328,-3.24231,-0.00192305,-0.00387437,0.00252007,-0.000196367,-0.00560105,0.600706,0.00367033,0.0181728,692,771,-22.5328,3.24231
-525,253,-22.5411,-3.84296,-0.00060397,-0.00333051,0.00197238,0.000430422,-0.0043649,0.483007,0.0030635,0.0158591,699,771,-22.5411,3.84294
-518,253,-22.6439,-4.41046,0.000330869,-0.00366815,0.00146499,0.000810115,-0.00414739,0.31616,0.0030708,0.0271923,706,771,-22.6439,4.41048
-511,253,-22.6955,-4.89935,0,0,0,0,0,0,0,-1,713,771,-22.6955,4.89934
-504,253,-19.317,-4.1723,0,0,0,0,0,0,0,-1,720,771,-19.317,4.1723
-497,253,-21.7737,-1.76837,0,0,0,0,0,0,0,-1,727,771,-21.7738,1.7684
-490,253,-29.7674,0.438354,0,0,0,0,0,0,0,-1,734,771,-29.7674,-0.438339
-483,253,-37.6097,1.95288,0,0,0,0,0,0,0,-1,741,771,-37.6097,-1.9529
-476,253,-37.04,1.76233,-0.00265169,-0.00783461,-0.00521436,0.000579671,-0.011066,-0.554782,0.00757793,0.0484582,748,771,-37.04,-1.76231
-469,253,-36.6197,1.32202,-0.00569354,-0.00990129,-0.00692269,-0.000562087,-0.0150327,-0.637878,0.00983982,0.0431152,755,771,-36.6197,-1.32201
-462,253,-36.8296,0.987366,-0.0108711,-0.0126023,-0.00859132,-0.00310188,-0.0203715,-0.735189,0.0126742,0.0430245,762,771,-36.8296,-0.987366
-455,253,-37.0098,0.953369,-0.019102,-0.0147931,-0.0103182,-0.00640687,-0.0274882,-0.888319,0.0166071,0.0336523,769,771,-37.0098,-0.953354
-448,253,0,0,0,0,0,0,0,0,0,-1,776,771,0,0
-441,253,0,0,0,0,0,0,0,0,0,-1,783,771,0,0
-434,253,0,0,0,0,0,0,0,0,0,-1,790,771,0,0
-427,253,0,0,0,0,0,0,0,0,0,-1,797,771,0,0
-420,253,0,0,0,0,0,0,0,0,0,-1,804,771,0,0
-413,253,0,0,0,0,0,0,0,0,0,-1,811,771,0,0
-406,253,0,0,0,0,0,0,0,0,0,-1,818,771,0,0
-399,253,0,0,0,0,0,0,0,0,0,-1,825,771,0,0
-392,253,0,0,0,0,0,0,0,0,0,-1,832,771,0,0
-385,253,0,0,0,0,0,0,0,0,0,-1,839,771,0,0
-378,253,0,0,0,0,0,0,0,0,0,-1,846,771,0,0
-371,253,0,0,0,0,0,0,0,0,0,-1,853,771,0,0
-364,253,0,0,0,0,0,0,0,0,0,-1,860,771,0,0
-357,253,0,0,0,0,0,0,0,0,0,-1,867,771,0,0
-350,253,0,0,0,0,0,0,0,0,0,-1,874,771,0,0
-343,253,0,0,0,0,0,0,0,0,0,-1,881,771,0,0
-336,253,0,0,0,0,0,0,0,0,0,-1,888,771,0,0
-329,253,0,0,0,0,0,0,0,0,0,-1,895,771,0,0
-322,253,0,0,0,0,0,0,0,0,0,-1,902,771,0,0
-315,253,0,0,0,0,0,0,0,0,0,-1,909,771,0,0
-308,253,0,0,0,0,0,0,0,0,0,-1,916,771,0,0
-301,253,0,0,0,0,0,0,0,0,0,-1,923,771,0,0
-294,253,0,0,0,0,0,0,0,0,0,-1,930,771,0,0
-287,253,0,0,0,0,0,0,0,0,0,-1,937,771,0,0
-280,253,0,0,0,0,0,0,0,0,0,-1,944,771,0,0
-273,253,0,0,0,0,0,0,0,0,0,-1,951,771,0,0
-266,253,0,0,0,0,0,0,0,0,0,-1,958,771,0,0
-259,253,0,0,0,0,0,0,0,0,0,-1,965,771,0,0
-252,253,0,0,0,0,0,0,0,0,0,-1,972,771,0,0
-245,253,0,0,0,0,0,0,0,0,0,-1,979,771,0,0
-238,253,0,0,0,0,0,0,0,0,0,-1,986,771,0,0
-231,253,0,0,0,0,0,0,0,0,0,-1,993,771,0,0
-224,253,0,0,0,0,0,0,0,0,0,-1,1000,771,0,0
-217,253,0,0,0,0,0,0,0,0,0,-1,1007,771,0,0
-210,253,0,0,0,0,0,0,0,0,0,-1,1014,771,0,0
-203,253,0,0,0,0,0,0,0,0,0,-1,1021,771,0,0
-196,253,0,0,0,0,0,0,0,0,0,-1,1028,771,0,0
-189,253,0,0,0,0,0,0,0,0,0,-1,1035,771,0,0
-182,253,0,0,0,0,0,0,0,0,0,-1,1042,771,0,0
-175,253,0,0,0,0,0,0,0,0,0,-1,1049,771,0,0
-168,253,0,0,0,0,0,0,0,0,0,-1,1056,771,0,0
-161,253,0,0,0,0,0,0,0,0,0,-1,1063,771,0,0
-154,253,0,0,0,0,0,0,0,0,0,-1,1070,771,0,0
-147,253,0,0,0,0,0,0,0,0,0,-1,1077,771,0,0
-140,253,0,0,0,0,0,0,0,0,0,-1,1084,771,0,0
-133,253,0,0,0,0,0,0,0,0,0,-1,1091,771,0,0
-126,253,0,0,0,0,0,0,0,0,0,-1,1098,771,0,0
-119,253,0,0,0,0,0,0,0,0,0,-1,1105,771,0,0
-112,253,0,0,0,0,0,0,0,0,0,-1,1112,771,0,0
-105,253,0,0,0,0,0,0,0,0,0,-1,1119,771,0,0
-98,253,0,0,0,0,0,0,0,0,0,-1,1126,771,0,0
-91,253,0,0,0,0,0,0,0,0,0,-1,1133,771,0,0
-84,253,0,0,0,0,0,0,0,0,0,-1,1140,771,0,0
-77,253,0,0,0,0,0,0,0,0,0,-1,1147,771,0,0
-70,253,0,0,0,0,0,0,0,0,0,-1,1154,771,0,0
-63,253,0,0,0,0,0,0,0,0,0,-1,1161,771,0,0
-56,253,0,0,0,0,0,0,0,0,0,-1,1168,771,0,0
-49,253,0,0,0,0,0,0,0,0,0,-1,1175,771,0,0
-42,253,0,0,0,0,0,0,0,0,0,-1,1182,771,0,0
-35,253,0,0,0,0,0,0,0,0,0,-1,1189,771,0,0
-28,253,0,0,0,0,0,0,0,0,0,-1,1196,771,0,0
-21,253,0,0,0,0,0,0,0,0,0,-1,1203,771,0,0
-14,253,0,0,0,0,0,0,0,0,0,-1,1210,771,0,0
-7,253,0,0,0,0,0,0,0,0,0,-1,1217,771,0,0
0,253,0,0,0,0,0,0,0,0,0,-1,1224,771,0,0
7,253,0,0,0,0,0,0,0,0,0,-1,1231,771,0,0
14,253,0,0,0,0,0,0,0,0,0,-1,1238,771,0,0
21,253,0,0,0,0,0,0,0,0,0,-1,1245,771,0,0
28,253,0,0,0,0,0,0,0,0,0,-1,1252,771,0,0
35,253,0,0,0,0,0,0,0,0,0,-1,1259,771,0,0
42,253,0,0,0,0,0,0,0,0,0,-1,1266,771,0,0
49,253,0,0,0,0,0,0,0,0,0,-1,1273,771,0,0
56,253,0,0,0,0,0,0,0,0,0,-1,1280,771,0,0
63,253,0,0,0,0,0,0,0,0,0,-1,1287,771,0,0
70,253,0,0,0,0,0,0,0,0,0,-1,1294,771,0,0
77,253,0,0,0,0,0,0,0,0,0,-1,1301,771,0,0
84,253,0,0,0,0,0,0,0,0,0,-1,1308,771,0,0
91,253,0,0,0,0,0,0,0,0,0,-1,1315,771,0,0
98,253,0,0,0,0,0,0,0,0,0,-1,1322,771,0,0
105,253,0,0,0,0,0,0,0,0,0,-1,1329,771,0,0
112,253,0,0,0,0,0,0,0,0,0,-1,1336,771,0,0
119,253,0,0,0,0,0,0,0,0,0,-1,1343,771,0,0
126,253,0,0,0,0,0,0,0,0,0,-1,1350,771,0,0
133,253,0,0,0,0,0,0,0,0,0,-1,1357,771,0,0
140,253,0,0,0,0,0,0,0,0,0,-1,1364,771,0,0
147,253,0,0,0,0,0,0,0,0,0,-1,1371,771,0,0
154,253,0,0,0,0,0,0,0,0,0,-1,1378,771,0,0
161,253,0,0,0,0,0,0,0,0,0,-1,1385,771,0,0
168,253,0,0,0,0,0,0,0,0,0,-1,1392,771,0,0
175,253,0,0,0,0,0,0,0,0,0,-1,1399,771,0,0
182,253,0,0,0,0,0,0,0,0,0,-1,1406,771,0,0
189,253,0,0,0,0,0,0,0,0,0,-1,1413,771,0,0
196,253,0,0,0,0,0,0,0,0,0,-1,1420,771,0,0
203,253,0,0,0,0,0,0,0,0,0,-1,1427,771,0,0
210,253,0,0,0,0,0,0,0,0,0,-1,1434,771,0,0
217,253,0,0,0,0,0,0,0,0,0,-1,1441,771,0,0
224,253,0,0,0,0,0,0,0,0,0,-1,1448,771,0,0
231,253,0,0,0,0,0,0,0,0,0,-1,1455,771,0,0
238,253,0,0,0,0,0,0,0,0,0,-1,1462,771,0,0
245,253,0,0,0,0,0,0,0,0,0,-1,1469,771,0,0
252,253,0,0,0,0,0,0,0,0,0,-1,1476,771,0,0
259,253,0,0,0,0,0,0,0,0,0,-1,1483,771,0,0
266,253,0,0,0,0,0,0,0,0,0,-1,1490,771,0,0
273,253,0,0,0,0,0,0,0,0,0,-1,1497,771,0,0
280,253,0,0,0,0,0,0,0,0,0,-1,1504,771,0,0
287,253,0,0,0,0,0,0,0,0,0,-1,1511,771,0,0
294,253,0,0,0,0,0,0,0,0,0,-1,1518,771,0,0
301,253,0,0,0,0,0,0,0,0,0,-1,1525,771,0,0
308,253,0,0,0,0,0,0,0,0,0,-1,1532,771,0,0
315,253,0,0,0,0,0,0,0,0,0,-1,1539,771,0,0
322,253,0,0,0,0,0,0,0,0,0,-1,1546,771,0,0
329,253,0,0,0,0,0,0,0,0,0,-1,1553,771,0,0
336,253,0,0,0,0,0,0,0,0,0,-1,1560,771,0,0
343,253,0,0,0,0,0,0,0,0,0,-1,1567,771,0,0
350,253,0,0,0,0,0,0,0,0,0,-1,1574,771,0,0
357,253,0,0,0,0,0,0,0,0,0,-1,1581,771,0,0
364,253,0,0,0,0,0,0,0,0,0,-1,1588,771,0,0
371,253,0,0,0,0,0,0,0,0,0,-1,1595,771,0,0
378,253,0,0,0,0,0,0,0,0,0,-1,1602,771,0,0
385,253,0,0,0,0,0,0,0,0,0,-1,1609,771,0,0
392,253,0,0,0,0,0,0,0,0,0,-1,1616,771,0,0
399,253,0,0,0,0,0,0,0,0,0,-1,1623,771,0,0
406,253,0,0,0,0,0,0,0,0,0,-1,1630,771,0,0
413,253,0,0,0,0,0,0,0,0,0,-1,1637,771,0,0
420,253,0,0,0,0,0,0,0,0,0,-1,1644,771,0,0
427,253,0,0,0,0,0,0,0,0,0,-1,1651,771,0,0
434,253,0,0,0,0,0,0,0,0,0,-1,1658,771,0,0
441,253,0,0,0,0,0,0,0,0,0,-1,1665,771,0,0
448,253,0,0,0,0,0,0,0,0,0,-1,1672,771,0,0
455,253,0,0,0,0,0,0,0,0,0,-1,1679,771,0,0
462,253,0,0,0,0,0,0,0,0,0,-1,1686,771,0,0
469,253,0,0,0,0,0,0,0,0,0,-1,1693,771,0,0
476,253,0,0,0,0,0,0,0,0,0,-1,1700,771,0,0
483,253,0,0,0,0,0,0,0,0,0,-1,1707,771,0,0
490,253,0,0,0,0,0,0,0,0,0,-1,1714,771,0,0
497,253,0,0,0,0,0,0,0,0,0,-1,1721,771,0,0
504,253,0,0,0,0,0,0,0,0,0,-1,1728,771,0,0
511,253,0,0,0,0,0,0,0,0,0,-1,1735,771,0,0
518,253,0,0,0,0,0,0,0,0,0,-1,1742,771,0,0
525,253,0,0,0,0,0,0,0,0,0,-1,1749,771,0,0
532,253,0,0,0,0,0,0,0,0,0,-1,1756,771,0,0
539,253,0,0,0,0,0,0,0,0,0,-1,1763,771,0,0
546,253,0,0,0,0,0,0,0,0,0,-1,1770,771,0,0
553,253,0,0,0,0,0,0,0,0,0,-1,1777,771,0,0
560,253,0,0,0,0,0,0,0,0,0,-1,1784,771,0,0
567,253,0,0,0,0,0,0,0,0,0,-1,1791,771,0,0
574,253,49.3246,2.38416,-0.00706817,0.0268744,0.00710681,0.0283024,-0.0084961,1.37251,0.0222478,0.0366192,1798,771,49.3246,-2.38418
581,253,49.3684,2.43732,-0.00160292,0.0271496,0.000869221,0.0271759,-0.00162917,1.5406,0.018684,0.03917,1805,771,49.3685,-2.4373
588,253,49.4417,2.60309,0.00125522,0.0246633,-0.0022523,0.024878,0.00104047,-1.47574,0.0162496,0.0443772,1812,771,49.4416,-2.6031
595,253,49.5228,2.63733,0.00208399,0.0202562,-0.00338349,0.0208657,0.00147446,-1.39256,0.013446,0.0451065,1819,771,49.5228,-2.63731
602,253,49.3015,2.6286,0.00203057,0.0157635,-0.00362055,0.0166596,0.00113451,-1.32818,0.0107482,0.0451456,1826,771,49.3015,-2.6286
609,253,49.1479,2.60638,0.00179015,0.0119432,-0.00332535,0.0129354,0.000797979,-1.28084,0.00837029,0.0430108,1833,771,49.1479,-2.60639
616,253,48.9897,2.68323,0,0,0,0,0,0,0,-1,1840,771,48.9898,-2.68324
623,253,48.6895,1.55469,0,0,0,0,0,0,0,-1,1847,771,48.6894,-1.55471
630,253,33.561,2.96838,0,0,0,0,0,0,0,-1,1854,771,33.561,-2.96836
637,253,22.3192,-0.604004,0,0,0,0,0,0,0,-1,1861,771,22.3192,0.603986
644,253,33.6852,-2.62726,0,0,0,0,0,0,0,-1,1868,771,33.6851,2.62723
651,253,33.4318,-1.96826,-0.00105738,0.000197267,-0.000601298,0.000438906,-0.00129902,-1.18869,0.00104355,0.0290771,1875,771,33.4318,1.96829
658,253,33.4058,-1.42163,-0.00072909,-0.000158394,-0.00066551,0.000280362,-0.00116785,-0.987926,0.000886915,0.0203114,1882,771,33.4058,1.42162
665,253,33.3612,-0.83429,-0.000276902,-0.000274476,-0.000583808,0.00030812,-0.000859499,-0.786437,0.000698731,0.0220213,1889,771,33.3612,0.834281
672,253,33.3352,-0.237244,-0.000172771,-0.000289,-0.000356216,0.00013004,-0.000591811,-0.704539,0.000444277,0.0169554,1896,771,33.3353,0.23725
679,253,33.3639,0.383972,-2.01552e-05,0.000162035,-5.79452e-06,0.000162219,-2.03393e-05,-1.53903,0.000115524,0.0132886,1903,771,33.3638,-0.383986
686,253,33.3185,0.953308,0.000417788,0.000968986,0.00035285,0.00114111,0.000245662,1.11694,0.000693512,0.0200296,1910,771,33.3185,-0.953331
693,253,33.2408,1.51202,0.00110564,0.00199411,0.00096227,0.00260974,0.000490016,1.00165,0.00160167,0.0194074,1917,771,33.2408,-1.51199
700,253,33.2174,2.0838,0.00190893,0.00312586,0.00175367,0.00437362,0.000661172,0.952383,0.00272226,0.0157287,1924,771,33.2174,-2.08383
707,253,33.2616,2.67487,0.00280338,0.00436049,0.00268212,0.00637477,0.000789107,0.926655,0.00401276,0.0146987,1931,771,33.2616,-2.67487
714,253,33.2587,3.25787,0.00395022,0.00584901,0.00396808,0.00897969,0.000819539,0.90282,0.00573284,0.0207075,1938,771,33.2587,-3.25787
721,253,33.2703,3.95892,0.00503534,0.00734525,0.00542319,0.0117351,0.000645487,0.890314,0.00761736,0.0380117,1945,771,33.2703,-3.95894
728,253,33.3103,4.65076,0,0,0,0,0,0,0,-1,1952,771,33.3103,-4.65077
735,253,34.5735,6.15118,0,0,0,0,0,0,0,-1,1959,771,34.5734,-6.1512
742,253,31.0571,5.7337,0,0,0,0,0,0,0,-1,1966,771,31.0571,-5.73373
749,253,33.7754,3.21533,0,0,0,0,0,0,0,-1,1973,771,33.7754,-3.21533
756,253,0,0,0,0,0,0,0,0,0,-1,1980,771,0,0
763,253,0,0,0,0,0,0,0,0,0,-1,1987,771,0,0
770,253,0,0,0,0,0,0,0,0,0,-1,1994,771,0,0
777,253,0,0,0,0,0,0,0,0,0,-1,2001,771,0,0
784,253,0,0,0,0,0,0,0,0,0,-1,2008,771,0,0
791,253,0,0,0,0,0,0,0,0,0,-1,2015,771,0,0
798,253,0,0,0,0,0,0,0,0,0,-1,2022,771,0,0
805,253,0,0,0,0,0,0,0,0,0,-1,2029,771,0,0
812,253,0,0,0,0,0,0,0,0,0,-1,2036,771,0,0
-700,246,0,0,0,0,0,0,0,0,0,-1,524,778,0,0
-693,246,0,0,0,0,0,0,0,0,0,-1,531,778,0,0
-686,246,0,0,0,0,0,0,0,0,0,-1,538,778,0,0
-679,246,0,0,0,0,0,0,0,0,0,-1,545,778,0,0
-672,246,0,0,0,0,0,0,0,0,0,-1,552,778,0,0
-665,246,0,0,0,0,0,0,0,0,0,-1,559,778,0,0
-658,246,0,0,0,0,0,0,0,0,0,-1,566,778,0,0
-651,246,0,0,0,0,0,0,0,0,0,-1,573,778,0,0
-644,246,0,0,0,0,0,0,0,0,0,-1,580,778,0,0
-637,246,-24.1234,0.130432,0,0,0,0,0,0,0,-1,587,778,-24.1234,-0.130438
-630,246,-24.0781,1.38916,0,0,0,0,0,0,0,-1,594,778,-24.0781,-1.38913
-623,246,-23.9183,2.49573,0,0,0,0,0,0,0,-1,601,778,-23.9183,-2.49575
-616,246,-26.8182,2.0705,0,0,0,0,0,0,0,-1,608,778,-26.8182,-2.07052
-609,246,-26.0615,1.16388,0,0,0,0,0,0,0,-1,615,778,-26.0615,-1.16388
-602,246,-22.8808,3.12299,0,0,0,0,0,0,0,-1,622,778,-22.8808,-3.12301
-595,246,-22.9239,2.34351,0.0109283,0.00532242,-0.0121145,0.0205599,-0.00430917,-0.671714,0.015346,0.0462971,629,778,-22.9239,-2.34351
-588,246,-22.9043,1.4035,0.00809459,0.00407804,-0.00893216,0.0152415,-0.00306883,-0.674819,0.0113234,0.0299706,636,778,-22.9043,-1.40352
-581,246,-23.004,0.723694,0.00592441,0.00297087,-0.00642052,0.0110358,-0.00214053,-0.67236,0.00816478,0.0178413,643,778,-23.004,-0.723706
-574,246,-22.9885,0.107544,0.0040437,0.00197458,-0.00430612,0.0074378,-0.00141952,-0.667506,0.00549319,0.0185184,650,778,-22.9884,-0.107526
-567,246,-23.0128,-0.453369,0.00225346,0.000949168,-0.00241925,0.00410692,-0.000904294,-0.653745,0.0030839,0.022663,657,778,-23.0128,0.453385
-560,246,-23.0667,-0.982178,0.000639915,-3.81711e-05,-0.000845067,0.00121142,-0.000609671,-0.594627,0.00107037,0.0181497,664,778,-23.0667,0.982195
-553,246,-23.0734,-1.495,-0.000740717,-0.0010823,0.000472044,-0.000409517,-0.0014135,0.611819,0.000839797,0.0136966,671,778,-23.0734,1.49497
-546,246,-23.0863,-2.04034,-0.00180358,-0.00208444,0.0014961,-0.000441335,-0.00344669,0.738603,0.00216572,0.0112829,678,778,-23.0863,2.04032
-539,246,-23.0988,-2.62933,-0.00223814,-0.00346918,0.00225237,-0.000518706,-0.00518861,0.652017,0.00329979,0.0114274,685,778,-23.0987,2.62932
-532,246,-23.0893,-3.23541,-0.00236817,-0.00423608,0.00262314,-0.000517678,-0.00608657,0.614374,0.00389663,0.014244,692,778,-23.0893,3.2354
-525,246,-23.1398,-3.78418,-0.00105777,-0.00362848,0.00198358,2.05031e-05,-0.00470675,0.497916,0.00314469,0.024862,699,778,-23.1399,3.78418
-518,246,-23.3821,-4.15417,-0.000128572,-0.00379373,0.00142876,0.000362573,-0.00428487,0.331103,0.00298479,0.0390491,706,778,-23.3822,4.15415
-511,246,-23.7492,-4.40198,0,0,0,0,0,0,0,-1,713,778,-23.7492,4.40199
-504,246,-20.0047,-2.88214,0,0,0,0,0,0,0,-1,720,778,-20.0047,2.88216
-497,246,-29.4669,1.82684,0,0,0,0,0,0,0,-1,727,778,-29.4669,-1.82687
-490,246,-36.559,1.71515,0,0,0,0,0,0,0,-1,734,778,-36.559,-1.71513
-483,246,-37.7401,1.21631,0,0,0,0,0,0,0,-1,741,778,-37.7401,-1.2163
-476,246,-37.1334,1.39453,-0.00122165,-0.00556481,-0.00516513,0.00220984,-0.00899629,-0.586401,0.00685394,0.0467727,748,778,-37.1334,-1.39454
-469,246,-36.704,1.2597,-0.00378097,-0.00633657,-0.00684911,0.00190852,-0.0120261,-0.693176,0.00872342,0.0397465,755,778,-36.704,-1.25972
-462,246,-36.9007,1.03601,-0.00883854,-0.00718492,-0.00840213,0.000430982,-0.0164544,-0.834443,0.0111161,0.0459514,762,778,-36.9007,-1.036
-455,246,0,0,0,0,0,0,0,0,0,-1,769,778,0,0
-448,246,0,0,0,0,0,0,0,0,0,-1,776,778,0,0
-441,246,0,0,0,0,0,0,0,0,0,-1,783,778,0,0
-434,246,0,0,0,0,0,0,0,0,0,-1,790,778,0,0
-427,246,0,0,0,0,0,0,0,0,0,-1,797,778,0,0
-420,246,0,0,0,0,0,0,0,0,0,-1,804,778,0,0
-413,246,0,0,0,0,0,0,0,0,0,-1,811,778,0,0
-406,246,0,0,0,0,0,0,0,0,0,-1,818,778,0,0
-399,246,0,0,0,0,0,0,0,0,0,-1,825,778,0,0
-392,246,0,0,0,0,0,0,0,0,0,-1,832,778,0,0
-385,246,0,0,0,0,0,0,0,0,0,-1,839,778,0,0
-378,246,0,0,0,0,0,0,0,0,0,-1,846,778,0,0
-371,246,0,0,0,0,0,0,0,0,0,-1,853,778,0,0
-364,246,0,0,0,0,0,0,0,0,0,-1,860,778,0,0
-357,246,0,0,0,0,0,0,0,0,0,-1,867,778,0,0
-350,246,0,0,0,0,0,0,0,0,0,-1,874,778,0,0
-343,246,0,0,0,0,0,0,0,0,0,-1,881,778,0,0
-336,246,0,0,0,0,0,0,0,0,0,-1,888,778,0,0
-329,246,0,0,0,0,0,0,0,0,0,-1,895,778,0,0
-322,246,0,0,0,0,0,0,0,0,0,-1,902,778,0,0
-315,246,0,0,0,0,0,0,0,0,0,-1,909,778,0,0
-308,246,0,0,0,0,0,0,0,0,0,-1,916,778,0,0
-301,246,0,0,0,0,0,0,0,0,0,-1,923,778,0,0
-294,246,0,0,0,0,0,0,0,0,0,-1,930,778,0,0
-287,246,0,0,0,0,0,0,0,0,0,-1,937,778,0,0
-280,246,0,0,0,0,0,0,0,0,0,-1,944,778,0,0
-273,246,0,0,0,0,0,0,0,0,0,-1,951,778,0,0
-266,246,0,0,0,0,0,0,0,0,0,-1,958,778,0,0
-259,246,0,0,0,0,0,0,0,0,0,-1,965,778,0,0
-252,246,0,0,0,0,0,0,0,0,0,-1,972,778,0,0
-245,246,0,0,0,0,0,0,0,0,0,-1,979,778,0,0
-238,246,0,0,0,0,0,0,0,0,0,-1,986,778,0,0
-231,246,0,0,0,0,0,0,0,0,0,-1,993,778,0,0
-224,246,0,0,0,0,0,0,0,0,0,-1,1000,778,0,0
-217,246,0,0,0,0,0,0,0,0,0,-1,1007,778,0,0
-210,246,0,0,0,0,0,0,0,0,0,-1,1014,778,0,0
-203,246,0,0,0,0,0,0,0,0,0,-1,1021,778,0,0
-196,246,0,0,0,0,0,0,0,0,0,-1,1028,778,0,0
-189,246,0,0,0,0,0,0,0,0,0,-1,1035,778,0,0
-182,246,0,0,0,0,0,0,0,0,0,-1,1042,778,0,0
-175,246,0,0,0,0,0,0,0,0,0,-1,1049,778,0,0
-168,246,0,0,0,0,0,0,0,0,0,-1,1056,778,0,0
-161,246,0,0,0,0,0,0,0,0,0,-1,1063,778,0,0
-154,246,0,0,0,0,0,0,0,0,0,-1,1070,778,0,0
-147,246,0,0,0,0,0,0,0,0,0,-1,1077,778,0,0
-140,246,0,0,0,0,0,0,0,0,0,-1,1084,778,0,0
-133,246,0,0,0,0,0,0,0,0,0,-1,1091,778,0,0
-126,246,0,0,0,0,0,0,0,0,0,-1,1098,778,0,0
-119,246,0,0,0,0,0,0,0,0,0,-1,1105,778,0,0
-112,246,0,0,0,0,0,0,0,0,0,-1,1112,778,0,0
-105,246,0,0,0,0,0,0,0,0,0,-1,1119,778,0,0
-98,246,0,0,0,0,0,0,0,0,0,-1,1126,778,0,0
-91,246,0,0,0,0,0,0,0,0,0,-1,1133,778,0,0
-84,246,0,0,0,0,0,0,0,0,0,-1,1140,778,0,0
-77,246,0,0,0,0,0,0,0,0,0,-1,1147,778,0,0
-70,246,0,0,0,0,0,0,0,0,0,-1,1154,778,0,0
-63,246,0,0,0,0,0,0,0,0,0,-1,1161,778,0,0
-56,246,0,0,0,0,0,0,0,0,0,-1,1168,778,0,0
-49,246,0,0,0,0,0,0,0,0,0,-1,1175,778,0,0
-42,246,0,0,0,0,0,0,0,0,0,-1,1182,778,0,0
-35,246,0,0,0,0,0,0,0,0,0,-1,1189,778,0,0
-28,246,0,0,0,0,0,0,0,0,0,-1,1196,778,0,0
-21,246,0,0,0,0,0,0,0,0,0,-1,1203,778,0,0
-14,246,0,0,0,0,0,0,0,0,0,-1,1210,778,0,0
-7,246,0,0,0,0,0,0,0,0,0,-1,1217,778,0,0
0,246,0,0,0,0,0,0,0,0,0,-1,1224,778,0,0
7,246,0,0,0,0,0,0,0,0,0,-1,1231,778,0,0
14,246,0,0,0,0,0,0,0,0,0,-1,1238,778,0,0
21,246,0,0,0,0,0,0,0,0,0,-1,1245,778,0,0
28,246,0,0,0,0,0,0,0,0,0,-1,1252,778,0,0
35,246,0,0,0,0,0,0,0,0,0,-1,1259,778,0,0
42,246,0,0,0,0,0,0,0,0,0,-1,1266,778,0,0
49,246,0,0,0,0,0,0,0,0,0,-1,1273,778,0,0
56,246,0,0,0,0,0,0,0,0,0,-1,1280,778,0,0
63,246,0,0,0,0,0,0,0,0,0,-1,1287,778,0,0
70,246,0,0,0,0,0,0,0,0,0,-1,1294,778,0,0
77,246,0,0,0,0,0,0,0,0,0,-1,1301,778,0,0
84,246,0,0,0,0,0,0,0,0,0,-1,1308,778,0,0
91,246,0,0,0,0,0,0,0,0,0,-1,1315,778,0,0
98,246,0,0,0,0,0,0,0,0,0,-1,1322,778,0,0
105,246,0,0,0,0,0,0,0,0,0,-1,1329,778,0,0
112,246,0,0,0,0,0,0,0,0,0,-1,1336,778,0,0
119,246,0,0,0,0,0,0,0,0,0,-1,1343,778,0,0
126,246,0,0,0,0,0,0,0,0,0,-1,1350,778,0,0
133,246,0,0,0,0,0,0,0,0,0,-1,1357,778,0,0
140,246,0,0,0,0,0,0,0,0,0,-1,1364,778,0,0
147,246,0,0,0,0,0,0,0,0,0,-1,1371,778,0,0
154,246,0,0,0,0,0,0,0,0,0,-1,1378,778,0,0
161,246,0,0,0,0,0,0,0,0,0,-1,1385,778,0,0
168,246,0,0,0,0,0,0,0,0,0,-1,1392,778,0,0
175,246,0,0,0,0,0,0,0,0,0,-1,1399,778,0,0
182,246,0,0,0,0,0,0,0,0,0,-1,1406,778,0,0
189,246,0,0,0,0,0,0,0,0,0,-1,1413,778,0,0
196,246,0,0,0,0,0,0,0,0,0,-1,1420,778,0,0
203,246,0,0,0,0,0,0,0,0,0,-1,1427,778,0,0
210,246,0,0,0,0,0,0,0,0,0,-1,1434,778,0,0
217,246,0,0,0,0,0,0,0,0,0,-1,1441,778,0,0
224,246,0,0,0,0,0,0,0,0,0,-1,1448,778,0,0
231,246,0,0,0,0,0,0,0,0,0,-1,1455,778,0,0
238,246,0,0,0,0,0,0,0,0,0,-1,1462,778,0,0
245,246,0,0,0,0,0,0,0,0,0,-1,1469,778,0,0
252,246,0,0,0,0,0,0,0,0,0,-1,1476,778,0,0
259,246,0,0,0,0,0,0,0,0,0,-1,1483,778,0,0
266,246,0,0,0,0,0,0,0,0,0,-1,1490,778,0,0
273,246,0,0,0,0,0,0,0,0,0,-1,1497,778,0,0
280,246,0,0,0,0,0,0,0,0,0,-1,1504,778,0,0
287,246,0,0,0,0,0,0,0,0,0,-1,1511,778,0,0
294,246,0,0,0,0,0,0,0,0,0,-1,1518,778,0,0
301,246,0,0,0,0,0,0,0,0,0,-1,1525,778,0,0
308,246,0,0,0,0,0,0,0,0,0,-1,1532,778,0,0
315,246,0,0,0,0,0,0,0,0,0,-1,1539,778,0,0
322,246,0,0,0,0,0,0,0,0,0,-1,1546,778,0,0
329,246,0,0,0,0,0,0,0,0,0,-1,1553,778,0,0
336,246,0,0,0,0,0,0,0,0,0,-1,1560,778,0,0
343,246,0,0,0,0,0,0,0,0,0,-1,1567,778,0,0
350,246,0,0,0,0,0,0,0,0,0,-1,1574,778,0,0
357,246,0,0,0,0,0,0,0,0,0,-1,1581,778,0,0
364,246,0,0,0,0,0,0,0,0,0,-1,1588,778,0,0
371,246,0,0,0,0,0,0,0,0,0,-1,1595,778,0,0
378,246,0,0,0,0,0,0,0,0,0,-1,1602,778,0,0
385,246,0,0,0,0,0,0,0,0,0,-1,1609,778,0,0
392,246,0,0,0,0,0,0,0,0,0,-1,1616,778,0,0
399,246,0,0,0,0,0,0,0,0,0,-1,1623,778,0,0
406,246,0,0,0,0,0,0,0,0,0,-1,1630,778,0,0
413,246,0,0,0,0,0,0,0,0,0,-1,1637,778,0,0
420,246,0,0,0,0,0,0,0,0,0,-1,1644,778,0,0
427,246,0,0,0,0,0,0,0,0,0,-1,1651,778,0,0
434,246,0,0,0,0,0,0,0,0,0,-1,1658,778,0,0
441,246,0,0,0,0,0,0,0,0,0,-1,1665,778,0,0
448,246,0,0,0,0,0,0,0,0,0,-1,1672,778,0,0
455,246,0,0,0,0,0,0,0,0,0,-1,1679,778,0,0
462,246,0,0,0,0,0,0,0,0,0,-1,1686,778,0,0
469,246,0,0,0,0,0,0,0,0,0,-1,1693,778,0,0
476,246,0,0,0,0,0,0,0,0,0,-1,1700,778,0,0
483,246,0,0,0,0,0,0,0,0,0,-1,1707,778,0,0
490,246,0,0,0,0,0,0,0,0,0,-1,1714,778,0,0
497,246,0,0,0,0,0,0,0,0,0,-1,1721,778,0,0
504,246,0,0,0,0,0,0,0,0,0,-1,1728,778,0,0
511,246,0,0,0,0,0,0,0,0,0,-1,1735,778,0,0
518,246,0,0,0,0,0,0,0,0,0,-1,1742,778,0,0
525,246,0,0,0,0,0,0,0,0,0,-1,1749,778,0,0
532,246,0,0,0,0,0,0,0,0,0,-1,1756,778,0,0
539,246,0,0,0,0,0,0,0,0,0,-1,1763,778,0,0
546,246,0,0,0,0,0,0,0,0,0,-1,1770,778,0,0
553,246,0,0,0,0,0,0,0,0,0,-1,1777,778,0,0
560,246,0,0,0,0,0,0,0,0,0,-1,1784,778,0,0
567,246,0,0,0,0,0,0,0,0,0,-1,1791,778,0,0
574,246,0,0,0,0,0,0,0,0,0,-1,1798,778,0,0
581,246,49.2813,2.61273,-0.00244174,0.0182114,0.0017546,0.0183594,-0.00258974,1.48664,0.0131879,0.0389929,1805,778,49.2813,-2.61273
588,246,49.2229,2.63367,0.000551255,0.0186508,-0.00165123,0.0188002,0.000401846,-1.48056,0.0124017,0.0428126,1812,778,49.2229,-2.63365
595,246,49.3511,2.69464,0.00155327,0.0162928,-0.00295828,0.0168644,0.000981699,-1.37994,0.0109304,0.040524,1819,778,49.3511,-2.69463
602,246,49.3767,2.88318,0.00159208,0.0131623,-0.00327752,0.0140263,0.000728159,-1.31307,0.00911781,0.0444251,1826,778,49.3767,-2.88318
609,246,49.1829,2.65295,0.00145477,0.0102366,-0.00296609,0.0111446,0.000546835,-1.27375,0.0072543,0.04603,1833,778,49.1828,-2.65295
616,246,49.05,2.67853,0,0,0,0,0,0,0,-1,1840,778,49.05,-2.6785
623,246,49.2892,2.37012,0,0,0,0,0,0,0,-1,1847,778,49.2892,-2.37012
630,246,49.6285,1.76843,0,0,0,0,0,0,0,-1,1854,778,49.6286,-1.76846
637,246,29.5785,0.837585,0,0,0,0,0,0,0,-1,1861,778,29.5785,-0.837606
644,246,28.1232,-1.43188,0,0,0,0,0,0,0,-1,1868,778,28.1232,1.43188
651,246,33.9738,-1.90369,0,0,0,0,0,0,0,-1,1875,778,33.9738,1.9037
658,246,33.8926,-1.44946,-0.000979979,0.000115668,-0.00062643,0.000400026,-0.00126434,-1.14468,0.00100318,0.0343971,1882,778,33.8926,1.44946
665,246,33.9274,-0.810852,-0.000613009,-0.000140632,-0.000652194,0.000316824,-0.00107046,-0.959125,0.000839423,0.0233469,1889,778,33.9274,0.810855
672,246,33.9088,-0.194153,-0.000599779,-0.000377867,-0.00051944,4.23348e-05,-0.00101998,-0.89062,0.000694529,0.0211037,1896,778,33.9089,0.194147
679,246,33.9301,0.407227,-0.000568499,-0.000144682,-0.000261522,-1.99917e-05,-0.00069319,-1.12589,0.000455609,0.0213943,1903,778,33.93,-0.407236
686,246,33.965,1.00116,-0.000197648,0.000491423,-3.16491e-05,0.000492874,-0.000199099,-1.52499,0.000411337,0.0241363,1910,778,33.9649,-1.00114
693,246,33.9156,1.53455,0.000509799,0.00138739,0.000470647,0.00159206,0.000305128,1.16059,0.000975701,0.0186651,1917,778,33.9156,-1.53454
700,246,33.8768,2.10376,0.00137164,0.00240216,0.00119867,0.00319162,0.00058218,0.988388,0.00196268,0.0152323,1924,778,33.8769,-2.10373
707,246,33.864,2.70551,0.00231838,0.00350533,0.00199383,0.00499214,0.000831574,0.930052,0.00308844,0.0139383,1931,778,33.864,-2.70551
714,246,33.844,3.30676,0.00341342,0.00477872,0.00303667,0.00720852,0.000983617,0.895962,0.00451367,0.0135111,1938,778,33.844,-3.30676
721,246,33.807,3.87469,0.00447561,0.00600945,0.00415897,0.00947162,0.00101344,0.876575,0.00600518,0.0193641,1945,778,33.807,-3.87469
728,246,33.8317,4.66699,0.00536324,0.00732517,0.00527799,0.0117126,0.00097583,0.877279,0.00750429,0.0438612,1952,778,33.8317,-4.66701
735,246,33.9883,5.573,0,0,0,0,0,0,0,-1,1959,778,33.9882,-5.57302
742,246,31.7356,6.70013,0,0,0,0,0,0,0,-1,1966,778,31.7356,-6.70011
749,246,32.3883,7.69324,0,0,0,0,0,0,0,-1,1973,778,32.3883,-7.69322
756,246,33.6919,3.45264,0,0,0,0,0,0,0,-1,1980,778,33.6919,-3.45262
763,246,0,0,0,0,0,0,0,0,0,-1,1987,778,0,0
770,246,0,0,0,0,0,0,0,0,0,-1,1994,778,0,0
777,246,0,0,0,0,0,0,0,0,0,-1,2001,778,0,0
784,246,0,0,0,0,0,0,0,0,0,-1,2008,778,0,0
791,246,0,0,0,0,0,0,0,0,0,-1,2015,778,0,0
798,246,0,0,0,0,0,0,0,0,0,-1,2022,778,0,0
805,246,0,0,0,0,0,0,0,0,0,-1,2029,778,0,0
812,246,0,0,0,0,0,0,0,0,0,-1,2036,778,0,0
-700,239,0,0,0,0,0,0,0,0,0,-1,524,785,0,0
-693,239,0,0,0,0,0,0,0,0,0,-1,531,785,0,0
-686,239,0,0,0,0,0,0,0,0,0,-1,538,785,0,0
-679,239,0,0,0,0,0,0,0,0,0,-1,545,785,0,0
-672,239,0,0,0,0,0,0,0,0,0,-1,552,785,0,0
-665,239,0,0,0,0,0,0,0,0,0,-1,559,785,0,0
-658,239,0,0,0,0,0,0,0,0,0,-1,566,785,0,0
-651,239,0,0,0,0,0,0,0,0,0,-1,573,785,0,0
-644,239,0,0,0,0,0,0,0,0,0,-1,580,785,0,0
-637,239,-23.2709,0.465088,0,0,0,0,0,0,0,-1,587,785,-23.271,-0.465116
-630,239,-23.4006,0.956299,0,0,0,0,0,0,0,-1,594,785,-23.4005,-0.956285
-623,239,-30.6328,2.52185,0,0,0,0,0,0,0,-1,601,785,-30.6328,-2.52183
-616,239,-29.1425,1.42139,0,0,0,0,0,0,0,-1,608,785,-29.1425,-1.42139
-609,239,-27.8569,0.322937,0,0,0,0,0,0,0,-1,615,785,-27.857,-0.322963
-602,239,-23.2802,3.36041,0,0,0,0,0,0,0,-1,622,785,-23.2802,-3.36039
-595,239,-23.3749,2.38385,0.0102875,0.00628687,-0.010332,0.0188111,-0.00223668,-0.689779,0.0133489,0.0412358,629,785,-23.3749,-2.38385
-588,239,-23.4684,1.4162,0.00746265,0.00453881,-0.00778268,0.0139195,-0.00191807,-0.692559,0.00998067,0.0196101,636,785,-23.4684,-1.41621
-581,239,-23.5624,0.743042,0.00529906,0.00316309,-0.00563493,0.00996632,-0.00150417,-0.691744,0.00719818,0.011614,643,785,-23.5624,-0.743038
-574,239,-23.5593,0.132507,0.00346957,0.00198933,-0.00372933,0.00653151,-0.00107261,-0.687441,0.0047524,0.0129184,650,785,-23.5593,-0.132488
-567,239,-23.576,-0.432617,0.0017155,0.00079216,-0.00190564,0.0032146,-0.000706933,-0.666555,0.00241347,0.0172054,657,785,-23.576,0.432638
-560,239,-23.6162,-0.948547,0.000150159,-0.000310092,-0.000366901,0.000353131,-0.000513064,-0.505303,0.000502932,0.017787,664,785,-23.6162,0.948577
-553,239,-23.6411,-1.4704,-0.0011068,-0.00140994,0.000934777,-0.000311385,-0.00220536,0.705025,0.00137822,0.014553,671,785,-23.641,1.47037
-546,239,-23.6924,-2.01782,-0.00195755,-0.00242793,0.00195838,-0.000220281,-0.00416519,0.725637,0.00270636,0.0147579,678,785,-23.6924,2.01781
-539,239,-23.7453,-2.59875,-0.002125,-0.00383107,0.00264252,-0.000201247,-0.00575483,0.629272,0.00377126,0.0168194,685,785,-23.7453,2.59875
-532,239,-23.7199,-3.15009,-0.00209599,-0.00446981,0.00297062,-8.39375e-05,-0.00648186,0.59534,0.00429354,0.019254,692,785,-23.7199,3.15008
-525,239,-23.7773,-3.54822,-0.000833613,-0.00386634,0.0023602,0.000455359,-0.00515531,0.499866,0.00359828,0.0302461,699,785,-23.7773,3.54822
-518,239,-24.1448,-3.7948,0,0,0,0,0,0,0,-1,706,785,-24.1448,3.79483
-511,239,-20.9849,-2.09235,0,0,0,0,0,0,0,-1,713,785,-20.9848,2.09234
-504,239,-25.5015,2.00421,0,0,0,0,0,0,0,-1,720,785,-25.5015,-2.00422
-497,239,-36.7159,1.73627,0,0,0,0,0,0,0,-1,727,785,-36.7159,-1.73625
-490,239,-37.5315,0.145203,0,0,0,0,0,0,0,-1,734,785,-37.5315,-0.145179
-483,239,-37.0757,1.02008,0,0,0,0,0,0,0,-1,741,785,-37.0757,-1.0201
-476,239,-36.9504,1.03455,0.000106344,-0.00346218,-0.00494108,0.00357545,-0.00693129,-0.61213,0.00616834,0.0391431,748,785,-36.9504,-1.03457
-469,239,-36.9092,0.995422,-0.00238025,-0.00300184,-0.00674539,0.0040615,-0.00944359,-0.762377,0.00800089,0.0419422,755,785,-36.9092,-0.99543
-462,239,-36.9166,0.980469,-0.00785998,-0.00214266,-0.00824827,0.00372827,-0.0137309,-0.952209,0.0106172,0.0459261,762,785,-36.9166,-0.98049
-455,239,0,0,0,0,0,0,0,0,0,-1,769,785,0,0
-448,239,0,0,0,0,0,0,0,0,0,-1,776,785,0,0
-441,239,0,0,0,0,0,0,0,0,0,-1,783,785,0,0
-434,239,0,0,0,0,0,0,0,0,0,-1,790,785,0,0
-427,239,0,0,0,0,0,0,0,0,0,-1,797,785,0,0
-420,239,0,0,0,0,0,0,0,0,0,-1,804,785,0,0
-413,239,0,0,0,0,0,0,0,0,0,-1,811,785,0,0
-406,239,0,0,0,0,0,0,0,0,0,-1,818,785,0,0
-399,239,0,0,0,0,0,0,0,0,0,-1,825,785,0,0
-392,239,0,0,0,0,0,0,0,0,0,-1,832,785,0,0
-385,239,0,0,0,0,0,0,0,0,0,-1,839,785,0,0
-378,239,0,0,0,0,0,0,0,0,0,-1,846,785,0,0
-371,239,0,0,0,0,0,0,0,0,0,-1,853,785,0,0
-364,239,0,0,0,0,0,0,0,0,0,-1,860,785,0,0
-357,239,0,0,0,0,0,0,0,0,0,-1,867,785,0,0
-350,239,0,0,0,0,0,0,0,0,0,-1,874,785,0,0
-343,239,0,0,0,0,0,0,0,0,0,-1,881,785,0,0
-336,239,0,0,0,0,0,0,0,0,0,-1,888,785,0,0
-329,239,0,0,0,0,0,0,0,0,0,-1,895,785,0,0
-322,239,0,0,0,0,0,0,0,0,0,-1,902,785,0,0
-315,239,0,0,0,0,0,0,0,0,0,-1,909,785,0,0
-308,239,0,0,0,0,0,0,0,0,0,-1,916,785,0,0
-301,239,0,0,0,0,0,0,0,0,0,-1,923,785,0,0
-294,239,0,0,0,0,0,0,0,0,0,-1,930,785,0,0
-287,239,0,0,0,0,0,0,0,0,0,-1,937,785,0,0
-280,239,0,0,0,0,0,0,0,0,0,-1,944,785,0,0
-273,239,0,0,0,0,0,0,0,0,0,-1,951,785,0,0
-266,239,0,0,0,0,0,0,0,0,0,-1,958,785,0,0
-259,239,0,0,0,0,0,0,0,0,0,-1,965,785,0,0
-252,239,0,0,0,0,0,0,0,0,0,-1,972,785,0,0
-245,239,0,0,0,0,0,0,0,0,0,-1,979,785,0,0
-238,239,0,0,0,0,0,0,0,0,0,-1,986,785,0,0
-231,239,0,0,0,0,0,0,0,0,0,-1,993,785,0,0
-224,239,0,0,0,0,0,0,0,0,0,-1,1000,785,0,0
-217,239,0,0,0,0,0,0,0,0,0,-1,1007,785,0,0
-210,239,0,0,0,0,0,0,0,0,0,-1,1014,785,0,0
-203,239,0,0,0,0,0,0,0,0,0,-1,1021,785,0,0
-196,239,0,0,0,0,0,0,0,0,0,-1,1028,785,0,0
-189,239,0,0,0,0,0,0,0,0,0,-1,1035,785,0,0
-182,239,0,0,0,0,0,0,0,0,0,-1,1042,785,0,0
-175,239,0,0,0,0,0,0,0,0,0,-1,1049,785,0,0
-168,239,0,0,0,0,0,0,0,0,0,-1,1056,785,0,0
-161,239,0,0,0,0,0,0,0,0,0,-1,1063,785,0,0
-154,239,0,0,0,0,0,0,0,0,0,-1,1070,785,0,0
-147,239,0,0,0,0,0,0,0,0,0,-1,1077,785,0,0
-140,239,0,0,0,0,0,0,0,0,0,-1,1084,785,0,0
-133,239,0,0,0,0,0,0,0,0,0,-1,1091,785,0,0
-126,239,0,0,0,0,0,0,0,0,0,-1,1098,785,0,0
-119,239,0,0,0,0,0,0,0,0,0,-1,1105,785,0,0
-112,239,0,0,0,0,0,0,0,0,0,-1,1112,785,0,0
-105,239,0,0,0,0,0,0,0,0,0,-1,1119,785,0,0
-98,239,0,0,0,0,0,0,0,0,0,-1,1126,785,0,0
-91,239,0,0,0,0,0,0,0,0,0,-1,1133,785,0,0
-84,239,0,0,0,0,0,0,0,0,0,-1,1140,785,0,0
-77,239,0,0,0,0,0,0,0,0,0,-1,1147,785,0,0
-70,239,0,0,0,0,0,0,0,0,0,-1,1154,785,0,0
-63,239,0,0,0,0,0,0,0,0,0,-1,1161,785,0,0
-56,239,0,0,0,0,0,0,0,0,0,-1,1168,785,0,0
-49,239,0,0,0,0,0,0,0,0,0,-1,1175,785,0,0
-42,239,0,0,0,0,0,0,0,0,0,-1,1182,785,0,0
-35,239,0,0,0,0,0,0,0,0,0,-1,1189,785,0,0
-28,239,0,0,0,0,0,0,0,0,0,-1,1196,785,0,0
-21,239,0,0,0,0,0,0,0,0,0,-1,1203,785,0,0
-14,239,0,0,0,0,0,0,0,0,0,-1,1210,785,0,0
-7,239,0,0,0,0,0,0,0,0,0,-1,1217,785,0,0
0,239,0,0,0,0,0,0,0,0,0,-1,1224,785,0,0
7,239,0,0,0,0,0,0,0,0,0,-1,1231,785,0,0
14,239,0,0,0,0,0,0,0,0,0,-1,1238,785,0,0
21,239,0,0,0,0,0,0,0,0,0,-1,1245,785,0,0
28,239,0,0,0,0,0,0,0,0,0,-1,1252,785,0,0
35,239,0,0,0,0,0,0,0,0,0,-1,1259,785,0,0
42,239,0,0,0,0,0,0,0,0,0,-1,1266,785,0,0
49,239,0,0,0,0,0,0,0,0,0,-1,1273,785,0,0
56,239,0,0,0,0,0,0,0,0,0,-1,1280,785,0,0
63,239,0,0,0,0,0,0,0,0,0,-1,1287,785,0,0
70,239,0,0,0,0,0,0,0,0,0,-1,1294,785,0,0
77,239,0,0,0,0,0,0,0,0,0,-1,1301,785,0,0
84,239,0,0,0,0,0,0,0,0,0,-1,1308,785,0,0
91,239,0,0,0,0,0,0,0,0,0,-1,1315,785,0,0
98,239,0,0,0,0,0,0,0,0,0,-1,1322,785,0,0
105,239,0,0,0,0,0,0,0,0,0,-1,1329,785,0,0
112,239,0,0,0,0,0,0,0,0,0,-1,1336,785,0,0
119,239,0,0,0,0,0,0,0,0,0,-1,1343,785,0,0
126,239,0,0,0,0,0,0,0,0,0,-1,1350,785,0,0
133,239,0,0,0,0,0,0,0,0,0,-1,1357,785,0,0
140,239,0,0,0,0,0,0,0,0,0,-1,1364,785,0,0
147,239,0,0,0,0,0,0,0,0,0,-1,1371,785,0,0
154,239,0,0,0,0,0,0,0,0,0,-1,1378,785,0,0
161,239,0,0,0,0,0,0,0,0,0,-1,1385,785,0,0
168,239,0,0,0,0,0,0,0,0,0,-1,1392,785,0,0
175,239,0,0,0,0,0,0,0,0,0,-1,1399,785,0,0
182,239,0,0,0,0,0,0,0,0,0,-1,1406,785,0,0
189,239,0,0,0,0,0,0,0,0,0,-1,1413,785,0,0
196,239,0,0,0,0,0,0,0,0,0,-1,1420,785,0,0
203,239,0,0,0,0,0,0,0,0,0,-1,1427,785,0,0
210,239,0,0,0,0,0,0,0,0,0,-1,1434,785,0,0
217,239,0,0,0,0,0,0,0,0,0,-1,1441,785,0,0
224,239,0,0,0,0,0,0,0,0,0,-1,1448,785,0,0
231,239,0,0,0,0,0,0,0,0,0,-1,1455,785,0,0
238,239,0,0,0,0,0,0,0,0,0,-1,1462,785,0,0
245,239,0,0,0,0,0,0,0,0,0,-1,1469,785,0,0
252,239,0,0,0,0,0,0,0,0,0,-1,1476,785,0,0
259,239,0,0,0,0,0,0,0,0,0,-1,1483,785,0,0
266,239,0,0,0,0,0,0,0,0,0,-1,1490,785,0,0
273,239,0,0,0,0,0,0,0,0,0,-1,1497,785,0,0
280,239,0,0,0,0,0,0,0,0,0,-1,1504,785,0,0
287,239,0,0,0,0,0,0,0,0,0,-1,1511,785,0,0
294,239,0,0,0,0,0,0,0,0,0,-1,1518,785,0,0
301,239,0,0,0,0,0,0,0,0,0,-1,1525,785,0,0
308,239,0,0,0,0,0,0,0,0,0,-1,1532,785,0,0
315,239,0,0,0,0,0,0,0,0,0,-1,1539,785,0,0
322,239,0,0,0,0,0,0,0,0,0,-1,1546,785,0,0
329,239,0,0,0,0,0,0,0,0,0,-1,1553,785,0,0
336,239,0,0,0,0,0,0,0,0,0,-1,1560,785,0,0
343,239,0,0,0,0,0,0,0,0,0,-1,1567,785,0,0
350,239,0,0,0,0,0,0,0,0,0,-1,1574,785,0,0
357,239,0,0,0,0,0,0,0,0,0,-1,1581,785,0,0
364,239,0,0,0,0,0,0,0,0,0,-1,1588,785,0,0
371,239,0,0,0,0,0,0,0,0,0,-1,1595,785,0,0
378,239,0,0,0,0,0,0,0,0,0,-1,1602,785,0,0
385,239,0,0,0,0,0,0,0,0,0,-1,1609,785,0,0
392,239,0,0,0,0,0,0,0,0,0,-1,1616,785,0,0
399,239,0,0,0,0,0,0,0,0,0,-1,1623,785,0,0
406,239,0,0,0,0,0,0,0,0,0,-1,1630,785,0,0
413,239,0,0,0,0,0,0,0,0,0,-1,1637,785,0,0
420,239,0,0,0,0,0,0,0,0,0,-1,1644,785,0,0
427,239,0,0,0,0,0,0,0,0,0,-1,1651,785,0,0
434,239,0,0,0,0,0,0,0,0,0,-1,1658,785,0,0
441,239,0,0,0,0,0,0,0,0,0,-1,1665,785,0,0
448,239,0,0,0,0,0,0,0,0,0,-1,1672,785,0,0
455,239,0,0,0,0,0,0,0,0,0,-1,1679,785,0,0
462,239,0,0,0,0,0,0,0,0,0,-1,1686,785,0,0
469,239,0,0,0,0,0,0,0,0,0,-1,1693,785,0,0
476,239,0,0,0,0,0,0,0,0,0,-1,1700,785,0,0
483,239,0,0,0,0,0,0,0,0,0,-1,1707,785,0,0
490,239,0,0,0,0,0,0,0,0,0,-1,1714,785,0,0
497,239,0,0,0,0,0,0,0,0,0,-1,1721,785,0,0
504,239,0,0,0,0,0,0,0,0,0,-1,1728,785,0,0
511,239,0,0,0,0,0,0,0,0,0,-1,1735,785,0,0
518,239,0,0,0,0,0,0,0,0,0,-1,1742,785,0,0
525,239,0,0,0,0,0,0,0,0,0,-1,1749,785,0,0
532,239,0,0,0,0,0,0,0,0,0,-1,1756,785,0,0
539,239,0,0,0,0,0,0,0,0,0,-1,1763,785,0,0
546,239,0,0,0,0,0,0,0,0,0,-1,1770,785,0,0
553,239,0,0,0,0,0,0,0,0,0,-1,1777,785,0,0
560,239,0,0,0,0,0,0,0,0,0,-1,1784,785,0,0
567,239,0,0,0,0,0,0,0,0,0,-1,1791,785,0,0
574,239,0,0,0,0,0,0,0,0,0,-1,1798,785,0,0
581,239,49.1412,2.96851,-0.00260555,0.0108612,0.00263848,0.0113597,-0.00310404,1.38407,0.00879237,0.0376696,1805,785,49.1412,-2.9685
588,239,49.08,3.05396,9.07056e-05,0.0131316,-0.000836529,0.0131851,3.72641e-05,-1.507,0.00877764,0.037259,1812,785,49.0799,-3.05397
595,239,49.153,2.65674,0.0011614,0.0125452,-0.00227238,0.0129821,0.000724568,-1.38088,0.00842359,0.0351708,1819,785,49.153,-2.65677
602,239,49.3195,2.68011,0.00127789,0.0107458,-0.00272307,0.0114731,0.000550573,-1.3098,0.00747199,0.0377648,1826,785,49.3195,-2.68012
609,239,49.2394,2.83575,0,0,0,0,0,0,0,-1,1833,785,49.2394,-2.83577
616,239,48.7449,3.13025,0,0,0,0,0,0,0,-1,1840,785,48.7449,-3.13026
623,239,48.8301,2.85089,0,0,0,0,0,0,0,-1,1847,785,48.8301,-2.8509
630,239,49.4137,2.3382,0,0,0,0,0,0,0,-1,1854,785,49.4137,-2.33822
637,239,39.5542,2.54114,0,0,0,0,0,0,0,-1,1861,785,39.5543,-2.54114
644,239,18.3466,0.735413,0,0,0,0,0,0,0,-1,1868,785,18.3465,-0.735414
651,239,34.2471,-2.15778,0,0,0,0,0,0,0,-1,1875,785,34.2471,2.1578
658,239,34.4374,-1.4364,-0.0012174,0.000309227,-0.00048156,0.000448436,-0.00135661,-1.28939,0.00108522,0.0487876,1882,785,34.4374,1.43642
665,239,34.5419,-0.769409,-0.00096193,4.2809e-05,-0.00060821,0.000329296,-0.00124842,-1.13059,0.000961037,0.0188699,1889,785,34.5418,0.769406
672,239,34.5419,-0.169067,-0.00103505,-0.000255613,-0.000588653,6.06395e-05,-0.0013513,-1.0778,0.000921743,0.0207464,1896,785,34.5418,0.169055
679,239,34.527,0.450562,-0.00110924,-0.000191038,-0.000444,-1.14611e-05,-0.00128882,-1.18646,0.00085542,0.0220847,1903,785,34.527,-0.450552
686,239,34.4946,1.05286,-0.000815346,0.000262478,-0.000378519,0.000382128,-0.000934995,-1.26464,0.000782453,0.0242186,1910,785,34.4946,-1.05285
693,239,34.4966,1.56921,-0.000103089,0.000995114,-2.4116e-05,0.000995643,-0.000103618,-1.54885,0.000700859,0.016087,1917,785,34.4966,-1.56923
700,239,34.4788,2.13348,0.000807055,0.00187567,0.000640103,0.00217516,0.000507567,1.13318,0.00131401,0.0117441,1924,785,34.4787,-2.13349
707,239,34.4467,2.73456,0.00184626,0.00288758,0.00135071,0.0038145,0.000919339,0.969358,0.00229868,0.0112331,1931,785,34.4466,-2.73459
714,239,34.4271,3.30316,0.00293111,0.00400823,0.00222284,0.00575682,0.00118252,0.90425,0.00351073,0.0105598,1938,785,34.4272,-3.30318
721,239,34.3679,3.88251,0.00403565,0.00508099,0.00312611,0.00772782,0.00138882,0.86823,0.004757,0.023049,1945,785,34.3679,-3.88251
728,239,34.2708,4.60236,0.00503843,0.00616671,0.00392762,0.0095705,0.00163464,0.856727,0.00591128,0.0441774,1952,785,34.2708,-4.60238
735,239,34.4366,5.52661,0,0,0,0,0,0,0,-1,1959,785,34.4366,-5.52661
742,239,32.4141,7.6665,0,0,0,0,0,0,0,-1,1966,785,32.4141,-7.6665
749,239,32.1489,3.4411,0,0,0,0,0,0,0,-1,1973,785,32.149,-3.44109
756,239,32.9064,3.6687,0,0,0,0,0,0,0,-1,1980,785,32.9063,-3.66873
763,239,0,0,0,0,0,0,0,0,0,-1,1987,785,0,0
770,239,0,0,0,0,0,0,0,0,0,-1,1994,785,0,0
777,239,0,0,0,0,0,0,0,0,0,-1,2001,785,0,0
784,239,0,0,0,0,0,0,0,0,0,-1,2008,785,0,0
791,239,0,0,0,0,0,0,0,0,0,-1,2015,785,0,0
798,239,0,0,0,0,0,0,0,0,0,-1,2022,785,0,0
805,239,0,0,0,0,0,0,0,0,0,-1,2029,785,0,0
812,239,0,0,0,0,0,0,0,0,0,-1,2036,785,0,0
-700,232,0,0,0,0,0,0,0,0,0,-1,524,792,0,0
-693,232,0,0,0,0,0,0,0,0,0,-1,531,792,0,0
-686,232,0,0,0,0,0,0,0,0,0,-1,538,792,0,0
-679,232,0,0,0,0,0,0,0,0,0,-1,545,792,0,0
-672,232,0,0,0,0,0,0,0,0,0,-1,552,792,0,0
-665,232,0,0,0,0,0,0,0,0,0,-1,559,792,0,0
-658,232,0,0,0,0,0,0,0,0,0,-1,566,792,0,0
-651,232,0,0,0,0,0,0,0,0,0,-1,573,792,0,0
-644,232,-22.5826,0.269348,0,0,0,0,0,0,0,-1,580,792,-22.5826,-0.269357
-637,232,-30.1556,5.06824,0,0,0,0,0,0,0,-1,587,792,-30.1556,-5.06823
-630,232,-32.2345,1.80212,0,0,0,0,0,0,0,-1,594,792,-32.2345,-1.80211
-623,232,-31.5665,1.05115,0,0,0,0,0,0,0,-1,601,792,-31.5664,-1.05112
-616,232,-30.6812,0.432861,0,0,0,0,0,0,0,-1,608,792,-30.6812,-0.432881
-609,232,-29.7142,-0.478943,0,0,0,0,0,0,0,-1,615,792,-29.7142,0.478965
-602,232,-23.9792,3.22351,0,0,0,0,0,0,0,-1,622,792,-23.9792,-3.22349
-595,232,-23.9957,2.30188,0.00928299,0.00682841,-0.00854164,0.0166851,-0.000573657,-0.714045,0.0113194,0.036658,629,792,-23.9957,-2.30189
-588,232,-24.0704,1.3725,0.00671455,0.00473191,-0.00654331,0.0123412,-0.000894743,-0.710219,0.00854135,0.0138566,636,792,-24.0704,-1.37247
-581,232,-24.1012,0.73114,0.00471087,0.00317298,-0.00473068,0.00873469,-0.00085084,-0.704831,0.00612647,0.00874782,643,792,-24.1012,-0.731166
-574,232,-24.1189,0.175659,0.00304531,0.00187593,-0.00303536,0.00555178,-0.00063054,-0.690251,0.00392827,0.00906645,650,792,-24.1189,-0.175666
-567,232,-24.1408,-0.374878,0.00140553,0.000523863,-0.00132537,0.00236145,-0.00043206,-0.624848,0.00173633,0.0108033,657,792,-24.1408,0.374865
-560,232,-24.1714,-0.908325,-0.000109456,-0.000625967,0.000113146,-8.57582e-05,-0.000649666,0.206464,0.000407543,0.0144689,664,792,-24.1715,0.908324
-553,232,-24.2278,-1.45001,-0.00125502,-0.00169785,0.00132432,-0.000133738,-0.00281914,0.702568,0.00183647,0.0138841,671,792,-24.2278,1.45001
-546,232,-24.265,-2.0105,-0.00191871,-0.00262846,0.00230356,5.7149e-05,-0.00460432,0.708972,0.00308877,0.0208683,678,792,-24.265,2.01051
-539,232,-24.3446,-2.52747,-0.00190237,-0.00388698,0.0029138,0.00018346,-0.00597281,0.621281,0.00404442,0.0309413,685,792,-24.3446,2.52749
-532,232,-24.4534,-3.04974,-0.00184355,-0.00434337,0.00321402,0.000355051,-0.00654197,0.599951,0.00448435,0.0323578,692,792,-24.4535,3.04972
-525,232,-24.3909,-3.24164,0,0,0,0,0,0,0,-1,699,792,-24.3909,3.24164
-518,232,-20.8098,-3.08154,0,0,0,0,0,0,0,-1,706,792,-20.8098,3.08155
-511,232,-21.6708,-0.962708,0,0,0,0,0,0,0,-1,713,792,-21.6708,0.962731
-504,232,-34.2155,0.346985,0,0,0,0,0,0,0,-1,720,792,-34.2155,-0.346955
-497,232,-37.5247,0.227966,0,0,0,0,0,0,0,-1,727,792,-37.5247,-0.22797
-490,232,-37.2849,0.504456,0.00156994,-0.00286802,-0.00119709,0.00187225,-0.00317033,-0.247365,0.00294331,0.0465067,734,792,-37.2849,-0.504434
-483,232,-36.9993,0.983765,0.00151013,-0.0021414,-0.00263098,0.00288679,-0.00351805,-0.482071,0.00370382,0.0423345,741,792,-36.9993,-0.983758
-476,232,-36.9768,0.89386,0.000628369,-0.000935968,-0.00437397,0.00428955,-0.00459715,-0.696922,0.00513176,0.0357692,748,792,-36.9768,-0.893888
-469,232,-36.9542,0.87384,-0.00211477,0.000936152,-0.00615908,0.00575587,-0.00693449,-0.906794,0.00733731,0.0352744,755,792,-36.9542,-0.873831
-462,232,0,0,0,0,0,0,0,0,0,-1,762,792,0,0
-455,232,0,0,0,0,0,0,0,0,0,-1,769,792,0,0
-448,232,0,0,0,0,0,0,0,0,0,-1,776,792,0,0
-441,232,0,0,0,0,0,0,0,0,0,-1,783,792,0,0
-434,232,0,0,0,0,0,0,0,0,0,-1,790,792,0,0
-427,232,0,0,0,0,0,0,0,0,0,-1,797,792,0,0
-420,232,0,0,0,0,0,0,0,0,0,-1,804,792,0,0
-413,232,0,0,0,0,0,0,0,0,0,-1,811,792,0,0
-406,232,0,0,0,0,0,0,0,0,0,-1,818,792,0,0
-399,232,0,0,0,0,0,0,0,0,0,-1,825,792,0,0
-392,232,0,0,0,0,0,0,0,0,0,-1,832,792,0,0
-385,232,0,0,0,0,0,0,0,0,0,-1,839,792,0,0
-378,232,0,0,0,0,0,0,0,0,0,-1,846,792,0,0
-371,232,0,0,0,0,0,0,0,0,0,-1,853,792,0,0
-364,232,0,0,0,0,0,0,0,0,0,-1,860,792,0,0
-357,232,0,0,0,0,0,0,0,0,0,-1,867,792,0,0
-350,232,0,0,0,0,0,0,0,0,0,-1,874,792,0,0
-343,232,0,0,0,0,0,0,0,0,0,-1,881,792,0,0
-336,232,0,0,0,0,0,0,0,0,0,-1,888,792,0,0
-329,232,0,0,0,0,0,0,0,0,0,-1,895,792,0,0
-322,232,0,0,0,0,0,0,0,0,0,-1,902,792,0,0
-315,232,0,0,0,0,0,0,0,0,0,-1,909,792,0,0
-308,232,0,0,0,0,0,0,0,0,0,-1,916,792,0,0
-301,232,0,0,0,0,0,0,0,0,0,-1,923,792,0,0
-294,232,0,0,0,0,0,0,0,0,0,-1,930,792,0,0
-287,232,0,0,0,0,0,0,0,0,0,-1,937,792,0,0
-280,232,0,0,0,0,0,0,0,0,0,-1,944,792,0,0
-273,232,0,0,0,0,0,0,0,0,0,-1,951,792,0,0
-266,232,0,0,0,0,0,0,0,0,0,-1,958,792,0,0
-259,232,0,0,0,0,0,0,0,0,0,-1,965,792,0,0
-252,232,0,0,0,0,0,0,0,0,0,-1,972,792,0,0
-245,232,0,0,0,0,0,0,0,0,0,-1,979,792,0,0
-238,232,0,0,0,0,0,0,0,0,0,-1,986,792,0,0
-231,232,0,0,0,0,0,0,0,0,0,-1,993,792,0,0
-224,232,0,0,0,0,0,0,0,0,0,-1,1000,792,0,0
-217,232,0,0,0,0,0,0,0,0,0,-1,1007,792,0,0
-210,232,0,0,0,0,0,0,0,0,0,-1,1014,792,0,0
-203,232,0,0,0,0,0,0,0,0,0,-1,1021,792,0,0
-196,232,0,0,0,0,0,0,0,0,0,-1,1028,792,0,0
-189,232,0,0,0,0,0,0,0,0,0,-1,1035,792,0,0
-182,232,0,0,0,0,0,0,0,0,0,-1,1042,792,0,0
-175,232,0,0,0,0,0,0,0,0,0,-1,1049,792,0,0
-168,232,0,0,0,0,0,0,0,0,0,-1,1056,792,0,0
-161,232,0,0,0,0,0,0,0,0,0,-1,1063,792,0,0
-154,232,0,0,0,0,0,0,0,0,0,-1,1070,792,0,0
-147,232,0,0,0,0,0,0,0,0,0,-1,1077,792,0,0
-140,232,0,0,0,0,0,0,0,0,0,-1,1084,792,0,0
-133,232,0,0,0,0,0,0,0,0,0,-1,1091,792,0,0
-126,232,0,0,0,0,0,0,0,0,0,-1,1098,792,0,0
-119,232,0,0,0,0,0,0,0,0,0,-1,1105,792,0,0
-112,232,0,0,0,0,0,0,0,0,0,-1,1112,792,0,0
-105,232,0,0,0,0,0,0,0,0,0,-1,1119,792,0,0
-98,232,0,0,0,0,0,0,0,0,0,-1,1126,792,0,0
-91,232,0,0,0,0,0,0,0,0,0,-1,1133,792,0,0
-84,232,0,0,0,0,0,0,0,0,0,-1,1140,792,0,0
-77,232,0,0,0,0,0,0,0,0,0,-1,1147,792,0,0
-70,232,0,0,0,0,0,0,0,0,0,-1,1154,792,0,0
-63,232,0,0,0,0,0,0,0,0,0,-1,1161,792,0,0
-56,232,0,0,0,0,0,0,0,0,0,-1,1168,792,0,0
-49,232,0,0,0,0,0,0,0,0,0,-1,1175,792,0,0
-42,232,0,0,0,0,0,0,0,0,0,-1,1182,792,0,0
-35,232,0,0,0,0,0,0,0,0,0,-1,1189,792,0,0
-28,232,0,0,0,0,0,0,0,0,0,-1,1196,792,0,0
-21,232,0,0,0,0,0,0,0,0,0,-1,1203,792,0,0
-14,232,0,0,0,0,0,0,0,0,0,-1,1210,792,0,0
-7,232,0,0,0,0,0,0,0,0,0,-1,1217,792,0,0
0,232,0,0,0,0,0,0,0,0,0,-1,1224,792,0,0
7,232,0,0,0,0,0,0,0,0,0,-1,1231,792,0,0
14,232,0,0,0,0,0,0,0,0,0,-1,1238,792,0,0
21,232,0,0,0,0,0,0,0,0,0,-1,1245,792,0,0
28,232,0,0,0,0,0,0,0,0,0,-1,1252,792,0,0
35,232,0,0,0,0,0,0,0,0,0,-1,1259,792,0,0
42,232,0,0,0,0,0,0,0,0,0,-1,1266,792,0,0
49,232,0,0,0,0,0,0,0,0,0,-1,1273,792,0,0
56,232,0,0,0,0,0,0,0,0,0,-1,1280,792,0,0
63,232,0,0,0,0,0,0,0,0,0,-1,1287,792,0,0
70,232,0,0,0,0,0,0,0,0,0,-1,1294,792,0,0
77,232,0,0,0,0,0,0,0,0,0,-1,1301,792,0,0
84,232,0,0,0,0,0,0,0,0,0,-1,1308,792,0,0
91,232,0,0,0,0,0,0,0,0,0,-1,1315,792,0,0
98,232,0,0,0,0,0,0,0,0,0,-1,1322,792,0,0
105,232,0,0,0,0,0,0,0,0,0,-1,1329,792,0,0
112,232,0,0,0,0,0,0,0,0,0,-1,1336,792,0,0
119,232,0,0,0,0,0,0,0,0,0,-1,1343,792,0,0
126,232,0,0,0,0,0,0,0,0,0,-1,1350,792,0,0
133,232,0,0,0,0,0,0,0,0,0,-1,1357,792,0,0
140,232,0,0,0,0,0,0,0,0,0,-1,1364,792,0,0
147,232,0,0,0,0,0,0,0,0,0,-1,1371,792,0,0
154,232,0,0,0,0,0,0,0,0,0,-1,1378,792,0,0
161,232,0,0,0,0,0,0,0,0,0,-1,1385,792,0,0
168,232,0,0,0,0,0,0,0,0,0,-1,1392,792,0,0
175,232,0,0,0,0,0,0,0,0,0,-1,1399,792,0,0
182,232,0,0,0,0,0,0,0,0,0,-1,1406,792,0,0
189,232,0,0,0,0,0,0,0,0,0,-1,1413,792,0,0
196,232,0,0,0,0,0,0,0,0,0,-1,1420,792,0,0
203,232,0,0,0,0,0,0,0,0,0,-1,1427,792,0,0
210,232,0,0,0,0,0,0,0,0,0,-1,1434,792,0,0
217,232,0,0,0,0,0,0,0,0,0,-1,1441,792,0,0
224,232,0,0,0,0,0,0,0,0,0,-1,1448,792,0,0
231,232,0,0,0,0,0,0,0,0,0,-1,1455,792,0,0
238,232,0,0,0,0,0,0,0,0,0,-1,1462,792,0,0
245,232,0,0,0,0,0,0,0,0,0,-1,1469,792,0,0
252,232,0,0,0,0,0,0,0,0,0,-1,1476,792,0,0
259,232,0,0,0,0,0,0,0,0,0,-1,1483,792,0,0
266,232,0,0,0,0,0,0,0,0,0,-1,1490,792,0,0
273,232,0,0,0,0,0,0,0,0,0,-1,1497,792,0,0
280,232,0,0,0,0,0,0,0,0,0,-1,1504,792,0,0
287,232,0,0,0,0,0,0,0,0,0,-1,1511,792,0,0
294,232,0,0,0,0,0,0,0,0,0,-1,1518,792,0,0
301,232,0,0,0,0,0,0,0,0,0,-1,1525,792,0,0
308,232,0,0,0,0,0,0,0,0,0,-1,1532,792,0,0
315,232,0,0,0,0,0,0,0,0,0,-1,1539,792,0,0
322,232,0,0,0,0,0,0,0,0,0,-1,1546,792,0,0
329,232,0,0,0,0,0,0,0,0,0,-1,1553,792,0,0
336,232,0,0,0,0,0,0,0,0,0,-1,1560,792,0,0
343,232,0,0,0,0,0,0,0,0,0,-1,1567,792,0,0
350,232,0,0,0,0,0,0,0,0,0,-1,1574,792,0,0
357,232,0,0,0,0,0,0,0,0,0,-1,1581,792,0,0
364,232,0,0,0,0,0,0,0,0,0,-1,1588,792,0,0
371,232,0,0,0,0,0,0,0,0,0,-1,1595,792,0,0
378,232,0,0,0,0,0,0,0,0,0,-1,1602,792,0,0
385,232,0,0,0,0,0,0,0,0,0,-1,1609,792,0,0
392,232,0,0,0,0,0,0,0,0,0,-1,1616,792,0,0
399,232,0,0,0,0,0,0,0,0,0,-1,1623,792,0,0
406,232,0,0,0,0,0,0,0,0,0,-1,1630,792,0,0
413,232,0,0,0,0,0,0,0,0,0,-1,1637,792,0,0
420,232,0,0,0,0,0,0,0,0,0,-1,1644,792,0,0
427,232,0,0,0,0,0,0,0,0,0,-1,1651,792,0,0
434,232,0,0,0,0,0,0,0,0,0,-1,1658,792,0,0
441,232,0,0,0,0,0,0,0,0,0,-1,1665,792,0,0
448,232,0,0,0,0,0,0,0,0,0,-1,1672,792,0,0
455,232,0,0,0,0,0,0,0,0,0,-1,1679,792,0,0
462,232,0,0,0,0,0,0,0,0,0,-1,1686,792,0,0
469,232,0,0,0,0,0,0,0,0,0,-1,1693,792,0,0
476,232,0,0,0,0,0,0,0,0,0,-1,1700,792,0,0
483,232,0,0,0,0,0,0,0,0,0,-1,1707,792,0,0
490,232,0,0,0,0,0,0,0,0,0,-1,1714,792,0,0
497,232,0,0,0,0,0,0,0,0,0,-1,1721,792,0,0
504,232,0,0,0,0,0,0,0,0,0,-1,1728,792,0,0
511,232,0,0,0,0,0,0,0,0,0,-1,1735,792,0,0
518,232,0,0,0,0,0,0,0,0,0,-1,1742,792,0,0
525,232,0,0,0,0,0,0,0,0,0,-1,1749,792,0,0
532,232,0,0,0,0,0,0,0,0,0,-1,1756,792,0,0
539,232,0,0,0,0,0,0,0,0,0,-1,1763,792,0,0
546,232,0,0,0,0,0,0,0,0,0,-1,1770,792,0,0
553,232,0,0,0,0,0,0,0,0,0,-1,1777,792,0,0
560,232,0,0,0,0,0,0,0,0,0,-1,1784,792,0,0
567,232,0,0,0,0,0,0,0,0,0,-1,1791,792,0,0
574,232,0,0,0,0,0,0,0,0,0,-1,1798,792,0,0
581,232,0,0,0,0,0,0,0,0,0,-1,1805,792,0,0
588,232,49.0414,3.01379,0.000120854,0.00829151,7.97296e-05,0.00829229,0.000120076,1.56104,0.00548861,0.0377128,1812,792,49.0414,-3.01377
595,232,49.1237,2.65619,0.000962205,0.00889848,-0.00132367,0.00911343,0.000747256,-1.40981,0.00584248,0.0372405,1819,792,49.1236,-2.65619
602,232,49.2271,2.51782,0.00100936,0.00834572,-0.00192023,0.00881792,0.000537147,-1.32967,0.005708,0.0357945,1826,792,49.2271,-2.51783
609,232,49.1636,2.72864,0.000937733,0.00709513,-0.0017933,0.00757934,0.000453522,-1.30707,0.00490871,0.0427708,1833,792,49.1635,-2.72861
616,232,48.9551,2.90674,0.000674409,0.00551464,-0.00147553,0.00592898,0.000260067,-1.29704,0.00386888,0.0489856,1840,792,48.9551,-2.90672
623,232,48.9585,2.80487,0.000234431,0.00410093,-0.00122395,0.0044558,-0.000120444,-1.28859,0.00301149,0.0470613,1847,792,48.9584,-2.80485
630,232,49.2162,2.86975,0,0,0,0,0,0,0,-1,1854,792,49.2162,-2.86974
637,232,47.0471,4.04309,0,0,0,0,0,0,0,-1,1861,792,47.0471,-4.04309
644,232,30.7756,4.24139,0,0,0,0,0,0,0,-1,1868,792,30.7757,-4.24141
651,232,31.6797,-0.564087,0,0,0,0,0,0,0,-1,1875,792,31.6797,0.564059
658,232,35.0682,-1.37079,0,0,0,0,0,0,0,-1,1882,792,35.0682,1.37081
665,232,35.1826,-0.732178,-0.00131414,0.000172201,-0.000650236,0.000416508,-0.00155844,-1.2114,0.0012021,0.0230273,1889,792,35.1826,0.732175
672,232,35.0911,-0.124634,-0.00147096,-0.000130966,-0.000735254,0.00019377,-0.0017957,-1.1549,0.00126667,0.0261748,1896,792,35.091,0.124645
679,232,35.0806,0.487,-0.00164149,-0.000209952,-0.000669673,5.44768e-05,-0.00190592,-1.19473,0.00128916,0.0204882,1903,792,35.0805,-0.486986
686,232,35.0449,1.0993,-0.00143344,2.88459e-05,-0.000768126,0.000358169,-0.00176276,-1.16577,0.00131098,0.0183944,1910,792,35.045,-1.09932
693,232,35.0435,1.60779,-0.00074189,0.000551593,-0.000584574,0.000776633,-0.000966929,-1.20332,0.00100864,0.0107704,1917,792,35.0435,-1.6078
700,232,35.0442,2.16992,0.000210064,0.0012719,3.15877e-06,0.0012719,0.000210054,1.56782,0.000787315,0.0126325,1924,792,35.0441,-2.16995
707,232,35.0272,2.75598,0.0013218,0.00216666,0.000643856,0.00251429,0.000974166,1.07572,0.00146383,0.0130154,1931,792,35.0273,-2.75596
714,232,35.0116,3.31488,0.00241091,0.00315847,0.00139395,0.00422789,0.00134149,0.91639,0.0024947,0.0136177,1938,792,35.0117,-3.31488
721,232,34.9722,3.87366,0.00353249,0.0041157,0.00215038,0.00599415,0.00165404,0.852789,0.00357467,0.0227468,1945,792,34.9722,-3.87365
728,232,34.9031,4.38702,0.00456759,0.00503641,0.00275637,0.00756832,0.00203568,0.827817,0.00452238,0.0463547,1952,792,34.903,-4.38701
735,232,35.0842,5.15106,0,0,0,0,0,0,0,-1,1959,792,35.0842,-5.15107
742,232,25.6461,6.00684,0,0,0,0,0,0,0,-1,1966,792,25.6461,-6.00684
749,232,31.2874,3.74713,0,0,0,0,0,0,0,-1,1973,792,31.2874,-3.74713
756,232,32.1207,3.896,0,0,0,0,0,0,0,-1,1980,792,32.1207,-3.89597
763,232,32.7255,4.05878,0,0,0,0,0,0,0,-1,1987,792,32.7255,-4.05881
770,232,0,0,0,0,0,0,0,0,0,-1,1994,792,0,0
777,232,0,0,0,0,0,0,0,0,0,-1,2001,792,0,0
784,232,0,0,0,0,0,0,0,0,0,-1,2008,792,0,0
791,232,0,0,0,0,0,0,0,0,0,-1,2015,792,0,0
798,232,0,0,0,0,0,0,0,0,0,-1,2022,792,0,0
805,232,0,0,0,0,0,0,0,0,0,-1,2029,792,0,0
812,232,0,0,0,0,0,0,0,0,0,-1,2036,792,0,0
-700,225,0,0,0,0,0,0,0,0,0,-1,524,799,0,0
-693,225,0,0,0,0,0,0,0,0,0,-1,531,799,0,0
-686,225,0,0,0,0,0,0,0,0,0,-1,538,799,0,0
-679,225,0,0,0,0,0,0,0,0,0,-1,545,799,0,0
-672,225,0,0,0,0,0,0,0,0,0,-1,552,799,0,0
-665,225,0,0,0,0,0,0,0,0,0,-1,559,799,0,0
-658,225,0,0,0,0,0,0,0,0,0,-1,566,799,0,0
-651,225,0,0,0,0,0,0,0,0,0,-1,573,799,0,0
-644,225,-28.9417,3.77637,0,0,0,0,0,0,0,-1,580,799,-28.9416,-3.77637
-637,225,-29.6128,3.23175,0,0,0,0,0,0,0,-1,587,799,-29.6128,-3.23173
-630,225,-29.8912,5.02606,0,0,0,0,0,0,0,-1,594,799,-29.8912,-5.02606
-623,225,-32.8276,-0.00836182,0,0,0,0,0,0,0,-1,601,799,-32.8276,0.00837668
-616,225,-32.0569,-0.549255,0,0,0,0,0,0,0,-1,608,799,-32.0569,0.549265
-609,225,-24.2545,3.77222,0,0,0,0,0,0,0,-1,615,799,-24.2544,-3.77222
-602,225,-24.728,2.80951,0,0,0,0,0,0,0,-1,622,799,-24.728,-2.80951
-595,225,-24.7048,2.0246,0.0105586,0.0069636,-0.00602493,0.0150485,0.00247375,-0.640429,0.00931783,0.0332517,629,799,-24.7048,-2.02457
-588,225,-24.6714,1.2746,0.00723607,0.00471588,-0.00474203,0.0108826,0.00106938,-0.655535,0.00692616,0.0138579,636,799,-24.6714,-1.27461
-581,225,-24.6573,0.733032,0.00445205,0.00312053,-0.00347672,0.00732618,0.000246401,-0.690798,0.00480409,0.0105705,643,799,-24.6573,-0.733048
-574,225,-24.6635,0.195618,0.00248134,0.00159181,-0.00218117,0.00426264,-0.000189481,-0.684821,0.00290698,0.00878573,650,799,-24.6635,-0.195619
-567,225,-24.6799,-0.369629,0.000965599,0.000123731,-0.000585491,0.00126577,-0.000176435,-0.473735,0.000908385,0.01154,657,799,-24.68,0.369627
-560,225,-24.7206,-0.898376,-0.000474977,-0.000979737,0.000710483,2.66202e-05,-0.00148133,0.614738,0.000996548,0.0127994,664,799,-24.7206,0.898385
-553,225,-24.7606,-1.43567,-0.00147376,-0.00191982,0.00177055,8.77484e-05,-0.00348133,0.722746,0.00235068,0.0115572,671,799,-24.7606,1.43567
-546,225,-24.7821,-1.97369,-0.00190381,-0.00268408,0.00266409,0.000398565,-0.00498645,0.712694,0.0034648,0.0202607,678,799,-24.7821,1.9737
-539,225,-24.7885,-2.49585,-0.00169203,-0.00370238,0.00319199,0.000649309,-0.00604372,0.632861,0.0042621,0.0437776,685,799,-24.7885,2.49583
-532,225,-24.9926,-2.96985,-0.00163815,-0.00399538,0.00347136,0.00084922,-0.00648275,0.621741,0.00463094,0.0448245,692,799,-24.9926,2.96984
-525,225,-25.3625,-3.24487,0,0,0,0,0,0,0,-1,699,799,-25.3625,3.24486
-518,225,-21.963,0.171326,0,0,0,0,0,0,0,-1,706,799,-21.9629,-0.171319
-511,225,-33.0002,0.660217,0,0,0,0,0,0,0,-1,713,799,-33.0002,-0.660239
-504,225,-37.0312,0.703369,0,0,0,0,0,0,0,-1,720,799,-37.0312,-0.703366
-497,225,-37.2064,0.846558,0,0,0,0,0,0,0,-1,727,799,-37.2064,-0.846561
-490,225,-37.134,0.841187,0.00215103,-0.00186905,-0.000525281,0.00221853,-0.00193655,-0.127806,0.00240078,0.0395134,734,799,-37.134,-0.84119
-483,225,-36.9688,0.911377,0.0023896,-0.00056994,-0.00203346,0.00342472,-0.00160506,-0.470857,0.00296662,0.033098,741,799,-36.9688,-0.91138
-476,225,-36.9464,0.803101,0.00175311,0.00177506,-0.00388924,0.00565334,-0.00212517,-0.786809,0.00464236,0.0325648,748,799,-36.9464,-0.803106
-469,225,-36.8912,0.734009,-0.000898426,0.00547232,-0.00572944,0.00884233,-0.00426844,-1.0391,0.00772152,0.0370128,755,799,-36.8912,-0.733983
-462,225,0,0,0,0,0,0,0,0,0,-1,762,799,0,0
-455,225,0,0,0,0,0,0,0,0,0,-1,769,799,0,0
-448,225,0,0,0,0,0,0,0,0,0,-1,776,799,0,0
-441,225,0,0,0,0,0,0,0,0,0,-1,783,799,0,0
-434,225,0,0,0,0,0,0,0,0,0,-1,790,799,0,0
-427,225,0,0,0,0,0,0,0,0,0,-1,797,799,0,0
-420,225,0,0,0,0,0,0,0,0,0,-1,804,799,0,0
-413,225,0,0,0,0,0,0,0,0,0,-1,811,799,0,0
-406,225,0,0,0,0,0,0,0,0,0,-1,818,799,0,0
-399,225,0,0,0,0,0,0,0,0,0,-1,825,799,0,0
-392,225,0,0,0,0,0,0,0,0,0,-1,832,799,0,0
-385,225,0,0,0,0,0,0,0,0,0,-1,839,799,0,0
-378,225,0,0,0,0,0,0,0,0,0,-1,846,799,0,0
-371,225,0,0,0,0,0,0,0,0,0,-1,853,799,0,0
-364,225,0,0,0,0,0,0,0,0,0,-1,860,799,0,0
-357,225,0,0,0,0,0,0,0,0,0,-1,867,799,0,0
-350,225,0,0,0,0,0,0,0,0,0,-1,874,799,0,0
-343,225,0,0,0,0,0,0,0,0,0,-1,881,799,0,0
-336,225,0,0,0,0,0,0,0,0,0,-1,888,799,0,0
-329,225,0,0,0,0,0,0,0,0,0,-1,895,799,0,0
-322,225,0,0,0,0,0,0,0,0,0,-1,902,799,0,0
-315,225,0,0,0,0,0,0,0,0,0,-1,909,799,0,0
-308,225,0,0,0,0,0,0,0,0,0,-1,916,799,0,0
-301,225,0,0,0,0,0,0,0,0,0,-1,923,799,0,0
-294,225,0,0,0,0,0,0,0,0,0,-1,930,799,0,0
-287,225,0,0,0,0,0,0,0,0,0,-1,937,799,0,0
-280,225,0,0,0,0,0,0,0,0,0,-1,944,799,0,0
-273,225,0,0,0,0,0,0,0,0,0,-1,951,799,0,0
-266,225,0,0,0,0,0,0,0,0,0,-1,958,799,0,0
-259,225,0,0,0,0,0,0,0,0,0,-1,965,799,0,0
-252,225,0,0,0,0,0,0,0,0,0,-1,972,799,0,0
-245,225,0,0,0,0,0,0,0,0,0,-1,979,799,0,0
-238,225,0,0,0,0,0,0,0,0,0,-1,986,799,0,0
-231,225,0,0,0,0,0,0,0,0,0,-1,993,799,0,0
-224,225,0,0,0,0,0,0,0,0,0,-1,1000,799,0,0
-217,225,0,0,0,0,0,0,0,0,0,-1,1007,799,0,0
-210,225,0,0,0,0,0,0,0,0,0,-1,1014,799,0,0
-203,225,0,0,0,0,0,0,0,0,0,-1,1021,799,0,0
-196,225,0,0,0,0,0,0,0,0,0,-1,1028,799,0,0
-189,225,0,0,0,0,0,0,0,0,0,-1,1035,799,0,0
-182,225,0,0,0,0,0,0,0,0,0,-1,1042,799,0,0
-175,225,0,0,0,0,0,0,0,0,0,-1,1049,799,0,0
-168,225,0,0,0,0,0,0,0,0,0,-1,1056,799,0,0
-161,225,0,0,0,0,0,0,0,0,0,-1,1063,799,0,0
-154,225,0,0,0,0,0,0,0,0,0,-1,1070,799,0,0
-147,225,0,0,0,0,0,0,0,0,0,-1,1077,799,0,0
-140,225,0,0,0,0,0,0,0,0,0,-1,1084,799,0,0
-133,225,0,0,0,0,0,0,0,0,0,-1,1091,799,0,0
-126,225,0,0,0,0,0,0,0,0,0,-1,1098,799,0,0
-119,225,0,0,0,0,0,0,0,0,0,-1,1105,799,0,0
-112,225,0,0,0,0,0,0,0,0,0,-1,1112,799,0,0
-105,225,0,0,0,0,0,0,0,0,0,-1,1119,799,0,0
-98,225,0,0,0,0,0,0,0,0,0,-1,1126,799,0,0
-91,225,0,0,0,0,0,0,0,0,0,-1,1133,799,0,0
-84,225,0,0,0,0,0,0,0,0,0,-1,1140,799,0,0
-77,225,0,0,0,0,0,0,0,0,0,-1,1147,799,0,0
-70,225,0,0,0,0,0,0,0,0,0,-1,1154,799,0,0
-63,225,0,0,0,0,0,0,0,0,0,-1,1161,799,0,0
-56,225,0,0,0,0,0,0,0,0,0,-1,1168,799,0,0
-49,225,0,0,0,0,0,0,0,0,0,-1,1175,799,0,0
-42,225,0,0,0,0,0,0,0,0,0,-1,1182,799,0,0
-35,225,0,0,0,0,0,0,0,0,0,-1,1189,799,0,0
-28,225,0,0,0,0,0,0,0,0,0,-1,1196,799,0,0
-21,225,0,0,0,0,0,0,0,0,0,-1,1203,799,0,0
-14,225,0,0,0,0,0,0,0,0,0,-1,1210,799,0,0
-7,225,0,0,0,0,0,0,0,0,0,-1,1217,799,0,0
0,225,0,0,0,0,0,0,0,0,0,-1,1224,799,0,0
7,225,0,0,0,0,0,0,0,0,0,-1,1231,799,0,0
14,225,0,0,0,0,0,0,0,0,0,-1,1238,799,0,0
21,225,0,0,0,0,0,0,0,0,0,-1,1245,799,0,0
28,225,0,0,0,0,0,0,0,0,0,-1,1252,799,0,0
35,225,0,0,0,0,0,0,0,0,0,-1,1259,799,0,0
42,225,0,0,0,0,0,0,0,0,0,-1,1266,799,0,0
49,225,0,0,0,0,0,0,0,0,0,-1,1273,799,0,0
56,225,0,0,0,0,0,0,0,0,0,-1,1280,799,0,0
63,225,0,0,0,0,0,0,0,0,0,-1,1287,799,0,0
70,225,0,0,0,0,0,0,0,0,0,-1,1294,799,0,0
77,225,0,0,0,0,0,0,0,0,0,-1,1301,799,0,0
84,225,0,0,0,0,0,0,0,0,0,-1,1308,799,0,0
91,225,0,0,0,0,0,0,0,0,0,-1,1315,799,0,0
98,225,0,0,0,0,0,0,0,0,0,-1,1322,799,0,0
105,225,0,0,0,0,0,0,0,0,0,-1,1329,799,0,0
112,225,0,0,0,0,0,0,0,0,0,-1,1336,799,0,0
119,225,0,0,0,0,0,0,0,0,0,-1,1343,799,0,0
126,225,0,0,0,0,0,0,0,0,0,-1,1350,799,0,0
133,225,0,0,0,0,0,0,0,0,0,-1,1357,799,0,0
140,225,0,0,0,0,0,0,0,0,0,-1,1364,799,0,0
147,225,0,0,0,0,0,0,0,0,0,-1,1371,799,0,0
154,225,0,0,0,0,0,0,0,0,0,-1,1378,799,0,0
161,225,0,0,0,0,0,0,0,0,0,-1,1385,799,0,0
168,225,0,0,0,0,0,0,0,0,0,-1,1392,799,0,0
175,225,0,0,0,0,0,0,0,0,0,-1,1399,799,0,0
182,225,0,0,0,0,0,0,0,0,0,-1,1406,799,0,0
189,225,0,0,0,0,0,0,0,0,0,-1,1413,799,0,0
196,225,0,0,0,0,0,0,0,0,0,-1,1420,799,0,0
203,225,0,0,0,0,0,0,0,0,0,-1,1427,799,0,0
210,225,0,0,0,0,0,0,0,0,0,-1,1434,799,0,0
217,225,0,0,0,0,0,0,0,0,0,-1,1441,799,0,0
224,225,0,0,0,0,0,0,0,0,0,-1,1448,799,0,0
231,225,0,0,0,0,0,0,0,0,0,-1,1455,799,0,0
238,225,0,0,0,0,0,0,0,0,0,-1,1462,799,0,0
245,225,0,0,0,0,0,0,0,0,0,-1,1469,799,0,0
252,225,0,0,0,0,0,0,0,0,0,-1,1476,799,0,0
259,225,0,0,0,0,0,0,0,0,0,-1,1483,799,0,0
266,225,0,0,0,0,0,0,0,0,0,-1,1490,799,0,0
273,225,0,0,0,0,0,0,0,0,0,-1,1497,799,0,0
280,225,0,0,0,0,0,0,0,0,0,-1,1504,799,0,0
287,225,0,0,0,0,0,0,0,0,0,-1,1511,799,0,0
294,225,0,0,0,0,0,0,0,0,0,-1,1518,799,0,0
301,225,0,0,0,0,0,0,0,0,0,-1,1525,799,0,0
308,225,0,0,0,0,0,0,0,0,0,-1,1532,799,0,0
315,225,0,0,0,0,0,0,0,0,0,-1,1539,799,0,0
322,225,0,0,0,0,0,0,0,0,0,-1,1546,799,0,0
329,225,0,0,0,0,0,0,0,0,0,-1,1553,799,0,0
336,225,0,0,0,0,0,0,0,0,0,-1,1560,799,0,0
343,225,0,0,0,0,0,0,0,0,0,-1,1567,799,0,0
350,225,0,0,0,0,0,0,0,0,0,-1,1574,799,0,0
357,225,0,0,0,0,0,0,0,0,0,-1,1581,799,0,0
364,225,0,0,0,0,0,0,0,0,0,-1,1588,799,0,0
371,225,0,0,0,0,0,0,0,0,0,-1,1595,799,0,0
378,225,0,0,0,0,0,0,0,0,0,-1,1602,799,0,0
385,225,0,0,0,0,0,0,0,0,0,-1,1609,799,0,0
392,225,0,0,0,0,0,0,0,0,0,-1,1616,799,0,0
399,225,0,0,0,0,0,0,0,0,0,-1,1623,799,0,0
406,225,0,0,0,0,0,0,0,0,0,-1,1630,799,0,0
413,225,0,0,0,0,0,0,0,0,0,-1,1637,799,0,0
420,225,0,0,0,0,0,0,0,0,0,-1,1644,799,0,0
427,225,0,0,0,0,0,0,0,0,0,-1,1651,799,0,0
434,225,0,0,0,0,0,0,0,0,0,-1,1658,799,0,0
441,225,0,0,0,0,0,0,0,0,0,-1,1665,799,0,0
448,225,0,0,0,0,0,0,0,0,0,-1,1672,799,0,0
455,225,0,0,0,0,0,0,0,0,0,-1,1679,799,0,0
462,225,0,0,0,0,0,0,0,0,0,-1,1686,799,0,0
469,225,0,0,0,0,0,0,0,0,0,-1,1693,799,0,0
476,225,0,0,0,0,0,0,0,0,0,-1,1700,799,0,0
483,225,0,0,0,0,0,0,0,0,0,-1,1707,799,0,0
490,225,0,0,0,0,0,0,0,0,0,-1,1714,799,0,0
497,225,0,0,0,0,0,0,0,0,0,-1,1721,799,0,0
504,225,0,0,0,0,0,0,0,0,0,-1,1728,799,0,0
511,225,0,0,0,0,0,0,0,0,0,-1,1735,799,0,0
518,225,0,0,0,0,0,0,0,0,0,-1,1742,799,0,0
525,225,0,0,0,0,0,0,0,0,0,-1,1749,799,0,0
532,225,0,0,0,0,0,0,0,0,0,-1,1756,799,0,0
539,225,0,0,0,0,0,0,0,0,0,-1,1763,799,0,0
546,225,0,0,0,0,0,0,0,0,0,-1,1770,799,0,0
553,225,0,0,0,0,0,0,0,0,0,-1,1777,799,0,0
560,225,0,0,0,0,0,0,0,0,0,-1,1784,799,0,0
567,225,0,0,0,0,0,0,0,0,0,-1,1791,799,0,0
574,225,0,0,0,0,0,0,0,0,0,-1,1798,799,0,0
581,225,0,0,0,0,0,0,0,0,0,-1,1805,799,0,0
588,225,49.1326,2.76202,-4.11757e-05,0.00487682,0.00114204,0.00512908,-0.000293436,1.3534,0.00352127,0.0360817,1812,799,49.1326,-2.76205
595,225,49.2948,2.61688,0.000604578,0.00588639,-5.46096e-05,0.00588695,0.000604013,-1.56046,0.00373959,0.034543,1819,799,49.2948,-2.61689
602,225,49.269,2.58429,0.000619073,0.00617157,-0.000737805,0.00626794,0.000522708,-1.44092,0.00401575,0.0336703,1826,799,49.269,-2.58429
609,225,49.2101,2.67334,0.000546075,0.0056858,-0.000821093,0.00581378,0.000418089,-1.41617,0.00374428,0.0321481,1833,799,49.21,-2.67332
616,225,49.1464,2.71313,0.000345254,0.00463346,-0.000618604,0.00472092,0.0002578,-1.43035,0.00306496,0.038255,1840,799,49.1464,-2.71311
623,225,49.1775,2.72076,-9.10283e-05,0.00351431,-0.000492462,0.00358037,-0.000157084,-1.43746,0.00244096,0.0442786,1847,799,49.1775,-2.72078
630,225,49.3373,2.73627,-0.000340857,0.0026474,-0.000420867,0.00270555,-0.000399001,-1.43351,0.00195035,0.0469306,1854,799,49.3372,-2.73629
637,225,49.4929,2.73499,0,0,0,0,0,0,0,-1,1861,799,49.493,-2.73498
644,225,42.0298,2.46411,0,0,0,0,0,0,0,-1,1868,799,42.0298,-2.4641
651,225,27.9657,0.579529,0,0,0,0,0,0,0,-1,1875,799,27.9657,-0.579541
658,225,36.4457,-0.944458,0,0,0,0,0,0,0,-1,1882,799,36.4456,0.94448
665,225,35.9655,-0.534241,-0.00163739,0.000173262,-0.00063808,0.000375528,-0.00183966,-1.26382,0.00136889,0.029451,1889,799,35.9654,0.534245
672,225,35.7192,0.00878906,-0.00181306,-0.000145661,-0.000864278,0.000221486,-0.0021802,-1.16909,0.00153264,0.0276073,1896,799,35.7192,-0.00877783
679,225,35.6675,0.553894,-0.00206957,-0.00029578,-0.000870513,6.00538e-05,-0.00242541,-1.18276,0.00163732,0.0209963,1903,799,35.6675,-0.55387
686,225,35.6455,1.08075,-0.00199298,-0.000207738,-0.00110805,0.000322506,-0.00252322,-1.12447,0.00179931,0.0109542,1910,799,35.6455,-1.08073
693,225,35.6199,1.61572,-0.00139807,0.00015844,-0.00108418,0.000714775,-0.00195441,-1.09669,0.00159549,0.0101014,1917,799,35.6199,-1.61574
700,225,35.6088,2.18512,-0.000448202,0.000767192,-0.000587432,0.0010047,-0.000685711,-1.18657,0.000981735,0.0118335,1924,799,35.6088,-2.18513
707,225,35.5902,2.76544,0.000785338,0.00160886,-3.74019e-05,0.00161056,0.000783643,-1.5255,0.000929967,0.012162,1931,799,35.5902,-2.76544
714,225,35.5865,3.33557,0.00201681,0.00254821,0.000591191,0.00293066,0.00163435,0.99659,0.00169577,0.0131481,1938,799,35.5865,-3.33559
721,225,35.5851,3.89838,0.00334732,0.00348225,0.00118956,0.00460626,0.00222332,0.813726,0.00265996,0.0171849,1945,799,35.5851,-3.89836
728,225,35.4806,4.38361,0.00468136,0.00437208,0.0015913,0.00612551,0.00292793,0.736961,0.00353771,0.0340929,1952,799,35.4806,-4.38359
735,225,35.6125,5.09949,0,0,0,0,0,0,0,-1,1959,799,35.6125,-5.0995
742,225,29.0922,3.2132,0,0,0,0,0,0,0,-1,1966,799,29.0921,-3.21322
749,225,29.9529,4.45538,0,0,0,0,0,0,0,-1,1973,799,29.9529,-4.45537
756,225,31.8855,3.83466,0,0,0,0,0,0,0,-1,1980,799,31.8855,-3.83463
763,225,29.1302,5.2796,0,0,0,0,0,0,0,-1,1987,799,29.1303,-5.27958
770,225,0,0,0,0,0,0,0,0,0,-1,1994,799,0,0
777,225,0,0,0,0,0,0,0,0,0,-1,2001,799,0,0
784,225,0,0,0,0,0,0,0,0,0,-1,2008,799,0,0
791,225,0,0,0,0,0,0,0,0,0,-1,2015,799,0,0
798,225,0,0,0,0,0,0,0,0,0,-1,2022,799,0,0
805,225,0,0,0,0,0,0,0,0,0,-1,2029,799,0,0
812,225,0,0,0,0,0,0,0,0,0,-1,2036,799,0,0
-700,218,0,0,0,0,0,0,0,0,0,-1,524,806,0,0
-693,218,0,0,0,0,0,0,0,0,0,-1,531,806,0,0
-686,218,0,0,0,0,0,0,0,0,0,-1,538,806,0,0
-679,218,0,0,0,0,0,0,0,0,0,-1,545,806,0,0
-672,218,0,0,0,0,0,0,0,0,0,-1,552,806,0,0
-665,218,0,0,0,0,0,0,0,0,0,-1,559,806,0,0
-658,218,0,0,0,0,0,0,0,0,0,-1,566,806,0,0
-651,218,-26.2643,2.93054,0,0,0,0,0,0,0,-1,573,806,-26.2643,-2.93053
-644,218,-28.7305,4.12079,0,0,0,0,0,0,0,-1,580,806,-28.7305,-4.12076
-637,218,-29.3349,3.56067,0,0,0,0,0,0,0,-1,587,806,-29.3349,-3.56068
-630,218,-29.7347,3.06238,0,0,0,0,0,0,0,-1,594,806,-29.7347,-3.06238
-623,218,-29.4469,4.34161,0,0,0,0,0,0,0,-1,601,806,-29.4469,-4.34164
-616,218,-20.0258,1.87585,0,0,0,0,0,0,0,-1,608,806,-20.0258,-1.87585
-609,218,-25.2704,3.04486,0,0,0,0,0,0,0,-1,615,806,-25.2705,-3.04488
-602,218,-25.2706,2.46075,0.0140632,0.0108117,-0.00584403,0.0185034,0.00637151,-0.649737,0.0108541,0.0441126,622,806,-25.2706,-2.46075
-595,218,-25.2471,1.85986,0.00999405,0.00696235,-0.00493824,0.0136439,0.00331254,-0.636483,0.00821737,0.0203144,629,806,-25.2472,-1.85989
-588,218,-25.2291,1.284,0.0067297,0.00468256,-0.0036856,0.00953123,0.00188104,-0.649951,0.0058292,0.0127245,636,806,-25.229,-1.28399
-581,218,-25.2158,0.764099,0.00390871,0.00313222,-0.00237885,0.00593079,0.00111014,-0.704509,0.00364068,0.0116231,643,806,-25.2158,-0.764092
-574,218,-25.2327,0.22937,0.00194414,0.00149679,-0.00112932,0.00287172,0.000569208,-0.687632,0.00175577,0.0108541,650,806,-25.2327,-0.229351
-567,218,-25.2256,-0.338867,0.000588362,5.91632e-05,0.000388103,0.000793482,-0.000145957,0.486203,0.000583755,0.0181276,657,806,-25.2256,0.338841
-560,218,-25.2598,-0.856689,-0.000734542,-0.000859152,0.00148943,0.000693889,-0.00228758,0.764495,0.00180146,0.0180967,664,806,-25.2598,0.856702
-553,218,-25.2203,-1.48199,-0.00156184,-0.00158598,0.00230678,0.000732903,-0.00388073,0.782782,0.0028629,0.0175834,671,806,-25.2203,1.48198
-546,218,-25.345,-2.1272,-0.00177735,-0.00212404,0.00301287,0.00106716,-0.00496855,0.756662,0.00371947,0.0212575,678,806,-25.345,2.12722
-539,218,-25.3959,-2.67419,-0.00150833,-0.0029695,0.00341485,0.00125321,-0.00573104,0.680015,0.00429975,0.0344603,685,806,-25.3959,2.67421
-532,218,-25.5294,-2.95728,-0.00150412,-0.00317124,0.00362669,0.00138357,-0.00605893,0.67244,0.00457082,0.0454786,692,806,-25.5294,2.95731
-525,218,-26.0102,-3.14954,0,0,0,0,0,0,0,-1,699,806,-26.0102,3.14954
-518,218,-23.61,2.54181,0,0,0,0,0,0,0,-1,706,806,-23.61,-2.54183
-511,218,-37.1443,0.634094,0,0,0,0,0,0,0,-1,713,806,-37.1443,-0.634091
-504,218,-36.9932,0.764343,0.000895426,-0.00224454,0.00206104,0.00191634,-0.00326545,0.459911,0.00302532,0.0477251,720,806,-36.9931,-0.764367
-497,218,-36.9882,0.921143,0.00192926,-0.00153887,0.00112239,0.00226081,-0.00187041,0.287223,0.00238871,0.0463445,727,806,-36.9882,-0.921156
-490,218,-36.904,0.925903,0.00278603,-0.000367485,-4.37816e-05,0.00278664,-0.000368093,-0.0138798,0.00199183,0.03604,734,806,-36.904,-0.925879
-483,218,-36.9169,0.904724,0.00336471,0.00160368,-0.00164273,0.00434803,0.000620362,-0.53938,0.00271562,0.0328706,741,806,-36.9169,-0.9047
-476,218,-36.8575,0.865234,0.00280729,0.00517011,-0.00355488,0.00773476,0.000242649,-0.945824,0.00507755,0.0356868,748,806,-36.8576,-0.865222
-469,218,0,0,0,0,0,0,0,0,0,-1,755,806,0,0
-462,218,0,0,0,0,0,0,0,0,0,-1,762,806,0,0
-455,218,0,0,0,0,0,0,0,0,0,-1,769,806,0,0
-448,218,0,0,0,0,0,0,0,0,0,-1,776,806,0,0
-441,218,0,0,0,0,0,0,0,0,0,-1,783,806,0,0
-434,218,0,0,0,0,0,0,0,0,0,-1,790,806,0,0
-427,218,0,0,0,0,0,0,0,0,0,-1,797,806,0,0
-420,218,0,0,0,0,0,0,0,0,0,-1,804,806,0,0
-413,218,0,0,0,0,0,0,0,0,0,-1,811,806,0,0
-406,218,0,0,0,0,0,0,0,0,0,-1,818,806,0,0
-399,218,0,0,0,0,0,0,0,0,0,-1,825,806,0,0
-392,218,0,0,0,0,0,0,0,0,0,-1,832,806,0,0
-385,218,0,0,0,0,0,0,0,0,0,-1,839,806,0,0
-378,218,0,0,0,0,0,0,0,0,0,-1,846,806,0,0
-371,218,0,0,0,0,0,0,0,0,0,-1,853,806,0,0
-364,218,0,0,0,0,0,0,0,0,0,-1,860,806,0,0
-357,218,0,0,0,0,0,0,0,0,0,-1,867,806,0,0
-350,218,0,0,0,0,0,0,0,0,0,-1,874,806,0,0
-343,218,0,0,0,0,0,0,0,0,0,-1,881,806,0,0
-336,218,0,0,0,0,0,0,0,0,0,-1,888,806,0,0
-329,218,0,0,0,0,0,0,0,0,0,-1,895,806,0,0
-322,218,0,0,0,0,0,0,0,0,0,-1,902,806,0,0
-315,218,0,0,0,0,0,0,0,0,0,-1,909,806,0,0
-308,218,0,0,0,0,0,0,0,0,0,-1,916,806,0,0
-301,218,0,0,0,0,0,0,0,0,0,-1,923,806,0,0
-294,218,0,0,0,0,0,0,0,0,0,-1,930,806,0,0
-287,218,0,0,0,0,0,0,0,0,0,-1,937,806,0,0
-280,218,0,0,0,0,0,0,0,0,0,-1,944,806,0,0
-273,218,0,0,0,0,0,0,0,0,0,-1,951,806,0,0
-266,218,0,0,0,0,0,0,0,0,0,-1,958,806,0,0
-259,218,0,0,0,0,0,0,0,0,0,-1,965,806,0,0
-252,218,0,0,0,0,0,0,0,0,0,-1,972,806,0,0
-245,218,0,0,0,0,0,0,0,0,0,-1,979,806,0,0
-238,218,0,0,0,0,0,0,0,0,0,-1,986,806,0,0
-231,218,0,0,0,0,0,0,0,0,0,-1,993,806,0,0
-224,218,0,0,0,0,0,0,0,0,0,-1,1000,806,0,0
-217,218,0,0,0,0,0,0,0,0,0,-1,1007,806,0,0
-210,218,0,0,0,0,0,0,0,0,0,-1,1014,806,0,0
-203,218,0,0,0,0,0,0,0,0,0,-1,1021,806,0,0
-196,218,0,0,0,0,0,0,0,0,0,-1,1028,806,0,0
-189,218,0,0,0,0,0,0,0,0,0,-1,1035,806,0,0
-182,218,0,0,0,0,0,0,0,0,0,-1,1042,806,0,0
-175,218,0,0,0,0,0,0,0,0,0,-1,1049,806,0,0
-168,218,0,0,0,0,0,0,0,0,0,-1,1056,806,0,0
-161,218,0,0,0,0,0,0,0,0,0,-1,1063,806,0,0
-154,218,0,0,0,0,0,0,0,0,0,-1,1070,806,0,0
-147,218,0,0,0,0,0,0,0,0,0,-1,1077,806,0,0
-140,218,0,0,0,0,0,0,0,0,0,-1,1084,806,0,0
-133,218,0,0,0,0,0,0,0,0,0,-1,1091,806,0,0
-126,218,0,0,0,0,0,0,0,0,0,-1,1098,806,0,0
-119,218,0,0,0,0,0,0,0,0,0,-1,1105,806,0,0
-112,218,0,0,0,0,0,0,0,0,0,-1,1112,806,0,0
-105,218,0,0,0,0,0,0,0,0,0,-1,1119,806,0,0
-98,218,0,0,0,0,0,0,0,0,0,-1,1126,806,0,0
-91,218,0,0,0,0,0,0,0,0,0,-1,1133,806,0,0
-84,218,0,0,0,0,0,0,0,0,0,-1,1140,806,0,0
-77,218,0,0,0,0,0,0,0,0,0,-1,1147,806,0,0
-70,218,0,0,0,0,0,0,0,0,0,-1,1154,806,0,0
-63,218,0,0,0,0,0,0,0,0,0,-1,1161,806,0,0
-56,218,0,0,0,0,0,0,0,0,0,-1,1168,806,0,0
-49,218,0,0,0,0,0,0,0,0,0,-1,1175,806,0,0
-42,218,0,0,0,0,0,0,0,0,0,-1,1182,806,0,0
-35,218,0,0,0,0,0,0,0,0,0,-1,1189,806,0,0
-28,218,0,0,0,0,0,0,0,0,0,-1,1196,806,0,0
-21,218,0,0,0,0,0,0,0,0,0,-1,1203,806,0,0
-14,218,0,0,0,0,0,0,0,0,0,-1,1210,806,0,0
-7,218,0,0,0,0,0,0,0,0,0,-1,1217,806,0,0
0,218,0,0,0,0,0,0,0,0,0,-1,1224,806,0,0
7,218,0,0,0,0,0,0,0,0,0,-1,1231,806,0,0
14,218,0,0,0,0,0,0,0,0,0,-1,1238,806,0,0
21,218,0,0,0,0,0,0,0,0,0,-1,1245,806,0,0
28,218,0,0,0,0,0,0,0,0,0,-1,1252,806,0,0
35,218,0,0,0,0,0,0,0,0,0,-1,1259,806,0,0
42,218,0,0,0,0,0,0,0,0,0,-1,1266,806,0,0
49,218,0,0,0,0,0,0,0,0,0,-1,1273,806,0,0
56,218,0,0,0,0,0,0,0,0,0,-1,1280,806,0,0
63,218,0,0,0,0,0,0,0,0,0,-1,1287,806,0,0
70,218,0,0,0,0,0,0,0,0,0,-1,1294,806,0,0
77,218,0,0,0,0,0,0,0,0,0,-1,1301,806,0,0
84,218,0,0,0,0,0,0,0,0,0,-1,1308,806,0,0
91,218,0,0,0,0,0,0,0,0,0,-1,1315,806,0,0
98,218,0,0,0,0,0,0,0,0,0,-1,1322,806,0,0
105,218,0,0,0,0,0,0,0,0,0,-1,1329,806,0,0
112,218,0,0,0,0,0,0,0,0,0,-1,1336,806,0,0
119,218,0,0,0,0,0,0,0,0,0,-1,1343,806,0,0
126,218,0,0,0,0,0,0,0,0,0,-1,1350,806,0,0
133,218,0,0,0,0,0,0,0,0,0,-1,1357,806,0,0
140,218,0,0,0,0,0,0,0,0,0,-1,1364,806,0,0
147,218,0,0,0,0,0,0,0,0,0,-1,1371,806,0,0
154,218,0,0,0,0,0,0,0,0,0,-1,1378,806,0,0
161,218,0,0,0,0,0,0,0,0,0,-1,1385,806,0,0
168,218,0,0,0,0,0,0,0,0,0,-1,1392,806,0,0
175,218,0,0,0,0,0,0,0,0,0,-1,1399,806,0,0
182,218,0,0,0,0,0,0,0,0,0,-1,1406,806,0,0
189,218,0,0,0,0,0,0,0,0,0,-1,1413,806,0,0
196,218,0,0,0,0,0,0,0,0,0,-1,1420,806,0,0
203,218,0,0,0,0,0,0,0,0,0,-1,1427,806,0,0
210,218,0,0,0,0,0,0,0,0,0,-1,1434,806,0,0
217,218,0,0,0,0,0,0,0,0,0,-1,1441,806,0,0
224,218,0,0,0,0,0,0,0,0,0,-1,1448,806,0,0
231,218,0,0,0,0,0,0,0,0,0,-1,1455,806,0,0
238,218,0,0,0,0,0,0,0,0,0,-1,1462,806,0,0
245,218,0,0,0,0,0,0,0,0,0,-1,1469,806,0,0
252,218,0,0,0,0,0,0,0,0,0,-1,1476,806,0,0
259,218,0,0,0,0,0,0,0,0,0,-1,1483,806,0,0
266,218,0,0,0,0,0,0,0,0,0,-1,1490,806,0,0
273,218,0,0,0,0,0,0,0,0,0,-1,1497,806,0,0
280,218,0,0,0,0,0,0,0,0,0,-1,1504,806,0,0
287,218,0,0,0,0,0,0,0,0,0,-1,1511,806,0,0
294,218,0,0,0,0,0,0,0,0,0,-1,1518,806,0,0
301,218,0,0,0,0,0,0,0,0,0,-1,1525,806,0,0
308,218,0,0,0,0,0,0,0,0,0,-1,1532,806,0,0
315,218,0,0,0,0,0,0,0,0,0,-1,1539,806,0,0
322,218,0,0,0,0,0,0,0,0,0,-1,1546,806,0,0
329,218,0,0,0,0,0,0,0,0,0,-1,1553,806,0,0
336,218,0,0,0,0,0,0,0,0,0,-1,1560,806,0,0
343,218,0,0,0,0,0,0,0,0,0,-1,1567,806,0,0
350,218,0,0,0,0,0,0,0,0,0,-1,1574,806,0,0
357,218,0,0,0,0,0,0,0,0,0,-1,1581,806,0,0
364,218,0,0,0,0,0,0,0,0,0,-1,1588,806,0,0
371,218,0,0,0,0,0,0,0,0,0,-1,1595,806,0,0
378,218,0,0,0,0,0,0,0,0,0,-1,1602,806,0,0
385,218,0,0,0,0,0,0,0,0,0,-1,1609,806,0,0
392,218,0,0,0,0,0,0,0,0,0,-1,1616,806,0,0
399,218,0,0,0,0,0,0,0,0,0,-1,1623,806,0,0
406,218,0,0,0,0,0,0,0,0,0,-1,1630,806,0,0
413,218,0,0,0,0,0,0,0,0,0,-1,1637,806,0,0
420,218,0,0,0,0,0,0,0,0,0,-1,1644,806,0,0
427,218,0,0,0,0,0,0,0,0,0,-1,1651,806,0,0
434,218,0,0,0,0,0,0,0,0,0,-1,1658,806,0,0
441,218,0,0,0,0,0,0,0,0,0,-1,1665,806,0,0
448,218,0,0,0,0,0,0,0,0,0,-1,1672,806,0,0
455,218,0,0,0,0,0,0,0,0,0,-1,1679,806,0,0
462,218,0,0,0,0,0,0,0,0,0,-1,1686,806,0,0
469,218,0,0,0,0,0,0,0,0,0,-1,1693,806,0,0
476,218,0,0,0,0,0,0,0,0,0,-1,1700,806,0,0
483,218,0,0,0,0,0,0,0,0,0,-1,1707,806,0,0
490,218,0,0,0,0,0,0,0,0,0,-1,1714,806,0,0
497,218,0,0,0,0,0,0,0,0,0,-1,1721,806,0,0
504,218,0,0,0,0,0,0,0,0,0,-1,1728,806,0,0
511,218,0,0,0,0,0,0,0,0,0,-1,1735,806,0,0
518,218,0,0,0,0,0,0,0,0,0,-1,1742,806,0,0
525,218,0,0,0,0,0,0,0,0,0,-1,1749,806,0,0
532,218,0,0,0,0,0,0,0,0,0,-1,1756,806,0,0
539,218,0,0,0,0,0,0,0,0,0,-1,1763,806,0,0
546,218,0,0,0,0,0,0,0,0,0,-1,1770,806,0,0
553,218,0,0,0,0,0,0,0,0,0,-1,1777,806,0,0
560,218,0,0,0,0,0,0,0,0,0,-1,1784,806,0,0
567,218,0,0,0,0,0,0,0,0,0,-1,1791,806,0,0
574,218,0,0,0,0,0,0,0,0,0,-1,1798,806,0,0
581,218,0,0,0,0,0,0,0,0,0,-1,1805,806,0,0
588,218,0,0,0,0,0,0,0,0,0,-1,1812,806,0,0
595,218,49.3799,2.69427,0.00102542,0.0032842,0.000905992,0.00360268,0.000706933,1.23276,0.00220426,0.0366602,1819,806,49.3799,-2.6943
602,218,49.3296,2.61304,0.000778226,0.00389683,0.000263818,0.00391899,0.000756066,1.48699,0.00240066,0.0325819,1826,806,49.3296,-2.61305
609,218,49.2388,2.64423,0.00052595,0.00404826,1.12248e-05,0.00404829,0.000525915,1.56761,0.00254176,0.0280092,1833,806,49.2387,-2.64424
616,218,49.2007,2.68292,0.000344403,0.00364182,9.12999e-05,0.00364434,0.000341877,1.54314,0.002324,0.0309188,1840,806,49.2007,-2.6829
623,218,49.2164,2.61804,-7.78214e-05,0.00293641,9.07399e-05,0.00293914,-8.05507e-05,1.54073,0.00198682,0.0387294,1847,806,49.2164,-2.61805
630,218,49.3376,2.67413,-0.000407036,0.00237196,9.80577e-05,0.00237542,-0.000410492,1.53557,0.00173669,0.0417757,1854,806,49.3376,-2.67416
637,218,49.4263,2.76947,-0.000793186,0.00184493,-1.82744e-05,0.00184506,-0.000793312,-1.56387,0.00156309,0.047915,1861,806,49.4262,-2.76945
644,218,49.4829,2.85254,0,0,0,0,0,0,0,-1,1868,806,49.4829,-2.85255
651,218,41.7338,1.99164,0,0,0,0,0,0,0,-1,1875,806,41.7338,-1.99162
658,218,28.41,0.514954,0,0,0,0,0,0,0,-1,1882,806,28.41,-0.514983
665,218,36.6797,-0.540833,0,0,0,0,0,0,0,-1,1889,806,36.6797,0.540853
672,218,36.4799,0.0853882,-0.0019811,-2.92262e-05,-0.000986893,0.00038279,-0.00239311,-1.17531,0.00173712,0.0230638,1896,806,36.4799,-0.085394
679,218,36.3351,0.582886,-0.00232301,-0.000232641,-0.00102764,0.000187935,-0.00274358,-1.18233,0.00189481,0.0189075,1903,806,36.3351,-0.582897
686,218,36.2599,1.07202,-0.00236461,-0.000256241,-0.00136768,0.00041638,-0.00303723,-1.11373,0.00217693,0.0122811,1910,806,36.2599,-1.07204
693,218,36.2292,1.6275,-0.00189836,-7.02931e-05,-0.00149917,0.000771508,-0.00274016,-1.05916,0.00213102,0.0118625,1917,806,36.2292,-1.62752
700,218,36.1945,2.19794,-0.00100311,0.000379125,-0.00111003,0.000995606,-0.00161959,-1.06384,0.00152414,0.0101221,1924,806,36.1945,-2.19792
707,218,36.1708,2.76361,0.000285417,0.00107514,-0.000657317,0.00144707,-8.6522e-05,-1.05587,0.000994812,0.00850557,1931,806,36.1708,-2.76362
714,218,36.1625,3.33264,0.00162439,0.00191108,-0.000141204,0.00196894,0.00156652,-1.18186,0.00120117,0.0103527,1938,806,36.1625,-3.33263
721,218,36.1688,3.89856,0.00314395,0.00274193,0.000310271,0.00331263,0.00257325,0.49797,0.00200786,0.0136113,1945,806,36.1688,-3.89857
728,218,36.1592,4.52972,0.00474207,0.00349695,0.000536785,0.00494153,0.00329749,0.355774,0.00290574,0.025814,1952,806,36.1592,-4.52974
735,218,36.2109,5.22229,0.00657555,0.00435362,0.000658617,0.0067561,0.00417307,0.267567,0.00393648,0.0454405,1959,806,36.2109,-5.2223
742,218,36.3688,5.89844,0,0,0,0,0,0,0,-1,1966,806,36.3688,-5.89846
749,218,37.2681,4.93146,0,0,0,0,0,0,0,-1,1973,806,37.2681,-4.93147
756,218,36.3894,6.14001,0,0,0,0,0,0,0,-1,1980,806,36.3894,-6.14
763,218,35.1069,6.14771,0,0,0,0,0,0,0,-1,1987,806,35.1069,-6.1477
770,218,0,0,0,0,0,0,0,0,0,-1,1994,806,0,0
777,218,0,0,0,0,0,0,0,0,0,-1,2001,806,0,0
784,218,0,0,0,0,0,0,0,0,0,-1,2008,806,0,0
791,218,0,0,0,0,0,0,0,0,0,-1,2015,806,0,0
798,218,0,0,0,0,0,0,0,0,0,-1,2022,806,0,0
805,218,0,0,0,0,0,0,0,0,0,-1,2029,806,0,0
812,218,0,0,0,0,0,0,0,0,0,-1,2036,806,0,0
-700,211,0,0,0,0,0,0,0,0,0,-1,524,813,0,0
-693,211,0,0,0,0,0,0,0,0,0,-1,531,813,0,0
-686,211,0,0,0,0,0,0,0,0,0,-1,538,813,0,0
-679,211,0,0,0,0,0,0,0,0,0,-1,545,813,0,0
-672,211,0,0,0,0,0,0,0,0,0,-1,552,813,0,0
-665,211,0,0,0,0,0,0,0,0,0,-1,559,813,0,0
-658,211,0,0,0,0,0,0,0,0,0,-1,566,813,0,0
-651,211,-27.4962,4.72015,0,0,0,0,0,0,0,-1,573,813,-27.4961,-4.72016
-644,211,-25.6163,4.17889,0,0,0,0,0,0,0,-1,580,813,-25.6163,-4.17889
-637,211,-29.3029,4.28766,0,0,0,0,0,0,0,-1,587,813,-29.3029,-4.28766
-630,211,-26.2802,6.70776,0,0,0,0,0,0,0,-1,594,813,-26.2802,-6.70775
-623,211,-26.2827,6.96381,0,0,0,0,0,0,0,-1,601,813,-26.2827,-6.96378
-616,211,-25.9431,3.3764,0,0,0,0,0,0,0,-1,608,813,-25.9431,-3.37639
-609,211,-25.7975,2.85016,0.0195175,0.01572,-0.00488457,0.0228594,0.0123781,-0.600023,0.013213,0.0430748,615,813,-25.7975,-2.85016
-602,211,-25.7117,2.35065,0.0143127,0.0112496,-0.00444917,0.0174866,0.00807577,-0.619632,0.0101057,0.0231313,622,813,-25.7117,-2.35062
-595,211,-25.7559,1.85297,0.0100246,0.00716902,-0.00371343,0.0125753,0.00461836,-0.601864,0.00734513,0.0114667,629,813,-25.7559,-1.85295
-588,211,-25.7654,1.32141,0.0065446,0.00459621,-0.002641,0.00838536,0.00275545,-0.608704,0.00493519,0.0112436,636,813,-25.7654,-1.32143
-581,211,-25.7743,0.798157,0.00356667,0.00291655,-0.00141204,0.00469059,0.00179263,-0.672268,0.00273306,0.0118872,643,813,-25.7743,-0.798163
-574,211,-25.8082,0.247925,0.00161349,0.00122572,-0.000267987,0.00175037,0.00108884,-0.472243,0.00102057,0.0132378,650,813,-25.8082,-0.24795
-567,211,-25.8265,-0.302673,0.000471462,-0.000157312,0.00107927,0.0012812,-0.000967049,0.643672,0.00130224,0.0207172,657,813,-25.8265,0.30269
-560,211,-25.8069,-0.837341,-0.000674103,-0.000843115,0.00192071,0.00116396,-0.00268117,0.763414,0.00227686,0.0259423,664,813,-25.8069,0.837336
-553,211,-25.6429,-1.44391,-0.00130263,-0.00133747,0.00245367,0.00113368,-0.00377379,0.781848,0.00296685,0.0375457,671,813,-25.6429,1.44393
-546,211,-26.0286,-1.85101,-0.00134716,-0.00162075,0.0029807,0.00149988,-0.00446779,0.762468,0.00358465,0.0455776,678,813,-26.0286,1.85104
-539,211,-25.9604,-2.45081,-0.00106881,-0.00225273,0.00330965,0.0017014,-0.00502295,0.696904,0.00403709,0.028702,685,813,-25.9605,2.45082
-532,211,-25.7988,-3.18652,0,0,0,0,0,0,0,-1,692,813,-25.7988,3.18652
-525,211,-14.3009,2.3233,0,0,0,0,0,0,0,-1,699,813,-14.3009,-2.3233
-518,211,-34.952,1.93011,0,0,0,0,0,0,0,-1,706,813,-34.952,-1.9301
-511,211,-36.9502,0.83429,0,0,0,0,0,0,0,-1,713,813,-36.9502,-0.834273
-504,211,-36.8962,0.915894,0.00124061,-0.00101905,0.0021158,0.00250935,-0.00228778,0.540161,0.00277061,0.0469321,720,813,-36.8962,-0.915912
-497,211,-36.8024,1.03821,0.00246575,2.27235e-05,0.00117517,0.00293926,-0.000450792,0.383032,0.00212577,0.0455334,727,813,-36.8025,-1.03823
-490,211,-36.7742,1.0661,0.00354248,0.00169305,-2.99726e-06,0.00354248,0.00169305,-0.00162064,0.00204592,0.0347078,734,813,-36.7742,-1.06608
-483,211,-36.8651,1.05682,0.00439622,0.00447865,-0.00166085,0.00609879,0.00277607,-0.797804,0.00352585,0.0320122,741,813,-36.865,-1.05685
-476,211,-36.897,0.900269,0.00360023,0.00930499,-0.00336126,0.010861,0.0020442,-1.13724,0.00666462,0.0356112,748,813,-36.8971,-0.900271
-469,211,0,0,0,0,0,0,0,0,0,-1,755,813,0,0
-462,211,0,0,0,0,0,0,0,0,0,-1,762,813,0,0
-455,211,0,0,0,0,0,0,0,0,0,-1,769,813,0,0
-448,211,0,0,0,0,0,0,0,0,0,-1,776,813,0,0
-441,211,0,0,0,0,0,0,0,0,0,-1,783,813,0,0
-434,211,0,0,0,0,0,0,0,0,0,-1,790,813,0,0
-427,211,0,0,0,0,0,0,0,0,0,-1,797,813,0,0
-420,211,0,0,0,0,0,0,0,0,0,-1,804,813,0,0
-413,211,0,0,0,0,0,0,0,0,0,-1,811,813,0,0
-406,211,0,0,0,0,0,0,0,0,0,-1,818,813,0,0
-399,211,0,0,0,0,0,0,0,0,0,-1,825,813,0,0
-392,211,0,0,0,0,0,0,0,0,0,-1,832,813,0,0
-385,211,0,0,0,0,0,0,0,0,0,-1,839,813,0,0
-378,211,0,0,0,0,0,0,0,0,0,-1,846,813,0,0
-371,211,0,0,0,0,0,0,0,0,0,-1,853,813,0,0
-364,211,0,0,0,0,0,0,0,0,0,-1,860,813,0,0
-357,211,0,0,0,0,0,0,0,0,0,-1,867,813,0,0
-350,211,0,0,0,0,0,0,0,0,0,-1,874,813,0,0
-343,211,0,0,0,0,0,0,0,0,0,-1,881,813,0,0
-336,211,0,0,0,0,0,0,0,0,0,-1,888,813,0,0
-329,211,0,0,0,0,0,0,0,0,0,-1,895,813,0,0
-322,211,0,0,0,0,0,0,0,0,0,-1,902,813,0,0
-315,211,0,0,0,0,0,0,0,0,0,-1,909,813,0,0
-308,211,0,0,0,0,0,0,0,0,0,-1,916,813,0,0
-301,211,0,0,0,0,0,0,0,0,0,-1,923,813,0,0
-294,211,0,0,0,0,0,0,0,0,0,-1,930,813,0,0
-287,211,0,0,0,0,0,0,0,0,0,-1,937,813,0,0
-280,211,0,0,0,0,0,0,0,0,0,-1,944,813,0,0
-273,211,0,0,0,0,0,0,0,0,0,-1,951,813,0,0
-266,211,0,0,0,0,0,0,0,0,0,-1,958,813,0,0
-259,211,0,0,0,0,0,0,0,0,0,-1,965,813,0,0
-252,211,0,0,0,0,0,0,0,0,0,-1,972,813,0,0
-245,211,0,0,0,0,0,0,0,0,0,-1,979,813,0,0
-238,211,0,0,0,0,0,0,0,0,0,-1,986,813,0,0
-231,211,0,0,0,0,0,0,0,0,0,-1,993,813,0,0
-224,211,0,0,0,0,0,0,0,0,0,-1,1000,813,0,0
-217,211,0,0,0,0,0,0,0,0,0,-1,1007,813,0,0
-210,211,0,0,0,0,0,0,0,0,0,-1,1014,813,0,0
-203,211,0,0,0,0,0,0,0,0,0,-1,1021,813,0,0
-196,211,0,0,0,0,0,0,0,0,0,-1,1028,813,0,0
-189,211,0,0,0,0,0,0,0,0,0,-1,1035,813,0,0
-182,211,0,0,0,0,0,0,0,0,0,-1,1042,813,0,0
-175,211,0,0,0,0,0,0,0,0,0,-1,1049,813,0,0
-168,211,0,0,0,0,0,0,0,0,0,-1,1056,813,0,0
-161,211,0,0,0,0,0,0,0,0,0,-1,1063,813,0,0
-154,211,0,0,0,0,0,0,0,0,0,-1,1070,813,0,0
-147,211,0,0,0,0,0,0,0,0,0,-1,1077,813,0,0
-140,211,0,0,0,0,0,0,0,0,0,-1,1084,813,0,0
-133,211,0,0,0,0,0,0,0,0,0,-1,1091,813,0,0
-126,211,0,0,0,0,0,0,0,0,0,-1,1098,813,0,0
-119,211,0,0,0,0,0,0,0,0,0,-1,1105,813,0,0
-112,211,0,0,0,0,0,0,0,0,0,-1,1112,813,0,0
-105,211,0,0,0,0,0,0,0,0,0,-1,1119,813,0,0
-98,211,0,0,0,0,0,0,0,0,0,-1,1126,813,0,0
-91,211,0,0,0,0,0,0,0,0,0,-1,1133,813,0,0
-84,211,0,0,0,0,0,0,0,0,0,-1,1140,813,0,0
-77,211,0,0,0,0,0,0,0,0,0,-1,1147,813,0,0
-70,211,0,0,0,0,0,0,0,0,0,-1,1154,813,0,0
-63,211,0,0,0,0,0,0,0,0,0,-1,1161,813,0,0
-56,211,0,0,0,0,0,0,0,0,0,-1,1168,813,0,0
-49,211,0,0,0,0,0,0,0,0,0,-1,1175,813,0,0
-42,211,0,0,0,0,0,0,0,0,0,-1,1182,813,0,0
-35,211,0,0,0,0,0,0,0,0,0,-1,1189,813,0,0
-28,211,0,0,0,0,0,0,0,0,0,-1,1196,813,0,0
-21,211,0,0,0,0,0,0,0,0,0,-1,1203,813,0,0
-14,211,0,0,0,0,0,0,0,0,0,-1,1210,813,0,0
-7,211,0,0,0,0,0,0,0,0,0,-1,1217,813,0,0
0,211,0,0,0,0,0,0,0,0,0,-1,1224,813,0,0
7,211,0,0,0,0,0,0,0,0,0,-1,1231,813,0,0
14,211,0,0,0,0,0,0,0,0,0,-1,1238,813,0,0
21,211,0,0,0,0,0,0,0,0,0,-1,1245,813,0,0
28,211,0,0,0,0,0,0,0,0,0,-1,1252,813,0,0
35,211,0,0,0,0,0,0,0,0,0,-1,1259,813,0,0
42,211,0,0,0,0,0,0,0,0,0,-1,1266,813,0,0
49,211,0,0,0,0,0,0,0,0,0,-1,1273,813,0,0
56,211,0,0,0,0,0,0,0,0,0,-1,1280,813,0,0
63,211,0,0,0,0,0,0,0,0,0,-1,1287,813,0,0
70,211,0,0,0,0,0,0,0,0,0,-1,1294,813,0,0
77,211,0,0,0,0,0,0,0,0,0,-1,1301,813,0,0
84,211,0,0,0,0,0,0,0,0,0,-1,1308,813,0,0
91,211,0,0,0,0,0,0,0,0,0,-1,1315,813,0,0
98,211,0,0,0,0,0,0,0,0,0,-1,1322,813,0,0
105,211,0,0,0,0,0,0,0,0,0,-1,1329,813,0,0
112,211,0,0,0,0,0,0,0,0,0,-1,1336,813,0,0
119,211,0,0,0,0,0,0,0,0,0,-1,1343,813,0,0
126,211,0,0,0,0,0,0,0,0,0,-1,1350,813,0,0
133,211,0,0,0,0,0,0,0,0,0,-1,1357,813,0,0
140,211,0,0,0,0,0,0,0,0,0,-1,1364,813,0,0
147,211,0,0,0,0,0,0,0,0,0,-1,1371,813,0,0
154,211,0,0,0,0,0,0,0,0,0,-1,1378,813,0,0
161,211,0,0,0,0,0,0,0,0,0,-1,1385,813,0,0
168,211,0,0,0,0,0,0,0,0,0,-1,1392,813,0,0
175,211,0,0,0,0,0,0,0,0,0,-1,1399,813,0,0
182,211,0,0,0,0,0,0,0,0,0,-1,1406,813,0,0
189,211,0,0,0,0,0,0,0,0,0,-1,1413,813,0,0
196,211,0,0,0,0,0,0,0,0,0,-1,1420,813,0,0
203,211,0,0,0,0,0,0,0,0,0,-1,1427,813,0,0
210,211,0,0,0,0,0,0,0,0,0,-1,1434,813,0,0
217,211,0,0,0,0,0,0,0,0,0,-1,1441,813,0,0
224,211,0,0,0,0,0,0,0,0,0,-1,1448,813,0,0
231,211,0,0,0,0,0,0,0,0,0,-1,1455,813,0,0
238,211,0,0,0,0,0,0,0,0,0,-1,1462,813,0,0
245,211,0,0,0,0,0,0,0,0,0,-1,1469,813,0,0
252,211,0,0,0,0,0,0,0,0,0,-1,1476,813,0,0
259,211,0,0,0,0,0,0,0,0,0,-1,1483,813,0,0
266,211,0,0,0,0,0,0,0,0,0,-1,1490,813,0,0
273,211,0,0,0,0,0,0,0,0,0,-1,1497,813,0,0
280,211,0,0,0,0,0,0,0,0,0,-1,1504,813,0,0
287,211,0,0,0,0,0,0,0,0,0,-1,1511,813,0,0
294,211,0,0,0,0,0,0,0,0,0,-1,1518,813,0,0
301,211,0,0,0,0,0,0,0,0,0,-1,1525,813,0,0
308,211,0,0,0,0,0,0,0,0,0,-1,1532,813,0,0
315,211,0,0,0,0,0,0,0,0,0,-1,1539,813,0,0
322,211,0,0,0,0,0,0,0,0,0,-1,1546,813,0,0
329,211,0,0,0,0,0,0,0,0,0,-1,1553,813,0,0
336,211,0,0,0,0,0,0,0,0,0,-1,1560,813,0,0
343,211,0,0,0,0,0,0,0,0,0,-1,1567,813,0,0
350,211,0,0,0,0,0,0,0,0,0,-1,1574,813,0,0
357,211,0,0,0,0,0,0,0,0,0,-1,1581,813,0,0
364,211,0,0,0,0,0,0,0,0,0,-1,1588,813,0,0
371,211,0,0,0,0,0,0,0,0,0,-1,1595,813,0,0
378,211,0,0,0,0,0,0,0,0,0,-1,1602,813,0,0
385,211,0,0,0,0,0,0,0,0,0,-1,1609,813,0,0
392,211,0,0,0,0,0,0,0,0,0,-1,1616,813,0,0
399,211,0,0,0,0,0,0,0,0,0,-1,1623,813,0,0
406,211,0,0,0,0,0,0,0,0,0,-1,1630,813,0,0
413,211,0,0,0,0,0,0,0,0,0,-1,1637,813,0,0
420,211,0,0,0,0,0,0,0,0,0,-1,1644,813,0,0
427,211,0,0,0,0,0,0,0,0,0,-1,1651,813,0,0
434,211,0,0,0,0,0,0,0,0,0,-1,1658,813,0,0
441,211,0,0,0,0,0,0,0,0,0,-1,1665,813,0,0
448,211,0,0,0,0,0,0,0,0,0,-1,1672,813,0,0
455,211,0,0,0,0,0,0,0,0,0,-1,1679,813,0,0
462,211,0,0,0,0,0,0,0,0,0,-1,1686,813,0,0
469,211,0,0,0,0,0,0,0,0,0,-1,1693,813,0,0
476,211,0,0,0,0,0,0,0,0,0,-1,1700,813,0,0
483,211,0,0,0,0,0,0,0,0,0,-1,1707,813,0,0
490,211,0,0,0,0,0,0,0,0,0,-1,1714,813,0,0
497,211,0,0,0,0,0,0,0,0,0,-1,1721,813,0,0
504,211,0,0,0,0,0,0,0,0,0,-1,1728,813,0,0
511,211,0,0,0,0,0,0,0,0,0,-1,1735,813,0,0
518,211,0,0,0,0,0,0,0,0,0,-1,1742,813,0,0
525,211,0,0,0,0,0,0,0,0,0,-1,1749,813,0,0
532,211,0,0,0,0,0,0,0,0,0,-1,1756,813,0,0
539,211,0,0,0,0,0,0,0,0,0,-1,1763,813,0,0
546,211,0,0,0,0,0,0,0,0,0,-1,1770,813,0,0
553,211,0,0,0,0,0,0,0,0,0,-1,1777,813,0,0
560,211,0,0,0,0,0,0,0,0,0,-1,1784,813,0,0
567,211,0,0,0,0,0,0,0,0,0,-1,1791,813,0,0
574,211,0,0,0,0,0,0,0,0,0,-1,1798,813,0,0
581,211,0,0,0,0,0,0,0,0,0,-1,1805,813,0,0
588,211,0,0,0,0,0,0,0,0,0,-1,1812,813,0,0
595,211,49.3784,2.73511,0.00247617,0.00113544,0.00151881,0.00346598,0.000145634,0.577569,0.00226367,0.0373429,1819,813,49.3785,-2.7351
602,211,49.2589,2.64661,0.00147772,0.00189397,0.00132891,0.00303096,0.000340737,0.863074,0.00191718,0.0345787,1826,813,49.2589,-2.64661
609,211,49.256,2.69873,0.000703268,0.00254328,0.00117043,0.003112,0.000134544,1.11848,0.00203131,0.0340182,1833,813,49.256,-2.69871
616,211,49.2332,2.73956,0.00038296,0.00277786,0.00119143,0.00326961,-0.000108791,1.17936,0.00221689,0.029916,1840,813,49.2331,-2.73956
623,211,49.2367,2.64435,-3.97961e-05,0.00252675,0.00104312,0.00289722,-0.000410272,1.22953,0.00208176,0.0313435,1847,813,49.2366,-2.64433
630,211,49.2496,2.60944,-0.000455409,0.00228297,0.000921915,0.00256442,-0.000736857,1.2745,0.00200098,0.0373197,1854,813,49.2497,-2.60941
637,211,49.2552,2.7738,-0.000878676,0.00192507,0.000621654,0.00205672,-0.00101033,1.3621,0.00180479,0.0409177,1861,813,49.2552,-2.77382
644,211,49.0106,2.98145,0,0,0,0,0,0,0,-1,1868,813,49.0106,-2.98145
651,211,47.2827,3.42566,0,0,0,0,0,0,0,-1,1875,813,47.2827,-3.42569
658,211,27.7909,1.52234,0,0,0,0,0,0,0,-1,1882,813,27.7909,-1.52234
665,211,37.4203,-0.268066,0,0,0,0,0,0,0,-1,1889,813,37.4203,0.268081
672,211,37.238,0.117371,-0.00214357,0.000168542,-0.00101544,0.000551179,-0.00252621,-1.21043,0.00189478,0.0418775,1896,813,37.2381,-0.117351
679,211,37.0278,0.578308,-0.00254049,-5.68576e-05,-0.00111352,0.000369273,-0.00296662,-1.2053,0.00211163,0.0242624,1903,813,37.0278,-0.578338
686,211,36.8425,1.09821,-0.00268623,-0.000165833,-0.00154772,0.000569849,-0.00342191,-1.12708,0.00249303,0.0126639,1910,813,36.8425,-1.09818
693,211,36.8059,1.64203,-0.00241259,-0.000181016,-0.00184742,0.000861428,-0.00345503,-1.05706,0.00263781,0.0119752,1917,813,36.806,-1.64204
700,211,36.7292,2.19659,-0.00167751,5.26284e-05,-0.00160001,0.00100645,-0.00263133,-1.03322,0.00216899,0.0140406,1924,813,36.7293,-2.19657
707,211,36.7646,2.79895,-0.000475005,0.000536772,-0.00123568,0.00136611,-0.00130434,-0.979691,0.00154192,0.0221379,1931,813,36.7647,-2.79897
714,211,36.7527,3.39246,0.00087031,0.00126339,-0.000801952,0.00189253,0.000241164,-0.905567,0.00118948,0.0221984,1938,813,36.7527,-3.39245
721,211,36.7455,3.89099,0.00249534,0.00199985,-0.000433175,0.00274661,0.00174858,-0.525634,0.00160537,0.0165691,1945,813,36.7455,-3.89099
728,211,36.7706,4.45917,0.00425306,0.00263502,-0.000280812,0.00430041,0.00258767,-0.167045,0.00249991,0.0172928,1952,813,36.7707,-4.45914
735,211,36.8242,5.06628,0.00626724,0.0032874,-0.000292643,0.00629571,0.00325893,-0.0969731,0.00363558,0.030389,1959,813,36.8243,-5.06626
742,211,36.9651,5.64111,0,0,0,0,0,0,0,-1,1966,813,36.9651,-5.64109
749,211,36.5157,5.88165,0,0,0,0,0,0,0,-1,1973,813,36.5157,-5.88164
756,211,36.8253,6.28418,0,0,0,0,0,0,0,-1,1980,813,36.8254,-6.28418
763,211,36.8267,6.60382,0,0,0,0,0,0,0,-1,1987,813,36.8266,-6.60382
770,211,36.3982,6.86078,0,0,0,0,0,0,0,-1,1994,813,36.3981,-6.86079
777,211,0,0,0,0,0,0,0,0,0,-1,2001,813,0,0
784,211,0,0,0,0,0,0,0,0,0,-1,2008,813,0,0
791,211,0,0,0,0,0,0,0,0,0,-1,2015,813,0,0
798,211,0,0,0,0,0,0,0,0,0,-1,2022,813,0,0
805,211,0,0,0,0,0,0,0,0,0,-1,2029,813,0,0
812,211,0,0,0,0,0,0,0,0,0,-1,2036,813,0,0
-700,204,0,0,0,0,0,0,0,0,0,-1,524,820,0,0
-693,204,0,0,0,0,0,0,0,0,0,-1,531,820,0,0
-686,204,0,0,0,0,0,0,0,0,0,-1,538,820,0,0
-679,204,0,0,0,0,0,0,0,0,0,-1,545,820,0,0
-672,204,0,0,0,0,0,0,0,0,0,-1,552,820,0,0
-665,204,0,0,0,0,0,0,0,0,0,-1,559,820,0,0
-658,204,0,0,0,0,0,0,0,0,0,-1,566,820,0,0
-651,204,-27.908,5.30438,0,0,0,0,0,0,0,-1,573,820,-27.908,-5.30437
-644,204,-26.9005,5.4046,0,0,0,0,0,0,0,-1,580,820,-26.9005,-5.40461
-637,204,-26.352,7.71545,0,0,0,0,0,0,0,-1,587,820,-26.352,-7.71546
-630,204,-26.3576,4.56836,0,0,0,0,0,0,0,-1,594,820,-26.3576,-4.56833
-623,204,-27.0118,4.28339,0,0,0,0,0,0,0,-1,601,820,-27.0118,-4.28337
-616,204,-26.4039,3.49438,0,0,0,0,0,0,0,-1,608,820,-26.4039,-3.49439
-609,204,-26.2927,2.95074,0.0192525,0.0154044,-0.00323946,0.0210962,0.0135607,-0.517424,0.0123444,0.0370257,615,820,-26.2926,-2.95073
-602,204,-26.266,2.39569,0.0139306,0.0106911,-0.00283884,0.0155792,0.0090424,-0.52615,0.00903337,0.017136,622,820,-26.266,-2.39571
-595,204,-26.3108,1.84821,0.00953445,0.00663932,-0.00231998,0.0108214,0.00535233,-0.506474,0.00624788,0.0145788,629,820,-26.3108,-1.84818
-588,204,-26.3239,1.31958,0.00602638,0.00402789,-0.00149229,0.00682308,0.00323119,-0.490381,0.00394114,0.0126375,636,820,-26.3239,-1.31956
-581,204,-26.3323,0.794067,0.00306872,0.00235805,-0.000477087,0.00330826,0.00211851,-0.465313,0.00193495,0.0127741,643,820,-26.3323,-0.794037
-574,204,-26.3483,0.245972,0.00122064,0.000701308,0.000419684,0.00145449,0.000467454,0.508366,0.000857425,0.014136,650,820,-26.3483,-0.245987
-567,204,-26.3398,-0.285889,0.000361639,-0.000607096,0.00145611,0.00141183,-0.00165729,0.624833,0.00177384,0.0148319,657,820,-26.3398,0.28587
-560,204,-26.3128,-0.862488,-0.000552892,-0.00108626,0.00199988,0.00119801,-0.00283716,0.719114,0.00239292,0.0188731,664,820,-26.3128,0.862463
-553,204,-26.3986,-1.28607,-0.000961603,-0.00145955,0.00232254,0.00112527,-0.00354642,0.732003,0.00281536,0.0208521,671,820,-26.3985,1.2861
-546,204,-26.5554,-1.73206,-0.000866704,-0.00157505,0.00277637,0.00157799,-0.00401974,0.721958,0.00333277,0.0247849,678,820,-26.5554,1.73205
-539,204,-26.4282,-2.36139,-0.000577121,-0.00201451,0.00309667,0.00188316,-0.00447479,0.671374,0.00377105,0.0465147,685,820,-26.4282,2.36138
-532,204,-26.2948,-3.26794,0,0,0,0,0,0,0,-1,692,820,-26.2948,3.26797
-525,204,-25.7137,1.52496,0,0,0,0,0,0,0,-1,699,820,-25.7137,-1.52496
-518,204,-36.3036,1.34985,0,0,0,0,0,0,0,-1,706,820,-36.3037,-1.34987
-511,204,-36.6232,1.08936,0.000625503,-0.000957066,0.00293134,0.00287048,-0.00320204,0.65357,0.00350771,0.0478029,713,820,-36.6232,-1.08934
-504,204,-36.8409,0.983826,0.00158356,-0.000314578,0.00247336,0.00328369,-0.00201471,0.602203,0.00308814,0.0462609,720,820,-36.8409,-0.98381
-497,204,-36.8409,1.08069,0.00297904,0.00109944,0.00168524,0.00396882,0.000109666,0.531044,0.00261009,0.0385166,727,820,-36.8409,-1.0807
-490,204,-36.9085,1.05896,0.00437707,0.0033774,0.000628876,0.00468056,0.00307392,0.449614,0.00274622,0.035217,734,820,-36.9085,-1.05898
-483,204,-36.9967,1.01025,0.00591213,0.00723887,-0.00104905,0.0078167,0.0053343,-1.06733,0.00461201,0.0406947,741,820,-36.9967,-1.01026
-476,204,0,0,0,0,0,0,0,0,0,-1,748,820,0,0
-469,204,0,0,0,0,0,0,0,0,0,-1,755,820,0,0
-462,204,0,0,0,0,0,0,0,0,0,-1,762,820,0,0
-455,204,0,0,0,0,0,0,0,0,0,-1,769,820,0,0
-448,204,0,0,0,0,0,0,0,0,0,-1,776,820,0,0
-441,204,0,0,0,0,0,0,0,0,0,-1,783,820,0,0
-434,204,0,0,0,0,0,0,0,0,0,-1,790,820,0,0
-427,204,0,0,0,0,0,0,0,0,0,-1,797,820,0,0
-420,204,0,0,0,0,0,0,0,0,0,-1,804,820,0,0
-413,204,0,0,0,0,0,0,0,0,0,-1,811,820,0,0
-406,204,0,0,0,0,0,0,0,0,0,-1,818,820,0,0
-399,204,0,0,0,0,0,0,0,0,0,-1,825,820,0,0
-392,204,0,0,0,0,0,0,0,0,0,-1,832,820,0,0
-385,204,0,0,0,0,0,0,0,0,0,-1,839,820,0,0
-378,204,0,0,0,0,0,0,0,0,0,-1,846,820,0,0
-371,204,0,0,0,0,0,0,0,0,0,-1,853,820,0,0
-364,204,0,0,0,0,0,0,0,0,0,-1,860,820,0,0
-357,204,0,0,0,0,0,0,0,0,0,-1,867,820,0,0
-350,204,0,0,0,0,0,0,0,0,0,-1,874,820,0,0
-343,204,0,0,0,0,0,0,0,0,0,-1,881,820,0,0
-336,204,0,0,0,0,0,0,0,0,0,-1,888,820,0,0
-329,204,0,0,0,0,0,0,0,0,0,-1,895,820,0,0
-322,204,0,0,0,0,0,0,0,0,0,-1,902,820,0,0
-315,204,0,0,0,0,0,0,0,0,0,-1,909,820,0,0
-308,204,0,0,0,0,0,0,0,0,0,-1,916,820,0,0
-301,204,0,0,0,0,0,0,0,0,0,-1,923,820,0,0
-294,204,0,0,0,0,0,0,0,0,0,-1,930,820,0,0
-287,204,0,0,0,0,0,0,0,0,0,-1,937,820,0,0
-280,204,0,0,0,0,0,0,0,0,0,-1,944,820,0,0
-273,204,0,0,0,0,0,0,0,0,0,-1,951,820,0,0
-266,204,0,0,0,0,0,0,0,0,0,-1,958,820,0,0
-259,204,0,0,0,0,0,0,0,0,0,-1,965,820,0,0
-252,204,0,0,0,0,0,0,0,0,0,-1,972,820,0,0
-245,204,0,0,0,0,0,0,0,0,0,-1,979,820,0,0
-238,204,0,0,0,0,0,0,0,0,0,-1,986,820,0,0
-231,204,0,0,0,0,0,0,0,0,0,-1,993,820,0,0
-224,204,0,0,0,0,0,0,0,0,0,-1,1000,820,0,0
-217,204,0,0,0,0,0,0,0,0,0,-1,1007,820,0,0
-210,204,0,0,0,0,0,0,0,0,0,-1,1014,820,0,0
-203,204,0,0,0,0,0,0,0,0,0,-1,1021,820,0,0
-196,204,0,0,0,0,0,0,0,0,0,-1,1028,820,0,0
-189,204,0,0,0,0,0,0,0,0,0,-1,1035,820,0,0
-182,204,0,0,0,0,0,0,0,0,0,-1,1042,820,0,0
-175,204,0,0,0,0,0,0,0,0,0,-1,1049,820,0,0
-168,204,0,0,0,0,0,0,0,0,0,-1,1056,820,0,0
-161,204,0,0,0,0,0,0,0,0,0,-1,1063,820,0,0
-154,204,0,0,0,0,0,0,0,0,0,-1,1070,820,0,0
-147,204,0,0,0,0,0,0,0,0,0,-1,1077,820,0,0
-140,204,0,0,0,0,0,0,0,0,0,-1,1084,820,0,0
-133,204,0,0,0,0,0,0,0,0,0,-1,1091,820,0,0
-126,204,0,0,0,0,0,0,0,0,0,-1,1098,820,0,0
-119,204,0,0,0,0,0,0,0,0,0,-1,1105,820,0,0
-112,204,0,0,0,0,0,0,0,0,0,-1,1112,820,0,0
-105,204,0,0,0,0,0,0,0,0,0,-1,1119,820,0,0
-98,204,0,0,0,0,0,0,0,0,0,-1,1126,820,0,0
-91,204,0,0,0,0,0,0,0,0,0,-1,1133,820,0,0
-84,204,0,0,0,0,0,0,0,0,0,-1,1140,820,0,0
-77,204,0,0,0,0,0,0,0,0,0,-1,1147,820,0,0
-70,204,0,0,0,0,0,0,0,0,0,-1,1154,820,0,0
-63,204,0,0,0,0,0,0,0,0,0,-1,1161,820,0,0
-56,204,0,0,0,0,0,0,0,0,0,-1,1168,820,0,0
-49,204,0,0,0,0,0,0,0,0,0,-1,1175,820,0,0
-42,204,0,0,0,0,0,0,0,0,0,-1,1182,820,0,0
-35,204,0,0,0,0,0,0,0,0,0,-1,1189,820,0,0
-28,204,0,0,0,0,0,0,0,0,0,-1,1196,820,0,0
-21,204,0,0,0,0,0,0,0,0,0,-1,1203,820,0,0
-14,204,0,0,0,0,0,0,0,0,0,-1,1210,820,0,0
-7,204,0,0,0,0,0,0,0,0,0,-1,1217,820,0,0
0,204,0,0,0,0,0,0,0,0,0,-1,1224,820,0,0
7,204,0,0,0,0,0,0,0,0,0,-1,1231,820,0,0
14,204,0,0,0,0,0,0,0,0,0,-1,1238,820,0,0
21,204,0,0,0,0,0,0,0,0,0,-1,1245,820,0,0
28,204,0,0,0,0,0,0,0,0,0,-1,1252,820,0,0
35,204,0,0,0,0,0,0,0,0,0,-1,1259,820,0,0
42,204,0,0,0,0,0,0,0,0,0,-1,1266,820,0,0
49,204,0,0,0,0,0,0,0,0,0,-1,1273,820,0,0
56,204,0,0,0,0,0,0,0,0,0,-1,1280,820,0,0
63,204,0,0,0,0,0,0,0,0,0,-1,1287,820,0,0
70,204,0,0,0,0,0,0,0,0,0,-1,1294,820,0,0
77,204,0,0,0,0,0,0,0,0,0,-1,1301,820,0,0
84,204,0,0,0,0,0,0,0,0,0,-1,1308,820,0,0
91,204,0,0,0,0,0,0,0,0,0,-1,1315,820,0,0
98,204,0,0,0,0,0,0,0,0,0,-1,1322,820,0,0
105,204,0,0,0,0,0,0,0,0,0,-1,1329,820,0,0
112,204,0,0,0,0,0,0,0,0,0,-1,1336,820,0,0
119,204,0,0,0,0,0,0,0,0,0,-1,1343,820,0,0
126,204,0,0,0,0,0,0,0,0,0,-1,1350,820,0,0
133,204,0,0,0,0,0,0,0,0,0,-1,1357,820,0,0
140,204,0,0,0,0,0,0,0,0,0,-1,1364,820,0,0
147,204,0,0,0,0,0,0,0,0,0,-1,1371,820,0,0
154,204,0,0,0,0,0,0,0,0,0,-1,1378,820,0,0
161,204,0,0,0,0,0,0,0,0,0,-1,1385,820,0,0
168,204,0,0,0,0,0,0,0,0,0,-1,1392,820,0,0
175,204,0,0,0,0,0,0,0,0,0,-1,1399,820,0,0
182,204,0,0,0,0,0,0,0,0,0,-1,1406,820,0,0
189,204,0,0,0,0,0,0,0,0,0,-1,1413,820,0,0
196,204,0,0,0,0,0,0,0,0,0,-1,1420,820,0,0
203,204,0,0,0,0,0,0,0,0,0,-1,1427,820,0,0
210,204,0,0,0,0,0,0,0,0,0,-1,1434,820,0,0
217,204,0,0,0,0,0,0,0,0,0,-1,1441,820,0,0
224,204,0,0,0,0,0,0,0,0,0,-1,1448,820,0,0
231,204,0,0,0,0,0,0,0,0,0,-1,1455,820,0,0
238,204,0,0,0,0,0,0,0,0,0,-1,1462,820,0,0
245,204,0,0,0,0,0,0,0,0,0,-1,1469,820,0,0
252,204,0,0,0,0,0,0,0,0,0,-1,1476,820,0,0
259,204,0,0,0,0,0,0,0,0,0,-1,1483,820,0,0
266,204,0,0,0,0,0,0,0,0,0,-1,1490,820,0,0
273,204,0,0,0,0,0,0,0,0,0,-1,1497,820,0,0
280,204,0,0,0,0,0,0,0,0,0,-1,1504,820,0,0
287,204,0,0,0,0,0,0,0,0,0,-1,1511,820,0,0
294,204,0,0,0,0,0,0,0,0,0,-1,1518,820,0,0
301,204,0,0,0,0,0,0,0,0,0,-1,1525,820,0,0
308,204,0,0,0,0,0,0,0,0,0,-1,1532,820,0,0
315,204,0,0,0,0,0,0,0,0,0,-1,1539,820,0,0
322,204,0,0,0,0,0,0,0,0,0,-1,1546,820,0,0
329,204,0,0,0,0,0,0,0,0,0,-1,1553,820,0,0
336,204,0,0,0,0,0,0,0,0,0,-1,1560,820,0,0
343,204,0,0,0,0,0,0,0,0,0,-1,1567,820,0,0
350,204,0,0,0,0,0,0,0,0,0,-1,1574,820,0,0
357,204,0,0,0,0,0,0,0,0,0,-1,1581,820,0,0
364,204,0,0,0,0,0,0,0,0,0,-1,1588,820,0,0
371,204,0,0,0,0,0,0,0,0,0,-1,1595,820,0,0
378,204,0,0,0,0,0,0,0,0,0,-1,1602,820,0,0
385,204,0,0,0,0,0,0,0,0,0,-1,1609,820,0,0
392,204,0,0,0,0,0,0,0,0,0,-1,1616,820,0,0
399,204,0,0,0,0,0,0,0,0,0,-1,1623,820,0,0
406,204,0,0,0,0,0,0,0,0,0,-1,1630,820,0,0
413,204,0,0,0,0,0,0,0,0,0,-1,1637,820,0,0
420,204,0,0,0,0,0,0,0,0,0,-1,1644,820,0,0
427,204,0,0,0,0,0,0,0,0,0,-1,1651,820,0,0
434,204,0,0,0,0,0,0,0,0,0,-1,1658,820,0,0
441,204,0,0,0,0,0,0,0,0,0,-1,1665,820,0,0
448,204,0,0,0,0,0,0,0,0,0,-1,1672,820,0,0
455,204,0,0,0,0,0,0,0,0,0,-1,1679,820,0,0
462,204,0,0,0,0,0,0,0,0,0,-1,1686,820,0,0
469,204,0,0,0,0,0,0,0,0,0,-1,1693,820,0,0
476,204,0,0,0,0,0,0,0,0,0,-1,1700,820,0,0
483,204,0,0,0,0,0,0,0,0,0,-1,1707,820,0,0
490,204,0,0,0,0,0,0,0,0,0,-1,1714,820,0,0
497,204,0,0,0,0,0,0,0,0,0,-1,1721,820,0,0
504,204,0,0,0,0,0,0,0,0,0,-1,1728,820,0,0
511,204,0,0,0,0,0,0,0,0,0,-1,1735,820,0,0
518,204,0,0,0,0,0,0,0,0,0,-1,1742,820,0,0
525,204,0,0,0,0,0,0,0,0,0,-1,1749,820,0,0
532,204,0,0,0,0,0,0,0,0,0,-1,1756,820,0,0
539,204,0,0,0,0,0,0,0,0,0,-1,1763,820,0,0
546,204,0,0,0,0,0,0,0,0,0,-1,1770,820,0,0
553,204,0,0,0,0,0,0,0,0,0,-1,1777,820,0,0
560,204,0,0,0,0,0,0,0,0,0,-1,1784,820,0,0
567,204,0,0,0,0,0,0,0,0,0,-1,1791,820,0,0
574,204,0,0,0,0,0,0,0,0,0,-1,1798,820,0,0
581,204,0,0,0,0,0,0,0,0,0,-1,1805,820,0,0
588,204,0,0,0,0,0,0,0,0,0,-1,1812,820,0,0
595,204,0,0,0,0,0,0,0,0,0,-1,1819,820,0,0
602,204,49.2936,2.67255,0.00190599,0.000460137,0.00223515,0.00353222,-0.00116609,0.62899,0.00282491,0.0358227,1826,820,49.2936,-2.67252
609,204,49.316,2.69055,0.00103741,0.00132346,0.00200423,0.00318976,-0.000828896,0.821019,0.00245,0.0390983,1833,820,49.316,-2.69053
616,204,49.2755,2.71063,0.000712598,0.00195528,0.00189711,0.0033302,-0.000662328,0.943653,0.00247068,0.0365464,1840,820,49.2756,-2.7106
623,204,49.2214,2.66241,0.000289162,0.00206681,0.00162146,0.00302707,-0.000671103,1.03611,0.00227499,0.0276142,1847,820,49.2215,-2.66239
630,204,49.215,2.62311,-0.000219365,0.0020914,0.00136579,0.00272495,-0.000852918,1.13647,0.00215788,0.0272452,1854,820,49.2149,-2.62314
637,204,49.1572,2.71869,-0.000719382,0.00187595,0.000921277,0.00216972,-0.00101316,1.26211,0.00187764,0.0339759,1861,820,49.1572,-2.71868
644,204,49.0669,2.77808,-0.0012786,0.00144398,0.000573588,0.00155989,-0.0013945,1.37141,0.00170661,0.0412375,1868,820,49.0669,-2.77808
651,204,49.0237,2.76746,0,0,0,0,0,0,0,-1,1875,820,49.0237,-2.76746
658,204,34.9631,1.64844,0,0,0,0,0,0,0,-1,1882,820,34.9631,-1.64842
665,204,21.8292,1.51099,0,0,0,0,0,0,0,-1,1889,820,21.8292,-1.51099
672,204,37.9132,-0.0159302,0,0,0,0,0,0,0,-1,1896,820,37.9133,0.0159391
679,204,37.4893,0.430603,-0.00257349,-3.73558e-05,-0.00128308,0.000498542,-0.00310938,-1.17515,0.00225753,0.0386142,1903,820,37.4893,-0.430592
686,204,37.4082,1.09912,-0.0027707,-0.000194752,-0.00175902,0.000697417,-0.00366287,-1.10141,0.00270453,0.018495,1910,820,37.4082,-1.0991
693,204,37.3236,1.66437,-0.00266215,-0.000332591,-0.00216177,0.00095823,-0.00395297,-1.0325,0.00300607,0.0161334,1917,820,37.3237,-1.66439
700,204,37.3055,2.23077,-0.00210669,-0.000294971,-0.0020531,0.00104323,-0.0034449,-0.993161,0.00271207,0.0171357,1924,820,37.3055,-2.23076
707,204,37.3134,2.82532,-0.00100806,-3.41773e-06,-0.00178219,0.00134589,-0.00235737,-0.922762,0.0021645,0.0155432,1931,820,37.3133,-2.82532
714,204,37.2849,3.4483,0.000366775,0.000652226,-0.00140639,0.00192312,-0.000904117,-0.835967,0.00166727,0.0233612,1938,820,37.2849,-3.44833
721,204,37.2904,3.94922,0.00213282,0.00134736,-0.00107981,0.0028891,0.000591078,-0.610983,0.00176239,0.0211385,1945,820,37.2904,-3.94925
728,204,37.2854,4.45477,0.00408429,0.00193879,-0.000935266,0.00443475,0.00158833,-0.358518,0.00259452,0.0134658,1952,820,37.2854,-4.45479
735,204,37.2267,5.02905,0.00630707,0.00248705,-0.0009885,0.00654771,0.00224641,-0.238789,0.00384187,0.0158689,1959,820,37.2266,-5.02907
742,204,37.2677,5.47742,0.00907434,0.00279112,-0.00137295,0.00936124,0.00250421,-0.206004,0.00559609,0.0308718,1966,820,37.2677,-5.47744
749,204,37.1952,6.07227,0.0125624,0.0027248,-0.00207077,0.0129805,0.00230669,-0.199236,0.00799645,0.0467853,1973,820,37.1952,-6.07224
756,204,37.1991,6.62451,0.0173849,0.00207597,-0.00331135,0.0180704,0.00139042,-0.204147,0.0116113,0.0499288,1980,820,37.199,-6.62448
763,204,37.2389,7.19012,0,0,0,0,0,0,0,-1,1987,820,37.2389,-7.19011
770,204,37.5757,6.68909,0,0,0,0,0,0,0,-1,1994,820,37.5757,-6.68907
777,204,0,0,0,0,0,0,0,0,0,-1,2001,820,0,0
784,204,0,0,0,0,0,0,0,0,0,-1,2008,820,0,0
791,204,0,0,0,0,0,0,0,0,0,-1,2015,820,0,0
798,204,0,0,0,0,0,0,0,0,0,-1,2022,820,0,0
805,204,0,0,0,0,0,0,0,0,0,-1,2029,820,0,0
812,204,0,0,0,0,0,0,0,0,0,-1,2036,820,0,0
-700,197,0,0,0,0,0,0,0,0,0,-1,524,827,0,0
-693,197,0,0,0,0,0,0,0,0,0,-1,531,827,0,0
-686,197,0,0,0,0,0,0,0,0,0,-1,538,827,0,0
-679,197,0,0,0,0,0,0,0,0,0,-1,545,827,0,0
-672,197,0,0,0,0,0,0,0,0,0,-1,552,827,0,0
-665,197,0,0,0,0,0,0,0,0,0,-1,559,827,0,0
-658,197,-28.2596,6.08923,0,0,0,0,0,0,0,-1,566,827,-28.2596,-6.08923
-651,197,-27.3284,8.57526,0,0,0,0,0,0,0,-1,573,827,-27.3284,-8.57527
-644,197,-27.4,7.27838,0,0,0,0,0,0,0,-1,580,827,-27.3999,-7.27837
-637,197,-27.4547,5.95972,0,0,0,0,0,0,0,-1,587,827,-27.4547,-5.95974
-630,197,-27.0933,4.53906,0.0402666,0.0387124,-0.000983962,0.0407434,0.0382357,-0.451165,0.0263661,0.0469665,594,827,-27.0933,-4.53909
-623,197,-27.4437,3.90997,0.0330015,0.0293198,-0.00172149,0.0336811,0.0286403,-0.375952,0.0209767,0.0488119,601,827,-27.4437,-3.91
-616,197,-26.9899,3.51013,0.0258877,0.0217321,-0.00221817,0.0268492,0.0207706,-0.409036,0.0162566,0.047625,608,827,-26.9899,-3.51016
-609,197,-26.7711,2.98511,0.0195168,0.0151114,-0.00208497,0.0203471,0.0142811,-0.378971,0.0120623,0.0333082,615,827,-26.7711,-2.98511
-602,197,-26.7968,2.40948,0.0140021,0.0101569,-0.00157425,0.0145644,0.00959458,-0.343049,0.00854891,0.0176879,622,827,-26.7968,-2.40946
-595,197,-26.8487,1.90405,0.00949287,0.00618143,-0.00116818,0.00986349,0.00581081,-0.307218,0.00572477,0.0182599,629,827,-26.8487,-1.90405
-588,197,-26.8657,1.34418,0.0059599,0.00357685,-0.000503012,0.00606173,0.00347503,-0.199731,0.00351224,0.0202021,636,827,-26.8657,-1.34417
-581,197,-26.89,0.792969,0.00307822,0.00196531,0.00033949,0.00317361,0.00186992,0.273904,0.00184198,0.0119016,643,827,-26.89,-0.792981
-574,197,-26.8885,0.272583,0.00134839,0.000450656,0.00100232,0.00199776,-0.000198718,0.574876,0.00140278,0.0133074,650,827,-26.8885,-0.272583
-567,197,-26.8525,-0.246338,0.000682383,-0.000715314,0.00173422,0.00185327,-0.0018862,0.593864,0.00215901,0.0159975,657,827,-26.8525,0.246344
-560,197,-26.813,-0.78949,-9.09142e-05,-0.0010405,0.00205293,0.00154142,-0.00267283,0.671759,0.00246215,0.0260644,664,827,-26.813,0.789494
-553,197,-27.1752,-1.1983,-0.000365745,-0.00138708,0.00226047,0.00144103,-0.00319385,0.674308,0.00273899,0.0259203,671,827,-27.1752,1.19828
-546,197,-27.0892,-1.68567,-0.000207986,-0.00141272,0.00267127,0.001928,-0.0035487,0.674504,0.00320779,0.0407978,678,827,-27.0892,1.68566
-539,197,-26.8044,-2.19965,0,0,0,0,0,0,0,-1,685,827,-26.8044,2.19966
-532,197,-16.0519,0.0410156,0,0,0,0,0,0,0,-1,692,827,-16.0519,-0.0410415
-525,197,-35.3785,2.11829,0,0,0,0,0,0,0,-1,699,827,-35.3785,-2.11826
-518,197,-37.1696,0.307007,0,0,0,0,0,0,0,-1,706,827,-37.1696,-0.306999
-511,197,-36.7114,1.09344,0.000896415,-0.000638723,0.00311246,0.00333455,-0.00307686,0.664505,0.00370263,0.0418379,713,827,-36.7113,-1.09346
-504,197,-36.9225,0.991577,0.00191845,0.000152047,0.00280365,0.00397472,-0.00190422,0.63281,0.00346367,0.0380592,720,827,-36.9226,-0.991574
-497,197,-36.9236,1.12848,0.00344678,0.00188565,0.00221255,0.00501242,0.000320015,0.615819,0.00324021,0.037983,727,827,-36.9236,-1.12851
-490,197,-36.9518,1.15594,0.00520656,0.00467993,0.0013526,0.00632124,0.00356525,0.689264,0.00365952,0.0393477,734,827,-36.9518,-1.15597
-483,197,-37.1081,0.844116,0.00766864,0.00941315,-0.000199538,0.00943568,0.00764611,-1.45835,0.00578691,0.0416746,741,827,-37.1081,-0.844134
-476,197,0,0,0,0,0,0,0,0,0,-1,748,827,0,0
-469,197,0,0,0,0,0,0,0,0,0,-1,755,827,0,0
-462,197,0,0,0,0,0,0,0,0,0,-1,762,827,0,0
-455,197,0,0,0,0,0,0,0,0,0,-1,769,827,0,0
-448,197,0,0,0,0,0,0,0,0,0,-1,776,827,0,0
-441,197,0,0,0,0,0,0,0,0,0,-1,783,827,0,0
-434,197,0,0,0,0,0,0,0,0,0,-1,790,827,0,0
-427,197,0,0,0,0,0,0,0,0,0,-1,797,827,0,0
-420,197,0,0,0,0,0,0,0,0,0,-1,804,827,0,0
-413,197,0,0,0,0,0,0,0,0,0,-1,811,827,0,0
-406,197,0,0,0,0,0,0,0,0,0,-1,818,827,0,0
-399,197,0,0,0,0,0,0,0,0,0,-1,825,827,0,0
-392,197,0,0,0,0,0,0,0,0,0,-1,832,827,0,0
-385,197,0,0,0,0,0,0,0,0,0,-1,839,827,0,0
-378,197,0,0,0,0,0,0,0,0,0,-1,846,827,0,0
-371,197,0,0,0,0,0,0,0,0,0,-1,853,827,0,0
-364,197,0,0,0,0,0,0,0,0,0,-1,860,827,0,0
-357,197,0,0,0,0,0,0,0,0,0,-1,867,827,0,0
-350,197,0,0,0,0,0,0,0,0,0,-1,874,827,0,0
-343,197,0,0,0,0,0,0,0,0,0,-1,881,827,0,0
-336,197,0,0,0,0,0,0,0,0,0,-1,888,827,0,0
-329,197,0,0,0,0,0,0,0,0,0,-1,895,827,0,0
-322,197,0,0,0,0,0,0,0,0,0,-1,902,827,0,0
-315,197,0,0,0,0,0,0,0,0,0,-1,909,827,0,0
-308,197,0,0,0,0,0,0,0,0,0,-1,916,827,0,0
-301,197,0,0,0,0,0,0,0,0,0,-1,923,827,0,0
-294,197,0,0,0,0,0,0,0,0,0,-1,930,827,0,0
-287,197,0,0,0,0,0,0,0,0,0,-1,937,827,0,0
-280,197,0,0,0,0,0,0,0,0,0,-1,944,827,0,0
-273,197,0,0,0,0,0,0,0,0,0,-1,951,827,0,0
-266,197,0,0,0,0,0,0,0,0,0,-1,958,827,0,0
-259,197,0,0,0,0,0,0,0,0,0,-1,965,827,0,0
-252,197,0,0,0,0,0,0,0,0,0,-1,972,827,0,0
-245,197,0,0,0,0,0,0,0,0,0,-1,979,827,0,0
-238,197,0,0,0,0,0,0,0,0,0,-1,986,827,0,0
-231,197,0,0,0,0,0,0,0,0,0,-1,993,827,0,0
-224,197,0,0,0,0,0,0,0,0,0,-1,1000,827,0,0
-217,197,0,0,0,0,0,0,0,0,0,-1,1007,827,0,0
-210,197,0,0,0,0,0,0,0,0,0,-1,1014,827,0,0
-203,197,0,0,0,0,0,0,0,0,0,-1,1021,827,0,0
-196,197,0,0,0,0,0,0,0,0,0,-1,1028,827,0,0
-189,197,0,0,0,0,0,0,0,0,0,-1,1035,827,0,0
-182,197,0,0,0,0,0,0,0,0,0,-1,1042,827,0,0
-175,197,0,0,0,0,0,0,0,0,0,-1,1049,827,0,0
-168,197,0,0,0,0,0,0,0,0,0,-1,1056,827,0,0
-161,197,0,0,0,0,0,0,0,0,0,-1,1063,827,0,0
-154,197,0,0,0,0,0,0,0,0,0,-1,1070,827,0,0
-147,197,0,0,0,0,0,0,0,0,0,-1,1077,827,0,0
-140,197,0,0,0,0,0,0,0,0,0,-1,1084,827,0,0
-133,197,0,0,0,0,0,0,0,0,0,-1,1091,827,0,0
-126,197,0,0,0,0,0,0,0,0,0,-1,1098,827,0,0
-119,197,0,0,0,0,0,0,0,0,0,-1,1105,827,0,0
-112,197,0,0,0,0,0,0,0,0,0,-1,1112,827,0,0
-105,197,0,0,0,0,0,0,0,0,0,-1,1119,827,0,0
-98,197,0,0,0,0,0,0,0,0,0,-1,1126,827,0,0
-91,197,0,0,0,0,0,0,0,0,0,-1,1133,827,0,0
-84,197,0,0,0,0,0,0,0,0,0,-1,1140,827,0,0
-77,197,0,0,0,0,0,0,0,0,0,-1,1147,827,0,0
-70,197,0,0,0,0,0,0,0,0,0,-1,1154,827,0,0
-63,197,0,0,0,0,0,0,0,0,0,-1,1161,827,0,0
-56,197,0,0,0,0,0,0,0,0,0,-1,1168,827,0,0
-49,197,0,0,0,0,0,0,0,0,0,-1,1175,827,0,0
-42,197,0,0,0,0,0,0,0,0,0,-1,1182,827,0,0
-35,197,0,0,0,0,0,0,0,0,0,-1,1189,827,0,0
-28,197,0,0,0,0,0,0,0,0,0,-1,1196,827,0,0
-21,197,0,0,0,0,0,0,0,0,0,-1,1203,827,0,0
-14,197,0,0,0,0,0,0,0,0,0,-1,1210,827,0,0
-7,197,0,0,0,0,0,0,0,0,0,-1,1217,827,0,0
0,197,0,0,0,0,0,0,0,0,0,-1,1224,827,0,0
7,197,0,0,0,0,0,0,0,0,0,-1,1231,827,0,0
14,197,0,0,0,0,0,0,0,0,0,-1,1238,827,0,0
21,197,0,0,0,0,0,0,0,0,0,-1,1245,827,0,0
28,197,0,0,0,0,0,0,0,0,0,-1,1252,827,0,0
35,197,0,0,0,0,0,0,0,0,0,-1,1259,827,0,0
42,197,0,0,0,0,0,0,0,0,0,-1,1266,827,0,0
49,197,0,0,0,0,0,0,0,0,0,-1,1273,827,0,0
56,197,0,0,0,0,0,0,0,0,0,-1,1280,827,0,0
63,197,0,0,0,0,0,0,0,0,0,-1,1287,827,0,0
70,197,0,0,0,0,0,0,0,0,0,-1,1294,827,0,0
77,197,0,0,0,0,0,0,0,0,0,-1,1301,827,0,0
84,197,0,0,0,0,0,0,0,0,0,-1,1308,827,0,0
91,197,0,0,0,0,0,0,0,0,0,-1,1315,827,0,0
98,197,0,0,0,0,0,0,0,0,0,-1,1322,827,0,0
105,197,0,0,0,0,0,0,0,0,0,-1,1329,827,0,0
112,197,0,0,0,0,0,0,0,0,0,-1,1336,827,0,0
119,197,0,0,0,0,0,0,0,0,0,-1,1343,827,0,0
126,197,0,0,0,0,0,0,0,0,0,-1,1350,827,0,0
133,197,0,0,0,0,0,0,0,0,0,-1,1357,827,0,0
140,197,0,0,0,0,0,0,0,0,0,-1,1364,827,0,0
147,197,0,0,0,0,0,0,0,0,0,-1,1371,827,0,0
154,197,0,0,0,0,0,0,0,0,0,-1,1378,827,0,0
161,197,0,0,0,0,0,0,0,0,0,-1,1385,827,0,0
168,197,0,0,0,0,0,0,0,0,0,-1,1392,827,0,0
175,197,0,0,0,0,0,0,0,0,0,-1,1399,827,0,0
182,197,0,0,0,0,0,0,0,0,0,-1,1406,827,0,0
189,197,0,0,0,0,0,0,0,0,0,-1,1413,827,0,0
196,197,0,0,0,0,0,0,0,0,0,-1,1420,827,0,0
203,197,0,0,0,0,0,0,0,0,0,-1,1427,827,0,0
210,197,0,0,0,0,0,0,0,0,0,-1,1434,827,0,0
217,197,0,0,0,0,0,0,0,0,0,-1,1441,827,0,0
224,197,0,0,0,0,0,0,0,0,0,-1,1448,827,0,0
231,197,0,0,0,0,0,0,0,0,0,-1,1455,827,0,0
238,197,0,0,0,0,0,0,0,0,0,-1,1462,827,0,0
245,197,0,0,0,0,0,0,0,0,0,-1,1469,827,0,0
252,197,0,0,0,0,0,0,0,0,0,-1,1476,827,0,0
259,197,0,0,0,0,0,0,0,0,0,-1,1483,827,0,0
266,197,0,0,0,0,0,0,0,0,0,-1,1490,827,0,0
273,197,0,0,0,0,0,0,0,0,0,-1,1497,827,0,0
280,197,0,0,0,0,0,0,0,0,0,-1,1504,827,0,0
287,197,0,0,0,0,0,0,0,0,0,-1,1511,827,0,0
294,197,0,0,0,0,0,0,0,0,0,-1,1518,827,0,0
301,197,0,0,0,0,0,0,0,0,0,-1,1525,827,0,0
308,197,0,0,0,0,0,0,0,0,0,-1,1532,827,0,0
315,197,0,0,0,0,0,0,0,0,0,-1,1539,827,0,0
322,197,0,0,0,0,0,0,0,0,0,-1,1546,827,0,0
329,197,0,0,0,0,0,0,0,0,0,-1,1553,827,0,0
336,197,0,0,0,0,0,0,0,0,0,-1,1560,827,0,0
343,197,0,0,0,0,0,0,0,0,0,-1,1567,827,0,0
350,197,0,0,0,0,0,0,0,0,0,-1,1574,827,0,0
357,197,0,0,0,0,0,0,0,0,0,-1,1581,827,0,0
364,197,0,0,0,0,0,0,0,0,0,-1,1588,827,0,0
371,197,0,0,0,0,0,0,0,0,0,-1,1595,827,0,0
378,197,0,0,0,0,0,0,0,0,0,-1,1602,827,0,0
385,197,0,0,0,0,0,0,0,0,0,-1,1609,827,0,0
392,197,0,0,0,0,0,0,0,0,0,-1,1616,827,0,0
399,197,0,0,0,0,0,0,0,0,0,-1,1623,827,0,0
406,197,0,0,0,0,0,0,0,0,0,-1,1630,827,0,0
413,197,0,0,0,0,0,0,0,0,0,-1,1637,827,0,0
420,197,0,0,0,0,0,0,0,0,0,-1,1644,827,0,0
427,197,0,0,0,0,0,0,0,0,0,-1,1651,827,0,0
434,197,0,0,0,0,0,0,0,0,0,-1,1658,827,0,0
441,197,0,0,0,0,0,0,0,0,0,-1,1665,827,0,0
448,197,0,0,0,0,0,0,0,0,0,-1,1672,827,0,0
455,197,0,0,0,0,0,0,0,0,0,-1,1679,827,0,0
462,197,0,0,0,0,0,0,0,0,0,-1,1686,827,0,0
469,197,0,0,0,0,0,0,0,0,0,-1,1693,827,0,0
476,197,0,0,0,0,0,0,0,0,0,-1,1700,827,0,0
483,197,0,0,0,0,0,0,0,0,0,-1,1707,827,0,0
490,197,0,0,0,0,0,0,0,0,0,-1,1714,827,0,0
497,197,0,0,0,0,0,0,0,0,0,-1,1721,827,0,0
504,197,0,0,0,0,0,0,0,0,0,-1,1728,827,0,0
511,197,0,0,0,0,0,0,0,0,0,-1,1735,827,0,0
518,197,0,0,0,0,0,0,0,0,0,-1,1742,827,0,0
525,197,0,0,0,0,0,0,0,0,0,-1,1749,827,0,0
532,197,0,0,0,0,0,0,0,0,0,-1,1756,827,0,0
539,197,0,0,0,0,0,0,0,0,0,-1,1763,827,0,0
546,197,0,0,0,0,0,0,0,0,0,-1,1770,827,0,0
553,197,0,0,0,0,0,0,0,0,0,-1,1777,827,0,0
560,197,0,0,0,0,0,0,0,0,0,-1,1784,827,0,0
567,197,0,0,0,0,0,0,0,0,0,-1,1791,827,0,0
574,197,0,0,0,0,0,0,0,0,0,-1,1798,827,0,0
581,197,0,0,0,0,0,0,0,0,0,-1,1805,827,0,0
588,197,0,0,0,0,0,0,0,0,0,-1,1812,827,0,0
595,197,0,0,0,0,0,0,0,0,0,-1,1819,827,0,0
602,197,49.151,2.54437,0.00230501,0.000209052,0.00328216,0.00470244,-0.00218837,0.630866,0.00406572,0.0382007,1826,827,49.1509,-2.5444
609,197,49.2065,2.52069,0.00147812,0.00107536,0.00293641,0.00422004,-0.00166657,0.751162,0.0035036,0.0402812,1833,827,49.2066,-2.52069
616,197,49.1766,2.58209,0.00119498,0.00177376,0.00263692,0.00413713,-0.00116838,0.840051,0.00321902,0.039766,1840,827,49.1766,-2.58212
623,197,49.1537,2.60034,0.000797404,0.00200024,0.00220401,0.00368341,-0.000885771,0.918593,0.002798,0.0351596,1847,827,49.1537,-2.60031
630,197,49.1774,2.62561,0.000223728,0.00210262,0.00175682,0.0031554,-0.000829054,1.03092,0.00242761,0.0296764,1854,827,49.1774,-2.62562
637,197,49.1605,2.65533,-0.000368868,0.0019136,0.0011765,0.00241144,-0.00086671,1.17049,0.00196143,0.0269014,1861,827,49.1605,-2.65531
644,197,49.1497,2.65948,-0.000996509,0.00148757,0.000714833,0.00167858,-0.00118753,1.30968,0.00166283,0.0329343,1868,827,49.1497,-2.65951
651,197,49.0574,2.90045,0,0,0,0,0,0,0,-1,1875,827,49.0574,-2.90047
658,197,40.4694,3.05927,0,0,0,0,0,0,0,-1,1882,827,40.4694,-3.05926
665,197,14.0618,1.80304,0,0,0,0,0,0,0,-1,1889,827,14.0617,-1.80303
672,197,37.0833,-0.0733032,0,0,0,0,0,0,0,-1,1896,827,37.0833,0.0732821
679,197,37.8953,0.247131,0,0,0,0,0,0,0,-1,1903,827,37.8953,-0.247161
686,197,37.9697,1.16028,-0.0025639,-0.000319256,-0.00181111,0.000689089,-0.00357225,-1.06278,0.00264133,0.0317566,1910,827,37.9697,-1.16026
693,197,37.884,1.76672,-0.00255692,-0.000507575,-0.00223471,0.000926179,-0.00399068,-1.00036,0.00301694,0.0185324,1917,827,37.884,-1.76672
700,197,37.8464,2.29706,-0.00218822,-0.000609155,-0.00222142,0.000958866,-0.00375624,-0.956145,0.00287753,0.0214612,1924,827,37.8464,-2.29705
707,197,37.8896,2.84235,-0.00128954,-0.000489788,-0.00206223,0.00121098,-0.00299031,-0.881162,0.00249708,0.0094288,1931,827,37.8896,-2.84233
714,197,37.8567,3.39771,-3.59325e-05,0.000103469,-0.00179076,0.00182589,-0.00175835,-0.80485,0.00206948,0.011861,1938,827,37.8566,-3.3977
721,197,37.8315,3.93542,0.00171604,0.000748259,-0.00155983,0.00286531,-0.000401008,-0.634994,0.00205695,0.0120275,1945,827,37.8316,-3.93546
728,197,37.8119,4.47937,0.00371642,0.00130148,-0.00146857,0.00441018,0.00060772,-0.44133,0.00275994,0.0106511,1952,827,37.8119,-4.47934
735,197,37.7775,5.05023,0.00598593,0.00177346,-0.0015961,0.00652238,0.00123702,-0.324236,0.00400019,0.0113393,1959,827,37.7775,-5.05026
742,197,37.7797,5.61108,0.00875751,0.00205081,-0.00202403,0.009321,0.00148731,-0.271525,0.00578235,0.0206988,1966,827,37.7796,-5.61106
749,197,37.8175,6.16614,0.0122204,0.00199853,-0.00273606,0.0129066,0.00131224,-0.245758,0.00820208,0.0429744,1973,827,37.8175,-6.16613
756,197,37.9867,6.7691,0.0170712,0.00144841,-0.00390531,0.017993,0.00052657,-0.231804,0.0118238,0.0458544,1980,827,37.9867,-6.76907
763,197,38.3643,7.42816,0,0,0,0,0,0,0,-1,1987,827,38.3643,-7.42817
770,197,38.7223,7.02832,0,0,0,0,0,0,0,-1,1994,827,38.7222,-7.02832
777,197,0,0,0,0,0,0,0,0,0,-1,2001,827,0,0
784,197,0,0,0,0,0,0,0,0,0,-1,2008,827,0,0
791,197,0,0,0,0,0,0,0,0,0,-1,2015,827,0,0
798,197,0,0,0,0,0,0,0,0,0,-1,2022,827,0,0
805,197,0,0,0,0,0,0,0,0,0,-1,2029,827,0,0
812,197,0,0,0,0,0,0,0,0,0,-1,2036,827,0,0
-700,190,0,0,0,0,0,0,0,0,0,-1,524,834,0,0
-693,190,0,0,0,0,0,0,0,0,0,-1,531,834,0,0
-686,190,0,0,0,0,0,0,0,0,0,-1,538,834,0,0
-679,190,0,0,0,0,0,0,0,0,0,-1,545,834,0,0
-672,190,0,0,0,0,0,0,0,0,0,-1,552,834,0,0
-665,190,0,0,0,0,0,0,0,0,0,-1,559,834,0,0
-658,190,-28.554,9.08722,0,0,0,0,0,0,0,-1,566,834,-28.5539,-9.08721
-651,190,-28.5444,7.99921,0.0518473,0.0745574,0.00490202,0.0755704,0.0508344,1.36703,0.0444894,0.0485244,573,834,-28.5443,-7.99924
-644,190,-28.4889,6.84064,0.0504406,0.0613061,0.00213592,0.0617109,0.0500358,1.3835,0.0378539,0.0474867,580,834,-28.4889,-6.84063
-637,190,-28.2614,5.69891,0.0461872,0.0489558,0.000180213,0.0489675,0.0461756,1.50607,0.0317553,0.0485454,587,834,-28.2614,-5.69893
-630,190,-27.9977,4.49768,0.0400446,0.0380273,-0.000986517,0.0404468,0.0376251,-0.387155,0.0260749,0.0498258,594,834,-27.9977,-4.4977
-623,190,-27.7062,3.73956,0.0327499,0.0288091,-0.00142204,0.0332094,0.0283496,-0.312573,0.0207106,0.0492571,601,834,-27.7062,-3.73955
-616,190,-27.4835,3.36511,0.025856,0.0214787,-0.00181028,0.0265076,0.0208271,-0.345533,0.0161155,0.0456486,608,834,-27.4835,-3.36512
-609,190,-27.2869,2.91858,0.0194831,0.014708,-0.00150568,0.0199182,0.0142729,-0.281321,0.0118539,0.0256854,615,834,-27.2869,-2.91861
-602,190,-27.3503,2.43597,0.0137618,0.00962379,-0.000836003,0.0139243,0.00946127,-0.192003,0.00821001,0.0166846,622,834,-27.3503,-2.43596
-595,190,-27.3956,1.92279,0.00913707,0.00573389,-0.000402165,0.00918395,0.00568701,-0.116044,0.00535237,0.0196903,629,834,-27.3956,-1.9228
-588,190,-27.4178,1.35986,0.0056159,0.00314753,0.000220762,0.00563549,0.00312794,0.0885004,0.00326022,0.0187697,636,834,-27.4178,-1.35986
-581,190,-27.4153,0.816833,0.00292784,0.00161631,0.000964378,0.00343829,0.00110586,0.486813,0.00202677,0.0132424,643,834,-27.4153,-0.816809
-574,190,-27.3992,0.290588,0.00139173,0.000338371,0.00144269,0.00240087,-0.000670771,0.610381,0.00186483,0.0119343,650,834,-27.3992,-0.290573
-567,190,-27.3091,-0.308716,0.000918574,-0.00062765,0.00190086,0.00219752,-0.0019066,0.592256,0.0023715,0.0232155,657,834,-27.3092,0.308737
-560,190,-27.4149,-0.767151,0.000293205,-0.0007841,0.00204235,0.00186674,-0.00235763,0.656463,0.00244443,0.0461601,664,834,-27.4149,0.767151
-553,190,-27.9185,-1.35315,0,0,0,0,0,0,0,-1,671,834,-27.9185,1.35314
-546,190,-27.6564,-1.73035,0,0,0,0,0,0,0,-1,678,834,-27.6564,1.73033
-539,190,-16.4624,-0.542542,0,0,0,0,0,0,0,-1,685,834,-16.4624,0.542527
-532,190,-21.6292,2.06122,0,0,0,0,0,0,0,-1,692,834,-21.6292,-2.06123
-525,190,-37.7125,-0.580627,0,0,0,0,0,0,0,-1,699,834,-37.7125,0.580629
-518,190,-37.1418,0.385437,0.00102806,-0.000419468,0.00291162,0.00330453,-0.00269594,0.663579,0.0034703,0.0480864,706,834,-37.1418,-0.38542
-511,190,-36.8204,0.997009,0.00134298,5.26656e-05,0.00296694,0.0037341,-0.00233845,0.67834,0.00353672,0.0414552,713,834,-36.8204,-0.997017
-504,190,-36.949,0.829224,0.00244982,0.000948602,0.00280695,0.00460479,-0.00120636,0.65475,0.00354115,0.0402151,720,834,-36.9489,-0.8292
-497,190,-36.7432,1.16418,0.00415732,0.00290248,0.00251029,0.00611741,0.000942395,0.662938,0.00380326,0.0409979,727,834,-36.7432,-1.1642
-490,190,-36.6874,1.39551,0.00635435,0.00602881,0.00202632,0.00822442,0.00415873,0.745321,0.00474847,0.0406559,734,834,-36.6874,-1.3955
-483,190,0,0,0,0,0,0,0,0,0,-1,741,834,0,0
-476,190,0,0,0,0,0,0,0,0,0,-1,748,834,0,0
-469,190,0,0,0,0,0,0,0,0,0,-1,755,834,0,0
-462,190,0,0,0,0,0,0,0,0,0,-1,762,834,0,0
-455,190,0,0,0,0,0,0,0,0,0,-1,769,834,0,0
-448,190,0,0,0,0,0,0,0,0,0,-1,776,834,0,0
-441,190,0,0,0,0,0,0,0,0,0,-1,783,834,0,0
-434,190,0,0,0,0,0,0,0,0,0,-1,790,834,0,0
-427,190,0,0,0,0,0,0,0,0,0,-1,797,834,0,0
-420,190,0,0,0,0,0,0,0,0,0,-1,804,834,0,0
-413,190,0,0,0,0,0,0,0,0,0,-1,811,834,0,0
-406,190,0,0,0,0,0,0,0,0,0,-1,818,834,0,0
-399,190,0,0,0,0,0,0,0,0,0,-1,825,834,0,0
-392,190,0,0,0,0,0,0,0,0,0,-1,832,834,0,0
-385,190,0,0,0,0,0,0,0,0,0,-1,839,834,0,0
-378,190,0,0,0,0,0,0,0,0,0,-1,846,834,0,0
-371,190,0,0,0,0,0,0,0,0,0,-1,853,834,0,0
-364,190,0,0,0,0,0,0,0,0,0,-1,860,834,0,0
-357,190,0,0,0,0,0,0,0,0,0,-1,867,834,0,0
-350,190,0,0,0,0,0,0,0,0,0,-1,874,834,0,0
-343,190,0,0,0,0,0,0,0,0,0,-1,881,834,0,0
-336,190,0,0,0,0,0,0,0,0,0,-1,888,834,0,0
-329,190,0,0,0,0,0,0,0,0,0,-1,895,834,0,0
-322,190,0,0,0,0,0,0,0,0,0,-1,902,834,0,0
-315,190,0,0,0,0,0,0,0,0,0,-1,909,834,0,0
-308,190,0,0,0,0,0,0,0,0,0,-1,916,834,0,0
-301,190,0,0,0,0,0,0,0,0,0,-1,923,834,0,0
-294,190,0,0,0,0,0,0,0,0,0,-1,930,834,0,0
-287,190,0,0,0,0,0,0,0,0,0,-1,937,834,0,0
-280,190,0,0,0,0,0,0,0,0,0,-1,944,834,0,0
-273,190,0,0,0,0,0,0,0,0,0,-1,951,834,0,0
-266,190,0,0,0,0,0,0,0,0,0,-1,958,834,0,0
-259,190,0,0,0,0,0,0,0,0,0,-1,965,834,0,0
-252,190,0,0,0,0,0,0,0,0,0,-1,972,834,0,0
-245,190,0,0,0,0,0,0,0,0,0,-1,979,834,0,0
-238,190,0,0,0,0,0,0,0,0,0,-1,986,834,0,0
-231,190,0,0,0,0,0,0,0,0,0,-1,993,834,0,0
-224,190,0,0,0,0,0,0,0,0,0,-1,1000,834,0,0
-217,190,0,0,0,0,0,0,0,0,0,-1,1007,834,0,0
-210,190,0,0,0,0,0,0,0,0,0,-1,1014,834,0,0
-203,190,0,0,0,0,0,0,0,0,0,-1,1021,834,0,0
-196,190,0,0,0,0,0,0,0,0,0,-1,1028,834,0,0
-189,190,0,0,0,0,0,0,0,0,0,-1,1035,834,0,0
-182,190,0,0,0,0,0,0,0,0,0,-1,1042,834,0,0
-175,190,0,0,0,0,0,0,0,0,0,-1,1049,834,0,0
-168,190,0,0,0,0,0,0,0,0,0,-1,1056,834,0,0
-161,190,0,0,0,0,0,0,0,0,0,-1,1063,834,0,0
-154,190,0,0,0,0,0,0,0,0,0,-1,1070,834,0,0
-147,190,0,0,0,0,0,0,0,0,0,-1,1077,834,0,0
-140,190,0,0,0,0,0,0,0,0,0,-1,1084,834,0,0
-133,190,0,0,0,0,0,0,0,0,0,-1,1091,834,0,0
-126,190,0,0,0,0,0,0,0,0,0,-1,1098,834,0,0
-119,190,0,0,0,0,0,0,0,0,0,-1,1105,834,0,0
-112,190,0,0,0,0,0,0,0,0,0,-1,1112,834,0,0
-105,190,0,0,0,0,0,0,0,0,0,-1,1119,834,0,0
-98,190,0,0,0,0,0,0,0,0,0,-1,1126,834,0,0
-91,190,0,0,0,0,0,0,0,0,0,-1,1133,834,0,0
-84,190,0,0,0,0,0,0,0,0,0,-1,1140,834,0,0
-77,190,0,0,0,0,0,0,0,0,0,-1,1147,834,0,0
-70,190,0,0,0,0,0,0,0,0,0,-1,1154,834,0,0
-63,190,0,0,0,0,0,0,0,0,0,-1,1161,834,0,0
-56,190,0,0,0,0,0,0,0,0,0,-1,1168,834,0,0
-49,190,0,0,0,0,0,0,0,0,0,-1,1175,834,0,0
-42,190,0,0,0,0,0,0,0,0,0,-1,1182,834,0,0
-35,190,0,0,0,0,0,0,0,0,0,-1,1189,834,0,0
-28,190,0,0,0,0,0,0,0,0,0,-1,1196,834,0,0
-21,190,0,0,0,0,0,0,0,0,0,-1,1203,834,0,0
-14,190,0,0,0,0,0,0,0,0,0,-1,1210,834,0,0
-7,190,0,0,0,0,0,0,0,0,0,-1,1217,834,0,0
0,190,0,0,0,0,0,0,0,0,0,-1,1224,834,0,0
7,190,0,0,0,0,0,0,0,0,0,-1,1231,834,0,0
14,190,0,0,0,0,0,0,0,0,0,-1,1238,834,0,0
21,190,0,0,0,0,0,0,0,0,0,-1,1245,834,0,0
28,190,0,0,0,0,0,0,0,0,0,-1,1252,834,0,0
35,190,0,0,0,0,0,0,0,0,0,-1,1259,834,0,0
42,190,0,0,0,0,0,0,0,0,0,-1,1266,834,0,0
49,190,0,0,0,0,0,0,0,0,0,-1,1273,834,0,0
56,190,0,0,0,0,0,0,0,0,0,-1,1280,834,0,0
63,190,0,0,0,0,0,0,0,0,0,-1,1287,834,0,0
70,190,0,0,0,0,0,0,0,0,0,-1,1294,834,0,0
77,190,0,0,0,0,0,0,0,0,0,-1,1301,834,0,0
84,190,0,0,0,0,0,0,0,0,0,-1,1308,834,0,0
91,190,0,0,0,0,0,0,0,0,0,-1,1315,834,0,0
98,190,0,0,0,0,0,0,0,0,0,-1,1322,834,0,0
105,190,0,0,0,0,0,0,0,0,0,-1,1329,834,0,0
112,190,0,0,0,0,0,0,0,0,0,-1,1336,834,0,0
119,190,0,0,0,0,0,0,0,0,0,-1,1343,834,0,0
126,190,0,0,0,0,0,0,0,0,0,-1,1350,834,0,0
133,190,0,0,0,0,0,0,0,0,0,-1,1357,834,0,0
140,190,0,0,0,0,0,0,0,0,0,-1,1364,834,0,0
147,190,0,0,0,0,0,0,0,0,0,-1,1371,834,0,0
154,190,0,0,0,0,0,0,0,0,0,-1,1378,834,0,0
161,190,0,0,0,0,0,0,0,0,0,-1,1385,834,0,0
168,190,0,0,0,0,0,0,0,0,0,-1,1392,834,0,0
175,190,0,0,0,0,0,0,0,0,0,-1,1399,834,0,0
182,190,0,0,0,0,0,0,0,0,0,-1,1406,834,0,0
189,190,0,0,0,0,0,0,0,0,0,-1,1413,834,0,0
196,190,0,0,0,0,0,0,0,0,0,-1,1420,834,0,0
203,190,0,0,0,0,0,0,0,0,0,-1,1427,834,0,0
210,190,0,0,0,0,0,0,0,0,0,-1,1434,834,0,0
217,190,0,0,0,0,0,0,0,0,0,-1,1441,834,0,0
224,190,0,0,0,0,0,0,0,0,0,-1,1448,834,0,0
231,190,0,0,0,0,0,0,0,0,0,-1,1455,834,0,0
238,190,0,0,0,0,0,0,0,0,0,-1,1462,834,0,0
245,190,0,0,0,0,0,0,0,0,0,-1,1469,834,0,0
252,190,0,0,0,0,0,0,0,0,0,-1,1476,834,0,0
259,190,0,0,0,0,0,0,0,0,0,-1,1483,834,0,0
266,190,0,0,0,0,0,0,0,0,0,-1,1490,834,0,0
273,190,0,0,0,0,0,0,0,0,0,-1,1497,834,0,0
280,190,0,0,0,0,0,0,0,0,0,-1,1504,834,0,0
287,190,0,0,0,0,0,0,0,0,0,-1,1511,834,0,0
294,190,0,0,0,0,0,0,0,0,0,-1,1518,834,0,0
301,190,0,0,0,0,0,0,0,0,0,-1,1525,834,0,0
308,190,0,0,0,0,0,0,0,0,0,-1,1532,834,0,0
315,190,0,0,0,0,0,0,0,0,0,-1,1539,834,0,0
322,190,0,0,0,0,0,0,0,0,0,-1,1546,834,0,0
329,190,0,0,0,0,0,0,0,0,0,-1,1553,834,0,0
336,190,0,0,0,0,0,0,0,0,0,-1,1560,834,0,0
343,190,0,0,0,0,0,0,0,0,0,-1,1567,834,0,0
350,190,0,0,0,0,0,0,0,0,0,-1,1574,834,0,0
357,190,0,0,0,0,0,0,0,0,0,-1,1581,834,0,0
364,190,0,0,0,0,0,0,0,0,0,-1,1588,834,0,0
371,190,0,0,0,0,0,0,0,0,0,-1,1595,834,0,0
378,190,0,0,0,0,0,0,0,0,0,-1,1602,834,0,0
385,190,0,0,0,0,0,0,0,0,0,-1,1609,834,0,0
392,190,0,0,0,0,0,0,0,0,0,-1,1616,834,0,0
399,190,0,0,0,0,0,0,0,0,0,-1,1623,834,0,0
406,190,0,0,0,0,0,0,0,0,0,-1,1630,834,0,0
413,190,0,0,0,0,0,0,0,0,0,-1,1637,834,0,0
420,190,0,0,0,0,0,0,0,0,0,-1,1644,834,0,0
427,190,0,0,0,0,0,0,0,0,0,-1,1651,834,0,0
434,190,0,0,0,0,0,0,0,0,0,-1,1658,834,0,0
441,190,0,0,0,0,0,0,0,0,0,-1,1665,834,0,0
448,190,0,0,0,0,0,0,0,0,0,-1,1672,834,0,0
455,190,0,0,0,0,0,0,0,0,0,-1,1679,834,0,0
462,190,0,0,0,0,0,0,0,0,0,-1,1686,834,0,0
469,190,0,0,0,0,0,0,0,0,0,-1,1693,834,0,0
476,190,0,0,0,0,0,0,0,0,0,-1,1700,834,0,0
483,190,0,0,0,0,0,0,0,0,0,-1,1707,834,0,0
490,190,0,0,0,0,0,0,0,0,0,-1,1714,834,0,0
497,190,0,0,0,0,0,0,0,0,0,-1,1721,834,0,0
504,190,0,0,0,0,0,0,0,0,0,-1,1728,834,0,0
511,190,0,0,0,0,0,0,0,0,0,-1,1735,834,0,0
518,190,0,0,0,0,0,0,0,0,0,-1,1742,834,0,0
525,190,0,0,0,0,0,0,0,0,0,-1,1749,834,0,0
532,190,0,0,0,0,0,0,0,0,0,-1,1756,834,0,0
539,190,0,0,0,0,0,0,0,0,0,-1,1763,834,0,0
546,190,0,0,0,0,0,0,0,0,0,-1,1770,834,0,0
553,190,0,0,0,0,0,0,0,0,0,-1,1777,834,0,0
560,190,0,0,0,0,0,0,0,0,0,-1,1784,834,0,0
567,190,0,0,0,0,0,0,0,0,0,-1,1791,834,0,0
574,190,0,0,0,0,0,0,0,0,0,-1,1798,834,0,0
581,190,0,0,0,0,0,0,0,0,0,-1,1805,834,0,0
588,190,0,0,0,0,0,0,0,0,0,-1,1812,834,0,0
595,190,0,0,0,0,0,0,0,0,0,-1,1819,834,0,0
602,190,49.0122,2.46362,0.00303007,0.000892779,0.00451874,0.00660481,-0.00268196,0.669285,0.00551887,0.0425817,1826,834,49.0122,-2.46363
609,190,49.0817,2.48163,0.00216055,0.0012919,0.00409192,0.00584113,-0.00238868,0.732525,0.00488886,0.039744,1833,834,49.0816,-2.48163
616,190,49.2119,2.62476,0.00182176,0.00167037,0.0035567,0.00530357,-0.00181144,0.774759,0.00426959,0.0391077,1840,834,49.212,-2.62473
623,190,49.1912,2.66718,0.00138773,0.00178478,0.0029271,0.00452008,-0.00134757,0.819258,0.00354891,0.0370563,1847,834,49.1912,-2.66718
630,190,49.1815,2.65887,0.000728385,0.00184516,0.00224428,0.00359948,-0.00102593,0.907325,0.00280488,0.0373712,1854,834,49.1815,-2.65889
637,190,49.1647,2.67273,1.85178e-05,0.00166476,0.00151123,0.0025625,-0.000879217,1.03477,0.00206477,0.0308259,1861,834,49.1647,-2.67275
644,190,49.1418,2.71149,-0.000695435,0.00126404,0.000932656,0.00163698,-0.00106837,1.1904,0.00157339,0.0260068,1868,834,49.1418,-2.71149
651,190,49.0764,2.85266,-0.00113256,0.000907725,0.000461941,0.00100744,-0.00123228,1.3582,0.00129527,0.0412622,1875,834,49.0764,-2.85265
658,190,48.9896,3.03711,0,0,0,0,0,0,0,-1,1882,834,48.9897,-3.03708
665,190,25.9916,3.05157,0,0,0,0,0,0,0,-1,1889,834,25.9916,-3.05156
672,190,27.2662,1.70862,0,0,0,0,0,0,0,-1,1896,834,27.2662,-1.70861
679,190,38.5319,0.809204,0,0,0,0,0,0,0,-1,1903,834,38.5319,-0.809217
686,190,38.4644,1.27783,-0.00253385,-0.000205995,-0.00172875,0.00071414,-0.00345398,-1.08168,0.00257394,0.0267636,1910,834,38.4644,-1.27781
693,190,38.4991,1.79218,-0.0026154,-0.000313642,-0.00212435,0.000951545,-0.00388059,-1.03364,0.00295574,0.019819,1917,834,38.4991,-1.7922
700,190,38.3728,2.30969,-0.0024258,-0.00041481,-0.00217277,0.000973845,-0.00381445,-1.00211,0.00292218,0.0131268,1924,834,38.3729,-2.30969
707,190,38.4248,2.86304,-0.00170809,-0.000429516,-0.00213196,0.00115695,-0.00329455,-0.931062,0.00266702,0.0133486,1931,834,38.4249,-2.86303
714,190,38.4297,3.40521,-0.00054842,1.81852e-05,-0.00200834,0.00176311,-0.00229335,-0.855467,0.00234866,0.0122104,1938,834,38.4296,-3.4052
721,190,38.4053,3.94983,0.00119523,0.000486323,-0.00193811,0.00281103,-0.00112948,-0.694954,0.00234309,0.011006,1945,834,38.4052,-3.94985
728,190,38.3746,4.48987,0.00324186,0.000893691,-0.00196676,0.00435833,-0.000222778,-0.516306,0.00298259,0.0129188,1952,834,38.3747,-4.48984
735,190,38.3523,5.03656,0.00557012,0.0012229,-0.00221017,0.00649642,0.000296601,-0.396869,0.00423554,0.0119324,1959,834,38.3523,-5.03655
742,190,38.3403,5.59839,0.00833884,0.00138767,-0.00271678,0.00927468,0.000451839,-0.331734,0.00603814,0.0166805,1966,834,38.3404,-5.59838
749,190,38.3391,6.17303,0.0117297,0.00125237,-0.0034798,0.0127801,0.00020195,-0.293165,0.00845357,0.0400253,1973,834,38.3391,-6.17305
756,190,38.4293,6.68677,0.0164172,0.000670458,-0.00461728,0.0176712,-0.000583559,-0.265195,0.0119801,0.0465391,1980,834,38.4294,-6.68674
763,190,39.017,7.16455,0,0,0,0,0,0,0,-1,1987,834,39.0169,-7.16452
770,190,39.8972,7.38257,0,0,0,0,0,0,0,-1,1994,834,39.8972,-7.38259
777,190,40.5735,6.99371,0,0,0,0,0,0,0,-1,2001,834,40.5735,-6.99373
784,190,0,0,0,0,0,0,0,0,0,-1,2008,834,0,0
791,190,0,0,0,0,0,0,0,0,0,-1,2015,834,0,0
798,190,0,0,0,0,0,0,0,0,0,-1,2022,834,0,0
805,190,0,0,0,0,0,0,0,0,0,-1,2029,834,0,0
812,190,0,0,0,0,0,0,0,0,0,-1,2036,834,0,0
-700,183,0,0,0,0,0,0,0,0,0,-1,524,841,0,0
-693,183,0,0,0,0,0,0,0,0,0,-1,531,841,0,0
-686,183,0,0,0,0,0,0,0,0,0,-1,538,841,0,0
-679,183,0,0,0,0,0,0,0,0,0,-1,545,841,0,0
-672,183,0,0,0,0,0,0,0,0,0,-1,552,841,0,0
-665,183,0,0,0,0,0,0,0,0,0,-1,559,841,0,0
-658,183,-29.7859,8.42828,0,0,0,0,0,0,0,-1,566,841,-29.7859,-8.42828
-651,183,-29.7544,7.41406,0.0489754,0.0730949,0.00165202,0.0732075,0.0488627,1.50273,0.0430493,0.0492845,573,841,-29.7544,-7.41409
-644,183,-29.5325,6.52478,0.047949,0.0604056,-0.000223852,0.0604096,0.047945,-1.55283,0.0368282,0.0434983,580,841,-29.5326,-6.52479
-637,183,-29.3476,5.4837,0.0442233,0.0483949,-0.00139186,0.0488167,0.0438016,-1.27658,0.0310082,0.0435235,587,841,-29.3476,-5.4837
-630,183,-28.0028,4.10522,0,0,0,0,0,0,0,-1,594,841,-28.0028,-4.10522
-623,183,-27.9604,3.65009,0.0314664,0.0283917,-0.0018592,0.0323415,0.0275166,-0.439938,0.0201462,0.0474808,601,841,-27.9604,-3.65009
-616,183,-27.8912,3.35455,0.0250007,0.0211814,-0.0019556,0.0258244,0.0203577,-0.398648,0.0157142,0.0401746,608,841,-27.8911,-3.35457
-609,183,-27.8716,2.92688,0.0187894,0.0141483,-0.00132779,0.0191424,0.0137953,-0.259859,0.011405,0.0180186,615,841,-27.8716,-2.92688
-602,183,-27.8923,2.43054,0.0129353,0.00890354,-0.000425441,0.0129797,0.00885913,-0.103997,0.00765847,0.0119235,622,841,-27.8923,-2.43052
-595,183,-27.9242,1.88037,0.00825008,0.00514962,9.53553e-05,0.00825301,0.00514669,0.0307165,0.00481317,0.0116274,629,841,-27.9242,-1.88038
-588,183,-27.914,1.34009,0.00483668,0.00266819,0.000710222,0.00504859,0.00245629,0.289954,0.00291515,0.0134533,636,841,-27.914,-1.34011
-581,183,-27.9346,0.834106,0.00247909,0.00129805,0.00134284,0.00335552,0.000421622,0.578247,0.00211056,0.0145205,643,841,-27.9345,-0.834114
-574,183,-27.9182,0.343384,0.00118062,0.000301489,0.00163183,0.00243105,-0.000948939,0.653835,0.002013,0.0145414,650,841,-27.9182,-0.343392
-567,183,-27.7388,-0.230896,0.00082629,-0.00053411,0.00191239,0.00217584,-0.00188366,0.614535,0.00234578,0.0464959,657,841,-27.7388,0.230882
-560,183,-28.0452,-0.867981,0,0,0,0,0,0,0,-1,664,841,-28.0452,0.867984
-553,183,-27.183,-1.10352,0,0,0,0,0,0,0,-1,671,841,-27.1831,1.10353
-546,183,-26.27,-1.5625,0,0,0,0,0,0,0,-1,678,841,-26.27,1.56248
-539,183,-16.8032,-0.417297,0,0,0,0,0,0,0,-1,685,841,-16.8032,0.41732
-532,183,-29.9686,0.953613,0,0,0,0,0,0,0,-1,692,841,-29.9686,-0.953627
-525,183,-37.0132,0.555481,0,0,0,0,0,0,0,-1,699,841,-37.0132,-0.555489
-518,183,-36.9403,0.758057,0.0012449,-0.000106587,0.00280333,0.00345278,-0.00231447,0.66713,0.00335127,0.0463091,706,841,-36.9403,-0.758064
-511,183,-36.9285,0.818237,0.00165226,0.000411538,0.00294498,0.00404152,-0.00197771,0.68159,0.00354264,0.040682,713,841,-36.9286,-0.818218
-504,183,-37.0352,0.714722,0.0030754,0.00148988,0.00297741,0.00536378,-0.00079851,0.655288,0.00386959,0.0406473,720,841,-37.0352,-0.714693
-497,183,-36.8649,0.971924,0.00528383,0.00367714,0.00308642,0.00766974,0.00129123,0.658082,0.00474172,0.0427106,727,841,-36.8649,-0.971893
-490,183,-36.7151,1.20807,0.00839306,0.00701641,0.00312091,0.0109006,0.00450882,0.676859,0.00632471,0.0411957,734,841,-36.7151,-1.20805
-483,183,0,0,0,0,0,0,0,0,0,-1,741,841,0,0
-476,183,0,0,0,0,0,0,0,0,0,-1,748,841,0,0
-469,183,0,0,0,0,0,0,0,0,0,-1,755,841,0,0
-462,183,0,0,0,0,0,0,0,0,0,-1,762,841,0,0
-455,183,0,0,0,0,0,0,0,0,0,-1,769,841,0,0
-448,183,0,0,0,0,0,0,0,0,0,-1,776,841,0,0
-441,183,0,0,0,0,0,0,0,0,0,-1,783,841,0,0
-434,183,0,0,0,0,0,0,0,0,0,-1,790,841,0,0
-427,183,0,0,0,0,0,0,0,0,0,-1,797,841,0,0
-420,183,0,0,0,0,0,0,0,0,0,-1,804,841,0,0
-413,183,0,0,0,0,0,0,0,0,0,-1,811,841,0,0
-406,183,0,0,0,0,0,0,0,0,0,-1,818,841,0,0
-399,183,0,0,0,0,0,0,0,0,0,-1,825,841,0,0
-392,183,0,0,0,0,0,0,0,0,0,-1,832,841,0,0
-385,183,0,0,0,0,0,0,0,0,0,-1,839,841,0,0
-378,183,0,0,0,0,0,0,0,0,0,-1,846,841,0,0
-371,183,0,0,0,0,0,0,0,0,0,-1,853,841,0,0
-364,183,0,0,0,0,0,0,0,0,0,-1,860,841,0,0
-357,183,0,0,0,0,0,0,0,0,0,-1,867,841,0,0
-350,183,0,0,0,0,0,0,0,0,0,-1,874,841,0,0
-343,183,0,0,0,0,0,0,0,0,0,-1,881,841,0,0
-336,183,0,0,0,0,0,0,0,0,0,-1,888,841,0,0
-329,183,0,0,0,0,0,0,0,0,0,-1,895,841,0,0
-322,183,0,0,0,0,0,0,0,0,0,-1,902,841,0,0
-315,183,0,0,0,0,0,0,0,0,0,-1,909,841,0,0
-308,183,0,0,0,0,0,0,0,0,0,-1,916,841,0,0
-301,183,0,0,0,0,0,0,0,0,0,-1,923,841,0,0
-294,183,0,0,0,0,0,0,0,0,0,-1,930,841,0,0
-287,183,0,0,0,0,0,0,0,0,0,-1,937,841,0,0
-280,183,0,0,0,0,0,0,0,0,0,-1,944,841,0,0
-273,183,0,0,0,0,0,0,0,0,0,-1,951,841,0,0
-266,183,0,0,0,0,0,0,0,0,0,-1,958,841,0,0
-259,183,0,0,0,0,0,0,0,0,0,-1,965,841,0,0
-252,183,0,0,0,0,0,0,0,0,0,-1,972,841,0,0
-245,183,0,0,0,0,0,0,0,0,0,-1,979,841,0,0
-238,183,0,0,0,0,0,0,0,0,0,-1,986,841,0,0
-231,183,0,0,0,0,0,0,0,0,0,-1,993,841,0,0
-224,183,0,0,0,0,0,0,0,0,0,-1,1000,841,0,0
-217,183,0,0,0,0,0,0,0,0,0,-1,1007,841,0,0
-210,183,0,0,0,0,0,0,0,0,0,-1,1014,841,0,0
-203,183,0,0,0,0,0,0,0,0,0,-1,1021,841,0,0
-196,183,0,0,0,0,0,0,0,0,0,-1,1028,841,0,0
-189,183,0,0,0,0,0,0,0,0,0,-1,1035,841,0,0
-182,183,0,0,0,0,0,0,0,0,0,-1,1042,841,0,0
-175,183,0,0,0,0,0,0,0,0,0,-1,1049,841,0,0
-168,183,0,0,0,0,0,0,0,0,0,-1,1056,841,0,0
-161,183,0,0,0,0,0,0,0,0,0,-1,1063,841,0,0
-154,183,0,0,0,0,0,0,0,0,0,-1,1070,841,0,0
-147,183,0,0,0,0,0,0,0,0,0,-1,1077,841,0,0
-140,183,0,0,0,0,0,0,0,0,0,-1,1084,841,0,0
-133,183,0,0,0,0,0,0,0,0,0,-1,1091,841,0,0
-126,183,0,0,0,0,0,0,0,0,0,-1,1098,841,0,0
-119,183,0,0,0,0,0,0,0,0,0,-1,1105,841,0,0
-112,183,0,0,0,0,0,0,0,0,0,-1,1112,841,0,0
-105,183,0,0,0,0,0,0,0,0,0,-1,1119,841,0,0
-98,183,0,0,0,0,0,0,0,0,0,-1,1126,841,0,0
-91,183,0,0,0,0,0,0,0,0,0,-1,1133,841,0,0
-84,183,0,0,0,0,0,0,0,0,0,-1,1140,841,0,0
-77,183,0,0,0,0,0,0,0,0,0,-1,1147,841,0,0
-70,183,0,0,0,0,0,0,0,0,0,-1,1154,841,0,0
-63,183,0,0,0,0,0,0,0,0,0,-1,1161,841,0,0
-56,183,0,0,0,0,0,0,0,0,0,-1,1168,841,0,0
-49,183,0,0,0,0,0,0,0,0,0,-1,1175,841,0,0
-42,183,0,0,0,0,0,0,0,0,0,-1,1182,841,0,0
-35,183,0,0,0,0,0,0,0,0,0,-1,1189,841,0,0
-28,183,0,0,0,0,0,0,0,0,0,-1,1196,841,0,0
-21,183,0,0,0,0,0,0,0,0,0,-1,1203,841,0,0
-14,183,0,0,0,0,0,0,0,0,0,-1,1210,841,0,0
-7,183,0,0,0,0,0,0,0,0,0,-1,1217,841,0,0
0,183,0,0,0,0,0,0,0,0,0,-1,1224,841,0,0
7,183,0,0,0,0,0,0,0,0,0,-1,1231,841,0,0
14,183,0,0,0,0,0,0,0,0,0,-1,1238,841,0,0
21,183,0,0,0,0,0,0,0,0,0,-1,1245,841,0,0
28,183,0,0,0,0,0,0,0,0,0,-1,1252,841,0,0
35,183,0,0,0,0,0,0,0,0,0,-1,1259,841,0,0
42,183,0,0,0,0,0,0,0,0,0,-1,1266,841,0,0
49,183,0,0,0,0,0,0,0,0,0,-1,1273,841,0,0
56,183,0,0,0,0,0,0,0,0,0,-1,1280,841,0,0
63,183,0,0,0,0,0,0,0,0,0,-1,1287,841,0,0
70,183,0,0,0,0,0,0,0,0,0,-1,1294,841,0,0
77,183,0,0,0,0,0,0,0,0,0,-1,1301,841,0,0
84,183,0,0,0,0,0,0,0,0,0,-1,1308,841,0,0
91,183,0,0,0,0,0,0,0,0,0,-1,1315,841,0,0
98,183,0,0,0,0,0,0,0,0,0,-1,1322,841,0,0
105,183,0,0,0,0,0,0,0,0,0,-1,1329,841,0,0
112,183,0,0,0,0,0,0,0,0,0,-1,1336,841,0,0
119,183,0,0,0,0,0,0,0,0,0,-1,1343,841,0,0
126,183,0,0,0,0,0,0,0,0,0,-1,1350,841,0,0
133,183,0,0,0,0,0,0,0,0,0,-1,1357,841,0,0
140,183,0,0,0,0,0,0,0,0,0,-1,1364,841,0,0
147,183,0,0,0,0,0,0,0,0,0,-1,1371,841,0,0
154,183,0,0,0,0,0,0,0,0,0,-1,1378,841,0,0
161,183,0,0,0,0,0,0,0,0,0,-1,1385,841,0,0
168,183,0,0,0,0,0,0,0,0,0,-1,1392,841,0,0
175,183,0,0,0,0,0,0,0,0,0,-1,1399,841,0,0
182,183,0,0,0,0,0,0,0,0,0,-1,1406,841,0,0
189,183,0,0,0,0,0,0,0,0,0,-1,1413,841,0,0
196,183,0,0,0,0,0,0,0,0,0,-1,1420,841,0,0
203,183,0,0,0,0,0,0,0,0,0,-1,1427,841,0,0
210,183,0,0,0,0,0,0,0,0,0,-1,1434,841,0,0
217,183,0,0,0,0,0,0,0,0,0,-1,1441,841,0,0
224,183,0,0,0,0,0,0,0,0,0,-1,1448,841,0,0
231,183,0,0,0,0,0,0,0,0,0,-1,1455,841,0,0
238,183,0,0,0,0,0,0,0,0,0,-1,1462,841,0,0
245,183,0,0,0,0,0,0,0,0,0,-1,1469,841,0,0
252,183,0,0,0,0,0,0,0,0,0,-1,1476,841,0,0
259,183,0,0,0,0,0,0,0,0,0,-1,1483,841,0,0
266,183,0,0,0,0,0,0,0,0,0,-1,1490,841,0,0
273,183,0,0,0,0,0,0,0,0,0,-1,1497,841,0,0
280,183,0,0,0,0,0,0,0,0,0,-1,1504,841,0,0
287,183,0,0,0,0,0,0,0,0,0,-1,1511,841,0,0
294,183,0,0,0,0,0,0,0,0,0,-1,1518,841,0,0
301,183,0,0,0,0,0,0,0,0,0,-1,1525,841,0,0
308,183,0,0,0,0,0,0,0,0,0,-1,1532,841,0,0
315,183,0,0,0,0,0,0,0,0,0,-1,1539,841,0,0
322,183,0,0,0,0,0,0,0,0,0,-1,1546,841,0,0
329,183,0,0,0,0,0,0,0,0,0,-1,1553,841,0,0
336,183,0,0,0,0,0,0,0,0,0,-1,1560,841,0,0
343,183,0,0,0,0,0,0,0,0,0,-1,1567,841,0,0
350,183,0,0,0,0,0,0,0,0,0,-1,1574,841,0,0
357,183,0,0,0,0,0,0,0,0,0,-1,1581,841,0,0
364,183,0,0,0,0,0,0,0,0,0,-1,1588,841,0,0
371,183,0,0,0,0,0,0,0,0,0,-1,1595,841,0,0
378,183,0,0,0,0,0,0,0,0,0,-1,1602,841,0,0
385,183,0,0,0,0,0,0,0,0,0,-1,1609,841,0,0
392,183,0,0,0,0,0,0,0,0,0,-1,1616,841,0,0
399,183,0,0,0,0,0,0,0,0,0,-1,1623,841,0,0
406,183,0,0,0,0,0,0,0,0,0,-1,1630,841,0,0
413,183,0,0,0,0,0,0,0,0,0,-1,1637,841,0,0
420,183,0,0,0,0,0,0,0,0,0,-1,1644,841,0,0
427,183,0,0,0,0,0,0,0,0,0,-1,1651,841,0,0
434,183,0,0,0,0,0,0,0,0,0,-1,1658,841,0,0
441,183,0,0,0,0,0,0,0,0,0,-1,1665,841,0,0
448,183,0,0,0,0,0,0,0,0,0,-1,1672,841,0,0
455,183,0,0,0,0,0,0,0,0,0,-1,1679,841,0,0
462,183,0,0,0,0,0,0,0,0,0,-1,1686,841,0,0
469,183,0,0,0,0,0,0,0,0,0,-1,1693,841,0,0
476,183,0,0,0,0,0,0,0,0,0,-1,1700,841,0,0
483,183,0,0,0,0,0,0,0,0,0,-1,1707,841,0,0
490,183,0,0,0,0,0,0,0,0,0,-1,1714,841,0,0
497,183,0,0,0,0,0,0,0,0,0,-1,1721,841,0,0
504,183,0,0,0,0,0,0,0,0,0,-1,1728,841,0,0
511,183,0,0,0,0,0,0,0,0,0,-1,1735,841,0,0
518,183,0,0,0,0,0,0,0,0,0,-1,1742,841,0,0
525,183,0,0,0,0,0,0,0,0,0,-1,1749,841,0,0
532,183,0,0,0,0,0,0,0,0,0,-1,1756,841,0,0
539,183,0,0,0,0,0,0,0,0,0,-1,1763,841,0,0
546,183,0,0,0,0,0,0,0,0,0,-1,1770,841,0,0
553,183,0,0,0,0,0,0,0,0,0,-1,1777,841,0,0
560,183,0,0,0,0,0,0,0,0,0,-1,1784,841,0,0
567,183,0,0,0,0,0,0,0,0,0,-1,1791,841,0,0
574,183,0,0,0,0,0,0,0,0,0,-1,1798,841,0,0
581,183,0,0,0,0,0,0,0,0,0,-1,1805,841,0,0
588,183,0,0,0,0,0,0,0,0,0,-1,1812,841,0,0
595,183,0,0,0,0,0,0,0,0,0,-1,1819,841,0,0
602,183,0,0,0,0,0,0,0,0,0,-1,1826,841,0,0
609,183,49.0833,2.57379,0.0021648,0.000987934,0.00548615,0.00709398,-0.00394125,0.731974,0.00645729,0.0396225,1833,841,49.0832,-2.57381
616,183,49.136,3.00214,0.0019375,0.00105375,0.00463444,0.00615108,-0.00315983,0.737869,0.00546735,0.038488,1840,841,49.1359,-3.00214
623,183,49.228,2.7041,0.00161381,0.00112639,0.00373412,0.00511217,-0.00237197,0.752812,0.00441646,0.0410353,1847,841,49.2281,-2.7041
630,183,49.1093,2.69708,0.00103397,0.00124659,0.00275073,0.00389307,-0.00161251,0.804713,0.00326828,0.0373982,1854,841,49.1092,-2.69711
637,183,49.1077,2.68304,0.000323189,0.00120116,0.00181288,0.00262745,-0.0011031,0.904186,0.00221296,0.0337158,1861,841,49.1077,-2.68303
644,183,49.0693,2.67548,-0.000420462,0.000932134,0.00107592,0.00152666,-0.00101499,1.06598,0.0014773,0.028778,1868,841,49.0694,-2.67551
651,183,49.1301,2.70844,-0.000891103,0.000645502,0.000506121,0.000797225,-0.00104283,1.27954,0.0010655,0.0264794,1875,841,49.1301,-2.70841
658,183,49.3247,2.41534,0,0,0,0,0,0,0,-1,1882,841,49.3247,-2.41535
665,183,38.4337,2.66992,0,0,0,0,0,0,0,-1,1889,841,38.4337,-2.6699
672,183,29.168,1.54572,0,0,0,0,0,0,0,-1,1896,841,29.168,-1.54574
679,183,39.2369,0.878357,0,0,0,0,0,0,0,-1,1903,841,39.2369,-0.878363
686,183,39.1682,1.32416,-0.00221189,4.20515e-05,-0.00164516,0.000909223,-0.00307906,-1.0857,0.00241356,0.0289281,1910,841,39.1682,-1.32418
693,183,39.1317,1.80658,-0.00233107,3.29905e-05,-0.00198122,0.001158,-0.00345608,-1.05436,0.00277189,0.0258268,1917,841,39.1317,-1.80655
700,183,38.9973,2.35925,-0.00227471,-1.03056e-05,-0.00202601,0.0011784,-0.00346341,-1.0402,0.00278609,0.0240284,1924,841,38.9973,-2.35926
707,183,38.964,2.89197,-0.00173489,-0.000109168,-0.00202821,0.00126301,-0.00310707,-0.975986,0.00259686,0.0131843,1931,841,38.964,-2.89196
714,183,39.0027,3.41876,-0.000729852,0.000190706,-0.00199507,0.0017779,-0.00231705,-0.898769,0.00237104,0.0171707,1938,841,39.0027,-3.41875
721,183,38.9736,3.94135,0.000889223,0.000451242,-0.00204985,0.00273175,-0.00139129,-0.732184,0.00242201,0.0152661,1945,841,38.9736,-3.94134
728,183,38.9286,4.48254,0.00284372,0.000683912,-0.00217795,0.0041948,-0.000667166,-0.555244,0.00304339,0.0125538,1952,841,38.9286,-4.48254
735,183,38.9175,5.03387,0.00509542,0.000855803,-0.00250628,0.00625814,-0.000306921,-0.434373,0.00427807,0.0118336,1959,841,38.9174,-5.0339
742,183,38.9166,5.60162,0.00771814,0.000918701,-0.00305007,0.0088858,-0.000248963,-0.36562,0.00600858,0.0115005,1966,841,38.9166,-5.60164
749,183,38.853,6.14319,0.0108606,0.000726614,-0.00381735,0.0121376,-0.000550414,-0.32283,0.00828129,0.0338775,1973,841,38.8531,-6.14319
756,183,38.897,6.69531,0,0,0,0,0,0,0,-1,1980,841,38.897,-6.69531
763,183,39.7151,7.11493,0,0,0,0,0,0,0,-1,1987,841,39.7151,-7.11491
770,183,41.0603,7.72028,0,0,0,0,0,0,0,-1,1994,841,41.0603,-7.72026
777,183,42.1948,7.22906,0,0,0,0,0,0,0,-1,2001,841,42.1948,-7.22905
784,183,0,0,0,0,0,0,0,0,0,-1,2008,841,0,0
791,183,0,0,0,0,0,0,0,0,0,-1,2015,841,0,0
798,183,0,0,0,0,0,0,0,0,0,-1,2022,841,0,0
805,183,0,0,0,0,0,0,0,0,0,-1,2029,841,0,0
812,183,0,0,0,0,0,0,0,0,0,-1,2036,841,0,0
-700,176,0,0,0,0,0,0,0,0,0,-1,524,848,0,0
-693,176,0,0,0,0,0,0,0,0,0,-1,531,848,0,0
-686,176,0,0,0,0,0,0,0,0,0,-1,538,848,0,0
-679,176,0,0,0,0,0,0,0,0,0,-1,545,848,0,0
-672,176,0,0,0,0,0,0,0,0,0,-1,552,848,0,0
-665,176,-33.7764,9.92517,0,0,0,0,0,0,0,-1,559,848,-33.7764,-9.92515
-658,176,-31.2625,6.59528,0,0,0,0,0,0,0,-1,566,848,-31.2625,-6.59525
-651,176,-30.969,6.70789,0,0,0,0,0,0,0,-1,573,848,-30.969,-6.70786
-644,176,-30.4091,6.41388,0,0,0,0,0,0,0,-1,580,848,-30.4091,-6.41389
-637,176,-30.3126,5.30652,0.0403916,0.046732,-0.00285899,0.0478307,0.0392929,-1.20388,0.0294566,0.0405098,587,848,-30.3126,-5.3065
-630,176,-28.6011,6.52539,0.0352684,0.0363789,-0.00275186,0.0386309,0.0330163,-0.884945,0.0241014,0.0421883,594,848,-28.6011,-6.52539
-623,176,-28.2755,3.54749,0,0,0,0,0,0,0,-1,601,848,-28.2754,-3.54751
-616,176,-28.3427,3.409,0.0231436,0.0204318,-0.00212938,0.0243121,0.0192633,-0.501897,0.0148147,0.0279393,608,848,-28.3426,-3.409
-609,176,-28.4045,2.94678,0.0172723,0.0131693,-0.0012354,0.0176156,0.0128261,-0.271018,0.0105172,0.0121425,615,848,-28.4046,-2.94677
-602,176,-28.4321,2.41339,0.0115113,0.00784759,-0.000138243,0.0115165,0.00784238,-0.0376617,0.00679267,0.0124132,622,848,-28.4321,-2.41342
-595,176,-28.4615,1.86877,0.00698085,0.00435126,0.000440708,0.00705275,0.00427936,0.161711,0.00410273,0.0117182,629,848,-28.4615,-1.86876
-588,176,-28.4271,1.34509,0.00391838,0.00210658,0.00102899,0.00438342,0.00164154,0.424463,0.00255721,0.0135227,636,848,-28.4271,-1.3451
-581,176,-28.4561,0.879883,0.00209937,0.000980313,0.00154207,0.00318029,-0.000100606,0.611364,0.00215451,0.012772,643,848,-28.4561,-0.879874
-574,176,-28.5023,0.385071,0.00108753,0.000271694,0.0016707,0.00239939,-0.00104017,0.66566,0.00203686,0.0206894,650,848,-28.5023,-0.385097
-567,176,-28.3113,0.0114746,0,0,0,0,0,0,0,-1,657,848,-28.3113,-0.0114603
-560,176,-28.4982,-0.654114,0,0,0,0,0,0,0,-1,664,848,-28.4982,0.654095
-553,176,-28.4286,-1.2948,0,0,0,0,0,0,0,-1,671,848,-28.4286,1.29479
-546,176,-16.657,-0.403198,0,0,0,0,0,0,0,-1,678,848,-16.657,0.403182
-539,176,-22.7061,1.48657,0,0,0,0,0,0,0,-1,685,848,-22.7061,-1.48657
-532,176,-36.4412,0.685303,0,0,0,0,0,0,0,-1,692,848,-36.4411,-0.685285
-525,176,-36.754,0.977356,0,0,0,0,0,0,0,-1,699,848,-36.754,-0.977359
-518,176,-36.9962,0.745789,0.00124578,2.48627e-05,0.00258646,0.00329285,-0.00202221,0.669509,0.00309774,0.0429708,706,848,-36.9961,-0.745811
-511,176,-37.0782,0.734985,0.00175753,0.000625702,0.00278126,0.00402987,-0.00164664,0.685031,0.00337224,0.0397646,713,848,-37.0783,-0.734966
-504,176,-37.1786,0.614075,0.00355274,0.00197497,0.00301192,0.00587738,-0.000349665,0.657315,0.00403985,0.0421066,720,848,-37.1786,-0.614063
-497,176,-37.1215,0.79657,0.00627311,0.00431996,0.00355354,0.00898182,0.00161125,0.6513,0.00552961,0.0423464,727,848,-37.1215,-0.796573
-490,176,-36.8279,0.922974,0.0103305,0.00761295,0.00414386,0.0133327,0.00461077,0.626972,0.00781865,0.0405975,734,848,-36.8279,-0.922997
-483,176,0,0,0,0,0,0,0,0,0,-1,741,848,0,0
-476,176,0,0,0,0,0,0,0,0,0,-1,748,848,0,0
-469,176,0,0,0,0,0,0,0,0,0,-1,755,848,0,0
-462,176,0,0,0,0,0,0,0,0,0,-1,762,848,0,0
-455,176,0,0,0,0,0,0,0,0,0,-1,769,848,0,0
-448,176,0,0,0,0,0,0,0,0,0,-1,776,848,0,0
-441,176,0,0,0,0,0,0,0,0,0,-1,783,848,0,0
-434,176,0,0,0,0,0,0,0,0,0,-1,790,848,0,0
-427,176,0,0,0,0,0,0,0,0,0,-1,797,848,0,0
-420,176,0,0,0,0,0,0,0,0,0,-1,804,848,0,0
-413,176,0,0,0,0,0,0,0,0,0,-1,811,848,0,0
-406,176,0,0,0,0,0,0,0,0,0,-1,818,848,0,0
-399,176,0,0,0,0,0,0,0,0,0,-1,825,848,0,0
-392,176,0,0,0,0,0,0,0,0,0,-1,832,848,0,0
-385,176,0,0,0,0,0,0,0,0,0,-1,839,848,0,0
-378,176,0,0,0,0,0,0,0,0,0,-1,846,848,0,0
-371,176,0,0,0,0,0,0,0,0,0,-1,853,848,0,0
-364,176,0,0,0,0,0,0,0,0,0,-1,860,848,0,0
-357,176,0,0,0,0,0,0,0,0,0,-1,867,848,0,0
-350,176,0,0,0,0,0,0,0,0,0,-1,874,848,0,0
-343,176,0,0,0,0,0,0,0,0,0,-1,881,848,0,0
-336,176,0,0,0,0,0,0,0,0,0,-1,888,848,0,0
-329,176,0,0,0,0,0,0,0,0,0,-1,895,848,0,0
-322,176,0,0,0,0,0,0,0,0,0,-1,902,848,0,0
-315,176,0,0,0,0,0,0,0,0,0,-1,909,848,0,0
-308,176,0,0,0,0,0,0,0,0,0,-1,916,848,0,0
-301,176,0,0,0,0,0,0,0,0,0,-1,923,848,0,0
-294,176,0,0,0,0,0,0,0,0,0,-1,930,848,0,0
-287,176,0,0,0,0,0,0,0,0,0,-1,937,848,0,0
-280,176,0,0,0,0,0,0,0,0,0,-1,944,848,0,0
-273,176,0,0,0,0,0,0,0,0,0,-1,951,848,0,0
-266,176,0,0,0,0,0,0,0,0,0,-1,958,848,0,0
-259,176,0,0,0,0,0,0,0,0,0,-1,965,848,0,0
-252,176,0,0,0,0,0,0,0,0,0,-1,972,848,0,0
-245,176,0,0,0,0,0,0,0,0,0,-1,979,848,0,0
-238,176,0,0,0,0,0,0,0,0,0,-1,986,848,0,0
-231,176,0,0,0,0,0,0,0,0,0,-1,993,848,0,0
-224,176,0,0,0,0,0,0,0,0,0,-1,1000,848,0,0
-217,176,0,0,0,0,0,0,0,0,0,-1,1007,848,0,0
-210,176,0,0,0,0,0,0,0,0,0,-1,1014,848,0,0
-203,176,0,0,0,0,0,0,0,0,0,-1,1021,848,0,0
-196,176,0,0,0,0,0,0,0,0,0,-1,1028,848,0,0
-189,176,0,0,0,0,0,0,0,0,0,-1,1035,848,0,0
-182,176,0,0,0,0,0,0,0,0,0,-1,1042,848,0,0
-175,176,0,0,0,0,0,0,0,0,0,-1,1049,848,0,0
-168,176,0,0,0,0,0,0,0,0,0,-1,1056,848,0,0
-161,176,0,0,0,0,0,0,0,0,0,-1,1063,848,0,0
-154,176,0,0,0,0,0,0,0,0,0,-1,1070,848,0,0
-147,176,0,0,0,0,0,0,0,0,0,-1,1077,848,0,0
-140,176,0,0,0,0,0,0,0,0,0,-1,1084,848,0,0
-133,176,0,0,0,0,0,0,0,0,0,-1,1091,848,0,0
-126,176,0,0,0,0,0,0,0,0,0,-1,1098,848,0,0
-119,176,0,0,0,0,0,0,0,0,0,-1,1105,848,0,0
-112,176,0,0,0,0,0,0,0,0,0,-1,1112,848,0,0
-105,176,0,0,0,0,0,0,0,0,0,-1,1119,848,0,0
-98,176,0,0,0,0,0,0,0,0,0,-1,1126,848,0,0
-91,176,0,0,0,0,0,0,0,0,0,-1,1133,848,0,0
-84,176,0,0,0,0,0,0,0,0,0,-1,1140,848,0,0
-77,176,0,0,0,0,0,0,0,0,0,-1,1147,848,0,0
-70,176,0,0,0,0,0,0,0,0,0,-1,1154,848,0,0
-63,176,0,0,0,0,0,0,0,0,0,-1,1161,848,0,0
-56,176,0,0,0,0,0,0,0,0,0,-1,1168,848,0,0
-49,176,0,0,0,0,0,0,0,0,0,-1,1175,848,0,0
-42,176,0,0,0,0,0,0,0,0,0,-1,1182,848,0,0
-35,176,0,0,0,0,0,0,0,0,0,-1,1189,848,0,0
-28,176,0,0,0,0,0,0,0,0,0,-1,1196,848,0,0
-21,176,0,0,0,0,0,0,0,0,0,-1,1203,848,0,0
-14,176,0,0,0,0,0,0,0,0,0,-1,1210,848,0,0
-7,176,0,0,0,0,0,0,0,0,0,-1,1217,848,0,0
0,176,0,0,0,0,0,0,0,0,0,-1,1224,848,0,0
7,176,0,0,0,0,0,0,0,0,0,-1,1231,848,0,0
14,176,0,0,0,0,0,0,0,0,0,-1,1238,848,0,0
21,176,0,0,0,0,0,0,0,0,0,-1,1245,848,0,0
28,176,0,0,0,0,0,0,0,0,0,-1,1252,848,0,0
35,176,0,0,0,0,0,0,0,0,0,-1,1259,848,0,0
42,176,0,0,0,0,0,0,0,0,0,-1,1266,848,0,0
49,176,0,0,0,0,0,0,0,0,0,-1,1273,848,0,0
56,176,0,0,0,0,0,0,0,0,0,-1,1280,848,0,0
63,176,0,0,0,0,0,0,0,0,0,-1,1287,848,0,0
70,176,0,0,0,0,0,0,0,0,0,-1,1294,848,0,0
77,176,0,0,0,0,0,0,0,0,0,-1,1301,848,0,0
84,176,0,0,0,0,0,0,0,0,0,-1,1308,848,0,0
91,176,0,0,0,0,0,0,0,0,0,-1,1315,848,0,0
98,176,0,0,0,0,0,0,0,0,0,-1,1322,848,0,0
105,176,0,0,0,0,0,0,0,0,0,-1,1329,848,0,0
112,176,0,0,0,0,0,0,0,0,0,-1,1336,848,0,0
119,176,0,0,0,0,0,0,0,0,0,-1,1343,848,0,0
126,176,0,0,0,0,0,0,0,0,0,-1,1350,848,0,0
133,176,0,0,0,0,0,0,0,0,0,-1,1357,848,0,0
140,176,0,0,0,0,0,0,0,0,0,-1,1364,848,0,0
147,176,0,0,0,0,0,0,0,0,0,-1,1371,848,0,0
154,176,0,0,0,0,0,0,0,0,0,-1,1378,848,0,0
161,176,0,0,0,0,0,0,0,0,0,-1,1385,848,0,0
168,176,0,0,0,0,0,0,0,0,0,-1,1392,848,0,0
175,176,0,0,0,0,0,0,0,0,0,-1,1399,848,0,0
182,176,0,0,0,0,0,0,0,0,0,-1,1406,848,0,0
189,176,0,0,0,0,0,0,0,0,0,-1,1413,848,0,0
196,176,0,0,0,0,0,0,0,0,0,-1,1420,848,0,0
203,176,0,0,0,0,0,0,0,0,0,-1,1427,848,0,0
210,176,0,0,0,0,0,0,0,0,0,-1,1434,848,0,0
217,176,0,0,0,0,0,0,0,0,0,-1,1441,848,0,0
224,176,0,0,0,0,0,0,0,0,0,-1,1448,848,0,0
231,176,0,0,0,0,0,0,0,0,0,-1,1455,848,0,0
238,176,0,0,0,0,0,0,0,0,0,-1,1462,848,0,0
245,176,0,0,0,0,0,0,0,0,0,-1,1469,848,0,0
252,176,0,0,0,0,0,0,0,0,0,-1,1476,848,0,0
259,176,0,0,0,0,0,0,0,0,0,-1,1483,848,0,0
266,176,0,0,0,0,0,0,0,0,0,-1,1490,848,0,0
273,176,0,0,0,0,0,0,0,0,0,-1,1497,848,0,0
280,176,0,0,0,0,0,0,0,0,0,-1,1504,848,0,0
287,176,0,0,0,0,0,0,0,0,0,-1,1511,848,0,0
294,176,0,0,0,0,0,0,0,0,0,-1,1518,848,0,0
301,176,0,0,0,0,0,0,0,0,0,-1,1525,848,0,0
308,176,0,0,0,0,0,0,0,0,0,-1,1532,848,0,0
315,176,0,0,0,0,0,0,0,0,0,-1,1539,848,0,0
322,176,0,0,0,0,0,0,0,0,0,-1,1546,848,0,0
329,176,0,0,0,0,0,0,0,0,0,-1,1553,848,0,0
336,176,0,0,0,0,0,0,0,0,0,-1,1560,848,0,0
343,176,0,0,0,0,0,0,0,0,0,-1,1567,848,0,0
350,176,0,0,0,0,0,0,0,0,0,-1,1574,848,0,0
357,176,0,0,0,0,0,0,0,0,0,-1,1581,848,0,0
364,176,0,0,0,0,0,0,0,0,0,-1,1588,848,0,0
371,176,0,0,0,0,0,0,0,0,0,-1,1595,848,0,0
378,176,0,0,0,0,0,0,0,0,0,-1,1602,848,0,0
385,176,0,0,0,0,0,0,0,0,0,-1,1609,848,0,0
392,176,0,0,0,0,0,0,0,0,0,-1,1616,848,0,0
399,176,0,0,0,0,0,0,0,0,0,-1,1623,848,0,0
406,176,0,0,0,0,0,0,0,0,0,-1,1630,848,0,0
413,176,0,0,0,0,0,0,0,0,0,-1,1637,848,0,0
420,176,0,0,0,0,0,0,0,0,0,-1,1644,848,0,0
427,176,0,0,0,0,0,0,0,0,0,-1,1651,848,0,0
434,176,0,0,0,0,0,0,0,0,0,-1,1658,848,0,0
441,176,0,0,0,0,0,0,0,0,0,-1,1665,848,0,0
448,176,0,0,0,0,0,0,0,0,0,-1,1672,848,0,0
455,176,0,0,0,0,0,0,0,0,0,-1,1679,848,0,0
462,176,0,0,0,0,0,0,0,0,0,-1,1686,848,0,0
469,176,0,0,0,0,0,0,0,0,0,-1,1693,848,0,0
476,176,0,0,0,0,0,0,0,0,0,-1,1700,848,0,0
483,176,0,0,0,0,0,0,0,0,0,-1,1707,848,0,0
490,176,0,0,0,0,0,0,0,0,0,-1,1714,848,0,0
497,176,0,0,0,0,0,0,0,0,0,-1,1721,848,0,0
504,176,0,0,0,0,0,0,0,0,0,-1,1728,848,0,0
511,176,0,0,0,0,0,0,0,0,0,-1,1735,848,0,0
518,176,0,0,0,0,0,0,0,0,0,-1,1742,848,0,0
525,176,0,0,0,0,0,0,0,0,0,-1,1749,848,0,0
532,176,0,0,0,0,0,0,0,0,0,-1,1756,848,0,0
539,176,0,0,0,0,0,0,0,0,0,-1,1763,848,0,0
546,176,0,0,0,0,0,0,0,0,0,-1,1770,848,0,0
553,176,0,0,0,0,0,0,0,0,0,-1,1777,848,0,0
560,176,0,0,0,0,0,0,0,0,0,-1,1784,848,0,0
567,176,0,0,0,0,0,0,0,0,0,-1,1791,848,0,0
574,176,0,0,0,0,0,0,0,0,0,-1,1798,848,0,0
581,176,0,0,0,0,0,0,0,0,0,-1,1805,848,0,0
588,176,0,0,0,0,0,0,0,0,0,-1,1812,848,0,0
595,176,0,0,0,0,0,0,0,0,0,-1,1819,848,0,0
602,176,0,0,0,0,0,0,0,0,0,-1,1826,848,0,0
609,176,49.094,2.65692,0.00251979,0.00089617,0.0069024,0.00865796,-0.005242,0.726861,0.00810552,0.0394222,1833,848,49.094,-2.65691
616,176,48.9427,2.96704,0.00242483,0.000767796,0.00563651,0.00729339,-0.00410077,0.712425,0.00666395,0.0399434,1840,848,48.9428,-2.96703
623,176,48.7196,3.31781,0,0,0,0,0,0,0,-1,1847,848,48.7197,-3.31783
630,176,49.1593,2.53711,0.00175943,0.000855184,0.00326979,0.0046082,-0.00199359,0.716698,0.00390992,0.0382615,1854,848,49.1593,-2.53709
637,176,49.0837,2.60797,0.00109188,0.000944653,0.00215869,0.00317821,-0.00114168,0.768354,0.00258482,0.0325772,1861,848,49.0837,-2.60797
644,176,48.9989,2.67517,0.000326533,0.000818492,0.0012632,0.00185944,-0.000714417,0.881558,0.00153425,0.0336064,1868,848,48.9989,-2.67515
651,176,49.1033,2.7489,-0.000212841,0.000594163,0.000601659,0.000915097,-0.000533775,1.08078,0.000846109,0.0347882,1875,848,49.1033,-2.74888
658,176,49.2726,2.53278,-0.000631216,0.000418256,8.13957e-05,0.000424531,-0.000637492,1.49385,0.000617255,0.041926,1882,848,49.2726,-2.53276
665,176,49.406,2.26843,0,0,0,0,0,0,0,-1,1889,848,49.406,-2.26842
672,176,16.9304,2.80719,0,0,0,0,0,0,0,-1,1896,848,16.9305,-2.80719
679,176,40.0242,0.76123,0,0,0,0,0,0,0,-1,1903,848,40.0242,-0.761251
686,176,39.8992,1.39124,-0.00169445,0.000147637,-0.00150878,0.00099429,-0.0025411,-1.05943,0.00210528,0.0404518,1910,848,39.8992,-1.39123
693,176,39.7274,1.95056,-0.00187219,0.000143078,-0.00177383,0.00117549,-0.0029046,-1.0437,0.00242513,0.0224241,1917,848,39.7275,-1.95054
700,176,39.5905,2.50159,-0.00193073,0.000101531,-0.00180755,0.00115898,-0.00298818,-1.04146,0.00247078,0.026325,1924,848,39.5904,-2.50158
707,176,39.5873,2.97589,-0.00155482,-3.61146e-05,-0.00183557,0.00119097,-0.00278191,-0.981523,0.00235425,0.0158131,1931,848,39.5872,-2.97591
714,176,39.542,3.45532,-0.000788868,0.00019854,-0.00186134,0.00163054,-0.00222086,-0.915034,0.0022323,0.012637,1938,848,39.542,-3.4553
721,176,39.5082,3.94659,0.000587882,0.000361331,-0.00199221,0.00247004,-0.00152082,-0.756999,0.00232575,0.012661,1945,848,39.5081,-3.94659
728,176,39.4802,4.48395,0.00231969,0.000530896,-0.00217088,0.0037732,-0.000922618,-0.589996,0.00287282,0.015091,1952,848,39.4803,-4.48396
735,176,39.4673,5.05396,0.00437035,0.00066086,-0.00252789,0.00565094,-0.000619728,-0.468901,0.00398994,0.0141076,1959,848,39.4673,-5.05396
742,176,39.4413,5.62604,0.0067484,0.000742821,-0.00305441,0.00802885,-0.000537634,-0.39696,0.00554048,0.0171183,1966,848,39.4413,-5.62606
749,176,39.4386,6.07959,0.00953432,0.000622261,-0.00377133,0.010916,-0.00075944,-0.351183,0.00754325,0.0291958,1973,848,39.4386,-6.07956
756,176,39.8197,6.15601,0.0132184,0.000179939,-0.00473457,0.0147563,-0.0013579,-0.314061,0.01032,0.0495552,1980,848,39.8197,-6.156
763,176,40.4291,6.078,0,0,0,0,0,0,0,-1,1987,848,40.4291,-6.07798
770,176,36.4186,4.25641,0,0,0,0,0,0,0,-1,1994,848,36.4186,-4.25639
777,176,43.8328,7.50177,0,0,0,0,0,0,0,-1,2001,848,43.8328,-7.50178
784,176,0,0,0,0,0,0,0,0,0,-1,2008,848,0,0
791,176,0,0,0,0,0,0,0,0,0,-1,2015,848,0,0
798,176,0,0,0,0,0,0,0,0,0,-1,2022,848,0,0
805,176,0,0,0,0,0,0,0,0,0,-1,2029,848,0,0
812,176,0,0,0,0,0,0,0,0,0,-1,2036,848,0,0
-700,169,0,0,0,0,0,0,0,0,0,-1,524,855,0,0
-693,169,0,0,0,0,0,0,0,0,0,-1,531,855,0,0
-686,169,0,0,0,0,0,0,0,0,0,-1,538,855,0,0
-679,169,0,0,0,0,0,0,0,0,0,-1,545,855,0,0
-672,169,0,0,0,0,0,0,0,0,0,-1,552,855,0,0
-665,169,-33.4412,9.59009,0,0,0,0,0,0,0,-1,559,855,-33.4412,-9.59006
-658,169,-33.7145,9.20746,0,0,0,0,0,0,0,-1,566,855,-33.7145,-9.20747
-651,169,-32.4609,6.19879,0,0,0,0,0,0,0,-1,573,855,-32.4609,-6.19876
-644,169,-29.0335,7.75586,0,0,0,0,0,0,0,-1,580,855,-29.0335,-7.75587
-637,169,-29.0554,6.77032,0.0360678,0.0437254,-0.00401089,0.0454416,0.0343516,-1.16649,0.0273575,0.0442048,587,855,-29.0553,-6.77031
-630,169,-29.221,5.81421,0.0318716,0.0340866,-0.00348729,0.0366381,0.0293202,-0.93915,0.0223883,0.0437131,594,855,-29.221,-5.81418
-623,169,-28.9173,4.07312,0.0264438,0.025737,-0.00270322,0.0288167,0.0233642,-0.720399,0.0176762,0.038882,601,855,-28.9173,-4.07314
-616,169,-28.9112,3.47485,0.0212825,0.0191743,-0.00238076,0.0228321,0.0176248,-0.576989,0.0138167,0.0222493,608,855,-28.9112,-3.47485
-609,169,-28.9379,2.9563,0.0157408,0.0118018,-0.00126519,0.0161122,0.0114304,-0.285502,0.00957051,0.0131071,615,855,-28.9379,-2.9563
-602,169,-28.9577,2.4259,0.0100563,0.00655275,2.64051e-07,0.0100563,0.00655275,7.53665e-05,0.0058943,0.012448,622,855,-28.9577,-2.42589
-595,169,-28.9847,1.89099,0.00571367,0.00340599,0.000633745,0.00587626,0.0032434,0.251133,0.00339876,0.0115612,629,855,-28.9847,-1.891
-588,169,-28.9598,1.39032,0.00307636,0.00146849,0.00118763,0.00370657,0.000838279,0.487862,0.00224443,0.0110778,636,855,-28.9598,-1.39034
-581,169,-28.9988,0.930786,0.00175821,0.000629022,0.0015841,0.00287532,-0.000488087,0.614209,0.00209858,0.0161513,643,855,-28.9988,-0.930777
-574,169,-29.2261,0.409302,0.000949355,0.000159082,0.0015802,0.00218307,-0.00107463,0.662883,0.00191678,0.0290218,650,855,-29.2261,-0.409308
-567,169,-29.0508,-0.010498,0.000636647,-0.000508033,0.0016879,0.0018466,-0.00171799,0.621939,0.00205846,0.0396828,657,855,-29.0508,0.0104779
-560,169,-29.0009,-0.385498,0.00034771,-0.000545038,0.00174831,0.00170573,-0.00190306,0.66041,0.00208458,0.0467665,664,855,-29.0009,0.38547
-553,169,-28.8193,-0.812195,0,0,0,0,0,0,0,-1,671,855,-28.8193,0.812173
-546,169,-19.0852,-1.05609,0,0,0,0,0,0,0,-1,678,855,-19.0852,1.05612
-539,169,-33.2307,1.10706,0,0,0,0,0,0,0,-1,685,855,-33.2307,-1.10708
-532,169,-36.7996,0.814636,0,0,0,0,0,0,0,-1,692,855,-36.7996,-0.81465
-525,169,-36.8216,0.860779,0.00110896,-0.000378478,0.00213606,0.00262707,-0.00189658,0.617874,0.00262306,0.0462643,699,855,-36.8216,-0.860798
-518,169,-37.0394,0.713989,0.00111482,9.78974e-05,0.00244804,0.00310664,-0.00189393,0.683003,0.00291524,0.0428749,706,855,-37.0394,-0.713975
-511,169,-37.1479,0.712341,0.00179195,0.000781196,0.0027881,0.0041201,-0.00154696,0.695741,0.00338244,0.0420554,713,855,-37.1479,-0.712346
-504,169,-37.0901,0.597168,0.00406212,0.00247079,0.00339267,0.00675118,-0.000218271,0.670217,0.00457528,0.0437108,720,855,-37.0901,-0.597169
-497,169,-37.0098,0.755798,0.00720546,0.00491418,0.00453408,0.0107364,0.00138324,0.661652,0.00674397,0.0415343,727,855,-37.0098,-0.755824
-490,169,0,0,0,0,0,0,0,0,0,-1,734,855,0,0
-483,169,0,0,0,0,0,0,0,0,0,-1,741,855,0,0
-476,169,0,0,0,0,0,0,0,0,0,-1,748,855,0,0
-469,169,0,0,0,0,0,0,0,0,0,-1,755,855,0,0
-462,169,0,0,0,0,0,0,0,0,0,-1,762,855,0,0
-455,169,0,0,0,0,0,0,0,0,0,-1,769,855,0,0
-448,169,0,0,0,0,0,0,0,0,0,-1,776,855,0,0
-441,169,0,0,0,0,0,0,0,0,0,-1,783,855,0,0
-434,169,0,0,0,0,0,0,0,0,0,-1,790,855,0,0
-427,169,0,0,0,0,0,0,0,0,0,-1,797,855,0,0
-420,169,0,0,0,0,0,0,0,0,0,-1,804,855,0,0
-413,169,0,0,0,0,0,0,0,0,0,-1,811,855,0,0
-406,169,0,0,0,0,0,0,0,0,0,-1,818,855,0,0
-399,169,0,0,0,0,0,0,0,0,0,-1,825,855,0,0
-392,169,0,0,0,0,0,0,0,0,0,-1,832,855,0,0
-385,169,0,0,0,0,0,0,0,0,0,-1,839,855,0,0
-378,169,0,0,0,0,0,0,0,0,0,-1,846,855,0,0
-371,169,0,0,0,0,0,0,0,0,0,-1,853,855,0,0
-364,169,0,0,0,0,0,0,0,0,0,-1,860,855,0,0
-357,169,0,0,0,0,0,0,0,0,0,-1,867,855,0,0
-350,169,0,0,0,0,0,0,0,0,0,-1,874,855,0,0
-343,169,0,0,0,0,0,0,0,0,0,-1,881,855,0,0
-336,169,0,0,0,0,0,0,0,0,0,-1,888,855,0,0
-329,169,0,0,0,0,0,0,0,0,0,-1,895,855,0,0
-322,169,0,0,0,0,0,0,0,0,0,-1,902,855,0,0
-315,169,0,0,0,0,0,0,0,0,0,-1,909,855,0,0
-308,169,0,0,0,0,0,0,0,0,0,-1,916,855,0,0
-301,169,0,0,0,0,0,0,0,0,0,-1,923,855,0,0
-294,169,0,0,0,0,0,0,0,0,0,-1,930,855,0,0
-287,169,0,0,0,0,0,0,0,0,0,-1,937,855,0,0
-280,169,0,0,0,0,0,0,0,0,0,-1,944,855,0,0
-273,169,0,0,0,0,0,0,0,0,0,-1,951,855,0,0
-266,169,0,0,0,0,0,0,0,0,0,-1,958,855,0,0
-259,169,0,0,0,0,0,0,0,0,0,-1,965,855,0,0
-252,169,0,0,0,0,0,0,0,0,0,-1,972,855,0,0
-245,169,0,0,0,0,0,0,0,0,0,-1,979,855,0,0
-238,169,0,0,0,0,0,0,0,0,0,-1,986,855,0,0
-231,169,0,0,0,0,0,0,0,0,0,-1,993,855,0,0
-224,169,0,0,0,0,0,0,0,0,0,-1,1000,855,0,0
-217,169,0,0,0,0,0,0,0,0,0,-1,1007,855,0,0
-210,169,0,0,0,0,0,0,0,0,0,-1,1014,855,0,0
-203,169,0,0,0,0,0,0,0,0,0,-1,1021,855,0,0
-196,169,0,0,0,0,0,0,0,0,0,-1,1028,855,0,0
-189,169,0,0,0,0,0,0,0,0,0,-1,1035,855,0,0
-182,169,0,0,0,0,0,0,0,0,0,-1,1042,855,0,0
-175,169,0,0,0,0,0,0,0,0,0,-1,1049,855,0,0
-168,169,0,0,0,0,0,0,0,0,0,-1,1056,855,0,0
-161,169,0,0,0,0,0,0,0,0,0,-1,1063,855,0,0
-154,169,0,0,0,0,0,0,0,0,0,-1,1070,855,0,0
-147,169,0,0,0,0,0,0,0,0,0,-1,1077,855,0,0
-140,169,0,0,0,0,0,0,0,0,0,-1,1084,855,0,0
-133,169,0,0,0,0,0,0,0,0,0,-1,1091,855,0,0
-126,169,0,0,0,0,0,0,0,0,0,-1,1098,855,0,0
-119,169,0,0,0,0,0,0,0,0,0,-1,1105,855,0,0
-112,169,0,0,0,0,0,0,0,0,0,-1,1112,855,0,0
-105,169,0,0,0,0,0,0,0,0,0,-1,1119,855,0,0
-98,169,0,0,0,0,0,0,0,0,0,-1,1126,855,0,0
-91,169,0,0,0,0,0,0,0,0,0,-1,1133,855,0,0
-84,169,0,0,0,0,0,0,0,0,0,-1,1140,855,0,0
-77,169,0,0,0,0,0,0,0,0,0,-1,1147,855,0,0
-70,169,0,0,0,0,0,0,0,0,0,-1,1154,855,0,0
-63,169,0,0,0,0,0,0,0,0,0,-1,1161,855,0,0
-56,169,0,0,0,0,0,0,0,0,0,-1,1168,855,0,0
-49,169,0,0,0,0,0,0,0,0,0,-1,1175,855,0,0
-42,169,0,0,0,0,0,0,0,0,0,-1,1182,855,0,0
-35,169,0,0,0,0,0,0,0,0,0,-1,1189,855,0,0
-28,169,0,0,0,0,0,0,0,0,0,-1,1196,855,0,0
-21,169,0,0,0,0,0,0,0,0,0,-1,1203,855,0,0
-14,169,0,0,0,0,0,0,0,0,0,-1,1210,855,0,0
-7,169,0,0,0,0,0,0,0,0,0,-1,1217,855,0,0
0,169,0,0,0,0,0,0,0,0,0,-1,1224,855,0,0
7,169,0,0,0,0,0,0,0,0,0,-1,1231,855,0,0
14,169,0,0,0,0,0,0,0,0,0,-1,1238,855,0,0
21,169,0,0,0,0,0,0,0,0,0,-1,1245,855,0,0
28,169,0,0,0,0,0,0,0,0,0,-1,1252,855,0,0
35,169,0,0,0,0,0,0,0,0,0,-1,1259,855,0,0
42,169,0,0,0,0,0,0,0,0,0,-1,1266,855,0,0
49,169,0,0,0,0,0,0,0,0,0,-1,1273,855,0,0
56,169,0,0,0,0,0,0,0,0,0,-1,1280,855,0,0
63,169,0,0,0,0,0,0,0,0,0,-1,1287,855,0,0
70,169,0,0,0,0,0,0,0,0,0,-1,1294,855,0,0
77,169,0,0,0,0,0,0,0,0,0,-1,1301,855,0,0
84,169,0,0,0,0,0,0,0,0,0,-1,1308,855,0,0
91,169,0,0,0,0,0,0,0,0,0,-1,1315,855,0,0
98,169,0,0,0,0,0,0,0,0,0,-1,1322,855,0,0
105,169,0,0,0,0,0,0,0,0,0,-1,1329,855,0,0
112,169,0,0,0,0,0,0,0,0,0,-1,1336,855,0,0
119,169,0,0,0,0,0,0,0,0,0,-1,1343,855,0,0
126,169,0,0,0,0,0,0,0,0,0,-1,1350,855,0,0
133,169,0,0,0,0,0,0,0,0,0,-1,1357,855,0,0
140,169,0,0,0,0,0,0,0,0,0,-1,1364,855,0,0
147,169,0,0,0,0,0,0,0,0,0,-1,1371,855,0,0
154,169,0,0,0,0,0,0,0,0,0,-1,1378,855,0,0
161,169,0,0,0,0,0,0,0,0,0,-1,1385,855,0,0
168,169,0,0,0,0,0,0,0,0,0,-1,1392,855,0,0
175,169,0,0,0,0,0,0,0,0,0,-1,1399,855,0,0
182,169,0,0,0,0,0,0,0,0,0,-1,1406,855,0,0
189,169,0,0,0,0,0,0,0,0,0,-1,1413,855,0,0
196,169,0,0,0,0,0,0,0,0,0,-1,1420,855,0,0
203,169,0,0,0,0,0,0,0,0,0,-1,1427,855,0,0
210,169,0,0,0,0,0,0,0,0,0,-1,1434,855,0,0
217,169,0,0,0,0,0,0,0,0,0,-1,1441,855,0,0
224,169,0,0,0,0,0,0,0,0,0,-1,1448,855,0,0
231,169,0,0,0,0,0,0,0,0,0,-1,1455,855,0,0
238,169,0,0,0,0,0,0,0,0,0,-1,1462,855,0,0
245,169,0,0,0,0,0,0,0,0,0,-1,1469,855,0,0
252,169,0,0,0,0,0,0,0,0,0,-1,1476,855,0,0
259,169,0,0,0,0,0,0,0,0,0,-1,1483,855,0,0
266,169,0,0,0,0,0,0,0,0,0,-1,1490,855,0,0
273,169,0,0,0,0,0,0,0,0,0,-1,1497,855,0,0
280,169,0,0,0,0,0,0,0,0,0,-1,1504,855,0,0
287,169,0,0,0,0,0,0,0,0,0,-1,1511,855,0,0
294,169,0,0,0,0,0,0,0,0,0,-1,1518,855,0,0
301,169,0,0,0,0,0,0,0,0,0,-1,1525,855,0,0
308,169,0,0,0,0,0,0,0,0,0,-1,1532,855,0,0
315,169,0,0,0,0,0,0,0,0,0,-1,1539,855,0,0
322,169,0,0,0,0,0,0,0,0,0,-1,1546,855,0,0
329,169,0,0,0,0,0,0,0,0,0,-1,1553,855,0,0
336,169,0,0,0,0,0,0,0,0,0,-1,1560,855,0,0
343,169,0,0,0,0,0,0,0,0,0,-1,1567,855,0,0
350,169,0,0,0,0,0,0,0,0,0,-1,1574,855,0,0
357,169,0,0,0,0,0,0,0,0,0,-1,1581,855,0,0
364,169,0,0,0,0,0,0,0,0,0,-1,1588,855,0,0
371,169,0,0,0,0,0,0,0,0,0,-1,1595,855,0,0
378,169,0,0,0,0,0,0,0,0,0,-1,1602,855,0,0
385,169,0,0,0,0,0,0,0,0,0,-1,1609,855,0,0
392,169,0,0,0,0,0,0,0,0,0,-1,1616,855,0,0
399,169,0,0,0,0,0,0,0,0,0,-1,1623,855,0,0
406,169,0,0,0,0,0,0,0,0,0,-1,1630,855,0,0
413,169,0,0,0,0,0,0,0,0,0,-1,1637,855,0,0
420,169,0,0,0,0,0,0,0,0,0,-1,1644,855,0,0
427,169,0,0,0,0,0,0,0,0,0,-1,1651,855,0,0
434,169,0,0,0,0,0,0,0,0,0,-1,1658,855,0,0
441,169,0,0,0,0,0,0,0,0,0,-1,1665,855,0,0
448,169,0,0,0,0,0,0,0,0,0,-1,1672,855,0,0
455,169,0,0,0,0,0,0,0,0,0,-1,1679,855,0,0
462,169,0,0,0,0,0,0,0,0,0,-1,1686,855,0,0
469,169,0,0,0,0,0,0,0,0,0,-1,1693,855,0,0
476,169,0,0,0,0,0,0,0,0,0,-1,1700,855,0,0
483,169,0,0,0,0,0,0,0,0,0,-1,1707,855,0,0
490,169,0,0,0,0,0,0,0,0,0,-1,1714,855,0,0
497,169,0,0,0,0,0,0,0,0,0,-1,1721,855,0,0
504,169,0,0,0,0,0,0,0,0,0,-1,1728,855,0,0
511,169,0,0,0,0,0,0,0,0,0,-1,1735,855,0,0
518,169,0,0,0,0,0,0,0,0,0,-1,1742,855,0,0
525,169,0,0,0,0,0,0,0,0,0,-1,1749,855,0,0
532,169,0,0,0,0,0,0,0,0,0,-1,1756,855,0,0
539,169,0,0,0,0,0,0,0,0,0,-1,1763,855,0,0
546,169,0,0,0,0,0,0,0,0,0,-1,1770,855,0,0
553,169,0,0,0,0,0,0,0,0,0,-1,1777,855,0,0
560,169,0,0,0,0,0,0,0,0,0,-1,1784,855,0,0
567,169,0,0,0,0,0,0,0,0,0,-1,1791,855,0,0
574,169,0,0,0,0,0,0,0,0,0,-1,1798,855,0,0
581,169,0,0,0,0,0,0,0,0,0,-1,1805,855,0,0
588,169,0,0,0,0,0,0,0,0,0,-1,1812,855,0,0
595,169,0,0,0,0,0,0,0,0,0,-1,1819,855,0,0
602,169,0,0,0,0,0,0,0,0,0,-1,1826,855,0,0
609,169,0,0,0,0,0,0,0,0,0,-1,1833,855,0,0
616,169,48.7821,2.77454,0.0027154,0.00107689,0.00634074,0.00828959,-0.00449731,0.721152,0.00748996,0.0436517,1840,855,48.7821,-2.77453
623,169,49.0699,2.68439,0.00256507,0.000928338,0.00493678,0.00675085,-0.00325745,0.703261,0.00589446,0.0464113,1847,855,49.07,-2.68441
630,169,49.116,2.5946,0.00224537,0.000881466,0.00356029,0.00518843,-0.00206159,0.690772,0.00431362,0.0422736,1854,855,49.1159,-2.59462
637,169,49.1552,2.65869,0.00170225,0.000994693,0.00237482,0.0037495,-0.00105256,0.711457,0.00291457,0.0377981,1861,855,49.1552,-2.65871
644,169,49.1063,2.79065,0.00101041,0.000957133,0.00140116,0.00238518,-0.000417643,0.775894,0.00174607,0.038116,1868,855,49.1063,-2.79066
651,169,49.0713,2.78619,0.000459339,0.00076848,0.000704976,0.00133563,-0.000107813,0.893319,0.000928448,0.0378902,1875,855,49.0713,-2.78622
658,169,49.179,2.61792,-1.53533e-05,0.000655259,0.000215465,0.00071852,-7.86139e-05,1.28522,0.000507253,0.0349636,1882,855,49.179,-2.61791
665,169,49.193,2.66241,0,0,0,0,0,0,0,-1,1889,855,49.193,-2.66241
672,169,31.2465,2.96387,0,0,0,0,0,0,0,-1,1896,855,31.2464,-2.9639
679,169,38.4297,1.08197,0,0,0,0,0,0,0,-1,1903,855,38.4296,-1.08194
686,169,40.5272,1.50781,0,0,0,0,0,0,0,-1,1910,855,40.5272,-1.5078
693,169,40.2894,1.9848,-0.00138658,0.000409746,-0.00145215,0.00121905,-0.00219588,-1.06236,0.00199832,0.0234207,1917,855,40.2895,-1.9848
700,169,40.2854,2.55927,-0.00155582,0.000378895,-0.00147446,0.001175,-0.00235193,-1.07572,0.00207372,0.0216226,1924,855,40.2854,-2.55928
707,169,40.2051,3.03839,-0.00132007,0.000221894,-0.00151784,0.00115334,-0.00225151,-1.02039,0.00199958,0.0208209,1931,855,40.2051,-3.0384
714,169,40.0778,3.46576,-0.000797761,0.000375806,-0.00158803,0.00148199,-0.00190395,-0.96237,0.00195993,0.0144359,1938,855,40.0778,-3.46575
721,169,40.063,4.01196,0.000272256,0.000465999,-0.00179602,0.00216776,-0.0014295,-0.81234,0.0020914,0.0164579,1945,855,40.063,-4.01194
728,169,40.0402,4.54095,0.0017108,0.000587777,-0.00203674,0.00326201,-0.000963437,-0.650894,0.00255705,0.013787,1952,855,40.0401,-4.54097
735,169,40.0125,5.05029,0.00349378,0.000665874,-0.00243009,0.00489134,-0.000731687,-0.521914,0.00353016,0.018778,1959,855,40.0124,-5.05027
742,169,39.9771,5.58667,0.00557034,0.00073991,-0.00294426,0.00696327,-0.000653017,-0.441896,0.00487445,0.0147504,1966,855,39.9771,-5.58668
749,169,39.9132,6.04346,0.00794807,0.000641249,-0.00360516,0.00942735,-0.000838036,-0.389375,0.00658206,0.0250921,1973,855,39.9132,-6.04345
756,169,40.2642,5.95013,0.0110145,0.000271933,-0.00443242,0.0126072,-0.00132076,-0.344961,0.00887787,0.0487195,1980,855,40.2641,-5.95013
763,169,40.7463,5.97388,0,0,0,0,0,0,0,-1,1987,855,40.7464,-5.97389
770,169,37.2059,3.97021,0,0,0,0,0,0,0,-1,1994,855,37.2059,-3.97022
777,169,37.9381,9.14392,0,0,0,0,0,0,0,-1,2001,855,37.9381,-9.1439
784,169,37.6997,9.83215,0,0,0,0,0,0,0,-1,2008,855,37.6997,-9.83216
791,169,0,0,0,0,0,0,0,0,0,-1,2015,855,0,0
798,169,0,0,0,0,0,0,0,0,0,-1,2022,855,0,0
805,169,0,0,0,0,0,0,0,0,0,-1,2029,855,0,0
812,169,0,0,0,0,0,0,0,0,0,-1,2036,855,0,0
-700,162,0,0,0,0,0,0,0,0,0,-1,524,862,0,0
-693,162,0,0,0,0,0,0,0,0,0,-1,531,862,0,0
-686,162,0,0,0,0,0,0,0,0,0,-1,538,862,0,0
-679,162,0,0,0,0,0,0,0,0,0,-1,545,862,0,0
-672,162,0,0,0,0,0,0,0,0,0,-1,552,862,0,0
-665,162,-33.2766,8.81995,0,0,0,0,0,0,0,-1,559,862,-33.2766,-8.81994
-658,162,-33.4402,8.51373,0,0,0,0,0,0,0,-1,566,862,-33.4402,-8.51374
-651,162,-31.4752,7.64276,0,0,0,0,0,0,0,-1,573,862,-31.4752,-7.64274
-644,162,-30.6418,7.00159,0.0327379,0.0499984,-0.00538654,0.0515415,0.0311948,-1.2918,0.0299764,0.0473378,580,862,-30.6419,-7.00156
-637,162,-29.9418,6.14532,0.0312004,0.0405216,-0.00481042,0.0425589,0.0291631,-1.17019,0.0251272,0.0451237,587,862,-29.9418,-6.14535
-630,162,-29.65,5.09735,0.0277752,0.0315507,-0.00397899,0.0340671,0.0252589,-1.00689,0.0204187,0.0430839,594,862,-29.65,-5.09738
-623,162,-29.3821,4.07568,0.0231127,0.0237843,-0.00295628,0.0264238,0.0204732,-0.841944,0.0160054,0.0335701,601,862,-29.3821,-4.07569
-616,162,-29.3951,3.45807,0.0186585,0.017704,-0.00249469,0.0207212,0.0156413,-0.690892,0.0124706,0.0206837,608,862,-29.3951,-3.45805
-609,162,-29.4529,2.93958,0.0135752,0.0103722,-0.00119451,0.0139716,0.00997579,-0.320428,0.00830915,0.0133907,615,862,-29.4529,-2.93956
-602,162,-29.4873,2.42621,0.00820535,0.00538005,0.00019342,0.00821853,0.00536687,0.0680369,0.00481847,0.0107461,622,862,-29.4873,-2.4262
-595,162,-29.4977,1.92615,0.00431483,0.00267881,0.000840744,0.00466985,0.00232379,0.399551,0.00269615,0.0109145,629,862,-29.4977,-1.92616
-588,162,-29.4974,1.43573,0.00228346,0.00113005,0.00129898,0.003128,0.000285511,0.576483,0.00199698,0.0127991,636,862,-29.4974,-1.43573
-581,162,-29.6624,0.959045,0.00146956,0.000579022,0.00153726,0.00262474,-0.000576159,0.644431,0.00197016,0.0260938,643,862,-29.6624,-0.959052
-574,162,-29.9406,0.420105,0.000799063,0.00026402,0.00140936,0.00196607,-0.000902987,0.691605,0.00169393,0.0381751,650,862,-29.9405,-0.420106
-567,162,-29.8866,-0.110779,0.000440912,-0.000325755,0.00148054,0.00158694,-0.00147178,0.658723,0.00176637,0.044318,657,862,-29.8866,0.110778
-560,162,-29.6481,-0.745605,0.000203906,-0.000349116,0.00153664,0.00148871,-0.00163392,0.696378,0.00180351,0.0411279,664,862,-29.6481,0.745582
-553,162,-29.2669,-1.4007,0,0,0,0,0,0,0,-1,671,862,-29.2669,1.4007
-546,162,-22.8181,-1.51154,0,0,0,0,0,0,0,-1,678,862,-22.8181,1.51155
-539,162,-36.8193,0.822754,0,0,0,0,0,0,0,-1,685,862,-36.8193,-0.822771
-532,162,-36.8417,0.825012,0.000795549,-0.000306605,0.00177988,0.00210771,-0.00161877,0.635271,0.00215765,0.037753,692,862,-36.8417,-0.825017
-525,162,-36.8868,0.780945,0.00082296,-0.000121694,0.00182788,0.00223855,-0.00153729,0.658963,0.00219248,0.0386802,699,862,-36.8868,-0.780923
-518,162,-37.011,0.657227,0.000739348,0.000362123,0.00225637,0.00281497,-0.0017135,0.743699,0.00264017,0.0412896,706,862,-37.011,-0.657224
-511,162,-37.0858,0.679749,0.00151437,0.00106547,0.00283737,0.00413615,-0.00155631,0.745927,0.00339719,0.0456369,713,862,-37.0858,-0.679762
-504,162,-36.8979,0.622009,0.00412123,0.00298503,0.00397639,0.0075699,-0.000463639,0.714444,0.00520803,0.0463042,720,862,-36.898,-0.621987
-497,162,-36.8844,0.617615,0.0073669,0.00530261,0.00579589,0.0122218,0.000447678,0.697281,0.00800284,0.0428385,727,862,-36.8844,-0.617587
-490,162,0,0,0,0,0,0,0,0,0,-1,734,862,0,0
-483,162,0,0,0,0,0,0,0,0,0,-1,741,862,0,0
-476,162,0,0,0,0,0,0,0,0,0,-1,748,862,0,0
-469,162,0,0,0,0,0,0,0,0,0,-1,755,862,0,0
-462,162,0,0,0,0,0,0,0,0,0,-1,762,862,0,0
-455,162,0,0,0,0,0,0,0,0,0,-1,769,862,0,0
-448,162,0,0,0,0,0,0,0,0,0,-1,776,862,0,0
-441,162,0,0,0,0,0,0,0,0,0,-1,783,862,0,0
-434,162,0,0,0,0,0,0,0,0,0,-1,790,862,0,0
-427,162,0,0,0,0,0,0,0,0,0,-1,797,862,0,0
-420,162,0,0,0,0,0,0,0,0,0,-1,804,862,0,0
-413,162,0,0,0,0,0,0,0,0,0,-1,811,862,0,0
-406,162,0,0,0,0,0,0,0,0,0,-1,818,862,0,0
-399,162,0,0,0,0,0,0,0,0,0,-1,825,862,0,0
-392,162,0,0,0,0,0,0,0,0,0,-1,832,862,0,0
-385,162,0,0,0,0,0,0,0,0,0,-1,839,862,0,0
-378,162,0,0,0,0,0,0,0,0,0,-1,846,862,0,0
-371,162,0,0,0,0,0,0,0,0,0,-1,853,862,0,0
-364,162,0,0,0,0,0,0,0,0,0,-1,860,862,0,0
-357,162,0,0,0,0,0,0,0,0,0,-1,867,862,0,0
-350,162,0,0,0,0,0,0,0,0,0,-1,874,862,0,0
-343,162,0,0,0,0,0,0,0,0,0,-1,881,862,0,0
-336,162,0,0,0,0,0,0,0,0,0,-1,888,862,0,0
-329,162,0,0,0,0,0,0,0,0,0,-1,895,862,0,0
-322,162,0,0,0,0,0,0,0,0,0,-1,902,862,0,0
-315,162,0,0,0,0,0,0,0,0,0,-1,909,862,0,0
-308,162,0,0,0,0,0,0,0,0,0,-1,916,862,0,0
-301,162,0,0,0,0,0,0,0,0,0,-1,923,862,0,0
-294,162,0,0,0,0,0,0,0,0,0,-1,930,862,0,0
-287,162,0,0,0,0,0,0,0,0,0,-1,937,862,0,0
-280,162,0,0,0,0,0,0,0,0,0,-1,944,862,0,0
-273,162,0,0,0,0,0,0,0,0,0,-1,951,862,0,0
-266,162,0,0,0,0,0,0,0,0,0,-1,958,862,0,0
-259,162,0,0,0,0,0,0,0,0,0,-1,965,862,0,0
-252,162,0,0,0,0,0,0,0,0,0,-1,972,862,0,0
-245,162,0,0,0,0,0,0,0,0,0,-1,979,862,0,0
-238,162,0,0,0,0,0,0,0,0,0,-1,986,862,0,0
-231,162,0,0,0,0,0,0,0,0,0,-1,993,862,0,0
-224,162,0,0,0,0,0,0,0,0,0,-1,1000,862,0,0
-217,162,0,0,0,0,0,0,0,0,0,-1,1007,862,0,0
-210,162,0,0,0,0,0,0,0,0,0,-1,1014,862,0,0
-203,162,0,0,0,0,0,0,0,0,0,-1,1021,862,0,0
-196,162,0,0,0,0,0,0,0,0,0,-1,1028,862,0,0
-189,162,0,0,0,0,0,0,0,0,0,-1,1035,862,0,0
-182,162,0,0,0,0,0,0,0,0,0,-1,1042,862,0,0
-175,162,0,0,0,0,0,0,0,0,0,-1,1049,862,0,0
-168,162,0,0,0,0,0,0,0,0,0,-1,1056,862,0,0
-161,162,0,0,0,0,0,0,0,0,0,-1,1063,862,0,0
-154,162,0,0,0,0,0,0,0,0,0,-1,1070,862,0,0
-147,162,0,0,0,0,0,0,0,0,0,-1,1077,862,0,0
-140,162,0,0,0,0,0,0,0,0,0,-1,1084,862,0,0
-133,162,0,0,0,0,0,0,0,0,0,-1,1091,862,0,0
-126,162,0,0,0,0,0,0,0,0,0,-1,1098,862,0,0
-119,162,0,0,0,0,0,0,0,0,0,-1,1105,862,0,0
-112,162,0,0,0,0,0,0,0,0,0,-1,1112,862,0,0
-105,162,0,0,0,0,0,0,0,0,0,-1,1119,862,0,0
-98,162,0,0,0,0,0,0,0,0,0,-1,1126,862,0,0
-91,162,0,0,0,0,0,0,0,0,0,-1,1133,862,0,0
-84,162,0,0,0,0,0,0,0,0,0,-1,1140,862,0,0
-77,162,0,0,0,0,0,0,0,0,0,-1,1147,862,0,0
-70,162,0,0,0,0,0,0,0,0,0,-1,1154,862,0,0
-63,162,0,0,0,0,0,0,0,0,0,-1,1161,862,0,0
-56,162,0,0,0,0,0,0,0,0,0,-1,1168,862,0,0
-49,162,0,0,0,0,0,0,0,0,0,-1,1175,862,0,0
-42,162,0,0,0,0,0,0,0,0,0,-1,1182,862,0,0
-35,162,0,0,0,0,0,0,0,0,0,-1,1189,862,0,0
-28,162,0,0,0,0,0,0,0,0,0,-1,1196,862,0,0
-21,162,0,0,0,0,0,0,0,0,0,-1,1203,862,0,0
-14,162,0,0,0,0,0,0,0,0,0,-1,1210,862,0,0
-7,162,0,0,0,0,0,0,0,0,0,-1,1217,862,0,0
0,162,0,0,0,0,0,0,0,0,0,-1,1224,862,0,0
7,162,0,0,0,0,0,0,0,0,0,-1,1231,862,0,0
14,162,0,0,0,0,0,0,0,0,0,-1,1238,862,0,0
21,162,0,0,0,0,0,0,0,0,0,-1,1245,862,0,0
28,162,0,0,0,0,0,0,0,0,0,-1,1252,862,0,0
35,162,0,0,0,0,0,0,0,0,0,-1,1259,862,0,0
42,162,0,0,0,0,0,0,0,0,0,-1,1266,862,0,0
49,162,0,0,0,0,0,0,0,0,0,-1,1273,862,0,0
56,162,0,0,0,0,0,0,0,0,0,-1,1280,862,0,0
63,162,0,0,0,0,0,0,0,0,0,-1,1287,862,0,0
70,162,0,0,0,0,0,0,0,0,0,-1,1294,862,0,0
77,162,0,0,0,0,0,0,0,0,0,-1,1301,862,0,0
84,162,0,0,0,0,0,0,0,0,0,-1,1308,862,0,0
91,162,0,0,0,0,0,0,0,0,0,-1,1315,862,0,0
98,162,0,0,0,0,0,0,0,0,0,-1,1322,862,0,0
105,162,0,0,0,0,0,0,0,0,0,-1,1329,862,0,0
112,162,0,0,0,0,0,0,0,0,0,-1,1336,862,0,0
119,162,0,0,0,0,0,0,0,0,0,-1,1343,862,0,0
126,162,0,0,0,0,0,0,0,0,0,-1,1350,862,0,0
133,162,0,0,0,0,0,0,0,0,0,-1,1357,862,0,0
140,162,0,0,0,0,0,0,0,0,0,-1,1364,862,0,0
147,162,0,0,0,0,0,0,0,0,0,-1,1371,862,0,0
154,162,0,0,0,0,0,0,0,0,0,-1,1378,862,0,0
161,162,0,0,0,0,0,0,0,0,0,-1,1385,862,0,0
168,162,0,0,0,0,0,0,0,0,0,-1,1392,862,0,0
175,162,0,0,0,0,0,0,0,0,0,-1,1399,862,0,0
182,162,0,0,0,0,0,0,0,0,0,-1,1406,862,0,0
189,162,0,0,0,0,0,0,0,0,0,-1,1413,862,0,0
196,162,0,0,0,0,0,0,0,0,0,-1,1420,862,0,0
203,162,0,0,0,0,0,0,0,0,0,-1,1427,862,0,0
210,162,0,0,0,0,0,0,0,0,0,-1,1434,862,0,0
217,162,0,0,0,0,0,0,0,0,0,-1,1441,862,0,0
224,162,0,0,0,0,0,0,0,0,0,-1,1448,862,0,0
231,162,0,0,0,0,0,0,0,0,0,-1,1455,862,0,0
238,162,0,0,0,0,0,0,0,0,0,-1,1462,862,0,0
245,162,0,0,0,0,0,0,0,0,0,-1,1469,862,0,0
252,162,0,0,0,0,0,0,0,0,0,-1,1476,862,0,0
259,162,0,0,0,0,0,0,0,0,0,-1,1483,862,0,0
266,162,0,0,0,0,0,0,0,0,0,-1,1490,862,0,0
273,162,0,0,0,0,0,0,0,0,0,-1,1497,862,0,0
280,162,0,0,0,0,0,0,0,0,0,-1,1504,862,0,0
287,162,0,0,0,0,0,0,0,0,0,-1,1511,862,0,0
294,162,0,0,0,0,0,0,0,0,0,-1,1518,862,0,0
301,162,0,0,0,0,0,0,0,0,0,-1,1525,862,0,0
308,162,0,0,0,0,0,0,0,0,0,-1,1532,862,0,0
315,162,0,0,0,0,0,0,0,0,0,-1,1539,862,0,0
322,162,0,0,0,0,0,0,0,0,0,-1,1546,862,0,0
329,162,0,0,0,0,0,0,0,0,0,-1,1553,862,0,0
336,162,0,0,0,0,0,0,0,0,0,-1,1560,862,0,0
343,162,0,0,0,0,0,0,0,0,0,-1,1567,862,0,0
350,162,0,0,0,0,0,0,0,0,0,-1,1574,862,0,0
357,162,0,0,0,0,0,0,0,0,0,-1,1581,862,0,0
364,162,0,0,0,0,0,0,0,0,0,-1,1588,862,0,0
371,162,0,0,0,0,0,0,0,0,0,-1,1595,862,0,0
378,162,0,0,0,0,0,0,0,0,0,-1,1602,862,0,0
385,162,0,0,0,0,0,0,0,0,0,-1,1609,862,0,0
392,162,0,0,0,0,0,0,0,0,0,-1,1616,862,0,0
399,162,0,0,0,0,0,0,0,0,0,-1,1623,862,0,0
406,162,0,0,0,0,0,0,0,0,0,-1,1630,862,0,0
413,162,0,0,0,0,0,0,0,0,0,-1,1637,862,0,0
420,162,0,0,0,0,0,0,0,0,0,-1,1644,862,0,0
427,162,0,0,0,0,0,0,0,0,0,-1,1651,862,0,0
434,162,0,0,0,0,0,0,0,0,0,-1,1658,862,0,0
441,162,0,0,0,0,0,0,0,0,0,-1,1665,862,0,0
448,162,0,0,0,0,0,0,0,0,0,-1,1672,862,0,0
455,162,0,0,0,0,0,0,0,0,0,-1,1679,862,0,0
462,162,0,0,0,0,0,0,0,0,0,-1,1686,862,0,0
469,162,0,0,0,0,0,0,0,0,0,-1,1693,862,0,0
476,162,0,0,0,0,0,0,0,0,0,-1,1700,862,0,0
483,162,0,0,0,0,0,0,0,0,0,-1,1707,862,0,0
490,162,0,0,0,0,0,0,0,0,0,-1,1714,862,0,0
497,162,0,0,0,0,0,0,0,0,0,-1,1721,862,0,0
504,162,0,0,0,0,0,0,0,0,0,-1,1728,862,0,0
511,162,0,0,0,0,0,0,0,0,0,-1,1735,862,0,0
518,162,0,0,0,0,0,0,0,0,0,-1,1742,862,0,0
525,162,0,0,0,0,0,0,0,0,0,-1,1749,862,0,0
532,162,0,0,0,0,0,0,0,0,0,-1,1756,862,0,0
539,162,0,0,0,0,0,0,0,0,0,-1,1763,862,0,0
546,162,0,0,0,0,0,0,0,0,0,-1,1770,862,0,0
553,162,0,0,0,0,0,0,0,0,0,-1,1777,862,0,0
560,162,0,0,0,0,0,0,0,0,0,-1,1784,862,0,0
567,162,0,0,0,0,0,0,0,0,0,-1,1791,862,0,0
574,162,0,0,0,0,0,0,0,0,0,-1,1798,862,0,0
581,162,0,0,0,0,0,0,0,0,0,-1,1805,862,0,0
588,162,0,0,0,0,0,0,0,0,0,-1,1812,862,0,0
595,162,0,0,0,0,0,0,0,0,0,-1,1819,862,0,0
602,162,0,0,0,0,0,0,0,0,0,-1,1826,862,0,0
609,162,0,0,0,0,0,0,0,0,0,-1,1833,862,0,0
616,162,48.899,2.57336,0.00328559,0.00156222,0.00669015,0.00916931,-0.00432151,0.721351,0.00795479,0.0455645,1840,862,48.899,-2.57339
623,162,49.0702,2.60333,0.00303019,0.00129408,0.00499631,0.0072333,-0.00290903,0.699387,0.00603047,0.0477395,1847,862,49.0702,-2.60332
630,162,49.0519,2.68799,0.00270487,0.00107578,0.00347016,0.0054548,-0.00167415,0.670121,0.00430451,0.0438268,1854,862,49.0518,-2.68799
637,162,49.1252,2.68115,0.00220264,0.00112706,0.00226201,0.0039899,-0.00066021,0.66869,0.00290512,0.0421161,1861,862,49.1253,-2.68114
644,162,49.1793,2.67181,0.00153897,0.00108501,0.00128674,0.00261859,5.38118e-06,0.698096,0.00174394,0.0397715,1868,862,49.1793,-2.67179
651,162,49.1438,2.65942,0.00096724,0.000906039,0.000610721,0.00154813,0.000325152,0.760366,0.000942584,0.0365495,1875,862,49.1438,-2.65941
658,162,49.1316,2.64386,0.000447292,0.000860105,0.000207689,0.000946509,0.000360888,1.17655,0.000551578,0.0358443,1882,862,49.1316,-2.64388
665,162,49.1404,2.6488,-4.75347e-05,0.000817587,-0.000291448,0.000906611,-0.000136559,-1.27434,0.000654692,0.0447013,1889,862,49.1403,-2.64879
672,162,49.1304,2.6889,0,0,0,0,0,0,0,-1,1896,862,49.1304,-2.68892
679,162,26.5077,2.54785,0,0,0,0,0,0,0,-1,1903,862,26.5077,-2.54787
686,162,40.1796,1.40826,0,0,0,0,0,0,0,-1,1910,862,40.1795,-1.40827
693,162,40.8909,2.06097,0,0,0,0,0,0,0,-1,1917,862,40.8909,-2.061
700,162,40.8296,2.55756,-0.00120055,0.000694536,-0.0010968,0.00119641,-0.00170243,-1.14166,0.00168212,0.0265648,1924,862,40.8296,-2.55754
707,162,40.7432,3.01501,-0.001034,0.000521899,-0.00111585,0.00110422,-0.00161632,-1.08981,0.00157995,0.0191308,1931,862,40.7432,-3.01502
714,162,40.6031,3.4762,-0.000692728,0.000618262,-0.00121525,0.00134353,-0.001418,-1.03273,0.00159456,0.0217547,1938,862,40.6031,-3.47618
721,162,40.476,4.10437,7.91828e-05,0.000668302,-0.00150288,0.00190522,-0.00115773,-0.88217,0.00178586,0.0283589,1945,862,40.4759,-4.10438
728,162,40.49,4.59668,0.00113435,0.000747033,-0.00181876,0.00276973,-0.000888345,-0.732358,0.00220313,0.0229615,1952,862,40.49,-4.59666
735,162,40.5518,5.08722,0.00252964,0.000750943,-0.00226087,0.00406979,-0.000789207,-0.598011,0.00301094,0.0110389,1959,862,40.5518,-5.08723
742,162,40.521,5.60736,0.00419406,0.000782271,-0.00277508,0.00574564,-0.000769307,-0.509812,0.00411093,0.0133127,1966,862,40.5209,-5.60736
749,162,40.439,6.10419,0.00606953,0.000683403,-0.00337665,0.00769553,-0.000942605,-0.448774,0.00547169,0.0203862,1973,862,40.4389,-6.10417
756,162,40.3954,6.57159,0.00842308,0.000379819,-0.0040519,0.0101103,-0.00130744,-0.394574,0.00721563,0.0452269,1980,862,40.3954,-6.57161
763,162,40.3899,7.0647,0,0,0,0,0,0,0,-1,1987,862,40.3899,-7.06469
770,162,41.3618,8.03766,0,0,0,0,0,0,0,-1,1994,862,41.3618,-8.03765
777,162,39.4197,8.78247,0,0,0,0,0,0,0,-1,2001,862,39.4197,-8.78246
784,162,37.2179,12.1003,0,0,0,0,0,0,0,-1,2008,862,37.2179,-12.1003
791,162,0,0,0,0,0,0,0,0,0,-1,2015,862,0,0
798,162,0,0,0,0,0,0,0,0,0,-1,2022,862,0,0
805,162,0,0,0,0,0,0,0,0,0,-1,2029,862,0,0
812,162,0,0,0,0,0,0,0,0,0,-1,2036,862,0,0
-700,155,0,0,0,0,0,0,0,0,0,-1,524,869,0,0
-693,155,0,0,0,0,0,0,0,0,0,-1,531,869,0,0
-686,155,0,0,0,0,0,0,0,0,0,-1,538,869,0,0
-679,155,0,0,0,0,0,0,0,0,0,-1,545,869,0,0
-672,155,0,0,0,0,0,0,0,0,0,-1,552,869,0,0
-665,155,-33.1615,8.08392,0.0189314,0.0692032,-0.00570433,0.0698424,0.0182922,-1.45922,0.0418197,0.0480088,559,869,-33.1615,-8.0839
-658,155,-33.2554,7.73621,0.0239696,0.0616899,-0.00655904,0.0627979,0.0228616,-1.40345,0.0367004,0.049415,566,869,-33.2553,-7.73623
-651,155,-32.5104,7.12701,0,0,0,0,0,0,0,-1,573,869,-32.5104,-7.12704
-644,155,-31.7914,6.36261,0,0,0,0,0,0,0,-1,580,869,-31.7914,-6.36263
-637,155,-30.5009,5.78857,0,0,0,0,0,0,0,-1,587,869,-30.5009,-5.78857
-630,155,-30.183,5.03168,0.023326,0.028562,-0.00408498,0.0307959,0.0210921,-1.07037,0.0181807,0.0493493,594,869,-30.1831,-5.03167
-623,155,-29.8071,4.08026,0.0194198,0.0215192,-0.00290588,0.0235592,0.0173799,-0.95872,0.014105,0.0281432,601,869,-29.8071,-4.08027
-616,155,-29.8898,3.4837,0.0156951,0.0160062,-0.00236335,0.0182191,0.0134822,-0.818265,0.0109153,0.0161014,608,869,-29.8898,-3.48371
-609,155,-29.9606,2.9436,0.011164,0.00886486,-0.000967125,0.0115167,0.00851215,-0.349714,0.00689795,0.0137368,615,869,-29.9606,-2.94362
-602,155,-30,2.44153,0.00632801,0.00427519,0.000426979,0.00641328,0.00418992,0.197108,0.00376029,0.0127232,622,869,-30,-2.4415
-595,155,-30.0153,1.94122,0.00313302,0.00206741,0.000996678,0.00373037,0.00147006,0.539934,0.00216978,0.0126691,629,869,-30.0153,-1.94123
-588,155,-29.9993,1.48468,0.00180684,0.000939346,0.00130791,0.00275105,-4.86511e-06,0.625288,0.00183566,0.0165545,636,869,-29.9994,-1.48469
-581,155,-30.2355,1.11224,0.00138408,0.000655436,0.00140077,0.00246712,-0.000427614,0.658174,0.00180426,0.0315861,643,869,-30.2354,-1.11225
-574,155,-30.3524,0.690918,0.000721753,0.00045073,0.00120364,0.00179749,-0.000625006,0.729342,0.00145221,0.0363627,650,869,-30.3524,-0.690939
-567,155,-30.3273,0.00012207,0.000271707,-7.34212e-05,0.00128315,0.00139385,-0.00119556,0.718557,0.00149646,0.0440929,657,869,-30.3273,-9.50151e-05
-560,155,-30.1973,-0.587646,7.37763e-05,-9.78695e-05,0.00135004,0.00134072,-0.00136482,0.753656,0.00156206,0.0386732,664,869,-30.1973,0.587647
-553,155,-29.9504,-1.46643,0,0,0,0,0,0,0,-1,671,869,-29.9504,1.46644
-546,155,-22.7988,0.873657,0,0,0,0,0,0,0,-1,678,869,-22.7988,-0.873645
-539,155,-36.8996,0.734192,0,0,0,0,0,0,0,-1,685,869,-36.8996,-0.734202
-532,155,-36.8564,0.866211,0.000425071,-7.64995e-05,0.00149533,0.0016905,-0.00134193,0.702316,0.00175463,0.0371134,692,869,-36.8564,-0.866228
-525,155,-36.8705,0.819519,0.000240065,3.7261e-05,0.00160945,0.0017513,-0.00147398,0.753938,0.00186441,0.0363132,699,869,-36.8706,-0.81949
-518,155,-36.9667,0.728882,1.74764e-05,0.00035308,0.00219295,0.00238464,-0.00201409,0.823583,0.00254261,0.0406311,706,869,-36.9667,-0.728876
-511,155,-36.9308,0.647156,0.000883257,0.000805936,0.00309517,0.00394001,-0.00225082,0.779153,0.00361836,0.0432064,713,869,-36.9308,-0.647143
-504,155,-36.7039,0.750488,0.00377247,0.00254063,0.00484738,0.0080429,-0.0017298,0.722205,0.00602193,0.0427229,720,869,-36.7039,-0.750504
-497,155,0,0,0,0,0,0,0,0,0,-1,727,869,0,0
-490,155,0,0,0,0,0,0,0,0,0,-1,734,869,0,0
-483,155,0,0,0,0,0,0,0,0,0,-1,741,869,0,0
-476,155,0,0,0,0,0,0,0,0,0,-1,748,869,0,0
-469,155,0,0,0,0,0,0,0,0,0,-1,755,869,0,0
-462,155,0,0,0,0,0,0,0,0,0,-1,762,869,0,0
-455,155,0,0,0,0,0,0,0,0,0,-1,769,869,0,0
-448,155,0,0,0,0,0,0,0,0,0,-1,776,869,0,0
-441,155,0,0,0,0,0,0,0,0,0,-1,783,869,0,0
-434,155,0,0,0,0,0,0,0,0,0,-1,790,869,0,0
-427,155,0,0,0,0,0,0,0,0,0,-1,797,869,0,0
-420,155,0,0,0,0,0,0,0,0,0,-1,804,869,0,0
-413,155,0,0,0,0,0,0,0,0,0,-1,811,869,0,0
-406,155,0,0,0,0,0,0,0,0,0,-1,818,869,0,0
-399,155,0,0,0,0,0,0,0,0,0,-1,825,869,0,0
-392,155,0,0,0,0,0,0,0,0,0,-1,832,869,0,0
-385,155,0,0,0,0,0,0,0,0,0,-1,839,869,0,0
-378,155,0,0,0,0,0,0,0,0,0,-1,846,869,0,0
-371,155,0,0,0,0,0,0,0,0,0,-1,853,869,0,0
-364,155,0,0,0,0,0,0,0,0,0,-1,860,869,0,0
-357,155,0,0,0,0,0,0,0,0,0,-1,867,869,0,0
-350,155,0,0,0,0,0,0,0,0,0,-1,874,869,0,0
-343,155,0,0,0,0,0,0,0,0,0,-1,881,869,0,0
-336,155,0,0,0,0,0,0,0,0,0,-1,888,869,0,0
-329,155,0,0,0,0,0,0,0,0,0,-1,895,869,0,0
-322,155,0,0,0,0,0,0,0,0,0,-1,902,869,0,0
-315,155,0,0,0,0,0,0,0,0,0,-1,909,869,0,0
-308,155,0,0,0,0,0,0,0,0,0,-1,916,869,0,0
-301,155,0,0,0,0,0,0,0,0,0,-1,923,869,0,0
-294,155,0,0,0,0,0,0,0,0,0,-1,930,869,0,0
-287,155,0,0,0,0,0,0,0,0,0,-1,937,869,0,0
-280,155,0,0,0,0,0,0,0,0,0,-1,944,869,0,0
-273,155,0,0,0,0,0,0,0,0,0,-1,951,869,0,0
-266,155,0,0,0,0,0,0,0,0,0,-1,958,869,0,0
-259,155,0,0,0,0,0,0,0,0,0,-1,965,869,0,0
-252,155,0,0,0,0,0,0,0,0,0,-1,972,869,0,0
-245,155,0,0,0,0,0,0,0,0,0,-1,979,869,0,0
-238,155,0,0,0,0,0,0,0,0,0,-1,986,869,0,0
-231,155,0,0,0,0,0,0,0,0,0,-1,993,869,0,0
-224,155,0,0,0,0,0,0,0,0,0,-1,1000,869,0,0
-217,155,0,0,0,0,0,0,0,0,0,-1,1007,869,0,0
-210,155,0,0,0,0,0,0,0,0,0,-1,1014,869,0,0
-203,155,0,0,0,0,0,0,0,0,0,-1,1021,869,0,0
-196,155,0,0,0,0,0,0,0,0,0,-1,1028,869,0,0
-189,155,0,0,0,0,0,0,0,0,0,-1,1035,869,0,0
-182,155,0,0,0,0,0,0,0,0,0,-1,1042,869,0,0
-175,155,0,0,0,0,0,0,0,0,0,-1,1049,869,0,0
-168,155,0,0,0,0,0,0,0,0,0,-1,1056,869,0,0
-161,155,0,0,0,0,0,0,0,0,0,-1,1063,869,0,0
-154,155,0,0,0,0,0,0,0,0,0,-1,1070,869,0,0
-147,155,0,0,0,0,0,0,0,0,0,-1,1077,869,0,0
-140,155,0,0,0,0,0,0,0,0,0,-1,1084,869,0,0
-133,155,0,0,0,0,0,0,0,0,0,-1,1091,869,0,0
-126,155,0,0,0,0,0,0,0,0,0,-1,1098,869,0,0
-119,155,0,0,0,0,0,0,0,0,0,-1,1105,869,0,0
-112,155,0,0,0,0,0,0,0,0,0,-1,1112,869,0,0
-105,155,0,0,0,0,0,0,0,0,0,-1,1119,869,0,0
-98,155,0,0,0,0,0,0,0,0,0,-1,1126,869,0,0
-91,155,0,0,0,0,0,0,0,0,0,-1,1133,869,0,0
-84,155,0,0,0,0,0,0,0,0,0,-1,1140,869,0,0
-77,155,0,0,0,0,0,0,0,0,0,-1,1147,869,0,0
-70,155,0,0,0,0,0,0,0,0,0,-1,1154,869,0,0
-63,155,0,0,0,0,0,0,0,0,0,-1,1161,869,0,0
-56,155,0,0,0,0,0,0,0,0,0,-1,1168,869,0,0
-49,155,0,0,0,0,0,0,0,0,0,-1,1175,869,0,0
-42,155,0,0,0,0,0,0,0,0,0,-1,1182,869,0,0
-35,155,0,0,0,0,0,0,0,0,0,-1,1189,869,0,0
-28,155,0,0,0,0,0,0,0,0,0,-1,1196,869,0,0
-21,155,0,0,0,0,0,0,0,0,0,-1,1203,869,0,0
-14,155,0,0,0,0,0,0,0,0,0,-1,1210,869,0,0
-7,155,0,0,0,0,0,0,0,0,0,-1,1217,869,0,0
0,155,0,0,0,0,0,0,0,0,0,-1,1224,869,0,0
7,155,0,0,0,0,0,0,0,0,0,-1,1231,869,0,0
14,155,0,0,0,0,0,0,0,0,0,-1,1238,869,0,0
21,155,0,0,0,0,0,0,0,0,0,-1,1245,869,0,0
28,155,0,0,0,0,0,0,0,0,0,-1,1252,869,0,0
35,155,0,0,0,0,0,0,0,0,0,-1,1259,869,0,0
42,155,0,0,0,0,0,0,0,0,0,-1,1266,869,0,0
49,155,0,0,0,0,0,0,0,0,0,-1,1273,869,0,0
56,155,0,0,0,0,0,0,0,0,0,-1,1280,869,0,0
63,155,0,0,0,0,0,0,0,0,0,-1,1287,869,0,0
70,155,0,0,0,0,0,0,0,0,0,-1,1294,869,0,0
77,155,0,0,0,0,0,0,0,0,0,-1,1301,869,0,0
84,155,0,0,0,0,0,0,0,0,0,-1,1308,869,0,0
91,155,0,0,0,0,0,0,0,0,0,-1,1315,869,0,0
98,155,0,0,0,0,0,0,0,0,0,-1,1322,869,0,0
105,155,0,0,0,0,0,0,0,0,0,-1,1329,869,0,0
112,155,0,0,0,0,0,0,0,0,0,-1,1336,869,0,0
119,155,0,0,0,0,0,0,0,0,0,-1,1343,869,0,0
126,155,0,0,0,0,0,0,0,0,0,-1,1350,869,0,0
133,155,0,0,0,0,0,0,0,0,0,-1,1357,869,0,0
140,155,0,0,0,0,0,0,0,0,0,-1,1364,869,0,0
147,155,0,0,0,0,0,0,0,0,0,-1,1371,869,0,0
154,155,0,0,0,0,0,0,0,0,0,-1,1378,869,0,0
161,155,0,0,0,0,0,0,0,0,0,-1,1385,869,0,0
168,155,0,0,0,0,0,0,0,0,0,-1,1392,869,0,0
175,155,0,0,0,0,0,0,0,0,0,-1,1399,869,0,0
182,155,0,0,0,0,0,0,0,0,0,-1,1406,869,0,0
189,155,0,0,0,0,0,0,0,0,0,-1,1413,869,0,0
196,155,0,0,0,0,0,0,0,0,0,-1,1420,869,0,0
203,155,0,0,0,0,0,0,0,0,0,-1,1427,869,0,0
210,155,0,0,0,0,0,0,0,0,0,-1,1434,869,0,0
217,155,0,0,0,0,0,0,0,0,0,-1,1441,869,0,0
224,155,0,0,0,0,0,0,0,0,0,-1,1448,869,0,0
231,155,0,0,0,0,0,0,0,0,0,-1,1455,869,0,0
238,155,0,0,0,0,0,0,0,0,0,-1,1462,869,0,0
245,155,0,0,0,0,0,0,0,0,0,-1,1469,869,0,0
252,155,0,0,0,0,0,0,0,0,0,-1,1476,869,0,0
259,155,0,0,0,0,0,0,0,0,0,-1,1483,869,0,0
266,155,0,0,0,0,0,0,0,0,0,-1,1490,869,0,0
273,155,0,0,0,0,0,0,0,0,0,-1,1497,869,0,0
280,155,0,0,0,0,0,0,0,0,0,-1,1504,869,0,0
287,155,0,0,0,0,0,0,0,0,0,-1,1511,869,0,0
294,155,0,0,0,0,0,0,0,0,0,-1,1518,869,0,0
301,155,0,0,0,0,0,0,0,0,0,-1,1525,869,0,0
308,155,0,0,0,0,0,0,0,0,0,-1,1532,869,0,0
315,155,0,0,0,0,0,0,0,0,0,-1,1539,869,0,0
322,155,0,0,0,0,0,0,0,0,0,-1,1546,869,0,0
329,155,0,0,0,0,0,0,0,0,0,-1,1553,869,0,0
336,155,0,0,0,0,0,0,0,0,0,-1,1560,869,0,0
343,155,0,0,0,0,0,0,0,0,0,-1,1567,869,0,0
350,155,0,0,0,0,0,0,0,0,0,-1,1574,869,0,0
357,155,0,0,0,0,0,0,0,0,0,-1,1581,869,0,0
364,155,0,0,0,0,0,0,0,0,0,-1,1588,869,0,0
371,155,0,0,0,0,0,0,0,0,0,-1,1595,869,0,0
378,155,0,0,0,0,0,0,0,0,0,-1,1602,869,0,0
385,155,0,0,0,0,0,0,0,0,0,-1,1609,869,0,0
392,155,0,0,0,0,0,0,0,0,0,-1,1616,869,0,0
399,155,0,0,0,0,0,0,0,0,0,-1,1623,869,0,0
406,155,0,0,0,0,0,0,0,0,0,-1,1630,869,0,0
413,155,0,0,0,0,0,0,0,0,0,-1,1637,869,0,0
420,155,0,0,0,0,0,0,0,0,0,-1,1644,869,0,0
427,155,0,0,0,0,0,0,0,0,0,-1,1651,869,0,0
434,155,0,0,0,0,0,0,0,0,0,-1,1658,869,0,0
441,155,0,0,0,0,0,0,0,0,0,-1,1665,869,0,0
448,155,0,0,0,0,0,0,0,0,0,-1,1672,869,0,0
455,155,0,0,0,0,0,0,0,0,0,-1,1679,869,0,0
462,155,0,0,0,0,0,0,0,0,0,-1,1686,869,0,0
469,155,0,0,0,0,0,0,0,0,0,-1,1693,869,0,0
476,155,0,0,0,0,0,0,0,0,0,-1,1700,869,0,0
483,155,0,0,0,0,0,0,0,0,0,-1,1707,869,0,0
490,155,0,0,0,0,0,0,0,0,0,-1,1714,869,0,0
497,155,0,0,0,0,0,0,0,0,0,-1,1721,869,0,0
504,155,0,0,0,0,0,0,0,0,0,-1,1728,869,0,0
511,155,0,0,0,0,0,0,0,0,0,-1,1735,869,0,0
518,155,0,0,0,0,0,0,0,0,0,-1,1742,869,0,0
525,155,0,0,0,0,0,0,0,0,0,-1,1749,869,0,0
532,155,0,0,0,0,0,0,0,0,0,-1,1756,869,0,0
539,155,0,0,0,0,0,0,0,0,0,-1,1763,869,0,0
546,155,0,0,0,0,0,0,0,0,0,-1,1770,869,0,0
553,155,0,0,0,0,0,0,0,0,0,-1,1777,869,0,0
560,155,0,0,0,0,0,0,0,0,0,-1,1784,869,0,0
567,155,0,0,0,0,0,0,0,0,0,-1,1791,869,0,0
574,155,0,0,0,0,0,0,0,0,0,-1,1798,869,0,0
581,155,0,0,0,0,0,0,0,0,0,-1,1805,869,0,0
588,155,0,0,0,0,0,0,0,0,0,-1,1812,869,0,0
595,155,0,0,0,0,0,0,0,0,0,-1,1819,869,0,0
602,155,0,0,0,0,0,0,0,0,0,-1,1826,869,0,0
609,155,0,0,0,0,0,0,0,0,0,-1,1833,869,0,0
616,155,49.165,2.57269,0.00377752,0.002075,0.00670009,0.00968022,-0.00382769,0.722211,0.00803909,0.045878,1840,869,49.1651,-2.57269
623,155,49.017,2.69482,0.00343457,0.00165766,0.00475404,0.00738245,-0.00229023,0.693021,0.00583679,0.0464487,1847,869,49.017,-2.69484
630,155,48.9978,2.82001,0.00311202,0.0012286,0.00316418,0.00547165,-0.00113103,0.640764,0.00407741,0.0457531,1854,869,48.9978,-2.82002
637,155,49.0343,2.78876,0.00267427,0.00112727,0.0020176,0.00406156,-0.000260022,0.602352,0.00279841,0.04303,1861,869,49.0343,-2.78873
644,155,49.157,2.61499,0.00206175,0.000980779,0.00112255,0.00276715,0.000275373,0.561037,0.00176017,0.0388438,1868,869,49.1569,-2.61498
651,155,49.2197,2.53168,0.00147209,0.000759663,0.000515847,0.00174276,0.00048899,0.483223,0.00103798,0.0357406,1875,869,49.2197,-2.53169
658,155,49.1694,2.54999,0.000907478,0.00075834,0.000225682,0.00107059,0.000595226,0.625837,0.000619397,0.0292196,1882,869,49.1695,-2.54998
665,155,49.1006,2.61908,0.000398742,0.000737012,-0.000163275,0.000802962,0.000332791,-1.18691,0.000465847,0.0322752,1889,869,49.1005,-2.61909
672,155,49.1572,2.47736,0,0,0,0,0,0,0,-1,1896,869,49.1573,-2.47739
679,155,35.1565,2.78528,0,0,0,0,0,0,0,-1,1903,869,35.1565,-2.7853
686,155,41.5759,1.58612,0,0,0,0,0,0,0,-1,1910,869,41.5759,-1.58609
693,155,41.3553,2.05151,0,0,0,0,0,0,0,-1,1917,869,41.3553,-2.0515
700,155,41.3728,2.62897,-0.000869094,0.000736669,-0.000692923,0.000994334,-0.00112676,-1.21479,0.00122541,0.0320626,1924,869,41.3728,-2.62895
707,155,41.3907,3.15485,-0.000725777,0.000623635,-0.000704663,0.00092452,-0.00102666,-1.16724,0.00112703,0.0232053,1931,869,41.3908,-3.15484
714,155,41.3262,3.60559,-0.000487106,0.000785043,-0.000844943,0.00120657,-0.000908632,-1.10804,0.00122524,0.0439392,1938,869,41.3262,-3.60558
721,155,41.0886,4.0694,3.44448e-05,0.000890403,-0.00119031,0.00172734,-0.000802493,-0.957977,0.00149278,0.0309878,1945,869,41.0886,-4.06939
728,155,41.0581,4.59912,0.000706847,0.00101456,-0.00156243,0.00243069,-0.000709285,-0.834476,0.00190151,0.0195285,1952,869,41.0582,-4.59911
735,155,41.069,5.11047,0.00167505,0.00102973,-0.00203984,0.00341759,-0.000712812,-0.706959,0.00254943,0.0164232,1959,869,41.0689,-5.11049
742,155,41.0803,5.63574,0.00287435,0.00108457,-0.00256372,0.00469488,-0.000735956,-0.61748,0.00340188,0.0189713,1966,869,41.0803,-5.63577
749,155,41.0082,6.11737,0.00421886,0.00104344,-0.00313414,0.00614451,-0.000882204,-0.550947,0.00441985,0.017805,1973,869,41.0082,-6.11734
756,155,41.0211,6.65778,0.00585551,0.000886451,-0.00370332,0.00783052,-0.00108856,-0.489937,0.00561846,0.0295604,1980,869,41.0211,-6.65777
763,155,41.2023,7.12549,0.00773967,0.0011969,-0.00391111,0.00956719,-0.00063061,-0.437116,0.00659838,0.046901,1987,869,41.2023,-7.12547
770,155,41.1779,7.47058,0,0,0,0,0,0,0,-1,1994,869,41.1779,-7.47056
777,155,41.2415,7.96692,0,0,0,0,0,0,0,-1,2001,869,41.2415,-7.96695
784,155,38.9619,9.88068,0,0,0,0,0,0,0,-1,2008,869,38.9619,-9.88066
791,155,0,0,0,0,0,0,0,0,0,-1,2015,869,0,0
798,155,0,0,0,0,0,0,0,0,0,-1,2022,869,0,0
805,155,0,0,0,0,0,0,0,0,0,-1,2029,869,0,0
812,155,0,0,0,0,0,0,0,0,0,-1,2036,869,0,0
-700,148,0,0,0,0,0,0,0,0,0,-1,524,876,0,0
-693,148,0,0,0,0,0,0,0,0,0,-1,531,876,0,0
-686,148,0,0,0,0,0,0,0,0,0,-1,538,876,0,0
-679,148,0,0,0,0,0,0,0,0,0,-1,545,876,0,0
-672,148,-32.5711,5.84479,0.0066036,0.0637266,-0.00588977,0.0643275,0.00600264,-1.46911,0.0410308,0.0463508,552,876,-32.5711,-5.8448
-665,148,-33.0404,7.24585,0.0148059,0.0595813,-0.00706982,0.0606711,0.0137162,-1.41786,0.036739,0.0465546,559,876,-33.0404,-7.24583
-658,148,-32.8415,6.6394,0.0190461,0.0536299,-0.00716815,0.0550567,0.0176192,-1.37431,0.0324662,0.048786,566,876,-32.8415,-6.63939
-651,148,-33.773,6.49512,0,0,0,0,0,0,0,-1,573,876,-33.773,-6.49509
-644,148,-32.8632,5.27728,0,0,0,0,0,0,0,-1,580,876,-32.8632,-5.2773
-637,148,-31.9534,4.05951,0,0,0,0,0,0,0,-1,587,876,-31.9534,-4.0595
-630,148,-30.1138,4.84906,0,0,0,0,0,0,0,-1,594,876,-30.1138,-4.84909
-623,148,-30.2606,4.13568,0.0157546,0.0187112,-0.00246872,0.0201104,0.0143554,-1.05517,0.0119594,0.0267981,601,876,-30.2606,-4.13569
-616,148,-30.3922,3.4834,0.0126579,0.01385,-0.00189352,0.015239,0.0112688,-0.937878,0.00912843,0.0139286,608,876,-30.3922,-3.48342
-609,148,-30.4802,2.94696,0.00871384,0.0072142,-0.000527506,0.0088808,0.00704724,-0.30654,0.00541385,0.0126877,615,876,-30.4801,-2.94698
-602,148,-30.515,2.4516,0.00458171,0.0032109,0.000706379,0.00488056,0.00291205,0.400234,0.00283529,0.0138488,622,876,-30.515,-2.45159
-595,148,-30.5215,1.95868,0.00216307,0.00145892,0.0010987,0.00296472,0.000657264,0.630344,0.0017979,0.0121846,629,876,-30.5216,-1.95869
-588,148,-30.5396,1.41534,0.00145511,0.000656896,0.00123086,0.00234996,-0.000237949,0.628621,0.00165168,0.0230553,636,876,-30.5396,-1.41532
-581,148,-30.6682,1.05634,0.00123112,0.000536371,0.00123229,0.00216407,-0.000396574,0.648017,0.00159146,0.0393953,643,876,-30.6682,-1.05636
-574,148,-30.3962,0.734741,0.000498903,0.000374588,0.00103946,0.00147806,-0.000604568,0.755535,0.00123716,0.0427267,650,876,-30.3962,-0.734759
-567,148,-30.0719,0.542847,0,0,0,0,0,0,0,-1,657,876,-30.0719,-0.542842
-560,148,-30.787,-0.45166,0,0,0,0,0,0,0,-1,664,876,-30.7871,0.451657
-553,148,-18.3896,-0.00280762,0,0,0,0,0,0,0,-1,671,876,-18.3897,0.00278524
-546,148,-36.8975,0.732239,0,0,0,0,0,0,0,-1,678,876,-36.8975,-0.732223
-539,148,-36.8317,0.797363,-4.58804e-05,-0.000274106,0.00137538,0.00122012,-0.0015401,0.744009,0.00159718,0.0388277,685,876,-36.8317,-0.797366
-532,148,-36.7885,0.896729,-2.72428e-05,-0.000195707,0.00143012,0.00132113,-0.00154408,0.755983,0.0016559,0.0367692,692,876,-36.7885,-0.896701
-525,148,-36.7963,0.920532,-0.00046412,-0.000182133,0.00165791,0.00134076,-0.00198702,0.827818,0.00193333,0.0371726,699,876,-36.7963,-0.920548
-518,148,-36.882,0.807922,-0.000923897,-0.000110964,0.00246973,0.00198552,-0.00302038,0.866957,0.00291067,0.0427658,706,876,-36.882,-0.807897
-511,148,-36.8867,0.852905,-0.000267938,2.0793e-05,0.00379646,0.00367563,-0.00392277,0.804402,0.00438771,0.043072,713,876,-36.8867,-0.852893
-504,148,-36.7407,1.08746,0.00232422,0.0014284,0.00613922,0.00803184,-0.00427923,0.748983,0.00721703,0.0437289,720,876,-36.7406,-1.08744
-497,148,0,0,0,0,0,0,0,0,0,-1,727,876,0,0
-490,148,0,0,0,0,0,0,0,0,0,-1,734,876,0,0
-483,148,0,0,0,0,0,0,0,0,0,-1,741,876,0,0
-476,148,0,0,0,0,0,0,0,0,0,-1,748,876,0,0
-469,148,0,0,0,0,0,0,0,0,0,-1,755,876,0,0
-462,148,0,0,0,0,0,0,0,0,0,-1,762,876,0,0
-455,148,0,0,0,0,0,0,0,0,0,-1,769,876,0,0
-448,148,0,0,0,0,0,0,0,0,0,-1,776,876,0,0
-441,148,0,0,0,0,0,0,0,0,0,-1,783,876,0,0
-434,148,0,0,0,0,0,0,0,0,0,-1,790,876,0,0
-427,148,0,0,0,0,0,0,0,0,0,-1,797,876,0,0
-420,148,0,0,0,0,0,0,0,0,0,-1,804,876,0,0
-413,148,0,0,0,0,0,0,0,0,0,-1,811,876,0,0
-406,148,0,0,0,0,0,0,0,0,0,-1,818,876,0,0
-399,148,0,0,0,0,0,0,0,0,0,-1,825,876,0,0
-392,148,0,0,0,0,0,0,0,0,0,-1,832,876,0,0
-385,148,0,0,0,0,0,0,0,0,0,-1,839,876,0,0
-378,148,0,0,0,0,0,0,0,0,0,-1,846,876,0,0
-371,148,0,0,0,0,0,0,0,0,0,-1,853,876,0,0
-364,148,0,0,0,0,0,0,0,0,0,-1,860,876,0,0
-357,148,0,0,0,0,0,0,0,0,0,-1,867,876,0,0
-350,148,0,0,0,0,0,0,0,0,0,-1,874,876,0,0
-343,148,0,0,0,0,0,0,0,0,0,-1,881,876,0,0
-336,148,0,0,0,0,0,0,0,0,0,-1,888,876,0,0
-329,148,0,0,0,0,0,0,0,0,0,-1,895,876,0,0
-322,148,0,0,0,0,0,0,0,0,0,-1,902,876,0,0
-315,148,0,0,0,0,0,0,0,0,0,-1,909,876,0,0
-308,148,0,0,0,0,0,0,0,0,0,-1,916,876,0,0
-301,148,0,0,0,0,0,0,0,0,0,-1,923,876,0,0
-294,148,0,0,0,0,0,0,0,0,0,-1,930,876,0,0
-287,148,0,0,0,0,0,0,0,0,0,-1,937,876,0,0
-280,148,0,0,0,0,0,0,0,0,0,-1,944,876,0,0
-273,148,0,0,0,0,0,0,0,0,0,-1,951,876,0,0
-266,148,0,0,0,0,0,0,0,0,0,-1,958,876,0,0
-259,148,0,0,0,0,0,0,0,0,0,-1,965,876,0,0
-252,148,0,0,0,0,0,0,0,0,0,-1,972,876,0,0
-245,148,0,0,0,0,0,0,0,0,0,-1,979,876,0,0
-238,148,0,0,0,0,0,0,0,0,0,-1,986,876,0,0
-231,148,0,0,0,0,0,0,0,0,0,-1,993,876,0,0
-224,148,0,0,0,0,0,0,0,0,0,-1,1000,876,0,0
-217,148,0,0,0,0,0,0,0,0,0,-1,1007,876,0,0
-210,148,0,0,0,0,0,0,0,0,0,-1,1014,876,0,0
-203,148,0,0,0,0,0,0,0,0,0,-1,1021,876,0,0
-196,148,0,0,0,0,0,0,0,0,0,-1,1028,876,0,0
-189,148,0,0,0,0,0,0,0,0,0,-1,1035,876,0,0
-182,148,0,0,0,0,0,0,0,0,0,-1,1042,876,0,0
-175,148,0,0,0,0,0,0,0,0,0,-1,1049,876,0,0
-168,148,0,0,0,0,0,0,0,0,0,-1,1056,876,0,0
-161,148,0,0,0,0,0,0,0,0,0,-1,1063,876,0,0
-154,148,0,0,0,0,0,0,0,0,0,-1,1070,876,0,0
-147,148,0,0,0,0,0,0,0,0,0,-1,1077,876,0,0
-140,148,0,0,0,0,0,0,0,0,0,-1,1084,876,0,0
-133,148,0,0,0,0,0,0,0,0,0,-1,1091,876,0,0
-126,148,0,0,0,0,0,0,0,0,0,-1,1098,876,0,0
-119,148,0,0,0,0,0,0,0,0,0,-1,1105,876,0,0
-112,148,0,0,0,0,0,0,0,0,0,-1,1112,876,0,0
-105,148,0,0,0,0,0,0,0,0,0,-1,1119,876,0,0
-98,148,0,0,0,0,0,0,0,0,0,-1,1126,876,0,0
-91,148,0,0,0,0,0,0,0,0,0,-1,1133,876,0,0
-84,148,0,0,0,0,0,0,0,0,0,-1,1140,876,0,0
-77,148,0,0,0,0,0,0,0,0,0,-1,1147,876,0,0
-70,148,0,0,0,0,0,0,0,0,0,-1,1154,876,0,0
-63,148,0,0,0,0,0,0,0,0,0,-1,1161,876,0,0
-56,148,0,0,0,0,0,0,0,0,0,-1,1168,876,0,0
-49,148,0,0,0,0,0,0,0,0,0,-1,1175,876,0,0
-42,148,0,0,0,0,0,0,0,0,0,-1,1182,876,0,0
-35,148,0,0,0,0,0,0,0,0,0,-1,1189,876,0,0
-28,148,0,0,0,0,0,0,0,0,0,-1,1196,876,0,0
-21,148,0,0,0,0,0,0,0,0,0,-1,1203,876,0,0
-14,148,0,0,0,0,0,0,0,0,0,-1,1210,876,0,0
-7,148,0,0,0,0,0,0,0,0,0,-1,1217,876,0,0
0,148,0,0,0,0,0,0,0,0,0,-1,1224,876,0,0
7,148,0,0,0,0,0,0,0,0,0,-1,1231,876,0,0
14,148,0,0,0,0,0,0,0,0,0,-1,1238,876,0,0
21,148,0,0,0,0,0,0,0,0,0,-1,1245,876,0,0
28,148,0,0,0,0,0,0,0,0,0,-1,1252,876,0,0
35,148,0,0,0,0,0,0,0,0,0,-1,1259,876,0,0
42,148,0,0,0,0,0,0,0,0,0,-1,1266,876,0,0
49,148,0,0,0,0,0,0,0,0,0,-1,1273,876,0,0
56,148,0,0,0,0,0,0,0,0,0,-1,1280,876,0,0
63,148,0,0,0,0,0,0,0,0,0,-1,1287,876,0,0
70,148,0,0,0,0,0,0,0,0,0,-1,1294,876,0,0
77,148,0,0,0,0,0,0,0,0,0,-1,1301,876,0,0
84,148,0,0,0,0,0,0,0,0,0,-1,1308,876,0,0
91,148,0,0,0,0,0,0,0,0,0,-1,1315,876,0,0
98,148,0,0,0,0,0,0,0,0,0,-1,1322,876,0,0
105,148,0,0,0,0,0,0,0,0,0,-1,1329,876,0,0
112,148,0,0,0,0,0,0,0,0,0,-1,1336,876,0,0
119,148,0,0,0,0,0,0,0,0,0,-1,1343,876,0,0
126,148,0,0,0,0,0,0,0,0,0,-1,1350,876,0,0
133,148,0,0,0,0,0,0,0,0,0,-1,1357,876,0,0
140,148,0,0,0,0,0,0,0,0,0,-1,1364,876,0,0
147,148,0,0,0,0,0,0,0,0,0,-1,1371,876,0,0
154,148,0,0,0,0,0,0,0,0,0,-1,1378,876,0,0
161,148,0,0,0,0,0,0,0,0,0,-1,1385,876,0,0
168,148,0,0,0,0,0,0,0,0,0,-1,1392,876,0,0
175,148,0,0,0,0,0,0,0,0,0,-1,1399,876,0,0
182,148,0,0,0,0,0,0,0,0,0,-1,1406,876,0,0
189,148,0,0,0,0,0,0,0,0,0,-1,1413,876,0,0
196,148,0,0,0,0,0,0,0,0,0,-1,1420,876,0,0
203,148,0,0,0,0,0,0,0,0,0,-1,1427,876,0,0
210,148,0,0,0,0,0,0,0,0,0,-1,1434,876,0,0
217,148,0,0,0,0,0,0,0,0,0,-1,1441,876,0,0
224,148,0,0,0,0,0,0,0,0,0,-1,1448,876,0,0
231,148,0,0,0,0,0,0,0,0,0,-1,1455,876,0,0
238,148,0,0,0,0,0,0,0,0,0,-1,1462,876,0,0
245,148,0,0,0,0,0,0,0,0,0,-1,1469,876,0,0
252,148,0,0,0,0,0,0,0,0,0,-1,1476,876,0,0
259,148,0,0,0,0,0,0,0,0,0,-1,1483,876,0,0
266,148,0,0,0,0,0,0,0,0,0,-1,1490,876,0,0
273,148,0,0,0,0,0,0,0,0,0,-1,1497,876,0,0
280,148,0,0,0,0,0,0,0,0,0,-1,1504,876,0,0
287,148,0,0,0,0,0,0,0,0,0,-1,1511,876,0,0
294,148,0,0,0,0,0,0,0,0,0,-1,1518,876,0,0
301,148,0,0,0,0,0,0,0,0,0,-1,1525,876,0,0
308,148,0,0,0,0,0,0,0,0,0,-1,1532,876,0,0
315,148,0,0,0,0,0,0,0,0,0,-1,1539,876,0,0
322,148,0,0,0,0,0,0,0,0,0,-1,1546,876,0,0
329,148,0,0,0,0,0,0,0,0,0,-1,1553,876,0,0
336,148,0,0,0,0,0,0,0,0,0,-1,1560,876,0,0
343,148,0,0,0,0,0,0,0,0,0,-1,1567,876,0,0
350,148,0,0,0,0,0,0,0,0,0,-1,1574,876,0,0
357,148,0,0,0,0,0,0,0,0,0,-1,1581,876,0,0
364,148,0,0,0,0,0,0,0,0,0,-1,1588,876,0,0
371,148,0,0,0,0,0,0,0,0,0,-1,1595,876,0,0
378,148,0,0,0,0,0,0,0,0,0,-1,1602,876,0,0
385,148,0,0,0,0,0,0,0,0,0,-1,1609,876,0,0
392,148,0,0,0,0,0,0,0,0,0,-1,1616,876,0,0
399,148,0,0,0,0,0,0,0,0,0,-1,1623,876,0,0
406,148,0,0,0,0,0,0,0,0,0,-1,1630,876,0,0
413,148,0,0,0,0,0,0,0,0,0,-1,1637,876,0,0
420,148,0,0,0,0,0,0,0,0,0,-1,1644,876,0,0
427,148,0,0,0,0,0,0,0,0,0,-1,1651,876,0,0
434,148,0,0,0,0,0,0,0,0,0,-1,1658,876,0,0
441,148,0,0,0,0,0,0,0,0,0,-1,1665,876,0,0
448,148,0,0,0,0,0,0,0,0,0,-1,1672,876,0,0
455,148,0,0,0,0,0,0,0,0,0,-1,1679,876,0,0
462,148,0,0,0,0,0,0,0,0,0,-1,1686,876,0,0
469,148,0,0,0,0,0,0,0,0,0,-1,1693,876,0,0
476,148,0,0,0,0,0,0,0,0,0,-1,1700,876,0,0
483,148,0,0,0,0,0,0,0,0,0,-1,1707,876,0,0
490,148,0,0,0,0,0,0,0,0,0,-1,1714,876,0,0
497,148,0,0,0,0,0,0,0,0,0,-1,1721,876,0,0
504,148,0,0,0,0,0,0,0,0,0,-1,1728,876,0,0
511,148,0,0,0,0,0,0,0,0,0,-1,1735,876,0,0
518,148,0,0,0,0,0,0,0,0,0,-1,1742,876,0,0
525,148,0,0,0,0,0,0,0,0,0,-1,1749,876,0,0
532,148,0,0,0,0,0,0,0,0,0,-1,1756,876,0,0
539,148,0,0,0,0,0,0,0,0,0,-1,1763,876,0,0
546,148,0,0,0,0,0,0,0,0,0,-1,1770,876,0,0
553,148,0,0,0,0,0,0,0,0,0,-1,1777,876,0,0
560,148,0,0,0,0,0,0,0,0,0,-1,1784,876,0,0
567,148,0,0,0,0,0,0,0,0,0,-1,1791,876,0,0
574,148,0,0,0,0,0,0,0,0,0,-1,1798,876,0,0
581,148,0,0,0,0,0,0,0,0,0,-1,1805,876,0,0
588,148,0,0,0,0,0,0,0,0,0,-1,1812,876,0,0
595,148,0,0,0,0,0,0,0,0,0,-1,1819,876,0,0
602,148,0,0,0,0,0,0,0,0,0,-1,1826,876,0,0
609,148,0,0,0,0,0,0,0,0,0,-1,1833,876,0,0
616,148,0,0,0,0,0,0,0,0,0,-1,1840,876,0,0
623,148,49.0801,2.53448,0.00343216,0.00167861,0.00455733,0.00719629,-0.00208551,0.690366,0.00562312,0.0436137,1847,876,49.08,-2.53445
630,148,49.0748,2.73962,0.00324755,0.0010586,0.00298988,0.00533698,-0.00103083,0.609943,0.00394673,0.0432685,1854,876,49.0748,-2.73963
637,148,49.035,2.85596,0.00291364,0.00080636,0.00188707,0.0040213,-0.000301292,0.530783,0.00278673,0.0393266,1861,876,49.035,-2.85596
644,148,49.1376,2.58368,0.00237012,0.0005656,0.00103957,0.00284437,9.13499e-05,0.427996,0.00186654,0.0372116,1868,876,49.1375,-2.58366
651,148,49.1978,2.43958,0.00176782,0.000327123,0.000472087,0.00190873,0.000186211,0.290067,0.00121518,0.0372901,1875,876,49.1977,-2.4396
658,148,49.0995,2.56915,0.00115876,0.000389564,0.000260843,0.00123887,0.000309453,0.297979,0.00074452,0.032845,1882,876,49.0995,-2.56917
665,148,49.0511,2.72131,0.000625028,0.00041851,-4.65769e-05,0.000635047,0.000408492,-0.211872,0.000371626,0.0247796,1889,876,49.0512,-2.72134
672,148,49.1096,2.6322,0.000260846,0.000345745,-0.000156886,0.000465823,0.000140768,-0.917522,0.000275869,0.0296834,1896,876,49.1097,-2.63222
679,148,48.9226,2.94421,0,0,0,0,0,0,0,-1,1903,876,48.9226,-2.94419
686,148,21.6195,2.40845,0,0,0,0,0,0,0,-1,1910,876,21.6196,-2.40846
693,148,42.1597,2.13025,0,0,0,0,0,0,0,-1,1917,876,42.1597,-2.13024
700,148,41.9156,2.67218,-0.000675974,0.000685033,-0.000415623,0.000801918,-0.000792859,-1.29665,0.00092075,0.0353893,1924,876,41.9156,-2.67219
707,148,42.0073,3.32043,-0.000540483,0.000672235,-0.000421368,0.000804268,-0.000672515,-1.26714,0.000853751,0.0284595,1931,876,42.0074,-3.32041
714,148,41.9875,3.68835,0,0,0,0,0,0,0,-1,1938,876,41.9876,-3.68833
721,148,41.6362,4.10681,-7.08301e-06,0.00114251,-0.00095519,0.00168252,-0.000547086,-1.05626,0.00134175,0.0216081,1945,876,41.6363,-4.10684
728,148,41.6191,4.61847,0.000347108,0.00135115,-0.00133716,0.00227742,-0.000579168,-0.964975,0.0017437,0.0205172,1952,876,41.6192,-4.61846
735,148,41.6326,5.14929,0.000867025,0.00146165,-0.0018412,0.00302939,-0.000700712,-0.865446,0.00228919,0.0207872,1959,876,41.6326,-5.14928
742,148,41.5848,5.64563,0.00154259,0.001642,-0.00238636,0.00397917,-0.000794583,-0.795811,0.00295349,0.0227547,1966,876,41.5848,-5.64563
749,148,41.5135,6.12128,0.00225731,0.00176751,-0.0029829,0.00500535,-0.000980526,-0.744439,0.00370722,0.0209627,1973,876,41.5135,-6.1213
756,148,41.4937,6.66058,0.00299075,0.00187705,-0.00358119,0.00605812,-0.00119033,-0.70827,0.00448845,0.0251792,1980,876,41.4936,-6.66061
763,148,41.4792,7.19879,0.00357073,0.00256956,-0.00386639,0.00696881,-0.000828512,-0.721021,0.00494523,0.0440396,1987,876,41.4792,-7.1988
770,148,41.4491,7.70135,0,0,0,0,0,0,0,-1,1994,876,41.4491,-7.70135
777,148,40.9963,7.77936,0,0,0,0,0,0,0,-1,2001,876,40.9963,-7.77936
784,148,40.4189,9.19659,0,0,0,0,0,0,0,-1,2008,876,40.4189,-9.19662
791,148,40.6108,9.98114,0,0,0,0,0,0,0,-1,2015,876,40.6108,-9.98111
798,148,0,0,0,0,0,0,0,0,0,-1,2022,876,0,0
805,148,0,0,0,0,0,0,0,0,0,-1,2029,876,0,0
812,148,0,0,0,0,0,0,0,0,0,-1,2036,876,0,0
-700,141,0,0,0,0,0,0,0,0,0,-1,524,883,0,0
-693,141,0,0,0,0,0,0,0,0,0,-1,531,883,0,0
-686,141,0,0,0,0,0,0,0,0,0,-1,538,883,0,0
-679,141,0,0,0,0,0,0,0,0,0,-1,545,883,0,0
-672,141,-32.6808,6.22559,0.00586249,0.0532968,-0.00705404,0.0543236,0.0048357,-1.42625,0.0347163,0.0457535,552,883,-32.6808,-6.22556
-665,141,-32.7592,6.39966,0.0120122,0.0511073,-0.00753584,0.0525096,0.0106099,-1.38682,0.0320604,0.047089,559,883,-32.7592,-6.39964
-658,141,-32.7452,6.06702,0,0,0,0,0,0,0,-1,566,883,-32.7452,-6.06702
-651,141,-31.8463,5.62921,0,0,0,0,0,0,0,-1,573,883,-31.8463,-5.62923
-644,141,-33.9797,4.16364,0,0,0,0,0,0,0,-1,580,883,-33.9797,-4.16365
-637,141,-30.8117,5.19464,0,0,0,0,0,0,0,-1,587,883,-30.8117,-5.19465
-630,141,-30.8378,4.74146,0,0,0,0,0,0,0,-1,594,883,-30.8378,-4.74143
-623,141,-30.7145,4.01324,0.0124515,0.0164159,-0.00202661,0.0172685,0.0115989,-1.17256,0.010164,0.0299668,601,883,-30.7145,-4.01325
-616,141,-30.9134,3.41455,0.00980352,0.0120168,-0.00140867,0.0127016,0.00911881,-1.11835,0.00756187,0.0138276,608,883,-30.9134,-3.41453
-609,141,-30.9951,2.9397,0.00635948,0.00585629,-0.000124032,0.0063884,0.00582738,-0.229007,0.00408479,0.0139377,615,883,-30.9951,-2.9397
-602,141,-31.0002,2.46558,0.00276216,0.00235748,0.000925021,0.00350672,0.00161293,0.677724,0.00202677,0.01364,622,883,-31.0002,-2.46559
-595,141,-30.9921,1.96478,0.000832673,0.000931319,0.00112407,0.00200714,-0.000243153,0.807324,0.00142607,0.0140166,629,883,-30.9922,-1.96476
-588,141,-31.2951,1.4826,0.000423048,0.000281759,0.00109267,0.00144735,-0.000742548,0.753116,0.00128598,0.0277613,636,883,-31.2951,-1.48259
-581,141,-31.2106,1.06647,0.000206794,0.000197188,0.00106538,0.00126738,-0.000863398,0.783144,0.00123755,0.0383385,643,883,-31.2106,-1.06646
-574,141,-30.4761,0.851685,0,0,0,0,0,0,0,-1,650,883,-30.4762,-0.851667
-567,141,-30.5335,0.480103,0,0,0,0,0,0,0,-1,657,883,-30.5335,-0.480081
-560,141,-30.5542,0.23175,0,0,0,0,0,0,0,-1,664,883,-30.5542,-0.231742
-553,141,-32.0876,1.39459,0,0,0,0,0,0,0,-1,671,883,-32.0876,-1.3946
-546,141,-36.8243,0.834778,0,0,0,0,0,0,0,-1,678,883,-36.8243,-0.834751
-539,141,-36.7981,0.831482,-0.000894064,-0.000591752,0.00133841,0.000604007,-0.00208982,0.841629,0.00163224,0.0296791,685,883,-36.7981,-0.831493
-532,141,-36.7684,0.840332,-0.000900522,-0.000534629,0.00152352,0.000816887,-0.00225204,0.845153,0.00183529,0.0289624,692,883,-36.7685,-0.840326
-525,141,-36.7734,0.760498,-0.00153618,-0.000565818,0.00202242,0.0010288,-0.0031308,0.903124,0.00250167,0.0378198,699,883,-36.7734,-0.760509
-518,141,-36.8072,0.791138,-0.00228366,-0.000631951,0.00327628,0.00192096,-0.00483656,0.908861,0.00402068,0.0441563,706,883,-36.8072,-0.791136
-511,141,-36.8702,0.913574,0,0,0,0,0,0,0,-1,713,883,-36.8702,-0.913588
-504,141,-36.8972,1.34393,0,0,0,0,0,0,0,-1,720,883,-36.8971,-1.34395
-497,141,0,0,0,0,0,0,0,0,0,-1,727,883,0,0
-490,141,0,0,0,0,0,0,0,0,0,-1,734,883,0,0
-483,141,0,0,0,0,0,0,0,0,0,-1,741,883,0,0
-476,141,0,0,0,0,0,0,0,0,0,-1,748,883,0,0
-469,141,0,0,0,0,0,0,0,0,0,-1,755,883,0,0
-462,141,0,0,0,0,0,0,0,0,0,-1,762,883,0,0
-455,141,0,0,0,0,0,0,0,0,0,-1,769,883,0,0
-448,141,0,0,0,0,0,0,0,0,0,-1,776,883,0,0
-441,141,0,0,0,0,0,0,0,0,0,-1,783,883,0,0
-434,141,0,0,0,0,0,0,0,0,0,-1,790,883,0,0
-427,141,0,0,0,0,0,0,0,0,0,-1,797,883,0,0
-420,141,0,0,0,0,0,0,0,0,0,-1,804,883,0,0
-413,141,0,0,0,0,0,0,0,0,0,-1,811,883,0,0
-406,141,0,0,0,0,0,0,0,0,0,-1,818,883,0,0
-399,141,0,0,0,0,0,0,0,0,0,-1,825,883,0,0
-392,141,0,0,0,0,0,0,0,0,0,-1,832,883,0,0
-385,141,0,0,0,0,0,0,0,0,0,-1,839,883,0,0
-378,141,0,0,0,0,0,0,0,0,0,-1,846,883,0,0
-371,141,0,0,0,0,0,0,0,0,0,-1,853,883,0,0
-364,141,0,0,0,0,0,0,0,0,0,-1,860,883,0,0
-357,141,0,0,0,0,0,0,0,0,0,-1,867,883,0,0
-350,141,0,0,0,0,0,0,0,0,0,-1,874,883,0,0
-343,141,0,0,0,0,0,0,0,0,0,-1,881,883,0,0
-336,141,0,0,0,0,0,0,0,0,0,-1,888,883,0,0
-329,141,0,0,0,0,0,0,0,0,0,-1,895,883,0,0
-322,141,0,0,0,0,0,0,0,0,0,-1,902,883,0,0
-315,141,0,0,0,0,0,0,0,0,0,-1,909,883,0,0
-308,141,0,0,0,0,0,0,0,0,0,-1,916,883,0,0
-301,141,0,0,0,0,0,0,0,0,0,-1,923,883,0,0
-294,141,0,0,0,0,0,0,0,0,0,-1,930,883,0,0
-287,141,0,0,0,0,0,0,0,0,0,-1,937,883,0,0
-280,141,0,0,0,0,0,0,0,0,0,-1,944,883,0,0
-273,141,0,0,0,0,0,0,0,0,0,-1,951,883,0,0
-266,141,0,0,0,0,0,0,0,0,0,-1,958,883,0,0
-259,141,0,0,0,0,0,0,0,0,0,-1,965,883,0,0
-252,141,0,0,0,0,0,0,0,0,0,-1,972,883,0,0
-245,141,0,0,0,0,0,0,0,0,0,-1,979,883,0,0
-238,141,0,0,0,0,0,0,0,0,0,-1,986,883,0,0
-231,141,0,0,0,0,0,0,0,0,0,-1,993,883,0,0
-224,141,0,0,0,0,0,0,0,0,0,-1,1000,883,0,0
-217,141,0,0,0,0,0,0,0,0,0,-1,1007,883,0,0
-210,141,0,0,0,0,0,0,0,0,0,-1,1014,883,0,0
-203,141,0,0,0,0,0,0,0,0,0,-1,1021,883,0,0
-196,141,0,0,0,0,0,0,0,0,0,-1,1028,883,0,0
-189,141,0,0,0,0,0,0,0,0,0,-1,1035,883,0,0
-182,141,0,0,0,0,0,0,0,0,0,-1,1042,883,0,0
-175,141,0,0,0,0,0,0,0,0,0,-1,1049,883,0,0
-168,141,0,0,0,0,0,0,0,0,0,-1,1056,883,0,0
-161,141,0,0,0,0,0,0,0,0,0,-1,1063,883,0,0
-154,141,0,0,0,0,0,0,0,0,0,-1,1070,883,0,0
-147,141,0,0,0,0,0,0,0,0,0,-1,1077,883,0,0
-140,141,0,0,0,0,0,0,0,0,0,-1,1084,883,0,0
-133,141,0,0,0,0,0,0,0,0,0,-1,1091,883,0,0
-126,141,0,0,0,0,0,0,0,0,0,-1,1098,883,0,0
-119,141,0,0,0,0,0,0,0,0,0,-1,1105,883,0,0
-112,141,0,0,0,0,0,0,0,0,0,-1,1112,883,0,0
-105,141,0,0,0,0,0,0,0,0,0,-1,1119,883,0,0
-98,141,0,0,0,0,0,0,0,0,0,-1,1126,883,0,0
-91,141,0,0,0,0,0,0,0,0,0,-1,1133,883,0,0
-84,141,0,0,0,0,0,0,0,0,0,-1,1140,883,0,0
-77,141,0,0,0,0,0,0,0,0,0,-1,1147,883,0,0
-70,141,0,0,0,0,0,0,0,0,0,-1,1154,883,0,0
-63,141,0,0,0,0,0,0,0,0,0,-1,1161,883,0,0
-56,141,0,0,0,0,0,0,0,0,0,-1,1168,883,0,0
-49,141,0,0,0,0,0,0,0,0,0,-1,1175,883,0,0
-42,141,0,0,0,0,0,0,0,0,0,-1,1182,883,0,0
-35,141,0,0,0,0,0,0,0,0,0,-1,1189,883,0,0
-28,141,0,0,0,0,0,0,0,0,0,-1,1196,883,0,0
-21,141,0,0,0,0,0,0,0,0,0,-1,1203,883,0,0
-14,141,0,0,0,0,0,0,0,0,0,-1,1210,883,0,0
-7,141,0,0,0,0,0,0,0,0,0,-1,1217,883,0,0
0,141,0,0,0,0,0,0,0,0,0,-1,1224,883,0,0
7,141,0,0,0,0,0,0,0,0,0,-1,1231,883,0,0
14,141,0,0,0,0,0,0,0,0,0,-1,1238,883,0,0
21,141,0,0,0,0,0,0,0,0,0,-1,1245,883,0,0
28,141,0,0,0,0,0,0,0,0,0,-1,1252,883,0,0
35,141,0,0,0,0,0,0,0,0,0,-1,1259,883,0,0
42,141,0,0,0,0,0,0,0,0,0,-1,1266,883,0,0
49,141,0,0,0,0,0,0,0,0,0,-1,1273,883,0,0
56,141,0,0,0,0,0,0,0,0,0,-1,1280,883,0,0
63,141,0,0,0,0,0,0,0,0,0,-1,1287,883,0,0
70,141,0,0,0,0,0,0,0,0,0,-1,1294,883,0,0
77,141,0,0,0,0,0,0,0,0,0,-1,1301,883,0,0
84,141,0,0,0,0,0,0,0,0,0,-1,1308,883,0,0
91,141,0,0,0,0,0,0,0,0,0,-1,1315,883,0,0
98,141,0,0,0,0,0,0,0,0,0,-1,1322,883,0,0
105,141,0,0,0,0,0,0,0,0,0,-1,1329,883,0,0
112,141,0,0,0,0,0,0,0,0,0,-1,1336,883,0,0
119,141,0,0,0,0,0,0,0,0,0,-1,1343,883,0,0
126,141,0,0,0,0,0,0,0,0,0,-1,1350,883,0,0
133,141,0,0,0,0,0,0,0,0,0,-1,1357,883,0,0
140,141,0,0,0,0,0,0,0,0,0,-1,1364,883,0,0
147,141,0,0,0,0,0,0,0,0,0,-1,1371,883,0,0
154,141,0,0,0,0,0,0,0,0,0,-1,1378,883,0,0
161,141,0,0,0,0,0,0,0,0,0,-1,1385,883,0,0
168,141,0,0,0,0,0,0,0,0,0,-1,1392,883,0,0
175,141,0,0,0,0,0,0,0,0,0,-1,1399,883,0,0
182,141,0,0,0,0,0,0,0,0,0,-1,1406,883,0,0
189,141,0,0,0,0,0,0,0,0,0,-1,1413,883,0,0
196,141,0,0,0,0,0,0,0,0,0,-1,1420,883,0,0
203,141,0,0,0,0,0,0,0,0,0,-1,1427,883,0,0
210,141,0,0,0,0,0,0,0,0,0,-1,1434,883,0,0
217,141,0,0,0,0,0,0,0,0,0,-1,1441,883,0,0
224,141,0,0,0,0,0,0,0,0,0,-1,1448,883,0,0
231,141,0,0,0,0,0,0,0,0,0,-1,1455,883,0,0
238,141,0,0,0,0,0,0,0,0,0,-1,1462,883,0,0
245,141,0,0,0,0,0,0,0,0,0,-1,1469,883,0,0
252,141,0,0,0,0,0,0,0,0,0,-1,1476,883,0,0
259,141,0,0,0,0,0,0,0,0,0,-1,1483,883,0,0
266,141,0,0,0,0,0,0,0,0,0,-1,1490,883,0,0
273,141,0,0,0,0,0,0,0,0,0,-1,1497,883,0,0
280,141,0,0,0,0,0,0,0,0,0,-1,1504,883,0,0
287,141,0,0,0,0,0,0,0,0,0,-1,1511,883,0,0
294,141,0,0,0,0,0,0,0,0,0,-1,1518,883,0,0
301,141,0,0,0,0,0,0,0,0,0,-1,1525,883,0,0
308,141,0,0,0,0,0,0,0,0,0,-1,1532,883,0,0
315,141,0,0,0,0,0,0,0,0,0,-1,1539,883,0,0
322,141,0,0,0,0,0,0,0,0,0,-1,1546,883,0,0
329,141,0,0,0,0,0,0,0,0,0,-1,1553,883,0,0
336,141,0,0,0,0,0,0,0,0,0,-1,1560,883,0,0
343,141,0,0,0,0,0,0,0,0,0,-1,1567,883,0,0
350,141,0,0,0,0,0,0,0,0,0,-1,1574,883,0,0
357,141,0,0,0,0,0,0,0,0,0,-1,1581,883,0,0
364,141,0,0,0,0,0,0,0,0,0,-1,1588,883,0,0
371,141,0,0,0,0,0,0,0,0,0,-1,1595,883,0,0
378,141,0,0,0,0,0,0,0,0,0,-1,1602,883,0,0
385,141,0,0,0,0,0,0,0,0,0,-1,1609,883,0,0
392,141,0,0,0,0,0,0,0,0,0,-1,1616,883,0,0
399,141,0,0,0,0,0,0,0,0,0,-1,1623,883,0,0
406,141,0,0,0,0,0,0,0,0,0,-1,1630,883,0,0
413,141,0,0,0,0,0,0,0,0,0,-1,1637,883,0,0
420,141,0,0,0,0,0,0,0,0,0,-1,1644,883,0,0
427,141,0,0,0,0,0,0,0,0,0,-1,1651,883,0,0
434,141,0,0,0,0,0,0,0,0,0,-1,1658,883,0,0
441,141,0,0,0,0,0,0,0,0,0,-1,1665,883,0,0
448,141,0,0,0,0,0,0,0,0,0,-1,1672,883,0,0
455,141,0,0,0,0,0,0,0,0,0,-1,1679,883,0,0
462,141,0,0,0,0,0,0,0,0,0,-1,1686,883,0,0
469,141,0,0,0,0,0,0,0,0,0,-1,1693,883,0,0
476,141,0,0,0,0,0,0,0,0,0,-1,1700,883,0,0
483,141,0,0,0,0,0,0,0,0,0,-1,1707,883,0,0
490,141,0,0,0,0,0,0,0,0,0,-1,1714,883,0,0
497,141,0,0,0,0,0,0,0,0,0,-1,1721,883,0,0
504,141,0,0,0,0,0,0,0,0,0,-1,1728,883,0,0
511,141,0,0,0,0,0,0,0,0,0,-1,1735,883,0,0
518,141,0,0,0,0,0,0,0,0,0,-1,1742,883,0,0
525,141,0,0,0,0,0,0,0,0,0,-1,1749,883,0,0
532,141,0,0,0,0,0,0,0,0,0,-1,1756,883,0,0
539,141,0,0,0,0,0,0,0,0,0,-1,1763,883,0,0
546,141,0,0,0,0,0,0,0,0,0,-1,1770,883,0,0
553,141,0,0,0,0,0,0,0,0,0,-1,1777,883,0,0
560,141,0,0,0,0,0,0,0,0,0,-1,1784,883,0,0
567,141,0,0,0,0,0,0,0,0,0,-1,1791,883,0,0
574,141,0,0,0,0,0,0,0,0,0,-1,1798,883,0,0
581,141,0,0,0,0,0,0,0,0,0,-1,1805,883,0,0
588,141,0,0,0,0,0,0,0,0,0,-1,1812,883,0,0
595,141,0,0,0,0,0,0,0,0,0,-1,1819,883,0,0
602,141,0,0,0,0,0,0,0,0,0,-1,1826,883,0,0
609,141,0,0,0,0,0,0,0,0,0,-1,1833,883,0,0
616,141,0,0,0,0,0,0,0,0,0,-1,1840,883,0,0
623,141,49.0063,2.33459,0.00327282,0.00205859,0.00430655,0.00701483,-0.00168342,0.715372,0.00532711,0.0451152,1847,883,49.0063,-2.3346
630,141,49.1167,2.67603,0.00315472,0.00125839,0.00274248,0.00510831,-0.000695203,0.618964,0.00365936,0.04651,1854,883,49.1167,-2.67605
637,141,48.9343,2.86218,0.00285934,0.000889248,0.00170534,0.00384369,-9.50983e-05,0.523496,0.00259474,0.044747,1861,883,48.9343,-2.86221
644,141,49.1068,2.52216,0.0023849,0.000562409,0.000948142,0.0027887,0.000158609,0.40262,0.00180858,0.0407035,1868,883,49.1068,-2.52214
651,141,49.2513,2.53027,0.00181742,0.000285985,0.000457166,0.00194351,0.000159893,0.269121,0.0012458,0.0378348,1875,883,49.2514,-2.53025
658,141,49.1646,2.62537,0.00122573,0.000365792,0.000344295,0.00134659,0.000244933,0.337597,0.000828244,0.0366077,1882,883,49.1645,-2.62538
665,141,49.0354,2.69928,0.000744099,0.000418208,0.000152634,0.000804421,0.000357886,0.376367,0.000465372,0.0284745,1889,883,49.0354,-2.69929
672,141,49.0795,2.69226,0.000441882,0.000374769,0.000114689,0.000527823,0.000288828,0.643077,0.000305191,0.0204955,1896,883,49.0795,-2.69225
679,141,49.0427,2.76849,0.000291649,0.000408097,-1.4545e-05,0.000409886,0.00028986,-1.4484,0.000243325,0.0401039,1903,883,49.0427,-2.76851
686,141,48.9537,2.89386,0,0,0,0,0,0,0,-1,1910,883,48.9537,-2.89386
693,141,42.1379,1.90649,0,0,0,0,0,0,0,-1,1917,883,42.1379,-1.90648
700,141,42.4158,2.65454,-0.00043641,0.000714905,-8.89032e-05,0.000721729,-0.000443235,-1.49418,0.000678968,0.033621,1924,883,42.4158,-2.65456
707,141,42.351,3.28186,-0.000330998,0.000742856,-0.000103999,0.000752835,-0.000340977,-1.47513,0.000646263,0.0287768,1931,883,42.351,-3.28187
714,141,42.116,3.6355,-0.000184736,0.00105726,-0.000317356,0.00113365,-0.000261128,-1.33458,0.00085619,0.0271503,1938,883,42.1159,-3.63552
721,141,42.0887,4.09686,-1.39981e-05,0.00128448,-0.000700973,0.00159069,-0.000320204,-1.15895,0.00118174,0.015549,1945,883,42.0888,-4.09684
728,141,42.1481,4.56152,4.73772e-06,0.00151741,-0.00110879,0.00210326,-0.000581109,-1.08471,0.00163076,0.0158487,1952,883,42.1481,-4.56151
735,141,42.1482,5.14838,4.09272e-05,0.00169418,-0.00167136,0.00273216,-0.00099705,-1.01505,0.00222939,0.018324,1959,883,42.1482,-5.14836
742,141,42.0869,5.65613,0.000132236,0.00200346,-0.00228162,0.00353385,-0.00139815,-0.979975,0.00293513,0.0197561,1966,883,42.0869,-5.65616
749,141,42.0796,6.11005,0.000182183,0.00230234,-0.00295606,0.00438265,-0.00189813,-0.957562,0.00371958,0.0153722,1973,883,42.0795,-6.11002
756,141,42.0695,6.64911,7.41715e-05,0.00266553,-0.00364716,0.00524032,-0.00250062,-0.956073,0.00456158,0.0212411,1980,883,42.0694,-6.64914
763,141,42.0394,7.09814,-0.000400841,0.0036579,-0.00409012,0.00619443,-0.00293737,-1.01569,0.00538287,0.042702,1987,883,42.0394,-7.09816
770,141,42.0016,7.52368,0,0,0,0,0,0,0,-1,1994,883,42.0016,-7.52365
777,141,41.9054,7.27954,0,0,0,0,0,0,0,-1,2001,883,41.9054,-7.27954
784,141,42.7319,7.87225,0,0,0,0,0,0,0,-1,2008,883,42.7319,-7.87224
791,141,42.5815,7.74707,0,0,0,0,0,0,0,-1,2015,883,42.5815,-7.74706
798,141,0,0,0,0,0,0,0,0,0,-1,2022,883,0,0
805,141,0,0,0,0,0,0,0,0,0,-1,2029,883,0,0
812,141,0,0,0,0,0,0,0,0,0,-1,2036,883,0,0
-700,134,0,0,0,0,0,0,0,0,0,-1,524,890,0,0
-693,134,0,0,0,0,0,0,0,0,0,-1,531,890,0,0
-686,134,0,0,0,0,0,0,0,0,0,-1,538,890,0,0
-679,134,0,0,0,0,0,0,0,0,0,-1,545,890,0,0
-672,134,-32.6097,6.05707,0.00467446,0.0456434,-0.00819375,0.0472214,0.0030965,-1.38054,0.0305012,0.0484236,552,890,-32.6097,-6.0571
-665,134,-32.6754,5.7088,0.0091631,0.0443664,-0.00800614,0.0461017,0.00742784,-1.35736,0.0285821,0.0491225,559,890,-32.6754,-5.70882
-658,134,-32.8779,5.24426,0,0,0,0,0,0,0,-1,566,890,-32.8779,-5.24428
-651,134,-33.2084,4.8457,0,0,0,0,0,0,0,-1,573,890,-33.2085,-4.84571
-644,134,-33.7982,4.32037,0,0,0,0,0,0,0,-1,580,890,-33.7982,-4.32037
-637,134,-28.7275,0.339355,0,0,0,0,0,0,0,-1,587,890,-28.7275,-0.339377
-630,134,-31.0852,4.2345,0,0,0,0,0,0,0,-1,594,890,-31.0852,-4.23449
-623,134,-31.2468,3.85358,0.00895462,0.0140535,-0.0013864,0.014406,0.00860203,-1.32176,0.00836946,0.0280252,601,890,-31.2468,-3.85361
-616,134,-31.447,3.39606,0.00672423,0.0101016,-0.0007562,0.0102632,0.00656265,-1.36029,0.00600179,0.0133733,608,890,-31.4469,-3.39608
-609,134,-31.5134,2.94147,0.00379921,0.00452993,0.000387638,0.00469725,0.00363189,1.16331,0.0028437,0.0113197,615,890,-31.5133,-2.94148
-602,134,-31.5004,2.46637,0.000821469,0.00160856,0.00119861,0.00247657,-4.65495e-05,0.94402,0.00166678,0.0114906,622,890,-31.5005,-2.46635
-595,134,-31.4427,2.05591,-0.000643726,0.000514272,0.00121139,0.00127792,-0.00140738,1.00833,0.00155096,0.0205952,629,890,-31.4427,-2.0559
-588,134,-31.8768,1.66705,-0.000864787,-3.3346e-05,0.00105276,0.000682805,-0.00158094,0.973443,0.00134082,0.0352536,636,890,-31.8768,-1.66708
-581,134,-31.971,1.23175,0,0,0,0,0,0,0,-1,643,890,-31.971,-1.23174
-574,134,-31.1517,0.757751,0,0,0,0,0,0,0,-1,650,890,-31.1517,-0.757758
-567,134,-30.9003,0.296326,0,0,0,0,0,0,0,-1,657,890,-30.9002,-0.296302
-560,134,-22.9123,0.106567,0,0,0,0,0,0,0,-1,664,890,-22.9123,-0.106594
-553,134,-36.7628,0.791626,0,0,0,0,0,0,0,-1,671,890,-36.7628,-0.791605
-546,134,-36.7876,0.800049,-0.00225764,-0.000881462,0.00102852,-0.000332082,-0.00280702,1.08021,0.00177106,0.0312725,678,890,-36.7876,-0.800031
-539,134,-36.7917,0.816345,-0.00234105,-0.000746485,0.00113355,-0.000157915,-0.00292962,1.09188,0.00190262,0.0186263,685,890,-36.7917,-0.816319
-532,134,-36.8109,0.754395,-0.00251325,-0.00067108,0.0013814,6.81558e-05,-0.00325249,1.07944,0.0021914,0.0225164,692,890,-36.8108,-0.754369
-525,134,-36.8925,0.737061,-0.00343418,-0.000721682,0.00205278,0.000382421,-0.00453828,1.07732,0.00316072,0.0331386,699,890,-36.8925,-0.73707
-518,134,-36.9609,0.77594,-0.00459923,-0.000907742,0.00346199,0.0011698,-0.00667677,1.0303,0.004888,0.0422832,706,890,-36.9609,-0.775917
-511,134,-37.0191,1.19263,-0.00481859,-0.000920524,0.00560571,0.00306532,-0.00880443,0.952705,0.00711501,0.0457275,713,890,-37.0191,-1.19261
-504,134,0,0,0,0,0,0,0,0,0,-1,720,890,0,0
-497,134,0,0,0,0,0,0,0,0,0,-1,727,890,0,0
-490,134,0,0,0,0,0,0,0,0,0,-1,734,890,0,0
-483,134,0,0,0,0,0,0,0,0,0,-1,741,890,0,0
-476,134,0,0,0,0,0,0,0,0,0,-1,748,890,0,0
-469,134,0,0,0,0,0,0,0,0,0,-1,755,890,0,0
-462,134,0,0,0,0,0,0,0,0,0,-1,762,890,0,0
-455,134,0,0,0,0,0,0,0,0,0,-1,769,890,0,0
-448,134,0,0,0,0,0,0,0,0,0,-1,776,890,0,0
-441,134,0,0,0,0,0,0,0,0,0,-1,783,890,0,0
-434,134,0,0,0,0,0,0,0,0,0,-1,790,890,0,0
-427,134,0,0,0,0,0,0,0,0,0,-1,797,890,0,0
-420,134,0,0,0,0,0,0,0,0,0,-1,804,890,0,0
-413,134,0,0,0,0,0,0,0,0,0,-1,811,890,0,0
-406,134,0,0,0,0,0,0,0,0,0,-1,818,890,0,0
-399,134,0,0,0,0,0,0,0,0,0,-1,825,890,0,0
-392,134,0,0,0,0,0,0,0,0,0,-1,832,890,0,0
-385,134,0,0,0,0,0,0,0,0,0,-1,839,890,0,0
-378,134,0,0,0,0,0,0,0,0,0,-1,846,890,0,0
-371,134,0,0,0,0,0,0,0,0,0,-1,853,890,0,0
-364,134,0,0,0,0,0,0,0,0,0,-1,860,890,0,0
-357,134,0,0,0,0,0,0,0,0,0,-1,867,890,0,0
-350,134,0,0,0,0,0,0,0,0,0,-1,874,890,0,0
-343,134,0,0,0,0,0,0,0,0,0,-1,881,890,0,0
-336,134,0,0,0,0,0,0,0,0,0,-1,888,890,0,0
-329,134,0,0,0,0,0,0,0,0,0,-1,895,890,0,0
-322,134,0,0,0,0,0,0,0,0,0,-1,902,890,0,0
-315,134,0,0,0,0,0,0,0,0,0,-1,909,890,0,0
-308,134,0,0,0,0,0,0,0,0,0,-1,916,890,0,0
-301,134,0,0,0,0,0,0,0,0,0,-1,923,890,0,0
-294,134,0,0,0,0,0,0,0,0,0,-1,930,890,0,0
-287,134,0,0,0,0,0,0,0,0,0,-1,937,890,0,0
-280,134,0,0,0,0,0,0,0,0,0,-1,944,890,0,0
-273,134,0,0,0,0,0,0,0,0,0,-1,951,890,0,0
-266,134,0,0,0,0,0,0,0,0,0,-1,958,890,0,0
-259,134,0,0,0,0,0,0,0,0,0,-1,965,890,0,0
-252,134,0,0,0,0,0,0,0,0,0,-1,972,890,0,0
-245,134,0,0,0,0,0,0,0,0,0,-1,979,890,0,0
-238,134,0,0,0,0,0,0,0,0,0,-1,986,890,0,0
-231,134,0,0,0,0,0,0,0,0,0,-1,993,890,0,0
-224,134,0,0,0,0,0,0,0,0,0,-1,1000,890,0,0
-217,134,0,0,0,0,0,0,0,0,0,-1,1007,890,0,0
-210,134,0,0,0,0,0,0,0,0,0,-1,1014,890,0,0
-203,134,0,0,0,0,0,0,0,0,0,-1,1021,890,0,0
-196,134,0,0,0,0,0,0,0,0,0,-1,1028,890,0,0
-189,134,0,0,0,0,0,0,0,0,0,-1,1035,890,0,0
-182,134,0,0,0,0,0,0,0,0,0,-1,1042,890,0,0
-175,134,0,0,0,0,0,0,0,0,0,-1,1049,890,0,0
-168,134,0,0,0,0,0,0,0,0,0,-1,1056,890,0,0
-161,134,0,0,0,0,0,0,0,0,0,-1,1063,890,0,0
-154,134,0,0,0,0,0,0,0,0,0,-1,1070,890,0,0
-147,134,0,0,0,0,0,0,0,0,0,-1,1077,890,0,0
-140,134,0,0,0,0,0,0,0,0,0,-1,1084,890,0,0
-133,134,0,0,0,0,0,0,0,0,0,-1,1091,890,0,0
-126,134,0,0,0,0,0,0,0,0,0,-1,1098,890,0,0
-119,134,0,0,0,0,0,0,0,0,0,-1,1105,890,0,0
-112,134,0,0,0,0,0,0,0,0,0,-1,1112,890,0,0
-105,134,0,0,0,0,0,0,0,0,0,-1,1119,890,0,0
-98,134,0,0,0,0,0,0,0,0,0,-1,1126,890,0,0
-91,134,0,0,0,0,0,0,0,0,0,-1,1133,890,0,0
-84,134,0,0,0,0,0,0,0,0,0,-1,1140,890,0,0
-77,134,0,0,0,0,0,0,0,0,0,-1,1147,890,0,0
-70,134,0,0,0,0,0,0,0,0,0,-1,1154,890,0,0
-63,134,0,0,0,0,0,0,0,0,0,-1,1161,890,0,0
-56,134,0,0,0,0,0,0,0,0,0,-1,1168,890,0,0
-49,134,0,0,0,0,0,0,0,0,0,-1,1175,890,0,0
-42,134,0,0,0,0,0,0,0,0,0,-1,1182,890,0,0
-35,134,0,0,0,0,0,0,0,0,0,-1,1189,890,0,0
-28,134,0,0,0,0,0,0,0,0,0,-1,1196,890,0,0
-21,134,0,0,0,0,0,0,0,0,0,-1,1203,890,0,0
-14,134,0,0,0,0,0,0,0,0,0,-1,1210,890,0,0
-7,134,0,0,0,0,0,0,0,0,0,-1,1217,890,0,0
0,134,0,0,0,0,0,0,0,0,0,-1,1224,890,0,0
7,134,0,0,0,0,0,0,0,0,0,-1,1231,890,0,0
14,134,0,0,0,0,0,0,0,0,0,-1,1238,890,0,0
21,134,0,0,0,0,0,0,0,0,0,-1,1245,890,0,0
28,134,0,0,0,0,0,0,0,0,0,-1,1252,890,0,0
35,134,0,0,0,0,0,0,0,0,0,-1,1259,890,0,0
42,134,0,0,0,0,0,0,0,0,0,-1,1266,890,0,0
49,134,0,0,0,0,0,0,0,0,0,-1,1273,890,0,0
56,134,0,0,0,0,0,0,0,0,0,-1,1280,890,0,0
63,134,0,0,0,0,0,0,0,0,0,-1,1287,890,0,0
70,134,0,0,0,0,0,0,0,0,0,-1,1294,890,0,0
77,134,0,0,0,0,0,0,0,0,0,-1,1301,890,0,0
84,134,0,0,0,0,0,0,0,0,0,-1,1308,890,0,0
91,134,0,0,0,0,0,0,0,0,0,-1,1315,890,0,0
98,134,0,0,0,0,0,0,0,0,0,-1,1322,890,0,0
105,134,0,0,0,0,0,0,0,0,0,-1,1329,890,0,0
112,134,0,0,0,0,0,0,0,0,0,-1,1336,890,0,0
119,134,0,0,0,0,0,0,0,0,0,-1,1343,890,0,0
126,134,0,0,0,0,0,0,0,0,0,-1,1350,890,0,0
133,134,0,0,0,0,0,0,0,0,0,-1,1357,890,0,0
140,134,0,0,0,0,0,0,0,0,0,-1,1364,890,0,0
147,134,0,0,0,0,0,0,0,0,0,-1,1371,890,0,0
154,134,0,0,0,0,0,0,0,0,0,-1,1378,890,0,0
161,134,0,0,0,0,0,0,0,0,0,-1,1385,890,0,0
168,134,0,0,0,0,0,0,0,0,0,-1,1392,890,0,0
175,134,0,0,0,0,0,0,0,0,0,-1,1399,890,0,0
182,134,0,0,0,0,0,0,0,0,0,-1,1406,890,0,0
189,134,0,0,0,0,0,0,0,0,0,-1,1413,890,0,0
196,134,0,0,0,0,0,0,0,0,0,-1,1420,890,0,0
203,134,0,0,0,0,0,0,0,0,0,-1,1427,890,0,0
210,134,0,0,0,0,0,0,0,0,0,-1,1434,890,0,0
217,134,0,0,0,0,0,0,0,0,0,-1,1441,890,0,0
224,134,0,0,0,0,0,0,0,0,0,-1,1448,890,0,0
231,134,0,0,0,0,0,0,0,0,0,-1,1455,890,0,0
238,134,0,0,0,0,0,0,0,0,0,-1,1462,890,0,0
245,134,0,0,0,0,0,0,0,0,0,-1,1469,890,0,0
252,134,0,0,0,0,0,0,0,0,0,-1,1476,890,0,0
259,134,0,0,0,0,0,0,0,0,0,-1,1483,890,0,0
266,134,0,0,0,0,0,0,0,0,0,-1,1490,890,0,0
273,134,0,0,0,0,0,0,0,0,0,-1,1497,890,0,0
280,134,0,0,0,0,0,0,0,0,0,-1,1504,890,0,0
287,134,0,0,0,0,0,0,0,0,0,-1,1511,890,0,0
294,134,0,0,0,0,0,0,0,0,0,-1,1518,890,0,0
301,134,0,0,0,0,0,0,0,0,0,-1,1525,890,0,0
308,134,0,0,0,0,0,0,0,0,0,-1,1532,890,0,0
315,134,0,0,0,0,0,0,0,0,0,-1,1539,890,0,0
322,134,0,0,0,0,0,0,0,0,0,-1,1546,890,0,0
329,134,0,0,0,0,0,0,0,0,0,-1,1553,890,0,0
336,134,0,0,0,0,0,0,0,0,0,-1,1560,890,0,0
343,134,0,0,0,0,0,0,0,0,0,-1,1567,890,0,0
350,134,0,0,0,0,0,0,0,0,0,-1,1574,890,0,0
357,134,0,0,0,0,0,0,0,0,0,-1,1581,890,0,0
364,134,0,0,0,0,0,0,0,0,0,-1,1588,890,0,0
371,134,0,0,0,0,0,0,0,0,0,-1,1595,890,0,0
378,134,0,0,0,0,0,0,0,0,0,-1,1602,890,0,0
385,134,0,0,0,0,0,0,0,0,0,-1,1609,890,0,0
392,134,0,0,0,0,0,0,0,0,0,-1,1616,890,0,0
399,134,0,0,0,0,0,0,0,0,0,-1,1623,890,0,0
406,134,0,0,0,0,0,0,0,0,0,-1,1630,890,0,0
413,134,0,0,0,0,0,0,0,0,0,-1,1637,890,0,0
420,134,0,0,0,0,0,0,0,0,0,-1,1644,890,0,0
427,134,0,0,0,0,0,0,0,0,0,-1,1651,890,0,0
434,134,0,0,0,0,0,0,0,0,0,-1,1658,890,0,0
441,134,0,0,0,0,0,0,0,0,0,-1,1665,890,0,0
448,134,0,0,0,0,0,0,0,0,0,-1,1672,890,0,0
455,134,0,0,0,0,0,0,0,0,0,-1,1679,890,0,0
462,134,0,0,0,0,0,0,0,0,0,-1,1686,890,0,0
469,134,0,0,0,0,0,0,0,0,0,-1,1693,890,0,0
476,134,0,0,0,0,0,0,0,0,0,-1,1700,890,0,0
483,134,0,0,0,0,0,0,0,0,0,-1,1707,890,0,0
490,134,0,0,0,0,0,0,0,0,0,-1,1714,890,0,0
497,134,0,0,0,0,0,0,0,0,0,-1,1721,890,0,0
504,134,0,0,0,0,0,0,0,0,0,-1,1728,890,0,0
511,134,0,0,0,0,0,0,0,0,0,-1,1735,890,0,0
518,134,0,0,0,0,0,0,0,0,0,-1,1742,890,0,0
525,134,0,0,0,0,0,0,0,0,0,-1,1749,890,0,0
532,134,0,0,0,0,0,0,0,0,0,-1,1756,890,0,0
539,134,0,0,0,0,0,0,0,0,0,-1,1763,890,0,0
546,134,0,0,0,0,0,0,0,0,0,-1,1770,890,0,0
553,134,0,0,0,0,0,0,0,0,0,-1,1777,890,0,0
560,134,0,0,0,0,0,0,0,0,0,-1,1784,890,0,0
567,134,0,0,0,0,0,0,0,0,0,-1,1791,890,0,0
574,134,0,0,0,0,0,0,0,0,0,-1,1798,890,0,0
581,134,0,0,0,0,0,0,0,0,0,-1,1805,890,0,0
588,134,0,0,0,0,0,0,0,0,0,-1,1812,890,0,0
595,134,0,0,0,0,0,0,0,0,0,-1,1819,890,0,0
602,134,0,0,0,0,0,0,0,0,0,-1,1826,890,0,0
609,134,0,0,0,0,0,0,0,0,0,-1,1833,890,0,0
616,134,0,0,0,0,0,0,0,0,0,-1,1840,890,0,0
623,134,49.1216,2.58929,0.00284399,0.00352638,0.00398884,0.00718859,-0.000818213,0.828063,0.00508711,0.0453061,1847,890,49.1216,-2.5893
630,134,48.9539,2.82587,0.00286237,0.00245362,0.00232158,0.00498856,0.000327437,0.741495,0.00322211,0.0470182,1854,890,48.9539,-2.8259
637,134,48.8501,3.00018,0.00265998,0.00185811,0.00126378,0.0035849,0.000933195,0.631795,0.00214755,0.0470038,1861,890,48.8501,-3.00017
644,134,48.9717,2.97552,0.002278,0.00130545,0.000576532,0.00254595,0.00103751,0.435059,0.00147826,0.0413565,1868,890,48.9716,-2.97549
651,134,49.1215,2.72992,0.00179074,0.000850191,0.000180159,0.00182407,0.000816863,0.182923,0.00105504,0.0401734,1875,890,49.1215,-2.72993
658,134,49.125,2.63208,0.00125656,0.00081109,0.000177663,0.00131873,0.000748912,0.336653,0.000763708,0.0393606,1882,890,49.125,-2.6321
665,134,49.0909,2.55341,0.000848026,0.000799174,0.000129721,0.0009556,0.000691599,0.69234,0.00056983,0.0338641,1889,890,49.091,-2.55341
672,134,49.1201,2.57733,0.000610488,0.000715388,0.00020447,0.000874028,0.000451848,0.910949,0.000504717,0.022179,1896,890,49.1201,-2.57732
679,134,49.1063,2.60968,0.000497271,0.000717492,0.000147059,0.000791095,0.000423668,1.10675,0.000457123,0.019425,1903,890,49.1063,-2.60968
686,134,49.0869,2.66962,0,0,0,0,0,0,0,-1,1910,890,49.0869,-2.66961
693,134,34.5778,2.48096,0,0,0,0,0,0,0,-1,1917,890,34.5777,-2.48099
700,134,42.6227,2.44257,0,0,0,0,0,0,0,-1,1924,890,42.6227,-2.44255
707,134,42.4459,2.86243,-0.000164492,0.000925973,0.000115416,0.000938055,-0.000176574,1.4665,0.000691781,0.0239799,1931,890,42.4459,-2.86243
714,134,42.4723,3.42645,-6.24757e-05,0.00119089,-8.58883e-05,0.00119675,-6.83339e-05,-1.50269,0.000821561,0.0242254,1938,890,42.4723,-3.42644
721,134,42.6439,4.04303,-4.00948e-05,0.00136713,-0.000452828,0.00150026,-0.000173216,-1.28487,0.00106263,0.0201906,1945,890,42.6439,-4.04302
728,134,42.7095,4.53784,-0.000309325,0.00159394,-0.000884759,0.00194169,-0.000657079,-1.1963,0.00156031,0.0182137,1952,890,42.7094,-4.53785
735,134,42.6746,5.12976,-0.000689537,0.00185273,-0.00150964,0.00255512,-0.00139192,-1.13532,0.00231158,0.0252843,1959,890,42.6745,-5.12976
742,134,42.6207,5.65271,-0.00115325,0.00232073,-0.00219863,0.00338572,-0.00221824,-1.11971,0.00325877,0.0171902,1966,890,42.6207,-5.65273
749,134,42.6256,6.10071,-0.00176096,0.00284922,-0.00296397,0.00429893,-0.00321068,-1.1159,0.00435082,0.0130612,1973,890,42.6256,-6.10073
756,134,42.5839,6.59894,-0.00261637,0.00353117,-0.00376393,0.00531695,-0.00440215,-1.1278,0.0056196,0.017234,1980,890,42.5839,-6.59897
763,134,42.5957,7.07001,-0.00396179,0.00484416,-0.0043873,0.00665685,-0.00577448,-1.17899,0.00718326,0.037422,1987,890,42.5956,-7.06999
770,134,42.6022,7.53027,0,0,0,0,0,0,0,-1,1994,890,42.6022,-7.5303
777,134,43.6969,5.94574,0,0,0,0,0,0,0,-1,2001,890,43.697,-5.94577
784,134,42.3352,7.4964,0,0,0,0,0,0,0,-1,2008,890,42.3352,-7.49641
791,134,42.2061,9.63593,0,0,0,0,0,0,0,-1,2015,890,42.2061,-9.63591
798,134,0,0,0,0,0,0,0,0,0,-1,2022,890,0,0
805,134,0,0,0,0,0,0,0,0,0,-1,2029,890,0,0
812,134,0,0,0,0,0,0,0,0,0,-1,2036,890,0,0
-700,127,0,0,0,0,0,0,0,0,0,-1,524,897,0,0
-693,127,0,0,0,0,0,0,0,0,0,-1,531,897,0,0
-686,127,0,0,0,0,0,0,0,0,0,-1,538,897,0,0
-679,127,-32.9905,6.52698,-0.00399206,0.0355976,-0.00849513,0.0373435,-0.00573794,-1.3681,0.0270122,0.0489516,545,897,-32.9905,-6.527
-672,127,-32.7798,5.96802,0.00240051,0.0385211,-0.00846799,0.0404078,0.000513844,-1.35158,0.0267689,0.0497695,552,897,-32.7798,-5.96803
-665,127,-32.7227,5.36584,0,0,0,0,0,0,0,-1,559,897,-32.7227,-5.36586
-658,127,-33.3229,4.29913,0,0,0,0,0,0,0,-1,566,897,-33.3229,-4.29914
-651,127,-34.5706,4.06219,0,0,0,0,0,0,0,-1,573,897,-34.5706,-4.06219
-644,127,-33.8521,1.84509,0,0,0,0,0,0,0,-1,580,897,-33.8521,-1.84508
-637,127,-32.7339,4.1062,0,0,0,0,0,0,0,-1,587,897,-32.7339,-4.10623
-630,127,-31.868,3.64758,0.00760297,0.0155789,-0.00197745,0.0160423,0.00713962,-1.34063,0.00928063,0.0490493,594,897,-31.8681,-3.64757
-623,127,-31.872,3.78082,0.00589445,0.0114228,-0.000753564,0.0115237,0.00579357,-1.43772,0.00665323,0.016976,601,897,-31.872,-3.7808
-616,127,-31.9569,3.38898,0.00411193,0.00806072,-0.000119388,0.00806433,0.00410833,-1.5406,0.00465622,0.0105256,608,897,-31.9569,-3.389
-609,127,-31.9762,2.93604,0.0017356,0.00334186,0.00084402,0.0037038,0.00137366,1.16569,0.00216203,0.013046,615,897,-31.9762,-2.93601
-602,127,-31.9583,2.4978,-0.000605659,0.0010955,0.00140696,0.00188901,-0.00139916,1.05728,0.00190544,0.0145928,622,897,-31.9582,-2.49779
-595,127,-31.9396,2.10669,-0.00165865,0.000318222,0.00129904,0.000962123,-0.00230255,1.11062,0.00193709,0.0258032,629,897,-31.9396,-2.1067
-588,127,-32.0568,1.57703,-0.00174104,-0.000111569,0.00106185,0.000412102,-0.00226471,1.11263,0.00166427,0.0338038,636,897,-32.0568,-1.57703
-581,127,-31.8527,1.03375,0,0,0,0,0,0,0,-1,643,897,-31.8527,-1.03376
-574,127,-25.2603,0.511169,0,0,0,0,0,0,0,-1,650,897,-25.2603,-0.51117
-567,127,-24.5417,-0.0447388,0,0,0,0,0,0,0,-1,657,897,-24.5417,0.0447226
-560,127,-18.9678,1.21667,0,0,0,0,0,0,0,-1,664,897,-18.9677,-1.2167
-553,127,-36.783,0.704041,0,0,0,0,0,0,0,-1,671,897,-36.783,-0.704014
-546,127,-36.7731,0.747803,-0.00327863,-0.00087277,0.000936846,-0.000550996,-0.0036004,1.23996,0.00223931,0.0227032,678,897,-36.7731,-0.747792
-539,127,-36.7616,0.796814,-0.00344678,-0.000785802,0.00103164,-0.000432699,-0.00379988,1.24102,0.00240205,0.0212731,685,897,-36.7616,-0.7968
-532,127,-36.7614,0.825745,-0.00378487,-0.000753888,0.00133374,-0.000250574,-0.00428819,1.20995,0.00277904,0.0178859,692,897,-36.7614,-0.825725
-525,127,-36.8472,0.951965,-0.00498864,-0.000932991,0.00206303,-6.80378e-05,-0.0058536,1.17379,0.00387992,0.0324567,699,897,-36.8472,-0.951936
-518,127,-36.9688,1.04938,-0.00670806,-0.00136429,0.00326546,0.000183084,-0.00825544,1.12828,0.00556566,0.0435468,706,897,-36.9688,-1.04937
-511,127,-37.0305,1.15381,-0.00771853,-0.00154897,0.00494683,0.00119609,-0.0104636,1.06419,0.00740668,0.0464063,713,897,-37.0305,-1.15383
-504,127,0,0,0,0,0,0,0,0,0,-1,720,897,0,0
-497,127,0,0,0,0,0,0,0,0,0,-1,727,897,0,0
-490,127,0,0,0,0,0,0,0,0,0,-1,734,897,0,0
-483,127,0,0,0,0,0,0,0,0,0,-1,741,897,0,0
-476,127,0,0,0,0,0,0,0,0,0,-1,748,897,0,0
-469,127,0,0,0,0,0,0,0,0,0,-1,755,897,0,0
-462,127,0,0,0,0,0,0,0,0,0,-1,762,897,0,0
-455,127,0,0,0,0,0,0,0,0,0,-1,769,897,0,0
-448,127,0,0,0,0,0,0,0,0,0,-1,776,897,0,0
-441,127,0,0,0,0,0,0,0,0,0,-1,783,897,0,0
-434,127,0,0,0,0,0,0,0,0,0,-1,790,897,0,0
-427,127,0,0,0,0,0,0,0,0,0,-1,797,897,0,0
-420,127,0,0,0,0,0,0,0,0,0,-1,804,897,0,0
-413,127,0,0,0,0,0,0,0,0,0,-1,811,897,0,0
-406,127,0,0,0,0,0,0,0,0,0,-1,818,897,0,0
-399,127,0,0,0,0,0,0,0,0,0,-1,825,897,0,0
-392,127,0,0,0,0,0,0,0,0,0,-1,832,897,0,0
-385,127,0,0,0,0,0,0,0,0,0,-1,839,897,0,0
-378,127,0,0,0,0,0,0,0,0,0,-1,846,897,0,0
-371,127,0,0,0,0,0,0,0,0,0,-1,853,897,0,0
-364,127,0,0,0,0,0,0,0,0,0,-1,860,897,0,0
-357,127,0,0,0,0,0,0,0,0,0,-1,867,897,0,0
-350,127,0,0,0,0,0,0,0,0,0,-1,874,897,0,0
-343,127,0,0,0,0,0,0,0,0,0,-1,881,897,0,0
-336,127,0,0,0,0,0,0,0,0,0,-1,888,897,0,0
-329,127,0,0,0,0,0,0,0,0,0,-1,895,897,0,0
-322,127,0,0,0,0,0,0,0,0,0,-1,902,897,0,0
-315,127,0,0,0,0,0,0,0,0,0,-1,909,897,0,0
-308,127,0,0,0,0,0,0,0,0,0,-1,916,897,0,0
-301,127,0,0,0,0,0,0,0,0,0,-1,923,897,0,0
-294,127,0,0,0,0,0,0,0,0,0,-1,930,897,0,0
-287,127,0,0,0,0,0,0,0,0,0,-1,937,897,0,0
-280,127,0,0,0,0,0,0,0,0,0,-1,944,897,0,0
-273,127,0,0,0,0,0,0,0,0,0,-1,951,897,0,0
-266,127,0,0,0,0,0,0,0,0,0,-1,958,897,0,0
-259,127,0,0,0,0,0,0,0,0,0,-1,965,897,0,0
-252,127,0,0,0,0,0,0,0,0,0,-1,972,897,0,0
-245,127,0,0,0,0,0,0,0,0,0,-1,979,897,0,0
-238,127,0,0,0,0,0,0,0,0,0,-1,986,897,0,0
-231,127,0,0,0,0,0,0,0,0,0,-1,993,897,0,0
-224,127,0,0,0,0,0,0,0,0,0,-1,1000,897,0,0
-217,127,0,0,0,0,0,0,0,0,0,-1,1007,897,0,0
-210,127,0,0,0,0,0,0,0,0,0,-1,1014,897,0,0
-203,127,0,0,0,0,0,0,0,0,0,-1,1021,897,0,0
-196,127,0,0,0,0,0,0,0,0,0,-1,1028,897,0,0
-189,127,0,0,0,0,0,0,0,0,0,-1,1035,897,0,0
-182,127,0,0,0,0,0,0,0,0,0,-1,1042,897,0,0
-175,127,0,0,0,0,0,0,0,0,0,-1,1049,897,0,0
-168,127,0,0,0,0,0,0,0,0,0,-1,1056,897,0,0
-161,127,0,0,0,0,0,0,0,0,0,-1,1063,897,0,0
-154,127,0,0,0,0,0,0,0,0,0,-1,1070,897,0,0
-147,127,0,0,0,0,0,0,0,0,0,-1,1077,897,0,0
-140,127,0,0,0,0,0,0,0,0,0,-1,1084,897,0,0
-133,127,0,0,0,0,0,0,0,0,0,-1,1091,897,0,0
-126,127,0,0,0,0,0,0,0,0,0,-1,1098,897,0,0
-119,127,0,0,0,0,0,0,0,0,0,-1,1105,897,0,0
-112,127,0,0,0,0,0,0,0,0,0,-1,1112,897,0,0
-105,127,0,0,0,0,0,0,0,0,0,-1,1119,897,0,0
-98,127,0,0,0,0,0,0,0,0,0,-1,1126,897,0,0
-91,127,0,0,0,0,0,0,0,0,0,-1,1133,897,0,0
-84,127,0,0,0,0,0,0,0,0,0,-1,1140,897,0,0
-77,127,0,0,0,0,0,0,0,0,0,-1,1147,897,0,0
-70,127,0,0,0,0,0,0,0,0,0,-1,1154,897,0,0
-63,127,0,0,0,0,0,0,0,0,0,-1,1161,897,0,0
-56,127,0,0,0,0,0,0,0,0,0,-1,1168,897,0,0
-49,127,0,0,0,0,0,0,0,0,0,-1,1175,897,0,0
-42,127,0,0,0,0,0,0,0,0,0,-1,1182,897,0,0
-35,127,0,0,0,0,0,0,0,0,0,-1,1189,897,0,0
-28,127,0,0,0,0,0,0,0,0,0,-1,1196,897,0,0
-21,127,0,0,0,0,0,0,0,0,0,-1,1203,897,0,0
-14,127,0,0,0,0,0,0,0,0,0,-1,1210,897,0,0
-7,127,0,0,0,0,0,0,0,0,0,-1,1217,897,0,0
0,127,0,0,0,0,0,0,0,0,0,-1,1224,897,0,0
7,127,0,0,0,0,0,0,0,0,0,-1,1231,897,0,0
14,127,0,0,0,0,0,0,0,0,0,-1,1238,897,0,0
21,127,0,0,0,0,0,0,0,0,0,-1,1245,897,0,0
28,127,0,0,0,0,0,0,0,0,0,-1,1252,897,0,0
35,127,0,0,0,0,0,0,0,0,0,-1,1259,897,0,0
42,127,0,0,0,0,0,0,0,0,0,-1,1266,897,0,0
49,127,0,0,0,0,0,0,0,0,0,-1,1273,897,0,0
56,127,0,0,0,0,0,0,0,0,0,-1,1280,897,0,0
63,127,0,0,0,0,0,0,0,0,0,-1,1287,897,0,0
70,127,0,0,0,0,0,0,0,0,0,-1,1294,897,0,0
77,127,0,0,0,0,0,0,0,0,0,-1,1301,897,0,0
84,127,0,0,0,0,0,0,0,0,0,-1,1308,897,0,0
91,127,0,0,0,0,0,0,0,0,0,-1,1315,897,0,0
98,127,0,0,0,0,0,0,0,0,0,-1,1322,897,0,0
105,127,0,0,0,0,0,0,0,0,0,-1,1329,897,0,0
112,127,0,0,0,0,0,0,0,0,0,-1,1336,897,0,0
119,127,0,0,0,0,0,0,0,0,0,-1,1343,897,0,0
126,127,0,0,0,0,0,0,0,0,0,-1,1350,897,0,0
133,127,0,0,0,0,0,0,0,0,0,-1,1357,897,0,0
140,127,0,0,0,0,0,0,0,0,0,-1,1364,897,0,0
147,127,0,0,0,0,0,0,0,0,0,-1,1371,897,0,0
154,127,0,0,0,0,0,0,0,0,0,-1,1378,897,0,0
161,127,0,0,0,0,0,0,0,0,0,-1,1385,897,0,0
168,127,0,0,0,0,0,0,0,0,0,-1,1392,897,0,0
175,127,0,0,0,0,0,0,0,0,0,-1,1399,897,0,0
182,127,0,0,0,0,0,0,0,0,0,-1,1406,897,0,0
189,127,0,0,0,0,0,0,0,0,0,-1,1413,897,0,0
196,127,0,0,0,0,0,0,0,0,0,-1,1420,897,0,0
203,127,0,0,0,0,0,0,0,0,0,-1,1427,897,0,0
210,127,0,0,0,0,0,0,0,0,0,-1,1434,897,0,0
217,127,0,0,0,0,0,0,0,0,0,-1,1441,897,0,0
224,127,0,0,0,0,0,0,0,0,0,-1,1448,897,0,0
231,127,0,0,0,0,0,0,0,0,0,-1,1455,897,0,0
238,127,0,0,0,0,0,0,0,0,0,-1,1462,897,0,0
245,127,0,0,0,0,0,0,0,0,0,-1,1469,897,0,0
252,127,0,0,0,0,0,0,0,0,0,-1,1476,897,0,0
259,127,0,0,0,0,0,0,0,0,0,-1,1483,897,0,0
266,127,0,0,0,0,0,0,0,0,0,-1,1490,897,0,0
273,127,0,0,0,0,0,0,0,0,0,-1,1497,897,0,0
280,127,0,0,0,0,0,0,0,0,0,-1,1504,897,0,0
287,127,0,0,0,0,0,0,0,0,0,-1,1511,897,0,0
294,127,0,0,0,0,0,0,0,0,0,-1,1518,897,0,0
301,127,0,0,0,0,0,0,0,0,0,-1,1525,897,0,0
308,127,0,0,0,0,0,0,0,0,0,-1,1532,897,0,0
315,127,0,0,0,0,0,0,0,0,0,-1,1539,897,0,0
322,127,0,0,0,0,0,0,0,0,0,-1,1546,897,0,0
329,127,0,0,0,0,0,0,0,0,0,-1,1553,897,0,0
336,127,0,0,0,0,0,0,0,0,0,-1,1560,897,0,0
343,127,0,0,0,0,0,0,0,0,0,-1,1567,897,0,0
350,127,0,0,0,0,0,0,0,0,0,-1,1574,897,0,0
357,127,0,0,0,0,0,0,0,0,0,-1,1581,897,0,0
364,127,0,0,0,0,0,0,0,0,0,-1,1588,897,0,0
371,127,0,0,0,0,0,0,0,0,0,-1,1595,897,0,0
378,127,0,0,0,0,0,0,0,0,0,-1,1602,897,0,0
385,127,0,0,0,0,0,0,0,0,0,-1,1609,897,0,0
392,127,0,0,0,0,0,0,0,0,0,-1,1616,897,0,0
399,127,0,0,0,0,0,0,0,0,0,-1,1623,897,0,0
406,127,0,0,0,0,0,0,0,0,0,-1,1630,897,0,0
413,127,0,0,0,0,0,0,0,0,0,-1,1637,897,0,0
420,127,0,0,0,0,0,0,0,0,0,-1,1644,897,0,0
427,127,0,0,0,0,0,0,0,0,0,-1,1651,897,0,0
434,127,0,0,0,0,0,0,0,0,0,-1,1658,897,0,0
441,127,0,0,0,0,0,0,0,0,0,-1,1665,897,0,0
448,127,0,0,0,0,0,0,0,0,0,-1,1672,897,0,0
455,127,0,0,0,0,0,0,0,0,0,-1,1679,897,0,0
462,127,0,0,0,0,0,0,0,0,0,-1,1686,897,0,0
469,127,0,0,0,0,0,0,0,0,0,-1,1693,897,0,0
476,127,0,0,0,0,0,0,0,0,0,-1,1700,897,0,0
483,127,0,0,0,0,0,0,0,0,0,-1,1707,897,0,0
490,127,0,0,0,0,0,0,0,0,0,-1,1714,897,0,0
497,127,0,0,0,0,0,0,0,0,0,-1,1721,897,0,0
504,127,0,0,0,0,0,0,0,0,0,-1,1728,897,0,0
511,127,0,0,0,0,0,0,0,0,0,-1,1735,897,0,0
518,127,0,0,0,0,0,0,0,0,0,-1,1742,897,0,0
525,127,0,0,0,0,0,0,0,0,0,-1,1749,897,0,0
532,127,0,0,0,0,0,0,0,0,0,-1,1756,897,0,0
539,127,0,0,0,0,0,0,0,0,0,-1,1763,897,0,0
546,127,0,0,0,0,0,0,0,0,0,-1,1770,897,0,0
553,127,0,0,0,0,0,0,0,0,0,-1,1777,897,0,0
560,127,0,0,0,0,0,0,0,0,0,-1,1784,897,0,0
567,127,0,0,0,0,0,0,0,0,0,-1,1791,897,0,0
574,127,0,0,0,0,0,0,0,0,0,-1,1798,897,0,0
581,127,0,0,0,0,0,0,0,0,0,-1,1805,897,0,0
588,127,0,0,0,0,0,0,0,0,0,-1,1812,897,0,0
595,127,0,0,0,0,0,0,0,0,0,-1,1819,897,0,0
602,127,0,0,0,0,0,0,0,0,0,-1,1826,897,0,0
609,127,0,0,0,0,0,0,0,0,0,-1,1833,897,0,0
616,127,0,0,0,0,0,0,0,0,0,-1,1840,897,0,0
623,127,0,0,0,0,0,0,0,0,0,-1,1847,897,0,0
630,127,48.7673,2.95087,0.00239823,0.0034724,0.00171003,0.0047277,0.00114293,0.93756,0.00284832,0.0425652,1854,897,48.7673,-2.95086
637,127,48.8727,2.86566,0.00218569,0.00268523,0.000722826,0.00320022,0.0016707,0.951748,0.00184825,0.0409726,1861,897,48.8727,-2.86566
644,127,48.9921,2.87439,0.00186158,0.00193721,0.000180034,0.00208336,0.00171543,0.888922,0.00128396,0.0389186,1868,897,48.9921,-2.87437
651,127,49.0071,2.75122,0.00148115,0.00132022,-7.39998e-05,0.00151,0.00129137,-0.371787,0.000942282,0.0391526,1875,897,49.007,-2.75121
658,127,49.0802,2.61664,0.00106882,0.00113645,4.45653e-05,0.00115858,0.0010467,1.10993,0.000737924,0.0400058,1882,897,49.0803,-2.61663
665,127,49.1307,2.5011,0.000781985,0.00105867,0.000150346,0.00112464,0.000716018,1.15732,0.000657345,0.0379802,1889,897,49.1308,-2.50109
672,127,49.0948,2.51886,0.000660414,0.000939319,0.000327333,0.00115567,0.000444066,0.986768,0.000673158,0.0323483,1896,897,49.0949,-2.51885
679,127,49.1005,2.55365,0.000626484,0.000908593,0.000336809,0.00113269,0.000402385,0.983701,0.000663032,0.023688,1903,897,49.1005,-2.55365
686,127,49.0948,2.57611,0.000548413,0.000860551,0.000302142,0.00104455,0.000364412,1.02379,0.000612187,0.0454978,1910,897,49.0949,-2.5761
693,127,49.0399,2.57178,0,0,0,0,0,0,0,-1,1917,897,49.0399,-2.57178
700,127,42.6012,2.54633,0,0,0,0,0,0,0,-1,1924,897,42.6012,-2.54633
707,127,42.7668,2.73572,0,0,0,0,0,0,0,-1,1931,897,42.7669,-2.73569
714,127,43.0986,3.45844,0.000120721,0.00126572,8.25051e-05,0.00127164,0.000114806,1.49923,0.0008122,0.0229924,1938,897,43.0987,-3.45841
721,127,43.2885,4.1601,4.6803e-05,0.00141185,-0.00027663,0.00146578,-7.12625e-06,-1.37826,0.000979567,0.0189699,1945,897,43.2884,-4.16008
728,127,43.2296,4.60889,-0.000386266,0.00165682,-0.000742511,0.00189816,-0.000627605,-1.25654,0.00151851,0.0171325,1952,897,43.2296,-4.6089
735,127,43.2025,5.14642,-0.00104029,0.00200673,-0.00141535,0.00256272,-0.00159628,-1.19649,0.00242271,0.0199677,1959,897,43.2025,-5.14645
742,127,43.1702,5.66162,-0.00189515,0.00263437,-0.00215278,0.00349429,-0.00275507,-1.19077,0.00361647,0.017847,1966,897,43.1702,-5.66164
749,127,43.1268,6.09637,-0.002963,0.00340534,-0.0029752,0.004579,-0.00413667,-1.19505,0.00503416,0.0133683,1973,897,43.1269,-6.09637
756,127,43.0581,6.55231,-0.00430039,0.00440355,-0.00385084,0.00586266,-0.00575949,-1.20861,0.00671014,0.0154753,1980,897,43.0582,-6.55233
763,127,43.0007,7.00446,-0.00613266,0.00595145,-0.00461654,0.00751327,-0.00769448,-1.24457,0.0087804,0.0246868,1987,897,43.0008,-7.00446
770,127,42.9998,7.44025,0,0,0,0,0,0,0,-1,1994,897,42.9997,-7.44025
777,127,42.703,5.33789,0,0,0,0,0,0,0,-1,2001,897,42.7031,-5.33791
784,127,42.6145,8.47131,0,0,0,0,0,0,0,-1,2008,897,42.6146,-8.47131
791,127,42.5813,5.51636,0,0,0,0,0,0,0,-1,2015,897,42.5813,-5.51633
798,127,0,0,0,0,0,0,0,0,0,-1,2022,897,0,0
805,127,0,0,0,0,0,0,0,0,0,-1,2029,897,0,0
812,127,0,0,0,0,0,0,0,0,0,-1,2036,897,0,0
-700,120,0,0,0,0,0,0,0,0,0,-1,524,904,0,0
-693,120,0,0,0,0,0,0,0,0,0,-1,531,904,0,0
-686,120,0,0,0,0,0,0,0,0,0,-1,538,904,0,0
-679,120,-33.2949,6.58264,-0.00625889,0.0299354,-0.00787982,0.0315765,-0.00789999,-1.36547,0.0241195,0.046985,545,904,-33.2949,-6.58264
-672,120,-33.1821,6.05933,-0.00209899,0.032132,-0.00798456,0.0339028,-0.00386982,-1.35255,0.0239961,0.0419439,552,904,-33.182,-6.05934
-665,120,-33.222,5.37469,0,0,0,0,0,0,0,-1,559,904,-33.2221,-5.37468
-658,120,-33.2454,4.70874,0,0,0,0,0,0,0,-1,566,904,-33.2454,-4.70875
-651,120,-33.7668,3.00983,0,0,0,0,0,0,0,-1,573,904,-33.7668,-3.00981
-644,120,-34.2678,3.68311,0,0,0,0,0,0,0,-1,580,904,-34.2678,-3.68311
-637,120,-33.324,3.95337,0.00242546,0.0167603,-0.00318608,0.0174366,0.00174922,-1.36165,0.0110874,0.0484245,587,904,-33.324,-3.95336
-630,120,-32.3727,4.15131,0.00222369,0.0129308,-0.00189746,0.0132571,0.00189737,-1.40049,0.00827839,0.0291824,594,904,-32.3727,-4.1513
-623,120,-32.4011,3.77008,0.00136004,0.00941151,-0.000743978,0.00947968,0.00129187,-1.47942,0.00593621,0.011273,601,904,-32.4011,-3.77006
-616,120,-32.4422,3.35657,0.0003046,0.00648147,-7.36609e-05,0.00648235,0.000303722,-1.55887,0.00422397,0.00968533,608,904,-32.4422,-3.35657
-609,120,-32.4449,2.93304,-0.00120804,0.00249727,0.000780958,0.00265515,-0.00136591,1.37133,0.002361,0.0129605,615,904,-32.4449,-2.93305
-602,120,-32.4594,2.50684,-0.00275149,0.000620895,0.00120421,0.00100675,-0.00313735,1.26071,0.00249577,0.0154095,622,904,-32.4594,-2.50685
-595,120,-32.4135,2.10443,-0.00340546,-7.61449e-05,0.00105065,0.000227686,-0.00370929,1.28929,0.00255214,0.0282138,629,904,-32.4135,-2.10446
-588,120,-32.3879,1.56769,-0.00330218,-0.000454094,0.000806621,-0.000241514,-0.00351476,1.31311,0.00226696,0.0384407,636,904,-32.3879,-1.5677
-581,120,-32.1624,0.875732,0,0,0,0,0,0,0,-1,643,904,-32.1624,-0.875744
-574,120,-27.5438,0.505066,0,0,0,0,0,0,0,-1,650,904,-27.5438,-0.505085
-567,120,-25.2822,-0.410645,0,0,0,0,0,0,0,-1,657,904,-25.2821,0.410629
-560,120,-27.3358,1.10327,0,0,0,0,0,0,0,-1,664,904,-27.3358,-1.10324
-553,120,-36.7491,0.924133,0,0,0,0,0,0,0,-1,671,904,-36.7491,-0.924122
-546,120,-36.6854,0.775635,-0.00441595,-0.00101248,0.000886631,-0.000795356,-0.00463307,1.33064,0.00286069,0.0303752,678,904,-36.6854,-0.775622
-539,120,-36.6854,0.769043,-0.00457748,-0.000913569,0.00106504,-0.000626474,-0.00486457,1.30749,0.00305571,0.0249884,685,904,-36.6854,-0.769061
-532,120,-36.6976,0.783081,-0.00495129,-0.000845119,0.00153035,-0.000337513,-0.0054589,1.25052,0.00353214,0.0273568,692,904,-36.6977,-0.783065
-525,120,-36.7629,0.902954,-0.0062739,-0.00102051,0.00242915,-6.94531e-05,-0.00722496,1.19762,0.00479366,0.0354131,699,904,-36.763,-0.902929
-518,120,-36.8765,1.03265,-0.00867317,-0.00156581,0.00352919,-0.000111111,-0.0101279,1.17983,0.00671518,0.0413524,706,904,-36.8764,-1.03266
-511,120,-36.9722,1.08368,-0.0105379,-0.00185306,0.00495189,0.00039071,-0.0127817,1.14536,0.00865428,0.0417546,713,904,-36.9722,-1.08369
-504,120,0,0,0,0,0,0,0,0,0,-1,720,904,0,0
-497,120,0,0,0,0,0,0,0,0,0,-1,727,904,0,0
-490,120,0,0,0,0,0,0,0,0,0,-1,734,904,0,0
-483,120,0,0,0,0,0,0,0,0,0,-1,741,904,0,0
-476,120,0,0,0,0,0,0,0,0,0,-1,748,904,0,0
-469,120,0,0,0,0,0,0,0,0,0,-1,755,904,0,0
-462,120,0,0,0,0,0,0,0,0,0,-1,762,904,0,0
-455,120,0,0,0,0,0,0,0,0,0,-1,769,904,0,0
-448,120,0,0,0,0,0,0,0,0,0,-1,776,904,0,0
-441,120,0,0,0,0,0,0,0,0,0,-1,783,904,0,0
-434,120,0,0,0,0,0,0,0,0,0,-1,790,904,0,0
-427,120,0,0,0,0,0,0,0,0,0,-1,797,904,0,0
-420,120,0,0,0,0,0,0,0,0,0,-1,804,904,0,0
-413,120,0,0,0,0,0,0,0,0,0,-1,811,904,0,0
-406,120,0,0,0,0,0,0,0,0,0,-1,818,904,0,0
-399,120,0,0,0,0,0,0,0,0,0,-1,825,904,0,0
-392,120,0,0,0,0,0,0,0,0,0,-1,832,904,0,0
-385,120,0,0,0,0,0,0,0,0,0,-1,839,904,0,0
-378,120,0,0,0,0,0,0,0,0,0,-1,846,904,0,0
-371,120,0,0,0,0,0,0,0,0,0,-1,853,904,0,0
-364,120,0,0,0,0,0,0,0,0,0,-1,860,904,0,0
-357,120,0,0,0,0,0,0,0,0,0,-1,867,904,0,0
-350,120,0,0,0,0,0,0,0,0,0,-1,874,904,0,0
-343,120,0,0,0,0,0,0,0,0,0,-1,881,904,0,0
-336,120,0,0,0,0,0,0,0,0,0,-1,888,904,0,0
-329,120,0,0,0,0,0,0,0,0,0,-1,895,904,0,0
-322,120,0,0,0,0,0,0,0,0,0,-1,902,904,0,0
-315,120,0,0,0,0,0,0,0,0,0,-1,909,904,0,0
-308,120,0,0,0,0,0,0,0,0,0,-1,916,904,0,0
-301,120,0,0,0,0,0,0,0,0,0,-1,923,904,0,0
-294,120,0,0,0,0,0,0,0,0,0,-1,930,904,0,0
-287,120,0,0,0,0,0,0,0,0,0,-1,937,904,0,0
-280,120,0,0,0,0,0,0,0,0,0,-1,944,904,0,0
-273,120,0,0,0,0,0,0,0,0,0,-1,951,904,0,0
-266,120,0,0,0,0,0,0,0,0,0,-1,958,904,0,0
-259,120,0,0,0,0,0,0,0,0,0,-1,965,904,0,0
-252,120,0,0,0,0,0,0,0,0,0,-1,972,904,0,0
-245,120,0,0,0,0,0,0,0,0,0,-1,979,904,0,0
-238,120,0,0,0,0,0,0,0,0,0,-1,986,904,0,0
-231,120,0,0,0,0,0,0,0,0,0,-1,993,904,0,0
-224,120,0,0,0,0,0,0,0,0,0,-1,1000,904,0,0
-217,120,0,0,0,0,0,0,0,0,0,-1,1007,904,0,0
-210,120,0,0,0,0,0,0,0,0,0,-1,1014,904,0,0
-203,120,0,0,0,0,0,0,0,0,0,-1,1021,904,0,0
-196,120,0,0,0,0,0,0,0,0,0,-1,1028,904,0,0
-189,120,0,0,0,0,0,0,0,0,0,-1,1035,904,0,0
-182,120,0,0,0,0,0,0,0,0,0,-1,1042,904,0,0
-175,120,0,0,0,0,0,0,0,0,0,-1,1049,904,0,0
-168,120,0,0,0,0,0,0,0,0,0,-1,1056,904,0,0
-161,120,0,0,0,0,0,0,0,0,0,-1,1063,904,0,0
-154,120,0,0,0,0,0,0,0,0,0,-1,1070,904,0,0
-147,120,0,0,0,0,0,0,0,0,0,-1,1077,904,0,0
-140,120,0,0,0,0,0,0,0,0,0,-1,1084,904,0,0
-133,120,0,0,0,0,0,0,0,0,0,-1,1091,904,0,0
-126,120,0,0,0,0,0,0,0,0,0,-1,1098,904,0,0
-119,120,0,0,0,0,0,0,0,0,0,-1,1105,904,0,0
-112,120,0,0,0,0,0,0,0,0,0,-1,1112,904,0,0
-105,120,0,0,0,0,0,0,0,0,0,-1,1119,904,0,0
-98,120,0,0,0,0,0,0,0,0,0,-1,1126,904,0,0
-91,120,0,0,0,0,0,0,0,0,0,-1,1133,904,0,0
-84,120,0,0,0,0,0,0,0,0,0,-1,1140,904,0,0
-77,120,0,0,0,0,0,0,0,0,0,-1,1147,904,0,0
-70,120,0,0,0,0,0,0,0,0,0,-1,1154,904,0,0
-63,120,0,0,0,0,0,0,0,0,0,-1,1161,904,0,0
-56,120,0,0,0,0,0,0,0,0,0,-1,1168,904,0,0
-49,120,0,0,0,0,0,0,0,0,0,-1,1175,904,0,0
-42,120,0,0,0,0,0,0,0,0,0,-1,1182,904,0,0
-35,120,0,0,0,0,0,0,0,0,0,-1,1189,904,0,0
-28,120,0,0,0,0,0,0,0,0,0,-1,1196,904,0,0
-21,120,0,0,0,0,0,0,0,0,0,-1,1203,904,0,0
-14,120,0,0,0,0,0,0,0,0,0,-1,1210,904,0,0
-7,120,0,0,0,0,0,0,0,0,0,-1,1217,904,0,0
0,120,0,0,0,0,0,0,0,0,0,-1,1224,904,0,0
7,120,0,0,0,0,0,0,0,0,0,-1,1231,904,0,0
14,120,0,0,0,0,0,0,0,0,0,-1,1238,904,0,0
21,120,0,0,0,0,0,0,0,0,0,-1,1245,904,0,0
28,120,0,0,0,0,0,0,0,0,0,-1,1252,904,0,0
35,120,0,0,0,0,0,0,0,0,0,-1,1259,904,0,0
42,120,0,0,0,0,0,0,0,0,0,-1,1266,904,0,0
49,120,0,0,0,0,0,0,0,0,0,-1,1273,904,0,0
56,120,0,0,0,0,0,0,0,0,0,-1,1280,904,0,0
63,120,0,0,0,0,0,0,0,0,0,-1,1287,904,0,0
70,120,0,0,0,0,0,0,0,0,0,-1,1294,904,0,0
77,120,0,0,0,0,0,0,0,0,0,-1,1301,904,0,0
84,120,0,0,0,0,0,0,0,0,0,-1,1308,904,0,0
91,120,0,0,0,0,0,0,0,0,0,-1,1315,904,0,0
98,120,0,0,0,0,0,0,0,0,0,-1,1322,904,0,0
105,120,0,0,0,0,0,0,0,0,0,-1,1329,904,0,0
112,120,0,0,0,0,0,0,0,0,0,-1,1336,904,0,0
119,120,0,0,0,0,0,0,0,0,0,-1,1343,904,0,0
126,120,0,0,0,0,0,0,0,0,0,-1,1350,904,0,0
133,120,0,0,0,0,0,0,0,0,0,-1,1357,904,0,0
140,120,0,0,0,0,0,0,0,0,0,-1,1364,904,0,0
147,120,0,0,0,0,0,0,0,0,0,-1,1371,904,0,0
154,120,0,0,0,0,0,0,0,0,0,-1,1378,904,0,0
161,120,0,0,0,0,0,0,0,0,0,-1,1385,904,0,0
168,120,0,0,0,0,0,0,0,0,0,-1,1392,904,0,0
175,120,0,0,0,0,0,0,0,0,0,-1,1399,904,0,0
182,120,0,0,0,0,0,0,0,0,0,-1,1406,904,0,0
189,120,0,0,0,0,0,0,0,0,0,-1,1413,904,0,0
196,120,0,0,0,0,0,0,0,0,0,-1,1420,904,0,0
203,120,0,0,0,0,0,0,0,0,0,-1,1427,904,0,0
210,120,0,0,0,0,0,0,0,0,0,-1,1434,904,0,0
217,120,0,0,0,0,0,0,0,0,0,-1,1441,904,0,0
224,120,0,0,0,0,0,0,0,0,0,-1,1448,904,0,0
231,120,0,0,0,0,0,0,0,0,0,-1,1455,904,0,0
238,120,0,0,0,0,0,0,0,0,0,-1,1462,904,0,0
245,120,0,0,0,0,0,0,0,0,0,-1,1469,904,0,0
252,120,0,0,0,0,0,0,0,0,0,-1,1476,904,0,0
259,120,0,0,0,0,0,0,0,0,0,-1,1483,904,0,0
266,120,0,0,0,0,0,0,0,0,0,-1,1490,904,0,0
273,120,0,0,0,0,0,0,0,0,0,-1,1497,904,0,0
280,120,0,0,0,0,0,0,0,0,0,-1,1504,904,0,0
287,120,0,0,0,0,0,0,0,0,0,-1,1511,904,0,0
294,120,0,0,0,0,0,0,0,0,0,-1,1518,904,0,0
301,120,0,0,0,0,0,0,0,0,0,-1,1525,904,0,0
308,120,0,0,0,0,0,0,0,0,0,-1,1532,904,0,0
315,120,0,0,0,0,0,0,0,0,0,-1,1539,904,0,0
322,120,0,0,0,0,0,0,0,0,0,-1,1546,904,0,0
329,120,0,0,0,0,0,0,0,0,0,-1,1553,904,0,0
336,120,0,0,0,0,0,0,0,0,0,-1,1560,904,0,0
343,120,0,0,0,0,0,0,0,0,0,-1,1567,904,0,0
350,120,0,0,0,0,0,0,0,0,0,-1,1574,904,0,0
357,120,0,0,0,0,0,0,0,0,0,-1,1581,904,0,0
364,120,0,0,0,0,0,0,0,0,0,-1,1588,904,0,0
371,120,0,0,0,0,0,0,0,0,0,-1,1595,904,0,0
378,120,0,0,0,0,0,0,0,0,0,-1,1602,904,0,0
385,120,0,0,0,0,0,0,0,0,0,-1,1609,904,0,0
392,120,0,0,0,0,0,0,0,0,0,-1,1616,904,0,0
399,120,0,0,0,0,0,0,0,0,0,-1,1623,904,0,0
406,120,0,0,0,0,0,0,0,0,0,-1,1630,904,0,0
413,120,0,0,0,0,0,0,0,0,0,-1,1637,904,0,0
420,120,0,0,0,0,0,0,0,0,0,-1,1644,904,0,0
427,120,0,0,0,0,0,0,0,0,0,-1,1651,904,0,0
434,120,0,0,0,0,0,0,0,0,0,-1,1658,904,0,0
441,120,0,0,0,0,0,0,0,0,0,-1,1665,904,0,0
448,120,0,0,0,0,0,0,0,0,0,-1,1672,904,0,0
455,120,0,0,0,0,0,0,0,0,0,-1,1679,904,0,0
462,120,0,0,0,0,0,0,0,0,0,-1,1686,904,0,0
469,120,0,0,0,0,0,0,0,0,0,-1,1693,904,0,0
476,120,0,0,0,0,0,0,0,0,0,-1,1700,904,0,0
483,120,0,0,0,0,0,0,0,0,0,-1,1707,904,0,0
490,120,0,0,0,0,0,0,0,0,0,-1,1714,904,0,0
497,120,0,0,0,0,0,0,0,0,0,-1,1721,904,0,0
504,120,0,0,0,0,0,0,0,0,0,-1,1728,904,0,0
511,120,0,0,0,0,0,0,0,0,0,-1,1735,904,0,0
518,120,0,0,0,0,0,0,0,0,0,-1,1742,904,0,0
525,120,0,0,0,0,0,0,0,0,0,-1,1749,904,0,0
532,120,0,0,0,0,0,0,0,0,0,-1,1756,904,0,0
539,120,0,0,0,0,0,0,0,0,0,-1,1763,904,0,0
546,120,0,0,0,0,0,0,0,0,0,-1,1770,904,0,0
553,120,0,0,0,0,0,0,0,0,0,-1,1777,904,0,0
560,120,0,0,0,0,0,0,0,0,0,-1,1784,904,0,0
567,120,0,0,0,0,0,0,0,0,0,-1,1791,904,0,0
574,120,0,0,0,0,0,0,0,0,0,-1,1798,904,0,0
581,120,0,0,0,0,0,0,0,0,0,-1,1805,904,0,0
588,120,0,0,0,0,0,0,0,0,0,-1,1812,904,0,0
595,120,0,0,0,0,0,0,0,0,0,-1,1819,904,0,0
602,120,0,0,0,0,0,0,0,0,0,-1,1826,904,0,0
609,120,0,0,0,0,0,0,0,0,0,-1,1833,904,0,0
616,120,0,0,0,0,0,0,0,0,0,-1,1840,904,0,0
623,120,0,0,0,0,0,0,0,0,0,-1,1847,904,0,0
630,120,48.8513,2.64484,0.00202948,0.00377271,0.00101051,0.00423558,0.00156661,1.14126,0.00247287,0.039003,1854,904,48.8513,-2.64483
637,120,48.9127,2.58484,0.00158741,0.00289562,0.000188961,0.00292236,0.00156067,1.43018,0.00168853,0.0405027,1861,904,48.9127,-2.58482
644,120,49.012,2.7063,0.00123238,0.00204838,-0.00018136,0.00208687,0.00119389,-1.36166,0.00120903,0.0381155,1868,904,49.012,-2.70632
651,120,48.9918,2.76953,0.000954294,0.00135448,-0.000310089,0.00152343,0.000785345,-1.07192,0.000879694,0.0388963,1875,904,48.9918,-2.76951
658,120,49.0148,2.685,0.000709425,0.00105853,-0.00010498,0.00108766,0.000680287,-1.30006,0.000634518,0.0400568,1882,904,49.0148,-2.68502
665,120,49.0983,2.62415,0.000585212,0.000933224,0.000111389,0.000965823,0.000552613,1.28609,0.000559551,0.036963,1889,904,49.0983,-2.62414
672,120,49.1118,2.58929,0.000578798,0.000813214,0.000364296,0.00107869,0.000313319,0.941037,0.000640754,0.0345279,1896,904,49.1118,-2.58932
679,120,49.0957,2.53424,0.000634428,0.000765618,0.000434783,0.00113973,0.00026032,0.860268,0.000689621,0.0295086,1903,904,49.0957,-2.53426
686,120,49.0868,2.60352,0.000616265,0.000695107,0.000432091,0.00108957,0.0002218,0.830889,0.000664896,0.0261089,1910,904,49.0868,-2.60349
693,120,49.0165,2.68439,0,0,0,0,0,0,0,-1,1917,904,49.0165,-2.68438
700,120,42.2007,3.00946,0,0,0,0,0,0,0,-1,1924,904,42.2007,-3.00944
707,120,43.6017,3.17963,0,0,0,0,0,0,0,-1,1931,904,43.6017,-3.17965
714,120,43.7947,3.73865,0.000111931,0.00111587,0.000149014,0.00113753,9.02794e-05,1.42651,0.00073012,0.0220806,1938,904,43.7947,-3.73862
721,120,43.7909,4.24164,-8.44931e-05,0.0013057,-0.000182859,0.00132935,-0.000108143,-1.44218,0.000924389,0.0174083,1945,904,43.7909,-4.24165
728,120,43.7313,4.72534,-0.000693567,0.00160681,-0.000633946,0.00176994,-0.000856703,-1.31893,0.00154675,0.0123307,1952,904,43.7313,-4.72535
735,120,43.6953,5.17249,-0.00162362,0.00204109,-0.00125467,0.00242948,-0.00201202,-1.27059,0.00256807,0.013582,1959,904,43.6953,-5.17251
742,120,43.6716,5.66571,-0.00286444,0.00278405,-0.00191729,0.00337337,-0.00345375,-1.27259,0.00394173,0.0141863,1966,904,43.6716,-5.6657
749,120,43.6365,6.07721,-0.00440585,0.00373844,-0.00265053,0.00452506,-0.00519247,-1.2823,0.00561483,0.0112318,1973,904,43.6365,-6.07723
756,120,43.5656,6.53387,-0.00625635,0.00496737,-0.00342011,0.00592743,-0.00721641,-1.29713,0.00760075,0.0140192,1980,904,43.5655,-6.53386
763,120,43.4513,7.01257,-0.00857092,0.00661489,-0.00408678,0.00764486,-0.00960089,-1.32391,0.00997816,0.0291938,1987,904,43.4513,-7.01257
770,120,43.3466,7.49463,0,0,0,0,0,0,0,-1,1994,904,43.3466,-7.49463
777,120,41.3512,6.78638,0,0,0,0,0,0,0,-1,2001,904,41.3512,-6.78635
784,120,43.5239,5.77271,0,0,0,0,0,0,0,-1,2008,904,43.524,-5.77269
791,120,41.957,6.00659,0,0,0,0,0,0,0,-1,2015,904,41.957,-6.00662
798,120,40.751,6.32587,0,0,0,0,0,0,0,-1,2022,904,40.7509,-6.32586
805,120,0,0,0,0,0,0,0,0,0,-1,2029,904,0,0
812,120,0,0,0,0,0,0,0,0,0,-1,2036,904,0,0
-700,113,0,0,0,0,0,0,0,0,0,-1,524,911,0,0
-693,113,0,0,0,0,0,0,0,0,0,-1,531,911,0,0
-686,113,0,0,0,0,0,0,0,0,0,-1,538,911,0,0
-679,113,-33.4648,6.56238,0,0,0,0,0,0,0,-1,545,911,-33.4647,-6.5624
-672,113,-33.5702,6.32953,0,0,0,0,0,0,0,-1,552,911,-33.5702,-6.32956
-665,113,-33.7724,5.63354,0,0,0,0,0,0,0,-1,559,911,-33.7724,-5.63356
-658,113,-32.8323,4.89233,0,0,0,0,0,0,0,-1,566,911,-32.8323,-4.89234
-651,113,-33.178,5.57391,0,0,0,0,0,0,0,-1,573,911,-33.1781,-5.57393
-644,113,-32.9164,4.7373,0,0,0,0,0,0,0,-1,580,911,-32.9165,-4.73729
-637,113,-32.9045,4.41064,6.43828e-05,0.0137844,-0.00102898,0.0138612,-1.236e-05,-1.49635,0.00924491,0.0414388,587,911,-32.9045,-4.41066
-630,113,-32.8113,4.15753,0.000211475,0.0106705,3.1482e-05,0.0106706,0.000211381,1.56779,0.00704433,0.0196053,594,911,-32.8114,-4.15754
-623,113,-32.886,3.74146,-0.000321137,0.00772415,0.000857166,0.00781446,-0.000411448,1.46582,0.00535207,0.0115437,601,911,-32.886,-3.74143
-616,113,-32.9053,3.33374,-0.00118456,0.00517085,0.00120177,0.00539051,-0.00140422,1.39002,0.00414186,0.0100601,608,911,-32.9053,-3.33371
-609,113,-32.9131,2.948,-0.0025632,0.00178022,0.00149696,0.00224617,-0.00302915,1.26904,0.00305687,0.0110468,615,911,-32.9131,-2.948
-602,113,-32.9308,2.4928,-0.00396919,0.000194533,0.00140572,0.000624681,-0.00439934,1.27385,0.00316175,0.0175615,622,911,-32.9309,-2.49278
-595,113,-32.9535,2.16199,-0.00460968,-0.00042719,0.000956229,-0.000218939,-0.00481793,1.35636,0.00314152,0.0249503,629,911,-32.9535,-2.162
-588,113,-32.9066,1.73065,-0.00451478,-0.000772607,0.000571522,-0.000687268,-0.00460012,1.42257,0.00286527,0.0293403,636,911,-32.9065,-1.73066
-581,113,-32.9351,1.28137,-0.00467944,-0.000773973,0.000518486,-0.000706312,-0.0047471,1.44103,0.00295755,0.0296837,643,911,-32.935,-1.28135
-574,113,-32.9102,0.648804,0,0,0,0,0,0,0,-1,650,911,-32.9102,-0.648814
-567,113,-21.8396,0.437378,0,0,0,0,0,0,0,-1,657,911,-21.8396,-0.437351
-560,113,-36.7568,0.822693,0,0,0,0,0,0,0,-1,664,911,-36.7568,-0.822693
-553,113,-36.7681,0.849548,-0.00522522,-0.00108308,0.000514306,-0.00102018,-0.00528812,1.44909,0.00323935,0.0385742,671,911,-36.7681,-0.849567
-546,113,-36.6862,0.835388,-0.00535398,-0.00089907,0.000654587,-0.000804879,-0.00544817,1.42788,0.00339576,0.035967,678,911,-36.6861,-0.835363
-539,113,-36.5995,0.720947,-0.00538249,-0.000634445,0.00101206,-0.000427723,-0.00558921,1.36931,0.00359206,0.03389,685,911,-36.5995,-0.720943
-532,113,-36.6442,0.779297,-0.00560718,-0.000325438,0.00176377,0.000209395,-0.00614201,1.27638,0.00416623,0.0353576,692,911,-36.6442,-0.779318
-525,113,-36.7455,0.893005,-0.00681997,-0.000163073,0.00300901,0.000995429,-0.00797847,1.20328,0.00567994,0.0374466,699,911,-36.7456,-0.892985
-518,113,-36.8585,0.981323,-0.0098021,-0.000355093,0.00420642,0.00124639,-0.0114036,1.20702,0.00805008,0.0403601,706,911,-36.8584,-0.981335
-511,113,-37.0313,0.93158,-0.0122816,-0.000272756,0.00547616,0.00184941,-0.0144038,1.20109,0.0102746,0.0412081,713,911,-37.0313,-0.931552
-504,113,0,0,0,0,0,0,0,0,0,-1,720,911,0,0
-497,113,0,0,0,0,0,0,0,0,0,-1,727,911,0,0
-490,113,0,0,0,0,0,0,0,0,0,-1,734,911,0,0
-483,113,0,0,0,0,0,0,0,0,0,-1,741,911,0,0
-476,113,0,0,0,0,0,0,0,0,0,-1,748,911,0,0
-469,113,0,0,0,0,0,0,0,0,0,-1,755,911,0,0
-462,113,0,0,0,0,0,0,0,0,0,-1,762,911,0,0
-455,113,0,0,0,0,0,0,0,0,0,-1,769,911,0,0
-448,113,0,0,0,0,0,0,0,0,0,-1,776,911,0,0
-441,113,0,0,0,0,0,0,0,0,0,-1,783,911,0,0
-434,113,0,0,0,0,0,0,0,0,0,-1,790,911,0,0
-427,113,0,0,0,0,0,0,0,0,0,-1,797,911,0,0
-420,113,0,0,0,0,0,0,0,0,0,-1,804,911,0,0
-413,113,0,0,0,0,0,0,0,0,0,-1,811,911,0,0
-406,113,0,0,0,0,0,0,0,0,0,-1,818,911,0,0
-399,113,0,0,0,0,0,0,0,0,0,-1,825,911,0,0
-392,113,0,0,0,0,0,0,0,0,0,-1,832,911,0,0
-385,113,0,0,0,0,0,0,0,0,0,-1,839,911,0,0
-378,113,0,0,0,0,0,0,0,0,0,-1,846,911,0,0
-371,113,0,0,0,0,0,0,0,0,0,-1,853,911,0,0
-364,113,0,0,0,0,0,0,0,0,0,-1,860,911,0,0
-357,113,0,0,0,0,0,0,0,0,0,-1,867,911,0,0
-350,113,0,0,0,0,0,0,0,0,0,-1,874,911,0,0
-343,113,0,0,0,0,0,0,0,0,0,-1,881,911,0,0
-336,113,0,0,0,0,0,0,0,0,0,-1,888,911,0,0
-329,113,0,0,0,0,0,0,0,0,0,-1,895,911,0,0
-322,113,0,0,0,0,0,0,0,0,0,-1,902,911,0,0
-315,113,0,0,0,0,0,0,0,0,0,-1,909,911,0,0
-308,113,0,0,0,0,0,0,0,0,0,-1,916,911,0,0
-301,113,0,0,0,0,0,0,0,0,0,-1,923,911,0,0
-294,113,0,0,0,0,0,0,0,0,0,-1,930,911,0,0
-287,113,0,0,0,0,0,0,0,0,0,-1,937,911,0,0
-280,113,0,0,0,0,0,0,0,0,0,-1,944,911,0,0
-273,113,0,0,0,0,0,0,0,0,0,-1,951,911,0,0
-266,113,0,0,0,0,0,0,0,0,0,-1,958,911,0,0
-259,113,0,0,0,0,0,0,0,0,0,-1,965,911,0,0
-252,113,0,0,0,0,0,0,0,0,0,-1,972,911,0,0
-245,113,0,0,0,0,0,0,0,0,0,-1,979,911,0,0
-238,113,0,0,0,0,0,0,0,0,0,-1,986,911,0,0
-231,113,0,0,0,0,0,0,0,0,0,-1,993,911,0,0
-224,113,0,0,0,0,0,0,0,0,0,-1,1000,911,0,0
-217,113,0,0,0,0,0,0,0,0,0,-1,1007,911,0,0
-210,113,0,0,0,0,0,0,0,0,0,-1,1014,911,0,0
-203,113,0,0,0,0,0,0,0,0,0,-1,1021,911,0,0
-196,113,0,0,0,0,0,0,0,0,0,-1,1028,911,0,0
-189,113,0,0,0,0,0,0,0,0,0,-1,1035,911,0,0
-182,113,0,0,0,0,0,0,0,0,0,-1,1042,911,0,0
-175,113,0,0,0,0,0,0,0,0,0,-1,1049,911,0,0
-168,113,0,0,0,0,0,0,0,0,0,-1,1056,911,0,0
-161,113,0,0,0,0,0,0,0,0,0,-1,1063,911,0,0
-154,113,0,0,0,0,0,0,0,0,0,-1,1070,911,0,0
-147,113,0,0,0,0,0,0,0,0,0,-1,1077,911,0,0
-140,113,0,0,0,0,0,0,0,0,0,-1,1084,911,0,0
-133,113,0,0,0,0,0,0,0,0,0,-1,1091,911,0,0
-126,113,0,0,0,0,0,0,0,0,0,-1,1098,911,0,0
-119,113,0,0,0,0,0,0,0,0,0,-1,1105,911,0,0
-112,113,0,0,0,0,0,0,0,0,0,-1,1112,911,0,0
-105,113,0,0,0,0,0,0,0,0,0,-1,1119,911,0,0
-98,113,0,0,0,0,0,0,0,0,0,-1,1126,911,0,0
-91,113,0,0,0,0,0,0,0,0,0,-1,1133,911,0,0
-84,113,0,0,0,0,0,0,0,0,0,-1,1140,911,0,0
-77,113,0,0,0,0,0,0,0,0,0,-1,1147,911,0,0
-70,113,0,0,0,0,0,0,0,0,0,-1,1154,911,0,0
-63,113,0,0,0,0,0,0,0,0,0,-1,1161,911,0,0
-56,113,0,0,0,0,0,0,0,0,0,-1,1168,911,0,0
-49,113,0,0,0,0,0,0,0,0,0,-1,1175,911,0,0
-42,113,0,0,0,0,0,0,0,0,0,-1,1182,911,0,0
-35,113,0,0,0,0,0,0,0,0,0,-1,1189,911,0,0
-28,113,0,0,0,0,0,0,0,0,0,-1,1196,911,0,0
-21,113,0,0,0,0,0,0,0,0,0,-1,1203,911,0,0
-14,113,0,0,0,0,0,0,0,0,0,-1,1210,911,0,0
-7,113,0,0,0,0,0,0,0,0,0,-1,1217,911,0,0
0,113,0,0,0,0,0,0,0,0,0,-1,1224,911,0,0
7,113,0,0,0,0,0,0,0,0,0,-1,1231,911,0,0
14,113,0,0,0,0,0,0,0,0,0,-1,1238,911,0,0
21,113,0,0,0,0,0,0,0,0,0,-1,1245,911,0,0
28,113,0,0,0,0,0,0,0,0,0,-1,1252,911,0,0
35,113,0,0,0,0,0,0,0,0,0,-1,1259,911,0,0
42,113,0,0,0,0,0,0,0,0,0,-1,1266,911,0,0
49,113,0,0,0,0,0,0,0,0,0,-1,1273,911,0,0
56,113,0,0,0,0,0,0,0,0,0,-1,1280,911,0,0
63,113,0,0,0,0,0,0,0,0,0,-1,1287,911,0,0
70,113,0,0,0,0,0,0,0,0,0,-1,1294,911,0,0
77,113,0,0,0,0,0,0,0,0,0,-1,1301,911,0,0
84,113,0,0,0,0,0,0,0,0,0,-1,1308,911,0,0
91,113,0,0,0,0,0,0,0,0,0,-1,1315,911,0,0
98,113,0,0,0,0,0,0,0,0,0,-1,1322,911,0,0
105,113,0,0,0,0,0,0,0,0,0,-1,1329,911,0,0
112,113,0,0,0,0,0,0,0,0,0,-1,1336,911,0,0
119,113,0,0,0,0,0,0,0,0,0,-1,1343,911,0,0
126,113,0,0,0,0,0,0,0,0,0,-1,1350,911,0,0
133,113,0,0,0,0,0,0,0,0,0,-1,1357,911,0,0
140,113,0,0,0,0,0,0,0,0,0,-1,1364,911,0,0
147,113,0,0,0,0,0,0,0,0,0,-1,1371,911,0,0
154,113,0,0,0,0,0,0,0,0,0,-1,1378,911,0,0
161,113,0,0,0,0,0,0,0,0,0,-1,1385,911,0,0
168,113,0,0,0,0,0,0,0,0,0,-1,1392,911,0,0
175,113,0,0,0,0,0,0,0,0,0,-1,1399,911,0,0
182,113,0,0,0,0,0,0,0,0,0,-1,1406,911,0,0
189,113,0,0,0,0,0,0,0,0,0,-1,1413,911,0,0
196,113,0,0,0,0,0,0,0,0,0,-1,1420,911,0,0
203,113,0,0,0,0,0,0,0,0,0,-1,1427,911,0,0
210,113,0,0,0,0,0,0,0,0,0,-1,1434,911,0,0
217,113,0,0,0,0,0,0,0,0,0,-1,1441,911,0,0
224,113,0,0,0,0,0,0,0,0,0,-1,1448,911,0,0
231,113,0,0,0,0,0,0,0,0,0,-1,1455,911,0,0
238,113,0,0,0,0,0,0,0,0,0,-1,1462,911,0,0
245,113,0,0,0,0,0,0,0,0,0,-1,1469,911,0,0
252,113,0,0,0,0,0,0,0,0,0,-1,1476,911,0,0
259,113,0,0,0,0,0,0,0,0,0,-1,1483,911,0,0
266,113,0,0,0,0,0,0,0,0,0,-1,1490,911,0,0
273,113,0,0,0,0,0,0,0,0,0,-1,1497,911,0,0
280,113,0,0,0,0,0,0,0,0,0,-1,1504,911,0,0
287,113,0,0,0,0,0,0,0,0,0,-1,1511,911,0,0
294,113,0,0,0,0,0,0,0,0,0,-1,1518,911,0,0
301,113,0,0,0,0,0,0,0,0,0,-1,1525,911,0,0
308,113,0,0,0,0,0,0,0,0,0,-1,1532,911,0,0
315,113,0,0,0,0,0,0,0,0,0,-1,1539,911,0,0
322,113,0,0,0,0,0,0,0,0,0,-1,1546,911,0,0
329,113,0,0,0,0,0,0,0,0,0,-1,1553,911,0,0
336,113,0,0,0,0,0,0,0,0,0,-1,1560,911,0,0
343,113,0,0,0,0,0,0,0,0,0,-1,1567,911,0,0
350,113,0,0,0,0,0,0,0,0,0,-1,1574,911,0,0
357,113,0,0,0,0,0,0,0,0,0,-1,1581,911,0,0
364,113,0,0,0,0,0,0,0,0,0,-1,1588,911,0,0
371,113,0,0,0,0,0,0,0,0,0,-1,1595,911,0,0
378,113,0,0,0,0,0,0,0,0,0,-1,1602,911,0,0
385,113,0,0,0,0,0,0,0,0,0,-1,1609,911,0,0
392,113,0,0,0,0,0,0,0,0,0,-1,1616,911,0,0
399,113,0,0,0,0,0,0,0,0,0,-1,1623,911,0,0
406,113,0,0,0,0,0,0,0,0,0,-1,1630,911,0,0
413,113,0,0,0,0,0,0,0,0,0,-1,1637,911,0,0
420,113,0,0,0,0,0,0,0,0,0,-1,1644,911,0,0
427,113,0,0,0,0,0,0,0,0,0,-1,1651,911,0,0
434,113,0,0,0,0,0,0,0,0,0,-1,1658,911,0,0
441,113,0,0,0,0,0,0,0,0,0,-1,1665,911,0,0
448,113,0,0,0,0,0,0,0,0,0,-1,1672,911,0,0
455,113,0,0,0,0,0,0,0,0,0,-1,1679,911,0,0
462,113,0,0,0,0,0,0,0,0,0,-1,1686,911,0,0
469,113,0,0,0,0,0,0,0,0,0,-1,1693,911,0,0
476,113,0,0,0,0,0,0,0,0,0,-1,1700,911,0,0
483,113,0,0,0,0,0,0,0,0,0,-1,1707,911,0,0
490,113,0,0,0,0,0,0,0,0,0,-1,1714,911,0,0
497,113,0,0,0,0,0,0,0,0,0,-1,1721,911,0,0
504,113,0,0,0,0,0,0,0,0,0,-1,1728,911,0,0
511,113,0,0,0,0,0,0,0,0,0,-1,1735,911,0,0
518,113,0,0,0,0,0,0,0,0,0,-1,1742,911,0,0
525,113,0,0,0,0,0,0,0,0,0,-1,1749,911,0,0
532,113,0,0,0,0,0,0,0,0,0,-1,1756,911,0,0
539,113,0,0,0,0,0,0,0,0,0,-1,1763,911,0,0
546,113,0,0,0,0,0,0,0,0,0,-1,1770,911,0,0
553,113,0,0,0,0,0,0,0,0,0,-1,1777,911,0,0
560,113,0,0,0,0,0,0,0,0,0,-1,1784,911,0,0
567,113,0,0,0,0,0,0,0,0,0,-1,1791,911,0,0
574,113,0,0,0,0,0,0,0,0,0,-1,1798,911,0,0
581,113,0,0,0,0,0,0,0,0,0,-1,1805,911,0,0
588,113,0,0,0,0,0,0,0,0,0,-1,1812,911,0,0
595,113,0,0,0,0,0,0,0,0,0,-1,1819,911,0,0
602,113,0,0,0,0,0,0,0,0,0,-1,1826,911,0,0
609,113,0,0,0,0,0,0,0,0,0,-1,1833,911,0,0
616,113,0,0,0,0,0,0,0,0,0,-1,1840,911,0,0
623,113,0,0,0,0,0,0,0,0,0,-1,1847,911,0,0
630,113,49.1949,2.45697,0,0,0,0,0,0,0,-1,1854,911,49.195,-2.45695
637,113,49.124,2.65485,0.000307978,0.00308278,0.000195558,0.0030965,0.000294263,1.50078,0.00197357,0.0379358,1861,911,49.124,-2.65487
644,113,49.1804,2.63123,0.000147298,0.00216374,-0.000172244,0.00217835,0.000132691,-1.48619,0.00141008,0.0382785,1868,911,49.1805,-2.63123
651,113,49.1302,2.62219,9.47464e-05,0.00140179,-0.000329553,0.00148018,1.63558e-05,-1.33727,0.000981382,0.0406997,1875,911,49.1302,-2.62222
658,113,49.1786,2.2251,9.22761e-05,0.000979563,-0.000160355,0.00100765,6.41852e-05,-1.39738,0.000651429,0.0419123,1882,911,49.1786,-2.22507
665,113,49.0879,2.52911,0.000175214,0.000782221,7.38622e-05,0.000791079,0.000166356,1.45143,0.000481608,0.0369209,1889,911,49.0879,-2.52911
672,113,49.0779,2.63953,0.000280862,0.00063423,0.000345051,0.000845202,6.98903e-05,1.02202,0.000541676,0.0346778,1896,911,49.0778,-2.63951
679,113,49.1052,2.51904,0.00040033,0.000545995,0.000467825,0.000946623,-2.97674e-07,0.86262,0.000631182,0.0295043,1903,911,49.1052,-2.51906
686,113,49.1222,2.61646,0.000440475,0.000430915,0.000497672,0.00093339,-6.20004e-05,0.780596,0.000643923,0.0265407,1910,911,49.1222,-2.61644
693,113,49.0447,2.62537,0,0,0,0,0,0,0,-1,1917,911,49.0447,-2.62536
700,113,43.897,2.79669,0,0,0,0,0,0,0,-1,1924,911,43.897,-2.79671
707,113,44.1039,3.27631,0,0,0,0,0,0,0,-1,1931,911,44.1038,-3.2763
714,113,44.1714,3.70557,-0.000138523,0.00093555,0.000186249,0.000966929,-0.000169902,1.40388,0.000708081,0.0223383,1938,911,44.1714,-3.70555
721,113,44.1824,4.17181,-0.000426043,0.00119318,-0.000105275,0.0012,-0.000432858,-1.50614,0.000976795,0.0215425,1945,911,44.1824,-4.17184
728,113,44.2367,4.71356,-0.00114413,0.00157261,-0.000530379,0.00167248,-0.001244,-1.38467,0.00168988,0.0231627,1952,911,44.2367,-4.71354
735,113,44.1721,5.17957,-0.0022201,0.00214705,-0.00110516,0.00241079,-0.00248384,-1.33653,0.00282602,0.0205325,1959,911,44.1721,-5.17954
742,113,44.1393,5.63074,-0.00364955,0.00308754,-0.00170964,0.00349655,-0.00405857,-1.33597,0.00436597,0.0134385,1966,911,44.1392,-5.63076
749,113,44.1476,6.07428,-0.00546518,0.00435474,-0.00239395,0.00490726,-0.0060177,-1.34397,0.00631838,0.0094735,1973,911,44.1476,-6.0743
756,113,44.0696,6.54718,-0.00765702,0.00595951,-0.00309376,0.00662947,-0.00832698,-1.35754,0.00865363,0.01323,1980,911,44.0696,-6.5472
763,113,43.9043,7.09039,-0.010325,0.00788,-0.00366297,0.00858937,-0.0110344,-1.3795,0.0113591,0.0298902,1987,911,43.9043,-7.0904
770,113,43.7454,7.63458,0,0,0,0,0,0,0,-1,1994,911,43.7453,-7.6346
777,113,41.8534,7.79913,0,0,0,0,0,0,0,-1,2001,911,41.8533,-7.79911
784,113,42.8354,6.22766,0,0,0,0,0,0,0,-1,2008,911,42.8355,-6.22766
791,113,41.7288,7.26263,0,0,0,0,0,0,0,-1,2015,911,41.7287,-7.26261
798,113,41.9556,6.86206,0,0,0,0,0,0,0,-1,2022,911,41.9555,-6.86204
805,113,0,0,0,0,0,0,0,0,0,-1,2029,911,0,0
812,113,0,0,0,0,0,0,0,0,0,-1,2036,911,0,0
-700,106,0,0,0,0,0,0,0,0,0,-1,524,918,0,0
-693,106,0,0,0,0,0,0,0,0,0,-1,531,918,0,0
-686,106,0,0,0,0,0,0,0,0,0,-1,538,918,0,0
-679,106,-33.5573,6.42365,0,0,0,0,0,0,0,-1,545,918,-33.5572,-6.42364
-672,106,-33.6894,6.1568,0,0,0,0,0,0,0,-1,552,918,-33.6894,-6.1568
-665,106,-32.7547,6.94861,0,0,0,0,0,0,0,-1,559,918,-32.7547,-6.94862
-658,106,-33.1237,5.7724,0,0,0,0,0,0,0,-1,566,918,-33.1237,-5.77241
-651,106,-33.2694,5.33752,0,0,0,0,0,0,0,-1,573,918,-33.2694,-5.33752
-644,106,-33.0698,5.10272,0,0,0,0,0,0,0,-1,580,918,-33.0698,-5.10273
-637,106,-33.0143,4.54443,-0.00302708,0.0108366,-0.00014127,0.010838,-0.00302852,-1.56061,0.00841843,0.0307668,587,918,-33.0143,-4.54445
-630,106,-33.2304,4.22186,-0.00234129,0.00842713,0.000836681,0.00849175,-0.00240591,1.49372,0.00661072,0.0145523,594,918,-33.2304,-4.22188
-623,106,-33.3464,3.71082,-0.00239622,0.00609169,0.00150095,0.00634929,-0.00265382,1.40083,0.00534191,0.0140169,601,918,-33.3464,-3.71083
-616,106,-33.381,3.29785,-0.00292073,0.00399134,0.00167008,0.00437371,-0.0033031,1.34572,0.00444655,0.013929,608,918,-33.381,-3.29786
-609,106,-33.3741,2.92419,-0.00403513,0.00126243,0.00167307,0.00174657,-0.00451927,1.28912,0.00373378,0.0123684,615,918,-33.3741,-2.92418
-602,106,-33.3832,2.49408,-0.00521096,1.61023e-05,0.00134744,0.000343005,-0.00553787,1.33279,0.00381139,0.0187326,622,918,-33.3832,-2.4941
-595,106,-33.5045,2.10669,-0.0057845,-0.000488063,0.000797542,-0.000370574,-0.00590198,1.42454,0.00381713,0.0227971,629,918,-33.5045,-2.10667
-588,106,-33.4932,1.69946,-0.00565802,-0.000761661,0.000370522,-0.000733781,-0.0056859,1.49569,0.00357122,0.0262138,636,918,-33.4932,-1.69947
-581,106,-33.3287,1.22375,-0.00580022,-0.000672891,0.000295421,-0.000655925,-0.00581718,1.51343,0.00367902,0.0163896,643,918,-33.3287,-1.22375
-574,106,-33.3003,0.763977,0,0,0,0,0,0,0,-1,650,918,-33.3003,-0.763958
-567,106,-36.2079,0.840881,0,0,0,0,0,0,0,-1,657,918,-36.208,-0.840858
-560,106,-36.732,0.818909,0,0,0,0,0,0,0,-1,664,918,-36.732,-0.818907
-553,106,-36.7684,0.814819,-0.00630686,-0.000717349,0.000254756,-0.000705762,-0.00631844,1.52534,0.00399786,0.0365309,671,918,-36.7684,-0.814822
-546,106,-36.6514,0.783813,-0.00632423,-0.000446585,0.000487231,-0.000406469,-0.00636434,1.48865,0.0041141,0.0404053,678,918,-36.6514,-0.783838
-539,106,-36.4932,0.683838,-0.00617432,-4.97457e-05,0.000961709,9.77162e-05,-0.00632178,1.41865,0.00424747,0.0397785,685,918,-36.4932,-0.683862
-532,106,-36.5174,0.749329,-0.00613419,0.000429081,0.00186828,0.000923633,-0.00662874,1.31202,0.00475702,0.0391605,692,918,-36.5174,-0.749331
-525,106,-36.6914,0.905334,-0.00711671,0.00084501,0.00320991,0.00197793,-0.00824963,1.2315,0.00626403,0.0394157,699,918,-36.6914,-0.905325
-518,106,-36.8702,0.916199,-0.010691,0.000981859,0.00429678,0.00239293,-0.0121021,1.25349,0.00897271,0.0404507,706,918,-36.8703,-0.916182
-511,106,0,0,0,0,0,0,0,0,0,-1,713,918,0,0
-504,106,0,0,0,0,0,0,0,0,0,-1,720,918,0,0
-497,106,0,0,0,0,0,0,0,0,0,-1,727,918,0,0
-490,106,0,0,0,0,0,0,0,0,0,-1,734,918,0,0
-483,106,0,0,0,0,0,0,0,0,0,-1,741,918,0,0
-476,106,0,0,0,0,0,0,0,0,0,-1,748,918,0,0
-469,106,0,0,0,0,0,0,0,0,0,-1,755,918,0,0
-462,106,0,0,0,0,0,0,0,0,0,-1,762,918,0,0
-455,106,0,0,0,0,0,0,0,0,0,-1,769,918,0,0
-448,106,0,0,0,0,0,0,0,0,0,-1,776,918,0,0
-441,106,0,0,0,0,0,0,0,0,0,-1,783,918,0,0
-434,106,0,0,0,0,0,0,0,0,0,-1,790,918,0,0
-427,106,0,0,0,0,0,0,0,0,0,-1,797,918,0,0
-420,106,0,0,0,0,0,0,0,0,0,-1,804,918,0,0
-413,106,0,0,0,0,0,0,0,0,0,-1,811,918,0,0
-406,106,0,0,0,0,0,0,0,0,0,-1,818,918,0,0
-399,106,0,0,0,0,0,0,0,0,0,-1,825,918,0,0
-392,106,0,0,0,0,0,0,0,0,0,-1,832,918,0,0
-385,106,0,0,0,0,0,0,0,0,0,-1,839,918,0,0
-378,106,0,0,0,0,0,0,0,0,0,-1,846,918,0,0
-371,106,0,0,0,0,0,0,0,0,0,-1,853,918,0,0
-364,106,0,0,0,0,0,0,0,0,0,-1,860,918,0,0
-357,106,0,0,0,0,0,0,0,0,0,-1,867,918,0,0
-350,106,0,0,0,0,0,0,0,0,0,-1,874,918,0,0
-343,106,0,0,0,0,0,0,0,0,0,-1,881,918,0,0
-336,106,0,0,0,0,0,0,0,0,0,-1,888,918,0,0
-329,106,0,0,0,0,0,0,0,0,0,-1,895,918,0,0
-322,106,0,0,0,0,0,0,0,0,0,-1,902,918,0,0
-315,106,0,0,0,0,0,0,0,0,0,-1,909,918,0,0
-308,106,0,0,0,0,0,0,0,0,0,-1,916,918,0,0
-301,106,0,0,0,0,0,0,0,0,0,-1,923,918,0,0
-294,106,0,0,0,0,0,0,0,0,0,-1,930,918,0,0
-287,106,0,0,0,0,0,0,0,0,0,-1,937,918,0,0
-280,106,0,0,0,0,0,0,0,0,0,-1,944,918,0,0
-273,106,0,0,0,0,0,0,0,0,0,-1,951,918,0,0
-266,106,0,0,0,0,0,0,0,0,0,-1,958,918,0,0
-259,106,0,0,0,0,0,0,0,0,0,-1,965,918,0,0
-252,106,0,0,0,0,0,0,0,0,0,-1,972,918,0,0
-245,106,0,0,0,0,0,0,0,0,0,-1,979,918,0,0
-238,106,0,0,0,0,0,0,0,0,0,-1,986,918,0,0
-231,106,0,0,0,0,0,0,0,0,0,-1,993,918,0,0
-224,106,0,0,0,0,0,0,0,0,0,-1,1000,918,0,0
-217,106,0,0,0,0,0,0,0,0,0,-1,1007,918,0,0
-210,106,0,0,0,0,0,0,0,0,0,-1,1014,918,0,0
-203,106,0,0,0,0,0,0,0,0,0,-1,1021,918,0,0
-196,106,0,0,0,0,0,0,0,0,0,-1,1028,918,0,0
-189,106,0,0,0,0,0,0,0,0,0,-1,1035,918,0,0
-182,106,0,0,0,0,0,0,0,0,0,-1,1042,918,0,0
-175,106,0,0,0,0,0,0,0,0,0,-1,1049,918,0,0
-168,106,0,0,0,0,0,0,0,0,0,-1,1056,918,0,0
-161,106,0,0,0,0,0,0,0,0,0,-1,1063,918,0,0
-154,106,0,0,0,0,0,0,0,0,0,-1,1070,918,0,0
-147,106,0,0,0,0,0,0,0,0,0,-1,1077,918,0,0
-140,106,0,0,0,0,0,0,0,0,0,-1,1084,918,0,0
-133,106,0,0,0,0,0,0,0,0,0,-1,1091,918,0,0
-126,106,0,0,0,0,0,0,0,0,0,-1,1098,918,0,0
-119,106,0,0,0,0,0,0,0,0,0,-1,1105,918,0,0
-112,106,0,0,0,0,0,0,0,0,0,-1,1112,918,0,0
-105,106,0,0,0,0,0,0,0,0,0,-1,1119,918,0,0
-98,106,0,0,0,0,0,0,0,0,0,-1,1126,918,0,0
-91,106,0,0,0,0,0,0,0,0,0,-1,1133,918,0,0
-84,106,0,0,0,0,0,0,0,0,0,-1,1140,918,0,0
-77,106,0,0,0,0,0,0,0,0,0,-1,1147,918,0,0
-70,106,0,0,0,0,0,0,0,0,0,-1,1154,918,0,0
-63,106,0,0,0,0,0,0,0,0,0,-1,1161,918,0,0
-56,106,0,0,0,0,0,0,0,0,0,-1,1168,918,0,0
-49,106,0,0,0,0,0,0,0,0,0,-1,1175,918,0,0
-42,106,0,0,0,0,0,0,0,0,0,-1,1182,918,0,0
-35,106,0,0,0,0,0,0,0,0,0,-1,1189,918,0,0
-28,106,0,0,0,0,0,0,0,0,0,-1,1196,918,0,0
-21,106,0,0,0,0,0,0,0,0,0,-1,1203,918,0,0
-14,106,0,0,0,0,0,0,0,0,0,-1,1210,918,0,0
-7,106,0,0,0,0,0,0,0,0,0,-1,1217,918,0,0
0,106,0,0,0,0,0,0,0,0,0,-1,1224,918,0,0
7,106,0,0,0,0,0,0,0,0,0,-1,1231,918,0,0
14,106,0,0,0,0,0,0,0,0,0,-1,1238,918,0,0
21,106,0,0,0,0,0,0,0,0,0,-1,1245,918,0,0
28,106,0,0,0,0,0,0,0,0,0,-1,1252,918,0,0
35,106,0,0,0,0,0,0,0,0,0,-1,1259,918,0,0
42,106,0,0,0,0,0,0,0,0,0,-1,1266,918,0,0
49,106,0,0,0,0,0,0,0,0,0,-1,1273,918,0,0
56,106,0,0,0,0,0,0,0,0,0,-1,1280,918,0,0
63,106,0,0,0,0,0,0,0,0,0,-1,1287,918,0,0
70,106,0,0,0,0,0,0,0,0,0,-1,1294,918,0,0
77,106,0,0,0,0,0,0,0,0,0,-1,1301,918,0,0
84,106,0,0,0,0,0,0,0,0,0,-1,1308,918,0,0
91,106,0,0,0,0,0,0,0,0,0,-1,1315,918,0,0
98,106,0,0,0,0,0,0,0,0,0,-1,1322,918,0,0
105,106,0,0,0,0,0,0,0,0,0,-1,1329,918,0,0
112,106,0,0,0,0,0,0,0,0,0,-1,1336,918,0,0
119,106,0,0,0,0,0,0,0,0,0,-1,1343,918,0,0
126,106,0,0,0,0,0,0,0,0,0,-1,1350,918,0,0
133,106,0,0,0,0,0,0,0,0,0,-1,1357,918,0,0
140,106,0,0,0,0,0,0,0,0,0,-1,1364,918,0,0
147,106,0,0,0,0,0,0,0,0,0,-1,1371,918,0,0
154,106,0,0,0,0,0,0,0,0,0,-1,1378,918,0,0
161,106,0,0,0,0,0,0,0,0,0,-1,1385,918,0,0
168,106,0,0,0,0,0,0,0,0,0,-1,1392,918,0,0
175,106,0,0,0,0,0,0,0,0,0,-1,1399,918,0,0
182,106,0,0,0,0,0,0,0,0,0,-1,1406,918,0,0
189,106,0,0,0,0,0,0,0,0,0,-1,1413,918,0,0
196,106,0,0,0,0,0,0,0,0,0,-1,1420,918,0,0
203,106,0,0,0,0,0,0,0,0,0,-1,1427,918,0,0
210,106,0,0,0,0,0,0,0,0,0,-1,1434,918,0,0
217,106,0,0,0,0,0,0,0,0,0,-1,1441,918,0,0
224,106,0,0,0,0,0,0,0,0,0,-1,1448,918,0,0
231,106,0,0,0,0,0,0,0,0,0,-1,1455,918,0,0
238,106,0,0,0,0,0,0,0,0,0,-1,1462,918,0,0
245,106,0,0,0,0,0,0,0,0,0,-1,1469,918,0,0
252,106,0,0,0,0,0,0,0,0,0,-1,1476,918,0,0
259,106,0,0,0,0,0,0,0,0,0,-1,1483,918,0,0
266,106,0,0,0,0,0,0,0,0,0,-1,1490,918,0,0
273,106,0,0,0,0,0,0,0,0,0,-1,1497,918,0,0
280,106,0,0,0,0,0,0,0,0,0,-1,1504,918,0,0
287,106,0,0,0,0,0,0,0,0,0,-1,1511,918,0,0
294,106,0,0,0,0,0,0,0,0,0,-1,1518,918,0,0
301,106,0,0,0,0,0,0,0,0,0,-1,1525,918,0,0
308,106,0,0,0,0,0,0,0,0,0,-1,1532,918,0,0
315,106,0,0,0,0,0,0,0,0,0,-1,1539,918,0,0
322,106,0,0,0,0,0,0,0,0,0,-1,1546,918,0,0
329,106,0,0,0,0,0,0,0,0,0,-1,1553,918,0,0
336,106,0,0,0,0,0,0,0,0,0,-1,1560,918,0,0
343,106,0,0,0,0,0,0,0,0,0,-1,1567,918,0,0
350,106,0,0,0,0,0,0,0,0,0,-1,1574,918,0,0
357,106,0,0,0,0,0,0,0,0,0,-1,1581,918,0,0
364,106,0,0,0,0,0,0,0,0,0,-1,1588,918,0,0
371,106,0,0,0,0,0,0,0,0,0,-1,1595,918,0,0
378,106,0,0,0,0,0,0,0,0,0,-1,1602,918,0,0
385,106,0,0,0,0,0,0,0,0,0,-1,1609,918,0,0
392,106,0,0,0,0,0,0,0,0,0,-1,1616,918,0,0
399,106,0,0,0,0,0,0,0,0,0,-1,1623,918,0,0
406,106,0,0,0,0,0,0,0,0,0,-1,1630,918,0,0
413,106,0,0,0,0,0,0,0,0,0,-1,1637,918,0,0
420,106,0,0,0,0,0,0,0,0,0,-1,1644,918,0,0
427,106,0,0,0,0,0,0,0,0,0,-1,1651,918,0,0
434,106,0,0,0,0,0,0,0,0,0,-1,1658,918,0,0
441,106,0,0,0,0,0,0,0,0,0,-1,1665,918,0,0
448,106,0,0,0,0,0,0,0,0,0,-1,1672,918,0,0
455,106,0,0,0,0,0,0,0,0,0,-1,1679,918,0,0
462,106,0,0,0,0,0,0,0,0,0,-1,1686,918,0,0
469,106,0,0,0,0,0,0,0,0,0,-1,1693,918,0,0
476,106,0,0,0,0,0,0,0,0,0,-1,1700,918,0,0
483,106,0,0,0,0,0,0,0,0,0,-1,1707,918,0,0
490,106,0,0,0,0,0,0,0,0,0,-1,1714,918,0,0
497,106,0,0,0,0,0,0,0,0,0,-1,1721,918,0,0
504,106,0,0,0,0,0,0,0,0,0,-1,1728,918,0,0
511,106,0,0,0,0,0,0,0,0,0,-1,1735,918,0,0
518,106,0,0,0,0,0,0,0,0,0,-1,1742,918,0,0
525,106,0,0,0,0,0,0,0,0,0,-1,1749,918,0,0
532,106,0,0,0,0,0,0,0,0,0,-1,1756,918,0,0
539,106,0,0,0,0,0,0,0,0,0,-1,1763,918,0,0
546,106,0,0,0,0,0,0,0,0,0,-1,1770,918,0,0
553,106,0,0,0,0,0,0,0,0,0,-1,1777,918,0,0
560,106,0,0,0,0,0,0,0,0,0,-1,1784,918,0,0
567,106,0,0,0,0,0,0,0,0,0,-1,1791,918,0,0
574,106,0,0,0,0,0,0,0,0,0,-1,1798,918,0,0
581,106,0,0,0,0,0,0,0,0,0,-1,1805,918,0,0
588,106,0,0,0,0,0,0,0,0,0,-1,1812,918,0,0
595,106,0,0,0,0,0,0,0,0,0,-1,1819,918,0,0
602,106,0,0,0,0,0,0,0,0,0,-1,1826,918,0,0
609,106,0,0,0,0,0,0,0,0,0,-1,1833,918,0,0
616,106,0,0,0,0,0,0,0,0,0,-1,1840,918,0,0
623,106,0,0,0,0,0,0,0,0,0,-1,1847,918,0,0
630,106,49.0918,2.65546,0,0,0,0,0,0,0,-1,1854,918,49.0918,-2.65544
637,106,49.2372,2.77472,-0.000960899,0.00373351,0.000410518,0.00376914,-0.000996528,1.48422,0.00290253,0.0387553,1861,918,49.2372,-2.77472
644,106,49.344,2.52118,-0.000947333,0.00264781,3.06583e-06,0.00264781,-0.000947335,1.56994,0.00215166,0.0386541,1868,918,49.3439,-2.52117
651,106,49.2977,2.25983,-0.000779201,0.00175725,-0.000236962,0.00177919,-0.000801149,-1.47844,0.00152502,0.0420802,1875,918,49.2977,-2.25984
658,106,49.1926,2.34052,-0.000528764,0.00118286,-0.000155379,0.00119685,-0.000542755,-1.481,0.00102776,0.0430629,1882,918,49.1926,-2.3405
665,106,49.0751,2.54651,-0.000220238,0.000886519,5.49615e-05,0.000889241,-0.000222961,1.5213,0.000679453,0.0398659,1889,918,49.0751,-2.54651
672,106,49.0692,2.70801,1.75187e-05,0.000664642,0.000319864,0.000796058,-0.000113898,1.18097,0.000572461,0.0366156,1896,918,49.0692,-2.708
679,106,49.0801,2.67267,0.000211966,0.000494346,0.000490407,0.000863483,-0.000157171,0.925559,0.000634567,0.0306229,1903,918,49.0801,-2.67266
686,106,49.0931,2.67657,0.000319471,0.000315605,0.000544512,0.000862054,-0.000226977,0.783623,0.000663433,0.0267612,1910,918,49.0931,-2.67658
693,106,49.0424,2.64636,0.000271708,0.000244141,0.000509579,0.000767689,-0.000251841,0.771877,0.000613227,0.0329287,1917,918,49.0424,-2.64634
700,106,49.0857,2.64313,0,0,0,0,0,0,0,-1,1924,918,49.0857,-2.64313
707,106,44.4784,3.17474,0,0,0,0,0,0,0,-1,1931,918,44.4784,-3.17473
714,106,44.6761,3.70258,-0.000240317,0.000849284,0.000141661,0.0008674,-0.000258433,1.4436,0.000680959,0.0367955,1938,918,44.6762,-3.70255
721,106,44.6826,4.23322,-0.000590804,0.00114163,-0.000126428,0.00115081,-0.000599981,-1.49833,0.00102736,0.0268953,1945,918,44.6826,-4.23323
728,106,44.7552,4.74585,-0.00136902,0.0015739,-0.000552664,0.00167426,-0.00146938,-1.39115,0.00181627,0.0266876,1952,918,44.7552,-4.74585
735,106,44.7007,5.19019,-0.00251431,0.00226971,-0.00111596,0.00251722,-0.00276182,-1.35254,0.00304895,0.0239759,1959,918,44.7006,-5.19017
742,106,44.6426,5.61975,-0.00402418,0.00342085,-0.00169056,0.00378675,-0.00439008,-1.35765,0.00472517,0.0130146,1966,918,44.6426,-5.61975
749,106,44.6244,6.06433,-0.00595923,0.00499897,-0.00235948,0.00548542,-0.00644567,-1.36748,0.00689585,0.00990968,1973,918,44.6244,-6.06431
756,106,44.5586,6.49652,-0.00833177,0.0070295,-0.00302923,0.00760528,-0.00890755,-1.38296,0.00954356,0.0121645,1980,918,44.5586,-6.49654
763,106,44.451,7.01001,-0.0111987,0.00936839,-0.00352251,0.00995496,-0.0117853,-1.40579,0.0125666,0.0239109,1987,918,44.451,-7.01003
770,106,44.4111,7.24152,0,0,0,0,0,0,0,-1,1994,918,44.4111,-7.24149
777,106,44.1458,7.6109,0,0,0,0,0,0,0,-1,2001,918,44.1458,-7.61091
784,106,43.8042,7.9173,0,0,0,0,0,0,0,-1,2008,918,43.8042,-7.91727
791,106,42.7102,7.58215,0,0,0,0,0,0,0,-1,2015,918,42.7103,-7.58217
798,106,42.3765,7.3313,0,0,0,0,0,0,0,-1,2022,918,42.3766,-7.33131
805,106,0,0,0,0,0,0,0,0,0,-1,2029,918,0,0
812,106,0,0,0,0,0,0,0,0,0,-1,2036,918,0,0
-700,99,0,0,0,0,0,0,0,0,0,-1,524,925,0,0
-693,99,0,0,0,0,0,0,0,0,0,-1,531,925,0,0
-686,99,0,0,0,0,0,0,0,0,0,-1,538,925,0,0
-679,99,-33.5992,6.37292,0,0,0,0,0,0,0,-1,545,925,-33.5992,-6.37291
-672,99,-33.6556,6.17773,0,0,0,0,0,0,0,-1,552,925,-33.6557,-6.17771
-665,99,-33.6384,5.96173,0,0,0,0,0,0,0,-1,559,925,-33.6384,-5.9617
-658,99,-33.5281,5.68231,-0.00750658,0.0147133,-0.0022063,0.0149303,-0.00772353,-1.47278,0.013298,0.0457323,566,925,-33.5281,-5.68231
-651,99,-33.5612,5.34314,-0.00638077,0.0130623,-0.000984464,0.013112,-0.00643049,-1.52034,0.0115006,0.048042,573,925,-33.5611,-5.34312
-644,99,-33.5613,4.99384,-0.00546175,0.0111775,8.6523e-05,0.0111779,-0.0054622,1.5656,0.00979429,0.0455495,580,925,-33.5614,-4.99381
-637,99,-33.5203,4.60547,-0.00473705,0.00912313,0.00097009,0.0091907,-0.00480462,1.50126,0.0082114,0.0304765,587,925,-33.5203,-4.60547
-630,99,-33.6776,4.17249,-0.00380297,0.00732345,0.00171315,0.00758125,-0.00406077,1.42143,0.00682319,0.0162318,594,925,-33.6775,-4.17251
-623,99,-33.8145,3.70587,-0.00365413,0.00547256,0.00210436,0.00593439,-0.00411597,1.35476,0.00583415,0.0107767,601,925,-33.8145,-3.70587
-616,99,-33.8307,3.30719,-0.00403676,0.00369392,0.00200479,0.00418289,-0.00452573,1.33157,0.00502922,0.0121078,608,925,-33.8307,-3.30718
-609,99,-33.8277,2.93829,-0.00507982,0.00147049,0.00169662,0.00188385,-0.00549318,1.33181,0.0044258,0.0120191,615,925,-33.8277,-2.93832
-602,99,-33.8181,2.57294,-0.00616288,0.000388882,0.00118019,0.000594991,-0.00636899,1.3979,0.00445758,0.0154474,622,925,-33.818,-2.57294
-595,99,-33.9186,2.20123,-0.00671387,-0.000183326,0.000607796,-0.00012724,-0.00676995,1.47878,0.00447149,0.020056,629,925,-33.9186,-2.20125
-588,99,-33.9263,1.77728,-0.00661794,-0.000535971,0.000171315,-0.000531149,-0.00662276,1.54266,0.0042492,0.021847,636,925,-33.9263,-1.77727
-581,99,-33.8621,1.2691,-0.00676754,-0.00049232,8.05476e-05,-0.000491287,-0.00676858,1.55796,0.00435786,0.0163157,643,925,-33.862,-1.26911
-574,99,-33.8825,0.766846,0,0,0,0,0,0,0,-1,650,925,-33.8825,-0.766849
-567,99,-36.1473,0.924744,0,0,0,0,0,0,0,-1,657,925,-36.1474,-0.92473
-560,99,-36.6265,0.948608,0,0,0,0,0,0,0,-1,664,925,-36.6265,-0.948582
-553,99,-36.7035,0.845093,-0.00714802,-0.000296848,-4.21911e-05,-0.000296589,-0.00714828,-1.56464,0.0046698,0.0384475,671,925,-36.7035,-0.845081
-546,99,-36.6624,0.75177,-0.00697447,5.41286e-05,0.000207086,6.02247e-05,-0.00698057,1.54137,0.00467392,0.0430474,678,925,-36.6624,-0.751756
-539,99,-36.5645,0.660889,-0.00653528,0.000540585,0.000675088,0.000604417,-0.00659911,1.47652,0.00461409,0.0396767,685,925,-36.5645,-0.660873
-532,99,-36.5795,0.777527,-0.00607532,0.00112249,0.00149205,0.00141952,-0.00637235,1.37429,0.00479201,0.0407074,692,925,-36.5795,-0.777549
-525,99,-36.766,0.920471,-0.00673124,0.00178675,0.00248789,0.00246016,-0.00740465,1.30645,0.00592913,0.041282,699,925,-36.766,-0.920462
-518,99,-36.9343,1.03546,-0.0108606,0.00241004,0.00306033,0.00308178,-0.0115324,1.35473,0.00889527,0.0405503,706,925,-36.9343,-1.03544
-511,99,0,0,0,0,0,0,0,0,0,-1,713,925,0,0
-504,99,0,0,0,0,0,0,0,0,0,-1,720,925,0,0
-497,99,0,0,0,0,0,0,0,0,0,-1,727,925,0,0
-490,99,0,0,0,0,0,0,0,0,0,-1,734,925,0,0
-483,99,0,0,0,0,0,0,0,0,0,-1,741,925,0,0
-476,99,0,0,0,0,0,0,0,0,0,-1,748,925,0,0
-469,99,0,0,0,0,0,0,0,0,0,-1,755,925,0,0
-462,99,0,0,0,0,0,0,0,0,0,-1,762,925,0,0
-455,99,0,0,0,0,0,0,0,0,0,-1,769,925,0,0
-448,99,0,0,0,0,0,0,0,0,0,-1,776,925,0,0
-441,99,0,0,0,0,0,0,0,0,0,-1,783,925,0,0
-434,99,0,0,0,0,0,0,0,0,0,-1,790,925,0,0
-427,99,0,0,0,0,0,0,0,0,0,-1,797,925,0,0
-420,99,0,0,0,0,0,0,0,0,0,-1,804,925,0,0
-413,99,0,0,0,0,0,0,0,0,0,-1,811,925,0,0
-406,99,0,0,0,0,0,0,0,0,0,-1,818,925,0,0
-399,99,0,0,0,0,0,0,0,0,0,-1,825,925,0,0
-392,99,0,0,0,0,0,0,0,0,0,-1,832,925,0,0
-385,99,0,0,0,0,0,0,0,0,0,-1,839,925,0,0
-378,99,0,0,0,0,0,0,0,0,0,-1,846,925,0,0
-371,99,0,0,0,0,0,0,0,0,0,-1,853,925,0,0
-364,99,0,0,0,0,0,0,0,0,0,-1,860,925,0,0
-357,99,0,0,0,0,0,0,0,0,0,-1,867,925,0,0
-350,99,0,0,0,0,0,0,0,0,0,-1,874,925,0,0
-343,99,0,0,0,0,0,0,0,0,0,-1,881,925,0,0
-336,99,0,0,0,0,0,0,0,0,0,-1,888,925,0,0
-329,99,0,0,0,0,0,0,0,0,0,-1,895,925,0,0
-322,99,0,0,0,0,0,0,0,0,0,-1,902,925,0,0
-315,99,0,0,0,0,0,0,0,0,0,-1,909,925,0,0
-308,99,0,0,0,0,0,0,0,0,0,-1,916,925,0,0
-301,99,0,0,0,0,0,0,0,0,0,-1,923,925,0,0
-294,99,0,0,0,0,0,0,0,0,0,-1,930,925,0,0
-287,99,0,0,0,0,0,0,0,0,0,-1,937,925,0,0
-280,99,0,0,0,0,0,0,0,0,0,-1,944,925,0,0
-273,99,0,0,0,0,0,0,0,0,0,-1,951,925,0,0
-266,99,0,0,0,0,0,0,0,0,0,-1,958,925,0,0
-259,99,0,0,0,0,0,0,0,0,0,-1,965,925,0,0
-252,99,0,0,0,0,0,0,0,0,0,-1,972,925,0,0
-245,99,0,0,0,0,0,0,0,0,0,-1,979,925,0,0
-238,99,0,0,0,0,0,0,0,0,0,-1,986,925,0,0
-231,99,0,0,0,0,0,0,0,0,0,-1,993,925,0,0
-224,99,0,0,0,0,0,0,0,0,0,-1,1000,925,0,0
-217,99,0,0,0,0,0,0,0,0,0,-1,1007,925,0,0
-210,99,0,0,0,0,0,0,0,0,0,-1,1014,925,0,0
-203,99,0,0,0,0,0,0,0,0,0,-1,1021,925,0,0
-196,99,0,0,0,0,0,0,0,0,0,-1,1028,925,0,0
-189,99,0,0,0,0,0,0,0,0,0,-1,1035,925,0,0
-182,99,0,0,0,0,0,0,0,0,0,-1,1042,925,0,0
-175,99,0,0,0,0,0,0,0,0,0,-1,1049,925,0,0
-168,99,0,0,0,0,0,0,0,0,0,-1,1056,925,0,0
-161,99,0,0,0,0,0,0,0,0,0,-1,1063,925,0,0
-154,99,0,0,0,0,0,0,0,0,0,-1,1070,925,0,0
-147,99,0,0,0,0,0,0,0,0,0,-1,1077,925,0,0
-140,99,0,0,0,0,0,0,0,0,0,-1,1084,925,0,0
-133,99,0,0,0,0,0,0,0,0,0,-1,1091,925,0,0
-126,99,0,0,0,0,0,0,0,0,0,-1,1098,925,0,0
-119,99,0,0,0,0,0,0,0,0,0,-1,1105,925,0,0
-112,99,0,0,0,0,0,0,0,0,0,-1,1112,925,0,0
-105,99,0,0,0,0,0,0,0,0,0,-1,1119,925,0,0
-98,99,0,0,0,0,0,0,0,0,0,-1,1126,925,0,0
-91,99,0,0,0,0,0,0,0,0,0,-1,1133,925,0,0
-84,99,0,0,0,0,0,0,0,0,0,-1,1140,925,0,0
-77,99,0,0,0,0,0,0,0,0,0,-1,1147,925,0,0
-70,99,0,0,0,0,0,0,0,0,0,-1,1154,925,0,0
-63,99,0,0,0,0,0,0,0,0,0,-1,1161,925,0,0
-56,99,0,0,0,0,0,0,0,0,0,-1,1168,925,0,0
-49,99,0,0,0,0,0,0,0,0,0,-1,1175,925,0,0
-42,99,0,0,0,0,0,0,0,0,0,-1,1182,925,0,0
-35,99,0,0,0,0,0,0,0,0,0,-1,1189,925,0,0
-28,99,0,0,0,0,0,0,0,0,0,-1,1196,925,0,0
-21,99,0,0,0,0,0,0,0,0,0,-1,1203,925,0,0
-14,99,0,0,0,0,0,0,0,0,0,-1,1210,925,0,0
-7,99,0,0,0,0,0,0,0,0,0,-1,1217,925,0,0
0,99,0,0,0,0,0,0,0,0,0,-1,1224,925,0,0
7,99,0,0,0,0,0,0,0,0,0,-1,1231,925,0,0
14,99,0,0,0,0,0,0,0,0,0,-1,1238,925,0,0
21,99,0,0,0,0,0,0,0,0,0,-1,1245,925,0,0
28,99,0,0,0,0,0,0,0,0,0,-1,1252,925,0,0
35,99,0,0,0,0,0,0,0,0,0,-1,1259,925,0,0
42,99,0,0,0,0,0,0,0,0,0,-1,1266,925,0,0
49,99,0,0,0,0,0,0,0,0,0,-1,1273,925,0,0
56,99,0,0,0,0,0,0,0,0,0,-1,1280,925,0,0
63,99,0,0,0,0,0,0,0,0,0,-1,1287,925,0,0
70,99,0,0,0,0,0,0,0,0,0,-1,1294,925,0,0
77,99,0,0,0,0,0,0,0,0,0,-1,1301,925,0,0
84,99,0,0,0,0,0,0,0,0,0,-1,1308,925,0,0
91,99,0,0,0,0,0,0,0,0,0,-1,1315,925,0,0
98,99,0,0,0,0,0,0,0,0,0,-1,1322,925,0,0
105,99,0,0,0,0,0,0,0,0,0,-1,1329,925,0,0
112,99,0,0,0,0,0,0,0,0,0,-1,1336,925,0,0
119,99,0,0,0,0,0,0,0,0,0,-1,1343,925,0,0
126,99,0,0,0,0,0,0,0,0,0,-1,1350,925,0,0
133,99,0,0,0,0,0,0,0,0,0,-1,1357,925,0,0
140,99,0,0,0,0,0,0,0,0,0,-1,1364,925,0,0
147,99,0,0,0,0,0,0,0,0,0,-1,1371,925,0,0
154,99,0,0,0,0,0,0,0,0,0,-1,1378,925,0,0
161,99,0,0,0,0,0,0,0,0,0,-1,1385,925,0,0
168,99,0,0,0,0,0,0,0,0,0,-1,1392,925,0,0
175,99,0,0,0,0,0,0,0,0,0,-1,1399,925,0,0
182,99,0,0,0,0,0,0,0,0,0,-1,1406,925,0,0
189,99,0,0,0,0,0,0,0,0,0,-1,1413,925,0,0
196,99,0,0,0,0,0,0,0,0,0,-1,1420,925,0,0
203,99,0,0,0,0,0,0,0,0,0,-1,1427,925,0,0
210,99,0,0,0,0,0,0,0,0,0,-1,1434,925,0,0
217,99,0,0,0,0,0,0,0,0,0,-1,1441,925,0,0
224,99,0,0,0,0,0,0,0,0,0,-1,1448,925,0,0
231,99,0,0,0,0,0,0,0,0,0,-1,1455,925,0,0
238,99,0,0,0,0,0,0,0,0,0,-1,1462,925,0,0
245,99,0,0,0,0,0,0,0,0,0,-1,1469,925,0,0
252,99,0,0,0,0,0,0,0,0,0,-1,1476,925,0,0
259,99,0,0,0,0,0,0,0,0,0,-1,1483,925,0,0
266,99,0,0,0,0,0,0,0,0,0,-1,1490,925,0,0
273,99,0,0,0,0,0,0,0,0,0,-1,1497,925,0,0
280,99,0,0,0,0,0,0,0,0,0,-1,1504,925,0,0
287,99,0,0,0,0,0,0,0,0,0,-1,1511,925,0,0
294,99,0,0,0,0,0,0,0,0,0,-1,1518,925,0,0
301,99,0,0,0,0,0,0,0,0,0,-1,1525,925,0,0
308,99,0,0,0,0,0,0,0,0,0,-1,1532,925,0,0
315,99,0,0,0,0,0,0,0,0,0,-1,1539,925,0,0
322,99,0,0,0,0,0,0,0,0,0,-1,1546,925,0,0
329,99,0,0,0,0,0,0,0,0,0,-1,1553,925,0,0
336,99,0,0,0,0,0,0,0,0,0,-1,1560,925,0,0
343,99,0,0,0,0,0,0,0,0,0,-1,1567,925,0,0
350,99,0,0,0,0,0,0,0,0,0,-1,1574,925,0,0
357,99,0,0,0,0,0,0,0,0,0,-1,1581,925,0,0
364,99,0,0,0,0,0,0,0,0,0,-1,1588,925,0,0
371,99,0,0,0,0,0,0,0,0,0,-1,1595,925,0,0
378,99,0,0,0,0,0,0,0,0,0,-1,1602,925,0,0
385,99,0,0,0,0,0,0,0,0,0,-1,1609,925,0,0
392,99,0,0,0,0,0,0,0,0,0,-1,1616,925,0,0
399,99,0,0,0,0,0,0,0,0,0,-1,1623,925,0,0
406,99,0,0,0,0,0,0,0,0,0,-1,1630,925,0,0
413,99,0,0,0,0,0,0,0,0,0,-1,1637,925,0,0
420,99,0,0,0,0,0,0,0,0,0,-1,1644,925,0,0
427,99,0,0,0,0,0,0,0,0,0,-1,1651,925,0,0
434,99,0,0,0,0,0,0,0,0,0,-1,1658,925,0,0
441,99,0,0,0,0,0,0,0,0,0,-1,1665,925,0,0
448,99,0,0,0,0,0,0,0,0,0,-1,1672,925,0,0
455,99,0,0,0,0,0,0,0,0,0,-1,1679,925,0,0
462,99,0,0,0,0,0,0,0,0,0,-1,1686,925,0,0
469,99,0,0,0,0,0,0,0,0,0,-1,1693,925,0,0
476,99,0,0,0,0,0,0,0,0,0,-1,1700,925,0,0
483,99,0,0,0,0,0,0,0,0,0,-1,1707,925,0,0
490,99,0,0,0,0,0,0,0,0,0,-1,1714,925,0,0
497,99,0,0,0,0,0,0,0,0,0,-1,1721,925,0,0
504,99,0,0,0,0,0,0,0,0,0,-1,1728,925,0,0
511,99,0,0,0,0,0,0,0,0,0,-1,1735,925,0,0
518,99,0,0,0,0,0,0,0,0,0,-1,1742,925,0,0
525,99,0,0,0,0,0,0,0,0,0,-1,1749,925,0,0
532,99,0,0,0,0,0,0,0,0,0,-1,1756,925,0,0
539,99,0,0,0,0,0,0,0,0,0,-1,1763,925,0,0
546,99,0,0,0,0,0,0,0,0,0,-1,1770,925,0,0
553,99,0,0,0,0,0,0,0,0,0,-1,1777,925,0,0
560,99,0,0,0,0,0,0,0,0,0,-1,1784,925,0,0
567,99,0,0,0,0,0,0,0,0,0,-1,1791,925,0,0
574,99,0,0,0,0,0,0,0,0,0,-1,1798,925,0,0
581,99,0,0,0,0,0,0,0,0,0,-1,1805,925,0,0
588,99,0,0,0,0,0,0,0,0,0,-1,1812,925,0,0
595,99,0,0,0,0,0,0,0,0,0,-1,1819,925,0,0
602,99,0,0,0,0,0,0,0,0,0,-1,1826,925,0,0
609,99,0,0,0,0,0,0,0,0,0,-1,1833,925,0,0
616,99,0,0,0,0,0,0,0,0,0,-1,1840,925,0,0
623,99,0,0,0,0,0,0,0,0,0,-1,1847,925,0,0
630,99,0,0,0,0,0,0,0,0,0,-1,1854,925,0,0
637,99,49.2098,2.59918,-0.0020009,0.00427777,0.000825815,0.00438457,-0.0021077,1.44218,0.00382438,0.042806,1861,925,49.2099,-2.59917
644,99,49.1884,2.71539,-0.00194126,0.00311512,0.000335587,0.0031373,-0.00196344,1.50481,0.00297079,0.0393614,1868,925,49.1883,-2.7154
651,99,49.1565,2.55542,-0.00161609,0.00219397,-3.82626e-05,0.00219435,-0.00161648,-1.56076,0.0022086,0.0407939,1875,925,49.1565,-2.55539
658,99,49.1013,2.72589,-0.00116268,0.00157269,-9.72959e-05,0.00157614,-0.00116613,-1.53529,0.00158914,0.0424258,1882,925,49.1013,-2.72591
665,99,49.0487,2.79541,-0.000660023,0.00124594,4.02319e-05,0.00124679,-0.000660872,1.5497,0.00111857,0.0409185,1889,925,49.0487,-2.79544
672,99,49.0476,2.81189,-0.000318423,0.00097596,0.000277234,0.00103284,-0.000375302,1.36844,0.000842017,0.0380077,1896,925,49.0476,-2.81191
679,99,48.9862,2.7735,-5.43351e-05,0.000736759,0.000478202,0.000961804,-0.00027938,1.13094,0.000751836,0.0330632,1903,925,48.9862,-2.77351
686,99,48.9961,2.71344,0.000124683,0.000498107,0.000553066,0.000895127,-0.000272337,0.948189,0.000705281,0.026957,1910,925,48.9961,-2.71346
693,99,49.047,2.69019,0.000145712,0.000375501,0.00051114,0.0007845,-0.000263287,0.895951,0.000629394,0.0287736,1917,925,49.047,-2.69017
700,99,49.0696,2.74823,0,0,0,0,0,0,0,-1,1924,925,49.0696,-2.74825
707,99,45.3309,3.22766,0,0,0,0,0,0,0,-1,1931,925,45.3309,-3.22764
714,99,45.2858,3.78564,-0.000429634,0.000938114,9.08035e-05,0.000944116,-0.000435636,1.50479,0.000814432,0.0441092,1938,925,45.2857,-3.78562
721,99,45.1306,4.20349,-0.000851795,0.00122074,-0.000144589,0.00123078,-0.000861833,-1.50148,0.00121442,0.0304647,1945,925,45.1306,-4.20349
728,99,45.1945,4.70142,-0.00167988,0.00166213,-0.000566214,0.00175545,-0.0017732,-1.40744,0.00203728,0.0240798,1952,925,45.1945,-4.70142
735,99,45.1693,5.18433,-0.00287054,0.0024197,-0.00110923,0.00264287,-0.0030937,-1.37226,0.00331542,0.0199747,1959,925,45.1693,-5.18434
742,99,45.115,5.62683,-0.00441843,0.00368661,-0.00164454,0.00400758,-0.0047394,-1.37804,0.00505596,0.0137535,1966,925,45.115,-5.62681
749,99,45.0834,6.04901,-0.00633917,0.00550583,-0.00229274,0.00593413,-0.00676746,-1.38612,0.00733853,0.0122733,1973,925,45.0834,-6.04899
756,99,45.0372,6.43829,-0.00853165,0.00802287,-0.00291746,0.00852197,-0.00903076,-1.40136,0.0101355,0.0131029,1980,925,45.0373,-6.43829
763,99,44.9851,6.86115,-0.0111792,0.01093,-0.00334556,0.0114252,-0.0116744,-1.42386,0.0133368,0.0149571,1987,925,44.9851,-6.86112
770,99,44.87,7.27319,0,0,0,0,0,0,0,-1,1994,925,44.87,-7.27321
777,99,44.5815,7.59338,-0.0176268,0.0177172,-0.0041801,0.0182049,-0.0181145,-1.45466,0.020969,0.0404358,2001,925,44.5816,-7.59336
784,99,44.29,7.90778,-0.0210287,0.0215627,-0.00446656,0.0220261,-0.021492,-1.46742,0.0251258,0.0457282,2008,925,44.2899,-7.90778
791,99,44.0027,7.8559,0,0,0,0,0,0,0,-1,2015,925,44.0027,-7.8559
798,99,43.7197,7.77515,0,0,0,0,0,0,0,-1,2022,925,43.7196,-7.77516
805,99,0,0,0,0,0,0,0,0,0,-1,2029,925,0,0
812,99,0,0,0,0,0,0,0,0,0,-1,2036,925,0,0
-700,92,0,0,0,0,0,0,0,0,0,-1,524,932,0,0
-693,92,0,0,0,0,0,0,0,0,0,-1,531,932,0,0
-686,92,-33.6139,6.25543,-0.016453,0.0159568,-0.00980521,0.0186924,-0.0191886,-1.29872,0.0218712,0.0431544,538,932,-33.6139,-6.25545
-679,92,-33.6574,6.35645,-0.0141404,0.0158307,-0.00766026,0.017675,-0.0159848,-1.33452,0.0194417,0.0470983,545,932,-33.6574,-6.35645
-672,92,-33.7501,6.09479,0,0,0,0,0,0,0,-1,552,932,-33.7501,-6.09479
-665,92,-33.7566,5.88007,-0.0109887,0.0144455,-0.00377947,0.0149952,-0.0115384,-1.42636,0.0153625,0.0472205,559,932,-33.7566,-5.88008
-658,92,-33.8745,5.75946,-0.00966055,0.0133266,-0.00217727,0.013531,-0.00986495,-1.47719,0.0135628,0.0442465,566,932,-33.8745,-5.75948
-651,92,-33.8599,5.3028,-0.00838114,0.0119777,-0.000788988,0.0120082,-0.00841167,-1.53212,0.0118502,0.0439475,573,932,-33.8599,-5.3028
-644,92,-34.0607,4.86334,-0.00718712,0.0104469,0.000364397,0.0104544,-0.00719464,1.55014,0.0102475,0.0424012,580,932,-34.0607,-4.86335
-637,92,-34.1044,4.48254,-0.00616344,0.00863225,0.00125115,0.0087373,-0.00626849,1.48703,0.0087026,0.0274814,587,932,-34.1044,-4.48256
-630,92,-34.1451,4.07159,-0.00501078,0.00703235,0.0019184,0.00733055,-0.00530898,1.41659,0.00732849,0.0143618,594,932,-34.1451,-4.07158
-623,92,-34.2241,3.69067,-0.00469393,0.00536533,0.00216236,0.00581046,-0.00513906,1.36778,0.00632567,0.00947466,601,932,-34.2241,-3.69066
-616,92,-34.2426,3.32513,-0.00495762,0.00365903,0.00193831,0.00407497,-0.00537356,1.35941,0.00547226,0.00876123,608,932,-34.2426,-3.32511
-609,92,-34.2668,2.95728,-0.0059235,0.00170319,0.00145373,0.00197089,-0.00619121,1.38869,0.00491789,0.00925059,615,932,-34.2669,-2.95725
-602,92,-34.2442,2.56848,-0.00695065,0.000637075,0.000817264,0.000724103,-0.00703767,1.46471,0.00495083,0.010904,622,932,-34.2442,-2.56849
-595,92,-34.1687,2.12329,-0.00751079,-5.14312e-05,0.000249018,-4.31277e-05,-0.00751909,1.53746,0.00499841,0.0209679,629,932,-34.1687,-2.12328
-588,92,-34.2217,1.7757,-0.00749696,-0.000529246,-0.000197177,-0.000523671,-0.00750253,-1.54253,0.00483659,0.0237876,636,932,-34.2217,-1.77572
-581,92,-34.4691,1.36133,-0.00768055,-0.000594384,-0.000339011,-0.000578202,-0.00769673,-1.5231,0.00494969,0.0247302,643,932,-34.469,-1.36136
-574,92,-35.1392,0.888367,-0.00783934,-0.000535878,-0.000557142,-0.000493621,-0.0078816,-1.4951,0.00509783,0.0461474,650,932,-35.1392,-0.888368
-567,92,-36.0911,0.438904,0,0,0,0,0,0,0,-1,657,932,-36.091,-0.438916
-560,92,-36.5771,0.899536,-0.00797373,-0.000433034,-0.000649003,-0.000377584,-0.00802918,-1.48556,0.00523147,0.0380727,664,932,-36.5771,-0.899511
-553,92,-36.6652,1.09271,-0.00774555,-0.000151033,-0.000547465,-0.000111771,-0.00778481,-1.4992,0.00515302,0.0398095,671,932,-36.6652,-1.09272
-546,92,-36.7335,0.848816,-0.00722226,0.00030698,-0.000293148,0.000318376,-0.00723366,-1.53194,0.00493199,0.0439058,678,932,-36.7335,-0.848842
-539,92,-36.8266,0.696899,-0.0063352,0.00092217,0.000142395,0.000924963,-0.006338,1.55119,0.004565,0.038375,685,932,-36.8266,-0.696893
-532,92,-36.8179,0.754944,-0.00531138,0.00166881,0.000798547,0.001759,-0.00540157,1.45833,0.00430877,0.0408436,692,932,-36.8178,-0.754952
-525,92,-36.887,0.918335,-0.005628,0.00266776,0.00133125,0.00287616,-0.0058364,1.41552,0.00512606,0.0412252,699,932,-36.887,-0.918334
-518,92,-36.9525,1.13751,-0.0103115,0.00386615,0.001264,0.00397796,-0.0104233,1.48257,0.00858769,0.0400421,706,932,-36.9524,-1.13748
-511,92,0,0,0,0,0,0,0,0,0,-1,713,932,0,0
-504,92,0,0,0,0,0,0,0,0,0,-1,720,932,0,0
-497,92,0,0,0,0,0,0,0,0,0,-1,727,932,0,0
-490,92,0,0,0,0,0,0,0,0,0,-1,734,932,0,0
-483,92,0,0,0,0,0,0,0,0,0,-1,741,932,0,0
-476,92,0,0,0,0,0,0,0,0,0,-1,748,932,0,0
-469,92,0,0,0,0,0,0,0,0,0,-1,755,932,0,0
-462,92,0,0,0,0,0,0,0,0,0,-1,762,932,0,0
-455,92,0,0,0,0,0,0,0,0,0,-1,769,932,0,0
-448,92,0,0,0,0,0,0,0,0,0,-1,776,932,0,0
-441,92,0,0,0,0,0,0,0,0,0,-1,783,932,0,0
-434,92,0,0,0,0,0,0,0,0,0,-1,790,932,0,0
-427,92,0,0,0,0,0,0,0,0,0,-1,797,932,0,0
-420,92,0,0,0,0,0,0,0,0,0,-1,804,932,0,0
-413,92,0,0,0,0,0,0,0,0,0,-1,811,932,0,0
-406,92,0,0,0,0,0,0,0,0,0,-1,818,932,0,0
-399,92,0,0,0,0,0,0,0,0,0,-1,825,932,0,0
-392,92,0,0,0,0,0,0,0,0,0,-1,832,932,0,0
-385,92,0,0,0,0,0,0,0,0,0,-1,839,932,0,0
-378,92,0,0,0,0,0,0,0,0,0,-1,846,932,0,0
-371,92,0,0,0,0,0,0,0,0,0,-1,853,932,0,0
-364,92,0,0,0,0,0,0,0,0,0,-1,860,932,0,0
-357,92,0,0,0,0,0,0,0,0,0,-1,867,932,0,0
-350,92,0,0,0,0,0,0,0,0,0,-1,874,932,0,0
-343,92,0,0,0,0,0,0,0,0,0,-1,881,932,0,0
-336,92,0,0,0,0,0,0,0,0,0,-1,888,932,0,0
-329,92,0,0,0,0,0,0,0,0,0,-1,895,932,0,0
-322,92,0,0,0,0,0,0,0,0,0,-1,902,932,0,0
-315,92,0,0,0,0,0,0,0,0,0,-1,909,932,0,0
-308,92,0,0,0,0,0,0,0,0,0,-1,916,932,0,0
-301,92,0,0,0,0,0,0,0,0,0,-1,923,932,0,0
-294,92,0,0,0,0,0,0,0,0,0,-1,930,932,0,0
-287,92,0,0,0,0,0,0,0,0,0,-1,937,932,0,0
-280,92,0,0,0,0,0,0,0,0,0,-1,944,932,0,0
-273,92,0,0,0,0,0,0,0,0,0,-1,951,932,0,0
-266,92,0,0,0,0,0,0,0,0,0,-1,958,932,0,0
-259,92,0,0,0,0,0,0,0,0,0,-1,965,932,0,0
-252,92,0,0,0,0,0,0,0,0,0,-1,972,932,0,0
-245,92,0,0,0,0,0,0,0,0,0,-1,979,932,0,0
-238,92,0,0,0,0,0,0,0,0,0,-1,986,932,0,0
-231,92,0,0,0,0,0,0,0,0,0,-1,993,932,0,0
-224,92,0,0,0,0,0,0,0,0,0,-1,1000,932,0,0
-217,92,0,0,0,0,0,0,0,0,0,-1,1007,932,0,0
-210,92,0,0,0,0,0,0,0,0,0,-1,1014,932,0,0
-203,92,0,0,0,0,0,0,0,0,0,-1,1021,932,0,0
-196,92,0,0,0,0,0,0,0,0,0,-1,1028,932,0,0
-189,92,0,0,0,0,0,0,0,0,0,-1,1035,932,0,0
-182,92,0,0,0,0,0,0,0,0,0,-1,1042,932,0,0
-175,92,0,0,0,0,0,0,0,0,0,-1,1049,932,0,0
-168,92,0,0,0,0,0,0,0,0,0,-1,1056,932,0,0
-161,92,0,0,0,0,0,0,0,0,0,-1,1063,932,0,0
-154,92,0,0,0,0,0,0,0,0,0,-1,1070,932,0,0
-147,92,0,0,0,0,0,0,0,0,0,-1,1077,932,0,0
-140,92,0,0,0,0,0,0,0,0,0,-1,1084,932,0,0
-133,92,0,0,0,0,0,0,0,0,0,-1,1091,932,0,0
-126,92,0,0,0,0,0,0,0,0,0,-1,1098,932,0,0
-119,92,0,0,0,0,0,0,0,0,0,-1,1105,932,0,0
-112,92,0,0,0,0,0,0,0,0,0,-1,1112,932,0,0
-105,92,0,0,0,0,0,0,0,0,0,-1,1119,932,0,0
-98,92,0,0,0,0,0,0,0,0,0,-1,1126,932,0,0
-91,92,0,0,0,0,0,0,0,0,0,-1,1133,932,0,0
-84,92,0,0,0,0,0,0,0,0,0,-1,1140,932,0,0
-77,92,0,0,0,0,0,0,0,0,0,-1,1147,932,0,0
-70,92,0,0,0,0,0,0,0,0,0,-1,1154,932,0,0
-63,92,0,0,0,0,0,0,0,0,0,-1,1161,932,0,0
-56,92,0,0,0,0,0,0,0,0,0,-1,1168,932,0,0
-49,92,0,0,0,0,0,0,0,0,0,-1,1175,932,0,0
-42,92,0,0,0,0,0,0,0,0,0,-1,1182,932,0,0
-35,92,0,0,0,0,0,0,0,0,0,-1,1189,932,0,0
-28,92,0,0,0,0,0,0,0,0,0,-1,1196,932,0,0
-21,92,0,0,0,0,0,0,0,0,0,-1,1203,932,0,0
-14,92,0,0,0,0,0,0,0,0,0,-1,1210,932,0,0
-7,92,0,0,0,0,0,0,0,0,0,-1,1217,932,0,0
0,92,0,0,0,0,0,0,0,0,0,-1,1224,932,0,0
7,92,0,0,0,0,0,0,0,0,0,-1,1231,932,0,0
14,92,0,0,0,0,0,0,0,0,0,-1,1238,932,0,0
21,92,0,0,0,0,0,0,0,0,0,-1,1245,932,0,0
28,92,0,0,0,0,0,0,0,0,0,-1,1252,932,0,0
35,92,0,0,0,0,0,0,0,0,0,-1,1259,932,0,0
42,92,0,0,0,0,0,0,0,0,0,-1,1266,932,0,0
49,92,0,0,0,0,0,0,0,0,0,-1,1273,932,0,0
56,92,0,0,0,0,0,0,0,0,0,-1,1280,932,0,0
63,92,0,0,0,0,0,0,0,0,0,-1,1287,932,0,0
70,92,0,0,0,0,0,0,0,0,0,-1,1294,932,0,0
77,92,0,0,0,0,0,0,0,0,0,-1,1301,932,0,0
84,92,0,0,0,0,0,0,0,0,0,-1,1308,932,0,0
91,92,0,0,0,0,0,0,0,0,0,-1,1315,932,0,0
98,92,0,0,0,0,0,0,0,0,0,-1,1322,932,0,0
105,92,0,0,0,0,0,0,0,0,0,-1,1329,932,0,0
112,92,0,0,0,0,0,0,0,0,0,-1,1336,932,0,0
119,92,0,0,0,0,0,0,0,0,0,-1,1343,932,0,0
126,92,0,0,0,0,0,0,0,0,0,-1,1350,932,0,0
133,92,0,0,0,0,0,0,0,0,0,-1,1357,932,0,0
140,92,0,0,0,0,0,0,0,0,0,-1,1364,932,0,0
147,92,0,0,0,0,0,0,0,0,0,-1,1371,932,0,0
154,92,0,0,0,0,0,0,0,0,0,-1,1378,932,0,0
161,92,0,0,0,0,0,0,0,0,0,-1,1385,932,0,0
168,92,0,0,0,0,0,0,0,0,0,-1,1392,932,0,0
175,92,0,0,0,0,0,0,0,0,0,-1,1399,932,0,0
182,92,0,0,0,0,0,0,0,0,0,-1,1406,932,0,0
189,92,0,0,0,0,0,0,0,0,0,-1,1413,932,0,0
196,92,0,0,0,0,0,0,0,0,0,-1,1420,932,0,0
203,92,0,0,0,0,0,0,0,0,0,-1,1427,932,0,0
210,92,0,0,0,0,0,0,0,0,0,-1,1434,932,0,0
217,92,0,0,0,0,0,0,0,0,0,-1,1441,932,0,0
224,92,0,0,0,0,0,0,0,0,0,-1,1448,932,0,0
231,92,0,0,0,0,0,0,0,0,0,-1,1455,932,0,0
238,92,0,0,0,0,0,0,0,0,0,-1,1462,932,0,0
245,92,0,0,0,0,0,0,0,0,0,-1,1469,932,0,0
252,92,0,0,0,0,0,0,0,0,0,-1,1476,932,0,0
259,92,0,0,0,0,0,0,0,0,0,-1,1483,932,0,0
266,92,0,0,0,0,0,0,0,0,0,-1,1490,932,0,0
273,92,0,0,0,0,0,0,0,0,0,-1,1497,932,0,0
280,92,0,0,0,0,0,0,0,0,0,-1,1504,932,0,0
287,92,0,0,0,0,0,0,0,0,0,-1,1511,932,0,0
294,92,0,0,0,0,0,0,0,0,0,-1,1518,932,0,0
301,92,0,0,0,0,0,0,0,0,0,-1,1525,932,0,0
308,92,0,0,0,0,0,0,0,0,0,-1,1532,932,0,0
315,92,0,0,0,0,0,0,0,0,0,-1,1539,932,0,0
322,92,0,0,0,0,0,0,0,0,0,-1,1546,932,0,0
329,92,0,0,0,0,0,0,0,0,0,-1,1553,932,0,0
336,92,0,0,0,0,0,0,0,0,0,-1,1560,932,0,0
343,92,0,0,0,0,0,0,0,0,0,-1,1567,932,0,0
350,92,0,0,0,0,0,0,0,0,0,-1,1574,932,0,0
357,92,0,0,0,0,0,0,0,0,0,-1,1581,932,0,0
364,92,0,0,0,0,0,0,0,0,0,-1,1588,932,0,0
371,92,0,0,0,0,0,0,0,0,0,-1,1595,932,0,0
378,92,0,0,0,0,0,0,0,0,0,-1,1602,932,0,0
385,92,0,0,0,0,0,0,0,0,0,-1,1609,932,0,0
392,92,0,0,0,0,0,0,0,0,0,-1,1616,932,0,0
399,92,0,0,0,0,0,0,0,0,0,-1,1623,932,0,0
406,92,0,0,0,0,0,0,0,0,0,-1,1630,932,0,0
413,92,0,0,0,0,0,0,0,0,0,-1,1637,932,0,0
420,92,0,0,0,0,0,0,0,0,0,-1,1644,932,0,0
427,92,0,0,0,0,0,0,0,0,0,-1,1651,932,0,0
434,92,0,0,0,0,0,0,0,0,0,-1,1658,932,0,0
441,92,0,0,0,0,0,0,0,0,0,-1,1665,932,0,0
448,92,0,0,0,0,0,0,0,0,0,-1,1672,932,0,0
455,92,0,0,0,0,0,0,0,0,0,-1,1679,932,0,0
462,92,0,0,0,0,0,0,0,0,0,-1,1686,932,0,0
469,92,0,0,0,0,0,0,0,0,0,-1,1693,932,0,0
476,92,0,0,0,0,0,0,0,0,0,-1,1700,932,0,0
483,92,0,0,0,0,0,0,0,0,0,-1,1707,932,0,0
490,92,0,0,0,0,0,0,0,0,0,-1,1714,932,0,0
497,92,0,0,0,0,0,0,0,0,0,-1,1721,932,0,0
504,92,0,0,0,0,0,0,0,0,0,-1,1728,932,0,0
511,92,0,0,0,0,0,0,0,0,0,-1,1735,932,0,0
518,92,0,0,0,0,0,0,0,0,0,-1,1742,932,0,0
525,92,0,0,0,0,0,0,0,0,0,-1,1749,932,0,0
532,92,0,0,0,0,0,0,0,0,0,-1,1756,932,0,0
539,92,0,0,0,0,0,0,0,0,0,-1,1763,932,0,0
546,92,0,0,0,0,0,0,0,0,0,-1,1770,932,0,0
553,92,0,0,0,0,0,0,0,0,0,-1,1777,932,0,0
560,92,0,0,0,0,0,0,0,0,0,-1,1784,932,0,0
567,92,0,0,0,0,0,0,0,0,0,-1,1791,932,0,0
574,92,0,0,0,0,0,0,0,0,0,-1,1798,932,0,0
581,92,0,0,0,0,0,0,0,0,0,-1,1805,932,0,0
588,92,0,0,0,0,0,0,0,0,0,-1,1812,932,0,0
595,92,0,0,0,0,0,0,0,0,0,-1,1819,932,0,0
602,92,0,0,0,0,0,0,0,0,0,-1,1826,932,0,0
609,92,0,0,0,0,0,0,0,0,0,-1,1833,932,0,0
616,92,0,0,0,0,0,0,0,0,0,-1,1840,932,0,0
623,92,0,0,0,0,0,0,0,0,0,-1,1847,932,0,0
630,92,0,0,0,0,0,0,0,0,0,-1,1854,932,0,0
637,92,49.1698,2.58673,-0.00329161,0.0040993,0.00111039,0.00426252,-0.00345483,1.42485,0.00446374,0.0482773,1861,932,49.1697,-2.58676
644,92,49.1191,2.83838,-0.0030026,0.00307438,0.000560626,0.00312566,-0.00305388,1.47957,0.00356784,0.0413432,1868,932,49.1191,-2.8384
651,92,49.3051,2.57489,-0.00244,0.0023009,6.95455e-05,0.00230192,-0.00244102,1.55613,0.00273873,0.0394736,1875,932,49.305,-2.57487
658,92,48.9492,3.13977,-0.00178201,0.00178432,-0.000118092,0.00178823,-0.00178592,-1.53773,0.00206353,0.0464964,1882,932,48.9493,-3.13978
665,92,48.8618,3.08936,-0.00113098,0.00151898,-8.48544e-05,0.0015217,-0.0011337,-1.53882,0.00153854,0.0452329,1889,932,48.8618,-3.08937
672,92,48.8606,2.79633,-0.000733288,0.00126077,8.79463e-05,0.00126465,-0.000737159,1.52681,0.00116904,0.0430033,1896,932,48.8606,-2.79634
679,92,48.8806,2.71661,-0.000459195,0.000981062,0.000284754,0.00103532,-0.00051345,1.38252,0.000910944,0.0402041,1903,932,48.8806,-2.71659
686,92,49.004,2.71667,-0.000257252,0.000682541,0.000363311,0.000806612,-0.000381323,1.24171,0.000700352,0.0304687,1910,932,49.004,-2.71666
693,92,49.0775,2.70264,-0.000198346,0.000499403,0.000312784,0.000619087,-0.00031803,1.20534,0.000550273,0.0229018,1917,932,49.0775,-2.70265
700,92,49.141,2.73761,0,0,0,0,0,0,0,-1,1924,932,49.141,-2.73762
707,92,32.9893,3.26874,0,0,0,0,0,0,0,-1,1931,932,32.9893,-3.26874
714,92,45.8199,3.79211,0,0,0,0,0,0,0,-1,1938,932,45.82,-3.79214
721,92,45.7266,4.33081,-0.00129074,0.0012279,-0.000317623,0.00126733,-0.00133017,-1.44726,0.00149982,0.0318122,1945,932,45.7266,-4.33079
728,92,45.6235,4.79443,-0.00212958,0.00168038,-0.000717135,0.00181089,-0.00226009,-1.39077,0.00235515,0.0237211,1952,932,45.6235,-4.79443
735,92,45.5959,5.20746,-0.00329402,0.00248272,-0.00121108,0.00272635,-0.00353765,-1.37228,0.00362662,0.0190812,1959,932,45.596,-5.20747
742,92,45.618,5.60181,-0.00477491,0.00379661,-0.00166745,0.00410956,-0.00508786,-1.38527,0.00532014,0.0189209,1966,932,45.6181,-5.60178
749,92,45.5643,6.0246,-0.00649907,0.00576771,-0.00225885,0.00617044,-0.0069018,-1.39436,0.0075512,0.0173277,1973,932,45.5644,-6.0246
756,92,45.4955,6.40656,-0.00832999,0.0086508,-0.00283876,0.0091128,-0.00879199,-1.40946,0.0103379,0.0152356,1980,932,45.4955,-6.40654
763,92,45.4773,6.81635,-0.0105887,0.0120138,-0.00321852,0.0124632,-0.0110381,-1.43207,0.0135768,0.0167159,1987,932,45.4773,-6.81632
770,92,45.2629,7.24066,0,0,0,0,0,0,0,-1,1994,932,45.2629,-7.24066
777,92,45.0641,7.55499,-0.0152823,0.020158,-0.00382336,0.0205657,-0.0156901,-1.46454,0.0209953,0.0443875,2001,932,45.0641,-7.55501
784,92,44.8594,7.86359,-0.0169385,0.0251837,-0.00396311,0.0255534,-0.0173081,-1.4778,0.0248982,0.0478904,2008,932,44.8595,-7.86358
791,92,44.9756,8.25726,0,0,0,0,0,0,0,-1,2015,932,44.9755,-8.25728
798,92,45.0798,8.31824,0,0,0,0,0,0,0,-1,2022,932,45.0798,-8.31824
805,92,0,0,0,0,0,0,0,0,0,-1,2029,932,0,0
812,92,0,0,0,0,0,0,0,0,0,-1,2036,932,0,0
-700,85,0,0,0,0,0,0,0,0,0,-1,524,939,0,0
-693,85,0,0,0,0,0,0,0,0,0,-1,531,939,0,0
-686,85,-33.4855,6.54498,-0.0179889,0.0196043,-0.00929069,0.0217751,-0.0201596,-1.34127,0.024217,0.046733,538,939,-33.4855,-6.54501
-679,85,-33.7602,6.1947,-0.0161716,0.0182941,-0.00703717,0.0196756,-0.0175531,-1.37695,0.0215056,0.0446471,545,939,-33.7602,-6.19472
-672,85,-33.8445,6.01184,0,0,0,0,0,0,0,-1,552,939,-33.8445,-6.01187
-665,85,-34.0179,5.4184,-0.0131876,0.0159216,-0.00319046,0.0162672,-0.0135332,-1.4629,0.0172294,0.0439335,559,939,-34.0179,-5.41837
-658,85,-33.7617,4.96527,-0.011701,0.0145739,-0.0016512,0.0146772,-0.0118044,-1.50828,0.0153191,0.0434525,566,939,-33.7616,-4.96526
-651,85,-34.0616,4.92517,-0.0101789,0.0130626,-0.000355383,0.013068,-0.0101843,-1.55551,0.0134591,0.0400957,573,939,-34.0616,-4.9252
-644,85,-34.3201,4.62622,-0.0086578,0.0113903,0.000696714,0.0114145,-0.00868198,1.5361,0.0116384,0.0324341,580,939,-34.32,-4.62619
-637,85,-34.5067,4.36841,-0.00735073,0.00932539,0.00144922,0.0094504,-0.00747573,1.48475,0.00979445,0.0204776,587,939,-34.5067,-4.36843
-630,85,-34.5791,3.97681,-0.00602347,0.00755398,0.00196395,0.00783236,-0.00630184,1.42999,0.00817631,0.0135632,594,939,-34.5791,-3.97683
-623,85,-34.6561,3.6394,-0.00552503,0.00583322,0.00200763,0.00617763,-0.00586944,1.4009,0.00695614,0.00946973,601,939,-34.6561,-3.63938
-616,85,-34.6664,3.30884,-0.00559345,0.00407449,0.00156727,0.00432221,-0.00584117,1.41403,0.00588964,0.00902292,608,939,-34.6664,-3.30881
-609,85,-34.687,2.93555,-0.00644072,0.00220492,0.000943298,0.00230664,-0.00654244,1.46337,0.00530053,0.0122077,615,939,-34.687,-2.93552
-602,85,-34.6795,2.56238,-0.00737858,0.00103167,0.000247862,0.00103896,-0.00738588,1.54136,0.00530426,0.0163596,622,939,-34.6795,-2.56237
-595,85,-34.5942,2.18353,-0.00787261,0.000281339,-0.000344004,0.000295826,-0.0078871,-1.52871,0.00535939,0.0192519,629,939,-34.5942,-2.18352
-588,85,-34.601,1.82166,-0.00788596,-0.000298653,-0.00078688,-0.000217906,-0.00796671,-1.46854,0.00524001,0.0189344,636,939,-34.601,-1.82164
-581,85,-34.8152,1.48724,-0.00806163,-0.000488365,-0.000977748,-0.000364169,-0.00818582,-1.44445,0.00533997,0.0273241,643,939,-34.8152,-1.48726
-574,85,-35.5004,1.09052,-0.00819179,-0.000462732,-0.00121323,-0.000276766,-0.00837776,-1.4187,0.00549524,0.0449941,650,939,-35.5004,-1.09051
-567,85,-36.4307,0.709106,0,0,0,0,0,0,0,-1,657,939,-36.4307,-0.709079
-560,85,-36.5963,0.866638,-0.0081222,-0.000237095,-0.00132428,-2.06288e-05,-0.00833867,-1.40877,0.00555225,0.0333465,664,939,-36.5962,-0.866642
-553,85,-36.7202,0.993164,-0.00760702,0.000105274,-0.00118284,0.000282611,-0.00778436,-1.42198,0.00528629,0.0419375,671,939,-36.7202,-0.993192
-546,85,-36.9794,0.976501,-0.00666801,0.000616944,-0.000889814,0.000724055,-0.00677512,-1.451,0.00477642,0.0460691,678,939,-36.9794,-0.97649
-539,85,-36.8676,0.901917,-0.00527983,0.00127178,-0.000444994,0.00130187,-0.00530991,-1.50329,0.00404436,0.0397974,685,939,-36.8676,-0.901929
-532,85,-36.8176,0.890259,-0.00363251,0.00204686,7.7298e-05,0.00204791,-0.00363357,1.55719,0.00332251,0.0408551,692,939,-36.8175,-0.890285
-525,85,-36.9107,0.920593,-0.00351138,0.00313855,0.000184969,0.00314369,-0.00351652,1.54301,0.00384728,0.0417158,699,939,-36.9107,-0.920599
-518,85,-36.9808,0.927734,-0.00814482,0.00455193,-0.000570137,0.00457748,-0.00817037,-1.52601,0.00745678,0.037925,706,939,-36.9808,-0.927753
-511,85,0,0,0,0,0,0,0,0,0,-1,713,939,0,0
-504,85,0,0,0,0,0,0,0,0,0,-1,720,939,0,0
-497,85,0,0,0,0,0,0,0,0,0,-1,727,939,0,0
-490,85,0,0,0,0,0,0,0,0,0,-1,734,939,0,0
-483,85,0,0,0,0,0,0,0,0,0,-1,741,939,0,0
-476,85,0,0,0,0,0,0,0,0,0,-1,748,939,0,0
-469,85,0,0,0,0,0,0,0,0,0,-1,755,939,0,0
-462,85,0,0,0,0,0,0,0,0,0,-1,762,939,0,0
-455,85,0,0,0,0,0,0,0,0,0,-1,769,939,0,0
-448,85,0,0,0,0,0,0,0,0,0,-1,776,939,0,0
-441,85,0,0,0,0,0,0,0,0,0,-1,783,939,0,0
-434,85,0,0,0,0,0,0,0,0,0,-1,790,939,0,0
-427,85,0,0,0,0,0,0,0,0,0,-1,797,939,0,0
-420,85,0,0,0,0,0,0,0,0,0,-1,804,939,0,0
-413,85,0,0,0,0,0,0,0,0,0,-1,811,939,0,0
-406,85,0,0,0,0,0,0,0,0,0,-1,818,939,0,0
-399,85,0,0,0,0,0,0,0,0,0,-1,825,939,0,0
-392,85,0,0,0,0,0,0,0,0,0,-1,832,939,0,0
-385,85,0,0,0,0,0,0,0,0,0,-1,839,939,0,0
-378,85,0,0,0,0,0,0,0,0,0,-1,846,939,0,0
-371,85,0,0,0,0,0,0,0,0,0,-1,853,939,0,0
-364,85,0,0,0,0,0,0,0,0,0,-1,860,939,0,0
-357,85,0,0,0,0,0,0,0,0,0,-1,867,939,0,0
-350,85,0,0,0,0,0,0,0,0,0,-1,874,939,0,0
-343,85,0,0,0,0,0,0,0,0,0,-1,881,939,0,0
-336,85,0,0,0,0,0,0,0,0,0,-1,888,939,0,0
-329,85,0,0,0,0,0,0,0,0,0,-1,895,939,0,0
-322,85,0,0,0,0,0,0,0,0,0,-1,902,939,0,0
-315,85,0,0,0,0,0,0,0,0,0,-1,909,939,0,0
-308,85,0,0,0,0,0,0,0,0,0,-1,916,939,0,0
-301,85,0,0,0,0,0,0,0,0,0,-1,923,939,0,0
-294,85,0,0,0,0,0,0,0,0,0,-1,930,939,0,0
-287,85,0,0,0,0,0,0,0,0,0,-1,937,939,0,0
-280,85,0,0,0,0,0,0,0,0,0,-1,944,939,0,0
-273,85,0,0,0,0,0,0,0,0,0,-1,951,939,0,0
-266,85,0,0,0,0,0,0,0,0,0,-1,958,939,0,0
-259,85,0,0,0,0,0,0,0,0,0,-1,965,939,0,0
-252,85,0,0,0,0,0,0,0,0,0,-1,972,939,0,0
-245,85,0,0,0,0,0,0,0,0,0,-1,979,939,0,0
-238,85,0,0,0,0,0,0,0,0,0,-1,986,939,0,0
-231,85,0,0,0,0,0,0,0,0,0,-1,993,939,0,0
-224,85,0,0,0,0,0,0,0,0,0,-1,1000,939,0,0
-217,85,0,0,0,0,0,0,0,0,0,-1,1007,939,0,0
-210,85,0,0,0,0,0,0,0,0,0,-1,1014,939,0,0
-203,85,0,0,0,0,0,0,0,0,0,-1,1021,939,0,0
-196,85,0,0,0,0,0,0,0,0,0,-1,1028,939,0,0
-189,85,0,0,0,0,0,0,0,0,0,-1,1035,939,0,0
-182,85,0,0,0,0,0,0,0,0,0,-1,1042,939,0,0
-175,85,0,0,0,0,0,0,0,0,0,-1,1049,939,0,0
-168,85,0,0,0,0,0,0,0,0,0,-1,1056,939,0,0
-161,85,0,0,0,0,0,0,0,0,0,-1,1063,939,0,0
-154,85,0,0,0,0,0,0,0,0,0,-1,1070,939,0,0
-147,85,0,0,0,0,0,0,0,0,0,-1,1077,939,0,0
-140,85,0,0,0,0,0,0,0,0,0,-1,1084,939,0,0
-133,85,0,0,0,0,0,0,0,0,0,-1,1091,939,0,0
-126,85,0,0,0,0,0,0,0,0,0,-1,1098,939,0,0
-119,85,0,0,0,0,0,0,0,0,0,-1,1105,939,0,0
-112,85,0,0,0,0,0,0,0,0,0,-1,1112,939,0,0
-105,85,0,0,0,0,0,0,0,0,0,-1,1119,939,0,0
-98,85,0,0,0,0,0,0,0,0,0,-1,1126,939,0,0
-91,85,0,0,0,0,0,0,0,0,0,-1,1133,939,0,0
-84,85,0,0,0,0,0,0,0,0,0,-1,1140,939,0,0
-77,85,0,0,0,0,0,0,0,0,0,-1,1147,939,0,0
-70,85,0,0,0,0,0,0,0,0,0,-1,1154,939,0,0
-63,85,0,0,0,0,0,0,0,0,0,-1,1161,939,0,0
-56,85,0,0,0,0,0,0,0,0,0,-1,1168,939,0,0
-49,85,0,0,0,0,0,0,0,0,0,-1,1175,939,0,0
-42,85,0,0,0,0,0,0,0,0,0,-1,1182,939,0,0
-35,85,0,0,0,0,0,0,0,0,0,-1,1189,939,0,0
-28,85,0,0,0,0,0,0,0,0,0,-1,1196,939,0,0
-21,85,0,0,0,0,0,0,0,0,0,-1,1203,939,0,0
-14,85,0,0,0,0,0,0,0,0,0,-1,1210,939,0,0
-7,85,0,0,0,0,0,0,0,0,0,-1,1217,939,0,0
0,85,0,0,0,0,0,0,0,0,0,-1,1224,939,0,0
7,85,0,0,0,0,0,0,0,0,0,-1,1231,939,0,0
14,85,0,0,0,0,0,0,0,0,0,-1,1238,939,0,0
21,85,0,0,0,0,0,0,0,0,0,-1,1245,939,0,0
28,85,0,0,0,0,0,0,0,0,0,-1,1252,939,0,0
35,85,0,0,0,0,0,0,0,0,0,-1,1259,939,0,0
42,85,0,0,0,0,0,0,0,0,0,-1,1266,939,0,0
49,85,0,0,0,0,0,0,0,0,0,-1,1273,939,0,0
56,85,0,0,0,0,0,0,0,0,0,-1,1280,939,0,0
63,85,0,0,0,0,0,0,0,0,0,-1,1287,939,0,0
70,85,0,0,0,0,0,0,0,0,0,-1,1294,939,0,0
77,85,0,0,0,0,0,0,0,0,0,-1,1301,939,0,0
84,85,0,0,0,0,0,0,0,0,0,-1,1308,939,0,0
91,85,0,0,0,0,0,0,0,0,0,-1,1315,939,0,0
98,85,0,0,0,0,0,0,0,0,0,-1,1322,939,0,0
105,85,0,0,0,0,0,0,0,0,0,-1,1329,939,0,0
112,85,0,0,0,0,0,0,0,0,0,-1,1336,939,0,0
119,85,0,0,0,0,0,0,0,0,0,-1,1343,939,0,0
126,85,0,0,0,0,0,0,0,0,0,-1,1350,939,0,0
133,85,0,0,0,0,0,0,0,0,0,-1,1357,939,0,0
140,85,0,0,0,0,0,0,0,0,0,-1,1364,939,0,0
147,85,0,0,0,0,0,0,0,0,0,-1,1371,939,0,0
154,85,0,0,0,0,0,0,0,0,0,-1,1378,939,0,0
161,85,0,0,0,0,0,0,0,0,0,-1,1385,939,0,0
168,85,0,0,0,0,0,0,0,0,0,-1,1392,939,0,0
175,85,0,0,0,0,0,0,0,0,0,-1,1399,939,0,0
182,85,0,0,0,0,0,0,0,0,0,-1,1406,939,0,0
189,85,0,0,0,0,0,0,0,0,0,-1,1413,939,0,0
196,85,0,0,0,0,0,0,0,0,0,-1,1420,939,0,0
203,85,0,0,0,0,0,0,0,0,0,-1,1427,939,0,0
210,85,0,0,0,0,0,0,0,0,0,-1,1434,939,0,0
217,85,0,0,0,0,0,0,0,0,0,-1,1441,939,0,0
224,85,0,0,0,0,0,0,0,0,0,-1,1448,939,0,0
231,85,0,0,0,0,0,0,0,0,0,-1,1455,939,0,0
238,85,0,0,0,0,0,0,0,0,0,-1,1462,939,0,0
245,85,0,0,0,0,0,0,0,0,0,-1,1469,939,0,0
252,85,0,0,0,0,0,0,0,0,0,-1,1476,939,0,0
259,85,0,0,0,0,0,0,0,0,0,-1,1483,939,0,0
266,85,0,0,0,0,0,0,0,0,0,-1,1490,939,0,0
273,85,0,0,0,0,0,0,0,0,0,-1,1497,939,0,0
280,85,0,0,0,0,0,0,0,0,0,-1,1504,939,0,0
287,85,0,0,0,0,0,0,0,0,0,-1,1511,939,0,0
294,85,0,0,0,0,0,0,0,0,0,-1,1518,939,0,0
301,85,0,0,0,0,0,0,0,0,0,-1,1525,939,0,0
308,85,0,0,0,0,0,0,0,0,0,-1,1532,939,0,0
315,85,0,0,0,0,0,0,0,0,0,-1,1539,939,0,0
322,85,0,0,0,0,0,0,0,0,0,-1,1546,939,0,0
329,85,0,0,0,0,0,0,0,0,0,-1,1553,939,0,0
336,85,0,0,0,0,0,0,0,0,0,-1,1560,939,0,0
343,85,0,0,0,0,0,0,0,0,0,-1,1567,939,0,0
350,85,0,0,0,0,0,0,0,0,0,-1,1574,939,0,0
357,85,0,0,0,0,0,0,0,0,0,-1,1581,939,0,0
364,85,0,0,0,0,0,0,0,0,0,-1,1588,939,0,0
371,85,0,0,0,0,0,0,0,0,0,-1,1595,939,0,0
378,85,0,0,0,0,0,0,0,0,0,-1,1602,939,0,0
385,85,0,0,0,0,0,0,0,0,0,-1,1609,939,0,0
392,85,0,0,0,0,0,0,0,0,0,-1,1616,939,0,0
399,85,0,0,0,0,0,0,0,0,0,-1,1623,939,0,0
406,85,0,0,0,0,0,0,0,0,0,-1,1630,939,0,0
413,85,0,0,0,0,0,0,0,0,0,-1,1637,939,0,0
420,85,0,0,0,0,0,0,0,0,0,-1,1644,939,0,0
427,85,0,0,0,0,0,0,0,0,0,-1,1651,939,0,0
434,85,0,0,0,0,0,0,0,0,0,-1,1658,939,0,0
441,85,0,0,0,0,0,0,0,0,0,-1,1665,939,0,0
448,85,0,0,0,0,0,0,0,0,0,-1,1672,939,0,0
455,85,0,0,0,0,0,0,0,0,0,-1,1679,939,0,0
462,85,0,0,0,0,0,0,0,0,0,-1,1686,939,0,0
469,85,0,0,0,0,0,0,0,0,0,-1,1693,939,0,0
476,85,0,0,0,0,0,0,0,0,0,-1,1700,939,0,0
483,85,0,0,0,0,0,0,0,0,0,-1,1707,939,0,0
490,85,0,0,0,0,0,0,0,0,0,-1,1714,939,0,0
497,85,0,0,0,0,0,0,0,0,0,-1,1721,939,0,0
504,85,0,0,0,0,0,0,0,0,0,-1,1728,939,0,0
511,85,0,0,0,0,0,0,0,0,0,-1,1735,939,0,0
518,85,0,0,0,0,0,0,0,0,0,-1,1742,939,0,0
525,85,0,0,0,0,0,0,0,0,0,-1,1749,939,0,0
532,85,0,0,0,0,0,0,0,0,0,-1,1756,939,0,0
539,85,0,0,0,0,0,0,0,0,0,-1,1763,939,0,0
546,85,0,0,0,0,0,0,0,0,0,-1,1770,939,0,0
553,85,0,0,0,0,0,0,0,0,0,-1,1777,939,0,0
560,85,0,0,0,0,0,0,0,0,0,-1,1784,939,0,0
567,85,0,0,0,0,0,0,0,0,0,-1,1791,939,0,0
574,85,0,0,0,0,0,0,0,0,0,-1,1798,939,0,0
581,85,0,0,0,0,0,0,0,0,0,-1,1805,939,0,0
588,85,0,0,0,0,0,0,0,0,0,-1,1812,939,0,0
595,85,0,0,0,0,0,0,0,0,0,-1,1819,939,0,0
602,85,0,0,0,0,0,0,0,0,0,-1,1826,939,0,0
609,85,0,0,0,0,0,0,0,0,0,-1,1833,939,0,0
616,85,0,0,0,0,0,0,0,0,0,-1,1840,939,0,0
623,85,0,0,0,0,0,0,0,0,0,-1,1847,939,0,0
630,85,0,0,0,0,0,0,0,0,0,-1,1854,939,0,0
637,85,49.1624,2.40601,-0.005078,0.00432212,0.00130372,0.00449959,-0.00525546,1.43551,0.00563771,0.0493462,1861,939,49.1623,-2.40598
644,85,49.139,2.58997,-0.00440867,0.00322995,0.000729377,0.00329897,-0.00447769,1.47645,0.00450702,0.0420677,1868,939,49.139,-2.58995
651,85,48.8762,3.23694,0,0,0,0,0,0,0,-1,1875,939,48.8762,-3.23695
658,85,48.9441,3.18201,-0.00256875,0.00193537,-0.000126731,0.00193893,-0.00257232,-1.54269,0.00261311,0.047242,1882,939,48.9441,-3.18202
665,85,48.8745,2.91809,-0.00166832,0.00160646,-0.000140228,0.00161246,-0.00167431,-1.52808,0.00189773,0.0454718,1889,939,48.8745,-2.91807
672,85,48.8712,2.58203,-0.00111706,0.00126836,1.48639e-05,0.00126846,-0.00111715,1.56457,0.00137826,0.0461127,1896,939,48.8713,-2.58202
679,85,48.9573,2.7085,-0.000769526,0.000875774,0.000245429,0.000911604,-0.000805356,1.42583,0.00099192,0.0436793,1903,939,48.9573,-2.7085
686,85,48.9917,2.76813,-0.000513148,0.000474026,0.000358562,0.000590517,-0.000629639,1.25667,0.000704578,0.036009,1910,939,48.9917,-2.76811
693,85,49.0321,2.68909,-0.000406669,0.000208636,0.00032454,0.00034817,-0.000546204,1.16474,0.000520569,0.0272323,1917,939,49.0322,-2.68906
700,85,49.0958,2.68646,-0.000511125,0.000137349,0.000205388,0.000196927,-0.000570703,1.28847,0.000460371,0.0405509,1924,939,49.0958,-2.68649
707,85,49.2078,2.69977,0,0,0,0,0,0,0,-1,1931,939,49.2077,-2.69977
714,85,46.2136,3.93127,0,0,0,0,0,0,0,-1,1938,939,46.2136,-3.93126
721,85,46.1222,4.40765,-0.00158452,0.000863339,-0.000220246,0.000882998,-0.00160418,-1.48177,0.00145596,0.0307347,1945,939,46.1222,-4.40767
728,85,46.0133,4.91772,-0.00243562,0.00138044,-0.000590898,0.00146984,-0.00252502,-1.42063,0.0023331,0.0262363,1952,939,46.0133,-4.91774
735,85,46.032,5.24921,-0.00357867,0.00227471,-0.00104592,0.00245598,-0.00375994,-1.39918,0.00361499,0.0244597,1959,939,46.032,-5.24922
742,85,46.0945,5.63312,-0.00498494,0.00367222,-0.00144186,0.00390605,-0.00521876,-1.41003,0.00528635,0.0180184,1966,939,46.0945,-5.63313
749,85,46.0199,6.03595,-0.00654868,0.00578529,-0.00198533,0.00609698,-0.00686038,-1.41507,0.00748526,0.0150121,1973,939,46.0199,-6.03596
756,85,45.9172,6.39362,-0.00811164,0.00892981,-0.00252119,0.00929498,-0.00847681,-1.42696,0.0102642,0.0140486,1980,939,45.9172,-6.3936
763,85,45.8945,6.76337,-0.0100662,0.0126535,-0.00281142,0.0129962,-0.0104089,-1.44949,0.0135404,0.0141023,1987,939,45.8945,-6.76336
770,85,45.8528,7.14075,-0.0119217,0.0168124,-0.00298025,0.0171183,-0.0122275,-1.46853,0.0170211,0.0208046,1994,939,45.8528,-7.14078
777,85,45.6179,7.43542,-0.0136631,0.0216442,-0.00303185,0.0219027,-0.0139215,-1.48576,0.0208535,0.0434,2001,939,45.618,-7.43543
784,85,45.4941,7.6557,0,0,0,0,0,0,0,-1,2008,939,45.4941,-7.65569
791,85,44.8123,9.34076,0,0,0,0,0,0,0,-1,2015,939,44.8122,-9.34073
798,85,46.4202,8.76849,0,0,0,0,0,0,0,-1,2022,939,46.4201,-8.76851
805,85,47.3477,8.97565,0,0,0,0,0,0,0,-1,2029,939,47.3476,-8.97562
812,85,0,0,0,0,0,0,0,0,0,-1,2036,939,0,0
-700,78,0,0,0,0,0,0,0,0,0,-1,524,946,0,0
-693,78,0,0,0,0,0,0,0,0,0,-1,531,946,0,0
-686,78,-33.7278,6.18445,-0.0194913,0.0230631,-0.00839015,0.0246575,-0.0210858,-1.38299,0.0264367,0.0438707,538,946,-33.7279,-6.18446
-679,78,-34.0768,5.9259,-0.0180278,0.0211155,-0.00610143,0.0220445,-0.0189568,-1.4197,0.0236945,0.0436018,545,946,-34.0768,-5.92589
-672,78,-34.4648,5.65509,-0.0166026,0.0194385,-0.00408916,0.0198966,-0.0170607,-1.45923,0.0213582,0.0443778,552,946,-34.4648,-5.65508
-665,78,-34.4646,5.26605,-0.0151033,0.017813,-0.00237819,0.017984,-0.0152742,-1.49904,0.0192229,0.0446009,559,946,-34.4646,-5.26604
-658,78,-34.2703,4.92444,-0.0134797,0.0161466,-0.000942666,0.0161765,-0.0135097,-1.53902,0.0171624,0.0450604,566,946,-34.2703,-4.92442
-651,78,-34.4536,4.85425,-0.011759,0.0143837,0.000228118,0.0143857,-0.011761,1.56207,0.0151211,0.0418813,573,946,-34.4536,-4.85427
-644,78,-34.6874,4.55182,-0.00996539,0.0124951,0.00113664,0.0125525,-0.0100228,1.52036,0.0130611,0.0275831,580,946,-34.6874,-4.55183
-637,78,-34.8795,4.22711,-0.00839413,0.0101646,0.00172377,0.0103233,-0.00855288,1.47896,0.0109142,0.0175394,587,946,-34.8795,-4.22709
-630,78,-35.0066,3.89551,-0.00686846,0.00819724,0.0020522,0.00847178,-0.007143,1.43781,0.00902607,0.0170569,594,946,-35.0066,-3.89549
-623,78,-35.0441,3.5907,-0.00612023,0.00641069,0.00186642,0.00668278,-0.00639232,1.42604,0.00754953,0.0138855,601,946,-35.0441,-3.59072
-616,78,-35.051,3.2594,-0.00591035,0.00458655,0.00113728,0.00470836,-0.00603215,1.4641,0.00621672,0.0112513,608,946,-35.051,-3.25938
-609,78,-35.0192,2.93561,-0.00654396,0.00270896,0.000325401,0.00272039,-0.00655539,1.53569,0.00550583,0.0118582,615,946,-35.0192,-2.93558
-602,78,-35.0289,2.58807,-0.00730284,0.00139922,-0.000462006,0.00142368,-0.0073273,-1.5179,0.00542209,0.0161252,622,946,-35.0289,-2.5881
-595,78,-34.9714,2.19067,-0.00767008,0.000549813,-0.00111482,0.000698326,-0.00781859,-1.43836,0.00546008,0.0165908,629,946,-34.9714,-2.19068
-588,78,-34.9556,1.90466,-0.00767649,-0.000147863,-0.00156957,0.000166255,-0.00799061,-1.37328,0.00538334,0.014337,636,946,-34.9556,-1.90464
-581,78,-34.9141,1.54639,0,0,0,0,0,0,0,-1,643,946,-34.914,-1.54638
-574,78,-35.8325,1.22028,0,0,0,0,0,0,0,-1,650,946,-35.8325,-1.22027
-567,78,-36.6356,0.966125,0,0,0,0,0,0,0,-1,657,946,-36.6356,-0.966105
-560,78,-36.6188,0.727966,-0.00762678,-8.70996e-06,-0.00217912,0.000570573,-0.00820606,-1.31097,0.00567047,0.0311894,664,946,-36.6189,-0.727959
-553,78,-36.7465,0.619019,-0.00684863,0.000439456,-0.00200122,0.000952806,-0.00736198,-1.31969,0.00525446,0.0422645,671,946,-36.7465,-0.619009
-546,78,-36.9219,0.963745,-0.0055638,0.00106691,-0.00168137,0.00146889,-0.00596579,-1.33612,0.00454661,0.0460052,678,946,-36.922,-0.963753
-539,78,-36.6927,1.02924,-0.00377839,0.00184272,-0.00125076,0.00210847,-0.00404413,-1.36144,0.00361033,0.0407433,685,946,-36.6927,-1.02924
-532,78,-36.5751,1.00452,-0.0016269,0.00276058,-0.000920762,0.00294598,-0.0018123,-1.3721,0.00277306,0.0404174,692,946,-36.5751,-1.00454
-525,78,-36.6256,0.957825,-0.00114805,0.00407865,-0.00135496,0.00440903,-0.00147843,-1.33164,0.00353671,0.0401889,699,946,-36.6256,-0.95783
-518,78,-36.7632,0.821167,-0.00577767,0.00588485,-0.00302484,0.00662271,-0.00651552,-1.33154,0.00758544,0.0404931,706,946,-36.7632,-0.821178
-511,78,0,0,0,0,0,0,0,0,0,-1,713,946,0,0
-504,78,0,0,0,0,0,0,0,0,0,-1,720,946,0,0
-497,78,0,0,0,0,0,0,0,0,0,-1,727,946,0,0
-490,78,0,0,0,0,0,0,0,0,0,-1,734,946,0,0
-483,78,0,0,0,0,0,0,0,0,0,-1,741,946,0,0
-476,78,0,0,0,0,0,0,0,0,0,-1,748,946,0,0
-469,78,0,0,0,0,0,0,0,0,0,-1,755,946,0,0
-462,78,0,0,0,0,0,0,0,0,0,-1,762,946,0,0
-455,78,0,0,0,0,0,0,0,0,0,-1,769,946,0,0
-448,78,0,0,0,0,0,0,0,0,0,-1,776,946,0,0
-441,78,0,0,0,0,0,0,0,0,0,-1,783,946,0,0
-434,78,0,0,0,0,0,0,0,0,0,-1,790,946,0,0
-427,78,0,0,0,0,0,0,0,0,0,-1,797,946,0,0
-420,78,0,0,0,0,0,0,0,0,0,-1,804,946,0,0
-413,78,0,0,0,0,0,0,0,0,0,-1,811,946,0,0
-406,78,0,0,0,0,0,0,0,0,0,-1,818,946,0,0
-399,78,0,0,0,0,0,0,0,0,0,-1,825,946,0,0
-392,78,0,0,0,0,0,0,0,0,0,-1,832,946,0,0
-385,78,0,0,0,0,0,0,0,0,0,-1,839,946,0,0
-378,78,0,0,0,0,0,0,0,0,0,-1,846,946,0,0
-371,78,0,0,0,0,0,0,0,0,0,-1,853,946,0,0
-364,78,0,0,0,0,0,0,0,0,0,-1,860,946,0,0
-357,78,0,0,0,0,0,0,0,0,0,-1,867,946,0,0
-350,78,0,0,0,0,0,0,0,0,0,-1,874,946,0,0
-343,78,0,0,0,0,0,0,0,0,0,-1,881,946,0,0
-336,78,0,0,0,0,0,0,0,0,0,-1,888,946,0,0
-329,78,0,0,0,0,0,0,0,0,0,-1,895,946,0,0
-322,78,0,0,0,0,0,0,0,0,0,-1,902,946,0,0
-315,78,0,0,0,0,0,0,0,0,0,-1,909,946,0,0
-308,78,0,0,0,0,0,0,0,0,0,-1,916,946,0,0
-301,78,0,0,0,0,0,0,0,0,0,-1,923,946,0,0
-294,78,0,0,0,0,0,0,0,0,0,-1,930,946,0,0
-287,78,0,0,0,0,0,0,0,0,0,-1,937,946,0,0
-280,78,0,0,0,0,0,0,0,0,0,-1,944,946,0,0
-273,78,0,0,0,0,0,0,0,0,0,-1,951,946,0,0
-266,78,0,0,0,0,0,0,0,0,0,-1,958,946,0,0
-259,78,0,0,0,0,0,0,0,0,0,-1,965,946,0,0
-252,78,0,0,0,0,0,0,0,0,0,-1,972,946,0,0
-245,78,0,0,0,0,0,0,0,0,0,-1,979,946,0,0
-238,78,0,0,0,0,0,0,0,0,0,-1,986,946,0,0
-231,78,0,0,0,0,0,0,0,0,0,-1,993,946,0,0
-224,78,0,0,0,0,0,0,0,0,0,-1,1000,946,0,0
-217,78,0,0,0,0,0,0,0,0,0,-1,1007,946,0,0
-210,78,0,0,0,0,0,0,0,0,0,-1,1014,946,0,0
-203,78,0,0,0,0,0,0,0,0,0,-1,1021,946,0,0
-196,78,0,0,0,0,0,0,0,0,0,-1,1028,946,0,0
-189,78,0,0,0,0,0,0,0,0,0,-1,1035,946,0,0
-182,78,0,0,0,0,0,0,0,0,0,-1,1042,946,0,0
-175,78,0,0,0,0,0,0,0,0,0,-1,1049,946,0,0
-168,78,0,0,0,0,0,0,0,0,0,-1,1056,946,0,0
-161,78,0,0,0,0,0,0,0,0,0,-1,1063,946,0,0
-154,78,0,0,0,0,0,0,0,0,0,-1,1070,946,0,0
-147,78,0,0,0,0,0,0,0,0,0,-1,1077,946,0,0
-140,78,0,0,0,0,0,0,0,0,0,-1,1084,946,0,0
-133,78,0,0,0,0,0,0,0,0,0,-1,1091,946,0,0
-126,78,0,0,0,0,0,0,0,0,0,-1,1098,946,0,0
-119,78,0,0,0,0,0,0,0,0,0,-1,1105,946,0,0
-112,78,0,0,0,0,0,0,0,0,0,-1,1112,946,0,0
-105,78,0,0,0,0,0,0,0,0,0,-1,1119,946,0,0
-98,78,0,0,0,0,0,0,0,0,0,-1,1126,946,0,0
-91,78,0,0,0,0,0,0,0,0,0,-1,1133,946,0,0
-84,78,0,0,0,0,0,0,0,0,0,-1,1140,946,0,0
-77,78,0,0,0,0,0,0,0,0,0,-1,1147,946,0,0
-70,78,0,0,0,0,0,0,0,0,0,-1,1154,946,0,0
-63,78,0,0,0,0,0,0,0,0,0,-1,1161,946,0,0
-56,78,0,0,0,0,0,0,0,0,0,-1,1168,946,0,0
-49,78,0,0,0,0,0,0,0,0,0,-1,1175,946,0,0
-42,78,0,0,0,0,0,0,0,0,0,-1,1182,946,0,0
-35,78,0,0,0,0,0,0,0,0,0,-1,1189,946,0,0
-28,78,0,0,0,0,0,0,0,0,0,-1,1196,946,0,0
-21,78,0,0,0,0,0,0,0,0,0,-1,1203,946,0,0
-14,78,0,0,0,0,0,0,0,0,0,-1,1210,946,0,0
-7,78,0,0,0,0,0,0,0,0,0,-1,1217,946,0,0
0,78,0,0,0,0,0,0,0,0,0,-1,1224,946,0,0
7,78,0,0,0,0,0,0,0,0,0,-1,1231,946,0,0
14,78,0,0,0,0,0,0,0,0,0,-1,1238,946,0,0
21,78,0,0,0,0,0,0,0,0,0,-1,1245,946,0,0
28,78,0,0,0,0,0,0,0,0,0,-1,1252,946,0,0
35,78,0,0,0,0,0,0,0,0,0,-1,1259,946,0,0
42,78,0,0,0,0,0,0,0,0,0,-1,1266,946,0,0
49,78,0,0,0,0,0,0,0,0,0,-1,1273,946,0,0
56,78,0,0,0,0,0,0,0,0,0,-1,1280,946,0,0
63,78,0,0,0,0,0,0,0,0,0,-1,1287,946,0,0
70,78,0,0,0,0,0,0,0,0,0,-1,1294,946,0,0
77,78,0,0,0,0,0,0,0,0,0,-1,1301,946,0,0
84,78,0,0,0,0,0,0,0,0,0,-1,1308,946,0,0
91,78,0,0,0,0,0,0,0,0,0,-1,1315,946,0,0
98,78,0,0,0,0,0,0,0,0,0,-1,1322,946,0,0
105,78,0,0,0,0,0,0,0,0,0,-1,1329,946,0,0
112,78,0,0,0,0,0,0,0,0,0,-1,1336,946,0,0
119,78,0,0,0,0,0,0,0,0,0,-1,1343,946,0,0
126,78,0,0,0,0,0,0,0,0,0,-1,1350,946,0,0
133,78,0,0,0,0,0,0,0,0,0,-1,1357,946,0,0
140,78,0,0,0,0,0,0,0,0,0,-1,1364,946,0,0
147,78,0,0,0,0,0,0,0,0,0,-1,1371,946,0,0
154,78,0,0,0,0,0,0,0,0,0,-1,1378,946,0,0
161,78,0,0,0,0,0,0,0,0,0,-1,1385,946,0,0
168,78,0,0,0,0,0,0,0,0,0,-1,1392,946,0,0
175,78,0,0,0,0,0,0,0,0,0,-1,1399,946,0,0
182,78,0,0,0,0,0,0,0,0,0,-1,1406,946,0,0
189,78,0,0,0,0,0,0,0,0,0,-1,1413,946,0,0
196,78,0,0,0,0,0,0,0,0,0,-1,1420,946,0,0
203,78,0,0,0,0,0,0,0,0,0,-1,1427,946,0,0
210,78,0,0,0,0,0,0,0,0,0,-1,1434,946,0,0
217,78,0,0,0,0,0,0,0,0,0,-1,1441,946,0,0
224,78,0,0,0,0,0,0,0,0,0,-1,1448,946,0,0
231,78,0,0,0,0,0,0,0,0,0,-1,1455,946,0,0
238,78,0,0,0,0,0,0,0,0,0,-1,1462,946,0,0
245,78,0,0,0,0,0,0,0,0,0,-1,1469,946,0,0
252,78,0,0,0,0,0,0,0,0,0,-1,1476,946,0,0
259,78,0,0,0,0,0,0,0,0,0,-1,1483,946,0,0
266,78,0,0,0,0,0,0,0,0,0,-1,1490,946,0,0
273,78,0,0,0,0,0,0,0,0,0,-1,1497,946,0,0
280,78,0,0,0,0,0,0,0,0,0,-1,1504,946,0,0
287,78,0,0,0,0,0,0,0,0,0,-1,1511,946,0,0
294,78,0,0,0,0,0,0,0,0,0,-1,1518,946,0,0
301,78,0,0,0,0,0,0,0,0,0,-1,1525,946,0,0
308,78,0,0,0,0,0,0,0,0,0,-1,1532,946,0,0
315,78,0,0,0,0,0,0,0,0,0,-1,1539,946,0,0
322,78,0,0,0,0,0,0,0,0,0,-1,1546,946,0,0
329,78,0,0,0,0,0,0,0,0,0,-1,1553,946,0,0
336,78,0,0,0,0,0,0,0,0,0,-1,1560,946,0,0
343,78,0,0,0,0,0,0,0,0,0,-1,1567,946,0,0
350,78,0,0,0,0,0,0,0,0,0,-1,1574,946,0,0
357,78,0,0,0,0,0,0,0,0,0,-1,1581,946,0,0
364,78,0,0,0,0,0,0,0,0,0,-1,1588,946,0,0
371,78,0,0,0,0,0,0,0,0,0,-1,1595,946,0,0
378,78,0,0,0,0,0,0,0,0,0,-1,1602,946,0,0
385,78,0,0,0,0,0,0,0,0,0,-1,1609,946,0,0
392,78,0,0,0,0,0,0,0,0,0,-1,1616,946,0,0
399,78,0,0,0,0,0,0,0,0,0,-1,1623,946,0,0
406,78,0,0,0,0,0,0,0,0,0,-1,1630,946,0,0
413,78,0,0,0,0,0,0,0,0,0,-1,1637,946,0,0
420,78,0,0,0,0,0,0,0,0,0,-1,1644,946,0,0
427,78,0,0,0,0,0,0,0,0,0,-1,1651,946,0,0
434,78,0,0,0,0,0,0,0,0,0,-1,1658,946,0,0
441,78,0,0,0,0,0,0,0,0,0,-1,1665,946,0,0
448,78,0,0,0,0,0,0,0,0,0,-1,1672,946,0,0
455,78,0,0,0,0,0,0,0,0,0,-1,1679,946,0,0
462,78,0,0,0,0,0,0,0,0,0,-1,1686,946,0,0
469,78,0,0,0,0,0,0,0,0,0,-1,1693,946,0,0
476,78,0,0,0,0,0,0,0,0,0,-1,1700,946,0,0
483,78,0,0,0,0,0,0,0,0,0,-1,1707,946,0,0
490,78,0,0,0,0,0,0,0,0,0,-1,1714,946,0,0
497,78,0,0,0,0,0,0,0,0,0,-1,1721,946,0,0
504,78,0,0,0,0,0,0,0,0,0,-1,1728,946,0,0
511,78,0,0,0,0,0,0,0,0,0,-1,1735,946,0,0
518,78,0,0,0,0,0,0,0,0,0,-1,1742,946,0,0
525,78,0,0,0,0,0,0,0,0,0,-1,1749,946,0,0
532,78,0,0,0,0,0,0,0,0,0,-1,1756,946,0,0
539,78,0,0,0,0,0,0,0,0,0,-1,1763,946,0,0
546,78,0,0,0,0,0,0,0,0,0,-1,1770,946,0,0
553,78,0,0,0,0,0,0,0,0,0,-1,1777,946,0,0
560,78,0,0,0,0,0,0,0,0,0,-1,1784,946,0,0
567,78,0,0,0,0,0,0,0,0,0,-1,1791,946,0,0
574,78,0,0,0,0,0,0,0,0,0,-1,1798,946,0,0
581,78,0,0,0,0,0,0,0,0,0,-1,1805,946,0,0
588,78,0,0,0,0,0,0,0,0,0,-1,1812,946,0,0
595,78,0,0,0,0,0,0,0,0,0,-1,1819,946,0,0
602,78,0,0,0,0,0,0,0,0,0,-1,1826,946,0,0
609,78,0,0,0,0,0,0,0,0,0,-1,1833,946,0,0
616,78,0,0,0,0,0,0,0,0,0,-1,1840,946,0,0
623,78,0,0,0,0,0,0,0,0,0,-1,1847,946,0,0
630,78,0,0,0,0,0,0,0,0,0,-1,1854,946,0,0
637,78,49.238,2.44727,-0.00598379,0.00466934,0.00177893,0.00495855,-0.00627299,1.40963,0.00649932,0.0456072,1861,946,49.238,-2.44728
644,78,49.1537,2.49414,-0.00520097,0.00348462,0.00111798,0.00362622,-0.00534256,1.44481,0.00520964,0.0427802,1868,946,49.1537,-2.49415
651,78,49.0636,2.58392,-0.00416409,0.00268745,0.000395015,0.00271014,-0.00418679,1.5134,0.00401225,0.0429895,1875,946,49.0636,-2.5839
658,78,49.1143,2.56738,-0.00310695,0.00217389,3.54741e-05,0.00217413,-0.00310719,1.56408,0.00306499,0.041296,1882,946,49.1143,-2.56739
665,78,49.1349,2.38544,-0.00213764,0.00181721,-1.54212e-05,0.00181727,-0.0021377,-1.5669,0.0022859,0.0413556,1889,946,49.1349,-2.38541
672,78,49.1139,2.25006,-0.0015504,0.00144105,0.000130712,0.00144675,-0.0015561,1.52721,0.00173408,0.042563,1896,946,49.1139,-2.25005
679,78,48.915,2.70264,-0.00121828,0.000986188,0.000394443,0.00105464,-0.00128673,1.39897,0.001354,0.0412513,1903,946,48.9151,-2.70263
686,78,49.0208,2.69397,-0.000957404,0.000516118,0.000550105,0.000698831,-0.00114012,1.25012,0.00107186,0.038211,1910,946,49.0207,-2.69397
693,78,49.0187,2.58685,-0.000829574,0.000191706,0.000541657,0.000425475,-0.00106334,1.16336,0.000885477,0.0295163,1917,946,49.0187,-2.58684
700,78,49.0507,2.60291,-0.000907411,7.56233e-05,0.000433295,0.000239342,-0.00107113,1.20953,0.000805804,0.024742,1924,946,49.0506,-2.60291
707,78,49.1345,2.67896,0,0,0,0,0,0,0,-1,1931,946,49.1345,-2.67897
714,78,46.4276,4.12646,0,0,0,0,0,0,0,-1,1938,946,46.4276,-4.12648
721,78,46.4291,4.48627,-0.00205786,0.000781011,3.19328e-05,0.00078137,-0.00205822,1.55955,0.00169378,0.0311032,1945,946,46.4291,-4.48625
728,78,46.4415,4.96155,-0.00287895,0.0013631,-0.000311991,0.00138593,-0.00290178,-1.49777,0.00252655,0.0308406,1952,946,46.4416,-4.96155
735,78,46.5021,5.3208,-0.00395216,0.0023306,-0.000734539,0.00241534,-0.00403689,-1.45595,0.00376421,0.022072,1959,946,46.502,-5.3208
742,78,46.5342,5.66437,-0.00524396,0.00380611,-0.00108151,0.00393356,-0.00537141,-1.45349,0.00539356,0.0177163,1966,946,46.5342,-5.66437
749,78,46.4269,6.01227,-0.00659622,0.00606932,-0.00156324,0.00625941,-0.0067863,-1.44979,0.00753399,0.0159355,1973,946,46.4269,-6.01228
756,78,46.3677,6.34821,-0.00783146,0.00943693,-0.00203956,0.00967455,-0.00806908,-1.45481,0.0102583,0.0164786,1980,946,46.3677,-6.34823
763,78,46.3054,6.6593,-0.00940047,0.0135423,-0.00219847,0.0137511,-0.00960924,-1.47612,0.0135576,0.0160528,1987,946,46.3055,-6.6593
770,78,46.2407,6.96057,-0.0108052,0.0181999,-0.00210348,0.0183517,-0.0109569,-1.49878,0.0170999,0.0224633,1994,946,46.2407,-6.96054
777,78,46.2091,7.30096,-0.0118551,0.0235893,-0.00187657,0.0236884,-0.0119542,-1.51805,0.0209467,0.0441961,2001,946,46.2091,-7.30096
784,78,46.2571,7.64893,0,0,0,0,0,0,0,-1,2008,946,46.2572,-7.64891
791,78,45.7527,8.48956,0,0,0,0,0,0,0,-1,2015,946,45.7526,-8.48958
798,78,47.4456,9.10638,0,0,0,0,0,0,0,-1,2022,946,47.4455,-9.1064
805,78,44.4521,7.54877,0,0,0,0,0,0,0,-1,2029,946,44.4522,-7.54875
812,78,0,0,0,0,0,0,0,0,0,-1,2036,946,0,0
-700,71,0,0,0,0,0,0,0,0,0,-1,524,953,0,0
-693,71,0,0,0,0,0,0,0,0,0,-1,531,953,0,0
-686,71,-33.8885,5.9939,-0.0193924,0.0307474,-0.00633606,0.0315357,-0.0201807,-1.44702,0.0300974,0.043356,538,953,-33.8885,-5.99391
-679,71,-34.4598,6.00464,-0.0179738,0.0277116,-0.00439283,0.0281301,-0.0183923,-1.4758,0.0270552,0.0438055,545,953,-34.4598,-6.00463
-672,71,-34.8292,5.77002,-0.0166948,0.0249711,-0.00271657,0.0251475,-0.0168711,-1.50596,0.0244158,0.0438013,552,953,-34.8292,-5.77001
-665,71,-34.7912,5.45941,-0.0153725,0.0223461,-0.00130463,0.0223912,-0.0154176,-1.53626,0.0219523,0.0449279,559,953,-34.7912,-5.45942
-658,71,-34.5777,5.11664,0,0,0,0,0,0,0,-1,566,953,-34.5777,-5.11664
-651,71,-34.8599,4.8587,-0.0123492,0.0172475,0.000813419,0.0172699,-0.0123715,1.54334,0.0171912,0.0435805,573,953,-34.8599,-4.85873
-644,71,-35.0948,4.51373,-0.0106089,0.0147157,0.0014995,0.0148042,-0.0106974,1.51186,0.0147868,0.0325818,580,953,-35.0948,-4.51374
-637,71,-35.2609,4.17255,-0.00906629,0.0117339,0.00180194,0.0118888,-0.00922124,1.48502,0.0122203,0.0164621,587,953,-35.2609,-4.17257
-630,71,-35.3601,3.85327,-0.00751992,0.0093246,0.00188271,0.00953246,-0.00772778,1.46083,0.00998335,0.0164763,594,953,-35.3601,-3.85329
-623,71,-35.4011,3.54572,-0.00657933,0.00727087,0.0014811,0.00742748,-0.00673594,1.46545,0.00818051,0.0155985,601,953,-35.4011,-3.54574
-616,71,-35.4044,3.20947,-0.00617947,0.00531422,0.000555328,0.00534099,-0.00620624,1.52263,0.00667303,0.0149231,608,953,-35.4044,-3.20949
-609,71,-35.3731,2.93268,-0.00656972,0.00332067,-0.00041143,0.00333776,-0.0065868,-1.52929,0.0058314,0.014722,615,953,-35.3731,-2.93266
-602,71,-35.3394,2.60321,-0.00711473,0.00184459,-0.00131023,0.00203227,-0.00730242,-1.42852,0.00566847,0.0163508,622,953,-35.3394,-2.60321
-595,71,-35.3552,2.26617,-0.00730826,0.000861912,-0.00203346,0.00134004,-0.00778638,-1.33986,0.00569044,0.018455,629,953,-35.3552,-2.26616
-588,71,-35.3261,2.00702,-0.00725941,4.56727e-06,-0.00251618,0.000791005,-0.00804584,-1.26786,0.00564606,0.0222451,636,953,-35.3261,-2.00701
-581,71,-35.5781,1.48016,-0.00737725,-0.000422822,-0.0028156,0.000574181,-0.00837425,-1.23047,0.00578374,0.0380824,643,953,-35.5781,-1.48018
-574,71,-36.3188,1.03772,-0.0074017,-0.000437867,-0.00304976,0.000708905,-0.00854847,-1.21113,0.00594938,0.0434582,650,953,-36.3188,-1.03769
-567,71,-36.8939,0.683838,0,0,0,0,0,0,0,-1,657,953,-36.8939,-0.68385
-560,71,-36.6709,0.692566,0,0,0,0,0,0,0,-1,664,953,-36.6709,-0.692563
-553,71,-36.7543,0.776794,0,0,0,0,0,0,0,-1,671,953,-36.7544,-0.776769
-546,71,-36.8394,0.9552,0,0,0,0,0,0,0,-1,678,953,-36.8394,-0.955202
-539,71,-36.6497,1.00421,-0.00201737,0.00206972,-0.00189662,0.00281423,-0.00276188,-1.19673,0.00321942,0.0404704,685,953,-36.6497,-1.00423
-532,71,-36.4951,1.11267,0.000535968,0.00307091,-0.00165586,0.00388871,-0.00028183,-1.11206,0.00269134,0.0444156,692,953,-36.4951,-1.11267
-525,71,-36.4921,1.11279,0.00129503,0.00453295,-0.00248424,0.00587921,-5.12234e-05,-1.07418,0.00393666,0.0453731,699,953,-36.4921,-1.11277
-518,71,0,0,0,0,0,0,0,0,0,-1,706,953,0,0
-511,71,0,0,0,0,0,0,0,0,0,-1,713,953,0,0
-504,71,0,0,0,0,0,0,0,0,0,-1,720,953,0,0
-497,71,0,0,0,0,0,0,0,0,0,-1,727,953,0,0
-490,71,0,0,0,0,0,0,0,0,0,-1,734,953,0,0
-483,71,0,0,0,0,0,0,0,0,0,-1,741,953,0,0
-476,71,0,0,0,0,0,0,0,0,0,-1,748,953,0,0
-469,71,0,0,0,0,0,0,0,0,0,-1,755,953,0,0
-462,71,0,0,0,0,0,0,0,0,0,-1,762,953,0,0
-455,71,0,0,0,0,0,0,0,0,0,-1,769,953,0,0
-448,71,0,0,0,0,0,0,0,0,0,-1,776,953,0,0
-441,71,0,0,0,0,0,0,0,0,0,-1,783,953,0,0
-434,71,0,0,0,0,0,0,0,0,0,-1,790,953,0,0
-427,71,0,0,0,0,0,0,0,0,0,-1,797,953,0,0
-420,71,0,0,0,0,0,0,0,0,0,-1,804,953,0,0
-413,71,0,0,0,0,0,0,0,0,0,-1,811,953,0,0
-406,71,0,0,0,0,0,0,0,0,0,-1,818,953,0,0
-399,71,0,0,0,0,0,0,0,0,0,-1,825,953,0,0
-392,71,0,0,0,0,0,0,0,0,0,-1,832,953,0,0
-385,71,0,0,0,0,0,0,0,0,0,-1,839,953,0,0
-378,71,0,0,0,0,0,0,0,0,0,-1,846,953,0,0
-371,71,0,0,0,0,0,0,0,0,0,-1,853,953,0,0
-364,71,0,0,0,0,0,0,0,0,0,-1,860,953,0,0
-357,71,0,0,0,0,0,0,0,0,0,-1,867,953,0,0
-350,71,0,0,0,0,0,0,0,0,0,-1,874,953,0,0
-343,71,0,0,0,0,0,0,0,0,0,-1,881,953,0,0
-336,71,0,0,0,0,0,0,0,0,0,-1,888,953,0,0
-329,71,0,0,0,0,0,0,0,0,0,-1,895,953,0,0
-322,71,0,0,0,0,0,0,0,0,0,-1,902,953,0,0
-315,71,0,0,0,0,0,0,0,0,0,-1,909,953,0,0
-308,71,0,0,0,0,0,0,0,0,0,-1,916,953,0,0
-301,71,0,0,0,0,0,0,0,0,0,-1,923,953,0,0
-294,71,0,0,0,0,0,0,0,0,0,-1,930,953,0,0
-287,71,0,0,0,0,0,0,0,0,0,-1,937,953,0,0
-280,71,0,0,0,0,0,0,0,0,0,-1,944,953,0,0
-273,71,0,0,0,0,0,0,0,0,0,-1,951,953,0,0
-266,71,0,0,0,0,0,0,0,0,0,-1,958,953,0,0
-259,71,0,0,0,0,0,0,0,0,0,-1,965,953,0,0
-252,71,0,0,0,0,0,0,0,0,0,-1,972,953,0,0
-245,71,0,0,0,0,0,0,0,0,0,-1,979,953,0,0
-238,71,0,0,0,0,0,0,0,0,0,-1,986,953,0,0
-231,71,0,0,0,0,0,0,0,0,0,-1,993,953,0,0
-224,71,0,0,0,0,0,0,0,0,0,-1,1000,953,0,0
-217,71,0,0,0,0,0,0,0,0,0,-1,1007,953,0,0
-210,71,0,0,0,0,0,0,0,0,0,-1,1014,953,0,0
-203,71,0,0,0,0,0,0,0,0,0,-1,1021,953,0,0
-196,71,0,0,0,0,0,0,0,0,0,-1,1028,953,0,0
-189,71,0,0,0,0,0,0,0,0,0,-1,1035,953,0,0
-182,71,0,0,0,0,0,0,0,0,0,-1,1042,953,0,0
-175,71,0,0,0,0,0,0,0,0,0,-1,1049,953,0,0
-168,71,0,0,0,0,0,0,0,0,0,-1,1056,953,0,0
-161,71,0,0,0,0,0,0,0,0,0,-1,1063,953,0,0
-154,71,0,0,0,0,0,0,0,0,0,-1,1070,953,0,0
-147,71,0,0,0,0,0,0,0,0,0,-1,1077,953,0,0
-140,71,0,0,0,0,0,0,0,0,0,-1,1084,953,0,0
-133,71,0,0,0,0,0,0,0,0,0,-1,1091,953,0,0
-126,71,0,0,0,0,0,0,0,0,0,-1,1098,953,0,0
-119,71,0,0,0,0,0,0,0,0,0,-1,1105,953,0,0
-112,71,0,0,0,0,0,0,0,0,0,-1,1112,953,0,0
-105,71,0,0,0,0,0,0,0,0,0,-1,1119,953,0,0
-98,71,0,0,0,0,0,0,0,0,0,-1,1126,953,0,0
-91,71,0,0,0,0,0,0,0,0,0,-1,1133,953,0,0
-84,71,0,0,0,0,0,0,0,0,0,-1,1140,953,0,0
-77,71,0,0,0,0,0,0,0,0,0,-1,1147,953,0,0
-70,71,0,0,0,0,0,0,0,0,0,-1,1154,953,0,0
-63,71,0,0,0,0,0,0,0,0,0,-1,1161,953,0,0
-56,71,0,0,0,0,0,0,0,0,0,-1,1168,953,0,0
-49,71,0,0,0,0,0,0,0,0,0,-1,1175,953,0,0
-42,71,0,0,0,0,0,0,0,0,0,-1,1182,953,0,0
-35,71,0,0,0,0,0,0,0,0,0,-1,1189,953,0,0
-28,71,0,0,0,0,0,0,0,0,0,-1,1196,953,0,0
-21,71,0,0,0,0,0,0,0,0,0,-1,1203,953,0,0
-14,71,0,0,0,0,0,0,0,0,0,-1,1210,953,0,0
-7,71,0,0,0,0,0,0,0,0,0,-1,1217,953,0,0
0,71,0,0,0,0,0,0,0,0,0,-1,1224,953,0,0
7,71,0,0,0,0,0,0,0,0,0,-1,1231,953,0,0
14,71,0,0,0,0,0,0,0,0,0,-1,1238,953,0,0
21,71,0,0,0,0,0,0,0,0,0,-1,1245,953,0,0
28,71,0,0,0,0,0,0,0,0,0,-1,1252,953,0,0
35,71,0,0,0,0,0,0,0,0,0,-1,1259,953,0,0
42,71,0,0,0,0,0,0,0,0,0,-1,1266,953,0,0
49,71,0,0,0,0,0,0,0,0,0,-1,1273,953,0,0
56,71,0,0,0,0,0,0,0,0,0,-1,1280,953,0,0
63,71,0,0,0,0,0,0,0,0,0,-1,1287,953,0,0
70,71,0,0,0,0,0,0,0,0,0,-1,1294,953,0,0
77,71,0,0,0,0,0,0,0,0,0,-1,1301,953,0,0
84,71,0,0,0,0,0,0,0,0,0,-1,1308,953,0,0
91,71,0,0,0,0,0,0,0,0,0,-1,1315,953,0,0
98,71,0,0,0,0,0,0,0,0,0,-1,1322,953,0,0
105,71,0,0,0,0,0,0,0,0,0,-1,1329,953,0,0
112,71,0,0,0,0,0,0,0,0,0,-1,1336,953,0,0
119,71,0,0,0,0,0,0,0,0,0,-1,1343,953,0,0
126,71,0,0,0,0,0,0,0,0,0,-1,1350,953,0,0
133,71,0,0,0,0,0,0,0,0,0,-1,1357,953,0,0
140,71,0,0,0,0,0,0,0,0,0,-1,1364,953,0,0
147,71,0,0,0,0,0,0,0,0,0,-1,1371,953,0,0
154,71,0,0,0,0,0,0,0,0,0,-1,1378,953,0,0
161,71,0,0,0,0,0,0,0,0,0,-1,1385,953,0,0
168,71,0,0,0,0,0,0,0,0,0,-1,1392,953,0,0
175,71,0,0,0,0,0,0,0,0,0,-1,1399,953,0,0
182,71,0,0,0,0,0,0,0,0,0,-1,1406,953,0,0
189,71,0,0,0,0,0,0,0,0,0,-1,1413,953,0,0
196,71,0,0,0,0,0,0,0,0,0,-1,1420,953,0,0
203,71,0,0,0,0,0,0,0,0,0,-1,1427,953,0,0
210,71,0,0,0,0,0,0,0,0,0,-1,1434,953,0,0
217,71,0,0,0,0,0,0,0,0,0,-1,1441,953,0,0
224,71,0,0,0,0,0,0,0,0,0,-1,1448,953,0,0
231,71,0,0,0,0,0,0,0,0,0,-1,1455,953,0,0
238,71,0,0,0,0,0,0,0,0,0,-1,1462,953,0,0
245,71,0,0,0,0,0,0,0,0,0,-1,1469,953,0,0
252,71,0,0,0,0,0,0,0,0,0,-1,1476,953,0,0
259,71,0,0,0,0,0,0,0,0,0,-1,1483,953,0,0
266,71,0,0,0,0,0,0,0,0,0,-1,1490,953,0,0
273,71,0,0,0,0,0,0,0,0,0,-1,1497,953,0,0
280,71,0,0,0,0,0,0,0,0,0,-1,1504,953,0,0
287,71,0,0,0,0,0,0,0,0,0,-1,1511,953,0,0
294,71,0,0,0,0,0,0,0,0,0,-1,1518,953,0,0
301,71,0,0,0,0,0,0,0,0,0,-1,1525,953,0,0
308,71,0,0,0,0,0,0,0,0,0,-1,1532,953,0,0
315,71,0,0,0,0,0,0,0,0,0,-1,1539,953,0,0
322,71,0,0,0,0,0,0,0,0,0,-1,1546,953,0,0
329,71,0,0,0,0,0,0,0,0,0,-1,1553,953,0,0
336,71,0,0,0,0,0,0,0,0,0,-1,1560,953,0,0
343,71,0,0,0,0,0,0,0,0,0,-1,1567,953,0,0
350,71,0,0,0,0,0,0,0,0,0,-1,1574,953,0,0
357,71,0,0,0,0,0,0,0,0,0,-1,1581,953,0,0
364,71,0,0,0,0,0,0,0,0,0,-1,1588,953,0,0
371,71,0,0,0,0,0,0,0,0,0,-1,1595,953,0,0
378,71,0,0,0,0,0,0,0,0,0,-1,1602,953,0,0
385,71,0,0,0,0,0,0,0,0,0,-1,1609,953,0,0
392,71,0,0,0,0,0,0,0,0,0,-1,1616,953,0,0
399,71,0,0,0,0,0,0,0,0,0,-1,1623,953,0,0
406,71,0,0,0,0,0,0,0,0,0,-1,1630,953,0,0
413,71,0,0,0,0,0,0,0,0,0,-1,1637,953,0,0
420,71,0,0,0,0,0,0,0,0,0,-1,1644,953,0,0
427,71,0,0,0,0,0,0,0,0,0,-1,1651,953,0,0
434,71,0,0,0,0,0,0,0,0,0,-1,1658,953,0,0
441,71,0,0,0,0,0,0,0,0,0,-1,1665,953,0,0
448,71,0,0,0,0,0,0,0,0,0,-1,1672,953,0,0
455,71,0,0,0,0,0,0,0,0,0,-1,1679,953,0,0
462,71,0,0,0,0,0,0,0,0,0,-1,1686,953,0,0
469,71,0,0,0,0,0,0,0,0,0,-1,1693,953,0,0
476,71,0,0,0,0,0,0,0,0,0,-1,1700,953,0,0
483,71,0,0,0,0,0,0,0,0,0,-1,1707,953,0,0
490,71,0,0,0,0,0,0,0,0,0,-1,1714,953,0,0
497,71,0,0,0,0,0,0,0,0,0,-1,1721,953,0,0
504,71,0,0,0,0,0,0,0,0,0,-1,1728,953,0,0
511,71,0,0,0,0,0,0,0,0,0,-1,1735,953,0,0
518,71,0,0,0,0,0,0,0,0,0,-1,1742,953,0,0
525,71,0,0,0,0,0,0,0,0,0,-1,1749,953,0,0
532,71,0,0,0,0,0,0,0,0,0,-1,1756,953,0,0
539,71,0,0,0,0,0,0,0,0,0,-1,1763,953,0,0
546,71,0,0,0,0,0,0,0,0,0,-1,1770,953,0,0
553,71,0,0,0,0,0,0,0,0,0,-1,1777,953,0,0
560,71,0,0,0,0,0,0,0,0,0,-1,1784,953,0,0
567,71,0,0,0,0,0,0,0,0,0,-1,1791,953,0,0
574,71,0,0,0,0,0,0,0,0,0,-1,1798,953,0,0
581,71,0,0,0,0,0,0,0,0,0,-1,1805,953,0,0
588,71,0,0,0,0,0,0,0,0,0,-1,1812,953,0,0
595,71,0,0,0,0,0,0,0,0,0,-1,1819,953,0,0
602,71,0,0,0,0,0,0,0,0,0,-1,1826,953,0,0
609,71,0,0,0,0,0,0,0,0,0,-1,1833,953,0,0
616,71,0,0,0,0,0,0,0,0,0,-1,1840,953,0,0
623,71,0,0,0,0,0,0,0,0,0,-1,1847,953,0,0
630,71,0,0,0,0,0,0,0,0,0,-1,1854,953,0,0
637,71,49.333,2.4375,-0.00754578,0.00400856,0.00308651,0.00478137,-0.00831859,1.32546,0.00765462,0.0418327,1861,953,49.333,-2.43751
644,71,49.1735,2.52588,-0.0063212,0.00328791,0.00203462,0.00370097,-0.00673425,1.37051,0.00610903,0.0428681,1868,953,49.1735,-2.52587
651,71,49.0685,2.64771,-0.0049593,0.00280683,0.000989372,0.00293089,-0.00508336,1.44605,0.00468233,0.0416293,1875,953,49.0684,-2.64772
658,71,49.1495,2.64185,-0.00369977,0.00247689,0.000415358,0.0025047,-0.00372758,1.50395,0.00362122,0.0391102,1882,953,49.1495,-2.64182
665,71,49.1329,2.38879,-0.00262305,0.00226523,0.000260888,0.00227912,-0.00263694,1.51763,0.00284079,0.040319,1889,953,49.1329,-2.38881
672,71,48.993,2.57703,-0.00196353,0.00200339,0.000365677,0.00203682,-0.00199695,1.47964,0.00232894,0.040805,1896,953,48.9931,-2.57704
679,71,48.9907,2.83197,-0.00159615,0.0016366,0.000669541,0.00176979,-0.00172933,1.37444,0.00202026,0.0402155,1903,953,48.9907,-2.83197
686,71,49.0415,2.78668,-0.00130174,0.00118796,0.000887193,0.00147175,-0.00158554,1.2612,0.00176554,0.0380701,1910,953,49.0415,-2.7867
693,71,49.0757,2.46539,-0.0011429,0.000848485,0.000931979,0.00121661,-0.00151102,1.19462,0.00157785,0.0325363,1917,953,49.0757,-2.46537
700,71,49.0626,2.48151,-0.00118289,0.000705766,0.000855074,0.00103537,-0.00151249,1.20288,0.00147958,0.0273414,1924,953,49.0626,-2.48153
707,71,49.1073,2.62994,0,0,0,0,0,0,0,-1,1931,953,49.1073,-2.62997
714,71,47.1993,4.26086,0,0,0,0,0,0,0,-1,1938,953,47.1994,-4.26085
721,71,46.9789,4.55884,-0.0023525,0.00128806,0.000504351,0.00135664,-0.00242108,1.43565,0.00220974,0.0414439,1945,953,46.9789,-4.55886
728,71,46.8093,4.98993,-0.00314679,0.00188495,0.000190418,0.00189215,-0.00315398,1.53302,0.00294359,0.0260462,1952,953,46.8093,-4.98993
735,71,46.8422,5.37048,-0.00415478,0.00285268,-0.000204806,0.00285866,-0.00416076,-1.5416,0.00407584,0.0199213,1959,953,46.8422,-5.3705
742,71,46.9,5.69519,-0.00536296,0.00436053,-0.00051245,0.00438746,-0.00538989,-1.51829,0.00565484,0.0202951,1966,953,46.9001,-5.69517
749,71,46.8646,6.01447,-0.00654749,0.00669092,-0.000951979,0.00675903,-0.0066156,-1.49938,0.00772199,0.0194248,1973,953,46.8647,-6.01448
756,71,46.8085,6.29462,-0.00750988,0.0101776,-0.00139198,0.0102865,-0.00761876,-1.49274,0.0103758,0.0182455,1980,953,46.8085,-6.29464
763,71,46.7507,6.61914,-0.00872117,0.0145509,-0.00146687,0.014643,-0.00881326,-1.5081,0.0136812,0.01999,1987,953,46.7507,-6.61912
770,71,46.5575,6.87982,-0.00966735,0.01971,-0.00115477,0.0197553,-0.00971267,-1.53157,0.0173395,0.0245764,1994,953,46.5575,-6.8798
777,71,46.4786,7.38342,-0.0100515,0.0256657,-0.000652843,0.0256776,-0.0100634,-1.55253,0.0212814,0.0438867,2001,953,46.4787,-7.38343
784,71,46.3518,7.95465,-0.00911407,0.0329185,0.000249961,0.03292,-0.00911555,1.56485,0.0255334,0.0445883,2008,953,46.3517,-7.95462
791,71,46.0898,8.46625,0,0,0,0,0,0,0,-1,2015,953,46.0898,-8.46622
798,71,45.7324,8.90094,0,0,0,0,0,0,0,-1,2022,953,45.7324,-8.90094
805,71,45.0161,6.63287,0,0,0,0,0,0,0,-1,2029,953,45.0161,-6.63289
812,71,0,0,0,0,0,0,0,0,0,-1,2036,953,0,0
-700,64,0,0,0,0,0,0,0,0,0,-1,524,960,0,0
-693,64,0,0,0,0,0,0,0,0,0,-1,531,960,0,0
-686,64,-34.0908,5.83234,0,0,0,0,0,0,0,-1,538,960,-34.0908,-5.83235
-679,64,-34.9937,6.22809,-0.0155374,0.0350129,-0.00161269,0.0350643,-0.0155888,-1.53894,0.0299565,0.0441414,545,960,-34.9937,-6.22809
-672,64,-35.2267,5.86334,-0.0148509,0.0310588,-0.00038439,0.031062,-0.0148541,-1.56242,0.0270546,0.0488436,552,960,-35.2267,-5.86333
-665,64,-35.0428,5.409,0,0,0,0,0,0,0,-1,559,960,-35.0428,-5.40898
-658,64,-35.0074,5.31866,0,0,0,0,0,0,0,-1,566,960,-35.0074,-5.31867
-651,64,-35.3294,5.01831,-0.012197,0.0202558,0.00187272,0.0203635,-0.0123047,1.51334,0.0190513,0.0453832,573,960,-35.3294,-5.0183
-644,64,-35.7047,4.42438,-0.0108124,0.0170015,0.00217147,0.01717,-0.0109809,1.49335,0.0163833,0.0322153,580,960,-35.7047,-4.42439
-637,64,-35.6277,4.03265,-0.00954774,0.0132834,0.00203522,0.0134634,-0.00972775,1.48258,0.0134472,0.017432,587,960,-35.6277,-4.03264
-630,64,-35.6927,3.76691,-0.00812999,0.0103916,0.00178753,0.0105626,-0.00830092,1.47546,0.0109169,0.0146382,594,960,-35.6928,-3.76689
-623,64,-35.7267,3.49896,-0.00708757,0.00806773,0.001147,0.00815404,-0.00717389,1.49568,0.00885562,0.0156278,601,960,-35.7267,-3.49894
-616,64,-35.7357,3.21515,-0.00649887,0.00603241,1.44882e-05,0.00603243,-0.00649889,1.56964,0.00723663,0.019463,608,960,-35.7357,-3.21514
-609,64,-35.7167,2.98218,-0.00659892,0.00398351,-0.00111342,0.00409939,-0.00671479,-1.4671,0.00630415,0.0175139,615,960,-35.7167,-2.98217
-602,64,-35.7029,2.69562,-0.00686525,0.00238462,-0.00213361,0.00285304,-0.00733368,-1.35468,0.00606798,0.016859,622,960,-35.7029,-2.69563
-595,64,-35.7299,2.39264,-0.00681717,0.00130378,-0.00293135,0.00225133,-0.00776472,-1.25815,0.00606777,0.0197265,629,960,-35.7299,-2.39266
-588,64,-35.6781,2.17615,-0.00664454,0.000297407,-0.00343901,0.00171258,-0.00805971,-1.18041,0.00602568,0.0308982,636,960,-35.6781,-2.17617
-581,64,-35.9315,1.62891,-0.00661718,-0.000299104,-0.00378402,0.00147119,-0.00838747,-1.13321,0.00614107,0.0427296,643,960,-35.9315,-1.62888
-574,64,-36.5076,1.00781,-0.00653085,-0.00037786,-0.00400157,0.00159316,-0.00850187,-1.11312,0.00626683,0.0419692,650,960,-36.5076,-1.00779
-567,64,-36.6685,0.721985,-0.00631784,-0.000269826,-0.00402647,0.00174175,-0.00832942,-1.10748,0.00621542,0.0243201,657,960,-36.6684,-0.721964
-560,64,-36.792,0.730896,-0.00566013,2.36637e-05,-0.00382239,0.00194486,-0.00758132,-1.10506,0.005812,0.0334714,664,960,-36.792,-0.730921
-553,64,-36.7941,0.658508,-0.00444721,0.000501339,-0.00342689,0.00225384,-0.00619971,-1.09807,0.00505478,0.0396813,671,960,-36.7941,-0.658501
-546,64,-36.8049,0.810913,-0.00265915,0.00114419,-0.00288251,0.00269581,-0.00421077,-1.07699,0.00401937,0.0406136,678,960,-36.8049,-0.810888
-539,64,-36.7558,0.840088,-0.000299736,0.00189516,-0.00230365,0.00334941,-0.00175399,-1.00769,0.00299406,0.0407782,685,960,-36.7558,-0.840103
-532,64,-36.6061,1.00476,0.00249943,0.00288017,-0.00219527,0.00489331,0.000486286,-0.828649,0.0031128,0.0424932,692,960,-36.6062,-1.00476
-525,64,-36.57,0.999695,0.00337401,0.00435045,-0.00342595,0.0073228,0.000401665,-0.856174,0.00475364,0.0453851,699,960,-36.57,-0.999699
-518,64,0,0,0,0,0,0,0,0,0,-1,706,960,0,0
-511,64,0,0,0,0,0,0,0,0,0,-1,713,960,0,0
-504,64,0,0,0,0,0,0,0,0,0,-1,720,960,0,0
-497,64,0,0,0,0,0,0,0,0,0,-1,727,960,0,0
-490,64,0,0,0,0,0,0,0,0,0,-1,734,960,0,0
-483,64,0,0,0,0,0,0,0,0,0,-1,741,960,0,0
-476,64,0,0,0,0,0,0,0,0,0,-1,748,960,0,0
-469,64,0,0,0,0,0,0,0,0,0,-1,755,960,0,0
-462,64,0,0,0,0,0,0,0,0,0,-1,762,960,0,0
-455,64,0,0,0,0,0,0,0,0,0,-1,769,960,0,0
-448,64,0,0,0,0,0,0,0,0,0,-1,776,960,0,0
-441,64,0,0,0,0,0,0,0,0,0,-1,783,960,0,0
-434,64,0,0,0,0,0,0,0,0,0,-1,790,960,0,0
-427,64,0,0,0,0,0,0,0,0,0,-1,797,960,0,0
-420,64,0,0,0,0,0,0,0,0,0,-1,804,960,0,0
-413,64,0,0,0,0,0,0,0,0,0,-1,811,960,0,0
-406,64,0,0,0,0,0,0,0,0,0,-1,818,960,0,0
-399,64,0,0,0,0,0,0,0,0,0,-1,825,960,0,0
-392,64,0,0,0,0,0,0,0,0,0,-1,832,960,0,0
-385,64,0,0,0,0,0,0,0,0,0,-1,839,960,0,0
-378,64,0,0,0,0,0,0,0,0,0,-1,846,960,0,0
-371,64,0,0,0,0,0,0,0,0,0,-1,853,960,0,0
-364,64,0,0,0,0,0,0,0,0,0,-1,860,960,0,0
-357,64,0,0,0,0,0,0,0,0,0,-1,867,960,0,0
-350,64,0,0,0,0,0,0,0,0,0,-1,874,960,0,0
-343,64,0,0,0,0,0,0,0,0,0,-1,881,960,0,0
-336,64,0,0,0,0,0,0,0,0,0,-1,888,960,0,0
-329,64,0,0,0,0,0,0,0,0,0,-1,895,960,0,0
-322,64,0,0,0,0,0,0,0,0,0,-1,902,960,0,0
-315,64,0,0,0,0,0,0,0,0,0,-1,909,960,0,0
-308,64,0,0,0,0,0,0,0,0,0,-1,916,960,0,0
-301,64,0,0,0,0,0,0,0,0,0,-1,923,960,0,0
-294,64,0,0,0,0,0,0,0,0,0,-1,930,960,0,0
-287,64,0,0,0,0,0,0,0,0,0,-1,937,960,0,0
-280,64,0,0,0,0,0,0,0,0,0,-1,944,960,0,0
-273,64,0,0,0,0,0,0,0,0,0,-1,951,960,0,0
-266,64,0,0,0,0,0,0,0,0,0,-1,958,960,0,0
-259,64,0,0,0,0,0,0,0,0,0,-1,965,960,0,0
-252,64,0,0,0,0,0,0,0,0,0,-1,972,960,0,0
-245,64,0,0,0,0,0,0,0,0,0,-1,979,960,0,0
-238,64,0,0,0,0,0,0,0,0,0,-1,986,960,0,0
-231,64,0,0,0,0,0,0,0,0,0,-1,993,960,0,0
-224,64,0,0,0,0,0,0,0,0,0,-1,1000,960,0,0
-217,64,0,0,0,0,0,0,0,0,0,-1,1007,960,0,0
-210,64,0,0,0,0,0,0,0,0,0,-1,1014,960,0,0
-203,64,0,0,0,0,0,0,0,0,0,-1,1021,960,0,0
-196,64,0,0,0,0,0,0,0,0,0,-1,1028,960,0,0
-189,64,0,0,0,0,0,0,0,0,0,-1,1035,960,0,0
-182,64,0,0,0,0,0,0,0,0,0,-1,1042,960,0,0
-175,64,0,0,0,0,0,0,0,0,0,-1,1049,960,0,0
-168,64,0,0,0,0,0,0,0,0,0,-1,1056,960,0,0
-161,64,0,0,0,0,0,0,0,0,0,-1,1063,960,0,0
-154,64,0,0,0,0,0,0,0,0,0,-1,1070,960,0,0
-147,64,0,0,0,0,0,0,0,0,0,-1,1077,960,0,0
-140,64,0,0,0,0,0,0,0,0,0,-1,1084,960,0,0
-133,64,0,0,0,0,0,0,0,0,0,-1,1091,960,0,0
-126,64,0,0,0,0,0,0,0,0,0,-1,1098,960,0,0
-119,64,0,0,0,0,0,0,0,0,0,-1,1105,960,0,0
-112,64,0,0,0,0,0,0,0,0,0,-1,1112,960,0,0
-105,64,0,0,0,0,0,0,0,0,0,-1,1119,960,0,0
-98,64,0,0,0,0,0,0,0,0,0,-1,1126,960,0,0
-91,64,0,0,0,0,0,0,0,0,0,-1,1133,960,0,0
-84,64,0,0,0,0,0,0,0,0,0,-1,1140,960,0,0
-77,64,0,0,0,0,0,0,0,0,0,-1,1147,960,0,0
-70,64,0,0,0,0,0,0,0,0,0,-1,1154,960,0,0
-63,64,0,0,0,0,0,0,0,0,0,-1,1161,960,0,0
-56,64,0,0,0,0,0,0,0,0,0,-1,1168,960,0,0
-49,64,0,0,0,0,0,0,0,0,0,-1,1175,960,0,0
-42,64,0,0,0,0,0,0,0,0,0,-1,1182,960,0,0
-35,64,0,0,0,0,0,0,0,0,0,-1,1189,960,0,0
-28,64,0,0,0,0,0,0,0,0,0,-1,1196,960,0,0
-21,64,0,0,0,0,0,0,0,0,0,-1,1203,960,0,0
-14,64,0,0,0,0,0,0,0,0,0,-1,1210,960,0,0
-7,64,0,0,0,0,0,0,0,0,0,-1,1217,960,0,0
0,64,0,0,0,0,0,0,0,0,0,-1,1224,960,0,0
7,64,0,0,0,0,0,0,0,0,0,-1,1231,960,0,0
14,64,0,0,0,0,0,0,0,0,0,-1,1238,960,0,0
21,64,0,0,0,0,0,0,0,0,0,-1,1245,960,0,0
28,64,0,0,0,0,0,0,0,0,0,-1,1252,960,0,0
35,64,0,0,0,0,0,0,0,0,0,-1,1259,960,0,0
42,64,0,0,0,0,0,0,0,0,0,-1,1266,960,0,0
49,64,0,0,0,0,0,0,0,0,0,-1,1273,960,0,0
56,64,0,0,0,0,0,0,0,0,0,-1,1280,960,0,0
63,64,0,0,0,0,0,0,0,0,0,-1,1287,960,0,0
70,64,0,0,0,0,0,0,0,0,0,-1,1294,960,0,0
77,64,0,0,0,0,0,0,0,0,0,-1,1301,960,0,0
84,64,0,0,0,0,0,0,0,0,0,-1,1308,960,0,0
91,64,0,0,0,0,0,0,0,0,0,-1,1315,960,0,0
98,64,0,0,0,0,0,0,0,0,0,-1,1322,960,0,0
105,64,0,0,0,0,0,0,0,0,0,-1,1329,960,0,0
112,64,0,0,0,0,0,0,0,0,0,-1,1336,960,0,0
119,64,0,0,0,0,0,0,0,0,0,-1,1343,960,0,0
126,64,0,0,0,0,0,0,0,0,0,-1,1350,960,0,0
133,64,0,0,0,0,0,0,0,0,0,-1,1357,960,0,0
140,64,0,0,0,0,0,0,0,0,0,-1,1364,960,0,0
147,64,0,0,0,0,0,0,0,0,0,-1,1371,960,0,0
154,64,0,0,0,0,0,0,0,0,0,-1,1378,960,0,0
161,64,0,0,0,0,0,0,0,0,0,-1,1385,960,0,0
168,64,0,0,0,0,0,0,0,0,0,-1,1392,960,0,0
175,64,0,0,0,0,0,0,0,0,0,-1,1399,960,0,0
182,64,0,0,0,0,0,0,0,0,0,-1,1406,960,0,0
189,64,0,0,0,0,0,0,0,0,0,-1,1413,960,0,0
196,64,0,0,0,0,0,0,0,0,0,-1,1420,960,0,0
203,64,0,0,0,0,0,0,0,0,0,-1,1427,960,0,0
210,64,0,0,0,0,0,0,0,0,0,-1,1434,960,0,0
217,64,0,0,0,0,0,0,0,0,0,-1,1441,960,0,0
224,64,0,0,0,0,0,0,0,0,0,-1,1448,960,0,0
231,64,0,0,0,0,0,0,0,0,0,-1,1455,960,0,0
238,64,0,0,0,0,0,0,0,0,0,-1,1462,960,0,0
245,64,0,0,0,0,0,0,0,0,0,-1,1469,960,0,0
252,64,0,0,0,0,0,0,0,0,0,-1,1476,960,0,0
259,64,0,0,0,0,0,0,0,0,0,-1,1483,960,0,0
266,64,0,0,0,0,0,0,0,0,0,-1,1490,960,0,0
273,64,0,0,0,0,0,0,0,0,0,-1,1497,960,0,0
280,64,0,0,0,0,0,0,0,0,0,-1,1504,960,0,0
287,64,0,0,0,0,0,0,0,0,0,-1,1511,960,0,0
294,64,0,0,0,0,0,0,0,0,0,-1,1518,960,0,0
301,64,0,0,0,0,0,0,0,0,0,-1,1525,960,0,0
308,64,0,0,0,0,0,0,0,0,0,-1,1532,960,0,0
315,64,0,0,0,0,0,0,0,0,0,-1,1539,960,0,0
322,64,0,0,0,0,0,0,0,0,0,-1,1546,960,0,0
329,64,0,0,0,0,0,0,0,0,0,-1,1553,960,0,0
336,64,0,0,0,0,0,0,0,0,0,-1,1560,960,0,0
343,64,0,0,0,0,0,0,0,0,0,-1,1567,960,0,0
350,64,0,0,0,0,0,0,0,0,0,-1,1574,960,0,0
357,64,0,0,0,0,0,0,0,0,0,-1,1581,960,0,0
364,64,0,0,0,0,0,0,0,0,0,-1,1588,960,0,0
371,64,0,0,0,0,0,0,0,0,0,-1,1595,960,0,0
378,64,0,0,0,0,0,0,0,0,0,-1,1602,960,0,0
385,64,0,0,0,0,0,0,0,0,0,-1,1609,960,0,0
392,64,0,0,0,0,0,0,0,0,0,-1,1616,960,0,0
399,64,0,0,0,0,0,0,0,0,0,-1,1623,960,0,0
406,64,0,0,0,0,0,0,0,0,0,-1,1630,960,0,0
413,64,0,0,0,0,0,0,0,0,0,-1,1637,960,0,0
420,64,0,0,0,0,0,0,0,0,0,-1,1644,960,0,0
427,64,0,0,0,0,0,0,0,0,0,-1,1651,960,0,0
434,64,0,0,0,0,0,0,0,0,0,-1,1658,960,0,0
441,64,0,0,0,0,0,0,0,0,0,-1,1665,960,0,0
448,64,0,0,0,0,0,0,0,0,0,-1,1672,960,0,0
455,64,0,0,0,0,0,0,0,0,0,-1,1679,960,0,0
462,64,0,0,0,0,0,0,0,0,0,-1,1686,960,0,0
469,64,0,0,0,0,0,0,0,0,0,-1,1693,960,0,0
476,64,0,0,0,0,0,0,0,0,0,-1,1700,960,0,0
483,64,0,0,0,0,0,0,0,0,0,-1,1707,960,0,0
490,64,0,0,0,0,0,0,0,0,0,-1,1714,960,0,0
497,64,0,0,0,0,0,0,0,0,0,-1,1721,960,0,0
504,64,0,0,0,0,0,0,0,0,0,-1,1728,960,0,0
511,64,0,0,0,0,0,0,0,0,0,-1,1735,960,0,0
518,64,0,0,0,0,0,0,0,0,0,-1,1742,960,0,0
525,64,0,0,0,0,0,0,0,0,0,-1,1749,960,0,0
532,64,0,0,0,0,0,0,0,0,0,-1,1756,960,0,0
539,64,0,0,0,0,0,0,0,0,0,-1,1763,960,0,0
546,64,0,0,0,0,0,0,0,0,0,-1,1770,960,0,0
553,64,0,0,0,0,0,0,0,0,0,-1,1777,960,0,0
560,64,0,0,0,0,0,0,0,0,0,-1,1784,960,0,0
567,64,0,0,0,0,0,0,0,0,0,-1,1791,960,0,0
574,64,0,0,0,0,0,0,0,0,0,-1,1798,960,0,0
581,64,0,0,0,0,0,0,0,0,0,-1,1805,960,0,0
588,64,0,0,0,0,0,0,0,0,0,-1,1812,960,0,0
595,64,0,0,0,0,0,0,0,0,0,-1,1819,960,0,0
602,64,0,0,0,0,0,0,0,0,0,-1,1826,960,0,0
609,64,0,0,0,0,0,0,0,0,0,-1,1833,960,0,0
616,64,0,0,0,0,0,0,0,0,0,-1,1840,960,0,0
623,64,0,0,0,0,0,0,0,0,0,-1,1847,960,0,0
630,64,0,0,0,0,0,0,0,0,0,-1,1854,960,0,0
637,64,0,0,0,0,0,0,0,0,0,-1,1861,960,0,0
644,64,49.1971,2.64087,-0.00663614,0.0032141,0.00299205,0.00405172,-0.00747377,1.29784,0.0067513,0.0413051,1868,960,49.1971,-2.64088
651,64,49.1493,2.65234,-0.00512246,0.0029753,0.00163141,0.00329161,-0.00543877,1.37928,0.00509105,0.0394848,1875,960,49.1492,-2.65232
658,64,49.1213,2.71594,-0.00381399,0.00276066,0.000856755,0.00287047,-0.0039238,1.44332,0.00393835,0.0372313,1882,960,49.1213,-2.71594
665,64,49.0107,2.69635,-0.00276006,0.00262903,0.000606682,0.00269648,-0.00282751,1.46007,0.00318958,0.0398251,1889,960,49.0107,-2.69634
672,64,49.0173,2.81641,-0.00209797,0.00244299,0.000673489,0.00254077,-0.00219575,1.42662,0.00273705,0.044995,1896,960,49.0173,-2.81643
679,64,49.0095,2.88318,-0.00173694,0.0021367,0.000998,0.0023787,-0.00197895,1.3329,0.00251942,0.0440366,1903,960,49.0095,-2.8832
686,64,49.0459,2.72815,-0.00144407,0.00171563,0.00127192,0.00216401,-0.00189245,1.23188,0.00234374,0.0381765,1910,960,49.0459,-2.72815
693,64,49.0569,2.43408,-0.0012723,0.00134167,0.00137241,0.00192987,-0.0018605,1.16589,0.00218849,0.0345771,1917,960,49.0569,-2.43407
700,64,49.1074,2.49487,-0.00128325,0.00116565,0.00132202,0.00174315,-0.00186074,1.15895,0.00208108,0.0285842,1924,960,49.1074,-2.49487
707,64,48.9913,2.89935,-0.00150234,0.00119973,0.00123282,0.00167766,-0.00198028,1.20096,0.00211432,0.0418168,1931,960,48.9913,-2.89936
714,64,48.0594,4.36584,0,0,0,0,0,0,0,-1,1938,960,48.0594,-4.36583
721,64,47.394,4.58887,-0.00248063,0.00167994,0.000975401,0.00189726,-0.00269795,1.35158,0.00266644,0.0405405,1945,960,47.3941,-4.58889
728,64,47.1447,5.01605,-0.0032631,0.00231479,0.000679016,0.00239626,-0.00334457,1.45139,0.00332951,0.0209302,1952,960,47.1446,-5.01603
735,64,47.1122,5.4057,-0.00421726,0.00329931,0.000306171,0.00331176,-0.00422971,1.53015,0.00436481,0.0290246,1959,960,47.1122,-5.40571
742,64,47.2041,5.67816,-0.00535325,0.00488125,5.92949e-05,0.00488159,-0.00535359,1.565,0.00591138,0.0256776,1966,960,47.2042,-5.67815
749,64,47.2302,5.98413,-0.00640063,0.00734685,-0.000308179,0.00735376,-0.00640754,-1.54839,0.00795135,0.016416,1973,960,47.2302,-5.98414
756,64,47.173,6.2691,-0.007153,0.0109908,-0.000677405,0.0110161,-0.00717825,-1.53353,0.0105821,0.0151772,1980,960,47.173,-6.2691
763,64,47.135,6.56085,-0.00806526,0.0156654,-0.000619113,0.0156816,-0.0080814,-1.54473,0.0139515,0.017577,1987,960,47.135,-6.56085
770,64,46.9542,6.81732,-0.00860248,0.0213726,-4.35963e-05,0.0213727,-0.00860255,-1.56934,0.017822,0.019037,1994,960,46.9543,-6.8173
777,64,46.7721,7.26288,-0.0084167,0.0279461,0.000804281,0.0279639,-0.00843448,1.54869,0.0219998,0.0338829,2001,960,46.772,-7.26287
784,64,46.5737,7.8606,-0.0067752,0.0359242,0.00212882,0.0360301,-0.00688107,1.5211,0.0266119,0.0433095,2008,960,46.5738,-7.86058
791,64,46.3494,8.41357,0,0,0,0,0,0,0,-1,2015,960,46.3493,-8.41359
798,64,46.4673,7.68811,0,0,0,0,0,0,0,-1,2022,960,46.4674,-7.68814
805,64,45.2212,5.37988,0,0,0,0,0,0,0,-1,2029,960,45.2211,-5.37991
812,64,0,0,0,0,0,0,0,0,0,-1,2036,960,0,0
-700,57,0,0,0,0,0,0,0,0,0,-1,524,967,0,0
-693,57,0,0,0,0,0,0,0,0,0,-1,531,967,0,0
-686,57,-35.0896,6.97418,-0.0113576,0.0480051,-5.05324e-05,0.0480052,-0.0113576,-1.56995,0.0363851,0.0425053,538,967,-35.0896,-6.97417
-679,57,-35.3042,6.30341,-0.0113534,0.0420756,0.00120211,0.0421026,-0.0113804,1.54831,0.0325323,0.0438329,545,967,-35.3042,-6.30342
-672,57,-35.6652,5.92377,0,0,0,0,0,0,0,-1,552,967,-35.6651,-5.92375
-665,57,-35.8188,4.14679,0,0,0,0,0,0,0,-1,559,967,-35.8189,-4.14679
-658,57,-34.6756,3.86963,0,0,0,0,0,0,0,-1,566,967,-34.6756,-3.86961
-651,57,-35.7892,5.17145,0,0,0,0,0,0,0,-1,573,967,-35.7892,-5.17144
-644,57,-35.9955,4.31726,-0.00998633,0.018902,0.00300427,0.0192112,-0.0102955,1.46826,0.0172929,0.034143,580,967,-35.9955,-4.31726
-637,57,-35.9511,3.89777,-0.00908352,0.0145079,0.00247433,0.0147646,-0.00934024,1.46741,0.0140339,0.0200112,587,967,-35.9511,-3.89774
-630,57,-36.0283,3.66669,-0.00787721,0.0111285,0.00191379,0.0113193,-0.00806801,1.47143,0.0112456,0.0147265,594,967,-36.0283,-3.6667
-623,57,-36.0506,3.4621,-0.00686729,0.00849338,0.00102994,0.00856213,-0.00693604,1.50414,0.00896427,0.0142299,601,967,-36.0506,-3.46209
-616,57,-36.0283,3.22046,-0.00621101,0.00638396,-0.000320787,0.00639213,-0.00621918,-1.54535,0.00728137,0.0170753,608,967,-36.0283,-3.22045
-609,57,-36.037,2.98444,-0.00606577,0.00425989,-0.00161114,0.00450544,-0.00631132,-1.41955,0.006274,0.0165766,615,967,-36.037,-2.98445
-602,57,-36.0266,2.72174,-0.00612082,0.00254433,-0.00275696,0.00334713,-0.00692361,-1.28744,0.00604847,0.0110535,622,967,-36.0266,-2.72176
-595,57,-36.0215,2.46698,-0.00590249,0.00137114,-0.00363286,0.00287476,-0.00740611,-1.17837,0.00612483,0.0139502,629,967,-36.0216,-2.46697
-588,57,-35.9865,2.3136,-0.0056454,0.000234704,-0.00416799,0.00239525,-0.00780594,-1.09256,0.00615962,0.0228801,636,967,-35.9865,-2.31359
-581,57,-36.216,1.61676,-0.00556214,-0.000493998,-0.00455743,0.0021865,-0.00824264,-1.03913,0.00635065,0.0367335,643,967,-36.216,-1.61676
-574,57,-36.6373,0.769897,-0.00543108,-0.00063547,-0.00475823,0.00229497,-0.00836152,-1.01879,0.00647633,0.0311269,650,967,-36.6373,-0.769921
-567,57,-36.6762,0.710754,-0.00515513,-0.000586991,-0.00469143,0.00234684,-0.00808896,-1.01194,0.00632183,0.0293091,657,967,-36.6762,-0.710729
-560,57,-36.7248,0.596558,-0.00441939,-0.000347393,-0.00435591,0.00242485,-0.00719163,-1.00402,0.00577497,0.0377211,664,967,-36.7248,-0.596567
-553,57,-36.6692,0.499634,-0.00311351,9.65787e-05,-0.00382403,0.00263874,-0.00565567,-0.984096,0.00489324,0.0400537,671,967,-36.6692,-0.499644
-546,57,-36.6218,0.687073,-0.00120773,0.000701288,-0.0031544,0.00304243,-0.00354887,-0.932317,0.00380923,0.0421902,678,967,-36.6219,-0.687072
-539,57,-36.6255,0.847351,0.00134234,0.00141378,-0.00253339,0.0039117,-0.00115558,-0.792448,0.00306645,0.0431427,685,967,-36.6255,-0.84735
-532,57,-36.6973,0.663147,0.00441628,0.00242998,-0.00264224,0.00624585,0.000600405,-0.605629,0.0039789,0.0411475,692,967,-36.6974,-0.663137
-525,57,-36.7245,0.597473,0.00549212,0.0038784,-0.00430766,0.00906784,0.000302682,-0.692816,0.0059469,0.0441456,699,967,-36.7245,-0.597465
-518,57,0,0,0,0,0,0,0,0,0,-1,706,967,0,0
-511,57,0,0,0,0,0,0,0,0,0,-1,713,967,0,0
-504,57,0,0,0,0,0,0,0,0,0,-1,720,967,0,0
-497,57,0,0,0,0,0,0,0,0,0,-1,727,967,0,0
-490,57,0,0,0,0,0,0,0,0,0,-1,734,967,0,0
-483,57,0,0,0,0,0,0,0,0,0,-1,741,967,0,0
-476,57,0,0,0,0,0,0,0,0,0,-1,748,967,0,0
-469,57,0,0,0,0,0,0,0,0,0,-1,755,967,0,0
-462,57,0,0,0,0,0,0,0,0,0,-1,762,967,0,0
-455,57,0,0,0,0,0,0,0,0,0,-1,769,967,0,0
-448,57,0,0,0,0,0,0,0,0,0,-1,776,967,0,0
-441,57,0,0,0,0,0,0,0,0,0,-1,783,967,0,0
-434,57,0,0,0,0,0,0,0,0,0,-1,790,967,0,0
-427,57,0,0,0,0,0,0,0,0,0,-1,797,967,0,0
-420,57,0,0,0,0,0,0,0,0,0,-1,804,967,0,0
-413,57,0,0,0,0,0,0,0,0,0,-1,811,967,0,0
-406,57,0,0,0,0,0,0,0,0,0,-1,818,967,0,0
-399,57,0,0,0,0,0,0,0,0,0,-1,825,967,0,0
-392,57,0,0,0,0,0,0,0,0,0,-1,832,967,0,0
-385,57,0,0,0,0,0,0,0,0,0,-1,839,967,0,0
-378,57,0,0,0,0,0,0,0,0,0,-1,846,967,0,0
-371,57,0,0,0,0,0,0,0,0,0,-1,853,967,0,0
-364,57,0,0,0,0,0,0,0,0,0,-1,860,967,0,0
-357,57,0,0,0,0,0,0,0,0,0,-1,867,967,0,0
-350,57,0,0,0,0,0,0,0,0,0,-1,874,967,0,0
-343,57,0,0,0,0,0,0,0,0,0,-1,881,967,0,0
-336,57,0,0,0,0,0,0,0,0,0,-1,888,967,0,0
-329,57,0,0,0,0,0,0,0,0,0,-1,895,967,0,0
-322,57,0,0,0,0,0,0,0,0,0,-1,902,967,0,0
-315,57,0,0,0,0,0,0,0,0,0,-1,909,967,0,0
-308,57,0,0,0,0,0,0,0,0,0,-1,916,967,0,0
-301,57,0,0,0,0,0,0,0,0,0,-1,923,967,0,0
-294,57,0,0,0,0,0,0,0,0,0,-1,930,967,0,0
-287,57,0,0,0,0,0,0,0,0,0,-1,937,967,0,0
-280,57,0,0,0,0,0,0,0,0,0,-1,944,967,0,0
-273,57,0,0,0,0,0,0,0,0,0,-1,951,967,0,0
-266,57,0,0,0,0,0,0,0,0,0,-1,958,967,0,0
-259,57,0,0,0,0,0,0,0,0,0,-1,965,967,0,0
-252,57,0,0,0,0,0,0,0,0,0,-1,972,967,0,0
-245,57,0,0,0,0,0,0,0,0,0,-1,979,967,0,0
-238,57,0,0,0,0,0,0,0,0,0,-1,986,967,0,0
-231,57,0,0,0,0,0,0,0,0,0,-1,993,967,0,0
-224,57,0,0,0,0,0,0,0,0,0,-1,1000,967,0,0
-217,57,0,0,0,0,0,0,0,0,0,-1,1007,967,0,0
-210,57,0,0,0,0,0,0,0,0,0,-1,1014,967,0,0
-203,57,0,0,0,0,0,0,0,0,0,-1,1021,967,0,0
-196,57,0,0,0,0,0,0,0,0,0,-1,1028,967,0,0
-189,57,0,0,0,0,0,0,0,0,0,-1,1035,967,0,0
-182,57,0,0,0,0,0,0,0,0,0,-1,1042,967,0,0
-175,57,0,0,0,0,0,0,0,0,0,-1,1049,967,0,0
-168,57,0,0,0,0,0,0,0,0,0,-1,1056,967,0,0
-161,57,0,0,0,0,0,0,0,0,0,-1,1063,967,0,0
-154,57,0,0,0,0,0,0,0,0,0,-1,1070,967,0,0
-147,57,0,0,0,0,0,0,0,0,0,-1,1077,967,0,0
-140,57,0,0,0,0,0,0,0,0,0,-1,1084,967,0,0
-133,57,0,0,0,0,0,0,0,0,0,-1,1091,967,0,0
-126,57,0,0,0,0,0,0,0,0,0,-1,1098,967,0,0
-119,57,0,0,0,0,0,0,0,0,0,-1,1105,967,0,0
-112,57,0,0,0,0,0,0,0,0,0,-1,1112,967,0,0
-105,57,0,0,0,0,0,0,0,0,0,-1,1119,967,0,0
-98,57,0,0,0,0,0,0,0,0,0,-1,1126,967,0,0
-91,57,0,0,0,0,0,0,0,0,0,-1,1133,967,0,0
-84,57,0,0,0,0,0,0,0,0,0,-1,1140,967,0,0
-77,57,0,0,0,0,0,0,0,0,0,-1,1147,967,0,0
-70,57,0,0,0,0,0,0,0,0,0,-1,1154,967,0,0
-63,57,0,0,0,0,0,0,0,0,0,-1,1161,967,0,0
-56,57,0,0,0,0,0,0,0,0,0,-1,1168,967,0,0
-49,57,0,0,0,0,0,0,0,0,0,-1,1175,967,0,0
-42,57,0,0,0,0,0,0,0,0,0,-1,1182,967,0,0
-35,57,0,0,0,0,0,0,0,0,0,-1,1189,967,0,0
-28,57,0,0,0,0,0,0,0,0,0,-1,1196,967,0,0
-21,57,0,0,0,0,0,0,0,0,0,-1,1203,967,0,0
-14,57,0,0,0,0,0,0,0,0,0,-1,1210,967,0,0
-7,57,0,0,0,0,0,0,0,0,0,-1,1217,967,0,0
0,57,0,0,0,0,0,0,0,0,0,-1,1224,967,0,0
7,57,0,0,0,0,0,0,0,0,0,-1,1231,967,0,0
14,57,0,0,0,0,0,0,0,0,0,-1,1238,967,0,0
21,57,0,0,0,0,0,0,0,0,0,-1,1245,967,0,0
28,57,0,0,0,0,0,0,0,0,0,-1,1252,967,0,0
35,57,0,0,0,0,0,0,0,0,0,-1,1259,967,0,0
42,57,0,0,0,0,0,0,0,0,0,-1,1266,967,0,0
49,57,0,0,0,0,0,0,0,0,0,-1,1273,967,0,0
56,57,0,0,0,0,0,0,0,0,0,-1,1280,967,0,0
63,57,0,0,0,0,0,0,0,0,0,-1,1287,967,0,0
70,57,0,0,0,0,0,0,0,0,0,-1,1294,967,0,0
77,57,0,0,0,0,0,0,0,0,0,-1,1301,967,0,0
84,57,0,0,0,0,0,0,0,0,0,-1,1308,967,0,0
91,57,0,0,0,0,0,0,0,0,0,-1,1315,967,0,0
98,57,0,0,0,0,0,0,0,0,0,-1,1322,967,0,0
105,57,0,0,0,0,0,0,0,0,0,-1,1329,967,0,0
112,57,0,0,0,0,0,0,0,0,0,-1,1336,967,0,0
119,57,0,0,0,0,0,0,0,0,0,-1,1343,967,0,0
126,57,0,0,0,0,0,0,0,0,0,-1,1350,967,0,0
133,57,0,0,0,0,0,0,0,0,0,-1,1357,967,0,0
140,57,0,0,0,0,0,0,0,0,0,-1,1364,967,0,0
147,57,0,0,0,0,0,0,0,0,0,-1,1371,967,0,0
154,57,0,0,0,0,0,0,0,0,0,-1,1378,967,0,0
161,57,0,0,0,0,0,0,0,0,0,-1,1385,967,0,0
168,57,0,0,0,0,0,0,0,0,0,-1,1392,967,0,0
175,57,0,0,0,0,0,0,0,0,0,-1,1399,967,0,0
182,57,0,0,0,0,0,0,0,0,0,-1,1406,967,0,0
189,57,0,0,0,0,0,0,0,0,0,-1,1413,967,0,0
196,57,0,0,0,0,0,0,0,0,0,-1,1420,967,0,0
203,57,0,0,0,0,0,0,0,0,0,-1,1427,967,0,0
210,57,0,0,0,0,0,0,0,0,0,-1,1434,967,0,0
217,57,0,0,0,0,0,0,0,0,0,-1,1441,967,0,0
224,57,0,0,0,0,0,0,0,0,0,-1,1448,967,0,0
231,57,0,0,0,0,0,0,0,0,0,-1,1455,967,0,0
238,57,0,0,0,0,0,0,0,0,0,-1,1462,967,0,0
245,57,0,0,0,0,0,0,0,0,0,-1,1469,967,0,0
252,57,0,0,0,0,0,0,0,0,0,-1,1476,967,0,0
259,57,0,0,0,0,0,0,0,0,0,-1,1483,967,0,0
266,57,0,0,0,0,0,0,0,0,0,-1,1490,967,0,0
273,57,0,0,0,0,0,0,0,0,0,-1,1497,967,0,0
280,57,0,0,0,0,0,0,0,0,0,-1,1504,967,0,0
287,57,0,0,0,0,0,0,0,0,0,-1,1511,967,0,0
294,57,0,0,0,0,0,0,0,0,0,-1,1518,967,0,0
301,57,0,0,0,0,0,0,0,0,0,-1,1525,967,0,0
308,57,0,0,0,0,0,0,0,0,0,-1,1532,967,0,0
315,57,0,0,0,0,0,0,0,0,0,-1,1539,967,0,0
322,57,0,0,0,0,0,0,0,0,0,-1,1546,967,0,0
329,57,0,0,0,0,0,0,0,0,0,-1,1553,967,0,0
336,57,0,0,0,0,0,0,0,0,0,-1,1560,967,0,0
343,57,0,0,0,0,0,0,0,0,0,-1,1567,967,0,0
350,57,0,0,0,0,0,0,0,0,0,-1,1574,967,0,0
357,57,0,0,0,0,0,0,0,0,0,-1,1581,967,0,0
364,57,0,0,0,0,0,0,0,0,0,-1,1588,967,0,0
371,57,0,0,0,0,0,0,0,0,0,-1,1595,967,0,0
378,57,0,0,0,0,0,0,0,0,0,-1,1602,967,0,0
385,57,0,0,0,0,0,0,0,0,0,-1,1609,967,0,0
392,57,0,0,0,0,0,0,0,0,0,-1,1616,967,0,0
399,57,0,0,0,0,0,0,0,0,0,-1,1623,967,0,0
406,57,0,0,0,0,0,0,0,0,0,-1,1630,967,0,0
413,57,0,0,0,0,0,0,0,0,0,-1,1637,967,0,0
420,57,0,0,0,0,0,0,0,0,0,-1,1644,967,0,0
427,57,0,0,0,0,0,0,0,0,0,-1,1651,967,0,0
434,57,0,0,0,0,0,0,0,0,0,-1,1658,967,0,0
441,57,0,0,0,0,0,0,0,0,0,-1,1665,967,0,0
448,57,0,0,0,0,0,0,0,0,0,-1,1672,967,0,0
455,57,0,0,0,0,0,0,0,0,0,-1,1679,967,0,0
462,57,0,0,0,0,0,0,0,0,0,-1,1686,967,0,0
469,57,0,0,0,0,0,0,0,0,0,-1,1693,967,0,0
476,57,0,0,0,0,0,0,0,0,0,-1,1700,967,0,0
483,57,0,0,0,0,0,0,0,0,0,-1,1707,967,0,0
490,57,0,0,0,0,0,0,0,0,0,-1,1714,967,0,0
497,57,0,0,0,0,0,0,0,0,0,-1,1721,967,0,0
504,57,0,0,0,0,0,0,0,0,0,-1,1728,967,0,0
511,57,0,0,0,0,0,0,0,0,0,-1,1735,967,0,0
518,57,0,0,0,0,0,0,0,0,0,-1,1742,967,0,0
525,57,0,0,0,0,0,0,0,0,0,-1,1749,967,0,0
532,57,0,0,0,0,0,0,0,0,0,-1,1756,967,0,0
539,57,0,0,0,0,0,0,0,0,0,-1,1763,967,0,0
546,57,0,0,0,0,0,0,0,0,0,-1,1770,967,0,0
553,57,0,0,0,0,0,0,0,0,0,-1,1777,967,0,0
560,57,0,0,0,0,0,0,0,0,0,-1,1784,967,0,0
567,57,0,0,0,0,0,0,0,0,0,-1,1791,967,0,0
574,57,0,0,0,0,0,0,0,0,0,-1,1798,967,0,0
581,57,0,0,0,0,0,0,0,0,0,-1,1805,967,0,0
588,57,0,0,0,0,0,0,0,0,0,-1,1812,967,0,0
595,57,0,0,0,0,0,0,0,0,0,-1,1819,967,0,0
602,57,0,0,0,0,0,0,0,0,0,-1,1826,967,0,0
609,57,0,0,0,0,0,0,0,0,0,-1,1833,967,0,0
616,57,0,0,0,0,0,0,0,0,0,-1,1840,967,0,0
623,57,0,0,0,0,0,0,0,0,0,-1,1847,967,0,0
630,57,0,0,0,0,0,0,0,0,0,-1,1854,967,0,0
637,57,0,0,0,0,0,0,0,0,0,-1,1861,967,0,0
644,57,49.1392,2.58722,-0.00620969,0.00324495,0.00371652,0.00453096,-0.0074957,1.23767,0.00701357,0.0400241,1868,967,49.1392,-2.58722
651,57,49.0879,2.64392,-0.00473474,0.00304547,0.00211124,0.00358145,-0.00527073,1.32218,0.00514173,0.0341521,1875,967,49.0879,-2.64391
658,57,49.0298,2.69629,-0.00351882,0.00282703,0.00117632,0.00303807,-0.00372986,1.39328,0.00391426,0.033111,1882,967,49.0298,-2.69628
665,57,48.9624,2.74243,-0.00259995,0.00271217,0.000849483,0.00284471,-0.00273249,1.41602,0.00322022,0.0416806,1889,967,48.9625,-2.74246
672,57,49.0735,2.66388,-0.00203345,0.00256444,0.000885568,0.00272911,-0.00219812,1.38695,0.00285024,0.0458697,1896,967,49.0735,-2.66386
679,57,48.9987,2.77356,-0.00174533,0.00231699,0.0012317,0.00266127,-0.00208961,1.29824,0.00274953,0.0428397,1903,967,48.9986,-2.77358
686,57,49.0099,2.60876,-0.00150728,0.00192684,0.00156987,0.00253632,-0.00211676,1.20047,0.0026901,0.037793,1910,967,49.0099,-2.60876
693,57,49.076,2.45447,-0.00136419,0.00155143,0.00174154,0.00236478,-0.00217754,1.13387,0.00262325,0.0326936,1917,967,49.076,-2.45447
700,57,49.0867,2.55798,-0.001386,0.0013792,0.00171968,0.00220315,-0.00220996,1.12398,0.00254791,0.0237222,1924,967,49.0867,-2.55796
707,57,49.0117,2.8833,-0.00161417,0.00142101,0.00163808,0.00213645,-0.00232961,1.15902,0.00257928,0.0440963,1931,967,49.0117,-2.88329
714,57,48.95,3.34711,0,0,0,0,0,0,0,-1,1938,967,48.95,-3.3471
721,57,47.6093,4.75671,0,0,0,0,0,0,0,-1,1945,967,47.6093,-4.75672
728,57,47.4803,5.13007,-0.00344933,0.00267547,0.00111356,0.00287164,-0.0036455,1.39642,0.00377151,0.0218477,1952,967,47.4804,-5.13005
735,57,47.5021,5.48511,-0.00435281,0.00370414,0.000767067,0.00377652,-0.00442519,1.47672,0.00474019,0.0280147,1959,967,47.5021,-5.48513
742,57,47.5416,5.66418,-0.00540088,0.00538908,0.000515771,0.00541368,-0.00542547,1.52314,0.00625799,0.0210775,1966,967,47.5417,-5.6642
749,57,47.5435,5.9588,-0.00630219,0.00804563,0.000198911,0.00804838,-0.00630495,1.55694,0.00830725,0.0147945,1973,967,47.5434,-5.95883
756,57,47.4869,6.22363,-0.00684592,0.0117787,-0.000135941,0.0117797,-0.00684691,-1.5635,0.0108791,0.0117149,1980,967,47.4869,-6.22362
763,57,47.4186,6.49329,-0.00743678,0.0166425,-5.09315e-05,0.0166426,-0.00743689,-1.56868,0.0142369,0.0122742,1987,967,47.4185,-6.49329
770,57,47.3267,6.72333,-0.00754347,0.0227615,0.000666891,0.0227762,-0.00755813,1.5488,0.0182334,0.0122434,1994,967,47.3266,-6.72332
777,57,47.2534,7.01672,-0.00680309,0.0297841,0.00173463,0.0298662,-0.00688514,1.52353,0.0225588,0.0259077,2001,967,47.2534,-7.01674
784,57,46.9497,7.7019,-0.00455295,0.0381709,0.00331872,0.0384271,-0.0048092,1.49373,0.0273624,0.0434178,2008,967,46.9497,-7.70193
791,57,46.7473,8.19983,0.000284304,0.0478554,0.00518493,0.048414,-0.000274261,1.46348,0.0323678,0.0481826,2015,967,46.7473,-8.19985
798,57,46.5996,8.77985,0,0,0,0,0,0,0,-1,2022,967,46.5997,-8.77985
805,57,46.9622,9.49597,0,0,0,0,0,0,0,-1,2029,967,46.9622,-9.49599
812,57,0,0,0,0,0,0,0,0,0,-1,2036,967,0,0
-700,50,0,0,0,0,0,0,0,0,0,-1,524,974,0,0
-693,50,-35.3723,7.20129,-0.00592127,0.0659041,0.00265494,0.0660021,-0.00601928,1.5339,0.0461389,0.0436965,531,974,-35.3723,-7.2013
-686,50,-35.3009,6.69055,-0.00578502,0.0569442,0.00404856,0.0572044,-0.00604523,1.50661,0.0403027,0.0387745,538,974,-35.3009,-6.69056
-679,50,-35.3022,6.1748,-0.0067475,0.0494563,0.00460119,0.0498305,-0.0071217,1.48965,0.0358309,0.0435013,545,974,-35.3022,-6.17481
-672,50,-35.3844,5.68774,0,0,0,0,0,0,0,-1,552,974,-35.3844,-5.68775
-665,50,-36.5117,4.23792,0,0,0,0,0,0,0,-1,559,974,-36.5117,-4.23789
-658,50,-35.7239,3.89581,0,0,0,0,0,0,0,-1,566,974,-35.7239,-3.89582
-651,50,-35.9456,3.93213,-0.00936791,0.0254461,0.00422158,0.0259507,-0.00987251,1.45183,0.0213656,0.0479025,573,974,-35.9456,-3.93212
-644,50,-36.1031,3.92871,-0.00894143,0.0207493,0.00373069,0.0212109,-0.00940302,1.44769,0.0181079,0.0332935,580,974,-36.1032,-3.92872
-637,50,-36.23,3.77307,-0.00839727,0.0156119,0.00273533,0.0159196,-0.00870496,1.45878,0.014419,0.0200054,587,974,-36.23,-3.77306
-630,50,-36.2931,3.59985,-0.00736839,0.0117058,0.00182502,0.0118789,-0.00754143,1.47626,0.0113051,0.0130181,594,974,-36.2931,-3.59987
-623,50,-36.3145,3.43304,-0.00632805,0.00873687,0.000709111,0.00877018,-0.00636136,1.52386,0.00877302,0.0130197,601,974,-36.3145,-3.43305
-616,50,-36.3212,3.22809,-0.00557122,0.00657439,-0.000850709,0.00663369,-0.00563051,-1.50121,0.00708863,0.0136412,608,974,-36.3212,-3.2281
-609,50,-36.3241,2.95642,-0.0051468,0.00440763,-0.00232822,0.00494477,-0.00568395,-1.34405,0.00614144,0.0117604,615,974,-36.3241,-2.95639
-602,50,-36.3328,2.71588,-0.00496967,0.00262859,-0.00361029,0.00407041,-0.00641149,-1.19084,0.00610183,0.0104936,622,974,-36.3328,-2.71587
-595,50,-36.3012,2.50275,-0.00459097,0.00139076,-0.00456343,0.0038561,-0.00705631,-1.07548,0.00638995,0.0121983,629,974,-36.3012,-2.50273
-588,50,-36.3235,2.16187,-0.00425297,0.000157677,-0.005122,0.00352894,-0.00762424,-0.988683,0.0065824,0.0187145,636,974,-36.3235,-2.16184
-581,50,-36.5289,1.30664,-0.0041184,-0.000663691,-0.00552074,0.00339362,-0.00817571,-0.937016,0.00686712,0.0265002,643,974,-36.5289,-1.30664
-574,50,-36.6406,0.71814,-0.0039682,-0.000892539,-0.0056818,0.00345587,-0.0083166,-0.917561,0.00698729,0.0287696,650,974,-36.6406,-0.718142
-567,50,-36.6414,0.724121,-0.00367417,-0.000921172,-0.00549707,0.00336912,-0.00796446,-0.908079,0.00672035,0.0349751,657,974,-36.6414,-0.724149
-560,50,-36.601,0.751953,-0.0029394,-0.000738242,-0.00500365,0.00328444,-0.00696208,-0.893652,0.00604151,0.0405836,664,974,-36.601,-0.751929
-553,50,-36.567,0.731873,-0.00164292,-0.000335399,-0.00430341,0.00336363,-0.00534195,-0.86078,0.00506924,0.040144,671,974,-36.567,-0.73186
-546,50,-36.5603,0.887573,0.000264194,0.000227712,-0.0034784,0.0037244,-0.00323249,-0.782776,0.00401991,0.0404473,678,974,-36.5603,-0.887575
-539,50,-36.5445,1.02832,0.00289923,0.000928709,-0.00280644,0.00488833,-0.00106039,-0.616584,0.00366386,0.0431395,685,974,-36.5445,-1.02831
-532,50,-36.6306,0.65802,0.00617297,0.00202876,-0.003172,0.0078897,0.000312034,-0.49607,0.00515893,0.0437197,692,974,-36.6306,-0.658033
-525,50,-36.5234,0.477783,0.00748176,0.00349168,-0.00528556,0.0111363,-0.000162822,-0.604939,0.00747904,0.045842,699,974,-36.5234,-0.477757
-518,50,0,0,0,0,0,0,0,0,0,-1,706,974,0,0
-511,50,0,0,0,0,0,0,0,0,0,-1,713,974,0,0
-504,50,0,0,0,0,0,0,0,0,0,-1,720,974,0,0
-497,50,0,0,0,0,0,0,0,0,0,-1,727,974,0,0
-490,50,0,0,0,0,0,0,0,0,0,-1,734,974,0,0
-483,50,0,0,0,0,0,0,0,0,0,-1,741,974,0,0
-476,50,0,0,0,0,0,0,0,0,0,-1,748,974,0,0
-469,50,0,0,0,0,0,0,0,0,0,-1,755,974,0,0
-462,50,0,0,0,0,0,0,0,0,0,-1,762,974,0,0
-455,50,0,0,0,0,0,0,0,0,0,-1,769,974,0,0
-448,50,0,0,0,0,0,0,0,0,0,-1,776,974,0,0
-441,50,0,0,0,0,0,0,0,0,0,-1,783,974,0,0
-434,50,0,0,0,0,0,0,0,0,0,-1,790,974,0,0
-427,50,0,0,0,0,0,0,0,0,0,-1,797,974,0,0
-420,50,0,0,0,0,0,0,0,0,0,-1,804,974,0,0
-413,50,0,0,0,0,0,0,0,0,0,-1,811,974,0,0
-406,50,0,0,0,0,0,0,0,0,0,-1,818,974,0,0
-399,50,0,0,0,0,0,0,0,0,0,-1,825,974,0,0
-392,50,0,0,0,0,0,0,0,0,0,-1,832,974,0,0
-385,50,0,0,0,0,0,0,0,0,0,-1,839,974,0,0
-378,50,0,0,0,0,0,0,0,0,0,-1,846,974,0,0
-371,50,0,0,0,0,0,0,0,0,0,-1,853,974,0,0
-364,50,0,0,0,0,0,0,0,0,0,-1,860,974,0,0
-357,50,0,0,0,0,0,0,0,0,0,-1,867,974,0,0
-350,50,0,0,0,0,0,0,0,0,0,-1,874,974,0,0
-343,50,0,0,0,0,0,0,0,0,0,-1,881,974,0,0
-336,50,0,0,0,0,0,0,0,0,0,-1,888,974,0,0
-329,50,0,0,0,0,0,0,0,0,0,-1,895,974,0,0
-322,50,0,0,0,0,0,0,0,0,0,-1,902,974,0,0
-315,50,0,0,0,0,0,0,0,0,0,-1,909,974,0,0
-308,50,0,0,0,0,0,0,0,0,0,-1,916,974,0,0
-301,50,0,0,0,0,0,0,0,0,0,-1,923,974,0,0
-294,50,0,0,0,0,0,0,0,0,0,-1,930,974,0,0
-287,50,0,0,0,0,0,0,0,0,0,-1,937,974,0,0
-280,50,0,0,0,0,0,0,0,0,0,-1,944,974,0,0
-273,50,0,0,0,0,0,0,0,0,0,-1,951,974,0,0
-266,50,0,0,0,0,0,0,0,0,0,-1,958,974,0,0
-259,50,0,0,0,0,0,0,0,0,0,-1,965,974,0,0
-252,50,0,0,0,0,0,0,0,0,0,-1,972,974,0,0
-245,50,0,0,0,0,0,0,0,0,0,-1,979,974,0,0
-238,50,0,0,0,0,0,0,0,0,0,-1,986,974,0,0
-231,50,0,0,0,0,0,0,0,0,0,-1,993,974,0,0
-224,50,0,0,0,0,0,0,0,0,0,-1,1000,974,0,0
-217,50,0,0,0,0,0,0,0,0,0,-1,1007,974,0,0
-210,50,0,0,0,0,0,0,0,0,0,-1,1014,974,0,0
-203,50,0,0,0,0,0,0,0,0,0,-1,1021,974,0,0
-196,50,0,0,0,0,0,0,0,0,0,-1,1028,974,0,0
-189,50,0,0,0,0,0,0,0,0,0,-1,1035,974,0,0
-182,50,0,0,0,0,0,0,0,0,0,-1,1042,974,0,0
-175,50,0,0,0,0,0,0,0,0,0,-1,1049,974,0,0
-168,50,0,0,0,0,0,0,0,0,0,-1,1056,974,0,0
-161,50,0,0,0,0,0,0,0,0,0,-1,1063,974,0,0
-154,50,0,0,0,0,0,0,0,0,0,-1,1070,974,0,0
-147,50,0,0,0,0,0,0,0,0,0,-1,1077,974,0,0
-140,50,0,0,0,0,0,0,0,0,0,-1,1084,974,0,0
-133,50,0,0,0,0,0,0,0,0,0,-1,1091,974,0,0
-126,50,0,0,0,0,0,0,0,0,0,-1,1098,974,0,0
-119,50,0,0,0,0,0,0,0,0,0,-1,1105,974,0,0
-112,50,0,0,0,0,0,0,0,0,0,-1,1112,974,0,0
-105,50,0,0,0,0,0,0,0,0,0,-1,1119,974,0,0
-98,50,0,0,0,0,0,0,0,0,0,-1,1126,974,0,0
-91,50,0,0,0,0,0,0,0,0,0,-1,1133,974,0,0
-84,50,0,0,0,0,0,0,0,0,0,-1,1140,974,0,0
-77,50,0,0,0,0,0,0,0,0,0,-1,1147,974,0,0
-70,50,0,0,0,0,0,0,0,0,0,-1,1154,974,0,0
-63,50,0,0,0,0,0,0,0,0,0,-1,1161,974,0,0
-56,50,0,0,0,0,0,0,0,0,0,-1,1168,974,0,0
-49,50,0,0,0,0,0,0,0,0,0,-1,1175,974,0,0
-42,50,0,0,0,0,0,0,0,0,0,-1,1182,974,0,0
-35,50,0,0,0,0,0,0,0,0,0,-1,1189,974,0,0
-28,50,0,0,0,0,0,0,0,0,0,-1,1196,974,0,0
-21,50,0,0,0,0,0,0,0,0,0,-1,1203,974,0,0
-14,50,0,0,0,0,0,0,0,0,0,-1,1210,974,0,0
-7,50,0,0,0,0,0,0,0,0,0,-1,1217,974,0,0
0,50,0,0,0,0,0,0,0,0,0,-1,1224,974,0,0
7,50,0,0,0,0,0,0,0,0,0,-1,1231,974,0,0
14,50,0,0,0,0,0,0,0,0,0,-1,1238,974,0,0
21,50,0,0,0,0,0,0,0,0,0,-1,1245,974,0,0
28,50,0,0,0,0,0,0,0,0,0,-1,1252,974,0,0
35,50,0,0,0,0,0,0,0,0,0,-1,1259,974,0,0
42,50,0,0,0,0,0,0,0,0,0,-1,1266,974,0,0
49,50,0,0,0,0,0,0,0,0,0,-1,1273,974,0,0
56,50,0,0,0,0,0,0,0,0,0,-1,1280,974,0,0
63,50,0,0,0,0,0,0,0,0,0,-1,1287,974,0,0
70,50,0,0,0,0,0,0,0,0,0,-1,1294,974,0,0
77,50,0,0,0,0,0,0,0,0,0,-1,1301,974,0,0
84,50,0,0,0,0,0,0,0,0,0,-1,1308,974,0,0
91,50,0,0,0,0,0,0,0,0,0,-1,1315,974,0,0
98,50,0,0,0,0,0,0,0,0,0,-1,1322,974,0,0
105,50,0,0,0,0,0,0,0,0,0,-1,1329,974,0,0
112,50,0,0,0,0,0,0,0,0,0,-1,1336,974,0,0
119,50,0,0,0,0,0,0,0,0,0,-1,1343,974,0,0
126,50,0,0,0,0,0,0,0,0,0,-1,1350,974,0,0
133,50,0,0,0,0,0,0,0,0,0,-1,1357,974,0,0
140,50,0,0,0,0,0,0,0,0,0,-1,1364,974,0,0
147,50,0,0,0,0,0,0,0,0,0,-1,1371,974,0,0
154,50,0,0,0,0,0,0,0,0,0,-1,1378,974,0,0
161,50,0,0,0,0,0,0,0,0,0,-1,1385,974,0,0
168,50,0,0,0,0,0,0,0,0,0,-1,1392,974,0,0
175,50,0,0,0,0,0,0,0,0,0,-1,1399,974,0,0
182,50,0,0,0,0,0,0,0,0,0,-1,1406,974,0,0
189,50,0,0,0,0,0,0,0,0,0,-1,1413,974,0,0
196,50,0,0,0,0,0,0,0,0,0,-1,1420,974,0,0
203,50,0,0,0,0,0,0,0,0,0,-1,1427,974,0,0
210,50,0,0,0,0,0,0,0,0,0,-1,1434,974,0,0
217,50,0,0,0,0,0,0,0,0,0,-1,1441,974,0,0
224,50,0,0,0,0,0,0,0,0,0,-1,1448,974,0,0
231,50,0,0,0,0,0,0,0,0,0,-1,1455,974,0,0
238,50,0,0,0,0,0,0,0,0,0,-1,1462,974,0,0
245,50,0,0,0,0,0,0,0,0,0,-1,1469,974,0,0
252,50,0,0,0,0,0,0,0,0,0,-1,1476,974,0,0
259,50,0,0,0,0,0,0,0,0,0,-1,1483,974,0,0
266,50,0,0,0,0,0,0,0,0,0,-1,1490,974,0,0
273,50,0,0,0,0,0,0,0,0,0,-1,1497,974,0,0
280,50,0,0,0,0,0,0,0,0,0,-1,1504,974,0,0
287,50,0,0,0,0,0,0,0,0,0,-1,1511,974,0,0
294,50,0,0,0,0,0,0,0,0,0,-1,1518,974,0,0
301,50,0,0,0,0,0,0,0,0,0,-1,1525,974,0,0
308,50,0,0,0,0,0,0,0,0,0,-1,1532,974,0,0
315,50,0,0,0,0,0,0,0,0,0,-1,1539,974,0,0
322,50,0,0,0,0,0,0,0,0,0,-1,1546,974,0,0
329,50,0,0,0,0,0,0,0,0,0,-1,1553,974,0,0
336,50,0,0,0,0,0,0,0,0,0,-1,1560,974,0,0
343,50,0,0,0,0,0,0,0,0,0,-1,1567,974,0,0
350,50,0,0,0,0,0,0,0,0,0,-1,1574,974,0,0
357,50,0,0,0,0,0,0,0,0,0,-1,1581,974,0,0
364,50,0,0,0,0,0,0,0,0,0,-1,1588,974,0,0
371,50,0,0,0,0,0,0,0,0,0,-1,1595,974,0,0
378,50,0,0,0,0,0,0,0,0,0,-1,1602,974,0,0
385,50,0,0,0,0,0,0,0,0,0,-1,1609,974,0,0
392,50,0,0,0,0,0,0,0,0,0,-1,1616,974,0,0
399,50,0,0,0,0,0,0,0,0,0,-1,1623,974,0,0
406,50,0,0,0,0,0,0,0,0,0,-1,1630,974,0,0
413,50,0,0,0,0,0,0,0,0,0,-1,1637,974,0,0
420,50,0,0,0,0,0,0,0,0,0,-1,1644,974,0,0
427,50,0,0,0,0,0,0,0,0,0,-1,1651,974,0,0
434,50,0,0,0,0,0,0,0,0,0,-1,1658,974,0,0
441,50,0,0,0,0,0,0,0,0,0,-1,1665,974,0,0
448,50,0,0,0,0,0,0,0,0,0,-1,1672,974,0,0
455,50,0,0,0,0,0,0,0,0,0,-1,1679,974,0,0
462,50,0,0,0,0,0,0,0,0,0,-1,1686,974,0,0
469,50,0,0,0,0,0,0,0,0,0,-1,1693,974,0,0
476,50,0,0,0,0,0,0,0,0,0,-1,1700,974,0,0
483,50,0,0,0,0,0,0,0,0,0,-1,1707,974,0,0
490,50,0,0,0,0,0,0,0,0,0,-1,1714,974,0,0
497,50,0,0,0,0,0,0,0,0,0,-1,1721,974,0,0
504,50,0,0,0,0,0,0,0,0,0,-1,1728,974,0,0
511,50,0,0,0,0,0,0,0,0,0,-1,1735,974,0,0
518,50,0,0,0,0,0,0,0,0,0,-1,1742,974,0,0
525,50,0,0,0,0,0,0,0,0,0,-1,1749,974,0,0
532,50,0,0,0,0,0,0,0,0,0,-1,1756,974,0,0
539,50,0,0,0,0,0,0,0,0,0,-1,1763,974,0,0
546,50,0,0,0,0,0,0,0,0,0,-1,1770,974,0,0
553,50,0,0,0,0,0,0,0,0,0,-1,1777,974,0,0
560,50,0,0,0,0,0,0,0,0,0,-1,1784,974,0,0
567,50,0,0,0,0,0,0,0,0,0,-1,1791,974,0,0
574,50,0,0,0,0,0,0,0,0,0,-1,1798,974,0,0
581,50,0,0,0,0,0,0,0,0,0,-1,1805,974,0,0
588,50,0,0,0,0,0,0,0,0,0,-1,1812,974,0,0
595,50,0,0,0,0,0,0,0,0,0,-1,1819,974,0,0
602,50,0,0,0,0,0,0,0,0,0,-1,1826,974,0,0
609,50,0,0,0,0,0,0,0,0,0,-1,1833,974,0,0
616,50,0,0,0,0,0,0,0,0,0,-1,1840,974,0,0
623,50,0,0,0,0,0,0,0,0,0,-1,1847,974,0,0
630,50,0,0,0,0,0,0,0,0,0,-1,1854,974,0,0
637,50,0,0,0,0,0,0,0,0,0,-1,1861,974,0,0
644,50,49.0956,2.52386,-0.00542414,0.00333403,0.00416736,0.00500005,-0.00709016,1.19048,0.00701497,0.0397579,1868,974,49.0956,-2.52389
651,50,48.9807,2.57458,-0.00405238,0.00325933,0.00233934,0.00394373,-0.00473678,1.28618,0.00501866,0.0330107,1875,974,48.9807,-2.57458
658,50,48.9204,2.56268,-0.00298092,0.00306933,0.00127903,0.00332861,-0.00324019,1.37079,0.00379261,0.0364069,1882,974,48.9204,-2.56271
665,50,48.9612,2.54614,-0.00224131,0.00297664,0.00090917,0.00313051,-0.00239519,1.40314,0.00319967,0.0412857,1889,974,48.9611,-2.54614
672,50,49.0714,2.53613,-0.00181772,0.00285701,0.000953485,0.00304401,-0.00200471,1.37713,0.0029354,0.042082,1896,974,49.0714,-2.53613
679,50,49.0488,2.66956,-0.00163591,0.00264715,0.00135081,0.00303758,-0.00202634,1.28943,0.00294303,0.0402077,1903,974,49.0488,-2.66956
686,50,48.9663,2.64447,-0.00148179,0.00226685,0.00177898,0.00297668,-0.00219162,1.19114,0.00299537,0.0388085,1910,974,48.9663,-2.64449
693,50,49.0032,2.50531,-0.00138706,0.00188048,0.00204507,0.00286424,-0.00237083,1.12243,0.00302694,0.0358807,1917,974,49.0032,-2.50533
700,50,49.0153,2.60455,-0.00142706,0.0016805,0.00207918,0.00272233,-0.0024689,1.10628,0.00299835,0.0195604,1924,974,49.0153,-2.60453
707,50,49.0096,2.78387,-0.00169571,0.00171078,0.00203077,0.00265802,-0.00264295,1.13435,0.00306052,0.0310042,1931,974,49.0096,-2.78387
714,50,48.9884,3.00269,0,0,0,0,0,0,0,-1,1938,974,48.9884,-3.00271
721,50,47.7848,4.77942,0,0,0,0,0,0,0,-1,1945,974,47.7848,-4.77944
728,50,47.8046,5.13727,-0.00366028,0.00307256,0.00157152,0.00342131,-0.00400903,1.35242,0.00429438,0.0213244,1952,974,47.8046,-5.13728
735,50,47.8442,5.4364,-0.00445301,0.00411913,0.00122763,0.00429147,-0.00462536,1.43132,0.00514934,0.0192689,1959,974,47.8443,-5.43638
742,50,47.8622,5.67542,-0.00526034,0.00587452,0.000905217,0.00594763,-0.00533345,1.49021,0.00651636,0.0146217,1966,974,47.8622,-5.67544
749,50,47.8381,5.90179,-0.0059705,0.00863449,0.000588038,0.00865812,-0.00599414,1.53062,0.00850597,0.0161368,1973,974,47.8382,-5.90178
756,50,47.8071,6.17126,-0.00615666,0.0123433,0.000200614,0.0123454,-0.00615884,1.55995,0.0108807,0.0139345,1980,974,47.8071,-6.17125
763,50,47.7329,6.42554,-0.00617343,0.0172439,0.000158816,0.017245,-0.00617451,1.56401,0.0140158,0.013488,1987,974,47.7329,-6.42557
770,50,47.6439,6.63391,-0.00557729,0.0235848,0.000801678,0.0236068,-0.00559932,1.54333,0.0178987,0.0126171,1994,974,47.6439,-6.63388
777,50,47.6047,6.91364,-0.00398493,0.0309488,0.00187291,0.0310489,-0.00408506,1.51739,0.0221867,0.0238717,2001,974,47.6047,-6.91361
784,50,47.3867,7.44983,-0.000807254,0.0396506,0.00345315,0.0399432,-0.00109987,1.48626,0.0270029,0.0407105,2008,974,47.3866,-7.44983
791,50,47.2207,7.7627,0.0048736,0.0496715,0.00541602,0.050317,0.00422811,1.45217,0.0322279,0.0450663,2015,974,47.2207,-7.76271
798,50,47.2263,8.25195,0.0138403,0.061149,0.0074989,0.0623092,0.0126801,1.4173,0.0380242,0.0463941,2022,974,47.2263,-8.25198
805,50,47.7847,8.95337,0.026973,0.0745393,0.00955581,0.0763873,0.0251251,1.37977,0.0449545,0.0470116,2029,974,47.7847,-8.95339
812,50,0,0,0,0,0,0,0,0,0,-1,2036,974,0,0
-700,43,0,0,0,0,0,0,0,0,0,-1,524,981,0,0
-693,43,-35.5441,6.73535,-0.000742479,0.0716891,0.00782473,0.0725248,-0.00157814,1.4644,0.0488844,0.0456908,531,981,-35.5441,-6.73536
-686,43,-35.5758,6.27167,-0.00180564,0.0605578,0.0081456,0.0616042,-0.00285202,1.44304,0.0420524,0.0416285,538,981,-35.5758,-6.27169
-679,43,-35.5555,5.74695,-0.00360449,0.0520728,0.00782514,0.0531517,-0.00468337,1.43379,0.0370943,0.0422253,545,981,-35.5555,-5.74692
-672,43,-35.4936,5.43427,0,0,0,0,0,0,0,-1,552,981,-35.4936,-5.43429
-665,43,-36.414,4.08661,0,0,0,0,0,0,0,-1,559,981,-36.414,-4.08661
-658,43,-35.703,3.84778,0,0,0,0,0,0,0,-1,566,981,-35.703,-3.84778
-651,43,-36.0422,3.81995,-0.00819454,0.0265627,0.00513373,0.0273051,-0.00893695,1.42718,0.0218018,0.0409075,573,981,-36.0423,-3.81992
-644,43,-36.3817,3.81049,-0.00812834,0.0216362,0.00425363,0.0222322,-0.00872429,1.4316,0.0184312,0.0265958,580,981,-36.3817,-3.8105
-637,43,-36.4909,3.67377,-0.00788366,0.0161009,0.0028549,0.0164361,-0.0082188,1.45394,0.0144956,0.0203042,587,981,-36.4909,-3.67379
-630,43,-36.5174,3.50696,-0.00698529,0.0120705,0.00166264,0.0122145,-0.00712927,1.48441,0.011296,0.0161364,594,981,-36.5174,-3.50693
-623,43,-36.5308,3.35968,-0.00589571,0.00892425,0.000399382,0.00893501,-0.00590646,1.54387,0.00862799,0.013142,601,981,-36.5308,-3.35969
-616,43,-36.5453,3.16571,-0.00503302,0.00670745,-0.00130029,0.00684974,-0.00517531,-1.4618,0.00696506,0.012139,608,981,-36.5453,-3.16569
-609,43,-36.5587,2.93878,-0.00428338,0.00454104,-0.00289645,0.00540681,-0.00514914,-1.28034,0.00609509,0.0131879,615,981,-36.5587,-2.93876
-602,43,-36.5355,2.74231,-0.00381696,0.00277311,-0.00425696,0.00486128,-0.00590513,-1.11475,0.00622572,0.0152361,622,981,-36.5355,-2.74229
-595,43,-36.5714,2.56256,-0.00323496,0.00154424,-0.00525389,0.00492643,-0.00661715,-0.998827,0.00668847,0.0156243,629,981,-36.5714,-2.56258
-588,43,-36.5646,2.05188,-0.00276252,0.000299972,-0.00581799,0.00478485,-0.0072474,-0.914076,0.00699515,0.0237473,636,981,-36.5646,-2.05191
-581,43,-36.6467,0.799622,0,0,0,0,0,0,0,-1,643,981,-36.6467,-0.799612
-574,43,-36.6247,0.784668,-0.00235265,-0.000818123,-0.00632622,0.00478719,-0.00795797,-0.845745,0.00743394,0.0287889,650,981,-36.6247,-0.784644
-567,43,-36.6101,0.767517,-0.00207855,-0.000878943,-0.00605647,0.00460736,-0.00756485,-0.834755,0.00709643,0.0372594,657,981,-36.6101,-0.767496
-560,43,-36.5803,0.764099,-0.00141159,-0.000711648,-0.00546541,0.00441498,-0.00653822,-0.817372,0.00636331,0.0409035,664,981,-36.5803,-0.764075
-553,43,-36.624,1.03076,-0.000227895,-0.000317402,-0.00467593,0.0044035,-0.0049488,-0.780613,0.00540261,0.0399489,671,981,-36.624,-1.03076
-546,43,-36.6152,1.10602,0.00155126,0.000224688,-0.00379533,0.00474083,-0.00296488,-0.69889,0.00448811,0.0408311,678,981,-36.6152,-1.10604
-539,43,-36.4729,1.08917,0.00412065,0.000936664,-0.00320843,0.00611034,-0.00105303,-0.555101,0.00446614,0.0436609,685,981,-36.4729,-1.08914
-532,43,-36.4654,0.823242,0.00744032,0.00211263,-0.00394225,0.00953436,1.85939e-05,-0.488277,0.00635005,0.0450134,692,981,-36.4654,-0.823246
-525,43,-36.6591,0.564331,0,0,0,0,0,0,0,-1,699,981,-36.6591,-0.564348
-518,43,0,0,0,0,0,0,0,0,0,-1,706,981,0,0
-511,43,0,0,0,0,0,0,0,0,0,-1,713,981,0,0
-504,43,0,0,0,0,0,0,0,0,0,-1,720,981,0,0
-497,43,0,0,0,0,0,0,0,0,0,-1,727,981,0,0
-490,43,0,0,0,0,0,0,0,0,0,-1,734,981,0,0
-483,43,0,0,0,0,0,0,0,0,0,-1,741,981,0,0
-476,43,0,0,0,0,0,0,0,0,0,-1,748,981,0,0
-469,43,0,0,0,0,0,0,0,0,0,-1,755,981,0,0
-462,43,0,0,0,0,0,0,0,0,0,-1,762,981,0,0
-455,43,0,0,0,0,0,0,0,0,0,-1,769,981,0,0
-448,43,0,0,0,0,0,0,0,0,0,-1,776,981,0,0
-441,43,0,0,0,0,0,0,0,0,0,-1,783,981,0,0
-434,43,0,0,0,0,0,0,0,0,0,-1,790,981,0,0
-427,43,0,0,0,0,0,0,0,0,0,-1,797,981,0,0
-420,43,0,0,0,0,0,0,0,0,0,-1,804,981,0,0
-413,43,0,0,0,0,0,0,0,0,0,-1,811,981,0,0
-406,43,0,0,0,0,0,0,0,0,0,-1,818,981,0,0
-399,43,0,0,0,0,0,0,0,0,0,-1,825,981,0,0
-392,43,0,0,0,0,0,0,0,0,0,-1,832,981,0,0
-385,43,0,0,0,0,0,0,0,0,0,-1,839,981,0,0
-378,43,0,0,0,0,0,0,0,0,0,-1,846,981,0,0
-371,43,0,0,0,0,0,0,0,0,0,-1,853,981,0,0
-364,43,0,0,0,0,0,0,0,0,0,-1,860,981,0,0
-357,43,0,0,0,0,0,0,0,0,0,-1,867,981,0,0
-350,43,0,0,0,0,0,0,0,0,0,-1,874,981,0,0
-343,43,0,0,0,0,0,0,0,0,0,-1,881,981,0,0
-336,43,0,0,0,0,0,0,0,0,0,-1,888,981,0,0
-329,43,0,0,0,0,0,0,0,0,0,-1,895,981,0,0
-322,43,0,0,0,0,0,0,0,0,0,-1,902,981,0,0
-315,43,0,0,0,0,0,0,0,0,0,-1,909,981,0,0
-308,43,0,0,0,0,0,0,0,0,0,-1,916,981,0,0
-301,43,0,0,0,0,0,0,0,0,0,-1,923,981,0,0
-294,43,0,0,0,0,0,0,0,0,0,-1,930,981,0,0
-287,43,0,0,0,0,0,0,0,0,0,-1,937,981,0,0
-280,43,0,0,0,0,0,0,0,0,0,-1,944,981,0,0
-273,43,0,0,0,0,0,0,0,0,0,-1,951,981,0,0
-266,43,0,0,0,0,0,0,0,0,0,-1,958,981,0,0
-259,43,0,0,0,0,0,0,0,0,0,-1,965,981,0,0
-252,43,0,0,0,0,0,0,0,0,0,-1,972,981,0,0
-245,43,0,0,0,0,0,0,0,0,0,-1,979,981,0,0
-238,43,0,0,0,0,0,0,0,0,0,-1,986,981,0,0
-231,43,0,0,0,0,0,0,0,0,0,-1,993,981,0,0
-224,43,0,0,0,0,0,0,0,0,0,-1,1000,981,0,0
-217,43,0,0,0,0,0,0,0,0,0,-1,1007,981,0,0
-210,43,0,0,0,0,0,0,0,0,0,-1,1014,981,0,0
-203,43,0,0,0,0,0,0,0,0,0,-1,1021,981,0,0
-196,43,0,0,0,0,0,0,0,0,0,-1,1028,981,0,0
-189,43,0,0,0,0,0,0,0,0,0,-1,1035,981,0,0
-182,43,0,0,0,0,0,0,0,0,0,-1,1042,981,0,0
-175,43,0,0,0,0,0,0,0,0,0,-1,1049,981,0,0
-168,43,0,0,0,0,0,0,0,0,0,-1,1056,981,0,0
-161,43,0,0,0,0,0,0,0,0,0,-1,1063,981,0,0
-154,43,0,0,0,0,0,0,0,0,0,-1,1070,981,0,0
-147,43,0,0,0,0,0,0,0,0,0,-1,1077,981,0,0
-140,43,0,0,0,0,0,0,0,0,0,-1,1084,981,0,0
-133,43,0,0,0,0,0,0,0,0,0,-1,1091,981,0,0
-126,43,0,0,0,0,0,0,0,0,0,-1,1098,981,0,0
-119,43,0,0,0,0,0,0,0,0,0,-1,1105,981,0,0
-112,43,0,0,0,0,0,0,0,0,0,-1,1112,981,0,0
-105,43,0,0,0,0,0,0,0,0,0,-1,1119,981,0,0
-98,43,0,0,0,0,0,0,0,0,0,-1,1126,981,0,0
-91,43,0,0,0,0,0,0,0,0,0,-1,1133,981,0,0
-84,43,0,0,0,0,0,0,0,0,0,-1,1140,981,0,0
-77,43,0,0,0,0,0,0,0,0,0,-1,1147,981,0,0
-70,43,0,0,0,0,0,0,0,0,0,-1,1154,981,0,0
-63,43,0,0,0,0,0,0,0,0,0,-1,1161,981,0,0
-56,43,0,0,0,0,0,0,0,0,0,-1,1168,981,0,0
-49,43,0,0,0,0,0,0,0,0,0,-1,1175,981,0,0
-42,43,0,0,0,0,0,0,0,0,0,-1,1182,981,0,0
-35,43,0,0,0,0,0,0,0,0,0,-1,1189,981,0,0
-28,43,0,0,0,0,0,0,0,0,0,-1,1196,981,0,0
-21,43,0,0,0,0,0,0,0,0,0,-1,1203,981,0,0
-14,43,0,0,0,0,0,0,0,0,0,-1,1210,981,0,0
-7,43,0,0,0,0,0,0,0,0,0,-1,1217,981,0,0
0,43,0,0,0,0,0,0,0,0,0,-1,1224,981,0,0
7,43,0,0,0,0,0,0,0,0,0,-1,1231,981,0,0
14,43,0,0,0,0,0,0,0,0,0,-1,1238,981,0,0
21,43,0,0,0,0,0,0,0,0,0,-1,1245,981,0,0
28,43,0,0,0,0,0,0,0,0,0,-1,1252,981,0,0
35,43,0,0,0,0,0,0,0,0,0,-1,1259,981,0,0
42,43,0,0,0,0,0,0,0,0,0,-1,1266,981,0,0
49,43,0,0,0,0,0,0,0,0,0,-1,1273,981,0,0
56,43,0,0,0,0,0,0,0,0,0,-1,1280,981,0,0
63,43,0,0,0,0,0,0,0,0,0,-1,1287,981,0,0
70,43,0,0,0,0,0,0,0,0,0,-1,1294,981,0,0
77,43,0,0,0,0,0,0,0,0,0,-1,1301,981,0,0
84,43,0,0,0,0,0,0,0,0,0,-1,1308,981,0,0
91,43,0,0,0,0,0,0,0,0,0,-1,1315,981,0,0
98,43,0,0,0,0,0,0,0,0,0,-1,1322,981,0,0
105,43,0,0,0,0,0,0,0,0,0,-1,1329,981,0,0
112,43,0,0,0,0,0,0,0,0,0,-1,1336,981,0,0
119,43,0,0,0,0,0,0,0,0,0,-1,1343,981,0,0
126,43,0,0,0,0,0,0,0,0,0,-1,1350,981,0,0
133,43,0,0,0,0,0,0,0,0,0,-1,1357,981,0,0
140,43,0,0,0,0,0,0,0,0,0,-1,1364,981,0,0
147,43,0,0,0,0,0,0,0,0,0,-1,1371,981,0,0
154,43,0,0,0,0,0,0,0,0,0,-1,1378,981,0,0
161,43,0,0,0,0,0,0,0,0,0,-1,1385,981,0,0
168,43,0,0,0,0,0,0,0,0,0,-1,1392,981,0,0
175,43,0,0,0,0,0,0,0,0,0,-1,1399,981,0,0
182,43,0,0,0,0,0,0,0,0,0,-1,1406,981,0,0
189,43,0,0,0,0,0,0,0,0,0,-1,1413,981,0,0
196,43,0,0,0,0,0,0,0,0,0,-1,1420,981,0,0
203,43,0,0,0,0,0,0,0,0,0,-1,1427,981,0,0
210,43,0,0,0,0,0,0,0,0,0,-1,1434,981,0,0
217,43,0,0,0,0,0,0,0,0,0,-1,1441,981,0,0
224,43,0,0,0,0,0,0,0,0,0,-1,1448,981,0,0
231,43,0,0,0,0,0,0,0,0,0,-1,1455,981,0,0
238,43,0,0,0,0,0,0,0,0,0,-1,1462,981,0,0
245,43,0,0,0,0,0,0,0,0,0,-1,1469,981,0,0
252,43,0,0,0,0,0,0,0,0,0,-1,1476,981,0,0
259,43,0,0,0,0,0,0,0,0,0,-1,1483,981,0,0
266,43,0,0,0,0,0,0,0,0,0,-1,1490,981,0,0
273,43,0,0,0,0,0,0,0,0,0,-1,1497,981,0,0
280,43,0,0,0,0,0,0,0,0,0,-1,1504,981,0,0
287,43,0,0,0,0,0,0,0,0,0,-1,1511,981,0,0
294,43,0,0,0,0,0,0,0,0,0,-1,1518,981,0,0
301,43,0,0,0,0,0,0,0,0,0,-1,1525,981,0,0
308,43,0,0,0,0,0,0,0,0,0,-1,1532,981,0,0
315,43,0,0,0,0,0,0,0,0,0,-1,1539,981,0,0
322,43,0,0,0,0,0,0,0,0,0,-1,1546,981,0,0
329,43,0,0,0,0,0,0,0,0,0,-1,1553,981,0,0
336,43,0,0,0,0,0,0,0,0,0,-1,1560,981,0,0
343,43,0,0,0,0,0,0,0,0,0,-1,1567,981,0,0
350,43,0,0,0,0,0,0,0,0,0,-1,1574,981,0,0
357,43,0,0,0,0,0,0,0,0,0,-1,1581,981,0,0
364,43,0,0,0,0,0,0,0,0,0,-1,1588,981,0,0
371,43,0,0,0,0,0,0,0,0,0,-1,1595,981,0,0
378,43,0,0,0,0,0,0,0,0,0,-1,1602,981,0,0
385,43,0,0,0,0,0,0,0,0,0,-1,1609,981,0,0
392,43,0,0,0,0,0,0,0,0,0,-1,1616,981,0,0
399,43,0,0,0,0,0,0,0,0,0,-1,1623,981,0,0
406,43,0,0,0,0,0,0,0,0,0,-1,1630,981,0,0
413,43,0,0,0,0,0,0,0,0,0,-1,1637,981,0,0
420,43,0,0,0,0,0,0,0,0,0,-1,1644,981,0,0
427,43,0,0,0,0,0,0,0,0,0,-1,1651,981,0,0
434,43,0,0,0,0,0,0,0,0,0,-1,1658,981,0,0
441,43,0,0,0,0,0,0,0,0,0,-1,1665,981,0,0
448,43,0,0,0,0,0,0,0,0,0,-1,1672,981,0,0
455,43,0,0,0,0,0,0,0,0,0,-1,1679,981,0,0
462,43,0,0,0,0,0,0,0,0,0,-1,1686,981,0,0
469,43,0,0,0,0,0,0,0,0,0,-1,1693,981,0,0
476,43,0,0,0,0,0,0,0,0,0,-1,1700,981,0,0
483,43,0,0,0,0,0,0,0,0,0,-1,1707,981,0,0
490,43,0,0,0,0,0,0,0,0,0,-1,1714,981,0,0
497,43,0,0,0,0,0,0,0,0,0,-1,1721,981,0,0
504,43,0,0,0,0,0,0,0,0,0,-1,1728,981,0,0
511,43,0,0,0,0,0,0,0,0,0,-1,1735,981,0,0
518,43,0,0,0,0,0,0,0,0,0,-1,1742,981,0,0
525,43,0,0,0,0,0,0,0,0,0,-1,1749,981,0,0
532,43,0,0,0,0,0,0,0,0,0,-1,1756,981,0,0
539,43,0,0,0,0,0,0,0,0,0,-1,1763,981,0,0
546,43,0,0,0,0,0,0,0,0,0,-1,1770,981,0,0
553,43,0,0,0,0,0,0,0,0,0,-1,1777,981,0,0
560,43,0,0,0,0,0,0,0,0,0,-1,1784,981,0,0
567,43,0,0,0,0,0,0,0,0,0,-1,1791,981,0,0
574,43,0,0,0,0,0,0,0,0,0,-1,1798,981,0,0
581,43,0,0,0,0,0,0,0,0,0,-1,1805,981,0,0
588,43,0,0,0,0,0,0,0,0,0,-1,1812,981,0,0
595,43,0,0,0,0,0,0,0,0,0,-1,1819,981,0,0
602,43,0,0,0,0,0,0,0,0,0,-1,1826,981,0,0
609,43,0,0,0,0,0,0,0,0,0,-1,1833,981,0,0
616,43,0,0,0,0,0,0,0,0,0,-1,1840,981,0,0
623,43,0,0,0,0,0,0,0,0,0,-1,1847,981,0,0
630,43,0,0,0,0,0,0,0,0,0,-1,1854,981,0,0
637,43,0,0,0,0,0,0,0,0,0,-1,1861,981,0,0
644,43,48.9965,2.52081,-0.00383906,0.00369673,0.00387858,0.00533628,-0.0054786,1.17086,0.00624415,0.0406545,1868,981,48.9965,-2.52079
651,43,48.8425,2.65082,-0.0028731,0.00366164,0.00205672,0.00425507,-0.00346653,1.28989,0.00446581,0.0380096,1875,981,48.8426,-2.65082
658,43,49.0555,2.49854,-0.00214535,0.00344627,0.00104334,0.0036346,-0.00233368,1.39221,0.00347297,0.0381881,1882,981,49.0555,-2.49854
665,43,49.0541,2.47577,-0.00171251,0.00331903,0.000744339,0.00342684,-0.00182031,1.42696,0.00307641,0.0378757,1889,981,49.0541,-2.47577
672,43,49.1818,2.42212,-0.00151068,0.00318858,0.000885717,0.00334998,-0.00167208,1.39055,0.00295294,0.0384295,1896,981,49.1818,-2.4221
679,43,49.1908,2.5036,-0.0014678,0.00299569,0.00138734,0.00339176,-0.00186386,1.29271,0.00307678,0.0401434,1903,981,49.1908,-2.5036
686,43,49.0846,2.51587,-0.00138276,0.00260233,0.00192321,0.00337908,-0.0021595,1.18695,0.00322344,0.0404656,1910,981,49.0846,-2.51584
693,43,49.0851,2.4704,-0.00129957,0.0021794,0.00230873,0.0033306,-0.00245076,1.10825,0.00335073,0.0358621,1917,981,49.0851,-2.47043
700,43,49.0444,2.55127,-0.00132933,0.00193286,0.00241407,0.00321521,-0.00261168,1.0825,0.00337017,0.0303383,1924,981,49.0444,-2.55124
707,43,49.0548,2.62799,-0.00161299,0.00193525,0.00240256,0.00314773,-0.00282547,1.10343,0.0034503,0.025029,1931,981,49.0548,-2.62801
714,43,49.0243,2.81201,0,0,0,0,0,0,0,-1,1938,981,49.0242,-2.81202
721,43,48.1875,4.79425,0,0,0,0,0,0,0,-1,1945,981,48.1874,-4.79424
728,43,48.1832,5.11816,-0.00359873,0.00337615,0.00197259,0.00389538,-0.00411795,1.31342,0.00462709,0.0211158,1952,981,48.1832,-5.11817
735,43,48.1504,5.41083,-0.00423086,0.00443715,0.0016225,0.0047309,-0.00452461,1.39169,0.00534411,0.0136943,1959,981,48.1504,-5.41084
742,43,48.1385,5.63031,-0.00480227,0.00625825,0.00126531,0.00640115,-0.00494517,1.45833,0.00656875,0.014668,1966,981,48.1386,-5.63028
749,43,48.118,5.87024,-0.00546032,0.00911196,0.000991128,0.00917907,-0.00552742,1.5032,0.0085776,0.017621,1973,981,48.118,-5.87022
756,43,48.1079,6.09308,-0.00558018,0.0128384,0.000602651,0.0128581,-0.00559988,1.53812,0.0109279,0.0201873,1980,981,48.1079,-6.09307
763,43,48.0526,6.30396,-0.00535709,0.0178659,0.000523338,0.0178777,-0.00536887,1.54828,0.0140542,0.0243323,1987,981,48.0527,-6.30398
770,43,47.9485,6.57257,-0.00451391,0.0244846,0.00115228,0.0245303,-0.00455962,1.53114,0.0180663,0.0195756,1994,981,47.9485,-6.57255
777,43,47.9609,6.8194,-0.00263793,0.0322969,0.0022991,0.0324476,-0.00278859,1.50536,0.0226186,0.02517,2001,981,47.961,-6.81937
784,43,47.8159,6.97168,0.000689707,0.0414006,0.00392696,0.0417759,0.000314375,1.47551,0.0277464,0.0461533,2008,981,47.816,-6.97169
791,43,47.7046,7.1405,0,0,0,0,0,0,0,-1,2015,981,47.7046,-7.1405
798,43,47.9441,7.81622,0.0147659,0.063677,0.00824806,0.0650304,0.0134124,1.40815,0.0396464,0.0447291,2022,981,47.9442,-7.81619
805,43,48.3674,8.36597,0.0265912,0.0773336,0.0104975,0.0794196,0.0245053,1.37464,0.0469599,0.0460031,2029,981,48.3673,-8.36596
812,43,48.8098,8.76965,0,0,0,0,0,0,0,-1,2036,981,48.8097,-8.76968
-700,36,0,0,0,0,0,0,0,0,0,-1,524,988,0,0
-693,36,-35.9522,5.8161,0.00380398,0.0750413,0.0125628,0.0771918,0.00165345,1.40126,0.050919,0.0460603,531,988,-35.9522,-5.81609
-686,36,-35.9891,5.55804,0.0016344,0.0617981,0.0109899,0.0637427,-0.000310246,1.39566,0.0425989,0.0446574,538,988,-35.9891,-5.55806
-679,36,-35.9647,5.24634,-0.000864254,0.0526194,0.00969572,0.0543228,-0.00256767,1.39688,0.0371007,0.0457017,545,988,-35.9647,-5.24635
-672,36,-35.945,4.92505,0,0,0,0,0,0,0,-1,552,988,-35.945,-4.92502
-665,36,-35.9254,4.6012,0,0,0,0,0,0,0,-1,559,988,-35.9254,-4.60117
-658,36,-36.2799,3.90204,0,0,0,0,0,0,0,-1,566,988,-36.2799,-3.90206
-651,36,-36.4363,3.74164,-0.00687223,0.0270262,0.00551547,0.027901,-0.00774705,1.41349,0.0216501,0.0411799,573,988,-36.4363,-3.74161
-644,36,-36.5929,3.60364,-0.0070996,0.0220728,0.0044439,0.0227347,-0.00776153,1.42293,0.0183008,0.0275959,580,988,-36.5929,-3.60365
-637,36,-36.7239,3.49481,-0.00711554,0.0163731,0.00280655,0.0167038,-0.00744623,1.45351,0.0142804,0.0218562,587,988,-36.7239,-3.49482
-630,36,-36.7209,3.42786,-0.00640469,0.0123377,0.00144735,0.0124488,-0.0065158,1.49418,0.0111264,0.0161655,594,988,-36.721,-3.42785
-623,36,-36.7523,3.30701,-0.00534237,0.00907417,7.59889e-05,0.00907457,-0.00534277,1.56553,0.00841629,0.0137597,601,988,-36.7523,-3.30703
-616,36,-36.7572,3.16541,-0.00436063,0.00675709,-0.00173392,0.00702123,-0.00462478,-1.41962,0.00677111,0.0122597,608,988,-36.7572,-3.16542
-609,36,-36.7166,2.99701,-0.00327471,0.00457826,-0.00341699,0.00585687,-0.00455333,-1.21273,0.00602602,0.0157342,615,988,-36.7166,-2.99704
-602,36,-36.7274,2.79114,-0.00247482,0.00284633,-0.00482778,0.00569812,-0.00532661,-1.03724,0.00636633,0.0195005,622,988,-36.7274,-2.79113
-595,36,-36.8239,2.59045,-0.00166332,0.00167061,-0.00583288,0.00607006,-0.00606276,-0.924582,0.00700488,0.023179,629,988,-36.8239,-2.59046
-588,36,-36.7589,1.86432,-0.00104146,0.000487956,-0.00639667,0.00616546,-0.00671897,-0.84489,0.00744112,0.03174,636,988,-36.7589,-1.86429
-581,36,-36.5863,0.790955,0,0,0,0,0,0,0,-1,643,988,-36.5863,-0.790935
-574,36,-36.5964,0.786499,-0.000494001,-0.000560386,-0.00684089,0.00631378,-0.00736817,-0.782972,0.00790709,0.0280843,650,988,-36.5964,-0.786525
-567,36,-36.619,0.742798,-0.000287056,-0.000588273,-0.00650716,0.00607124,-0.00694657,-0.773828,0.0075215,0.0346869,657,988,-36.619,-0.742777
-560,36,-36.6287,1.02924,0.000214695,-0.000368115,-0.00584669,0.00577724,-0.00593066,-0.760498,0.00675975,0.0385933,664,988,-36.6287,-1.02923
-553,36,-36.6815,1.20752,0.00111828,7.70821e-05,-0.0049957,0.00562043,-0.00442507,-0.733481,0.00581344,0.0411252,671,988,-36.6815,-1.20751
-546,36,-36.6688,0.942078,0.00251967,0.000644629,-0.00408298,0.00577138,-0.00260708,-0.672546,0.00495097,0.0423741,678,988,-36.6688,-0.942083
-539,36,-36.4514,0.965637,0.00468509,0.00141929,-0.0036179,0.00702151,-0.000917137,-0.573415,0.00501475,0.0441243,685,988,-36.4514,-0.965648
-532,36,-36.3309,1.00262,0.00766863,0.00269525,-0.00475372,0.0105468,-0.0001829,-0.544419,0.00709294,0.0483129,692,988,-36.3309,-1.00264
-525,36,-36.2513,1.04999,0,0,0,0,0,0,0,-1,699,988,-36.2514,-1.04997
-518,36,0,0,0,0,0,0,0,0,0,-1,706,988,0,0
-511,36,0,0,0,0,0,0,0,0,0,-1,713,988,0,0
-504,36,0,0,0,0,0,0,0,0,0,-1,720,988,0,0
-497,36,0,0,0,0,0,0,0,0,0,-1,727,988,0,0
-490,36,0,0,0,0,0,0,0,0,0,-1,734,988,0,0
-483,36,0,0,0,0,0,0,0,0,0,-1,741,988,0,0
-476,36,0,0,0,0,0,0,0,0,0,-1,748,988,0,0
-469,36,0,0,0,0,0,0,0,0,0,-1,755,988,0,0
-462,36,0,0,0,0,0,0,0,0,0,-1,762,988,0,0
-455,36,0,0,0,0,0,0,0,0,0,-1,769,988,0,0
-448,36,0,0,0,0,0,0,0,0,0,-1,776,988,0,0
-441,36,0,0,0,0,0,0,0,0,0,-1,783,988,0,0
-434,36,0,0,0,0,0,0,0,0,0,-1,790,988,0,0
-427,36,0,0,0,0,0,0,0,0,0,-1,797,988,0,0
-420,36,0,0,0,0,0,0,0,0,0,-1,804,988,0,0
-413,36,0,0,0,0,0,0,0,0,0,-1,811,988,0,0
-406,36,0,0,0,0,0,0,0,0,0,-1,818,988,0,0
-399,36,0,0,0,0,0,0,0,0,0,-1,825,988,0,0
-392,36,0,0,0,0,0,0,0,0,0,-1,832,988,0,0
-385,36,0,0,0,0,0,0,0,0,0,-1,839,988,0,0
-378,36,0,0,0,0,0,0,0,0,0,-1,846,988,0,0
-371,36,0,0,0,0,0,0,0,0,0,-1,853,988,0,0
-364,36,0,0,0,0,0,0,0,0,0,-1,860,988,0,0
-357,36,0,0,0,0,0,0,0,0,0,-1,867,988,0,0
-350,36,0,0,0,0,0,0,0,0,0,-1,874,988,0,0
-343,36,0,0,0,0,0,0,0,0,0,-1,881,988,0,0
-336,36,0,0,0,0,0,0,0,0,0,-1,888,988,0,0
-329,36,0,0,0,0,0,0,0,0,0,-1,895,988,0,0
-322,36,0,0,0,0,0,0,0,0,0,-1,902,988,0,0
-315,36,0,0,0,0,0,0,0,0,0,-1,909,988,0,0
-308,36,0,0,0,0,0,0,0,0,0,-1,916,988,0,0
-301,36,0,0,0,0,0,0,0,0,0,-1,923,988,0,0
-294,36,0,0,0,0,0,0,0,0,0,-1,930,988,0,0
-287,36,0,0,0,0,0,0,0,0,0,-1,937,988,0,0
-280,36,0,0,0,0,0,0,0,0,0,-1,944,988,0,0
-273,36,0,0,0,0,0,0,0,0,0,-1,951,988,0,0
-266,36,0,0,0,0,0,0,0,0,0,-1,958,988,0,0
-259,36,0,0,0,0,0,0,0,0,0,-1,965,988,0,0
-252,36,0,0,0,0,0,0,0,0,0,-1,972,988,0,0
-245,36,0,0,0,0,0,0,0,0,0,-1,979,988,0,0
-238,36,0,0,0,0,0,0,0,0,0,-1,986,988,0,0
-231,36,0,0,0,0,0,0,0,0,0,-1,993,988,0,0
-224,36,0,0,0,0,0,0,0,0,0,-1,1000,988,0,0
-217,36,0,0,0,0,0,0,0,0,0,-1,1007,988,0,0
-210,36,0,0,0,0,0,0,0,0,0,-1,1014,988,0,0
-203,36,0,0,0,0,0,0,0,0,0,-1,1021,988,0,0
-196,36,0,0,0,0,0,0,0,0,0,-1,1028,988,0,0
-189,36,0,0,0,0,0,0,0,0,0,-1,1035,988,0,0
-182,36,0,0,0,0,0,0,0,0,0,-1,1042,988,0,0
-175,36,0,0,0,0,0,0,0,0,0,-1,1049,988,0,0
-168,36,0,0,0,0,0,0,0,0,0,-1,1056,988,0,0
-161,36,0,0,0,0,0,0,0,0,0,-1,1063,988,0,0
-154,36,0,0,0,0,0,0,0,0,0,-1,1070,988,0,0
-147,36,0,0,0,0,0,0,0,0,0,-1,1077,988,0,0
-140,36,0,0,0,0,0,0,0,0,0,-1,1084,988,0,0
-133,36,0,0,0,0,0,0,0,0,0,-1,1091,988,0,0
-126,36,0,0,0,0,0,0,0,0,0,-1,1098,988,0,0
-119,36,0,0,0,0,0,0,0,0,0,-1,1105,988,0,0
-112,36,0,0,0,0,0,0,0,0,0,-1,1112,988,0,0
-105,36,0,0,0,0,0,0,0,0,0,-1,1119,988,0,0
-98,36,0,0,0,0,0,0,0,0,0,-1,1126,988,0,0
-91,36,0,0,0,0,0,0,0,0,0,-1,1133,988,0,0
-84,36,0,0,0,0,0,0,0,0,0,-1,1140,988,0,0
-77,36,0,0,0,0,0,0,0,0,0,-1,1147,988,0,0
-70,36,0,0,0,0,0,0,0,0,0,-1,1154,988,0,0
-63,36,0,0,0,0,0,0,0,0,0,-1,1161,988,0,0
-56,36,0,0,0,0,0,0,0,0,0,-1,1168,988,0,0
-49,36,0,0,0,0,0,0,0,0,0,-1,1175,988,0,0
-42,36,0,0,0,0,0,0,0,0,0,-1,1182,988,0,0
-35,36,0,0,0,0,0,0,0,0,0,-1,1189,988,0,0
-28,36,0,0,0,0,0,0,0,0,0,-1,1196,988,0,0
-21,36,0,0,0,0,0,0,0,0,0,-1,1203,988,0,0
-14,36,0,0,0,0,0,0,0,0,0,-1,1210,988,0,0
-7,36,0,0,0,0,0,0,0,0,0,-1,1217,988,0,0
0,36,0,0,0,0,0,0,0,0,0,-1,1224,988,0,0
7,36,0,0,0,0,0,0,0,0,0,-1,1231,988,0,0
14,36,0,0,0,0,0,0,0,0,0,-1,1238,988,0,0
21,36,0,0,0,0,0,0,0,0,0,-1,1245,988,0,0
28,36,0,0,0,0,0,0,0,0,0,-1,1252,988,0,0
35,36,0,0,0,0,0,0,0,0,0,-1,1259,988,0,0
42,36,0,0,0,0,0,0,0,0,0,-1,1266,988,0,0
49,36,0,0,0,0,0,0,0,0,0,-1,1273,988,0,0
56,36,0,0,0,0,0,0,0,0,0,-1,1280,988,0,0
63,36,0,0,0,0,0,0,0,0,0,-1,1287,988,0,0
70,36,0,0,0,0,0,0,0,0,0,-1,1294,988,0,0
77,36,0,0,0,0,0,0,0,0,0,-1,1301,988,0,0
84,36,0,0,0,0,0,0,0,0,0,-1,1308,988,0,0
91,36,0,0,0,0,0,0,0,0,0,-1,1315,988,0,0
98,36,0,0,0,0,0,0,0,0,0,-1,1322,988,0,0
105,36,0,0,0,0,0,0,0,0,0,-1,1329,988,0,0
112,36,0,0,0,0,0,0,0,0,0,-1,1336,988,0,0
119,36,0,0,0,0,0,0,0,0,0,-1,1343,988,0,0
126,36,0,0,0,0,0,0,0,0,0,-1,1350,988,0,0
133,36,0,0,0,0,0,0,0,0,0,-1,1357,988,0,0
140,36,0,0,0,0,0,0,0,0,0,-1,1364,988,0,0
147,36,0,0,0,0,0,0,0,0,0,-1,1371,988,0,0
154,36,0,0,0,0,0,0,0,0,0,-1,1378,988,0,0
161,36,0,0,0,0,0,0,0,0,0,-1,1385,988,0,0
168,36,0,0,0,0,0,0,0,0,0,-1,1392,988,0,0
175,36,0,0,0,0,0,0,0,0,0,-1,1399,988,0,0
182,36,0,0,0,0,0,0,0,0,0,-1,1406,988,0,0
189,36,0,0,0,0,0,0,0,0,0,-1,1413,988,0,0
196,36,0,0,0,0,0,0,0,0,0,-1,1420,988,0,0
203,36,0,0,0,0,0,0,0,0,0,-1,1427,988,0,0
210,36,0,0,0,0,0,0,0,0,0,-1,1434,988,0,0
217,36,0,0,0,0,0,0,0,0,0,-1,1441,988,0,0
224,36,0,0,0,0,0,0,0,0,0,-1,1448,988,0,0
231,36,0,0,0,0,0,0,0,0,0,-1,1455,988,0,0
238,36,0,0,0,0,0,0,0,0,0,-1,1462,988,0,0
245,36,0,0,0,0,0,0,0,0,0,-1,1469,988,0,0
252,36,0,0,0,0,0,0,0,0,0,-1,1476,988,0,0
259,36,0,0,0,0,0,0,0,0,0,-1,1483,988,0,0
266,36,0,0,0,0,0,0,0,0,0,-1,1490,988,0,0
273,36,0,0,0,0,0,0,0,0,0,-1,1497,988,0,0
280,36,0,0,0,0,0,0,0,0,0,-1,1504,988,0,0
287,36,0,0,0,0,0,0,0,0,0,-1,1511,988,0,0
294,36,0,0,0,0,0,0,0,0,0,-1,1518,988,0,0
301,36,0,0,0,0,0,0,0,0,0,-1,1525,988,0,0
308,36,0,0,0,0,0,0,0,0,0,-1,1532,988,0,0
315,36,0,0,0,0,0,0,0,0,0,-1,1539,988,0,0
322,36,0,0,0,0,0,0,0,0,0,-1,1546,988,0,0
329,36,0,0,0,0,0,0,0,0,0,-1,1553,988,0,0
336,36,0,0,0,0,0,0,0,0,0,-1,1560,988,0,0
343,36,0,0,0,0,0,0,0,0,0,-1,1567,988,0,0
350,36,0,0,0,0,0,0,0,0,0,-1,1574,988,0,0
357,36,0,0,0,0,0,0,0,0,0,-1,1581,988,0,0
364,36,0,0,0,0,0,0,0,0,0,-1,1588,988,0,0
371,36,0,0,0,0,0,0,0,0,0,-1,1595,988,0,0
378,36,0,0,0,0,0,0,0,0,0,-1,1602,988,0,0
385,36,0,0,0,0,0,0,0,0,0,-1,1609,988,0,0
392,36,0,0,0,0,0,0,0,0,0,-1,1616,988,0,0
399,36,0,0,0,0,0,0,0,0,0,-1,1623,988,0,0
406,36,0,0,0,0,0,0,0,0,0,-1,1630,988,0,0
413,36,0,0,0,0,0,0,0,0,0,-1,1637,988,0,0
420,36,0,0,0,0,0,0,0,0,0,-1,1644,988,0,0
427,36,0,0,0,0,0,0,0,0,0,-1,1651,988,0,0
434,36,0,0,0,0,0,0,0,0,0,-1,1658,988,0,0
441,36,0,0,0,0,0,0,0,0,0,-1,1665,988,0,0
448,36,0,0,0,0,0,0,0,0,0,-1,1672,988,0,0
455,36,0,0,0,0,0,0,0,0,0,-1,1679,988,0,0
462,36,0,0,0,0,0,0,0,0,0,-1,1686,988,0,0
469,36,0,0,0,0,0,0,0,0,0,-1,1693,988,0,0
476,36,0,0,0,0,0,0,0,0,0,-1,1700,988,0,0
483,36,0,0,0,0,0,0,0,0,0,-1,1707,988,0,0
490,36,0,0,0,0,0,0,0,0,0,-1,1714,988,0,0
497,36,0,0,0,0,0,0,0,0,0,-1,1721,988,0,0
504,36,0,0,0,0,0,0,0,0,0,-1,1728,988,0,0
511,36,0,0,0,0,0,0,0,0,0,-1,1735,988,0,0
518,36,0,0,0,0,0,0,0,0,0,-1,1742,988,0,0
525,36,0,0,0,0,0,0,0,0,0,-1,1749,988,0,0
532,36,0,0,0,0,0,0,0,0,0,-1,1756,988,0,0
539,36,0,0,0,0,0,0,0,0,0,-1,1763,988,0,0
546,36,0,0,0,0,0,0,0,0,0,-1,1770,988,0,0
553,36,0,0,0,0,0,0,0,0,0,-1,1777,988,0,0
560,36,0,0,0,0,0,0,0,0,0,-1,1784,988,0,0
567,36,0,0,0,0,0,0,0,0,0,-1,1791,988,0,0
574,36,0,0,0,0,0,0,0,0,0,-1,1798,988,0,0
581,36,0,0,0,0,0,0,0,0,0,-1,1805,988,0,0
588,36,0,0,0,0,0,0,0,0,0,-1,1812,988,0,0
595,36,0,0,0,0,0,0,0,0,0,-1,1819,988,0,0
602,36,0,0,0,0,0,0,0,0,0,-1,1826,988,0,0
609,36,0,0,0,0,0,0,0,0,0,-1,1833,988,0,0
616,36,0,0,0,0,0,0,0,0,0,-1,1840,988,0,0
623,36,0,0,0,0,0,0,0,0,0,-1,1847,988,0,0
630,36,0,0,0,0,0,0,0,0,0,-1,1854,988,0,0
637,36,0,0,0,0,0,0,0,0,0,-1,1861,988,0,0
644,36,49.0317,2.53851,-0.00188963,0.00368299,0.00377963,0.00559233,-0.00379897,1.10302,0.00545492,0.0410001,1868,988,49.0317,-2.53853
651,36,48.9484,2.66071,-0.00148914,0.0036199,0.00199034,0.00430375,-0.00217299,1.23985,0.0038062,0.0386643,1875,988,48.9483,-2.66068
658,36,48.8665,2.87769,0,0,0,0,0,0,0,-1,1882,988,48.8665,-2.87769
665,36,49.2468,2.69684,-0.0011258,0.00324632,0.000755916,0.00337333,-0.0012528,1.40434,0.00276284,0.0378853,1889,988,49.2468,-2.69685
672,36,49.224,2.60425,-0.00119081,0.00314166,0.000943533,0.00333823,-0.00138737,1.3654,0.00280475,0.0382044,1896,988,49.224,-2.60427
679,36,49.2045,2.54211,-0.00130981,0.00302474,0.00149576,0.00349078,-0.00177586,1.26875,0.00309397,0.0371715,1903,988,49.2045,-2.5421
686,36,49.092,2.50409,-0.00132242,0.00269064,0.00208891,0.0035806,-0.00221239,1.16804,0.00337554,0.0349489,1910,988,49.092,-2.50409
693,36,49.1256,2.4425,-0.00127616,0.00229634,0.00255785,0.00362991,-0.00260973,1.0902,0.00361847,0.0359668,1917,988,49.1256,-2.44253
700,36,49.1029,2.55316,-0.0012991,0.00206718,0.00270742,0.00357201,-0.00280392,1.0635,0.00369004,0.034921,1924,988,49.103,-2.55314
707,36,49.0795,2.6178,-0.00159733,0.00208191,0.00271158,0.00351901,-0.00303442,1.08345,0.00378707,0.0249346,1931,988,49.0795,-2.61778
714,36,49.0042,2.99579,-0.00212681,0.00217842,0.00261456,0.00341249,-0.00336088,1.1298,0.00391065,0.0329579,1938,988,49.0041,-2.99581
721,36,48.5165,4.87445,0,0,0,0,0,0,0,-1,1945,988,48.5165,-4.87446
728,36,48.4377,5.18616,-0.00361128,0.00364932,0.00224911,0.00428957,-0.00425153,1.29347,0.00493122,0.0218243,1952,988,48.4378,-5.18619
735,36,48.3719,5.47314,-0.00409297,0.00470898,0.00188037,0.00509385,-0.00447784,1.3689,0.00553003,0.0189355,1959,988,48.372,-5.47316
742,36,48.3606,5.62793,-0.00443279,0.00655937,0.00148613,0.00675675,-0.00463017,1.43875,0.00661235,0.0158678,1966,988,48.3606,-5.62795
749,36,48.3745,5.85699,-0.00500424,0.00948382,0.00124355,0.00958978,-0.0051102,1.48579,0.00861739,0.0174176,1973,988,48.3745,-5.85699
756,36,48.3413,6.06342,-0.00502777,0.0131549,0.000840328,0.0131936,-0.00506652,1.52471,0.010885,0.0171582,1980,988,48.3413,-6.06344
763,36,48.2417,6.23151,-0.00456875,0.0181982,0.000705874,0.0182201,-0.00459061,1.53983,0.0139314,0.0204181,1987,988,48.2417,-6.23153
770,36,48.1523,6.44647,-0.00343367,0.0249333,0.00127319,0.0249903,-0.0034907,1.52603,0.0179374,0.0166265,1994,988,48.1524,-6.44644
777,36,48.1401,6.68475,-0.00119818,0.0330764,0.00244978,0.0332506,-0.0013724,1.4998,0.0226384,0.0258236,2001,988,48.1401,-6.68478
784,36,48.168,6.87952,0.00240107,0.0424183,0.00407273,0.0428286,0.00199077,1.47039,0.0279125,0.0493503,2008,988,48.168,-6.87955
791,36,48.1509,7.07208,0.00807895,0.0531006,0.00615019,0.0539256,0.00725392,1.43745,0.033793,0.0493867,2015,988,48.151,-7.0721
798,36,48.1423,7.30859,0,0,0,0,0,0,0,-1,2022,988,48.1422,-7.30862
805,36,48.7246,7.81207,0,0,0,0,0,0,0,-1,2029,988,48.7247,-7.81208
812,36,47.6907,8.15302,0,0,0,0,0,0,0,-1,2036,988,47.6907,-8.15304
-700,29,0,0,0,0,0,0,0,0,0,-1,524,995,0,0
-693,29,-36.4108,5.4776,0,0,0,0,0,0,0,-1,531,995,-36.4108,-5.47759
-686,29,-36.3141,5.16534,0,0,0,0,0,0,0,-1,538,995,-36.3141,-5.16535
-679,29,-36.3257,4.80963,0,0,0,0,0,0,0,-1,545,995,-36.3258,-4.80966
-672,29,-36.2883,4.4826,0,0,0,0,0,0,0,-1,552,995,-36.2883,-4.48262
-665,29,-36.075,2.42883,0,0,0,0,0,0,0,-1,559,995,-36.075,-2.42885
-658,29,-33.9437,2.49847,0,0,0,0,0,0,0,-1,566,995,-33.9437,-2.49847
-651,29,-36.304,2.80768,0,0,0,0,0,0,0,-1,573,995,-36.304,-2.80767
-644,29,-36.6844,3.1579,-0.00619141,0.0216686,0.00421779,0.0222931,-0.00681595,1.42379,0.0175801,0.0447489,580,995,-36.6844,-3.15787
-637,29,-36.8886,3.34692,-0.00635439,0.0161868,0.0024879,0.0164581,-0.00662572,1.46217,0.0137245,0.0251785,587,995,-36.8886,-3.34693
-630,29,-36.8887,3.34625,-0.00580789,0.0123905,0.00104893,0.0124508,-0.00586815,1.51341,0.0108017,0.0136895,594,995,-36.8887,-3.34625
-623,29,-36.8958,3.27826,-0.00481008,0.00910733,-0.000371971,0.00911726,-0.00482002,-1.54409,0.00817319,0.0125351,601,995,-36.8957,-3.27823
-616,29,-36.9158,3.14282,-0.00375271,0.00668388,-0.00218216,0.00712177,-0.0041906,-1.37276,0.00660388,0.0146215,608,995,-36.9158,-3.14285
-609,29,-36.9105,3.05939,-0.00237996,0.00442406,-0.00388353,0.00618494,-0.00414085,-1.1451,0.00600041,0.0206662,615,995,-36.9105,-3.0594
-602,29,-36.9764,2.88776,-0.00132979,0.00267111,-0.0052966,0.00633244,-0.00499112,-0.96596,0.00655293,0.0213751,622,995,-36.9765,-2.88777
-595,29,-37.0187,2.66315,-0.000371642,0.0015364,-0.00627654,0.00693101,-0.00576625,-0.86082,0.00734104,0.0231511,629,995,-37.0187,-2.66317
-588,29,-36.7783,1.97815,0.000345016,0.000421066,-0.00681383,0.00719697,-0.00643089,-0.788188,0.00787219,0.0375219,636,995,-36.7783,-1.97814
-581,29,-36.5435,1.18298,0.000807923,-0.000323998,-0.00714458,0.00740892,-0.006925,-0.745873,0.00827726,0.0431573,643,995,-36.5435,-1.18297
-574,29,-36.5652,0.716797,0.00101063,-0.000562675,-0.00715777,0.00742484,-0.00697689,-0.730667,0.00831618,0.0318988,650,995,-36.5652,-0.71677
-567,29,-36.6099,0.701355,0.00115262,-0.0005529,-0.00673841,0.00709201,-0.00649229,-0.722457,0.00784545,0.0323845,657,995,-36.6099,-0.701375
-560,29,-36.7177,0.823792,0.0014871,-0.00026669,-0.00598279,0.00665692,-0.0054365,-0.712631,0.00699398,0.0362323,664,995,-36.7177,-0.823783
-553,29,-36.7808,1.2301,0.00210135,0.000250036,-0.00501775,0.00627811,-0.00392673,-0.694186,0.00594367,0.0401579,671,995,-36.7807,-1.2301
-546,29,-36.6343,0.708862,0.00311741,0.000872916,-0.00398012,0.00613048,-0.00214015,-0.647984,0.00495684,0.0437698,678,995,-36.6343,-0.708844
-539,29,-36.6116,0.728821,0.00487414,0.0017658,-0.0035052,0.00715428,-0.000514334,-0.576727,0.00494988,0.0431643,685,995,-36.6116,-0.728804
-532,29,-36.472,0.935486,0,0,0,0,0,0,0,-1,692,995,-36.472,-0.935491
-525,29,-35.9903,1.01428,0,0,0,0,0,0,0,-1,699,995,-35.9903,-1.01431
-518,29,0,0,0,0,0,0,0,0,0,-1,706,995,0,0
-511,29,0,0,0,0,0,0,0,0,0,-1,713,995,0,0
-504,29,0,0,0,0,0,0,0,0,0,-1,720,995,0,0
-497,29,0,0,0,0,0,0,0,0,0,-1,727,995,0,0
-490,29,0,0,0,0,0,0,0,0,0,-1,734,995,0,0
-483,29,0,0,0,0,0,0,0,0,0,-1,741,995,0,0
-476,29,0,0,0,0,0,0,0,0,0,-1,748,995,0,0
-469,29,0,0,0,0,0,0,0,0,0,-1,755,995,0,0
-462,29,0,0,0,0,0,0,0,0,0,-1,762,995,0,0
-455,29,0,0,0,0,0,0,0,0,0,-1,769,995,0,0
-448,29,0,0,0,0,0,0,0,0,0,-1,776,995,0,0
-441,29,0,0,0,0,0,0,0,0,0,-1,783,995,0,0
-434,29,0,0,0,0,0,0,0,0,0,-1,790,995,0,0
-427,29,0,0,0,0,0,0,0,0,0,-1,797,995,0,0
-420,29,0,0,0,0,0,0,0,0,0,-1,804,995,0,0
-413,29,0,0,0,0,0,0,0,0,0,-1,811,995,0,0
-406,29,0,0,0,0,0,0,0,0,0,-1,818,995,0,0
-399,29,0,0,0,0,0,0,0,0,0,-1,825,995,0,0
-392,29,0,0,0,0,0,0,0,0,0,-1,832,995,0,0
-385,29,0,0,0,0,0,0,0,0,0,-1,839,995,0,0
-378,29,0,0,0,0,0,0,0,0,0,-1,846,995,0,0
-371,29,0,0,0,0,0,0,0,0,0,-1,853,995,0,0
-364,29,0,0,0,0,0,0,0,0,0,-1,860,995,0,0
-357,29,0,0,0,0,0,0,0,0,0,-1,867,995,0,0
-350,29,0,0,0,0,0,0,0,0,0,-1,874,995,0,0
-343,29,0,0,0,0,0,0,0,0,0,-1,881,995,0,0
-336,29,0,0,0,0,0,0,0,0,0,-1,888,995,0,0
-329,29,0,0,0,0,0,0,0,0,0,-1,895,995,0,0
-322,29,0,0,0,0,0,0,0,0,0,-1,902,995,0,0
-315,29,0,0,0,0,0,0,0,0,0,-1,909,995,0,0
-308,29,0,0,0,0,0,0,0,0,0,-1,916,995,0,0
-301,29,0,0,0,0,0,0,0,0,0,-1,923,995,0,0
-294,29,0,0,0,0,0,0,0,0,0,-1,930,995,0,0
-287,29,0,0,0,0,0,0,0,0,0,-1,937,995,0,0
-280,29,0,0,0,0,0,0,0,0,0,-1,944,995,0,0
-273,29,0,0,0,0,0,0,0,0,0,-1,951,995,0,0
-266,29,0,0,0,0,0,0,0,0,0,-1,958,995,0,0
-259,29,0,0,0,0,0,0,0,0,0,-1,965,995,0,0
-252,29,0,0,0,0,0,0,0,0,0,-1,972,995,0,0
-245,29,0,0,0,0,0,0,0,0,0,-1,979,995,0,0
-238,29,0,0,0,0,0,0,0,0,0,-1,986,995,0,0
-231,29,0,0,0,0,0,0,0,0,0,-1,993,995,0,0
-224,29,0,0,0,0,0,0,0,0,0,-1,1000,995,0,0
-217,29,0,0,0,0,0,0,0,0,0,-1,1007,995,0,0
-210,29,0,0,0,0,0,0,0,0,0,-1,1014,995,0,0
-203,29,0,0,0,0,0,0,0,0,0,-1,1021,995,0,0
-196,29,0,0,0,0,0,0,0,0,0,-1,1028,995,0,0
-189,29,0,0,0,0,0,0,0,0,0,-1,1035,995,0,0
-182,29,0,0,0,0,0,0,0,0,0,-1,1042,995,0,0
-175,29,0,0,0,0,0,0,0,0,0,-1,1049,995,0,0
-168,29,0,0,0,0,0,0,0,0,0,-1,1056,995,0,0
-161,29,0,0,0,0,0,0,0,0,0,-1,1063,995,0,0
-154,29,0,0,0,0,0,0,0,0,0,-1,1070,995,0,0
-147,29,0,0,0,0,0,0,0,0,0,-1,1077,995,0,0
-140,29,0,0,0,0,0,0,0,0,0,-1,1084,995,0,0
-133,29,0,0,0,0,0,0,0,0,0,-1,1091,995,0,0
-126,29,0,0,0,0,0,0,0,0,0,-1,1098,995,0,0
-119,29,0,0,0,0,0,0,0,0,0,-1,1105,995,0,0
-112,29,0,0,0,0,0,0,0,0,0,-1,1112,995,0,0
-105,29,0,0,0,0,0,0,0,0,0,-1,1119,995,0,0
-98,29,0,0,0,0,0,0,0,0,0,-1,1126,995,0,0
-91,29,0,0,0,0,0,0,0,0,0,-1,1133,995,0,0
-84,29,0,0,0,0,0,0,0,0,0,-1,1140,995,0,0
-77,29,0,0,0,0,0,0,0,0,0,-1,1147,995,0,0
-70,29,0,0,0,0,0,0,0,0,0,-1,1154,995,0,0
-63,29,0,0,0,0,0,0,0,0,0,-1,1161,995,0,0
-56,29,0,0,0,0,0,0,0,0,0,-1,1168,995,0,0
-49,29,0,0,0,0,0,0,0,0,0,-1,1175,995,0,0
-42,29,0,0,0,0,0,0,0,0,0,-1,1182,995,0,0
-35,29,0,0,0,0,0,0,0,0,0,-1,1189,995,0,0
-28,29,0,0,0,0,0,0,0,0,0,-1,1196,995,0,0
-21,29,0,0,0,0,0,0,0,0,0,-1,1203,995,0,0
-14,29,0,0,0,0,0,0,0,0,0,-1,1210,995,0,0
-7,29,0,0,0,0,0,0,0,0,0,-1,1217,995,0,0
0,29,0,0,0,0,0,0,0,0,0,-1,1224,995,0,0
7,29,0,0,0,0,0,0,0,0,0,-1,1231,995,0,0
14,29,0,0,0,0,0,0,0,0,0,-1,1238,995,0,0
21,29,0,0,0,0,0,0,0,0,0,-1,1245,995,0,0
28,29,0,0,0,0,0,0,0,0,0,-1,1252,995,0,0
35,29,0,0,0,0,0,0,0,0,0,-1,1259,995,0,0
42,29,0,0,0,0,0,0,0,0,0,-1,1266,995,0,0
49,29,0,0,0,0,0,0,0,0,0,-1,1273,995,0,0
56,29,0,0,0,0,0,0,0,0,0,-1,1280,995,0,0
63,29,0,0,0,0,0,0,0,0,0,-1,1287,995,0,0
70,29,0,0,0,0,0,0,0,0,0,-1,1294,995,0,0
77,29,0,0,0,0,0,0,0,0,0,-1,1301,995,0,0
84,29,0,0,0,0,0,0,0,0,0,-1,1308,995,0,0
91,29,0,0,0,0,0,0,0,0,0,-1,1315,995,0,0
98,29,0,0,0,0,0,0,0,0,0,-1,1322,995,0,0
105,29,0,0,0,0,0,0,0,0,0,-1,1329,995,0,0
112,29,0,0,0,0,0,0,0,0,0,-1,1336,995,0,0
119,29,0,0,0,0,0,0,0,0,0,-1,1343,995,0,0
126,29,0,0,0,0,0,0,0,0,0,-1,1350,995,0,0
133,29,0,0,0,0,0,0,0,0,0,-1,1357,995,0,0
140,29,0,0,0,0,0,0,0,0,0,-1,1364,995,0,0
147,29,0,0,0,0,0,0,0,0,0,-1,1371,995,0,0
154,29,0,0,0,0,0,0,0,0,0,-1,1378,995,0,0
161,29,0,0,0,0,0,0,0,0,0,-1,1385,995,0,0
168,29,0,0,0,0,0,0,0,0,0,-1,1392,995,0,0
175,29,0,0,0,0,0,0,0,0,0,-1,1399,995,0,0
182,29,0,0,0,0,0,0,0,0,0,-1,1406,995,0,0
189,29,0,0,0,0,0,0,0,0,0,-1,1413,995,0,0
196,29,0,0,0,0,0,0,0,0,0,-1,1420,995,0,0
203,29,0,0,0,0,0,0,0,0,0,-1,1427,995,0,0
210,29,0,0,0,0,0,0,0,0,0,-1,1434,995,0,0
217,29,0,0,0,0,0,0,0,0,0,-1,1441,995,0,0
224,29,0,0,0,0,0,0,0,0,0,-1,1448,995,0,0
231,29,0,0,0,0,0,0,0,0,0,-1,1455,995,0,0
238,29,0,0,0,0,0,0,0,0,0,-1,1462,995,0,0
245,29,0,0,0,0,0,0,0,0,0,-1,1469,995,0,0
252,29,0,0,0,0,0,0,0,0,0,-1,1476,995,0,0
259,29,0,0,0,0,0,0,0,0,0,-1,1483,995,0,0
266,29,0,0,0,0,0,0,0,0,0,-1,1490,995,0,0
273,29,0,0,0,0,0,0,0,0,0,-1,1497,995,0,0
280,29,0,0,0,0,0,0,0,0,0,-1,1504,995,0,0
287,29,0,0,0,0,0,0,0,0,0,-1,1511,995,0,0
294,29,0,0,0,0,0,0,0,0,0,-1,1518,995,0,0
301,29,0,0,0,0,0,0,0,0,0,-1,1525,995,0,0
308,29,0,0,0,0,0,0,0,0,0,-1,1532,995,0,0
315,29,0,0,0,0,0,0,0,0,0,-1,1539,995,0,0
322,29,0,0,0,0,0,0,0,0,0,-1,1546,995,0,0
329,29,0,0,0,0,0,0,0,0,0,-1,1553,995,0,0
336,29,0,0,0,0,0,0,0,0,0,-1,1560,995,0,0
343,29,0,0,0,0,0,0,0,0,0,-1,1567,995,0,0
350,29,0,0,0,0,0,0,0,0,0,-1,1574,995,0,0
357,29,0,0,0,0,0,0,0,0,0,-1,1581,995,0,0
364,29,0,0,0,0,0,0,0,0,0,-1,1588,995,0,0
371,29,0,0,0,0,0,0,0,0,0,-1,1595,995,0,0
378,29,0,0,0,0,0,0,0,0,0,-1,1602,995,0,0
385,29,0,0,0,0,0,0,0,0,0,-1,1609,995,0,0
392,29,0,0,0,0,0,0,0,0,0,-1,1616,995,0,0
399,29,0,0,0,0,0,0,0,0,0,-1,1623,995,0,0
406,29,0,0,0,0,0,0,0,0,0,-1,1630,995,0,0
413,29,0,0,0,0,0,0,0,0,0,-1,1637,995,0,0
420,29,0,0,0,0,0,0,0,0,0,-1,1644,995,0,0
427,29,0,0,0,0,0,0,0,0,0,-1,1651,995,0,0
434,29,0,0,0,0,0,0,0,0,0,-1,1658,995,0,0
441,29,0,0,0,0,0,0,0,0,0,-1,1665,995,0,0
448,29,0,0,0,0,0,0,0,0,0,-1,1672,995,0,0
455,29,0,0,0,0,0,0,0,0,0,-1,1679,995,0,0
462,29,0,0,0,0,0,0,0,0,0,-1,1686,995,0,0
469,29,0,0,0,0,0,0,0,0,0,-1,1693,995,0,0
476,29,0,0,0,0,0,0,0,0,0,-1,1700,995,0,0
483,29,0,0,0,0,0,0,0,0,0,-1,1707,995,0,0
490,29,0,0,0,0,0,0,0,0,0,-1,1714,995,0,0
497,29,0,0,0,0,0,0,0,0,0,-1,1721,995,0,0
504,29,0,0,0,0,0,0,0,0,0,-1,1728,995,0,0
511,29,0,0,0,0,0,0,0,0,0,-1,1735,995,0,0
518,29,0,0,0,0,0,0,0,0,0,-1,1742,995,0,0
525,29,0,0,0,0,0,0,0,0,0,-1,1749,995,0,0
532,29,0,0,0,0,0,0,0,0,0,-1,1756,995,0,0
539,29,0,0,0,0,0,0,0,0,0,-1,1763,995,0,0
546,29,0,0,0,0,0,0,0,0,0,-1,1770,995,0,0
553,29,0,0,0,0,0,0,0,0,0,-1,1777,995,0,0
560,29,0,0,0,0,0,0,0,0,0,-1,1784,995,0,0
567,29,0,0,0,0,0,0,0,0,0,-1,1791,995,0,0
574,29,0,0,0,0,0,0,0,0,0,-1,1798,995,0,0
581,29,0,0,0,0,0,0,0,0,0,-1,1805,995,0,0
588,29,0,0,0,0,0,0,0,0,0,-1,1812,995,0,0
595,29,0,0,0,0,0,0,0,0,0,-1,1819,995,0,0
602,29,0,0,0,0,0,0,0,0,0,-1,1826,995,0,0
609,29,0,0,0,0,0,0,0,0,0,-1,1833,995,0,0
616,29,0,0,0,0,0,0,0,0,0,-1,1840,995,0,0
623,29,0,0,0,0,0,0,0,0,0,-1,1847,995,0,0
630,29,0,0,0,0,0,0,0,0,0,-1,1854,995,0,0
637,29,0,0,0,0,0,0,0,0,0,-1,1861,995,0,0
644,29,49.1356,2.62128,8.11154e-05,0.00325206,0.00384002,0.00582104,-0.00248787,0.981179,0.00492414,0.0394651,1868,995,49.1356,-2.62131
651,29,49.1115,2.7049,-0.000112822,0.00305821,0.00211291,0.00411433,-0.00116894,1.10728,0.00320441,0.0403584,1875,995,49.1114,-2.7049
658,29,49.1051,2.85052,-0.000282345,0.00277232,0.00116613,0.0031666,-0.000676629,1.24475,0.00236904,0.0416423,1882,995,49.1051,-2.85053
665,29,49.255,2.82251,-0.000538189,0.00262607,0.000911223,0.00286972,-0.000781836,1.30952,0.00222013,0.0396933,1889,995,49.255,-2.82249
672,29,49.1062,2.6568,-0.0008443,0.00257385,0.00110031,0.00289742,-0.00116786,1.28479,0.00241686,0.0387519,1896,995,49.1062,-2.65679
679,29,49.0165,2.54602,-0.00111096,0.00257615,0.00164875,0.00320586,-0.00174068,1.20596,0.00289735,0.0375568,1903,995,49.0165,-2.54602
686,29,48.9944,2.50458,-0.00123447,0.0023609,0.00224762,0.00344132,-0.00231489,1.12271,0.00334449,0.0342552,1910,995,48.9944,-2.50457
693,29,49.0055,2.54669,-0.00124191,0.00205575,0.00275027,0.00361357,-0.00279973,1.05543,0.00371265,0.0348376,1917,995,49.0055,-2.54668
700,29,49.006,2.64563,-0.00128102,0.00189288,0.00292522,0.00363389,-0.00302204,1.03393,0.00384821,0.0340019,1924,995,49.006,-2.64564
707,29,49.0076,2.6153,-0.00160184,0.00196577,0.00293189,0.00361386,-0.00324994,1.05869,0.00396467,0.0216516,1931,995,49.0075,-2.61532
714,29,48.9553,3.10974,-0.00215064,0.00215363,0.00280934,0.00354043,-0.00353744,1.11225,0.00408641,0.0355398,1938,995,48.9554,-3.10973
721,29,48.5498,4.9881,0,0,0,0,0,0,0,-1,1945,995,48.5498,-4.9881
728,29,48.587,5.28882,-0.00370119,0.00372916,0.00243089,0.00445377,-0.00442581,1.2811,0.00512664,0.0277097,1952,995,48.5871,-5.28882
735,29,48.5491,5.54382,-0.00406789,0.00477027,0.00205611,0.00522519,-0.0045228,1.35305,0.00563287,0.0163817,1959,995,48.5491,-5.5438
742,29,48.5582,5.6629,-0.00419992,0.00661433,0.00159903,0.00684581,-0.00443141,1.42703,0.00656046,0.0138937,1966,995,48.5583,-5.66293
749,29,48.5364,5.8418,-0.00472234,0.00959556,0.00131629,0.00971557,-0.00484234,1.47988,0.00856055,0.0148534,1973,995,48.5364,-5.84179
756,29,48.5127,6.04486,-0.00469311,0.0131785,0.00084183,0.0132181,-0.00473267,1.52383,0.0107429,0.0146357,1980,995,48.5127,-6.04486
763,29,48.4664,6.15234,-0.00405774,0.0181532,0.000570644,0.0181678,-0.00407239,1.54513,0.013673,0.0139983,1987,995,48.4664,-6.15235
770,29,48.3778,6.26312,-0.00270689,0.0248504,0.000927142,0.0248816,-0.00273805,1.5372,0.0175717,0.0175449,1994,995,48.3778,-6.26312
777,29,48.2886,6.46698,-0.000184847,0.033205,0.00194707,0.0333181,-0.000298001,1.51275,0.0223121,0.0280767,2001,995,48.2887,-6.46695
784,29,48.3223,6.62524,0.00358561,0.0426654,0.00335372,0.0429511,0.00329989,1.48581,0.0275999,0.0446047,2008,995,48.3223,-6.62527
791,29,48.3975,6.97223,0.00921524,0.0534786,0.00521367,0.0540844,0.00860942,1.45512,0.0335566,0.044026,2015,995,48.3975,-6.97226
798,29,48.2903,7.21045,0.0171029,0.0655689,0.00742453,0.0666808,0.015991,1.42215,0.0401981,0.045132,2022,995,48.2903,-7.21048
805,29,48.4883,7.36707,0,0,0,0,0,0,0,-1,2029,995,48.4884,-7.36705
812,29,47.155,4.62274,0,0,0,0,0,0,0,-1,2036,995,47.1551,-4.62272
-700,22,0,0,0,0,0,0,0,0,0,-1,524,1002,0,0
-693,22,-37.4478,0.610291,0.00784219,0.0610918,0.0137174,0.0644177,0.00451627,1.33293,0.0415217,0.0419868,531,1002,-37.4478,-0.610263
-686,22,-37.4226,1.54535,0.00478476,0.0524947,0.0105757,0.0547339,0.00254555,1.36215,0.035671,0.0441808,538,1002,-37.4226,-1.54535
-679,22,-37.1684,2.51154,0.00176556,0.0460241,0.00876165,0.0476955,9.41809e-05,1.3823,0.0317657,0.0471999,545,1002,-37.1684,-2.51155
-672,22,-37.5225,2.05621,-0.00061276,0.0404296,0.00744683,0.041739,-0.00192216,1.39674,0.0284883,0.0459552,552,1002,-37.5224,-2.05621
-665,22,-35.9401,2.008,0,0,0,0,0,0,0,-1,559,1002,-35.9401,-2.00802
-658,22,-37.2205,1.42578,0,0,0,0,0,0,0,-1,566,1002,-37.2205,-1.42575
-651,22,-36.1551,2.38824,0,0,0,0,0,0,0,-1,573,1002,-36.1551,-2.38827
-644,22,-36.7006,2.85034,-0.00552524,0.0216074,0.00358263,0.0220725,-0.00599033,1.4417,0.0170659,0.0397344,580,1002,-36.7006,-2.85036
-637,22,-37.0338,3.20245,-0.00581452,0.0163397,0.00183934,0.0164914,-0.00596619,1.48852,0.0134322,0.0236234,587,1002,-37.0338,-3.20243
-630,22,-37.0064,3.2489,-0.00539105,0.012745,0.000425358,0.012755,-0.00540102,1.54736,0.0107652,0.0136414,594,1002,-37.0064,-3.24891
-623,22,-37.0333,3.19629,-0.00441793,0.0093594,-0.000927839,0.0094216,-0.00448014,-1.50385,0.00819345,0.0116001,601,1002,-37.0333,-3.19627
-616,22,-37.0193,3.07184,-0.00331836,0.00666144,-0.00262806,0.0073112,-0.00396813,-1.32842,0.00660678,0.0175614,608,1002,-37.0193,-3.07181
-609,22,-37.0756,3.01514,-0.00179137,0.00423664,-0.00420892,0.00639943,-0.00395417,-1.09612,0.00603297,0.0269586,615,1002,-37.0756,-3.01514
-602,22,-37.1954,2.95636,-0.000631579,0.00242165,-0.00553207,0.00663388,-0.00484381,-0.920026,0.00665346,0.0263175,622,1002,-37.1954,-2.95634
-595,22,-37.1573,2.71246,0.00036639,0.00129278,-0.00644017,0.00728639,-0.00562721,-0.821298,0.00747616,0.0271162,629,1002,-37.1573,-2.71244
-588,22,-36.8157,1.96973,0.00110523,0.000239387,-0.00689631,0.00758219,-0.00623757,-0.754051,0.00799142,0.0432482,636,1002,-36.8158,-1.9697
-581,22,-36.4894,1.46533,0.00161981,-0.000436263,-0.00714335,0.00780872,-0.00662518,-0.713931,0.00834275,0.0443783,643,1002,-36.4894,-1.46533
-574,22,-36.5814,0.73407,0.0018152,-0.000639708,-0.00705852,0.0077522,-0.00657671,-0.699311,0.00828207,0.0328021,650,1002,-36.5814,-0.734078
-567,22,-36.5842,0.750305,0.00189705,-0.000568378,-0.0065281,0.0073078,-0.00597913,-0.692081,0.00768399,0.0324904,657,1002,-36.5842,-0.750331
-560,22,-36.7346,1.12512,0.00210051,-0.000197122,-0.00566055,0.00672765,-0.00482426,-0.685283,0.00669961,0.0369366,664,1002,-36.7346,-1.12514
-553,22,-36.7729,1.13446,0.00250306,0.000403448,-0.00456361,0.00613605,-0.00322954,-0.672346,0.00549334,0.038099,671,1002,-36.7729,-1.13448
-546,22,-36.5287,0.742065,0.00326843,0.00108838,-0.00337204,0.00572224,-0.00136544,-0.629072,0.00434214,0.0417886,678,1002,-36.5287,-0.742047
-539,22,-36.5687,0.646545,0.00479979,0.00209429,-0.00280138,0.00655794,0.00033614,-0.560467,0.00426433,0.0411672,685,1002,-36.5687,-0.646525
-532,22,-36.5726,0.794189,0.00729156,0.00368361,-0.00408581,0.00995392,0.00102125,-0.577507,0.00632308,0.0429743,692,1002,-36.5726,-0.794174
-525,22,0,0,0,0,0,0,0,0,0,-1,699,1002,0,0
-518,22,0,0,0,0,0,0,0,0,0,-1,706,1002,0,0
-511,22,0,0,0,0,0,0,0,0,0,-1,713,1002,0,0
-504,22,0,0,0,0,0,0,0,0,0,-1,720,1002,0,0
-497,22,0,0,0,0,0,0,0,0,0,-1,727,1002,0,0
-490,22,0,0,0,0,0,0,0,0,0,-1,734,1002,0,0
-483,22,0,0,0,0,0,0,0,0,0,-1,741,1002,0,0
-476,22,0,0,0,0,0,0,0,0,0,-1,748,1002,0,0
-469,22,0,0,0,0,0,0,0,0,0,-1,755,1002,0,0
-462,22,0,0,0,0,0,0,0,0,0,-1,762,1002,0,0
-455,22,0,0,0,0,0,0,0,0,0,-1,769,1002,0,0
-448,22,0,0,0,0,0,0,0,0,0,-1,776,1002,0,0
-441,22,0,0,0,0,0,0,0,0,0,-1,783,1002,0,0
-434,22,0,0,0,0,0,0,0,0,0,-1,790,1002,0,0
-427,22,0,0,0,0,0,0,0,0,0,-1,797,1002,0,0
-420,22,0,0,0,0,0,0,0,0,0,-1,804,1002,0,0
-413,22,0,0,0,0,0,0,0,0,0,-1,811,1002,0,0
-406,22,0,0,0,0,0,0,0,0,0,-1,818,1002,0,0
-399,22,0,0,0,0,0,0,0,0,0,-1,825,1002,0,0
-392,22,0,0,0,0,0,0,0,0,0,-1,832,1002,0,0
-385,22,0,0,0,0,0,0,0,0,0,-1,839,1002,0,0
-378,22,0,0,0,0,0,0,0,0,0,-1,846,1002,0,0
-371,22,0,0,0,0,0,0,0,0,0,-1,853,1002,0,0
-364,22,0,0,0,0,0,0,0,0,0,-1,860,1002,0,0
-357,22,0,0,0,0,0,0,0,0,0,-1,867,1002,0,0
-350,22,0,0,0,0,0,0,0,0,0,-1,874,1002,0,0
-343,22,0,0,0,0,0,0,0,0,0,-1,881,1002,0,0
-336,22,0,0,0,0,0,0,0,0,0,-1,888,1002,0,0
-329,22,0,0,0,0,0,0,0,0,0,-1,895,1002,0,0
-322,22,0,0,0,0,0,0,0,0,0,-1,902,1002,0,0
-315,22,0,0,0,0,0,0,0,0,0,-1,909,1002,0,0
-308,22,0,0,0,0,0,0,0,0,0,-1,916,1002,0,0
-301,22,0,0,0,0,0,0,0,0,0,-1,923,1002,0,0
-294,22,0,0,0,0,0,0,0,0,0,-1,930,1002,0,0
-287,22,0,0,0,0,0,0,0,0,0,-1,937,1002,0,0
-280,22,0,0,0,0,0,0,0,0,0,-1,944,1002,0,0
-273,22,0,0,0,0,0,0,0,0,0,-1,951,1002,0,0
-266,22,0,0,0,0,0,0,0,0,0,-1,958,1002,0,0
-259,22,0,0,0,0,0,0,0,0,0,-1,965,1002,0,0
-252,22,0,0,0,0,0,0,0,0,0,-1,972,1002,0,0
-245,22,0,0,0,0,0,0,0,0,0,-1,979,1002,0,0
-238,22,0,0,0,0,0,0,0,0,0,-1,986,1002,0,0
-231,22,0,0,0,0,0,0,0,0,0,-1,993,1002,0,0
-224,22,0,0,0,0,0,0,0,0,0,-1,1000,1002,0,0
-217,22,0,0,0,0,0,0,0,0,0,-1,1007,1002,0,0
-210,22,0,0,0,0,0,0,0,0,0,-1,1014,1002,0,0
-203,22,0,0,0,0,0,0,0,0,0,-1,1021,1002,0,0
-196,22,0,0,0,0,0,0,0,0,0,-1,1028,1002,0,0
-189,22,0,0,0,0,0,0,0,0,0,-1,1035,1002,0,0
-182,22,0,0,0,0,0,0,0,0,0,-1,1042,1002,0,0
-175,22,0,0,0,0,0,0,0,0,0,-1,1049,1002,0,0
-168,22,0,0,0,0,0,0,0,0,0,-1,1056,1002,0,0
-161,22,0,0,0,0,0,0,0,0,0,-1,1063,1002,0,0
-154,22,0,0,0,0,0,0,0,0,0,-1,1070,1002,0,0
-147,22,0,0,0,0,0,0,0,0,0,-1,1077,1002,0,0
-140,22,0,0,0,0,0,0,0,0,0,-1,1084,1002,0,0
-133,22,0,0,0,0,0,0,0,0,0,-1,1091,1002,0,0
-126,22,0,0,0,0,0,0,0,0,0,-1,1098,1002,0,0
-119,22,0,0,0,0,0,0,0,0,0,-1,1105,1002,0,0
-112,22,0,0,0,0,0,0,0,0,0,-1,1112,1002,0,0
-105,22,0,0,0,0,0,0,0,0,0,-1,1119,1002,0,0
-98,22,0,0,0,0,0,0,0,0,0,-1,1126,1002,0,0
-91,22,0,0,0,0,0,0,0,0,0,-1,1133,1002,0,0
-84,22,0,0,0,0,0,0,0,0,0,-1,1140,1002,0,0
-77,22,0,0,0,0,0,0,0,0,0,-1,1147,1002,0,0
-70,22,0,0,0,0,0,0,0,0,0,-1,1154,1002,0,0
-63,22,0,0,0,0,0,0,0,0,0,-1,1161,1002,0,0
-56,22,0,0,0,0,0,0,0,0,0,-1,1168,1002,0,0
-49,22,0,0,0,0,0,0,0,0,0,-1,1175,1002,0,0
-42,22,0,0,0,0,0,0,0,0,0,-1,1182,1002,0,0
-35,22,0,0,0,0,0,0,0,0,0,-1,1189,1002,0,0
-28,22,0,0,0,0,0,0,0,0,0,-1,1196,1002,0,0
-21,22,0,0,0,0,0,0,0,0,0,-1,1203,1002,0,0
-14,22,0,0,0,0,0,0,0,0,0,-1,1210,1002,0,0
-7,22,0,0,0,0,0,0,0,0,0,-1,1217,1002,0,0
0,22,0,0,0,0,0,0,0,0,0,-1,1224,1002,0,0
7,22,0,0,0,0,0,0,0,0,0,-1,1231,1002,0,0
14,22,0,0,0,0,0,0,0,0,0,-1,1238,1002,0,0
21,22,0,0,0,0,0,0,0,0,0,-1,1245,1002,0,0
28,22,0,0,0,0,0,0,0,0,0,-1,1252,1002,0,0
35,22,0,0,0,0,0,0,0,0,0,-1,1259,1002,0,0
42,22,0,0,0,0,0,0,0,0,0,-1,1266,1002,0,0
49,22,0,0,0,0,0,0,0,0,0,-1,1273,1002,0,0
56,22,0,0,0,0,0,0,0,0,0,-1,1280,1002,0,0
63,22,0,0,0,0,0,0,0,0,0,-1,1287,1002,0,0
70,22,0,0,0,0,0,0,0,0,0,-1,1294,1002,0,0
77,22,0,0,0,0,0,0,0,0,0,-1,1301,1002,0,0
84,22,0,0,0,0,0,0,0,0,0,-1,1308,1002,0,0
91,22,0,0,0,0,0,0,0,0,0,-1,1315,1002,0,0
98,22,0,0,0,0,0,0,0,0,0,-1,1322,1002,0,0
105,22,0,0,0,0,0,0,0,0,0,-1,1329,1002,0,0
112,22,0,0,0,0,0,0,0,0,0,-1,1336,1002,0,0
119,22,0,0,0,0,0,0,0,0,0,-1,1343,1002,0,0
126,22,0,0,0,0,0,0,0,0,0,-1,1350,1002,0,0
133,22,0,0,0,0,0,0,0,0,0,-1,1357,1002,0,0
140,22,0,0,0,0,0,0,0,0,0,-1,1364,1002,0,0
147,22,0,0,0,0,0,0,0,0,0,-1,1371,1002,0,0
154,22,0,0,0,0,0,0,0,0,0,-1,1378,1002,0,0
161,22,0,0,0,0,0,0,0,0,0,-1,1385,1002,0,0
168,22,0,0,0,0,0,0,0,0,0,-1,1392,1002,0,0
175,22,0,0,0,0,0,0,0,0,0,-1,1399,1002,0,0
182,22,0,0,0,0,0,0,0,0,0,-1,1406,1002,0,0
189,22,0,0,0,0,0,0,0,0,0,-1,1413,1002,0,0
196,22,0,0,0,0,0,0,0,0,0,-1,1420,1002,0,0
203,22,0,0,0,0,0,0,0,0,0,-1,1427,1002,0,0
210,22,0,0,0,0,0,0,0,0,0,-1,1434,1002,0,0
217,22,0,0,0,0,0,0,0,0,0,-1,1441,1002,0,0
224,22,0,0,0,0,0,0,0,0,0,-1,1448,1002,0,0
231,22,0,0,0,0,0,0,0,0,0,-1,1455,1002,0,0
238,22,0,0,0,0,0,0,0,0,0,-1,1462,1002,0,0
245,22,0,0,0,0,0,0,0,0,0,-1,1469,1002,0,0
252,22,0,0,0,0,0,0,0,0,0,-1,1476,1002,0,0
259,22,0,0,0,0,0,0,0,0,0,-1,1483,1002,0,0
266,22,0,0,0,0,0,0,0,0,0,-1,1490,1002,0,0
273,22,0,0,0,0,0,0,0,0,0,-1,1497,1002,0,0
280,22,0,0,0,0,0,0,0,0,0,-1,1504,1002,0,0
287,22,0,0,0,0,0,0,0,0,0,-1,1511,1002,0,0
294,22,0,0,0,0,0,0,0,0,0,-1,1518,1002,0,0
301,22,0,0,0,0,0,0,0,0,0,-1,1525,1002,0,0
308,22,0,0,0,0,0,0,0,0,0,-1,1532,1002,0,0
315,22,0,0,0,0,0,0,0,0,0,-1,1539,1002,0,0
322,22,0,0,0,0,0,0,0,0,0,-1,1546,1002,0,0
329,22,0,0,0,0,0,0,0,0,0,-1,1553,1002,0,0
336,22,0,0,0,0,0,0,0,0,0,-1,1560,1002,0,0
343,22,0,0,0,0,0,0,0,0,0,-1,1567,1002,0,0
350,22,0,0,0,0,0,0,0,0,0,-1,1574,1002,0,0
357,22,0,0,0,0,0,0,0,0,0,-1,1581,1002,0,0
364,22,0,0,0,0,0,0,0,0,0,-1,1588,1002,0,0
371,22,0,0,0,0,0,0,0,0,0,-1,1595,1002,0,0
378,22,0,0,0,0,0,0,0,0,0,-1,1602,1002,0,0
385,22,0,0,0,0,0,0,0,0,0,-1,1609,1002,0,0
392,22,0,0,0,0,0,0,0,0,0,-1,1616,1002,0,0
399,22,0,0,0,0,0,0,0,0,0,-1,1623,1002,0,0
406,22,0,0,0,0,0,0,0,0,0,-1,1630,1002,0,0
413,22,0,0,0,0,0,0,0,0,0,-1,1637,1002,0,0
420,22,0,0,0,0,0,0,0,0,0,-1,1644,1002,0,0
427,22,0,0,0,0,0,0,0,0,0,-1,1651,1002,0,0
434,22,0,0,0,0,0,0,0,0,0,-1,1658,1002,0,0
441,22,0,0,0,0,0,0,0,0,0,-1,1665,1002,0,0
448,22,0,0,0,0,0,0,0,0,0,-1,1672,1002,0,0
455,22,0,0,0,0,0,0,0,0,0,-1,1679,1002,0,0
462,22,0,0,0,0,0,0,0,0,0,-1,1686,1002,0,0
469,22,0,0,0,0,0,0,0,0,0,-1,1693,1002,0,0
476,22,0,0,0,0,0,0,0,0,0,-1,1700,1002,0,0
483,22,0,0,0,0,0,0,0,0,0,-1,1707,1002,0,0
490,22,0,0,0,0,0,0,0,0,0,-1,1714,1002,0,0
497,22,0,0,0,0,0,0,0,0,0,-1,1721,1002,0,0
504,22,0,0,0,0,0,0,0,0,0,-1,1728,1002,0,0
511,22,0,0,0,0,0,0,0,0,0,-1,1735,1002,0,0
518,22,0,0,0,0,0,0,0,0,0,-1,1742,1002,0,0
525,22,0,0,0,0,0,0,0,0,0,-1,1749,1002,0,0
532,22,0,0,0,0,0,0,0,0,0,-1,1756,1002,0,0
539,22,0,0,0,0,0,0,0,0,0,-1,1763,1002,0,0
546,22,0,0,0,0,0,0,0,0,0,-1,1770,1002,0,0
553,22,0,0,0,0,0,0,0,0,0,-1,1777,1002,0,0
560,22,0,0,0,0,0,0,0,0,0,-1,1784,1002,0,0
567,22,0,0,0,0,0,0,0,0,0,-1,1791,1002,0,0
574,22,0,0,0,0,0,0,0,0,0,-1,1798,1002,0,0
581,22,0,0,0,0,0,0,0,0,0,-1,1805,1002,0,0
588,22,0,0,0,0,0,0,0,0,0,-1,1812,1002,0,0
595,22,0,0,0,0,0,0,0,0,0,-1,1819,1002,0,0
602,22,0,0,0,0,0,0,0,0,0,-1,1826,1002,0,0
609,22,0,0,0,0,0,0,0,0,0,-1,1833,1002,0,0
616,22,0,0,0,0,0,0,0,0,0,-1,1840,1002,0,0
623,22,0,0,0,0,0,0,0,0,0,-1,1847,1002,0,0
630,22,0,0,0,0,0,0,0,0,0,-1,1854,1002,0,0
637,22,0,0,0,0,0,0,0,0,0,-1,1861,1002,0,0
644,22,49.1392,2.66809,0.00218391,0.00320595,0.00359922,0.00633025,-0.00094039,0.855917,0.00456603,0.0377908,1868,1002,49.1391,-2.66809
651,22,49.0889,2.71808,0.00133399,0.00287614,0.00188541,0.00414206,6.80781e-05,0.979505,0.00273896,0.0391746,1875,1002,49.0889,-2.7181
658,22,49.0991,2.73157,0.000691235,0.00249744,0.000966044,0.00291678,0.000271903,1.16127,0.00186052,0.0381072,1882,1002,49.0991,-2.73156
665,22,49.1683,2.67139,0.000110136,0.00228195,0.000730623,0.00250486,-0.000112774,1.27467,0.00170874,0.036472,1889,1002,49.1684,-2.67139
672,22,49.0693,2.53357,-0.000422827,0.00220133,0.000950528,0.00250946,-0.000730951,1.25732,0.00196253,0.036468,1896,1002,49.0693,-2.53354
679,22,48.999,2.48517,-0.00084343,0.0022168,0.00152741,0.00284869,-0.00147531,1.17854,0.00253809,0.0375658,1903,1002,48.999,-2.48519
686,22,49.0077,2.47107,-0.00109207,0.00202435,0.00217177,0.00313908,-0.0022068,1.09658,0.00310205,0.0372559,1910,1002,49.0077,-2.47107
693,22,49.0184,2.64935,-0.00117147,0.00172459,0.00273886,0.00337465,-0.00282153,1.02857,0.00358211,0.035205,1917,1002,49.0185,-2.64935
700,22,49.0225,2.69489,-0.00124994,0.00156667,0.00297131,0.00344653,-0.00312979,1.0067,0.00379831,0.0315333,1924,1002,49.0224,-2.69486
707,22,48.996,2.65436,-0.00161004,0.00166223,0.00301158,0.00345342,-0.00340123,1.03423,0.00395757,0.0269318,1931,1002,48.9959,-2.65433
714,22,48.9762,2.80066,-0.00218501,0.00191493,0.00290482,0.00342029,-0.00369037,1.09267,0.00410633,0.0334237,1938,1002,48.9762,-2.80064
721,22,48.754,4.2027,0,0,0,0,0,0,0,-1,1945,1002,48.7541,-4.20269
728,22,48.6727,5.06665,-0.00383495,0.00355239,0.00256707,0.00435683,-0.0046394,1.26712,0.00519483,0.0428412,1952,1002,48.6727,-5.06666
735,22,48.7351,5.62238,-0.00410413,0.00459357,0.00220624,0.00512119,-0.00463175,1.33606,0.00563323,0.0166399,1959,1002,48.7351,-5.62237
742,22,48.7424,5.71655,-0.00407019,0.00643958,0.00166101,0.00669584,-0.00432646,1.41772,0.00641255,0.0166066,1966,1002,48.7424,-5.71653
749,22,48.6709,5.85205,-0.00458736,0.00937551,0.00128679,0.00949311,-0.00470496,1.47966,0.00835119,0.0132056,1973,1002,48.6709,-5.85204
756,22,48.6465,5.95911,-0.00455329,0.0129504,0.000667606,0.0129758,-0.00457871,1.53273,0.0105145,0.0186803,1980,1002,48.6465,-5.95908
763,22,48.5945,6.08325,-0.00381487,0.0178372,0.000185596,0.0178388,-0.00381646,1.56223,0.0133478,0.0208805,1987,1002,48.5945,-6.08325
770,22,48.4652,6.16479,-0.00234836,0.02444,0.000176337,0.0244412,-0.00234952,1.56421,0.0171311,0.0181871,1994,1002,48.4652,-6.1648
777,22,48.1941,6.21332,0.000363199,0.0329675,0.000797242,0.032987,0.000343714,1.54636,0.0218777,0.0351418,2001,1002,48.1941,-6.21333
784,22,48.1812,6.28033,0,0,0,0,0,0,0,-1,2008,1002,48.1811,-6.28035
791,22,48.1096,6.41565,0.0096515,0.0535063,0.00303691,0.0537156,0.0094422,1.50198,0.0331148,0.0449964,2015,1002,48.1097,-6.41563
798,22,48.0718,6.70221,0.0171117,0.0658202,0.00469853,0.0662693,0.0166626,1.4755,0.0398053,0.0474932,2022,1002,48.0719,-6.7022
805,22,48.0747,6.95825,0,0,0,0,0,0,0,-1,2029,1002,48.0746,-6.95827
812,22,46.6714,4.56311,0,0,0,0,0,0,0,-1,2036,1002,46.6713,-4.56312
-700,15,0,0,0,0,0,0,0,0,0,-1,524,1009,0,0
-693,15,-37.5806,-0.177185,0.00837961,0.0516575,0.0106981,0.0541576,0.00587951,1.34122,0.0343135,0.0461477,531,1009,-37.5806,0.177175
-686,15,-37.468,0.949707,0.00573438,0.0473928,0.00823513,0.0489616,0.00416553,1.38254,0.031345,0.0451678,538,1009,-37.4679,-0.949679
-679,15,-37.2546,1.73462,0.00282978,0.0429766,0.00677603,0.0440894,0.00171695,1.40802,0.0288377,0.0465455,545,1009,-37.2546,-1.7346
-672,15,-37.096,1.90289,0.000447314,0.0385375,0.00570061,0.0393724,-0.000387546,1.42538,0.0263784,0.0433407,552,1009,-37.096,-1.90291
-665,15,-37.0558,2.00824,0,0,0,0,0,0,0,-1,559,1009,-37.0558,-2.00823
-658,15,-36.9236,1.99231,0,0,0,0,0,0,0,-1,566,1009,-36.9236,-1.99232
-651,15,-36.1127,2.05774,0,0,0,0,0,0,0,-1,573,1009,-36.1127,-2.05775
-644,15,-36.9954,3.1142,0,0,0,0,0,0,0,-1,580,1009,-36.9954,-3.11419
-637,15,-36.9997,3.14667,-0.00509193,0.0165376,0.000901759,0.0165751,-0.00512946,1.5292,0.013099,0.0274555,587,1009,-36.9997,-3.14666
-630,15,-37.0374,3.14587,-0.00473325,0.013145,-0.000351249,0.0131519,-0.00474015,-1.55116,0.0107037,0.0151123,594,1009,-37.0374,-3.14585
-623,15,-37.0886,3.12347,-0.00374387,0.0096632,-0.00152296,0.00983402,-0.00391469,-1.4591,0.00817937,0.00978053,601,1009,-37.0885,-3.12346
-616,15,-37.1215,3.08514,-0.00264296,0.00665696,-0.00301199,0.00754724,-0.00353323,-1.2834,0.00653574,0.0152007,608,1009,-37.1215,-3.08512
-609,15,-37.156,3.06226,-0.00111096,0.00410515,-0.00439196,0.00660505,-0.00361086,-1.05333,0.00598201,0.0215848,615,1009,-37.156,-3.06226
-602,15,-37.1925,3.0166,4.00767e-05,0.00226913,-0.00554669,0.00681217,-0.00450295,-0.884546,0.00657798,0.0224523,622,1009,-37.1925,-3.0166
-595,15,-36.9352,2.36218,0.00102829,0.00116256,-0.00631487,0.00741065,-0.0052198,-0.790714,0.00732867,0.0440013,629,1009,-36.9352,-2.36219
-588,15,-36.6038,1.60333,0,0,0,0,0,0,0,-1,636,1009,-36.6038,-1.60334
-581,15,-36.4805,1.62659,0,0,0,0,0,0,0,-1,643,1009,-36.4805,-1.62657
-574,15,-36.5819,0.771973,0.00253197,-0.000578793,-0.00670304,0.00785772,-0.00590454,-0.671395,0.00797227,0.0328476,650,1009,-36.5819,-0.771967
-567,15,-36.6364,0.807434,0.00254246,-0.000436696,-0.00614399,0.00737487,-0.0052691,-0.66647,0.00733367,0.0338633,657,1009,-36.6364,-0.807421
-560,15,-36.7109,1.06714,0.00259475,9.8858e-06,-0.00527731,0.00673558,-0.00413094,-0.66531,0.00633358,0.0377045,664,1009,-36.7109,-1.06712
-553,15,-36.6626,1.06348,0.00274064,0.000661368,-0.00421464,0.00604198,-0.00263996,-0.664476,0.0051392,0.0377866,671,1009,-36.6626,-1.06348
-546,15,-36.5891,0.829956,0.00316952,0.00133446,-0.0031089,0.00549346,-0.000989483,-0.641906,0.0040328,0.0395896,678,1009,-36.5891,-0.82997
-539,15,-36.4919,0.703796,0.00432259,0.00228256,-0.00272566,0.00621285,0.00039231,-0.606352,0.00401752,0.0416803,685,1009,-36.492,-0.703771
-532,15,-36.6096,0.854492,0.00647439,0.00373861,-0.00423255,0.0095546,0.000658396,-0.629105,0.00616201,0.0425113,692,1009,-36.6096,-0.854486
-525,15,0,0,0,0,0,0,0,0,0,-1,699,1009,0,0
-518,15,0,0,0,0,0,0,0,0,0,-1,706,1009,0,0
-511,15,0,0,0,0,0,0,0,0,0,-1,713,1009,0,0
-504,15,0,0,0,0,0,0,0,0,0,-1,720,1009,0,0
-497,15,0,0,0,0,0,0,0,0,0,-1,727,1009,0,0
-490,15,0,0,0,0,0,0,0,0,0,-1,734,1009,0,0
-483,15,0,0,0,0,0,0,0,0,0,-1,741,1009,0,0
-476,15,0,0,0,0,0,0,0,0,0,-1,748,1009,0,0
-469,15,0,0,0,0,0,0,0,0,0,-1,755,1009,0,0
-462,15,0,0,0,0,0,0,0,0,0,-1,762,1009,0,0
-455,15,0,0,0,0,0,0,0,0,0,-1,769,1009,0,0
-448,15,0,0,0,0,0,0,0,0,0,-1,776,1009,0,0
-441,15,0,0,0,0,0,0,0,0,0,-1,783,1009,0,0
-434,15,0,0,0,0,0,0,0,0,0,-1,790,1009,0,0
-427,15,0,0,0,0,0,0,0,0,0,-1,797,1009,0,0
-420,15,0,0,0,0,0,0,0,0,0,-1,804,1009,0,0
-413,15,0,0,0,0,0,0,0,0,0,-1,811,1009,0,0
-406,15,0,0,0,0,0,0,0,0,0,-1,818,1009,0,0
-399,15,0,0,0,0,0,0,0,0,0,-1,825,1009,0,0
-392,15,0,0,0,0,0,0,0,0,0,-1,832,1009,0,0
-385,15,0,0,0,0,0,0,0,0,0,-1,839,1009,0,0
-378,15,0,0,0,0,0,0,0,0,0,-1,846,1009,0,0
-371,15,0,0,0,0,0,0,0,0,0,-1,853,1009,0,0
-364,15,0,0,0,0,0,0,0,0,0,-1,860,1009,0,0
-357,15,0,0,0,0,0,0,0,0,0,-1,867,1009,0,0
-350,15,0,0,0,0,0,0,0,0,0,-1,874,1009,0,0
-343,15,0,0,0,0,0,0,0,0,0,-1,881,1009,0,0
-336,15,0,0,0,0,0,0,0,0,0,-1,888,1009,0,0
-329,15,0,0,0,0,0,0,0,0,0,-1,895,1009,0,0
-322,15,0,0,0,0,0,0,0,0,0,-1,902,1009,0,0
-315,15,0,0,0,0,0,0,0,0,0,-1,909,1009,0,0
-308,15,0,0,0,0,0,0,0,0,0,-1,916,1009,0,0
-301,15,0,0,0,0,0,0,0,0,0,-1,923,1009,0,0
-294,15,0,0,0,0,0,0,0,0,0,-1,930,1009,0,0
-287,15,0,0,0,0,0,0,0,0,0,-1,937,1009,0,0
-280,15,0,0,0,0,0,0,0,0,0,-1,944,1009,0,0
-273,15,0,0,0,0,0,0,0,0,0,-1,951,1009,0,0
-266,15,0,0,0,0,0,0,0,0,0,-1,958,1009,0,0
-259,15,0,0,0,0,0,0,0,0,0,-1,965,1009,0,0
-252,15,0,0,0,0,0,0,0,0,0,-1,972,1009,0,0
-245,15,0,0,0,0,0,0,0,0,0,-1,979,1009,0,0
-238,15,0,0,0,0,0,0,0,0,0,-1,986,1009,0,0
-231,15,0,0,0,0,0,0,0,0,0,-1,993,1009,0,0
-224,15,0,0,0,0,0,0,0,0,0,-1,1000,1009,0,0
-217,15,0,0,0,0,0,0,0,0,0,-1,1007,1009,0,0
-210,15,0,0,0,0,0,0,0,0,0,-1,1014,1009,0,0
-203,15,0,0,0,0,0,0,0,0,0,-1,1021,1009,0,0
-196,15,0,0,0,0,0,0,0,0,0,-1,1028,1009,0,0
-189,15,0,0,0,0,0,0,0,0,0,-1,1035,1009,0,0
-182,15,0,0,0,0,0,0,0,0,0,-1,1042,1009,0,0
-175,15,0,0,0,0,0,0,0,0,0,-1,1049,1009,0,0
-168,15,0,0,0,0,0,0,0,0,0,-1,1056,1009,0,0
-161,15,0,0,0,0,0,0,0,0,0,-1,1063,1009,0,0
-154,15,0,0,0,0,0,0,0,0,0,-1,1070,1009,0,0
-147,15,0,0,0,0,0,0,0,0,0,-1,1077,1009,0,0
-140,15,0,0,0,0,0,0,0,0,0,-1,1084,1009,0,0
-133,15,0,0,0,0,0,0,0,0,0,-1,1091,1009,0,0
-126,15,0,0,0,0,0,0,0,0,0,-1,1098,1009,0,0
-119,15,0,0,0,0,0,0,0,0,0,-1,1105,1009,0,0
-112,15,0,0,0,0,0,0,0,0,0,-1,1112,1009,0,0
-105,15,0,0,0,0,0,0,0,0,0,-1,1119,1009,0,0
-98,15,0,0,0,0,0,0,0,0,0,-1,1126,1009,0,0
-91,15,0,0,0,0,0,0,0,0,0,-1,1133,1009,0,0
-84,15,0,0,0,0,0,0,0,0,0,-1,1140,1009,0,0
-77,15,0,0,0,0,0,0,0,0,0,-1,1147,1009,0,0
-70,15,0,0,0,0,0,0,0,0,0,-1,1154,1009,0,0
-63,15,0,0,0,0,0,0,0,0,0,-1,1161,1009,0,0
-56,15,0,0,0,0,0,0,0,0,0,-1,1168,1009,0,0
-49,15,0,0,0,0,0,0,0,0,0,-1,1175,1009,0,0
-42,15,0,0,0,0,0,0,0,0,0,-1,1182,1009,0,0
-35,15,0,0,0,0,0,0,0,0,0,-1,1189,1009,0,0
-28,15,0,0,0,0,0,0,0,0,0,-1,1196,1009,0,0
-21,15,0,0,0,0,0,0,0,0,0,-1,1203,1009,0,0
-14,15,0,0,0,0,0,0,0,0,0,-1,1210,1009,0,0
-7,15,0,0,0,0,0,0,0,0,0,-1,1217,1009,0,0
0,15,0,0,0,0,0,0,0,0,0,-1,1224,1009,0,0
7,15,0,0,0,0,0,0,0,0,0,-1,1231,1009,0,0
14,15,0,0,0,0,0,0,0,0,0,-1,1238,1009,0,0
21,15,0,0,0,0,0,0,0,0,0,-1,1245,1009,0,0
28,15,0,0,0,0,0,0,0,0,0,-1,1252,1009,0,0
35,15,0,0,0,0,0,0,0,0,0,-1,1259,1009,0,0
42,15,0,0,0,0,0,0,0,0,0,-1,1266,1009,0,0
49,15,0,0,0,0,0,0,0,0,0,-1,1273,1009,0,0
56,15,0,0,0,0,0,0,0,0,0,-1,1280,1009,0,0
63,15,0,0,0,0,0,0,0,0,0,-1,1287,1009,0,0
70,15,0,0,0,0,0,0,0,0,0,-1,1294,1009,0,0
77,15,0,0,0,0,0,0,0,0,0,-1,1301,1009,0,0
84,15,0,0,0,0,0,0,0,0,0,-1,1308,1009,0,0
91,15,0,0,0,0,0,0,0,0,0,-1,1315,1009,0,0
98,15,0,0,0,0,0,0,0,0,0,-1,1322,1009,0,0
105,15,0,0,0,0,0,0,0,0,0,-1,1329,1009,0,0
112,15,0,0,0,0,0,0,0,0,0,-1,1336,1009,0,0
119,15,0,0,0,0,0,0,0,0,0,-1,1343,1009,0,0
126,15,0,0,0,0,0,0,0,0,0,-1,1350,1009,0,0
133,15,0,0,0,0,0,0,0,0,0,-1,1357,1009,0,0
140,15,0,0,0,0,0,0,0,0,0,-1,1364,1009,0,0
147,15,0,0,0,0,0,0,0,0,0,-1,1371,1009,0,0
154,15,0,0,0,0,0,0,0,0,0,-1,1378,1009,0,0
161,15,0,0,0,0,0,0,0,0,0,-1,1385,1009,0,0
168,15,0,0,0,0,0,0,0,0,0,-1,1392,1009,0,0
175,15,0,0,0,0,0,0,0,0,0,-1,1399,1009,0,0
182,15,0,0,0,0,0,0,0,0,0,-1,1406,1009,0,0
189,15,0,0,0,0,0,0,0,0,0,-1,1413,1009,0,0
196,15,0,0,0,0,0,0,0,0,0,-1,1420,1009,0,0
203,15,0,0,0,0,0,0,0,0,0,-1,1427,1009,0,0
210,15,0,0,0,0,0,0,0,0,0,-1,1434,1009,0,0
217,15,0,0,0,0,0,0,0,0,0,-1,1441,1009,0,0
224,15,0,0,0,0,0,0,0,0,0,-1,1448,1009,0,0
231,15,0,0,0,0,0,0,0,0,0,-1,1455,1009,0,0
238,15,0,0,0,0,0,0,0,0,0,-1,1462,1009,0,0
245,15,0,0,0,0,0,0,0,0,0,-1,1469,1009,0,0
252,15,0,0,0,0,0,0,0,0,0,-1,1476,1009,0,0
259,15,0,0,0,0,0,0,0,0,0,-1,1483,1009,0,0
266,15,0,0,0,0,0,0,0,0,0,-1,1490,1009,0,0
273,15,0,0,0,0,0,0,0,0,0,-1,1497,1009,0,0
280,15,0,0,0,0,0,0,0,0,0,-1,1504,1009,0,0
287,15,0,0,0,0,0,0,0,0,0,-1,1511,1009,0,0
294,15,0,0,0,0,0,0,0,0,0,-1,1518,1009,0,0
301,15,0,0,0,0,0,0,0,0,0,-1,1525,1009,0,0
308,15,0,0,0,0,0,0,0,0,0,-1,1532,1009,0,0
315,15,0,0,0,0,0,0,0,0,0,-1,1539,1009,0,0
322,15,0,0,0,0,0,0,0,0,0,-1,1546,1009,0,0
329,15,0,0,0,0,0,0,0,0,0,-1,1553,1009,0,0
336,15,0,0,0,0,0,0,0,0,0,-1,1560,1009,0,0
343,15,0,0,0,0,0,0,0,0,0,-1,1567,1009,0,0
350,15,0,0,0,0,0,0,0,0,0,-1,1574,1009,0,0
357,15,0,0,0,0,0,0,0,0,0,-1,1581,1009,0,0
364,15,0,0,0,0,0,0,0,0,0,-1,1588,1009,0,0
371,15,0,0,0,0,0,0,0,0,0,-1,1595,1009,0,0
378,15,0,0,0,0,0,0,0,0,0,-1,1602,1009,0,0
385,15,0,0,0,0,0,0,0,0,0,-1,1609,1009,0,0
392,15,0,0,0,0,0,0,0,0,0,-1,1616,1009,0,0
399,15,0,0,0,0,0,0,0,0,0,-1,1623,1009,0,0
406,15,0,0,0,0,0,0,0,0,0,-1,1630,1009,0,0
413,15,0,0,0,0,0,0,0,0,0,-1,1637,1009,0,0
420,15,0,0,0,0,0,0,0,0,0,-1,1644,1009,0,0
427,15,0,0,0,0,0,0,0,0,0,-1,1651,1009,0,0
434,15,0,0,0,0,0,0,0,0,0,-1,1658,1009,0,0
441,15,0,0,0,0,0,0,0,0,0,-1,1665,1009,0,0
448,15,0,0,0,0,0,0,0,0,0,-1,1672,1009,0,0
455,15,0,0,0,0,0,0,0,0,0,-1,1679,1009,0,0
462,15,0,0,0,0,0,0,0,0,0,-1,1686,1009,0,0
469,15,0,0,0,0,0,0,0,0,0,-1,1693,1009,0,0
476,15,0,0,0,0,0,0,0,0,0,-1,1700,1009,0,0
483,15,0,0,0,0,0,0,0,0,0,-1,1707,1009,0,0
490,15,0,0,0,0,0,0,0,0,0,-1,1714,1009,0,0
497,15,0,0,0,0,0,0,0,0,0,-1,1721,1009,0,0
504,15,0,0,0,0,0,0,0,0,0,-1,1728,1009,0,0
511,15,0,0,0,0,0,0,0,0,0,-1,1735,1009,0,0
518,15,0,0,0,0,0,0,0,0,0,-1,1742,1009,0,0
525,15,0,0,0,0,0,0,0,0,0,-1,1749,1009,0,0
532,15,0,0,0,0,0,0,0,0,0,-1,1756,1009,0,0
539,15,0,0,0,0,0,0,0,0,0,-1,1763,1009,0,0
546,15,0,0,0,0,0,0,0,0,0,-1,1770,1009,0,0
553,15,0,0,0,0,0,0,0,0,0,-1,1777,1009,0,0
560,15,0,0,0,0,0,0,0,0,0,-1,1784,1009,0,0
567,15,0,0,0,0,0,0,0,0,0,-1,1791,1009,0,0
574,15,0,0,0,0,0,0,0,0,0,-1,1798,1009,0,0
581,15,0,0,0,0,0,0,0,0,0,-1,1805,1009,0,0
588,15,0,0,0,0,0,0,0,0,0,-1,1812,1009,0,0
595,15,0,0,0,0,0,0,0,0,0,-1,1819,1009,0,0
602,15,0,0,0,0,0,0,0,0,0,-1,1826,1009,0,0
609,15,0,0,0,0,0,0,0,0,0,-1,1833,1009,0,0
616,15,0,0,0,0,0,0,0,0,0,-1,1840,1009,0,0
623,15,0,0,0,0,0,0,0,0,0,-1,1847,1009,0,0
630,15,0,0,0,0,0,0,0,0,0,-1,1854,1009,0,0
637,15,0,0,0,0,0,0,0,0,0,-1,1861,1009,0,0
644,15,48.8522,2.38696,0.00464588,0.00332503,0.00303502,0.0070915,0.000879411,0.678268,0.0044635,0.0379273,1868,1009,48.8522,-2.38695
651,15,48.9279,2.40552,0.00294065,0.00301101,0.00140444,0.00438071,0.00157095,0.79792,0.00256269,0.0375736,1875,1009,48.9279,-2.40549
658,15,49.0347,2.36682,0.00171741,0.00264038,0.000563457,0.00290722,0.00145057,1.12852,0.00167848,0.0373384,1882,1009,49.0347,-2.36683
665,15,49.0331,2.45605,0.000752751,0.00239061,0.00037665,0.00247307,0.000670287,1.35526,0.00147689,0.0355797,1889,1009,49.033,-2.45608
672,15,49.0159,2.50519,-2.4729e-05,0.00227537,0.000642222,0.00244254,-0.000191898,1.31615,0.00169595,0.0344127,1896,1009,49.0159,-2.50519
679,15,49.0034,2.49823,-0.000591988,0.00225376,0.00124988,0.00272477,-0.00106299,1.21042,0.00225592,0.0358927,1903,1009,49.0034,-2.49821
686,15,49.0432,2.46356,-0.000935853,0.00202155,0.00193095,0.00297495,-0.00188926,1.11216,0.00283157,0.0424039,1910,1009,49.0432,-2.46358
693,15,49.0085,2.39832,-0.00105758,0.00166852,0.00255561,0.00320186,-0.00259092,1.03039,0.00335065,0.0397876,1917,1009,49.0085,-2.39834
700,15,48.9951,2.57281,-0.00114598,0.00146452,0.0028501,0.00329403,-0.00297549,1.00013,0.00362127,0.0306817,1924,1009,48.9951,-2.57279
707,15,48.9958,2.65491,-0.00152664,0.00153882,0.00292757,0.00331062,-0.00329844,1.02655,0.00381575,0.0249156,1931,1009,48.9959,-2.65492
714,15,49.0031,2.69672,-0.00210676,0.00179705,0.00285009,0.00329955,-0.00360927,1.08564,0.00399014,0.0224626,1938,1009,49.003,-2.69674
721,15,48.9996,2.68958,0,0,0,0,0,0,0,-1,1945,1009,48.9996,-2.68956
728,15,48.8932,5.54419,0,0,0,0,0,0,0,-1,1952,1009,48.8932,-5.54418
735,15,48.8187,5.66827,-0.00396797,0.00442735,0.00223011,0.00498298,-0.0045236,1.32662,0.00549076,0.0184867,1959,1009,48.8188,-5.66827
742,15,48.7952,5.8197,-0.00381046,0.00624531,0.0016564,0.00651113,-0.00407628,1.41167,0.00616629,0.03206,1966,1009,48.7951,-5.81972
749,15,48.7966,5.89288,-0.00430422,0.00933553,0.00112618,0.00942789,-0.00439658,1.48897,0.00815585,0.0202583,1973,1009,48.7966,-5.89286
756,15,48.7875,5.86591,-0.00419133,0.0130656,0.000135299,0.0130666,-0.00419239,1.56296,0.0103943,0.0161442,1980,1009,48.7874,-5.8659
763,15,48.7336,5.96704,-0.0033223,0.0180735,-0.000721118,0.0180978,-0.00334658,-1.53714,0.0133216,0.0142891,1987,1009,48.7336,-5.96706
770,15,48.6055,6.01025,-0.00166708,0.0249101,-0.0014131,0.0249851,-0.00174201,-1.51783,0.0172667,0.0174101,1994,1009,48.6055,-6.01028
777,15,48.2715,6.08307,0.00137564,0.0340303,-0.00172841,0.0341215,0.00128441,-1.51806,0.0223319,0.0372677,2001,1009,48.2715,-6.08308
784,15,47.9814,6.16284,0,0,0,0,0,0,0,-1,2008,1009,47.9815,-6.16284
791,15,47.7546,5.81818,0.0110737,0.0559266,-0.0020074,0.0560162,0.010984,-1.52616,0.0342746,0.0464367,2015,1009,47.7547,-5.81817
798,15,47.7498,6.1192,0.0185185,0.0691218,-0.00196288,0.0691978,0.0184425,-1.53208,0.0413778,0.0479346,2022,1009,47.7496,-6.1192
805,15,47.6919,6.42041,0,0,0,0,0,0,0,-1,2029,1009,47.6918,-6.42044
812,15,47.5364,5.93921,0,0,0,0,0,0,0,-1,2036,1009,47.5364,-5.93921
-700,8,0,0,0,0,0,0,0,0,0,-1,524,1016,0,0
-693,8,-37.486,-0.989807,0,0,0,0,0,0,0,-1,531,1016,-37.486,0.989816
-686,8,-38.606,-0.745544,0,0,0,0,0,0,0,-1,538,1016,-38.606,0.745539
-679,8,-37.3692,1.28387,0.0019863,0.0382057,0.00419315,0.0386848,0.0015072,1.45703,0.0253025,0.0452176,545,1016,-37.3692,-1.28389
-672,8,-37.2557,1.79248,-0.000271073,0.0352482,0.00350565,0.0355909,-0.000613764,1.47335,0.0239345,0.0436753,552,1016,-37.2558,-1.79248
-665,8,-37.0924,2.17242,0,0,0,0,0,0,0,-1,559,1016,-37.0924,-2.17242
-658,8,-36.9418,2.3952,0,0,0,0,0,0,0,-1,566,1016,-36.9418,-2.39522
-651,8,-36.5532,2.72748,0,0,0,0,0,0,0,-1,573,1016,-36.5531,-2.7275
-644,8,-36.8015,2.79919,0,0,0,0,0,0,0,-1,580,1016,-36.8015,-2.79918
-637,8,-36.8681,2.96234,-0.00511203,0.0165088,-0.0001496,0.0165098,-0.00511306,-1.56388,0.0130492,0.0394055,587,1016,-36.8681,-2.96232
-630,8,-37.0538,3.09552,-0.00455554,0.0134169,-0.00116343,0.0134919,-0.00463054,-1.50642,0.010872,0.0229543,594,1016,-37.0538,-3.09549
-623,8,-37.0463,3.12903,-0.00332947,0.0099018,-0.00205738,0.0102143,-0.003642,-1.42004,0.0082945,0.0150602,601,1016,-37.0463,-3.12904
-616,8,-37.0892,3.08313,-0.00212911,0.0066218,-0.00323548,0.00768812,-0.00319543,-1.25244,0.00645961,0.0156137,608,1016,-37.0893,-3.08313
-609,8,-37.1664,3.03436,-0.000693783,0.0039602,-0.00438969,0.00660154,-0.00333512,-1.02912,0.00583934,0.0192372,615,1016,-37.1665,-3.03434
-602,8,-37.1332,3.08185,0.000381853,0.00202392,-0.00537497,0.0066402,-0.00423442,-0.861188,0.00632947,0.0242511,622,1016,-37.1332,-3.08183
-595,8,-37.1468,3.04333,0,0,0,0,0,0,0,-1,629,1016,-37.1468,-3.04335
-588,8,-36.5263,0.681396,0,0,0,0,0,0,0,-1,636,1016,-36.5263,-0.681411
-581,8,-36.5268,0.772644,0.0026619,-0.000577191,-0.00635538,0.00760085,-0.00551614,-0.660638,0.00760491,0.0322055,643,1016,-36.5268,-0.772644
-574,8,-36.5419,0.826172,0.00285272,-0.000752223,-0.00616971,0.00747787,-0.00537737,-0.643279,0.00745493,0.0372854,650,1016,-36.5418,-0.826165
-567,8,-36.5939,0.895508,0.0028456,-0.000591769,-0.00562298,0.00700669,-0.00475286,-0.63708,0.00683082,0.0413651,657,1016,-36.5939,-0.89551
-560,8,-36.6868,1.03644,0.00284509,-0.000129626,-0.00481672,0.00639887,-0.0036834,-0.635647,0.00589095,0.0398336,664,1016,-36.6868,-1.03646
-553,8,-36.6321,1.09351,0.00288692,0.000512546,-0.00386515,0.00574309,-0.00234363,-0.636396,0.00480442,0.0382031,671,1016,-36.6321,-1.09348
-546,8,-36.6948,0.922607,0.00316695,0.00111392,-0.00293658,0.00525125,-0.000970388,-0.617256,0.00386512,0.0404573,678,1016,-36.6948,-0.922586
-539,8,-36.5359,0.862671,0.00410814,0.00189711,-0.0027868,0.00600069,4.55487e-06,-0.596571,0.00399895,0.0419818,685,1016,-36.5359,-0.862675
-532,8,-36.5513,0.851868,0.00604631,0.00310459,-0.00446088,0.00927256,-0.000121661,-0.626149,0.00622266,0.0436822,692,1016,-36.5513,-0.851876
-525,8,0,0,0,0,0,0,0,0,0,-1,699,1016,0,0
-518,8,0,0,0,0,0,0,0,0,0,-1,706,1016,0,0
-511,8,0,0,0,0,0,0,0,0,0,-1,713,1016,0,0
-504,8,0,0,0,0,0,0,0,0,0,-1,720,1016,0,0
-497,8,0,0,0,0,0,0,0,0,0,-1,727,1016,0,0
-490,8,0,0,0,0,0,0,0,0,0,-1,734,1016,0,0
-483,8,0,0,0,0,0,0,0,0,0,-1,741,1016,0,0
-476,8,0,0,0,0,0,0,0,0,0,-1,748,1016,0,0
-469,8,0,0,0,0,0,0,0,0,0,-1,755,1016,0,0
-462,8,0,0,0,0,0,0,0,0,0,-1,762,1016,0,0
-455,8,0,0,0,0,0,0,0,0,0,-1,769,1016,0,0
-448,8,0,0,0,0,0,0,0,0,0,-1,776,1016,0,0
-441,8,0,0,0,0,0,0,0,0,0,-1,783,1016,0,0
-434,8,0,0,0,0,0,0,0,0,0,-1,790,1016,0,0
-427,8,0,0,0,0,0,0,0,0,0,-1,797,1016,0,0
-420,8,0,0,0,0,0,0,0,0,0,-1,804,1016,0,0
-413,8,0,0,0,0,0,0,0,0,0,-1,811,1016,0,0
-406,8,0,0,0,0,0,0,0,0,0,-1,818,1016,0,0
-399,8,0,0,0,0,0,0,0,0,0,-1,825,1016,0,0
-392,8,0,0,0,0,0,0,0,0,0,-1,832,1016,0,0
-385,8,0,0,0,0,0,0,0,0,0,-1,839,1016,0,0
-378,8,0,0,0,0,0,0,0,0,0,-1,846,1016,0,0
-371,8,0,0,0,0,0,0,0,0,0,-1,853,1016,0,0
-364,8,0,0,0,0,0,0,0,0,0,-1,860,1016,0,0
-357,8,0,0,0,0,0,0,0,0,0,-1,867,1016,0,0
-350,8,0,0,0,0,0,0,0,0,0,-1,874,1016,0,0
-343,8,0,0,0,0,0,0,0,0,0,-1,881,1016,0,0
-336,8,0,0,0,0,0,0,0,0,0,-1,888,1016,0,0
-329,8,0,0,0,0,0,0,0,0,0,-1,895,1016,0,0
-322,8,0,0,0,0,0,0,0,0,0,-1,902,1016,0,0
-315,8,0,0,0,0,0,0,0,0,0,-1,909,1016,0,0
-308,8,0,0,0,0,0,0,0,0,0,-1,916,1016,0,0
-301,8,0,0,0,0,0,0,0,0,0,-1,923,1016,0,0
-294,8,0,0,0,0,0,0,0,0,0,-1,930,1016,0,0
-287,8,0,0,0,0,0,0,0,0,0,-1,937,1016,0,0
-280,8,0,0,0,0,0,0,0,0,0,-1,944,1016,0,0
-273,8,0,0,0,0,0,0,0,0,0,-1,951,1016,0,0
-266,8,0,0,0,0,0,0,0,0,0,-1,958,1016,0,0
-259,8,0,0,0,0,0,0,0,0,0,-1,965,1016,0,0
-252,8,0,0,0,0,0,0,0,0,0,-1,972,1016,0,0
-245,8,0,0,0,0,0,0,0,0,0,-1,979,1016,0,0
-238,8,0,0,0,0,0,0,0,0,0,-1,986,1016,0,0
-231,8,0,0,0,0,0,0,0,0,0,-1,993,1016,0,0
-224,8,0,0,0,0,0,0,0,0,0,-1,1000,1016,0,0
-217,8,0,0,0,0,0,0,0,0,0,-1,1007,1016,0,0
-210,8,0,0,0,0,0,0,0,0,0,-1,1014,1016,0,0
-203,8,0,0,0,0,0,0,0,0,0,-1,1021,1016,0,0
-196,8,0,0,0,0,0,0,0,0,0,-1,1028,1016,0,0
-189,8,0,0,0,0,0,0,0,0,0,-1,1035,1016,0,0
-182,8,0,0,0,0,0,0,0,0,0,-1,1042,1016,0,0
-175,8,0,0,0,0,0,0,0,0,0,-1,1049,1016,0,0
-168,8,0,0,0,0,0,0,0,0,0,-1,1056,1016,0,0
-161,8,0,0,0,0,0,0,0,0,0,-1,1063,1016,0,0
-154,8,0,0,0,0,0,0,0,0,0,-1,1070,1016,0,0
-147,8,0,0,0,0,0,0,0,0,0,-1,1077,1016,0,0
-140,8,0,0,0,0,0,0,0,0,0,-1,1084,1016,0,0
-133,8,0,0,0,0,0,0,0,0,0,-1,1091,1016,0,0
-126,8,0,0,0,0,0,0,0,0,0,-1,1098,1016,0,0
-119,8,0,0,0,0,0,0,0,0,0,-1,1105,1016,0,0
-112,8,0,0,0,0,0,0,0,0,0,-1,1112,1016,0,0
-105,8,0,0,0,0,0,0,0,0,0,-1,1119,1016,0,0
-98,8,0,0,0,0,0,0,0,0,0,-1,1126,1016,0,0
-91,8,0,0,0,0,0,0,0,0,0,-1,1133,1016,0,0
-84,8,0,0,0,0,0,0,0,0,0,-1,1140,1016,0,0
-77,8,0,0,0,0,0,0,0,0,0,-1,1147,1016,0,0
-70,8,0,0,0,0,0,0,0,0,0,-1,1154,1016,0,0
-63,8,0,0,0,0,0,0,0,0,0,-1,1161,1016,0,0
-56,8,0,0,0,0,0,0,0,0,0,-1,1168,1016,0,0
-49,8,0,0,0,0,0,0,0,0,0,-1,1175,1016,0,0
-42,8,0,0,0,0,0,0,0,0,0,-1,1182,1016,0,0
-35,8,0,0,0,0,0,0,0,0,0,-1,1189,1016,0,0
-28,8,0,0,0,0,0,0,0,0,0,-1,1196,1016,0,0
-21,8,0,0,0,0,0,0,0,0,0,-1,1203,1016,0,0
-14,8,0,0,0,0,0,0,0,0,0,-1,1210,1016,0,0
-7,8,0,0,0,0,0,0,0,0,0,-1,1217,1016,0,0
0,8,0,0,0,0,0,0,0,0,0,-1,1224,1016,0,0
7,8,0,0,0,0,0,0,0,0,0,-1,1231,1016,0,0
14,8,0,0,0,0,0,0,0,0,0,-1,1238,1016,0,0
21,8,0,0,0,0,0,0,0,0,0,-1,1245,1016,0,0
28,8,0,0,0,0,0,0,0,0,0,-1,1252,1016,0,0
35,8,0,0,0,0,0,0,0,0,0,-1,1259,1016,0,0
42,8,0,0,0,0,0,0,0,0,0,-1,1266,1016,0,0
49,8,0,0,0,0,0,0,0,0,0,-1,1273,1016,0,0
56,8,0,0,0,0,0,0,0,0,0,-1,1280,1016,0,0
63,8,0,0,0,0,0,0,0,0,0,-1,1287,1016,0,0
70,8,0,0,0,0,0,0,0,0,0,-1,1294,1016,0,0
77,8,0,0,0,0,0,0,0,0,0,-1,1301,1016,0,0
84,8,0,0,0,0,0,0,0,0,0,-1,1308,1016,0,0
91,8,0,0,0,0,0,0,0,0,0,-1,1315,1016,0,0
98,8,0,0,0,0,0,0,0,0,0,-1,1322,1016,0,0
105,8,0,0,0,0,0,0,0,0,0,-1,1329,1016,0,0
112,8,0,0,0,0,0,0,0,0,0,-1,1336,1016,0,0
119,8,0,0,0,0,0,0,0,0,0,-1,1343,1016,0,0
126,8,0,0,0,0,0,0,0,0,0,-1,1350,1016,0,0
133,8,0,0,0,0,0,0,0,0,0,-1,1357,1016,0,0
140,8,0,0,0,0,0,0,0,0,0,-1,1364,1016,0,0
147,8,0,0,0,0,0,0,0,0,0,-1,1371,1016,0,0
154,8,0,0,0,0,0,0,0,0,0,-1,1378,1016,0,0
161,8,0,0,0,0,0,0,0,0,0,-1,1385,1016,0,0
168,8,0,0,0,0,0,0,0,0,0,-1,1392,1016,0,0
175,8,0,0,0,0,0,0,0,0,0,-1,1399,1016,0,0
182,8,0,0,0,0,0,0,0,0,0,-1,1406,1016,0,0
189,8,0,0,0,0,0,0,0,0,0,-1,1413,1016,0,0
196,8,0,0,0,0,0,0,0,0,0,-1,1420,1016,0,0
203,8,0,0,0,0,0,0,0,0,0,-1,1427,1016,0,0
210,8,0,0,0,0,0,0,0,0,0,-1,1434,1016,0,0
217,8,0,0,0,0,0,0,0,0,0,-1,1441,1016,0,0
224,8,0,0,0,0,0,0,0,0,0,-1,1448,1016,0,0
231,8,0,0,0,0,0,0,0,0,0,-1,1455,1016,0,0
238,8,0,0,0,0,0,0,0,0,0,-1,1462,1016,0,0
245,8,0,0,0,0,0,0,0,0,0,-1,1469,1016,0,0
252,8,0,0,0,0,0,0,0,0,0,-1,1476,1016,0,0
259,8,0,0,0,0,0,0,0,0,0,-1,1483,1016,0,0
266,8,0,0,0,0,0,0,0,0,0,-1,1490,1016,0,0
273,8,0,0,0,0,0,0,0,0,0,-1,1497,1016,0,0
280,8,0,0,0,0,0,0,0,0,0,-1,1504,1016,0,0
287,8,0,0,0,0,0,0,0,0,0,-1,1511,1016,0,0
294,8,0,0,0,0,0,0,0,0,0,-1,1518,1016,0,0
301,8,0,0,0,0,0,0,0,0,0,-1,1525,1016,0,0
308,8,0,0,0,0,0,0,0,0,0,-1,1532,1016,0,0
315,8,0,0,0,0,0,0,0,0,0,-1,1539,1016,0,0
322,8,0,0,0,0,0,0,0,0,0,-1,1546,1016,0,0
329,8,0,0,0,0,0,0,0,0,0,-1,1553,1016,0,0
336,8,0,0,0,0,0,0,0,0,0,-1,1560,1016,0,0
343,8,0,0,0,0,0,0,0,0,0,-1,1567,1016,0,0
350,8,0,0,0,0,0,0,0,0,0,-1,1574,1016,0,0
357,8,0,0,0,0,0,0,0,0,0,-1,1581,1016,0,0
364,8,0,0,0,0,0,0,0,0,0,-1,1588,1016,0,0
371,8,0,0,0,0,0,0,0,0,0,-1,1595,1016,0,0
378,8,0,0,0,0,0,0,0,0,0,-1,1602,1016,0,0
385,8,0,0,0,0,0,0,0,0,0,-1,1609,1016,0,0
392,8,0,0,0,0,0,0,0,0,0,-1,1616,1016,0,0
399,8,0,0,0,0,0,0,0,0,0,-1,1623,1016,0,0
406,8,0,0,0,0,0,0,0,0,0,-1,1630,1016,0,0
413,8,0,0,0,0,0,0,0,0,0,-1,1637,1016,0,0
420,8,0,0,0,0,0,0,0,0,0,-1,1644,1016,0,0
427,8,0,0,0,0,0,0,0,0,0,-1,1651,1016,0,0
434,8,0,0,0,0,0,0,0,0,0,-1,1658,1016,0,0
441,8,0,0,0,0,0,0,0,0,0,-1,1665,1016,0,0
448,8,0,0,0,0,0,0,0,0,0,-1,1672,1016,0,0
455,8,0,0,0,0,0,0,0,0,0,-1,1679,1016,0,0
462,8,0,0,0,0,0,0,0,0,0,-1,1686,1016,0,0
469,8,0,0,0,0,0,0,0,0,0,-1,1693,1016,0,0
476,8,0,0,0,0,0,0,0,0,0,-1,1700,1016,0,0
483,8,0,0,0,0,0,0,0,0,0,-1,1707,1016,0,0
490,8,0,0,0,0,0,0,0,0,0,-1,1714,1016,0,0
497,8,0,0,0,0,0,0,0,0,0,-1,1721,1016,0,0
504,8,0,0,0,0,0,0,0,0,0,-1,1728,1016,0,0
511,8,0,0,0,0,0,0,0,0,0,-1,1735,1016,0,0
518,8,0,0,0,0,0,0,0,0,0,-1,1742,1016,0,0
525,8,0,0,0,0,0,0,0,0,0,-1,1749,1016,0,0
532,8,0,0,0,0,0,0,0,0,0,-1,1756,1016,0,0
539,8,0,0,0,0,0,0,0,0,0,-1,1763,1016,0,0
546,8,0,0,0,0,0,0,0,0,0,-1,1770,1016,0,0
553,8,0,0,0,0,0,0,0,0,0,-1,1777,1016,0,0
560,8,0,0,0,0,0,0,0,0,0,-1,1784,1016,0,0
567,8,0,0,0,0,0,0,0,0,0,-1,1791,1016,0,0
574,8,0,0,0,0,0,0,0,0,0,-1,1798,1016,0,0
581,8,0,0,0,0,0,0,0,0,0,-1,1805,1016,0,0
588,8,0,0,0,0,0,0,0,0,0,-1,1812,1016,0,0
595,8,0,0,0,0,0,0,0,0,0,-1,1819,1016,0,0
602,8,0,0,0,0,0,0,0,0,0,-1,1826,1016,0,0
609,8,0,0,0,0,0,0,0,0,0,-1,1833,1016,0,0
616,8,0,0,0,0,0,0,0,0,0,-1,1840,1016,0,0
623,8,0,0,0,0,0,0,0,0,0,-1,1847,1016,0,0
630,8,0,0,0,0,0,0,0,0,0,-1,1854,1016,0,0
637,8,0,0,0,0,0,0,0,0,0,-1,1861,1016,0,0
644,8,48.8334,2.35419,0.006139,0.00331836,0.00249865,0.00759786,0.00185949,0.52847,0.00457321,0.0433712,1868,1016,48.8334,-2.3542
651,8,48.9414,2.30707,0.00398389,0.0029248,0.00101199,0.00459651,0.00231219,0.544352,0.00265381,0.039724,1875,1016,48.9414,-2.30704
658,8,49.0195,2.32074,0.00242077,0.00254802,0.000266201,0.00275809,0.0022107,0.902697,0.00168615,0.0395031,1882,1016,49.0196,-2.32072
665,8,48.9857,2.52643,0.00122692,0.00228451,0.000100581,0.00229399,0.00121744,1.47681,0.00132527,0.0393001,1889,1016,48.9857,-2.52642
672,8,48.9877,2.69336,0.000305194,0.00216251,0.000362732,0.00223084,0.000236866,1.38461,0.00141489,0.0393748,1896,1016,48.9876,-2.69338
679,8,49.0067,2.54504,-0.000352194,0.00214683,0.000942402,0.00246237,-0.000667739,1.2477,0.00190361,0.0382265,1903,1016,49.0067,-2.54505
686,8,49.0297,2.46124,-0.00077329,0.00191859,0.00160446,0.00266689,-0.00152159,1.1344,0.00244817,0.0430251,1910,1016,49.0297,-2.46123
693,8,49.0101,2.44916,-0.000940313,0.00155773,0.00224684,0.00287937,-0.00226196,1.03908,0.00297548,0.0416268,1917,1016,49.0101,-2.44918
700,8,49.0095,2.53851,-0.00104911,0.00134476,0.00258429,0.00299584,-0.00270019,1.00227,0.00329008,0.0315003,1924,1016,49.0095,-2.5385
707,8,49.0043,2.57471,-0.00145067,0.00141078,0.0026968,0.00303287,-0.00307276,1.02928,0.00352511,0.0223005,1931,1016,49.0042,-2.57468
714,8,49.0127,2.57587,-0.00205445,0.00167834,0.00266156,0.00306269,-0.0034388,1.09118,0.00375573,0.019805,1938,1016,49.0127,-2.57588
721,8,49.0483,2.5415,0,0,0,0,0,0,0,-1,1945,1016,49.0483,-2.54153
728,8,48.717,5.59192,0,0,0,0,0,0,0,-1,1952,1016,48.7171,-5.59194
735,8,48.6964,5.66724,0,0,0,0,0,0,0,-1,1959,1016,48.6964,-5.66727
742,8,49.0818,5.82111,0,0,0,0,0,0,0,-1,1966,1016,49.0818,-5.82109
749,8,48.9443,5.82056,-0.00396961,0.00941114,0.000657214,0.00944335,-0.00400181,1.52184,0.00797166,0.0448619,1973,1016,48.9444,-5.82054
756,8,48.8625,5.79352,-0.00377323,0.0134063,-0.000674639,0.0134327,-0.00379969,-1.53161,0.0104545,0.0265277,1980,1016,48.8626,-5.79351
763,8,48.8409,5.86279,-0.00276733,0.018695,-0.00197693,0.0188756,-0.00294791,-1.47971,0.0136727,0.0154075,1987,1016,48.841,-5.8628
770,8,48.7438,5.83618,-0.000929937,0.0260354,-0.00348454,0.0264784,-0.00137294,-1.44434,0.0181272,0.0199595,1994,1016,48.7438,-5.83617
777,8,48.3977,5.85645,0.00241718,0.0361658,-0.00499171,0.0368886,0.00169435,-1.42699,0.0240475,0.0330361,2001,1016,48.3976,-5.85643
784,8,48.0442,5.8623,0,0,0,0,0,0,0,-1,2008,1016,48.0443,-5.86232
791,8,47.0564,5.25354,0.0123987,0.0605957,-0.00824799,0.0619681,0.0110263,-1.40591,0.0381712,0.047457,2015,1016,47.0565,-5.25353
798,8,47.2109,5.22992,0.0197077,0.0754858,-0.0100106,0.077228,0.0179655,-1.39849,0.0466642,0.0495452,2022,1016,47.211,-5.22989
805,8,47.3479,5.64136,0.0286324,0.0924449,-0.012033,0.0946386,0.0264388,-1.39048,0.0563849,0.0473412,2029,1016,47.3479,-5.64138
812,8,47.4568,5.9021,0.0393705,0.111891,-0.0140882,0.114532,0.0367298,-1.38551,0.0675273,0.0479869,2036,1016,47.4569,-5.90211
-700,1,0,0,0,0,0,0,0,0,0,-1,524,1023,0,0
-693,1,-37.5374,-0.164368,0,0,0,0,0,0,0,-1,531,1023,-37.5374,0.164361
-686,1,-37.8554,-0.0775146,0,0,0,0,0,0,0,-1,538,1023,-37.8554,0.0775086
-679,1,-38.2057,0.270752,0,0,0,0,0,0,0,-1,545,1023,-38.2057,-0.270752
-672,1,-37.5938,1.61945,0,0,0,0,0,0,0,-1,552,1023,-37.5938,-1.61944
-665,1,-36.957,2.33392,0,0,0,0,0,0,0,-1,559,1023,-36.957,-2.33394
-658,1,-36.9152,2.55432,0,0,0,0,0,0,0,-1,566,1023,-36.9152,-2.55429
-651,1,-36.8047,2.79083,0,0,0,0,0,0,0,-1,573,1023,-36.8047,-2.79081
-644,1,-36.5624,3.01251,0,0,0,0,0,0,0,-1,580,1023,-36.5624,-3.0125
-637,1,-36.8677,2.94495,-0.00579885,0.0162423,-0.000994267,0.0162871,-0.00584361,-1.52581,0.0132429,0.0364899,587,1023,-36.8677,-2.94493
-630,1,-37.1013,2.96851,-0.00484023,0.0133448,-0.00175792,0.0135131,-0.00500861,-1.47531,0.0110629,0.0311405,594,1023,-37.1013,-2.96851
-623,1,-37.0027,3.11359,-0.00325679,0.00984803,-0.0023594,0.0102599,-0.00366863,-1.39798,0.00833636,0.0156629,601,1023,-37.0027,-3.1136
-616,1,-37.0983,3.04474,-0.00187567,0.0064131,-0.00319914,0.00750422,-0.00296678,-1.2421,0.00623176,0.0197842,608,1023,-37.0983,-3.04476
-609,1,-37.1216,3.1048,-0.000550495,0.00369891,-0.00412533,0.00621455,-0.00306613,-1.0232,0.00546001,0.0206058,615,1023,-37.1216,-3.10479
-602,1,-36.9885,3.1554,0.000435927,0.00169519,-0.00496133,0.00606668,-0.00393557,-0.848514,0.00581833,0.0152835,622,1023,-36.9885,-3.15542
-595,1,-36.8137,3.15051,0,0,0,0,0,0,0,-1,629,1023,-36.8136,-3.15049
-588,1,-36.6928,1.99915,0.00200384,-0.000193898,-0.00562133,0.00663269,-0.00482275,-0.688874,0.00664127,0.0495662,636,1023,-36.6928,-1.99916
-581,1,-36.5499,0.84845,0.00262958,-0.000643303,-0.00564548,0.00687101,-0.00488473,-0.644331,0.0068194,0.0287313,643,1023,-36.5499,-0.848453
-574,1,-36.524,0.940735,0.0028378,-0.00073582,-0.00542221,0.00676003,-0.00465805,-0.626234,0.00662936,0.0372411,650,1023,-36.524,-0.940762
-567,1,-36.6044,1.02209,0.00284281,-0.000450979,-0.0049036,0.00636869,-0.00397686,-0.623389,0.00602598,0.0449366,657,1023,-36.6044,-1.02208
-560,1,-36.7769,1.27441,0.00284785,0.000155849,-0.00417812,0.00589143,-0.00288773,-0.62957,0.00516659,0.0400445,664,1023,-36.7769,-1.27443
-553,1,-36.689,1.0058,0.0028935,0.000947553,-0.00335452,0.00541331,-0.00157225,-0.644247,0.00423147,0.0380161,671,1023,-36.689,-1.0058
-546,1,-36.7253,0.982117,0.00318563,0.00166575,-0.00260154,0.00513595,-0.000284576,-0.643296,0.00352266,0.0414815,678,1023,-36.7254,-0.982144
-539,1,-36.5499,0.994507,0.00410026,0.00243687,-0.00261547,0.00601309,0.00052404,-0.631458,0.00384597,0.0405592,685,1023,-36.5499,-0.994481
-532,1,-36.4312,0.867737,0.00597711,0.00349698,-0.00424806,0.0091624,0.000311683,-0.643387,0.00600707,0.0422146,692,1023,-36.4312,-0.867725
-525,1,0,0,0,0,0,0,0,0,0,-1,699,1023,0,0
-518,1,0,0,0,0,0,0,0,0,0,-1,706,1023,0,0
-511,1,0,0,0,0,0,0,0,0,0,-1,713,1023,0,0
-504,1,0,0,0,0,0,0,0,0,0,-1,720,1023,0,0
-497,1,0,0,0,0,0,0,0,0,0,-1,727,1023,0,0
-490,1,0,0,0,0,0,0,0,0,0,-1,734,1023,0,0
-483,1,0,0,0,0,0,0,0,0,0,-1,741,1023,0,0
-476,1,0,0,0,0,0,0,0,0,0,-1,748,1023,0,0
-469,1,0,0,0,0,0,0,0,0,0,-1,755,1023,0,0
-462,1,0,0,0,0,0,0,0,0,0,-1,762,1023,0,0
-455,1,0,0,0,0,0,0,0,0,0,-1,769,1023,0,0
-448,1,0,0,0,0,0,0,0,0,0,-1,776,1023,0,0
-441,1,0,0,0,0,0,0,0,0,0,-1,783,1023,0,0
-434,1,0,0,0,0,0,0,0,0,0,-1,790,1023,0,0
-427,1,0,0,0,0,0,0,0,0,0,-1,797,1023,0,0
-420,1,0,0,0,0,0,0,0,0,0,-1,804,1023,0,0
-413,1,0,0,0,0,0,0,0,0,0,-1,811,1023,0,0
-406,1,0,0,0,0,0,0,0,0,0,-1,818,1023,0,0
-399,1,0,0,0,0,0,0,0,0,0,-1,825,1023,0,0
-392,1,0,0,0,0,0,0,0,0,0,-1,832,1023,0,0
-385,1,0,0,0,0,0,0,0,0,0,-1,839,1023,0,0
-378,1,0,0,0,0,0,0,0,0,0,-1,846,1023,0,0
-371,1,0,0,0,0,0,0,0,0,0,-1,853,1023,0,0
-364,1,0,0,0,0,0,0,0,0,0,-1,860,1023,0,0
-357,1,0,0,0,0,0,0,0,0,0,-1,867,1023,0,0
-350,1,0,0,0,0,0,0,0,0,0,-1,874,1023,0,0
-343,1,0,0,0,0,0,0,0,0,0,-1,881,1023,0,0
-336,1,0,0,0,0,0,0,0,0,0,-1,888,1023,0,0
-329,1,0,0,0,0,0,0,0,0,0,-1,895,1023,0,0
-322,1,0,0,0,0,0,0,0,0,0,-1,902,1023,0,0
-315,1,0,0,0,0,0,0,0,0,0,-1,909,1023,0,0
-308,1,0,0,0,0,0,0,0,0,0,-1,916,1023,0,0
-301,1,0,0,0,0,0,0,0,0,0,-1,923,1023,0,0
-294,1,0,0,0,0,0,0,0,0,0,-1,930,1023,0,0
-287,1,0,0,0,0,0,0,0,0,0,-1,937,1023,0,0
-280,1,0,0,0,0,0,0,0,0,0,-1,944,1023,0,0
-273,1,0,0,0,0,0,0,0,0,0,-1,951,1023,0,0
-266,1,0,0,0,0,0,0,0,0,0,-1,958,1023,0,0
-259,1,0,0,0,0,0,0,0,0,0,-1,965,1023,0,0
-252,1,0,0,0,0,0,0,0,0,0,-1,972,1023,0,0
-245,1,0,0,0,0,0,0,0,0,0,-1,979,1023,0,0
-238,1,0,0,0,0,0,0,0,0,0,-1,986,1023,0,0
-231,1,0,0,0,0,0,0,0,0,0,-1,993,1023,0,0
-224,1,0,0,0,0,0,0,0,0,0,-1,1000,1023,0,0
-217,1,0,0,0,0,0,0,0,0,0,-1,1007,1023,0,0
-210,1,0,0,0,0,0,0,0,0,0,-1,1014,1023,0,0
-203,1,0,0,0,0,0,0,0,0,0,-1,1021,1023,0,0
-196,1,0,0,0,0,0,0,0,0,0,-1,1028,1023,0,0
-189,1,0,0,0,0,0,0,0,0,0,-1,1035,1023,0,0
-182,1,0,0,0,0,0,0,0,0,0,-1,1042,1023,0,0
-175,1,0,0,0,0,0,0,0,0,0,-1,1049,1023,0,0
-168,1,0,0,0,0,0,0,0,0,0,-1,1056,1023,0,0
-161,1,0,0,0,0,0,0,0,0,0,-1,1063,1023,0,0
-154,1,0,0,0,0,0,0,0,0,0,-1,1070,1023,0,0
-147,1,0,0,0,0,0,0,0,0,0,-1,1077,1023,0,0
-140,1,0,0,0,0,0,0,0,0,0,-1,1084,1023,0,0
-133,1,0,0,0,0,0,0,0,0,0,-1,1091,1023,0,0
-126,1,0,0,0,0,0,0,0,0,0,-1,1098,1023,0,0
-119,1,0,0,0,0,0,0,0,0,0,-1,1105,1023,0,0
-112,1,0,0,0,0,0,0,0,0,0,-1,1112,1023,0,0
-105,1,0,0,0,0,0,0,0,0,0,-1,1119,1023,0,0
-98,1,0,0,0,0,0,0,0,0,0,-1,1126,1023,0,0
-91,1,0,0,0,0,0,0,0,0,0,-1,1133,1023,0,0
-84,1,0,0,0,0,0,0,0,0,0,-1,1140,1023,0,0
-77,1,0,0,0,0,0,0,0,0,0,-1,1147,1023,0,0
-70,1,0,0,0,0,0,0,0,0,0,-1,1154,1023,0,0
-63,1,0,0,0,0,0,0,0,0,0,-1,1161,1023,0,0
-56,1,0,0,0,0,0,0,0,0,0,-1,1168,1023,0,0
-49,1,0,0,0,0,0,0,0,0,0,-1,1175,1023,0,0
-42,1,0,0,0,0,0,0,0,0,0,-1,1182,1023,0,0
-35,1,0,0,0,0,0,0,0,0,0,-1,1189,1023,0,0
-28,1,0,0,0,0,0,0,0,0,0,-1,1196,1023,0,0
-21,1,0,0,0,0,0,0,0,0,0,-1,1203,1023,0,0
-14,1,0,0,0,0,0,0,0,0,0,-1,1210,1023,0,0
-7,1,0,0,0,0,0,0,0,0,0,-1,1217,1023,0,0
0,1,0,0,0,0,0,0,0,0,0,-1,1224,1023,0,0
7,1,0,0,0,0,0,0,0,0,0,-1,1231,1023,0,0
14,1,0,0,0,0,0,0,0,0,0,-1,1238,1023,0,0
21,1,0,0,0,0,0,0,0,0,0,-1,1245,1023,0,0
28,1,0,0,0,0,0,0,0,0,0,-1,1252,1023,0,0
35,1,0,0,0,0,0,0,0,0,0,-1,1259,1023,0,0
42,1,0,0,0,0,0,0,0,0,0,-1,1266,1023,0,0
49,1,0,0,0,0,0,0,0,0,0,-1,1273,1023,0,0
56,1,0,0,0,0,0,0,0,0,0,-1,1280,1023,0,0
63,1,0,0,0,0,0,0,0,0,0,-1,1287,1023,0,0
70,1,0,0,0,0,0,0,0,0,0,-1,1294,1023,0,0
77,1,0,0,0,0,0,0,0,0,0,-1,1301,1023,0,0
84,1,0,0,0,0,0,0,0,0,0,-1,1308,1023,0,0
91,1,0,0,0,0,0,0,0,0,0,-1,1315,1023,0,0
98,1,0,0,0,0,0,0,0,0,0,-1,1322,1023,0,0
105,1,0,0,0,0,0,0,0,0,0,-1,1329,1023,0,0
112,1,0,0,0,0,0,0,0,0,0,-1,1336,1023,0,0
119,1,0,0,0,0,0,0,0,0,0,-1,1343,1023,0,0
126,1,0,0,0,0,0,0,0,0,0,-1,1350,1023,0,0
133,1,0,0,0,0,0,0,0,0,0,-1,1357,1023,0,0
140,1,0,0,0,0,0,0,0,0,0,-1,1364,1023,0,0
147,1,0,0,0,0,0,0,0,0,0,-1,1371,1023,0,0
154,1,0,0,0,0,0,0,0,0,0,-1,1378,1023,0,0
161,1,0,0,0,0,0,0,0,0,0,-1,1385,1023,0,0
168,1,0,0,0,0,0,0,0,0,0,-1,1392,1023,0,0
175,1,0,0,0,0,0,0,0,0,0,-1,1399,1023,0,0
182,1,0,0,0,0,0,0,0,0,0,-1,1406,1023,0,0
189,1,0,0,0,0,0,0,0,0,0,-1,1413,1023,0,0
196,1,0,0,0,0,0,0,0,0,0,-1,1420,1023,0,0
203,1,0,0,0,0,0,0,0,0,0,-1,1427,1023,0,0
210,1,0,0,0,0,0,0,0,0,0,-1,1434,1023,0,0
217,1,0,0,0,0,0,0,0,0,0,-1,1441,1023,0,0
224,1,0,0,0,0,0,0,0,0,0,-1,1448,1023,0,0
231,1,0,0,0,0,0,0,0,0,0,-1,1455,1023,0,0
238,1,0,0,0,0,0,0,0,0,0,-1,1462,1023,0,0
245,1,0,0,0,0,0,0,0,0,0,-1,1469,1023,0,0
252,1,0,0,0,0,0,0,0,0,0,-1,1476,1023,0,0
259,1,0,0,0,0,0,0,0,0,0,-1,1483,1023,0,0
266,1,0,0,0,0,0,0,0,0,0,-1,1490,1023,0,0
273,1,0,0,0,0,0,0,0,0,0,-1,1497,1023,0,0
280,1,0,0,0,0,0,0,0,0,0,-1,1504,1023,0,0
287,1,0,0,0,0,0,0,0,0,0,-1,1511,1023,0,0
294,1,0,0,0,0,0,0,0,0,0,-1,1518,1023,0,0
301,1,0,0,0,0,0,0,0,0,0,-1,1525,1023,0,0
308,1,0,0,0,0,0,0,0,0,0,-1,1532,1023,0,0
315,1,0,0,0,0,0,0,0,0,0,-1,1539,1023,0,0
322,1,0,0,0,0,0,0,0,0,0,-1,1546,1023,0,0
329,1,0,0,0,0,0,0,0,0,0,-1,1553,1023,0,0
336,1,0,0,0,0,0,0,0,0,0,-1,1560,1023,0,0
343,1,0,0,0,0,0,0,0,0,0,-1,1567,1023,0,0
350,1,0,0,0,0,0,0,0,0,0,-1,1574,1023,0,0
357,1,0,0,0,0,0,0,0,0,0,-1,1581,1023,0,0
364,1,0,0,0,0,0,0,0,0,0,-1,1588,1023,0,0
371,1,0,0,0,0,0,0,0,0,0,-1,1595,1023,0,0
378,1,0,0,0,0,0,0,0,0,0,-1,1602,1023,0,0
385,1,0,0,0,0,0,0,0,0,0,-1,1609,1023,0,0
392,1,0,0,0,0,0,0,0,0,0,-1,1616,1023,0,0
399,1,0,0,0,0,0,0,0,0,0,-1,1623,1023,0,0
406,1,0,0,0,0,0,0,0,0,0,-1,1630,1023,0,0
413,1,0,0,0,0,0,0,0,0,0,-1,1637,1023,0,0
420,1,0,0,0,0,0,0,0,0,0,-1,1644,1023,0,0
427,1,0,0,0,0,0,0,0,0,0,-1,1651,1023,0,0
434,1,0,0,0,0,0,0,0,0,0,-1,1658,1023,0,0
441,1,0,0,0,0,0,0,0,0,0,-1,1665,1023,0,0
448,1,0,0,0,0,0,0,0,0,0,-1,1672,1023,0,0
455,1,0,0,0,0,0,0,0,0,0,-1,1679,1023,0,0
462,1,0,0,0,0,0,0,0,0,0,-1,1686,1023,0,0
469,1,0,0,0,0,0,0,0,0,0,-1,1693,1023,0,0
476,1,0,0,0,0,0,0,0,0,0,-1,1700,1023,0,0
483,1,0,0,0,0,0,0,0,0,0,-1,1707,1023,0,0
490,1,0,0,0,0,0,0,0,0,0,-1,1714,1023,0,0
497,1,0,0,0,0,0,0,0,0,0,-1,1721,1023,0,0
504,1,0,0,0,0,0,0,0,0,0,-1,1728,1023,0,0
511,1,0,0,0,0,0,0,0,0,0,-1,1735,1023,0,0
518,1,0,0,0,0,0,0,0,0,0,-1,1742,1023,0,0
525,1,0,0,0,0,0,0,0,0,0,-1,1749,1023,0,0
532,1,0,0,0,0,0,0,0,0,0,-1,1756,1023,0,0
539,1,0,0,0,0,0,0,0,0,0,-1,1763,1023,0,0
546,1,0,0,0,0,0,0,0,0,0,-1,1770,1023,0,0
553,1,0,0,0,0,0,0,0,0,0,-1,1777,1023,0,0
560,1,0,0,0,0,0,0,0,0,0,-1,1784,1023,0,0
567,1,0,0,0,0,0,0,0,0,0,-1,1791,1023,0,0
574,1,0,0,0,0,0,0,0,0,0,-1,1798,1023,0,0
581,1,0,0,0,0,0,0,0,0,0,-1,1805,1023,0,0
588,1,0,0,0,0,0,0,0,0,0,-1,1812,1023,0,0
595,1,0,0,0,0,0,0,0,0,0,-1,1819,1023,0,0
602,1,0,0,0,0,0,0,0,0,0,-1,1826,1023,0,0
609,1,0,0,0,0,0,0,0,0,0,-1,1833,1023,0,0
616,1,0,0,0,0,0,0,0,0,0,-1,1840,1023,0,0
623,1,0,0,0,0,0,0,0,0,0,-1,1847,1023,0,0
630,1,0,0,0,0,0,0,0,0,0,-1,1854,1023,0,0
637,1,0,0,0,0,0,0,0,0,0,-1,1861,1023,0,0
644,1,0,0,0,0,0,0,0,0,0,-1,1868,1023,0,0
651,1,48.9606,2.50256,0.00476104,0.00236332,0.000512968,0.00486617,0.00225819,0.202154,0.00281191,0.0384714,1875,1023,48.9606,-2.50253
658,1,49.1331,2.51154,0.00294543,0.00202711,-5.33281e-05,0.00294851,0.00202402,-0.0578124,0.00174133,0.0395508,1882,1023,49.1331,-2.51153
665,1,49.1295,2.62726,0.00158077,0.0018018,-0.000127371,0.00185992,0.00152265,-1.14273,0.00114421,0.0423642,1889,1023,49.1296,-2.62728
672,1,49.1332,2.64197,0.000554991,0.00171544,0.000181376,0.00174313,0.000527303,1.41931,0.00103224,0.042697,1896,1023,49.1332,-2.64197
679,1,49.1071,2.59296,-0.000189267,0.00173783,0.000767279,0.002006,-0.000457442,1.23455,0.00151304,0.0398904,1903,1023,49.107,-2.59294
686,1,48.9194,2.49805,-0.000710798,0.00153557,0.00142435,0.00222631,-0.00140154,1.11926,0.00211251,0.0392953,1910,1023,48.9194,-2.49807
693,1,49.0468,2.60181,-0.000955073,0.00119177,0.00207914,0.00245823,-0.00222153,1.02369,0.00270301,0.0371269,1917,1023,49.0468,-2.60181
700,1,49.1122,2.67096,-0.00110995,0.000989004,0.00245032,0.00260513,-0.00272607,0.98773,0.00307824,0.030183,1924,1023,49.1122,-2.67098
707,1,49.021,2.58411,-0.00154669,0.0010609,0.00259615,0.00266225,-0.00314805,1.0181,0.00335848,0.0227484,1931,1023,49.021,-2.58411
714,1,48.9868,2.492,-0.00217085,0.00134738,0.00260206,0.00272916,-0.00355264,1.08263,0.00363717,0.0215006,1938,1023,48.9868,-2.492
721,1,49.0847,2.42493,0,0,0,0,0,0,0,-1,1945,1023,49.0847,-2.42495
728,1,48.6245,5.95685,0,0,0,0,0,0,0,-1,1952,1023,48.6245,-5.95687
735,1,48.662,5.81366,0,0,0,0,0,0,0,-1,1959,1023,48.662,-5.81367
742,1,48.9149,5.58801,0,0,0,0,0,0,0,-1,1966,1023,48.9149,-5.588
749,1,48.9301,5.8689,0,0,0,0,0,0,0,-1,1973,1023,48.9301,-5.8689
756,1,48.9066,5.83331,-0.00308916,0.0129552,-0.00160221,0.0131137,-0.0032476,-1.47223,0.0100023,0.0266199,1980,1023,48.9066,-5.83331
763,1,48.8112,5.77905,-0.00172469,0.0182455,-0.00343046,0.0188183,-0.00229754,-1.40533,0.0133773,0.0158041,1987,1023,48.8112,-5.77906
770,1,48.7705,5.73999,0.000627277,0.0256302,-0.00587635,0.0269424,-0.000684951,-1.35109,0.0181942,0.0177903,1994,1023,48.7705,-5.73997
777,1,48.501,5.66766,0.00474169,0.0361252,-0.00886144,0.0384545,0.00241246,-1.31376,0.0248712,0.0244676,2001,1023,48.501,-5.66764
784,1,48.2236,5.66217,0.00981088,0.0479603,-0.0121415,0.0514966,0.00627454,-1.28738,0.0324424,0.0446519,2008,1023,48.2237,-5.66216
791,1,49.5442,5.5069,0.0161722,0.0617501,-0.015857,0.0667241,0.0111982,-1.26684,0.0412597,0.0485718,2015,1023,49.5441,-5.50687
798,1,46.7153,4.51416,0,0,0,0,0,0,0,-1,2022,1023,46.7152,-4.51415
805,1,47.2324,5.599,0.0334895,0.0961712,-0.0246278,0.10469,0.0249709,-1.23778,0.0631376,0.0462234,2029,1023,47.2323,-5.59902
812,1,47.8538,5.49219,0.0443513,0.117945,-0.0297525,0.128468,0.0338277,-1.23083,0.0768913,0.0454622,2036,1023,47.8537,-5.49218
-700,-6,0,0,0,0,0,0,0,0,0,-1,524,1030,0,0
-693,-6,-36.7902,0.583374,0,0,0,0,0,0,0,-1,531,1030,-36.7902,-0.583413
-686,-6,-37.1109,0.639038,-0.000252517,0.0258387,-0.00170217,0.0259493,-0.000363097,-1.50592,0.0174218,0.0444021,538,1030,-37.1109,-0.639045
-679,-6,-37.4737,0.815918,-0.00292027,0.0271253,-0.00164201,0.0272148,-0.00300974,-1.51636,0.0192251,0.0457855,545,1030,-37.4737,-0.815923
-672,-6,-37.7455,0.942139,0,0,0,0,0,0,0,-1,552,1030,-37.7455,-0.942098
-665,-6,-36.5454,2.68115,0,0,0,0,0,0,0,-1,559,1030,-36.5454,-2.68111
-658,-6,-36.3962,2.99341,0,0,0,0,0,0,0,-1,566,1030,-36.3962,-2.99337
-651,-6,-36.8171,2.5481,0,0,0,0,0,0,0,-1,573,1030,-36.8171,-2.54815
-644,-6,-36.6272,3.177,0,0,0,0,0,0,0,-1,580,1030,-36.6272,-3.17698
-637,-6,-36.8588,3.04626,-0.0060777,0.0157243,-0.00187863,0.015885,-0.0062384,-1.48547,0.0131715,0.040887,587,1030,-36.8588,-3.04621
-630,-6,-36.989,2.93994,-0.00471489,0.0129182,-0.00219054,0.0131863,-0.00498294,-1.44903,0.0108406,0.0221721,594,1030,-36.989,-2.93991
-623,-6,-36.9431,3.03491,-0.00291979,0.0095074,-0.00245643,0.00997533,-0.00338772,-1.38256,0.00802157,0.0166815,601,1030,-36.9431,-3.03491
-616,-6,-36.9863,3.04761,-0.00149714,0.00596581,-0.00299239,0.00701746,-0.0025488,-1.23284,0.00572042,0.0194719,608,1030,-36.9863,-3.04764
-609,-6,-36.9644,3.16833,-0.000346965,0.0032462,-0.0037081,0.00557002,-0.00267078,-1.01098,0.00485499,0.0191393,615,1030,-36.9644,-3.16831
-602,-6,-36.8987,3.23987,0.000476772,0.00126303,-0.00440274,0.00529016,-0.00355035,-0.829926,0.00513691,0.0139449,622,1030,-36.8988,-3.23984
-595,-6,-36.8846,3.28833,0,0,0,0,0,0,0,-1,629,1030,-36.8846,-3.28829
-588,-6,-36.6533,1.90295,0,0,0,0,0,0,0,-1,636,1030,-36.6533,-1.90299
-581,-6,-36.5818,0.619019,0,0,0,0,0,0,0,-1,643,1030,-36.5818,-0.619
-574,-6,-36.527,0.804565,0.00255466,-0.000580785,-0.0046,0.00584675,-0.00387287,-0.621166,0.00565007,0.0312277,650,1030,-36.527,-0.804585
-567,-6,-36.6138,0.925781,0.0025416,-8.95093e-05,-0.00413631,0.00556652,-0.00311443,-0.631432,0.00507816,0.0424963,657,1030,-36.6138,-0.925805
-560,-6,-36.6551,1.25854,0.00252578,0.000758818,-0.00351787,0.00526941,-0.00198482,-0.662372,0.00432898,0.041163,664,1030,-36.6551,-1.25855
-553,-6,-36.5662,1.11328,0.00256007,0.00181403,-0.00283905,0.0050505,-0.000676401,-0.720077,0.00361363,0.0394906,671,1030,-36.5662,-1.11329
-546,-6,-36.5877,0.997681,0.00285026,0.00280034,-0.00225027,0.00507571,0.000574887,-0.779852,0.00320939,0.0418128,678,1030,-36.5877,-0.9977
-539,-6,-36.5175,1.02393,0.00371333,0.00371361,-0.00233859,0.00605206,0.00137488,-0.785427,0.00366344,0.0404544,685,1030,-36.5174,-1.02395
-532,-6,-36.4267,0.878296,0.00542949,0.00477359,-0.00372013,0.0088361,0.00136698,-0.741434,0.00549208,0.0411479,692,1030,-36.4267,-0.878311
-525,-6,0,0,0,0,0,0,0,0,0,-1,699,1030,0,0
-518,-6,0,0,0,0,0,0,0,0,0,-1,706,1030,0,0
-511,-6,0,0,0,0,0,0,0,0,0,-1,713,1030,0,0
-504,-6,0,0,0,0,0,0,0,0,0,-1,720,1030,0,0
-497,-6,0,0,0,0,0,0,0,0,0,-1,727,1030,0,0
-490,-6,0,0,0,0,0,0,0,0,0,-1,734,1030,0,0
-483,-6,0,0,0,0,0,0,0,0,0,-1,741,1030,0,0
-476,-6,0,0,0,0,0,0,0,0,0,-1,748,1030,0,0
-469,-6,0,0,0,0,0,0,0,0,0,-1,755,1030,0,0
-462,-6,0,0,0,0,0,0,0,0,0,-1,762,1030,0,0
-455,-6,0,0,0,0,0,0,0,0,0,-1,769,1030,0,0
-448,-6,0,0,0,0,0,0,0,0,0,-1,776,1030,0,0
-441,-6,0,0,0,0,0,0,0,0,0,-1,783,1030,0,0
-434,-6,0,0,0,0,0,0,0,0,0,-1,790,1030,0,0
-427,-6,0,0,0,0,0,0,0,0,0,-1,797,1030,0,0
-420,-6,0,0,0,0,0,0,0,0,0,-1,804,1030,0,0
-413,-6,0,0,0,0,0,0,0,0,0,-1,811,1030,0,0
-406,-6,0,0,0,0,0,0,0,0,0,-1,818,1030,0,0
-399,-6,0,0,0,0,0,0,0,0,0,-1,825,1030,0,0
-392,-6,0,0,0,0,0,0,0,0,0,-1,832,1030,0,0
-385,-6,0,0,0,0,0,0,0,0,0,-1,839,1030,0,0
-378,-6,0,0,0,0,0,0,0,0,0,-1,846,1030,0,0
-371,-6,0,0,0,0,0,0,0,0,0,-1,853,1030,0,0
-364,-6,0,0,0,0,0,0,0,0,0,-1,860,1030,0,0
-357,-6,0,0,0,0,0,0,0,0,0,-1,867,1030,0,0
-350,-6,0,0,0,0,0,0,0,0,0,-1,874,1030,0,0
-343,-6,0,0,0,0,0,0,0,0,0,-1,881,1030,0,0
-336,-6,0,0,0,0,0,0,0,0,0,-1,888,1030,0,0
-329,-6,0,0,0,0,0,0,0,0,0,-1,895,1030,0,0
-322,-6,0,0,0,0,0,0,0,0,0,-1,902,1030,0,0
-315,-6,0,0,0,0,0,0,0,0,0,-1,909,1030,0,0
-308,-6,0,0,0,0,0,0,0,0,0,-1,916,1030,0,0
-301,-6,0,0,0,0,0,0,0,0,0,-1,923,1030,0,0
-294,-6,0,0,0,0,0,0,0,0,0,-1,930,1030,0,0
-287,-6,0,0,0,0,0,0,0,0,0,-1,937,1030,0,0
-280,-6,0,0,0,0,0,0,0,0,0,-1,944,1030,0,0
-273,-6,0,0,0,0,0,0,0,0,0,-1,951,1030,0,0
-266,-6,0,0,0,0,0,0,0,0,0,-1,958,1030,0,0
-259,-6,0,0,0,0,0,0,0,0,0,-1,965,1030,0,0
-252,-6,0,0,0,0,0,0,0,0,0,-1,972,1030,0,0
-245,-6,0,0,0,0,0,0,0,0,0,-1,979,1030,0,0
-238,-6,0,0,0,0,0,0,0,0,0,-1,986,1030,0,0
-231,-6,0,0,0,0,0,0,0,0,0,-1,993,1030,0,0
-224,-6,0,0,0,0,0,0,0,0,0,-1,1000,1030,0,0
-217,-6,0,0,0,0,0,0,0,0,0,-1,1007,1030,0,0
-210,-6,0,0,0,0,0,0,0,0,0,-1,1014,1030,0,0
-203,-6,0,0,0,0,0,0,0,0,0,-1,1021,1030,0,0
-196,-6,0,0,0,0,0,0,0,0,0,-1,1028,1030,0,0
-189,-6,0,0,0,0,0,0,0,0,0,-1,1035,1030,0,0
-182,-6,0,0,0,0,0,0,0,0,0,-1,1042,1030,0,0
-175,-6,0,0,0,0,0,0,0,0,0,-1,1049,1030,0,0
-168,-6,0,0,0,0,0,0,0,0,0,-1,1056,1030,0,0
-161,-6,0,0,0,0,0,0,0,0,0,-1,1063,1030,0,0
-154,-6,0,0,0,0,0,0,0,0,0,-1,1070,1030,0,0
-147,-6,0,0,0,0,0,0,0,0,0,-1,1077,1030,0,0
-140,-6,0,0,0,0,0,0,0,0,0,-1,1084,1030,0,0
-133,-6,0,0,0,0,0,0,0,0,0,-1,1091,1030,0,0
-126,-6,0,0,0,0,0,0,0,0,0,-1,1098,1030,0,0
-119,-6,0,0,0,0,0,0,0,0,0,-1,1105,1030,0,0
-112,-6,0,0,0,0,0,0,0,0,0,-1,1112,1030,0,0
-105,-6,0,0,0,0,0,0,0,0,0,-1,1119,1030,0,0
-98,-6,0,0,0,0,0,0,0,0,0,-1,1126,1030,0,0
-91,-6,0,0,0,0,0,0,0,0,0,-1,1133,1030,0,0
-84,-6,0,0,0,0,0,0,0,0,0,-1,1140,1030,0,0
-77,-6,0,0,0,0,0,0,0,0,0,-1,1147,1030,0,0
-70,-6,0,0,0,0,0,0,0,0,0,-1,1154,1030,0,0
-63,-6,0,0,0,0,0,0,0,0,0,-1,1161,1030,0,0
-56,-6,0,0,0,0,0,0,0,0,0,-1,1168,1030,0,0
-49,-6,0,0,0,0,0,0,0,0,0,-1,1175,1030,0,0
-42,-6,0,0,0,0,0,0,0,0,0,-1,1182,1030,0,0
-35,-6,0,0,0,0,0,0,0,0,0,-1,1189,1030,0,0
-28,-6,0,0,0,0,0,0,0,0,0,-1,1196,1030,0,0
-21,-6,0,0,0,0,0,0,0,0,0,-1,1203,1030,0,0
-14,-6,0,0,0,0,0,0,0,0,0,-1,1210,1030,0,0
-7,-6,0,0,0,0,0,0,0,0,0,-1,1217,1030,0,0
0,-6,0,0,0,0,0,0,0,0,0,-1,1224,1030,0,0
7,-6,0,0,0,0,0,0,0,0,0,-1,1231,1030,0,0
14,-6,0,0,0,0,0,0,0,0,0,-1,1238,1030,0,0
21,-6,0,0,0,0,0,0,0,0,0,-1,1245,1030,0,0
28,-6,0,0,0,0,0,0,0,0,0,-1,1252,1030,0,0
35,-6,0,0,0,0,0,0,0,0,0,-1,1259,1030,0,0
42,-6,0,0,0,0,0,0,0,0,0,-1,1266,1030,0,0
49,-6,0,0,0,0,0,0,0,0,0,-1,1273,1030,0,0
56,-6,0,0,0,0,0,0,0,0,0,-1,1280,1030,0,0
63,-6,0,0,0,0,0,0,0,0,0,-1,1287,1030,0,0
70,-6,0,0,0,0,0,0,0,0,0,-1,1294,1030,0,0
77,-6,0,0,0,0,0,0,0,0,0,-1,1301,1030,0,0
84,-6,0,0,0,0,0,0,0,0,0,-1,1308,1030,0,0
91,-6,0,0,0,0,0,0,0,0,0,-1,1315,1030,0,0
98,-6,0,0,0,0,0,0,0,0,0,-1,1322,1030,0,0
105,-6,0,0,0,0,0,0,0,0,0,-1,1329,1030,0,0
112,-6,0,0,0,0,0,0,0,0,0,-1,1336,1030,0,0
119,-6,0,0,0,0,0,0,0,0,0,-1,1343,1030,0,0
126,-6,0,0,0,0,0,0,0,0,0,-1,1350,1030,0,0
133,-6,0,0,0,0,0,0,0,0,0,-1,1357,1030,0,0
140,-6,0,0,0,0,0,0,0,0,0,-1,1364,1030,0,0
147,-6,0,0,0,0,0,0,0,0,0,-1,1371,1030,0,0
154,-6,0,0,0,0,0,0,0,0,0,-1,1378,1030,0,0
161,-6,0,0,0,0,0,0,0,0,0,-1,1385,1030,0,0
168,-6,0,0,0,0,0,0,0,0,0,-1,1392,1030,0,0
175,-6,0,0,0,0,0,0,0,0,0,-1,1399,1030,0,0
182,-6,0,0,0,0,0,0,0,0,0,-1,1406,1030,0,0
189,-6,0,0,0,0,0,0,0,0,0,-1,1413,1030,0,0
196,-6,0,0,0,0,0,0,0,0,0,-1,1420,1030,0,0
203,-6,0,0,0,0,0,0,0,0,0,-1,1427,1030,0,0
210,-6,0,0,0,0,0,0,0,0,0,-1,1434,1030,0,0
217,-6,0,0,0,0,0,0,0,0,0,-1,1441,1030,0,0
224,-6,0,0,0,0,0,0,0,0,0,-1,1448,1030,0,0
231,-6,0,0,0,0,0,0,0,0,0,-1,1455,1030,0,0
238,-6,0,0,0,0,0,0,0,0,0,-1,1462,1030,0,0
245,-6,0,0,0,0,0,0,0,0,0,-1,1469,1030,0,0
252,-6,0,0,0,0,0,0,0,0,0,-1,1476,1030,0,0
259,-6,0,0,0,0,0,0,0,0,0,-1,1483,1030,0,0
266,-6,0,0,0,0,0,0,0,0,0,-1,1490,1030,0,0
273,-6,0,0,0,0,0,0,0,0,0,-1,1497,1030,0,0
280,-6,0,0,0,0,0,0,0,0,0,-1,1504,1030,0,0
287,-6,0,0,0,0,0,0,0,0,0,-1,1511,1030,0,0
294,-6,0,0,0,0,0,0,0,0,0,-1,1518,1030,0,0
301,-6,0,0,0,0,0,0,0,0,0,-1,1525,1030,0,0
308,-6,0,0,0,0,0,0,0,0,0,-1,1532,1030,0,0
315,-6,0,0,0,0,0,0,0,0,0,-1,1539,1030,0,0
322,-6,0,0,0,0,0,0,0,0,0,-1,1546,1030,0,0
329,-6,0,0,0,0,0,0,0,0,0,-1,1553,1030,0,0
336,-6,0,0,0,0,0,0,0,0,0,-1,1560,1030,0,0
343,-6,0,0,0,0,0,0,0,0,0,-1,1567,1030,0,0
350,-6,0,0,0,0,0,0,0,0,0,-1,1574,1030,0,0
357,-6,0,0,0,0,0,0,0,0,0,-1,1581,1030,0,0
364,-6,0,0,0,0,0,0,0,0,0,-1,1588,1030,0,0
371,-6,0,0,0,0,0,0,0,0,0,-1,1595,1030,0,0
378,-6,0,0,0,0,0,0,0,0,0,-1,1602,1030,0,0
385,-6,0,0,0,0,0,0,0,0,0,-1,1609,1030,0,0
392,-6,0,0,0,0,0,0,0,0,0,-1,1616,1030,0,0
399,-6,0,0,0,0,0,0,0,0,0,-1,1623,1030,0,0
406,-6,0,0,0,0,0,0,0,0,0,-1,1630,1030,0,0
413,-6,0,0,0,0,0,0,0,0,0,-1,1637,1030,0,0
420,-6,0,0,0,0,0,0,0,0,0,-1,1644,1030,0,0
427,-6,0,0,0,0,0,0,0,0,0,-1,1651,1030,0,0
434,-6,0,0,0,0,0,0,0,0,0,-1,1658,1030,0,0
441,-6,0,0,0,0,0,0,0,0,0,-1,1665,1030,0,0
448,-6,0,0,0,0,0,0,0,0,0,-1,1672,1030,0,0
455,-6,0,0,0,0,0,0,0,0,0,-1,1679,1030,0,0
462,-6,0,0,0,0,0,0,0,0,0,-1,1686,1030,0,0
469,-6,0,0,0,0,0,0,0,0,0,-1,1693,1030,0,0
476,-6,0,0,0,0,0,0,0,0,0,-1,1700,1030,0,0
483,-6,0,0,0,0,0,0,0,0,0,-1,1707,1030,0,0
490,-6,0,0,0,0,0,0,0,0,0,-1,1714,1030,0,0
497,-6,0,0,0,0,0,0,0,0,0,-1,1721,1030,0,0
504,-6,0,0,0,0,0,0,0,0,0,-1,1728,1030,0,0
511,-6,0,0,0,0,0,0,0,0,0,-1,1735,1030,0,0
518,-6,0,0,0,0,0,0,0,0,0,-1,1742,1030,0,0
525,-6,0,0,0,0,0,0,0,0,0,-1,1749,1030,0,0
532,-6,0,0,0,0,0,0,0,0,0,-1,1756,1030,0,0
539,-6,0,0,0,0,0,0,0,0,0,-1,1763,1030,0,0
546,-6,0,0,0,0,0,0,0,0,0,-1,1770,1030,0,0
553,-6,0,0,0,0,0,0,0,0,0,-1,1777,1030,0,0
560,-6,0,0,0,0,0,0,0,0,0,-1,1784,1030,0,0
567,-6,0,0,0,0,0,0,0,0,0,-1,1791,1030,0,0
574,-6,0,0,0,0,0,0,0,0,0,-1,1798,1030,0,0
581,-6,0,0,0,0,0,0,0,0,0,-1,1805,1030,0,0
588,-6,0,0,0,0,0,0,0,0,0,-1,1812,1030,0,0
595,-6,0,0,0,0,0,0,0,0,0,-1,1819,1030,0,0
602,-6,0,0,0,0,0,0,0,0,0,-1,1826,1030,0,0
609,-6,0,0,0,0,0,0,0,0,0,-1,1833,1030,0,0
616,-6,0,0,0,0,0,0,0,0,0,-1,1840,1030,0,0
623,-6,0,0,0,0,0,0,0,0,0,-1,1847,1030,0,0
630,-6,0,0,0,0,0,0,0,0,0,-1,1854,1030,0,0
637,-6,0,0,0,0,0,0,0,0,0,-1,1861,1030,0,0
644,-6,0,0,0,0,0,0,0,0,0,-1,1868,1030,0,0
651,-6,48.9994,2.72339,0.0051272,0.00178073,-2.14367e-05,0.00512734,0.00178059,-0.0064054,0.00300595,0.0373506,1875,1030,48.9993,-2.72342
658,-6,49.2434,2.67664,0.00317024,0.00148489,-0.000368021,0.0032471,0.00140803,-0.205882,0.00188021,0.0406334,1882,1030,49.2434,-2.67664
665,-6,49.2848,2.61096,0.00172284,0.00128533,-0.000304654,0.00187914,0.00112903,-0.474035,0.00109225,0.0442306,1889,1030,49.2848,-2.6109
672,-6,49.2091,2.60706,0.000669367,0.00121993,8.84703e-05,0.0012338,0.0006555,1.41532,0.000712797,0.0424227,1896,1030,49.2091,-2.60704
679,-6,49.0481,2.57581,-9.31311e-05,0.00125532,0.000715175,0.00156398,-0.000401787,1.16337,0.00119923,0.0410366,1903,1030,49.0481,-2.57582
686,-6,48.783,2.51416,-0.000658843,0.00106176,0.0013847,0.00183164,-0.00142873,1.06336,0.00188716,0.0371982,1910,1030,48.7829,-2.51419
693,-6,48.9393,2.44324,-0.000941908,0.000726905,0.00204885,0.00210474,-0.00231974,0.978771,0.00255548,0.0351646,1917,1030,48.9393,-2.44327
700,-6,49.0714,2.53271,-0.0011258,0.000529971,0.00244843,0.0022867,-0.00288253,0.948428,0.00299105,0.0300997,1924,1030,49.0714,-2.53274
707,-6,49.0016,2.56396,-0.00158826,0.00060033,0.00262484,0.00234985,-0.00333777,0.982893,0.00330022,0.025322,1931,1030,49.0016,-2.56402
714,-6,48.9856,2.50098,-0.0022146,0.000898017,0.00266372,0.00242675,-0.00374333,1.04978,0.00358923,0.0289106,1938,1030,48.9856,-2.50099
721,-6,49.0647,2.41809,0,0,0,0,0,0,0,-1,1945,1030,49.0647,-2.41811
728,-6,48.5414,5.85327,0,0,0,0,0,0,0,-1,1952,1030,48.5414,-5.85323
735,-6,48.6802,5.75562,-0.00401824,0.00338591,0.00233223,0.00405929,-0.00469163,1.28971,0.00505674,0.0408793,1959,1030,48.6802,-5.7556
742,-6,48.8604,5.74731,-0.00350544,0.00492394,0.00134526,0.00513343,-0.00371493,1.41631,0.00513043,0.0426613,1966,1030,48.8604,-5.74736
749,-6,48.7916,5.69324,0,0,0,0,0,0,0,-1,1973,1030,48.7916,-5.69327
756,-6,48.8549,5.72253,-0.00254527,0.0122916,-0.002144,0.0125952,-0.00284888,-1.43012,0.00949006,0.0218338,1980,1030,48.8549,-5.72253
763,-6,48.7607,5.63184,-0.000849789,0.0175482,-0.00439763,0.0185454,-0.0018469,-1.34783,0.0130229,0.0190904,1987,1030,48.7607,-5.63182
770,-6,48.682,5.58533,0.00202619,0.0249012,-0.00761474,0.0272041,-0.000276791,-1.27711,0.0182291,0.0172834,1994,1030,48.682,-5.58529
777,-6,48.5793,5.5553,0.0070305,0.0355918,-0.0119481,0.0399309,0.00269143,-1.22245,0.0257703,0.0188488,2001,1030,48.5792,-5.55524
784,-6,48.5481,5.75903,0.0131004,0.0477326,-0.0168134,0.0545523,0.0062807,-1.18546,0.0344659,0.0413156,2008,1030,48.5482,-5.75909
791,-6,49.3447,5.43909,0.0205982,0.0619771,-0.0224274,0.0718006,0.0107747,-1.15795,0.0447104,0.0454491,2015,1030,49.3447,-5.43912
798,-6,49.5422,4.89575,0.0298728,0.0787035,-0.0288152,0.0920562,0.0165201,-1.13686,0.0566725,0.0487214,2022,1030,49.5421,-4.89579
805,-6,47.2227,4.85632,0.0408729,0.0983322,-0.0360562,0.115705,0.0235,-1.12179,0.070619,0.0431667,2029,1030,47.2227,-4.85629
812,-6,47.6123,4.63123,0.0537107,0.121935,-0.0443926,0.143808,0.0318377,-1.11299,0.0872185,0.045352,2036,1030,47.6123,-4.63123
-700,-13,0,0,0,0,0,0,0,0,0,-1,524,1037,0,0
-693,-13,-36.836,1.4364,0,0,0,0,0,0,0,-1,531,1037,-36.836,-1.43644
-686,-13,-36.9348,1.45703,-0.00325234,0.0180263,-0.00705327,0.0201519,-0.00537796,-1.27809,0.0155406,0.0466358,538,1037,-36.9348,-1.45708
-679,-13,-36.9832,1.46411,-0.0057109,0.0210685,-0.00638216,0.0225117,-0.00715414,-1.3484,0.0178762,0.0491487,545,1037,-36.9832,-1.46413
-672,-13,-36.701,2.10474,0,0,0,0,0,0,0,-1,552,1037,-36.701,-2.10472
-665,-13,-36.5355,2.44189,-0.00784468,0.022409,-0.00485684,0.0231695,-0.00860527,-1.41546,0.0189767,0.0453535,559,1037,-36.5355,-2.44186
-658,-13,-36.4226,2.73596,-0.00803323,0.0214615,-0.00409147,0.0220186,-0.00859027,-1.43548,0.0182301,0.0446978,566,1037,-36.4226,-2.73599
-651,-13,-36.7366,2.56091,-0.00768045,0.019675,-0.00344377,0.0201018,-0.00810732,-1.44747,0.0167701,0.0404369,573,1037,-36.7366,-2.56086
-644,-13,-36.5961,2.59705,-0.00717595,0.0179019,-0.0029106,0.0182353,-0.00750933,-1.45675,0.0152876,0.0324017,580,1037,-36.5961,-2.59705
-637,-13,-36.6944,2.79187,-0.00634308,0.0150964,-0.00306681,0.0155265,-0.00677314,-1.43147,0.0132012,0.0252102,587,1037,-36.6944,-2.79185
-630,-13,-36.8246,2.82507,-0.00467116,0.0124323,-0.0028838,0.0129054,-0.0051443,-1.40817,0.0107373,0.0161746,594,1037,-36.8246,-2.82504
-623,-13,-36.8378,2.95288,-0.00267967,0.00912165,-0.00273431,0.0097244,-0.00328241,-1.35383,0.00781047,0.0136439,601,1037,-36.8378,-2.95288
-616,-13,-36.8189,3.07739,-0.00119471,0.00556652,-0.00292128,0.00665384,-0.00228202,-1.21448,0.00536099,0.0131252,608,1037,-36.8189,-3.07734
-609,-13,-36.7814,3.20862,-0.000189509,0.00293282,-0.00336963,0.00508537,-0.00234206,-1.00233,0.00438464,0.0185189,615,1037,-36.7814,-3.20865
-602,-13,-36.7735,3.29785,0.000486548,0.00100974,-0.00389149,0.00464841,-0.00315212,-0.818959,0.00453118,0.01334,622,1037,-36.7735,-3.29781
-595,-13,-36.6511,3.29065,0.00103341,8.27611e-05,-0.00420739,0.00479224,-0.00367607,-0.72915,0.00490331,0.0366082,629,1037,-36.6511,-3.29068
-588,-13,-36.4568,1.66248,0,0,0,0,0,0,0,-1,636,1037,-36.4569,-1.6625
-581,-13,-36.5044,0.723022,0.00206753,-0.000584907,-0.0041183,0.00506789,-0.00358527,-0.629627,0.00502029,0.0242239,643,1037,-36.5044,-0.72307
-574,-13,-36.4663,0.592773,0.00223169,-0.000399855,-0.0038992,0.00503113,-0.0031993,-0.622674,0.00479091,0.0322461,650,1037,-36.4663,-0.592804
-567,-13,-36.5465,0.645996,0.00221136,0.000199114,-0.00351632,0.00486267,-0.00245219,-0.646056,0.004299,0.041247,657,1037,-36.5465,-0.646043
-560,-13,-36.4932,0.904297,0.00219192,0.00115546,-0.0030298,0.00474749,-0.00140011,-0.700696,0.00372058,0.0430483,664,1037,-36.4932,-0.904311
-553,-13,-36.4354,0.843506,0.002243,0.00231423,-0.00252142,0.00480028,-0.000243054,-0.79246,0.0032842,0.0411501,671,1037,-36.4354,-0.843541
-546,-13,-36.3997,0.87793,0.00256427,0.00340614,-0.00212195,0.00514851,0.000821909,-0.883313,0.00319382,0.0402853,678,1037,-36.3997,-0.877898
-539,-13,-36.4713,0.918823,0.00340996,0.00432772,-0.00228852,0.00620291,0.00153477,-0.884343,0.00373045,0.0416054,685,1037,-36.4713,-0.918848
-532,-13,-36.4546,0.706543,0.00495842,0.0053274,-0.00341316,0.00856106,0.00172477,-0.812398,0.00522816,0.043735,692,1037,-36.4546,-0.706516
-525,-13,0,0,0,0,0,0,0,0,0,-1,699,1037,0,0
-518,-13,0,0,0,0,0,0,0,0,0,-1,706,1037,0,0
-511,-13,0,0,0,0,0,0,0,0,0,-1,713,1037,0,0
-504,-13,0,0,0,0,0,0,0,0,0,-1,720,1037,0,0
-497,-13,0,0,0,0,0,0,0,0,0,-1,727,1037,0,0
-490,-13,0,0,0,0,0,0,0,0,0,-1,734,1037,0,0
-483,-13,0,0,0,0,0,0,0,0,0,-1,741,1037,0,0
-476,-13,0,0,0,0,0,0,0,0,0,-1,748,1037,0,0
-469,-13,0,0,0,0,0,0,0,0,0,-1,755,1037,0,0
-462,-13,0,0,0,0,0,0,0,0,0,-1,762,1037,0,0
-455,-13,0,0,0,0,0,0,0,0,0,-1,769,1037,0,0
-448,-13,0,0,0,0,0,0,0,0,0,-1,776,1037,0,0
-441,-13,0,0,0,0,0,0,0,0,0,-1,783,1037,0,0
-434,-13,0,0,0,0,0,0,0,0,0,-1,790,1037,0,0
-427,-13,0,0,0,0,0,0,0,0,0,-1,797,1037,0,0
-420,-13,0,0,0,0,0,0,0,0,0,-1,804,1037,0,0
-413,-13,0,0,0,0,0,0,0,0,0,-1,811,1037,0,0
-406,-13,0,0,0,0,0,0,0,0,0,-1,818,1037,0,0
-399,-13,0,0,0,0,0,0,0,0,0,-1,825,1037,0,0
-392,-13,0,0,0,0,0,0,0,0,0,-1,832,1037,0,0
-385,-13,0,0,0,0,0,0,0,0,0,-1,839,1037,0,0
-378,-13,0,0,0,0,0,0,0,0,0,-1,846,1037,0,0
-371,-13,0,0,0,0,0,0,0,0,0,-1,853,1037,0,0
-364,-13,0,0,0,0,0,0,0,0,0,-1,860,1037,0,0
-357,-13,0,0,0,0,0,0,0,0,0,-1,867,1037,0,0
-350,-13,0,0,0,0,0,0,0,0,0,-1,874,1037,0,0
-343,-13,0,0,0,0,0,0,0,0,0,-1,881,1037,0,0
-336,-13,0,0,0,0,0,0,0,0,0,-1,888,1037,0,0
-329,-13,0,0,0,0,0,0,0,0,0,-1,895,1037,0,0
-322,-13,0,0,0,0,0,0,0,0,0,-1,902,1037,0,0
-315,-13,0,0,0,0,0,0,0,0,0,-1,909,1037,0,0
-308,-13,0,0,0,0,0,0,0,0,0,-1,916,1037,0,0
-301,-13,0,0,0,0,0,0,0,0,0,-1,923,1037,0,0
-294,-13,0,0,0,0,0,0,0,0,0,-1,930,1037,0,0
-287,-13,0,0,0,0,0,0,0,0,0,-1,937,1037,0,0
-280,-13,0,0,0,0,0,0,0,0,0,-1,944,1037,0,0
-273,-13,0,0,0,0,0,0,0,0,0,-1,951,1037,0,0
-266,-13,0,0,0,0,0,0,0,0,0,-1,958,1037,0,0
-259,-13,0,0,0,0,0,0,0,0,0,-1,965,1037,0,0
-252,-13,0,0,0,0,0,0,0,0,0,-1,972,1037,0,0
-245,-13,0,0,0,0,0,0,0,0,0,-1,979,1037,0,0
-238,-13,0,0,0,0,0,0,0,0,0,-1,986,1037,0,0
-231,-13,0,0,0,0,0,0,0,0,0,-1,993,1037,0,0
-224,-13,0,0,0,0,0,0,0,0,0,-1,1000,1037,0,0
-217,-13,0,0,0,0,0,0,0,0,0,-1,1007,1037,0,0
-210,-13,0,0,0,0,0,0,0,0,0,-1,1014,1037,0,0
-203,-13,0,0,0,0,0,0,0,0,0,-1,1021,1037,0,0
-196,-13,0,0,0,0,0,0,0,0,0,-1,1028,1037,0,0
-189,-13,0,0,0,0,0,0,0,0,0,-1,1035,1037,0,0
-182,-13,0,0,0,0,0,0,0,0,0,-1,1042,1037,0,0
-175,-13,0,0,0,0,0,0,0,0,0,-1,1049,1037,0,0
-168,-13,0,0,0,0,0,0,0,0,0,-1,1056,1037,0,0
-161,-13,0,0,0,0,0,0,0,0,0,-1,1063,1037,0,0
-154,-13,0,0,0,0,0,0,0,0,0,-1,1070,1037,0,0
-147,-13,0,0,0,0,0,0,0,0,0,-1,1077,1037,0,0
-140,-13,0,0,0,0,0,0,0,0,0,-1,1084,1037,0,0
-133,-13,0,0,0,0,0,0,0,0,0,-1,1091,1037,0,0
-126,-13,0,0,0,0,0,0,0,0,0,-1,1098,1037,0,0
-119,-13,0,0,0,0,0,0,0,0,0,-1,1105,1037,0,0
-112,-13,0,0,0,0,0,0,0,0,0,-1,1112,1037,0,0
-105,-13,0,0,0,0,0,0,0,0,0,-1,1119,1037,0,0
-98,-13,0,0,0,0,0,0,0,0,0,-1,1126,1037,0,0
-91,-13,0,0,0,0,0,0,0,0,0,-1,1133,1037,0,0
-84,-13,0,0,0,0,0,0,0,0,0,-1,1140,1037,0,0
-77,-13,0,0,0,0,0,0,0,0,0,-1,1147,1037,0,0
-70,-13,0,0,0,0,0,0,0,0,0,-1,1154,1037,0,0
-63,-13,0,0,0,0,0,0,0,0,0,-1,1161,1037,0,0
-56,-13,0,0,0,0,0,0,0,0,0,-1,1168,1037,0,0
-49,-13,0,0,0,0,0,0,0,0,0,-1,1175,1037,0,0
-42,-13,0,0,0,0,0,0,0,0,0,-1,1182,1037,0,0
-35,-13,0,0,0,0,0,0,0,0,0,-1,1189,1037,0,0
-28,-13,0,0,0,0,0,0,0,0,0,-1,1196,1037,0,0
-21,-13,0,0,0,0,0,0,0,0,0,-1,1203,1037,0,0
-14,-13,0,0,0,0,0,0,0,0,0,-1,1210,1037,0,0
-7,-13,0,0,0,0,0,0,0,0,0,-1,1217,1037,0,0
0,-13,0,0,0,0,0,0,0,0,0,-1,1224,1037,0,0
7,-13,0,0,0,0,0,0,0,0,0,-1,1231,1037,0,0
14,-13,0,0,0,0,0,0,0,0,0,-1,1238,1037,0,0
21,-13,0,0,0,0,0,0,0,0,0,-1,1245,1037,0,0
28,-13,0,0,0,0,0,0,0,0,0,-1,1252,1037,0,0
35,-13,0,0,0,0,0,0,0,0,0,-1,1259,1037,0,0
42,-13,0,0,0,0,0,0,0,0,0,-1,1266,1037,0,0
49,-13,0,0,0,0,0,0,0,0,0,-1,1273,1037,0,0
56,-13,0,0,0,0,0,0,0,0,0,-1,1280,1037,0,0
63,-13,0,0,0,0,0,0,0,0,0,-1,1287,1037,0,0
70,-13,0,0,0,0,0,0,0,0,0,-1,1294,1037,0,0
77,-13,0,0,0,0,0,0,0,0,0,-1,1301,1037,0,0
84,-13,0,0,0,0,0,0,0,0,0,-1,1308,1037,0,0
91,-13,0,0,0,0,0,0,0,0,0,-1,1315,1037,0,0
98,-13,0,0,0,0,0,0,0,0,0,-1,1322,1037,0,0
105,-13,0,0,0,0,0,0,0,0,0,-1,1329,1037,0,0
112,-13,0,0,0,0,0,0,0,0,0,-1,1336,1037,0,0
119,-13,0,0,0,0,0,0,0,0,0,-1,1343,1037,0,0
126,-13,0,0,0,0,0,0,0,0,0,-1,1350,1037,0,0
133,-13,0,0,0,0,0,0,0,0,0,-1,1357,1037,0,0
140,-13,0,0,0,0,0,0,0,0,0,-1,1364,1037,0,0
147,-13,0,0,0,0,0,0,0,0,0,-1,1371,1037,0,0
154,-13,0,0,0,0,0,0,0,0,0,-1,1378,1037,0,0
161,-13,0,0,0,0,0,0,0,0,0,-1,1385,1037,0,0
168,-13,0,0,0,0,0,0,0,0,0,-1,1392,1037,0,0
175,-13,0,0,0,0,0,0,0,0,0,-1,1399,1037,0,0
182,-13,0,0,0,0,0,0,0,0,0,-1,1406,1037,0,0
189,-13,0,0,0,0,0,0,0,0,0,-1,1413,1037,0,0
196,-13,0,0,0,0,0,0,0,0,0,-1,1420,1037,0,0
203,-13,0,0,0,0,0,0,0,0,0,-1,1427,1037,0,0
210,-13,0,0,0,0,0,0,0,0,0,-1,1434,1037,0,0
217,-13,0,0,0,0,0,0,0,0,0,-1,1441,1037,0,0
224,-13,0,0,0,0,0,0,0,0,0,-1,1448,1037,0,0
231,-13,0,0,0,0,0,0,0,0,0,-1,1455,1037,0,0
238,-13,0,0,0,0,0,0,0,0,0,-1,1462,1037,0,0
245,-13,0,0,0,0,0,0,0,0,0,-1,1469,1037,0,0
252,-13,0,0,0,0,0,0,0,0,0,-1,1476,1037,0,0
259,-13,0,0,0,0,0,0,0,0,0,-1,1483,1037,0,0
266,-13,0,0,0,0,0,0,0,0,0,-1,1490,1037,0,0
273,-13,0,0,0,0,0,0,0,0,0,-1,1497,1037,0,0
280,-13,0,0,0,0,0,0,0,0,0,-1,1504,1037,0,0
287,-13,0,0,0,0,0,0,0,0,0,-1,1511,1037,0,0
294,-13,0,0,0,0,0,0,0,0,0,-1,1518,1037,0,0
301,-13,0,0,0,0,0,0,0,0,0,-1,1525,1037,0,0
308,-13,0,0,0,0,0,0,0,0,0,-1,1532,1037,0,0
315,-13,0,0,0,0,0,0,0,0,0,-1,1539,1037,0,0
322,-13,0,0,0,0,0,0,0,0,0,-1,1546,1037,0,0
329,-13,0,0,0,0,0,0,0,0,0,-1,1553,1037,0,0
336,-13,0,0,0,0,0,0,0,0,0,-1,1560,1037,0,0
343,-13,0,0,0,0,0,0,0,0,0,-1,1567,1037,0,0
350,-13,0,0,0,0,0,0,0,0,0,-1,1574,1037,0,0
357,-13,0,0,0,0,0,0,0,0,0,-1,1581,1037,0,0
364,-13,0,0,0,0,0,0,0,0,0,-1,1588,1037,0,0
371,-13,0,0,0,0,0,0,0,0,0,-1,1595,1037,0,0
378,-13,0,0,0,0,0,0,0,0,0,-1,1602,1037,0,0
385,-13,0,0,0,0,0,0,0,0,0,-1,1609,1037,0,0
392,-13,0,0,0,0,0,0,0,0,0,-1,1616,1037,0,0
399,-13,0,0,0,0,0,0,0,0,0,-1,1623,1037,0,0
406,-13,0,0,0,0,0,0,0,0,0,-1,1630,1037,0,0
413,-13,0,0,0,0,0,0,0,0,0,-1,1637,1037,0,0
420,-13,0,0,0,0,0,0,0,0,0,-1,1644,1037,0,0
427,-13,0,0,0,0,0,0,0,0,0,-1,1651,1037,0,0
434,-13,0,0,0,0,0,0,0,0,0,-1,1658,1037,0,0
441,-13,0,0,0,0,0,0,0,0,0,-1,1665,1037,0,0
448,-13,0,0,0,0,0,0,0,0,0,-1,1672,1037,0,0
455,-13,0,0,0,0,0,0,0,0,0,-1,1679,1037,0,0
462,-13,0,0,0,0,0,0,0,0,0,-1,1686,1037,0,0
469,-13,0,0,0,0,0,0,0,0,0,-1,1693,1037,0,0
476,-13,0,0,0,0,0,0,0,0,0,-1,1700,1037,0,0
483,-13,0,0,0,0,0,0,0,0,0,-1,1707,1037,0,0
490,-13,0,0,0,0,0,0,0,0,0,-1,1714,1037,0,0
497,-13,0,0,0,0,0,0,0,0,0,-1,1721,1037,0,0
504,-13,0,0,0,0,0,0,0,0,0,-1,1728,1037,0,0
511,-13,0,0,0,0,0,0,0,0,0,-1,1735,1037,0,0
518,-13,0,0,0,0,0,0,0,0,0,-1,1742,1037,0,0
525,-13,0,0,0,0,0,0,0,0,0,-1,1749,1037,0,0
532,-13,0,0,0,0,0,0,0,0,0,-1,1756,1037,0,0
539,-13,0,0,0,0,0,0,0,0,0,-1,1763,1037,0,0
546,-13,0,0,0,0,0,0,0,0,0,-1,1770,1037,0,0
553,-13,0,0,0,0,0,0,0,0,0,-1,1777,1037,0,0
560,-13,0,0,0,0,0,0,0,0,0,-1,1784,1037,0,0
567,-13,0,0,0,0,0,0,0,0,0,-1,1791,1037,0,0
574,-13,0,0,0,0,0,0,0,0,0,-1,1798,1037,0,0
581,-13,0,0,0,0,0,0,0,0,0,-1,1805,1037,0,0
588,-13,0,0,0,0,0,0,0,0,0,-1,1812,1037,0,0
595,-13,0,0,0,0,0,0,0,0,0,-1,1819,1037,0,0
602,-13,0,0,0,0,0,0,0,0,0,-1,1826,1037,0,0
609,-13,0,0,0,0,0,0,0,0,0,-1,1833,1037,0,0
616,-13,0,0,0,0,0,0,0,0,0,-1,1840,1037,0,0
623,-13,0,0,0,0,0,0,0,0,0,-1,1847,1037,0,0
630,-13,0,0,0,0,0,0,0,0,0,-1,1854,1037,0,0
637,-13,0,0,0,0,0,0,0,0,0,-1,1861,1037,0,0
644,-13,0,0,0,0,0,0,0,0,0,-1,1868,1037,0,0
651,-13,49.0703,2.64624,0.00467954,0.00171199,-0.000286579,0.00470697,0.00168457,-0.095396,0.00275391,0.0381779,1875,1037,49.0703,-2.64624
658,-13,49.2355,2.7157,0.00282041,0.00135839,-0.000484177,0.00296622,0.00121258,-0.2925,0.00172202,0.0446752,1882,1037,49.2355,-2.71573
665,-13,49.2935,2.67163,0.00148031,0.00110586,-0.000330696,0.0016731,0.000913067,-0.527816,0.000967312,0.0448496,1889,1037,49.2934,-2.67163
672,-13,49.1338,2.5979,0.000552139,0.000994673,0.000104422,0.00101807,0.000528737,1.35033,0.000587932,0.036921,1896,1037,49.1338,-2.59792
679,-13,48.9287,2.55212,-9.08823e-05,0.000982508,0.000734044,0.00135513,-0.000463507,1.10106,0.00109125,0.0374554,1903,1037,48.9287,-2.5521
686,-13,48.908,2.42383,-0.000604573,0.000757004,0.00138959,0.00162361,-0.00147118,1.01317,0.0017875,0.0388334,1910,1037,48.9079,-2.42381
693,-13,48.9558,2.31909,-0.00087545,0.000406385,0.0020392,0.00190301,-0.00237208,0.93766,0.00247317,0.0384649,1917,1037,48.9558,-2.3191
700,-13,48.9774,2.36255,-0.00106677,0.000203882,0.00246346,0.00211262,-0.00297551,0.911598,0.00295168,0.0358895,1924,1037,48.9774,-2.36253
707,-13,49.0297,2.51404,-0.00153671,0.000257867,0.00266943,0.00217678,-0.00345562,0.947533,0.00327969,0.0313864,1931,1037,49.0297,-2.51406
714,-13,49,2.74084,-0.00215161,0.000544548,0.00273632,0.00224684,-0.0038539,1.01428,0.00356276,0.0276354,1938,1037,49,-2.7408
721,-13,48.8956,2.96997,0,0,0,0,0,0,0,-1,1945,1037,48.8957,-2.97001
728,-13,48.809,5.91956,0,0,0,0,0,0,0,-1,1952,1037,48.8089,-5.91961
735,-13,48.7583,5.90625,-0.00397699,0.00293852,0.00251862,0.00375856,-0.00479703,1.25603,0.00495169,0.0288492,1959,1037,48.7583,-5.90629
742,-13,48.7432,5.85547,-0.00341644,0.00442103,0.00142825,0.00467319,-0.0036686,1.39604,0.00482776,0.0194646,1966,1037,48.7431,-5.85547
749,-13,48.7683,5.78711,-0.00291072,0.00780563,-0.000424575,0.00782242,-0.00292752,-1.53126,0.00641737,0.0259143,1973,1037,48.7683,-5.78711
756,-13,48.7676,5.69922,-0.00193699,0.0118649,-0.00271428,0.0123795,-0.00245159,-1.38343,0.00917999,0.0183486,1980,1037,48.7675,-5.69927
763,-13,48.7371,5.58801,9.91628e-05,0.0171528,-0.00545235,0.018747,-0.00149502,-1.28634,0.013025,0.0245712,1987,1037,48.7371,-5.58802
770,-13,48.6396,5.52734,0.00351971,0.0246005,-0.00950699,0.0282546,-0.000134355,-1.20385,0.0188813,0.0210727,1994,1037,48.6397,-5.52734
777,-13,48.4866,5.42114,0.00947506,0.0356383,-0.0153265,0.0427069,0.00240645,-1.13867,0.027704,0.0164087,2001,1037,48.4866,-5.42116
784,-13,48.5005,5.37061,0.0166362,0.0482534,-0.0219516,0.0594964,0.00539323,-1.09746,0.0379943,0.0333038,2008,1037,48.5005,-5.37063
791,-13,48.8276,5.14478,0.0253927,0.0631259,-0.0296715,0.079421,0.00909762,-1.06858,0.0501904,0.0435979,2015,1037,48.8277,-5.14483
798,-13,48.9761,4.64795,0.0362021,0.0808113,-0.0386128,0.103099,0.0139147,-1.04731,0.0645957,0.0475246,2022,1037,48.9761,-4.64795
805,-13,49.1147,4.38977,0,0,0,0,0,0,0,-1,2029,1037,49.1148,-4.38979
812,-13,48.3374,3.74231,0,0,0,0,0,0,0,-1,2036,1037,48.3374,-3.74229
-700,-20,-36.1505,1.29944,0.00514201,-0.00520701,-0.01309,0.0140432,-0.0141082,-0.597173,0.0162532,0.0472608,524,1044,-36.1505,-1.29945
-693,-20,-36.1779,1.44434,-0.00295808,0.00496383,-0.0147843,0.0163086,-0.0143028,-0.916283,0.0176861,0.0438618,531,1044,-36.1779,-1.44433
-686,-20,-36.3089,1.62476,-0.00705444,0.0122393,-0.0137492,0.0193884,-0.0142035,-1.09131,0.0194711,0.0451329,538,1044,-36.3089,-1.62479
-679,-20,-36.309,1.74072,-0.00924268,0.0167241,-0.0121595,0.0215289,-0.0140476,-1.19448,0.0206909,0.0460514,545,1044,-36.309,-1.7407
-672,-20,-36.3357,1.81555,-0.0101638,0.0192414,-0.0104382,0.02257,-0.0134923,-1.26211,0.0210393,0.0451894,552,1044,-36.3357,-1.81554
-665,-20,-36.3458,2.08704,-0.0103206,0.0202449,-0.00876509,0.0225801,-0.0126557,-1.31043,0.0206106,0.0423675,559,1044,-36.3458,-2.08704
-658,-20,-36.4548,2.29712,-0.00989919,0.0200119,-0.00718788,0.0216495,-0.0115368,-1.34679,0.0194544,0.0435968,566,1044,-36.4548,-2.2971
-651,-20,-36.4931,2.38428,-0.0089769,0.0187125,-0.0058387,0.0198933,-0.0101577,-1.37125,0.0176509,0.0396795,573,1044,-36.4931,-2.38424
-644,-20,-36.4684,2.4447,-0.0080931,0.0172219,-0.00473199,0.0180775,-0.00894871,-1.39192,0.0158975,0.0278279,580,1044,-36.4684,-2.44476
-637,-20,-36.5509,2.55334,-0.00684999,0.0147875,-0.00417924,0.0155667,-0.00762914,-1.38648,0.013651,0.0202862,587,1044,-36.5509,-2.55329
-630,-20,-36.6318,2.74219,-0.00484767,0.0121046,-0.0034619,0.0127843,-0.00552739,-1.37692,0.0108455,0.016974,594,1044,-36.6318,-2.7422
-623,-20,-36.6558,2.9281,-0.0026527,0.00882076,-0.00288884,0.00950707,-0.00333901,-1.33755,0.0076964,0.0147345,601,1044,-36.6558,-2.92816
-616,-20,-36.6496,3.0686,-0.00105793,0.00525706,-0.0027354,0.00627715,-0.00207801,-1.21385,0.00502282,0.0141775,608,1044,-36.6496,-3.06857
-609,-20,-36.6644,3.23096,-0.00013924,0.00272608,-0.00294537,0.00456874,-0.0019819,-1.01176,0.00387906,0.0163349,615,1044,-36.6644,-3.231
-602,-20,-36.639,3.33972,0.000431007,0.000833031,-0.00328809,0.00392625,-0.00266221,-0.815927,0.00382711,0.0135884,622,1044,-36.639,-3.33977
-595,-20,-36.6278,3.40137,0.000861545,-5.85151e-05,-0.00349487,0.00392654,-0.00312351,-0.719959,0.00407914,0.0316775,629,1044,-36.6278,-3.40137
-588,-20,-36.5577,3.19897,0,0,0,0,0,0,0,-1,636,1044,-36.5578,-3.19895
-581,-20,-36.4972,0.692993,0.00175475,-0.000611361,-0.00333643,0.00411166,-0.00296827,-0.61502,0.00410533,0.0325835,643,1044,-36.4972,-0.692995
-574,-20,-36.4664,0.740967,0.00190044,-0.000411536,-0.00314359,0.00409386,-0.00260495,-0.609208,0.00389927,0.0371668,650,1044,-36.4663,-0.741006
-567,-20,-36.3823,0.709595,0.00188063,0.000173087,-0.00285593,0.00400768,-0.00195396,-0.640153,0.00350937,0.042466,657,1044,-36.3823,-0.709573
-560,-20,-36.2618,0.810303,0.00186578,0.00109314,-0.002529,0.00403779,-0.00107888,-0.709606,0.00311441,0.0422039,664,1044,-36.2618,-0.810352
-553,-20,-36.2762,0.734253,0.00193395,0.00220042,-0.0022371,0.00430824,-0.000173876,-0.815142,0.00293184,0.0402308,671,1044,-36.2763,-0.734205
-546,-20,-36.3108,0.639282,0.00227201,0.00324648,-0.00209727,0.00491237,0.000606122,-0.899533,0.00309273,0.0411129,678,1044,-36.3108,-0.63924
-539,-20,-36.4213,0.64856,0.00307695,0.00406126,-0.00245189,0.0060699,0.00106831,-0.884444,0.00374168,0.0449329,685,1044,-36.4213,-0.648593
-532,-20,-36.4768,0.486572,0,0,0,0,0,0,0,-1,692,1044,-36.4768,-0.486531
-525,-20,0,0,0,0,0,0,0,0,0,-1,699,1044,0,0
-518,-20,0,0,0,0,0,0,0,0,0,-1,706,1044,0,0
-511,-20,0,0,0,0,0,0,0,0,0,-1,713,1044,0,0
-504,-20,0,0,0,0,0,0,0,0,0,-1,720,1044,0,0
-497,-20,0,0,0,0,0,0,0,0,0,-1,727,1044,0,0
-490,-20,0,0,0,0,0,0,0,0,0,-1,734,1044,0,0
-483,-20,0,0,0,0,0,0,0,0,0,-1,741,1044,0,0
-476,-20,0,0,0,0,0,0,0,0,0,-1,748,1044,0,0
-469,-20,0,0,0,0,0,0,0,0,0,-1,755,1044,0,0
-462,-20,0,0,0,0,0,0,0,0,0,-1,762,1044,0,0
-455,-20,0,0,0,0,0,0,0,0,0,-1,769,1044,0,0
-448,-20,0,0,0,0,0,0,0,0,0,-1,776,1044,0,0
-441,-20,0,0,0,0,0,0,0,0,0,-1,783,1044,0,0
-434,-20,0,0,0,0,0,0,0,0,0,-1,790,1044,0,0
-427,-20,0,0,0,0,0,0,0,0,0,-1,797,1044,0,0
-420,-20,0,0,0,0,0,0,0,0,0,-1,804,1044,0,0
-413,-20,0,0,0,0,0,0,0,0,0,-1,811,1044,0,0
-406,-20,0,0,0,0,0,0,0,0,0,-1,818,1044,0,0
-399,-20,0,0,0,0,0,0,0,0,0,-1,825,1044,0,0
-392,-20,0,0,0,0,0,0,0,0,0,-1,832,1044,0,0
-385,-20,0,0,0,0,0,0,0,0,0,-1,839,1044,0,0
-378,-20,0,0,0,0,0,0,0,0,0,-1,846,1044,0,0
-371,-20,0,0,0,0,0,0,0,0,0,-1,853,1044,0,0
-364,-20,0,0,0,0,0,0,0,0,0,-1,860,1044,0,0
-357,-20,0,0,0,0,0,0,0,0,0,-1,867,1044,0,0
-350,-20,0,0,0,0,0,0,0,0,0,-1,874,1044,0,0
-343,-20,0,0,0,0,0,0,0,0,0,-1,881,1044,0,0
-336,-20,0,0,0,0,0,0,0,0,0,-1,888,1044,0,0
-329,-20,0,0,0,0,0,0,0,0,0,-1,895,1044,0,0
-322,-20,0,0,0,0,0,0,0,0,0,-1,902,1044,0,0
-315,-20,0,0,0,0,0,0,0,0,0,-1,909,1044,0,0
-308,-20,0,0,0,0,0,0,0,0,0,-1,916,1044,0,0
-301,-20,0,0,0,0,0,0,0,0,0,-1,923,1044,0,0
-294,-20,0,0,0,0,0,0,0,0,0,-1,930,1044,0,0
-287,-20,0,0,0,0,0,0,0,0,0,-1,937,1044,0,0
-280,-20,0,0,0,0,0,0,0,0,0,-1,944,1044,0,0
-273,-20,0,0,0,0,0,0,0,0,0,-1,951,1044,0,0
-266,-20,0,0,0,0,0,0,0,0,0,-1,958,1044,0,0
-259,-20,0,0,0,0,0,0,0,0,0,-1,965,1044,0,0
-252,-20,0,0,0,0,0,0,0,0,0,-1,972,1044,0,0
-245,-20,0,0,0,0,0,0,0,0,0,-1,979,1044,0,0
-238,-20,0,0,0,0,0,0,0,0,0,-1,986,1044,0,0
-231,-20,0,0,0,0,0,0,0,0,0,-1,993,1044,0,0
-224,-20,0,0,0,0,0,0,0,0,0,-1,1000,1044,0,0
-217,-20,0,0,0,0,0,0,0,0,0,-1,1007,1044,0,0
-210,-20,0,0,0,0,0,0,0,0,0,-1,1014,1044,0,0
-203,-20,0,0,0,0,0,0,0,0,0,-1,1021,1044,0,0
-196,-20,0,0,0,0,0,0,0,0,0,-1,1028,1044,0,0
-189,-20,0,0,0,0,0,0,0,0,0,-1,1035,1044,0,0
-182,-20,0,0,0,0,0,0,0,0,0,-1,1042,1044,0,0
-175,-20,0,0,0,0,0,0,0,0,0,-1,1049,1044,0,0
-168,-20,0,0,0,0,0,0,0,0,0,-1,1056,1044,0,0
-161,-20,0,0,0,0,0,0,0,0,0,-1,1063,1044,0,0
-154,-20,0,0,0,0,0,0,0,0,0,-1,1070,1044,0,0
-147,-20,0,0,0,0,0,0,0,0,0,-1,1077,1044,0,0
-140,-20,0,0,0,0,0,0,0,0,0,-1,1084,1044,0,0
-133,-20,0,0,0,0,0,0,0,0,0,-1,1091,1044,0,0
-126,-20,0,0,0,0,0,0,0,0,0,-1,1098,1044,0,0
-119,-20,0,0,0,0,0,0,0,0,0,-1,1105,1044,0,0
-112,-20,0,0,0,0,0,0,0,0,0,-1,1112,1044,0,0
-105,-20,0,0,0,0,0,0,0,0,0,-1,1119,1044,0,0
-98,-20,0,0,0,0,0,0,0,0,0,-1,1126,1044,0,0
-91,-20,0,0,0,0,0,0,0,0,0,-1,1133,1044,0,0
-84,-20,0,0,0,0,0,0,0,0,0,-1,1140,1044,0,0
-77,-20,0,0,0,0,0,0,0,0,0,-1,1147,1044,0,0
-70,-20,0,0,0,0,0,0,0,0,0,-1,1154,1044,0,0
-63,-20,0,0,0,0,0,0,0,0,0,-1,1161,1044,0,0
-56,-20,0,0,0,0,0,0,0,0,0,-1,1168,1044,0,0
-49,-20,0,0,0,0,0,0,0,0,0,-1,1175,1044,0,0
-42,-20,0,0,0,0,0,0,0,0,0,-1,1182,1044,0,0
-35,-20,0,0,0,0,0,0,0,0,0,-1,1189,1044,0,0
-28,-20,0,0,0,0,0,0,0,0,0,-1,1196,1044,0,0
-21,-20,0,0,0,0,0,0,0,0,0,-1,1203,1044,0,0
-14,-20,0,0,0,0,0,0,0,0,0,-1,1210,1044,0,0
-7,-20,0,0,0,0,0,0,0,0,0,-1,1217,1044,0,0
0,-20,0,0,0,0,0,0,0,0,0,-1,1224,1044,0,0
7,-20,0,0,0,0,0,0,0,0,0,-1,1231,1044,0,0
14,-20,0,0,0,0,0,0,0,0,0,-1,1238,1044,0,0
21,-20,0,0,0,0,0,0,0,0,0,-1,1245,1044,0,0
28,-20,0,0,0,0,0,0,0,0,0,-1,1252,1044,0,0
35,-20,0,0,0,0,0,0,0,0,0,-1,1259,1044,0,0
42,-20,0,0,0,0,0,0,0,0,0,-1,1266,1044,0,0
49,-20,0,0,0,0,0,0,0,0,0,-1,1273,1044,0,0
56,-20,0,0,0,0,0,0,0,0,0,-1,1280,1044,0,0
63,-20,0,0,0,0,0,0,0,0,0,-1,1287,1044,0,0
70,-20,0,0,0,0,0,0,0,0,0,-1,1294,1044,0,0
77,-20,0,0,0,0,0,0,0,0,0,-1,1301,1044,0,0
84,-20,0,0,0,0,0,0,0,0,0,-1,1308,1044,0,0
91,-20,0,0,0,0,0,0,0,0,0,-1,1315,1044,0,0
98,-20,0,0,0,0,0,0,0,0,0,-1,1322,1044,0,0
105,-20,0,0,0,0,0,0,0,0,0,-1,1329,1044,0,0
112,-20,0,0,0,0,0,0,0,0,0,-1,1336,1044,0,0
119,-20,0,0,0,0,0,0,0,0,0,-1,1343,1044,0,0
126,-20,0,0,0,0,0,0,0,0,0,-1,1350,1044,0,0
133,-20,0,0,0,0,0,0,0,0,0,-1,1357,1044,0,0
140,-20,0,0,0,0,0,0,0,0,0,-1,1364,1044,0,0
147,-20,0,0,0,0,0,0,0,0,0,-1,1371,1044,0,0
154,-20,0,0,0,0,0,0,0,0,0,-1,1378,1044,0,0
161,-20,0,0,0,0,0,0,0,0,0,-1,1385,1044,0,0
168,-20,0,0,0,0,0,0,0,0,0,-1,1392,1044,0,0
175,-20,0,0,0,0,0,0,0,0,0,-1,1399,1044,0,0
182,-20,0,0,0,0,0,0,0,0,0,-1,1406,1044,0,0
189,-20,0,0,0,0,0,0,0,0,0,-1,1413,1044,0,0
196,-20,0,0,0,0,0,0,0,0,0,-1,1420,1044,0,0
203,-20,0,0,0,0,0,0,0,0,0,-1,1427,1044,0,0
210,-20,0,0,0,0,0,0,0,0,0,-1,1434,1044,0,0
217,-20,0,0,0,0,0,0,0,0,0,-1,1441,1044,0,0
224,-20,0,0,0,0,0,0,0,0,0,-1,1448,1044,0,0
231,-20,0,0,0,0,0,0,0,0,0,-1,1455,1044,0,0
238,-20,0,0,0,0,0,0,0,0,0,-1,1462,1044,0,0
245,-20,0,0,0,0,0,0,0,0,0,-1,1469,1044,0,0
252,-20,0,0,0,0,0,0,0,0,0,-1,1476,1044,0,0
259,-20,0,0,0,0,0,0,0,0,0,-1,1483,1044,0,0
266,-20,0,0,0,0,0,0,0,0,0,-1,1490,1044,0,0
273,-20,0,0,0,0,0,0,0,0,0,-1,1497,1044,0,0
280,-20,0,0,0,0,0,0,0,0,0,-1,1504,1044,0,0
287,-20,0,0,0,0,0,0,0,0,0,-1,1511,1044,0,0
294,-20,0,0,0,0,0,0,0,0,0,-1,1518,1044,0,0
301,-20,0,0,0,0,0,0,0,0,0,-1,1525,1044,0,0
308,-20,0,0,0,0,0,0,0,0,0,-1,1532,1044,0,0
315,-20,0,0,0,0,0,0,0,0,0,-1,1539,1044,0,0
322,-20,0,0,0,0,0,0,0,0,0,-1,1546,1044,0,0
329,-20,0,0,0,0,0,0,0,0,0,-1,1553,1044,0,0
336,-20,0,0,0,0,0,0,0,0,0,-1,1560,1044,0,0
343,-20,0,0,0,0,0,0,0,0,0,-1,1567,1044,0,0
350,-20,0,0,0,0,0,0,0,0,0,-1,1574,1044,0,0
357,-20,0,0,0,0,0,0,0,0,0,-1,1581,1044,0,0
364,-20,0,0,0,0,0,0,0,0,0,-1,1588,1044,0,0
371,-20,0,0,0,0,0,0,0,0,0,-1,1595,1044,0,0
378,-20,0,0,0,0,0,0,0,0,0,-1,1602,1044,0,0
385,-20,0,0,0,0,0,0,0,0,0,-1,1609,1044,0,0
392,-20,0,0,0,0,0,0,0,0,0,-1,1616,1044,0,0
399,-20,0,0,0,0,0,0,0,0,0,-1,1623,1044,0,0
406,-20,0,0,0,0,0,0,0,0,0,-1,1630,1044,0,0
413,-20,0,0,0,0,0,0,0,0,0,-1,1637,1044,0,0
420,-20,0,0,0,0,0,0,0,0,0,-1,1644,1044,0,0
427,-20,0,0,0,0,0,0,0,0,0,-1,1651,1044,0,0
434,-20,0,0,0,0,0,0,0,0,0,-1,1658,1044,0,0
441,-20,0,0,0,0,0,0,0,0,0,-1,1665,1044,0,0
448,-20,0,0,0,0,0,0,0,0,0,-1,1672,1044,0,0
455,-20,0,0,0,0,0,0,0,0,0,-1,1679,1044,0,0
462,-20,0,0,0,0,0,0,0,0,0,-1,1686,1044,0,0
469,-20,0,0,0,0,0,0,0,0,0,-1,1693,1044,0,0
476,-20,0,0,0,0,0,0,0,0,0,-1,1700,1044,0,0
483,-20,0,0,0,0,0,0,0,0,0,-1,1707,1044,0,0
490,-20,0,0,0,0,0,0,0,0,0,-1,1714,1044,0,0
497,-20,0,0,0,0,0,0,0,0,0,-1,1721,1044,0,0
504,-20,0,0,0,0,0,0,0,0,0,-1,1728,1044,0,0
511,-20,0,0,0,0,0,0,0,0,0,-1,1735,1044,0,0
518,-20,0,0,0,0,0,0,0,0,0,-1,1742,1044,0,0
525,-20,0,0,0,0,0,0,0,0,0,-1,1749,1044,0,0
532,-20,0,0,0,0,0,0,0,0,0,-1,1756,1044,0,0
539,-20,0,0,0,0,0,0,0,0,0,-1,1763,1044,0,0
546,-20,0,0,0,0,0,0,0,0,0,-1,1770,1044,0,0
553,-20,0,0,0,0,0,0,0,0,0,-1,1777,1044,0,0
560,-20,0,0,0,0,0,0,0,0,0,-1,1784,1044,0,0
567,-20,0,0,0,0,0,0,0,0,0,-1,1791,1044,0,0
574,-20,0,0,0,0,0,0,0,0,0,-1,1798,1044,0,0
581,-20,0,0,0,0,0,0,0,0,0,-1,1805,1044,0,0
588,-20,0,0,0,0,0,0,0,0,0,-1,1812,1044,0,0
595,-20,0,0,0,0,0,0,0,0,0,-1,1819,1044,0,0
602,-20,0,0,0,0,0,0,0,0,0,-1,1826,1044,0,0
609,-20,0,0,0,0,0,0,0,0,0,-1,1833,1044,0,0
616,-20,0,0,0,0,0,0,0,0,0,-1,1840,1044,0,0
623,-20,0,0,0,0,0,0,0,0,0,-1,1847,1044,0,0
630,-20,0,0,0,0,0,0,0,0,0,-1,1854,1044,0,0
637,-20,0,0,0,0,0,0,0,0,0,-1,1861,1044,0,0
644,-20,0,0,0,0,0,0,0,0,0,-1,1868,1044,0,0
651,-20,48.9935,2.63208,0.00403684,0.00184774,-0.00048695,0.00414028,0.00174431,-0.209296,0.00240024,0.041304,1875,1044,48.9935,-2.63213
658,-20,48.9486,2.6543,0.00239928,0.0014147,-0.000599735,0.00268289,0.00113108,-0.441737,0.00155531,0.0435984,1882,1044,48.9487,-2.65425
665,-20,49.0444,2.6991,0.00124733,0.00108793,-0.000409744,0.00158505,0.000750206,-0.689338,0.000915566,0.0401485,1889,1044,49.0444,-2.69912
672,-20,49.0541,2.59241,0.000490139,0.000925917,1.10346e-05,0.000926196,0.000489859,1.5455,0.000535037,0.0252301,1896,1044,49.054,-2.59242
679,-20,49.0079,2.48132,-4.77965e-06,0.000866496,0.000587841,0.00116253,-0.000300809,1.10428,0.00089235,0.0275851,1903,1044,49.0079,-2.48137
686,-20,49.005,2.3313,-0.000452535,0.000610213,0.00120081,0.00139196,-0.00123428,0.993704,0.00151717,0.0378997,1910,1044,49.005,-2.33131
693,-20,48.942,2.17944,-0.000725096,0.000254443,0.00181492,0.00164452,-0.00211517,0.917187,0.00217632,0.0419389,1917,1044,48.9421,-2.17939
700,-20,48.9307,2.34387,-0.000934076,5.49938e-05,0.00225056,0.00186471,-0.0027438,0.893549,0.00267681,0.0379026,1924,1044,48.9306,-2.34389
707,-20,49.0286,2.49585,-0.00140706,9.77334e-05,0.00249327,0.00194966,-0.00325899,0.931939,0.00303872,0.0304682,1931,1044,49.0286,-2.49585
714,-20,49.0287,2.72729,-0.00201664,0.000365717,0.00261407,0.00204722,-0.00369814,0.999182,0.00336242,0.025,1938,1044,49.0287,-2.72728
721,-20,48.9178,2.81982,0,0,0,0,0,0,0,-1,1945,1044,48.9178,-2.8198
728,-20,49.1316,5.91455,0,0,0,0,0,0,0,-1,1952,1044,49.1316,-5.91459
735,-20,48.8569,5.90442,-0.00386867,0.00258941,0.00255137,0.00347573,-0.00475499,1.23645,0.0047711,0.0286247,1959,1044,48.857,-5.90447
742,-20,48.639,5.80249,-0.00329217,0.0040025,0.00140776,0.00426475,-0.00355442,1.38662,0.00452061,0.023465,1966,1044,48.639,-5.80243
749,-20,48.6831,5.75684,-0.00247995,0.00736638,-0.00070032,0.00741594,-0.00252951,-1.50015,0.00596856,0.024752,1973,1044,48.6831,-5.75686
756,-20,48.6776,5.68286,-0.00120801,0.0113924,-0.00322721,0.0121708,-0.00198648,-1.3341,0.00885067,0.0180194,1980,1044,48.6776,-5.68286
763,-20,48.6017,5.57043,0.00120916,0.0166137,-0.00638136,0.0189138,-0.0010909,-1.22486,0.0129881,0.0256006,1987,1044,48.6016,-5.57039
770,-20,48.5262,5.53979,0.00527997,0.0240346,-0.0111744,0.029245,6.958e-05,-1.13449,0.0194735,0.0221762,1994,1044,48.5262,-5.53976
777,-20,48.4146,5.35901,0.012297,0.0351366,-0.0182675,0.0452601,0.00217348,-1.06475,0.0294756,0.0147223,2001,1044,48.4146,-5.35906
784,-20,48.3911,5.2605,0.0206985,0.047872,-0.026399,0.0639754,0.00459511,-1.02306,0.0412041,0.0182895,2008,1044,48.3912,-5.26056
791,-20,48.3899,5.07837,0.0309146,0.0629068,-0.0359093,0.0862216,0.00759974,-0.994934,0.0551227,0.033917,2015,1044,48.3898,-5.07838
798,-20,48.3186,3.83008,0.0435463,0.0809548,-0.0470722,0.112903,0.0115983,-0.974509,0.0717157,0.045736,2022,1044,48.3187,-3.83008
805,-20,48.4043,3.05054,0,0,0,0,0,0,0,-1,2029,1044,48.4043,-3.05052
812,-20,48.0142,2.34863,0,0,0,0,0,0,0,-1,2036,1044,48.0141,-2.34866
-700,-27,-35.7971,1.36731,0.000105976,-0.00602568,-0.0218595,0.0191136,-0.0250333,-0.715727,0.0255645,0.0453871,524,1051,-35.7971,-1.3673
-693,-27,-35.7845,1.51404,-0.00815344,0.00509815,-0.0224709,0.0218998,-0.024955,-0.928766,0.0270708,0.0433805,531,1051,-35.7845,-1.51402
-686,-27,-35.3528,2.23474,-0.0119815,0.0127532,-0.0204075,0.0242483,-0.0234767,-1.05781,0.0275552,0.0434988,538,1051,-35.3528,-2.23472
-679,-27,-35.5936,2.06128,-0.0136053,0.0174959,-0.0177196,0.0255208,-0.0216302,-1.14555,0.0272535,0.0443111,545,1051,-35.5936,-2.06123
-672,-27,-35.7894,1.90784,-0.0138073,0.0201307,-0.0149095,0.0257501,-0.0194268,-1.21035,0.0261679,0.0445573,552,1051,-35.7893,-1.90779
-665,-27,-36.0752,1.72339,-0.0131588,0.0211186,-0.0122384,0.0250396,-0.0170799,-1.26074,0.024462,0.043442,559,1051,-36.0752,-1.72336
-658,-27,-36.4715,1.8938,-0.0119553,0.0207671,-0.00981832,0.023487,-0.0146752,-1.30055,0.0222279,0.0412182,566,1051,-36.4715,-1.8938
-651,-27,-36.3005,2.21045,-0.0103639,0.0192866,-0.00777856,0.0212033,-0.0122806,-1.3292,0.0195594,0.0367845,573,1051,-36.3005,-2.21042
-644,-27,-36.3156,2.30237,-0.0090539,0.0175644,-0.00616298,0.0189221,-0.0104116,-1.35396,0.0171717,0.0186484,580,1051,-36.3156,-2.30236
-637,-27,-36.3735,2.43079,-0.00738566,0.0149998,-0.00497202,0.0160544,-0.00844031,-1.36178,0.014368,0.0157045,587,1051,-36.3735,-2.43074
-630,-27,-36.4428,2.72412,-0.00508576,0.0119905,-0.00377952,0.0127896,-0.00588489,-1.36243,0.0110247,0.0204328,594,1051,-36.4428,-2.72415
-623,-27,-36.4465,2.92822,-0.00274499,0.00861347,-0.00285256,0.00928961,-0.00342113,-1.33806,0.00759479,0.0169907,601,1051,-36.4464,-2.92821
-616,-27,-36.4351,3.10217,-0.00105109,0.00504726,-0.00242227,0.00589229,-0.00189613,-1.23514,0.0046898,0.0136096,608,1051,-36.4351,-3.10212
-609,-27,-36.4604,3.27844,-0.000188964,0.00261867,-0.00240401,0.00399873,-0.00156902,-1.04967,0.003315,0.0143853,615,1051,-36.4604,-3.27844
-602,-27,-36.4263,3.45715,0.000289773,0.000761889,-0.00256121,0.0030979,-0.00204623,-0.831352,0.00299058,0.0132541,622,1051,-36.4263,-3.4572
-595,-27,-36.46,3.5686,0.000633198,-8.58234e-05,-0.00267812,0.00297583,-0.00242845,-0.718677,0.00312549,0.0155266,629,1051,-36.46,-3.5686
-588,-27,-36.6885,3.63086,0,0,0,0,0,0,0,-1,636,1051,-36.6885,-3.63089
-581,-27,-36.422,0.798218,0.00144051,-0.000552148,-0.00243297,0.00307325,-0.00218489,-0.591058,0.00305019,0.0255678,643,1051,-36.422,-0.798207
-574,-27,-36.4319,0.90686,0.0015914,-0.000360136,-0.00225418,0.00307194,-0.00184068,-0.58114,0.00286584,0.035671,650,1051,-36.4319,-0.906902
-567,-27,-36.2512,0.778687,0.00161097,0.000168084,-0.00204971,0.0030625,-0.00128344,-0.616183,0.00257826,0.0437816,657,1051,-36.2512,-0.77865
-560,-27,-36.1266,0.71228,0.0016483,0.000985444,-0.00187231,0.00321829,-0.000584547,-0.697798,0.00236459,0.0445588,664,1051,-36.1266,-0.712282
-553,-27,-36.256,0.831055,0.00179997,0.00194366,-0.00179087,0.00366413,7.95091e-05,-0.805446,0.00241669,0.0400861,671,1051,-36.2561,-0.831013
-546,-27,-36.3632,0.485962,0,0,0,0,0,0,0,-1,678,1051,-36.3632,-0.485906
-539,-27,-36.5019,0.572021,0.00313817,0.00335676,-0.00250424,0.0057541,0.000740839,-0.807207,0.00361451,0.046414,685,1051,-36.5019,-0.572036
-532,-27,-36.5242,0.85083,0.0043962,0.00408552,-0.00340875,0.00765315,0.000828568,-0.762629,0.00484956,0.0470577,692,1051,-36.5242,-0.850796
-525,-27,0,0,0,0,0,0,0,0,0,-1,699,1051,0,0
-518,-27,0,0,0,0,0,0,0,0,0,-1,706,1051,0,0
-511,-27,0,0,0,0,0,0,0,0,0,-1,713,1051,0,0
-504,-27,0,0,0,0,0,0,0,0,0,-1,720,1051,0,0
-497,-27,0,0,0,0,0,0,0,0,0,-1,727,1051,0,0
-490,-27,0,0,0,0,0,0,0,0,0,-1,734,1051,0,0
-483,-27,0,0,0,0,0,0,0,0,0,-1,741,1051,0,0
-476,-27,0,0,0,0,0,0,0,0,0,-1,748,1051,0,0
-469,-27,0,0,0,0,0,0,0,0,0,-1,755,1051,0,0
-462,-27,0,0,0,0,0,0,0,0,0,-1,762,1051,0,0
-455,-27,0,0,0,0,0,0,0,0,0,-1,769,1051,0,0
-448,-27,0,0,0,0,0,0,0,0,0,-1,776,1051,0,0
-441,-27,0,0,0,0,0,0,0,0,0,-1,783,1051,0,0
-434,-27,0,0,0,0,0,0,0,0,0,-1,790,1051,0,0
-427,-27,0,0,0,0,0,0,0,0,0,-1,797,1051,0,0
-420,-27,0,0,0,0,0,0,0,0,0,-1,804,1051,0,0
-413,-27,0,0,0,0,0,0,0,0,0,-1,811,1051,0,0
-406,-27,0,0,0,0,0,0,0,0,0,-1,818,1051,0,0
-399,-27,0,0,0,0,0,0,0,0,0,-1,825,1051,0,0
-392,-27,0,0,0,0,0,0,0,0,0,-1,832,1051,0,0
-385,-27,0,0,0,0,0,0,0,0,0,-1,839,1051,0,0
-378,-27,0,0,0,0,0,0,0,0,0,-1,846,1051,0,0
-371,-27,0,0,0,0,0,0,0,0,0,-1,853,1051,0,0
-364,-27,0,0,0,0,0,0,0,0,0,-1,860,1051,0,0
-357,-27,0,0,0,0,0,0,0,0,0,-1,867,1051,0,0
-350,-27,0,0,0,0,0,0,0,0,0,-1,874,1051,0,0
-343,-27,0,0,0,0,0,0,0,0,0,-1,881,1051,0,0
-336,-27,0,0,0,0,0,0,0,0,0,-1,888,1051,0,0
-329,-27,0,0,0,0,0,0,0,0,0,-1,895,1051,0,0
-322,-27,0,0,0,0,0,0,0,0,0,-1,902,1051,0,0
-315,-27,0,0,0,0,0,0,0,0,0,-1,909,1051,0,0
-308,-27,0,0,0,0,0,0,0,0,0,-1,916,1051,0,0
-301,-27,0,0,0,0,0,0,0,0,0,-1,923,1051,0,0
-294,-27,0,0,0,0,0,0,0,0,0,-1,930,1051,0,0
-287,-27,0,0,0,0,0,0,0,0,0,-1,937,1051,0,0
-280,-27,0,0,0,0,0,0,0,0,0,-1,944,1051,0,0
-273,-27,0,0,0,0,0,0,0,0,0,-1,951,1051,0,0
-266,-27,0,0,0,0,0,0,0,0,0,-1,958,1051,0,0
-259,-27,0,0,0,0,0,0,0,0,0,-1,965,1051,0,0
-252,-27,0,0,0,0,0,0,0,0,0,-1,972,1051,0,0
-245,-27,0,0,0,0,0,0,0,0,0,-1,979,1051,0,0
-238,-27,0,0,0,0,0,0,0,0,0,-1,986,1051,0,0
-231,-27,0,0,0,0,0,0,0,0,0,-1,993,1051,0,0
-224,-27,0,0,0,0,0,0,0,0,0,-1,1000,1051,0,0
-217,-27,0,0,0,0,0,0,0,0,0,-1,1007,1051,0,0
-210,-27,0,0,0,0,0,0,0,0,0,-1,1014,1051,0,0
-203,-27,0,0,0,0,0,0,0,0,0,-1,1021,1051,0,0
-196,-27,0,0,0,0,0,0,0,0,0,-1,1028,1051,0,0
-189,-27,0,0,0,0,0,0,0,0,0,-1,1035,1051,0,0
-182,-27,0,0,0,0,0,0,0,0,0,-1,1042,1051,0,0
-175,-27,0,0,0,0,0,0,0,0,0,-1,1049,1051,0,0
-168,-27,0,0,0,0,0,0,0,0,0,-1,1056,1051,0,0
-161,-27,0,0,0,0,0,0,0,0,0,-1,1063,1051,0,0
-154,-27,0,0,0,0,0,0,0,0,0,-1,1070,1051,0,0
-147,-27,0,0,0,0,0,0,0,0,0,-1,1077,1051,0,0
-140,-27,0,0,0,0,0,0,0,0,0,-1,1084,1051,0,0
-133,-27,0,0,0,0,0,0,0,0,0,-1,1091,1051,0,0
-126,-27,0,0,0,0,0,0,0,0,0,-1,1098,1051,0,0
-119,-27,0,0,0,0,0,0,0,0,0,-1,1105,1051,0,0
-112,-27,0,0,0,0,0,0,0,0,0,-1,1112,1051,0,0
-105,-27,0,0,0,0,0,0,0,0,0,-1,1119,1051,0,0
-98,-27,0,0,0,0,0,0,0,0,0,-1,1126,1051,0,0
-91,-27,0,0,0,0,0,0,0,0,0,-1,1133,1051,0,0
-84,-27,0,0,0,0,0,0,0,0,0,-1,1140,1051,0,0
-77,-27,0,0,0,0,0,0,0,0,0,-1,1147,1051,0,0
-70,-27,0,0,0,0,0,0,0,0,0,-1,1154,1051,0,0
-63,-27,0,0,0,0,0,0,0,0,0,-1,1161,1051,0,0
-56,-27,0,0,0,0,0,0,0,0,0,-1,1168,1051,0,0
-49,-27,0,0,0,0,0,0,0,0,0,-1,1175,1051,0,0
-42,-27,0,0,0,0,0,0,0,0,0,-1,1182,1051,0,0
-35,-27,0,0,0,0,0,0,0,0,0,-1,1189,1051,0,0
-28,-27,0,0,0,0,0,0,0,0,0,-1,1196,1051,0,0
-21,-27,0,0,0,0,0,0,0,0,0,-1,1203,1051,0,0
-14,-27,0,0,0,0,0,0,0,0,0,-1,1210,1051,0,0
-7,-27,0,0,0,0,0,0,0,0,0,-1,1217,1051,0,0
0,-27,0,0,0,0,0,0,0,0,0,-1,1224,1051,0,0
7,-27,0,0,0,0,0,0,0,0,0,-1,1231,1051,0,0
14,-27,0,0,0,0,0,0,0,0,0,-1,1238,1051,0,0
21,-27,0,0,0,0,0,0,0,0,0,-1,1245,1051,0,0
28,-27,0,0,0,0,0,0,0,0,0,-1,1252,1051,0,0
35,-27,0,0,0,0,0,0,0,0,0,-1,1259,1051,0,0
42,-27,0,0,0,0,0,0,0,0,0,-1,1266,1051,0,0
49,-27,0,0,0,0,0,0,0,0,0,-1,1273,1051,0,0
56,-27,0,0,0,0,0,0,0,0,0,-1,1280,1051,0,0
63,-27,0,0,0,0,0,0,0,0,0,-1,1287,1051,0,0
70,-27,0,0,0,0,0,0,0,0,0,-1,1294,1051,0,0
77,-27,0,0,0,0,0,0,0,0,0,-1,1301,1051,0,0
84,-27,0,0,0,0,0,0,0,0,0,-1,1308,1051,0,0
91,-27,0,0,0,0,0,0,0,0,0,-1,1315,1051,0,0
98,-27,0,0,0,0,0,0,0,0,0,-1,1322,1051,0,0
105,-27,0,0,0,0,0,0,0,0,0,-1,1329,1051,0,0
112,-27,0,0,0,0,0,0,0,0,0,-1,1336,1051,0,0
119,-27,0,0,0,0,0,0,0,0,0,-1,1343,1051,0,0
126,-27,0,0,0,0,0,0,0,0,0,-1,1350,1051,0,0
133,-27,0,0,0,0,0,0,0,0,0,-1,1357,1051,0,0
140,-27,0,0,0,0,0,0,0,0,0,-1,1364,1051,0,0
147,-27,0,0,0,0,0,0,0,0,0,-1,1371,1051,0,0
154,-27,0,0,0,0,0,0,0,0,0,-1,1378,1051,0,0
161,-27,0,0,0,0,0,0,0,0,0,-1,1385,1051,0,0
168,-27,0,0,0,0,0,0,0,0,0,-1,1392,1051,0,0
175,-27,0,0,0,0,0,0,0,0,0,-1,1399,1051,0,0
182,-27,0,0,0,0,0,0,0,0,0,-1,1406,1051,0,0
189,-27,0,0,0,0,0,0,0,0,0,-1,1413,1051,0,0
196,-27,0,0,0,0,0,0,0,0,0,-1,1420,1051,0,0
203,-27,0,0,0,0,0,0,0,0,0,-1,1427,1051,0,0
210,-27,0,0,0,0,0,0,0,0,0,-1,1434,1051,0,0
217,-27,0,0,0,0,0,0,0,0,0,-1,1441,1051,0,0
224,-27,0,0,0,0,0,0,0,0,0,-1,1448,1051,0,0
231,-27,0,0,0,0,0,0,0,0,0,-1,1455,1051,0,0
238,-27,0,0,0,0,0,0,0,0,0,-1,1462,1051,0,0
245,-27,0,0,0,0,0,0,0,0,0,-1,1469,1051,0,0
252,-27,0,0,0,0,0,0,0,0,0,-1,1476,1051,0,0
259,-27,0,0,0,0,0,0,0,0,0,-1,1483,1051,0,0
266,-27,0,0,0,0,0,0,0,0,0,-1,1490,1051,0,0
273,-27,0,0,0,0,0,0,0,0,0,-1,1497,1051,0,0
280,-27,0,0,0,0,0,0,0,0,0,-1,1504,1051,0,0
287,-27,0,0,0,0,0,0,0,0,0,-1,1511,1051,0,0
294,-27,0,0,0,0,0,0,0,0,0,-1,1518,1051,0,0
301,-27,0,0,0,0,0,0,0,0,0,-1,1525,1051,0,0
308,-27,0,0,0,0,0,0,0,0,0,-1,1532,1051,0,0
315,-27,0,0,0,0,0,0,0,0,0,-1,1539,1051,0,0
322,-27,0,0,0,0,0,0,0,0,0,-1,1546,1051,0,0
329,-27,0,0,0,0,0,0,0,0,0,-1,1553,1051,0,0
336,-27,0,0,0,0,0,0,0,0,0,-1,1560,1051,0,0
343,-27,0,0,0,0,0,0,0,0,0,-1,1567,1051,0,0
350,-27,0,0,0,0,0,0,0,0,0,-1,1574,1051,0,0
357,-27,0,0,0,0,0,0,0,0,0,-1,1581,1051,0,0
364,-27,0,0,0,0,0,0,0,0,0,-1,1588,1051,0,0
371,-27,0,0,0,0,0,0,0,0,0,-1,1595,1051,0,0
378,-27,0,0,0,0,0,0,0,0,0,-1,1602,1051,0,0
385,-27,0,0,0,0,0,0,0,0,0,-1,1609,1051,0,0
392,-27,0,0,0,0,0,0,0,0,0,-1,1616,1051,0,0
399,-27,0,0,0,0,0,0,0,0,0,-1,1623,1051,0,0
406,-27,0,0,0,0,0,0,0,0,0,-1,1630,1051,0,0
413,-27,0,0,0,0,0,0,0,0,0,-1,1637,1051,0,0
420,-27,0,0,0,0,0,0,0,0,0,-1,1644,1051,0,0
427,-27,0,0,0,0,0,0,0,0,0,-1,1651,1051,0,0
434,-27,0,0,0,0,0,0,0,0,0,-1,1658,1051,0,0
441,-27,0,0,0,0,0,0,0,0,0,-1,1665,1051,0,0
448,-27,0,0,0,0,0,0,0,0,0,-1,1672,1051,0,0
455,-27,0,0,0,0,0,0,0,0,0,-1,1679,1051,0,0
462,-27,0,0,0,0,0,0,0,0,0,-1,1686,1051,0,0
469,-27,0,0,0,0,0,0,0,0,0,-1,1693,1051,0,0
476,-27,0,0,0,0,0,0,0,0,0,-1,1700,1051,0,0
483,-27,0,0,0,0,0,0,0,0,0,-1,1707,1051,0,0
490,-27,0,0,0,0,0,0,0,0,0,-1,1714,1051,0,0
497,-27,0,0,0,0,0,0,0,0,0,-1,1721,1051,0,0
504,-27,0,0,0,0,0,0,0,0,0,-1,1728,1051,0,0
511,-27,0,0,0,0,0,0,0,0,0,-1,1735,1051,0,0
518,-27,0,0,0,0,0,0,0,0,0,-1,1742,1051,0,0
525,-27,0,0,0,0,0,0,0,0,0,-1,1749,1051,0,0
532,-27,0,0,0,0,0,0,0,0,0,-1,1756,1051,0,0
539,-27,0,0,0,0,0,0,0,0,0,-1,1763,1051,0,0
546,-27,0,0,0,0,0,0,0,0,0,-1,1770,1051,0,0
553,-27,0,0,0,0,0,0,0,0,0,-1,1777,1051,0,0
560,-27,0,0,0,0,0,0,0,0,0,-1,1784,1051,0,0
567,-27,0,0,0,0,0,0,0,0,0,-1,1791,1051,0,0
574,-27,0,0,0,0,0,0,0,0,0,-1,1798,1051,0,0
581,-27,0,0,0,0,0,0,0,0,0,-1,1805,1051,0,0
588,-27,0,0,0,0,0,0,0,0,0,-1,1812,1051,0,0
595,-27,0,0,0,0,0,0,0,0,0,-1,1819,1051,0,0
602,-27,0,0,0,0,0,0,0,0,0,-1,1826,1051,0,0
609,-27,0,0,0,0,0,0,0,0,0,-1,1833,1051,0,0
616,-27,0,0,0,0,0,0,0,0,0,-1,1840,1051,0,0
623,-27,0,0,0,0,0,0,0,0,0,-1,1847,1051,0,0
630,-27,0,0,0,0,0,0,0,0,0,-1,1854,1051,0,0
637,-27,0,0,0,0,0,0,0,0,0,-1,1861,1051,0,0
644,-27,0,0,0,0,0,0,0,0,0,-1,1868,1051,0,0
651,-27,49.0305,2.69934,0.0029812,0.00205962,-0.0006096,0.00328457,0.00175625,-0.461769,0.00189787,0.0432737,1875,1051,49.0305,-2.69931
658,-27,48.9592,2.677,0.00170137,0.00150155,-0.000637212,0.00224645,0.000956459,-0.707635,0.00130175,0.0411728,1882,1051,48.9592,-2.67705
665,-27,49.13,2.56982,0.00083031,0.00108048,-0.000415164,0.001389,0.000521798,-0.931721,0.00081016,0.0371555,1889,1051,49.13,-2.56985
672,-27,49.1278,2.52917,0.000296196,0.000832462,-1.29549e-05,0.000832775,0.000295883,-1.54666,0.000487468,0.0288872,1896,1051,49.1278,-2.52916
679,-27,48.9758,2.5144,-1.77385e-05,0.000681111,0.000504771,0.000945601,-0.000282228,1.08815,0.000742575,0.0279389,1903,1051,48.9759,-2.5144
686,-27,48.9493,2.45142,-0.000351099,0.000357986,0.00107222,0.00113276,-0.00112588,0.94507,0.00130403,0.0395029,1910,1051,48.9494,-2.45139
693,-27,48.951,2.44214,-0.000580834,-2.85227e-05,0.00164504,0.00136338,-0.00197274,0.868559,0.00193679,0.0415162,1917,1051,48.9511,-2.44217
700,-27,48.9733,2.50769,-0.000773599,-0.000246997,0.00207469,0.00158103,-0.00260163,0.848516,0.00243871,0.0373691,1924,1051,48.9733,-2.50766
707,-27,48.9817,2.53418,-0.00121928,-0.000228511,0.00234495,0.00167281,-0.0031206,0.889495,0.00280924,0.0230815,1931,1051,48.9817,-2.53415
714,-27,49.012,2.625,-0.0017952,1.92387e-05,0.00251818,0.00178864,-0.0035646,0.958295,0.00314688,0.0190405,1938,1051,49.0119,-2.625
721,-27,48.9727,2.76965,0,0,0,0,0,0,0,-1,1945,1051,48.9726,-2.76967
728,-27,49.1575,6.00134,0,0,0,0,0,0,0,-1,1952,1051,49.1574,-6.00135
735,-27,48.7148,5.98193,-0.00364287,0.00209348,0.0025856,0.00308688,-0.00463627,1.20398,0.00448877,0.0303957,1959,1051,48.7148,-5.98192
742,-27,48.5211,5.90833,-0.00306759,0.00339644,0.00140658,0.00368925,-0.0033604,1.36556,0.0040716,0.0184532,1966,1051,48.5211,-5.90836
749,-27,48.5552,5.77759,-0.00190565,0.00668483,-0.000957082,0.00679017,-0.00201099,-1.46118,0.00532522,0.0140011,1973,1051,48.5551,-5.77758
756,-27,48.5182,5.64075,-0.000307983,0.0106646,-0.00371927,0.0118064,-0.00144985,-1.27292,0.00839607,0.0140104,1980,1051,48.5182,-5.64071
763,-27,48.4487,5.47156,0.00250624,0.0157768,-0.00729198,0.0190005,-0.000717479,-1.15454,0.0129128,0.0156102,1987,1051,48.4488,-5.47159
770,-27,48.3843,5.31555,0.00726888,0.0231432,-0.0128112,0.0302767,0.000135391,-1.06273,0.0201395,0.0168168,1994,1051,48.3843,-5.31557
777,-27,48.3279,5.27332,0.0153344,0.0340943,-0.0210503,0.04776,0.0016688,-0.994991,0.0312985,0.0181787,2001,1051,48.328,-5.27326
784,-27,48.2708,5.23865,0.0250088,0.0467154,-0.0305418,0.0682751,0.00344918,-0.956119,0.0444116,0.0257351,2008,1051,48.2706,-5.2387
791,-27,48.1213,5.14429,0.0368126,0.0616873,-0.0416994,0.0927646,0.0057353,-0.930329,0.0600227,0.0396932,2015,1051,48.1213,-5.14426
798,-27,47.7366,3.12744,0.0515312,0.0798671,-0.0549487,0.122445,0.00895329,-0.91157,0.0788153,0.0448503,2022,1051,47.7365,-3.12746
805,-27,47.7729,2.06323,0.0693237,0.101876,-0.0701672,0.15763,0.0135695,-0.899363,0.100868,0.0439718,2029,1051,47.773,-2.06324
812,-27,47.5972,1.00378,0,0,0,0,0,0,0,-1,2036,1051,47.5972,-1.00378
-700,-34,-35.2189,1.37817,-0.00402812,-0.0038979,-0.0286963,0.0247333,-0.0326593,-0.786533,0.0332408,0.0453492,524,1058,-35.2189,-1.37816
-693,-34,-35.1886,1.56506,-0.0122954,0.00789667,-0.0281661,0.0277216,-0.0321202,-0.957487,0.0345808,0.0440014,531,1058,-35.1886,-1.56501
-686,-34,-34.9418,1.87952,-0.0160127,0.0154089,-0.0253453,0.0295178,-0.0301216,-1.06285,0.0344334,0.0445471,538,1058,-34.9418,-1.87948
-679,-34,-35.3458,1.76013,-0.0173027,0.0199673,-0.0219032,0.0300902,-0.0274255,-1.13787,0.0332186,0.0423631,545,1058,-35.3458,-1.76011
-672,-34,-35.7287,1.29309,-0.0170264,0.0223697,-0.0183298,0.0295788,-0.0242355,-1.19608,0.0311207,0.0456426,552,1058,-35.7287,-1.29314
-665,-34,-36.5481,1.21582,0,0,0,0,0,0,0,-1,559,1058,-36.5481,-1.21582
-658,-34,-36.3851,1.75134,-0.013921,0.0224062,-0.011831,0.0259195,-0.0174343,-1.28213,0.0251896,0.0431699,566,1058,-36.3851,-1.7513
-651,-34,-36.1162,2.0658,-0.0117215,0.0205722,-0.0092113,0.0230148,-0.0141641,-1.31158,0.021667,0.0327555,573,1058,-36.1162,-2.06582
-644,-34,-36.175,2.18152,-0.00999739,0.018477,-0.00717372,0.0201822,-0.0117026,-1.33743,0.0186244,0.0170129,580,1058,-36.175,-2.18146
-637,-34,-36.212,2.36853,-0.00787216,0.0156116,-0.00539821,0.016793,-0.00905361,-1.35533,0.0151439,0.0181181,587,1058,-36.212,-2.36858
-630,-34,-36.2208,2.66077,-0.00523758,0.0121025,-0.00379543,0.0128969,-0.00603194,-1.36448,0.0111656,0.0182498,594,1058,-36.2209,-2.66075
-623,-34,-36.2092,2.8739,-0.00279083,0.00846525,-0.00262111,0.00904568,-0.00337126,-1.35287,0.00741425,0.0138999,601,1058,-36.2092,-2.87392
-616,-34,-36.2017,3.11255,-0.00099423,0.00482485,-0.00202892,0.00546242,-0.00163179,-1.26633,0.00429026,0.0197796,608,1058,-36.2017,-3.11257
-609,-34,-36.185,3.31787,-0.000176945,0.00244638,-0.00182632,0.00338325,-0.00111381,-1.09682,0.00270434,0.0198362,615,1058,-36.185,-3.31785
-602,-34,-36.1808,3.49109,0.000218135,0.000641836,-0.00181435,0.00225666,-0.00139669,-0.843517,0.00212866,0.0156252,622,1058,-36.1808,-3.49107
-595,-34,-36.2855,3.64978,0.000471143,-0.000144809,-0.00186703,0.00205543,-0.0017291,-0.703657,0.0021877,0.0171319,629,1058,-36.2854,-3.64975
-588,-34,-36.5058,0.791748,0,0,0,0,0,0,0,-1,636,1058,-36.5058,-0.791723
-581,-34,-36.4236,0.811157,0.00118042,-0.00048741,-0.00157842,0.00213167,-0.00143866,-0.542374,0.00207424,0.0248437,643,1058,-36.4236,-0.81119
-574,-34,-36.4509,0.942749,0.00132235,-0.000258851,-0.00141523,0.00215283,-0.00108933,-0.530672,0.00190514,0.034984,650,1058,-36.451,-0.942742
-567,-34,-36.4484,0.629639,0.00136468,0.000272176,-0.00128472,0.00221445,-0.000577596,-0.584381,0.00170183,0.0414814,657,1058,-36.4483,-0.629578
-560,-34,-36.4998,0.67334,0.00142799,0.00105848,-0.00124186,0.00249877,-1.22988e-05,-0.711554,0.00166996,0.0422329,664,1058,-36.4998,-0.673358
-553,-34,-36.5015,0.813843,0.00163115,0.00195889,-0.00135786,0.00316273,0.000427308,-0.845448,0.00198147,0.0430712,671,1058,-36.5014,-0.81389
-546,-34,-36.5333,0.638062,0.00216375,0.00275458,-0.00174629,0.00423026,0.000688066,-0.869188,0.0026211,0.0449377,678,1058,-36.5333,-0.638078
-539,-34,-36.5013,0.630859,0.00314948,0.00312778,-0.00259444,0.0057331,0.000544165,-0.783307,0.00365421,0.0442435,685,1058,-36.5014,-0.630887
-532,-34,-36.4099,0.77771,0.00435481,0.00373976,-0.00352848,0.00758914,0.000505428,-0.74193,0.00489965,0.043651,692,1058,-36.4099,-0.777764
-525,-34,0,0,0,0,0,0,0,0,0,-1,699,1058,0,0
-518,-34,0,0,0,0,0,0,0,0,0,-1,706,1058,0,0
-511,-34,0,0,0,0,0,0,0,0,0,-1,713,1058,0,0
-504,-34,0,0,0,0,0,0,0,0,0,-1,720,1058,0,0
-497,-34,0,0,0,0,0,0,0,0,0,-1,727,1058,0,0
-490,-34,0,0,0,0,0,0,0,0,0,-1,734,1058,0,0
-483,-34,0,0,0,0,0,0,0,0,0,-1,741,1058,0,0
-476,-34,0,0,0,0,0,0,0,0,0,-1,748,1058,0,0
-469,-34,0,0,0,0,0,0,0,0,0,-1,755,1058,0,0
-462,-34,0,0,0,0,0,0,0,0,0,-1,762,1058,0,0
-455,-34,0,0,0,0,0,0,0,0,0,-1,769,1058,0,0
-448,-34,0,0,0,0,0,0,0,0,0,-1,776,1058,0,0
-441,-34,0,0,0,0,0,0,0,0,0,-1,783,1058,0,0
-434,-34,0,0,0,0,0,0,0,0,0,-1,790,1058,0,0
-427,-34,0,0,0,0,0,0,0,0,0,-1,797,1058,0,0
-420,-34,0,0,0,0,0,0,0,0,0,-1,804,1058,0,0
-413,-34,0,0,0,0,0,0,0,0,0,-1,811,1058,0,0
-406,-34,0,0,0,0,0,0,0,0,0,-1,818,1058,0,0
-399,-34,0,0,0,0,0,0,0,0,0,-1,825,1058,0,0
-392,-34,0,0,0,0,0,0,0,0,0,-1,832,1058,0,0
-385,-34,0,0,0,0,0,0,0,0,0,-1,839,1058,0,0
-378,-34,0,0,0,0,0,0,0,0,0,-1,846,1058,0,0
-371,-34,0,0,0,0,0,0,0,0,0,-1,853,1058,0,0
-364,-34,0,0,0,0,0,0,0,0,0,-1,860,1058,0,0
-357,-34,0,0,0,0,0,0,0,0,0,-1,867,1058,0,0
-350,-34,0,0,0,0,0,0,0,0,0,-1,874,1058,0,0
-343,-34,0,0,0,0,0,0,0,0,0,-1,881,1058,0,0
-336,-34,0,0,0,0,0,0,0,0,0,-1,888,1058,0,0
-329,-34,0,0,0,0,0,0,0,0,0,-1,895,1058,0,0
-322,-34,0,0,0,0,0,0,0,0,0,-1,902,1058,0,0
-315,-34,0,0,0,0,0,0,0,0,0,-1,909,1058,0,0
-308,-34,0,0,0,0,0,0,0,0,0,-1,916,1058,0,0
-301,-34,0,0,0,0,0,0,0,0,0,-1,923,1058,0,0
-294,-34,0,0,0,0,0,0,0,0,0,-1,930,1058,0,0
-287,-34,0,0,0,0,0,0,0,0,0,-1,937,1058,0,0
-280,-34,0,0,0,0,0,0,0,0,0,-1,944,1058,0,0
-273,-34,0,0,0,0,0,0,0,0,0,-1,951,1058,0,0
-266,-34,0,0,0,0,0,0,0,0,0,-1,958,1058,0,0
-259,-34,0,0,0,0,0,0,0,0,0,-1,965,1058,0,0
-252,-34,0,0,0,0,0,0,0,0,0,-1,972,1058,0,0
-245,-34,0,0,0,0,0,0,0,0,0,-1,979,1058,0,0
-238,-34,0,0,0,0,0,0,0,0,0,-1,986,1058,0,0
-231,-34,0,0,0,0,0,0,0,0,0,-1,993,1058,0,0
-224,-34,0,0,0,0,0,0,0,0,0,-1,1000,1058,0,0
-217,-34,0,0,0,0,0,0,0,0,0,-1,1007,1058,0,0
-210,-34,0,0,0,0,0,0,0,0,0,-1,1014,1058,0,0
-203,-34,0,0,0,0,0,0,0,0,0,-1,1021,1058,0,0
-196,-34,0,0,0,0,0,0,0,0,0,-1,1028,1058,0,0
-189,-34,0,0,0,0,0,0,0,0,0,-1,1035,1058,0,0
-182,-34,0,0,0,0,0,0,0,0,0,-1,1042,1058,0,0
-175,-34,0,0,0,0,0,0,0,0,0,-1,1049,1058,0,0
-168,-34,0,0,0,0,0,0,0,0,0,-1,1056,1058,0,0
-161,-34,0,0,0,0,0,0,0,0,0,-1,1063,1058,0,0
-154,-34,0,0,0,0,0,0,0,0,0,-1,1070,1058,0,0
-147,-34,0,0,0,0,0,0,0,0,0,-1,1077,1058,0,0
-140,-34,0,0,0,0,0,0,0,0,0,-1,1084,1058,0,0
-133,-34,0,0,0,0,0,0,0,0,0,-1,1091,1058,0,0
-126,-34,0,0,0,0,0,0,0,0,0,-1,1098,1058,0,0
-119,-34,0,0,0,0,0,0,0,0,0,-1,1105,1058,0,0
-112,-34,0,0,0,0,0,0,0,0,0,-1,1112,1058,0,0
-105,-34,0,0,0,0,0,0,0,0,0,-1,1119,1058,0,0
-98,-34,0,0,0,0,0,0,0,0,0,-1,1126,1058,0,0
-91,-34,0,0,0,0,0,0,0,0,0,-1,1133,1058,0,0
-84,-34,0,0,0,0,0,0,0,0,0,-1,1140,1058,0,0
-77,-34,0,0,0,0,0,0,0,0,0,-1,1147,1058,0,0
-70,-34,0,0,0,0,0,0,0,0,0,-1,1154,1058,0,0
-63,-34,0,0,0,0,0,0,0,0,0,-1,1161,1058,0,0
-56,-34,0,0,0,0,0,0,0,0,0,-1,1168,1058,0,0
-49,-34,0,0,0,0,0,0,0,0,0,-1,1175,1058,0,0
-42,-34,0,0,0,0,0,0,0,0,0,-1,1182,1058,0,0
-35,-34,0,0,0,0,0,0,0,0,0,-1,1189,1058,0,0
-28,-34,0,0,0,0,0,0,0,0,0,-1,1196,1058,0,0
-21,-34,0,0,0,0,0,0,0,0,0,-1,1203,1058,0,0
-14,-34,0,0,0,0,0,0,0,0,0,-1,1210,1058,0,0
-7,-34,0,0,0,0,0,0,0,0,0,-1,1217,1058,0,0
0,-34,0,0,0,0,0,0,0,0,0,-1,1224,1058,0,0
7,-34,0,0,0,0,0,0,0,0,0,-1,1231,1058,0,0
14,-34,0,0,0,0,0,0,0,0,0,-1,1238,1058,0,0
21,-34,0,0,0,0,0,0,0,0,0,-1,1245,1058,0,0
28,-34,0,0,0,0,0,0,0,0,0,-1,1252,1058,0,0
35,-34,0,0,0,0,0,0,0,0,0,-1,1259,1058,0,0
42,-34,0,0,0,0,0,0,0,0,0,-1,1266,1058,0,0
49,-34,0,0,0,0,0,0,0,0,0,-1,1273,1058,0,0
56,-34,0,0,0,0,0,0,0,0,0,-1,1280,1058,0,0
63,-34,0,0,0,0,0,0,0,0,0,-1,1287,1058,0,0
70,-34,0,0,0,0,0,0,0,0,0,-1,1294,1058,0,0
77,-34,0,0,0,0,0,0,0,0,0,-1,1301,1058,0,0
84,-34,0,0,0,0,0,0,0,0,0,-1,1308,1058,0,0
91,-34,0,0,0,0,0,0,0,0,0,-1,1315,1058,0,0
98,-34,0,0,0,0,0,0,0,0,0,-1,1322,1058,0,0
105,-34,0,0,0,0,0,0,0,0,0,-1,1329,1058,0,0
112,-34,0,0,0,0,0,0,0,0,0,-1,1336,1058,0,0
119,-34,0,0,0,0,0,0,0,0,0,-1,1343,1058,0,0
126,-34,0,0,0,0,0,0,0,0,0,-1,1350,1058,0,0
133,-34,0,0,0,0,0,0,0,0,0,-1,1357,1058,0,0
140,-34,0,0,0,0,0,0,0,0,0,-1,1364,1058,0,0
147,-34,0,0,0,0,0,0,0,0,0,-1,1371,1058,0,0
154,-34,0,0,0,0,0,0,0,0,0,-1,1378,1058,0,0
161,-34,0,0,0,0,0,0,0,0,0,-1,1385,1058,0,0
168,-34,0,0,0,0,0,0,0,0,0,-1,1392,1058,0,0
175,-34,0,0,0,0,0,0,0,0,0,-1,1399,1058,0,0
182,-34,0,0,0,0,0,0,0,0,0,-1,1406,1058,0,0
189,-34,0,0,0,0,0,0,0,0,0,-1,1413,1058,0,0
196,-34,0,0,0,0,0,0,0,0,0,-1,1420,1058,0,0
203,-34,0,0,0,0,0,0,0,0,0,-1,1427,1058,0,0
210,-34,0,0,0,0,0,0,0,0,0,-1,1434,1058,0,0
217,-34,0,0,0,0,0,0,0,0,0,-1,1441,1058,0,0
224,-34,0,0,0,0,0,0,0,0,0,-1,1448,1058,0,0
231,-34,0,0,0,0,0,0,0,0,0,-1,1455,1058,0,0
238,-34,0,0,0,0,0,0,0,0,0,-1,1462,1058,0,0
245,-34,0,0,0,0,0,0,0,0,0,-1,1469,1058,0,0
252,-34,0,0,0,0,0,0,0,0,0,-1,1476,1058,0,0
259,-34,0,0,0,0,0,0,0,0,0,-1,1483,1058,0,0
266,-34,0,0,0,0,0,0,0,0,0,-1,1490,1058,0,0
273,-34,0,0,0,0,0,0,0,0,0,-1,1497,1058,0,0
280,-34,0,0,0,0,0,0,0,0,0,-1,1504,1058,0,0
287,-34,0,0,0,0,0,0,0,0,0,-1,1511,1058,0,0
294,-34,0,0,0,0,0,0,0,0,0,-1,1518,1058,0,0
301,-34,0,0,0,0,0,0,0,0,0,-1,1525,1058,0,0
308,-34,0,0,0,0,0,0,0,0,0,-1,1532,1058,0,0
315,-34,0,0,0,0,0,0,0,0,0,-1,1539,1058,0,0
322,-34,0,0,0,0,0,0,0,0,0,-1,1546,1058,0,0
329,-34,0,0,0,0,0,0,0,0,0,-1,1553,1058,0,0
336,-34,0,0,0,0,0,0,0,0,0,-1,1560,1058,0,0
343,-34,0,0,0,0,0,0,0,0,0,-1,1567,1058,0,0
350,-34,0,0,0,0,0,0,0,0,0,-1,1574,1058,0,0
357,-34,0,0,0,0,0,0,0,0,0,-1,1581,1058,0,0
364,-34,0,0,0,0,0,0,0,0,0,-1,1588,1058,0,0
371,-34,0,0,0,0,0,0,0,0,0,-1,1595,1058,0,0
378,-34,0,0,0,0,0,0,0,0,0,-1,1602,1058,0,0
385,-34,0,0,0,0,0,0,0,0,0,-1,1609,1058,0,0
392,-34,0,0,0,0,0,0,0,0,0,-1,1616,1058,0,0
399,-34,0,0,0,0,0,0,0,0,0,-1,1623,1058,0,0
406,-34,0,0,0,0,0,0,0,0,0,-1,1630,1058,0,0
413,-34,0,0,0,0,0,0,0,0,0,-1,1637,1058,0,0
420,-34,0,0,0,0,0,0,0,0,0,-1,1644,1058,0,0
427,-34,0,0,0,0,0,0,0,0,0,-1,1651,1058,0,0
434,-34,0,0,0,0,0,0,0,0,0,-1,1658,1058,0,0
441,-34,0,0,0,0,0,0,0,0,0,-1,1665,1058,0,0
448,-34,0,0,0,0,0,0,0,0,0,-1,1672,1058,0,0
455,-34,0,0,0,0,0,0,0,0,0,-1,1679,1058,0,0
462,-34,0,0,0,0,0,0,0,0,0,-1,1686,1058,0,0
469,-34,0,0,0,0,0,0,0,0,0,-1,1693,1058,0,0
476,-34,0,0,0,0,0,0,0,0,0,-1,1700,1058,0,0
483,-34,0,0,0,0,0,0,0,0,0,-1,1707,1058,0,0
490,-34,0,0,0,0,0,0,0,0,0,-1,1714,1058,0,0
497,-34,0,0,0,0,0,0,0,0,0,-1,1721,1058,0,0
504,-34,0,0,0,0,0,0,0,0,0,-1,1728,1058,0,0
511,-34,0,0,0,0,0,0,0,0,0,-1,1735,1058,0,0
518,-34,0,0,0,0,0,0,0,0,0,-1,1742,1058,0,0
525,-34,0,0,0,0,0,0,0,0,0,-1,1749,1058,0,0
532,-34,0,0,0,0,0,0,0,0,0,-1,1756,1058,0,0
539,-34,0,0,0,0,0,0,0,0,0,-1,1763,1058,0,0
546,-34,0,0,0,0,0,0,0,0,0,-1,1770,1058,0,0
553,-34,0,0,0,0,0,0,0,0,0,-1,1777,1058,0,0
560,-34,0,0,0,0,0,0,0,0,0,-1,1784,1058,0,0
567,-34,0,0,0,0,0,0,0,0,0,-1,1791,1058,0,0
574,-34,0,0,0,0,0,0,0,0,0,-1,1798,1058,0,0
581,-34,0,0,0,0,0,0,0,0,0,-1,1805,1058,0,0
588,-34,0,0,0,0,0,0,0,0,0,-1,1812,1058,0,0
595,-34,0,0,0,0,0,0,0,0,0,-1,1819,1058,0,0
602,-34,0,0,0,0,0,0,0,0,0,-1,1826,1058,0,0
609,-34,0,0,0,0,0,0,0,0,0,-1,1833,1058,0,0
616,-34,0,0,0,0,0,0,0,0,0,-1,1840,1058,0,0
623,-34,0,0,0,0,0,0,0,0,0,-1,1847,1058,0,0
630,-34,0,0,0,0,0,0,0,0,0,-1,1854,1058,0,0
637,-34,0,0,0,0,0,0,0,0,0,-1,1861,1058,0,0
644,-34,0,0,0,0,0,0,0,0,0,-1,1868,1058,0,0
651,-34,49.1174,2.7832,0.0020633,0.00165891,-0.000822996,0.00270858,0.00101363,-0.664941,0.0015802,0.0413903,1875,1058,49.1174,-2.78322
658,-34,49.212,2.63342,0.00111136,0.00125965,-0.000678784,0.00186833,0.000502682,-0.839799,0.00111637,0.042272,1882,1058,49.2121,-2.63341
665,-34,49.2628,2.42932,0.000502969,0.000920798,-0.000376625,0.00114257,0.000281196,-1.03862,0.000687428,0.0401721,1889,1058,49.2628,-2.42934
672,-34,49.1549,2.40588,0.000175328,0.000699766,5.44188e-05,0.000705354,0.00016974,1.46848,0.000425106,0.0368141,1896,1058,49.1549,-2.40587
679,-34,48.976,2.51746,-9.13013e-06,0.000511109,0.000552542,0.000861697,-0.000359719,1.00539,0.000724765,0.0361978,1903,1058,48.976,-2.5175
686,-34,48.8743,2.64551,-0.000310432,0.000129618,0.00108698,0.00101861,-0.00119943,0.885258,0.00128201,0.0420293,1910,1058,48.8743,-2.64549
693,-34,48.9178,2.6665,-0.000552423,-0.000298103,0.00161926,0.00119898,-0.00204951,0.824583,0.00189683,0.0428206,1917,1058,48.9179,-2.66651
700,-34,48.9796,2.57983,-0.000779454,-0.000544158,0.00203215,0.00137375,-0.00269736,0.814313,0.0023915,0.0389279,1924,1058,48.9796,-2.57979
707,-34,48.9387,2.58655,-0.00122664,-0.000561494,0.00231094,0.00144068,-0.00322882,0.856864,0.00276104,0.0237527,1931,1058,48.9387,-2.58657
714,-34,48.9683,2.65747,-0.00177686,-0.000355666,0.00250902,0.00154144,-0.00367397,0.923393,0.00309389,0.0181441,1938,1058,48.9683,-2.65747
721,-34,48.9678,2.73364,0,0,0,0,0,0,0,-1,1945,1058,48.9678,-2.73361
728,-34,48.5345,6.14685,0,0,0,0,0,0,0,-1,1952,1058,48.5345,-6.1469
735,-34,48.3911,6.04639,-0.00359234,0.00157024,0.00265276,0.00269032,-0.00471243,1.17127,0.00432681,0.0197266,1959,1058,48.3911,-6.0464
742,-34,48.3263,5.91895,-0.0030202,0.00276563,0.00145458,0.00311073,-0.00336531,1.33785,0.0037399,0.0156278,1966,1058,48.3263,-5.91892
749,-34,48.3522,5.78015,-0.00148887,0.00595758,-0.00112274,0.00612318,-0.00165446,-1.42436,0.00473104,0.0134652,1973,1058,48.3521,-5.78019
756,-34,48.3619,5.60193,0.000499793,0.00985055,-0.00405038,0.011361,-0.00101068,-1.21385,0.0079324,0.0108464,1980,1058,48.3619,-5.60195
763,-34,48.3063,5.41589,0.00377937,0.0147917,-0.00795912,0.0189636,-0.000392565,-1.088,0.0127753,0.0124104,1987,1058,48.3063,-5.41588
770,-34,48.2297,5.25049,0.00931083,0.0219843,-0.0140652,0.0310743,0.000220847,-0.997044,0.020643,0.018315,1994,1058,48.2298,-5.25045
777,-34,48.1045,5.17444,0.0184131,0.0324954,-0.0231023,0.0496057,0.00130276,-0.933317,0.0326449,0.0205162,2001,1058,48.1045,-5.17446
784,-34,47.9788,5.07507,0.0293492,0.0446428,-0.0335782,0.071434,0.00255807,-0.897354,0.0467933,0.0387173,2008,1058,47.9789,-5.07511
791,-34,47.6895,5.13867,0.0427714,0.0591346,-0.0460171,0.0976918,0.00421425,-0.873376,0.0637695,0.0476503,2015,1058,47.6896,-5.13863
798,-34,47.7688,4.81238,0.05971,0.076909,-0.0609469,0.12986,0.00675889,-0.855484,0.0844107,0.0457964,2022,1058,47.7689,-4.81243
805,-34,47.4063,0.636963,0.0804619,0.0986931,-0.0782783,0.168385,0.0107703,-0.843363,0.108844,0.0450407,2029,1058,47.4062,-0.636982
812,-34,47.1665,-0.291626,0,0,0,0,0,0,0,-1,2036,1058,47.1665,0.291609
-700,-41,-34.6052,1.48547,-0.00376677,0.00772217,-0.0316037,0.0340992,-0.0301438,-0.8753,0.0371142,0.044184,524,1065,-34.6052,-1.48544
-693,-41,-34.564,1.63745,-0.0123492,0.0181932,-0.0310202,0.0374975,-0.0316535,-1.01413,0.0399718,0.0422315,531,1065,-34.564,-1.63746
-686,-41,-33.7224,2.39429,-0.0165429,0.0239957,-0.0281797,0.0384387,-0.0309858,-1.09718,0.0401592,0.0429315,538,1065,-33.7224,-2.39428
-679,-41,-34.513,1.81372,-0.0181049,0.0270292,-0.0245019,0.037773,-0.0288487,-1.15756,0.0385789,0.0443162,545,1065,-34.513,-1.81376
-672,-41,-35.7762,0.742432,-0.0179209,0.0280666,-0.020552,0.0359128,-0.0257671,-1.2061,0.0357711,0.0449949,552,1065,-35.7762,-0.742432
-665,-41,-36.0258,0.429565,0,0,0,0,0,0,0,-1,559,1065,-36.0258,-0.429573
-658,-41,-35.8447,1.0907,-0.0145491,0.0257846,-0.0131338,0.0296843,-0.0184489,-1.28217,0.0280409,0.0401317,566,1065,-35.8447,-1.09074
-651,-41,-35.7463,1.8053,-0.0121339,0.022991,-0.0100707,0.0256735,-0.0148164,-1.31047,0.0236553,0.0326517,573,1065,-35.7462,-1.80534
-644,-41,-35.9394,2.11438,-0.0102458,0.0201001,-0.00771052,0.0219469,-0.0120926,-1.33571,0.0199253,0.018435,580,1065,-35.9394,-2.11434
-637,-41,-35.981,2.33826,-0.00788475,0.0165581,-0.0054947,0.0177365,-0.00906313,-1.35954,0.0157405,0.0197152,587,1065,-35.981,-2.33823
-630,-41,-35.9874,2.58716,-0.00515355,0.012233,-0.00359749,0.0129479,-0.00586851,-1.37461,0.011117,0.0150703,594,1065,-35.9873,-2.58711
-623,-41,-35.954,2.84473,-0.00270868,0.00821849,-0.00228888,0.00867856,-0.00316875,-1.37244,0.00708233,0.0122261,601,1065,-35.954,-2.84467
-616,-41,-35.9377,3.12732,-0.000894123,0.0044971,-0.0016023,0.00493736,-0.00133438,-1.30265,0.00381496,0.0158428,608,1065,-35.9377,-3.12734
-609,-41,-35.8624,3.36621,-5.79443e-05,0.00217081,-0.00128908,0.00276041,-0.000647549,-1.14182,0.00208984,0.0218329,615,1065,-35.8625,-3.36625
-602,-41,-35.9441,3.54053,0.000304001,0.000415465,-0.00116605,0.00152712,-0.00080765,-0.809278,0.00136914,0.013821,622,1065,-35.9441,-3.54047
-595,-41,-36.0638,3.72424,0.000503891,-0.000330291,-0.00120524,0.00136217,-0.00118857,-0.618816,0.0014738,0.0226954,629,1065,-36.0638,-3.72425
-588,-41,-36.4607,0.554321,0,0,0,0,0,0,0,-1,636,1065,-36.4607,-0.554292
-581,-41,-36.4254,0.72583,0.00115766,-0.000611119,-0.000991468,0.00160186,-0.00105532,-0.421209,0.0015449,0.0344923,643,1065,-36.4254,-0.725791
-574,-41,-36.4735,1.04553,0.00127314,-0.000372957,-0.000864107,0.00164345,-0.00074326,-0.404864,0.00141026,0.0361451,650,1065,-36.4735,-1.04549
-567,-41,-36.5197,1.04517,0.00130986,0.000144334,-0.000806185,0.00172186,-0.000267662,-0.472444,0.00124674,0.0408011,657,1065,-36.5196,-1.04516
-560,-41,-36.5784,0.743774,0.0013578,0.000899696,-0.000874379,0.00203263,0.000224865,-0.657297,0.0012867,0.0421349,664,1065,-36.5784,-0.743766
-553,-41,-36.6122,0.782471,0.00155549,0.00176793,-0.00114259,0.00280923,0.000514196,-0.831746,0.00172712,0.0441782,671,1065,-36.6122,-0.782508
-546,-41,-36.4617,0.780518,0.00209143,0.00254985,-0.00171551,0.0040514,0.000589882,-0.851809,0.00252736,0.0416929,678,1065,-36.4617,-0.78048
-539,-41,-36.4062,0.797363,0.00313329,0.00285718,-0.00273053,0.00572925,0.000261222,-0.76014,0.00373547,0.0406646,685,1065,-36.4062,-0.797348
-532,-41,-36.309,0.796753,0.00438015,0.00344253,-0.00373914,0.00767975,0.000142927,-0.723034,0.00507287,0.0398826,692,1065,-36.309,-0.796779
-525,-41,0,0,0,0,0,0,0,0,0,-1,699,1065,0,0
-518,-41,0,0,0,0,0,0,0,0,0,-1,706,1065,0,0
-511,-41,0,0,0,0,0,0,0,0,0,-1,713,1065,0,0
-504,-41,0,0,0,0,0,0,0,0,0,-1,720,1065,0,0
-497,-41,0,0,0,0,0,0,0,0,0,-1,727,1065,0,0
-490,-41,0,0,0,0,0,0,0,0,0,-1,734,1065,0,0
-483,-41,0,0,0,0,0,0,0,0,0,-1,741,1065,0,0
-476,-41,0,0,0,0,0,0,0,0,0,-1,748,1065,0,0
-469,-41,0,0,0,0,0,0,0,0,0,-1,755,1065,0,0
-462,-41,0,0,0,0,0,0,0,0,0,-1,762,1065,0,0
-455,-41,0,0,0,0,0,0,0,0,0,-1,769,1065,0,0
-448,-41,0,0,0,0,0,0,0,0,0,-1,776,1065,0,0
-441,-41,0,0,0,0,0,0,0,0,0,-1,783,1065,0,0
-434,-41,0,0,0,0,0,0,0,0,0,-1,790,1065,0,0
-427,-41,0,0,0,0,0,0,0,0,0,-1,797,1065,0,0
-420,-41,0,0,0,0,0,0,0,0,0,-1,804,1065,0,0
-413,-41,0,0,0,0,0,0,0,0,0,-1,811,1065,0,0
-406,-41,0,0,0,0,0,0,0,0,0,-1,818,1065,0,0
-399,-41,0,0,0,0,0,0,0,0,0,-1,825,1065,0,0
-392,-41,0,0,0,0,0,0,0,0,0,-1,832,1065,0,0
-385,-41,0,0,0,0,0,0,0,0,0,-1,839,1065,0,0
-378,-41,0,0,0,0,0,0,0,0,0,-1,846,1065,0,0
-371,-41,0,0,0,0,0,0,0,0,0,-1,853,1065,0,0
-364,-41,0,0,0,0,0,0,0,0,0,-1,860,1065,0,0
-357,-41,0,0,0,0,0,0,0,0,0,-1,867,1065,0,0
-350,-41,0,0,0,0,0,0,0,0,0,-1,874,1065,0,0
-343,-41,0,0,0,0,0,0,0,0,0,-1,881,1065,0,0
-336,-41,0,0,0,0,0,0,0,0,0,-1,888,1065,0,0
-329,-41,0,0,0,0,0,0,0,0,0,-1,895,1065,0,0
-322,-41,0,0,0,0,0,0,0,0,0,-1,902,1065,0,0
-315,-41,0,0,0,0,0,0,0,0,0,-1,909,1065,0,0
-308,-41,0,0,0,0,0,0,0,0,0,-1,916,1065,0,0
-301,-41,0,0,0,0,0,0,0,0,0,-1,923,1065,0,0
-294,-41,0,0,0,0,0,0,0,0,0,-1,930,1065,0,0
-287,-41,0,0,0,0,0,0,0,0,0,-1,937,1065,0,0
-280,-41,0,0,0,0,0,0,0,0,0,-1,944,1065,0,0
-273,-41,0,0,0,0,0,0,0,0,0,-1,951,1065,0,0
-266,-41,0,0,0,0,0,0,0,0,0,-1,958,1065,0,0
-259,-41,0,0,0,0,0,0,0,0,0,-1,965,1065,0,0
-252,-41,0,0,0,0,0,0,0,0,0,-1,972,1065,0,0
-245,-41,0,0,0,0,0,0,0,0,0,-1,979,1065,0,0
-238,-41,0,0,0,0,0,0,0,0,0,-1,986,1065,0,0
-231,-41,0,0,0,0,0,0,0,0,0,-1,993,1065,0,0
-224,-41,0,0,0,0,0,0,0,0,0,-1,1000,1065,0,0
-217,-41,0,0,0,0,0,0,0,0,0,-1,1007,1065,0,0
-210,-41,0,0,0,0,0,0,0,0,0,-1,1014,1065,0,0
-203,-41,0,0,0,0,0,0,0,0,0,-1,1021,1065,0,0
-196,-41,0,0,0,0,0,0,0,0,0,-1,1028,1065,0,0
-189,-41,0,0,0,0,0,0,0,0,0,-1,1035,1065,0,0
-182,-41,0,0,0,0,0,0,0,0,0,-1,1042,1065,0,0
-175,-41,0,0,0,0,0,0,0,0,0,-1,1049,1065,0,0
-168,-41,0,0,0,0,0,0,0,0,0,-1,1056,1065,0,0
-161,-41,0,0,0,0,0,0,0,0,0,-1,1063,1065,0,0
-154,-41,0,0,0,0,0,0,0,0,0,-1,1070,1065,0,0
-147,-41,0,0,0,0,0,0,0,0,0,-1,1077,1065,0,0
-140,-41,0,0,0,0,0,0,0,0,0,-1,1084,1065,0,0
-133,-41,0,0,0,0,0,0,0,0,0,-1,1091,1065,0,0
-126,-41,0,0,0,0,0,0,0,0,0,-1,1098,1065,0,0
-119,-41,0,0,0,0,0,0,0,0,0,-1,1105,1065,0,0
-112,-41,0,0,0,0,0,0,0,0,0,-1,1112,1065,0,0
-105,-41,0,0,0,0,0,0,0,0,0,-1,1119,1065,0,0
-98,-41,0,0,0,0,0,0,0,0,0,-1,1126,1065,0,0
-91,-41,0,0,0,0,0,0,0,0,0,-1,1133,1065,0,0
-84,-41,0,0,0,0,0,0,0,0,0,-1,1140,1065,0,0
-77,-41,0,0,0,0,0,0,0,0,0,-1,1147,1065,0,0
-70,-41,0,0,0,0,0,0,0,0,0,-1,1154,1065,0,0
-63,-41,0,0,0,0,0,0,0,0,0,-1,1161,1065,0,0
-56,-41,0,0,0,0,0,0,0,0,0,-1,1168,1065,0,0
-49,-41,0,0,0,0,0,0,0,0,0,-1,1175,1065,0,0
-42,-41,0,0,0,0,0,0,0,0,0,-1,1182,1065,0,0
-35,-41,0,0,0,0,0,0,0,0,0,-1,1189,1065,0,0
-28,-41,0,0,0,0,0,0,0,0,0,-1,1196,1065,0,0
-21,-41,0,0,0,0,0,0,0,0,0,-1,1203,1065,0,0
-14,-41,0,0,0,0,0,0,0,0,0,-1,1210,1065,0,0
-7,-41,0,0,0,0,0,0,0,0,0,-1,1217,1065,0,0
0,-41,0,0,0,0,0,0,0,0,0,-1,1224,1065,0,0
7,-41,0,0,0,0,0,0,0,0,0,-1,1231,1065,0,0
14,-41,0,0,0,0,0,0,0,0,0,-1,1238,1065,0,0
21,-41,0,0,0,0,0,0,0,0,0,-1,1245,1065,0,0
28,-41,0,0,0,0,0,0,0,0,0,-1,1252,1065,0,0
35,-41,0,0,0,0,0,0,0,0,0,-1,1259,1065,0,0
42,-41,0,0,0,0,0,0,0,0,0,-1,1266,1065,0,0
49,-41,0,0,0,0,0,0,0,0,0,-1,1273,1065,0,0
56,-41,0,0,0,0,0,0,0,0,0,-1,1280,1065,0,0
63,-41,0,0,0,0,0,0,0,0,0,-1,1287,1065,0,0
70,-41,0,0,0,0,0,0,0,0,0,-1,1294,1065,0,0
77,-41,0,0,0,0,0,0,0,0,0,-1,1301,1065,0,0
84,-41,0,0,0,0,0,0,0,0,0,-1,1308,1065,0,0
91,-41,0,0,0,0,0,0,0,0,0,-1,1315,1065,0,0
98,-41,0,0,0,0,0,0,0,0,0,-1,1322,1065,0,0
105,-41,0,0,0,0,0,0,0,0,0,-1,1329,1065,0,0
112,-41,0,0,0,0,0,0,0,0,0,-1,1336,1065,0,0
119,-41,0,0,0,0,0,0,0,0,0,-1,1343,1065,0,0
126,-41,0,0,0,0,0,0,0,0,0,-1,1350,1065,0,0
133,-41,0,0,0,0,0,0,0,0,0,-1,1357,1065,0,0
140,-41,0,0,0,0,0,0,0,0,0,-1,1364,1065,0,0
147,-41,0,0,0,0,0,0,0,0,0,-1,1371,1065,0,0
154,-41,0,0,0,0,0,0,0,0,0,-1,1378,1065,0,0
161,-41,0,0,0,0,0,0,0,0,0,-1,1385,1065,0,0
168,-41,0,0,0,0,0,0,0,0,0,-1,1392,1065,0,0
175,-41,0,0,0,0,0,0,0,0,0,-1,1399,1065,0,0
182,-41,0,0,0,0,0,0,0,0,0,-1,1406,1065,0,0
189,-41,0,0,0,0,0,0,0,0,0,-1,1413,1065,0,0
196,-41,0,0,0,0,0,0,0,0,0,-1,1420,1065,0,0
203,-41,0,0,0,0,0,0,0,0,0,-1,1427,1065,0,0
210,-41,0,0,0,0,0,0,0,0,0,-1,1434,1065,0,0
217,-41,0,0,0,0,0,0,0,0,0,-1,1441,1065,0,0
224,-41,0,0,0,0,0,0,0,0,0,-1,1448,1065,0,0
231,-41,0,0,0,0,0,0,0,0,0,-1,1455,1065,0,0
238,-41,0,0,0,0,0,0,0,0,0,-1,1462,1065,0,0
245,-41,0,0,0,0,0,0,0,0,0,-1,1469,1065,0,0
252,-41,0,0,0,0,0,0,0,0,0,-1,1476,1065,0,0
259,-41,0,0,0,0,0,0,0,0,0,-1,1483,1065,0,0
266,-41,0,0,0,0,0,0,0,0,0,-1,1490,1065,0,0
273,-41,0,0,0,0,0,0,0,0,0,-1,1497,1065,0,0
280,-41,0,0,0,0,0,0,0,0,0,-1,1504,1065,0,0
287,-41,0,0,0,0,0,0,0,0,0,-1,1511,1065,0,0
294,-41,0,0,0,0,0,0,0,0,0,-1,1518,1065,0,0
301,-41,0,0,0,0,0,0,0,0,0,-1,1525,1065,0,0
308,-41,0,0,0,0,0,0,0,0,0,-1,1532,1065,0,0
315,-41,0,0,0,0,0,0,0,0,0,-1,1539,1065,0,0
322,-41,0,0,0,0,0,0,0,0,0,-1,1546,1065,0,0
329,-41,0,0,0,0,0,0,0,0,0,-1,1553,1065,0,0
336,-41,0,0,0,0,0,0,0,0,0,-1,1560,1065,0,0
343,-41,0,0,0,0,0,0,0,0,0,-1,1567,1065,0,0
350,-41,0,0,0,0,0,0,0,0,0,-1,1574,1065,0,0
357,-41,0,0,0,0,0,0,0,0,0,-1,1581,1065,0,0
364,-41,0,0,0,0,0,0,0,0,0,-1,1588,1065,0,0
371,-41,0,0,0,0,0,0,0,0,0,-1,1595,1065,0,0
378,-41,0,0,0,0,0,0,0,0,0,-1,1602,1065,0,0
385,-41,0,0,0,0,0,0,0,0,0,-1,1609,1065,0,0
392,-41,0,0,0,0,0,0,0,0,0,-1,1616,1065,0,0
399,-41,0,0,0,0,0,0,0,0,0,-1,1623,1065,0,0
406,-41,0,0,0,0,0,0,0,0,0,-1,1630,1065,0,0
413,-41,0,0,0,0,0,0,0,0,0,-1,1637,1065,0,0
420,-41,0,0,0,0,0,0,0,0,0,-1,1644,1065,0,0
427,-41,0,0,0,0,0,0,0,0,0,-1,1651,1065,0,0
434,-41,0,0,0,0,0,0,0,0,0,-1,1658,1065,0,0
441,-41,0,0,0,0,0,0,0,0,0,-1,1665,1065,0,0
448,-41,0,0,0,0,0,0,0,0,0,-1,1672,1065,0,0
455,-41,0,0,0,0,0,0,0,0,0,-1,1679,1065,0,0
462,-41,0,0,0,0,0,0,0,0,0,-1,1686,1065,0,0
469,-41,0,0,0,0,0,0,0,0,0,-1,1693,1065,0,0
476,-41,0,0,0,0,0,0,0,0,0,-1,1700,1065,0,0
483,-41,0,0,0,0,0,0,0,0,0,-1,1707,1065,0,0
490,-41,0,0,0,0,0,0,0,0,0,-1,1714,1065,0,0
497,-41,0,0,0,0,0,0,0,0,0,-1,1721,1065,0,0
504,-41,0,0,0,0,0,0,0,0,0,-1,1728,1065,0,0
511,-41,0,0,0,0,0,0,0,0,0,-1,1735,1065,0,0
518,-41,0,0,0,0,0,0,0,0,0,-1,1742,1065,0,0
525,-41,0,0,0,0,0,0,0,0,0,-1,1749,1065,0,0
532,-41,0,0,0,0,0,0,0,0,0,-1,1756,1065,0,0
539,-41,0,0,0,0,0,0,0,0,0,-1,1763,1065,0,0
546,-41,0,0,0,0,0,0,0,0,0,-1,1770,1065,0,0
553,-41,0,0,0,0,0,0,0,0,0,-1,1777,1065,0,0
560,-41,0,0,0,0,0,0,0,0,0,-1,1784,1065,0,0
567,-41,0,0,0,0,0,0,0,0,0,-1,1791,1065,0,0
574,-41,0,0,0,0,0,0,0,0,0,-1,1798,1065,0,0
581,-41,0,0,0,0,0,0,0,0,0,-1,1805,1065,0,0
588,-41,0,0,0,0,0,0,0,0,0,-1,1812,1065,0,0
595,-41,0,0,0,0,0,0,0,0,0,-1,1819,1065,0,0
602,-41,0,0,0,0,0,0,0,0,0,-1,1826,1065,0,0
609,-41,0,0,0,0,0,0,0,0,0,-1,1833,1065,0,0
616,-41,0,0,0,0,0,0,0,0,0,-1,1840,1065,0,0
623,-41,0,0,0,0,0,0,0,0,0,-1,1847,1065,0,0
630,-41,0,0,0,0,0,0,0,0,0,-1,1854,1065,0,0
637,-41,0,0,0,0,0,0,0,0,0,-1,1861,1065,0,0
644,-41,0,0,0,0,0,0,0,0,0,-1,1868,1065,0,0
651,-41,49.051,2.6781,0.000792019,0.0010002,-0.00135784,0.00225793,-0.00046571,-0.823653,0.00168215,0.035077,1875,1065,49.051,-2.67816
658,-41,48.9153,2.60352,0.000313284,0.000865354,-0.000944466,0.0015733,-0.000394658,-0.927571,0.00120221,0.0389185,1882,1065,48.9152,-2.60349
665,-41,49.0509,2.4447,5.07444e-05,0.000664152,-0.000494088,0.000938989,-0.000224093,-1.06317,0.000712535,0.0392402,1889,1065,49.0509,-2.44467
672,-41,49.0521,2.40369,-1.82701e-05,0.000527682,1.90217e-05,0.000528344,-1.8932e-05,1.53601,0.000358706,0.0393736,1896,1065,49.0522,-2.40363
679,-41,49.0652,2.52832,-3.14943e-05,0.000373294,0.000555268,0.000761904,-0.000420105,0.960164,0.000691878,0.0379489,1903,1065,49.0651,-2.52832
686,-41,49.1754,2.72888,-0.000249483,-2.25073e-06,0.00109507,0.000976162,-0.0012279,0.841602,0.00127528,0.0415059,1910,1065,49.1755,-2.72885
693,-41,49.3931,2.37817,-0.000446775,-0.000411778,0.00160026,0.00117108,-0.00202964,0.790865,0.00186996,0.0452698,1917,1065,49.3931,-2.37823
700,-41,49.1371,2.48169,-0.000657948,-0.000642502,0.00201144,0.00136123,-0.00266168,0.787318,0.00236273,0.0394913,1924,1065,49.1371,-2.48164
707,-41,48.9844,2.55444,-0.00107698,-0.000669033,0.0023086,0.00144459,-0.00319059,0.82946,0.00273868,0.0259172,1931,1065,48.9843,-2.55448
714,-41,48.9735,2.61035,-0.00158195,-0.000503989,0.00254653,0.00155997,-0.00364591,0.889686,0.00308499,0.0212996,1938,1065,48.9735,-2.61034
721,-41,48.9658,2.67126,0,0,0,0,0,0,0,-1,1945,1065,48.9658,-2.67124
728,-41,48.3091,6.18506,0,0,0,0,0,0,0,-1,1952,1065,48.3091,-6.1851
735,-41,48.1832,6.03308,-0.00334919,0.00123983,0.00276499,0.00253836,-0.00464772,1.13174,0.00420805,0.0190814,1959,1065,48.1832,-6.03312
742,-41,48.1106,5.89453,-0.00280197,0.00234068,0.00157377,0.00278406,-0.00324535,1.29618,0.00348448,0.0154106,1966,1065,48.1106,-5.89459
749,-41,48.1271,5.76599,-0.000944474,0.00533739,-0.00114106,0.00553823,-0.00114532,-1.39657,0.00412724,0.014149,1973,1065,48.1271,-5.76605
756,-41,48.1487,5.60181,0.00140235,0.00902958,-0.00413804,0.0108433,-0.000411377,-1.15771,0.00736983,0.013824,1980,1065,48.1487,-5.60177
763,-41,48.0907,5.38416,0.00507956,0.0136865,-0.00825593,0.0186932,7.27959e-05,-1.02565,0.012438,0.0115256,1987,1065,48.0907,-5.38411
770,-41,48.0138,5.20117,0.0112637,0.0205026,-0.0147291,0.0313197,0.000446628,-0.937353,0.0207325,0.0131362,1994,1065,48.0138,-5.20123
777,-41,47.8865,5.03259,0.0211314,0.0302412,-0.0241131,0.0502258,0.00114683,-0.878747,0.0331082,0.0153341,2001,1065,47.8865,-5.03262
784,-41,47.7712,4.79736,0.0330673,0.0415102,-0.0350385,0.0725807,0.00199683,-0.845349,0.0477354,0.0270049,2008,1065,47.7712,-4.79741
791,-41,47.4399,5.00378,0.0479232,0.0550372,-0.0481544,0.0997658,0.00319456,-0.822264,0.0654717,0.0482691,2015,1065,47.44,-5.00373
798,-41,47.3901,0.0854492,0.0669404,0.0717361,-0.0640403,0.133423,0.00525306,-0.804111,0.0872507,0.0458698,2022,1065,47.3901,-0.085503
805,-41,47.1917,-1.00928,0.0906049,0.092394,-0.0826459,0.17415,0.0088487,-0.79081,0.113266,0.0471085,2029,1065,47.1915,1.00928
812,-41,52.5422,1.15588,0,0,0,0,0,0,0,-1,2036,1065,52.5423,-1.1559
-700,-48,-34.0287,1.26489,0.000348851,0.0262878,-0.0302113,0.0461959,-0.0195592,-0.988148,0.0389882,0.0443365,524,1072,-34.0287,-1.26494
-693,-48,-33.935,1.9342,-0.00936461,0.0342623,-0.0304266,0.0498868,-0.0249892,-1.09639,0.0440191,0.0416695,531,1072,-33.935,-1.93415
-686,-48,-33.9023,2.15222,-0.0145281,0.0373591,-0.028128,0.0496811,-0.0268501,-1.15791,0.0448359,0.04735,538,1072,-33.9023,-2.15228
-679,-48,-34.9122,1.16382,-0.0167855,0.037803,-0.0247833,0.0473759,-0.0263584,-1.20219,0.0431432,0.0454102,545,1072,-34.9122,-1.16376
-672,-48,-36.0424,0.285156,-0.0170938,0.0364642,-0.0210037,0.0437186,-0.0243482,-1.23824,0.0398253,0.0463343,552,1072,-36.0424,-0.285128
-665,-48,-35.287,-0.0783691,0,0,0,0,0,0,0,-1,559,1072,-35.287,0.0783383
-658,-48,-35.2513,0.480103,-0.014207,0.0302798,-0.0135634,0.0340889,-0.0180162,-1.29701,0.0305562,0.0476674,566,1072,-35.2513,-0.480142
-651,-48,-35.4484,1.42871,-0.0118615,0.0260131,-0.0103963,0.0286791,-0.0145276,-1.31976,0.0253875,0.0376082,573,1072,-35.4484,-1.4287
-644,-48,-35.5847,2.07739,-0.0099594,0.0220481,-0.00797451,0.0239249,-0.0118362,-1.33966,0.0210362,0.0213982,580,1072,-35.5847,-2.07745
-637,-48,-35.5916,2.26147,-0.00755335,0.0175771,-0.00561508,0.0187747,-0.0087509,-1.36067,0.0162393,0.0215352,587,1072,-35.5915,-2.26146
-630,-48,-35.6081,2.52466,-0.00483781,0.0123334,-0.00360115,0.0130581,-0.00556246,-1.37222,0.0110371,0.0223496,594,1072,-35.6081,-2.5247
-623,-48,-35.6949,2.80493,-0.0024487,0.00793351,-0.00222654,0.00839086,-0.00290605,-1.36821,0.00677367,0.011671,601,1072,-35.6949,-2.80493
-616,-48,-35.6969,3.08167,-0.000628652,0.00425494,-0.00145638,0.00465628,-0.00102999,-1.3019,0.00349843,0.0107808,608,1072,-35.6969,-3.08161
-609,-48,-35.6533,3.36133,0.000248513,0.00204628,-0.0010388,0.00252111,-0.000226321,-1.14206,0.00176103,0.0125904,615,1072,-35.6532,-3.36132
-602,-48,-35.6707,3.58984,0.000597556,0.000411248,-0.000799726,0.00130954,-0.000300731,-0.727418,0.000988633,0.0129599,622,1072,-35.6707,-3.58987
-595,-48,-35.7123,3.7804,0.000753575,-0.000256942,-0.000815823,0.00120793,-0.000711294,-0.508144,0.00112036,0.0292745,629,1072,-35.7123,-3.78038
-588,-48,-35.9124,3.93628,0,0,0,0,0,0,0,-1,636,1072,-35.9124,-3.93623
-581,-48,-36.4191,0.623047,0.00131806,-0.00052424,-0.000667962,0.00153476,-0.000740935,-0.3137,0.00134025,0.0458675,643,1072,-36.419,-0.622993
-574,-48,-36.4836,0.920044,0.00138455,-0.000322163,-0.000562939,0.0015535,-0.000491116,-0.291574,0.00123244,0.038612,650,1072,-36.4837,-0.919993
-567,-48,-36.5339,1.10034,0.00138551,0.000115642,-0.000555081,0.00159394,-9.27831e-05,-0.359197,0.00109486,0.0401048,657,1072,-36.5339,-1.10039
-560,-48,-36.5932,0.903931,0.00137387,0.000757809,-0.000704135,0.0018344,0.000297275,-0.579211,0.00113687,0.0423521,664,1072,-36.5932,-0.903967
-553,-48,-36.5792,0.869629,0.00149973,0.00148125,-0.00107928,0.00256981,0.000411168,-0.781117,0.00159393,0.0433213,671,1072,-36.5791,-0.869595
-546,-48,-36.4822,0.873535,0.00196295,0.00210779,-0.00178993,0.00382676,0.000243984,-0.805617,0.00247386,0.0414936,678,1072,-36.4822,-0.873488
-539,-48,-36.4628,0.811401,0.00304991,0.00223166,-0.00301954,0.00568792,-0.00040635,-0.718062,0.0039344,0.039988,685,1072,-36.4628,-0.811383
-532,-48,-36.4527,0.755737,0.00430461,0.00265056,-0.00414874,0.00770795,-0.000752778,-0.687016,0.00540705,0.0404023,692,1072,-36.4527,-0.755737
-525,-48,0,0,0,0,0,0,0,0,0,-1,699,1072,0,0
-518,-48,0,0,0,0,0,0,0,0,0,-1,706,1072,0,0
-511,-48,0,0,0,0,0,0,0,0,0,-1,713,1072,0,0
-504,-48,0,0,0,0,0,0,0,0,0,-1,720,1072,0,0
-497,-48,0,0,0,0,0,0,0,0,0,-1,727,1072,0,0
-490,-48,0,0,0,0,0,0,0,0,0,-1,734,1072,0,0
-483,-48,0,0,0,0,0,0,0,0,0,-1,741,1072,0,0
-476,-48,0,0,0,0,0,0,0,0,0,-1,748,1072,0,0
-469,-48,0,0,0,0,0,0,0,0,0,-1,755,1072,0,0
-462,-48,0,0,0,0,0,0,0,0,0,-1,762,1072,0,0
-455,-48,0,0,0,0,0,0,0,0,0,-1,769,1072,0,0
-448,-48,0,0,0,0,0,0,0,0,0,-1,776,1072,0,0
-441,-48,0,0,0,0,0,0,0,0,0,-1,783,1072,0,0
-434,-48,0,0,0,0,0,0,0,0,0,-1,790,1072,0,0
-427,-48,0,0,0,0,0,0,0,0,0,-1,797,1072,0,0
-420,-48,0,0,0,0,0,0,0,0,0,-1,804,1072,0,0
-413,-48,0,0,0,0,0,0,0,0,0,-1,811,1072,0,0
-406,-48,0,0,0,0,0,0,0,0,0,-1,818,1072,0,0
-399,-48,0,0,0,0,0,0,0,0,0,-1,825,1072,0,0
-392,-48,0,0,0,0,0,0,0,0,0,-1,832,1072,0,0
-385,-48,0,0,0,0,0,0,0,0,0,-1,839,1072,0,0
-378,-48,0,0,0,0,0,0,0,0,0,-1,846,1072,0,0
-371,-48,0,0,0,0,0,0,0,0,0,-1,853,1072,0,0
-364,-48,0,0,0,0,0,0,0,0,0,-1,860,1072,0,0
-357,-48,0,0,0,0,0,0,0,0,0,-1,867,1072,0,0
-350,-48,0,0,0,0,0,0,0,0,0,-1,874,1072,0,0
-343,-48,0,0,0,0,0,0,0,0,0,-1,881,1072,0,0
-336,-48,0,0,0,0,0,0,0,0,0,-1,888,1072,0,0
-329,-48,0,0,0,0,0,0,0,0,0,-1,895,1072,0,0
-322,-48,0,0,0,0,0,0,0,0,0,-1,902,1072,0,0
-315,-48,0,0,0,0,0,0,0,0,0,-1,909,1072,0,0
-308,-48,0,0,0,0,0,0,0,0,0,-1,916,1072,0,0
-301,-48,0,0,0,0,0,0,0,0,0,-1,923,1072,0,0
-294,-48,0,0,0,0,0,0,0,0,0,-1,930,1072,0,0
-287,-48,0,0,0,0,0,0,0,0,0,-1,937,1072,0,0
-280,-48,0,0,0,0,0,0,0,0,0,-1,944,1072,0,0
-273,-48,0,0,0,0,0,0,0,0,0,-1,951,1072,0,0
-266,-48,0,0,0,0,0,0,0,0,0,-1,958,1072,0,0
-259,-48,0,0,0,0,0,0,0,0,0,-1,965,1072,0,0
-252,-48,0,0,0,0,0,0,0,0,0,-1,972,1072,0,0
-245,-48,0,0,0,0,0,0,0,0,0,-1,979,1072,0,0
-238,-48,0,0,0,0,0,0,0,0,0,-1,986,1072,0,0
-231,-48,0,0,0,0,0,0,0,0,0,-1,993,1072,0,0
-224,-48,0,0,0,0,0,0,0,0,0,-1,1000,1072,0,0
-217,-48,0,0,0,0,0,0,0,0,0,-1,1007,1072,0,0
-210,-48,0,0,0,0,0,0,0,0,0,-1,1014,1072,0,0
-203,-48,0,0,0,0,0,0,0,0,0,-1,1021,1072,0,0
-196,-48,0,0,0,0,0,0,0,0,0,-1,1028,1072,0,0
-189,-48,0,0,0,0,0,0,0,0,0,-1,1035,1072,0,0
-182,-48,0,0,0,0,0,0,0,0,0,-1,1042,1072,0,0
-175,-48,0,0,0,0,0,0,0,0,0,-1,1049,1072,0,0
-168,-48,0,0,0,0,0,0,0,0,0,-1,1056,1072,0,0
-161,-48,0,0,0,0,0,0,0,0,0,-1,1063,1072,0,0
-154,-48,0,0,0,0,0,0,0,0,0,-1,1070,1072,0,0
-147,-48,0,0,0,0,0,0,0,0,0,-1,1077,1072,0,0
-140,-48,0,0,0,0,0,0,0,0,0,-1,1084,1072,0,0
-133,-48,0,0,0,0,0,0,0,0,0,-1,1091,1072,0,0
-126,-48,0,0,0,0,0,0,0,0,0,-1,1098,1072,0,0
-119,-48,0,0,0,0,0,0,0,0,0,-1,1105,1072,0,0
-112,-48,0,0,0,0,0,0,0,0,0,-1,1112,1072,0,0
-105,-48,0,0,0,0,0,0,0,0,0,-1,1119,1072,0,0
-98,-48,0,0,0,0,0,0,0,0,0,-1,1126,1072,0,0
-91,-48,0,0,0,0,0,0,0,0,0,-1,1133,1072,0,0
-84,-48,0,0,0,0,0,0,0,0,0,-1,1140,1072,0,0
-77,-48,0,0,0,0,0,0,0,0,0,-1,1147,1072,0,0
-70,-48,0,0,0,0,0,0,0,0,0,-1,1154,1072,0,0
-63,-48,0,0,0,0,0,0,0,0,0,-1,1161,1072,0,0
-56,-48,0,0,0,0,0,0,0,0,0,-1,1168,1072,0,0
-49,-48,0,0,0,0,0,0,0,0,0,-1,1175,1072,0,0
-42,-48,0,0,0,0,0,0,0,0,0,-1,1182,1072,0,0
-35,-48,0,0,0,0,0,0,0,0,0,-1,1189,1072,0,0
-28,-48,0,0,0,0,0,0,0,0,0,-1,1196,1072,0,0
-21,-48,0,0,0,0,0,0,0,0,0,-1,1203,1072,0,0
-14,-48,0,0,0,0,0,0,0,0,0,-1,1210,1072,0,0
-7,-48,0,0,0,0,0,0,0,0,0,-1,1217,1072,0,0
0,-48,0,0,0,0,0,0,0,0,0,-1,1224,1072,0,0
7,-48,0,0,0,0,0,0,0,0,0,-1,1231,1072,0,0
14,-48,0,0,0,0,0,0,0,0,0,-1,1238,1072,0,0
21,-48,0,0,0,0,0,0,0,0,0,-1,1245,1072,0,0
28,-48,0,0,0,0,0,0,0,0,0,-1,1252,1072,0,0
35,-48,0,0,0,0,0,0,0,0,0,-1,1259,1072,0,0
42,-48,0,0,0,0,0,0,0,0,0,-1,1266,1072,0,0
49,-48,0,0,0,0,0,0,0,0,0,-1,1273,1072,0,0
56,-48,0,0,0,0,0,0,0,0,0,-1,1280,1072,0,0
63,-48,0,0,0,0,0,0,0,0,0,-1,1287,1072,0,0
70,-48,0,0,0,0,0,0,0,0,0,-1,1294,1072,0,0
77,-48,0,0,0,0,0,0,0,0,0,-1,1301,1072,0,0
84,-48,0,0,0,0,0,0,0,0,0,-1,1308,1072,0,0
91,-48,0,0,0,0,0,0,0,0,0,-1,1315,1072,0,0
98,-48,0,0,0,0,0,0,0,0,0,-1,1322,1072,0,0
105,-48,0,0,0,0,0,0,0,0,0,-1,1329,1072,0,0
112,-48,0,0,0,0,0,0,0,0,0,-1,1336,1072,0,0
119,-48,0,0,0,0,0,0,0,0,0,-1,1343,1072,0,0
126,-48,0,0,0,0,0,0,0,0,0,-1,1350,1072,0,0
133,-48,0,0,0,0,0,0,0,0,0,-1,1357,1072,0,0
140,-48,0,0,0,0,0,0,0,0,0,-1,1364,1072,0,0
147,-48,0,0,0,0,0,0,0,0,0,-1,1371,1072,0,0
154,-48,0,0,0,0,0,0,0,0,0,-1,1378,1072,0,0
161,-48,0,0,0,0,0,0,0,0,0,-1,1385,1072,0,0
168,-48,0,0,0,0,0,0,0,0,0,-1,1392,1072,0,0
175,-48,0,0,0,0,0,0,0,0,0,-1,1399,1072,0,0
182,-48,0,0,0,0,0,0,0,0,0,-1,1406,1072,0,0
189,-48,0,0,0,0,0,0,0,0,0,-1,1413,1072,0,0
196,-48,0,0,0,0,0,0,0,0,0,-1,1420,1072,0,0
203,-48,0,0,0,0,0,0,0,0,0,-1,1427,1072,0,0
210,-48,0,0,0,0,0,0,0,0,0,-1,1434,1072,0,0
217,-48,0,0,0,0,0,0,0,0,0,-1,1441,1072,0,0
224,-48,0,0,0,0,0,0,0,0,0,-1,1448,1072,0,0
231,-48,0,0,0,0,0,0,0,0,0,-1,1455,1072,0,0
238,-48,0,0,0,0,0,0,0,0,0,-1,1462,1072,0,0
245,-48,0,0,0,0,0,0,0,0,0,-1,1469,1072,0,0
252,-48,0,0,0,0,0,0,0,0,0,-1,1476,1072,0,0
259,-48,0,0,0,0,0,0,0,0,0,-1,1483,1072,0,0
266,-48,0,0,0,0,0,0,0,0,0,-1,1490,1072,0,0
273,-48,0,0,0,0,0,0,0,0,0,-1,1497,1072,0,0
280,-48,0,0,0,0,0,0,0,0,0,-1,1504,1072,0,0
287,-48,0,0,0,0,0,0,0,0,0,-1,1511,1072,0,0
294,-48,0,0,0,0,0,0,0,0,0,-1,1518,1072,0,0
301,-48,0,0,0,0,0,0,0,0,0,-1,1525,1072,0,0
308,-48,0,0,0,0,0,0,0,0,0,-1,1532,1072,0,0
315,-48,0,0,0,0,0,0,0,0,0,-1,1539,1072,0,0
322,-48,0,0,0,0,0,0,0,0,0,-1,1546,1072,0,0
329,-48,0,0,0,0,0,0,0,0,0,-1,1553,1072,0,0
336,-48,0,0,0,0,0,0,0,0,0,-1,1560,1072,0,0
343,-48,0,0,0,0,0,0,0,0,0,-1,1567,1072,0,0
350,-48,0,0,0,0,0,0,0,0,0,-1,1574,1072,0,0
357,-48,0,0,0,0,0,0,0,0,0,-1,1581,1072,0,0
364,-48,0,0,0,0,0,0,0,0,0,-1,1588,1072,0,0
371,-48,0,0,0,0,0,0,0,0,0,-1,1595,1072,0,0
378,-48,0,0,0,0,0,0,0,0,0,-1,1602,1072,0,0
385,-48,0,0,0,0,0,0,0,0,0,-1,1609,1072,0,0
392,-48,0,0,0,0,0,0,0,0,0,-1,1616,1072,0,0
399,-48,0,0,0,0,0,0,0,0,0,-1,1623,1072,0,0
406,-48,0,0,0,0,0,0,0,0,0,-1,1630,1072,0,0
413,-48,0,0,0,0,0,0,0,0,0,-1,1637,1072,0,0
420,-48,0,0,0,0,0,0,0,0,0,-1,1644,1072,0,0
427,-48,0,0,0,0,0,0,0,0,0,-1,1651,1072,0,0
434,-48,0,0,0,0,0,0,0,0,0,-1,1658,1072,0,0
441,-48,0,0,0,0,0,0,0,0,0,-1,1665,1072,0,0
448,-48,0,0,0,0,0,0,0,0,0,-1,1672,1072,0,0
455,-48,0,0,0,0,0,0,0,0,0,-1,1679,1072,0,0
462,-48,0,0,0,0,0,0,0,0,0,-1,1686,1072,0,0
469,-48,0,0,0,0,0,0,0,0,0,-1,1693,1072,0,0
476,-48,0,0,0,0,0,0,0,0,0,-1,1700,1072,0,0
483,-48,0,0,0,0,0,0,0,0,0,-1,1707,1072,0,0
490,-48,0,0,0,0,0,0,0,0,0,-1,1714,1072,0,0
497,-48,0,0,0,0,0,0,0,0,0,-1,1721,1072,0,0
504,-48,0,0,0,0,0,0,0,0,0,-1,1728,1072,0,0
511,-48,0,0,0,0,0,0,0,0,0,-1,1735,1072,0,0
518,-48,0,0,0,0,0,0,0,0,0,-1,1742,1072,0,0
525,-48,0,0,0,0,0,0,0,0,0,-1,1749,1072,0,0
532,-48,0,0,0,0,0,0,0,0,0,-1,1756,1072,0,0
539,-48,0,0,0,0,0,0,0,0,0,-1,1763,1072,0,0
546,-48,0,0,0,0,0,0,0,0,0,-1,1770,1072,0,0
553,-48,0,0,0,0,0,0,0,0,0,-1,1777,1072,0,0
560,-48,0,0,0,0,0,0,0,0,0,-1,1784,1072,0,0
567,-48,0,0,0,0,0,0,0,0,0,-1,1791,1072,0,0
574,-48,0,0,0,0,0,0,0,0,0,-1,1798,1072,0,0
581,-48,0,0,0,0,0,0,0,0,0,-1,1805,1072,0,0
588,-48,0,0,0,0,0,0,0,0,0,-1,1812,1072,0,0
595,-48,0,0,0,0,0,0,0,0,0,-1,1819,1072,0,0
602,-48,0,0,0,0,0,0,0,0,0,-1,1826,1072,0,0
609,-48,0,0,0,0,0,0,0,0,0,-1,1833,1072,0,0
616,-48,0,0,0,0,0,0,0,0,0,-1,1840,1072,0,0
623,-48,0,0,0,0,0,0,0,0,0,-1,1847,1072,0,0
630,-48,0,0,0,0,0,0,0,0,0,-1,1854,1072,0,0
637,-48,0,0,0,0,0,0,0,0,0,-1,1861,1072,0,0
644,-48,0,0,0,0,0,0,0,0,0,-1,1868,1072,0,0
651,-48,48.9811,2.51831,-0.000368128,0.00105145,-0.00164079,0.0021294,-0.00144608,-0.989538,0.00207683,0.0317477,1875,1072,48.9811,-2.5183
658,-48,48.9946,2.51257,-0.000420343,0.000886485,-0.00105441,0.00147353,-0.00100738,-1.06279,0.00144076,0.0356905,1882,1072,48.9947,-2.51259
665,-48,48.9149,2.46204,-0.000369411,0.000648744,-0.000512241,0.000861851,-0.000582518,-1.17655,0.000839089,0.0401914,1889,1072,48.9149,-2.46205
672,-48,48.8741,2.42188,-0.000198778,0.000487159,3.96033e-05,0.000489438,-0.000201057,1.51331,0.000410083,0.0399817,1896,1072,48.8741,-2.42182
679,-48,48.9385,2.5083,-5.37439e-05,0.000316488,0.000576162,0.000736542,-0.000473798,0.940835,0.000704257,0.0367412,1903,1072,48.9385,-2.50836
686,-48,49.1041,2.60608,-0.000180016,-4.64364e-05,0.00109163,0.000980442,-0.00120689,0.815952,0.00126511,0.0371389,1910,1072,49.1042,-2.60611
693,-48,49.2424,2.51135,-0.000318209,-0.000421788,0.00154748,0.00117835,-0.00191835,0.768671,0.00180481,0.0397098,1917,1072,49.2425,-2.5114
700,-48,49.1475,2.49915,-0.00048944,-0.000628298,0.00193794,0.00138031,-0.00249805,0.767493,0.00226996,0.0361549,1924,1072,49.1474,-2.49909
707,-48,49.0013,2.49792,-0.000862155,-0.000656904,0.00224271,0.00148553,-0.00300459,0.808262,0.00264136,0.0254602,1931,1072,49.0013,-2.4979
714,-48,48.9778,2.60449,-0.00130903,-0.000534541,0.00251614,0.00162398,-0.00346755,0.861751,0.00300314,0.0337596,1938,1072,48.9778,-2.60451
721,-48,48.9639,2.77673,0,0,0,0,0,0,0,-1,1945,1072,48.9638,-2.77678
728,-48,48.0586,6.30945,0,0,0,0,0,0,0,-1,1952,1072,48.0585,-6.30947
735,-48,47.9735,6.13879,-0.00300315,0.00103911,0.00277038,0.00244726,-0.0044113,1.10054,0.00401355,0.0213291,1959,1072,47.9735,-6.13875
742,-48,47.8694,5.93225,-0.00249997,0.00205617,0.00171918,0.00263208,-0.00307588,1.24756,0.00329881,0.0176617,1966,1072,47.8694,-5.93223
749,-48,47.8961,5.72925,-0.000402028,0.00475373,-0.000972995,0.00493124,-0.00057954,-1.39034,0.00349672,0.0154808,1973,1072,47.8961,-5.72924
756,-48,47.8881,5.53821,0.00225194,0.00815839,-0.0039262,0.0101181,0.00029227,-1.10785,0.00665009,0.0131809,1980,1072,47.8881,-5.53822
763,-48,47.837,5.34277,0.00628071,0.0124888,-0.00810637,0.0180651,0.000704402,-0.968243,0.0118156,0.0124492,1987,1072,47.8371,-5.34275
770,-48,47.8005,5.13196,0.0130544,0.0188648,-0.0147224,0.0309659,0.00095328,-0.882813,0.0203336,0.0139415,1994,1072,47.8005,-5.13193
777,-48,47.6797,4.91504,0.0234857,0.0277105,-0.0240814,0.049772,0.00142424,-0.829147,0.0327169,0.0122028,2001,1072,47.6798,-4.91503
784,-48,47.5688,4.67395,0.0362332,0.0379619,-0.0350719,0.0721801,0.00201504,-0.797718,0.0474626,0.022796,2008,1072,47.5688,-4.67389
791,-48,47.2549,4.55396,0.0524609,0.0503831,-0.0485255,0.0999586,0.00288533,-0.774695,0.0656984,0.0415722,2015,1072,47.2548,-4.55398
798,-48,47.3088,-1.55701,0.0736545,0.0658194,-0.0650853,0.13494,0.00453386,-0.755339,0.0884875,0.0488794,2022,1072,47.309,1.55701
805,-48,51.2488,2.08594,0,0,0,0,0,0,0,-1,2029,1072,51.2487,-2.086
812,-48,51.271,1.27319,0,0,0,0,0,0,0,-1,2036,1072,51.2711,-1.27322
-700,-55,-33.1902,1.2356,0.00865839,0.0443875,-0.0248267,0.0571089,-0.00406309,-1.09727,0.0394967,0.0447936,524,1079,-33.1902,-1.23554
-693,-55,-33.071,2.23547,-0.00246613,0.0508851,-0.0261969,0.0615976,-0.0131786,-1.18262,0.0460903,0.0493789,531,1079,-33.071,-2.23547
-686,-55,-34.001,1.26416,-0.00898002,0.0518217,-0.0248697,0.0606983,-0.0178566,-1.22797,0.0475488,0.046111,538,1079,-34.001,-1.26412
-679,-55,-35.3,0.533691,0,0,0,0,0,0,0,-1,545,1079,-35.3,-0.533636
-672,-55,-36.3106,-0.0935059,0,0,0,0,0,0,0,-1,552,1079,-36.3106,0.0935169
-665,-55,-34.9377,2.85278,0,0,0,0,0,0,0,-1,559,1079,-34.9377,-2.85278
-658,-55,-35.4465,1.86108,0,0,0,0,0,0,0,-1,566,1079,-35.4466,-1.86104
-651,-55,-35.2802,1.08752,-0.0105883,0.0294375,-0.00986293,0.0317359,-0.0128867,-1.34185,0.026518,0.041979,573,1079,-35.2802,-1.08749
-644,-55,-35.3141,1.9563,-0.00895073,0.0242092,-0.00761116,0.0258728,-0.0106142,-1.35562,0.0216711,0.0239451,580,1079,-35.3141,-1.95633
-637,-55,-35.3324,2.20166,-0.00683753,0.0186406,-0.00535364,0.0197198,-0.00791676,-1.37187,0.0164339,0.0191967,587,1079,-35.3324,-2.20163
-630,-55,-35.3351,2.50159,-0.00437046,0.0124507,-0.00334292,0.0130907,-0.00501046,-1.38164,0.0107922,0.0201161,594,1079,-35.3351,-2.50154
-623,-55,-35.4565,2.82556,-0.00218845,0.00764141,-0.00198625,0.00802758,-0.00257462,-1.37877,0.00638536,0.0170483,601,1079,-35.4565,-2.82561
-616,-55,-35.4722,3.07776,-0.000429867,0.00400216,-0.00114734,0.00428156,-0.00070927,-1.33192,0.00311781,0.0168359,608,1079,-35.4722,-3.07781
-609,-55,-35.4199,3.39453,0.000492688,0.00189053,-0.000587113,0.0021044,0.000278815,-1.22146,0.00131985,0.0176316,615,1079,-35.4199,-3.39455
-602,-55,-35.382,3.66199,0.000843279,0.000383492,-0.000209605,0.000924488,0.000302283,-0.369634,0.000544303,0.0149224,622,1079,-35.382,-3.66203
-595,-55,-35.2787,3.91968,0.000962109,-0.000223287,-0.000170023,0.000986014,-0.000247191,-0.139681,0.000753381,0.0308497,629,1079,-35.2787,-3.91963
-588,-55,-35.2784,4.22363,0,0,0,0,0,0,0,-1,636,1079,-35.2784,-4.22369
-581,-55,-36.4055,0.695557,0,0,0,0,0,0,0,-1,643,1079,-36.4055,-0.695581
-574,-55,-36.4758,0.83606,0.00142546,-0.000437854,-3.0249e-05,0.00142595,-0.000438345,-0.0162282,0.00112557,0.0374809,650,1079,-36.4757,-0.836045
-567,-55,-36.5573,1.10254,0.00137313,-0.000112735,-9.14487e-05,0.00137873,-0.000118342,-0.0612379,0.000961034,0.0391778,657,1079,-36.5572,-1.10252
-560,-55,-36.743,0.898315,0,0,0,0,0,0,0,-1,664,1079,-36.743,-0.898288
-553,-55,-36.3953,0.828857,0.00124,0.000891462,-0.000877452,0.00196032,0.000171141,-0.687369,0.00125373,0.0427865,671,1079,-36.3953,-0.828849
-546,-55,-36.408,0.747192,0.00152491,0.00126834,-0.00178032,0.00318156,-0.000388314,-0.749432,0.00226162,0.0390599,678,1079,-36.408,-0.747244
-539,-55,-36.4562,0.63208,0.00254174,0.00104316,-0.00328035,0.00515729,-0.00157238,-0.673115,0.00406498,0.0364141,685,1079,-36.4562,-0.632048
-532,-55,-36.4819,0.610107,0.00361079,0.00104719,-0.00445493,0.00696466,-0.00230667,-0.645319,0.00557345,0.0369711,692,1079,-36.4819,-0.6101
-525,-55,0,0,0,0,0,0,0,0,0,-1,699,1079,0,0
-518,-55,0,0,0,0,0,0,0,0,0,-1,706,1079,0,0
-511,-55,0,0,0,0,0,0,0,0,0,-1,713,1079,0,0
-504,-55,0,0,0,0,0,0,0,0,0,-1,720,1079,0,0
-497,-55,0,0,0,0,0,0,0,0,0,-1,727,1079,0,0
-490,-55,0,0,0,0,0,0,0,0,0,-1,734,1079,0,0
-483,-55,0,0,0,0,0,0,0,0,0,-1,741,1079,0,0
-476,-55,0,0,0,0,0,0,0,0,0,-1,748,1079,0,0
-469,-55,0,0,0,0,0,0,0,0,0,-1,755,1079,0,0
-462,-55,0,0,0,0,0,0,0,0,0,-1,762,1079,0,0
-455,-55,0,0,0,0,0,0,0,0,0,-1,769,1079,0,0
-448,-55,0,0,0,0,0,0,0,0,0,-1,776,1079,0,0
-441,-55,0,0,0,0,0,0,0,0,0,-1,783,1079,0,0
-434,-55,0,0,0,0,0,0,0,0,0,-1,790,1079,0,0
-427,-55,0,0,0,0,0,0,0,0,0,-1,797,1079,0,0
-420,-55,0,0,0,0,0,0,0,0,0,-1,804,1079,0,0
-413,-55,0,0,0,0,0,0,0,0,0,-1,811,1079,0,0
-406,-55,0,0,0,0,0,0,0,0,0,-1,818,1079,0,0
-399,-55,0,0,0,0,0,0,0,0,0,-1,825,1079,0,0
-392,-55,0,0,0,0,0,0,0,0,0,-1,832,1079,0,0
-385,-55,0,0,0,0,0,0,0,0,0,-1,839,1079,0,0
-378,-55,0,0,0,0,0,0,0,0,0,-1,846,1079,0,0
-371,-55,0,0,0,0,0,0,0,0,0,-1,853,1079,0,0
-364,-55,0,0,0,0,0,0,0,0,0,-1,860,1079,0,0
-357,-55,0,0,0,0,0,0,0,0,0,-1,867,1079,0,0
-350,-55,0,0,0,0,0,0,0,0,0,-1,874,1079,0,0
-343,-55,0,0,0,0,0,0,0,0,0,-1,881,1079,0,0
-336,-55,0,0,0,0,0,0,0,0,0,-1,888,1079,0,0
-329,-55,0,0,0,0,0,0,0,0,0,-1,895,1079,0,0
-322,-55,0,0,0,0,0,0,0,0,0,-1,902,1079,0,0
-315,-55,0,0,0,0,0,0,0,0,0,-1,909,1079,0,0
-308,-55,0,0,0,0,0,0,0,0,0,-1,916,1079,0,0
-301,-55,0,0,0,0,0,0,0,0,0,-1,923,1079,0,0
-294,-55,0,0,0,0,0,0,0,0,0,-1,930,1079,0,0
-287,-55,0,0,0,0,0,0,0,0,0,-1,937,1079,0,0
-280,-55,0,0,0,0,0,0,0,0,0,-1,944,1079,0,0
-273,-55,0,0,0,0,0,0,0,0,0,-1,951,1079,0,0
-266,-55,0,0,0,0,0,0,0,0,0,-1,958,1079,0,0
-259,-55,0,0,0,0,0,0,0,0,0,-1,965,1079,0,0
-252,-55,0,0,0,0,0,0,0,0,0,-1,972,1079,0,0
-245,-55,0,0,0,0,0,0,0,0,0,-1,979,1079,0,0
-238,-55,0,0,0,0,0,0,0,0,0,-1,986,1079,0,0
-231,-55,0,0,0,0,0,0,0,0,0,-1,993,1079,0,0
-224,-55,0,0,0,0,0,0,0,0,0,-1,1000,1079,0,0
-217,-55,0,0,0,0,0,0,0,0,0,-1,1007,1079,0,0
-210,-55,0,0,0,0,0,0,0,0,0,-1,1014,1079,0,0
-203,-55,0,0,0,0,0,0,0,0,0,-1,1021,1079,0,0
-196,-55,0,0,0,0,0,0,0,0,0,-1,1028,1079,0,0
-189,-55,0,0,0,0,0,0,0,0,0,-1,1035,1079,0,0
-182,-55,0,0,0,0,0,0,0,0,0,-1,1042,1079,0,0
-175,-55,0,0,0,0,0,0,0,0,0,-1,1049,1079,0,0
-168,-55,0,0,0,0,0,0,0,0,0,-1,1056,1079,0,0
-161,-55,0,0,0,0,0,0,0,0,0,-1,1063,1079,0,0
-154,-55,0,0,0,0,0,0,0,0,0,-1,1070,1079,0,0
-147,-55,0,0,0,0,0,0,0,0,0,-1,1077,1079,0,0
-140,-55,0,0,0,0,0,0,0,0,0,-1,1084,1079,0,0
-133,-55,0,0,0,0,0,0,0,0,0,-1,1091,1079,0,0
-126,-55,0,0,0,0,0,0,0,0,0,-1,1098,1079,0,0
-119,-55,0,0,0,0,0,0,0,0,0,-1,1105,1079,0,0
-112,-55,0,0,0,0,0,0,0,0,0,-1,1112,1079,0,0
-105,-55,0,0,0,0,0,0,0,0,0,-1,1119,1079,0,0
-98,-55,0,0,0,0,0,0,0,0,0,-1,1126,1079,0,0
-91,-55,0,0,0,0,0,0,0,0,0,-1,1133,1079,0,0
-84,-55,0,0,0,0,0,0,0,0,0,-1,1140,1079,0,0
-77,-55,0,0,0,0,0,0,0,0,0,-1,1147,1079,0,0
-70,-55,0,0,0,0,0,0,0,0,0,-1,1154,1079,0,0
-63,-55,0,0,0,0,0,0,0,0,0,-1,1161,1079,0,0
-56,-55,0,0,0,0,0,0,0,0,0,-1,1168,1079,0,0
-49,-55,0,0,0,0,0,0,0,0,0,-1,1175,1079,0,0
-42,-55,0,0,0,0,0,0,0,0,0,-1,1182,1079,0,0
-35,-55,0,0,0,0,0,0,0,0,0,-1,1189,1079,0,0
-28,-55,0,0,0,0,0,0,0,0,0,-1,1196,1079,0,0
-21,-55,0,0,0,0,0,0,0,0,0,-1,1203,1079,0,0
-14,-55,0,0,0,0,0,0,0,0,0,-1,1210,1079,0,0
-7,-55,0,0,0,0,0,0,0,0,0,-1,1217,1079,0,0
0,-55,0,0,0,0,0,0,0,0,0,-1,1224,1079,0,0
7,-55,0,0,0,0,0,0,0,0,0,-1,1231,1079,0,0
14,-55,0,0,0,0,0,0,0,0,0,-1,1238,1079,0,0
21,-55,0,0,0,0,0,0,0,0,0,-1,1245,1079,0,0
28,-55,0,0,0,0,0,0,0,0,0,-1,1252,1079,0,0
35,-55,0,0,0,0,0,0,0,0,0,-1,1259,1079,0,0
42,-55,0,0,0,0,0,0,0,0,0,-1,1266,1079,0,0
49,-55,0,0,0,0,0,0,0,0,0,-1,1273,1079,0,0
56,-55,0,0,0,0,0,0,0,0,0,-1,1280,1079,0,0
63,-55,0,0,0,0,0,0,0,0,0,-1,1287,1079,0,0
70,-55,0,0,0,0,0,0,0,0,0,-1,1294,1079,0,0
77,-55,0,0,0,0,0,0,0,0,0,-1,1301,1079,0,0
84,-55,0,0,0,0,0,0,0,0,0,-1,1308,1079,0,0
91,-55,0,0,0,0,0,0,0,0,0,-1,1315,1079,0,0
98,-55,0,0,0,0,0,0,0,0,0,-1,1322,1079,0,0
105,-55,0,0,0,0,0,0,0,0,0,-1,1329,1079,0,0
112,-55,0,0,0,0,0,0,0,0,0,-1,1336,1079,0,0
119,-55,0,0,0,0,0,0,0,0,0,-1,1343,1079,0,0
126,-55,0,0,0,0,0,0,0,0,0,-1,1350,1079,0,0
133,-55,0,0,0,0,0,0,0,0,0,-1,1357,1079,0,0
140,-55,0,0,0,0,0,0,0,0,0,-1,1364,1079,0,0
147,-55,0,0,0,0,0,0,0,0,0,-1,1371,1079,0,0
154,-55,0,0,0,0,0,0,0,0,0,-1,1378,1079,0,0
161,-55,0,0,0,0,0,0,0,0,0,-1,1385,1079,0,0
168,-55,0,0,0,0,0,0,0,0,0,-1,1392,1079,0,0
175,-55,0,0,0,0,0,0,0,0,0,-1,1399,1079,0,0
182,-55,0,0,0,0,0,0,0,0,0,-1,1406,1079,0,0
189,-55,0,0,0,0,0,0,0,0,0,-1,1413,1079,0,0
196,-55,0,0,0,0,0,0,0,0,0,-1,1420,1079,0,0
203,-55,0,0,0,0,0,0,0,0,0,-1,1427,1079,0,0
210,-55,0,0,0,0,0,0,0,0,0,-1,1434,1079,0,0
217,-55,0,0,0,0,0,0,0,0,0,-1,1441,1079,0,0
224,-55,0,0,0,0,0,0,0,0,0,-1,1448,1079,0,0
231,-55,0,0,0,0,0,0,0,0,0,-1,1455,1079,0,0
238,-55,0,0,0,0,0,0,0,0,0,-1,1462,1079,0,0
245,-55,0,0,0,0,0,0,0,0,0,-1,1469,1079,0,0
252,-55,0,0,0,0,0,0,0,0,0,-1,1476,1079,0,0
259,-55,0,0,0,0,0,0,0,0,0,-1,1483,1079,0,0
266,-55,0,0,0,0,0,0,0,0,0,-1,1490,1079,0,0
273,-55,0,0,0,0,0,0,0,0,0,-1,1497,1079,0,0
280,-55,0,0,0,0,0,0,0,0,0,-1,1504,1079,0,0
287,-55,0,0,0,0,0,0,0,0,0,-1,1511,1079,0,0
294,-55,0,0,0,0,0,0,0,0,0,-1,1518,1079,0,0
301,-55,0,0,0,0,0,0,0,0,0,-1,1525,1079,0,0
308,-55,0,0,0,0,0,0,0,0,0,-1,1532,1079,0,0
315,-55,0,0,0,0,0,0,0,0,0,-1,1539,1079,0,0
322,-55,0,0,0,0,0,0,0,0,0,-1,1546,1079,0,0
329,-55,0,0,0,0,0,0,0,0,0,-1,1553,1079,0,0
336,-55,0,0,0,0,0,0,0,0,0,-1,1560,1079,0,0
343,-55,0,0,0,0,0,0,0,0,0,-1,1567,1079,0,0
350,-55,0,0,0,0,0,0,0,0,0,-1,1574,1079,0,0
357,-55,0,0,0,0,0,0,0,0,0,-1,1581,1079,0,0
364,-55,0,0,0,0,0,0,0,0,0,-1,1588,1079,0,0
371,-55,0,0,0,0,0,0,0,0,0,-1,1595,1079,0,0
378,-55,0,0,0,0,0,0,0,0,0,-1,1602,1079,0,0
385,-55,0,0,0,0,0,0,0,0,0,-1,1609,1079,0,0
392,-55,0,0,0,0,0,0,0,0,0,-1,1616,1079,0,0
399,-55,0,0,0,0,0,0,0,0,0,-1,1623,1079,0,0
406,-55,0,0,0,0,0,0,0,0,0,-1,1630,1079,0,0
413,-55,0,0,0,0,0,0,0,0,0,-1,1637,1079,0,0
420,-55,0,0,0,0,0,0,0,0,0,-1,1644,1079,0,0
427,-55,0,0,0,0,0,0,0,0,0,-1,1651,1079,0,0
434,-55,0,0,0,0,0,0,0,0,0,-1,1658,1079,0,0
441,-55,0,0,0,0,0,0,0,0,0,-1,1665,1079,0,0
448,-55,0,0,0,0,0,0,0,0,0,-1,1672,1079,0,0
455,-55,0,0,0,0,0,0,0,0,0,-1,1679,1079,0,0
462,-55,0,0,0,0,0,0,0,0,0,-1,1686,1079,0,0
469,-55,0,0,0,0,0,0,0,0,0,-1,1693,1079,0,0
476,-55,0,0,0,0,0,0,0,0,0,-1,1700,1079,0,0
483,-55,0,0,0,0,0,0,0,0,0,-1,1707,1079,0,0
490,-55,0,0,0,0,0,0,0,0,0,-1,1714,1079,0,0
497,-55,0,0,0,0,0,0,0,0,0,-1,1721,1079,0,0
504,-55,0,0,0,0,0,0,0,0,0,-1,1728,1079,0,0
511,-55,0,0,0,0,0,0,0,0,0,-1,1735,1079,0,0
518,-55,0,0,0,0,0,0,0,0,0,-1,1742,1079,0,0
525,-55,0,0,0,0,0,0,0,0,0,-1,1749,1079,0,0
532,-55,0,0,0,0,0,0,0,0,0,-1,1756,1079,0,0
539,-55,0,0,0,0,0,0,0,0,0,-1,1763,1079,0,0
546,-55,0,0,0,0,0,0,0,0,0,-1,1770,1079,0,0
553,-55,0,0,0,0,0,0,0,0,0,-1,1777,1079,0,0
560,-55,0,0,0,0,0,0,0,0,0,-1,1784,1079,0,0
567,-55,0,0,0,0,0,0,0,0,0,-1,1791,1079,0,0
574,-55,0,0,0,0,0,0,0,0,0,-1,1798,1079,0,0
581,-55,0,0,0,0,0,0,0,0,0,-1,1805,1079,0,0
588,-55,0,0,0,0,0,0,0,0,0,-1,1812,1079,0,0
595,-55,0,0,0,0,0,0,0,0,0,-1,1819,1079,0,0
602,-55,0,0,0,0,0,0,0,0,0,-1,1826,1079,0,0
609,-55,0,0,0,0,0,0,0,0,0,-1,1833,1079,0,0
616,-55,0,0,0,0,0,0,0,0,0,-1,1840,1079,0,0
623,-55,0,0,0,0,0,0,0,0,0,-1,1847,1079,0,0
630,-55,0,0,0,0,0,0,0,0,0,-1,1854,1079,0,0
637,-55,0,0,0,0,0,0,0,0,0,-1,1861,1079,0,0
644,-55,0,0,0,0,0,0,0,0,0,-1,1868,1079,0,0
651,-55,48.9922,2.61096,-0.0009246,0.00117033,-0.00168717,0.00210875,-0.00186302,-1.0632,0.00229456,0.0350065,1875,1079,48.9922,-2.61101
658,-55,49.059,2.57874,-0.000733375,0.000936462,-0.00106141,0.00145198,-0.00124889,-1.11866,0.00156082,0.0322218,1882,1079,49.059,-2.57868
665,-55,48.8716,2.53845,-0.000486927,0.000649226,-0.000508891,0.00084383,-0.000681531,-1.20555,0.000882327,0.0370253,1889,1079,48.8716,-2.53846
672,-55,48.8164,2.51904,-0.000151144,0.000449612,2.37592e-05,0.000450551,-0.000152083,1.53133,0.000361875,0.0383226,1896,1079,48.8165,-2.519
679,-55,48.8882,2.57642,8.85587e-05,0.000252281,0.000524604,0.000701372,-0.000360532,0.862796,0.000623529,0.0364948,1903,1079,48.8882,-2.57646
686,-55,48.7361,2.35852,2.073e-05,-0.000107283,0.0010031,0.000961867,-0.00104842,0.753537,0.001161,0.0378634,1910,1079,48.7361,-2.35851
693,-55,48.9016,2.46655,-8.31307e-05,-0.000455596,0.00141333,0.00115619,-0.00169491,0.719891,0.00165585,0.0373962,1917,1079,48.9016,-2.46659
700,-55,49.0608,2.56982,-0.000250445,-0.000622183,0.0017661,0.00133954,-0.00221217,0.73297,0.00207111,0.0335167,1924,1079,49.0608,-2.56986
707,-55,49.0397,2.57373,-0.000584573,-0.000647355,0.00207853,0.0014628,-0.00269473,0.777847,0.00243522,0.022722,1931,1079,49.0397,-2.57368
714,-55,48.995,2.6925,-0.000979215,-0.000552197,0.0023836,0.00162744,-0.00315885,0.830066,0.00281012,0.0407111,1938,1079,48.995,-2.69245
721,-55,49.0189,2.88599,0,0,0,0,0,0,0,-1,1945,1079,49.0189,-2.88594
728,-55,47.7622,6.39502,0,0,0,0,0,0,0,-1,1952,1079,47.7622,-6.39501
735,-55,47.6781,6.17285,-0.00266792,0.000883055,0.00267454,0.00231779,-0.00410265,1.07842,0.00375429,0.0202463,1959,1079,47.6781,-6.17285
742,-55,47.6742,5.96082,-0.00228312,0.00183787,0.00183302,0.0025352,-0.00298045,1.20728,0.00318792,0.0208465,1966,1079,47.6741,-5.96079
749,-55,47.6919,5.72742,-0.00013539,0.00425116,-0.000622107,0.00433768,-0.000221911,-1.4326,0.00296852,0.0146739,1973,1079,47.6919,-5.72741
756,-55,47.6135,5.50793,0.00260298,0.00728298,-0.00333573,0.00901761,0.000868341,-1.09126,0.00574422,0.0119746,1980,1079,47.6136,-5.5079
763,-55,47.5797,5.3053,0.00675133,0.0112319,-0.00734462,0.0166703,0.00131292,-0.933427,0.0107028,0.014273,1987,1079,47.5797,-5.30526
770,-55,47.5479,5.07654,0.0137569,0.0170246,-0.0136884,0.0291763,0.00160523,-0.844797,0.0189385,0.0156942,1994,1079,47.5479,-5.07654
777,-55,47.4568,4.8429,0.0242332,0.0247742,-0.0224251,0.0469304,0.00207692,-0.791428,0.0306181,0.0130816,2001,1079,47.4568,-4.84288
784,-55,47.3311,4.62146,0.0371669,0.0336974,-0.0327552,0.0682332,0.00263108,-0.758942,0.0446376,0.0278715,2008,1079,47.3311,-4.62152
791,-55,47.0583,4.62341,0.0539989,0.044475,-0.0455933,0.0950782,0.00339565,-0.733365,0.0622844,0.0419644,2015,1079,47.0584,-4.62338
798,-55,46.8018,4.58423,0.076387,0.0577509,-0.0615643,0.129334,0.00480347,-0.710291,0.0846672,0.049609,2022,1079,46.8019,-4.58422
805,-55,50.1929,2.16345,0.105471,0.074337,-0.0808992,0.172287,0.00752061,-0.690348,0.112435,0.0482458,2029,1079,50.1929,-2.1634
812,-55,49.8359,1.51282,0,0,0,0,0,0,0,-1,2036,1079,49.8361,-1.51287
-700,-62,-32.3439,1.16174,0,0,0,0,0,0,0,-1,524,1086,-32.3439,-1.16171
-693,-62,-32.2951,2.47595,0,0,0,0,0,0,0,-1,531,1086,-32.2951,-2.4759
-686,-62,-34.1497,0.0440674,0,0,0,0,0,0,0,-1,538,1086,-34.1497,-0.0440293
-679,-62,-34.8314,-2.25122,0,0,0,0,0,0,0,-1,545,1086,-34.8313,2.2512
-672,-62,-34.5665,2.34387,0,0,0,0,0,0,0,-1,552,1086,-34.5665,-2.34385
-665,-62,-34.6382,2.37317,-0.00914536,0.0486073,-0.0135625,0.0516337,-0.0121717,-1.35125,0.0391161,0.0433021,559,1086,-34.6382,-2.37322
-658,-62,-34.8741,2.01245,-0.00922797,0.0408962,-0.0110283,0.0432154,-0.0115471,-1.36353,0.0333328,0.0473775,566,1086,-34.8741,-2.01243
-651,-62,-35.0074,1.35071,-0.00839419,0.0331509,-0.00865281,0.0348811,-0.0101243,-1.37345,0.0272628,0.0417967,573,1086,-35.0074,-1.35072
-644,-62,-35.0317,1.85828,-0.00737796,0.026541,-0.00674904,0.0278346,-0.00867152,-1.38143,0.0220235,0.0158062,580,1086,-35.0317,-1.85832
-637,-62,-35.0791,2.20459,-0.00589089,0.0197873,-0.0048504,0.0206729,-0.00677654,-1.39019,0.016511,0.013781,587,1086,-35.0791,-2.20459
-630,-62,-35.1063,2.50867,-0.00388988,0.0125796,-0.00305163,0.0131268,-0.00443713,-1.39335,0.0105461,0.0137874,594,1086,-35.1063,-2.50864
-623,-62,-35.1536,2.83582,-0.0019682,0.00730095,-0.00186248,0.00766119,-0.00232843,-1.37974,0.00603523,0.0164166,601,1086,-35.1536,-2.83587
-616,-62,-35.1541,3.14807,-0.000271785,0.00365668,-0.00108678,0.00393728,-0.000552392,-1.31812,0.00282703,0.0174998,608,1086,-35.1541,-3.14809
-609,-62,-35.1193,3.43152,0.000776095,0.00161599,-0.000478798,0.00183291,0.000559172,-1.1454,0.00108471,0.017845,615,1086,-35.1193,-3.43158
-602,-62,-35.0405,3.70825,0.00119565,0.000232702,-2.80246e-05,0.00119647,0.000231887,-0.02907,0.000732685,0.0172489,622,1086,-35.0405,-3.7083
-595,-62,-34.921,4.0426,0.00137328,-0.000326156,4.54254e-05,0.00137449,-0.000327369,0.0267043,0.00104272,0.0347104,629,1086,-34.921,-4.04264
-588,-62,-34.8538,4.39246,0,0,0,0,0,0,0,-1,636,1086,-34.8537,-4.39248
-581,-62,-36.4001,0.812256,0,0,0,0,0,0,0,-1,643,1086,-36.4001,-0.812196
-574,-62,-36.4342,0.862671,0.00176001,-0.000756932,5.5456e-05,0.00176123,-0.000758153,0.0220189,0.0014925,0.0335428,650,1086,-36.4342,-0.862729
-567,-62,-36.4243,1.06677,0.00165008,-0.000571458,-3.47161e-05,0.00165062,-0.000572001,-0.015622,0.00133265,0.0390386,657,1086,-36.4243,-1.06673
-560,-62,-36.3105,0.910156,0.00143719,-0.000270186,-0.000326041,0.00149733,-0.000330328,-0.182412,0.00112462,0.0433693,664,1086,-36.3106,-0.910142
-553,-62,-36.2651,0.708862,0.00120122,3.1975e-05,-0.000894584,0.00168527,-0.000452077,-0.495979,0.00130066,0.0405859,671,1086,-36.2652,-0.708915
-546,-62,-36.403,0.68689,0.00122444,0.000166419,-0.00183881,0.00260882,-0.00121796,-0.645334,0.00225751,0.0331215,678,1086,-36.403,-0.686859
-539,-62,-36.4798,0.64563,0.00208696,-0.000354652,-0.00339157,0.00447076,-0.00273845,-0.612641,0.0042021,0.0353712,685,1086,-36.4798,-0.64562
-532,-62,-36.4115,0.702148,0.0029857,-0.000706394,-0.00467666,0.00616747,-0.00388817,-0.597418,0.00585513,0.0375044,692,1086,-36.4115,-0.702172
-525,-62,0,0,0,0,0,0,0,0,0,-1,699,1086,0,0
-518,-62,0,0,0,0,0,0,0,0,0,-1,706,1086,0,0
-511,-62,0,0,0,0,0,0,0,0,0,-1,713,1086,0,0
-504,-62,0,0,0,0,0,0,0,0,0,-1,720,1086,0,0
-497,-62,0,0,0,0,0,0,0,0,0,-1,727,1086,0,0
-490,-62,0,0,0,0,0,0,0,0,0,-1,734,1086,0,0
-483,-62,0,0,0,0,0,0,0,0,0,-1,741,1086,0,0
-476,-62,0,0,0,0,0,0,0,0,0,-1,748,1086,0,0
-469,-62,0,0,0,0,0,0,0,0,0,-1,755,1086,0,0
-462,-62,0,0,0,0,0,0,0,0,0,-1,762,1086,0,0
-455,-62,0,0,0,0,0,0,0,0,0,-1,769,1086,0,0
-448,-62,0,0,0,0,0,0,0,0,0,-1,776,1086,0,0
-441,-62,0,0,0,0,0,0,0,0,0,-1,783,1086,0,0
-434,-62,0,0,0,0,0,0,0,0,0,-1,790,1086,0,0
-427,-62,0,0,0,0,0,0,0,0,0,-1,797,1086,0,0
-420,-62,0,0,0,0,0,0,0,0,0,-1,804,1086,0,0
-413,-62,0,0,0,0,0,0,0,0,0,-1,811,1086,0,0
-406,-62,0,0,0,0,0,0,0,0,0,-1,818,1086,0,0
-399,-62,0,0,0,0,0,0,0,0,0,-1,825,1086,0,0
-392,-62,0,0,0,0,0,0,0,0,0,-1,832,1086,0,0
-385,-62,0,0,0,0,0,0,0,0,0,-1,839,1086,0,0
-378,-62,0,0,0,0,0,0,0,0,0,-1,846,1086,0,0
-371,-62,0,0,0,0,0,0,0,0,0,-1,853,1086,0,0
-364,-62,0,0,0,0,0,0,0,0,0,-1,860,1086,0,0
-357,-62,0,0,0,0,0,0,0,0,0,-1,867,1086,0,0
-350,-62,0,0,0,0,0,0,0,0,0,-1,874,1086,0,0
-343,-62,0,0,0,0,0,0,0,0,0,-1,881,1086,0,0
-336,-62,0,0,0,0,0,0,0,0,0,-1,888,1086,0,0
-329,-62,0,0,0,0,0,0,0,0,0,-1,895,1086,0,0
-322,-62,0,0,0,0,0,0,0,0,0,-1,902,1086,0,0
-315,-62,0,0,0,0,0,0,0,0,0,-1,909,1086,0,0
-308,-62,0,0,0,0,0,0,0,0,0,-1,916,1086,0,0
-301,-62,0,0,0,0,0,0,0,0,0,-1,923,1086,0,0
-294,-62,0,0,0,0,0,0,0,0,0,-1,930,1086,0,0
-287,-62,0,0,0,0,0,0,0,0,0,-1,937,1086,0,0
-280,-62,0,0,0,0,0,0,0,0,0,-1,944,1086,0,0
-273,-62,0,0,0,0,0,0,0,0,0,-1,951,1086,0,0
-266,-62,0,0,0,0,0,0,0,0,0,-1,958,1086,0,0
-259,-62,0,0,0,0,0,0,0,0,0,-1,965,1086,0,0
-252,-62,0,0,0,0,0,0,0,0,0,-1,972,1086,0,0
-245,-62,0,0,0,0,0,0,0,0,0,-1,979,1086,0,0
-238,-62,0,0,0,0,0,0,0,0,0,-1,986,1086,0,0
-231,-62,0,0,0,0,0,0,0,0,0,-1,993,1086,0,0
-224,-62,0,0,0,0,0,0,0,0,0,-1,1000,1086,0,0
-217,-62,0,0,0,0,0,0,0,0,0,-1,1007,1086,0,0
-210,-62,0,0,0,0,0,0,0,0,0,-1,1014,1086,0,0
-203,-62,0,0,0,0,0,0,0,0,0,-1,1021,1086,0,0
-196,-62,0,0,0,0,0,0,0,0,0,-1,1028,1086,0,0
-189,-62,0,0,0,0,0,0,0,0,0,-1,1035,1086,0,0
-182,-62,0,0,0,0,0,0,0,0,0,-1,1042,1086,0,0
-175,-62,0,0,0,0,0,0,0,0,0,-1,1049,1086,0,0
-168,-62,0,0,0,0,0,0,0,0,0,-1,1056,1086,0,0
-161,-62,0,0,0,0,0,0,0,0,0,-1,1063,1086,0,0
-154,-62,0,0,0,0,0,0,0,0,0,-1,1070,1086,0,0
-147,-62,0,0,0,0,0,0,0,0,0,-1,1077,1086,0,0
-140,-62,0,0,0,0,0,0,0,0,0,-1,1084,1086,0,0
-133,-62,0,0,0,0,0,0,0,0,0,-1,1091,1086,0,0
-126,-62,0,0,0,0,0,0,0,0,0,-1,1098,1086,0,0
-119,-62,0,0,0,0,0,0,0,0,0,-1,1105,1086,0,0
-112,-62,0,0,0,0,0,0,0,0,0,-1,1112,1086,0,0
-105,-62,0,0,0,0,0,0,0,0,0,-1,1119,1086,0,0
-98,-62,0,0,0,0,0,0,0,0,0,-1,1126,1086,0,0
-91,-62,0,0,0,0,0,0,0,0,0,-1,1133,1086,0,0
-84,-62,0,0,0,0,0,0,0,0,0,-1,1140,1086,0,0
-77,-62,0,0,0,0,0,0,0,0,0,-1,1147,1086,0,0
-70,-62,0,0,0,0,0,0,0,0,0,-1,1154,1086,0,0
-63,-62,0,0,0,0,0,0,0,0,0,-1,1161,1086,0,0
-56,-62,0,0,0,0,0,0,0,0,0,-1,1168,1086,0,0
-49,-62,0,0,0,0,0,0,0,0,0,-1,1175,1086,0,0
-42,-62,0,0,0,0,0,0,0,0,0,-1,1182,1086,0,0
-35,-62,0,0,0,0,0,0,0,0,0,-1,1189,1086,0,0
-28,-62,0,0,0,0,0,0,0,0,0,-1,1196,1086,0,0
-21,-62,0,0,0,0,0,0,0,0,0,-1,1203,1086,0,0
-14,-62,0,0,0,0,0,0,0,0,0,-1,1210,1086,0,0
-7,-62,0,0,0,0,0,0,0,0,0,-1,1217,1086,0,0
0,-62,0,0,0,0,0,0,0,0,0,-1,1224,1086,0,0
7,-62,0,0,0,0,0,0,0,0,0,-1,1231,1086,0,0
14,-62,0,0,0,0,0,0,0,0,0,-1,1238,1086,0,0
21,-62,0,0,0,0,0,0,0,0,0,-1,1245,1086,0,0
28,-62,0,0,0,0,0,0,0,0,0,-1,1252,1086,0,0
35,-62,0,0,0,0,0,0,0,0,0,-1,1259,1086,0,0
42,-62,0,0,0,0,0,0,0,0,0,-1,1266,1086,0,0
49,-62,0,0,0,0,0,0,0,0,0,-1,1273,1086,0,0
56,-62,0,0,0,0,0,0,0,0,0,-1,1280,1086,0,0
63,-62,0,0,0,0,0,0,0,0,0,-1,1287,1086,0,0
70,-62,0,0,0,0,0,0,0,0,0,-1,1294,1086,0,0
77,-62,0,0,0,0,0,0,0,0,0,-1,1301,1086,0,0
84,-62,0,0,0,0,0,0,0,0,0,-1,1308,1086,0,0
91,-62,0,0,0,0,0,0,0,0,0,-1,1315,1086,0,0
98,-62,0,0,0,0,0,0,0,0,0,-1,1322,1086,0,0
105,-62,0,0,0,0,0,0,0,0,0,-1,1329,1086,0,0
112,-62,0,0,0,0,0,0,0,0,0,-1,1336,1086,0,0
119,-62,0,0,0,0,0,0,0,0,0,-1,1343,1086,0,0
126,-62,0,0,0,0,0,0,0,0,0,-1,1350,1086,0,0
133,-62,0,0,0,0,0,0,0,0,0,-1,1357,1086,0,0
140,-62,0,0,0,0,0,0,0,0,0,-1,1364,1086,0,0
147,-62,0,0,0,0,0,0,0,0,0,-1,1371,1086,0,0
154,-62,0,0,0,0,0,0,0,0,0,-1,1378,1086,0,0
161,-62,0,0,0,0,0,0,0,0,0,-1,1385,1086,0,0
168,-62,0,0,0,0,0,0,0,0,0,-1,1392,1086,0,0
175,-62,0,0,0,0,0,0,0,0,0,-1,1399,1086,0,0
182,-62,0,0,0,0,0,0,0,0,0,-1,1406,1086,0,0
189,-62,0,0,0,0,0,0,0,0,0,-1,1413,1086,0,0
196,-62,0,0,0,0,0,0,0,0,0,-1,1420,1086,0,0
203,-62,0,0,0,0,0,0,0,0,0,-1,1427,1086,0,0
210,-62,0,0,0,0,0,0,0,0,0,-1,1434,1086,0,0
217,-62,0,0,0,0,0,0,0,0,0,-1,1441,1086,0,0
224,-62,0,0,0,0,0,0,0,0,0,-1,1448,1086,0,0
231,-62,0,0,0,0,0,0,0,0,0,-1,1455,1086,0,0
238,-62,0,0,0,0,0,0,0,0,0,-1,1462,1086,0,0
245,-62,0,0,0,0,0,0,0,0,0,-1,1469,1086,0,0
252,-62,0,0,0,0,0,0,0,0,0,-1,1476,1086,0,0
259,-62,0,0,0,0,0,0,0,0,0,-1,1483,1086,0,0
266,-62,0,0,0,0,0,0,0,0,0,-1,1490,1086,0,0
273,-62,0,0,0,0,0,0,0,0,0,-1,1497,1086,0,0
280,-62,0,0,0,0,0,0,0,0,0,-1,1504,1086,0,0
287,-62,0,0,0,0,0,0,0,0,0,-1,1511,1086,0,0
294,-62,0,0,0,0,0,0,0,0,0,-1,1518,1086,0,0
301,-62,0,0,0,0,0,0,0,0,0,-1,1525,1086,0,0
308,-62,0,0,0,0,0,0,0,0,0,-1,1532,1086,0,0
315,-62,0,0,0,0,0,0,0,0,0,-1,1539,1086,0,0
322,-62,0,0,0,0,0,0,0,0,0,-1,1546,1086,0,0
329,-62,0,0,0,0,0,0,0,0,0,-1,1553,1086,0,0
336,-62,0,0,0,0,0,0,0,0,0,-1,1560,1086,0,0
343,-62,0,0,0,0,0,0,0,0,0,-1,1567,1086,0,0
350,-62,0,0,0,0,0,0,0,0,0,-1,1574,1086,0,0
357,-62,0,0,0,0,0,0,0,0,0,-1,1581,1086,0,0
364,-62,0,0,0,0,0,0,0,0,0,-1,1588,1086,0,0
371,-62,0,0,0,0,0,0,0,0,0,-1,1595,1086,0,0
378,-62,0,0,0,0,0,0,0,0,0,-1,1602,1086,0,0
385,-62,0,0,0,0,0,0,0,0,0,-1,1609,1086,0,0
392,-62,0,0,0,0,0,0,0,0,0,-1,1616,1086,0,0
399,-62,0,0,0,0,0,0,0,0,0,-1,1623,1086,0,0
406,-62,0,0,0,0,0,0,0,0,0,-1,1630,1086,0,0
413,-62,0,0,0,0,0,0,0,0,0,-1,1637,1086,0,0
420,-62,0,0,0,0,0,0,0,0,0,-1,1644,1086,0,0
427,-62,0,0,0,0,0,0,0,0,0,-1,1651,1086,0,0
434,-62,0,0,0,0,0,0,0,0,0,-1,1658,1086,0,0
441,-62,0,0,0,0,0,0,0,0,0,-1,1665,1086,0,0
448,-62,0,0,0,0,0,0,0,0,0,-1,1672,1086,0,0
455,-62,0,0,0,0,0,0,0,0,0,-1,1679,1086,0,0
462,-62,0,0,0,0,0,0,0,0,0,-1,1686,1086,0,0
469,-62,0,0,0,0,0,0,0,0,0,-1,1693,1086,0,0
476,-62,0,0,0,0,0,0,0,0,0,-1,1700,1086,0,0
483,-62,0,0,0,0,0,0,0,0,0,-1,1707,1086,0,0
490,-62,0,0,0,0,0,0,0,0,0,-1,1714,1086,0,0
497,-62,0,0,0,0,0,0,0,0,0,-1,1721,1086,0,0
504,-62,0,0,0,0,0,0,0,0,0,-1,1728,1086,0,0
511,-62,0,0,0,0,0,0,0,0,0,-1,1735,1086,0,0
518,-62,0,0,0,0,0,0,0,0,0,-1,1742,1086,0,0
525,-62,0,0,0,0,0,0,0,0,0,-1,1749,1086,0,0
532,-62,0,0,0,0,0,0,0,0,0,-1,1756,1086,0,0
539,-62,0,0,0,0,0,0,0,0,0,-1,1763,1086,0,0
546,-62,0,0,0,0,0,0,0,0,0,-1,1770,1086,0,0
553,-62,0,0,0,0,0,0,0,0,0,-1,1777,1086,0,0
560,-62,0,0,0,0,0,0,0,0,0,-1,1784,1086,0,0
567,-62,0,0,0,0,0,0,0,0,0,-1,1791,1086,0,0
574,-62,0,0,0,0,0,0,0,0,0,-1,1798,1086,0,0
581,-62,0,0,0,0,0,0,0,0,0,-1,1805,1086,0,0
588,-62,0,0,0,0,0,0,0,0,0,-1,1812,1086,0,0
595,-62,0,0,0,0,0,0,0,0,0,-1,1819,1086,0,0
602,-62,0,0,0,0,0,0,0,0,0,-1,1826,1086,0,0
609,-62,0,0,0,0,0,0,0,0,0,-1,1833,1086,0,0
616,-62,0,0,0,0,0,0,0,0,0,-1,1840,1086,0,0
623,-62,0,0,0,0,0,0,0,0,0,-1,1847,1086,0,0
630,-62,0,0,0,0,0,0,0,0,0,-1,1854,1086,0,0
637,-62,0,0,0,0,0,0,0,0,0,-1,1861,1086,0,0
644,-62,0,0,0,0,0,0,0,0,0,-1,1868,1086,0,0
651,-62,49.0364,2.51709,-0.000908356,0.000585824,-0.00173459,0.00172737,-0.0020499,-0.988743,0.00218345,0.0392468,1875,1086,49.0363,-2.51711
658,-62,49.041,2.54419,-0.000613566,0.000458421,-0.00113399,0.00117671,-0.00133185,-1.00617,0.00144924,0.038099,1882,1086,49.041,-2.54422
665,-62,48.8489,2.61279,-0.000281666,0.000250527,-0.00061195,0.000651731,-0.00068287,-0.990483,0.000770602,0.038395,1889,1086,48.8488,-2.61282
672,-62,48.7004,2.68152,0.000131665,0.000117661,-0.000124766,0.000249625,-2.9942e-07,-0.757368,0.000166517,0.0368101,1896,1086,48.7004,-2.68156
679,-62,48.7325,2.67334,0.000379033,-3.06831e-05,0.000332368,0.000564605,-0.000216255,0.509218,0.000465543,0.0375393,1903,1086,48.7326,-2.67332
686,-62,48.6707,2.36694,0.000302774,-0.000330543,0.000786159,0.000833652,-0.000861422,0.593943,0.000978695,0.0395491,1910,1086,48.6707,-2.36697
693,-62,48.8037,2.38843,0.000178293,-0.000610641,0.00116549,0.00101426,-0.00144661,0.622221,0.00142808,0.038615,1917,1086,48.8037,-2.38842
700,-62,49.0153,2.53821,-2.41161e-05,-0.000709769,0.00149272,0.00116464,-0.00189852,0.672523,0.00178536,0.0311333,1924,1086,49.0153,-2.53819
707,-62,48.9985,2.63037,-0.000353332,-0.000709987,0.00181471,0.00129179,-0.00235511,0.736421,0.00213516,0.0190743,1931,1086,48.9986,-2.63042
714,-62,49.0098,2.62463,-0.000724336,-0.00060808,0.00215815,0.00149273,-0.00282514,0.798862,0.00253218,0.0358353,1938,1086,49.0098,-2.62468
721,-62,49.0686,2.68591,0,0,0,0,0,0,0,-1,1945,1086,49.0686,-2.6859
728,-62,47.4506,6.5177,0,0,0,0,0,0,0,-1,1952,1086,47.4506,-6.51765
735,-62,47.4337,6.18689,-0.00242957,0.000710537,0.00248728,0.00208185,-0.00380088,1.06693,0.00344439,0.0246395,1959,1086,47.4337,-6.18694
742,-62,47.3943,5.99756,-0.00206906,0.0015935,0.00180784,0.00233552,-0.00281109,1.18132,0.00297562,0.0244633,1966,1086,47.3943,-5.9975
749,-62,47.3674,5.73523,6.3491e-05,0.00369287,-0.000351308,0.00372656,2.97988e-05,-1.47518,0.0024745,0.0189129,1973,1086,47.3674,-5.73528
756,-62,47.3047,5.53479,0.00290141,0.00628564,-0.00276203,0.00783267,0.00135438,-1.06023,0.00483398,0.0149355,1980,1086,47.3047,-5.53483
763,-62,47.299,5.27893,0.00728464,0.00972173,-0.00652151,0.0151376,0.00186881,-0.877758,0.00953004,0.0159401,1987,1086,47.2989,-5.27889
770,-62,47.2872,5.02185,0.0146838,0.0147144,-0.0124551,0.0271542,0.00224398,-0.786011,0.0174031,0.0126389,1994,1086,47.2872,-5.02184
777,-62,47.1765,4.73633,0.0254227,0.0211666,-0.0204039,0.0438092,0.00278008,-0.733438,0.028325,0.0138891,2001,1086,47.1765,-4.73631
784,-62,47.0923,4.50537,0.0387845,0.0285367,-0.0298574,0.0639545,0.00336681,-0.70042,0.0415595,0.0264927,2008,1086,47.0924,-4.50543
791,-62,47.0093,4.38892,0.0564703,0.0373581,-0.0417161,0.0897108,0.00411763,-0.672804,0.058483,0.0438005,2015,1086,47.0092,-4.38892
798,-62,48.3445,3.15234,0.0802191,0.0480498,-0.0565253,0.122904,0.00536519,-0.646783,0.0802072,0.045633,2022,1086,48.3446,-3.15231
805,-62,49.042,2.30835,0.111751,0.0611481,-0.0745538,0.165179,0.00771934,-0.621811,0.107639,0.0436782,2029,1086,49.0421,-2.30841
812,-62,48.9663,2.04773,0,0,0,0,0,0,0,-1,2036,1086,48.9664,-2.04767
-700,-69,-31.53,0.93689,0,0,0,0,0,0,0,-1,524,1093,-31.53,-0.936875
-693,-69,-31.123,1.49048,0,0,0,0,0,0,0,-1,531,1093,-31.123,-1.49049
-686,-69,-34.271,-1.14014,0,0,0,0,0,0,0,-1,538,1093,-34.271,1.1401
-679,-69,-33.8396,2.31958,0,0,0,0,0,0,0,-1,545,1093,-33.8396,-2.31953
-672,-69,-34.0246,2.25391,-0.00124695,0.0649845,-0.0121626,0.0671474,-0.00340982,-1.39481,0.0459437,0.0456064,552,1093,-34.0246,-2.25393
-665,-69,-34.2181,2.18054,-0.00411515,0.0554285,-0.0106251,0.0572676,-0.0059543,-1.3994,0.04031,0.0440171,559,1093,-34.2181,-2.18058
-658,-69,-34.4547,2.0415,-0.0055995,0.0456748,-0.00890208,0.0471764,-0.00710108,-1.40369,0.0340656,0.0452001,566,1093,-34.4547,-2.04146
-651,-69,-34.6338,1.54688,-0.00591824,0.0362524,-0.00718156,0.0374418,-0.00710769,-1.40666,0.0276368,0.0347909,573,1093,-34.6338,-1.54685
-644,-69,-34.6681,1.84277,-0.00567876,0.0283245,-0.00573116,0.0292645,-0.00661874,-1.40823,0.0220496,0.0111762,580,1093,-34.6681,-1.84283
-637,-69,-34.7265,2.19141,-0.0048994,0.0205082,-0.00426745,0.0212058,-0.005597,-1.40876,0.0163259,0.0124929,587,1093,-34.7265,-2.19146
-630,-69,-34.7397,2.50684,-0.00350189,0.0124097,-0.00277757,0.0128807,-0.00397281,-1.40285,0.0101733,0.0147697,594,1093,-34.7397,-2.50679
-623,-69,-34.7174,2.80652,-0.00187957,0.00675755,-0.00177744,0.00710903,-0.00223104,-1.37557,0.00563231,0.0168162,601,1093,-34.7174,-2.80657
-616,-69,-34.7319,3.0907,-0.000274908,0.00320135,-0.00108392,0.00351162,-0.000585185,-1.292,0.00255855,0.0192733,608,1093,-34.732,-3.09067
-609,-69,-34.745,3.39575,0.00089678,0.00133019,-0.00044313,0.00160676,0.000620204,-1.01281,0.000935668,0.0174643,615,1093,-34.745,-3.39579
-602,-69,-34.7216,3.76343,0.00139438,0.000133343,6.03366e-05,0.00139726,0.000130462,0.0477014,0.000891211,0.0201174,622,1093,-34.7216,-3.7634
-595,-69,-34.6048,4.04504,0.00165519,-0.00032218,0.00016635,0.00166908,-0.000336077,0.0833463,0.00124002,0.0359947,629,1093,-34.6048,-4.04503
-588,-69,-34.5543,4.31787,0,0,0,0,0,0,0,-1,636,1093,-34.5543,-4.3179
-581,-69,-36.4232,0.857788,0,0,0,0,0,0,0,-1,643,1093,-36.4232,-0.857809
-574,-69,-36.434,0.80481,0.00203546,-0.000814285,0.000101744,0.00203908,-0.000817913,0.0356423,0.00169897,0.0319097,650,1093,-36.434,-0.804781
-567,-69,-36.48,0.877808,0.00190019,-0.000721181,-1.05895e-06,0.00190019,-0.000721182,-0.000403968,0.00156364,0.0375951,657,1093,-36.48,-0.877866
-560,-69,-36.3491,0.852417,0.00162347,-0.000558537,-0.000302447,0.00166462,-0.000599684,-0.135214,0.00135463,0.041656,664,1093,-36.3491,-0.85245
-553,-69,-36.2575,0.738647,0.00119636,-0.000446447,-0.000903009,0.00159567,-0.000845751,-0.416343,0.00143155,0.0417958,671,1093,-36.2575,-0.738662
-546,-69,-36.3788,0.732056,0.00094915,-0.000555892,-0.00189655,0.00223702,-0.00184377,-0.596533,0.00235969,0.0369015,678,1093,-36.3788,-0.732102
-539,-69,-36.402,0.729126,0.0015624,-0.00139436,-0.00351232,0.0038948,-0.00372676,-0.586197,0.00440066,0.0391312,685,1093,-36.402,-0.729128
-532,-69,-36.3032,0.738159,0.00219767,-0.00211056,-0.0049411,0.0054338,-0.00534669,-0.579841,0.00622418,0.0417906,692,1093,-36.3031,-0.738144
-525,-69,0,0,0,0,0,0,0,0,0,-1,699,1093,0,0
-518,-69,0,0,0,0,0,0,0,0,0,-1,706,1093,0,0
-511,-69,0,0,0,0,0,0,0,0,0,-1,713,1093,0,0
-504,-69,0,0,0,0,0,0,0,0,0,-1,720,1093,0,0
-497,-69,0,0,0,0,0,0,0,0,0,-1,727,1093,0,0
-490,-69,0,0,0,0,0,0,0,0,0,-1,734,1093,0,0
-483,-69,0,0,0,0,0,0,0,0,0,-1,741,1093,0,0
-476,-69,0,0,0,0,0,0,0,0,0,-1,748,1093,0,0
-469,-69,0,0,0,0,0,0,0,0,0,-1,755,1093,0,0
-462,-69,0,0,0,0,0,0,0,0,0,-1,762,1093,0,0
-455,-69,0,0,0,0,0,0,0,0,0,-1,769,1093,0,0
-448,-69,0,0,0,0,0,0,0,0,0,-1,776,1093,0,0
-441,-69,0,0,0,0,0,0,0,0,0,-1,783,1093,0,0
-434,-69,0,0,0,0,0,0,0,0,0,-1,790,1093,0,0
-427,-69,0,0,0,0,0,0,0,0,0,-1,797,1093,0,0
-420,-69,0,0,0,0,0,0,0,0,0,-1,804,1093,0,0
-413,-69,0,0,0,0,0,0,0,0,0,-1,811,1093,0,0
-406,-69,0,0,0,0,0,0,0,0,0,-1,818,1093,0,0
-399,-69,0,0,0,0,0,0,0,0,0,-1,825,1093,0,0
-392,-69,0,0,0,0,0,0,0,0,0,-1,832,1093,0,0
-385,-69,0,0,0,0,0,0,0,0,0,-1,839,1093,0,0
-378,-69,0,0,0,0,0,0,0,0,0,-1,846,1093,0,0
-371,-69,0,0,0,0,0,0,0,0,0,-1,853,1093,0,0
-364,-69,0,0,0,0,0,0,0,0,0,-1,860,1093,0,0
-357,-69,0,0,0,0,0,0,0,0,0,-1,867,1093,0,0
-350,-69,0,0,0,0,0,0,0,0,0,-1,874,1093,0,0
-343,-69,0,0,0,0,0,0,0,0,0,-1,881,1093,0,0
-336,-69,0,0,0,0,0,0,0,0,0,-1,888,1093,0,0
-329,-69,0,0,0,0,0,0,0,0,0,-1,895,1093,0,0
-322,-69,0,0,0,0,0,0,0,0,0,-1,902,1093,0,0
-315,-69,0,0,0,0,0,0,0,0,0,-1,909,1093,0,0
-308,-69,0,0,0,0,0,0,0,0,0,-1,916,1093,0,0
-301,-69,0,0,0,0,0,0,0,0,0,-1,923,1093,0,0
-294,-69,0,0,0,0,0,0,0,0,0,-1,930,1093,0,0
-287,-69,0,0,0,0,0,0,0,0,0,-1,937,1093,0,0
-280,-69,0,0,0,0,0,0,0,0,0,-1,944,1093,0,0
-273,-69,0,0,0,0,0,0,0,0,0,-1,951,1093,0,0
-266,-69,0,0,0,0,0,0,0,0,0,-1,958,1093,0,0
-259,-69,0,0,0,0,0,0,0,0,0,-1,965,1093,0,0
-252,-69,0,0,0,0,0,0,0,0,0,-1,972,1093,0,0
-245,-69,0,0,0,0,0,0,0,0,0,-1,979,1093,0,0
-238,-69,0,0,0,0,0,0,0,0,0,-1,986,1093,0,0
-231,-69,0,0,0,0,0,0,0,0,0,-1,993,1093,0,0
-224,-69,0,0,0,0,0,0,0,0,0,-1,1000,1093,0,0
-217,-69,0,0,0,0,0,0,0,0,0,-1,1007,1093,0,0
-210,-69,0,0,0,0,0,0,0,0,0,-1,1014,1093,0,0
-203,-69,0,0,0,0,0,0,0,0,0,-1,1021,1093,0,0
-196,-69,0,0,0,0,0,0,0,0,0,-1,1028,1093,0,0
-189,-69,0,0,0,0,0,0,0,0,0,-1,1035,1093,0,0
-182,-69,0,0,0,0,0,0,0,0,0,-1,1042,1093,0,0
-175,-69,0,0,0,0,0,0,0,0,0,-1,1049,1093,0,0
-168,-69,0,0,0,0,0,0,0,0,0,-1,1056,1093,0,0
-161,-69,0,0,0,0,0,0,0,0,0,-1,1063,1093,0,0
-154,-69,0,0,0,0,0,0,0,0,0,-1,1070,1093,0,0
-147,-69,0,0,0,0,0,0,0,0,0,-1,1077,1093,0,0
-140,-69,0,0,0,0,0,0,0,0,0,-1,1084,1093,0,0
-133,-69,0,0,0,0,0,0,0,0,0,-1,1091,1093,0,0
-126,-69,0,0,0,0,0,0,0,0,0,-1,1098,1093,0,0
-119,-69,0,0,0,0,0,0,0,0,0,-1,1105,1093,0,0
-112,-69,0,0,0,0,0,0,0,0,0,-1,1112,1093,0,0
-105,-69,0,0,0,0,0,0,0,0,0,-1,1119,1093,0,0
-98,-69,0,0,0,0,0,0,0,0,0,-1,1126,1093,0,0
-91,-69,0,0,0,0,0,0,0,0,0,-1,1133,1093,0,0
-84,-69,0,0,0,0,0,0,0,0,0,-1,1140,1093,0,0
-77,-69,0,0,0,0,0,0,0,0,0,-1,1147,1093,0,0
-70,-69,0,0,0,0,0,0,0,0,0,-1,1154,1093,0,0
-63,-69,0,0,0,0,0,0,0,0,0,-1,1161,1093,0,0
-56,-69,0,0,0,0,0,0,0,0,0,-1,1168,1093,0,0
-49,-69,0,0,0,0,0,0,0,0,0,-1,1175,1093,0,0
-42,-69,0,0,0,0,0,0,0,0,0,-1,1182,1093,0,0
-35,-69,0,0,0,0,0,0,0,0,0,-1,1189,1093,0,0
-28,-69,0,0,0,0,0,0,0,0,0,-1,1196,1093,0,0
-21,-69,0,0,0,0,0,0,0,0,0,-1,1203,1093,0,0
-14,-69,0,0,0,0,0,0,0,0,0,-1,1210,1093,0,0
-7,-69,0,0,0,0,0,0,0,0,0,-1,1217,1093,0,0
0,-69,0,0,0,0,0,0,0,0,0,-1,1224,1093,0,0
7,-69,0,0,0,0,0,0,0,0,0,-1,1231,1093,0,0
14,-69,0,0,0,0,0,0,0,0,0,-1,1238,1093,0,0
21,-69,0,0,0,0,0,0,0,0,0,-1,1245,1093,0,0
28,-69,0,0,0,0,0,0,0,0,0,-1,1252,1093,0,0
35,-69,0,0,0,0,0,0,0,0,0,-1,1259,1093,0,0
42,-69,0,0,0,0,0,0,0,0,0,-1,1266,1093,0,0
49,-69,0,0,0,0,0,0,0,0,0,-1,1273,1093,0,0
56,-69,0,0,0,0,0,0,0,0,0,-1,1280,1093,0,0
63,-69,0,0,0,0,0,0,0,0,0,-1,1287,1093,0,0
70,-69,0,0,0,0,0,0,0,0,0,-1,1294,1093,0,0
77,-69,0,0,0,0,0,0,0,0,0,-1,1301,1093,0,0
84,-69,0,0,0,0,0,0,0,0,0,-1,1308,1093,0,0
91,-69,0,0,0,0,0,0,0,0,0,-1,1315,1093,0,0
98,-69,0,0,0,0,0,0,0,0,0,-1,1322,1093,0,0
105,-69,0,0,0,0,0,0,0,0,0,-1,1329,1093,0,0
112,-69,0,0,0,0,0,0,0,0,0,-1,1336,1093,0,0
119,-69,0,0,0,0,0,0,0,0,0,-1,1343,1093,0,0
126,-69,0,0,0,0,0,0,0,0,0,-1,1350,1093,0,0
133,-69,0,0,0,0,0,0,0,0,0,-1,1357,1093,0,0
140,-69,0,0,0,0,0,0,0,0,0,-1,1364,1093,0,0
147,-69,0,0,0,0,0,0,0,0,0,-1,1371,1093,0,0
154,-69,0,0,0,0,0,0,0,0,0,-1,1378,1093,0,0
161,-69,0,0,0,0,0,0,0,0,0,-1,1385,1093,0,0
168,-69,0,0,0,0,0,0,0,0,0,-1,1392,1093,0,0
175,-69,0,0,0,0,0,0,0,0,0,-1,1399,1093,0,0
182,-69,0,0,0,0,0,0,0,0,0,-1,1406,1093,0,0
189,-69,0,0,0,0,0,0,0,0,0,-1,1413,1093,0,0
196,-69,0,0,0,0,0,0,0,0,0,-1,1420,1093,0,0
203,-69,0,0,0,0,0,0,0,0,0,-1,1427,1093,0,0
210,-69,0,0,0,0,0,0,0,0,0,-1,1434,1093,0,0
217,-69,0,0,0,0,0,0,0,0,0,-1,1441,1093,0,0
224,-69,0,0,0,0,0,0,0,0,0,-1,1448,1093,0,0
231,-69,0,0,0,0,0,0,0,0,0,-1,1455,1093,0,0
238,-69,0,0,0,0,0,0,0,0,0,-1,1462,1093,0,0
245,-69,0,0,0,0,0,0,0,0,0,-1,1469,1093,0,0
252,-69,0,0,0,0,0,0,0,0,0,-1,1476,1093,0,0
259,-69,0,0,0,0,0,0,0,0,0,-1,1483,1093,0,0
266,-69,0,0,0,0,0,0,0,0,0,-1,1490,1093,0,0
273,-69,0,0,0,0,0,0,0,0,0,-1,1497,1093,0,0
280,-69,0,0,0,0,0,0,0,0,0,-1,1504,1093,0,0
287,-69,0,0,0,0,0,0,0,0,0,-1,1511,1093,0,0
294,-69,0,0,0,0,0,0,0,0,0,-1,1518,1093,0,0
301,-69,0,0,0,0,0,0,0,0,0,-1,1525,1093,0,0
308,-69,0,0,0,0,0,0,0,0,0,-1,1532,1093,0,0
315,-69,0,0,0,0,0,0,0,0,0,-1,1539,1093,0,0
322,-69,0,0,0,0,0,0,0,0,0,-1,1546,1093,0,0
329,-69,0,0,0,0,0,0,0,0,0,-1,1553,1093,0,0
336,-69,0,0,0,0,0,0,0,0,0,-1,1560,1093,0,0
343,-69,0,0,0,0,0,0,0,0,0,-1,1567,1093,0,0
350,-69,0,0,0,0,0,0,0,0,0,-1,1574,1093,0,0
357,-69,0,0,0,0,0,0,0,0,0,-1,1581,1093,0,0
364,-69,0,0,0,0,0,0,0,0,0,-1,1588,1093,0,0
371,-69,0,0,0,0,0,0,0,0,0,-1,1595,1093,0,0
378,-69,0,0,0,0,0,0,0,0,0,-1,1602,1093,0,0
385,-69,0,0,0,0,0,0,0,0,0,-1,1609,1093,0,0
392,-69,0,0,0,0,0,0,0,0,0,-1,1616,1093,0,0
399,-69,0,0,0,0,0,0,0,0,0,-1,1623,1093,0,0
406,-69,0,0,0,0,0,0,0,0,0,-1,1630,1093,0,0
413,-69,0,0,0,0,0,0,0,0,0,-1,1637,1093,0,0
420,-69,0,0,0,0,0,0,0,0,0,-1,1644,1093,0,0
427,-69,0,0,0,0,0,0,0,0,0,-1,1651,1093,0,0
434,-69,0,0,0,0,0,0,0,0,0,-1,1658,1093,0,0
441,-69,0,0,0,0,0,0,0,0,0,-1,1665,1093,0,0
448,-69,0,0,0,0,0,0,0,0,0,-1,1672,1093,0,0
455,-69,0,0,0,0,0,0,0,0,0,-1,1679,1093,0,0
462,-69,0,0,0,0,0,0,0,0,0,-1,1686,1093,0,0
469,-69,0,0,0,0,0,0,0,0,0,-1,1693,1093,0,0
476,-69,0,0,0,0,0,0,0,0,0,-1,1700,1093,0,0
483,-69,0,0,0,0,0,0,0,0,0,-1,1707,1093,0,0
490,-69,0,0,0,0,0,0,0,0,0,-1,1714,1093,0,0
497,-69,0,0,0,0,0,0,0,0,0,-1,1721,1093,0,0
504,-69,0,0,0,0,0,0,0,0,0,-1,1728,1093,0,0
511,-69,0,0,0,0,0,0,0,0,0,-1,1735,1093,0,0
518,-69,0,0,0,0,0,0,0,0,0,-1,1742,1093,0,0
525,-69,0,0,0,0,0,0,0,0,0,-1,1749,1093,0,0
532,-69,0,0,0,0,0,0,0,0,0,-1,1756,1093,0,0
539,-69,0,0,0,0,0,0,0,0,0,-1,1763,1093,0,0
546,-69,0,0,0,0,0,0,0,0,0,-1,1770,1093,0,0
553,-69,0,0,0,0,0,0,0,0,0,-1,1777,1093,0,0
560,-69,0,0,0,0,0,0,0,0,0,-1,1784,1093,0,0
567,-69,0,0,0,0,0,0,0,0,0,-1,1791,1093,0,0
574,-69,0,0,0,0,0,0,0,0,0,-1,1798,1093,0,0
581,-69,0,0,0,0,0,0,0,0,0,-1,1805,1093,0,0
588,-69,0,0,0,0,0,0,0,0,0,-1,1812,1093,0,0
595,-69,0,0,0,0,0,0,0,0,0,-1,1819,1093,0,0
602,-69,0,0,0,0,0,0,0,0,0,-1,1826,1093,0,0
609,-69,0,0,0,0,0,0,0,0,0,-1,1833,1093,0,0
616,-69,0,0,0,0,0,0,0,0,0,-1,1840,1093,0,0
623,-69,0,0,0,0,0,0,0,0,0,-1,1847,1093,0,0
630,-69,0,0,0,0,0,0,0,0,0,-1,1854,1093,0,0
637,-69,0,0,0,0,0,0,0,0,0,-1,1861,1093,0,0
644,-69,0,0,0,0,0,0,0,0,0,-1,1868,1093,0,0
651,-69,48.9907,2.48938,-0.000511171,1.44539e-05,-0.00233758,0.00210395,-0.00260066,-0.841378,0.00272125,0.039279,1875,1093,48.9907,-2.48943
658,-69,49.0059,2.48462,-0.000254743,-9.68137e-05,-0.00154417,0.00137041,-0.00172197,-0.810944,0.00178923,0.0414742,1882,1093,49.0058,-2.48456
665,-69,48.933,2.52112,5.48038e-05,-0.000269652,-0.000912383,0.00081927,-0.00103412,-0.697414,0.00107245,0.0399059,1889,1093,48.933,-2.52109
672,-69,48.6962,2.71814,0.000462486,-0.000364862,-0.000376582,0.000608223,-0.000510599,-0.369248,0.000646771,0.0353025,1896,1093,48.6962,-2.71808
679,-69,48.7285,2.77295,0.000664046,-0.000474665,8.90434e-05,0.000670967,-0.000481585,0.0775684,0.000668414,0.0352511,1903,1093,48.7286,-2.77289
686,-69,48.8773,2.61072,0.000588297,-0.000713323,0.000524432,0.0007733,-0.000898326,0.339138,0.000966013,0.0365785,1910,1093,48.8773,-2.61073
693,-69,48.8895,2.41638,0.000490501,-0.000921399,0.000867637,0.000903104,-0.001334,0.443895,0.00129955,0.0364297,1917,1093,48.8895,-2.41639
700,-69,48.927,2.46704,0.000296934,-0.000961548,0.00117387,0.000999573,-0.00166419,0.539366,0.0015538,0.0289653,1924,1093,48.927,-2.46704
707,-69,48.944,2.54346,-1.01839e-05,-0.000928568,0.00149351,0.00109313,-0.00203188,0.636255,0.00183116,0.0195669,1931,1093,48.9439,-2.54347
714,-69,48.9808,2.47009,-0.000358349,-0.000798887,0.00185624,0.00129065,-0.00244789,0.726342,0.00219264,0.0278422,1938,1093,48.9809,-2.47015
721,-69,48.9908,2.39551,0,0,0,0,0,0,0,-1,1945,1093,48.9908,-2.39549
728,-69,46.8235,6.66687,0,0,0,0,0,0,0,-1,1952,1093,46.8235,-6.66685
735,-69,47.1044,6.34082,-0.00195364,0.000507258,0.00219677,0.0017947,-0.00324109,1.04069,0.00294712,0.0338644,1959,1093,47.1044,-6.3408
742,-69,47.0856,6.09814,-0.00159056,0.00132611,0.00168388,0.00209537,-0.00235982,1.14227,0.00257372,0.0257992,1966,1093,47.0855,-6.09815
749,-69,46.9136,5.77856,0.000365085,0.00311315,-0.000125731,0.00311889,0.000359345,-1.52517,0.00197043,0.0269586,1973,1093,46.9136,-5.77856
756,-69,46.9938,5.52832,0.00307679,0.00531643,-0.00215882,0.00662859,0.00176463,-1.02465,0.00396401,0.0164102,1980,1093,46.9938,-5.52837
763,-69,46.9956,5.25757,0.00741746,0.00827732,-0.00546916,0.0133334,0.00236135,-0.824622,0.00821574,0.0168224,1987,1093,46.9956,-5.25762
770,-69,46.9423,5.02991,0.0146593,0.0124505,-0.0106505,0.0242625,0.00284732,-0.733736,0.0153143,0.0164847,1994,1093,46.9423,-5.0299
777,-69,46.839,4.77979,0.0248803,0.0176289,-0.01739,0.0390186,0.00349068,-0.682624,0.0249304,0.0219235,2001,1093,46.8389,-4.77977
784,-69,46.8633,4.43005,0.0377286,0.0234817,-0.0254487,0.0570321,0.00417822,-0.648933,0.036708,0.0326149,2008,1093,46.8633,-4.43
791,-69,47.3708,3.85327,0.0549739,0.0303188,-0.0355295,0.0802538,0.00503897,-0.618414,0.0519045,0.0420562,2015,1093,47.3709,-3.85321
798,-69,47.8923,3.19055,0.0783052,0.0383374,-0.0479904,0.110306,0.00633631,-0.58811,0.071519,0.0450984,2022,1093,47.8924,-3.19057
805,-69,48.2078,2.70813,0.109441,0.0477692,-0.0628461,0.148609,0.0086017,-0.557324,0.0963334,0.0466009,2029,1093,48.2077,-2.70813
812,-69,48.4216,2.37268,0,0,0,0,0,0,0,-1,2036,1093,48.4216,-2.37266
-700,-76,0,0,0,0,0,0,0,0,0,-1,524,1100,0,0
-693,-76,-36.1304,0.860718,0,0,0,0,0,0,0,-1,531,1100,-36.1304,-0.860685
-686,-76,-33.1896,0.898071,0,0,0,0,0,0,0,-1,538,1100,-33.1896,-0.89811
-679,-76,-33.4769,1.4574,0,0,0,0,0,0,0,-1,545,1100,-33.4769,-1.45735
-672,-76,-33.5196,1.6615,0.00703153,0.0742461,-0.00703364,0.0749742,0.00630338,-1.46764,0.0480198,0.0486903,552,1100,-33.5196,-1.66148
-665,-76,-33.786,1.85046,0.00234118,0.0624193,-0.00662751,0.0631418,0.00161875,-1.46222,0.0415654,0.0484521,559,1100,-33.786,-1.85047
-658,-76,-34.0831,1.60291,-0.000862972,0.0506376,-0.0059451,0.0513149,-0.00154035,-1.45735,0.0347348,0.0481094,566,1100,-34.0831,-1.60292
-651,-76,-34.1555,1.54858,-0.00266648,0.0395286,-0.00510454,0.0401374,-0.00327522,-1.4521,0.0279141,0.0315863,573,1100,-34.1555,-1.54856
-644,-76,-34.2418,1.83203,-0.00347657,0.0301726,-0.00429388,0.0307119,-0.00401586,-1.44586,0.0219361,0.0116175,580,1100,-34.2418,-1.83202
-637,-76,-34.3377,2.13464,-0.00374843,0.021239,-0.00348593,0.0217162,-0.00422563,-1.43475,0.0160723,0.0143005,587,1100,-34.3377,-2.13463
-630,-76,-34.3407,2.46387,-0.00314413,0.0123047,-0.0024509,0.0126842,-0.00352363,-1.41717,0.00984319,0.0159095,594,1100,-34.3407,-2.46383
-623,-76,-34.3409,2.77759,-0.00187904,0.00629826,-0.00170616,0.00663996,-0.00222074,-1.37313,0.00532359,0.0178327,601,1100,-34.3409,-2.77753
-616,-76,-34.3874,3.11121,-0.000344849,0.00290844,-0.00109746,0.00324404,-0.000680448,-1.27403,0.00242159,0.0169381,608,1100,-34.3874,-3.11115
-609,-76,-34.3947,3.44922,0.000918438,0.00125502,-0.000447619,0.00156494,0.00060852,-0.96521,0.000910931,0.0170197,615,1100,-34.3947,-3.44917
-602,-76,-34.3555,3.79797,0.00148362,0.000284014,9.34178e-05,0.00149085,0.000276783,0.0772533,0.000915689,0.0194715,622,1100,-34.3555,-3.79797
-595,-76,-34.3065,4.10315,0.00184182,-4.20479e-05,0.000248504,0.00187405,-7.42769e-05,0.128972,0.00127485,0.0315215,629,1100,-34.3064,-4.10309
-588,-76,-34.2731,4.42664,0,0,0,0,0,0,0,-1,636,1100,-34.2731,-4.42662
-581,-76,-36.3912,0.685425,0,0,0,0,0,0,0,-1,643,1100,-36.3913,-0.685414
-574,-76,-36.4016,0.638916,0.00224267,-0.000423661,0.000186274,0.00225562,-0.000436611,0.0694122,0.00166844,0.0364393,650,1100,-36.4016,-0.638929
-567,-76,-36.3423,0.700562,0.0021034,-0.00033869,0.000103808,0.00210781,-0.000343095,0.0424058,0.00153243,0.0393054,657,1100,-36.3423,-0.700513
-560,-76,-36.332,0.785522,0.0018067,-0.00022362,-0.000167238,0.00182038,-0.000237303,-0.0816368,0.00129993,0.0412871,664,1100,-36.332,-0.785513
-553,-76,-36.2806,0.991333,0.00124224,-0.000211166,-0.000758938,0.00156629,-0.000535217,-0.403546,0.00126105,0.044118,671,1100,-36.2806,-0.991299
-546,-76,-36.3984,0.986816,0.000764167,-0.000491099,-0.00177183,0.00201624,-0.00174317,-0.615179,0.0021724,0.0406973,678,1100,-36.3985,-0.986768
-539,-76,-36.3796,0.737427,0.00117095,-0.00158071,-0.00341119,0.00347332,-0.00388307,-0.593712,0.00424941,0.039798,685,1100,-36.3797,-0.737383
-532,-76,-36.2659,0.753418,0.0015966,-0.00261951,-0.00495856,0.00487661,-0.00589951,-0.584406,0.00623093,0.0420771,692,1100,-36.2658,-0.753408
-525,-76,0,0,0,0,0,0,0,0,0,-1,699,1100,0,0
-518,-76,0,0,0,0,0,0,0,0,0,-1,706,1100,0,0
-511,-76,0,0,0,0,0,0,0,0,0,-1,713,1100,0,0
-504,-76,0,0,0,0,0,0,0,0,0,-1,720,1100,0,0
-497,-76,0,0,0,0,0,0,0,0,0,-1,727,1100,0,0
-490,-76,0,0,0,0,0,0,0,0,0,-1,734,1100,0,0
-483,-76,0,0,0,0,0,0,0,0,0,-1,741,1100,0,0
-476,-76,0,0,0,0,0,0,0,0,0,-1,748,1100,0,0
-469,-76,0,0,0,0,0,0,0,0,0,-1,755,1100,0,0
-462,-76,0,0,0,0,0,0,0,0,0,-1,762,1100,0,0
-455,-76,0,0,0,0,0,0,0,0,0,-1,769,1100,0,0
-448,-76,0,0,0,0,0,0,0,0,0,-1,776,1100,0,0
-441,-76,0,0,0,0,0,0,0,0,0,-1,783,1100,0,0
-434,-76,0,0,0,0,0,0,0,0,0,-1,790,1100,0,0
-427,-76,0,0,0,0,0,0,0,0,0,-1,797,1100,0,0
-420,-76,0,0,0,0,0,0,0,0,0,-1,804,1100,0,0
-413,-76,0,0,0,0,0,0,0,0,0,-1,811,1100,0,0
-406,-76,0,0,0,0,0,0,0,0,0,-1,818,1100,0,0
-399,-76,0,0,0,0,0,0,0,0,0,-1,825,1100,0,0
-392,-76,0,0,0,0,0,0,0,0,0,-1,832,1100,0,0
-385,-76,0,0,0,0,0,0,0,0,0,-1,839,1100,0,0
-378,-76,0,0,0,0,0,0,0,0,0,-1,846,1100,0,0
-371,-76,0,0,0,0,0,0,0,0,0,-1,853,1100,0,0
-364,-76,0,0,0,0,0,0,0,0,0,-1,860,1100,0,0
-357,-76,0,0,0,0,0,0,0,0,0,-1,867,1100,0,0
-350,-76,0,0,0,0,0,0,0,0,0,-1,874,1100,0,0
-343,-76,0,0,0,0,0,0,0,0,0,-1,881,1100,0,0
-336,-76,0,0,0,0,0,0,0,0,0,-1,888,1100,0,0
-329,-76,0,0,0,0,0,0,0,0,0,-1,895,1100,0,0
-322,-76,0,0,0,0,0,0,0,0,0,-1,902,1100,0,0
-315,-76,0,0,0,0,0,0,0,0,0,-1,909,1100,0,0
-308,-76,0,0,0,0,0,0,0,0,0,-1,916,1100,0,0
-301,-76,0,0,0,0,0,0,0,0,0,-1,923,1100,0,0
-294,-76,0,0,0,0,0,0,0,0,0,-1,930,1100,0,0
-287,-76,0,0,0,0,0,0,0,0,0,-1,937,1100,0,0
-280,-76,0,0,0,0,0,0,0,0,0,-1,944,1100,0,0
-273,-76,0,0,0,0,0,0,0,0,0,-1,951,1100,0,0
-266,-76,0,0,0,0,0,0,0,0,0,-1,958,1100,0,0
-259,-76,0,0,0,0,0,0,0,0,0,-1,965,1100,0,0
-252,-76,0,0,0,0,0,0,0,0,0,-1,972,1100,0,0
-245,-76,0,0,0,0,0,0,0,0,0,-1,979,1100,0,0
-238,-76,0,0,0,0,0,0,0,0,0,-1,986,1100,0,0
-231,-76,0,0,0,0,0,0,0,0,0,-1,993,1100,0,0
-224,-76,0,0,0,0,0,0,0,0,0,-1,1000,1100,0,0
-217,-76,0,0,0,0,0,0,0,0,0,-1,1007,1100,0,0
-210,-76,0,0,0,0,0,0,0,0,0,-1,1014,1100,0,0
-203,-76,0,0,0,0,0,0,0,0,0,-1,1021,1100,0,0
-196,-76,0,0,0,0,0,0,0,0,0,-1,1028,1100,0,0
-189,-76,0,0,0,0,0,0,0,0,0,-1,1035,1100,0,0
-182,-76,0,0,0,0,0,0,0,0,0,-1,1042,1100,0,0
-175,-76,0,0,0,0,0,0,0,0,0,-1,1049,1100,0,0
-168,-76,0,0,0,0,0,0,0,0,0,-1,1056,1100,0,0
-161,-76,0,0,0,0,0,0,0,0,0,-1,1063,1100,0,0
-154,-76,0,0,0,0,0,0,0,0,0,-1,1070,1100,0,0
-147,-76,0,0,0,0,0,0,0,0,0,-1,1077,1100,0,0
-140,-76,0,0,0,0,0,0,0,0,0,-1,1084,1100,0,0
-133,-76,0,0,0,0,0,0,0,0,0,-1,1091,1100,0,0
-126,-76,0,0,0,0,0,0,0,0,0,-1,1098,1100,0,0
-119,-76,0,0,0,0,0,0,0,0,0,-1,1105,1100,0,0
-112,-76,0,0,0,0,0,0,0,0,0,-1,1112,1100,0,0
-105,-76,0,0,0,0,0,0,0,0,0,-1,1119,1100,0,0
-98,-76,0,0,0,0,0,0,0,0,0,-1,1126,1100,0,0
-91,-76,0,0,0,0,0,0,0,0,0,-1,1133,1100,0,0
-84,-76,0,0,0,0,0,0,0,0,0,-1,1140,1100,0,0
-77,-76,0,0,0,0,0,0,0,0,0,-1,1147,1100,0,0
-70,-76,0,0,0,0,0,0,0,0,0,-1,1154,1100,0,0
-63,-76,0,0,0,0,0,0,0,0,0,-1,1161,1100,0,0
-56,-76,0,0,0,0,0,0,0,0,0,-1,1168,1100,0,0
-49,-76,0,0,0,0,0,0,0,0,0,-1,1175,1100,0,0
-42,-76,0,0,0,0,0,0,0,0,0,-1,1182,1100,0,0
-35,-76,0,0,0,0,0,0,0,0,0,-1,1189,1100,0,0
-28,-76,0,0,0,0,0,0,0,0,0,-1,1196,1100,0,0
-21,-76,0,0,0,0,0,0,0,0,0,-1,1203,1100,0,0
-14,-76,0,0,0,0,0,0,0,0,0,-1,1210,1100,0,0
-7,-76,0,0,0,0,0,0,0,0,0,-1,1217,1100,0,0
0,-76,0,0,0,0,0,0,0,0,0,-1,1224,1100,0,0
7,-76,0,0,0,0,0,0,0,0,0,-1,1231,1100,0,0
14,-76,0,0,0,0,0,0,0,0,0,-1,1238,1100,0,0
21,-76,0,0,0,0,0,0,0,0,0,-1,1245,1100,0,0
28,-76,0,0,0,0,0,0,0,0,0,-1,1252,1100,0,0
35,-76,0,0,0,0,0,0,0,0,0,-1,1259,1100,0,0
42,-76,0,0,0,0,0,0,0,0,0,-1,1266,1100,0,0
49,-76,0,0,0,0,0,0,0,0,0,-1,1273,1100,0,0
56,-76,0,0,0,0,0,0,0,0,0,-1,1280,1100,0,0
63,-76,0,0,0,0,0,0,0,0,0,-1,1287,1100,0,0
70,-76,0,0,0,0,0,0,0,0,0,-1,1294,1100,0,0
77,-76,0,0,0,0,0,0,0,0,0,-1,1301,1100,0,0
84,-76,0,0,0,0,0,0,0,0,0,-1,1308,1100,0,0
91,-76,0,0,0,0,0,0,0,0,0,-1,1315,1100,0,0
98,-76,0,0,0,0,0,0,0,0,0,-1,1322,1100,0,0
105,-76,0,0,0,0,0,0,0,0,0,-1,1329,1100,0,0
112,-76,0,0,0,0,0,0,0,0,0,-1,1336,1100,0,0
119,-76,0,0,0,0,0,0,0,0,0,-1,1343,1100,0,0
126,-76,0,0,0,0,0,0,0,0,0,-1,1350,1100,0,0
133,-76,0,0,0,0,0,0,0,0,0,-1,1357,1100,0,0
140,-76,0,0,0,0,0,0,0,0,0,-1,1364,1100,0,0
147,-76,0,0,0,0,0,0,0,0,0,-1,1371,1100,0,0
154,-76,0,0,0,0,0,0,0,0,0,-1,1378,1100,0,0
161,-76,0,0,0,0,0,0,0,0,0,-1,1385,1100,0,0
168,-76,0,0,0,0,0,0,0,0,0,-1,1392,1100,0,0
175,-76,0,0,0,0,0,0,0,0,0,-1,1399,1100,0,0
182,-76,0,0,0,0,0,0,0,0,0,-1,1406,1100,0,0
189,-76,0,0,0,0,0,0,0,0,0,-1,1413,1100,0,0
196,-76,0,0,0,0,0,0,0,0,0,-1,1420,1100,0,0
203,-76,0,0,0,0,0,0,0,0,0,-1,1427,1100,0,0
210,-76,0,0,0,0,0,0,0,0,0,-1,1434,1100,0,0
217,-76,0,0,0,0,0,0,0,0,0,-1,1441,1100,0,0
224,-76,0,0,0,0,0,0,0,0,0,-1,1448,1100,0,0
231,-76,0,0,0,0,0,0,0,0,0,-1,1455,1100,0,0
238,-76,0,0,0,0,0,0,0,0,0,-1,1462,1100,0,0
245,-76,0,0,0,0,0,0,0,0,0,-1,1469,1100,0,0
252,-76,0,0,0,0,0,0,0,0,0,-1,1476,1100,0,0
259,-76,0,0,0,0,0,0,0,0,0,-1,1483,1100,0,0
266,-76,0,0,0,0,0,0,0,0,0,-1,1490,1100,0,0
273,-76,0,0,0,0,0,0,0,0,0,-1,1497,1100,0,0
280,-76,0,0,0,0,0,0,0,0,0,-1,1504,1100,0,0
287,-76,0,0,0,0,0,0,0,0,0,-1,1511,1100,0,0
294,-76,0,0,0,0,0,0,0,0,0,-1,1518,1100,0,0
301,-76,0,0,0,0,0,0,0,0,0,-1,1525,1100,0,0
308,-76,0,0,0,0,0,0,0,0,0,-1,1532,1100,0,0
315,-76,0,0,0,0,0,0,0,0,0,-1,1539,1100,0,0
322,-76,0,0,0,0,0,0,0,0,0,-1,1546,1100,0,0
329,-76,0,0,0,0,0,0,0,0,0,-1,1553,1100,0,0
336,-76,0,0,0,0,0,0,0,0,0,-1,1560,1100,0,0
343,-76,0,0,0,0,0,0,0,0,0,-1,1567,1100,0,0
350,-76,0,0,0,0,0,0,0,0,0,-1,1574,1100,0,0
357,-76,0,0,0,0,0,0,0,0,0,-1,1581,1100,0,0
364,-76,0,0,0,0,0,0,0,0,0,-1,1588,1100,0,0
371,-76,0,0,0,0,0,0,0,0,0,-1,1595,1100,0,0
378,-76,0,0,0,0,0,0,0,0,0,-1,1602,1100,0,0
385,-76,0,0,0,0,0,0,0,0,0,-1,1609,1100,0,0
392,-76,0,0,0,0,0,0,0,0,0,-1,1616,1100,0,0
399,-76,0,0,0,0,0,0,0,0,0,-1,1623,1100,0,0
406,-76,0,0,0,0,0,0,0,0,0,-1,1630,1100,0,0
413,-76,0,0,0,0,0,0,0,0,0,-1,1637,1100,0,0
420,-76,0,0,0,0,0,0,0,0,0,-1,1644,1100,0,0
427,-76,0,0,0,0,0,0,0,0,0,-1,1651,1100,0,0
434,-76,0,0,0,0,0,0,0,0,0,-1,1658,1100,0,0
441,-76,0,0,0,0,0,0,0,0,0,-1,1665,1100,0,0
448,-76,0,0,0,0,0,0,0,0,0,-1,1672,1100,0,0
455,-76,0,0,0,0,0,0,0,0,0,-1,1679,1100,0,0
462,-76,0,0,0,0,0,0,0,0,0,-1,1686,1100,0,0
469,-76,0,0,0,0,0,0,0,0,0,-1,1693,1100,0,0
476,-76,0,0,0,0,0,0,0,0,0,-1,1700,1100,0,0
483,-76,0,0,0,0,0,0,0,0,0,-1,1707,1100,0,0
490,-76,0,0,0,0,0,0,0,0,0,-1,1714,1100,0,0
497,-76,0,0,0,0,0,0,0,0,0,-1,1721,1100,0,0
504,-76,0,0,0,0,0,0,0,0,0,-1,1728,1100,0,0
511,-76,0,0,0,0,0,0,0,0,0,-1,1735,1100,0,0
518,-76,0,0,0,0,0,0,0,0,0,-1,1742,1100,0,0
525,-76,0,0,0,0,0,0,0,0,0,-1,1749,1100,0,0
532,-76,0,0,0,0,0,0,0,0,0,-1,1756,1100,0,0
539,-76,0,0,0,0,0,0,0,0,0,-1,1763,1100,0,0
546,-76,0,0,0,0,0,0,0,0,0,-1,1770,1100,0,0
553,-76,0,0,0,0,0,0,0,0,0,-1,1777,1100,0,0
560,-76,0,0,0,0,0,0,0,0,0,-1,1784,1100,0,0
567,-76,0,0,0,0,0,0,0,0,0,-1,1791,1100,0,0
574,-76,0,0,0,0,0,0,0,0,0,-1,1798,1100,0,0
581,-76,0,0,0,0,0,0,0,0,0,-1,1805,1100,0,0
588,-76,0,0,0,0,0,0,0,0,0,-1,1812,1100,0,0
595,-76,0,0,0,0,0,0,0,0,0,-1,1819,1100,0,0
602,-76,0,0,0,0,0,0,0,0,0,-1,1826,1100,0,0
609,-76,0,0,0,0,0,0,0,0,0,-1,1833,1100,0,0
616,-76,0,0,0,0,0,0,0,0,0,-1,1840,1100,0,0
623,-76,0,0,0,0,0,0,0,0,0,-1,1847,1100,0,0
630,-76,0,0,0,0,0,0,0,0,0,-1,1854,1100,0,0
637,-76,0,0,0,0,0,0,0,0,0,-1,1861,1100,0,0
644,-76,0,0,0,0,0,0,0,0,0,-1,1868,1100,0,0
651,-76,49.004,2.53259,-0.000188837,-0.000150155,-0.00297681,0.00280738,-0.00314637,-0.788647,0.00343926,0.0387712,1875,1100,49.004,-2.5326
658,-76,49.0641,2.5603,3.28081e-05,-0.000335599,-0.00198452,0.00184166,-0.00214445,-0.739121,0.00230359,0.0419403,1882,1100,49.0641,-2.56033
665,-76,48.8899,2.38818,0.00032775,-0.00053359,-0.00123864,0.00120845,-0.00141429,-0.618088,0.0015158,0.0374056,1889,1100,48.8899,-2.38819
672,-76,48.739,2.56702,0.000732418,-0.000648912,-0.000649985,0.000990172,-0.000906666,-0.377532,0.00109549,0.0354932,1896,1100,48.739,-2.56704
679,-76,48.876,2.81299,0.000888359,-0.000760052,-0.000175873,0.000906914,-0.000778608,-0.105116,0.000974076,0.0360892,1903,1100,48.876,-2.813
686,-76,49.0616,2.80933,0.000831912,-0.000967783,0.000229934,0.000860825,-0.000996695,0.125086,0.0010734,0.0350937,1910,1100,49.0617,-2.80938
693,-76,48.9878,2.64771,0.000770584,-0.00112467,0.000533736,0.000910555,-0.00126465,0.256473,0.00126139,0.0363296,1917,1100,48.9878,-2.64765
700,-76,48.8801,2.51135,0.00059963,-0.00113315,0.000822786,0.000928065,-0.00146159,0.379795,0.00139108,0.031343,1924,1100,48.8801,-2.51132
707,-76,48.92,2.54724,0.000322085,-0.00107755,0.001137,0.000957375,-0.00171284,0.50953,0.00156208,0.0211186,1931,1100,48.9201,-2.54727
714,-76,48.9994,2.5481,0,0,0,0,0,0,0,-1,1938,1100,48.9994,-2.54812
721,-76,45.1713,3.04919,0,0,0,0,0,0,0,-1,1945,1100,45.1713,-3.04915
728,-76,46.0776,6.71216,0,0,0,0,0,0,0,-1,1952,1100,46.0776,-6.7122
735,-76,46.4769,6.46521,-0.00143725,0.000388233,0.00182837,0.00151903,-0.00256805,1.01691,0.00238544,0.0395753,1959,1100,46.4769,-6.46522
742,-76,46.7074,6.15295,-0.00106126,0.00113718,0.00151076,0.0019063,-0.00183038,1.0999,0.00215752,0.0260719,1966,1100,46.7074,-6.15296
749,-76,46.6178,5.80334,0.000689221,0.00259063,0.000110691,0.00259705,0.000682799,1.51284,0.00155458,0.0250441,1973,1100,46.6179,-5.8033
756,-76,46.6843,5.54724,0.00321271,0.00441661,-0.00150953,0.00543978,0.00218954,-0.975119,0.0031605,0.0152686,1980,1100,46.6843,-5.54729
763,-76,46.6802,5.23425,0.0074242,0.0068999,-0.00426722,0.0114373,0.00288679,-0.75472,0.00686791,0.0159576,1987,1100,46.6802,-5.23419
770,-76,46.5835,4.98328,0.014291,0.0102472,-0.00853074,0.0210362,0.00350201,-0.66904,0.0130148,0.0174404,1994,1100,46.5835,-4.98331
777,-76,46.4894,4.81628,0.0237397,0.0142053,-0.013966,0.0337297,0.00421527,-0.620926,0.0212214,0.0230717,2001,1100,46.4893,-4.81624
784,-76,46.5837,4.41406,0.0357648,0.0186141,-0.0205719,0.049477,0.00490178,-0.587925,0.0314782,0.0339081,2008,1100,46.5837,-4.41406
791,-76,46.8899,3.90942,0.0520995,0.0235602,-0.0288511,0.070017,0.00564275,-0.555741,0.0449154,0.0424644,2015,1100,46.8899,-3.90947
798,-76,47.0867,3.1825,0.0743195,0.0290915,-0.0390682,0.0968466,0.00656446,-0.523043,0.0624913,0.0455292,2022,1100,47.0866,-3.18247
805,-76,46.9375,2.57568,0,0,0,0,0,0,0,-1,2029,1100,46.9374,-2.57563
812,-76,47.8767,2.69763,0,0,0,0,0,0,0,-1,2036,1100,47.8768,-2.69766
-700,-83,0,0,0,0,0,0,0,0,0,-1,524,1107,0,0
-693,-83,-35.5965,-0.0721436,0,0,0,0,0,0,0,-1,531,1107,-35.5965,0.072144
-686,-83,-33.8365,0.12439,0,0,0,0,0,0,0,-1,538,1107,-33.8365,-0.124336
-679,-83,-33.7598,0.492676,0.0242221,0.0954306,0.000142473,0.0954308,0.0242219,1.5688,0.0572799,0.0491609,545,1107,-33.7598,-0.4927
-672,-83,-33.6391,0.825195,0.0162467,0.0822132,-0.000980804,0.0822278,0.0162321,-1.55593,0.0502888,0.0465566,552,1107,-33.6391,-0.82518
-665,-83,-33.6196,0.964478,0.00979815,0.0683829,-0.00173511,0.0684343,0.0097468,-1.54121,0.0427459,0.0468223,559,1107,-33.6196,-0.964423
-658,-83,-33.8671,1.01196,0.0047941,0.0548654,-0.00218491,0.0549606,0.00469894,-1.52727,0.0351789,0.045754,566,1107,-33.8671,-1.01194
-651,-83,-33.8634,1.349,0.00132633,0.0423382,-0.00236729,0.0424744,0.00119013,-1.51333,0.027928,0.0335297,573,1107,-33.8634,-1.34896
-644,-83,-33.8911,1.73352,-0.00076517,0.0317258,-0.0023672,0.0318974,-0.000936732,-1.49845,0.021584,0.0166198,580,1107,-33.8911,-1.73358
-637,-83,-33.9384,2.09583,-0.00230644,0.0218449,-0.00236687,0.0220747,-0.00253621,-1.47402,0.0156306,0.0128503,587,1107,-33.9384,-2.09584
-630,-83,-33.9429,2.4502,-0.00271166,0.0122366,-0.00192611,0.0124808,-0.00295585,-1.44469,0.00946102,0.0178488,594,1107,-33.9429,-2.45018
-623,-83,-33.9572,2.76416,-0.00193611,0.00590109,-0.0015315,0.00618973,-0.00222476,-1.38451,0.00503468,0.0174115,601,1107,-33.9572,-2.76421
-616,-83,-34.0227,3.1134,-0.000473869,0.00262583,-0.00104489,0.00294516,-0.000793196,-1.2742,0.00227442,0.0155522,608,1107,-34.0227,-3.11344
-609,-83,-34.0269,3.44153,0.0008555,0.00113449,-0.000465943,0.00148137,0.000508618,-0.930843,0.000869151,0.0181001,615,1107,-34.0269,-3.44149
-602,-83,-34.0327,3.82654,0.00148028,0.000331676,3.33819e-05,0.00148125,0.000330707,0.0290302,0.000897804,0.0185842,622,1107,-34.0327,-3.82658
-595,-83,-33.9562,4.19385,0.00192851,8.21182e-05,0.000176066,0.00194515,6.54791e-05,0.0942252,0.0012755,0.0223933,629,1107,-33.9563,-4.19383
-588,-83,-33.9435,4.46863,0,0,0,0,0,0,0,-1,636,1107,-33.9435,-4.4686
-581,-83,-36.3799,0.601807,0,0,0,0,0,0,0,-1,643,1107,-36.38,-0.601817
-574,-83,-36.3418,0.583862,0.00241171,-0.000226042,5.7271e-05,0.00241295,-0.000227285,0.0216984,0.0016895,0.0369235,650,1107,-36.3418,-0.583915
-567,-83,-36.2833,0.645752,0.0023064,-0.000124327,-3.10135e-05,0.0023068,-0.000124723,-0.0127561,0.00158108,0.0414579,657,1107,-36.2833,-0.645777
-560,-83,-36.2034,0.674683,0.00204552,2.3074e-06,-0.000290183,0.00208593,-3.8106e-05,-0.138378,0.00140349,0.0423991,664,1107,-36.2034,-0.674696
-553,-83,-36.2542,0.866333,0.00140261,2.02981e-05,-0.000887913,0.00183666,-0.000413751,-0.454682,0.00138314,0.0429283,671,1107,-36.2542,-0.866289
-546,-83,-36.397,1.04285,0.000762444,-0.000251628,-0.00190664,0.00222832,-0.0017175,-0.65544,0.00228447,0.0416838,678,1107,-36.397,-1.04287
-539,-83,-36.4042,0.81189,0.0010549,-0.00135554,-0.00351471,0.00356529,-0.00386593,-0.620227,0.00429159,0.0421375,685,1107,-36.4042,-0.811843
-532,-83,-36.3316,0.70813,0.00141345,-0.00249762,-0.00509966,0.00491966,-0.00600383,-0.602313,0.00631702,0.0432642,692,1107,-36.3316,-0.708083
-525,-83,0,0,0,0,0,0,0,0,0,-1,699,1107,0,0
-518,-83,0,0,0,0,0,0,0,0,0,-1,706,1107,0,0
-511,-83,0,0,0,0,0,0,0,0,0,-1,713,1107,0,0
-504,-83,0,0,0,0,0,0,0,0,0,-1,720,1107,0,0
-497,-83,0,0,0,0,0,0,0,0,0,-1,727,1107,0,0
-490,-83,0,0,0,0,0,0,0,0,0,-1,734,1107,0,0
-483,-83,0,0,0,0,0,0,0,0,0,-1,741,1107,0,0
-476,-83,0,0,0,0,0,0,0,0,0,-1,748,1107,0,0
-469,-83,0,0,0,0,0,0,0,0,0,-1,755,1107,0,0
-462,-83,0,0,0,0,0,0,0,0,0,-1,762,1107,0,0
-455,-83,0,0,0,0,0,0,0,0,0,-1,769,1107,0,0
-448,-83,0,0,0,0,0,0,0,0,0,-1,776,1107,0,0
-441,-83,0,0,0,0,0,0,0,0,0,-1,783,1107,0,0
-434,-83,0,0,0,0,0,0,0,0,0,-1,790,1107,0,0
-427,-83,0,0,0,0,0,0,0,0,0,-1,797,1107,0,0
-420,-83,0,0,0,0,0,0,0,0,0,-1,804,1107,0,0
-413,-83,0,0,0,0,0,0,0,0,0,-1,811,1107,0,0
-406,-83,0,0,0,0,0,0,0,0,0,-1,818,1107,0,0
-399,-83,0,0,0,0,0,0,0,0,0,-1,825,1107,0,0
-392,-83,0,0,0,0,0,0,0,0,0,-1,832,1107,0,0
-385,-83,0,0,0,0,0,0,0,0,0,-1,839,1107,0,0
-378,-83,0,0,0,0,0,0,0,0,0,-1,846,1107,0,0
-371,-83,0,0,0,0,0,0,0,0,0,-1,853,1107,0,0
-364,-83,0,0,0,0,0,0,0,0,0,-1,860,1107,0,0
-357,-83,0,0,0,0,0,0,0,0,0,-1,867,1107,0,0
-350,-83,0,0,0,0,0,0,0,0,0,-1,874,1107,0,0
-343,-83,0,0,0,0,0,0,0,0,0,-1,881,1107,0,0
-336,-83,0,0,0,0,0,0,0,0,0,-1,888,1107,0,0
-329,-83,0,0,0,0,0,0,0,0,0,-1,895,1107,0,0
-322,-83,0,0,0,0,0,0,0,0,0,-1,902,1107,0,0
-315,-83,0,0,0,0,0,0,0,0,0,-1,909,1107,0,0
-308,-83,0,0,0,0,0,0,0,0,0,-1,916,1107,0,0
-301,-83,0,0,0,0,0,0,0,0,0,-1,923,1107,0,0
-294,-83,0,0,0,0,0,0,0,0,0,-1,930,1107,0,0
-287,-83,0,0,0,0,0,0,0,0,0,-1,937,1107,0,0
-280,-83,0,0,0,0,0,0,0,0,0,-1,944,1107,0,0
-273,-83,0,0,0,0,0,0,0,0,0,-1,951,1107,0,0
-266,-83,0,0,0,0,0,0,0,0,0,-1,958,1107,0,0
-259,-83,0,0,0,0,0,0,0,0,0,-1,965,1107,0,0
-252,-83,0,0,0,0,0,0,0,0,0,-1,972,1107,0,0
-245,-83,0,0,0,0,0,0,0,0,0,-1,979,1107,0,0
-238,-83,0,0,0,0,0,0,0,0,0,-1,986,1107,0,0
-231,-83,0,0,0,0,0,0,0,0,0,-1,993,1107,0,0
-224,-83,0,0,0,0,0,0,0,0,0,-1,1000,1107,0,0
-217,-83,0,0,0,0,0,0,0,0,0,-1,1007,1107,0,0
-210,-83,0,0,0,0,0,0,0,0,0,-1,1014,1107,0,0
-203,-83,0,0,0,0,0,0,0,0,0,-1,1021,1107,0,0
-196,-83,0,0,0,0,0,0,0,0,0,-1,1028,1107,0,0
-189,-83,0,0,0,0,0,0,0,0,0,-1,1035,1107,0,0
-182,-83,0,0,0,0,0,0,0,0,0,-1,1042,1107,0,0
-175,-83,0,0,0,0,0,0,0,0,0,-1,1049,1107,0,0
-168,-83,0,0,0,0,0,0,0,0,0,-1,1056,1107,0,0
-161,-83,0,0,0,0,0,0,0,0,0,-1,1063,1107,0,0
-154,-83,0,0,0,0,0,0,0,0,0,-1,1070,1107,0,0
-147,-83,0,0,0,0,0,0,0,0,0,-1,1077,1107,0,0
-140,-83,0,0,0,0,0,0,0,0,0,-1,1084,1107,0,0
-133,-83,0,0,0,0,0,0,0,0,0,-1,1091,1107,0,0
-126,-83,0,0,0,0,0,0,0,0,0,-1,1098,1107,0,0
-119,-83,0,0,0,0,0,0,0,0,0,-1,1105,1107,0,0
-112,-83,0,0,0,0,0,0,0,0,0,-1,1112,1107,0,0
-105,-83,0,0,0,0,0,0,0,0,0,-1,1119,1107,0,0
-98,-83,0,0,0,0,0,0,0,0,0,-1,1126,1107,0,0
-91,-83,0,0,0,0,0,0,0,0,0,-1,1133,1107,0,0
-84,-83,0,0,0,0,0,0,0,0,0,-1,1140,1107,0,0
-77,-83,0,0,0,0,0,0,0,0,0,-1,1147,1107,0,0
-70,-83,0,0,0,0,0,0,0,0,0,-1,1154,1107,0,0
-63,-83,0,0,0,0,0,0,0,0,0,-1,1161,1107,0,0
-56,-83,0,0,0,0,0,0,0,0,0,-1,1168,1107,0,0
-49,-83,0,0,0,0,0,0,0,0,0,-1,1175,1107,0,0
-42,-83,0,0,0,0,0,0,0,0,0,-1,1182,1107,0,0
-35,-83,0,0,0,0,0,0,0,0,0,-1,1189,1107,0,0
-28,-83,0,0,0,0,0,0,0,0,0,-1,1196,1107,0,0
-21,-83,0,0,0,0,0,0,0,0,0,-1,1203,1107,0,0
-14,-83,0,0,0,0,0,0,0,0,0,-1,1210,1107,0,0
-7,-83,0,0,0,0,0,0,0,0,0,-1,1217,1107,0,0
0,-83,0,0,0,0,0,0,0,0,0,-1,1224,1107,0,0
7,-83,0,0,0,0,0,0,0,0,0,-1,1231,1107,0,0
14,-83,0,0,0,0,0,0,0,0,0,-1,1238,1107,0,0
21,-83,0,0,0,0,0,0,0,0,0,-1,1245,1107,0,0
28,-83,0,0,0,0,0,0,0,0,0,-1,1252,1107,0,0
35,-83,0,0,0,0,0,0,0,0,0,-1,1259,1107,0,0
42,-83,0,0,0,0,0,0,0,0,0,-1,1266,1107,0,0
49,-83,0,0,0,0,0,0,0,0,0,-1,1273,1107,0,0
56,-83,0,0,0,0,0,0,0,0,0,-1,1280,1107,0,0
63,-83,0,0,0,0,0,0,0,0,0,-1,1287,1107,0,0
70,-83,0,0,0,0,0,0,0,0,0,-1,1294,1107,0,0
77,-83,0,0,0,0,0,0,0,0,0,-1,1301,1107,0,0
84,-83,0,0,0,0,0,0,0,0,0,-1,1308,1107,0,0
91,-83,0,0,0,0,0,0,0,0,0,-1,1315,1107,0,0
98,-83,0,0,0,0,0,0,0,0,0,-1,1322,1107,0,0
105,-83,0,0,0,0,0,0,0,0,0,-1,1329,1107,0,0
112,-83,0,0,0,0,0,0,0,0,0,-1,1336,1107,0,0
119,-83,0,0,0,0,0,0,0,0,0,-1,1343,1107,0,0
126,-83,0,0,0,0,0,0,0,0,0,-1,1350,1107,0,0
133,-83,0,0,0,0,0,0,0,0,0,-1,1357,1107,0,0
140,-83,0,0,0,0,0,0,0,0,0,-1,1364,1107,0,0
147,-83,0,0,0,0,0,0,0,0,0,-1,1371,1107,0,0
154,-83,0,0,0,0,0,0,0,0,0,-1,1378,1107,0,0
161,-83,0,0,0,0,0,0,0,0,0,-1,1385,1107,0,0
168,-83,0,0,0,0,0,0,0,0,0,-1,1392,1107,0,0
175,-83,0,0,0,0,0,0,0,0,0,-1,1399,1107,0,0
182,-83,0,0,0,0,0,0,0,0,0,-1,1406,1107,0,0
189,-83,0,0,0,0,0,0,0,0,0,-1,1413,1107,0,0
196,-83,0,0,0,0,0,0,0,0,0,-1,1420,1107,0,0
203,-83,0,0,0,0,0,0,0,0,0,-1,1427,1107,0,0
210,-83,0,0,0,0,0,0,0,0,0,-1,1434,1107,0,0
217,-83,0,0,0,0,0,0,0,0,0,-1,1441,1107,0,0
224,-83,0,0,0,0,0,0,0,0,0,-1,1448,1107,0,0
231,-83,0,0,0,0,0,0,0,0,0,-1,1455,1107,0,0
238,-83,0,0,0,0,0,0,0,0,0,-1,1462,1107,0,0
245,-83,0,0,0,0,0,0,0,0,0,-1,1469,1107,0,0
252,-83,0,0,0,0,0,0,0,0,0,-1,1476,1107,0,0
259,-83,0,0,0,0,0,0,0,0,0,-1,1483,1107,0,0
266,-83,0,0,0,0,0,0,0,0,0,-1,1490,1107,0,0
273,-83,0,0,0,0,0,0,0,0,0,-1,1497,1107,0,0
280,-83,0,0,0,0,0,0,0,0,0,-1,1504,1107,0,0
287,-83,0,0,0,0,0,0,0,0,0,-1,1511,1107,0,0
294,-83,0,0,0,0,0,0,0,0,0,-1,1518,1107,0,0
301,-83,0,0,0,0,0,0,0,0,0,-1,1525,1107,0,0
308,-83,0,0,0,0,0,0,0,0,0,-1,1532,1107,0,0
315,-83,0,0,0,0,0,0,0,0,0,-1,1539,1107,0,0
322,-83,0,0,0,0,0,0,0,0,0,-1,1546,1107,0,0
329,-83,0,0,0,0,0,0,0,0,0,-1,1553,1107,0,0
336,-83,0,0,0,0,0,0,0,0,0,-1,1560,1107,0,0
343,-83,0,0,0,0,0,0,0,0,0,-1,1567,1107,0,0
350,-83,0,0,0,0,0,0,0,0,0,-1,1574,1107,0,0
357,-83,0,0,0,0,0,0,0,0,0,-1,1581,1107,0,0
364,-83,0,0,0,0,0,0,0,0,0,-1,1588,1107,0,0
371,-83,0,0,0,0,0,0,0,0,0,-1,1595,1107,0,0
378,-83,0,0,0,0,0,0,0,0,0,-1,1602,1107,0,0
385,-83,0,0,0,0,0,0,0,0,0,-1,1609,1107,0,0
392,-83,0,0,0,0,0,0,0,0,0,-1,1616,1107,0,0
399,-83,0,0,0,0,0,0,0,0,0,-1,1623,1107,0,0
406,-83,0,0,0,0,0,0,0,0,0,-1,1630,1107,0,0
413,-83,0,0,0,0,0,0,0,0,0,-1,1637,1107,0,0
420,-83,0,0,0,0,0,0,0,0,0,-1,1644,1107,0,0
427,-83,0,0,0,0,0,0,0,0,0,-1,1651,1107,0,0
434,-83,0,0,0,0,0,0,0,0,0,-1,1658,1107,0,0
441,-83,0,0,0,0,0,0,0,0,0,-1,1665,1107,0,0
448,-83,0,0,0,0,0,0,0,0,0,-1,1672,1107,0,0
455,-83,0,0,0,0,0,0,0,0,0,-1,1679,1107,0,0
462,-83,0,0,0,0,0,0,0,0,0,-1,1686,1107,0,0
469,-83,0,0,0,0,0,0,0,0,0,-1,1693,1107,0,0
476,-83,0,0,0,0,0,0,0,0,0,-1,1700,1107,0,0
483,-83,0,0,0,0,0,0,0,0,0,-1,1707,1107,0,0
490,-83,0,0,0,0,0,0,0,0,0,-1,1714,1107,0,0
497,-83,0,0,0,0,0,0,0,0,0,-1,1721,1107,0,0
504,-83,0,0,0,0,0,0,0,0,0,-1,1728,1107,0,0
511,-83,0,0,0,0,0,0,0,0,0,-1,1735,1107,0,0
518,-83,0,0,0,0,0,0,0,0,0,-1,1742,1107,0,0
525,-83,0,0,0,0,0,0,0,0,0,-1,1749,1107,0,0
532,-83,0,0,0,0,0,0,0,0,0,-1,1756,1107,0,0
539,-83,0,0,0,0,0,0,0,0,0,-1,1763,1107,0,0
546,-83,0,0,0,0,0,0,0,0,0,-1,1770,1107,0,0
553,-83,0,0,0,0,0,0,0,0,0,-1,1777,1107,0,0
560,-83,0,0,0,0,0,0,0,0,0,-1,1784,1107,0,0
567,-83,0,0,0,0,0,0,0,0,0,-1,1791,1107,0,0
574,-83,0,0,0,0,0,0,0,0,0,-1,1798,1107,0,0
581,-83,0,0,0,0,0,0,0,0,0,-1,1805,1107,0,0
588,-83,0,0,0,0,0,0,0,0,0,-1,1812,1107,0,0
595,-83,0,0,0,0,0,0,0,0,0,-1,1819,1107,0,0
602,-83,0,0,0,0,0,0,0,0,0,-1,1826,1107,0,0
609,-83,0,0,0,0,0,0,0,0,0,-1,1833,1107,0,0
616,-83,0,0,0,0,0,0,0,0,0,-1,1840,1107,0,0
623,-83,0,0,0,0,0,0,0,0,0,-1,1847,1107,0,0
630,-83,0,0,0,0,0,0,0,0,0,-1,1854,1107,0,0
637,-83,0,0,0,0,0,0,0,0,0,-1,1861,1107,0,0
644,-83,48.8323,2.56726,0.000467092,-0.000411724,-0.00463143,0.00467991,-0.00462454,-0.738102,0.00537196,0.0342168,1868,1107,48.8322,-2.56721
651,-83,48.9189,2.50854,4.96124e-05,-0.000538222,-0.00328619,0.00305501,-0.00354362,-0.740797,0.0038132,0.0400335,1875,1107,48.9189,-2.50849
658,-83,49.0161,2.45764,0.000256055,-0.000725032,-0.0022477,0.00206612,-0.00253509,-0.677962,0.00266111,0.0467383,1882,1107,49.0161,-2.45763
665,-83,48.7869,2.28027,0.000551713,-0.000890155,-0.00148319,0.0014799,-0.00181834,-0.559177,0.00190758,0.0425663,1889,1107,48.7869,-2.28029
672,-83,48.686,2.39172,0.000957694,-0.000968324,-0.000899812,0.00131266,-0.00132329,-0.375743,0.00152187,0.0381794,1896,1107,48.6861,-2.39177
679,-83,48.8948,2.64478,0.0010734,-0.00103082,-0.000437014,0.00116056,-0.00111797,-0.196842,0.00131558,0.0389387,1903,1107,48.8948,-2.64483
686,-83,49.0577,2.65845,0.00102457,-0.00117888,-6.53656e-05,0.00102651,-0.00118082,-0.0296304,0.00127544,0.0358113,1910,1107,49.0578,-2.6584
693,-83,49.0231,2.69592,0.00097899,-0.00126319,0.000210166,0.000998519,-0.00128272,0.0926575,0.00132048,0.0348582,1917,1107,49.023,-2.69598
700,-83,48.9519,2.61121,0.000817161,-0.0012278,0.000493803,0.000930158,-0.00134079,0.224956,0.00131826,0.0306287,1924,1107,48.9519,-2.61116
707,-83,48.9457,2.52991,0.000566557,-0.00114278,0.000811671,0.00089056,-0.00146679,0.3798,0.0013745,0.0217068,1931,1107,48.9457,-2.52991
714,-83,48.9618,2.48645,0,0,0,0,0,0,0,-1,1938,1107,48.9618,-2.48648
721,-83,46.5457,6.98547,0,0,0,0,0,0,0,-1,1945,1107,46.5456,-6.98548
728,-83,46.5291,6.7207,-0.00056802,-0.000335357,0.00141407,0.000967154,-0.00187053,0.82644,0.00166578,0.0425528,1952,1107,46.5291,-6.72065
735,-83,46.1373,6.44702,-0.0010262,0.000354601,0.00150171,0.00131701,-0.00198861,1.00086,0.00192159,0.0390588,1959,1107,46.1373,-6.44704
742,-83,46.2856,6.15906,-0.000623948,0.00102096,0.00136219,0.00178973,-0.00139272,1.05699,0.00184215,0.0230472,1966,1107,46.2856,-6.15909
749,-83,46.3876,5.83337,0.000888147,0.00225472,0.000339316,0.00233433,0.000808533,1.34034,0.00136877,0.0159689,1973,1107,46.3876,-5.83339
756,-83,46.4061,5.53784,0.0031838,0.00373149,-0.000894552,0.00439317,0.00252212,-0.933931,0.00254567,0.0154976,1980,1107,46.4061,-5.53787
763,-83,46.3904,5.20581,0.00719703,0.00581833,-0.00311523,0.00969827,0.00331708,-0.676511,0.00569169,0.0118298,1987,1107,46.3904,-5.20583
770,-83,46.3057,4.94385,0.0135446,0.00849349,-0.00650197,0.0179943,0.0040438,-0.600152,0.0109012,0.0162581,1994,1107,46.3057,-4.94382
777,-83,46.1898,4.67578,0.0221078,0.0115219,-0.0107985,0.0288407,0.00478892,-0.557528,0.0178463,0.0188322,2001,1107,46.1899,-4.6758
784,-83,46.1392,4.38757,0.0331795,0.0148292,-0.0161723,0.0425981,0.00541059,-0.527371,0.026778,0.0271293,2008,1107,46.1392,-4.38762
791,-83,46.198,4.09521,0.048382,0.0183441,-0.0230134,0.0608437,0.00588242,-0.496292,0.0387507,0.0420437,2015,1107,46.1979,-4.09516
798,-83,46.1821,3.83997,0,0,0,0,0,0,0,-1,2022,1107,46.1822,-3.83998
805,-83,45.5271,2.76343,0,0,0,0,0,0,0,-1,2029,1107,45.5271,-2.76341
812,-83,45.3254,2.10547,0,0,0,0,0,0,0,-1,2036,1107,45.3253,-2.10544
-700,-90,0,0,0,0,0,0,0,0,0,-1,524,1114,0,0
-693,-90,-35.0013,-1.04749,0,0,0,0,0,0,0,-1,531,1114,-35.0013,1.04746
-686,-90,-34.4663,-0.83667,0.0472954,0.119247,0.0102205,0.120671,0.0458718,1.4324,0.0703333,0.0458206,538,1114,-34.4663,0.836681
-679,-90,-33.756,-0.622192,0.0358129,0.104834,0.00766719,0.105675,0.0349715,1.46149,0.0621633,0.0449258,545,1114,-33.7559,0.622143
-672,-90,-33.5055,-0.213745,0.0260334,0.0889914,0.00543205,0.0894567,0.0255682,1.48536,0.053204,0.0448538,552,1114,-33.5055,0.213771
-665,-90,-33.5544,0.199097,0,0,0,0,0,0,0,-1,559,1114,-33.5545,-0.199128
-658,-90,-33.5405,0.700195,0.0107398,0.0578944,0.00189454,0.0579704,0.0106638,1.53071,0.0356284,0.0464093,566,1114,-33.5406,-0.700187
-651,-90,-33.5081,1.09863,0.00554774,0.0441337,0.000674842,0.0441455,0.00553594,1.55331,0.0277696,0.0328648,573,1114,-33.5081,-1.09866
-644,-90,-33.564,1.59766,0.00207381,0.032458,-0.000177663,0.032459,0.00207277,-1.56495,0.0209826,0.0159084,580,1114,-33.564,-1.59771
-637,-90,-33.5701,2.05994,-0.000740122,0.02187,-0.000993443,0.0219136,-0.000783687,-1.52697,0.0148772,0.0133332,587,1114,-33.5701,-2.05996
-630,-90,-33.5731,2.43677,-0.00216799,0.0118186,-0.00117993,0.0119174,-0.00226683,-1.48722,0.00879846,0.012568,594,1114,-33.5731,-2.43677
-623,-90,-33.5843,2.79529,-0.00187938,0.00527685,-0.00116256,0.00546098,-0.0020635,-1.41372,0.00448945,0.0108773,601,1114,-33.5843,-2.79534
-616,-90,-33.6199,3.17896,-0.000515303,0.00216553,-0.000847195,0.00241082,-0.00076059,-1.28897,0.00191185,0.0131621,608,1114,-33.6199,-3.179
-609,-90,-33.6283,3.50391,0.000813072,0.000844322,-0.00040783,0.00123683,0.000420568,-0.804545,0.000726161,0.0193109,615,1114,-33.6283,-3.50388
-602,-90,-33.7198,3.84644,0.00144512,0.000188992,-7.58276e-06,0.00144517,0.000188946,-0.0060363,0.000907048,0.0206154,622,1114,-33.7198,-3.84639
-595,-90,-33.5852,4.28003,0.00189981,2.17508e-05,6.79076e-05,0.00190226,1.92986e-05,0.0360956,0.00126179,0.0159048,629,1114,-33.5852,-4.28001
-588,-90,-33.586,4.56213,0,0,0,0,0,0,0,-1,636,1114,-33.586,-4.56213
-581,-90,-36.4139,0.777466,0,0,0,0,0,0,0,-1,643,1114,-36.4139,-0.777421
-574,-90,-36.3395,0.689453,0.00245664,-0.000151918,-0.000101608,0.00246059,-0.00015587,-0.0388732,0.00169474,0.0365556,650,1114,-36.3395,-0.689502
-567,-90,-36.2924,0.58606,0.00241923,-2.33554e-07,-0.000185387,0.00243336,-1.4356e-05,-0.0760315,0.00162704,0.0377099,657,1114,-36.2924,-0.585999
-560,-90,-36.2368,0.61084,0.00223337,0.000194137,-0.000403649,0.00231036,0.000117144,-0.188476,0.00150271,0.0404465,664,1114,-36.2368,-0.610897
-553,-90,-36.3086,0.769287,0.00155918,0.000309419,-0.000948556,0.00207019,-0.000201584,-0.49414,0.00145199,0.0388123,671,1114,-36.3086,-0.769293
-546,-90,-36.4659,0.975708,0.000756749,0.000169116,-0.00187209,0.00235794,-0.00143207,-0.70756,0.00220982,0.0417411,678,1114,-36.4659,-0.975709
-539,-90,-36.3995,0.774414,0.000801365,-0.000773075,-0.00329504,0.00340192,-0.00337363,-0.668141,0.00391187,0.0436906,685,1114,-36.3995,-0.774376
-532,-90,-36.3804,0.558472,0.000966301,-0.00183929,-0.00475418,0.00452032,-0.00539331,-0.641936,0.00573103,0.0415712,692,1114,-36.3804,-0.558423
-525,-90,0,0,0,0,0,0,0,0,0,-1,699,1114,0,0
-518,-90,0,0,0,0,0,0,0,0,0,-1,706,1114,0,0
-511,-90,0,0,0,0,0,0,0,0,0,-1,713,1114,0,0
-504,-90,0,0,0,0,0,0,0,0,0,-1,720,1114,0,0
-497,-90,0,0,0,0,0,0,0,0,0,-1,727,1114,0,0
-490,-90,0,0,0,0,0,0,0,0,0,-1,734,1114,0,0
-483,-90,0,0,0,0,0,0,0,0,0,-1,741,1114,0,0
-476,-90,0,0,0,0,0,0,0,0,0,-1,748,1114,0,0
-469,-90,0,0,0,0,0,0,0,0,0,-1,755,1114,0,0
-462,-90,0,0,0,0,0,0,0,0,0,-1,762,1114,0,0
-455,-90,0,0,0,0,0,0,0,0,0,-1,769,1114,0,0
-448,-90,0,0,0,0,0,0,0,0,0,-1,776,1114,0,0
-441,-90,0,0,0,0,0,0,0,0,0,-1,783,1114,0,0
-434,-90,0,0,0,0,0,0,0,0,0,-1,790,1114,0,0
-427,-90,0,0,0,0,0,0,0,0,0,-1,797,1114,0,0
-420,-90,0,0,0,0,0,0,0,0,0,-1,804,1114,0,0
-413,-90,0,0,0,0,0,0,0,0,0,-1,811,1114,0,0
-406,-90,0,0,0,0,0,0,0,0,0,-1,818,1114,0,0
-399,-90,0,0,0,0,0,0,0,0,0,-1,825,1114,0,0
-392,-90,0,0,0,0,0,0,0,0,0,-1,832,1114,0,0
-385,-90,0,0,0,0,0,0,0,0,0,-1,839,1114,0,0
-378,-90,0,0,0,0,0,0,0,0,0,-1,846,1114,0,0
-371,-90,0,0,0,0,0,0,0,0,0,-1,853,1114,0,0
-364,-90,0,0,0,0,0,0,0,0,0,-1,860,1114,0,0
-357,-90,0,0,0,0,0,0,0,0,0,-1,867,1114,0,0
-350,-90,0,0,0,0,0,0,0,0,0,-1,874,1114,0,0
-343,-90,0,0,0,0,0,0,0,0,0,-1,881,1114,0,0
-336,-90,0,0,0,0,0,0,0,0,0,-1,888,1114,0,0
-329,-90,0,0,0,0,0,0,0,0,0,-1,895,1114,0,0
-322,-90,0,0,0,0,0,0,0,0,0,-1,902,1114,0,0
-315,-90,0,0,0,0,0,0,0,0,0,-1,909,1114,0,0
-308,-90,0,0,0,0,0,0,0,0,0,-1,916,1114,0,0
-301,-90,0,0,0,0,0,0,0,0,0,-1,923,1114,0,0
-294,-90,0,0,0,0,0,0,0,0,0,-1,930,1114,0,0
-287,-90,0,0,0,0,0,0,0,0,0,-1,937,1114,0,0
-280,-90,0,0,0,0,0,0,0,0,0,-1,944,1114,0,0
-273,-90,0,0,0,0,0,0,0,0,0,-1,951,1114,0,0
-266,-90,0,0,0,0,0,0,0,0,0,-1,958,1114,0,0
-259,-90,0,0,0,0,0,0,0,0,0,-1,965,1114,0,0
-252,-90,0,0,0,0,0,0,0,0,0,-1,972,1114,0,0
-245,-90,0,0,0,0,0,0,0,0,0,-1,979,1114,0,0
-238,-90,0,0,0,0,0,0,0,0,0,-1,986,1114,0,0
-231,-90,0,0,0,0,0,0,0,0,0,-1,993,1114,0,0
-224,-90,0,0,0,0,0,0,0,0,0,-1,1000,1114,0,0
-217,-90,0,0,0,0,0,0,0,0,0,-1,1007,1114,0,0
-210,-90,0,0,0,0,0,0,0,0,0,-1,1014,1114,0,0
-203,-90,0,0,0,0,0,0,0,0,0,-1,1021,1114,0,0
-196,-90,0,0,0,0,0,0,0,0,0,-1,1028,1114,0,0
-189,-90,0,0,0,0,0,0,0,0,0,-1,1035,1114,0,0
-182,-90,0,0,0,0,0,0,0,0,0,-1,1042,1114,0,0
-175,-90,0,0,0,0,0,0,0,0,0,-1,1049,1114,0,0
-168,-90,0,0,0,0,0,0,0,0,0,-1,1056,1114,0,0
-161,-90,0,0,0,0,0,0,0,0,0,-1,1063,1114,0,0
-154,-90,0,0,0,0,0,0,0,0,0,-1,1070,1114,0,0
-147,-90,0,0,0,0,0,0,0,0,0,-1,1077,1114,0,0
-140,-90,0,0,0,0,0,0,0,0,0,-1,1084,1114,0,0
-133,-90,0,0,0,0,0,0,0,0,0,-1,1091,1114,0,0
-126,-90,0,0,0,0,0,0,0,0,0,-1,1098,1114,0,0
-119,-90,0,0,0,0,0,0,0,0,0,-1,1105,1114,0,0
-112,-90,0,0,0,0,0,0,0,0,0,-1,1112,1114,0,0
-105,-90,0,0,0,0,0,0,0,0,0,-1,1119,1114,0,0
-98,-90,0,0,0,0,0,0,0,0,0,-1,1126,1114,0,0
-91,-90,0,0,0,0,0,0,0,0,0,-1,1133,1114,0,0
-84,-90,0,0,0,0,0,0,0,0,0,-1,1140,1114,0,0
-77,-90,0,0,0,0,0,0,0,0,0,-1,1147,1114,0,0
-70,-90,0,0,0,0,0,0,0,0,0,-1,1154,1114,0,0
-63,-90,0,0,0,0,0,0,0,0,0,-1,1161,1114,0,0
-56,-90,0,0,0,0,0,0,0,0,0,-1,1168,1114,0,0
-49,-90,0,0,0,0,0,0,0,0,0,-1,1175,1114,0,0
-42,-90,0,0,0,0,0,0,0,0,0,-1,1182,1114,0,0
-35,-90,0,0,0,0,0,0,0,0,0,-1,1189,1114,0,0
-28,-90,0,0,0,0,0,0,0,0,0,-1,1196,1114,0,0
-21,-90,0,0,0,0,0,0,0,0,0,-1,1203,1114,0,0
-14,-90,0,0,0,0,0,0,0,0,0,-1,1210,1114,0,0
-7,-90,0,0,0,0,0,0,0,0,0,-1,1217,1114,0,0
0,-90,0,0,0,0,0,0,0,0,0,-1,1224,1114,0,0
7,-90,0,0,0,0,0,0,0,0,0,-1,1231,1114,0,0
14,-90,0,0,0,0,0,0,0,0,0,-1,1238,1114,0,0
21,-90,0,0,0,0,0,0,0,0,0,-1,1245,1114,0,0
28,-90,0,0,0,0,0,0,0,0,0,-1,1252,1114,0,0
35,-90,0,0,0,0,0,0,0,0,0,-1,1259,1114,0,0
42,-90,0,0,0,0,0,0,0,0,0,-1,1266,1114,0,0
49,-90,0,0,0,0,0,0,0,0,0,-1,1273,1114,0,0
56,-90,0,0,0,0,0,0,0,0,0,-1,1280,1114,0,0
63,-90,0,0,0,0,0,0,0,0,0,-1,1287,1114,0,0
70,-90,0,0,0,0,0,0,0,0,0,-1,1294,1114,0,0
77,-90,0,0,0,0,0,0,0,0,0,-1,1301,1114,0,0
84,-90,0,0,0,0,0,0,0,0,0,-1,1308,1114,0,0
91,-90,0,0,0,0,0,0,0,0,0,-1,1315,1114,0,0
98,-90,0,0,0,0,0,0,0,0,0,-1,1322,1114,0,0
105,-90,0,0,0,0,0,0,0,0,0,-1,1329,1114,0,0
112,-90,0,0,0,0,0,0,0,0,0,-1,1336,1114,0,0
119,-90,0,0,0,0,0,0,0,0,0,-1,1343,1114,0,0
126,-90,0,0,0,0,0,0,0,0,0,-1,1350,1114,0,0
133,-90,0,0,0,0,0,0,0,0,0,-1,1357,1114,0,0
140,-90,0,0,0,0,0,0,0,0,0,-1,1364,1114,0,0
147,-90,0,0,0,0,0,0,0,0,0,-1,1371,1114,0,0
154,-90,0,0,0,0,0,0,0,0,0,-1,1378,1114,0,0
161,-90,0,0,0,0,0,0,0,0,0,-1,1385,1114,0,0
168,-90,0,0,0,0,0,0,0,0,0,-1,1392,1114,0,0
175,-90,0,0,0,0,0,0,0,0,0,-1,1399,1114,0,0
182,-90,0,0,0,0,0,0,0,0,0,-1,1406,1114,0,0
189,-90,0,0,0,0,0,0,0,0,0,-1,1413,1114,0,0
196,-90,0,0,0,0,0,0,0,0,0,-1,1420,1114,0,0
203,-90,0,0,0,0,0,0,0,0,0,-1,1427,1114,0,0
210,-90,0,0,0,0,0,0,0,0,0,-1,1434,1114,0,0
217,-90,0,0,0,0,0,0,0,0,0,-1,1441,1114,0,0
224,-90,0,0,0,0,0,0,0,0,0,-1,1448,1114,0,0
231,-90,0,0,0,0,0,0,0,0,0,-1,1455,1114,0,0
238,-90,0,0,0,0,0,0,0,0,0,-1,1462,1114,0,0
245,-90,0,0,0,0,0,0,0,0,0,-1,1469,1114,0,0
252,-90,0,0,0,0,0,0,0,0,0,-1,1476,1114,0,0
259,-90,0,0,0,0,0,0,0,0,0,-1,1483,1114,0,0
266,-90,0,0,0,0,0,0,0,0,0,-1,1490,1114,0,0
273,-90,0,0,0,0,0,0,0,0,0,-1,1497,1114,0,0
280,-90,0,0,0,0,0,0,0,0,0,-1,1504,1114,0,0
287,-90,0,0,0,0,0,0,0,0,0,-1,1511,1114,0,0
294,-90,0,0,0,0,0,0,0,0,0,-1,1518,1114,0,0
301,-90,0,0,0,0,0,0,0,0,0,-1,1525,1114,0,0
308,-90,0,0,0,0,0,0,0,0,0,-1,1532,1114,0,0
315,-90,0,0,0,0,0,0,0,0,0,-1,1539,1114,0,0
322,-90,0,0,0,0,0,0,0,0,0,-1,1546,1114,0,0
329,-90,0,0,0,0,0,0,0,0,0,-1,1553,1114,0,0
336,-90,0,0,0,0,0,0,0,0,0,-1,1560,1114,0,0
343,-90,0,0,0,0,0,0,0,0,0,-1,1567,1114,0,0
350,-90,0,0,0,0,0,0,0,0,0,-1,1574,1114,0,0
357,-90,0,0,0,0,0,0,0,0,0,-1,1581,1114,0,0
364,-90,0,0,0,0,0,0,0,0,0,-1,1588,1114,0,0
371,-90,0,0,0,0,0,0,0,0,0,-1,1595,1114,0,0
378,-90,0,0,0,0,0,0,0,0,0,-1,1602,1114,0,0
385,-90,0,0,0,0,0,0,0,0,0,-1,1609,1114,0,0
392,-90,0,0,0,0,0,0,0,0,0,-1,1616,1114,0,0
399,-90,0,0,0,0,0,0,0,0,0,-1,1623,1114,0,0
406,-90,0,0,0,0,0,0,0,0,0,-1,1630,1114,0,0
413,-90,0,0,0,0,0,0,0,0,0,-1,1637,1114,0,0
420,-90,0,0,0,0,0,0,0,0,0,-1,1644,1114,0,0
427,-90,0,0,0,0,0,0,0,0,0,-1,1651,1114,0,0
434,-90,0,0,0,0,0,0,0,0,0,-1,1658,1114,0,0
441,-90,0,0,0,0,0,0,0,0,0,-1,1665,1114,0,0
448,-90,0,0,0,0,0,0,0,0,0,-1,1672,1114,0,0
455,-90,0,0,0,0,0,0,0,0,0,-1,1679,1114,0,0
462,-90,0,0,0,0,0,0,0,0,0,-1,1686,1114,0,0
469,-90,0,0,0,0,0,0,0,0,0,-1,1693,1114,0,0
476,-90,0,0,0,0,0,0,0,0,0,-1,1700,1114,0,0
483,-90,0,0,0,0,0,0,0,0,0,-1,1707,1114,0,0
490,-90,0,0,0,0,0,0,0,0,0,-1,1714,1114,0,0
497,-90,0,0,0,0,0,0,0,0,0,-1,1721,1114,0,0
504,-90,0,0,0,0,0,0,0,0,0,-1,1728,1114,0,0
511,-90,0,0,0,0,0,0,0,0,0,-1,1735,1114,0,0
518,-90,0,0,0,0,0,0,0,0,0,-1,1742,1114,0,0
525,-90,0,0,0,0,0,0,0,0,0,-1,1749,1114,0,0
532,-90,0,0,0,0,0,0,0,0,0,-1,1756,1114,0,0
539,-90,0,0,0,0,0,0,0,0,0,-1,1763,1114,0,0
546,-90,0,0,0,0,0,0,0,0,0,-1,1770,1114,0,0
553,-90,0,0,0,0,0,0,0,0,0,-1,1777,1114,0,0
560,-90,0,0,0,0,0,0,0,0,0,-1,1784,1114,0,0
567,-90,0,0,0,0,0,0,0,0,0,-1,1791,1114,0,0
574,-90,0,0,0,0,0,0,0,0,0,-1,1798,1114,0,0
581,-90,0,0,0,0,0,0,0,0,0,-1,1805,1114,0,0
588,-90,0,0,0,0,0,0,0,0,0,-1,1812,1114,0,0
595,-90,0,0,0,0,0,0,0,0,0,-1,1819,1114,0,0
602,-90,0,0,0,0,0,0,0,0,0,-1,1826,1114,0,0
609,-90,0,0,0,0,0,0,0,0,0,-1,1833,1114,0,0
616,-90,0,0,0,0,0,0,0,0,0,-1,1840,1114,0,0
623,-90,0,0,0,0,0,0,0,0,0,-1,1847,1114,0,0
630,-90,0,0,0,0,0,0,0,0,0,-1,1854,1114,0,0
637,-90,0,0,0,0,0,0,0,0,0,-1,1861,1114,0,0
644,-90,48.7981,2.66162,0.000780552,-0.000818879,-0.00512816,0.00517098,-0.0052093,-0.708048,0.00599307,0.0326508,1868,1114,48.7981,-2.66164
651,-90,48.7998,2.65173,0.000312132,-0.000994102,-0.00368228,0.00339877,-0.00408074,-0.697627,0.00432427,0.0390828,1875,1114,48.7998,-2.65175
658,-90,48.8556,2.42505,0.000508509,-0.00118438,-0.0025755,0.00237309,-0.00304897,-0.626632,0.00313852,0.0446891,1882,1114,48.8556,-2.42511
665,-90,48.8735,1.97937,0.000793212,-0.00132385,-0.0017579,0.00178668,-0.00231732,-0.514397,0.00237604,0.0455054,1889,1114,48.8736,-1.97934
672,-90,48.8684,2.16748,0.00116898,-0.00136551,-0.00113517,0.00160306,-0.0017996,-0.365239,0.00196562,0.0440573,1896,1114,48.8684,-2.16752
679,-90,48.9104,2.51099,0.00121121,-0.0013976,-0.000632471,0.00135645,-0.00154284,-0.225737,0.00167506,0.039924,1903,1114,48.9104,-2.51105
686,-90,48.9708,2.62256,0.00112784,-0.00149201,-0.000258094,0.00115303,-0.0015172,-0.0972687,0.00154643,0.0354654,1910,1114,48.9708,-2.6226
693,-90,48.9847,2.58923,0.00106423,-0.00151341,6.92965e-06,0.00106425,-0.00151343,0.00268835,0.00149573,0.033712,1917,1114,48.9847,-2.58922
700,-90,48.9919,2.55249,0.000889083,-0.00144049,0.000298841,0.000926808,-0.00147821,0.125573,0.00140065,0.0294258,1924,1114,48.9919,-2.55245
707,-90,48.9586,2.48267,0.000654991,-0.00132419,0.000623479,0.000835023,-0.00150422,0.281107,0.00136886,0.0213464,1931,1114,48.9586,-2.48262
714,-90,48.9427,2.40222,0,0,0,0,0,0,0,-1,1938,1114,48.9428,-2.40225
721,-90,46.074,7.09937,0,0,0,0,0,0,0,-1,1945,1114,46.074,-7.09933
728,-90,46.0334,6.8833,-0.000453474,-0.000447176,0.00122351,0.000773187,-0.00167384,0.786685,0.00144434,0.0307762,1952,1114,46.0334,-6.88334
735,-90,45.8303,6.53064,-0.000803209,0.000221673,0.00130257,0.00110898,-0.00169051,0.972803,0.00162787,0.032738,1959,1114,45.8303,-6.53059
742,-90,45.9475,6.13843,-0.000402799,0.000831793,0.00123373,0.00159404,-0.00116505,1.01736,0.00159937,0.0282577,1966,1114,45.9476,-6.13841
749,-90,46.1914,5.72229,0.000820051,0.00178993,0.000493656,0.00199699,0.000612992,1.17364,0.00118126,0.0193757,1973,1114,46.1914,-5.72227
756,-90,46.1403,5.46021,0.00278853,0.00293057,-0.00037326,0.0032395,0.00247959,-0.879405,0.0019562,0.0172455,1980,1114,46.1402,-5.46017
763,-90,46.0798,5.17505,0.00639948,0.00452054,-0.00209451,0.00775557,0.00316445,-0.574579,0.00450286,0.0122034,1987,1114,46.0798,-5.17501
770,-90,46.026,4.8689,0.0118963,0.00641827,-0.00467262,0.0145735,0.00374104,-0.5203,0.00873975,0.0152054,1994,1114,46.0261,-4.86892
777,-90,45.9225,4.61707,0.0191897,0.00844382,-0.00793788,0.0234021,0.00423144,-0.48788,0.0143997,0.0155836,2001,1114,45.9225,-4.61709
784,-90,45.8257,4.34985,0.0287392,0.010501,-0.012078,0.0347541,0.00448613,-0.462045,0.0218282,0.0291649,2008,1114,45.8256,-4.34981
791,-90,45.7979,4.06604,0.0419309,0.0124262,-0.0173978,0.049989,0.00436818,-0.433748,0.0319696,0.0426239,2015,1114,45.7979,-4.06599
798,-90,45.78,3.79211,0,0,0,0,0,0,0,-1,2022,1114,45.7801,-3.79213
805,-90,45.5078,3.02869,0,0,0,0,0,0,0,-1,2029,1114,45.5078,-3.02872
812,-90,44.8286,2.7489,0,0,0,0,0,0,0,-1,2036,1114,44.8286,-2.74895
-700,-97,0,0,0,0,0,0,0,0,0,-1,524,1121,0,0
-693,-97,-34.4378,-2.02026,0,0,0,0,0,0,0,-1,531,1121,-34.4378,2.02023
-686,-97,-33.6375,-2.22754,0.0612523,0.129128,0.019021,0.134094,0.0562854,1.31537,0.0777512,0.0482915,538,1121,-33.6375,2.22758
-679,-97,-33.2294,-1.91797,0.0479608,0.110885,0.0151987,0.114364,0.0444821,1.34579,0.0665687,0.0486132,545,1121,-33.2294,1.91797
-672,-97,-33.3392,-1.27844,0,0,0,0,0,0,0,-1,552,1121,-33.3392,1.27841
-665,-97,-33.8156,-0.449341,0,0,0,0,0,0,0,-1,559,1121,-33.8156,0.449293
-658,-97,-33.1205,0.488037,0,0,0,0,0,0,0,-1,566,1121,-33.1205,-0.488069
-651,-97,-33.1156,1.24316,0.010076,0.0438958,0.00342515,0.0442392,0.00973264,1.47087,0.0268433,0.0309261,573,1121,-33.1156,-1.24316
-644,-97,-33.1705,1.63574,0.00518549,0.0316368,0.00175517,0.0317528,0.00506953,1.50483,0.0196973,0.0117676,580,1121,-33.1704,-1.63572
-637,-97,-33.1833,2.03735,0.00111174,0.0207506,0.000193391,0.0207525,0.00110984,1.56095,0.0134803,0.0123733,587,1121,-33.1833,-2.03732
-630,-97,-33.1941,2.40918,-0.00133589,0.0106716,-0.000570313,0.0106986,-0.00136292,-1.52344,0.00762741,0.0106243,594,1121,-33.1941,-2.40922
-623,-97,-33.2075,2.79114,-0.00157656,0.00425501,-0.000904014,0.00439193,-0.00171349,-1.42047,0.00363628,0.0124385,601,1121,-33.2075,-2.79114
-616,-97,-33.2554,3.18042,-0.000333901,0.00150846,-0.000725752,0.00176001,-0.000585448,-1.23715,0.00140961,0.0195698,608,1121,-33.2553,-3.18038
-609,-97,-33.3359,3.57166,0.000915523,0.000525829,-0.000388653,0.00115544,0.000285915,-0.553039,0.000694878,0.0268874,615,1121,-33.3359,-3.57172
-602,-97,-33.3802,3.88306,0.00151496,5.76016e-05,-8.21236e-05,0.00151957,5.29885e-05,-0.0561142,0.000995855,0.0248171,622,1121,-33.3802,-3.88303
-595,-97,-33.2418,4.276,0.00193667,2.20788e-05,-5.92867e-05,0.00193851,2.02446e-05,-0.0309261,0.00128564,0.0182189,629,1121,-33.2418,-4.27602
-588,-97,-33.2714,4.63232,0,0,0,0,0,0,0,-1,636,1121,-33.2714,-4.63234
-581,-97,-35.5558,1.11877,0,0,0,0,0,0,0,-1,643,1121,-35.5559,-1.11872
-574,-97,-36.3641,0.775024,0,0,0,0,0,0,0,-1,650,1121,-36.3642,-0.775051
-567,-97,-36.3442,0.650391,0.00250688,0.000172992,-0.000256062,0.00253464,0.000145229,-0.108003,0.00164349,0.0380933,657,1121,-36.3442,-0.650362
-560,-97,-36.3771,0.717529,0.00238593,0.000424693,-0.000396549,0.00246308,0.000347549,-0.192141,0.00153934,0.0400175,664,1121,-36.3771,-0.717512
-553,-97,-36.392,0.839111,0.00165599,0.000623867,-0.000845944,0.00213086,0.000149,-0.511512,0.0013736,0.0422309,671,1121,-36.392,-0.83915
-546,-97,-36.5015,1.05908,0.000691081,0.000599462,-0.00161577,0.00226169,-0.00097115,-0.771226,0.00191541,0.0445521,678,1121,-36.5015,-1.05909
-539,-97,-36.3737,0.782471,0.000501866,-0.00020027,-0.00275918,0.00293222,-0.00263063,-0.72212,0.00321328,0.0440598,685,1121,-36.3737,-0.782529
-532,-97,-36.3594,0.491577,0.000507971,-0.00122654,-0.00397846,0.0037126,-0.00443117,-0.678083,0.0047079,0.0411357,692,1121,-36.3594,-0.49152
-525,-97,0,0,0,0,0,0,0,0,0,-1,699,1121,0,0
-518,-97,0,0,0,0,0,0,0,0,0,-1,706,1121,0,0
-511,-97,0,0,0,0,0,0,0,0,0,-1,713,1121,0,0
-504,-97,0,0,0,0,0,0,0,0,0,-1,720,1121,0,0
-497,-97,0,0,0,0,0,0,0,0,0,-1,727,1121,0,0
-490,-97,0,0,0,0,0,0,0,0,0,-1,734,1121,0,0
-483,-97,0,0,0,0,0,0,0,0,0,-1,741,1121,0,0
-476,-97,0,0,0,0,0,0,0,0,0,-1,748,1121,0,0
-469,-97,0,0,0,0,0,0,0,0,0,-1,755,1121,0,0
-462,-97,0,0,0,0,0,0,0,0,0,-1,762,1121,0,0
-455,-97,0,0,0,0,0,0,0,0,0,-1,769,1121,0,0
-448,-97,0,0,0,0,0,0,0,0,0,-1,776,1121,0,0
-441,-97,0,0,0,0,0,0,0,0,0,-1,783,1121,0,0
-434,-97,0,0,0,0,0,0,0,0,0,-1,790,1121,0,0
-427,-97,0,0,0,0,0,0,0,0,0,-1,797,1121,0,0
-420,-97,0,0,0,0,0,0,0,0,0,-1,804,1121,0,0
-413,-97,0,0,0,0,0,0,0,0,0,-1,811,1121,0,0
-406,-97,0,0,0,0,0,0,0,0,0,-1,818,1121,0,0
-399,-97,0,0,0,0,0,0,0,0,0,-1,825,1121,0,0
-392,-97,0,0,0,0,0,0,0,0,0,-1,832,1121,0,0
-385,-97,0,0,0,0,0,0,0,0,0,-1,839,1121,0,0
-378,-97,0,0,0,0,0,0,0,0,0,-1,846,1121,0,0
-371,-97,0,0,0,0,0,0,0,0,0,-1,853,1121,0,0
-364,-97,0,0,0,0,0,0,0,0,0,-1,860,1121,0,0
-357,-97,0,0,0,0,0,0,0,0,0,-1,867,1121,0,0
-350,-97,0,0,0,0,0,0,0,0,0,-1,874,1121,0,0
-343,-97,0,0,0,0,0,0,0,0,0,-1,881,1121,0,0
-336,-97,0,0,0,0,0,0,0,0,0,-1,888,1121,0,0
-329,-97,0,0,0,0,0,0,0,0,0,-1,895,1121,0,0
-322,-97,0,0,0,0,0,0,0,0,0,-1,902,1121,0,0
-315,-97,0,0,0,0,0,0,0,0,0,-1,909,1121,0,0
-308,-97,0,0,0,0,0,0,0,0,0,-1,916,1121,0,0
-301,-97,0,0,0,0,0,0,0,0,0,-1,923,1121,0,0
-294,-97,0,0,0,0,0,0,0,0,0,-1,930,1121,0,0
-287,-97,0,0,0,0,0,0,0,0,0,-1,937,1121,0,0
-280,-97,0,0,0,0,0,0,0,0,0,-1,944,1121,0,0
-273,-97,0,0,0,0,0,0,0,0,0,-1,951,1121,0,0
-266,-97,0,0,0,0,0,0,0,0,0,-1,958,1121,0,0
-259,-97,0,0,0,0,0,0,0,0,0,-1,965,1121,0,0
-252,-97,0,0,0,0,0,0,0,0,0,-1,972,1121,0,0
-245,-97,0,0,0,0,0,0,0,0,0,-1,979,1121,0,0
-238,-97,0,0,0,0,0,0,0,0,0,-1,986,1121,0,0
-231,-97,0,0,0,0,0,0,0,0,0,-1,993,1121,0,0
-224,-97,0,0,0,0,0,0,0,0,0,-1,1000,1121,0,0
-217,-97,0,0,0,0,0,0,0,0,0,-1,1007,1121,0,0
-210,-97,0,0,0,0,0,0,0,0,0,-1,1014,1121,0,0
-203,-97,0,0,0,0,0,0,0,0,0,-1,1021,1121,0,0
-196,-97,0,0,0,0,0,0,0,0,0,-1,1028,1121,0,0
-189,-97,0,0,0,0,0,0,0,0,0,-1,1035,1121,0,0
-182,-97,0,0,0,0,0,0,0,0,0,-1,1042,1121,0,0
-175,-97,0,0,0,0,0,0,0,0,0,-1,1049,1121,0,0
-168,-97,0,0,0,0,0,0,0,0,0,-1,1056,1121,0,0
-161,-97,0,0,0,0,0,0,0,0,0,-1,1063,1121,0,0
-154,-97,0,0,0,0,0,0,0,0,0,-1,1070,1121,0,0
-147,-97,0,0,0,0,0,0,0,0,0,-1,1077,1121,0,0
-140,-97,0,0,0,0,0,0,0,0,0,-1,1084,1121,0,0
-133,-97,0,0,0,0,0,0,0,0,0,-1,1091,1121,0,0
-126,-97,0,0,0,0,0,0,0,0,0,-1,1098,1121,0,0
-119,-97,0,0,0,0,0,0,0,0,0,-1,1105,1121,0,0
-112,-97,0,0,0,0,0,0,0,0,0,-1,1112,1121,0,0
-105,-97,0,0,0,0,0,0,0,0,0,-1,1119,1121,0,0
-98,-97,0,0,0,0,0,0,0,0,0,-1,1126,1121,0,0
-91,-97,0,0,0,0,0,0,0,0,0,-1,1133,1121,0,0
-84,-97,0,0,0,0,0,0,0,0,0,-1,1140,1121,0,0
-77,-97,0,0,0,0,0,0,0,0,0,-1,1147,1121,0,0
-70,-97,0,0,0,0,0,0,0,0,0,-1,1154,1121,0,0
-63,-97,0,0,0,0,0,0,0,0,0,-1,1161,1121,0,0
-56,-97,0,0,0,0,0,0,0,0,0,-1,1168,1121,0,0
-49,-97,0,0,0,0,0,0,0,0,0,-1,1175,1121,0,0
-42,-97,0,0,0,0,0,0,0,0,0,-1,1182,1121,0,0
-35,-97,0,0,0,0,0,0,0,0,0,-1,1189,1121,0,0
-28,-97,0,0,0,0,0,0,0,0,0,-1,1196,1121,0,0
-21,-97,0,0,0,0,0,0,0,0,0,-1,1203,1121,0,0
-14,-97,0,0,0,0,0,0,0,0,0,-1,1210,1121,0,0
-7,-97,0,0,0,0,0,0,0,0,0,-1,1217,1121,0,0
0,-97,0,0,0,0,0,0,0,0,0,-1,1224,1121,0,0
7,-97,0,0,0,0,0,0,0,0,0,-1,1231,1121,0,0
14,-97,0,0,0,0,0,0,0,0,0,-1,1238,1121,0,0
21,-97,0,0,0,0,0,0,0,0,0,-1,1245,1121,0,0
28,-97,0,0,0,0,0,0,0,0,0,-1,1252,1121,0,0
35,-97,0,0,0,0,0,0,0,0,0,-1,1259,1121,0,0
42,-97,0,0,0,0,0,0,0,0,0,-1,1266,1121,0,0
49,-97,0,0,0,0,0,0,0,0,0,-1,1273,1121,0,0
56,-97,0,0,0,0,0,0,0,0,0,-1,1280,1121,0,0
63,-97,0,0,0,0,0,0,0,0,0,-1,1287,1121,0,0
70,-97,0,0,0,0,0,0,0,0,0,-1,1294,1121,0,0
77,-97,0,0,0,0,0,0,0,0,0,-1,1301,1121,0,0
84,-97,0,0,0,0,0,0,0,0,0,-1,1308,1121,0,0
91,-97,0,0,0,0,0,0,0,0,0,-1,1315,1121,0,0
98,-97,0,0,0,0,0,0,0,0,0,-1,1322,1121,0,0
105,-97,0,0,0,0,0,0,0,0,0,-1,1329,1121,0,0
112,-97,0,0,0,0,0,0,0,0,0,-1,1336,1121,0,0
119,-97,0,0,0,0,0,0,0,0,0,-1,1343,1121,0,0
126,-97,0,0,0,0,0,0,0,0,0,-1,1350,1121,0,0
133,-97,0,0,0,0,0,0,0,0,0,-1,1357,1121,0,0
140,-97,0,0,0,0,0,0,0,0,0,-1,1364,1121,0,0
147,-97,0,0,0,0,0,0,0,0,0,-1,1371,1121,0,0
154,-97,0,0,0,0,0,0,0,0,0,-1,1378,1121,0,0
161,-97,0,0,0,0,0,0,0,0,0,-1,1385,1121,0,0
168,-97,0,0,0,0,0,0,0,0,0,-1,1392,1121,0,0
175,-97,0,0,0,0,0,0,0,0,0,-1,1399,1121,0,0
182,-97,0,0,0,0,0,0,0,0,0,-1,1406,1121,0,0
189,-97,0,0,0,0,0,0,0,0,0,-1,1413,1121,0,0
196,-97,0,0,0,0,0,0,0,0,0,-1,1420,1121,0,0
203,-97,0,0,0,0,0,0,0,0,0,-1,1427,1121,0,0
210,-97,0,0,0,0,0,0,0,0,0,-1,1434,1121,0,0
217,-97,0,0,0,0,0,0,0,0,0,-1,1441,1121,0,0
224,-97,0,0,0,0,0,0,0,0,0,-1,1448,1121,0,0
231,-97,0,0,0,0,0,0,0,0,0,-1,1455,1121,0,0
238,-97,0,0,0,0,0,0,0,0,0,-1,1462,1121,0,0
245,-97,0,0,0,0,0,0,0,0,0,-1,1469,1121,0,0
252,-97,0,0,0,0,0,0,0,0,0,-1,1476,1121,0,0
259,-97,0,0,0,0,0,0,0,0,0,-1,1483,1121,0,0
266,-97,0,0,0,0,0,0,0,0,0,-1,1490,1121,0,0
273,-97,0,0,0,0,0,0,0,0,0,-1,1497,1121,0,0
280,-97,0,0,0,0,0,0,0,0,0,-1,1504,1121,0,0
287,-97,0,0,0,0,0,0,0,0,0,-1,1511,1121,0,0
294,-97,0,0,0,0,0,0,0,0,0,-1,1518,1121,0,0
301,-97,0,0,0,0,0,0,0,0,0,-1,1525,1121,0,0
308,-97,0,0,0,0,0,0,0,0,0,-1,1532,1121,0,0
315,-97,0,0,0,0,0,0,0,0,0,-1,1539,1121,0,0
322,-97,0,0,0,0,0,0,0,0,0,-1,1546,1121,0,0
329,-97,0,0,0,0,0,0,0,0,0,-1,1553,1121,0,0
336,-97,0,0,0,0,0,0,0,0,0,-1,1560,1121,0,0
343,-97,0,0,0,0,0,0,0,0,0,-1,1567,1121,0,0
350,-97,0,0,0,0,0,0,0,0,0,-1,1574,1121,0,0
357,-97,0,0,0,0,0,0,0,0,0,-1,1581,1121,0,0
364,-97,0,0,0,0,0,0,0,0,0,-1,1588,1121,0,0
371,-97,0,0,0,0,0,0,0,0,0,-1,1595,1121,0,0
378,-97,0,0,0,0,0,0,0,0,0,-1,1602,1121,0,0
385,-97,0,0,0,0,0,0,0,0,0,-1,1609,1121,0,0
392,-97,0,0,0,0,0,0,0,0,0,-1,1616,1121,0,0
399,-97,0,0,0,0,0,0,0,0,0,-1,1623,1121,0,0
406,-97,0,0,0,0,0,0,0,0,0,-1,1630,1121,0,0
413,-97,0,0,0,0,0,0,0,0,0,-1,1637,1121,0,0
420,-97,0,0,0,0,0,0,0,0,0,-1,1644,1121,0,0
427,-97,0,0,0,0,0,0,0,0,0,-1,1651,1121,0,0
434,-97,0,0,0,0,0,0,0,0,0,-1,1658,1121,0,0
441,-97,0,0,0,0,0,0,0,0,0,-1,1665,1121,0,0
448,-97,0,0,0,0,0,0,0,0,0,-1,1672,1121,0,0
455,-97,0,0,0,0,0,0,0,0,0,-1,1679,1121,0,0
462,-97,0,0,0,0,0,0,0,0,0,-1,1686,1121,0,0
469,-97,0,0,0,0,0,0,0,0,0,-1,1693,1121,0,0
476,-97,0,0,0,0,0,0,0,0,0,-1,1700,1121,0,0
483,-97,0,0,0,0,0,0,0,0,0,-1,1707,1121,0,0
490,-97,0,0,0,0,0,0,0,0,0,-1,1714,1121,0,0
497,-97,0,0,0,0,0,0,0,0,0,-1,1721,1121,0,0
504,-97,0,0,0,0,0,0,0,0,0,-1,1728,1121,0,0
511,-97,0,0,0,0,0,0,0,0,0,-1,1735,1121,0,0
518,-97,0,0,0,0,0,0,0,0,0,-1,1742,1121,0,0
525,-97,0,0,0,0,0,0,0,0,0,-1,1749,1121,0,0
532,-97,0,0,0,0,0,0,0,0,0,-1,1756,1121,0,0
539,-97,0,0,0,0,0,0,0,0,0,-1,1763,1121,0,0
546,-97,0,0,0,0,0,0,0,0,0,-1,1770,1121,0,0
553,-97,0,0,0,0,0,0,0,0,0,-1,1777,1121,0,0
560,-97,0,0,0,0,0,0,0,0,0,-1,1784,1121,0,0
567,-97,0,0,0,0,0,0,0,0,0,-1,1791,1121,0,0
574,-97,0,0,0,0,0,0,0,0,0,-1,1798,1121,0,0
581,-97,0,0,0,0,0,0,0,0,0,-1,1805,1121,0,0
588,-97,0,0,0,0,0,0,0,0,0,-1,1812,1121,0,0
595,-97,0,0,0,0,0,0,0,0,0,-1,1819,1121,0,0
602,-97,0,0,0,0,0,0,0,0,0,-1,1826,1121,0,0
609,-97,0,0,0,0,0,0,0,0,0,-1,1833,1121,0,0
616,-97,0,0,0,0,0,0,0,0,0,-1,1840,1121,0,0
623,-97,0,0,0,0,0,0,0,0,0,-1,1847,1121,0,0
630,-97,0,0,0,0,0,0,0,0,0,-1,1854,1121,0,0
637,-97,0,0,0,0,0,0,0,0,0,-1,1861,1121,0,0
644,-97,48.9376,2.68604,0.00114958,-0.000845673,-0.00532549,0.00557008,-0.00526618,-0.692806,0.00625713,0.035987,1868,1121,48.9376,-2.68605
651,-97,48.9363,2.75989,0.000535759,-0.00106863,-0.00387759,0.00369327,-0.00422614,-0.683398,0.00457572,0.038588,1875,1121,48.9363,-2.75991
658,-97,48.9479,2.49622,0.000668135,-0.00128885,-0.00277436,0.0026315,-0.00325222,-0.615864,0.00340326,0.0390382,1882,1121,48.9478,-2.4962
665,-97,48.9445,2.24414,0.000917598,-0.00143463,-0.00193599,0.00200672,-0.00252375,-0.512439,0.00262134,0.0407383,1889,1121,48.9445,-2.24419
672,-97,48.9353,2.38684,0.00127117,-0.00148177,-0.00129774,0.00178647,-0.00199708,-0.377983,0.00218556,0.0422814,1896,1121,48.9353,-2.38681
679,-97,48.9344,2.67126,0.00129571,-0.00154058,-0.000788865,0.00150036,-0.00174522,-0.25382,0.00187561,0.0401887,1903,1121,48.9345,-2.67127
686,-97,48.9197,2.69788,0.00124501,-0.00161062,-0.000438928,0.00131095,-0.00167656,-0.149122,0.00172914,0.0383775,1910,1121,48.9197,-2.69792
693,-97,48.9064,2.47913,0.00121054,-0.00160603,-0.00020722,0.0012257,-0.00162119,-0.0730476,0.00164893,0.0349577,1917,1121,48.9064,-2.47916
700,-97,48.9521,2.52917,0.00105284,-0.00153556,8.33695e-05,0.00105552,-0.00153824,0.0321645,0.00150613,0.0265521,1924,1121,48.9521,-2.52923
707,-97,48.942,2.51123,0.000843276,-0.00141001,0.000406239,0.000914278,-0.00148102,0.173032,0.00139577,0.0221623,1931,1121,48.942,-2.51128
714,-97,48.9303,2.39514,0,0,0,0,0,0,0,-1,1938,1121,48.9302,-2.39513
721,-97,45.7959,7.07043,0,0,0,0,0,0,0,-1,1945,1121,45.7959,-7.0704
728,-97,45.7441,6.8667,-0.000126026,-0.000513042,0.00100499,0.000703921,-0.00134299,0.690289,0.00120083,0.0258359,1952,1121,45.7441,-6.86664
735,-97,45.7039,6.47632,-0.000204431,0.000136574,0.00115547,0.00113406,-0.00120192,0.85865,0.00134886,0.0258046,1959,1121,45.7039,-6.47628
742,-97,45.7008,6.11682,0.000263449,0.000699008,0.00119932,0.00170016,-0.000737705,0.875212,0.0014436,0.0213551,1966,1121,45.7008,-6.11682
749,-97,45.7794,5.75769,0.00123102,0.00137846,0.000782122,0.00209033,0.000519153,0.832388,0.00125677,0.0233114,1973,1121,45.7794,-5.75773
756,-97,45.7828,5.44299,0.00305223,0.00220048,0.00020178,0.00309761,0.0021551,0.221236,0.00183351,0.0170862,1980,1121,45.7828,-5.44296
763,-97,45.7106,5.16406,0.0065371,0.00327806,-0.00107421,0.00685931,0.00295584,-0.291414,0.0039728,0.0122008,1987,1121,45.7106,-5.16411
770,-97,45.6683,4.87878,0.0116405,0.00441221,-0.00304141,0.01275,0.00330278,-0.349777,0.00764082,0.0111376,1994,1121,45.6684,-4.87884
777,-97,45.623,4.56628,0.0182814,0.00544759,-0.00562039,0.0203947,0.00333423,-0.359662,0.0126326,0.016001,2001,1121,45.623,-4.56629
784,-97,45.5588,4.19958,0.0269285,0.00617438,-0.00899952,0.0302873,0.00281554,-0.357213,0.0193215,0.0369022,2008,1121,45.5589,-4.19954
791,-97,45.5286,3.83374,0,0,0,0,0,0,0,-1,2015,1121,45.5285,-3.83378
798,-97,45.2686,3.06274,0,0,0,0,0,0,0,-1,2022,1121,45.2686,-3.06278
805,-97,45.4021,2.55383,0,0,0,0,0,0,0,-1,2029,1121,45.4021,-2.5538
812,-97,45.478,2.03821,0,0,0,0,0,0,0,-1,2036,1121,45.478,-2.03824
-700,-104,0,0,0,0,0,0,0,0,0,-1,524,1128,0,0
-693,-104,-33.7771,-3.68738,0.0935449,0.155804,0.032934,0.169993,0.0793567,1.16402,0.0982173,0.0484022,531,1128,-33.7771,3.68741
-686,-104,-33.3397,-3.39063,0.0766818,0.134664,0.0276949,0.145767,0.0655794,1.18953,0.0842992,0.0466342,538,1128,-33.3397,3.39066
-679,-104,-32.9184,-3.00403,0.060864,0.113403,0.022384,0.121647,0.0526208,1.21794,0.0704452,0.0474236,545,1128,-32.9184,3.00407
-672,-104,-32.4075,-2.60388,0,0,0,0,0,0,0,-1,552,1128,-32.4075,2.60392
-665,-104,-34.1319,-1.23657,0,0,0,0,0,0,0,-1,559,1128,-34.1319,1.23659
-658,-104,-32.7966,0.893433,0,0,0,0,0,0,0,-1,566,1128,-32.7967,-0.893468
-651,-104,-32.778,1.23462,0.0147194,0.0427807,0.00574729,0.0439122,0.0135879,1.37641,0.0259592,0.0392827,573,1128,-32.778,-1.23464
-644,-104,-32.7711,1.62842,0.008332,0.0302404,0.00330795,0.030729,0.00784343,1.42416,0.0184363,0.0151827,580,1128,-32.7711,-1.62843
-637,-104,-32.7845,2.02625,0.00295187,0.0192791,0.00106,0.0193477,0.00288333,1.50624,0.0120529,0.0111281,587,1128,-32.7845,-2.02626
-630,-104,-32.7936,2.3573,-0.000522048,0.0094077,-0.000210252,0.00941215,-0.000526498,-1.54963,0.00645742,0.0148094,594,1128,-32.7937,-2.35731
-623,-104,-32.8143,2.77258,-0.00129896,0.00326208,-0.000818227,0.00340443,-0.0014413,-1.39855,0.00287319,0.0168819,601,1128,-32.8143,-2.7726
-616,-104,-33.045,3.23071,-0.000187375,0.000890249,-0.000717807,0.00124897,-0.000546096,-1.10735,0.00106253,0.0232039,608,1128,-33.0451,-3.23073
-609,-104,-33.1952,3.49023,0.000925081,0.000191545,-0.000473457,0.00115721,-4.05868e-05,-0.45585,0.000785354,0.0302304,615,1128,-33.1952,-3.49028
-602,-104,-33.0023,3.90881,0.00145173,-9.90151e-05,-0.000271278,0.00149781,-0.000145101,-0.168279,0.00105025,0.0258072,622,1128,-33.0023,-3.90884
-595,-104,-32.7932,4.36877,0.00180611,-2.77147e-06,-0.000294845,0.00185296,-4.96174e-05,-0.157566,0.00125217,0.01778,629,1128,-32.7932,-4.36881
-588,-104,-32.7174,4.86951,0,0,0,0,0,0,0,-1,636,1128,-32.7174,-4.86954
-581,-104,-23.9373,2.85864,0,0,0,0,0,0,0,-1,643,1128,-23.9373,-2.85861
-574,-104,-36.3461,0.745117,0,0,0,0,0,0,0,-1,650,1128,-36.3461,-0.745068
-567,-104,-36.3068,0.681396,0.00250075,0.000176965,-0.00040886,0.00257058,0.000107127,-0.16918,0.00167915,0.0382058,657,1128,-36.3068,-0.681403
-560,-104,-36.3531,0.793823,0.00252793,0.000428122,-0.000456303,0.0026228,0.000333251,-0.204992,0.00164872,0.0418803,664,1128,-36.3531,-0.793839
-553,-104,-36.3605,0.849731,0.00186622,0.000643542,-0.000785752,0.00225044,0.000259319,-0.454798,0.00142176,0.0465522,671,1128,-36.3605,-0.849685
-546,-104,-36.3027,0.881836,0.000889328,0.000657682,-0.00136433,0.00214274,-0.000595734,-0.743053,0.00166303,0.0476437,678,1128,-36.3027,-0.88178
-539,-104,-36.3654,0.978027,0.000630624,-9.78926e-05,-0.00216252,0.00245935,-0.00192662,-0.701961,0.00253846,0.0428783,685,1128,-36.3653,-0.977991
-532,-104,-36.4321,0.604492,0.000669013,-0.00117625,-0.00304492,0.00292801,-0.00343525,-0.638291,0.00367772,0.0437745,692,1128,-36.4321,-0.604499
-525,-104,-36.4669,0.74353,0.000783719,-0.00243128,-0.00396988,0.00345921,-0.00510677,-0.593026,0.00497597,0.0412595,699,1128,-36.4669,-0.743573
-518,-104,0,0,0,0,0,0,0,0,0,-1,706,1128,0,0
-511,-104,0,0,0,0,0,0,0,0,0,-1,713,1128,0,0
-504,-104,0,0,0,0,0,0,0,0,0,-1,720,1128,0,0
-497,-104,0,0,0,0,0,0,0,0,0,-1,727,1128,0,0
-490,-104,0,0,0,0,0,0,0,0,0,-1,734,1128,0,0
-483,-104,0,0,0,0,0,0,0,0,0,-1,741,1128,0,0
-476,-104,0,0,0,0,0,0,0,0,0,-1,748,1128,0,0
-469,-104,0,0,0,0,0,0,0,0,0,-1,755,1128,0,0
-462,-104,0,0,0,0,0,0,0,0,0,-1,762,1128,0,0
-455,-104,0,0,0,0,0,0,0,0,0,-1,769,1128,0,0
-448,-104,0,0,0,0,0,0,0,0,0,-1,776,1128,0,0
-441,-104,0,0,0,0,0,0,0,0,0,-1,783,1128,0,0
-434,-104,0,0,0,0,0,0,0,0,0,-1,790,1128,0,0
-427,-104,0,0,0,0,0,0,0,0,0,-1,797,1128,0,0
-420,-104,0,0,0,0,0,0,0,0,0,-1,804,1128,0,0
-413,-104,0,0,0,0,0,0,0,0,0,-1,811,1128,0,0
-406,-104,0,0,0,0,0,0,0,0,0,-1,818,1128,0,0
-399,-104,0,0,0,0,0,0,0,0,0,-1,825,1128,0,0
-392,-104,0,0,0,0,0,0,0,0,0,-1,832,1128,0,0
-385,-104,0,0,0,0,0,0,0,0,0,-1,839,1128,0,0
-378,-104,0,0,0,0,0,0,0,0,0,-1,846,1128,0,0
-371,-104,0,0,0,0,0,0,0,0,0,-1,853,1128,0,0
-364,-104,0,0,0,0,0,0,0,0,0,-1,860,1128,0,0
-357,-104,0,0,0,0,0,0,0,0,0,-1,867,1128,0,0
-350,-104,0,0,0,0,0,0,0,0,0,-1,874,1128,0,0
-343,-104,0,0,0,0,0,0,0,0,0,-1,881,1128,0,0
-336,-104,0,0,0,0,0,0,0,0,0,-1,888,1128,0,0
-329,-104,0,0,0,0,0,0,0,0,0,-1,895,1128,0,0
-322,-104,0,0,0,0,0,0,0,0,0,-1,902,1128,0,0
-315,-104,0,0,0,0,0,0,0,0,0,-1,909,1128,0,0
-308,-104,0,0,0,0,0,0,0,0,0,-1,916,1128,0,0
-301,-104,0,0,0,0,0,0,0,0,0,-1,923,1128,0,0
-294,-104,0,0,0,0,0,0,0,0,0,-1,930,1128,0,0
-287,-104,0,0,0,0,0,0,0,0,0,-1,937,1128,0,0
-280,-104,0,0,0,0,0,0,0,0,0,-1,944,1128,0,0
-273,-104,0,0,0,0,0,0,0,0,0,-1,951,1128,0,0
-266,-104,0,0,0,0,0,0,0,0,0,-1,958,1128,0,0
-259,-104,0,0,0,0,0,0,0,0,0,-1,965,1128,0,0
-252,-104,0,0,0,0,0,0,0,0,0,-1,972,1128,0,0
-245,-104,0,0,0,0,0,0,0,0,0,-1,979,1128,0,0
-238,-104,0,0,0,0,0,0,0,0,0,-1,986,1128,0,0
-231,-104,0,0,0,0,0,0,0,0,0,-1,993,1128,0,0
-224,-104,0,0,0,0,0,0,0,0,0,-1,1000,1128,0,0
-217,-104,0,0,0,0,0,0,0,0,0,-1,1007,1128,0,0
-210,-104,0,0,0,0,0,0,0,0,0,-1,1014,1128,0,0
-203,-104,0,0,0,0,0,0,0,0,0,-1,1021,1128,0,0
-196,-104,0,0,0,0,0,0,0,0,0,-1,1028,1128,0,0
-189,-104,0,0,0,0,0,0,0,0,0,-1,1035,1128,0,0
-182,-104,0,0,0,0,0,0,0,0,0,-1,1042,1128,0,0
-175,-104,0,0,0,0,0,0,0,0,0,-1,1049,1128,0,0
-168,-104,0,0,0,0,0,0,0,0,0,-1,1056,1128,0,0
-161,-104,0,0,0,0,0,0,0,0,0,-1,1063,1128,0,0
-154,-104,0,0,0,0,0,0,0,0,0,-1,1070,1128,0,0
-147,-104,0,0,0,0,0,0,0,0,0,-1,1077,1128,0,0
-140,-104,0,0,0,0,0,0,0,0,0,-1,1084,1128,0,0
-133,-104,0,0,0,0,0,0,0,0,0,-1,1091,1128,0,0
-126,-104,0,0,0,0,0,0,0,0,0,-1,1098,1128,0,0
-119,-104,0,0,0,0,0,0,0,0,0,-1,1105,1128,0,0
-112,-104,0,0,0,0,0,0,0,0,0,-1,1112,1128,0,0
-105,-104,0,0,0,0,0,0,0,0,0,-1,1119,1128,0,0
-98,-104,0,0,0,0,0,0,0,0,0,-1,1126,1128,0,0
-91,-104,0,0,0,0,0,0,0,0,0,-1,1133,1128,0,0
-84,-104,0,0,0,0,0,0,0,0,0,-1,1140,1128,0,0
-77,-104,0,0,0,0,0,0,0,0,0,-1,1147,1128,0,0
-70,-104,0,0,0,0,0,0,0,0,0,-1,1154,1128,0,0
-63,-104,0,0,0,0,0,0,0,0,0,-1,1161,1128,0,0
-56,-104,0,0,0,0,0,0,0,0,0,-1,1168,1128,0,0
-49,-104,0,0,0,0,0,0,0,0,0,-1,1175,1128,0,0
-42,-104,0,0,0,0,0,0,0,0,0,-1,1182,1128,0,0
-35,-104,0,0,0,0,0,0,0,0,0,-1,1189,1128,0,0
-28,-104,0,0,0,0,0,0,0,0,0,-1,1196,1128,0,0
-21,-104,0,0,0,0,0,0,0,0,0,-1,1203,1128,0,0
-14,-104,0,0,0,0,0,0,0,0,0,-1,1210,1128,0,0
-7,-104,0,0,0,0,0,0,0,0,0,-1,1217,1128,0,0
0,-104,0,0,0,0,0,0,0,0,0,-1,1224,1128,0,0
7,-104,0,0,0,0,0,0,0,0,0,-1,1231,1128,0,0
14,-104,0,0,0,0,0,0,0,0,0,-1,1238,1128,0,0
21,-104,0,0,0,0,0,0,0,0,0,-1,1245,1128,0,0
28,-104,0,0,0,0,0,0,0,0,0,-1,1252,1128,0,0
35,-104,0,0,0,0,0,0,0,0,0,-1,1259,1128,0,0
42,-104,0,0,0,0,0,0,0,0,0,-1,1266,1128,0,0
49,-104,0,0,0,0,0,0,0,0,0,-1,1273,1128,0,0
56,-104,0,0,0,0,0,0,0,0,0,-1,1280,1128,0,0
63,-104,0,0,0,0,0,0,0,0,0,-1,1287,1128,0,0
70,-104,0,0,0,0,0,0,0,0,0,-1,1294,1128,0,0
77,-104,0,0,0,0,0,0,0,0,0,-1,1301,1128,0,0
84,-104,0,0,0,0,0,0,0,0,0,-1,1308,1128,0,0
91,-104,0,0,0,0,0,0,0,0,0,-1,1315,1128,0,0
98,-104,0,0,0,0,0,0,0,0,0,-1,1322,1128,0,0
105,-104,0,0,0,0,0,0,0,0,0,-1,1329,1128,0,0
112,-104,0,0,0,0,0,0,0,0,0,-1,1336,1128,0,0
119,-104,0,0,0,0,0,0,0,0,0,-1,1343,1128,0,0
126,-104,0,0,0,0,0,0,0,0,0,-1,1350,1128,0,0
133,-104,0,0,0,0,0,0,0,0,0,-1,1357,1128,0,0
140,-104,0,0,0,0,0,0,0,0,0,-1,1364,1128,0,0
147,-104,0,0,0,0,0,0,0,0,0,-1,1371,1128,0,0
154,-104,0,0,0,0,0,0,0,0,0,-1,1378,1128,0,0
161,-104,0,0,0,0,0,0,0,0,0,-1,1385,1128,0,0
168,-104,0,0,0,0,0,0,0,0,0,-1,1392,1128,0,0
175,-104,0,0,0,0,0,0,0,0,0,-1,1399,1128,0,0
182,-104,0,0,0,0,0,0,0,0,0,-1,1406,1128,0,0
189,-104,0,0,0,0,0,0,0,0,0,-1,1413,1128,0,0
196,-104,0,0,0,0,0,0,0,0,0,-1,1420,1128,0,0
203,-104,0,0,0,0,0,0,0,0,0,-1,1427,1128,0,0
210,-104,0,0,0,0,0,0,0,0,0,-1,1434,1128,0,0
217,-104,0,0,0,0,0,0,0,0,0,-1,1441,1128,0,0
224,-104,0,0,0,0,0,0,0,0,0,-1,1448,1128,0,0
231,-104,0,0,0,0,0,0,0,0,0,-1,1455,1128,0,0
238,-104,0,0,0,0,0,0,0,0,0,-1,1462,1128,0,0
245,-104,0,0,0,0,0,0,0,0,0,-1,1469,1128,0,0
252,-104,0,0,0,0,0,0,0,0,0,-1,1476,1128,0,0
259,-104,0,0,0,0,0,0,0,0,0,-1,1483,1128,0,0
266,-104,0,0,0,0,0,0,0,0,0,-1,1490,1128,0,0
273,-104,0,0,0,0,0,0,0,0,0,-1,1497,1128,0,0
280,-104,0,0,0,0,0,0,0,0,0,-1,1504,1128,0,0
287,-104,0,0,0,0,0,0,0,0,0,-1,1511,1128,0,0
294,-104,0,0,0,0,0,0,0,0,0,-1,1518,1128,0,0
301,-104,0,0,0,0,0,0,0,0,0,-1,1525,1128,0,0
308,-104,0,0,0,0,0,0,0,0,0,-1,1532,1128,0,0
315,-104,0,0,0,0,0,0,0,0,0,-1,1539,1128,0,0
322,-104,0,0,0,0,0,0,0,0,0,-1,1546,1128,0,0
329,-104,0,0,0,0,0,0,0,0,0,-1,1553,1128,0,0
336,-104,0,0,0,0,0,0,0,0,0,-1,1560,1128,0,0
343,-104,0,0,0,0,0,0,0,0,0,-1,1567,1128,0,0
350,-104,0,0,0,0,0,0,0,0,0,-1,1574,1128,0,0
357,-104,0,0,0,0,0,0,0,0,0,-1,1581,1128,0,0
364,-104,0,0,0,0,0,0,0,0,0,-1,1588,1128,0,0
371,-104,0,0,0,0,0,0,0,0,0,-1,1595,1128,0,0
378,-104,0,0,0,0,0,0,0,0,0,-1,1602,1128,0,0
385,-104,0,0,0,0,0,0,0,0,0,-1,1609,1128,0,0
392,-104,0,0,0,0,0,0,0,0,0,-1,1616,1128,0,0
399,-104,0,0,0,0,0,0,0,0,0,-1,1623,1128,0,0
406,-104,0,0,0,0,0,0,0,0,0,-1,1630,1128,0,0
413,-104,0,0,0,0,0,0,0,0,0,-1,1637,1128,0,0
420,-104,0,0,0,0,0,0,0,0,0,-1,1644,1128,0,0
427,-104,0,0,0,0,0,0,0,0,0,-1,1651,1128,0,0
434,-104,0,0,0,0,0,0,0,0,0,-1,1658,1128,0,0
441,-104,0,0,0,0,0,0,0,0,0,-1,1665,1128,0,0
448,-104,0,0,0,0,0,0,0,0,0,-1,1672,1128,0,0
455,-104,0,0,0,0,0,0,0,0,0,-1,1679,1128,0,0
462,-104,0,0,0,0,0,0,0,0,0,-1,1686,1128,0,0
469,-104,0,0,0,0,0,0,0,0,0,-1,1693,1128,0,0
476,-104,0,0,0,0,0,0,0,0,0,-1,1700,1128,0,0
483,-104,0,0,0,0,0,0,0,0,0,-1,1707,1128,0,0
490,-104,0,0,0,0,0,0,0,0,0,-1,1714,1128,0,0
497,-104,0,0,0,0,0,0,0,0,0,-1,1721,1128,0,0
504,-104,0,0,0,0,0,0,0,0,0,-1,1728,1128,0,0
511,-104,0,0,0,0,0,0,0,0,0,-1,1735,1128,0,0
518,-104,0,0,0,0,0,0,0,0,0,-1,1742,1128,0,0
525,-104,0,0,0,0,0,0,0,0,0,-1,1749,1128,0,0
532,-104,0,0,0,0,0,0,0,0,0,-1,1756,1128,0,0
539,-104,0,0,0,0,0,0,0,0,0,-1,1763,1128,0,0
546,-104,0,0,0,0,0,0,0,0,0,-1,1770,1128,0,0
553,-104,0,0,0,0,0,0,0,0,0,-1,1777,1128,0,0
560,-104,0,0,0,0,0,0,0,0,0,-1,1784,1128,0,0
567,-104,0,0,0,0,0,0,0,0,0,-1,1791,1128,0,0
574,-104,0,0,0,0,0,0,0,0,0,-1,1798,1128,0,0
581,-104,0,0,0,0,0,0,0,0,0,-1,1805,1128,0,0
588,-104,0,0,0,0,0,0,0,0,0,-1,1812,1128,0,0
595,-104,0,0,0,0,0,0,0,0,0,-1,1819,1128,0,0
602,-104,0,0,0,0,0,0,0,0,0,-1,1826,1128,0,0
609,-104,0,0,0,0,0,0,0,0,0,-1,1833,1128,0,0
616,-104,0,0,0,0,0,0,0,0,0,-1,1840,1128,0,0
623,-104,0,0,0,0,0,0,0,0,0,-1,1847,1128,0,0
630,-104,0,0,0,0,0,0,0,0,0,-1,1854,1128,0,0
637,-104,0,0,0,0,0,0,0,0,0,-1,1861,1128,0,0
644,-104,48.9364,2.7262,0.00107822,-0.000598476,-0.00517671,0.00548403,-0.00500429,-0.705122,0.00605755,0.0368411,1868,1128,48.9364,-2.7262
651,-104,49.0574,2.76245,0.000502217,-0.000922168,-0.00381774,0.00367363,-0.00409358,-0.693184,0.00448658,0.0385256,1875,1128,49.0573,-2.76245
658,-104,49.0226,2.50427,0.000657144,-0.00120102,-0.00278976,0.00266846,-0.00321233,-0.624658,0.00340011,0.0400325,1882,1128,49.0226,-2.50424
665,-104,49.0531,2.422,0.000932115,-0.00138005,-0.00199903,0.00208529,-0.00253322,-0.523235,0.00267068,0.0407359,1889,1128,49.0531,-2.42203
672,-104,49.0375,2.54736,0.00130189,-0.00144927,-0.00141646,0.0019008,-0.00204817,-0.40002,0.00228047,0.0405494,1896,1128,49.0374,-2.54732
679,-104,48.9293,2.52747,0,0,0,0,0,0,0,-1,1903,1128,48.9293,-2.52745
686,-104,48.9108,2.70374,0.00133112,-0.00158988,-0.00063498,0.00146319,-0.00172194,-0.205058,0.00184096,0.0405559,1910,1128,48.9108,-2.70368
693,-104,48.8988,2.51282,0.00131793,-0.00156507,-0.000421225,0.00137821,-0.00162535,-0.142149,0.00173606,0.0384092,1917,1128,48.8989,-2.51287
700,-104,48.9757,2.56677,0.00117378,-0.00150719,-0.000115349,0.00117873,-0.00151214,-0.0429195,0.00155755,0.0268416,1924,1128,48.9756,-2.56675
707,-104,48.9338,2.59814,0,0,0,0,0,0,0,-1,1931,1128,48.9338,-2.59816
714,-104,45.5221,2.32166,0,0,0,0,0,0,0,-1,1938,1128,45.5221,-2.3216
721,-104,45.3917,7.18896,0,0,0,0,0,0,0,-1,1945,1128,45.3918,-7.18898
728,-104,45.52,6.71863,9.93491e-05,-0.000495241,0.000840154,0.000693257,-0.00108915,0.615344,0.0010375,0.0242804,1952,1128,45.52,-6.71868
735,-104,45.5519,6.38489,0.00042271,0.000139703,0.00108584,0.00137623,-0.000813818,0.720605,0.00127825,0.0290101,1959,1128,45.5518,-6.38495
742,-104,45.4089,6.10425,0.0011475,0.000687367,0.00119194,0.00213138,-0.000296511,0.690062,0.00152937,0.0192752,1966,1128,45.4089,-6.10429
749,-104,45.3569,5.78613,0.00199335,0.00143824,0.000957985,0.00271318,0.000718415,0.644395,0.0016232,0.0204374,1973,1128,45.3569,-5.78615
756,-104,45.3862,5.44238,0.00388778,0.00239269,0.000469381,0.00402293,0.00225754,0.280339,0.00232842,0.0178001,1980,1128,45.3862,-5.44241
763,-104,45.3483,5.14404,0.00755287,0.00368179,-0.000672316,0.00766631,0.00356835,-0.167158,0.00442966,0.0160577,1987,1128,45.3483,-5.144
770,-104,45.2908,4.85315,0.0126854,0.00513093,-0.00248879,0.0134316,0.00438472,-0.2913,0.00790895,0.0141377,1994,1128,45.2907,-4.85316
777,-104,45.2241,4.50232,0.019115,0.00660958,-0.00493655,0.0208289,0.00489575,-0.334154,0.0125758,0.0222778,2001,1128,45.2241,-4.50232
784,-104,45.2927,4.11023,0.0271952,0.00798291,-0.00821569,0.0302293,0.00494882,-0.353768,0.0187226,0.0402424,2008,1128,45.2928,-4.11023
791,-104,45.6279,3.72363,0.0379676,0.00915528,-0.0128109,0.0428398,0.00428304,-0.363426,0.0272446,0.0481771,2015,1128,45.6278,-3.72358
798,-104,45.8496,3.34009,0,0,0,0,0,0,0,-1,2022,1128,45.8496,-3.34009
805,-104,45.5413,2.14075,0,0,0,0,0,0,0,-1,2029,1128,45.5413,-2.14073
812,-104,46.2515,3.22192,0,0,0,0,0,0,0,-1,2036,1128,46.2514,-3.22198
-700,-111,0,0,0,0,0,0,0,0,0,-1,524,1135,0,0
-693,-111,-34.1334,-4.41614,0.109059,0.157934,0.0433089,0.183224,0.0837683,1.04226,0.105914,0.0489835,531,1135,-34.1334,4.41614
-686,-111,-33.5312,-4.1449,0.0886003,0.132176,0.0356067,0.152132,0.0686442,1.05996,0.0879725,0.0454053,538,1135,-33.5312,4.14487
-679,-111,-33.0242,-3.69934,0.0702073,0.109229,0.0284159,0.124187,0.0552487,1.08624,0.0718447,0.0443892,545,1135,-33.0242,3.6993
-672,-111,-32.3808,-3.35693,0.0540719,0.0886352,0.0219529,0.0992925,0.0434146,1.11885,0.0574769,0.0467464,552,1135,-32.3808,3.35697
-665,-111,-31.7878,-3.27686,0,0,0,0,0,0,0,-1,559,1135,-31.7878,3.27689
-658,-111,-31.5543,0.381592,0,0,0,0,0,0,0,-1,566,1135,-31.5542,-0.381593
-651,-111,-31.8716,0.972168,0.0179527,0.0395758,0.00749087,0.0419173,0.0156112,1.26784,0.0244622,0.0426328,573,1135,-31.8716,-0.97213
-644,-111,-32.2553,1.64124,0.010513,0.0275544,0.00445708,0.0286497,0.00941767,1.32982,0.0168613,0.0262631,580,1135,-32.2553,-1.64119
-637,-111,-32.3742,2.03284,0.00421752,0.0171318,0.00168552,0.0173482,0.00400116,1.44313,0.0104893,0.0107795,587,1135,-32.3742,-2.03287
-630,-111,-32.389,2.34448,5.55974e-05,0.00802049,4.27004e-05,0.00802072,5.53685e-05,1.56544,0.00532879,0.0204879,594,1135,-32.389,-2.34444
-623,-111,-32.4048,2.75781,-0.00105162,0.00247694,-0.000703672,0.00261209,-0.00118677,-1.38104,0.00224414,0.0171572,601,1135,-32.4049,-2.75778
-616,-111,-32.6286,3.16101,-2.74738e-05,0.000589557,-0.000611913,0.00096633,-0.000404246,-1.01889,0.000813181,0.0181775,608,1135,-32.6286,-3.16095
-609,-111,-32.8741,3.5127,0.000917073,0.000168955,-0.00043655,0.0011179,-3.18744e-05,-0.431169,0.000756117,0.0296669,615,1135,-32.8741,-3.51267
-602,-111,-32.7306,3.92822,0.0013666,-6.93386e-06,-0.000358865,0.00145471,-9.50431e-05,-0.24076,0.00100299,0.0349293,622,1135,-32.7306,-3.92819
-595,-111,-32.4692,4.38416,0.00165206,0.000155946,-0.000458354,0.00178132,2.66901e-05,-0.274862,0.00117875,0.0174046,629,1135,-32.4692,-4.38413
-588,-111,-32.1824,4.94116,0,0,0,0,0,0,0,-1,636,1135,-32.1825,-4.94112
-581,-111,-21.0555,3.14551,0,0,0,0,0,0,0,-1,643,1135,-21.0555,-3.14548
-574,-111,-36.3859,0.926147,0,0,0,0,0,0,0,-1,650,1135,-36.3859,-0.926136
-567,-111,-36.3616,0.957275,0.00243072,7.77998e-05,-0.000505238,0.00253462,-2.61009e-05,-0.202819,0.00169852,0.0416697,657,1135,-36.3616,-0.957257
-560,-111,-36.325,0.862183,0.00262558,0.000227605,-0.000492875,0.00272293,0.000130253,-0.195009,0.00177346,0.0404535,664,1135,-36.325,-0.862124
-553,-111,-36.4028,0.744263,0.00211444,0.000353649,-0.000731631,0.00237876,8.93255e-05,-0.346688,0.00155692,0.0419305,671,1135,-36.4028,-0.744289
-546,-111,-36.2627,0.764648,0.00129084,0.000267983,-0.00112547,0.00201563,-0.000456808,-0.572139,0.00151909,0.0383997,678,1135,-36.2627,-0.764667
-539,-111,-36.1888,1.00317,0.00116249,-0.000562884,-0.0015521,0.00207554,-0.00147593,-0.531748,0.00206016,0.0398415,685,1135,-36.1889,-1.00313
-532,-111,-36.3159,0.981323,0.00144015,-0.00179939,-0.00204551,0.00242955,-0.00278879,-0.450518,0.00301519,0.0420765,692,1135,-36.3159,-0.981272
-525,-111,-36.3665,0.969238,0.00184679,-0.00324064,-0.00261611,0.00295198,-0.00434583,-0.399714,0.00423893,0.0404552,699,1135,-36.3665,-0.969183
-518,-111,0,0,0,0,0,0,0,0,0,-1,706,1135,0,0
-511,-111,0,0,0,0,0,0,0,0,0,-1,713,1135,0,0
-504,-111,0,0,0,0,0,0,0,0,0,-1,720,1135,0,0
-497,-111,0,0,0,0,0,0,0,0,0,-1,727,1135,0,0
-490,-111,0,0,0,0,0,0,0,0,0,-1,734,1135,0,0
-483,-111,0,0,0,0,0,0,0,0,0,-1,741,1135,0,0
-476,-111,0,0,0,0,0,0,0,0,0,-1,748,1135,0,0
-469,-111,0,0,0,0,0,0,0,0,0,-1,755,1135,0,0
-462,-111,0,0,0,0,0,0,0,0,0,-1,762,1135,0,0
-455,-111,0,0,0,0,0,0,0,0,0,-1,769,1135,0,0
-448,-111,0,0,0,0,0,0,0,0,0,-1,776,1135,0,0
-441,-111,0,0,0,0,0,0,0,0,0,-1,783,1135,0,0
-434,-111,0,0,0,0,0,0,0,0,0,-1,790,1135,0,0
-427,-111,0,0,0,0,0,0,0,0,0,-1,797,1135,0,0
-420,-111,0,0,0,0,0,0,0,0,0,-1,804,1135,0,0
-413,-111,0,0,0,0,0,0,0,0,0,-1,811,1135,0,0
-406,-111,0,0,0,0,0,0,0,0,0,-1,818,1135,0,0
-399,-111,0,0,0,0,0,0,0,0,0,-1,825,1135,0,0
-392,-111,0,0,0,0,0,0,0,0,0,-1,832,1135,0,0
-385,-111,0,0,0,0,0,0,0,0,0,-1,839,1135,0,0
-378,-111,0,0,0,0,0,0,0,0,0,-1,846,1135,0,0
-371,-111,0,0,0,0,0,0,0,0,0,-1,853,1135,0,0
-364,-111,0,0,0,0,0,0,0,0,0,-1,860,1135,0,0
-357,-111,0,0,0,0,0,0,0,0,0,-1,867,1135,0,0
-350,-111,0,0,0,0,0,0,0,0,0,-1,874,1135,0,0
-343,-111,0,0,0,0,0,0,0,0,0,-1,881,1135,0,0
-336,-111,0,0,0,0,0,0,0,0,0,-1,888,1135,0,0
-329,-111,0,0,0,0,0,0,0,0,0,-1,895,1135,0,0
-322,-111,0,0,0,0,0,0,0,0,0,-1,902,1135,0,0
-315,-111,0,0,0,0,0,0,0,0,0,-1,909,1135,0,0
-308,-111,0,0,0,0,0,0,0,0,0,-1,916,1135,0,0
-301,-111,0,0,0,0,0,0,0,0,0,-1,923,1135,0,0
-294,-111,0,0,0,0,0,0,0,0,0,-1,930,1135,0,0
-287,-111,0,0,0,0,0,0,0,0,0,-1,937,1135,0,0
-280,-111,0,0,0,0,0,0,0,0,0,-1,944,1135,0,0
-273,-111,0,0,0,0,0,0,0,0,0,-1,951,1135,0,0
-266,-111,0,0,0,0,0,0,0,0,0,-1,958,1135,0,0
-259,-111,0,0,0,0,0,0,0,0,0,-1,965,1135,0,0
-252,-111,0,0,0,0,0,0,0,0,0,-1,972,1135,0,0
-245,-111,0,0,0,0,0,0,0,0,0,-1,979,1135,0,0
-238,-111,0,0,0,0,0,0,0,0,0,-1,986,1135,0,0
-231,-111,0,0,0,0,0,0,0,0,0,-1,993,1135,0,0
-224,-111,0,0,0,0,0,0,0,0,0,-1,1000,1135,0,0
-217,-111,0,0,0,0,0,0,0,0,0,-1,1007,1135,0,0
-210,-111,0,0,0,0,0,0,0,0,0,-1,1014,1135,0,0
-203,-111,0,0,0,0,0,0,0,0,0,-1,1021,1135,0,0
-196,-111,0,0,0,0,0,0,0,0,0,-1,1028,1135,0,0
-189,-111,0,0,0,0,0,0,0,0,0,-1,1035,1135,0,0
-182,-111,0,0,0,0,0,0,0,0,0,-1,1042,1135,0,0
-175,-111,0,0,0,0,0,0,0,0,0,-1,1049,1135,0,0
-168,-111,0,0,0,0,0,0,0,0,0,-1,1056,1135,0,0
-161,-111,0,0,0,0,0,0,0,0,0,-1,1063,1135,0,0
-154,-111,0,0,0,0,0,0,0,0,0,-1,1070,1135,0,0
-147,-111,0,0,0,0,0,0,0,0,0,-1,1077,1135,0,0
-140,-111,0,0,0,0,0,0,0,0,0,-1,1084,1135,0,0
-133,-111,0,0,0,0,0,0,0,0,0,-1,1091,1135,0,0
-126,-111,0,0,0,0,0,0,0,0,0,-1,1098,1135,0,0
-119,-111,0,0,0,0,0,0,0,0,0,-1,1105,1135,0,0
-112,-111,0,0,0,0,0,0,0,0,0,-1,1112,1135,0,0
-105,-111,0,0,0,0,0,0,0,0,0,-1,1119,1135,0,0
-98,-111,0,0,0,0,0,0,0,0,0,-1,1126,1135,0,0
-91,-111,0,0,0,0,0,0,0,0,0,-1,1133,1135,0,0
-84,-111,0,0,0,0,0,0,0,0,0,-1,1140,1135,0,0
-77,-111,0,0,0,0,0,0,0,0,0,-1,1147,1135,0,0
-70,-111,0,0,0,0,0,0,0,0,0,-1,1154,1135,0,0
-63,-111,0,0,0,0,0,0,0,0,0,-1,1161,1135,0,0
-56,-111,0,0,0,0,0,0,0,0,0,-1,1168,1135,0,0
-49,-111,0,0,0,0,0,0,0,0,0,-1,1175,1135,0,0
-42,-111,0,0,0,0,0,0,0,0,0,-1,1182,1135,0,0
-35,-111,0,0,0,0,0,0,0,0,0,-1,1189,1135,0,0
-28,-111,0,0,0,0,0,0,0,0,0,-1,1196,1135,0,0
-21,-111,0,0,0,0,0,0,0,0,0,-1,1203,1135,0,0
-14,-111,0,0,0,0,0,0,0,0,0,-1,1210,1135,0,0
-7,-111,0,0,0,0,0,0,0,0,0,-1,1217,1135,0,0
0,-111,0,0,0,0,0,0,0,0,0,-1,1224,1135,0,0
7,-111,0,0,0,0,0,0,0,0,0,-1,1231,1135,0,0
14,-111,0,0,0,0,0,0,0,0,0,-1,1238,1135,0,0
21,-111,0,0,0,0,0,0,0,0,0,-1,1245,1135,0,0
28,-111,0,0,0,0,0,0,0,0,0,-1,1252,1135,0,0
35,-111,0,0,0,0,0,0,0,0,0,-1,1259,1135,0,0
42,-111,0,0,0,0,0,0,0,0,0,-1,1266,1135,0,0
49,-111,0,0,0,0,0,0,0,0,0,-1,1273,1135,0,0
56,-111,0,0,0,0,0,0,0,0,0,-1,1280,1135,0,0
63,-111,0,0,0,0,0,0,0,0,0,-1,1287,1135,0,0
70,-111,0,0,0,0,0,0,0,0,0,-1,1294,1135,0,0
77,-111,0,0,0,0,0,0,0,0,0,-1,1301,1135,0,0
84,-111,0,0,0,0,0,0,0,0,0,-1,1308,1135,0,0
91,-111,0,0,0,0,0,0,0,0,0,-1,1315,1135,0,0
98,-111,0,0,0,0,0,0,0,0,0,-1,1322,1135,0,0
105,-111,0,0,0,0,0,0,0,0,0,-1,1329,1135,0,0
112,-111,0,0,0,0,0,0,0,0,0,-1,1336,1135,0,0
119,-111,0,0,0,0,0,0,0,0,0,-1,1343,1135,0,0
126,-111,0,0,0,0,0,0,0,0,0,-1,1350,1135,0,0
133,-111,0,0,0,0,0,0,0,0,0,-1,1357,1135,0,0
140,-111,0,0,0,0,0,0,0,0,0,-1,1364,1135,0,0
147,-111,0,0,0,0,0,0,0,0,0,-1,1371,1135,0,0
154,-111,0,0,0,0,0,0,0,0,0,-1,1378,1135,0,0
161,-111,0,0,0,0,0,0,0,0,0,-1,1385,1135,0,0
168,-111,0,0,0,0,0,0,0,0,0,-1,1392,1135,0,0
175,-111,0,0,0,0,0,0,0,0,0,-1,1399,1135,0,0
182,-111,0,0,0,0,0,0,0,0,0,-1,1406,1135,0,0
189,-111,0,0,0,0,0,0,0,0,0,-1,1413,1135,0,0
196,-111,0,0,0,0,0,0,0,0,0,-1,1420,1135,0,0
203,-111,0,0,0,0,0,0,0,0,0,-1,1427,1135,0,0
210,-111,0,0,0,0,0,0,0,0,0,-1,1434,1135,0,0
217,-111,0,0,0,0,0,0,0,0,0,-1,1441,1135,0,0
224,-111,0,0,0,0,0,0,0,0,0,-1,1448,1135,0,0
231,-111,0,0,0,0,0,0,0,0,0,-1,1455,1135,0,0
238,-111,0,0,0,0,0,0,0,0,0,-1,1462,1135,0,0
245,-111,0,0,0,0,0,0,0,0,0,-1,1469,1135,0,0
252,-111,0,0,0,0,0,0,0,0,0,-1,1476,1135,0,0
259,-111,0,0,0,0,0,0,0,0,0,-1,1483,1135,0,0
266,-111,0,0,0,0,0,0,0,0,0,-1,1490,1135,0,0
273,-111,0,0,0,0,0,0,0,0,0,-1,1497,1135,0,0
280,-111,0,0,0,0,0,0,0,0,0,-1,1504,1135,0,0
287,-111,0,0,0,0,0,0,0,0,0,-1,1511,1135,0,0
294,-111,0,0,0,0,0,0,0,0,0,-1,1518,1135,0,0
301,-111,0,0,0,0,0,0,0,0,0,-1,1525,1135,0,0
308,-111,0,0,0,0,0,0,0,0,0,-1,1532,1135,0,0
315,-111,0,0,0,0,0,0,0,0,0,-1,1539,1135,0,0
322,-111,0,0,0,0,0,0,0,0,0,-1,1546,1135,0,0
329,-111,0,0,0,0,0,0,0,0,0,-1,1553,1135,0,0
336,-111,0,0,0,0,0,0,0,0,0,-1,1560,1135,0,0
343,-111,0,0,0,0,0,0,0,0,0,-1,1567,1135,0,0
350,-111,0,0,0,0,0,0,0,0,0,-1,1574,1135,0,0
357,-111,0,0,0,0,0,0,0,0,0,-1,1581,1135,0,0
364,-111,0,0,0,0,0,0,0,0,0,-1,1588,1135,0,0
371,-111,0,0,0,0,0,0,0,0,0,-1,1595,1135,0,0
378,-111,0,0,0,0,0,0,0,0,0,-1,1602,1135,0,0
385,-111,0,0,0,0,0,0,0,0,0,-1,1609,1135,0,0
392,-111,0,0,0,0,0,0,0,0,0,-1,1616,1135,0,0
399,-111,0,0,0,0,0,0,0,0,0,-1,1623,1135,0,0
406,-111,0,0,0,0,0,0,0,0,0,-1,1630,1135,0,0
413,-111,0,0,0,0,0,0,0,0,0,-1,1637,1135,0,0
420,-111,0,0,0,0,0,0,0,0,0,-1,1644,1135,0,0
427,-111,0,0,0,0,0,0,0,0,0,-1,1651,1135,0,0
434,-111,0,0,0,0,0,0,0,0,0,-1,1658,1135,0,0
441,-111,0,0,0,0,0,0,0,0,0,-1,1665,1135,0,0
448,-111,0,0,0,0,0,0,0,0,0,-1,1672,1135,0,0
455,-111,0,0,0,0,0,0,0,0,0,-1,1679,1135,0,0
462,-111,0,0,0,0,0,0,0,0,0,-1,1686,1135,0,0
469,-111,0,0,0,0,0,0,0,0,0,-1,1693,1135,0,0
476,-111,0,0,0,0,0,0,0,0,0,-1,1700,1135,0,0
483,-111,0,0,0,0,0,0,0,0,0,-1,1707,1135,0,0
490,-111,0,0,0,0,0,0,0,0,0,-1,1714,1135,0,0
497,-111,0,0,0,0,0,0,0,0,0,-1,1721,1135,0,0
504,-111,0,0,0,0,0,0,0,0,0,-1,1728,1135,0,0
511,-111,0,0,0,0,0,0,0,0,0,-1,1735,1135,0,0
518,-111,0,0,0,0,0,0,0,0,0,-1,1742,1135,0,0
525,-111,0,0,0,0,0,0,0,0,0,-1,1749,1135,0,0
532,-111,0,0,0,0,0,0,0,0,0,-1,1756,1135,0,0
539,-111,0,0,0,0,0,0,0,0,0,-1,1763,1135,0,0
546,-111,0,0,0,0,0,0,0,0,0,-1,1770,1135,0,0
553,-111,0,0,0,0,0,0,0,0,0,-1,1777,1135,0,0
560,-111,0,0,0,0,0,0,0,0,0,-1,1784,1135,0,0
567,-111,0,0,0,0,0,0,0,0,0,-1,1791,1135,0,0
574,-111,0,0,0,0,0,0,0,0,0,-1,1798,1135,0,0
581,-111,0,0,0,0,0,0,0,0,0,-1,1805,1135,0,0
588,-111,0,0,0,0,0,0,0,0,0,-1,1812,1135,0,0
595,-111,0,0,0,0,0,0,0,0,0,-1,1819,1135,0,0
602,-111,0,0,0,0,0,0,0,0,0,-1,1826,1135,0,0
609,-111,0,0,0,0,0,0,0,0,0,-1,1833,1135,0,0
616,-111,0,0,0,0,0,0,0,0,0,-1,1840,1135,0,0
623,-111,0,0,0,0,0,0,0,0,0,-1,1847,1135,0,0
630,-111,0,0,0,0,0,0,0,0,0,-1,1854,1135,0,0
637,-111,0,0,0,0,0,0,0,0,0,-1,1861,1135,0,0
644,-111,48.8796,2.83069,0.000731625,-0.00031072,-0.00479512,0.00503382,-0.00461291,-0.731267,0.00557131,0.0385799,1868,1135,48.8797,-2.83068
651,-111,49.0543,2.77563,0.000356421,-0.000776191,-0.0035505,0.0033855,-0.00380527,-0.706314,0.00415395,0.0405378,1875,1135,49.0544,-2.77562
658,-111,49.0339,2.63171,0.00060569,-0.00114124,-0.00261816,0.00249224,-0.00302779,-0.624394,0.00319199,0.0450415,1882,1135,49.034,-2.63176
665,-111,49.2157,2.44373,0.000947453,-0.00137801,-0.00190931,0.00202021,-0.00245077,-0.511901,0.00258531,0.0453886,1889,1135,49.2158,-2.44371
672,-111,49.1333,2.34131,0.00134055,-0.00147731,-0.00141637,0.00192941,-0.00206618,-0.394017,0.00230731,0.0426654,1896,1135,49.1333,-2.34134
679,-111,48.8789,2.19153,0,0,0,0,0,0,0,-1,1903,1135,48.8789,-2.19158
686,-111,48.8689,2.71887,0.00136728,-0.00163067,-0.000730815,0.00153594,-0.00179934,-0.226816,0.00192762,0.037558,1910,1135,48.869,-2.71891
693,-111,48.8285,2.63696,0.00132133,-0.00158211,-0.000538149,0.00141787,-0.00167865,-0.177496,0.00178989,0.0381805,1917,1135,48.8285,-2.63697
700,-111,48.9795,2.58289,0.00116728,-0.00153725,-0.000219619,0.00118499,-0.00155497,-0.0805015,0.00158672,0.0267169,1924,1135,48.9795,-2.58286
707,-111,48.9668,2.55908,0,0,0,0,0,0,0,-1,1931,1135,48.9669,-2.5591
714,-111,45.1654,7.39746,0,0,0,0,0,0,0,-1,1938,1135,45.1654,-7.39745
721,-111,45.0094,7.25928,0,0,0,0,0,0,0,-1,1945,1135,45.0094,-7.25931
728,-111,45.103,6.79211,0.000128948,-0.000524015,0.000740016,0.000611302,-0.00100637,0.57765,0.000943201,0.0231358,1952,1135,45.103,-6.79206
735,-111,45.125,6.47559,0.000722041,7.96928e-05,0.00107036,0.00151837,-0.000716639,0.639641,0.00131777,0.0242312,1959,1135,45.125,-6.47555
742,-111,45.0587,6.1687,0.00162384,0.00059627,0.00114822,0.00236798,-0.000147872,0.575027,0.00163018,0.0156849,1966,1135,45.0587,-6.16864
749,-111,45.0057,5.80554,0.00241859,0.00143581,0.000885392,0.00293981,0.000914591,0.532063,0.00173721,0.0170525,1973,1135,45.0058,-5.80554
756,-111,44.9934,5.4425,0.00422626,0.0025882,0.00021331,0.00425358,0.00256088,0.127391,0.0024728,0.0176507,1980,1135,44.9934,-5.44246
763,-111,44.9858,5.13538,0.0077884,0.00416479,-0.00123369,0.00816854,0.00378465,-0.298901,0.00472034,0.0158588,1987,1135,44.9859,-5.13539
770,-111,44.9625,4.81128,0.0124179,0.00603077,-0.00348241,0.0139494,0.00449929,-0.414319,0.008221,0.0133287,1994,1135,44.9625,-4.81132
777,-111,44.8152,4.47949,0.0178459,0.00809236,-0.00652012,0.0211113,0.00482697,-0.464302,0.0127729,0.0251928,2001,1135,44.8152,-4.4795
784,-111,44.9492,4.06396,0.0242029,0.0103264,-0.010641,0.0299679,0.00456152,-0.496498,0.018645,0.0407308,2008,1135,44.9492,-4.06396
791,-111,45.2742,3.71191,0.0319418,0.0127864,-0.0164573,0.0414056,0.00332269,-0.521869,0.0265655,0.0466191,2015,1135,45.2741,-3.71194
798,-111,45.5454,3.36316,0,0,0,0,0,0,0,-1,2022,1135,45.5454,-3.36318
805,-111,45.948,2.8114,0,0,0,0,0,0,0,-1,2029,1135,45.9481,-2.81134
812,-111,46.3918,2.97168,0,0,0,0,0,0,0,-1,2036,1135,46.3918,-2.97169
-700,-118,0,0,0,0,0,0,0,0,0,-1,524,1142,0,0
-693,-118,-34.4885,-5.84692,0,0,0,0,0,0,0,-1,531,1142,-34.4885,5.84687
-686,-118,-33.7538,-4.81714,0.0944863,0.118638,0.0400096,0.148354,0.0647697,0.93196,0.0858816,0.0476572,538,1142,-33.7538,4.81719
-679,-118,-33.0793,-4.30408,0.0752233,0.0977182,0.0318576,0.120256,0.0526859,0.955095,0.0696066,0.0436997,545,1142,-33.0793,4.30406
-672,-118,-32.5416,-3.96057,0.0584029,0.0790807,0.0247132,0.0955305,0.0419531,0.983513,0.0552905,0.0446959,552,1142,-32.5417,3.9606
-665,-118,-32.0668,-3.85413,0,0,0,0,0,0,0,-1,559,1142,-32.0668,3.85414
-658,-118,-31.2536,0.671875,0,0,0,0,0,0,0,-1,566,1142,-31.2536,-0.67185
-651,-118,-31.4366,1.1936,0.02052,0.0348979,0.00891459,0.0391611,0.0162569,1.12472,0.022718,0.0440252,573,1142,-31.4366,-1.19359
-644,-118,-31.7471,1.67981,0.0124095,0.0240463,0.00549938,0.0262339,0.0102218,1.19219,0.0152686,0.0301791,580,1142,-31.7471,-1.67986
-637,-118,-31.9236,2.05322,0.00549138,0.0145723,0.00238163,0.0151591,0.00490467,1.32926,0.00893191,0.0165826,587,1142,-31.9236,-2.05324
-630,-118,-31.9581,2.39136,0.000803092,0.00639384,0.000418166,0.00642494,0.000771987,1.49655,0.00405056,0.0229335,594,1142,-31.9581,-2.39141
-623,-118,-31.9648,2.78345,-0.000718172,0.00166139,-0.000550899,0.00178275,-0.000839524,-1.35398,0.00154627,0.0190064,601,1142,-31.9648,-2.78348
-616,-118,-32.082,3.15955,0.000105371,0.000311671,-0.000553425,0.000771477,-0.000354434,-0.877533,0.000664743,0.0210743,608,1142,-32.082,-3.15961
-609,-118,-32.3045,3.40771,0.000843516,0.000122439,-0.000467913,0.00107368,-0.000107726,-0.457144,0.000754264,0.0361059,615,1142,-32.3045,-3.40767
-602,-118,-32.1652,4.03271,0.00117408,3.49776e-05,-0.000500223,0.00136256,-0.000153502,-0.36034,0.000963627,0.0353945,622,1142,-32.1651,-4.0327
-595,-118,-32.3683,4.64771,0,0,0,0,0,0,0,-1,629,1142,-32.3683,-4.64768
-588,-118,-30.8828,5.12256,0,0,0,0,0,0,0,-1,636,1142,-30.8828,-5.12255
-581,-118,-24.6116,3.89648,0,0,0,0,0,0,0,-1,643,1142,-24.6116,-3.89645
-574,-118,-36.4058,1.01135,0,0,0,0,0,0,0,-1,650,1142,-36.4058,-1.01131
-567,-118,-36.3823,1.01807,0.0020969,-0.000168431,-0.000519773,0.00221047,-0.000281998,-0.215113,0.00157608,0.0449375,657,1142,-36.3823,-1.01805
-560,-118,-36.3489,0.849731,0.00242735,-0.00012168,-0.000444988,0.0025028,-0.000197129,-0.167955,0.00173797,0.0373856,664,1142,-36.3489,-0.849707
-553,-118,-36.2402,0.64917,0.00209172,-5.92218e-05,-0.000600125,0.00224782,-0.000215331,-0.254487,0.00157524,0.0371913,671,1142,-36.2403,-0.649196
-546,-118,-36.0931,0.720825,0.00150448,-0.000176407,-0.000835989,0.00184945,-0.000521385,-0.391371,0.00143861,0.0366657,678,1142,-36.0931,-0.720876
-539,-118,-36.0805,0.905762,0.00161767,-0.000927176,-0.000963917,0.00194155,-0.00125106,-0.324156,0.00185757,0.0395262,685,1142,-36.0805,-0.905715
-532,-118,-36.2413,1.16077,0.00224929,-0.00213766,-0.00112754,0.00252213,-0.0024105,-0.23741,0.00284809,0.0421911,692,1142,-36.2413,-1.16081
-525,-118,-36.3832,0.907593,0.00305512,-0.00355631,-0.00139757,0.00333841,-0.0038396,-0.199992,0.00414759,0.0438814,699,1142,-36.3833,-0.907596
-518,-118,0,0,0,0,0,0,0,0,0,-1,706,1142,0,0
-511,-118,0,0,0,0,0,0,0,0,0,-1,713,1142,0,0
-504,-118,0,0,0,0,0,0,0,0,0,-1,720,1142,0,0
-497,-118,0,0,0,0,0,0,0,0,0,-1,727,1142,0,0
-490,-118,0,0,0,0,0,0,0,0,0,-1,734,1142,0,0
-483,-118,0,0,0,0,0,0,0,0,0,-1,741,1142,0,0
-476,-118,0,0,0,0,0,0,0,0,0,-1,748,1142,0,0
-469,-118,0,0,0,0,0,0,0,0,0,-1,755,1142,0,0
-462,-118,0,0,0,0,0,0,0,0,0,-1,762,1142,0,0
-455,-118,0,0,0,0,0,0,0,0,0,-1,769,1142,0,0
-448,-118,0,0,0,0,0,0,0,0,0,-1,776,1142,0,0
-441,-118,0,0,0,0,0,0,0,0,0,-1,783,1142,0,0
-434,-118,0,0,0,0,0,0,0,0,0,-1,790,1142,0,0
-427,-118,0,0,0,0,0,0,0,0,0,-1,797,1142,0,0
-420,-118,0,0,0,0,0,0,0,0,0,-1,804,1142,0,0
-413,-118,0,0,0,0,0,0,0,0,0,-1,811,1142,0,0
-406,-118,0,0,0,0,0,0,0,0,0,-1,818,1142,0,0
-399,-118,0,0,0,0,0,0,0,0,0,-1,825,1142,0,0
-392,-118,0,0,0,0,0,0,0,0,0,-1,832,1142,0,0
-385,-118,0,0,0,0,0,0,0,0,0,-1,839,1142,0,0
-378,-118,0,0,0,0,0,0,0,0,0,-1,846,1142,0,0
-371,-118,0,0,0,0,0,0,0,0,0,-1,853,1142,0,0
-364,-118,0,0,0,0,0,0,0,0,0,-1,860,1142,0,0
-357,-118,0,0,0,0,0,0,0,0,0,-1,867,1142,0,0
-350,-118,0,0,0,0,0,0,0,0,0,-1,874,1142,0,0
-343,-118,0,0,0,0,0,0,0,0,0,-1,881,1142,0,0
-336,-118,0,0,0,0,0,0,0,0,0,-1,888,1142,0,0
-329,-118,0,0,0,0,0,0,0,0,0,-1,895,1142,0,0
-322,-118,0,0,0,0,0,0,0,0,0,-1,902,1142,0,0
-315,-118,0,0,0,0,0,0,0,0,0,-1,909,1142,0,0
-308,-118,0,0,0,0,0,0,0,0,0,-1,916,1142,0,0
-301,-118,0,0,0,0,0,0,0,0,0,-1,923,1142,0,0
-294,-118,0,0,0,0,0,0,0,0,0,-1,930,1142,0,0
-287,-118,0,0,0,0,0,0,0,0,0,-1,937,1142,0,0
-280,-118,0,0,0,0,0,0,0,0,0,-1,944,1142,0,0
-273,-118,0,0,0,0,0,0,0,0,0,-1,951,1142,0,0
-266,-118,0,0,0,0,0,0,0,0,0,-1,958,1142,0,0
-259,-118,0,0,0,0,0,0,0,0,0,-1,965,1142,0,0
-252,-118,0,0,0,0,0,0,0,0,0,-1,972,1142,0,0
-245,-118,0,0,0,0,0,0,0,0,0,-1,979,1142,0,0
-238,-118,0,0,0,0,0,0,0,0,0,-1,986,1142,0,0
-231,-118,0,0,0,0,0,0,0,0,0,-1,993,1142,0,0
-224,-118,0,0,0,0,0,0,0,0,0,-1,1000,1142,0,0
-217,-118,0,0,0,0,0,0,0,0,0,-1,1007,1142,0,0
-210,-118,0,0,0,0,0,0,0,0,0,-1,1014,1142,0,0
-203,-118,0,0,0,0,0,0,0,0,0,-1,1021,1142,0,0
-196,-118,0,0,0,0,0,0,0,0,0,-1,1028,1142,0,0
-189,-118,0,0,0,0,0,0,0,0,0,-1,1035,1142,0,0
-182,-118,0,0,0,0,0,0,0,0,0,-1,1042,1142,0,0
-175,-118,0,0,0,0,0,0,0,0,0,-1,1049,1142,0,0
-168,-118,0,0,0,0,0,0,0,0,0,-1,1056,1142,0,0
-161,-118,0,0,0,0,0,0,0,0,0,-1,1063,1142,0,0
-154,-118,0,0,0,0,0,0,0,0,0,-1,1070,1142,0,0
-147,-118,0,0,0,0,0,0,0,0,0,-1,1077,1142,0,0
-140,-118,0,0,0,0,0,0,0,0,0,-1,1084,1142,0,0
-133,-118,0,0,0,0,0,0,0,0,0,-1,1091,1142,0,0
-126,-118,0,0,0,0,0,0,0,0,0,-1,1098,1142,0,0
-119,-118,0,0,0,0,0,0,0,0,0,-1,1105,1142,0,0
-112,-118,0,0,0,0,0,0,0,0,0,-1,1112,1142,0,0
-105,-118,0,0,0,0,0,0,0,0,0,-1,1119,1142,0,0
-98,-118,0,0,0,0,0,0,0,0,0,-1,1126,1142,0,0
-91,-118,0,0,0,0,0,0,0,0,0,-1,1133,1142,0,0
-84,-118,0,0,0,0,0,0,0,0,0,-1,1140,1142,0,0
-77,-118,0,0,0,0,0,0,0,0,0,-1,1147,1142,0,0
-70,-118,0,0,0,0,0,0,0,0,0,-1,1154,1142,0,0
-63,-118,0,0,0,0,0,0,0,0,0,-1,1161,1142,0,0
-56,-118,0,0,0,0,0,0,0,0,0,-1,1168,1142,0,0
-49,-118,0,0,0,0,0,0,0,0,0,-1,1175,1142,0,0
-42,-118,0,0,0,0,0,0,0,0,0,-1,1182,1142,0,0
-35,-118,0,0,0,0,0,0,0,0,0,-1,1189,1142,0,0
-28,-118,0,0,0,0,0,0,0,0,0,-1,1196,1142,0,0
-21,-118,0,0,0,0,0,0,0,0,0,-1,1203,1142,0,0
-14,-118,0,0,0,0,0,0,0,0,0,-1,1210,1142,0,0
-7,-118,0,0,0,0,0,0,0,0,0,-1,1217,1142,0,0
0,-118,0,0,0,0,0,0,0,0,0,-1,1224,1142,0,0
7,-118,0,0,0,0,0,0,0,0,0,-1,1231,1142,0,0
14,-118,0,0,0,0,0,0,0,0,0,-1,1238,1142,0,0
21,-118,0,0,0,0,0,0,0,0,0,-1,1245,1142,0,0
28,-118,0,0,0,0,0,0,0,0,0,-1,1252,1142,0,0
35,-118,0,0,0,0,0,0,0,0,0,-1,1259,1142,0,0
42,-118,0,0,0,0,0,0,0,0,0,-1,1266,1142,0,0
49,-118,0,0,0,0,0,0,0,0,0,-1,1273,1142,0,0
56,-118,0,0,0,0,0,0,0,0,0,-1,1280,1142,0,0
63,-118,0,0,0,0,0,0,0,0,0,-1,1287,1142,0,0
70,-118,0,0,0,0,0,0,0,0,0,-1,1294,1142,0,0
77,-118,0,0,0,0,0,0,0,0,0,-1,1301,1142,0,0
84,-118,0,0,0,0,0,0,0,0,0,-1,1308,1142,0,0
91,-118,0,0,0,0,0,0,0,0,0,-1,1315,1142,0,0
98,-118,0,0,0,0,0,0,0,0,0,-1,1322,1142,0,0
105,-118,0,0,0,0,0,0,0,0,0,-1,1329,1142,0,0
112,-118,0,0,0,0,0,0,0,0,0,-1,1336,1142,0,0
119,-118,0,0,0,0,0,0,0,0,0,-1,1343,1142,0,0
126,-118,0,0,0,0,0,0,0,0,0,-1,1350,1142,0,0
133,-118,0,0,0,0,0,0,0,0,0,-1,1357,1142,0,0
140,-118,0,0,0,0,0,0,0,0,0,-1,1364,1142,0,0
147,-118,0,0,0,0,0,0,0,0,0,-1,1371,1142,0,0
154,-118,0,0,0,0,0,0,0,0,0,-1,1378,1142,0,0
161,-118,0,0,0,0,0,0,0,0,0,-1,1385,1142,0,0
168,-118,0,0,0,0,0,0,0,0,0,-1,1392,1142,0,0
175,-118,0,0,0,0,0,0,0,0,0,-1,1399,1142,0,0
182,-118,0,0,0,0,0,0,0,0,0,-1,1406,1142,0,0
189,-118,0,0,0,0,0,0,0,0,0,-1,1413,1142,0,0
196,-118,0,0,0,0,0,0,0,0,0,-1,1420,1142,0,0
203,-118,0,0,0,0,0,0,0,0,0,-1,1427,1142,0,0
210,-118,0,0,0,0,0,0,0,0,0,-1,1434,1142,0,0
217,-118,0,0,0,0,0,0,0,0,0,-1,1441,1142,0,0
224,-118,0,0,0,0,0,0,0,0,0,-1,1448,1142,0,0
231,-118,0,0,0,0,0,0,0,0,0,-1,1455,1142,0,0
238,-118,0,0,0,0,0,0,0,0,0,-1,1462,1142,0,0
245,-118,0,0,0,0,0,0,0,0,0,-1,1469,1142,0,0
252,-118,0,0,0,0,0,0,0,0,0,-1,1476,1142,0,0
259,-118,0,0,0,0,0,0,0,0,0,-1,1483,1142,0,0
266,-118,0,0,0,0,0,0,0,0,0,-1,1490,1142,0,0
273,-118,0,0,0,0,0,0,0,0,0,-1,1497,1142,0,0
280,-118,0,0,0,0,0,0,0,0,0,-1,1504,1142,0,0
287,-118,0,0,0,0,0,0,0,0,0,-1,1511,1142,0,0
294,-118,0,0,0,0,0,0,0,0,0,-1,1518,1142,0,0
301,-118,0,0,0,0,0,0,0,0,0,-1,1525,1142,0,0
308,-118,0,0,0,0,0,0,0,0,0,-1,1532,1142,0,0
315,-118,0,0,0,0,0,0,0,0,0,-1,1539,1142,0,0
322,-118,0,0,0,0,0,0,0,0,0,-1,1546,1142,0,0
329,-118,0,0,0,0,0,0,0,0,0,-1,1553,1142,0,0
336,-118,0,0,0,0,0,0,0,0,0,-1,1560,1142,0,0
343,-118,0,0,0,0,0,0,0,0,0,-1,1567,1142,0,0
350,-118,0,0,0,0,0,0,0,0,0,-1,1574,1142,0,0
357,-118,0,0,0,0,0,0,0,0,0,-1,1581,1142,0,0
364,-118,0,0,0,0,0,0,0,0,0,-1,1588,1142,0,0
371,-118,0,0,0,0,0,0,0,0,0,-1,1595,1142,0,0
378,-118,0,0,0,0,0,0,0,0,0,-1,1602,1142,0,0
385,-118,0,0,0,0,0,0,0,0,0,-1,1609,1142,0,0
392,-118,0,0,0,0,0,0,0,0,0,-1,1616,1142,0,0
399,-118,0,0,0,0,0,0,0,0,0,-1,1623,1142,0,0
406,-118,0,0,0,0,0,0,0,0,0,-1,1630,1142,0,0
413,-118,0,0,0,0,0,0,0,0,0,-1,1637,1142,0,0
420,-118,0,0,0,0,0,0,0,0,0,-1,1644,1142,0,0
427,-118,0,0,0,0,0,0,0,0,0,-1,1651,1142,0,0
434,-118,0,0,0,0,0,0,0,0,0,-1,1658,1142,0,0
441,-118,0,0,0,0,0,0,0,0,0,-1,1665,1142,0,0
448,-118,0,0,0,0,0,0,0,0,0,-1,1672,1142,0,0
455,-118,0,0,0,0,0,0,0,0,0,-1,1679,1142,0,0
462,-118,0,0,0,0,0,0,0,0,0,-1,1686,1142,0,0
469,-118,0,0,0,0,0,0,0,0,0,-1,1693,1142,0,0
476,-118,0,0,0,0,0,0,0,0,0,-1,1700,1142,0,0
483,-118,0,0,0,0,0,0,0,0,0,-1,1707,1142,0,0
490,-118,0,0,0,0,0,0,0,0,0,-1,1714,1142,0,0
497,-118,0,0,0,0,0,0,0,0,0,-1,1721,1142,0,0
504,-118,0,0,0,0,0,0,0,0,0,-1,1728,1142,0,0
511,-118,0,0,0,0,0,0,0,0,0,-1,1735,1142,0,0
518,-118,0,0,0,0,0,0,0,0,0,-1,1742,1142,0,0
525,-118,0,0,0,0,0,0,0,0,0,-1,1749,1142,0,0
532,-118,0,0,0,0,0,0,0,0,0,-1,1756,1142,0,0
539,-118,0,0,0,0,0,0,0,0,0,-1,1763,1142,0,0
546,-118,0,0,0,0,0,0,0,0,0,-1,1770,1142,0,0
553,-118,0,0,0,0,0,0,0,0,0,-1,1777,1142,0,0
560,-118,0,0,0,0,0,0,0,0,0,-1,1784,1142,0,0
567,-118,0,0,0,0,0,0,0,0,0,-1,1791,1142,0,0
574,-118,0,0,0,0,0,0,0,0,0,-1,1798,1142,0,0
581,-118,0,0,0,0,0,0,0,0,0,-1,1805,1142,0,0
588,-118,0,0,0,0,0,0,0,0,0,-1,1812,1142,0,0
595,-118,0,0,0,0,0,0,0,0,0,-1,1819,1142,0,0
602,-118,0,0,0,0,0,0,0,0,0,-1,1826,1142,0,0
609,-118,0,0,0,0,0,0,0,0,0,-1,1833,1142,0,0
616,-118,0,0,0,0,0,0,0,0,0,-1,1840,1142,0,0
623,-118,0,0,0,0,0,0,0,0,0,-1,1847,1142,0,0
630,-118,0,0,0,0,0,0,0,0,0,-1,1854,1142,0,0
637,-118,0,0,0,0,0,0,0,0,0,-1,1861,1142,0,0
644,-118,48.8638,3.0249,0.000555496,-0.000153141,-0.00446507,0.00468028,-0.00427793,-0.745804,0.00517377,0.0432765,1868,1142,48.8638,-3.02492
651,-118,48.8433,2.69189,0.000306777,-0.000600726,-0.00326437,0.00314878,-0.00344273,-0.71634,0.00380687,0.0416539,1875,1142,48.8433,-2.69188
658,-118,48.927,2.69421,0.000596351,-0.000951213,-0.0023773,0.00232263,-0.00267749,-0.628062,0.00288924,0.0437019,1882,1142,48.9271,-2.69424
665,-118,49.1881,2.57642,0.000964169,-0.00117917,-0.00172047,0.00191944,-0.00213444,-0.506856,0.00234161,0.0430992,1889,1142,49.1881,-2.57647
672,-118,49.0647,2.43225,0.00133817,-0.00126888,-0.0012902,0.00186871,-0.00179941,-0.39013,0.00211792,0.0432991,1896,1142,49.0647,-2.43225
679,-118,48.9185,2.49463,0.00136681,-0.00138074,-0.000903313,0.00163719,-0.00165111,-0.290829,0.00189851,0.0379476,1903,1142,48.9184,-2.49462
686,-118,48.8104,2.67712,0.00133594,-0.00142877,-0.000672125,0.00149068,-0.00158351,-0.22628,0.00177515,0.0347027,1910,1142,48.8104,-2.6771
693,-118,48.762,2.62061,0.00125065,-0.0013742,-0.000501874,0.00134334,-0.00146688,-0.182622,0.001623,0.0342126,1917,1142,48.762,-2.62066
700,-118,48.9374,2.58264,0.0010977,-0.00136515,-0.000191471,0.0011125,-0.00137995,-0.077126,0.00144177,0.0184547,1924,1142,48.9374,-2.58263
707,-118,49.0555,2.75476,0,0,0,0,0,0,0,-1,1931,1142,49.0555,-2.75477
714,-118,44.8718,7.72693,0,0,0,0,0,0,0,-1,1938,1142,44.8719,-7.72694
721,-118,44.6184,7.29663,0.000138256,-0.000737782,0.000624466,0.000463007,-0.00106253,0.479556,0.000903158,0.0323059,1945,1142,44.6184,-7.29669
728,-118,44.7046,6.92017,0.000111077,-0.000484375,0.000731371,0.000603,-0.000976298,0.592101,0.000920259,0.0201462,1952,1142,44.7046,-6.9202
735,-118,44.6752,6.56091,0.000972477,3.69479e-05,0.00114289,0.00173963,-0.0007302,0.591157,0.00146511,0.0197886,1959,1142,44.6752,-6.56087
742,-118,44.6669,6.19495,0.00193395,0.00047147,0.00110873,0.00253087,-0.000125446,0.493876,0.00173058,0.0263319,1966,1142,44.6668,-6.1949
749,-118,44.6288,5.83948,0.00269244,0.00130656,0.00073067,0.0030065,0.000992503,0.405947,0.00176888,0.021177,1973,1142,44.6288,-5.83954
756,-118,44.6211,5.47449,0.00448278,0.00255184,-0.000232667,0.00451042,0.0025242,-0.11824,0.00261026,0.0189507,1980,1142,44.6211,-5.47448
763,-118,44.6486,5.12537,0.00793583,0.00420767,-0.00214075,0.00891034,0.00323316,-0.427186,0.00520849,0.0117634,1987,1142,44.6486,-5.12537
770,-118,44.5715,4.81128,0.0120857,0.00616848,-0.00500805,0.0149438,0.00331039,-0.518596,0.00906288,0.0147902,1994,1142,44.5716,-4.81127
777,-118,44.4547,4.53821,0.0166068,0.00836988,-0.0088378,0.0222386,0.00273803,-0.567356,0.0140026,0.02804,2001,1142,44.4547,-4.53822
784,-118,44.6289,4.15027,0.0214499,0.0108458,-0.014016,0.0311332,0.00116245,-0.604575,0.020379,0.043362,2008,1142,44.6289,-4.1503
791,-118,44.8088,3.76721,0.0265958,0.0137021,-0.0212397,0.0423455,-0.00204764,-0.638052,0.0289371,0.0482831,2015,1142,44.8089,-3.76722
798,-118,44.9595,3.35559,0,0,0,0,0,0,0,-1,2022,1142,44.9595,-3.3556
805,-118,45.1399,2.11377,0,0,0,0,0,0,0,-1,2029,1142,45.1399,-2.11381
812,-118,46.5322,2.72144,0,0,0,0,0,0,0,-1,2036,1142,46.5322,-2.7214
-700,-125,0,0,0,0,0,0,0,0,0,-1,524,1149,0,0
-693,-125,-34.4946,-6.96191,0.113297,0.11506,0.0498812,0.164067,0.0642893,0.794233,0.09546,0.0491139,531,1149,-34.4946,6.96197
-686,-125,-33.6035,-5.83508,0.0926309,0.094698,0.040391,0.134069,0.0532603,0.79819,0.0779474,0.0473514,538,1149,-33.6034,5.83513
-679,-125,-32.9356,-4.89282,0.0744386,0.0773995,0.032202,0.108155,0.0436831,0.808369,0.0628267,0.0462056,545,1149,-32.9356,4.89277
-672,-125,-32.2729,-4.36951,0,0,0,0,0,0,0,-1,552,1149,-32.2729,4.36955
-665,-125,-31.2359,-1.8822,0,0,0,0,0,0,0,-1,559,1149,-31.2359,1.88214
-658,-125,-30.8912,0.70752,0,0,0,0,0,0,0,-1,566,1149,-30.8912,-0.707498
-651,-125,-31.0593,1.23291,0.022126,0.0268025,0.00945825,0.0342072,0.0147212,0.906577,0.0198133,0.0460258,573,1149,-31.0593,-1.23287
-644,-125,-31.3679,1.67041,0.0139371,0.0181395,0.00594354,0.0223423,0.0097343,0.955303,0.0129349,0.0304027,580,1149,-31.3679,-1.67046
-637,-125,-31.4941,2.02307,0.00682916,0.010453,0.00272963,0.0119173,0.00536481,1.0784,0.00689186,0.0150325,587,1149,-31.4942,-2.02304
-630,-125,-31.5093,2.41284,0.00190474,0.00409226,0.000620961,0.00425624,0.00174076,1.31262,0.00247087,0.0155027,594,1149,-31.5093,-2.4128
-623,-125,-31.5256,2.82495,-1.44676e-05,0.000696705,-0.000449395,0.000914179,-0.000231941,-1.12009,0.0006997,0.0137044,601,1149,-31.5256,-2.8249
-616,-125,-31.5609,3.1936,0.000514654,-4.5793e-05,-0.000500977,0.000808454,-0.000339593,-0.5304,0.000681002,0.0217029,608,1149,-31.5608,-3.19356
-609,-125,-31.7146,3.48621,0.00106635,-0.000121054,-0.000470928,0.00123044,-0.000285149,-0.335293,0.000930032,0.0417359,615,1149,-31.7146,-3.48616
-602,-125,-31.7031,4.04675,0.00129005,-0.000198403,-0.000588319,0.00149451,-0.000402855,-0.334464,0.0011543,0.0339942,622,1149,-31.7031,-4.04676
-595,-125,-31.8901,4.58289,0,0,0,0,0,0,0,-1,629,1149,-31.8901,-4.58284
-588,-125,-31.4191,5.04077,0,0,0,0,0,0,0,-1,636,1149,-31.4191,-5.0408
-581,-125,-26.4055,4.83203,0,0,0,0,0,0,0,-1,643,1149,-26.4055,-4.83204
-574,-125,-36.258,0.567871,0,0,0,0,0,0,0,-1,650,1149,-36.258,-0.567878
-567,-125,-36.3096,0.758911,0.00188847,-0.000528507,-0.000509138,0.00199134,-0.000631379,-0.199367,0.00158063,0.0497178,657,1149,-36.3096,-0.758919
-560,-125,-36.3599,0.818115,0.00224613,-0.000517181,-0.000421982,0.00230914,-0.000580185,-0.14821,0.0017649,0.038886,664,1149,-36.3599,-0.818096
-553,-125,-36.3006,0.691284,0.00200527,-0.000433599,-0.000544598,0.00212136,-0.000549682,-0.210011,0.00162868,0.0388351,671,1149,-36.3006,-0.691224
-546,-125,-36.3135,0.612793,0.00161516,-0.000468848,-0.000678668,0.00181669,-0.000670371,-0.288647,0.00148587,0.0370859,678,1149,-36.3135,-0.612842
-539,-125,-36.1923,0.705933,0.00191673,-0.000972773,-0.000575926,0.00202729,-0.00108333,-0.189664,0.00182328,0.040776,685,1149,-36.1923,-0.705946
-532,-125,-36.2577,0.802734,0.00288621,-0.00203258,-0.000435671,0.0029245,-0.00207087,-0.0876634,0.00289808,0.0408836,692,1149,-36.2577,-0.802772
-525,-125,-36.3253,0.920654,0.00414967,-0.00338874,-0.000410492,0.00417196,-0.00341103,-0.0542396,0.00438538,0.0425866,699,1149,-36.3253,-0.920602
-518,-125,0,0,0,0,0,0,0,0,0,-1,706,1149,0,0
-511,-125,0,0,0,0,0,0,0,0,0,-1,713,1149,0,0
-504,-125,0,0,0,0,0,0,0,0,0,-1,720,1149,0,0
-497,-125,0,0,0,0,0,0,0,0,0,-1,727,1149,0,0
-490,-125,0,0,0,0,0,0,0,0,0,-1,734,1149,0,0
-483,-125,0,0,0,0,0,0,0,0,0,-1,741,1149,0,0
-476,-125,0,0,0,0,0,0,0,0,0,-1,748,1149,0,0
-469,-125,0,0,0,0,0,0,0,0,0,-1,755,1149,0,0
-462,-125,0,0,0,0,0,0,0,0,0,-1,762,1149,0,0
-455,-125,0,0,0,0,0,0,0,0,0,-1,769,1149,0,0
-448,-125,0,0,0,0,0,0,0,0,0,-1,776,1149,0,0
-441,-125,0,0,0,0,0,0,0,0,0,-1,783,1149,0,0
-434,-125,0,0,0,0,0,0,0,0,0,-1,790,1149,0,0
-427,-125,0,0,0,0,0,0,0,0,0,-1,797,1149,0,0
-420,-125,0,0,0,0,0,0,0,0,0,-1,804,1149,0,0
-413,-125,0,0,0,0,0,0,0,0,0,-1,811,1149,0,0
-406,-125,0,0,0,0,0,0,0,0,0,-1,818,1149,0,0
-399,-125,0,0,0,0,0,0,0,0,0,-1,825,1149,0,0
-392,-125,0,0,0,0,0,0,0,0,0,-1,832,1149,0,0
-385,-125,0,0,0,0,0,0,0,0,0,-1,839,1149,0,0
-378,-125,0,0,0,0,0,0,0,0,0,-1,846,1149,0,0
-371,-125,0,0,0,0,0,0,0,0,0,-1,853,1149,0,0
-364,-125,0,0,0,0,0,0,0,0,0,-1,860,1149,0,0
-357,-125,0,0,0,0,0,0,0,0,0,-1,867,1149,0,0
-350,-125,0,0,0,0,0,0,0,0,0,-1,874,1149,0,0
-343,-125,0,0,0,0,0,0,0,0,0,-1,881,1149,0,0
-336,-125,0,0,0,0,0,0,0,0,0,-1,888,1149,0,0
-329,-125,0,0,0,0,0,0,0,0,0,-1,895,1149,0,0
-322,-125,0,0,0,0,0,0,0,0,0,-1,902,1149,0,0
-315,-125,0,0,0,0,0,0,0,0,0,-1,909,1149,0,0
-308,-125,0,0,0,0,0,0,0,0,0,-1,916,1149,0,0
-301,-125,0,0,0,0,0,0,0,0,0,-1,923,1149,0,0
-294,-125,0,0,0,0,0,0,0,0,0,-1,930,1149,0,0
-287,-125,0,0,0,0,0,0,0,0,0,-1,937,1149,0,0
-280,-125,0,0,0,0,0,0,0,0,0,-1,944,1149,0,0
-273,-125,0,0,0,0,0,0,0,0,0,-1,951,1149,0,0
-266,-125,0,0,0,0,0,0,0,0,0,-1,958,1149,0,0
-259,-125,0,0,0,0,0,0,0,0,0,-1,965,1149,0,0
-252,-125,0,0,0,0,0,0,0,0,0,-1,972,1149,0,0
-245,-125,0,0,0,0,0,0,0,0,0,-1,979,1149,0,0
-238,-125,0,0,0,0,0,0,0,0,0,-1,986,1149,0,0
-231,-125,0,0,0,0,0,0,0,0,0,-1,993,1149,0,0
-224,-125,0,0,0,0,0,0,0,0,0,-1,1000,1149,0,0
-217,-125,0,0,0,0,0,0,0,0,0,-1,1007,1149,0,0
-210,-125,0,0,0,0,0,0,0,0,0,-1,1014,1149,0,0
-203,-125,0,0,0,0,0,0,0,0,0,-1,1021,1149,0,0
-196,-125,0,0,0,0,0,0,0,0,0,-1,1028,1149,0,0
-189,-125,0,0,0,0,0,0,0,0,0,-1,1035,1149,0,0
-182,-125,0,0,0,0,0,0,0,0,0,-1,1042,1149,0,0
-175,-125,0,0,0,0,0,0,0,0,0,-1,1049,1149,0,0
-168,-125,0,0,0,0,0,0,0,0,0,-1,1056,1149,0,0
-161,-125,0,0,0,0,0,0,0,0,0,-1,1063,1149,0,0
-154,-125,0,0,0,0,0,0,0,0,0,-1,1070,1149,0,0
-147,-125,0,0,0,0,0,0,0,0,0,-1,1077,1149,0,0
-140,-125,0,0,0,0,0,0,0,0,0,-1,1084,1149,0,0
-133,-125,0,0,0,0,0,0,0,0,0,-1,1091,1149,0,0
-126,-125,0,0,0,0,0,0,0,0,0,-1,1098,1149,0,0
-119,-125,0,0,0,0,0,0,0,0,0,-1,1105,1149,0,0
-112,-125,0,0,0,0,0,0,0,0,0,-1,1112,1149,0,0
-105,-125,0,0,0,0,0,0,0,0,0,-1,1119,1149,0,0
-98,-125,0,0,0,0,0,0,0,0,0,-1,1126,1149,0,0
-91,-125,0,0,0,0,0,0,0,0,0,-1,1133,1149,0,0
-84,-125,0,0,0,0,0,0,0,0,0,-1,1140,1149,0,0
-77,-125,0,0,0,0,0,0,0,0,0,-1,1147,1149,0,0
-70,-125,0,0,0,0,0,0,0,0,0,-1,1154,1149,0,0
-63,-125,0,0,0,0,0,0,0,0,0,-1,1161,1149,0,0
-56,-125,0,0,0,0,0,0,0,0,0,-1,1168,1149,0,0
-49,-125,0,0,0,0,0,0,0,0,0,-1,1175,1149,0,0
-42,-125,0,0,0,0,0,0,0,0,0,-1,1182,1149,0,0
-35,-125,0,0,0,0,0,0,0,0,0,-1,1189,1149,0,0
-28,-125,0,0,0,0,0,0,0,0,0,-1,1196,1149,0,0
-21,-125,0,0,0,0,0,0,0,0,0,-1,1203,1149,0,0
-14,-125,0,0,0,0,0,0,0,0,0,-1,1210,1149,0,0
-7,-125,0,0,0,0,0,0,0,0,0,-1,1217,1149,0,0
0,-125,0,0,0,0,0,0,0,0,0,-1,1224,1149,0,0
7,-125,0,0,0,0,0,0,0,0,0,-1,1231,1149,0,0
14,-125,0,0,0,0,0,0,0,0,0,-1,1238,1149,0,0
21,-125,0,0,0,0,0,0,0,0,0,-1,1245,1149,0,0
28,-125,0,0,0,0,0,0,0,0,0,-1,1252,1149,0,0
35,-125,0,0,0,0,0,0,0,0,0,-1,1259,1149,0,0
42,-125,0,0,0,0,0,0,0,0,0,-1,1266,1149,0,0
49,-125,0,0,0,0,0,0,0,0,0,-1,1273,1149,0,0
56,-125,0,0,0,0,0,0,0,0,0,-1,1280,1149,0,0
63,-125,0,0,0,0,0,0,0,0,0,-1,1287,1149,0,0
70,-125,0,0,0,0,0,0,0,0,0,-1,1294,1149,0,0
77,-125,0,0,0,0,0,0,0,0,0,-1,1301,1149,0,0
84,-125,0,0,0,0,0,0,0,0,0,-1,1308,1149,0,0
91,-125,0,0,0,0,0,0,0,0,0,-1,1315,1149,0,0
98,-125,0,0,0,0,0,0,0,0,0,-1,1322,1149,0,0
105,-125,0,0,0,0,0,0,0,0,0,-1,1329,1149,0,0
112,-125,0,0,0,0,0,0,0,0,0,-1,1336,1149,0,0
119,-125,0,0,0,0,0,0,0,0,0,-1,1343,1149,0,0
126,-125,0,0,0,0,0,0,0,0,0,-1,1350,1149,0,0
133,-125,0,0,0,0,0,0,0,0,0,-1,1357,1149,0,0
140,-125,0,0,0,0,0,0,0,0,0,-1,1364,1149,0,0
147,-125,0,0,0,0,0,0,0,0,0,-1,1371,1149,0,0
154,-125,0,0,0,0,0,0,0,0,0,-1,1378,1149,0,0
161,-125,0,0,0,0,0,0,0,0,0,-1,1385,1149,0,0
168,-125,0,0,0,0,0,0,0,0,0,-1,1392,1149,0,0
175,-125,0,0,0,0,0,0,0,0,0,-1,1399,1149,0,0
182,-125,0,0,0,0,0,0,0,0,0,-1,1406,1149,0,0
189,-125,0,0,0,0,0,0,0,0,0,-1,1413,1149,0,0
196,-125,0,0,0,0,0,0,0,0,0,-1,1420,1149,0,0
203,-125,0,0,0,0,0,0,0,0,0,-1,1427,1149,0,0
210,-125,0,0,0,0,0,0,0,0,0,-1,1434,1149,0,0
217,-125,0,0,0,0,0,0,0,0,0,-1,1441,1149,0,0
224,-125,0,0,0,0,0,0,0,0,0,-1,1448,1149,0,0
231,-125,0,0,0,0,0,0,0,0,0,-1,1455,1149,0,0
238,-125,0,0,0,0,0,0,0,0,0,-1,1462,1149,0,0
245,-125,0,0,0,0,0,0,0,0,0,-1,1469,1149,0,0
252,-125,0,0,0,0,0,0,0,0,0,-1,1476,1149,0,0
259,-125,0,0,0,0,0,0,0,0,0,-1,1483,1149,0,0
266,-125,0,0,0,0,0,0,0,0,0,-1,1490,1149,0,0
273,-125,0,0,0,0,0,0,0,0,0,-1,1497,1149,0,0
280,-125,0,0,0,0,0,0,0,0,0,-1,1504,1149,0,0
287,-125,0,0,0,0,0,0,0,0,0,-1,1511,1149,0,0
294,-125,0,0,0,0,0,0,0,0,0,-1,1518,1149,0,0
301,-125,0,0,0,0,0,0,0,0,0,-1,1525,1149,0,0
308,-125,0,0,0,0,0,0,0,0,0,-1,1532,1149,0,0
315,-125,0,0,0,0,0,0,0,0,0,-1,1539,1149,0,0
322,-125,0,0,0,0,0,0,0,0,0,-1,1546,1149,0,0
329,-125,0,0,0,0,0,0,0,0,0,-1,1553,1149,0,0
336,-125,0,0,0,0,0,0,0,0,0,-1,1560,1149,0,0
343,-125,0,0,0,0,0,0,0,0,0,-1,1567,1149,0,0
350,-125,0,0,0,0,0,0,0,0,0,-1,1574,1149,0,0
357,-125,0,0,0,0,0,0,0,0,0,-1,1581,1149,0,0
364,-125,0,0,0,0,0,0,0,0,0,-1,1588,1149,0,0
371,-125,0,0,0,0,0,0,0,0,0,-1,1595,1149,0,0
378,-125,0,0,0,0,0,0,0,0,0,-1,1602,1149,0,0
385,-125,0,0,0,0,0,0,0,0,0,-1,1609,1149,0,0
392,-125,0,0,0,0,0,0,0,0,0,-1,1616,1149,0,0
399,-125,0,0,0,0,0,0,0,0,0,-1,1623,1149,0,0
406,-125,0,0,0,0,0,0,0,0,0,-1,1630,1149,0,0
413,-125,0,0,0,0,0,0,0,0,0,-1,1637,1149,0,0
420,-125,0,0,0,0,0,0,0,0,0,-1,1644,1149,0,0
427,-125,0,0,0,0,0,0,0,0,0,-1,1651,1149,0,0
434,-125,0,0,0,0,0,0,0,0,0,-1,1658,1149,0,0
441,-125,0,0,0,0,0,0,0,0,0,-1,1665,1149,0,0
448,-125,0,0,0,0,0,0,0,0,0,-1,1672,1149,0,0
455,-125,0,0,0,0,0,0,0,0,0,-1,1679,1149,0,0
462,-125,0,0,0,0,0,0,0,0,0,-1,1686,1149,0,0
469,-125,0,0,0,0,0,0,0,0,0,-1,1693,1149,0,0
476,-125,0,0,0,0,0,0,0,0,0,-1,1700,1149,0,0
483,-125,0,0,0,0,0,0,0,0,0,-1,1707,1149,0,0
490,-125,0,0,0,0,0,0,0,0,0,-1,1714,1149,0,0
497,-125,0,0,0,0,0,0,0,0,0,-1,1721,1149,0,0
504,-125,0,0,0,0,0,0,0,0,0,-1,1728,1149,0,0
511,-125,0,0,0,0,0,0,0,0,0,-1,1735,1149,0,0
518,-125,0,0,0,0,0,0,0,0,0,-1,1742,1149,0,0
525,-125,0,0,0,0,0,0,0,0,0,-1,1749,1149,0,0
532,-125,0,0,0,0,0,0,0,0,0,-1,1756,1149,0,0
539,-125,0,0,0,0,0,0,0,0,0,-1,1763,1149,0,0
546,-125,0,0,0,0,0,0,0,0,0,-1,1770,1149,0,0
553,-125,0,0,0,0,0,0,0,0,0,-1,1777,1149,0,0
560,-125,0,0,0,0,0,0,0,0,0,-1,1784,1149,0,0
567,-125,0,0,0,0,0,0,0,0,0,-1,1791,1149,0,0
574,-125,0,0,0,0,0,0,0,0,0,-1,1798,1149,0,0
581,-125,0,0,0,0,0,0,0,0,0,-1,1805,1149,0,0
588,-125,0,0,0,0,0,0,0,0,0,-1,1812,1149,0,0
595,-125,0,0,0,0,0,0,0,0,0,-1,1819,1149,0,0
602,-125,0,0,0,0,0,0,0,0,0,-1,1826,1149,0,0
609,-125,0,0,0,0,0,0,0,0,0,-1,1833,1149,0,0
616,-125,0,0,0,0,0,0,0,0,0,-1,1840,1149,0,0
623,-125,0,0,0,0,0,0,0,0,0,-1,1847,1149,0,0
630,-125,0,0,0,0,0,0,0,0,0,-1,1854,1149,0,0
637,-125,0,0,0,0,0,0,0,0,0,-1,1861,1149,0,0
644,-125,48.9952,2.7887,-0.000195673,-0.000235831,-0.003904,0.0036883,-0.0041198,-0.782827,0.0045103,0.0436812,1868,1149,48.9952,-2.78868
651,-125,48.8219,2.47388,-0.000173045,-0.00053169,-0.00279318,0.00244657,-0.0031513,-0.753342,0.00324046,0.0402103,1875,1149,48.8219,-2.47392
658,-125,48.7037,2.56738,0.000273943,-0.00076423,-0.00197546,0.00179738,-0.00228766,-0.656919,0.00236415,0.0424793,1882,1149,48.7037,-2.56732
665,-125,48.8044,2.5188,0.000771341,-0.000899871,-0.00138592,0.00155407,-0.0016826,-0.514115,0.00186919,0.0421116,1889,1149,48.8044,-2.51877
672,-125,48.8898,2.61646,0.00120604,-0.000911657,-0.00101855,0.00161641,-0.00132203,-0.383001,0.00169934,0.0415726,1896,1149,48.8898,-2.61648
679,-125,48.8896,2.8009,0.00127361,-0.000985361,-0.0006597,0.00145215,-0.00116391,-0.264312,0.00151344,0.0363414,1903,1149,48.8896,-2.80094
686,-125,48.8419,2.75488,0.00126003,-0.00100962,-0.000478162,0.00135665,-0.00110625,-0.199389,0.0014244,0.0342335,1910,1149,48.8419,-2.75486
693,-125,48.8177,2.58533,0.0011736,-0.000948845,-0.000336033,0.00122553,-0.00100078,-0.153329,0.00128754,0.0293568,1917,1149,48.8177,-2.5853
700,-125,48.9338,2.625,0.0010309,-0.000974904,-4.48884e-05,0.0010319,-0.000975908,-0.0223643,0.00115936,0.0127231,1924,1149,48.9338,-2.62505
707,-125,49.0802,2.76208,0,0,0,0,0,0,0,-1,1931,1149,49.0802,-2.76206
714,-125,44.4093,7.73145,0,0,0,0,0,0,0,-1,1938,1149,44.4092,-7.73147
721,-125,44.3158,7.32361,0.000103133,-0.000467731,0.000645522,0.000523513,-0.00088811,0.577235,0.000824013,0.0303146,1945,1149,44.3158,-7.32355
728,-125,44.2922,6.96924,0.000150879,-0.000285562,0.000784283,0.000746735,-0.000881417,0.649709,0.000941085,0.0211289,1952,1149,44.2923,-6.96926
735,-125,44.3003,6.61951,0.00124484,0.000127389,0.0012521,0.00205722,-0.000684992,0.575541,0.00164797,0.0212108,1959,1149,44.3003,-6.61951
742,-125,44.2871,6.22949,0.0021925,0.000454966,0.00106972,0.0027018,-5.43302e-05,0.444347,0.00181958,0.0261403,1966,1149,44.2871,-6.22954
749,-125,44.2281,5.8783,0.0029181,0.00131481,0.000470054,0.00304574,0.00118716,0.265165,0.00177265,0.0250961,1973,1149,44.2281,-5.87826
756,-125,44.2072,5.50342,0.0047187,0.00271699,-0.000973788,0.00511426,0.00232143,-0.385846,0.0029569,0.0218309,1980,1149,44.2072,-5.50341
763,-125,44.2429,5.12097,0.00805994,0.00457697,-0.00362004,0.0103356,0.00230131,-0.561204,0.00626579,0.0126284,1987,1149,44.2429,-5.12097
770,-125,44.1843,4.75476,0.0117493,0.00678801,-0.00743279,0.0171045,0.00143284,-0.624338,0.0109566,0.0161368,1994,1149,44.1843,-4.75477
777,-125,44.0814,4.49304,0.0154361,0.00932072,-0.0124375,0.0251863,-0.000429443,-0.664866,0.0169358,0.0290438,2001,1149,44.0814,-4.49301
784,-125,44.187,4.14685,0.0189171,0.0122773,-0.0191174,0.0350007,-0.0038063,-0.699425,0.0247005,0.0432059,2008,1149,44.1869,-4.14691
791,-125,44.3752,3.70581,0.0218601,0.0158553,-0.0282687,0.0472854,-0.00956999,-0.732492,0.0351506,0.0477942,2015,1149,44.3752,-3.70581
798,-125,44.5408,3.14648,0.0233346,0.0202153,-0.0406041,0.062409,-0.0188591,-0.766202,0.0491145,0.0470214,2022,1149,44.5407,-3.14653
805,-125,45.0273,2.63037,0,0,0,0,0,0,0,-1,2029,1149,45.0274,-2.63042
812,-125,45.3445,2.14709,0,0,0,0,0,0,0,-1,2036,1149,45.3444,-2.14707
-700,-132,0,0,0,0,0,0,0,0,0,-1,524,1156,0,0
-693,-132,-34.1824,-7.73584,0.105843,0.0836428,0.0493041,0.145281,0.0442048,0.674676,0.0859936,0.047953,531,1156,-34.1824,7.73589
-686,-132,-33.4574,-6.65271,0.0881737,0.0678377,0.0399092,0.11919,0.0368216,0.660663,0.0704692,0.0482319,538,1156,-33.4574,6.65266
-679,-132,-32.6985,-5.55518,0.0721857,0.0549144,0.0318428,0.0965431,0.030557,0.652984,0.0569765,0.0481563,545,1156,-32.6985,5.55518
-672,-132,-31.975,-4.20837,0,0,0,0,0,0,0,-1,552,1156,-31.975,4.20832
-665,-132,-31.347,-2.59949,0,0,0,0,0,0,0,-1,559,1156,-31.347,2.59947
-658,-132,-30.5657,0.643311,0,0,0,0,0,0,0,-1,566,1156,-30.5657,-0.64328
-651,-132,-30.7546,1.13464,0.0237824,0.0179339,0.00941807,0.0307198,0.0109966,0.634872,0.017973,0.0440495,573,1156,-30.7547,-1.13461
-644,-132,-31.0217,1.58545,0.0156323,0.0117517,0.00588164,0.0198854,0.00749854,0.626072,0.0115959,0.0238782,580,1156,-31.0217,-1.5854
-637,-132,-31.0737,2.00452,0.00840886,0.00610122,0.00267987,0.0101727,0.00433733,0.582117,0.00589443,0.0131919,587,1156,-31.0737,-2.00451
-630,-132,-31.0632,2.40515,0.00326551,0.00180684,0.000533525,0.00343982,0.00163252,0.315785,0.00198683,0.0107182,594,1156,-31.0632,-2.4052
-623,-132,-31.0631,2.84009,0.000751526,-0.000110859,-0.000532872,0.00100581,-0.000365144,-0.44524,0.000819824,0.0153555,601,1156,-31.0631,-2.84009
-616,-132,-31.0903,3.19141,0.000689309,-0.000245597,-0.000583799,0.000969742,-0.00052603,-0.447812,0.000876159,0.029411,608,1156,-31.0903,-3.19141
-609,-132,-31.1871,3.79541,0,0,0,0,0,0,0,-1,615,1156,-31.1872,-3.79542
-602,-132,-31.1535,4.02869,0.00113929,-0.000422864,-0.000799677,0.00147606,-0.000759626,-0.398581,0.00131268,0.0302042,622,1156,-31.1535,-4.02874
-595,-132,-31.2827,4.44739,0.000981183,-0.000172414,-0.000942992,0.00150979,-0.000701025,-0.510921,0.00130458,0.0426135,629,1156,-31.2827,-4.44744
-588,-132,-31.1339,4.9928,0,0,0,0,0,0,0,-1,636,1156,-31.1339,-4.99284
-581,-132,-30.7826,5.61279,0,0,0,0,0,0,0,-1,643,1156,-30.7826,-5.61285
-574,-132,-33.2071,2.86963,0,0,0,0,0,0,0,-1,650,1156,-33.2071,-2.86963
-567,-132,-36.3047,0.897461,0,0,0,0,0,0,0,-1,657,1156,-36.3048,-0.897476
-560,-132,-36.3452,0.749512,0.00178942,-0.000775489,-0.000404506,0.0018517,-0.00083777,-0.152769,0.00158913,0.0370991,664,1156,-36.3452,-0.749543
-553,-132,-36.3887,0.635742,0.00165793,-0.000686182,-0.000487632,0.00175532,-0.000783575,-0.197132,0.00150119,0.0387144,671,1156,-36.3887,-0.635798
-546,-132,-36.4795,0.518188,0.00155977,-0.000695182,-0.000514936,0.00167179,-0.000807206,-0.214213,0.00145998,0.0391606,678,1156,-36.4795,-0.518156
-539,-132,-36.4598,0.628418,0.00216091,-0.00102551,-0.000209079,0.00217457,-0.00103917,-0.0652429,0.00189366,0.0397098,685,1156,-36.4598,-0.628475
-532,-132,-36.2994,0.681885,0.00347349,-0.00196718,0.000169488,0.00347876,-0.00197245,0.0311118,0.00318706,0.0378372,692,1156,-36.2994,-0.681874
-525,-132,-36.1433,0.904541,0.0052715,-0.00324696,0.000425278,0.00529268,-0.00326814,0.0497593,0.00498845,0.0391435,699,1156,-36.1433,-0.904493
-518,-132,0,0,0,0,0,0,0,0,0,-1,706,1156,0,0
-511,-132,0,0,0,0,0,0,0,0,0,-1,713,1156,0,0
-504,-132,0,0,0,0,0,0,0,0,0,-1,720,1156,0,0
-497,-132,0,0,0,0,0,0,0,0,0,-1,727,1156,0,0
-490,-132,0,0,0,0,0,0,0,0,0,-1,734,1156,0,0
-483,-132,0,0,0,0,0,0,0,0,0,-1,741,1156,0,0
-476,-132,0,0,0,0,0,0,0,0,0,-1,748,1156,0,0
-469,-132,0,0,0,0,0,0,0,0,0,-1,755,1156,0,0
-462,-132,0,0,0,0,0,0,0,0,0,-1,762,1156,0,0
-455,-132,0,0,0,0,0,0,0,0,0,-1,769,1156,0,0
-448,-132,0,0,0,0,0,0,0,0,0,-1,776,1156,0,0
-441,-132,0,0,0,0,0,0,0,0,0,-1,783,1156,0,0
-434,-132,0,0,0,0,0,0,0,0,0,-1,790,1156,0,0
-427,-132,0,0,0,0,0,0,0,0,0,-1,797,1156,0,0
-420,-132,0,0,0,0,0,0,0,0,0,-1,804,1156,0,0
-413,-132,0,0,0,0,0,0,0,0,0,-1,811,1156,0,0
-406,-132,0,0,0,0,0,0,0,0,0,-1,818,1156,0,0
-399,-132,0,0,0,0,0,0,0,0,0,-1,825,1156,0,0
-392,-132,0,0,0,0,0,0,0,0,0,-1,832,1156,0,0
-385,-132,0,0,0,0,0,0,0,0,0,-1,839,1156,0,0
-378,-132,0,0,0,0,0,0,0,0,0,-1,846,1156,0,0
-371,-132,0,0,0,0,0,0,0,0,0,-1,853,1156,0,0
-364,-132,0,0,0,0,0,0,0,0,0,-1,860,1156,0,0
-357,-132,0,0,0,0,0,0,0,0,0,-1,867,1156,0,0
-350,-132,0,0,0,0,0,0,0,0,0,-1,874,1156,0,0
-343,-132,0,0,0,0,0,0,0,0,0,-1,881,1156,0,0
-336,-132,0,0,0,0,0,0,0,0,0,-1,888,1156,0,0
-329,-132,0,0,0,0,0,0,0,0,0,-1,895,1156,0,0
-322,-132,0,0,0,0,0,0,0,0,0,-1,902,1156,0,0
-315,-132,0,0,0,0,0,0,0,0,0,-1,909,1156,0,0
-308,-132,0,0,0,0,0,0,0,0,0,-1,916,1156,0,0
-301,-132,0,0,0,0,0,0,0,0,0,-1,923,1156,0,0
-294,-132,0,0,0,0,0,0,0,0,0,-1,930,1156,0,0
-287,-132,0,0,0,0,0,0,0,0,0,-1,937,1156,0,0
-280,-132,0,0,0,0,0,0,0,0,0,-1,944,1156,0,0
-273,-132,0,0,0,0,0,0,0,0,0,-1,951,1156,0,0
-266,-132,0,0,0,0,0,0,0,0,0,-1,958,1156,0,0
-259,-132,0,0,0,0,0,0,0,0,0,-1,965,1156,0,0
-252,-132,0,0,0,0,0,0,0,0,0,-1,972,1156,0,0
-245,-132,0,0,0,0,0,0,0,0,0,-1,979,1156,0,0
-238,-132,0,0,0,0,0,0,0,0,0,-1,986,1156,0,0
-231,-132,0,0,0,0,0,0,0,0,0,-1,993,1156,0,0
-224,-132,0,0,0,0,0,0,0,0,0,-1,1000,1156,0,0
-217,-132,0,0,0,0,0,0,0,0,0,-1,1007,1156,0,0
-210,-132,0,0,0,0,0,0,0,0,0,-1,1014,1156,0,0
-203,-132,0,0,0,0,0,0,0,0,0,-1,1021,1156,0,0
-196,-132,0,0,0,0,0,0,0,0,0,-1,1028,1156,0,0
-189,-132,0,0,0,0,0,0,0,0,0,-1,1035,1156,0,0
-182,-132,0,0,0,0,0,0,0,0,0,-1,1042,1156,0,0
-175,-132,0,0,0,0,0,0,0,0,0,-1,1049,1156,0,0
-168,-132,0,0,0,0,0,0,0,0,0,-1,1056,1156,0,0
-161,-132,0,0,0,0,0,0,0,0,0,-1,1063,1156,0,0
-154,-132,0,0,0,0,0,0,0,0,0,-1,1070,1156,0,0
-147,-132,0,0,0,0,0,0,0,0,0,-1,1077,1156,0,0
-140,-132,0,0,0,0,0,0,0,0,0,-1,1084,1156,0,0
-133,-132,0,0,0,0,0,0,0,0,0,-1,1091,1156,0,0
-126,-132,0,0,0,0,0,0,0,0,0,-1,1098,1156,0,0
-119,-132,0,0,0,0,0,0,0,0,0,-1,1105,1156,0,0
-112,-132,0,0,0,0,0,0,0,0,0,-1,1112,1156,0,0
-105,-132,0,0,0,0,0,0,0,0,0,-1,1119,1156,0,0
-98,-132,0,0,0,0,0,0,0,0,0,-1,1126,1156,0,0
-91,-132,0,0,0,0,0,0,0,0,0,-1,1133,1156,0,0
-84,-132,0,0,0,0,0,0,0,0,0,-1,1140,1156,0,0
-77,-132,0,0,0,0,0,0,0,0,0,-1,1147,1156,0,0
-70,-132,0,0,0,0,0,0,0,0,0,-1,1154,1156,0,0
-63,-132,0,0,0,0,0,0,0,0,0,-1,1161,1156,0,0
-56,-132,0,0,0,0,0,0,0,0,0,-1,1168,1156,0,0
-49,-132,0,0,0,0,0,0,0,0,0,-1,1175,1156,0,0
-42,-132,0,0,0,0,0,0,0,0,0,-1,1182,1156,0,0
-35,-132,0,0,0,0,0,0,0,0,0,-1,1189,1156,0,0
-28,-132,0,0,0,0,0,0,0,0,0,-1,1196,1156,0,0
-21,-132,0,0,0,0,0,0,0,0,0,-1,1203,1156,0,0
-14,-132,0,0,0,0,0,0,0,0,0,-1,1210,1156,0,0
-7,-132,0,0,0,0,0,0,0,0,0,-1,1217,1156,0,0
0,-132,0,0,0,0,0,0,0,0,0,-1,1224,1156,0,0
7,-132,0,0,0,0,0,0,0,0,0,-1,1231,1156,0,0
14,-132,0,0,0,0,0,0,0,0,0,-1,1238,1156,0,0
21,-132,0,0,0,0,0,0,0,0,0,-1,1245,1156,0,0
28,-132,0,0,0,0,0,0,0,0,0,-1,1252,1156,0,0
35,-132,0,0,0,0,0,0,0,0,0,-1,1259,1156,0,0
42,-132,0,0,0,0,0,0,0,0,0,-1,1266,1156,0,0
49,-132,0,0,0,0,0,0,0,0,0,-1,1273,1156,0,0
56,-132,0,0,0,0,0,0,0,0,0,-1,1280,1156,0,0
63,-132,0,0,0,0,0,0,0,0,0,-1,1287,1156,0,0
70,-132,0,0,0,0,0,0,0,0,0,-1,1294,1156,0,0
77,-132,0,0,0,0,0,0,0,0,0,-1,1301,1156,0,0
84,-132,0,0,0,0,0,0,0,0,0,-1,1308,1156,0,0
91,-132,0,0,0,0,0,0,0,0,0,-1,1315,1156,0,0
98,-132,0,0,0,0,0,0,0,0,0,-1,1322,1156,0,0
105,-132,0,0,0,0,0,0,0,0,0,-1,1329,1156,0,0
112,-132,0,0,0,0,0,0,0,0,0,-1,1336,1156,0,0
119,-132,0,0,0,0,0,0,0,0,0,-1,1343,1156,0,0
126,-132,0,0,0,0,0,0,0,0,0,-1,1350,1156,0,0
133,-132,0,0,0,0,0,0,0,0,0,-1,1357,1156,0,0
140,-132,0,0,0,0,0,0,0,0,0,-1,1364,1156,0,0
147,-132,0,0,0,0,0,0,0,0,0,-1,1371,1156,0,0
154,-132,0,0,0,0,0,0,0,0,0,-1,1378,1156,0,0
161,-132,0,0,0,0,0,0,0,0,0,-1,1385,1156,0,0
168,-132,0,0,0,0,0,0,0,0,0,-1,1392,1156,0,0
175,-132,0,0,0,0,0,0,0,0,0,-1,1399,1156,0,0
182,-132,0,0,0,0,0,0,0,0,0,-1,1406,1156,0,0
189,-132,0,0,0,0,0,0,0,0,0,-1,1413,1156,0,0
196,-132,0,0,0,0,0,0,0,0,0,-1,1420,1156,0,0
203,-132,0,0,0,0,0,0,0,0,0,-1,1427,1156,0,0
210,-132,0,0,0,0,0,0,0,0,0,-1,1434,1156,0,0
217,-132,0,0,0,0,0,0,0,0,0,-1,1441,1156,0,0
224,-132,0,0,0,0,0,0,0,0,0,-1,1448,1156,0,0
231,-132,0,0,0,0,0,0,0,0,0,-1,1455,1156,0,0
238,-132,0,0,0,0,0,0,0,0,0,-1,1462,1156,0,0
245,-132,0,0,0,0,0,0,0,0,0,-1,1469,1156,0,0
252,-132,0,0,0,0,0,0,0,0,0,-1,1476,1156,0,0
259,-132,0,0,0,0,0,0,0,0,0,-1,1483,1156,0,0
266,-132,0,0,0,0,0,0,0,0,0,-1,1490,1156,0,0
273,-132,0,0,0,0,0,0,0,0,0,-1,1497,1156,0,0
280,-132,0,0,0,0,0,0,0,0,0,-1,1504,1156,0,0
287,-132,0,0,0,0,0,0,0,0,0,-1,1511,1156,0,0
294,-132,0,0,0,0,0,0,0,0,0,-1,1518,1156,0,0
301,-132,0,0,0,0,0,0,0,0,0,-1,1525,1156,0,0
308,-132,0,0,0,0,0,0,0,0,0,-1,1532,1156,0,0
315,-132,0,0,0,0,0,0,0,0,0,-1,1539,1156,0,0
322,-132,0,0,0,0,0,0,0,0,0,-1,1546,1156,0,0
329,-132,0,0,0,0,0,0,0,0,0,-1,1553,1156,0,0
336,-132,0,0,0,0,0,0,0,0,0,-1,1560,1156,0,0
343,-132,0,0,0,0,0,0,0,0,0,-1,1567,1156,0,0
350,-132,0,0,0,0,0,0,0,0,0,-1,1574,1156,0,0
357,-132,0,0,0,0,0,0,0,0,0,-1,1581,1156,0,0
364,-132,0,0,0,0,0,0,0,0,0,-1,1588,1156,0,0
371,-132,0,0,0,0,0,0,0,0,0,-1,1595,1156,0,0
378,-132,0,0,0,0,0,0,0,0,0,-1,1602,1156,0,0
385,-132,0,0,0,0,0,0,0,0,0,-1,1609,1156,0,0
392,-132,0,0,0,0,0,0,0,0,0,-1,1616,1156,0,0
399,-132,0,0,0,0,0,0,0,0,0,-1,1623,1156,0,0
406,-132,0,0,0,0,0,0,0,0,0,-1,1630,1156,0,0
413,-132,0,0,0,0,0,0,0,0,0,-1,1637,1156,0,0
420,-132,0,0,0,0,0,0,0,0,0,-1,1644,1156,0,0
427,-132,0,0,0,0,0,0,0,0,0,-1,1651,1156,0,0
434,-132,0,0,0,0,0,0,0,0,0,-1,1658,1156,0,0
441,-132,0,0,0,0,0,0,0,0,0,-1,1665,1156,0,0
448,-132,0,0,0,0,0,0,0,0,0,-1,1672,1156,0,0
455,-132,0,0,0,0,0,0,0,0,0,-1,1679,1156,0,0
462,-132,0,0,0,0,0,0,0,0,0,-1,1686,1156,0,0
469,-132,0,0,0,0,0,0,0,0,0,-1,1693,1156,0,0
476,-132,0,0,0,0,0,0,0,0,0,-1,1700,1156,0,0
483,-132,0,0,0,0,0,0,0,0,0,-1,1707,1156,0,0
490,-132,0,0,0,0,0,0,0,0,0,-1,1714,1156,0,0
497,-132,0,0,0,0,0,0,0,0,0,-1,1721,1156,0,0
504,-132,0,0,0,0,0,0,0,0,0,-1,1728,1156,0,0
511,-132,0,0,0,0,0,0,0,0,0,-1,1735,1156,0,0
518,-132,0,0,0,0,0,0,0,0,0,-1,1742,1156,0,0
525,-132,0,0,0,0,0,0,0,0,0,-1,1749,1156,0,0
532,-132,0,0,0,0,0,0,0,0,0,-1,1756,1156,0,0
539,-132,0,0,0,0,0,0,0,0,0,-1,1763,1156,0,0
546,-132,0,0,0,0,0,0,0,0,0,-1,1770,1156,0,0
553,-132,0,0,0,0,0,0,0,0,0,-1,1777,1156,0,0
560,-132,0,0,0,0,0,0,0,0,0,-1,1784,1156,0,0
567,-132,0,0,0,0,0,0,0,0,0,-1,1791,1156,0,0
574,-132,0,0,0,0,0,0,0,0,0,-1,1798,1156,0,0
581,-132,0,0,0,0,0,0,0,0,0,-1,1805,1156,0,0
588,-132,0,0,0,0,0,0,0,0,0,-1,1812,1156,0,0
595,-132,0,0,0,0,0,0,0,0,0,-1,1819,1156,0,0
602,-132,0,0,0,0,0,0,0,0,0,-1,1826,1156,0,0
609,-132,0,0,0,0,0,0,0,0,0,-1,1833,1156,0,0
616,-132,0,0,0,0,0,0,0,0,0,-1,1840,1156,0,0
623,-132,0,0,0,0,0,0,0,0,0,-1,1847,1156,0,0
630,-132,0,0,0,0,0,0,0,0,0,-1,1854,1156,0,0
637,-132,0,0,0,0,0,0,0,0,0,-1,1861,1156,0,0
644,-132,49.0931,2.55981,-0.000480374,-0.000410847,-0.00340499,0.00295955,-0.00385077,-0.790503,0.00394315,0.0410067,1868,1156,49.0932,-2.55979
651,-132,48.9889,2.4447,-0.000371035,-0.000612605,-0.00238894,0.00190017,-0.00288381,-0.76014,0.00278142,0.0404729,1875,1156,48.9889,-2.44466
658,-132,48.7314,2.46594,0.000120201,-0.000735117,-0.00164702,0.00139418,-0.0020091,-0.658375,0.00197554,0.0404917,1882,1156,48.7314,-2.46595
665,-132,48.7805,2.56665,0.000679143,-0.000746686,-0.00113842,0.00130945,-0.00137699,-0.505655,0.00155118,0.040213,1889,1156,48.7806,-2.56667
672,-132,48.8601,2.7373,0.00113375,-0.000620706,-0.000839838,0.00147096,-0.000957915,-0.381812,0.0014127,0.0379456,1896,1156,48.8601,-2.73733
679,-132,48.8912,2.80774,0.00123552,-0.000596262,-0.000517573,0.00137164,-0.000732387,-0.257183,0.00123331,0.0349592,1903,1156,48.8912,-2.80776
686,-132,48.9087,2.77686,0.00119736,-0.000583392,-0.000366969,0.00127002,-0.000656051,-0.195468,0.00113069,0.0335945,1910,1156,48.9087,-2.77682
693,-132,48.8643,2.64978,0.00107107,-0.000511204,-0.000237353,0.00110591,-0.000546042,-0.145736,0.00097184,0.0264642,1917,1156,48.8643,-2.64973
700,-132,48.9476,2.64258,0.000927376,-0.00056241,4.50253e-05,0.000928735,-0.000563769,0.030186,0.000870243,0.0378828,1924,1156,48.9476,-2.64259
707,-132,49.0282,2.63794,0,0,0,0,0,0,0,-1,1931,1156,49.0282,-2.63788
714,-132,43.9202,7.63806,0,0,0,0,0,0,0,-1,1938,1156,43.9202,-7.63803
721,-132,44.0033,7.28418,9.91157e-05,-0.000171442,0.00062255,0.000600915,-0.000673241,0.678412,0.000736029,0.0362953,1945,1156,44.0033,-7.28424
728,-132,43.9246,6.96704,0.000207269,-6.78403e-05,0.000815941,0.000897168,-0.00075774,0.701891,0.000956591,0.0270417,1952,1156,43.9246,-6.96701
735,-132,43.8896,6.67041,0.0014143,0.000199301,0.00133682,0.00227518,-0.000661576,0.572129,0.0017788,0.0270758,1959,1156,43.8896,-6.67036
742,-132,43.8872,6.22998,0.00232366,0.000438095,0.00111435,0.00284054,-7.8788e-05,0.434304,0.0019205,0.0218054,1966,1156,43.8872,-6.22993
749,-132,43.8311,5.85767,0.00316857,0.00131419,0.000350328,0.00323255,0.00125021,0.180628,0.0018822,0.0254676,1973,1156,43.831,-5.85771
756,-132,43.7971,5.48645,0.00523714,0.00286441,-0.00157769,0.00602475,0.0020768,-0.463021,0.00353387,0.023822,1980,1156,43.7971,-5.48648
763,-132,43.8314,5.12683,0.0087872,0.0049425,-0.00492786,0.0121544,0.00157531,-0.599428,0.00763221,0.0142416,1987,1156,43.8314,-5.12681
770,-132,43.8126,4.77014,0.0124821,0.00742732,-0.00960953,0.019891,1.83592e-05,-0.656807,0.0132546,0.014897,1994,1156,43.8127,-4.77011
777,-132,43.7311,4.36279,0.0159656,0.0103292,-0.0157083,0.0291065,-0.00281167,-0.696637,0.0204062,0.0241857,2001,1156,43.7311,-4.36285
784,-132,43.7876,3.91553,0.018933,0.0137854,-0.0237606,0.0402588,-0.00754038,-0.731447,0.0296737,0.0434774,2008,1156,43.7875,-3.91557
791,-132,44.3025,3.90613,0.0208752,0.0180425,-0.0346032,0.0540911,-0.0151733,-0.764944,0.0420413,0.0477209,2015,1156,44.3025,-3.90612
798,-132,44.1628,3.45911,0.0206614,0.0232827,-0.0489253,0.0709149,-0.0269709,-0.798789,0.0583818,0.0491603,2022,1156,44.1627,-3.45916
805,-132,43.9919,2.98865,0,0,0,0,0,0,0,-1,2029,1156,43.9919,-2.98864
812,-132,43.3916,0.622437,0,0,0,0,0,0,0,-1,2036,1156,43.3916,-0.622461
-700,-139,0,0,0,0,0,0,0,0,0,-1,524,1163,0,0
-693,-139,-33.9171,-8.45093,0,0,0,0,0,0,0,-1,531,1163,-33.9171,8.45092
-686,-139,-33.3318,-7.1803,0,0,0,0,0,0,0,-1,538,1163,-33.3318,7.18026
-679,-139,-32.6212,-6.2146,0,0,0,0,0,0,0,-1,545,1163,-32.6212,6.21459
-672,-139,-31.5033,-1.09546,0,0,0,0,0,0,0,-1,552,1163,-31.5033,1.09541
-665,-139,-31.4512,-0.675049,0,0,0,0,0,0,0,-1,559,1163,-31.4512,0.67509
-658,-139,-31.372,-0.215698,0,0,0,0,0,0,0,-1,566,1163,-31.372,0.215673
-651,-139,-30.9983,0.509399,0.0242402,0.00607325,0.00842194,0.0275438,0.0027697,0.373813,0.0175124,0.0398332,573,1163,-30.9983,-0.509446
-644,-139,-30.5823,1.54761,0.0164271,0.00307758,0.00504371,0.0181185,0.00138625,0.32355,0.0116444,0.0222636,580,1163,-30.5822,-1.54758
-637,-139,-30.6206,1.97473,0.00937817,0.000187053,0.00204599,0.00981304,-0.000247818,0.209432,0.00662618,0.0127685,587,1163,-30.6206,-1.97477
-630,-139,-30.6296,2.39502,0.00425607,-0.00144787,5.89732e-05,0.00425668,-0.00144848,0.0103376,0.00342431,0.0107978,594,1163,-30.6297,-2.39501
-623,-139,-30.6246,2.82654,0.00131674,-0.001221,-0.000845141,0.00157243,-0.00147669,-0.293792,0.0017607,0.0164908,601,1163,-30.6246,-2.82651
-616,-139,-30.6537,3.23132,0.000617332,-0.000391278,-0.000820898,0.00107646,-0.000850403,-0.509952,0.00111502,0.0187141,608,1163,-30.6538,-3.23131
-609,-139,-30.5071,3.66907,0.000615061,-0.000328883,-0.000864323,0.00112788,-0.000841701,-0.535491,0.00114113,0.0415111,615,1163,-30.5071,-3.66903
-602,-139,-30.6766,4.11584,0.000771539,-0.0004959,-0.00114037,0.00144244,-0.0011668,-0.531788,0.00150925,0.0357716,622,1163,-30.6766,-4.11588
-595,-139,-30.853,4.5304,0.000594117,-0.000299511,-0.00126877,0.00149245,-0.00119784,-0.616098,0.00155634,0.0414178,629,1163,-30.853,-4.53035
-588,-139,-31.0541,4.88416,0,0,0,0,0,0,0,-1,636,1163,-31.0541,-4.8841
-581,-139,-33.0325,3.93945,0,0,0,0,0,0,0,-1,643,1163,-33.0325,-3.9394
-574,-139,-23.0725,2.4043,0,0,0,0,0,0,0,-1,650,1163,-23.0725,-2.40433
-567,-139,-36.3082,0.859985,0,0,0,0,0,0,0,-1,657,1163,-36.3081,-0.859952
-560,-139,-36.3153,0.782593,0.00128573,-0.000983896,-0.000525226,0.00140138,-0.00109955,-0.216736,0.00144742,0.0361349,664,1163,-36.3153,-0.782612
-553,-139,-36.3229,0.71582,0.00122096,-0.000938226,-0.000567574,0.00136107,-0.00107833,-0.242009,0.00141154,0.0396617,671,1163,-36.3229,-0.715815
-546,-139,-36.3543,0.667114,0.00140015,-0.00102972,-0.000478503,0.00149099,-0.00112056,-0.187596,0.00151282,0.0408562,678,1163,-36.3543,-0.667107
-539,-139,-36.3629,0.769165,0.00236625,-0.00131265,2.76414e-05,0.00236646,-0.00131286,0.00751293,0.00215309,0.0403513,685,1163,-36.3629,-0.76911
-532,-139,-36.2659,0.644409,0.00409614,-0.0022283,0.000573007,0.00414764,-0.00227979,0.0896294,0.00376275,0.0369221,692,1163,-36.2659,-0.644466
-525,-139,-36.1183,0.61084,0.00654361,-0.00347122,0.000922886,0.00662794,-0.00355555,0.0911293,0.00596797,0.0396715,699,1163,-36.1183,-0.610809
-518,-139,0,0,0,0,0,0,0,0,0,-1,706,1163,0,0
-511,-139,0,0,0,0,0,0,0,0,0,-1,713,1163,0,0
-504,-139,0,0,0,0,0,0,0,0,0,-1,720,1163,0,0
-497,-139,0,0,0,0,0,0,0,0,0,-1,727,1163,0,0
-490,-139,0,0,0,0,0,0,0,0,0,-1,734,1163,0,0
-483,-139,0,0,0,0,0,0,0,0,0,-1,741,1163,0,0
-476,-139,0,0,0,0,0,0,0,0,0,-1,748,1163,0,0
-469,-139,0,0,0,0,0,0,0,0,0,-1,755,1163,0,0
-462,-139,0,0,0,0,0,0,0,0,0,-1,762,1163,0,0
-455,-139,0,0,0,0,0,0,0,0,0,-1,769,1163,0,0
-448,-139,0,0,0,0,0,0,0,0,0,-1,776,1163,0,0
-441,-139,0,0,0,0,0,0,0,0,0,-1,783,1163,0,0
-434,-139,0,0,0,0,0,0,0,0,0,-1,790,1163,0,0
-427,-139,0,0,0,0,0,0,0,0,0,-1,797,1163,0,0
-420,-139,0,0,0,0,0,0,0,0,0,-1,804,1163,0,0
-413,-139,0,0,0,0,0,0,0,0,0,-1,811,1163,0,0
-406,-139,0,0,0,0,0,0,0,0,0,-1,818,1163,0,0
-399,-139,0,0,0,0,0,0,0,0,0,-1,825,1163,0,0
-392,-139,0,0,0,0,0,0,0,0,0,-1,832,1163,0,0
-385,-139,0,0,0,0,0,0,0,0,0,-1,839,1163,0,0
-378,-139,0,0,0,0,0,0,0,0,0,-1,846,1163,0,0
-371,-139,0,0,0,0,0,0,0,0,0,-1,853,1163,0,0
-364,-139,0,0,0,0,0,0,0,0,0,-1,860,1163,0,0
-357,-139,0,0,0,0,0,0,0,0,0,-1,867,1163,0,0
-350,-139,0,0,0,0,0,0,0,0,0,-1,874,1163,0,0
-343,-139,0,0,0,0,0,0,0,0,0,-1,881,1163,0,0
-336,-139,0,0,0,0,0,0,0,0,0,-1,888,1163,0,0
-329,-139,0,0,0,0,0,0,0,0,0,-1,895,1163,0,0
-322,-139,0,0,0,0,0,0,0,0,0,-1,902,1163,0,0
-315,-139,0,0,0,0,0,0,0,0,0,-1,909,1163,0,0
-308,-139,0,0,0,0,0,0,0,0,0,-1,916,1163,0,0
-301,-139,0,0,0,0,0,0,0,0,0,-1,923,1163,0,0
-294,-139,0,0,0,0,0,0,0,0,0,-1,930,1163,0,0
-287,-139,0,0,0,0,0,0,0,0,0,-1,937,1163,0,0
-280,-139,0,0,0,0,0,0,0,0,0,-1,944,1163,0,0
-273,-139,0,0,0,0,0,0,0,0,0,-1,951,1163,0,0
-266,-139,0,0,0,0,0,0,0,0,0,-1,958,1163,0,0
-259,-139,0,0,0,0,0,0,0,0,0,-1,965,1163,0,0
-252,-139,0,0,0,0,0,0,0,0,0,-1,972,1163,0,0
-245,-139,0,0,0,0,0,0,0,0,0,-1,979,1163,0,0
-238,-139,0,0,0,0,0,0,0,0,0,-1,986,1163,0,0
-231,-139,0,0,0,0,0,0,0,0,0,-1,993,1163,0,0
-224,-139,0,0,0,0,0,0,0,0,0,-1,1000,1163,0,0
-217,-139,0,0,0,0,0,0,0,0,0,-1,1007,1163,0,0
-210,-139,0,0,0,0,0,0,0,0,0,-1,1014,1163,0,0
-203,-139,0,0,0,0,0,0,0,0,0,-1,1021,1163,0,0
-196,-139,0,0,0,0,0,0,0,0,0,-1,1028,1163,0,0
-189,-139,0,0,0,0,0,0,0,0,0,-1,1035,1163,0,0
-182,-139,0,0,0,0,0,0,0,0,0,-1,1042,1163,0,0
-175,-139,0,0,0,0,0,0,0,0,0,-1,1049,1163,0,0
-168,-139,0,0,0,0,0,0,0,0,0,-1,1056,1163,0,0
-161,-139,0,0,0,0,0,0,0,0,0,-1,1063,1163,0,0
-154,-139,0,0,0,0,0,0,0,0,0,-1,1070,1163,0,0
-147,-139,0,0,0,0,0,0,0,0,0,-1,1077,1163,0,0
-140,-139,0,0,0,0,0,0,0,0,0,-1,1084,1163,0,0
-133,-139,0,0,0,0,0,0,0,0,0,-1,1091,1163,0,0
-126,-139,0,0,0,0,0,0,0,0,0,-1,1098,1163,0,0
-119,-139,0,0,0,0,0,0,0,0,0,-1,1105,1163,0,0
-112,-139,0,0,0,0,0,0,0,0,0,-1,1112,1163,0,0
-105,-139,0,0,0,0,0,0,0,0,0,-1,1119,1163,0,0
-98,-139,0,0,0,0,0,0,0,0,0,-1,1126,1163,0,0
-91,-139,0,0,0,0,0,0,0,0,0,-1,1133,1163,0,0
-84,-139,0,0,0,0,0,0,0,0,0,-1,1140,1163,0,0
-77,-139,0,0,0,0,0,0,0,0,0,-1,1147,1163,0,0
-70,-139,0,0,0,0,0,0,0,0,0,-1,1154,1163,0,0
-63,-139,0,0,0,0,0,0,0,0,0,-1,1161,1163,0,0
-56,-139,0,0,0,0,0,0,0,0,0,-1,1168,1163,0,0
-49,-139,0,0,0,0,0,0,0,0,0,-1,1175,1163,0,0
-42,-139,0,0,0,0,0,0,0,0,0,-1,1182,1163,0,0
-35,-139,0,0,0,0,0,0,0,0,0,-1,1189,1163,0,0
-28,-139,0,0,0,0,0,0,0,0,0,-1,1196,1163,0,0
-21,-139,0,0,0,0,0,0,0,0,0,-1,1203,1163,0,0
-14,-139,0,0,0,0,0,0,0,0,0,-1,1210,1163,0,0
-7,-139,0,0,0,0,0,0,0,0,0,-1,1217,1163,0,0
0,-139,0,0,0,0,0,0,0,0,0,-1,1224,1163,0,0
7,-139,0,0,0,0,0,0,0,0,0,-1,1231,1163,0,0
14,-139,0,0,0,0,0,0,0,0,0,-1,1238,1163,0,0
21,-139,0,0,0,0,0,0,0,0,0,-1,1245,1163,0,0
28,-139,0,0,0,0,0,0,0,0,0,-1,1252,1163,0,0
35,-139,0,0,0,0,0,0,0,0,0,-1,1259,1163,0,0
42,-139,0,0,0,0,0,0,0,0,0,-1,1266,1163,0,0
49,-139,0,0,0,0,0,0,0,0,0,-1,1273,1163,0,0
56,-139,0,0,0,0,0,0,0,0,0,-1,1280,1163,0,0
63,-139,0,0,0,0,0,0,0,0,0,-1,1287,1163,0,0
70,-139,0,0,0,0,0,0,0,0,0,-1,1294,1163,0,0
77,-139,0,0,0,0,0,0,0,0,0,-1,1301,1163,0,0
84,-139,0,0,0,0,0,0,0,0,0,-1,1308,1163,0,0
91,-139,0,0,0,0,0,0,0,0,0,-1,1315,1163,0,0
98,-139,0,0,0,0,0,0,0,0,0,-1,1322,1163,0,0
105,-139,0,0,0,0,0,0,0,0,0,-1,1329,1163,0,0
112,-139,0,0,0,0,0,0,0,0,0,-1,1336,1163,0,0
119,-139,0,0,0,0,0,0,0,0,0,-1,1343,1163,0,0
126,-139,0,0,0,0,0,0,0,0,0,-1,1350,1163,0,0
133,-139,0,0,0,0,0,0,0,0,0,-1,1357,1163,0,0
140,-139,0,0,0,0,0,0,0,0,0,-1,1364,1163,0,0
147,-139,0,0,0,0,0,0,0,0,0,-1,1371,1163,0,0
154,-139,0,0,0,0,0,0,0,0,0,-1,1378,1163,0,0
161,-139,0,0,0,0,0,0,0,0,0,-1,1385,1163,0,0
168,-139,0,0,0,0,0,0,0,0,0,-1,1392,1163,0,0
175,-139,0,0,0,0,0,0,0,0,0,-1,1399,1163,0,0
182,-139,0,0,0,0,0,0,0,0,0,-1,1406,1163,0,0
189,-139,0,0,0,0,0,0,0,0,0,-1,1413,1163,0,0
196,-139,0,0,0,0,0,0,0,0,0,-1,1420,1163,0,0
203,-139,0,0,0,0,0,0,0,0,0,-1,1427,1163,0,0
210,-139,0,0,0,0,0,0,0,0,0,-1,1434,1163,0,0
217,-139,0,0,0,0,0,0,0,0,0,-1,1441,1163,0,0
224,-139,0,0,0,0,0,0,0,0,0,-1,1448,1163,0,0
231,-139,0,0,0,0,0,0,0,0,0,-1,1455,1163,0,0
238,-139,0,0,0,0,0,0,0,0,0,-1,1462,1163,0,0
245,-139,0,0,0,0,0,0,0,0,0,-1,1469,1163,0,0
252,-139,0,0,0,0,0,0,0,0,0,-1,1476,1163,0,0
259,-139,0,0,0,0,0,0,0,0,0,-1,1483,1163,0,0
266,-139,0,0,0,0,0,0,0,0,0,-1,1490,1163,0,0
273,-139,0,0,0,0,0,0,0,0,0,-1,1497,1163,0,0
280,-139,0,0,0,0,0,0,0,0,0,-1,1504,1163,0,0
287,-139,0,0,0,0,0,0,0,0,0,-1,1511,1163,0,0
294,-139,0,0,0,0,0,0,0,0,0,-1,1518,1163,0,0
301,-139,0,0,0,0,0,0,0,0,0,-1,1525,1163,0,0
308,-139,0,0,0,0,0,0,0,0,0,-1,1532,1163,0,0
315,-139,0,0,0,0,0,0,0,0,0,-1,1539,1163,0,0
322,-139,0,0,0,0,0,0,0,0,0,-1,1546,1163,0,0
329,-139,0,0,0,0,0,0,0,0,0,-1,1553,1163,0,0
336,-139,0,0,0,0,0,0,0,0,0,-1,1560,1163,0,0
343,-139,0,0,0,0,0,0,0,0,0,-1,1567,1163,0,0
350,-139,0,0,0,0,0,0,0,0,0,-1,1574,1163,0,0
357,-139,0,0,0,0,0,0,0,0,0,-1,1581,1163,0,0
364,-139,0,0,0,0,0,0,0,0,0,-1,1588,1163,0,0
371,-139,0,0,0,0,0,0,0,0,0,-1,1595,1163,0,0
378,-139,0,0,0,0,0,0,0,0,0,-1,1602,1163,0,0
385,-139,0,0,0,0,0,0,0,0,0,-1,1609,1163,0,0
392,-139,0,0,0,0,0,0,0,0,0,-1,1616,1163,0,0
399,-139,0,0,0,0,0,0,0,0,0,-1,1623,1163,0,0
406,-139,0,0,0,0,0,0,0,0,0,-1,1630,1163,0,0
413,-139,0,0,0,0,0,0,0,0,0,-1,1637,1163,0,0
420,-139,0,0,0,0,0,0,0,0,0,-1,1644,1163,0,0
427,-139,0,0,0,0,0,0,0,0,0,-1,1651,1163,0,0
434,-139,0,0,0,0,0,0,0,0,0,-1,1658,1163,0,0
441,-139,0,0,0,0,0,0,0,0,0,-1,1665,1163,0,0
448,-139,0,0,0,0,0,0,0,0,0,-1,1672,1163,0,0
455,-139,0,0,0,0,0,0,0,0,0,-1,1679,1163,0,0
462,-139,0,0,0,0,0,0,0,0,0,-1,1686,1163,0,0
469,-139,0,0,0,0,0,0,0,0,0,-1,1693,1163,0,0
476,-139,0,0,0,0,0,0,0,0,0,-1,1700,1163,0,0
483,-139,0,0,0,0,0,0,0,0,0,-1,1707,1163,0,0
490,-139,0,0,0,0,0,0,0,0,0,-1,1714,1163,0,0
497,-139,0,0,0,0,0,0,0,0,0,-1,1721,1163,0,0
504,-139,0,0,0,0,0,0,0,0,0,-1,1728,1163,0,0
511,-139,0,0,0,0,0,0,0,0,0,-1,1735,1163,0,0
518,-139,0,0,0,0,0,0,0,0,0,-1,1742,1163,0,0
525,-139,0,0,0,0,0,0,0,0,0,-1,1749,1163,0,0
532,-139,0,0,0,0,0,0,0,0,0,-1,1756,1163,0,0
539,-139,0,0,0,0,0,0,0,0,0,-1,1763,1163,0,0
546,-139,0,0,0,0,0,0,0,0,0,-1,1770,1163,0,0
553,-139,0,0,0,0,0,0,0,0,0,-1,1777,1163,0,0
560,-139,0,0,0,0,0,0,0,0,0,-1,1784,1163,0,0
567,-139,0,0,0,0,0,0,0,0,0,-1,1791,1163,0,0
574,-139,0,0,0,0,0,0,0,0,0,-1,1798,1163,0,0
581,-139,0,0,0,0,0,0,0,0,0,-1,1805,1163,0,0
588,-139,0,0,0,0,0,0,0,0,0,-1,1812,1163,0,0
595,-139,0,0,0,0,0,0,0,0,0,-1,1819,1163,0,0
602,-139,0,0,0,0,0,0,0,0,0,-1,1826,1163,0,0
609,-139,0,0,0,0,0,0,0,0,0,-1,1833,1163,0,0
616,-139,0,0,0,0,0,0,0,0,0,-1,1840,1163,0,0
623,-139,0,0,0,0,0,0,0,0,0,-1,1847,1163,0,0
630,-139,0,0,0,0,0,0,0,0,0,-1,1854,1163,0,0
637,-139,0,0,0,0,0,0,0,0,0,-1,1861,1163,0,0
644,-139,48.9821,2.6394,-0.000875927,-0.000249956,-0.00290743,0.00236128,-0.00348717,-0.839017,0.0033974,0.037995,1868,1163,48.9821,-2.63943
651,-139,48.9655,2.53345,-0.00066718,-0.000445139,-0.00202701,0.00147389,-0.00258621,-0.812756,0.00237324,0.0380269,1875,1163,48.9654,-2.53342
658,-139,48.8951,2.4281,-0.000136306,-0.000510463,-0.00141019,0.00109916,-0.00174593,-0.719452,0.0016567,0.0394648,1882,1163,48.8951,-2.42804
665,-139,48.9194,2.69922,0.000469683,-0.000427347,-0.00103245,0.00114683,-0.0011045,-0.580488,0.00129988,0.0394233,1889,1163,48.9194,-2.69922
672,-139,48.9712,2.83386,0.000893312,-0.000173461,-0.00083059,0.00134703,-0.000627182,-0.49997,0.0011648,0.0375825,1896,1163,48.9712,-2.83388
679,-139,49.0039,2.75818,0.00101474,-3.30441e-05,-0.00058135,0.00127343,-0.000291731,-0.418668,0.000961072,0.0331167,1903,1163,49.0039,-2.75822
686,-139,48.9043,2.75208,0.000974524,-1.09749e-06,-0.000436166,0.00114108,-0.000167657,-0.364781,0.000822325,0.0308403,1910,1163,48.9043,-2.75205
693,-139,48.9138,2.66223,0.000800865,5.78509e-05,-0.000284664,0.000897387,-3.86712e-05,-0.326908,0.000611556,0.0206721,1917,1163,48.9138,-2.66227
700,-139,48.9991,2.6792,0,0,0,0,0,0,0,-1,1924,1163,48.9991,-2.67924
707,-139,32.116,6.54346,0,0,0,0,0,0,0,-1,1931,1163,32.116,-6.54343
714,-139,43.4562,7.81958,0,0,0,0,0,0,0,-1,1938,1163,43.4562,-7.81959
721,-139,43.6031,7.28723,-7.10658e-05,0.000197486,0.000535396,0.000615188,-0.000488767,0.908263,0.00063876,0.0337859,1945,1163,43.6032,-7.28724
728,-139,43.4479,7.05493,0.000103717,0.000196732,0.000806002,0.000957568,-0.000657118,0.814217,0.000937604,0.0412521,1952,1163,43.4478,-7.05497
735,-139,43.3817,6.79065,0.00130436,0.000279101,0.00137068,0.00225513,-0.000671677,0.606454,0.00177031,0.0306545,1959,1163,43.3817,-6.79062
742,-139,43.4596,6.21606,0.00213265,0.000416082,0.00122513,0.00277023,-0.000221494,0.479845,0.0019249,0.0248493,1966,1163,43.4596,-6.21604
749,-139,43.4419,5.8208,0.00322251,0.00127863,0.000355926,0.00328563,0.00121551,0.175517,0.00191823,0.021605,1973,1163,43.4419,-5.82081
756,-139,43.4208,5.47961,0.00556754,0.00292831,-0.00209723,0.00672578,0.00177007,-0.504586,0.0040257,0.0115243,1980,1163,43.4208,-5.47963
763,-139,43.405,5.11804,0.00919317,0.00515427,-0.00618153,0.0136768,0.000670683,-0.627518,0.0089027,0.0110472,1987,1163,43.405,-5.11808
770,-139,43.4031,4.75964,0.0127518,0.00784683,-0.0117606,0.0223129,-0.00171428,-0.682605,0.0154784,0.012871,1994,1163,43.403,-4.75965
777,-139,43.3767,4.41687,0.0158771,0.0110514,-0.0189839,0.032601,-0.00567238,-0.722188,0.0238507,0.0248322,2001,1163,43.3767,-4.41689
784,-139,45.0696,4.39478,0,0,0,0,0,0,0,-1,2008,1163,45.0695,-4.39473
791,-139,44.8354,3.53003,0.0190143,0.0197557,-0.0408709,0.0602576,-0.0214876,-0.789933,0.048933,0.0468536,2015,1163,44.8354,-3.53007
798,-139,44.6189,2.9823,0.0171925,0.0257296,-0.0570126,0.0786332,-0.0357111,-0.822764,0.0675493,0.0490329,2022,1163,44.619,-2.98227
805,-139,44.553,2.46423,0,0,0,0,0,0,0,-1,2029,1163,44.5529,-2.46429
812,-139,0,0,0,0,0,0,0,0,0,-1,2036,1163,0,0
-700,-146,0,0,0,0,0,0,0,0,0,-1,524,1170,0,0
-693,-146,-34.0367,-9.60486,0,0,0,0,0,0,0,-1,531,1170,-34.0367,9.60488
-686,-146,-33.7554,-8.3042,0,0,0,0,0,0,0,-1,538,1170,-33.7554,8.30417
-679,-146,-30.9697,-0.735352,0,0,0,0,0,0,0,-1,545,1170,-30.9697,0.735388
-672,-146,-30.8698,-0.352661,0,0,0,0,0,0,0,-1,552,1170,-30.8697,0.352698
-665,-146,-30.8372,0.0483398,0.0419558,-0.00559438,0.0163144,0.047015,-0.0106535,0.300701,0.0354324,0.0473246,559,1170,-30.8372,-0.0483716
-658,-146,-30.7624,0.488037,0,0,0,0,0,0,0,-1,566,1170,-30.7624,-0.488047
-651,-146,-30.4194,1.03821,0.0241212,-0.0069878,0.00717635,0.0256969,-0.00856346,0.216134,0.0205882,0.0375651,573,1170,-30.4194,-1.0382
-644,-146,-30.0909,1.53516,0.0169257,-0.00629003,0.00397126,0.0175863,-0.00695055,0.164818,0.0146032,0.020172,580,1170,-30.0909,-1.53516
-637,-146,-30.1461,1.96814,0.0102761,-0.00596081,0.0012449,0.010371,-0.0060557,0.076078,0.00959244,0.0104671,587,1170,-30.1461,-1.96812
-630,-146,-30.1785,2.39124,0.00535444,-0.00459583,-0.000541334,0.00538381,-0.0046252,-0.0541907,0.00578423,0.0101741,594,1170,-30.1785,-2.3912
-623,-146,-30.1973,2.81592,0.00204686,-0.002223,-0.00121017,0.002366,-0.00254213,-0.25784,0.00283432,0.0131403,601,1170,-30.1973,-2.81591
-616,-146,-30.2558,3.26147,0.000622985,-0.000418953,-0.00101255,0.00124073,-0.0010367,-0.547804,0.00131663,0.0186689,608,1170,-30.2558,-3.26151
-609,-146,-30.1148,3.77588,0.000257858,-0.000211962,-0.0010019,0.00105202,-0.00100613,-0.670246,0.00118837,0.0259632,615,1170,-30.1148,-3.77594
-602,-146,-29.7792,4.17419,0,0,0,0,0,0,0,-1,622,1170,-29.7792,-4.17424
-595,-146,-30.4532,4.5968,0,0,0,0,0,0,0,-1,629,1170,-30.4532,-4.59676
-588,-146,-30.6042,4.87573,0,0,0,0,0,0,0,-1,636,1170,-30.6042,-4.87578
-581,-146,-28.6086,5.78027,0,0,0,0,0,0,0,-1,643,1170,-28.6086,-5.78029
-574,-146,-17.9915,3.79114,0,0,0,0,0,0,0,-1,650,1170,-17.9915,-3.79118
-567,-146,-36.1984,0.529785,0,0,0,0,0,0,0,-1,657,1170,-36.1984,-0.529813
-560,-146,-36.2721,0.758789,0.000822902,-0.00109853,-0.000543341,0.000965905,-0.00124153,-0.257355,0.00127777,0.0384362,664,1170,-36.2721,-0.758797
-553,-146,-36.3063,0.832031,0.000767905,-0.00109796,-0.000567699,0.000927056,-0.00125711,-0.273327,0.00126582,0.0362924,671,1170,-36.3064,-0.832079
-546,-146,-36.1736,0.708984,0.00114265,-0.00128102,-0.000420468,0.00121352,-0.00135189,-0.166986,0.00148186,0.0422148,678,1170,-36.1736,-0.709015
-539,-146,-36.335,0.65625,0.00246395,-0.00153775,0.000199038,0.00247383,-0.00154762,0.0495752,0.00234222,0.0430468,685,1170,-36.335,-0.65628
-532,-146,-36.4861,0.575684,0.00470316,-0.00246856,0.00084732,0.00480191,-0.00256731,0.116019,0.00431933,0.0398852,692,1170,-36.4861,-0.575729
-525,-146,-36.3043,0.609009,0.00802464,-0.00380184,0.00129455,0.00816469,-0.00394188,0.107762,0.00713006,0.0434541,699,1170,-36.3043,-0.60906
-518,-146,0,0,0,0,0,0,0,0,0,-1,706,1170,0,0
-511,-146,0,0,0,0,0,0,0,0,0,-1,713,1170,0,0
-504,-146,0,0,0,0,0,0,0,0,0,-1,720,1170,0,0
-497,-146,0,0,0,0,0,0,0,0,0,-1,727,1170,0,0
-490,-146,0,0,0,0,0,0,0,0,0,-1,734,1170,0,0
-483,-146,0,0,0,0,0,0,0,0,0,-1,741,1170,0,0
-476,-146,0,0,0,0,0,0,0,0,0,-1,748,1170,0,0
-469,-146,0,0,0,0,0,0,0,0,0,-1,755,1170,0,0
-462,-146,0,0,0,0,0,0,0,0,0,-1,762,1170,0,0
-455,-146,0,0,0,0,0,0,0,0,0,-1,769,1170,0,0
-448,-146,0,0,0,0,0,0,0,0,0,-1,776,1170,0,0
-441,-146,0,0,0,0,0,0,0,0,0,-1,783,1170,0,0
-434,-146,0,0,0,0,0,0,0,0,0,-1,790,1170,0,0
-427,-146,0,0,0,0,0,0,0,0,0,-1,797,1170,0,0
-420,-146,0,0,0,0,0,0,0,0,0,-1,804,1170,0,0
-413,-146,0,0,0,0,0,0,0,0,0,-1,811,1170,0,0
-406,-146,0,0,0,0,0,0,0,0,0,-1,818,1170,0,0
-399,-146,0,0,0,0,0,0,0,0,0,-1,825,1170,0,0
-392,-146,0,0,0,0,0,0,0,0,0,-1,832,1170,0,0
-385,-146,0,0,0,0,0,0,0,0,0,-1,839,1170,0,0
-378,-146,0,0,0,0,0,0,0,0,0,-1,846,1170,0,0
-371,-146,0,0,0,0,0,0,0,0,0,-1,853,1170,0,0
-364,-146,0,0,0,0,0,0,0,0,0,-1,860,1170,0,0
-357,-146,0,0,0,0,0,0,0,0,0,-1,867,1170,0,0
-350,-146,0,0,0,0,0,0,0,0,0,-1,874,1170,0,0
-343,-146,0,0,0,0,0,0,0,0,0,-1,881,1170,0,0
-336,-146,0,0,0,0,0,0,0,0,0,-1,888,1170,0,0
-329,-146,0,0,0,0,0,0,0,0,0,-1,895,1170,0,0
-322,-146,0,0,0,0,0,0,0,0,0,-1,902,1170,0,0
-315,-146,0,0,0,0,0,0,0,0,0,-1,909,1170,0,0
-308,-146,0,0,0,0,0,0,0,0,0,-1,916,1170,0,0
-301,-146,0,0,0,0,0,0,0,0,0,-1,923,1170,0,0
-294,-146,0,0,0,0,0,0,0,0,0,-1,930,1170,0,0
-287,-146,0,0,0,0,0,0,0,0,0,-1,937,1170,0,0
-280,-146,0,0,0,0,0,0,0,0,0,-1,944,1170,0,0
-273,-146,0,0,0,0,0,0,0,0,0,-1,951,1170,0,0
-266,-146,0,0,0,0,0,0,0,0,0,-1,958,1170,0,0
-259,-146,0,0,0,0,0,0,0,0,0,-1,965,1170,0,0
-252,-146,0,0,0,0,0,0,0,0,0,-1,972,1170,0,0
-245,-146,0,0,0,0,0,0,0,0,0,-1,979,1170,0,0
-238,-146,0,0,0,0,0,0,0,0,0,-1,986,1170,0,0
-231,-146,0,0,0,0,0,0,0,0,0,-1,993,1170,0,0
-224,-146,0,0,0,0,0,0,0,0,0,-1,1000,1170,0,0
-217,-146,0,0,0,0,0,0,0,0,0,-1,1007,1170,0,0
-210,-146,0,0,0,0,0,0,0,0,0,-1,1014,1170,0,0
-203,-146,0,0,0,0,0,0,0,0,0,-1,1021,1170,0,0
-196,-146,0,0,0,0,0,0,0,0,0,-1,1028,1170,0,0
-189,-146,0,0,0,0,0,0,0,0,0,-1,1035,1170,0,0
-182,-146,0,0,0,0,0,0,0,0,0,-1,1042,1170,0,0
-175,-146,0,0,0,0,0,0,0,0,0,-1,1049,1170,0,0
-168,-146,0,0,0,0,0,0,0,0,0,-1,1056,1170,0,0
-161,-146,0,0,0,0,0,0,0,0,0,-1,1063,1170,0,0
-154,-146,0,0,0,0,0,0,0,0,0,-1,1070,1170,0,0
-147,-146,0,0,0,0,0,0,0,0,0,-1,1077,1170,0,0
-140,-146,0,0,0,0,0,0,0,0,0,-1,1084,1170,0,0
-133,-146,0,0,0,0,0,0,0,0,0,-1,1091,1170,0,0
-126,-146,0,0,0,0,0,0,0,0,0,-1,1098,1170,0,0
-119,-146,0,0,0,0,0,0,0,0,0,-1,1105,1170,0,0
-112,-146,0,0,0,0,0,0,0,0,0,-1,1112,1170,0,0
-105,-146,0,0,0,0,0,0,0,0,0,-1,1119,1170,0,0
-98,-146,0,0,0,0,0,0,0,0,0,-1,1126,1170,0,0
-91,-146,0,0,0,0,0,0,0,0,0,-1,1133,1170,0,0
-84,-146,0,0,0,0,0,0,0,0,0,-1,1140,1170,0,0
-77,-146,0,0,0,0,0,0,0,0,0,-1,1147,1170,0,0
-70,-146,0,0,0,0,0,0,0,0,0,-1,1154,1170,0,0
-63,-146,0,0,0,0,0,0,0,0,0,-1,1161,1170,0,0
-56,-146,0,0,0,0,0,0,0,0,0,-1,1168,1170,0,0
-49,-146,0,0,0,0,0,0,0,0,0,-1,1175,1170,0,0
-42,-146,0,0,0,0,0,0,0,0,0,-1,1182,1170,0,0
-35,-146,0,0,0,0,0,0,0,0,0,-1,1189,1170,0,0
-28,-146,0,0,0,0,0,0,0,0,0,-1,1196,1170,0,0
-21,-146,0,0,0,0,0,0,0,0,0,-1,1203,1170,0,0
-14,-146,0,0,0,0,0,0,0,0,0,-1,1210,1170,0,0
-7,-146,0,0,0,0,0,0,0,0,0,-1,1217,1170,0,0
0,-146,0,0,0,0,0,0,0,0,0,-1,1224,1170,0,0
7,-146,0,0,0,0,0,0,0,0,0,-1,1231,1170,0,0
14,-146,0,0,0,0,0,0,0,0,0,-1,1238,1170,0,0
21,-146,0,0,0,0,0,0,0,0,0,-1,1245,1170,0,0
28,-146,0,0,0,0,0,0,0,0,0,-1,1252,1170,0,0
35,-146,0,0,0,0,0,0,0,0,0,-1,1259,1170,0,0
42,-146,0,0,0,0,0,0,0,0,0,-1,1266,1170,0,0
49,-146,0,0,0,0,0,0,0,0,0,-1,1273,1170,0,0
56,-146,0,0,0,0,0,0,0,0,0,-1,1280,1170,0,0
63,-146,0,0,0,0,0,0,0,0,0,-1,1287,1170,0,0
70,-146,0,0,0,0,0,0,0,0,0,-1,1294,1170,0,0
77,-146,0,0,0,0,0,0,0,0,0,-1,1301,1170,0,0
84,-146,0,0,0,0,0,0,0,0,0,-1,1308,1170,0,0
91,-146,0,0,0,0,0,0,0,0,0,-1,1315,1170,0,0
98,-146,0,0,0,0,0,0,0,0,0,-1,1322,1170,0,0
105,-146,0,0,0,0,0,0,0,0,0,-1,1329,1170,0,0
112,-146,0,0,0,0,0,0,0,0,0,-1,1336,1170,0,0
119,-146,0,0,0,0,0,0,0,0,0,-1,1343,1170,0,0
126,-146,0,0,0,0,0,0,0,0,0,-1,1350,1170,0,0
133,-146,0,0,0,0,0,0,0,0,0,-1,1357,1170,0,0
140,-146,0,0,0,0,0,0,0,0,0,-1,1364,1170,0,0
147,-146,0,0,0,0,0,0,0,0,0,-1,1371,1170,0,0
154,-146,0,0,0,0,0,0,0,0,0,-1,1378,1170,0,0
161,-146,0,0,0,0,0,0,0,0,0,-1,1385,1170,0,0
168,-146,0,0,0,0,0,0,0,0,0,-1,1392,1170,0,0
175,-146,0,0,0,0,0,0,0,0,0,-1,1399,1170,0,0
182,-146,0,0,0,0,0,0,0,0,0,-1,1406,1170,0,0
189,-146,0,0,0,0,0,0,0,0,0,-1,1413,1170,0,0
196,-146,0,0,0,0,0,0,0,0,0,-1,1420,1170,0,0
203,-146,0,0,0,0,0,0,0,0,0,-1,1427,1170,0,0
210,-146,0,0,0,0,0,0,0,0,0,-1,1434,1170,0,0
217,-146,0,0,0,0,0,0,0,0,0,-1,1441,1170,0,0
224,-146,0,0,0,0,0,0,0,0,0,-1,1448,1170,0,0
231,-146,0,0,0,0,0,0,0,0,0,-1,1455,1170,0,0
238,-146,0,0,0,0,0,0,0,0,0,-1,1462,1170,0,0
245,-146,0,0,0,0,0,0,0,0,0,-1,1469,1170,0,0
252,-146,0,0,0,0,0,0,0,0,0,-1,1476,1170,0,0
259,-146,0,0,0,0,0,0,0,0,0,-1,1483,1170,0,0
266,-146,0,0,0,0,0,0,0,0,0,-1,1490,1170,0,0
273,-146,0,0,0,0,0,0,0,0,0,-1,1497,1170,0,0
280,-146,0,0,0,0,0,0,0,0,0,-1,1504,1170,0,0
287,-146,0,0,0,0,0,0,0,0,0,-1,1511,1170,0,0
294,-146,0,0,0,0,0,0,0,0,0,-1,1518,1170,0,0
301,-146,0,0,0,0,0,0,0,0,0,-1,1525,1170,0,0
308,-146,0,0,0,0,0,0,0,0,0,-1,1532,1170,0,0
315,-146,0,0,0,0,0,0,0,0,0,-1,1539,1170,0,0
322,-146,0,0,0,0,0,0,0,0,0,-1,1546,1170,0,0
329,-146,0,0,0,0,0,0,0,0,0,-1,1553,1170,0,0
336,-146,0,0,0,0,0,0,0,0,0,-1,1560,1170,0,0
343,-146,0,0,0,0,0,0,0,0,0,-1,1567,1170,0,0
350,-146,0,0,0,0,0,0,0,0,0,-1,1574,1170,0,0
357,-146,0,0,0,0,0,0,0,0,0,-1,1581,1170,0,0
364,-146,0,0,0,0,0,0,0,0,0,-1,1588,1170,0,0
371,-146,0,0,0,0,0,0,0,0,0,-1,1595,1170,0,0
378,-146,0,0,0,0,0,0,0,0,0,-1,1602,1170,0,0
385,-146,0,0,0,0,0,0,0,0,0,-1,1609,1170,0,0
392,-146,0,0,0,0,0,0,0,0,0,-1,1616,1170,0,0
399,-146,0,0,0,0,0,0,0,0,0,-1,1623,1170,0,0
406,-146,0,0,0,0,0,0,0,0,0,-1,1630,1170,0,0
413,-146,0,0,0,0,0,0,0,0,0,-1,1637,1170,0,0
420,-146,0,0,0,0,0,0,0,0,0,-1,1644,1170,0,0
427,-146,0,0,0,0,0,0,0,0,0,-1,1651,1170,0,0
434,-146,0,0,0,0,0,0,0,0,0,-1,1658,1170,0,0
441,-146,0,0,0,0,0,0,0,0,0,-1,1665,1170,0,0
448,-146,0,0,0,0,0,0,0,0,0,-1,1672,1170,0,0
455,-146,0,0,0,0,0,0,0,0,0,-1,1679,1170,0,0
462,-146,0,0,0,0,0,0,0,0,0,-1,1686,1170,0,0
469,-146,0,0,0,0,0,0,0,0,0,-1,1693,1170,0,0
476,-146,0,0,0,0,0,0,0,0,0,-1,1700,1170,0,0
483,-146,0,0,0,0,0,0,0,0,0,-1,1707,1170,0,0
490,-146,0,0,0,0,0,0,0,0,0,-1,1714,1170,0,0
497,-146,0,0,0,0,0,0,0,0,0,-1,1721,1170,0,0
504,-146,0,0,0,0,0,0,0,0,0,-1,1728,1170,0,0
511,-146,0,0,0,0,0,0,0,0,0,-1,1735,1170,0,0
518,-146,0,0,0,0,0,0,0,0,0,-1,1742,1170,0,0
525,-146,0,0,0,0,0,0,0,0,0,-1,1749,1170,0,0
532,-146,0,0,0,0,0,0,0,0,0,-1,1756,1170,0,0
539,-146,0,0,0,0,0,0,0,0,0,-1,1763,1170,0,0
546,-146,0,0,0,0,0,0,0,0,0,-1,1770,1170,0,0
553,-146,0,0,0,0,0,0,0,0,0,-1,1777,1170,0,0
560,-146,0,0,0,0,0,0,0,0,0,-1,1784,1170,0,0
567,-146,0,0,0,0,0,0,0,0,0,-1,1791,1170,0,0
574,-146,0,0,0,0,0,0,0,0,0,-1,1798,1170,0,0
581,-146,0,0,0,0,0,0,0,0,0,-1,1805,1170,0,0
588,-146,0,0,0,0,0,0,0,0,0,-1,1812,1170,0,0
595,-146,0,0,0,0,0,0,0,0,0,-1,1819,1170,0,0
602,-146,0,0,0,0,0,0,0,0,0,-1,1826,1170,0,0
609,-146,0,0,0,0,0,0,0,0,0,-1,1833,1170,0,0
616,-146,0,0,0,0,0,0,0,0,0,-1,1840,1170,0,0
623,-146,0,0,0,0,0,0,0,0,0,-1,1847,1170,0,0
630,-146,0,0,0,0,0,0,0,0,0,-1,1854,1170,0,0
637,-146,48.9325,2.43982,-0.00103911,0.000258907,-0.0033071,0.00298008,-0.00376028,-0.88229,0.00390023,0.0384169,1861,1170,48.9326,-2.43983
644,-146,48.9043,2.52319,-0.0010936,-5.83241e-05,-0.00207659,0.00156417,-0.00271609,-0.907545,0.00250086,0.0373184,1868,1170,48.9043,-2.52323
651,-146,48.9169,2.56226,-0.000881268,-7.86099e-05,-0.00147426,0.00104797,-0.00200785,-0.91829,0.00179305,0.0350491,1875,1170,48.9169,-2.56228
658,-146,48.9591,2.57227,-0.000405705,1.93867e-05,-0.0011245,0.000951255,-0.00133757,-0.878803,0.00132771,0.0383047,1882,1170,48.9592,-2.57231
665,-146,48.8904,2.75256,0.000148384,0.00026523,-0.00101277,0.00122126,-0.000807642,-0.81421,0.00117947,0.0396596,1889,1170,48.8904,-2.75254
672,-146,48.9125,2.74463,0.000474414,0.000650417,-0.0010032,0.00156947,-0.000444637,-0.829147,0.0012218,0.0378915,1896,1170,48.9124,-2.7446
679,-146,48.9355,2.63513,0.000556091,0.000829079,-0.000872387,0.00157558,-0.000190415,-0.862999,0.00111927,0.0319217,1903,1170,48.9356,-2.63517
686,-146,48.8477,2.59595,0.000506024,0.000793653,-0.000702647,0.00136705,-6.73746e-05,-0.886341,0.000934636,0.023181,1910,1170,48.8477,-2.596
693,-146,48.9205,2.53564,0.000315083,0.000769267,-0.000480096,0.00107327,1.10788e-05,-1.00631,0.00071185,0.0150678,1917,1170,48.9205,-2.53569
700,-146,48.9913,2.42249,0,0,0,0,0,0,0,-1,1924,1170,48.9913,-2.42246
707,-146,29.9441,6.94653,0,0,0,0,0,0,0,-1,1931,1170,29.9441,-6.94652
714,-146,31.325,6.13245,0,0,0,0,0,0,0,-1,1938,1170,31.325,-6.1325
721,-146,43.145,7.17517,0,0,0,0,0,0,0,-1,1945,1170,43.145,-7.17514
728,-146,42.9614,7.19299,0,0,0,0,0,0,0,-1,1952,1170,42.9615,-7.19304
735,-146,43.0291,6.64697,0.00100015,0.000351763,0.00138212,0.00209559,-0.000743682,0.6702,0.00170007,0.0290165,1959,1170,43.029,-6.64701
742,-146,43.1212,6.1781,0.00169605,0.000367176,0.00139828,0.00257973,-0.000516507,0.563601,0.00191534,0.0180217,1966,1170,43.1213,-6.17804
749,-146,43.0575,5.83777,0.00308327,0.001207,0.00043756,0.0031803,0.00110997,0.21821,0.00186384,0.0168001,1973,1170,43.0575,-5.83772
756,-146,43.0306,5.47278,0.00558951,0.0029349,-0.00255885,0.00714482,0.00137959,-0.546145,0.00437644,0.0122952,1980,1170,43.0306,-5.47278
763,-146,42.9904,5.08984,0.00904787,0.00525191,-0.00735084,0.0147418,-0.000442027,-0.659058,0.00997848,0.0112256,1987,1170,42.9904,-5.08989
770,-146,42.9862,4.72485,0.0121894,0.00808456,-0.0137902,0.0240791,-0.00380515,-0.711524,0.0174599,0.0130574,1994,1170,42.9863,-4.72481
777,-146,42.9655,4.50269,0.0146123,0.0115055,-0.0220963,0.0352098,-0.00909198,-0.750306,0.0270187,0.0238689,2001,1170,42.9654,-4.50264
784,-146,44.2961,3.93848,0.0158056,0.0156852,-0.0328141,0.0485596,-0.0170688,-0.784481,0.0393177,0.0460123,2008,1170,44.2961,-3.93851
791,-146,45.7402,3.17676,0.0150921,0.0209057,-0.0467609,0.06485,-0.0288522,-0.816439,0.0554138,0.0424684,2015,1170,45.7403,-3.17676
798,-146,45.6023,2.62427,0.0111845,0.0273813,-0.0645126,0.0843019,-0.0457361,-0.847838,0.0761701,0.0434823,2022,1170,45.6024,-2.62427
805,-146,45.2039,2.43787,0,0,0,0,0,0,0,-1,2029,1170,45.2038,-2.43782
812,-146,0,0,0,0,0,0,0,0,0,-1,2036,1170,0,0
-700,-153,0,0,0,0,0,0,0,0,0,-1,524,1177,0,0
-693,-153,0,0,0,0,0,0,0,0,0,-1,531,1177,0,0
-686,-153,-33.9533,-9.43079,0,0,0,0,0,0,0,-1,538,1177,-33.9533,9.43073
-679,-153,-33.6981,-8.10718,0,0,0,0,0,0,0,-1,545,1177,-33.6981,8.10723
-672,-153,-30.2361,0.390015,0,0,0,0,0,0,0,-1,552,1177,-30.2362,-0.390011
-665,-153,-30.2191,0.790894,0,0,0,0,0,0,0,-1,559,1177,-30.2191,-0.790859
-658,-153,-30.1116,1.26807,0,0,0,0,0,0,0,-1,566,1177,-30.1116,-1.26808
-651,-153,-29.9532,1.51379,0.0229795,-0.0194705,0.00611851,0.0238438,-0.0203348,0.14033,0.0255333,0.0442901,573,1177,-29.9533,-1.51375
-644,-153,-29.6296,1.56152,0.0166663,-0.0149964,0.00311458,0.0169698,-0.0152999,0.0971272,0.0186392,0.0274756,580,1177,-29.6296,-1.5615
-637,-153,-29.6819,1.96765,0.0106937,-0.0114318,0.000665049,0.0107137,-0.0114517,0.0300219,0.0127996,0.0111206,587,1177,-29.6819,-1.96769
-630,-153,-29.7114,2.38367,0.00615784,-0.00731083,-0.000938481,0.00622292,-0.00737591,-0.069233,0.00786068,0.00959403,594,1177,-29.7114,-2.38369
-623,-153,-29.7363,2.82385,0.00275522,-0.00315499,-0.00150551,0.00311662,-0.00351638,-0.235593,0.00383188,0.0100824,601,1177,-29.7363,-2.82382
-616,-153,-29.7859,3.24927,0.000795084,-0.00049367,-0.00124571,0.00155321,-0.0012518,-0.546712,0.00162259,0.0121337,608,1177,-29.7859,-3.24924
-609,-153,-29.7641,3.68408,4.58156e-05,-9.84199e-05,-0.0011643,0.00114023,-0.00119283,-0.754467,0.00134711,0.0216383,615,1177,-29.7641,-3.68409
-602,-153,-29.7729,4.54199,0,0,0,0,0,0,0,-1,622,1177,-29.773,-4.54204
-595,-153,-30.0958,4.69043,0,0,0,0,0,0,0,-1,629,1177,-30.0958,-4.69042
-588,-153,-29.1819,5.06567,0,0,0,0,0,0,0,-1,636,1177,-29.1819,-5.06562
-581,-153,-28.2946,5.67114,0,0,0,0,0,0,0,-1,643,1177,-28.2946,-5.67111
-574,-153,-25.4814,5.16956,0,0,0,0,0,0,0,-1,650,1177,-25.4814,-5.16961
-567,-153,-35.3121,1.09485,0,0,0,0,0,0,0,-1,657,1177,-35.3121,-1.09482
-560,-153,-36.238,0.665405,0,0,0,0,0,0,0,-1,664,1177,-36.238,-0.665411
-553,-153,-36.2926,0.864258,0.000381293,-0.00116308,-0.000495142,0.000526405,-0.00130819,-0.285089,0.00109079,0.0358008,671,1177,-36.2926,-0.8642
-546,-153,-36.2147,0.762085,0.000826042,-0.00137418,-0.000298732,0.000865881,-0.00141402,-0.132576,0.00132892,0.0413419,678,1177,-36.2146,-0.762059
-539,-153,-36.2377,0.520752,0.00226843,-0.00149661,0.000386736,0.00230774,-0.00153592,0.101308,0.002234,0.0446728,685,1177,-36.2376,-0.520731
-532,-153,-36.7101,0.652588,0.00474572,-0.00225086,0.00107798,0.00490804,-0.00241318,0.149456,0.00430794,0.0423452,692,1177,-36.7101,-0.652572
-525,-153,-36.3785,0.750122,0.0087192,-0.00348302,0.00156715,0.00891726,-0.00368108,0.125714,0.00748013,0.0411948,699,1177,-36.3785,-0.750099
-518,-153,0,0,0,0,0,0,0,0,0,-1,706,1177,0,0
-511,-153,0,0,0,0,0,0,0,0,0,-1,713,1177,0,0
-504,-153,0,0,0,0,0,0,0,0,0,-1,720,1177,0,0
-497,-153,0,0,0,0,0,0,0,0,0,-1,727,1177,0,0
-490,-153,0,0,0,0,0,0,0,0,0,-1,734,1177,0,0
-483,-153,0,0,0,0,0,0,0,0,0,-1,741,1177,0,0
-476,-153,0,0,0,0,0,0,0,0,0,-1,748,1177,0,0
-469,-153,0,0,0,0,0,0,0,0,0,-1,755,1177,0,0
-462,-153,0,0,0,0,0,0,0,0,0,-1,762,1177,0,0
-455,-153,0,0,0,0,0,0,0,0,0,-1,769,1177,0,0
-448,-153,0,0,0,0,0,0,0,0,0,-1,776,1177,0,0
-441,-153,0,0,0,0,0,0,0,0,0,-1,783,1177,0,0
-434,-153,0,0,0,0,0,0,0,0,0,-1,790,1177,0,0
-427,-153,0,0,0,0,0,0,0,0,0,-1,797,1177,0,0
-420,-153,0,0,0,0,0,0,0,0,0,-1,804,1177,0,0
-413,-153,0,0,0,0,0,0,0,0,0,-1,811,1177,0,0
-406,-153,0,0,0,0,0,0,0,0,0,-1,818,1177,0,0
-399,-153,0,0,0,0,0,0,0,0,0,-1,825,1177,0,0
-392,-153,0,0,0,0,0,0,0,0,0,-1,832,1177,0,0
-385,-153,0,0,0,0,0,0,0,0,0,-1,839,1177,0,0
-378,-153,0,0,0,0,0,0,0,0,0,-1,846,1177,0,0
-371,-153,0,0,0,0,0,0,0,0,0,-1,853,1177,0,0
-364,-153,0,0,0,0,0,0,0,0,0,-1,860,1177,0,0
-357,-153,0,0,0,0,0,0,0,0,0,-1,867,1177,0,0
-350,-153,0,0,0,0,0,0,0,0,0,-1,874,1177,0,0
-343,-153,0,0,0,0,0,0,0,0,0,-1,881,1177,0,0
-336,-153,0,0,0,0,0,0,0,0,0,-1,888,1177,0,0
-329,-153,0,0,0,0,0,0,0,0,0,-1,895,1177,0,0
-322,-153,0,0,0,0,0,0,0,0,0,-1,902,1177,0,0
-315,-153,0,0,0,0,0,0,0,0,0,-1,909,1177,0,0
-308,-153,0,0,0,0,0,0,0,0,0,-1,916,1177,0,0
-301,-153,0,0,0,0,0,0,0,0,0,-1,923,1177,0,0
-294,-153,0,0,0,0,0,0,0,0,0,-1,930,1177,0,0
-287,-153,0,0,0,0,0,0,0,0,0,-1,937,1177,0,0
-280,-153,0,0,0,0,0,0,0,0,0,-1,944,1177,0,0
-273,-153,0,0,0,0,0,0,0,0,0,-1,951,1177,0,0
-266,-153,0,0,0,0,0,0,0,0,0,-1,958,1177,0,0
-259,-153,0,0,0,0,0,0,0,0,0,-1,965,1177,0,0
-252,-153,0,0,0,0,0,0,0,0,0,-1,972,1177,0,0
-245,-153,0,0,0,0,0,0,0,0,0,-1,979,1177,0,0
-238,-153,0,0,0,0,0,0,0,0,0,-1,986,1177,0,0
-231,-153,0,0,0,0,0,0,0,0,0,-1,993,1177,0,0
-224,-153,0,0,0,0,0,0,0,0,0,-1,1000,1177,0,0
-217,-153,0,0,0,0,0,0,0,0,0,-1,1007,1177,0,0
-210,-153,0,0,0,0,0,0,0,0,0,-1,1014,1177,0,0
-203,-153,0,0,0,0,0,0,0,0,0,-1,1021,1177,0,0
-196,-153,0,0,0,0,0,0,0,0,0,-1,1028,1177,0,0
-189,-153,0,0,0,0,0,0,0,0,0,-1,1035,1177,0,0
-182,-153,0,0,0,0,0,0,0,0,0,-1,1042,1177,0,0
-175,-153,0,0,0,0,0,0,0,0,0,-1,1049,1177,0,0
-168,-153,0,0,0,0,0,0,0,0,0,-1,1056,1177,0,0
-161,-153,0,0,0,0,0,0,0,0,0,-1,1063,1177,0,0
-154,-153,0,0,0,0,0,0,0,0,0,-1,1070,1177,0,0
-147,-153,0,0,0,0,0,0,0,0,0,-1,1077,1177,0,0
-140,-153,0,0,0,0,0,0,0,0,0,-1,1084,1177,0,0
-133,-153,0,0,0,0,0,0,0,0,0,-1,1091,1177,0,0
-126,-153,0,0,0,0,0,0,0,0,0,-1,1098,1177,0,0
-119,-153,0,0,0,0,0,0,0,0,0,-1,1105,1177,0,0
-112,-153,0,0,0,0,0,0,0,0,0,-1,1112,1177,0,0
-105,-153,0,0,0,0,0,0,0,0,0,-1,1119,1177,0,0
-98,-153,0,0,0,0,0,0,0,0,0,-1,1126,1177,0,0
-91,-153,0,0,0,0,0,0,0,0,0,-1,1133,1177,0,0
-84,-153,0,0,0,0,0,0,0,0,0,-1,1140,1177,0,0
-77,-153,0,0,0,0,0,0,0,0,0,-1,1147,1177,0,0
-70,-153,0,0,0,0,0,0,0,0,0,-1,1154,1177,0,0
-63,-153,0,0,0,0,0,0,0,0,0,-1,1161,1177,0,0
-56,-153,0,0,0,0,0,0,0,0,0,-1,1168,1177,0,0
-49,-153,0,0,0,0,0,0,0,0,0,-1,1175,1177,0,0
-42,-153,0,0,0,0,0,0,0,0,0,-1,1182,1177,0,0
-35,-153,0,0,0,0,0,0,0,0,0,-1,1189,1177,0,0
-28,-153,0,0,0,0,0,0,0,0,0,-1,1196,1177,0,0
-21,-153,0,0,0,0,0,0,0,0,0,-1,1203,1177,0,0
-14,-153,0,0,0,0,0,0,0,0,0,-1,1210,1177,0,0
-7,-153,0,0,0,0,0,0,0,0,0,-1,1217,1177,0,0
0,-153,0,0,0,0,0,0,0,0,0,-1,1224,1177,0,0
7,-153,0,0,0,0,0,0,0,0,0,-1,1231,1177,0,0
14,-153,0,0,0,0,0,0,0,0,0,-1,1238,1177,0,0
21,-153,0,0,0,0,0,0,0,0,0,-1,1245,1177,0,0
28,-153,0,0,0,0,0,0,0,0,0,-1,1252,1177,0,0
35,-153,0,0,0,0,0,0,0,0,0,-1,1259,1177,0,0
42,-153,0,0,0,0,0,0,0,0,0,-1,1266,1177,0,0
49,-153,0,0,0,0,0,0,0,0,0,-1,1273,1177,0,0
56,-153,0,0,0,0,0,0,0,0,0,-1,1280,1177,0,0
63,-153,0,0,0,0,0,0,0,0,0,-1,1287,1177,0,0
70,-153,0,0,0,0,0,0,0,0,0,-1,1294,1177,0,0
77,-153,0,0,0,0,0,0,0,0,0,-1,1301,1177,0,0
84,-153,0,0,0,0,0,0,0,0,0,-1,1308,1177,0,0
91,-153,0,0,0,0,0,0,0,0,0,-1,1315,1177,0,0
98,-153,0,0,0,0,0,0,0,0,0,-1,1322,1177,0,0
105,-153,0,0,0,0,0,0,0,0,0,-1,1329,1177,0,0
112,-153,0,0,0,0,0,0,0,0,0,-1,1336,1177,0,0
119,-153,0,0,0,0,0,0,0,0,0,-1,1343,1177,0,0
126,-153,0,0,0,0,0,0,0,0,0,-1,1350,1177,0,0
133,-153,0,0,0,0,0,0,0,0,0,-1,1357,1177,0,0
140,-153,0,0,0,0,0,0,0,0,0,-1,1364,1177,0,0
147,-153,0,0,0,0,0,0,0,0,0,-1,1371,1177,0,0
154,-153,0,0,0,0,0,0,0,0,0,-1,1378,1177,0,0
161,-153,0,0,0,0,0,0,0,0,0,-1,1385,1177,0,0
168,-153,0,0,0,0,0,0,0,0,0,-1,1392,1177,0,0
175,-153,0,0,0,0,0,0,0,0,0,-1,1399,1177,0,0
182,-153,0,0,0,0,0,0,0,0,0,-1,1406,1177,0,0
189,-153,0,0,0,0,0,0,0,0,0,-1,1413,1177,0,0
196,-153,0,0,0,0,0,0,0,0,0,-1,1420,1177,0,0
203,-153,0,0,0,0,0,0,0,0,0,-1,1427,1177,0,0
210,-153,0,0,0,0,0,0,0,0,0,-1,1434,1177,0,0
217,-153,0,0,0,0,0,0,0,0,0,-1,1441,1177,0,0
224,-153,0,0,0,0,0,0,0,0,0,-1,1448,1177,0,0
231,-153,0,0,0,0,0,0,0,0,0,-1,1455,1177,0,0
238,-153,0,0,0,0,0,0,0,0,0,-1,1462,1177,0,0
245,-153,0,0,0,0,0,0,0,0,0,-1,1469,1177,0,0
252,-153,0,0,0,0,0,0,0,0,0,-1,1476,1177,0,0
259,-153,0,0,0,0,0,0,0,0,0,-1,1483,1177,0,0
266,-153,0,0,0,0,0,0,0,0,0,-1,1490,1177,0,0
273,-153,0,0,0,0,0,0,0,0,0,-1,1497,1177,0,0
280,-153,0,0,0,0,0,0,0,0,0,-1,1504,1177,0,0
287,-153,0,0,0,0,0,0,0,0,0,-1,1511,1177,0,0
294,-153,0,0,0,0,0,0,0,0,0,-1,1518,1177,0,0
301,-153,0,0,0,0,0,0,0,0,0,-1,1525,1177,0,0
308,-153,0,0,0,0,0,0,0,0,0,-1,1532,1177,0,0
315,-153,0,0,0,0,0,0,0,0,0,-1,1539,1177,0,0
322,-153,0,0,0,0,0,0,0,0,0,-1,1546,1177,0,0
329,-153,0,0,0,0,0,0,0,0,0,-1,1553,1177,0,0
336,-153,0,0,0,0,0,0,0,0,0,-1,1560,1177,0,0
343,-153,0,0,0,0,0,0,0,0,0,-1,1567,1177,0,0
350,-153,0,0,0,0,0,0,0,0,0,-1,1574,1177,0,0
357,-153,0,0,0,0,0,0,0,0,0,-1,1581,1177,0,0
364,-153,0,0,0,0,0,0,0,0,0,-1,1588,1177,0,0
371,-153,0,0,0,0,0,0,0,0,0,-1,1595,1177,0,0
378,-153,0,0,0,0,0,0,0,0,0,-1,1602,1177,0,0
385,-153,0,0,0,0,0,0,0,0,0,-1,1609,1177,0,0
392,-153,0,0,0,0,0,0,0,0,0,-1,1616,1177,0,0
399,-153,0,0,0,0,0,0,0,0,0,-1,1623,1177,0,0
406,-153,0,0,0,0,0,0,0,0,0,-1,1630,1177,0,0
413,-153,0,0,0,0,0,0,0,0,0,-1,1637,1177,0,0
420,-153,0,0,0,0,0,0,0,0,0,-1,1644,1177,0,0
427,-153,0,0,0,0,0,0,0,0,0,-1,1651,1177,0,0
434,-153,0,0,0,0,0,0,0,0,0,-1,1658,1177,0,0
441,-153,0,0,0,0,0,0,0,0,0,-1,1665,1177,0,0
448,-153,0,0,0,0,0,0,0,0,0,-1,1672,1177,0,0
455,-153,0,0,0,0,0,0,0,0,0,-1,1679,1177,0,0
462,-153,0,0,0,0,0,0,0,0,0,-1,1686,1177,0,0
469,-153,0,0,0,0,0,0,0,0,0,-1,1693,1177,0,0
476,-153,0,0,0,0,0,0,0,0,0,-1,1700,1177,0,0
483,-153,0,0,0,0,0,0,0,0,0,-1,1707,1177,0,0
490,-153,0,0,0,0,0,0,0,0,0,-1,1714,1177,0,0
497,-153,0,0,0,0,0,0,0,0,0,-1,1721,1177,0,0
504,-153,0,0,0,0,0,0,0,0,0,-1,1728,1177,0,0
511,-153,0,0,0,0,0,0,0,0,0,-1,1735,1177,0,0
518,-153,0,0,0,0,0,0,0,0,0,-1,1742,1177,0,0
525,-153,0,0,0,0,0,0,0,0,0,-1,1749,1177,0,0
532,-153,0,0,0,0,0,0,0,0,0,-1,1756,1177,0,0
539,-153,0,0,0,0,0,0,0,0,0,-1,1763,1177,0,0
546,-153,0,0,0,0,0,0,0,0,0,-1,1770,1177,0,0
553,-153,0,0,0,0,0,0,0,0,0,-1,1777,1177,0,0
560,-153,0,0,0,0,0,0,0,0,0,-1,1784,1177,0,0
567,-153,0,0,0,0,0,0,0,0,0,-1,1791,1177,0,0
574,-153,0,0,0,0,0,0,0,0,0,-1,1798,1177,0,0
581,-153,0,0,0,0,0,0,0,0,0,-1,1805,1177,0,0
588,-153,0,0,0,0,0,0,0,0,0,-1,1812,1177,0,0
595,-153,0,0,0,0,0,0,0,0,0,-1,1819,1177,0,0
602,-153,0,0,0,0,0,0,0,0,0,-1,1826,1177,0,0
609,-153,0,0,0,0,0,0,0,0,0,-1,1833,1177,0,0
616,-153,0,0,0,0,0,0,0,0,0,-1,1840,1177,0,0
623,-153,0,0,0,0,0,0,0,0,0,-1,1847,1177,0,0
630,-153,0,0,0,0,0,0,0,0,0,-1,1854,1177,0,0
637,-153,48.8796,2.4541,-0.00103563,0.000125368,-0.00237586,0.00199062,-0.00290088,-0.905217,0.00284037,0.0396819,1861,1177,48.8796,-2.45414
644,-153,48.8655,2.43896,-0.00104887,0.000105475,-0.00147297,0.00111032,-0.00205371,-0.972125,0.00185362,0.0385135,1868,1177,48.8654,-2.43901
651,-153,48.9059,2.53027,-0.000817081,0.000326279,-0.00108662,0.000982423,-0.00147322,-1.02756,0.00142718,0.0315295,1875,1177,48.9058,-2.53027
658,-153,48.9398,2.44946,-0.00034477,0.000628574,-0.000967969,0.00122533,-0.000941525,-1.01833,0.00125461,0.0368303,1882,1177,48.9399,-2.44949
665,-153,48.8911,2.50806,0.000215194,0.00098613,-0.00107605,0.00174367,-0.000542343,-0.95739,0.00137924,0.0387892,1889,1177,48.8912,-2.50802
672,-153,48.818,2.53516,0.000507992,0.00136366,-0.00119616,0.00220619,-0.000334545,-0.957144,0.00159406,0.0381237,1896,1177,48.818,-2.53514
679,-153,48.8109,2.54785,0.000579536,0.00138292,-0.00112877,0.00217934,-0.000216886,-0.956345,0.00153032,0.0312555,1903,1177,48.811,-2.54791
686,-153,48.8724,2.57043,0.000509288,0.00116908,-0.00090903,0.00180622,-0.000127856,-0.959463,0.00124895,0.0189332,1910,1177,48.8724,-2.57042
693,-153,48.947,2.51306,0.000314791,0.00101552,-0.000623264,0.00138014,-4.98375e-05,-1.04146,0.00093715,0.0307439,1917,1177,48.947,-2.51307
700,-153,49.0103,2.43591,0,0,0,0,0,0,0,-1,1924,1177,49.0102,-2.43596
707,-153,29.6483,6.6842,0,0,0,0,0,0,0,-1,1931,1177,29.6483,-6.68415
714,-153,36.0046,6.78418,0,0,0,0,0,0,0,-1,1938,1177,36.0046,-6.78418
721,-153,36.4866,6.47595,0,0,0,0,0,0,0,-1,1945,1177,36.4866,-6.47593
728,-153,42.635,6.76843,0,0,0,0,0,0,0,-1,1952,1177,42.635,-6.76843
735,-153,42.655,6.52246,0.000794778,0.000144172,0.00139123,0.00189823,-0.000959277,0.670549,0.00167921,0.0392882,1959,1177,42.6551,-6.52249
742,-153,42.6823,6.22791,0.00146229,0.000135733,0.00154144,0.0024771,-0.000879074,0.582223,0.00200957,0.0144993,1966,1177,42.6823,-6.22789
749,-153,42.6571,5.88074,0.00306781,0.000991767,0.000476331,0.00317188,0.000887694,0.215109,0.00188952,0.0156199,1973,1177,42.6571,-5.88078
756,-153,42.6425,5.48523,0.00541373,0.00273965,-0.00283254,0.00720893,0.000944441,-0.564888,0.00452412,0.0115566,1980,1177,42.6425,-5.4852
763,-153,42.6029,5.08105,0.00836616,0.00503254,-0.00797577,0.0148474,-0.00144872,-0.682388,0.0104148,0.0118558,1987,1177,42.6029,-5.081
770,-153,42.595,4.7041,0.010772,0.00783911,-0.014862,0.0242398,-0.00562867,-0.736222,0.0183265,0.0117273,1994,1177,42.595,-4.70408
777,-153,42.5692,4.39343,0.0121622,0.0112555,-0.0237552,0.0354683,-0.0120507,-0.775857,0.028524,0.0235465,2001,1177,42.5692,-4.39345
784,-153,42.5144,4.20813,0.0119329,0.0154495,-0.035143,0.0488782,-0.0214957,-0.810394,0.041643,0.042199,2008,1177,42.5145,-4.20814
791,-153,46.655,2.97412,0.00931272,0.0207406,-0.0499075,0.0652602,-0.0352069,-0.842395,0.0588634,0.0457098,2015,1177,46.655,-2.97416
798,-153,46.8196,2.31409,0.00295958,0.0273781,-0.0686434,0.0848895,-0.0545519,-0.87341,0.0811392,0.0454018,2022,1177,46.8197,-2.31407
805,-153,46.9722,1.64868,0,0,0,0,0,0,0,-1,2029,1177,46.9722,-1.64868
812,-153,0,0,0,0,0,0,0,0,0,-1,2036,1177,0,0
-700,-160,0,0,0,0,0,0,0,0,0,-1,524,1184,0,0
-693,-160,0,0,0,0,0,0,0,0,0,-1,531,1184,0,0
-686,-160,-28.2181,-0.876221,0,0,0,0,0,0,0,-1,538,1184,-28.2181,0.876236
-679,-160,-30.019,0.710693,0,0,0,0,0,0,0,-1,545,1184,-30.019,-0.710641
-672,-160,-29.7811,1.12756,0.0416073,-0.0542875,0.0186914,0.0451217,-0.0578019,0.185855,0.0595731,0.0471978,552,1184,-29.7811,-1.12758
-665,-160,-29.653,1.52686,0.0345978,-0.0475581,0.012805,0.0365473,-0.0495076,0.151089,0.0498713,0.049908,559,1184,-29.653,-1.52688
-658,-160,-29.5677,1.96265,0,0,0,0,0,0,0,-1,566,1184,-29.5678,-1.96259
-651,-160,-29.5555,1.53235,0,0,0,0,0,0,0,-1,573,1184,-29.5555,-1.5324
-644,-160,-29.3425,1.74414,0.0165947,-0.0233649,0.00197147,0.0166918,-0.023462,0.0491774,0.0232923,0.0373009,580,1184,-29.3425,-1.74416
-637,-160,-29.2109,1.95422,0.011258,-0.016594,-4.19818e-05,0.0112581,-0.0165941,-0.00150731,0.0161785,0.0136947,587,1184,-29.2109,-1.95426
-630,-160,-29.2773,2.35107,0.00705214,-0.0100546,-0.00135399,0.00715865,-0.0101611,-0.0784984,0.0100495,0.00838057,594,1184,-29.2773,-2.35106
-623,-160,-29.3228,2.78333,0.00356892,-0.0043076,-0.00178093,0.00395288,-0.00469156,-0.212346,0.00499694,0.011906,601,1184,-29.3228,-2.78332
-616,-160,-29.3466,3.24646,0.00112962,-0.00076518,-0.00143335,0.00190038,-0.00153593,-0.493374,0.00198767,0.0102406,608,1184,-29.3465,-3.24649
-609,-160,-29.3544,3.72046,-6.09944e-05,-2.60554e-05,-0.00121736,0.00117396,-0.00126101,-0.792573,0.00140613,0.0135392,615,1184,-29.3544,-3.7205
-602,-160,-29.2548,4.34961,2.55064e-06,-0.000378971,-0.00160282,0.00142592,-0.00180234,-0.726169,0.00186806,0.0481487,622,1184,-29.2548,-4.34962
-595,-160,-29.3267,5.19348,0,0,0,0,0,0,0,-1,629,1184,-29.3267,-5.19346
-588,-160,-28.2798,5.22412,0,0,0,0,0,0,0,-1,636,1184,-28.2798,-5.22415
-581,-160,-25.2925,4.6272,0,0,0,0,0,0,0,-1,643,1184,-25.2925,-4.62719
-574,-160,-28.1793,4.33484,0,0,0,0,0,0,0,-1,650,1184,-28.1792,-4.33488
-567,-160,-29.5828,0.643921,0,0,0,0,0,0,0,-1,657,1184,-29.5828,-0.643968
-560,-160,-36.2381,0.816284,0,0,0,0,0,0,0,-1,664,1184,-36.2381,-0.81633
-553,-160,-36.2446,0.790649,0.000287399,-0.00102186,-0.000287021,0.000347557,-0.00108202,-0.206603,0.000860908,0.0386359,671,1184,-36.2446,-0.790613
-546,-160,-36.2396,0.675171,0.000780035,-0.00118877,-7.16027e-05,0.000782635,-0.00119137,-0.0363046,0.00114781,0.0386183,678,1184,-36.2396,-0.675189
-539,-160,-36.2162,0.558594,0.00219201,-0.00109671,0.000522666,0.00227308,-0.00117778,0.153878,0.00202553,0.0413358,685,1184,-36.2162,-0.558624
-532,-160,-36.4106,0.890503,0.00465784,-0.00150631,0.00103431,0.00482677,-0.00167523,0.16189,0.00389815,0.0436734,692,1184,-36.4106,-0.890519
-525,-160,-36.2971,0.953369,0.00913527,-0.00243486,0.00138861,0.00929959,-0.00259918,0.117788,0.00722371,0.0412018,699,1184,-36.2971,-0.953327
-518,-160,-36.1,0.866455,0.0138748,-0.00345334,0.00140176,0.0139875,-0.003566,0.0802,0.0107134,0.0419339,706,1184,-36.1,-0.866427
-511,-160,0,0,0,0,0,0,0,0,0,-1,713,1184,0,0
-504,-160,0,0,0,0,0,0,0,0,0,-1,720,1184,0,0
-497,-160,0,0,0,0,0,0,0,0,0,-1,727,1184,0,0
-490,-160,0,0,0,0,0,0,0,0,0,-1,734,1184,0,0
-483,-160,0,0,0,0,0,0,0,0,0,-1,741,1184,0,0
-476,-160,0,0,0,0,0,0,0,0,0,-1,748,1184,0,0
-469,-160,0,0,0,0,0,0,0,0,0,-1,755,1184,0,0
-462,-160,0,0,0,0,0,0,0,0,0,-1,762,1184,0,0
-455,-160,0,0,0,0,0,0,0,0,0,-1,769,1184,0,0
-448,-160,0,0,0,0,0,0,0,0,0,-1,776,1184,0,0
-441,-160,0,0,0,0,0,0,0,0,0,-1,783,1184,0,0
-434,-160,0,0,0,0,0,0,0,0,0,-1,790,1184,0,0
-427,-160,0,0,0,0,0,0,0,0,0,-1,797,1184,0,0
-420,-160,0,0,0,0,0,0,0,0,0,-1,804,1184,0,0
-413,-160,0,0,0,0,0,0,0,0,0,-1,811,1184,0,0
-406,-160,0,0,0,0,0,0,0,0,0,-1,818,1184,0,0
-399,-160,0,0,0,0,0,0,0,0,0,-1,825,1184,0,0
-392,-160,0,0,0,0,0,0,0,0,0,-1,832,1184,0,0
-385,-160,0,0,0,0,0,0,0,0,0,-1,839,1184,0,0
-378,-160,0,0,0,0,0,0,0,0,0,-1,846,1184,0,0
-371,-160,0,0,0,0,0,0,0,0,0,-1,853,1184,0,0
-364,-160,0,0,0,0,0,0,0,0,0,-1,860,1184,0,0
-357,-160,0,0,0,0,0,0,0,0,0,-1,867,1184,0,0
-350,-160,0,0,0,0,0,0,0,0,0,-1,874,1184,0,0
-343,-160,0,0,0,0,0,0,0,0,0,-1,881,1184,0,0
-336,-160,0,0,0,0,0,0,0,0,0,-1,888,1184,0,0
-329,-160,0,0,0,0,0,0,0,0,0,-1,895,1184,0,0
-322,-160,0,0,0,0,0,0,0,0,0,-1,902,1184,0,0
-315,-160,0,0,0,0,0,0,0,0,0,-1,909,1184,0,0
-308,-160,0,0,0,0,0,0,0,0,0,-1,916,1184,0,0
-301,-160,0,0,0,0,0,0,0,0,0,-1,923,1184,0,0
-294,-160,0,0,0,0,0,0,0,0,0,-1,930,1184,0,0
-287,-160,0,0,0,0,0,0,0,0,0,-1,937,1184,0,0
-280,-160,0,0,0,0,0,0,0,0,0,-1,944,1184,0,0
-273,-160,0,0,0,0,0,0,0,0,0,-1,951,1184,0,0
-266,-160,0,0,0,0,0,0,0,0,0,-1,958,1184,0,0
-259,-160,0,0,0,0,0,0,0,0,0,-1,965,1184,0,0
-252,-160,0,0,0,0,0,0,0,0,0,-1,972,1184,0,0
-245,-160,0,0,0,0,0,0,0,0,0,-1,979,1184,0,0
-238,-160,0,0,0,0,0,0,0,0,0,-1,986,1184,0,0
-231,-160,0,0,0,0,0,0,0,0,0,-1,993,1184,0,0
-224,-160,0,0,0,0,0,0,0,0,0,-1,1000,1184,0,0
-217,-160,0,0,0,0,0,0,0,0,0,-1,1007,1184,0,0
-210,-160,0,0,0,0,0,0,0,0,0,-1,1014,1184,0,0
-203,-160,0,0,0,0,0,0,0,0,0,-1,1021,1184,0,0
-196,-160,0,0,0,0,0,0,0,0,0,-1,1028,1184,0,0
-189,-160,0,0,0,0,0,0,0,0,0,-1,1035,1184,0,0
-182,-160,0,0,0,0,0,0,0,0,0,-1,1042,1184,0,0
-175,-160,0,0,0,0,0,0,0,0,0,-1,1049,1184,0,0
-168,-160,0,0,0,0,0,0,0,0,0,-1,1056,1184,0,0
-161,-160,0,0,0,0,0,0,0,0,0,-1,1063,1184,0,0
-154,-160,0,0,0,0,0,0,0,0,0,-1,1070,1184,0,0
-147,-160,0,0,0,0,0,0,0,0,0,-1,1077,1184,0,0
-140,-160,0,0,0,0,0,0,0,0,0,-1,1084,1184,0,0
-133,-160,0,0,0,0,0,0,0,0,0,-1,1091,1184,0,0
-126,-160,0,0,0,0,0,0,0,0,0,-1,1098,1184,0,0
-119,-160,0,0,0,0,0,0,0,0,0,-1,1105,1184,0,0
-112,-160,0,0,0,0,0,0,0,0,0,-1,1112,1184,0,0
-105,-160,0,0,0,0,0,0,0,0,0,-1,1119,1184,0,0
-98,-160,0,0,0,0,0,0,0,0,0,-1,1126,1184,0,0
-91,-160,0,0,0,0,0,0,0,0,0,-1,1133,1184,0,0
-84,-160,0,0,0,0,0,0,0,0,0,-1,1140,1184,0,0
-77,-160,0,0,0,0,0,0,0,0,0,-1,1147,1184,0,0
-70,-160,0,0,0,0,0,0,0,0,0,-1,1154,1184,0,0
-63,-160,0,0,0,0,0,0,0,0,0,-1,1161,1184,0,0
-56,-160,0,0,0,0,0,0,0,0,0,-1,1168,1184,0,0
-49,-160,0,0,0,0,0,0,0,0,0,-1,1175,1184,0,0
-42,-160,0,0,0,0,0,0,0,0,0,-1,1182,1184,0,0
-35,-160,0,0,0,0,0,0,0,0,0,-1,1189,1184,0,0
-28,-160,0,0,0,0,0,0,0,0,0,-1,1196,1184,0,0
-21,-160,0,0,0,0,0,0,0,0,0,-1,1203,1184,0,0
-14,-160,0,0,0,0,0,0,0,0,0,-1,1210,1184,0,0
-7,-160,0,0,0,0,0,0,0,0,0,-1,1217,1184,0,0
0,-160,0,0,0,0,0,0,0,0,0,-1,1224,1184,0,0
7,-160,0,0,0,0,0,0,0,0,0,-1,1231,1184,0,0
14,-160,0,0,0,0,0,0,0,0,0,-1,1238,1184,0,0
21,-160,0,0,0,0,0,0,0,0,0,-1,1245,1184,0,0
28,-160,0,0,0,0,0,0,0,0,0,-1,1252,1184,0,0
35,-160,0,0,0,0,0,0,0,0,0,-1,1259,1184,0,0
42,-160,0,0,0,0,0,0,0,0,0,-1,1266,1184,0,0
49,-160,0,0,0,0,0,0,0,0,0,-1,1273,1184,0,0
56,-160,0,0,0,0,0,0,0,0,0,-1,1280,1184,0,0
63,-160,0,0,0,0,0,0,0,0,0,-1,1287,1184,0,0
70,-160,0,0,0,0,0,0,0,0,0,-1,1294,1184,0,0
77,-160,0,0,0,0,0,0,0,0,0,-1,1301,1184,0,0
84,-160,0,0,0,0,0,0,0,0,0,-1,1308,1184,0,0
91,-160,0,0,0,0,0,0,0,0,0,-1,1315,1184,0,0
98,-160,0,0,0,0,0,0,0,0,0,-1,1322,1184,0,0
105,-160,0,0,0,0,0,0,0,0,0,-1,1329,1184,0,0
112,-160,0,0,0,0,0,0,0,0,0,-1,1336,1184,0,0
119,-160,0,0,0,0,0,0,0,0,0,-1,1343,1184,0,0
126,-160,0,0,0,0,0,0,0,0,0,-1,1350,1184,0,0
133,-160,0,0,0,0,0,0,0,0,0,-1,1357,1184,0,0
140,-160,0,0,0,0,0,0,0,0,0,-1,1364,1184,0,0
147,-160,0,0,0,0,0,0,0,0,0,-1,1371,1184,0,0
154,-160,0,0,0,0,0,0,0,0,0,-1,1378,1184,0,0
161,-160,0,0,0,0,0,0,0,0,0,-1,1385,1184,0,0
168,-160,0,0,0,0,0,0,0,0,0,-1,1392,1184,0,0
175,-160,0,0,0,0,0,0,0,0,0,-1,1399,1184,0,0
182,-160,0,0,0,0,0,0,0,0,0,-1,1406,1184,0,0
189,-160,0,0,0,0,0,0,0,0,0,-1,1413,1184,0,0
196,-160,0,0,0,0,0,0,0,0,0,-1,1420,1184,0,0
203,-160,0,0,0,0,0,0,0,0,0,-1,1427,1184,0,0
210,-160,0,0,0,0,0,0,0,0,0,-1,1434,1184,0,0
217,-160,0,0,0,0,0,0,0,0,0,-1,1441,1184,0,0
224,-160,0,0,0,0,0,0,0,0,0,-1,1448,1184,0,0
231,-160,0,0,0,0,0,0,0,0,0,-1,1455,1184,0,0
238,-160,0,0,0,0,0,0,0,0,0,-1,1462,1184,0,0
245,-160,0,0,0,0,0,0,0,0,0,-1,1469,1184,0,0
252,-160,0,0,0,0,0,0,0,0,0,-1,1476,1184,0,0
259,-160,0,0,0,0,0,0,0,0,0,-1,1483,1184,0,0
266,-160,0,0,0,0,0,0,0,0,0,-1,1490,1184,0,0
273,-160,0,0,0,0,0,0,0,0,0,-1,1497,1184,0,0
280,-160,0,0,0,0,0,0,0,0,0,-1,1504,1184,0,0
287,-160,0,0,0,0,0,0,0,0,0,-1,1511,1184,0,0
294,-160,0,0,0,0,0,0,0,0,0,-1,1518,1184,0,0
301,-160,0,0,0,0,0,0,0,0,0,-1,1525,1184,0,0
308,-160,0,0,0,0,0,0,0,0,0,-1,1532,1184,0,0
315,-160,0,0,0,0,0,0,0,0,0,-1,1539,1184,0,0
322,-160,0,0,0,0,0,0,0,0,0,-1,1546,1184,0,0
329,-160,0,0,0,0,0,0,0,0,0,-1,1553,1184,0,0
336,-160,0,0,0,0,0,0,0,0,0,-1,1560,1184,0,0
343,-160,0,0,0,0,0,0,0,0,0,-1,1567,1184,0,0
350,-160,0,0,0,0,0,0,0,0,0,-1,1574,1184,0,0
357,-160,0,0,0,0,0,0,0,0,0,-1,1581,1184,0,0
364,-160,0,0,0,0,0,0,0,0,0,-1,1588,1184,0,0
371,-160,0,0,0,0,0,0,0,0,0,-1,1595,1184,0,0
378,-160,0,0,0,0,0,0,0,0,0,-1,1602,1184,0,0
385,-160,0,0,0,0,0,0,0,0,0,-1,1609,1184,0,0
392,-160,0,0,0,0,0,0,0,0,0,-1,1616,1184,0,0
399,-160,0,0,0,0,0,0,0,0,0,-1,1623,1184,0,0
406,-160,0,0,0,0,0,0,0,0,0,-1,1630,1184,0,0
413,-160,0,0,0,0,0,0,0,0,0,-1,1637,1184,0,0
420,-160,0,0,0,0,0,0,0,0,0,-1,1644,1184,0,0
427,-160,0,0,0,0,0,0,0,0,0,-1,1651,1184,0,0
434,-160,0,0,0,0,0,0,0,0,0,-1,1658,1184,0,0
441,-160,0,0,0,0,0,0,0,0,0,-1,1665,1184,0,0
448,-160,0,0,0,0,0,0,0,0,0,-1,1672,1184,0,0
455,-160,0,0,0,0,0,0,0,0,0,-1,1679,1184,0,0
462,-160,0,0,0,0,0,0,0,0,0,-1,1686,1184,0,0
469,-160,0,0,0,0,0,0,0,0,0,-1,1693,1184,0,0
476,-160,0,0,0,0,0,0,0,0,0,-1,1700,1184,0,0
483,-160,0,0,0,0,0,0,0,0,0,-1,1707,1184,0,0
490,-160,0,0,0,0,0,0,0,0,0,-1,1714,1184,0,0
497,-160,0,0,0,0,0,0,0,0,0,-1,1721,1184,0,0
504,-160,0,0,0,0,0,0,0,0,0,-1,1728,1184,0,0
511,-160,0,0,0,0,0,0,0,0,0,-1,1735,1184,0,0
518,-160,0,0,0,0,0,0,0,0,0,-1,1742,1184,0,0
525,-160,0,0,0,0,0,0,0,0,0,-1,1749,1184,0,0
532,-160,0,0,0,0,0,0,0,0,0,-1,1756,1184,0,0
539,-160,0,0,0,0,0,0,0,0,0,-1,1763,1184,0,0
546,-160,0,0,0,0,0,0,0,0,0,-1,1770,1184,0,0
553,-160,0,0,0,0,0,0,0,0,0,-1,1777,1184,0,0
560,-160,0,0,0,0,0,0,0,0,0,-1,1784,1184,0,0
567,-160,0,0,0,0,0,0,0,0,0,-1,1791,1184,0,0
574,-160,0,0,0,0,0,0,0,0,0,-1,1798,1184,0,0
581,-160,0,0,0,0,0,0,0,0,0,-1,1805,1184,0,0
588,-160,0,0,0,0,0,0,0,0,0,-1,1812,1184,0,0
595,-160,0,0,0,0,0,0,0,0,0,-1,1819,1184,0,0
602,-160,0,0,0,0,0,0,0,0,0,-1,1826,1184,0,0
609,-160,0,0,0,0,0,0,0,0,0,-1,1833,1184,0,0
616,-160,0,0,0,0,0,0,0,0,0,-1,1840,1184,0,0
623,-160,0,0,0,0,0,0,0,0,0,-1,1847,1184,0,0
630,-160,0,0,0,0,0,0,0,0,0,-1,1854,1184,0,0
637,-160,48.8226,2.53552,-0.000934393,-0.000172251,-0.00154207,0.00103513,-0.00214178,-0.90653,0.00187092,0.042713,1861,1184,48.8226,-2.53557
644,-160,48.8325,2.51685,-0.000910674,6.69561e-05,-0.00101914,0.000708442,-0.00155216,-1.00901,0.00133512,0.0423136,1868,1184,48.8325,-2.5169
651,-160,48.8237,2.62793,-0.000670609,0.000525744,-0.000888468,0.000998637,-0.0011435,-1.08168,0.00123771,0.0387342,1875,1184,48.8237,-2.62788
658,-160,48.6866,2.60901,-0.000193013,0.00103059,-0.00101921,0.00160753,-0.000769949,-1.05571,0.00140074,0.0407987,1882,1184,48.6866,-2.60896
665,-160,48.8761,2.5437,0.000384187,0.00148543,-0.00133029,0.00237455,-0.000504937,-0.981618,0.00177545,0.0410798,1889,1184,48.8761,-2.5437
672,-160,48.8641,2.59619,0.000671528,0.00184633,-0.00153402,0.00290156,-0.000383711,-0.968244,0.00207414,0.0358713,1896,1184,48.8641,-2.59623
679,-160,48.8489,2.56531,0.000745285,0.00175277,-0.00150234,0.00283358,-0.00033552,-0.947161,0.00201025,0.0267301,1903,1184,48.8488,-2.5653
686,-160,48.9086,2.54236,0.000664862,0.00141799,-0.00124826,0.00234525,-0.000262398,-0.931893,0.0016579,0.0162436,1910,1184,48.9086,-2.54238
693,-160,48.9247,2.50867,0,0,0,0,0,0,0,-1,1917,1184,48.9247,-2.50871
700,-160,42.8784,2.44617,0,0,0,0,0,0,0,-1,1924,1184,42.8785,-2.4462
707,-160,24.5115,6.27405,0,0,0,0,0,0,0,-1,1931,1184,24.5115,-6.27401
714,-160,35.6892,6.8905,0,0,0,0,0,0,0,-1,1938,1184,35.6892,-6.89048
721,-160,36.2388,6.37878,0,0,0,0,0,0,0,-1,1945,1184,36.2388,-6.37876
728,-160,42.2228,7.10083,0,0,0,0,0,0,0,-1,1952,1184,42.2228,-7.10084
735,-160,42.3469,6.60828,0.000779261,-2.83043e-05,0.00126055,0.00169912,-0.000948161,0.6304,0.00154877,0.0306879,1959,1184,42.347,-6.60834
742,-160,42.2373,6.24231,0.00150712,-1.70341e-06,0.00143825,0.00237681,-0.000871395,0.543858,0.00194133,0.0156221,1966,1184,42.2373,-6.24226
749,-160,42.22,5.86621,0.00310239,0.000867246,0.000209207,0.0031218,0.000847833,0.092528,0.00186401,0.0167779,1973,1184,42.22,-5.86626
756,-160,42.2301,5.48145,0.00490509,0.00255452,-0.0032619,0.00719697,0.00026263,-0.612484,0.00471288,0.0118304,1980,1184,42.2301,-5.48144
763,-160,42.1875,5.09277,0.00699883,0.00471419,-0.00851535,0.0144481,-0.00273512,-0.718722,0.0106614,0.0132049,1987,1184,42.1874,-5.09278
770,-160,42.1234,4.66089,0.0083411,0.00736907,-0.0155941,0.0234568,-0.00774659,-0.76982,0.0187609,0.0224756,1994,1184,42.1235,-4.66095
777,-160,42.0389,4.3407,0.00838725,0.0106294,-0.0247603,0.034294,-0.0152773,-0.808021,0.0293136,0.0323465,2001,1184,42.0389,-4.34074
784,-160,42.2793,4.0708,0.00649797,0.0146452,-0.0364089,0.0472077,-0.0260645,-0.841109,0.0428868,0.0432442,2008,1184,42.2793,-4.07085
791,-160,42.2478,3.86011,0,0,0,0,0,0,0,-1,2015,1184,42.2479,-3.86014
798,-160,47.7578,2.02246,-0.00700012,0.02627,-0.0706014,0.0821696,-0.0628998,-0.901097,0.0840018,0.0445007,2022,1184,47.7578,-2.0225
805,-160,47.3013,1.36267,-0.0219064,0.0345602,-0.094375,0.104835,-0.0921808,-0.930741,0.113825,0.0441914,2029,1184,47.3013,-1.3627
812,-160,0,0,0,0,0,0,0,0,0,-1,2036,1184,0,0
-700,-167,0,0,0,0,0,0,0,0,0,-1,524,1191,0,0
-693,-167,0,0,0,0,0,0,0,0,0,-1,531,1191,0,0
-686,-167,-28.2231,0.381348,0,0,0,0,0,0,0,-1,538,1191,-28.2231,-0.381358
-679,-167,-29.3936,1.24109,0,0,0,0,0,0,0,-1,545,1191,-29.3935,-1.24107
-672,-167,-29.1761,1.68872,0.0353138,-0.080051,0.0158998,0.037465,-0.0822022,0.134482,0.0706809,0.0478131,552,1191,-29.1761,-1.68876
-665,-167,-29.0451,2.3623,0.0304481,-0.0681806,0.0103689,0.0315264,-0.0692589,0.103621,0.0595322,0.0479357,559,1191,-29.0451,-2.36236
-658,-167,-28.9743,2.94409,0,0,0,0,0,0,0,-1,566,1191,-28.9743,-2.94407
-651,-167,-29.3858,1.099,0,0,0,0,0,0,0,-1,573,1191,-29.3858,-1.09902
-644,-167,-28.9058,1.70422,0.0163915,-0.0313974,0.000946259,0.0164103,-0.0314162,0.0197904,0.028062,0.0404765,580,1191,-28.9058,-1.7042
-637,-167,-28.7337,1.96301,0.0117473,-0.0216312,-0.000629932,0.0117592,-0.0216431,-0.0188634,0.0195642,0.0182325,587,1191,-28.7337,-1.96299
-630,-167,-28.8126,2.3551,0.00792261,-0.0129225,-0.00164601,0.00805179,-0.0130516,-0.0783171,0.0122975,0.00949576,594,1191,-28.8126,-2.35516
-623,-167,-28.8439,2.77966,0.00448545,-0.00566068,-0.00193605,0.00484233,-0.00601755,-0.182287,0.00628218,0.0117945,601,1191,-28.8439,-2.77968
-616,-167,-28.8486,3.24231,0.00172238,-0.00116601,-0.00147528,0.00234268,-0.00178632,-0.398023,0.00239108,0.0153473,608,1191,-28.8486,-3.24235
-609,-167,-28.876,3.73169,4.43716e-05,1.03353e-05,-0.00107266,0.00110015,-0.00104544,-0.777466,0.00123889,0.0142328,615,1191,-28.876,-3.73163
-602,-167,-28.9027,4.16882,-0.000115154,-0.000398064,-0.00135986,0.00111059,-0.00162381,-0.733574,0.00158794,0.0167505,622,1191,-28.9027,-4.16882
-595,-167,-28.7788,4.54736,0,0,0,0,0,0,0,-1,629,1191,-28.7788,-4.54741
-588,-167,-29.098,5.03333,0,0,0,0,0,0,0,-1,636,1191,-29.098,-5.03334
-581,-167,-29.0225,5.26208,0,0,0,0,0,0,0,-1,643,1191,-29.0225,-5.26203
-574,-167,-24.1547,5.43677,0,0,0,0,0,0,0,-1,650,1191,-24.1547,-5.43682
-567,-167,-27.3643,2.55859,0,0,0,0,0,0,0,-1,657,1191,-27.3643,-2.55864
-560,-167,-36.1766,0.773315,0,0,0,0,0,0,0,-1,664,1191,-36.1766,-0.773344
-553,-167,-36.1907,0.748657,-2.80886e-07,-0.000820536,-1.87082e-05,1.45548e-07,-0.000820963,-0.022792,0.000547357,0.0391036,671,1191,-36.1908,-0.748694
-546,-167,-36.2432,0.743286,0.000444209,-0.000915602,0.000167961,0.000464648,-0.000936041,0.121094,0.000823812,0.0350229,678,1191,-36.2431,-0.743329
-539,-167,-36.2997,1.03003,0.00166696,-0.000659642,0.000614107,0.00181911,-0.000811786,0.242859,0.00155562,0.0380165,685,1191,-36.2998,-1.03003
-532,-167,-36.3182,1.15833,0.00383045,-0.000888509,0.000906369,0.00399855,-0.00105661,0.18338,0.00307894,0.0430407,692,1191,-36.3182,-1.15838
-525,-167,-36.2641,1.1864,0.00851366,-0.00182851,0.00113315,0.00863636,-0.00195121,0.107861,0.00650625,0.0435085,699,1191,-36.2641,-1.18642
-518,-167,-36.1362,1.12219,0.0135994,-0.00295995,0.00110394,0.0136727,-0.00303322,0.0662746,0.0102765,0.0428971,706,1191,-36.1362,-1.12224
-511,-167,0,0,0,0,0,0,0,0,0,-1,713,1191,0,0
-504,-167,0,0,0,0,0,0,0,0,0,-1,720,1191,0,0
-497,-167,0,0,0,0,0,0,0,0,0,-1,727,1191,0,0
-490,-167,0,0,0,0,0,0,0,0,0,-1,734,1191,0,0
-483,-167,0,0,0,0,0,0,0,0,0,-1,741,1191,0,0
-476,-167,0,0,0,0,0,0,0,0,0,-1,748,1191,0,0
-469,-167,0,0,0,0,0,0,0,0,0,-1,755,1191,0,0
-462,-167,0,0,0,0,0,0,0,0,0,-1,762,1191,0,0
-455,-167,0,0,0,0,0,0,0,0,0,-1,769,1191,0,0
-448,-167,0,0,0,0,0,0,0,0,0,-1,776,1191,0,0
-441,-167,0,0,0,0,0,0,0,0,0,-1,783,1191,0,0
-434,-167,0,0,0,0,0,0,0,0,0,-1,790,1191,0,0
-427,-167,0,0,0,0,0,0,0,0,0,-1,797,1191,0,0
-420,-167,0,0,0,0,0,0,0,0,0,-1,804,1191,0,0
-413,-167,0,0,0,0,0,0,0,0,0,-1,811,1191,0,0
-406,-167,0,0,0,0,0,0,0,0,0,-1,818,1191,0,0
-399,-167,0,0,0,0,0,0,0,0,0,-1,825,1191,0,0
-392,-167,0,0,0,0,0,0,0,0,0,-1,832,1191,0,0
-385,-167,0,0,0,0,0,0,0,0,0,-1,839,1191,0,0
-378,-167,0,0,0,0,0,0,0,0,0,-1,846,1191,0,0
-371,-167,0,0,0,0,0,0,0,0,0,-1,853,1191,0,0
-364,-167,0,0,0,0,0,0,0,0,0,-1,860,1191,0,0
-357,-167,0,0,0,0,0,0,0,0,0,-1,867,1191,0,0
-350,-167,0,0,0,0,0,0,0,0,0,-1,874,1191,0,0
-343,-167,0,0,0,0,0,0,0,0,0,-1,881,1191,0,0
-336,-167,0,0,0,0,0,0,0,0,0,-1,888,1191,0,0
-329,-167,0,0,0,0,0,0,0,0,0,-1,895,1191,0,0
-322,-167,0,0,0,0,0,0,0,0,0,-1,902,1191,0,0
-315,-167,0,0,0,0,0,0,0,0,0,-1,909,1191,0,0
-308,-167,0,0,0,0,0,0,0,0,0,-1,916,1191,0,0
-301,-167,0,0,0,0,0,0,0,0,0,-1,923,1191,0,0
-294,-167,0,0,0,0,0,0,0,0,0,-1,930,1191,0,0
-287,-167,0,0,0,0,0,0,0,0,0,-1,937,1191,0,0
-280,-167,0,0,0,0,0,0,0,0,0,-1,944,1191,0,0
-273,-167,0,0,0,0,0,0,0,0,0,-1,951,1191,0,0
-266,-167,0,0,0,0,0,0,0,0,0,-1,958,1191,0,0
-259,-167,0,0,0,0,0,0,0,0,0,-1,965,1191,0,0
-252,-167,0,0,0,0,0,0,0,0,0,-1,972,1191,0,0
-245,-167,0,0,0,0,0,0,0,0,0,-1,979,1191,0,0
-238,-167,0,0,0,0,0,0,0,0,0,-1,986,1191,0,0
-231,-167,0,0,0,0,0,0,0,0,0,-1,993,1191,0,0
-224,-167,0,0,0,0,0,0,0,0,0,-1,1000,1191,0,0
-217,-167,0,0,0,0,0,0,0,0,0,-1,1007,1191,0,0
-210,-167,0,0,0,0,0,0,0,0,0,-1,1014,1191,0,0
-203,-167,0,0,0,0,0,0,0,0,0,-1,1021,1191,0,0
-196,-167,0,0,0,0,0,0,0,0,0,-1,1028,1191,0,0
-189,-167,0,0,0,0,0,0,0,0,0,-1,1035,1191,0,0
-182,-167,0,0,0,0,0,0,0,0,0,-1,1042,1191,0,0
-175,-167,0,0,0,0,0,0,0,0,0,-1,1049,1191,0,0
-168,-167,0,0,0,0,0,0,0,0,0,-1,1056,1191,0,0
-161,-167,0,0,0,0,0,0,0,0,0,-1,1063,1191,0,0
-154,-167,0,0,0,0,0,0,0,0,0,-1,1070,1191,0,0
-147,-167,0,0,0,0,0,0,0,0,0,-1,1077,1191,0,0
-140,-167,0,0,0,0,0,0,0,0,0,-1,1084,1191,0,0
-133,-167,0,0,0,0,0,0,0,0,0,-1,1091,1191,0,0
-126,-167,0,0,0,0,0,0,0,0,0,-1,1098,1191,0,0
-119,-167,0,0,0,0,0,0,0,0,0,-1,1105,1191,0,0
-112,-167,0,0,0,0,0,0,0,0,0,-1,1112,1191,0,0
-105,-167,0,0,0,0,0,0,0,0,0,-1,1119,1191,0,0
-98,-167,0,0,0,0,0,0,0,0,0,-1,1126,1191,0,0
-91,-167,0,0,0,0,0,0,0,0,0,-1,1133,1191,0,0
-84,-167,0,0,0,0,0,0,0,0,0,-1,1140,1191,0,0
-77,-167,0,0,0,0,0,0,0,0,0,-1,1147,1191,0,0
-70,-167,0,0,0,0,0,0,0,0,0,-1,1154,1191,0,0
-63,-167,0,0,0,0,0,0,0,0,0,-1,1161,1191,0,0
-56,-167,0,0,0,0,0,0,0,0,0,-1,1168,1191,0,0
-49,-167,0,0,0,0,0,0,0,0,0,-1,1175,1191,0,0
-42,-167,0,0,0,0,0,0,0,0,0,-1,1182,1191,0,0
-35,-167,0,0,0,0,0,0,0,0,0,-1,1189,1191,0,0
-28,-167,0,0,0,0,0,0,0,0,0,-1,1196,1191,0,0
-21,-167,0,0,0,0,0,0,0,0,0,-1,1203,1191,0,0
-14,-167,0,0,0,0,0,0,0,0,0,-1,1210,1191,0,0
-7,-167,0,0,0,0,0,0,0,0,0,-1,1217,1191,0,0
0,-167,0,0,0,0,0,0,0,0,0,-1,1224,1191,0,0
7,-167,0,0,0,0,0,0,0,0,0,-1,1231,1191,0,0
14,-167,0,0,0,0,0,0,0,0,0,-1,1238,1191,0,0
21,-167,0,0,0,0,0,0,0,0,0,-1,1245,1191,0,0
28,-167,0,0,0,0,0,0,0,0,0,-1,1252,1191,0,0
35,-167,0,0,0,0,0,0,0,0,0,-1,1259,1191,0,0
42,-167,0,0,0,0,0,0,0,0,0,-1,1266,1191,0,0
49,-167,0,0,0,0,0,0,0,0,0,-1,1273,1191,0,0
56,-167,0,0,0,0,0,0,0,0,0,-1,1280,1191,0,0
63,-167,0,0,0,0,0,0,0,0,0,-1,1287,1191,0,0
70,-167,0,0,0,0,0,0,0,0,0,-1,1294,1191,0,0
77,-167,0,0,0,0,0,0,0,0,0,-1,1301,1191,0,0
84,-167,0,0,0,0,0,0,0,0,0,-1,1308,1191,0,0
91,-167,0,0,0,0,0,0,0,0,0,-1,1315,1191,0,0
98,-167,0,0,0,0,0,0,0,0,0,-1,1322,1191,0,0
105,-167,0,0,0,0,0,0,0,0,0,-1,1329,1191,0,0
112,-167,0,0,0,0,0,0,0,0,0,-1,1336,1191,0,0
119,-167,0,0,0,0,0,0,0,0,0,-1,1343,1191,0,0
126,-167,0,0,0,0,0,0,0,0,0,-1,1350,1191,0,0
133,-167,0,0,0,0,0,0,0,0,0,-1,1357,1191,0,0
140,-167,0,0,0,0,0,0,0,0,0,-1,1364,1191,0,0
147,-167,0,0,0,0,0,0,0,0,0,-1,1371,1191,0,0
154,-167,0,0,0,0,0,0,0,0,0,-1,1378,1191,0,0
161,-167,0,0,0,0,0,0,0,0,0,-1,1385,1191,0,0
168,-167,0,0,0,0,0,0,0,0,0,-1,1392,1191,0,0
175,-167,0,0,0,0,0,0,0,0,0,-1,1399,1191,0,0
182,-167,0,0,0,0,0,0,0,0,0,-1,1406,1191,0,0
189,-167,0,0,0,0,0,0,0,0,0,-1,1413,1191,0,0
196,-167,0,0,0,0,0,0,0,0,0,-1,1420,1191,0,0
203,-167,0,0,0,0,0,0,0,0,0,-1,1427,1191,0,0
210,-167,0,0,0,0,0,0,0,0,0,-1,1434,1191,0,0
217,-167,0,0,0,0,0,0,0,0,0,-1,1441,1191,0,0
224,-167,0,0,0,0,0,0,0,0,0,-1,1448,1191,0,0
231,-167,0,0,0,0,0,0,0,0,0,-1,1455,1191,0,0
238,-167,0,0,0,0,0,0,0,0,0,-1,1462,1191,0,0
245,-167,0,0,0,0,0,0,0,0,0,-1,1469,1191,0,0
252,-167,0,0,0,0,0,0,0,0,0,-1,1476,1191,0,0
259,-167,0,0,0,0,0,0,0,0,0,-1,1483,1191,0,0
266,-167,0,0,0,0,0,0,0,0,0,-1,1490,1191,0,0
273,-167,0,0,0,0,0,0,0,0,0,-1,1497,1191,0,0
280,-167,0,0,0,0,0,0,0,0,0,-1,1504,1191,0,0
287,-167,0,0,0,0,0,0,0,0,0,-1,1511,1191,0,0
294,-167,0,0,0,0,0,0,0,0,0,-1,1518,1191,0,0
301,-167,0,0,0,0,0,0,0,0,0,-1,1525,1191,0,0
308,-167,0,0,0,0,0,0,0,0,0,-1,1532,1191,0,0
315,-167,0,0,0,0,0,0,0,0,0,-1,1539,1191,0,0
322,-167,0,0,0,0,0,0,0,0,0,-1,1546,1191,0,0
329,-167,0,0,0,0,0,0,0,0,0,-1,1553,1191,0,0
336,-167,0,0,0,0,0,0,0,0,0,-1,1560,1191,0,0
343,-167,0,0,0,0,0,0,0,0,0,-1,1567,1191,0,0
350,-167,0,0,0,0,0,0,0,0,0,-1,1574,1191,0,0
357,-167,0,0,0,0,0,0,0,0,0,-1,1581,1191,0,0
364,-167,0,0,0,0,0,0,0,0,0,-1,1588,1191,0,0
371,-167,0,0,0,0,0,0,0,0,0,-1,1595,1191,0,0
378,-167,0,0,0,0,0,0,0,0,0,-1,1602,1191,0,0
385,-167,0,0,0,0,0,0,0,0,0,-1,1609,1191,0,0
392,-167,0,0,0,0,0,0,0,0,0,-1,1616,1191,0,0
399,-167,0,0,0,0,0,0,0,0,0,-1,1623,1191,0,0
406,-167,0,0,0,0,0,0,0,0,0,-1,1630,1191,0,0
413,-167,0,0,0,0,0,0,0,0,0,-1,1637,1191,0,0
420,-167,0,0,0,0,0,0,0,0,0,-1,1644,1191,0,0
427,-167,0,0,0,0,0,0,0,0,0,-1,1651,1191,0,0
434,-167,0,0,0,0,0,0,0,0,0,-1,1658,1191,0,0
441,-167,0,0,0,0,0,0,0,0,0,-1,1665,1191,0,0
448,-167,0,0,0,0,0,0,0,0,0,-1,1672,1191,0,0
455,-167,0,0,0,0,0,0,0,0,0,-1,1679,1191,0,0
462,-167,0,0,0,0,0,0,0,0,0,-1,1686,1191,0,0
469,-167,0,0,0,0,0,0,0,0,0,-1,1693,1191,0,0
476,-167,0,0,0,0,0,0,0,0,0,-1,1700,1191,0,0
483,-167,0,0,0,0,0,0,0,0,0,-1,1707,1191,0,0
490,-167,0,0,0,0,0,0,0,0,0,-1,1714,1191,0,0
497,-167,0,0,0,0,0,0,0,0,0,-1,1721,1191,0,0
504,-167,0,0,0,0,0,0,0,0,0,-1,1728,1191,0,0
511,-167,0,0,0,0,0,0,0,0,0,-1,1735,1191,0,0
518,-167,0,0,0,0,0,0,0,0,0,-1,1742,1191,0,0
525,-167,0,0,0,0,0,0,0,0,0,-1,1749,1191,0,0
532,-167,0,0,0,0,0,0,0,0,0,-1,1756,1191,0,0
539,-167,0,0,0,0,0,0,0,0,0,-1,1763,1191,0,0
546,-167,0,0,0,0,0,0,0,0,0,-1,1770,1191,0,0
553,-167,0,0,0,0,0,0,0,0,0,-1,1777,1191,0,0
560,-167,0,0,0,0,0,0,0,0,0,-1,1784,1191,0,0
567,-167,0,0,0,0,0,0,0,0,0,-1,1791,1191,0,0
574,-167,0,0,0,0,0,0,0,0,0,-1,1798,1191,0,0
581,-167,0,0,0,0,0,0,0,0,0,-1,1805,1191,0,0
588,-167,0,0,0,0,0,0,0,0,0,-1,1812,1191,0,0
595,-167,0,0,0,0,0,0,0,0,0,-1,1819,1191,0,0
602,-167,0,0,0,0,0,0,0,0,0,-1,1826,1191,0,0
609,-167,0,0,0,0,0,0,0,0,0,-1,1833,1191,0,0
616,-167,0,0,0,0,0,0,0,0,0,-1,1840,1191,0,0
623,-167,0,0,0,0,0,0,0,0,0,-1,1847,1191,0,0
630,-167,0,0,0,0,0,0,0,0,0,-1,1854,1191,0,0
637,-167,48.8793,2.59509,-0.000698049,-0.000411382,-0.00107299,0.000527811,-0.00163724,-0.851797,0.00130355,0.0448032,1861,1191,48.8793,-2.59513
644,-167,49.0597,2.43799,-0.000637312,9.10749e-05,-0.000862717,0.00066332,-0.00120956,-0.985124,0.00109653,0.0464228,1868,1191,49.0597,-2.438
651,-167,48.8524,2.45276,-0.000376982,0.000784768,-0.000966437,0.00133146,-0.000923678,-1.05599,0.00130908,0.0430733,1875,1191,48.8525,-2.45275
658,-167,48.5908,2.82458,8.55461e-05,0.00147916,-0.00132582,0.00228013,-0.000715424,-1.02734,0.00180642,0.0445309,1882,1191,48.5908,-2.82463
665,-167,48.8983,2.81274,0.000624882,0.00200873,-0.00179824,0.00324358,-0.000609961,-0.969056,0.00239177,0.0398502,1889,1191,48.8984,-2.81276
672,-167,48.9698,2.65747,0.000843315,0.00233437,-0.0020215,0.00374344,-0.00056575,-0.96206,0.00270401,0.0288705,1896,1191,48.9699,-2.65752
679,-167,48.9078,2.56421,0.000867362,0.00217576,-0.00198079,0.00360758,-0.000564464,-0.944894,0.00261361,0.0212066,1903,1191,48.9078,-2.56423
686,-167,48.8771,2.50464,0.00074851,0.00177041,-0.0016908,0.00302577,-0.000506852,-0.932133,0.00220563,0.0282829,1910,1191,48.8771,-2.50462
693,-167,48.833,2.47046,0,0,0,0,0,0,0,-1,1917,1191,48.833,-2.4704
700,-167,28.0459,2.70508,0,0,0,0,0,0,0,-1,1924,1191,28.0459,-2.70513
707,-167,29.4708,7.10168,0,0,0,0,0,0,0,-1,1931,1191,29.4708,-7.10172
714,-167,35.9202,6.84668,0,0,0,0,0,0,0,-1,1938,1191,35.9202,-6.84664
721,-167,36.2072,6.38892,0,0,0,0,0,0,0,-1,1945,1191,36.2072,-6.38891
728,-167,41.8218,7.15735,0,0,0,0,0,0,0,-1,1952,1191,41.8218,-7.15732
735,-167,41.8594,6.75012,0.000850516,2.28831e-05,0.00104677,0.0015623,-0.000688903,0.597163,0.00133194,0.0189535,1959,1191,41.8594,-6.75016
742,-167,41.8092,6.28625,0.00172653,9.83251e-05,0.00119806,0.00236091,-0.000536056,0.486975,0.00177974,0.0157118,1966,1191,41.8091,-6.28626
749,-167,41.8035,5.86841,0.00319426,0.000955179,-0.000192581,0.00321071,0.000938736,-0.0851753,0.00190623,0.0146622,1973,1191,41.8035,-5.86835
756,-167,41.8107,5.48499,0.00438043,0.00249334,-0.00368152,0.00723739,-0.000363623,-0.659952,0.00495059,0.0114377,1980,1191,41.8106,-5.48503
763,-167,41.7563,5.07678,0.00560684,0.00444543,-0.00887516,0.0139203,-0.003868,-0.75273,0.0108029,0.0139896,1987,1191,41.7563,-5.07678
770,-167,41.6285,4.77637,0.00586468,0.00687106,-0.0159649,0.0223407,-0.00960496,-0.801152,0.0189261,0.0300504,1994,1191,41.6286,-4.77637
777,-167,41.7009,4.60229,0.00452083,0.0098861,-0.0252138,0.0325596,-0.0181526,-0.838397,0.0296699,0.0437073,2001,1191,41.701,-4.60229
784,-167,42.0459,3.93811,0,0,0,0,0,0,0,-1,2008,1191,42.046,-3.93807
791,-167,49.6929,2.18628,-0.00597428,0.0184262,-0.0521669,0.0598005,-0.0473486,-0.900268,0.0620016,0.0473596,2015,1191,49.6928,-2.18625
798,-167,48.6094,1.53027,-0.0175183,0.0245025,-0.0713211,0.0778436,-0.0708594,-0.928641,0.0858853,0.0481052,2022,1191,48.6095,-1.53031
805,-167,47.9868,0.946045,-0.0356595,0.0322762,-0.0950303,0.099227,-0.10261,-0.957043,0.116536,0.0472487,2029,1191,47.9869,-0.946091
812,-167,0,0,0,0,0,0,0,0,0,-1,2036,1191,0,0
-700,-174,0,0,0,0,0,0,0,0,0,-1,524,1198,0,0
-693,-174,0,0,0,0,0,0,0,0,0,-1,531,1198,0,0
-686,-174,-28.2475,1.71008,0.0307575,-0.130619,0.0302545,0.036243,-0.136105,0.179365,0.104925,0.0456796,538,1198,-28.2475,-1.71013
-679,-174,-28.2946,2.39075,0.0313248,-0.119472,0.0205814,0.0340834,-0.122231,0.133238,0.0949107,0.0433916,545,1198,-28.2946,-2.39073
-672,-174,-28.4764,2.71753,0.0294911,-0.103681,0.0137298,0.0308919,-0.105082,0.101673,0.0823077,0.0453821,552,1198,-28.4764,-2.71755
-665,-174,-28.4324,3.21265,0.0267393,-0.0864854,0.00870382,0.0274045,-0.0871506,0.0762748,0.0690718,0.0450224,559,1198,-28.4324,-3.21269
-658,-174,-29.3319,0.755981,0,0,0,0,0,0,0,-1,566,1198,-29.3319,-0.756007
-651,-174,-28.9832,1.1272,0.0199643,-0.0531641,0.0023386,0.020039,-0.0532388,0.0319358,0.0437304,0.0481214,573,1198,-28.9831,-1.12725
-644,-174,-28.5833,1.55249,0.0161316,-0.0384294,0.000494281,0.0161361,-0.0384338,0.00905824,0.0323708,0.0449551,580,1198,-28.5833,-1.55253
-637,-174,-28.2178,1.96191,0.0120618,-0.0262975,-0.000819483,0.0120793,-0.026315,-0.0213503,0.0226692,0.0257618,587,1198,-28.2178,-1.96187
-630,-174,-28.3212,2.37988,0.00862578,-0.015728,-0.00166459,0.00873903,-0.0158412,-0.0679296,0.0143875,0.0137871,594,1198,-28.3212,-2.37983
-623,-174,-28.363,2.81726,0.00537879,-0.00713235,-0.00192618,0.00566862,-0.00742218,-0.149351,0.00758055,0.0146242,601,1198,-28.363,-2.81721
-616,-174,-28.3569,3.28979,0.00258081,-0.00175615,-0.0014496,0.0030207,-0.00219604,-0.294631,0.00302441,0.020778,608,1198,-28.3569,-3.28975
-609,-174,-28.39,3.75281,0.00057594,-1.4716e-05,-0.000921253,0.00124804,-0.000686821,-0.630287,0.00113265,0.0213545,615,1198,-28.3899,-3.75284
-602,-174,-28.4433,4.17407,0.000121559,-0.000417593,-0.00103093,0.000917573,-0.00121361,-0.657517,0.00123439,0.0147116,622,1198,-28.4433,-4.17409
-595,-174,-28.2816,4.55505,0,0,0,0,0,0,0,-1,629,1198,-28.2816,-4.55505
-588,-174,-28.8595,4.9762,-0.00101631,-0.000644,-0.000486889,-0.000308894,-0.00135142,-0.967994,0.000817668,0.0353392,636,1198,-28.8595,-4.97625
-581,-174,-28.7676,5.52344,-0.00107311,-0.000673871,-0.000145311,-0.000626583,-0.0011204,-1.25618,0.000648373,0.0424308,643,1198,-28.7677,-5.52344
-574,-174,-28.3304,6.16052,0,0,0,0,0,0,0,-1,650,1198,-28.3304,-6.16052
-567,-174,-26.6597,3.04041,0,0,0,0,0,0,0,-1,657,1198,-26.6597,-3.04039
-560,-174,-36.15,0.90979,0,0,0,0,0,0,0,-1,664,1198,-36.1501,-0.909789
-553,-174,-36.1791,0.847168,0.000121042,-0.000661263,0.000303432,0.000224937,-0.000765157,0.329886,0.000599323,0.0407605,671,1198,-36.1791,-0.847116
-546,-174,-36.2242,0.806396,0.000523262,-0.000623976,0.000491693,0.000705156,-0.000805871,0.354323,0.000873037,0.0301407,678,1198,-36.2242,-0.806419
-539,-174,-36.3038,1.00464,0.00146972,-0.000211089,0.000805786,0.00179361,-0.000534974,0.382186,0.00140835,0.0343883,685,1198,-36.3038,-1.00466
-532,-174,-36.2076,1.17578,0.00314244,-0.000261361,0.00090395,0.0033676,-0.000486529,0.244125,0.00242358,0.0441995,692,1198,-36.2077,-1.17574
-525,-174,-36.2175,1.31335,0.00747247,-0.00123746,0.000887043,0.00756189,-0.00132688,0.100468,0.00553681,0.0444401,699,1198,-36.2175,-1.31341
-518,-174,-36.1987,1.18127,0.0129301,-0.00256783,0.000763462,0.0129676,-0.00260535,0.0491038,0.00963168,0.0426609,706,1198,-36.1987,-1.18128
-511,-174,0,0,0,0,0,0,0,0,0,-1,713,1198,0,0
-504,-174,0,0,0,0,0,0,0,0,0,-1,720,1198,0,0
-497,-174,0,0,0,0,0,0,0,0,0,-1,727,1198,0,0
-490,-174,0,0,0,0,0,0,0,0,0,-1,734,1198,0,0
-483,-174,0,0,0,0,0,0,0,0,0,-1,741,1198,0,0
-476,-174,0,0,0,0,0,0,0,0,0,-1,748,1198,0,0
-469,-174,0,0,0,0,0,0,0,0,0,-1,755,1198,0,0
-462,-174,0,0,0,0,0,0,0,0,0,-1,762,1198,0,0
-455,-174,0,0,0,0,0,0,0,0,0,-1,769,1198,0,0
-448,-174,0,0,0,0,0,0,0,0,0,-1,776,1198,0,0
-441,-174,0,0,0,0,0,0,0,0,0,-1,783,1198,0,0
-434,-174,0,0,0,0,0,0,0,0,0,-1,790,1198,0,0
-427,-174,0,0,0,0,0,0,0,0,0,-1,797,1198,0,0
-420,-174,0,0,0,0,0,0,0,0,0,-1,804,1198,0,0
-413,-174,0,0,0,0,0,0,0,0,0,-1,811,1198,0,0
-406,-174,0,0,0,0,0,0,0,0,0,-1,818,1198,0,0
-399,-174,0,0,0,0,0,0,0,0,0,-1,825,1198,0,0
-392,-174,0,0,0,0,0,0,0,0,0,-1,832,1198,0,0
-385,-174,0,0,0,0,0,0,0,0,0,-1,839,1198,0,0
-378,-174,0,0,0,0,0,0,0,0,0,-1,846,1198,0,0
-371,-174,0,0,0,0,0,0,0,0,0,-1,853,1198,0,0
-364,-174,0,0,0,0,0,0,0,0,0,-1,860,1198,0,0
-357,-174,0,0,0,0,0,0,0,0,0,-1,867,1198,0,0
-350,-174,0,0,0,0,0,0,0,0,0,-1,874,1198,0,0
-343,-174,0,0,0,0,0,0,0,0,0,-1,881,1198,0,0
-336,-174,0,0,0,0,0,0,0,0,0,-1,888,1198,0,0
-329,-174,0,0,0,0,0,0,0,0,0,-1,895,1198,0,0
-322,-174,0,0,0,0,0,0,0,0,0,-1,902,1198,0,0
-315,-174,0,0,0,0,0,0,0,0,0,-1,909,1198,0,0
-308,-174,0,0,0,0,0,0,0,0,0,-1,916,1198,0,0
-301,-174,0,0,0,0,0,0,0,0,0,-1,923,1198,0,0
-294,-174,0,0,0,0,0,0,0,0,0,-1,930,1198,0,0
-287,-174,0,0,0,0,0,0,0,0,0,-1,937,1198,0,0
-280,-174,0,0,0,0,0,0,0,0,0,-1,944,1198,0,0
-273,-174,0,0,0,0,0,0,0,0,0,-1,951,1198,0,0
-266,-174,0,0,0,0,0,0,0,0,0,-1,958,1198,0,0
-259,-174,0,0,0,0,0,0,0,0,0,-1,965,1198,0,0
-252,-174,0,0,0,0,0,0,0,0,0,-1,972,1198,0,0
-245,-174,0,0,0,0,0,0,0,0,0,-1,979,1198,0,0
-238,-174,0,0,0,0,0,0,0,0,0,-1,986,1198,0,0
-231,-174,0,0,0,0,0,0,0,0,0,-1,993,1198,0,0
-224,-174,0,0,0,0,0,0,0,0,0,-1,1000,1198,0,0
-217,-174,0,0,0,0,0,0,0,0,0,-1,1007,1198,0,0
-210,-174,0,0,0,0,0,0,0,0,0,-1,1014,1198,0,0
-203,-174,0,0,0,0,0,0,0,0,0,-1,1021,1198,0,0
-196,-174,0,0,0,0,0,0,0,0,0,-1,1028,1198,0,0
-189,-174,0,0,0,0,0,0,0,0,0,-1,1035,1198,0,0
-182,-174,0,0,0,0,0,0,0,0,0,-1,1042,1198,0,0
-175,-174,0,0,0,0,0,0,0,0,0,-1,1049,1198,0,0
-168,-174,0,0,0,0,0,0,0,0,0,-1,1056,1198,0,0
-161,-174,0,0,0,0,0,0,0,0,0,-1,1063,1198,0,0
-154,-174,0,0,0,0,0,0,0,0,0,-1,1070,1198,0,0
-147,-174,0,0,0,0,0,0,0,0,0,-1,1077,1198,0,0
-140,-174,0,0,0,0,0,0,0,0,0,-1,1084,1198,0,0
-133,-174,0,0,0,0,0,0,0,0,0,-1,1091,1198,0,0
-126,-174,0,0,0,0,0,0,0,0,0,-1,1098,1198,0,0
-119,-174,0,0,0,0,0,0,0,0,0,-1,1105,1198,0,0
-112,-174,0,0,0,0,0,0,0,0,0,-1,1112,1198,0,0
-105,-174,0,0,0,0,0,0,0,0,0,-1,1119,1198,0,0
-98,-174,0,0,0,0,0,0,0,0,0,-1,1126,1198,0,0
-91,-174,0,0,0,0,0,0,0,0,0,-1,1133,1198,0,0
-84,-174,0,0,0,0,0,0,0,0,0,-1,1140,1198,0,0
-77,-174,0,0,0,0,0,0,0,0,0,-1,1147,1198,0,0
-70,-174,0,0,0,0,0,0,0,0,0,-1,1154,1198,0,0
-63,-174,0,0,0,0,0,0,0,0,0,-1,1161,1198,0,0
-56,-174,0,0,0,0,0,0,0,0,0,-1,1168,1198,0,0
-49,-174,0,0,0,0,0,0,0,0,0,-1,1175,1198,0,0
-42,-174,0,0,0,0,0,0,0,0,0,-1,1182,1198,0,0
-35,-174,0,0,0,0,0,0,0,0,0,-1,1189,1198,0,0
-28,-174,0,0,0,0,0,0,0,0,0,-1,1196,1198,0,0
-21,-174,0,0,0,0,0,0,0,0,0,-1,1203,1198,0,0
-14,-174,0,0,0,0,0,0,0,0,0,-1,1210,1198,0,0
-7,-174,0,0,0,0,0,0,0,0,0,-1,1217,1198,0,0
0,-174,0,0,0,0,0,0,0,0,0,-1,1224,1198,0,0
7,-174,0,0,0,0,0,0,0,0,0,-1,1231,1198,0,0
14,-174,0,0,0,0,0,0,0,0,0,-1,1238,1198,0,0
21,-174,0,0,0,0,0,0,0,0,0,-1,1245,1198,0,0
28,-174,0,0,0,0,0,0,0,0,0,-1,1252,1198,0,0
35,-174,0,0,0,0,0,0,0,0,0,-1,1259,1198,0,0
42,-174,0,0,0,0,0,0,0,0,0,-1,1266,1198,0,0
49,-174,0,0,0,0,0,0,0,0,0,-1,1273,1198,0,0
56,-174,0,0,0,0,0,0,0,0,0,-1,1280,1198,0,0
63,-174,0,0,0,0,0,0,0,0,0,-1,1287,1198,0,0
70,-174,0,0,0,0,0,0,0,0,0,-1,1294,1198,0,0
77,-174,0,0,0,0,0,0,0,0,0,-1,1301,1198,0,0
84,-174,0,0,0,0,0,0,0,0,0,-1,1308,1198,0,0
91,-174,0,0,0,0,0,0,0,0,0,-1,1315,1198,0,0
98,-174,0,0,0,0,0,0,0,0,0,-1,1322,1198,0,0
105,-174,0,0,0,0,0,0,0,0,0,-1,1329,1198,0,0
112,-174,0,0,0,0,0,0,0,0,0,-1,1336,1198,0,0
119,-174,0,0,0,0,0,0,0,0,0,-1,1343,1198,0,0
126,-174,0,0,0,0,0,0,0,0,0,-1,1350,1198,0,0
133,-174,0,0,0,0,0,0,0,0,0,-1,1357,1198,0,0
140,-174,0,0,0,0,0,0,0,0,0,-1,1364,1198,0,0
147,-174,0,0,0,0,0,0,0,0,0,-1,1371,1198,0,0
154,-174,0,0,0,0,0,0,0,0,0,-1,1378,1198,0,0
161,-174,0,0,0,0,0,0,0,0,0,-1,1385,1198,0,0
168,-174,0,0,0,0,0,0,0,0,0,-1,1392,1198,0,0
175,-174,0,0,0,0,0,0,0,0,0,-1,1399,1198,0,0
182,-174,0,0,0,0,0,0,0,0,0,-1,1406,1198,0,0
189,-174,0,0,0,0,0,0,0,0,0,-1,1413,1198,0,0
196,-174,0,0,0,0,0,0,0,0,0,-1,1420,1198,0,0
203,-174,0,0,0,0,0,0,0,0,0,-1,1427,1198,0,0
210,-174,0,0,0,0,0,0,0,0,0,-1,1434,1198,0,0
217,-174,0,0,0,0,0,0,0,0,0,-1,1441,1198,0,0
224,-174,0,0,0,0,0,0,0,0,0,-1,1448,1198,0,0
231,-174,0,0,0,0,0,0,0,0,0,-1,1455,1198,0,0
238,-174,0,0,0,0,0,0,0,0,0,-1,1462,1198,0,0
245,-174,0,0,0,0,0,0,0,0,0,-1,1469,1198,0,0
252,-174,0,0,0,0,0,0,0,0,0,-1,1476,1198,0,0
259,-174,0,0,0,0,0,0,0,0,0,-1,1483,1198,0,0
266,-174,0,0,0,0,0,0,0,0,0,-1,1490,1198,0,0
273,-174,0,0,0,0,0,0,0,0,0,-1,1497,1198,0,0
280,-174,0,0,0,0,0,0,0,0,0,-1,1504,1198,0,0
287,-174,0,0,0,0,0,0,0,0,0,-1,1511,1198,0,0
294,-174,0,0,0,0,0,0,0,0,0,-1,1518,1198,0,0
301,-174,0,0,0,0,0,0,0,0,0,-1,1525,1198,0,0
308,-174,0,0,0,0,0,0,0,0,0,-1,1532,1198,0,0
315,-174,0,0,0,0,0,0,0,0,0,-1,1539,1198,0,0
322,-174,0,0,0,0,0,0,0,0,0,-1,1546,1198,0,0
329,-174,0,0,0,0,0,0,0,0,0,-1,1553,1198,0,0
336,-174,0,0,0,0,0,0,0,0,0,-1,1560,1198,0,0
343,-174,0,0,0,0,0,0,0,0,0,-1,1567,1198,0,0
350,-174,0,0,0,0,0,0,0,0,0,-1,1574,1198,0,0
357,-174,0,0,0,0,0,0,0,0,0,-1,1581,1198,0,0
364,-174,0,0,0,0,0,0,0,0,0,-1,1588,1198,0,0
371,-174,0,0,0,0,0,0,0,0,0,-1,1595,1198,0,0
378,-174,0,0,0,0,0,0,0,0,0,-1,1602,1198,0,0
385,-174,0,0,0,0,0,0,0,0,0,-1,1609,1198,0,0
392,-174,0,0,0,0,0,0,0,0,0,-1,1616,1198,0,0
399,-174,0,0,0,0,0,0,0,0,0,-1,1623,1198,0,0
406,-174,0,0,0,0,0,0,0,0,0,-1,1630,1198,0,0
413,-174,0,0,0,0,0,0,0,0,0,-1,1637,1198,0,0
420,-174,0,0,0,0,0,0,0,0,0,-1,1644,1198,0,0
427,-174,0,0,0,0,0,0,0,0,0,-1,1651,1198,0,0
434,-174,0,0,0,0,0,0,0,0,0,-1,1658,1198,0,0
441,-174,0,0,0,0,0,0,0,0,0,-1,1665,1198,0,0
448,-174,0,0,0,0,0,0,0,0,0,-1,1672,1198,0,0
455,-174,0,0,0,0,0,0,0,0,0,-1,1679,1198,0,0
462,-174,0,0,0,0,0,0,0,0,0,-1,1686,1198,0,0
469,-174,0,0,0,0,0,0,0,0,0,-1,1693,1198,0,0
476,-174,0,0,0,0,0,0,0,0,0,-1,1700,1198,0,0
483,-174,0,0,0,0,0,0,0,0,0,-1,1707,1198,0,0
490,-174,0,0,0,0,0,0,0,0,0,-1,1714,1198,0,0
497,-174,0,0,0,0,0,0,0,0,0,-1,1721,1198,0,0
504,-174,0,0,0,0,0,0,0,0,0,-1,1728,1198,0,0
511,-174,0,0,0,0,0,0,0,0,0,-1,1735,1198,0,0
518,-174,0,0,0,0,0,0,0,0,0,-1,1742,1198,0,0
525,-174,0,0,0,0,0,0,0,0,0,-1,1749,1198,0,0
532,-174,0,0,0,0,0,0,0,0,0,-1,1756,1198,0,0
539,-174,0,0,0,0,0,0,0,0,0,-1,1763,1198,0,0
546,-174,0,0,0,0,0,0,0,0,0,-1,1770,1198,0,0
553,-174,0,0,0,0,0,0,0,0,0,-1,1777,1198,0,0
560,-174,0,0,0,0,0,0,0,0,0,-1,1784,1198,0,0
567,-174,0,0,0,0,0,0,0,0,0,-1,1791,1198,0,0
574,-174,0,0,0,0,0,0,0,0,0,-1,1798,1198,0,0
581,-174,0,0,0,0,0,0,0,0,0,-1,1805,1198,0,0
588,-174,0,0,0,0,0,0,0,0,0,-1,1812,1198,0,0
595,-174,0,0,0,0,0,0,0,0,0,-1,1819,1198,0,0
602,-174,0,0,0,0,0,0,0,0,0,-1,1826,1198,0,0
609,-174,0,0,0,0,0,0,0,0,0,-1,1833,1198,0,0
616,-174,0,0,0,0,0,0,0,0,0,-1,1840,1198,0,0
623,-174,0,0,0,0,0,0,0,0,0,-1,1847,1198,0,0
630,-174,0,0,0,0,0,0,0,0,0,-1,1854,1198,0,0
637,-174,48.9957,2.65918,-0.00014157,-0.00079356,-0.000895201,0.000485145,-0.00142028,-0.610782,0.0011434,0.0444217,1861,1198,48.9957,-2.65919
644,-174,48.8914,2.52832,-6.18247e-05,3.66471e-05,-0.0010086,0.00099721,-0.00102239,-0.809787,0.00116604,0.0430816,1868,1198,48.8913,-2.52831
651,-174,48.85,2.35962,9.23049e-05,0.00100532,-0.00130094,0.00192752,-0.000829902,-0.954138,0.0016335,0.040744,1875,1198,48.8499,-2.35966
658,-174,48.6843,2.69775,0.000369016,0.00187466,-0.00178138,0.00305576,-0.00081208,-0.985319,0.00235501,0.0406746,1882,1198,48.6843,-2.69776
665,-174,48.8569,2.63025,0.000679115,0.00243762,-0.00225144,0.00397541,-0.000858674,-0.971555,0.00297805,0.0365239,1889,1198,48.8569,-2.63029
672,-174,48.8933,2.52271,0.000680503,0.00271572,-0.00234732,0.00425651,-0.000860295,-0.98993,0.00316367,0.0262396,1896,1198,48.8933,-2.52276
679,-174,48.8688,2.49353,0.00058066,0.00251222,-0.00220166,0.00395061,-0.000857729,-0.99209,0.00296135,0.0214924,1903,1198,48.8687,-2.49347
686,-174,48.842,2.49207,0.000433253,0.00206224,-0.00185709,0.0032756,-0.000780104,-0.992059,0.00248492,0.0482388,1910,1198,48.842,-2.49208
693,-174,48.8064,2.52661,0,0,0,0,0,0,0,-1,1917,1198,48.8064,-2.52656
700,-174,25.4004,6.11792,0,0,0,0,0,0,0,-1,1924,1198,25.4004,-6.11797
707,-174,34.7908,7.34473,0,0,0,0,0,0,0,-1,1931,1198,34.7908,-7.34475
714,-174,40.1135,7.79871,0,0,0,0,0,0,0,-1,1938,1198,40.1135,-7.79875
721,-174,40.8693,7.59863,0,0,0,0,0,0,0,-1,1945,1198,40.8693,-7.59859
728,-174,41.3862,7.11829,0,0,0,0,0,0,0,-1,1952,1198,41.3862,-7.11829
735,-174,41.4052,6.70325,0.000738928,6.54836e-05,0.00107998,0.00153346,-0.000729045,0.634281,0.00133349,0.0131423,1959,1198,41.4052,-6.7033
742,-174,41.4049,6.27942,0.00182851,0.00018518,0.00108877,0.00237087,-0.000357179,0.462156,0.00171211,0.0200825,1966,1198,41.4049,-6.27943
749,-174,41.4132,5.8844,0.00312968,0.00101487,-0.000484519,0.0032354,0.00090915,-0.214832,0.00192676,0.0192275,1973,1198,41.4132,-5.88443
756,-174,41.392,5.47705,0.00376471,0.00235929,-0.00386111,0.00698653,-0.000862529,-0.695385,0.00497021,0.0117825,1980,1198,41.392,-5.47708
763,-174,41.349,5.07349,0.00425243,0.0040434,-0.00879836,0.0129469,-0.00465106,-0.779459,0.0105298,0.0156573,1987,1198,41.349,-5.07349
770,-174,41.4467,4.69714,0.00357756,0.00615719,-0.0156253,0.0205458,-0.010811,-0.826578,0.0183924,0.0357695,1994,1198,41.4467,-4.69718
777,-174,41.7101,4.26843,0,0,0,0,0,0,0,-1,2001,1198,41.71,-4.26844
784,-174,52.0198,3.51575,0,0,0,0,0,0,0,-1,2008,1198,52.0197,-3.51577
791,-174,50.9089,2.29297,-0.0127991,0.0164484,-0.0507778,0.0546663,-0.051017,-0.925601,0.0610284,0.044232,2015,1198,50.9091,-2.293
798,-174,49.5742,1.55872,-0.0267726,0.0218606,-0.0693411,0.0710252,-0.0759372,-0.954039,0.0848645,0.0449707,2022,1198,49.5741,-1.55868
805,-174,48.6675,0.910278,-0.0478977,0.0288001,-0.092215,0.0903223,-0.10942,-0.982452,0.115497,0.0465426,2029,1198,48.6674,-0.910277
812,-174,0,0,0,0,0,0,0,0,0,-1,2036,1198,0,0
-700,-181,0,0,0,0,0,0,0,0,0,-1,524,1205,0,0
-693,-181,0,0,0,0,0,0,0,0,0,-1,531,1205,0,0
-686,-181,-28.0947,2.96069,0.0166857,-0.166693,0.0273216,0.0206698,-0.170678,0.144801,0.121264,0.0475675,538,1205,-28.0947,-2.96072
-679,-181,-28.1442,3.66846,0.0224402,-0.147866,0.0182539,0.0243747,-0.1498,0.105585,0.108905,0.0465809,545,1205,-28.1442,-3.66841
-672,-181,-28.1683,3.65613,0,0,0,0,0,0,0,-1,552,1205,-28.1683,-3.65608
-665,-181,-27.8063,3.97815,0,0,0,0,0,0,0,-1,559,1205,-27.8063,-3.9782
-658,-181,-28.0754,5.58435,0,0,0,0,0,0,0,-1,566,1205,-28.0754,-5.58431
-651,-181,-28.6265,1.13416,0.0186846,-0.0619817,0.00203736,0.0187361,-0.0620331,0.0252351,0.0488144,0.0496669,573,1205,-28.6265,-1.13414
-644,-181,-27.9597,1.59766,0.0155557,-0.0447838,0.000359067,0.0155578,-0.0447859,0.00595049,0.0361761,0.0453061,580,1205,-27.9597,-1.59761
-637,-181,-27.7151,1.97021,0.012099,-0.030508,-0.000784959,0.0121134,-0.0305225,-0.0184149,0.0253692,0.0266006,587,1205,-27.7151,-1.97026
-630,-181,-27.8635,2.37878,0.00902483,-0.0184166,-0.00157048,0.00911442,-0.0185062,-0.0569823,0.0162511,0.0136709,594,1205,-27.8635,-2.3788
-623,-181,-27.9188,2.81909,0.00603236,-0.00866325,-0.00188425,0.00627011,-0.008901,-0.125514,0.00880284,0.0155929,601,1205,-27.9188,-2.81915
-616,-181,-27.9052,3.29407,0.00334464,-0.00251601,-0.00152182,0.00371624,-0.00288761,-0.239498,0.00382273,0.0153403,608,1205,-27.9052,-3.2941
-609,-181,-27.9041,3.79822,0.00121672,-0.000137668,-0.000972442,0.00172453,-0.000645479,-0.481251,0.00141481,0.0137138,615,1205,-27.9041,-3.79816
-602,-181,-27.9243,4.25989,0.000588728,-0.000496975,-0.000896418,0.00109385,-0.0010021,-0.513143,0.00121048,0.0123849,622,1205,-27.9242,-4.25994
-595,-181,-28.1271,4.6012,8.09518e-05,-0.000683202,-0.000769287,0.00055782,-0.00116007,-0.554911,0.00101194,0.0361586,629,1205,-28.1271,-4.60118
-588,-181,-28.4099,5.10205,-0.00061185,-0.000815308,-0.000288453,-0.000407713,-0.00101944,-0.615871,0.000592493,0.0332597,636,1205,-28.4099,-5.10201
-581,-181,-28.312,5.65637,-0.00072478,-0.000812549,-1.85628e-05,-0.000721016,-0.000816314,-0.200085,0.000515388,0.0292488,643,1205,-28.312,-5.65634
-574,-181,-27.965,6.1311,0,0,0,0,0,0,0,-1,650,1205,-27.965,-6.13115
-567,-181,-25.8839,3.34485,0,0,0,0,0,0,0,-1,657,1205,-25.8839,-3.3449
-560,-181,-31.7396,1.63306,0,0,0,0,0,0,0,-1,664,1205,-31.7396,-1.63303
-553,-181,-36.0746,0.407349,0,0,0,0,0,0,0,-1,671,1205,-36.0746,-0.407322
-546,-181,-36.1382,0.731323,0.000728849,-0.000234893,0.000570828,0.000994002,-0.000500046,0.434851,0.000878163,0.0341707,678,1205,-36.1382,-0.731265
-539,-181,-36.2634,0.943359,0.00135089,0.000363367,0.000818911,0.00181338,-9.91233e-05,0.514107,0.00124328,0.0383112,685,1205,-36.2634,-0.943312
-532,-181,-36.12,1.06531,0.00235618,0.000584735,0.000838391,0.00269005,0.000250866,0.378976,0.00171587,0.0458629,692,1205,-36.12,-1.06533
-525,-181,-36.1071,1.14832,0.00569189,-0.000223993,0.000654425,0.00576342,-0.000295522,0.108868,0.00394448,0.0434147,699,1205,-36.1071,-1.14837
-518,-181,-36.1234,1.08032,0.0109161,-0.00173499,0.000456349,0.0109326,-0.00175143,0.0360094,0.00793687,0.0403781,706,1205,-36.1234,-1.08035
-511,-181,0,0,0,0,0,0,0,0,0,-1,713,1205,0,0
-504,-181,0,0,0,0,0,0,0,0,0,-1,720,1205,0,0
-497,-181,0,0,0,0,0,0,0,0,0,-1,727,1205,0,0
-490,-181,0,0,0,0,0,0,0,0,0,-1,734,1205,0,0
-483,-181,0,0,0,0,0,0,0,0,0,-1,741,1205,0,0
-476,-181,0,0,0,0,0,0,0,0,0,-1,748,1205,0,0
-469,-181,0,0,0,0,0,0,0,0,0,-1,755,1205,0,0
-462,-181,0,0,0,0,0,0,0,0,0,-1,762,1205,0,0
-455,-181,0,0,0,0,0,0,0,0,0,-1,769,1205,0,0
-448,-181,0,0,0,0,0,0,0,0,0,-1,776,1205,0,0
-441,-181,0,0,0,0,0,0,0,0,0,-1,783,1205,0,0
-434,-181,0,0,0,0,0,0,0,0,0,-1,790,1205,0,0
-427,-181,0,0,0,0,0,0,0,0,0,-1,797,1205,0,0
-420,-181,0,0,0,0,0,0,0,0,0,-1,804,1205,0,0
-413,-181,0,0,0,0,0,0,0,0,0,-1,811,1205,0,0
-406,-181,0,0,0,0,0,0,0,0,0,-1,818,1205,0,0
-399,-181,0,0,0,0,0,0,0,0,0,-1,825,1205,0,0
-392,-181,0,0,0,0,0,0,0,0,0,-1,832,1205,0,0
-385,-181,0,0,0,0,0,0,0,0,0,-1,839,1205,0,0
-378,-181,0,0,0,0,0,0,0,0,0,-1,846,1205,0,0
-371,-181,0,0,0,0,0,0,0,0,0,-1,853,1205,0,0
-364,-181,0,0,0,0,0,0,0,0,0,-1,860,1205,0,0
-357,-181,0,0,0,0,0,0,0,0,0,-1,867,1205,0,0
-350,-181,0,0,0,0,0,0,0,0,0,-1,874,1205,0,0
-343,-181,0,0,0,0,0,0,0,0,0,-1,881,1205,0,0
-336,-181,0,0,0,0,0,0,0,0,0,-1,888,1205,0,0
-329,-181,0,0,0,0,0,0,0,0,0,-1,895,1205,0,0
-322,-181,0,0,0,0,0,0,0,0,0,-1,902,1205,0,0
-315,-181,0,0,0,0,0,0,0,0,0,-1,909,1205,0,0
-308,-181,0,0,0,0,0,0,0,0,0,-1,916,1205,0,0
-301,-181,0,0,0,0,0,0,0,0,0,-1,923,1205,0,0
-294,-181,0,0,0,0,0,0,0,0,0,-1,930,1205,0,0
-287,-181,0,0,0,0,0,0,0,0,0,-1,937,1205,0,0
-280,-181,0,0,0,0,0,0,0,0,0,-1,944,1205,0,0
-273,-181,0,0,0,0,0,0,0,0,0,-1,951,1205,0,0
-266,-181,0,0,0,0,0,0,0,0,0,-1,958,1205,0,0
-259,-181,0,0,0,0,0,0,0,0,0,-1,965,1205,0,0
-252,-181,0,0,0,0,0,0,0,0,0,-1,972,1205,0,0
-245,-181,0,0,0,0,0,0,0,0,0,-1,979,1205,0,0
-238,-181,0,0,0,0,0,0,0,0,0,-1,986,1205,0,0
-231,-181,0,0,0,0,0,0,0,0,0,-1,993,1205,0,0
-224,-181,0,0,0,0,0,0,0,0,0,-1,1000,1205,0,0
-217,-181,0,0,0,0,0,0,0,0,0,-1,1007,1205,0,0
-210,-181,0,0,0,0,0,0,0,0,0,-1,1014,1205,0,0
-203,-181,0,0,0,0,0,0,0,0,0,-1,1021,1205,0,0
-196,-181,0,0,0,0,0,0,0,0,0,-1,1028,1205,0,0
-189,-181,0,0,0,0,0,0,0,0,0,-1,1035,1205,0,0
-182,-181,0,0,0,0,0,0,0,0,0,-1,1042,1205,0,0
-175,-181,0,0,0,0,0,0,0,0,0,-1,1049,1205,0,0
-168,-181,0,0,0,0,0,0,0,0,0,-1,1056,1205,0,0
-161,-181,0,0,0,0,0,0,0,0,0,-1,1063,1205,0,0
-154,-181,0,0,0,0,0,0,0,0,0,-1,1070,1205,0,0
-147,-181,0,0,0,0,0,0,0,0,0,-1,1077,1205,0,0
-140,-181,0,0,0,0,0,0,0,0,0,-1,1084,1205,0,0
-133,-181,0,0,0,0,0,0,0,0,0,-1,1091,1205,0,0
-126,-181,0,0,0,0,0,0,0,0,0,-1,1098,1205,0,0
-119,-181,0,0,0,0,0,0,0,0,0,-1,1105,1205,0,0
-112,-181,0,0,0,0,0,0,0,0,0,-1,1112,1205,0,0
-105,-181,0,0,0,0,0,0,0,0,0,-1,1119,1205,0,0
-98,-181,0,0,0,0,0,0,0,0,0,-1,1126,1205,0,0
-91,-181,0,0,0,0,0,0,0,0,0,-1,1133,1205,0,0
-84,-181,0,0,0,0,0,0,0,0,0,-1,1140,1205,0,0
-77,-181,0,0,0,0,0,0,0,0,0,-1,1147,1205,0,0
-70,-181,0,0,0,0,0,0,0,0,0,-1,1154,1205,0,0
-63,-181,0,0,0,0,0,0,0,0,0,-1,1161,1205,0,0
-56,-181,0,0,0,0,0,0,0,0,0,-1,1168,1205,0,0
-49,-181,0,0,0,0,0,0,0,0,0,-1,1175,1205,0,0
-42,-181,0,0,0,0,0,0,0,0,0,-1,1182,1205,0,0
-35,-181,0,0,0,0,0,0,0,0,0,-1,1189,1205,0,0
-28,-181,0,0,0,0,0,0,0,0,0,-1,1196,1205,0,0
-21,-181,0,0,0,0,0,0,0,0,0,-1,1203,1205,0,0
-14,-181,0,0,0,0,0,0,0,0,0,-1,1210,1205,0,0
-7,-181,0,0,0,0,0,0,0,0,0,-1,1217,1205,0,0
0,-181,0,0,0,0,0,0,0,0,0,-1,1224,1205,0,0
7,-181,0,0,0,0,0,0,0,0,0,-1,1231,1205,0,0
14,-181,0,0,0,0,0,0,0,0,0,-1,1238,1205,0,0
21,-181,0,0,0,0,0,0,0,0,0,-1,1245,1205,0,0
28,-181,0,0,0,0,0,0,0,0,0,-1,1252,1205,0,0
35,-181,0,0,0,0,0,0,0,0,0,-1,1259,1205,0,0
42,-181,0,0,0,0,0,0,0,0,0,-1,1266,1205,0,0
49,-181,0,0,0,0,0,0,0,0,0,-1,1273,1205,0,0
56,-181,0,0,0,0,0,0,0,0,0,-1,1280,1205,0,0
63,-181,0,0,0,0,0,0,0,0,0,-1,1287,1205,0,0
70,-181,0,0,0,0,0,0,0,0,0,-1,1294,1205,0,0
77,-181,0,0,0,0,0,0,0,0,0,-1,1301,1205,0,0
84,-181,0,0,0,0,0,0,0,0,0,-1,1308,1205,0,0
91,-181,0,0,0,0,0,0,0,0,0,-1,1315,1205,0,0
98,-181,0,0,0,0,0,0,0,0,0,-1,1322,1205,0,0
105,-181,0,0,0,0,0,0,0,0,0,-1,1329,1205,0,0
112,-181,0,0,0,0,0,0,0,0,0,-1,1336,1205,0,0
119,-181,0,0,0,0,0,0,0,0,0,-1,1343,1205,0,0
126,-181,0,0,0,0,0,0,0,0,0,-1,1350,1205,0,0
133,-181,0,0,0,0,0,0,0,0,0,-1,1357,1205,0,0
140,-181,0,0,0,0,0,0,0,0,0,-1,1364,1205,0,0
147,-181,0,0,0,0,0,0,0,0,0,-1,1371,1205,0,0
154,-181,0,0,0,0,0,0,0,0,0,-1,1378,1205,0,0
161,-181,0,0,0,0,0,0,0,0,0,-1,1385,1205,0,0
168,-181,0,0,0,0,0,0,0,0,0,-1,1392,1205,0,0
175,-181,0,0,0,0,0,0,0,0,0,-1,1399,1205,0,0
182,-181,0,0,0,0,0,0,0,0,0,-1,1406,1205,0,0
189,-181,0,0,0,0,0,0,0,0,0,-1,1413,1205,0,0
196,-181,0,0,0,0,0,0,0,0,0,-1,1420,1205,0,0
203,-181,0,0,0,0,0,0,0,0,0,-1,1427,1205,0,0
210,-181,0,0,0,0,0,0,0,0,0,-1,1434,1205,0,0
217,-181,0,0,0,0,0,0,0,0,0,-1,1441,1205,0,0
224,-181,0,0,0,0,0,0,0,0,0,-1,1448,1205,0,0
231,-181,0,0,0,0,0,0,0,0,0,-1,1455,1205,0,0
238,-181,0,0,0,0,0,0,0,0,0,-1,1462,1205,0,0
245,-181,0,0,0,0,0,0,0,0,0,-1,1469,1205,0,0
252,-181,0,0,0,0,0,0,0,0,0,-1,1476,1205,0,0
259,-181,0,0,0,0,0,0,0,0,0,-1,1483,1205,0,0
266,-181,0,0,0,0,0,0,0,0,0,-1,1490,1205,0,0
273,-181,0,0,0,0,0,0,0,0,0,-1,1497,1205,0,0
280,-181,0,0,0,0,0,0,0,0,0,-1,1504,1205,0,0
287,-181,0,0,0,0,0,0,0,0,0,-1,1511,1205,0,0
294,-181,0,0,0,0,0,0,0,0,0,-1,1518,1205,0,0
301,-181,0,0,0,0,0,0,0,0,0,-1,1525,1205,0,0
308,-181,0,0,0,0,0,0,0,0,0,-1,1532,1205,0,0
315,-181,0,0,0,0,0,0,0,0,0,-1,1539,1205,0,0
322,-181,0,0,0,0,0,0,0,0,0,-1,1546,1205,0,0
329,-181,0,0,0,0,0,0,0,0,0,-1,1553,1205,0,0
336,-181,0,0,0,0,0,0,0,0,0,-1,1560,1205,0,0
343,-181,0,0,0,0,0,0,0,0,0,-1,1567,1205,0,0
350,-181,0,0,0,0,0,0,0,0,0,-1,1574,1205,0,0
357,-181,0,0,0,0,0,0,0,0,0,-1,1581,1205,0,0
364,-181,0,0,0,0,0,0,0,0,0,-1,1588,1205,0,0
371,-181,0,0,0,0,0,0,0,0,0,-1,1595,1205,0,0
378,-181,0,0,0,0,0,0,0,0,0,-1,1602,1205,0,0
385,-181,0,0,0,0,0,0,0,0,0,-1,1609,1205,0,0
392,-181,0,0,0,0,0,0,0,0,0,-1,1616,1205,0,0
399,-181,0,0,0,0,0,0,0,0,0,-1,1623,1205,0,0
406,-181,0,0,0,0,0,0,0,0,0,-1,1630,1205,0,0
413,-181,0,0,0,0,0,0,0,0,0,-1,1637,1205,0,0
420,-181,0,0,0,0,0,0,0,0,0,-1,1644,1205,0,0
427,-181,0,0,0,0,0,0,0,0,0,-1,1651,1205,0,0
434,-181,0,0,0,0,0,0,0,0,0,-1,1658,1205,0,0
441,-181,0,0,0,0,0,0,0,0,0,-1,1665,1205,0,0
448,-181,0,0,0,0,0,0,0,0,0,-1,1672,1205,0,0
455,-181,0,0,0,0,0,0,0,0,0,-1,1679,1205,0,0
462,-181,0,0,0,0,0,0,0,0,0,-1,1686,1205,0,0
469,-181,0,0,0,0,0,0,0,0,0,-1,1693,1205,0,0
476,-181,0,0,0,0,0,0,0,0,0,-1,1700,1205,0,0
483,-181,0,0,0,0,0,0,0,0,0,-1,1707,1205,0,0
490,-181,0,0,0,0,0,0,0,0,0,-1,1714,1205,0,0
497,-181,0,0,0,0,0,0,0,0,0,-1,1721,1205,0,0
504,-181,0,0,0,0,0,0,0,0,0,-1,1728,1205,0,0
511,-181,0,0,0,0,0,0,0,0,0,-1,1735,1205,0,0
518,-181,0,0,0,0,0,0,0,0,0,-1,1742,1205,0,0
525,-181,0,0,0,0,0,0,0,0,0,-1,1749,1205,0,0
532,-181,0,0,0,0,0,0,0,0,0,-1,1756,1205,0,0
539,-181,0,0,0,0,0,0,0,0,0,-1,1763,1205,0,0
546,-181,0,0,0,0,0,0,0,0,0,-1,1770,1205,0,0
553,-181,0,0,0,0,0,0,0,0,0,-1,1777,1205,0,0
560,-181,0,0,0,0,0,0,0,0,0,-1,1784,1205,0,0
567,-181,0,0,0,0,0,0,0,0,0,-1,1791,1205,0,0
574,-181,0,0,0,0,0,0,0,0,0,-1,1798,1205,0,0
581,-181,0,0,0,0,0,0,0,0,0,-1,1805,1205,0,0
588,-181,0,0,0,0,0,0,0,0,0,-1,1812,1205,0,0
595,-181,0,0,0,0,0,0,0,0,0,-1,1819,1205,0,0
602,-181,0,0,0,0,0,0,0,0,0,-1,1826,1205,0,0
609,-181,0,0,0,0,0,0,0,0,0,-1,1833,1205,0,0
616,-181,0,0,0,0,0,0,0,0,0,-1,1840,1205,0,0
623,-181,0,0,0,0,0,0,0,0,0,-1,1847,1205,0,0
630,-181,48.7517,2.89746,0.000604979,-0.00163617,-0.000726065,0.000819641,-0.00185084,-0.287462,0.00157965,0.0392821,1854,1205,48.7518,-2.8975
637,-181,48.8245,2.8031,0.000495958,-0.000886627,-0.000862351,0.000909896,-0.00130056,-0.447529,0.00128284,0.0389508,1861,1205,48.8245,-2.80309
644,-181,48.8571,2.58826,0.000541461,0.000146456,-0.00127114,0.00163035,-0.000942434,-0.708327,0.00150299,0.039953,1868,1205,48.857,-2.58831
651,-181,48.8506,2.54114,0.000588955,0.00127911,-0.00168791,0.00265685,-0.000788788,-0.886229,0.00208452,0.0380311,1875,1205,48.8506,-2.54116
658,-181,48.8518,2.58911,0.000730162,0.00216687,-0.00218311,0.00374678,-0.000849749,-0.944343,0.00282404,0.0348796,1882,1205,48.8519,-2.5891
665,-181,48.8704,2.61462,0.000890657,0.00262574,-0.00254241,0.00444455,-0.000928155,-0.949817,0.003316,0.0325729,1889,1205,48.8703,-2.61459
672,-181,48.8826,2.61768,0.000791463,0.00277985,-0.00247399,0.00445193,-0.000880622,-0.976452,0.00330089,0.023829,1896,1205,48.8825,-2.61767
679,-181,48.8645,2.51477,0.000640786,0.0025278,-0.0022383,0.00401332,-0.000844738,-0.984862,0.00299708,0.0278477,1903,1205,48.8646,-2.51472
686,-181,48.8541,2.37146,0,0,0,0,0,0,0,-1,1910,1205,48.8542,-2.3714
693,-181,36.1301,2.91016,0,0,0,0,0,0,0,-1,1917,1205,36.1302,-2.9102
700,-181,29.5845,6.58398,0,0,0,0,0,0,0,-1,1924,1205,29.5844,-6.58395
707,-181,39.8232,8.03186,0,0,0,0,0,0,0,-1,1931,1205,39.8233,-8.0319
714,-181,40.174,7.73877,0,0,0,0,0,0,0,-1,1938,1205,40.174,-7.73878
721,-181,40.8457,7.67163,0,0,0,0,0,0,0,-1,1945,1205,40.8457,-7.67159
728,-181,40.9786,7.14978,-0.000210608,0.00055247,0.00043536,0.000749818,-0.000407956,1.1452,0.000678085,0.0292555,1952,1205,40.9786,-7.14982
735,-181,41.011,6.73669,0.000942005,-8.69835e-05,0.00119847,0.00173175,-0.000876727,0.582648,0.00153273,0.0122288,1959,1205,41.011,-6.73667
742,-181,40.9944,6.33923,0.00207522,6.94251e-05,0.00101988,0.00250269,-0.000358051,0.396898,0.00179972,0.0167516,1966,1205,40.9944,-6.33929
749,-181,41.0013,5.89099,0.0029561,0.000897201,-0.000658028,0.00314844,0.000704861,-0.284374,0.00190791,0.0170086,1973,1205,41.0013,-5.89099
756,-181,40.9888,5.46082,0.00297347,0.00208576,-0.00378303,0.0063386,-0.00127937,-0.727001,0.00471046,0.0127605,1980,1205,40.9888,-5.46084
763,-181,40.9822,5.05859,0.00277043,0.0035215,-0.00827956,0.011434,-0.00514211,-0.808061,0.00979736,0.0150695,1987,1205,40.9822,-5.05862
770,-181,41.114,4.61145,0.00126738,0.00533067,-0.01461,0.0180496,-0.0114516,-0.854484,0.0171739,0.0402227,1994,1205,41.114,-4.61151
777,-181,41.3344,4.07117,0,0,0,0,0,0,0,-1,2001,1205,41.3343,-4.07119
784,-181,52.8928,3.4502,0,0,0,0,0,0,0,-1,2008,1205,52.8928,-3.45025
791,-181,51.2678,2.72961,0,0,0,0,0,0,0,-1,2015,1205,51.2679,-2.7296
798,-181,50.4294,1.68311,0,0,0,0,0,0,0,-1,2022,1205,50.4294,-1.68309
805,-181,0,0,0,0,0,0,0,0,0,-1,2029,1205,0,0
812,-181,0,0,0,0,0,0,0,0,0,-1,2036,1205,0,0
-700,-188,0,0,0,0,0,0,0,0,0,-1,524,1212,0,0
-693,-188,0,0,0,0,0,0,0,0,0,-1,531,1212,0,0
-686,-188,0,0,0,0,0,0,0,0,0,-1,538,1212,0,0
-679,-188,-27.9156,4.93237,0.0164295,-0.169587,0.018371,0.0182264,-0.171384,0.097505,0.120791,0.0478324,545,1212,-27.9156,-4.93242
-672,-188,-27.8585,5.58154,0.0197903,-0.141244,0.0128619,0.0208112,-0.142265,0.0792015,0.102487,0.0469928,552,1212,-27.8585,-5.58153
-665,-188,-27.6457,6.11938,0.0203664,-0.114739,0.00860721,0.0209125,-0.115285,0.0633658,0.0846928,0.0445914,559,1212,-27.6457,-6.1194
-658,-188,-27.189,6.48999,0.0194345,-0.0904339,0.00528872,0.0196885,-0.0906878,0.047989,0.0679785,0.0486442,566,1212,-27.189,-6.48994
-651,-188,-26.7577,6.86475,0,0,0,0,0,0,0,-1,573,1212,-26.7577,-6.86469
-644,-188,-27.2167,1.60828,0.0149615,-0.0498896,0.00106396,0.014979,-0.0499071,0.0164002,0.0392295,0.0430676,580,1212,-27.2167,-1.60831
-637,-188,-27.3096,1.99561,0.0119435,-0.0339158,-0.000123705,0.0119438,-0.0339162,-0.00269746,0.0274716,0.0238566,587,1212,-27.3096,-1.9956
-630,-188,-27.4161,2.39209,0.00915152,-0.0206163,-0.00100386,0.00918533,-0.0206502,-0.033672,0.0176444,0.0110624,594,1212,-27.4161,-2.39211
-623,-188,-27.439,2.84851,0.00642023,-0.0099401,-0.0014682,0.00655095,-0.0100708,-0.0887958,0.00966804,0.0115186,601,1212,-27.439,-2.84851
-616,-188,-27.4188,3.31152,0.00389377,-0.00314574,-0.00135634,0.00414606,-0.00339803,-0.183907,0.00436271,0.0111134,608,1212,-27.4187,-3.31156
-609,-188,-27.414,3.81641,0.0017278,-0.000119372,-0.000947143,0.00212713,-0.000518695,-0.398995,0.00161892,0.012811,615,1212,-27.414,-3.81636
-602,-188,-27.4557,4.32446,0.000998595,-0.000312265,-0.000703829,0.00130492,-0.000618585,-0.410495,0.00113385,0.0159844,622,1212,-27.4557,-4.32446
-595,-188,-27.5377,4.72693,0.000511231,-0.000500451,-0.000462396,0.000690726,-0.000679946,-0.370279,0.000791366,0.0234912,629,1212,-27.5377,-4.72691
-588,-188,-27.7007,5.15686,-9.64934e-05,-0.000584325,6.6375e-05,-8.76237e-05,-0.000593195,0.132845,0.000369733,0.0260061,636,1212,-27.7007,-5.15685
-581,-188,-27.7014,5.59375,-0.000290588,-0.000484421,0.000281,-9.02605e-05,-0.000684748,0.619337,0.000429585,0.0252704,643,1212,-27.7013,-5.59373
-574,-188,-28.0338,5.9696,0,0,0,0,0,0,0,-1,650,1212,-28.0338,-5.96962
-567,-188,-19.5786,4.10388,0,0,0,0,0,0,0,-1,657,1212,-19.5785,-4.10383
-560,-188,-23.9507,0.416626,0,0,0,0,0,0,0,-1,664,1212,-23.9508,-0.416602
-553,-188,-36.0975,0.383179,0,0,0,0,0,0,0,-1,671,1212,-36.0974,-0.38321
-546,-188,-36.1481,0.727417,0.000800278,0.000606736,0.000725132,0.00143507,-2.80543e-05,0.719064,0.000966199,0.0410017,678,1212,-36.148,-0.727449
-539,-188,-36.2035,0.865723,0.00114361,0.00128722,0.000874337,0.0020927,0.000338134,0.826367,0.00129719,0.0377704,685,1212,-36.2035,-0.865763
-532,-188,-36.2294,0.88562,0.00153911,0.00168833,0.00080085,0.00241804,0.000809402,0.831843,0.00142125,0.0417801,692,1212,-36.2293,-0.885617
-525,-188,-36.2711,0.953735,0.00359259,0.0011151,0.000442868,0.00366938,0.00103832,0.171676,0.00218403,0.0419267,699,1212,-36.2711,-0.953727
-518,-188,-36.2261,1.00867,0.00790175,-0.000457957,0.000145118,0.00790427,-0.000460476,0.0173523,0.00542952,0.042022,706,1212,-36.2261,-1.00869
-511,-188,-36.1203,0.916626,0.014298,-0.00282788,-3.27479e-07,0.014298,-0.00282788,-1.91219e-05,0.0106011,0.0403639,713,1212,-36.1203,-0.916687
-504,-188,0,0,0,0,0,0,0,0,0,-1,720,1212,0,0
-497,-188,0,0,0,0,0,0,0,0,0,-1,727,1212,0,0
-490,-188,0,0,0,0,0,0,0,0,0,-1,734,1212,0,0
-483,-188,0,0,0,0,0,0,0,0,0,-1,741,1212,0,0
-476,-188,0,0,0,0,0,0,0,0,0,-1,748,1212,0,0
-469,-188,0,0,0,0,0,0,0,0,0,-1,755,1212,0,0
-462,-188,0,0,0,0,0,0,0,0,0,-1,762,1212,0,0
-455,-188,0,0,0,0,0,0,0,0,0,-1,769,1212,0,0
-448,-188,0,0,0,0,0,0,0,0,0,-1,776,1212,0,0
-441,-188,0,0,0,0,0,0,0,0,0,-1,783,1212,0,0
-434,-188,0,0,0,0,0,0,0,0,0,-1,790,1212,0,0
-427,-188,0,0,0,0,0,0,0,0,0,-1,797,1212,0,0
-420,-188,0,0,0,0,0,0,0,0,0,-1,804,1212,0,0
-413,-188,0,0,0,0,0,0,0,0,0,-1,811,1212,0,0
-406,-188,0,0,0,0,0,0,0,0,0,-1,818,1212,0,0
-399,-188,0,0,0,0,0,0,0,0,0,-1,825,1212,0,0
-392,-188,0,0,0,0,0,0,0,0,0,-1,832,1212,0,0
-385,-188,0,0,0,0,0,0,0,0,0,-1,839,1212,0,0
-378,-188,0,0,0,0,0,0,0,0,0,-1,846,1212,0,0
-371,-188,0,0,0,0,0,0,0,0,0,-1,853,1212,0,0
-364,-188,0,0,0,0,0,0,0,0,0,-1,860,1212,0,0
-357,-188,0,0,0,0,0,0,0,0,0,-1,867,1212,0,0
-350,-188,0,0,0,0,0,0,0,0,0,-1,874,1212,0,0
-343,-188,0,0,0,0,0,0,0,0,0,-1,881,1212,0,0
-336,-188,0,0,0,0,0,0,0,0,0,-1,888,1212,0,0
-329,-188,0,0,0,0,0,0,0,0,0,-1,895,1212,0,0
-322,-188,0,0,0,0,0,0,0,0,0,-1,902,1212,0,0
-315,-188,0,0,0,0,0,0,0,0,0,-1,909,1212,0,0
-308,-188,0,0,0,0,0,0,0,0,0,-1,916,1212,0,0
-301,-188,0,0,0,0,0,0,0,0,0,-1,923,1212,0,0
-294,-188,0,0,0,0,0,0,0,0,0,-1,930,1212,0,0
-287,-188,0,0,0,0,0,0,0,0,0,-1,937,1212,0,0
-280,-188,0,0,0,0,0,0,0,0,0,-1,944,1212,0,0
-273,-188,0,0,0,0,0,0,0,0,0,-1,951,1212,0,0
-266,-188,0,0,0,0,0,0,0,0,0,-1,958,1212,0,0
-259,-188,0,0,0,0,0,0,0,0,0,-1,965,1212,0,0
-252,-188,0,0,0,0,0,0,0,0,0,-1,972,1212,0,0
-245,-188,0,0,0,0,0,0,0,0,0,-1,979,1212,0,0
-238,-188,0,0,0,0,0,0,0,0,0,-1,986,1212,0,0
-231,-188,0,0,0,0,0,0,0,0,0,-1,993,1212,0,0
-224,-188,0,0,0,0,0,0,0,0,0,-1,1000,1212,0,0
-217,-188,0,0,0,0,0,0,0,0,0,-1,1007,1212,0,0
-210,-188,0,0,0,0,0,0,0,0,0,-1,1014,1212,0,0
-203,-188,0,0,0,0,0,0,0,0,0,-1,1021,1212,0,0
-196,-188,0,0,0,0,0,0,0,0,0,-1,1028,1212,0,0
-189,-188,0,0,0,0,0,0,0,0,0,-1,1035,1212,0,0
-182,-188,0,0,0,0,0,0,0,0,0,-1,1042,1212,0,0
-175,-188,0,0,0,0,0,0,0,0,0,-1,1049,1212,0,0
-168,-188,0,0,0,0,0,0,0,0,0,-1,1056,1212,0,0
-161,-188,0,0,0,0,0,0,0,0,0,-1,1063,1212,0,0
-154,-188,0,0,0,0,0,0,0,0,0,-1,1070,1212,0,0
-147,-188,0,0,0,0,0,0,0,0,0,-1,1077,1212,0,0
-140,-188,0,0,0,0,0,0,0,0,0,-1,1084,1212,0,0
-133,-188,0,0,0,0,0,0,0,0,0,-1,1091,1212,0,0
-126,-188,0,0,0,0,0,0,0,0,0,-1,1098,1212,0,0
-119,-188,0,0,0,0,0,0,0,0,0,-1,1105,1212,0,0
-112,-188,0,0,0,0,0,0,0,0,0,-1,1112,1212,0,0
-105,-188,0,0,0,0,0,0,0,0,0,-1,1119,1212,0,0
-98,-188,0,0,0,0,0,0,0,0,0,-1,1126,1212,0,0
-91,-188,0,0,0,0,0,0,0,0,0,-1,1133,1212,0,0
-84,-188,0,0,0,0,0,0,0,0,0,-1,1140,1212,0,0
-77,-188,0,0,0,0,0,0,0,0,0,-1,1147,1212,0,0
-70,-188,0,0,0,0,0,0,0,0,0,-1,1154,1212,0,0
-63,-188,0,0,0,0,0,0,0,0,0,-1,1161,1212,0,0
-56,-188,0,0,0,0,0,0,0,0,0,-1,1168,1212,0,0
-49,-188,0,0,0,0,0,0,0,0,0,-1,1175,1212,0,0
-42,-188,0,0,0,0,0,0,0,0,0,-1,1182,1212,0,0
-35,-188,0,0,0,0,0,0,0,0,0,-1,1189,1212,0,0
-28,-188,0,0,0,0,0,0,0,0,0,-1,1196,1212,0,0
-21,-188,0,0,0,0,0,0,0,0,0,-1,1203,1212,0,0
-14,-188,0,0,0,0,0,0,0,0,0,-1,1210,1212,0,0
-7,-188,0,0,0,0,0,0,0,0,0,-1,1217,1212,0,0
0,-188,0,0,0,0,0,0,0,0,0,-1,1224,1212,0,0
7,-188,0,0,0,0,0,0,0,0,0,-1,1231,1212,0,0
14,-188,0,0,0,0,0,0,0,0,0,-1,1238,1212,0,0
21,-188,0,0,0,0,0,0,0,0,0,-1,1245,1212,0,0
28,-188,0,0,0,0,0,0,0,0,0,-1,1252,1212,0,0
35,-188,0,0,0,0,0,0,0,0,0,-1,1259,1212,0,0
42,-188,0,0,0,0,0,0,0,0,0,-1,1266,1212,0,0
49,-188,0,0,0,0,0,0,0,0,0,-1,1273,1212,0,0
56,-188,0,0,0,0,0,0,0,0,0,-1,1280,1212,0,0
63,-188,0,0,0,0,0,0,0,0,0,-1,1287,1212,0,0
70,-188,0,0,0,0,0,0,0,0,0,-1,1294,1212,0,0
77,-188,0,0,0,0,0,0,0,0,0,-1,1301,1212,0,0
84,-188,0,0,0,0,0,0,0,0,0,-1,1308,1212,0,0
91,-188,0,0,0,0,0,0,0,0,0,-1,1315,1212,0,0
98,-188,0,0,0,0,0,0,0,0,0,-1,1322,1212,0,0
105,-188,0,0,0,0,0,0,0,0,0,-1,1329,1212,0,0
112,-188,0,0,0,0,0,0,0,0,0,-1,1336,1212,0,0
119,-188,0,0,0,0,0,0,0,0,0,-1,1343,1212,0,0
126,-188,0,0,0,0,0,0,0,0,0,-1,1350,1212,0,0
133,-188,0,0,0,0,0,0,0,0,0,-1,1357,1212,0,0
140,-188,0,0,0,0,0,0,0,0,0,-1,1364,1212,0,0
147,-188,0,0,0,0,0,0,0,0,0,-1,1371,1212,0,0
154,-188,0,0,0,0,0,0,0,0,0,-1,1378,1212,0,0
161,-188,0,0,0,0,0,0,0,0,0,-1,1385,1212,0,0
168,-188,0,0,0,0,0,0,0,0,0,-1,1392,1212,0,0
175,-188,0,0,0,0,0,0,0,0,0,-1,1399,1212,0,0
182,-188,0,0,0,0,0,0,0,0,0,-1,1406,1212,0,0
189,-188,0,0,0,0,0,0,0,0,0,-1,1413,1212,0,0
196,-188,0,0,0,0,0,0,0,0,0,-1,1420,1212,0,0
203,-188,0,0,0,0,0,0,0,0,0,-1,1427,1212,0,0
210,-188,0,0,0,0,0,0,0,0,0,-1,1434,1212,0,0
217,-188,0,0,0,0,0,0,0,0,0,-1,1441,1212,0,0
224,-188,0,0,0,0,0,0,0,0,0,-1,1448,1212,0,0
231,-188,0,0,0,0,0,0,0,0,0,-1,1455,1212,0,0
238,-188,0,0,0,0,0,0,0,0,0,-1,1462,1212,0,0
245,-188,0,0,0,0,0,0,0,0,0,-1,1469,1212,0,0
252,-188,0,0,0,0,0,0,0,0,0,-1,1476,1212,0,0
259,-188,0,0,0,0,0,0,0,0,0,-1,1483,1212,0,0
266,-188,0,0,0,0,0,0,0,0,0,-1,1490,1212,0,0
273,-188,0,0,0,0,0,0,0,0,0,-1,1497,1212,0,0
280,-188,0,0,0,0,0,0,0,0,0,-1,1504,1212,0,0
287,-188,0,0,0,0,0,0,0,0,0,-1,1511,1212,0,0
294,-188,0,0,0,0,0,0,0,0,0,-1,1518,1212,0,0
301,-188,0,0,0,0,0,0,0,0,0,-1,1525,1212,0,0
308,-188,0,0,0,0,0,0,0,0,0,-1,1532,1212,0,0
315,-188,0,0,0,0,0,0,0,0,0,-1,1539,1212,0,0
322,-188,0,0,0,0,0,0,0,0,0,-1,1546,1212,0,0
329,-188,0,0,0,0,0,0,0,0,0,-1,1553,1212,0,0
336,-188,0,0,0,0,0,0,0,0,0,-1,1560,1212,0,0
343,-188,0,0,0,0,0,0,0,0,0,-1,1567,1212,0,0
350,-188,0,0,0,0,0,0,0,0,0,-1,1574,1212,0,0
357,-188,0,0,0,0,0,0,0,0,0,-1,1581,1212,0,0
364,-188,0,0,0,0,0,0,0,0,0,-1,1588,1212,0,0
371,-188,0,0,0,0,0,0,0,0,0,-1,1595,1212,0,0
378,-188,0,0,0,0,0,0,0,0,0,-1,1602,1212,0,0
385,-188,0,0,0,0,0,0,0,0,0,-1,1609,1212,0,0
392,-188,0,0,0,0,0,0,0,0,0,-1,1616,1212,0,0
399,-188,0,0,0,0,0,0,0,0,0,-1,1623,1212,0,0
406,-188,0,0,0,0,0,0,0,0,0,-1,1630,1212,0,0
413,-188,0,0,0,0,0,0,0,0,0,-1,1637,1212,0,0
420,-188,0,0,0,0,0,0,0,0,0,-1,1644,1212,0,0
427,-188,0,0,0,0,0,0,0,0,0,-1,1651,1212,0,0
434,-188,0,0,0,0,0,0,0,0,0,-1,1658,1212,0,0
441,-188,0,0,0,0,0,0,0,0,0,-1,1665,1212,0,0
448,-188,0,0,0,0,0,0,0,0,0,-1,1672,1212,0,0
455,-188,0,0,0,0,0,0,0,0,0,-1,1679,1212,0,0
462,-188,0,0,0,0,0,0,0,0,0,-1,1686,1212,0,0
469,-188,0,0,0,0,0,0,0,0,0,-1,1693,1212,0,0
476,-188,0,0,0,0,0,0,0,0,0,-1,1700,1212,0,0
483,-188,0,0,0,0,0,0,0,0,0,-1,1707,1212,0,0
490,-188,0,0,0,0,0,0,0,0,0,-1,1714,1212,0,0
497,-188,0,0,0,0,0,0,0,0,0,-1,1721,1212,0,0
504,-188,0,0,0,0,0,0,0,0,0,-1,1728,1212,0,0
511,-188,0,0,0,0,0,0,0,0,0,-1,1735,1212,0,0
518,-188,0,0,0,0,0,0,0,0,0,-1,1742,1212,0,0
525,-188,0,0,0,0,0,0,0,0,0,-1,1749,1212,0,0
532,-188,0,0,0,0,0,0,0,0,0,-1,1756,1212,0,0
539,-188,0,0,0,0,0,0,0,0,0,-1,1763,1212,0,0
546,-188,0,0,0,0,0,0,0,0,0,-1,1770,1212,0,0
553,-188,0,0,0,0,0,0,0,0,0,-1,1777,1212,0,0
560,-188,0,0,0,0,0,0,0,0,0,-1,1784,1212,0,0
567,-188,0,0,0,0,0,0,0,0,0,-1,1791,1212,0,0
574,-188,0,0,0,0,0,0,0,0,0,-1,1798,1212,0,0
581,-188,0,0,0,0,0,0,0,0,0,-1,1805,1212,0,0
588,-188,0,0,0,0,0,0,0,0,0,-1,1812,1212,0,0
595,-188,0,0,0,0,0,0,0,0,0,-1,1819,1212,0,0
602,-188,0,0,0,0,0,0,0,0,0,-1,1826,1212,0,0
609,-188,0,0,0,0,0,0,0,0,0,-1,1833,1212,0,0
616,-188,0,0,0,0,0,0,0,0,0,-1,1840,1212,0,0
623,-188,0,0,0,0,0,0,0,0,0,-1,1847,1212,0,0
630,-188,48.8292,2.79822,0.00111613,-0.000996352,-0.000624055,0.00128671,-0.00116693,-0.266824,0.00141717,0.0401764,1854,1212,48.8292,-2.7982
637,-188,48.8156,2.79041,0.00101036,-0.000273529,-0.00096421,0.00152677,-0.000789944,-0.491707,0.00135992,0.0401006,1861,1212,48.8156,-2.79045
644,-188,48.8467,2.65405,0.00102502,0.000778189,-0.00154978,0.00245628,-0.000653079,-0.745665,0.00189314,0.0368507,1868,1212,48.8466,-2.65404
651,-188,48.812,2.60388,0.0010026,0.00187636,-0.00205318,0.00353863,-0.00065967,-0.890225,0.00260695,0.0328586,1875,1212,48.812,-2.60387
658,-188,48.8435,2.63123,0.00105672,0.00258123,-0.00252885,0.0044602,-0.000822257,-0.93178,0.00328207,0.0333392,1882,1212,48.8435,-2.63117
665,-188,48.8523,2.66382,0.0011146,0.00279937,-0.00277573,0.00485772,-0.000943755,-0.932723,0.0035946,0.0295841,1889,1212,48.8523,-2.66378
672,-188,48.8821,2.61975,0.000967093,0.00276655,-0.0025971,0.00461536,-0.000881711,-0.952146,0.00340903,0.0243537,1896,1212,48.8821,-2.61977
679,-188,48.7449,2.3064,0.000800159,0.00247565,-0.00232364,0.00410795,-0.000832139,-0.958411,0.00305404,0.0446913,1903,1212,48.7449,-2.30637
686,-188,48.6178,1.98547,0,0,0,0,0,0,0,-1,1910,1212,48.6178,-1.98551
693,-188,35.9054,2.18042,0,0,0,0,0,0,0,-1,1917,1212,35.9054,-2.18038
700,-188,39.0826,8.68848,0,0,0,0,0,0,0,-1,1924,1212,39.0826,-8.68852
707,-188,40.7587,8.6637,0,0,0,0,0,0,0,-1,1931,1212,40.7587,-8.66376
714,-188,41.0073,8.19556,0,0,0,0,0,0,0,-1,1938,1212,41.0074,-8.19558
721,-188,40.7654,7.64612,-0.00017187,0.000876346,-0.000358309,0.000987119,-0.000282644,-1.27096,0.000769789,0.0412185,1945,1212,40.7654,-7.64617
728,-188,40.5879,7.1803,-8.87428e-05,0.000296667,0.000432574,0.000577518,-0.000369594,0.994944,0.00055119,0.0147589,1952,1212,40.5879,-7.18033
735,-188,40.5671,6.7511,0.001167,-0.000317969,0.00120333,0.00183848,-0.000989442,0.508975,0.00165705,0.0136385,1959,1212,40.5671,-6.75104
742,-188,40.532,6.33362,0.00215911,-0.000160627,0.000984868,0.00252084,-0.000522356,0.351992,0.00187904,0.0143915,1966,1212,40.532,-6.33361
749,-188,40.5377,5.91101,0.00262051,0.000552838,-0.000547606,0.00275659,0.000416765,-0.243556,0.00171576,0.0138468,1973,1212,40.5378,-5.91098
756,-188,40.5443,5.46619,0.00215953,0.00150083,-0.00323096,0.00507788,-0.00141752,-0.734605,0.00394361,0.0129247,1980,1212,40.5443,-5.46618
763,-188,40.5649,5.04199,0.00148743,0.00258119,-0.00707072,0.00912614,-0.00505753,-0.823994,0.00830049,0.0167308,1987,1212,40.5649,-5.04194
770,-188,40.5178,4.62659,-0.000521022,0.00395892,-0.012636,0.0145519,-0.011114,-0.873122,0.0148625,0.0331073,1994,1212,40.5178,-4.62656
777,-188,40.5455,4.25342,0,0,0,0,0,0,0,-1,2001,1212,40.5455,-4.25348
784,-188,51.98,4.3103,0,0,0,0,0,0,0,-1,2008,1212,51.98,-4.31026
791,-188,51.0798,3.02258,0,0,0,0,0,0,0,-1,2015,1212,51.0798,-3.02261
798,-188,49.9751,1.7251,0,0,0,0,0,0,0,-1,2022,1212,49.9751,-1.72514
805,-188,0,0,0,0,0,0,0,0,0,-1,2029,1212,0,0
812,-188,0,0,0,0,0,0,0,0,0,-1,2036,1212,0,0
-700,-195,0,0,0,0,0,0,0,0,0,-1,524,1219,0,0
-693,-195,0,0,0,0,0,0,0,0,0,-1,531,1219,0,0
-686,-195,0,0,0,0,0,0,0,0,0,-1,538,1219,0,0
-679,-195,-27.6784,6.15491,0.0160065,-0.177744,0.0244618,0.0190472,-0.180785,0.123669,0.127348,0.0480696,545,1219,-27.6784,-6.15495
-672,-195,-27.6525,6.74268,0.019205,-0.147993,0.0179848,0.0211177,-0.149906,0.105951,0.107669,0.0454142,552,1219,-27.6525,-6.74265
-665,-195,-27.6812,7.46765,0.0198941,-0.120335,0.0127156,0.0210378,-0.121479,0.0897027,0.0888327,0.0462307,559,1219,-27.6811,-7.46767
-658,-195,-26.2896,7.37268,0.0191148,-0.0949094,0.00852406,0.0197485,-0.0955431,0.0742069,0.0711971,0.0478306,566,1219,-26.2895,-7.37264
-651,-195,-26.1855,7.64246,0,0,0,0,0,0,0,-1,573,1219,-26.1855,-7.64243
-644,-195,-26.0623,7.94519,0,0,0,0,0,0,0,-1,580,1219,-26.0623,-7.94516
-637,-195,-26.777,2.0343,0.0120201,-0.0357063,0.0014417,0.0120636,-0.0357498,0.030171,0.028712,0.0240701,587,1219,-26.777,-2.03426
-630,-195,-26.9142,2.41016,0.0092618,-0.0217699,0.000163309,0.00926266,-0.0217707,0.00526248,0.0183958,0.00888644,594,1219,-26.9143,-2.41019
-623,-195,-26.947,2.86743,0.00665854,-0.0106019,-0.00065555,0.0066834,-0.0106268,-0.0379071,0.0100801,0.00823438,601,1219,-26.9469,-2.86738
-616,-195,-26.9396,3.33606,0.00430876,-0.00336586,-0.000909872,0.00441516,-0.00347225,-0.116406,0.00456463,0.0101551,608,1219,-26.9396,-3.33608
-609,-195,-26.9523,3.84326,0.00220513,9.13856e-05,-0.000804706,0.00247662,-0.000180098,-0.325379,0.00171427,0.0183571,615,1219,-26.9523,-3.84321
-602,-195,-27.0056,4.2854,0.00145178,3.69312e-05,-0.00053227,0.00162966,-0.000140947,-0.322519,0.00113634,0.0222265,622,1219,-27.0056,-4.28537
-595,-195,-27.0408,4.77197,0.00107431,-0.000194199,-0.000226757,0.00111362,-0.000233515,-0.171678,0.00083126,0.0192596,629,1219,-27.0408,-4.77202
-588,-195,-27.0496,5.28345,0.000612761,-0.000267467,0.000376701,0.000751961,-0.000406667,0.35396,0.000678764,0.0226402,636,1219,-27.0496,-5.28342
-581,-195,-26.843,5.81458,0,0,0,0,0,0,0,-1,643,1219,-26.843,-5.81463
-574,-195,-27.0231,5.84705,0,0,0,0,0,0,0,-1,650,1219,-27.0231,-5.84702
-567,-195,-20.6388,3.78369,0,0,0,0,0,0,0,-1,657,1219,-20.6388,-3.78369
-560,-195,-20.878,2.10388,0,0,0,0,0,0,0,-1,664,1219,-20.878,-2.10385
-553,-195,-36.095,0.560547,0,0,0,0,0,0,0,-1,671,1219,-36.095,-0.560539
-546,-195,-36.0655,0.716064,0.00107149,0.00136651,0.000852417,0.00208409,0.000353916,0.871075,0.00128774,0.0467016,678,1219,-36.0655,-0.716021
-539,-195,-36.1511,0.872559,0.00120446,0.00208283,0.000898274,0.00264354,0.000643754,1.01277,0.00159177,0.0404632,685,1219,-36.1511,-0.872507
-532,-195,-36.2469,0.777344,0.00121606,0.00264231,0.00077394,0.00298157,0.000876795,1.15766,0.00176941,0.0344624,692,1219,-36.247,-0.777385
-525,-195,-36.3242,0.823975,0.00220794,0.00248188,0.000382368,0.00275107,0.00193875,0.957382,0.00163211,0.038178,699,1219,-36.3242,-0.824017
-518,-195,-36.2812,0.962402,0.00522309,0.00134222,0.000160508,0.00522972,0.00133559,0.0412647,0.00313751,0.0418029,706,1219,-36.2812,-0.962418
-511,-195,-35.9844,0.968872,0.0109449,-0.000941014,0.000198518,0.0109482,-0.000944329,0.0166958,0.00763308,0.0432224,713,1219,-35.9845,-0.968818
-504,-195,0,0,0,0,0,0,0,0,0,-1,720,1219,0,0
-497,-195,0,0,0,0,0,0,0,0,0,-1,727,1219,0,0
-490,-195,0,0,0,0,0,0,0,0,0,-1,734,1219,0,0
-483,-195,0,0,0,0,0,0,0,0,0,-1,741,1219,0,0
-476,-195,0,0,0,0,0,0,0,0,0,-1,748,1219,0,0
-469,-195,0,0,0,0,0,0,0,0,0,-1,755,1219,0,0
-462,-195,0,0,0,0,0,0,0,0,0,-1,762,1219,0,0
-455,-195,0,0,0,0,0,0,0,0,0,-1,769,1219,0,0
-448,-195,0,0,0,0,0,0,0,0,0,-1,776,1219,0,0
-441,-195,0,0,0,0,0,0,0,0,0,-1,783,1219,0,0
-434,-195,0,0,0,0,0,0,0,0,0,-1,790,1219,0,0
-427,-195,0,0,0,0,0,0,0,0,0,-1,797,1219,0,0
-420,-195,0,0,0,0,0,0,0,0,0,-1,804,1219,0,0
-413,-195,0,0,0,0,0,0,0,0,0,-1,811,1219,0,0
-406,-195,0,0,0,0,0,0,0,0,0,-1,818,1219,0,0
-399,-195,0,0,0,0,0,0,0,0,0,-1,825,1219,0,0
-392,-195,0,0,0,0,0,0,0,0,0,-1,832,1219,0,0
-385,-195,0,0,0,0,0,0,0,0,0,-1,839,1219,0,0
-378,-195,0,0,0,0,0,0,0,0,0,-1,846,1219,0,0
-371,-195,0,0,0,0,0,0,0,0,0,-1,853,1219,0,0
-364,-195,0,0,0,0,0,0,0,0,0,-1,860,1219,0,0
-357,-195,0,0,0,0,0,0,0,0,0,-1,867,1219,0,0
-350,-195,0,0,0,0,0,0,0,0,0,-1,874,1219,0,0
-343,-195,0,0,0,0,0,0,0,0,0,-1,881,1219,0,0
-336,-195,0,0,0,0,0,0,0,0,0,-1,888,1219,0,0
-329,-195,0,0,0,0,0,0,0,0,0,-1,895,1219,0,0
-322,-195,0,0,0,0,0,0,0,0,0,-1,902,1219,0,0
-315,-195,0,0,0,0,0,0,0,0,0,-1,909,1219,0,0
-308,-195,0,0,0,0,0,0,0,0,0,-1,916,1219,0,0
-301,-195,0,0,0,0,0,0,0,0,0,-1,923,1219,0,0
-294,-195,0,0,0,0,0,0,0,0,0,-1,930,1219,0,0
-287,-195,0,0,0,0,0,0,0,0,0,-1,937,1219,0,0
-280,-195,0,0,0,0,0,0,0,0,0,-1,944,1219,0,0
-273,-195,0,0,0,0,0,0,0,0,0,-1,951,1219,0,0
-266,-195,0,0,0,0,0,0,0,0,0,-1,958,1219,0,0
-259,-195,0,0,0,0,0,0,0,0,0,-1,965,1219,0,0
-252,-195,0,0,0,0,0,0,0,0,0,-1,972,1219,0,0
-245,-195,0,0,0,0,0,0,0,0,0,-1,979,1219,0,0
-238,-195,0,0,0,0,0,0,0,0,0,-1,986,1219,0,0
-231,-195,0,0,0,0,0,0,0,0,0,-1,993,1219,0,0
-224,-195,0,0,0,0,0,0,0,0,0,-1,1000,1219,0,0
-217,-195,0,0,0,0,0,0,0,0,0,-1,1007,1219,0,0
-210,-195,0,0,0,0,0,0,0,0,0,-1,1014,1219,0,0
-203,-195,0,0,0,0,0,0,0,0,0,-1,1021,1219,0,0
-196,-195,0,0,0,0,0,0,0,0,0,-1,1028,1219,0,0
-189,-195,0,0,0,0,0,0,0,0,0,-1,1035,1219,0,0
-182,-195,0,0,0,0,0,0,0,0,0,-1,1042,1219,0,0
-175,-195,0,0,0,0,0,0,0,0,0,-1,1049,1219,0,0
-168,-195,0,0,0,0,0,0,0,0,0,-1,1056,1219,0,0
-161,-195,0,0,0,0,0,0,0,0,0,-1,1063,1219,0,0
-154,-195,0,0,0,0,0,0,0,0,0,-1,1070,1219,0,0
-147,-195,0,0,0,0,0,0,0,0,0,-1,1077,1219,0,0
-140,-195,0,0,0,0,0,0,0,0,0,-1,1084,1219,0,0
-133,-195,0,0,0,0,0,0,0,0,0,-1,1091,1219,0,0
-126,-195,0,0,0,0,0,0,0,0,0,-1,1098,1219,0,0
-119,-195,0,0,0,0,0,0,0,0,0,-1,1105,1219,0,0
-112,-195,0,0,0,0,0,0,0,0,0,-1,1112,1219,0,0
-105,-195,0,0,0,0,0,0,0,0,0,-1,1119,1219,0,0
-98,-195,0,0,0,0,0,0,0,0,0,-1,1126,1219,0,0
-91,-195,0,0,0,0,0,0,0,0,0,-1,1133,1219,0,0
-84,-195,0,0,0,0,0,0,0,0,0,-1,1140,1219,0,0
-77,-195,0,0,0,0,0,0,0,0,0,-1,1147,1219,0,0
-70,-195,0,0,0,0,0,0,0,0,0,-1,1154,1219,0,0
-63,-195,0,0,0,0,0,0,0,0,0,-1,1161,1219,0,0
-56,-195,0,0,0,0,0,0,0,0,0,-1,1168,1219,0,0
-49,-195,0,0,0,0,0,0,0,0,0,-1,1175,1219,0,0
-42,-195,0,0,0,0,0,0,0,0,0,-1,1182,1219,0,0
-35,-195,0,0,0,0,0,0,0,0,0,-1,1189,1219,0,0
-28,-195,0,0,0,0,0,0,0,0,0,-1,1196,1219,0,0
-21,-195,0,0,0,0,0,0,0,0,0,-1,1203,1219,0,0
-14,-195,0,0,0,0,0,0,0,0,0,-1,1210,1219,0,0
-7,-195,0,0,0,0,0,0,0,0,0,-1,1217,1219,0,0
0,-195,0,0,0,0,0,0,0,0,0,-1,1224,1219,0,0
7,-195,0,0,0,0,0,0,0,0,0,-1,1231,1219,0,0
14,-195,0,0,0,0,0,0,0,0,0,-1,1238,1219,0,0
21,-195,0,0,0,0,0,0,0,0,0,-1,1245,1219,0,0
28,-195,0,0,0,0,0,0,0,0,0,-1,1252,1219,0,0
35,-195,0,0,0,0,0,0,0,0,0,-1,1259,1219,0,0
42,-195,0,0,0,0,0,0,0,0,0,-1,1266,1219,0,0
49,-195,0,0,0,0,0,0,0,0,0,-1,1273,1219,0,0
56,-195,0,0,0,0,0,0,0,0,0,-1,1280,1219,0,0
63,-195,0,0,0,0,0,0,0,0,0,-1,1287,1219,0,0
70,-195,0,0,0,0,0,0,0,0,0,-1,1294,1219,0,0
77,-195,0,0,0,0,0,0,0,0,0,-1,1301,1219,0,0
84,-195,0,0,0,0,0,0,0,0,0,-1,1308,1219,0,0
91,-195,0,0,0,0,0,0,0,0,0,-1,1315,1219,0,0
98,-195,0,0,0,0,0,0,0,0,0,-1,1322,1219,0,0
105,-195,0,0,0,0,0,0,0,0,0,-1,1329,1219,0,0
112,-195,0,0,0,0,0,0,0,0,0,-1,1336,1219,0,0
119,-195,0,0,0,0,0,0,0,0,0,-1,1343,1219,0,0
126,-195,0,0,0,0,0,0,0,0,0,-1,1350,1219,0,0
133,-195,0,0,0,0,0,0,0,0,0,-1,1357,1219,0,0
140,-195,0,0,0,0,0,0,0,0,0,-1,1364,1219,0,0
147,-195,0,0,0,0,0,0,0,0,0,-1,1371,1219,0,0
154,-195,0,0,0,0,0,0,0,0,0,-1,1378,1219,0,0
161,-195,0,0,0,0,0,0,0,0,0,-1,1385,1219,0,0
168,-195,0,0,0,0,0,0,0,0,0,-1,1392,1219,0,0
175,-195,0,0,0,0,0,0,0,0,0,-1,1399,1219,0,0
182,-195,0,0,0,0,0,0,0,0,0,-1,1406,1219,0,0
189,-195,0,0,0,0,0,0,0,0,0,-1,1413,1219,0,0
196,-195,0,0,0,0,0,0,0,0,0,-1,1420,1219,0,0
203,-195,0,0,0,0,0,0,0,0,0,-1,1427,1219,0,0
210,-195,0,0,0,0,0,0,0,0,0,-1,1434,1219,0,0
217,-195,0,0,0,0,0,0,0,0,0,-1,1441,1219,0,0
224,-195,0,0,0,0,0,0,0,0,0,-1,1448,1219,0,0
231,-195,0,0,0,0,0,0,0,0,0,-1,1455,1219,0,0
238,-195,0,0,0,0,0,0,0,0,0,-1,1462,1219,0,0
245,-195,0,0,0,0,0,0,0,0,0,-1,1469,1219,0,0
252,-195,0,0,0,0,0,0,0,0,0,-1,1476,1219,0,0
259,-195,0,0,0,0,0,0,0,0,0,-1,1483,1219,0,0
266,-195,0,0,0,0,0,0,0,0,0,-1,1490,1219,0,0
273,-195,0,0,0,0,0,0,0,0,0,-1,1497,1219,0,0
280,-195,0,0,0,0,0,0,0,0,0,-1,1504,1219,0,0
287,-195,0,0,0,0,0,0,0,0,0,-1,1511,1219,0,0
294,-195,0,0,0,0,0,0,0,0,0,-1,1518,1219,0,0
301,-195,0,0,0,0,0,0,0,0,0,-1,1525,1219,0,0
308,-195,0,0,0,0,0,0,0,0,0,-1,1532,1219,0,0
315,-195,0,0,0,0,0,0,0,0,0,-1,1539,1219,0,0
322,-195,0,0,0,0,0,0,0,0,0,-1,1546,1219,0,0
329,-195,0,0,0,0,0,0,0,0,0,-1,1553,1219,0,0
336,-195,0,0,0,0,0,0,0,0,0,-1,1560,1219,0,0
343,-195,0,0,0,0,0,0,0,0,0,-1,1567,1219,0,0
350,-195,0,0,0,0,0,0,0,0,0,-1,1574,1219,0,0
357,-195,0,0,0,0,0,0,0,0,0,-1,1581,1219,0,0
364,-195,0,0,0,0,0,0,0,0,0,-1,1588,1219,0,0
371,-195,0,0,0,0,0,0,0,0,0,-1,1595,1219,0,0
378,-195,0,0,0,0,0,0,0,0,0,-1,1602,1219,0,0
385,-195,0,0,0,0,0,0,0,0,0,-1,1609,1219,0,0
392,-195,0,0,0,0,0,0,0,0,0,-1,1616,1219,0,0
399,-195,0,0,0,0,0,0,0,0,0,-1,1623,1219,0,0
406,-195,0,0,0,0,0,0,0,0,0,-1,1630,1219,0,0
413,-195,0,0,0,0,0,0,0,0,0,-1,1637,1219,0,0
420,-195,0,0,0,0,0,0,0,0,0,-1,1644,1219,0,0
427,-195,0,0,0,0,0,0,0,0,0,-1,1651,1219,0,0
434,-195,0,0,0,0,0,0,0,0,0,-1,1658,1219,0,0
441,-195,0,0,0,0,0,0,0,0,0,-1,1665,1219,0,0
448,-195,0,0,0,0,0,0,0,0,0,-1,1672,1219,0,0
455,-195,0,0,0,0,0,0,0,0,0,-1,1679,1219,0,0
462,-195,0,0,0,0,0,0,0,0,0,-1,1686,1219,0,0
469,-195,0,0,0,0,0,0,0,0,0,-1,1693,1219,0,0
476,-195,0,0,0,0,0,0,0,0,0,-1,1700,1219,0,0
483,-195,0,0,0,0,0,0,0,0,0,-1,1707,1219,0,0
490,-195,0,0,0,0,0,0,0,0,0,-1,1714,1219,0,0
497,-195,0,0,0,0,0,0,0,0,0,-1,1721,1219,0,0
504,-195,0,0,0,0,0,0,0,0,0,-1,1728,1219,0,0
511,-195,0,0,0,0,0,0,0,0,0,-1,1735,1219,0,0
518,-195,0,0,0,0,0,0,0,0,0,-1,1742,1219,0,0
525,-195,0,0,0,0,0,0,0,0,0,-1,1749,1219,0,0
532,-195,0,0,0,0,0,0,0,0,0,-1,1756,1219,0,0
539,-195,0,0,0,0,0,0,0,0,0,-1,1763,1219,0,0
546,-195,0,0,0,0,0,0,0,0,0,-1,1770,1219,0,0
553,-195,0,0,0,0,0,0,0,0,0,-1,1777,1219,0,0
560,-195,0,0,0,0,0,0,0,0,0,-1,1784,1219,0,0
567,-195,0,0,0,0,0,0,0,0,0,-1,1791,1219,0,0
574,-195,0,0,0,0,0,0,0,0,0,-1,1798,1219,0,0
581,-195,0,0,0,0,0,0,0,0,0,-1,1805,1219,0,0
588,-195,0,0,0,0,0,0,0,0,0,-1,1812,1219,0,0
595,-195,0,0,0,0,0,0,0,0,0,-1,1819,1219,0,0
602,-195,0,0,0,0,0,0,0,0,0,-1,1826,1219,0,0
609,-195,0,0,0,0,0,0,0,0,0,-1,1833,1219,0,0
616,-195,0,0,0,0,0,0,0,0,0,-1,1840,1219,0,0
623,-195,0,0,0,0,0,0,0,0,0,-1,1847,1219,0,0
630,-195,48.9464,2.53662,0.00127143,-0.00028315,-0.000502571,0.00141975,-0.000431472,-0.28698,0.00111842,0.042634,1854,1219,48.9464,-2.53659
637,-195,48.9083,2.65479,0.00122055,0.000443995,-0.00104087,0.00194321,-0.000278662,-0.606877,0.00139765,0.0409148,1861,1219,48.9083,-2.65484
644,-195,48.8733,2.60852,0.00126858,0.00148816,-0.0017588,0.00314059,-0.000383853,-0.816569,0.00223271,0.0348279,1868,1219,48.8733,-2.60857
651,-195,48.861,2.53247,0.00128185,0.00244056,-0.0023195,0.00425196,-0.000529553,-0.907781,0.00302664,0.0285498,1875,1219,48.861,-2.53248
658,-195,48.8582,2.64575,0.00134514,0.00286959,-0.00275106,0.00496206,-0.000747333,-0.920542,0.00358323,0.0260732,1882,1219,48.8582,-2.64572
665,-195,48.8577,2.62903,0.00138134,0.00282663,-0.00290378,0.00509633,-0.000888357,-0.907353,0.00372911,0.0214812,1889,1219,48.8577,-2.62899
672,-195,48.9276,2.48572,0.0012478,0.00262043,-0.0026961,0.0047162,-0.000847963,-0.91003,0.00346158,0.0323595,1896,1219,48.9276,-2.48571
679,-195,48.6216,2.11084,0.0011013,0.00231268,-0.00244241,0.00422338,-0.000809403,-0.90694,0.00312058,0.0491496,1903,1219,48.6216,-2.11089
686,-195,48.3834,1.74292,0,0,0,0,0,0,0,-1,1910,1219,48.3834,-1.74294
693,-195,24.4368,5.68298,0,0,0,0,0,0,0,-1,1917,1219,24.4368,-5.68293
700,-195,40.4589,9.02539,0,0,0,0,0,0,0,-1,1924,1219,40.4589,-9.02536
707,-195,40.2241,8.52881,0,0,0,0,0,0,0,-1,1931,1219,40.2241,-8.52883
714,-195,40.24,7.81653,0,0,0,0,0,0,0,-1,1938,1219,40.24,-7.81657
721,-195,40.1605,7.61768,9.68765e-05,0.000438411,-0.000404815,0.000707003,-0.000171715,-0.984994,0.000537791,0.0223493,1945,1219,40.1605,-7.61764
728,-195,40.15,7.19849,0.000188569,-0.000103302,0.00040674,0.000474761,-0.000389494,0.613154,0.000499787,0.0110506,1952,1219,40.15,-7.19851
735,-195,40.1403,6.73608,0.00138567,-0.000614113,0.00120302,0.00195009,-0.00117853,0.438674,0.00182452,0.0126064,1959,1219,40.1402,-6.7361
742,-195,40.1128,6.32971,0.00210884,-0.000482754,0.00114456,0.00254195,-0.000915863,0.361753,0.00206864,0.0136462,1966,1219,40.1127,-6.3297
749,-195,40.0864,5.9325,0.00222855,1.68219e-05,3.36814e-05,0.00222906,1.63092e-05,0.0152238,0.00148063,0.0139204,1973,1219,40.0865,-5.93253
756,-195,40.0975,5.49316,0.001529,0.000662433,-0.00200938,0.00315128,-0.000959848,-0.679209,0.00248342,0.0136772,1980,1219,40.0976,-5.49317
763,-195,40.1097,5.04248,0.000684341,0.00131155,-0.00496532,0.00597316,-0.00397727,-0.816936,0.00578327,0.0185284,1987,1219,40.1098,-5.04254
770,-195,40.1196,4.71338,-0.0014434,0.002157,-0.00946698,0.00999342,-0.00927981,-0.879354,0.01113,0.0350065,1994,1219,40.1196,-4.71343
777,-195,40.2236,4.51001,0,0,0,0,0,0,0,-1,2001,1219,40.2236,-4.51007
784,-195,51.5916,4.67529,0,0,0,0,0,0,0,-1,2008,1219,51.5916,-4.67527
791,-195,50.762,3.30652,0,0,0,0,0,0,0,-1,2015,1219,50.7619,-3.30652
798,-195,49.7559,1.57739,0,0,0,0,0,0,0,-1,2022,1219,49.756,-1.57745
805,-195,0,0,0,0,0,0,0,0,0,-1,2029,1219,0,0
812,-195,0,0,0,0,0,0,0,0,0,-1,2036,1219,0,0
-700,-202,0,0,0,0,0,0,0,0,0,-1,524,1226,0,0
-693,-202,0,0,0,0,0,0,0,0,0,-1,531,1226,0,0
-686,-202,0,0,0,0,0,0,0,0,0,-1,538,1226,0,0
-679,-202,-27.4603,7.39844,0,0,0,0,0,0,0,-1,545,1226,-27.4603,-7.39845
-672,-202,-27.6173,7.98901,0.0192662,-0.15454,0.0247621,0.0227252,-0.157999,0.138792,0.113667,0.0485223,552,1226,-27.6173,-7.98901
-665,-202,-27.8435,8.81311,0.0205907,-0.125218,0.0182223,0.0228335,-0.12746,0.122465,0.0935187,0.046296,559,1226,-27.8435,-8.81315
-658,-202,-25.3629,8.25195,0,0,0,0,0,0,0,-1,566,1226,-25.3629,-8.25197
-651,-202,-25.2467,8.27441,0,0,0,0,0,0,0,-1,573,1226,-25.2467,-8.27437
-644,-202,-26.1525,1.50818,0,0,0,0,0,0,0,-1,580,1226,-26.1525,-1.50814
-637,-202,-26.2863,1.95398,0.0132645,-0.0360768,0.00402156,0.0135902,-0.0364024,0.0807942,0.0298481,0.0398243,587,1226,-26.2863,-1.95392
-630,-202,-26.3916,2.37769,0.0103062,-0.0217704,0.00222845,0.0104603,-0.0219245,0.0690306,0.0190839,0.0161534,594,1226,-26.3916,-2.37774
-623,-202,-26.4483,2.85718,0.00757839,-0.0104606,0.000953124,0.00762861,-0.0105108,0.0526416,0.0105168,0.00819114,601,1226,-26.4483,-2.85722
-616,-202,-26.4691,3.33887,0.00512565,-0.00312083,0.000198725,0.00513043,-0.00312562,0.0240796,0.00481325,0.00868721,608,1226,-26.4691,-3.33881
-609,-202,-26.488,3.83777,0.0028214,0.000417798,-0.000177468,0.00283443,0.000404765,-0.0733044,0.00177019,0.0220921,615,1226,-26.488,-3.83775
-602,-202,-26.5443,4.2677,0.00179952,0.000379014,-0.000106614,0.00180748,0.000371057,-0.0744974,0.00110232,0.0220809,622,1226,-26.5443,-4.26768
-595,-202,-26.5505,4.77026,0.00146281,6.93974e-06,6.91708e-05,0.00146609,3.66068e-06,0.0473695,0.000976174,0.0154232,629,1226,-26.5505,-4.77022
-588,-202,-26.4839,5.25818,0.00124325,-0.000105005,0.00066972,0.00151937,-0.000381126,0.391059,0.001161,0.01489,636,1226,-26.4839,-5.25813
-581,-202,-26.3737,5.76709,0,0,0,0,0,0,0,-1,643,1226,-26.3737,-5.76714
-574,-202,-26.6781,5.76343,0,0,0,0,0,0,0,-1,650,1226,-26.6781,-5.76345
-567,-202,-22.1768,4.56995,0,0,0,0,0,0,0,-1,657,1226,-22.1768,-4.56991
-560,-202,-10.929,2.73096,0,0,0,0,0,0,0,-1,664,1226,-10.929,-2.73092
-553,-202,-30.2701,1.474,0,0,0,0,0,0,0,-1,671,1226,-30.2701,-1.47395
-546,-202,-35.837,0.356812,0,0,0,0,0,0,0,-1,678,1226,-35.8369,-0.356862
-539,-202,-36.0731,0.799316,0.00143236,0.00264094,0.000852072,0.00308125,0.00099205,1.09383,0.00181617,0.0425492,685,1226,-36.0732,-0.799365
-532,-202,-36.1747,0.805542,0.00119681,0.00322214,0.000662048,0.00341935,0.000999601,1.28129,0.00203013,0.027831,692,1226,-36.1747,-0.805492
-525,-202,-36.2229,0.79187,0.00141762,0.00331917,0.000229711,0.00334652,0.00139026,1.45227,0.00194131,0.0330875,699,1226,-36.2229,-0.791904
-518,-202,-36.2182,0.960571,0.00305089,0.00271231,2.65518e-05,0.00305296,0.00271024,0.0777883,0.00193123,0.0411171,706,1226,-36.2182,-0.960538
-511,-202,-36.0784,1.02673,0.00752795,0.000943015,0.000163511,0.00753201,0.000938957,0.0248107,0.00473946,0.0438053,713,1226,-36.0784,-1.02673
-504,-202,0,0,0,0,0,0,0,0,0,-1,720,1226,0,0
-497,-202,0,0,0,0,0,0,0,0,0,-1,727,1226,0,0
-490,-202,0,0,0,0,0,0,0,0,0,-1,734,1226,0,0
-483,-202,0,0,0,0,0,0,0,0,0,-1,741,1226,0,0
-476,-202,0,0,0,0,0,0,0,0,0,-1,748,1226,0,0
-469,-202,0,0,0,0,0,0,0,0,0,-1,755,1226,0,0
-462,-202,0,0,0,0,0,0,0,0,0,-1,762,1226,0,0
-455,-202,0,0,0,0,0,0,0,0,0,-1,769,1226,0,0
-448,-202,0,0,0,0,0,0,0,0,0,-1,776,1226,0,0
-441,-202,0,0,0,0,0,0,0,0,0,-1,783,1226,0,0
-434,-202,0,0,0,0,0,0,0,0,0,-1,790,1226,0,0
-427,-202,0,0,0,0,0,0,0,0,0,-1,797,1226,0,0
-420,-202,0,0,0,0,0,0,0,0,0,-1,804,1226,0,0
-413,-202,0,0,0,0,0,0,0,0,0,-1,811,1226,0,0
-406,-202,0,0,0,0,0,0,0,0,0,-1,818,1226,0,0
-399,-202,0,0,0,0,0,0,0,0,0,-1,825,1226,0,0
-392,-202,0,0,0,0,0,0,0,0,0,-1,832,1226,0,0
-385,-202,0,0,0,0,0,0,0,0,0,-1,839,1226,0,0
-378,-202,0,0,0,0,0,0,0,0,0,-1,846,1226,0,0
-371,-202,0,0,0,0,0,0,0,0,0,-1,853,1226,0,0
-364,-202,0,0,0,0,0,0,0,0,0,-1,860,1226,0,0
-357,-202,0,0,0,0,0,0,0,0,0,-1,867,1226,0,0
-350,-202,0,0,0,0,0,0,0,0,0,-1,874,1226,0,0
-343,-202,0,0,0,0,0,0,0,0,0,-1,881,1226,0,0
-336,-202,0,0,0,0,0,0,0,0,0,-1,888,1226,0,0
-329,-202,0,0,0,0,0,0,0,0,0,-1,895,1226,0,0
-322,-202,0,0,0,0,0,0,0,0,0,-1,902,1226,0,0
-315,-202,0,0,0,0,0,0,0,0,0,-1,909,1226,0,0
-308,-202,0,0,0,0,0,0,0,0,0,-1,916,1226,0,0
-301,-202,0,0,0,0,0,0,0,0,0,-1,923,1226,0,0
-294,-202,0,0,0,0,0,0,0,0,0,-1,930,1226,0,0
-287,-202,0,0,0,0,0,0,0,0,0,-1,937,1226,0,0
-280,-202,0,0,0,0,0,0,0,0,0,-1,944,1226,0,0
-273,-202,0,0,0,0,0,0,0,0,0,-1,951,1226,0,0
-266,-202,0,0,0,0,0,0,0,0,0,-1,958,1226,0,0
-259,-202,0,0,0,0,0,0,0,0,0,-1,965,1226,0,0
-252,-202,0,0,0,0,0,0,0,0,0,-1,972,1226,0,0
-245,-202,0,0,0,0,0,0,0,0,0,-1,979,1226,0,0
-238,-202,0,0,0,0,0,0,0,0,0,-1,986,1226,0,0
-231,-202,0,0,0,0,0,0,0,0,0,-1,993,1226,0,0
-224,-202,0,0,0,0,0,0,0,0,0,-1,1000,1226,0,0
-217,-202,0,0,0,0,0,0,0,0,0,-1,1007,1226,0,0
-210,-202,0,0,0,0,0,0,0,0,0,-1,1014,1226,0,0
-203,-202,0,0,0,0,0,0,0,0,0,-1,1021,1226,0,0
-196,-202,0,0,0,0,0,0,0,0,0,-1,1028,1226,0,0
-189,-202,0,0,0,0,0,0,0,0,0,-1,1035,1226,0,0
-182,-202,0,0,0,0,0,0,0,0,0,-1,1042,1226,0,0
-175,-202,0,0,0,0,0,0,0,0,0,-1,1049,1226,0,0
-168,-202,0,0,0,0,0,0,0,0,0,-1,1056,1226,0,0
-161,-202,0,0,0,0,0,0,0,0,0,-1,1063,1226,0,0
-154,-202,0,0,0,0,0,0,0,0,0,-1,1070,1226,0,0
-147,-202,0,0,0,0,0,0,0,0,0,-1,1077,1226,0,0
-140,-202,0,0,0,0,0,0,0,0,0,-1,1084,1226,0,0
-133,-202,0,0,0,0,0,0,0,0,0,-1,1091,1226,0,0
-126,-202,0,0,0,0,0,0,0,0,0,-1,1098,1226,0,0
-119,-202,0,0,0,0,0,0,0,0,0,-1,1105,1226,0,0
-112,-202,0,0,0,0,0,0,0,0,0,-1,1112,1226,0,0
-105,-202,0,0,0,0,0,0,0,0,0,-1,1119,1226,0,0
-98,-202,0,0,0,0,0,0,0,0,0,-1,1126,1226,0,0
-91,-202,0,0,0,0,0,0,0,0,0,-1,1133,1226,0,0
-84,-202,0,0,0,0,0,0,0,0,0,-1,1140,1226,0,0
-77,-202,0,0,0,0,0,0,0,0,0,-1,1147,1226,0,0
-70,-202,0,0,0,0,0,0,0,0,0,-1,1154,1226,0,0
-63,-202,0,0,0,0,0,0,0,0,0,-1,1161,1226,0,0
-56,-202,0,0,0,0,0,0,0,0,0,-1,1168,1226,0,0
-49,-202,0,0,0,0,0,0,0,0,0,-1,1175,1226,0,0
-42,-202,0,0,0,0,0,0,0,0,0,-1,1182,1226,0,0
-35,-202,0,0,0,0,0,0,0,0,0,-1,1189,1226,0,0
-28,-202,0,0,0,0,0,0,0,0,0,-1,1196,1226,0,0
-21,-202,0,0,0,0,0,0,0,0,0,-1,1203,1226,0,0
-14,-202,0,0,0,0,0,0,0,0,0,-1,1210,1226,0,0
-7,-202,0,0,0,0,0,0,0,0,0,-1,1217,1226,0,0
0,-202,0,0,0,0,0,0,0,0,0,-1,1224,1226,0,0
7,-202,0,0,0,0,0,0,0,0,0,-1,1231,1226,0,0
14,-202,0,0,0,0,0,0,0,0,0,-1,1238,1226,0,0
21,-202,0,0,0,0,0,0,0,0,0,-1,1245,1226,0,0
28,-202,0,0,0,0,0,0,0,0,0,-1,1252,1226,0,0
35,-202,0,0,0,0,0,0,0,0,0,-1,1259,1226,0,0
42,-202,0,0,0,0,0,0,0,0,0,-1,1266,1226,0,0
49,-202,0,0,0,0,0,0,0,0,0,-1,1273,1226,0,0
56,-202,0,0,0,0,0,0,0,0,0,-1,1280,1226,0,0
63,-202,0,0,0,0,0,0,0,0,0,-1,1287,1226,0,0
70,-202,0,0,0,0,0,0,0,0,0,-1,1294,1226,0,0
77,-202,0,0,0,0,0,0,0,0,0,-1,1301,1226,0,0
84,-202,0,0,0,0,0,0,0,0,0,-1,1308,1226,0,0
91,-202,0,0,0,0,0,0,0,0,0,-1,1315,1226,0,0
98,-202,0,0,0,0,0,0,0,0,0,-1,1322,1226,0,0
105,-202,0,0,0,0,0,0,0,0,0,-1,1329,1226,0,0
112,-202,0,0,0,0,0,0,0,0,0,-1,1336,1226,0,0
119,-202,0,0,0,0,0,0,0,0,0,-1,1343,1226,0,0
126,-202,0,0,0,0,0,0,0,0,0,-1,1350,1226,0,0
133,-202,0,0,0,0,0,0,0,0,0,-1,1357,1226,0,0
140,-202,0,0,0,0,0,0,0,0,0,-1,1364,1226,0,0
147,-202,0,0,0,0,0,0,0,0,0,-1,1371,1226,0,0
154,-202,0,0,0,0,0,0,0,0,0,-1,1378,1226,0,0
161,-202,0,0,0,0,0,0,0,0,0,-1,1385,1226,0,0
168,-202,0,0,0,0,0,0,0,0,0,-1,1392,1226,0,0
175,-202,0,0,0,0,0,0,0,0,0,-1,1399,1226,0,0
182,-202,0,0,0,0,0,0,0,0,0,-1,1406,1226,0,0
189,-202,0,0,0,0,0,0,0,0,0,-1,1413,1226,0,0
196,-202,0,0,0,0,0,0,0,0,0,-1,1420,1226,0,0
203,-202,0,0,0,0,0,0,0,0,0,-1,1427,1226,0,0
210,-202,0,0,0,0,0,0,0,0,0,-1,1434,1226,0,0
217,-202,0,0,0,0,0,0,0,0,0,-1,1441,1226,0,0
224,-202,0,0,0,0,0,0,0,0,0,-1,1448,1226,0,0
231,-202,0,0,0,0,0,0,0,0,0,-1,1455,1226,0,0
238,-202,0,0,0,0,0,0,0,0,0,-1,1462,1226,0,0
245,-202,0,0,0,0,0,0,0,0,0,-1,1469,1226,0,0
252,-202,0,0,0,0,0,0,0,0,0,-1,1476,1226,0,0
259,-202,0,0,0,0,0,0,0,0,0,-1,1483,1226,0,0
266,-202,0,0,0,0,0,0,0,0,0,-1,1490,1226,0,0
273,-202,0,0,0,0,0,0,0,0,0,-1,1497,1226,0,0
280,-202,0,0,0,0,0,0,0,0,0,-1,1504,1226,0,0
287,-202,0,0,0,0,0,0,0,0,0,-1,1511,1226,0,0
294,-202,0,0,0,0,0,0,0,0,0,-1,1518,1226,0,0
301,-202,0,0,0,0,0,0,0,0,0,-1,1525,1226,0,0
308,-202,0,0,0,0,0,0,0,0,0,-1,1532,1226,0,0
315,-202,0,0,0,0,0,0,0,0,0,-1,1539,1226,0,0
322,-202,0,0,0,0,0,0,0,0,0,-1,1546,1226,0,0
329,-202,0,0,0,0,0,0,0,0,0,-1,1553,1226,0,0
336,-202,0,0,0,0,0,0,0,0,0,-1,1560,1226,0,0
343,-202,0,0,0,0,0,0,0,0,0,-1,1567,1226,0,0
350,-202,0,0,0,0,0,0,0,0,0,-1,1574,1226,0,0
357,-202,0,0,0,0,0,0,0,0,0,-1,1581,1226,0,0
364,-202,0,0,0,0,0,0,0,0,0,-1,1588,1226,0,0
371,-202,0,0,0,0,0,0,0,0,0,-1,1595,1226,0,0
378,-202,0,0,0,0,0,0,0,0,0,-1,1602,1226,0,0
385,-202,0,0,0,0,0,0,0,0,0,-1,1609,1226,0,0
392,-202,0,0,0,0,0,0,0,0,0,-1,1616,1226,0,0
399,-202,0,0,0,0,0,0,0,0,0,-1,1623,1226,0,0
406,-202,0,0,0,0,0,0,0,0,0,-1,1630,1226,0,0
413,-202,0,0,0,0,0,0,0,0,0,-1,1637,1226,0,0
420,-202,0,0,0,0,0,0,0,0,0,-1,1644,1226,0,0
427,-202,0,0,0,0,0,0,0,0,0,-1,1651,1226,0,0
434,-202,0,0,0,0,0,0,0,0,0,-1,1658,1226,0,0
441,-202,0,0,0,0,0,0,0,0,0,-1,1665,1226,0,0
448,-202,0,0,0,0,0,0,0,0,0,-1,1672,1226,0,0
455,-202,0,0,0,0,0,0,0,0,0,-1,1679,1226,0,0
462,-202,0,0,0,0,0,0,0,0,0,-1,1686,1226,0,0
469,-202,0,0,0,0,0,0,0,0,0,-1,1693,1226,0,0
476,-202,0,0,0,0,0,0,0,0,0,-1,1700,1226,0,0
483,-202,0,0,0,0,0,0,0,0,0,-1,1707,1226,0,0
490,-202,0,0,0,0,0,0,0,0,0,-1,1714,1226,0,0
497,-202,0,0,0,0,0,0,0,0,0,-1,1721,1226,0,0
504,-202,0,0,0,0,0,0,0,0,0,-1,1728,1226,0,0
511,-202,0,0,0,0,0,0,0,0,0,-1,1735,1226,0,0
518,-202,0,0,0,0,0,0,0,0,0,-1,1742,1226,0,0
525,-202,0,0,0,0,0,0,0,0,0,-1,1749,1226,0,0
532,-202,0,0,0,0,0,0,0,0,0,-1,1756,1226,0,0
539,-202,0,0,0,0,0,0,0,0,0,-1,1763,1226,0,0
546,-202,0,0,0,0,0,0,0,0,0,-1,1770,1226,0,0
553,-202,0,0,0,0,0,0,0,0,0,-1,1777,1226,0,0
560,-202,0,0,0,0,0,0,0,0,0,-1,1784,1226,0,0
567,-202,0,0,0,0,0,0,0,0,0,-1,1791,1226,0,0
574,-202,0,0,0,0,0,0,0,0,0,-1,1798,1226,0,0
581,-202,0,0,0,0,0,0,0,0,0,-1,1805,1226,0,0
588,-202,0,0,0,0,0,0,0,0,0,-1,1812,1226,0,0
595,-202,0,0,0,0,0,0,0,0,0,-1,1819,1226,0,0
602,-202,0,0,0,0,0,0,0,0,0,-1,1826,1226,0,0
609,-202,0,0,0,0,0,0,0,0,0,-1,1833,1226,0,0
616,-202,0,0,0,0,0,0,0,0,0,-1,1840,1226,0,0
623,-202,0,0,0,0,0,0,0,0,0,-1,1847,1226,0,0
630,-202,48.8962,2.65808,0.00140203,-5.86939e-06,-0.000743178,0.00172173,-0.00032557,-0.40625,0.00127032,0.0404501,1854,1226,48.8962,-2.65805
637,-202,48.9597,2.7384,0.00143269,0.000848732,-0.00135401,0.00252585,-0.000244423,-0.679204,0.001771,0.0384499,1861,1226,48.9597,-2.73842
644,-202,48.9159,2.65015,0.00151694,0.00195777,-0.00204732,0.00379651,-0.000321798,-0.839022,0.00264481,0.0333102,1868,1226,48.9159,-2.65017
651,-202,48.8975,2.56018,0.00155726,0.00276649,-0.002555,0.00478743,-0.000463687,-0.901581,0.00335688,0.0272812,1875,1226,48.8975,-2.56021
658,-202,48.8794,2.59399,0.00161002,0.00293871,-0.00288022,0.00523022,-0.000681485,-0.898745,0.00373475,0.0234432,1882,1226,48.8794,-2.59403
665,-202,48.8984,2.51831,0.00160293,0.00269804,-0.00292909,0.00513032,-0.000829345,-0.8778,0.00372754,0.0192848,1889,1226,48.8985,-2.51826
672,-202,49.0605,2.56506,0.00144248,0.00236361,-0.00270547,0.00464743,-0.000841341,-0.869707,0.00341347,0.0379342,1896,1226,49.0606,-2.56501
679,-202,48.621,1.95349,0,0,0,0,0,0,0,-1,1903,1226,48.621,-1.95355
686,-202,47.8248,1.91772,0,0,0,0,0,0,0,-1,1910,1226,47.8248,-1.91773
693,-202,39.5099,9.76465,0,0,0,0,0,0,0,-1,1917,1226,39.5098,-9.76467
700,-202,39.6376,9.06799,0.000713089,0.0010878,-0.0015104,0.00242242,-0.000621531,-0.847105,0.00185712,0.0455717,1924,1226,39.6376,-9.068
707,-202,39.7402,8.35254,0.000753033,0.000823216,-0.00129842,0.00208702,-0.000510767,-0.798908,0.0015892,0.0334514,1931,1226,39.7402,-8.35252
714,-202,39.7128,7.9248,0.000532279,0.000479421,-0.000921544,0.00142777,-0.000416073,-0.771063,0.00111668,0.0250527,1938,1226,39.7127,-7.92479
721,-202,39.7408,7.61816,6.90878e-05,-9.62577e-05,-0.000221499,0.00022284,-0.00025001,-0.606784,0.00027315,0.0147329,1945,1226,39.7408,-7.61821
728,-202,39.7242,7.1803,8.17094e-05,-0.000534255,0.00060305,0.00045087,-0.000903416,0.54931,0.000796316,0.0113986,1952,1226,39.7242,-7.18031
735,-202,39.703,6.75781,0.000936205,-0.000909448,0.00133588,0.00163701,-0.00161026,0.483136,0.00187483,0.0106718,1959,1226,39.703,-6.75785
742,-202,39.6803,6.33557,0.00122556,-0.000786099,0.00146232,0.00199457,-0.00155512,0.484143,0.00205464,0.0112453,1966,1226,39.6803,-6.33559
749,-202,39.6338,5.90979,0.00100545,-0.000456486,0.000756488,0.00132643,-0.000777463,0.401276,0.00122839,0.0124328,1973,1226,39.6338,-5.90982
756,-202,39.6443,5.49329,5.53901e-05,-3.94079e-05,-0.000728293,0.000737825,-0.000721843,-0.752903,0.000842756,0.0121142,1980,1226,39.6443,-5.49328
763,-202,39.7064,5.09875,-0.00104858,0.000255645,-0.00286636,0.00254313,-0.00333607,-0.897247,0.00340463,0.0204612,1987,1226,39.7065,-5.09872
770,-202,39.6941,4.70178,-0.00333148,0.000629069,-0.00628088,0.00523446,-0.00793686,-0.938109,0.00765763,0.0492404,1994,1226,39.6941,-4.70179
777,-202,39.7246,4.26685,0,0,0,0,0,0,0,-1,2001,1226,39.7246,-4.26688
784,-202,47.5757,-1.52417,-0.0141695,0.00249679,-0.0180601,0.0140535,-0.0257262,-1.00155,0.0232941,0.0466809,2008,1226,47.5757,1.52422
791,-202,47.2439,1.04968,-0.0246661,0.00399247,-0.0268639,0.0201099,-0.0407835,-1.0304,0.0358258,0.0462569,2015,1226,47.2438,-1.04967
798,-202,47.0044,3.40833,0,0,0,0,0,0,0,-1,2022,1226,47.0044,-3.40829
805,-202,0,0,0,0,0,0,0,0,0,-1,2029,1226,0,0
812,-202,0,0,0,0,0,0,0,0,0,-1,2036,1226,0,0
-700,-209,0,0,0,0,0,0,0,0,0,-1,524,1233,0,0
-693,-209,0,0,0,0,0,0,0,0,0,-1,531,1233,0,0
-686,-209,0,0,0,0,0,0,0,0,0,-1,538,1233,0,0
-679,-209,-31.5131,-6.2063,0,0,0,0,0,0,0,-1,545,1233,-31.5131,6.20631
-672,-209,-27.5267,9.27673,0,0,0,0,0,0,0,-1,552,1233,-27.5267,-9.27677
-665,-209,-27.6389,10.116,0,0,0,0,0,0,0,-1,559,1233,-27.6389,-10.1159
-658,-209,-27.5396,11.0381,0,0,0,0,0,0,0,-1,566,1233,-27.5396,-11.0381
-651,-209,-31.6965,0.288574,0,0,0,0,0,0,0,-1,573,1233,-31.6965,-0.288608
-644,-209,-31.193,1.73999,0,0,0,0,0,0,0,-1,580,1233,-31.193,-1.74002
-637,-209,-25.7834,1.77234,0,0,0,0,0,0,0,-1,587,1233,-25.7834,-1.77232
-630,-209,-25.8306,2.3064,0.0110505,-0.0212226,0.00433661,0.0116231,-0.0217951,0.131271,0.0195897,0.0257479,594,1233,-25.8306,-2.30634
-623,-209,-25.9272,2.84607,0.00823374,-0.00991759,0.00265642,0.00861451,-0.0102984,0.142372,0.0109338,0.0120817,601,1233,-25.9272,-2.84611
-616,-209,-25.9695,3.35413,0.00576196,-0.00262272,0.00145989,0.00600888,-0.00286963,0.167547,0.00523173,0.012073,608,1233,-25.9695,-3.35408
-609,-209,-26.0071,3.85632,0.00342727,0.000885537,0.000687487,0.00360131,0.000711502,0.247938,0.00220235,0.0145061,615,1233,-26.0071,-3.85636
-602,-209,-26.0251,4.31531,0.00226051,0.000779734,0.000538111,0.0024354,0.000604842,0.314242,0.00146424,0.0172538,622,1233,-26.0252,-4.31534
-595,-209,-26.0012,4.76282,0.00193142,0.000214368,0.000485989,0.00205943,8.63583e-05,0.25755,0.00134509,0.0123231,629,1233,-26.0012,-4.76285
-588,-209,-25.983,5.2876,0.00187194,2.43719e-05,0.000976474,0.00229236,-0.000396046,0.40656,0.00167592,0.0176933,636,1233,-25.9829,-5.28756
-581,-209,-25.7271,5.90259,0.00175829,0.000326388,0.00107057,0.00233024,-0.000245568,0.490674,0.00164148,0.0488963,643,1233,-25.7271,-5.90258
-574,-209,-25.9367,6.40662,0,0,0,0,0,0,0,-1,650,1233,-25.9367,-6.40656
-567,-209,-26.0764,6.7301,0,0,0,0,0,0,0,-1,657,1233,-26.0764,-6.73011
-560,-209,-13.9294,4.16626,0,0,0,0,0,0,0,-1,664,1233,-13.9294,-4.16621
-553,-209,-22.7542,0.748779,0,0,0,0,0,0,0,-1,671,1233,-22.7541,-0.748796
-546,-209,-36.3188,0.679565,0,0,0,0,0,0,0,-1,678,1233,-36.3189,-0.679592
-539,-209,-36.1905,0.773926,0.00154219,0.00288606,0.000758451,0.00322741,0.00120084,1.14789,0.00188357,0.0402802,685,1233,-36.1905,-0.773984
-532,-209,-36.0847,0.880127,0.00116327,0.00334139,0.000502159,0.00345159,0.00105307,1.35478,0.00204262,0.0318769,692,1233,-36.0846,-0.880096
-525,-209,-36.1357,0.776001,0.000917596,0.00345686,8.83762e-05,0.00345994,0.000914524,1.53605,0.00207025,0.0338483,699,1233,-36.1358,-0.776004
-518,-209,-36.13,0.752808,0.00138837,0.00317678,-6.58819e-05,0.0031792,0.00138595,-1.53402,0.00184053,0.0419584,706,1233,-36.13,-0.752804
-511,-209,-36.1108,0.831787,0.00415615,0.0020556,0.000150181,0.00416684,0.00204491,0.0710146,0.00240586,0.0435875,713,1233,-36.1109,-0.831791
-504,-209,0,0,0,0,0,0,0,0,0,-1,720,1233,0,0
-497,-209,0,0,0,0,0,0,0,0,0,-1,727,1233,0,0
-490,-209,0,0,0,0,0,0,0,0,0,-1,734,1233,0,0
-483,-209,0,0,0,0,0,0,0,0,0,-1,741,1233,0,0
-476,-209,0,0,0,0,0,0,0,0,0,-1,748,1233,0,0
-469,-209,0,0,0,0,0,0,0,0,0,-1,755,1233,0,0
-462,-209,0,0,0,0,0,0,0,0,0,-1,762,1233,0,0
-455,-209,0,0,0,0,0,0,0,0,0,-1,769,1233,0,0
-448,-209,0,0,0,0,0,0,0,0,0,-1,776,1233,0,0
-441,-209,0,0,0,0,0,0,0,0,0,-1,783,1233,0,0
-434,-209,0,0,0,0,0,0,0,0,0,-1,790,1233,0,0
-427,-209,0,0,0,0,0,0,0,0,0,-1,797,1233,0,0
-420,-209,0,0,0,0,0,0,0,0,0,-1,804,1233,0,0
-413,-209,0,0,0,0,0,0,0,0,0,-1,811,1233,0,0
-406,-209,0,0,0,0,0,0,0,0,0,-1,818,1233,0,0
-399,-209,0,0,0,0,0,0,0,0,0,-1,825,1233,0,0
-392,-209,0,0,0,0,0,0,0,0,0,-1,832,1233,0,0
-385,-209,0,0,0,0,0,0,0,0,0,-1,839,1233,0,0
-378,-209,0,0,0,0,0,0,0,0,0,-1,846,1233,0,0
-371,-209,0,0,0,0,0,0,0,0,0,-1,853,1233,0,0
-364,-209,0,0,0,0,0,0,0,0,0,-1,860,1233,0,0
-357,-209,0,0,0,0,0,0,0,0,0,-1,867,1233,0,0
-350,-209,0,0,0,0,0,0,0,0,0,-1,874,1233,0,0
-343,-209,0,0,0,0,0,0,0,0,0,-1,881,1233,0,0
-336,-209,0,0,0,0,0,0,0,0,0,-1,888,1233,0,0
-329,-209,0,0,0,0,0,0,0,0,0,-1,895,1233,0,0
-322,-209,0,0,0,0,0,0,0,0,0,-1,902,1233,0,0
-315,-209,0,0,0,0,0,0,0,0,0,-1,909,1233,0,0
-308,-209,0,0,0,0,0,0,0,0,0,-1,916,1233,0,0
-301,-209,0,0,0,0,0,0,0,0,0,-1,923,1233,0,0
-294,-209,0,0,0,0,0,0,0,0,0,-1,930,1233,0,0
-287,-209,0,0,0,0,0,0,0,0,0,-1,937,1233,0,0
-280,-209,0,0,0,0,0,0,0,0,0,-1,944,1233,0,0
-273,-209,0,0,0,0,0,0,0,0,0,-1,951,1233,0,0
-266,-209,0,0,0,0,0,0,0,0,0,-1,958,1233,0,0
-259,-209,0,0,0,0,0,0,0,0,0,-1,965,1233,0,0
-252,-209,0,0,0,0,0,0,0,0,0,-1,972,1233,0,0
-245,-209,0,0,0,0,0,0,0,0,0,-1,979,1233,0,0
-238,-209,0,0,0,0,0,0,0,0,0,-1,986,1233,0,0
-231,-209,0,0,0,0,0,0,0,0,0,-1,993,1233,0,0
-224,-209,0,0,0,0,0,0,0,0,0,-1,1000,1233,0,0
-217,-209,0,0,0,0,0,0,0,0,0,-1,1007,1233,0,0
-210,-209,0,0,0,0,0,0,0,0,0,-1,1014,1233,0,0
-203,-209,0,0,0,0,0,0,0,0,0,-1,1021,1233,0,0
-196,-209,0,0,0,0,0,0,0,0,0,-1,1028,1233,0,0
-189,-209,0,0,0,0,0,0,0,0,0,-1,1035,1233,0,0
-182,-209,0,0,0,0,0,0,0,0,0,-1,1042,1233,0,0
-175,-209,0,0,0,0,0,0,0,0,0,-1,1049,1233,0,0
-168,-209,0,0,0,0,0,0,0,0,0,-1,1056,1233,0,0
-161,-209,0,0,0,0,0,0,0,0,0,-1,1063,1233,0,0
-154,-209,0,0,0,0,0,0,0,0,0,-1,1070,1233,0,0
-147,-209,0,0,0,0,0,0,0,0,0,-1,1077,1233,0,0
-140,-209,0,0,0,0,0,0,0,0,0,-1,1084,1233,0,0
-133,-209,0,0,0,0,0,0,0,0,0,-1,1091,1233,0,0
-126,-209,0,0,0,0,0,0,0,0,0,-1,1098,1233,0,0
-119,-209,0,0,0,0,0,0,0,0,0,-1,1105,1233,0,0
-112,-209,0,0,0,0,0,0,0,0,0,-1,1112,1233,0,0
-105,-209,0,0,0,0,0,0,0,0,0,-1,1119,1233,0,0
-98,-209,0,0,0,0,0,0,0,0,0,-1,1126,1233,0,0
-91,-209,0,0,0,0,0,0,0,0,0,-1,1133,1233,0,0
-84,-209,0,0,0,0,0,0,0,0,0,-1,1140,1233,0,0
-77,-209,0,0,0,0,0,0,0,0,0,-1,1147,1233,0,0
-70,-209,0,0,0,0,0,0,0,0,0,-1,1154,1233,0,0
-63,-209,0,0,0,0,0,0,0,0,0,-1,1161,1233,0,0
-56,-209,0,0,0,0,0,0,0,0,0,-1,1168,1233,0,0
-49,-209,0,0,0,0,0,0,0,0,0,-1,1175,1233,0,0
-42,-209,0,0,0,0,0,0,0,0,0,-1,1182,1233,0,0
-35,-209,0,0,0,0,0,0,0,0,0,-1,1189,1233,0,0
-28,-209,0,0,0,0,0,0,0,0,0,-1,1196,1233,0,0
-21,-209,0,0,0,0,0,0,0,0,0,-1,1203,1233,0,0
-14,-209,0,0,0,0,0,0,0,0,0,-1,1210,1233,0,0
-7,-209,0,0,0,0,0,0,0,0,0,-1,1217,1233,0,0
0,-209,0,0,0,0,0,0,0,0,0,-1,1224,1233,0,0
7,-209,0,0,0,0,0,0,0,0,0,-1,1231,1233,0,0
14,-209,0,0,0,0,0,0,0,0,0,-1,1238,1233,0,0
21,-209,0,0,0,0,0,0,0,0,0,-1,1245,1233,0,0
28,-209,0,0,0,0,0,0,0,0,0,-1,1252,1233,0,0
35,-209,0,0,0,0,0,0,0,0,0,-1,1259,1233,0,0
42,-209,0,0,0,0,0,0,0,0,0,-1,1266,1233,0,0
49,-209,0,0,0,0,0,0,0,0,0,-1,1273,1233,0,0
56,-209,0,0,0,0,0,0,0,0,0,-1,1280,1233,0,0
63,-209,0,0,0,0,0,0,0,0,0,-1,1287,1233,0,0
70,-209,0,0,0,0,0,0,0,0,0,-1,1294,1233,0,0
77,-209,0,0,0,0,0,0,0,0,0,-1,1301,1233,0,0
84,-209,0,0,0,0,0,0,0,0,0,-1,1308,1233,0,0
91,-209,0,0,0,0,0,0,0,0,0,-1,1315,1233,0,0
98,-209,0,0,0,0,0,0,0,0,0,-1,1322,1233,0,0
105,-209,0,0,0,0,0,0,0,0,0,-1,1329,1233,0,0
112,-209,0,0,0,0,0,0,0,0,0,-1,1336,1233,0,0
119,-209,0,0,0,0,0,0,0,0,0,-1,1343,1233,0,0
126,-209,0,0,0,0,0,0,0,0,0,-1,1350,1233,0,0
133,-209,0,0,0,0,0,0,0,0,0,-1,1357,1233,0,0
140,-209,0,0,0,0,0,0,0,0,0,-1,1364,1233,0,0
147,-209,0,0,0,0,0,0,0,0,0,-1,1371,1233,0,0
154,-209,0,0,0,0,0,0,0,0,0,-1,1378,1233,0,0
161,-209,0,0,0,0,0,0,0,0,0,-1,1385,1233,0,0
168,-209,0,0,0,0,0,0,0,0,0,-1,1392,1233,0,0
175,-209,0,0,0,0,0,0,0,0,0,-1,1399,1233,0,0
182,-209,0,0,0,0,0,0,0,0,0,-1,1406,1233,0,0
189,-209,0,0,0,0,0,0,0,0,0,-1,1413,1233,0,0
196,-209,0,0,0,0,0,0,0,0,0,-1,1420,1233,0,0
203,-209,0,0,0,0,0,0,0,0,0,-1,1427,1233,0,0
210,-209,0,0,0,0,0,0,0,0,0,-1,1434,1233,0,0
217,-209,0,0,0,0,0,0,0,0,0,-1,1441,1233,0,0
224,-209,0,0,0,0,0,0,0,0,0,-1,1448,1233,0,0
231,-209,0,0,0,0,0,0,0,0,0,-1,1455,1233,0,0
238,-209,0,0,0,0,0,0,0,0,0,-1,1462,1233,0,0
245,-209,0,0,0,0,0,0,0,0,0,-1,1469,1233,0,0
252,-209,0,0,0,0,0,0,0,0,0,-1,1476,1233,0,0
259,-209,0,0,0,0,0,0,0,0,0,-1,1483,1233,0,0
266,-209,0,0,0,0,0,0,0,0,0,-1,1490,1233,0,0
273,-209,0,0,0,0,0,0,0,0,0,-1,1497,1233,0,0
280,-209,0,0,0,0,0,0,0,0,0,-1,1504,1233,0,0
287,-209,0,0,0,0,0,0,0,0,0,-1,1511,1233,0,0
294,-209,0,0,0,0,0,0,0,0,0,-1,1518,1233,0,0
301,-209,0,0,0,0,0,0,0,0,0,-1,1525,1233,0,0
308,-209,0,0,0,0,0,0,0,0,0,-1,1532,1233,0,0
315,-209,0,0,0,0,0,0,0,0,0,-1,1539,1233,0,0
322,-209,0,0,0,0,0,0,0,0,0,-1,1546,1233,0,0
329,-209,0,0,0,0,0,0,0,0,0,-1,1553,1233,0,0
336,-209,0,0,0,0,0,0,0,0,0,-1,1560,1233,0,0
343,-209,0,0,0,0,0,0,0,0,0,-1,1567,1233,0,0
350,-209,0,0,0,0,0,0,0,0,0,-1,1574,1233,0,0
357,-209,0,0,0,0,0,0,0,0,0,-1,1581,1233,0,0
364,-209,0,0,0,0,0,0,0,0,0,-1,1588,1233,0,0
371,-209,0,0,0,0,0,0,0,0,0,-1,1595,1233,0,0
378,-209,0,0,0,0,0,0,0,0,0,-1,1602,1233,0,0
385,-209,0,0,0,0,0,0,0,0,0,-1,1609,1233,0,0
392,-209,0,0,0,0,0,0,0,0,0,-1,1616,1233,0,0
399,-209,0,0,0,0,0,0,0,0,0,-1,1623,1233,0,0
406,-209,0,0,0,0,0,0,0,0,0,-1,1630,1233,0,0
413,-209,0,0,0,0,0,0,0,0,0,-1,1637,1233,0,0
420,-209,0,0,0,0,0,0,0,0,0,-1,1644,1233,0,0
427,-209,0,0,0,0,0,0,0,0,0,-1,1651,1233,0,0
434,-209,0,0,0,0,0,0,0,0,0,-1,1658,1233,0,0
441,-209,0,0,0,0,0,0,0,0,0,-1,1665,1233,0,0
448,-209,0,0,0,0,0,0,0,0,0,-1,1672,1233,0,0
455,-209,0,0,0,0,0,0,0,0,0,-1,1679,1233,0,0
462,-209,0,0,0,0,0,0,0,0,0,-1,1686,1233,0,0
469,-209,0,0,0,0,0,0,0,0,0,-1,1693,1233,0,0
476,-209,0,0,0,0,0,0,0,0,0,-1,1700,1233,0,0
483,-209,0,0,0,0,0,0,0,0,0,-1,1707,1233,0,0
490,-209,0,0,0,0,0,0,0,0,0,-1,1714,1233,0,0
497,-209,0,0,0,0,0,0,0,0,0,-1,1721,1233,0,0
504,-209,0,0,0,0,0,0,0,0,0,-1,1728,1233,0,0
511,-209,0,0,0,0,0,0,0,0,0,-1,1735,1233,0,0
518,-209,0,0,0,0,0,0,0,0,0,-1,1742,1233,0,0
525,-209,0,0,0,0,0,0,0,0,0,-1,1749,1233,0,0
532,-209,0,0,0,0,0,0,0,0,0,-1,1756,1233,0,0
539,-209,0,0,0,0,0,0,0,0,0,-1,1763,1233,0,0
546,-209,0,0,0,0,0,0,0,0,0,-1,1770,1233,0,0
553,-209,0,0,0,0,0,0,0,0,0,-1,1777,1233,0,0
560,-209,0,0,0,0,0,0,0,0,0,-1,1784,1233,0,0
567,-209,0,0,0,0,0,0,0,0,0,-1,1791,1233,0,0
574,-209,0,0,0,0,0,0,0,0,0,-1,1798,1233,0,0
581,-209,0,0,0,0,0,0,0,0,0,-1,1805,1233,0,0
588,-209,0,0,0,0,0,0,0,0,0,-1,1812,1233,0,0
595,-209,0,0,0,0,0,0,0,0,0,-1,1819,1233,0,0
602,-209,0,0,0,0,0,0,0,0,0,-1,1826,1233,0,0
609,-209,0,0,0,0,0,0,0,0,0,-1,1833,1233,0,0
616,-209,0,0,0,0,0,0,0,0,0,-1,1840,1233,0,0
623,-209,48.7843,2.52075,0.000685078,0.000389423,-0.000536321,0.00109357,-1.90707e-05,-0.650921,0.000735487,0.036627,1847,1233,48.7843,-2.52069
630,-209,48.8573,2.53027,0.00137312,0.000600004,-0.000881947,0.0019495,2.36197e-05,-0.578857,0.00129187,0.0381883,1854,1233,48.8574,-2.5303
637,-209,48.8994,2.59644,0.00155261,0.00155736,-0.00157656,0.00313154,-2.15727e-05,-0.786152,0.00209492,0.0368023,1861,1233,48.8994,-2.59641
644,-209,48.8888,2.60657,0.0016791,0.00263876,-0.00217571,0.00438692,-6.9058e-05,-0.893931,0.0029479,0.0297737,1868,1233,48.8888,-2.60659
651,-209,48.8816,2.60913,0.00174377,0.00320629,-0.00259797,0.00517395,-0.000223896,-0.922585,0.0035263,0.0240885,1875,1233,48.8816,-2.60908
658,-209,48.896,2.57886,0.001785,0.00311287,-0.00280529,0.00533172,-0.000433854,-0.901597,0.00370757,0.0221766,1882,1233,48.8959,-2.57887
665,-209,48.9761,2.4895,0.00175349,0.00273146,-0.00276485,0.00505023,-0.00056528,-0.872922,0.00357019,0.0336874,1889,1233,48.976,-2.48954
672,-209,49.1083,2.40747,0.00158478,0.00231918,-0.00254873,0.00452703,-0.000623068,-0.856941,0.00324571,0.0439685,1896,1233,49.1083,-2.40752
679,-209,49.3512,2.46008,0,0,0,0,0,0,0,-1,1903,1233,49.3512,-2.46006
686,-209,33.3711,3.89856,0,0,0,0,0,0,0,-1,1910,1233,33.3711,-3.89855
693,-209,38.9235,9.79907,0,0,0,0,0,0,0,-1,1917,1233,38.9235,-9.79911
700,-209,39.0952,9.13269,0.000774565,0.0010214,-0.00148852,0.00239161,-0.000595652,-0.826759,0.00182564,0.0432859,1924,1233,39.0952,-9.13271
707,-209,39.2393,8.51819,0.000756678,0.000671345,-0.00124418,0.00195892,-0.000530901,-0.768259,0.00151426,0.0344038,1931,1233,39.2393,-8.51824
714,-209,39.2612,8.08948,0.000486286,0.000246778,-0.000778977,0.00115466,-0.000421597,-0.709129,0.000942287,0.0189484,1938,1233,39.2612,-8.08945
721,-209,39.2993,7.62085,3.56361e-05,-0.000340509,-2.74019e-05,3.76219e-05,-0.000342494,-0.0723404,0.000241848,0.0140298,1945,1233,39.2993,-7.62086
728,-209,39.3024,7.19531,3.81192e-05,-0.00069774,0.000772485,0.000525821,-0.00118544,0.563147,0.00101217,0.0136339,1952,1233,39.3024,-7.19528
735,-209,39.2704,6.77832,0.00048117,-0.000995784,0.00148127,0.00139784,-0.00191245,0.554158,0.00191888,0.0147715,1959,1233,39.2703,-6.77831
742,-209,39.2507,6.3457,0.000188054,-0.000927914,0.00188632,0.00159719,-0.00233705,0.641596,0.00228478,0.0144229,1966,1233,39.2507,-6.34564
749,-209,39.2126,5.92346,-0.000489774,-0.000798245,0.00171603,0.00107894,-0.00236696,0.740579,0.00203529,0.0130462,1973,1233,39.2127,-5.92345
756,-209,39.2032,5.50879,-0.00184832,-0.000625296,0.000911779,-0.000138953,-0.00233467,1.08079,0.00151226,0.0120597,1980,1233,39.2032,-5.50883
763,-209,39.1753,5.17078,-0.00353755,-0.00069289,-0.000265325,-0.000668354,-0.00356209,-1.47859,0.00218626,0.0220753,1987,1233,39.1753,-5.1708
770,-209,39.2052,4.95178,0,0,0,0,0,0,0,-1,1994,1233,39.2052,-4.95177
777,-209,49.8105,-3.45435,0,0,0,0,0,0,0,-1,2001,1233,49.8106,3.45429
784,-209,49.6125,-0.942261,-0.0178681,-0.000175007,-0.0104846,0.00469659,-0.0227397,-1.13583,0.0169437,0.0454537,2008,1233,49.6125,0.942256
791,-209,49.196,1.27917,-0.0271787,0.000560812,-0.0167499,0.00843799,-0.0350559,-1.1312,0.0266326,0.0444584,2015,1233,49.1961,-1.27913
798,-209,48.874,3.65027,0,0,0,0,0,0,0,-1,2022,1233,48.8741,-3.65028
805,-209,0,0,0,0,0,0,0,0,0,-1,2029,1233,0,0
812,-209,0,0,0,0,0,0,0,0,0,-1,2036,1233,0,0
-700,-216,0,0,0,0,0,0,0,0,0,-1,524,1240,0,0
-693,-216,0,0,0,0,0,0,0,0,0,-1,531,1240,0,0
-686,-216,0,0,0,0,0,0,0,0,0,-1,538,1240,0,0
-679,-216,-32.5613,-6.88184,0,0,0,0,0,0,0,-1,545,1240,-32.5613,6.88186
-672,-216,-27.6778,10.2269,0,0,0,0,0,0,0,-1,552,1240,-27.6778,-10.2269
-665,-216,-27.5244,11.2311,0,0,0,0,0,0,0,-1,559,1240,-27.5244,-11.2311
-658,-216,-27.371,12.2352,0,0,0,0,0,0,0,-1,566,1240,-27.371,-12.2353
-651,-216,-32.883,-0.281494,0,0,0,0,0,0,0,-1,573,1240,-32.883,0.28151
-644,-216,-31.9344,0.395996,0,0,0,0,0,0,0,-1,580,1240,-31.9344,-0.395944
-637,-216,-25.3607,1.44446,0,0,0,0,0,0,0,-1,587,1240,-25.3606,-1.44446
-630,-216,-25.3417,2.20105,0.0121263,-0.0195357,0.0069568,0.0135874,-0.0209968,0.20702,0.0201194,0.03362,594,1240,-25.3417,-2.20108
-623,-216,-25.4019,2.87793,0.0090784,-0.00852543,0.004783,0.010294,-0.00974104,0.248883,0.0115687,0.0148546,601,1240,-25.4019,-2.87796
-616,-216,-25.4637,3.36731,0.00646496,-0.00167387,0.00303892,0.00747444,-0.00268334,0.320716,0.00607816,0.0139348,608,1240,-25.4637,-3.36728
-609,-216,-25.4993,3.87512,0.00405496,0.0014141,0.00178775,0.00495705,0.000512014,0.467315,0.00314794,0.0139046,615,1240,-25.4994,-3.87508
-602,-216,-25.5145,4.30933,0.00272345,0.00113955,0.00128298,0.00343922,0.000423778,0.508887,0.00216542,0.0140908,622,1240,-25.5145,-4.30934
-595,-216,-25.4912,4.74609,0.00232662,0.000372301,0.000908773,0.00268389,1.50281e-05,0.374577,0.00178427,0.018905,629,1240,-25.4912,-4.74611
-588,-216,-25.5231,5.26184,0.00231597,0.000106941,0.00117445,0.00282368,-0.000400775,0.408039,0.00202928,0.0209562,636,1240,-25.5231,-5.26179
-581,-216,-25.4615,5.88806,0.00225072,0.000433442,0.00120131,0.00284832,-0.000164164,0.461615,0.0019559,0.0352803,643,1240,-25.4615,-5.88807
-574,-216,-25.1774,6.32715,0,0,0,0,0,0,0,-1,650,1240,-25.1774,-6.32714
-567,-216,-25.7184,7.2998,0,0,0,0,0,0,0,-1,657,1240,-25.7184,-7.29979
-560,-216,-16.5087,5.4574,0,0,0,0,0,0,0,-1,664,1240,-16.5087,-5.45746
-553,-216,-16.2355,1.22351,0,0,0,0,0,0,0,-1,671,1240,-16.2356,-1.22356
-546,-216,-36.3295,1.28784,0,0,0,0,0,0,0,-1,678,1240,-36.3295,-1.28788
-539,-216,-36.2189,0.774414,0,0,0,0,0,0,0,-1,685,1240,-36.2189,-0.774472
-532,-216,-35.8469,0.750366,0.000987018,0.00287867,0.000334615,0.00293612,0.000929572,1.40078,0.00173276,0.0476484,692,1240,-35.8469,-0.750333
-525,-216,-35.9233,0.69751,0.000517055,0.00273602,-1.20725e-05,0.00273608,0.000516989,-1.56536,0.00167848,0.04886,699,1240,-35.9233,-0.697529
-518,-216,-36.0531,0.706177,0.000232887,0.0024596,-0.000120261,0.00246607,0.000226411,-1.517,0.00157402,0.0441311,706,1240,-36.0531,-0.706187
-511,-216,-36.1391,0.816406,0.00130415,0.00188571,0.000102964,0.0019034,0.00128646,1.40064,0.00112136,0.0433342,713,1240,-36.1391,-0.816349
-504,-216,-36.1727,0.801758,0.00586903,0.000273312,0.00125306,0.00613682,5.52507e-06,0.210539,0.00408937,0.0414375,720,1240,-36.1726,-0.801765
-497,-216,0,0,0,0,0,0,0,0,0,-1,727,1240,0,0
-490,-216,0,0,0,0,0,0,0,0,0,-1,734,1240,0,0
-483,-216,0,0,0,0,0,0,0,0,0,-1,741,1240,0,0
-476,-216,0,0,0,0,0,0,0,0,0,-1,748,1240,0,0
-469,-216,0,0,0,0,0,0,0,0,0,-1,755,1240,0,0
-462,-216,0,0,0,0,0,0,0,0,0,-1,762,1240,0,0
-455,-216,0,0,0,0,0,0,0,0,0,-1,769,1240,0,0
-448,-216,0,0,0,0,0,0,0,0,0,-1,776,1240,0,0
-441,-216,0,0,0,0,0,0,0,0,0,-1,783,1240,0,0
-434,-216,0,0,0,0,0,0,0,0,0,-1,790,1240,0,0
-427,-216,0,0,0,0,0,0,0,0,0,-1,797,1240,0,0
-420,-216,0,0,0,0,0,0,0,0,0,-1,804,1240,0,0
-413,-216,0,0,0,0,0,0,0,0,0,-1,811,1240,0,0
-406,-216,0,0,0,0,0,0,0,0,0,-1,818,1240,0,0
-399,-216,0,0,0,0,0,0,0,0,0,-1,825,1240,0,0
-392,-216,0,0,0,0,0,0,0,0,0,-1,832,1240,0,0
-385,-216,0,0,0,0,0,0,0,0,0,-1,839,1240,0,0
-378,-216,0,0,0,0,0,0,0,0,0,-1,846,1240,0,0
-371,-216,0,0,0,0,0,0,0,0,0,-1,853,1240,0,0
-364,-216,0,0,0,0,0,0,0,0,0,-1,860,1240,0,0
-357,-216,0,0,0,0,0,0,0,0,0,-1,867,1240,0,0
-350,-216,0,0,0,0,0,0,0,0,0,-1,874,1240,0,0
-343,-216,0,0,0,0,0,0,0,0,0,-1,881,1240,0,0
-336,-216,0,0,0,0,0,0,0,0,0,-1,888,1240,0,0
-329,-216,0,0,0,0,0,0,0,0,0,-1,895,1240,0,0
-322,-216,0,0,0,0,0,0,0,0,0,-1,902,1240,0,0
-315,-216,0,0,0,0,0,0,0,0,0,-1,909,1240,0,0
-308,-216,0,0,0,0,0,0,0,0,0,-1,916,1240,0,0
-301,-216,0,0,0,0,0,0,0,0,0,-1,923,1240,0,0
-294,-216,0,0,0,0,0,0,0,0,0,-1,930,1240,0,0
-287,-216,0,0,0,0,0,0,0,0,0,-1,937,1240,0,0
-280,-216,0,0,0,0,0,0,0,0,0,-1,944,1240,0,0
-273,-216,0,0,0,0,0,0,0,0,0,-1,951,1240,0,0
-266,-216,0,0,0,0,0,0,0,0,0,-1,958,1240,0,0
-259,-216,0,0,0,0,0,0,0,0,0,-1,965,1240,0,0
-252,-216,0,0,0,0,0,0,0,0,0,-1,972,1240,0,0
-245,-216,0,0,0,0,0,0,0,0,0,-1,979,1240,0,0
-238,-216,0,0,0,0,0,0,0,0,0,-1,986,1240,0,0
-231,-216,0,0,0,0,0,0,0,0,0,-1,993,1240,0,0
-224,-216,0,0,0,0,0,0,0,0,0,-1,1000,1240,0,0
-217,-216,0,0,0,0,0,0,0,0,0,-1,1007,1240,0,0
-210,-216,0,0,0,0,0,0,0,0,0,-1,1014,1240,0,0
-203,-216,0,0,0,0,0,0,0,0,0,-1,1021,1240,0,0
-196,-216,0,0,0,0,0,0,0,0,0,-1,1028,1240,0,0
-189,-216,0,0,0,0,0,0,0,0,0,-1,1035,1240,0,0
-182,-216,0,0,0,0,0,0,0,0,0,-1,1042,1240,0,0
-175,-216,0,0,0,0,0,0,0,0,0,-1,1049,1240,0,0
-168,-216,0,0,0,0,0,0,0,0,0,-1,1056,1240,0,0
-161,-216,0,0,0,0,0,0,0,0,0,-1,1063,1240,0,0
-154,-216,0,0,0,0,0,0,0,0,0,-1,1070,1240,0,0
-147,-216,0,0,0,0,0,0,0,0,0,-1,1077,1240,0,0
-140,-216,0,0,0,0,0,0,0,0,0,-1,1084,1240,0,0
-133,-216,0,0,0,0,0,0,0,0,0,-1,1091,1240,0,0
-126,-216,0,0,0,0,0,0,0,0,0,-1,1098,1240,0,0
-119,-216,0,0,0,0,0,0,0,0,0,-1,1105,1240,0,0
-112,-216,0,0,0,0,0,0,0,0,0,-1,1112,1240,0,0
-105,-216,0,0,0,0,0,0,0,0,0,-1,1119,1240,0,0
-98,-216,0,0,0,0,0,0,0,0,0,-1,1126,1240,0,0
-91,-216,0,0,0,0,0,0,0,0,0,-1,1133,1240,0,0
-84,-216,0,0,0,0,0,0,0,0,0,-1,1140,1240,0,0
-77,-216,0,0,0,0,0,0,0,0,0,-1,1147,1240,0,0
-70,-216,0,0,0,0,0,0,0,0,0,-1,1154,1240,0,0
-63,-216,0,0,0,0,0,0,0,0,0,-1,1161,1240,0,0
-56,-216,0,0,0,0,0,0,0,0,0,-1,1168,1240,0,0
-49,-216,0,0,0,0,0,0,0,0,0,-1,1175,1240,0,0
-42,-216,0,0,0,0,0,0,0,0,0,-1,1182,1240,0,0
-35,-216,0,0,0,0,0,0,0,0,0,-1,1189,1240,0,0
-28,-216,0,0,0,0,0,0,0,0,0,-1,1196,1240,0,0
-21,-216,0,0,0,0,0,0,0,0,0,-1,1203,1240,0,0
-14,-216,0,0,0,0,0,0,0,0,0,-1,1210,1240,0,0
-7,-216,0,0,0,0,0,0,0,0,0,-1,1217,1240,0,0
0,-216,0,0,0,0,0,0,0,0,0,-1,1224,1240,0,0
7,-216,0,0,0,0,0,0,0,0,0,-1,1231,1240,0,0
14,-216,0,0,0,0,0,0,0,0,0,-1,1238,1240,0,0
21,-216,0,0,0,0,0,0,0,0,0,-1,1245,1240,0,0
28,-216,0,0,0,0,0,0,0,0,0,-1,1252,1240,0,0
35,-216,0,0,0,0,0,0,0,0,0,-1,1259,1240,0,0
42,-216,0,0,0,0,0,0,0,0,0,-1,1266,1240,0,0
49,-216,0,0,0,0,0,0,0,0,0,-1,1273,1240,0,0
56,-216,0,0,0,0,0,0,0,0,0,-1,1280,1240,0,0
63,-216,0,0,0,0,0,0,0,0,0,-1,1287,1240,0,0
70,-216,0,0,0,0,0,0,0,0,0,-1,1294,1240,0,0
77,-216,0,0,0,0,0,0,0,0,0,-1,1301,1240,0,0
84,-216,0,0,0,0,0,0,0,0,0,-1,1308,1240,0,0
91,-216,0,0,0,0,0,0,0,0,0,-1,1315,1240,0,0
98,-216,0,0,0,0,0,0,0,0,0,-1,1322,1240,0,0
105,-216,0,0,0,0,0,0,0,0,0,-1,1329,1240,0,0
112,-216,0,0,0,0,0,0,0,0,0,-1,1336,1240,0,0
119,-216,0,0,0,0,0,0,0,0,0,-1,1343,1240,0,0
126,-216,0,0,0,0,0,0,0,0,0,-1,1350,1240,0,0
133,-216,0,0,0,0,0,0,0,0,0,-1,1357,1240,0,0
140,-216,0,0,0,0,0,0,0,0,0,-1,1364,1240,0,0
147,-216,0,0,0,0,0,0,0,0,0,-1,1371,1240,0,0
154,-216,0,0,0,0,0,0,0,0,0,-1,1378,1240,0,0
161,-216,0,0,0,0,0,0,0,0,0,-1,1385,1240,0,0
168,-216,0,0,0,0,0,0,0,0,0,-1,1392,1240,0,0
175,-216,0,0,0,0,0,0,0,0,0,-1,1399,1240,0,0
182,-216,0,0,0,0,0,0,0,0,0,-1,1406,1240,0,0
189,-216,0,0,0,0,0,0,0,0,0,-1,1413,1240,0,0
196,-216,0,0,0,0,0,0,0,0,0,-1,1420,1240,0,0
203,-216,0,0,0,0,0,0,0,0,0,-1,1427,1240,0,0
210,-216,0,0,0,0,0,0,0,0,0,-1,1434,1240,0,0
217,-216,0,0,0,0,0,0,0,0,0,-1,1441,1240,0,0
224,-216,0,0,0,0,0,0,0,0,0,-1,1448,1240,0,0
231,-216,0,0,0,0,0,0,0,0,0,-1,1455,1240,0,0
238,-216,0,0,0,0,0,0,0,0,0,-1,1462,1240,0,0
245,-216,0,0,0,0,0,0,0,0,0,-1,1469,1240,0,0
252,-216,0,0,0,0,0,0,0,0,0,-1,1476,1240,0,0
259,-216,0,0,0,0,0,0,0,0,0,-1,1483,1240,0,0
266,-216,0,0,0,0,0,0,0,0,0,-1,1490,1240,0,0
273,-216,0,0,0,0,0,0,0,0,0,-1,1497,1240,0,0
280,-216,0,0,0,0,0,0,0,0,0,-1,1504,1240,0,0
287,-216,0,0,0,0,0,0,0,0,0,-1,1511,1240,0,0
294,-216,0,0,0,0,0,0,0,0,0,-1,1518,1240,0,0
301,-216,0,0,0,0,0,0,0,0,0,-1,1525,1240,0,0
308,-216,0,0,0,0,0,0,0,0,0,-1,1532,1240,0,0
315,-216,0,0,0,0,0,0,0,0,0,-1,1539,1240,0,0
322,-216,0,0,0,0,0,0,0,0,0,-1,1546,1240,0,0
329,-216,0,0,0,0,0,0,0,0,0,-1,1553,1240,0,0
336,-216,0,0,0,0,0,0,0,0,0,-1,1560,1240,0,0
343,-216,0,0,0,0,0,0,0,0,0,-1,1567,1240,0,0
350,-216,0,0,0,0,0,0,0,0,0,-1,1574,1240,0,0
357,-216,0,0,0,0,0,0,0,0,0,-1,1581,1240,0,0
364,-216,0,0,0,0,0,0,0,0,0,-1,1588,1240,0,0
371,-216,0,0,0,0,0,0,0,0,0,-1,1595,1240,0,0
378,-216,0,0,0,0,0,0,0,0,0,-1,1602,1240,0,0
385,-216,0,0,0,0,0,0,0,0,0,-1,1609,1240,0,0
392,-216,0,0,0,0,0,0,0,0,0,-1,1616,1240,0,0
399,-216,0,0,0,0,0,0,0,0,0,-1,1623,1240,0,0
406,-216,0,0,0,0,0,0,0,0,0,-1,1630,1240,0,0
413,-216,0,0,0,0,0,0,0,0,0,-1,1637,1240,0,0
420,-216,0,0,0,0,0,0,0,0,0,-1,1644,1240,0,0
427,-216,0,0,0,0,0,0,0,0,0,-1,1651,1240,0,0
434,-216,0,0,0,0,0,0,0,0,0,-1,1658,1240,0,0
441,-216,0,0,0,0,0,0,0,0,0,-1,1665,1240,0,0
448,-216,0,0,0,0,0,0,0,0,0,-1,1672,1240,0,0
455,-216,0,0,0,0,0,0,0,0,0,-1,1679,1240,0,0
462,-216,0,0,0,0,0,0,0,0,0,-1,1686,1240,0,0
469,-216,0,0,0,0,0,0,0,0,0,-1,1693,1240,0,0
476,-216,0,0,0,0,0,0,0,0,0,-1,1700,1240,0,0
483,-216,0,0,0,0,0,0,0,0,0,-1,1707,1240,0,0
490,-216,0,0,0,0,0,0,0,0,0,-1,1714,1240,0,0
497,-216,0,0,0,0,0,0,0,0,0,-1,1721,1240,0,0
504,-216,0,0,0,0,0,0,0,0,0,-1,1728,1240,0,0
511,-216,0,0,0,0,0,0,0,0,0,-1,1735,1240,0,0
518,-216,0,0,0,0,0,0,0,0,0,-1,1742,1240,0,0
525,-216,0,0,0,0,0,0,0,0,0,-1,1749,1240,0,0
532,-216,0,0,0,0,0,0,0,0,0,-1,1756,1240,0,0
539,-216,0,0,0,0,0,0,0,0,0,-1,1763,1240,0,0
546,-216,0,0,0,0,0,0,0,0,0,-1,1770,1240,0,0
553,-216,0,0,0,0,0,0,0,0,0,-1,1777,1240,0,0
560,-216,0,0,0,0,0,0,0,0,0,-1,1784,1240,0,0
567,-216,0,0,0,0,0,0,0,0,0,-1,1791,1240,0,0
574,-216,0,0,0,0,0,0,0,0,0,-1,1798,1240,0,0
581,-216,0,0,0,0,0,0,0,0,0,-1,1805,1240,0,0
588,-216,0,0,0,0,0,0,0,0,0,-1,1812,1240,0,0
595,-216,0,0,0,0,0,0,0,0,0,-1,1819,1240,0,0
602,-216,0,0,0,0,0,0,0,0,0,-1,1826,1240,0,0
609,-216,0,0,0,0,0,0,0,0,0,-1,1833,1240,0,0
616,-216,0,0,0,0,0,0,0,0,0,-1,1840,1240,0,0
623,-216,48.7113,2.68335,0.000866711,0.000947376,-0.000418839,0.00132782,0.000486268,-0.833398,0.000775711,0.0398234,1847,1240,48.7113,-2.6834
630,-216,48.8094,2.60962,0.00142595,0.00125761,-0.00106694,0.00241203,0.000271532,-0.746036,0.00152559,0.0385635,1854,1240,48.8095,-2.60959
637,-216,48.8477,2.57043,0.00167455,0.00219088,-0.00194374,0.00389352,-2.80994e-05,-0.851421,0.0026051,0.0329972,1861,1240,48.8477,-2.57038
644,-216,48.8434,2.57776,0.00178073,0.00304286,-0.00237022,0.00486459,-4.10008e-05,-0.915503,0.00325681,0.0255586,1868,1240,48.8434,-2.57773
651,-216,48.8636,2.62048,0.00185498,0.0033225,-0.00264162,0.00533037,-0.000152896,-0.920868,0.00360563,0.0216856,1875,1240,48.8637,-2.62053
658,-216,48.9149,2.5946,0.00189518,0.00306019,-0.00269048,0.0052305,-0.000275135,-0.892006,0.00358224,0.0327055,1882,1240,48.9149,-2.59461
665,-216,49.077,2.46924,0.00185765,0.00266868,-0.00253995,0.00483528,-0.00030895,-0.864557,0.00333128,0.0438725,1889,1240,49.077,-2.46924
672,-216,49.2258,2.26123,0,0,0,0,0,0,0,-1,1896,1240,49.2259,-2.26128
679,-216,47.3159,3.82703,0,0,0,0,0,0,0,-1,1903,1240,47.316,-3.82708
686,-216,21.5172,6.19458,0,0,0,0,0,0,0,-1,1910,1240,21.5172,-6.19453
693,-216,39.0873,9.45398,0,0,0,0,0,0,0,-1,1917,1240,39.0873,-9.45393
700,-216,38.7994,9.14026,0.000911395,0.00114156,-0.00129783,0.00232939,-0.000276443,-0.829618,0.0016528,0.0406025,1924,1240,38.7994,-9.14029
707,-216,38.7975,8.61914,0.000818319,0.00071344,-0.0010196,0.00178683,-0.000255072,-0.759705,0.00128471,0.033585,1931,1240,38.7975,-8.61917
714,-216,38.8495,8.10913,0.000501019,0.000183496,-0.000480844,0.000848633,-0.000164119,-0.625946,0.000627655,0.0149181,1938,1240,38.8495,-8.10908
721,-216,38.8634,7.68152,9.37276e-05,-0.000428838,0.000283957,0.000218321,-0.000553432,0.41348,0.00045936,0.0142242,1945,1240,38.8634,-7.68157
728,-216,38.8929,7.23621,4.00012e-05,-0.000704479,0.00102968,0.000762656,-0.00142713,0.611951,0.00128353,0.0132755,1952,1240,38.893,-7.23617
735,-216,38.8901,6.80457,0.000310482,-0.000945849,0.0017304,0.0015232,-0.00215857,0.611286,0.0021362,0.0141518,1959,1240,38.8901,-6.80455
742,-216,38.8262,6.39148,4.46443e-05,-0.000907271,0.0022742,0.00189215,-0.00275478,0.682244,0.00269828,0.0158267,1966,1240,38.8262,-6.39143
749,-216,38.7916,5.93726,-0.000417685,-0.000950907,0.00251385,0.00184365,-0.00321224,0.732567,0.00295446,0.0117793,1973,1240,38.7916,-5.93726
756,-216,38.7675,5.49512,-0.00127275,-0.00108254,0.00237814,0.0012024,-0.00355768,0.805383,0.00285817,0.011484,1980,1240,38.7674,-5.49515
763,-216,38.7451,5.12842,-0.00229528,-0.00155254,0.00204741,0.00015691,-0.00400472,0.875115,0.00272363,0.0203247,1987,1240,38.7451,-5.12842
770,-216,38.9751,4.76746,-0.0042041,-0.00226276,0.00116804,-0.00171471,-0.00475215,1.13208,0.00277886,0.0448662,1994,1240,38.9751,-4.76751
777,-216,39.2754,4.38904,0,0,0,0,0,0,0,-1,2001,1240,39.2754,-4.38901
784,-216,51.8208,-0.443726,0,0,0,0,0,0,0,-1,2008,1240,51.8208,0.443779
791,-216,51.0972,1.54187,0,0,0,0,0,0,0,-1,2015,1240,51.0971,-1.54183
798,-216,0,0,0,0,0,0,0,0,0,-1,2022,1240,0,0
805,-216,0,0,0,0,0,0,0,0,0,-1,2029,1240,0,0
812,-216,0,0,0,0,0,0,0,0,0,-1,2036,1240,0,0
-700,-223,0,0,0,0,0,0,0,0,0,-1,524,1247,0,0
-693,-223,0,0,0,0,0,0,0,0,0,-1,531,1247,0,0
-686,-223,0,0,0,0,0,0,0,0,0,-1,538,1247,0,0
-679,-223,0,0,0,0,0,0,0,0,0,-1,545,1247,0,0
-672,-223,-27.7153,11.1644,0,0,0,0,0,0,0,-1,552,1247,-27.7153,-11.1644
-665,-223,-27.6133,12.1124,0,0,0,0,0,0,0,-1,559,1247,-27.6133,-12.1124
-658,-223,-27.5158,13.0887,0,0,0,0,0,0,0,-1,566,1247,-27.5158,-13.0888
-651,-223,-34.1099,-1.07739,0,0,0,0,0,0,0,-1,573,1247,-34.1098,1.07735
-644,-223,-32.9842,-0.537476,0,0,0,0,0,0,0,-1,580,1247,-32.9842,0.537426
-637,-223,-25.1071,1.39746,0,0,0,0,0,0,0,-1,587,1247,-25.1071,-1.39748
-630,-223,-25.0286,2.17517,0.0134396,-0.0170623,0.00962589,0.0162233,-0.019846,0.281511,0.0208596,0.0489847,594,1247,-25.0286,-2.17511
-623,-223,-24.9879,2.90369,0.0100951,-0.00661293,0.00696484,0.0126176,-0.00913543,0.347481,0.0126126,0.0248235,601,1247,-24.9879,-2.90364
-616,-223,-24.9988,3.34167,0.00729253,-0.000485947,0.00469509,0.00950002,-0.00269343,0.439499,0.00739647,0.0165234,608,1247,-24.9988,-3.34171
-609,-223,-24.988,3.85559,0.00481491,0.00204458,0.00301348,0.00674633,0.000113159,0.569971,0.00446031,0.0125112,615,1247,-24.988,-3.85561
-602,-223,-25.0012,4.32129,0.00334411,0.00159859,0.00213448,0.00477737,0.000165326,0.591326,0.00313126,0.0154707,622,1247,-25.0012,-4.32128
-595,-223,-24.9955,4.82642,0.00285382,0.000679426,0.00139229,0.00353311,1.33761e-07,0.453916,0.00235536,0.0221478,629,1247,-24.9955,-4.82641
-588,-223,-25.0504,5.31885,0.00282641,0.000283698,0.00132439,0.00339091,-0.000280797,0.402913,0.00235978,0.0244134,636,1247,-25.0504,-5.31886
-581,-223,-25.1205,5.80408,0.00278293,0.000510951,0.00119768,0.00329767,-3.78699e-06,0.405913,0.00219971,0.0214402,643,1247,-25.1205,-5.80412
-574,-223,-25.0636,6.31616,0.00255819,0.00117497,0.00109284,0.00315988,0.000573275,0.503284,0.00194388,0.0262114,650,1247,-25.0636,-6.3162
-567,-223,-24.9365,6.92957,0.00243838,0.00199945,0.00101143,0.00325389,0.00118395,0.678563,0.0019017,0.0399914,657,1247,-24.9365,-6.92955
-560,-223,-25.0167,7.56372,0,0,0,0,0,0,0,-1,664,1247,-25.0167,-7.56367
-553,-223,-11.4025,4.14722,0,0,0,0,0,0,0,-1,671,1247,-11.4025,-4.14719
-546,-223,-26.9034,-0.148682,0,0,0,0,0,0,0,-1,678,1247,-26.9034,0.14867
-539,-223,-35.7917,1.22339,0,0,0,0,0,0,0,-1,685,1247,-35.7917,-1.22342
-532,-223,-35.5851,0.542114,0,0,0,0,0,0,0,-1,692,1247,-35.5851,-0.542134
-525,-223,-35.7734,0.401855,0,0,0,0,0,0,0,-1,699,1247,-35.7734,-0.401891
-518,-223,-36.0679,0.723633,0,0,0,0,0,0,0,-1,706,1247,-36.0679,-0.723677
-511,-223,-36.196,0.866089,0,0,0,0,0,0,0,-1,713,1247,-36.196,-0.866089
-504,-223,-36.252,0.937256,0,0,0,0,0,0,0,-1,720,1247,-36.252,-0.937197
-497,-223,0,0,0,0,0,0,0,0,0,-1,727,1247,0,0
-490,-223,0,0,0,0,0,0,0,0,0,-1,734,1247,0,0
-483,-223,0,0,0,0,0,0,0,0,0,-1,741,1247,0,0
-476,-223,0,0,0,0,0,0,0,0,0,-1,748,1247,0,0
-469,-223,0,0,0,0,0,0,0,0,0,-1,755,1247,0,0
-462,-223,0,0,0,0,0,0,0,0,0,-1,762,1247,0,0
-455,-223,0,0,0,0,0,0,0,0,0,-1,769,1247,0,0
-448,-223,0,0,0,0,0,0,0,0,0,-1,776,1247,0,0
-441,-223,0,0,0,0,0,0,0,0,0,-1,783,1247,0,0
-434,-223,0,0,0,0,0,0,0,0,0,-1,790,1247,0,0
-427,-223,0,0,0,0,0,0,0,0,0,-1,797,1247,0,0
-420,-223,0,0,0,0,0,0,0,0,0,-1,804,1247,0,0
-413,-223,0,0,0,0,0,0,0,0,0,-1,811,1247,0,0
-406,-223,0,0,0,0,0,0,0,0,0,-1,818,1247,0,0
-399,-223,0,0,0,0,0,0,0,0,0,-1,825,1247,0,0
-392,-223,0,0,0,0,0,0,0,0,0,-1,832,1247,0,0
-385,-223,0,0,0,0,0,0,0,0,0,-1,839,1247,0,0
-378,-223,0,0,0,0,0,0,0,0,0,-1,846,1247,0,0
-371,-223,0,0,0,0,0,0,0,0,0,-1,853,1247,0,0
-364,-223,0,0,0,0,0,0,0,0,0,-1,860,1247,0,0
-357,-223,0,0,0,0,0,0,0,0,0,-1,867,1247,0,0
-350,-223,0,0,0,0,0,0,0,0,0,-1,874,1247,0,0
-343,-223,0,0,0,0,0,0,0,0,0,-1,881,1247,0,0
-336,-223,0,0,0,0,0,0,0,0,0,-1,888,1247,0,0
-329,-223,0,0,0,0,0,0,0,0,0,-1,895,1247,0,0
-322,-223,0,0,0,0,0,0,0,0,0,-1,902,1247,0,0
-315,-223,0,0,0,0,0,0,0,0,0,-1,909,1247,0,0
-308,-223,0,0,0,0,0,0,0,0,0,-1,916,1247,0,0
-301,-223,0,0,0,0,0,0,0,0,0,-1,923,1247,0,0
-294,-223,0,0,0,0,0,0,0,0,0,-1,930,1247,0,0
-287,-223,0,0,0,0,0,0,0,0,0,-1,937,1247,0,0
-280,-223,0,0,0,0,0,0,0,0,0,-1,944,1247,0,0
-273,-223,0,0,0,0,0,0,0,0,0,-1,951,1247,0,0
-266,-223,0,0,0,0,0,0,0,0,0,-1,958,1247,0,0
-259,-223,0,0,0,0,0,0,0,0,0,-1,965,1247,0,0
-252,-223,0,0,0,0,0,0,0,0,0,-1,972,1247,0,0
-245,-223,0,0,0,0,0,0,0,0,0,-1,979,1247,0,0
-238,-223,0,0,0,0,0,0,0,0,0,-1,986,1247,0,0
-231,-223,0,0,0,0,0,0,0,0,0,-1,993,1247,0,0
-224,-223,0,0,0,0,0,0,0,0,0,-1,1000,1247,0,0
-217,-223,0,0,0,0,0,0,0,0,0,-1,1007,1247,0,0
-210,-223,0,0,0,0,0,0,0,0,0,-1,1014,1247,0,0
-203,-223,0,0,0,0,0,0,0,0,0,-1,1021,1247,0,0
-196,-223,0,0,0,0,0,0,0,0,0,-1,1028,1247,0,0
-189,-223,0,0,0,0,0,0,0,0,0,-1,1035,1247,0,0
-182,-223,0,0,0,0,0,0,0,0,0,-1,1042,1247,0,0
-175,-223,0,0,0,0,0,0,0,0,0,-1,1049,1247,0,0
-168,-223,0,0,0,0,0,0,0,0,0,-1,1056,1247,0,0
-161,-223,0,0,0,0,0,0,0,0,0,-1,1063,1247,0,0
-154,-223,0,0,0,0,0,0,0,0,0,-1,1070,1247,0,0
-147,-223,0,0,0,0,0,0,0,0,0,-1,1077,1247,0,0
-140,-223,0,0,0,0,0,0,0,0,0,-1,1084,1247,0,0
-133,-223,0,0,0,0,0,0,0,0,0,-1,1091,1247,0,0
-126,-223,0,0,0,0,0,0,0,0,0,-1,1098,1247,0,0
-119,-223,0,0,0,0,0,0,0,0,0,-1,1105,1247,0,0
-112,-223,0,0,0,0,0,0,0,0,0,-1,1112,1247,0,0
-105,-223,0,0,0,0,0,0,0,0,0,-1,1119,1247,0,0
-98,-223,0,0,0,0,0,0,0,0,0,-1,1126,1247,0,0
-91,-223,0,0,0,0,0,0,0,0,0,-1,1133,1247,0,0
-84,-223,0,0,0,0,0,0,0,0,0,-1,1140,1247,0,0
-77,-223,0,0,0,0,0,0,0,0,0,-1,1147,1247,0,0
-70,-223,0,0,0,0,0,0,0,0,0,-1,1154,1247,0,0
-63,-223,0,0,0,0,0,0,0,0,0,-1,1161,1247,0,0
-56,-223,0,0,0,0,0,0,0,0,0,-1,1168,1247,0,0
-49,-223,0,0,0,0,0,0,0,0,0,-1,1175,1247,0,0
-42,-223,0,0,0,0,0,0,0,0,0,-1,1182,1247,0,0
-35,-223,0,0,0,0,0,0,0,0,0,-1,1189,1247,0,0
-28,-223,0,0,0,0,0,0,0,0,0,-1,1196,1247,0,0
-21,-223,0,0,0,0,0,0,0,0,0,-1,1203,1247,0,0
-14,-223,0,0,0,0,0,0,0,0,0,-1,1210,1247,0,0
-7,-223,0,0,0,0,0,0,0,0,0,-1,1217,1247,0,0
0,-223,0,0,0,0,0,0,0,0,0,-1,1224,1247,0,0
7,-223,0,0,0,0,0,0,0,0,0,-1,1231,1247,0,0
14,-223,0,0,0,0,0,0,0,0,0,-1,1238,1247,0,0
21,-223,0,0,0,0,0,0,0,0,0,-1,1245,1247,0,0
28,-223,0,0,0,0,0,0,0,0,0,-1,1252,1247,0,0
35,-223,0,0,0,0,0,0,0,0,0,-1,1259,1247,0,0
42,-223,0,0,0,0,0,0,0,0,0,-1,1266,1247,0,0
49,-223,0,0,0,0,0,0,0,0,0,-1,1273,1247,0,0
56,-223,0,0,0,0,0,0,0,0,0,-1,1280,1247,0,0
63,-223,0,0,0,0,0,0,0,0,0,-1,1287,1247,0,0
70,-223,0,0,0,0,0,0,0,0,0,-1,1294,1247,0,0
77,-223,0,0,0,0,0,0,0,0,0,-1,1301,1247,0,0
84,-223,0,0,0,0,0,0,0,0,0,-1,1308,1247,0,0
91,-223,0,0,0,0,0,0,0,0,0,-1,1315,1247,0,0
98,-223,0,0,0,0,0,0,0,0,0,-1,1322,1247,0,0
105,-223,0,0,0,0,0,0,0,0,0,-1,1329,1247,0,0
112,-223,0,0,0,0,0,0,0,0,0,-1,1336,1247,0,0
119,-223,0,0,0,0,0,0,0,0,0,-1,1343,1247,0,0
126,-223,0,0,0,0,0,0,0,0,0,-1,1350,1247,0,0
133,-223,0,0,0,0,0,0,0,0,0,-1,1357,1247,0,0
140,-223,0,0,0,0,0,0,0,0,0,-1,1364,1247,0,0
147,-223,0,0,0,0,0,0,0,0,0,-1,1371,1247,0,0
154,-223,0,0,0,0,0,0,0,0,0,-1,1378,1247,0,0
161,-223,0,0,0,0,0,0,0,0,0,-1,1385,1247,0,0
168,-223,0,0,0,0,0,0,0,0,0,-1,1392,1247,0,0
175,-223,0,0,0,0,0,0,0,0,0,-1,1399,1247,0,0
182,-223,0,0,0,0,0,0,0,0,0,-1,1406,1247,0,0
189,-223,0,0,0,0,0,0,0,0,0,-1,1413,1247,0,0
196,-223,0,0,0,0,0,0,0,0,0,-1,1420,1247,0,0
203,-223,0,0,0,0,0,0,0,0,0,-1,1427,1247,0,0
210,-223,0,0,0,0,0,0,0,0,0,-1,1434,1247,0,0
217,-223,0,0,0,0,0,0,0,0,0,-1,1441,1247,0,0
224,-223,0,0,0,0,0,0,0,0,0,-1,1448,1247,0,0
231,-223,0,0,0,0,0,0,0,0,0,-1,1455,1247,0,0
238,-223,0,0,0,0,0,0,0,0,0,-1,1462,1247,0,0
245,-223,0,0,0,0,0,0,0,0,0,-1,1469,1247,0,0
252,-223,0,0,0,0,0,0,0,0,0,-1,1476,1247,0,0
259,-223,0,0,0,0,0,0,0,0,0,-1,1483,1247,0,0
266,-223,0,0,0,0,0,0,0,0,0,-1,1490,1247,0,0
273,-223,0,0,0,0,0,0,0,0,0,-1,1497,1247,0,0
280,-223,0,0,0,0,0,0,0,0,0,-1,1504,1247,0,0
287,-223,0,0,0,0,0,0,0,0,0,-1,1511,1247,0,0
294,-223,0,0,0,0,0,0,0,0,0,-1,1518,1247,0,0
301,-223,0,0,0,0,0,0,0,0,0,-1,1525,1247,0,0
308,-223,0,0,0,0,0,0,0,0,0,-1,1532,1247,0,0
315,-223,0,0,0,0,0,0,0,0,0,-1,1539,1247,0,0
322,-223,0,0,0,0,0,0,0,0,0,-1,1546,1247,0,0
329,-223,0,0,0,0,0,0,0,0,0,-1,1553,1247,0,0
336,-223,0,0,0,0,0,0,0,0,0,-1,1560,1247,0,0
343,-223,0,0,0,0,0,0,0,0,0,-1,1567,1247,0,0
350,-223,0,0,0,0,0,0,0,0,0,-1,1574,1247,0,0
357,-223,0,0,0,0,0,0,0,0,0,-1,1581,1247,0,0
364,-223,0,0,0,0,0,0,0,0,0,-1,1588,1247,0,0
371,-223,0,0,0,0,0,0,0,0,0,-1,1595,1247,0,0
378,-223,0,0,0,0,0,0,0,0,0,-1,1602,1247,0,0
385,-223,0,0,0,0,0,0,0,0,0,-1,1609,1247,0,0
392,-223,0,0,0,0,0,0,0,0,0,-1,1616,1247,0,0
399,-223,0,0,0,0,0,0,0,0,0,-1,1623,1247,0,0
406,-223,0,0,0,0,0,0,0,0,0,-1,1630,1247,0,0
413,-223,0,0,0,0,0,0,0,0,0,-1,1637,1247,0,0
420,-223,0,0,0,0,0,0,0,0,0,-1,1644,1247,0,0
427,-223,0,0,0,0,0,0,0,0,0,-1,1651,1247,0,0
434,-223,0,0,0,0,0,0,0,0,0,-1,1658,1247,0,0
441,-223,0,0,0,0,0,0,0,0,0,-1,1665,1247,0,0
448,-223,0,0,0,0,0,0,0,0,0,-1,1672,1247,0,0
455,-223,0,0,0,0,0,0,0,0,0,-1,1679,1247,0,0
462,-223,0,0,0,0,0,0,0,0,0,-1,1686,1247,0,0
469,-223,0,0,0,0,0,0,0,0,0,-1,1693,1247,0,0
476,-223,0,0,0,0,0,0,0,0,0,-1,1700,1247,0,0
483,-223,0,0,0,0,0,0,0,0,0,-1,1707,1247,0,0
490,-223,0,0,0,0,0,0,0,0,0,-1,1714,1247,0,0
497,-223,0,0,0,0,0,0,0,0,0,-1,1721,1247,0,0
504,-223,0,0,0,0,0,0,0,0,0,-1,1728,1247,0,0
511,-223,0,0,0,0,0,0,0,0,0,-1,1735,1247,0,0
518,-223,0,0,0,0,0,0,0,0,0,-1,1742,1247,0,0
525,-223,0,0,0,0,0,0,0,0,0,-1,1749,1247,0,0
532,-223,0,0,0,0,0,0,0,0,0,-1,1756,1247,0,0
539,-223,0,0,0,0,0,0,0,0,0,-1,1763,1247,0,0
546,-223,0,0,0,0,0,0,0,0,0,-1,1770,1247,0,0
553,-223,0,0,0,0,0,0,0,0,0,-1,1777,1247,0,0
560,-223,0,0,0,0,0,0,0,0,0,-1,1784,1247,0,0
567,-223,0,0,0,0,0,0,0,0,0,-1,1791,1247,0,0
574,-223,0,0,0,0,0,0,0,0,0,-1,1798,1247,0,0
581,-223,0,0,0,0,0,0,0,0,0,-1,1805,1247,0,0
588,-223,0,0,0,0,0,0,0,0,0,-1,1812,1247,0,0
595,-223,0,0,0,0,0,0,0,0,0,-1,1819,1247,0,0
602,-223,0,0,0,0,0,0,0,0,0,-1,1826,1247,0,0
609,-223,0,0,0,0,0,0,0,0,0,-1,1833,1247,0,0
616,-223,0,0,0,0,0,0,0,0,0,-1,1840,1247,0,0
623,-223,48.7435,2.77063,0.0009804,0.00154568,-0.000363947,0.00172385,0.000802233,-1.11555,0.000996059,0.0389109,1847,1247,48.7435,-2.77058
630,-223,48.744,2.5658,0.00212926,0.00201214,-0.00120212,0.00327425,0.00086715,-0.76106,0.00195884,0.035902,1854,1247,48.744,-2.56583
637,-223,48.8213,2.55286,0.00294935,0.00293097,-0.00217381,0.00511399,0.000766332,-0.783285,0.00318476,0.029582,1861,1247,48.8213,-2.55288
644,-223,48.8549,2.55518,0.00305632,0.00347049,-0.00230808,0.00558075,0.000946052,-0.830139,0.00344868,0.0230075,1868,1247,48.8549,-2.55521
651,-223,48.8364,2.55652,0.00291815,0.00343054,-0.00243895,0.00562671,0.000721971,-0.837728,0.00353514,0.0283687,1875,1247,48.8365,-2.55651
658,-223,48.9285,2.5542,0,0,0,0,0,0,0,-1,1882,1247,48.9285,-2.55416
665,-223,49.2677,2.06335,0,0,0,0,0,0,0,-1,1889,1247,49.2677,-2.06339
672,-223,49.5981,1.67676,0,0,0,0,0,0,0,-1,1896,1247,49.5982,-1.67681
679,-223,43.2783,2.46973,0,0,0,0,0,0,0,-1,1903,1247,43.2784,-2.46978
686,-223,38.958,9.69543,0,0,0,0,0,0,0,-1,1910,1247,38.958,-9.69548
693,-223,38.7778,9.34021,0.00121977,0.00139507,-0.00132008,0.00263041,-1.55735e-05,-0.818548,0.00175882,0.0466465,1917,1247,38.7778,-9.34016
700,-223,38.5225,8.96216,0.00105736,0.00103292,-0.00105211,0.00209733,-7.04057e-06,-0.779592,0.00140057,0.025217,1924,1247,38.5225,-8.96213
707,-223,38.4178,8.55322,0.000851509,0.000571687,-0.000723485,0.00144849,-2.52906e-05,-0.689885,0.000974198,0.0202633,1931,1247,38.4178,-8.55326
714,-223,38.4128,8.12415,0.000442825,2.20035e-05,-0.000122219,0.000475745,-1.09171e-05,-0.263113,0.000320864,0.0118694,1938,1247,38.4128,-8.12414
721,-223,38.4224,7.69214,2.0175e-05,-0.00053865,0.000635235,0.000434733,-0.000953208,0.578205,0.000819753,0.0154225,1945,1247,38.4223,-7.69215
728,-223,38.4243,7.24695,-0.000157479,-0.00071395,0.00133418,0.000927171,-0.0017986,0.6826,0.00160031,0.0180811,1952,1247,38.4243,-7.24699
735,-223,38.4153,6.83691,-8.94966e-05,-0.000894807,0.00203262,0.00157997,-0.00256427,0.687616,0.00241507,0.0173526,1959,1247,38.4153,-6.8369
742,-223,38.3513,6.42883,-0.000221075,-0.000879138,0.00280443,0.00227356,-0.00337378,0.727002,0.00328105,0.0154981,1966,1247,38.3513,-6.42879
749,-223,38.3247,5.93713,-0.000331594,-0.00101997,0.00348927,0.00283043,-0.00418199,0.736236,0.00407361,0.012316,1973,1247,38.3246,-5.93716
756,-223,38.2899,5.49744,-0.000441605,-0.00131695,0.00407414,0.00321831,-0.00497686,0.73189,0.00476766,0.0158472,1980,1247,38.2899,-5.4974
763,-223,38.2876,5.12732,-0.000391456,-0.00203306,0.00471884,0.00357744,-0.00600196,0.699289,0.0055894,0.0218386,1987,1247,38.2875,-5.12729
770,-223,38.5505,4.74121,-0.000652974,-0.00314947,0.00533005,0.00357304,-0.00737548,0.670376,0.00644695,0.0484714,1994,1247,38.5505,-4.74127
777,-223,38.8138,4.33533,0,0,0,0,0,0,0,-1,2001,1247,38.8139,-4.33538
784,-223,54.1208,-0.293457,0,0,0,0,0,0,0,-1,2008,1247,54.1208,0.293477
791,-223,34.7136,2.92554,0,0,0,0,0,0,0,-1,2015,1247,34.7137,-2.92555
798,-223,0,0,0,0,0,0,0,0,0,-1,2022,1247,0,0
805,-223,0,0,0,0,0,0,0,0,0,-1,2029,1247,0,0
812,-223,0,0,0,0,0,0,0,0,0,-1,2036,1247,0,0
-700,-230,0,0,0,0,0,0,0,0,0,-1,524,1254,0,0
-693,-230,0,0,0,0,0,0,0,0,0,-1,531,1254,0,0
-686,-230,0,0,0,0,0,0,0,0,0,-1,538,1254,0,0
-679,-230,0,0,0,0,0,0,0,0,0,-1,545,1254,0,0
-672,-230,-28.1055,12.2495,0,0,0,0,0,0,0,-1,552,1254,-28.1055,-12.2496
-665,-230,-27.9181,13.1168,0,0,0,0,0,0,0,-1,559,1254,-27.9181,-13.1169
-658,-230,-27.7896,14.157,0,0,0,0,0,0,0,-1,566,1254,-27.7896,-14.157
-651,-230,-33.9964,-1.89709,0,0,0,0,0,0,0,-1,573,1254,-33.9964,1.89713
-644,-230,-34.0387,-1.38,0,0,0,0,0,0,0,-1,580,1254,-34.0387,1.38002
-637,-230,-32.9183,1.94067,0,0,0,0,0,0,0,-1,587,1254,-32.9183,-1.94071
-630,-230,-24.4761,2.42065,0,0,0,0,0,0,0,-1,594,1254,-24.4762,-2.42066
-623,-230,-24.5191,2.89014,0.011652,-0.00395744,0.00961348,0.01623,-0.00853548,0.444435,0.0145266,0.0293276,601,1254,-24.5191,-2.89015
-616,-230,-24.5232,3.3623,0.00846058,0.00114578,0.0066201,0.0123664,-0.00276004,0.533029,0.00930179,0.0174077,608,1254,-24.5232,-3.3623
-609,-230,-24.5057,3.85779,0.00580077,0.00296698,0.00440559,0.0090117,-0.000243953,0.629815,0.00609075,0.0127333,615,1254,-24.5057,-3.85783
-602,-230,-24.4875,4.34399,0.00408886,0.00229132,0.00306997,0.00638892,-8.74093e-06,0.642996,0.0042622,0.0122323,622,1254,-24.4875,-4.34395
-595,-230,-24.5039,4.85706,0.00336276,0.0012094,0.00193456,0.00450007,7.20879e-05,0.53147,0.00297631,0.0199947,629,1254,-24.5039,-4.857
-588,-230,-24.5504,5.37903,0.00315594,0.000585169,0.00150795,0.003852,-0.000110889,0.432453,0.00260575,0.0277339,636,1254,-24.5504,-5.37905
-581,-230,-24.5869,5.86462,0.00305875,0.000557504,0.00119404,0.00353723,7.90246e-05,0.381129,0.00233226,0.0250877,643,1254,-24.5869,-5.86462
-574,-230,-24.5444,6.29468,0.00288727,0.00104629,0.00105704,0.00336843,0.000565124,0.427169,0.00208296,0.0216549,650,1254,-24.5444,-6.29473
-567,-230,-24.425,6.80688,0.00278943,0.00176969,0.00100436,0.00340592,0.00115319,0.550521,0.00200028,0.0370066,657,1254,-24.425,-6.80687
-560,-230,-24.3307,7.32629,0,0,0,0,0,0,0,-1,664,1254,-24.3308,-7.32631
-553,-230,-13.1939,4.9718,0,0,0,0,0,0,0,-1,671,1254,-13.1939,-4.97175
-546,-230,-15.23,0.453979,0,0,0,0,0,0,0,-1,678,1254,-15.23,-0.453996
-539,-230,-25.8232,0.512817,0,0,0,0,0,0,0,-1,685,1254,-25.8232,-0.512878
-532,-230,-21.1644,1.52966,0,0,0,0,0,0,0,-1,692,1254,-21.1644,-1.52969
-525,-230,-29.4775,0.731445,0,0,0,0,0,0,0,-1,699,1254,-29.4775,-0.731432
-518,-230,-36.0515,0.83374,0,0,0,0,0,0,0,-1,706,1254,-36.0514,-0.833787
-511,-230,-36.1299,0.787231,-0.00140445,-0.00193143,0.000320279,-0.0012532,-0.00208267,0.441187,0.0012107,0.0428123,713,1254,-36.1299,-0.787205
-504,-230,-36.149,0.945068,-0.00123662,-0.00284789,0.00106693,-0.000705325,-0.00337918,0.462022,0.00205836,0.0392407,720,1254,-36.149,-0.945046
-497,-230,0,0,0,0,0,0,0,0,0,-1,727,1254,0,0
-490,-230,0,0,0,0,0,0,0,0,0,-1,734,1254,0,0
-483,-230,0,0,0,0,0,0,0,0,0,-1,741,1254,0,0
-476,-230,0,0,0,0,0,0,0,0,0,-1,748,1254,0,0
-469,-230,0,0,0,0,0,0,0,0,0,-1,755,1254,0,0
-462,-230,0,0,0,0,0,0,0,0,0,-1,762,1254,0,0
-455,-230,0,0,0,0,0,0,0,0,0,-1,769,1254,0,0
-448,-230,0,0,0,0,0,0,0,0,0,-1,776,1254,0,0
-441,-230,0,0,0,0,0,0,0,0,0,-1,783,1254,0,0
-434,-230,0,0,0,0,0,0,0,0,0,-1,790,1254,0,0
-427,-230,0,0,0,0,0,0,0,0,0,-1,797,1254,0,0
-420,-230,0,0,0,0,0,0,0,0,0,-1,804,1254,0,0
-413,-230,0,0,0,0,0,0,0,0,0,-1,811,1254,0,0
-406,-230,0,0,0,0,0,0,0,0,0,-1,818,1254,0,0
-399,-230,0,0,0,0,0,0,0,0,0,-1,825,1254,0,0
-392,-230,0,0,0,0,0,0,0,0,0,-1,832,1254,0,0
-385,-230,0,0,0,0,0,0,0,0,0,-1,839,1254,0,0
-378,-230,0,0,0,0,0,0,0,0,0,-1,846,1254,0,0
-371,-230,0,0,0,0,0,0,0,0,0,-1,853,1254,0,0
-364,-230,0,0,0,0,0,0,0,0,0,-1,860,1254,0,0
-357,-230,0,0,0,0,0,0,0,0,0,-1,867,1254,0,0
-350,-230,0,0,0,0,0,0,0,0,0,-1,874,1254,0,0
-343,-230,0,0,0,0,0,0,0,0,0,-1,881,1254,0,0
-336,-230,0,0,0,0,0,0,0,0,0,-1,888,1254,0,0
-329,-230,0,0,0,0,0,0,0,0,0,-1,895,1254,0,0
-322,-230,0,0,0,0,0,0,0,0,0,-1,902,1254,0,0
-315,-230,0,0,0,0,0,0,0,0,0,-1,909,1254,0,0
-308,-230,0,0,0,0,0,0,0,0,0,-1,916,1254,0,0
-301,-230,0,0,0,0,0,0,0,0,0,-1,923,1254,0,0
-294,-230,0,0,0,0,0,0,0,0,0,-1,930,1254,0,0
-287,-230,0,0,0,0,0,0,0,0,0,-1,937,1254,0,0
-280,-230,0,0,0,0,0,0,0,0,0,-1,944,1254,0,0
-273,-230,0,0,0,0,0,0,0,0,0,-1,951,1254,0,0
-266,-230,0,0,0,0,0,0,0,0,0,-1,958,1254,0,0
-259,-230,0,0,0,0,0,0,0,0,0,-1,965,1254,0,0
-252,-230,0,0,0,0,0,0,0,0,0,-1,972,1254,0,0
-245,-230,0,0,0,0,0,0,0,0,0,-1,979,1254,0,0
-238,-230,0,0,0,0,0,0,0,0,0,-1,986,1254,0,0
-231,-230,0,0,0,0,0,0,0,0,0,-1,993,1254,0,0
-224,-230,0,0,0,0,0,0,0,0,0,-1,1000,1254,0,0
-217,-230,0,0,0,0,0,0,0,0,0,-1,1007,1254,0,0
-210,-230,0,0,0,0,0,0,0,0,0,-1,1014,1254,0,0
-203,-230,0,0,0,0,0,0,0,0,0,-1,1021,1254,0,0
-196,-230,0,0,0,0,0,0,0,0,0,-1,1028,1254,0,0
-189,-230,0,0,0,0,0,0,0,0,0,-1,1035,1254,0,0
-182,-230,0,0,0,0,0,0,0,0,0,-1,1042,1254,0,0
-175,-230,0,0,0,0,0,0,0,0,0,-1,1049,1254,0,0
-168,-230,0,0,0,0,0,0,0,0,0,-1,1056,1254,0,0
-161,-230,0,0,0,0,0,0,0,0,0,-1,1063,1254,0,0
-154,-230,0,0,0,0,0,0,0,0,0,-1,1070,1254,0,0
-147,-230,0,0,0,0,0,0,0,0,0,-1,1077,1254,0,0
-140,-230,0,0,0,0,0,0,0,0,0,-1,1084,1254,0,0
-133,-230,0,0,0,0,0,0,0,0,0,-1,1091,1254,0,0
-126,-230,0,0,0,0,0,0,0,0,0,-1,1098,1254,0,0
-119,-230,0,0,0,0,0,0,0,0,0,-1,1105,1254,0,0
-112,-230,0,0,0,0,0,0,0,0,0,-1,1112,1254,0,0
-105,-230,0,0,0,0,0,0,0,0,0,-1,1119,1254,0,0
-98,-230,0,0,0,0,0,0,0,0,0,-1,1126,1254,0,0
-91,-230,0,0,0,0,0,0,0,0,0,-1,1133,1254,0,0
-84,-230,0,0,0,0,0,0,0,0,0,-1,1140,1254,0,0
-77,-230,0,0,0,0,0,0,0,0,0,-1,1147,1254,0,0
-70,-230,0,0,0,0,0,0,0,0,0,-1,1154,1254,0,0
-63,-230,0,0,0,0,0,0,0,0,0,-1,1161,1254,0,0
-56,-230,0,0,0,0,0,0,0,0,0,-1,1168,1254,0,0
-49,-230,0,0,0,0,0,0,0,0,0,-1,1175,1254,0,0
-42,-230,0,0,0,0,0,0,0,0,0,-1,1182,1254,0,0
-35,-230,0,0,0,0,0,0,0,0,0,-1,1189,1254,0,0
-28,-230,0,0,0,0,0,0,0,0,0,-1,1196,1254,0,0
-21,-230,0,0,0,0,0,0,0,0,0,-1,1203,1254,0,0
-14,-230,0,0,0,0,0,0,0,0,0,-1,1210,1254,0,0
-7,-230,0,0,0,0,0,0,0,0,0,-1,1217,1254,0,0
0,-230,0,0,0,0,0,0,0,0,0,-1,1224,1254,0,0
7,-230,0,0,0,0,0,0,0,0,0,-1,1231,1254,0,0
14,-230,0,0,0,0,0,0,0,0,0,-1,1238,1254,0,0
21,-230,0,0,0,0,0,0,0,0,0,-1,1245,1254,0,0
28,-230,0,0,0,0,0,0,0,0,0,-1,1252,1254,0,0
35,-230,0,0,0,0,0,0,0,0,0,-1,1259,1254,0,0
42,-230,0,0,0,0,0,0,0,0,0,-1,1266,1254,0,0
49,-230,0,0,0,0,0,0,0,0,0,-1,1273,1254,0,0
56,-230,0,0,0,0,0,0,0,0,0,-1,1280,1254,0,0
63,-230,0,0,0,0,0,0,0,0,0,-1,1287,1254,0,0
70,-230,0,0,0,0,0,0,0,0,0,-1,1294,1254,0,0
77,-230,0,0,0,0,0,0,0,0,0,-1,1301,1254,0,0
84,-230,0,0,0,0,0,0,0,0,0,-1,1308,1254,0,0
91,-230,0,0,0,0,0,0,0,0,0,-1,1315,1254,0,0
98,-230,0,0,0,0,0,0,0,0,0,-1,1322,1254,0,0
105,-230,0,0,0,0,0,0,0,0,0,-1,1329,1254,0,0
112,-230,0,0,0,0,0,0,0,0,0,-1,1336,1254,0,0
119,-230,0,0,0,0,0,0,0,0,0,-1,1343,1254,0,0
126,-230,0,0,0,0,0,0,0,0,0,-1,1350,1254,0,0
133,-230,0,0,0,0,0,0,0,0,0,-1,1357,1254,0,0
140,-230,0,0,0,0,0,0,0,0,0,-1,1364,1254,0,0
147,-230,0,0,0,0,0,0,0,0,0,-1,1371,1254,0,0
154,-230,0,0,0,0,0,0,0,0,0,-1,1378,1254,0,0
161,-230,0,0,0,0,0,0,0,0,0,-1,1385,1254,0,0
168,-230,0,0,0,0,0,0,0,0,0,-1,1392,1254,0,0
175,-230,0,0,0,0,0,0,0,0,0,-1,1399,1254,0,0
182,-230,0,0,0,0,0,0,0,0,0,-1,1406,1254,0,0
189,-230,0,0,0,0,0,0,0,0,0,-1,1413,1254,0,0
196,-230,0,0,0,0,0,0,0,0,0,-1,1420,1254,0,0
203,-230,0,0,0,0,0,0,0,0,0,-1,1427,1254,0,0
210,-230,0,0,0,0,0,0,0,0,0,-1,1434,1254,0,0
217,-230,0,0,0,0,0,0,0,0,0,-1,1441,1254,0,0
224,-230,0,0,0,0,0,0,0,0,0,-1,1448,1254,0,0
231,-230,0,0,0,0,0,0,0,0,0,-1,1455,1254,0,0
238,-230,0,0,0,0,0,0,0,0,0,-1,1462,1254,0,0
245,-230,0,0,0,0,0,0,0,0,0,-1,1469,1254,0,0
252,-230,0,0,0,0,0,0,0,0,0,-1,1476,1254,0,0
259,-230,0,0,0,0,0,0,0,0,0,-1,1483,1254,0,0
266,-230,0,0,0,0,0,0,0,0,0,-1,1490,1254,0,0
273,-230,0,0,0,0,0,0,0,0,0,-1,1497,1254,0,0
280,-230,0,0,0,0,0,0,0,0,0,-1,1504,1254,0,0
287,-230,0,0,0,0,0,0,0,0,0,-1,1511,1254,0,0
294,-230,0,0,0,0,0,0,0,0,0,-1,1518,1254,0,0
301,-230,0,0,0,0,0,0,0,0,0,-1,1525,1254,0,0
308,-230,0,0,0,0,0,0,0,0,0,-1,1532,1254,0,0
315,-230,0,0,0,0,0,0,0,0,0,-1,1539,1254,0,0
322,-230,0,0,0,0,0,0,0,0,0,-1,1546,1254,0,0
329,-230,0,0,0,0,0,0,0,0,0,-1,1553,1254,0,0
336,-230,0,0,0,0,0,0,0,0,0,-1,1560,1254,0,0
343,-230,0,0,0,0,0,0,0,0,0,-1,1567,1254,0,0
350,-230,0,0,0,0,0,0,0,0,0,-1,1574,1254,0,0
357,-230,0,0,0,0,0,0,0,0,0,-1,1581,1254,0,0
364,-230,0,0,0,0,0,0,0,0,0,-1,1588,1254,0,0
371,-230,0,0,0,0,0,0,0,0,0,-1,1595,1254,0,0
378,-230,0,0,0,0,0,0,0,0,0,-1,1602,1254,0,0
385,-230,0,0,0,0,0,0,0,0,0,-1,1609,1254,0,0
392,-230,0,0,0,0,0,0,0,0,0,-1,1616,1254,0,0
399,-230,0,0,0,0,0,0,0,0,0,-1,1623,1254,0,0
406,-230,0,0,0,0,0,0,0,0,0,-1,1630,1254,0,0
413,-230,0,0,0,0,0,0,0,0,0,-1,1637,1254,0,0
420,-230,0,0,0,0,0,0,0,0,0,-1,1644,1254,0,0
427,-230,0,0,0,0,0,0,0,0,0,-1,1651,1254,0,0
434,-230,0,0,0,0,0,0,0,0,0,-1,1658,1254,0,0
441,-230,0,0,0,0,0,0,0,0,0,-1,1665,1254,0,0
448,-230,0,0,0,0,0,0,0,0,0,-1,1672,1254,0,0
455,-230,0,0,0,0,0,0,0,0,0,-1,1679,1254,0,0
462,-230,0,0,0,0,0,0,0,0,0,-1,1686,1254,0,0
469,-230,0,0,0,0,0,0,0,0,0,-1,1693,1254,0,0
476,-230,0,0,0,0,0,0,0,0,0,-1,1700,1254,0,0
483,-230,0,0,0,0,0,0,0,0,0,-1,1707,1254,0,0
490,-230,0,0,0,0,0,0,0,0,0,-1,1714,1254,0,0
497,-230,0,0,0,0,0,0,0,0,0,-1,1721,1254,0,0
504,-230,0,0,0,0,0,0,0,0,0,-1,1728,1254,0,0
511,-230,0,0,0,0,0,0,0,0,0,-1,1735,1254,0,0
518,-230,0,0,0,0,0,0,0,0,0,-1,1742,1254,0,0
525,-230,0,0,0,0,0,0,0,0,0,-1,1749,1254,0,0
532,-230,0,0,0,0,0,0,0,0,0,-1,1756,1254,0,0
539,-230,0,0,0,0,0,0,0,0,0,-1,1763,1254,0,0
546,-230,0,0,0,0,0,0,0,0,0,-1,1770,1254,0,0
553,-230,0,0,0,0,0,0,0,0,0,-1,1777,1254,0,0
560,-230,0,0,0,0,0,0,0,0,0,-1,1784,1254,0,0
567,-230,0,0,0,0,0,0,0,0,0,-1,1791,1254,0,0
574,-230,0,0,0,0,0,0,0,0,0,-1,1798,1254,0,0
581,-230,0,0,0,0,0,0,0,0,0,-1,1805,1254,0,0
588,-230,0,0,0,0,0,0,0,0,0,-1,1812,1254,0,0
595,-230,0,0,0,0,0,0,0,0,0,-1,1819,1254,0,0
602,-230,0,0,0,0,0,0,0,0,0,-1,1826,1254,0,0
609,-230,0,0,0,0,0,0,0,0,0,-1,1833,1254,0,0
616,-230,48.9235,2.79529,0.000347426,0.00140977,0.00024912,0.00146528,0.000291908,1.35152,0.000895555,0.0381202,1840,1254,48.9234,-2.79535
623,-230,48.8678,2.74158,0.00196637,0.00246462,-0.000621424,0.002885,0.00154599,-0.976038,0.00166708,0.0363742,1847,1254,48.8678,-2.74161
630,-230,48.793,2.61194,0.00356702,0.00369795,-0.00164354,0.00527732,0.00198764,-0.805304,0.00307762,0.03118,1854,1254,48.793,-2.61192
637,-230,48.8086,2.58374,0.00467532,0.00488453,-0.00263508,0.00741708,0.00214276,-0.805237,0.00440764,0.0270408,1861,1254,48.8086,-2.58369
644,-230,48.8181,2.56335,0.00443365,0.00494695,-0.0024093,0.00711323,0.00226738,-0.83846,0.0041958,0.0222625,1868,1254,48.8181,-2.56339
651,-230,48.8121,2.54517,0.00398145,0.0044175,-0.00237839,0.00658783,0.00181112,-0.831105,0.00392985,0.045574,1875,1254,48.8121,-2.54521
658,-230,48.821,2.52319,0,0,0,0,0,0,0,-1,1882,1254,48.821,-2.5232
665,-230,49.276,1.8418,0,0,0,0,0,0,0,-1,1889,1254,49.276,-1.84174
672,-230,43.0962,2.78699,0,0,0,0,0,0,0,-1,1896,1254,43.0962,-2.78698
679,-230,27.9967,2.37708,0,0,0,0,0,0,0,-1,1903,1254,27.9967,-2.3771
686,-230,37.9484,9.6748,0,0,0,0,0,0,0,-1,1910,1254,37.9484,-9.67481
693,-230,37.9795,9.41272,0.00136743,0.00126738,-0.00109922,0.00241777,0.000217044,-0.762659,0.00154459,0.0479448,1917,1254,37.9795,-9.41276
700,-230,38.0313,9.05688,0.0011869,0.000856295,-0.000841722,0.0018794,0.000163798,-0.688439,0.00120206,0.0208331,1924,1254,38.0313,-9.0569
707,-230,37.9779,8.5813,0.000872509,0.000366365,-0.000472646,0.00115557,8.33034e-05,-0.539602,0.000744168,0.0114317,1931,1254,37.9779,-8.58128
714,-230,37.9567,8.14343,0.000311072,-0.000123784,0.000169437,0.000369296,-0.000182008,0.330989,0.00032436,0.0132941,1938,1254,37.9567,-8.14342
721,-230,37.9629,7.703,-0.000221145,-0.000590411,0.000928224,0.00054063,-0.00135219,0.687225,0.0011258,0.0139217,1945,1254,37.9629,-7.70302
728,-230,37.9288,7.28333,-0.000582373,-0.000720307,0.00162035,0.000970479,-0.00227316,0.764129,0.0019224,0.0153967,1952,1254,37.9288,-7.28335
735,-230,37.9271,6.86426,-0.000760757,-0.000886266,0.00233583,0.00151316,-0.00316019,0.771968,0.00275345,0.0154699,1959,1254,37.9271,-6.86432
742,-230,37.9031,6.40466,-0.000842674,-0.000897295,0.00326493,0.00239506,-0.00413503,0.781216,0.0038145,0.011005,1966,1254,37.9031,-6.40465
749,-230,37.8807,5.9303,-0.000682842,-0.00108057,0.0043295,0.00345235,-0.00521577,0.762448,0.00503894,0.0103518,1973,1254,37.8807,-5.93033
756,-230,37.8483,5.50403,-4.23063e-05,-0.00142467,0.00555435,0.0048637,-0.00633068,0.723496,0.00648155,0.0165858,1980,1254,37.8482,-5.50405
763,-230,37.8815,5.03845,0.00120398,-0.0022163,0.00710426,0.00680103,-0.00781335,0.667285,0.00844436,0.0350979,1987,1254,37.8815,-5.0385
770,-230,38.2101,4.54968,0,0,0,0,0,0,0,-1,1994,1254,38.2101,-4.54969
777,-230,38.1431,4.53394,0,0,0,0,0,0,0,-1,2001,1254,38.143,-4.53391
784,-230,35.8896,1.80334,0,0,0,0,0,0,0,-1,2008,1254,35.8897,-1.80338
791,-230,35.6028,2.20642,0,0,0,0,0,0,0,-1,2015,1254,35.6027,-2.2064
798,-230,0,0,0,0,0,0,0,0,0,-1,2022,1254,0,0
805,-230,0,0,0,0,0,0,0,0,0,-1,2029,1254,0,0
812,-230,0,0,0,0,0,0,0,0,0,-1,2036,1254,0,0
-700,-237,0,0,0,0,0,0,0,0,0,-1,524,1261,0,0
-693,-237,0,0,0,0,0,0,0,0,0,-1,531,1261,0,0
-686,-237,0,0,0,0,0,0,0,0,0,-1,538,1261,0,0
-679,-237,0,0,0,0,0,0,0,0,0,-1,545,1261,0,0
-672,-237,-35.2999,-6.50769,0,0,0,0,0,0,0,-1,552,1261,-35.2998,6.50774
-665,-237,-28.1877,13.9741,0,0,0,0,0,0,0,-1,559,1261,-28.1878,-13.9742
-658,-237,-35.4324,-4.62085,0,0,0,0,0,0,0,-1,566,1261,-35.4324,4.62081
-651,-237,-34.6639,-3.00244,0,0,0,0,0,0,0,-1,573,1261,-34.664,3.0024
-644,-237,-34.0914,-0.665649,0,0,0,0,0,0,0,-1,580,1261,-34.0914,0.665635
-637,-237,-24.1819,1.41772,0,0,0,0,0,0,0,-1,587,1261,-24.1819,-1.41767
-630,-237,-24.0962,2.15015,0.0172739,-0.00914441,0.0163403,0.0250763,-0.0169468,0.445483,0.0244129,0.0492916,594,1261,-24.0962,-2.15013
-623,-237,-23.9528,2.90686,0.0128923,-0.00125704,0.0122153,0.0199338,-0.00829852,0.52292,0.016755,0.0307623,601,1261,-23.9528,-2.90681
-616,-237,-23.9818,3.39392,0.00943741,0.0028278,0.00851094,0.0152627,-0.00299745,0.600208,0.0113075,0.0147271,608,1261,-23.9818,-3.39388
-609,-237,-24.0123,3.88428,0.00667924,0.00395601,0.00578172,0.0112575,-0.000622262,0.669754,0.00772079,0.0169722,615,1261,-24.0123,-3.88424
-602,-237,-23.9932,4.36694,0.00483583,0.00297485,0.00401619,0.00802792,-0.000217233,0.671565,0.00542581,0.0126799,622,1261,-23.9932,-4.36698
-595,-237,-24.0251,4.86694,0.00396723,0.0016962,0.0025494,0.00562256,4.08676e-05,0.575884,0.00373482,0.0159789,629,1261,-24.0251,-4.86696
-588,-237,-24.0602,5.37097,0.0036012,0.000806233,0.00177569,0.00446337,-5.5938e-05,0.452014,0.0029944,0.0282259,636,1261,-24.0602,-5.37092
-581,-237,-24.0787,5.89856,0.00341925,0.000435526,0.00124125,0.0038681,-1.33235e-05,0.34698,0.00258318,0.026364,643,1261,-24.0787,-5.8985
-574,-237,-24.0676,6.38025,0.00326913,0.000585281,0.000969713,0.00358283,0.000271577,0.312876,0.00230337,0.0168522,650,1261,-24.0676,-6.38024
-567,-237,-24.0389,6.90942,0.00319741,0.00109071,0.000870154,0.00351034,0.000777783,0.345221,0.00212887,0.026325,657,1261,-24.039,-6.90944
-560,-237,-23.9048,7.35449,0,0,0,0,0,0,0,-1,664,1261,-23.9048,-7.35448
-553,-237,-20.6102,6.92139,0,0,0,0,0,0,0,-1,671,1261,-20.6102,-6.92138
-546,-237,-11.192,1.14014,0,0,0,0,0,0,0,-1,678,1261,-11.192,-1.14011
-539,-237,-16.512,1.53455,0,0,0,0,0,0,0,-1,685,1261,-16.512,-1.53457
-532,-237,-29.7025,1.23621,0,0,0,0,0,0,0,-1,692,1261,-29.7025,-1.23618
-525,-237,-33.0974,1.11963,0,0,0,0,0,0,0,-1,699,1261,-33.0974,-1.11964
-518,-237,-35.9546,0.916504,0,0,0,0,0,0,0,-1,706,1261,-35.9546,-0.91656
-511,-237,-36.0794,0.948608,-0.00158806,-0.00274923,0.000672073,-0.00128052,-0.00305677,0.429151,0.00177254,0.046544,713,1261,-36.0794,-0.948637
-504,-237,-36.1303,0.92981,-0.00221661,-0.00393901,0.00139331,-0.00143983,-0.00471579,0.508587,0.00279061,0.043208,720,1261,-36.1303,-0.929837
-497,-237,-36.1458,0.92688,-0.00179075,-0.00488618,0.00281401,-0.00012691,-0.00655002,0.533975,0.00432499,0.0457891,727,1261,-36.1457,-0.926885
-490,-237,0,0,0,0,0,0,0,0,0,-1,734,1261,0,0
-483,-237,0,0,0,0,0,0,0,0,0,-1,741,1261,0,0
-476,-237,0,0,0,0,0,0,0,0,0,-1,748,1261,0,0
-469,-237,0,0,0,0,0,0,0,0,0,-1,755,1261,0,0
-462,-237,0,0,0,0,0,0,0,0,0,-1,762,1261,0,0
-455,-237,0,0,0,0,0,0,0,0,0,-1,769,1261,0,0
-448,-237,0,0,0,0,0,0,0,0,0,-1,776,1261,0,0
-441,-237,0,0,0,0,0,0,0,0,0,-1,783,1261,0,0
-434,-237,0,0,0,0,0,0,0,0,0,-1,790,1261,0,0
-427,-237,0,0,0,0,0,0,0,0,0,-1,797,1261,0,0
-420,-237,0,0,0,0,0,0,0,0,0,-1,804,1261,0,0
-413,-237,0,0,0,0,0,0,0,0,0,-1,811,1261,0,0
-406,-237,0,0,0,0,0,0,0,0,0,-1,818,1261,0,0
-399,-237,0,0,0,0,0,0,0,0,0,-1,825,1261,0,0
-392,-237,0,0,0,0,0,0,0,0,0,-1,832,1261,0,0
-385,-237,0,0,0,0,0,0,0,0,0,-1,839,1261,0,0
-378,-237,0,0,0,0,0,0,0,0,0,-1,846,1261,0,0
-371,-237,0,0,0,0,0,0,0,0,0,-1,853,1261,0,0
-364,-237,0,0,0,0,0,0,0,0,0,-1,860,1261,0,0
-357,-237,0,0,0,0,0,0,0,0,0,-1,867,1261,0,0
-350,-237,0,0,0,0,0,0,0,0,0,-1,874,1261,0,0
-343,-237,0,0,0,0,0,0,0,0,0,-1,881,1261,0,0
-336,-237,0,0,0,0,0,0,0,0,0,-1,888,1261,0,0
-329,-237,0,0,0,0,0,0,0,0,0,-1,895,1261,0,0
-322,-237,0,0,0,0,0,0,0,0,0,-1,902,1261,0,0
-315,-237,0,0,0,0,0,0,0,0,0,-1,909,1261,0,0
-308,-237,0,0,0,0,0,0,0,0,0,-1,916,1261,0,0
-301,-237,0,0,0,0,0,0,0,0,0,-1,923,1261,0,0
-294,-237,0,0,0,0,0,0,0,0,0,-1,930,1261,0,0
-287,-237,0,0,0,0,0,0,0,0,0,-1,937,1261,0,0
-280,-237,0,0,0,0,0,0,0,0,0,-1,944,1261,0,0
-273,-237,0,0,0,0,0,0,0,0,0,-1,951,1261,0,0
-266,-237,0,0,0,0,0,0,0,0,0,-1,958,1261,0,0
-259,-237,0,0,0,0,0,0,0,0,0,-1,965,1261,0,0
-252,-237,0,0,0,0,0,0,0,0,0,-1,972,1261,0,0
-245,-237,0,0,0,0,0,0,0,0,0,-1,979,1261,0,0
-238,-237,0,0,0,0,0,0,0,0,0,-1,986,1261,0,0
-231,-237,0,0,0,0,0,0,0,0,0,-1,993,1261,0,0
-224,-237,0,0,0,0,0,0,0,0,0,-1,1000,1261,0,0
-217,-237,0,0,0,0,0,0,0,0,0,-1,1007,1261,0,0
-210,-237,0,0,0,0,0,0,0,0,0,-1,1014,1261,0,0
-203,-237,0,0,0,0,0,0,0,0,0,-1,1021,1261,0,0
-196,-237,0,0,0,0,0,0,0,0,0,-1,1028,1261,0,0
-189,-237,0,0,0,0,0,0,0,0,0,-1,1035,1261,0,0
-182,-237,0,0,0,0,0,0,0,0,0,-1,1042,1261,0,0
-175,-237,0,0,0,0,0,0,0,0,0,-1,1049,1261,0,0
-168,-237,0,0,0,0,0,0,0,0,0,-1,1056,1261,0,0
-161,-237,0,0,0,0,0,0,0,0,0,-1,1063,1261,0,0
-154,-237,0,0,0,0,0,0,0,0,0,-1,1070,1261,0,0
-147,-237,0,0,0,0,0,0,0,0,0,-1,1077,1261,0,0
-140,-237,0,0,0,0,0,0,0,0,0,-1,1084,1261,0,0
-133,-237,0,0,0,0,0,0,0,0,0,-1,1091,1261,0,0
-126,-237,0,0,0,0,0,0,0,0,0,-1,1098,1261,0,0
-119,-237,0,0,0,0,0,0,0,0,0,-1,1105,1261,0,0
-112,-237,0,0,0,0,0,0,0,0,0,-1,1112,1261,0,0
-105,-237,0,0,0,0,0,0,0,0,0,-1,1119,1261,0,0
-98,-237,0,0,0,0,0,0,0,0,0,-1,1126,1261,0,0
-91,-237,0,0,0,0,0,0,0,0,0,-1,1133,1261,0,0
-84,-237,0,0,0,0,0,0,0,0,0,-1,1140,1261,0,0
-77,-237,0,0,0,0,0,0,0,0,0,-1,1147,1261,0,0
-70,-237,0,0,0,0,0,0,0,0,0,-1,1154,1261,0,0
-63,-237,0,0,0,0,0,0,0,0,0,-1,1161,1261,0,0
-56,-237,0,0,0,0,0,0,0,0,0,-1,1168,1261,0,0
-49,-237,0,0,0,0,0,0,0,0,0,-1,1175,1261,0,0
-42,-237,0,0,0,0,0,0,0,0,0,-1,1182,1261,0,0
-35,-237,0,0,0,0,0,0,0,0,0,-1,1189,1261,0,0
-28,-237,0,0,0,0,0,0,0,0,0,-1,1196,1261,0,0
-21,-237,0,0,0,0,0,0,0,0,0,-1,1203,1261,0,0
-14,-237,0,0,0,0,0,0,0,0,0,-1,1210,1261,0,0
-7,-237,0,0,0,0,0,0,0,0,0,-1,1217,1261,0,0
0,-237,0,0,0,0,0,0,0,0,0,-1,1224,1261,0,0
7,-237,0,0,0,0,0,0,0,0,0,-1,1231,1261,0,0
14,-237,0,0,0,0,0,0,0,0,0,-1,1238,1261,0,0
21,-237,0,0,0,0,0,0,0,0,0,-1,1245,1261,0,0
28,-237,0,0,0,0,0,0,0,0,0,-1,1252,1261,0,0
35,-237,0,0,0,0,0,0,0,0,0,-1,1259,1261,0,0
42,-237,0,0,0,0,0,0,0,0,0,-1,1266,1261,0,0
49,-237,0,0,0,0,0,0,0,0,0,-1,1273,1261,0,0
56,-237,0,0,0,0,0,0,0,0,0,-1,1280,1261,0,0
63,-237,0,0,0,0,0,0,0,0,0,-1,1287,1261,0,0
70,-237,0,0,0,0,0,0,0,0,0,-1,1294,1261,0,0
77,-237,0,0,0,0,0,0,0,0,0,-1,1301,1261,0,0
84,-237,0,0,0,0,0,0,0,0,0,-1,1308,1261,0,0
91,-237,0,0,0,0,0,0,0,0,0,-1,1315,1261,0,0
98,-237,0,0,0,0,0,0,0,0,0,-1,1322,1261,0,0
105,-237,0,0,0,0,0,0,0,0,0,-1,1329,1261,0,0
112,-237,0,0,0,0,0,0,0,0,0,-1,1336,1261,0,0
119,-237,0,0,0,0,0,0,0,0,0,-1,1343,1261,0,0
126,-237,0,0,0,0,0,0,0,0,0,-1,1350,1261,0,0
133,-237,0,0,0,0,0,0,0,0,0,-1,1357,1261,0,0
140,-237,0,0,0,0,0,0,0,0,0,-1,1364,1261,0,0
147,-237,0,0,0,0,0,0,0,0,0,-1,1371,1261,0,0
154,-237,0,0,0,0,0,0,0,0,0,-1,1378,1261,0,0
161,-237,0,0,0,0,0,0,0,0,0,-1,1385,1261,0,0
168,-237,0,0,0,0,0,0,0,0,0,-1,1392,1261,0,0
175,-237,0,0,0,0,0,0,0,0,0,-1,1399,1261,0,0
182,-237,0,0,0,0,0,0,0,0,0,-1,1406,1261,0,0
189,-237,0,0,0,0,0,0,0,0,0,-1,1413,1261,0,0
196,-237,0,0,0,0,0,0,0,0,0,-1,1420,1261,0,0
203,-237,0,0,0,0,0,0,0,0,0,-1,1427,1261,0,0
210,-237,0,0,0,0,0,0,0,0,0,-1,1434,1261,0,0
217,-237,0,0,0,0,0,0,0,0,0,-1,1441,1261,0,0
224,-237,0,0,0,0,0,0,0,0,0,-1,1448,1261,0,0
231,-237,0,0,0,0,0,0,0,0,0,-1,1455,1261,0,0
238,-237,0,0,0,0,0,0,0,0,0,-1,1462,1261,0,0
245,-237,0,0,0,0,0,0,0,0,0,-1,1469,1261,0,0
252,-237,0,0,0,0,0,0,0,0,0,-1,1476,1261,0,0
259,-237,0,0,0,0,0,0,0,0,0,-1,1483,1261,0,0
266,-237,0,0,0,0,0,0,0,0,0,-1,1490,1261,0,0
273,-237,0,0,0,0,0,0,0,0,0,-1,1497,1261,0,0
280,-237,0,0,0,0,0,0,0,0,0,-1,1504,1261,0,0
287,-237,0,0,0,0,0,0,0,0,0,-1,1511,1261,0,0
294,-237,0,0,0,0,0,0,0,0,0,-1,1518,1261,0,0
301,-237,0,0,0,0,0,0,0,0,0,-1,1525,1261,0,0
308,-237,0,0,0,0,0,0,0,0,0,-1,1532,1261,0,0
315,-237,0,0,0,0,0,0,0,0,0,-1,1539,1261,0,0
322,-237,0,0,0,0,0,0,0,0,0,-1,1546,1261,0,0
329,-237,0,0,0,0,0,0,0,0,0,-1,1553,1261,0,0
336,-237,0,0,0,0,0,0,0,0,0,-1,1560,1261,0,0
343,-237,0,0,0,0,0,0,0,0,0,-1,1567,1261,0,0
350,-237,0,0,0,0,0,0,0,0,0,-1,1574,1261,0,0
357,-237,0,0,0,0,0,0,0,0,0,-1,1581,1261,0,0
364,-237,0,0,0,0,0,0,0,0,0,-1,1588,1261,0,0
371,-237,0,0,0,0,0,0,0,0,0,-1,1595,1261,0,0
378,-237,0,0,0,0,0,0,0,0,0,-1,1602,1261,0,0
385,-237,0,0,0,0,0,0,0,0,0,-1,1609,1261,0,0
392,-237,0,0,0,0,0,0,0,0,0,-1,1616,1261,0,0
399,-237,0,0,0,0,0,0,0,0,0,-1,1623,1261,0,0
406,-237,0,0,0,0,0,0,0,0,0,-1,1630,1261,0,0
413,-237,0,0,0,0,0,0,0,0,0,-1,1637,1261,0,0
420,-237,0,0,0,0,0,0,0,0,0,-1,1644,1261,0,0
427,-237,0,0,0,0,0,0,0,0,0,-1,1651,1261,0,0
434,-237,0,0,0,0,0,0,0,0,0,-1,1658,1261,0,0
441,-237,0,0,0,0,0,0,0,0,0,-1,1665,1261,0,0
448,-237,0,0,0,0,0,0,0,0,0,-1,1672,1261,0,0
455,-237,0,0,0,0,0,0,0,0,0,-1,1679,1261,0,0
462,-237,0,0,0,0,0,0,0,0,0,-1,1686,1261,0,0
469,-237,0,0,0,0,0,0,0,0,0,-1,1693,1261,0,0
476,-237,0,0,0,0,0,0,0,0,0,-1,1700,1261,0,0
483,-237,0,0,0,0,0,0,0,0,0,-1,1707,1261,0,0
490,-237,0,0,0,0,0,0,0,0,0,-1,1714,1261,0,0
497,-237,0,0,0,0,0,0,0,0,0,-1,1721,1261,0,0
504,-237,0,0,0,0,0,0,0,0,0,-1,1728,1261,0,0
511,-237,0,0,0,0,0,0,0,0,0,-1,1735,1261,0,0
518,-237,0,0,0,0,0,0,0,0,0,-1,1742,1261,0,0
525,-237,0,0,0,0,0,0,0,0,0,-1,1749,1261,0,0
532,-237,0,0,0,0,0,0,0,0,0,-1,1756,1261,0,0
539,-237,0,0,0,0,0,0,0,0,0,-1,1763,1261,0,0
546,-237,0,0,0,0,0,0,0,0,0,-1,1770,1261,0,0
553,-237,0,0,0,0,0,0,0,0,0,-1,1777,1261,0,0
560,-237,0,0,0,0,0,0,0,0,0,-1,1784,1261,0,0
567,-237,0,0,0,0,0,0,0,0,0,-1,1791,1261,0,0
574,-237,0,0,0,0,0,0,0,0,0,-1,1798,1261,0,0
581,-237,0,0,0,0,0,0,0,0,0,-1,1805,1261,0,0
588,-237,0,0,0,0,0,0,0,0,0,-1,1812,1261,0,0
595,-237,0,0,0,0,0,0,0,0,0,-1,1819,1261,0,0
602,-237,0,0,0,0,0,0,0,0,0,-1,1826,1261,0,0
609,-237,0,0,0,0,0,0,0,0,0,-1,1833,1261,0,0
616,-237,48.8748,2.61426,0.000543992,0.00187247,0.000276714,0.0019278,0.000488659,1.37343,0.00115723,0.0367527,1840,1261,48.8747,-2.61431
623,-237,48.8961,2.67249,0.0028326,0.00400509,-0.000867197,0.00446561,0.00237209,-1.08262,0.00257989,0.0340248,1847,1261,48.8961,-2.67251
630,-237,48.8557,2.63037,0.00498716,0.00611498,-0.0021106,0.0077357,0.00336644,-0.915939,0.0044787,0.0265649,1854,1261,48.8558,-2.6304
637,-237,48.8131,2.61023,0.00618184,0.00722921,-0.00301668,0.00976733,0.00364372,-0.87134,0.00569943,0.0226016,1861,1261,48.8131,-2.61027
644,-237,48.7975,2.552,0.00544911,0.00650829,-0.00245051,0.00848578,0.00347162,-0.891819,0.00492618,0.0451509,1868,1261,48.7975,-2.55195
651,-237,48.7722,2.48535,0,0,0,0,0,0,0,-1,1875,1261,48.7722,-2.48534
658,-237,47.7378,1.80396,0,0,0,0,0,0,0,-1,1882,1261,47.7378,-1.80396
665,-237,47.5048,1.45654,0,0,0,0,0,0,0,-1,1889,1261,47.5048,-1.45657
672,-237,45.3922,1.95618,0,0,0,0,0,0,0,-1,1896,1261,45.3922,-1.95623
679,-237,23.1501,7.37488,0,0,0,0,0,0,0,-1,1903,1261,23.1502,-7.37493
686,-237,36.8348,9.99426,0,0,0,0,0,0,0,-1,1910,1261,36.8349,-9.99424
693,-237,37.2832,9.5011,0,0,0,0,0,0,0,-1,1917,1261,37.2832,-9.50109
700,-237,37.5265,9.10242,0.00129521,0.000734427,-0.000631134,0.00170544,0.000324203,-0.57636,0.00104578,0.0139181,1924,1261,37.5265,-9.10243
707,-237,37.5144,8.62817,0.000865751,0.000231204,-0.000224144,0.00093694,0.000160015,-0.307528,0.00057871,0.0104725,1931,1261,37.5144,-8.62813
714,-237,37.4896,8.15601,0.00014621,-0.000191864,0.00043261,0.000441635,-0.000487289,0.59915,0.000536531,0.0149404,1938,1261,37.4896,-8.15605
721,-237,37.4595,7.74146,-0.000511704,-0.000562142,0.00116854,0.000631892,-0.00170574,0.774609,0.00139629,0.0174653,1945,1261,37.4594,-7.74142
728,-237,37.4806,7.29712,-0.00104576,-0.000652109,0.00183701,0.000998591,-0.00269646,0.838767,0.00220713,0.0163004,1952,1261,37.4806,-7.29711
735,-237,37.4661,6.83594,-0.00144174,-0.000802965,0.00254693,0.00144452,-0.00368923,0.847773,0.00305696,0.0214031,1959,1261,37.466,-6.83592
742,-237,37.4564,6.39465,-0.00170511,-0.000864577,0.00346452,0.00220507,-0.00477476,0.845756,0.00411984,0.0152989,1966,1261,37.4565,-6.39467
749,-237,37.4209,5.98572,-0.00176934,-0.00109239,0.00455704,0.00313872,-0.00600045,0.822468,0.00536204,0.00994269,1973,1261,37.4209,-5.98566
756,-237,37.3584,5.54663,-0.00135727,-0.00148236,0.0057381,0.00431863,-0.00715826,0.779949,0.00669345,0.0171847,1980,1261,37.3584,-5.54669
763,-237,37.1552,5.07349,-0.000312634,-0.00235393,0.00722655,0.00596499,-0.00863156,0.715244,0.00847407,0.0337089,1987,1261,37.1551,-5.07353
770,-237,37.2899,4.39795,0,0,0,0,0,0,0,-1,1994,1261,37.2899,-4.39799
777,-237,37.4906,3.74231,0,0,0,0,0,0,0,-1,2001,1261,37.4906,-3.74226
784,-237,36.3441,1.68591,0,0,0,0,0,0,0,-1,2008,1261,36.3441,-1.68592
791,-237,32.3025,6.03235,0,0,0,0,0,0,0,-1,2015,1261,32.3025,-6.03229
798,-237,0,0,0,0,0,0,0,0,0,-1,2022,1261,0,0
805,-237,0,0,0,0,0,0,0,0,0,-1,2029,1261,0,0
812,-237,0,0,0,0,0,0,0,0,0,-1,2036,1261,0,0
-700,-244,0,0,0,0,0,0,0,0,0,-1,524,1268,0,0
-693,-244,0,0,0,0,0,0,0,0,0,-1,531,1268,0,0
-686,-244,0,0,0,0,0,0,0,0,0,-1,538,1268,0,0
-679,-244,0,0,0,0,0,0,0,0,0,-1,545,1268,0,0
-672,-244,-36.1747,-6.93701,0,0,0,0,0,0,0,-1,552,1268,-36.1747,6.93706
-665,-244,-36.2567,-5.21753,0,0,0,0,0,0,0,-1,559,1268,-36.2567,5.21755
-658,-244,-36.2474,-3.48572,0,0,0,0,0,0,0,-1,566,1268,-36.2474,3.48571
-651,-244,-35.7643,-3.32861,0,0,0,0,0,0,0,-1,573,1268,-35.7643,3.32865
-644,-244,-35.4961,-1.87769,0,0,0,0,0,0,0,-1,580,1268,-35.4961,1.87774
-637,-244,-23.9178,1.25867,0,0,0,0,0,0,0,-1,587,1268,-23.9178,-1.25871
-630,-244,-23.8976,2.00562,0.0198293,-0.000990016,0.0206032,0.0325032,-0.0136639,0.551481,0.0273844,0.0422396,594,1268,-23.8977,-2.00556
-623,-244,-23.6956,2.85205,0.014732,0.00366168,0.0151295,0.025307,-0.00691335,0.610034,0.0195868,0.032204,601,1268,-23.6956,-2.85203
-616,-244,-23.4813,3.43665,0.0107067,0.00541151,0.0104743,0.0188628,-0.00274466,0.661607,0.0135829,0.0173842,608,1268,-23.4813,-3.43659
-609,-244,-23.4875,3.88281,0.00765801,0.00518875,0.00716707,0.013696,-0.000849258,0.700103,0.00942653,0.0151899,615,1268,-23.4875,-3.88286
-602,-244,-23.5024,4.37903,0.00557621,0.00367396,0.00491966,0.00963584,-0.00038568,0.689911,0.00655624,0.0154236,622,1268,-23.5024,-4.37898
-595,-244,-23.5472,4.91431,0.00440762,0.00217847,0.00319277,0.00667477,-8.86838e-05,0.617465,0.0044797,0.0165608,629,1268,-23.5472,-4.91428
-588,-244,-23.5444,5.42615,0.00384631,0.00102722,0.00214099,0.0050001,-0.00012656,0.494283,0.00337637,0.0211641,636,1268,-23.5444,-5.42617
-581,-244,-23.5414,5.92603,0.00362504,0.000322777,0.00142698,0.00415622,-0.000208409,0.356353,0.00284283,0.0184511,643,1268,-23.5415,-5.92601
-574,-244,-23.5809,6.4043,0.00355811,0.000116947,0.000997776,0.00382649,-0.000151431,0.262757,0.00260294,0.012822,650,1268,-23.581,-6.40434
-567,-244,-23.556,6.91858,0.00360334,0.000373371,0.000817121,0.00379829,0.000178421,0.234203,0.00247487,0.0146459,657,1268,-23.556,-6.91857
-560,-244,-23.4774,7.40747,0.00332792,0.000243372,0.000695386,0.00347744,9.3851e-05,0.211794,0.00228765,0.038064,664,1268,-23.4774,-7.40742
-553,-244,-23.375,7.89722,0,0,0,0,0,0,0,-1,671,1268,-23.375,-7.89717
-546,-244,-11.2686,4.41772,0,0,0,0,0,0,0,-1,678,1268,-11.2686,-4.41767
-539,-244,-12.8706,0.3302,0,0,0,0,0,0,0,-1,685,1268,-12.8706,-0.330156
-532,-244,-18.1502,0.816528,0,0,0,0,0,0,0,-1,692,1268,-18.1502,-0.816514
-525,-244,-33.0835,0.693604,0,0,0,0,0,0,0,-1,699,1268,-33.0835,-0.69365
-518,-244,-33.1169,0.668091,0,0,0,0,0,0,0,-1,706,1268,-33.1169,-0.668103
-511,-244,-36.1152,1.10864,0,0,0,0,0,0,0,-1,713,1268,-36.1152,-1.10861
-504,-244,-36.1227,0.918823,0,0,0,0,0,0,0,-1,720,1268,-36.1227,-0.918847
-497,-244,-36.1335,0.849121,0,0,0,0,0,0,0,-1,727,1268,-36.1335,-0.849136
-490,-244,0,0,0,0,0,0,0,0,0,-1,734,1268,0,0
-483,-244,0,0,0,0,0,0,0,0,0,-1,741,1268,0,0
-476,-244,0,0,0,0,0,0,0,0,0,-1,748,1268,0,0
-469,-244,0,0,0,0,0,0,0,0,0,-1,755,1268,0,0
-462,-244,0,0,0,0,0,0,0,0,0,-1,762,1268,0,0
-455,-244,0,0,0,0,0,0,0,0,0,-1,769,1268,0,0
-448,-244,0,0,0,0,0,0,0,0,0,-1,776,1268,0,0
-441,-244,0,0,0,0,0,0,0,0,0,-1,783,1268,0,0
-434,-244,0,0,0,0,0,0,0,0,0,-1,790,1268,0,0
-427,-244,0,0,0,0,0,0,0,0,0,-1,797,1268,0,0
-420,-244,0,0,0,0,0,0,0,0,0,-1,804,1268,0,0
-413,-244,0,0,0,0,0,0,0,0,0,-1,811,1268,0,0
-406,-244,0,0,0,0,0,0,0,0,0,-1,818,1268,0,0
-399,-244,0,0,0,0,0,0,0,0,0,-1,825,1268,0,0
-392,-244,0,0,0,0,0,0,0,0,0,-1,832,1268,0,0
-385,-244,0,0,0,0,0,0,0,0,0,-1,839,1268,0,0
-378,-244,0,0,0,0,0,0,0,0,0,-1,846,1268,0,0
-371,-244,0,0,0,0,0,0,0,0,0,-1,853,1268,0,0
-364,-244,0,0,0,0,0,0,0,0,0,-1,860,1268,0,0
-357,-244,0,0,0,0,0,0,0,0,0,-1,867,1268,0,0
-350,-244,0,0,0,0,0,0,0,0,0,-1,874,1268,0,0
-343,-244,0,0,0,0,0,0,0,0,0,-1,881,1268,0,0
-336,-244,0,0,0,0,0,0,0,0,0,-1,888,1268,0,0
-329,-244,0,0,0,0,0,0,0,0,0,-1,895,1268,0,0
-322,-244,0,0,0,0,0,0,0,0,0,-1,902,1268,0,0
-315,-244,0,0,0,0,0,0,0,0,0,-1,909,1268,0,0
-308,-244,0,0,0,0,0,0,0,0,0,-1,916,1268,0,0
-301,-244,0,0,0,0,0,0,0,0,0,-1,923,1268,0,0
-294,-244,0,0,0,0,0,0,0,0,0,-1,930,1268,0,0
-287,-244,0,0,0,0,0,0,0,0,0,-1,937,1268,0,0
-280,-244,0,0,0,0,0,0,0,0,0,-1,944,1268,0,0
-273,-244,0,0,0,0,0,0,0,0,0,-1,951,1268,0,0
-266,-244,0,0,0,0,0,0,0,0,0,-1,958,1268,0,0
-259,-244,0,0,0,0,0,0,0,0,0,-1,965,1268,0,0
-252,-244,0,0,0,0,0,0,0,0,0,-1,972,1268,0,0
-245,-244,0,0,0,0,0,0,0,0,0,-1,979,1268,0,0
-238,-244,0,0,0,0,0,0,0,0,0,-1,986,1268,0,0
-231,-244,0,0,0,0,0,0,0,0,0,-1,993,1268,0,0
-224,-244,0,0,0,0,0,0,0,0,0,-1,1000,1268,0,0
-217,-244,0,0,0,0,0,0,0,0,0,-1,1007,1268,0,0
-210,-244,0,0,0,0,0,0,0,0,0,-1,1014,1268,0,0
-203,-244,0,0,0,0,0,0,0,0,0,-1,1021,1268,0,0
-196,-244,0,0,0,0,0,0,0,0,0,-1,1028,1268,0,0
-189,-244,0,0,0,0,0,0,0,0,0,-1,1035,1268,0,0
-182,-244,0,0,0,0,0,0,0,0,0,-1,1042,1268,0,0
-175,-244,0,0,0,0,0,0,0,0,0,-1,1049,1268,0,0
-168,-244,0,0,0,0,0,0,0,0,0,-1,1056,1268,0,0
-161,-244,0,0,0,0,0,0,0,0,0,-1,1063,1268,0,0
-154,-244,0,0,0,0,0,0,0,0,0,-1,1070,1268,0,0
-147,-244,0,0,0,0,0,0,0,0,0,-1,1077,1268,0,0
-140,-244,0,0,0,0,0,0,0,0,0,-1,1084,1268,0,0
-133,-244,0,0,0,0,0,0,0,0,0,-1,1091,1268,0,0
-126,-244,0,0,0,0,0,0,0,0,0,-1,1098,1268,0,0
-119,-244,0,0,0,0,0,0,0,0,0,-1,1105,1268,0,0
-112,-244,0,0,0,0,0,0,0,0,0,-1,1112,1268,0,0
-105,-244,0,0,0,0,0,0,0,0,0,-1,1119,1268,0,0
-98,-244,0,0,0,0,0,0,0,0,0,-1,1126,1268,0,0
-91,-244,0,0,0,0,0,0,0,0,0,-1,1133,1268,0,0
-84,-244,0,0,0,0,0,0,0,0,0,-1,1140,1268,0,0
-77,-244,0,0,0,0,0,0,0,0,0,-1,1147,1268,0,0
-70,-244,0,0,0,0,0,0,0,0,0,-1,1154,1268,0,0
-63,-244,0,0,0,0,0,0,0,0,0,-1,1161,1268,0,0
-56,-244,0,0,0,0,0,0,0,0,0,-1,1168,1268,0,0
-49,-244,0,0,0,0,0,0,0,0,0,-1,1175,1268,0,0
-42,-244,0,0,0,0,0,0,0,0,0,-1,1182,1268,0,0
-35,-244,0,0,0,0,0,0,0,0,0,-1,1189,1268,0,0
-28,-244,0,0,0,0,0,0,0,0,0,-1,1196,1268,0,0
-21,-244,0,0,0,0,0,0,0,0,0,-1,1203,1268,0,0
-14,-244,0,0,0,0,0,0,0,0,0,-1,1210,1268,0,0
-7,-244,0,0,0,0,0,0,0,0,0,-1,1217,1268,0,0
0,-244,0,0,0,0,0,0,0,0,0,-1,1224,1268,0,0
7,-244,0,0,0,0,0,0,0,0,0,-1,1231,1268,0,0
14,-244,0,0,0,0,0,0,0,0,0,-1,1238,1268,0,0
21,-244,0,0,0,0,0,0,0,0,0,-1,1245,1268,0,0
28,-244,0,0,0,0,0,0,0,0,0,-1,1252,1268,0,0
35,-244,0,0,0,0,0,0,0,0,0,-1,1259,1268,0,0
42,-244,0,0,0,0,0,0,0,0,0,-1,1266,1268,0,0
49,-244,0,0,0,0,0,0,0,0,0,-1,1273,1268,0,0
56,-244,0,0,0,0,0,0,0,0,0,-1,1280,1268,0,0
63,-244,0,0,0,0,0,0,0,0,0,-1,1287,1268,0,0
70,-244,0,0,0,0,0,0,0,0,0,-1,1294,1268,0,0
77,-244,0,0,0,0,0,0,0,0,0,-1,1301,1268,0,0
84,-244,0,0,0,0,0,0,0,0,0,-1,1308,1268,0,0
91,-244,0,0,0,0,0,0,0,0,0,-1,1315,1268,0,0
98,-244,0,0,0,0,0,0,0,0,0,-1,1322,1268,0,0
105,-244,0,0,0,0,0,0,0,0,0,-1,1329,1268,0,0
112,-244,0,0,0,0,0,0,0,0,0,-1,1336,1268,0,0
119,-244,0,0,0,0,0,0,0,0,0,-1,1343,1268,0,0
126,-244,0,0,0,0,0,0,0,0,0,-1,1350,1268,0,0
133,-244,0,0,0,0,0,0,0,0,0,-1,1357,1268,0,0
140,-244,0,0,0,0,0,0,0,0,0,-1,1364,1268,0,0
147,-244,0,0,0,0,0,0,0,0,0,-1,1371,1268,0,0
154,-244,0,0,0,0,0,0,0,0,0,-1,1378,1268,0,0
161,-244,0,0,0,0,0,0,0,0,0,-1,1385,1268,0,0
168,-244,0,0,0,0,0,0,0,0,0,-1,1392,1268,0,0
175,-244,0,0,0,0,0,0,0,0,0,-1,1399,1268,0,0
182,-244,0,0,0,0,0,0,0,0,0,-1,1406,1268,0,0
189,-244,0,0,0,0,0,0,0,0,0,-1,1413,1268,0,0
196,-244,0,0,0,0,0,0,0,0,0,-1,1420,1268,0,0
203,-244,0,0,0,0,0,0,0,0,0,-1,1427,1268,0,0
210,-244,0,0,0,0,0,0,0,0,0,-1,1434,1268,0,0
217,-244,0,0,0,0,0,0,0,0,0,-1,1441,1268,0,0
224,-244,0,0,0,0,0,0,0,0,0,-1,1448,1268,0,0
231,-244,0,0,0,0,0,0,0,0,0,-1,1455,1268,0,0
238,-244,0,0,0,0,0,0,0,0,0,-1,1462,1268,0,0
245,-244,0,0,0,0,0,0,0,0,0,-1,1469,1268,0,0
252,-244,0,0,0,0,0,0,0,0,0,-1,1476,1268,0,0
259,-244,0,0,0,0,0,0,0,0,0,-1,1483,1268,0,0
266,-244,0,0,0,0,0,0,0,0,0,-1,1490,1268,0,0
273,-244,0,0,0,0,0,0,0,0,0,-1,1497,1268,0,0
280,-244,0,0,0,0,0,0,0,0,0,-1,1504,1268,0,0
287,-244,0,0,0,0,0,0,0,0,0,-1,1511,1268,0,0
294,-244,0,0,0,0,0,0,0,0,0,-1,1518,1268,0,0
301,-244,0,0,0,0,0,0,0,0,0,-1,1525,1268,0,0
308,-244,0,0,0,0,0,0,0,0,0,-1,1532,1268,0,0
315,-244,0,0,0,0,0,0,0,0,0,-1,1539,1268,0,0
322,-244,0,0,0,0,0,0,0,0,0,-1,1546,1268,0,0
329,-244,0,0,0,0,0,0,0,0,0,-1,1553,1268,0,0
336,-244,0,0,0,0,0,0,0,0,0,-1,1560,1268,0,0
343,-244,0,0,0,0,0,0,0,0,0,-1,1567,1268,0,0
350,-244,0,0,0,0,0,0,0,0,0,-1,1574,1268,0,0
357,-244,0,0,0,0,0,0,0,0,0,-1,1581,1268,0,0
364,-244,0,0,0,0,0,0,0,0,0,-1,1588,1268,0,0
371,-244,0,0,0,0,0,0,0,0,0,-1,1595,1268,0,0
378,-244,0,0,0,0,0,0,0,0,0,-1,1602,1268,0,0
385,-244,0,0,0,0,0,0,0,0,0,-1,1609,1268,0,0
392,-244,0,0,0,0,0,0,0,0,0,-1,1616,1268,0,0
399,-244,0,0,0,0,0,0,0,0,0,-1,1623,1268,0,0
406,-244,0,0,0,0,0,0,0,0,0,-1,1630,1268,0,0
413,-244,0,0,0,0,0,0,0,0,0,-1,1637,1268,0,0
420,-244,0,0,0,0,0,0,0,0,0,-1,1644,1268,0,0
427,-244,0,0,0,0,0,0,0,0,0,-1,1651,1268,0,0
434,-244,0,0,0,0,0,0,0,0,0,-1,1658,1268,0,0
441,-244,0,0,0,0,0,0,0,0,0,-1,1665,1268,0,0
448,-244,0,0,0,0,0,0,0,0,0,-1,1672,1268,0,0
455,-244,0,0,0,0,0,0,0,0,0,-1,1679,1268,0,0
462,-244,0,0,0,0,0,0,0,0,0,-1,1686,1268,0,0
469,-244,0,0,0,0,0,0,0,0,0,-1,1693,1268,0,0
476,-244,0,0,0,0,0,0,0,0,0,-1,1700,1268,0,0
483,-244,0,0,0,0,0,0,0,0,0,-1,1707,1268,0,0
490,-244,0,0,0,0,0,0,0,0,0,-1,1714,1268,0,0
497,-244,0,0,0,0,0,0,0,0,0,-1,1721,1268,0,0
504,-244,0,0,0,0,0,0,0,0,0,-1,1728,1268,0,0
511,-244,0,0,0,0,0,0,0,0,0,-1,1735,1268,0,0
518,-244,0,0,0,0,0,0,0,0,0,-1,1742,1268,0,0
525,-244,0,0,0,0,0,0,0,0,0,-1,1749,1268,0,0
532,-244,0,0,0,0,0,0,0,0,0,-1,1756,1268,0,0
539,-244,0,0,0,0,0,0,0,0,0,-1,1763,1268,0,0
546,-244,0,0,0,0,0,0,0,0,0,-1,1770,1268,0,0
553,-244,0,0,0,0,0,0,0,0,0,-1,1777,1268,0,0
560,-244,0,0,0,0,0,0,0,0,0,-1,1784,1268,0,0
567,-244,0,0,0,0,0,0,0,0,0,-1,1791,1268,0,0
574,-244,0,0,0,0,0,0,0,0,0,-1,1798,1268,0,0
581,-244,0,0,0,0,0,0,0,0,0,-1,1805,1268,0,0
588,-244,0,0,0,0,0,0,0,0,0,-1,1812,1268,0,0
595,-244,0,0,0,0,0,0,0,0,0,-1,1819,1268,0,0
602,-244,0,0,0,0,0,0,0,0,0,-1,1826,1268,0,0
609,-244,0,0,0,0,0,0,0,0,0,-1,1833,1268,0,0
616,-244,48.8274,2.42834,0.00180899,0.00309829,-0.000108684,0.00310738,0.00179989,-1.48728,0.00180154,0.0323209,1840,1268,48.8274,-2.42829
623,-244,48.8741,2.58264,0.00487343,0.00624248,-0.00149158,0.0071991,0.00391681,-1.00052,0.00416178,0.0280006,1847,1268,48.8742,-2.58262
630,-244,48.84,2.64758,0.00720975,0.00864858,-0.00267832,0.0107024,0.00515591,-0.916605,0.00618042,0.0264931,1854,1268,48.8399,-2.64758
637,-244,48.8184,2.62488,0.007654,0.00871569,-0.00311525,0.011345,0.00502469,-0.869788,0.00656427,0.0420565,1861,1268,48.8184,-2.62482
644,-244,48.7889,2.52747,0,0,0,0,0,0,0,-1,1868,1268,48.7889,-2.52743
651,-244,47.925,1.77039,0,0,0,0,0,0,0,-1,1875,1268,47.9251,-1.77036
658,-244,47.4067,1.68152,0,0,0,0,0,0,0,-1,1882,1268,47.4067,-1.68158
665,-244,47.3567,0.873901,0,0,0,0,0,0,0,-1,1889,1268,47.3566,-0.873863
672,-244,32.224,3.6123,0,0,0,0,0,0,0,-1,1896,1268,32.224,-3.6123
679,-244,27.2593,7.90649,0,0,0,0,0,0,0,-1,1903,1268,27.2592,-7.9065
686,-244,37.0513,10.2023,0,0,0,0,0,0,0,-1,1910,1268,37.0512,-10.2023
693,-244,37.0245,9.67847,0.00158331,0.000800548,-0.00062352,0.00192811,0.000455753,-0.50513,0.00116363,0.0274213,1917,1268,37.0245,-9.67848
700,-244,37.042,9.13892,0.00143431,0.000362014,-0.00036561,0.0015471,0.000249221,-0.299244,0.000959183,0.0100972,1924,1268,37.042,-9.13886
707,-244,37.045,8.6698,0.000923274,-3.30318e-05,3.61901e-05,0.000924641,-3.43994e-05,0.0377716,0.000628208,0.0105836,1931,1268,37.045,-8.66984
714,-244,37.0774,8.19885,9.53191e-05,-0.000316136,0.000655419,0.00057654,-0.000797357,0.633324,0.000796628,0.0136391,1938,1268,37.0774,-8.19887
721,-244,37.0135,7.77795,-0.000666882,-0.000527595,0.00132818,0.000732761,-0.00192724,0.811592,0.00158653,0.0190243,1945,1268,37.0135,-7.77795
728,-244,36.9968,7.29846,-0.00137031,-0.000531185,0.00195646,0.0010502,-0.00295169,0.891023,0.00239585,0.02471,1952,1268,36.9969,-7.29849
735,-244,36.9849,6.78931,-0.00198585,-0.000641947,0.00266204,0.00143164,-0.00405944,0.909025,0.00328906,0.0287475,1959,1268,36.9849,-6.78931
742,-244,36.9487,6.43567,-0.00246464,-0.000713634,0.00356628,0.00208304,-0.00526131,0.905765,0.0043706,0.0184497,1966,1268,36.9488,-6.43573
749,-244,36.8527,6.09253,-0.0028071,-0.0009392,0.00468995,0.00290889,-0.00665519,0.883682,0.00566127,0.0251297,1973,1268,36.8526,-6.09257
756,-244,36.6931,5.73132,-0.00272037,-0.00132906,0.00583264,0.00384926,-0.0078987,0.844752,0.0069157,0.0332584,1980,1268,36.6931,-5.73137
763,-244,36.6191,5.19019,-0.00200398,-0.00223156,0.00725859,0.00514171,-0.00937725,0.77756,0.00850059,0.0438931,1987,1268,36.6192,-5.19021
770,-244,36.8666,4.25366,0,0,0,0,0,0,0,-1,1994,1268,36.8666,-4.25362
777,-244,37.2579,3.52527,0,0,0,0,0,0,0,-1,2001,1268,37.2579,-3.52532
784,-244,31.7908,5.20081,0,0,0,0,0,0,0,-1,2008,1268,31.7907,-5.20083
791,-244,0,0,0,0,0,0,0,0,0,-1,2015,1268,0,0
798,-244,0,0,0,0,0,0,0,0,0,-1,2022,1268,0,0
805,-244,0,0,0,0,0,0,0,0,0,-1,2029,1268,0,0
812,-244,0,0,0,0,0,0,0,0,0,-1,2036,1268,0,0
-700,-251,0,0,0,0,0,0,0,0,0,-1,524,1275,0,0
-693,-251,0,0,0,0,0,0,0,0,0,-1,531,1275,0,0
-686,-251,0,0,0,0,0,0,0,0,0,-1,538,1275,0,0
-679,-251,0,0,0,0,0,0,0,0,0,-1,545,1275,0,0
-672,-251,0,0,0,0,0,0,0,0,0,-1,552,1275,0,0
-665,-251,-37.6044,-6.22937,0,0,0,0,0,0,0,-1,559,1275,-37.6043,6.22937
-658,-251,-37.3909,-4.9679,0,0,0,0,0,0,0,-1,566,1275,-37.3909,4.96794
-651,-251,-36.9274,-3.65503,0,0,0,0,0,0,0,-1,573,1275,-36.9273,3.65498
-644,-251,-36.8125,-2.30371,0,0,0,0,0,0,0,-1,580,1275,-36.8125,2.3037
-637,-251,-23.6106,0.681885,0,0,0,0,0,0,0,-1,587,1275,-23.6106,-0.681851
-630,-251,-23.7537,1.776,0.0218789,0.00940765,0.0255706,0.0419632,-0.0106766,0.665802,0.0321312,0.0478295,594,1275,-23.7537,-1.77603
-623,-251,-23.3842,2.89734,0.0162595,0.00897004,0.0180454,0.0310246,-0.00579504,0.685751,0.0228609,0.0401154,601,1275,-23.3842,-2.89734
-616,-251,-22.9414,3.41309,0.011765,0.00788981,0.0122798,0.0222591,-0.00260432,0.70715,0.0157793,0.0211435,608,1275,-22.9414,-3.41315
-609,-251,-22.9611,3.86975,0.00856808,0.00630702,0.00834548,0.0158593,-0.000984162,0.718075,0.0109157,0.0198304,615,1275,-22.961,-3.86971
-602,-251,-22.9689,4.39063,0.00628196,0.00431683,0.00562192,0.0110065,-0.00040775,0.698885,0.00747731,0.0150509,622,1275,-22.969,-4.39057
-595,-251,-23.0179,4.90259,0.0047821,0.00265532,0.00366864,0.00753836,-0.000100935,0.644334,0.00505955,0.0140194,629,1275,-23.0179,-4.90259
-588,-251,-23.0306,5.4093,0.00398076,0.00131236,0.00238703,0.00538115,-8.80284e-05,0.530559,0.00361713,0.0157597,636,1275,-23.0306,-5.40933
-581,-251,-23.0388,5.91992,0.0036614,0.000357829,0.00152586,0.00425831,-0.00023908,0.372894,0.00292183,0.0145176,643,1275,-23.0388,-5.91992
-574,-251,-23.057,6.43567,0.00365696,-0.000159652,0.000981152,0.00389442,-0.000397107,0.237451,0.00273826,0.0130268,650,1275,-23.057,-6.43571
-567,-251,-23.056,6.96509,0.00387777,-0.000172491,0.000789385,0.00402619,-0.000320902,0.185839,0.00279723,0.0135709,657,1275,-23.056,-6.96507
-560,-251,-22.9807,7.60303,0.00363316,-0.000307267,0.000681192,0.00374759,-0.000421703,0.16644,0.00265017,0.0354317,664,1275,-22.9807,-7.60303
-553,-251,-22.8262,8.14697,0,0,0,0,0,0,0,-1,671,1275,-22.8262,-8.14694
-546,-251,-12.995,4.5675,0,0,0,0,0,0,0,-1,678,1275,-12.995,-4.56745
-539,-251,-10.7916,0.366333,0,0,0,0,0,0,0,-1,685,1275,-10.7916,-0.366282
-532,-251,-10.7391,-0.00769043,0,0,0,0,0,0,0,-1,692,1275,-10.7391,0.00773227
-525,-251,-29.4286,-0.250244,0,0,0,0,0,0,0,-1,699,1275,-29.4286,0.250266
-518,-251,-32.6981,0.678833,0,0,0,0,0,0,0,-1,706,1275,-32.6981,-0.678787
-511,-251,-29.4731,0.637085,0,0,0,0,0,0,0,-1,713,1275,-29.4731,-0.637025
-504,-251,-30.6428,0.792358,0,0,0,0,0,0,0,-1,720,1275,-30.6427,-0.792335
-497,-251,-36.0684,0.844604,0,0,0,0,0,0,0,-1,727,1275,-36.0683,-0.844643
-490,-251,0,0,0,0,0,0,0,0,0,-1,734,1275,0,0
-483,-251,0,0,0,0,0,0,0,0,0,-1,741,1275,0,0
-476,-251,0,0,0,0,0,0,0,0,0,-1,748,1275,0,0
-469,-251,0,0,0,0,0,0,0,0,0,-1,755,1275,0,0
-462,-251,0,0,0,0,0,0,0,0,0,-1,762,1275,0,0
-455,-251,0,0,0,0,0,0,0,0,0,-1,769,1275,0,0
-448,-251,0,0,0,0,0,0,0,0,0,-1,776,1275,0,0
-441,-251,0,0,0,0,0,0,0,0,0,-1,783,1275,0,0
-434,-251,0,0,0,0,0,0,0,0,0,-1,790,1275,0,0
-427,-251,0,0,0,0,0,0,0,0,0,-1,797,1275,0,0
-420,-251,0,0,0,0,0,0,0,0,0,-1,804,1275,0,0
-413,-251,0,0,0,0,0,0,0,0,0,-1,811,1275,0,0
-406,-251,0,0,0,0,0,0,0,0,0,-1,818,1275,0,0
-399,-251,0,0,0,0,0,0,0,0,0,-1,825,1275,0,0
-392,-251,0,0,0,0,0,0,0,0,0,-1,832,1275,0,0
-385,-251,0,0,0,0,0,0,0,0,0,-1,839,1275,0,0
-378,-251,0,0,0,0,0,0,0,0,0,-1,846,1275,0,0
-371,-251,0,0,0,0,0,0,0,0,0,-1,853,1275,0,0
-364,-251,0,0,0,0,0,0,0,0,0,-1,860,1275,0,0
-357,-251,0,0,0,0,0,0,0,0,0,-1,867,1275,0,0
-350,-251,0,0,0,0,0,0,0,0,0,-1,874,1275,0,0
-343,-251,0,0,0,0,0,0,0,0,0,-1,881,1275,0,0
-336,-251,0,0,0,0,0,0,0,0,0,-1,888,1275,0,0
-329,-251,0,0,0,0,0,0,0,0,0,-1,895,1275,0,0
-322,-251,0,0,0,0,0,0,0,0,0,-1,902,1275,0,0
-315,-251,0,0,0,0,0,0,0,0,0,-1,909,1275,0,0
-308,-251,0,0,0,0,0,0,0,0,0,-1,916,1275,0,0
-301,-251,0,0,0,0,0,0,0,0,0,-1,923,1275,0,0
-294,-251,0,0,0,0,0,0,0,0,0,-1,930,1275,0,0
-287,-251,0,0,0,0,0,0,0,0,0,-1,937,1275,0,0
-280,-251,0,0,0,0,0,0,0,0,0,-1,944,1275,0,0
-273,-251,0,0,0,0,0,0,0,0,0,-1,951,1275,0,0
-266,-251,0,0,0,0,0,0,0,0,0,-1,958,1275,0,0
-259,-251,0,0,0,0,0,0,0,0,0,-1,965,1275,0,0
-252,-251,0,0,0,0,0,0,0,0,0,-1,972,1275,0,0
-245,-251,0,0,0,0,0,0,0,0,0,-1,979,1275,0,0
-238,-251,0,0,0,0,0,0,0,0,0,-1,986,1275,0,0
-231,-251,0,0,0,0,0,0,0,0,0,-1,993,1275,0,0
-224,-251,0,0,0,0,0,0,0,0,0,-1,1000,1275,0,0
-217,-251,0,0,0,0,0,0,0,0,0,-1,1007,1275,0,0
-210,-251,0,0,0,0,0,0,0,0,0,-1,1014,1275,0,0
-203,-251,0,0,0,0,0,0,0,0,0,-1,1021,1275,0,0
-196,-251,0,0,0,0,0,0,0,0,0,-1,1028,1275,0,0
-189,-251,0,0,0,0,0,0,0,0,0,-1,1035,1275,0,0
-182,-251,0,0,0,0,0,0,0,0,0,-1,1042,1275,0,0
-175,-251,0,0,0,0,0,0,0,0,0,-1,1049,1275,0,0
-168,-251,0,0,0,0,0,0,0,0,0,-1,1056,1275,0,0
-161,-251,0,0,0,0,0,0,0,0,0,-1,1063,1275,0,0
-154,-251,0,0,0,0,0,0,0,0,0,-1,1070,1275,0,0
-147,-251,0,0,0,0,0,0,0,0,0,-1,1077,1275,0,0
-140,-251,0,0,0,0,0,0,0,0,0,-1,1084,1275,0,0
-133,-251,0,0,0,0,0,0,0,0,0,-1,1091,1275,0,0
-126,-251,0,0,0,0,0,0,0,0,0,-1,1098,1275,0,0
-119,-251,0,0,0,0,0,0,0,0,0,-1,1105,1275,0,0
-112,-251,0,0,0,0,0,0,0,0,0,-1,1112,1275,0,0
-105,-251,0,0,0,0,0,0,0,0,0,-1,1119,1275,0,0
-98,-251,0,0,0,0,0,0,0,0,0,-1,1126,1275,0,0
-91,-251,0,0,0,0,0,0,0,0,0,-1,1133,1275,0,0
-84,-251,0,0,0,0,0,0,0,0,0,-1,1140,1275,0,0
-77,-251,0,0,0,0,0,0,0,0,0,-1,1147,1275,0,0
-70,-251,0,0,0,0,0,0,0,0,0,-1,1154,1275,0,0
-63,-251,0,0,0,0,0,0,0,0,0,-1,1161,1275,0,0
-56,-251,0,0,0,0,0,0,0,0,0,-1,1168,1275,0,0
-49,-251,0,0,0,0,0,0,0,0,0,-1,1175,1275,0,0
-42,-251,0,0,0,0,0,0,0,0,0,-1,1182,1275,0,0
-35,-251,0,0,0,0,0,0,0,0,0,-1,1189,1275,0,0
-28,-251,0,0,0,0,0,0,0,0,0,-1,1196,1275,0,0
-21,-251,0,0,0,0,0,0,0,0,0,-1,1203,1275,0,0
-14,-251,0,0,0,0,0,0,0,0,0,-1,1210,1275,0,0
-7,-251,0,0,0,0,0,0,0,0,0,-1,1217,1275,0,0
0,-251,0,0,0,0,0,0,0,0,0,-1,1224,1275,0,0
7,-251,0,0,0,0,0,0,0,0,0,-1,1231,1275,0,0
14,-251,0,0,0,0,0,0,0,0,0,-1,1238,1275,0,0
21,-251,0,0,0,0,0,0,0,0,0,-1,1245,1275,0,0
28,-251,0,0,0,0,0,0,0,0,0,-1,1252,1275,0,0
35,-251,0,0,0,0,0,0,0,0,0,-1,1259,1275,0,0
42,-251,0,0,0,0,0,0,0,0,0,-1,1266,1275,0,0
49,-251,0,0,0,0,0,0,0,0,0,-1,1273,1275,0,0
56,-251,0,0,0,0,0,0,0,0,0,-1,1280,1275,0,0
63,-251,0,0,0,0,0,0,0,0,0,-1,1287,1275,0,0
70,-251,0,0,0,0,0,0,0,0,0,-1,1294,1275,0,0
77,-251,0,0,0,0,0,0,0,0,0,-1,1301,1275,0,0
84,-251,0,0,0,0,0,0,0,0,0,-1,1308,1275,0,0
91,-251,0,0,0,0,0,0,0,0,0,-1,1315,1275,0,0
98,-251,0,0,0,0,0,0,0,0,0,-1,1322,1275,0,0
105,-251,0,0,0,0,0,0,0,0,0,-1,1329,1275,0,0
112,-251,0,0,0,0,0,0,0,0,0,-1,1336,1275,0,0
119,-251,0,0,0,0,0,0,0,0,0,-1,1343,1275,0,0
126,-251,0,0,0,0,0,0,0,0,0,-1,1350,1275,0,0
133,-251,0,0,0,0,0,0,0,0,0,-1,1357,1275,0,0
140,-251,0,0,0,0,0,0,0,0,0,-1,1364,1275,0,0
147,-251,0,0,0,0,0,0,0,0,0,-1,1371,1275,0,0
154,-251,0,0,0,0,0,0,0,0,0,-1,1378,1275,0,0
161,-251,0,0,0,0,0,0,0,0,0,-1,1385,1275,0,0
168,-251,0,0,0,0,0,0,0,0,0,-1,1392,1275,0,0
175,-251,0,0,0,0,0,0,0,0,0,-1,1399,1275,0,0
182,-251,0,0,0,0,0,0,0,0,0,-1,1406,1275,0,0
189,-251,0,0,0,0,0,0,0,0,0,-1,1413,1275,0,0
196,-251,0,0,0,0,0,0,0,0,0,-1,1420,1275,0,0
203,-251,0,0,0,0,0,0,0,0,0,-1,1427,1275,0,0
210,-251,0,0,0,0,0,0,0,0,0,-1,1434,1275,0,0
217,-251,0,0,0,0,0,0,0,0,0,-1,1441,1275,0,0
224,-251,0,0,0,0,0,0,0,0,0,-1,1448,1275,0,0
231,-251,0,0,0,0,0,0,0,0,0,-1,1455,1275,0,0
238,-251,0,0,0,0,0,0,0,0,0,-1,1462,1275,0,0
245,-251,0,0,0,0,0,0,0,0,0,-1,1469,1275,0,0
252,-251,0,0,0,0,0,0,0,0,0,-1,1476,1275,0,0
259,-251,0,0,0,0,0,0,0,0,0,-1,1483,1275,0,0
266,-251,0,0,0,0,0,0,0,0,0,-1,1490,1275,0,0
273,-251,0,0,0,0,0,0,0,0,0,-1,1497,1275,0,0
280,-251,0,0,0,0,0,0,0,0,0,-1,1504,1275,0,0
287,-251,0,0,0,0,0,0,0,0,0,-1,1511,1275,0,0
294,-251,0,0,0,0,0,0,0,0,0,-1,1518,1275,0,0
301,-251,0,0,0,0,0,0,0,0,0,-1,1525,1275,0,0
308,-251,0,0,0,0,0,0,0,0,0,-1,1532,1275,0,0
315,-251,0,0,0,0,0,0,0,0,0,-1,1539,1275,0,0
322,-251,0,0,0,0,0,0,0,0,0,-1,1546,1275,0,0
329,-251,0,0,0,0,0,0,0,0,0,-1,1553,1275,0,0
336,-251,0,0,0,0,0,0,0,0,0,-1,1560,1275,0,0
343,-251,0,0,0,0,0,0,0,0,0,-1,1567,1275,0,0
350,-251,0,0,0,0,0,0,0,0,0,-1,1574,1275,0,0
357,-251,0,0,0,0,0,0,0,0,0,-1,1581,1275,0,0
364,-251,0,0,0,0,0,0,0,0,0,-1,1588,1275,0,0
371,-251,0,0,0,0,0,0,0,0,0,-1,1595,1275,0,0
378,-251,0,0,0,0,0,0,0,0,0,-1,1602,1275,0,0
385,-251,0,0,0,0,0,0,0,0,0,-1,1609,1275,0,0
392,-251,0,0,0,0,0,0,0,0,0,-1,1616,1275,0,0
399,-251,0,0,0,0,0,0,0,0,0,-1,1623,1275,0,0
406,-251,0,0,0,0,0,0,0,0,0,-1,1630,1275,0,0
413,-251,0,0,0,0,0,0,0,0,0,-1,1637,1275,0,0
420,-251,0,0,0,0,0,0,0,0,0,-1,1644,1275,0,0
427,-251,0,0,0,0,0,0,0,0,0,-1,1651,1275,0,0
434,-251,0,0,0,0,0,0,0,0,0,-1,1658,1275,0,0
441,-251,0,0,0,0,0,0,0,0,0,-1,1665,1275,0,0
448,-251,0,0,0,0,0,0,0,0,0,-1,1672,1275,0,0
455,-251,0,0,0,0,0,0,0,0,0,-1,1679,1275,0,0
462,-251,0,0,0,0,0,0,0,0,0,-1,1686,1275,0,0
469,-251,0,0,0,0,0,0,0,0,0,-1,1693,1275,0,0
476,-251,0,0,0,0,0,0,0,0,0,-1,1700,1275,0,0
483,-251,0,0,0,0,0,0,0,0,0,-1,1707,1275,0,0
490,-251,0,0,0,0,0,0,0,0,0,-1,1714,1275,0,0
497,-251,0,0,0,0,0,0,0,0,0,-1,1721,1275,0,0
504,-251,0,0,0,0,0,0,0,0,0,-1,1728,1275,0,0
511,-251,0,0,0,0,0,0,0,0,0,-1,1735,1275,0,0
518,-251,0,0,0,0,0,0,0,0,0,-1,1742,1275,0,0
525,-251,0,0,0,0,0,0,0,0,0,-1,1749,1275,0,0
532,-251,0,0,0,0,0,0,0,0,0,-1,1756,1275,0,0
539,-251,0,0,0,0,0,0,0,0,0,-1,1763,1275,0,0
546,-251,0,0,0,0,0,0,0,0,0,-1,1770,1275,0,0
553,-251,0,0,0,0,0,0,0,0,0,-1,1777,1275,0,0
560,-251,0,0,0,0,0,0,0,0,0,-1,1784,1275,0,0
567,-251,0,0,0,0,0,0,0,0,0,-1,1791,1275,0,0
574,-251,0,0,0,0,0,0,0,0,0,-1,1798,1275,0,0
581,-251,0,0,0,0,0,0,0,0,0,-1,1805,1275,0,0
588,-251,0,0,0,0,0,0,0,0,0,-1,1812,1275,0,0
595,-251,0,0,0,0,0,0,0,0,0,-1,1819,1275,0,0
602,-251,0,0,0,0,0,0,0,0,0,-1,1826,1275,0,0
609,-251,48.7842,2.50427,0.000353733,0.00196091,0.000392338,0.00205157,0.000263071,1.3437,0.001289,0.0300416,1833,1275,48.7842,-2.50428
616,-251,48.796,2.51685,0.00411089,0.00601292,-0.000946311,0.00640352,0.00372029,-1.17934,0.0037132,0.0254501,1840,1275,48.796,-2.51685
623,-251,48.8259,2.60352,0.0077128,0.009782,-0.00233156,0.0112982,0.0061966,-0.994215,0.00653322,0.0237739,1847,1275,48.826,-2.60358
630,-251,48.84,2.60559,0.00974025,0.0116123,-0.00315021,0.0139626,0.00738995,-0.92981,0.00806592,0.037941,1854,1275,48.84,-2.60555
637,-251,48.9089,2.55103,0.00914377,0.010162,-0.00307,0.0127648,0.00654096,-0.867568,0.00737052,0.0433354,1861,1275,48.909,-2.55106
644,-251,48.8883,2.44666,0,0,0,0,0,0,0,-1,1868,1275,48.8883,-2.4467
651,-251,48.8611,2.42175,0,0,0,0,0,0,0,-1,1875,1275,48.8611,-2.42178
658,-251,47.2648,1.42944,0,0,0,0,0,0,0,-1,1882,1275,47.2648,-1.42949
665,-251,32.9579,2.60229,0,0,0,0,0,0,0,-1,1889,1275,32.9579,-2.60231
672,-251,26.0721,4.53064,0,0,0,0,0,0,0,-1,1896,1275,26.0721,-4.53063
679,-251,29.1344,8.63782,0,0,0,0,0,0,0,-1,1903,1275,29.1344,-8.63778
686,-251,36.6549,10.095,0,0,0,0,0,0,0,-1,1910,1275,36.6549,-10.0949
693,-251,36.6202,9.64539,0.00190125,0.000352112,-0.000312006,0.00196173,0.000291633,-0.191464,0.00122226,0.0141007,1917,1275,36.6202,-9.64539
700,-251,36.5981,9.15979,0.00165731,-9.64959e-06,-8.2571e-05,0.00166139,-1.37296e-05,-0.0493727,0.0011122,0.00912947,1924,1275,36.5982,-9.15974
707,-251,36.6001,8.67029,0.000963943,-0.000249447,0.000275383,0.00102352,-0.000309021,0.213049,0.000805362,0.011395,1931,1275,36.6001,-8.67027
714,-251,36.6144,8.21741,-1.45844e-05,-0.000383462,0.000818857,0.000640348,-0.00103839,0.674627,0.000978263,0.0137305,1938,1275,36.6144,-8.21738
721,-251,36.5402,7.79932,-0.000906063,-0.000463908,0.0014111,0.000743322,-0.00211329,0.863102,0.00171132,0.0203074,1945,1275,36.5402,-7.79932
728,-251,36.5184,7.36963,-0.00177758,-0.000426486,0.00200478,0.00101351,-0.00321758,0.947907,0.00255091,0.0237456,1952,1275,36.5184,-7.36957
735,-251,36.5378,6.83765,-0.00257701,-0.000524262,0.00270569,0.00134318,-0.00444445,0.966683,0.00349775,0.0202434,1959,1275,36.5378,-6.8376
742,-251,36.4755,6.48938,-0.00325415,-0.000610563,0.0035865,0.00188996,-0.00575467,0.961949,0.00459779,0.019276,1966,1275,36.4755,-6.4894
749,-251,36.2754,6.18323,-0.00387149,-0.000827313,0.00472639,0.00261603,-0.00731484,0.941175,0.00594367,0.0377874,1973,1275,36.2754,-6.1832
756,-251,36.0789,5.88489,0,0,0,0,0,0,0,-1,1980,1275,36.0788,-5.88487
763,-251,36.1323,5.38538,0,0,0,0,0,0,0,-1,1987,1275,36.1323,-5.38541
770,-251,37.6879,3.92712,0,0,0,0,0,0,0,-1,1994,1275,37.6878,-3.92713
777,-251,31.5731,4.33252,0,0,0,0,0,0,0,-1,2001,1275,31.5731,-4.33251
784,-251,32.0776,5.78247,0,0,0,0,0,0,0,-1,2008,1275,32.0776,-5.78247
791,-251,0,0,0,0,0,0,0,0,0,-1,2015,1275,0,0
798,-251,0,0,0,0,0,0,0,0,0,-1,2022,1275,0,0
805,-251,0,0,0,0,0,0,0,0,0,-1,2029,1275,0,0
812,-251,0,0,0,0,0,0,0,0,0,-1,2036,1275,0,0
-700,-258,0,0,0,0,0,0,0,0,0,-1,524,1282,0,0
-693,-258,0,0,0,0,0,0,0,0,0,-1,531,1282,0,0
-686,-258,0,0,0,0,0,0,0,0,0,-1,538,1282,0,0
-679,-258,0,0,0,0,0,0,0,0,0,-1,545,1282,0,0
-672,-258,0,0,0,0,0,0,0,0,0,-1,552,1282,0,0
-665,-258,-38.6733,-7.33057,0,0,0,0,0,0,0,-1,559,1282,-38.6733,7.33057
-658,-258,-38.2619,-5.3175,0,0,0,0,0,0,0,-1,566,1282,-38.2619,5.31746
-651,-258,-38.0291,-3.97766,0,0,0,0,0,0,0,-1,573,1282,-38.0291,3.97769
-644,-258,-37.8869,-2.79016,0,0,0,0,0,0,0,-1,580,1282,-37.8869,2.79021
-637,-258,-23.9147,1.9967,0,0,0,0,0,0,0,-1,587,1282,-23.9147,-1.99675
-630,-258,-23.513,1.86951,0,0,0,0,0,0,0,-1,594,1282,-23.513,-1.86955
-623,-258,-22.3187,2.73181,0,0,0,0,0,0,0,-1,601,1282,-22.3187,-2.73185
-616,-258,-22.4247,3.32629,0.0135794,0.00979365,0.0134682,0.0252871,-0.00191403,0.715584,0.0175309,0.0341686,608,1282,-22.4247,-3.3263
-609,-258,-22.4269,3.89514,0.00956168,0.00715791,0.00917739,0.0176155,-0.000895959,0.720288,0.0120535,0.0167776,615,1282,-22.4269,-3.89515
-602,-258,-22.4557,4.40137,0.00688293,0.00497471,0.00621458,0.0122162,-0.000358566,0.709229,0.00826626,0.0139499,622,1282,-22.4557,-4.40142
-595,-258,-22.4955,4.91699,0.00508005,0.00316907,0.0040915,0.00832614,-7.70264e-05,0.670688,0.00557662,0.0126441,629,1282,-22.4955,-4.91697
-588,-258,-22.5148,5.43884,0.00402899,0.0016872,0.00264537,0.00575101,-3.48235e-05,0.577048,0.00384567,0.0139854,636,1282,-22.5148,-5.43881
-581,-258,-22.5165,5.92798,0.00353891,0.000554613,0.00166575,0.0042831,-0.000189584,0.420159,0.00292065,0.0145288,643,1282,-22.5165,-5.92803
-574,-258,-22.5132,6.42419,0.00346835,-0.000220864,0.00100326,0.00372353,-0.000476044,0.249069,0.00265529,0.0144129,650,1282,-22.5132,-6.42425
-567,-258,-22.5485,6.98987,0.00381425,-0.000546622,0.000789304,0.00395272,-0.000685087,0.17366,0.00289069,0.0143634,657,1282,-22.5485,-6.98985
-560,-258,-22.5314,7.51147,0.00380897,-0.000831837,0.000681452,0.00390697,-0.000929832,0.142823,0.00296362,0.0382869,664,1282,-22.5314,-7.51142
-553,-258,-22.4461,8.01062,0,0,0,0,0,0,0,-1,671,1282,-22.4461,-8.01067
-546,-258,-14.2231,5.92029,0,0,0,0,0,0,0,-1,678,1282,-14.2231,-5.92028
-539,-258,-10.2228,4.05823,0,0,0,0,0,0,0,-1,685,1282,-10.2228,-4.05823
-532,-258,-10.2173,-0.353882,0,0,0,0,0,0,0,-1,692,1282,-10.2173,0.353836
-525,-258,-21.8661,-1.5929,0,0,0,0,0,0,0,-1,699,1282,-21.8661,1.59285
-518,-258,-29.2484,0.123169,0,0,0,0,0,0,0,-1,706,1282,-29.2484,-0.123186
-511,-258,-23.5061,1.16833,0,0,0,0,0,0,0,-1,713,1282,-23.5061,-1.16833
-504,-258,-22.9178,0.484131,0,0,0,0,0,0,0,-1,720,1282,-22.9178,-0.484106
-497,-258,-17.8047,0.730469,0,0,0,0,0,0,0,-1,727,1282,-17.8048,-0.730489
-490,-258,-15.4346,0.632935,0,0,0,0,0,0,0,-1,734,1282,-15.4346,-0.632917
-483,-258,0,0,0,0,0,0,0,0,0,-1,741,1282,0,0
-476,-258,0,0,0,0,0,0,0,0,0,-1,748,1282,0,0
-469,-258,0,0,0,0,0,0,0,0,0,-1,755,1282,0,0
-462,-258,0,0,0,0,0,0,0,0,0,-1,762,1282,0,0
-455,-258,0,0,0,0,0,0,0,0,0,-1,769,1282,0,0
-448,-258,0,0,0,0,0,0,0,0,0,-1,776,1282,0,0
-441,-258,0,0,0,0,0,0,0,0,0,-1,783,1282,0,0
-434,-258,0,0,0,0,0,0,0,0,0,-1,790,1282,0,0
-427,-258,0,0,0,0,0,0,0,0,0,-1,797,1282,0,0
-420,-258,0,0,0,0,0,0,0,0,0,-1,804,1282,0,0
-413,-258,0,0,0,0,0,0,0,0,0,-1,811,1282,0,0
-406,-258,0,0,0,0,0,0,0,0,0,-1,818,1282,0,0
-399,-258,0,0,0,0,0,0,0,0,0,-1,825,1282,0,0
-392,-258,0,0,0,0,0,0,0,0,0,-1,832,1282,0,0
-385,-258,0,0,0,0,0,0,0,0,0,-1,839,1282,0,0
-378,-258,0,0,0,0,0,0,0,0,0,-1,846,1282,0,0
-371,-258,0,0,0,0,0,0,0,0,0,-1,853,1282,0,0
-364,-258,0,0,0,0,0,0,0,0,0,-1,860,1282,0,0
-357,-258,0,0,0,0,0,0,0,0,0,-1,867,1282,0,0
-350,-258,0,0,0,0,0,0,0,0,0,-1,874,1282,0,0
-343,-258,0,0,0,0,0,0,0,0,0,-1,881,1282,0,0
-336,-258,0,0,0,0,0,0,0,0,0,-1,888,1282,0,0
-329,-258,0,0,0,0,0,0,0,0,0,-1,895,1282,0,0
-322,-258,0,0,0,0,0,0,0,0,0,-1,902,1282,0,0
-315,-258,0,0,0,0,0,0,0,0,0,-1,909,1282,0,0
-308,-258,0,0,0,0,0,0,0,0,0,-1,916,1282,0,0
-301,-258,0,0,0,0,0,0,0,0,0,-1,923,1282,0,0
-294,-258,0,0,0,0,0,0,0,0,0,-1,930,1282,0,0
-287,-258,0,0,0,0,0,0,0,0,0,-1,937,1282,0,0
-280,-258,0,0,0,0,0,0,0,0,0,-1,944,1282,0,0
-273,-258,0,0,0,0,0,0,0,0,0,-1,951,1282,0,0
-266,-258,0,0,0,0,0,0,0,0,0,-1,958,1282,0,0
-259,-258,0,0,0,0,0,0,0,0,0,-1,965,1282,0,0
-252,-258,0,0,0,0,0,0,0,0,0,-1,972,1282,0,0
-245,-258,0,0,0,0,0,0,0,0,0,-1,979,1282,0,0
-238,-258,0,0,0,0,0,0,0,0,0,-1,986,1282,0,0
-231,-258,0,0,0,0,0,0,0,0,0,-1,993,1282,0,0
-224,-258,0,0,0,0,0,0,0,0,0,-1,1000,1282,0,0
-217,-258,0,0,0,0,0,0,0,0,0,-1,1007,1282,0,0
-210,-258,0,0,0,0,0,0,0,0,0,-1,1014,1282,0,0
-203,-258,0,0,0,0,0,0,0,0,0,-1,1021,1282,0,0
-196,-258,0,0,0,0,0,0,0,0,0,-1,1028,1282,0,0
-189,-258,0,0,0,0,0,0,0,0,0,-1,1035,1282,0,0
-182,-258,0,0,0,0,0,0,0,0,0,-1,1042,1282,0,0
-175,-258,0,0,0,0,0,0,0,0,0,-1,1049,1282,0,0
-168,-258,0,0,0,0,0,0,0,0,0,-1,1056,1282,0,0
-161,-258,0,0,0,0,0,0,0,0,0,-1,1063,1282,0,0
-154,-258,0,0,0,0,0,0,0,0,0,-1,1070,1282,0,0
-147,-258,0,0,0,0,0,0,0,0,0,-1,1077,1282,0,0
-140,-258,0,0,0,0,0,0,0,0,0,-1,1084,1282,0,0
-133,-258,0,0,0,0,0,0,0,0,0,-1,1091,1282,0,0
-126,-258,0,0,0,0,0,0,0,0,0,-1,1098,1282,0,0
-119,-258,0,0,0,0,0,0,0,0,0,-1,1105,1282,0,0
-112,-258,0,0,0,0,0,0,0,0,0,-1,1112,1282,0,0
-105,-258,0,0,0,0,0,0,0,0,0,-1,1119,1282,0,0
-98,-258,0,0,0,0,0,0,0,0,0,-1,1126,1282,0,0
-91,-258,0,0,0,0,0,0,0,0,0,-1,1133,1282,0,0
-84,-258,0,0,0,0,0,0,0,0,0,-1,1140,1282,0,0
-77,-258,0,0,0,0,0,0,0,0,0,-1,1147,1282,0,0
-70,-258,0,0,0,0,0,0,0,0,0,-1,1154,1282,0,0
-63,-258,0,0,0,0,0,0,0,0,0,-1,1161,1282,0,0
-56,-258,0,0,0,0,0,0,0,0,0,-1,1168,1282,0,0
-49,-258,0,0,0,0,0,0,0,0,0,-1,1175,1282,0,0
-42,-258,0,0,0,0,0,0,0,0,0,-1,1182,1282,0,0
-35,-258,0,0,0,0,0,0,0,0,0,-1,1189,1282,0,0
-28,-258,0,0,0,0,0,0,0,0,0,-1,1196,1282,0,0
-21,-258,0,0,0,0,0,0,0,0,0,-1,1203,1282,0,0
-14,-258,0,0,0,0,0,0,0,0,0,-1,1210,1282,0,0
-7,-258,0,0,0,0,0,0,0,0,0,-1,1217,1282,0,0
0,-258,0,0,0,0,0,0,0,0,0,-1,1224,1282,0,0
7,-258,0,0,0,0,0,0,0,0,0,-1,1231,1282,0,0
14,-258,0,0,0,0,0,0,0,0,0,-1,1238,1282,0,0
21,-258,0,0,0,0,0,0,0,0,0,-1,1245,1282,0,0
28,-258,0,0,0,0,0,0,0,0,0,-1,1252,1282,0,0
35,-258,0,0,0,0,0,0,0,0,0,-1,1259,1282,0,0
42,-258,0,0,0,0,0,0,0,0,0,-1,1266,1282,0,0
49,-258,0,0,0,0,0,0,0,0,0,-1,1273,1282,0,0
56,-258,0,0,0,0,0,0,0,0,0,-1,1280,1282,0,0
63,-258,0,0,0,0,0,0,0,0,0,-1,1287,1282,0,0
70,-258,0,0,0,0,0,0,0,0,0,-1,1294,1282,0,0
77,-258,0,0,0,0,0,0,0,0,0,-1,1301,1282,0,0
84,-258,0,0,0,0,0,0,0,0,0,-1,1308,1282,0,0
91,-258,0,0,0,0,0,0,0,0,0,-1,1315,1282,0,0
98,-258,0,0,0,0,0,0,0,0,0,-1,1322,1282,0,0
105,-258,0,0,0,0,0,0,0,0,0,-1,1329,1282,0,0
112,-258,0,0,0,0,0,0,0,0,0,-1,1336,1282,0,0
119,-258,0,0,0,0,0,0,0,0,0,-1,1343,1282,0,0
126,-258,0,0,0,0,0,0,0,0,0,-1,1350,1282,0,0
133,-258,0,0,0,0,0,0,0,0,0,-1,1357,1282,0,0
140,-258,0,0,0,0,0,0,0,0,0,-1,1364,1282,0,0
147,-258,0,0,0,0,0,0,0,0,0,-1,1371,1282,0,0
154,-258,0,0,0,0,0,0,0,0,0,-1,1378,1282,0,0
161,-258,0,0,0,0,0,0,0,0,0,-1,1385,1282,0,0
168,-258,0,0,0,0,0,0,0,0,0,-1,1392,1282,0,0
175,-258,0,0,0,0,0,0,0,0,0,-1,1399,1282,0,0
182,-258,0,0,0,0,0,0,0,0,0,-1,1406,1282,0,0
189,-258,0,0,0,0,0,0,0,0,0,-1,1413,1282,0,0
196,-258,0,0,0,0,0,0,0,0,0,-1,1420,1282,0,0
203,-258,0,0,0,0,0,0,0,0,0,-1,1427,1282,0,0
210,-258,0,0,0,0,0,0,0,0,0,-1,1434,1282,0,0
217,-258,0,0,0,0,0,0,0,0,0,-1,1441,1282,0,0
224,-258,0,0,0,0,0,0,0,0,0,-1,1448,1282,0,0
231,-258,0,0,0,0,0,0,0,0,0,-1,1455,1282,0,0
238,-258,0,0,0,0,0,0,0,0,0,-1,1462,1282,0,0
245,-258,0,0,0,0,0,0,0,0,0,-1,1469,1282,0,0
252,-258,0,0,0,0,0,0,0,0,0,-1,1476,1282,0,0
259,-258,0,0,0,0,0,0,0,0,0,-1,1483,1282,0,0
266,-258,0,0,0,0,0,0,0,0,0,-1,1490,1282,0,0
273,-258,0,0,0,0,0,0,0,0,0,-1,1497,1282,0,0
280,-258,0,0,0,0,0,0,0,0,0,-1,1504,1282,0,0
287,-258,0,0,0,0,0,0,0,0,0,-1,1511,1282,0,0
294,-258,0,0,0,0,0,0,0,0,0,-1,1518,1282,0,0
301,-258,0,0,0,0,0,0,0,0,0,-1,1525,1282,0,0
308,-258,0,0,0,0,0,0,0,0,0,-1,1532,1282,0,0
315,-258,0,0,0,0,0,0,0,0,0,-1,1539,1282,0,0
322,-258,0,0,0,0,0,0,0,0,0,-1,1546,1282,0,0
329,-258,0,0,0,0,0,0,0,0,0,-1,1553,1282,0,0
336,-258,0,0,0,0,0,0,0,0,0,-1,1560,1282,0,0
343,-258,0,0,0,0,0,0,0,0,0,-1,1567,1282,0,0
350,-258,0,0,0,0,0,0,0,0,0,-1,1574,1282,0,0
357,-258,0,0,0,0,0,0,0,0,0,-1,1581,1282,0,0
364,-258,0,0,0,0,0,0,0,0,0,-1,1588,1282,0,0
371,-258,0,0,0,0,0,0,0,0,0,-1,1595,1282,0,0
378,-258,0,0,0,0,0,0,0,0,0,-1,1602,1282,0,0
385,-258,0,0,0,0,0,0,0,0,0,-1,1609,1282,0,0
392,-258,0,0,0,0,0,0,0,0,0,-1,1616,1282,0,0
399,-258,0,0,0,0,0,0,0,0,0,-1,1623,1282,0,0
406,-258,0,0,0,0,0,0,0,0,0,-1,1630,1282,0,0
413,-258,0,0,0,0,0,0,0,0,0,-1,1637,1282,0,0
420,-258,0,0,0,0,0,0,0,0,0,-1,1644,1282,0,0
427,-258,0,0,0,0,0,0,0,0,0,-1,1651,1282,0,0
434,-258,0,0,0,0,0,0,0,0,0,-1,1658,1282,0,0
441,-258,0,0,0,0,0,0,0,0,0,-1,1665,1282,0,0
448,-258,0,0,0,0,0,0,0,0,0,-1,1672,1282,0,0
455,-258,0,0,0,0,0,0,0,0,0,-1,1679,1282,0,0
462,-258,0,0,0,0,0,0,0,0,0,-1,1686,1282,0,0
469,-258,0,0,0,0,0,0,0,0,0,-1,1693,1282,0,0
476,-258,0,0,0,0,0,0,0,0,0,-1,1700,1282,0,0
483,-258,0,0,0,0,0,0,0,0,0,-1,1707,1282,0,0
490,-258,0,0,0,0,0,0,0,0,0,-1,1714,1282,0,0
497,-258,0,0,0,0,0,0,0,0,0,-1,1721,1282,0,0
504,-258,0,0,0,0,0,0,0,0,0,-1,1728,1282,0,0
511,-258,0,0,0,0,0,0,0,0,0,-1,1735,1282,0,0
518,-258,0,0,0,0,0,0,0,0,0,-1,1742,1282,0,0
525,-258,0,0,0,0,0,0,0,0,0,-1,1749,1282,0,0
532,-258,0,0,0,0,0,0,0,0,0,-1,1756,1282,0,0
539,-258,0,0,0,0,0,0,0,0,0,-1,1763,1282,0,0
546,-258,0,0,0,0,0,0,0,0,0,-1,1770,1282,0,0
553,-258,0,0,0,0,0,0,0,0,0,-1,1777,1282,0,0
560,-258,0,0,0,0,0,0,0,0,0,-1,1784,1282,0,0
567,-258,0,0,0,0,0,0,0,0,0,-1,1791,1282,0,0
574,-258,0,0,0,0,0,0,0,0,0,-1,1798,1282,0,0
581,-258,0,0,0,0,0,0,0,0,0,-1,1805,1282,0,0
588,-258,0,0,0,0,0,0,0,0,0,-1,1812,1282,0,0
595,-258,0,0,0,0,0,0,0,0,0,-1,1819,1282,0,0
602,-258,0,0,0,0,0,0,0,0,0,-1,1826,1282,0,0
609,-258,48.85,2.58337,0.00285398,0.00570542,-0.00054644,0.00580655,0.00275285,-1.38779,0.00335392,0.023984,1833,1282,48.8499,-2.58337
616,-258,48.792,2.59949,0.00759197,0.0108766,-0.00203216,0.0118471,0.00662146,-1.12525,0.00685576,0.0229564,1840,1282,48.792,-2.59952
623,-258,48.7622,2.58643,0.0107615,0.0140343,-0.00303847,0.015849,0.00894678,-1.03241,0.00917577,0.034346,1847,1282,48.7622,-2.5864
630,-258,48.8649,2.49207,0.0113831,0.014142,-0.0032851,0.0163255,0.00919956,-0.984177,0.00945085,0.0456556,1854,1282,48.8649,-2.49203
637,-258,48.8916,2.42175,0.00976896,0.0114197,-0.00289935,0.0136089,0.0075798,-0.92407,0.00787408,0.0473066,1861,1282,48.8916,-2.42171
644,-258,49.0807,2.46399,0,0,0,0,0,0,0,-1,1868,1282,49.0807,-2.464
651,-258,48.6027,2.66138,0,0,0,0,0,0,0,-1,1875,1282,48.6027,-2.66142
658,-258,45.4424,3.1405,0,0,0,0,0,0,0,-1,1882,1282,45.4423,-3.14046
665,-258,35.4747,1.1864,0,0,0,0,0,0,0,-1,1889,1282,35.4747,-1.18637
672,-258,22.703,2.80957,0,0,0,0,0,0,0,-1,1896,1282,22.703,-2.80962
679,-258,26.8693,8.19543,0,0,0,0,0,0,0,-1,1903,1282,26.8692,-8.19548
686,-258,36.2218,10.131,0,0,0,0,0,0,0,-1,1910,1282,36.2218,-10.131
693,-258,36.1874,9.64294,0.00141884,0.000177722,-8.10289e-05,0.00142411,0.000172454,-0.0649195,0.000897463,0.0133386,1917,1282,36.1874,-9.643
700,-258,36.157,9.15601,0.00116544,-5.93466e-05,0.000116867,0.00117649,-7.0398e-05,0.0942845,0.000808815,0.00883513,1924,1282,36.1569,-9.15598
707,-258,36.1495,8.69385,0.000505105,-0.000209167,0.00045926,0.000729747,-0.000433809,0.454922,0.000678984,0.0112752,1931,1282,36.1496,-8.69388
714,-258,36.1514,8.24841,-0.000383508,-0.000302778,0.000965612,0.000623312,-0.0013096,0.806287,0.00113917,0.0116666,1938,1282,36.1513,-8.24845
721,-258,36.1237,7.7782,-0.00123299,-0.000378744,0.00152264,0.000775546,-0.00238728,0.922141,0.00190345,0.0180123,1945,1282,36.1236,-7.7782
728,-258,36.0654,7.35962,-0.00216003,-0.00041162,0.00212089,0.00100817,-0.00357982,0.980882,0.00278413,0.0176517,1952,1282,36.0654,-7.35965
735,-258,36.0959,6.89111,-0.00313559,-0.000531448,0.00279535,0.00125021,-0.00491724,1.00335,0.00376474,0.0167376,1959,1282,36.0959,-6.89106
742,-258,36.0604,6.46899,-0.004087,-0.000678185,0.00357991,0.00158235,-0.00634753,1.00757,0.00484603,0.0190841,1966,1282,36.0605,-6.46894
749,-258,35.9231,6.13623,-0.00509114,-0.000904163,0.00463723,0.00209024,-0.00808554,0.997429,0.00620558,0.0403602,1973,1282,35.9231,-6.13626
756,-258,35.8334,5.66943,0,0,0,0,0,0,0,-1,1980,1282,35.8334,-5.66947
763,-258,34.3058,5.43958,0,0,0,0,0,0,0,-1,1987,1282,34.3058,-5.43955
770,-258,35.0776,4.69446,0,0,0,0,0,0,0,-1,1994,1282,35.0776,-4.6944
777,-258,31.912,4.83093,0,0,0,0,0,0,0,-1,2001,1282,31.912,-4.8309
784,-258,32.6525,6.43091,0,0,0,0,0,0,0,-1,2008,1282,32.6525,-6.43091
791,-258,0,0,0,0,0,0,0,0,0,-1,2015,1282,0,0
798,-258,0,0,0,0,0,0,0,0,0,-1,2022,1282,0,0
805,-258,0,0,0,0,0,0,0,0,0,-1,2029,1282,0,0
812,-258,0,0,0,0,0,0,0,0,0,-1,2036,1282,0,0
-700,-265,0,0,0,0,0,0,0,0,0,-1,524,1289,0,0
-693,-265,0,0,0,0,0,0,0,0,0,-1,531,1289,0,0
-686,-265,0,0,0,0,0,0,0,0,0,-1,538,1289,0,0
-679,-265,0,0,0,0,0,0,0,0,0,-1,545,1289,0,0
-672,-265,0,0,0,0,0,0,0,0,0,-1,552,1289,0,0
-665,-265,-22.1805,0.142822,0,0,0,0,0,0,0,-1,559,1289,-22.1805,-0.142782
-658,-265,-21.2094,0.122192,0,0,0,0,0,0,0,-1,566,1289,-21.2094,-0.122208
-651,-265,-20.4794,0.275879,0,0,0,0,0,0,0,-1,573,1289,-20.4794,-0.275842
-644,-265,-24.5891,2.23987,0,0,0,0,0,0,0,-1,580,1289,-24.5891,-2.23987
-637,-265,-24.1727,1.51135,0,0,0,0,0,0,0,-1,587,1289,-24.1727,-1.51131
-630,-265,-21.9163,2.20374,0,0,0,0,0,0,0,-1,594,1289,-21.9163,-2.20379
-623,-265,-21.8281,2.51074,0,0,0,0,0,0,0,-1,601,1289,-21.8281,-2.51074
-616,-265,-21.8666,3.01147,0.0148353,0.0111293,0.0145344,0.0276343,-0.00166978,0.721995,0.0190039,0.0424649,608,1289,-21.8666,-3.01152
-609,-265,-21.9374,3.88782,0.0102847,0.00815467,0.00985563,0.0191327,-0.000693333,0.731577,0.0129924,0.018887,615,1289,-21.9375,-3.88781
-602,-265,-21.9639,4.42786,0.00729115,0.00574933,0.00668967,0.0132542,-0.0002137,0.728032,0.00890821,0.0140828,622,1289,-21.9639,-4.4278
-595,-265,-21.9775,4.95715,0.00525583,0.00377916,0.00441964,0.00899839,3.6608e-05,0.702634,0.00598676,0.0123899,629,1289,-21.9775,-4.95714
-588,-265,-21.9955,5.46545,0.00400414,0.00216954,0.00283661,0.00606808,0.000105599,0.629016,0.00401065,0.0114498,636,1289,-21.9956,-5.46542
-581,-265,-21.9984,5.95251,0.00332738,0.000871813,0.00173743,0.00422706,-2.78724e-05,0.477806,0.00282738,0.0124719,643,1289,-21.9984,-5.95251
-574,-265,-22.027,6.48914,0.00308381,-0.000142743,0.000947886,0.00334167,-0.000400602,0.265609,0.00237261,0.0141274,650,1289,-22.027,-6.48908
-567,-265,-22.0771,7.03162,0.00338377,-0.000796876,0.000684733,0.00349306,-0.000906169,0.158279,0.00268228,0.0194477,657,1289,-22.0772,-7.03161
-560,-265,-22.1068,7.55005,0.00358933,-0.0013668,0.000600558,0.00366107,-0.00143853,0.118883,0.00303603,0.0219133,664,1289,-22.1068,-7.55008
-553,-265,-21.9875,8.00134,0,0,0,0,0,0,0,-1,671,1289,-21.9875,-8.00134
-546,-265,-21.1743,8.77881,0,0,0,0,0,0,0,-1,678,1289,-21.1743,-8.77881
-539,-265,-13.7668,6.39917,0,0,0,0,0,0,0,-1,685,1289,-13.7668,-6.39915
-532,-265,-8.53998,3.41467,0,0,0,0,0,0,0,-1,692,1289,-8.53996,-3.41473
-525,-265,-12.1317,0.514648,0,0,0,0,0,0,0,-1,699,1289,-12.1317,-0.514634
-518,-265,-24.1604,0.712402,0,0,0,0,0,0,0,-1,706,1289,-24.1604,-0.712425
-511,-265,-23.233,0.791626,0,0,0,0,0,0,0,-1,713,1289,-23.233,-0.791617
-504,-265,-22.3056,0.87085,0,0,0,0,0,0,0,-1,720,1289,-22.3056,-0.87081
-497,-265,-18.689,-0.278442,0,0,0,0,0,0,0,-1,727,1289,-18.689,0.278423
-490,-265,-15.1696,0.492676,0,0,0,0,0,0,0,-1,734,1289,-15.1696,-0.492688
-483,-265,0,0,0,0,0,0,0,0,0,-1,741,1289,0,0
-476,-265,0,0,0,0,0,0,0,0,0,-1,748,1289,0,0
-469,-265,0,0,0,0,0,0,0,0,0,-1,755,1289,0,0
-462,-265,0,0,0,0,0,0,0,0,0,-1,762,1289,0,0
-455,-265,0,0,0,0,0,0,0,0,0,-1,769,1289,0,0
-448,-265,0,0,0,0,0,0,0,0,0,-1,776,1289,0,0
-441,-265,0,0,0,0,0,0,0,0,0,-1,783,1289,0,0
-434,-265,0,0,0,0,0,0,0,0,0,-1,790,1289,0,0
-427,-265,0,0,0,0,0,0,0,0,0,-1,797,1289,0,0
-420,-265,0,0,0,0,0,0,0,0,0,-1,804,1289,0,0
-413,-265,0,0,0,0,0,0,0,0,0,-1,811,1289,0,0
-406,-265,0,0,0,0,0,0,0,0,0,-1,818,1289,0,0
-399,-265,0,0,0,0,0,0,0,0,0,-1,825,1289,0,0
-392,-265,0,0,0,0,0,0,0,0,0,-1,832,1289,0,0
-385,-265,0,0,0,0,0,0,0,0,0,-1,839,1289,0,0
-378,-265,0,0,0,0,0,0,0,0,0,-1,846,1289,0,0
-371,-265,0,0,0,0,0,0,0,0,0,-1,853,1289,0,0
-364,-265,0,0,0,0,0,0,0,0,0,-1,860,1289,0,0
-357,-265,0,0,0,0,0,0,0,0,0,-1,867,1289,0,0
-350,-265,0,0,0,0,0,0,0,0,0,-1,874,1289,0,0
-343,-265,0,0,0,0,0,0,0,0,0,-1,881,1289,0,0
-336,-265,0,0,0,0,0,0,0,0,0,-1,888,1289,0,0
-329,-265,0,0,0,0,0,0,0,0,0,-1,895,1289,0,0
-322,-265,0,0,0,0,0,0,0,0,0,-1,902,1289,0,0
-315,-265,0,0,0,0,0,0,0,0,0,-1,909,1289,0,0
-308,-265,0,0,0,0,0,0,0,0,0,-1,916,1289,0,0
-301,-265,0,0,0,0,0,0,0,0,0,-1,923,1289,0,0
-294,-265,0,0,0,0,0,0,0,0,0,-1,930,1289,0,0
-287,-265,0,0,0,0,0,0,0,0,0,-1,937,1289,0,0
-280,-265,0,0,0,0,0,0,0,0,0,-1,944,1289,0,0
-273,-265,0,0,0,0,0,0,0,0,0,-1,951,1289,0,0
-266,-265,0,0,0,0,0,0,0,0,0,-1,958,1289,0,0
-259,-265,0,0,0,0,0,0,0,0,0,-1,965,1289,0,0
-252,-265,0,0,0,0,0,0,0,0,0,-1,972,1289,0,0
-245,-265,0,0,0,0,0,0,0,0,0,-1,979,1289,0,0
-238,-265,0,0,0,0,0,0,0,0,0,-1,986,1289,0,0
-231,-265,0,0,0,0,0,0,0,0,0,-1,993,1289,0,0
-224,-265,0,0,0,0,0,0,0,0,0,-1,1000,1289,0,0
-217,-265,0,0,0,0,0,0,0,0,0,-1,1007,1289,0,0
-210,-265,0,0,0,0,0,0,0,0,0,-1,1014,1289,0,0
-203,-265,0,0,0,0,0,0,0,0,0,-1,1021,1289,0,0
-196,-265,0,0,0,0,0,0,0,0,0,-1,1028,1289,0,0
-189,-265,0,0,0,0,0,0,0,0,0,-1,1035,1289,0,0
-182,-265,0,0,0,0,0,0,0,0,0,-1,1042,1289,0,0
-175,-265,0,0,0,0,0,0,0,0,0,-1,1049,1289,0,0
-168,-265,0,0,0,0,0,0,0,0,0,-1,1056,1289,0,0
-161,-265,0,0,0,0,0,0,0,0,0,-1,1063,1289,0,0
-154,-265,0,0,0,0,0,0,0,0,0,-1,1070,1289,0,0
-147,-265,0,0,0,0,0,0,0,0,0,-1,1077,1289,0,0
-140,-265,0,0,0,0,0,0,0,0,0,-1,1084,1289,0,0
-133,-265,0,0,0,0,0,0,0,0,0,-1,1091,1289,0,0
-126,-265,0,0,0,0,0,0,0,0,0,-1,1098,1289,0,0
-119,-265,0,0,0,0,0,0,0,0,0,-1,1105,1289,0,0
-112,-265,0,0,0,0,0,0,0,0,0,-1,1112,1289,0,0
-105,-265,0,0,0,0,0,0,0,0,0,-1,1119,1289,0,0
-98,-265,0,0,0,0,0,0,0,0,0,-1,1126,1289,0,0
-91,-265,0,0,0,0,0,0,0,0,0,-1,1133,1289,0,0
-84,-265,0,0,0,0,0,0,0,0,0,-1,1140,1289,0,0
-77,-265,0,0,0,0,0,0,0,0,0,-1,1147,1289,0,0
-70,-265,0,0,0,0,0,0,0,0,0,-1,1154,1289,0,0
-63,-265,0,0,0,0,0,0,0,0,0,-1,1161,1289,0,0
-56,-265,0,0,0,0,0,0,0,0,0,-1,1168,1289,0,0
-49,-265,0,0,0,0,0,0,0,0,0,-1,1175,1289,0,0
-42,-265,0,0,0,0,0,0,0,0,0,-1,1182,1289,0,0
-35,-265,0,0,0,0,0,0,0,0,0,-1,1189,1289,0,0
-28,-265,0,0,0,0,0,0,0,0,0,-1,1196,1289,0,0
-21,-265,0,0,0,0,0,0,0,0,0,-1,1203,1289,0,0
-14,-265,0,0,0,0,0,0,0,0,0,-1,1210,1289,0,0
-7,-265,0,0,0,0,0,0,0,0,0,-1,1217,1289,0,0
0,-265,0,0,0,0,0,0,0,0,0,-1,1224,1289,0,0
7,-265,0,0,0,0,0,0,0,0,0,-1,1231,1289,0,0
14,-265,0,0,0,0,0,0,0,0,0,-1,1238,1289,0,0
21,-265,0,0,0,0,0,0,0,0,0,-1,1245,1289,0,0
28,-265,0,0,0,0,0,0,0,0,0,-1,1252,1289,0,0
35,-265,0,0,0,0,0,0,0,0,0,-1,1259,1289,0,0
42,-265,0,0,0,0,0,0,0,0,0,-1,1266,1289,0,0
49,-265,0,0,0,0,0,0,0,0,0,-1,1273,1289,0,0
56,-265,0,0,0,0,0,0,0,0,0,-1,1280,1289,0,0
63,-265,0,0,0,0,0,0,0,0,0,-1,1287,1289,0,0
70,-265,0,0,0,0,0,0,0,0,0,-1,1294,1289,0,0
77,-265,0,0,0,0,0,0,0,0,0,-1,1301,1289,0,0
84,-265,0,0,0,0,0,0,0,0,0,-1,1308,1289,0,0
91,-265,0,0,0,0,0,0,0,0,0,-1,1315,1289,0,0
98,-265,0,0,0,0,0,0,0,0,0,-1,1322,1289,0,0
105,-265,0,0,0,0,0,0,0,0,0,-1,1329,1289,0,0
112,-265,0,0,0,0,0,0,0,0,0,-1,1336,1289,0,0
119,-265,0,0,0,0,0,0,0,0,0,-1,1343,1289,0,0
126,-265,0,0,0,0,0,0,0,0,0,-1,1350,1289,0,0
133,-265,0,0,0,0,0,0,0,0,0,-1,1357,1289,0,0
140,-265,0,0,0,0,0,0,0,0,0,-1,1364,1289,0,0
147,-265,0,0,0,0,0,0,0,0,0,-1,1371,1289,0,0
154,-265,0,0,0,0,0,0,0,0,0,-1,1378,1289,0,0
161,-265,0,0,0,0,0,0,0,0,0,-1,1385,1289,0,0
168,-265,0,0,0,0,0,0,0,0,0,-1,1392,1289,0,0
175,-265,0,0,0,0,0,0,0,0,0,-1,1399,1289,0,0
182,-265,0,0,0,0,0,0,0,0,0,-1,1406,1289,0,0
189,-265,0,0,0,0,0,0,0,0,0,-1,1413,1289,0,0
196,-265,0,0,0,0,0,0,0,0,0,-1,1420,1289,0,0
203,-265,0,0,0,0,0,0,0,0,0,-1,1427,1289,0,0
210,-265,0,0,0,0,0,0,0,0,0,-1,1434,1289,0,0
217,-265,0,0,0,0,0,0,0,0,0,-1,1441,1289,0,0
224,-265,0,0,0,0,0,0,0,0,0,-1,1448,1289,0,0
231,-265,0,0,0,0,0,0,0,0,0,-1,1455,1289,0,0
238,-265,0,0,0,0,0,0,0,0,0,-1,1462,1289,0,0
245,-265,0,0,0,0,0,0,0,0,0,-1,1469,1289,0,0
252,-265,0,0,0,0,0,0,0,0,0,-1,1476,1289,0,0
259,-265,0,0,0,0,0,0,0,0,0,-1,1483,1289,0,0
266,-265,0,0,0,0,0,0,0,0,0,-1,1490,1289,0,0
273,-265,0,0,0,0,0,0,0,0,0,-1,1497,1289,0,0
280,-265,0,0,0,0,0,0,0,0,0,-1,1504,1289,0,0
287,-265,0,0,0,0,0,0,0,0,0,-1,1511,1289,0,0
294,-265,0,0,0,0,0,0,0,0,0,-1,1518,1289,0,0
301,-265,0,0,0,0,0,0,0,0,0,-1,1525,1289,0,0
308,-265,0,0,0,0,0,0,0,0,0,-1,1532,1289,0,0
315,-265,0,0,0,0,0,0,0,0,0,-1,1539,1289,0,0
322,-265,0,0,0,0,0,0,0,0,0,-1,1546,1289,0,0
329,-265,0,0,0,0,0,0,0,0,0,-1,1553,1289,0,0
336,-265,0,0,0,0,0,0,0,0,0,-1,1560,1289,0,0
343,-265,0,0,0,0,0,0,0,0,0,-1,1567,1289,0,0
350,-265,0,0,0,0,0,0,0,0,0,-1,1574,1289,0,0
357,-265,0,0,0,0,0,0,0,0,0,-1,1581,1289,0,0
364,-265,0,0,0,0,0,0,0,0,0,-1,1588,1289,0,0
371,-265,0,0,0,0,0,0,0,0,0,-1,1595,1289,0,0
378,-265,0,0,0,0,0,0,0,0,0,-1,1602,1289,0,0
385,-265,0,0,0,0,0,0,0,0,0,-1,1609,1289,0,0
392,-265,0,0,0,0,0,0,0,0,0,-1,1616,1289,0,0
399,-265,0,0,0,0,0,0,0,0,0,-1,1623,1289,0,0
406,-265,0,0,0,0,0,0,0,0,0,-1,1630,1289,0,0
413,-265,0,0,0,0,0,0,0,0,0,-1,1637,1289,0,0
420,-265,0,0,0,0,0,0,0,0,0,-1,1644,1289,0,0
427,-265,0,0,0,0,0,0,0,0,0,-1,1651,1289,0,0
434,-265,0,0,0,0,0,0,0,0,0,-1,1658,1289,0,0
441,-265,0,0,0,0,0,0,0,0,0,-1,1665,1289,0,0
448,-265,0,0,0,0,0,0,0,0,0,-1,1672,1289,0,0
455,-265,0,0,0,0,0,0,0,0,0,-1,1679,1289,0,0
462,-265,0,0,0,0,0,0,0,0,0,-1,1686,1289,0,0
469,-265,0,0,0,0,0,0,0,0,0,-1,1693,1289,0,0
476,-265,0,0,0,0,0,0,0,0,0,-1,1700,1289,0,0
483,-265,0,0,0,0,0,0,0,0,0,-1,1707,1289,0,0
490,-265,0,0,0,0,0,0,0,0,0,-1,1714,1289,0,0
497,-265,0,0,0,0,0,0,0,0,0,-1,1721,1289,0,0
504,-265,0,0,0,0,0,0,0,0,0,-1,1728,1289,0,0
511,-265,0,0,0,0,0,0,0,0,0,-1,1735,1289,0,0
518,-265,0,0,0,0,0,0,0,0,0,-1,1742,1289,0,0
525,-265,0,0,0,0,0,0,0,0,0,-1,1749,1289,0,0
532,-265,0,0,0,0,0,0,0,0,0,-1,1756,1289,0,0
539,-265,0,0,0,0,0,0,0,0,0,-1,1763,1289,0,0
546,-265,0,0,0,0,0,0,0,0,0,-1,1770,1289,0,0
553,-265,0,0,0,0,0,0,0,0,0,-1,1777,1289,0,0
560,-265,0,0,0,0,0,0,0,0,0,-1,1784,1289,0,0
567,-265,0,0,0,0,0,0,0,0,0,-1,1791,1289,0,0
574,-265,0,0,0,0,0,0,0,0,0,-1,1798,1289,0,0
581,-265,0,0,0,0,0,0,0,0,0,-1,1805,1289,0,0
588,-265,0,0,0,0,0,0,0,0,0,-1,1812,1289,0,0
595,-265,0,0,0,0,0,0,0,0,0,-1,1819,1289,0,0
602,-265,48.7828,2.59082,0.000929313,0.00498173,8.1106e-05,0.00498335,0.000927691,1.55079,0.00306024,0.0269112,1826,1289,48.7829,-2.59082
609,-265,48.8418,2.59363,0.00640835,0.0114038,-0.00158846,0.0118662,0.00594604,-1.28758,0.00685094,0.0287421,1833,1289,48.8418,-2.59359
616,-265,48.7946,2.63135,0.0117245,0.0171207,-0.0030386,0.0184862,0.010359,-1.14846,0.0106989,0.0334642,1840,1289,48.7945,-2.63134
623,-265,48.7822,2.51086,0.013672,0.0184901,-0.00350659,0.0203355,0.0118267,-1.08637,0.0117927,0.0462994,1847,1289,48.7823,-2.51092
630,-265,48.7931,2.39746,0.0127903,0.0164925,-0.00329274,0.0184188,0.010864,-1.04147,0.0106911,0.0482226,1854,1289,48.7931,-2.39745
637,-265,48.8446,2.34424,0,0,0,0,0,0,0,-1,1861,1289,48.8447,-2.3443
644,-265,48.9564,2.50159,0,0,0,0,0,0,0,-1,1868,1289,48.9565,-2.50163
651,-265,45.0878,3.73743,0,0,0,0,0,0,0,-1,1875,1289,45.0877,-3.73741
658,-265,41.7163,3.71619,0,0,0,0,0,0,0,-1,1882,1289,41.7163,-3.71624
665,-265,34.7902,1.43164,0,0,0,0,0,0,0,-1,1889,1289,34.7901,-1.43162
672,-265,20.0045,6.62671,0,0,0,0,0,0,0,-1,1896,1289,20.0045,-6.62668
679,-265,35.5634,10.6462,0,0,0,0,0,0,0,-1,1903,1289,35.5634,-10.6462
686,-265,35.6475,10.1307,0.000900397,0.000444593,-9.01448e-05,0.000917577,0.000427413,-0.188329,0.000530176,0.0371528,1910,1289,35.6475,-10.1307
693,-265,35.6962,9.65259,0.00092286,-0.000102157,0.000196126,0.000959105,-0.000138402,0.182743,0.000690179,0.00982637,1917,1289,35.6962,-9.65259
700,-265,35.6759,9.18396,0.000687928,-0.000188674,0.000371755,0.000824352,-0.000325099,0.351716,0.000684184,0.0103028,1924,1289,35.676,-9.18394
707,-265,35.6863,8.70813,0.000102161,-0.000231693,0.000676784,0.0006323,-0.000761832,0.664488,0.00080606,0.0108157,1931,1289,35.6863,-8.70816
714,-265,35.6681,8.25488,-0.000669679,-0.000261117,0.00111765,0.000670769,-0.00160157,0.875789,0.00134812,0.0122122,1938,1289,35.6681,-8.25486
721,-265,35.6093,7.77966,-0.0014684,-0.000295425,0.00161842,0.0008395,-0.00260333,0.95923,0.00207285,0.0131121,1945,1289,35.6093,-7.77963
728,-265,35.5756,7.33813,-0.00242072,-0.000347439,0.0021949,0.00104331,-0.00381147,1.00602,0.00295088,0.0141568,1952,1289,35.5755,-7.33819
735,-265,35.6241,6.89343,-0.00348346,-0.000453881,0.00285072,0.00125952,-0.00519686,1.02961,0.00395189,0.0164859,1959,1289,35.6242,-6.89338
742,-265,35.6161,6.47498,-0.0045791,-0.000630824,0.00356789,0.00147267,-0.0066826,1.03809,0.0050185,0.0199929,1966,1289,35.6161,-6.47496
749,-265,35.5529,6.07288,-0.00582468,-0.000851616,0.00456289,0.00185828,-0.00853457,1.03488,0.00639971,0.0443242,1973,1289,35.5529,-6.07292
756,-265,35.5663,5.66284,0,0,0,0,0,0,0,-1,1980,1289,35.5663,-5.66286
763,-265,34.2904,5.52454,0,0,0,0,0,0,0,-1,1987,1289,34.2905,-5.52454
770,-265,35.1674,5.07715,0,0,0,0,0,0,0,-1,1994,1289,35.1673,-5.07718
777,-265,32.1664,5.3457,0,0,0,0,0,0,0,-1,2001,1289,32.1664,-5.34568
784,-265,0,0,0,0,0,0,0,0,0,-1,2008,1289,0,0
791,-265,0,0,0,0,0,0,0,0,0,-1,2015,1289,0,0
798,-265,0,0,0,0,0,0,0,0,0,-1,2022,1289,0,0
805,-265,0,0,0,0,0,0,0,0,0,-1,2029,1289,0,0
812,-265,0,0,0,0,0,0,0,0,0,-1,2036,1289,0,0
-700,-272,0,0,0,0,0,0,0,0,0,-1,524,1296,0,0
-693,-272,0,0,0,0,0,0,0,0,0,-1,531,1296,0,0
-686,-272,0,0,0,0,0,0,0,0,0,-1,538,1296,0,0
-679,-272,0,0,0,0,0,0,0,0,0,-1,545,1296,0,0
-672,-272,0,0,0,0,0,0,0,0,0,-1,552,1296,0,0
-665,-272,0,0,0,0,0,0,0,0,0,-1,559,1296,0,0
-658,-272,-20.8167,0.685791,0,0,0,0,0,0,0,-1,566,1296,-20.8167,-0.68577
-651,-272,-19.9265,0.797852,0,0,0,0,0,0,0,-1,573,1296,-19.9265,-0.797894
-644,-272,-24.5912,1.62415,0,0,0,0,0,0,0,-1,580,1296,-24.5912,-1.62411
-637,-272,-24.1454,0.841187,0,0,0,0,0,0,0,-1,587,1296,-24.1454,-0.841179
-630,-272,-23.6996,0.0582275,0,0,0,0,0,0,0,-1,594,1296,-23.6996,-0.0582498
-623,-272,-21.3972,1.64807,0,0,0,0,0,0,0,-1,601,1296,-21.3971,-1.64808
-616,-272,-21.6929,4.10718,0,0,0,0,0,0,0,-1,608,1296,-21.693,-4.10722
-609,-272,-21.3855,4.04968,0.0110292,0.00918529,0.0104478,0.0205957,-0.000381193,0.741391,0.0138592,0.0262833,615,1296,-21.3855,-4.04963
-602,-272,-21.4253,4.44019,0.00779361,0.00654441,0.00713079,0.0143271,1.09137e-05,0.741714,0.00954777,0.0139519,622,1296,-21.4253,-4.44017
-595,-272,-21.454,4.97156,0.00557749,0.00440767,0.00475507,0.00978349,0.000201673,0.724202,0.00645615,0.0108074,629,1296,-21.454,-4.97157
-588,-272,-21.473,5.48145,0.0041662,0.00269088,0.00308415,0.00659967,0.000257399,0.668014,0.00431654,0.0104741,636,1296,-21.473,-5.48139
-581,-272,-21.4859,5.97754,0.00335049,0.00128015,0.00191541,0.00449255,0.00013808,0.53766,0.00295009,0.00980652,643,1296,-21.4859,-5.97757
-574,-272,-21.5311,6.5094,0.00295616,8.6999e-05,0.00103853,0.00329261,-0.000249457,0.313302,0.00228278,0.0156318,650,1296,-21.5311,-6.50941
-567,-272,-21.576,7.03821,0.00320133,-0.000803705,0.000718608,0.00332636,-0.000928738,0.17227,0.00258341,0.0208321,657,1296,-21.576,-7.03818
-560,-272,-21.5994,7.56421,0.00365459,-0.00162866,0.00065793,0.00373529,-0.00170936,0.122048,0.00321519,0.0201233,664,1296,-21.5994,-7.56424
-553,-272,-21.5125,8.0896,0.00416847,-0.00209418,0.000845062,0.00428049,-0.0022062,0.131797,0.00380839,0.0236924,671,1296,-21.5125,-8.08955
-546,-272,-21.4613,8.63965,0,0,0,0,0,0,0,-1,678,1296,-21.4613,-8.6396
-539,-272,-21.0858,9.44312,0,0,0,0,0,0,0,-1,685,1296,-21.0858,-9.44317
-532,-272,-10.5572,4.53943,0,0,0,0,0,0,0,-1,692,1296,-10.5572,-4.53943
-525,-272,-11.9599,0.0393066,0,0,0,0,0,0,0,-1,699,1296,-11.9599,-0.0393577
-518,-272,-21.1357,-1.41382,0,0,0,0,0,0,0,-1,706,1296,-21.1357,1.41379
-511,-272,-23.2565,0.226318,0,0,0,0,0,0,0,-1,713,1296,-23.2565,-0.22626
-504,-272,-19.7397,0.114746,0,0,0,0,0,0,0,-1,720,1296,-19.7397,-0.114701
-497,-272,-19.2225,1.71301,0,0,0,0,0,0,0,-1,727,1296,-19.2225,-1.71302
-490,-272,-20.1948,2.4032,0,0,0,0,0,0,0,-1,734,1296,-20.1948,-2.40322
-483,-272,-15.3736,0.792603,0,0,0,0,0,0,0,-1,741,1296,-15.3736,-0.79263
-476,-272,0,0,0,0,0,0,0,0,0,-1,748,1296,0,0
-469,-272,0,0,0,0,0,0,0,0,0,-1,755,1296,0,0
-462,-272,0,0,0,0,0,0,0,0,0,-1,762,1296,0,0
-455,-272,0,0,0,0,0,0,0,0,0,-1,769,1296,0,0
-448,-272,0,0,0,0,0,0,0,0,0,-1,776,1296,0,0
-441,-272,0,0,0,0,0,0,0,0,0,-1,783,1296,0,0
-434,-272,0,0,0,0,0,0,0,0,0,-1,790,1296,0,0
-427,-272,0,0,0,0,0,0,0,0,0,-1,797,1296,0,0
-420,-272,0,0,0,0,0,0,0,0,0,-1,804,1296,0,0
-413,-272,0,0,0,0,0,0,0,0,0,-1,811,1296,0,0
-406,-272,0,0,0,0,0,0,0,0,0,-1,818,1296,0,0
-399,-272,0,0,0,0,0,0,0,0,0,-1,825,1296,0,0
-392,-272,0,0,0,0,0,0,0,0,0,-1,832,1296,0,0
-385,-272,0,0,0,0,0,0,0,0,0,-1,839,1296,0,0
-378,-272,0,0,0,0,0,0,0,0,0,-1,846,1296,0,0
-371,-272,0,0,0,0,0,0,0,0,0,-1,853,1296,0,0
-364,-272,0,0,0,0,0,0,0,0,0,-1,860,1296,0,0
-357,-272,0,0,0,0,0,0,0,0,0,-1,867,1296,0,0
-350,-272,0,0,0,0,0,0,0,0,0,-1,874,1296,0,0
-343,-272,0,0,0,0,0,0,0,0,0,-1,881,1296,0,0
-336,-272,0,0,0,0,0,0,0,0,0,-1,888,1296,0,0
-329,-272,0,0,0,0,0,0,0,0,0,-1,895,1296,0,0
-322,-272,0,0,0,0,0,0,0,0,0,-1,902,1296,0,0
-315,-272,0,0,0,0,0,0,0,0,0,-1,909,1296,0,0
-308,-272,0,0,0,0,0,0,0,0,0,-1,916,1296,0,0
-301,-272,0,0,0,0,0,0,0,0,0,-1,923,1296,0,0
-294,-272,0,0,0,0,0,0,0,0,0,-1,930,1296,0,0
-287,-272,0,0,0,0,0,0,0,0,0,-1,937,1296,0,0
-280,-272,0,0,0,0,0,0,0,0,0,-1,944,1296,0,0
-273,-272,0,0,0,0,0,0,0,0,0,-1,951,1296,0,0
-266,-272,0,0,0,0,0,0,0,0,0,-1,958,1296,0,0
-259,-272,0,0,0,0,0,0,0,0,0,-1,965,1296,0,0
-252,-272,0,0,0,0,0,0,0,0,0,-1,972,1296,0,0
-245,-272,0,0,0,0,0,0,0,0,0,-1,979,1296,0,0
-238,-272,0,0,0,0,0,0,0,0,0,-1,986,1296,0,0
-231,-272,0,0,0,0,0,0,0,0,0,-1,993,1296,0,0
-224,-272,0,0,0,0,0,0,0,0,0,-1,1000,1296,0,0
-217,-272,0,0,0,0,0,0,0,0,0,-1,1007,1296,0,0
-210,-272,0,0,0,0,0,0,0,0,0,-1,1014,1296,0,0
-203,-272,0,0,0,0,0,0,0,0,0,-1,1021,1296,0,0
-196,-272,0,0,0,0,0,0,0,0,0,-1,1028,1296,0,0
-189,-272,0,0,0,0,0,0,0,0,0,-1,1035,1296,0,0
-182,-272,0,0,0,0,0,0,0,0,0,-1,1042,1296,0,0
-175,-272,0,0,0,0,0,0,0,0,0,-1,1049,1296,0,0
-168,-272,0,0,0,0,0,0,0,0,0,-1,1056,1296,0,0
-161,-272,0,0,0,0,0,0,0,0,0,-1,1063,1296,0,0
-154,-272,0,0,0,0,0,0,0,0,0,-1,1070,1296,0,0
-147,-272,0,0,0,0,0,0,0,0,0,-1,1077,1296,0,0
-140,-272,0,0,0,0,0,0,0,0,0,-1,1084,1296,0,0
-133,-272,0,0,0,0,0,0,0,0,0,-1,1091,1296,0,0
-126,-272,0,0,0,0,0,0,0,0,0,-1,1098,1296,0,0
-119,-272,0,0,0,0,0,0,0,0,0,-1,1105,1296,0,0
-112,-272,0,0,0,0,0,0,0,0,0,-1,1112,1296,0,0
-105,-272,0,0,0,0,0,0,0,0,0,-1,1119,1296,0,0
-98,-272,0,0,0,0,0,0,0,0,0,-1,1126,1296,0,0
-91,-272,0,0,0,0,0,0,0,0,0,-1,1133,1296,0,0
-84,-272,0,0,0,0,0,0,0,0,0,-1,1140,1296,0,0
-77,-272,0,0,0,0,0,0,0,0,0,-1,1147,1296,0,0
-70,-272,0,0,0,0,0,0,0,0,0,-1,1154,1296,0,0
-63,-272,0,0,0,0,0,0,0,0,0,-1,1161,1296,0,0
-56,-272,0,0,0,0,0,0,0,0,0,-1,1168,1296,0,0
-49,-272,0,0,0,0,0,0,0,0,0,-1,1175,1296,0,0
-42,-272,0,0,0,0,0,0,0,0,0,-1,1182,1296,0,0
-35,-272,0,0,0,0,0,0,0,0,0,-1,1189,1296,0,0
-28,-272,0,0,0,0,0,0,0,0,0,-1,1196,1296,0,0
-21,-272,0,0,0,0,0,0,0,0,0,-1,1203,1296,0,0
-14,-272,0,0,0,0,0,0,0,0,0,-1,1210,1296,0,0
-7,-272,0,0,0,0,0,0,0,0,0,-1,1217,1296,0,0
0,-272,0,0,0,0,0,0,0,0,0,-1,1224,1296,0,0
7,-272,0,0,0,0,0,0,0,0,0,-1,1231,1296,0,0
14,-272,0,0,0,0,0,0,0,0,0,-1,1238,1296,0,0
21,-272,0,0,0,0,0,0,0,0,0,-1,1245,1296,0,0
28,-272,0,0,0,0,0,0,0,0,0,-1,1252,1296,0,0
35,-272,0,0,0,0,0,0,0,0,0,-1,1259,1296,0,0
42,-272,0,0,0,0,0,0,0,0,0,-1,1266,1296,0,0
49,-272,0,0,0,0,0,0,0,0,0,-1,1273,1296,0,0
56,-272,0,0,0,0,0,0,0,0,0,-1,1280,1296,0,0
63,-272,0,0,0,0,0,0,0,0,0,-1,1287,1296,0,0
70,-272,0,0,0,0,0,0,0,0,0,-1,1294,1296,0,0
77,-272,0,0,0,0,0,0,0,0,0,-1,1301,1296,0,0
84,-272,0,0,0,0,0,0,0,0,0,-1,1308,1296,0,0
91,-272,0,0,0,0,0,0,0,0,0,-1,1315,1296,0,0
98,-272,0,0,0,0,0,0,0,0,0,-1,1322,1296,0,0
105,-272,0,0,0,0,0,0,0,0,0,-1,1329,1296,0,0
112,-272,0,0,0,0,0,0,0,0,0,-1,1336,1296,0,0
119,-272,0,0,0,0,0,0,0,0,0,-1,1343,1296,0,0
126,-272,0,0,0,0,0,0,0,0,0,-1,1350,1296,0,0
133,-272,0,0,0,0,0,0,0,0,0,-1,1357,1296,0,0
140,-272,0,0,0,0,0,0,0,0,0,-1,1364,1296,0,0
147,-272,0,0,0,0,0,0,0,0,0,-1,1371,1296,0,0
154,-272,0,0,0,0,0,0,0,0,0,-1,1378,1296,0,0
161,-272,0,0,0,0,0,0,0,0,0,-1,1385,1296,0,0
168,-272,0,0,0,0,0,0,0,0,0,-1,1392,1296,0,0
175,-272,0,0,0,0,0,0,0,0,0,-1,1399,1296,0,0
182,-272,0,0,0,0,0,0,0,0,0,-1,1406,1296,0,0
189,-272,0,0,0,0,0,0,0,0,0,-1,1413,1296,0,0
196,-272,0,0,0,0,0,0,0,0,0,-1,1420,1296,0,0
203,-272,0,0,0,0,0,0,0,0,0,-1,1427,1296,0,0
210,-272,0,0,0,0,0,0,0,0,0,-1,1434,1296,0,0
217,-272,0,0,0,0,0,0,0,0,0,-1,1441,1296,0,0
224,-272,0,0,0,0,0,0,0,0,0,-1,1448,1296,0,0
231,-272,0,0,0,0,0,0,0,0,0,-1,1455,1296,0,0
238,-272,0,0,0,0,0,0,0,0,0,-1,1462,1296,0,0
245,-272,0,0,0,0,0,0,0,0,0,-1,1469,1296,0,0
252,-272,0,0,0,0,0,0,0,0,0,-1,1476,1296,0,0
259,-272,0,0,0,0,0,0,0,0,0,-1,1483,1296,0,0
266,-272,0,0,0,0,0,0,0,0,0,-1,1490,1296,0,0
273,-272,0,0,0,0,0,0,0,0,0,-1,1497,1296,0,0
280,-272,0,0,0,0,0,0,0,0,0,-1,1504,1296,0,0
287,-272,0,0,0,0,0,0,0,0,0,-1,1511,1296,0,0
294,-272,0,0,0,0,0,0,0,0,0,-1,1518,1296,0,0
301,-272,0,0,0,0,0,0,0,0,0,-1,1525,1296,0,0
308,-272,0,0,0,0,0,0,0,0,0,-1,1532,1296,0,0
315,-272,0,0,0,0,0,0,0,0,0,-1,1539,1296,0,0
322,-272,0,0,0,0,0,0,0,0,0,-1,1546,1296,0,0
329,-272,0,0,0,0,0,0,0,0,0,-1,1553,1296,0,0
336,-272,0,0,0,0,0,0,0,0,0,-1,1560,1296,0,0
343,-272,0,0,0,0,0,0,0,0,0,-1,1567,1296,0,0
350,-272,0,0,0,0,0,0,0,0,0,-1,1574,1296,0,0
357,-272,0,0,0,0,0,0,0,0,0,-1,1581,1296,0,0
364,-272,0,0,0,0,0,0,0,0,0,-1,1588,1296,0,0
371,-272,0,0,0,0,0,0,0,0,0,-1,1595,1296,0,0
378,-272,0,0,0,0,0,0,0,0,0,-1,1602,1296,0,0
385,-272,0,0,0,0,0,0,0,0,0,-1,1609,1296,0,0
392,-272,0,0,0,0,0,0,0,0,0,-1,1616,1296,0,0
399,-272,0,0,0,0,0,0,0,0,0,-1,1623,1296,0,0
406,-272,0,0,0,0,0,0,0,0,0,-1,1630,1296,0,0
413,-272,0,0,0,0,0,0,0,0,0,-1,1637,1296,0,0
420,-272,0,0,0,0,0,0,0,0,0,-1,1644,1296,0,0
427,-272,0,0,0,0,0,0,0,0,0,-1,1651,1296,0,0
434,-272,0,0,0,0,0,0,0,0,0,-1,1658,1296,0,0
441,-272,0,0,0,0,0,0,0,0,0,-1,1665,1296,0,0
448,-272,0,0,0,0,0,0,0,0,0,-1,1672,1296,0,0
455,-272,0,0,0,0,0,0,0,0,0,-1,1679,1296,0,0
462,-272,0,0,0,0,0,0,0,0,0,-1,1686,1296,0,0
469,-272,0,0,0,0,0,0,0,0,0,-1,1693,1296,0,0
476,-272,0,0,0,0,0,0,0,0,0,-1,1700,1296,0,0
483,-272,0,0,0,0,0,0,0,0,0,-1,1707,1296,0,0
490,-272,0,0,0,0,0,0,0,0,0,-1,1714,1296,0,0
497,-272,0,0,0,0,0,0,0,0,0,-1,1721,1296,0,0
504,-272,0,0,0,0,0,0,0,0,0,-1,1728,1296,0,0
511,-272,0,0,0,0,0,0,0,0,0,-1,1735,1296,0,0
518,-272,0,0,0,0,0,0,0,0,0,-1,1742,1296,0,0
525,-272,0,0,0,0,0,0,0,0,0,-1,1749,1296,0,0
532,-272,0,0,0,0,0,0,0,0,0,-1,1756,1296,0,0
539,-272,0,0,0,0,0,0,0,0,0,-1,1763,1296,0,0
546,-272,0,0,0,0,0,0,0,0,0,-1,1770,1296,0,0
553,-272,0,0,0,0,0,0,0,0,0,-1,1777,1296,0,0
560,-272,0,0,0,0,0,0,0,0,0,-1,1784,1296,0,0
567,-272,0,0,0,0,0,0,0,0,0,-1,1791,1296,0,0
574,-272,0,0,0,0,0,0,0,0,0,-1,1798,1296,0,0
581,-272,0,0,0,0,0,0,0,0,0,-1,1805,1296,0,0
588,-272,0,0,0,0,0,0,0,0,0,-1,1812,1296,0,0
595,-272,0,0,0,0,0,0,0,0,0,-1,1819,1296,0,0
602,-272,48.7578,2.58057,0.00517943,0.0124012,-0.00101768,0.0125418,0.00503876,-1.43344,0.00728748,0.0320598,1826,1296,48.7579,-2.58051
609,-272,48.7833,2.54846,0.0113454,0.0195559,-0.00271004,0.0203698,0.0105315,-1.27906,0.0117628,0.0422983,1833,1296,48.7833,-2.54847
616,-272,48.8639,2.52283,0.0161959,0.0244964,-0.00388745,0.0260327,0.0146596,-1.19444,0.0150699,0.0454146,1840,1296,48.8638,-2.52284
623,-272,48.886,2.44153,0.0163074,0.0231656,-0.00382201,0.0248713,0.0146016,-1.15103,0.0144319,0.0447992,1847,1296,48.886,-2.44156
630,-272,49.6819,3.16223,0.0141916,0.0192775,-0.00333131,0.0209255,0.0125436,-1.11139,0.0121607,0.0445373,1854,1296,49.6819,-3.16226
637,-272,49.585,2.91833,0,0,0,0,0,0,0,-1,1861,1296,49.5849,-2.91836
644,-272,48.5034,3.21082,0,0,0,0,0,0,0,-1,1868,1296,48.5034,-3.21077
651,-272,41.9225,4.27161,0,0,0,0,0,0,0,-1,1875,1296,41.9225,-4.27157
658,-272,35.1527,2.10571,0,0,0,0,0,0,0,-1,1882,1296,35.1527,-2.10573
665,-272,22.0238,4.14417,0,0,0,0,0,0,0,-1,1889,1296,22.0238,-4.14421
672,-272,22.661,7.21765,0,0,0,0,0,0,0,-1,1896,1296,22.661,-7.21761
679,-272,35.1772,10.6428,0,0,0,0,0,0,0,-1,1903,1296,35.1772,-10.6429
686,-272,35.1881,10.155,0.00054871,-7.13374e-05,0.000148131,0.000582281,-0.000104909,0.222868,0.00042747,0.0238516,1910,1296,35.1881,-10.1551
693,-272,35.2036,9.68567,0.000634523,-0.000525197,0.000418141,0.000769561,-0.000660235,0.312376,0.000826297,0.0116326,1917,1296,35.2036,-9.68569
700,-272,35.2043,9.21436,0.000439168,-0.000432189,0.000564594,0.000716639,-0.00070966,0.456786,0.000823477,0.0117557,1924,1296,35.2043,-9.21436
707,-272,35.215,8.72449,-8.36145e-05,-0.000335211,0.000831372,0.000631423,-0.00105025,0.710311,0.000980899,0.011612,1931,1296,35.2149,-8.72452
714,-272,35.1931,8.25183,-0.000801508,-0.000275355,0.00121025,0.000700083,-0.00177695,0.89242,0.00147447,0.0129116,1938,1296,35.1932,-8.25178
721,-272,35.1501,7.81567,-0.00164904,-0.00024469,0.00166326,0.000858537,-0.00275227,0.985133,0.00217818,0.0163298,1945,1296,35.1502,-7.8157
728,-272,35.153,7.31323,-0.00270449,-0.00027835,0.00221226,0.0010316,-0.00401445,1.03618,0.00307833,0.0178392,1952,1296,35.1529,-7.31322
735,-272,35.1538,6.89978,-0.00394215,-0.00037509,0.00283445,0.00119027,-0.00550751,1.06622,0.00412606,0.0161083,1959,1296,35.1538,-6.89973
742,-272,35.0574,6.52051,-0.00531746,-0.000567983,0.00351239,0.00129712,-0.00718257,1.08265,0.0052742,0.027005,1966,1296,35.0573,-6.52052
749,-272,35.0066,6.09302,0,0,0,0,0,0,0,-1,1973,1296,35.0066,-6.09303
756,-272,32.9099,5.30151,0,0,0,0,0,0,0,-1,1980,1296,32.9099,-5.30156
763,-272,34.3995,5.88416,0,0,0,0,0,0,0,-1,1987,1296,34.3996,-5.88419
770,-272,25.9485,3.67749,0,0,0,0,0,0,0,-1,1994,1296,25.9485,-3.67744
777,-272,32.3619,6.13257,0,0,0,0,0,0,0,-1,2001,1296,32.362,-6.1326
784,-272,0,0,0,0,0,0,0,0,0,-1,2008,1296,0,0
791,-272,0,0,0,0,0,0,0,0,0,-1,2015,1296,0,0
798,-272,0,0,0,0,0,0,0,0,0,-1,2022,1296,0,0
805,-272,0,0,0,0,0,0,0,0,0,-1,2029,1296,0,0
812,-272,0,0,0,0,0,0,0,0,0,-1,2036,1296,0,0
-700,-279,0,0,0,0,0,0,0,0,0,-1,524,1303,0,0
-693,-279,0,0,0,0,0,0,0,0,0,-1,531,1303,0,0
-686,-279,0,0,0,0,0,0,0,0,0,-1,538,1303,0,0
-679,-279,0,0,0,0,0,0,0,0,0,-1,545,1303,0,0
-672,-279,0,0,0,0,0,0,0,0,0,-1,552,1303,0,0
-665,-279,0,0,0,0,0,0,0,0,0,-1,559,1303,0,0
-658,-279,-20.2977,1.0509,0,0,0,0,0,0,0,-1,566,1303,-20.2978,-1.0509
-651,-279,-18.2878,1.5625,0,0,0,0,0,0,0,-1,573,1303,-18.2879,-1.56247
-644,-279,-19.7198,0.645874,0,0,0,0,0,0,0,-1,580,1303,-19.7198,-0.645909
-637,-279,-24.0978,0.214844,0,0,0,0,0,0,0,-1,587,1303,-24.0978,-0.214866
-630,-279,-19.8475,-0.60144,0,0,0,0,0,0,0,-1,594,1303,-19.8475,0.60148
-623,-279,-22.2665,2.68457,0,0,0,0,0,0,0,-1,601,1303,-22.2665,-2.68451
-616,-279,-21.8782,3.24231,0,0,0,0,0,0,0,-1,608,1303,-21.8781,-3.24234
-609,-279,-21.207,3.84888,0.0116257,0.0102459,0.0108934,0.021851,2.05953e-05,0.753774,0.0145605,0.0453358,615,1303,-21.207,-3.84886
-602,-279,-20.8822,4.45203,0.0081927,0.00733091,0.00746061,0.0152348,0.000288763,0.756552,0.0100617,0.0141589,622,1303,-20.8822,-4.45201
-595,-279,-20.9196,4.97485,0.00583484,0.00500937,0.005022,0.010461,0.000383168,0.744398,0.00684988,0.0100057,629,1303,-20.9196,-4.9749
-588,-279,-20.9344,5.50708,0.00429162,0.00318319,0.00330921,0.00709271,0.000382107,0.70243,0.00460639,0.010776,636,1303,-20.9344,-5.50709
-581,-279,-20.9644,5.99768,0.00335735,0.00170235,0.00210377,0.00479051,0.000269189,0.598021,0.00310783,0.0124278,643,1303,-20.9644,-5.99768
-574,-279,-21.0072,6.51733,0.002802,0.000451921,0.00115871,0.00327721,-2.32869e-05,0.389199,0.00219261,0.0131177,650,1303,-21.0072,-6.51732
-567,-279,-21.0402,7.03491,0.00281692,-0.000472875,0.00072578,0.00296992,-0.000625878,0.207769,0.0022182,0.0169237,657,1303,-21.0402,-7.03489
-560,-279,-21.0305,7.59473,0.00314163,-0.00130403,0.000564723,0.00321225,-0.00137465,0.124396,0.00271816,0.0174163,664,1303,-21.0305,-7.59477
-553,-279,-21.0224,8.14319,0.00367315,-0.0017875,0.00065977,0.00375173,-0.00186608,0.11855,0.00330379,0.0143499,671,1303,-21.0224,-8.14323
-546,-279,-21.0139,8.64575,0.00401696,-0.0019726,0.000731445,0.00410499,-0.00206063,0.119775,0.00362436,0.0260264,678,1303,-21.0139,-8.6458
-539,-279,-20.9849,9.10791,0,0,0,0,0,0,0,-1,685,1303,-20.9849,-9.10795
-532,-279,-14.9813,7.89917,0,0,0,0,0,0,0,-1,692,1303,-14.9813,-7.89918
-525,-279,-11.7063,-0.539185,0,0,0,0,0,0,0,-1,699,1303,-11.7063,0.539166
-518,-279,-16.8138,1.11963,0,0,0,0,0,0,0,-1,706,1303,-16.8138,-1.11968
-511,-279,-20.1063,-1.37915,0,0,0,0,0,0,0,-1,713,1303,-20.1062,1.37918
-504,-279,-18.3766,1.04578,0,0,0,0,0,0,0,-1,720,1303,-18.3767,-1.04577
-497,-279,-19.0046,2.08911,0,0,0,0,0,0,0,-1,727,1303,-19.0046,-2.08905
-490,-279,-20.0176,2.55188,0,0,0,0,0,0,0,-1,734,1303,-20.0176,-2.55183
-483,-279,-20.8064,2.99792,0,0,0,0,0,0,0,-1,741,1303,-20.8064,-2.99797
-476,-279,0,0,0,0,0,0,0,0,0,-1,748,1303,0,0
-469,-279,0,0,0,0,0,0,0,0,0,-1,755,1303,0,0
-462,-279,0,0,0,0,0,0,0,0,0,-1,762,1303,0,0
-455,-279,0,0,0,0,0,0,0,0,0,-1,769,1303,0,0
-448,-279,0,0,0,0,0,0,0,0,0,-1,776,1303,0,0
-441,-279,0,0,0,0,0,0,0,0,0,-1,783,1303,0,0
-434,-279,0,0,0,0,0,0,0,0,0,-1,790,1303,0,0
-427,-279,0,0,0,0,0,0,0,0,0,-1,797,1303,0,0
-420,-279,0,0,0,0,0,0,0,0,0,-1,804,1303,0,0
-413,-279,0,0,0,0,0,0,0,0,0,-1,811,1303,0,0
-406,-279,0,0,0,0,0,0,0,0,0,-1,818,1303,0,0
-399,-279,0,0,0,0,0,0,0,0,0,-1,825,1303,0,0
-392,-279,0,0,0,0,0,0,0,0,0,-1,832,1303,0,0
-385,-279,0,0,0,0,0,0,0,0,0,-1,839,1303,0,0
-378,-279,0,0,0,0,0,0,0,0,0,-1,846,1303,0,0
-371,-279,0,0,0,0,0,0,0,0,0,-1,853,1303,0,0
-364,-279,0,0,0,0,0,0,0,0,0,-1,860,1303,0,0
-357,-279,0,0,0,0,0,0,0,0,0,-1,867,1303,0,0
-350,-279,0,0,0,0,0,0,0,0,0,-1,874,1303,0,0
-343,-279,0,0,0,0,0,0,0,0,0,-1,881,1303,0,0
-336,-279,0,0,0,0,0,0,0,0,0,-1,888,1303,0,0
-329,-279,0,0,0,0,0,0,0,0,0,-1,895,1303,0,0
-322,-279,0,0,0,0,0,0,0,0,0,-1,902,1303,0,0
-315,-279,0,0,0,0,0,0,0,0,0,-1,909,1303,0,0
-308,-279,0,0,0,0,0,0,0,0,0,-1,916,1303,0,0
-301,-279,0,0,0,0,0,0,0,0,0,-1,923,1303,0,0
-294,-279,0,0,0,0,0,0,0,0,0,-1,930,1303,0,0
-287,-279,0,0,0,0,0,0,0,0,0,-1,937,1303,0,0
-280,-279,0,0,0,0,0,0,0,0,0,-1,944,1303,0,0
-273,-279,0,0,0,0,0,0,0,0,0,-1,951,1303,0,0
-266,-279,0,0,0,0,0,0,0,0,0,-1,958,1303,0,0
-259,-279,0,0,0,0,0,0,0,0,0,-1,965,1303,0,0
-252,-279,0,0,0,0,0,0,0,0,0,-1,972,1303,0,0
-245,-279,0,0,0,0,0,0,0,0,0,-1,979,1303,0,0
-238,-279,0,0,0,0,0,0,0,0,0,-1,986,1303,0,0
-231,-279,0,0,0,0,0,0,0,0,0,-1,993,1303,0,0
-224,-279,0,0,0,0,0,0,0,0,0,-1,1000,1303,0,0
-217,-279,0,0,0,0,0,0,0,0,0,-1,1007,1303,0,0
-210,-279,0,0,0,0,0,0,0,0,0,-1,1014,1303,0,0
-203,-279,0,0,0,0,0,0,0,0,0,-1,1021,1303,0,0
-196,-279,0,0,0,0,0,0,0,0,0,-1,1028,1303,0,0
-189,-279,0,0,0,0,0,0,0,0,0,-1,1035,1303,0,0
-182,-279,0,0,0,0,0,0,0,0,0,-1,1042,1303,0,0
-175,-279,0,0,0,0,0,0,0,0,0,-1,1049,1303,0,0
-168,-279,0,0,0,0,0,0,0,0,0,-1,1056,1303,0,0
-161,-279,0,0,0,0,0,0,0,0,0,-1,1063,1303,0,0
-154,-279,0,0,0,0,0,0,0,0,0,-1,1070,1303,0,0
-147,-279,0,0,0,0,0,0,0,0,0,-1,1077,1303,0,0
-140,-279,0,0,0,0,0,0,0,0,0,-1,1084,1303,0,0
-133,-279,0,0,0,0,0,0,0,0,0,-1,1091,1303,0,0
-126,-279,0,0,0,0,0,0,0,0,0,-1,1098,1303,0,0
-119,-279,0,0,0,0,0,0,0,0,0,-1,1105,1303,0,0
-112,-279,0,0,0,0,0,0,0,0,0,-1,1112,1303,0,0
-105,-279,0,0,0,0,0,0,0,0,0,-1,1119,1303,0,0
-98,-279,0,0,0,0,0,0,0,0,0,-1,1126,1303,0,0
-91,-279,0,0,0,0,0,0,0,0,0,-1,1133,1303,0,0
-84,-279,0,0,0,0,0,0,0,0,0,-1,1140,1303,0,0
-77,-279,0,0,0,0,0,0,0,0,0,-1,1147,1303,0,0
-70,-279,0,0,0,0,0,0,0,0,0,-1,1154,1303,0,0
-63,-279,0,0,0,0,0,0,0,0,0,-1,1161,1303,0,0
-56,-279,0,0,0,0,0,0,0,0,0,-1,1168,1303,0,0
-49,-279,0,0,0,0,0,0,0,0,0,-1,1175,1303,0,0
-42,-279,0,0,0,0,0,0,0,0,0,-1,1182,1303,0,0
-35,-279,0,0,0,0,0,0,0,0,0,-1,1189,1303,0,0
-28,-279,0,0,0,0,0,0,0,0,0,-1,1196,1303,0,0
-21,-279,0,0,0,0,0,0,0,0,0,-1,1203,1303,0,0
-14,-279,0,0,0,0,0,0,0,0,0,-1,1210,1303,0,0
-7,-279,0,0,0,0,0,0,0,0,0,-1,1217,1303,0,0
0,-279,0,0,0,0,0,0,0,0,0,-1,1224,1303,0,0
7,-279,0,0,0,0,0,0,0,0,0,-1,1231,1303,0,0
14,-279,0,0,0,0,0,0,0,0,0,-1,1238,1303,0,0
21,-279,0,0,0,0,0,0,0,0,0,-1,1245,1303,0,0
28,-279,0,0,0,0,0,0,0,0,0,-1,1252,1303,0,0
35,-279,0,0,0,0,0,0,0,0,0,-1,1259,1303,0,0
42,-279,0,0,0,0,0,0,0,0,0,-1,1266,1303,0,0
49,-279,0,0,0,0,0,0,0,0,0,-1,1273,1303,0,0
56,-279,0,0,0,0,0,0,0,0,0,-1,1280,1303,0,0
63,-279,0,0,0,0,0,0,0,0,0,-1,1287,1303,0,0
70,-279,0,0,0,0,0,0,0,0,0,-1,1294,1303,0,0
77,-279,0,0,0,0,0,0,0,0,0,-1,1301,1303,0,0
84,-279,0,0,0,0,0,0,0,0,0,-1,1308,1303,0,0
91,-279,0,0,0,0,0,0,0,0,0,-1,1315,1303,0,0
98,-279,0,0,0,0,0,0,0,0,0,-1,1322,1303,0,0
105,-279,0,0,0,0,0,0,0,0,0,-1,1329,1303,0,0
112,-279,0,0,0,0,0,0,0,0,0,-1,1336,1303,0,0
119,-279,0,0,0,0,0,0,0,0,0,-1,1343,1303,0,0
126,-279,0,0,0,0,0,0,0,0,0,-1,1350,1303,0,0
133,-279,0,0,0,0,0,0,0,0,0,-1,1357,1303,0,0
140,-279,0,0,0,0,0,0,0,0,0,-1,1364,1303,0,0
147,-279,0,0,0,0,0,0,0,0,0,-1,1371,1303,0,0
154,-279,0,0,0,0,0,0,0,0,0,-1,1378,1303,0,0
161,-279,0,0,0,0,0,0,0,0,0,-1,1385,1303,0,0
168,-279,0,0,0,0,0,0,0,0,0,-1,1392,1303,0,0
175,-279,0,0,0,0,0,0,0,0,0,-1,1399,1303,0,0
182,-279,0,0,0,0,0,0,0,0,0,-1,1406,1303,0,0
189,-279,0,0,0,0,0,0,0,0,0,-1,1413,1303,0,0
196,-279,0,0,0,0,0,0,0,0,0,-1,1420,1303,0,0
203,-279,0,0,0,0,0,0,0,0,0,-1,1427,1303,0,0
210,-279,0,0,0,0,0,0,0,0,0,-1,1434,1303,0,0
217,-279,0,0,0,0,0,0,0,0,0,-1,1441,1303,0,0
224,-279,0,0,0,0,0,0,0,0,0,-1,1448,1303,0,0
231,-279,0,0,0,0,0,0,0,0,0,-1,1455,1303,0,0
238,-279,0,0,0,0,0,0,0,0,0,-1,1462,1303,0,0
245,-279,0,0,0,0,0,0,0,0,0,-1,1469,1303,0,0
252,-279,0,0,0,0,0,0,0,0,0,-1,1476,1303,0,0
259,-279,0,0,0,0,0,0,0,0,0,-1,1483,1303,0,0
266,-279,0,0,0,0,0,0,0,0,0,-1,1490,1303,0,0
273,-279,0,0,0,0,0,0,0,0,0,-1,1497,1303,0,0
280,-279,0,0,0,0,0,0,0,0,0,-1,1504,1303,0,0
287,-279,0,0,0,0,0,0,0,0,0,-1,1511,1303,0,0
294,-279,0,0,0,0,0,0,0,0,0,-1,1518,1303,0,0
301,-279,0,0,0,0,0,0,0,0,0,-1,1525,1303,0,0
308,-279,0,0,0,0,0,0,0,0,0,-1,1532,1303,0,0
315,-279,0,0,0,0,0,0,0,0,0,-1,1539,1303,0,0
322,-279,0,0,0,0,0,0,0,0,0,-1,1546,1303,0,0
329,-279,0,0,0,0,0,0,0,0,0,-1,1553,1303,0,0
336,-279,0,0,0,0,0,0,0,0,0,-1,1560,1303,0,0
343,-279,0,0,0,0,0,0,0,0,0,-1,1567,1303,0,0
350,-279,0,0,0,0,0,0,0,0,0,-1,1574,1303,0,0
357,-279,0,0,0,0,0,0,0,0,0,-1,1581,1303,0,0
364,-279,0,0,0,0,0,0,0,0,0,-1,1588,1303,0,0
371,-279,0,0,0,0,0,0,0,0,0,-1,1595,1303,0,0
378,-279,0,0,0,0,0,0,0,0,0,-1,1602,1303,0,0
385,-279,0,0,0,0,0,0,0,0,0,-1,1609,1303,0,0
392,-279,0,0,0,0,0,0,0,0,0,-1,1616,1303,0,0
399,-279,0,0,0,0,0,0,0,0,0,-1,1623,1303,0,0
406,-279,0,0,0,0,0,0,0,0,0,-1,1630,1303,0,0
413,-279,0,0,0,0,0,0,0,0,0,-1,1637,1303,0,0
420,-279,0,0,0,0,0,0,0,0,0,-1,1644,1303,0,0
427,-279,0,0,0,0,0,0,0,0,0,-1,1651,1303,0,0
434,-279,0,0,0,0,0,0,0,0,0,-1,1658,1303,0,0
441,-279,0,0,0,0,0,0,0,0,0,-1,1665,1303,0,0
448,-279,0,0,0,0,0,0,0,0,0,-1,1672,1303,0,0
455,-279,0,0,0,0,0,0,0,0,0,-1,1679,1303,0,0
462,-279,0,0,0,0,0,0,0,0,0,-1,1686,1303,0,0
469,-279,0,0,0,0,0,0,0,0,0,-1,1693,1303,0,0
476,-279,0,0,0,0,0,0,0,0,0,-1,1700,1303,0,0
483,-279,0,0,0,0,0,0,0,0,0,-1,1707,1303,0,0
490,-279,0,0,0,0,0,0,0,0,0,-1,1714,1303,0,0
497,-279,0,0,0,0,0,0,0,0,0,-1,1721,1303,0,0
504,-279,0,0,0,0,0,0,0,0,0,-1,1728,1303,0,0
511,-279,0,0,0,0,0,0,0,0,0,-1,1735,1303,0,0
518,-279,0,0,0,0,0,0,0,0,0,-1,1742,1303,0,0
525,-279,0,0,0,0,0,0,0,0,0,-1,1749,1303,0,0
532,-279,0,0,0,0,0,0,0,0,0,-1,1756,1303,0,0
539,-279,0,0,0,0,0,0,0,0,0,-1,1763,1303,0,0
546,-279,0,0,0,0,0,0,0,0,0,-1,1770,1303,0,0
553,-279,0,0,0,0,0,0,0,0,0,-1,1777,1303,0,0
560,-279,0,0,0,0,0,0,0,0,0,-1,1784,1303,0,0
567,-279,0,0,0,0,0,0,0,0,0,-1,1791,1303,0,0
574,-279,0,0,0,0,0,0,0,0,0,-1,1798,1303,0,0
581,-279,0,0,0,0,0,0,0,0,0,-1,1805,1303,0,0
588,-279,0,0,0,0,0,0,0,0,0,-1,1812,1303,0,0
595,-279,0,0,0,0,0,0,0,0,0,-1,1819,1303,0,0
602,-279,48.7501,2.51416,0,0,0,0,0,0,0,-1,1826,1303,48.7501,-2.51415
609,-279,48.6978,2.47998,0,0,0,0,0,0,0,-1,1833,1303,48.6977,-2.47999
616,-279,49.1689,2.29968,0.019072,0.0312522,-0.00451279,0.032742,0.0175822,-1.25194,0.0189208,0.0461319,1840,1303,49.169,-2.29964
623,-279,49.4528,2.28723,0.0177787,0.0273846,-0.00403074,0.0288518,0.0163114,-1.22169,0.016705,0.0461228,1847,1303,49.4527,-2.2872
630,-279,49.7322,2.38074,0.015233,0.0222373,-0.00339221,0.0236108,0.0138595,-1.18607,0.0137003,0.0453519,1854,1303,49.7322,-2.38073
637,-279,49.8988,2.14587,0,0,0,0,0,0,0,-1,1861,1303,49.8987,-2.1459
644,-279,33.5021,3.40234,0,0,0,0,0,0,0,-1,1868,1303,33.5021,-3.40237
651,-279,29.8456,2.3562,0,0,0,0,0,0,0,-1,1875,1303,29.8455,-2.35615
658,-279,21.5076,7.65649,0,0,0,0,0,0,0,-1,1882,1303,21.5076,-7.65648
665,-279,18.9794,6.09607,0,0,0,0,0,0,0,-1,1889,1303,18.9793,-6.09601
672,-279,23.5206,8.32507,0,0,0,0,0,0,0,-1,1896,1303,23.5206,-8.32512
679,-279,34.6536,10.6448,0,0,0,0,0,0,0,-1,1903,1303,34.6535,-10.6448
686,-279,34.7139,10.1749,0.000937317,-0.000289576,-0.000118455,0.000948649,-0.000300908,-0.0953751,0.000753049,0.0272534,1910,1303,34.7139,-10.1749
693,-279,34.7241,9.69287,0.00100776,-0.000622292,0.000143238,0.00102025,-0.000634783,0.0869846,0.000964136,0.0167653,1917,1303,34.7241,-9.69282
700,-279,34.7345,9.23425,0.000675813,-0.000466873,0.000377435,0.000789225,-0.000580286,0.291899,0.000793749,0.0117278,1924,1303,34.7345,-9.2342
707,-279,34.7301,8.74622,6.45499e-05,-0.000343064,0.000728667,0.000617376,-0.00089589,0.649034,0.000878603,0.00966898,1931,1303,34.7301,-8.74624
714,-279,34.6986,8.27051,-0.000725546,-0.000276032,0.00116308,0.000683811,-0.00168539,0.880843,0.00140801,0.0103916,1938,1303,34.6987,-8.27052
721,-279,34.7043,7.8009,-0.00170943,-0.000249342,0.00166764,0.000841054,-0.00279982,0.991716,0.00220113,0.0144038,1945,1303,34.7043,-7.80093
728,-279,34.7256,7.32983,-0.00293766,-0.000292465,0.00226534,0.00100811,-0.00423824,1.04963,0.00321466,0.0167124,1952,1303,34.7255,-7.32984
735,-279,34.673,6.93176,-0.00443014,-0.000395786,0.00292451,0.00113975,-0.00596567,1.0873,0.00440644,0.0164462,1959,1303,34.673,-6.93179
742,-279,34.5083,6.52563,-0.00621496,-0.000615201,0.0036377,0.00117537,-0.00800553,1.11339,0.00576886,0.0333845,1966,1303,34.5083,-6.5256
749,-279,34.4575,6.0658,0,0,0,0,0,0,0,-1,1973,1303,34.4575,-6.06578
756,-279,23.2091,4.43433,0,0,0,0,0,0,0,-1,1980,1303,23.2092,-4.43432
763,-279,27.1613,3.46265,0,0,0,0,0,0,0,-1,1987,1303,27.1613,-3.4627
770,-279,21.5828,3.54199,0,0,0,0,0,0,0,-1,1994,1303,21.5827,-3.54198
777,-279,32.5369,6.99609,0,0,0,0,0,0,0,-1,2001,1303,32.5369,-6.99608
784,-279,0,0,0,0,0,0,0,0,0,-1,2008,1303,0,0
791,-279,0,0,0,0,0,0,0,0,0,-1,2015,1303,0,0
798,-279,0,0,0,0,0,0,0,0,0,-1,2022,1303,0,0
805,-279,0,0,0,0,0,0,0,0,0,-1,2029,1303,0,0
812,-279,0,0,0,0,0,0,0,0,0,-1,2036,1303,0,0
-700,-286,0,0,0,0,0,0,0,0,0,-1,524,1310,0,0
-693,-286,0,0,0,0,0,0,0,0,0,-1,531,1310,0,0
-686,-286,0,0,0,0,0,0,0,0,0,-1,538,1310,0,0
-679,-286,0,0,0,0,0,0,0,0,0,-1,545,1310,0,0
-672,-286,0,0,0,0,0,0,0,0,0,-1,552,1310,0,0
-665,-286,0,0,0,0,0,0,0,0,0,-1,559,1310,0,0
-658,-286,-18.8017,-0.794922,0,0,0,0,0,0,0,-1,566,1310,-18.8017,0.79496
-651,-286,-18.798,0.594727,0,0,0,0,0,0,0,-1,573,1310,-18.798,-0.594671
-644,-286,-19.1089,1.80017,0,0,0,0,0,0,0,-1,580,1310,-19.1089,-1.80021
-637,-286,-19.4593,2.65125,0,0,0,0,0,0,0,-1,587,1310,-19.4593,-2.65124
-630,-286,-19.6556,3.39246,0,0,0,0,0,0,0,-1,594,1310,-19.6556,-3.39242
-623,-286,-20.1415,-1.72998,0,0,0,0,0,0,0,-1,601,1310,-20.1415,1.72995
-616,-286,-22.0634,2.37744,0,0,0,0,0,0,0,-1,608,1310,-22.0633,-2.37746
-609,-286,-20.8106,3.49719,0,0,0,0,0,0,0,-1,615,1310,-20.8106,-3.49717
-602,-286,-20.3982,4.3949,0.00863547,0.00783404,0.00776207,0.0160072,0.000462349,0.759609,0.0105207,0.0202039,622,1310,-20.3982,-4.39488
-595,-286,-20.4299,4.98975,0.00614233,0.00541232,0.00526113,0.0110511,0.000503548,0.750765,0.00720542,0.0123853,629,1310,-20.4299,-4.9898
-588,-286,-20.4243,5.51245,0.00446733,0.00356736,0.00351976,0.00756575,0.000468937,0.721821,0.00489502,0.0132941,636,1310,-20.4243,-5.51245
-581,-286,-20.4205,6.01208,0.00343486,0.00211101,0.00230579,0.00517185,0.000374017,0.645621,0.00333024,0.0146332,643,1310,-20.4205,-6.0121
-574,-286,-20.4761,6.5332,0.00275893,0.000900539,0.00134151,0.00346162,0.00019785,0.48251,0.00224471,0.0141315,650,1310,-20.4761,-6.53317
-567,-286,-20.4933,7.06702,0.0025969,1.09964e-05,0.000844053,0.00284802,-0.000240121,0.289174,0.00198357,0.0134367,657,1310,-20.4933,-7.06706
-560,-286,-20.4952,7.6073,0.00280831,-0.000757018,0.00058601,0.00290215,-0.000850867,0.1588,0.00227213,0.0139806,664,1310,-20.4953,-7.60734
-553,-286,-20.4996,8.14404,0.0033367,-0.0012534,0.000523213,0.00339558,-0.00131228,0.112072,0.00280539,0.0106863,671,1310,-20.4995,-8.14404
-546,-286,-20.4952,8.67517,0.00387399,-0.00145239,0.000498799,0.0039203,-0.0014987,0.0925743,0.00323111,0.0195726,678,1310,-20.4952,-8.67513
-539,-286,-20.4662,9.14722,0.00470257,-0.0018141,0.000624706,0.00476192,-0.00187344,0.0947134,0.00395007,0.0472659,685,1310,-20.4662,-9.14722
-532,-286,-20.2717,9.60474,0,0,0,0,0,0,0,-1,692,1310,-20.2717,-9.60476
-525,-286,-11.4528,-1.11768,0,0,0,0,0,0,0,-1,699,1310,-11.4528,1.11769
-518,-286,-11.0701,1.37329,0,0,0,0,0,0,0,-1,706,1310,-11.0701,-1.37332
-511,-286,-17.7545,-0.0791016,0,0,0,0,0,0,0,-1,713,1310,-17.7544,0.0791606
-504,-286,-18.0455,1.29602,0,0,0,0,0,0,0,-1,720,1310,-18.0455,-1.29601
-497,-286,-18.3367,2.67114,0,0,0,0,0,0,0,-1,727,1310,-18.3366,-2.67118
-490,-286,-19.5795,2.47266,0,0,0,0,0,0,0,-1,734,1310,-19.5795,-2.4727
-483,-286,-19.7277,2.74744,0,0,0,0,0,0,0,-1,741,1310,-19.7277,-2.74747
-476,-286,-20.0391,3.06177,0,0,0,0,0,0,0,-1,748,1310,-20.0391,-3.06178
-469,-286,0,0,0,0,0,0,0,0,0,-1,755,1310,0,0
-462,-286,0,0,0,0,0,0,0,0,0,-1,762,1310,0,0
-455,-286,0,0,0,0,0,0,0,0,0,-1,769,1310,0,0
-448,-286,0,0,0,0,0,0,0,0,0,-1,776,1310,0,0
-441,-286,0,0,0,0,0,0,0,0,0,-1,783,1310,0,0
-434,-286,0,0,0,0,0,0,0,0,0,-1,790,1310,0,0
-427,-286,0,0,0,0,0,0,0,0,0,-1,797,1310,0,0
-420,-286,0,0,0,0,0,0,0,0,0,-1,804,1310,0,0
-413,-286,0,0,0,0,0,0,0,0,0,-1,811,1310,0,0
-406,-286,0,0,0,0,0,0,0,0,0,-1,818,1310,0,0
-399,-286,0,0,0,0,0,0,0,0,0,-1,825,1310,0,0
-392,-286,0,0,0,0,0,0,0,0,0,-1,832,1310,0,0
-385,-286,0,0,0,0,0,0,0,0,0,-1,839,1310,0,0
-378,-286,0,0,0,0,0,0,0,0,0,-1,846,1310,0,0
-371,-286,0,0,0,0,0,0,0,0,0,-1,853,1310,0,0
-364,-286,0,0,0,0,0,0,0,0,0,-1,860,1310,0,0
-357,-286,0,0,0,0,0,0,0,0,0,-1,867,1310,0,0
-350,-286,0,0,0,0,0,0,0,0,0,-1,874,1310,0,0
-343,-286,0,0,0,0,0,0,0,0,0,-1,881,1310,0,0
-336,-286,0,0,0,0,0,0,0,0,0,-1,888,1310,0,0
-329,-286,0,0,0,0,0,0,0,0,0,-1,895,1310,0,0
-322,-286,0,0,0,0,0,0,0,0,0,-1,902,1310,0,0
-315,-286,0,0,0,0,0,0,0,0,0,-1,909,1310,0,0
-308,-286,0,0,0,0,0,0,0,0,0,-1,916,1310,0,0
-301,-286,0,0,0,0,0,0,0,0,0,-1,923,1310,0,0
-294,-286,0,0,0,0,0,0,0,0,0,-1,930,1310,0,0
-287,-286,0,0,0,0,0,0,0,0,0,-1,937,1310,0,0
-280,-286,0,0,0,0,0,0,0,0,0,-1,944,1310,0,0
-273,-286,0,0,0,0,0,0,0,0,0,-1,951,1310,0,0
-266,-286,0,0,0,0,0,0,0,0,0,-1,958,1310,0,0
-259,-286,0,0,0,0,0,0,0,0,0,-1,965,1310,0,0
-252,-286,0,0,0,0,0,0,0,0,0,-1,972,1310,0,0
-245,-286,0,0,0,0,0,0,0,0,0,-1,979,1310,0,0
-238,-286,0,0,0,0,0,0,0,0,0,-1,986,1310,0,0
-231,-286,0,0,0,0,0,0,0,0,0,-1,993,1310,0,0
-224,-286,0,0,0,0,0,0,0,0,0,-1,1000,1310,0,0
-217,-286,0,0,0,0,0,0,0,0,0,-1,1007,1310,0,0
-210,-286,0,0,0,0,0,0,0,0,0,-1,1014,1310,0,0
-203,-286,0,0,0,0,0,0,0,0,0,-1,1021,1310,0,0
-196,-286,0,0,0,0,0,0,0,0,0,-1,1028,1310,0,0
-189,-286,0,0,0,0,0,0,0,0,0,-1,1035,1310,0,0
-182,-286,0,0,0,0,0,0,0,0,0,-1,1042,1310,0,0
-175,-286,0,0,0,0,0,0,0,0,0,-1,1049,1310,0,0
-168,-286,0,0,0,0,0,0,0,0,0,-1,1056,1310,0,0
-161,-286,0,0,0,0,0,0,0,0,0,-1,1063,1310,0,0
-154,-286,0,0,0,0,0,0,0,0,0,-1,1070,1310,0,0
-147,-286,0,0,0,0,0,0,0,0,0,-1,1077,1310,0,0
-140,-286,0,0,0,0,0,0,0,0,0,-1,1084,1310,0,0
-133,-286,0,0,0,0,0,0,0,0,0,-1,1091,1310,0,0
-126,-286,0,0,0,0,0,0,0,0,0,-1,1098,1310,0,0
-119,-286,0,0,0,0,0,0,0,0,0,-1,1105,1310,0,0
-112,-286,0,0,0,0,0,0,0,0,0,-1,1112,1310,0,0
-105,-286,0,0,0,0,0,0,0,0,0,-1,1119,1310,0,0
-98,-286,0,0,0,0,0,0,0,0,0,-1,1126,1310,0,0
-91,-286,0,0,0,0,0,0,0,0,0,-1,1133,1310,0,0
-84,-286,0,0,0,0,0,0,0,0,0,-1,1140,1310,0,0
-77,-286,0,0,0,0,0,0,0,0,0,-1,1147,1310,0,0
-70,-286,0,0,0,0,0,0,0,0,0,-1,1154,1310,0,0
-63,-286,0,0,0,0,0,0,0,0,0,-1,1161,1310,0,0
-56,-286,0,0,0,0,0,0,0,0,0,-1,1168,1310,0,0
-49,-286,0,0,0,0,0,0,0,0,0,-1,1175,1310,0,0
-42,-286,0,0,0,0,0,0,0,0,0,-1,1182,1310,0,0
-35,-286,0,0,0,0,0,0,0,0,0,-1,1189,1310,0,0
-28,-286,0,0,0,0,0,0,0,0,0,-1,1196,1310,0,0
-21,-286,0,0,0,0,0,0,0,0,0,-1,1203,1310,0,0
-14,-286,0,0,0,0,0,0,0,0,0,-1,1210,1310,0,0
-7,-286,0,0,0,0,0,0,0,0,0,-1,1217,1310,0,0
0,-286,0,0,0,0,0,0,0,0,0,-1,1224,1310,0,0
7,-286,0,0,0,0,0,0,0,0,0,-1,1231,1310,0,0
14,-286,0,0,0,0,0,0,0,0,0,-1,1238,1310,0,0
21,-286,0,0,0,0,0,0,0,0,0,-1,1245,1310,0,0
28,-286,0,0,0,0,0,0,0,0,0,-1,1252,1310,0,0
35,-286,0,0,0,0,0,0,0,0,0,-1,1259,1310,0,0
42,-286,0,0,0,0,0,0,0,0,0,-1,1266,1310,0,0
49,-286,0,0,0,0,0,0,0,0,0,-1,1273,1310,0,0
56,-286,0,0,0,0,0,0,0,0,0,-1,1280,1310,0,0
63,-286,0,0,0,0,0,0,0,0,0,-1,1287,1310,0,0
70,-286,0,0,0,0,0,0,0,0,0,-1,1294,1310,0,0
77,-286,0,0,0,0,0,0,0,0,0,-1,1301,1310,0,0
84,-286,0,0,0,0,0,0,0,0,0,-1,1308,1310,0,0
91,-286,0,0,0,0,0,0,0,0,0,-1,1315,1310,0,0
98,-286,0,0,0,0,0,0,0,0,0,-1,1322,1310,0,0
105,-286,0,0,0,0,0,0,0,0,0,-1,1329,1310,0,0
112,-286,0,0,0,0,0,0,0,0,0,-1,1336,1310,0,0
119,-286,0,0,0,0,0,0,0,0,0,-1,1343,1310,0,0
126,-286,0,0,0,0,0,0,0,0,0,-1,1350,1310,0,0
133,-286,0,0,0,0,0,0,0,0,0,-1,1357,1310,0,0
140,-286,0,0,0,0,0,0,0,0,0,-1,1364,1310,0,0
147,-286,0,0,0,0,0,0,0,0,0,-1,1371,1310,0,0
154,-286,0,0,0,0,0,0,0,0,0,-1,1378,1310,0,0
161,-286,0,0,0,0,0,0,0,0,0,-1,1385,1310,0,0
168,-286,0,0,0,0,0,0,0,0,0,-1,1392,1310,0,0
175,-286,0,0,0,0,0,0,0,0,0,-1,1399,1310,0,0
182,-286,0,0,0,0,0,0,0,0,0,-1,1406,1310,0,0
189,-286,0,0,0,0,0,0,0,0,0,-1,1413,1310,0,0
196,-286,0,0,0,0,0,0,0,0,0,-1,1420,1310,0,0
203,-286,0,0,0,0,0,0,0,0,0,-1,1427,1310,0,0
210,-286,0,0,0,0,0,0,0,0,0,-1,1434,1310,0,0
217,-286,0,0,0,0,0,0,0,0,0,-1,1441,1310,0,0
224,-286,0,0,0,0,0,0,0,0,0,-1,1448,1310,0,0
231,-286,0,0,0,0,0,0,0,0,0,-1,1455,1310,0,0
238,-286,0,0,0,0,0,0,0,0,0,-1,1462,1310,0,0
245,-286,0,0,0,0,0,0,0,0,0,-1,1469,1310,0,0
252,-286,0,0,0,0,0,0,0,0,0,-1,1476,1310,0,0
259,-286,0,0,0,0,0,0,0,0,0,-1,1483,1310,0,0
266,-286,0,0,0,0,0,0,0,0,0,-1,1490,1310,0,0
273,-286,0,0,0,0,0,0,0,0,0,-1,1497,1310,0,0
280,-286,0,0,0,0,0,0,0,0,0,-1,1504,1310,0,0
287,-286,0,0,0,0,0,0,0,0,0,-1,1511,1310,0,0
294,-286,0,0,0,0,0,0,0,0,0,-1,1518,1310,0,0
301,-286,0,0,0,0,0,0,0,0,0,-1,1525,1310,0,0
308,-286,0,0,0,0,0,0,0,0,0,-1,1532,1310,0,0
315,-286,0,0,0,0,0,0,0,0,0,-1,1539,1310,0,0
322,-286,0,0,0,0,0,0,0,0,0,-1,1546,1310,0,0
329,-286,0,0,0,0,0,0,0,0,0,-1,1553,1310,0,0
336,-286,0,0,0,0,0,0,0,0,0,-1,1560,1310,0,0
343,-286,0,0,0,0,0,0,0,0,0,-1,1567,1310,0,0
350,-286,0,0,0,0,0,0,0,0,0,-1,1574,1310,0,0
357,-286,0,0,0,0,0,0,0,0,0,-1,1581,1310,0,0
364,-286,0,0,0,0,0,0,0,0,0,-1,1588,1310,0,0
371,-286,0,0,0,0,0,0,0,0,0,-1,1595,1310,0,0
378,-286,0,0,0,0,0,0,0,0,0,-1,1602,1310,0,0
385,-286,0,0,0,0,0,0,0,0,0,-1,1609,1310,0,0
392,-286,0,0,0,0,0,0,0,0,0,-1,1616,1310,0,0
399,-286,0,0,0,0,0,0,0,0,0,-1,1623,1310,0,0
406,-286,0,0,0,0,0,0,0,0,0,-1,1630,1310,0,0
413,-286,0,0,0,0,0,0,0,0,0,-1,1637,1310,0,0
420,-286,0,0,0,0,0,0,0,0,0,-1,1644,1310,0,0
427,-286,0,0,0,0,0,0,0,0,0,-1,1651,1310,0,0
434,-286,0,0,0,0,0,0,0,0,0,-1,1658,1310,0,0
441,-286,0,0,0,0,0,0,0,0,0,-1,1665,1310,0,0
448,-286,0,0,0,0,0,0,0,0,0,-1,1672,1310,0,0
455,-286,0,0,0,0,0,0,0,0,0,-1,1679,1310,0,0
462,-286,0,0,0,0,0,0,0,0,0,-1,1686,1310,0,0
469,-286,0,0,0,0,0,0,0,0,0,-1,1693,1310,0,0
476,-286,0,0,0,0,0,0,0,0,0,-1,1700,1310,0,0
483,-286,0,0,0,0,0,0,0,0,0,-1,1707,1310,0,0
490,-286,0,0,0,0,0,0,0,0,0,-1,1714,1310,0,0
497,-286,0,0,0,0,0,0,0,0,0,-1,1721,1310,0,0
504,-286,0,0,0,0,0,0,0,0,0,-1,1728,1310,0,0
511,-286,0,0,0,0,0,0,0,0,0,-1,1735,1310,0,0
518,-286,0,0,0,0,0,0,0,0,0,-1,1742,1310,0,0
525,-286,0,0,0,0,0,0,0,0,0,-1,1749,1310,0,0
532,-286,0,0,0,0,0,0,0,0,0,-1,1756,1310,0,0
539,-286,0,0,0,0,0,0,0,0,0,-1,1763,1310,0,0
546,-286,0,0,0,0,0,0,0,0,0,-1,1770,1310,0,0
553,-286,0,0,0,0,0,0,0,0,0,-1,1777,1310,0,0
560,-286,0,0,0,0,0,0,0,0,0,-1,1784,1310,0,0
567,-286,0,0,0,0,0,0,0,0,0,-1,1791,1310,0,0
574,-286,0,0,0,0,0,0,0,0,0,-1,1798,1310,0,0
581,-286,0,0,0,0,0,0,0,0,0,-1,1805,1310,0,0
588,-286,0,0,0,0,0,0,0,0,0,-1,1812,1310,0,0
595,-286,48.8954,2.59705,0,0,0,0,0,0,0,-1,1819,1310,48.8954,-2.59705
602,-286,48.8655,2.39587,0,0,0,0,0,0,0,-1,1826,1310,48.8654,-2.39586
609,-286,48.8423,2.22144,0,0,0,0,0,0,0,-1,1833,1310,48.8423,-2.2214
616,-286,49.3894,1.83325,0.0194366,0.0376446,-0.00506009,0.0389563,0.0181248,-1.31715,0.0225095,0.0461258,1840,1310,49.3894,-1.83328
623,-286,49.389,1.70837,0.018083,0.0319747,-0.00438624,0.0332437,0.016814,-1.28917,0.0191937,0.046722,1847,1310,49.389,-1.70839
630,-286,49.521,1.76013,0,0,0,0,0,0,0,-1,1854,1310,49.521,-1.76019
637,-286,47.8409,3.69824,0,0,0,0,0,0,0,-1,1861,1310,47.841,-3.69823
644,-286,25.6433,1.33862,0,0,0,0,0,0,0,-1,1868,1310,25.6433,-1.33858
651,-286,25.2507,1.88245,0,0,0,0,0,0,0,-1,1875,1310,25.2508,-1.88245
658,-286,25.9475,9.43689,0,0,0,0,0,0,0,-1,1882,1310,25.9475,-9.43693
665,-286,24.9838,8.03101,0,0,0,0,0,0,0,-1,1889,1310,24.9837,-8.03104
672,-286,34.532,10.959,0,0,0,0,0,0,0,-1,1896,1310,34.532,-10.959
679,-286,34.3076,10.6825,0,0,0,0,0,0,0,-1,1903,1310,34.3077,-10.6825
686,-286,34.2654,10.2056,0.000849913,-0.000362623,-0.000348498,0.000942939,-0.000455649,-0.260851,0.00082365,0.0211054,1910,1310,34.2654,-10.2056
693,-286,34.2379,9.72327,0.000837927,-0.000573734,-7.17015e-05,0.00084156,-0.000577367,-0.0506187,0.000823938,0.0160324,1917,1310,34.238,-9.72322
700,-286,34.2487,9.23621,0.000510803,-0.000404427,0.000240294,0.000570056,-0.00046368,0.241763,0.00059788,0.0114071,1924,1310,34.2486,-9.23618
707,-286,34.2424,8.78186,-2.06144e-05,-0.000295472,0.000654783,0.000511007,-0.000827093,0.681958,0.000779704,0.00901175,1931,1310,34.2424,-8.78186
714,-286,34.2119,8.30908,-0.000723285,-0.000252372,0.00113426,0.000670612,-0.00164627,0.887738,0.00137662,0.00927141,1938,1310,34.2119,-8.30907
721,-286,34.2064,7.83167,-0.0016318,-0.000251275,0.00168509,0.000879452,-0.00276252,0.979787,0.00219439,0.0121069,1945,1310,34.2064,-7.8317
728,-286,34.2015,7.37268,-0.00283088,-0.000325595,0.00233177,0.0010687,-0.00422517,1.03188,0.00323245,0.0155552,1952,1310,34.2015,-7.3727
735,-286,34.2336,6.91614,-0.00434925,-0.000449279,0.0030276,0.00120196,-0.00600049,1.0715,0.00445535,0.019494,1959,1310,34.2336,-6.91616
742,-286,34.1715,6.52576,-0.00625526,-0.00070139,0.00377999,0.00121206,-0.00816871,1.1022,0.00589153,0.0435215,1966,1310,34.1715,-6.52574
749,-286,34.224,6.104,0,0,0,0,0,0,0,-1,1973,1310,34.224,-6.10406
756,-286,24.8226,4.43481,0,0,0,0,0,0,0,-1,1980,1310,24.8227,-4.43479
763,-286,20.6671,3.99683,0,0,0,0,0,0,0,-1,1987,1310,20.6671,-3.99683
770,-286,23.9147,4.45679,0,0,0,0,0,0,0,-1,1994,1310,23.9146,-4.45675
777,-286,0,0,0,0,0,0,0,0,0,-1,2001,1310,0,0
784,-286,0,0,0,0,0,0,0,0,0,-1,2008,1310,0,0
791,-286,0,0,0,0,0,0,0,0,0,-1,2015,1310,0,0
798,-286,0,0,0,0,0,0,0,0,0,-1,2022,1310,0,0
805,-286,0,0,0,0,0,0,0,0,0,-1,2029,1310,0,0
812,-286,0,0,0,0,0,0,0,0,0,-1,2036,1310,0,0
-700,-293,0,0,0,0,0,0,0,0,0,-1,524,1317,0,0
-693,-293,0,0,0,0,0,0,0,0,0,-1,531,1317,0,0
-686,-293,0,0,0,0,0,0,0,0,0,-1,538,1317,0,0
-679,-293,0,0,0,0,0,0,0,0,0,-1,545,1317,0,0
-672,-293,0,0,0,0,0,0,0,0,0,-1,552,1317,0,0
-665,-293,0,0,0,0,0,0,0,0,0,-1,559,1317,0,0
-658,-293,0,0,0,0,0,0,0,0,0,-1,566,1317,0,0
-651,-293,-19.3986,0.230591,0,0,0,0,0,0,0,-1,573,1317,-19.3986,-0.230615
-644,-293,-19.6501,1.56128,0,0,0,0,0,0,0,-1,580,1317,-19.6502,-1.56126
-637,-293,-19.9641,2.40369,0,0,0,0,0,0,0,-1,587,1317,-19.9641,-2.4037
-630,-293,-20.2918,3.08264,0,0,0,0,0,0,0,-1,594,1317,-20.2918,-3.08267
-623,-293,-15.6058,0.229614,0,0,0,0,0,0,0,-1,601,1317,-15.6058,-0.229666
-616,-293,-15.5056,2.17737,0,0,0,0,0,0,0,-1,608,1317,-15.5055,-2.17742
-609,-293,-19.8128,3.52686,0,0,0,0,0,0,0,-1,615,1317,-19.8128,-3.52684
-602,-293,-19.777,4.28064,0.00907871,0.00815147,0.00785335,0.0164821,0.000748065,0.755915,0.0107474,0.0476912,622,1317,-19.777,-4.28061
-595,-293,-19.9369,4.98755,0.00649654,0.00565474,0.00536229,0.0114544,0.00069685,0.746232,0.00741492,0.0197638,629,1317,-19.9369,-4.98754
-588,-293,-19.8964,5.52808,0.00471518,0.00381532,0.00363693,0.00792991,0.0006006,0.723855,0.00509821,0.0166258,636,1317,-19.8964,-5.52807
-581,-293,-19.8951,6.03235,0.00362028,0.00240605,0.0024455,0.00553289,0.000493432,0.663729,0.00353561,0.0184352,643,1317,-19.8951,-6.03234
-574,-293,-19.9294,6.57373,0.00288674,0.00126143,0.00151431,0.00379268,0.000355495,0.539129,0.00241868,0.0159026,650,1317,-19.9294,-6.57368
-567,-293,-19.9509,7.11755,0.00261598,0.000411665,0.000981363,0.00298957,3.80778e-05,0.363743,0.00198048,0.0153,657,1317,-19.9509,-7.11754
-560,-293,-19.9601,7.64197,0.00273965,-0.00030302,0.000679088,0.00288434,-0.000447705,0.209918,0.00208819,0.0162381,664,1317,-19.9601,-7.64196
-553,-293,-19.9661,8.14294,0.00323834,-0.000786307,0.000574066,0.00331862,-0.000866589,0.138947,0.00255082,0.0109039,671,1317,-19.9661,-8.1429
-546,-293,-19.968,8.67249,0.00398267,-0.00108154,0.00058576,0.00404954,-0.00114841,0.113667,0.003153,0.0118621,678,1317,-19.968,-8.67253
-539,-293,-19.9239,9.18115,0.00532314,-0.00147292,0.000825033,0.00542186,-0.00157165,0.119094,0.00423677,0.0369071,685,1317,-19.9239,-9.18116
-532,-293,-19.8531,9.62268,0,0,0,0,0,0,0,-1,692,1317,-19.8531,-9.62267
-525,-293,-8.20642,3.62256,0,0,0,0,0,0,0,-1,699,1317,-8.20639,-3.6226
-518,-293,-10.1053,0.314209,0,0,0,0,0,0,0,-1,706,1317,-10.1053,-0.314234
-511,-293,-11.6276,0.235352,0,0,0,0,0,0,0,-1,713,1317,-11.6276,-0.235372
-504,-293,-17.9086,1.25427,0,0,0,0,0,0,0,-1,720,1317,-17.9086,-1.25423
-497,-293,-18.8006,1.62122,0,0,0,0,0,0,0,-1,727,1317,-18.8006,-1.62119
-490,-293,-18.8961,1.99255,0,0,0,0,0,0,0,-1,734,1317,-18.8961,-1.99251
-483,-293,-19.0831,2.35498,0,0,0,0,0,0,0,-1,741,1317,-19.0831,-2.35497
-476,-293,-19.5228,2.61243,0,0,0,0,0,0,0,-1,748,1317,-19.5228,-2.61237
-469,-293,0,0,0,0,0,0,0,0,0,-1,755,1317,0,0
-462,-293,0,0,0,0,0,0,0,0,0,-1,762,1317,0,0
-455,-293,0,0,0,0,0,0,0,0,0,-1,769,1317,0,0
-448,-293,0,0,0,0,0,0,0,0,0,-1,776,1317,0,0
-441,-293,0,0,0,0,0,0,0,0,0,-1,783,1317,0,0
-434,-293,0,0,0,0,0,0,0,0,0,-1,790,1317,0,0
-427,-293,0,0,0,0,0,0,0,0,0,-1,797,1317,0,0
-420,-293,0,0,0,0,0,0,0,0,0,-1,804,1317,0,0
-413,-293,0,0,0,0,0,0,0,0,0,-1,811,1317,0,0
-406,-293,0,0,0,0,0,0,0,0,0,-1,818,1317,0,0
-399,-293,0,0,0,0,0,0,0,0,0,-1,825,1317,0,0
-392,-293,0,0,0,0,0,0,0,0,0,-1,832,1317,0,0
-385,-293,0,0,0,0,0,0,0,0,0,-1,839,1317,0,0
-378,-293,0,0,0,0,0,0,0,0,0,-1,846,1317,0,0
-371,-293,0,0,0,0,0,0,0,0,0,-1,853,1317,0,0
-364,-293,0,0,0,0,0,0,0,0,0,-1,860,1317,0,0
-357,-293,0,0,0,0,0,0,0,0,0,-1,867,1317,0,0
-350,-293,0,0,0,0,0,0,0,0,0,-1,874,1317,0,0
-343,-293,0,0,0,0,0,0,0,0,0,-1,881,1317,0,0
-336,-293,0,0,0,0,0,0,0,0,0,-1,888,1317,0,0
-329,-293,0,0,0,0,0,0,0,0,0,-1,895,1317,0,0
-322,-293,0,0,0,0,0,0,0,0,0,-1,902,1317,0,0
-315,-293,0,0,0,0,0,0,0,0,0,-1,909,1317,0,0
-308,-293,0,0,0,0,0,0,0,0,0,-1,916,1317,0,0
-301,-293,0,0,0,0,0,0,0,0,0,-1,923,1317,0,0
-294,-293,0,0,0,0,0,0,0,0,0,-1,930,1317,0,0
-287,-293,0,0,0,0,0,0,0,0,0,-1,937,1317,0,0
-280,-293,0,0,0,0,0,0,0,0,0,-1,944,1317,0,0
-273,-293,0,0,0,0,0,0,0,0,0,-1,951,1317,0,0
-266,-293,0,0,0,0,0,0,0,0,0,-1,958,1317,0,0
-259,-293,0,0,0,0,0,0,0,0,0,-1,965,1317,0,0
-252,-293,0,0,0,0,0,0,0,0,0,-1,972,1317,0,0
-245,-293,0,0,0,0,0,0,0,0,0,-1,979,1317,0,0
-238,-293,0,0,0,0,0,0,0,0,0,-1,986,1317,0,0
-231,-293,0,0,0,0,0,0,0,0,0,-1,993,1317,0,0
-224,-293,0,0,0,0,0,0,0,0,0,-1,1000,1317,0,0
-217,-293,0,0,0,0,0,0,0,0,0,-1,1007,1317,0,0
-210,-293,0,0,0,0,0,0,0,0,0,-1,1014,1317,0,0
-203,-293,0,0,0,0,0,0,0,0,0,-1,1021,1317,0,0
-196,-293,0,0,0,0,0,0,0,0,0,-1,1028,1317,0,0
-189,-293,0,0,0,0,0,0,0,0,0,-1,1035,1317,0,0
-182,-293,0,0,0,0,0,0,0,0,0,-1,1042,1317,0,0
-175,-293,0,0,0,0,0,0,0,0,0,-1,1049,1317,0,0
-168,-293,0,0,0,0,0,0,0,0,0,-1,1056,1317,0,0
-161,-293,0,0,0,0,0,0,0,0,0,-1,1063,1317,0,0
-154,-293,0,0,0,0,0,0,0,0,0,-1,1070,1317,0,0
-147,-293,0,0,0,0,0,0,0,0,0,-1,1077,1317,0,0
-140,-293,0,0,0,0,0,0,0,0,0,-1,1084,1317,0,0
-133,-293,0,0,0,0,0,0,0,0,0,-1,1091,1317,0,0
-126,-293,0,0,0,0,0,0,0,0,0,-1,1098,1317,0,0
-119,-293,0,0,0,0,0,0,0,0,0,-1,1105,1317,0,0
-112,-293,0,0,0,0,0,0,0,0,0,-1,1112,1317,0,0
-105,-293,0,0,0,0,0,0,0,0,0,-1,1119,1317,0,0
-98,-293,0,0,0,0,0,0,0,0,0,-1,1126,1317,0,0
-91,-293,0,0,0,0,0,0,0,0,0,-1,1133,1317,0,0
-84,-293,0,0,0,0,0,0,0,0,0,-1,1140,1317,0,0
-77,-293,0,0,0,0,0,0,0,0,0,-1,1147,1317,0,0
-70,-293,0,0,0,0,0,0,0,0,0,-1,1154,1317,0,0
-63,-293,0,0,0,0,0,0,0,0,0,-1,1161,1317,0,0
-56,-293,0,0,0,0,0,0,0,0,0,-1,1168,1317,0,0
-49,-293,0,0,0,0,0,0,0,0,0,-1,1175,1317,0,0
-42,-293,0,0,0,0,0,0,0,0,0,-1,1182,1317,0,0
-35,-293,0,0,0,0,0,0,0,0,0,-1,1189,1317,0,0
-28,-293,0,0,0,0,0,0,0,0,0,-1,1196,1317,0,0
-21,-293,0,0,0,0,0,0,0,0,0,-1,1203,1317,0,0
-14,-293,0,0,0,0,0,0,0,0,0,-1,1210,1317,0,0
-7,-293,0,0,0,0,0,0,0,0,0,-1,1217,1317,0,0
0,-293,0,0,0,0,0,0,0,0,0,-1,1224,1317,0,0
7,-293,0,0,0,0,0,0,0,0,0,-1,1231,1317,0,0
14,-293,0,0,0,0,0,0,0,0,0,-1,1238,1317,0,0
21,-293,0,0,0,0,0,0,0,0,0,-1,1245,1317,0,0
28,-293,0,0,0,0,0,0,0,0,0,-1,1252,1317,0,0
35,-293,0,0,0,0,0,0,0,0,0,-1,1259,1317,0,0
42,-293,0,0,0,0,0,0,0,0,0,-1,1266,1317,0,0
49,-293,0,0,0,0,0,0,0,0,0,-1,1273,1317,0,0
56,-293,0,0,0,0,0,0,0,0,0,-1,1280,1317,0,0
63,-293,0,0,0,0,0,0,0,0,0,-1,1287,1317,0,0
70,-293,0,0,0,0,0,0,0,0,0,-1,1294,1317,0,0
77,-293,0,0,0,0,0,0,0,0,0,-1,1301,1317,0,0
84,-293,0,0,0,0,0,0,0,0,0,-1,1308,1317,0,0
91,-293,0,0,0,0,0,0,0,0,0,-1,1315,1317,0,0
98,-293,0,0,0,0,0,0,0,0,0,-1,1322,1317,0,0
105,-293,0,0,0,0,0,0,0,0,0,-1,1329,1317,0,0
112,-293,0,0,0,0,0,0,0,0,0,-1,1336,1317,0,0
119,-293,0,0,0,0,0,0,0,0,0,-1,1343,1317,0,0
126,-293,0,0,0,0,0,0,0,0,0,-1,1350,1317,0,0
133,-293,0,0,0,0,0,0,0,0,0,-1,1357,1317,0,0
140,-293,0,0,0,0,0,0,0,0,0,-1,1364,1317,0,0
147,-293,0,0,0,0,0,0,0,0,0,-1,1371,1317,0,0
154,-293,0,0,0,0,0,0,0,0,0,-1,1378,1317,0,0
161,-293,0,0,0,0,0,0,0,0,0,-1,1385,1317,0,0
168,-293,0,0,0,0,0,0,0,0,0,-1,1392,1317,0,0
175,-293,0,0,0,0,0,0,0,0,0,-1,1399,1317,0,0
182,-293,0,0,0,0,0,0,0,0,0,-1,1406,1317,0,0
189,-293,0,0,0,0,0,0,0,0,0,-1,1413,1317,0,0
196,-293,0,0,0,0,0,0,0,0,0,-1,1420,1317,0,0
203,-293,0,0,0,0,0,0,0,0,0,-1,1427,1317,0,0
210,-293,0,0,0,0,0,0,0,0,0,-1,1434,1317,0,0
217,-293,0,0,0,0,0,0,0,0,0,-1,1441,1317,0,0
224,-293,0,0,0,0,0,0,0,0,0,-1,1448,1317,0,0
231,-293,0,0,0,0,0,0,0,0,0,-1,1455,1317,0,0
238,-293,0,0,0,0,0,0,0,0,0,-1,1462,1317,0,0
245,-293,0,0,0,0,0,0,0,0,0,-1,1469,1317,0,0
252,-293,0,0,0,0,0,0,0,0,0,-1,1476,1317,0,0
259,-293,0,0,0,0,0,0,0,0,0,-1,1483,1317,0,0
266,-293,0,0,0,0,0,0,0,0,0,-1,1490,1317,0,0
273,-293,0,0,0,0,0,0,0,0,0,-1,1497,1317,0,0
280,-293,0,0,0,0,0,0,0,0,0,-1,1504,1317,0,0
287,-293,0,0,0,0,0,0,0,0,0,-1,1511,1317,0,0
294,-293,0,0,0,0,0,0,0,0,0,-1,1518,1317,0,0
301,-293,0,0,0,0,0,0,0,0,0,-1,1525,1317,0,0
308,-293,0,0,0,0,0,0,0,0,0,-1,1532,1317,0,0
315,-293,0,0,0,0,0,0,0,0,0,-1,1539,1317,0,0
322,-293,0,0,0,0,0,0,0,0,0,-1,1546,1317,0,0
329,-293,0,0,0,0,0,0,0,0,0,-1,1553,1317,0,0
336,-293,0,0,0,0,0,0,0,0,0,-1,1560,1317,0,0
343,-293,0,0,0,0,0,0,0,0,0,-1,1567,1317,0,0
350,-293,0,0,0,0,0,0,0,0,0,-1,1574,1317,0,0
357,-293,0,0,0,0,0,0,0,0,0,-1,1581,1317,0,0
364,-293,0,0,0,0,0,0,0,0,0,-1,1588,1317,0,0
371,-293,0,0,0,0,0,0,0,0,0,-1,1595,1317,0,0
378,-293,0,0,0,0,0,0,0,0,0,-1,1602,1317,0,0
385,-293,0,0,0,0,0,0,0,0,0,-1,1609,1317,0,0
392,-293,0,0,0,0,0,0,0,0,0,-1,1616,1317,0,0
399,-293,0,0,0,0,0,0,0,0,0,-1,1623,1317,0,0
406,-293,0,0,0,0,0,0,0,0,0,-1,1630,1317,0,0
413,-293,0,0,0,0,0,0,0,0,0,-1,1637,1317,0,0
420,-293,0,0,0,0,0,0,0,0,0,-1,1644,1317,0,0
427,-293,0,0,0,0,0,0,0,0,0,-1,1651,1317,0,0
434,-293,0,0,0,0,0,0,0,0,0,-1,1658,1317,0,0
441,-293,0,0,0,0,0,0,0,0,0,-1,1665,1317,0,0
448,-293,0,0,0,0,0,0,0,0,0,-1,1672,1317,0,0
455,-293,0,0,0,0,0,0,0,0,0,-1,1679,1317,0,0
462,-293,0,0,0,0,0,0,0,0,0,-1,1686,1317,0,0
469,-293,0,0,0,0,0,0,0,0,0,-1,1693,1317,0,0
476,-293,0,0,0,0,0,0,0,0,0,-1,1700,1317,0,0
483,-293,0,0,0,0,0,0,0,0,0,-1,1707,1317,0,0
490,-293,0,0,0,0,0,0,0,0,0,-1,1714,1317,0,0
497,-293,0,0,0,0,0,0,0,0,0,-1,1721,1317,0,0
504,-293,0,0,0,0,0,0,0,0,0,-1,1728,1317,0,0
511,-293,0,0,0,0,0,0,0,0,0,-1,1735,1317,0,0
518,-293,0,0,0,0,0,0,0,0,0,-1,1742,1317,0,0
525,-293,0,0,0,0,0,0,0,0,0,-1,1749,1317,0,0
532,-293,0,0,0,0,0,0,0,0,0,-1,1756,1317,0,0
539,-293,0,0,0,0,0,0,0,0,0,-1,1763,1317,0,0
546,-293,0,0,0,0,0,0,0,0,0,-1,1770,1317,0,0
553,-293,0,0,0,0,0,0,0,0,0,-1,1777,1317,0,0
560,-293,0,0,0,0,0,0,0,0,0,-1,1784,1317,0,0
567,-293,0,0,0,0,0,0,0,0,0,-1,1791,1317,0,0
574,-293,0,0,0,0,0,0,0,0,0,-1,1798,1317,0,0
581,-293,0,0,0,0,0,0,0,0,0,-1,1805,1317,0,0
588,-293,0,0,0,0,0,0,0,0,0,-1,1812,1317,0,0
595,-293,49.123,2.5752,0,0,0,0,0,0,0,-1,1819,1317,49.123,-2.57518
602,-293,48.983,2.27148,0,0,0,0,0,0,0,-1,1826,1317,48.9831,-2.27145
609,-293,48.3654,1.72913,0,0,0,0,0,0,0,-1,1833,1317,48.3654,-1.72917
616,-293,48.8978,1.39929,0,0,0,0,0,0,0,-1,1840,1317,48.8978,-1.39926
623,-293,49.3131,1.11304,0,0,0,0,0,0,0,-1,1847,1317,49.3131,-1.11299
630,-293,46.6716,3.21558,0,0,0,0,0,0,0,-1,1854,1317,46.6716,-3.2156
637,-293,42.7729,4.95544,0,0,0,0,0,0,0,-1,1861,1317,42.773,-4.95546
644,-293,24.4565,0.520752,0,0,0,0,0,0,0,-1,1868,1317,24.4566,-0.520709
651,-293,25.8926,9.51245,0,0,0,0,0,0,0,-1,1875,1317,25.8926,-9.51246
658,-293,25.4904,9.10205,0,0,0,0,0,0,0,-1,1882,1317,25.4904,-9.10209
665,-293,34.1616,11.3741,0,0,0,0,0,0,0,-1,1889,1317,34.1616,-11.3742
672,-293,33.9044,11.1747,0.00543561,0.00465794,-0.000934621,0.00605905,0.00403449,-0.588272,0.00356177,0.0402338,1896,1317,33.9044,-11.1747
679,-293,33.8381,10.708,0.00321774,0.00141634,-0.000492208,0.00334346,0.00129062,-0.250065,0.00194699,0.01411,1903,1317,33.8381,-10.7081
686,-293,33.8129,10.2328,0.000800988,-0.000412008,-0.000230412,0.000843281,-0.000454301,-0.181532,0.000760297,0.0157146,1910,1317,33.8129,-10.2328
693,-293,33.7939,9.74841,0.000712037,-0.000535415,3.11091e-05,0.000712813,-0.00053619,0.0249175,0.000723512,0.0119483,1917,1317,33.7939,-9.74839
700,-293,33.7753,9.25415,0.000408995,-0.000392693,0.00032088,0.00052161,-0.000505308,0.337526,0.000592916,0.0102642,1924,1317,33.7753,-9.25416
707,-293,33.7625,8.80652,-2.93392e-05,-0.000315132,0.000704371,0.000546484,-0.000890955,0.685321,0.000837812,0.0111296,1931,1317,33.7624,-8.80646
714,-293,33.7324,8.33704,-0.000638859,-0.0002744,0.0011384,0.000696259,-0.00160952,0.864763,0.0013656,0.00826734,1938,1317,33.7324,-8.33699
721,-293,33.7346,7.85266,-0.00145566,-0.000272721,0.00165524,0.000893553,-0.00262193,0.956993,0.00210985,0.010257,1945,1317,33.7346,-7.85271
728,-293,33.7338,7.37024,-0.00258564,-0.000334867,0.00227749,0.00108011,-0.00400063,1.01487,0.00309069,0.0130132,1952,1317,33.7337,-7.37024
735,-293,33.7386,6.88611,-0.00406553,-0.000413643,0.00294237,0.0012233,-0.00570247,1.0631,0.00426826,0.024733,1959,1317,33.7387,-6.88615
742,-293,33.8334,6.38269,0,0,0,0,0,0,0,-1,1966,1317,33.8333,-6.38274
749,-293,29.439,5.35339,0,0,0,0,0,0,0,-1,1973,1317,29.4389,-5.35334
756,-293,24.978,3.9718,0,0,0,0,0,0,0,-1,1980,1317,24.978,-3.97186
763,-293,26.6713,4.74097,0,0,0,0,0,0,0,-1,1987,1317,26.6713,-4.74098
770,-293,24.1349,4.69153,0,0,0,0,0,0,0,-1,1994,1317,24.1348,-4.69159
777,-293,0,0,0,0,0,0,0,0,0,-1,2001,1317,0,0
784,-293,0,0,0,0,0,0,0,0,0,-1,2008,1317,0,0
791,-293,0,0,0,0,0,0,0,0,0,-1,2015,1317,0,0
798,-293,0,0,0,0,0,0,0,0,0,-1,2022,1317,0,0
805,-293,0,0,0,0,0,0,0,0,0,-1,2029,1317,0,0
812,-293,0,0,0,0,0,0,0,0,0,-1,2036,1317,0,0
-700,-300,0,0,0,0,0,0,0,0,0,-1,524,1324,0,0
-693,-300,0,0,0,0,0,0,0,0,0,-1,531,1324,0,0
-686,-300,0,0,0,0,0,0,0,0,0,-1,538,1324,0,0
-679,-300,0,0,0,0,0,0,0,0,0,-1,545,1324,0,0
-672,-300,0,0,0,0,0,0,0,0,0,-1,552,1324,0,0
-665,-300,0,0,0,0,0,0,0,0,0,-1,559,1324,0,0
-658,-300,0,0,0,0,0,0,0,0,0,-1,566,1324,0,0
-651,-300,-20.1143,0.203857,0,0,0,0,0,0,0,-1,573,1324,-20.1142,-0.203872
-644,-300,-20.4374,1.17224,0,0,0,0,0,0,0,-1,580,1324,-20.4375,-1.17226
-637,-300,-20.7362,1.82813,0,0,0,0,0,0,0,-1,587,1324,-20.7362,-1.8281
-630,-300,-21.1108,2.26306,0,0,0,0,0,0,0,-1,594,1324,-21.1109,-2.2631
-623,-300,-12.7067,1.48462,0,0,0,0,0,0,0,-1,601,1324,-12.7067,-1.48462
-616,-300,-14.9988,1.68628,0,0,0,0,0,0,0,-1,608,1324,-14.9988,-1.68627
-609,-300,-15.5027,3.29907,0,0,0,0,0,0,0,-1,615,1324,-15.5027,-3.29902
-602,-300,-19.2891,4.19885,0,0,0,0,0,0,0,-1,622,1324,-19.289,-4.19885
-595,-300,-19.4476,4.98303,0.00663623,0.00570772,0.00534703,0.0115391,0.000804822,0.742094,0.007439,0.0337096,629,1324,-19.4476,-4.98299
-588,-300,-19.3536,5.56995,0.00479202,0.00389716,0.00369013,0.00806175,0.000627428,0.725067,0.00517804,0.020213,636,1324,-19.3536,-5.56998
-581,-300,-19.3723,6.09644,0.003674,0.00255898,0.00255538,0.00573198,0.000501,0.677996,0.00366575,0.0204209,643,1324,-19.3723,-6.09649
-574,-300,-19.3847,6.60144,0.00293035,0.00150524,0.00169665,0.004058,0.000377584,0.586593,0.00258867,0.0159354,650,1324,-19.3847,-6.60139
-567,-300,-19.4069,7.11279,0.00259813,0.000716241,0.0011643,0.00315418,0.000160195,0.44555,0.00205147,0.0159402,657,1324,-19.4069,-7.11284
-560,-300,-19.4285,7.64038,0.0026271,4.71527e-05,0.00083062,0.00287139,-0.000197136,0.286039,0.00198324,0.0148288,664,1324,-19.4284,-7.64036
-553,-300,-19.4326,8.15637,0.00299393,-0.000402556,0.000682267,0.00312585,-0.000534481,0.191007,0.00228301,0.0100529,671,1324,-19.4326,-8.15633
-546,-300,-19.4495,8.68958,0.00365742,-0.000691944,0.000688299,0.00376375,-0.00079827,0.153265,0.00281326,0.00876757,678,1324,-19.4495,-8.68954
-539,-300,-19.4221,9.23279,0.00485644,-0.00101367,0.000902912,0.00499218,-0.00114942,0.149221,0.00377012,0.0212776,685,1324,-19.4221,-9.23277
-532,-300,-19.3756,9.7301,0,0,0,0,0,0,0,-1,692,1324,-19.3756,-9.73013
-525,-300,-13.5115,6.27783,0,0,0,0,0,0,0,-1,699,1324,-13.5115,-6.2778
-518,-300,-9.8349,-0.537109,0,0,0,0,0,0,0,-1,706,1324,-9.83487,0.537068
-511,-300,-12.8644,0.081665,0,0,0,0,0,0,0,-1,713,1324,-12.8644,-0.0817016
-504,-300,-13.4829,-0.165527,0,0,0,0,0,0,0,-1,720,1324,-13.4829,0.165544
-497,-300,-18.1063,0.956543,0,0,0,0,0,0,0,-1,727,1324,-18.1063,-0.9565
-490,-300,-18.2293,1.53625,0,0,0,0,0,0,0,-1,734,1324,-18.2293,-1.53626
-483,-300,-18.3522,1.61084,0,0,0,0,0,0,0,-1,741,1324,-18.3522,-1.6108
-476,-300,-18.7489,1.96387,0,0,0,0,0,0,0,-1,748,1324,-18.7489,-1.96387
-469,-300,0,0,0,0,0,0,0,0,0,-1,755,1324,0,0
-462,-300,0,0,0,0,0,0,0,0,0,-1,762,1324,0,0
-455,-300,0,0,0,0,0,0,0,0,0,-1,769,1324,0,0
-448,-300,0,0,0,0,0,0,0,0,0,-1,776,1324,0,0
-441,-300,0,0,0,0,0,0,0,0,0,-1,783,1324,0,0
-434,-300,0,0,0,0,0,0,0,0,0,-1,790,1324,0,0
-427,-300,0,0,0,0,0,0,0,0,0,-1,797,1324,0,0
-420,-300,0,0,0,0,0,0,0,0,0,-1,804,1324,0,0
-413,-300,0,0,0,0,0,0,0,0,0,-1,811,1324,0,0
-406,-300,0,0,0,0,0,0,0,0,0,-1,818,1324,0,0
-399,-300,0,0,0,0,0,0,0,0,0,-1,825,1324,0,0
-392,-300,0,0,0,0,0,0,0,0,0,-1,832,1324,0,0
-385,-300,0,0,0,0,0,0,0,0,0,-1,839,1324,0,0
-378,-300,0,0,0,0,0,0,0,0,0,-1,846,1324,0,0
-371,-300,0,0,0,0,0,0,0,0,0,-1,853,1324,0,0
-364,-300,0,0,0,0,0,0,0,0,0,-1,860,1324,0,0
-357,-300,0,0,0,0,0,0,0,0,0,-1,867,1324,0,0
-350,-300,0,0,0,0,0,0,0,0,0,-1,874,1324,0,0
-343,-300,0,0,0,0,0,0,0,0,0,-1,881,1324,0,0
-336,-300,0,0,0,0,0,0,0,0,0,-1,888,1324,0,0
-329,-300,0,0,0,0,0,0,0,0,0,-1,895,1324,0,0
-322,-300,0,0,0,0,0,0,0,0,0,-1,902,1324,0,0
-315,-300,0,0,0,0,0,0,0,0,0,-1,909,1324,0,0
-308,-300,0,0,0,0,0,0,0,0,0,-1,916,1324,0,0
-301,-300,0,0,0,0,0,0,0,0,0,-1,923,1324,0,0
-294,-300,0,0,0,0,0,0,0,0,0,-1,930,1324,0,0
-287,-300,0,0,0,0,0,0,0,0,0,-1,937,1324,0,0
-280,-300,0,0,0,0,0,0,0,0,0,-1,944,1324,0,0
-273,-300,0,0,0,0,0,0,0,0,0,-1,951,1324,0,0
-266,-300,0,0,0,0,0,0,0,0,0,-1,958,1324,0,0
-259,-300,0,0,0,0,0,0,0,0,0,-1,965,1324,0,0
-252,-300,0,0,0,0,0,0,0,0,0,-1,972,1324,0,0
-245,-300,0,0,0,0,0,0,0,0,0,-1,979,1324,0,0
-238,-300,0,0,0,0,0,0,0,0,0,-1,986,1324,0,0
-231,-300,0,0,0,0,0,0,0,0,0,-1,993,1324,0,0
-224,-300,0,0,0,0,0,0,0,0,0,-1,1000,1324,0,0
-217,-300,0,0,0,0,0,0,0,0,0,-1,1007,1324,0,0
-210,-300,0,0,0,0,0,0,0,0,0,-1,1014,1324,0,0
-203,-300,0,0,0,0,0,0,0,0,0,-1,1021,1324,0,0
-196,-300,0,0,0,0,0,0,0,0,0,-1,1028,1324,0,0
-189,-300,0,0,0,0,0,0,0,0,0,-1,1035,1324,0,0
-182,-300,0,0,0,0,0,0,0,0,0,-1,1042,1324,0,0
-175,-300,0,0,0,0,0,0,0,0,0,-1,1049,1324,0,0
-168,-300,0,0,0,0,0,0,0,0,0,-1,1056,1324,0,0
-161,-300,0,0,0,0,0,0,0,0,0,-1,1063,1324,0,0
-154,-300,0,0,0,0,0,0,0,0,0,-1,1070,1324,0,0
-147,-300,0,0,0,0,0,0,0,0,0,-1,1077,1324,0,0
-140,-300,0,0,0,0,0,0,0,0,0,-1,1084,1324,0,0
-133,-300,0,0,0,0,0,0,0,0,0,-1,1091,1324,0,0
-126,-300,0,0,0,0,0,0,0,0,0,-1,1098,1324,0,0
-119,-300,0,0,0,0,0,0,0,0,0,-1,1105,1324,0,0
-112,-300,0,0,0,0,0,0,0,0,0,-1,1112,1324,0,0
-105,-300,0,0,0,0,0,0,0,0,0,-1,1119,1324,0,0
-98,-300,0,0,0,0,0,0,0,0,0,-1,1126,1324,0,0
-91,-300,0,0,0,0,0,0,0,0,0,-1,1133,1324,0,0
-84,-300,0,0,0,0,0,0,0,0,0,-1,1140,1324,0,0
-77,-300,0,0,0,0,0,0,0,0,0,-1,1147,1324,0,0
-70,-300,0,0,0,0,0,0,0,0,0,-1,1154,1324,0,0
-63,-300,0,0,0,0,0,0,0,0,0,-1,1161,1324,0,0
-56,-300,0,0,0,0,0,0,0,0,0,-1,1168,1324,0,0
-49,-300,0,0,0,0,0,0,0,0,0,-1,1175,1324,0,0
-42,-300,0,0,0,0,0,0,0,0,0,-1,1182,1324,0,0
-35,-300,0,0,0,0,0,0,0,0,0,-1,1189,1324,0,0
-28,-300,0,0,0,0,0,0,0,0,0,-1,1196,1324,0,0
-21,-300,0,0,0,0,0,0,0,0,0,-1,1203,1324,0,0
-14,-300,0,0,0,0,0,0,0,0,0,-1,1210,1324,0,0
-7,-300,0,0,0,0,0,0,0,0,0,-1,1217,1324,0,0
0,-300,0,0,0,0,0,0,0,0,0,-1,1224,1324,0,0
7,-300,0,0,0,0,0,0,0,0,0,-1,1231,1324,0,0
14,-300,0,0,0,0,0,0,0,0,0,-1,1238,1324,0,0
21,-300,0,0,0,0,0,0,0,0,0,-1,1245,1324,0,0
28,-300,0,0,0,0,0,0,0,0,0,-1,1252,1324,0,0
35,-300,0,0,0,0,0,0,0,0,0,-1,1259,1324,0,0
42,-300,0,0,0,0,0,0,0,0,0,-1,1266,1324,0,0
49,-300,0,0,0,0,0,0,0,0,0,-1,1273,1324,0,0
56,-300,0,0,0,0,0,0,0,0,0,-1,1280,1324,0,0
63,-300,0,0,0,0,0,0,0,0,0,-1,1287,1324,0,0
70,-300,0,0,0,0,0,0,0,0,0,-1,1294,1324,0,0
77,-300,0,0,0,0,0,0,0,0,0,-1,1301,1324,0,0
84,-300,0,0,0,0,0,0,0,0,0,-1,1308,1324,0,0
91,-300,0,0,0,0,0,0,0,0,0,-1,1315,1324,0,0
98,-300,0,0,0,0,0,0,0,0,0,-1,1322,1324,0,0
105,-300,0,0,0,0,0,0,0,0,0,-1,1329,1324,0,0
112,-300,0,0,0,0,0,0,0,0,0,-1,1336,1324,0,0
119,-300,0,0,0,0,0,0,0,0,0,-1,1343,1324,0,0
126,-300,0,0,0,0,0,0,0,0,0,-1,1350,1324,0,0
133,-300,0,0,0,0,0,0,0,0,0,-1,1357,1324,0,0
140,-300,0,0,0,0,0,0,0,0,0,-1,1364,1324,0,0
147,-300,0,0,0,0,0,0,0,0,0,-1,1371,1324,0,0
154,-300,0,0,0,0,0,0,0,0,0,-1,1378,1324,0,0
161,-300,0,0,0,0,0,0,0,0,0,-1,1385,1324,0,0
168,-300,0,0,0,0,0,0,0,0,0,-1,1392,1324,0,0
175,-300,0,0,0,0,0,0,0,0,0,-1,1399,1324,0,0
182,-300,0,0,0,0,0,0,0,0,0,-1,1406,1324,0,0
189,-300,0,0,0,0,0,0,0,0,0,-1,1413,1324,0,0
196,-300,0,0,0,0,0,0,0,0,0,-1,1420,1324,0,0
203,-300,0,0,0,0,0,0,0,0,0,-1,1427,1324,0,0
210,-300,0,0,0,0,0,0,0,0,0,-1,1434,1324,0,0
217,-300,0,0,0,0,0,0,0,0,0,-1,1441,1324,0,0
224,-300,0,0,0,0,0,0,0,0,0,-1,1448,1324,0,0
231,-300,0,0,0,0,0,0,0,0,0,-1,1455,1324,0,0
238,-300,0,0,0,0,0,0,0,0,0,-1,1462,1324,0,0
245,-300,0,0,0,0,0,0,0,0,0,-1,1469,1324,0,0
252,-300,0,0,0,0,0,0,0,0,0,-1,1476,1324,0,0
259,-300,0,0,0,0,0,0,0,0,0,-1,1483,1324,0,0
266,-300,0,0,0,0,0,0,0,0,0,-1,1490,1324,0,0
273,-300,0,0,0,0,0,0,0,0,0,-1,1497,1324,0,0
280,-300,0,0,0,0,0,0,0,0,0,-1,1504,1324,0,0
287,-300,0,0,0,0,0,0,0,0,0,-1,1511,1324,0,0
294,-300,0,0,0,0,0,0,0,0,0,-1,1518,1324,0,0
301,-300,0,0,0,0,0,0,0,0,0,-1,1525,1324,0,0
308,-300,0,0,0,0,0,0,0,0,0,-1,1532,1324,0,0
315,-300,0,0,0,0,0,0,0,0,0,-1,1539,1324,0,0
322,-300,0,0,0,0,0,0,0,0,0,-1,1546,1324,0,0
329,-300,0,0,0,0,0,0,0,0,0,-1,1553,1324,0,0
336,-300,0,0,0,0,0,0,0,0,0,-1,1560,1324,0,0
343,-300,0,0,0,0,0,0,0,0,0,-1,1567,1324,0,0
350,-300,0,0,0,0,0,0,0,0,0,-1,1574,1324,0,0
357,-300,0,0,0,0,0,0,0,0,0,-1,1581,1324,0,0
364,-300,0,0,0,0,0,0,0,0,0,-1,1588,1324,0,0
371,-300,0,0,0,0,0,0,0,0,0,-1,1595,1324,0,0
378,-300,0,0,0,0,0,0,0,0,0,-1,1602,1324,0,0
385,-300,0,0,0,0,0,0,0,0,0,-1,1609,1324,0,0
392,-300,0,0,0,0,0,0,0,0,0,-1,1616,1324,0,0
399,-300,0,0,0,0,0,0,0,0,0,-1,1623,1324,0,0
406,-300,0,0,0,0,0,0,0,0,0,-1,1630,1324,0,0
413,-300,0,0,0,0,0,0,0,0,0,-1,1637,1324,0,0
420,-300,0,0,0,0,0,0,0,0,0,-1,1644,1324,0,0
427,-300,0,0,0,0,0,0,0,0,0,-1,1651,1324,0,0
434,-300,0,0,0,0,0,0,0,0,0,-1,1658,1324,0,0
441,-300,0,0,0,0,0,0,0,0,0,-1,1665,1324,0,0
448,-300,0,0,0,0,0,0,0,0,0,-1,1672,1324,0,0
455,-300,0,0,0,0,0,0,0,0,0,-1,1679,1324,0,0
462,-300,0,0,0,0,0,0,0,0,0,-1,1686,1324,0,0
469,-300,0,0,0,0,0,0,0,0,0,-1,1693,1324,0,0
476,-300,0,0,0,0,0,0,0,0,0,-1,1700,1324,0,0
483,-300,0,0,0,0,0,0,0,0,0,-1,1707,1324,0,0
490,-300,0,0,0,0,0,0,0,0,0,-1,1714,1324,0,0
497,-300,0,0,0,0,0,0,0,0,0,-1,1721,1324,0,0
504,-300,0,0,0,0,0,0,0,0,0,-1,1728,1324,0,0
511,-300,0,0,0,0,0,0,0,0,0,-1,1735,1324,0,0
518,-300,0,0,0,0,0,0,0,0,0,-1,1742,1324,0,0
525,-300,0,0,0,0,0,0,0,0,0,-1,1749,1324,0,0
532,-300,0,0,0,0,0,0,0,0,0,-1,1756,1324,0,0
539,-300,0,0,0,0,0,0,0,0,0,-1,1763,1324,0,0
546,-300,0,0,0,0,0,0,0,0,0,-1,1770,1324,0,0
553,-300,0,0,0,0,0,0,0,0,0,-1,1777,1324,0,0
560,-300,0,0,0,0,0,0,0,0,0,-1,1784,1324,0,0
567,-300,0,0,0,0,0,0,0,0,0,-1,1791,1324,0,0
574,-300,0,0,0,0,0,0,0,0,0,-1,1798,1324,0,0
581,-300,0,0,0,0,0,0,0,0,0,-1,1805,1324,0,0
588,-300,47.0767,3.70276,0,0,0,0,0,0,0,-1,1812,1324,47.0766,-3.70277
595,-300,48.5194,2.6947,0,0,0,0,0,0,0,-1,1819,1324,48.5193,-2.69471
602,-300,48.5337,2.71863,0,0,0,0,0,0,0,-1,1826,1324,48.5337,-2.71862
609,-300,48.3101,2.51758,0,0,0,0,0,0,0,-1,1833,1324,48.3101,-2.51757
616,-300,48.1339,1.14038,0,0,0,0,0,0,0,-1,1840,1324,48.1339,-1.14039
623,-300,47.4474,2.43188,0,0,0,0,0,0,0,-1,1847,1324,47.4474,-2.43194
630,-300,42.4099,3.9165,0,0,0,0,0,0,0,-1,1854,1324,42.4099,-3.91649
637,-300,31.1719,4.6366,0,0,0,0,0,0,0,-1,1861,1324,31.1718,-4.63665
644,-300,22.9836,3.44934,0,0,0,0,0,0,0,-1,1868,1324,22.9836,-3.4493
651,-300,25.5004,9.11853,0,0,0,0,0,0,0,-1,1875,1324,25.5004,-9.11851
658,-300,25.4012,9.20032,0,0,0,0,0,0,0,-1,1882,1324,25.4012,-9.20036
665,-300,33.4363,11.7195,0,0,0,0,0,0,0,-1,1889,1324,33.4363,-11.7194
672,-300,33.3502,11.2511,0.00462337,0.00410408,-0.000771435,0.00517768,0.00354977,-0.623064,0.00305721,0.0232405,1896,1324,33.3502,-11.2511
679,-300,33.3623,10.7339,0.00248458,0.000995059,-0.000267123,0.00253104,0.000948603,-0.172188,0.00147649,0.012636,1903,1324,33.3623,-10.7339
686,-300,33.3527,10.2675,0.000581275,-0.000503511,-2.845e-05,0.00058202,-0.000504256,-0.0262023,0.000627698,0.0134229,1910,1324,33.3527,-10.2674
693,-300,33.324,9.78186,0.00055782,-0.000539377,0.000173073,0.000584473,-0.000566031,0.1528,0.000664272,0.0112108,1917,1324,33.324,-9.78185
700,-300,33.2876,9.27686,0.000397033,-0.000416046,0.000396616,0.000558453,-0.000577467,0.386521,0.000655855,0.0120006,1924,1324,33.2876,-9.27687
707,-300,33.277,8.77869,0.000131406,-0.000338735,0.000695822,0.000630792,-0.000838121,0.622502,0.000850888,0.00917742,1931,1324,33.277,-8.77867
714,-300,33.2794,8.33972,-0.000313086,-0.00027014,0.00104436,0.000752965,-0.00133619,0.795677,0.00122174,0.0110307,1938,1324,33.2794,-8.33975
721,-300,33.2761,7.86682,-0.000974361,-0.000238726,0.00148609,0.000924388,-0.00213747,0.906714,0.00181343,0.0128631,1945,1324,33.2761,-7.86688
728,-300,33.2838,7.35974,-0.00196651,-0.000246169,0.00203259,0.00110077,-0.00331345,0.985566,0.00265313,0.0167214,1952,1324,33.2838,-7.35976
735,-300,33.3314,6.90479,0,0,0,0,0,0,0,-1,1959,1324,33.3314,-6.90478
742,-300,32.3978,6.80261,0,0,0,0,0,0,0,-1,1966,1324,32.3979,-6.80257
749,-300,27.4065,5.9718,0,0,0,0,0,0,0,-1,1973,1324,27.4065,-5.97181
756,-300,22.1423,3.45642,0,0,0,0,0,0,0,-1,1980,1324,22.1423,-3.45638
763,-300,22.6136,5.1571,0,0,0,0,0,0,0,-1,1987,1324,22.6136,-5.15706
770,-300,24.859,4.77979,0,0,0,0,0,0,0,-1,1994,1324,24.859,-4.77972
777,-300,0,0,0,0,0,0,0,0,0,-1,2001,1324,0,0
784,-300,0,0,0,0,0,0,0,0,0,-1,2008,1324,0,0
791,-300,0,0,0,0,0,0,0,0,0,-1,2015,1324,0,0
798,-300,0,0,0,0,0,0,0,0,0,-1,2022,1324,0,0
805,-300,0,0,0,0,0,0,0,0,0,-1,2029,1324,0,0
812,-300,0,0,0,0,0,0,0,0,0,-1,2036,1324,0,0
-700,-307,0,0,0,0,0,0,0,0,0,-1,524,1331,0,0
-693,-307,0,0,0,0,0,0,0,0,0,-1,531,1331,0,0
-686,-307,0,0,0,0,0,0,0,0,0,-1,538,1331,0,0
-679,-307,0,0,0,0,0,0,0,0,0,-1,545,1331,0,0
-672,-307,0,0,0,0,0,0,0,0,0,-1,552,1331,0,0
-665,-307,0,0,0,0,0,0,0,0,0,-1,559,1331,0,0
-658,-307,0,0,0,0,0,0,0,0,0,-1,566,1331,0,0
-651,-307,-20.2972,-0.0720215,0,0,0,0,0,0,0,-1,573,1331,-20.2973,0.0720287
-644,-307,-20.7615,0.556152,0,0,0,0,0,0,0,-1,580,1331,-20.7615,-0.556159
-637,-307,-21.0822,1.21277,0,0,0,0,0,0,0,-1,587,1331,-21.0821,-1.21273
-630,-307,-12.0005,0.767212,0,0,0,0,0,0,0,-1,594,1331,-12.0005,-0.767266
-623,-307,-12.2128,2.93811,0,0,0,0,0,0,0,-1,601,1331,-12.2128,-2.93813
-616,-307,-12.6612,2.08289,0,0,0,0,0,0,0,-1,608,1331,-12.6612,-2.08293
-609,-307,-12.2767,1.83228,0,0,0,0,0,0,0,-1,615,1331,-12.2768,-1.83224
-602,-307,-18.8481,4.34229,0,0,0,0,0,0,0,-1,622,1331,-18.8481,-4.34223
-595,-307,-18.9556,5.00293,0.00652304,0.00568932,0.00521284,0.0113357,0.000876701,0.745499,0.00728248,0.0432469,629,1331,-18.9556,-5.00294
-588,-307,-18.844,5.60535,0.00479825,0.00390936,0.00366871,0.00804934,0.000658274,0.725119,0.00516081,0.0218435,636,1331,-18.844,-5.60533
-581,-307,-18.8498,6.13208,0.00373737,0.00263499,0.00259807,0.00584208,0.000530283,0.680871,0.00373054,0.0164441,643,1331,-18.8498,-6.1321
-574,-307,-18.8876,6.62524,0.00304404,0.00165547,0.00182451,0.0043019,0.000397606,0.603592,0.00274502,0.0129765,650,1331,-18.8876,-6.62527
-567,-307,-18.9018,7.1322,0.00267319,0.000898202,0.0012811,0.00334418,0.000227218,0.482472,0.0021577,0.0129948,657,1331,-18.9018,-7.13218
-560,-307,-18.9,7.66113,0.00260094,0.000261545,0.000906904,0.00291133,-4.88475e-05,0.329759,0.00195738,0.0135064,664,1331,-18.9,-7.66116
-553,-307,-18.9225,8.18054,0.00282869,-0.000185753,0.000715732,0.00298999,-0.000347061,0.221671,0.00211851,0.0108352,671,1331,-18.9225,-8.18054
-546,-307,-18.9583,8.70789,0.0033895,-0.000500706,0.000703484,0.00351281,-0.000624011,0.173516,0.0025752,0.00988712,678,1331,-18.9583,-8.70788
-539,-307,-18.9406,9.26538,0.00442093,-0.00080567,0.000883605,0.00456627,-0.000951009,0.163025,0.00340574,0.0155676,685,1331,-18.9406,-9.26541
-532,-307,-18.9128,9.81152,0,0,0,0,0,0,0,-1,692,1331,-18.9129,-9.81147
-525,-307,-13.2009,6.91309,0,0,0,0,0,0,0,-1,699,1331,-13.2009,-6.9131
-518,-307,-9.77777,-1.56653,0,0,0,0,0,0,0,-1,706,1331,-9.77777,1.56651
-511,-307,-12.5226,0.26709,0,0,0,0,0,0,0,-1,713,1331,-12.5226,-0.267038
-504,-307,-12.5913,-0.308105,0,0,0,0,0,0,0,-1,720,1331,-12.5913,0.308124
-497,-307,-13.8586,-0.115845,0,0,0,0,0,0,0,-1,727,1331,-13.8587,0.115861
-490,-307,-17.9429,0.982178,0,0,0,0,0,0,0,-1,734,1331,-17.9429,-0.982198
-483,-307,-18.1066,0.927612,0,0,0,0,0,0,0,-1,741,1331,-18.1066,-0.927609
-476,-307,-18.1288,1.1228,0,0,0,0,0,0,0,-1,748,1331,-18.1289,-1.12286
-469,-307,-18.2028,0.798584,0,0,0,0,0,0,0,-1,755,1331,-18.2027,-0.798546
-462,-307,0,0,0,0,0,0,0,0,0,-1,762,1331,0,0
-455,-307,0,0,0,0,0,0,0,0,0,-1,769,1331,0,0
-448,-307,0,0,0,0,0,0,0,0,0,-1,776,1331,0,0
-441,-307,0,0,0,0,0,0,0,0,0,-1,783,1331,0,0
-434,-307,0,0,0,0,0,0,0,0,0,-1,790,1331,0,0
-427,-307,0,0,0,0,0,0,0,0,0,-1,797,1331,0,0
-420,-307,0,0,0,0,0,0,0,0,0,-1,804,1331,0,0
-413,-307,0,0,0,0,0,0,0,0,0,-1,811,1331,0,0
-406,-307,0,0,0,0,0,0,0,0,0,-1,818,1331,0,0
-399,-307,0,0,0,0,0,0,0,0,0,-1,825,1331,0,0
-392,-307,0,0,0,0,0,0,0,0,0,-1,832,1331,0,0
-385,-307,0,0,0,0,0,0,0,0,0,-1,839,1331,0,0
-378,-307,0,0,0,0,0,0,0,0,0,-1,846,1331,0,0
-371,-307,0,0,0,0,0,0,0,0,0,-1,853,1331,0,0
-364,-307,0,0,0,0,0,0,0,0,0,-1,860,1331,0,0
-357,-307,0,0,0,0,0,0,0,0,0,-1,867,1331,0,0
-350,-307,0,0,0,0,0,0,0,0,0,-1,874,1331,0,0
-343,-307,0,0,0,0,0,0,0,0,0,-1,881,1331,0,0
-336,-307,0,0,0,0,0,0,0,0,0,-1,888,1331,0,0
-329,-307,0,0,0,0,0,0,0,0,0,-1,895,1331,0,0
-322,-307,0,0,0,0,0,0,0,0,0,-1,902,1331,0,0
-315,-307,0,0,0,0,0,0,0,0,0,-1,909,1331,0,0
-308,-307,0,0,0,0,0,0,0,0,0,-1,916,1331,0,0
-301,-307,0,0,0,0,0,0,0,0,0,-1,923,1331,0,0
-294,-307,0,0,0,0,0,0,0,0,0,-1,930,1331,0,0
-287,-307,0,0,0,0,0,0,0,0,0,-1,937,1331,0,0
-280,-307,0,0,0,0,0,0,0,0,0,-1,944,1331,0,0
-273,-307,0,0,0,0,0,0,0,0,0,-1,951,1331,0,0
-266,-307,0,0,0,0,0,0,0,0,0,-1,958,1331,0,0
-259,-307,0,0,0,0,0,0,0,0,0,-1,965,1331,0,0
-252,-307,0,0,0,0,0,0,0,0,0,-1,972,1331,0,0
-245,-307,0,0,0,0,0,0,0,0,0,-1,979,1331,0,0
-238,-307,0,0,0,0,0,0,0,0,0,-1,986,1331,0,0
-231,-307,0,0,0,0,0,0,0,0,0,-1,993,1331,0,0
-224,-307,0,0,0,0,0,0,0,0,0,-1,1000,1331,0,0
-217,-307,0,0,0,0,0,0,0,0,0,-1,1007,1331,0,0
-210,-307,0,0,0,0,0,0,0,0,0,-1,1014,1331,0,0
-203,-307,0,0,0,0,0,0,0,0,0,-1,1021,1331,0,0
-196,-307,0,0,0,0,0,0,0,0,0,-1,1028,1331,0,0
-189,-307,0,0,0,0,0,0,0,0,0,-1,1035,1331,0,0
-182,-307,0,0,0,0,0,0,0,0,0,-1,1042,1331,0,0
-175,-307,0,0,0,0,0,0,0,0,0,-1,1049,1331,0,0
-168,-307,0,0,0,0,0,0,0,0,0,-1,1056,1331,0,0
-161,-307,0,0,0,0,0,0,0,0,0,-1,1063,1331,0,0
-154,-307,0,0,0,0,0,0,0,0,0,-1,1070,1331,0,0
-147,-307,0,0,0,0,0,0,0,0,0,-1,1077,1331,0,0
-140,-307,0,0,0,0,0,0,0,0,0,-1,1084,1331,0,0
-133,-307,0,0,0,0,0,0,0,0,0,-1,1091,1331,0,0
-126,-307,0,0,0,0,0,0,0,0,0,-1,1098,1331,0,0
-119,-307,0,0,0,0,0,0,0,0,0,-1,1105,1331,0,0
-112,-307,0,0,0,0,0,0,0,0,0,-1,1112,1331,0,0
-105,-307,0,0,0,0,0,0,0,0,0,-1,1119,1331,0,0
-98,-307,0,0,0,0,0,0,0,0,0,-1,1126,1331,0,0
-91,-307,0,0,0,0,0,0,0,0,0,-1,1133,1331,0,0
-84,-307,0,0,0,0,0,0,0,0,0,-1,1140,1331,0,0
-77,-307,0,0,0,0,0,0,0,0,0,-1,1147,1331,0,0
-70,-307,0,0,0,0,0,0,0,0,0,-1,1154,1331,0,0
-63,-307,0,0,0,0,0,0,0,0,0,-1,1161,1331,0,0
-56,-307,0,0,0,0,0,0,0,0,0,-1,1168,1331,0,0
-49,-307,0,0,0,0,0,0,0,0,0,-1,1175,1331,0,0
-42,-307,0,0,0,0,0,0,0,0,0,-1,1182,1331,0,0
-35,-307,0,0,0,0,0,0,0,0,0,-1,1189,1331,0,0
-28,-307,0,0,0,0,0,0,0,0,0,-1,1196,1331,0,0
-21,-307,0,0,0,0,0,0,0,0,0,-1,1203,1331,0,0
-14,-307,0,0,0,0,0,0,0,0,0,-1,1210,1331,0,0
-7,-307,0,0,0,0,0,0,0,0,0,-1,1217,1331,0,0
0,-307,0,0,0,0,0,0,0,0,0,-1,1224,1331,0,0
7,-307,0,0,0,0,0,0,0,0,0,-1,1231,1331,0,0
14,-307,0,0,0,0,0,0,0,0,0,-1,1238,1331,0,0
21,-307,0,0,0,0,0,0,0,0,0,-1,1245,1331,0,0
28,-307,0,0,0,0,0,0,0,0,0,-1,1252,1331,0,0
35,-307,0,0,0,0,0,0,0,0,0,-1,1259,1331,0,0
42,-307,0,0,0,0,0,0,0,0,0,-1,1266,1331,0,0
49,-307,0,0,0,0,0,0,0,0,0,-1,1273,1331,0,0
56,-307,0,0,0,0,0,0,0,0,0,-1,1280,1331,0,0
63,-307,0,0,0,0,0,0,0,0,0,-1,1287,1331,0,0
70,-307,0,0,0,0,0,0,0,0,0,-1,1294,1331,0,0
77,-307,0,0,0,0,0,0,0,0,0,-1,1301,1331,0,0
84,-307,0,0,0,0,0,0,0,0,0,-1,1308,1331,0,0
91,-307,0,0,0,0,0,0,0,0,0,-1,1315,1331,0,0
98,-307,0,0,0,0,0,0,0,0,0,-1,1322,1331,0,0
105,-307,0,0,0,0,0,0,0,0,0,-1,1329,1331,0,0
112,-307,0,0,0,0,0,0,0,0,0,-1,1336,1331,0,0
119,-307,0,0,0,0,0,0,0,0,0,-1,1343,1331,0,0
126,-307,0,0,0,0,0,0,0,0,0,-1,1350,1331,0,0
133,-307,0,0,0,0,0,0,0,0,0,-1,1357,1331,0,0
140,-307,0,0,0,0,0,0,0,0,0,-1,1364,1331,0,0
147,-307,0,0,0,0,0,0,0,0,0,-1,1371,1331,0,0
154,-307,0,0,0,0,0,0,0,0,0,-1,1378,1331,0,0
161,-307,0,0,0,0,0,0,0,0,0,-1,1385,1331,0,0
168,-307,0,0,0,0,0,0,0,0,0,-1,1392,1331,0,0
175,-307,0,0,0,0,0,0,0,0,0,-1,1399,1331,0,0
182,-307,0,0,0,0,0,0,0,0,0,-1,1406,1331,0,0
189,-307,0,0,0,0,0,0,0,0,0,-1,1413,1331,0,0
196,-307,0,0,0,0,0,0,0,0,0,-1,1420,1331,0,0
203,-307,0,0,0,0,0,0,0,0,0,-1,1427,1331,0,0
210,-307,0,0,0,0,0,0,0,0,0,-1,1434,1331,0,0
217,-307,0,0,0,0,0,0,0,0,0,-1,1441,1331,0,0
224,-307,0,0,0,0,0,0,0,0,0,-1,1448,1331,0,0
231,-307,0,0,0,0,0,0,0,0,0,-1,1455,1331,0,0
238,-307,0,0,0,0,0,0,0,0,0,-1,1462,1331,0,0
245,-307,0,0,0,0,0,0,0,0,0,-1,1469,1331,0,0
252,-307,0,0,0,0,0,0,0,0,0,-1,1476,1331,0,0
259,-307,0,0,0,0,0,0,0,0,0,-1,1483,1331,0,0
266,-307,0,0,0,0,0,0,0,0,0,-1,1490,1331,0,0
273,-307,0,0,0,0,0,0,0,0,0,-1,1497,1331,0,0
280,-307,0,0,0,0,0,0,0,0,0,-1,1504,1331,0,0
287,-307,0,0,0,0,0,0,0,0,0,-1,1511,1331,0,0
294,-307,0,0,0,0,0,0,0,0,0,-1,1518,1331,0,0
301,-307,0,0,0,0,0,0,0,0,0,-1,1525,1331,0,0
308,-307,0,0,0,0,0,0,0,0,0,-1,1532,1331,0,0
315,-307,0,0,0,0,0,0,0,0,0,-1,1539,1331,0,0
322,-307,0,0,0,0,0,0,0,0,0,-1,1546,1331,0,0
329,-307,0,0,0,0,0,0,0,0,0,-1,1553,1331,0,0
336,-307,0,0,0,0,0,0,0,0,0,-1,1560,1331,0,0
343,-307,0,0,0,0,0,0,0,0,0,-1,1567,1331,0,0
350,-307,0,0,0,0,0,0,0,0,0,-1,1574,1331,0,0
357,-307,0,0,0,0,0,0,0,0,0,-1,1581,1331,0,0
364,-307,0,0,0,0,0,0,0,0,0,-1,1588,1331,0,0
371,-307,0,0,0,0,0,0,0,0,0,-1,1595,1331,0,0
378,-307,0,0,0,0,0,0,0,0,0,-1,1602,1331,0,0
385,-307,0,0,0,0,0,0,0,0,0,-1,1609,1331,0,0
392,-307,0,0,0,0,0,0,0,0,0,-1,1616,1331,0,0
399,-307,0,0,0,0,0,0,0,0,0,-1,1623,1331,0,0
406,-307,0,0,0,0,0,0,0,0,0,-1,1630,1331,0,0
413,-307,0,0,0,0,0,0,0,0,0,-1,1637,1331,0,0
420,-307,0,0,0,0,0,0,0,0,0,-1,1644,1331,0,0
427,-307,0,0,0,0,0,0,0,0,0,-1,1651,1331,0,0
434,-307,0,0,0,0,0,0,0,0,0,-1,1658,1331,0,0
441,-307,0,0,0,0,0,0,0,0,0,-1,1665,1331,0,0
448,-307,0,0,0,0,0,0,0,0,0,-1,1672,1331,0,0
455,-307,0,0,0,0,0,0,0,0,0,-1,1679,1331,0,0
462,-307,0,0,0,0,0,0,0,0,0,-1,1686,1331,0,0
469,-307,0,0,0,0,0,0,0,0,0,-1,1693,1331,0,0
476,-307,0,0,0,0,0,0,0,0,0,-1,1700,1331,0,0
483,-307,0,0,0,0,0,0,0,0,0,-1,1707,1331,0,0
490,-307,0,0,0,0,0,0,0,0,0,-1,1714,1331,0,0
497,-307,0,0,0,0,0,0,0,0,0,-1,1721,1331,0,0
504,-307,0,0,0,0,0,0,0,0,0,-1,1728,1331,0,0
511,-307,0,0,0,0,0,0,0,0,0,-1,1735,1331,0,0
518,-307,0,0,0,0,0,0,0,0,0,-1,1742,1331,0,0
525,-307,0,0,0,0,0,0,0,0,0,-1,1749,1331,0,0
532,-307,0,0,0,0,0,0,0,0,0,-1,1756,1331,0,0
539,-307,0,0,0,0,0,0,0,0,0,-1,1763,1331,0,0
546,-307,0,0,0,0,0,0,0,0,0,-1,1770,1331,0,0
553,-307,0,0,0,0,0,0,0,0,0,-1,1777,1331,0,0
560,-307,0,0,0,0,0,0,0,0,0,-1,1784,1331,0,0
567,-307,0,0,0,0,0,0,0,0,0,-1,1791,1331,0,0
574,-307,0,0,0,0,0,0,0,0,0,-1,1798,1331,0,0
581,-307,0,0,0,0,0,0,0,0,0,-1,1805,1331,0,0
588,-307,48.9391,2.93726,0,0,0,0,0,0,0,-1,1812,1331,48.939,-2.93724
595,-307,48.7631,2.79016,0,0,0,0,0,0,0,-1,1819,1331,48.763,-2.79019
602,-307,48.5643,2.62012,0,0,0,0,0,0,0,-1,1826,1331,48.5643,-2.62014
609,-307,48.399,2.4873,0,0,0,0,0,0,0,-1,1833,1331,48.3991,-2.48725
616,-307,48.0499,2.52173,0,0,0,0,0,0,0,-1,1840,1331,48.05,-2.52169
623,-307,44.3966,2.84888,0,0,0,0,0,0,0,-1,1847,1331,44.3966,-2.84884
630,-307,29.8116,1.51184,0,0,0,0,0,0,0,-1,1854,1331,29.8116,-1.51188
637,-307,24.6407,4.09106,0,0,0,0,0,0,0,-1,1861,1331,24.6407,-4.09103
644,-307,22.6885,5.80408,0,0,0,0,0,0,0,-1,1868,1331,22.6884,-5.80408
651,-307,17.5013,5.80078,0,0,0,0,0,0,0,-1,1875,1331,17.5014,-5.80072
658,-307,33.2341,12.2802,0,0,0,0,0,0,0,-1,1882,1331,33.2342,-12.2802
665,-307,32.9708,11.6947,0.00529543,0.00683319,-0.00128678,0.0075633,0.00456532,-1.0547,0.00439782,0.0446868,1889,1331,32.9708,-11.6948
672,-307,32.8921,11.2303,0.00362886,0.00322997,-0.00056773,0.00403116,0.00282767,-0.616479,0.00238953,0.0143672,1896,1331,32.892,-11.2303
679,-307,32.8636,10.7472,0.00181635,0.000486536,-0.000103475,0.00182435,0.000478533,-0.0771922,0.00109224,0.0103323,1903,1331,32.8637,-10.7472
686,-307,32.8506,10.2776,0.000525622,-0.000581938,7.13247e-05,0.000530196,-0.000586512,0.0640455,0.000645005,0.00984237,1910,1331,32.8506,-10.2776
693,-307,32.8438,9.78223,0.000579502,-0.000527746,0.000221265,0.000622081,-0.000570324,0.19011,0.000688652,0.0115085,1917,1331,32.8438,-9.78217
700,-307,32.8348,9.26953,0.000532075,-0.000409479,0.000404079,0.00068171,-0.000559114,0.354653,0.000717555,0.0138764,1924,1331,32.8348,-9.26951
707,-307,32.8152,8.7804,0.000388985,-0.000332968,0.000652776,0.000773944,-0.000717927,0.532831,0.000861534,0.0151812,1931,1331,32.8152,-8.78037
714,-307,32.8081,8.35217,7.82257e-05,-0.000266855,0.000946888,0.000868165,-0.00105679,0.695278,0.00111315,0.0133241,1938,1331,32.8081,-8.35217
721,-307,32.8373,7.90295,-0.000438443,-0.000256426,0.0013539,0.00100952,-0.00170439,0.818957,0.0015839,0.0176493,1945,1331,32.8373,-7.90297
728,-307,32.7946,7.5968,-0.00128482,-0.000308032,0.00186957,0.00113589,-0.00272874,0.913159,0.00229354,0.044963,1952,1331,32.7945,-7.59679
735,-307,32.8274,7.02271,0,0,0,0,0,0,0,-1,1959,1331,32.8274,-7.02274
742,-307,26.677,6.09192,0,0,0,0,0,0,0,-1,1966,1331,26.677,-6.0919
749,-307,26.7727,5.9032,0,0,0,0,0,0,0,-1,1973,1331,26.7727,-5.90323
756,-307,27.1556,5.74756,0,0,0,0,0,0,0,-1,1980,1331,27.1557,-5.7475
763,-307,18.7522,3.55298,0,0,0,0,0,0,0,-1,1987,1331,18.7522,-3.55301
770,-307,0,0,0,0,0,0,0,0,0,-1,1994,1331,0,0
777,-307,0,0,0,0,0,0,0,0,0,-1,2001,1331,0,0
784,-307,0,0,0,0,0,0,0,0,0,-1,2008,1331,0,0
791,-307,0,0,0,0,0,0,0,0,0,-1,2015,1331,0,0
798,-307,0,0,0,0,0,0,0,0,0,-1,2022,1331,0,0
805,-307,0,0,0,0,0,0,0,0,0,-1,2029,1331,0,0
812,-307,0,0,0,0,0,0,0,0,0,-1,2036,1331,0,0
-700,-314,0,0,0,0,0,0,0,0,0,-1,524,1338,0,0
-693,-314,0,0,0,0,0,0,0,0,0,-1,531,1338,0,0
-686,-314,0,0,0,0,0,0,0,0,0,-1,538,1338,0,0
-679,-314,0,0,0,0,0,0,0,0,0,-1,545,1338,0,0
-672,-314,0,0,0,0,0,0,0,0,0,-1,552,1338,0,0
-665,-314,0,0,0,0,0,0,0,0,0,-1,559,1338,0,0
-658,-314,0,0,0,0,0,0,0,0,0,-1,566,1338,0,0
-651,-314,0,0,0,0,0,0,0,0,0,-1,573,1338,0,0
-644,-314,-20.9896,-0.0299072,0,0,0,0,0,0,0,-1,580,1338,-20.9896,0.0299587
-637,-314,-18.8677,6.62646,0,0,0,0,0,0,0,-1,587,1338,-18.8677,-6.62651
-630,-314,-13.2771,2.98938,0,0,0,0,0,0,0,-1,594,1338,-13.2771,-2.98943
-623,-314,-13.3542,3.00903,0,0,0,0,0,0,0,-1,601,1338,-13.3542,-3.00907
-616,-314,-9.93311,1.15088,0,0,0,0,0,0,0,-1,608,1338,-9.93308,-1.15093
-609,-314,-9.4361,2.86292,0,0,0,0,0,0,0,-1,615,1338,-9.43612,-2.86286
-602,-314,-11.8027,2.42798,0,0,0,0,0,0,0,-1,622,1338,-11.8027,-2.42802
-595,-314,-18.5461,4.98376,0,0,0,0,0,0,0,-1,629,1338,-18.5461,-4.98373
-588,-314,-18.3647,5.54541,0.00542492,0.00377718,0.00382046,0.00850934,0.000692768,0.679201,0.00545665,0.032039,636,1338,-18.3648,-5.54546
-581,-314,-18.3265,6.11255,0.00413208,0.00260661,0.00268468,0.00616027,0.000578412,0.646992,0.00392826,0.0127909,643,1338,-18.3265,-6.11253
-574,-314,-18.3903,6.61133,0.0032778,0.00169265,0.00188036,0.0045258,0.000444658,0.585946,0.00288044,0.0121285,650,1338,-18.3903,-6.61138
-567,-314,-18.3712,7.14429,0.00280164,0.000999075,0.00133812,0.0035137,0.000287016,0.489024,0.0022529,0.0141945,657,1338,-18.3711,-7.14426
-560,-314,-18.3441,7.69226,0.00265093,0.000427206,0.000981606,0.00302223,5.59001e-05,0.361629,0.00199645,0.0152954,664,1338,-18.3441,-7.69227
-553,-314,-18.4039,8.21741,0.00279414,-6.13574e-06,0.000799872,0.00300651,-0.000218506,0.259517,0.002081,0.0181673,671,1338,-18.4039,-8.21746
-546,-314,-18.4681,8.73889,0.00329236,-0.000326781,0.000806212,0.00346383,-0.000498252,0.209564,0.00249196,0.0179547,678,1338,-18.4682,-8.73892
-539,-314,-18.4281,9.29187,0.00419791,-0.000597631,0.000988455,0.00439365,-0.00079338,0.195506,0.00322625,0.0176996,685,1338,-18.4281,-9.2919
-532,-314,-18.363,9.78894,0,0,0,0,0,0,0,-1,692,1338,-18.3631,-9.78895
-525,-314,-13.3017,7.50671,0,0,0,0,0,0,0,-1,699,1338,-13.3017,-7.50669
-518,-314,-8.52753,4.70032,0,0,0,0,0,0,0,-1,706,1338,-8.52755,-4.70034
-511,-314,-11.8597,0.384888,0,0,0,0,0,0,0,-1,713,1338,-11.8597,-0.384927
-504,-314,-11.4322,-0.187378,0,0,0,0,0,0,0,-1,720,1338,-11.4322,0.187381
-497,-314,-11.0047,-0.759644,0,0,0,0,0,0,0,-1,727,1338,-11.0047,0.759689
-490,-314,-18.5143,0.471069,0,0,0,0,0,0,0,-1,734,1338,-18.5143,-0.47103
-483,-314,-17.8528,0.577271,0,0,0,0,0,0,0,-1,741,1338,-17.8528,-0.577327
-476,-314,-17.714,0.665405,0,0,0,0,0,0,0,-1,748,1338,-17.714,-0.665388
-469,-314,-17.7246,0.794678,0,0,0,0,0,0,0,-1,755,1338,-17.7246,-0.794645
-462,-314,0,0,0,0,0,0,0,0,0,-1,762,1338,0,0
-455,-314,0,0,0,0,0,0,0,0,0,-1,769,1338,0,0
-448,-314,0,0,0,0,0,0,0,0,0,-1,776,1338,0,0
-441,-314,0,0,0,0,0,0,0,0,0,-1,783,1338,0,0
-434,-314,0,0,0,0,0,0,0,0,0,-1,790,1338,0,0
-427,-314,0,0,0,0,0,0,0,0,0,-1,797,1338,0,0
-420,-314,0,0,0,0,0,0,0,0,0,-1,804,1338,0,0
-413,-314,0,0,0,0,0,0,0,0,0,-1,811,1338,0,0
-406,-314,0,0,0,0,0,0,0,0,0,-1,818,1338,0,0
-399,-314,0,0,0,0,0,0,0,0,0,-1,825,1338,0,0
-392,-314,0,0,0,0,0,0,0,0,0,-1,832,1338,0,0
-385,-314,0,0,0,0,0,0,0,0,0,-1,839,1338,0,0
-378,-314,0,0,0,0,0,0,0,0,0,-1,846,1338,0,0
-371,-314,0,0,0,0,0,0,0,0,0,-1,853,1338,0,0
-364,-314,0,0,0,0,0,0,0,0,0,-1,860,1338,0,0
-357,-314,0,0,0,0,0,0,0,0,0,-1,867,1338,0,0
-350,-314,0,0,0,0,0,0,0,0,0,-1,874,1338,0,0
-343,-314,0,0,0,0,0,0,0,0,0,-1,881,1338,0,0
-336,-314,0,0,0,0,0,0,0,0,0,-1,888,1338,0,0
-329,-314,0,0,0,0,0,0,0,0,0,-1,895,1338,0,0
-322,-314,0,0,0,0,0,0,0,0,0,-1,902,1338,0,0
-315,-314,0,0,0,0,0,0,0,0,0,-1,909,1338,0,0
-308,-314,0,0,0,0,0,0,0,0,0,-1,916,1338,0,0
-301,-314,0,0,0,0,0,0,0,0,0,-1,923,1338,0,0
-294,-314,0,0,0,0,0,0,0,0,0,-1,930,1338,0,0
-287,-314,0,0,0,0,0,0,0,0,0,-1,937,1338,0,0
-280,-314,0,0,0,0,0,0,0,0,0,-1,944,1338,0,0
-273,-314,0,0,0,0,0,0,0,0,0,-1,951,1338,0,0
-266,-314,0,0,0,0,0,0,0,0,0,-1,958,1338,0,0
-259,-314,0,0,0,0,0,0,0,0,0,-1,965,1338,0,0
-252,-314,0,0,0,0,0,0,0,0,0,-1,972,1338,0,0
-245,-314,0,0,0,0,0,0,0,0,0,-1,979,1338,0,0
-238,-314,0,0,0,0,0,0,0,0,0,-1,986,1338,0,0
-231,-314,0,0,0,0,0,0,0,0,0,-1,993,1338,0,0
-224,-314,0,0,0,0,0,0,0,0,0,-1,1000,1338,0,0
-217,-314,0,0,0,0,0,0,0,0,0,-1,1007,1338,0,0
-210,-314,0,0,0,0,0,0,0,0,0,-1,1014,1338,0,0
-203,-314,0,0,0,0,0,0,0,0,0,-1,1021,1338,0,0
-196,-314,0,0,0,0,0,0,0,0,0,-1,1028,1338,0,0
-189,-314,0,0,0,0,0,0,0,0,0,-1,1035,1338,0,0
-182,-314,0,0,0,0,0,0,0,0,0,-1,1042,1338,0,0
-175,-314,0,0,0,0,0,0,0,0,0,-1,1049,1338,0,0
-168,-314,0,0,0,0,0,0,0,0,0,-1,1056,1338,0,0
-161,-314,0,0,0,0,0,0,0,0,0,-1,1063,1338,0,0
-154,-314,0,0,0,0,0,0,0,0,0,-1,1070,1338,0,0
-147,-314,0,0,0,0,0,0,0,0,0,-1,1077,1338,0,0
-140,-314,0,0,0,0,0,0,0,0,0,-1,1084,1338,0,0
-133,-314,0,0,0,0,0,0,0,0,0,-1,1091,1338,0,0
-126,-314,0,0,0,0,0,0,0,0,0,-1,1098,1338,0,0
-119,-314,0,0,0,0,0,0,0,0,0,-1,1105,1338,0,0
-112,-314,0,0,0,0,0,0,0,0,0,-1,1112,1338,0,0
-105,-314,0,0,0,0,0,0,0,0,0,-1,1119,1338,0,0
-98,-314,0,0,0,0,0,0,0,0,0,-1,1126,1338,0,0
-91,-314,0,0,0,0,0,0,0,0,0,-1,1133,1338,0,0
-84,-314,0,0,0,0,0,0,0,0,0,-1,1140,1338,0,0
-77,-314,0,0,0,0,0,0,0,0,0,-1,1147,1338,0,0
-70,-314,0,0,0,0,0,0,0,0,0,-1,1154,1338,0,0
-63,-314,0,0,0,0,0,0,0,0,0,-1,1161,1338,0,0
-56,-314,0,0,0,0,0,0,0,0,0,-1,1168,1338,0,0
-49,-314,0,0,0,0,0,0,0,0,0,-1,1175,1338,0,0
-42,-314,0,0,0,0,0,0,0,0,0,-1,1182,1338,0,0
-35,-314,0,0,0,0,0,0,0,0,0,-1,1189,1338,0,0
-28,-314,0,0,0,0,0,0,0,0,0,-1,1196,1338,0,0
-21,-314,0,0,0,0,0,0,0,0,0,-1,1203,1338,0,0
-14,-314,0,0,0,0,0,0,0,0,0,-1,1210,1338,0,0
-7,-314,0,0,0,0,0,0,0,0,0,-1,1217,1338,0,0
0,-314,0,0,0,0,0,0,0,0,0,-1,1224,1338,0,0
7,-314,0,0,0,0,0,0,0,0,0,-1,1231,1338,0,0
14,-314,0,0,0,0,0,0,0,0,0,-1,1238,1338,0,0
21,-314,0,0,0,0,0,0,0,0,0,-1,1245,1338,0,0
28,-314,0,0,0,0,0,0,0,0,0,-1,1252,1338,0,0
35,-314,0,0,0,0,0,0,0,0,0,-1,1259,1338,0,0
42,-314,0,0,0,0,0,0,0,0,0,-1,1266,1338,0,0
49,-314,0,0,0,0,0,0,0,0,0,-1,1273,1338,0,0
56,-314,0,0,0,0,0,0,0,0,0,-1,1280,1338,0,0
63,-314,0,0,0,0,0,0,0,0,0,-1,1287,1338,0,0
70,-314,0,0,0,0,0,0,0,0,0,-1,1294,1338,0,0
77,-314,0,0,0,0,0,0,0,0,0,-1,1301,1338,0,0
84,-314,0,0,0,0,0,0,0,0,0,-1,1308,1338,0,0
91,-314,0,0,0,0,0,0,0,0,0,-1,1315,1338,0,0
98,-314,0,0,0,0,0,0,0,0,0,-1,1322,1338,0,0
105,-314,0,0,0,0,0,0,0,0,0,-1,1329,1338,0,0
112,-314,0,0,0,0,0,0,0,0,0,-1,1336,1338,0,0
119,-314,0,0,0,0,0,0,0,0,0,-1,1343,1338,0,0
126,-314,0,0,0,0,0,0,0,0,0,-1,1350,1338,0,0
133,-314,0,0,0,0,0,0,0,0,0,-1,1357,1338,0,0
140,-314,0,0,0,0,0,0,0,0,0,-1,1364,1338,0,0
147,-314,0,0,0,0,0,0,0,0,0,-1,1371,1338,0,0
154,-314,0,0,0,0,0,0,0,0,0,-1,1378,1338,0,0
161,-314,0,0,0,0,0,0,0,0,0,-1,1385,1338,0,0
168,-314,0,0,0,0,0,0,0,0,0,-1,1392,1338,0,0
175,-314,0,0,0,0,0,0,0,0,0,-1,1399,1338,0,0
182,-314,0,0,0,0,0,0,0,0,0,-1,1406,1338,0,0
189,-314,0,0,0,0,0,0,0,0,0,-1,1413,1338,0,0
196,-314,0,0,0,0,0,0,0,0,0,-1,1420,1338,0,0
203,-314,0,0,0,0,0,0,0,0,0,-1,1427,1338,0,0
210,-314,0,0,0,0,0,0,0,0,0,-1,1434,1338,0,0
217,-314,0,0,0,0,0,0,0,0,0,-1,1441,1338,0,0
224,-314,0,0,0,0,0,0,0,0,0,-1,1448,1338,0,0
231,-314,0,0,0,0,0,0,0,0,0,-1,1455,1338,0,0
238,-314,0,0,0,0,0,0,0,0,0,-1,1462,1338,0,0
245,-314,0,0,0,0,0,0,0,0,0,-1,1469,1338,0,0
252,-314,0,0,0,0,0,0,0,0,0,-1,1476,1338,0,0
259,-314,0,0,0,0,0,0,0,0,0,-1,1483,1338,0,0
266,-314,0,0,0,0,0,0,0,0,0,-1,1490,1338,0,0
273,-314,0,0,0,0,0,0,0,0,0,-1,1497,1338,0,0
280,-314,0,0,0,0,0,0,0,0,0,-1,1504,1338,0,0
287,-314,0,0,0,0,0,0,0,0,0,-1,1511,1338,0,0
294,-314,0,0,0,0,0,0,0,0,0,-1,1518,1338,0,0
301,-314,0,0,0,0,0,0,0,0,0,-1,1525,1338,0,0
308,-314,0,0,0,0,0,0,0,0,0,-1,1532,1338,0,0
315,-314,0,0,0,0,0,0,0,0,0,-1,1539,1338,0,0
322,-314,0,0,0,0,0,0,0,0,0,-1,1546,1338,0,0
329,-314,0,0,0,0,0,0,0,0,0,-1,1553,1338,0,0
336,-314,0,0,0,0,0,0,0,0,0,-1,1560,1338,0,0
343,-314,0,0,0,0,0,0,0,0,0,-1,1567,1338,0,0
350,-314,0,0,0,0,0,0,0,0,0,-1,1574,1338,0,0
357,-314,0,0,0,0,0,0,0,0,0,-1,1581,1338,0,0
364,-314,0,0,0,0,0,0,0,0,0,-1,1588,1338,0,0
371,-314,0,0,0,0,0,0,0,0,0,-1,1595,1338,0,0
378,-314,0,0,0,0,0,0,0,0,0,-1,1602,1338,0,0
385,-314,0,0,0,0,0,0,0,0,0,-1,1609,1338,0,0
392,-314,0,0,0,0,0,0,0,0,0,-1,1616,1338,0,0
399,-314,0,0,0,0,0,0,0,0,0,-1,1623,1338,0,0
406,-314,0,0,0,0,0,0,0,0,0,-1,1630,1338,0,0
413,-314,0,0,0,0,0,0,0,0,0,-1,1637,1338,0,0
420,-314,0,0,0,0,0,0,0,0,0,-1,1644,1338,0,0
427,-314,0,0,0,0,0,0,0,0,0,-1,1651,1338,0,0
434,-314,0,0,0,0,0,0,0,0,0,-1,1658,1338,0,0
441,-314,0,0,0,0,0,0,0,0,0,-1,1665,1338,0,0
448,-314,0,0,0,0,0,0,0,0,0,-1,1672,1338,0,0
455,-314,0,0,0,0,0,0,0,0,0,-1,1679,1338,0,0
462,-314,0,0,0,0,0,0,0,0,0,-1,1686,1338,0,0
469,-314,0,0,0,0,0,0,0,0,0,-1,1693,1338,0,0
476,-314,0,0,0,0,0,0,0,0,0,-1,1700,1338,0,0
483,-314,0,0,0,0,0,0,0,0,0,-1,1707,1338,0,0
490,-314,0,0,0,0,0,0,0,0,0,-1,1714,1338,0,0
497,-314,0,0,0,0,0,0,0,0,0,-1,1721,1338,0,0
504,-314,0,0,0,0,0,0,0,0,0,-1,1728,1338,0,0
511,-314,0,0,0,0,0,0,0,0,0,-1,1735,1338,0,0
518,-314,0,0,0,0,0,0,0,0,0,-1,1742,1338,0,0
525,-314,0,0,0,0,0,0,0,0,0,-1,1749,1338,0,0
532,-314,0,0,0,0,0,0,0,0,0,-1,1756,1338,0,0
539,-314,0,0,0,0,0,0,0,0,0,-1,1763,1338,0,0
546,-314,0,0,0,0,0,0,0,0,0,-1,1770,1338,0,0
553,-314,0,0,0,0,0,0,0,0,0,-1,1777,1338,0,0
560,-314,0,0,0,0,0,0,0,0,0,-1,1784,1338,0,0
567,-314,0,0,0,0,0,0,0,0,0,-1,1791,1338,0,0
574,-314,0,0,0,0,0,0,0,0,0,-1,1798,1338,0,0
581,-314,49.7633,3.98621,0,0,0,0,0,0,0,-1,1805,1338,49.7633,-3.9862
588,-314,49.3467,3.4939,0,0,0,0,0,0,0,-1,1812,1338,49.3467,-3.49392
595,-314,48.8868,3.05884,0,0,0,0,0,0,0,-1,1819,1338,48.8869,-3.05886
602,-314,48.7299,3.02686,0,0,0,0,0,0,0,-1,1826,1338,48.7299,-3.02691
609,-314,48.4767,3.0321,0,0,0,0,0,0,0,-1,1833,1338,48.4766,-3.03211
616,-314,48.1149,3.005,0,0,0,0,0,0,0,-1,1840,1338,48.1149,-3.00505
623,-314,38.7728,2.71741,0,0,0,0,0,0,0,-1,1847,1338,38.7728,-2.71737
630,-314,29.4308,6.23206,0,0,0,0,0,0,0,-1,1854,1338,29.4308,-6.23202
637,-314,22.1349,5.16418,0,0,0,0,0,0,0,-1,1861,1338,22.1349,-5.16414
644,-314,18.7517,6.2605,0,0,0,0,0,0,0,-1,1868,1338,18.7517,-6.26053
651,-314,23.1317,8.005,0,0,0,0,0,0,0,-1,1875,1338,23.1317,-8.00506
658,-314,32.4344,12.2426,0,0,0,0,0,0,0,-1,1882,1338,32.4344,-12.2426
665,-314,32.3818,11.7704,0.00416544,0.00570787,-0.00109777,0.00627825,0.00359506,-1.09161,0.00363747,0.0281557,1889,1338,32.3819,-11.7704
672,-314,32.4019,11.2836,0.00258418,0.00225781,-0.000450101,0.00289976,0.00194222,-0.61149,0.00170605,0.0123458,1896,1338,32.4019,-11.2836
679,-314,32.3772,10.7732,0.00128579,0.000104296,-8.65423e-05,0.0012921,9.79905e-05,-0.0727307,0.000830663,0.0101837,1903,1338,32.3772,-10.7731
686,-314,32.3429,10.2789,0.000603966,-0.000556491,3.7866e-05,0.0006052,-0.000557725,0.032584,0.000671602,0.0119774,1910,1338,32.3429,-10.2789
693,-314,32.3315,9.79004,0.000777361,-0.000457852,0.000154143,0.000796306,-0.000476797,0.122292,0.000742703,0.0121362,1917,1338,32.3316,-9.79005
700,-314,32.3425,9.29053,0.00087078,-0.000358837,0.000303648,0.000941677,-0.000429734,0.229374,0.000809965,0.0149786,1924,1338,32.3425,-9.29051
707,-314,32.3462,8.81677,0.000865837,-0.000283791,0.000502861,0.00105475,-0.000472705,0.359365,0.000902967,0.014759,1931,1338,32.3462,-8.81677
714,-314,32.3302,8.3783,0.000702614,-0.000226189,0.000749449,0.00111988,-0.000643457,0.508024,0.00103038,0.0124883,1938,1338,32.3302,-8.37826
721,-314,32.2992,7.95544,0.000340032,-0.000250714,0.00114463,0.00122679,-0.00113747,0.659128,0.00136533,0.0264867,1945,1338,32.2991,-7.95546
728,-314,32.3643,7.53699,0,0,0,0,0,0,0,-1,1952,1338,32.3643,-7.53704
735,-314,26.3665,6.21582,0,0,0,0,0,0,0,-1,1959,1338,26.3664,-6.21581
742,-314,26.2235,6.0166,0,0,0,0,0,0,0,-1,1966,1338,26.2235,-6.01662
749,-314,26.2223,5.47046,0,0,0,0,0,0,0,-1,1973,1338,26.2223,-5.47041
756,-314,24.2521,5.93408,0,0,0,0,0,0,0,-1,1980,1338,24.252,-5.93413
763,-314,19.2207,4.07239,0,0,0,0,0,0,0,-1,1987,1338,19.2206,-4.07239
770,-314,0,0,0,0,0,0,0,0,0,-1,1994,1338,0,0
777,-314,0,0,0,0,0,0,0,0,0,-1,2001,1338,0,0
784,-314,0,0,0,0,0,0,0,0,0,-1,2008,1338,0,0
791,-314,0,0,0,0,0,0,0,0,0,-1,2015,1338,0,0
798,-314,0,0,0,0,0,0,0,0,0,-1,2022,1338,0,0
805,-314,0,0,0,0,0,0,0,0,0,-1,2029,1338,0,0
812,-314,0,0,0,0,0,0,0,0,0,-1,2036,1338,0,0
-700,-321,0,0,0,0,0,0,0,0,0,-1,524,1345,0,0
-693,-321,0,0,0,0,0,0,0,0,0,-1,531,1345,0,0
-686,-321,0,0,0,0,0,0,0,0,0,-1,538,1345,0,0
-679,-321,0,0,0,0,0,0,0,0,0,-1,545,1345,0,0
-672,-321,0,0,0,0,0,0,0,0,0,-1,552,1345,0,0
-665,-321,0,0,0,0,0,0,0,0,0,-1,559,1345,0,0
-658,-321,0,0,0,0,0,0,0,0,0,-1,566,1345,0,0
-651,-321,0,0,0,0,0,0,0,0,0,-1,573,1345,0,0
-644,-321,-17.2769,5.65454,0,0,0,0,0,0,0,-1,580,1345,-17.2768,-5.65454
-637,-321,-13.3991,3.59241,0,0,0,0,0,0,0,-1,587,1345,-13.3991,-3.59236
-630,-321,-13.2958,3.65039,0,0,0,0,0,0,0,-1,594,1345,-13.2958,-3.65042
-623,-321,-13.2242,3.14148,0,0,0,0,0,0,0,-1,601,1345,-13.2243,-3.14146
-616,-321,-11.6754,3.13794,0,0,0,0,0,0,0,-1,608,1345,-11.6754,-3.13789
-609,-321,-7.95209,1.14758,0,0,0,0,0,0,0,-1,615,1345,-7.95208,-1.14757
-602,-321,-8.85791,2.50049,0,0,0,0,0,0,0,-1,622,1345,-8.85791,-2.50048
-595,-321,-18.4471,4.90222,0,0,0,0,0,0,0,-1,629,1345,-18.4472,-4.90218
-588,-321,-17.9611,5.46667,0.00614379,0.00342138,0.0037832,0.00880322,0.000761946,0.612708,0.00563204,0.0474867,636,1345,-17.9611,-5.46673
-581,-321,-17.835,6.10742,0.00459219,0.00241238,0.00266749,0.00638385,0.000620719,0.591454,0.00406482,0.0136723,643,1345,-17.835,-6.10742
-574,-321,-17.8596,6.61096,0.00357009,0.00159572,0.00188352,0.00470945,0.000456362,0.544021,0.00299911,0.0156732,650,1345,-17.8596,-6.61094
-567,-321,-17.8425,7.15369,0.00299049,0.00099769,0.00137193,0.00368967,0.000298508,0.471326,0.00236656,0.0233549,657,1345,-17.8425,-7.15373
-560,-321,-17.8016,7.77405,0.00275291,0.000529853,0.00105308,0.00317255,0.000110216,0.379201,0.00207927,0.026864,664,1345,-17.8016,-7.77408
-553,-321,-17.8814,8.25659,0.00280653,0.000138999,0.000876539,0.00306878,-0.000123246,0.290707,0.00208815,0.0284975,671,1345,-17.8814,-8.25662
-546,-321,-17.9611,8.75122,0.00321298,-0.000146234,0.000873459,0.00342652,-0.000359775,0.239775,0.00241323,0.0275387,678,1345,-17.9611,-8.75123
-539,-321,-17.9346,9.28845,0.00395898,-0.000355,0.00102295,0.00418925,-0.000585275,0.221418,0.00300697,0.024603,685,1345,-17.9346,-9.28839
-532,-321,-17.8811,9.80566,0.00521966,-0.000414753,0.00141738,0.00555612,-0.000751212,0.233068,0.0039782,0.0326571,692,1345,-17.8811,-9.80568
-525,-321,-17.8417,10.3209,0,0,0,0,0,0,0,-1,699,1345,-17.8417,-10.3209
-518,-321,-10.3564,6.75696,0,0,0,0,0,0,0,-1,706,1345,-10.3564,-6.75694
-511,-321,-9.3302,5.29297,0,0,0,0,0,0,0,-1,713,1345,-9.33023,-5.29294
-504,-321,-10.4713,0.0145264,0,0,0,0,0,0,0,-1,720,1345,-10.4713,-0.0145296
-497,-321,-9.96771,0.313599,0,0,0,0,0,0,0,-1,727,1345,-9.96769,-0.313618
-490,-321,-10.7631,0.973511,0,0,0,0,0,0,0,-1,734,1345,-10.7631,-0.97353
-483,-321,-17.5908,0.2323,0,0,0,0,0,0,0,-1,741,1345,-17.5908,-0.232355
-476,-321,-17.2915,0.297363,0,0,0,0,0,0,0,-1,748,1345,-17.2915,-0.297342
-469,-321,-17.2441,0.478027,0,0,0,0,0,0,0,-1,755,1345,-17.2441,-0.477994
-462,-321,-17.1672,0.526489,0,0,0,0,0,0,0,-1,762,1345,-17.1672,-0.526533
-455,-321,0,0,0,0,0,0,0,0,0,-1,769,1345,0,0
-448,-321,0,0,0,0,0,0,0,0,0,-1,776,1345,0,0
-441,-321,0,0,0,0,0,0,0,0,0,-1,783,1345,0,0
-434,-321,0,0,0,0,0,0,0,0,0,-1,790,1345,0,0
-427,-321,0,0,0,0,0,0,0,0,0,-1,797,1345,0,0
-420,-321,0,0,0,0,0,0,0,0,0,-1,804,1345,0,0
-413,-321,0,0,0,0,0,0,0,0,0,-1,811,1345,0,0
-406,-321,0,0,0,0,0,0,0,0,0,-1,818,1345,0,0
-399,-321,0,0,0,0,0,0,0,0,0,-1,825,1345,0,0
-392,-321,0,0,0,0,0,0,0,0,0,-1,832,1345,0,0
-385,-321,0,0,0,0,0,0,0,0,0,-1,839,1345,0,0
-378,-321,0,0,0,0,0,0,0,0,0,-1,846,1345,0,0
-371,-321,0,0,0,0,0,0,0,0,0,-1,853,1345,0,0
-364,-321,0,0,0,0,0,0,0,0,0,-1,860,1345,0,0
-357,-321,0,0,0,0,0,0,0,0,0,-1,867,1345,0,0
-350,-321,0,0,0,0,0,0,0,0,0,-1,874,1345,0,0
-343,-321,0,0,0,0,0,0,0,0,0,-1,881,1345,0,0
-336,-321,0,0,0,0,0,0,0,0,0,-1,888,1345,0,0
-329,-321,0,0,0,0,0,0,0,0,0,-1,895,1345,0,0
-322,-321,0,0,0,0,0,0,0,0,0,-1,902,1345,0,0
-315,-321,0,0,0,0,0,0,0,0,0,-1,909,1345,0,0
-308,-321,0,0,0,0,0,0,0,0,0,-1,916,1345,0,0
-301,-321,0,0,0,0,0,0,0,0,0,-1,923,1345,0,0
-294,-321,0,0,0,0,0,0,0,0,0,-1,930,1345,0,0
-287,-321,0,0,0,0,0,0,0,0,0,-1,937,1345,0,0
-280,-321,0,0,0,0,0,0,0,0,0,-1,944,1345,0,0
-273,-321,0,0,0,0,0,0,0,0,0,-1,951,1345,0,0
-266,-321,0,0,0,0,0,0,0,0,0,-1,958,1345,0,0
-259,-321,0,0,0,0,0,0,0,0,0,-1,965,1345,0,0
-252,-321,0,0,0,0,0,0,0,0,0,-1,972,1345,0,0
-245,-321,0,0,0,0,0,0,0,0,0,-1,979,1345,0,0
-238,-321,0,0,0,0,0,0,0,0,0,-1,986,1345,0,0
-231,-321,0,0,0,0,0,0,0,0,0,-1,993,1345,0,0
-224,-321,0,0,0,0,0,0,0,0,0,-1,1000,1345,0,0
-217,-321,0,0,0,0,0,0,0,0,0,-1,1007,1345,0,0
-210,-321,0,0,0,0,0,0,0,0,0,-1,1014,1345,0,0
-203,-321,0,0,0,0,0,0,0,0,0,-1,1021,1345,0,0
-196,-321,0,0,0,0,0,0,0,0,0,-1,1028,1345,0,0
-189,-321,0,0,0,0,0,0,0,0,0,-1,1035,1345,0,0
-182,-321,0,0,0,0,0,0,0,0,0,-1,1042,1345,0,0
-175,-321,0,0,0,0,0,0,0,0,0,-1,1049,1345,0,0
-168,-321,0,0,0,0,0,0,0,0,0,-1,1056,1345,0,0
-161,-321,0,0,0,0,0,0,0,0,0,-1,1063,1345,0,0
-154,-321,0,0,0,0,0,0,0,0,0,-1,1070,1345,0,0
-147,-321,0,0,0,0,0,0,0,0,0,-1,1077,1345,0,0
-140,-321,0,0,0,0,0,0,0,0,0,-1,1084,1345,0,0
-133,-321,0,0,0,0,0,0,0,0,0,-1,1091,1345,0,0
-126,-321,0,0,0,0,0,0,0,0,0,-1,1098,1345,0,0
-119,-321,0,0,0,0,0,0,0,0,0,-1,1105,1345,0,0
-112,-321,0,0,0,0,0,0,0,0,0,-1,1112,1345,0,0
-105,-321,0,0,0,0,0,0,0,0,0,-1,1119,1345,0,0
-98,-321,0,0,0,0,0,0,0,0,0,-1,1126,1345,0,0
-91,-321,0,0,0,0,0,0,0,0,0,-1,1133,1345,0,0
-84,-321,0,0,0,0,0,0,0,0,0,-1,1140,1345,0,0
-77,-321,0,0,0,0,0,0,0,0,0,-1,1147,1345,0,0
-70,-321,0,0,0,0,0,0,0,0,0,-1,1154,1345,0,0
-63,-321,0,0,0,0,0,0,0,0,0,-1,1161,1345,0,0
-56,-321,0,0,0,0,0,0,0,0,0,-1,1168,1345,0,0
-49,-321,0,0,0,0,0,0,0,0,0,-1,1175,1345,0,0
-42,-321,0,0,0,0,0,0,0,0,0,-1,1182,1345,0,0
-35,-321,0,0,0,0,0,0,0,0,0,-1,1189,1345,0,0
-28,-321,0,0,0,0,0,0,0,0,0,-1,1196,1345,0,0
-21,-321,0,0,0,0,0,0,0,0,0,-1,1203,1345,0,0
-14,-321,0,0,0,0,0,0,0,0,0,-1,1210,1345,0,0
-7,-321,0,0,0,0,0,0,0,0,0,-1,1217,1345,0,0
0,-321,0,0,0,0,0,0,0,0,0,-1,1224,1345,0,0
7,-321,0,0,0,0,0,0,0,0,0,-1,1231,1345,0,0
14,-321,0,0,0,0,0,0,0,0,0,-1,1238,1345,0,0
21,-321,0,0,0,0,0,0,0,0,0,-1,1245,1345,0,0
28,-321,0,0,0,0,0,0,0,0,0,-1,1252,1345,0,0
35,-321,0,0,0,0,0,0,0,0,0,-1,1259,1345,0,0
42,-321,0,0,0,0,0,0,0,0,0,-1,1266,1345,0,0
49,-321,0,0,0,0,0,0,0,0,0,-1,1273,1345,0,0
56,-321,0,0,0,0,0,0,0,0,0,-1,1280,1345,0,0
63,-321,0,0,0,0,0,0,0,0,0,-1,1287,1345,0,0
70,-321,0,0,0,0,0,0,0,0,0,-1,1294,1345,0,0
77,-321,0,0,0,0,0,0,0,0,0,-1,1301,1345,0,0
84,-321,0,0,0,0,0,0,0,0,0,-1,1308,1345,0,0
91,-321,0,0,0,0,0,0,0,0,0,-1,1315,1345,0,0
98,-321,0,0,0,0,0,0,0,0,0,-1,1322,1345,0,0
105,-321,0,0,0,0,0,0,0,0,0,-1,1329,1345,0,0
112,-321,0,0,0,0,0,0,0,0,0,-1,1336,1345,0,0
119,-321,0,0,0,0,0,0,0,0,0,-1,1343,1345,0,0
126,-321,0,0,0,0,0,0,0,0,0,-1,1350,1345,0,0
133,-321,0,0,0,0,0,0,0,0,0,-1,1357,1345,0,0
140,-321,0,0,0,0,0,0,0,0,0,-1,1364,1345,0,0
147,-321,0,0,0,0,0,0,0,0,0,-1,1371,1345,0,0
154,-321,0,0,0,0,0,0,0,0,0,-1,1378,1345,0,0
161,-321,0,0,0,0,0,0,0,0,0,-1,1385,1345,0,0
168,-321,0,0,0,0,0,0,0,0,0,-1,1392,1345,0,0
175,-321,0,0,0,0,0,0,0,0,0,-1,1399,1345,0,0
182,-321,0,0,0,0,0,0,0,0,0,-1,1406,1345,0,0
189,-321,0,0,0,0,0,0,0,0,0,-1,1413,1345,0,0
196,-321,0,0,0,0,0,0,0,0,0,-1,1420,1345,0,0
203,-321,0,0,0,0,0,0,0,0,0,-1,1427,1345,0,0
210,-321,0,0,0,0,0,0,0,0,0,-1,1434,1345,0,0
217,-321,0,0,0,0,0,0,0,0,0,-1,1441,1345,0,0
224,-321,0,0,0,0,0,0,0,0,0,-1,1448,1345,0,0
231,-321,0,0,0,0,0,0,0,0,0,-1,1455,1345,0,0
238,-321,0,0,0,0,0,0,0,0,0,-1,1462,1345,0,0
245,-321,0,0,0,0,0,0,0,0,0,-1,1469,1345,0,0
252,-321,0,0,0,0,0,0,0,0,0,-1,1476,1345,0,0
259,-321,0,0,0,0,0,0,0,0,0,-1,1483,1345,0,0
266,-321,0,0,0,0,0,0,0,0,0,-1,1490,1345,0,0
273,-321,0,0,0,0,0,0,0,0,0,-1,1497,1345,0,0
280,-321,0,0,0,0,0,0,0,0,0,-1,1504,1345,0,0
287,-321,0,0,0,0,0,0,0,0,0,-1,1511,1345,0,0
294,-321,0,0,0,0,0,0,0,0,0,-1,1518,1345,0,0
301,-321,0,0,0,0,0,0,0,0,0,-1,1525,1345,0,0
308,-321,0,0,0,0,0,0,0,0,0,-1,1532,1345,0,0
315,-321,0,0,0,0,0,0,0,0,0,-1,1539,1345,0,0
322,-321,0,0,0,0,0,0,0,0,0,-1,1546,1345,0,0
329,-321,0,0,0,0,0,0,0,0,0,-1,1553,1345,0,0
336,-321,0,0,0,0,0,0,0,0,0,-1,1560,1345,0,0
343,-321,0,0,0,0,0,0,0,0,0,-1,1567,1345,0,0
350,-321,0,0,0,0,0,0,0,0,0,-1,1574,1345,0,0
357,-321,0,0,0,0,0,0,0,0,0,-1,1581,1345,0,0
364,-321,0,0,0,0,0,0,0,0,0,-1,1588,1345,0,0
371,-321,0,0,0,0,0,0,0,0,0,-1,1595,1345,0,0
378,-321,0,0,0,0,0,0,0,0,0,-1,1602,1345,0,0
385,-321,0,0,0,0,0,0,0,0,0,-1,1609,1345,0,0
392,-321,0,0,0,0,0,0,0,0,0,-1,1616,1345,0,0
399,-321,0,0,0,0,0,0,0,0,0,-1,1623,1345,0,0
406,-321,0,0,0,0,0,0,0,0,0,-1,1630,1345,0,0
413,-321,0,0,0,0,0,0,0,0,0,-1,1637,1345,0,0
420,-321,0,0,0,0,0,0,0,0,0,-1,1644,1345,0,0
427,-321,0,0,0,0,0,0,0,0,0,-1,1651,1345,0,0
434,-321,0,0,0,0,0,0,0,0,0,-1,1658,1345,0,0
441,-321,0,0,0,0,0,0,0,0,0,-1,1665,1345,0,0
448,-321,0,0,0,0,0,0,0,0,0,-1,1672,1345,0,0
455,-321,0,0,0,0,0,0,0,0,0,-1,1679,1345,0,0
462,-321,0,0,0,0,0,0,0,0,0,-1,1686,1345,0,0
469,-321,0,0,0,0,0,0,0,0,0,-1,1693,1345,0,0
476,-321,0,0,0,0,0,0,0,0,0,-1,1700,1345,0,0
483,-321,0,0,0,0,0,0,0,0,0,-1,1707,1345,0,0
490,-321,0,0,0,0,0,0,0,0,0,-1,1714,1345,0,0
497,-321,0,0,0,0,0,0,0,0,0,-1,1721,1345,0,0
504,-321,0,0,0,0,0,0,0,0,0,-1,1728,1345,0,0
511,-321,0,0,0,0,0,0,0,0,0,-1,1735,1345,0,0
518,-321,0,0,0,0,0,0,0,0,0,-1,1742,1345,0,0
525,-321,0,0,0,0,0,0,0,0,0,-1,1749,1345,0,0
532,-321,0,0,0,0,0,0,0,0,0,-1,1756,1345,0,0
539,-321,0,0,0,0,0,0,0,0,0,-1,1763,1345,0,0
546,-321,0,0,0,0,0,0,0,0,0,-1,1770,1345,0,0
553,-321,0,0,0,0,0,0,0,0,0,-1,1777,1345,0,0
560,-321,0,0,0,0,0,0,0,0,0,-1,1784,1345,0,0
567,-321,0,0,0,0,0,0,0,0,0,-1,1791,1345,0,0
574,-321,0,0,0,0,0,0,0,0,0,-1,1798,1345,0,0
581,-321,49.9773,4.13696,0,0,0,0,0,0,0,-1,1805,1345,49.9772,-4.13692
588,-321,49.5574,3.74097,0,0,0,0,0,0,0,-1,1812,1345,49.5574,-3.74092
595,-321,49.1759,3.42566,0,0,0,0,0,0,0,-1,1819,1345,49.1759,-3.42565
602,-321,48.7419,3.37378,0,0,0,0,0,0,0,-1,1826,1345,48.7419,-3.37383
609,-321,48.311,3.39575,0,0,0,0,0,0,0,-1,1833,1345,48.311,-3.39571
616,-321,37.8107,2.58704,0,0,0,0,0,0,0,-1,1840,1345,37.8106,-2.58705
623,-321,37.6854,3.68933,0,0,0,0,0,0,0,-1,1847,1345,37.6854,-3.68931
630,-321,23.6674,4.34106,0,0,0,0,0,0,0,-1,1854,1345,23.6674,-4.34112
637,-321,21.7925,6.79224,0,0,0,0,0,0,0,-1,1861,1345,21.7925,-6.7922
644,-321,16.8844,6.71973,0,0,0,0,0,0,0,-1,1868,1345,16.8844,-6.71971
651,-321,27.4924,10.0319,0,0,0,0,0,0,0,-1,1875,1345,27.4924,-10.0319
658,-321,32.0908,12.3203,0,0,0,0,0,0,0,-1,1882,1345,32.0909,-12.3203
665,-321,31.8829,11.7942,0.00280466,0.00472139,-0.000623033,0.00490611,0.00261995,-1.28257,0.00283473,0.0221392,1889,1345,31.883,-11.7942
672,-321,31.9138,11.2908,0.00160824,0.00171036,-0.000234345,0.00189914,0.00141946,-0.892662,0.00114034,0.0132671,1896,1345,31.9138,-11.2907
679,-321,31.9028,10.7936,0.000913808,7.43465e-05,-7.18134e-05,0.000919907,6.82474e-05,-0.0847267,0.000591835,0.0115766,1903,1345,31.9028,-10.7936
686,-321,31.8604,10.2937,0.000772675,-0.000421811,-6.17369e-05,0.000775857,-0.000424993,-0.051502,0.000703107,0.0121207,1910,1345,31.8604,-10.2937
693,-321,31.8333,9.81445,0.00112349,-0.000337502,1.01309e-05,0.00112356,-0.000337573,0.0069338,0.000883337,0.0122282,1917,1345,31.8332,-9.81448
700,-321,31.8473,9.32178,0.00141714,-0.000253997,0.000108039,0.0014241,-0.000260953,0.0642933,0.00104728,0.0135643,1924,1345,31.8473,-9.32178
707,-321,31.8662,8.84338,0.0015986,-0.000168179,0.000234445,0.00162918,-0.00019876,0.129706,0.00115807,0.0159838,1931,1345,31.8662,-8.8434
714,-321,31.8464,8.3739,0.00162871,-0.000109136,0.000412164,0.0017215,-0.000201934,0.221455,0.00122056,0.0143618,1938,1345,31.8465,-8.37395
721,-321,31.7771,7.88562,0.00147114,-0.000157902,0.000779248,0.00178386,-0.000470621,0.381634,0.00137326,0.0413615,1945,1345,31.7771,-7.88559
728,-321,31.7725,7.45264,0,0,0,0,0,0,0,-1,1952,1345,31.7724,-7.4526
735,-321,22.0081,5.65479,0,0,0,0,0,0,0,-1,1959,1345,22.008,-5.65481
742,-321,24.5398,5.05725,0,0,0,0,0,0,0,-1,1966,1345,24.5398,-5.05729
749,-321,24.0675,5.4458,0,0,0,0,0,0,0,-1,1973,1345,24.0675,-5.44581
756,-321,19.6251,4.98315,0,0,0,0,0,0,0,-1,1980,1345,19.6251,-4.98311
763,-321,19.6747,4.61438,0,0,0,0,0,0,0,-1,1987,1345,19.6747,-4.61436
770,-321,0,0,0,0,0,0,0,0,0,-1,1994,1345,0,0
777,-321,0,0,0,0,0,0,0,0,0,-1,2001,1345,0,0
784,-321,0,0,0,0,0,0,0,0,0,-1,2008,1345,0,0
791,-321,0,0,0,0,0,0,0,0,0,-1,2015,1345,0,0
798,-321,0,0,0,0,0,0,0,0,0,-1,2022,1345,0,0
805,-321,0,0,0,0,0,0,0,0,0,-1,2029,1345,0,0
812,-321,0,0,0,0,0,0,0,0,0,-1,2036,1345,0,0
-700,-328,0,0,0,0,0,0,0,0,0,-1,524,1352,0,0
-693,-328,0,0,0,0,0,0,0,0,0,-1,531,1352,0,0
-686,-328,0,0,0,0,0,0,0,0,0,-1,538,1352,0,0
-679,-328,0,0,0,0,0,0,0,0,0,-1,545,1352,0,0
-672,-328,0,0,0,0,0,0,0,0,0,-1,552,1352,0,0
-665,-328,0,0,0,0,0,0,0,0,0,-1,559,1352,0,0
-658,-328,0,0,0,0,0,0,0,0,0,-1,566,1352,0,0
-651,-328,0,0,0,0,0,0,0,0,0,-1,573,1352,0,0
-644,-328,0,0,0,0,0,0,0,0,0,-1,580,1352,0,0
-637,-328,-12.0695,1.02014,0,0,0,0,0,0,0,-1,587,1352,-12.0694,-1.02017
-630,-328,-13.3971,4.54578,0,0,0,0,0,0,0,-1,594,1352,-13.3971,-4.54572
-623,-328,-10.7739,4.55042,0,0,0,0,0,0,0,-1,601,1352,-10.7739,-4.55041
-616,-328,-8.22198,-0.25708,0,0,0,0,0,0,0,-1,608,1352,-8.22201,0.257067
-609,-328,-7.87439,0.192871,0,0,0,0,0,0,0,-1,615,1352,-7.87441,-0.192822
-602,-328,-7.63062,1.31665,0,0,0,0,0,0,0,-1,622,1352,-7.63064,-1.3166
-595,-328,-9.42639,2.93494,0,0,0,0,0,0,0,-1,629,1352,-9.42638,-2.93499
-588,-328,-17.5861,5.09387,0,0,0,0,0,0,0,-1,636,1352,-17.5861,-5.09385
-581,-328,-17.3367,6.06824,0.0053358,0.00208697,0.00269697,0.00685978,0.000562993,0.51434,0.00439755,0.0258008,643,1352,-17.3368,-6.06828
-574,-328,-17.2994,6.63843,0.00407793,0.00133086,0.00188107,0.00503356,0.000375231,0.470047,0.00323789,0.0162307,650,1352,-17.2994,-6.6384
-567,-328,-17.3412,7.19067,0.00333587,0.00083185,0.0013797,0.00394695,0.000220773,0.416939,0.00256088,0.0223665,657,1352,-17.3412,-7.19067
-560,-328,-17.2995,7.7865,0.002954,0.000463723,0.00108083,0.00335766,6.00561e-05,0.357437,0.00221869,0.0290935,664,1352,-17.2995,-7.78651
-553,-328,-17.3203,8.29224,0.00285066,0.00017561,0.000926082,0.00313997,-0.000113703,0.302799,0.00213223,0.02999,671,1352,-17.3203,-8.29221
-546,-328,-17.4096,8.77991,0.00308695,-2.38099e-05,0.000932235,0.00334492,-0.000281789,0.269975,0.00232957,0.0279948,678,1352,-17.4096,-8.77989
-539,-328,-17.4561,9.29346,0.00360122,-0.000138358,0.00107234,0.00388689,-0.000424031,0.260356,0.00274355,0.0232601,685,1352,-17.4561,-9.29341
-532,-328,-17.4211,9.83801,0.00451617,-0.000138888,0.00141439,0.00491222,-0.000534941,0.273024,0.00346691,0.0181094,692,1352,-17.4211,-9.83803
-525,-328,-17.3486,10.4647,0.00572841,-0.000224124,0.00178832,0.00622435,-0.000720068,0.270526,0.00440923,0.0294503,699,1352,-17.3486,-10.4647
-518,-328,-17.4017,11.1268,0,0,0,0,0,0,0,-1,706,1352,-17.4017,-11.1269
-511,-328,-9.39868,7.16113,0,0,0,0,0,0,0,-1,713,1352,-9.39869,-7.16113
-504,-328,-8.60626,-0.905762,0,0,0,0,0,0,0,-1,720,1352,-8.60623,0.905787
-497,-328,-9.29102,-0.0517578,0,0,0,0,0,0,0,-1,727,1352,-9.29104,0.0518175
-490,-328,-10.0663,0.882813,0,0,0,0,0,0,0,-1,734,1352,-10.0663,-0.882795
-483,-328,-10.8181,1.72375,0,0,0,0,0,0,0,-1,741,1352,-10.8181,-1.72374
-476,-328,-16.8951,-0.150757,0,0,0,0,0,0,0,-1,748,1352,-16.8951,0.150795
-469,-328,-16.8412,0.00158691,0,0,0,0,0,0,0,-1,755,1352,-16.8412,-0.00161515
-462,-328,-16.3546,-0.203491,0,0,0,0,0,0,0,-1,762,1352,-16.3545,0.203532
-455,-328,0,0,0,0,0,0,0,0,0,-1,769,1352,0,0
-448,-328,0,0,0,0,0,0,0,0,0,-1,776,1352,0,0
-441,-328,0,0,0,0,0,0,0,0,0,-1,783,1352,0,0
-434,-328,0,0,0,0,0,0,0,0,0,-1,790,1352,0,0
-427,-328,0,0,0,0,0,0,0,0,0,-1,797,1352,0,0
-420,-328,0,0,0,0,0,0,0,0,0,-1,804,1352,0,0
-413,-328,0,0,0,0,0,0,0,0,0,-1,811,1352,0,0
-406,-328,0,0,0,0,0,0,0,0,0,-1,818,1352,0,0
-399,-328,0,0,0,0,0,0,0,0,0,-1,825,1352,0,0
-392,-328,0,0,0,0,0,0,0,0,0,-1,832,1352,0,0
-385,-328,0,0,0,0,0,0,0,0,0,-1,839,1352,0,0
-378,-328,0,0,0,0,0,0,0,0,0,-1,846,1352,0,0
-371,-328,0,0,0,0,0,0,0,0,0,-1,853,1352,0,0
-364,-328,0,0,0,0,0,0,0,0,0,-1,860,1352,0,0
-357,-328,0,0,0,0,0,0,0,0,0,-1,867,1352,0,0
-350,-328,0,0,0,0,0,0,0,0,0,-1,874,1352,0,0
-343,-328,0,0,0,0,0,0,0,0,0,-1,881,1352,0,0
-336,-328,0,0,0,0,0,0,0,0,0,-1,888,1352,0,0
-329,-328,0,0,0,0,0,0,0,0,0,-1,895,1352,0,0
-322,-328,0,0,0,0,0,0,0,0,0,-1,902,1352,0,0
-315,-328,0,0,0,0,0,0,0,0,0,-1,909,1352,0,0
-308,-328,0,0,0,0,0,0,0,0,0,-1,916,1352,0,0
-301,-328,0,0,0,0,0,0,0,0,0,-1,923,1352,0,0
-294,-328,0,0,0,0,0,0,0,0,0,-1,930,1352,0,0
-287,-328,0,0,0,0,0,0,0,0,0,-1,937,1352,0,0
-280,-328,0,0,0,0,0,0,0,0,0,-1,944,1352,0,0
-273,-328,0,0,0,0,0,0,0,0,0,-1,951,1352,0,0
-266,-328,0,0,0,0,0,0,0,0,0,-1,958,1352,0,0
-259,-328,0,0,0,0,0,0,0,0,0,-1,965,1352,0,0
-252,-328,0,0,0,0,0,0,0,0,0,-1,972,1352,0,0
-245,-328,0,0,0,0,0,0,0,0,0,-1,979,1352,0,0
-238,-328,0,0,0,0,0,0,0,0,0,-1,986,1352,0,0
-231,-328,0,0,0,0,0,0,0,0,0,-1,993,1352,0,0
-224,-328,0,0,0,0,0,0,0,0,0,-1,1000,1352,0,0
-217,-328,0,0,0,0,0,0,0,0,0,-1,1007,1352,0,0
-210,-328,0,0,0,0,0,0,0,0,0,-1,1014,1352,0,0
-203,-328,0,0,0,0,0,0,0,0,0,-1,1021,1352,0,0
-196,-328,0,0,0,0,0,0,0,0,0,-1,1028,1352,0,0
-189,-328,0,0,0,0,0,0,0,0,0,-1,1035,1352,0,0
-182,-328,0,0,0,0,0,0,0,0,0,-1,1042,1352,0,0
-175,-328,0,0,0,0,0,0,0,0,0,-1,1049,1352,0,0
-168,-328,0,0,0,0,0,0,0,0,0,-1,1056,1352,0,0
-161,-328,0,0,0,0,0,0,0,0,0,-1,1063,1352,0,0
-154,-328,0,0,0,0,0,0,0,0,0,-1,1070,1352,0,0
-147,-328,0,0,0,0,0,0,0,0,0,-1,1077,1352,0,0
-140,-328,0,0,0,0,0,0,0,0,0,-1,1084,1352,0,0
-133,-328,0,0,0,0,0,0,0,0,0,-1,1091,1352,0,0
-126,-328,0,0,0,0,0,0,0,0,0,-1,1098,1352,0,0
-119,-328,0,0,0,0,0,0,0,0,0,-1,1105,1352,0,0
-112,-328,0,0,0,0,0,0,0,0,0,-1,1112,1352,0,0
-105,-328,0,0,0,0,0,0,0,0,0,-1,1119,1352,0,0
-98,-328,0,0,0,0,0,0,0,0,0,-1,1126,1352,0,0
-91,-328,0,0,0,0,0,0,0,0,0,-1,1133,1352,0,0
-84,-328,0,0,0,0,0,0,0,0,0,-1,1140,1352,0,0
-77,-328,0,0,0,0,0,0,0,0,0,-1,1147,1352,0,0
-70,-328,0,0,0,0,0,0,0,0,0,-1,1154,1352,0,0
-63,-328,0,0,0,0,0,0,0,0,0,-1,1161,1352,0,0
-56,-328,0,0,0,0,0,0,0,0,0,-1,1168,1352,0,0
-49,-328,0,0,0,0,0,0,0,0,0,-1,1175,1352,0,0
-42,-328,0,0,0,0,0,0,0,0,0,-1,1182,1352,0,0
-35,-328,0,0,0,0,0,0,0,0,0,-1,1189,1352,0,0
-28,-328,0,0,0,0,0,0,0,0,0,-1,1196,1352,0,0
-21,-328,0,0,0,0,0,0,0,0,0,-1,1203,1352,0,0
-14,-328,0,0,0,0,0,0,0,0,0,-1,1210,1352,0,0
-7,-328,0,0,0,0,0,0,0,0,0,-1,1217,1352,0,0
0,-328,0,0,0,0,0,0,0,0,0,-1,1224,1352,0,0
7,-328,0,0,0,0,0,0,0,0,0,-1,1231,1352,0,0
14,-328,0,0,0,0,0,0,0,0,0,-1,1238,1352,0,0
21,-328,0,0,0,0,0,0,0,0,0,-1,1245,1352,0,0
28,-328,0,0,0,0,0,0,0,0,0,-1,1252,1352,0,0
35,-328,0,0,0,0,0,0,0,0,0,-1,1259,1352,0,0
42,-328,0,0,0,0,0,0,0,0,0,-1,1266,1352,0,0
49,-328,0,0,0,0,0,0,0,0,0,-1,1273,1352,0,0
56,-328,0,0,0,0,0,0,0,0,0,-1,1280,1352,0,0
63,-328,0,0,0,0,0,0,0,0,0,-1,1287,1352,0,0
70,-328,0,0,0,0,0,0,0,0,0,-1,1294,1352,0,0
77,-328,0,0,0,0,0,0,0,0,0,-1,1301,1352,0,0
84,-328,0,0,0,0,0,0,0,0,0,-1,1308,1352,0,0
91,-328,0,0,0,0,0,0,0,0,0,-1,1315,1352,0,0
98,-328,0,0,0,0,0,0,0,0,0,-1,1322,1352,0,0
105,-328,0,0,0,0,0,0,0,0,0,-1,1329,1352,0,0
112,-328,0,0,0,0,0,0,0,0,0,-1,1336,1352,0,0
119,-328,0,0,0,0,0,0,0,0,0,-1,1343,1352,0,0
126,-328,0,0,0,0,0,0,0,0,0,-1,1350,1352,0,0
133,-328,0,0,0,0,0,0,0,0,0,-1,1357,1352,0,0
140,-328,0,0,0,0,0,0,0,0,0,-1,1364,1352,0,0
147,-328,0,0,0,0,0,0,0,0,0,-1,1371,1352,0,0
154,-328,0,0,0,0,0,0,0,0,0,-1,1378,1352,0,0
161,-328,0,0,0,0,0,0,0,0,0,-1,1385,1352,0,0
168,-328,0,0,0,0,0,0,0,0,0,-1,1392,1352,0,0
175,-328,0,0,0,0,0,0,0,0,0,-1,1399,1352,0,0
182,-328,0,0,0,0,0,0,0,0,0,-1,1406,1352,0,0
189,-328,0,0,0,0,0,0,0,0,0,-1,1413,1352,0,0
196,-328,0,0,0,0,0,0,0,0,0,-1,1420,1352,0,0
203,-328,0,0,0,0,0,0,0,0,0,-1,1427,1352,0,0
210,-328,0,0,0,0,0,0,0,0,0,-1,1434,1352,0,0
217,-328,0,0,0,0,0,0,0,0,0,-1,1441,1352,0,0
224,-328,0,0,0,0,0,0,0,0,0,-1,1448,1352,0,0
231,-328,0,0,0,0,0,0,0,0,0,-1,1455,1352,0,0
238,-328,0,0,0,0,0,0,0,0,0,-1,1462,1352,0,0
245,-328,0,0,0,0,0,0,0,0,0,-1,1469,1352,0,0
252,-328,0,0,0,0,0,0,0,0,0,-1,1476,1352,0,0
259,-328,0,0,0,0,0,0,0,0,0,-1,1483,1352,0,0
266,-328,0,0,0,0,0,0,0,0,0,-1,1490,1352,0,0
273,-328,0,0,0,0,0,0,0,0,0,-1,1497,1352,0,0
280,-328,0,0,0,0,0,0,0,0,0,-1,1504,1352,0,0
287,-328,0,0,0,0,0,0,0,0,0,-1,1511,1352,0,0
294,-328,0,0,0,0,0,0,0,0,0,-1,1518,1352,0,0
301,-328,0,0,0,0,0,0,0,0,0,-1,1525,1352,0,0
308,-328,0,0,0,0,0,0,0,0,0,-1,1532,1352,0,0
315,-328,0,0,0,0,0,0,0,0,0,-1,1539,1352,0,0
322,-328,0,0,0,0,0,0,0,0,0,-1,1546,1352,0,0
329,-328,0,0,0,0,0,0,0,0,0,-1,1553,1352,0,0
336,-328,0,0,0,0,0,0,0,0,0,-1,1560,1352,0,0
343,-328,0,0,0,0,0,0,0,0,0,-1,1567,1352,0,0
350,-328,0,0,0,0,0,0,0,0,0,-1,1574,1352,0,0
357,-328,0,0,0,0,0,0,0,0,0,-1,1581,1352,0,0
364,-328,0,0,0,0,0,0,0,0,0,-1,1588,1352,0,0
371,-328,0,0,0,0,0,0,0,0,0,-1,1595,1352,0,0
378,-328,0,0,0,0,0,0,0,0,0,-1,1602,1352,0,0
385,-328,0,0,0,0,0,0,0,0,0,-1,1609,1352,0,0
392,-328,0,0,0,0,0,0,0,0,0,-1,1616,1352,0,0
399,-328,0,0,0,0,0,0,0,0,0,-1,1623,1352,0,0
406,-328,0,0,0,0,0,0,0,0,0,-1,1630,1352,0,0
413,-328,0,0,0,0,0,0,0,0,0,-1,1637,1352,0,0
420,-328,0,0,0,0,0,0,0,0,0,-1,1644,1352,0,0
427,-328,0,0,0,0,0,0,0,0,0,-1,1651,1352,0,0
434,-328,0,0,0,0,0,0,0,0,0,-1,1658,1352,0,0
441,-328,0,0,0,0,0,0,0,0,0,-1,1665,1352,0,0
448,-328,0,0,0,0,0,0,0,0,0,-1,1672,1352,0,0
455,-328,0,0,0,0,0,0,0,0,0,-1,1679,1352,0,0
462,-328,0,0,0,0,0,0,0,0,0,-1,1686,1352,0,0
469,-328,0,0,0,0,0,0,0,0,0,-1,1693,1352,0,0
476,-328,0,0,0,0,0,0,0,0,0,-1,1700,1352,0,0
483,-328,0,0,0,0,0,0,0,0,0,-1,1707,1352,0,0
490,-328,0,0,0,0,0,0,0,0,0,-1,1714,1352,0,0
497,-328,0,0,0,0,0,0,0,0,0,-1,1721,1352,0,0
504,-328,0,0,0,0,0,0,0,0,0,-1,1728,1352,0,0
511,-328,0,0,0,0,0,0,0,0,0,-1,1735,1352,0,0
518,-328,0,0,0,0,0,0,0,0,0,-1,1742,1352,0,0
525,-328,0,0,0,0,0,0,0,0,0,-1,1749,1352,0,0
532,-328,0,0,0,0,0,0,0,0,0,-1,1756,1352,0,0
539,-328,0,0,0,0,0,0,0,0,0,-1,1763,1352,0,0
546,-328,0,0,0,0,0,0,0,0,0,-1,1770,1352,0,0
553,-328,0,0,0,0,0,0,0,0,0,-1,1777,1352,0,0
560,-328,0,0,0,0,0,0,0,0,0,-1,1784,1352,0,0
567,-328,0,0,0,0,0,0,0,0,0,-1,1791,1352,0,0
574,-328,44.8926,5.11475,0,0,0,0,0,0,0,-1,1798,1352,44.8926,-5.11469
581,-328,50.5533,4.3905,0,0,0,0,0,0,0,-1,1805,1352,50.5533,-4.39048
588,-328,50.1937,4.06274,0,0,0,0,0,0,0,-1,1812,1352,50.1937,-4.06278
595,-328,49.592,3.59802,0,0,0,0,0,0,0,-1,1819,1352,49.5921,-3.59798
602,-328,48.7734,3.66785,0,0,0,0,0,0,0,-1,1826,1352,48.7734,-3.66782
609,-328,37.0468,1.17407,0,0,0,0,0,0,0,-1,1833,1352,37.0468,-1.17407
616,-328,36.999,2.42859,0,0,0,0,0,0,0,-1,1840,1352,36.999,-2.42862
623,-328,34.345,5.14722,0,0,0,0,0,0,0,-1,1847,1352,34.3449,-5.14718
630,-328,22.0211,5.026,0,0,0,0,0,0,0,-1,1854,1352,22.0212,-5.02603
637,-328,21.15,5.53699,0,0,0,0,0,0,0,-1,1861,1352,21.15,-5.53704
644,-328,16.9579,6.3396,0,0,0,0,0,0,0,-1,1868,1352,16.9579,-6.33959
651,-328,31.6426,12.7804,0,0,0,0,0,0,0,-1,1875,1352,31.6426,-12.7803
658,-328,31.4393,12.3058,0.000942287,0.00634211,-0.00117947,0.0065885,0.000695901,-1.36486,0.00417972,0.0426215,1882,1352,31.4393,-12.3057
665,-328,31.4359,11.7937,0.000549462,0.00319317,-0.000698518,0.00336638,0.000376249,-1.32773,0.00212995,0.0145368,1889,1352,31.436,-11.7937
672,-328,31.4125,11.3174,0.000430636,0.00103587,-0.000388904,0.00122602,0.000240481,-1.11603,0.000750148,0.0120739,1896,1352,31.4124,-11.3173
679,-328,31.4183,10.8098,0.000658859,-2.14708e-05,-0.000217426,0.00072241,-8.50211e-05,-0.284364,0.000512304,0.0145983,1903,1352,31.4183,-10.8098
686,-328,31.3884,10.3031,0.00110224,-0.000287109,-0.000167763,0.00112221,-0.00030708,-0.118481,0.000868782,0.014525,1910,1352,31.3884,-10.3031
693,-328,31.3646,9.81677,0.00159237,-0.000224688,-0.00013643,0.00160256,-0.000234874,-0.074526,0.00115466,0.00974863,1917,1352,31.3646,-9.81681
700,-328,31.3586,9.33008,0.00205861,-0.000139859,-0.00010634,0.00206374,-0.000144991,-0.0482199,0.00142662,0.0147388,1924,1352,31.3587,-9.33005
707,-328,31.3724,8.85095,0.00241428,-1.83066e-05,-8.39134e-05,0.00241717,-2.11977e-05,-0.034441,0.00161856,0.0172868,1931,1352,31.3724,-8.85094
714,-328,31.3651,8.37231,0.00265606,7.7962e-05,-2.43433e-05,0.00265629,7.7732e-05,-0.00944123,0.00174553,0.0167074,1938,1352,31.3651,-8.37226
721,-328,31.3611,7.81592,0,0,0,0,0,0,0,-1,1945,1352,31.3611,-7.8159
728,-328,29.2787,6.74695,0,0,0,0,0,0,0,-1,1952,1352,29.2787,-6.74693
735,-328,20.8927,5.23523,0,0,0,0,0,0,0,-1,1959,1352,20.8927,-5.23528
742,-328,20.3547,4.11316,0,0,0,0,0,0,0,-1,1966,1352,20.3547,-4.11321
749,-328,20.0669,5.66321,0,0,0,0,0,0,0,-1,1973,1352,20.0669,-5.66319
756,-328,19.9543,5.50464,0,0,0,0,0,0,0,-1,1980,1352,19.9543,-5.50463
763,-328,0,0,0,0,0,0,0,0,0,-1,1987,1352,0,0
770,-328,0,0,0,0,0,0,0,0,0,-1,1994,1352,0,0
777,-328,0,0,0,0,0,0,0,0,0,-1,2001,1352,0,0
784,-328,0,0,0,0,0,0,0,0,0,-1,2008,1352,0,0
791,-328,0,0,0,0,0,0,0,0,0,-1,2015,1352,0,0
798,-328,0,0,0,0,0,0,0,0,0,-1,2022,1352,0,0
805,-328,0,0,0,0,0,0,0,0,0,-1,2029,1352,0,0
812,-328,0,0,0,0,0,0,0,0,0,-1,2036,1352,0,0
-700,-335,0,0,0,0,0,0,0,0,0,-1,524,1359,0,0
-693,-335,0,0,0,0,0,0,0,0,0,-1,531,1359,0,0
-686,-335,0,0,0,0,0,0,0,0,0,-1,538,1359,0,0
-679,-335,0,0,0,0,0,0,0,0,0,-1,545,1359,0,0
-672,-335,0,0,0,0,0,0,0,0,0,-1,552,1359,0,0
-665,-335,0,0,0,0,0,0,0,0,0,-1,559,1359,0,0
-658,-335,0,0,0,0,0,0,0,0,0,-1,566,1359,0,0
-651,-335,0,0,0,0,0,0,0,0,0,-1,573,1359,0,0
-644,-335,0,0,0,0,0,0,0,0,0,-1,580,1359,0,0
-637,-335,-9.64746,3.53809,0,0,0,0,0,0,0,-1,587,1359,-9.64744,-3.53803
-630,-335,-6.07397,-2.99902,0,0,0,0,0,0,0,-1,594,1359,-6.07397,2.99902
-623,-335,-8.43304,1.09509,0,0,0,0,0,0,0,-1,601,1359,-8.43301,-1.09507
-616,-335,-7.80927,-0.485352,0,0,0,0,0,0,0,-1,608,1359,-7.80926,0.485291
-609,-335,-7.12256,-2.03601,0,0,0,0,0,0,0,-1,615,1359,-7.12253,2.03601
-602,-335,-9.39935,2.25146,0,0,0,0,0,0,0,-1,622,1359,-9.39935,-2.25145
-595,-335,-9.54767,3.01917,0,0,0,0,0,0,0,-1,629,1359,-9.54768,-3.01911
-588,-335,-16.8967,5.37305,0,0,0,0,0,0,0,-1,636,1359,-16.8967,-5.37302
-581,-335,-16.782,6.17017,0.00545745,0.00155859,0.00247472,0.00665834,0.000357701,0.45179,0.00432459,0.0418,643,1359,-16.782,-6.17022
-574,-335,-16.7784,6.6532,0.00418599,0.000943373,0.0017344,0.00493887,0.000190494,0.409542,0.00323096,0.0142423,650,1359,-16.7784,-6.6532
-567,-335,-16.777,7.19128,0.0034443,0.000589257,0.00130735,0.00395249,8.10663e-05,0.370743,0.00260839,0.0186139,657,1359,-16.7771,-7.19128
-560,-335,-16.7791,7.68042,0.00304088,0.000333678,0.00106063,0.00340692,-3.2365e-05,0.332319,0.00228215,0.0257842,664,1359,-16.7791,-7.68042
-553,-335,-16.7957,8.24707,0.0029108,0.000159503,0.000957898,0.00321145,-0.000141147,0.304128,0.00218953,0.0276555,671,1359,-16.7956,-8.24704
-546,-335,-16.8668,8.80273,0.00305514,3.70911e-05,0.000976007,0.00334327,-0.000251033,0.287054,0.00231706,0.0255324,678,1359,-16.8668,-8.80276
-539,-335,-16.939,9.30615,0.0034198,-9.92355e-06,0.00110631,0.00374569,-0.000335813,0.286471,0.00261626,0.0212091,685,1359,-16.939,-9.30616
-532,-335,-16.9106,9.87024,0.00410621,2.3051e-05,0.00139854,0.0045393,-0.000410035,0.300304,0.00317172,0.0165958,692,1359,-16.9106,-9.8703
-525,-335,-16.8333,10.4518,0.00505712,2.28501e-05,0.00175184,0.00560673,-0.000526758,0.304007,0.00392521,0.0122743,699,1359,-16.8333,-10.4518
-518,-335,-16.8425,10.9596,0.00620261,0.000222242,0.0022074,0.00692912,-0.000504267,0.317958,0.00479634,0.0473529,706,1359,-16.8426,-10.9597
-511,-335,-16.8505,11.4529,0,0,0,0,0,0,0,-1,713,1359,-16.8505,-11.4529
-504,-335,-9.35767,5.99695,0,0,0,0,0,0,0,-1,720,1359,-9.35767,-5.99694
-497,-335,-8.75024,-0.650513,0,0,0,0,0,0,0,-1,727,1359,-8.75024,0.650521
-490,-335,-9.51971,0.417603,0,0,0,0,0,0,0,-1,734,1359,-9.51974,-0.41765
-483,-335,-10.2883,1.29224,0,0,0,0,0,0,0,-1,741,1359,-10.2883,-1.2922
-476,-335,-11.9938,-0.173462,0,0,0,0,0,0,0,-1,748,1359,-11.9938,0.173429
-469,-335,-12.8704,-0.204102,0,0,0,0,0,0,0,-1,755,1359,-12.8704,0.204117
-462,-335,-13.486,0.0218506,0,0,0,0,0,0,0,-1,762,1359,-13.4859,-0.0217908
-455,-335,-14.1504,0.549561,0,0,0,0,0,0,0,-1,769,1359,-14.1504,-0.549583
-448,-335,0,0,0,0,0,0,0,0,0,-1,776,1359,0,0
-441,-335,0,0,0,0,0,0,0,0,0,-1,783,1359,0,0
-434,-335,0,0,0,0,0,0,0,0,0,-1,790,1359,0,0
-427,-335,0,0,0,0,0,0,0,0,0,-1,797,1359,0,0
-420,-335,0,0,0,0,0,0,0,0,0,-1,804,1359,0,0
-413,-335,0,0,0,0,0,0,0,0,0,-1,811,1359,0,0
-406,-335,0,0,0,0,0,0,0,0,0,-1,818,1359,0,0
-399,-335,0,0,0,0,0,0,0,0,0,-1,825,1359,0,0
-392,-335,0,0,0,0,0,0,0,0,0,-1,832,1359,0,0
-385,-335,0,0,0,0,0,0,0,0,0,-1,839,1359,0,0
-378,-335,0,0,0,0,0,0,0,0,0,-1,846,1359,0,0
-371,-335,0,0,0,0,0,0,0,0,0,-1,853,1359,0,0
-364,-335,0,0,0,0,0,0,0,0,0,-1,860,1359,0,0
-357,-335,0,0,0,0,0,0,0,0,0,-1,867,1359,0,0
-350,-335,0,0,0,0,0,0,0,0,0,-1,874,1359,0,0
-343,-335,0,0,0,0,0,0,0,0,0,-1,881,1359,0,0
-336,-335,0,0,0,0,0,0,0,0,0,-1,888,1359,0,0
-329,-335,0,0,0,0,0,0,0,0,0,-1,895,1359,0,0
-322,-335,0,0,0,0,0,0,0,0,0,-1,902,1359,0,0
-315,-335,0,0,0,0,0,0,0,0,0,-1,909,1359,0,0
-308,-335,0,0,0,0,0,0,0,0,0,-1,916,1359,0,0
-301,-335,0,0,0,0,0,0,0,0,0,-1,923,1359,0,0
-294,-335,0,0,0,0,0,0,0,0,0,-1,930,1359,0,0
-287,-335,0,0,0,0,0,0,0,0,0,-1,937,1359,0,0
-280,-335,0,0,0,0,0,0,0,0,0,-1,944,1359,0,0
-273,-335,0,0,0,0,0,0,0,0,0,-1,951,1359,0,0
-266,-335,0,0,0,0,0,0,0,0,0,-1,958,1359,0,0
-259,-335,0,0,0,0,0,0,0,0,0,-1,965,1359,0,0
-252,-335,0,0,0,0,0,0,0,0,0,-1,972,1359,0,0
-245,-335,0,0,0,0,0,0,0,0,0,-1,979,1359,0,0
-238,-335,0,0,0,0,0,0,0,0,0,-1,986,1359,0,0
-231,-335,0,0,0,0,0,0,0,0,0,-1,993,1359,0,0
-224,-335,0,0,0,0,0,0,0,0,0,-1,1000,1359,0,0
-217,-335,0,0,0,0,0,0,0,0,0,-1,1007,1359,0,0
-210,-335,0,0,0,0,0,0,0,0,0,-1,1014,1359,0,0
-203,-335,0,0,0,0,0,0,0,0,0,-1,1021,1359,0,0
-196,-335,0,0,0,0,0,0,0,0,0,-1,1028,1359,0,0
-189,-335,0,0,0,0,0,0,0,0,0,-1,1035,1359,0,0
-182,-335,0,0,0,0,0,0,0,0,0,-1,1042,1359,0,0
-175,-335,0,0,0,0,0,0,0,0,0,-1,1049,1359,0,0
-168,-335,0,0,0,0,0,0,0,0,0,-1,1056,1359,0,0
-161,-335,0,0,0,0,0,0,0,0,0,-1,1063,1359,0,0
-154,-335,0,0,0,0,0,0,0,0,0,-1,1070,1359,0,0
-147,-335,0,0,0,0,0,0,0,0,0,-1,1077,1359,0,0
-140,-335,0,0,0,0,0,0,0,0,0,-1,1084,1359,0,0
-133,-335,0,0,0,0,0,0,0,0,0,-1,1091,1359,0,0
-126,-335,0,0,0,0,0,0,0,0,0,-1,1098,1359,0,0
-119,-335,0,0,0,0,0,0,0,0,0,-1,1105,1359,0,0
-112,-335,0,0,0,0,0,0,0,0,0,-1,1112,1359,0,0
-105,-335,0,0,0,0,0,0,0,0,0,-1,1119,1359,0,0
-98,-335,0,0,0,0,0,0,0,0,0,-1,1126,1359,0,0
-91,-335,0,0,0,0,0,0,0,0,0,-1,1133,1359,0,0
-84,-335,0,0,0,0,0,0,0,0,0,-1,1140,1359,0,0
-77,-335,0,0,0,0,0,0,0,0,0,-1,1147,1359,0,0
-70,-335,0,0,0,0,0,0,0,0,0,-1,1154,1359,0,0
-63,-335,0,0,0,0,0,0,0,0,0,-1,1161,1359,0,0
-56,-335,0,0,0,0,0,0,0,0,0,-1,1168,1359,0,0
-49,-335,0,0,0,0,0,0,0,0,0,-1,1175,1359,0,0
-42,-335,0,0,0,0,0,0,0,0,0,-1,1182,1359,0,0
-35,-335,0,0,0,0,0,0,0,0,0,-1,1189,1359,0,0
-28,-335,0,0,0,0,0,0,0,0,0,-1,1196,1359,0,0
-21,-335,0,0,0,0,0,0,0,0,0,-1,1203,1359,0,0
-14,-335,0,0,0,0,0,0,0,0,0,-1,1210,1359,0,0
-7,-335,0,0,0,0,0,0,0,0,0,-1,1217,1359,0,0
0,-335,0,0,0,0,0,0,0,0,0,-1,1224,1359,0,0
7,-335,0,0,0,0,0,0,0,0,0,-1,1231,1359,0,0
14,-335,0,0,0,0,0,0,0,0,0,-1,1238,1359,0,0
21,-335,0,0,0,0,0,0,0,0,0,-1,1245,1359,0,0
28,-335,0,0,0,0,0,0,0,0,0,-1,1252,1359,0,0
35,-335,0,0,0,0,0,0,0,0,0,-1,1259,1359,0,0
42,-335,0,0,0,0,0,0,0,0,0,-1,1266,1359,0,0
49,-335,0,0,0,0,0,0,0,0,0,-1,1273,1359,0,0
56,-335,0,0,0,0,0,0,0,0,0,-1,1280,1359,0,0
63,-335,0,0,0,0,0,0,0,0,0,-1,1287,1359,0,0
70,-335,0,0,0,0,0,0,0,0,0,-1,1294,1359,0,0
77,-335,0,0,0,0,0,0,0,0,0,-1,1301,1359,0,0
84,-335,0,0,0,0,0,0,0,0,0,-1,1308,1359,0,0
91,-335,0,0,0,0,0,0,0,0,0,-1,1315,1359,0,0
98,-335,0,0,0,0,0,0,0,0,0,-1,1322,1359,0,0
105,-335,0,0,0,0,0,0,0,0,0,-1,1329,1359,0,0
112,-335,0,0,0,0,0,0,0,0,0,-1,1336,1359,0,0
119,-335,0,0,0,0,0,0,0,0,0,-1,1343,1359,0,0
126,-335,0,0,0,0,0,0,0,0,0,-1,1350,1359,0,0
133,-335,0,0,0,0,0,0,0,0,0,-1,1357,1359,0,0
140,-335,0,0,0,0,0,0,0,0,0,-1,1364,1359,0,0
147,-335,0,0,0,0,0,0,0,0,0,-1,1371,1359,0,0
154,-335,0,0,0,0,0,0,0,0,0,-1,1378,1359,0,0
161,-335,0,0,0,0,0,0,0,0,0,-1,1385,1359,0,0
168,-335,0,0,0,0,0,0,0,0,0,-1,1392,1359,0,0
175,-335,0,0,0,0,0,0,0,0,0,-1,1399,1359,0,0
182,-335,0,0,0,0,0,0,0,0,0,-1,1406,1359,0,0
189,-335,0,0,0,0,0,0,0,0,0,-1,1413,1359,0,0
196,-335,0,0,0,0,0,0,0,0,0,-1,1420,1359,0,0
203,-335,0,0,0,0,0,0,0,0,0,-1,1427,1359,0,0
210,-335,0,0,0,0,0,0,0,0,0,-1,1434,1359,0,0
217,-335,0,0,0,0,0,0,0,0,0,-1,1441,1359,0,0
224,-335,0,0,0,0,0,0,0,0,0,-1,1448,1359,0,0
231,-335,0,0,0,0,0,0,0,0,0,-1,1455,1359,0,0
238,-335,0,0,0,0,0,0,0,0,0,-1,1462,1359,0,0
245,-335,0,0,0,0,0,0,0,0,0,-1,1469,1359,0,0
252,-335,0,0,0,0,0,0,0,0,0,-1,1476,1359,0,0
259,-335,0,0,0,0,0,0,0,0,0,-1,1483,1359,0,0
266,-335,0,0,0,0,0,0,0,0,0,-1,1490,1359,0,0
273,-335,0,0,0,0,0,0,0,0,0,-1,1497,1359,0,0
280,-335,0,0,0,0,0,0,0,0,0,-1,1504,1359,0,0
287,-335,0,0,0,0,0,0,0,0,0,-1,1511,1359,0,0
294,-335,0,0,0,0,0,0,0,0,0,-1,1518,1359,0,0
301,-335,0,0,0,0,0,0,0,0,0,-1,1525,1359,0,0
308,-335,0,0,0,0,0,0,0,0,0,-1,1532,1359,0,0
315,-335,0,0,0,0,0,0,0,0,0,-1,1539,1359,0,0
322,-335,0,0,0,0,0,0,0,0,0,-1,1546,1359,0,0
329,-335,0,0,0,0,0,0,0,0,0,-1,1553,1359,0,0
336,-335,0,0,0,0,0,0,0,0,0,-1,1560,1359,0,0
343,-335,0,0,0,0,0,0,0,0,0,-1,1567,1359,0,0
350,-335,0,0,0,0,0,0,0,0,0,-1,1574,1359,0,0
357,-335,0,0,0,0,0,0,0,0,0,-1,1581,1359,0,0
364,-335,0,0,0,0,0,0,0,0,0,-1,1588,1359,0,0
371,-335,0,0,0,0,0,0,0,0,0,-1,1595,1359,0,0
378,-335,0,0,0,0,0,0,0,0,0,-1,1602,1359,0,0
385,-335,0,0,0,0,0,0,0,0,0,-1,1609,1359,0,0
392,-335,0,0,0,0,0,0,0,0,0,-1,1616,1359,0,0
399,-335,0,0,0,0,0,0,0,0,0,-1,1623,1359,0,0
406,-335,0,0,0,0,0,0,0,0,0,-1,1630,1359,0,0
413,-335,0,0,0,0,0,0,0,0,0,-1,1637,1359,0,0
420,-335,0,0,0,0,0,0,0,0,0,-1,1644,1359,0,0
427,-335,0,0,0,0,0,0,0,0,0,-1,1651,1359,0,0
434,-335,0,0,0,0,0,0,0,0,0,-1,1658,1359,0,0
441,-335,0,0,0,0,0,0,0,0,0,-1,1665,1359,0,0
448,-335,0,0,0,0,0,0,0,0,0,-1,1672,1359,0,0
455,-335,0,0,0,0,0,0,0,0,0,-1,1679,1359,0,0
462,-335,0,0,0,0,0,0,0,0,0,-1,1686,1359,0,0
469,-335,0,0,0,0,0,0,0,0,0,-1,1693,1359,0,0
476,-335,0,0,0,0,0,0,0,0,0,-1,1700,1359,0,0
483,-335,0,0,0,0,0,0,0,0,0,-1,1707,1359,0,0
490,-335,0,0,0,0,0,0,0,0,0,-1,1714,1359,0,0
497,-335,0,0,0,0,0,0,0,0,0,-1,1721,1359,0,0
504,-335,0,0,0,0,0,0,0,0,0,-1,1728,1359,0,0
511,-335,0,0,0,0,0,0,0,0,0,-1,1735,1359,0,0
518,-335,0,0,0,0,0,0,0,0,0,-1,1742,1359,0,0
525,-335,0,0,0,0,0,0,0,0,0,-1,1749,1359,0,0
532,-335,0,0,0,0,0,0,0,0,0,-1,1756,1359,0,0
539,-335,0,0,0,0,0,0,0,0,0,-1,1763,1359,0,0
546,-335,0,0,0,0,0,0,0,0,0,-1,1770,1359,0,0
553,-335,0,0,0,0,0,0,0,0,0,-1,1777,1359,0,0
560,-335,0,0,0,0,0,0,0,0,0,-1,1784,1359,0,0
567,-335,0,0,0,0,0,0,0,0,0,-1,1791,1359,0,0
574,-335,44.5405,5.74219,0,0,0,0,0,0,0,-1,1798,1359,44.5406,-5.74224
581,-335,44.1571,6.41992,0,0,0,0,0,0,0,-1,1805,1359,44.1571,-6.41989
588,-335,50.7247,4.16223,0,0,0,0,0,0,0,-1,1812,1359,50.7247,-4.16227
595,-335,49.984,3.76465,0,0,0,0,0,0,0,-1,1819,1359,49.984,-3.76467
602,-335,36.5643,0.0861816,0,0,0,0,0,0,0,-1,1826,1359,36.5643,-0.0862283
609,-335,36.2933,0.993896,0,0,0,0,0,0,0,-1,1833,1359,36.2934,-0.993911
616,-335,34.6969,4.82666,0,0,0,0,0,0,0,-1,1840,1359,34.6969,-4.82667
623,-335,26.6051,6.54333,0,0,0,0,0,0,0,-1,1847,1359,26.6051,-6.54339
630,-335,19.1707,1.00952,0,0,0,0,0,0,0,-1,1854,1359,19.1707,-1.00953
637,-335,18.2009,6.65454,0,0,0,0,0,0,0,-1,1861,1359,18.2009,-6.6546
644,-335,28.1042,12.067,0,0,0,0,0,0,0,-1,1868,1359,28.1042,-12.067
651,-335,30.8209,12.9786,0,0,0,0,0,0,0,-1,1875,1359,30.8209,-12.9786
658,-335,30.9138,12.3695,-0.00104338,0.00244205,-0.00094555,0.00268204,-0.00128337,-1.32223,0.00233642,0.0271672,1882,1359,30.9138,-12.3696
665,-335,30.9454,11.8107,-0.000455598,0.00104768,-0.000595619,0.00125506,-0.000662981,-1.23574,0.00112483,0.0146922,1889,1359,30.9455,-11.8107
672,-335,30.9465,11.2806,0.000174773,0.000176065,-0.000412745,0.000588164,-0.000237327,-0.786181,0.000490736,0.0172261,1896,1359,30.9465,-11.2807
679,-335,30.9431,10.8265,0.000837185,-0.000207103,-0.000295721,0.000915112,-0.00028503,-0.257658,0.000724034,0.0156499,1903,1359,30.9431,-10.8266
686,-335,30.9375,10.3318,0.001538,-0.000225553,-0.000260659,0.00157572,-0.000263272,-0.14371,0.00114834,0.0132383,1910,1359,30.9375,-10.3318
693,-335,30.8933,9.82935,0.0022234,-0.000195065,-0.000274803,0.00225423,-0.000225897,-0.111729,0.0015835,0.0107106,1917,1359,30.8934,-9.8294
700,-335,30.8552,9.37219,0.00291125,-0.000116726,-0.000316461,0.00294397,-0.000149446,-0.103029,0.00201431,0.0119407,1924,1359,30.8552,-9.37222
707,-335,30.8524,8.89771,0.00349508,4.36916e-05,-0.000407026,0.00354244,-3.65963e-06,-0.115814,0.00236284,0.015463,1931,1359,30.8525,-8.89766
714,-335,30.8837,8.33264,0.00404493,0.000181028,-0.000475033,0.00410248,0.000123485,-0.12055,0.00269477,0.0337134,1938,1359,30.8836,-8.33262
721,-335,30.8351,7.68884,0,0,0,0,0,0,0,-1,1945,1359,30.8351,-7.68884
728,-335,20.8126,5.21167,0,0,0,0,0,0,0,-1,1952,1359,20.8127,-5.21172
735,-335,20.2725,5.34729,0,0,0,0,0,0,0,-1,1959,1359,20.2724,-5.34734
742,-335,19.8624,4.72229,0,0,0,0,0,0,0,-1,1966,1359,19.8624,-4.72225
749,-335,20.5887,6.05322,0,0,0,0,0,0,0,-1,1973,1359,20.5887,-6.05322
756,-335,20.7832,6.00452,0,0,0,0,0,0,0,-1,1980,1359,20.7832,-6.00447
763,-335,0,0,0,0,0,0,0,0,0,-1,1987,1359,0,0
770,-335,0,0,0,0,0,0,0,0,0,-1,1994,1359,0,0
777,-335,0,0,0,0,0,0,0,0,0,-1,2001,1359,0,0
784,-335,0,0,0,0,0,0,0,0,0,-1,2008,1359,0,0
791,-335,0,0,0,0,0,0,0,0,0,-1,2015,1359,0,0
798,-335,0,0,0,0,0,0,0,0,0,-1,2022,1359,0,0
805,-335,0,0,0,0,0,0,0,0,0,-1,2029,1359,0,0
812,-335,0,0,0,0,0,0,0,0,0,-1,2036,1359,0,0
-700,-342,0,0,0,0,0,0,0,0,0,-1,524,1366,0,0
-693,-342,0,0,0,0,0,0,0,0,0,-1,531,1366,0,0
-686,-342,0,0,0,0,0,0,0,0,0,-1,538,1366,0,0
-679,-342,0,0,0,0,0,0,0,0,0,-1,545,1366,0,0
-672,-342,0,0,0,0,0,0,0,0,0,-1,552,1366,0,0
-665,-342,0,0,0,0,0,0,0,0,0,-1,559,1366,0,0
-658,-342,0,0,0,0,0,0,0,0,0,-1,566,1366,0,0
-651,-342,0,0,0,0,0,0,0,0,0,-1,573,1366,0,0
-644,-342,0,0,0,0,0,0,0,0,0,-1,580,1366,0,0
-637,-342,-8.67786,-4.58557,0,0,0,0,0,0,0,-1,587,1366,-8.67788,4.5856
-630,-342,-8.60132,2.71777,0,0,0,0,0,0,0,-1,594,1366,-8.60135,-2.71779
-623,-342,-8.41168,0.662476,0,0,0,0,0,0,0,-1,601,1366,-8.41168,-0.662442
-616,-342,-6.625,-1.28015,0,0,0,0,0,0,0,-1,608,1366,-6.62499,1.28011
-609,-342,-7.83154,0.674561,0,0,0,0,0,0,0,-1,615,1366,-7.83155,-0.674598
-602,-342,-9.65765,2.25195,0,0,0,0,0,0,0,-1,622,1366,-9.65767,-2.25192
-595,-342,-9.47687,3.00671,0,0,0,0,0,0,0,-1,629,1366,-9.47686,-3.00668
-588,-342,-9.78467,3.57727,0,0,0,0,0,0,0,-1,636,1366,-9.78468,-3.57723
-581,-342,-16.3778,6.1825,0,0,0,0,0,0,0,-1,643,1366,-16.3778,-6.18248
-574,-342,-16.2791,6.68164,0.00471706,0.000512352,0.00157478,0.00524145,-1.20446e-05,0.321448,0.00349832,0.0152527,650,1366,-16.2791,-6.68169
-567,-342,-16.2162,7.21948,0.00380825,0.000287108,0.00118684,0.00417093,-7.55717e-05,0.296573,0.00280615,0.0187684,657,1366,-16.2162,-7.21951
-560,-342,-16.2773,7.68835,0.00327904,0.000129733,0.000973969,0.00355591,-0.00014714,0.276966,0.00242115,0.0274244,664,1366,-16.2773,-7.68833
-553,-342,-16.3445,8.20325,0.00302556,5.0339e-05,0.000905276,0.00327936,-0.000203461,0.273339,0.00225712,0.0295357,671,1366,-16.3445,-8.20319
-546,-342,-16.4084,8.76611,0.00303309,2.10209e-05,0.000951736,0.00330861,-0.000254501,0.28179,0.00229528,0.0287926,678,1366,-16.4084,-8.7661
-539,-342,-16.38,9.34192,0.0032389,4.62288e-05,0.00109393,0.00357776,-0.000292631,0.300389,0.00248846,0.0246232,685,1366,-16.38,-9.34193
-532,-342,-16.3424,9.92346,0.003706,0.000125944,0.00136148,0.00416493,-0.000332987,0.325122,0.00289401,0.0191576,692,1366,-16.3424,-9.92345
-525,-342,-16.3002,10.4685,0.00440661,0.00021283,0.00170801,0.0050142,-0.000394767,0.341774,0.00348186,0.0126555,699,1366,-16.3002,-10.4685
-518,-342,-16.2526,11.0337,0.00526408,0.000467641,0.0021535,0.00608905,-0.000357338,0.365843,0.00418357,0.0306163,706,1366,-16.2526,-11.0337
-511,-342,-16.2605,11.5972,0,0,0,0,0,0,0,-1,713,1366,-16.2605,-11.5972
-504,-342,-8.95709,6.5719,0,0,0,0,0,0,0,-1,720,1366,-8.95707,-6.57192
-497,-342,-8.26587,-0.943604,0,0,0,0,0,0,0,-1,727,1366,-8.26586,0.943543
-490,-342,-9.07153,-0.0227051,0,0,0,0,0,0,0,-1,734,1366,-9.07155,0.0227087
-483,-342,-9.87726,0.898071,0,0,0,0,0,0,0,-1,741,1366,-9.87724,-0.898125
-476,-342,-11.6371,-0.736328,0,0,0,0,0,0,0,-1,748,1366,-11.6371,0.736281
-469,-342,-12.6245,-0.987549,0,0,0,0,0,0,0,-1,755,1366,-12.6245,0.987553
-462,-342,-13.0912,-0.533203,0,0,0,0,0,0,0,-1,762,1366,-13.0912,0.533224
-455,-342,-13.7612,0.122925,0,0,0,0,0,0,0,-1,769,1366,-13.7612,-0.122896
-448,-342,-14.5278,0.826904,0,0,0,0,0,0,0,-1,776,1366,-14.5277,-0.826861
-441,-342,0,0,0,0,0,0,0,0,0,-1,783,1366,0,0
-434,-342,0,0,0,0,0,0,0,0,0,-1,790,1366,0,0
-427,-342,0,0,0,0,0,0,0,0,0,-1,797,1366,0,0
-420,-342,0,0,0,0,0,0,0,0,0,-1,804,1366,0,0
-413,-342,0,0,0,0,0,0,0,0,0,-1,811,1366,0,0
-406,-342,0,0,0,0,0,0,0,0,0,-1,818,1366,0,0
-399,-342,0,0,0,0,0,0,0,0,0,-1,825,1366,0,0
-392,-342,0,0,0,0,0,0,0,0,0,-1,832,1366,0,0
-385,-342,0,0,0,0,0,0,0,0,0,-1,839,1366,0,0
-378,-342,0,0,0,0,0,0,0,0,0,-1,846,1366,0,0
-371,-342,0,0,0,0,0,0,0,0,0,-1,853,1366,0,0
-364,-342,0,0,0,0,0,0,0,0,0,-1,860,1366,0,0
-357,-342,0,0,0,0,0,0,0,0,0,-1,867,1366,0,0
-350,-342,0,0,0,0,0,0,0,0,0,-1,874,1366,0,0
-343,-342,0,0,0,0,0,0,0,0,0,-1,881,1366,0,0
-336,-342,0,0,0,0,0,0,0,0,0,-1,888,1366,0,0
-329,-342,0,0,0,0,0,0,0,0,0,-1,895,1366,0,0
-322,-342,0,0,0,0,0,0,0,0,0,-1,902,1366,0,0
-315,-342,0,0,0,0,0,0,0,0,0,-1,909,1366,0,0
-308,-342,0,0,0,0,0,0,0,0,0,-1,916,1366,0,0
-301,-342,0,0,0,0,0,0,0,0,0,-1,923,1366,0,0
-294,-342,0,0,0,0,0,0,0,0,0,-1,930,1366,0,0
-287,-342,0,0,0,0,0,0,0,0,0,-1,937,1366,0,0
-280,-342,0,0,0,0,0,0,0,0,0,-1,944,1366,0,0
-273,-342,0,0,0,0,0,0,0,0,0,-1,951,1366,0,0
-266,-342,0,0,0,0,0,0,0,0,0,-1,958,1366,0,0
-259,-342,0,0,0,0,0,0,0,0,0,-1,965,1366,0,0
-252,-342,0,0,0,0,0,0,0,0,0,-1,972,1366,0,0
-245,-342,0,0,0,0,0,0,0,0,0,-1,979,1366,0,0
-238,-342,0,0,0,0,0,0,0,0,0,-1,986,1366,0,0
-231,-342,0,0,0,0,0,0,0,0,0,-1,993,1366,0,0
-224,-342,0,0,0,0,0,0,0,0,0,-1,1000,1366,0,0
-217,-342,0,0,0,0,0,0,0,0,0,-1,1007,1366,0,0
-210,-342,0,0,0,0,0,0,0,0,0,-1,1014,1366,0,0
-203,-342,0,0,0,0,0,0,0,0,0,-1,1021,1366,0,0
-196,-342,0,0,0,0,0,0,0,0,0,-1,1028,1366,0,0
-189,-342,0,0,0,0,0,0,0,0,0,-1,1035,1366,0,0
-182,-342,0,0,0,0,0,0,0,0,0,-1,1042,1366,0,0
-175,-342,0,0,0,0,0,0,0,0,0,-1,1049,1366,0,0
-168,-342,0,0,0,0,0,0,0,0,0,-1,1056,1366,0,0
-161,-342,0,0,0,0,0,0,0,0,0,-1,1063,1366,0,0
-154,-342,0,0,0,0,0,0,0,0,0,-1,1070,1366,0,0
-147,-342,0,0,0,0,0,0,0,0,0,-1,1077,1366,0,0
-140,-342,0,0,0,0,0,0,0,0,0,-1,1084,1366,0,0
-133,-342,0,0,0,0,0,0,0,0,0,-1,1091,1366,0,0
-126,-342,0,0,0,0,0,0,0,0,0,-1,1098,1366,0,0
-119,-342,0,0,0,0,0,0,0,0,0,-1,1105,1366,0,0
-112,-342,0,0,0,0,0,0,0,0,0,-1,1112,1366,0,0
-105,-342,0,0,0,0,0,0,0,0,0,-1,1119,1366,0,0
-98,-342,0,0,0,0,0,0,0,0,0,-1,1126,1366,0,0
-91,-342,0,0,0,0,0,0,0,0,0,-1,1133,1366,0,0
-84,-342,0,0,0,0,0,0,0,0,0,-1,1140,1366,0,0
-77,-342,0,0,0,0,0,0,0,0,0,-1,1147,1366,0,0
-70,-342,0,0,0,0,0,0,0,0,0,-1,1154,1366,0,0
-63,-342,0,0,0,0,0,0,0,0,0,-1,1161,1366,0,0
-56,-342,0,0,0,0,0,0,0,0,0,-1,1168,1366,0,0
-49,-342,0,0,0,0,0,0,0,0,0,-1,1175,1366,0,0
-42,-342,0,0,0,0,0,0,0,0,0,-1,1182,1366,0,0
-35,-342,0,0,0,0,0,0,0,0,0,-1,1189,1366,0,0
-28,-342,0,0,0,0,0,0,0,0,0,-1,1196,1366,0,0
-21,-342,0,0,0,0,0,0,0,0,0,-1,1203,1366,0,0
-14,-342,0,0,0,0,0,0,0,0,0,-1,1210,1366,0,0
-7,-342,0,0,0,0,0,0,0,0,0,-1,1217,1366,0,0
0,-342,0,0,0,0,0,0,0,0,0,-1,1224,1366,0,0
7,-342,0,0,0,0,0,0,0,0,0,-1,1231,1366,0,0
14,-342,0,0,0,0,0,0,0,0,0,-1,1238,1366,0,0
21,-342,0,0,0,0,0,0,0,0,0,-1,1245,1366,0,0
28,-342,0,0,0,0,0,0,0,0,0,-1,1252,1366,0,0
35,-342,0,0,0,0,0,0,0,0,0,-1,1259,1366,0,0
42,-342,0,0,0,0,0,0,0,0,0,-1,1266,1366,0,0
49,-342,0,0,0,0,0,0,0,0,0,-1,1273,1366,0,0
56,-342,0,0,0,0,0,0,0,0,0,-1,1280,1366,0,0
63,-342,0,0,0,0,0,0,0,0,0,-1,1287,1366,0,0
70,-342,0,0,0,0,0,0,0,0,0,-1,1294,1366,0,0
77,-342,0,0,0,0,0,0,0,0,0,-1,1301,1366,0,0
84,-342,0,0,0,0,0,0,0,0,0,-1,1308,1366,0,0
91,-342,0,0,0,0,0,0,0,0,0,-1,1315,1366,0,0
98,-342,0,0,0,0,0,0,0,0,0,-1,1322,1366,0,0
105,-342,0,0,0,0,0,0,0,0,0,-1,1329,1366,0,0
112,-342,0,0,0,0,0,0,0,0,0,-1,1336,1366,0,0
119,-342,0,0,0,0,0,0,0,0,0,-1,1343,1366,0,0
126,-342,0,0,0,0,0,0,0,0,0,-1,1350,1366,0,0
133,-342,0,0,0,0,0,0,0,0,0,-1,1357,1366,0,0
140,-342,0,0,0,0,0,0,0,0,0,-1,1364,1366,0,0
147,-342,0,0,0,0,0,0,0,0,0,-1,1371,1366,0,0
154,-342,0,0,0,0,0,0,0,0,0,-1,1378,1366,0,0
161,-342,0,0,0,0,0,0,0,0,0,-1,1385,1366,0,0
168,-342,0,0,0,0,0,0,0,0,0,-1,1392,1366,0,0
175,-342,0,0,0,0,0,0,0,0,0,-1,1399,1366,0,0
182,-342,0,0,0,0,0,0,0,0,0,-1,1406,1366,0,0
189,-342,0,0,0,0,0,0,0,0,0,-1,1413,1366,0,0
196,-342,0,0,0,0,0,0,0,0,0,-1,1420,1366,0,0
203,-342,0,0,0,0,0,0,0,0,0,-1,1427,1366,0,0
210,-342,0,0,0,0,0,0,0,0,0,-1,1434,1366,0,0
217,-342,0,0,0,0,0,0,0,0,0,-1,1441,1366,0,0
224,-342,0,0,0,0,0,0,0,0,0,-1,1448,1366,0,0
231,-342,0,0,0,0,0,0,0,0,0,-1,1455,1366,0,0
238,-342,0,0,0,0,0,0,0,0,0,-1,1462,1366,0,0
245,-342,0,0,0,0,0,0,0,0,0,-1,1469,1366,0,0
252,-342,0,0,0,0,0,0,0,0,0,-1,1476,1366,0,0
259,-342,0,0,0,0,0,0,0,0,0,-1,1483,1366,0,0
266,-342,0,0,0,0,0,0,0,0,0,-1,1490,1366,0,0
273,-342,0,0,0,0,0,0,0,0,0,-1,1497,1366,0,0
280,-342,0,0,0,0,0,0,0,0,0,-1,1504,1366,0,0
287,-342,0,0,0,0,0,0,0,0,0,-1,1511,1366,0,0
294,-342,0,0,0,0,0,0,0,0,0,-1,1518,1366,0,0
301,-342,0,0,0,0,0,0,0,0,0,-1,1525,1366,0,0
308,-342,0,0,0,0,0,0,0,0,0,-1,1532,1366,0,0
315,-342,0,0,0,0,0,0,0,0,0,-1,1539,1366,0,0
322,-342,0,0,0,0,0,0,0,0,0,-1,1546,1366,0,0
329,-342,0,0,0,0,0,0,0,0,0,-1,1553,1366,0,0
336,-342,0,0,0,0,0,0,0,0,0,-1,1560,1366,0,0
343,-342,0,0,0,0,0,0,0,0,0,-1,1567,1366,0,0
350,-342,0,0,0,0,0,0,0,0,0,-1,1574,1366,0,0
357,-342,0,0,0,0,0,0,0,0,0,-1,1581,1366,0,0
364,-342,0,0,0,0,0,0,0,0,0,-1,1588,1366,0,0
371,-342,0,0,0,0,0,0,0,0,0,-1,1595,1366,0,0
378,-342,0,0,0,0,0,0,0,0,0,-1,1602,1366,0,0
385,-342,0,0,0,0,0,0,0,0,0,-1,1609,1366,0,0
392,-342,0,0,0,0,0,0,0,0,0,-1,1616,1366,0,0
399,-342,0,0,0,0,0,0,0,0,0,-1,1623,1366,0,0
406,-342,0,0,0,0,0,0,0,0,0,-1,1630,1366,0,0
413,-342,0,0,0,0,0,0,0,0,0,-1,1637,1366,0,0
420,-342,0,0,0,0,0,0,0,0,0,-1,1644,1366,0,0
427,-342,0,0,0,0,0,0,0,0,0,-1,1651,1366,0,0
434,-342,0,0,0,0,0,0,0,0,0,-1,1658,1366,0,0
441,-342,0,0,0,0,0,0,0,0,0,-1,1665,1366,0,0
448,-342,0,0,0,0,0,0,0,0,0,-1,1672,1366,0,0
455,-342,0,0,0,0,0,0,0,0,0,-1,1679,1366,0,0
462,-342,0,0,0,0,0,0,0,0,0,-1,1686,1366,0,0
469,-342,0,0,0,0,0,0,0,0,0,-1,1693,1366,0,0
476,-342,0,0,0,0,0,0,0,0,0,-1,1700,1366,0,0
483,-342,0,0,0,0,0,0,0,0,0,-1,1707,1366,0,0
490,-342,0,0,0,0,0,0,0,0,0,-1,1714,1366,0,0
497,-342,0,0,0,0,0,0,0,0,0,-1,1721,1366,0,0
504,-342,0,0,0,0,0,0,0,0,0,-1,1728,1366,0,0
511,-342,0,0,0,0,0,0,0,0,0,-1,1735,1366,0,0
518,-342,0,0,0,0,0,0,0,0,0,-1,1742,1366,0,0
525,-342,0,0,0,0,0,0,0,0,0,-1,1749,1366,0,0
532,-342,0,0,0,0,0,0,0,0,0,-1,1756,1366,0,0
539,-342,0,0,0,0,0,0,0,0,0,-1,1763,1366,0,0
546,-342,0,0,0,0,0,0,0,0,0,-1,1770,1366,0,0
553,-342,0,0,0,0,0,0,0,0,0,-1,1777,1366,0,0
560,-342,0,0,0,0,0,0,0,0,0,-1,1784,1366,0,0
567,-342,42.6652,5.53748,0,0,0,0,0,0,0,-1,1791,1366,42.6652,-5.53752
574,-342,43.0466,5.95728,0,0,0,0,0,0,0,-1,1798,1366,43.0466,-5.9573
581,-342,43.4904,6.59937,0,0,0,0,0,0,0,-1,1805,1366,43.4903,-6.59938
588,-342,43.9108,7.22559,0,0,0,0,0,0,0,-1,1812,1366,43.9107,-7.22554
595,-342,35.7993,0.709961,0,0,0,0,0,0,0,-1,1819,1366,35.7993,-0.709913
602,-342,36.3618,3.28723,0,0,0,0,0,0,0,-1,1826,1366,36.3619,-3.28719
609,-342,35.3777,4.14978,0,0,0,0,0,0,0,-1,1833,1366,35.3777,-4.14976
616,-342,34.199,5.8158,0,0,0,0,0,0,0,-1,1840,1366,34.199,-5.81579
623,-342,26.0299,6.86865,0,0,0,0,0,0,0,-1,1847,1366,26.0299,-6.86863
630,-342,17.3431,0.773071,0,0,0,0,0,0,0,-1,1854,1366,17.3432,-0.773095
637,-342,16.196,6.76172,0,0,0,0,0,0,0,-1,1861,1366,16.1961,-6.76174
644,-342,30.3168,13.3419,0,0,0,0,0,0,0,-1,1868,1366,30.3168,-13.3419
651,-342,30.4825,12.8882,-0.00176727,0.00109686,-0.00143517,0.00169224,-0.00236265,-1.17755,0.00235173,0.04699,1875,1366,30.4825,-12.8882
658,-342,30.4448,12.3256,-0.0011606,0.000621777,-0.000853688,0.000964688,-0.00150351,-1.18884,0.00143629,0.0210479,1882,1366,30.4449,-12.3256
665,-342,30.4446,11.8147,-0.00039795,0.000192253,-0.000535704,0.000508759,-0.000714456,-1.03715,0.000709544,0.0169302,1889,1366,30.4445,-11.8147
672,-342,30.4434,11.3414,0.000390891,-5.5089e-05,-0.000354835,0.000586986,-0.000251185,-0.504866,0.000496695,0.0136805,1896,1366,30.4433,-11.3414
679,-342,30.4297,10.8705,0.0011926,-0.000234821,-0.000251387,0.00123558,-0.0002778,-0.169328,0.000930252,0.0143478,1903,1366,30.4297,-10.8704
686,-342,30.4572,10.3959,0.00203369,-0.000320847,-0.000233728,0.00205667,-0.000343824,-0.0979927,0.00149892,0.0127174,1910,1366,30.4572,-10.3959
693,-342,30.4135,9.89246,0.00288537,-0.000358423,-0.000263857,0.00290669,-0.000379746,-0.0806357,0.00207598,0.0127526,1917,1366,30.4134,-9.89242
700,-342,30.3711,9.41406,0.00376179,-0.000327409,-0.000348303,0.00379124,-0.000356864,-0.0843665,0.00265446,0.0148649,1924,1366,30.3711,-9.41405
707,-342,30.3699,8.88721,0.00452062,-0.000164947,-0.000529709,0.00457976,-0.000224085,-0.111182,0.00313054,0.0146497,1931,1366,30.3698,-8.88715
714,-342,30.4182,8.35962,0,0,0,0,0,0,0,-1,1938,1366,30.4182,-8.35966
721,-342,22.4666,6.08679,0,0,0,0,0,0,0,-1,1945,1366,22.4666,-6.08678
728,-342,19.8912,5.26636,0,0,0,0,0,0,0,-1,1952,1366,19.8913,-5.26636
735,-342,19.481,4.41968,0,0,0,0,0,0,0,-1,1959,1366,19.4809,-4.41962
742,-342,19.309,2.66943,0,0,0,0,0,0,0,-1,1966,1366,19.3089,-2.66948
749,-342,21.0934,6.47729,0,0,0,0,0,0,0,-1,1973,1366,21.0934,-6.4773
756,-342,0,0,0,0,0,0,0,0,0,-1,1980,1366,0,0
763,-342,0,0,0,0,0,0,0,0,0,-1,1987,1366,0,0
770,-342,0,0,0,0,0,0,0,0,0,-1,1994,1366,0,0
777,-342,0,0,0,0,0,0,0,0,0,-1,2001,1366,0,0
784,-342,0,0,0,0,0,0,0,0,0,-1,2008,1366,0,0
791,-342,0,0,0,0,0,0,0,0,0,-1,2015,1366,0,0
798,-342,0,0,0,0,0,0,0,0,0,-1,2022,1366,0,0
805,-342,0,0,0,0,0,0,0,0,0,-1,2029,1366,0,0
812,-342,0,0,0,0,0,0,0,0,0,-1,2036,1366,0,0
-700,-349,0,0,0,0,0,0,0,0,0,-1,524,1373,0,0
-693,-349,0,0,0,0,0,0,0,0,0,-1,531,1373,0,0
-686,-349,0,0,0,0,0,0,0,0,0,-1,538,1373,0,0
-679,-349,0,0,0,0,0,0,0,0,0,-1,545,1373,0,0
-672,-349,0,0,0,0,0,0,0,0,0,-1,552,1373,0,0
-665,-349,0,0,0,0,0,0,0,0,0,-1,559,1373,0,0
-658,-349,0,0,0,0,0,0,0,0,0,-1,566,1373,0,0
-651,-349,0,0,0,0,0,0,0,0,0,-1,573,1373,0,0
-644,-349,0,0,0,0,0,0,0,0,0,-1,580,1373,0,0
-637,-349,0,0,0,0,0,0,0,0,0,-1,587,1373,0,0
-630,-349,-7.64117,-5.06177,0,0,0,0,0,0,0,-1,594,1373,-7.64118,5.0618
-623,-349,-8.63507,0.51123,0,0,0,0,0,0,0,-1,601,1373,-8.63505,-0.511275
-616,-349,-5.2066,-0.188232,0,0,0,0,0,0,0,-1,608,1373,-5.20659,0.188211
-609,-349,-7.12073,1.37048,0,0,0,0,0,0,0,-1,615,1373,-7.12072,-1.37044
-602,-349,-9.00623,3.39587,0,0,0,0,0,0,0,-1,622,1373,-9.0062,-3.39591
-595,-349,-9.50568,2.96912,0,0,0,0,0,0,0,-1,629,1373,-9.50569,-2.96906
-588,-349,-8.60046,3.56042,0,0,0,0,0,0,0,-1,636,1373,-8.60046,-3.56047
-581,-349,-15.6691,6.12073,0,0,0,0,0,0,0,-1,643,1373,-15.6691,-6.12068
-574,-349,-15.6922,6.64954,0.00556723,-4.04317e-05,0.0013692,0.00588369,-0.000356887,0.227135,0.00404667,0.0321547,650,1373,-15.6922,-6.64959
-567,-349,-15.7582,7.28699,0.00440227,-9.58755e-05,0.00103764,0.00463009,-0.000323702,0.216132,0.00320009,0.0196655,657,1373,-15.7582,-7.28693
-560,-349,-15.787,7.79529,0.00369037,-0.000140226,0.000856032,0.00387297,-0.000322822,0.210155,0.00269604,0.0238533,664,1373,-15.7871,-7.79533
-553,-349,-15.809,8.27271,0.00327058,-0.000112667,0.000813388,0.00345597,-0.00029806,0.224099,0.00240949,0.0286833,671,1373,-15.809,-8.27275
-546,-349,-15.8256,8.82178,0.00309262,-4.15508e-05,0.000871912,0.00331885,-0.000267783,0.253868,0.00230701,0.0295139,678,1373,-15.8256,-8.82182
-539,-349,-15.813,9.40771,0.00311198,5.52895e-05,0.00100803,0.00341447,-0.000247204,0.291533,0.00236303,0.0235833,685,1373,-15.813,-9.40775
-532,-349,-15.8003,9.9364,0.00335017,0.000180379,0.00123288,0.00377323,-0.000242679,0.330557,0.00260016,0.0169103,692,1373,-15.8003,-9.93638
-525,-349,-15.7774,10.4749,0.00379053,0.000333078,0.00154355,0.00437935,-0.000255748,0.364435,0.00300844,0.0128599,699,1373,-15.7774,-10.4749
-518,-349,-15.7818,11.0535,0.00435834,0.000605315,0.00193926,0.00518035,-0.000216693,0.40092,0.00352802,0.0200222,706,1373,-15.7818,-11.0535
-511,-349,-15.7639,11.6512,0,0,0,0,0,0,0,-1,713,1373,-15.7639,-11.6512
-504,-349,-9.60516,7.88831,0,0,0,0,0,0,0,-1,720,1373,-9.60519,-7.88825
-497,-349,-7.9339,5.58789,0,0,0,0,0,0,0,-1,727,1373,-7.93388,-5.58785
-490,-349,-8.73969,-0.503784,0,0,0,0,0,0,0,-1,734,1373,-8.73966,0.503752
-483,-349,-5.66974,3.7395,0,0,0,0,0,0,0,-1,741,1373,-5.66975,-3.73949
-476,-349,-10.8496,1.15759,0,0,0,0,0,0,0,-1,748,1373,-10.8496,-1.15756
-469,-349,-12.3314,-1.74878,0,0,0,0,0,0,0,-1,755,1373,-12.3314,1.74882
-462,-349,-12.6559,-0.995361,0,0,0,0,0,0,0,-1,762,1373,-12.656,0.995351
-455,-349,-13.2897,-0.234253,0,0,0,0,0,0,0,-1,769,1373,-13.2897,0.234261
-448,-349,-14.045,0.712891,0,0,0,0,0,0,0,-1,776,1373,-14.045,-0.712838
-441,-349,0,0,0,0,0,0,0,0,0,-1,783,1373,0,0
-434,-349,0,0,0,0,0,0,0,0,0,-1,790,1373,0,0
-427,-349,0,0,0,0,0,0,0,0,0,-1,797,1373,0,0
-420,-349,0,0,0,0,0,0,0,0,0,-1,804,1373,0,0
-413,-349,0,0,0,0,0,0,0,0,0,-1,811,1373,0,0
-406,-349,0,0,0,0,0,0,0,0,0,-1,818,1373,0,0
-399,-349,0,0,0,0,0,0,0,0,0,-1,825,1373,0,0
-392,-349,0,0,0,0,0,0,0,0,0,-1,832,1373,0,0
-385,-349,0,0,0,0,0,0,0,0,0,-1,839,1373,0,0
-378,-349,0,0,0,0,0,0,0,0,0,-1,846,1373,0,0
-371,-349,0,0,0,0,0,0,0,0,0,-1,853,1373,0,0
-364,-349,0,0,0,0,0,0,0,0,0,-1,860,1373,0,0
-357,-349,0,0,0,0,0,0,0,0,0,-1,867,1373,0,0
-350,-349,0,0,0,0,0,0,0,0,0,-1,874,1373,0,0
-343,-349,0,0,0,0,0,0,0,0,0,-1,881,1373,0,0
-336,-349,0,0,0,0,0,0,0,0,0,-1,888,1373,0,0
-329,-349,0,0,0,0,0,0,0,0,0,-1,895,1373,0,0
-322,-349,0,0,0,0,0,0,0,0,0,-1,902,1373,0,0
-315,-349,0,0,0,0,0,0,0,0,0,-1,909,1373,0,0
-308,-349,0,0,0,0,0,0,0,0,0,-1,916,1373,0,0
-301,-349,0,0,0,0,0,0,0,0,0,-1,923,1373,0,0
-294,-349,0,0,0,0,0,0,0,0,0,-1,930,1373,0,0
-287,-349,0,0,0,0,0,0,0,0,0,-1,937,1373,0,0
-280,-349,0,0,0,0,0,0,0,0,0,-1,944,1373,0,0
-273,-349,0,0,0,0,0,0,0,0,0,-1,951,1373,0,0
-266,-349,0,0,0,0,0,0,0,0,0,-1,958,1373,0,0
-259,-349,0,0,0,0,0,0,0,0,0,-1,965,1373,0,0
-252,-349,0,0,0,0,0,0,0,0,0,-1,972,1373,0,0
-245,-349,0,0,0,0,0,0,0,0,0,-1,979,1373,0,0
-238,-349,0,0,0,0,0,0,0,0,0,-1,986,1373,0,0
-231,-349,0,0,0,0,0,0,0,0,0,-1,993,1373,0,0
-224,-349,0,0,0,0,0,0,0,0,0,-1,1000,1373,0,0
-217,-349,0,0,0,0,0,0,0,0,0,-1,1007,1373,0,0
-210,-349,0,0,0,0,0,0,0,0,0,-1,1014,1373,0,0
-203,-349,0,0,0,0,0,0,0,0,0,-1,1021,1373,0,0
-196,-349,0,0,0,0,0,0,0,0,0,-1,1028,1373,0,0
-189,-349,0,0,0,0,0,0,0,0,0,-1,1035,1373,0,0
-182,-349,0,0,0,0,0,0,0,0,0,-1,1042,1373,0,0
-175,-349,0,0,0,0,0,0,0,0,0,-1,1049,1373,0,0
-168,-349,0,0,0,0,0,0,0,0,0,-1,1056,1373,0,0
-161,-349,0,0,0,0,0,0,0,0,0,-1,1063,1373,0,0
-154,-349,0,0,0,0,0,0,0,0,0,-1,1070,1373,0,0
-147,-349,0,0,0,0,0,0,0,0,0,-1,1077,1373,0,0
-140,-349,0,0,0,0,0,0,0,0,0,-1,1084,1373,0,0
-133,-349,0,0,0,0,0,0,0,0,0,-1,1091,1373,0,0
-126,-349,0,0,0,0,0,0,0,0,0,-1,1098,1373,0,0
-119,-349,0,0,0,0,0,0,0,0,0,-1,1105,1373,0,0
-112,-349,0,0,0,0,0,0,0,0,0,-1,1112,1373,0,0
-105,-349,0,0,0,0,0,0,0,0,0,-1,1119,1373,0,0
-98,-349,0,0,0,0,0,0,0,0,0,-1,1126,1373,0,0
-91,-349,0,0,0,0,0,0,0,0,0,-1,1133,1373,0,0
-84,-349,0,0,0,0,0,0,0,0,0,-1,1140,1373,0,0
-77,-349,0,0,0,0,0,0,0,0,0,-1,1147,1373,0,0
-70,-349,0,0,0,0,0,0,0,0,0,-1,1154,1373,0,0
-63,-349,0,0,0,0,0,0,0,0,0,-1,1161,1373,0,0
-56,-349,0,0,0,0,0,0,0,0,0,-1,1168,1373,0,0
-49,-349,0,0,0,0,0,0,0,0,0,-1,1175,1373,0,0
-42,-349,0,0,0,0,0,0,0,0,0,-1,1182,1373,0,0
-35,-349,0,0,0,0,0,0,0,0,0,-1,1189,1373,0,0
-28,-349,0,0,0,0,0,0,0,0,0,-1,1196,1373,0,0
-21,-349,0,0,0,0,0,0,0,0,0,-1,1203,1373,0,0
-14,-349,0,0,0,0,0,0,0,0,0,-1,1210,1373,0,0
-7,-349,0,0,0,0,0,0,0,0,0,-1,1217,1373,0,0
0,-349,0,0,0,0,0,0,0,0,0,-1,1224,1373,0,0
7,-349,0,0,0,0,0,0,0,0,0,-1,1231,1373,0,0
14,-349,0,0,0,0,0,0,0,0,0,-1,1238,1373,0,0
21,-349,0,0,0,0,0,0,0,0,0,-1,1245,1373,0,0
28,-349,0,0,0,0,0,0,0,0,0,-1,1252,1373,0,0
35,-349,0,0,0,0,0,0,0,0,0,-1,1259,1373,0,0
42,-349,0,0,0,0,0,0,0,0,0,-1,1266,1373,0,0
49,-349,0,0,0,0,0,0,0,0,0,-1,1273,1373,0,0
56,-349,0,0,0,0,0,0,0,0,0,-1,1280,1373,0,0
63,-349,0,0,0,0,0,0,0,0,0,-1,1287,1373,0,0
70,-349,0,0,0,0,0,0,0,0,0,-1,1294,1373,0,0
77,-349,0,0,0,0,0,0,0,0,0,-1,1301,1373,0,0
84,-349,0,0,0,0,0,0,0,0,0,-1,1308,1373,0,0
91,-349,0,0,0,0,0,0,0,0,0,-1,1315,1373,0,0
98,-349,0,0,0,0,0,0,0,0,0,-1,1322,1373,0,0
105,-349,0,0,0,0,0,0,0,0,0,-1,1329,1373,0,0
112,-349,0,0,0,0,0,0,0,0,0,-1,1336,1373,0,0
119,-349,0,0,0,0,0,0,0,0,0,-1,1343,1373,0,0
126,-349,0,0,0,0,0,0,0,0,0,-1,1350,1373,0,0
133,-349,0,0,0,0,0,0,0,0,0,-1,1357,1373,0,0
140,-349,0,0,0,0,0,0,0,0,0,-1,1364,1373,0,0
147,-349,0,0,0,0,0,0,0,0,0,-1,1371,1373,0,0
154,-349,0,0,0,0,0,0,0,0,0,-1,1378,1373,0,0
161,-349,0,0,0,0,0,0,0,0,0,-1,1385,1373,0,0
168,-349,0,0,0,0,0,0,0,0,0,-1,1392,1373,0,0
175,-349,0,0,0,0,0,0,0,0,0,-1,1399,1373,0,0
182,-349,0,0,0,0,0,0,0,0,0,-1,1406,1373,0,0
189,-349,0,0,0,0,0,0,0,0,0,-1,1413,1373,0,0
196,-349,0,0,0,0,0,0,0,0,0,-1,1420,1373,0,0
203,-349,0,0,0,0,0,0,0,0,0,-1,1427,1373,0,0
210,-349,0,0,0,0,0,0,0,0,0,-1,1434,1373,0,0
217,-349,0,0,0,0,0,0,0,0,0,-1,1441,1373,0,0
224,-349,0,0,0,0,0,0,0,0,0,-1,1448,1373,0,0
231,-349,0,0,0,0,0,0,0,0,0,-1,1455,1373,0,0
238,-349,0,0,0,0,0,0,0,0,0,-1,1462,1373,0,0
245,-349,0,0,0,0,0,0,0,0,0,-1,1469,1373,0,0
252,-349,0,0,0,0,0,0,0,0,0,-1,1476,1373,0,0
259,-349,0,0,0,0,0,0,0,0,0,-1,1483,1373,0,0
266,-349,0,0,0,0,0,0,0,0,0,-1,1490,1373,0,0
273,-349,0,0,0,0,0,0,0,0,0,-1,1497,1373,0,0
280,-349,0,0,0,0,0,0,0,0,0,-1,1504,1373,0,0
287,-349,0,0,0,0,0,0,0,0,0,-1,1511,1373,0,0
294,-349,0,0,0,0,0,0,0,0,0,-1,1518,1373,0,0
301,-349,0,0,0,0,0,0,0,0,0,-1,1525,1373,0,0
308,-349,0,0,0,0,0,0,0,0,0,-1,1532,1373,0,0
315,-349,0,0,0,0,0,0,0,0,0,-1,1539,1373,0,0
322,-349,0,0,0,0,0,0,0,0,0,-1,1546,1373,0,0
329,-349,0,0,0,0,0,0,0,0,0,-1,1553,1373,0,0
336,-349,0,0,0,0,0,0,0,0,0,-1,1560,1373,0,0
343,-349,0,0,0,0,0,0,0,0,0,-1,1567,1373,0,0
350,-349,0,0,0,0,0,0,0,0,0,-1,1574,1373,0,0
357,-349,0,0,0,0,0,0,0,0,0,-1,1581,1373,0,0
364,-349,0,0,0,0,0,0,0,0,0,-1,1588,1373,0,0
371,-349,0,0,0,0,0,0,0,0,0,-1,1595,1373,0,0
378,-349,0,0,0,0,0,0,0,0,0,-1,1602,1373,0,0
385,-349,0,0,0,0,0,0,0,0,0,-1,1609,1373,0,0
392,-349,0,0,0,0,0,0,0,0,0,-1,1616,1373,0,0
399,-349,0,0,0,0,0,0,0,0,0,-1,1623,1373,0,0
406,-349,0,0,0,0,0,0,0,0,0,-1,1630,1373,0,0
413,-349,0,0,0,0,0,0,0,0,0,-1,1637,1373,0,0
420,-349,0,0,0,0,0,0,0,0,0,-1,1644,1373,0,0
427,-349,0,0,0,0,0,0,0,0,0,-1,1651,1373,0,0
434,-349,0,0,0,0,0,0,0,0,0,-1,1658,1373,0,0
441,-349,0,0,0,0,0,0,0,0,0,-1,1665,1373,0,0
448,-349,0,0,0,0,0,0,0,0,0,-1,1672,1373,0,0
455,-349,0,0,0,0,0,0,0,0,0,-1,1679,1373,0,0
462,-349,0,0,0,0,0,0,0,0,0,-1,1686,1373,0,0
469,-349,0,0,0,0,0,0,0,0,0,-1,1693,1373,0,0
476,-349,0,0,0,0,0,0,0,0,0,-1,1700,1373,0,0
483,-349,0,0,0,0,0,0,0,0,0,-1,1707,1373,0,0
490,-349,0,0,0,0,0,0,0,0,0,-1,1714,1373,0,0
497,-349,0,0,0,0,0,0,0,0,0,-1,1721,1373,0,0
504,-349,0,0,0,0,0,0,0,0,0,-1,1728,1373,0,0
511,-349,0,0,0,0,0,0,0,0,0,-1,1735,1373,0,0
518,-349,0,0,0,0,0,0,0,0,0,-1,1742,1373,0,0
525,-349,0,0,0,0,0,0,0,0,0,-1,1749,1373,0,0
532,-349,0,0,0,0,0,0,0,0,0,-1,1756,1373,0,0
539,-349,0,0,0,0,0,0,0,0,0,-1,1763,1373,0,0
546,-349,0,0,0,0,0,0,0,0,0,-1,1770,1373,0,0
553,-349,0,0,0,0,0,0,0,0,0,-1,1777,1373,0,0
560,-349,45.6893,3.53845,0,0,0,0,0,0,0,-1,1784,1373,45.6893,-3.5385
567,-349,41.9424,6.03833,0,0,0,0,0,0,0,-1,1791,1373,41.9423,-6.03834
574,-349,42.4165,6.17078,0,0,0,0,0,0,0,-1,1798,1373,42.4165,-6.17072
581,-349,42.8947,6.78381,0,0,0,0,0,0,0,-1,1805,1373,42.8946,-6.78376
588,-349,44.8121,5.06213,0,0,0,0,0,0,0,-1,1812,1373,44.8121,-5.06215
595,-349,44.4338,6.14099,0,0,0,0,0,0,0,-1,1819,1373,44.4338,-6.14095
602,-349,35.6641,3.26465,0,0,0,0,0,0,0,-1,1826,1373,35.6641,-3.26468
609,-349,34.7175,4.401,0,0,0,0,0,0,0,-1,1833,1373,34.7175,-4.40096
616,-349,27.1451,6.68274,0,0,0,0,0,0,0,-1,1840,1373,27.1451,-6.6828
623,-349,18.8478,2.75769,0,0,0,0,0,0,0,-1,1847,1373,18.8478,-2.75774
630,-349,15.4948,6.47644,0,0,0,0,0,0,0,-1,1854,1373,15.4947,-6.4765
637,-349,16.5161,6.92639,0,0,0,0,0,0,0,-1,1861,1373,16.5161,-6.92636
644,-349,30.078,13.337,0,0,0,0,0,0,0,-1,1868,1373,30.078,-13.3371
651,-349,30.1406,12.8077,-0.0013677,0.00118086,-0.00140781,0.00180545,-0.00199229,-1.15323,0.00219351,0.0355232,1875,1373,30.1406,-12.8077
658,-349,29.9775,12.321,-0.000791631,0.000703222,-0.000848926,0.00108687,-0.00117528,-1.14635,0.00130638,0.0267767,1882,1373,29.9776,-12.321
665,-349,29.9404,11.8267,-6.68849e-05,0.000254649,-0.00048578,0.000605574,-0.000417809,-0.945198,0.000594156,0.0207444,1889,1373,29.9404,-11.8267
672,-349,29.9318,11.3577,0.000708522,-6.79433e-05,-0.00022407,0.000768544,-0.000127965,-0.261726,0.000559913,0.0153513,1896,1373,29.9318,-11.3577
679,-349,29.9187,10.8972,0.0015353,-0.000357548,-3.46225e-05,0.00153593,-0.000358181,-0.0182831,0.0011619,0.0163767,1903,1373,29.9187,-10.8973
686,-349,29.9749,10.4257,0.00242861,-0.000564133,6.62227e-05,0.00243007,-0.000565597,0.0221134,0.00183782,0.0165173,1910,1373,29.9748,-10.4257
693,-349,29.9163,9.9425,0.00336784,-0.0007259,0.000111069,0.00337085,-0.000728911,0.0271049,0.00252551,0.0185135,1917,1373,29.9162,-9.94253
700,-349,29.8925,9.4635,0.00437292,-0.000812017,7.64378e-05,0.00437405,-0.000813144,0.014738,0.00322147,0.0187778,1924,1373,29.8925,-9.46352
707,-349,29.9845,8.94324,0.00524978,-0.000731058,-0.000105455,0.00525164,-0.000732917,-0.0176249,0.00376922,0.0348572,1931,1373,29.9845,-8.94321
714,-349,30.0935,8.29333,0,0,0,0,0,0,0,-1,1938,1373,30.0935,-8.29329
721,-349,19.6688,5.93604,0,0,0,0,0,0,0,-1,1945,1373,19.6688,-5.93606
728,-349,18.6333,3.73218,0,0,0,0,0,0,0,-1,1952,1373,18.6333,-3.73214
735,-349,18.1918,3.39954,0,0,0,0,0,0,0,-1,1959,1373,18.1918,-3.3995
742,-349,20.7345,2.07483,0,0,0,0,0,0,0,-1,1966,1373,20.7345,-2.07485
749,-349,21.9037,1.45789,0,0,0,0,0,0,0,-1,1973,1373,21.9037,-1.45788
756,-349,0,0,0,0,0,0,0,0,0,-1,1980,1373,0,0
763,-349,0,0,0,0,0,0,0,0,0,-1,1987,1373,0,0
770,-349,0,0,0,0,0,0,0,0,0,-1,1994,1373,0,0
777,-349,0,0,0,0,0,0,0,0,0,-1,2001,1373,0,0
784,-349,0,0,0,0,0,0,0,0,0,-1,2008,1373,0,0
791,-349,0,0,0,0,0,0,0,0,0,-1,2015,1373,0,0
798,-349,0,0,0,0,0,0,0,0,0,-1,2022,1373,0,0
805,-349,0,0,0,0,0,0,0,0,0,-1,2029,1373,0,0
812,-349,0,0,0,0,0,0,0,0,0,-1,2036,1373,0,0
-700,-356,0,0,0,0,0,0,0,0,0,-1,524,1380,0,0
-693,-356,0,0,0,0,0,0,0,0,0,-1,531,1380,0,0
-686,-356,0,0,0,0,0,0,0,0,0,-1,538,1380,0,0
-679,-356,0,0,0,0,0,0,0,0,0,-1,545,1380,0,0
-672,-356,0,0,0,0,0,0,0,0,0,-1,552,1380,0,0
-665,-356,0,0,0,0,0,0,0,0,0,-1,559,1380,0,0
-658,-356,0,0,0,0,0,0,0,0,0,-1,566,1380,0,0
-651,-356,0,0,0,0,0,0,0,0,0,-1,573,1380,0,0
-644,-356,0,0,0,0,0,0,0,0,0,-1,580,1380,0,0
-637,-356,0,0,0,0,0,0,0,0,0,-1,587,1380,0,0
-630,-356,-8.23126,-5.01917,0,0,0,0,0,0,0,-1,594,1380,-8.23124,5.0192
-623,-356,-0.263855,-0.675781,0,0,0,0,0,0,0,-1,601,1380,-0.263835,0.675841
-616,-356,-8.26532,-3.43945,0,0,0,0,0,0,0,-1,608,1380,-8.2653,3.43948
-609,-356,-4.88483,0.734497,0,0,0,0,0,0,0,-1,615,1380,-4.88485,-0.734532
-602,-356,-9.06635,2.4021,0,0,0,0,0,0,0,-1,622,1380,-9.06634,-2.40206
-595,-356,-8.45703,3.61853,0,0,0,0,0,0,0,-1,629,1380,-8.45706,-3.61848
-588,-356,-9.31738,4.14258,0,0,0,0,0,0,0,-1,636,1380,-9.31736,-4.14255
-581,-356,-14.3957,6.35889,0,0,0,0,0,0,0,-1,643,1380,-14.3957,-6.35889
-574,-356,-15.2395,6.65454,0,0,0,0,0,0,0,-1,650,1380,-15.2395,-6.65449
-567,-356,-15.253,7.24207,0.0048679,-0.000400429,0.000952726,0.0050349,-0.000567426,0.173521,0.00356084,0.0203634,657,1380,-15.253,-7.24205
-560,-356,-15.2214,7.84448,0.00405554,-0.000371198,0.000762215,0.00418311,-0.000498763,0.165824,0.00296899,0.0179928,664,1380,-15.2215,-7.84445
-553,-356,-15.21,8.32983,0.00352652,-0.000261894,0.000717729,0.00365794,-0.000393311,0.181096,0.00257974,0.0198532,671,1380,-15.21,-8.32982
-546,-356,-15.2292,8.86401,0.00320919,-0.000125729,0.000761859,0.003375,-0.000291531,0.214288,0.0023532,0.0211938,678,1380,-15.2293,-8.86407
-539,-356,-15.2461,9.43311,0.00307804,2.66436e-05,0.000881886,0.00331458,-0.000209894,0.262051,0.0022829,0.0148072,685,1380,-15.2461,-9.43308
-532,-356,-15.2795,9.96729,0.00314388,0.000208595,0.00108807,0.00350322,-0.00015075,0.31898,0.00238732,0.0145339,692,1380,-15.2795,-9.96726
-525,-356,-15.2736,10.5005,0.00339127,0.000422293,0.00138336,0.00393591,-0.000122351,0.375074,0.00266566,0.0125564,699,1380,-15.2736,-10.5004
-518,-356,-15.2641,11.0518,0.00377686,0.000723472,0.00176998,0.00458761,-8.72773e-05,0.429532,0.00308791,0.0125835,706,1380,-15.2641,-11.0517
-511,-356,-15.2542,11.6099,0,0,0,0,0,0,0,-1,713,1380,-15.2542,-11.6098
-504,-356,-14.3925,12.3971,0,0,0,0,0,0,0,-1,720,1380,-14.3925,-12.3971
-497,-356,-5.68604,4.96387,0,0,0,0,0,0,0,-1,727,1380,-5.68605,-4.96385
-490,-356,-7.95288,5.5625,0,0,0,0,0,0,0,-1,734,1380,-7.95285,-5.56246
-483,-356,-7.2627,4.07446,0,0,0,0,0,0,0,-1,741,1380,-7.2627,-4.07441
-476,-356,-5.1936,4.16016,0,0,0,0,0,0,0,-1,748,1380,-5.1936,-4.16012
-469,-356,-10.0883,0.536011,0,0,0,0,0,0,0,-1,755,1380,-10.0883,-0.535989
-462,-356,-12.3481,-0.215698,0,0,0,0,0,0,0,-1,762,1380,-12.3481,0.215641
-455,-356,-13.1367,-0.264648,0,0,0,0,0,0,0,-1,769,1380,-13.1367,0.264647
-448,-356,-13.9116,-0.310181,0,0,0,0,0,0,0,-1,776,1380,-13.9115,0.310207
-441,-356,-13.1602,3.05603,0,0,0,0,0,0,0,-1,783,1380,-13.1602,-3.05609
-434,-356,0,0,0,0,0,0,0,0,0,-1,790,1380,0,0
-427,-356,0,0,0,0,0,0,0,0,0,-1,797,1380,0,0
-420,-356,0,0,0,0,0,0,0,0,0,-1,804,1380,0,0
-413,-356,0,0,0,0,0,0,0,0,0,-1,811,1380,0,0
-406,-356,0,0,0,0,0,0,0,0,0,-1,818,1380,0,0
-399,-356,0,0,0,0,0,0,0,0,0,-1,825,1380,0,0
-392,-356,0,0,0,0,0,0,0,0,0,-1,832,1380,0,0
-385,-356,0,0,0,0,0,0,0,0,0,-1,839,1380,0,0
-378,-356,0,0,0,0,0,0,0,0,0,-1,846,1380,0,0
-371,-356,0,0,0,0,0,0,0,0,0,-1,853,1380,0,0
-364,-356,0,0,0,0,0,0,0,0,0,-1,860,1380,0,0
-357,-356,0,0,0,0,0,0,0,0,0,-1,867,1380,0,0
-350,-356,0,0,0,0,0,0,0,0,0,-1,874,1380,0,0
-343,-356,0,0,0,0,0,0,0,0,0,-1,881,1380,0,0
-336,-356,0,0,0,0,0,0,0,0,0,-1,888,1380,0,0
-329,-356,0,0,0,0,0,0,0,0,0,-1,895,1380,0,0
-322,-356,0,0,0,0,0,0,0,0,0,-1,902,1380,0,0
-315,-356,0,0,0,0,0,0,0,0,0,-1,909,1380,0,0
-308,-356,0,0,0,0,0,0,0,0,0,-1,916,1380,0,0
-301,-356,0,0,0,0,0,0,0,0,0,-1,923,1380,0,0
-294,-356,0,0,0,0,0,0,0,0,0,-1,930,1380,0,0
-287,-356,0,0,0,0,0,0,0,0,0,-1,937,1380,0,0
-280,-356,0,0,0,0,0,0,0,0,0,-1,944,1380,0,0
-273,-356,0,0,0,0,0,0,0,0,0,-1,951,1380,0,0
-266,-356,0,0,0,0,0,0,0,0,0,-1,958,1380,0,0
-259,-356,0,0,0,0,0,0,0,0,0,-1,965,1380,0,0
-252,-356,0,0,0,0,0,0,0,0,0,-1,972,1380,0,0
-245,-356,0,0,0,0,0,0,0,0,0,-1,979,1380,0,0
-238,-356,0,0,0,0,0,0,0,0,0,-1,986,1380,0,0
-231,-356,0,0,0,0,0,0,0,0,0,-1,993,1380,0,0
-224,-356,0,0,0,0,0,0,0,0,0,-1,1000,1380,0,0
-217,-356,0,0,0,0,0,0,0,0,0,-1,1007,1380,0,0
-210,-356,0,0,0,0,0,0,0,0,0,-1,1014,1380,0,0
-203,-356,0,0,0,0,0,0,0,0,0,-1,1021,1380,0,0
-196,-356,0,0,0,0,0,0,0,0,0,-1,1028,1380,0,0
-189,-356,0,0,0,0,0,0,0,0,0,-1,1035,1380,0,0
-182,-356,0,0,0,0,0,0,0,0,0,-1,1042,1380,0,0
-175,-356,0,0,0,0,0,0,0,0,0,-1,1049,1380,0,0
-168,-356,0,0,0,0,0,0,0,0,0,-1,1056,1380,0,0
-161,-356,0,0,0,0,0,0,0,0,0,-1,1063,1380,0,0
-154,-356,0,0,0,0,0,0,0,0,0,-1,1070,1380,0,0
-147,-356,0,0,0,0,0,0,0,0,0,-1,1077,1380,0,0
-140,-356,0,0,0,0,0,0,0,0,0,-1,1084,1380,0,0
-133,-356,0,0,0,0,0,0,0,0,0,-1,1091,1380,0,0
-126,-356,0,0,0,0,0,0,0,0,0,-1,1098,1380,0,0
-119,-356,0,0,0,0,0,0,0,0,0,-1,1105,1380,0,0
-112,-356,0,0,0,0,0,0,0,0,0,-1,1112,1380,0,0
-105,-356,0,0,0,0,0,0,0,0,0,-1,1119,1380,0,0
-98,-356,0,0,0,0,0,0,0,0,0,-1,1126,1380,0,0
-91,-356,0,0,0,0,0,0,0,0,0,-1,1133,1380,0,0
-84,-356,0,0,0,0,0,0,0,0,0,-1,1140,1380,0,0
-77,-356,0,0,0,0,0,0,0,0,0,-1,1147,1380,0,0
-70,-356,0,0,0,0,0,0,0,0,0,-1,1154,1380,0,0
-63,-356,0,0,0,0,0,0,0,0,0,-1,1161,1380,0,0
-56,-356,0,0,0,0,0,0,0,0,0,-1,1168,1380,0,0
-49,-356,0,0,0,0,0,0,0,0,0,-1,1175,1380,0,0
-42,-356,0,0,0,0,0,0,0,0,0,-1,1182,1380,0,0
-35,-356,0,0,0,0,0,0,0,0,0,-1,1189,1380,0,0
-28,-356,0,0,0,0,0,0,0,0,0,-1,1196,1380,0,0
-21,-356,0,0,0,0,0,0,0,0,0,-1,1203,1380,0,0
-14,-356,0,0,0,0,0,0,0,0,0,-1,1210,1380,0,0
-7,-356,0,0,0,0,0,0,0,0,0,-1,1217,1380,0,0
0,-356,0,0,0,0,0,0,0,0,0,-1,1224,1380,0,0
7,-356,0,0,0,0,0,0,0,0,0,-1,1231,1380,0,0
14,-356,0,0,0,0,0,0,0,0,0,-1,1238,1380,0,0
21,-356,0,0,0,0,0,0,0,0,0,-1,1245,1380,0,0
28,-356,0,0,0,0,0,0,0,0,0,-1,1252,1380,0,0
35,-356,0,0,0,0,0,0,0,0,0,-1,1259,1380,0,0
42,-356,0,0,0,0,0,0,0,0,0,-1,1266,1380,0,0
49,-356,0,0,0,0,0,0,0,0,0,-1,1273,1380,0,0
56,-356,0,0,0,0,0,0,0,0,0,-1,1280,1380,0,0
63,-356,0,0,0,0,0,0,0,0,0,-1,1287,1380,0,0
70,-356,0,0,0,0,0,0,0,0,0,-1,1294,1380,0,0
77,-356,0,0,0,0,0,0,0,0,0,-1,1301,1380,0,0
84,-356,0,0,0,0,0,0,0,0,0,-1,1308,1380,0,0
91,-356,0,0,0,0,0,0,0,0,0,-1,1315,1380,0,0
98,-356,0,0,0,0,0,0,0,0,0,-1,1322,1380,0,0
105,-356,0,0,0,0,0,0,0,0,0,-1,1329,1380,0,0
112,-356,0,0,0,0,0,0,0,0,0,-1,1336,1380,0,0
119,-356,0,0,0,0,0,0,0,0,0,-1,1343,1380,0,0
126,-356,0,0,0,0,0,0,0,0,0,-1,1350,1380,0,0
133,-356,0,0,0,0,0,0,0,0,0,-1,1357,1380,0,0
140,-356,0,0,0,0,0,0,0,0,0,-1,1364,1380,0,0
147,-356,0,0,0,0,0,0,0,0,0,-1,1371,1380,0,0
154,-356,0,0,0,0,0,0,0,0,0,-1,1378,1380,0,0
161,-356,0,0,0,0,0,0,0,0,0,-1,1385,1380,0,0
168,-356,0,0,0,0,0,0,0,0,0,-1,1392,1380,0,0
175,-356,0,0,0,0,0,0,0,0,0,-1,1399,1380,0,0
182,-356,0,0,0,0,0,0,0,0,0,-1,1406,1380,0,0
189,-356,0,0,0,0,0,0,0,0,0,-1,1413,1380,0,0
196,-356,0,0,0,0,0,0,0,0,0,-1,1420,1380,0,0
203,-356,0,0,0,0,0,0,0,0,0,-1,1427,1380,0,0
210,-356,0,0,0,0,0,0,0,0,0,-1,1434,1380,0,0
217,-356,0,0,0,0,0,0,0,0,0,-1,1441,1380,0,0
224,-356,0,0,0,0,0,0,0,0,0,-1,1448,1380,0,0
231,-356,0,0,0,0,0,0,0,0,0,-1,1455,1380,0,0
238,-356,0,0,0,0,0,0,0,0,0,-1,1462,1380,0,0
245,-356,0,0,0,0,0,0,0,0,0,-1,1469,1380,0,0
252,-356,0,0,0,0,0,0,0,0,0,-1,1476,1380,0,0
259,-356,0,0,0,0,0,0,0,0,0,-1,1483,1380,0,0
266,-356,0,0,0,0,0,0,0,0,0,-1,1490,1380,0,0
273,-356,0,0,0,0,0,0,0,0,0,-1,1497,1380,0,0
280,-356,0,0,0,0,0,0,0,0,0,-1,1504,1380,0,0
287,-356,0,0,0,0,0,0,0,0,0,-1,1511,1380,0,0
294,-356,0,0,0,0,0,0,0,0,0,-1,1518,1380,0,0
301,-356,0,0,0,0,0,0,0,0,0,-1,1525,1380,0,0
308,-356,0,0,0,0,0,0,0,0,0,-1,1532,1380,0,0
315,-356,0,0,0,0,0,0,0,0,0,-1,1539,1380,0,0
322,-356,0,0,0,0,0,0,0,0,0,-1,1546,1380,0,0
329,-356,0,0,0,0,0,0,0,0,0,-1,1553,1380,0,0
336,-356,0,0,0,0,0,0,0,0,0,-1,1560,1380,0,0
343,-356,0,0,0,0,0,0,0,0,0,-1,1567,1380,0,0
350,-356,0,0,0,0,0,0,0,0,0,-1,1574,1380,0,0
357,-356,0,0,0,0,0,0,0,0,0,-1,1581,1380,0,0
364,-356,0,0,0,0,0,0,0,0,0,-1,1588,1380,0,0
371,-356,0,0,0,0,0,0,0,0,0,-1,1595,1380,0,0
378,-356,0,0,0,0,0,0,0,0,0,-1,1602,1380,0,0
385,-356,0,0,0,0,0,0,0,0,0,-1,1609,1380,0,0
392,-356,0,0,0,0,0,0,0,0,0,-1,1616,1380,0,0
399,-356,0,0,0,0,0,0,0,0,0,-1,1623,1380,0,0
406,-356,0,0,0,0,0,0,0,0,0,-1,1630,1380,0,0
413,-356,0,0,0,0,0,0,0,0,0,-1,1637,1380,0,0
420,-356,0,0,0,0,0,0,0,0,0,-1,1644,1380,0,0
427,-356,0,0,0,0,0,0,0,0,0,-1,1651,1380,0,0
434,-356,0,0,0,0,0,0,0,0,0,-1,1658,1380,0,0
441,-356,0,0,0,0,0,0,0,0,0,-1,1665,1380,0,0
448,-356,0,0,0,0,0,0,0,0,0,-1,1672,1380,0,0
455,-356,0,0,0,0,0,0,0,0,0,-1,1679,1380,0,0
462,-356,0,0,0,0,0,0,0,0,0,-1,1686,1380,0,0
469,-356,0,0,0,0,0,0,0,0,0,-1,1693,1380,0,0
476,-356,0,0,0,0,0,0,0,0,0,-1,1700,1380,0,0
483,-356,0,0,0,0,0,0,0,0,0,-1,1707,1380,0,0
490,-356,0,0,0,0,0,0,0,0,0,-1,1714,1380,0,0
497,-356,0,0,0,0,0,0,0,0,0,-1,1721,1380,0,0
504,-356,0,0,0,0,0,0,0,0,0,-1,1728,1380,0,0
511,-356,0,0,0,0,0,0,0,0,0,-1,1735,1380,0,0
518,-356,0,0,0,0,0,0,0,0,0,-1,1742,1380,0,0
525,-356,0,0,0,0,0,0,0,0,0,-1,1749,1380,0,0
532,-356,0,0,0,0,0,0,0,0,0,-1,1756,1380,0,0
539,-356,0,0,0,0,0,0,0,0,0,-1,1763,1380,0,0
546,-356,0,0,0,0,0,0,0,0,0,-1,1770,1380,0,0
553,-356,0,0,0,0,0,0,0,0,0,-1,1777,1380,0,0
560,-356,45.7938,3.65295,0,0,0,0,0,0,0,-1,1784,1380,45.7938,-3.65294
567,-356,45.6788,3.51428,0,0,0,0,0,0,0,-1,1791,1380,45.6788,-3.51422
574,-356,45.5742,3.39575,0,0,0,0,0,0,0,-1,1798,1380,45.5742,-3.39574
581,-356,45.6708,3.64172,0,0,0,0,0,0,0,-1,1805,1380,45.6707,-3.64175
588,-356,44.4739,4.87085,0,0,0,0,0,0,0,-1,1812,1380,44.4739,-4.87086
595,-356,32.0834,5.86084,0,0,0,0,0,0,0,-1,1819,1380,32.0834,-5.86079
602,-356,30.1604,6.07104,0,0,0,0,0,0,0,-1,1826,1380,30.1604,-6.07104
609,-356,28.3435,6.48901,0,0,0,0,0,0,0,-1,1833,1380,28.3435,-6.48899
616,-356,26.9358,6.80872,0,0,0,0,0,0,0,-1,1840,1380,26.9358,-6.80877
623,-356,16.1803,1.07532,0,0,0,0,0,0,0,-1,1847,1380,16.1803,-1.07529
630,-356,16.4138,6.91553,0,0,0,0,0,0,0,-1,1854,1380,16.4138,-6.9155
637,-356,24.8021,12.0151,0,0,0,0,0,0,0,-1,1861,1380,24.8022,-12.0151
644,-356,29.5709,13.3988,0,0,0,0,0,0,0,-1,1868,1380,29.5709,-13.3988
651,-356,29.5592,12.8381,-0.000869107,0.00114809,-0.00132493,0.00180464,-0.00152566,-1.11073,0.00192499,0.0177411,1875,1380,29.5592,-12.8382
658,-356,29.5087,12.3206,-0.000408914,0.000643653,-0.000755287,0.00103793,-0.000803192,-1.08969,0.00106585,0.0150273,1882,1380,29.5087,-12.3206
665,-356,29.4829,11.8577,0.000219559,0.000182856,-0.00035041,0.000552098,-0.000149683,-0.759236,0.0004268,0.0145629,1889,1380,29.4829,-11.8576
672,-356,29.42,11.4215,0.000931245,-0.000201363,-2.10523e-05,0.000931636,-0.000201754,-0.0185789,0.000698128,0.0153887,1896,1380,29.4201,-11.4215
679,-356,29.4186,10.9362,0.00175639,-0.000532479,0.000213515,0.00177614,-0.000552226,0.0922238,0.00140482,0.0184051,1903,1380,29.4186,-10.9361
686,-356,29.4222,10.4243,0.00268992,-0.000794413,0.000359141,0.00272656,-0.000831046,0.101649,0.00214897,0.0183273,1910,1380,29.4222,-10.4243
693,-356,29.427,9.94421,0.00372436,-0.00100573,0.000437417,0.00376447,-0.00104584,0.0914422,0.00292134,0.0155091,1917,1380,29.427,-9.94423
700,-356,29.4509,9.46655,0.00488959,-0.00112336,0.000414997,0.0049181,-0.00115187,0.0685837,0.00372257,0.021454,1924,1380,29.4509,-9.46654
707,-356,29.5476,8.99341,0,0,0,0,0,0,0,-1,1931,1380,29.5476,-8.99345
714,-356,19.6907,5.82129,0,0,0,0,0,0,0,-1,1938,1380,19.6907,-5.82132
721,-356,17.2948,4.1958,0,0,0,0,0,0,0,-1,1945,1380,17.2948,-4.19584
728,-356,19.1846,2.31519,0,0,0,0,0,0,0,-1,1952,1380,19.1846,-2.31514
735,-356,20.0731,2.50842,0,0,0,0,0,0,0,-1,1959,1380,20.0731,-2.50844
742,-356,21.0111,2.43762,0,0,0,0,0,0,0,-1,1966,1380,21.0112,-2.43762
749,-356,22.1411,1.83276,0,0,0,0,0,0,0,-1,1973,1380,22.1411,-1.83275
756,-356,0,0,0,0,0,0,0,0,0,-1,1980,1380,0,0
763,-356,0,0,0,0,0,0,0,0,0,-1,1987,1380,0,0
770,-356,0,0,0,0,0,0,0,0,0,-1,1994,1380,0,0
777,-356,0,0,0,0,0,0,0,0,0,-1,2001,1380,0,0
784,-356,0,0,0,0,0,0,0,0,0,-1,2008,1380,0,0
791,-356,0,0,0,0,0,0,0,0,0,-1,2015,1380,0,0
798,-356,0,0,0,0,0,0,0,0,0,-1,2022,1380,0,0
805,-356,0,0,0,0,0,0,0,0,0,-1,2029,1380,0,0
812,-356,0,0,0,0,0,0,0,0,0,-1,2036,1380,0,0
-700,-363,0,0,0,0,0,0,0,0,0,-1,524,1387,0,0
-693,-363,0,0,0,0,0,0,0,0,0,-1,531,1387,0,0
-686,-363,0,0,0,0,0,0,0,0,0,-1,538,1387,0,0
-679,-363,0,0,0,0,0,0,0,0,0,-1,545,1387,0,0
-672,-363,0,0,0,0,0,0,0,0,0,-1,552,1387,0,0
-665,-363,0,0,0,0,0,0,0,0,0,-1,559,1387,0,0
-658,-363,0,0,0,0,0,0,0,0,0,-1,566,1387,0,0
-651,-363,0,0,0,0,0,0,0,0,0,-1,573,1387,0,0
-644,-363,0,0,0,0,0,0,0,0,0,-1,580,1387,0,0
-637,-363,0,0,0,0,0,0,0,0,0,-1,587,1387,0,0
-630,-363,0,0,0,0,0,0,0,0,0,-1,594,1387,0,0
-623,-363,-9.67566,-5.91846,0,0,0,0,0,0,0,-1,601,1387,-9.67563,5.91847
-616,-363,-9.02985,-2.98083,0,0,0,0,0,0,0,-1,608,1387,-9.02987,2.98079
-609,-363,-4.90265,0.195679,0,0,0,0,0,0,0,-1,615,1387,-4.90263,-0.195721
-602,-363,-9.65009,3.5321,0,0,0,0,0,0,0,-1,622,1387,-9.65007,-3.53211
-595,-363,-8.00256,3.48853,0,0,0,0,0,0,0,-1,629,1387,-8.00256,-3.48855
-588,-363,-10.8846,4.49768,0,0,0,0,0,0,0,-1,636,1387,-10.8846,-4.49773
-581,-363,-11.7469,5.15161,0,0,0,0,0,0,0,-1,643,1387,-11.747,-5.15167
-574,-363,-14.6017,6.64441,0,0,0,0,0,0,0,-1,650,1387,-14.6017,-6.64437
-567,-363,-14.6881,7.31409,0.00538532,-0.000863221,0.000869079,0.00550395,-0.000981845,0.135655,0.00403658,0.0419184,657,1387,-14.6881,-7.31414
-560,-363,-14.6751,7.80505,0.00445474,-0.000722268,0.000663215,0.00453836,-0.00080588,0.12541,0.00332689,0.0129446,664,1387,-14.6751,-7.805
-553,-363,-14.6652,8.34094,0.00380846,-0.000502063,0.00061545,0.00389462,-0.000588214,0.139077,0.00281306,0.0121572,671,1387,-14.6652,-8.341
-546,-363,-14.69,8.85413,0.00335015,-0.000284295,0.00064347,0.00346071,-0.000394857,0.170159,0.00244939,0.0123768,678,1387,-14.69,-8.85415
-539,-363,-14.6781,9.41101,0.00307764,-6.45216e-05,0.000745117,0.00324538,-0.000232261,0.221427,0.00224501,0.0143534,685,1387,-14.6781,-9.411
-532,-363,-14.726,9.98962,0.00300362,0.000181501,0.000935666,0.00328565,-0.000100531,0.292763,0.0022247,0.0132806,692,1387,-14.726,-9.98958
-525,-363,-14.7332,10.5251,0.00316398,0.00051468,0.00127089,0.00367505,3.61027e-06,0.382345,0.00244883,0.0117791,699,1387,-14.7332,-10.5251
-518,-363,-14.7358,11.0596,0.00348755,0.000903239,0.0016986,0.00432962,6.11737e-05,0.460235,0.00286624,0.0101141,706,1387,-14.7358,-11.0596
-511,-363,-14.688,11.6417,0.00405345,0.001366,0.00228557,0.00536103,5.84137e-05,0.519654,0.00355471,0.0247336,713,1387,-14.688,-11.6418
-504,-363,-14.597,12.2676,0,0,0,0,0,0,0,-1,720,1387,-14.597,-12.2676
-497,-363,-7.18842,7.29944,0,0,0,0,0,0,0,-1,727,1387,-7.18839,-7.29945
-490,-363,-5.42413,4.6958,0,0,0,0,0,0,0,-1,734,1387,-5.42412,-4.69583
-483,-363,-6.28375,4.1394,0,0,0,0,0,0,0,-1,741,1387,-6.28374,-4.13944
-476,-363,-5.83807,4.31018,0,0,0,0,0,0,0,-1,748,1387,-5.8381,-4.31013
-469,-363,-10.7125,0.697754,0,0,0,0,0,0,0,-1,755,1387,-10.7125,-0.697811
-462,-363,-9.55951,-0.0830078,0,0,0,0,0,0,0,-1,762,1387,-9.55949,0.0830163
-455,-363,-13.1008,-0.290894,0,0,0,0,0,0,0,-1,769,1387,-13.1008,0.290921
-448,-363,-11.7324,2.46606,0,0,0,0,0,0,0,-1,776,1387,-11.7324,-2.46605
-441,-363,-12.4464,2.5354,0,0,0,0,0,0,0,-1,783,1387,-12.4463,-2.53537
-434,-363,-13.6918,2.14661,0,0,0,0,0,0,0,-1,790,1387,-13.6918,-2.14662
-427,-363,0,0,0,0,0,0,0,0,0,-1,797,1387,0,0
-420,-363,0,0,0,0,0,0,0,0,0,-1,804,1387,0,0
-413,-363,0,0,0,0,0,0,0,0,0,-1,811,1387,0,0
-406,-363,0,0,0,0,0,0,0,0,0,-1,818,1387,0,0
-399,-363,0,0,0,0,0,0,0,0,0,-1,825,1387,0,0
-392,-363,0,0,0,0,0,0,0,0,0,-1,832,1387,0,0
-385,-363,0,0,0,0,0,0,0,0,0,-1,839,1387,0,0
-378,-363,0,0,0,0,0,0,0,0,0,-1,846,1387,0,0
-371,-363,0,0,0,0,0,0,0,0,0,-1,853,1387,0,0
-364,-363,0,0,0,0,0,0,0,0,0,-1,860,1387,0,0
-357,-363,0,0,0,0,0,0,0,0,0,-1,867,1387,0,0
-350,-363,0,0,0,0,0,0,0,0,0,-1,874,1387,0,0
-343,-363,0,0,0,0,0,0,0,0,0,-1,881,1387,0,0
-336,-363,0,0,0,0,0,0,0,0,0,-1,888,1387,0,0
-329,-363,0,0,0,0,0,0,0,0,0,-1,895,1387,0,0
-322,-363,0,0,0,0,0,0,0,0,0,-1,902,1387,0,0
-315,-363,0,0,0,0,0,0,0,0,0,-1,909,1387,0,0
-308,-363,0,0,0,0,0,0,0,0,0,-1,916,1387,0,0
-301,-363,0,0,0,0,0,0,0,0,0,-1,923,1387,0,0
-294,-363,0,0,0,0,0,0,0,0,0,-1,930,1387,0,0
-287,-363,0,0,0,0,0,0,0,0,0,-1,937,1387,0,0
-280,-363,0,0,0,0,0,0,0,0,0,-1,944,1387,0,0
-273,-363,0,0,0,0,0,0,0,0,0,-1,951,1387,0,0
-266,-363,0,0,0,0,0,0,0,0,0,-1,958,1387,0,0
-259,-363,0,0,0,0,0,0,0,0,0,-1,965,1387,0,0
-252,-363,0,0,0,0,0,0,0,0,0,-1,972,1387,0,0
-245,-363,0,0,0,0,0,0,0,0,0,-1,979,1387,0,0
-238,-363,0,0,0,0,0,0,0,0,0,-1,986,1387,0,0
-231,-363,0,0,0,0,0,0,0,0,0,-1,993,1387,0,0
-224,-363,0,0,0,0,0,0,0,0,0,-1,1000,1387,0,0
-217,-363,0,0,0,0,0,0,0,0,0,-1,1007,1387,0,0
-210,-363,0,0,0,0,0,0,0,0,0,-1,1014,1387,0,0
-203,-363,0,0,0,0,0,0,0,0,0,-1,1021,1387,0,0
-196,-363,0,0,0,0,0,0,0,0,0,-1,1028,1387,0,0
-189,-363,0,0,0,0,0,0,0,0,0,-1,1035,1387,0,0
-182,-363,0,0,0,0,0,0,0,0,0,-1,1042,1387,0,0
-175,-363,0,0,0,0,0,0,0,0,0,-1,1049,1387,0,0
-168,-363,0,0,0,0,0,0,0,0,0,-1,1056,1387,0,0
-161,-363,0,0,0,0,0,0,0,0,0,-1,1063,1387,0,0
-154,-363,0,0,0,0,0,0,0,0,0,-1,1070,1387,0,0
-147,-363,0,0,0,0,0,0,0,0,0,-1,1077,1387,0,0
-140,-363,0,0,0,0,0,0,0,0,0,-1,1084,1387,0,0
-133,-363,0,0,0,0,0,0,0,0,0,-1,1091,1387,0,0
-126,-363,0,0,0,0,0,0,0,0,0,-1,1098,1387,0,0
-119,-363,0,0,0,0,0,0,0,0,0,-1,1105,1387,0,0
-112,-363,0,0,0,0,0,0,0,0,0,-1,1112,1387,0,0
-105,-363,0,0,0,0,0,0,0,0,0,-1,1119,1387,0,0
-98,-363,0,0,0,0,0,0,0,0,0,-1,1126,1387,0,0
-91,-363,0,0,0,0,0,0,0,0,0,-1,1133,1387,0,0
-84,-363,0,0,0,0,0,0,0,0,0,-1,1140,1387,0,0
-77,-363,0,0,0,0,0,0,0,0,0,-1,1147,1387,0,0
-70,-363,0,0,0,0,0,0,0,0,0,-1,1154,1387,0,0
-63,-363,0,0,0,0,0,0,0,0,0,-1,1161,1387,0,0
-56,-363,0,0,0,0,0,0,0,0,0,-1,1168,1387,0,0
-49,-363,0,0,0,0,0,0,0,0,0,-1,1175,1387,0,0
-42,-363,0,0,0,0,0,0,0,0,0,-1,1182,1387,0,0
-35,-363,0,0,0,0,0,0,0,0,0,-1,1189,1387,0,0
-28,-363,0,0,0,0,0,0,0,0,0,-1,1196,1387,0,0
-21,-363,0,0,0,0,0,0,0,0,0,-1,1203,1387,0,0
-14,-363,0,0,0,0,0,0,0,0,0,-1,1210,1387,0,0
-7,-363,0,0,0,0,0,0,0,0,0,-1,1217,1387,0,0
0,-363,0,0,0,0,0,0,0,0,0,-1,1224,1387,0,0
7,-363,0,0,0,0,0,0,0,0,0,-1,1231,1387,0,0
14,-363,0,0,0,0,0,0,0,0,0,-1,1238,1387,0,0
21,-363,0,0,0,0,0,0,0,0,0,-1,1245,1387,0,0
28,-363,0,0,0,0,0,0,0,0,0,-1,1252,1387,0,0
35,-363,0,0,0,0,0,0,0,0,0,-1,1259,1387,0,0
42,-363,0,0,0,0,0,0,0,0,0,-1,1266,1387,0,0
49,-363,0,0,0,0,0,0,0,0,0,-1,1273,1387,0,0
56,-363,0,0,0,0,0,0,0,0,0,-1,1280,1387,0,0
63,-363,0,0,0,0,0,0,0,0,0,-1,1287,1387,0,0
70,-363,0,0,0,0,0,0,0,0,0,-1,1294,1387,0,0
77,-363,0,0,0,0,0,0,0,0,0,-1,1301,1387,0,0
84,-363,0,0,0,0,0,0,0,0,0,-1,1308,1387,0,0
91,-363,0,0,0,0,0,0,0,0,0,-1,1315,1387,0,0
98,-363,0,0,0,0,0,0,0,0,0,-1,1322,1387,0,0
105,-363,0,0,0,0,0,0,0,0,0,-1,1329,1387,0,0
112,-363,0,0,0,0,0,0,0,0,0,-1,1336,1387,0,0
119,-363,0,0,0,0,0,0,0,0,0,-1,1343,1387,0,0
126,-363,0,0,0,0,0,0,0,0,0,-1,1350,1387,0,0
133,-363,0,0,0,0,0,0,0,0,0,-1,1357,1387,0,0
140,-363,0,0,0,0,0,0,0,0,0,-1,1364,1387,0,0
147,-363,0,0,0,0,0,0,0,0,0,-1,1371,1387,0,0
154,-363,0,0,0,0,0,0,0,0,0,-1,1378,1387,0,0
161,-363,0,0,0,0,0,0,0,0,0,-1,1385,1387,0,0
168,-363,0,0,0,0,0,0,0,0,0,-1,1392,1387,0,0
175,-363,0,0,0,0,0,0,0,0,0,-1,1399,1387,0,0
182,-363,0,0,0,0,0,0,0,0,0,-1,1406,1387,0,0
189,-363,0,0,0,0,0,0,0,0,0,-1,1413,1387,0,0
196,-363,0,0,0,0,0,0,0,0,0,-1,1420,1387,0,0
203,-363,0,0,0,0,0,0,0,0,0,-1,1427,1387,0,0
210,-363,0,0,0,0,0,0,0,0,0,-1,1434,1387,0,0
217,-363,0,0,0,0,0,0,0,0,0,-1,1441,1387,0,0
224,-363,0,0,0,0,0,0,0,0,0,-1,1448,1387,0,0
231,-363,0,0,0,0,0,0,0,0,0,-1,1455,1387,0,0
238,-363,0,0,0,0,0,0,0,0,0,-1,1462,1387,0,0
245,-363,0,0,0,0,0,0,0,0,0,-1,1469,1387,0,0
252,-363,0,0,0,0,0,0,0,0,0,-1,1476,1387,0,0
259,-363,0,0,0,0,0,0,0,0,0,-1,1483,1387,0,0
266,-363,0,0,0,0,0,0,0,0,0,-1,1490,1387,0,0
273,-363,0,0,0,0,0,0,0,0,0,-1,1497,1387,0,0
280,-363,0,0,0,0,0,0,0,0,0,-1,1504,1387,0,0
287,-363,0,0,0,0,0,0,0,0,0,-1,1511,1387,0,0
294,-363,0,0,0,0,0,0,0,0,0,-1,1518,1387,0,0
301,-363,0,0,0,0,0,0,0,0,0,-1,1525,1387,0,0
308,-363,0,0,0,0,0,0,0,0,0,-1,1532,1387,0,0
315,-363,0,0,0,0,0,0,0,0,0,-1,1539,1387,0,0
322,-363,0,0,0,0,0,0,0,0,0,-1,1546,1387,0,0
329,-363,0,0,0,0,0,0,0,0,0,-1,1553,1387,0,0
336,-363,0,0,0,0,0,0,0,0,0,-1,1560,1387,0,0
343,-363,0,0,0,0,0,0,0,0,0,-1,1567,1387,0,0
350,-363,0,0,0,0,0,0,0,0,0,-1,1574,1387,0,0
357,-363,0,0,0,0,0,0,0,0,0,-1,1581,1387,0,0
364,-363,0,0,0,0,0,0,0,0,0,-1,1588,1387,0,0
371,-363,0,0,0,0,0,0,0,0,0,-1,1595,1387,0,0
378,-363,0,0,0,0,0,0,0,0,0,-1,1602,1387,0,0
385,-363,0,0,0,0,0,0,0,0,0,-1,1609,1387,0,0
392,-363,0,0,0,0,0,0,0,0,0,-1,1616,1387,0,0
399,-363,0,0,0,0,0,0,0,0,0,-1,1623,1387,0,0
406,-363,0,0,0,0,0,0,0,0,0,-1,1630,1387,0,0
413,-363,0,0,0,0,0,0,0,0,0,-1,1637,1387,0,0
420,-363,0,0,0,0,0,0,0,0,0,-1,1644,1387,0,0
427,-363,0,0,0,0,0,0,0,0,0,-1,1651,1387,0,0
434,-363,0,0,0,0,0,0,0,0,0,-1,1658,1387,0,0
441,-363,0,0,0,0,0,0,0,0,0,-1,1665,1387,0,0
448,-363,0,0,0,0,0,0,0,0,0,-1,1672,1387,0,0
455,-363,0,0,0,0,0,0,0,0,0,-1,1679,1387,0,0
462,-363,0,0,0,0,0,0,0,0,0,-1,1686,1387,0,0
469,-363,0,0,0,0,0,0,0,0,0,-1,1693,1387,0,0
476,-363,0,0,0,0,0,0,0,0,0,-1,1700,1387,0,0
483,-363,0,0,0,0,0,0,0,0,0,-1,1707,1387,0,0
490,-363,0,0,0,0,0,0,0,0,0,-1,1714,1387,0,0
497,-363,0,0,0,0,0,0,0,0,0,-1,1721,1387,0,0
504,-363,0,0,0,0,0,0,0,0,0,-1,1728,1387,0,0
511,-363,0,0,0,0,0,0,0,0,0,-1,1735,1387,0,0
518,-363,0,0,0,0,0,0,0,0,0,-1,1742,1387,0,0
525,-363,0,0,0,0,0,0,0,0,0,-1,1749,1387,0,0
532,-363,0,0,0,0,0,0,0,0,0,-1,1756,1387,0,0
539,-363,0,0,0,0,0,0,0,0,0,-1,1763,1387,0,0
546,-363,0,0,0,0,0,0,0,0,0,-1,1770,1387,0,0
553,-363,45.9076,3.64331,0,0,0,0,0,0,0,-1,1777,1387,45.9076,-3.64336
560,-363,45.9459,3.6875,0,0,0,0,0,0,0,-1,1784,1387,45.9459,-3.68756
567,-363,45.9266,3.32825,0,0,0,0,0,0,0,-1,1791,1387,45.9266,-3.32824
574,-363,45.7261,2.8075,0,0,0,0,0,0,0,-1,1798,1387,45.7261,-2.80754
581,-363,39.2413,1.97632,0,0,0,0,0,0,0,-1,1805,1387,39.2413,-1.97636
588,-363,32.5608,6.72131,0,0,0,0,0,0,0,-1,1812,1387,32.5608,-6.72131
595,-363,31.4688,6.95435,0,0,0,0,0,0,0,-1,1819,1387,31.4688,-6.95431
602,-363,25.7437,5.33667,0,0,0,0,0,0,0,-1,1826,1387,25.7437,-5.33667
609,-363,27.7048,7.06885,0,0,0,0,0,0,0,-1,1833,1387,27.7048,-7.06882
616,-363,16.229,1.08704,0,0,0,0,0,0,0,-1,1840,1387,16.229,-1.08706
623,-363,15.7283,7.16663,0,0,0,0,0,0,0,-1,1847,1387,15.7282,-7.16665
630,-363,18.3192,9.27844,0,0,0,0,0,0,0,-1,1854,1387,18.3192,-9.27843
637,-363,28.9801,14.0172,0,0,0,0,0,0,0,-1,1861,1387,28.9801,-14.0173
644,-363,29.0164,13.407,-0.000298495,0.00173209,-0.00197262,0.00293537,-0.00150177,-1.02306,0.00260597,0.0159748,1868,1387,29.0163,-13.407
651,-363,29.0292,12.8549,-0.000369046,0.0010134,-0.00118505,0.00169409,-0.00104973,-1.04942,0.00159864,0.0115964,1875,1387,29.0291,-12.8549
658,-363,29.0148,12.35,2.81314e-05,0.000497914,-0.000638522,0.000943379,-0.000417333,-0.961649,0.000804939,0.0122614,1882,1387,29.0147,-12.3499
665,-363,28.9713,11.8959,0.000575035,2.44205e-05,-0.000202429,0.000641447,-4.19908e-05,-0.317008,0.000442293,0.0118757,1889,1387,28.9713,-11.8959
672,-363,28.9331,11.4404,0.0012526,-0.000403646,0.000164567,0.00126879,-0.000419839,0.0980835,0.00101517,0.0136648,1896,1387,28.9331,-11.4404
679,-363,28.9276,10.9684,0.00209147,-0.000759086,0.000428338,0.00215445,-0.000822059,0.145971,0.00177495,0.0152062,1903,1387,28.9276,-10.9684
686,-363,28.9225,10.4523,0.00306632,-0.00107638,0.000620967,0.0031574,-0.00116746,0.145631,0.00258356,0.014766,1910,1387,28.9225,-10.4523
693,-363,28.9147,9.92981,0.0042096,-0.00132506,0.000723826,0.0043027,-0.00141816,0.127915,0.00344005,0.0137892,1917,1387,28.9146,-9.92982
700,-363,29.0605,9.41284,0.00557535,-0.00145245,0.000689108,0.00564228,-0.00151938,0.0968258,0.0043572,0.0250407,1924,1387,29.0606,-9.41282
707,-363,29.328,8.94214,0,0,0,0,0,0,0,-1,1931,1387,29.328,-8.94213
714,-363,16.5782,5.3147,0,0,0,0,0,0,0,-1,1938,1387,16.5783,-5.31472
721,-363,14.4045,4.51685,0,0,0,0,0,0,0,-1,1945,1387,14.4045,-4.51685
728,-363,19.9756,0.853027,0,0,0,0,0,0,0,-1,1952,1387,19.9756,-0.853059
735,-363,21.4297,1.2981,0,0,0,0,0,0,0,-1,1959,1387,21.4297,-1.29811
742,-363,21.3621,2.79663,0,0,0,0,0,0,0,-1,1966,1387,21.362,-2.7966
749,-363,0,0,0,0,0,0,0,0,0,-1,1973,1387,0,0
756,-363,0,0,0,0,0,0,0,0,0,-1,1980,1387,0,0
763,-363,0,0,0,0,0,0,0,0,0,-1,1987,1387,0,0
770,-363,0,0,0,0,0,0,0,0,0,-1,1994,1387,0,0
777,-363,0,0,0,0,0,0,0,0,0,-1,2001,1387,0,0
784,-363,0,0,0,0,0,0,0,0,0,-1,2008,1387,0,0
791,-363,0,0,0,0,0,0,0,0,0,-1,2015,1387,0,0
798,-363,0,0,0,0,0,0,0,0,0,-1,2022,1387,0,0
805,-363,0,0,0,0,0,0,0,0,0,-1,2029,1387,0,0
812,-363,0,0,0,0,0,0,0,0,0,-1,2036,1387,0,0
-700,-370,0,0,0,0,0,0,0,0,0,-1,524,1394,0,0
-693,-370,0,0,0,0,0,0,0,0,0,-1,531,1394,0,0
-686,-370,0,0,0,0,0,0,0,0,0,-1,538,1394,0,0
-679,-370,0,0,0,0,0,0,0,0,0,-1,545,1394,0,0
-672,-370,0,0,0,0,0,0,0,0,0,-1,552,1394,0,0
-665,-370,0,0,0,0,0,0,0,0,0,-1,559,1394,0,0
-658,-370,0,0,0,0,0,0,0,0,0,-1,566,1394,0,0
-651,-370,0,0,0,0,0,0,0,0,0,-1,573,1394,0,0
-644,-370,0,0,0,0,0,0,0,0,0,-1,580,1394,0,0
-637,-370,0,0,0,0,0,0,0,0,0,-1,587,1394,0,0
-630,-370,0,0,0,0,0,0,0,0,0,-1,594,1394,0,0
-623,-370,-10.1758,-7.10486,0,0,0,0,0,0,0,-1,601,1394,-10.1758,7.10483
-616,-370,-8.85925,-1.61475,0,0,0,0,0,0,0,-1,608,1394,-8.85925,1.61476
-609,-370,-5.39325,0.0421143,0,0,0,0,0,0,0,-1,615,1394,-5.39328,-0.0421372
-602,-370,-12.3151,3.44592,0,0,0,0,0,0,0,-1,622,1394,-12.3151,-3.44595
-595,-370,-7.53284,5.44214,0,0,0,0,0,0,0,-1,629,1394,-7.53284,-5.44216
-588,-370,-11.2422,4.50598,0,0,0,0,0,0,0,-1,636,1394,-11.2422,-4.50596
-581,-370,-13.1575,5.84888,0,0,0,0,0,0,0,-1,643,1394,-13.1575,-5.84887
-574,-370,-13.0107,6.69861,0,0,0,0,0,0,0,-1,650,1394,-13.0108,-6.69866
-567,-370,-14.2009,7.2262,0,0,0,0,0,0,0,-1,657,1394,-14.2009,-7.22625
-560,-370,-14.1978,7.79919,0.00450296,-0.00114708,0.000409329,0.00453246,-0.00117658,0.0719465,0.00348076,0.0255851,664,1394,-14.1978,-7.79914
-553,-370,-14.1311,8.34583,0.00373789,-0.000785793,0.000377955,0.00376925,-0.000817154,0.0827855,0.00282489,0.0104147,671,1394,-14.1311,-8.34579
-546,-370,-14.1101,8.88245,0.00317925,-0.000478263,0.000413005,0.00322531,-0.000524319,0.111057,0.0023446,0.0138325,678,1394,-14.1101,-8.8825
-539,-370,-14.1141,9.4978,0.00283463,-0.000190754,0.000523346,0.00292261,-0.000278727,0.16654,0.00204765,0.0180238,685,1394,-14.1142,-9.49782
-532,-370,-14.1763,10.0374,0.00271985,0.000107503,0.000728959,0.0029095,-8.21411e-05,0.254515,0.00196762,0.0214911,692,1394,-14.1763,-10.0374
-525,-370,-14.1837,10.5385,0.00288548,0.000511333,0.00110915,0.00332302,7.37952e-05,0.375738,0.00219116,0.0166327,699,1394,-14.1837,-10.5384
-518,-370,-14.1996,11.05,0.00328457,0.00101618,0.00163814,0.00414283,0.00015792,0.482606,0.00271078,0.0115589,706,1394,-14.1996,-11.0501
-511,-370,-14.2017,11.6125,0.00394992,0.00162841,0.00233581,0.00539748,0.000180838,0.5548,0.00353958,0.0135205,713,1394,-14.2017,-11.6125
-504,-370,-14.1989,12.1809,0,0,0,0,0,0,0,-1,720,1394,-14.1989,-12.1809
-497,-370,-12.3546,11.7982,0,0,0,0,0,0,0,-1,727,1394,-12.3546,-11.7983
-490,-370,-5.30695,4.5271,0,0,0,0,0,0,0,-1,734,1394,-5.30698,-4.52704
-483,-370,-6.02997,4.59253,0,0,0,0,0,0,0,-1,741,1394,-6.02994,-4.5925
-476,-370,-6.75293,4.65796,0,0,0,0,0,0,0,-1,748,1394,-6.7529,-4.65795
-469,-370,-10.584,1.14294,0,0,0,0,0,0,0,-1,755,1394,-10.584,-1.14293
-462,-370,-9.54462,0.387207,0,0,0,0,0,0,0,-1,762,1394,-9.5446,-0.387176
-455,-370,-8.50525,-0.36853,0,0,0,0,0,0,0,-1,769,1394,-8.50523,0.368582
-448,-370,-10.9543,2.28833,0,0,0,0,0,0,0,-1,776,1394,-10.9543,-2.28835
-441,-370,-11.8699,1.8313,0,0,0,0,0,0,0,-1,783,1394,-11.8699,-1.83127
-434,-370,-12.7855,1.37415,0,0,0,0,0,0,0,-1,790,1394,-12.7855,-1.37419
-427,-370,0,0,0,0,0,0,0,0,0,-1,797,1394,0,0
-420,-370,0,0,0,0,0,0,0,0,0,-1,804,1394,0,0
-413,-370,0,0,0,0,0,0,0,0,0,-1,811,1394,0,0
-406,-370,0,0,0,0,0,0,0,0,0,-1,818,1394,0,0
-399,-370,0,0,0,0,0,0,0,0,0,-1,825,1394,0,0
-392,-370,0,0,0,0,0,0,0,0,0,-1,832,1394,0,0
-385,-370,0,0,0,0,0,0,0,0,0,-1,839,1394,0,0
-378,-370,0,0,0,0,0,0,0,0,0,-1,846,1394,0,0
-371,-370,0,0,0,0,0,0,0,0,0,-1,853,1394,0,0
-364,-370,0,0,0,0,0,0,0,0,0,-1,860,1394,0,0
-357,-370,0,0,0,0,0,0,0,0,0,-1,867,1394,0,0
-350,-370,0,0,0,0,0,0,0,0,0,-1,874,1394,0,0
-343,-370,0,0,0,0,0,0,0,0,0,-1,881,1394,0,0
-336,-370,0,0,0,0,0,0,0,0,0,-1,888,1394,0,0
-329,-370,0,0,0,0,0,0,0,0,0,-1,895,1394,0,0
-322,-370,0,0,0,0,0,0,0,0,0,-1,902,1394,0,0
-315,-370,0,0,0,0,0,0,0,0,0,-1,909,1394,0,0
-308,-370,0,0,0,0,0,0,0,0,0,-1,916,1394,0,0
-301,-370,0,0,0,0,0,0,0,0,0,-1,923,1394,0,0
-294,-370,0,0,0,0,0,0,0,0,0,-1,930,1394,0,0
-287,-370,0,0,0,0,0,0,0,0,0,-1,937,1394,0,0
-280,-370,0,0,0,0,0,0,0,0,0,-1,944,1394,0,0
-273,-370,0,0,0,0,0,0,0,0,0,-1,951,1394,0,0
-266,-370,0,0,0,0,0,0,0,0,0,-1,958,1394,0,0
-259,-370,0,0,0,0,0,0,0,0,0,-1,965,1394,0,0
-252,-370,0,0,0,0,0,0,0,0,0,-1,972,1394,0,0
-245,-370,0,0,0,0,0,0,0,0,0,-1,979,1394,0,0
-238,-370,0,0,0,0,0,0,0,0,0,-1,986,1394,0,0
-231,-370,0,0,0,0,0,0,0,0,0,-1,993,1394,0,0
-224,-370,0,0,0,0,0,0,0,0,0,-1,1000,1394,0,0
-217,-370,0,0,0,0,0,0,0,0,0,-1,1007,1394,0,0
-210,-370,0,0,0,0,0,0,0,0,0,-1,1014,1394,0,0
-203,-370,0,0,0,0,0,0,0,0,0,-1,1021,1394,0,0
-196,-370,0,0,0,0,0,0,0,0,0,-1,1028,1394,0,0
-189,-370,0,0,0,0,0,0,0,0,0,-1,1035,1394,0,0
-182,-370,0,0,0,0,0,0,0,0,0,-1,1042,1394,0,0
-175,-370,0,0,0,0,0,0,0,0,0,-1,1049,1394,0,0
-168,-370,0,0,0,0,0,0,0,0,0,-1,1056,1394,0,0
-161,-370,0,0,0,0,0,0,0,0,0,-1,1063,1394,0,0
-154,-370,0,0,0,0,0,0,0,0,0,-1,1070,1394,0,0
-147,-370,0,0,0,0,0,0,0,0,0,-1,1077,1394,0,0
-140,-370,0,0,0,0,0,0,0,0,0,-1,1084,1394,0,0
-133,-370,0,0,0,0,0,0,0,0,0,-1,1091,1394,0,0
-126,-370,0,0,0,0,0,0,0,0,0,-1,1098,1394,0,0
-119,-370,0,0,0,0,0,0,0,0,0,-1,1105,1394,0,0
-112,-370,0,0,0,0,0,0,0,0,0,-1,1112,1394,0,0
-105,-370,0,0,0,0,0,0,0,0,0,-1,1119,1394,0,0
-98,-370,0,0,0,0,0,0,0,0,0,-1,1126,1394,0,0
-91,-370,0,0,0,0,0,0,0,0,0,-1,1133,1394,0,0
-84,-370,0,0,0,0,0,0,0,0,0,-1,1140,1394,0,0
-77,-370,0,0,0,0,0,0,0,0,0,-1,1147,1394,0,0
-70,-370,0,0,0,0,0,0,0,0,0,-1,1154,1394,0,0
-63,-370,0,0,0,0,0,0,0,0,0,-1,1161,1394,0,0
-56,-370,0,0,0,0,0,0,0,0,0,-1,1168,1394,0,0
-49,-370,0,0,0,0,0,0,0,0,0,-1,1175,1394,0,0
-42,-370,0,0,0,0,0,0,0,0,0,-1,1182,1394,0,0
-35,-370,0,0,0,0,0,0,0,0,0,-1,1189,1394,0,0
-28,-370,0,0,0,0,0,0,0,0,0,-1,1196,1394,0,0
-21,-370,0,0,0,0,0,0,0,0,0,-1,1203,1394,0,0
-14,-370,0,0,0,0,0,0,0,0,0,-1,1210,1394,0,0
-7,-370,0,0,0,0,0,0,0,0,0,-1,1217,1394,0,0
0,-370,0,0,0,0,0,0,0,0,0,-1,1224,1394,0,0
7,-370,0,0,0,0,0,0,0,0,0,-1,1231,1394,0,0
14,-370,0,0,0,0,0,0,0,0,0,-1,1238,1394,0,0
21,-370,0,0,0,0,0,0,0,0,0,-1,1245,1394,0,0
28,-370,0,0,0,0,0,0,0,0,0,-1,1252,1394,0,0
35,-370,0,0,0,0,0,0,0,0,0,-1,1259,1394,0,0
42,-370,0,0,0,0,0,0,0,0,0,-1,1266,1394,0,0
49,-370,0,0,0,0,0,0,0,0,0,-1,1273,1394,0,0
56,-370,0,0,0,0,0,0,0,0,0,-1,1280,1394,0,0
63,-370,0,0,0,0,0,0,0,0,0,-1,1287,1394,0,0
70,-370,0,0,0,0,0,0,0,0,0,-1,1294,1394,0,0
77,-370,0,0,0,0,0,0,0,0,0,-1,1301,1394,0,0
84,-370,0,0,0,0,0,0,0,0,0,-1,1308,1394,0,0
91,-370,0,0,0,0,0,0,0,0,0,-1,1315,1394,0,0
98,-370,0,0,0,0,0,0,0,0,0,-1,1322,1394,0,0
105,-370,0,0,0,0,0,0,0,0,0,-1,1329,1394,0,0
112,-370,0,0,0,0,0,0,0,0,0,-1,1336,1394,0,0
119,-370,0,0,0,0,0,0,0,0,0,-1,1343,1394,0,0
126,-370,0,0,0,0,0,0,0,0,0,-1,1350,1394,0,0
133,-370,0,0,0,0,0,0,0,0,0,-1,1357,1394,0,0
140,-370,0,0,0,0,0,0,0,0,0,-1,1364,1394,0,0
147,-370,0,0,0,0,0,0,0,0,0,-1,1371,1394,0,0
154,-370,0,0,0,0,0,0,0,0,0,-1,1378,1394,0,0
161,-370,0,0,0,0,0,0,0,0,0,-1,1385,1394,0,0
168,-370,0,0,0,0,0,0,0,0,0,-1,1392,1394,0,0
175,-370,0,0,0,0,0,0,0,0,0,-1,1399,1394,0,0
182,-370,0,0,0,0,0,0,0,0,0,-1,1406,1394,0,0
189,-370,0,0,0,0,0,0,0,0,0,-1,1413,1394,0,0
196,-370,0,0,0,0,0,0,0,0,0,-1,1420,1394,0,0
203,-370,0,0,0,0,0,0,0,0,0,-1,1427,1394,0,0
210,-370,0,0,0,0,0,0,0,0,0,-1,1434,1394,0,0
217,-370,0,0,0,0,0,0,0,0,0,-1,1441,1394,0,0
224,-370,0,0,0,0,0,0,0,0,0,-1,1448,1394,0,0
231,-370,0,0,0,0,0,0,0,0,0,-1,1455,1394,0,0
238,-370,0,0,0,0,0,0,0,0,0,-1,1462,1394,0,0
245,-370,0,0,0,0,0,0,0,0,0,-1,1469,1394,0,0
252,-370,0,0,0,0,0,0,0,0,0,-1,1476,1394,0,0
259,-370,0,0,0,0,0,0,0,0,0,-1,1483,1394,0,0
266,-370,0,0,0,0,0,0,0,0,0,-1,1490,1394,0,0
273,-370,0,0,0,0,0,0,0,0,0,-1,1497,1394,0,0
280,-370,0,0,0,0,0,0,0,0,0,-1,1504,1394,0,0
287,-370,0,0,0,0,0,0,0,0,0,-1,1511,1394,0,0
294,-370,0,0,0,0,0,0,0,0,0,-1,1518,1394,0,0
301,-370,0,0,0,0,0,0,0,0,0,-1,1525,1394,0,0
308,-370,0,0,0,0,0,0,0,0,0,-1,1532,1394,0,0
315,-370,0,0,0,0,0,0,0,0,0,-1,1539,1394,0,0
322,-370,0,0,0,0,0,0,0,0,0,-1,1546,1394,0,0
329,-370,0,0,0,0,0,0,0,0,0,-1,1553,1394,0,0
336,-370,0,0,0,0,0,0,0,0,0,-1,1560,1394,0,0
343,-370,0,0,0,0,0,0,0,0,0,-1,1567,1394,0,0
350,-370,0,0,0,0,0,0,0,0,0,-1,1574,1394,0,0
357,-370,0,0,0,0,0,0,0,0,0,-1,1581,1394,0,0
364,-370,0,0,0,0,0,0,0,0,0,-1,1588,1394,0,0
371,-370,0,0,0,0,0,0,0,0,0,-1,1595,1394,0,0
378,-370,0,0,0,0,0,0,0,0,0,-1,1602,1394,0,0
385,-370,0,0,0,0,0,0,0,0,0,-1,1609,1394,0,0
392,-370,0,0,0,0,0,0,0,0,0,-1,1616,1394,0,0
399,-370,0,0,0,0,0,0,0,0,0,-1,1623,1394,0,0
406,-370,0,0,0,0,0,0,0,0,0,-1,1630,1394,0,0
413,-370,0,0,0,0,0,0,0,0,0,-1,1637,1394,0,0
420,-370,0,0,0,0,0,0,0,0,0,-1,1644,1394,0,0
427,-370,0,0,0,0,0,0,0,0,0,-1,1651,1394,0,0
434,-370,0,0,0,0,0,0,0,0,0,-1,1658,1394,0,0
441,-370,0,0,0,0,0,0,0,0,0,-1,1665,1394,0,0
448,-370,0,0,0,0,0,0,0,0,0,-1,1672,1394,0,0
455,-370,0,0,0,0,0,0,0,0,0,-1,1679,1394,0,0
462,-370,0,0,0,0,0,0,0,0,0,-1,1686,1394,0,0
469,-370,0,0,0,0,0,0,0,0,0,-1,1693,1394,0,0
476,-370,0,0,0,0,0,0,0,0,0,-1,1700,1394,0,0
483,-370,0,0,0,0,0,0,0,0,0,-1,1707,1394,0,0
490,-370,0,0,0,0,0,0,0,0,0,-1,1714,1394,0,0
497,-370,0,0,0,0,0,0,0,0,0,-1,1721,1394,0,0
504,-370,0,0,0,0,0,0,0,0,0,-1,1728,1394,0,0
511,-370,0,0,0,0,0,0,0,0,0,-1,1735,1394,0,0
518,-370,0,0,0,0,0,0,0,0,0,-1,1742,1394,0,0
525,-370,0,0,0,0,0,0,0,0,0,-1,1749,1394,0,0
532,-370,0,0,0,0,0,0,0,0,0,-1,1756,1394,0,0
539,-370,0,0,0,0,0,0,0,0,0,-1,1763,1394,0,0
546,-370,27.4949,2.81201,0,0,0,0,0,0,0,-1,1770,1394,27.4948,-2.81198
553,-370,26.5985,1.99329,0,0,0,0,0,0,0,-1,1777,1394,26.5985,-1.99327
560,-370,46.0132,3.65686,0,0,0,0,0,0,0,-1,1784,1394,46.0132,-3.65689
567,-370,46.1089,3.11719,0,0,0,0,0,0,0,-1,1791,1394,46.1089,-3.1172
574,-370,38.8953,1.49353,0,0,0,0,0,0,0,-1,1798,1394,38.8952,-1.49348
581,-370,39.178,2.86145,0,0,0,0,0,0,0,-1,1805,1394,39.1779,-2.86145
588,-370,39.2102,4.27661,0,0,0,0,0,0,0,-1,1812,1394,39.2102,-4.27657
595,-370,25.793,4.5271,0,0,0,0,0,0,0,-1,1819,1394,25.793,-4.52711
602,-370,25.1077,5.34937,0,0,0,0,0,0,0,-1,1826,1394,25.1077,-5.34932
609,-370,16.712,0.993286,0,0,0,0,0,0,0,-1,1833,1394,16.7121,-0.99323
616,-370,16.7764,7.23315,0,0,0,0,0,0,0,-1,1840,1394,16.7764,-7.23313
623,-370,17.6625,8.94263,0,0,0,0,0,0,0,-1,1847,1394,17.6624,-8.94258
630,-370,20.9681,11.1785,0,0,0,0,0,0,0,-1,1854,1394,20.9681,-11.1784
637,-370,28.5533,13.9138,0,0,0,0,0,0,0,-1,1861,1394,28.5534,-13.9138
644,-370,28.5464,13.3956,-0.000127058,0.00137658,-0.00156228,0.00235853,-0.001109,-1.00966,0.00204485,0.0139227,1868,1394,28.5464,-13.3956
651,-370,28.5269,12.8853,-8.66145e-05,0.000769184,-0.000896397,0.00133457,-0.000652005,-1.00808,0.0011693,0.0131613,1875,1394,28.5269,-12.8853
658,-370,28.5134,12.403,0.00030265,0.000287524,-0.000397079,0.000692238,-0.000102064,-0.775876,0.000499005,0.012251,1882,1394,28.5134,-12.4029
665,-370,28.4883,11.9265,0.000818628,-0.000173211,4.13973e-05,0.000820353,-0.000174936,0.0416414,0.000613583,0.0130981,1889,1394,28.4883,-11.9265
672,-370,28.4596,11.4279,0.00147623,-0.000627925,0.000434395,0.00156238,-0.000714077,0.195785,0.00134439,0.0144624,1896,1394,28.4596,-11.4279
679,-370,28.4636,10.9362,0.00231081,-0.00104625,0.000750959,0.00247114,-0.00120658,0.210341,0.00216476,0.0141756,1903,1394,28.4637,-10.9362
686,-370,28.4459,10.4507,0.00330517,-0.00148672,0.00103236,0.00351812,-0.00169967,0.20342,0.00307287,0.0145792,1910,1394,28.4459,-10.4507
693,-370,28.4309,9.93127,0.00453175,-0.00188785,0.00122466,0.00475745,-0.00211354,0.182245,0.00406368,0.0131345,1917,1394,28.4309,-9.93128
700,-370,28.616,9.38477,0.00607424,-0.00222922,0.00128586,0.00626881,-0.00242379,0.150173,0.00517974,0.0341123,1924,1394,28.616,-9.38472
707,-370,28.9656,8.76563,0,0,0,0,0,0,0,-1,1931,1394,28.9656,-8.7656
714,-370,16.9116,5.93018,0,0,0,0,0,0,0,-1,1938,1394,16.9116,-5.93014
721,-370,17.2007,4.69153,0,0,0,0,0,0,0,-1,1945,1394,17.2007,-4.69158
728,-370,20.5315,-0.313354,0,0,0,0,0,0,0,-1,1952,1394,20.5315,0.313332
735,-370,22.3652,0.233398,0,0,0,0,0,0,0,-1,1959,1394,22.3652,-0.233355
742,-370,24.1989,0.780029,0,0,0,0,0,0,0,-1,1966,1394,24.1989,-0.780041
749,-370,0,0,0,0,0,0,0,0,0,-1,1973,1394,0,0
756,-370,0,0,0,0,0,0,0,0,0,-1,1980,1394,0,0
763,-370,0,0,0,0,0,0,0,0,0,-1,1987,1394,0,0
770,-370,0,0,0,0,0,0,0,0,0,-1,1994,1394,0,0
777,-370,0,0,0,0,0,0,0,0,0,-1,2001,1394,0,0
784,-370,0,0,0,0,0,0,0,0,0,-1,2008,1394,0,0
791,-370,0,0,0,0,0,0,0,0,0,-1,2015,1394,0,0
798,-370,0,0,0,0,0,0,0,0,0,-1,2022,1394,0,0
805,-370,0,0,0,0,0,0,0,0,0,-1,2029,1394,0,0
812,-370,0,0,0,0,0,0,0,0,0,-1,2036,1394,0,0
-700,-377,0,0,0,0,0,0,0,0,0,-1,524,1401,0,0
-693,-377,0,0,0,0,0,0,0,0,0,-1,531,1401,0,0
-686,-377,0,0,0,0,0,0,0,0,0,-1,538,1401,0,0
-679,-377,0,0,0,0,0,0,0,0,0,-1,545,1401,0,0
-672,-377,0,0,0,0,0,0,0,0,0,-1,552,1401,0,0
-665,-377,0,0,0,0,0,0,0,0,0,-1,559,1401,0,0
-658,-377,0,0,0,0,0,0,0,0,0,-1,566,1401,0,0
-651,-377,0,0,0,0,0,0,0,0,0,-1,573,1401,0,0
-644,-377,0,0,0,0,0,0,0,0,0,-1,580,1401,0,0
-637,-377,0,0,0,0,0,0,0,0,0,-1,587,1401,0,0
-630,-377,0,0,0,0,0,0,0,0,0,-1,594,1401,0,0
-623,-377,0,0,0,0,0,0,0,0,0,-1,601,1401,0,0
-616,-377,-9.43915,-2.4906,0,0,0,0,0,0,0,-1,608,1401,-9.43915,2.49062
-609,-377,-7.2821,-1.35278,0,0,0,0,0,0,0,-1,615,1401,-7.28208,1.35279
-602,-377,-14.9736,3.98279,0,0,0,0,0,0,0,-1,622,1401,-14.9737,-3.98276
-595,-377,-6.9082,1.18201,0,0,0,0,0,0,0,-1,629,1401,-6.90822,-1.18204
-588,-377,-12.8003,3.44751,0,0,0,0,0,0,0,-1,636,1401,-12.8003,-3.44754
-581,-377,-11.8243,6.21521,0,0,0,0,0,0,0,-1,643,1401,-11.8244,-6.21519
-574,-377,-12.2761,6.60547,0,0,0,0,0,0,0,-1,650,1401,-12.2761,-6.60552
-567,-377,-13.4844,7.41931,0,0,0,0,0,0,0,-1,657,1401,-13.4845,-7.41926
-560,-377,-13.7953,7.95837,0.00443018,-0.0015551,4.99245e-05,0.00443059,-0.00155551,0.00834044,0.00358649,0.0497757,664,1401,-13.7953,-7.95831
-553,-377,-13.616,8.33496,0.0035644,-0.00104519,7.18765e-05,0.00356552,-0.00104631,0.0155878,0.00279192,0.0141523,671,1401,-13.616,-8.33498
-546,-377,-13.6245,8.96362,0.0029139,-0.000660894,0.000133791,0.0029189,-0.000665894,0.0373566,0.00220172,0.015654,678,1401,-13.6245,-8.96361
-539,-377,-13.6007,9.5011,0.00250412,-0.00032109,0.000266189,0.00252898,-0.000345952,0.0931271,0.00181234,0.0222443,685,1401,-13.6007,-9.50107
-532,-377,-13.655,10.0026,0.0023559,8.72053e-06,0.000495677,0.00245628,-9.16636e-05,0.199816,0.00166891,0.0216901,692,1401,-13.6549,-10.0026
-525,-377,-13.6035,10.5461,0.00251366,0.000435227,0.000898421,0.00284817,0.000100715,0.356431,0.00186611,0.0207156,699,1401,-13.6035,-10.5461
-518,-377,-13.6587,11.0684,0.00296537,0.000981094,0.00147755,0.00375298,0.000193484,0.489737,0.00244005,0.013386,706,1401,-13.6587,-11.0684
-511,-377,-13.674,11.6179,0.00368557,0.001643,0.00221925,0.00510725,0.00022132,0.569748,0.00333351,0.0108354,713,1401,-13.6739,-11.618
-504,-377,-13.7079,12.1729,0.00496186,0.00244095,0.00325669,0.0071935,0.000209305,0.600758,0.00472745,0.0148537,720,1401,-13.7079,-12.1729
-497,-377,-13.7332,12.7163,0,0,0,0,0,0,0,-1,727,1401,-13.7332,-12.7163
-490,-377,-8.88409,10.1245,0,0,0,0,0,0,0,-1,734,1401,-8.8841,-10.1245
-483,-377,-5.6524,5.07324,0,0,0,0,0,0,0,-1,741,1401,-5.6524,-5.07325
-476,-377,-6.11682,5.10535,0,0,0,0,0,0,0,-1,748,1401,-6.11681,-5.10537
-469,-377,-10.3211,1.9281,0,0,0,0,0,0,0,-1,755,1401,-10.3211,-1.92808
-462,-377,-9.2204,1.0022,0,0,0,0,0,0,0,-1,762,1401,-9.22039,-1.00218
-455,-377,-8.11969,0.0762939,0,0,0,0,0,0,0,-1,769,1401,-8.11968,-0.0762759
-448,-377,-9.05334,0.877319,0,0,0,0,0,0,0,-1,776,1401,-9.05332,-0.877324
-441,-377,-11.212,0.763428,0,0,0,0,0,0,0,-1,783,1401,-11.212,-0.763415
-434,-377,-11.0984,0.996216,0,0,0,0,0,0,0,-1,790,1401,-11.0984,-0.996265
-427,-377,-11.1733,1.25732,0,0,0,0,0,0,0,-1,797,1401,-11.1733,-1.25732
-420,-377,0,0,0,0,0,0,0,0,0,-1,804,1401,0,0
-413,-377,0,0,0,0,0,0,0,0,0,-1,811,1401,0,0
-406,-377,0,0,0,0,0,0,0,0,0,-1,818,1401,0,0
-399,-377,0,0,0,0,0,0,0,0,0,-1,825,1401,0,0
-392,-377,0,0,0,0,0,0,0,0,0,-1,832,1401,0,0
-385,-377,0,0,0,0,0,0,0,0,0,-1,839,1401,0,0
-378,-377,0,0,0,0,0,0,0,0,0,-1,846,1401,0,0
-371,-377,0,0,0,0,0,0,0,0,0,-1,853,1401,0,0
-364,-377,0,0,0,0,0,0,0,0,0,-1,860,1401,0,0
-357,-377,0,0,0,0,0,0,0,0,0,-1,867,1401,0,0
-350,-377,0,0,0,0,0,0,0,0,0,-1,874,1401,0,0
-343,-377,0,0,0,0,0,0,0,0,0,-1,881,1401,0,0
-336,-377,0,0,0,0,0,0,0,0,0,-1,888,1401,0,0
-329,-377,0,0,0,0,0,0,0,0,0,-1,895,1401,0,0
-322,-377,0,0,0,0,0,0,0,0,0,-1,902,1401,0,0
-315,-377,0,0,0,0,0,0,0,0,0,-1,909,1401,0,0
-308,-377,0,0,0,0,0,0,0,0,0,-1,916,1401,0,0
-301,-377,0,0,0,0,0,0,0,0,0,-1,923,1401,0,0
-294,-377,0,0,0,0,0,0,0,0,0,-1,930,1401,0,0
-287,-377,0,0,0,0,0,0,0,0,0,-1,937,1401,0,0
-280,-377,0,0,0,0,0,0,0,0,0,-1,944,1401,0,0
-273,-377,0,0,0,0,0,0,0,0,0,-1,951,1401,0,0
-266,-377,0,0,0,0,0,0,0,0,0,-1,958,1401,0,0
-259,-377,0,0,0,0,0,0,0,0,0,-1,965,1401,0,0
-252,-377,0,0,0,0,0,0,0,0,0,-1,972,1401,0,0
-245,-377,0,0,0,0,0,0,0,0,0,-1,979,1401,0,0
-238,-377,0,0,0,0,0,0,0,0,0,-1,986,1401,0,0
-231,-377,0,0,0,0,0,0,0,0,0,-1,993,1401,0,0
-224,-377,0,0,0,0,0,0,0,0,0,-1,1000,1401,0,0
-217,-377,0,0,0,0,0,0,0,0,0,-1,1007,1401,0,0
-210,-377,0,0,0,0,0,0,0,0,0,-1,1014,1401,0,0
-203,-377,0,0,0,0,0,0,0,0,0,-1,1021,1401,0,0
-196,-377,0,0,0,0,0,0,0,0,0,-1,1028,1401,0,0
-189,-377,0,0,0,0,0,0,0,0,0,-1,1035,1401,0,0
-182,-377,0,0,0,0,0,0,0,0,0,-1,1042,1401,0,0
-175,-377,0,0,0,0,0,0,0,0,0,-1,1049,1401,0,0
-168,-377,0,0,0,0,0,0,0,0,0,-1,1056,1401,0,0
-161,-377,0,0,0,0,0,0,0,0,0,-1,1063,1401,0,0
-154,-377,0,0,0,0,0,0,0,0,0,-1,1070,1401,0,0
-147,-377,0,0,0,0,0,0,0,0,0,-1,1077,1401,0,0
-140,-377,0,0,0,0,0,0,0,0,0,-1,1084,1401,0,0
-133,-377,0,0,0,0,0,0,0,0,0,-1,1091,1401,0,0
-126,-377,0,0,0,0,0,0,0,0,0,-1,1098,1401,0,0
-119,-377,0,0,0,0,0,0,0,0,0,-1,1105,1401,0,0
-112,-377,0,0,0,0,0,0,0,0,0,-1,1112,1401,0,0
-105,-377,0,0,0,0,0,0,0,0,0,-1,1119,1401,0,0
-98,-377,0,0,0,0,0,0,0,0,0,-1,1126,1401,0,0
-91,-377,0,0,0,0,0,0,0,0,0,-1,1133,1401,0,0
-84,-377,0,0,0,0,0,0,0,0,0,-1,1140,1401,0,0
-77,-377,0,0,0,0,0,0,0,0,0,-1,1147,1401,0,0
-70,-377,0,0,0,0,0,0,0,0,0,-1,1154,1401,0,0
-63,-377,0,0,0,0,0,0,0,0,0,-1,1161,1401,0,0
-56,-377,0,0,0,0,0,0,0,0,0,-1,1168,1401,0,0
-49,-377,0,0,0,0,0,0,0,0,0,-1,1175,1401,0,0
-42,-377,0,0,0,0,0,0,0,0,0,-1,1182,1401,0,0
-35,-377,0,0,0,0,0,0,0,0,0,-1,1189,1401,0,0
-28,-377,0,0,0,0,0,0,0,0,0,-1,1196,1401,0,0
-21,-377,0,0,0,0,0,0,0,0,0,-1,1203,1401,0,0
-14,-377,0,0,0,0,0,0,0,0,0,-1,1210,1401,0,0
-7,-377,0,0,0,0,0,0,0,0,0,-1,1217,1401,0,0
0,-377,0,0,0,0,0,0,0,0,0,-1,1224,1401,0,0
7,-377,0,0,0,0,0,0,0,0,0,-1,1231,1401,0,0
14,-377,0,0,0,0,0,0,0,0,0,-1,1238,1401,0,0
21,-377,0,0,0,0,0,0,0,0,0,-1,1245,1401,0,0
28,-377,0,0,0,0,0,0,0,0,0,-1,1252,1401,0,0
35,-377,0,0,0,0,0,0,0,0,0,-1,1259,1401,0,0
42,-377,0,0,0,0,0,0,0,0,0,-1,1266,1401,0,0
49,-377,0,0,0,0,0,0,0,0,0,-1,1273,1401,0,0
56,-377,0,0,0,0,0,0,0,0,0,-1,1280,1401,0,0
63,-377,0,0,0,0,0,0,0,0,0,-1,1287,1401,0,0
70,-377,0,0,0,0,0,0,0,0,0,-1,1294,1401,0,0
77,-377,0,0,0,0,0,0,0,0,0,-1,1301,1401,0,0
84,-377,0,0,0,0,0,0,0,0,0,-1,1308,1401,0,0
91,-377,0,0,0,0,0,0,0,0,0,-1,1315,1401,0,0
98,-377,0,0,0,0,0,0,0,0,0,-1,1322,1401,0,0
105,-377,0,0,0,0,0,0,0,0,0,-1,1329,1401,0,0
112,-377,0,0,0,0,0,0,0,0,0,-1,1336,1401,0,0
119,-377,0,0,0,0,0,0,0,0,0,-1,1343,1401,0,0
126,-377,0,0,0,0,0,0,0,0,0,-1,1350,1401,0,0
133,-377,0,0,0,0,0,0,0,0,0,-1,1357,1401,0,0
140,-377,0,0,0,0,0,0,0,0,0,-1,1364,1401,0,0
147,-377,0,0,0,0,0,0,0,0,0,-1,1371,1401,0,0
154,-377,0,0,0,0,0,0,0,0,0,-1,1378,1401,0,0
161,-377,0,0,0,0,0,0,0,0,0,-1,1385,1401,0,0
168,-377,0,0,0,0,0,0,0,0,0,-1,1392,1401,0,0
175,-377,0,0,0,0,0,0,0,0,0,-1,1399,1401,0,0
182,-377,0,0,0,0,0,0,0,0,0,-1,1406,1401,0,0
189,-377,0,0,0,0,0,0,0,0,0,-1,1413,1401,0,0
196,-377,0,0,0,0,0,0,0,0,0,-1,1420,1401,0,0
203,-377,0,0,0,0,0,0,0,0,0,-1,1427,1401,0,0
210,-377,0,0,0,0,0,0,0,0,0,-1,1434,1401,0,0
217,-377,0,0,0,0,0,0,0,0,0,-1,1441,1401,0,0
224,-377,0,0,0,0,0,0,0,0,0,-1,1448,1401,0,0
231,-377,0,0,0,0,0,0,0,0,0,-1,1455,1401,0,0
238,-377,0,0,0,0,0,0,0,0,0,-1,1462,1401,0,0
245,-377,0,0,0,0,0,0,0,0,0,-1,1469,1401,0,0
252,-377,0,0,0,0,0,0,0,0,0,-1,1476,1401,0,0
259,-377,0,0,0,0,0,0,0,0,0,-1,1483,1401,0,0
266,-377,0,0,0,0,0,0,0,0,0,-1,1490,1401,0,0
273,-377,0,0,0,0,0,0,0,0,0,-1,1497,1401,0,0
280,-377,0,0,0,0,0,0,0,0,0,-1,1504,1401,0,0
287,-377,0,0,0,0,0,0,0,0,0,-1,1511,1401,0,0
294,-377,0,0,0,0,0,0,0,0,0,-1,1518,1401,0,0
301,-377,0,0,0,0,0,0,0,0,0,-1,1525,1401,0,0
308,-377,0,0,0,0,0,0,0,0,0,-1,1532,1401,0,0
315,-377,0,0,0,0,0,0,0,0,0,-1,1539,1401,0,0
322,-377,0,0,0,0,0,0,0,0,0,-1,1546,1401,0,0
329,-377,0,0,0,0,0,0,0,0,0,-1,1553,1401,0,0
336,-377,0,0,0,0,0,0,0,0,0,-1,1560,1401,0,0
343,-377,0,0,0,0,0,0,0,0,0,-1,1567,1401,0,0
350,-377,0,0,0,0,0,0,0,0,0,-1,1574,1401,0,0
357,-377,0,0,0,0,0,0,0,0,0,-1,1581,1401,0,0
364,-377,0,0,0,0,0,0,0,0,0,-1,1588,1401,0,0
371,-377,0,0,0,0,0,0,0,0,0,-1,1595,1401,0,0
378,-377,0,0,0,0,0,0,0,0,0,-1,1602,1401,0,0
385,-377,0,0,0,0,0,0,0,0,0,-1,1609,1401,0,0
392,-377,0,0,0,0,0,0,0,0,0,-1,1616,1401,0,0
399,-377,0,0,0,0,0,0,0,0,0,-1,1623,1401,0,0
406,-377,0,0,0,0,0,0,0,0,0,-1,1630,1401,0,0
413,-377,0,0,0,0,0,0,0,0,0,-1,1637,1401,0,0
420,-377,0,0,0,0,0,0,0,0,0,-1,1644,1401,0,0
427,-377,0,0,0,0,0,0,0,0,0,-1,1651,1401,0,0
434,-377,0,0,0,0,0,0,0,0,0,-1,1658,1401,0,0
441,-377,0,0,0,0,0,0,0,0,0,-1,1665,1401,0,0
448,-377,0,0,0,0,0,0,0,0,0,-1,1672,1401,0,0
455,-377,0,0,0,0,0,0,0,0,0,-1,1679,1401,0,0
462,-377,0,0,0,0,0,0,0,0,0,-1,1686,1401,0,0
469,-377,0,0,0,0,0,0,0,0,0,-1,1693,1401,0,0
476,-377,0,0,0,0,0,0,0,0,0,-1,1700,1401,0,0
483,-377,0,0,0,0,0,0,0,0,0,-1,1707,1401,0,0
490,-377,0,0,0,0,0,0,0,0,0,-1,1714,1401,0,0
497,-377,0,0,0,0,0,0,0,0,0,-1,1721,1401,0,0
504,-377,0,0,0,0,0,0,0,0,0,-1,1728,1401,0,0
511,-377,0,0,0,0,0,0,0,0,0,-1,1735,1401,0,0
518,-377,0,0,0,0,0,0,0,0,0,-1,1742,1401,0,0
525,-377,0,0,0,0,0,0,0,0,0,-1,1749,1401,0,0
532,-377,0,0,0,0,0,0,0,0,0,-1,1756,1401,0,0
539,-377,0,0,0,0,0,0,0,0,0,-1,1763,1401,0,0
546,-377,27.8485,2.34094,0,0,0,0,0,0,0,-1,1770,1401,27.8486,-2.34091
553,-377,27.2189,2.42493,0,0,0,0,0,0,0,-1,1777,1401,27.2188,-2.42498
560,-377,38.3577,-2.15015,0,0,0,0,0,0,0,-1,1784,1401,38.3576,2.1501
567,-377,38.4889,-0.285645,0,0,0,0,0,0,0,-1,1791,1401,38.4889,0.2857
574,-377,38.6221,1.61694,0,0,0,0,0,0,0,-1,1798,1401,38.6221,-1.61689
581,-377,39.1818,3.76367,0,0,0,0,0,0,0,-1,1805,1401,39.1818,-3.76366
588,-377,25.882,4.35217,0,0,0,0,0,0,0,-1,1812,1401,25.8819,-4.3522
595,-377,25.5392,5.11804,0,0,0,0,0,0,0,-1,1819,1401,25.5392,-5.11808
602,-377,24.816,5.79126,0,0,0,0,0,0,0,-1,1826,1401,24.816,-5.79124
609,-377,15.0223,4.76135,0,0,0,0,0,0,0,-1,1833,1401,15.0224,-4.76129
616,-377,14.1842,5.78992,0,0,0,0,0,0,0,-1,1840,1401,14.1842,-5.78987
623,-377,15.8248,8.76721,0,0,0,0,0,0,0,-1,1847,1401,15.8248,-8.76725
630,-377,27.6561,14.6982,0,0,0,0,0,0,0,-1,1854,1401,27.6561,-14.6982
637,-377,27.9552,13.9579,0.000280329,0.00119573,-0.0015615,0.00236522,-0.000889167,-0.927963,0.00194228,0.032551,1861,1401,27.9552,-13.9579
644,-377,28.038,13.4193,0.000172361,0.00102771,-0.00116812,0.00184399,-0.000643917,-0.96088,0.00149106,0.0134262,1868,1401,28.0379,-13.4193
651,-377,28.0092,12.896,0.000254127,0.000523354,-0.000594295,0.000998091,-0.000220609,-0.896774,0.000749827,0.0148223,1875,1401,28.0091,-12.896
658,-377,27.9989,12.4225,0.000578855,7.81343e-05,-0.000119615,0.000605962,5.10273e-05,-0.222854,0.000388085,0.015779,1882,1401,27.999,-12.4224
665,-377,28.0137,11.9165,0.0010394,-0.000370562,0.000328533,0.0011122,-0.000443355,0.218046,0.000925356,0.0182839,1889,1401,28.0136,-11.9165
672,-377,27.9917,11.4166,0.00165561,-0.000859919,0.000765358,0.00187017,-0.00107448,0.273326,0.00172066,0.0179457,1896,1401,27.9917,-11.4166
679,-377,27.9509,10.9475,0.00244923,-0.00135743,0.0011641,0.002777,-0.0016852,0.274457,0.00260183,0.0180507,1903,1401,27.951,-10.9475
686,-377,27.9385,10.4839,0.00341653,-0.00196514,0.00159005,0.00385121,-0.00239982,0.266856,0.00364132,0.0158749,1910,1401,27.9385,-10.4839
693,-377,27.9775,9.9613,0.00467787,-0.00258867,0.00195105,0.00516859,-0.00307938,0.246402,0.00481262,0.0152849,1917,1401,27.9776,-9.96128
700,-377,28.2786,9.49011,0,0,0,0,0,0,0,-1,1924,1401,28.2786,-9.49007
707,-377,27.5404,9.08911,0,0,0,0,0,0,0,-1,1931,1401,27.5405,-9.08908
714,-377,16.5369,5.45959,0,0,0,0,0,0,0,-1,1938,1401,16.5369,-5.4596
721,-377,17.0913,5.42529,0,0,0,0,0,0,0,-1,1945,1401,17.0914,-5.42529
728,-377,14.5396,2.79724,0,0,0,0,0,0,0,-1,1952,1401,14.5396,-2.7972
735,-377,23.2977,-0.991089,0,0,0,0,0,0,0,-1,1959,1401,23.2978,0.991076
742,-377,0,0,0,0,0,0,0,0,0,-1,1966,1401,0,0
749,-377,0,0,0,0,0,0,0,0,0,-1,1973,1401,0,0
756,-377,0,0,0,0,0,0,0,0,0,-1,1980,1401,0,0
763,-377,0,0,0,0,0,0,0,0,0,-1,1987,1401,0,0
770,-377,0,0,0,0,0,0,0,0,0,-1,1994,1401,0,0
777,-377,0,0,0,0,0,0,0,0,0,-1,2001,1401,0,0
784,-377,0,0,0,0,0,0,0,0,0,-1,2008,1401,0,0
791,-377,0,0,0,0,0,0,0,0,0,-1,2015,1401,0,0
798,-377,0,0,0,0,0,0,0,0,0,-1,2022,1401,0,0
805,-377,0,0,0,0,0,0,0,0,0,-1,2029,1401,0,0
812,-377,0,0,0,0,0,0,0,0,0,-1,2036,1401,0,0
-700,-384,0,0,0,0,0,0,0,0,0,-1,524,1408,0,0
-693,-384,0,0,0,0,0,0,0,0,0,-1,531,1408,0,0
-686,-384,0,0,0,0,0,0,0,0,0,-1,538,1408,0,0
-679,-384,0,0,0,0,0,0,0,0,0,-1,545,1408,0,0
-672,-384,0,0,0,0,0,0,0,0,0,-1,552,1408,0,0
-665,-384,0,0,0,0,0,0,0,0,0,-1,559,1408,0,0
-658,-384,0,0,0,0,0,0,0,0,0,-1,566,1408,0,0
-651,-384,0,0,0,0,0,0,0,0,0,-1,573,1408,0,0
-644,-384,0,0,0,0,0,0,0,0,0,-1,580,1408,0,0
-637,-384,0,0,0,0,0,0,0,0,0,-1,587,1408,0,0
-630,-384,0,0,0,0,0,0,0,0,0,-1,594,1408,0,0
-623,-384,0,0,0,0,0,0,0,0,0,-1,601,1408,0,0
-616,-384,-10.019,-3.36646,0,0,0,0,0,0,0,-1,608,1408,-10.019,3.36648
-609,-384,-7.72357,-2.3418,0,0,0,0,0,0,0,-1,615,1408,-7.72358,2.34182
-602,-384,-11.7632,-2.85156,0,0,0,0,0,0,0,-1,622,1408,-11.7632,2.85157
-595,-384,-10.2217,2.8855,0,0,0,0,0,0,0,-1,629,1408,-10.2218,-2.88548
-588,-384,-12.1653,2.29041,0,0,0,0,0,0,0,-1,636,1408,-12.1654,-2.29038
-581,-384,-11.9297,3.60376,0,0,0,0,0,0,0,-1,643,1408,-11.9298,-3.6038
-574,-384,-11.8677,6.02722,0,0,0,0,0,0,0,-1,650,1408,-11.8677,-6.02722
-567,-384,-12.0743,7.04639,0,0,0,0,0,0,0,-1,657,1408,-12.0743,-7.04641
-560,-384,-13.2029,7.89331,0,0,0,0,0,0,0,-1,664,1408,-13.203,-7.89333
-553,-384,-13.1234,8.36414,0.003398,-0.0012082,-0.000133559,0.00340187,-0.00121207,-0.028963,0.00276206,0.0349959,671,1408,-13.1234,-8.36419
-546,-384,-13.105,8.98315,0.00261466,-0.000810124,-9.54893e-05,0.00261732,-0.000812784,-0.027853,0.00206971,0.0146759,678,1408,-13.1051,-8.98315
-539,-384,-13.1295,9.51013,0.00212433,-0.000456225,2.18347e-05,0.00212451,-0.00045641,0.00846046,0.00159046,0.0174919,685,1408,-13.1295,-9.51019
-532,-384,-13.1064,9.96472,0.00192412,-0.00013122,0.00023159,0.00194989,-0.000156992,0.110826,0.00135529,0.0231879,692,1408,-13.1064,-9.96474
-525,-384,-13.1181,10.5309,0.00207483,0.000298702,0.000628732,0.00227487,9.86659e-05,0.308031,0.00148478,0.0225415,699,1408,-13.1181,-10.5309
-518,-384,-13.1595,11.1002,0.00254933,0.000860352,0.00121415,0.0031838,0.000225883,0.481535,0.00205139,0.0136247,706,1408,-13.1595,-11.1002
-511,-384,-13.1749,11.6503,0.00329014,0.00154803,0.00196018,0.00456409,0.000274086,0.576314,0.0029556,0.0105841,713,1408,-13.1749,-11.6503
-504,-384,-13.1735,12.2035,0.00449175,0.00240891,0.0029795,0.00660659,0.000294067,0.61727,0.00430972,0.0119918,720,1408,-13.1735,-12.2035
-497,-384,-13.1418,12.7755,0.00616454,0.00367572,0.00438748,0.00948067,0.000359592,0.647214,0.00620406,0.0388498,727,1408,-13.1418,-12.7755
-490,-384,-12.9856,13.4429,0,0,0,0,0,0,0,-1,734,1408,-12.9856,-13.4428
-483,-384,-6.26471,7.61194,0,0,0,0,0,0,0,-1,741,1408,-6.26469,-7.61191
-476,-384,-6.02734,5.67761,0,0,0,0,0,0,0,-1,748,1408,-6.02736,-5.6776
-469,-384,-10.206,2.63721,0,0,0,0,0,0,0,-1,755,1408,-10.206,-2.6372
-462,-384,-9.04291,1.43542,0,0,0,0,0,0,0,-1,762,1408,-9.04293,-1.43545
-455,-384,-7.87988,0.233765,0,0,0,0,0,0,0,-1,769,1408,-7.87986,-0.233709
-448,-384,-9.35529,7.19226,0,0,0,0,0,0,0,-1,776,1408,-9.35531,-7.19226
-441,-384,-10.4697,1.79004,0,0,0,0,0,0,0,-1,783,1408,-10.4697,-1.79003
-434,-384,-10.6449,0.552246,0,0,0,0,0,0,0,-1,790,1408,-10.6449,-0.552216
-427,-384,-10.968,1.10583,0,0,0,0,0,0,0,-1,797,1408,-10.968,-1.10588
-420,-384,-12.5607,4.54858,0,0,0,0,0,0,0,-1,804,1408,-12.5607,-4.54859
-413,-384,0,0,0,0,0,0,0,0,0,-1,811,1408,0,0
-406,-384,0,0,0,0,0,0,0,0,0,-1,818,1408,0,0
-399,-384,0,0,0,0,0,0,0,0,0,-1,825,1408,0,0
-392,-384,0,0,0,0,0,0,0,0,0,-1,832,1408,0,0
-385,-384,0,0,0,0,0,0,0,0,0,-1,839,1408,0,0
-378,-384,0,0,0,0,0,0,0,0,0,-1,846,1408,0,0
-371,-384,0,0,0,0,0,0,0,0,0,-1,853,1408,0,0
-364,-384,0,0,0,0,0,0,0,0,0,-1,860,1408,0,0
-357,-384,0,0,0,0,0,0,0,0,0,-1,867,1408,0,0
-350,-384,0,0,0,0,0,0,0,0,0,-1,874,1408,0,0
-343,-384,0,0,0,0,0,0,0,0,0,-1,881,1408,0,0
-336,-384,0,0,0,0,0,0,0,0,0,-1,888,1408,0,0
-329,-384,0,0,0,0,0,0,0,0,0,-1,895,1408,0,0
-322,-384,0,0,0,0,0,0,0,0,0,-1,902,1408,0,0
-315,-384,0,0,0,0,0,0,0,0,0,-1,909,1408,0,0
-308,-384,0,0,0,0,0,0,0,0,0,-1,916,1408,0,0
-301,-384,0,0,0,0,0,0,0,0,0,-1,923,1408,0,0
-294,-384,0,0,0,0,0,0,0,0,0,-1,930,1408,0,0
-287,-384,0,0,0,0,0,0,0,0,0,-1,937,1408,0,0
-280,-384,0,0,0,0,0,0,0,0,0,-1,944,1408,0,0
-273,-384,0,0,0,0,0,0,0,0,0,-1,951,1408,0,0
-266,-384,0,0,0,0,0,0,0,0,0,-1,958,1408,0,0
-259,-384,0,0,0,0,0,0,0,0,0,-1,965,1408,0,0
-252,-384,0,0,0,0,0,0,0,0,0,-1,972,1408,0,0
-245,-384,0,0,0,0,0,0,0,0,0,-1,979,1408,0,0
-238,-384,0,0,0,0,0,0,0,0,0,-1,986,1408,0,0
-231,-384,0,0,0,0,0,0,0,0,0,-1,993,1408,0,0
-224,-384,0,0,0,0,0,0,0,0,0,-1,1000,1408,0,0
-217,-384,0,0,0,0,0,0,0,0,0,-1,1007,1408,0,0
-210,-384,0,0,0,0,0,0,0,0,0,-1,1014,1408,0,0
-203,-384,0,0,0,0,0,0,0,0,0,-1,1021,1408,0,0
-196,-384,0,0,0,0,0,0,0,0,0,-1,1028,1408,0,0
-189,-384,0,0,0,0,0,0,0,0,0,-1,1035,1408,0,0
-182,-384,0,0,0,0,0,0,0,0,0,-1,1042,1408,0,0
-175,-384,0,0,0,0,0,0,0,0,0,-1,1049,1408,0,0
-168,-384,0,0,0,0,0,0,0,0,0,-1,1056,1408,0,0
-161,-384,0,0,0,0,0,0,0,0,0,-1,1063,1408,0,0
-154,-384,0,0,0,0,0,0,0,0,0,-1,1070,1408,0,0
-147,-384,0,0,0,0,0,0,0,0,0,-1,1077,1408,0,0
-140,-384,0,0,0,0,0,0,0,0,0,-1,1084,1408,0,0
-133,-384,0,0,0,0,0,0,0,0,0,-1,1091,1408,0,0
-126,-384,0,0,0,0,0,0,0,0,0,-1,1098,1408,0,0
-119,-384,0,0,0,0,0,0,0,0,0,-1,1105,1408,0,0
-112,-384,0,0,0,0,0,0,0,0,0,-1,1112,1408,0,0
-105,-384,0,0,0,0,0,0,0,0,0,-1,1119,1408,0,0
-98,-384,0,0,0,0,0,0,0,0,0,-1,1126,1408,0,0
-91,-384,0,0,0,0,0,0,0,0,0,-1,1133,1408,0,0
-84,-384,0,0,0,0,0,0,0,0,0,-1,1140,1408,0,0
-77,-384,0,0,0,0,0,0,0,0,0,-1,1147,1408,0,0
-70,-384,0,0,0,0,0,0,0,0,0,-1,1154,1408,0,0
-63,-384,0,0,0,0,0,0,0,0,0,-1,1161,1408,0,0
-56,-384,0,0,0,0,0,0,0,0,0,-1,1168,1408,0,0
-49,-384,0,0,0,0,0,0,0,0,0,-1,1175,1408,0,0
-42,-384,0,0,0,0,0,0,0,0,0,-1,1182,1408,0,0
-35,-384,0,0,0,0,0,0,0,0,0,-1,1189,1408,0,0
-28,-384,0,0,0,0,0,0,0,0,0,-1,1196,1408,0,0
-21,-384,0,0,0,0,0,0,0,0,0,-1,1203,1408,0,0
-14,-384,0,0,0,0,0,0,0,0,0,-1,1210,1408,0,0
-7,-384,0,0,0,0,0,0,0,0,0,-1,1217,1408,0,0
0,-384,0,0,0,0,0,0,0,0,0,-1,1224,1408,0,0
7,-384,0,0,0,0,0,0,0,0,0,-1,1231,1408,0,0
14,-384,0,0,0,0,0,0,0,0,0,-1,1238,1408,0,0
21,-384,0,0,0,0,0,0,0,0,0,-1,1245,1408,0,0
28,-384,0,0,0,0,0,0,0,0,0,-1,1252,1408,0,0
35,-384,0,0,0,0,0,0,0,0,0,-1,1259,1408,0,0
42,-384,0,0,0,0,0,0,0,0,0,-1,1266,1408,0,0
49,-384,0,0,0,0,0,0,0,0,0,-1,1273,1408,0,0
56,-384,0,0,0,0,0,0,0,0,0,-1,1280,1408,0,0
63,-384,0,0,0,0,0,0,0,0,0,-1,1287,1408,0,0
70,-384,0,0,0,0,0,0,0,0,0,-1,1294,1408,0,0
77,-384,0,0,0,0,0,0,0,0,0,-1,1301,1408,0,0
84,-384,0,0,0,0,0,0,0,0,0,-1,1308,1408,0,0
91,-384,0,0,0,0,0,0,0,0,0,-1,1315,1408,0,0
98,-384,0,0,0,0,0,0,0,0,0,-1,1322,1408,0,0
105,-384,0,0,0,0,0,0,0,0,0,-1,1329,1408,0,0
112,-384,0,0,0,0,0,0,0,0,0,-1,1336,1408,0,0
119,-384,0,0,0,0,0,0,0,0,0,-1,1343,1408,0,0
126,-384,0,0,0,0,0,0,0,0,0,-1,1350,1408,0,0
133,-384,0,0,0,0,0,0,0,0,0,-1,1357,1408,0,0
140,-384,0,0,0,0,0,0,0,0,0,-1,1364,1408,0,0
147,-384,0,0,0,0,0,0,0,0,0,-1,1371,1408,0,0
154,-384,0,0,0,0,0,0,0,0,0,-1,1378,1408,0,0
161,-384,0,0,0,0,0,0,0,0,0,-1,1385,1408,0,0
168,-384,0,0,0,0,0,0,0,0,0,-1,1392,1408,0,0
175,-384,0,0,0,0,0,0,0,0,0,-1,1399,1408,0,0
182,-384,0,0,0,0,0,0,0,0,0,-1,1406,1408,0,0
189,-384,0,0,0,0,0,0,0,0,0,-1,1413,1408,0,0
196,-384,0,0,0,0,0,0,0,0,0,-1,1420,1408,0,0
203,-384,0,0,0,0,0,0,0,0,0,-1,1427,1408,0,0
210,-384,0,0,0,0,0,0,0,0,0,-1,1434,1408,0,0
217,-384,0,0,0,0,0,0,0,0,0,-1,1441,1408,0,0
224,-384,0,0,0,0,0,0,0,0,0,-1,1448,1408,0,0
231,-384,0,0,0,0,0,0,0,0,0,-1,1455,1408,0,0
238,-384,0,0,0,0,0,0,0,0,0,-1,1462,1408,0,0
245,-384,0,0,0,0,0,0,0,0,0,-1,1469,1408,0,0
252,-384,0,0,0,0,0,0,0,0,0,-1,1476,1408,0,0
259,-384,0,0,0,0,0,0,0,0,0,-1,1483,1408,0,0
266,-384,0,0,0,0,0,0,0,0,0,-1,1490,1408,0,0
273,-384,0,0,0,0,0,0,0,0,0,-1,1497,1408,0,0
280,-384,0,0,0,0,0,0,0,0,0,-1,1504,1408,0,0
287,-384,0,0,0,0,0,0,0,0,0,-1,1511,1408,0,0
294,-384,0,0,0,0,0,0,0,0,0,-1,1518,1408,0,0
301,-384,0,0,0,0,0,0,0,0,0,-1,1525,1408,0,0
308,-384,0,0,0,0,0,0,0,0,0,-1,1532,1408,0,0
315,-384,0,0,0,0,0,0,0,0,0,-1,1539,1408,0,0
322,-384,0,0,0,0,0,0,0,0,0,-1,1546,1408,0,0
329,-384,0,0,0,0,0,0,0,0,0,-1,1553,1408,0,0
336,-384,0,0,0,0,0,0,0,0,0,-1,1560,1408,0,0
343,-384,0,0,0,0,0,0,0,0,0,-1,1567,1408,0,0
350,-384,0,0,0,0,0,0,0,0,0,-1,1574,1408,0,0
357,-384,0,0,0,0,0,0,0,0,0,-1,1581,1408,0,0
364,-384,0,0,0,0,0,0,0,0,0,-1,1588,1408,0,0
371,-384,0,0,0,0,0,0,0,0,0,-1,1595,1408,0,0
378,-384,0,0,0,0,0,0,0,0,0,-1,1602,1408,0,0
385,-384,0,0,0,0,0,0,0,0,0,-1,1609,1408,0,0
392,-384,0,0,0,0,0,0,0,0,0,-1,1616,1408,0,0
399,-384,0,0,0,0,0,0,0,0,0,-1,1623,1408,0,0
406,-384,0,0,0,0,0,0,0,0,0,-1,1630,1408,0,0
413,-384,0,0,0,0,0,0,0,0,0,-1,1637,1408,0,0
420,-384,0,0,0,0,0,0,0,0,0,-1,1644,1408,0,0
427,-384,0,0,0,0,0,0,0,0,0,-1,1651,1408,0,0
434,-384,0,0,0,0,0,0,0,0,0,-1,1658,1408,0,0
441,-384,0,0,0,0,0,0,0,0,0,-1,1665,1408,0,0
448,-384,0,0,0,0,0,0,0,0,0,-1,1672,1408,0,0
455,-384,0,0,0,0,0,0,0,0,0,-1,1679,1408,0,0
462,-384,0,0,0,0,0,0,0,0,0,-1,1686,1408,0,0
469,-384,0,0,0,0,0,0,0,0,0,-1,1693,1408,0,0
476,-384,0,0,0,0,0,0,0,0,0,-1,1700,1408,0,0
483,-384,0,0,0,0,0,0,0,0,0,-1,1707,1408,0,0
490,-384,0,0,0,0,0,0,0,0,0,-1,1714,1408,0,0
497,-384,0,0,0,0,0,0,0,0,0,-1,1721,1408,0,0
504,-384,0,0,0,0,0,0,0,0,0,-1,1728,1408,0,0
511,-384,0,0,0,0,0,0,0,0,0,-1,1735,1408,0,0
518,-384,0,0,0,0,0,0,0,0,0,-1,1742,1408,0,0
525,-384,0,0,0,0,0,0,0,0,0,-1,1749,1408,0,0
532,-384,0,0,0,0,0,0,0,0,0,-1,1756,1408,0,0
539,-384,27.6886,2.85803,0,0,0,0,0,0,0,-1,1763,1408,27.6886,-2.85807
546,-384,27.5044,2.9425,0,0,0,0,0,0,0,-1,1770,1408,27.5044,-2.94255
553,-384,27.3052,2.78394,0,0,0,0,0,0,0,-1,1777,1408,27.3051,-2.78394
560,-384,26.833,3.19812,0,0,0,0,0,0,0,-1,1784,1408,26.833,-3.19816
567,-384,38.2566,0.109985,0,0,0,0,0,0,0,-1,1791,1408,38.2566,-0.110044
574,-384,38.4003,2.05945,0,0,0,0,0,0,0,-1,1798,1408,38.4003,-2.05949
581,-384,25.819,3.91846,0,0,0,0,0,0,0,-1,1805,1408,25.8189,-3.91848
588,-384,23.3721,4.25439,0,0,0,0,0,0,0,-1,1812,1408,23.3721,-4.25442
595,-384,24.981,5.59595,0,0,0,0,0,0,0,-1,1819,1408,24.981,-5.59598
602,-384,20.6605,4.17261,0,0,0,0,0,0,0,-1,1826,1408,20.6606,-4.17265
609,-384,14.158,5.49475,0,0,0,0,0,0,0,-1,1833,1408,14.158,-5.49474
616,-384,14.7997,7.6908,0,0,0,0,0,0,0,-1,1840,1408,14.7996,-7.69079
623,-384,16.4293,9.58899,0,0,0,0,0,0,0,-1,1847,1408,16.4294,-9.58901
630,-384,27.489,14.4561,0,0,0,0,0,0,0,-1,1854,1408,27.489,-14.4561
637,-384,27.5515,13.9266,0.000547746,0.000991355,-0.00122634,0.00201578,-0.000476683,-0.874865,0.00152774,0.0212142,1861,1408,27.5515,-13.9267
644,-384,27.5228,13.4598,0.000449906,0.000770941,-0.000844207,0.00146976,-0.000248909,-0.879347,0.00107248,0.0175901,1868,1408,27.5228,-13.4598
651,-384,27.5096,12.9213,0.000544524,0.000323849,-0.000331906,0.000783952,8.44209e-05,-0.624927,0.000496891,0.0173222,1875,1408,27.5096,-12.9213
658,-384,27.4961,12.4053,0.000796042,-0.000110231,0.00013625,0.000816082,-0.000130272,0.146041,0.000592274,0.0169327,1882,1408,27.4961,-12.4053
665,-384,27.5084,11.9423,0.0011748,-0.000569284,0.000609232,0.00136653,-0.000761019,0.304902,0.00124481,0.0185973,1889,1408,27.5084,-11.9423
672,-384,27.495,11.4417,0.00170014,-0.00109231,0.00110724,0.00208589,-0.00147806,0.335236,0.0020676,0.0157379,1896,1408,27.495,-11.4417
679,-384,27.4429,10.9443,0.00238595,-0.00167457,0.00161887,0.00295236,-0.00224098,0.336568,0.00300774,0.0155042,1903,1408,27.4429,-10.9443
686,-384,27.4235,10.4908,0.00322444,-0.00246367,0.00224686,0.00400489,-0.00324412,0.334313,0.00419289,0.0129744,1910,1408,27.4234,-10.4908
693,-384,27.4806,10.009,0.00437166,-0.00332187,0.00286369,0.00532055,-0.00427076,0.319967,0.00554859,0.0224092,1917,1408,27.4806,-10.0091
700,-384,27.5698,9.52319,0,0,0,0,0,0,0,-1,1924,1408,27.5699,-9.52315
707,-384,17.0566,6.62842,0,0,0,0,0,0,0,-1,1931,1408,17.0567,-6.62848
714,-384,16.038,5.0282,0,0,0,0,0,0,0,-1,1938,1408,16.038,-5.02819
721,-384,13.8843,2.8717,0,0,0,0,0,0,0,-1,1945,1408,13.8843,-2.87171
728,-384,15.4409,6.25745,0,0,0,0,0,0,0,-1,1952,1408,15.4409,-6.2574
735,-384,16.7598,6.71289,0,0,0,0,0,0,0,-1,1959,1408,16.7598,-6.71287
742,-384,0,0,0,0,0,0,0,0,0,-1,1966,1408,0,0
749,-384,0,0,0,0,0,0,0,0,0,-1,1973,1408,0,0
756,-384,0,0,0,0,0,0,0,0,0,-1,1980,1408,0,0
763,-384,0,0,0,0,0,0,0,0,0,-1,1987,1408,0,0
770,-384,0,0,0,0,0,0,0,0,0,-1,1994,1408,0,0
777,-384,0,0,0,0,0,0,0,0,0,-1,2001,1408,0,0
784,-384,0,0,0,0,0,0,0,0,0,-1,2008,1408,0,0
791,-384,0,0,0,0,0,0,0,0,0,-1,2015,1408,0,0
798,-384,0,0,0,0,0,0,0,0,0,-1,2022,1408,0,0
805,-384,0,0,0,0,0,0,0,0,0,-1,2029,1408,0,0
812,-384,0,0,0,0,0,0,0,0,0,-1,2036,1408,0,0
-700,-391,0,0,0,0,0,0,0,0,0,-1,524,1415,0,0
-693,-391,0,0,0,0,0,0,0,0,0,-1,531,1415,0,0
-686,-391,0,0,0,0,0,0,0,0,0,-1,538,1415,0,0
-679,-391,0,0,0,0,0,0,0,0,0,-1,545,1415,0,0
-672,-391,0,0,0,0,0,0,0,0,0,-1,552,1415,0,0
-665,-391,0,0,0,0,0,0,0,0,0,-1,559,1415,0,0
-658,-391,0,0,0,0,0,0,0,0,0,-1,566,1415,0,0
-651,-391,0,0,0,0,0,0,0,0,0,-1,573,1415,0,0
-644,-391,0,0,0,0,0,0,0,0,0,-1,580,1415,0,0
-637,-391,0,0,0,0,0,0,0,0,0,-1,587,1415,0,0
-630,-391,0,0,0,0,0,0,0,0,0,-1,594,1415,0,0
-623,-391,0,0,0,0,0,0,0,0,0,-1,601,1415,0,0
-616,-391,0,0,0,0,0,0,0,0,0,-1,608,1415,0,0
-609,-391,-7.71753,-3.69763,0,0,0,0,0,0,0,-1,615,1415,-7.71751,3.69759
-602,-391,-13.9493,-4.12805,0,0,0,0,0,0,0,-1,622,1415,-13.9493,4.12803
-595,-391,-10.8315,1.76172,0,0,0,0,0,0,0,-1,629,1415,-10.8315,-1.76171
-588,-391,-10.265,2.16431,0,0,0,0,0,0,0,-1,636,1415,-10.265,-2.16431
-581,-391,-11.3325,2.44836,0,0,0,0,0,0,0,-1,643,1415,-11.3325,-2.44842
-574,-391,-11.1471,6.19983,0,0,0,0,0,0,0,-1,650,1415,-11.1471,-6.19981
-567,-391,-11.5172,6.82458,0,0,0,0,0,0,0,-1,657,1415,-11.5171,-6.82454
-560,-391,-11.2459,7.37195,0,0,0,0,0,0,0,-1,664,1415,-11.2459,-7.37191
-553,-391,-12.6175,8.38403,0,0,0,0,0,0,0,-1,671,1415,-12.6175,-8.384
-546,-391,-12.5732,8.96851,0.00212185,-0.000869164,-0.000375833,0.00216835,-0.000915666,-0.123105,0.00182886,0.0154693,678,1415,-12.5732,-8.96856
-539,-391,-12.549,9.50745,0.00161364,-0.000514089,-0.000249354,0.00164247,-0.000542921,-0.115115,0.00131389,0.0148784,685,1415,-12.549,-9.5074
-532,-391,-12.5575,10.019,0.00141128,-0.00021141,-3.88123e-05,0.00141221,-0.000212337,-0.0239003,0.00101965,0.0259663,692,1415,-12.5575,-10.019
-525,-391,-12.5864,10.5897,0.00158953,0.000197717,0.000365238,0.00167956,0.000107695,0.241659,0.00108559,0.0252656,699,1415,-12.5864,-10.5897
-518,-391,-12.6481,11.1268,0.00211094,0.000769383,0.000980081,0.00262781,0.000252516,0.485304,0.00167406,0.015374,706,1415,-12.6481,-11.1268
-511,-391,-12.6359,11.6646,0.00289648,0.00146583,0.00174673,0.00406869,0.000293624,0.591053,0.00262007,0.0137601,713,1415,-12.6359,-11.6645
-504,-391,-12.6307,12.2178,0.00408677,0.00237948,0.00279275,0.00615343,0.000312825,0.637076,0.00400209,0.0122778,720,1415,-12.6307,-12.2178
-497,-391,-12.6427,12.7621,0.00567936,0.00360591,0.00416481,0.00893454,0.000350731,0.663415,0.00584296,0.0136461,727,1415,-12.6427,-12.7621
-490,-391,-12.6219,13.3248,0,0,0,0,0,0,0,-1,734,1415,-12.6219,-13.3249
-483,-391,-11.1018,12.9382,0,0,0,0,0,0,0,-1,741,1415,-11.1018,-12.9382
-476,-391,-6.05731,6.85303,0,0,0,0,0,0,0,-1,748,1415,-6.05728,-6.85304
-469,-391,-3.88953,5.0979,0,0,0,0,0,0,0,-1,755,1415,-3.88955,-5.09794
-462,-391,-8.67688,2.03125,0,0,0,0,0,0,0,-1,762,1415,-8.67685,-2.03121
-455,-391,-8.65576,6.46997,0,0,0,0,0,0,0,-1,769,1415,-8.65579,-6.46999
-448,-391,-8.39618,4.38403,0,0,0,0,0,0,0,-1,776,1415,-8.39617,-4.38405
-441,-391,-9.77704,2.5946,0,0,0,0,0,0,0,-1,783,1415,-9.77702,-2.5946
-434,-391,-11.5403,2.12878,0,0,0,0,0,0,0,-1,790,1415,-11.5403,-2.12881
-427,-391,-10.5311,2.50403,0,0,0,0,0,0,0,-1,797,1415,-10.5311,-2.504
-420,-391,-14.7087,1.24365,0,0,0,0,0,0,0,-1,804,1415,-14.7088,-1.24365
-413,-391,0,0,0,0,0,0,0,0,0,-1,811,1415,0,0
-406,-391,0,0,0,0,0,0,0,0,0,-1,818,1415,0,0
-399,-391,0,0,0,0,0,0,0,0,0,-1,825,1415,0,0
-392,-391,0,0,0,0,0,0,0,0,0,-1,832,1415,0,0
-385,-391,0,0,0,0,0,0,0,0,0,-1,839,1415,0,0
-378,-391,0,0,0,0,0,0,0,0,0,-1,846,1415,0,0
-371,-391,0,0,0,0,0,0,0,0,0,-1,853,1415,0,0
-364,-391,0,0,0,0,0,0,0,0,0,-1,860,1415,0,0
-357,-391,0,0,0,0,0,0,0,0,0,-1,867,1415,0,0
-350,-391,0,0,0,0,0,0,0,0,0,-1,874,1415,0,0
-343,-391,0,0,0,0,0,0,0,0,0,-1,881,1415,0,0
-336,-391,0,0,0,0,0,0,0,0,0,-1,888,1415,0,0
-329,-391,0,0,0,0,0,0,0,0,0,-1,895,1415,0,0
-322,-391,0,0,0,0,0,0,0,0,0,-1,902,1415,0,0
-315,-391,0,0,0,0,0,0,0,0,0,-1,909,1415,0,0
-308,-391,0,0,0,0,0,0,0,0,0,-1,916,1415,0,0
-301,-391,0,0,0,0,0,0,0,0,0,-1,923,1415,0,0
-294,-391,0,0,0,0,0,0,0,0,0,-1,930,1415,0,0
-287,-391,0,0,0,0,0,0,0,0,0,-1,937,1415,0,0
-280,-391,0,0,0,0,0,0,0,0,0,-1,944,1415,0,0
-273,-391,0,0,0,0,0,0,0,0,0,-1,951,1415,0,0
-266,-391,0,0,0,0,0,0,0,0,0,-1,958,1415,0,0
-259,-391,0,0,0,0,0,0,0,0,0,-1,965,1415,0,0
-252,-391,0,0,0,0,0,0,0,0,0,-1,972,1415,0,0
-245,-391,0,0,0,0,0,0,0,0,0,-1,979,1415,0,0
-238,-391,0,0,0,0,0,0,0,0,0,-1,986,1415,0,0
-231,-391,0,0,0,0,0,0,0,0,0,-1,993,1415,0,0
-224,-391,0,0,0,0,0,0,0,0,0,-1,1000,1415,0,0
-217,-391,0,0,0,0,0,0,0,0,0,-1,1007,1415,0,0
-210,-391,0,0,0,0,0,0,0,0,0,-1,1014,1415,0,0
-203,-391,0,0,0,0,0,0,0,0,0,-1,1021,1415,0,0
-196,-391,0,0,0,0,0,0,0,0,0,-1,1028,1415,0,0
-189,-391,0,0,0,0,0,0,0,0,0,-1,1035,1415,0,0
-182,-391,0,0,0,0,0,0,0,0,0,-1,1042,1415,0,0
-175,-391,0,0,0,0,0,0,0,0,0,-1,1049,1415,0,0
-168,-391,0,0,0,0,0,0,0,0,0,-1,1056,1415,0,0
-161,-391,0,0,0,0,0,0,0,0,0,-1,1063,1415,0,0
-154,-391,0,0,0,0,0,0,0,0,0,-1,1070,1415,0,0
-147,-391,0,0,0,0,0,0,0,0,0,-1,1077,1415,0,0
-140,-391,0,0,0,0,0,0,0,0,0,-1,1084,1415,0,0
-133,-391,0,0,0,0,0,0,0,0,0,-1,1091,1415,0,0
-126,-391,0,0,0,0,0,0,0,0,0,-1,1098,1415,0,0
-119,-391,0,0,0,0,0,0,0,0,0,-1,1105,1415,0,0
-112,-391,0,0,0,0,0,0,0,0,0,-1,1112,1415,0,0
-105,-391,0,0,0,0,0,0,0,0,0,-1,1119,1415,0,0
-98,-391,0,0,0,0,0,0,0,0,0,-1,1126,1415,0,0
-91,-391,0,0,0,0,0,0,0,0,0,-1,1133,1415,0,0
-84,-391,0,0,0,0,0,0,0,0,0,-1,1140,1415,0,0
-77,-391,0,0,0,0,0,0,0,0,0,-1,1147,1415,0,0
-70,-391,0,0,0,0,0,0,0,0,0,-1,1154,1415,0,0
-63,-391,0,0,0,0,0,0,0,0,0,-1,1161,1415,0,0
-56,-391,0,0,0,0,0,0,0,0,0,-1,1168,1415,0,0
-49,-391,0,0,0,0,0,0,0,0,0,-1,1175,1415,0,0
-42,-391,0,0,0,0,0,0,0,0,0,-1,1182,1415,0,0
-35,-391,0,0,0,0,0,0,0,0,0,-1,1189,1415,0,0
-28,-391,0,0,0,0,0,0,0,0,0,-1,1196,1415,0,0
-21,-391,0,0,0,0,0,0,0,0,0,-1,1203,1415,0,0
-14,-391,0,0,0,0,0,0,0,0,0,-1,1210,1415,0,0
-7,-391,0,0,0,0,0,0,0,0,0,-1,1217,1415,0,0
0,-391,0,0,0,0,0,0,0,0,0,-1,1224,1415,0,0
7,-391,0,0,0,0,0,0,0,0,0,-1,1231,1415,0,0
14,-391,0,0,0,0,0,0,0,0,0,-1,1238,1415,0,0
21,-391,0,0,0,0,0,0,0,0,0,-1,1245,1415,0,0
28,-391,0,0,0,0,0,0,0,0,0,-1,1252,1415,0,0
35,-391,0,0,0,0,0,0,0,0,0,-1,1259,1415,0,0
42,-391,0,0,0,0,0,0,0,0,0,-1,1266,1415,0,0
49,-391,0,0,0,0,0,0,0,0,0,-1,1273,1415,0,0
56,-391,0,0,0,0,0,0,0,0,0,-1,1280,1415,0,0
63,-391,0,0,0,0,0,0,0,0,0,-1,1287,1415,0,0
70,-391,0,0,0,0,0,0,0,0,0,-1,1294,1415,0,0
77,-391,0,0,0,0,0,0,0,0,0,-1,1301,1415,0,0
84,-391,0,0,0,0,0,0,0,0,0,-1,1308,1415,0,0
91,-391,0,0,0,0,0,0,0,0,0,-1,1315,1415,0,0
98,-391,0,0,0,0,0,0,0,0,0,-1,1322,1415,0,0
105,-391,0,0,0,0,0,0,0,0,0,-1,1329,1415,0,0
112,-391,0,0,0,0,0,0,0,0,0,-1,1336,1415,0,0
119,-391,0,0,0,0,0,0,0,0,0,-1,1343,1415,0,0
126,-391,0,0,0,0,0,0,0,0,0,-1,1350,1415,0,0
133,-391,0,0,0,0,0,0,0,0,0,-1,1357,1415,0,0
140,-391,0,0,0,0,0,0,0,0,0,-1,1364,1415,0,0
147,-391,0,0,0,0,0,0,0,0,0,-1,1371,1415,0,0
154,-391,0,0,0,0,0,0,0,0,0,-1,1378,1415,0,0
161,-391,0,0,0,0,0,0,0,0,0,-1,1385,1415,0,0
168,-391,0,0,0,0,0,0,0,0,0,-1,1392,1415,0,0
175,-391,0,0,0,0,0,0,0,0,0,-1,1399,1415,0,0
182,-391,0,0,0,0,0,0,0,0,0,-1,1406,1415,0,0
189,-391,0,0,0,0,0,0,0,0,0,-1,1413,1415,0,0
196,-391,0,0,0,0,0,0,0,0,0,-1,1420,1415,0,0
203,-391,0,0,0,0,0,0,0,0,0,-1,1427,1415,0,0
210,-391,0,0,0,0,0,0,0,0,0,-1,1434,1415,0,0
217,-391,0,0,0,0,0,0,0,0,0,-1,1441,1415,0,0
224,-391,0,0,0,0,0,0,0,0,0,-1,1448,1415,0,0
231,-391,0,0,0,0,0,0,0,0,0,-1,1455,1415,0,0
238,-391,0,0,0,0,0,0,0,0,0,-1,1462,1415,0,0
245,-391,0,0,0,0,0,0,0,0,0,-1,1469,1415,0,0
252,-391,0,0,0,0,0,0,0,0,0,-1,1476,1415,0,0
259,-391,0,0,0,0,0,0,0,0,0,-1,1483,1415,0,0
266,-391,0,0,0,0,0,0,0,0,0,-1,1490,1415,0,0
273,-391,0,0,0,0,0,0,0,0,0,-1,1497,1415,0,0
280,-391,0,0,0,0,0,0,0,0,0,-1,1504,1415,0,0
287,-391,0,0,0,0,0,0,0,0,0,-1,1511,1415,0,0
294,-391,0,0,0,0,0,0,0,0,0,-1,1518,1415,0,0
301,-391,0,0,0,0,0,0,0,0,0,-1,1525,1415,0,0
308,-391,0,0,0,0,0,0,0,0,0,-1,1532,1415,0,0
315,-391,0,0,0,0,0,0,0,0,0,-1,1539,1415,0,0
322,-391,0,0,0,0,0,0,0,0,0,-1,1546,1415,0,0
329,-391,0,0,0,0,0,0,0,0,0,-1,1553,1415,0,0
336,-391,0,0,0,0,0,0,0,0,0,-1,1560,1415,0,0
343,-391,0,0,0,0,0,0,0,0,0,-1,1567,1415,0,0
350,-391,0,0,0,0,0,0,0,0,0,-1,1574,1415,0,0
357,-391,0,0,0,0,0,0,0,0,0,-1,1581,1415,0,0
364,-391,0,0,0,0,0,0,0,0,0,-1,1588,1415,0,0
371,-391,0,0,0,0,0,0,0,0,0,-1,1595,1415,0,0
378,-391,0,0,0,0,0,0,0,0,0,-1,1602,1415,0,0
385,-391,0,0,0,0,0,0,0,0,0,-1,1609,1415,0,0
392,-391,0,0,0,0,0,0,0,0,0,-1,1616,1415,0,0
399,-391,0,0,0,0,0,0,0,0,0,-1,1623,1415,0,0
406,-391,0,0,0,0,0,0,0,0,0,-1,1630,1415,0,0
413,-391,0,0,0,0,0,0,0,0,0,-1,1637,1415,0,0
420,-391,0,0,0,0,0,0,0,0,0,-1,1644,1415,0,0
427,-391,0,0,0,0,0,0,0,0,0,-1,1651,1415,0,0
434,-391,0,0,0,0,0,0,0,0,0,-1,1658,1415,0,0
441,-391,0,0,0,0,0,0,0,0,0,-1,1665,1415,0,0
448,-391,0,0,0,0,0,0,0,0,0,-1,1672,1415,0,0
455,-391,0,0,0,0,0,0,0,0,0,-1,1679,1415,0,0
462,-391,0,0,0,0,0,0,0,0,0,-1,1686,1415,0,0
469,-391,0,0,0,0,0,0,0,0,0,-1,1693,1415,0,0
476,-391,0,0,0,0,0,0,0,0,0,-1,1700,1415,0,0
483,-391,0,0,0,0,0,0,0,0,0,-1,1707,1415,0,0
490,-391,0,0,0,0,0,0,0,0,0,-1,1714,1415,0,0
497,-391,0,0,0,0,0,0,0,0,0,-1,1721,1415,0,0
504,-391,0,0,0,0,0,0,0,0,0,-1,1728,1415,0,0
511,-391,0,0,0,0,0,0,0,0,0,-1,1735,1415,0,0
518,-391,0,0,0,0,0,0,0,0,0,-1,1742,1415,0,0
525,-391,0,0,0,0,0,0,0,0,0,-1,1749,1415,0,0
532,-391,28.5959,3.02356,0,0,0,0,0,0,0,-1,1756,1415,28.596,-3.02358
539,-391,27.5881,3.25012,0,0,0,0,0,0,0,-1,1763,1415,27.5882,-3.25016
546,-391,27.2837,3.28064,0,0,0,0,0,0,0,-1,1770,1415,27.2837,-3.28064
553,-391,32.5952,5.04553,0,0,0,0,0,0,0,-1,1777,1415,32.5952,-5.04551
560,-391,31.2947,5.67017,0,0,0,0,0,0,0,-1,1784,1415,31.2947,-5.67011
567,-391,30.1473,6.17603,0,0,0,0,0,0,0,-1,1791,1415,30.1473,-6.17602
574,-391,27.5656,5.6842,0,0,0,0,0,0,0,-1,1798,1415,27.5655,-5.68422
581,-391,25.8883,5.76123,0,0,0,0,0,0,0,-1,1805,1415,25.8883,-5.76124
588,-391,24.2717,5.47986,0,0,0,0,0,0,0,-1,1812,1415,24.2717,-5.47982
595,-391,22.8827,6.1991,0,0,0,0,0,0,0,-1,1819,1415,22.8827,-6.19909
602,-391,15.1635,5.69849,0,0,0,0,0,0,0,-1,1826,1415,15.1635,-5.69847
609,-391,14.8285,7.50476,0,0,0,0,0,0,0,-1,1833,1415,14.8285,-7.50479
616,-391,20.7952,12.0503,0,0,0,0,0,0,0,-1,1840,1415,20.7952,-12.0503
623,-391,27.0348,14.8208,0,0,0,0,0,0,0,-1,1847,1415,27.0348,-14.8207
630,-391,27.1687,14.2988,0.00086879,0.00129922,-0.00136451,0.00246539,-0.000297379,-0.863615,0.00175115,0.0405077,1854,1415,27.1687,-14.2988
637,-391,27.056,13.9139,0.000752288,0.000797992,-0.000951015,0.00172643,-0.00017615,-0.79741,0.00121394,0.0166051,1861,1415,27.0561,-13.9139
644,-391,27.032,13.4529,0.000674089,0.000526367,-0.000567129,0.00117215,2.831e-05,-0.720644,0.000772168,0.0175655,1868,1415,27.032,-13.4529
651,-391,27.0181,12.9564,0.000772317,0.000138065,-0.00010742,0.000790016,0.000120366,-0.163299,0.000491493,0.0179615,1875,1415,27.0181,-12.9564
658,-391,27.0082,12.4447,0.000972724,-0.000264756,0.000341835,0.00106087,-0.000352904,0.252369,0.000849674,0.0173048,1882,1415,27.0082,-12.4447
665,-391,27.0132,11.9786,0.00128458,-0.000716535,0.00083237,0.00158554,-0.0010175,0.346948,0.00151475,0.0145236,1889,1415,27.0132,-11.9787
672,-391,26.995,11.4944,0.00171805,-0.0012528,0.00138825,0.00226578,-0.00180053,0.375798,0.0023528,0.0123663,1896,1415,26.995,-11.4943
679,-391,26.9583,10.994,0.00227136,-0.00191267,0.00202829,0.00309319,-0.0027345,0.384966,0.00336674,0.0113091,1903,1415,26.9582,-10.994
686,-391,26.9568,10.5048,0.00292307,-0.00290573,0.00291061,0.00412757,-0.00411023,0.392374,0.0047561,0.0132785,1910,1415,26.9568,-10.5047
693,-391,26.9689,10.1951,0.00385108,-0.00404847,0.00387992,0.00543796,-0.00563535,0.388238,0.00639352,0.0333077,1917,1415,26.9689,-10.195
700,-391,27.0553,9.8894,0,0,0,0,0,0,0,-1,1924,1415,27.0553,-9.88946
707,-391,12.9524,5.96851,0,0,0,0,0,0,0,-1,1931,1415,12.9524,-5.96849
714,-391,15.6875,7.67896,0,0,0,0,0,0,0,-1,1938,1415,15.6875,-7.67893
721,-391,14.1808,8.08435,0,0,0,0,0,0,0,-1,1945,1415,14.1808,-8.08439
728,-391,13.8102,7.28174,0,0,0,0,0,0,0,-1,1952,1415,13.8102,-7.28174
735,-391,0,0,0,0,0,0,0,0,0,-1,1959,1415,0,0
742,-391,0,0,0,0,0,0,0,0,0,-1,1966,1415,0,0
749,-391,0,0,0,0,0,0,0,0,0,-1,1973,1415,0,0
756,-391,0,0,0,0,0,0,0,0,0,-1,1980,1415,0,0
763,-391,0,0,0,0,0,0,0,0,0,-1,1987,1415,0,0
770,-391,0,0,0,0,0,0,0,0,0,-1,1994,1415,0,0
777,-391,0,0,0,0,0,0,0,0,0,-1,2001,1415,0,0
784,-391,0,0,0,0,0,0,0,0,0,-1,2008,1415,0,0
791,-391,0,0,0,0,0,0,0,0,0,-1,2015,1415,0,0
798,-391,0,0,0,0,0,0,0,0,0,-1,2022,1415,0,0
805,-391,0,0,0,0,0,0,0,0,0,-1,2029,1415,0,0
812,-391,0,0,0,0,0,0,0,0,0,-1,2036,1415,0,0
-700,-398,0,0,0,0,0,0,0,0,0,-1,524,1422,0,0
-693,-398,0,0,0,0,0,0,0,0,0,-1,531,1422,0,0
-686,-398,0,0,0,0,0,0,0,0,0,-1,538,1422,0,0
-679,-398,0,0,0,0,0,0,0,0,0,-1,545,1422,0,0
-672,-398,0,0,0,0,0,0,0,0,0,-1,552,1422,0,0
-665,-398,0,0,0,0,0,0,0,0,0,-1,559,1422,0,0
-658,-398,0,0,0,0,0,0,0,0,0,-1,566,1422,0,0
-651,-398,0,0,0,0,0,0,0,0,0,-1,573,1422,0,0
-644,-398,0,0,0,0,0,0,0,0,0,-1,580,1422,0,0
-637,-398,0,0,0,0,0,0,0,0,0,-1,587,1422,0,0
-630,-398,0,0,0,0,0,0,0,0,0,-1,594,1422,0,0
-623,-398,0,0,0,0,0,0,0,0,0,-1,601,1422,0,0
-616,-398,0,0,0,0,0,0,0,0,0,-1,608,1422,0,0
-609,-398,-7.47125,-4.05322,0,0,0,0,0,0,0,-1,615,1422,-7.47128,4.05317
-602,-398,-4.58868,-2.77026,0,0,0,0,0,0,0,-1,622,1422,-4.58869,2.77023
-595,-398,-12.2224,-1.82007,0,0,0,0,0,0,0,-1,629,1422,-12.2224,1.82006
-588,-398,-10.6939,1.32336,0,0,0,0,0,0,0,-1,636,1422,-10.6939,-1.32337
-581,-398,-10.433,3.1123,0,0,0,0,0,0,0,-1,643,1422,-10.433,-3.11233
-574,-398,-10.4475,5.89807,0,0,0,0,0,0,0,-1,650,1422,-10.4475,-5.89802
-567,-398,-10.4904,6.80115,0,0,0,0,0,0,0,-1,657,1422,-10.4904,-6.80115
-560,-398,-10.5333,7.70435,0,0,0,0,0,0,0,-1,664,1422,-10.5333,-7.70429
-553,-398,-12.0741,8.30652,0,0,0,0,0,0,0,-1,671,1422,-12.0741,-8.30647
-546,-398,-12.0477,8.9751,0.00134624,-0.000830485,-0.00071259,0.00155876,-0.00104301,-0.289849,0.00151194,0.0254287,678,1422,-12.0477,-8.97509
-539,-398,-11.9893,9.55212,0.000877687,-0.000480785,-0.000549314,0.00107201,-0.000675109,-0.340019,0.00101734,0.0130781,685,1422,-11.9893,-9.55212
-532,-398,-12.022,10.0826,0.000703204,-0.000228737,-0.000337318,0.000812483,-0.000338016,-0.313295,0.00068281,0.0211408,692,1422,-12.022,-10.0827
-525,-398,-12.0438,10.6228,0.000920624,0.000119536,5.51209e-05,0.000924399,0.000115761,0.0683781,0.000581532,0.0206814,699,1422,-12.0438,-10.6228
-518,-398,-12.0743,11.1456,0.00149323,0.000655948,0.000666911,0.00186201,0.00028717,0.505117,0.00115755,0.0184326,706,1422,-12.0743,-11.1456
-511,-398,-12.0786,11.6676,0.00230409,0.00132058,0.00142092,0.00331595,0.000308728,0.618808,0.00211525,0.0141467,713,1422,-12.0785,-11.6676
-504,-398,-12.087,12.2363,0.00345695,0.00222636,0.00243861,0.00535669,0.000326619,0.66182,0.00346738,0.0138423,720,1422,-12.087,-12.2364
-497,-398,-12.1129,12.7655,0.00500888,0.00343726,0.00376996,0.00807406,0.000372088,0.68265,0.00526306,0.0105209,727,1422,-12.1129,-12.7654
-490,-398,-12.1199,13.3118,0.00708969,0.0051082,0.00550644,0.0116938,0.000504086,0.696388,0.0076334,0.0177898,734,1422,-12.1199,-13.3117
-483,-398,-12.0889,13.8954,0,0,0,0,0,0,0,-1,741,1422,-12.089,-13.8954
-476,-398,-8.64392,11.9448,0,0,0,0,0,0,0,-1,748,1422,-8.6439,-11.9448
-469,-398,-8.91699,10.6276,0,0,0,0,0,0,0,-1,755,1422,-8.91697,-10.6275
-462,-398,-9.59753,9.32532,0,0,0,0,0,0,0,-1,762,1422,-9.59753,-9.32531
-455,-398,-8.08331,6.75024,0,0,0,0,0,0,0,-1,769,1422,-8.08333,-6.75022
-448,-398,-7.4505,5.25293,0,0,0,0,0,0,0,-1,776,1422,-7.4505,-5.25291
-441,-398,-7.61639,3.32141,0,0,0,0,0,0,0,-1,783,1422,-7.61637,-3.32145
-434,-398,-10.7618,3.297,0,0,0,0,0,0,0,-1,790,1422,-10.7618,-3.29704
-427,-398,-11.9061,2.24939,0,0,0,0,0,0,0,-1,797,1422,-11.9061,-2.24941
-420,-398,-13.467,2.32788,0,0,0,0,0,0,0,-1,804,1422,-13.467,-2.32787
-413,-398,-14.7983,2.15515,0,0,0,0,0,0,0,-1,811,1422,-14.7983,-2.15516
-406,-398,0,0,0,0,0,0,0,0,0,-1,818,1422,0,0
-399,-398,0,0,0,0,0,0,0,0,0,-1,825,1422,0,0
-392,-398,0,0,0,0,0,0,0,0,0,-1,832,1422,0,0
-385,-398,0,0,0,0,0,0,0,0,0,-1,839,1422,0,0
-378,-398,0,0,0,0,0,0,0,0,0,-1,846,1422,0,0
-371,-398,0,0,0,0,0,0,0,0,0,-1,853,1422,0,0
-364,-398,0,0,0,0,0,0,0,0,0,-1,860,1422,0,0
-357,-398,0,0,0,0,0,0,0,0,0,-1,867,1422,0,0
-350,-398,0,0,0,0,0,0,0,0,0,-1,874,1422,0,0
-343,-398,0,0,0,0,0,0,0,0,0,-1,881,1422,0,0
-336,-398,0,0,0,0,0,0,0,0,0,-1,888,1422,0,0
-329,-398,0,0,0,0,0,0,0,0,0,-1,895,1422,0,0
-322,-398,0,0,0,0,0,0,0,0,0,-1,902,1422,0,0
-315,-398,0,0,0,0,0,0,0,0,0,-1,909,1422,0,0
-308,-398,0,0,0,0,0,0,0,0,0,-1,916,1422,0,0
-301,-398,0,0,0,0,0,0,0,0,0,-1,923,1422,0,0
-294,-398,0,0,0,0,0,0,0,0,0,-1,930,1422,0,0
-287,-398,0,0,0,0,0,0,0,0,0,-1,937,1422,0,0
-280,-398,0,0,0,0,0,0,0,0,0,-1,944,1422,0,0
-273,-398,0,0,0,0,0,0,0,0,0,-1,951,1422,0,0
-266,-398,0,0,0,0,0,0,0,0,0,-1,958,1422,0,0
-259,-398,0,0,0,0,0,0,0,0,0,-1,965,1422,0,0
-252,-398,0,0,0,0,0,0,0,0,0,-1,972,1422,0,0
-245,-398,0,0,0,0,0,0,0,0,0,-1,979,1422,0,0
-238,-398,0,0,0,0,0,0,0,0,0,-1,986,1422,0,0
-231,-398,0,0,0,0,0,0,0,0,0,-1,993,1422,0,0
-224,-398,0,0,0,0,0,0,0,0,0,-1,1000,1422,0,0
-217,-398,0,0,0,0,0,0,0,0,0,-1,1007,1422,0,0
-210,-398,0,0,0,0,0,0,0,0,0,-1,1014,1422,0,0
-203,-398,0,0,0,0,0,0,0,0,0,-1,1021,1422,0,0
-196,-398,0,0,0,0,0,0,0,0,0,-1,1028,1422,0,0
-189,-398,0,0,0,0,0,0,0,0,0,-1,1035,1422,0,0
-182,-398,0,0,0,0,0,0,0,0,0,-1,1042,1422,0,0
-175,-398,0,0,0,0,0,0,0,0,0,-1,1049,1422,0,0
-168,-398,0,0,0,0,0,0,0,0,0,-1,1056,1422,0,0
-161,-398,0,0,0,0,0,0,0,0,0,-1,1063,1422,0,0
-154,-398,0,0,0,0,0,0,0,0,0,-1,1070,1422,0,0
-147,-398,0,0,0,0,0,0,0,0,0,-1,1077,1422,0,0
-140,-398,0,0,0,0,0,0,0,0,0,-1,1084,1422,0,0
-133,-398,0,0,0,0,0,0,0,0,0,-1,1091,1422,0,0
-126,-398,0,0,0,0,0,0,0,0,0,-1,1098,1422,0,0
-119,-398,0,0,0,0,0,0,0,0,0,-1,1105,1422,0,0
-112,-398,0,0,0,0,0,0,0,0,0,-1,1112,1422,0,0
-105,-398,0,0,0,0,0,0,0,0,0,-1,1119,1422,0,0
-98,-398,0,0,0,0,0,0,0,0,0,-1,1126,1422,0,0
-91,-398,0,0,0,0,0,0,0,0,0,-1,1133,1422,0,0
-84,-398,0,0,0,0,0,0,0,0,0,-1,1140,1422,0,0
-77,-398,0,0,0,0,0,0,0,0,0,-1,1147,1422,0,0
-70,-398,0,0,0,0,0,0,0,0,0,-1,1154,1422,0,0
-63,-398,0,0,0,0,0,0,0,0,0,-1,1161,1422,0,0
-56,-398,0,0,0,0,0,0,0,0,0,-1,1168,1422,0,0
-49,-398,0,0,0,0,0,0,0,0,0,-1,1175,1422,0,0
-42,-398,0,0,0,0,0,0,0,0,0,-1,1182,1422,0,0
-35,-398,0,0,0,0,0,0,0,0,0,-1,1189,1422,0,0
-28,-398,0,0,0,0,0,0,0,0,0,-1,1196,1422,0,0
-21,-398,0,0,0,0,0,0,0,0,0,-1,1203,1422,0,0
-14,-398,0,0,0,0,0,0,0,0,0,-1,1210,1422,0,0
-7,-398,0,0,0,0,0,0,0,0,0,-1,1217,1422,0,0
0,-398,0,0,0,0,0,0,0,0,0,-1,1224,1422,0,0
7,-398,0,0,0,0,0,0,0,0,0,-1,1231,1422,0,0
14,-398,0,0,0,0,0,0,0,0,0,-1,1238,1422,0,0
21,-398,0,0,0,0,0,0,0,0,0,-1,1245,1422,0,0
28,-398,0,0,0,0,0,0,0,0,0,-1,1252,1422,0,0
35,-398,0,0,0,0,0,0,0,0,0,-1,1259,1422,0,0
42,-398,0,0,0,0,0,0,0,0,0,-1,1266,1422,0,0
49,-398,0,0,0,0,0,0,0,0,0,-1,1273,1422,0,0
56,-398,0,0,0,0,0,0,0,0,0,-1,1280,1422,0,0
63,-398,0,0,0,0,0,0,0,0,0,-1,1287,1422,0,0
70,-398,0,0,0,0,0,0,0,0,0,-1,1294,1422,0,0
77,-398,0,0,0,0,0,0,0,0,0,-1,1301,1422,0,0
84,-398,0,0,0,0,0,0,0,0,0,-1,1308,1422,0,0
91,-398,0,0,0,0,0,0,0,0,0,-1,1315,1422,0,0
98,-398,0,0,0,0,0,0,0,0,0,-1,1322,1422,0,0
105,-398,0,0,0,0,0,0,0,0,0,-1,1329,1422,0,0
112,-398,0,0,0,0,0,0,0,0,0,-1,1336,1422,0,0
119,-398,0,0,0,0,0,0,0,0,0,-1,1343,1422,0,0
126,-398,0,0,0,0,0,0,0,0,0,-1,1350,1422,0,0
133,-398,0,0,0,0,0,0,0,0,0,-1,1357,1422,0,0
140,-398,0,0,0,0,0,0,0,0,0,-1,1364,1422,0,0
147,-398,0,0,0,0,0,0,0,0,0,-1,1371,1422,0,0
154,-398,0,0,0,0,0,0,0,0,0,-1,1378,1422,0,0
161,-398,0,0,0,0,0,0,0,0,0,-1,1385,1422,0,0
168,-398,0,0,0,0,0,0,0,0,0,-1,1392,1422,0,0
175,-398,0,0,0,0,0,0,0,0,0,-1,1399,1422,0,0
182,-398,0,0,0,0,0,0,0,0,0,-1,1406,1422,0,0
189,-398,0,0,0,0,0,0,0,0,0,-1,1413,1422,0,0
196,-398,0,0,0,0,0,0,0,0,0,-1,1420,1422,0,0
203,-398,0,0,0,0,0,0,0,0,0,-1,1427,1422,0,0
210,-398,0,0,0,0,0,0,0,0,0,-1,1434,1422,0,0
217,-398,0,0,0,0,0,0,0,0,0,-1,1441,1422,0,0
224,-398,0,0,0,0,0,0,0,0,0,-1,1448,1422,0,0
231,-398,0,0,0,0,0,0,0,0,0,-1,1455,1422,0,0
238,-398,0,0,0,0,0,0,0,0,0,-1,1462,1422,0,0
245,-398,0,0,0,0,0,0,0,0,0,-1,1469,1422,0,0
252,-398,0,0,0,0,0,0,0,0,0,-1,1476,1422,0,0
259,-398,0,0,0,0,0,0,0,0,0,-1,1483,1422,0,0
266,-398,0,0,0,0,0,0,0,0,0,-1,1490,1422,0,0
273,-398,0,0,0,0,0,0,0,0,0,-1,1497,1422,0,0
280,-398,0,0,0,0,0,0,0,0,0,-1,1504,1422,0,0
287,-398,0,0,0,0,0,0,0,0,0,-1,1511,1422,0,0
294,-398,0,0,0,0,0,0,0,0,0,-1,1518,1422,0,0
301,-398,0,0,0,0,0,0,0,0,0,-1,1525,1422,0,0
308,-398,0,0,0,0,0,0,0,0,0,-1,1532,1422,0,0
315,-398,0,0,0,0,0,0,0,0,0,-1,1539,1422,0,0
322,-398,0,0,0,0,0,0,0,0,0,-1,1546,1422,0,0
329,-398,0,0,0,0,0,0,0,0,0,-1,1553,1422,0,0
336,-398,0,0,0,0,0,0,0,0,0,-1,1560,1422,0,0
343,-398,0,0,0,0,0,0,0,0,0,-1,1567,1422,0,0
350,-398,0,0,0,0,0,0,0,0,0,-1,1574,1422,0,0
357,-398,0,0,0,0,0,0,0,0,0,-1,1581,1422,0,0
364,-398,0,0,0,0,0,0,0,0,0,-1,1588,1422,0,0
371,-398,0,0,0,0,0,0,0,0,0,-1,1595,1422,0,0
378,-398,0,0,0,0,0,0,0,0,0,-1,1602,1422,0,0
385,-398,0,0,0,0,0,0,0,0,0,-1,1609,1422,0,0
392,-398,0,0,0,0,0,0,0,0,0,-1,1616,1422,0,0
399,-398,0,0,0,0,0,0,0,0,0,-1,1623,1422,0,0
406,-398,0,0,0,0,0,0,0,0,0,-1,1630,1422,0,0
413,-398,0,0,0,0,0,0,0,0,0,-1,1637,1422,0,0
420,-398,0,0,0,0,0,0,0,0,0,-1,1644,1422,0,0
427,-398,0,0,0,0,0,0,0,0,0,-1,1651,1422,0,0
434,-398,0,0,0,0,0,0,0,0,0,-1,1658,1422,0,0
441,-398,0,0,0,0,0,0,0,0,0,-1,1665,1422,0,0
448,-398,0,0,0,0,0,0,0,0,0,-1,1672,1422,0,0
455,-398,0,0,0,0,0,0,0,0,0,-1,1679,1422,0,0
462,-398,0,0,0,0,0,0,0,0,0,-1,1686,1422,0,0
469,-398,0,0,0,0,0,0,0,0,0,-1,1693,1422,0,0
476,-398,0,0,0,0,0,0,0,0,0,-1,1700,1422,0,0
483,-398,0,0,0,0,0,0,0,0,0,-1,1707,1422,0,0
490,-398,0,0,0,0,0,0,0,0,0,-1,1714,1422,0,0
497,-398,0,0,0,0,0,0,0,0,0,-1,1721,1422,0,0
504,-398,0,0,0,0,0,0,0,0,0,-1,1728,1422,0,0
511,-398,0,0,0,0,0,0,0,0,0,-1,1735,1422,0,0
518,-398,0,0,0,0,0,0,0,0,0,-1,1742,1422,0,0
525,-398,0,0,0,0,0,0,0,0,0,-1,1749,1422,0,0
532,-398,28.4558,3.84094,0,0,0,0,0,0,0,-1,1756,1422,28.4558,-3.8409
539,-398,27.0594,3.33887,0,0,0,0,0,0,0,-1,1763,1422,27.0595,-3.3389
546,-398,31.6873,5.58582,0,0,0,0,0,0,0,-1,1770,1422,31.6872,-5.58585
553,-398,30.4392,5.92383,0,0,0,0,0,0,0,-1,1777,1422,30.4392,-5.92386
560,-398,29.1621,6.30469,0,0,0,0,0,0,0,-1,1784,1422,29.1621,-6.30469
567,-398,27.8411,6.55029,0,0,0,0,0,0,0,-1,1791,1422,27.8411,-6.55033
574,-398,26.411,6.8916,0,0,0,0,0,0,0,-1,1798,1422,26.411,-6.8916
581,-398,24.75,7.11145,0,0,0,0,0,0,0,-1,1805,1422,24.7499,-7.11142
588,-398,23.1649,7.67969,0,0,0,0,0,0,0,-1,1812,1422,23.1649,-7.67975
595,-398,21.4253,7.86023,0,0,0,0,0,0,0,-1,1819,1422,21.4253,-7.86029
602,-398,19.6857,8.04077,0,0,0,0,0,0,0,-1,1826,1422,19.6856,-8.04083
609,-398,21.1835,13.2628,0,0,0,0,0,0,0,-1,1833,1422,21.1835,-13.2628
616,-398,26.1759,15.8685,0,0,0,0,0,0,0,-1,1840,1422,26.1759,-15.8685
623,-398,26.5728,14.9304,0,0,0,0,0,0,0,-1,1847,1422,26.5728,-14.9304
630,-398,26.5796,14.4102,0.00121264,0.00107843,-0.0011848,0.00233224,-4.11659e-05,-0.757108,0.00156873,0.013613,1854,1422,26.5796,-14.4102
637,-398,26.5779,13.9244,0.00100579,0.000578686,-0.000735611,0.00155822,2.62575e-05,-0.644128,0.00103017,0.013744,1861,1422,26.5779,-13.9245
644,-398,26.4894,13.4418,0.00093133,0.000286108,-0.000354882,0.00108832,0.000129116,-0.416498,0.000686568,0.0209939,1868,1422,26.4894,-13.4417
651,-398,26.5175,12.9739,0.0010311,-1.41507e-05,3.0174e-05,0.00103197,-1.5021e-05,0.0288358,0.000693039,0.0297431,1875,1422,26.5175,-12.9738
658,-398,26.5323,12.5238,0.00118461,-0.000342377,0.000436113,0.00130038,-0.000458155,0.25949,0.00105339,0.0234034,1882,1422,26.5323,-12.5238
665,-398,26.5168,12.0151,0.00142658,-0.000733747,0.000910258,0.00175897,-0.00106614,0.350122,0.00164735,0.0156453,1889,1422,26.5168,-12.0152
672,-398,26.4956,11.5229,0.00175257,-0.00122531,0.00149321,0.00237233,-0.00184507,0.393414,0.00244125,0.0131451,1896,1422,26.4957,-11.523
679,-398,26.4773,11.0243,0.00214114,-0.00191312,0.0022449,0.00313871,-0.00291069,0.418165,0.00349345,0.0122014,1903,1422,26.4773,-11.0243
686,-398,26.469,10.5365,0.00253778,-0.00307645,0.00340126,0.0041407,-0.00467938,0.440403,0.00509544,0.0190681,1910,1422,26.469,-10.5365
693,-398,26.3657,10.4331,0.0031164,-0.00446981,0.00477755,0.00542351,-0.00677692,0.44988,0.00705835,0.0465147,1917,1422,26.3657,-10.4331
700,-398,26.2971,10.4352,0,0,0,0,0,0,0,-1,1924,1422,26.2971,-10.4352
707,-398,10.9731,5.479,0,0,0,0,0,0,0,-1,1931,1422,10.9732,-5.47896
714,-398,11.7313,6.17346,0,0,0,0,0,0,0,-1,1938,1422,11.7313,-6.17348
721,-398,13.9371,8.05103,0,0,0,0,0,0,0,-1,1945,1422,13.9372,-8.05102
728,-398,14.786,7.0282,0,0,0,0,0,0,0,-1,1952,1422,14.786,-7.0282
735,-398,0,0,0,0,0,0,0,0,0,-1,1959,1422,0,0
742,-398,0,0,0,0,0,0,0,0,0,-1,1966,1422,0,0
749,-398,0,0,0,0,0,0,0,0,0,-1,1973,1422,0,0
756,-398,0,0,0,0,0,0,0,0,0,-1,1980,1422,0,0
763,-398,0,0,0,0,0,0,0,0,0,-1,1987,1422,0,0
770,-398,0,0,0,0,0,0,0,0,0,-1,1994,1422,0,0
777,-398,0,0,0,0,0,0,0,0,0,-1,2001,1422,0,0
784,-398,0,0,0,0,0,0,0,0,0,-1,2008,1422,0,0
791,-398,0,0,0,0,0,0,0,0,0,-1,2015,1422,0,0
798,-398,0,0,0,0,0,0,0,0,0,-1,2022,1422,0,0
805,-398,0,0,0,0,0,0,0,0,0,-1,2029,1422,0,0
812,-398,0,0,0,0,0,0,0,0,0,-1,2036,1422,0,0
-700,-405,0,0,0,0,0,0,0,0,0,-1,524,1429,0,0
-693,-405,0,0,0,0,0,0,0,0,0,-1,531,1429,0,0
-686,-405,0,0,0,0,0,0,0,0,0,-1,538,1429,0,0
-679,-405,0,0,0,0,0,0,0,0,0,-1,545,1429,0,0
-672,-405,0,0,0,0,0,0,0,0,0,-1,552,1429,0,0
-665,-405,0,0,0,0,0,0,0,0,0,-1,559,1429,0,0
-658,-405,0,0,0,0,0,0,0,0,0,-1,566,1429,0,0
-651,-405,0,0,0,0,0,0,0,0,0,-1,573,1429,0,0
-644,-405,0,0,0,0,0,0,0,0,0,-1,580,1429,0,0
-637,-405,0,0,0,0,0,0,0,0,0,-1,587,1429,0,0
-630,-405,0,0,0,0,0,0,0,0,0,-1,594,1429,0,0
-623,-405,0,0,0,0,0,0,0,0,0,-1,601,1429,0,0
-616,-405,0,0,0,0,0,0,0,0,0,-1,608,1429,0,0
-609,-405,0,0,0,0,0,0,0,0,0,-1,615,1429,0,0
-602,-405,-5.80988,-3.46594,0,0,0,0,0,0,0,-1,622,1429,-5.80987,3.46592
-595,-405,-9.35413,2.01477,0,0,0,0,0,0,0,-1,629,1429,-9.35411,-2.01476
-588,-405,-7.35693,0.507202,0,0,0,0,0,0,0,-1,636,1429,-7.35696,-0.507187
-581,-405,-10.1284,1.62927,0,0,0,0,0,0,0,-1,643,1429,-10.1284,-1.62922
-574,-405,-9.32074,3.05896,0,0,0,0,0,0,0,-1,650,1429,-9.32077,-3.0589
-567,-405,-9.68781,6.92163,0,0,0,0,0,0,0,-1,657,1429,-9.68782,-6.92166
-560,-405,-9.28674,7.20886,0,0,0,0,0,0,0,-1,664,1429,-9.28675,-7.20885
-553,-405,-11.4969,8.42664,0,0,0,0,0,0,0,-1,671,1429,-11.497,-8.42665
-546,-405,-11.4879,8.97742,0.000377893,-0.00070186,-0.00105613,0.00102413,-0.0013481,-0.549121,0.00137386,0.0392833,678,1429,-11.4879,-8.97745
-539,-405,-11.4744,9.52466,3.30163e-05,-0.000350044,-0.000795177,0.000659404,-0.000976432,-0.667217,0.000950344,0.0127107,685,1429,-11.4744,-9.5246
-532,-405,-11.4893,10.0863,-4.93392e-05,-0.000163613,-0.000563394,0.000459807,-0.00067276,-0.734863,0.00065773,0.0157413,692,1429,-11.4893,-10.0863
-525,-405,-11.5093,10.6368,0.000248346,8.66665e-05,-0.00019526,0.000378839,-4.38269e-05,-0.589136,0.000268364,0.0147692,699,1429,-11.5093,-10.6368
-518,-405,-11.5211,11.1825,0.000883787,0.000547717,0.000389433,0.00113989,0.000291613,0.581723,0.000683775,0.0157292,706,1429,-11.5211,-11.1825
-511,-405,-11.535,11.7175,0.00172857,0.00114319,0.00110174,0.00257584,0.000295928,0.655567,0.00162757,0.0155629,713,1429,-11.535,-11.7175
-504,-405,-11.5446,12.2598,0.00284115,0.00197272,0.00203275,0.00448555,0.000328323,0.680175,0.00288715,0.0173309,720,1429,-11.5445,-12.2598
-497,-405,-11.5525,12.791,0.00433073,0.00308811,0.00324932,0.00701761,0.000401234,0.690933,0.00455056,0.01479,727,1429,-11.5525,-12.791
-490,-405,-11.5989,13.325,0.00630926,0.00463586,0.00485588,0.0104,0.000545129,0.700083,0.00675895,0.0123316,734,1429,-11.5989,-13.3249
-483,-405,-11.5186,13.973,0.00854692,0.00666697,0.00679755,0.0144692,0.000744714,0.716693,0.00940771,0.0235939,741,1429,-11.5185,-13.9731
-476,-405,-11.2909,14.7811,0,0,0,0,0,0,0,-1,748,1429,-11.2909,-14.7812
-469,-405,-9.65692,12.8171,0,0,0,0,0,0,0,-1,755,1429,-9.65691,-12.8172
-462,-405,-9.14862,11.3597,0,0,0,0,0,0,0,-1,762,1429,-9.14865,-11.3597
-455,-405,-9.021,9.51111,0,0,0,0,0,0,0,-1,769,1429,-9.021,-9.51109
-448,-405,-8.4649,6.82813,0,0,0,0,0,0,0,-1,776,1429,-8.46492,-6.82817
-441,-405,-6.6712,4.23767,0,0,0,0,0,0,0,-1,783,1429,-6.67121,-4.23764
-434,-405,-9.62549,3.94189,0,0,0,0,0,0,0,-1,790,1429,-9.62546,-3.94191
-427,-405,-10.9764,3.73926,0,0,0,0,0,0,0,-1,797,1429,-10.9764,-3.73923
-420,-405,-12.1187,3.68506,0,0,0,0,0,0,0,-1,804,1429,-12.1187,-3.68512
-413,-405,-13.5353,3.75659,0,0,0,0,0,0,0,-1,811,1429,-13.5353,-3.75655
-406,-405,-14.7374,3.99817,0,0,0,0,0,0,0,-1,818,1429,-14.7374,-3.99814
-399,-405,0,0,0,0,0,0,0,0,0,-1,825,1429,0,0
-392,-405,0,0,0,0,0,0,0,0,0,-1,832,1429,0,0
-385,-405,0,0,0,0,0,0,0,0,0,-1,839,1429,0,0
-378,-405,0,0,0,0,0,0,0,0,0,-1,846,1429,0,0
-371,-405,0,0,0,0,0,0,0,0,0,-1,853,1429,0,0
-364,-405,0,0,0,0,0,0,0,0,0,-1,860,1429,0,0
-357,-405,0,0,0,0,0,0,0,0,0,-1,867,1429,0,0
-350,-405,0,0,0,0,0,0,0,0,0,-1,874,1429,0,0
-343,-405,0,0,0,0,0,0,0,0,0,-1,881,1429,0,0
-336,-405,0,0,0,0,0,0,0,0,0,-1,888,1429,0,0
-329,-405,0,0,0,0,0,0,0,0,0,-1,895,1429,0,0
-322,-405,0,0,0,0,0,0,0,0,0,-1,902,1429,0,0
-315,-405,0,0,0,0,0,0,0,0,0,-1,909,1429,0,0
-308,-405,0,0,0,0,0,0,0,0,0,-1,916,1429,0,0
-301,-405,0,0,0,0,0,0,0,0,0,-1,923,1429,0,0
-294,-405,0,0,0,0,0,0,0,0,0,-1,930,1429,0,0
-287,-405,0,0,0,0,0,0,0,0,0,-1,937,1429,0,0
-280,-405,0,0,0,0,0,0,0,0,0,-1,944,1429,0,0
-273,-405,0,0,0,0,0,0,0,0,0,-1,951,1429,0,0
-266,-405,0,0,0,0,0,0,0,0,0,-1,958,1429,0,0
-259,-405,0,0,0,0,0,0,0,0,0,-1,965,1429,0,0
-252,-405,0,0,0,0,0,0,0,0,0,-1,972,1429,0,0
-245,-405,0,0,0,0,0,0,0,0,0,-1,979,1429,0,0
-238,-405,0,0,0,0,0,0,0,0,0,-1,986,1429,0,0
-231,-405,0,0,0,0,0,0,0,0,0,-1,993,1429,0,0
-224,-405,0,0,0,0,0,0,0,0,0,-1,1000,1429,0,0
-217,-405,0,0,0,0,0,0,0,0,0,-1,1007,1429,0,0
-210,-405,0,0,0,0,0,0,0,0,0,-1,1014,1429,0,0
-203,-405,0,0,0,0,0,0,0,0,0,-1,1021,1429,0,0
-196,-405,0,0,0,0,0,0,0,0,0,-1,1028,1429,0,0
-189,-405,0,0,0,0,0,0,0,0,0,-1,1035,1429,0,0
-182,-405,0,0,0,0,0,0,0,0,0,-1,1042,1429,0,0
-175,-405,0,0,0,0,0,0,0,0,0,-1,1049,1429,0,0
-168,-405,0,0,0,0,0,0,0,0,0,-1,1056,1429,0,0
-161,-405,0,0,0,0,0,0,0,0,0,-1,1063,1429,0,0
-154,-405,0,0,0,0,0,0,0,0,0,-1,1070,1429,0,0
-147,-405,0,0,0,0,0,0,0,0,0,-1,1077,1429,0,0
-140,-405,0,0,0,0,0,0,0,0,0,-1,1084,1429,0,0
-133,-405,0,0,0,0,0,0,0,0,0,-1,1091,1429,0,0
-126,-405,0,0,0,0,0,0,0,0,0,-1,1098,1429,0,0
-119,-405,0,0,0,0,0,0,0,0,0,-1,1105,1429,0,0
-112,-405,0,0,0,0,0,0,0,0,0,-1,1112,1429,0,0
-105,-405,0,0,0,0,0,0,0,0,0,-1,1119,1429,0,0
-98,-405,0,0,0,0,0,0,0,0,0,-1,1126,1429,0,0
-91,-405,0,0,0,0,0,0,0,0,0,-1,1133,1429,0,0
-84,-405,0,0,0,0,0,0,0,0,0,-1,1140,1429,0,0
-77,-405,0,0,0,0,0,0,0,0,0,-1,1147,1429,0,0
-70,-405,0,0,0,0,0,0,0,0,0,-1,1154,1429,0,0
-63,-405,0,0,0,0,0,0,0,0,0,-1,1161,1429,0,0
-56,-405,0,0,0,0,0,0,0,0,0,-1,1168,1429,0,0
-49,-405,0,0,0,0,0,0,0,0,0,-1,1175,1429,0,0
-42,-405,0,0,0,0,0,0,0,0,0,-1,1182,1429,0,0
-35,-405,0,0,0,0,0,0,0,0,0,-1,1189,1429,0,0
-28,-405,0,0,0,0,0,0,0,0,0,-1,1196,1429,0,0
-21,-405,0,0,0,0,0,0,0,0,0,-1,1203,1429,0,0
-14,-405,0,0,0,0,0,0,0,0,0,-1,1210,1429,0,0
-7,-405,0,0,0,0,0,0,0,0,0,-1,1217,1429,0,0
0,-405,0,0,0,0,0,0,0,0,0,-1,1224,1429,0,0
7,-405,0,0,0,0,0,0,0,0,0,-1,1231,1429,0,0
14,-405,0,0,0,0,0,0,0,0,0,-1,1238,1429,0,0
21,-405,0,0,0,0,0,0,0,0,0,-1,1245,1429,0,0
28,-405,0,0,0,0,0,0,0,0,0,-1,1252,1429,0,0
35,-405,0,0,0,0,0,0,0,0,0,-1,1259,1429,0,0
42,-405,0,0,0,0,0,0,0,0,0,-1,1266,1429,0,0
49,-405,0,0,0,0,0,0,0,0,0,-1,1273,1429,0,0
56,-405,0,0,0,0,0,0,0,0,0,-1,1280,1429,0,0
63,-405,0,0,0,0,0,0,0,0,0,-1,1287,1429,0,0
70,-405,0,0,0,0,0,0,0,0,0,-1,1294,1429,0,0
77,-405,0,0,0,0,0,0,0,0,0,-1,1301,1429,0,0
84,-405,0,0,0,0,0,0,0,0,0,-1,1308,1429,0,0
91,-405,0,0,0,0,0,0,0,0,0,-1,1315,1429,0,0
98,-405,0,0,0,0,0,0,0,0,0,-1,1322,1429,0,0
105,-405,0,0,0,0,0,0,0,0,0,-1,1329,1429,0,0
112,-405,0,0,0,0,0,0,0,0,0,-1,1336,1429,0,0
119,-405,0,0,0,0,0,0,0,0,0,-1,1343,1429,0,0
126,-405,0,0,0,0,0,0,0,0,0,-1,1350,1429,0,0
133,-405,0,0,0,0,0,0,0,0,0,-1,1357,1429,0,0
140,-405,0,0,0,0,0,0,0,0,0,-1,1364,1429,0,0
147,-405,0,0,0,0,0,0,0,0,0,-1,1371,1429,0,0
154,-405,0,0,0,0,0,0,0,0,0,-1,1378,1429,0,0
161,-405,0,0,0,0,0,0,0,0,0,-1,1385,1429,0,0
168,-405,0,0,0,0,0,0,0,0,0,-1,1392,1429,0,0
175,-405,0,0,0,0,0,0,0,0,0,-1,1399,1429,0,0
182,-405,0,0,0,0,0,0,0,0,0,-1,1406,1429,0,0
189,-405,0,0,0,0,0,0,0,0,0,-1,1413,1429,0,0
196,-405,0,0,0,0,0,0,0,0,0,-1,1420,1429,0,0
203,-405,0,0,0,0,0,0,0,0,0,-1,1427,1429,0,0
210,-405,0,0,0,0,0,0,0,0,0,-1,1434,1429,0,0
217,-405,0,0,0,0,0,0,0,0,0,-1,1441,1429,0,0
224,-405,0,0,0,0,0,0,0,0,0,-1,1448,1429,0,0
231,-405,0,0,0,0,0,0,0,0,0,-1,1455,1429,0,0
238,-405,0,0,0,0,0,0,0,0,0,-1,1462,1429,0,0
245,-405,0,0,0,0,0,0,0,0,0,-1,1469,1429,0,0
252,-405,0,0,0,0,0,0,0,0,0,-1,1476,1429,0,0
259,-405,0,0,0,0,0,0,0,0,0,-1,1483,1429,0,0
266,-405,0,0,0,0,0,0,0,0,0,-1,1490,1429,0,0
273,-405,0,0,0,0,0,0,0,0,0,-1,1497,1429,0,0
280,-405,0,0,0,0,0,0,0,0,0,-1,1504,1429,0,0
287,-405,0,0,0,0,0,0,0,0,0,-1,1511,1429,0,0
294,-405,0,0,0,0,0,0,0,0,0,-1,1518,1429,0,0
301,-405,0,0,0,0,0,0,0,0,0,-1,1525,1429,0,0
308,-405,0,0,0,0,0,0,0,0,0,-1,1532,1429,0,0
315,-405,0,0,0,0,0,0,0,0,0,-1,1539,1429,0,0
322,-405,0,0,0,0,0,0,0,0,0,-1,1546,1429,0,0
329,-405,0,0,0,0,0,0,0,0,0,-1,1553,1429,0,0
336,-405,0,0,0,0,0,0,0,0,0,-1,1560,1429,0,0
343,-405,0,0,0,0,0,0,0,0,0,-1,1567,1429,0,0
350,-405,0,0,0,0,0,0,0,0,0,-1,1574,1429,0,0
357,-405,0,0,0,0,0,0,0,0,0,-1,1581,1429,0,0
364,-405,0,0,0,0,0,0,0,0,0,-1,1588,1429,0,0
371,-405,0,0,0,0,0,0,0,0,0,-1,1595,1429,0,0
378,-405,0,0,0,0,0,0,0,0,0,-1,1602,1429,0,0
385,-405,0,0,0,0,0,0,0,0,0,-1,1609,1429,0,0
392,-405,0,0,0,0,0,0,0,0,0,-1,1616,1429,0,0
399,-405,0,0,0,0,0,0,0,0,0,-1,1623,1429,0,0
406,-405,0,0,0,0,0,0,0,0,0,-1,1630,1429,0,0
413,-405,0,0,0,0,0,0,0,0,0,-1,1637,1429,0,0
420,-405,0,0,0,0,0,0,0,0,0,-1,1644,1429,0,0
427,-405,0,0,0,0,0,0,0,0,0,-1,1651,1429,0,0
434,-405,0,0,0,0,0,0,0,0,0,-1,1658,1429,0,0
441,-405,0,0,0,0,0,0,0,0,0,-1,1665,1429,0,0
448,-405,0,0,0,0,0,0,0,0,0,-1,1672,1429,0,0
455,-405,0,0,0,0,0,0,0,0,0,-1,1679,1429,0,0
462,-405,0,0,0,0,0,0,0,0,0,-1,1686,1429,0,0
469,-405,0,0,0,0,0,0,0,0,0,-1,1693,1429,0,0
476,-405,0,0,0,0,0,0,0,0,0,-1,1700,1429,0,0
483,-405,0,0,0,0,0,0,0,0,0,-1,1707,1429,0,0
490,-405,0,0,0,0,0,0,0,0,0,-1,1714,1429,0,0
497,-405,0,0,0,0,0,0,0,0,0,-1,1721,1429,0,0
504,-405,0,0,0,0,0,0,0,0,0,-1,1728,1429,0,0
511,-405,0,0,0,0,0,0,0,0,0,-1,1735,1429,0,0
518,-405,0,0,0,0,0,0,0,0,0,-1,1742,1429,0,0
525,-405,31.1563,-1.40942,0,0,0,0,0,0,0,-1,1749,1429,31.1563,1.40937
532,-405,28.156,4.8783,0,0,0,0,0,0,0,-1,1756,1429,28.1561,-4.87833
539,-405,26.5133,3.02454,0,0,0,0,0,0,0,-1,1763,1429,26.5133,-3.0246
546,-405,29.5735,6.53052,0,0,0,0,0,0,0,-1,1770,1429,29.5735,-6.53049
553,-405,28.2911,6.70654,0,0,0,0,0,0,0,-1,1777,1429,28.2912,-6.70656
560,-405,26.9299,7.08472,0,0,0,0,0,0,0,-1,1784,1429,26.9299,-7.08469
567,-405,25.804,7.14661,0,0,0,0,0,0,0,-1,1791,1429,25.8039,-7.14665
574,-405,25.1151,8.07971,0,0,0,0,0,0,0,-1,1798,1429,25.1151,-8.07965
581,-405,23.5055,8.505,0,0,0,0,0,0,0,-1,1805,1429,23.5054,-8.50501
588,-405,21.7491,8.98254,0,0,0,0,0,0,0,-1,1812,1429,21.7491,-8.98254
595,-405,21.6327,10.7795,0,0,0,0,0,0,0,-1,1819,1429,21.6327,-10.7796
602,-405,21.6461,13.9199,0,0,0,0,0,0,0,-1,1826,1429,21.6461,-13.92
609,-405,25.7367,16.278,0,0,0,0,0,0,0,-1,1833,1429,25.7366,-16.2779
616,-405,25.9979,15.6312,0.00282563,0.00299642,-0.00299506,0.0059073,-8.52486e-05,-0.799651,0.00396692,0.038987,1840,1429,25.9979,-15.6312
623,-405,26.0353,15.0146,0.00200801,0.00181155,-0.00190129,0.00381361,5.94591e-06,-0.759589,0.00254042,0.0133934,1847,1429,26.0353,-15.0146
630,-405,26.0585,14.4741,0.00159642,0.00102987,-0.00119237,0.0025387,8.75918e-05,-0.668772,0.00166404,0.0106326,1854,1429,26.0584,-14.4741
637,-405,26.0677,13.975,0.00136153,0.000504038,-0.000730527,0.00177984,8.57352e-05,-0.520032,0.00115904,0.0112208,1861,1429,26.0678,-13.975
644,-405,25.9866,13.4318,0.00128445,0.000161418,-0.000341576,0.00138018,6.56866e-05,-0.273254,0.000899026,0.0303444,1868,1429,25.9865,-13.4318
651,-405,25.9409,12.9453,0.00135431,-9.45315e-05,-8.29983e-07,0.00135431,-9.45319e-05,-0.00057286,0.000935976,0.0345467,1875,1429,25.941,-12.9453
658,-405,25.9991,12.5358,0.00143089,-0.000368245,0.000383477,0.00150922,-0.000446571,0.201482,0.00118343,0.0248076,1882,1429,25.9991,-12.5357
665,-405,26.0146,12.0587,0.00156557,-0.000704068,0.000853454,0.00185068,-0.000989178,0.32241,0.00166455,0.0204323,1889,1429,26.0147,-12.0587
672,-405,25.9928,11.52,0.00172518,-0.00113222,0.00146545,0.00234312,-0.00175016,0.399049,0.00237151,0.0234334,1896,1429,25.9928,-11.52
679,-405,26.0173,11.0315,0.00186466,-0.00182946,0.00233469,0.00299458,-0.00295938,0.450742,0.00343754,0.0221301,1903,1429,26.0173,-11.0315
686,-405,25.8507,10.5801,0.00187026,-0.00315404,0.00380149,0.00391466,-0.00519844,0.493422,0.00527883,0.0408404,1910,1429,25.8508,-10.58
693,-405,25.5588,10.1499,0,0,0,0,0,0,0,-1,1917,1429,25.5588,-10.1499
700,-405,9.1958,4.02026,0,0,0,0,0,0,0,-1,1924,1429,9.19579,-4.02025
707,-405,7.40308,3.83191,0,0,0,0,0,0,0,-1,1931,1429,7.40311,-3.83194
714,-405,7.33252,3.47388,0,0,0,0,0,0,0,-1,1938,1429,7.33255,-3.47383
721,-405,9.23523,0.993896,0,0,0,0,0,0,0,-1,1945,1429,9.23523,-0.993884
728,-405,0,0,0,0,0,0,0,0,0,-1,1952,1429,0,0
735,-405,0,0,0,0,0,0,0,0,0,-1,1959,1429,0,0
742,-405,0,0,0,0,0,0,0,0,0,-1,1966,1429,0,0
749,-405,0,0,0,0,0,0,0,0,0,-1,1973,1429,0,0
756,-405,0,0,0,0,0,0,0,0,0,-1,1980,1429,0,0
763,-405,0,0,0,0,0,0,0,0,0,-1,1987,1429,0,0
770,-405,0,0,0,0,0,0,0,0,0,-1,1994,1429,0,0
777,-405,0,0,0,0,0,0,0,0,0,-1,2001,1429,0,0
784,-405,0,0,0,0,0,0,0,0,0,-1,2008,1429,0,0
791,-405,0,0,0,0,0,0,0,0,0,-1,2015,1429,0,0
798,-405,0,0,0,0,0,0,0,0,0,-1,2022,1429,0,0
805,-405,0,0,0,0,0,0,0,0,0,-1,2029,1429,0,0
812,-405,0,0,0,0,0,0,0,0,0,-1,2036,1429,0,0
-700,-412,0,0,0,0,0,0,0,0,0,-1,524,1436,0,0
-693,-412,0,0,0,0,0,0,0,0,0,-1,531,1436,0,0
-686,-412,0,0,0,0,0,0,0,0,0,-1,538,1436,0,0
-679,-412,0,0,0,0,0,0,0,0,0,-1,545,1436,0,0
-672,-412,0,0,0,0,0,0,0,0,0,-1,552,1436,0,0
-665,-412,0,0,0,0,0,0,0,0,0,-1,559,1436,0,0
-658,-412,0,0,0,0,0,0,0,0,0,-1,566,1436,0,0
-651,-412,0,0,0,0,0,0,0,0,0,-1,573,1436,0,0
-644,-412,0,0,0,0,0,0,0,0,0,-1,580,1436,0,0
-637,-412,0,0,0,0,0,0,0,0,0,-1,587,1436,0,0
-630,-412,0,0,0,0,0,0,0,0,0,-1,594,1436,0,0
-623,-412,0,0,0,0,0,0,0,0,0,-1,601,1436,0,0
-616,-412,0,0,0,0,0,0,0,0,0,-1,608,1436,0,0
-609,-412,0,0,0,0,0,0,0,0,0,-1,615,1436,0,0
-602,-412,-3.72766,-3.50012,0,0,0,0,0,0,0,-1,622,1436,-3.72764,3.50017
-595,-412,-10.3706,0.65564,0,0,0,0,0,0,0,-1,629,1436,-10.3706,-0.655672
-588,-412,-8.17957,1.94934,0,0,0,0,0,0,0,-1,636,1436,-8.17956,-1.94939
-581,-412,-6.60065,-0.0554199,0,0,0,0,0,0,0,-1,643,1436,-6.60063,0.0554733
-574,-412,-8.34131,5.25012,0,0,0,0,0,0,0,-1,650,1436,-8.34129,-5.25012
-567,-412,-7.50354,3.65454,0,0,0,0,0,0,0,-1,657,1436,-7.50356,-3.65452
-560,-412,-8.52448,7.39014,0,0,0,0,0,0,0,-1,664,1436,-8.52447,-7.39019
-553,-412,-7.36761,6.54651,0,0,0,0,0,0,0,-1,671,1436,-7.36763,-6.54654
-546,-412,-10.9264,9.0116,0,0,0,0,0,0,0,-1,678,1436,-10.9264,-9.01161
-539,-412,-10.9034,9.50696,-0.00111046,-0.000217373,-0.00108288,0.000507421,-0.00183526,-0.980959,0.00142313,0.022591,685,1436,-10.9034,-9.50698
-532,-412,-10.945,10.1268,-0.000954601,-0.000108163,-0.000811499,0.000383848,-0.00144661,-1.02576,0.00111461,0.0141193,692,1436,-10.945,-10.1268
-525,-412,-10.9727,10.674,-0.000501354,2.89042e-05,-0.000461792,0.000296264,-0.000768715,-1.04599,0.000634713,0.0157587,699,1436,-10.9727,-10.674
-518,-412,-10.9714,11.2311,0.000235704,0.000394387,9.60312e-05,0.000439613,0.000190478,1.13066,0.000254563,0.016254,706,1436,-10.9714,-11.231
-511,-412,-10.9794,11.7584,0.00113371,0.000923376,0.000780004,0.0018156,0.00024148,0.718389,0.00113848,0.0186212,713,1436,-10.9793,-11.7585
-504,-412,-11.0177,12.2638,0.00222014,0.00167293,0.00164067,0.00360986,0.000283204,0.702777,0.00231795,0.0184983,720,1436,-11.0177,-12.2638
-497,-412,-11.0436,12.8075,0.00362751,0.00268201,0.00274873,0.00594385,0.000365677,0.700237,0.00384647,0.0149302,727,1436,-11.0436,-12.8075
-490,-412,-11.0569,13.3556,0.00547081,0.00409383,0.00421131,0.00904954,0.000515105,0.704372,0.00586887,0.0122592,734,1436,-11.0569,-13.3556
-483,-412,-11.0551,13.8822,0.00769215,0.00588605,0.00603397,0.0128903,0.000687932,0.711119,0.00837363,0.00971799,741,1436,-11.0551,-13.8821
-476,-412,-10.8728,14.6655,0.0103403,0.00823495,0.00835153,0.0177052,0.000870015,0.722706,0.0115244,0.0355337,748,1436,-10.8728,-14.6656
-469,-412,-10.7526,15.4691,0,0,0,0,0,0,0,-1,755,1436,-10.7526,-15.4691
-462,-412,-8.94659,13.3385,0,0,0,0,0,0,0,-1,762,1436,-8.94657,-13.3385
-455,-412,-8.25006,11.2572,0,0,0,0,0,0,0,-1,769,1436,-8.25007,-11.2572
-448,-412,-7.38086,8.78186,0,0,0,0,0,0,0,-1,776,1436,-7.38088,-8.78183
-441,-412,-8.79523,9.05286,0,0,0,0,0,0,0,-1,783,1436,-8.79521,-9.0529
-434,-412,-10.6305,8.03577,0,0,0,0,0,0,0,-1,790,1436,-10.6305,-8.0358
-427,-412,-10.0004,5.15271,0,0,0,0,0,0,0,-1,797,1436,-10.0004,-5.15266
-420,-412,-10.4468,4.9043,0,0,0,0,0,0,0,-1,804,1436,-10.4468,-4.90429
-413,-412,-11.5704,4.97766,0,0,0,0,0,0,0,-1,811,1436,-11.5704,-4.97771
-406,-412,-13.1968,5.70093,0,0,0,0,0,0,0,-1,818,1436,-13.1968,-5.70096
-399,-412,-10.5506,0.771973,0,0,0,0,0,0,0,-1,825,1436,-10.5506,-0.771954
-392,-412,0,0,0,0,0,0,0,0,0,-1,832,1436,0,0
-385,-412,0,0,0,0,0,0,0,0,0,-1,839,1436,0,0
-378,-412,0,0,0,0,0,0,0,0,0,-1,846,1436,0,0
-371,-412,0,0,0,0,0,0,0,0,0,-1,853,1436,0,0
-364,-412,0,0,0,0,0,0,0,0,0,-1,860,1436,0,0
-357,-412,0,0,0,0,0,0,0,0,0,-1,867,1436,0,0
-350,-412,0,0,0,0,0,0,0,0,0,-1,874,1436,0,0
-343,-412,0,0,0,0,0,0,0,0,0,-1,881,1436,0,0
-336,-412,0,0,0,0,0,0,0,0,0,-1,888,1436,0,0
-329,-412,0,0,0,0,0,0,0,0,0,-1,895,1436,0,0
-322,-412,0,0,0,0,0,0,0,0,0,-1,902,1436,0,0
-315,-412,0,0,0,0,0,0,0,0,0,-1,909,1436,0,0
-308,-412,0,0,0,0,0,0,0,0,0,-1,916,1436,0,0
-301,-412,0,0,0,0,0,0,0,0,0,-1,923,1436,0,0
-294,-412,0,0,0,0,0,0,0,0,0,-1,930,1436,0,0
-287,-412,0,0,0,0,0,0,0,0,0,-1,937,1436,0,0
-280,-412,0,0,0,0,0,0,0,0,0,-1,944,1436,0,0
-273,-412,0,0,0,0,0,0,0,0,0,-1,951,1436,0,0
-266,-412,0,0,0,0,0,0,0,0,0,-1,958,1436,0,0
-259,-412,0,0,0,0,0,0,0,0,0,-1,965,1436,0,0
-252,-412,0,0,0,0,0,0,0,0,0,-1,972,1436,0,0
-245,-412,0,0,0,0,0,0,0,0,0,-1,979,1436,0,0
-238,-412,0,0,0,0,0,0,0,0,0,-1,986,1436,0,0
-231,-412,0,0,0,0,0,0,0,0,0,-1,993,1436,0,0
-224,-412,0,0,0,0,0,0,0,0,0,-1,1000,1436,0,0
-217,-412,0,0,0,0,0,0,0,0,0,-1,1007,1436,0,0
-210,-412,0,0,0,0,0,0,0,0,0,-1,1014,1436,0,0
-203,-412,0,0,0,0,0,0,0,0,0,-1,1021,1436,0,0
-196,-412,0,0,0,0,0,0,0,0,0,-1,1028,1436,0,0
-189,-412,0,0,0,0,0,0,0,0,0,-1,1035,1436,0,0
-182,-412,0,0,0,0,0,0,0,0,0,-1,1042,1436,0,0
-175,-412,0,0,0,0,0,0,0,0,0,-1,1049,1436,0,0
-168,-412,0,0,0,0,0,0,0,0,0,-1,1056,1436,0,0
-161,-412,0,0,0,0,0,0,0,0,0,-1,1063,1436,0,0
-154,-412,0,0,0,0,0,0,0,0,0,-1,1070,1436,0,0
-147,-412,0,0,0,0,0,0,0,0,0,-1,1077,1436,0,0
-140,-412,0,0,0,0,0,0,0,0,0,-1,1084,1436,0,0
-133,-412,0,0,0,0,0,0,0,0,0,-1,1091,1436,0,0
-126,-412,0,0,0,0,0,0,0,0,0,-1,1098,1436,0,0
-119,-412,0,0,0,0,0,0,0,0,0,-1,1105,1436,0,0
-112,-412,0,0,0,0,0,0,0,0,0,-1,1112,1436,0,0
-105,-412,0,0,0,0,0,0,0,0,0,-1,1119,1436,0,0
-98,-412,0,0,0,0,0,0,0,0,0,-1,1126,1436,0,0
-91,-412,0,0,0,0,0,0,0,0,0,-1,1133,1436,0,0
-84,-412,0,0,0,0,0,0,0,0,0,-1,1140,1436,0,0
-77,-412,0,0,0,0,0,0,0,0,0,-1,1147,1436,0,0
-70,-412,0,0,0,0,0,0,0,0,0,-1,1154,1436,0,0
-63,-412,0,0,0,0,0,0,0,0,0,-1,1161,1436,0,0
-56,-412,0,0,0,0,0,0,0,0,0,-1,1168,1436,0,0
-49,-412,0,0,0,0,0,0,0,0,0,-1,1175,1436,0,0
-42,-412,0,0,0,0,0,0,0,0,0,-1,1182,1436,0,0
-35,-412,0,0,0,0,0,0,0,0,0,-1,1189,1436,0,0
-28,-412,0,0,0,0,0,0,0,0,0,-1,1196,1436,0,0
-21,-412,0,0,0,0,0,0,0,0,0,-1,1203,1436,0,0
-14,-412,0,0,0,0,0,0,0,0,0,-1,1210,1436,0,0
-7,-412,0,0,0,0,0,0,0,0,0,-1,1217,1436,0,0
0,-412,0,0,0,0,0,0,0,0,0,-1,1224,1436,0,0
7,-412,0,0,0,0,0,0,0,0,0,-1,1231,1436,0,0
14,-412,0,0,0,0,0,0,0,0,0,-1,1238,1436,0,0
21,-412,0,0,0,0,0,0,0,0,0,-1,1245,1436,0,0
28,-412,0,0,0,0,0,0,0,0,0,-1,1252,1436,0,0
35,-412,0,0,0,0,0,0,0,0,0,-1,1259,1436,0,0
42,-412,0,0,0,0,0,0,0,0,0,-1,1266,1436,0,0
49,-412,0,0,0,0,0,0,0,0,0,-1,1273,1436,0,0
56,-412,0,0,0,0,0,0,0,0,0,-1,1280,1436,0,0
63,-412,0,0,0,0,0,0,0,0,0,-1,1287,1436,0,0
70,-412,0,0,0,0,0,0,0,0,0,-1,1294,1436,0,0
77,-412,0,0,0,0,0,0,0,0,0,-1,1301,1436,0,0
84,-412,0,0,0,0,0,0,0,0,0,-1,1308,1436,0,0
91,-412,0,0,0,0,0,0,0,0,0,-1,1315,1436,0,0
98,-412,0,0,0,0,0,0,0,0,0,-1,1322,1436,0,0
105,-412,0,0,0,0,0,0,0,0,0,-1,1329,1436,0,0
112,-412,0,0,0,0,0,0,0,0,0,-1,1336,1436,0,0
119,-412,0,0,0,0,0,0,0,0,0,-1,1343,1436,0,0
126,-412,0,0,0,0,0,0,0,0,0,-1,1350,1436,0,0
133,-412,0,0,0,0,0,0,0,0,0,-1,1357,1436,0,0
140,-412,0,0,0,0,0,0,0,0,0,-1,1364,1436,0,0
147,-412,0,0,0,0,0,0,0,0,0,-1,1371,1436,0,0
154,-412,0,0,0,0,0,0,0,0,0,-1,1378,1436,0,0
161,-412,0,0,0,0,0,0,0,0,0,-1,1385,1436,0,0
168,-412,0,0,0,0,0,0,0,0,0,-1,1392,1436,0,0
175,-412,0,0,0,0,0,0,0,0,0,-1,1399,1436,0,0
182,-412,0,0,0,0,0,0,0,0,0,-1,1406,1436,0,0
189,-412,0,0,0,0,0,0,0,0,0,-1,1413,1436,0,0
196,-412,0,0,0,0,0,0,0,0,0,-1,1420,1436,0,0
203,-412,0,0,0,0,0,0,0,0,0,-1,1427,1436,0,0
210,-412,0,0,0,0,0,0,0,0,0,-1,1434,1436,0,0
217,-412,0,0,0,0,0,0,0,0,0,-1,1441,1436,0,0
224,-412,0,0,0,0,0,0,0,0,0,-1,1448,1436,0,0
231,-412,0,0,0,0,0,0,0,0,0,-1,1455,1436,0,0
238,-412,0,0,0,0,0,0,0,0,0,-1,1462,1436,0,0
245,-412,0,0,0,0,0,0,0,0,0,-1,1469,1436,0,0
252,-412,0,0,0,0,0,0,0,0,0,-1,1476,1436,0,0
259,-412,0,0,0,0,0,0,0,0,0,-1,1483,1436,0,0
266,-412,0,0,0,0,0,0,0,0,0,-1,1490,1436,0,0
273,-412,0,0,0,0,0,0,0,0,0,-1,1497,1436,0,0
280,-412,0,0,0,0,0,0,0,0,0,-1,1504,1436,0,0
287,-412,0,0,0,0,0,0,0,0,0,-1,1511,1436,0,0
294,-412,0,0,0,0,0,0,0,0,0,-1,1518,1436,0,0
301,-412,0,0,0,0,0,0,0,0,0,-1,1525,1436,0,0
308,-412,0,0,0,0,0,0,0,0,0,-1,1532,1436,0,0
315,-412,0,0,0,0,0,0,0,0,0,-1,1539,1436,0,0
322,-412,0,0,0,0,0,0,0,0,0,-1,1546,1436,0,0
329,-412,0,0,0,0,0,0,0,0,0,-1,1553,1436,0,0
336,-412,0,0,0,0,0,0,0,0,0,-1,1560,1436,0,0
343,-412,0,0,0,0,0,0,0,0,0,-1,1567,1436,0,0
350,-412,0,0,0,0,0,0,0,0,0,-1,1574,1436,0,0
357,-412,0,0,0,0,0,0,0,0,0,-1,1581,1436,0,0
364,-412,0,0,0,0,0,0,0,0,0,-1,1588,1436,0,0
371,-412,0,0,0,0,0,0,0,0,0,-1,1595,1436,0,0
378,-412,0,0,0,0,0,0,0,0,0,-1,1602,1436,0,0
385,-412,0,0,0,0,0,0,0,0,0,-1,1609,1436,0,0
392,-412,0,0,0,0,0,0,0,0,0,-1,1616,1436,0,0
399,-412,0,0,0,0,0,0,0,0,0,-1,1623,1436,0,0
406,-412,0,0,0,0,0,0,0,0,0,-1,1630,1436,0,0
413,-412,0,0,0,0,0,0,0,0,0,-1,1637,1436,0,0
420,-412,0,0,0,0,0,0,0,0,0,-1,1644,1436,0,0
427,-412,0,0,0,0,0,0,0,0,0,-1,1651,1436,0,0
434,-412,0,0,0,0,0,0,0,0,0,-1,1658,1436,0,0
441,-412,0,0,0,0,0,0,0,0,0,-1,1665,1436,0,0
448,-412,0,0,0,0,0,0,0,0,0,-1,1672,1436,0,0
455,-412,0,0,0,0,0,0,0,0,0,-1,1679,1436,0,0
462,-412,0,0,0,0,0,0,0,0,0,-1,1686,1436,0,0
469,-412,0,0,0,0,0,0,0,0,0,-1,1693,1436,0,0
476,-412,0,0,0,0,0,0,0,0,0,-1,1700,1436,0,0
483,-412,0,0,0,0,0,0,0,0,0,-1,1707,1436,0,0
490,-412,0,0,0,0,0,0,0,0,0,-1,1714,1436,0,0
497,-412,0,0,0,0,0,0,0,0,0,-1,1721,1436,0,0
504,-412,0,0,0,0,0,0,0,0,0,-1,1728,1436,0,0
511,-412,0,0,0,0,0,0,0,0,0,-1,1735,1436,0,0
518,-412,30.1038,-2.43384,0,0,0,0,0,0,0,-1,1742,1436,30.1038,2.43383
525,-412,29.5283,-1.42493,0,0,0,0,0,0,0,-1,1749,1436,29.5283,1.42495
532,-412,28.8533,-0.386597,0,0,0,0,0,0,0,-1,1756,1436,28.8533,0.386632
539,-412,25.8654,2.74683,0,0,0,0,0,0,0,-1,1763,1436,25.8654,-2.74685
546,-412,25.4265,2.4342,0,0,0,0,0,0,0,-1,1770,1436,25.4265,-2.4342
553,-412,26.3595,7.49255,0,0,0,0,0,0,0,-1,1777,1436,26.3595,-7.4925
560,-412,24.9116,7.94324,0,0,0,0,0,0,0,-1,1784,1436,24.9116,-7.94327
567,-412,23.668,7.94531,0,0,0,0,0,0,0,-1,1791,1436,23.6679,-7.94534
574,-412,23.0142,9.17236,0,0,0,0,0,0,0,-1,1798,1436,23.0141,-9.17235
581,-412,22.2615,10.0349,0,0,0,0,0,0,0,-1,1805,1436,22.2615,-10.0349
588,-412,21.6893,10.8069,0,0,0,0,0,0,0,-1,1812,1436,21.6893,-10.8069
595,-412,21.5137,14.3157,0,0,0,0,0,0,0,-1,1819,1436,21.5137,-14.3157
602,-412,25.3699,16.8488,0,0,0,0,0,0,0,-1,1826,1436,25.3699,-16.8488
609,-412,25.5481,16.0667,0.00367042,0.00434708,-0.00402816,0.0080511,-3.35928e-05,-0.827295,0.00537863,0.031709,1833,1436,25.5481,-16.0667
616,-412,25.6039,15.5002,0.00269771,0.00277433,-0.00277295,0.00550923,-3.71905e-05,-0.792306,0.00368528,0.0115214,1840,1436,25.6039,-15.5002
623,-412,25.5544,15.011,0.00207502,0.00174596,-0.00187081,0.00378852,3.24597e-05,-0.741539,0.00251493,0.00946927,1847,1436,25.5544,-15.011
630,-412,25.5477,14.5062,0.00176556,0.000994783,-0.00124115,0.00267978,8.05617e-05,-0.634864,0.00176028,0.0112729,1854,1436,25.5477,-14.5062
637,-412,25.5651,13.9854,0.00156876,0.000477224,-0.000766063,0.00196359,8.23996e-05,-0.475887,0.00128247,0.0133935,1861,1436,25.5651,-13.9853
644,-412,25.5602,13.4924,0.00153973,0.000104918,-0.000367726,0.00162848,1.61636e-05,-0.23683,0.00108031,0.0148566,1868,1436,25.5602,-13.4924
651,-412,25.5323,12.9818,0.0016366,-0.000123729,-5.75465e-05,0.00163848,-0.000125608,-0.0326443,0.0011365,0.0255253,1875,1436,25.5323,-12.9819
658,-412,25.5165,12.5293,0.00172743,-0.000355007,0.000290873,0.00176729,-0.000394873,0.136207,0.00132951,0.0180411,1882,1436,25.5165,-12.5293
665,-412,25.5094,12.0875,0.00184205,-0.000637552,0.000732844,0.00204244,-0.000837948,0.266925,0.00171077,0.0236849,1889,1436,25.5094,-12.0875
672,-412,25.54,11.5541,0.00192105,-0.000987896,0.00132357,0.00243313,-0.00149998,0.369156,0.00229198,0.0282694,1896,1436,25.54,-11.5541
679,-412,25.5847,11.0305,0.00189497,-0.00168199,0.00224111,0.00297376,-0.00276078,0.448628,0.0033116,0.0405601,1903,1436,25.5847,-11.0306
686,-412,25.2988,10.5293,0,0,0,0,0,0,0,-1,1910,1436,25.2988,-10.5293
693,-412,11.9346,6.02344,0,0,0,0,0,0,0,-1,1917,1436,11.9346,-6.02343
700,-412,8.82764,5.8844,0,0,0,0,0,0,0,-1,1924,1436,8.82761,-5.88444
707,-412,6.59998,1.68994,0,0,0,0,0,0,0,-1,1931,1436,6.60002,-1.68995
714,-412,4.77283,-2.39832,0,0,0,0,0,0,0,-1,1938,1436,4.77288,2.39835
721,-412,0,0,0,0,0,0,0,0,0,-1,1945,1436,0,0
728,-412,0,0,0,0,0,0,0,0,0,-1,1952,1436,0,0
735,-412,0,0,0,0,0,0,0,0,0,-1,1959,1436,0,0
742,-412,0,0,0,0,0,0,0,0,0,-1,1966,1436,0,0
749,-412,0,0,0,0,0,0,0,0,0,-1,1973,1436,0,0
756,-412,0,0,0,0,0,0,0,0,0,-1,1980,1436,0,0
763,-412,0,0,0,0,0,0,0,0,0,-1,1987,1436,0,0
770,-412,0,0,0,0,0,0,0,0,0,-1,1994,1436,0,0
777,-412,0,0,0,0,0,0,0,0,0,-1,2001,1436,0,0
784,-412,0,0,0,0,0,0,0,0,0,-1,2008,1436,0,0
791,-412,0,0,0,0,0,0,0,0,0,-1,2015,1436,0,0
798,-412,0,0,0,0,0,0,0,0,0,-1,2022,1436,0,0
805,-412,0,0,0,0,0,0,0,0,0,-1,2029,1436,0,0
812,-412,0,0,0,0,0,0,0,0,0,-1,2036,1436,0,0
-700,-419,0,0,0,0,0,0,0,0,0,-1,524,1443,0,0
-693,-419,0,0,0,0,0,0,0,0,0,-1,531,1443,0,0
-686,-419,0,0,0,0,0,0,0,0,0,-1,538,1443,0,0
-679,-419,0,0,0,0,0,0,0,0,0,-1,545,1443,0,0
-672,-419,0,0,0,0,0,0,0,0,0,-1,552,1443,0,0
-665,-419,0,0,0,0,0,0,0,0,0,-1,559,1443,0,0
-658,-419,0,0,0,0,0,0,0,0,0,-1,566,1443,0,0
-651,-419,0,0,0,0,0,0,0,0,0,-1,573,1443,0,0
-644,-419,0,0,0,0,0,0,0,0,0,-1,580,1443,0,0
-637,-419,0,0,0,0,0,0,0,0,0,-1,587,1443,0,0
-630,-419,0,0,0,0,0,0,0,0,0,-1,594,1443,0,0
-623,-419,0,0,0,0,0,0,0,0,0,-1,601,1443,0,0
-616,-419,0,0,0,0,0,0,0,0,0,-1,608,1443,0,0
-609,-419,0,0,0,0,0,0,0,0,0,-1,615,1443,0,0
-602,-419,0,0,0,0,0,0,0,0,0,-1,622,1443,0,0
-595,-419,-11.4904,-0.622681,0,0,0,0,0,0,0,-1,629,1443,-11.4903,0.622714
-588,-419,-9.09369,0.742432,0,0,0,0,0,0,0,-1,636,1443,-9.09366,-0.742482
-581,-419,-6.39172,2.14673,0,0,0,0,0,0,0,-1,643,1443,-6.39175,-2.14668
-574,-419,-4.09772,3.54773,0,0,0,0,0,0,0,-1,650,1443,-4.09772,-3.54767
-567,-419,-6.14038,3.22498,0,0,0,0,0,0,0,-1,657,1443,-6.14037,-3.22497
-560,-419,-4.52814,5.22253,0,0,0,0,0,0,0,-1,664,1443,-4.52816,-5.22251
-553,-419,-5.08331,6.11829,0,0,0,0,0,0,0,-1,671,1443,-5.08331,-6.1183
-546,-419,-9.96637,9.02966,0,0,0,0,0,0,0,-1,678,1443,-9.96638,-9.02971
-539,-419,-10.1245,9.59912,-0.00236236,-5.2871e-05,-0.00125496,0.000497776,-0.002913,-1.15731,0.00212743,0.0489931,685,1443,-10.1245,-9.59913
-532,-419,-10.4098,10.1267,-0.00194343,-5.85845e-05,-0.000960003,0.000344269,-0.00234628,-1.17348,0.00169067,0.0215196,692,1443,-10.4098,-10.1267
-525,-419,-10.4238,10.7097,-0.00133545,-7.25442e-05,-0.000655673,0.0002063,-0.00161429,-1.16869,0.00115114,0.0130653,699,1443,-10.4238,-10.7097
-518,-419,-10.4219,11.2312,-0.000499299,0.000172037,-0.000150439,0.000204207,-0.000531469,-1.36013,0.000438528,0.0169918,706,1443,-10.422,-11.2312
-511,-419,-10.4227,11.7903,0.000454404,0.000630644,0.00048172,0.00103224,5.28106e-05,0.875862,0.000671247,0.0191745,713,1443,-10.4227,-11.7902
-504,-419,-10.4737,12.2911,0.00152753,0.00130414,0.00125175,0.00267256,0.000159113,0.7409,0.00173111,0.0184317,720,1443,-10.4737,-12.2912
-497,-419,-10.5012,12.8187,0.00287404,0.00222349,0.00223801,0.00481029,0.00028724,0.713232,0.00311553,0.0133295,727,1443,-10.5011,-12.8187
-490,-419,-10.4999,13.3693,0.00459419,0.0035126,0.00354177,0.00763622,0.000470573,0.709638,0.00494143,0.01082,734,1443,-10.4999,-13.3692
-483,-419,-10.513,13.8893,0.00671574,0.00511937,0.00520919,0.0111875,0.00064757,0.709376,0.00725215,0.00952573,741,1443,-10.513,-13.8893
-476,-419,-10.4968,14.4565,0.00920947,0.0071645,0.00724744,0.0155062,0.000867774,0.71532,0.0100607,0.0145799,748,1443,-10.4968,-14.4565
-469,-419,-10.3951,15.1959,0.0126072,0.00977486,0.00998752,0.0212784,0.0011036,0.714971,0.0138324,0.0377451,755,1443,-10.3951,-15.1959
-462,-419,-10.1174,15.998,0,0,0,0,0,0,0,-1,762,1443,-10.1174,-15.998
-455,-419,-7.35645,11.9451,0,0,0,0,0,0,0,-1,769,1443,-7.35646,-11.9451
-448,-419,-7.49109,9.92444,0,0,0,0,0,0,0,-1,776,1443,-7.49109,-9.92442
-441,-419,-7.65527,8.75574,0,0,0,0,0,0,0,-1,783,1443,-7.65525,-8.75568
-434,-419,-11.3724,12.3643,0,0,0,0,0,0,0,-1,790,1443,-11.3724,-12.3643
-427,-419,-8.23193,7.89404,0,0,0,0,0,0,0,-1,797,1443,-8.23193,-7.89404
-420,-419,-8.74091,6.36597,0,0,0,0,0,0,0,-1,804,1443,-8.74089,-6.366
-413,-419,-9.88391,6.53955,0,0,0,0,0,0,0,-1,811,1443,-9.8839,-6.53955
-406,-419,-10.3372,2.75195,0,0,0,0,0,0,0,-1,818,1443,-10.3372,-2.75201
-399,-419,-11.5999,1.40002,0,0,0,0,0,0,0,-1,825,1443,-11.5999,-1.39998
-392,-419,0,0,0,0,0,0,0,0,0,-1,832,1443,0,0
-385,-419,0,0,0,0,0,0,0,0,0,-1,839,1443,0,0
-378,-419,0,0,0,0,0,0,0,0,0,-1,846,1443,0,0
-371,-419,0,0,0,0,0,0,0,0,0,-1,853,1443,0,0
-364,-419,0,0,0,0,0,0,0,0,0,-1,860,1443,0,0
-357,-419,0,0,0,0,0,0,0,0,0,-1,867,1443,0,0
-350,-419,0,0,0,0,0,0,0,0,0,-1,874,1443,0,0
-343,-419,0,0,0,0,0,0,0,0,0,-1,881,1443,0,0
-336,-419,0,0,0,0,0,0,0,0,0,-1,888,1443,0,0
-329,-419,0,0,0,0,0,0,0,0,0,-1,895,1443,0,0
-322,-419,0,0,0,0,0,0,0,0,0,-1,902,1443,0,0
-315,-419,0,0,0,0,0,0,0,0,0,-1,909,1443,0,0
-308,-419,0,0,0,0,0,0,0,0,0,-1,916,1443,0,0
-301,-419,0,0,0,0,0,0,0,0,0,-1,923,1443,0,0
-294,-419,0,0,0,0,0,0,0,0,0,-1,930,1443,0,0
-287,-419,0,0,0,0,0,0,0,0,0,-1,937,1443,0,0
-280,-419,0,0,0,0,0,0,0,0,0,-1,944,1443,0,0
-273,-419,0,0,0,0,0,0,0,0,0,-1,951,1443,0,0
-266,-419,0,0,0,0,0,0,0,0,0,-1,958,1443,0,0
-259,-419,0,0,0,0,0,0,0,0,0,-1,965,1443,0,0
-252,-419,0,0,0,0,0,0,0,0,0,-1,972,1443,0,0
-245,-419,0,0,0,0,0,0,0,0,0,-1,979,1443,0,0
-238,-419,0,0,0,0,0,0,0,0,0,-1,986,1443,0,0
-231,-419,0,0,0,0,0,0,0,0,0,-1,993,1443,0,0
-224,-419,0,0,0,0,0,0,0,0,0,-1,1000,1443,0,0
-217,-419,0,0,0,0,0,0,0,0,0,-1,1007,1443,0,0
-210,-419,0,0,0,0,0,0,0,0,0,-1,1014,1443,0,0
-203,-419,0,0,0,0,0,0,0,0,0,-1,1021,1443,0,0
-196,-419,0,0,0,0,0,0,0,0,0,-1,1028,1443,0,0
-189,-419,0,0,0,0,0,0,0,0,0,-1,1035,1443,0,0
-182,-419,0,0,0,0,0,0,0,0,0,-1,1042,1443,0,0
-175,-419,0,0,0,0,0,0,0,0,0,-1,1049,1443,0,0
-168,-419,0,0,0,0,0,0,0,0,0,-1,1056,1443,0,0
-161,-419,0,0,0,0,0,0,0,0,0,-1,1063,1443,0,0
-154,-419,0,0,0,0,0,0,0,0,0,-1,1070,1443,0,0
-147,-419,0,0,0,0,0,0,0,0,0,-1,1077,1443,0,0
-140,-419,0,0,0,0,0,0,0,0,0,-1,1084,1443,0,0
-133,-419,0,0,0,0,0,0,0,0,0,-1,1091,1443,0,0
-126,-419,0,0,0,0,0,0,0,0,0,-1,1098,1443,0,0
-119,-419,0,0,0,0,0,0,0,0,0,-1,1105,1443,0,0
-112,-419,0,0,0,0,0,0,0,0,0,-1,1112,1443,0,0
-105,-419,0,0,0,0,0,0,0,0,0,-1,1119,1443,0,0
-98,-419,0,0,0,0,0,0,0,0,0,-1,1126,1443,0,0
-91,-419,0,0,0,0,0,0,0,0,0,-1,1133,1443,0,0
-84,-419,0,0,0,0,0,0,0,0,0,-1,1140,1443,0,0
-77,-419,0,0,0,0,0,0,0,0,0,-1,1147,1443,0,0
-70,-419,0,0,0,0,0,0,0,0,0,-1,1154,1443,0,0
-63,-419,0,0,0,0,0,0,0,0,0,-1,1161,1443,0,0
-56,-419,0,0,0,0,0,0,0,0,0,-1,1168,1443,0,0
-49,-419,0,0,0,0,0,0,0,0,0,-1,1175,1443,0,0
-42,-419,0,0,0,0,0,0,0,0,0,-1,1182,1443,0,0
-35,-419,0,0,0,0,0,0,0,0,0,-1,1189,1443,0,0
-28,-419,0,0,0,0,0,0,0,0,0,-1,1196,1443,0,0
-21,-419,0,0,0,0,0,0,0,0,0,-1,1203,1443,0,0
-14,-419,0,0,0,0,0,0,0,0,0,-1,1210,1443,0,0
-7,-419,0,0,0,0,0,0,0,0,0,-1,1217,1443,0,0
0,-419,0,0,0,0,0,0,0,0,0,-1,1224,1443,0,0
7,-419,0,0,0,0,0,0,0,0,0,-1,1231,1443,0,0
14,-419,0,0,0,0,0,0,0,0,0,-1,1238,1443,0,0
21,-419,0,0,0,0,0,0,0,0,0,-1,1245,1443,0,0
28,-419,0,0,0,0,0,0,0,0,0,-1,1252,1443,0,0
35,-419,0,0,0,0,0,0,0,0,0,-1,1259,1443,0,0
42,-419,0,0,0,0,0,0,0,0,0,-1,1266,1443,0,0
49,-419,0,0,0,0,0,0,0,0,0,-1,1273,1443,0,0
56,-419,0,0,0,0,0,0,0,0,0,-1,1280,1443,0,0
63,-419,0,0,0,0,0,0,0,0,0,-1,1287,1443,0,0
70,-419,0,0,0,0,0,0,0,0,0,-1,1294,1443,0,0
77,-419,0,0,0,0,0,0,0,0,0,-1,1301,1443,0,0
84,-419,0,0,0,0,0,0,0,0,0,-1,1308,1443,0,0
91,-419,0,0,0,0,0,0,0,0,0,-1,1315,1443,0,0
98,-419,0,0,0,0,0,0,0,0,0,-1,1322,1443,0,0
105,-419,0,0,0,0,0,0,0,0,0,-1,1329,1443,0,0
112,-419,0,0,0,0,0,0,0,0,0,-1,1336,1443,0,0
119,-419,0,0,0,0,0,0,0,0,0,-1,1343,1443,0,0
126,-419,0,0,0,0,0,0,0,0,0,-1,1350,1443,0,0
133,-419,0,0,0,0,0,0,0,0,0,-1,1357,1443,0,0
140,-419,0,0,0,0,0,0,0,0,0,-1,1364,1443,0,0
147,-419,0,0,0,0,0,0,0,0,0,-1,1371,1443,0,0
154,-419,0,0,0,0,0,0,0,0,0,-1,1378,1443,0,0
161,-419,0,0,0,0,0,0,0,0,0,-1,1385,1443,0,0
168,-419,0,0,0,0,0,0,0,0,0,-1,1392,1443,0,0
175,-419,0,0,0,0,0,0,0,0,0,-1,1399,1443,0,0
182,-419,0,0,0,0,0,0,0,0,0,-1,1406,1443,0,0
189,-419,0,0,0,0,0,0,0,0,0,-1,1413,1443,0,0
196,-419,0,0,0,0,0,0,0,0,0,-1,1420,1443,0,0
203,-419,0,0,0,0,0,0,0,0,0,-1,1427,1443,0,0
210,-419,0,0,0,0,0,0,0,0,0,-1,1434,1443,0,0
217,-419,0,0,0,0,0,0,0,0,0,-1,1441,1443,0,0
224,-419,0,0,0,0,0,0,0,0,0,-1,1448,1443,0,0
231,-419,0,0,0,0,0,0,0,0,0,-1,1455,1443,0,0
238,-419,0,0,0,0,0,0,0,0,0,-1,1462,1443,0,0
245,-419,0,0,0,0,0,0,0,0,0,-1,1469,1443,0,0
252,-419,0,0,0,0,0,0,0,0,0,-1,1476,1443,0,0
259,-419,0,0,0,0,0,0,0,0,0,-1,1483,1443,0,0
266,-419,0,0,0,0,0,0,0,0,0,-1,1490,1443,0,0
273,-419,0,0,0,0,0,0,0,0,0,-1,1497,1443,0,0
280,-419,0,0,0,0,0,0,0,0,0,-1,1504,1443,0,0
287,-419,0,0,0,0,0,0,0,0,0,-1,1511,1443,0,0
294,-419,0,0,0,0,0,0,0,0,0,-1,1518,1443,0,0
301,-419,0,0,0,0,0,0,0,0,0,-1,1525,1443,0,0
308,-419,0,0,0,0,0,0,0,0,0,-1,1532,1443,0,0
315,-419,0,0,0,0,0,0,0,0,0,-1,1539,1443,0,0
322,-419,0,0,0,0,0,0,0,0,0,-1,1546,1443,0,0
329,-419,0,0,0,0,0,0,0,0,0,-1,1553,1443,0,0
336,-419,0,0,0,0,0,0,0,0,0,-1,1560,1443,0,0
343,-419,0,0,0,0,0,0,0,0,0,-1,1567,1443,0,0
350,-419,0,0,0,0,0,0,0,0,0,-1,1574,1443,0,0
357,-419,0,0,0,0,0,0,0,0,0,-1,1581,1443,0,0
364,-419,0,0,0,0,0,0,0,0,0,-1,1588,1443,0,0
371,-419,0,0,0,0,0,0,0,0,0,-1,1595,1443,0,0
378,-419,0,0,0,0,0,0,0,0,0,-1,1602,1443,0,0
385,-419,0,0,0,0,0,0,0,0,0,-1,1609,1443,0,0
392,-419,0,0,0,0,0,0,0,0,0,-1,1616,1443,0,0
399,-419,0,0,0,0,0,0,0,0,0,-1,1623,1443,0,0
406,-419,0,0,0,0,0,0,0,0,0,-1,1630,1443,0,0
413,-419,0,0,0,0,0,0,0,0,0,-1,1637,1443,0,0
420,-419,0,0,0,0,0,0,0,0,0,-1,1644,1443,0,0
427,-419,0,0,0,0,0,0,0,0,0,-1,1651,1443,0,0
434,-419,0,0,0,0,0,0,0,0,0,-1,1658,1443,0,0
441,-419,0,0,0,0,0,0,0,0,0,-1,1665,1443,0,0
448,-419,0,0,0,0,0,0,0,0,0,-1,1672,1443,0,0
455,-419,0,0,0,0,0,0,0,0,0,-1,1679,1443,0,0
462,-419,0,0,0,0,0,0,0,0,0,-1,1686,1443,0,0
469,-419,0,0,0,0,0,0,0,0,0,-1,1693,1443,0,0
476,-419,0,0,0,0,0,0,0,0,0,-1,1700,1443,0,0
483,-419,0,0,0,0,0,0,0,0,0,-1,1707,1443,0,0
490,-419,0,0,0,0,0,0,0,0,0,-1,1714,1443,0,0
497,-419,0,0,0,0,0,0,0,0,0,-1,1721,1443,0,0
504,-419,0,0,0,0,0,0,0,0,0,-1,1728,1443,0,0
511,-419,20.3005,3.7959,0,0,0,0,0,0,0,-1,1735,1443,20.3005,-3.79584
518,-419,21.3154,2.03027,0,0,0,0,0,0,0,-1,1742,1443,21.3155,-2.03029
525,-419,28.3439,-1.24475,0,0,0,0,0,0,0,-1,1749,1443,28.3438,1.24471
532,-419,27.5902,-0.272583,0,0,0,0,0,0,0,-1,1756,1443,27.5902,0.272526
539,-419,26.5278,1.60583,0,0,0,0,0,0,0,-1,1763,1443,26.5279,-1.60579
546,-419,24.9509,2.77539,0,0,0,0,0,0,0,-1,1770,1443,24.9509,-2.77537
553,-419,24.118,3.75525,0,0,0,0,0,0,0,-1,1777,1443,24.1181,-3.75526
560,-419,11.8199,8.26343,0,0,0,0,0,0,0,-1,1784,1443,11.82,-8.26341
567,-419,21.5143,8.74719,0,0,0,0,0,0,0,-1,1791,1443,21.5143,-8.74722
574,-419,19.5886,6.46155,0,0,0,0,0,0,0,-1,1798,1443,19.5886,-6.46157
581,-419,20.7926,11.4265,0,0,0,0,0,0,0,-1,1805,1443,20.7926,-11.4265
588,-419,19.4242,12.5363,0,0,0,0,0,0,0,-1,1812,1443,19.4242,-12.5362
595,-419,22.9375,16.0151,0,0,0,0,0,0,0,-1,1819,1443,22.9375,-16.0152
602,-419,25.0841,16.6451,0,0,0,0,0,0,0,-1,1826,1443,25.0841,-16.6452
609,-419,25.1272,16.0382,0.00328083,0.00367878,-0.00354032,0.00702571,-6.61055e-05,-0.81347,0.004706,0.019531,1833,1443,25.1271,-16.0382
616,-419,25.088,15.5583,0.00256083,0.00245672,-0.00253935,0.00504866,-3.11125e-05,-0.77515,0.00337619,0.0117188,1840,1443,25.088,-15.5584
623,-419,25.0765,15.0315,0.00210265,0.00157636,-0.00176841,0.00362739,5.16203e-05,-0.71154,0.00240124,0.0100087,1847,1443,25.0766,-15.0315
630,-419,25.0752,14.5138,0.00189976,0.000887172,-0.00120224,0.00269797,8.89665e-05,-0.586106,0.00176973,0.0122392,1854,1443,25.0752,-14.5137
637,-419,25.0531,14.0288,0.00177591,0.000407778,-0.00072788,0.00209072,9.29666e-05,-0.40821,0.00136388,0.0134728,1861,1443,25.0532,-14.0289
644,-419,25.0432,13.5483,0.00182304,4.66994e-05,-0.000333341,0.00188353,-1.37941e-05,-0.179522,0.00126031,0.0121627,1868,1443,25.0432,-13.5483
651,-419,25.0432,13.0653,0.00197233,-0.000141231,-5.54809e-05,0.00197378,-0.000142687,-0.0262259,0.0013659,0.0119752,1875,1443,25.0433,-13.0653
658,-419,25.0276,12.5621,0.00212807,-0.000310311,0.000242788,0.00215201,-0.00033425,0.0982834,0.00155809,0.0138448,1882,1443,25.0276,-12.5621
665,-419,25.0372,12.0958,0.00227579,-0.00050768,0.000632827,0.00241291,-0.0006448,0.213379,0.00186115,0.0202863,1889,1443,25.0372,-12.0959
672,-419,25.0771,11.5256,0.00232087,-0.000724107,0.00115369,0.00270861,-0.00111185,0.324226,0.00226905,0.0294459,1896,1443,25.0772,-11.5257
679,-419,25.1105,10.9108,0,0,0,0,0,0,0,-1,1903,1443,25.1105,-10.9107
686,-419,17.4127,8.03076,0,0,0,0,0,0,0,-1,1910,1443,17.4127,-8.03071
693,-419,8.76086,5.60535,0,0,0,0,0,0,0,-1,1917,1443,8.76091,-5.6054
700,-419,11.0498,4.85156,0,0,0,0,0,0,0,-1,1924,1443,11.0498,-4.85153
707,-419,9.5752,1.80042,0,0,0,0,0,0,0,-1,1931,1443,9.57523,-1.80037
714,-419,5.77576,-1.25061,0,0,0,0,0,0,0,-1,1938,1443,5.7757,1.25056
721,-419,0,0,0,0,0,0,0,0,0,-1,1945,1443,0,0
728,-419,0,0,0,0,0,0,0,0,0,-1,1952,1443,0,0
735,-419,0,0,0,0,0,0,0,0,0,-1,1959,1443,0,0
742,-419,0,0,0,0,0,0,0,0,0,-1,1966,1443,0,0
749,-419,0,0,0,0,0,0,0,0,0,-1,1973,1443,0,0
756,-419,0,0,0,0,0,0,0,0,0,-1,1980,1443,0,0
763,-419,0,0,0,0,0,0,0,0,0,-1,1987,1443,0,0
770,-419,0,0,0,0,0,0,0,0,0,-1,1994,1443,0,0
777,-419,0,0,0,0,0,0,0,0,0,-1,2001,1443,0,0
784,-419,0,0,0,0,0,0,0,0,0,-1,2008,1443,0,0
791,-419,0,0,0,0,0,0,0,0,0,-1,2015,1443,0,0
798,-419,0,0,0,0,0,0,0,0,0,-1,2022,1443,0,0
805,-419,0,0,0,0,0,0,0,0,0,-1,2029,1443,0,0
812,-419,0,0,0,0,0,0,0,0,0,-1,2036,1443,0,0
-700,-426,0,0,0,0,0,0,0,0,0,-1,524,1450,0,0
-693,-426,0,0,0,0,0,0,0,0,0,-1,531,1450,0,0
-686,-426,0,0,0,0,0,0,0,0,0,-1,538,1450,0,0
-679,-426,0,0,0,0,0,0,0,0,0,-1,545,1450,0,0
-672,-426,0,0,0,0,0,0,0,0,0,-1,552,1450,0,0
-665,-426,0,0,0,0,0,0,0,0,0,-1,559,1450,0,0
-658,-426,0,0,0,0,0,0,0,0,0,-1,566,1450,0,0
-651,-426,0,0,0,0,0,0,0,0,0,-1,573,1450,0,0
-644,-426,0,0,0,0,0,0,0,0,0,-1,580,1450,0,0
-637,-426,0,0,0,0,0,0,0,0,0,-1,587,1450,0,0
-630,-426,0,0,0,0,0,0,0,0,0,-1,594,1450,0,0
-623,-426,0,0,0,0,0,0,0,0,0,-1,601,1450,0,0
-616,-426,0,0,0,0,0,0,0,0,0,-1,608,1450,0,0
-609,-426,0,0,0,0,0,0,0,0,0,-1,615,1450,0,0
-602,-426,0,0,0,0,0,0,0,0,0,-1,622,1450,0,0
-595,-426,0,0,0,0,0,0,0,0,0,-1,629,1450,0,0
-588,-426,-10.184,-0.554321,0,0,0,0,0,0,0,-1,636,1450,-10.184,0.554321
-581,-426,-7.3349,1.48157,0,0,0,0,0,0,0,-1,643,1450,-7.33491,-1.48152
-574,-426,-5.02856,2.89319,0,0,0,0,0,0,0,-1,650,1450,-5.02858,-2.89319
-567,-426,-3.04797,1.72644,0,0,0,0,0,0,0,-1,657,1450,-3.04797,-1.72639
-560,-426,-5.55682,3.44397,0,0,0,0,0,0,0,-1,664,1450,-5.55684,-3.44399
-553,-426,-4.67017,6.66614,0,0,0,0,0,0,0,-1,671,1450,-4.67015,-6.66619
-546,-426,-7.58752,8.28882,0,0,0,0,0,0,0,-1,678,1450,-7.58752,-8.28878
-539,-426,-9.44342,9.68762,0,0,0,0,0,0,0,-1,685,1450,-9.44341,-9.68758
-532,-426,-9.72974,10.1628,-0.00290316,0.000170465,-0.000822117,0.000376543,-0.00310924,-1.32519,0.00220906,0.0472546,692,1450,-9.72976,-10.1629
-525,-426,-9.90204,10.6584,-0.00207725,-3.04645e-05,-0.000545274,0.000105736,-0.00221345,-1.32602,0.00151211,0.0187915,699,1450,-9.90205,-10.6585
-518,-426,-9.87622,11.2549,-0.00111861,5.69715e-05,-0.000111245,6.74061e-05,-0.00112905,-1.47727,0.000776142,0.0160082,706,1450,-9.87621,-11.2548
-511,-426,-9.89386,11.8112,-0.000110541,0.000424746,0.000441251,0.000673179,-0.000358975,1.05801,0.000605048,0.0159806,713,1450,-9.89388,-11.8112
-504,-426,-9.92554,12.3303,0.000936386,0.000973987,0.00106866,0.00202401,-0.000113641,0.794194,0.00138877,0.0148001,720,1450,-9.92552,-12.3303
-497,-426,-9.94348,12.8494,0.00219272,0.00176377,0.00186915,0.00385966,9.6828e-05,0.728277,0.00254145,0.0116205,727,1450,-9.9435,-12.8494
-490,-426,-9.96906,13.3859,0.00376596,0.0028887,0.00295084,0.00631059,0.000344072,0.711616,0.00409719,0.0118599,734,1450,-9.96907,-13.3859
-483,-426,-9.99677,13.9224,0.00574342,0.00428035,0.00437977,0.00945232,0.000571442,0.702649,0.00611997,0.0120854,741,1450,-9.99678,-13.9223
-476,-426,-9.99896,14.4553,0.00804953,0.00602225,0.00609958,0.0132191,0.000852657,0.70306,0.00854272,0.0100352,748,1450,-9.99896,-14.4553
-469,-426,-10.0187,14.9735,0.0110562,0.00811356,0.00834394,0.0180575,0.00111221,0.698128,0.0116853,0.0107055,755,1450,-10.0187,-14.9735
-462,-426,-9.80518,15.7517,0,0,0,0,0,0,0,-1,762,1450,-9.80515,-15.7517
-455,-426,-9.54187,16.6356,0,0,0,0,0,0,0,-1,769,1450,-9.54188,-16.6356
-448,-426,-6.46545,10.1322,0,0,0,0,0,0,0,-1,776,1450,-6.46543,-10.1322
-441,-426,-10.9547,11.4747,0,0,0,0,0,0,0,-1,783,1450,-10.9546,-11.4748
-434,-426,-10.4998,13.6189,0,0,0,0,0,0,0,-1,790,1450,-10.4997,-13.6189
-427,-426,-9.36627,13.7396,0,0,0,0,0,0,0,-1,797,1450,-9.36628,-13.7396
-420,-426,-5.33765,7.95044,0,0,0,0,0,0,0,-1,804,1450,-5.33766,-7.95041
-413,-426,-10.1148,5.0415,0,0,0,0,0,0,0,-1,811,1450,-10.1148,-5.04152
-406,-426,-11.4199,3.6438,0,0,0,0,0,0,0,-1,818,1450,-11.4198,-3.64382
-399,-426,-12.7595,2.29004,0,0,0,0,0,0,0,-1,825,1450,-12.7595,-2.29003
-392,-426,-12.4147,0.537354,0,0,0,0,0,0,0,-1,832,1450,-12.4147,-0.53731
-385,-426,0,0,0,0,0,0,0,0,0,-1,839,1450,0,0
-378,-426,0,0,0,0,0,0,0,0,0,-1,846,1450,0,0
-371,-426,0,0,0,0,0,0,0,0,0,-1,853,1450,0,0
-364,-426,0,0,0,0,0,0,0,0,0,-1,860,1450,0,0
-357,-426,0,0,0,0,0,0,0,0,0,-1,867,1450,0,0
-350,-426,0,0,0,0,0,0,0,0,0,-1,874,1450,0,0
-343,-426,0,0,0,0,0,0,0,0,0,-1,881,1450,0,0
-336,-426,0,0,0,0,0,0,0,0,0,-1,888,1450,0,0
-329,-426,0,0,0,0,0,0,0,0,0,-1,895,1450,0,0
-322,-426,0,0,0,0,0,0,0,0,0,-1,902,1450,0,0
-315,-426,0,0,0,0,0,0,0,0,0,-1,909,1450,0,0
-308,-426,0,0,0,0,0,0,0,0,0,-1,916,1450,0,0
-301,-426,0,0,0,0,0,0,0,0,0,-1,923,1450,0,0
-294,-426,0,0,0,0,0,0,0,0,0,-1,930,1450,0,0
-287,-426,0,0,0,0,0,0,0,0,0,-1,937,1450,0,0
-280,-426,0,0,0,0,0,0,0,0,0,-1,944,1450,0,0
-273,-426,0,0,0,0,0,0,0,0,0,-1,951,1450,0,0
-266,-426,0,0,0,0,0,0,0,0,0,-1,958,1450,0,0
-259,-426,0,0,0,0,0,0,0,0,0,-1,965,1450,0,0
-252,-426,0,0,0,0,0,0,0,0,0,-1,972,1450,0,0
-245,-426,0,0,0,0,0,0,0,0,0,-1,979,1450,0,0
-238,-426,0,0,0,0,0,0,0,0,0,-1,986,1450,0,0
-231,-426,0,0,0,0,0,0,0,0,0,-1,993,1450,0,0
-224,-426,0,0,0,0,0,0,0,0,0,-1,1000,1450,0,0
-217,-426,0,0,0,0,0,0,0,0,0,-1,1007,1450,0,0
-210,-426,0,0,0,0,0,0,0,0,0,-1,1014,1450,0,0
-203,-426,0,0,0,0,0,0,0,0,0,-1,1021,1450,0,0
-196,-426,0,0,0,0,0,0,0,0,0,-1,1028,1450,0,0
-189,-426,0,0,0,0,0,0,0,0,0,-1,1035,1450,0,0
-182,-426,0,0,0,0,0,0,0,0,0,-1,1042,1450,0,0
-175,-426,0,0,0,0,0,0,0,0,0,-1,1049,1450,0,0
-168,-426,0,0,0,0,0,0,0,0,0,-1,1056,1450,0,0
-161,-426,0,0,0,0,0,0,0,0,0,-1,1063,1450,0,0
-154,-426,0,0,0,0,0,0,0,0,0,-1,1070,1450,0,0
-147,-426,0,0,0,0,0,0,0,0,0,-1,1077,1450,0,0
-140,-426,0,0,0,0,0,0,0,0,0,-1,1084,1450,0,0
-133,-426,0,0,0,0,0,0,0,0,0,-1,1091,1450,0,0
-126,-426,0,0,0,0,0,0,0,0,0,-1,1098,1450,0,0
-119,-426,0,0,0,0,0,0,0,0,0,-1,1105,1450,0,0
-112,-426,0,0,0,0,0,0,0,0,0,-1,1112,1450,0,0
-105,-426,0,0,0,0,0,0,0,0,0,-1,1119,1450,0,0
-98,-426,0,0,0,0,0,0,0,0,0,-1,1126,1450,0,0
-91,-426,0,0,0,0,0,0,0,0,0,-1,1133,1450,0,0
-84,-426,0,0,0,0,0,0,0,0,0,-1,1140,1450,0,0
-77,-426,0,0,0,0,0,0,0,0,0,-1,1147,1450,0,0
-70,-426,0,0,0,0,0,0,0,0,0,-1,1154,1450,0,0
-63,-426,0,0,0,0,0,0,0,0,0,-1,1161,1450,0,0
-56,-426,0,0,0,0,0,0,0,0,0,-1,1168,1450,0,0
-49,-426,0,0,0,0,0,0,0,0,0,-1,1175,1450,0,0
-42,-426,0,0,0,0,0,0,0,0,0,-1,1182,1450,0,0
-35,-426,0,0,0,0,0,0,0,0,0,-1,1189,1450,0,0
-28,-426,0,0,0,0,0,0,0,0,0,-1,1196,1450,0,0
-21,-426,0,0,0,0,0,0,0,0,0,-1,1203,1450,0,0
-14,-426,0,0,0,0,0,0,0,0,0,-1,1210,1450,0,0
-7,-426,0,0,0,0,0,0,0,0,0,-1,1217,1450,0,0
0,-426,0,0,0,0,0,0,0,0,0,-1,1224,1450,0,0
7,-426,0,0,0,0,0,0,0,0,0,-1,1231,1450,0,0
14,-426,0,0,0,0,0,0,0,0,0,-1,1238,1450,0,0
21,-426,0,0,0,0,0,0,0,0,0,-1,1245,1450,0,0
28,-426,0,0,0,0,0,0,0,0,0,-1,1252,1450,0,0
35,-426,0,0,0,0,0,0,0,0,0,-1,1259,1450,0,0
42,-426,0,0,0,0,0,0,0,0,0,-1,1266,1450,0,0
49,-426,0,0,0,0,0,0,0,0,0,-1,1273,1450,0,0
56,-426,0,0,0,0,0,0,0,0,0,-1,1280,1450,0,0
63,-426,0,0,0,0,0,0,0,0,0,-1,1287,1450,0,0
70,-426,0,0,0,0,0,0,0,0,0,-1,1294,1450,0,0
77,-426,0,0,0,0,0,0,0,0,0,-1,1301,1450,0,0
84,-426,0,0,0,0,0,0,0,0,0,-1,1308,1450,0,0
91,-426,0,0,0,0,0,0,0,0,0,-1,1315,1450,0,0
98,-426,0,0,0,0,0,0,0,0,0,-1,1322,1450,0,0
105,-426,0,0,0,0,0,0,0,0,0,-1,1329,1450,0,0
112,-426,0,0,0,0,0,0,0,0,0,-1,1336,1450,0,0
119,-426,0,0,0,0,0,0,0,0,0,-1,1343,1450,0,0
126,-426,0,0,0,0,0,0,0,0,0,-1,1350,1450,0,0
133,-426,0,0,0,0,0,0,0,0,0,-1,1357,1450,0,0
140,-426,0,0,0,0,0,0,0,0,0,-1,1364,1450,0,0
147,-426,0,0,0,0,0,0,0,0,0,-1,1371,1450,0,0
154,-426,0,0,0,0,0,0,0,0,0,-1,1378,1450,0,0
161,-426,0,0,0,0,0,0,0,0,0,-1,1385,1450,0,0
168,-426,0,0,0,0,0,0,0,0,0,-1,1392,1450,0,0
175,-426,0,0,0,0,0,0,0,0,0,-1,1399,1450,0,0
182,-426,0,0,0,0,0,0,0,0,0,-1,1406,1450,0,0
189,-426,0,0,0,0,0,0,0,0,0,-1,1413,1450,0,0
196,-426,0,0,0,0,0,0,0,0,0,-1,1420,1450,0,0
203,-426,0,0,0,0,0,0,0,0,0,-1,1427,1450,0,0
210,-426,0,0,0,0,0,0,0,0,0,-1,1434,1450,0,0
217,-426,0,0,0,0,0,0,0,0,0,-1,1441,1450,0,0
224,-426,0,0,0,0,0,0,0,0,0,-1,1448,1450,0,0
231,-426,0,0,0,0,0,0,0,0,0,-1,1455,1450,0,0
238,-426,0,0,0,0,0,0,0,0,0,-1,1462,1450,0,0
245,-426,0,0,0,0,0,0,0,0,0,-1,1469,1450,0,0
252,-426,0,0,0,0,0,0,0,0,0,-1,1476,1450,0,0
259,-426,0,0,0,0,0,0,0,0,0,-1,1483,1450,0,0
266,-426,0,0,0,0,0,0,0,0,0,-1,1490,1450,0,0
273,-426,0,0,0,0,0,0,0,0,0,-1,1497,1450,0,0
280,-426,0,0,0,0,0,0,0,0,0,-1,1504,1450,0,0
287,-426,0,0,0,0,0,0,0,0,0,-1,1511,1450,0,0
294,-426,0,0,0,0,0,0,0,0,0,-1,1518,1450,0,0
301,-426,0,0,0,0,0,0,0,0,0,-1,1525,1450,0,0
308,-426,0,0,0,0,0,0,0,0,0,-1,1532,1450,0,0
315,-426,0,0,0,0,0,0,0,0,0,-1,1539,1450,0,0
322,-426,0,0,0,0,0,0,0,0,0,-1,1546,1450,0,0
329,-426,0,0,0,0,0,0,0,0,0,-1,1553,1450,0,0
336,-426,0,0,0,0,0,0,0,0,0,-1,1560,1450,0,0
343,-426,0,0,0,0,0,0,0,0,0,-1,1567,1450,0,0
350,-426,0,0,0,0,0,0,0,0,0,-1,1574,1450,0,0
357,-426,0,0,0,0,0,0,0,0,0,-1,1581,1450,0,0
364,-426,0,0,0,0,0,0,0,0,0,-1,1588,1450,0,0
371,-426,0,0,0,0,0,0,0,0,0,-1,1595,1450,0,0
378,-426,0,0,0,0,0,0,0,0,0,-1,1602,1450,0,0
385,-426,0,0,0,0,0,0,0,0,0,-1,1609,1450,0,0
392,-426,0,0,0,0,0,0,0,0,0,-1,1616,1450,0,0
399,-426,0,0,0,0,0,0,0,0,0,-1,1623,1450,0,0
406,-426,0,0,0,0,0,0,0,0,0,-1,1630,1450,0,0
413,-426,0,0,0,0,0,0,0,0,0,-1,1637,1450,0,0
420,-426,0,0,0,0,0,0,0,0,0,-1,1644,1450,0,0
427,-426,0,0,0,0,0,0,0,0,0,-1,1651,1450,0,0
434,-426,0,0,0,0,0,0,0,0,0,-1,1658,1450,0,0
441,-426,0,0,0,0,0,0,0,0,0,-1,1665,1450,0,0
448,-426,0,0,0,0,0,0,0,0,0,-1,1672,1450,0,0
455,-426,0,0,0,0,0,0,0,0,0,-1,1679,1450,0,0
462,-426,0,0,0,0,0,0,0,0,0,-1,1686,1450,0,0
469,-426,0,0,0,0,0,0,0,0,0,-1,1693,1450,0,0
476,-426,0,0,0,0,0,0,0,0,0,-1,1700,1450,0,0
483,-426,0,0,0,0,0,0,0,0,0,-1,1707,1450,0,0
490,-426,0,0,0,0,0,0,0,0,0,-1,1714,1450,0,0
497,-426,0,0,0,0,0,0,0,0,0,-1,1721,1450,0,0
504,-426,20.6873,3.38367,0,0,0,0,0,0,0,-1,1728,1450,20.6873,-3.38361
511,-426,19.6676,3.53748,0,0,0,0,0,0,0,-1,1735,1450,19.6676,-3.53749
518,-426,18.6853,3.32288,0,0,0,0,0,0,0,-1,1742,1450,18.6853,-3.3229
525,-426,18.9552,2.71033,0,0,0,0,0,0,0,-1,1749,1450,18.9552,-2.71034
532,-426,19.4333,2.70764,0,0,0,0,0,0,0,-1,1756,1450,19.4334,-2.70764
539,-426,25.1482,2.56287,0,0,0,0,0,0,0,-1,1763,1450,25.1482,-2.56286
546,-426,24.1136,3.75659,0,0,0,0,0,0,0,-1,1770,1450,24.1136,-3.7566
553,-426,23.0791,4.95032,0,0,0,0,0,0,0,-1,1777,1450,23.0791,-4.95034
560,-426,12.9688,11.8289,0,0,0,0,0,0,0,-1,1784,1450,12.9688,-11.8288
567,-426,13.6388,11.5623,0,0,0,0,0,0,0,-1,1791,1450,13.6388,-11.5623
574,-426,14.3943,11.0286,0,0,0,0,0,0,0,-1,1798,1450,14.3942,-11.0285
581,-426,16.3879,11.4653,0,0,0,0,0,0,0,-1,1805,1450,16.3879,-11.4653
588,-426,18.1212,12.5547,0,0,0,0,0,0,0,-1,1812,1450,18.1212,-12.5547
595,-426,24.3649,17.0946,0,0,0,0,0,0,0,-1,1819,1450,24.3649,-17.0946
602,-426,24.5483,16.5657,0.00390695,0.00442088,-0.00409825,0.00827021,5.76167e-05,-0.816708,0.00549437,0.0356662,1826,1450,24.5483,-16.5657
609,-426,24.6285,16.0427,0.00312479,0.00314362,-0.00308192,0.00621614,5.22726e-05,-0.786925,0.00412678,0.013307,1833,1450,24.6286,-16.0428
616,-426,24.6028,15.5615,0.00252559,0.00213071,-0.0022493,0.0045861,7.02033e-05,-0.741621,0.00303427,0.0135107,1840,1450,24.6028,-15.5615
623,-426,24.5989,15.0382,0.00219579,0.00134782,-0.00159963,0.00342667,0.000116932,-0.655851,0.00224649,0.0113564,1847,1450,24.5988,-15.0382
630,-426,24.6118,14.528,0.00209957,0.000707718,-0.00111671,0.00271945,8.78362e-05,-0.506748,0.00178441,0.0123028,1854,1450,24.6118,-14.528
637,-426,24.579,14.0507,0.00205999,0.000269554,-0.000690304,0.00229523,3.43149e-05,-0.328434,0.00151885,0.0137046,1861,1450,24.579,-14.0506
644,-426,24.5532,13.5612,0.00218346,-5.88233e-05,-0.000337959,0.00223329,-0.000108653,-0.14639,0.00152637,0.013728,1868,1450,24.5532,-13.5611
651,-426,24.5358,13.0719,0.00238222,-0.000196973,-0.000114654,0.0023873,-0.00020206,-0.0443371,0.00166299,0.0128437,1875,1450,24.5358,-13.0719
658,-426,24.5328,12.5558,0.0026167,-0.000283819,0.000113195,0.00262111,-0.00028823,0.038947,0.00185098,0.0127205,1882,1450,24.5328,-12.5558
665,-426,24.5728,12.0027,0.00281479,-0.000358761,0.000434338,0.00287316,-0.000417132,0.13359,0.00206855,0.0222185,1889,1450,24.5728,-12.0027
672,-426,24.7092,11.55,0,0,0,0,0,0,0,-1,1896,1450,24.7093,-11.55
679,-426,17.1522,8.15784,0,0,0,0,0,0,0,-1,1903,1450,17.1522,-8.15784
686,-426,13.5326,8.03711,0,0,0,0,0,0,0,-1,1910,1450,13.5326,-8.03717
693,-426,11.8607,6.45215,0,0,0,0,0,0,0,-1,1917,1450,11.8607,-6.45215
700,-426,9.24304,2.95447,0,0,0,0,0,0,0,-1,1924,1450,9.24305,-2.95442
707,-426,8.44519,-1.21448,0,0,0,0,0,0,0,-1,1931,1450,8.44514,1.21454
714,-426,0,0,0,0,0,0,0,0,0,-1,1938,1450,0,0
721,-426,0,0,0,0,0,0,0,0,0,-1,1945,1450,0,0
728,-426,0,0,0,0,0,0,0,0,0,-1,1952,1450,0,0
735,-426,0,0,0,0,0,0,0,0,0,-1,1959,1450,0,0
742,-426,0,0,0,0,0,0,0,0,0,-1,1966,1450,0,0
749,-426,0,0,0,0,0,0,0,0,0,-1,1973,1450,0,0
756,-426,0,0,0,0,0,0,0,0,0,-1,1980,1450,0,0
763,-426,0,0,0,0,0,0,0,0,0,-1,1987,1450,0,0
770,-426,0,0,0,0,0,0,0,0,0,-1,1994,1450,0,0
777,-426,0,0,0,0,0,0,0,0,0,-1,2001,1450,0,0
784,-426,0,0,0,0,0,0,0,0,0,-1,2008,1450,0,0
791,-426,0,0,0,0,0,0,0,0,0,-1,2015,1450,0,0
798,-426,0,0,0,0,0,0,0,0,0,-1,2022,1450,0,0
805,-426,0,0,0,0,0,0,0,0,0,-1,2029,1450,0,0
812,-426,0,0,0,0,0,0,0,0,0,-1,2036,1450,0,0
-700,-433,0,0,0,0,0,0,0,0,0,-1,524,1457,0,0
-693,-433,0,0,0,0,0,0,0,0,0,-1,531,1457,0,0
-686,-433,0,0,0,0,0,0,0,0,0,-1,538,1457,0,0
-679,-433,0,0,0,0,0,0,0,0,0,-1,545,1457,0,0
-672,-433,0,0,0,0,0,0,0,0,0,-1,552,1457,0,0
-665,-433,0,0,0,0,0,0,0,0,0,-1,559,1457,0,0
-658,-433,0,0,0,0,0,0,0,0,0,-1,566,1457,0,0
-651,-433,0,0,0,0,0,0,0,0,0,-1,573,1457,0,0
-644,-433,0,0,0,0,0,0,0,0,0,-1,580,1457,0,0
-637,-433,0,0,0,0,0,0,0,0,0,-1,587,1457,0,0
-630,-433,0,0,0,0,0,0,0,0,0,-1,594,1457,0,0
-623,-433,0,0,0,0,0,0,0,0,0,-1,601,1457,0,0
-616,-433,0,0,0,0,0,0,0,0,0,-1,608,1457,0,0
-609,-433,0,0,0,0,0,0,0,0,0,-1,615,1457,0,0
-602,-433,0,0,0,0,0,0,0,0,0,-1,622,1457,0,0
-595,-433,0,0,0,0,0,0,0,0,0,-1,629,1457,0,0
-588,-433,-10.3756,-0.467041,0,0,0,0,0,0,0,-1,636,1457,-10.3756,0.467081
-581,-433,-8.12201,0.884033,0,0,0,0,0,0,0,-1,643,1457,-8.12204,-0.884056
-574,-433,-5.86847,2.23523,0,0,0,0,0,0,0,-1,650,1457,-5.86844,-2.23519
-567,-433,-5.42255,1.16833,0,0,0,0,0,0,0,-1,657,1457,-5.42254,-1.1683
-560,-433,-6.84027,1.86414,0,0,0,0,0,0,0,-1,664,1457,-6.84026,-1.86412
-553,-433,-5.74017,1.79163,0,0,0,0,0,0,0,-1,671,1457,-5.74015,-1.79166
-546,-433,-6.9668,8.25073,0,0,0,0,0,0,0,-1,678,1457,-6.96679,-8.25074
-539,-433,-7.3136,8.75659,0,0,0,0,0,0,0,-1,685,1457,-7.31362,-8.75659
-532,-433,-9.07465,10.2068,0,0,0,0,0,0,0,-1,692,1457,-9.07467,-10.2068
-525,-433,-9.29321,10.7648,-0.00278169,7.58826e-05,-0.000331057,0.000113735,-0.00281954,-1.45695,0.00191873,0.0373625,699,1457,-9.29324,-10.7647
-518,-433,-9.3363,11.2854,-0.00165183,-1.08765e-05,-3.71374e-06,-1.08682e-05,-0.00165184,-1.56853,0.00109762,0.0174537,706,1457,-9.33629,-11.2854
-511,-433,-9.38477,11.8213,-0.000570801,0.000269695,0.000464884,0.000476126,-0.000777231,1.1529,0.000730553,0.0166896,713,1457,-9.38479,-11.8213
-504,-433,-9.39185,12.3481,0.000452751,0.000683361,0.000945098,0.00152016,-0.00038405,0.8461,0.00116279,0.0133478,720,1457,-9.39186,-12.3481
-497,-433,-9.40497,12.8669,0.00160116,0.0013416,0.00157812,0.00305483,-0.000112071,0.744372,0.00207492,0.0133953,727,1457,-9.40497,-12.8669
-490,-433,-9.44318,13.3878,0.00301584,0.00230841,0.00247491,0.00516219,0.000162064,0.714419,0.00338873,0.015502,734,1457,-9.44319,-13.3878
-483,-433,-9.45593,13.9673,0.00483208,0.00350621,0.00371226,0.00794013,0.000398157,0.69704,0.00516582,0.0165247,741,1457,-9.45591,-13.9672
-476,-433,-9.45123,14.53,0.00695058,0.00499023,0.00520325,0.0112652,0.000675647,0.6923,0.00729534,0.0112274,748,1457,-9.45123,-14.53
-469,-433,-9.47076,15.043,0.00963968,0.00670774,0.00714757,0.0154701,0.00087735,0.68425,0.0100337,0.0108091,755,1457,-9.47077,-15.0429
-462,-433,-9.49725,15.5568,0,0,0,0,0,0,0,-1,762,1457,-9.49724,-15.5568
-455,-433,-9.05945,16.377,0,0,0,0,0,0,0,-1,769,1457,-9.05945,-16.3769
-448,-433,-6.94812,14.5563,0,0,0,0,0,0,0,-1,776,1457,-6.94809,-14.5562
-441,-433,-9.97485,14.0258,0,0,0,0,0,0,0,-1,783,1457,-9.97488,-14.0257
-434,-433,-9.41205,14.2297,0,0,0,0,0,0,0,-1,790,1457,-9.41205,-14.2297
-427,-433,-8.67419,13.6827,0,0,0,0,0,0,0,-1,797,1457,-8.67422,-13.6827
-420,-433,-5.74658,9.49121,0,0,0,0,0,0,0,-1,804,1457,-5.7466,-9.49119
-413,-433,-3.63074,5.5813,0,0,0,0,0,0,0,-1,811,1457,-3.63072,-5.58129
-406,-433,-12.3472,4.69373,0,0,0,0,0,0,0,-1,818,1457,-12.3472,-4.69374
-399,-433,-12.055,2.83594,0,0,0,0,0,0,0,-1,825,1457,-12.055,-2.83594
-392,-433,-12.9772,1.6228,0,0,0,0,0,0,0,-1,832,1457,-12.9772,-1.62282
-385,-433,-13.7999,0.514771,0,0,0,0,0,0,0,-1,839,1457,-13.7999,-0.514788
-378,-433,0,0,0,0,0,0,0,0,0,-1,846,1457,0,0
-371,-433,0,0,0,0,0,0,0,0,0,-1,853,1457,0,0
-364,-433,0,0,0,0,0,0,0,0,0,-1,860,1457,0,0
-357,-433,0,0,0,0,0,0,0,0,0,-1,867,1457,0,0
-350,-433,0,0,0,0,0,0,0,0,0,-1,874,1457,0,0
-343,-433,0,0,0,0,0,0,0,0,0,-1,881,1457,0,0
-336,-433,0,0,0,0,0,0,0,0,0,-1,888,1457,0,0
-329,-433,0,0,0,0,0,0,0,0,0,-1,895,1457,0,0
-322,-433,0,0,0,0,0,0,0,0,0,-1,902,1457,0,0
-315,-433,0,0,0,0,0,0,0,0,0,-1,909,1457,0,0
-308,-433,0,0,0,0,0,0,0,0,0,-1,916,1457,0,0
-301,-433,0,0,0,0,0,0,0,0,0,-1,923,1457,0,0
-294,-433,0,0,0,0,0,0,0,0,0,-1,930,1457,0,0
-287,-433,0,0,0,0,0,0,0,0,0,-1,937,1457,0,0
-280,-433,0,0,0,0,0,0,0,0,0,-1,944,1457,0,0
-273,-433,0,0,0,0,0,0,0,0,0,-1,951,1457,0,0
-266,-433,0,0,0,0,0,0,0,0,0,-1,958,1457,0,0
-259,-433,0,0,0,0,0,0,0,0,0,-1,965,1457,0,0
-252,-433,0,0,0,0,0,0,0,0,0,-1,972,1457,0,0
-245,-433,0,0,0,0,0,0,0,0,0,-1,979,1457,0,0
-238,-433,0,0,0,0,0,0,0,0,0,-1,986,1457,0,0
-231,-433,0,0,0,0,0,0,0,0,0,-1,993,1457,0,0
-224,-433,0,0,0,0,0,0,0,0,0,-1,1000,1457,0,0
-217,-433,0,0,0,0,0,0,0,0,0,-1,1007,1457,0,0
-210,-433,0,0,0,0,0,0,0,0,0,-1,1014,1457,0,0
-203,-433,0,0,0,0,0,0,0,0,0,-1,1021,1457,0,0
-196,-433,0,0,0,0,0,0,0,0,0,-1,1028,1457,0,0
-189,-433,0,0,0,0,0,0,0,0,0,-1,1035,1457,0,0
-182,-433,0,0,0,0,0,0,0,0,0,-1,1042,1457,0,0
-175,-433,0,0,0,0,0,0,0,0,0,-1,1049,1457,0,0
-168,-433,0,0,0,0,0,0,0,0,0,-1,1056,1457,0,0
-161,-433,0,0,0,0,0,0,0,0,0,-1,1063,1457,0,0
-154,-433,0,0,0,0,0,0,0,0,0,-1,1070,1457,0,0
-147,-433,0,0,0,0,0,0,0,0,0,-1,1077,1457,0,0
-140,-433,0,0,0,0,0,0,0,0,0,-1,1084,1457,0,0
-133,-433,0,0,0,0,0,0,0,0,0,-1,1091,1457,0,0
-126,-433,0,0,0,0,0,0,0,0,0,-1,1098,1457,0,0
-119,-433,0,0,0,0,0,0,0,0,0,-1,1105,1457,0,0
-112,-433,0,0,0,0,0,0,0,0,0,-1,1112,1457,0,0
-105,-433,0,0,0,0,0,0,0,0,0,-1,1119,1457,0,0
-98,-433,0,0,0,0,0,0,0,0,0,-1,1126,1457,0,0
-91,-433,0,0,0,0,0,0,0,0,0,-1,1133,1457,0,0
-84,-433,0,0,0,0,0,0,0,0,0,-1,1140,1457,0,0
-77,-433,0,0,0,0,0,0,0,0,0,-1,1147,1457,0,0
-70,-433,0,0,0,0,0,0,0,0,0,-1,1154,1457,0,0
-63,-433,0,0,0,0,0,0,0,0,0,-1,1161,1457,0,0
-56,-433,0,0,0,0,0,0,0,0,0,-1,1168,1457,0,0
-49,-433,0,0,0,0,0,0,0,0,0,-1,1175,1457,0,0
-42,-433,0,0,0,0,0,0,0,0,0,-1,1182,1457,0,0
-35,-433,0,0,0,0,0,0,0,0,0,-1,1189,1457,0,0
-28,-433,0,0,0,0,0,0,0,0,0,-1,1196,1457,0,0
-21,-433,0,0,0,0,0,0,0,0,0,-1,1203,1457,0,0
-14,-433,0,0,0,0,0,0,0,0,0,-1,1210,1457,0,0
-7,-433,0,0,0,0,0,0,0,0,0,-1,1217,1457,0,0
0,-433,0,0,0,0,0,0,0,0,0,-1,1224,1457,0,0
7,-433,0,0,0,0,0,0,0,0,0,-1,1231,1457,0,0
14,-433,0,0,0,0,0,0,0,0,0,-1,1238,1457,0,0
21,-433,0,0,0,0,0,0,0,0,0,-1,1245,1457,0,0
28,-433,0,0,0,0,0,0,0,0,0,-1,1252,1457,0,0
35,-433,0,0,0,0,0,0,0,0,0,-1,1259,1457,0,0
42,-433,0,0,0,0,0,0,0,0,0,-1,1266,1457,0,0
49,-433,0,0,0,0,0,0,0,0,0,-1,1273,1457,0,0
56,-433,0,0,0,0,0,0,0,0,0,-1,1280,1457,0,0
63,-433,0,0,0,0,0,0,0,0,0,-1,1287,1457,0,0
70,-433,0,0,0,0,0,0,0,0,0,-1,1294,1457,0,0
77,-433,0,0,0,0,0,0,0,0,0,-1,1301,1457,0,0
84,-433,0,0,0,0,0,0,0,0,0,-1,1308,1457,0,0
91,-433,0,0,0,0,0,0,0,0,0,-1,1315,1457,0,0
98,-433,0,0,0,0,0,0,0,0,0,-1,1322,1457,0,0
105,-433,0,0,0,0,0,0,0,0,0,-1,1329,1457,0,0
112,-433,0,0,0,0,0,0,0,0,0,-1,1336,1457,0,0
119,-433,0,0,0,0,0,0,0,0,0,-1,1343,1457,0,0
126,-433,0,0,0,0,0,0,0,0,0,-1,1350,1457,0,0
133,-433,0,0,0,0,0,0,0,0,0,-1,1357,1457,0,0
140,-433,0,0,0,0,0,0,0,0,0,-1,1364,1457,0,0
147,-433,0,0,0,0,0,0,0,0,0,-1,1371,1457,0,0
154,-433,0,0,0,0,0,0,0,0,0,-1,1378,1457,0,0
161,-433,0,0,0,0,0,0,0,0,0,-1,1385,1457,0,0
168,-433,0,0,0,0,0,0,0,0,0,-1,1392,1457,0,0
175,-433,0,0,0,0,0,0,0,0,0,-1,1399,1457,0,0
182,-433,0,0,0,0,0,0,0,0,0,-1,1406,1457,0,0
189,-433,0,0,0,0,0,0,0,0,0,-1,1413,1457,0,0
196,-433,0,0,0,0,0,0,0,0,0,-1,1420,1457,0,0
203,-433,0,0,0,0,0,0,0,0,0,-1,1427,1457,0,0
210,-433,0,0,0,0,0,0,0,0,0,-1,1434,1457,0,0
217,-433,0,0,0,0,0,0,0,0,0,-1,1441,1457,0,0
224,-433,0,0,0,0,0,0,0,0,0,-1,1448,1457,0,0
231,-433,0,0,0,0,0,0,0,0,0,-1,1455,1457,0,0
238,-433,0,0,0,0,0,0,0,0,0,-1,1462,1457,0,0
245,-433,0,0,0,0,0,0,0,0,0,-1,1469,1457,0,0
252,-433,0,0,0,0,0,0,0,0,0,-1,1476,1457,0,0
259,-433,0,0,0,0,0,0,0,0,0,-1,1483,1457,0,0
266,-433,0,0,0,0,0,0,0,0,0,-1,1490,1457,0,0
273,-433,0,0,0,0,0,0,0,0,0,-1,1497,1457,0,0
280,-433,0,0,0,0,0,0,0,0,0,-1,1504,1457,0,0
287,-433,0,0,0,0,0,0,0,0,0,-1,1511,1457,0,0
294,-433,0,0,0,0,0,0,0,0,0,-1,1518,1457,0,0
301,-433,0,0,0,0,0,0,0,0,0,-1,1525,1457,0,0
308,-433,0,0,0,0,0,0,0,0,0,-1,1532,1457,0,0
315,-433,0,0,0,0,0,0,0,0,0,-1,1539,1457,0,0
322,-433,0,0,0,0,0,0,0,0,0,-1,1546,1457,0,0
329,-433,0,0,0,0,0,0,0,0,0,-1,1553,1457,0,0
336,-433,0,0,0,0,0,0,0,0,0,-1,1560,1457,0,0
343,-433,0,0,0,0,0,0,0,0,0,-1,1567,1457,0,0
350,-433,0,0,0,0,0,0,0,0,0,-1,1574,1457,0,0
357,-433,0,0,0,0,0,0,0,0,0,-1,1581,1457,0,0
364,-433,0,0,0,0,0,0,0,0,0,-1,1588,1457,0,0
371,-433,0,0,0,0,0,0,0,0,0,-1,1595,1457,0,0
378,-433,0,0,0,0,0,0,0,0,0,-1,1602,1457,0,0
385,-433,0,0,0,0,0,0,0,0,0,-1,1609,1457,0,0
392,-433,0,0,0,0,0,0,0,0,0,-1,1616,1457,0,0
399,-433,0,0,0,0,0,0,0,0,0,-1,1623,1457,0,0
406,-433,0,0,0,0,0,0,0,0,0,-1,1630,1457,0,0
413,-433,0,0,0,0,0,0,0,0,0,-1,1637,1457,0,0
420,-433,0,0,0,0,0,0,0,0,0,-1,1644,1457,0,0
427,-433,0,0,0,0,0,0,0,0,0,-1,1651,1457,0,0
434,-433,0,0,0,0,0,0,0,0,0,-1,1658,1457,0,0
441,-433,0,0,0,0,0,0,0,0,0,-1,1665,1457,0,0
448,-433,0,0,0,0,0,0,0,0,0,-1,1672,1457,0,0
455,-433,0,0,0,0,0,0,0,0,0,-1,1679,1457,0,0
462,-433,0,0,0,0,0,0,0,0,0,-1,1686,1457,0,0
469,-433,0,0,0,0,0,0,0,0,0,-1,1693,1457,0,0
476,-433,0,0,0,0,0,0,0,0,0,-1,1700,1457,0,0
483,-433,0,0,0,0,0,0,0,0,0,-1,1707,1457,0,0
490,-433,0,0,0,0,0,0,0,0,0,-1,1714,1457,0,0
497,-433,0,0,0,0,0,0,0,0,0,-1,1721,1457,0,0
504,-433,19.9058,3.03662,0,0,0,0,0,0,0,-1,1728,1457,19.9058,-3.03656
511,-433,19.0145,3.07837,0,0,0,0,0,0,0,-1,1735,1457,19.0146,-3.07834
518,-433,18.071,3.06433,0,0,0,0,0,0,0,-1,1742,1457,18.071,-3.06432
525,-433,17.2048,3.37085,0,0,0,0,0,0,0,-1,1749,1457,17.2049,-3.37083
532,-433,16.5637,3.36646,0,0,0,0,0,0,0,-1,1756,1457,16.5637,-3.36643
539,-433,15.9193,3.30396,0,0,0,0,0,0,0,-1,1763,1457,15.9193,-3.30394
546,-433,23.1903,4.81775,0,0,0,0,0,0,0,-1,1770,1457,23.1903,-4.81775
553,-433,13.9674,11.5781,0,0,0,0,0,0,0,-1,1777,1457,13.9674,-11.5781
560,-433,13.9855,11.7341,0,0,0,0,0,0,0,-1,1784,1457,13.9855,-11.7341
567,-433,13.9264,11.3364,0,0,0,0,0,0,0,-1,1791,1457,13.9263,-11.3364
574,-433,15.5305,12.3673,0,0,0,0,0,0,0,-1,1798,1457,15.5305,-12.3673
581,-433,16.6405,12.1898,0,0,0,0,0,0,0,-1,1805,1457,16.6405,-12.1898
588,-433,23.9633,17.9005,0,0,0,0,0,0,0,-1,1812,1457,23.9632,-17.9005
595,-433,24.1362,17.1125,0,0,0,0,0,0,0,-1,1819,1457,24.1362,-17.1125
602,-433,24.1244,16.5511,0.00358323,0.0037136,-0.00350118,0.0071502,0.000146622,-0.794706,0.00471869,0.0247108,1826,1457,24.1244,-16.5511
609,-433,24.1431,16.0178,0.00291046,0.00259542,-0.00261656,0.00537423,0.000131643,-0.755334,0.00353976,0.0165129,1833,1457,24.143,-16.0179
616,-433,24.1458,15.5553,0.002419,0.00171294,-0.00189849,0.003997,0.000134938,-0.693472,0.00262085,0.0133198,1840,1457,24.1457,-15.5553
623,-433,24.1045,15.0382,0.00220705,0.000998373,-0.00133499,0.00306812,0.000137306,-0.572853,0.00200121,0.010407,1847,1457,24.1044,-15.0382
630,-433,24.0836,14.5479,0.00222701,0.000394208,-0.000911924,0.00260343,1.7784e-05,-0.391475,0.00172972,0.0136395,1854,1457,24.0836,-14.5478
637,-433,24.0736,14.0634,0.00231209,-1.11183e-06,-0.000543267,0.00243332,-0.000122347,-0.219562,0.0016645,0.0153416,1861,1457,24.0736,-14.0634
644,-433,24.0652,13.5847,0.00256778,-0.000286399,-0.000250881,0.00258967,-0.000308283,-0.0870102,0.00183784,0.0162245,1868,1457,24.0651,-13.5847
651,-433,24.0492,13.0696,0.00292314,-0.000362513,-0.00011106,0.00292689,-0.000366263,-0.0337501,0.0020841,0.012864,1875,1457,24.0492,-13.0696
658,-433,23.9976,12.5433,0.00336877,-0.000343726,8.04476e-06,0.00336879,-0.000343744,0.00216693,0.00236877,0.0272215,1882,1457,23.9975,-12.5433
665,-433,24.1738,11.9043,0,0,0,0,0,0,0,-1,1889,1457,24.1738,-11.9042
672,-433,18.115,8.7207,0,0,0,0,0,0,0,-1,1896,1457,18.115,-8.72074
679,-433,17.2969,9.6355,0,0,0,0,0,0,0,-1,1903,1457,17.2968,-9.63548
686,-433,13.6356,8.61694,0,0,0,0,0,0,0,-1,1910,1457,13.6356,-8.61694
693,-433,13.4081,8.39624,0,0,0,0,0,0,0,-1,1917,1457,13.4081,-8.39624
700,-433,7.16809,-1.5166,0,0,0,0,0,0,0,-1,1924,1457,7.16806,1.51656
707,-433,8.68359,-2.82202,0,0,0,0,0,0,0,-1,1931,1457,8.68359,2.82197
714,-433,0,0,0,0,0,0,0,0,0,-1,1938,1457,0,0
721,-433,0,0,0,0,0,0,0,0,0,-1,1945,1457,0,0
728,-433,0,0,0,0,0,0,0,0,0,-1,1952,1457,0,0
735,-433,0,0,0,0,0,0,0,0,0,-1,1959,1457,0,0
742,-433,0,0,0,0,0,0,0,0,0,-1,1966,1457,0,0
749,-433,0,0,0,0,0,0,0,0,0,-1,1973,1457,0,0
756,-433,0,0,0,0,0,0,0,0,0,-1,1980,1457,0,0
763,-433,0,0,0,0,0,0,0,0,0,-1,1987,1457,0,0
770,-433,0,0,0,0,0,0,0,0,0,-1,1994,1457,0,0
777,-433,0,0,0,0,0,0,0,0,0,-1,2001,1457,0,0
784,-433,0,0,0,0,0,0,0,0,0,-1,2008,1457,0,0
791,-433,0,0,0,0,0,0,0,0,0,-1,2015,1457,0,0
798,-433,0,0,0,0,0,0,0,0,0,-1,2022,1457,0,0
805,-433,0,0,0,0,0,0,0,0,0,-1,2029,1457,0,0
812,-433,0,0,0,0,0,0,0,0,0,-1,2036,1457,0,0
-700,-440,0,0,0,0,0,0,0,0,0,-1,524,1464,0,0
-693,-440,0,0,0,0,0,0,0,0,0,-1,531,1464,0,0
-686,-440,0,0,0,0,0,0,0,0,0,-1,538,1464,0,0
-679,-440,0,0,0,0,0,0,0,0,0,-1,545,1464,0,0
-672,-440,0,0,0,0,0,0,0,0,0,-1,552,1464,0,0
-665,-440,0,0,0,0,0,0,0,0,0,-1,559,1464,0,0
-658,-440,0,0,0,0,0,0,0,0,0,-1,566,1464,0,0
-651,-440,0,0,0,0,0,0,0,0,0,-1,573,1464,0,0
-644,-440,0,0,0,0,0,0,0,0,0,-1,580,1464,0,0
-637,-440,0,0,0,0,0,0,0,0,0,-1,587,1464,0,0
-630,-440,0,0,0,0,0,0,0,0,0,-1,594,1464,0,0
-623,-440,0,0,0,0,0,0,0,0,0,-1,601,1464,0,0
-616,-440,0,0,0,0,0,0,0,0,0,-1,608,1464,0,0
-609,-440,0,0,0,0,0,0,0,0,0,-1,615,1464,0,0
-602,-440,0,0,0,0,0,0,0,0,0,-1,622,1464,0,0
-595,-440,0,0,0,0,0,0,0,0,0,-1,629,1464,0,0
-588,-440,0,0,0,0,0,0,0,0,0,-1,636,1464,0,0
-581,-440,-8.97278,0.254517,0,0,0,0,0,0,0,-1,643,1464,-8.97276,-0.254526
-574,-440,-7.00818,-0.918579,0,0,0,0,0,0,0,-1,650,1464,-7.00817,0.918538
-567,-440,-6.12152,-0.0766602,0,0,0,0,0,0,0,-1,657,1464,-6.12151,0.0767097
-560,-440,-5.46747,0.82251,0,0,0,0,0,0,0,-1,664,1464,-5.46748,-0.822551
-553,-440,-6.84729,0.0831299,0,0,0,0,0,0,0,-1,671,1464,-6.84732,-0.083136
-546,-440,-5.63446,-0.153198,0,0,0,0,0,0,0,-1,678,1464,-5.63447,0.153147
-539,-440,-6.80017,8.58252,0,0,0,0,0,0,0,-1,685,1464,-6.80015,-8.58257
-532,-440,-8.50018,10.0616,0,0,0,0,0,0,0,-1,692,1464,-8.5002,-10.0616
-525,-440,-8.828,10.7898,-0.00327475,-5.5772e-05,5.12587e-05,-5.49559e-05,-0.00327556,1.55488,0.00216562,0.0433994,699,1464,-8.82799,-10.7898
-518,-440,-8.86273,11.2335,-0.00212448,-0.000281319,0.000224002,-0.000254487,-0.00215132,1.45158,0.00135736,0.0222544,706,1464,-8.86275,-11.2335
-511,-440,-8.83203,11.8308,-0.00106596,-5.70977e-05,0.000585145,0.000211029,-0.00133409,1.14113,0.000967436,0.0157759,713,1464,-8.83201,-11.8309
-504,-440,-8.81818,12.3633,-0.000154076,0.00025647,0.000890507,0.000965057,-0.000862662,0.898676,0.00105579,0.0192685,720,1464,-8.81817,-12.3632
-497,-440,-8.84174,12.8982,0.000866499,0.000796382,0.00134155,0.00217345,-0.000510568,0.772335,0.00164577,0.021832,727,1464,-8.84176,-12.8982
-490,-440,-8.86926,13.4092,0.002144,0.00164209,0.00204519,0.00395358,-0.000167491,0.724351,0.00269328,0.0224303,734,1464,-8.86923,-13.4092
-483,-440,-8.90955,13.9663,0.0038394,0.00271261,0.00309495,0.00642182,0.000130192,0.695366,0.00423848,0.0206428,741,1464,-8.90952,-13.9663
-476,-440,-8.93201,14.5015,0.00582573,0.00402423,0.00438491,0.00940144,0.000448511,0.684097,0.0061236,0.0138013,748,1464,-8.932,-14.5015
-469,-440,-8.95319,15.0406,0.0082718,0.00552974,0.00607928,0.0131327,0.000668813,0.674491,0.00854095,0.0125304,755,1464,-8.95317,-15.0406
-462,-440,-8.99542,15.5747,0.0113051,0.0073694,0.00823104,0.0178002,0.000874232,0.668064,0.0115864,0.0158561,762,1464,-8.99539,-15.5747
-455,-440,-8.83569,16.2129,0.0152269,0.00957809,0.0110454,0.0238033,0.00100166,0.660226,0.0155458,0.0370521,769,1464,-8.8357,-16.2129
-448,-440,-8.31506,16.9883,0,0,0,0,0,0,0,-1,776,1464,-8.31508,-16.9883
-441,-440,-7.28583,14.7465,0,0,0,0,0,0,0,-1,783,1464,-7.28584,-14.7464
-434,-440,-8.33636,14.5024,0,0,0,0,0,0,0,-1,790,1464,-8.33638,-14.5025
-427,-440,-8.28094,14.2512,0,0,0,0,0,0,0,-1,797,1464,-8.28094,-14.2512
-420,-440,-6.86603,8.09216,0,0,0,0,0,0,0,-1,804,1464,-6.86602,-8.09222
-413,-440,-3.46796,5.72278,0,0,0,0,0,0,0,-1,811,1464,-3.46797,-5.72276
-406,-440,-5.2887,5.20264,0,0,0,0,0,0,0,-1,818,1464,-5.2887,-5.20261
-399,-440,-12.7318,3.94421,0,0,0,0,0,0,0,-1,825,1464,-12.7318,-3.94419
-392,-440,-13.5565,2.51855,0,0,0,0,0,0,0,-1,832,1464,-13.5565,-2.51861
-385,-440,-14.6741,1.39795,0,0,0,0,0,0,0,-1,839,1464,-14.6741,-1.39801
-378,-440,-15.8063,0.293457,0,0,0,0,0,0,0,-1,846,1464,-15.8063,-0.293412
-371,-440,0,0,0,0,0,0,0,0,0,-1,853,1464,0,0
-364,-440,0,0,0,0,0,0,0,0,0,-1,860,1464,0,0
-357,-440,0,0,0,0,0,0,0,0,0,-1,867,1464,0,0
-350,-440,0,0,0,0,0,0,0,0,0,-1,874,1464,0,0
-343,-440,0,0,0,0,0,0,0,0,0,-1,881,1464,0,0
-336,-440,0,0,0,0,0,0,0,0,0,-1,888,1464,0,0
-329,-440,0,0,0,0,0,0,0,0,0,-1,895,1464,0,0
-322,-440,0,0,0,0,0,0,0,0,0,-1,902,1464,0,0
-315,-440,0,0,0,0,0,0,0,0,0,-1,909,1464,0,0
-308,-440,0,0,0,0,0,0,0,0,0,-1,916,1464,0,0
-301,-440,0,0,0,0,0,0,0,0,0,-1,923,1464,0,0
-294,-440,0,0,0,0,0,0,0,0,0,-1,930,1464,0,0
-287,-440,0,0,0,0,0,0,0,0,0,-1,937,1464,0,0
-280,-440,0,0,0,0,0,0,0,0,0,-1,944,1464,0,0
-273,-440,0,0,0,0,0,0,0,0,0,-1,951,1464,0,0
-266,-440,0,0,0,0,0,0,0,0,0,-1,958,1464,0,0
-259,-440,0,0,0,0,0,0,0,0,0,-1,965,1464,0,0
-252,-440,0,0,0,0,0,0,0,0,0,-1,972,1464,0,0
-245,-440,0,0,0,0,0,0,0,0,0,-1,979,1464,0,0
-238,-440,0,0,0,0,0,0,0,0,0,-1,986,1464,0,0
-231,-440,0,0,0,0,0,0,0,0,0,-1,993,1464,0,0
-224,-440,0,0,0,0,0,0,0,0,0,-1,1000,1464,0,0
-217,-440,0,0,0,0,0,0,0,0,0,-1,1007,1464,0,0
-210,-440,0,0,0,0,0,0,0,0,0,-1,1014,1464,0,0
-203,-440,0,0,0,0,0,0,0,0,0,-1,1021,1464,0,0
-196,-440,0,0,0,0,0,0,0,0,0,-1,1028,1464,0,0
-189,-440,0,0,0,0,0,0,0,0,0,-1,1035,1464,0,0
-182,-440,0,0,0,0,0,0,0,0,0,-1,1042,1464,0,0
-175,-440,0,0,0,0,0,0,0,0,0,-1,1049,1464,0,0
-168,-440,0,0,0,0,0,0,0,0,0,-1,1056,1464,0,0
-161,-440,0,0,0,0,0,0,0,0,0,-1,1063,1464,0,0
-154,-440,0,0,0,0,0,0,0,0,0,-1,1070,1464,0,0
-147,-440,0,0,0,0,0,0,0,0,0,-1,1077,1464,0,0
-140,-440,0,0,0,0,0,0,0,0,0,-1,1084,1464,0,0
-133,-440,0,0,0,0,0,0,0,0,0,-1,1091,1464,0,0
-126,-440,0,0,0,0,0,0,0,0,0,-1,1098,1464,0,0
-119,-440,0,0,0,0,0,0,0,0,0,-1,1105,1464,0,0
-112,-440,0,0,0,0,0,0,0,0,0,-1,1112,1464,0,0
-105,-440,0,0,0,0,0,0,0,0,0,-1,1119,1464,0,0
-98,-440,0,0,0,0,0,0,0,0,0,-1,1126,1464,0,0
-91,-440,0,0,0,0,0,0,0,0,0,-1,1133,1464,0,0
-84,-440,0,0,0,0,0,0,0,0,0,-1,1140,1464,0,0
-77,-440,0,0,0,0,0,0,0,0,0,-1,1147,1464,0,0
-70,-440,0,0,0,0,0,0,0,0,0,-1,1154,1464,0,0
-63,-440,0,0,0,0,0,0,0,0,0,-1,1161,1464,0,0
-56,-440,0,0,0,0,0,0,0,0,0,-1,1168,1464,0,0
-49,-440,0,0,0,0,0,0,0,0,0,-1,1175,1464,0,0
-42,-440,0,0,0,0,0,0,0,0,0,-1,1182,1464,0,0
-35,-440,0,0,0,0,0,0,0,0,0,-1,1189,1464,0,0
-28,-440,0,0,0,0,0,0,0,0,0,-1,1196,1464,0,0
-21,-440,0,0,0,0,0,0,0,0,0,-1,1203,1464,0,0
-14,-440,0,0,0,0,0,0,0,0,0,-1,1210,1464,0,0
-7,-440,0,0,0,0,0,0,0,0,0,-1,1217,1464,0,0
0,-440,0,0,0,0,0,0,0,0,0,-1,1224,1464,0,0
7,-440,0,0,0,0,0,0,0,0,0,-1,1231,1464,0,0
14,-440,0,0,0,0,0,0,0,0,0,-1,1238,1464,0,0
21,-440,0,0,0,0,0,0,0,0,0,-1,1245,1464,0,0
28,-440,0,0,0,0,0,0,0,0,0,-1,1252,1464,0,0
35,-440,0,0,0,0,0,0,0,0,0,-1,1259,1464,0,0
42,-440,0,0,0,0,0,0,0,0,0,-1,1266,1464,0,0
49,-440,0,0,0,0,0,0,0,0,0,-1,1273,1464,0,0
56,-440,0,0,0,0,0,0,0,0,0,-1,1280,1464,0,0
63,-440,0,0,0,0,0,0,0,0,0,-1,1287,1464,0,0
70,-440,0,0,0,0,0,0,0,0,0,-1,1294,1464,0,0
77,-440,0,0,0,0,0,0,0,0,0,-1,1301,1464,0,0
84,-440,0,0,0,0,0,0,0,0,0,-1,1308,1464,0,0
91,-440,0,0,0,0,0,0,0,0,0,-1,1315,1464,0,0
98,-440,0,0,0,0,0,0,0,0,0,-1,1322,1464,0,0
105,-440,0,0,0,0,0,0,0,0,0,-1,1329,1464,0,0
112,-440,0,0,0,0,0,0,0,0,0,-1,1336,1464,0,0
119,-440,0,0,0,0,0,0,0,0,0,-1,1343,1464,0,0
126,-440,0,0,0,0,0,0,0,0,0,-1,1350,1464,0,0
133,-440,0,0,0,0,0,0,0,0,0,-1,1357,1464,0,0
140,-440,0,0,0,0,0,0,0,0,0,-1,1364,1464,0,0
147,-440,0,0,0,0,0,0,0,0,0,-1,1371,1464,0,0
154,-440,0,0,0,0,0,0,0,0,0,-1,1378,1464,0,0
161,-440,0,0,0,0,0,0,0,0,0,-1,1385,1464,0,0
168,-440,0,0,0,0,0,0,0,0,0,-1,1392,1464,0,0
175,-440,0,0,0,0,0,0,0,0,0,-1,1399,1464,0,0
182,-440,0,0,0,0,0,0,0,0,0,-1,1406,1464,0,0
189,-440,0,0,0,0,0,0,0,0,0,-1,1413,1464,0,0
196,-440,0,0,0,0,0,0,0,0,0,-1,1420,1464,0,0
203,-440,0,0,0,0,0,0,0,0,0,-1,1427,1464,0,0
210,-440,0,0,0,0,0,0,0,0,0,-1,1434,1464,0,0
217,-440,0,0,0,0,0,0,0,0,0,-1,1441,1464,0,0
224,-440,0,0,0,0,0,0,0,0,0,-1,1448,1464,0,0
231,-440,0,0,0,0,0,0,0,0,0,-1,1455,1464,0,0
238,-440,0,0,0,0,0,0,0,0,0,-1,1462,1464,0,0
245,-440,0,0,0,0,0,0,0,0,0,-1,1469,1464,0,0
252,-440,0,0,0,0,0,0,0,0,0,-1,1476,1464,0,0
259,-440,0,0,0,0,0,0,0,0,0,-1,1483,1464,0,0
266,-440,0,0,0,0,0,0,0,0,0,-1,1490,1464,0,0
273,-440,0,0,0,0,0,0,0,0,0,-1,1497,1464,0,0
280,-440,0,0,0,0,0,0,0,0,0,-1,1504,1464,0,0
287,-440,0,0,0,0,0,0,0,0,0,-1,1511,1464,0,0
294,-440,0,0,0,0,0,0,0,0,0,-1,1518,1464,0,0
301,-440,0,0,0,0,0,0,0,0,0,-1,1525,1464,0,0
308,-440,0,0,0,0,0,0,0,0,0,-1,1532,1464,0,0
315,-440,0,0,0,0,0,0,0,0,0,-1,1539,1464,0,0
322,-440,0,0,0,0,0,0,0,0,0,-1,1546,1464,0,0
329,-440,0,0,0,0,0,0,0,0,0,-1,1553,1464,0,0
336,-440,0,0,0,0,0,0,0,0,0,-1,1560,1464,0,0
343,-440,0,0,0,0,0,0,0,0,0,-1,1567,1464,0,0
350,-440,0,0,0,0,0,0,0,0,0,-1,1574,1464,0,0
357,-440,0,0,0,0,0,0,0,0,0,-1,1581,1464,0,0
364,-440,0,0,0,0,0,0,0,0,0,-1,1588,1464,0,0
371,-440,0,0,0,0,0,0,0,0,0,-1,1595,1464,0,0
378,-440,0,0,0,0,0,0,0,0,0,-1,1602,1464,0,0
385,-440,0,0,0,0,0,0,0,0,0,-1,1609,1464,0,0
392,-440,0,0,0,0,0,0,0,0,0,-1,1616,1464,0,0
399,-440,0,0,0,0,0,0,0,0,0,-1,1623,1464,0,0
406,-440,0,0,0,0,0,0,0,0,0,-1,1630,1464,0,0
413,-440,0,0,0,0,0,0,0,0,0,-1,1637,1464,0,0
420,-440,0,0,0,0,0,0,0,0,0,-1,1644,1464,0,0
427,-440,0,0,0,0,0,0,0,0,0,-1,1651,1464,0,0
434,-440,0,0,0,0,0,0,0,0,0,-1,1658,1464,0,0
441,-440,0,0,0,0,0,0,0,0,0,-1,1665,1464,0,0
448,-440,0,0,0,0,0,0,0,0,0,-1,1672,1464,0,0
455,-440,0,0,0,0,0,0,0,0,0,-1,1679,1464,0,0
462,-440,0,0,0,0,0,0,0,0,0,-1,1686,1464,0,0
469,-440,0,0,0,0,0,0,0,0,0,-1,1693,1464,0,0
476,-440,0,0,0,0,0,0,0,0,0,-1,1700,1464,0,0
483,-440,0,0,0,0,0,0,0,0,0,-1,1707,1464,0,0
490,-440,0,0,0,0,0,0,0,0,0,-1,1714,1464,0,0
497,-440,16.965,-0.528442,0,0,0,0,0,0,0,-1,1721,1464,16.965,0.528492
504,-440,15.8052,0.670166,0,0,0,0,0,0,0,-1,1728,1464,15.8052,-0.670145
511,-440,17.5754,2.77832,0,0,0,0,0,0,0,-1,1735,1464,17.5754,-2.77826
518,-440,16.9017,3.07861,0,0,0,0,0,0,0,-1,1742,1464,16.9018,-3.07859
525,-440,18.4495,12.0867,0,0,0,0,0,0,0,-1,1749,1464,18.4495,-12.0867
532,-440,15.4319,3.64392,0,0,0,0,0,0,0,-1,1756,1464,15.4318,-3.64391
539,-440,14.8214,3.41321,0,0,0,0,0,0,0,-1,1763,1464,14.8214,-3.4132
546,-440,14.8651,10.7683,0,0,0,0,0,0,0,-1,1770,1464,14.8651,-10.7683
553,-440,15.1213,11.4121,0,0,0,0,0,0,0,-1,1777,1464,15.1213,-11.4121
560,-440,17.4325,12.5394,0,0,0,0,0,0,0,-1,1784,1464,17.4325,-12.5394
567,-440,16.9025,12.4249,0,0,0,0,0,0,0,-1,1791,1464,16.9025,-12.425
574,-440,19.2841,14.8679,0,0,0,0,0,0,0,-1,1798,1464,19.2841,-14.868
581,-440,23.3965,18.6206,0,0,0,0,0,0,0,-1,1805,1464,23.3965,-18.6206
588,-440,23.5651,17.6742,0,0,0,0,0,0,0,-1,1812,1464,23.5651,-17.6742
595,-440,23.5844,17.0756,0.00411806,0.00409735,-0.00376258,0.0078703,0.00034511,-0.784022,0.00513569,0.0233354,1819,1464,23.5843,-17.0756
602,-440,23.6442,16.5212,0.00333225,0.00296029,-0.00289316,0.0060454,0.000247141,-0.753301,0.00395046,0.0184353,1826,1464,23.6442,-16.5212
609,-440,23.6477,16.0438,0.00277989,0.00198523,-0.00214214,0.00456124,0.00020388,-0.693698,0.0029752,0.0158985,1833,1464,23.6477,-16.0438
616,-440,23.6293,15.5823,0.00240102,0.00122895,-0.00154138,0.00346402,0.000165957,-0.603736,0.00225606,0.0169552,1840,1464,23.6293,-15.5823
623,-440,23.6075,15.0718,0.00230445,0.0005853,-0.0010622,0.00281131,7.84402e-05,-0.445224,0.00184861,0.0131878,1847,1464,23.6075,-15.0718
630,-440,23.5751,14.5476,0.00243551,3.10752e-05,-0.000695896,0.00262239,-0.000155807,-0.262359,0.00180244,0.0114085,1854,1464,23.5751,-14.5476
637,-440,23.5809,14.0968,0.00265126,-0.000297392,-0.000397217,0.00270383,-0.000349964,-0.131587,0.00192981,0.0163262,1861,1464,23.5809,-14.0968
644,-440,23.5981,13.6227,0.00303093,-0.000514258,-0.000172078,0.00303926,-0.000522591,-0.0483869,0.00222096,0.0153905,1868,1464,23.5982,-13.6226
651,-440,23.6028,13.0811,0.00352695,-0.000521816,-0.00010904,0.00352989,-0.00052475,-0.0269057,0.00254626,0.0197989,1875,1464,23.6028,-13.0811
658,-440,23.6755,12.4744,0,0,0,0,0,0,0,-1,1882,1464,23.6755,-12.4743
665,-440,23.0613,12.0668,0,0,0,0,0,0,0,-1,1889,1464,23.0613,-12.0668
672,-440,18.9385,9.6394,0,0,0,0,0,0,0,-1,1896,1464,18.9384,-9.63939
679,-440,16.9508,10.2336,0,0,0,0,0,0,0,-1,1903,1464,16.9508,-10.2337
686,-440,15.2556,8.44177,0,0,0,0,0,0,0,-1,1910,1464,15.2556,-8.44177
693,-440,9.88635,2.89795,0,0,0,0,0,0,0,-1,1917,1464,9.88638,-2.89798
700,-440,7.07825,-2.62061,0,0,0,0,0,0,0,-1,1924,1464,7.07829,2.62057
707,-440,0,0,0,0,0,0,0,0,0,-1,1931,1464,0,0
714,-440,0,0,0,0,0,0,0,0,0,-1,1938,1464,0,0
721,-440,0,0,0,0,0,0,0,0,0,-1,1945,1464,0,0
728,-440,0,0,0,0,0,0,0,0,0,-1,1952,1464,0,0
735,-440,0,0,0,0,0,0,0,0,0,-1,1959,1464,0,0
742,-440,0,0,0,0,0,0,0,0,0,-1,1966,1464,0,0
749,-440,0,0,0,0,0,0,0,0,0,-1,1973,1464,0,0
756,-440,0,0,0,0,0,0,0,0,0,-1,1980,1464,0,0
763,-440,0,0,0,0,0,0,0,0,0,-1,1987,1464,0,0
770,-440,0,0,0,0,0,0,0,0,0,-1,1994,1464,0,0
777,-440,0,0,0,0,0,0,0,0,0,-1,2001,1464,0,0
784,-440,0,0,0,0,0,0,0,0,0,-1,2008,1464,0,0
791,-440,0,0,0,0,0,0,0,0,0,-1,2015,1464,0,0
798,-440,0,0,0,0,0,0,0,0,0,-1,2022,1464,0,0
805,-440,0,0,0,0,0,0,0,0,0,-1,2029,1464,0,0
812,-440,0,0,0,0,0,0,0,0,0,-1,2036,1464,0,0
-700,-447,0,0,0,0,0,0,0,0,0,-1,524,1471,0,0
-693,-447,0,0,0,0,0,0,0,0,0,-1,531,1471,0,0
-686,-447,0,0,0,0,0,0,0,0,0,-1,538,1471,0,0
-679,-447,0,0,0,0,0,0,0,0,0,-1,545,1471,0,0
-672,-447,0,0,0,0,0,0,0,0,0,-1,552,1471,0,0
-665,-447,0,0,0,0,0,0,0,0,0,-1,559,1471,0,0
-658,-447,0,0,0,0,0,0,0,0,0,-1,566,1471,0,0
-651,-447,0,0,0,0,0,0,0,0,0,-1,573,1471,0,0
-644,-447,0,0,0,0,0,0,0,0,0,-1,580,1471,0,0
-637,-447,0,0,0,0,0,0,0,0,0,-1,587,1471,0,0
-630,-447,0,0,0,0,0,0,0,0,0,-1,594,1471,0,0
-623,-447,0,0,0,0,0,0,0,0,0,-1,601,1471,0,0
-616,-447,0,0,0,0,0,0,0,0,0,-1,608,1471,0,0
-609,-447,0,0,0,0,0,0,0,0,0,-1,615,1471,0,0
-602,-447,0,0,0,0,0,0,0,0,0,-1,622,1471,0,0
-595,-447,0,0,0,0,0,0,0,0,0,-1,629,1471,0,0
-588,-447,0,0,0,0,0,0,0,0,0,-1,636,1471,0,0
-581,-447,-7.06482,-1.50476,0,0,0,0,0,0,0,-1,643,1471,-7.0648,1.50474
-574,-447,-6.88092,-0.00585938,0,0,0,0,0,0,0,-1,650,1471,-6.88095,0.00589852
-567,-447,-6.8205,-1.32178,0,0,0,0,0,0,0,-1,657,1471,-6.82047,1.32172
-560,-447,-8.85748,2.80774,0,0,0,0,0,0,0,-1,664,1471,-8.85748,-2.80775
-553,-447,-7.60486,3.26794,0,0,0,0,0,0,0,-1,671,1471,-7.60487,-3.26799
-546,-447,-3.94501,1.8656,0,0,0,0,0,0,0,-1,678,1471,-3.945,-1.86554
-539,-447,-5.35492,4.50024,0,0,0,0,0,0,0,-1,685,1471,-5.35492,-4.50018
-532,-447,-6.12781,8.81091,0,0,0,0,0,0,0,-1,692,1471,-6.12781,-8.81094
-525,-447,-8.2735,10.7793,0,0,0,0,0,0,0,-1,699,1471,-8.27352,-10.7793
-518,-447,-8.36285,11.1093,0,0,0,0,0,0,0,-1,706,1471,-8.36283,-11.1092
-511,-447,-8.31635,11.8125,-0.00150336,-0.000702305,0.0007743,-0.000231075,-0.00197459,1.02409,0.00124653,0.021273,713,1471,-8.31637,-11.8125
-504,-447,-8.2796,12.4048,-0.000718276,-0.000465571,0.00088044,0.000297537,-0.00148138,0.856667,0.00110026,0.0197667,720,1471,-8.27957,-12.4048
-497,-447,-8.31824,12.9559,0.000149071,-1.4129e-05,0.00112419,0.00119462,-0.00105968,0.749169,0.0013023,0.0239853,727,1471,-8.31821,-12.956
-490,-447,-8.31635,13.4622,0.00127257,0.000752085,0.00162767,0.00266067,-0.000636012,0.706125,0.00201945,0.0241948,734,1471,-8.31636,-13.4622
-483,-447,-8.39233,13.9675,0.00282002,0.00176361,0.00249283,0.00483999,-0.000256357,0.680998,0.00331542,0.0225248,741,1471,-8.39233,-13.9675
-476,-447,-8.40997,14.4836,0.00465136,0.00299119,0.00360531,0.00752091,0.000121641,0.67225,0.00497389,0.0145884,748,1471,-8.40995,-14.4837
-469,-447,-8.4267,15.041,0.00687129,0.00438952,0.00507913,0.0108589,0.000401897,0.66559,0.0071091,0.0127948,755,1471,-8.42673,-15.041
-462,-447,-8.44183,15.6025,0.00958372,0.00604335,0.00693766,0.0149735,0.000653601,0.660485,0.00977173,0.0131073,762,1471,-8.44183,-15.6026
-455,-447,-8.4765,16.1294,0.0129691,0.00796213,0.00931273,0.020109,0.000822245,0.654091,0.0131405,0.0203983,769,1471,-8.47652,-16.1294
-448,-447,-8.30164,16.8424,0.0172449,0.0101896,0.0125189,0.0267237,0.000710781,0.648068,0.0175837,0.046663,776,1471,-8.30165,-16.8424
-441,-447,-8.05438,17.7191,0,0,0,0,0,0,0,-1,783,1471,-8.0544,-17.7192
-434,-447,-7.43402,15.6273,0,0,0,0,0,0,0,-1,790,1471,-7.43404,-15.6274
-427,-447,-7.21832,14.691,0,0,0,0,0,0,0,-1,797,1471,-7.21834,-14.6911
-420,-447,-8.0545,12.8055,0,0,0,0,0,0,0,-1,804,1471,-8.05452,-12.8055
-413,-447,-4.27393,6.59705,0,0,0,0,0,0,0,-1,811,1471,-4.27392,-6.59707
-406,-447,-1.04279,6.18591,0,0,0,0,0,0,0,-1,818,1471,-1.04276,-6.18586
-399,-447,0.0134888,0.687622,0,0,0,0,0,0,0,-1,825,1471,0.0134841,-0.68767
-392,-447,-14.0646,3.76147,0,0,0,0,0,0,0,-1,832,1471,-14.0646,-3.7615
-385,-447,-15.1695,2.61865,0,0,0,0,0,0,0,-1,839,1471,-15.1695,-2.61871
-378,-447,-15.9424,1.49316,0,0,0,0,0,0,0,-1,846,1471,-15.9424,-1.49313
-371,-447,-17.3655,0.73291,0,0,0,0,0,0,0,-1,853,1471,-17.3655,-0.732946
-364,-447,0,0,0,0,0,0,0,0,0,-1,860,1471,0,0
-357,-447,0,0,0,0,0,0,0,0,0,-1,867,1471,0,0
-350,-447,0,0,0,0,0,0,0,0,0,-1,874,1471,0,0
-343,-447,0,0,0,0,0,0,0,0,0,-1,881,1471,0,0
-336,-447,0,0,0,0,0,0,0,0,0,-1,888,1471,0,0
-329,-447,0,0,0,0,0,0,0,0,0,-1,895,1471,0,0
-322,-447,0,0,0,0,0,0,0,0,0,-1,902,1471,0,0
-315,-447,0,0,0,0,0,0,0,0,0,-1,909,1471,0,0
-308,-447,0,0,0,0,0,0,0,0,0,-1,916,1471,0,0
-301,-447,0,0,0,0,0,0,0,0,0,-1,923,1471,0,0
-294,-447,0,0,0,0,0,0,0,0,0,-1,930,1471,0,0
-287,-447,0,0,0,0,0,0,0,0,0,-1,937,1471,0,0
-280,-447,0,0,0,0,0,0,0,0,0,-1,944,1471,0,0
-273,-447,0,0,0,0,0,0,0,0,0,-1,951,1471,0,0
-266,-447,0,0,0,0,0,0,0,0,0,-1,958,1471,0,0
-259,-447,0,0,0,0,0,0,0,0,0,-1,965,1471,0,0
-252,-447,0,0,0,0,0,0,0,0,0,-1,972,1471,0,0
-245,-447,0,0,0,0,0,0,0,0,0,-1,979,1471,0,0
-238,-447,0,0,0,0,0,0,0,0,0,-1,986,1471,0,0
-231,-447,0,0,0,0,0,0,0,0,0,-1,993,1471,0,0
-224,-447,0,0,0,0,0,0,0,0,0,-1,1000,1471,0,0
-217,-447,0,0,0,0,0,0,0,0,0,-1,1007,1471,0,0
-210,-447,0,0,0,0,0,0,0,0,0,-1,1014,1471,0,0
-203,-447,0,0,0,0,0,0,0,0,0,-1,1021,1471,0,0
-196,-447,0,0,0,0,0,0,0,0,0,-1,1028,1471,0,0
-189,-447,0,0,0,0,0,0,0,0,0,-1,1035,1471,0,0
-182,-447,0,0,0,0,0,0,0,0,0,-1,1042,1471,0,0
-175,-447,0,0,0,0,0,0,0,0,0,-1,1049,1471,0,0
-168,-447,0,0,0,0,0,0,0,0,0,-1,1056,1471,0,0
-161,-447,0,0,0,0,0,0,0,0,0,-1,1063,1471,0,0
-154,-447,0,0,0,0,0,0,0,0,0,-1,1070,1471,0,0
-147,-447,0,0,0,0,0,0,0,0,0,-1,1077,1471,0,0
-140,-447,0,0,0,0,0,0,0,0,0,-1,1084,1471,0,0
-133,-447,0,0,0,0,0,0,0,0,0,-1,1091,1471,0,0
-126,-447,0,0,0,0,0,0,0,0,0,-1,1098,1471,0,0
-119,-447,0,0,0,0,0,0,0,0,0,-1,1105,1471,0,0
-112,-447,0,0,0,0,0,0,0,0,0,-1,1112,1471,0,0
-105,-447,0,0,0,0,0,0,0,0,0,-1,1119,1471,0,0
-98,-447,0,0,0,0,0,0,0,0,0,-1,1126,1471,0,0
-91,-447,0,0,0,0,0,0,0,0,0,-1,1133,1471,0,0
-84,-447,0,0,0,0,0,0,0,0,0,-1,1140,1471,0,0
-77,-447,0,0,0,0,0,0,0,0,0,-1,1147,1471,0,0
-70,-447,0,0,0,0,0,0,0,0,0,-1,1154,1471,0,0
-63,-447,0,0,0,0,0,0,0,0,0,-1,1161,1471,0,0
-56,-447,0,0,0,0,0,0,0,0,0,-1,1168,1471,0,0
-49,-447,0,0,0,0,0,0,0,0,0,-1,1175,1471,0,0
-42,-447,0,0,0,0,0,0,0,0,0,-1,1182,1471,0,0
-35,-447,0,0,0,0,0,0,0,0,0,-1,1189,1471,0,0
-28,-447,0,0,0,0,0,0,0,0,0,-1,1196,1471,0,0
-21,-447,0,0,0,0,0,0,0,0,0,-1,1203,1471,0,0
-14,-447,0,0,0,0,0,0,0,0,0,-1,1210,1471,0,0
-7,-447,0,0,0,0,0,0,0,0,0,-1,1217,1471,0,0
0,-447,0,0,0,0,0,0,0,0,0,-1,1224,1471,0,0
7,-447,0,0,0,0,0,0,0,0,0,-1,1231,1471,0,0
14,-447,0,0,0,0,0,0,0,0,0,-1,1238,1471,0,0
21,-447,0,0,0,0,0,0,0,0,0,-1,1245,1471,0,0
28,-447,0,0,0,0,0,0,0,0,0,-1,1252,1471,0,0
35,-447,0,0,0,0,0,0,0,0,0,-1,1259,1471,0,0
42,-447,0,0,0,0,0,0,0,0,0,-1,1266,1471,0,0
49,-447,0,0,0,0,0,0,0,0,0,-1,1273,1471,0,0
56,-447,0,0,0,0,0,0,0,0,0,-1,1280,1471,0,0
63,-447,0,0,0,0,0,0,0,0,0,-1,1287,1471,0,0
70,-447,0,0,0,0,0,0,0,0,0,-1,1294,1471,0,0
77,-447,0,0,0,0,0,0,0,0,0,-1,1301,1471,0,0
84,-447,0,0,0,0,0,0,0,0,0,-1,1308,1471,0,0
91,-447,0,0,0,0,0,0,0,0,0,-1,1315,1471,0,0
98,-447,0,0,0,0,0,0,0,0,0,-1,1322,1471,0,0
105,-447,0,0,0,0,0,0,0,0,0,-1,1329,1471,0,0
112,-447,0,0,0,0,0,0,0,0,0,-1,1336,1471,0,0
119,-447,0,0,0,0,0,0,0,0,0,-1,1343,1471,0,0
126,-447,0,0,0,0,0,0,0,0,0,-1,1350,1471,0,0
133,-447,0,0,0,0,0,0,0,0,0,-1,1357,1471,0,0
140,-447,0,0,0,0,0,0,0,0,0,-1,1364,1471,0,0
147,-447,0,0,0,0,0,0,0,0,0,-1,1371,1471,0,0
154,-447,0,0,0,0,0,0,0,0,0,-1,1378,1471,0,0
161,-447,0,0,0,0,0,0,0,0,0,-1,1385,1471,0,0
168,-447,0,0,0,0,0,0,0,0,0,-1,1392,1471,0,0
175,-447,0,0,0,0,0,0,0,0,0,-1,1399,1471,0,0
182,-447,0,0,0,0,0,0,0,0,0,-1,1406,1471,0,0
189,-447,0,0,0,0,0,0,0,0,0,-1,1413,1471,0,0
196,-447,0,0,0,0,0,0,0,0,0,-1,1420,1471,0,0
203,-447,0,0,0,0,0,0,0,0,0,-1,1427,1471,0,0
210,-447,0,0,0,0,0,0,0,0,0,-1,1434,1471,0,0
217,-447,0,0,0,0,0,0,0,0,0,-1,1441,1471,0,0
224,-447,0,0,0,0,0,0,0,0,0,-1,1448,1471,0,0
231,-447,0,0,0,0,0,0,0,0,0,-1,1455,1471,0,0
238,-447,0,0,0,0,0,0,0,0,0,-1,1462,1471,0,0
245,-447,0,0,0,0,0,0,0,0,0,-1,1469,1471,0,0
252,-447,0,0,0,0,0,0,0,0,0,-1,1476,1471,0,0
259,-447,0,0,0,0,0,0,0,0,0,-1,1483,1471,0,0
266,-447,0,0,0,0,0,0,0,0,0,-1,1490,1471,0,0
273,-447,0,0,0,0,0,0,0,0,0,-1,1497,1471,0,0
280,-447,0,0,0,0,0,0,0,0,0,-1,1504,1471,0,0
287,-447,0,0,0,0,0,0,0,0,0,-1,1511,1471,0,0
294,-447,0,0,0,0,0,0,0,0,0,-1,1518,1471,0,0
301,-447,0,0,0,0,0,0,0,0,0,-1,1525,1471,0,0
308,-447,0,0,0,0,0,0,0,0,0,-1,1532,1471,0,0
315,-447,0,0,0,0,0,0,0,0,0,-1,1539,1471,0,0
322,-447,0,0,0,0,0,0,0,0,0,-1,1546,1471,0,0
329,-447,0,0,0,0,0,0,0,0,0,-1,1553,1471,0,0
336,-447,0,0,0,0,0,0,0,0,0,-1,1560,1471,0,0
343,-447,0,0,0,0,0,0,0,0,0,-1,1567,1471,0,0
350,-447,0,0,0,0,0,0,0,0,0,-1,1574,1471,0,0
357,-447,0,0,0,0,0,0,0,0,0,-1,1581,1471,0,0
364,-447,0,0,0,0,0,0,0,0,0,-1,1588,1471,0,0
371,-447,0,0,0,0,0,0,0,0,0,-1,1595,1471,0,0
378,-447,0,0,0,0,0,0,0,0,0,-1,1602,1471,0,0
385,-447,0,0,0,0,0,0,0,0,0,-1,1609,1471,0,0
392,-447,0,0,0,0,0,0,0,0,0,-1,1616,1471,0,0
399,-447,0,0,0,0,0,0,0,0,0,-1,1623,1471,0,0
406,-447,0,0,0,0,0,0,0,0,0,-1,1630,1471,0,0
413,-447,0,0,0,0,0,0,0,0,0,-1,1637,1471,0,0
420,-447,0,0,0,0,0,0,0,0,0,-1,1644,1471,0,0
427,-447,0,0,0,0,0,0,0,0,0,-1,1651,1471,0,0
434,-447,0,0,0,0,0,0,0,0,0,-1,1658,1471,0,0
441,-447,0,0,0,0,0,0,0,0,0,-1,1665,1471,0,0
448,-447,0,0,0,0,0,0,0,0,0,-1,1672,1471,0,0
455,-447,0,0,0,0,0,0,0,0,0,-1,1679,1471,0,0
462,-447,0,0,0,0,0,0,0,0,0,-1,1686,1471,0,0
469,-447,0,0,0,0,0,0,0,0,0,-1,1693,1471,0,0
476,-447,0,0,0,0,0,0,0,0,0,-1,1700,1471,0,0
483,-447,0,0,0,0,0,0,0,0,0,-1,1707,1471,0,0
490,-447,18.2214,-0.810303,0,0,0,0,0,0,0,-1,1714,1471,18.2215,0.810307
497,-447,17.0237,0.352417,0,0,0,0,0,0,0,-1,1721,1471,17.0237,-0.352442
504,-447,15.8998,1.53479,0,0,0,0,0,0,0,-1,1728,1471,15.8997,-1.53478
511,-447,14.7201,2.76111,0,0,0,0,0,0,0,-1,1735,1471,14.7201,-2.76107
518,-447,17.7618,13.2864,0,0,0,0,0,0,0,-1,1742,1471,17.7619,-13.2863
525,-447,17.1191,11.9014,0,0,0,0,0,0,0,-1,1749,1471,17.1191,-11.9013
532,-447,16.3959,10.0455,0,0,0,0,0,0,0,-1,1756,1471,16.3959,-10.0456
539,-447,14.1699,10.0204,0,0,0,0,0,0,0,-1,1763,1471,14.1699,-10.0204
546,-447,16.3715,11.8046,0,0,0,0,0,0,0,-1,1770,1471,16.3714,-11.8046
553,-447,17.5106,13.4012,0,0,0,0,0,0,0,-1,1777,1471,17.5107,-13.4012
560,-447,17.0187,13.168,0,0,0,0,0,0,0,-1,1784,1471,17.0187,-13.168
567,-447,18.9286,15.1703,0,0,0,0,0,0,0,-1,1791,1471,18.9286,-15.1703
574,-447,22.7026,18.9431,0,0,0,0,0,0,0,-1,1798,1471,22.7026,-18.9431
581,-447,23.0415,18.3042,0.00607061,0.00544573,-0.00445467,0.0102238,0.00129255,-0.750387,0.00642847,0.0407427,1805,1471,23.0415,-18.3042
588,-447,23.1586,17.5869,0.00476664,0.00429683,-0.00372216,0.0082613,0.000802165,-0.753885,0.00526057,0.0228197,1812,1471,23.1585,-17.5869
595,-447,23.1674,17.0527,0.00373444,0.00331504,-0.00304313,0.00657509,0.000474392,-0.750998,0.00423413,0.0128418,1819,1471,23.1673,-17.0527
602,-447,23.1394,16.5414,0.00310825,0.00229736,-0.00236836,0.00510562,0.000299993,-0.700624,0.00330829,0.0107735,1826,1471,23.1395,-16.5414
609,-447,23.1373,16.0582,0.00269565,0.0014143,-0.00174713,0.00391587,0.000194079,-0.609662,0.00254835,0.0119919,1833,1471,23.1373,-16.0583
616,-447,23.1479,15.5673,0.00245328,0.000717081,-0.00124629,0.00310401,6.63537e-05,-0.481196,0.00204758,0.0151224,1840,1471,23.1479,-15.5672
623,-447,23.1285,15.0901,0.00248809,8.66416e-05,-0.000826385,0.00274499,-0.000170252,-0.301394,0.0018893,0.0167246,1847,1471,23.1285,-15.0901
630,-447,23.0918,14.5945,0.00273901,-0.000458106,-0.00048753,0.00281171,-0.000530797,-0.14801,0.00207417,0.00970061,1854,1471,23.0918,-14.5945
637,-447,23.1083,14.1029,0.00310371,-0.000746149,-0.000239362,0.00311853,-0.000760974,-0.0618568,0.00237369,0.0103701,1861,1471,23.1082,-14.1029
644,-447,23.1267,13.6119,0.00362632,-0.000905716,-7.12735e-05,0.00362745,-0.000906837,-0.0157214,0.0027705,0.0116687,1868,1471,23.1267,-13.612
651,-447,23.1504,13.0546,0.00427349,-0.000858994,-5.9101e-05,0.00427417,-0.000859675,-0.011513,0.00317504,0.0469373,1875,1471,23.1504,-13.0545
658,-447,23.2236,12.4546,0,0,0,0,0,0,0,-1,1882,1471,23.2236,-12.4546
665,-447,18.4946,9.79919,0,0,0,0,0,0,0,-1,1889,1471,18.4946,-9.79922
672,-447,18.9784,9.66077,0,0,0,0,0,0,0,-1,1896,1471,18.9784,-9.66081
679,-447,14.844,7.4248,0,0,0,0,0,0,0,-1,1903,1471,14.844,-7.42477
686,-447,9.81079,4.30859,0,0,0,0,0,0,0,-1,1910,1471,9.8108,-4.30864
693,-447,10.48,2.08643,0,0,0,0,0,0,0,-1,1917,1471,10.48,-2.08642
700,-447,0,0,0,0,0,0,0,0,0,-1,1924,1471,0,0
707,-447,0,0,0,0,0,0,0,0,0,-1,1931,1471,0,0
714,-447,0,0,0,0,0,0,0,0,0,-1,1938,1471,0,0
721,-447,0,0,0,0,0,0,0,0,0,-1,1945,1471,0,0
728,-447,0,0,0,0,0,0,0,0,0,-1,1952,1471,0,0
735,-447,0,0,0,0,0,0,0,0,0,-1,1959,1471,0,0
742,-447,0,0,0,0,0,0,0,0,0,-1,1966,1471,0,0
749,-447,0,0,0,0,0,0,0,0,0,-1,1973,1471,0,0
756,-447,0,0,0,0,0,0,0,0,0,-1,1980,1471,0,0
763,-447,0,0,0,0,0,0,0,0,0,-1,1987,1471,0,0
770,-447,0,0,0,0,0,0,0,0,0,-1,1994,1471,0,0
777,-447,0,0,0,0,0,0,0,0,0,-1,2001,1471,0,0
784,-447,0,0,0,0,0,0,0,0,0,-1,2008,1471,0,0
791,-447,0,0,0,0,0,0,0,0,0,-1,2015,1471,0,0
798,-447,0,0,0,0,0,0,0,0,0,-1,2022,1471,0,0
805,-447,0,0,0,0,0,0,0,0,0,-1,2029,1471,0,0
812,-447,0,0,0,0,0,0,0,0,0,-1,2036,1471,0,0
-700,-454,0,0,0,0,0,0,0,0,0,-1,524,1478,0,0
-693,-454,0,0,0,0,0,0,0,0,0,-1,531,1478,0,0
-686,-454,0,0,0,0,0,0,0,0,0,-1,538,1478,0,0
-679,-454,0,0,0,0,0,0,0,0,0,-1,545,1478,0,0
-672,-454,0,0,0,0,0,0,0,0,0,-1,552,1478,0,0
-665,-454,0,0,0,0,0,0,0,0,0,-1,559,1478,0,0
-658,-454,0,0,0,0,0,0,0,0,0,-1,566,1478,0,0
-651,-454,0,0,0,0,0,0,0,0,0,-1,573,1478,0,0
-644,-454,0,0,0,0,0,0,0,0,0,-1,580,1478,0,0
-637,-454,0,0,0,0,0,0,0,0,0,-1,587,1478,0,0
-630,-454,0,0,0,0,0,0,0,0,0,-1,594,1478,0,0
-623,-454,0,0,0,0,0,0,0,0,0,-1,601,1478,0,0
-616,-454,0,0,0,0,0,0,0,0,0,-1,608,1478,0,0
-609,-454,0,0,0,0,0,0,0,0,0,-1,615,1478,0,0
-602,-454,0,0,0,0,0,0,0,0,0,-1,622,1478,0,0
-595,-454,0,0,0,0,0,0,0,0,0,-1,629,1478,0,0
-588,-454,0,0,0,0,0,0,0,0,0,-1,636,1478,0,0
-581,-454,0,0,0,0,0,0,0,0,0,-1,643,1478,0,0
-574,-454,-8.4881,-0.465942,0,0,0,0,0,0,0,-1,650,1478,-8.4881,0.465885
-567,-454,-8.10046,0.922974,0,0,0,0,0,0,0,-1,657,1478,-8.10047,-0.923034
-560,-454,-10.656,3.51172,0,0,0,0,0,0,0,-1,664,1478,-10.656,-3.51176
-553,-454,-9.01129,3.95251,0,0,0,0,0,0,0,-1,671,1478,-9.0113,-3.95256
-546,-454,-9.61896,6.05237,0,0,0,0,0,0,0,-1,678,1478,-9.61897,-6.05239
-539,-454,-7.72589,4.96533,0,0,0,0,0,0,0,-1,685,1478,-7.72592,-4.96532
-532,-454,-7.03931,7.59985,0,0,0,0,0,0,0,-1,692,1478,-7.03929,-7.59981
-525,-454,-5.78723,9.677,0,0,0,0,0,0,0,-1,699,1478,-5.78722,-9.67703
-518,-454,-7.72742,11.3245,0,0,0,0,0,0,0,-1,706,1478,-7.72744,-11.3245
-511,-454,-7.88422,11.7716,-0.00190754,-0.00175655,0.000878134,-0.000950671,-0.00271342,0.828279,0.00158981,0.0421022,713,1478,-7.88424,-11.7716
-504,-454,-7.82104,12.37,-0.00123953,-0.00152285,0.000782627,-0.000585848,-0.00217654,0.695865,0.0013005,0.0169569,720,1478,-7.82103,-12.37
-497,-454,-7.81958,12.9689,-0.000530873,-0.00109172,0.000820732,5.60203e-05,-0.00167861,0.620778,0.00113821,0.019161,727,1478,-7.81958,-12.9688
-490,-454,-7.8288,13.4967,0.000426453,-0.000349166,0.00113335,0.00123651,-0.00115922,0.620553,0.00138342,0.018563,734,1478,-7.82879,-13.4967
-483,-454,-7.85986,14.0146,0.00180214,0.000665976,0.00183057,0.00315074,-0.000682632,0.634945,0.00236117,0.0165281,741,1478,-7.85984,-14.0146
-476,-454,-7.87549,14.5262,0.00346014,0.00187036,0.00279695,0.00557296,-0.000242456,0.646949,0.00379871,0.0129871,748,1478,-7.87548,-14.5262
-469,-454,-7.88263,15.0603,0.00545092,0.00321059,0.00409914,0.00858018,8.13203e-05,0.652021,0.00569321,0.00964888,755,1478,-7.88264,-15.0603
-462,-454,-7.93359,15.5942,0.00784234,0.00473061,0.00572707,0.0122211,0.00035183,0.652765,0.00803271,0.0101414,762,1478,-7.93359,-15.5943
-455,-454,-7.9549,16.1019,0.0107344,0.0064172,0.00776372,0.016634,0.000517564,0.649805,0.0109209,0.0120279,769,1478,-7.95491,-16.1019
-448,-454,-7.93195,16.6697,0.0142835,0.00837143,0.0104664,0.0222033,0.000451692,0.647766,0.0146539,0.0188855,776,1478,-7.93196,-16.6696
-441,-454,-7.62415,17.4949,0.0184024,0.010287,0.0135046,0.0284457,0.000243698,0.639456,0.0188831,0.0492124,783,1478,-7.62413,-17.4949
-434,-454,-6.87341,18.4146,0,0,0,0,0,0,0,-1,790,1478,-6.87339,-18.4145
-427,-454,-6.00183,15.8636,0,0,0,0,0,0,0,-1,797,1478,-6.00184,-15.8637
-420,-454,-6.28088,15.2135,0,0,0,0,0,0,0,-1,804,1478,-6.28087,-15.2135
-413,-454,-5.4408,13.674,0,0,0,0,0,0,0,-1,811,1478,-5.44079,-13.6739
-406,-454,-2.38208,10.0308,0,0,0,0,0,0,0,-1,818,1478,-2.38209,-10.0308
-399,-454,-1.21033,6.95447,0,0,0,0,0,0,0,-1,825,1478,-1.21035,-6.95452
-392,-454,0.0967407,0.985474,0,0,0,0,0,0,0,-1,832,1478,0.0967364,-0.985529
-385,-454,2.38629,3.297,0,0,0,0,0,0,0,-1,839,1478,2.38629,-3.29702
-378,-454,-15.9756,2.83997,0,0,0,0,0,0,0,-1,846,1478,-15.9756,-2.83994
-371,-454,-17.2753,2.01453,0,0,0,0,0,0,0,-1,853,1478,-17.2753,-2.01455
-364,-454,1.08124,0.819458,0,0,0,0,0,0,0,-1,860,1478,1.08124,-0.819513
-357,-454,0,0,0,0,0,0,0,0,0,-1,867,1478,0,0
-350,-454,0,0,0,0,0,0,0,0,0,-1,874,1478,0,0
-343,-454,0,0,0,0,0,0,0,0,0,-1,881,1478,0,0
-336,-454,0,0,0,0,0,0,0,0,0,-1,888,1478,0,0
-329,-454,0,0,0,0,0,0,0,0,0,-1,895,1478,0,0
-322,-454,0,0,0,0,0,0,0,0,0,-1,902,1478,0,0
-315,-454,0,0,0,0,0,0,0,0,0,-1,909,1478,0,0
-308,-454,0,0,0,0,0,0,0,0,0,-1,916,1478,0,0
-301,-454,0,0,0,0,0,0,0,0,0,-1,923,1478,0,0
-294,-454,0,0,0,0,0,0,0,0,0,-1,930,1478,0,0
-287,-454,0,0,0,0,0,0,0,0,0,-1,937,1478,0,0
-280,-454,0,0,0,0,0,0,0,0,0,-1,944,1478,0,0
-273,-454,0,0,0,0,0,0,0,0,0,-1,951,1478,0,0
-266,-454,0,0,0,0,0,0,0,0,0,-1,958,1478,0,0
-259,-454,0,0,0,0,0,0,0,0,0,-1,965,1478,0,0
-252,-454,0,0,0,0,0,0,0,0,0,-1,972,1478,0,0
-245,-454,0,0,0,0,0,0,0,0,0,-1,979,1478,0,0
-238,-454,0,0,0,0,0,0,0,0,0,-1,986,1478,0,0
-231,-454,0,0,0,0,0,0,0,0,0,-1,993,1478,0,0
-224,-454,0,0,0,0,0,0,0,0,0,-1,1000,1478,0,0
-217,-454,0,0,0,0,0,0,0,0,0,-1,1007,1478,0,0
-210,-454,0,0,0,0,0,0,0,0,0,-1,1014,1478,0,0
-203,-454,0,0,0,0,0,0,0,0,0,-1,1021,1478,0,0
-196,-454,0,0,0,0,0,0,0,0,0,-1,1028,1478,0,0
-189,-454,0,0,0,0,0,0,0,0,0,-1,1035,1478,0,0
-182,-454,0,0,0,0,0,0,0,0,0,-1,1042,1478,0,0
-175,-454,0,0,0,0,0,0,0,0,0,-1,1049,1478,0,0
-168,-454,0,0,0,0,0,0,0,0,0,-1,1056,1478,0,0
-161,-454,0,0,0,0,0,0,0,0,0,-1,1063,1478,0,0
-154,-454,0,0,0,0,0,0,0,0,0,-1,1070,1478,0,0
-147,-454,0,0,0,0,0,0,0,0,0,-1,1077,1478,0,0
-140,-454,0,0,0,0,0,0,0,0,0,-1,1084,1478,0,0
-133,-454,0,0,0,0,0,0,0,0,0,-1,1091,1478,0,0
-126,-454,0,0,0,0,0,0,0,0,0,-1,1098,1478,0,0
-119,-454,0,0,0,0,0,0,0,0,0,-1,1105,1478,0,0
-112,-454,0,0,0,0,0,0,0,0,0,-1,1112,1478,0,0
-105,-454,0,0,0,0,0,0,0,0,0,-1,1119,1478,0,0
-98,-454,0,0,0,0,0,0,0,0,0,-1,1126,1478,0,0
-91,-454,0,0,0,0,0,0,0,0,0,-1,1133,1478,0,0
-84,-454,0,0,0,0,0,0,0,0,0,-1,1140,1478,0,0
-77,-454,0,0,0,0,0,0,0,0,0,-1,1147,1478,0,0
-70,-454,0,0,0,0,0,0,0,0,0,-1,1154,1478,0,0
-63,-454,0,0,0,0,0,0,0,0,0,-1,1161,1478,0,0
-56,-454,0,0,0,0,0,0,0,0,0,-1,1168,1478,0,0
-49,-454,0,0,0,0,0,0,0,0,0,-1,1175,1478,0,0
-42,-454,0,0,0,0,0,0,0,0,0,-1,1182,1478,0,0
-35,-454,0,0,0,0,0,0,0,0,0,-1,1189,1478,0,0
-28,-454,0,0,0,0,0,0,0,0,0,-1,1196,1478,0,0
-21,-454,0,0,0,0,0,0,0,0,0,-1,1203,1478,0,0
-14,-454,0,0,0,0,0,0,0,0,0,-1,1210,1478,0,0
-7,-454,0,0,0,0,0,0,0,0,0,-1,1217,1478,0,0
0,-454,0,0,0,0,0,0,0,0,0,-1,1224,1478,0,0
7,-454,0,0,0,0,0,0,0,0,0,-1,1231,1478,0,0
14,-454,0,0,0,0,0,0,0,0,0,-1,1238,1478,0,0
21,-454,0,0,0,0,0,0,0,0,0,-1,1245,1478,0,0
28,-454,0,0,0,0,0,0,0,0,0,-1,1252,1478,0,0
35,-454,0,0,0,0,0,0,0,0,0,-1,1259,1478,0,0
42,-454,0,0,0,0,0,0,0,0,0,-1,1266,1478,0,0
49,-454,0,0,0,0,0,0,0,0,0,-1,1273,1478,0,0
56,-454,0,0,0,0,0,0,0,0,0,-1,1280,1478,0,0
63,-454,0,0,0,0,0,0,0,0,0,-1,1287,1478,0,0
70,-454,0,0,0,0,0,0,0,0,0,-1,1294,1478,0,0
77,-454,0,0,0,0,0,0,0,0,0,-1,1301,1478,0,0
84,-454,0,0,0,0,0,0,0,0,0,-1,1308,1478,0,0
91,-454,0,0,0,0,0,0,0,0,0,-1,1315,1478,0,0
98,-454,0,0,0,0,0,0,0,0,0,-1,1322,1478,0,0
105,-454,0,0,0,0,0,0,0,0,0,-1,1329,1478,0,0
112,-454,0,0,0,0,0,0,0,0,0,-1,1336,1478,0,0
119,-454,0,0,0,0,0,0,0,0,0,-1,1343,1478,0,0
126,-454,0,0,0,0,0,0,0,0,0,-1,1350,1478,0,0
133,-454,0,0,0,0,0,0,0,0,0,-1,1357,1478,0,0
140,-454,0,0,0,0,0,0,0,0,0,-1,1364,1478,0,0
147,-454,0,0,0,0,0,0,0,0,0,-1,1371,1478,0,0
154,-454,0,0,0,0,0,0,0,0,0,-1,1378,1478,0,0
161,-454,0,0,0,0,0,0,0,0,0,-1,1385,1478,0,0
168,-454,0,0,0,0,0,0,0,0,0,-1,1392,1478,0,0
175,-454,0,0,0,0,0,0,0,0,0,-1,1399,1478,0,0
182,-454,0,0,0,0,0,0,0,0,0,-1,1406,1478,0,0
189,-454,0,0,0,0,0,0,0,0,0,-1,1413,1478,0,0
196,-454,0,0,0,0,0,0,0,0,0,-1,1420,1478,0,0
203,-454,0,0,0,0,0,0,0,0,0,-1,1427,1478,0,0
210,-454,0,0,0,0,0,0,0,0,0,-1,1434,1478,0,0
217,-454,0,0,0,0,0,0,0,0,0,-1,1441,1478,0,0
224,-454,0,0,0,0,0,0,0,0,0,-1,1448,1478,0,0
231,-454,0,0,0,0,0,0,0,0,0,-1,1455,1478,0,0
238,-454,0,0,0,0,0,0,0,0,0,-1,1462,1478,0,0
245,-454,0,0,0,0,0,0,0,0,0,-1,1469,1478,0,0
252,-454,0,0,0,0,0,0,0,0,0,-1,1476,1478,0,0
259,-454,0,0,0,0,0,0,0,0,0,-1,1483,1478,0,0
266,-454,0,0,0,0,0,0,0,0,0,-1,1490,1478,0,0
273,-454,0,0,0,0,0,0,0,0,0,-1,1497,1478,0,0
280,-454,0,0,0,0,0,0,0,0,0,-1,1504,1478,0,0
287,-454,0,0,0,0,0,0,0,0,0,-1,1511,1478,0,0
294,-454,0,0,0,0,0,0,0,0,0,-1,1518,1478,0,0
301,-454,0,0,0,0,0,0,0,0,0,-1,1525,1478,0,0
308,-454,0,0,0,0,0,0,0,0,0,-1,1532,1478,0,0
315,-454,0,0,0,0,0,0,0,0,0,-1,1539,1478,0,0
322,-454,0,0,0,0,0,0,0,0,0,-1,1546,1478,0,0
329,-454,0,0,0,0,0,0,0,0,0,-1,1553,1478,0,0
336,-454,0,0,0,0,0,0,0,0,0,-1,1560,1478,0,0
343,-454,0,0,0,0,0,0,0,0,0,-1,1567,1478,0,0
350,-454,0,0,0,0,0,0,0,0,0,-1,1574,1478,0,0
357,-454,0,0,0,0,0,0,0,0,0,-1,1581,1478,0,0
364,-454,0,0,0,0,0,0,0,0,0,-1,1588,1478,0,0
371,-454,0,0,0,0,0,0,0,0,0,-1,1595,1478,0,0
378,-454,0,0,0,0,0,0,0,0,0,-1,1602,1478,0,0
385,-454,0,0,0,0,0,0,0,0,0,-1,1609,1478,0,0
392,-454,0,0,0,0,0,0,0,0,0,-1,1616,1478,0,0
399,-454,0,0,0,0,0,0,0,0,0,-1,1623,1478,0,0
406,-454,0,0,0,0,0,0,0,0,0,-1,1630,1478,0,0
413,-454,0,0,0,0,0,0,0,0,0,-1,1637,1478,0,0
420,-454,0,0,0,0,0,0,0,0,0,-1,1644,1478,0,0
427,-454,0,0,0,0,0,0,0,0,0,-1,1651,1478,0,0
434,-454,0,0,0,0,0,0,0,0,0,-1,1658,1478,0,0
441,-454,0,0,0,0,0,0,0,0,0,-1,1665,1478,0,0
448,-454,0,0,0,0,0,0,0,0,0,-1,1672,1478,0,0
455,-454,0,0,0,0,0,0,0,0,0,-1,1679,1478,0,0
462,-454,0,0,0,0,0,0,0,0,0,-1,1686,1478,0,0
469,-454,0,0,0,0,0,0,0,0,0,-1,1693,1478,0,0
476,-454,0,0,0,0,0,0,0,0,0,-1,1700,1478,0,0
483,-454,14.2399,3.97498,0,0,0,0,0,0,0,-1,1707,1478,14.2399,-3.97502
490,-454,18.1821,-0.175781,0,0,0,0,0,0,0,-1,1714,1478,18.1821,0.175822
497,-454,16.8854,1.01208,0,0,0,0,0,0,0,-1,1721,1478,16.8854,-1.01209
504,-454,15.587,2.05994,0,0,0,0,0,0,0,-1,1728,1478,15.5871,-2.05998
511,-454,17.0273,14.5258,0,0,0,0,0,0,0,-1,1735,1478,17.0273,-14.5258
518,-454,16.4158,13.1039,0,0,0,0,0,0,0,-1,1742,1478,16.4157,-13.1038
525,-454,15.7842,11.6628,0,0,0,0,0,0,0,-1,1749,1478,15.7841,-11.6629
532,-454,15.1094,10.2476,0,0,0,0,0,0,0,-1,1756,1478,15.1094,-10.2475
539,-454,13.7905,10.9373,0,0,0,0,0,0,0,-1,1763,1478,13.7906,-10.9372
546,-454,16.2002,13.2458,0,0,0,0,0,0,0,-1,1770,1478,16.2002,-13.2459
553,-454,15.6747,12.1868,0,0,0,0,0,0,0,-1,1777,1478,15.6747,-12.1868
560,-454,16.3895,14.0527,0,0,0,0,0,0,0,-1,1784,1478,16.3895,-14.0528
567,-454,22.7976,19.016,0,0,0,0,0,0,0,-1,1791,1478,22.7976,-19.0159
574,-454,22.6896,18.6407,0.00647779,0.00515173,-0.00405997,0.00992851,0.00170101,-0.704458,0.00613117,0.0348445,1798,1478,22.6896,-18.6408
581,-454,22.6538,18.0936,0.00521957,0.00428257,-0.00351437,0.00829653,0.0012056,-0.719134,0.00517617,0.0215909,1805,1478,22.6539,-18.0936
588,-454,22.7085,17.552,0.00411068,0.00332815,-0.00289963,0.00664532,0.000793509,-0.718335,0.00419082,0.0133348,1812,1478,22.7085,-17.552
595,-454,22.6749,17.0662,0.00331169,0.00246826,-0.0023586,0.00528598,0.000493967,-0.696933,0.00337141,0.0121623,1819,1478,22.6749,-17.0662
602,-454,22.6533,16.5736,0.0028221,0.00158894,-0.00183306,0.0041395,0.00027154,-0.623159,0.00267375,0.0087661,1826,1478,22.6533,-16.5736
609,-454,22.6553,16.1007,0.00253916,0.000810147,-0.00132254,0.00325468,9.46309e-05,-0.495921,0.00213894,0.0112412,1833,1478,22.6553,-16.1007
616,-454,22.663,15.6023,0.00243322,0.000169857,-0.000898598,0.00274659,-0.000143516,-0.335548,0.00188073,0.0159782,1840,1478,22.6629,-15.6023
623,-454,22.6591,15.1101,0.00261076,-0.000451727,-0.000523372,0.00269774,-0.000538699,-0.164673,0.00200236,0.0148877,1847,1478,22.6591,-15.1101
630,-454,22.6379,14.6351,0.00300984,-0.000989855,-0.000206882,0.00302051,-0.00100053,-0.0515411,0.00241722,0.0128874,1854,1478,22.6379,-14.6351
637,-454,22.5918,14.1531,0.00359509,-0.00124277,-3.61317e-05,0.00359536,-0.00124304,-0.00746798,0.00290141,0.0110982,1861,1478,22.5918,-14.153
644,-454,22.6744,13.6169,0.00439388,-0.0013554,3.43285e-06,0.00439388,-0.0013554,0.000597093,0.00347043,0.0225452,1868,1478,22.6745,-13.617
651,-454,22.7847,13.0383,0,0,0,0,0,0,0,-1,1875,1478,22.7846,-13.0383
658,-454,17.2583,10.0765,0,0,0,0,0,0,0,-1,1882,1478,17.2583,-10.0765
665,-454,17.683,9.67566,0,0,0,0,0,0,0,-1,1889,1478,17.683,-9.67572
672,-454,16.5476,6.41931,0,0,0,0,0,0,0,-1,1896,1478,16.5476,-6.41929
679,-454,14.2161,5.45007,0,0,0,0,0,0,0,-1,1903,1478,14.2161,-5.45013
686,-454,10.3767,2.12842,0,0,0,0,0,0,0,-1,1910,1478,10.3767,-2.12839
693,-454,11.1857,1.48486,0,0,0,0,0,0,0,-1,1917,1478,11.1857,-1.48487
700,-454,0,0,0,0,0,0,0,0,0,-1,1924,1478,0,0
707,-454,0,0,0,0,0,0,0,0,0,-1,1931,1478,0,0
714,-454,0,0,0,0,0,0,0,0,0,-1,1938,1478,0,0
721,-454,0,0,0,0,0,0,0,0,0,-1,1945,1478,0,0
728,-454,0,0,0,0,0,0,0,0,0,-1,1952,1478,0,0
735,-454,0,0,0,0,0,0,0,0,0,-1,1959,1478,0,0
742,-454,0,0,0,0,0,0,0,0,0,-1,1966,1478,0,0
749,-454,0,0,0,0,0,0,0,0,0,-1,1973,1478,0,0
756,-454,0,0,0,0,0,0,0,0,0,-1,1980,1478,0,0
763,-454,0,0,0,0,0,0,0,0,0,-1,1987,1478,0,0
770,-454,0,0,0,0,0,0,0,0,0,-1,1994,1478,0,0
777,-454,0,0,0,0,0,0,0,0,0,-1,2001,1478,0,0
784,-454,0,0,0,0,0,0,0,0,0,-1,2008,1478,0,0
791,-454,0,0,0,0,0,0,0,0,0,-1,2015,1478,0,0
798,-454,0,0,0,0,0,0,0,0,0,-1,2022,1478,0,0
805,-454,0,0,0,0,0,0,0,0,0,-1,2029,1478,0,0
812,-454,0,0,0,0,0,0,0,0,0,-1,2036,1478,0,0
-700,-461,0,0,0,0,0,0,0,0,0,-1,524,1485,0,0
-693,-461,0,0,0,0,0,0,0,0,0,-1,531,1485,0,0
-686,-461,0,0,0,0,0,0,0,0,0,-1,538,1485,0,0
-679,-461,0,0,0,0,0,0,0,0,0,-1,545,1485,0,0
-672,-461,0,0,0,0,0,0,0,0,0,-1,552,1485,0,0
-665,-461,0,0,0,0,0,0,0,0,0,-1,559,1485,0,0
-658,-461,0,0,0,0,0,0,0,0,0,-1,566,1485,0,0
-651,-461,0,0,0,0,0,0,0,0,0,-1,573,1485,0,0
-644,-461,0,0,0,0,0,0,0,0,0,-1,580,1485,0,0
-637,-461,0,0,0,0,0,0,0,0,0,-1,587,1485,0,0
-630,-461,0,0,0,0,0,0,0,0,0,-1,594,1485,0,0
-623,-461,0,0,0,0,0,0,0,0,0,-1,601,1485,0,0
-616,-461,0,0,0,0,0,0,0,0,0,-1,608,1485,0,0
-609,-461,0,0,0,0,0,0,0,0,0,-1,615,1485,0,0
-602,-461,0,0,0,0,0,0,0,0,0,-1,622,1485,0,0
-595,-461,0,0,0,0,0,0,0,0,0,-1,629,1485,0,0
-588,-461,0,0,0,0,0,0,0,0,0,-1,636,1485,0,0
-581,-461,0,0,0,0,0,0,0,0,0,-1,643,1485,0,0
-574,-461,0,0,0,0,0,0,0,0,0,-1,650,1485,0,0
-567,-461,-9.69031,0.513306,0,0,0,0,0,0,0,-1,657,1485,-9.69032,-0.513305
-560,-461,-7.28815,1.54004,0,0,0,0,0,0,0,-1,664,1485,-7.28817,-1.54005
-553,-461,-11.9607,5.27783,0,0,0,0,0,0,0,-1,671,1485,-11.9607,-5.27778
-546,-461,-11.4215,4.44666,0,0,0,0,0,0,0,-1,678,1485,-11.4215,-4.4467
-539,-461,-9.36493,5.23438,0,0,0,0,0,0,0,-1,685,1485,-9.3649,-5.23432
-532,-461,-7.82898,6.78357,0,0,0,0,0,0,0,-1,692,1485,-7.829,-6.78363
-525,-461,-6.37878,8.75659,0,0,0,0,0,0,0,-1,699,1485,-6.3788,-8.75659
-518,-461,-6.49695,10.886,0,0,0,0,0,0,0,-1,706,1485,-6.49696,-10.8859
-511,-461,-7.46967,11.88,0,0,0,0,0,0,0,-1,713,1485,-7.46969,-11.88
-504,-461,-7.34442,12.351,-0.0010835,-0.00256817,0.000450295,-0.000957602,-0.00269406,0.272627,0.00157694,0.0257573,720,1485,-7.3444,-12.3509
-497,-461,-7.27789,12.9849,-0.000691249,-0.00213333,0.000266667,-0.000643517,-0.00218106,0.177118,0.00129402,0.0111679,727,1485,-7.27792,-12.9849
-490,-461,-7.29944,13.5088,-4.96197e-05,-0.00141623,0.00039533,5.65005e-05,-0.00152235,0.262252,0.00103425,0.0129716,734,1485,-7.29947,-13.5087
-483,-461,-7.3291,14.0361,0.00102399,-0.000407087,0.000952145,0.00149949,-0.000882588,0.463168,0.00139058,0.0127528,741,1485,-7.3291,-14.0361
-476,-461,-7.36426,14.5707,0.00239831,0.000751296,0.00182007,0.00357251,-0.0004229,0.572949,0.00253443,0.0112011,748,1485,-7.36426,-14.5707
-469,-461,-7.367,15.0901,0.00407951,0.00200628,0.00301256,0.00622881,-0.000143025,0.619695,0.00420103,0.0129337,755,1485,-7.36702,-15.0901
-462,-461,-7.41248,15.6189,0.006098,0.00337496,0.00448485,0.00942345,4.95221e-05,0.638028,0.00626585,0.018394,762,1485,-7.41247,-15.6189
-455,-461,-7.41461,16.1414,0.00849142,0.00483432,0.00627204,0.013196,0.000129718,0.64356,0.00875443,0.0223309,769,1485,-7.41462,-16.1414
-448,-461,-7.38544,16.6763,0.0113865,0.00650969,0.00857277,0.0178609,3.52776e-05,0.64684,0.0118955,0.0199809,776,1485,-7.38544,-16.6762
-441,-461,-7.33282,17.2734,0.0147465,0.00819577,0.0111936,0.0231341,-0.000191871,0.643067,0.0154871,0.0250274,783,1485,-7.33283,-17.2734
-434,-461,-6.96515,17.8684,0.0189121,0.00971223,0.0144041,0.029433,-0.000808637,0.630842,0.019897,0.0431015,790,1485,-6.96516,-17.8685
-427,-461,-6.69269,18.775,0,0,0,0,0,0,0,-1,797,1485,-6.69268,-18.775
-420,-461,-5.70355,16.6116,0,0,0,0,0,0,0,-1,804,1485,-5.70353,-16.6115
-413,-461,-5.98798,16.0605,0,0,0,0,0,0,0,-1,811,1485,-5.98796,-16.0605
-406,-461,-5.52667,14.839,0,0,0,0,0,0,0,-1,818,1485,-5.52666,-14.839
-399,-461,-1.93439,9.82849,0,0,0,0,0,0,0,-1,825,1485,-1.9344,-9.82846
-392,-461,-0.357544,5.55225,0,0,0,0,0,0,0,-1,832,1485,-0.357536,-5.55228
-385,-461,1.71509,3.35254,0,0,0,0,0,0,0,-1,839,1485,1.71511,-3.35255
-378,-461,1.95996,3.01111,0,0,0,0,0,0,0,-1,846,1485,1.95993,-3.01111
-371,-461,0.702881,2.33459,0,0,0,0,0,0,0,-1,853,1485,0.702859,-2.33459
-364,-461,-1.93097,2.56458,0,0,0,0,0,0,0,-1,860,1485,-1.93095,-2.56456
-357,-461,-2.41516,3.49487,0,0,0,0,0,0,0,-1,867,1485,-2.41517,-3.49487
-350,-461,0,0,0,0,0,0,0,0,0,-1,874,1485,0,0
-343,-461,0,0,0,0,0,0,0,0,0,-1,881,1485,0,0
-336,-461,0,0,0,0,0,0,0,0,0,-1,888,1485,0,0
-329,-461,0,0,0,0,0,0,0,0,0,-1,895,1485,0,0
-322,-461,0,0,0,0,0,0,0,0,0,-1,902,1485,0,0
-315,-461,0,0,0,0,0,0,0,0,0,-1,909,1485,0,0
-308,-461,0,0,0,0,0,0,0,0,0,-1,916,1485,0,0
-301,-461,0,0,0,0,0,0,0,0,0,-1,923,1485,0,0
-294,-461,0,0,0,0,0,0,0,0,0,-1,930,1485,0,0
-287,-461,0,0,0,0,0,0,0,0,0,-1,937,1485,0,0
-280,-461,0,0,0,0,0,0,0,0,0,-1,944,1485,0,0
-273,-461,0,0,0,0,0,0,0,0,0,-1,951,1485,0,0
-266,-461,0,0,0,0,0,0,0,0,0,-1,958,1485,0,0
-259,-461,0,0,0,0,0,0,0,0,0,-1,965,1485,0,0
-252,-461,0,0,0,0,0,0,0,0,0,-1,972,1485,0,0
-245,-461,0,0,0,0,0,0,0,0,0,-1,979,1485,0,0
-238,-461,0,0,0,0,0,0,0,0,0,-1,986,1485,0,0
-231,-461,0,0,0,0,0,0,0,0,0,-1,993,1485,0,0
-224,-461,0,0,0,0,0,0,0,0,0,-1,1000,1485,0,0
-217,-461,0,0,0,0,0,0,0,0,0,-1,1007,1485,0,0
-210,-461,0,0,0,0,0,0,0,0,0,-1,1014,1485,0,0
-203,-461,0,0,0,0,0,0,0,0,0,-1,1021,1485,0,0
-196,-461,0,0,0,0,0,0,0,0,0,-1,1028,1485,0,0
-189,-461,0,0,0,0,0,0,0,0,0,-1,1035,1485,0,0
-182,-461,0,0,0,0,0,0,0,0,0,-1,1042,1485,0,0
-175,-461,0,0,0,0,0,0,0,0,0,-1,1049,1485,0,0
-168,-461,0,0,0,0,0,0,0,0,0,-1,1056,1485,0,0
-161,-461,0,0,0,0,0,0,0,0,0,-1,1063,1485,0,0
-154,-461,0,0,0,0,0,0,0,0,0,-1,1070,1485,0,0
-147,-461,0,0,0,0,0,0,0,0,0,-1,1077,1485,0,0
-140,-461,0,0,0,0,0,0,0,0,0,-1,1084,1485,0,0
-133,-461,0,0,0,0,0,0,0,0,0,-1,1091,1485,0,0
-126,-461,0,0,0,0,0,0,0,0,0,-1,1098,1485,0,0
-119,-461,0,0,0,0,0,0,0,0,0,-1,1105,1485,0,0
-112,-461,0,0,0,0,0,0,0,0,0,-1,1112,1485,0,0
-105,-461,0,0,0,0,0,0,0,0,0,-1,1119,1485,0,0
-98,-461,0,0,0,0,0,0,0,0,0,-1,1126,1485,0,0
-91,-461,0,0,0,0,0,0,0,0,0,-1,1133,1485,0,0
-84,-461,0,0,0,0,0,0,0,0,0,-1,1140,1485,0,0
-77,-461,0,0,0,0,0,0,0,0,0,-1,1147,1485,0,0
-70,-461,0,0,0,0,0,0,0,0,0,-1,1154,1485,0,0
-63,-461,0,0,0,0,0,0,0,0,0,-1,1161,1485,0,0
-56,-461,0,0,0,0,0,0,0,0,0,-1,1168,1485,0,0
-49,-461,0,0,0,0,0,0,0,0,0,-1,1175,1485,0,0
-42,-461,0,0,0,0,0,0,0,0,0,-1,1182,1485,0,0
-35,-461,0,0,0,0,0,0,0,0,0,-1,1189,1485,0,0
-28,-461,0,0,0,0,0,0,0,0,0,-1,1196,1485,0,0
-21,-461,0,0,0,0,0,0,0,0,0,-1,1203,1485,0,0
-14,-461,0,0,0,0,0,0,0,0,0,-1,1210,1485,0,0
-7,-461,0,0,0,0,0,0,0,0,0,-1,1217,1485,0,0
0,-461,0,0,0,0,0,0,0,0,0,-1,1224,1485,0,0
7,-461,0,0,0,0,0,0,0,0,0,-1,1231,1485,0,0
14,-461,0,0,0,0,0,0,0,0,0,-1,1238,1485,0,0
21,-461,0,0,0,0,0,0,0,0,0,-1,1245,1485,0,0
28,-461,0,0,0,0,0,0,0,0,0,-1,1252,1485,0,0
35,-461,0,0,0,0,0,0,0,0,0,-1,1259,1485,0,0
42,-461,0,0,0,0,0,0,0,0,0,-1,1266,1485,0,0
49,-461,0,0,0,0,0,0,0,0,0,-1,1273,1485,0,0
56,-461,0,0,0,0,0,0,0,0,0,-1,1280,1485,0,0
63,-461,0,0,0,0,0,0,0,0,0,-1,1287,1485,0,0
70,-461,0,0,0,0,0,0,0,0,0,-1,1294,1485,0,0
77,-461,0,0,0,0,0,0,0,0,0,-1,1301,1485,0,0
84,-461,0,0,0,0,0,0,0,0,0,-1,1308,1485,0,0
91,-461,0,0,0,0,0,0,0,0,0,-1,1315,1485,0,0
98,-461,0,0,0,0,0,0,0,0,0,-1,1322,1485,0,0
105,-461,0,0,0,0,0,0,0,0,0,-1,1329,1485,0,0
112,-461,0,0,0,0,0,0,0,0,0,-1,1336,1485,0,0
119,-461,0,0,0,0,0,0,0,0,0,-1,1343,1485,0,0
126,-461,0,0,0,0,0,0,0,0,0,-1,1350,1485,0,0
133,-461,0,0,0,0,0,0,0,0,0,-1,1357,1485,0,0
140,-461,0,0,0,0,0,0,0,0,0,-1,1364,1485,0,0
147,-461,0,0,0,0,0,0,0,0,0,-1,1371,1485,0,0
154,-461,0,0,0,0,0,0,0,0,0,-1,1378,1485,0,0
161,-461,0,0,0,0,0,0,0,0,0,-1,1385,1485,0,0
168,-461,0,0,0,0,0,0,0,0,0,-1,1392,1485,0,0
175,-461,0,0,0,0,0,0,0,0,0,-1,1399,1485,0,0
182,-461,0,0,0,0,0,0,0,0,0,-1,1406,1485,0,0
189,-461,0,0,0,0,0,0,0,0,0,-1,1413,1485,0,0
196,-461,0,0,0,0,0,0,0,0,0,-1,1420,1485,0,0
203,-461,0,0,0,0,0,0,0,0,0,-1,1427,1485,0,0
210,-461,0,0,0,0,0,0,0,0,0,-1,1434,1485,0,0
217,-461,0,0,0,0,0,0,0,0,0,-1,1441,1485,0,0
224,-461,0,0,0,0,0,0,0,0,0,-1,1448,1485,0,0
231,-461,0,0,0,0,0,0,0,0,0,-1,1455,1485,0,0
238,-461,0,0,0,0,0,0,0,0,0,-1,1462,1485,0,0
245,-461,0,0,0,0,0,0,0,0,0,-1,1469,1485,0,0
252,-461,0,0,0,0,0,0,0,0,0,-1,1476,1485,0,0
259,-461,0,0,0,0,0,0,0,0,0,-1,1483,1485,0,0
266,-461,0,0,0,0,0,0,0,0,0,-1,1490,1485,0,0
273,-461,0,0,0,0,0,0,0,0,0,-1,1497,1485,0,0
280,-461,0,0,0,0,0,0,0,0,0,-1,1504,1485,0,0
287,-461,0,0,0,0,0,0,0,0,0,-1,1511,1485,0,0
294,-461,0,0,0,0,0,0,0,0,0,-1,1518,1485,0,0
301,-461,0,0,0,0,0,0,0,0,0,-1,1525,1485,0,0
308,-461,0,0,0,0,0,0,0,0,0,-1,1532,1485,0,0
315,-461,0,0,0,0,0,0,0,0,0,-1,1539,1485,0,0
322,-461,0,0,0,0,0,0,0,0,0,-1,1546,1485,0,0
329,-461,0,0,0,0,0,0,0,0,0,-1,1553,1485,0,0
336,-461,0,0,0,0,0,0,0,0,0,-1,1560,1485,0,0
343,-461,0,0,0,0,0,0,0,0,0,-1,1567,1485,0,0
350,-461,0,0,0,0,0,0,0,0,0,-1,1574,1485,0,0
357,-461,0,0,0,0,0,0,0,0,0,-1,1581,1485,0,0
364,-461,0,0,0,0,0,0,0,0,0,-1,1588,1485,0,0
371,-461,0,0,0,0,0,0,0,0,0,-1,1595,1485,0,0
378,-461,0,0,0,0,0,0,0,0,0,-1,1602,1485,0,0
385,-461,0,0,0,0,0,0,0,0,0,-1,1609,1485,0,0
392,-461,0,0,0,0,0,0,0,0,0,-1,1616,1485,0,0
399,-461,0,0,0,0,0,0,0,0,0,-1,1623,1485,0,0
406,-461,0,0,0,0,0,0,0,0,0,-1,1630,1485,0,0
413,-461,0,0,0,0,0,0,0,0,0,-1,1637,1485,0,0
420,-461,0,0,0,0,0,0,0,0,0,-1,1644,1485,0,0
427,-461,0,0,0,0,0,0,0,0,0,-1,1651,1485,0,0
434,-461,0,0,0,0,0,0,0,0,0,-1,1658,1485,0,0
441,-461,0,0,0,0,0,0,0,0,0,-1,1665,1485,0,0
448,-461,0,0,0,0,0,0,0,0,0,-1,1672,1485,0,0
455,-461,0,0,0,0,0,0,0,0,0,-1,1679,1485,0,0
462,-461,0,0,0,0,0,0,0,0,0,-1,1686,1485,0,0
469,-461,0,0,0,0,0,0,0,0,0,-1,1693,1485,0,0
476,-461,14.1906,0.690552,0,0,0,0,0,0,0,-1,1700,1485,14.1906,-0.690525
483,-461,10.6361,3.09106,0,0,0,0,0,0,0,-1,1707,1485,10.6361,-3.091
490,-461,17.9972,0.665894,0,0,0,0,0,0,0,-1,1714,1485,17.9972,-0.665876
497,-461,16.6829,1.87732,0,0,0,0,0,0,0,-1,1721,1485,16.6828,-1.87736
504,-461,15.3884,3.09216,0,0,0,0,0,0,0,-1,1728,1485,15.3885,-3.09212
511,-461,15.4292,14.3512,0,0,0,0,0,0,0,-1,1735,1485,15.4292,-14.3512
518,-461,14.8081,10.0085,0,0,0,0,0,0,0,-1,1742,1485,14.8081,-10.0086
525,-461,14.0022,10.8033,0,0,0,0,0,0,0,-1,1749,1485,14.0022,-10.8033
532,-461,17.1704,14.077,0,0,0,0,0,0,0,-1,1756,1485,17.1704,-14.077
539,-461,17.0229,14.7386,0,0,0,0,0,0,0,-1,1763,1485,17.0229,-14.7387
546,-461,16.2106,14.1372,0,0,0,0,0,0,0,-1,1770,1485,16.2106,-14.1372
553,-461,21.6696,19.9637,0,0,0,0,0,0,0,-1,1777,1485,21.6696,-19.9637
560,-461,22.2061,19.5107,0,0,0,0,0,0,0,-1,1784,1485,22.2061,-19.5108
567,-461,22.2367,18.9689,0.00677721,0.00475574,-0.00357862,0.00948508,0.00204786,-0.647764,0.00576335,0.0326647,1791,1485,22.2367,-18.9689
574,-461,22.2544,18.5511,0.00546613,0.00396128,-0.00310919,0.00791264,0.00151477,-0.66668,0.00484968,0.027306,1798,1485,22.2544,-18.5512
581,-461,22.2379,18.0428,0.00439508,0.00322803,-0.00266946,0.00654405,0.00107906,-0.677795,0.0040512,0.0170141,1805,1485,22.238,-18.0428
588,-461,22.2117,17.5725,0.00350342,0.00241901,-0.00216708,0.0051951,0.000727331,-0.662815,0.00324821,0.0112204,1812,1485,22.2117,-17.5726
595,-461,22.1874,17.0939,0.00293767,0.00166168,-0.00174083,0.00415374,0.000445619,-0.609754,0.00263322,0.00932485,1819,1485,22.1873,-17.0939
602,-461,22.186,16.6022,0.0025967,0.000900867,-0.00134239,0.00333654,0.000161031,-0.503714,0.00217267,0.00964283,1826,1485,22.1861,-16.6022
609,-461,22.1708,16.1073,0.00244663,0.000206212,-0.00093482,0.00278545,-0.000132605,-0.347715,0.00190271,0.0113844,1833,1485,22.1708,-16.1072
616,-461,22.1616,15.6179,0.00248505,-0.000395583,-0.00058047,0.00259762,-0.000508153,-0.191551,0.00192364,0.0153094,1840,1485,22.1617,-15.6179
623,-461,22.1486,15.1477,0.00281369,-0.00101753,-0.000245821,0.0028294,-0.00103324,-0.0638138,0.00230906,0.0168896,1847,1485,22.1486,-15.1477
630,-461,22.1356,14.6819,0.00338525,-0.00155238,4.4625e-05,0.00338565,-0.00155278,0.00903675,0.00291593,0.0151823,1854,1485,22.1356,-14.6819
637,-461,22.1058,14.1963,0.00426792,-0.00176948,0.000136577,0.00427101,-0.00177257,0.0226064,0.00358727,0.0142413,1861,1485,22.1058,-14.1962
644,-461,22.2125,13.7698,0.00539223,-0.00193572,0.000147572,0.0053952,-0.00193869,0.0201273,0.00438818,0.0300744,1868,1485,22.2126,-13.7698
651,-461,22.3756,13.311,0,0,0,0,0,0,0,-1,1875,1485,22.3756,-13.311
658,-461,16.8987,10.1084,0,0,0,0,0,0,0,-1,1882,1485,16.8986,-10.1084
665,-461,17.2638,9.81384,0,0,0,0,0,0,0,-1,1889,1485,17.2638,-9.81385
672,-461,14.4877,6.89429,0,0,0,0,0,0,0,-1,1896,1485,14.4876,-6.89431
679,-461,10.0535,2.16321,0,0,0,0,0,0,0,-1,1903,1485,10.0535,-2.16317
686,-461,10.8195,1.84192,0,0,0,0,0,0,0,-1,1910,1485,10.8194,-1.84195
693,-461,0,0,0,0,0,0,0,0,0,-1,1917,1485,0,0
700,-461,0,0,0,0,0,0,0,0,0,-1,1924,1485,0,0
707,-461,0,0,0,0,0,0,0,0,0,-1,1931,1485,0,0
714,-461,0,0,0,0,0,0,0,0,0,-1,1938,1485,0,0
721,-461,0,0,0,0,0,0,0,0,0,-1,1945,1485,0,0
728,-461,0,0,0,0,0,0,0,0,0,-1,1952,1485,0,0
735,-461,0,0,0,0,0,0,0,0,0,-1,1959,1485,0,0
742,-461,0,0,0,0,0,0,0,0,0,-1,1966,1485,0,0
749,-461,0,0,0,0,0,0,0,0,0,-1,1973,1485,0,0
756,-461,0,0,0,0,0,0,0,0,0,-1,1980,1485,0,0
763,-461,0,0,0,0,0,0,0,0,0,-1,1987,1485,0,0
770,-461,0,0,0,0,0,0,0,0,0,-1,1994,1485,0,0
777,-461,0,0,0,0,0,0,0,0,0,-1,2001,1485,0,0
784,-461,0,0,0,0,0,0,0,0,0,-1,2008,1485,0,0
791,-461,0,0,0,0,0,0,0,0,0,-1,2015,1485,0,0
798,-461,0,0,0,0,0,0,0,0,0,-1,2022,1485,0,0
805,-461,0,0,0,0,0,0,0,0,0,-1,2029,1485,0,0
812,-461,0,0,0,0,0,0,0,0,0,-1,2036,1485,0,0
-700,-468,0,0,0,0,0,0,0,0,0,-1,524,1492,0,0
-693,-468,0,0,0,0,0,0,0,0,0,-1,531,1492,0,0
-686,-468,0,0,0,0,0,0,0,0,0,-1,538,1492,0,0
-679,-468,0,0,0,0,0,0,0,0,0,-1,545,1492,0,0
-672,-468,0,0,0,0,0,0,0,0,0,-1,552,1492,0,0
-665,-468,0,0,0,0,0,0,0,0,0,-1,559,1492,0,0
-658,-468,0,0,0,0,0,0,0,0,0,-1,566,1492,0,0
-651,-468,0,0,0,0,0,0,0,0,0,-1,573,1492,0,0
-644,-468,0,0,0,0,0,0,0,0,0,-1,580,1492,0,0
-637,-468,0,0,0,0,0,0,0,0,0,-1,587,1492,0,0
-630,-468,0,0,0,0,0,0,0,0,0,-1,594,1492,0,0
-623,-468,0,0,0,0,0,0,0,0,0,-1,601,1492,0,0
-616,-468,0,0,0,0,0,0,0,0,0,-1,608,1492,0,0
-609,-468,0,0,0,0,0,0,0,0,0,-1,615,1492,0,0
-602,-468,0,0,0,0,0,0,0,0,0,-1,622,1492,0,0
-595,-468,0,0,0,0,0,0,0,0,0,-1,629,1492,0,0
-588,-468,0,0,0,0,0,0,0,0,0,-1,636,1492,0,0
-581,-468,0,0,0,0,0,0,0,0,0,-1,643,1492,0,0
-574,-468,0,0,0,0,0,0,0,0,0,-1,650,1492,0,0
-567,-468,-11.2603,1.8042,0,0,0,0,0,0,0,-1,657,1492,-11.2603,-1.80424
-560,-468,-8.77441,2.23694,0,0,0,0,0,0,0,-1,664,1492,-8.77443,-2.23692
-553,-468,-5.94061,9.26318,0,0,0,0,0,0,0,-1,671,1492,-5.94062,-9.26322
-546,-468,-10.47,5.43237,0,0,0,0,0,0,0,-1,678,1492,-10.47,-5.4324
-539,-468,-10.2468,5.45203,0,0,0,0,0,0,0,-1,685,1492,-10.2468,-5.45197
-532,-468,-8.39795,6.02783,0,0,0,0,0,0,0,-1,692,1492,-8.39793,-6.02789
-525,-468,-6.59332,7.15405,0,0,0,0,0,0,0,-1,699,1492,-6.59331,-7.15411
-518,-468,-6.33588,8.65393,0,0,0,0,0,0,0,-1,706,1492,-6.33588,-8.65397
-511,-468,-6.71545,11.8416,0,0,0,0,0,0,0,-1,713,1492,-6.71548,-11.8416
-504,-468,-6.65387,12.392,0.00167683,-0.00349529,-0.000383409,0.0017051,-0.00352356,-0.0735939,0.00307902,0.0397369,720,1492,-6.65384,-12.3919
-497,-468,-6.745,12.9563,0.00113862,-0.00312912,-0.000695341,0.00124906,-0.00323955,-0.157504,0.00267509,0.0180401,727,1492,-6.745,-12.9563
-490,-468,-6.74561,13.5428,0.000946389,-0.0024987,-0.000651931,0.00106563,-0.00261794,-0.180904,0.00218875,0.00806291,734,1492,-6.74562,-13.5429
-483,-468,-6.79675,14.0643,0.00128878,-0.00153888,-0.000157774,0.00129756,-0.00154766,-0.0555669,0.0016448,0.00840751,741,1492,-6.79673,-14.0643
-476,-468,-6.82886,14.5967,0.00202806,-0.000438414,0.000684211,0.00220515,-0.000615502,0.253264,0.00171254,0.00944843,748,1492,-6.82886,-14.5966
-469,-468,-6.82727,15.1201,0.00313119,0.00074694,0.00182034,0.00411502,-0.000236893,0.495495,0.00282563,0.0139668,755,1492,-6.82725,-15.1202
-462,-468,-6.82477,15.6525,0.00458351,0.00201519,0.00318443,0.00673295,-0.000134258,0.593741,0.00453405,0.0239642,762,1492,-6.8248,-15.6525
-455,-468,-6.86084,16.1261,0.00638612,0.003336,0.00477406,0.00987279,-0.00015067,0.630798,0.00663265,0.0248191,769,1492,-6.86081,-16.1261
-448,-468,-6.86383,16.6692,0.00863406,0.00484078,0.00672744,0.0137271,-0.000252266,0.648001,0.00923664,0.0150415,776,1492,-6.86386,-16.6692
-441,-468,-6.89325,17.2006,0.0113085,0.00640951,0.00897637,0.0181636,-0.000445575,0.6522,0.0122603,0.0140255,783,1492,-6.89322,-17.2006
-434,-468,-6.86017,17.8042,0.0150061,0.00788362,0.0116538,0.0236306,-0.000740889,0.63711,0.0160064,0.0215064,790,1492,-6.86015,-17.8042
-427,-468,-6.76276,18.3826,0.0191608,0.00987781,0.0143038,0.0295574,-0.00051872,0.628511,0.0198801,0.0395287,797,1492,-6.76274,-18.3825
-420,-468,-6.31067,18.9733,0,0,0,0,0,0,0,-1,804,1492,-6.3107,-18.9733
-413,-468,-5.30328,17.3519,0,0,0,0,0,0,0,-1,811,1492,-5.30329,-17.352
-406,-468,-2.2356,9.396,0,0,0,0,0,0,0,-1,818,1492,-2.2356,-9.396
-399,-468,-0.940369,8.1936,0,0,0,0,0,0,0,-1,825,1492,-0.940365,-8.19357
-392,-468,-0.35144,8.14673,0,0,0,0,0,0,0,-1,832,1492,-0.351449,-8.14674
-385,-468,0.465759,5.35864,0,0,0,0,0,0,0,-1,839,1492,0.465732,-5.35864
-378,-468,1.99835,3.25391,0,0,0,0,0,0,0,-1,846,1492,1.99837,-3.2539
-371,-468,-0.31842,3.1532,0,0,0,0,0,0,0,-1,853,1492,-0.318441,-3.15324
-364,-468,-0.966736,2.14563,0,0,0,0,0,0,0,-1,860,1492,-0.966735,-2.14557
-357,-468,-3.06787,3.22742,0,0,0,0,0,0,0,-1,867,1492,-3.06784,-3.2274
-350,-468,-3.18658,4.12659,0,0,0,0,0,0,0,-1,874,1492,-3.18659,-4.12658
-343,-468,0,0,0,0,0,0,0,0,0,-1,881,1492,0,0
-336,-468,0,0,0,0,0,0,0,0,0,-1,888,1492,0,0
-329,-468,0,0,0,0,0,0,0,0,0,-1,895,1492,0,0
-322,-468,0,0,0,0,0,0,0,0,0,-1,902,1492,0,0
-315,-468,0,0,0,0,0,0,0,0,0,-1,909,1492,0,0
-308,-468,0,0,0,0,0,0,0,0,0,-1,916,1492,0,0
-301,-468,0,0,0,0,0,0,0,0,0,-1,923,1492,0,0
-294,-468,0,0,0,0,0,0,0,0,0,-1,930,1492,0,0
-287,-468,0,0,0,0,0,0,0,0,0,-1,937,1492,0,0
-280,-468,0,0,0,0,0,0,0,0,0,-1,944,1492,0,0
-273,-468,0,0,0,0,0,0,0,0,0,-1,951,1492,0,0
-266,-468,0,0,0,0,0,0,0,0,0,-1,958,1492,0,0
-259,-468,0,0,0,0,0,0,0,0,0,-1,965,1492,0,0
-252,-468,0,0,0,0,0,0,0,0,0,-1,972,1492,0,0
-245,-468,0,0,0,0,0,0,0,0,0,-1,979,1492,0,0
-238,-468,0,0,0,0,0,0,0,0,0,-1,986,1492,0,0
-231,-468,0,0,0,0,0,0,0,0,0,-1,993,1492,0,0
-224,-468,0,0,0,0,0,0,0,0,0,-1,1000,1492,0,0
-217,-468,0,0,0,0,0,0,0,0,0,-1,1007,1492,0,0
-210,-468,0,0,0,0,0,0,0,0,0,-1,1014,1492,0,0
-203,-468,0,0,0,0,0,0,0,0,0,-1,1021,1492,0,0
-196,-468,0,0,0,0,0,0,0,0,0,-1,1028,1492,0,0
-189,-468,0,0,0,0,0,0,0,0,0,-1,1035,1492,0,0
-182,-468,0,0,0,0,0,0,0,0,0,-1,1042,1492,0,0
-175,-468,0,0,0,0,0,0,0,0,0,-1,1049,1492,0,0
-168,-468,0,0,0,0,0,0,0,0,0,-1,1056,1492,0,0
-161,-468,0,0,0,0,0,0,0,0,0,-1,1063,1492,0,0
-154,-468,0,0,0,0,0,0,0,0,0,-1,1070,1492,0,0
-147,-468,0,0,0,0,0,0,0,0,0,-1,1077,1492,0,0
-140,-468,0,0,0,0,0,0,0,0,0,-1,1084,1492,0,0
-133,-468,0,0,0,0,0,0,0,0,0,-1,1091,1492,0,0
-126,-468,0,0,0,0,0,0,0,0,0,-1,1098,1492,0,0
-119,-468,0,0,0,0,0,0,0,0,0,-1,1105,1492,0,0
-112,-468,0,0,0,0,0,0,0,0,0,-1,1112,1492,0,0
-105,-468,0,0,0,0,0,0,0,0,0,-1,1119,1492,0,0
-98,-468,0,0,0,0,0,0,0,0,0,-1,1126,1492,0,0
-91,-468,0,0,0,0,0,0,0,0,0,-1,1133,1492,0,0
-84,-468,0,0,0,0,0,0,0,0,0,-1,1140,1492,0,0
-77,-468,0,0,0,0,0,0,0,0,0,-1,1147,1492,0,0
-70,-468,0,0,0,0,0,0,0,0,0,-1,1154,1492,0,0
-63,-468,0,0,0,0,0,0,0,0,0,-1,1161,1492,0,0
-56,-468,0,0,0,0,0,0,0,0,0,-1,1168,1492,0,0
-49,-468,0,0,0,0,0,0,0,0,0,-1,1175,1492,0,0
-42,-468,0,0,0,0,0,0,0,0,0,-1,1182,1492,0,0
-35,-468,0,0,0,0,0,0,0,0,0,-1,1189,1492,0,0
-28,-468,0,0,0,0,0,0,0,0,0,-1,1196,1492,0,0
-21,-468,0,0,0,0,0,0,0,0,0,-1,1203,1492,0,0
-14,-468,0,0,0,0,0,0,0,0,0,-1,1210,1492,0,0
-7,-468,0,0,0,0,0,0,0,0,0,-1,1217,1492,0,0
0,-468,0,0,0,0,0,0,0,0,0,-1,1224,1492,0,0
7,-468,0,0,0,0,0,0,0,0,0,-1,1231,1492,0,0
14,-468,0,0,0,0,0,0,0,0,0,-1,1238,1492,0,0
21,-468,0,0,0,0,0,0,0,0,0,-1,1245,1492,0,0
28,-468,0,0,0,0,0,0,0,0,0,-1,1252,1492,0,0
35,-468,0,0,0,0,0,0,0,0,0,-1,1259,1492,0,0
42,-468,0,0,0,0,0,0,0,0,0,-1,1266,1492,0,0
49,-468,0,0,0,0,0,0,0,0,0,-1,1273,1492,0,0
56,-468,0,0,0,0,0,0,0,0,0,-1,1280,1492,0,0
63,-468,0,0,0,0,0,0,0,0,0,-1,1287,1492,0,0
70,-468,0,0,0,0,0,0,0,0,0,-1,1294,1492,0,0
77,-468,0,0,0,0,0,0,0,0,0,-1,1301,1492,0,0
84,-468,0,0,0,0,0,0,0,0,0,-1,1308,1492,0,0
91,-468,0,0,0,0,0,0,0,0,0,-1,1315,1492,0,0
98,-468,0,0,0,0,0,0,0,0,0,-1,1322,1492,0,0
105,-468,0,0,0,0,0,0,0,0,0,-1,1329,1492,0,0
112,-468,0,0,0,0,0,0,0,0,0,-1,1336,1492,0,0
119,-468,0,0,0,0,0,0,0,0,0,-1,1343,1492,0,0
126,-468,0,0,0,0,0,0,0,0,0,-1,1350,1492,0,0
133,-468,0,0,0,0,0,0,0,0,0,-1,1357,1492,0,0
140,-468,0,0,0,0,0,0,0,0,0,-1,1364,1492,0,0
147,-468,0,0,0,0,0,0,0,0,0,-1,1371,1492,0,0
154,-468,0,0,0,0,0,0,0,0,0,-1,1378,1492,0,0
161,-468,0,0,0,0,0,0,0,0,0,-1,1385,1492,0,0
168,-468,0,0,0,0,0,0,0,0,0,-1,1392,1492,0,0
175,-468,0,0,0,0,0,0,0,0,0,-1,1399,1492,0,0
182,-468,0,0,0,0,0,0,0,0,0,-1,1406,1492,0,0
189,-468,0,0,0,0,0,0,0,0,0,-1,1413,1492,0,0
196,-468,0,0,0,0,0,0,0,0,0,-1,1420,1492,0,0
203,-468,0,0,0,0,0,0,0,0,0,-1,1427,1492,0,0
210,-468,0,0,0,0,0,0,0,0,0,-1,1434,1492,0,0
217,-468,0,0,0,0,0,0,0,0,0,-1,1441,1492,0,0
224,-468,0,0,0,0,0,0,0,0,0,-1,1448,1492,0,0
231,-468,0,0,0,0,0,0,0,0,0,-1,1455,1492,0,0
238,-468,0,0,0,0,0,0,0,0,0,-1,1462,1492,0,0
245,-468,0,0,0,0,0,0,0,0,0,-1,1469,1492,0,0
252,-468,0,0,0,0,0,0,0,0,0,-1,1476,1492,0,0
259,-468,0,0,0,0,0,0,0,0,0,-1,1483,1492,0,0
266,-468,0,0,0,0,0,0,0,0,0,-1,1490,1492,0,0
273,-468,0,0,0,0,0,0,0,0,0,-1,1497,1492,0,0
280,-468,0,0,0,0,0,0,0,0,0,-1,1504,1492,0,0
287,-468,0,0,0,0,0,0,0,0,0,-1,1511,1492,0,0
294,-468,0,0,0,0,0,0,0,0,0,-1,1518,1492,0,0
301,-468,0,0,0,0,0,0,0,0,0,-1,1525,1492,0,0
308,-468,0,0,0,0,0,0,0,0,0,-1,1532,1492,0,0
315,-468,0,0,0,0,0,0,0,0,0,-1,1539,1492,0,0
322,-468,0,0,0,0,0,0,0,0,0,-1,1546,1492,0,0
329,-468,0,0,0,0,0,0,0,0,0,-1,1553,1492,0,0
336,-468,0,0,0,0,0,0,0,0,0,-1,1560,1492,0,0
343,-468,0,0,0,0,0,0,0,0,0,-1,1567,1492,0,0
350,-468,0,0,0,0,0,0,0,0,0,-1,1574,1492,0,0
357,-468,0,0,0,0,0,0,0,0,0,-1,1581,1492,0,0
364,-468,0,0,0,0,0,0,0,0,0,-1,1588,1492,0,0
371,-468,0,0,0,0,0,0,0,0,0,-1,1595,1492,0,0
378,-468,0,0,0,0,0,0,0,0,0,-1,1602,1492,0,0
385,-468,0,0,0,0,0,0,0,0,0,-1,1609,1492,0,0
392,-468,0,0,0,0,0,0,0,0,0,-1,1616,1492,0,0
399,-468,0,0,0,0,0,0,0,0,0,-1,1623,1492,0,0
406,-468,0,0,0,0,0,0,0,0,0,-1,1630,1492,0,0
413,-468,0,0,0,0,0,0,0,0,0,-1,1637,1492,0,0
420,-468,0,0,0,0,0,0,0,0,0,-1,1644,1492,0,0
427,-468,0,0,0,0,0,0,0,0,0,-1,1651,1492,0,0
434,-468,0,0,0,0,0,0,0,0,0,-1,1658,1492,0,0
441,-468,0,0,0,0,0,0,0,0,0,-1,1665,1492,0,0
448,-468,0,0,0,0,0,0,0,0,0,-1,1672,1492,0,0
455,-468,0,0,0,0,0,0,0,0,0,-1,1679,1492,0,0
462,-468,0,0,0,0,0,0,0,0,0,-1,1686,1492,0,0
469,-468,15.6879,1.2677,0,0,0,0,0,0,0,-1,1693,1492,15.6879,-1.26772
476,-468,14.9318,1.61865,0,0,0,0,0,0,0,-1,1700,1492,14.9318,-1.61869
483,-468,11.265,4.64795,0,0,0,0,0,0,0,-1,1707,1492,11.265,-4.64798
490,-468,12.1316,3.51624,0,0,0,0,0,0,0,-1,1714,1492,12.1316,-3.51628
497,-468,16.5355,3.14587,0,0,0,0,0,0,0,-1,1721,1492,16.5356,-3.14583
504,-468,15.0642,4.10437,0,0,0,0,0,0,0,-1,1728,1492,15.0643,-4.10431
511,-468,15.6877,9.4801,0,0,0,0,0,0,0,-1,1735,1492,15.6878,-9.48007
518,-468,13.759,11.0887,0,0,0,0,0,0,0,-1,1742,1492,13.759,-11.0887
525,-468,16.6531,14.2238,0,0,0,0,0,0,0,-1,1749,1492,16.653,-14.2237
532,-468,16.9696,15.9641,0,0,0,0,0,0,0,-1,1756,1492,16.9696,-15.9641
539,-468,21.5308,20.7551,0,0,0,0,0,0,0,-1,1763,1492,21.5308,-20.7551
546,-468,21.4399,20.5667,0,0,0,0,0,0,0,-1,1770,1492,21.4399,-20.5667
553,-468,21.7067,19.9554,0,0,0,0,0,0,0,-1,1777,1492,21.7066,-19.9554
560,-468,21.7283,19.5078,0.00769945,0.00463593,-0.00369306,0.0101658,0.00216957,-0.588813,0.00618224,0.0389693,1784,1492,21.7283,-19.5078
567,-468,21.7173,19.0657,0.00605375,0.00386307,-0.00296679,0.00812094,0.00179588,-0.60856,0.0049257,0.021753,1791,1492,21.7172,-19.0657
574,-468,21.7672,18.5439,0.00481394,0.00312194,-0.0025075,0.00661431,0.00132157,-0.6227,0.00404169,0.016119,1798,1492,21.7673,-18.5439
581,-468,21.7626,18.0719,0.00380769,0.00244201,-0.00209675,0.00532998,0.000919713,-0.62798,0.00328989,0.0153995,1805,1492,21.7626,-18.0719
588,-468,21.7249,17.6031,0.00304316,0.00172418,-0.00167652,0.00418524,0.000582099,-0.598009,0.00261779,0.0120193,1812,1492,21.7248,-17.6032
595,-468,21.7072,17.1121,0.00263788,0.0010291,-0.00133116,0.00338882,0.000278166,-0.513619,0.00217243,0.0105908,1819,1492,21.7071,-17.1121
602,-468,21.7034,16.6105,0.00241303,0.00034529,-0.00102006,0.00283154,-7.32187e-05,-0.389337,0.00191256,0.00936389,1826,1492,21.7034,-16.6104
609,-468,21.6833,16.1139,0.00238244,-0.000299928,-0.000687654,0.00254845,-0.000465941,-0.236887,0.00187369,0.00969167,1833,1492,21.6833,-16.1139
616,-468,21.6635,15.6229,0.00256467,-0.000906502,-0.000374489,0.00260462,-0.000946444,-0.106256,0.0021234,0.0102342,1840,1492,21.6634,-15.6229
623,-468,21.6486,15.1511,0.00304642,-0.0015721,-4.66755e-05,0.00304689,-0.00157257,-0.0101048,0.00271195,0.011361,1847,1492,21.6485,-15.1511
630,-468,21.6404,14.6661,0.00377015,-0.00214744,0.000265777,0.00378206,-0.00215935,0.0447928,0.00347266,0.0114602,1854,1492,21.6404,-14.6661
637,-468,21.6377,14.1761,0.00487601,-0.00239105,0.000367206,0.00489451,-0.00240956,0.0503593,0.00429759,0.014013,1861,1492,21.6377,-14.1761
644,-468,21.7272,13.8467,0.00625192,-0.00270698,0.00047109,0.00627662,-0.00273168,0.0523909,0.00533349,0.0391128,1868,1492,21.7272,-13.8467
651,-468,21.9517,13.4896,0,0,0,0,0,0,0,-1,1875,1492,21.9517,-13.4896
658,-468,16.4969,10.0774,0,0,0,0,0,0,0,-1,1882,1492,16.497,-10.0774
665,-468,15.4673,8.59546,0,0,0,0,0,0,0,-1,1889,1492,15.4672,-8.59548
672,-468,9.96814,3.61133,0,0,0,0,0,0,0,-1,1896,1492,9.96817,-3.61139
679,-468,11.2191,1.91968,0,0,0,0,0,0,0,-1,1903,1492,11.2191,-1.91965
686,-468,11.9252,1.42285,0,0,0,0,0,0,0,-1,1910,1492,11.9252,-1.42291
693,-468,0,0,0,0,0,0,0,0,0,-1,1917,1492,0,0
700,-468,0,0,0,0,0,0,0,0,0,-1,1924,1492,0,0
707,-468,0,0,0,0,0,0,0,0,0,-1,1931,1492,0,0
714,-468,0,0,0,0,0,0,0,0,0,-1,1938,1492,0,0
721,-468,0,0,0,0,0,0,0,0,0,-1,1945,1492,0,0
728,-468,0,0,0,0,0,0,0,0,0,-1,1952,1492,0,0
735,-468,0,0,0,0,0,0,0,0,0,-1,1959,1492,0,0
742,-468,0,0,0,0,0,0,0,0,0,-1,1966,1492,0,0
749,-468,0,0,0,0,0,0,0,0,0,-1,1973,1492,0,0
756,-468,0,0,0,0,0,0,0,0,0,-1,1980,1492,0,0
763,-468,0,0,0,0,0,0,0,0,0,-1,1987,1492,0,0
770,-468,0,0,0,0,0,0,0,0,0,-1,1994,1492,0,0
777,-468,0,0,0,0,0,0,0,0,0,-1,2001,1492,0,0
784,-468,0,0,0,0,0,0,0,0,0,-1,2008,1492,0,0
791,-468,0,0,0,0,0,0,0,0,0,-1,2015,1492,0,0
798,-468,0,0,0,0,0,0,0,0,0,-1,2022,1492,0,0
805,-468,0,0,0,0,0,0,0,0,0,-1,2029,1492,0,0
812,-468,0,0,0,0,0,0,0,0,0,-1,2036,1492,0,0
-700,-475,0,0,0,0,0,0,0,0,0,-1,524,1499,0,0
-693,-475,0,0,0,0,0,0,0,0,0,-1,531,1499,0,0
-686,-475,0,0,0,0,0,0,0,0,0,-1,538,1499,0,0
-679,-475,0,0,0,0,0,0,0,0,0,-1,545,1499,0,0
-672,-475,0,0,0,0,0,0,0,0,0,-1,552,1499,0,0
-665,-475,0,0,0,0,0,0,0,0,0,-1,559,1499,0,0
-658,-475,0,0,0,0,0,0,0,0,0,-1,566,1499,0,0
-651,-475,0,0,0,0,0,0,0,0,0,-1,573,1499,0,0
-644,-475,0,0,0,0,0,0,0,0,0,-1,580,1499,0,0
-637,-475,0,0,0,0,0,0,0,0,0,-1,587,1499,0,0
-630,-475,0,0,0,0,0,0,0,0,0,-1,594,1499,0,0
-623,-475,0,0,0,0,0,0,0,0,0,-1,601,1499,0,0
-616,-475,0,0,0,0,0,0,0,0,0,-1,608,1499,0,0
-609,-475,0,0,0,0,0,0,0,0,0,-1,615,1499,0,0
-602,-475,0,0,0,0,0,0,0,0,0,-1,622,1499,0,0
-595,-475,0,0,0,0,0,0,0,0,0,-1,629,1499,0,0
-588,-475,0,0,0,0,0,0,0,0,0,-1,636,1499,0,0
-581,-475,0,0,0,0,0,0,0,0,0,-1,643,1499,0,0
-574,-475,0,0,0,0,0,0,0,0,0,-1,650,1499,0,0
-567,-475,0,0,0,0,0,0,0,0,0,-1,657,1499,0,0
-560,-475,-9.42731,9.29517,0,0,0,0,0,0,0,-1,664,1499,-9.42731,-9.29519
-553,-475,-8.15131,8.78369,0,0,0,0,0,0,0,-1,671,1499,-8.15131,-8.78367
-546,-475,-8.41254,8.20654,0,0,0,0,0,0,0,-1,678,1499,-8.41251,-8.20655
-539,-475,-4.7345,4.17419,0,0,0,0,0,0,0,-1,685,1499,-4.73449,-4.17418
-532,-475,-7.07379,4.25024,0,0,0,0,0,0,0,-1,692,1499,-7.07378,-4.2503
-525,-475,-6.13147,5.82166,0,0,0,0,0,0,0,-1,699,1499,-6.1315,-5.8216
-518,-475,-7.28784,9.31506,0,0,0,0,0,0,0,-1,706,1499,-7.28782,-9.315
-511,-475,-6.45123,11.7008,0,0,0,0,0,0,0,-1,713,1499,-6.4512,-11.7008
-504,-475,-6.19482,12.5571,0.00401595,-0.0053596,-0.00055785,0.00404903,-0.00539268,-0.059222,0.00546954,0.0458382,720,1499,-6.19484,-12.5572
-497,-475,-6.22736,13.0815,0.00254875,-0.00498603,-0.00113134,0.00271495,-0.00515223,-0.145865,0.00461421,0.0338584,727,1499,-6.22733,-13.0815
-490,-475,-6.24054,13.5319,0.00165903,-0.00433979,-0.0012689,0.0019164,-0.00459716,-0.200109,0.00386531,0.0116268,734,1499,-6.24053,-13.5318
-483,-475,-6.25757,14.1011,0.00143017,-0.00331425,-0.000935709,0.00160804,-0.00349212,-0.187855,0.00301081,0.00855717,741,1499,-6.25758,-14.1011
-476,-475,-6.28467,14.6254,0.00173755,-0.00213092,-0.00020178,0.00174805,-0.00214141,-0.0519722,0.00224941,0.0100772,748,1499,-6.2847,-14.6253
-469,-475,-6.30829,15.1281,0.00245789,-0.000857309,0.00080614,0.00264352,-0.00104294,0.226326,0.00219423,0.0125411,755,1499,-6.3083,-15.1281
-462,-475,-6.27533,15.6437,0.00351956,0.000479257,0.00200577,0.00451614,-0.000517332,0.461133,0.00319719,0.017785,762,1499,-6.27535,-15.6437
-455,-475,-6.29608,16.1537,0.004888,0.00184599,0.00337291,0.00706699,-0.000333004,0.573578,0.00482616,0.0165943,769,1499,-6.29611,-16.1537
-448,-475,-6.35217,16.6903,0.00664314,0.00337445,0.00500292,0.0102719,-0.000254308,0.627524,0.00693426,0.014185,776,1499,-6.35215,-16.6903
-441,-475,-6.37122,17.218,0.00875713,0.00499266,0.00690433,0.0140312,-0.0002814,0.652324,0.00944932,0.0182492,783,1499,-6.3712,-17.2181
-434,-475,-6.38696,17.7271,0.0116566,0.00660899,0.00912195,0.0185974,-0.000331858,0.650438,0.0125104,0.0120015,790,1499,-6.38697,-17.7271
-427,-475,-6.32526,18.3594,0.0149176,0.00877488,0.01133,0.0235852,0.000107286,0.653039,0.0156878,0.0277509,797,1499,-6.32523,-18.3594
-420,-475,-6.1994,18.9468,0.0181424,0.0109746,0.0143714,0.02937,-0.000252994,0.663202,0.0196649,0.0478132,804,1499,-6.19938,-18.9468
-413,-475,-5.91101,19.6414,0,0,0,0,0,0,0,-1,811,1499,-5.91102,-19.6414
-406,-475,-2.56116,12.4956,0,0,0,0,0,0,0,-1,818,1499,-2.56116,-12.4956
-399,-475,-1.39667,6.1615,0,0,0,0,0,0,0,-1,825,1499,-1.39664,-6.16155
-392,-475,0.217163,8.61389,0,0,0,0,0,0,0,-1,832,1499,0.217167,-8.6139
-385,-475,1.18372,2.73999,0,0,0,0,0,0,0,-1,839,1499,1.18372,-2.73995
-378,-475,1.31409,2.90149,0,0,0,0,0,0,0,-1,846,1499,1.31411,-2.90151
-371,-475,2.3476,3.31116,0,0,0,0,0,0,0,-1,853,1499,2.34761,-3.31121
-364,-475,1.04462,9.05823,0,0,0,0,0,0,0,-1,860,1499,1.04461,-9.05825
-357,-475,-0.262756,7.97205,0,0,0,0,0,0,0,-1,867,1499,-0.262784,-7.97205
-350,-475,-2.77173,4.35486,0,0,0,0,0,0,0,-1,874,1499,-2.77175,-4.35491
-343,-475,-6.81641,-1.95203,0,0,0,0,0,0,0,-1,881,1499,-6.81643,1.95198
-336,-475,0,0,0,0,0,0,0,0,0,-1,888,1499,0,0
-329,-475,0,0,0,0,0,0,0,0,0,-1,895,1499,0,0
-322,-475,0,0,0,0,0,0,0,0,0,-1,902,1499,0,0
-315,-475,0,0,0,0,0,0,0,0,0,-1,909,1499,0,0
-308,-475,0,0,0,0,0,0,0,0,0,-1,916,1499,0,0
-301,-475,0,0,0,0,0,0,0,0,0,-1,923,1499,0,0
-294,-475,0,0,0,0,0,0,0,0,0,-1,930,1499,0,0
-287,-475,0,0,0,0,0,0,0,0,0,-1,937,1499,0,0
-280,-475,0,0,0,0,0,0,0,0,0,-1,944,1499,0,0
-273,-475,0,0,0,0,0,0,0,0,0,-1,951,1499,0,0
-266,-475,0,0,0,0,0,0,0,0,0,-1,958,1499,0,0
-259,-475,0,0,0,0,0,0,0,0,0,-1,965,1499,0,0
-252,-475,0,0,0,0,0,0,0,0,0,-1,972,1499,0,0
-245,-475,0,0,0,0,0,0,0,0,0,-1,979,1499,0,0
-238,-475,0,0,0,0,0,0,0,0,0,-1,986,1499,0,0
-231,-475,0,0,0,0,0,0,0,0,0,-1,993,1499,0,0
-224,-475,0,0,0,0,0,0,0,0,0,-1,1000,1499,0,0
-217,-475,0,0,0,0,0,0,0,0,0,-1,1007,1499,0,0
-210,-475,0,0,0,0,0,0,0,0,0,-1,1014,1499,0,0
-203,-475,0,0,0,0,0,0,0,0,0,-1,1021,1499,0,0
-196,-475,0,0,0,0,0,0,0,0,0,-1,1028,1499,0,0
-189,-475,0,0,0,0,0,0,0,0,0,-1,1035,1499,0,0
-182,-475,0,0,0,0,0,0,0,0,0,-1,1042,1499,0,0
-175,-475,0,0,0,0,0,0,0,0,0,-1,1049,1499,0,0
-168,-475,0,0,0,0,0,0,0,0,0,-1,1056,1499,0,0
-161,-475,0,0,0,0,0,0,0,0,0,-1,1063,1499,0,0
-154,-475,0,0,0,0,0,0,0,0,0,-1,1070,1499,0,0
-147,-475,0,0,0,0,0,0,0,0,0,-1,1077,1499,0,0
-140,-475,0,0,0,0,0,0,0,0,0,-1,1084,1499,0,0
-133,-475,0,0,0,0,0,0,0,0,0,-1,1091,1499,0,0
-126,-475,0,0,0,0,0,0,0,0,0,-1,1098,1499,0,0
-119,-475,0,0,0,0,0,0,0,0,0,-1,1105,1499,0,0
-112,-475,0,0,0,0,0,0,0,0,0,-1,1112,1499,0,0
-105,-475,0,0,0,0,0,0,0,0,0,-1,1119,1499,0,0
-98,-475,0,0,0,0,0,0,0,0,0,-1,1126,1499,0,0
-91,-475,0,0,0,0,0,0,0,0,0,-1,1133,1499,0,0
-84,-475,0,0,0,0,0,0,0,0,0,-1,1140,1499,0,0
-77,-475,0,0,0,0,0,0,0,0,0,-1,1147,1499,0,0
-70,-475,0,0,0,0,0,0,0,0,0,-1,1154,1499,0,0
-63,-475,0,0,0,0,0,0,0,0,0,-1,1161,1499,0,0
-56,-475,0,0,0,0,0,0,0,0,0,-1,1168,1499,0,0
-49,-475,0,0,0,0,0,0,0,0,0,-1,1175,1499,0,0
-42,-475,0,0,0,0,0,0,0,0,0,-1,1182,1499,0,0
-35,-475,0,0,0,0,0,0,0,0,0,-1,1189,1499,0,0
-28,-475,0,0,0,0,0,0,0,0,0,-1,1196,1499,0,0
-21,-475,0,0,0,0,0,0,0,0,0,-1,1203,1499,0,0
-14,-475,0,0,0,0,0,0,0,0,0,-1,1210,1499,0,0
-7,-475,0,0,0,0,0,0,0,0,0,-1,1217,1499,0,0
0,-475,0,0,0,0,0,0,0,0,0,-1,1224,1499,0,0
7,-475,0,0,0,0,0,0,0,0,0,-1,1231,1499,0,0
14,-475,0,0,0,0,0,0,0,0,0,-1,1238,1499,0,0
21,-475,0,0,0,0,0,0,0,0,0,-1,1245,1499,0,0
28,-475,0,0,0,0,0,0,0,0,0,-1,1252,1499,0,0
35,-475,0,0,0,0,0,0,0,0,0,-1,1259,1499,0,0
42,-475,0,0,0,0,0,0,0,0,0,-1,1266,1499,0,0
49,-475,0,0,0,0,0,0,0,0,0,-1,1273,1499,0,0
56,-475,0,0,0,0,0,0,0,0,0,-1,1280,1499,0,0
63,-475,0,0,0,0,0,0,0,0,0,-1,1287,1499,0,0
70,-475,0,0,0,0,0,0,0,0,0,-1,1294,1499,0,0
77,-475,0,0,0,0,0,0,0,0,0,-1,1301,1499,0,0
84,-475,0,0,0,0,0,0,0,0,0,-1,1308,1499,0,0
91,-475,0,0,0,0,0,0,0,0,0,-1,1315,1499,0,0
98,-475,0,0,0,0,0,0,0,0,0,-1,1322,1499,0,0
105,-475,0,0,0,0,0,0,0,0,0,-1,1329,1499,0,0
112,-475,0,0,0,0,0,0,0,0,0,-1,1336,1499,0,0
119,-475,0,0,0,0,0,0,0,0,0,-1,1343,1499,0,0
126,-475,0,0,0,0,0,0,0,0,0,-1,1350,1499,0,0
133,-475,0,0,0,0,0,0,0,0,0,-1,1357,1499,0,0
140,-475,0,0,0,0,0,0,0,0,0,-1,1364,1499,0,0
147,-475,0,0,0,0,0,0,0,0,0,-1,1371,1499,0,0
154,-475,0,0,0,0,0,0,0,0,0,-1,1378,1499,0,0
161,-475,0,0,0,0,0,0,0,0,0,-1,1385,1499,0,0
168,-475,0,0,0,0,0,0,0,0,0,-1,1392,1499,0,0
175,-475,0,0,0,0,0,0,0,0,0,-1,1399,1499,0,0
182,-475,0,0,0,0,0,0,0,0,0,-1,1406,1499,0,0
189,-475,0,0,0,0,0,0,0,0,0,-1,1413,1499,0,0
196,-475,0,0,0,0,0,0,0,0,0,-1,1420,1499,0,0
203,-475,0,0,0,0,0,0,0,0,0,-1,1427,1499,0,0
210,-475,0,0,0,0,0,0,0,0,0,-1,1434,1499,0,0
217,-475,0,0,0,0,0,0,0,0,0,-1,1441,1499,0,0
224,-475,0,0,0,0,0,0,0,0,0,-1,1448,1499,0,0
231,-475,0,0,0,0,0,0,0,0,0,-1,1455,1499,0,0
238,-475,0,0,0,0,0,0,0,0,0,-1,1462,1499,0,0
245,-475,0,0,0,0,0,0,0,0,0,-1,1469,1499,0,0
252,-475,0,0,0,0,0,0,0,0,0,-1,1476,1499,0,0
259,-475,0,0,0,0,0,0,0,0,0,-1,1483,1499,0,0
266,-475,0,0,0,0,0,0,0,0,0,-1,1490,1499,0,0
273,-475,0,0,0,0,0,0,0,0,0,-1,1497,1499,0,0
280,-475,0,0,0,0,0,0,0,0,0,-1,1504,1499,0,0
287,-475,0,0,0,0,0,0,0,0,0,-1,1511,1499,0,0
294,-475,0,0,0,0,0,0,0,0,0,-1,1518,1499,0,0
301,-475,0,0,0,0,0,0,0,0,0,-1,1525,1499,0,0
308,-475,0,0,0,0,0,0,0,0,0,-1,1532,1499,0,0
315,-475,0,0,0,0,0,0,0,0,0,-1,1539,1499,0,0
322,-475,0,0,0,0,0,0,0,0,0,-1,1546,1499,0,0
329,-475,0,0,0,0,0,0,0,0,0,-1,1553,1499,0,0
336,-475,0,0,0,0,0,0,0,0,0,-1,1560,1499,0,0
343,-475,0,0,0,0,0,0,0,0,0,-1,1567,1499,0,0
350,-475,0,0,0,0,0,0,0,0,0,-1,1574,1499,0,0
357,-475,0,0,0,0,0,0,0,0,0,-1,1581,1499,0,0
364,-475,0,0,0,0,0,0,0,0,0,-1,1588,1499,0,0
371,-475,0,0,0,0,0,0,0,0,0,-1,1595,1499,0,0
378,-475,0,0,0,0,0,0,0,0,0,-1,1602,1499,0,0
385,-475,0,0,0,0,0,0,0,0,0,-1,1609,1499,0,0
392,-475,0,0,0,0,0,0,0,0,0,-1,1616,1499,0,0
399,-475,0,0,0,0,0,0,0,0,0,-1,1623,1499,0,0
406,-475,0,0,0,0,0,0,0,0,0,-1,1630,1499,0,0
413,-475,0,0,0,0,0,0,0,0,0,-1,1637,1499,0,0
420,-475,0,0,0,0,0,0,0,0,0,-1,1644,1499,0,0
427,-475,0,0,0,0,0,0,0,0,0,-1,1651,1499,0,0
434,-475,0,0,0,0,0,0,0,0,0,-1,1658,1499,0,0
441,-475,0,0,0,0,0,0,0,0,0,-1,1665,1499,0,0
448,-475,0,0,0,0,0,0,0,0,0,-1,1672,1499,0,0
455,-475,0,0,0,0,0,0,0,0,0,-1,1679,1499,0,0
462,-475,12.6372,0.275391,0,0,0,0,0,0,0,-1,1686,1499,12.6372,-0.27536
469,-475,15.6437,2.28296,0,0,0,0,0,0,0,-1,1693,1499,15.6437,-2.28293
476,-475,15.3302,2.71436,0,0,0,0,0,0,0,-1,1700,1499,15.3303,-2.7143
483,-475,10.7461,5.91479,0,0,0,0,0,0,0,-1,1707,1499,10.7461,-5.91476
490,-475,11.9305,4.4364,0,0,0,0,0,0,0,-1,1714,1499,11.9305,-4.43644
497,-475,15.3451,4.3479,0,0,0,0,0,0,0,-1,1721,1499,15.3451,-4.34789
504,-475,16.9646,7.71265,0,0,0,0,0,0,0,-1,1728,1499,16.9646,-7.71265
511,-475,18.941,12.7572,0,0,0,0,0,0,0,-1,1735,1499,18.941,-12.7572
518,-475,17.0021,13.8564,0,0,0,0,0,0,0,-1,1742,1499,17.0021,-13.8564
525,-475,17.5637,15.2103,0,0,0,0,0,0,0,-1,1749,1499,17.5637,-15.2103
532,-475,20.8623,20.8413,0,0,0,0,0,0,0,-1,1756,1499,20.8623,-20.8413
539,-475,20.5494,20.8519,0,0,0,0,0,0,0,-1,1763,1499,20.5494,-20.852
546,-475,20.4524,19.8799,0,0,0,0,0,0,0,-1,1770,1499,20.4524,-19.8798
553,-475,21.0222,20.2045,0,0,0,0,0,0,0,-1,1777,1499,21.0223,-20.2044
560,-475,21.1294,19.6427,0.00666996,0.0039053,-0.00320996,0.00878258,0.00179268,-0.58208,0.0053584,0.0271107,1784,1499,21.1294,-19.6427
567,-475,21.2906,19.0394,0.00527009,0.00315525,-0.00253299,0.00695751,0.00146783,-0.587665,0.00423473,0.0159069,1791,1499,21.2907,-19.0394
574,-475,21.2679,18.5494,0.00421462,0.00247138,-0.00210596,0.00562221,0.00106379,-0.58919,0.00344867,0.0150085,1798,1499,21.268,-18.5494
581,-475,21.2534,18.0963,0.00335885,0.00183438,-0.001733,0.00448983,0.000703392,-0.578213,0.00278849,0.0117521,1805,1499,21.2534,-18.0964
588,-475,21.2271,17.6196,0.00274855,0.00119193,-0.00138757,0.00356119,0.000379293,-0.529805,0.00225834,0.00989851,1812,1499,21.2271,-17.6197
595,-475,21.2227,17.1296,0.00249506,0.000544112,-0.00111267,0.00299931,3.98583e-05,-0.425504,0.00198639,0.0111561,1819,1499,21.2227,-17.1297
602,-475,21.2202,16.6257,0.00238196,-8.59245e-05,-0.000877788,0.00266233,-0.000366288,-0.309157,0.00190873,0.0121503,1826,1499,21.2202,-16.6257
609,-475,21.2054,16.131,0.0024543,-0.000704145,-0.000608144,0.00256735,-0.000817194,-0.183794,0.00203929,0.011241,1833,1499,21.2055,-16.1309
616,-475,21.1785,15.6479,0.00276891,-0.00135946,-0.000314215,0.00279269,-0.00138323,-0.0755314,0.00245632,0.0111382,1840,1499,21.1785,-15.6479
623,-475,21.1687,15.1489,0.00337612,-0.00213142,3.66176e-05,0.00337636,-0.00213166,0.00664824,0.00320701,0.0111408,1847,1499,21.1687,-15.149
630,-475,21.1681,14.6746,0.00420436,-0.0028078,0.000401285,0.00422725,-0.00283069,0.0569791,0.00410141,0.0128899,1854,1499,21.1681,-14.6746
637,-475,21.2078,14.1862,0.0054667,-0.0031785,0.000573695,0.00550461,-0.00321641,0.0659744,0.00509252,0.0242871,1861,1499,21.2077,-14.1862
644,-475,21.2399,13.7273,0,0,0,0,0,0,0,-1,1868,1499,21.2399,-13.7274
651,-475,11.7965,7.57593,0,0,0,0,0,0,0,-1,1875,1499,11.7965,-7.5759
658,-475,14.6708,8.80322,0,0,0,0,0,0,0,-1,1882,1499,14.6708,-8.8032
665,-475,9.33435,5.43335,0,0,0,0,0,0,0,-1,1889,1499,9.33439,-5.43332
672,-475,9.38635,1.10474,0,0,0,0,0,0,0,-1,1896,1499,9.38629,-1.10475
679,-475,12.2594,1.31079,0,0,0,0,0,0,0,-1,1903,1499,12.2594,-1.31077
686,-475,0,0,0,0,0,0,0,0,0,-1,1910,1499,0,0
693,-475,0,0,0,0,0,0,0,0,0,-1,1917,1499,0,0
700,-475,0,0,0,0,0,0,0,0,0,-1,1924,1499,0,0
707,-475,0,0,0,0,0,0,0,0,0,-1,1931,1499,0,0
714,-475,0,0,0,0,0,0,0,0,0,-1,1938,1499,0,0
721,-475,0,0,0,0,0,0,0,0,0,-1,1945,1499,0,0
728,-475,0,0,0,0,0,0,0,0,0,-1,1952,1499,0,0
735,-475,0,0,0,0,0,0,0,0,0,-1,1959,1499,0,0
742,-475,0,0,0,0,0,0,0,0,0,-1,1966,1499,0,0
749,-475,0,0,0,0,0,0,0,0,0,-1,1973,1499,0,0
756,-475,0,0,0,0,0,0,0,0,0,-1,1980,1499,0,0
763,-475,0,0,0,0,0,0,0,0,0,-1,1987,1499,0,0
770,-475,0,0,0,0,0,0,0,0,0,-1,1994,1499,0,0
777,-475,0,0,0,0,0,0,0,0,0,-1,2001,1499,0,0
784,-475,0,0,0,0,0,0,0,0,0,-1,2008,1499,0,0
791,-475,0,0,0,0,0,0,0,0,0,-1,2015,1499,0,0
798,-475,0,0,0,0,0,0,0,0,0,-1,2022,1499,0,0
805,-475,0,0,0,0,0,0,0,0,0,-1,2029,1499,0,0
812,-475,0,0,0,0,0,0,0,0,0,-1,2036,1499,0,0
-700,-482,0,0,0,0,0,0,0,0,0,-1,524,1506,0,0
-693,-482,0,0,0,0,0,0,0,0,0,-1,531,1506,0,0
-686,-482,0,0,0,0,0,0,0,0,0,-1,538,1506,0,0
-679,-482,0,0,0,0,0,0,0,0,0,-1,545,1506,0,0
-672,-482,0,0,0,0,0,0,0,0,0,-1,552,1506,0,0
-665,-482,0,0,0,0,0,0,0,0,0,-1,559,1506,0,0
-658,-482,0,0,0,0,0,0,0,0,0,-1,566,1506,0,0
-651,-482,0,0,0,0,0,0,0,0,0,-1,573,1506,0,0
-644,-482,0,0,0,0,0,0,0,0,0,-1,580,1506,0,0
-637,-482,0,0,0,0,0,0,0,0,0,-1,587,1506,0,0
-630,-482,0,0,0,0,0,0,0,0,0,-1,594,1506,0,0
-623,-482,0,0,0,0,0,0,0,0,0,-1,601,1506,0,0
-616,-482,0,0,0,0,0,0,0,0,0,-1,608,1506,0,0
-609,-482,0,0,0,0,0,0,0,0,0,-1,615,1506,0,0
-602,-482,0,0,0,0,0,0,0,0,0,-1,622,1506,0,0
-595,-482,0,0,0,0,0,0,0,0,0,-1,629,1506,0,0
-588,-482,0,0,0,0,0,0,0,0,0,-1,636,1506,0,0
-581,-482,0,0,0,0,0,0,0,0,0,-1,643,1506,0,0
-574,-482,0,0,0,0,0,0,0,0,0,-1,650,1506,0,0
-567,-482,0,0,0,0,0,0,0,0,0,-1,657,1506,0,0
-560,-482,0,0,0,0,0,0,0,0,0,-1,664,1506,0,0
-553,-482,-9.06055,9.34314,0,0,0,0,0,0,0,-1,671,1506,-9.06056,-9.34312
-546,-482,-4.08624,8.34241,0,0,0,0,0,0,0,-1,678,1506,-4.08624,-8.3424
-539,-482,-4.29877,2.73499,0,0,0,0,0,0,0,-1,685,1506,-4.29879,-2.73494
-532,-482,-3.63611,4.23987,0,0,0,0,0,0,0,-1,692,1506,-3.63609,-4.23983
-525,-482,-6.19116,5.24927,0,0,0,0,0,0,0,-1,699,1506,-6.19117,-5.24927
-518,-482,-5.92957,6.39807,0,0,0,0,0,0,0,-1,706,1506,-5.92958,-6.39806
-511,-482,-7.08362,11.0748,0,0,0,0,0,0,0,-1,713,1506,-7.08365,-11.0748
-504,-482,-6.4657,12.2831,0,0,0,0,0,0,0,-1,720,1506,-6.46573,-12.2831
-497,-482,-5.84784,13.4915,0,0,0,0,0,0,0,-1,727,1506,-5.84781,-13.4914
-490,-482,-5.76794,13.4944,0.00293279,-0.00608309,-0.00240087,0.00353227,-0.00668256,-0.244688,0.0059903,0.0313119,734,1506,-5.76795,-13.4944
-483,-482,-5.74933,14.0986,0.00207654,-0.00491811,-0.00206936,0.0026429,-0.00548447,-0.267147,0.00478698,0.00933697,741,1506,-5.74932,-14.0986
-476,-482,-5.76666,14.6302,0.00185514,-0.00363065,-0.00133533,0.00216291,-0.00393843,-0.226529,0.00357198,0.00956561,748,1506,-5.76666,-14.6302
-469,-482,-5.79895,15.1399,0.00212642,-0.00228003,-0.000343751,0.00215308,-0.00230669,-0.0773869,0.00257536,0.0114211,755,1506,-5.79898,-15.1399
-462,-482,-5.80042,15.6543,0.00277708,-0.000903752,0.000811754,0.00294815,-0.00107482,0.207702,0.00240514,0.0124709,762,1506,-5.80041,-15.6543
-455,-482,-5.81256,16.1727,0.00373167,0.000472269,0.0020837,0.00474729,-0.00054335,0.453527,0.00336065,0.0126008,769,1506,-5.81254,-16.1727
-448,-482,-5.83734,16.7205,0.00506178,0.00197557,0.0035382,0.00737873,-0.000341381,0.579769,0.0050368,0.0132136,776,1506,-5.83732,-16.7205
-441,-482,-5.84802,17.2441,0.00671591,0.00357523,0.00523855,0.0106144,-0.000323283,0.639777,0.00718647,0.0131071,783,1506,-5.84804,-17.2441
-434,-482,-5.88385,17.7705,0.00896252,0.00522377,0.00716993,0.0145028,-0.000316476,0.657875,0.00977571,0.0156752,790,1506,-5.88385,-17.7705
-427,-482,-5.88733,18.3148,0.0115636,0.0073537,0.00910523,0.018804,0.000113298,0.671803,0.0124984,0.0188916,797,1506,-5.88735,-18.3148
-420,-482,-5.76013,19.0511,0.0141095,0.00953264,0.0117121,0.0237547,-0.000112548,0.688919,0.0158741,0.0463777,804,1506,-5.7601,-19.0511
-413,-482,-5.46307,19.7212,0,0,0,0,0,0,0,-1,811,1506,-5.4631,-19.7212
-406,-482,-2.51373,12.7556,0,0,0,0,0,0,0,-1,818,1506,-2.51376,-12.7556
-399,-482,-1.3822,9.22595,0,0,0,0,0,0,0,-1,825,1506,-1.38221,-9.22598
-392,-482,-1.06836,9.22729,0,0,0,0,0,0,0,-1,832,1506,-1.06835,-9.2273
-385,-482,0.0647583,8.90649,0,0,0,0,0,0,0,-1,839,1506,0.0647778,-8.90644
-378,-482,0.215698,5.96948,0,0,0,0,0,0,0,-1,846,1506,0.215681,-5.9695
-371,-482,-0.10907,8.10437,0,0,0,0,0,0,0,-1,853,1506,-0.109063,-8.10433
-364,-482,-0.154968,10.5032,0,0,0,0,0,0,0,-1,860,1506,-0.154976,-10.5032
-357,-482,2.14807,4.60144,0,0,0,0,0,0,0,-1,867,1506,2.14807,-4.60144
-350,-482,-7.5813,-1.45935,0,0,0,0,0,0,0,-1,874,1506,-7.58133,1.45937
-343,-482,-7.19983,-1.26416,0,0,0,0,0,0,0,-1,881,1506,-7.19981,1.26414
-336,-482,-6.78491,-1.18127,0,0,0,0,0,0,0,-1,888,1506,-6.78488,1.18125
-329,-482,0,0,0,0,0,0,0,0,0,-1,895,1506,0,0
-322,-482,0,0,0,0,0,0,0,0,0,-1,902,1506,0,0
-315,-482,0,0,0,0,0,0,0,0,0,-1,909,1506,0,0
-308,-482,0,0,0,0,0,0,0,0,0,-1,916,1506,0,0
-301,-482,0,0,0,0,0,0,0,0,0,-1,923,1506,0,0
-294,-482,0,0,0,0,0,0,0,0,0,-1,930,1506,0,0
-287,-482,0,0,0,0,0,0,0,0,0,-1,937,1506,0,0
-280,-482,0,0,0,0,0,0,0,0,0,-1,944,1506,0,0
-273,-482,0,0,0,0,0,0,0,0,0,-1,951,1506,0,0
-266,-482,0,0,0,0,0,0,0,0,0,-1,958,1506,0,0
-259,-482,0,0,0,0,0,0,0,0,0,-1,965,1506,0,0
-252,-482,0,0,0,0,0,0,0,0,0,-1,972,1506,0,0
-245,-482,0,0,0,0,0,0,0,0,0,-1,979,1506,0,0
-238,-482,0,0,0,0,0,0,0,0,0,-1,986,1506,0,0
-231,-482,0,0,0,0,0,0,0,0,0,-1,993,1506,0,0
-224,-482,0,0,0,0,0,0,0,0,0,-1,1000,1506,0,0
-217,-482,0,0,0,0,0,0,0,0,0,-1,1007,1506,0,0
-210,-482,0,0,0,0,0,0,0,0,0,-1,1014,1506,0,0
-203,-482,0,0,0,0,0,0,0,0,0,-1,1021,1506,0,0
-196,-482,0,0,0,0,0,0,0,0,0,-1,1028,1506,0,0
-189,-482,0,0,0,0,0,0,0,0,0,-1,1035,1506,0,0
-182,-482,0,0,0,0,0,0,0,0,0,-1,1042,1506,0,0
-175,-482,0,0,0,0,0,0,0,0,0,-1,1049,1506,0,0
-168,-482,0,0,0,0,0,0,0,0,0,-1,1056,1506,0,0
-161,-482,0,0,0,0,0,0,0,0,0,-1,1063,1506,0,0
-154,-482,0,0,0,0,0,0,0,0,0,-1,1070,1506,0,0
-147,-482,0,0,0,0,0,0,0,0,0,-1,1077,1506,0,0
-140,-482,0,0,0,0,0,0,0,0,0,-1,1084,1506,0,0
-133,-482,0,0,0,0,0,0,0,0,0,-1,1091,1506,0,0
-126,-482,0,0,0,0,0,0,0,0,0,-1,1098,1506,0,0
-119,-482,0,0,0,0,0,0,0,0,0,-1,1105,1506,0,0
-112,-482,0,0,0,0,0,0,0,0,0,-1,1112,1506,0,0
-105,-482,0,0,0,0,0,0,0,0,0,-1,1119,1506,0,0
-98,-482,0,0,0,0,0,0,0,0,0,-1,1126,1506,0,0
-91,-482,0,0,0,0,0,0,0,0,0,-1,1133,1506,0,0
-84,-482,0,0,0,0,0,0,0,0,0,-1,1140,1506,0,0
-77,-482,0,0,0,0,0,0,0,0,0,-1,1147,1506,0,0
-70,-482,0,0,0,0,0,0,0,0,0,-1,1154,1506,0,0
-63,-482,0,0,0,0,0,0,0,0,0,-1,1161,1506,0,0
-56,-482,0,0,0,0,0,0,0,0,0,-1,1168,1506,0,0
-49,-482,0,0,0,0,0,0,0,0,0,-1,1175,1506,0,0
-42,-482,0,0,0,0,0,0,0,0,0,-1,1182,1506,0,0
-35,-482,0,0,0,0,0,0,0,0,0,-1,1189,1506,0,0
-28,-482,0,0,0,0,0,0,0,0,0,-1,1196,1506,0,0
-21,-482,0,0,0,0,0,0,0,0,0,-1,1203,1506,0,0
-14,-482,0,0,0,0,0,0,0,0,0,-1,1210,1506,0,0
-7,-482,0,0,0,0,0,0,0,0,0,-1,1217,1506,0,0
0,-482,0,0,0,0,0,0,0,0,0,-1,1224,1506,0,0
7,-482,0,0,0,0,0,0,0,0,0,-1,1231,1506,0,0
14,-482,0,0,0,0,0,0,0,0,0,-1,1238,1506,0,0
21,-482,0,0,0,0,0,0,0,0,0,-1,1245,1506,0,0
28,-482,0,0,0,0,0,0,0,0,0,-1,1252,1506,0,0
35,-482,0,0,0,0,0,0,0,0,0,-1,1259,1506,0,0
42,-482,0,0,0,0,0,0,0,0,0,-1,1266,1506,0,0
49,-482,0,0,0,0,0,0,0,0,0,-1,1273,1506,0,0
56,-482,0,0,0,0,0,0,0,0,0,-1,1280,1506,0,0
63,-482,0,0,0,0,0,0,0,0,0,-1,1287,1506,0,0
70,-482,0,0,0,0,0,0,0,0,0,-1,1294,1506,0,0
77,-482,0,0,0,0,0,0,0,0,0,-1,1301,1506,0,0
84,-482,0,0,0,0,0,0,0,0,0,-1,1308,1506,0,0
91,-482,0,0,0,0,0,0,0,0,0,-1,1315,1506,0,0
98,-482,0,0,0,0,0,0,0,0,0,-1,1322,1506,0,0
105,-482,0,0,0,0,0,0,0,0,0,-1,1329,1506,0,0
112,-482,0,0,0,0,0,0,0,0,0,-1,1336,1506,0,0
119,-482,0,0,0,0,0,0,0,0,0,-1,1343,1506,0,0
126,-482,0,0,0,0,0,0,0,0,0,-1,1350,1506,0,0
133,-482,0,0,0,0,0,0,0,0,0,-1,1357,1506,0,0
140,-482,0,0,0,0,0,0,0,0,0,-1,1364,1506,0,0
147,-482,0,0,0,0,0,0,0,0,0,-1,1371,1506,0,0
154,-482,0,0,0,0,0,0,0,0,0,-1,1378,1506,0,0
161,-482,0,0,0,0,0,0,0,0,0,-1,1385,1506,0,0
168,-482,0,0,0,0,0,0,0,0,0,-1,1392,1506,0,0
175,-482,0,0,0,0,0,0,0,0,0,-1,1399,1506,0,0
182,-482,0,0,0,0,0,0,0,0,0,-1,1406,1506,0,0
189,-482,0,0,0,0,0,0,0,0,0,-1,1413,1506,0,0
196,-482,0,0,0,0,0,0,0,0,0,-1,1420,1506,0,0
203,-482,0,0,0,0,0,0,0,0,0,-1,1427,1506,0,0
210,-482,0,0,0,0,0,0,0,0,0,-1,1434,1506,0,0
217,-482,0,0,0,0,0,0,0,0,0,-1,1441,1506,0,0
224,-482,0,0,0,0,0,0,0,0,0,-1,1448,1506,0,0
231,-482,0,0,0,0,0,0,0,0,0,-1,1455,1506,0,0
238,-482,0,0,0,0,0,0,0,0,0,-1,1462,1506,0,0
245,-482,0,0,0,0,0,0,0,0,0,-1,1469,1506,0,0
252,-482,0,0,0,0,0,0,0,0,0,-1,1476,1506,0,0
259,-482,0,0,0,0,0,0,0,0,0,-1,1483,1506,0,0
266,-482,0,0,0,0,0,0,0,0,0,-1,1490,1506,0,0
273,-482,0,0,0,0,0,0,0,0,0,-1,1497,1506,0,0
280,-482,0,0,0,0,0,0,0,0,0,-1,1504,1506,0,0
287,-482,0,0,0,0,0,0,0,0,0,-1,1511,1506,0,0
294,-482,0,0,0,0,0,0,0,0,0,-1,1518,1506,0,0
301,-482,0,0,0,0,0,0,0,0,0,-1,1525,1506,0,0
308,-482,0,0,0,0,0,0,0,0,0,-1,1532,1506,0,0
315,-482,0,0,0,0,0,0,0,0,0,-1,1539,1506,0,0
322,-482,0,0,0,0,0,0,0,0,0,-1,1546,1506,0,0
329,-482,0,0,0,0,0,0,0,0,0,-1,1553,1506,0,0
336,-482,0,0,0,0,0,0,0,0,0,-1,1560,1506,0,0
343,-482,0,0,0,0,0,0,0,0,0,-1,1567,1506,0,0
350,-482,0,0,0,0,0,0,0,0,0,-1,1574,1506,0,0
357,-482,0,0,0,0,0,0,0,0,0,-1,1581,1506,0,0
364,-482,0,0,0,0,0,0,0,0,0,-1,1588,1506,0,0
371,-482,0,0,0,0,0,0,0,0,0,-1,1595,1506,0,0
378,-482,0,0,0,0,0,0,0,0,0,-1,1602,1506,0,0
385,-482,0,0,0,0,0,0,0,0,0,-1,1609,1506,0,0
392,-482,0,0,0,0,0,0,0,0,0,-1,1616,1506,0,0
399,-482,0,0,0,0,0,0,0,0,0,-1,1623,1506,0,0
406,-482,0,0,0,0,0,0,0,0,0,-1,1630,1506,0,0
413,-482,0,0,0,0,0,0,0,0,0,-1,1637,1506,0,0
420,-482,0,0,0,0,0,0,0,0,0,-1,1644,1506,0,0
427,-482,0,0,0,0,0,0,0,0,0,-1,1651,1506,0,0
434,-482,0,0,0,0,0,0,0,0,0,-1,1658,1506,0,0
441,-482,0,0,0,0,0,0,0,0,0,-1,1665,1506,0,0
448,-482,4.24146,1.55383,0,0,0,0,0,0,0,-1,1672,1506,4.24149,-1.55381
455,-482,12.4122,1.09729,0,0,0,0,0,0,0,-1,1679,1506,12.4122,-1.09734
462,-482,15.0673,3.13135,0,0,0,0,0,0,0,-1,1686,1506,15.0672,-3.13134
469,-482,15.3793,3.46301,0,0,0,0,0,0,0,-1,1693,1506,15.3793,-3.46307
476,-482,8.69751,9.18738,0,0,0,0,0,0,0,-1,1700,1506,8.69753,-9.18739
483,-482,10.0902,7.17432,0,0,0,0,0,0,0,-1,1707,1506,10.0902,-7.1743
490,-482,11.6289,5.4928,0,0,0,0,0,0,0,-1,1714,1506,11.6289,-5.49283
497,-482,15.9539,7.40222,0,0,0,0,0,0,0,-1,1721,1506,15.9538,-7.40219
504,-482,20.4233,12.006,0,0,0,0,0,0,0,-1,1728,1506,20.4233,-12.006
511,-482,18.4937,12.9175,0,0,0,0,0,0,0,-1,1735,1506,18.4936,-12.9174
518,-482,16.6002,13.9679,0,0,0,0,0,0,0,-1,1742,1506,16.6003,-13.9679
525,-482,18.495,15.9618,0,0,0,0,0,0,0,-1,1749,1506,18.495,-15.9618
532,-482,19.9375,21.0775,0,0,0,0,0,0,0,-1,1756,1506,19.9375,-21.0775
539,-482,20.2291,20.5577,0,0,0,0,0,0,0,-1,1763,1506,20.2291,-20.5578
546,-482,20.6962,20.7969,0,0,0,0,0,0,0,-1,1770,1506,20.6962,-20.7969
553,-482,20.587,20.1277,0,0,0,0,0,0,0,-1,1777,1506,20.587,-20.1277
560,-482,20.719,19.5704,0.00573767,0.00334756,-0.0028132,0.00759912,0.00148611,-0.584546,0.00465055,0.0156616,1784,1506,20.719,-19.5705
567,-482,20.8059,19.0568,0.0045476,0.00261327,-0.00219964,0.00598331,0.00117756,-0.578274,0.00366005,0.0165449,1791,1506,20.8059,-19.0568
574,-482,20.8008,18.5925,0.00366384,0.00197834,-0.00181466,0.00482189,0.000820289,-0.568011,0.00297905,0.0147973,1798,1506,20.8008,-18.5926
581,-482,20.7634,18.1105,0.00296091,0.00138035,-0.00149014,0.00385736,0.000483904,-0.541586,0.00242641,0.00969343,1805,1506,20.7635,-18.1105
588,-482,20.7335,17.6189,0.00251121,0.000802283,-0.00122454,0.00314993,0.000163558,-0.48078,0.00204761,0.0103093,1812,1506,20.7335,-17.6189
595,-482,20.7383,17.1273,0.00241846,0.000200701,-0.00102571,0.00282011,-0.000200949,-0.373228,0.00195051,0.0169181,1819,1506,20.7382,-17.1273
602,-482,20.7473,16.6428,0.00244514,-0.000380372,-0.000875321,0.00269433,-0.000629563,-0.277348,0.00203874,0.0208706,1826,1506,20.7473,-16.6428
609,-482,20.7085,16.1638,0.00264727,-0.000981274,-0.000683808,0.00277186,-0.00110586,-0.18022,0.00230665,0.0157507,1833,1506,20.7085,-16.1638
616,-482,20.667,15.6687,0.00315392,-0.00170873,-0.000421027,0.0031901,-0.00174491,-0.0857337,0.00288967,0.0112706,1840,1506,20.667,-15.6687
623,-482,20.6526,15.1865,0.00395757,-0.00260059,-6.80832e-05,0.00395828,-0.0026013,-0.01038,0.00381409,0.0150511,1847,1506,20.6526,-15.1865
630,-482,20.6587,14.7688,0.00492902,-0.00339968,0.000334133,0.0049424,-0.00341306,0.0400325,0.00485089,0.0312825,1854,1506,20.6587,-14.7689
637,-482,20.7911,14.184,0,0,0,0,0,0,0,-1,1861,1506,20.7911,-14.1839
644,-482,17.5909,11.6163,0,0,0,0,0,0,0,-1,1868,1506,17.5909,-11.6163
651,-482,4.03845,7.05273,0,0,0,0,0,0,0,-1,1875,1506,4.03843,-7.05279
658,-482,10.0278,5.87903,0,0,0,0,0,0,0,-1,1882,1506,10.0279,-5.87902
665,-482,8.15198,3.22229,0,0,0,0,0,0,0,-1,1889,1506,8.15199,-3.22232
672,-482,9.87415,1.3147,0,0,0,0,0,0,0,-1,1896,1506,9.87416,-1.31473
679,-482,0,0,0,0,0,0,0,0,0,-1,1903,1506,0,0
686,-482,0,0,0,0,0,0,0,0,0,-1,1910,1506,0,0
693,-482,0,0,0,0,0,0,0,0,0,-1,1917,1506,0,0
700,-482,0,0,0,0,0,0,0,0,0,-1,1924,1506,0,0
707,-482,0,0,0,0,0,0,0,0,0,-1,1931,1506,0,0
714,-482,0,0,0,0,0,0,0,0,0,-1,1938,1506,0,0
721,-482,0,0,0,0,0,0,0,0,0,-1,1945,1506,0,0
728,-482,0,0,0,0,0,0,0,0,0,-1,1952,1506,0,0
735,-482,0,0,0,0,0,0,0,0,0,-1,1959,1506,0,0
742,-482,0,0,0,0,0,0,0,0,0,-1,1966,1506,0,0
749,-482,0,0,0,0,0,0,0,0,0,-1,1973,1506,0,0
756,-482,0,0,0,0,0,0,0,0,0,-1,1980,1506,0,0
763,-482,0,0,0,0,0,0,0,0,0,-1,1987,1506,0,0
770,-482,0,0,0,0,0,0,0,0,0,-1,1994,1506,0,0
777,-482,0,0,0,0,0,0,0,0,0,-1,2001,1506,0,0
784,-482,0,0,0,0,0,0,0,0,0,-1,2008,1506,0,0
791,-482,0,0,0,0,0,0,0,0,0,-1,2015,1506,0,0
798,-482,0,0,0,0,0,0,0,0,0,-1,2022,1506,0,0
805,-482,0,0,0,0,0,0,0,0,0,-1,2029,1506,0,0
812,-482,0,0,0,0,0,0,0,0,0,-1,2036,1506,0,0
-700,-489,0,0,0,0,0,0,0,0,0,-1,524,1513,0,0
-693,-489,0,0,0,0,0,0,0,0,0,-1,531,1513,0,0
-686,-489,0,0,0,0,0,0,0,0,0,-1,538,1513,0,0
-679,-489,0,0,0,0,0,0,0,0,0,-1,545,1513,0,0
-672,-489,0,0,0,0,0,0,0,0,0,-1,552,1513,0,0
-665,-489,0,0,0,0,0,0,0,0,0,-1,559,1513,0,0
-658,-489,0,0,0,0,0,0,0,0,0,-1,566,1513,0,0
-651,-489,0,0,0,0,0,0,0,0,0,-1,573,1513,0,0
-644,-489,0,0,0,0,0,0,0,0,0,-1,580,1513,0,0
-637,-489,0,0,0,0,0,0,0,0,0,-1,587,1513,0,0
-630,-489,0,0,0,0,0,0,0,0,0,-1,594,1513,0,0
-623,-489,0,0,0,0,0,0,0,0,0,-1,601,1513,0,0
-616,-489,0,0,0,0,0,0,0,0,0,-1,608,1513,0,0
-609,-489,0,0,0,0,0,0,0,0,0,-1,615,1513,0,0
-602,-489,0,0,0,0,0,0,0,0,0,-1,622,1513,0,0
-595,-489,0,0,0,0,0,0,0,0,0,-1,629,1513,0,0
-588,-489,0,0,0,0,0,0,0,0,0,-1,636,1513,0,0
-581,-489,0,0,0,0,0,0,0,0,0,-1,643,1513,0,0
-574,-489,0,0,0,0,0,0,0,0,0,-1,650,1513,0,0
-567,-489,0,0,0,0,0,0,0,0,0,-1,657,1513,0,0
-560,-489,0,0,0,0,0,0,0,0,0,-1,664,1513,0,0
-553,-489,-9.42206,8.5116,0,0,0,0,0,0,0,-1,671,1513,-9.42205,-8.51158
-546,-489,-7.80951,8.18506,0,0,0,0,0,0,0,-1,678,1513,-7.8095,-8.18503
-539,-489,-3.06879,2.82349,0,0,0,0,0,0,0,-1,685,1513,-3.06881,-2.82354
-532,-489,-3.14215,2.5835,0,0,0,0,0,0,0,-1,692,1513,-3.14213,-2.58353
-525,-489,-2.604,4.06274,0,0,0,0,0,0,0,-1,699,1513,-2.60399,-4.06274
-518,-489,-5.43774,7.48059,0,0,0,0,0,0,0,-1,706,1513,-5.43777,-7.48058
-511,-489,-7.52856,10.951,0,0,0,0,0,0,0,-1,713,1513,-7.52857,-10.951
-504,-489,-6.61389,12.1646,0,0,0,0,0,0,0,-1,720,1513,-6.61388,-12.1646
-497,-489,-4.76038,13.3555,0,0,0,0,0,0,0,-1,727,1513,-4.76038,-13.3555
-490,-489,-5.04639,13.5731,0.00486311,-0.00780176,-0.00383494,0.00593382,-0.00887247,-0.272265,0.00860435,0.0407981,734,1513,-5.04638,-13.5732
-483,-489,-5.24615,14.0383,0.00326328,-0.00637018,-0.00338461,0.00433352,-0.00744043,-0.30626,0.00687613,0.0171223,741,1513,-5.24614,-14.0383
-476,-489,-5.24817,14.6265,0.0024386,-0.00488915,-0.00255937,0.00324399,-0.00569454,-0.304873,0.00522491,0.00948555,748,1513,-5.24818,-14.6264
-469,-489,-5.26196,15.1438,0.00218584,-0.00340997,-0.00153457,0.00257905,-0.00380317,-0.250835,0.0037073,0.0106634,755,1513,-5.26197,-15.1439
-462,-489,-5.28864,15.6881,0.0023839,-0.00196785,-0.000381156,0.00241703,-0.00200098,-0.086707,0.00255451,0.0152159,762,1513,-5.28865,-15.6881
-455,-489,-5.33234,16.2283,0.00292239,-0.000592359,0.000837227,0.00311163,-0.0007816,0.222298,0.00237816,0.018489,769,1513,-5.33235,-16.2283
-448,-489,-5.36316,16.7175,0.00385248,0.000840384,0.00216815,0.00498633,-0.000293468,0.481844,0.00342624,0.0163871,776,1513,-5.36313,-16.7176
-441,-489,-5.34436,17.2642,0.00509439,0.00233566,0.00371161,0.00767465,-0.000244612,0.607489,0.00519989,0.0139539,783,1513,-5.34437,-17.2642
-434,-489,-5.36487,17.7916,0.0067571,0.00390568,0.00541979,0.0109356,-0.000272791,0.656784,0.00738299,0.017122,790,1513,-5.36488,-17.7917
-427,-489,-5.39014,18.316,0.00881311,0.00579287,0.00716326,0.0146237,-1.7717e-05,0.681512,0.00975504,0.0199908,797,1513,-5.39014,-18.316
-420,-489,-5.40723,18.9521,0.0108542,0.00772123,0.00938102,0.0187986,-0.000223206,0.70267,0.0126075,0.0245174,804,1513,-5.40724,-18.9521
-413,-489,-5.35004,19.6493,0,0,0,0,0,0,0,-1,811,1513,-5.35003,-19.6493
-406,-489,-3.10559,15.8143,0,0,0,0,0,0,0,-1,818,1513,-3.10556,-15.8143
-399,-489,-1.41241,9.10718,0,0,0,0,0,0,0,-1,825,1513,-1.41244,-9.10722
-392,-489,-1.0368,9.30469,0,0,0,0,0,0,0,-1,832,1513,-1.03682,-9.30466
-385,-489,-1.75165,10.6559,0,0,0,0,0,0,0,-1,839,1513,-1.75165,-10.6559
-378,-489,-0.401428,9.87048,0,0,0,0,0,0,0,-1,846,1513,-0.401415,-9.87047
-371,-489,-1.11633,10.6606,0,0,0,0,0,0,0,-1,853,1513,-1.11633,-10.6606
-364,-489,-0.503113,8.98486,0,0,0,0,0,0,0,-1,860,1513,-0.503097,-8.98482
-357,-489,-0.609924,10.9606,0,0,0,0,0,0,0,-1,867,1513,-0.609947,-10.9605
-350,-489,-7.94659,-0.358887,0,0,0,0,0,0,0,-1,874,1513,-7.94657,0.358912
-343,-489,-7.49323,-0.437866,0,0,0,0,0,0,0,-1,881,1513,-7.49322,0.437823
-336,-489,-7.02332,-0.53125,0,0,0,0,0,0,0,-1,888,1513,-7.0233,0.531295
-329,-489,-10.697,3.33276,0,0,0,0,0,0,0,-1,895,1513,-10.697,-3.33281
-322,-489,0,0,0,0,0,0,0,0,0,-1,902,1513,0,0
-315,-489,0,0,0,0,0,0,0,0,0,-1,909,1513,0,0
-308,-489,0,0,0,0,0,0,0,0,0,-1,916,1513,0,0
-301,-489,0,0,0,0,0,0,0,0,0,-1,923,1513,0,0
-294,-489,0,0,0,0,0,0,0,0,0,-1,930,1513,0,0
-287,-489,0,0,0,0,0,0,0,0,0,-1,937,1513,0,0
-280,-489,0,0,0,0,0,0,0,0,0,-1,944,1513,0,0
-273,-489,0,0,0,0,0,0,0,0,0,-1,951,1513,0,0
-266,-489,0,0,0,0,0,0,0,0,0,-1,958,1513,0,0
-259,-489,0,0,0,0,0,0,0,0,0,-1,965,1513,0,0
-252,-489,0,0,0,0,0,0,0,0,0,-1,972,1513,0,0
-245,-489,0,0,0,0,0,0,0,0,0,-1,979,1513,0,0
-238,-489,0,0,0,0,0,0,0,0,0,-1,986,1513,0,0
-231,-489,0,0,0,0,0,0,0,0,0,-1,993,1513,0,0
-224,-489,0,0,0,0,0,0,0,0,0,-1,1000,1513,0,0
-217,-489,0,0,0,0,0,0,0,0,0,-1,1007,1513,0,0
-210,-489,0,0,0,0,0,0,0,0,0,-1,1014,1513,0,0
-203,-489,0,0,0,0,0,0,0,0,0,-1,1021,1513,0,0
-196,-489,0,0,0,0,0,0,0,0,0,-1,1028,1513,0,0
-189,-489,0,0,0,0,0,0,0,0,0,-1,1035,1513,0,0
-182,-489,0,0,0,0,0,0,0,0,0,-1,1042,1513,0,0
-175,-489,0,0,0,0,0,0,0,0,0,-1,1049,1513,0,0
-168,-489,0,0,0,0,0,0,0,0,0,-1,1056,1513,0,0
-161,-489,0,0,0,0,0,0,0,0,0,-1,1063,1513,0,0
-154,-489,0,0,0,0,0,0,0,0,0,-1,1070,1513,0,0
-147,-489,0,0,0,0,0,0,0,0,0,-1,1077,1513,0,0
-140,-489,0,0,0,0,0,0,0,0,0,-1,1084,1513,0,0
-133,-489,0,0,0,0,0,0,0,0,0,-1,1091,1513,0,0
-126,-489,0,0,0,0,0,0,0,0,0,-1,1098,1513,0,0
-119,-489,0,0,0,0,0,0,0,0,0,-1,1105,1513,0,0
-112,-489,0,0,0,0,0,0,0,0,0,-1,1112,1513,0,0
-105,-489,0,0,0,0,0,0,0,0,0,-1,1119,1513,0,0
-98,-489,0,0,0,0,0,0,0,0,0,-1,1126,1513,0,0
-91,-489,0,0,0,0,0,0,0,0,0,-1,1133,1513,0,0
-84,-489,0,0,0,0,0,0,0,0,0,-1,1140,1513,0,0
-77,-489,0,0,0,0,0,0,0,0,0,-1,1147,1513,0,0
-70,-489,0,0,0,0,0,0,0,0,0,-1,1154,1513,0,0
-63,-489,0,0,0,0,0,0,0,0,0,-1,1161,1513,0,0
-56,-489,0,0,0,0,0,0,0,0,0,-1,1168,1513,0,0
-49,-489,0,0,0,0,0,0,0,0,0,-1,1175,1513,0,0
-42,-489,0,0,0,0,0,0,0,0,0,-1,1182,1513,0,0
-35,-489,0,0,0,0,0,0,0,0,0,-1,1189,1513,0,0
-28,-489,0,0,0,0,0,0,0,0,0,-1,1196,1513,0,0
-21,-489,0,0,0,0,0,0,0,0,0,-1,1203,1513,0,0
-14,-489,0,0,0,0,0,0,0,0,0,-1,1210,1513,0,0
-7,-489,0,0,0,0,0,0,0,0,0,-1,1217,1513,0,0
0,-489,0,0,0,0,0,0,0,0,0,-1,1224,1513,0,0
7,-489,0,0,0,0,0,0,0,0,0,-1,1231,1513,0,0
14,-489,0,0,0,0,0,0,0,0,0,-1,1238,1513,0,0
21,-489,0,0,0,0,0,0,0,0,0,-1,1245,1513,0,0
28,-489,0,0,0,0,0,0,0,0,0,-1,1252,1513,0,0
35,-489,0,0,0,0,0,0,0,0,0,-1,1259,1513,0,0
42,-489,0,0,0,0,0,0,0,0,0,-1,1266,1513,0,0
49,-489,0,0,0,0,0,0,0,0,0,-1,1273,1513,0,0
56,-489,0,0,0,0,0,0,0,0,0,-1,1280,1513,0,0
63,-489,0,0,0,0,0,0,0,0,0,-1,1287,1513,0,0
70,-489,0,0,0,0,0,0,0,0,0,-1,1294,1513,0,0
77,-489,0,0,0,0,0,0,0,0,0,-1,1301,1513,0,0
84,-489,0,0,0,0,0,0,0,0,0,-1,1308,1513,0,0
91,-489,0,0,0,0,0,0,0,0,0,-1,1315,1513,0,0
98,-489,0,0,0,0,0,0,0,0,0,-1,1322,1513,0,0
105,-489,0,0,0,0,0,0,0,0,0,-1,1329,1513,0,0
112,-489,0,0,0,0,0,0,0,0,0,-1,1336,1513,0,0
119,-489,0,0,0,0,0,0,0,0,0,-1,1343,1513,0,0
126,-489,0,0,0,0,0,0,0,0,0,-1,1350,1513,0,0
133,-489,0,0,0,0,0,0,0,0,0,-1,1357,1513,0,0
140,-489,0,0,0,0,0,0,0,0,0,-1,1364,1513,0,0
147,-489,0,0,0,0,0,0,0,0,0,-1,1371,1513,0,0
154,-489,0,0,0,0,0,0,0,0,0,-1,1378,1513,0,0
161,-489,0,0,0,0,0,0,0,0,0,-1,1385,1513,0,0
168,-489,0,0,0,0,0,0,0,0,0,-1,1392,1513,0,0
175,-489,0,0,0,0,0,0,0,0,0,-1,1399,1513,0,0
182,-489,0,0,0,0,0,0,0,0,0,-1,1406,1513,0,0
189,-489,0,0,0,0,0,0,0,0,0,-1,1413,1513,0,0
196,-489,0,0,0,0,0,0,0,0,0,-1,1420,1513,0,0
203,-489,0,0,0,0,0,0,0,0,0,-1,1427,1513,0,0
210,-489,0,0,0,0,0,0,0,0,0,-1,1434,1513,0,0
217,-489,0,0,0,0,0,0,0,0,0,-1,1441,1513,0,0
224,-489,0,0,0,0,0,0,0,0,0,-1,1448,1513,0,0
231,-489,0,0,0,0,0,0,0,0,0,-1,1455,1513,0,0
238,-489,0,0,0,0,0,0,0,0,0,-1,1462,1513,0,0
245,-489,0,0,0,0,0,0,0,0,0,-1,1469,1513,0,0
252,-489,0,0,0,0,0,0,0,0,0,-1,1476,1513,0,0
259,-489,0,0,0,0,0,0,0,0,0,-1,1483,1513,0,0
266,-489,0,0,0,0,0,0,0,0,0,-1,1490,1513,0,0
273,-489,0,0,0,0,0,0,0,0,0,-1,1497,1513,0,0
280,-489,0,0,0,0,0,0,0,0,0,-1,1504,1513,0,0
287,-489,0,0,0,0,0,0,0,0,0,-1,1511,1513,0,0
294,-489,0,0,0,0,0,0,0,0,0,-1,1518,1513,0,0
301,-489,0,0,0,0,0,0,0,0,0,-1,1525,1513,0,0
308,-489,0,0,0,0,0,0,0,0,0,-1,1532,1513,0,0
315,-489,0,0,0,0,0,0,0,0,0,-1,1539,1513,0,0
322,-489,0,0,0,0,0,0,0,0,0,-1,1546,1513,0,0
329,-489,0,0,0,0,0,0,0,0,0,-1,1553,1513,0,0
336,-489,0,0,0,0,0,0,0,0,0,-1,1560,1513,0,0
343,-489,0,0,0,0,0,0,0,0,0,-1,1567,1513,0,0
350,-489,0,0,0,0,0,0,0,0,0,-1,1574,1513,0,0
357,-489,0,0,0,0,0,0,0,0,0,-1,1581,1513,0,0
364,-489,0,0,0,0,0,0,0,0,0,-1,1588,1513,0,0
371,-489,0,0,0,0,0,0,0,0,0,-1,1595,1513,0,0
378,-489,0,0,0,0,0,0,0,0,0,-1,1602,1513,0,0
385,-489,0,0,0,0,0,0,0,0,0,-1,1609,1513,0,0
392,-489,0,0,0,0,0,0,0,0,0,-1,1616,1513,0,0
399,-489,0,0,0,0,0,0,0,0,0,-1,1623,1513,0,0
406,-489,0,0,0,0,0,0,0,0,0,-1,1630,1513,0,0
413,-489,0,0,0,0,0,0,0,0,0,-1,1637,1513,0,0
420,-489,0,0,0,0,0,0,0,0,0,-1,1644,1513,0,0
427,-489,0,0,0,0,0,0,0,0,0,-1,1651,1513,0,0
434,-489,0,0,0,0,0,0,0,0,0,-1,1658,1513,0,0
441,-489,11.4602,2.56787,0,0,0,0,0,0,0,-1,1665,1513,11.4602,-2.56786
448,-489,12.4425,1.72351,0,0,0,0,0,0,0,-1,1672,1513,12.4425,-1.72349
455,-489,12.5575,1.37463,0,0,0,0,0,0,0,-1,1679,1513,12.5575,-1.37469
462,-489,14.9784,3.84888,0,0,0,0,0,0,0,-1,1686,1513,14.9784,-3.84892
469,-489,15.1367,4.53101,0,0,0,0,0,0,0,-1,1693,1513,15.1368,-4.531
476,-489,15.5536,5.09338,0,0,0,0,0,0,0,-1,1700,1513,15.5536,-5.09339
483,-489,8.96912,8.37805,0,0,0,0,0,0,0,-1,1707,1513,8.96909,-8.37809
490,-489,10.5366,7.49561,0,0,0,0,0,0,0,-1,1714,1513,10.5367,-7.49558
497,-489,14.6051,11.8397,0,0,0,0,0,0,0,-1,1721,1513,14.6051,-11.8397
504,-489,16.7527,14.1735,0,0,0,0,0,0,0,-1,1728,1513,16.7527,-14.1735
511,-489,17.83,17.7993,0,0,0,0,0,0,0,-1,1735,1513,17.83,-17.7993
518,-489,16.4751,14.3682,0,0,0,0,0,0,0,-1,1742,1513,16.4751,-14.3682
525,-489,17.2606,17.4949,0,0,0,0,0,0,0,-1,1749,1513,17.2606,-17.4949
532,-489,19.397,21.0182,0,0,0,0,0,0,0,-1,1756,1513,19.397,-21.0182
539,-489,20.1993,21.3109,0,0,0,0,0,0,0,-1,1763,1513,20.1994,-21.3109
546,-489,20.2899,20.6909,0.00783441,0.00517643,-0.00454202,0.0112379,0.00177297,-0.643072,0.00697643,0.0237168,1770,1513,20.2899,-20.6909
553,-489,20.277,20.1021,0.00623188,0.00391717,-0.00339598,0.00866231,0.00148675,-0.62117,0.00534862,0.0187368,1777,1513,20.2769,-20.1021
560,-489,20.2896,19.5734,0.00495803,0.00295293,-0.0025203,0.00666787,0.00124309,-0.596098,0.00409428,0.0143975,1784,1513,20.2895,-19.5733
567,-489,20.3218,19.104,0.00397543,0.00225033,-0.00196578,0.00525957,0.000966186,-0.578655,0.00323281,0.0167358,1791,1513,20.3218,-19.104
574,-489,20.2838,18.6578,0.00325923,0.00165861,-0.00161548,0.00426178,0.000656068,-0.555418,0.00264971,0.0159355,1798,1513,20.2838,-18.6578
581,-489,20.293,18.1527,0.00271023,0.00108968,-0.00133518,0.00346177,0.000338147,-0.512673,0.00220379,0.0106069,1805,1513,20.2929,-18.1528
588,-489,20.2667,17.6576,0.00241808,0.000564936,-0.0011507,0.00296888,1.413e-05,-0.446439,0.00197456,0.0132106,1812,1513,20.2667,-17.6576
595,-489,20.2653,17.1687,0.00247337,3.76411e-06,-0.00102846,0.00284557,-0.000368436,-0.347238,0.00203103,0.0200919,1819,1513,20.2652,-17.1686
602,-489,20.2527,16.6954,0.00264195,-0.000531502,-0.000962133,0.00291087,-0.000800415,-0.272542,0.00225524,0.0259863,1826,1513,20.2527,-16.6955
609,-489,20.215,16.218,0.00298363,-0.00113045,-0.000859172,0.00315585,-0.00130267,-0.197824,0.00264721,0.0179018,1833,1513,20.2149,-16.218
616,-489,20.2028,15.6924,0.00371218,-0.00192967,-0.00065896,0.00378813,-0.00200561,-0.114741,0.00339738,0.0171658,1840,1513,20.2028,-15.6923
623,-489,20.1926,15.2341,0.00473056,-0.00292944,-0.000329771,0.00474473,-0.00294361,-0.0429452,0.00447928,0.0362868,1847,1513,20.1926,-15.2341
630,-489,20.1917,14.6749,0,0,0,0,0,0,0,-1,1854,1513,20.1916,-14.6749
637,-489,17.2048,11.8091,0,0,0,0,0,0,0,-1,1861,1513,17.2048,-11.8091
644,-489,9.67578,8.45874,0,0,0,0,0,0,0,-1,1868,1513,9.67576,-8.45879
651,-489,6.13818,6.85095,0,0,0,0,0,0,0,-1,1875,1513,6.13823,-6.85097
658,-489,5.43848,7.75513,0,0,0,0,0,0,0,-1,1882,1513,5.43844,-7.75509
665,-489,5.48438,8.59912,0,0,0,0,0,0,0,-1,1889,1513,5.48434,-8.59907
672,-489,0,0,0,0,0,0,0,0,0,-1,1896,1513,0,0
679,-489,0,0,0,0,0,0,0,0,0,-1,1903,1513,0,0
686,-489,0,0,0,0,0,0,0,0,0,-1,1910,1513,0,0
693,-489,0,0,0,0,0,0,0,0,0,-1,1917,1513,0,0
700,-489,0,0,0,0,0,0,0,0,0,-1,1924,1513,0,0
707,-489,0,0,0,0,0,0,0,0,0,-1,1931,1513,0,0
714,-489,0,0,0,0,0,0,0,0,0,-1,1938,1513,0,0
721,-489,0,0,0,0,0,0,0,0,0,-1,1945,1513,0,0
728,-489,0,0,0,0,0,0,0,0,0,-1,1952,1513,0,0
735,-489,0,0,0,0,0,0,0,0,0,-1,1959,1513,0,0
742,-489,0,0,0,0,0,0,0,0,0,-1,1966,1513,0,0
749,-489,0,0,0,0,0,0,0,0,0,-1,1973,1513,0,0
756,-489,0,0,0,0,0,0,0,0,0,-1,1980,1513,0,0
763,-489,0,0,0,0,0,0,0,0,0,-1,1987,1513,0,0
770,-489,0,0,0,0,0,0,0,0,0,-1,1994,1513,0,0
777,-489,0,0,0,0,0,0,0,0,0,-1,2001,1513,0,0
784,-489,0,0,0,0,0,0,0,0,0,-1,2008,1513,0,0
791,-489,0,0,0,0,0,0,0,0,0,-1,2015,1513,0,0
798,-489,0,0,0,0,0,0,0,0,0,-1,2022,1513,0,0
805,-489,0,0,0,0,0,0,0,0,0,-1,2029,1513,0,0
812,-489,0,0,0,0,0,0,0,0,0,-1,2036,1513,0,0
-700,-496,0,0,0,0,0,0,0,0,0,-1,524,1520,0,0
-693,-496,0,0,0,0,0,0,0,0,0,-1,531,1520,0,0
-686,-496,0,0,0,0,0,0,0,0,0,-1,538,1520,0,0
-679,-496,0,0,0,0,0,0,0,0,0,-1,545,1520,0,0
-672,-496,0,0,0,0,0,0,0,0,0,-1,552,1520,0,0
-665,-496,0,0,0,0,0,0,0,0,0,-1,559,1520,0,0
-658,-496,0,0,0,0,0,0,0,0,0,-1,566,1520,0,0
-651,-496,0,0,0,0,0,0,0,0,0,-1,573,1520,0,0
-644,-496,0,0,0,0,0,0,0,0,0,-1,580,1520,0,0
-637,-496,0,0,0,0,0,0,0,0,0,-1,587,1520,0,0
-630,-496,0,0,0,0,0,0,0,0,0,-1,594,1520,0,0
-623,-496,0,0,0,0,0,0,0,0,0,-1,601,1520,0,0
-616,-496,0,0,0,0,0,0,0,0,0,-1,608,1520,0,0
-609,-496,0,0,0,0,0,0,0,0,0,-1,615,1520,0,0
-602,-496,0,0,0,0,0,0,0,0,0,-1,622,1520,0,0
-595,-496,0,0,0,0,0,0,0,0,0,-1,629,1520,0,0
-588,-496,0,0,0,0,0,0,0,0,0,-1,636,1520,0,0
-581,-496,0,0,0,0,0,0,0,0,0,-1,643,1520,0,0
-574,-496,0,0,0,0,0,0,0,0,0,-1,650,1520,0,0
-567,-496,0,0,0,0,0,0,0,0,0,-1,657,1520,0,0
-560,-496,0,0,0,0,0,0,0,0,0,-1,664,1520,0,0
-553,-496,0,0,0,0,0,0,0,0,0,-1,671,1520,0,0
-546,-496,-8.09711,7.94836,0,0,0,0,0,0,0,-1,678,1520,-8.09712,-7.94842
-539,-496,-3.20129,1.16052,0,0,0,0,0,0,0,-1,685,1520,-3.20131,-1.16054
-532,-496,-2.98279,2.62146,0,0,0,0,0,0,0,-1,692,1520,-2.98278,-2.62151
-525,-496,-2.75201,4.08032,0,0,0,0,0,0,0,-1,699,1520,-2.75201,-4.08031
-518,-496,-2.6333,5.36072,0,0,0,0,0,0,0,-1,706,1520,-2.63328,-5.36077
-511,-496,-7.92126,9.68604,0,0,0,0,0,0,0,-1,713,1520,-7.92127,-9.68598
-504,-496,-7.51044,11.6274,0,0,0,0,0,0,0,-1,720,1520,-7.51042,-11.6275
-497,-496,-4.56305,13.4696,0,0,0,0,0,0,0,-1,727,1520,-4.56302,-13.4696
-490,-496,-4.54797,13.8401,0.00768839,-0.00923058,-0.00523517,0.00917727,-0.0107195,-0.277083,0.0114989,0.0458473,734,1520,-4.548,-13.8401
-483,-496,-4.64063,14.2224,0.00502586,-0.00732855,-0.00450701,0.00649529,-0.00879798,-0.315165,0.00886287,0.0290821,741,1520,-4.64061,-14.2224
-476,-496,-4.73285,14.6541,0.00338304,-0.00552577,-0.00349105,0.00458806,-0.00673079,-0.33237,0.00657386,0.0140961,748,1520,-4.73287,-14.6541
-469,-496,-4.74902,15.1871,0.00247031,-0.00385163,-0.0023826,0.00326768,-0.00464901,-0.32295,0.00459384,0.0104613,755,1520,-4.749,-15.1872
-462,-496,-4.78986,15.7178,0.00215633,-0.00233865,-0.00121868,0.00246547,-0.00264779,-0.248433,0.00295277,0.0153502,762,1520,-4.78984,-15.7177
-455,-496,-4.83087,16.2408,0.00227084,-0.00100861,-7.08801e-05,0.00227237,-0.00101014,-0.0216,0.0019413,0.0208879,769,1520,-4.8309,-16.2409
-448,-496,-4.82568,16.7573,0.00282786,0.000267212,0.00110119,0.00323628,-0.000141206,0.35516,0.0022061,0.0189207,776,1520,-4.82569,-16.7573
-441,-496,-4.80908,17.2831,0.00372353,0.00153992,0.0024303,0.00529601,-3.25562e-05,0.574284,0.00354157,0.0142683,783,1520,-4.80909,-17.283
-434,-496,-4.83759,17.8041,0.00489981,0.00290605,0.00386471,0.00789414,-8.82756e-05,0.659177,0.00529243,0.0138987,790,1520,-4.83759,-17.8041
-427,-496,-4.87573,18.3268,0.00655346,0.0044153,0.00537605,0.0109657,3.06312e-06,0.687249,0.00730944,0.0182883,797,1520,-4.87573,-18.3268
-420,-496,-4.88849,18.8262,0.00828755,0.0059755,0.00715804,0.0143823,-0.000119265,0.705339,0.00962821,0.0192047,804,1520,-4.88851,-18.8261
-413,-496,-4.78461,19.3831,0.0101988,0.00776679,0.00930048,0.0183624,-0.000396843,0.720394,0.012376,0.0285396,811,1520,-4.78458,-19.383
-406,-496,-4.61713,20.1302,0,0,0,0,0,0,0,-1,818,1520,-4.61711,-20.1302
-399,-496,-4.28772,20.9731,0,0,0,0,0,0,0,-1,825,1520,-4.28769,-20.9731
-392,-496,-1.49786,12.387,0,0,0,0,0,0,0,-1,832,1520,-1.49788,-12.387
-385,-496,-1.72437,11.4985,0,0,0,0,0,0,0,-1,839,1520,-1.72436,-11.4985
-378,-496,-1.45532,14.0719,0,0,0,0,0,0,0,-1,846,1520,-1.45533,-14.0719
-371,-496,0.0877075,12.5299,0,0,0,0,0,0,0,-1,853,1520,0.0876896,-12.5299
-364,-496,0.0881348,10.6422,0,0,0,0,0,0,0,-1,860,1520,0.0881368,-10.6423
-357,-496,0.323792,7.56812,0,0,0,0,0,0,0,-1,867,1520,0.323782,-7.56806
-350,-496,2.1535,7.18945,0,0,0,0,0,0,0,-1,874,1520,2.15348,-7.1894
-343,-496,-7.56244,0.335327,0,0,0,0,0,0,0,-1,881,1520,-7.56242,-0.335322
-336,-496,-3.99249,6.02222,0,0,0,0,0,0,0,-1,888,1520,-3.99246,-6.0222
-329,-496,-6.93689,-0.100342,0,0,0,0,0,0,0,-1,895,1520,-6.93686,0.1003
-322,-496,-6.17505,0.494385,0,0,0,0,0,0,0,-1,902,1520,-6.17507,-0.49437
-315,-496,-7.539,5.78638,0,0,0,0,0,0,0,-1,909,1520,-7.53898,-5.78633
-308,-496,0,0,0,0,0,0,0,0,0,-1,916,1520,0,0
-301,-496,0,0,0,0,0,0,0,0,0,-1,923,1520,0,0
-294,-496,0,0,0,0,0,0,0,0,0,-1,930,1520,0,0
-287,-496,0,0,0,0,0,0,0,0,0,-1,937,1520,0,0
-280,-496,0,0,0,0,0,0,0,0,0,-1,944,1520,0,0
-273,-496,0,0,0,0,0,0,0,0,0,-1,951,1520,0,0
-266,-496,0,0,0,0,0,0,0,0,0,-1,958,1520,0,0
-259,-496,0,0,0,0,0,0,0,0,0,-1,965,1520,0,0
-252,-496,0,0,0,0,0,0,0,0,0,-1,972,1520,0,0
-245,-496,0,0,0,0,0,0,0,0,0,-1,979,1520,0,0
-238,-496,0,0,0,0,0,0,0,0,0,-1,986,1520,0,0
-231,-496,0,0,0,0,0,0,0,0,0,-1,993,1520,0,0
-224,-496,0,0,0,0,0,0,0,0,0,-1,1000,1520,0,0
-217,-496,0,0,0,0,0,0,0,0,0,-1,1007,1520,0,0
-210,-496,0,0,0,0,0,0,0,0,0,-1,1014,1520,0,0
-203,-496,0,0,0,0,0,0,0,0,0,-1,1021,1520,0,0
-196,-496,0,0,0,0,0,0,0,0,0,-1,1028,1520,0,0
-189,-496,0,0,0,0,0,0,0,0,0,-1,1035,1520,0,0
-182,-496,0,0,0,0,0,0,0,0,0,-1,1042,1520,0,0
-175,-496,0,0,0,0,0,0,0,0,0,-1,1049,1520,0,0
-168,-496,0,0,0,0,0,0,0,0,0,-1,1056,1520,0,0
-161,-496,0,0,0,0,0,0,0,0,0,-1,1063,1520,0,0
-154,-496,0,0,0,0,0,0,0,0,0,-1,1070,1520,0,0
-147,-496,0,0,0,0,0,0,0,0,0,-1,1077,1520,0,0
-140,-496,0,0,0,0,0,0,0,0,0,-1,1084,1520,0,0
-133,-496,0,0,0,0,0,0,0,0,0,-1,1091,1520,0,0
-126,-496,0,0,0,0,0,0,0,0,0,-1,1098,1520,0,0
-119,-496,0,0,0,0,0,0,0,0,0,-1,1105,1520,0,0
-112,-496,0,0,0,0,0,0,0,0,0,-1,1112,1520,0,0
-105,-496,0,0,0,0,0,0,0,0,0,-1,1119,1520,0,0
-98,-496,0,0,0,0,0,0,0,0,0,-1,1126,1520,0,0
-91,-496,0,0,0,0,0,0,0,0,0,-1,1133,1520,0,0
-84,-496,0,0,0,0,0,0,0,0,0,-1,1140,1520,0,0
-77,-496,0,0,0,0,0,0,0,0,0,-1,1147,1520,0,0
-70,-496,0,0,0,0,0,0,0,0,0,-1,1154,1520,0,0
-63,-496,0,0,0,0,0,0,0,0,0,-1,1161,1520,0,0
-56,-496,0,0,0,0,0,0,0,0,0,-1,1168,1520,0,0
-49,-496,0,0,0,0,0,0,0,0,0,-1,1175,1520,0,0
-42,-496,0,0,0,0,0,0,0,0,0,-1,1182,1520,0,0
-35,-496,0,0,0,0,0,0,0,0,0,-1,1189,1520,0,0
-28,-496,0,0,0,0,0,0,0,0,0,-1,1196,1520,0,0
-21,-496,0,0,0,0,0,0,0,0,0,-1,1203,1520,0,0
-14,-496,0,0,0,0,0,0,0,0,0,-1,1210,1520,0,0
-7,-496,0,0,0,0,0,0,0,0,0,-1,1217,1520,0,0
0,-496,0,0,0,0,0,0,0,0,0,-1,1224,1520,0,0
7,-496,0,0,0,0,0,0,0,0,0,-1,1231,1520,0,0
14,-496,0,0,0,0,0,0,0,0,0,-1,1238,1520,0,0
21,-496,0,0,0,0,0,0,0,0,0,-1,1245,1520,0,0
28,-496,0,0,0,0,0,0,0,0,0,-1,1252,1520,0,0
35,-496,0,0,0,0,0,0,0,0,0,-1,1259,1520,0,0
42,-496,0,0,0,0,0,0,0,0,0,-1,1266,1520,0,0
49,-496,0,0,0,0,0,0,0,0,0,-1,1273,1520,0,0
56,-496,0,0,0,0,0,0,0,0,0,-1,1280,1520,0,0
63,-496,0,0,0,0,0,0,0,0,0,-1,1287,1520,0,0
70,-496,0,0,0,0,0,0,0,0,0,-1,1294,1520,0,0
77,-496,0,0,0,0,0,0,0,0,0,-1,1301,1520,0,0
84,-496,0,0,0,0,0,0,0,0,0,-1,1308,1520,0,0
91,-496,0,0,0,0,0,0,0,0,0,-1,1315,1520,0,0
98,-496,0,0,0,0,0,0,0,0,0,-1,1322,1520,0,0
105,-496,0,0,0,0,0,0,0,0,0,-1,1329,1520,0,0
112,-496,0,0,0,0,0,0,0,0,0,-1,1336,1520,0,0
119,-496,0,0,0,0,0,0,0,0,0,-1,1343,1520,0,0
126,-496,0,0,0,0,0,0,0,0,0,-1,1350,1520,0,0
133,-496,0,0,0,0,0,0,0,0,0,-1,1357,1520,0,0
140,-496,0,0,0,0,0,0,0,0,0,-1,1364,1520,0,0
147,-496,0,0,0,0,0,0,0,0,0,-1,1371,1520,0,0
154,-496,0,0,0,0,0,0,0,0,0,-1,1378,1520,0,0
161,-496,0,0,0,0,0,0,0,0,0,-1,1385,1520,0,0
168,-496,0,0,0,0,0,0,0,0,0,-1,1392,1520,0,0
175,-496,0,0,0,0,0,0,0,0,0,-1,1399,1520,0,0
182,-496,0,0,0,0,0,0,0,0,0,-1,1406,1520,0,0
189,-496,0,0,0,0,0,0,0,0,0,-1,1413,1520,0,0
196,-496,0,0,0,0,0,0,0,0,0,-1,1420,1520,0,0
203,-496,0,0,0,0,0,0,0,0,0,-1,1427,1520,0,0
210,-496,0,0,0,0,0,0,0,0,0,-1,1434,1520,0,0
217,-496,0,0,0,0,0,0,0,0,0,-1,1441,1520,0,0
224,-496,0,0,0,0,0,0,0,0,0,-1,1448,1520,0,0
231,-496,0,0,0,0,0,0,0,0,0,-1,1455,1520,0,0
238,-496,0,0,0,0,0,0,0,0,0,-1,1462,1520,0,0
245,-496,0,0,0,0,0,0,0,0,0,-1,1469,1520,0,0
252,-496,0,0,0,0,0,0,0,0,0,-1,1476,1520,0,0
259,-496,0,0,0,0,0,0,0,0,0,-1,1483,1520,0,0
266,-496,0,0,0,0,0,0,0,0,0,-1,1490,1520,0,0
273,-496,0,0,0,0,0,0,0,0,0,-1,1497,1520,0,0
280,-496,0,0,0,0,0,0,0,0,0,-1,1504,1520,0,0
287,-496,0,0,0,0,0,0,0,0,0,-1,1511,1520,0,0
294,-496,0,0,0,0,0,0,0,0,0,-1,1518,1520,0,0
301,-496,0,0,0,0,0,0,0,0,0,-1,1525,1520,0,0
308,-496,0,0,0,0,0,0,0,0,0,-1,1532,1520,0,0
315,-496,0,0,0,0,0,0,0,0,0,-1,1539,1520,0,0
322,-496,0,0,0,0,0,0,0,0,0,-1,1546,1520,0,0
329,-496,0,0,0,0,0,0,0,0,0,-1,1553,1520,0,0
336,-496,0,0,0,0,0,0,0,0,0,-1,1560,1520,0,0
343,-496,0,0,0,0,0,0,0,0,0,-1,1567,1520,0,0
350,-496,0,0,0,0,0,0,0,0,0,-1,1574,1520,0,0
357,-496,0,0,0,0,0,0,0,0,0,-1,1581,1520,0,0
364,-496,0,0,0,0,0,0,0,0,0,-1,1588,1520,0,0
371,-496,0,0,0,0,0,0,0,0,0,-1,1595,1520,0,0
378,-496,0,0,0,0,0,0,0,0,0,-1,1602,1520,0,0
385,-496,0,0,0,0,0,0,0,0,0,-1,1609,1520,0,0
392,-496,0,0,0,0,0,0,0,0,0,-1,1616,1520,0,0
399,-496,0,0,0,0,0,0,0,0,0,-1,1623,1520,0,0
406,-496,0,0,0,0,0,0,0,0,0,-1,1630,1520,0,0
413,-496,0,0,0,0,0,0,0,0,0,-1,1637,1520,0,0
420,-496,0,0,0,0,0,0,0,0,0,-1,1644,1520,0,0
427,-496,0,0,0,0,0,0,0,0,0,-1,1651,1520,0,0
434,-496,11.0457,3.37732,0,0,0,0,0,0,0,-1,1658,1520,11.0456,-3.37736
441,-496,11.788,2.75488,0,0,0,0,0,0,0,-1,1665,1520,11.7879,-2.75485
448,-496,12.2146,2.18494,0,0,0,0,0,0,0,-1,1672,1520,12.2146,-2.18489
455,-496,12.3489,1.65173,0,0,0,0,0,0,0,-1,1679,1520,12.3489,-1.65178
462,-496,12.1912,1.32361,0,0,0,0,0,0,0,-1,1686,1520,12.1911,-1.32357
469,-496,14.8138,5.77954,0,0,0,0,0,0,0,-1,1693,1520,14.8138,-5.77958
476,-496,15.2449,6.27942,0,0,0,0,0,0,0,-1,1700,1520,15.2449,-6.27936
483,-496,9.19812,6.88367,0,0,0,0,0,0,0,-1,1707,1520,9.19812,-6.88361
490,-496,10.2123,7.97144,0,0,0,0,0,0,0,-1,1714,1520,10.2122,-7.97145
497,-496,13.9297,12.2981,0,0,0,0,0,0,0,-1,1721,1520,13.9297,-12.2982
504,-496,16.3271,16.6501,0,0,0,0,0,0,0,-1,1728,1520,16.3272,-16.6502
511,-496,17.6753,18.0685,0,0,0,0,0,0,0,-1,1735,1520,17.6753,-18.0685
518,-496,17.0537,17.3118,0,0,0,0,0,0,0,-1,1742,1520,17.0538,-17.3118
525,-496,18.2721,19.3259,0,0,0,0,0,0,0,-1,1749,1520,18.2721,-19.3259
532,-496,19.4817,21.9203,0,0,0,0,0,0,0,-1,1756,1520,19.4817,-21.9203
539,-496,19.6879,21.1456,0,0,0,0,0,0,0,-1,1763,1520,19.6878,-21.1457
546,-496,19.7635,20.5983,0.00673861,0.00464081,-0.00403604,0.00985982,0.0015196,-0.658269,0.00612979,0.0150462,1770,1520,19.7635,-20.5983
553,-496,19.8401,20.0439,0.00534388,0.00348996,-0.00301316,0.00756944,0.0012644,-0.636174,0.00468209,0.0164457,1777,1520,19.8401,-20.044
560,-496,19.8511,19.5839,0.00425068,0.00260987,-0.00223636,0.00581237,0.00104818,-0.609595,0.00357708,0.0156526,1784,1520,19.8511,-19.5839
567,-496,19.8448,19.0991,0.00346271,0.00195096,-0.00177186,0.00463319,0.000780478,-0.583786,0.0028643,0.0122218,1791,1520,19.8449,-19.0991
574,-496,19.8273,18.6224,0.00291252,0.0014141,-0.00148604,0.00382753,0.000499091,-0.55191,0.00240266,0.0121325,1798,1520,19.8273,-18.6224
581,-496,19.7986,18.1704,0.00252962,0.000894802,-0.00127818,0.00322941,0.00019501,-0.500915,0.00209097,0.0131137,1805,1520,19.7986,-18.1704
588,-496,19.798,17.6877,0.00241302,0.000443352,-0.00120369,0.00298342,-0.000127053,-0.442535,0.00203262,0.016173,1812,1520,19.7979,-17.6878
595,-496,19.7837,17.2101,0.00262768,-5.73125e-05,-0.00118165,0.00307365,-0.00050328,-0.360881,0.00223582,0.0175272,1819,1520,19.7837,-17.2101
602,-496,19.7646,16.7338,0.00296249,-0.000525483,-0.00122031,0.00334703,-0.000910026,-0.30527,0.00258858,0.018576,1826,1520,19.7647,-16.7338
609,-496,19.7657,16.2288,0.0034668,-0.00110043,-0.00122726,0.00377569,-0.00140931,-0.246567,0.00309574,0.0165891,1833,1520,19.7657,-16.2288
616,-496,19.8252,15.6232,0.00447809,-0.00195767,-0.00111978,0.00466736,-0.00214694,-0.16744,0.00402294,0.0350298,1840,1520,19.8252,-15.6232
623,-496,19.77,14.9359,0,0,0,0,0,0,0,-1,1847,1520,19.77,-14.9359
630,-496,18.5656,13.8966,0,0,0,0,0,0,0,-1,1854,1520,18.5655,-13.8967
637,-496,14.6411,10.1016,0,0,0,0,0,0,0,-1,1861,1520,14.6411,-10.1016
644,-496,12.4537,10.087,0,0,0,0,0,0,0,-1,1868,1520,12.4537,-10.0871
651,-496,8.18506,5.47803,0,0,0,0,0,0,0,-1,1875,1520,8.18505,-5.47806
658,-496,7.79993,4.02563,0,0,0,0,0,0,0,-1,1882,1520,7.79997,-4.02568
665,-496,5.47583,7.90625,0,0,0,0,0,0,0,-1,1889,1520,5.47581,-7.90628
672,-496,0,0,0,0,0,0,0,0,0,-1,1896,1520,0,0
679,-496,0,0,0,0,0,0,0,0,0,-1,1903,1520,0,0
686,-496,0,0,0,0,0,0,0,0,0,-1,1910,1520,0,0
693,-496,0,0,0,0,0,0,0,0,0,-1,1917,1520,0,0
700,-496,0,0,0,0,0,0,0,0,0,-1,1924,1520,0,0
707,-496,0,0,0,0,0,0,0,0,0,-1,1931,1520,0,0
714,-496,0,0,0,0,0,0,0,0,0,-1,1938,1520,0,0
721,-496,0,0,0,0,0,0,0,0,0,-1,1945,1520,0,0
728,-496,0,0,0,0,0,0,0,0,0,-1,1952,1520,0,0
735,-496,0,0,0,0,0,0,0,0,0,-1,1959,1520,0,0
742,-496,0,0,0,0,0,0,0,0,0,-1,1966,1520,0,0
749,-496,0,0,0,0,0,0,0,0,0,-1,1973,1520,0,0
756,-496,0,0,0,0,0,0,0,0,0,-1,1980,1520,0,0
763,-496,0,0,0,0,0,0,0,0,0,-1,1987,1520,0,0
770,-496,0,0,0,0,0,0,0,0,0,-1,1994,1520,0,0
777,-496,0,0,0,0,0,0,0,0,0,-1,2001,1520,0,0
784,-496,0,0,0,0,0,0,0,0,0,-1,2008,1520,0,0
791,-496,0,0,0,0,0,0,0,0,0,-1,2015,1520,0,0
798,-496,0,0,0,0,0,0,0,0,0,-1,2022,1520,0,0
805,-496,0,0,0,0,0,0,0,0,0,-1,2029,1520,0,0
812,-496,0,0,0,0,0,0,0,0,0,-1,2036,1520,0,0
-700,-503,0,0,0,0,0,0,0,0,0,-1,524,1527,0,0
-693,-503,0,0,0,0,0,0,0,0,0,-1,531,1527,0,0
-686,-503,0,0,0,0,0,0,0,0,0,-1,538,1527,0,0
-679,-503,0,0,0,0,0,0,0,0,0,-1,545,1527,0,0
-672,-503,0,0,0,0,0,0,0,0,0,-1,552,1527,0,0
-665,-503,0,0,0,0,0,0,0,0,0,-1,559,1527,0,0
-658,-503,0,0,0,0,0,0,0,0,0,-1,566,1527,0,0
-651,-503,0,0,0,0,0,0,0,0,0,-1,573,1527,0,0
-644,-503,0,0,0,0,0,0,0,0,0,-1,580,1527,0,0
-637,-503,0,0,0,0,0,0,0,0,0,-1,587,1527,0,0
-630,-503,0,0,0,0,0,0,0,0,0,-1,594,1527,0,0
-623,-503,0,0,0,0,0,0,0,0,0,-1,601,1527,0,0
-616,-503,0,0,0,0,0,0,0,0,0,-1,608,1527,0,0
-609,-503,0,0,0,0,0,0,0,0,0,-1,615,1527,0,0
-602,-503,0,0,0,0,0,0,0,0,0,-1,622,1527,0,0
-595,-503,0,0,0,0,0,0,0,0,0,-1,629,1527,0,0
-588,-503,0,0,0,0,0,0,0,0,0,-1,636,1527,0,0
-581,-503,0,0,0,0,0,0,0,0,0,-1,643,1527,0,0
-574,-503,0,0,0,0,0,0,0,0,0,-1,650,1527,0,0
-567,-503,0,0,0,0,0,0,0,0,0,-1,657,1527,0,0
-560,-503,0,0,0,0,0,0,0,0,0,-1,664,1527,0,0
-553,-503,0,0,0,0,0,0,0,0,0,-1,671,1527,0,0
-546,-503,0,0,0,0,0,0,0,0,0,-1,678,1527,0,0
-539,-503,3.50177,4.26428,0,0,0,0,0,0,0,-1,685,1527,3.50177,-4.26424
-532,-503,-3.13196,1.05298,0,0,0,0,0,0,0,-1,692,1527,-3.13194,-1.05299
-525,-503,-2.94293,2.59314,0,0,0,0,0,0,0,-1,699,1527,-2.94296,-2.59314
-518,-503,-2.7395,4.05872,0,0,0,0,0,0,0,-1,706,1527,-2.73948,-4.05871
-511,-503,-1.60022,7.23877,0,0,0,0,0,0,0,-1,713,1527,-1.60023,-7.23872
-504,-503,-8.1402,10.1541,0,0,0,0,0,0,0,-1,720,1527,-8.14017,-10.1541
-497,-503,-4.16711,13.6923,0,0,0,0,0,0,0,-1,727,1527,-4.16714,-13.6923
-490,-503,-4.073,14.0669,0.0115836,-0.0107646,-0.00695112,0.0135692,-0.0127503,-0.278246,0.015198,0.0491677,734,1527,-4.07299,-14.0669
-483,-503,-4.08423,14.4053,0.00750111,-0.00841344,-0.00585043,0.00942036,-0.0103327,-0.31699,0.0114085,0.0474954,741,1527,-4.08421,-14.4053
-476,-503,-4.14899,14.7666,0.00478351,-0.00629763,-0.00460121,0.00644496,-0.00795907,-0.346519,0.00833147,0.0251568,748,1527,-4.14897,-14.7666
-469,-503,-4.24365,15.2189,0.00304582,-0.0044309,-0.00338493,0.00435058,-0.00573566,-0.367911,0.00584157,0.0108145,755,1527,-4.24367,-15.2189
-462,-503,-4.27795,15.746,0.0021189,-0.00282737,-0.00218636,0.00294675,-0.00365523,-0.361964,0.00381896,0.0116098,762,1527,-4.27798,-15.7459
-455,-503,-4.27911,16.2776,0.00176172,-0.00147648,-0.00106,0.00207784,-0.00179261,-0.289832,0.00223663,0.0182387,769,1527,-4.27914,-16.2776
-448,-503,-4.26324,16.8003,0.00193646,-0.000271145,2.36901e-05,0.00193671,-0.0002714,0.0107295,0.00139046,0.0174995,776,1527,-4.26322,-16.8003
-441,-503,-4.26483,17.2947,0.0025161,0.000887645,0.00122548,0.00317318,0.00023056,0.492177,0.00204294,0.0138148,783,1527,-4.26482,-17.2947
-434,-503,-4.31409,17.8168,0.00326729,0.00217958,0.00250827,0.00528999,0.000156881,0.678639,0.00347555,0.0115316,790,1527,-4.31406,-17.8168
-427,-503,-4.36011,18.2971,0.00463319,0.0034704,0.00393343,0.00802797,7.56253e-05,0.712025,0.00532695,0.0176647,797,1527,-4.36009,-18.2972
-420,-503,-4.36188,18.8018,0.00621489,0.0048737,0.00545646,0.0110418,4.67775e-05,0.724255,0.00734566,0.0186984,804,1527,-4.36188,-18.8018
-413,-503,-4.36127,19.3372,0.00791148,0.00647473,0.00725655,0.0144851,-9.89162e-05,0.736061,0.00968989,0.0163235,811,1527,-4.36129,-19.3372
-406,-503,-4.31805,19.8711,0.00975875,0.00853886,0.00928477,0.0184536,-0.000155983,0.752599,0.0123547,0.0241246,818,1527,-4.31804,-19.8711
-399,-503,-4.18207,20.5734,0.0118793,0.0122685,0.0115513,0.0236269,0.000520927,0.79382,0.0155805,0.0401925,825,1527,-4.18204,-20.5733
-392,-503,-3.87598,21.4795,0,0,0,0,0,0,0,-1,832,1527,-3.87601,-21.4795
-385,-503,-2.00403,14.1218,0,0,0,0,0,0,0,-1,839,1527,-2.00403,-14.1218
-378,-503,-2.07043,13.8632,0,0,0,0,0,0,0,-1,846,1527,-2.07043,-13.8631
-371,-503,-1.67285,13.8081,0,0,0,0,0,0,0,-1,853,1527,-1.67285,-13.8081
-364,-503,0.181396,12.3768,0,0,0,0,0,0,0,-1,860,1527,0.18138,-12.3768
-357,-503,0.558533,9.25452,0,0,0,0,0,0,0,-1,867,1527,0.558542,-9.25446
-350,-503,0.219971,6.84827,0,0,0,0,0,0,0,-1,874,1527,0.21996,-6.84831
-343,-503,-3.5802,4.43274,0,0,0,0,0,0,0,-1,881,1527,-3.58018,-4.43276
-336,-503,-3.2384,6.40637,0,0,0,0,0,0,0,-1,888,1527,-3.2384,-6.40643
-329,-503,-1.70691,11.886,0,0,0,0,0,0,0,-1,895,1527,-1.70689,-11.886
-322,-503,-3.31317,8.81519,0,0,0,0,0,0,0,-1,902,1527,-3.31315,-8.81524
-315,-503,-3.90265,7.73853,0,0,0,0,0,0,0,-1,909,1527,-3.90264,-7.73854
-308,-503,-1.70264,7.35413,0,0,0,0,0,0,0,-1,916,1527,-1.70262,-7.35416
-301,-503,0,0,0,0,0,0,0,0,0,-1,923,1527,0,0
-294,-503,0,0,0,0,0,0,0,0,0,-1,930,1527,0,0
-287,-503,0,0,0,0,0,0,0,0,0,-1,937,1527,0,0
-280,-503,0,0,0,0,0,0,0,0,0,-1,944,1527,0,0
-273,-503,0,0,0,0,0,0,0,0,0,-1,951,1527,0,0
-266,-503,0,0,0,0,0,0,0,0,0,-1,958,1527,0,0
-259,-503,0,0,0,0,0,0,0,0,0,-1,965,1527,0,0
-252,-503,0,0,0,0,0,0,0,0,0,-1,972,1527,0,0
-245,-503,0,0,0,0,0,0,0,0,0,-1,979,1527,0,0
-238,-503,0,0,0,0,0,0,0,0,0,-1,986,1527,0,0
-231,-503,0,0,0,0,0,0,0,0,0,-1,993,1527,0,0
-224,-503,0,0,0,0,0,0,0,0,0,-1,1000,1527,0,0
-217,-503,0,0,0,0,0,0,0,0,0,-1,1007,1527,0,0
-210,-503,0,0,0,0,0,0,0,0,0,-1,1014,1527,0,0
-203,-503,0,0,0,0,0,0,0,0,0,-1,1021,1527,0,0
-196,-503,0,0,0,0,0,0,0,0,0,-1,1028,1527,0,0
-189,-503,0,0,0,0,0,0,0,0,0,-1,1035,1527,0,0
-182,-503,0,0,0,0,0,0,0,0,0,-1,1042,1527,0,0
-175,-503,0,0,0,0,0,0,0,0,0,-1,1049,1527,0,0
-168,-503,0,0,0,0,0,0,0,0,0,-1,1056,1527,0,0
-161,-503,0,0,0,0,0,0,0,0,0,-1,1063,1527,0,0
-154,-503,0,0,0,0,0,0,0,0,0,-1,1070,1527,0,0
-147,-503,0,0,0,0,0,0,0,0,0,-1,1077,1527,0,0
-140,-503,0,0,0,0,0,0,0,0,0,-1,1084,1527,0,0
-133,-503,0,0,0,0,0,0,0,0,0,-1,1091,1527,0,0
-126,-503,0,0,0,0,0,0,0,0,0,-1,1098,1527,0,0
-119,-503,0,0,0,0,0,0,0,0,0,-1,1105,1527,0,0
-112,-503,0,0,0,0,0,0,0,0,0,-1,1112,1527,0,0
-105,-503,0,0,0,0,0,0,0,0,0,-1,1119,1527,0,0
-98,-503,0,0,0,0,0,0,0,0,0,-1,1126,1527,0,0
-91,-503,0,0,0,0,0,0,0,0,0,-1,1133,1527,0,0
-84,-503,0,0,0,0,0,0,0,0,0,-1,1140,1527,0,0
-77,-503,0,0,0,0,0,0,0,0,0,-1,1147,1527,0,0
-70,-503,0,0,0,0,0,0,0,0,0,-1,1154,1527,0,0
-63,-503,0,0,0,0,0,0,0,0,0,-1,1161,1527,0,0
-56,-503,0,0,0,0,0,0,0,0,0,-1,1168,1527,0,0
-49,-503,0,0,0,0,0,0,0,0,0,-1,1175,1527,0,0
-42,-503,0,0,0,0,0,0,0,0,0,-1,1182,1527,0,0
-35,-503,0,0,0,0,0,0,0,0,0,-1,1189,1527,0,0
-28,-503,0,0,0,0,0,0,0,0,0,-1,1196,1527,0,0
-21,-503,0,0,0,0,0,0,0,0,0,-1,1203,1527,0,0
-14,-503,0,0,0,0,0,0,0,0,0,-1,1210,1527,0,0
-7,-503,0,0,0,0,0,0,0,0,0,-1,1217,1527,0,0
0,-503,0,0,0,0,0,0,0,0,0,-1,1224,1527,0,0
7,-503,0,0,0,0,0,0,0,0,0,-1,1231,1527,0,0
14,-503,0,0,0,0,0,0,0,0,0,-1,1238,1527,0,0
21,-503,0,0,0,0,0,0,0,0,0,-1,1245,1527,0,0
28,-503,0,0,0,0,0,0,0,0,0,-1,1252,1527,0,0
35,-503,0,0,0,0,0,0,0,0,0,-1,1259,1527,0,0
42,-503,0,0,0,0,0,0,0,0,0,-1,1266,1527,0,0
49,-503,0,0,0,0,0,0,0,0,0,-1,1273,1527,0,0
56,-503,0,0,0,0,0,0,0,0,0,-1,1280,1527,0,0
63,-503,0,0,0,0,0,0,0,0,0,-1,1287,1527,0,0
70,-503,0,0,0,0,0,0,0,0,0,-1,1294,1527,0,0
77,-503,0,0,0,0,0,0,0,0,0,-1,1301,1527,0,0
84,-503,0,0,0,0,0,0,0,0,0,-1,1308,1527,0,0
91,-503,0,0,0,0,0,0,0,0,0,-1,1315,1527,0,0
98,-503,0,0,0,0,0,0,0,0,0,-1,1322,1527,0,0
105,-503,0,0,0,0,0,0,0,0,0,-1,1329,1527,0,0
112,-503,0,0,0,0,0,0,0,0,0,-1,1336,1527,0,0
119,-503,0,0,0,0,0,0,0,0,0,-1,1343,1527,0,0
126,-503,0,0,0,0,0,0,0,0,0,-1,1350,1527,0,0
133,-503,0,0,0,0,0,0,0,0,0,-1,1357,1527,0,0
140,-503,0,0,0,0,0,0,0,0,0,-1,1364,1527,0,0
147,-503,0,0,0,0,0,0,0,0,0,-1,1371,1527,0,0
154,-503,0,0,0,0,0,0,0,0,0,-1,1378,1527,0,0
161,-503,0,0,0,0,0,0,0,0,0,-1,1385,1527,0,0
168,-503,0,0,0,0,0,0,0,0,0,-1,1392,1527,0,0
175,-503,0,0,0,0,0,0,0,0,0,-1,1399,1527,0,0
182,-503,0,0,0,0,0,0,0,0,0,-1,1406,1527,0,0
189,-503,0,0,0,0,0,0,0,0,0,-1,1413,1527,0,0
196,-503,0,0,0,0,0,0,0,0,0,-1,1420,1527,0,0
203,-503,0,0,0,0,0,0,0,0,0,-1,1427,1527,0,0
210,-503,0,0,0,0,0,0,0,0,0,-1,1434,1527,0,0
217,-503,0,0,0,0,0,0,0,0,0,-1,1441,1527,0,0
224,-503,0,0,0,0,0,0,0,0,0,-1,1448,1527,0,0
231,-503,0,0,0,0,0,0,0,0,0,-1,1455,1527,0,0
238,-503,0,0,0,0,0,0,0,0,0,-1,1462,1527,0,0
245,-503,0,0,0,0,0,0,0,0,0,-1,1469,1527,0,0
252,-503,0,0,0,0,0,0,0,0,0,-1,1476,1527,0,0
259,-503,0,0,0,0,0,0,0,0,0,-1,1483,1527,0,0
266,-503,0,0,0,0,0,0,0,0,0,-1,1490,1527,0,0
273,-503,0,0,0,0,0,0,0,0,0,-1,1497,1527,0,0
280,-503,0,0,0,0,0,0,0,0,0,-1,1504,1527,0,0
287,-503,0,0,0,0,0,0,0,0,0,-1,1511,1527,0,0
294,-503,0,0,0,0,0,0,0,0,0,-1,1518,1527,0,0
301,-503,0,0,0,0,0,0,0,0,0,-1,1525,1527,0,0
308,-503,0,0,0,0,0,0,0,0,0,-1,1532,1527,0,0
315,-503,0,0,0,0,0,0,0,0,0,-1,1539,1527,0,0
322,-503,0,0,0,0,0,0,0,0,0,-1,1546,1527,0,0
329,-503,0,0,0,0,0,0,0,0,0,-1,1553,1527,0,0
336,-503,0,0,0,0,0,0,0,0,0,-1,1560,1527,0,0
343,-503,0,0,0,0,0,0,0,0,0,-1,1567,1527,0,0
350,-503,0,0,0,0,0,0,0,0,0,-1,1574,1527,0,0
357,-503,0,0,0,0,0,0,0,0,0,-1,1581,1527,0,0
364,-503,0,0,0,0,0,0,0,0,0,-1,1588,1527,0,0
371,-503,0,0,0,0,0,0,0,0,0,-1,1595,1527,0,0
378,-503,0,0,0,0,0,0,0,0,0,-1,1602,1527,0,0
385,-503,0,0,0,0,0,0,0,0,0,-1,1609,1527,0,0
392,-503,0,0,0,0,0,0,0,0,0,-1,1616,1527,0,0
399,-503,0,0,0,0,0,0,0,0,0,-1,1623,1527,0,0
406,-503,0,0,0,0,0,0,0,0,0,-1,1630,1527,0,0
413,-503,0,0,0,0,0,0,0,0,0,-1,1637,1527,0,0
420,-503,0,0,0,0,0,0,0,0,0,-1,1644,1527,0,0
427,-503,10.5968,4.9856,0,0,0,0,0,0,0,-1,1651,1527,10.5969,-4.98563
434,-503,11.4329,3.97217,0,0,0,0,0,0,0,-1,1658,1527,11.4328,-3.97222
441,-503,12.0957,2.96509,0,0,0,0,0,0,0,-1,1665,1527,12.0957,-2.96512
448,-503,12.3259,2.53894,0,0,0,0,0,0,0,-1,1672,1527,12.326,-2.53895
455,-503,12.1669,2.18762,0,0,0,0,0,0,0,-1,1679,1527,12.1668,-2.18767
462,-503,11.59,2.60791,0,0,0,0,0,0,0,-1,1686,1527,11.5899,-2.60794
469,-503,11.1625,1.61853,0,0,0,0,0,0,0,-1,1693,1527,11.1625,-1.61856
476,-503,9.07703,5.81042,0,0,0,0,0,0,0,-1,1700,1527,9.07699,-5.81047
483,-503,9.74414,6.92432,0,0,0,0,0,0,0,-1,1707,1527,9.74417,-6.9243
490,-503,10.5033,10.1071,0,0,0,0,0,0,0,-1,1714,1527,10.5032,-10.107
497,-503,15.0057,17.9476,0,0,0,0,0,0,0,-1,1721,1527,15.0058,-17.9476
504,-503,16.4764,18.4486,0,0,0,0,0,0,0,-1,1728,1527,16.4764,-18.4486
511,-503,16.8276,18.3271,0,0,0,0,0,0,0,-1,1735,1527,16.8276,-18.3272
518,-503,17.2533,18.2738,0,0,0,0,0,0,0,-1,1742,1527,17.2533,-18.2738
525,-503,18.5774,22.2906,0,0,0,0,0,0,0,-1,1749,1527,18.5773,-22.2906
532,-503,19.1912,21.6547,0.00905449,0.00678071,-0.00603707,0.0140608,0.00177441,-0.692329,0.00884194,0.038913,1756,1527,19.1911,-21.6547
539,-503,19.3204,21.0745,0.0071328,0.00523281,-0.00458978,0.0108699,0.00149574,-0.683349,0.00680303,0.02005,1763,1527,19.3204,-21.0745
546,-503,19.3494,20.5342,0.00563221,0.00401747,-0.00344472,0.00836291,0.00128677,-0.670287,0.0051997,0.0126523,1770,1527,19.3494,-20.5342
553,-503,19.3848,20.0675,0.00445603,0.00297694,-0.0025472,0.00636887,0.00106409,-0.644114,0.00393942,0.0146078,1777,1527,19.3848,-20.0676
560,-503,19.3668,19.592,0.00355877,0.00218031,-0.00187246,0.00486482,0.000874257,-0.609049,0.00299464,0.0145577,1784,1527,19.3669,-19.5921
567,-503,19.368,19.099,0.00297097,0.00158201,-0.00150581,0.00393473,0.000618246,-0.569335,0.00244329,0.0129391,1791,1527,19.3681,-19.099
574,-503,19.3577,18.632,0.00260591,0.00112611,-0.00130814,0.0033689,0.000363117,-0.528023,0.00213521,0.0128902,1798,1527,19.3576,-18.6319
581,-503,19.3042,18.1832,0.00242627,0.000704614,-0.00121392,0.0030536,7.72813e-05,-0.476984,0.00201047,0.0139581,1805,1527,19.3042,-18.1833
588,-503,19.2904,17.7129,0.00253753,0.000392069,-0.00130802,0.00315645,-0.00022685,-0.441955,0.00218385,0.017342,1812,1527,19.2904,-17.7129
595,-503,19.2921,17.2275,0.00296142,2.48602e-05,-0.00145421,0.00355968,-0.000573397,-0.390292,0.00258554,0.0135512,1819,1527,19.2921,-17.2275
602,-503,19.3345,16.696,0.00352992,-0.000292669,-0.00168104,0.004164,-0.000926749,-0.360695,0.00313097,0.0256595,1826,1527,19.3345,-16.696
609,-503,19.3531,16.2095,0,0,0,0,0,0,0,-1,1833,1527,19.3532,-16.2095
616,-503,19.1875,16.0566,0,0,0,0,0,0,0,-1,1840,1527,19.1876,-16.0566
623,-503,18.7351,15.5999,0,0,0,0,0,0,0,-1,1847,1527,18.7351,-15.5999
630,-503,20.6721,13.9077,0,0,0,0,0,0,0,-1,1854,1527,20.6721,-13.9077
637,-503,14.5564,9.20496,0,0,0,0,0,0,0,-1,1861,1527,14.5564,-9.2049
644,-503,11.4802,7.57214,0,0,0,0,0,0,0,-1,1868,1527,11.4802,-7.57215
651,-503,11.5718,6.5448,0,0,0,0,0,0,0,-1,1875,1527,11.5718,-6.54476
658,-503,8.25635,3.10498,0,0,0,0,0,0,0,-1,1882,1527,8.2563,-3.10493
665,-503,0,0,0,0,0,0,0,0,0,-1,1889,1527,0,0
672,-503,0,0,0,0,0,0,0,0,0,-1,1896,1527,0,0
679,-503,0,0,0,0,0,0,0,0,0,-1,1903,1527,0,0
686,-503,0,0,0,0,0,0,0,0,0,-1,1910,1527,0,0
693,-503,0,0,0,0,0,0,0,0,0,-1,1917,1527,0,0
700,-503,0,0,0,0,0,0,0,0,0,-1,1924,1527,0,0
707,-503,0,0,0,0,0,0,0,0,0,-1,1931,1527,0,0
714,-503,0,0,0,0,0,0,0,0,0,-1,1938,1527,0,0
721,-503,0,0,0,0,0,0,0,0,0,-1,1945,1527,0,0
728,-503,0,0,0,0,0,0,0,0,0,-1,1952,1527,0,0
735,-503,0,0,0,0,0,0,0,0,0,-1,1959,1527,0,0
742,-503,0,0,0,0,0,0,0,0,0,-1,1966,1527,0,0
749,-503,0,0,0,0,0,0,0,0,0,-1,1973,1527,0,0
756,-503,0,0,0,0,0,0,0,0,0,-1,1980,1527,0,0
763,-503,0,0,0,0,0,0,0,0,0,-1,1987,1527,0,0
770,-503,0,0,0,0,0,0,0,0,0,-1,1994,1527,0,0
777,-503,0,0,0,0,0,0,0,0,0,-1,2001,1527,0,0
784,-503,0,0,0,0,0,0,0,0,0,-1,2008,1527,0,0
791,-503,0,0,0,0,0,0,0,0,0,-1,2015,1527,0,0
798,-503,0,0,0,0,0,0,0,0,0,-1,2022,1527,0,0
805,-503,0,0,0,0,0,0,0,0,0,-1,2029,1527,0,0
812,-503,0,0,0,0,0,0,0,0,0,-1,2036,1527,0,0
-700,-510,0,0,0,0,0,0,0,0,0,-1,524,1534,0,0
-693,-510,0,0,0,0,0,0,0,0,0,-1,531,1534,0,0
-686,-510,0,0,0,0,0,0,0,0,0,-1,538,1534,0,0
-679,-510,0,0,0,0,0,0,0,0,0,-1,545,1534,0,0
-672,-510,0,0,0,0,0,0,0,0,0,-1,552,1534,0,0
-665,-510,0,0,0,0,0,0,0,0,0,-1,559,1534,0,0
-658,-510,0,0,0,0,0,0,0,0,0,-1,566,1534,0,0
-651,-510,0,0,0,0,0,0,0,0,0,-1,573,1534,0,0
-644,-510,0,0,0,0,0,0,0,0,0,-1,580,1534,0,0
-637,-510,0,0,0,0,0,0,0,0,0,-1,587,1534,0,0
-630,-510,0,0,0,0,0,0,0,0,0,-1,594,1534,0,0
-623,-510,0,0,0,0,0,0,0,0,0,-1,601,1534,0,0
-616,-510,0,0,0,0,0,0,0,0,0,-1,608,1534,0,0
-609,-510,0,0,0,0,0,0,0,0,0,-1,615,1534,0,0
-602,-510,0,0,0,0,0,0,0,0,0,-1,622,1534,0,0
-595,-510,0,0,0,0,0,0,0,0,0,-1,629,1534,0,0
-588,-510,0,0,0,0,0,0,0,0,0,-1,636,1534,0,0
-581,-510,0,0,0,0,0,0,0,0,0,-1,643,1534,0,0
-574,-510,0,0,0,0,0,0,0,0,0,-1,650,1534,0,0
-567,-510,0,0,0,0,0,0,0,0,0,-1,657,1534,0,0
-560,-510,0,0,0,0,0,0,0,0,0,-1,664,1534,0,0
-553,-510,0,0,0,0,0,0,0,0,0,-1,671,1534,0,0
-546,-510,0,0,0,0,0,0,0,0,0,-1,678,1534,0,0
-539,-510,0,0,0,0,0,0,0,0,0,-1,685,1534,0,0
-532,-510,-3.95129,4.52014,0,0,0,0,0,0,0,-1,692,1534,-3.95131,-4.5202
-525,-510,-2.77411,0.316772,0,0,0,0,0,0,0,-1,699,1534,-2.77409,-0.3168
-518,-510,-2.86847,2.71423,0,0,0,0,0,0,0,-1,706,1534,-2.86849,-2.71424
-511,-510,-2.28571,4.48083,0,0,0,0,0,0,0,-1,713,1534,-2.28571,-4.48086
-504,-510,-4.86731,10.8224,0,0,0,0,0,0,0,-1,720,1534,-4.8673,-10.8224
-497,-510,-3.77045,14.0226,0,0,0,0,0,0,0,-1,727,1534,-3.77045,-14.0225
-490,-510,-3.76691,14.3158,0.0168748,-0.0119288,-0.00863812,0.0192667,-0.0143207,-0.270134,0.0194617,0.0433299,734,1534,-3.76692,-14.3159
-483,-510,-3.49451,14.668,0.0109358,-0.00900651,-0.00703995,0.0131706,-0.0112413,-0.307381,0.0141089,0.0421603,741,1534,-3.49452,-14.6679
-476,-510,-3.45911,14.76,0.00686723,-0.00652796,-0.00549703,0.00883422,-0.00849495,-0.343632,0.0100056,0.0373744,748,1534,-3.45912,-14.76
-469,-510,-3.71716,15.2518,0.00412276,-0.00446754,-0.00415117,0.00580093,-0.0061457,-0.384177,0.00689835,0.0145195,755,1534,-3.71715,-15.2519
-462,-510,-3.74658,15.7524,0.00247709,-0.00280294,-0.00290962,0.00376588,-0.00409173,-0.41697,0.0045379,0.0117309,762,1534,-3.74655,-15.7525
-455,-510,-3.755,16.2996,0.00158044,-0.00147799,-0.00180697,0.00241843,-0.00231598,-0.434231,0.00273362,0.0143914,769,1534,-3.75502,-16.2996
-448,-510,-3.73761,16.8248,0.00131627,-0.00040301,-0.000819934,0.0016446,-0.000731341,-0.380881,0.00140512,0.0133004,776,1534,-3.73761,-16.8248
-441,-510,-3.75372,17.311,0.00153769,0.000577845,0.000238262,0.00159358,0.000521955,0.230406,0.000938117,0.0138748,783,1534,-3.75371,-17.3111
-434,-510,-3.79541,17.8226,0.00182818,0.001731,0.00136042,0.00314088,0.000418306,0.767548,0.00196935,0.0149117,790,1534,-3.7954,-17.8226
-427,-510,-3.82928,18.3202,0.00289525,0.00274867,0.00268614,0.0055091,0.000134813,0.771759,0.00362863,0.0220481,797,1534,-3.8293,-18.3202
-420,-510,-3.85114,18.824,0.00432099,0.00397987,0.00394701,0.00810113,0.000199733,0.763806,0.00533542,0.0218229,804,1534,-3.85111,-18.8239
-413,-510,-3.85828,19.3573,0.00581223,0.00539382,0.00544494,0.011052,0.000154069,0.766196,0.00731717,0.0114865,811,1534,-3.85829,-19.3573
-406,-510,-3.86792,19.8484,0.00736227,0.0072,0.00715994,0.0144415,0.000120731,0.779732,0.0095877,0.0110726,818,1534,-3.86789,-19.8484
-399,-510,-3.87665,20.3455,0.00903767,0.0103374,0.00898406,0.0186951,0.000680002,0.821503,0.012243,0.0145702,825,1534,-3.87664,-20.3455
-392,-510,-3.71973,21.0713,0.0103589,0.0139489,0.0105713,0.0228765,0.00143131,0.869496,0.014797,0.0420024,832,1534,-3.71973,-21.0712
-385,-510,-3.58405,21.8939,0,0,0,0,0,0,0,-1,839,1534,-3.58403,-21.8939
-378,-510,-1.78308,13.8044,0,0,0,0,0,0,0,-1,846,1534,-1.78309,-13.8044
-371,-510,-1.74982,13.8027,0,0,0,0,0,0,0,-1,853,1534,-1.74981,-13.8028
-364,-510,-1.3479,13.7771,0,0,0,0,0,0,0,-1,860,1534,-1.34791,-13.7771
-357,-510,-0.254395,8.89575,0,0,0,0,0,0,0,-1,867,1534,-0.254397,-8.89569
-350,-510,0.471191,6.06458,0,0,0,0,0,0,0,-1,874,1534,0.47118,-6.06453
-343,-510,-2.94617,5.00989,0,0,0,0,0,0,0,-1,881,1534,-2.94615,-5.00992
-336,-510,-5.61511,25.2233,0,0,0,0,0,0,0,-1,888,1534,-5.61513,-25.2232
-329,-510,-4.87781,20.6893,0,0,0,0,0,0,0,-1,895,1534,-4.87782,-20.6894
-322,-510,-0.251526,11.973,0,0,0,0,0,0,0,-1,902,1534,-0.251497,-11.9731
-315,-510,-1.73047,10.9796,0,0,0,0,0,0,0,-1,909,1534,-1.73049,-10.9796
-308,-510,-2.05328,9.72034,0,0,0,0,0,0,0,-1,916,1534,-2.05327,-9.72036
-301,-510,-1.85437,11.5869,0,0,0,0,0,0,0,-1,923,1534,-1.85437,-11.5869
-294,-510,0,0,0,0,0,0,0,0,0,-1,930,1534,0,0
-287,-510,0,0,0,0,0,0,0,0,0,-1,937,1534,0,0
-280,-510,0,0,0,0,0,0,0,0,0,-1,944,1534,0,0
-273,-510,0,0,0,0,0,0,0,0,0,-1,951,1534,0,0
-266,-510,0,0,0,0,0,0,0,0,0,-1,958,1534,0,0
-259,-510,0,0,0,0,0,0,0,0,0,-1,965,1534,0,0
-252,-510,0,0,0,0,0,0,0,0,0,-1,972,1534,0,0
-245,-510,0,0,0,0,0,0,0,0,0,-1,979,1534,0,0
-238,-510,0,0,0,0,0,0,0,0,0,-1,986,1534,0,0
-231,-510,0,0,0,0,0,0,0,0,0,-1,993,1534,0,0
-224,-510,0,0,0,0,0,0,0,0,0,-1,1000,1534,0,0
-217,-510,0,0,0,0,0,0,0,0,0,-1,1007,1534,0,0
-210,-510,0,0,0,0,0,0,0,0,0,-1,1014,1534,0,0
-203,-510,0,0,0,0,0,0,0,0,0,-1,1021,1534,0,0
-196,-510,0,0,0,0,0,0,0,0,0,-1,1028,1534,0,0
-189,-510,0,0,0,0,0,0,0,0,0,-1,1035,1534,0,0
-182,-510,0,0,0,0,0,0,0,0,0,-1,1042,1534,0,0
-175,-510,0,0,0,0,0,0,0,0,0,-1,1049,1534,0,0
-168,-510,0,0,0,0,0,0,0,0,0,-1,1056,1534,0,0
-161,-510,0,0,0,0,0,0,0,0,0,-1,1063,1534,0,0
-154,-510,0,0,0,0,0,0,0,0,0,-1,1070,1534,0,0
-147,-510,0,0,0,0,0,0,0,0,0,-1,1077,1534,0,0
-140,-510,0,0,0,0,0,0,0,0,0,-1,1084,1534,0,0
-133,-510,0,0,0,0,0,0,0,0,0,-1,1091,1534,0,0
-126,-510,0,0,0,0,0,0,0,0,0,-1,1098,1534,0,0
-119,-510,0,0,0,0,0,0,0,0,0,-1,1105,1534,0,0
-112,-510,0,0,0,0,0,0,0,0,0,-1,1112,1534,0,0
-105,-510,0,0,0,0,0,0,0,0,0,-1,1119,1534,0,0
-98,-510,0,0,0,0,0,0,0,0,0,-1,1126,1534,0,0
-91,-510,0,0,0,0,0,0,0,0,0,-1,1133,1534,0,0
-84,-510,0,0,0,0,0,0,0,0,0,-1,1140,1534,0,0
-77,-510,0,0,0,0,0,0,0,0,0,-1,1147,1534,0,0
-70,-510,0,0,0,0,0,0,0,0,0,-1,1154,1534,0,0
-63,-510,0,0,0,0,0,0,0,0,0,-1,1161,1534,0,0
-56,-510,0,0,0,0,0,0,0,0,0,-1,1168,1534,0,0
-49,-510,0,0,0,0,0,0,0,0,0,-1,1175,1534,0,0
-42,-510,0,0,0,0,0,0,0,0,0,-1,1182,1534,0,0
-35,-510,0,0,0,0,0,0,0,0,0,-1,1189,1534,0,0
-28,-510,0,0,0,0,0,0,0,0,0,-1,1196,1534,0,0
-21,-510,0,0,0,0,0,0,0,0,0,-1,1203,1534,0,0
-14,-510,0,0,0,0,0,0,0,0,0,-1,1210,1534,0,0
-7,-510,0,0,0,0,0,0,0,0,0,-1,1217,1534,0,0
0,-510,0,0,0,0,0,0,0,0,0,-1,1224,1534,0,0
7,-510,0,0,0,0,0,0,0,0,0,-1,1231,1534,0,0
14,-510,0,0,0,0,0,0,0,0,0,-1,1238,1534,0,0
21,-510,0,0,0,0,0,0,0,0,0,-1,1245,1534,0,0
28,-510,0,0,0,0,0,0,0,0,0,-1,1252,1534,0,0
35,-510,0,0,0,0,0,0,0,0,0,-1,1259,1534,0,0
42,-510,0,0,0,0,0,0,0,0,0,-1,1266,1534,0,0
49,-510,0,0,0,0,0,0,0,0,0,-1,1273,1534,0,0
56,-510,0,0,0,0,0,0,0,0,0,-1,1280,1534,0,0
63,-510,0,0,0,0,0,0,0,0,0,-1,1287,1534,0,0
70,-510,0,0,0,0,0,0,0,0,0,-1,1294,1534,0,0
77,-510,0,0,0,0,0,0,0,0,0,-1,1301,1534,0,0
84,-510,0,0,0,0,0,0,0,0,0,-1,1308,1534,0,0
91,-510,0,0,0,0,0,0,0,0,0,-1,1315,1534,0,0
98,-510,0,0,0,0,0,0,0,0,0,-1,1322,1534,0,0
105,-510,0,0,0,0,0,0,0,0,0,-1,1329,1534,0,0
112,-510,0,0,0,0,0,0,0,0,0,-1,1336,1534,0,0
119,-510,0,0,0,0,0,0,0,0,0,-1,1343,1534,0,0
126,-510,0,0,0,0,0,0,0,0,0,-1,1350,1534,0,0
133,-510,0,0,0,0,0,0,0,0,0,-1,1357,1534,0,0
140,-510,0,0,0,0,0,0,0,0,0,-1,1364,1534,0,0
147,-510,0,0,0,0,0,0,0,0,0,-1,1371,1534,0,0
154,-510,0,0,0,0,0,0,0,0,0,-1,1378,1534,0,0
161,-510,0,0,0,0,0,0,0,0,0,-1,1385,1534,0,0
168,-510,0,0,0,0,0,0,0,0,0,-1,1392,1534,0,0
175,-510,0,0,0,0,0,0,0,0,0,-1,1399,1534,0,0
182,-510,0,0,0,0,0,0,0,0,0,-1,1406,1534,0,0
189,-510,0,0,0,0,0,0,0,0,0,-1,1413,1534,0,0
196,-510,0,0,0,0,0,0,0,0,0,-1,1420,1534,0,0
203,-510,0,0,0,0,0,0,0,0,0,-1,1427,1534,0,0
210,-510,0,0,0,0,0,0,0,0,0,-1,1434,1534,0,0
217,-510,0,0,0,0,0,0,0,0,0,-1,1441,1534,0,0
224,-510,0,0,0,0,0,0,0,0,0,-1,1448,1534,0,0
231,-510,0,0,0,0,0,0,0,0,0,-1,1455,1534,0,0
238,-510,0,0,0,0,0,0,0,0,0,-1,1462,1534,0,0
245,-510,0,0,0,0,0,0,0,0,0,-1,1469,1534,0,0
252,-510,0,0,0,0,0,0,0,0,0,-1,1476,1534,0,0
259,-510,0,0,0,0,0,0,0,0,0,-1,1483,1534,0,0
266,-510,0,0,0,0,0,0,0,0,0,-1,1490,1534,0,0
273,-510,0,0,0,0,0,0,0,0,0,-1,1497,1534,0,0
280,-510,0,0,0,0,0,0,0,0,0,-1,1504,1534,0,0
287,-510,0,0,0,0,0,0,0,0,0,-1,1511,1534,0,0
294,-510,0,0,0,0,0,0,0,0,0,-1,1518,1534,0,0
301,-510,0,0,0,0,0,0,0,0,0,-1,1525,1534,0,0
308,-510,0,0,0,0,0,0,0,0,0,-1,1532,1534,0,0
315,-510,0,0,0,0,0,0,0,0,0,-1,1539,1534,0,0
322,-510,0,0,0,0,0,0,0,0,0,-1,1546,1534,0,0
329,-510,0,0,0,0,0,0,0,0,0,-1,1553,1534,0,0
336,-510,0,0,0,0,0,0,0,0,0,-1,1560,1534,0,0
343,-510,0,0,0,0,0,0,0,0,0,-1,1567,1534,0,0
350,-510,0,0,0,0,0,0,0,0,0,-1,1574,1534,0,0
357,-510,0,0,0,0,0,0,0,0,0,-1,1581,1534,0,0
364,-510,0,0,0,0,0,0,0,0,0,-1,1588,1534,0,0
371,-510,0,0,0,0,0,0,0,0,0,-1,1595,1534,0,0
378,-510,0,0,0,0,0,0,0,0,0,-1,1602,1534,0,0
385,-510,0,0,0,0,0,0,0,0,0,-1,1609,1534,0,0
392,-510,0,0,0,0,0,0,0,0,0,-1,1616,1534,0,0
399,-510,0,0,0,0,0,0,0,0,0,-1,1623,1534,0,0
406,-510,0,0,0,0,0,0,0,0,0,-1,1630,1534,0,0
413,-510,0,0,0,0,0,0,0,0,0,-1,1637,1534,0,0
420,-510,14.1888,6.71936,0,0,0,0,0,0,0,-1,1644,1534,14.1889,-6.71939
427,-510,10.2134,5.59485,0,0,0,0,0,0,0,-1,1651,1534,10.2134,-5.59485
434,-510,11.8219,4.07898,0,0,0,0,0,0,0,-1,1658,1534,11.8219,-4.07895
441,-510,12.6812,3.02991,0,0,0,0,0,0,0,-1,1665,1534,12.6811,-3.0299
448,-510,13.2379,2.2804,0,0,0,0,0,0,0,-1,1672,1534,13.2379,-2.28037
455,-510,9.76892,2.20642,0,0,0,0,0,0,0,-1,1679,1534,9.76894,-2.20647
462,-510,9.84692,2.49182,0,0,0,0,0,0,0,-1,1686,1534,9.84695,-2.49185
469,-510,16.6072,7.26941,0,0,0,0,0,0,0,-1,1693,1534,16.6072,-7.26945
476,-510,15.9199,7.8645,0,0,0,0,0,0,0,-1,1700,1534,15.9199,-7.86455
483,-510,13.0833,8.10938,0,0,0,0,0,0,0,-1,1707,1534,13.0833,-8.10932
490,-510,13.0841,15.3286,0,0,0,0,0,0,0,-1,1714,1534,13.0841,-15.3286
497,-510,15.5652,18.823,0,0,0,0,0,0,0,-1,1721,1534,15.5652,-18.823
504,-510,15.998,18.7478,0,0,0,0,0,0,0,-1,1728,1534,15.998,-18.7478
511,-510,15.9443,18.0476,0,0,0,0,0,0,0,-1,1735,1534,15.9443,-18.0476
518,-510,18.6038,22.6904,0,0,0,0,0,0,0,-1,1742,1534,18.6037,-22.6904
525,-510,18.6265,22.1876,0,0,0,0,0,0,0,-1,1749,1534,18.6265,-22.1876
532,-510,18.866,21.5466,0.0075337,0.00586337,-0.00508909,0.0118557,0.00154137,-0.704068,0.0074434,0.0225302,1756,1534,18.8659,-21.5466
539,-510,18.9207,20.9987,0.00596839,0.00450998,-0.00389938,0.00920616,0.0012722,-0.692963,0.0057604,0.0138187,1763,1534,18.9206,-20.9987
546,-510,18.8838,20.5677,0.0047298,0.00341777,-0.00293343,0.00707968,0.00106789,-0.675391,0.00440716,0.0129026,1770,1534,18.8838,-20.5678
553,-510,18.8862,20.0861,0.00374201,0.00245153,-0.00214072,0.00533262,0.000860929,-0.639022,0.00330568,0.0131223,1777,1534,18.8862,-20.0861
560,-510,18.8762,19.5831,0.00301402,0.00171542,-0.00154395,0.00403964,0.000689798,-0.586352,0.00249515,0.013621,1784,1534,18.8762,-19.5831
567,-510,18.8641,19.0931,0.0025885,0.00116582,-0.00124672,0.00331254,0.000441782,-0.52615,0.00207682,0.0133763,1791,1534,18.8641,-19.0932
574,-510,18.8591,18.6398,0.00237112,0.000779137,-0.00111417,0.00294442,0.000205828,-0.475228,0.00189806,0.0140924,1798,1534,18.8591,-18.6397
581,-510,18.8258,18.209,0.0023732,0.000455102,-0.00112106,0.00288947,-6.11657e-05,-0.431564,0.00194702,0.0128463,1805,1534,18.8259,-18.209
588,-510,18.8007,17.7499,0.00270007,0.000299972,-0.00137646,0.00332615,-0.000326108,-0.42688,0.00233374,0.0139436,1812,1534,18.8006,-17.7499
595,-510,18.9191,17.1324,0.00329482,0.000104754,-0.0016779,0.00401484,-0.00061527,-0.405356,0.00290346,0.0251373,1819,1534,18.919,-17.1325
602,-510,18.9535,16.4996,0,0,0,0,0,0,0,-1,1826,1534,18.9535,-16.4996
609,-510,17.2866,14.8556,0,0,0,0,0,0,0,-1,1833,1534,17.2866,-14.8556
616,-510,18.7024,16.2474,0,0,0,0,0,0,0,-1,1840,1534,18.7024,-16.2474
623,-510,19.6013,14.6211,0,0,0,0,0,0,0,-1,1847,1534,19.6013,-14.6211
630,-510,13.7461,9.30334,0,0,0,0,0,0,0,-1,1854,1534,13.7461,-9.30335
637,-510,11.0155,7.38464,0,0,0,0,0,0,0,-1,1861,1534,11.0155,-7.38463
644,-510,11.5809,7.17126,0,0,0,0,0,0,0,-1,1868,1534,11.5809,-7.17123
651,-510,8.70471,3.5061,0,0,0,0,0,0,0,-1,1875,1534,8.70475,-3.50611
658,-510,0,0,0,0,0,0,0,0,0,-1,1882,1534,0,0
665,-510,0,0,0,0,0,0,0,0,0,-1,1889,1534,0,0
672,-510,0,0,0,0,0,0,0,0,0,-1,1896,1534,0,0
679,-510,0,0,0,0,0,0,0,0,0,-1,1903,1534,0,0
686,-510,0,0,0,0,0,0,0,0,0,-1,1910,1534,0,0
693,-510,0,0,0,0,0,0,0,0,0,-1,1917,1534,0,0
700,-510,0,0,0,0,0,0,0,0,0,-1,1924,1534,0,0
707,-510,0,0,0,0,0,0,0,0,0,-1,1931,1534,0,0
714,-510,0,0,0,0,0,0,0,0,0,-1,1938,1534,0,0
721,-510,0,0,0,0,0,0,0,0,0,-1,1945,1534,0,0
728,-510,0,0,0,0,0,0,0,0,0,-1,1952,1534,0,0
735,-510,0,0,0,0,0,0,0,0,0,-1,1959,1534,0,0
742,-510,0,0,0,0,0,0,0,0,0,-1,1966,1534,0,0
749,-510,0,0,0,0,0,0,0,0,0,-1,1973,1534,0,0
756,-510,0,0,0,0,0,0,0,0,0,-1,1980,1534,0,0
763,-510,0,0,0,0,0,0,0,0,0,-1,1987,1534,0,0
770,-510,0,0,0,0,0,0,0,0,0,-1,1994,1534,0,0
777,-510,0,0,0,0,0,0,0,0,0,-1,2001,1534,0,0
784,-510,0,0,0,0,0,0,0,0,0,-1,2008,1534,0,0
791,-510,0,0,0,0,0,0,0,0,0,-1,2015,1534,0,0
798,-510,0,0,0,0,0,0,0,0,0,-1,2022,1534,0,0
805,-510,0,0,0,0,0,0,0,0,0,-1,2029,1534,0,0
812,-510,0,0,0,0,0,0,0,0,0,-1,2036,1534,0,0
-700,-517,0,0,0,0,0,0,0,0,0,-1,524,1541,0,0
-693,-517,0,0,0,0,0,0,0,0,0,-1,531,1541,0,0
-686,-517,0,0,0,0,0,0,0,0,0,-1,538,1541,0,0
-679,-517,0,0,0,0,0,0,0,0,0,-1,545,1541,0,0
-672,-517,0,0,0,0,0,0,0,0,0,-1,552,1541,0,0
-665,-517,0,0,0,0,0,0,0,0,0,-1,559,1541,0,0
-658,-517,0,0,0,0,0,0,0,0,0,-1,566,1541,0,0
-651,-517,0,0,0,0,0,0,0,0,0,-1,573,1541,0,0
-644,-517,0,0,0,0,0,0,0,0,0,-1,580,1541,0,0
-637,-517,0,0,0,0,0,0,0,0,0,-1,587,1541,0,0
-630,-517,0,0,0,0,0,0,0,0,0,-1,594,1541,0,0
-623,-517,0,0,0,0,0,0,0,0,0,-1,601,1541,0,0
-616,-517,0,0,0,0,0,0,0,0,0,-1,608,1541,0,0
-609,-517,0,0,0,0,0,0,0,0,0,-1,615,1541,0,0
-602,-517,0,0,0,0,0,0,0,0,0,-1,622,1541,0,0
-595,-517,0,0,0,0,0,0,0,0,0,-1,629,1541,0,0
-588,-517,0,0,0,0,0,0,0,0,0,-1,636,1541,0,0
-581,-517,0,0,0,0,0,0,0,0,0,-1,643,1541,0,0
-574,-517,0,0,0,0,0,0,0,0,0,-1,650,1541,0,0
-567,-517,0,0,0,0,0,0,0,0,0,-1,657,1541,0,0
-560,-517,0,0,0,0,0,0,0,0,0,-1,664,1541,0,0
-553,-517,0,0,0,0,0,0,0,0,0,-1,671,1541,0,0
-546,-517,0,0,0,0,0,0,0,0,0,-1,678,1541,0,0
-539,-517,0,0,0,0,0,0,0,0,0,-1,685,1541,0,0
-532,-517,0,0,0,0,0,0,0,0,0,-1,692,1541,0,0
-525,-517,-3.62903,4.3606,0,0,0,0,0,0,0,-1,699,1541,-3.62904,-4.36056
-518,-517,-1.664,2.27209,0,0,0,0,0,0,0,-1,706,1541,-1.66399,-2.27207
-511,-517,-0.999146,5.52063,0,0,0,0,0,0,0,-1,713,1541,-0.999126,-5.52059
-504,-517,-1.06946,8.67432,0,0,0,0,0,0,0,-1,720,1541,-1.06947,-8.6743
-497,-517,-3.77197,13.7031,0,0,0,0,0,0,0,-1,727,1541,-3.77197,-13.7031
-490,-517,-3.60895,14.4758,0.0233432,-0.0120277,-0.0100226,0.0259858,-0.0146703,-0.257792,0.0237739,0.042502,734,1541,-3.60896,-14.4759
-483,-517,-2.5199,14.3428,0.0153787,-0.00857495,-0.00781907,0.0177051,-0.0109013,-0.289188,0.0166709,0.0458235,741,1541,-2.51988,-14.3427
-476,-517,-2.80743,14.8096,0.0095936,-0.00578875,-0.00600373,0.0116594,-0.00785458,-0.3314,0.0113376,0.0452391,748,1541,-2.80744,-14.8096
-469,-517,-3.1134,15.2936,0.00561977,-0.00361315,-0.00455771,0.00749056,-0.00548394,-0.389497,0.00752064,0.0200775,755,1541,-3.11343,-15.2936
-462,-517,-3.23682,15.7722,0.0031429,-0.00198423,-0.00329706,0.00475575,-0.00359708,-0.454953,0.00483795,0.0192402,762,1541,-3.23684,-15.7723
-455,-517,-3.2287,16.3193,0.00164644,-0.000784871,-0.0022469,0.00298546,-0.00212389,-0.53743,0.00296383,0.0147869,769,1541,-3.22872,-16.3193
-448,-517,-3.22528,16.8422,0.000912611,6.41845e-05,-0.00137214,0.00192461,-0.000947818,-0.635477,0.00169006,0.0134637,776,1541,-3.22529,-16.8422
-441,-517,-3.26093,17.3335,0.000771382,0.000778089,-0.000468969,0.00124372,0.000305754,-0.788973,0.000748345,0.011578,783,1541,-3.2609,-17.3335
-434,-517,-3.27533,17.8309,0.000620875,0.00169708,0.000489725,0.00188657,0.000431389,1.20161,0.00114142,0.013614,790,1541,-3.27535,-17.8309
-427,-517,-3.29944,18.3436,0.00141269,0.00237164,0.00170284,0.00366122,0.000123111,0.922631,0.00240083,0.0136325,797,1541,-3.29941,-18.3436
-420,-517,-3.34747,18.8785,0.00269223,0.00338242,0.00270609,0.00576533,0.000309314,0.848819,0.00374471,0.0207587,804,1541,-3.34744,-18.8785
-413,-517,-3.35767,19.3522,0.00399418,0.00456106,0.00392913,0.00821697,0.000338275,0.821405,0.00536877,0.0111814,811,1541,-3.35764,-19.3521
-406,-517,-3.3634,19.8613,0.00528924,0.00606545,0.00536695,0.0110583,0.000296385,0.821492,0.00727542,0.0107792,818,1541,-3.36343,-19.8613
-399,-517,-3.36615,20.3821,0.00659136,0.00851806,0.00680644,0.014429,0.000680433,0.855699,0.00940072,0.0107034,825,1541,-3.36615,-20.3821
-392,-517,-3.35803,20.8939,0.00755721,0.0115364,0.00798147,0.0177725,0.00132108,0.907546,0.0114334,0.0158378,832,1541,-3.35805,-20.8939
-385,-517,-3.26923,21.6685,0.0083815,0.0145563,0.00928438,0.0212532,0.00168464,0.945915,0.0136419,0.0379903,839,1541,-3.26924,-21.6685
-378,-517,-3.1377,22.5793,0,0,0,0,0,0,0,-1,846,1541,-3.13767,-22.5794
-371,-517,-1.37585,13.2646,0,0,0,0,0,0,0,-1,853,1541,-1.37586,-13.2647
-364,-517,-1.26245,12.6289,0,0,0,0,0,0,0,-1,860,1541,-1.26243,-12.6289
-357,-517,-1.23889,12.979,0,0,0,0,0,0,0,-1,867,1541,-1.23891,-12.979
-350,-517,0.722412,10.0829,0,0,0,0,0,0,0,-1,874,1541,0.722399,-10.0828
-343,-517,-5.16467,24.2369,0,0,0,0,0,0,0,-1,881,1541,-5.16469,-24.2369
-336,-517,-4.92474,25.1309,0,0,0,0,0,0,0,-1,888,1541,-4.92476,-25.1309
-329,-517,-4.68481,26.0249,0,0,0,0,0,0,0,-1,895,1541,-4.68483,-26.0249
-322,-517,-4.21246,19.5819,0,0,0,0,0,0,0,-1,902,1541,-4.21244,-19.5819
-315,-517,-0.987976,7.29749,0,0,0,0,0,0,0,-1,909,1541,-0.987993,-7.29743
-308,-517,3.27911,17.621,0,0,0,0,0,0,0,-1,916,1541,3.27913,-17.621
-301,-517,-1.69141,8.87488,0,0,0,0,0,0,0,-1,923,1541,-1.69141,-8.87485
-294,-517,-1.72583,9.92566,0,0,0,0,0,0,0,-1,930,1541,-1.72584,-9.92571
-287,-517,-3.09045,12.1472,0,0,0,0,0,0,0,-1,937,1541,-3.09043,-12.1472
-280,-517,0,0,0,0,0,0,0,0,0,-1,944,1541,0,0
-273,-517,0,0,0,0,0,0,0,0,0,-1,951,1541,0,0
-266,-517,0,0,0,0,0,0,0,0,0,-1,958,1541,0,0
-259,-517,0,0,0,0,0,0,0,0,0,-1,965,1541,0,0
-252,-517,0,0,0,0,0,0,0,0,0,-1,972,1541,0,0
-245,-517,0,0,0,0,0,0,0,0,0,-1,979,1541,0,0
-238,-517,0,0,0,0,0,0,0,0,0,-1,986,1541,0,0
-231,-517,0,0,0,0,0,0,0,0,0,-1,993,1541,0,0
-224,-517,0,0,0,0,0,0,0,0,0,-1,1000,1541,0,0
-217,-517,0,0,0,0,0,0,0,0,0,-1,1007,1541,0,0
-210,-517,0,0,0,0,0,0,0,0,0,-1,1014,1541,0,0
-203,-517,0,0,0,0,0,0,0,0,0,-1,1021,1541,0,0
-196,-517,0,0,0,0,0,0,0,0,0,-1,1028,1541,0,0
-189,-517,0,0,0,0,0,0,0,0,0,-1,1035,1541,0,0
-182,-517,0,0,0,0,0,0,0,0,0,-1,1042,1541,0,0
-175,-517,0,0,0,0,0,0,0,0,0,-1,1049,1541,0,0
-168,-517,0,0,0,0,0,0,0,0,0,-1,1056,1541,0,0
-161,-517,0,0,0,0,0,0,0,0,0,-1,1063,1541,0,0
-154,-517,0,0,0,0,0,0,0,0,0,-1,1070,1541,0,0
-147,-517,0,0,0,0,0,0,0,0,0,-1,1077,1541,0,0
-140,-517,0,0,0,0,0,0,0,0,0,-1,1084,1541,0,0
-133,-517,0,0,0,0,0,0,0,0,0,-1,1091,1541,0,0
-126,-517,0,0,0,0,0,0,0,0,0,-1,1098,1541,0,0
-119,-517,0,0,0,0,0,0,0,0,0,-1,1105,1541,0,0
-112,-517,0,0,0,0,0,0,0,0,0,-1,1112,1541,0,0
-105,-517,0,0,0,0,0,0,0,0,0,-1,1119,1541,0,0
-98,-517,0,0,0,0,0,0,0,0,0,-1,1126,1541,0,0
-91,-517,0,0,0,0,0,0,0,0,0,-1,1133,1541,0,0
-84,-517,0,0,0,0,0,0,0,0,0,-1,1140,1541,0,0
-77,-517,0,0,0,0,0,0,0,0,0,-1,1147,1541,0,0
-70,-517,0,0,0,0,0,0,0,0,0,-1,1154,1541,0,0
-63,-517,0,0,0,0,0,0,0,0,0,-1,1161,1541,0,0
-56,-517,0,0,0,0,0,0,0,0,0,-1,1168,1541,0,0
-49,-517,0,0,0,0,0,0,0,0,0,-1,1175,1541,0,0
-42,-517,0,0,0,0,0,0,0,0,0,-1,1182,1541,0,0
-35,-517,0,0,0,0,0,0,0,0,0,-1,1189,1541,0,0
-28,-517,0,0,0,0,0,0,0,0,0,-1,1196,1541,0,0
-21,-517,0,0,0,0,0,0,0,0,0,-1,1203,1541,0,0
-14,-517,0,0,0,0,0,0,0,0,0,-1,1210,1541,0,0
-7,-517,0,0,0,0,0,0,0,0,0,-1,1217,1541,0,0
0,-517,0,0,0,0,0,0,0,0,0,-1,1224,1541,0,0
7,-517,0,0,0,0,0,0,0,0,0,-1,1231,1541,0,0
14,-517,0,0,0,0,0,0,0,0,0,-1,1238,1541,0,0
21,-517,0,0,0,0,0,0,0,0,0,-1,1245,1541,0,0
28,-517,0,0,0,0,0,0,0,0,0,-1,1252,1541,0,0
35,-517,0,0,0,0,0,0,0,0,0,-1,1259,1541,0,0
42,-517,0,0,0,0,0,0,0,0,0,-1,1266,1541,0,0
49,-517,0,0,0,0,0,0,0,0,0,-1,1273,1541,0,0
56,-517,0,0,0,0,0,0,0,0,0,-1,1280,1541,0,0
63,-517,0,0,0,0,0,0,0,0,0,-1,1287,1541,0,0
70,-517,0,0,0,0,0,0,0,0,0,-1,1294,1541,0,0
77,-517,0,0,0,0,0,0,0,0,0,-1,1301,1541,0,0
84,-517,0,0,0,0,0,0,0,0,0,-1,1308,1541,0,0
91,-517,0,0,0,0,0,0,0,0,0,-1,1315,1541,0,0
98,-517,0,0,0,0,0,0,0,0,0,-1,1322,1541,0,0
105,-517,0,0,0,0,0,0,0,0,0,-1,1329,1541,0,0
112,-517,0,0,0,0,0,0,0,0,0,-1,1336,1541,0,0
119,-517,0,0,0,0,0,0,0,0,0,-1,1343,1541,0,0
126,-517,0,0,0,0,0,0,0,0,0,-1,1350,1541,0,0
133,-517,0,0,0,0,0,0,0,0,0,-1,1357,1541,0,0
140,-517,0,0,0,0,0,0,0,0,0,-1,1364,1541,0,0
147,-517,0,0,0,0,0,0,0,0,0,-1,1371,1541,0,0
154,-517,0,0,0,0,0,0,0,0,0,-1,1378,1541,0,0
161,-517,0,0,0,0,0,0,0,0,0,-1,1385,1541,0,0
168,-517,0,0,0,0,0,0,0,0,0,-1,1392,1541,0,0
175,-517,0,0,0,0,0,0,0,0,0,-1,1399,1541,0,0
182,-517,0,0,0,0,0,0,0,0,0,-1,1406,1541,0,0
189,-517,0,0,0,0,0,0,0,0,0,-1,1413,1541,0,0
196,-517,0,0,0,0,0,0,0,0,0,-1,1420,1541,0,0
203,-517,0,0,0,0,0,0,0,0,0,-1,1427,1541,0,0
210,-517,0,0,0,0,0,0,0,0,0,-1,1434,1541,0,0
217,-517,0,0,0,0,0,0,0,0,0,-1,1441,1541,0,0
224,-517,0,0,0,0,0,0,0,0,0,-1,1448,1541,0,0
231,-517,0,0,0,0,0,0,0,0,0,-1,1455,1541,0,0
238,-517,0,0,0,0,0,0,0,0,0,-1,1462,1541,0,0
245,-517,0,0,0,0,0,0,0,0,0,-1,1469,1541,0,0
252,-517,0,0,0,0,0,0,0,0,0,-1,1476,1541,0,0
259,-517,0,0,0,0,0,0,0,0,0,-1,1483,1541,0,0
266,-517,0,0,0,0,0,0,0,0,0,-1,1490,1541,0,0
273,-517,0,0,0,0,0,0,0,0,0,-1,1497,1541,0,0
280,-517,0,0,0,0,0,0,0,0,0,-1,1504,1541,0,0
287,-517,0,0,0,0,0,0,0,0,0,-1,1511,1541,0,0
294,-517,0,0,0,0,0,0,0,0,0,-1,1518,1541,0,0
301,-517,0,0,0,0,0,0,0,0,0,-1,1525,1541,0,0
308,-517,0,0,0,0,0,0,0,0,0,-1,1532,1541,0,0
315,-517,0,0,0,0,0,0,0,0,0,-1,1539,1541,0,0
322,-517,0,0,0,0,0,0,0,0,0,-1,1546,1541,0,0
329,-517,0,0,0,0,0,0,0,0,0,-1,1553,1541,0,0
336,-517,0,0,0,0,0,0,0,0,0,-1,1560,1541,0,0
343,-517,0,0,0,0,0,0,0,0,0,-1,1567,1541,0,0
350,-517,0,0,0,0,0,0,0,0,0,-1,1574,1541,0,0
357,-517,0,0,0,0,0,0,0,0,0,-1,1581,1541,0,0
364,-517,0,0,0,0,0,0,0,0,0,-1,1588,1541,0,0
371,-517,0,0,0,0,0,0,0,0,0,-1,1595,1541,0,0
378,-517,0,0,0,0,0,0,0,0,0,-1,1602,1541,0,0
385,-517,0,0,0,0,0,0,0,0,0,-1,1609,1541,0,0
392,-517,0,0,0,0,0,0,0,0,0,-1,1616,1541,0,0
399,-517,0,0,0,0,0,0,0,0,0,-1,1623,1541,0,0
406,-517,13.1395,7.01978,0,0,0,0,0,0,0,-1,1630,1541,13.1396,-7.01981
413,-517,12.8859,6.31592,0,0,0,0,0,0,0,-1,1637,1541,12.8858,-6.31588
420,-517,12.4789,6.20337,0,0,0,0,0,0,0,-1,1644,1541,12.4789,-6.20333
427,-517,11.647,4.66516,0,0,0,0,0,0,0,-1,1651,1541,11.647,-4.66519
434,-517,12.3719,3.92773,0,0,0,0,0,0,0,-1,1658,1541,12.3719,-3.92776
441,-517,13.146,3.14124,0,0,0,0,0,0,0,-1,1665,1541,13.146,-3.14121
448,-517,13.8861,2.36682,0,0,0,0,0,0,0,-1,1672,1541,13.8861,-2.36684
455,-517,13.6012,4.06335,0,0,0,0,0,0,0,-1,1679,1541,13.6012,-4.06335
462,-517,14.8956,7.0752,0,0,0,0,0,0,0,-1,1686,1541,14.8956,-7.07525
469,-517,13.6292,6.87744,0,0,0,0,0,0,0,-1,1693,1541,13.6292,-6.87739
476,-517,17.1632,14.1487,0,0,0,0,0,0,0,-1,1700,1541,17.1632,-14.1487
483,-517,16.5157,15.0776,0,0,0,0,0,0,0,-1,1707,1541,16.5157,-15.0777
490,-517,15.5439,18.0258,0,0,0,0,0,0,0,-1,1714,1541,15.5439,-18.0258
497,-517,16.0292,18.7786,0,0,0,0,0,0,0,-1,1721,1541,16.0291,-18.7786
504,-517,17.3815,22.3873,0,0,0,0,0,0,0,-1,1728,1541,17.3814,-22.3873
511,-517,16.9674,21.8491,0,0,0,0,0,0,0,-1,1735,1541,16.9674,-21.8491
518,-517,18.4592,22.4236,0,0,0,0,0,0,0,-1,1742,1541,18.4592,-22.4236
525,-517,18.3094,22.0121,0.00808715,0.00658061,-0.00566929,0.013053,0.00161476,-0.719351,0.0082168,0.0223658,1749,1541,18.3095,-22.012
532,-517,18.4604,21.4606,0.00632902,0.00513117,-0.00443058,0.010201,0.00125921,-0.718215,0.0064222,0.0118037,1756,1541,18.4605,-21.4606
539,-517,18.4662,20.9952,0.00496003,0.00387836,-0.00335704,0.00781953,0.00101887,-0.705532,0.00490877,0.0131687,1763,1541,18.4662,-20.9953
546,-517,18.4487,20.5575,0.0038222,0.00281145,-0.00243043,0.00579924,0.000834407,-0.68289,0.00362022,0.0139489,1770,1541,18.4487,-20.5575
553,-517,18.4296,20.08,0.00288528,0.00182701,-0.00161823,0.00405869,0.000653597,-0.627386,0.00251638,0.0172466,1777,1541,18.4295,-20.08
560,-517,18.4189,19.6146,0.0022135,0.00106366,-0.000987241,0.00278102,0.000496134,-0.521728,0.00171276,0.0160275,1784,1541,18.4189,-19.6147
567,-517,18.4069,19.1475,0.00185363,0.000476562,-0.000649262,0.00211147,0.000218724,-0.378025,0.0013407,0.0126807,1791,1541,18.4068,-19.1474
574,-517,18.3979,18.6582,0.00171491,6.93284e-05,-0.000488735,0.00184911,-6.48798e-05,-0.267997,0.00125493,0.0138351,1798,1541,18.398,-18.6581
581,-517,18.3728,18.1746,0.00186692,-0.000240017,-0.00052939,0.00199245,-0.000365552,-0.232831,0.00146543,0.0154372,1805,1541,18.3728,-18.1745
588,-517,18.3524,17.7068,0.00241527,-0.000315304,-0.000898588,0.00268444,-0.00058448,-0.291048,0.00201294,0.0168186,1812,1541,18.3524,-17.7068
595,-517,18.566,17.0034,0,0,0,0,0,0,0,-1,1819,1541,18.566,-17.0034
602,-517,15.8027,13.5498,0,0,0,0,0,0,0,-1,1826,1541,15.8027,-13.5498
609,-517,12.6417,10.8751,0,0,0,0,0,0,0,-1,1833,1541,12.6417,-10.8751
616,-517,14.205,10.3193,0,0,0,0,0,0,0,-1,1840,1541,14.205,-10.3194
623,-517,12.578,10.0779,0,0,0,0,0,0,0,-1,1847,1541,12.578,-10.0779
630,-517,11.7035,7.47815,0,0,0,0,0,0,0,-1,1854,1541,11.7035,-7.47812
637,-517,11.5172,5.79822,0,0,0,0,0,0,0,-1,1861,1541,11.5173,-5.79825
644,-517,11.4232,3.30579,0,0,0,0,0,0,0,-1,1868,1541,11.4232,-3.30574
651,-517,0,0,0,0,0,0,0,0,0,-1,1875,1541,0,0
658,-517,0,0,0,0,0,0,0,0,0,-1,1882,1541,0,0
665,-517,0,0,0,0,0,0,0,0,0,-1,1889,1541,0,0
672,-517,0,0,0,0,0,0,0,0,0,-1,1896,1541,0,0
679,-517,0,0,0,0,0,0,0,0,0,-1,1903,1541,0,0
686,-517,0,0,0,0,0,0,0,0,0,-1,1910,1541,0,0
693,-517,0,0,0,0,0,0,0,0,0,-1,1917,1541,0,0
700,-517,0,0,0,0,0,0,0,0,0,-1,1924,1541,0,0
707,-517,0,0,0,0,0,0,0,0,0,-1,1931,1541,0,0
714,-517,0,0,0,0,0,0,0,0,0,-1,1938,1541,0,0
721,-517,0,0,0,0,0,0,0,0,0,-1,1945,1541,0,0
728,-517,0,0,0,0,0,0,0,0,0,-1,1952,1541,0,0
735,-517,0,0,0,0,0,0,0,0,0,-1,1959,1541,0,0
742,-517,0,0,0,0,0,0,0,0,0,-1,1966,1541,0,0
749,-517,0,0,0,0,0,0,0,0,0,-1,1973,1541,0,0
756,-517,0,0,0,0,0,0,0,0,0,-1,1980,1541,0,0
763,-517,0,0,0,0,0,0,0,0,0,-1,1987,1541,0,0
770,-517,0,0,0,0,0,0,0,0,0,-1,1994,1541,0,0
777,-517,0,0,0,0,0,0,0,0,0,-1,2001,1541,0,0
784,-517,0,0,0,0,0,0,0,0,0,-1,2008,1541,0,0
791,-517,0,0,0,0,0,0,0,0,0,-1,2015,1541,0,0
798,-517,0,0,0,0,0,0,0,0,0,-1,2022,1541,0,0
805,-517,0,0,0,0,0,0,0,0,0,-1,2029,1541,0,0
812,-517,0,0,0,0,0,0,0,0,0,-1,2036,1541,0,0
-700,-524,0,0,0,0,0,0,0,0,0,-1,524,1548,0,0
-693,-524,0,0,0,0,0,0,0,0,0,-1,531,1548,0,0
-686,-524,0,0,0,0,0,0,0,0,0,-1,538,1548,0,0
-679,-524,0,0,0,0,0,0,0,0,0,-1,545,1548,0,0
-672,-524,0,0,0,0,0,0,0,0,0,-1,552,1548,0,0
-665,-524,0,0,0,0,0,0,0,0,0,-1,559,1548,0,0
-658,-524,0,0,0,0,0,0,0,0,0,-1,566,1548,0,0
-651,-524,0,0,0,0,0,0,0,0,0,-1,573,1548,0,0
-644,-524,0,0,0,0,0,0,0,0,0,-1,580,1548,0,0
-637,-524,0,0,0,0,0,0,0,0,0,-1,587,1548,0,0
-630,-524,0,0,0,0,0,0,0,0,0,-1,594,1548,0,0
-623,-524,0,0,0,0,0,0,0,0,0,-1,601,1548,0,0
-616,-524,0,0,0,0,0,0,0,0,0,-1,608,1548,0,0
-609,-524,0,0,0,0,0,0,0,0,0,-1,615,1548,0,0
-602,-524,0,0,0,0,0,0,0,0,0,-1,622,1548,0,0
-595,-524,0,0,0,0,0,0,0,0,0,-1,629,1548,0,0
-588,-524,0,0,0,0,0,0,0,0,0,-1,636,1548,0,0
-581,-524,0,0,0,0,0,0,0,0,0,-1,643,1548,0,0
-574,-524,0,0,0,0,0,0,0,0,0,-1,650,1548,0,0
-567,-524,0,0,0,0,0,0,0,0,0,-1,657,1548,0,0
-560,-524,0,0,0,0,0,0,0,0,0,-1,664,1548,0,0
-553,-524,0,0,0,0,0,0,0,0,0,-1,671,1548,0,0
-546,-524,0,0,0,0,0,0,0,0,0,-1,678,1548,0,0
-539,-524,0,0,0,0,0,0,0,0,0,-1,685,1548,0,0
-532,-524,0,0,0,0,0,0,0,0,0,-1,692,1548,0,0
-525,-524,-0.215515,3.97131,0,0,0,0,0,0,0,-1,699,1548,-0.215501,-3.97136
-518,-524,-0.806274,4.35632,0,0,0,0,0,0,0,-1,706,1548,-0.806259,-4.35633
-511,-524,-1.08301,4.29004,0,0,0,0,0,0,0,-1,713,1548,-1.08301,-4.29006
-504,-524,-1.28821,3.98145,0,0,0,0,0,0,0,-1,720,1548,-1.28822,-3.98151
-497,-524,-0.328491,8.63416,0,0,0,0,0,0,0,-1,727,1548,-0.328487,-8.63411
-490,-524,-3.34631,14.4003,0,0,0,0,0,0,0,-1,734,1548,-3.34631,-14.4002
-483,-524,-2.35315,14.5936,0,0,0,0,0,0,0,-1,741,1548,-2.35318,-14.5937
-476,-524,-2.84174,15.1488,0.0126429,-0.00353444,-0.00609811,0.0146841,-0.0055756,-0.322998,0.0120846,0.0442163,748,1548,-2.84176,-15.1488
-469,-524,-2.90759,15.6735,0.00723375,-0.00144831,-0.00459517,0.00921412,-0.00342868,-0.406915,0.00754978,0.0357236,755,1548,-2.90761,-15.6735
-462,-524,-2.69904,16.0138,0.00385774,-5.11985e-05,-0.00335357,0.00578482,-0.00197828,-0.521559,0.00465817,0.0295972,762,1548,-2.69902,-16.0138
-455,-524,-2.78229,16.3799,0.00176877,0.000835458,-0.00237795,0.00372543,-0.00112119,-0.688508,0.00292976,0.0237537,769,1548,-2.78228,-16.3799
-448,-524,-2.74622,16.8696,0.000596537,0.00126722,-0.00163809,0.00260394,-0.000740186,-0.88636,0.00202822,0.0132938,776,1548,-2.74624,-16.8696
-441,-524,-2.74591,17.3605,0.000159776,0.00155194,-0.000902634,0.00199572,-0.000284001,-1.11385,0.00143455,0.0103248,783,1548,-2.74593,-17.3605
-434,-524,-2.76239,17.8286,-0.000332889,0.00209008,-0.0001094,0.00209501,-0.000337819,-1.52577,0.00152183,0.012274,790,1548,-2.76239,-17.8286
-427,-524,-2.79242,18.3361,0.000270304,0.00232128,0.000976104,0.00271157,-0.000119977,1.19043,0.001849,0.0135117,797,1548,-2.79241,-18.336
-420,-524,-2.81763,18.8693,0.00145547,0.00303802,0.00173751,0.00415595,0.000337549,0.999069,0.00266525,0.0113549,804,1548,-2.81761,-18.8692
-413,-524,-2.82361,19.3812,0.00261997,0.00392189,0.00272036,0.00606809,0.000473773,0.902836,0.00389708,0.0110453,811,1548,-2.82363,-19.3813
-406,-524,-2.83826,19.8916,0.00373301,0.00508534,0.00391854,0.00838563,0.000432728,0.870835,0.0054519,0.0118938,818,1548,-2.83827,-19.8916
-399,-524,-2.85492,20.3933,0.00476028,0.00682318,0.00503899,0.0109352,0.00064826,0.886351,0.00708395,0.00934321,825,1548,-2.85489,-20.3933
-392,-524,-2.8728,20.8679,0.00549825,0.00928544,0.00589763,0.013586,0.00119767,0.940738,0.00868569,0.0100102,832,1548,-2.87281,-20.8679
-385,-524,-2.89008,21.3785,0.00618235,0.0117074,0.00683506,0.0163171,0.00157267,0.977448,0.0103936,0.0152215,839,1548,-2.89005,-21.3785
-378,-524,-2.80511,22.1642,0.00675498,0.014588,0.00760512,0.0192258,0.00211713,1.02318,0.012173,0.0484062,846,1548,-2.80511,-22.1642
-371,-524,-2.68561,22.937,0,0,0,0,0,0,0,-1,853,1548,-2.68563,-22.937
-364,-524,-0.712097,14.9871,0,0,0,0,0,0,0,-1,860,1548,-0.712116,-14.9871
-357,-524,-1.34052,14.7448,0,0,0,0,0,0,0,-1,867,1548,-1.34054,-14.7447
-350,-524,-2.63245,12.7522,0,0,0,0,0,0,0,-1,874,1548,-2.63245,-12.7522
-343,-524,-4.18274,24.4764,0,0,0,0,0,0,0,-1,881,1548,-4.18277,-24.4764
-336,-524,-4.21545,25.301,0,0,0,0,0,0,0,-1,888,1548,-4.21546,-25.301
-329,-524,-4.24817,26.1256,0,0,0,0,0,0,0,-1,895,1548,-4.24816,-26.1256
-322,-524,-4.31378,25.6389,0,0,0,0,0,0,0,-1,902,1548,-4.31379,-25.639
-315,-524,-1.90839,19.4824,0,0,0,0,0,0,0,-1,909,1548,-1.90838,-19.4824
-308,-524,-2.36938,19.3059,0,0,0,0,0,0,0,-1,916,1548,-2.3694,-19.3058
-301,-524,2.72394,17.7618,0,0,0,0,0,0,0,-1,923,1548,2.72396,-17.7619
-294,-524,-1.52515,9.05408,0,0,0,0,0,0,0,-1,930,1548,-1.52512,-9.05411
-287,-524,-0.962219,10.3199,0,0,0,0,0,0,0,-1,937,1548,-0.962241,-10.32
-280,-524,-1.36255,10.3859,0,0,0,0,0,0,0,-1,944,1548,-1.36253,-10.3859
-273,-524,0,0,0,0,0,0,0,0,0,-1,951,1548,0,0
-266,-524,0,0,0,0,0,0,0,0,0,-1,958,1548,0,0
-259,-524,0,0,0,0,0,0,0,0,0,-1,965,1548,0,0
-252,-524,0,0,0,0,0,0,0,0,0,-1,972,1548,0,0
-245,-524,0,0,0,0,0,0,0,0,0,-1,979,1548,0,0
-238,-524,0,0,0,0,0,0,0,0,0,-1,986,1548,0,0
-231,-524,0,0,0,0,0,0,0,0,0,-1,993,1548,0,0
-224,-524,0,0,0,0,0,0,0,0,0,-1,1000,1548,0,0
-217,-524,0,0,0,0,0,0,0,0,0,-1,1007,1548,0,0
-210,-524,0,0,0,0,0,0,0,0,0,-1,1014,1548,0,0
-203,-524,0,0,0,0,0,0,0,0,0,-1,1021,1548,0,0
-196,-524,0,0,0,0,0,0,0,0,0,-1,1028,1548,0,0
-189,-524,0,0,0,0,0,0,0,0,0,-1,1035,1548,0,0
-182,-524,0,0,0,0,0,0,0,0,0,-1,1042,1548,0,0
-175,-524,0,0,0,0,0,0,0,0,0,-1,1049,1548,0,0
-168,-524,0,0,0,0,0,0,0,0,0,-1,1056,1548,0,0
-161,-524,0,0,0,0,0,0,0,0,0,-1,1063,1548,0,0
-154,-524,0,0,0,0,0,0,0,0,0,-1,1070,1548,0,0
-147,-524,0,0,0,0,0,0,0,0,0,-1,1077,1548,0,0
-140,-524,0,0,0,0,0,0,0,0,0,-1,1084,1548,0,0
-133,-524,0,0,0,0,0,0,0,0,0,-1,1091,1548,0,0
-126,-524,0,0,0,0,0,0,0,0,0,-1,1098,1548,0,0
-119,-524,0,0,0,0,0,0,0,0,0,-1,1105,1548,0,0
-112,-524,0,0,0,0,0,0,0,0,0,-1,1112,1548,0,0
-105,-524,0,0,0,0,0,0,0,0,0,-1,1119,1548,0,0
-98,-524,0,0,0,0,0,0,0,0,0,-1,1126,1548,0,0
-91,-524,0,0,0,0,0,0,0,0,0,-1,1133,1548,0,0
-84,-524,0,0,0,0,0,0,0,0,0,-1,1140,1548,0,0
-77,-524,0,0,0,0,0,0,0,0,0,-1,1147,1548,0,0
-70,-524,0,0,0,0,0,0,0,0,0,-1,1154,1548,0,0
-63,-524,0,0,0,0,0,0,0,0,0,-1,1161,1548,0,0
-56,-524,0,0,0,0,0,0,0,0,0,-1,1168,1548,0,0
-49,-524,0,0,0,0,0,0,0,0,0,-1,1175,1548,0,0
-42,-524,0,0,0,0,0,0,0,0,0,-1,1182,1548,0,0
-35,-524,0,0,0,0,0,0,0,0,0,-1,1189,1548,0,0
-28,-524,0,0,0,0,0,0,0,0,0,-1,1196,1548,0,0
-21,-524,0,0,0,0,0,0,0,0,0,-1,1203,1548,0,0
-14,-524,0,0,0,0,0,0,0,0,0,-1,1210,1548,0,0
-7,-524,0,0,0,0,0,0,0,0,0,-1,1217,1548,0,0
0,-524,0,0,0,0,0,0,0,0,0,-1,1224,1548,0,0
7,-524,0,0,0,0,0,0,0,0,0,-1,1231,1548,0,0
14,-524,0,0,0,0,0,0,0,0,0,-1,1238,1548,0,0
21,-524,0,0,0,0,0,0,0,0,0,-1,1245,1548,0,0
28,-524,0,0,0,0,0,0,0,0,0,-1,1252,1548,0,0
35,-524,0,0,0,0,0,0,0,0,0,-1,1259,1548,0,0
42,-524,0,0,0,0,0,0,0,0,0,-1,1266,1548,0,0
49,-524,0,0,0,0,0,0,0,0,0,-1,1273,1548,0,0
56,-524,0,0,0,0,0,0,0,0,0,-1,1280,1548,0,0
63,-524,0,0,0,0,0,0,0,0,0,-1,1287,1548,0,0
70,-524,0,0,0,0,0,0,0,0,0,-1,1294,1548,0,0
77,-524,0,0,0,0,0,0,0,0,0,-1,1301,1548,0,0
84,-524,0,0,0,0,0,0,0,0,0,-1,1308,1548,0,0
91,-524,0,0,0,0,0,0,0,0,0,-1,1315,1548,0,0
98,-524,0,0,0,0,0,0,0,0,0,-1,1322,1548,0,0
105,-524,0,0,0,0,0,0,0,0,0,-1,1329,1548,0,0
112,-524,0,0,0,0,0,0,0,0,0,-1,1336,1548,0,0
119,-524,0,0,0,0,0,0,0,0,0,-1,1343,1548,0,0
126,-524,0,0,0,0,0,0,0,0,0,-1,1350,1548,0,0
133,-524,0,0,0,0,0,0,0,0,0,-1,1357,1548,0,0
140,-524,0,0,0,0,0,0,0,0,0,-1,1364,1548,0,0
147,-524,0,0,0,0,0,0,0,0,0,-1,1371,1548,0,0
154,-524,0,0,0,0,0,0,0,0,0,-1,1378,1548,0,0
161,-524,0,0,0,0,0,0,0,0,0,-1,1385,1548,0,0
168,-524,0,0,0,0,0,0,0,0,0,-1,1392,1548,0,0
175,-524,0,0,0,0,0,0,0,0,0,-1,1399,1548,0,0
182,-524,0,0,0,0,0,0,0,0,0,-1,1406,1548,0,0
189,-524,0,0,0,0,0,0,0,0,0,-1,1413,1548,0,0
196,-524,0,0,0,0,0,0,0,0,0,-1,1420,1548,0,0
203,-524,0,0,0,0,0,0,0,0,0,-1,1427,1548,0,0
210,-524,0,0,0,0,0,0,0,0,0,-1,1434,1548,0,0
217,-524,0,0,0,0,0,0,0,0,0,-1,1441,1548,0,0
224,-524,0,0,0,0,0,0,0,0,0,-1,1448,1548,0,0
231,-524,0,0,0,0,0,0,0,0,0,-1,1455,1548,0,0
238,-524,0,0,0,0,0,0,0,0,0,-1,1462,1548,0,0
245,-524,0,0,0,0,0,0,0,0,0,-1,1469,1548,0,0
252,-524,0,0,0,0,0,0,0,0,0,-1,1476,1548,0,0
259,-524,0,0,0,0,0,0,0,0,0,-1,1483,1548,0,0
266,-524,0,0,0,0,0,0,0,0,0,-1,1490,1548,0,0
273,-524,0,0,0,0,0,0,0,0,0,-1,1497,1548,0,0
280,-524,0,0,0,0,0,0,0,0,0,-1,1504,1548,0,0
287,-524,0,0,0,0,0,0,0,0,0,-1,1511,1548,0,0
294,-524,0,0,0,0,0,0,0,0,0,-1,1518,1548,0,0
301,-524,0,0,0,0,0,0,0,0,0,-1,1525,1548,0,0
308,-524,0,0,0,0,0,0,0,0,0,-1,1532,1548,0,0
315,-524,0,0,0,0,0,0,0,0,0,-1,1539,1548,0,0
322,-524,0,0,0,0,0,0,0,0,0,-1,1546,1548,0,0
329,-524,0,0,0,0,0,0,0,0,0,-1,1553,1548,0,0
336,-524,0,0,0,0,0,0,0,0,0,-1,1560,1548,0,0
343,-524,0,0,0,0,0,0,0,0,0,-1,1567,1548,0,0
350,-524,0,0,0,0,0,0,0,0,0,-1,1574,1548,0,0
357,-524,0,0,0,0,0,0,0,0,0,-1,1581,1548,0,0
364,-524,0,0,0,0,0,0,0,0,0,-1,1588,1548,0,0
371,-524,0,0,0,0,0,0,0,0,0,-1,1595,1548,0,0
378,-524,0,0,0,0,0,0,0,0,0,-1,1602,1548,0,0
385,-524,0,0,0,0,0,0,0,0,0,-1,1609,1548,0,0
392,-524,0,0,0,0,0,0,0,0,0,-1,1616,1548,0,0
399,-524,8.81848,5.05774,0,0,0,0,0,0,0,-1,1623,1548,8.81843,-5.05769
406,-524,8.64294,6.06799,0,0,0,0,0,0,0,-1,1630,1548,8.6429,-6.06805
413,-524,11.677,6.41858,0,0,0,0,0,0,0,-1,1637,1548,11.677,-6.41864
420,-524,11.4913,6.36401,0,0,0,0,0,0,0,-1,1644,1548,11.4913,-6.36402
427,-524,7.68335,6.17249,0,0,0,0,0,0,0,-1,1651,1548,7.68341,-6.17245
434,-524,10.432,11.6801,0,0,0,0,0,0,0,-1,1658,1548,10.432,-11.68
441,-524,8.78552,4.12305,0,0,0,0,0,0,0,-1,1665,1548,8.78553,-4.12301
448,-524,14.1854,4.78674,0,0,0,0,0,0,0,-1,1672,1548,14.1854,-4.78674
455,-524,12.4784,3.65576,0,0,0,0,0,0,0,-1,1679,1548,12.4784,-3.65572
462,-524,14.7551,9.29395,0,0,0,0,0,0,0,-1,1686,1548,14.7552,-9.29397
469,-524,16.3314,14.3779,0,0,0,0,0,0,0,-1,1693,1548,16.3314,-14.3779
476,-524,15.9106,15.1875,0,0,0,0,0,0,0,-1,1700,1548,15.9107,-15.1876
483,-524,15.2776,16.2268,0,0,0,0,0,0,0,-1,1707,1548,15.2776,-16.2269
490,-524,15.2563,18.5848,0,0,0,0,0,0,0,-1,1714,1548,15.2564,-18.5848
497,-524,17.5173,22.6123,0,0,0,0,0,0,0,-1,1721,1548,17.5174,-22.6123
504,-524,17.6503,23.7371,0,0,0,0,0,0,0,-1,1728,1548,17.6503,-23.7371
511,-524,18.0071,22.9424,0,0,0,0,0,0,0,-1,1735,1548,18.0071,-22.9424
518,-524,18.0131,22.4319,0.00867598,0.00715309,-0.00596789,0.0139308,0.00189826,-0.721946,0.00872357,0.0249928,1742,1548,18.0131,-22.4319
525,-524,18.0051,21.963,0.00678291,0.00550493,-0.00468646,0.0108737,0.0014141,-0.717642,0.00682679,0.0135732,1749,1548,18.0051,-21.963
532,-524,18.0056,21.483,0.00511912,0.00416248,-0.00356825,0.00824097,0.00104064,-0.718771,0.00518205,0.00992947,1756,1548,18.0057,-21.483
539,-524,17.9902,21.0068,0.00377804,0.00300455,-0.00257687,0.00599703,0.00078556,-0.710913,0.00376359,0.0118322,1763,1548,17.9903,-21.0069
546,-524,17.9698,20.5576,0.00259687,0.00195809,-0.00166147,0.00396937,0.000585587,-0.690441,0.00247426,0.0160235,1770,1548,17.9698,-20.5576
553,-524,17.9694,20.0978,0.0015951,0.00096097,-0.000816627,0.00215405,0.000402014,-0.600226,0.00132256,0.0247579,1777,1548,17.9694,-20.0978
560,-524,17.9835,19.6385,0.000886914,0.000170591,-0.000139774,0.000913221,0.000144283,-0.186038,0.000566874,0.0307104,1784,1548,17.9836,-19.6386
567,-524,17.9297,19.1721,0.000519408,-0.000463548,0.000266357,0.000586944,-0.000531084,0.248321,0.000645762,0.0167517,1791,1548,17.9296,-19.1722
574,-524,17.9222,18.6691,0.000416886,-0.000920454,0.000488166,0.000576121,-0.00107969,0.315307,0.000970606,0.0124115,1798,1548,17.9222,-18.669
581,-524,17.9307,18.1716,0.000716727,-0.00124684,0.000438794,0.000810322,-0.00134044,0.210151,0.00125425,0.014144,1805,1548,17.9307,-18.1717
588,-524,17.9811,17.6943,0.00153356,-0.00128474,-2.5633e-05,0.0015338,-0.00128498,-0.00909419,0.00162953,0.0284641,1812,1548,17.981,-17.6944
595,-524,18.0399,17.0135,0,0,0,0,0,0,0,-1,1819,1548,18.04,-17.0135
602,-524,13.837,12.0682,0,0,0,0,0,0,0,-1,1826,1548,13.837,-12.0683
609,-524,13.0056,10.5138,0,0,0,0,0,0,0,-1,1833,1548,13.0056,-10.5138
616,-524,11.6941,8.65515,0,0,0,0,0,0,0,-1,1840,1548,11.6941,-8.65514
623,-524,9.38452,5.15356,0,0,0,0,0,0,0,-1,1847,1548,9.38456,-5.15359
630,-524,11.0541,3.57434,0,0,0,0,0,0,0,-1,1854,1548,11.0541,-3.57438
637,-524,11.6067,3.20728,0,0,0,0,0,0,0,-1,1861,1548,11.6067,-3.20724
644,-524,12.2134,0.727173,0,0,0,0,0,0,0,-1,1868,1548,12.2134,-0.727222
651,-524,0,0,0,0,0,0,0,0,0,-1,1875,1548,0,0
658,-524,0,0,0,0,0,0,0,0,0,-1,1882,1548,0,0
665,-524,0,0,0,0,0,0,0,0,0,-1,1889,1548,0,0
672,-524,0,0,0,0,0,0,0,0,0,-1,1896,1548,0,0
679,-524,0,0,0,0,0,0,0,0,0,-1,1903,1548,0,0
686,-524,0,0,0,0,0,0,0,0,0,-1,1910,1548,0,0
693,-524,0,0,0,0,0,0,0,0,0,-1,1917,1548,0,0
700,-524,0,0,0,0,0,0,0,0,0,-1,1924,1548,0,0
707,-524,0,0,0,0,0,0,0,0,0,-1,1931,1548,0,0
714,-524,0,0,0,0,0,0,0,0,0,-1,1938,1548,0,0
721,-524,0,0,0,0,0,0,0,0,0,-1,1945,1548,0,0
728,-524,0,0,0,0,0,0,0,0,0,-1,1952,1548,0,0
735,-524,0,0,0,0,0,0,0,0,0,-1,1959,1548,0,0
742,-524,0,0,0,0,0,0,0,0,0,-1,1966,1548,0,0
749,-524,0,0,0,0,0,0,0,0,0,-1,1973,1548,0,0
756,-524,0,0,0,0,0,0,0,0,0,-1,1980,1548,0,0
763,-524,0,0,0,0,0,0,0,0,0,-1,1987,1548,0,0
770,-524,0,0,0,0,0,0,0,0,0,-1,1994,1548,0,0
777,-524,0,0,0,0,0,0,0,0,0,-1,2001,1548,0,0
784,-524,0,0,0,0,0,0,0,0,0,-1,2008,1548,0,0
791,-524,0,0,0,0,0,0,0,0,0,-1,2015,1548,0,0
798,-524,0,0,0,0,0,0,0,0,0,-1,2022,1548,0,0
805,-524,0,0,0,0,0,0,0,0,0,-1,2029,1548,0,0
812,-524,0,0,0,0,0,0,0,0,0,-1,2036,1548,0,0
-700,-531,0,0,0,0,0,0,0,0,0,-1,524,1555,0,0
-693,-531,0,0,0,0,0,0,0,0,0,-1,531,1555,0,0
-686,-531,0,0,0,0,0,0,0,0,0,-1,538,1555,0,0
-679,-531,0,0,0,0,0,0,0,0,0,-1,545,1555,0,0
-672,-531,0,0,0,0,0,0,0,0,0,-1,552,1555,0,0
-665,-531,0,0,0,0,0,0,0,0,0,-1,559,1555,0,0
-658,-531,0,0,0,0,0,0,0,0,0,-1,566,1555,0,0
-651,-531,0,0,0,0,0,0,0,0,0,-1,573,1555,0,0
-644,-531,0,0,0,0,0,0,0,0,0,-1,580,1555,0,0
-637,-531,0,0,0,0,0,0,0,0,0,-1,587,1555,0,0
-630,-531,0,0,0,0,0,0,0,0,0,-1,594,1555,0,0
-623,-531,0,0,0,0,0,0,0,0,0,-1,601,1555,0,0
-616,-531,0,0,0,0,0,0,0,0,0,-1,608,1555,0,0
-609,-531,0,0,0,0,0,0,0,0,0,-1,615,1555,0,0
-602,-531,0,0,0,0,0,0,0,0,0,-1,622,1555,0,0
-595,-531,0,0,0,0,0,0,0,0,0,-1,629,1555,0,0
-588,-531,0,0,0,0,0,0,0,0,0,-1,636,1555,0,0
-581,-531,0,0,0,0,0,0,0,0,0,-1,643,1555,0,0
-574,-531,0,0,0,0,0,0,0,0,0,-1,650,1555,0,0
-567,-531,0,0,0,0,0,0,0,0,0,-1,657,1555,0,0
-560,-531,0,0,0,0,0,0,0,0,0,-1,664,1555,0,0
-553,-531,0,0,0,0,0,0,0,0,0,-1,671,1555,0,0
-546,-531,0,0,0,0,0,0,0,0,0,-1,678,1555,0,0
-539,-531,0,0,0,0,0,0,0,0,0,-1,685,1555,0,0
-532,-531,0,0,0,0,0,0,0,0,0,-1,692,1555,0,0
-525,-531,0,0,0,0,0,0,0,0,0,-1,699,1555,0,0
-518,-531,-1.63983,4.03821,0,0,0,0,0,0,0,-1,706,1555,-1.63982,-4.03821
-511,-531,-2.9682,8.07483,0,0,0,0,0,0,0,-1,713,1555,-2.9682,-8.07479
-504,-531,-2.95978,0.557861,0,0,0,0,0,0,0,-1,720,1555,-2.95978,-0.557917
-497,-531,-2.46039,8.07422,0,0,0,0,0,0,0,-1,727,1555,-2.46039,-8.07423
-490,-531,-0.423462,7.92065,0,0,0,0,0,0,0,-1,734,1555,-0.42344,-7.92066
-483,-531,-2.8222,14.467,0,0,0,0,0,0,0,-1,741,1555,-2.82218,-14.4671
-476,-531,-2.97217,15.6139,0,0,0,0,0,0,0,-1,748,1555,-2.97219,-15.6139
-469,-531,-2.31036,16.2673,0,0,0,0,0,0,0,-1,755,1555,-2.31036,-16.2674
-462,-531,-2.42664,16.2643,0,0,0,0,0,0,0,-1,762,1555,-2.42663,-16.2643
-455,-531,-2.29742,16.5886,0.00178793,0.00357215,-0.00218493,0.00504008,0.000320002,-0.979219,0.00325863,0.0359576,769,1555,-2.29744,-16.5886
-448,-531,-2.19995,16.8596,0.000184887,0.00331294,-0.00162915,0.0040073,-0.000509473,-1.1679,0.00285654,0.0169246,776,1555,-2.19998,-16.8596
-441,-531,-2.26154,17.3591,-0.000522586,0.00295855,-0.00112385,0.00328984,-0.00085388,-1.28413,0.00252642,0.0120441,783,1555,-2.26155,-17.3591
-434,-531,-2.27264,17.8899,-0.00129365,0.00293991,-0.000526342,0.00300436,-0.0013581,-1.44894,0.00257776,0.011771,790,1555,-2.27267,-17.8899
-427,-531,-2.28564,18.387,-0.000835225,0.00261923,0.000396942,0.00266426,-0.00088025,1.45785,0.00213107,0.013922,797,1555,-2.28566,-18.3869
-420,-531,-2.30927,18.9144,0.000266079,0.00296847,0.000927681,0.00325628,-2.17253e-05,1.26997,0.00217813,0.0125859,804,1555,-2.30925,-18.9145
-413,-531,-2.33057,19.4196,0.00131839,0.00350727,0.00170122,0.00443569,0.000389979,1.07123,0.00283609,0.0112576,811,1555,-2.33056,-19.4196
-406,-531,-2.34949,19.9108,0.00230287,0.00430432,0.00270233,0.00618527,0.000421915,0.962728,0.00399031,0.0130226,818,1555,-2.34947,-19.9108
-399,-531,-2.35034,20.3872,0.00313774,0.00533201,0.0035813,0.00798047,0.000489287,0.934035,0.00516495,0.0140083,825,1555,-2.35032,-20.3872
-392,-531,-2.34448,20.8595,0.00375451,0.00728392,0.00422613,0.010099,0.000939443,0.983179,0.00644238,0.0169748,832,1555,-2.34448,-20.8595
-385,-531,-2.39386,21.3638,0.00439516,0.00919285,0.00492901,0.0122758,0.00131225,1.01187,0.00778338,0.0151652,839,1555,-2.39386,-21.3637
-378,-531,-2.42657,21.8074,0.00492632,0.0114976,0.00550727,0.0146249,0.00179906,1.05436,0.00920901,0.0169617,846,1555,-2.42657,-21.8073
-371,-531,-2.32056,22.4706,0.00470738,0.0146249,0.00489667,0.0166351,0.00269715,1.18125,0.0103093,0.0335915,853,1555,-2.32056,-22.4705
-364,-531,-2.05676,23.4037,0,0,0,0,0,0,0,-1,860,1555,-2.05673,-23.4037
-357,-531,-2.30396,23.6389,0,0,0,0,0,0,0,-1,867,1555,-2.30396,-23.639
-350,-531,-2.88593,24.5157,0,0,0,0,0,0,0,-1,874,1555,-2.88591,-24.5157
-343,-531,-2.92126,25.1123,0,0,0,0,0,0,0,-1,881,1555,-2.92126,-25.1123
-336,-531,-3.4126,25.2264,0,0,0,0,0,0,0,-1,888,1555,-3.4126,-25.2265
-329,-531,-3.5813,25.7993,0,0,0,0,0,0,0,-1,895,1555,-3.5813,-25.7993
-322,-531,-3.76758,26.3036,0,0,0,0,0,0,0,-1,902,1555,-3.76757,-26.3035
-315,-531,-4.0097,26.2571,0,0,0,0,0,0,0,-1,909,1555,-4.00969,-26.2571
-308,-531,-1.66455,19.0624,0,0,0,0,0,0,0,-1,916,1555,-1.66455,-19.0623
-301,-531,-2.02405,18.8912,0,0,0,0,0,0,0,-1,923,1555,-2.02407,-18.8913
-294,-531,-1.3244,8.1825,0,0,0,0,0,0,0,-1,930,1555,-1.3244,-8.18251
-287,-531,-1.78192,10.1661,0,0,0,0,0,0,0,-1,937,1555,-1.78192,-10.1661
-280,-531,-2.14508,10.3945,0,0,0,0,0,0,0,-1,944,1555,-2.14506,-10.3945
-273,-531,-2.50818,10.6229,0,0,0,0,0,0,0,-1,951,1555,-2.5082,-10.6229
-266,-531,-4.97742,17.9215,0,0,0,0,0,0,0,-1,958,1555,-4.97744,-17.9215
-259,-531,0,0,0,0,0,0,0,0,0,-1,965,1555,0,0
-252,-531,0,0,0,0,0,0,0,0,0,-1,972,1555,0,0
-245,-531,0,0,0,0,0,0,0,0,0,-1,979,1555,0,0
-238,-531,0,0,0,0,0,0,0,0,0,-1,986,1555,0,0
-231,-531,0,0,0,0,0,0,0,0,0,-1,993,1555,0,0
-224,-531,0,0,0,0,0,0,0,0,0,-1,1000,1555,0,0
-217,-531,0,0,0,0,0,0,0,0,0,-1,1007,1555,0,0
-210,-531,0,0,0,0,0,0,0,0,0,-1,1014,1555,0,0
-203,-531,0,0,0,0,0,0,0,0,0,-1,1021,1555,0,0
-196,-531,0,0,0,0,0,0,0,0,0,-1,1028,1555,0,0
-189,-531,0,0,0,0,0,0,0,0,0,-1,1035,1555,0,0
-182,-531,0,0,0,0,0,0,0,0,0,-1,1042,1555,0,0
-175,-531,0,0,0,0,0,0,0,0,0,-1,1049,1555,0,0
-168,-531,0,0,0,0,0,0,0,0,0,-1,1056,1555,0,0
-161,-531,0,0,0,0,0,0,0,0,0,-1,1063,1555,0,0
-154,-531,0,0,0,0,0,0,0,0,0,-1,1070,1555,0,0
-147,-531,0,0,0,0,0,0,0,0,0,-1,1077,1555,0,0
-140,-531,0,0,0,0,0,0,0,0,0,-1,1084,1555,0,0
-133,-531,0,0,0,0,0,0,0,0,0,-1,1091,1555,0,0
-126,-531,0,0,0,0,0,0,0,0,0,-1,1098,1555,0,0
-119,-531,0,0,0,0,0,0,0,0,0,-1,1105,1555,0,0
-112,-531,0,0,0,0,0,0,0,0,0,-1,1112,1555,0,0
-105,-531,0,0,0,0,0,0,0,0,0,-1,1119,1555,0,0
-98,-531,0,0,0,0,0,0,0,0,0,-1,1126,1555,0,0
-91,-531,0,0,0,0,0,0,0,0,0,-1,1133,1555,0,0
-84,-531,0,0,0,0,0,0,0,0,0,-1,1140,1555,0,0
-77,-531,0,0,0,0,0,0,0,0,0,-1,1147,1555,0,0
-70,-531,0,0,0,0,0,0,0,0,0,-1,1154,1555,0,0
-63,-531,0,0,0,0,0,0,0,0,0,-1,1161,1555,0,0
-56,-531,0,0,0,0,0,0,0,0,0,-1,1168,1555,0,0
-49,-531,0,0,0,0,0,0,0,0,0,-1,1175,1555,0,0
-42,-531,0,0,0,0,0,0,0,0,0,-1,1182,1555,0,0
-35,-531,0,0,0,0,0,0,0,0,0,-1,1189,1555,0,0
-28,-531,0,0,0,0,0,0,0,0,0,-1,1196,1555,0,0
-21,-531,0,0,0,0,0,0,0,0,0,-1,1203,1555,0,0
-14,-531,0,0,0,0,0,0,0,0,0,-1,1210,1555,0,0
-7,-531,0,0,0,0,0,0,0,0,0,-1,1217,1555,0,0
0,-531,0,0,0,0,0,0,0,0,0,-1,1224,1555,0,0
7,-531,0,0,0,0,0,0,0,0,0,-1,1231,1555,0,0
14,-531,0,0,0,0,0,0,0,0,0,-1,1238,1555,0,0
21,-531,0,0,0,0,0,0,0,0,0,-1,1245,1555,0,0
28,-531,0,0,0,0,0,0,0,0,0,-1,1252,1555,0,0
35,-531,0,0,0,0,0,0,0,0,0,-1,1259,1555,0,0
42,-531,0,0,0,0,0,0,0,0,0,-1,1266,1555,0,0
49,-531,0,0,0,0,0,0,0,0,0,-1,1273,1555,0,0
56,-531,0,0,0,0,0,0,0,0,0,-1,1280,1555,0,0
63,-531,0,0,0,0,0,0,0,0,0,-1,1287,1555,0,0
70,-531,0,0,0,0,0,0,0,0,0,-1,1294,1555,0,0
77,-531,0,0,0,0,0,0,0,0,0,-1,1301,1555,0,0
84,-531,0,0,0,0,0,0,0,0,0,-1,1308,1555,0,0
91,-531,0,0,0,0,0,0,0,0,0,-1,1315,1555,0,0
98,-531,0,0,0,0,0,0,0,0,0,-1,1322,1555,0,0
105,-531,0,0,0,0,0,0,0,0,0,-1,1329,1555,0,0
112,-531,0,0,0,0,0,0,0,0,0,-1,1336,1555,0,0
119,-531,0,0,0,0,0,0,0,0,0,-1,1343,1555,0,0
126,-531,0,0,0,0,0,0,0,0,0,-1,1350,1555,0,0
133,-531,0,0,0,0,0,0,0,0,0,-1,1357,1555,0,0
140,-531,0,0,0,0,0,0,0,0,0,-1,1364,1555,0,0
147,-531,0,0,0,0,0,0,0,0,0,-1,1371,1555,0,0
154,-531,0,0,0,0,0,0,0,0,0,-1,1378,1555,0,0
161,-531,0,0,0,0,0,0,0,0,0,-1,1385,1555,0,0
168,-531,0,0,0,0,0,0,0,0,0,-1,1392,1555,0,0
175,-531,0,0,0,0,0,0,0,0,0,-1,1399,1555,0,0
182,-531,0,0,0,0,0,0,0,0,0,-1,1406,1555,0,0
189,-531,0,0,0,0,0,0,0,0,0,-1,1413,1555,0,0
196,-531,0,0,0,0,0,0,0,0,0,-1,1420,1555,0,0
203,-531,0,0,0,0,0,0,0,0,0,-1,1427,1555,0,0
210,-531,0,0,0,0,0,0,0,0,0,-1,1434,1555,0,0
217,-531,0,0,0,0,0,0,0,0,0,-1,1441,1555,0,0
224,-531,0,0,0,0,0,0,0,0,0,-1,1448,1555,0,0
231,-531,0,0,0,0,0,0,0,0,0,-1,1455,1555,0,0
238,-531,0,0,0,0,0,0,0,0,0,-1,1462,1555,0,0
245,-531,0,0,0,0,0,0,0,0,0,-1,1469,1555,0,0
252,-531,0,0,0,0,0,0,0,0,0,-1,1476,1555,0,0
259,-531,0,0,0,0,0,0,0,0,0,-1,1483,1555,0,0
266,-531,0,0,0,0,0,0,0,0,0,-1,1490,1555,0,0
273,-531,0,0,0,0,0,0,0,0,0,-1,1497,1555,0,0
280,-531,0,0,0,0,0,0,0,0,0,-1,1504,1555,0,0
287,-531,0,0,0,0,0,0,0,0,0,-1,1511,1555,0,0
294,-531,0,0,0,0,0,0,0,0,0,-1,1518,1555,0,0
301,-531,0,0,0,0,0,0,0,0,0,-1,1525,1555,0,0
308,-531,0,0,0,0,0,0,0,0,0,-1,1532,1555,0,0
315,-531,0,0,0,0,0,0,0,0,0,-1,1539,1555,0,0
322,-531,0,0,0,0,0,0,0,0,0,-1,1546,1555,0,0
329,-531,0,0,0,0,0,0,0,0,0,-1,1553,1555,0,0
336,-531,0,0,0,0,0,0,0,0,0,-1,1560,1555,0,0
343,-531,0,0,0,0,0,0,0,0,0,-1,1567,1555,0,0
350,-531,0,0,0,0,0,0,0,0,0,-1,1574,1555,0,0
357,-531,0,0,0,0,0,0,0,0,0,-1,1581,1555,0,0
364,-531,0,0,0,0,0,0,0,0,0,-1,1588,1555,0,0
371,-531,0,0,0,0,0,0,0,0,0,-1,1595,1555,0,0
378,-531,0,0,0,0,0,0,0,0,0,-1,1602,1555,0,0
385,-531,3.48169,1.78625,0,0,0,0,0,0,0,-1,1609,1555,3.48165,-1.78624
392,-531,10.8781,9.09204,0,0,0,0,0,0,0,-1,1616,1555,10.8781,-9.09205
399,-531,8.26306,5.29602,0,0,0,0,0,0,0,-1,1623,1555,8.26302,-5.29607
406,-531,8.26147,5.42712,0,0,0,0,0,0,0,-1,1630,1555,8.26145,-5.42716
413,-531,8.20618,5.75012,0,0,0,0,0,0,0,-1,1637,1555,8.20619,-5.75017
420,-531,7.64868,7.09558,0,0,0,0,0,0,0,-1,1644,1555,7.64867,-7.09564
427,-531,9.93054,11.8412,0,0,0,0,0,0,0,-1,1651,1555,9.93059,-11.8412
434,-531,10.244,11.7072,0,0,0,0,0,0,0,-1,1658,1555,10.244,-11.7071
441,-531,11.4528,12.9397,0,0,0,0,0,0,0,-1,1665,1555,11.4528,-12.9397
448,-531,11.928,18.8029,0,0,0,0,0,0,0,-1,1672,1555,11.928,-18.8028
455,-531,14.4877,9.67065,0,0,0,0,0,0,0,-1,1679,1555,14.4876,-9.67066
462,-531,13.5253,12.2002,0,0,0,0,0,0,0,-1,1686,1555,13.5252,-12.2002
469,-531,15.5087,15.7894,0,0,0,0,0,0,0,-1,1693,1555,15.5086,-15.7895
476,-531,14.6582,16.2264,0,0,0,0,0,0,0,-1,1700,1555,14.6582,-16.2264
483,-531,14.755,18.5994,0,0,0,0,0,0,0,-1,1707,1555,14.7551,-18.5994
490,-531,16.8584,25.1056,0,0,0,0,0,0,0,-1,1714,1555,16.8584,-25.1056
497,-531,17.2839,24.1954,0,0,0,0,0,0,0,-1,1721,1555,17.284,-24.1955
504,-531,17.4208,23.4642,0.00979752,0.00902161,-0.00689031,0.0163108,0.00250834,-0.757276,0.0101417,0.034915,1728,1555,17.4208,-23.4642
511,-531,17.5245,22.9271,0.008222,0.00738494,-0.00577593,0.0135945,0.0020124,-0.749231,0.00847227,0.0157209,1735,1555,17.5245,-22.9271
518,-531,17.5406,22.4539,0.00658362,0.00566197,-0.00454044,0.0106866,0.00155903,-0.734824,0.00666575,0.0144458,1742,1555,17.5407,-22.4539
525,-531,17.5422,21.9927,0.00492824,0.00414749,-0.00340892,0.00796906,0.00110666,-0.728389,0.00498493,0.0133806,1749,1555,17.5422,-21.9926
532,-531,17.557,21.5033,0.00347564,0.00290095,-0.00242971,0.00563493,0.000741658,-0.72654,0.00353543,0.0103534,1756,1555,17.557,-21.5034
539,-531,17.5342,21.0455,0.00228226,0.00182788,-0.00154494,0.00361663,0.000493508,-0.712394,0.00226458,0.0125707,1763,1555,17.5342,-21.0455
546,-531,17.4771,20.5695,0.00118169,0.000804862,-0.000673486,0.00169262,0.000293931,-0.649006,0.00104432,0.016389,1770,1555,17.477,-20.5694
553,-531,17.5114,20.1639,0.00023639,-0.000181903,0.000162869,0.000292326,-0.000237839,0.330819,0.000306629,0.0307099,1777,1555,17.5114,-20.1639
560,-531,17.5658,19.726,-0.000411967,-0.000975857,0.000845756,0.000197601,-0.00158543,0.624509,0.0011286,0.0339854,1784,1555,17.5658,-19.7259
567,-531,17.4244,19.1663,-0.000720613,-0.00163686,0.00129789,0.000197637,-0.00255511,0.615737,0.00177296,0.0187988,1791,1555,17.4245,-19.1663
574,-531,17.4205,18.6937,-0.000733967,-0.00213228,0.00156947,0.000285033,-0.00315128,0.575857,0.00220202,0.0135919,1798,1555,17.4205,-18.6937
581,-531,17.4679,18.1874,-0.000234051,-0.00244183,0.00149156,0.000517677,-0.00319355,0.466833,0.00232092,0.0187225,1805,1555,17.4679,-18.1874
588,-531,17.5159,17.6625,0.000920821,-0.00240157,0.000932702,0.00116475,-0.0026455,0.255801,0.00225454,0.0357234,1812,1555,17.5159,-17.6625
595,-531,17.4922,17.0892,0,0,0,0,0,0,0,-1,1819,1555,17.4922,-17.0892
602,-531,13.701,11.8346,0,0,0,0,0,0,0,-1,1826,1555,13.701,-11.8347
609,-531,10.9072,8.50903,0,0,0,0,0,0,0,-1,1833,1555,10.9073,-8.50902
616,-531,10.5723,7.17859,0,0,0,0,0,0,0,-1,1840,1555,10.5723,-7.17855
623,-531,10.0674,5.08984,0,0,0,0,0,0,0,-1,1847,1555,10.0674,-5.08981
630,-531,11.672,3.18909,0,0,0,0,0,0,0,-1,1854,1555,11.672,-3.18904
637,-531,13.2546,1.38965,0,0,0,0,0,0,0,-1,1861,1555,13.2547,-1.3896
644,-531,0,0,0,0,0,0,0,0,0,-1,1868,1555,0,0
651,-531,0,0,0,0,0,0,0,0,0,-1,1875,1555,0,0
658,-531,0,0,0,0,0,0,0,0,0,-1,1882,1555,0,0
665,-531,0,0,0,0,0,0,0,0,0,-1,1889,1555,0,0
672,-531,0,0,0,0,0,0,0,0,0,-1,1896,1555,0,0
679,-531,0,0,0,0,0,0,0,0,0,-1,1903,1555,0,0
686,-531,0,0,0,0,0,0,0,0,0,-1,1910,1555,0,0
693,-531,0,0,0,0,0,0,0,0,0,-1,1917,1555,0,0
700,-531,0,0,0,0,0,0,0,0,0,-1,1924,1555,0,0
707,-531,0,0,0,0,0,0,0,0,0,-1,1931,1555,0,0
714,-531,0,0,0,0,0,0,0,0,0,-1,1938,1555,0,0
721,-531,0,0,0,0,0,0,0,0,0,-1,1945,1555,0,0
728,-531,0,0,0,0,0,0,0,0,0,-1,1952,1555,0,0
735,-531,0,0,0,0,0,0,0,0,0,-1,1959,1555,0,0
742,-531,0,0,0,0,0,0,0,0,0,-1,1966,1555,0,0
749,-531,0,0,0,0,0,0,0,0,0,-1,1973,1555,0,0
756,-531,0,0,0,0,0,0,0,0,0,-1,1980,1555,0,0
763,-531,0,0,0,0,0,0,0,0,0,-1,1987,1555,0,0
770,-531,0,0,0,0,0,0,0,0,0,-1,1994,1555,0,0
777,-531,0,0,0,0,0,0,0,0,0,-1,2001,1555,0,0
784,-531,0,0,0,0,0,0,0,0,0,-1,2008,1555,0,0
791,-531,0,0,0,0,0,0,0,0,0,-1,2015,1555,0,0
798,-531,0,0,0,0,0,0,0,0,0,-1,2022,1555,0,0
805,-531,0,0,0,0,0,0,0,0,0,-1,2029,1555,0,0
812,-531,0,0,0,0,0,0,0,0,0,-1,2036,1555,0,0
-700,-538,0,0,0,0,0,0,0,0,0,-1,524,1562,0,0
-693,-538,0,0,0,0,0,0,0,0,0,-1,531,1562,0,0
-686,-538,0,0,0,0,0,0,0,0,0,-1,538,1562,0,0
-679,-538,0,0,0,0,0,0,0,0,0,-1,545,1562,0,0
-672,-538,0,0,0,0,0,0,0,0,0,-1,552,1562,0,0
-665,-538,0,0,0,0,0,0,0,0,0,-1,559,1562,0,0
-658,-538,0,0,0,0,0,0,0,0,0,-1,566,1562,0,0
-651,-538,0,0,0,0,0,0,0,0,0,-1,573,1562,0,0
-644,-538,0,0,0,0,0,0,0,0,0,-1,580,1562,0,0
-637,-538,0,0,0,0,0,0,0,0,0,-1,587,1562,0,0
-630,-538,0,0,0,0,0,0,0,0,0,-1,594,1562,0,0
-623,-538,0,0,0,0,0,0,0,0,0,-1,601,1562,0,0
-616,-538,0,0,0,0,0,0,0,0,0,-1,608,1562,0,0
-609,-538,0,0,0,0,0,0,0,0,0,-1,615,1562,0,0
-602,-538,0,0,0,0,0,0,0,0,0,-1,622,1562,0,0
-595,-538,0,0,0,0,0,0,0,0,0,-1,629,1562,0,0
-588,-538,0,0,0,0,0,0,0,0,0,-1,636,1562,0,0
-581,-538,0,0,0,0,0,0,0,0,0,-1,643,1562,0,0
-574,-538,0,0,0,0,0,0,0,0,0,-1,650,1562,0,0
-567,-538,0,0,0,0,0,0,0,0,0,-1,657,1562,0,0
-560,-538,0,0,0,0,0,0,0,0,0,-1,664,1562,0,0
-553,-538,0,0,0,0,0,0,0,0,0,-1,671,1562,0,0
-546,-538,0,0,0,0,0,0,0,0,0,-1,678,1562,0,0
-539,-538,0,0,0,0,0,0,0,0,0,-1,685,1562,0,0
-532,-538,0,0,0,0,0,0,0,0,0,-1,692,1562,0,0
-525,-538,0,0,0,0,0,0,0,0,0,-1,699,1562,0,0
-518,-538,0,0,0,0,0,0,0,0,0,-1,706,1562,0,0
-511,-538,-2.6582,-1.54321,0,0,0,0,0,0,0,-1,713,1562,-2.65821,1.54327
-504,-538,-2.66455,-0.71167,0,0,0,0,0,0,0,-1,720,1562,-2.66456,0.711667
-497,-538,-0.763855,6.77747,0,0,0,0,0,0,0,-1,727,1562,-0.76385,-6.77743
-490,-538,-2.70453,8.01465,0,0,0,0,0,0,0,-1,734,1562,-2.70451,-8.0147
-483,-538,-0.933533,7.84644,0,0,0,0,0,0,0,-1,741,1562,-0.933548,-7.84638
-476,-538,-2.33173,14.524,0,0,0,0,0,0,0,-1,748,1562,-2.33173,-14.5241
-469,-538,-2.08881,15.3328,0,0,0,0,0,0,0,-1,755,1562,-2.08882,-15.3328
-462,-538,-1.99097,15.9578,0,0,0,0,0,0,0,-1,762,1562,-1.99094,-15.9577
-455,-538,-1.75201,16.4816,0.00151744,0.00781425,-0.00139003,0.00810745,0.00122424,-1.36291,0.00504663,0.038954,769,1562,-1.75204,-16.4815
-448,-538,-1.64435,16.953,-0.000446605,0.0064073,-0.0012067,0.00661354,-0.000652851,-1.40151,0.00464197,0.0187729,776,1562,-1.64432,-16.953
-441,-538,-1.73718,17.4932,-0.00143442,0.0051249,-0.00105483,0.00529035,-0.00159988,-1.41521,0.00416394,0.021132,783,1562,-1.73721,-17.4932
-434,-538,-1.79657,17.924,-0.00242087,0.00427603,-0.00072392,0.00435339,-0.00249823,-1.46434,0.00400383,0.0125289,790,1562,-1.7966,-17.9239
-427,-538,-1.80865,18.4448,-0.0020551,0.00324654,-2.45582e-05,0.00324666,-0.00205521,-1.56616,0.00308669,0.0128013,797,1562,-1.80865,-18.4448
-420,-538,-1.84302,18.9625,-0.00102092,0.00311121,0.000265656,0.00312822,-0.00103793,1.50686,0.00250421,0.0167665,804,1562,-1.84305,-18.9625
-413,-538,-1.87091,19.4417,-4.67191e-05,0.00322429,0.000837386,0.0034262,-0.000248628,1.33419,0.00237136,0.0178649,811,1562,-1.87089,-19.4416
-406,-538,-1.8548,19.9193,0.000878135,0.00360314,0.00165585,0.004385,9.62822e-05,1.12966,0.00289177,0.0152223,818,1562,-1.85477,-19.9193
-399,-538,-1.85602,20.4192,0.00163483,0.00393022,0.00233986,0.00538871,0.000176346,1.01341,0.00353516,0.0139675,825,1562,-1.85604,-20.4192
-392,-538,-1.85126,20.8921,0.00226591,0.00541284,0.00284043,0.0070865,0.000592245,1.03834,0.00453981,0.0152308,832,1562,-1.85126,-20.8921
-385,-538,-1.89679,21.3856,0.00298735,0.00689285,0.00339205,0.00885407,0.00102612,1.04657,0.00559215,0.0132137,839,1562,-1.89677,-21.3856
-378,-538,-1.91382,21.8833,0.0036004,0.00872985,0.00385489,0.0107952,0.00153501,1.07893,0.00674365,0.0105995,846,1562,-1.91383,-21.8832
-371,-538,-1.94501,22.3492,0.00361716,0.0111332,0.00340028,0.0124432,0.00230718,1.20306,0.00764338,0.013083,853,1562,-1.94503,-22.3492
-364,-538,-1.88757,22.9065,0.00362978,0.0136569,0.00299551,0.0144836,0.00280306,1.30151,0.00887025,0.0176077,860,1562,-1.88756,-22.9064
-357,-538,-1.84558,23.4924,0.00326837,0.0166512,0.0020899,0.01697,0.0029496,1.41943,0.0104695,0.0389772,867,1562,-1.8456,-23.4924
-350,-538,-2.09357,23.9989,0.00260109,0.0202247,0.00062435,0.0202468,0.002579,1.53543,0.0127256,0.045411,874,1562,-2.09355,-23.9989
-343,-538,-2.17822,24.6492,0.00138528,0.0243278,-0.00171388,0.0244552,0.00125796,-1.49664,0.0159007,0.0456414,881,1562,-2.17825,-24.6491
-336,-538,-2.43939,25.0052,0,0,0,0,0,0,0,-1,888,1562,-2.4394,-25.0052
-329,-538,-2.70874,25.1993,0,0,0,0,0,0,0,-1,895,1562,-2.70875,-25.1994
-322,-538,-3.03198,25.4816,-0.00418745,0.0412445,-0.0133223,0.0448629,-0.00780585,-1.30559,0.0328214,0.0458469,902,1562,-3.03199,-25.4815
-315,-538,-3.24982,25.3689,0,0,0,0,0,0,0,-1,909,1562,-3.24984,-25.369
-308,-538,-3.6936,25.5172,0,0,0,0,0,0,0,-1,916,1562,-3.6936,-25.5172
-301,-538,-0.452393,18.5101,0,0,0,0,0,0,0,-1,923,1562,-0.452367,-18.5102
-294,-538,1.23138,14.0757,0,0,0,0,0,0,0,-1,930,1562,1.23137,-14.0757
-287,-538,-2.60419,10.2361,0,0,0,0,0,0,0,-1,937,1562,-2.6042,-10.2361
-280,-538,-2.93475,10.5106,0,0,0,0,0,0,0,-1,944,1562,-2.93475,-10.5106
-273,-538,-3.26532,10.785,0,0,0,0,0,0,0,-1,951,1562,-3.26531,-10.785
-266,-538,-5.03412,15.9951,0,0,0,0,0,0,0,-1,958,1562,-5.03409,-15.9951
-259,-538,-5.89642,16.5184,0,0,0,0,0,0,0,-1,965,1562,-5.89644,-16.5184
-252,-538,0,0,0,0,0,0,0,0,0,-1,972,1562,0,0
-245,-538,0,0,0,0,0,0,0,0,0,-1,979,1562,0,0
-238,-538,0,0,0,0,0,0,0,0,0,-1,986,1562,0,0
-231,-538,0,0,0,0,0,0,0,0,0,-1,993,1562,0,0
-224,-538,0,0,0,0,0,0,0,0,0,-1,1000,1562,0,0
-217,-538,0,0,0,0,0,0,0,0,0,-1,1007,1562,0,0
-210,-538,0,0,0,0,0,0,0,0,0,-1,1014,1562,0,0
-203,-538,0,0,0,0,0,0,0,0,0,-1,1021,1562,0,0
-196,-538,0,0,0,0,0,0,0,0,0,-1,1028,1562,0,0
-189,-538,0,0,0,0,0,0,0,0,0,-1,1035,1562,0,0
-182,-538,0,0,0,0,0,0,0,0,0,-1,1042,1562,0,0
-175,-538,0,0,0,0,0,0,0,0,0,-1,1049,1562,0,0
-168,-538,0,0,0,0,0,0,0,0,0,-1,1056,1562,0,0
-161,-538,0,0,0,0,0,0,0,0,0,-1,1063,1562,0,0
-154,-538,0,0,0,0,0,0,0,0,0,-1,1070,1562,0,0
-147,-538,0,0,0,0,0,0,0,0,0,-1,1077,1562,0,0
-140,-538,0,0,0,0,0,0,0,0,0,-1,1084,1562,0,0
-133,-538,0,0,0,0,0,0,0,0,0,-1,1091,1562,0,0
-126,-538,0,0,0,0,0,0,0,0,0,-1,1098,1562,0,0
-119,-538,0,0,0,0,0,0,0,0,0,-1,1105,1562,0,0
-112,-538,0,0,0,0,0,0,0,0,0,-1,1112,1562,0,0
-105,-538,0,0,0,0,0,0,0,0,0,-1,1119,1562,0,0
-98,-538,0,0,0,0,0,0,0,0,0,-1,1126,1562,0,0
-91,-538,0,0,0,0,0,0,0,0,0,-1,1133,1562,0,0
-84,-538,0,0,0,0,0,0,0,0,0,-1,1140,1562,0,0
-77,-538,0,0,0,0,0,0,0,0,0,-1,1147,1562,0,0
-70,-538,0,0,0,0,0,0,0,0,0,-1,1154,1562,0,0
-63,-538,0,0,0,0,0,0,0,0,0,-1,1161,1562,0,0
-56,-538,0,0,0,0,0,0,0,0,0,-1,1168,1562,0,0
-49,-538,0,0,0,0,0,0,0,0,0,-1,1175,1562,0,0
-42,-538,0,0,0,0,0,0,0,0,0,-1,1182,1562,0,0
-35,-538,0,0,0,0,0,0,0,0,0,-1,1189,1562,0,0
-28,-538,0,0,0,0,0,0,0,0,0,-1,1196,1562,0,0
-21,-538,0,0,0,0,0,0,0,0,0,-1,1203,1562,0,0
-14,-538,0,0,0,0,0,0,0,0,0,-1,1210,1562,0,0
-7,-538,0,0,0,0,0,0,0,0,0,-1,1217,1562,0,0
0,-538,0,0,0,0,0,0,0,0,0,-1,1224,1562,0,0
7,-538,0,0,0,0,0,0,0,0,0,-1,1231,1562,0,0
14,-538,0,0,0,0,0,0,0,0,0,-1,1238,1562,0,0
21,-538,0,0,0,0,0,0,0,0,0,-1,1245,1562,0,0
28,-538,0,0,0,0,0,0,0,0,0,-1,1252,1562,0,0
35,-538,0,0,0,0,0,0,0,0,0,-1,1259,1562,0,0
42,-538,0,0,0,0,0,0,0,0,0,-1,1266,1562,0,0
49,-538,0,0,0,0,0,0,0,0,0,-1,1273,1562,0,0
56,-538,0,0,0,0,0,0,0,0,0,-1,1280,1562,0,0
63,-538,0,0,0,0,0,0,0,0,0,-1,1287,1562,0,0
70,-538,0,0,0,0,0,0,0,0,0,-1,1294,1562,0,0
77,-538,0,0,0,0,0,0,0,0,0,-1,1301,1562,0,0
84,-538,0,0,0,0,0,0,0,0,0,-1,1308,1562,0,0
91,-538,0,0,0,0,0,0,0,0,0,-1,1315,1562,0,0
98,-538,0,0,0,0,0,0,0,0,0,-1,1322,1562,0,0
105,-538,0,0,0,0,0,0,0,0,0,-1,1329,1562,0,0
112,-538,0,0,0,0,0,0,0,0,0,-1,1336,1562,0,0
119,-538,0,0,0,0,0,0,0,0,0,-1,1343,1562,0,0
126,-538,0,0,0,0,0,0,0,0,0,-1,1350,1562,0,0
133,-538,0,0,0,0,0,0,0,0,0,-1,1357,1562,0,0
140,-538,0,0,0,0,0,0,0,0,0,-1,1364,1562,0,0
147,-538,0,0,0,0,0,0,0,0,0,-1,1371,1562,0,0
154,-538,0,0,0,0,0,0,0,0,0,-1,1378,1562,0,0
161,-538,0,0,0,0,0,0,0,0,0,-1,1385,1562,0,0
168,-538,0,0,0,0,0,0,0,0,0,-1,1392,1562,0,0
175,-538,0,0,0,0,0,0,0,0,0,-1,1399,1562,0,0
182,-538,0,0,0,0,0,0,0,0,0,-1,1406,1562,0,0
189,-538,0,0,0,0,0,0,0,0,0,-1,1413,1562,0,0
196,-538,0,0,0,0,0,0,0,0,0,-1,1420,1562,0,0
203,-538,0,0,0,0,0,0,0,0,0,-1,1427,1562,0,0
210,-538,0,0,0,0,0,0,0,0,0,-1,1434,1562,0,0
217,-538,0,0,0,0,0,0,0,0,0,-1,1441,1562,0,0
224,-538,0,0,0,0,0,0,0,0,0,-1,1448,1562,0,0
231,-538,0,0,0,0,0,0,0,0,0,-1,1455,1562,0,0
238,-538,0,0,0,0,0,0,0,0,0,-1,1462,1562,0,0
245,-538,0,0,0,0,0,0,0,0,0,-1,1469,1562,0,0
252,-538,0,0,0,0,0,0,0,0,0,-1,1476,1562,0,0
259,-538,0,0,0,0,0,0,0,0,0,-1,1483,1562,0,0
266,-538,0,0,0,0,0,0,0,0,0,-1,1490,1562,0,0
273,-538,0,0,0,0,0,0,0,0,0,-1,1497,1562,0,0
280,-538,0,0,0,0,0,0,0,0,0,-1,1504,1562,0,0
287,-538,0,0,0,0,0,0,0,0,0,-1,1511,1562,0,0
294,-538,0,0,0,0,0,0,0,0,0,-1,1518,1562,0,0
301,-538,0,0,0,0,0,0,0,0,0,-1,1525,1562,0,0
308,-538,0,0,0,0,0,0,0,0,0,-1,1532,1562,0,0
315,-538,0,0,0,0,0,0,0,0,0,-1,1539,1562,0,0
322,-538,0,0,0,0,0,0,0,0,0,-1,1546,1562,0,0
329,-538,0,0,0,0,0,0,0,0,0,-1,1553,1562,0,0
336,-538,0,0,0,0,0,0,0,0,0,-1,1560,1562,0,0
343,-538,0,0,0,0,0,0,0,0,0,-1,1567,1562,0,0
350,-538,0,0,0,0,0,0,0,0,0,-1,1574,1562,0,0
357,-538,0,0,0,0,0,0,0,0,0,-1,1581,1562,0,0
364,-538,0,0,0,0,0,0,0,0,0,-1,1588,1562,0,0
371,-538,0,0,0,0,0,0,0,0,0,-1,1595,1562,0,0
378,-538,9.65479,5.82434,0,0,0,0,0,0,0,-1,1602,1562,9.6548,-5.82439
385,-538,10.5449,7.9502,0,0,0,0,0,0,0,-1,1609,1562,10.5449,-7.95014
392,-538,8.20361,7.07214,0,0,0,0,0,0,0,-1,1616,1562,8.20362,-7.07211
399,-538,7.85425,4.70508,0,0,0,0,0,0,0,-1,1623,1562,7.85425,-4.70512
406,-538,7.77734,4.96094,0,0,0,0,0,0,0,-1,1630,1562,7.77729,-4.96097
413,-538,13.0446,13.1765,0,0,0,0,0,0,0,-1,1637,1562,13.0446,-13.1765
420,-538,9.96216,12.7653,0,0,0,0,0,0,0,-1,1644,1562,9.96221,-12.7653
427,-538,10.1732,14.5863,0,0,0,0,0,0,0,-1,1651,1562,10.1732,-14.5863
434,-538,9.64331,14.7745,0,0,0,0,0,0,0,-1,1658,1562,9.64326,-14.7746
441,-538,11.5039,20.5195,0,0,0,0,0,0,0,-1,1665,1562,11.5039,-20.5195
448,-538,12.8766,22.4932,0,0,0,0,0,0,0,-1,1672,1562,12.8766,-22.4932
455,-538,12.5693,17.4128,0,0,0,0,0,0,0,-1,1679,1562,12.5694,-17.4128
462,-538,12.1389,17.017,0,0,0,0,0,0,0,-1,1686,1562,12.1389,-17.017
469,-538,14.3802,16.6945,0,0,0,0,0,0,0,-1,1693,1562,14.3803,-16.6945
476,-538,13.724,19.0608,0,0,0,0,0,0,0,-1,1700,1562,13.724,-19.0608
483,-538,16.9609,24.89,0,0,0,0,0,0,0,-1,1707,1562,16.9609,-24.8901
490,-538,16.9054,24.2911,0.0101233,0.0122223,-0.00814552,0.0193857,0.00295998,-0.849467,0.0120588,0.0490518,1714,1562,16.9054,-24.2911
497,-538,16.9863,23.9484,0.00850057,0.00958187,-0.00635454,0.0154187,0.00266372,-0.827836,0.00951633,0.0352597,1721,1562,16.9864,-23.9483
504,-538,17.0981,23.3303,0.00735717,0.00735604,-0.00529383,0.0126504,0.00206277,-0.785345,0.00783705,0.0153153,1728,1562,17.0981,-23.3303
511,-538,17.0723,22.8872,0.00606039,0.00579155,-0.0043106,0.0102387,0.00161327,-0.769811,0.00635663,0.0101452,1735,1562,17.0723,-22.8872
518,-538,17.0715,22.4514,0.004683,0.00418714,-0.00324644,0.00769097,0.00117918,-0.747288,0.00478295,0.0111573,1742,1562,17.0716,-22.4514
525,-538,17.0631,21.9824,0.00330474,0.00277909,-0.00226364,0.00532076,0.000763068,-0.727603,0.00332216,0.0121551,1749,1562,17.0631,-21.9824
532,-538,17.068,21.5269,0.0020937,0.00159725,-0.00140564,0.00327287,0.000418081,-0.698003,0.00205676,0.0132625,1756,1562,17.068,-21.5269
539,-538,17.0632,21.0605,0.00105556,0.000566225,-0.000596611,0.00145573,0.000166063,-0.590807,0.000920139,0.0157182,1763,1562,17.0632,-21.0605
546,-538,17.0298,20.5839,2.79451e-05,-0.000471865,0.000263732,0.000141368,-0.000585288,0.406156,0.000444866,0.0169741,1770,1562,17.0298,-20.5839
553,-538,17.0391,20.1268,-0.000891285,-0.00147713,0.00113016,-1.67047e-05,-0.00235171,0.658595,0.00156227,0.0284499,1777,1562,17.039,-20.1268
560,-538,17.0128,19.6896,-0.00155138,-0.00231069,0.00187333,-1.96208e-05,-0.00384245,0.685422,0.00255512,0.0302536,1784,1562,17.0129,-19.6895
567,-538,16.9305,19.1843,-0.00191017,-0.00304302,0.00244909,3.71435e-05,-0.00499034,0.671757,0.00333934,0.0216957,1791,1562,16.9306,-19.1844
574,-538,16.9108,18.7118,-0.00196151,-0.00362569,0.00285551,0.000180678,-0.00576788,0.643624,0.00390687,0.0244236,1798,1562,16.9108,-18.7118
581,-538,16.9731,18.2477,-0.00137718,-0.00394083,0.00281194,0.000431309,-0.00574932,0.571544,0.00398444,0.0336747,1805,1562,16.9731,-18.2477
588,-538,17.2422,17.762,0,0,0,0,0,0,0,-1,1812,1562,17.2422,-17.7619
595,-538,15.9808,16.0894,0,0,0,0,0,0,0,-1,1819,1562,15.9808,-16.0893
602,-538,10.314,8.94238,0,0,0,0,0,0,0,-1,1826,1562,10.314,-8.94238
609,-538,10.1046,7.05713,0,0,0,0,0,0,0,-1,1833,1562,10.1046,-7.05719
616,-538,9.92249,5.43506,0,0,0,0,0,0,0,-1,1840,1562,9.92254,-5.43507
623,-538,11.1711,4.31604,0,0,0,0,0,0,0,-1,1847,1562,11.1711,-4.316
630,-538,12.6112,2.61633,0,0,0,0,0,0,0,-1,1854,1562,12.6112,-2.61637
637,-538,0,0,0,0,0,0,0,0,0,-1,1861,1562,0,0
644,-538,0,0,0,0,0,0,0,0,0,-1,1868,1562,0,0
651,-538,0,0,0,0,0,0,0,0,0,-1,1875,1562,0,0
658,-538,0,0,0,0,0,0,0,0,0,-1,1882,1562,0,0
665,-538,0,0,0,0,0,0,0,0,0,-1,1889,1562,0,0
672,-538,0,0,0,0,0,0,0,0,0,-1,1896,1562,0,0
679,-538,0,0,0,0,0,0,0,0,0,-1,1903,1562,0,0
686,-538,0,0,0,0,0,0,0,0,0,-1,1910,1562,0,0
693,-538,0,0,0,0,0,0,0,0,0,-1,1917,1562,0,0
700,-538,0,0,0,0,0,0,0,0,0,-1,1924,1562,0,0
707,-538,0,0,0,0,0,0,0,0,0,-1,1931,1562,0,0
714,-538,0,0,0,0,0,0,0,0,0,-1,1938,1562,0,0
721,-538,0,0,0,0,0,0,0,0,0,-1,1945,1562,0,0
728,-538,0,0,0,0,0,0,0,0,0,-1,1952,1562,0,0
735,-538,0,0,0,0,0,0,0,0,0,-1,1959,1562,0,0
742,-538,0,0,0,0,0,0,0,0,0,-1,1966,1562,0,0
749,-538,0,0,0,0,0,0,0,0,0,-1,1973,1562,0,0
756,-538,0,0,0,0,0,0,0,0,0,-1,1980,1562,0,0
763,-538,0,0,0,0,0,0,0,0,0,-1,1987,1562,0,0
770,-538,0,0,0,0,0,0,0,0,0,-1,1994,1562,0,0
777,-538,0,0,0,0,0,0,0,0,0,-1,2001,1562,0,0
784,-538,0,0,0,0,0,0,0,0,0,-1,2008,1562,0,0
791,-538,0,0,0,0,0,0,0,0,0,-1,2015,1562,0,0
798,-538,0,0,0,0,0,0,0,0,0,-1,2022,1562,0,0
805,-538,0,0,0,0,0,0,0,0,0,-1,2029,1562,0,0
812,-538,0,0,0,0,0,0,0,0,0,-1,2036,1562,0,0
-700,-545,0,0,0,0,0,0,0,0,0,-1,524,1569,0,0
-693,-545,0,0,0,0,0,0,0,0,0,-1,531,1569,0,0
-686,-545,0,0,0,0,0,0,0,0,0,-1,538,1569,0,0
-679,-545,0,0,0,0,0,0,0,0,0,-1,545,1569,0,0
-672,-545,0,0,0,0,0,0,0,0,0,-1,552,1569,0,0
-665,-545,0,0,0,0,0,0,0,0,0,-1,559,1569,0,0
-658,-545,0,0,0,0,0,0,0,0,0,-1,566,1569,0,0
-651,-545,0,0,0,0,0,0,0,0,0,-1,573,1569,0,0
-644,-545,0,0,0,0,0,0,0,0,0,-1,580,1569,0,0
-637,-545,0,0,0,0,0,0,0,0,0,-1,587,1569,0,0
-630,-545,0,0,0,0,0,0,0,0,0,-1,594,1569,0,0
-623,-545,0,0,0,0,0,0,0,0,0,-1,601,1569,0,0
-616,-545,0,0,0,0,0,0,0,0,0,-1,608,1569,0,0
-609,-545,0,0,0,0,0,0,0,0,0,-1,615,1569,0,0
-602,-545,0,0,0,0,0,0,0,0,0,-1,622,1569,0,0
-595,-545,0,0,0,0,0,0,0,0,0,-1,629,1569,0,0
-588,-545,0,0,0,0,0,0,0,0,0,-1,636,1569,0,0
-581,-545,0,0,0,0,0,0,0,0,0,-1,643,1569,0,0
-574,-545,0,0,0,0,0,0,0,0,0,-1,650,1569,0,0
-567,-545,0,0,0,0,0,0,0,0,0,-1,657,1569,0,0
-560,-545,0,0,0,0,0,0,0,0,0,-1,664,1569,0,0
-553,-545,0,0,0,0,0,0,0,0,0,-1,671,1569,0,0
-546,-545,0,0,0,0,0,0,0,0,0,-1,678,1569,0,0
-539,-545,0,0,0,0,0,0,0,0,0,-1,685,1569,0,0
-532,-545,0,0,0,0,0,0,0,0,0,-1,692,1569,0,0
-525,-545,0,0,0,0,0,0,0,0,0,-1,699,1569,0,0
-518,-545,0,0,0,0,0,0,0,0,0,-1,706,1569,0,0
-511,-545,0,0,0,0,0,0,0,0,0,-1,713,1569,0,0
-504,-545,-3.55237,-2.5354,0,0,0,0,0,0,0,-1,720,1569,-3.55236,2.53545
-497,-545,2.26575,5.69214,0,0,0,0,0,0,0,-1,727,1569,2.26573,-5.6922
-490,-545,-2.17334,7.81396,0,0,0,0,0,0,0,-1,734,1569,-2.17334,-7.81399
-483,-545,-1.88336,5.8446,0,0,0,0,0,0,0,-1,741,1569,-1.88334,-5.84466
-476,-545,-1.13147,6.5741,0,0,0,0,0,0,0,-1,748,1569,-1.13149,-6.57405
-469,-545,-1.86725,14.3982,0,0,0,0,0,0,0,-1,755,1569,-1.86727,-14.3982
-462,-545,-1.55524,15.6511,0,0,0,0,0,0,0,-1,762,1569,-1.55525,-15.6511
-455,-545,-0.891418,15.4944,0.000601611,0.0139617,-9.4377e-05,0.0139624,0.000600945,-1.56373,0.00911457,0.0424899,769,1569,-0.891397,-15.4943
-448,-545,-0.998047,16.771,-0.00154857,0.0107705,-0.00042725,0.0107853,-0.00156337,-1.53617,0.00776396,0.0305349,776,1569,-0.998071,-16.7709
-441,-545,-1.13831,17.5614,-0.00265037,0.00813764,-0.000720443,0.00818554,-0.00269827,-1.50441,0.00654456,0.0261102,783,1569,-1.13828,-17.5614
-434,-545,-1.35828,17.9966,-0.00371246,0.006086,-0.0007462,0.0061425,-0.00376896,-1.49522,0.00577682,0.0228384,790,1569,-1.35826,-17.9966
-427,-545,-1.31903,18.4406,-0.00333339,0.00415481,-0.000311475,0.00416775,-0.00334632,-1.5293,0.00434688,0.0181331,797,1569,-1.31905,-18.4406
-420,-545,-1.32806,18.9305,-0.0022884,0.0034131,-0.000241727,0.00342333,-0.00229863,-1.5285,0.00332478,0.023085,804,1569,-1.32804,-18.9306
-413,-545,-1.35059,19.4181,-0.00133067,0.00303895,0.000158018,0.00304466,-0.00133637,1.5347,0.00259269,0.0229818,811,1569,-1.35059,-19.4181
-406,-545,-1.33813,19.926,-0.000411052,0.00298127,0.00082296,0.00317038,-0.000600156,1.34493,0.00233944,0.0163102,818,1569,-1.33816,-19.926
-399,-545,-1.35242,20.4219,0.000322459,0.00267212,0.00136433,0.00329774,-0.000303159,1.14085,0.00230619,0.0111832,825,1569,-1.35241,-20.4218
-392,-545,-1.37909,20.9022,0.00100031,0.00375442,0.00179007,0.00463582,0.000118906,1.11326,0.00305169,0.0115368,832,1569,-1.37911,-20.9022
-385,-545,-1.39557,21.3887,0.00179079,0.0049153,0.00226149,0.00610167,0.000604418,1.08766,0.00388203,0.0103903,839,1569,-1.39559,-21.3886
-378,-545,-1.42407,21.892,0.00245808,0.00640437,0.00267334,0.00775388,0.00110857,1.10331,0.00484221,0.0121149,846,1569,-1.4241,-21.892
-371,-545,-1.45111,22.3915,0.00264781,0.008249,0.00238688,0.00912815,0.00176866,1.21789,0.00558994,0.0144634,853,1569,-1.4511,-22.3914
-364,-545,-1.45178,22.8428,0.0028616,0.0102659,0.00216329,0.0108516,0.00227589,1.30639,0.00660776,0.0101353,860,1569,-1.45178,-22.8428
-357,-545,-1.37762,23.4138,0.00286754,0.0126169,0.00160656,0.0128748,0.00260963,1.41161,0.00785908,0.0172027,867,1569,-1.37765,-23.4139
-350,-545,-1.32379,23.959,0.00274856,0.0153779,0.000738459,0.0154209,0.00270553,1.51259,0.00950797,0.0269033,874,1569,-1.32378,-23.959
-343,-545,-1.37543,24.3564,0.00238174,0.0186053,-0.000565899,0.0186251,0.00236203,-1.53597,0.011709,0.0430882,881,1569,-1.37544,-24.3564
-336,-545,-1.16211,24.6404,0,0,0,0,0,0,0,-1,888,1569,-1.16209,-24.6404
-329,-545,-1.83618,24.5995,0,0,0,0,0,0,0,-1,895,1569,-1.83619,-24.5995
-322,-545,-2.31085,25.0807,0,0,0,0,0,0,0,-1,902,1569,-2.31088,-25.0807
-315,-545,-2.6922,25.0237,0,0,0,0,0,0,0,-1,909,1569,-2.6922,-25.0237
-308,-545,-1.54358,21.4457,0,0,0,0,0,0,0,-1,916,1569,-1.54357,-21.4457
-301,-545,1.52191,17.5009,0,0,0,0,0,0,0,-1,923,1569,1.52192,-17.5008
-294,-545,-2.69287,8.42102,0,0,0,0,0,0,0,-1,930,1569,-2.69287,-8.42097
-287,-545,-3.47784,9.96021,0,0,0,0,0,0,0,-1,937,1569,-3.47785,-9.96021
-280,-545,-3.7879,10.5448,0,0,0,0,0,0,0,-1,944,1569,-3.78793,-10.5448
-273,-545,-5.10333,12.864,0,0,0,0,0,0,0,-1,951,1569,-5.10331,-12.864
-266,-545,-5.78955,13.3704,0,0,0,0,0,0,0,-1,958,1569,-5.78952,-13.3703
-259,-545,-6.32184,13.8101,0,0,0,0,0,0,0,-1,965,1569,-6.32182,-13.81
-252,-545,0.369263,7.54053,0,0,0,0,0,0,0,-1,972,1569,0.369276,-7.54056
-245,-545,-0.236633,6.65564,0,0,0,0,0,0,0,-1,979,1569,-0.236605,-6.65566
-238,-545,0,0,0,0,0,0,0,0,0,-1,986,1569,0,0
-231,-545,0,0,0,0,0,0,0,0,0,-1,993,1569,0,0
-224,-545,0,0,0,0,0,0,0,0,0,-1,1000,1569,0,0
-217,-545,0,0,0,0,0,0,0,0,0,-1,1007,1569,0,0
-210,-545,0,0,0,0,0,0,0,0,0,-1,1014,1569,0,0
-203,-545,0,0,0,0,0,0,0,0,0,-1,1021,1569,0,0
-196,-545,0,0,0,0,0,0,0,0,0,-1,1028,1569,0,0
-189,-545,0,0,0,0,0,0,0,0,0,-1,1035,1569,0,0
-182,-545,0,0,0,0,0,0,0,0,0,-1,1042,1569,0,0
-175,-545,0,0,0,0,0,0,0,0,0,-1,1049,1569,0,0
-168,-545,0,0,0,0,0,0,0,0,0,-1,1056,1569,0,0
-161,-545,0,0,0,0,0,0,0,0,0,-1,1063,1569,0,0
-154,-545,0,0,0,0,0,0,0,0,0,-1,1070,1569,0,0
-147,-545,0,0,0,0,0,0,0,0,0,-1,1077,1569,0,0
-140,-545,0,0,0,0,0,0,0,0,0,-1,1084,1569,0,0
-133,-545,0,0,0,0,0,0,0,0,0,-1,1091,1569,0,0
-126,-545,0,0,0,0,0,0,0,0,0,-1,1098,1569,0,0
-119,-545,0,0,0,0,0,0,0,0,0,-1,1105,1569,0,0
-112,-545,0,0,0,0,0,0,0,0,0,-1,1112,1569,0,0
-105,-545,0,0,0,0,0,0,0,0,0,-1,1119,1569,0,0
-98,-545,0,0,0,0,0,0,0,0,0,-1,1126,1569,0,0
-91,-545,0,0,0,0,0,0,0,0,0,-1,1133,1569,0,0
-84,-545,0,0,0,0,0,0,0,0,0,-1,1140,1569,0,0
-77,-545,0,0,0,0,0,0,0,0,0,-1,1147,1569,0,0
-70,-545,0,0,0,0,0,0,0,0,0,-1,1154,1569,0,0
-63,-545,0,0,0,0,0,0,0,0,0,-1,1161,1569,0,0
-56,-545,0,0,0,0,0,0,0,0,0,-1,1168,1569,0,0
-49,-545,0,0,0,0,0,0,0,0,0,-1,1175,1569,0,0
-42,-545,0,0,0,0,0,0,0,0,0,-1,1182,1569,0,0
-35,-545,0,0,0,0,0,0,0,0,0,-1,1189,1569,0,0
-28,-545,0,0,0,0,0,0,0,0,0,-1,1196,1569,0,0
-21,-545,0,0,0,0,0,0,0,0,0,-1,1203,1569,0,0
-14,-545,0,0,0,0,0,0,0,0,0,-1,1210,1569,0,0
-7,-545,0,0,0,0,0,0,0,0,0,-1,1217,1569,0,0
0,-545,0,0,0,0,0,0,0,0,0,-1,1224,1569,0,0
7,-545,0,0,0,0,0,0,0,0,0,-1,1231,1569,0,0
14,-545,0,0,0,0,0,0,0,0,0,-1,1238,1569,0,0
21,-545,0,0,0,0,0,0,0,0,0,-1,1245,1569,0,0
28,-545,0,0,0,0,0,0,0,0,0,-1,1252,1569,0,0
35,-545,0,0,0,0,0,0,0,0,0,-1,1259,1569,0,0
42,-545,0,0,0,0,0,0,0,0,0,-1,1266,1569,0,0
49,-545,0,0,0,0,0,0,0,0,0,-1,1273,1569,0,0
56,-545,0,0,0,0,0,0,0,0,0,-1,1280,1569,0,0
63,-545,0,0,0,0,0,0,0,0,0,-1,1287,1569,0,0
70,-545,0,0,0,0,0,0,0,0,0,-1,1294,1569,0,0
77,-545,0,0,0,0,0,0,0,0,0,-1,1301,1569,0,0
84,-545,0,0,0,0,0,0,0,0,0,-1,1308,1569,0,0
91,-545,0,0,0,0,0,0,0,0,0,-1,1315,1569,0,0
98,-545,0,0,0,0,0,0,0,0,0,-1,1322,1569,0,0
105,-545,0,0,0,0,0,0,0,0,0,-1,1329,1569,0,0
112,-545,0,0,0,0,0,0,0,0,0,-1,1336,1569,0,0
119,-545,0,0,0,0,0,0,0,0,0,-1,1343,1569,0,0
126,-545,0,0,0,0,0,0,0,0,0,-1,1350,1569,0,0
133,-545,0,0,0,0,0,0,0,0,0,-1,1357,1569,0,0
140,-545,0,0,0,0,0,0,0,0,0,-1,1364,1569,0,0
147,-545,0,0,0,0,0,0,0,0,0,-1,1371,1569,0,0
154,-545,0,0,0,0,0,0,0,0,0,-1,1378,1569,0,0
161,-545,0,0,0,0,0,0,0,0,0,-1,1385,1569,0,0
168,-545,0,0,0,0,0,0,0,0,0,-1,1392,1569,0,0
175,-545,0,0,0,0,0,0,0,0,0,-1,1399,1569,0,0
182,-545,0,0,0,0,0,0,0,0,0,-1,1406,1569,0,0
189,-545,0,0,0,0,0,0,0,0,0,-1,1413,1569,0,0
196,-545,0,0,0,0,0,0,0,0,0,-1,1420,1569,0,0
203,-545,0,0,0,0,0,0,0,0,0,-1,1427,1569,0,0
210,-545,0,0,0,0,0,0,0,0,0,-1,1434,1569,0,0
217,-545,0,0,0,0,0,0,0,0,0,-1,1441,1569,0,0
224,-545,0,0,0,0,0,0,0,0,0,-1,1448,1569,0,0
231,-545,0,0,0,0,0,0,0,0,0,-1,1455,1569,0,0
238,-545,0,0,0,0,0,0,0,0,0,-1,1462,1569,0,0
245,-545,0,0,0,0,0,0,0,0,0,-1,1469,1569,0,0
252,-545,0,0,0,0,0,0,0,0,0,-1,1476,1569,0,0
259,-545,0,0,0,0,0,0,0,0,0,-1,1483,1569,0,0
266,-545,0,0,0,0,0,0,0,0,0,-1,1490,1569,0,0
273,-545,0,0,0,0,0,0,0,0,0,-1,1497,1569,0,0
280,-545,0,0,0,0,0,0,0,0,0,-1,1504,1569,0,0
287,-545,0,0,0,0,0,0,0,0,0,-1,1511,1569,0,0
294,-545,0,0,0,0,0,0,0,0,0,-1,1518,1569,0,0
301,-545,0,0,0,0,0,0,0,0,0,-1,1525,1569,0,0
308,-545,0,0,0,0,0,0,0,0,0,-1,1532,1569,0,0
315,-545,0,0,0,0,0,0,0,0,0,-1,1539,1569,0,0
322,-545,0,0,0,0,0,0,0,0,0,-1,1546,1569,0,0
329,-545,0,0,0,0,0,0,0,0,0,-1,1553,1569,0,0
336,-545,0,0,0,0,0,0,0,0,0,-1,1560,1569,0,0
343,-545,0,0,0,0,0,0,0,0,0,-1,1567,1569,0,0
350,-545,0,0,0,0,0,0,0,0,0,-1,1574,1569,0,0
357,-545,0,0,0,0,0,0,0,0,0,-1,1581,1569,0,0
364,-545,7.19495,4.88098,0,0,0,0,0,0,0,-1,1588,1569,7.19497,-4.88095
371,-545,7.82324,3.84302,0,0,0,0,0,0,0,-1,1595,1569,7.82324,-3.84307
378,-545,7.65674,5.52673,0,0,0,0,0,0,0,-1,1602,1569,7.6567,-5.52667
385,-545,8.58447,1.16125,0,0,0,0,0,0,0,-1,1609,1569,8.5845,-1.1612
392,-545,12.5654,3.89526,0,0,0,0,0,0,0,-1,1616,1569,12.5655,-3.89532
399,-545,11.5869,5.6333,0,0,0,0,0,0,0,-1,1623,1569,11.5869,-5.63326
406,-545,11.234,6.36414,0,0,0,0,0,0,0,-1,1630,1569,11.234,-6.3641
413,-545,12.1521,13.4817,0,0,0,0,0,0,0,-1,1637,1569,12.1521,-13.4817
420,-545,11.1954,13.6047,0,0,0,0,0,0,0,-1,1644,1569,11.1954,-13.6047
427,-545,9.61072,14.9135,0,0,0,0,0,0,0,-1,1651,1569,9.61076,-14.9134
434,-545,13.1598,23.9921,0,0,0,0,0,0,0,-1,1658,1569,13.1598,-23.992
441,-545,12.2833,22.2238,0,0,0,0,0,0,0,-1,1665,1569,12.2833,-22.2237
448,-545,13.0082,21.941,0,0,0,0,0,0,0,-1,1672,1569,13.0082,-21.941
455,-545,13.733,21.6583,0,0,0,0,0,0,0,-1,1679,1569,13.733,-21.6583
462,-545,12.449,20.7413,0,0,0,0,0,0,0,-1,1686,1569,12.4489,-20.7413
469,-545,12.7837,17.7919,0,0,0,0,0,0,0,-1,1693,1569,12.7837,-17.7919
476,-545,15.7562,24.8708,0,0,0,0,0,0,0,-1,1700,1569,15.7563,-24.8709
483,-545,16.5352,24.8428,0,0,0,0,0,0,0,-1,1707,1569,16.5352,-24.8428
490,-545,16.582,24.3037,0.00809843,0.0104731,-0.00664711,0.0160381,0.00253344,-0.873778,0.00995561,0.0259242,1714,1569,16.5821,-24.3037
497,-545,16.6097,23.8336,0.00678082,0.00801982,-0.00515456,0.012592,0.00220866,-0.845204,0.00776387,0.021009,1721,1569,16.6097,-23.8336
504,-545,16.7046,23.3466,0.00575425,0.00589588,-0.00414731,0.00997298,0.00167715,-0.793935,0.00616611,0.0163199,1728,1569,16.7045,-23.3466
511,-545,16.6644,22.8878,0.00456485,0.00433768,-0.00319869,0.00765196,0.00125056,-0.767651,0.00473977,0.0122819,1735,1569,16.6645,-22.8879
518,-545,16.6517,22.4423,0.00329695,0.00278146,-0.00221076,0.00526494,0.000813477,-0.727367,0.00327268,0.0139258,1742,1569,16.6517,-22.4423
525,-545,16.6171,21.9797,0.00201857,0.00140803,-0.0012783,0.00302755,0.00039905,-0.668188,0.00189937,0.0144313,1749,1569,16.617,-21.9797
532,-545,16.5875,21.5283,0.00086554,0.00022343,-0.000435374,0.00108543,3.53507e-06,-0.467696,0.000722448,0.0140128,1756,1569,16.5875,-21.5283
539,-545,16.5847,21.0674,-0.000193821,-0.000839197,0.000407822,3.53513e-06,-0.00103655,0.450707,0.000692217,0.0158733,1763,1569,16.5847,-21.0674
546,-545,16.5656,20.6003,-0.00131149,-0.0019562,0.00136038,-0.000235789,-0.0030319,0.669063,0.00194743,0.0177906,1770,1569,16.5655,-20.6003
553,-545,16.5857,20.1036,-0.00236493,-0.00303604,0.00235669,-0.00032003,-0.00508095,0.714682,0.00328582,0.0270435,1777,1569,16.5857,-20.1037
560,-545,16.5636,19.5972,-0.00321593,-0.00397514,0.00326926,-0.000304312,-0.00688676,0.7276,0.00449317,0.0284229,1784,1569,16.5636,-19.5971
567,-545,16.5103,19.027,0,0,0,0,0,0,0,-1,1791,1569,16.5102,-19.027
574,-545,16.5856,18.5742,0,0,0,0,0,0,0,-1,1798,1569,16.5856,-18.5743
581,-545,16.5839,18.1661,0,0,0,0,0,0,0,-1,1805,1569,16.5839,-18.1662
588,-545,15.4786,16.7035,0,0,0,0,0,0,0,-1,1812,1569,15.4786,-16.7035
595,-545,10.2859,9.11218,0,0,0,0,0,0,0,-1,1819,1569,10.2858,-9.11215
602,-545,8.82117,6.32214,0,0,0,0,0,0,0,-1,1826,1569,8.82121,-6.32217
609,-545,10.2406,5.22351,0,0,0,0,0,0,0,-1,1833,1569,10.2406,-5.22353
616,-545,11.701,3.93188,0,0,0,0,0,0,0,-1,1840,1569,11.701,-3.93191
623,-545,13.2139,2.32043,0,0,0,0,0,0,0,-1,1847,1569,13.2139,-2.32042
630,-545,0,0,0,0,0,0,0,0,0,-1,1854,1569,0,0
637,-545,0,0,0,0,0,0,0,0,0,-1,1861,1569,0,0
644,-545,0,0,0,0,0,0,0,0,0,-1,1868,1569,0,0
651,-545,0,0,0,0,0,0,0,0,0,-1,1875,1569,0,0
658,-545,0,0,0,0,0,0,0,0,0,-1,1882,1569,0,0
665,-545,0,0,0,0,0,0,0,0,0,-1,1889,1569,0,0
672,-545,0,0,0,0,0,0,0,0,0,-1,1896,1569,0,0
679,-545,0,0,0,0,0,0,0,0,0,-1,1903,1569,0,0
686,-545,0,0,0,0,0,0,0,0,0,-1,1910,1569,0,0
693,-545,0,0,0,0,0,0,0,0,0,-1,1917,1569,0,0
700,-545,0,0,0,0,0,0,0,0,0,-1,1924,1569,0,0
707,-545,0,0,0,0,0,0,0,0,0,-1,1931,1569,0,0
714,-545,0,0,0,0,0,0,0,0,0,-1,1938,1569,0,0
721,-545,0,0,0,0,0,0,0,0,0,-1,1945,1569,0,0
728,-545,0,0,0,0,0,0,0,0,0,-1,1952,1569,0,0
735,-545,0,0,0,0,0,0,0,0,0,-1,1959,1569,0,0
742,-545,0,0,0,0,0,0,0,0,0,-1,1966,1569,0,0
749,-545,0,0,0,0,0,0,0,0,0,-1,1973,1569,0,0
756,-545,0,0,0,0,0,0,0,0,0,-1,1980,1569,0,0
763,-545,0,0,0,0,0,0,0,0,0,-1,1987,1569,0,0
770,-545,0,0,0,0,0,0,0,0,0,-1,1994,1569,0,0
777,-545,0,0,0,0,0,0,0,0,0,-1,2001,1569,0,0
784,-545,0,0,0,0,0,0,0,0,0,-1,2008,1569,0,0
791,-545,0,0,0,0,0,0,0,0,0,-1,2015,1569,0,0
798,-545,0,0,0,0,0,0,0,0,0,-1,2022,1569,0,0
805,-545,0,0,0,0,0,0,0,0,0,-1,2029,1569,0,0
812,-545,0,0,0,0,0,0,0,0,0,-1,2036,1569,0,0
-700,-552,0,0,0,0,0,0,0,0,0,-1,524,1576,0,0
-693,-552,0,0,0,0,0,0,0,0,0,-1,531,1576,0,0
-686,-552,0,0,0,0,0,0,0,0,0,-1,538,1576,0,0
-679,-552,0,0,0,0,0,0,0,0,0,-1,545,1576,0,0
-672,-552,0,0,0,0,0,0,0,0,0,-1,552,1576,0,0
-665,-552,0,0,0,0,0,0,0,0,0,-1,559,1576,0,0
-658,-552,0,0,0,0,0,0,0,0,0,-1,566,1576,0,0
-651,-552,0,0,0,0,0,0,0,0,0,-1,573,1576,0,0
-644,-552,0,0,0,0,0,0,0,0,0,-1,580,1576,0,0
-637,-552,0,0,0,0,0,0,0,0,0,-1,587,1576,0,0
-630,-552,0,0,0,0,0,0,0,0,0,-1,594,1576,0,0
-623,-552,0,0,0,0,0,0,0,0,0,-1,601,1576,0,0
-616,-552,0,0,0,0,0,0,0,0,0,-1,608,1576,0,0
-609,-552,0,0,0,0,0,0,0,0,0,-1,615,1576,0,0
-602,-552,0,0,0,0,0,0,0,0,0,-1,622,1576,0,0
-595,-552,0,0,0,0,0,0,0,0,0,-1,629,1576,0,0
-588,-552,0,0,0,0,0,0,0,0,0,-1,636,1576,0,0
-581,-552,0,0,0,0,0,0,0,0,0,-1,643,1576,0,0
-574,-552,0,0,0,0,0,0,0,0,0,-1,650,1576,0,0
-567,-552,0,0,0,0,0,0,0,0,0,-1,657,1576,0,0
-560,-552,0,0,0,0,0,0,0,0,0,-1,664,1576,0,0
-553,-552,0,0,0,0,0,0,0,0,0,-1,671,1576,0,0
-546,-552,0,0,0,0,0,0,0,0,0,-1,678,1576,0,0
-539,-552,0,0,0,0,0,0,0,0,0,-1,685,1576,0,0
-532,-552,0,0,0,0,0,0,0,0,0,-1,692,1576,0,0
-525,-552,0,0,0,0,0,0,0,0,0,-1,699,1576,0,0
-518,-552,0,0,0,0,0,0,0,0,0,-1,706,1576,0,0
-511,-552,0,0,0,0,0,0,0,0,0,-1,713,1576,0,0
-504,-552,0,0,0,0,0,0,0,0,0,-1,720,1576,0,0
-497,-552,1.51282,3.96924,0,0,0,0,0,0,0,-1,727,1576,1.5128,-3.96924
-490,-552,-3.82312,6.32104,0,0,0,0,0,0,0,-1,734,1576,-3.82314,-6.3211
-483,-552,-3.50586,6.47986,0,0,0,0,0,0,0,-1,741,1576,-3.50587,-6.47983
-476,-552,-1.95129,4.43054,0,0,0,0,0,0,0,-1,748,1576,-1.95128,-4.43054
-469,-552,-1.40491,7.9895,0,0,0,0,0,0,0,-1,755,1576,-1.40491,-7.98947
-462,-552,-1.99573,11.4446,0,0,0,0,0,0,0,-1,762,1576,-1.99571,-11.4445
-455,-552,-0.282532,15.1177,0,0,0,0,0,0,0,-1,769,1576,-0.282508,-15.1177
-448,-552,-0.113525,16.7091,0,0,0,0,0,0,0,-1,776,1576,-0.113548,-16.7092
-441,-552,-0.427307,17.528,-0.00409236,0.0121044,-0.000218649,0.0121073,-0.00409531,-1.5573,0.00972836,0.0463928,783,1576,-0.427277,-17.5279
-434,-552,-0.67981,18.1295,-0.00510414,0.00848269,-0.000623684,0.00851125,-0.00513271,-1.52502,0.00795744,0.0341071,790,1576,-0.679837,-18.1296
-427,-552,-0.875671,18.3718,-0.00465535,0.0054553,-0.000472711,0.00547735,-0.00467741,-1.52418,0.00586891,0.0294038,797,1576,-0.875649,-18.3718
-420,-552,-0.810791,18.9452,-0.0035787,0.00399534,-0.000592071,0.00404135,-0.0036247,-1.49325,0.00442817,0.022623,804,1576,-0.810776,-18.9452
-413,-552,-0.819336,19.4349,-0.00261582,0.00310245,-0.000329395,0.00312136,-0.00263474,-1.51345,0.00332724,0.0177186,811,1576,-0.819323,-19.4349
-406,-552,-0.844421,19.9382,-0.00166861,0.00260743,0.000210076,0.00261772,-0.00167891,1.52182,0.00250032,0.012847,818,1576,-0.844421,-19.9382
-399,-552,-0.860352,20.4338,-0.000911846,0.00173044,0.000650205,0.00188178,-0.00106318,1.34212,0.00172203,0.0127596,825,1576,-0.860364,-20.4339
-392,-552,-0.898315,20.9197,-0.000153662,0.00245638,0.00104306,0.002822,-0.000519286,1.23365,0.00207619,0.0138296,832,1576,-0.898316,-20.9196
-385,-552,-0.923157,21.4106,0.000710267,0.00335965,0.00146205,0.00400787,6.20426e-05,1.15347,0.00265148,0.0137889,839,1576,-0.923159,-21.4106
-378,-552,-0.944519,21.8961,0.00142943,0.00454785,0.00183685,0.00539802,0.000579253,1.13731,0.00342198,0.0156545,846,1576,-0.944502,-21.8961
-371,-552,-0.96344,22.395,0.00177248,0.00592609,0.00169036,0.00652705,0.00117152,1.22921,0.0040182,0.0188327,853,1576,-0.963435,-22.395
-364,-552,-0.96167,22.8641,0.00215147,0.0075098,0.00159148,0.00794684,0.00171443,1.30279,0.00482895,0.0141722,860,1576,-0.961655,-22.8642
-357,-552,-0.94458,23.3337,0.00242795,0.00932799,0.00129096,0.00956162,0.00219433,1.39177,0.00578343,0.00963032,867,1576,-0.944589,-23.3338
-350,-552,-0.931213,23.8502,0.00267319,0.0114266,0.00082708,0.0115041,0.00259572,1.47741,0.00696724,0.0119463,874,1576,-0.93119,-23.8502
-343,-552,-0.934631,24.303,0.00282942,0.0139181,0.000180682,0.0139211,0.00282648,1.55451,0.00849672,0.0173254,881,1576,-0.93465,-24.303
-336,-552,-0.872375,24.655,0.002787,0.0169036,-0.000732905,0.0169416,0.00274905,-1.51906,0.0104987,0.0328302,888,1576,-0.872382,-24.655
-329,-552,-0.691284,25.1949,0,0,0,0,0,0,0,-1,895,1576,-0.691301,-25.1949
-322,-552,-1.32062,24.5261,0,0,0,0,0,0,0,-1,902,1576,-1.3206,-24.5261
-315,-552,0.154358,26.4829,0,0,0,0,0,0,0,-1,909,1576,0.154341,-26.4829
-308,-552,1.48743,24.9044,0,0,0,0,0,0,0,-1,916,1576,1.48745,-24.9045
-301,-552,1.39453,18.4995,0,0,0,0,0,0,0,-1,923,1576,1.3945,-18.4995
-294,-552,0.842163,13.7863,0,0,0,0,0,0,0,-1,930,1576,0.842149,-13.7863
-287,-552,-0.663757,13.3474,0,0,0,0,0,0,0,-1,937,1576,-0.663744,-13.3474
-280,-552,-5.47241,8.96765,0,0,0,0,0,0,0,-1,944,1576,-5.47239,-8.96766
-273,-552,1.64587,10.6685,0,0,0,0,0,0,0,-1,951,1576,1.6459,-10.6685
-266,-552,-1.32678,8.05688,0,0,0,0,0,0,0,-1,958,1576,-1.32677,-8.05683
-259,-552,-5.54321,8.31213,0,0,0,0,0,0,0,-1,965,1576,-5.54324,-8.31214
-252,-552,-1.93445,7.81543,0,0,0,0,0,0,0,-1,972,1576,-1.93445,-7.81546
-245,-552,-2.53613,6.92212,0,0,0,0,0,0,0,-1,979,1576,-2.53614,-6.92216
-238,-552,-6.5365,2.81885,0,0,0,0,0,0,0,-1,986,1576,-6.53649,-2.8188
-231,-552,-4.32239,4.34583,0,0,0,0,0,0,0,-1,993,1576,-4.32239,-4.34587
-224,-552,0,0,0,0,0,0,0,0,0,-1,1000,1576,0,0
-217,-552,0,0,0,0,0,0,0,0,0,-1,1007,1576,0,0
-210,-552,0,0,0,0,0,0,0,0,0,-1,1014,1576,0,0
-203,-552,0,0,0,0,0,0,0,0,0,-1,1021,1576,0,0
-196,-552,0,0,0,0,0,0,0,0,0,-1,1028,1576,0,0
-189,-552,0,0,0,0,0,0,0,0,0,-1,1035,1576,0,0
-182,-552,0,0,0,0,0,0,0,0,0,-1,1042,1576,0,0
-175,-552,0,0,0,0,0,0,0,0,0,-1,1049,1576,0,0
-168,-552,0,0,0,0,0,0,0,0,0,-1,1056,1576,0,0
-161,-552,0,0,0,0,0,0,0,0,0,-1,1063,1576,0,0
-154,-552,0,0,0,0,0,0,0,0,0,-1,1070,1576,0,0
-147,-552,0,0,0,0,0,0,0,0,0,-1,1077,1576,0,0
-140,-552,0,0,0,0,0,0,0,0,0,-1,1084,1576,0,0
-133,-552,0,0,0,0,0,0,0,0,0,-1,1091,1576,0,0
-126,-552,0,0,0,0,0,0,0,0,0,-1,1098,1576,0,0
-119,-552,0,0,0,0,0,0,0,0,0,-1,1105,1576,0,0
-112,-552,0,0,0,0,0,0,0,0,0,-1,1112,1576,0,0
-105,-552,0,0,0,0,0,0,0,0,0,-1,1119,1576,0,0
-98,-552,0,0,0,0,0,0,0,0,0,-1,1126,1576,0,0
-91,-552,0,0,0,0,0,0,0,0,0,-1,1133,1576,0,0
-84,-552,0,0,0,0,0,0,0,0,0,-1,1140,1576,0,0
-77,-552,0,0,0,0,0,0,0,0,0,-1,1147,1576,0,0
-70,-552,0,0,0,0,0,0,0,0,0,-1,1154,1576,0,0
-63,-552,0,0,0,0,0,0,0,0,0,-1,1161,1576,0,0
-56,-552,0,0,0,0,0,0,0,0,0,-1,1168,1576,0,0
-49,-552,0,0,0,0,0,0,0,0,0,-1,1175,1576,0,0
-42,-552,0,0,0,0,0,0,0,0,0,-1,1182,1576,0,0
-35,-552,0,0,0,0,0,0,0,0,0,-1,1189,1576,0,0
-28,-552,0,0,0,0,0,0,0,0,0,-1,1196,1576,0,0
-21,-552,0,0,0,0,0,0,0,0,0,-1,1203,1576,0,0
-14,-552,0,0,0,0,0,0,0,0,0,-1,1210,1576,0,0
-7,-552,0,0,0,0,0,0,0,0,0,-1,1217,1576,0,0
0,-552,0,0,0,0,0,0,0,0,0,-1,1224,1576,0,0
7,-552,0,0,0,0,0,0,0,0,0,-1,1231,1576,0,0
14,-552,0,0,0,0,0,0,0,0,0,-1,1238,1576,0,0
21,-552,0,0,0,0,0,0,0,0,0,-1,1245,1576,0,0
28,-552,0,0,0,0,0,0,0,0,0,-1,1252,1576,0,0
35,-552,0,0,0,0,0,0,0,0,0,-1,1259,1576,0,0
42,-552,0,0,0,0,0,0,0,0,0,-1,1266,1576,0,0
49,-552,0,0,0,0,0,0,0,0,0,-1,1273,1576,0,0
56,-552,0,0,0,0,0,0,0,0,0,-1,1280,1576,0,0
63,-552,0,0,0,0,0,0,0,0,0,-1,1287,1576,0,0
70,-552,0,0,0,0,0,0,0,0,0,-1,1294,1576,0,0
77,-552,0,0,0,0,0,0,0,0,0,-1,1301,1576,0,0
84,-552,0,0,0,0,0,0,0,0,0,-1,1308,1576,0,0
91,-552,0,0,0,0,0,0,0,0,0,-1,1315,1576,0,0
98,-552,0,0,0,0,0,0,0,0,0,-1,1322,1576,0,0
105,-552,0,0,0,0,0,0,0,0,0,-1,1329,1576,0,0
112,-552,0,0,0,0,0,0,0,0,0,-1,1336,1576,0,0
119,-552,0,0,0,0,0,0,0,0,0,-1,1343,1576,0,0
126,-552,0,0,0,0,0,0,0,0,0,-1,1350,1576,0,0
133,-552,0,0,0,0,0,0,0,0,0,-1,1357,1576,0,0
140,-552,0,0,0,0,0,0,0,0,0,-1,1364,1576,0,0
147,-552,0,0,0,0,0,0,0,0,0,-1,1371,1576,0,0
154,-552,0,0,0,0,0,0,0,0,0,-1,1378,1576,0,0
161,-552,0,0,0,0,0,0,0,0,0,-1,1385,1576,0,0
168,-552,0,0,0,0,0,0,0,0,0,-1,1392,1576,0,0
175,-552,0,0,0,0,0,0,0,0,0,-1,1399,1576,0,0
182,-552,0,0,0,0,0,0,0,0,0,-1,1406,1576,0,0
189,-552,0,0,0,0,0,0,0,0,0,-1,1413,1576,0,0
196,-552,0,0,0,0,0,0,0,0,0,-1,1420,1576,0,0
203,-552,0,0,0,0,0,0,0,0,0,-1,1427,1576,0,0
210,-552,0,0,0,0,0,0,0,0,0,-1,1434,1576,0,0
217,-552,0,0,0,0,0,0,0,0,0,-1,1441,1576,0,0
224,-552,0,0,0,0,0,0,0,0,0,-1,1448,1576,0,0
231,-552,0,0,0,0,0,0,0,0,0,-1,1455,1576,0,0
238,-552,0,0,0,0,0,0,0,0,0,-1,1462,1576,0,0
245,-552,0,0,0,0,0,0,0,0,0,-1,1469,1576,0,0
252,-552,0,0,0,0,0,0,0,0,0,-1,1476,1576,0,0
259,-552,0,0,0,0,0,0,0,0,0,-1,1483,1576,0,0
266,-552,0,0,0,0,0,0,0,0,0,-1,1490,1576,0,0
273,-552,0,0,0,0,0,0,0,0,0,-1,1497,1576,0,0
280,-552,0,0,0,0,0,0,0,0,0,-1,1504,1576,0,0
287,-552,0,0,0,0,0,0,0,0,0,-1,1511,1576,0,0
294,-552,0,0,0,0,0,0,0,0,0,-1,1518,1576,0,0
301,-552,0,0,0,0,0,0,0,0,0,-1,1525,1576,0,0
308,-552,0,0,0,0,0,0,0,0,0,-1,1532,1576,0,0
315,-552,0,0,0,0,0,0,0,0,0,-1,1539,1576,0,0
322,-552,0,0,0,0,0,0,0,0,0,-1,1546,1576,0,0
329,-552,0,0,0,0,0,0,0,0,0,-1,1553,1576,0,0
336,-552,0,0,0,0,0,0,0,0,0,-1,1560,1576,0,0
343,-552,0,0,0,0,0,0,0,0,0,-1,1567,1576,0,0
350,-552,4.97876,4.09888,0,0,0,0,0,0,0,-1,1574,1576,4.97875,-4.09883
357,-552,5.18469,4.10706,0,0,0,0,0,0,0,-1,1581,1576,5.1847,-4.10702
364,-552,5.80872,5.07031,0,0,0,0,0,0,0,-1,1588,1576,5.80874,-5.07037
371,-552,7.10657,5.64783,0,0,0,0,0,0,0,-1,1595,1576,7.10651,-5.64786
378,-552,6.44446,4.91492,0,0,0,0,0,0,0,-1,1602,1576,6.44448,-4.91496
385,-552,12.8276,3.16504,0,0,0,0,0,0,0,-1,1609,1576,12.8276,-3.16503
392,-552,12.1301,4.3363,0,0,0,0,0,0,0,-1,1616,1576,12.1302,-4.33631
399,-552,11.3486,5.6012,0,0,0,0,0,0,0,-1,1623,1576,11.3486,-5.60115
406,-552,10.7863,6.42542,0,0,0,0,0,0,0,-1,1630,1576,10.7863,-6.42536
413,-552,8.39307,10.365,0,0,0,0,0,0,0,-1,1637,1576,8.3931,-10.365
420,-552,10.2306,12.7225,0,0,0,0,0,0,0,-1,1644,1576,10.2305,-12.7226
427,-552,9.73267,14.783,0,0,0,0,0,0,0,-1,1651,1576,9.73269,-14.783
434,-552,12.0377,20.1364,0,0,0,0,0,0,0,-1,1658,1576,12.0377,-20.1364
441,-552,12.4963,21.5277,0,0,0,0,0,0,0,-1,1665,1576,12.4964,-21.5277
448,-552,12.9141,21.5482,0,0,0,0,0,0,0,-1,1672,1576,12.9141,-21.5482
455,-552,13.3318,21.5687,0,0,0,0,0,0,0,-1,1679,1576,13.3317,-21.5687
462,-552,12.745,20.5947,0,0,0,0,0,0,0,-1,1686,1576,12.745,-20.5947
469,-552,15.559,26.1503,0,0,0,0,0,0,0,-1,1693,1576,15.559,-26.1502
476,-552,16.1328,25.3368,0,0,0,0,0,0,0,-1,1700,1576,16.1328,-25.3368
483,-552,16.2594,24.6365,0.00656827,0.0110282,-0.00661908,0.0157829,0.00181361,-0.947876,0.00997249,0.0312305,1707,1576,16.2594,-24.6365
490,-552,16.22,24.2339,0.00650115,0.00884646,-0.00540968,0.0132091,0.00213848,-0.892132,0.00818689,0.0135136,1714,1576,16.22,-24.2339
497,-552,16.298,23.7911,0.0053848,0.00655609,-0.0041443,0.0101559,0.00178497,-0.85559,0.00626102,0.0215985,1721,1576,16.298,-23.7911
504,-552,16.2747,23.3481,0.00439634,0.00450977,-0.0031674,0.00762096,0.00128514,-0.794351,0.00471106,0.0242426,1728,1576,16.2747,-23.3481
511,-552,16.2251,22.8811,0.00326957,0.0029206,-0.00222915,0.00533105,0.00085911,-0.746341,0.0033051,0.0181073,1735,1576,16.2251,-22.8811
518,-552,16.2212,22.431,0.00207431,0.00137345,-0.0012908,0.00306141,0.000386361,-0.652851,0.00192512,0.0160278,1742,1576,16.2212,-22.4311
525,-552,16.172,21.9869,0.000847968,-4.80164e-06,-0.000385456,0.00099637,-0.000153204,-0.367513,0.000720763,0.0149859,1749,1576,16.1719,-21.9869
532,-552,16.146,21.533,-0.000304891,-0.00123908,0.000476949,-0.00010441,-0.00143956,0.397917,0.000926868,0.0142365,1756,1576,16.146,-21.533
539,-552,16.1392,21.0646,-0.00145494,-0.002397,0.00140463,-0.000444462,-0.00340747,0.62362,0.00213894,0.0167452,1763,1576,16.1392,-21.0646
546,-552,16.0975,20.6129,-0.00273475,-0.00365571,0.00251031,-0.000643035,-0.00574742,0.694689,0.00363627,0.0202823,1770,1576,16.0975,-20.613
553,-552,16.1277,20.1304,-0.00400857,-0.00488313,0.00372114,-0.000699109,-0.0081926,0.72691,0.00524425,0.0245724,1777,1576,16.1277,-20.1303
560,-552,16.1119,19.7067,-0.00518112,-0.00602171,0.00492134,-0.000662161,-0.0105407,0.7428,0.00681712,0.043705,1784,1576,16.1119,-19.7067
567,-552,16.115,18.9915,0,0,0,0,0,0,0,-1,1791,1576,16.1149,-18.9915
574,-552,12.8835,14.8463,0,0,0,0,0,0,0,-1,1798,1576,12.8836,-14.8463
581,-552,9.74841,9.98645,0,0,0,0,0,0,0,-1,1805,1576,9.74847,-9.9864
588,-552,10.5619,9.34924,0,0,0,0,0,0,0,-1,1812,1576,10.5619,-9.34921
595,-552,5.36194,6.62744,0,0,0,0,0,0,0,-1,1819,1576,5.36193,-6.62742
602,-552,10.6863,4.31616,0,0,0,0,0,0,0,-1,1826,1576,10.6862,-4.31619
609,-552,12.146,3.18286,0,0,0,0,0,0,0,-1,1833,1576,12.1459,-3.18281
616,-552,13.8762,2.08167,0,0,0,0,0,0,0,-1,1840,1576,13.8763,-2.08167
623,-552,0,0,0,0,0,0,0,0,0,-1,1847,1576,0,0
630,-552,0,0,0,0,0,0,0,0,0,-1,1854,1576,0,0
637,-552,0,0,0,0,0,0,0,0,0,-1,1861,1576,0,0
644,-552,0,0,0,0,0,0,0,0,0,-1,1868,1576,0,0
651,-552,0,0,0,0,0,0,0,0,0,-1,1875,1576,0,0
658,-552,0,0,0,0,0,0,0,0,0,-1,1882,1576,0,0
665,-552,0,0,0,0,0,0,0,0,0,-1,1889,1576,0,0
672,-552,0,0,0,0,0,0,0,0,0,-1,1896,1576,0,0
679,-552,0,0,0,0,0,0,0,0,0,-1,1903,1576,0,0
686,-552,0,0,0,0,0,0,0,0,0,-1,1910,1576,0,0
693,-552,0,0,0,0,0,0,0,0,0,-1,1917,1576,0,0
700,-552,0,0,0,0,0,0,0,0,0,-1,1924,1576,0,0
707,-552,0,0,0,0,0,0,0,0,0,-1,1931,1576,0,0
714,-552,0,0,0,0,0,0,0,0,0,-1,1938,1576,0,0
721,-552,0,0,0,0,0,0,0,0,0,-1,1945,1576,0,0
728,-552,0,0,0,0,0,0,0,0,0,-1,1952,1576,0,0
735,-552,0,0,0,0,0,0,0,0,0,-1,1959,1576,0,0
742,-552,0,0,0,0,0,0,0,0,0,-1,1966,1576,0,0
749,-552,0,0,0,0,0,0,0,0,0,-1,1973,1576,0,0
756,-552,0,0,0,0,0,0,0,0,0,-1,1980,1576,0,0
763,-552,0,0,0,0,0,0,0,0,0,-1,1987,1576,0,0
770,-552,0,0,0,0,0,0,0,0,0,-1,1994,1576,0,0
777,-552,0,0,0,0,0,0,0,0,0,-1,2001,1576,0,0
784,-552,0,0,0,0,0,0,0,0,0,-1,2008,1576,0,0
791,-552,0,0,0,0,0,0,0,0,0,-1,2015,1576,0,0
798,-552,0,0,0,0,0,0,0,0,0,-1,2022,1576,0,0
805,-552,0,0,0,0,0,0,0,0,0,-1,2029,1576,0,0
812,-552,0,0,0,0,0,0,0,0,0,-1,2036,1576,0,0
-700,-559,0,0,0,0,0,0,0,0,0,-1,524,1583,0,0
-693,-559,0,0,0,0,0,0,0,0,0,-1,531,1583,0,0
-686,-559,0,0,0,0,0,0,0,0,0,-1,538,1583,0,0
-679,-559,0,0,0,0,0,0,0,0,0,-1,545,1583,0,0
-672,-559,0,0,0,0,0,0,0,0,0,-1,552,1583,0,0
-665,-559,0,0,0,0,0,0,0,0,0,-1,559,1583,0,0
-658,-559,0,0,0,0,0,0,0,0,0,-1,566,1583,0,0
-651,-559,0,0,0,0,0,0,0,0,0,-1,573,1583,0,0
-644,-559,0,0,0,0,0,0,0,0,0,-1,580,1583,0,0
-637,-559,0,0,0,0,0,0,0,0,0,-1,587,1583,0,0
-630,-559,0,0,0,0,0,0,0,0,0,-1,594,1583,0,0
-623,-559,0,0,0,0,0,0,0,0,0,-1,601,1583,0,0
-616,-559,0,0,0,0,0,0,0,0,0,-1,608,1583,0,0
-609,-559,0,0,0,0,0,0,0,0,0,-1,615,1583,0,0
-602,-559,0,0,0,0,0,0,0,0,0,-1,622,1583,0,0
-595,-559,0,0,0,0,0,0,0,0,0,-1,629,1583,0,0
-588,-559,0,0,0,0,0,0,0,0,0,-1,636,1583,0,0
-581,-559,0,0,0,0,0,0,0,0,0,-1,643,1583,0,0
-574,-559,0,0,0,0,0,0,0,0,0,-1,650,1583,0,0
-567,-559,0,0,0,0,0,0,0,0,0,-1,657,1583,0,0
-560,-559,0,0,0,0,0,0,0,0,0,-1,664,1583,0,0
-553,-559,0,0,0,0,0,0,0,0,0,-1,671,1583,0,0
-546,-559,0,0,0,0,0,0,0,0,0,-1,678,1583,0,0
-539,-559,0,0,0,0,0,0,0,0,0,-1,685,1583,0,0
-532,-559,0,0,0,0,0,0,0,0,0,-1,692,1583,0,0
-525,-559,0,0,0,0,0,0,0,0,0,-1,699,1583,0,0
-518,-559,0,0,0,0,0,0,0,0,0,-1,706,1583,0,0
-511,-559,0,0,0,0,0,0,0,0,0,-1,713,1583,0,0
-504,-559,0,0,0,0,0,0,0,0,0,-1,720,1583,0,0
-497,-559,0,0,0,0,0,0,0,0,0,-1,727,1583,0,0
-490,-559,-5.49835,4.47424,0,0,0,0,0,0,0,-1,734,1583,-5.49833,-4.4743
-483,-559,-5.24078,4.74561,0,0,0,0,0,0,0,-1,741,1583,-5.24079,-4.74563
-476,-559,-4.98022,4.99316,0,0,0,0,0,0,0,-1,748,1583,-4.98024,-4.99321
-469,-559,-4.6424,5.38062,0,0,0,0,0,0,0,-1,755,1583,-4.64237,-5.38058
-462,-559,-0.161865,6.49438,0,0,0,0,0,0,0,-1,762,1583,-0.161835,-6.49444
-455,-559,1.08826,7.02527,0,0,0,0,0,0,0,-1,769,1583,1.08823,-7.02529
-448,-559,-0.522766,15.6921,0,0,0,0,0,0,0,-1,776,1583,-0.52276,-15.6921
-441,-559,0.204041,17.4137,0,0,0,0,0,0,0,-1,783,1583,0.204026,-17.4137
-434,-559,0.0976563,18.1893,0,0,0,0,0,0,0,-1,790,1583,0.0976499,-18.1894
-427,-559,-0.3526,18.2478,0,0,0,0,0,0,0,-1,797,1583,-0.352623,-18.2478
-420,-559,-0.300659,18.8767,0,0,0,0,0,0,0,-1,804,1583,-0.300657,-18.8767
-413,-559,-0.35376,19.4575,-0.00389738,0.00342221,-0.000570323,0.00346638,-0.00394155,-1.4935,0.0042799,0.0163407,811,1583,-0.353778,-19.4575
-406,-559,-0.37207,19.975,-0.00290269,0.002421,-0.000179941,0.00242707,-0.00290877,-1.53705,0.00308483,0.00964642,818,1583,-0.372043,-19.975
-399,-559,-0.377075,20.4653,-0.00209368,0.00100919,0.000160954,0.00101751,-0.002102,1.51911,0.00183697,0.0126834,825,1583,-0.377085,-20.4653
-392,-559,-0.423706,20.9421,-0.00124025,0.0013949,0.000531936,0.00149822,-0.00134357,1.37894,0.00164152,0.0150698,832,1583,-0.42369,-20.9421
-385,-559,-0.437134,21.4302,-0.000312693,0.00208074,0.000905528,0.00238473,-0.00061668,1.24692,0.00183034,0.0159297,839,1583,-0.43714,-21.4302
-378,-559,-0.44873,21.9088,0.000449583,0.00300981,0.00124266,0.00351376,-5.43701e-05,1.18552,0.00236084,0.0156153,846,1583,-0.448752,-21.9088
-371,-559,-0.48114,22.4058,0.000934683,0.00402225,0.00120826,0.00443887,0.00051807,1.23876,0.00280256,0.0217674,853,1583,-0.481147,-22.4057
-364,-559,-0.467712,22.8679,0.00145435,0.00527401,0.00120314,0.00562139,0.00110697,1.28971,0.00343852,0.0191944,860,1583,-0.467704,-22.8679
-357,-559,-0.474609,23.3336,0.00193223,0.00671657,0.00107934,0.00694879,0.00170001,1.35887,0.00418265,0.011927,867,1583,-0.474602,-23.3336
-350,-559,-0.489441,23.7969,0.002455,0.00834171,0.000885515,0.00847203,0.00232468,1.42468,0.00505457,0.00961545,874,1583,-0.489415,-23.7968
-343,-559,-0.492798,24.2697,0.00297385,0.0103229,0.000665919,0.0103827,0.00291399,1.48116,0.00618374,0.0103471,881,1583,-0.492795,-24.2697
-336,-559,-0.546509,24.6803,0.00334912,0.0125901,0.000290187,0.0125992,0.00334002,1.53944,0.00753697,0.0217294,888,1583,-0.546482,-24.6803
-329,-559,-0.411926,25.3855,0.0037786,0.0150625,-9.10381e-05,0.0150633,0.00377786,-1.56273,0.00904968,0.0377385,895,1583,-0.411904,-25.3855
-322,-559,-0.00811768,26.2192,0,0,0,0,0,0,0,-1,902,1583,-0.00810821,-26.2192
-315,-559,-0.0228271,25.894,0,0,0,0,0,0,0,-1,909,1583,-0.0228225,-25.894
-308,-559,-0.203369,26.7545,0,0,0,0,0,0,0,-1,916,1583,-0.203399,-26.7545
-301,-559,1.97064,24.717,0,0,0,0,0,0,0,-1,923,1583,1.97066,-24.717
-294,-559,0.945129,18.5165,0,0,0,0,0,0,0,-1,930,1583,0.945117,-18.5165
-287,-559,-0.11792,15.4912,0,0,0,0,0,0,0,-1,937,1583,-0.117939,-15.4912
-280,-559,0.191467,13.5093,0,0,0,0,0,0,0,-1,944,1583,0.191441,-13.5093
-273,-559,2.12836,10.3059,0,0,0,0,0,0,0,-1,951,1583,2.12839,-10.3059
-266,-559,-0.597046,6.68933,0,0,0,0,0,0,0,-1,958,1583,-0.597031,-6.68937
-259,-559,-7.00311,8.62756,0,0,0,0,0,0,0,-1,965,1583,-7.00312,-8.6275
-252,-559,-9.4483,2.87805,0,0,0,0,0,0,0,-1,972,1583,-9.44829,-2.87805
-245,-559,-4.80804,7.1803,0,0,0,0,0,0,0,-1,979,1583,-4.80804,-7.18027
-238,-559,-8.45764,2.54858,0,0,0,0,0,0,0,-1,986,1583,-8.45763,-2.54862
-231,-559,-5.86914,4.34021,0,0,0,0,0,0,0,-1,993,1583,-5.86914,-4.34019
-224,-559,-3.30505,6.22864,0,0,0,0,0,0,0,-1,1000,1583,-3.30505,-6.22859
-217,-559,0,0,0,0,0,0,0,0,0,-1,1007,1583,0,0
-210,-559,0,0,0,0,0,0,0,0,0,-1,1014,1583,0,0
-203,-559,0,0,0,0,0,0,0,0,0,-1,1021,1583,0,0
-196,-559,0,0,0,0,0,0,0,0,0,-1,1028,1583,0,0
-189,-559,0,0,0,0,0,0,0,0,0,-1,1035,1583,0,0
-182,-559,0,0,0,0,0,0,0,0,0,-1,1042,1583,0,0
-175,-559,0,0,0,0,0,0,0,0,0,-1,1049,1583,0,0
-168,-559,0,0,0,0,0,0,0,0,0,-1,1056,1583,0,0
-161,-559,0,0,0,0,0,0,0,0,0,-1,1063,1583,0,0
-154,-559,0,0,0,0,0,0,0,0,0,-1,1070,1583,0,0
-147,-559,0,0,0,0,0,0,0,0,0,-1,1077,1583,0,0
-140,-559,0,0,0,0,0,0,0,0,0,-1,1084,1583,0,0
-133,-559,0,0,0,0,0,0,0,0,0,-1,1091,1583,0,0
-126,-559,0,0,0,0,0,0,0,0,0,-1,1098,1583,0,0
-119,-559,0,0,0,0,0,0,0,0,0,-1,1105,1583,0,0
-112,-559,0,0,0,0,0,0,0,0,0,-1,1112,1583,0,0
-105,-559,0,0,0,0,0,0,0,0,0,-1,1119,1583,0,0
-98,-559,0,0,0,0,0,0,0,0,0,-1,1126,1583,0,0
-91,-559,0,0,0,0,0,0,0,0,0,-1,1133,1583,0,0
-84,-559,0,0,0,0,0,0,0,0,0,-1,1140,1583,0,0
-77,-559,0,0,0,0,0,0,0,0,0,-1,1147,1583,0,0
-70,-559,0,0,0,0,0,0,0,0,0,-1,1154,1583,0,0
-63,-559,0,0,0,0,0,0,0,0,0,-1,1161,1583,0,0
-56,-559,0,0,0,0,0,0,0,0,0,-1,1168,1583,0,0
-49,-559,0,0,0,0,0,0,0,0,0,-1,1175,1583,0,0
-42,-559,0,0,0,0,0,0,0,0,0,-1,1182,1583,0,0
-35,-559,0,0,0,0,0,0,0,0,0,-1,1189,1583,0,0
-28,-559,0,0,0,0,0,0,0,0,0,-1,1196,1583,0,0
-21,-559,0,0,0,0,0,0,0,0,0,-1,1203,1583,0,0
-14,-559,0,0,0,0,0,0,0,0,0,-1,1210,1583,0,0
-7,-559,0,0,0,0,0,0,0,0,0,-1,1217,1583,0,0
0,-559,0,0,0,0,0,0,0,0,0,-1,1224,1583,0,0
7,-559,0,0,0,0,0,0,0,0,0,-1,1231,1583,0,0
14,-559,0,0,0,0,0,0,0,0,0,-1,1238,1583,0,0
21,-559,0,0,0,0,0,0,0,0,0,-1,1245,1583,0,0
28,-559,0,0,0,0,0,0,0,0,0,-1,1252,1583,0,0
35,-559,0,0,0,0,0,0,0,0,0,-1,1259,1583,0,0
42,-559,0,0,0,0,0,0,0,0,0,-1,1266,1583,0,0
49,-559,0,0,0,0,0,0,0,0,0,-1,1273,1583,0,0
56,-559,0,0,0,0,0,0,0,0,0,-1,1280,1583,0,0
63,-559,0,0,0,0,0,0,0,0,0,-1,1287,1583,0,0
70,-559,0,0,0,0,0,0,0,0,0,-1,1294,1583,0,0
77,-559,0,0,0,0,0,0,0,0,0,-1,1301,1583,0,0
84,-559,0,0,0,0,0,0,0,0,0,-1,1308,1583,0,0
91,-559,0,0,0,0,0,0,0,0,0,-1,1315,1583,0,0
98,-559,0,0,0,0,0,0,0,0,0,-1,1322,1583,0,0
105,-559,0,0,0,0,0,0,0,0,0,-1,1329,1583,0,0
112,-559,0,0,0,0,0,0,0,0,0,-1,1336,1583,0,0
119,-559,0,0,0,0,0,0,0,0,0,-1,1343,1583,0,0
126,-559,0,0,0,0,0,0,0,0,0,-1,1350,1583,0,0
133,-559,0,0,0,0,0,0,0,0,0,-1,1357,1583,0,0
140,-559,0,0,0,0,0,0,0,0,0,-1,1364,1583,0,0
147,-559,0,0,0,0,0,0,0,0,0,-1,1371,1583,0,0
154,-559,0,0,0,0,0,0,0,0,0,-1,1378,1583,0,0
161,-559,0,0,0,0,0,0,0,0,0,-1,1385,1583,0,0
168,-559,0,0,0,0,0,0,0,0,0,-1,1392,1583,0,0
175,-559,0,0,0,0,0,0,0,0,0,-1,1399,1583,0,0
182,-559,0,0,0,0,0,0,0,0,0,-1,1406,1583,0,0
189,-559,0,0,0,0,0,0,0,0,0,-1,1413,1583,0,0
196,-559,0,0,0,0,0,0,0,0,0,-1,1420,1583,0,0
203,-559,0,0,0,0,0,0,0,0,0,-1,1427,1583,0,0
210,-559,0,0,0,0,0,0,0,0,0,-1,1434,1583,0,0
217,-559,0,0,0,0,0,0,0,0,0,-1,1441,1583,0,0
224,-559,0,0,0,0,0,0,0,0,0,-1,1448,1583,0,0
231,-559,0,0,0,0,0,0,0,0,0,-1,1455,1583,0,0
238,-559,0,0,0,0,0,0,0,0,0,-1,1462,1583,0,0
245,-559,0,0,0,0,0,0,0,0,0,-1,1469,1583,0,0
252,-559,0,0,0,0,0,0,0,0,0,-1,1476,1583,0,0
259,-559,0,0,0,0,0,0,0,0,0,-1,1483,1583,0,0
266,-559,0,0,0,0,0,0,0,0,0,-1,1490,1583,0,0
273,-559,0,0,0,0,0,0,0,0,0,-1,1497,1583,0,0
280,-559,0,0,0,0,0,0,0,0,0,-1,1504,1583,0,0
287,-559,0,0,0,0,0,0,0,0,0,-1,1511,1583,0,0
294,-559,0,0,0,0,0,0,0,0,0,-1,1518,1583,0,0
301,-559,0,0,0,0,0,0,0,0,0,-1,1525,1583,0,0
308,-559,0,0,0,0,0,0,0,0,0,-1,1532,1583,0,0
315,-559,0,0,0,0,0,0,0,0,0,-1,1539,1583,0,0
322,-559,0,0,0,0,0,0,0,0,0,-1,1546,1583,0,0
329,-559,0,0,0,0,0,0,0,0,0,-1,1553,1583,0,0
336,-559,5.97668,3.09827,0,0,0,0,0,0,0,-1,1560,1583,5.97667,-3.09824
343,-559,5.44824,2.88696,0,0,0,0,0,0,0,-1,1567,1583,5.44819,-2.88693
350,-559,4.69775,3.27051,0,0,0,0,0,0,0,-1,1574,1583,4.69771,-3.27048
357,-559,3.88025,3.60999,0,0,0,0,0,0,0,-1,1581,1583,3.88027,-3.60998
364,-559,5.00928,5.32605,0,0,0,0,0,0,0,-1,1588,1583,5.00928,-5.32607
371,-559,1.84436,2.52441,0,0,0,0,0,0,0,-1,1595,1583,1.84441,-2.52447
378,-559,6.34753,1.53137,0,0,0,0,0,0,0,-1,1602,1583,6.34752,-1.53139
385,-559,6.95911,1.48181,0,0,0,0,0,0,0,-1,1609,1583,6.95916,-1.48175
392,-559,11.6949,4.77734,0,0,0,0,0,0,0,-1,1616,1583,11.6949,-4.77731
399,-559,11.1104,5.56909,0,0,0,0,0,0,0,-1,1623,1583,11.1103,-5.56905
406,-559,10.3385,6.48657,0,0,0,0,0,0,0,-1,1630,1583,10.3385,-6.48661
413,-559,9.76147,6.97571,0,0,0,0,0,0,0,-1,1637,1583,9.76143,-6.97574
420,-559,7.77124,10.5851,0,0,0,0,0,0,0,-1,1644,1583,7.77128,-10.585
427,-559,10.1022,12.5565,0,0,0,0,0,0,0,-1,1651,1583,10.1021,-12.5565
434,-559,9.62769,14.6309,0,0,0,0,0,0,0,-1,1658,1583,9.62771,-14.6309
441,-559,12.6149,21.3678,0,0,0,0,0,0,0,-1,1665,1583,12.6149,-21.3678
448,-559,13.7046,22.6677,0,0,0,0,0,0,0,-1,1672,1583,13.7046,-22.6677
455,-559,13.9427,23.0509,0,0,0,0,0,0,0,-1,1679,1583,13.9427,-23.0509
462,-559,15.2506,26.6067,0,0,0,0,0,0,0,-1,1686,1583,15.2507,-26.6066
469,-559,15.4985,25.8556,0.00205008,0.0125785,-0.00585068,0.0151846,-0.000556064,-1.15174,0.0103134,0.0438222,1693,1583,15.4986,-25.8556
476,-559,15.7053,25.2233,0.00355806,0.0106464,-0.00546775,0.0136181,0.000586288,-1.07295,0.00888978,0.0203013,1700,1583,15.7053,-25.2233
483,-559,15.7904,24.6708,0.00510618,0.00903455,-0.00528798,0.0127114,0.00142937,-0.963223,0.00804024,0.013168,1707,1583,15.7905,-24.6708
490,-559,15.785,24.2271,0.00517989,0.00710414,-0.00431003,0.0105581,0.00172591,-0.895212,0.00653981,0.0142219,1714,1583,15.785,-24.227
497,-559,15.8146,23.8141,0.00420879,0.00500103,-0.00321949,0.00784868,0.00136115,-0.84661,0.00484292,0.0175285,1721,1583,15.8146,-23.814
504,-559,15.778,23.3691,0.00321877,0.00305419,-0.00225205,0.00539003,0.000882928,-0.767137,0.0033382,0.0233773,1728,1583,15.778,-23.3692
511,-559,15.7335,22.8978,0.00212682,0.00144824,-0.00130664,0.00313751,0.000437559,-0.658371,0.00196215,0.021253,1735,1583,15.7336,-22.8978
518,-559,15.7722,22.4406,0.000986685,-8.04045e-05,-0.000402085,0.00112123,-0.000214948,-0.322904,0.000828483,0.0142412,1742,1583,15.7722,-22.4406
525,-559,15.7402,21.9973,-0.000203805,-0.00146108,0.000485208,-3.83318e-05,-0.00162655,0.328666,0.00107182,0.0128314,1749,1583,15.7403,-21.9973
532,-559,15.708,21.5526,-0.00137969,-0.00275755,0.00138306,-0.000523477,-0.00361376,0.554326,0.00225503,0.0136113,1756,1583,15.708,-21.5526
539,-559,15.6826,21.0961,-0.00266124,-0.00404868,0.00242067,-0.000836853,-0.00587307,0.645848,0.00366838,0.0175745,1763,1583,15.6827,-21.096
546,-559,15.6376,20.6283,-0.00417057,-0.00550517,0.00372109,-0.00105742,-0.00861831,0.696677,0.00542751,0.0158845,1770,1583,15.6376,-20.6283
553,-559,15.6946,20.1196,-0.00577825,-0.00695591,0.00521825,-0.00111572,-0.0116184,0.729215,0.00740181,0.0205033,1777,1583,15.6946,-20.1196
560,-559,15.6233,19.7773,-0.00743186,-0.00841088,0.00680246,-0.00110132,-0.0147414,0.74948,0.00948185,0.039706,1784,1583,15.6233,-19.7774
567,-559,15.4884,19.2886,0,0,0,0,0,0,0,-1,1791,1583,15.4884,-19.2885
574,-559,10.5109,10.7317,0,0,0,0,0,0,0,-1,1798,1583,10.5108,-10.7317
581,-559,5.97095,5.96179,0,0,0,0,0,0,0,-1,1805,1583,5.97093,-5.96181
588,-559,5.79102,5.89954,0,0,0,0,0,0,0,-1,1812,1583,5.79098,-5.89949
595,-559,5.79089,6.24231,0,0,0,0,0,0,0,-1,1819,1583,5.7909,-6.24227
602,-559,12.478,2.35669,0,0,0,0,0,0,0,-1,1826,1583,12.4781,-2.35675
609,-559,14.0479,1.22681,0,0,0,0,0,0,0,-1,1833,1583,14.0479,-1.22681
616,-559,0,0,0,0,0,0,0,0,0,-1,1840,1583,0,0
623,-559,0,0,0,0,0,0,0,0,0,-1,1847,1583,0,0
630,-559,0,0,0,0,0,0,0,0,0,-1,1854,1583,0,0
637,-559,0,0,0,0,0,0,0,0,0,-1,1861,1583,0,0
644,-559,0,0,0,0,0,0,0,0,0,-1,1868,1583,0,0
651,-559,0,0,0,0,0,0,0,0,0,-1,1875,1583,0,0
658,-559,0,0,0,0,0,0,0,0,0,-1,1882,1583,0,0
665,-559,0,0,0,0,0,0,0,0,0,-1,1889,1583,0,0
672,-559,0,0,0,0,0,0,0,0,0,-1,1896,1583,0,0
679,-559,0,0,0,0,0,0,0,0,0,-1,1903,1583,0,0
686,-559,0,0,0,0,0,0,0,0,0,-1,1910,1583,0,0
693,-559,0,0,0,0,0,0,0,0,0,-1,1917,1583,0,0
700,-559,0,0,0,0,0,0,0,0,0,-1,1924,1583,0,0
707,-559,0,0,0,0,0,0,0,0,0,-1,1931,1583,0,0
714,-559,0,0,0,0,0,0,0,0,0,-1,1938,1583,0,0
721,-559,0,0,0,0,0,0,0,0,0,-1,1945,1583,0,0
728,-559,0,0,0,0,0,0,0,0,0,-1,1952,1583,0,0
735,-559,0,0,0,0,0,0,0,0,0,-1,1959,1583,0,0
742,-559,0,0,0,0,0,0,0,0,0,-1,1966,1583,0,0
749,-559,0,0,0,0,0,0,0,0,0,-1,1973,1583,0,0
756,-559,0,0,0,0,0,0,0,0,0,-1,1980,1583,0,0
763,-559,0,0,0,0,0,0,0,0,0,-1,1987,1583,0,0
770,-559,0,0,0,0,0,0,0,0,0,-1,1994,1583,0,0
777,-559,0,0,0,0,0,0,0,0,0,-1,2001,1583,0,0
784,-559,0,0,0,0,0,0,0,0,0,-1,2008,1583,0,0
791,-559,0,0,0,0,0,0,0,0,0,-1,2015,1583,0,0
798,-559,0,0,0,0,0,0,0,0,0,-1,2022,1583,0,0
805,-559,0,0,0,0,0,0,0,0,0,-1,2029,1583,0,0
812,-559,0,0,0,0,0,0,0,0,0,-1,2036,1583,0,0
-700,-566,0,0,0,0,0,0,0,0,0,-1,524,1590,0,0
-693,-566,0,0,0,0,0,0,0,0,0,-1,531,1590,0,0
-686,-566,0,0,0,0,0,0,0,0,0,-1,538,1590,0,0
-679,-566,0,0,0,0,0,0,0,0,0,-1,545,1590,0,0
-672,-566,0,0,0,0,0,0,0,0,0,-1,552,1590,0,0
-665,-566,0,0,0,0,0,0,0,0,0,-1,559,1590,0,0
-658,-566,0,0,0,0,0,0,0,0,0,-1,566,1590,0,0
-651,-566,0,0,0,0,0,0,0,0,0,-1,573,1590,0,0
-644,-566,0,0,0,0,0,0,0,0,0,-1,580,1590,0,0
-637,-566,0,0,0,0,0,0,0,0,0,-1,587,1590,0,0
-630,-566,0,0,0,0,0,0,0,0,0,-1,594,1590,0,0
-623,-566,0,0,0,0,0,0,0,0,0,-1,601,1590,0,0
-616,-566,0,0,0,0,0,0,0,0,0,-1,608,1590,0,0
-609,-566,0,0,0,0,0,0,0,0,0,-1,615,1590,0,0
-602,-566,0,0,0,0,0,0,0,0,0,-1,622,1590,0,0
-595,-566,0,0,0,0,0,0,0,0,0,-1,629,1590,0,0
-588,-566,0,0,0,0,0,0,0,0,0,-1,636,1590,0,0
-581,-566,0,0,0,0,0,0,0,0,0,-1,643,1590,0,0
-574,-566,0,0,0,0,0,0,0,0,0,-1,650,1590,0,0
-567,-566,0,0,0,0,0,0,0,0,0,-1,657,1590,0,0
-560,-566,0,0,0,0,0,0,0,0,0,-1,664,1590,0,0
-553,-566,0,0,0,0,0,0,0,0,0,-1,671,1590,0,0
-546,-566,0,0,0,0,0,0,0,0,0,-1,678,1590,0,0
-539,-566,0,0,0,0,0,0,0,0,0,-1,685,1590,0,0
-532,-566,0,0,0,0,0,0,0,0,0,-1,692,1590,0,0
-525,-566,0,0,0,0,0,0,0,0,0,-1,699,1590,0,0
-518,-566,0,0,0,0,0,0,0,0,0,-1,706,1590,0,0
-511,-566,0,0,0,0,0,0,0,0,0,-1,713,1590,0,0
-504,-566,0,0,0,0,0,0,0,0,0,-1,720,1590,0,0
-497,-566,0,0,0,0,0,0,0,0,0,-1,727,1590,0,0
-490,-566,0,0,0,0,0,0,0,0,0,-1,734,1590,0,0
-483,-566,-7.17084,2.78613,0,0,0,0,0,0,0,-1,741,1590,-7.17083,-2.78618
-476,-566,-7.13971,2.87183,0,0,0,0,0,0,0,-1,748,1590,-7.13971,-2.87184
-469,-566,-6.43829,3.2998,0,0,0,0,0,0,0,-1,755,1590,-6.43829,-3.2998
-462,-566,-0.459106,3.89343,0,0,0,0,0,0,0,-1,762,1590,-0.459095,-3.89341
-455,-566,0.280212,4.74023,0,0,0,0,0,0,0,-1,769,1590,0.280207,-4.74023
-448,-566,0.436951,5.51306,0,0,0,0,0,0,0,-1,776,1590,0.436971,-5.51301
-441,-566,-0.440735,12.4063,0,0,0,0,0,0,0,-1,783,1590,-0.440753,-12.4062
-434,-566,0.681152,18.297,0,0,0,0,0,0,0,-1,790,1590,0.681168,-18.297
-427,-566,-0.026123,18.4264,0,0,0,0,0,0,0,-1,797,1590,-0.0261205,-18.4264
-420,-566,-0.0139771,18.9103,0,0,0,0,0,0,0,-1,804,1590,-0.0139777,-18.9102
-413,-566,0.10498,19.4808,-0.00510109,0.00390584,-0.000554443,0.00393984,-0.0051351,-1.50955,0.00525454,0.027008,811,1590,0.104977,-19.4808
-406,-566,0.103271,19.979,-0.00396906,0.00230044,-0.000319098,0.00231664,-0.00398526,-1.52007,0.00368067,0.0119143,818,1590,0.103301,-19.979
-399,-566,0.085083,20.4679,-0.00306189,0.000382336,-6.8901e-05,0.000383714,-0.00306326,-1.5508,0.00218136,0.0101557,825,1590,0.0851066,-20.4678
-392,-566,0.0574951,20.9413,-0.00208341,0.000430746,0.000290029,0.00046377,-0.00211644,1.45742,0.00158828,0.0129459,832,1590,0.0575153,-20.9413
-385,-566,0.0639648,21.4498,-0.00110146,0.000917022,0.000616712,0.00109053,-0.00127497,1.29654,0.0013671,0.0157108,839,1590,0.0639823,-21.4498
-378,-566,0.0474854,21.9562,-0.000323996,0.00160428,0.000899351,0.00195863,-0.000678339,1.19547,0.00158114,0.0162221,846,1590,0.0474788,-21.9562
-371,-566,-0.0119629,22.4274,0.000252064,0.00232554,0.000932969,0.00268353,-0.000105923,1.20441,0.00182535,0.0212248,853,1590,-0.0119444,-22.4274
-364,-566,-0.0229492,22.8929,0.00084377,0.00332863,0.000980056,0.00366865,0.000503752,1.23685,0.00229634,0.021869,860,1590,-0.0229393,-22.8929
-357,-566,-0.0384521,23.3369,0.00142069,0.00452031,0.000965365,0.00479638,0.00114462,1.29226,0.00289255,0.0184527,867,1590,-0.0384304,-23.3369
-350,-566,-0.0336914,23.809,0.00206565,0.00584651,0.000932957,0.00606419,0.00184797,1.34157,0.00358905,0.0201521,874,1590,-0.033712,-23.809
-343,-566,-0.0328979,24.26,0.00273467,0.00748548,0.00095402,0.0076699,0.00255025,1.37984,0.00451029,0.0235861,881,1590,-0.0329094,-24.26
-336,-566,-0.150024,24.688,0.00332709,0.00928922,0.000927004,0.00943002,0.00318629,1.42005,0.00553899,0.0268308,888,1590,-0.150024,-24.688
-329,-566,-0.026123,25.1021,0.00393778,0.0112554,0.000915607,0.0113682,0.00382496,1.44819,0.00667945,0.023733,895,1590,-0.0261271,-25.1021
-322,-566,0.0640869,25.7416,0.00461153,0.0134649,0.000994269,0.0135751,0.00450124,1.46033,0.00798445,0.031794,902,1590,0.0640925,-25.7416
-315,-566,0.37915,26.3586,0,0,0,0,0,0,0,-1,909,1590,0.379144,-26.3586
-308,-566,0.50708,26.2681,0,0,0,0,0,0,0,-1,916,1590,0.507082,-26.268
-301,-566,1.14246,27.0635,0,0,0,0,0,0,0,-1,923,1590,1.14247,-27.0634
-294,-566,0.741455,25.3229,0,0,0,0,0,0,0,-1,930,1590,0.741475,-25.3229
-287,-566,1.25391,23.4589,0,0,0,0,0,0,0,-1,937,1590,1.2539,-23.4589
-280,-566,1.59406,17.8762,0,0,0,0,0,0,0,-1,944,1590,1.59405,-17.8762
-273,-566,0.49762,11.2427,0,0,0,0,0,0,0,-1,951,1590,0.497591,-11.2426
-266,-566,0.392151,6.90295,0,0,0,0,0,0,0,-1,958,1590,0.392151,-6.90294
-259,-566,0.343628,6.47437,0,0,0,0,0,0,0,-1,965,1590,0.34363,-6.47438
-252,-566,-7.68311,1.01343,0,0,0,0,0,0,0,-1,972,1590,-7.68308,-1.01348
-245,-566,-11.1835,1.97522,0,0,0,0,0,0,0,-1,979,1590,-11.1835,-1.97527
-238,-566,-10.4883,2.40491,0,0,0,0,0,0,0,-1,986,1590,-10.4883,-2.40487
-231,-566,-7.41827,4.22803,0,0,0,0,0,0,0,-1,993,1590,-7.41827,-4.22803
-224,-566,-4.67188,6.30859,0,0,0,0,0,0,0,-1,1000,1590,-4.67185,-6.30853
-217,-566,-2.82867,7.52527,0,0,0,0,0,0,0,-1,1007,1590,-2.82869,-7.52531
-210,-566,-1.03436,8.67737,0,0,0,0,0,0,0,-1,1014,1590,-1.03439,-8.67733
-203,-566,0,0,0,0,0,0,0,0,0,-1,1021,1590,0,0
-196,-566,0,0,0,0,0,0,0,0,0,-1,1028,1590,0,0
-189,-566,0,0,0,0,0,0,0,0,0,-1,1035,1590,0,0
-182,-566,0,0,0,0,0,0,0,0,0,-1,1042,1590,0,0
-175,-566,0,0,0,0,0,0,0,0,0,-1,1049,1590,0,0
-168,-566,0,0,0,0,0,0,0,0,0,-1,1056,1590,0,0
-161,-566,0,0,0,0,0,0,0,0,0,-1,1063,1590,0,0
-154,-566,0,0,0,0,0,0,0,0,0,-1,1070,1590,0,0
-147,-566,0,0,0,0,0,0,0,0,0,-1,1077,1590,0,0
-140,-566,0,0,0,0,0,0,0,0,0,-1,1084,1590,0,0
-133,-566,0,0,0,0,0,0,0,0,0,-1,1091,1590,0,0
-126,-566,0,0,0,0,0,0,0,0,0,-1,1098,1590,0,0
-119,-566,0,0,0,0,0,0,0,0,0,-1,1105,1590,0,0
-112,-566,0,0,0,0,0,0,0,0,0,-1,1112,1590,0,0
-105,-566,0,0,0,0,0,0,0,0,0,-1,1119,1590,0,0
-98,-566,0,0,0,0,0,0,0,0,0,-1,1126,1590,0,0
-91,-566,0,0,0,0,0,0,0,0,0,-1,1133,1590,0,0
-84,-566,0,0,0,0,0,0,0,0,0,-1,1140,1590,0,0
-77,-566,0,0,0,0,0,0,0,0,0,-1,1147,1590,0,0
-70,-566,0,0,0,0,0,0,0,0,0,-1,1154,1590,0,0
-63,-566,0,0,0,0,0,0,0,0,0,-1,1161,1590,0,0
-56,-566,0,0,0,0,0,0,0,0,0,-1,1168,1590,0,0
-49,-566,0,0,0,0,0,0,0,0,0,-1,1175,1590,0,0
-42,-566,0,0,0,0,0,0,0,0,0,-1,1182,1590,0,0
-35,-566,0,0,0,0,0,0,0,0,0,-1,1189,1590,0,0
-28,-566,0,0,0,0,0,0,0,0,0,-1,1196,1590,0,0
-21,-566,0,0,0,0,0,0,0,0,0,-1,1203,1590,0,0
-14,-566,0,0,0,0,0,0,0,0,0,-1,1210,1590,0,0
-7,-566,0,0,0,0,0,0,0,0,0,-1,1217,1590,0,0
0,-566,0,0,0,0,0,0,0,0,0,-1,1224,1590,0,0
7,-566,0,0,0,0,0,0,0,0,0,-1,1231,1590,0,0
14,-566,0,0,0,0,0,0,0,0,0,-1,1238,1590,0,0
21,-566,0,0,0,0,0,0,0,0,0,-1,1245,1590,0,0
28,-566,0,0,0,0,0,0,0,0,0,-1,1252,1590,0,0
35,-566,0,0,0,0,0,0,0,0,0,-1,1259,1590,0,0
42,-566,0,0,0,0,0,0,0,0,0,-1,1266,1590,0,0
49,-566,0,0,0,0,0,0,0,0,0,-1,1273,1590,0,0
56,-566,0,0,0,0,0,0,0,0,0,-1,1280,1590,0,0
63,-566,0,0,0,0,0,0,0,0,0,-1,1287,1590,0,0
70,-566,0,0,0,0,0,0,0,0,0,-1,1294,1590,0,0
77,-566,0,0,0,0,0,0,0,0,0,-1,1301,1590,0,0
84,-566,0,0,0,0,0,0,0,0,0,-1,1308,1590,0,0
91,-566,0,0,0,0,0,0,0,0,0,-1,1315,1590,0,0
98,-566,0,0,0,0,0,0,0,0,0,-1,1322,1590,0,0
105,-566,0,0,0,0,0,0,0,0,0,-1,1329,1590,0,0
112,-566,0,0,0,0,0,0,0,0,0,-1,1336,1590,0,0
119,-566,0,0,0,0,0,0,0,0,0,-1,1343,1590,0,0
126,-566,0,0,0,0,0,0,0,0,0,-1,1350,1590,0,0
133,-566,0,0,0,0,0,0,0,0,0,-1,1357,1590,0,0
140,-566,0,0,0,0,0,0,0,0,0,-1,1364,1590,0,0
147,-566,0,0,0,0,0,0,0,0,0,-1,1371,1590,0,0
154,-566,0,0,0,0,0,0,0,0,0,-1,1378,1590,0,0
161,-566,0,0,0,0,0,0,0,0,0,-1,1385,1590,0,0
168,-566,0,0,0,0,0,0,0,0,0,-1,1392,1590,0,0
175,-566,0,0,0,0,0,0,0,0,0,-1,1399,1590,0,0
182,-566,0,0,0,0,0,0,0,0,0,-1,1406,1590,0,0
189,-566,0,0,0,0,0,0,0,0,0,-1,1413,1590,0,0
196,-566,0,0,0,0,0,0,0,0,0,-1,1420,1590,0,0
203,-566,0,0,0,0,0,0,0,0,0,-1,1427,1590,0,0
210,-566,0,0,0,0,0,0,0,0,0,-1,1434,1590,0,0
217,-566,0,0,0,0,0,0,0,0,0,-1,1441,1590,0,0
224,-566,0,0,0,0,0,0,0,0,0,-1,1448,1590,0,0
231,-566,0,0,0,0,0,0,0,0,0,-1,1455,1590,0,0
238,-566,0,0,0,0,0,0,0,0,0,-1,1462,1590,0,0
245,-566,0,0,0,0,0,0,0,0,0,-1,1469,1590,0,0
252,-566,0,0,0,0,0,0,0,0,0,-1,1476,1590,0,0
259,-566,0,0,0,0,0,0,0,0,0,-1,1483,1590,0,0
266,-566,0,0,0,0,0,0,0,0,0,-1,1490,1590,0,0
273,-566,0,0,0,0,0,0,0,0,0,-1,1497,1590,0,0
280,-566,0,0,0,0,0,0,0,0,0,-1,1504,1590,0,0
287,-566,0,0,0,0,0,0,0,0,0,-1,1511,1590,0,0
294,-566,0,0,0,0,0,0,0,0,0,-1,1518,1590,0,0
301,-566,0,0,0,0,0,0,0,0,0,-1,1525,1590,0,0
308,-566,0,0,0,0,0,0,0,0,0,-1,1532,1590,0,0
315,-566,0,0,0,0,0,0,0,0,0,-1,1539,1590,0,0
322,-566,6.07983,4.44873,0,0,0,0,0,0,0,-1,1546,1590,6.07983,-4.44873
329,-566,5.77026,3.47534,0,0,0,0,0,0,0,-1,1553,1590,5.77026,-3.47535
336,-566,5.41138,2.62915,0,0,0,0,0,0,0,-1,1560,1590,5.41138,-2.62909
343,-566,4.81873,1.79089,0,0,0,0,0,0,0,-1,1567,1590,4.81878,-1.79095
350,-566,4.41663,2.44214,0,0,0,0,0,0,0,-1,1574,1590,4.41666,-2.44214
357,-566,6.34058,5.18579,0,0,0,0,0,0,0,-1,1581,1590,6.34059,-5.1858
364,-566,6.06262,4.20251,0,0,0,0,0,0,0,-1,1588,1590,6.06259,-4.20246
371,-566,5.78455,3.21912,0,0,0,0,0,0,0,-1,1595,1590,5.7846,-3.21912
378,-566,5.7439,0.695557,0,0,0,0,0,0,0,-1,1602,1590,5.74392,-0.695531
385,-566,5.67615,-0.573975,0,0,0,0,0,0,0,-1,1609,1590,5.67612,0.573956
392,-566,5.78638,1.82434,0,0,0,0,0,0,0,-1,1616,1590,5.78637,-1.82439
399,-566,5.36621,1.7373,0,0,0,0,0,0,0,-1,1623,1590,5.36627,-1.7373
406,-566,4.30359,5.26868,0,0,0,0,0,0,0,-1,1630,1590,4.30364,-5.26867
413,-566,4.27124,5.79492,0,0,0,0,0,0,0,-1,1637,1590,4.27123,-5.7949
420,-566,7.19812,8.25146,0,0,0,0,0,0,0,-1,1644,1590,7.19817,-8.25149
427,-566,16.7201,27.7544,0,0,0,0,0,0,0,-1,1651,1590,16.72,-27.7544
434,-566,16.0432,27.8361,0,0,0,0,0,0,0,-1,1658,1590,16.0432,-27.8361
441,-566,15.5841,27.5869,0,0,0,0,0,0,0,-1,1665,1590,15.5842,-27.587
448,-566,15.4128,27.7709,0,0,0,0,0,0,0,-1,1672,1590,15.4129,-27.7708
455,-566,14.9785,26.9395,0,0,0,0,0,0,0,-1,1679,1590,14.9785,-26.9395
462,-566,15.1395,26.2731,-0.000747891,0.0117663,-0.00443206,0.013177,-0.00215854,-1.26265,0.00958553,0.0352055,1686,1590,15.1396,-26.2731
469,-566,15.2355,25.5817,0.001333,0.0102008,-0.00448932,0.0120767,-0.000542884,-1.17499,0.00823807,0.0171694,1693,1590,15.2355,-25.5817
476,-566,15.3088,25.1019,0.00255059,0.00850658,-0.00420186,0.0106787,0.00037843,-1.09368,0.00699643,0.0105185,1700,1590,15.3089,-25.102
483,-566,15.323,24.6682,0.00387884,0.00702377,-0.00407456,0.00981876,0.00108385,-0.969554,0.00621613,0.0101529,1707,1590,15.323,-24.6682
490,-566,15.3142,24.2214,0.00404997,0.00531213,-0.00330371,0.00804449,0.00131761,-0.879772,0.00498221,0.0110975,1714,1590,15.3142,-24.2215
497,-566,15.3595,23.796,0.00322221,0.00339154,-0.00238496,0.00569333,0.000920415,-0.803141,0.00352899,0.0140959,1721,1590,15.3595,-23.796
504,-566,15.3495,23.3899,0.00224872,0.00155885,-0.00144971,0.00339397,0.0004136,-0.668604,0.00213815,0.0192293,1728,1590,15.3495,-23.3899
511,-566,15.3096,22.9458,0.00120974,-4.33582e-05,-0.00051878,0.00139664,-0.000230256,-0.345789,0.00101658,0.0191323,1735,1590,15.3095,-22.9457
518,-566,15.3068,22.4968,0.000140851,-0.00153584,0.000342033,0.000207939,-0.00160293,0.193685,0.00114425,0.0117603,1742,1590,15.3067,-22.4969
525,-566,15.2841,22.0295,-0.0010108,-0.0029152,0.00121107,-0.000422423,-0.00350357,0.452248,0.00220841,0.0115482,1749,1590,15.284,-22.0296
532,-566,15.2635,21.574,-0.00223636,-0.00429091,0.00216913,-0.000863547,-0.00566373,0.56425,0.00352342,0.0141961,1756,1590,15.2635,-21.5739
539,-566,15.246,21.1106,-0.00372021,-0.00575931,0.00336858,-0.00122027,-0.00825925,0.638449,0.00514785,0.018569,1763,1590,15.246,-21.1106
546,-566,15.276,20.6042,-0.00558285,-0.00748818,0.00494763,-0.001497,-0.011574,0.690287,0.00726859,0.02057,1770,1590,15.276,-20.6043
553,-566,15.2363,20.2609,-0.00768563,-0.00923426,0.00682559,-0.00159057,-0.0153293,0.728918,0.00973277,0.0333767,1777,1590,15.2364,-20.2608
560,-566,14.8754,20.1381,-0.0101363,-0.011155,0.00898922,-0.00164204,-0.0196493,0.757099,0.0125879,0.0415122,1784,1590,14.8753,-20.138
567,-566,14.6281,19.9178,0,0,0,0,0,0,0,-1,1791,1590,14.6281,-19.9178
574,-566,7.99548,3.14514,0,0,0,0,0,0,0,-1,1798,1590,7.99543,-3.14511
581,-566,2.54102,5.1311,0,0,0,0,0,0,0,-1,1805,1590,2.54099,-5.13111
588,-566,-1.91321,8.39197,0,0,0,0,0,0,0,-1,1812,1590,-1.91316,-8.39199
595,-566,9.0271,4.66467,0,0,0,0,0,0,0,-1,1819,1590,9.02705,-4.66468
602,-566,9.953,3.54895,0,0,0,0,0,0,0,-1,1826,1590,9.953,-3.54898
609,-566,0,0,0,0,0,0,0,0,0,-1,1833,1590,0,0
616,-566,0,0,0,0,0,0,0,0,0,-1,1840,1590,0,0
623,-566,0,0,0,0,0,0,0,0,0,-1,1847,1590,0,0
630,-566,0,0,0,0,0,0,0,0,0,-1,1854,1590,0,0
637,-566,0,0,0,0,0,0,0,0,0,-1,1861,1590,0,0
644,-566,0,0,0,0,0,0,0,0,0,-1,1868,1590,0,0
651,-566,0,0,0,0,0,0,0,0,0,-1,1875,1590,0,0
658,-566,0,0,0,0,0,0,0,0,0,-1,1882,1590,0,0
665,-566,0,0,0,0,0,0,0,0,0,-1,1889,1590,0,0
672,-566,0,0,0,0,0,0,0,0,0,-1,1896,1590,0,0
679,-566,0,0,0,0,0,0,0,0,0,-1,1903,1590,0,0
686,-566,0,0,0,0,0,0,0,0,0,-1,1910,1590,0,0
693,-566,0,0,0,0,0,0,0,0,0,-1,1917,1590,0,0
700,-566,0,0,0,0,0,0,0,0,0,-1,1924,1590,0,0
707,-566,0,0,0,0,0,0,0,0,0,-1,1931,1590,0,0
714,-566,0,0,0,0,0,0,0,0,0,-1,1938,1590,0,0
721,-566,0,0,0,0,0,0,0,0,0,-1,1945,1590,0,0
728,-566,0,0,0,0,0,0,0,0,0,-1,1952,1590,0,0
735,-566,0,0,0,0,0,0,0,0,0,-1,1959,1590,0,0
742,-566,0,0,0,0,0,0,0,0,0,-1,1966,1590,0,0
749,-566,0,0,0,0,0,0,0,0,0,-1,1973,1590,0,0
756,-566,0,0,0,0,0,0,0,0,0,-1,1980,1590,0,0
763,-566,0,0,0,0,0,0,0,0,0,-1,1987,1590,0,0
770,-566,0,0,0,0,0,0,0,0,0,-1,1994,1590,0,0
777,-566,0,0,0,0,0,0,0,0,0,-1,2001,1590,0,0
784,-566,0,0,0,0,0,0,0,0,0,-1,2008,1590,0,0
791,-566,0,0,0,0,0,0,0,0,0,-1,2015,1590,0,0
798,-566,0,0,0,0,0,0,0,0,0,-1,2022,1590,0,0
805,-566,0,0,0,0,0,0,0,0,0,-1,2029,1590,0,0
812,-566,0,0,0,0,0,0,0,0,0,-1,2036,1590,0,0
-700,-573,0,0,0,0,0,0,0,0,0,-1,524,1597,0,0
-693,-573,0,0,0,0,0,0,0,0,0,-1,531,1597,0,0
-686,-573,0,0,0,0,0,0,0,0,0,-1,538,1597,0,0
-679,-573,0,0,0,0,0,0,0,0,0,-1,545,1597,0,0
-672,-573,0,0,0,0,0,0,0,0,0,-1,552,1597,0,0
-665,-573,0,0,0,0,0,0,0,0,0,-1,559,1597,0,0
-658,-573,0,0,0,0,0,0,0,0,0,-1,566,1597,0,0
-651,-573,0,0,0,0,0,0,0,0,0,-1,573,1597,0,0
-644,-573,0,0,0,0,0,0,0,0,0,-1,580,1597,0,0
-637,-573,0,0,0,0,0,0,0,0,0,-1,587,1597,0,0
-630,-573,0,0,0,0,0,0,0,0,0,-1,594,1597,0,0
-623,-573,0,0,0,0,0,0,0,0,0,-1,601,1597,0,0
-616,-573,0,0,0,0,0,0,0,0,0,-1,608,1597,0,0
-609,-573,0,0,0,0,0,0,0,0,0,-1,615,1597,0,0
-602,-573,0,0,0,0,0,0,0,0,0,-1,622,1597,0,0
-595,-573,0,0,0,0,0,0,0,0,0,-1,629,1597,0,0
-588,-573,0,0,0,0,0,0,0,0,0,-1,636,1597,0,0
-581,-573,0,0,0,0,0,0,0,0,0,-1,643,1597,0,0
-574,-573,0,0,0,0,0,0,0,0,0,-1,650,1597,0,0
-567,-573,0,0,0,0,0,0,0,0,0,-1,657,1597,0,0
-560,-573,0,0,0,0,0,0,0,0,0,-1,664,1597,0,0
-553,-573,0,0,0,0,0,0,0,0,0,-1,671,1597,0,0
-546,-573,0,0,0,0,0,0,0,0,0,-1,678,1597,0,0
-539,-573,0,0,0,0,0,0,0,0,0,-1,685,1597,0,0
-532,-573,0,0,0,0,0,0,0,0,0,-1,692,1597,0,0
-525,-573,0,0,0,0,0,0,0,0,0,-1,699,1597,0,0
-518,-573,0,0,0,0,0,0,0,0,0,-1,706,1597,0,0
-511,-573,0,0,0,0,0,0,0,0,0,-1,713,1597,0,0
-504,-573,0,0,0,0,0,0,0,0,0,-1,720,1597,0,0
-497,-573,0,0,0,0,0,0,0,0,0,-1,727,1597,0,0
-490,-573,0,0,0,0,0,0,0,0,0,-1,734,1597,0,0
-483,-573,0,0,0,0,0,0,0,0,0,-1,741,1597,0,0
-476,-573,-9.3327,0.972778,0,0,0,0,0,0,0,-1,748,1597,-9.33268,-0.972776
-469,-573,-1.41681,1.13379,0,0,0,0,0,0,0,-1,755,1597,-1.41681,-1.13382
-462,-573,-0.748535,2.02588,0,0,0,0,0,0,0,-1,762,1597,-0.748533,-2.02584
-455,-573,-0.112976,2.70703,0,0,0,0,0,0,0,-1,769,1597,-0.112988,-2.70697
-448,-573,-1.26172,3.33252,0,0,0,0,0,0,0,-1,776,1597,-1.26173,-3.33248
-441,-573,0.108582,5.06726,0,0,0,0,0,0,0,-1,783,1597,0.108584,-5.06721
-434,-573,1.61768,7.05444,0,0,0,0,0,0,0,-1,790,1597,1.61767,-7.05446
-427,-573,-0.026123,18.3727,0,0,0,0,0,0,0,-1,797,1597,-0.0261126,-18.3727
-420,-573,1.06628,17.4988,0,0,0,0,0,0,0,-1,804,1597,1.06625,-17.4988
-413,-573,0.563538,19.3197,0,0,0,0,0,0,0,-1,811,1597,0.563567,-19.3197
-406,-573,0.587708,19.9323,-0.00516044,0.00255322,-0.000242982,0.00256087,-0.00516809,-1.53934,0.00454616,0.0296158,818,1597,0.587683,-19.9323
-399,-573,0.53949,20.4794,-0.00409261,0.000147,-7.29395e-05,0.000148255,-0.00409386,-1.5536,0.00277998,0.0130416,825,1597,0.539489,-20.4794
-392,-573,0.544556,20.976,-0.00294379,-0.000164151,0.000274476,-0.000137307,-0.00297063,1.47331,0.00193628,0.0121021,832,1597,0.54454,-20.9759
-385,-573,0.526672,21.4735,-0.00189162,0.000105839,0.000543785,0.000244283,-0.00203006,1.3215,0.00144172,0.0144862,839,1597,0.526665,-21.4736
-378,-573,0.514343,21.9657,-0.00108889,0.000522455,0.000749577,0.000817225,-0.00138366,1.19612,0.00128463,0.0151443,846,1597,0.514349,-21.9657
-371,-573,0.486572,22.4536,-0.000425216,0.000964953,0.000809922,0.00133716,-0.000797425,1.14002,0.00124547,0.0164887,853,1597,0.486558,-22.4536
-364,-573,0.428345,22.9015,0.00023022,0.00172102,0.000865254,0.00211768,-0.000166433,1.14096,0.00147041,0.0195309,860,1597,0.428318,-22.9015
-357,-573,0.427979,23.3507,0.000883341,0.00267694,0.000898613,0.00304969,0.000510592,1.17759,0.00188611,0.0232033,867,1597,0.427994,-23.3507
-350,-573,0.465027,23.847,0.00160568,0.00374171,0.000942025,0.00409779,0.0012496,1.2094,0.00242513,0.0173711,874,1597,0.465013,-23.847
-343,-573,0.462402,24.2813,0.00234409,0.00508303,0.0010655,0.00544871,0.00197841,1.24019,0.00318488,0.0201833,881,1597,0.462376,-24.2812
-336,-573,0.416382,24.7494,0.00303736,0.00650959,0.00119283,0.00687988,0.00266707,1.2698,0.00400538,0.0164704,888,1597,0.416369,-24.7494
-329,-573,0.440002,25.2108,0.00374202,0.00811614,0.0013644,0.00850683,0.00335132,1.29191,0.00494811,0.0170366,895,1597,0.440016,-25.2108
-322,-573,0.44812,25.6882,0.0044537,0.00985673,0.00158833,0.0102891,0.00402137,1.30504,0.0059874,0.0155193,902,1597,0.448121,-25.6883
-315,-573,0.592529,26.3311,0.00520057,0.011779,0.00183829,0.0122579,0.00472173,1.31598,0.00713899,0.0358734,909,1597,0.592507,-26.3311
-308,-573,0.549438,27.1604,0,0,0,0,0,0,0,-1,916,1597,0.549411,-27.1604
-301,-573,0.690308,27.3179,0,0,0,0,0,0,0,-1,923,1597,0.690323,-27.3178
-294,-573,1.00702,24.802,0,0,0,0,0,0,0,-1,930,1597,1.00701,-24.802
-287,-573,1.38068,27.6692,0,0,0,0,0,0,0,-1,937,1597,1.38071,-27.6692
-280,-573,1.19684,26.4906,0,0,0,0,0,0,0,-1,944,1597,1.19685,-26.4906
-273,-573,2.24805,25.4375,0,0,0,0,0,0,0,-1,951,1597,2.24803,-25.4374
-266,-573,1.31116,7.1814,0,0,0,0,0,0,0,-1,958,1597,1.31118,-7.18142
-259,-573,1.2514,6.70959,0,0,0,0,0,0,0,-1,965,1597,1.25137,-6.70965
-252,-573,2.07874,5.27161,0,0,0,0,0,0,0,-1,972,1597,2.07875,-5.27157
-245,-573,-10.2592,1.09827,0,0,0,0,0,0,0,-1,979,1597,-10.2592,-1.09823
-238,-573,-11.5463,4.44141,0,0,0,0,0,0,0,-1,986,1597,-11.5463,-4.44146
-231,-573,-9.23431,4.14539,0,0,0,0,0,0,0,-1,993,1597,-9.23431,-4.14534
-224,-573,-6.70044,7.40857,0,0,0,0,0,0,0,-1,1000,1597,-6.70045,-7.40851
-217,-573,-4.25824,8.59119,0,0,0,0,0,0,0,-1,1007,1597,-4.25824,-8.59122
-210,-573,-2.39661,9.73914,0,0,0,0,0,0,0,-1,1014,1597,-2.39658,-9.73915
-203,-573,-0.557373,10.9005,0,0,0,0,0,0,0,-1,1021,1597,-0.557387,-10.9006
-196,-573,-1.65344,9.02246,0,0,0,0,0,0,0,-1,1028,1597,-1.65349,-9.02241
-189,-573,-6.12915,6.66882,0,0,0,0,0,0,0,-1,1035,1597,-6.12913,-6.66884
-182,-573,0,0,0,0,0,0,0,0,0,-1,1042,1597,0,0
-175,-573,0,0,0,0,0,0,0,0,0,-1,1049,1597,0,0
-168,-573,0,0,0,0,0,0,0,0,0,-1,1056,1597,0,0
-161,-573,0,0,0,0,0,0,0,0,0,-1,1063,1597,0,0
-154,-573,0,0,0,0,0,0,0,0,0,-1,1070,1597,0,0
-147,-573,0,0,0,0,0,0,0,0,0,-1,1077,1597,0,0
-140,-573,0,0,0,0,0,0,0,0,0,-1,1084,1597,0,0
-133,-573,0,0,0,0,0,0,0,0,0,-1,1091,1597,0,0
-126,-573,0,0,0,0,0,0,0,0,0,-1,1098,1597,0,0
-119,-573,0,0,0,0,0,0,0,0,0,-1,1105,1597,0,0
-112,-573,0,0,0,0,0,0,0,0,0,-1,1112,1597,0,0
-105,-573,0,0,0,0,0,0,0,0,0,-1,1119,1597,0,0
-98,-573,0,0,0,0,0,0,0,0,0,-1,1126,1597,0,0
-91,-573,0,0,0,0,0,0,0,0,0,-1,1133,1597,0,0
-84,-573,0,0,0,0,0,0,0,0,0,-1,1140,1597,0,0
-77,-573,0,0,0,0,0,0,0,0,0,-1,1147,1597,0,0
-70,-573,0,0,0,0,0,0,0,0,0,-1,1154,1597,0,0
-63,-573,0,0,0,0,0,0,0,0,0,-1,1161,1597,0,0
-56,-573,0,0,0,0,0,0,0,0,0,-1,1168,1597,0,0
-49,-573,0,0,0,0,0,0,0,0,0,-1,1175,1597,0,0
-42,-573,0,0,0,0,0,0,0,0,0,-1,1182,1597,0,0
-35,-573,0,0,0,0,0,0,0,0,0,-1,1189,1597,0,0
-28,-573,0,0,0,0,0,0,0,0,0,-1,1196,1597,0,0
-21,-573,0,0,0,0,0,0,0,0,0,-1,1203,1597,0,0
-14,-573,0,0,0,0,0,0,0,0,0,-1,1210,1597,0,0
-7,-573,0,0,0,0,0,0,0,0,0,-1,1217,1597,0,0
0,-573,0,0,0,0,0,0,0,0,0,-1,1224,1597,0,0
7,-573,0,0,0,0,0,0,0,0,0,-1,1231,1597,0,0
14,-573,0,0,0,0,0,0,0,0,0,-1,1238,1597,0,0
21,-573,0,0,0,0,0,0,0,0,0,-1,1245,1597,0,0
28,-573,0,0,0,0,0,0,0,0,0,-1,1252,1597,0,0
35,-573,0,0,0,0,0,0,0,0,0,-1,1259,1597,0,0
42,-573,0,0,0,0,0,0,0,0,0,-1,1266,1597,0,0
49,-573,0,0,0,0,0,0,0,0,0,-1,1273,1597,0,0
56,-573,0,0,0,0,0,0,0,0,0,-1,1280,1597,0,0
63,-573,0,0,0,0,0,0,0,0,0,-1,1287,1597,0,0
70,-573,0,0,0,0,0,0,0,0,0,-1,1294,1597,0,0
77,-573,0,0,0,0,0,0,0,0,0,-1,1301,1597,0,0
84,-573,0,0,0,0,0,0,0,0,0,-1,1308,1597,0,0
91,-573,0,0,0,0,0,0,0,0,0,-1,1315,1597,0,0
98,-573,0,0,0,0,0,0,0,0,0,-1,1322,1597,0,0
105,-573,0,0,0,0,0,0,0,0,0,-1,1329,1597,0,0
112,-573,0,0,0,0,0,0,0,0,0,-1,1336,1597,0,0
119,-573,0,0,0,0,0,0,0,0,0,-1,1343,1597,0,0
126,-573,0,0,0,0,0,0,0,0,0,-1,1350,1597,0,0
133,-573,0,0,0,0,0,0,0,0,0,-1,1357,1597,0,0
140,-573,0,0,0,0,0,0,0,0,0,-1,1364,1597,0,0
147,-573,0,0,0,0,0,0,0,0,0,-1,1371,1597,0,0
154,-573,0,0,0,0,0,0,0,0,0,-1,1378,1597,0,0
161,-573,0,0,0,0,0,0,0,0,0,-1,1385,1597,0,0
168,-573,0,0,0,0,0,0,0,0,0,-1,1392,1597,0,0
175,-573,0,0,0,0,0,0,0,0,0,-1,1399,1597,0,0
182,-573,0,0,0,0,0,0,0,0,0,-1,1406,1597,0,0
189,-573,0,0,0,0,0,0,0,0,0,-1,1413,1597,0,0
196,-573,0,0,0,0,0,0,0,0,0,-1,1420,1597,0,0
203,-573,0,0,0,0,0,0,0,0,0,-1,1427,1597,0,0
210,-573,0,0,0,0,0,0,0,0,0,-1,1434,1597,0,0
217,-573,0,0,0,0,0,0,0,0,0,-1,1441,1597,0,0
224,-573,0,0,0,0,0,0,0,0,0,-1,1448,1597,0,0
231,-573,0,0,0,0,0,0,0,0,0,-1,1455,1597,0,0
238,-573,0,0,0,0,0,0,0,0,0,-1,1462,1597,0,0
245,-573,0,0,0,0,0,0,0,0,0,-1,1469,1597,0,0
252,-573,0,0,0,0,0,0,0,0,0,-1,1476,1597,0,0
259,-573,0,0,0,0,0,0,0,0,0,-1,1483,1597,0,0
266,-573,0,0,0,0,0,0,0,0,0,-1,1490,1597,0,0
273,-573,0,0,0,0,0,0,0,0,0,-1,1497,1597,0,0
280,-573,0,0,0,0,0,0,0,0,0,-1,1504,1597,0,0
287,-573,0,0,0,0,0,0,0,0,0,-1,1511,1597,0,0
294,-573,0,0,0,0,0,0,0,0,0,-1,1518,1597,0,0
301,-573,0,0,0,0,0,0,0,0,0,-1,1525,1597,0,0
308,-573,5.93042,9.71143,0,0,0,0,0,0,0,-1,1532,1597,5.93046,-9.71144
315,-573,4.34204,11.719,0,0,0,0,0,0,0,-1,1539,1597,4.34205,-11.719
322,-573,10.3269,7.77563,0,0,0,0,0,0,0,-1,1546,1597,10.327,-7.77565
329,-573,4.99573,3.80273,0,0,0,0,0,0,0,-1,1553,1597,4.9957,-3.80273
336,-573,4.85693,2.53455,0,0,0,0,0,0,0,-1,1560,1597,4.8569,-2.53459
343,-573,5.5946,2.15894,0,0,0,0,0,0,0,-1,1567,1597,5.59456,-2.1589
350,-573,2.53748,1.56433,0,0,0,0,0,0,0,-1,1574,1597,2.53753,-1.5643
357,-573,7.40247,4.03613,0,0,0,0,0,0,0,-1,1581,1597,7.40244,-4.03614
364,-573,7.14551,3.02087,0,0,0,0,0,0,0,-1,1588,1597,7.14556,-3.02084
371,-573,6.88867,2.00549,0,0,0,0,0,0,0,-1,1595,1597,6.88868,-2.00553
378,-573,8.62012,6.09106,0,0,0,0,0,0,0,-1,1602,1597,8.62012,-6.09103
385,-573,6.54346,-0.951904,0,0,0,0,0,0,0,-1,1609,1597,6.54349,0.951901
392,-573,6.41833,-2.18225,0,0,0,0,0,0,0,-1,1616,1597,6.41831,2.18228
399,-573,4.26282,4.73657,0,0,0,0,0,0,0,-1,1623,1597,4.26285,-4.73652
406,-573,6.82715,10.823,0,0,0,0,0,0,0,-1,1630,1597,6.82719,-10.823
413,-573,8.90552,13.1737,0,0,0,0,0,0,0,-1,1637,1597,8.90553,-13.1737
420,-573,16.2604,28.3666,0,0,0,0,0,0,0,-1,1644,1597,16.2604,-28.3666
427,-573,15.9658,28.0437,-0.0142782,0.0135877,0.00242195,0.0137967,-0.0144872,1.48474,0.0163313,0.0471809,1651,1597,15.9658,-28.0437
434,-573,15.267,27.7389,-0.0115754,0.012802,0.000894808,0.0128348,-0.0116082,1.53416,0.0141181,0.0495017,1658,1597,15.2669,-27.7389
441,-573,14.9922,27.7305,0,0,0,0,0,0,0,-1,1665,1597,14.9922,-27.7305
448,-573,14.8184,27.1733,-0.00573669,0.0115213,-0.00176338,0.0116997,-0.00591503,-1.47001,0.010351,0.0441531,1672,1597,14.8183,-27.1733
455,-573,14.8024,26.5503,-0.00319678,0.0105218,-0.0026897,0.0110303,-0.00370528,-1.38395,0.00885107,0.0310635,1679,1597,14.8024,-26.5503
462,-573,14.8999,25.9448,-0.000890935,0.00931852,-0.00320337,0.0102404,-0.0018128,-1.29059,0.00750453,0.0215506,1686,1597,14.8999,-25.9448
469,-573,14.9169,25.4912,0.000750403,0.00792607,-0.00330133,0.00921382,-0.000537346,-1.19888,0.00632927,0.0152384,1693,1597,14.9168,-25.4912
476,-573,14.9081,25.0908,0.0017034,0.00641264,-0.00308347,0.00793771,0.000178328,-1.11148,0.00523338,0.0138352,1700,1597,14.9081,-25.0909
483,-573,14.9207,24.6941,0.00279384,0.00502379,-0.00298877,0.00709879,0.000718843,-0.96393,0.00451204,0.0121567,1707,1597,14.9207,-24.6941
490,-573,14.9047,24.2472,0.00301687,0.00348251,-0.0023972,0.00565817,0.000841214,-0.833806,0.00352532,0.0122853,1714,1597,14.9047,-24.2471
497,-573,14.9252,23.7919,0.00232827,0.0017209,-0.0016391,0.00369158,0.000357592,-0.693798,0.00235094,0.018959,1721,1597,14.9252,-23.7918
504,-573,14.9069,23.3771,0.00139566,3.26442e-06,-0.000752184,0.00172439,-0.000325463,-0.412017,0.00127204,0.0181437,1728,1597,14.9069,-23.3771
511,-573,14.8835,22.9402,0.000433256,-0.00158828,0.000145166,0.000443627,-0.00159865,0.0713219,0.00124038,0.0181499,1735,1597,14.8836,-22.9402
518,-573,14.845,22.5284,-0.00053623,-0.00303949,0.000950501,-0.000216228,-0.0033595,0.324748,0.00217118,0.0140086,1742,1597,14.8449,-22.5285
525,-573,14.8574,22.0713,-0.00161356,-0.0044213,0.00179619,-0.000737708,-0.00529716,0.453693,0.00331303,0.0167599,1749,1597,14.8574,-22.0713
532,-573,14.8408,21.5959,-0.00285481,-0.00588893,0.00282548,-0.00116487,-0.00757886,0.539025,0.00471252,0.016262,1756,1597,14.8408,-21.5959
539,-573,14.8156,21.1466,-0.00450543,-0.0075652,0.00421065,-0.00155535,-0.0105153,0.611145,0.00655355,0.0224572,1763,1597,14.8155,-21.1466
546,-573,14.8556,20.7428,-0.00666835,-0.00960013,0.00608253,-0.00187756,-0.0143909,0.667153,0.00903337,0.0388552,1770,1597,14.8555,-20.7428
553,-573,14.2078,20.49,-0.00927572,-0.011716,0.0083969,-0.00201076,-0.0189809,0.713249,0.0120398,0.0471617,1777,1597,14.2078,-20.49
560,-573,13.712,20.26,0,0,0,0,0,0,0,-1,1784,1597,13.7121,-20.2601
567,-573,11.9315,19.6708,0,0,0,0,0,0,0,-1,1791,1597,11.9315,-19.6708
574,-573,0.83374,5.7041,0,0,0,0,0,0,0,-1,1798,1597,0.833718,-5.70405
581,-573,-0.224854,7.41602,0,0,0,0,0,0,0,-1,1805,1597,-0.224904,-7.41596
588,-573,-0.134033,7.67065,0,0,0,0,0,0,0,-1,1812,1597,-0.134037,-7.67063
595,-573,-0.0825195,8.35083,0,0,0,0,0,0,0,-1,1819,1597,-0.0824684,-8.35088
602,-573,0,0,0,0,0,0,0,0,0,-1,1826,1597,0,0
609,-573,0,0,0,0,0,0,0,0,0,-1,1833,1597,0,0
616,-573,0,0,0,0,0,0,0,0,0,-1,1840,1597,0,0
623,-573,0,0,0,0,0,0,0,0,0,-1,1847,1597,0,0
630,-573,0,0,0,0,0,0,0,0,0,-1,1854,1597,0,0
637,-573,0,0,0,0,0,0,0,0,0,-1,1861,1597,0,0
644,-573,0,0,0,0,0,0,0,0,0,-1,1868,1597,0,0
651,-573,0,0,0,0,0,0,0,0,0,-1,1875,1597,0,0
658,-573,0,0,0,0,0,0,0,0,0,-1,1882,1597,0,0
665,-573,0,0,0,0,0,0,0,0,0,-1,1889,1597,0,0
672,-573,0,0,0,0,0,0,0,0,0,-1,1896,1597,0,0
679,-573,0,0,0,0,0,0,0,0,0,-1,1903,1597,0,0
686,-573,0,0,0,0,0,0,0,0,0,-1,1910,1597,0,0
693,-573,0,0,0,0,0,0,0,0,0,-1,1917,1597,0,0
700,-573,0,0,0,0,0,0,0,0,0,-1,1924,1597,0,0
707,-573,0,0,0,0,0,0,0,0,0,-1,1931,1597,0,0
714,-573,0,0,0,0,0,0,0,0,0,-1,1938,1597,0,0
721,-573,0,0,0,0,0,0,0,0,0,-1,1945,1597,0,0
728,-573,0,0,0,0,0,0,0,0,0,-1,1952,1597,0,0
735,-573,0,0,0,0,0,0,0,0,0,-1,1959,1597,0,0
742,-573,0,0,0,0,0,0,0,0,0,-1,1966,1597,0,0
749,-573,0,0,0,0,0,0,0,0,0,-1,1973,1597,0,0
756,-573,0,0,0,0,0,0,0,0,0,-1,1980,1597,0,0
763,-573,0,0,0,0,0,0,0,0,0,-1,1987,1597,0,0
770,-573,0,0,0,0,0,0,0,0,0,-1,1994,1597,0,0
777,-573,0,0,0,0,0,0,0,0,0,-1,2001,1597,0,0
784,-573,0,0,0,0,0,0,0,0,0,-1,2008,1597,0,0
791,-573,0,0,0,0,0,0,0,0,0,-1,2015,1597,0,0
798,-573,0,0,0,0,0,0,0,0,0,-1,2022,1597,0,0
805,-573,0,0,0,0,0,0,0,0,0,-1,2029,1597,0,0
812,-573,0,0,0,0,0,0,0,0,0,-1,2036,1597,0,0
-700,-580,0,0,0,0,0,0,0,0,0,-1,524,1604,0,0
-693,-580,0,0,0,0,0,0,0,0,0,-1,531,1604,0,0
-686,-580,0,0,0,0,0,0,0,0,0,-1,538,1604,0,0
-679,-580,0,0,0,0,0,0,0,0,0,-1,545,1604,0,0
-672,-580,0,0,0,0,0,0,0,0,0,-1,552,1604,0,0
-665,-580,0,0,0,0,0,0,0,0,0,-1,559,1604,0,0
-658,-580,0,0,0,0,0,0,0,0,0,-1,566,1604,0,0
-651,-580,0,0,0,0,0,0,0,0,0,-1,573,1604,0,0
-644,-580,0,0,0,0,0,0,0,0,0,-1,580,1604,0,0
-637,-580,0,0,0,0,0,0,0,0,0,-1,587,1604,0,0
-630,-580,0,0,0,0,0,0,0,0,0,-1,594,1604,0,0
-623,-580,0,0,0,0,0,0,0,0,0,-1,601,1604,0,0
-616,-580,0,0,0,0,0,0,0,0,0,-1,608,1604,0,0
-609,-580,0,0,0,0,0,0,0,0,0,-1,615,1604,0,0
-602,-580,0,0,0,0,0,0,0,0,0,-1,622,1604,0,0
-595,-580,0,0,0,0,0,0,0,0,0,-1,629,1604,0,0
-588,-580,0,0,0,0,0,0,0,0,0,-1,636,1604,0,0
-581,-580,0,0,0,0,0,0,0,0,0,-1,643,1604,0,0
-574,-580,0,0,0,0,0,0,0,0,0,-1,650,1604,0,0
-567,-580,0,0,0,0,0,0,0,0,0,-1,657,1604,0,0
-560,-580,0,0,0,0,0,0,0,0,0,-1,664,1604,0,0
-553,-580,0,0,0,0,0,0,0,0,0,-1,671,1604,0,0
-546,-580,0,0,0,0,0,0,0,0,0,-1,678,1604,0,0
-539,-580,0,0,0,0,0,0,0,0,0,-1,685,1604,0,0
-532,-580,0,0,0,0,0,0,0,0,0,-1,692,1604,0,0
-525,-580,0,0,0,0,0,0,0,0,0,-1,699,1604,0,0
-518,-580,0,0,0,0,0,0,0,0,0,-1,706,1604,0,0
-511,-580,0,0,0,0,0,0,0,0,0,-1,713,1604,0,0
-504,-580,0,0,0,0,0,0,0,0,0,-1,720,1604,0,0
-497,-580,0,0,0,0,0,0,0,0,0,-1,727,1604,0,0
-490,-580,0,0,0,0,0,0,0,0,0,-1,734,1604,0,0
-483,-580,0,0,0,0,0,0,0,0,0,-1,741,1604,0,0
-476,-580,0,0,0,0,0,0,0,0,0,-1,748,1604,0,0
-469,-580,-1.69189,-0.38916,0,0,0,0,0,0,0,-1,755,1604,-1.69192,0.389188
-462,-580,-0.859863,0.675293,0,0,0,0,0,0,0,-1,762,1604,-0.859834,-0.675245
-455,-580,-0.730164,0.651978,0,0,0,0,0,0,0,-1,769,1604,-0.730153,-0.651957
-448,-580,-3.31891,2.07544,0,0,0,0,0,0,0,-1,776,1604,-3.3189,-2.07539
-441,-580,-1.63843,3.9469,0,0,0,0,0,0,0,-1,783,1604,-1.63842,-3.94695
-434,-580,0.23291,5.97876,0,0,0,0,0,0,0,-1,790,1604,0.232901,-5.97878
-427,-580,1.62756,8.05493,0,0,0,0,0,0,0,-1,797,1604,1.62758,-8.05488
-420,-580,0.986572,11.2383,0,0,0,0,0,0,0,-1,804,1604,0.986544,-11.2382
-413,-580,1.14362,19.0813,0,0,0,0,0,0,0,-1,811,1604,1.1436,-19.0812
-406,-580,1.05511,19.9108,0,0,0,0,0,0,0,-1,818,1604,1.05509,-19.9107
-399,-580,1.05103,20.491,-0.00516765,0.000251103,0.000161807,0.00025593,-0.00517247,1.54097,0.00353671,0.0308399,825,1604,1.05102,-20.491
-392,-580,1.01288,21.0082,-0.00379518,-0.000472381,0.000484088,-0.000403292,-0.00386426,1.42903,0.00245282,0.0156563,832,1604,1.01287,-21.0082
-385,-580,1.00244,21.4998,-0.0026539,-0.000441575,0.000681293,-0.000248601,-0.00284688,1.29478,0.00182072,0.0118478,839,1604,1.00247,-21.4998
-378,-580,0.981323,21.9857,-0.00182613,-0.000318122,0.00078237,1.44402e-05,-0.00215869,1.16887,0.00144396,0.0149993,846,1604,0.981349,-21.9858
-371,-580,0.960449,22.4802,-0.00109608,-0.000128282,0.000818114,0.000338329,-0.00156269,1.05246,0.00117098,0.0144012,853,1604,0.960457,-22.4803
-364,-580,0.91333,22.9232,-0.000402862,0.000402251,0.000834505,0.00092622,-0.000926832,1.01013,0.00106986,0.0207642,860,1604,0.913357,-22.9232
-357,-580,0.939941,23.3652,0.000290338,0.00115673,0.000864466,0.00169047,-0.000243399,1.01767,0.00121626,0.0145761,867,1604,0.939967,-23.3652
-350,-580,0.934814,23.8711,0.00104163,0.00201823,0.000921591,0.00257289,0.000486968,1.02902,0.00157818,0.0110245,874,1604,0.934793,-23.8711
-343,-580,0.934448,24.3223,0.00179471,0.00312715,0.00106768,0.00371942,0.00120244,1.06433,0.00219166,0.0119068,881,1604,0.934444,-24.3223
-336,-580,0.941528,24.7289,0.00252347,0.00425562,0.00124033,0.00490233,0.00187677,1.09018,0.00285615,0.0201986,888,1604,0.941524,-24.7289
-329,-580,0.923035,25.2117,0.00324428,0.00556971,0.00145763,0.00627156,0.00254243,1.12206,0.00364243,0.0176163,895,1604,0.923027,-25.2116
-322,-580,0.908264,25.6816,0.00393872,0.00698168,0.00172656,0.00776149,0.00315891,1.14657,0.00450686,0.0186112,902,1604,0.908276,-25.6816
-315,-580,0.928894,26.12,0.00464097,0.00844821,0.00199647,0.00930315,0.00378603,1.1662,0.00540208,0.0209723,909,1604,0.928871,-26.12
-308,-580,0.985962,26.7096,0.00546363,0.00957122,0.00226184,0.0105726,0.00446227,1.15401,0.00612876,0.0314314,916,1604,0.985987,-26.7096
-301,-580,1.05627,27.057,0.00656628,0.009985,0.0023943,0.0112175,0.00533377,1.0954,0.00647903,0.0294221,923,1604,1.05625,-27.057
-294,-580,1.15448,27.6978,0,0,0,0,0,0,0,-1,930,1604,1.15449,-27.6977
-287,-580,1.38251,27.1248,0,0,0,0,0,0,0,-1,937,1604,1.38251,-27.1248
-280,-580,1.79675,28.4565,0,0,0,0,0,0,0,-1,944,1604,1.79676,-28.4566
-273,-580,1.39575,28.6672,0,0,0,0,0,0,0,-1,951,1604,1.39577,-28.6672
-266,-580,1.71777,25.6515,0,0,0,0,0,0,0,-1,958,1604,1.71775,-25.6515
-259,-580,1.31091,9.11536,0,0,0,0,0,0,0,-1,965,1604,1.31092,-9.11539
-252,-580,1.07629,7.74097,0,0,0,0,0,0,0,-1,972,1604,1.07627,-7.74101
-245,-580,3.80304,9.16028,0,0,0,0,0,0,0,-1,979,1604,3.80306,-9.16034
-238,-580,-10.3588,1.57556,0,0,0,0,0,0,0,-1,986,1604,-10.3588,-1.5755
-231,-580,-10.576,6.43787,0,0,0,0,0,0,0,-1,993,1604,-10.576,-6.43783
-224,-580,-8.27435,7.58972,0,0,0,0,0,0,0,-1,1000,1604,-8.27435,-7.5897
-217,-580,-5.85632,9.51221,0,0,0,0,0,0,0,-1,1007,1604,-5.85632,-9.5122
-210,-580,-3.6684,11.1569,0,0,0,0,0,0,0,-1,1014,1604,-3.66839,-11.1569
-203,-580,-1.92474,12.7845,0,0,0,0,0,0,0,-1,1021,1604,-1.92477,-12.7845
-196,-580,-2.28552,10.3289,0,0,0,0,0,0,0,-1,1028,1604,-2.28552,-10.3288
-189,-580,-4.58252,7.59058,0,0,0,0,0,0,0,-1,1035,1604,-4.58256,-7.59057
-182,-580,-5.45874,7.65942,0,0,0,0,0,0,0,-1,1042,1604,-5.45876,-7.65939
-175,-580,-6.38977,7.55005,0,0,0,0,0,0,0,-1,1049,1604,-6.38981,-7.5501
-168,-580,0,0,0,0,0,0,0,0,0,-1,1056,1604,0,0
-161,-580,0,0,0,0,0,0,0,0,0,-1,1063,1604,0,0
-154,-580,0,0,0,0,0,0,0,0,0,-1,1070,1604,0,0
-147,-580,0,0,0,0,0,0,0,0,0,-1,1077,1604,0,0
-140,-580,0,0,0,0,0,0,0,0,0,-1,1084,1604,0,0
-133,-580,0,0,0,0,0,0,0,0,0,-1,1091,1604,0,0
-126,-580,0,0,0,0,0,0,0,0,0,-1,1098,1604,0,0
-119,-580,0,0,0,0,0,0,0,0,0,-1,1105,1604,0,0
-112,-580,0,0,0,0,0,0,0,0,0,-1,1112,1604,0,0
-105,-580,0,0,0,0,0,0,0,0,0,-1,1119,1604,0,0
-98,-580,0,0,0,0,0,0,0,0,0,-1,1126,1604,0,0
-91,-580,0,0,0,0,0,0,0,0,0,-1,1133,1604,0,0
-84,-580,0,0,0,0,0,0,0,0,0,-1,1140,1604,0,0
-77,-580,0,0,0,0,0,0,0,0,0,-1,1147,1604,0,0
-70,-580,0,0,0,0,0,0,0,0,0,-1,1154,1604,0,0
-63,-580,0,0,0,0,0,0,0,0,0,-1,1161,1604,0,0
-56,-580,0,0,0,0,0,0,0,0,0,-1,1168,1604,0,0
-49,-580,0,0,0,0,0,0,0,0,0,-1,1175,1604,0,0
-42,-580,0,0,0,0,0,0,0,0,0,-1,1182,1604,0,0
-35,-580,0,0,0,0,0,0,0,0,0,-1,1189,1604,0,0
-28,-580,0,0,0,0,0,0,0,0,0,-1,1196,1604,0,0
-21,-580,0,0,0,0,0,0,0,0,0,-1,1203,1604,0,0
-14,-580,0,0,0,0,0,0,0,0,0,-1,1210,1604,0,0
-7,-580,0,0,0,0,0,0,0,0,0,-1,1217,1604,0,0
0,-580,0,0,0,0,0,0,0,0,0,-1,1224,1604,0,0
7,-580,0,0,0,0,0,0,0,0,0,-1,1231,1604,0,0
14,-580,0,0,0,0,0,0,0,0,0,-1,1238,1604,0,0
21,-580,0,0,0,0,0,0,0,0,0,-1,1245,1604,0,0
28,-580,0,0,0,0,0,0,0,0,0,-1,1252,1604,0,0
35,-580,0,0,0,0,0,0,0,0,0,-1,1259,1604,0,0
42,-580,0,0,0,0,0,0,0,0,0,-1,1266,1604,0,0
49,-580,0,0,0,0,0,0,0,0,0,-1,1273,1604,0,0
56,-580,0,0,0,0,0,0,0,0,0,-1,1280,1604,0,0
63,-580,0,0,0,0,0,0,0,0,0,-1,1287,1604,0,0
70,-580,0,0,0,0,0,0,0,0,0,-1,1294,1604,0,0
77,-580,0,0,0,0,0,0,0,0,0,-1,1301,1604,0,0
84,-580,0,0,0,0,0,0,0,0,0,-1,1308,1604,0,0
91,-580,0,0,0,0,0,0,0,0,0,-1,1315,1604,0,0
98,-580,0,0,0,0,0,0,0,0,0,-1,1322,1604,0,0
105,-580,0,0,0,0,0,0,0,0,0,-1,1329,1604,0,0
112,-580,0,0,0,0,0,0,0,0,0,-1,1336,1604,0,0
119,-580,0,0,0,0,0,0,0,0,0,-1,1343,1604,0,0
126,-580,0,0,0,0,0,0,0,0,0,-1,1350,1604,0,0
133,-580,0,0,0,0,0,0,0,0,0,-1,1357,1604,0,0
140,-580,0,0,0,0,0,0,0,0,0,-1,1364,1604,0,0
147,-580,0,0,0,0,0,0,0,0,0,-1,1371,1604,0,0
154,-580,0,0,0,0,0,0,0,0,0,-1,1378,1604,0,0
161,-580,0,0,0,0,0,0,0,0,0,-1,1385,1604,0,0
168,-580,0,0,0,0,0,0,0,0,0,-1,1392,1604,0,0
175,-580,0,0,0,0,0,0,0,0,0,-1,1399,1604,0,0
182,-580,0,0,0,0,0,0,0,0,0,-1,1406,1604,0,0
189,-580,0,0,0,0,0,0,0,0,0,-1,1413,1604,0,0
196,-580,0,0,0,0,0,0,0,0,0,-1,1420,1604,0,0
203,-580,0,0,0,0,0,0,0,0,0,-1,1427,1604,0,0
210,-580,0,0,0,0,0,0,0,0,0,-1,1434,1604,0,0
217,-580,0,0,0,0,0,0,0,0,0,-1,1441,1604,0,0
224,-580,0,0,0,0,0,0,0,0,0,-1,1448,1604,0,0
231,-580,0,0,0,0,0,0,0,0,0,-1,1455,1604,0,0
238,-580,0,0,0,0,0,0,0,0,0,-1,1462,1604,0,0
245,-580,0,0,0,0,0,0,0,0,0,-1,1469,1604,0,0
252,-580,0,0,0,0,0,0,0,0,0,-1,1476,1604,0,0
259,-580,0,0,0,0,0,0,0,0,0,-1,1483,1604,0,0
266,-580,0,0,0,0,0,0,0,0,0,-1,1490,1604,0,0
273,-580,0,0,0,0,0,0,0,0,0,-1,1497,1604,0,0
280,-580,0,0,0,0,0,0,0,0,0,-1,1504,1604,0,0
287,-580,0,0,0,0,0,0,0,0,0,-1,1511,1604,0,0
294,-580,4.0437,0.177368,0,0,0,0,0,0,0,-1,1518,1604,4.04369,-0.177371
301,-580,7.55164,8.05798,0,0,0,0,0,0,0,-1,1525,1604,7.55158,-8.05802
308,-580,5.9126,9.99341,0,0,0,0,0,0,0,-1,1532,1604,5.91255,-9.99337
315,-580,4.27356,11.9287,0,0,0,0,0,0,0,-1,1539,1604,4.27352,-11.9287
322,-580,10.2366,7.50281,0,0,0,0,0,0,0,-1,1546,1604,10.2366,-7.50282
329,-580,10.5962,8.69641,0,0,0,0,0,0,0,-1,1553,1604,10.5962,-8.69642
336,-580,3.66431,1.58862,0,0,0,0,0,0,0,-1,1560,1604,3.6643,-1.58864
343,-580,3.32227,1.39636,0,0,0,0,0,0,0,-1,1567,1604,3.32222,-1.39633
350,-580,8.71277,4.0564,0,0,0,0,0,0,0,-1,1574,1604,8.71271,-4.05638
357,-580,8.52332,3.08154,0,0,0,0,0,0,0,-1,1581,1604,8.52332,-3.08157
364,-580,8.25818,2.07605,0,0,0,0,0,0,0,-1,1588,1604,8.25812,-2.07608
371,-580,7.42114,7.14282,0,0,0,0,0,0,0,-1,1595,1604,7.42119,-7.14281
378,-580,7.9718,6.6731,0,0,0,0,0,0,0,-1,1602,1604,7.9718,-6.67307
385,-580,8.52246,6.20337,0,0,0,0,0,0,0,-1,1609,1604,8.52241,-6.20334
392,-580,14.4536,30.236,0,0,0,0,0,0,0,-1,1616,1604,14.4537,-30.2359
399,-580,14.4644,29.4833,0,0,0,0,0,0,0,-1,1623,1604,14.4643,-29.4833
406,-580,14.6379,29.6208,0,0,0,0,0,0,0,-1,1630,1604,14.638,-29.6208
413,-580,14.6083,29.1173,0,0,0,0,0,0,0,-1,1637,1604,14.6083,-29.1174
420,-580,15.3397,28.9425,0,0,0,0,0,0,0,-1,1644,1604,15.3398,-28.9425
427,-580,15.0382,28.444,-0.00866295,0.0116486,0.00171144,0.0117918,-0.00880614,1.48732,0.0119338,0.0353953,1651,1604,15.0382,-28.4439
434,-580,14.5576,27.8878,-0.00752601,0.0104999,0.000800361,0.0105353,-0.00756148,1.52651,0.0104951,0.0308659,1658,1604,14.5576,-27.8878
441,-580,14.3828,27.2758,-0.00559974,0.00967987,-0.000241786,0.00968369,-0.00560356,-1.55498,0.00893028,0.0190185,1665,1604,14.3829,-27.2758
448,-580,14.4574,26.7898,-0.00432358,0.00907451,-0.00114417,0.00917152,-0.00442058,-1.48621,0.00800561,0.0160345,1672,1604,14.4574,-26.7898
455,-580,14.5111,26.3896,-0.0026097,0.00812821,-0.00187766,0.00844707,-0.00292857,-1.40258,0.00682047,0.0200846,1679,1604,14.5112,-26.3896
462,-580,14.4623,25.9421,-0.000890566,0.0070056,-0.00229337,0.00762336,-0.00150832,-1.30767,0.0056525,0.0232542,1686,1604,14.4623,-25.9421
469,-580,14.4672,25.4836,0.00039789,0.00575453,-0.00239137,0.00666677,-0.000514342,-1.20637,0.0046255,0.0195673,1693,1604,14.4672,-25.4837
476,-580,14.4814,25.0779,0.00115079,0.00438315,-0.00220781,0.00550311,3.08298e-05,-1.10135,0.00365851,0.014291,1700,1604,14.4814,-25.0779
483,-580,14.4746,24.6929,0.00200373,0.00306183,-0.00208825,0.004687,0.000378559,-0.909462,0.00300644,0.0130528,1707,1604,14.4746,-24.6929
490,-580,14.4503,24.2706,0.00223483,0.00164758,-0.00161281,0.00358052,0.000301882,-0.695355,0.00229302,0.0169165,1714,1604,14.4503,-24.2706
497,-580,14.4332,23.8171,0.00167364,2.35694e-05,-0.000975168,0.00212596,-0.00042875,-0.434301,0.00157974,0.0134621,1721,1604,14.4333,-23.8171
504,-580,14.4155,23.3784,0.000791485,-0.00158312,-0.00012876,0.000798446,-0.00159008,-0.0540127,0.00140403,0.0172909,1728,1604,14.4156,-23.3784
511,-580,14.4144,22.9545,-9.38394e-05,-0.00316659,0.000734049,7.25116e-05,-0.00333294,0.222857,0.00224652,0.0181448,1735,1604,14.4144,-22.9545
518,-580,14.3966,22.5308,-0.000968226,-0.00459529,0.00148587,-0.000437252,-0.00512626,0.343207,0.00328148,0.0170731,1742,1604,14.3966,-22.5308
525,-580,14.3949,22.09,-0.00198708,-0.00601361,0.00231046,-0.0009358,-0.00706489,0.427013,0.00443106,0.0184771,1749,1604,14.3949,-22.09
532,-580,14.3724,21.6305,-0.00329412,-0.00760549,0.00342742,-0.00140083,-0.00949878,0.50468,0.00592107,0.0197619,1756,1604,14.3724,-21.6305
539,-580,14.416,21.2566,-0.00517654,-0.0095583,0.00502785,-0.00188296,-0.0128519,0.579928,0.00801434,0.0288083,1763,1604,14.4161,-21.2566
546,-580,14.4963,20.8514,0,0,0,0,0,0,0,-1,1770,1604,14.4964,-20.8514
553,-580,13.1034,20.6077,0,0,0,0,0,0,0,-1,1777,1604,13.1034,-20.6077
560,-580,11.722,20.2501,0,0,0,0,0,0,0,-1,1784,1604,11.7221,-20.2501
567,-580,3.87708,4.0647,0,0,0,0,0,0,0,-1,1791,1604,3.87711,-4.06471
574,-580,2.31653,5.62952,0,0,0,0,0,0,0,-1,1798,1604,2.31654,-5.62947
581,-580,1.60876,6.67664,0,0,0,0,0,0,0,-1,1805,1604,1.60873,-6.67667
588,-580,1.38684,7.14441,0,0,0,0,0,0,0,-1,1812,1604,1.38689,-7.14443
595,-580,0,0,0,0,0,0,0,0,0,-1,1819,1604,0,0
602,-580,0,0,0,0,0,0,0,0,0,-1,1826,1604,0,0
609,-580,0,0,0,0,0,0,0,0,0,-1,1833,1604,0,0
616,-580,0,0,0,0,0,0,0,0,0,-1,1840,1604,0,0
623,-580,0,0,0,0,0,0,0,0,0,-1,1847,1604,0,0
630,-580,0,0,0,0,0,0,0,0,0,-1,1854,1604,0,0
637,-580,0,0,0,0,0,0,0,0,0,-1,1861,1604,0,0
644,-580,0,0,0,0,0,0,0,0,0,-1,1868,1604,0,0
651,-580,0,0,0,0,0,0,0,0,0,-1,1875,1604,0,0
658,-580,0,0,0,0,0,0,0,0,0,-1,1882,1604,0,0
665,-580,0,0,0,0,0,0,0,0,0,-1,1889,1604,0,0
672,-580,0,0,0,0,0,0,0,0,0,-1,1896,1604,0,0
679,-580,0,0,0,0,0,0,0,0,0,-1,1903,1604,0,0
686,-580,0,0,0,0,0,0,0,0,0,-1,1910,1604,0,0
693,-580,0,0,0,0,0,0,0,0,0,-1,1917,1604,0,0
700,-580,0,0,0,0,0,0,0,0,0,-1,1924,1604,0,0
707,-580,0,0,0,0,0,0,0,0,0,-1,1931,1604,0,0
714,-580,0,0,0,0,0,0,0,0,0,-1,1938,1604,0,0
721,-580,0,0,0,0,0,0,0,0,0,-1,1945,1604,0,0
728,-580,0,0,0,0,0,0,0,0,0,-1,1952,1604,0,0
735,-580,0,0,0,0,0,0,0,0,0,-1,1959,1604,0,0
742,-580,0,0,0,0,0,0,0,0,0,-1,1966,1604,0,0
749,-580,0,0,0,0,0,0,0,0,0,-1,1973,1604,0,0
756,-580,0,0,0,0,0,0,0,0,0,-1,1980,1604,0,0
763,-580,0,0,0,0,0,0,0,0,0,-1,1987,1604,0,0
770,-580,0,0,0,0,0,0,0,0,0,-1,1994,1604,0,0
777,-580,0,0,0,0,0,0,0,0,0,-1,2001,1604,0,0
784,-580,0,0,0,0,0,0,0,0,0,-1,2008,1604,0,0
791,-580,0,0,0,0,0,0,0,0,0,-1,2015,1604,0,0
798,-580,0,0,0,0,0,0,0,0,0,-1,2022,1604,0,0
805,-580,0,0,0,0,0,0,0,0,0,-1,2029,1604,0,0
812,-580,0,0,0,0,0,0,0,0,0,-1,2036,1604,0,0
-700,-587,0,0,0,0,0,0,0,0,0,-1,524,1611,0,0
-693,-587,0,0,0,0,0,0,0,0,0,-1,531,1611,0,0
-686,-587,0,0,0,0,0,0,0,0,0,-1,538,1611,0,0
-679,-587,0,0,0,0,0,0,0,0,0,-1,545,1611,0,0
-672,-587,0,0,0,0,0,0,0,0,0,-1,552,1611,0,0
-665,-587,0,0,0,0,0,0,0,0,0,-1,559,1611,0,0
-658,-587,0,0,0,0,0,0,0,0,0,-1,566,1611,0,0
-651,-587,0,0,0,0,0,0,0,0,0,-1,573,1611,0,0
-644,-587,0,0,0,0,0,0,0,0,0,-1,580,1611,0,0
-637,-587,0,0,0,0,0,0,0,0,0,-1,587,1611,0,0
-630,-587,0,0,0,0,0,0,0,0,0,-1,594,1611,0,0
-623,-587,0,0,0,0,0,0,0,0,0,-1,601,1611,0,0
-616,-587,0,0,0,0,0,0,0,0,0,-1,608,1611,0,0
-609,-587,0,0,0,0,0,0,0,0,0,-1,615,1611,0,0
-602,-587,0,0,0,0,0,0,0,0,0,-1,622,1611,0,0
-595,-587,0,0,0,0,0,0,0,0,0,-1,629,1611,0,0
-588,-587,0,0,0,0,0,0,0,0,0,-1,636,1611,0,0
-581,-587,0,0,0,0,0,0,0,0,0,-1,643,1611,0,0
-574,-587,0,0,0,0,0,0,0,0,0,-1,650,1611,0,0
-567,-587,0,0,0,0,0,0,0,0,0,-1,657,1611,0,0
-560,-587,0,0,0,0,0,0,0,0,0,-1,664,1611,0,0
-553,-587,0,0,0,0,0,0,0,0,0,-1,671,1611,0,0
-546,-587,0,0,0,0,0,0,0,0,0,-1,678,1611,0,0
-539,-587,0,0,0,0,0,0,0,0,0,-1,685,1611,0,0
-532,-587,0,0,0,0,0,0,0,0,0,-1,692,1611,0,0
-525,-587,0,0,0,0,0,0,0,0,0,-1,699,1611,0,0
-518,-587,0,0,0,0,0,0,0,0,0,-1,706,1611,0,0
-511,-587,0,0,0,0,0,0,0,0,0,-1,713,1611,0,0
-504,-587,0,0,0,0,0,0,0,0,0,-1,720,1611,0,0
-497,-587,0,0,0,0,0,0,0,0,0,-1,727,1611,0,0
-490,-587,0,0,0,0,0,0,0,0,0,-1,734,1611,0,0
-483,-587,0,0,0,0,0,0,0,0,0,-1,741,1611,0,0
-476,-587,0,0,0,0,0,0,0,0,0,-1,748,1611,0,0
-469,-587,0,0,0,0,0,0,0,0,0,-1,755,1611,0,0
-462,-587,-0.714355,-0.418457,0,0,0,0,0,0,0,-1,762,1611,-0.714359,0.418483
-455,-587,-0.619812,-0.522461,0,0,0,0,0,0,0,-1,769,1611,-0.619802,0.522515
-448,-587,-0.461731,-0.686523,0,0,0,0,0,0,0,-1,776,1611,-0.461739,0.686559
-441,-587,-3.56555,2.72253,0,0,0,0,0,0,0,-1,783,1611,-3.56555,-2.72259
-434,-587,-1.77319,4.76318,0,0,0,0,0,0,0,-1,790,1611,-1.77318,-4.76323
-427,-587,0.0346069,6.92944,0,0,0,0,0,0,0,-1,797,1611,0.034587,-6.92941
-420,-587,-0.647156,10.1157,0,0,0,0,0,0,0,-1,804,1611,-0.647128,-10.1158
-413,-587,2.13971,10.3901,0,0,0,0,0,0,0,-1,811,1611,2.13971,-10.3902
-406,-587,2.2525,19.7814,0,0,0,0,0,0,0,-1,818,1611,2.25253,-19.7814
-399,-587,1.47852,20.4049,0,0,0,0,0,0,0,-1,825,1611,1.4785,-20.4049
-392,-587,1.71478,20.8845,-0.00462391,-0.00079781,0.000790475,-0.00064093,-0.00478079,1.37488,0.00299648,0.0404684,832,1611,1.71481,-20.8845
-385,-587,1.41852,21.4587,-0.00336606,-0.000911913,0.000951313,-0.000586343,-0.00369164,1.24106,0.00229079,0.0207869,839,1611,1.4185,-21.4588
-378,-587,1.42792,22.0009,-0.00250619,-0.000994029,0.000976367,-0.000515221,-0.002985,1.11486,0.00184243,0.0136784,846,1611,1.42792,-22.0009
-371,-587,1.4187,22.496,-0.00172579,-0.00097306,0.000973667,-0.000305548,-0.0023933,0.969824,0.00150406,0.0147942,853,1611,1.41871,-22.496
-364,-587,1.39783,22.9697,-0.00101591,-0.000617022,0.000930992,0.000135649,-0.00176858,0.890917,0.00122677,0.018203,860,1611,1.39785,-22.9697
-357,-587,1.39569,23.3893,-0.00030922,-1.2043e-05,0.000927566,0.00077876,-0.00110002,0.864819,0.00108999,0.0162571,867,1611,1.39567,-23.3893
-350,-587,1.37622,23.8776,0.000433358,0.000708094,0.000957166,0.0015377,-0.000396247,0.856669,0.00117961,0.00984723,874,1611,1.37623,-23.8776
-343,-587,1.36499,24.317,0.00116297,0.00164187,0.0010703,0.00249918,0.000305665,0.895446,0.00157415,0.0128427,881,1611,1.36502,-24.317
-336,-587,1.34869,24.7472,0.00188715,0.00255295,0.00122077,0.0034854,0.000954701,0.918511,0.00207974,0.0126555,888,1611,1.34871,-24.7472
-329,-587,1.33936,25.2053,0.0025726,0.00364355,0.00139388,0.00460127,0.00161488,0.968788,0.0026956,0.0149094,895,1611,1.33936,-25.2054
-322,-587,1.34473,25.6615,0.00319659,0.00478283,0.00159579,0.00577173,0.00220769,1.01602,0.00336284,0.0181573,902,1611,1.34472,-25.6615
-315,-587,1.32227,26.1033,0.00382384,0.0059296,0.0018133,0.00697353,0.00277991,1.04843,0.00405365,0.0145259,909,1611,1.32229,-26.1033
-308,-587,1.31024,26.5481,0.00453558,0.00674907,0.00198776,0.00791742,0.00336722,1.03941,0.0045881,0.0144707,916,1611,1.31022,-26.5481
-301,-587,1.37573,27.0153,0.00547492,0.00700244,0.002073,0.0084479,0.00402946,0.961899,0.00487912,0.0154021,923,1611,1.37572,-27.0153
-294,-587,1.45331,27.5101,0.00668896,0.00682695,0.00224957,0.00900858,0.00450733,0.800728,0.00520111,0.0285803,930,1611,1.45333,-27.5101
-287,-587,1.45428,27.9738,0,0,0,0,0,0,0,-1,937,1611,1.45429,-27.9737
-280,-587,1.82507,28.088,0,0,0,0,0,0,0,-1,944,1611,1.82509,-28.088
-273,-587,1.87579,28.6661,0,0,0,0,0,0,0,-1,951,1611,1.87577,-28.6662
-266,-587,1.96759,29.8434,0,0,0,0,0,0,0,-1,958,1611,1.96761,-29.8433
-259,-587,1.76306,28.5784,0,0,0,0,0,0,0,-1,965,1611,1.76307,-28.5784
-252,-587,1.30188,10.3103,0,0,0,0,0,0,0,-1,972,1611,1.30188,-10.3104
-245,-587,1.52075,27.4791,0,0,0,0,0,0,0,-1,979,1611,1.52076,-27.4791
-238,-587,2.87799,9.53821,0,0,0,0,0,0,0,-1,986,1611,2.87797,-9.53823
-231,-587,2.49548,9.14465,0,0,0,0,0,0,0,-1,993,1611,2.49551,-9.14468
-224,-587,-9.72528,9.21069,0,0,0,0,0,0,0,-1,1000,1611,-9.72529,-9.21072
-217,-587,-7.07495,10.7847,0,0,0,0,0,0,0,-1,1007,1611,-7.07495,-10.7847
-210,-587,-4.72308,12.5889,0,0,0,0,0,0,0,-1,1014,1611,-4.72307,-12.5888
-203,-587,-3.2583,13.7289,0,0,0,0,0,0,0,-1,1021,1611,-3.25828,-13.7289
-196,-587,-1.953,14.8145,0,0,0,0,0,0,0,-1,1028,1611,-1.95302,-14.8144
-189,-587,-3.04138,8.66638,0,0,0,0,0,0,0,-1,1035,1611,-3.04136,-8.66635
-182,-587,-3.97095,9.7146,0,0,0,0,0,0,0,-1,1042,1611,-3.97093,-9.71461
-175,-587,-4.80969,8.37878,0,0,0,0,0,0,0,-1,1049,1611,-4.80964,-8.37883
-168,-587,-5.91394,8.72546,0,0,0,0,0,0,0,-1,1056,1611,-5.91398,-8.72542
-161,-587,-7.06946,8.88501,0,0,0,0,0,0,0,-1,1063,1611,-7.06947,-8.885
-154,-587,-2.24731,6.56519,0,0,0,0,0,0,0,-1,1070,1611,-2.24728,-6.56517
-147,-587,0,0,0,0,0,0,0,0,0,-1,1077,1611,0,0
-140,-587,0,0,0,0,0,0,0,0,0,-1,1084,1611,0,0
-133,-587,0,0,0,0,0,0,0,0,0,-1,1091,1611,0,0
-126,-587,0,0,0,0,0,0,0,0,0,-1,1098,1611,0,0
-119,-587,0,0,0,0,0,0,0,0,0,-1,1105,1611,0,0
-112,-587,0,0,0,0,0,0,0,0,0,-1,1112,1611,0,0
-105,-587,0,0,0,0,0,0,0,0,0,-1,1119,1611,0,0
-98,-587,0,0,0,0,0,0,0,0,0,-1,1126,1611,0,0
-91,-587,0,0,0,0,0,0,0,0,0,-1,1133,1611,0,0
-84,-587,0,0,0,0,0,0,0,0,0,-1,1140,1611,0,0
-77,-587,0,0,0,0,0,0,0,0,0,-1,1147,1611,0,0
-70,-587,0,0,0,0,0,0,0,0,0,-1,1154,1611,0,0
-63,-587,0,0,0,0,0,0,0,0,0,-1,1161,1611,0,0
-56,-587,0,0,0,0,0,0,0,0,0,-1,1168,1611,0,0
-49,-587,0,0,0,0,0,0,0,0,0,-1,1175,1611,0,0
-42,-587,0,0,0,0,0,0,0,0,0,-1,1182,1611,0,0
-35,-587,0,0,0,0,0,0,0,0,0,-1,1189,1611,0,0
-28,-587,0,0,0,0,0,0,0,0,0,-1,1196,1611,0,0
-21,-587,0,0,0,0,0,0,0,0,0,-1,1203,1611,0,0
-14,-587,0,0,0,0,0,0,0,0,0,-1,1210,1611,0,0
-7,-587,0,0,0,0,0,0,0,0,0,-1,1217,1611,0,0
0,-587,0,0,0,0,0,0,0,0,0,-1,1224,1611,0,0
7,-587,0,0,0,0,0,0,0,0,0,-1,1231,1611,0,0
14,-587,0,0,0,0,0,0,0,0,0,-1,1238,1611,0,0
21,-587,0,0,0,0,0,0,0,0,0,-1,1245,1611,0,0
28,-587,0,0,0,0,0,0,0,0,0,-1,1252,1611,0,0
35,-587,0,0,0,0,0,0,0,0,0,-1,1259,1611,0,0
42,-587,0,0,0,0,0,0,0,0,0,-1,1266,1611,0,0
49,-587,0,0,0,0,0,0,0,0,0,-1,1273,1611,0,0
56,-587,0,0,0,0,0,0,0,0,0,-1,1280,1611,0,0
63,-587,0,0,0,0,0,0,0,0,0,-1,1287,1611,0,0
70,-587,0,0,0,0,0,0,0,0,0,-1,1294,1611,0,0
77,-587,0,0,0,0,0,0,0,0,0,-1,1301,1611,0,0
84,-587,0,0,0,0,0,0,0,0,0,-1,1308,1611,0,0
91,-587,0,0,0,0,0,0,0,0,0,-1,1315,1611,0,0
98,-587,0,0,0,0,0,0,0,0,0,-1,1322,1611,0,0
105,-587,0,0,0,0,0,0,0,0,0,-1,1329,1611,0,0
112,-587,0,0,0,0,0,0,0,0,0,-1,1336,1611,0,0
119,-587,0,0,0,0,0,0,0,0,0,-1,1343,1611,0,0
126,-587,0,0,0,0,0,0,0,0,0,-1,1350,1611,0,0
133,-587,0,0,0,0,0,0,0,0,0,-1,1357,1611,0,0
140,-587,0,0,0,0,0,0,0,0,0,-1,1364,1611,0,0
147,-587,0,0,0,0,0,0,0,0,0,-1,1371,1611,0,0
154,-587,0,0,0,0,0,0,0,0,0,-1,1378,1611,0,0
161,-587,0,0,0,0,0,0,0,0,0,-1,1385,1611,0,0
168,-587,0,0,0,0,0,0,0,0,0,-1,1392,1611,0,0
175,-587,0,0,0,0,0,0,0,0,0,-1,1399,1611,0,0
182,-587,0,0,0,0,0,0,0,0,0,-1,1406,1611,0,0
189,-587,0,0,0,0,0,0,0,0,0,-1,1413,1611,0,0
196,-587,0,0,0,0,0,0,0,0,0,-1,1420,1611,0,0
203,-587,0,0,0,0,0,0,0,0,0,-1,1427,1611,0,0
210,-587,0,0,0,0,0,0,0,0,0,-1,1434,1611,0,0
217,-587,0,0,0,0,0,0,0,0,0,-1,1441,1611,0,0
224,-587,0,0,0,0,0,0,0,0,0,-1,1448,1611,0,0
231,-587,0,0,0,0,0,0,0,0,0,-1,1455,1611,0,0
238,-587,0,0,0,0,0,0,0,0,0,-1,1462,1611,0,0
245,-587,0,0,0,0,0,0,0,0,0,-1,1469,1611,0,0
252,-587,0,0,0,0,0,0,0,0,0,-1,1476,1611,0,0
259,-587,0,0,0,0,0,0,0,0,0,-1,1483,1611,0,0
266,-587,0,0,0,0,0,0,0,0,0,-1,1490,1611,0,0
273,-587,10.2936,6.35083,0,0,0,0,0,0,0,-1,1497,1611,10.2936,-6.35087
280,-587,2.09204,1.1217,0,0,0,0,0,0,0,-1,1504,1611,2.092,-1.12176
287,-587,3.2865,0.671509,0,0,0,0,0,0,0,-1,1511,1611,3.28656,-0.671538
294,-587,4.24646,1.58765,0,0,0,0,0,0,0,-1,1518,1611,4.24648,-1.58761
301,-587,7.60474,8.37085,0,0,0,0,0,0,0,-1,1525,1611,7.60478,-8.37084
308,-587,5.99316,10.2291,0,0,0,0,0,0,0,-1,1532,1611,5.99315,-10.2291
315,-587,4.34558,12.3289,0,0,0,0,0,0,0,-1,1539,1611,4.34556,-12.3288
322,-587,10.4526,6.38245,0,0,0,0,0,0,0,-1,1546,1611,10.4526,-6.38245
329,-587,10.7738,8.42444,0,0,0,0,0,0,0,-1,1553,1611,10.7738,-8.42438
336,-587,7.5531,5.96619,0,0,0,0,0,0,0,-1,1560,1611,7.55311,-5.96617
343,-587,9.57495,4.38391,0,0,0,0,0,0,0,-1,1567,1611,9.57494,-4.38397
350,-587,9.50378,3.45093,0,0,0,0,0,0,0,-1,1574,1611,9.50376,-3.4509
357,-587,9.40027,2.50806,0,0,0,0,0,0,0,-1,1581,1611,9.40022,-2.50803
364,-587,9.26477,1.34131,0,0,0,0,0,0,0,-1,1588,1611,9.26479,-1.34126
371,-587,6.98926,7.87561,0,0,0,0,0,0,0,-1,1595,1611,6.98928,-7.87564
378,-587,9.25146,13.8358,0,0,0,0,0,0,0,-1,1602,1611,9.2515,-13.8359
385,-587,13.9305,30.3229,0,0,0,0,0,0,0,-1,1609,1611,13.9305,-30.3228
392,-587,13.7986,30.2626,0,0,0,0,0,0,0,-1,1616,1611,13.7985,-30.2626
399,-587,14.1444,29.9238,0,0,0,0,0,0,0,-1,1623,1611,14.1444,-29.9238
406,-587,14.1927,29.4432,0.000655077,0.0153681,0.00144794,0.0155093,0.000513936,1.47363,0.0101725,0.0418853,1630,1611,14.1928,-29.4432
413,-587,14.1675,28.9922,-0.00259138,0.0128294,0.00178876,0.0130341,-0.00279616,1.45682,0.00975598,0.0371393,1637,1611,14.1675,-28.9921
420,-587,14.1301,28.5317,-0.00413036,0.0110568,0.00147741,0.0111992,-0.00427275,1.47472,0.00922628,0.0321412,1644,1611,14.1301,-28.5318
427,-587,14.076,28.1123,-0.00473068,0.00963477,0.00113221,0.00972346,-0.00481937,1.49262,0.00855396,0.0235947,1651,1611,14.076,-28.1123
434,-587,14.0249,27.6692,0,0,0,0,0,0,0,-1,1658,1611,14.0249,-27.6692
441,-587,14.0566,27.0753,-0.00353431,0.00747422,-9.27673e-05,0.007475,-0.00353509,-1.56237,0.00649092,0.0214551,1665,1611,14.0566,-27.0754
448,-587,14.0792,26.8082,-0.00297657,0.00683829,-0.000745294,0.00689456,-0.00303284,-1.49544,0.00587436,0.0158364,1672,1611,14.0792,-26.8082
455,-587,14.084,26.4077,-0.00190419,0.00595273,-0.00130348,0.00616334,-0.00211479,-1.41061,0.00496625,0.0145077,1679,1611,14.0839,-26.4077
462,-587,14.0537,25.9634,-0.00069977,0.00490986,-0.00161177,0.00533998,-0.00112989,-1.31001,0.0039903,0.0192432,1686,1611,14.0537,-25.9634
469,-587,14.0437,25.5472,0.000235113,0.00375878,-0.0016715,0.00442552,-0.000431628,-1.19125,0.00310424,0.0166986,1693,1611,14.0437,-25.5472
476,-587,14.049,25.1293,0.000757875,0.00248997,-0.0014904,0.00334768,-9.98364e-05,-1.04859,0.0022658,0.00992168,1700,1611,14.049,-25.1292
483,-587,14.0166,24.7029,0.00132458,0.00119644,-0.00130948,0.00257155,-5.05336e-05,-0.760953,0.00173146,0.0123068,1707,1611,14.0166,-24.7029
490,-587,13.9955,24.2692,0.00149647,-0.000152383,-0.000907053,0.00189778,-0.00055369,-0.416541,0.00148458,0.0152891,1714,1611,13.9955,-24.2691
497,-587,13.98,23.8314,0.00103577,-0.00168298,-0.00036163,0.00108305,-0.00173026,-0.130002,0.00163853,0.0124655,1721,1611,13.9799,-23.8314
504,-587,13.9532,23.4222,0.000226745,-0.00320493,0.00043745,0.000281631,-0.00325982,0.124815,0.00227291,0.012433,1728,1611,13.9532,-23.4222
511,-587,13.9537,23.0001,-0.00054445,-0.00480379,0.00124859,-0.00020542,-0.00514282,0.265137,0.00336216,0.0148961,1735,1611,13.9537,-23.0001
518,-587,13.9808,22.551,-0.0012713,-0.00623714,0.00193987,-0.000603353,-0.00690509,0.331612,0.00441604,0.0149427,1742,1611,13.9808,-22.551
525,-587,13.989,22.1436,-0.00214736,-0.00771021,0.00273477,-0.0010281,-0.00882947,0.38847,0.0055753,0.0184829,1749,1611,13.989,-22.1436
532,-587,13.9819,21.6923,-0.00341415,-0.00942334,0.00392769,-0.00147361,-0.0113639,0.458889,0.00713562,0.0300183,1756,1611,13.9819,-21.6922
539,-587,14.2986,21.2142,-0.00544261,-0.0116696,0.00575347,-0.00201422,-0.015098,0.537386,0.00946563,0.0467009,1763,1611,14.2986,-21.2142
546,-587,14.7806,20.8363,0,0,0,0,0,0,0,-1,1770,1611,14.7807,-20.8363
553,-587,7.5813,8.45068,0,0,0,0,0,0,0,-1,1777,1611,7.58125,-8.45068
560,-587,4.21179,5.23547,0,0,0,0,0,0,0,-1,1784,1611,4.21185,-5.23553
567,-587,4.03711,5.46387,0,0,0,0,0,0,0,-1,1791,1611,4.03715,-5.46382
574,-587,3.83142,5.68884,0,0,0,0,0,0,0,-1,1798,1611,3.83141,-5.68881
581,-587,3.47168,6.00977,0,0,0,0,0,0,0,-1,1805,1611,3.47167,-6.00983
588,-587,0,0,0,0,0,0,0,0,0,-1,1812,1611,0,0
595,-587,0,0,0,0,0,0,0,0,0,-1,1819,1611,0,0
602,-587,0,0,0,0,0,0,0,0,0,-1,1826,1611,0,0
609,-587,0,0,0,0,0,0,0,0,0,-1,1833,1611,0,0
616,-587,0,0,0,0,0,0,0,0,0,-1,1840,1611,0,0
623,-587,0,0,0,0,0,0,0,0,0,-1,1847,1611,0,0
630,-587,0,0,0,0,0,0,0,0,0,-1,1854,1611,0,0
637,-587,0,0,0,0,0,0,0,0,0,-1,1861,1611,0,0
644,-587,0,0,0,0,0,0,0,0,0,-1,1868,1611,0,0
651,-587,0,0,0,0,0,0,0,0,0,-1,1875,1611,0,0
658,-587,0,0,0,0,0,0,0,0,0,-1,1882,1611,0,0
665,-587,0,0,0,0,0,0,0,0,0,-1,1889,1611,0,0
672,-587,0,0,0,0,0,0,0,0,0,-1,1896,1611,0,0
679,-587,0,0,0,0,0,0,0,0,0,-1,1903,1611,0,0
686,-587,0,0,0,0,0,0,0,0,0,-1,1910,1611,0,0
693,-587,0,0,0,0,0,0,0,0,0,-1,1917,1611,0,0
700,-587,0,0,0,0,0,0,0,0,0,-1,1924,1611,0,0
707,-587,0,0,0,0,0,0,0,0,0,-1,1931,1611,0,0
714,-587,0,0,0,0,0,0,0,0,0,-1,1938,1611,0,0
721,-587,0,0,0,0,0,0,0,0,0,-1,1945,1611,0,0
728,-587,0,0,0,0,0,0,0,0,0,-1,1952,1611,0,0
735,-587,0,0,0,0,0,0,0,0,0,-1,1959,1611,0,0
742,-587,0,0,0,0,0,0,0,0,0,-1,1966,1611,0,0
749,-587,0,0,0,0,0,0,0,0,0,-1,1973,1611,0,0
756,-587,0,0,0,0,0,0,0,0,0,-1,1980,1611,0,0
763,-587,0,0,0,0,0,0,0,0,0,-1,1987,1611,0,0
770,-587,0,0,0,0,0,0,0,0,0,-1,1994,1611,0,0
777,-587,0,0,0,0,0,0,0,0,0,-1,2001,1611,0,0
784,-587,0,0,0,0,0,0,0,0,0,-1,2008,1611,0,0
791,-587,0,0,0,0,0,0,0,0,0,-1,2015,1611,0,0
798,-587,0,0,0,0,0,0,0,0,0,-1,2022,1611,0,0
805,-587,0,0,0,0,0,0,0,0,0,-1,2029,1611,0,0
812,-587,0,0,0,0,0,0,0,0,0,-1,2036,1611,0,0
-700,-594,0,0,0,0,0,0,0,0,0,-1,524,1618,0,0
-693,-594,0,0,0,0,0,0,0,0,0,-1,531,1618,0,0
-686,-594,0,0,0,0,0,0,0,0,0,-1,538,1618,0,0
-679,-594,0,0,0,0,0,0,0,0,0,-1,545,1618,0,0
-672,-594,0,0,0,0,0,0,0,0,0,-1,552,1618,0,0
-665,-594,0,0,0,0,0,0,0,0,0,-1,559,1618,0,0
-658,-594,0,0,0,0,0,0,0,0,0,-1,566,1618,0,0
-651,-594,0,0,0,0,0,0,0,0,0,-1,573,1618,0,0
-644,-594,0,0,0,0,0,0,0,0,0,-1,580,1618,0,0
-637,-594,0,0,0,0,0,0,0,0,0,-1,587,1618,0,0
-630,-594,0,0,0,0,0,0,0,0,0,-1,594,1618,0,0
-623,-594,0,0,0,0,0,0,0,0,0,-1,601,1618,0,0
-616,-594,0,0,0,0,0,0,0,0,0,-1,608,1618,0,0
-609,-594,0,0,0,0,0,0,0,0,0,-1,615,1618,0,0
-602,-594,0,0,0,0,0,0,0,0,0,-1,622,1618,0,0
-595,-594,0,0,0,0,0,0,0,0,0,-1,629,1618,0,0
-588,-594,0,0,0,0,0,0,0,0,0,-1,636,1618,0,0
-581,-594,0,0,0,0,0,0,0,0,0,-1,643,1618,0,0
-574,-594,0,0,0,0,0,0,0,0,0,-1,650,1618,0,0
-567,-594,0,0,0,0,0,0,0,0,0,-1,657,1618,0,0
-560,-594,0,0,0,0,0,0,0,0,0,-1,664,1618,0,0
-553,-594,0,0,0,0,0,0,0,0,0,-1,671,1618,0,0
-546,-594,0,0,0,0,0,0,0,0,0,-1,678,1618,0,0
-539,-594,0,0,0,0,0,0,0,0,0,-1,685,1618,0,0
-532,-594,0,0,0,0,0,0,0,0,0,-1,692,1618,0,0
-525,-594,0,0,0,0,0,0,0,0,0,-1,699,1618,0,0
-518,-594,0,0,0,0,0,0,0,0,0,-1,706,1618,0,0
-511,-594,0,0,0,0,0,0,0,0,0,-1,713,1618,0,0
-504,-594,0,0,0,0,0,0,0,0,0,-1,720,1618,0,0
-497,-594,0,0,0,0,0,0,0,0,0,-1,727,1618,0,0
-490,-594,0,0,0,0,0,0,0,0,0,-1,734,1618,0,0
-483,-594,0,0,0,0,0,0,0,0,0,-1,741,1618,0,0
-476,-594,0,0,0,0,0,0,0,0,0,-1,748,1618,0,0
-469,-594,0,0,0,0,0,0,0,0,0,-1,755,1618,0,0
-462,-594,0,0,0,0,0,0,0,0,0,-1,762,1618,0,0
-455,-594,-0.509216,-1.58411,0,0,0,0,0,0,0,-1,769,1618,-0.509245,1.58415
-448,-594,-7.71887,-0.0559082,0,0,0,0,0,0,0,-1,776,1618,-7.71885,0.055939
-441,-594,-5.78473,1.18298,0,0,0,0,0,0,0,-1,783,1618,-5.78474,-1.18295
-434,-594,-3.93628,3.06213,0,0,0,0,0,0,0,-1,790,1618,-3.93631,-3.06208
-427,-594,-3.97693,6.77759,0,0,0,0,0,0,0,-1,797,1618,-3.97695,-6.77764
-420,-594,-2.53046,7.71606,0,0,0,0,0,0,0,-1,804,1618,-2.53047,-7.71609
-413,-594,-0.860413,8.00391,0,0,0,0,0,0,0,-1,811,1618,-0.860423,-8.00389
-406,-594,2.45746,13.6218,0,0,0,0,0,0,0,-1,818,1618,2.45747,-13.6218
-399,-594,2.65326,20.4106,0,0,0,0,0,0,0,-1,825,1618,2.65328,-20.4106
-392,-594,2.12128,21.2571,0,0,0,0,0,0,0,-1,832,1618,2.12129,-21.2571
-385,-594,1.98358,21.6281,-0.00444663,-0.00128755,0.00119428,-0.000886869,-0.00484731,1.2471,0.00298023,0.0350591,839,1618,1.98359,-21.628
-378,-594,1.85052,21.9932,-0.0033681,-0.0015029,0.0012272,-0.000894147,-0.00397685,1.11031,0.00240915,0.0155638,846,1618,1.85049,-21.9932
-371,-594,1.88275,22.5076,-0.00246899,-0.00149115,0.00113747,-0.000741978,-0.00321816,0.988377,0.00194586,0.0125531,853,1618,1.88273,-22.5076
-364,-594,1.87952,22.9677,-0.00163218,-0.00130763,0.0010759,-0.000381843,-0.00255797,0.860249,0.00159336,0.0104758,860,1618,1.87954,-22.9676
-357,-594,1.84552,23.4347,-0.000809642,-0.000857691,0.00108743,0.000254025,-0.00192136,0.774353,0.00137343,0.0102731,867,1618,1.84552,-23.4347
-350,-594,1.81812,23.9143,2.73844e-06,-0.000292096,0.00114177,0.00100657,-0.00129593,0.721197,0.00133284,0.0147496,874,1618,1.81809,-23.9143
-343,-594,1.78668,24.3792,0.000771858,0.000447297,0.00126976,0.00188967,-0.000670512,0.721841,0.00153297,0.0164594,881,1618,1.78666,-24.3791
-336,-594,1.7605,24.807,0.00153475,0.00113977,0.00144194,0.00279266,-0.000118139,0.71734,0.00190238,0.0140291,888,1618,1.76049,-24.807
-329,-594,1.78168,25.2648,0.00220861,0.00200477,0.00160958,0.00371949,0.00049389,0.753779,0.00233252,0.0145185,895,1618,1.78171,-25.2647
-322,-594,1.81323,25.713,0.00276055,0.00286685,0.00176416,0.00457866,0.00104874,0.800457,0.00276985,0.0171717,902,1618,1.81322,-25.713
-315,-594,1.7915,26.1378,0.00328265,0.00372736,0.00192144,0.00543927,0.00157075,0.843004,0.00323242,0.016241,909,1618,1.79151,-26.1378
-308,-594,1.77551,26.5557,0.0038586,0.00432413,0.00201139,0.00611618,0.00206656,0.843004,0.00359251,0.0137552,916,1618,1.77553,-26.5557
-301,-594,1.76099,26.9644,0.00459854,0.00448212,0.00203421,0.00657537,0.00250529,0.771095,0.00383196,0.011535,923,1618,1.76096,-26.9644
-294,-594,1.79694,27.376,0.00554162,0.00429233,0.00208094,0.00708964,0.00274431,0.639589,0.00412785,0.0141747,930,1618,1.79697,-27.3759
-287,-594,1.73633,27.7751,0.00650899,0.00444312,0.00223806,0.00794098,0.00301112,0.569198,0.00462912,0.0264011,937,1618,1.73635,-27.7751
-280,-594,1.73712,28.2937,0,0,0,0,0,0,0,-1,944,1618,1.73714,-28.2938
-273,-594,1.83392,28.9265,0,0,0,0,0,0,0,-1,951,1618,1.83393,-28.9265
-266,-594,2.04242,29.3762,0,0,0,0,0,0,0,-1,958,1618,2.04242,-29.3763
-259,-594,1.92279,29.3945,0,0,0,0,0,0,0,-1,965,1618,1.9228,-29.3946
-252,-594,2.04559,29.4587,0,0,0,0,0,0,0,-1,972,1618,2.04559,-29.4587
-245,-594,2.17322,29.7899,0,0,0,0,0,0,0,-1,979,1618,2.17325,-29.7899
-238,-594,2.09015,28.0121,0,0,0,0,0,0,0,-1,986,1618,2.09012,-28.0121
-231,-594,1.93774,9.35388,0,0,0,0,0,0,0,-1,993,1618,1.93776,-9.35393
-224,-594,1.81824,8.62744,0,0,0,0,0,0,0,-1,1000,1618,1.81822,-8.62745
-217,-594,-8.24066,12.0752,0,0,0,0,0,0,0,-1,1007,1618,-8.24068,-12.0751
-210,-594,-5.61438,14.2119,0,0,0,0,0,0,0,-1,1014,1618,-5.6144,-14.212
-203,-594,-3.94507,15.5768,0,0,0,0,0,0,0,-1,1021,1618,-3.94506,-15.5768
-196,-594,2.78613,10.5815,0,0,0,0,0,0,0,-1,1028,1618,2.78612,-10.5815
-189,-594,2.60913,9.48865,0,0,0,0,0,0,0,-1,1035,1618,2.6091,-9.48871
-182,-594,1.2395,9.38806,0,0,0,0,0,0,0,-1,1042,1618,1.23951,-9.38804
-175,-594,0.234863,8.73792,0,0,0,0,0,0,0,-1,1049,1618,0.234812,-8.73786
-168,-594,-0.495483,8.46289,0,0,0,0,0,0,0,-1,1056,1618,-0.495513,-8.46285
-161,-594,-1.39734,8.28699,0,0,0,0,0,0,0,-1,1063,1618,-1.39729,-8.28699
-154,-594,-0.000854492,7.68445,0,0,0,0,0,0,0,-1,1070,1618,-0.000805755,-7.6845
-147,-594,0.348267,9.3385,0,0,0,0,0,0,0,-1,1077,1618,0.348237,-9.33849
-140,-594,0.675171,11.5884,0,0,0,0,0,0,0,-1,1084,1618,0.675204,-11.5884
-133,-594,0,0,0,0,0,0,0,0,0,-1,1091,1618,0,0
-126,-594,0,0,0,0,0,0,0,0,0,-1,1098,1618,0,0
-119,-594,0,0,0,0,0,0,0,0,0,-1,1105,1618,0,0
-112,-594,0,0,0,0,0,0,0,0,0,-1,1112,1618,0,0
-105,-594,0,0,0,0,0,0,0,0,0,-1,1119,1618,0,0
-98,-594,0,0,0,0,0,0,0,0,0,-1,1126,1618,0,0
-91,-594,0,0,0,0,0,0,0,0,0,-1,1133,1618,0,0
-84,-594,0,0,0,0,0,0,0,0,0,-1,1140,1618,0,0
-77,-594,0,0,0,0,0,0,0,0,0,-1,1147,1618,0,0
-70,-594,0,0,0,0,0,0,0,0,0,-1,1154,1618,0,0
-63,-594,0,0,0,0,0,0,0,0,0,-1,1161,1618,0,0
-56,-594,0,0,0,0,0,0,0,0,0,-1,1168,1618,0,0
-49,-594,0,0,0,0,0,0,0,0,0,-1,1175,1618,0,0
-42,-594,0,0,0,0,0,0,0,0,0,-1,1182,1618,0,0
-35,-594,0,0,0,0,0,0,0,0,0,-1,1189,1618,0,0
-28,-594,0,0,0,0,0,0,0,0,0,-1,1196,1618,0,0
-21,-594,0,0,0,0,0,0,0,0,0,-1,1203,1618,0,0
-14,-594,0,0,0,0,0,0,0,0,0,-1,1210,1618,0,0
-7,-594,0,0,0,0,0,0,0,0,0,-1,1217,1618,0,0
0,-594,0,0,0,0,0,0,0,0,0,-1,1224,1618,0,0
7,-594,0,0,0,0,0,0,0,0,0,-1,1231,1618,0,0
14,-594,0,0,0,0,0,0,0,0,0,-1,1238,1618,0,0
21,-594,0,0,0,0,0,0,0,0,0,-1,1245,1618,0,0
28,-594,0,0,0,0,0,0,0,0,0,-1,1252,1618,0,0
35,-594,0,0,0,0,0,0,0,0,0,-1,1259,1618,0,0
42,-594,0,0,0,0,0,0,0,0,0,-1,1266,1618,0,0
49,-594,0,0,0,0,0,0,0,0,0,-1,1273,1618,0,0
56,-594,0,0,0,0,0,0,0,0,0,-1,1280,1618,0,0
63,-594,0,0,0,0,0,0,0,0,0,-1,1287,1618,0,0
70,-594,0,0,0,0,0,0,0,0,0,-1,1294,1618,0,0
77,-594,0,0,0,0,0,0,0,0,0,-1,1301,1618,0,0
84,-594,0,0,0,0,0,0,0,0,0,-1,1308,1618,0,0
91,-594,0,0,0,0,0,0,0,0,0,-1,1315,1618,0,0
98,-594,0,0,0,0,0,0,0,0,0,-1,1322,1618,0,0
105,-594,0,0,0,0,0,0,0,0,0,-1,1329,1618,0,0
112,-594,0,0,0,0,0,0,0,0,0,-1,1336,1618,0,0
119,-594,0,0,0,0,0,0,0,0,0,-1,1343,1618,0,0
126,-594,0,0,0,0,0,0,0,0,0,-1,1350,1618,0,0
133,-594,0,0,0,0,0,0,0,0,0,-1,1357,1618,0,0
140,-594,0,0,0,0,0,0,0,0,0,-1,1364,1618,0,0
147,-594,0,0,0,0,0,0,0,0,0,-1,1371,1618,0,0
154,-594,0,0,0,0,0,0,0,0,0,-1,1378,1618,0,0
161,-594,0,0,0,0,0,0,0,0,0,-1,1385,1618,0,0
168,-594,0,0,0,0,0,0,0,0,0,-1,1392,1618,0,0
175,-594,0,0,0,0,0,0,0,0,0,-1,1399,1618,0,0
182,-594,0,0,0,0,0,0,0,0,0,-1,1406,1618,0,0
189,-594,0,0,0,0,0,0,0,0,0,-1,1413,1618,0,0
196,-594,0,0,0,0,0,0,0,0,0,-1,1420,1618,0,0
203,-594,0,0,0,0,0,0,0,0,0,-1,1427,1618,0,0
210,-594,0,0,0,0,0,0,0,0,0,-1,1434,1618,0,0
217,-594,0,0,0,0,0,0,0,0,0,-1,1441,1618,0,0
224,-594,0,0,0,0,0,0,0,0,0,-1,1448,1618,0,0
231,-594,0,0,0,0,0,0,0,0,0,-1,1455,1618,0,0
238,-594,0,0,0,0,0,0,0,0,0,-1,1462,1618,0,0
245,-594,0,0,0,0,0,0,0,0,0,-1,1469,1618,0,0
252,-594,3.03674,1.20996,0,0,0,0,0,0,0,-1,1476,1618,3.0368,-1.20999
259,-594,4.79834,1.53113,0,0,0,0,0,0,0,-1,1483,1618,4.79837,-1.53118
266,-594,3.71606,2.68152,0,0,0,0,0,0,0,-1,1490,1618,3.71609,-2.68149
273,-594,9.7655,6.33557,0,0,0,0,0,0,0,-1,1497,1618,9.76555,-6.33554
280,-594,3.13281,0.911255,0,0,0,0,0,0,0,-1,1504,1618,3.13277,-0.911207
287,-594,4.42749,1.51563,0,0,0,0,0,0,0,-1,1511,1618,4.42747,-1.51564
294,-594,5.36475,3.34937,0,0,0,0,0,0,0,-1,1518,1618,5.36475,-3.3494
301,-594,7.97144,9.04333,0,0,0,0,0,0,0,-1,1525,1618,7.9714,-9.04328
308,-594,6.30347,10.4633,0,0,0,0,0,0,0,-1,1532,1618,6.30351,-10.4633
315,-594,4.62012,11.934,0,0,0,0,0,0,0,-1,1539,1618,4.62006,-11.934
322,-594,2.91528,13.3134,0,0,0,0,0,0,0,-1,1546,1618,2.91523,-13.3133
329,-594,4.19861,9.77258,0,0,0,0,0,0,0,-1,1553,1618,4.19865,-9.77264
336,-594,10.1353,4.66528,0,0,0,0,0,0,0,-1,1560,1618,10.1353,-4.66533
343,-594,10.5729,3.71228,0,0,0,0,0,0,0,-1,1567,1618,10.5729,-3.71232
350,-594,10.219,2.98792,0,0,0,0,0,0,0,-1,1574,1618,10.219,-2.98797
357,-594,9.83154,1.96326,0,0,0,0,0,0,0,-1,1581,1618,9.8315,-1.96321
364,-594,9.74939,0.700562,0,0,0,0,0,0,0,-1,1588,1618,9.74939,-0.700615
371,-594,8.54297,14.3988,0,0,0,0,0,0,0,-1,1595,1618,8.54296,-14.3989
378,-594,13.8544,32.1123,0,0,0,0,0,0,0,-1,1602,1618,13.8544,-32.1123
385,-594,12.6144,30.1039,0,0,0,0,0,0,0,-1,1609,1618,12.6144,-30.1039
392,-594,13.2025,30.0723,0.01159,0.0219908,-0.00367422,0.0231578,0.010423,-1.26325,0.0133923,0.0483579,1616,1618,13.2025,-30.0723
399,-594,13.6561,29.7704,0.00712539,0.0175513,-0.0015197,0.0177683,0.00690839,-1.42896,0.0103427,0.0394475,1623,1618,13.6562,-29.7704
406,-594,13.7018,29.3168,0.00325743,0.0139048,-6.98527e-05,0.0139053,0.00325697,-1.56424,0.00839777,0.0245851,1630,1618,13.7018,-29.3168
413,-594,13.6793,28.9087,0.000429044,0.0113992,0.000555597,0.0114272,0.000400977,1.52032,0.00748808,0.0184163,1637,1618,13.6794,-28.9087
420,-594,13.6633,28.5006,-0.00120843,0.00946731,0.000661522,0.00950814,-0.00124927,1.50915,0.00679358,0.0161677,1644,1618,13.6633,-28.5006
427,-594,13.6791,28.076,-0.00212572,0.00788814,0.0006646,0.00793205,-0.00216964,1.50481,0.00614038,0.0126472,1651,1618,13.6791,-28.0761
434,-594,13.6547,27.6508,-0.00234334,0.00650108,0.000433663,0.00652229,-0.00236455,1.52192,0.00531471,0.0175299,1658,1618,13.6546,-27.6507
441,-594,13.6292,27.2042,-0.0020007,0.00564354,-7.42537e-05,0.00564426,-0.00200142,-1.56108,0.0045782,0.0168007,1665,1618,13.6291,-27.2042
448,-594,13.655,26.8008,-0.00188758,0.00494739,-0.00053728,0.00498937,-0.00192956,-1.49283,0.0041228,0.0165803,1672,1618,13.655,-26.8007
455,-594,13.6526,26.3961,-0.00123855,0.00407032,-0.000960732,0.00423883,-0.00140706,-1.39716,0.00339357,0.0123952,1679,1618,13.6525,-26.3961
462,-594,13.6434,25.9817,-0.00042295,0.00303338,-0.00116698,0.0033905,-0.000780066,-1.27383,0.00256028,0.0139241,1686,1618,13.6435,-25.9817
469,-594,13.6344,25.5758,0.000225087,0.00190086,-0.00117525,0.00250632,-0.000380378,-1.09508,0.00181104,0.0123302,1693,1618,13.6344,-25.5759
476,-594,13.6294,25.1598,0.000555259,0.00066108,-0.000972752,0.00158236,-0.000366021,-0.812568,0.00119573,0.0113747,1700,1618,13.6294,-25.1598
483,-594,13.6245,24.728,0.000847766,-0.000657911,-0.000702861,0.00112487,-0.000935014,-0.37554,0.00119096,0.0136571,1707,1618,13.6245,-24.728
490,-594,13.5981,24.2765,0.000927023,-0.00200907,-0.000328045,0.000963229,-0.00204527,-0.109923,0.00177401,0.0125235,1714,1618,13.5982,-24.2765
497,-594,13.569,23.8452,0.000553765,-0.00349221,0.000167022,0.000560648,-0.0034991,0.0411876,0.00254032,0.0101384,1721,1618,13.569,-23.8452
504,-594,13.569,23.4222,-0.000154868,-0.00495896,0.000936426,2.12097e-05,-0.00513504,0.185861,0.00343045,0.0108192,1728,1618,13.5689,-23.4222
511,-594,13.5714,22.9774,-0.000811571,-0.00659631,0.00170741,-0.000345215,-0.00706267,0.266633,0.0045977,0.0151913,1735,1618,13.5714,-22.9774
518,-594,13.5469,22.5588,-0.00140976,-0.00803373,0.00235029,-0.000660578,-0.00878292,0.30858,0.00564798,0.0202964,1742,1618,13.5469,-22.5589
525,-594,13.5588,22.2189,-0.0020989,-0.00959629,0.00310912,-0.000977343,-0.0107178,0.346203,0.00684276,0.034786,1749,1618,13.5588,-22.2189
532,-594,13.6259,21.6766,0,0,0,0,0,0,0,-1,1756,1618,13.6259,-21.6766
539,-594,14.0901,21.1228,0,0,0,0,0,0,0,-1,1763,1618,14.0901,-21.1227
546,-594,7.48645,8.54785,0,0,0,0,0,0,0,-1,1770,1618,7.48639,-8.54789
553,-594,3.69714,5.68762,0,0,0,0,0,0,0,-1,1777,1618,3.69715,-5.68764
560,-594,6.06616,4.44482,0,0,0,0,0,0,0,-1,1784,1618,6.06621,-4.44477
567,-594,5.97266,4.73303,0,0,0,0,0,0,0,-1,1791,1618,5.97271,-4.73309
574,-594,5.9906,4.96326,0,0,0,0,0,0,0,-1,1798,1618,5.99065,-4.96326
581,-594,0,0,0,0,0,0,0,0,0,-1,1805,1618,0,0
588,-594,0,0,0,0,0,0,0,0,0,-1,1812,1618,0,0
595,-594,0,0,0,0,0,0,0,0,0,-1,1819,1618,0,0
602,-594,0,0,0,0,0,0,0,0,0,-1,1826,1618,0,0
609,-594,0,0,0,0,0,0,0,0,0,-1,1833,1618,0,0
616,-594,0,0,0,0,0,0,0,0,0,-1,1840,1618,0,0
623,-594,0,0,0,0,0,0,0,0,0,-1,1847,1618,0,0
630,-594,0,0,0,0,0,0,0,0,0,-1,1854,1618,0,0
637,-594,0,0,0,0,0,0,0,0,0,-1,1861,1618,0,0
644,-594,0,0,0,0,0,0,0,0,0,-1,1868,1618,0,0
651,-594,0,0,0,0,0,0,0,0,0,-1,1875,1618,0,0
658,-594,0,0,0,0,0,0,0,0,0,-1,1882,1618,0,0
665,-594,0,0,0,0,0,0,0,0,0,-1,1889,1618,0,0
672,-594,0,0,0,0,0,0,0,0,0,-1,1896,1618,0,0
679,-594,0,0,0,0,0,0,0,0,0,-1,1903,1618,0,0
686,-594,0,0,0,0,0,0,0,0,0,-1,1910,1618,0,0
693,-594,0,0,0,0,0,0,0,0,0,-1,1917,1618,0,0
700,-594,0,0,0,0,0,0,0,0,0,-1,1924,1618,0,0
707,-594,0,0,0,0,0,0,0,0,0,-1,1931,1618,0,0
714,-594,0,0,0,0,0,0,0,0,0,-1,1938,1618,0,0
721,-594,0,0,0,0,0,0,0,0,0,-1,1945,1618,0,0
728,-594,0,0,0,0,0,0,0,0,0,-1,1952,1618,0,0
735,-594,0,0,0,0,0,0,0,0,0,-1,1959,1618,0,0
742,-594,0,0,0,0,0,0,0,0,0,-1,1966,1618,0,0
749,-594,0,0,0,0,0,0,0,0,0,-1,1973,1618,0,0
756,-594,0,0,0,0,0,0,0,0,0,-1,1980,1618,0,0
763,-594,0,0,0,0,0,0,0,0,0,-1,1987,1618,0,0
770,-594,0,0,0,0,0,0,0,0,0,-1,1994,1618,0,0
777,-594,0,0,0,0,0,0,0,0,0,-1,2001,1618,0,0
784,-594,0,0,0,0,0,0,0,0,0,-1,2008,1618,0,0
791,-594,0,0,0,0,0,0,0,0,0,-1,2015,1618,0,0
798,-594,0,0,0,0,0,0,0,0,0,-1,2022,1618,0,0
805,-594,0,0,0,0,0,0,0,0,0,-1,2029,1618,0,0
812,-594,0,0,0,0,0,0,0,0,0,-1,2036,1618,0,0
-700,-601,0,0,0,0,0,0,0,0,0,-1,524,1625,0,0
-693,-601,0,0,0,0,0,0,0,0,0,-1,531,1625,0,0
-686,-601,0,0,0,0,0,0,0,0,0,-1,538,1625,0,0
-679,-601,0,0,0,0,0,0,0,0,0,-1,545,1625,0,0
-672,-601,0,0,0,0,0,0,0,0,0,-1,552,1625,0,0
-665,-601,0,0,0,0,0,0,0,0,0,-1,559,1625,0,0
-658,-601,0,0,0,0,0,0,0,0,0,-1,566,1625,0,0
-651,-601,0,0,0,0,0,0,0,0,0,-1,573,1625,0,0
-644,-601,0,0,0,0,0,0,0,0,0,-1,580,1625,0,0
-637,-601,0,0,0,0,0,0,0,0,0,-1,587,1625,0,0
-630,-601,0,0,0,0,0,0,0,0,0,-1,594,1625,0,0
-623,-601,0,0,0,0,0,0,0,0,0,-1,601,1625,0,0
-616,-601,0,0,0,0,0,0,0,0,0,-1,608,1625,0,0
-609,-601,0,0,0,0,0,0,0,0,0,-1,615,1625,0,0
-602,-601,0,0,0,0,0,0,0,0,0,-1,622,1625,0,0
-595,-601,0,0,0,0,0,0,0,0,0,-1,629,1625,0,0
-588,-601,0,0,0,0,0,0,0,0,0,-1,636,1625,0,0
-581,-601,0,0,0,0,0,0,0,0,0,-1,643,1625,0,0
-574,-601,0,0,0,0,0,0,0,0,0,-1,650,1625,0,0
-567,-601,0,0,0,0,0,0,0,0,0,-1,657,1625,0,0
-560,-601,0,0,0,0,0,0,0,0,0,-1,664,1625,0,0
-553,-601,0,0,0,0,0,0,0,0,0,-1,671,1625,0,0
-546,-601,0,0,0,0,0,0,0,0,0,-1,678,1625,0,0
-539,-601,0,0,0,0,0,0,0,0,0,-1,685,1625,0,0
-532,-601,0,0,0,0,0,0,0,0,0,-1,692,1625,0,0
-525,-601,0,0,0,0,0,0,0,0,0,-1,699,1625,0,0
-518,-601,0,0,0,0,0,0,0,0,0,-1,706,1625,0,0
-511,-601,0,0,0,0,0,0,0,0,0,-1,713,1625,0,0
-504,-601,0,0,0,0,0,0,0,0,0,-1,720,1625,0,0
-497,-601,0,0,0,0,0,0,0,0,0,-1,727,1625,0,0
-490,-601,0,0,0,0,0,0,0,0,0,-1,734,1625,0,0
-483,-601,0,0,0,0,0,0,0,0,0,-1,741,1625,0,0
-476,-601,0,0,0,0,0,0,0,0,0,-1,748,1625,0,0
-469,-601,0,0,0,0,0,0,0,0,0,-1,755,1625,0,0
-462,-601,0,0,0,0,0,0,0,0,0,-1,762,1625,0,0
-455,-601,0,0,0,0,0,0,0,0,0,-1,769,1625,0,0
-448,-601,-7.07623,2.7616,0,0,0,0,0,0,0,-1,776,1625,-7.07626,-2.76161
-441,-601,-6.06689,3.33447,0,0,0,0,0,0,0,-1,783,1625,-6.06691,-3.33448
-434,-601,-5.02655,3.8468,0,0,0,0,0,0,0,-1,790,1625,-5.02657,-3.84674
-427,-601,-5.78601,4.2406,0,0,0,0,0,0,0,-1,797,1625,-5.786,-4.24058
-420,-601,-5.5191,5.60364,0,0,0,0,0,0,0,-1,804,1625,-5.51907,-5.60368
-413,-601,-4.30756,5.86047,0,0,0,0,0,0,0,-1,811,1625,-4.30757,-5.86046
-406,-601,-1.67493,7.20422,0,0,0,0,0,0,0,-1,818,1625,-1.67493,-7.20428
-399,-601,1.40094,15.3108,0,0,0,0,0,0,0,-1,825,1625,1.40096,-15.3107
-392,-601,2.4613,21.1294,0,0,0,0,0,0,0,-1,832,1625,2.4613,-21.1294
-385,-601,2.49817,21.6549,0,0,0,0,0,0,0,-1,839,1625,2.49819,-21.6549
-378,-601,2.23419,21.9794,0,0,0,0,0,0,0,-1,846,1625,2.23417,-21.9793
-371,-601,2.31293,22.4906,-0.00295695,-0.00207833,0.00144975,-0.00100279,-0.00403249,0.932513,0.00242421,0.023323,853,1625,2.31294,-22.4906
-364,-601,2.31293,22.9598,-0.00208516,-0.00200617,0.00133975,-0.000705337,-0.00338599,0.800135,0.00206281,0.0127825,860,1625,2.31291,-22.9598
-357,-601,2.28046,23.4475,-0.00124903,-0.00164968,0.00132328,-0.000111002,-0.00278771,0.710275,0.0018226,0.0103788,867,1625,2.28045,-23.4475
-350,-601,2.28973,23.9589,-0.000474702,-0.00113555,0.00134279,0.000577721,-0.00218797,0.664759,0.00168457,0.0211024,874,1625,2.28974,-23.9588
-343,-601,2.22913,24.4396,0.0002379,-0.000482317,0.00140337,0.00132663,-0.00157105,0.659807,0.00167496,0.0229492,881,1625,2.22914,-24.4396
-336,-601,2.18317,24.8746,0.000958282,0.000131427,0.00150539,0.00210599,-0.00101628,0.651387,0.00183887,0.0193216,888,1625,2.18318,-24.8746
-329,-601,2.22058,25.3097,0.0015537,0.000917847,0.00157406,0.00284163,-0.000370074,0.685749,0.00202906,0.0158675,895,1625,2.22057,-25.3097
-322,-601,2.2431,25.7491,0.00198838,0.0016705,0.0015964,0.00343374,0.000225148,0.73578,0.00221792,0.0128324,902,1625,2.24312,-25.7491
-315,-601,2.22107,26.1448,0.00237532,0.0024184,0.0016155,0.00401251,0.000781214,0.792064,0.00245636,0.0125281,909,1625,2.22106,-26.1448
-308,-601,2.1922,26.5684,0.00280131,0.0029889,0.00156256,0.00446048,0.00132973,0.815375,0.00264431,0.0117226,916,1625,2.19221,-26.5684
-301,-601,2.19775,26.9794,0.00338835,0.00322747,0.00149299,0.00480307,0.00181276,0.758484,0.00280069,0.0101114,923,1625,2.19773,-26.9794
-294,-601,2.2052,27.3812,0.00415388,0.00316388,0.0014408,0.00518234,0.00213542,0.619935,0.00300741,0.00991596,930,1625,2.20523,-27.3812
-287,-601,2.17377,27.8127,0.0048925,0.00341519,0.00145698,0.00578737,0.00252033,0.550791,0.0033506,0.0113108,937,1625,2.17377,-27.8127
-280,-601,2.19165,28.264,0.00574475,0.00336807,0.00137049,0.00637036,0.00274247,0.428232,0.00368975,0.0161178,944,1625,2.19162,-28.264
-273,-601,2.19464,28.7552,0.00670556,0.00300559,0.00124533,0.00708566,0.00262548,0.296241,0.00413637,0.018147,951,1625,2.19466,-28.7553
-266,-601,2.23907,29.1744,0.00784351,0.00244171,0.00110473,0.00806071,0.00222451,0.194131,0.00480705,0.0221999,958,1625,2.23909,-29.1745
-259,-601,2.28833,29.431,0.00916367,0.00133989,0.000876978,0.00926077,0.00124279,0.110268,0.0058041,0.0307128,965,1625,2.28834,-29.431
-252,-601,2.35486,29.681,0.0107773,0.000316422,0.000830292,0.0108428,0.00025093,0.0787146,0.00714633,0.0439329,972,1625,2.35486,-29.681
-245,-601,2.42596,30.1106,0.0123269,-0.000511853,0.000849709,0.0123829,-0.000567845,0.0658007,0.0084509,0.0460736,979,1625,2.42594,-30.1105
-238,-601,2.42059,30.655,0,0,0,0,0,0,0,-1,986,1625,2.42059,-30.655
-231,-601,2.66772,13.7051,0,0,0,0,0,0,0,-1,993,1625,2.6677,-13.7051
-224,-601,-0.0305176,9.13684,0,0,0,0,0,0,0,-1,1000,1625,-0.030498,-9.13681
-217,-601,3.39429,10.3898,0,0,0,0,0,0,0,-1,1007,1625,3.39431,-10.3898
-210,-601,-6.53699,15.7931,0,0,0,0,0,0,0,-1,1014,1625,-6.53697,-15.7931
-203,-601,2.69348,15.9099,0,0,0,0,0,0,0,-1,1021,1625,2.69351,-15.91
-196,-601,2.66992,16.1815,0,0,0,0,0,0,0,-1,1028,1625,2.66995,-16.1815
-189,-601,2.849,16.6105,0,0,0,0,0,0,0,-1,1035,1625,2.84902,-16.6104
-182,-601,1.82153,13.9752,0,0,0,0,0,0,0,-1,1042,1625,1.82155,-13.9752
-175,-601,0.544922,9.28687,0,0,0,0,0,0,0,-1,1049,1625,0.544879,-9.28685
-168,-601,-0.247559,8.97461,0,0,0,0,0,0,0,-1,1056,1625,-0.247598,-8.97466
-161,-601,-1.16833,8.80078,0,0,0,0,0,0,0,-1,1063,1625,-1.16837,-8.80081
-154,-601,1.12756,7.94861,0,0,0,0,0,0,0,-1,1070,1625,1.12762,-7.94855
-147,-601,1.35352,9.55432,0,0,0,0,0,0,0,-1,1077,1625,1.35351,-9.55429
-140,-601,1.72437,11.1498,0,0,0,0,0,0,0,-1,1084,1625,1.72432,-11.1498
-133,-601,2.13281,12.8347,0,0,0,0,0,0,0,-1,1091,1625,2.13287,-12.8348
-126,-601,3.09534,15.427,0,0,0,0,0,0,0,-1,1098,1625,3.0953,-15.4271
-119,-601,1.22485,9.43457,0,0,0,0,0,0,0,-1,1105,1625,1.22489,-9.43456
-112,-601,0,0,0,0,0,0,0,0,0,-1,1112,1625,0,0
-105,-601,0,0,0,0,0,0,0,0,0,-1,1119,1625,0,0
-98,-601,0,0,0,0,0,0,0,0,0,-1,1126,1625,0,0
-91,-601,0,0,0,0,0,0,0,0,0,-1,1133,1625,0,0
-84,-601,0,0,0,0,0,0,0,0,0,-1,1140,1625,0,0
-77,-601,0,0,0,0,0,0,0,0,0,-1,1147,1625,0,0
-70,-601,0,0,0,0,0,0,0,0,0,-1,1154,1625,0,0
-63,-601,0,0,0,0,0,0,0,0,0,-1,1161,1625,0,0
-56,-601,0,0,0,0,0,0,0,0,0,-1,1168,1625,0,0
-49,-601,0,0,0,0,0,0,0,0,0,-1,1175,1625,0,0
-42,-601,0,0,0,0,0,0,0,0,0,-1,1182,1625,0,0
-35,-601,0,0,0,0,0,0,0,0,0,-1,1189,1625,0,0
-28,-601,0,0,0,0,0,0,0,0,0,-1,1196,1625,0,0
-21,-601,0,0,0,0,0,0,0,0,0,-1,1203,1625,0,0
-14,-601,0,0,0,0,0,0,0,0,0,-1,1210,1625,0,0
-7,-601,0,0,0,0,0,0,0,0,0,-1,1217,1625,0,0
0,-601,0,0,0,0,0,0,0,0,0,-1,1224,1625,0,0
7,-601,0,0,0,0,0,0,0,0,0,-1,1231,1625,0,0
14,-601,0,0,0,0,0,0,0,0,0,-1,1238,1625,0,0
21,-601,0,0,0,0,0,0,0,0,0,-1,1245,1625,0,0
28,-601,0,0,0,0,0,0,0,0,0,-1,1252,1625,0,0
35,-601,0,0,0,0,0,0,0,0,0,-1,1259,1625,0,0
42,-601,0,0,0,0,0,0,0,0,0,-1,1266,1625,0,0
49,-601,0,0,0,0,0,0,0,0,0,-1,1273,1625,0,0
56,-601,0,0,0,0,0,0,0,0,0,-1,1280,1625,0,0
63,-601,0,0,0,0,0,0,0,0,0,-1,1287,1625,0,0
70,-601,0,0,0,0,0,0,0,0,0,-1,1294,1625,0,0
77,-601,0,0,0,0,0,0,0,0,0,-1,1301,1625,0,0
84,-601,0,0,0,0,0,0,0,0,0,-1,1308,1625,0,0
91,-601,0,0,0,0,0,0,0,0,0,-1,1315,1625,0,0
98,-601,0,0,0,0,0,0,0,0,0,-1,1322,1625,0,0
105,-601,0,0,0,0,0,0,0,0,0,-1,1329,1625,0,0
112,-601,0,0,0,0,0,0,0,0,0,-1,1336,1625,0,0
119,-601,0,0,0,0,0,0,0,0,0,-1,1343,1625,0,0
126,-601,0,0,0,0,0,0,0,0,0,-1,1350,1625,0,0
133,-601,0,0,0,0,0,0,0,0,0,-1,1357,1625,0,0
140,-601,0,0,0,0,0,0,0,0,0,-1,1364,1625,0,0
147,-601,0,0,0,0,0,0,0,0,0,-1,1371,1625,0,0
154,-601,0,0,0,0,0,0,0,0,0,-1,1378,1625,0,0
161,-601,0,0,0,0,0,0,0,0,0,-1,1385,1625,0,0
168,-601,0,0,0,0,0,0,0,0,0,-1,1392,1625,0,0
175,-601,0,0,0,0,0,0,0,0,0,-1,1399,1625,0,0
182,-601,0,0,0,0,0,0,0,0,0,-1,1406,1625,0,0
189,-601,0,0,0,0,0,0,0,0,0,-1,1413,1625,0,0
196,-601,0,0,0,0,0,0,0,0,0,-1,1420,1625,0,0
203,-601,0,0,0,0,0,0,0,0,0,-1,1427,1625,0,0
210,-601,0,0,0,0,0,0,0,0,0,-1,1434,1625,0,0
217,-601,0,0,0,0,0,0,0,0,0,-1,1441,1625,0,0
224,-601,0,0,0,0,0,0,0,0,0,-1,1448,1625,0,0
231,-601,-0.0371094,0.525879,0,0,0,0,0,0,0,-1,1455,1625,-0.0371518,-0.525824
238,-601,2.03369,-1.32861,0,0,0,0,0,0,0,-1,1462,1625,2.03364,1.32858
245,-601,2.71375,2.44983,0,0,0,0,0,0,0,-1,1469,1625,2.71371,-2.44979
252,-601,4.66943,2.28381,0,0,0,0,0,0,0,-1,1476,1625,4.66947,-2.28376
259,-601,6.42712,2.61987,0,0,0,0,0,0,0,-1,1483,1625,6.42711,-2.61985
266,-601,6.75317,1.68701,0,0,0,0,0,0,0,-1,1490,1625,6.75323,-1.687
273,-601,5.4314,2.92053,0,0,0,0,0,0,0,-1,1497,1625,5.43144,-2.92051
280,-601,4.64722,1.17786,0,0,0,0,0,0,0,-1,1504,1625,4.64722,-1.1779
287,-601,5.32532,2.6217,0,0,0,0,0,0,0,-1,1511,1625,5.32535,-2.62171
294,-601,5.97693,4.22693,0,0,0,0,0,0,0,-1,1518,1625,5.97697,-4.22694
301,-601,7.28162,9.50024,0,0,0,0,0,0,0,-1,1525,1625,7.28162,-9.50025
308,-601,6.53528,10.3927,0,0,0,0,0,0,0,-1,1532,1625,6.53529,-10.3927
315,-601,4.88013,11.7184,0,0,0,0,0,0,0,-1,1539,1625,4.88015,-11.7184
322,-601,3.38098,12.7864,0,0,0,0,0,0,0,-1,1546,1625,3.38104,-12.7864
329,-601,1.8772,13.8768,0,0,0,0,0,0,0,-1,1553,1625,1.87716,-13.8768
336,-601,4.67847,9.53308,0,0,0,0,0,0,0,-1,1560,1625,4.67848,-9.53309
343,-601,11.1404,3.14575,0,0,0,0,0,0,0,-1,1567,1625,11.1404,-3.1458
350,-601,10.9462,2.37769,0,0,0,0,0,0,0,-1,1574,1625,10.9461,-2.37764
357,-601,10.7518,1.6095,0,0,0,0,0,0,0,-1,1581,1625,10.7518,-1.60948
364,-601,5.33643,9.74426,0,0,0,0,0,0,0,-1,1588,1625,5.33637,-9.74429
371,-601,13.4498,32.4756,0,0,0,0,0,0,0,-1,1595,1625,13.4498,-32.4756
378,-601,13.3453,31.7252,0,0,0,0,0,0,0,-1,1602,1625,13.3453,-31.7252
385,-601,12.3835,30.4248,0,0,0,0,0,0,0,-1,1609,1625,12.3835,-30.4248
392,-601,12.6975,30.0507,0.0104207,0.0188368,-0.00406499,0.0204795,0.00877798,-1.18674,0.011864,0.0385419,1616,1625,12.6975,-30.0507
399,-601,13.2054,29.6543,0.00721125,0.015108,-0.00225132,0.0157047,0.0066145,-1.31169,0.00910461,0.0190019,1623,1625,13.2054,-29.6543
406,-601,13.2717,29.2219,0.00425837,0.012012,-0.000938477,0.012124,0.0041464,-1.45204,0.00711534,0.0127692,1630,1625,13.2718,-29.222
413,-601,13.2538,28.8254,0.00194187,0.00974598,-0.000239139,0.00975331,0.00193455,-1.54019,0.00596289,0.0119185,1637,1625,13.2538,-28.8254
420,-601,13.26,28.4186,0.000450298,0.00783199,7.28915e-05,0.00783271,0.000449578,1.56092,0.00507858,0.0103963,1644,1625,13.26,-28.4186
427,-601,13.2758,28.0411,-0.000512099,0.00620935,0.000267614,0.00621999,-0.000522738,1.53107,0.00433143,0.0152798,1651,1625,13.2758,-28.0411
434,-601,13.2506,27.6349,-0.000926291,0.00479359,0.000202888,0.00480078,-0.000933479,1.53539,0.0035528,0.0165972,1658,1625,13.2507,-27.6349
441,-601,13.2458,27.2056,-0.000886095,0.00387438,-0.00013341,0.00387811,-0.000889831,-1.5428,0.00292745,0.0171374,1665,1625,13.2458,-27.2056
448,-601,13.2568,26.8043,-0.000973373,0.0030812,-0.000442275,0.00312888,-0.00102106,-1.4634,0.00249686,0.0149568,1672,1625,13.2568,-26.8043
455,-601,13.2627,26.3978,-0.000570511,0.00215225,-0.000749612,0.00234499,-0.000763246,-1.31913,0.00187039,0.0132645,1679,1625,13.2627,-26.3978
462,-601,13.2393,25.986,-2.50174e-05,0.00106221,-0.000852606,0.00152976,-0.000492568,-1.0692,0.0012177,0.0117257,1686,1625,13.2392,-25.9859
469,-601,13.2209,25.5881,0.000413293,-0.000111755,-0.000800112,0.000992849,-0.000691311,-0.626877,0.000977531,0.0116404,1693,1625,13.2209,-25.5881
476,-601,13.1947,25.1892,0.00059622,-0.0013764,-0.000561384,0.000744793,-0.00152497,-0.258723,0.00133601,0.0135014,1700,1625,13.1948,-25.1892
483,-601,13.1782,24.7626,0.000632987,-0.0027543,-0.000187317,0.000643314,-0.00276463,-0.0550762,0.00209078,0.016541,1707,1625,13.1782,-24.7626
490,-601,13.1608,24.3175,0.000581974,-0.00415016,0.000186236,0.000589292,-0.00415748,0.0392747,0.00298752,0.0130477,1714,1625,13.1608,-24.3175
497,-601,13.1602,23.8724,0.000260699,-0.00559906,0.000657618,0.000333595,-0.00567195,0.110397,0.00389726,0.0108759,1721,1625,13.1601,-23.8724
504,-601,13.199,23.4191,-0.000367815,-0.00701072,0.00139182,-8.79904e-05,-0.00729055,0.198405,0.0048313,0.0199479,1728,1625,13.199,-23.4191
511,-601,13.1437,23.0978,-0.000975277,-0.00864024,0.00210861,-0.0004335,-0.00918201,0.251496,0.00598208,0.0328551,1735,1625,13.1437,-23.0977
518,-601,13.1152,22.7194,-0.00153792,-0.00996243,0.00266974,-0.000763132,-0.0107372,0.282452,0.00691781,0.0416258,1742,1625,13.1153,-22.7193
525,-601,13.1031,22.2219,0,0,0,0,0,0,0,-1,1749,1625,13.1031,-22.2219
532,-601,14.5883,19.4639,0,0,0,0,0,0,0,-1,1756,1625,14.5882,-19.4639
539,-601,7.77112,11.4299,0,0,0,0,0,0,0,-1,1763,1625,7.77116,-11.4299
546,-601,6.56873,3.62354,0,0,0,0,0,0,0,-1,1770,1625,6.56867,-3.62352
553,-601,7.03015,4.25049,0,0,0,0,0,0,0,-1,1777,1625,7.03011,-4.25048
560,-601,7.50745,4.83374,0,0,0,0,0,0,0,-1,1784,1625,7.50744,-4.83376
567,-601,7.82043,3.83301,0,0,0,0,0,0,0,-1,1791,1625,7.82041,-3.83303
574,-601,0,0,0,0,0,0,0,0,0,-1,1798,1625,0,0
581,-601,0,0,0,0,0,0,0,0,0,-1,1805,1625,0,0
588,-601,0,0,0,0,0,0,0,0,0,-1,1812,1625,0,0
595,-601,0,0,0,0,0,0,0,0,0,-1,1819,1625,0,0
602,-601,0,0,0,0,0,0,0,0,0,-1,1826,1625,0,0
609,-601,0,0,0,0,0,0,0,0,0,-1,1833,1625,0,0
616,-601,0,0,0,0,0,0,0,0,0,-1,1840,1625,0,0
623,-601,0,0,0,0,0,0,0,0,0,-1,1847,1625,0,0
630,-601,0,0,0,0,0,0,0,0,0,-1,1854,1625,0,0
637,-601,0,0,0,0,0,0,0,0,0,-1,1861,1625,0,0
644,-601,0,0,0,0,0,0,0,0,0,-1,1868,1625,0,0
651,-601,0,0,0,0,0,0,0,0,0,-1,1875,1625,0,0
658,-601,0,0,0,0,0,0,0,0,0,-1,1882,1625,0,0
665,-601,0,0,0,0,0,0,0,0,0,-1,1889,1625,0,0
672,-601,0,0,0,0,0,0,0,0,0,-1,1896,1625,0,0
679,-601,0,0,0,0,0,0,0,0,0,-1,1903,1625,0,0
686,-601,0,0,0,0,0,0,0,0,0,-1,1910,1625,0,0
693,-601,0,0,0,0,0,0,0,0,0,-1,1917,1625,0,0
700,-601,0,0,0,0,0,0,0,0,0,-1,1924,1625,0,0
707,-601,0,0,0,0,0,0,0,0,0,-1,1931,1625,0,0
714,-601,0,0,0,0,0,0,0,0,0,-1,1938,1625,0,0
721,-601,0,0,0,0,0,0,0,0,0,-1,1945,1625,0,0
728,-601,0,0,0,0,0,0,0,0,0,-1,1952,1625,0,0
735,-601,0,0,0,0,0,0,0,0,0,-1,1959,1625,0,0
742,-601,0,0,0,0,0,0,0,0,0,-1,1966,1625,0,0
749,-601,0,0,0,0,0,0,0,0,0,-1,1973,1625,0,0
756,-601,0,0,0,0,0,0,0,0,0,-1,1980,1625,0,0
763,-601,0,0,0,0,0,0,0,0,0,-1,1987,1625,0,0
770,-601,0,0,0,0,0,0,0,0,0,-1,1994,1625,0,0
777,-601,0,0,0,0,0,0,0,0,0,-1,2001,1625,0,0
784,-601,0,0,0,0,0,0,0,0,0,-1,2008,1625,0,0
791,-601,0,0,0,0,0,0,0,0,0,-1,2015,1625,0,0
798,-601,0,0,0,0,0,0,0,0,0,-1,2022,1625,0,0
805,-601,0,0,0,0,0,0,0,0,0,-1,2029,1625,0,0
812,-601,0,0,0,0,0,0,0,0,0,-1,2036,1625,0,0
-700,-608,0,0,0,0,0,0,0,0,0,-1,524,1632,0,0
-693,-608,0,0,0,0,0,0,0,0,0,-1,531,1632,0,0
-686,-608,0,0,0,0,0,0,0,0,0,-1,538,1632,0,0
-679,-608,0,0,0,0,0,0,0,0,0,-1,545,1632,0,0
-672,-608,0,0,0,0,0,0,0,0,0,-1,552,1632,0,0
-665,-608,0,0,0,0,0,0,0,0,0,-1,559,1632,0,0
-658,-608,0,0,0,0,0,0,0,0,0,-1,566,1632,0,0
-651,-608,0,0,0,0,0,0,0,0,0,-1,573,1632,0,0
-644,-608,0,0,0,0,0,0,0,0,0,-1,580,1632,0,0
-637,-608,0,0,0,0,0,0,0,0,0,-1,587,1632,0,0
-630,-608,0,0,0,0,0,0,0,0,0,-1,594,1632,0,0
-623,-608,0,0,0,0,0,0,0,0,0,-1,601,1632,0,0
-616,-608,0,0,0,0,0,0,0,0,0,-1,608,1632,0,0
-609,-608,0,0,0,0,0,0,0,0,0,-1,615,1632,0,0
-602,-608,0,0,0,0,0,0,0,0,0,-1,622,1632,0,0
-595,-608,0,0,0,0,0,0,0,0,0,-1,629,1632,0,0
-588,-608,0,0,0,0,0,0,0,0,0,-1,636,1632,0,0
-581,-608,0,0,0,0,0,0,0,0,0,-1,643,1632,0,0
-574,-608,0,0,0,0,0,0,0,0,0,-1,650,1632,0,0
-567,-608,0,0,0,0,0,0,0,0,0,-1,657,1632,0,0
-560,-608,0,0,0,0,0,0,0,0,0,-1,664,1632,0,0
-553,-608,0,0,0,0,0,0,0,0,0,-1,671,1632,0,0
-546,-608,0,0,0,0,0,0,0,0,0,-1,678,1632,0,0
-539,-608,0,0,0,0,0,0,0,0,0,-1,685,1632,0,0
-532,-608,0,0,0,0,0,0,0,0,0,-1,692,1632,0,0
-525,-608,0,0,0,0,0,0,0,0,0,-1,699,1632,0,0
-518,-608,0,0,0,0,0,0,0,0,0,-1,706,1632,0,0
-511,-608,0,0,0,0,0,0,0,0,0,-1,713,1632,0,0
-504,-608,0,0,0,0,0,0,0,0,0,-1,720,1632,0,0
-497,-608,0,0,0,0,0,0,0,0,0,-1,727,1632,0,0
-490,-608,0,0,0,0,0,0,0,0,0,-1,734,1632,0,0
-483,-608,0,0,0,0,0,0,0,0,0,-1,741,1632,0,0
-476,-608,0,0,0,0,0,0,0,0,0,-1,748,1632,0,0
-469,-608,0,0,0,0,0,0,0,0,0,-1,755,1632,0,0
-462,-608,0,0,0,0,0,0,0,0,0,-1,762,1632,0,0
-455,-608,0,0,0,0,0,0,0,0,0,-1,769,1632,0,0
-448,-608,0,0,0,0,0,0,0,0,0,-1,776,1632,0,0
-441,-608,-7.34601,2.78052,0,0,0,0,0,0,0,-1,783,1632,-7.346,-2.78056
-434,-608,-6.34558,3.27405,0,0,0,0,0,0,0,-1,790,1632,-6.34555,-3.27406
-427,-608,-7.74335,4.17688,0,0,0,0,0,0,0,-1,797,1632,-7.74334,-4.17693
-420,-608,-6.82794,4.34839,0,0,0,0,0,0,0,-1,804,1632,-6.82794,-4.34838
-413,-608,-5.41919,5.66138,0,0,0,0,0,0,0,-1,811,1632,-5.41917,-5.66133
-406,-608,-4.79681,4.98999,0,0,0,0,0,0,0,-1,818,1632,-4.79684,-4.98997
-399,-608,-2.60645,6.34167,0,0,0,0,0,0,0,-1,825,1632,-2.60643,-6.34169
-392,-608,2.08356,15.437,0,0,0,0,0,0,0,-1,832,1632,2.08354,-15.437
-385,-608,3.13501,21.6218,0,0,0,0,0,0,0,-1,839,1632,3.13502,-21.6219
-378,-608,2.8327,22.0479,0,0,0,0,0,0,0,-1,846,1632,2.83268,-22.0478
-371,-608,2.69928,22.3533,0,0,0,0,0,0,0,-1,853,1632,2.69926,-22.3533
-364,-608,2.8056,22.8466,-0.00214347,-0.00354303,0.00203533,-0.000690984,-0.00499551,0.619821,0.00312558,0.0293876,860,1632,2.80559,-22.8466
-357,-608,2.71906,23.3882,-0.00130119,-0.003355,0.00195554,-0.000119326,-0.00453687,0.543625,0.0029856,0.0197804,867,1632,2.71905,-23.3882
-350,-608,2.72272,23.8997,-0.000584818,-0.00285945,0.00190359,0.000495329,-0.0039396,0.516124,0.00280612,0.0194918,874,1632,2.72269,-23.8997
-343,-608,2.69421,24.3799,5.43442e-05,-0.00223813,0.00186639,0.00109837,-0.00328216,0.510019,0.00263178,0.024182,881,1632,2.69422,-24.3799
-336,-608,2.6712,24.8619,0.000712515,-0.00161127,0.00186502,0.00174796,-0.00264672,0.506822,0.0025549,0.0166314,888,1632,2.67122,-24.862
-329,-608,2.646,25.3138,0.00121218,-0.000790514,0.00180907,0.00227854,-0.00185688,0.53263,0.00239172,0.0151287,895,1632,2.64602,-25.3139
-322,-608,2.62823,25.7383,0.0015221,1.01749e-05,0.00168226,0.00261045,-0.00107817,0.574232,0.00219002,0.0150112,902,1632,2.62822,-25.7383
-315,-608,2.64917,26.1534,0.00176996,0.000836682,0.00155615,0.00292793,-0.000321287,0.63973,0.00206739,0.0138734,909,1632,2.64916,-26.1535
-308,-608,2.6333,26.5933,0.00204455,0.00157545,0.00136601,0.003196,0.000424003,0.700375,0.00200434,0.0146665,916,1632,2.63329,-26.5933
-301,-608,2.62347,27.0004,0.00247734,0.00206197,0.0012114,0.00349873,0.00104058,0.700502,0.00207452,0.0113988,923,1632,2.62348,-27.0004
-294,-608,2.63861,27.371,0.00308491,0.00225506,0.00110295,0.0038484,0.00149157,0.605487,0.00224052,0.0101847,930,1632,2.63861,-27.371
-287,-608,2.6109,27.8198,0.00366511,0.00267633,0.00105853,0.00433901,0.00200243,0.566924,0.0025076,0.00940718,937,1632,2.61092,-27.8198
-280,-608,2.61865,28.2439,0.00434919,0.00281108,0.000961162,0.0048111,0.00234917,0.447987,0.00277795,0.00805407,944,1632,2.61867,-28.2439
-273,-608,2.61908,28.6609,0.00513995,0.00278266,0.000885694,0.00543564,0.00248697,0.322215,0.00314204,0.0102026,951,1632,2.61909,-28.6609
-266,-608,2.62524,29.0928,0.00609756,0.00245908,0.000885375,0.00630157,0.00225508,0.226464,0.00368689,0.0117811,958,1632,2.62526,-29.0928
-259,-608,2.68182,29.5085,0.00720212,0.00185344,0.000856305,0.00733586,0.0017197,0.154939,0.00443004,0.0147914,965,1632,2.68182,-29.5085
-252,-608,2.8197,29.8796,0.00849508,0.00135002,0.000880287,0.00860194,0.00124316,0.120796,0.00536843,0.0265343,972,1632,2.81969,-29.8796
-245,-608,2.99664,30.3584,0.00973403,0.00112852,0.0009402,0.00983555,0.00102699,0.107565,0.00624292,0.0391855,979,1632,2.99667,-30.3584
-238,-608,3.18066,30.8468,0,0,0,0,0,0,0,-1,986,1632,3.18065,-30.8468
-231,-608,3.26025,27.5262,0,0,0,0,0,0,0,-1,993,1632,3.26023,-27.5263
-224,-608,2.51642,15.3452,0,0,0,0,0,0,0,-1,1000,1632,2.5164,-15.3452
-217,-608,1.04419,12.8451,0,0,0,0,0,0,0,-1,1007,1632,1.04418,-12.8451
-210,-608,2.75903,15.9414,0,0,0,0,0,0,0,-1,1014,1632,2.75903,-15.9414
-203,-608,2.76776,16.217,0,0,0,0,0,0,0,-1,1021,1632,2.76773,-16.217
-196,-608,1.53955,18.6058,0,0,0,0,0,0,0,-1,1028,1632,1.53959,-18.6058
-189,-608,1.37634,19.119,0,0,0,0,0,0,0,-1,1035,1632,1.37634,-19.1191
-182,-608,2.89221,16.7092,0,0,0,0,0,0,0,-1,1042,1632,2.89224,-16.7093
-175,-608,0.219116,15.1643,0,0,0,0,0,0,0,-1,1049,1632,0.219173,-15.1644
-168,-608,0.000366211,9.48645,0,0,0,0,0,0,0,-1,1056,1632,0.000317105,-9.48648
-161,-608,2.27832,15.4423,0,0,0,0,0,0,0,-1,1063,1632,2.27826,-15.4423
-154,-608,1.3999,16.4037,0,0,0,0,0,0,0,-1,1070,1632,1.39987,-16.4037
-147,-608,2.4386,9.50317,0,0,0,0,0,0,0,-1,1077,1632,2.43858,-9.50313
-140,-608,2.60132,10.8401,0,0,0,0,0,0,0,-1,1084,1632,2.60134,-10.8401
-133,-608,3.2312,12.4738,0,0,0,0,0,0,0,-1,1091,1632,3.23116,-12.4738
-126,-608,3.76465,13.9644,0,0,0,0,0,0,0,-1,1098,1632,3.76466,-13.9644
-119,-608,4.28906,15.4196,0,0,0,0,0,0,0,-1,1105,1632,4.28911,-15.4195
-112,-608,0.745117,10.5587,0,0,0,0,0,0,0,-1,1112,1632,0.745145,-10.5587
-105,-608,-0.252319,1.42419,0,0,0,0,0,0,0,-1,1119,1632,-0.252331,-1.42418
-98,-608,-2.8595,3.0863,0,0,0,0,0,0,0,-1,1126,1632,-2.85948,-3.08625
-91,-608,-3.71948,1.73608,0,0,0,0,0,0,0,-1,1133,1632,-3.7195,-1.73607
-84,-608,0,0,0,0,0,0,0,0,0,-1,1140,1632,0,0
-77,-608,0,0,0,0,0,0,0,0,0,-1,1147,1632,0,0
-70,-608,0,0,0,0,0,0,0,0,0,-1,1154,1632,0,0
-63,-608,0,0,0,0,0,0,0,0,0,-1,1161,1632,0,0
-56,-608,0,0,0,0,0,0,0,0,0,-1,1168,1632,0,0
-49,-608,0,0,0,0,0,0,0,0,0,-1,1175,1632,0,0
-42,-608,0,0,0,0,0,0,0,0,0,-1,1182,1632,0,0
-35,-608,0,0,0,0,0,0,0,0,0,-1,1189,1632,0,0
-28,-608,0,0,0,0,0,0,0,0,0,-1,1196,1632,0,0
-21,-608,0,0,0,0,0,0,0,0,0,-1,1203,1632,0,0
-14,-608,0,0,0,0,0,0,0,0,0,-1,1210,1632,0,0
-7,-608,0,0,0,0,0,0,0,0,0,-1,1217,1632,0,0
0,-608,0,0,0,0,0,0,0,0,0,-1,1224,1632,0,0
7,-608,0,0,0,0,0,0,0,0,0,-1,1231,1632,0,0
14,-608,0,0,0,0,0,0,0,0,0,-1,1238,1632,0,0
21,-608,0,0,0,0,0,0,0,0,0,-1,1245,1632,0,0
28,-608,0,0,0,0,0,0,0,0,0,-1,1252,1632,0,0
35,-608,0,0,0,0,0,0,0,0,0,-1,1259,1632,0,0
42,-608,0,0,0,0,0,0,0,0,0,-1,1266,1632,0,0
49,-608,0,0,0,0,0,0,0,0,0,-1,1273,1632,0,0
56,-608,0,0,0,0,0,0,0,0,0,-1,1280,1632,0,0
63,-608,0,0,0,0,0,0,0,0,0,-1,1287,1632,0,0
70,-608,0,0,0,0,0,0,0,0,0,-1,1294,1632,0,0
77,-608,0,0,0,0,0,0,0,0,0,-1,1301,1632,0,0
84,-608,0,0,0,0,0,0,0,0,0,-1,1308,1632,0,0
91,-608,0,0,0,0,0,0,0,0,0,-1,1315,1632,0,0
98,-608,0,0,0,0,0,0,0,0,0,-1,1322,1632,0,0
105,-608,0,0,0,0,0,0,0,0,0,-1,1329,1632,0,0
112,-608,0,0,0,0,0,0,0,0,0,-1,1336,1632,0,0
119,-608,0,0,0,0,0,0,0,0,0,-1,1343,1632,0,0
126,-608,0,0,0,0,0,0,0,0,0,-1,1350,1632,0,0
133,-608,0,0,0,0,0,0,0,0,0,-1,1357,1632,0,0
140,-608,0,0,0,0,0,0,0,0,0,-1,1364,1632,0,0
147,-608,0,0,0,0,0,0,0,0,0,-1,1371,1632,0,0
154,-608,0,0,0,0,0,0,0,0,0,-1,1378,1632,0,0
161,-608,0,0,0,0,0,0,0,0,0,-1,1385,1632,0,0
168,-608,0,0,0,0,0,0,0,0,0,-1,1392,1632,0,0
175,-608,0,0,0,0,0,0,0,0,0,-1,1399,1632,0,0
182,-608,0,0,0,0,0,0,0,0,0,-1,1406,1632,0,0
189,-608,0,0,0,0,0,0,0,0,0,-1,1413,1632,0,0
196,-608,0,0,0,0,0,0,0,0,0,-1,1420,1632,0,0
203,-608,0,0,0,0,0,0,0,0,0,-1,1427,1632,0,0
210,-608,5.7157,-0.333008,0,0,0,0,0,0,0,-1,1434,1632,5.71566,0.333004
217,-608,4.49402,-0.831787,0,0,0,0,0,0,0,-1,1441,1632,4.49396,0.831738
224,-608,4.18018,-1.11792,0,0,0,0,0,0,0,-1,1448,1632,4.1802,1.11796
231,-608,0.361816,0.825195,0,0,0,0,0,0,0,-1,1455,1632,0.36185,-0.825226
238,-608,2.85388,-0.28833,0,0,0,0,0,0,0,-1,1462,1632,2.85391,0.288282
245,-608,3.87537,4.02173,0,0,0,0,0,0,0,-1,1469,1632,3.87538,-4.02168
252,-608,5.66956,3.5282,0,0,0,0,0,0,0,-1,1476,1632,5.6696,-3.52815
259,-608,7.47437,3.07178,0,0,0,0,0,0,0,-1,1483,1632,7.4744,-3.07172
266,-608,9.46936,2.34766,0,0,0,0,0,0,0,-1,1490,1632,9.46932,-2.34764
273,-608,6.03003,3.34241,0,0,0,0,0,0,0,-1,1497,1632,6.02997,-3.34245
280,-608,5.72461,2.0769,0,0,0,0,0,0,0,-1,1504,1632,5.72457,-2.07688
287,-608,6.20581,3.59338,0,0,0,0,0,0,0,-1,1511,1632,6.20585,-3.59341
294,-608,6.94922,5.17151,0,0,0,0,0,0,0,-1,1518,1632,6.94925,-5.17151
301,-608,7.60083,6.68018,0,0,0,0,0,0,0,-1,1525,1632,7.60086,-6.68013
308,-608,7.64746,9.93848,0,0,0,0,0,0,0,-1,1532,1632,7.64745,-9.93842
315,-608,5.30688,11.2054,0,0,0,0,0,0,0,-1,1539,1632,5.30694,-11.2054
322,-608,5.32617,13.7581,0,0,0,0,0,0,0,-1,1546,1632,5.32613,-13.758
329,-608,7.12231,13.9607,0,0,0,0,0,0,0,-1,1553,1632,7.12231,-13.9607
336,-608,5.48633,7.82446,0,0,0,0,0,0,0,-1,1560,1632,5.48634,-7.82446
343,-608,5.47192,5.61047,0,0,0,0,0,0,0,-1,1567,1632,5.47192,-5.61045
350,-608,11.6957,1.71387,0,0,0,0,0,0,0,-1,1574,1632,11.6957,-1.71388
357,-608,3.77002,5.10046,0,0,0,0,0,0,0,-1,1581,1632,3.77002,-5.10043
364,-608,10.8632,32.2816,0,0,0,0,0,0,0,-1,1588,1632,10.8632,-32.2816
371,-608,12.4839,31.8805,0,0,0,0,0,0,0,-1,1595,1632,12.4839,-31.8805
378,-608,12.7474,31.2721,0.0138498,0.0230332,-0.0074889,0.027226,0.00965702,-1.06041,0.0159387,0.0403741,1602,1632,12.7474,-31.2721
385,-608,12.7797,30.5374,0.0110162,0.0189825,-0.0056018,0.0218729,0.00812584,-1.09445,0.0127666,0.0350795,1609,1632,12.7797,-30.5373
392,-608,12.804,29.9944,0.00867102,0.0155358,-0.00392596,0.0173183,0.00688858,-1.14461,0.0100681,0.0217956,1616,1632,12.804,-29.9944
399,-608,12.8478,29.5671,0.00642104,0.0124936,-0.00247835,0.0133767,0.00553799,-1.22851,0.00776101,0.00985062,1623,1632,12.8478,-29.5672
406,-608,12.8728,29.1742,0.00426115,0.00989759,-0.00135592,0.0102068,0.00395193,-1.34658,0.00594269,0.00869362,1630,1632,12.8728,-29.1742
413,-608,12.8698,28.799,0.00249302,0.0078593,-0.000679247,0.00794394,0.00240838,-1.44682,0.0047034,0.00986287,1637,1632,12.8698,-28.7989
420,-608,12.8516,28.4227,0.0012705,0.00605971,-0.000292165,0.00607747,0.00125275,-1.51009,0.00370534,0.0172164,1644,1632,12.8516,-28.4227
427,-608,12.871,28.0188,0.000434783,0.004486,-1.61496e-05,0.00448607,0.000434719,-1.56681,0.00285685,0.0200366,1651,1632,12.8709,-28.0188
434,-608,12.8477,27.6447,1.48754e-05,0.00312112,-2.10269e-07,0.00312112,1.48753e-05,-1.57073,0.00207581,0.0165378,1658,1632,12.8476,-27.6447
441,-608,12.85,27.2434,-4.07904e-05,0.0021883,-0.000239118,0.00221367,-6.61522e-05,-1.46513,0.00149832,0.0142295,1665,1632,12.8499,-27.2434
448,-608,12.8655,26.8386,-0.000148455,0.00134411,-0.000454008,0.00147136,-0.000275706,-1.29752,0.00108455,0.0166621,1672,1632,12.8655,-26.8386
455,-608,12.8704,26.4182,0.000148328,0.000389931,-0.000680256,0.000960028,-0.000421769,-0.873273,0.000817708,0.0124471,1679,1632,12.8703,-26.4183
462,-608,12.8407,26.0011,0.00051394,-0.000733805,-0.000704253,0.000830912,-0.00105078,-0.422923,0.00108886,0.0108914,1686,1632,12.8406,-26.0011
469,-608,12.8052,25.6013,0.000793458,-0.00194523,-0.000600292,0.000919258,-0.00207102,-0.206574,0.00176861,0.00865082,1693,1632,12.8052,-25.6013
476,-608,12.7762,25.196,0.000850632,-0.00325261,-0.000319866,0.000875417,-0.00327739,-0.0773321,0.00252778,0.00904573,1700,1632,12.7762,-25.1961
483,-608,12.7584,24.7745,0.000635301,-0.0047255,0.000171351,0.000640772,-0.00473097,0.0319203,0.00338783,0.00867212,1707,1632,12.7584,-24.7745
490,-608,12.7599,24.3347,0.000390617,-0.00623782,0.000584607,0.000441783,-0.00628899,0.0872987,0.00434741,0.00974639,1714,1632,12.7599,-24.3348
497,-608,12.7909,23.8789,2.62915e-05,-0.00771568,0.00109608,0.000178479,-0.00786787,0.137965,0.00530574,0.0209216,1721,1632,12.7909,-23.8789
504,-608,12.7732,23.5273,-0.00056103,-0.00917044,0.00185997,-0.000176388,-0.00955509,0.203925,0.00631208,0.0471399,1728,1632,12.7731,-23.5274
511,-608,12.6443,23.2802,-0.00119169,-0.0108895,0.00259001,-0.000543321,-0.0115378,0.245295,0.00751733,0.0461423,1735,1632,12.6443,-23.2802
518,-608,12.7943,22.8263,0,0,0,0,0,0,0,-1,1742,1632,12.7943,-22.8263
525,-608,11.2109,16.2579,0,0,0,0,0,0,0,-1,1749,1632,11.2109,-16.2579
532,-608,8.27917,11.6693,0,0,0,0,0,0,0,-1,1756,1632,8.27919,-11.6694
539,-608,9.40796,1.43457,0,0,0,0,0,0,0,-1,1763,1632,9.40801,-1.43463
546,-608,9.94031,2.1134,0,0,0,0,0,0,0,-1,1770,1632,9.94031,-2.11346
553,-608,10.363,2.81335,0,0,0,0,0,0,0,-1,1777,1632,10.3631,-2.81333
560,-608,9.23999,4.5636,0,0,0,0,0,0,0,-1,1784,1632,9.24,-4.56354
567,-608,0,0,0,0,0,0,0,0,0,-1,1791,1632,0,0
574,-608,0,0,0,0,0,0,0,0,0,-1,1798,1632,0,0
581,-608,0,0,0,0,0,0,0,0,0,-1,1805,1632,0,0
588,-608,0,0,0,0,0,0,0,0,0,-1,1812,1632,0,0
595,-608,0,0,0,0,0,0,0,0,0,-1,1819,1632,0,0
602,-608,0,0,0,0,0,0,0,0,0,-1,1826,1632,0,0
609,-608,0,0,0,0,0,0,0,0,0,-1,1833,1632,0,0
616,-608,0,0,0,0,0,0,0,0,0,-1,1840,1632,0,0
623,-608,0,0,0,0,0,0,0,0,0,-1,1847,1632,0,0
630,-608,0,0,0,0,0,0,0,0,0,-1,1854,1632,0,0
637,-608,0,0,0,0,0,0,0,0,0,-1,1861,1632,0,0
644,-608,0,0,0,0,0,0,0,0,0,-1,1868,1632,0,0
651,-608,0,0,0,0,0,0,0,0,0,-1,1875,1632,0,0
658,-608,0,0,0,0,0,0,0,0,0,-1,1882,1632,0,0
665,-608,0,0,0,0,0,0,0,0,0,-1,1889,1632,0,0
672,-608,0,0,0,0,0,0,0,0,0,-1,1896,1632,0,0
679,-608,0,0,0,0,0,0,0,0,0,-1,1903,1632,0,0
686,-608,0,0,0,0,0,0,0,0,0,-1,1910,1632,0,0
693,-608,0,0,0,0,0,0,0,0,0,-1,1917,1632,0,0
700,-608,0,0,0,0,0,0,0,0,0,-1,1924,1632,0,0
707,-608,0,0,0,0,0,0,0,0,0,-1,1931,1632,0,0
714,-608,0,0,0,0,0,0,0,0,0,-1,1938,1632,0,0
721,-608,0,0,0,0,0,0,0,0,0,-1,1945,1632,0,0
728,-608,0,0,0,0,0,0,0,0,0,-1,1952,1632,0,0
735,-608,0,0,0,0,0,0,0,0,0,-1,1959,1632,0,0
742,-608,0,0,0,0,0,0,0,0,0,-1,1966,1632,0,0
749,-608,0,0,0,0,0,0,0,0,0,-1,1973,1632,0,0
756,-608,0,0,0,0,0,0,0,0,0,-1,1980,1632,0,0
763,-608,0,0,0,0,0,0,0,0,0,-1,1987,1632,0,0
770,-608,0,0,0,0,0,0,0,0,0,-1,1994,1632,0,0
777,-608,0,0,0,0,0,0,0,0,0,-1,2001,1632,0,0
784,-608,0,0,0,0,0,0,0,0,0,-1,2008,1632,0,0
791,-608,0,0,0,0,0,0,0,0,0,-1,2015,1632,0,0
798,-608,0,0,0,0,0,0,0,0,0,-1,2022,1632,0,0
805,-608,0,0,0,0,0,0,0,0,0,-1,2029,1632,0,0
812,-608,0,0,0,0,0,0,0,0,0,-1,2036,1632,0,0
-700,-615,0,0,0,0,0,0,0,0,0,-1,524,1639,0,0
-693,-615,0,0,0,0,0,0,0,0,0,-1,531,1639,0,0
-686,-615,0,0,0,0,0,0,0,0,0,-1,538,1639,0,0
-679,-615,0,0,0,0,0,0,0,0,0,-1,545,1639,0,0
-672,-615,0,0,0,0,0,0,0,0,0,-1,552,1639,0,0
-665,-615,0,0,0,0,0,0,0,0,0,-1,559,1639,0,0
-658,-615,0,0,0,0,0,0,0,0,0,-1,566,1639,0,0
-651,-615,0,0,0,0,0,0,0,0,0,-1,573,1639,0,0
-644,-615,0,0,0,0,0,0,0,0,0,-1,580,1639,0,0
-637,-615,0,0,0,0,0,0,0,0,0,-1,587,1639,0,0
-630,-615,0,0,0,0,0,0,0,0,0,-1,594,1639,0,0
-623,-615,0,0,0,0,0,0,0,0,0,-1,601,1639,0,0
-616,-615,0,0,0,0,0,0,0,0,0,-1,608,1639,0,0
-609,-615,0,0,0,0,0,0,0,0,0,-1,615,1639,0,0
-602,-615,0,0,0,0,0,0,0,0,0,-1,622,1639,0,0
-595,-615,0,0,0,0,0,0,0,0,0,-1,629,1639,0,0
-588,-615,0,0,0,0,0,0,0,0,0,-1,636,1639,0,0
-581,-615,0,0,0,0,0,0,0,0,0,-1,643,1639,0,0
-574,-615,0,0,0,0,0,0,0,0,0,-1,650,1639,0,0
-567,-615,0,0,0,0,0,0,0,0,0,-1,657,1639,0,0
-560,-615,0,0,0,0,0,0,0,0,0,-1,664,1639,0,0
-553,-615,0,0,0,0,0,0,0,0,0,-1,671,1639,0,0
-546,-615,0,0,0,0,0,0,0,0,0,-1,678,1639,0,0
-539,-615,0,0,0,0,0,0,0,0,0,-1,685,1639,0,0
-532,-615,0,0,0,0,0,0,0,0,0,-1,692,1639,0,0
-525,-615,0,0,0,0,0,0,0,0,0,-1,699,1639,0,0
-518,-615,0,0,0,0,0,0,0,0,0,-1,706,1639,0,0
-511,-615,0,0,0,0,0,0,0,0,0,-1,713,1639,0,0
-504,-615,0,0,0,0,0,0,0,0,0,-1,720,1639,0,0
-497,-615,0,0,0,0,0,0,0,0,0,-1,727,1639,0,0
-490,-615,0,0,0,0,0,0,0,0,0,-1,734,1639,0,0
-483,-615,0,0,0,0,0,0,0,0,0,-1,741,1639,0,0
-476,-615,0,0,0,0,0,0,0,0,0,-1,748,1639,0,0
-469,-615,0,0,0,0,0,0,0,0,0,-1,755,1639,0,0
-462,-615,0,0,0,0,0,0,0,0,0,-1,762,1639,0,0
-455,-615,0,0,0,0,0,0,0,0,0,-1,769,1639,0,0
-448,-615,0,0,0,0,0,0,0,0,0,-1,776,1639,0,0
-441,-615,0,0,0,0,0,0,0,0,0,-1,783,1639,0,0
-434,-615,-7.64508,2.98596,0,0,0,0,0,0,0,-1,790,1639,-7.64505,-2.98594
-427,-615,-9.0011,2.89404,0,0,0,0,0,0,0,-1,797,1639,-9.00107,-2.89399
-420,-615,-8.07568,3.0752,0,0,0,0,0,0,0,-1,804,1639,-8.07569,-3.07514
-413,-615,-7.09149,3.396,0,0,0,0,0,0,0,-1,811,1639,-7.09147,-3.39599
-406,-615,-6.21368,3.7312,0,0,0,0,0,0,0,-1,818,1639,-6.21366,-3.73114
-399,-615,-4.84875,3.91907,0,0,0,0,0,0,0,-1,825,1639,-4.84877,-3.91901
-392,-615,1.7395,13.3127,0,0,0,0,0,0,0,-1,832,1639,1.73953,-13.3128
-385,-615,3.42297,14.9401,0,0,0,0,0,0,0,-1,839,1639,3.42296,-14.94
-378,-615,2.54102,17.2609,0,0,0,0,0,0,0,-1,846,1639,2.54099,-17.2608
-371,-615,3.21301,22.3804,0,0,0,0,0,0,0,-1,853,1639,3.21298,-22.3804
-364,-615,3.11371,23.0935,-0.00146478,-0.00690935,0.00306688,-8.62656e-05,-0.00828786,0.422426,0.00549671,0.0397971,860,1639,3.1137,-23.0935
-357,-615,3.24316,23.6329,-0.000544611,-0.0069724,0.002751,0.000471991,-0.007989,0.353975,0.0054901,0.0417333,867,1639,3.24317,-23.633
-350,-615,3.16083,23.96,8.81028e-05,-0.00643555,0.00255146,0.000967469,-0.00731492,0.331902,0.00522902,0.0324115,874,1639,3.1608,-23.96
-343,-615,3.12469,24.3638,0.000628783,-0.00576762,0.0023772,0.0014155,-0.00655434,0.319598,0.00490989,0.019859,881,1639,3.12467,-24.3637
-336,-615,3.12439,24.8347,0.00117474,-0.00499851,0.00222632,0.00189387,-0.00571764,0.312433,0.00457562,0.0108534,888,1639,3.12436,-24.8347
-329,-615,3.08691,25.2932,0.00151764,-0.00400007,0.00202248,0.00217956,-0.00466199,0.316294,0.00403571,0.0107506,895,1639,3.08693,-25.2932
-322,-615,3.06982,25.7454,0.00164432,-0.00297519,0.00176489,0.00224142,-0.00357229,0.326232,0.00338573,0.0114869,902,1639,3.06981,-25.7454
-315,-615,3.08429,26.1888,0.00169229,-0.00187405,0.00153043,0.002259,-0.00244075,0.354636,0.00271408,0.0138565,909,1639,3.08428,-26.1889
-308,-615,3.07452,26.6189,0.00175898,-0.000781625,0.00125745,0.00227609,-0.00129873,0.390156,0.00208948,0.021003,916,1639,3.07453,-26.6189
-301,-615,3.06891,27.0026,0.00198064,0.000112829,0.00106414,0.00246257,-0.000369095,0.425244,0.00177756,0.0132934,923,1639,3.06894,-27.0026
-294,-615,3.06537,27.3988,0.00238528,0.000700764,0.000935454,0.00280178,0.000284264,0.418887,0.00178068,0.00990205,930,1639,3.06539,-27.3989
-287,-615,3.01837,27.8322,0.00278219,0.00141337,0.00087588,0.00320935,0.000986213,0.453751,0.00189824,0.00730837,937,1639,3.01839,-27.8322
-280,-615,3.02545,28.2439,0.00328401,0.00184882,0.000799243,0.00364053,0.00149229,0.419586,0.0021132,0.00847771,944,1639,3.02543,-28.2439
-273,-615,3.02325,28.6576,0.00390566,0.00219015,0.000770696,0.00420104,0.00189477,0.365993,0.00242935,0.0104409,951,1639,3.02327,-28.6576
-266,-615,3.00452,29.0608,0.0046606,0.0021375,0.00079084,0.00488799,0.00191011,0.279975,0.00284444,0.0109517,958,1639,3.00452,-29.0608
-259,-615,3.01483,29.4528,0.00556916,0.00192848,0.000829044,0.00574906,0.00174858,0.213682,0.00340304,0.0116619,965,1639,3.01484,-29.4528
-252,-615,3.05334,29.8827,0.00662824,0.00180817,0.000866954,0.00677943,0.00165698,0.172657,0.004081,0.015133,972,1639,3.05333,-29.8827
-245,-615,3.15759,30.3733,0.00758731,0.00195714,0.00096174,0.00774706,0.00179739,0.164603,0.00468203,0.02381,979,1639,3.1576,-30.3733
-238,-615,3.17352,30.8306,0.00858336,0.00200293,0.0010167,0.00873686,0.00184943,0.14985,0.00531643,0.0374927,986,1639,3.1735,-30.8305
-231,-615,3.20636,31.3652,0,0,0,0,0,0,0,-1,993,1639,3.20636,-31.3653
-224,-615,3.41473,31.4436,0,0,0,0,0,0,0,-1,1000,1639,3.41471,-31.4436
-217,-615,3.99097,27.3737,0,0,0,0,0,0,0,-1,1007,1639,3.99096,-27.3736
-210,-615,2.48901,18.9324,0,0,0,0,0,0,0,-1,1014,1639,2.48902,-18.9323
-203,-615,2.13684,18.6173,0,0,0,0,0,0,0,-1,1021,1639,2.13683,-18.6173
-196,-615,4.27161,21.3264,0,0,0,0,0,0,0,-1,1028,1639,4.27165,-21.3264
-189,-615,1.8269,19.6761,0,0,0,0,0,0,0,-1,1035,1639,1.82691,-19.6761
-182,-615,1.63489,20.2278,0,0,0,0,0,0,0,-1,1042,1639,1.63492,-20.2277
-175,-615,-0.609985,13.8434,0,0,0,0,0,0,0,-1,1049,1639,-0.610016,-13.8434
-168,-615,3.85754,15.472,0,0,0,0,0,0,0,-1,1056,1639,3.85757,-15.472
-161,-615,2.44141,28.2932,0,0,0,0,0,0,0,-1,1063,1639,2.44135,-28.2933
-154,-615,2.42737,24.3593,0,0,0,0,0,0,0,-1,1070,1639,2.42742,-24.3593
-147,-615,1.52502,17.3442,0,0,0,0,0,0,0,-1,1077,1639,1.52501,-17.3442
-140,-615,3.73401,10.2349,0,0,0,0,0,0,0,-1,1084,1639,3.73402,-10.2348
-133,-615,2.6178,17.45,0,0,0,0,0,0,0,-1,1091,1639,2.61776,-17.4499
-126,-615,4.43408,12.5017,0,0,0,0,0,0,0,-1,1098,1639,4.43403,-12.5018
-119,-615,4.82983,13.9279,0,0,0,0,0,0,0,-1,1105,1639,4.82986,-13.9278
-112,-615,3.65698,14.4874,0,0,0,0,0,0,0,-1,1112,1639,3.65695,-14.4875
-105,-615,0.958496,2.45398,0,0,0,0,0,0,0,-1,1119,1639,0.958452,-2.45398
-98,-615,-0.647705,2.12109,0,0,0,0,0,0,0,-1,1126,1639,-0.647756,-2.12105
-91,-615,-3.07983,2.97375,0,0,0,0,0,0,0,-1,1133,1639,-3.07989,-2.97376
-84,-615,-2.46509,0.703247,0,0,0,0,0,0,0,-1,1140,1639,-2.46505,-0.703273
-77,-615,-3.17859,1.23755,0,0,0,0,0,0,0,-1,1147,1639,-3.17865,-1.23752
-70,-615,-4.03943,1.43335,0,0,0,0,0,0,0,-1,1154,1639,-4.03942,-1.43339
-63,-615,-4.8877,1.45544,0,0,0,0,0,0,0,-1,1161,1639,-4.88766,-1.45549
-56,-615,0,0,0,0,0,0,0,0,0,-1,1168,1639,0,0
-49,-615,0,0,0,0,0,0,0,0,0,-1,1175,1639,0,0
-42,-615,0,0,0,0,0,0,0,0,0,-1,1182,1639,0,0
-35,-615,0,0,0,0,0,0,0,0,0,-1,1189,1639,0,0
-28,-615,0,0,0,0,0,0,0,0,0,-1,1196,1639,0,0
-21,-615,0,0,0,0,0,0,0,0,0,-1,1203,1639,0,0
-14,-615,0,0,0,0,0,0,0,0,0,-1,1210,1639,0,0
-7,-615,0,0,0,0,0,0,0,0,0,-1,1217,1639,0,0
0,-615,0,0,0,0,0,0,0,0,0,-1,1224,1639,0,0
7,-615,0,0,0,0,0,0,0,0,0,-1,1231,1639,0,0
14,-615,0,0,0,0,0,0,0,0,0,-1,1238,1639,0,0
21,-615,0,0,0,0,0,0,0,0,0,-1,1245,1639,0,0
28,-615,0,0,0,0,0,0,0,0,0,-1,1252,1639,0,0
35,-615,0,0,0,0,0,0,0,0,0,-1,1259,1639,0,0
42,-615,0,0,0,0,0,0,0,0,0,-1,1266,1639,0,0
49,-615,0,0,0,0,0,0,0,0,0,-1,1273,1639,0,0
56,-615,0,0,0,0,0,0,0,0,0,-1,1280,1639,0,0
63,-615,0,0,0,0,0,0,0,0,0,-1,1287,1639,0,0
70,-615,0,0,0,0,0,0,0,0,0,-1,1294,1639,0,0
77,-615,0,0,0,0,0,0,0,0,0,-1,1301,1639,0,0
84,-615,0,0,0,0,0,0,0,0,0,-1,1308,1639,0,0
91,-615,0,0,0,0,0,0,0,0,0,-1,1315,1639,0,0
98,-615,0,0,0,0,0,0,0,0,0,-1,1322,1639,0,0
105,-615,0,0,0,0,0,0,0,0,0,-1,1329,1639,0,0
112,-615,0,0,0,0,0,0,0,0,0,-1,1336,1639,0,0
119,-615,0,0,0,0,0,0,0,0,0,-1,1343,1639,0,0
126,-615,0,0,0,0,0,0,0,0,0,-1,1350,1639,0,0
133,-615,0,0,0,0,0,0,0,0,0,-1,1357,1639,0,0
140,-615,0,0,0,0,0,0,0,0,0,-1,1364,1639,0,0
147,-615,0,0,0,0,0,0,0,0,0,-1,1371,1639,0,0
154,-615,0,0,0,0,0,0,0,0,0,-1,1378,1639,0,0
161,-615,0,0,0,0,0,0,0,0,0,-1,1385,1639,0,0
168,-615,0,0,0,0,0,0,0,0,0,-1,1392,1639,0,0
175,-615,5.39648,-2.00879,0,0,0,0,0,0,0,-1,1399,1639,5.3965,2.00881
182,-615,5.65393,-1.51025,0,0,0,0,0,0,0,-1,1406,1639,5.65388,1.51028
189,-615,5.58972,-1.35608,0,0,0,0,0,0,0,-1,1413,1639,5.58967,1.35607
196,-615,5.49915,-0.693604,0,0,0,0,0,0,0,-1,1420,1639,5.4991,0.693602
203,-615,5.33411,-0.226685,0,0,0,0,0,0,0,-1,1427,1639,5.33414,0.226689
210,-615,5.60278,0.108276,0,0,0,0,0,0,0,-1,1434,1639,5.60284,-0.10831
217,-615,6.26331,-0.307373,0,0,0,0,0,0,0,-1,1441,1639,6.26331,0.307372
224,-615,5.45422,-0.333984,0,0,0,0,0,0,0,-1,1448,1639,5.45422,0.333992
231,-615,4.92542,1.80298,0,0,0,0,0,0,0,-1,1455,1639,4.92537,-1.80297
238,-615,4.76355,1.96729,0,0,0,0,0,0,0,-1,1462,1639,4.76357,-1.96734
245,-615,4.08643,3.15906,0,0,0,0,0,0,0,-1,1469,1639,4.08638,-3.159
252,-615,6.37805,3.73889,0,0,0,0,0,0,0,-1,1476,1639,6.37806,-3.73891
259,-615,8.35974,3.16443,0,0,0,0,0,0,0,-1,1483,1639,8.35975,-3.16444
266,-615,10.3414,2.58997,0,0,0,0,0,0,0,-1,1490,1639,10.3414,-2.58996
273,-615,6.57043,1.84766,0,0,0,0,0,0,0,-1,1497,1639,6.5704,-1.84771
280,-615,7.10449,3.23438,0,0,0,0,0,0,0,-1,1504,1639,7.10447,-3.23435
287,-615,7.35779,4.68542,0,0,0,0,0,0,0,-1,1511,1639,7.35776,-4.68546
294,-615,7.63733,6.29114,0,0,0,0,0,0,0,-1,1518,1639,7.63735,-6.29109
301,-615,8.47925,11.452,0,0,0,0,0,0,0,-1,1525,1639,8.47922,-11.452
308,-615,6.8114,10.9059,0,0,0,0,0,0,0,-1,1532,1639,6.81137,-10.9058
315,-615,5.1427,14.7251,0,0,0,0,0,0,0,-1,1539,1639,5.14269,-14.7251
322,-615,7.17981,17.6864,0,0,0,0,0,0,0,-1,1546,1639,7.17985,-17.6864
329,-615,7.62134,20.4354,0,0,0,0,0,0,0,-1,1553,1639,7.62139,-20.4354
336,-615,6.45007,14.1138,0,0,0,0,0,0,0,-1,1560,1639,6.45011,-14.1138
343,-615,2.40491,6.50134,0,0,0,0,0,0,0,-1,1567,1639,2.40489,-6.50137
350,-615,6.4458,15.4594,0,0,0,0,0,0,0,-1,1574,1639,6.44578,-15.4593
357,-615,11.6466,32.6956,0,0,0,0,0,0,0,-1,1581,1639,11.6466,-32.6955
364,-615,12.0236,32.0732,0,0,0,0,0,0,0,-1,1588,1639,12.0236,-32.0732
371,-615,12.2798,31.5424,0.0123525,0.0209295,-0.00754393,0.0253187,0.00796335,-1.04385,0.0149492,0.0465609,1595,1639,12.2798,-31.5423
378,-615,12.4471,30.7053,0.0103652,0.0180986,-0.00599925,0.0213693,0.00709452,-1.07166,0.0125676,0.0221236,1602,1639,12.4472,-30.7053
385,-615,12.4351,30.2855,0.00855956,0.015147,-0.00472055,0.0176093,0.00609723,-1.09,0.0103257,0.012522,1609,1639,12.4351,-30.2855
392,-615,12.4641,29.9147,0.00699344,0.0124772,-0.003517,0.0141949,0.00527583,-1.11649,0.0082849,0.0103205,1616,1639,12.4641,-29.9147
399,-615,12.4611,29.5564,0.0054078,0.00997986,-0.00239387,0.0110039,0.00438377,-1.16658,0.00639669,0.0108211,1623,1639,12.4611,-29.5563
406,-615,12.4652,29.1909,0.00384096,0.00779019,-0.00147293,0.00827903,0.00335211,-1.25035,0.00480864,0.0109922,1630,1639,12.4652,-29.1909
413,-615,12.4757,28.8397,0.00253997,0.00595697,-0.000879698,0.00617015,0.00232679,-1.33305,0.00359803,0.0127289,1637,1639,12.4757,-28.8398
420,-615,12.4746,28.457,0.00157375,0.00426987,-0.000481333,0.00435323,0.0014904,-1.39932,0.00255463,0.0137961,1644,1639,12.4746,-28.457
427,-615,12.4757,28.0345,0.000899906,0.00275813,-0.000187477,0.00277686,0.00088118,-1.47124,0.0016385,0.015449,1651,1639,12.4757,-28.0345
434,-615,12.4669,27.651,0.000541002,0.00143808,-0.000134777,0.00145789,0.00052119,-1.42485,0.000853032,0.0148696,1658,1639,12.4669,-27.651
441,-615,12.4624,27.2518,0.000476215,0.000478719,-0.000311868,0.000789338,0.000165596,-0.787405,0.000480631,0.014867,1665,1639,12.4623,-27.2518
448,-615,12.4456,26.8534,0.000434989,-0.000434767,-0.000464503,0.000636414,-0.000636192,-0.409163,0.000734739,0.0163753,1672,1639,12.4456,-26.8534
455,-615,12.4244,26.452,0.000710757,-0.00143002,-0.000631997,0.00088341,-0.00160267,-0.26668,0.00145522,0.0150293,1679,1639,12.4244,-26.4521
462,-615,12.4255,26.0345,0.000992034,-0.00259101,-0.000607846,0.00109234,-0.00269132,-0.163551,0.00224858,0.0140311,1686,1639,12.4255,-26.0345
469,-615,12.41,25.6105,0.00121799,-0.00382326,-0.000491647,0.00126549,-0.00387076,-0.0963155,0.00308996,0.01229,1693,1639,12.41,-25.6105
476,-615,12.3939,25.1932,0.00126812,-0.00516425,-0.000212877,0.00127516,-0.00517129,-0.0330465,0.00394194,0.0112104,1700,1639,12.394,-25.1933
483,-615,12.4052,24.7319,0.000943878,-0.00670372,0.000342865,0.000959219,-0.00671906,0.0447135,0.00483096,0.0190273,1707,1639,12.4052,-24.732
490,-615,12.3889,24.3257,0.000613988,-0.00833201,0.000768963,0.000679604,-0.00839763,0.085124,0.00583815,0.0261411,1714,1639,12.389,-24.3257
497,-615,12.2906,24.0005,0.000309055,-0.00985887,0.00131058,0.000475265,-0.0100251,0.126147,0.00684731,0.0386643,1721,1639,12.2906,-24.0005
504,-615,12.0922,23.6118,0,0,0,0,0,0,0,-1,1728,1639,12.0921,-23.6118
511,-615,12.1989,23.4036,0,0,0,0,0,0,0,-1,1735,1639,12.1989,-23.4035
518,-615,13.2416,9.81812,0,0,0,0,0,0,0,-1,1742,1639,13.2416,-9.81813
525,-615,4.37524,3.90491,0,0,0,0,0,0,0,-1,1749,1639,4.37518,-3.90495
532,-615,7.3645,0.848145,0,0,0,0,0,0,0,-1,1756,1639,7.36451,-0.848093
539,-615,12.8112,-0.0476074,0,0,0,0,0,0,0,-1,1763,1639,12.8111,0.0475553
546,-615,8.33813,2.94556,0,0,0,0,0,0,0,-1,1770,1639,8.33813,-2.9455
553,-615,5.82532,-2.04199,0,0,0,0,0,0,0,-1,1777,1639,5.82534,2.04195
560,-615,0,0,0,0,0,0,0,0,0,-1,1784,1639,0,0
567,-615,0,0,0,0,0,0,0,0,0,-1,1791,1639,0,0
574,-615,0,0,0,0,0,0,0,0,0,-1,1798,1639,0,0
581,-615,0,0,0,0,0,0,0,0,0,-1,1805,1639,0,0
588,-615,0,0,0,0,0,0,0,0,0,-1,1812,1639,0,0
595,-615,0,0,0,0,0,0,0,0,0,-1,1819,1639,0,0
602,-615,0,0,0,0,0,0,0,0,0,-1,1826,1639,0,0
609,-615,0,0,0,0,0,0,0,0,0,-1,1833,1639,0,0
616,-615,0,0,0,0,0,0,0,0,0,-1,1840,1639,0,0
623,-615,0,0,0,0,0,0,0,0,0,-1,1847,1639,0,0
630,-615,0,0,0,0,0,0,0,0,0,-1,1854,1639,0,0
637,-615,0,0,0,0,0,0,0,0,0,-1,1861,1639,0,0
644,-615,0,0,0,0,0,0,0,0,0,-1,1868,1639,0,0
651,-615,0,0,0,0,0,0,0,0,0,-1,1875,1639,0,0
658,-615,0,0,0,0,0,0,0,0,0,-1,1882,1639,0,0
665,-615,0,0,0,0,0,0,0,0,0,-1,1889,1639,0,0
672,-615,0,0,0,0,0,0,0,0,0,-1,1896,1639,0,0
679,-615,0,0,0,0,0,0,0,0,0,-1,1903,1639,0,0
686,-615,0,0,0,0,0,0,0,0,0,-1,1910,1639,0,0
693,-615,0,0,0,0,0,0,0,0,0,-1,1917,1639,0,0
700,-615,0,0,0,0,0,0,0,0,0,-1,1924,1639,0,0
707,-615,0,0,0,0,0,0,0,0,0,-1,1931,1639,0,0
714,-615,0,0,0,0,0,0,0,0,0,-1,1938,1639,0,0
721,-615,0,0,0,0,0,0,0,0,0,-1,1945,1639,0,0
728,-615,0,0,0,0,0,0,0,0,0,-1,1952,1639,0,0
735,-615,0,0,0,0,0,0,0,0,0,-1,1959,1639,0,0
742,-615,0,0,0,0,0,0,0,0,0,-1,1966,1639,0,0
749,-615,0,0,0,0,0,0,0,0,0,-1,1973,1639,0,0
756,-615,0,0,0,0,0,0,0,0,0,-1,1980,1639,0,0
763,-615,0,0,0,0,0,0,0,0,0,-1,1987,1639,0,0
770,-615,0,0,0,0,0,0,0,0,0,-1,1994,1639,0,0
777,-615,0,0,0,0,0,0,0,0,0,-1,2001,1639,0,0
784,-615,0,0,0,0,0,0,0,0,0,-1,2008,1639,0,0
791,-615,0,0,0,0,0,0,0,0,0,-1,2015,1639,0,0
798,-615,0,0,0,0,0,0,0,0,0,-1,2022,1639,0,0
805,-615,0,0,0,0,0,0,0,0,0,-1,2029,1639,0,0
812,-615,0,0,0,0,0,0,0,0,0,-1,2036,1639,0,0
-700,-622,0,0,0,0,0,0,0,0,0,-1,524,1646,0,0
-693,-622,0,0,0,0,0,0,0,0,0,-1,531,1646,0,0
-686,-622,0,0,0,0,0,0,0,0,0,-1,538,1646,0,0
-679,-622,0,0,0,0,0,0,0,0,0,-1,545,1646,0,0
-672,-622,0,0,0,0,0,0,0,0,0,-1,552,1646,0,0
-665,-622,0,0,0,0,0,0,0,0,0,-1,559,1646,0,0
-658,-622,0,0,0,0,0,0,0,0,0,-1,566,1646,0,0
-651,-622,0,0,0,0,0,0,0,0,0,-1,573,1646,0,0
-644,-622,0,0,0,0,0,0,0,0,0,-1,580,1646,0,0
-637,-622,0,0,0,0,0,0,0,0,0,-1,587,1646,0,0
-630,-622,0,0,0,0,0,0,0,0,0,-1,594,1646,0,0
-623,-622,0,0,0,0,0,0,0,0,0,-1,601,1646,0,0
-616,-622,0,0,0,0,0,0,0,0,0,-1,608,1646,0,0
-609,-622,0,0,0,0,0,0,0,0,0,-1,615,1646,0,0
-602,-622,0,0,0,0,0,0,0,0,0,-1,622,1646,0,0
-595,-622,0,0,0,0,0,0,0,0,0,-1,629,1646,0,0
-588,-622,0,0,0,0,0,0,0,0,0,-1,636,1646,0,0
-581,-622,0,0,0,0,0,0,0,0,0,-1,643,1646,0,0
-574,-622,0,0,0,0,0,0,0,0,0,-1,650,1646,0,0
-567,-622,0,0,0,0,0,0,0,0,0,-1,657,1646,0,0
-560,-622,0,0,0,0,0,0,0,0,0,-1,664,1646,0,0
-553,-622,0,0,0,0,0,0,0,0,0,-1,671,1646,0,0
-546,-622,0,0,0,0,0,0,0,0,0,-1,678,1646,0,0
-539,-622,0,0,0,0,0,0,0,0,0,-1,685,1646,0,0
-532,-622,0,0,0,0,0,0,0,0,0,-1,692,1646,0,0
-525,-622,0,0,0,0,0,0,0,0,0,-1,699,1646,0,0
-518,-622,0,0,0,0,0,0,0,0,0,-1,706,1646,0,0
-511,-622,0,0,0,0,0,0,0,0,0,-1,713,1646,0,0
-504,-622,0,0,0,0,0,0,0,0,0,-1,720,1646,0,0
-497,-622,0,0,0,0,0,0,0,0,0,-1,727,1646,0,0
-490,-622,0,0,0,0,0,0,0,0,0,-1,734,1646,0,0
-483,-622,0,0,0,0,0,0,0,0,0,-1,741,1646,0,0
-476,-622,0,0,0,0,0,0,0,0,0,-1,748,1646,0,0
-469,-622,0,0,0,0,0,0,0,0,0,-1,755,1646,0,0
-462,-622,0,0,0,0,0,0,0,0,0,-1,762,1646,0,0
-455,-622,0,0,0,0,0,0,0,0,0,-1,769,1646,0,0
-448,-622,0,0,0,0,0,0,0,0,0,-1,776,1646,0,0
-441,-622,0,0,0,0,0,0,0,0,0,-1,783,1646,0,0
-434,-622,0,0,0,0,0,0,0,0,0,-1,790,1646,0,0
-427,-622,-7.62891,3.48096,0,0,0,0,0,0,0,-1,797,1646,-7.62892,-3.48092
-420,-622,-9.35791,1.77185,0,0,0,0,0,0,0,-1,804,1646,-9.35789,-1.77183
-413,-622,-8.46075,1.96777,0,0,0,0,0,0,0,-1,811,1646,-8.46074,-1.96774
-406,-622,-4.44318,2.16858,0,0,0,0,0,0,0,-1,818,1646,-4.44315,-2.16859
-399,-622,-7.06976,1.51001,0,0,0,0,0,0,0,-1,825,1646,-7.06976,-1.51005
-392,-622,3.89551,5.85376,0,0,0,0,0,0,0,-1,832,1646,3.8955,-5.85379
-385,-622,2.00543,14.0448,0,0,0,0,0,0,0,-1,839,1646,2.00544,-14.0448
-378,-622,1.49036,15.3436,0,0,0,0,0,0,0,-1,846,1646,1.49033,-15.3436
-371,-622,3.23883,20.4496,0,0,0,0,0,0,0,-1,853,1646,3.23886,-20.4496
-364,-622,3.16455,23.0844,0,0,0,0,0,0,0,-1,860,1646,3.16453,-23.0843
-357,-622,3.5307,23.5956,0,0,0,0,0,0,0,-1,867,1646,3.53068,-23.5956
-350,-622,3.59686,23.8881,0,0,0,0,0,0,0,-1,874,1646,3.59688,-23.888
-343,-622,3.58557,24.3984,0.00165603,-0.00928841,0.00331657,0.00258262,-0.010215,0.272437,0.00781445,0.0253889,881,1646,3.58558,-24.3985
-336,-622,3.55969,24.876,0.00218795,-0.00825407,0.00299654,0.00298675,-0.00905288,0.260518,0.00723922,0.00963857,888,1646,3.55968,-24.8759
-329,-622,3.52466,25.3096,0.00239616,-0.00703058,0.00261435,0.00307265,-0.00770708,0.253209,0.00641254,0.00823889,895,1646,3.52464,-25.3095
-322,-622,3.49567,25.7496,0.00237208,-0.00581215,0.00220278,0.00292729,-0.00636736,0.246908,0.00548742,0.0100263,902,1646,3.4957,-25.7496
-315,-622,3.48474,26.1765,0.00225995,-0.00451641,0.00181988,0.00271777,-0.00497423,0.246452,0.00450423,0.0140145,909,1646,3.48471,-26.1765
-308,-622,3.49072,26.5952,0.00213293,-0.00317727,0.00141954,0.00248859,-0.00353293,0.245489,0.00349391,0.0142443,916,1646,3.49073,-26.5952
-301,-622,3.49884,27.001,0.00213045,-0.00199733,0.00113442,0.00242167,-0.00228855,0.251288,0.00271981,0.0131706,923,1646,3.49885,-27.001
-294,-622,3.47626,27.4352,0.00228872,-0.00111586,0.000932316,0.00252731,-0.00135445,0.250531,0.00227498,0.0100049,930,1646,3.47625,-27.4352
-287,-622,3.44788,27.844,0.00244682,-0.000195045,0.000816239,0.00267866,-0.000426887,0.276748,0.00194376,0.00784362,937,1646,3.44785,-27.844
-280,-622,3.43433,28.2339,0.00268632,0.000476029,0.000706502,0.00289285,0.0002695,0.284402,0.00184531,0.00885337,944,1646,3.43432,-28.2339
-273,-622,3.43579,28.6234,0.003039,0.0010655,0.000659041,0.00323884,0.000865655,0.294425,0.00193629,0.0131048,951,1646,3.43581,-28.6234
-266,-622,3.40497,29.0313,0.00349355,0.00142322,0.000668526,0.00369065,0.00122612,0.286715,0.00217042,0.0125249,958,1646,3.405,-29.0313
-259,-622,3.39551,29.4608,0.00410141,0.00162633,0.000732551,0.00430197,0.00142577,0.267236,0.00253036,0.0112712,965,1646,3.39551,-29.4608
-252,-622,3.41797,29.835,0.004855,0.00184438,0.000802716,0.00505565,0.00164373,0.244949,0.00297779,0.0120317,972,1646,3.418,-29.835
-245,-622,3.48059,30.2119,0.00559923,0.00218993,0.000897053,0.00582086,0.0019683,0.242209,0.00341886,0.0103604,979,1646,3.48061,-30.2119
-238,-622,3.48486,30.604,0.00660071,0.00240127,0.000986312,0.00682083,0.00218115,0.219572,0.00402237,0.0140118,986,1646,3.48486,-30.604
-231,-622,3.53662,31.0264,0,0,0,0,0,0,0,-1,993,1646,3.53664,-31.0264
-224,-622,3.64215,31.3643,0,0,0,0,0,0,0,-1,1000,1646,3.64213,-31.3642
-217,-622,3.81213,31.8016,0,0,0,0,0,0,0,-1,1007,1646,3.81214,-31.8016
-210,-622,3.87927,28.0903,0,0,0,0,0,0,0,-1,1014,1646,3.87925,-28.0903
-203,-622,4.21375,20.9574,0,0,0,0,0,0,0,-1,1021,1646,4.21375,-20.9574
-196,-622,4.18518,21.2491,0,0,0,0,0,0,0,-1,1028,1646,4.18521,-21.2491
-189,-622,4.98254,25.8979,0,0,0,0,0,0,0,-1,1035,1646,4.98255,-25.8979
-182,-622,2.21411,20.6752,0,0,0,0,0,0,0,-1,1042,1646,2.21416,-20.6751
-175,-622,2.56091,11.0195,0,0,0,0,0,0,0,-1,1049,1646,2.56095,-11.0195
-168,-622,3.31055,28.6663,0,0,0,0,0,0,0,-1,1056,1646,3.31055,-28.6663
-161,-622,2.51819,34.0869,0,0,0,0,0,0,0,-1,1063,1646,2.5182,-34.087
-154,-622,2.03955,33.9767,0,0,0,0,0,0,0,-1,1070,1646,2.03955,-33.9767
-147,-622,3.7146,25.5477,0,0,0,0,0,0,0,-1,1077,1646,3.71464,-25.5478
-140,-622,3.27515,16.0353,0,0,0,0,0,0,0,-1,1084,1646,3.27519,-16.0353
-133,-622,3.09644,17.677,0,0,0,0,0,0,0,-1,1091,1646,3.09638,-17.677
-126,-622,3.5061,19.5251,0,0,0,0,0,0,0,-1,1098,1646,3.50616,-19.5252
-119,-622,4.06384,13.1715,0,0,0,0,0,0,0,-1,1105,1646,4.06379,-13.1716
-112,-622,4.33276,14.6605,0,0,0,0,0,0,0,-1,1112,1646,4.33281,-14.6605
-105,-622,0.306519,4.38159,0,0,0,0,0,0,0,-1,1119,1646,0.306536,-4.38159
-98,-622,-0.510376,3.5033,0,0,0,0,0,0,0,-1,1126,1646,-0.510393,-3.50324
-91,-622,-1.146,0.975952,0,0,0,0,0,0,0,-1,1133,1646,-1.14599,-0.97597
-84,-622,-2.04895,1.31787,0,0,0,0,0,0,0,-1,1140,1646,-2.0489,-1.31781
-77,-622,-1.80627,0.332275,0,0,0,0,0,0,0,-1,1147,1646,-1.80622,-0.33223
-70,-622,-3.65588,2.28149,0,0,0,0,0,0,0,-1,1154,1646,-3.65589,-2.28155
-63,-622,-2.49683,1.27087,0,0,0,0,0,0,0,-1,1161,1646,-2.49679,-1.27093
-56,-622,-2.44238,-0.575562,0,0,0,0,0,0,0,-1,1168,1646,-2.44242,0.575508
-49,-622,-2.41089,1.38818,0,0,0,0,0,0,0,-1,1175,1646,-2.41088,-1.38815
-42,-622,-2.71497,2.85242,0,0,0,0,0,0,0,-1,1182,1646,-2.71491,-2.85247
-35,-622,-3.0177,4.25842,0,0,0,0,0,0,0,-1,1189,1646,-3.01773,-4.25838
-28,-622,-0.896606,0.678833,0,0,0,0,0,0,0,-1,1196,1646,-0.89661,-0.678835
-21,-622,16.4141,36.2849,0,0,0,0,0,0,0,-1,1203,1646,16.4141,-36.285
-14,-622,-0.794556,31.3788,0,0,0,0,0,0,0,-1,1210,1646,-0.794524,-31.3788
-7,-622,-0.164063,31.1399,0,0,0,0,0,0,0,-1,1217,1646,-0.164074,-31.1399
0,-622,0,0,0,0,0,0,0,0,0,-1,1224,1646,0,0
7,-622,0,0,0,0,0,0,0,0,0,-1,1231,1646,0,0
14,-622,0,0,0,0,0,0,0,0,0,-1,1238,1646,0,0
21,-622,0,0,0,0,0,0,0,0,0,-1,1245,1646,0,0
28,-622,0,0,0,0,0,0,0,0,0,-1,1252,1646,0,0
35,-622,0,0,0,0,0,0,0,0,0,-1,1259,1646,0,0
42,-622,0,0,0,0,0,0,0,0,0,-1,1266,1646,0,0
49,-622,0,0,0,0,0,0,0,0,0,-1,1273,1646,0,0
56,-622,0,0,0,0,0,0,0,0,0,-1,1280,1646,0,0
63,-622,0,0,0,0,0,0,0,0,0,-1,1287,1646,0,0
70,-622,0,0,0,0,0,0,0,0,0,-1,1294,1646,0,0
77,-622,0,0,0,0,0,0,0,0,0,-1,1301,1646,0,0
84,-622,0,0,0,0,0,0,0,0,0,-1,1308,1646,0,0
91,-622,0,0,0,0,0,0,0,0,0,-1,1315,1646,0,0
98,-622,0,0,0,0,0,0,0,0,0,-1,1322,1646,0,0
105,-622,0,0,0,0,0,0,0,0,0,-1,1329,1646,0,0
112,-622,0,0,0,0,0,0,0,0,0,-1,1336,1646,0,0
119,-622,0,0,0,0,0,0,0,0,0,-1,1343,1646,0,0
126,-622,5.43298,42.5061,0,0,0,0,0,0,0,-1,1350,1646,5.43302,-42.5061
133,-622,6.53076,43.0612,0,0,0,0,0,0,0,-1,1357,1646,6.53073,-43.0611
140,-622,13.847,38.902,0,0,0,0,0,0,0,-1,1364,1646,13.847,-38.902
147,-622,14.2314,39.2466,0,0,0,0,0,0,0,-1,1371,1646,14.2315,-39.2466
154,-622,3.34119,31.8622,0,0,0,0,0,0,0,-1,1378,1646,3.34117,-31.8622
161,-622,10.6884,6.46448,0,0,0,0,0,0,0,-1,1385,1646,10.6883,-6.46442
168,-622,12.2402,5.18091,0,0,0,0,0,0,0,-1,1392,1646,12.2403,-5.1809
175,-622,5.64355,-1.77075,0,0,0,0,0,0,0,-1,1399,1646,5.64351,1.77077
182,-622,5.88586,-1.32251,0,0,0,0,0,0,0,-1,1406,1646,5.88587,1.32256
189,-622,5.97986,-1.18005,0,0,0,0,0,0,0,-1,1413,1646,5.97986,1.18003
196,-622,5.85022,-0.244507,0,0,0,0,0,0,0,-1,1420,1646,5.85026,0.244478
203,-622,5.25159,0.138794,0,0,0,0,0,0,0,-1,1427,1646,5.25162,-0.138822
210,-622,6.66833,0.0397949,0,0,0,0,0,0,0,-1,1434,1646,6.6684,-0.0398278
217,-622,6.12061,0.0506592,0,0,0,0,0,0,0,-1,1441,1646,6.12058,-0.0507181
224,-622,5.57275,0.0616455,0,0,0,0,0,0,0,-1,1448,1646,5.57276,-0.0616084
231,-622,5.31348,1.3949,0,0,0,0,0,0,0,-1,1455,1646,5.31342,-1.39495
238,-622,3.76477,2.90686,0,0,0,0,0,0,0,-1,1462,1646,3.7648,-2.90686
245,-622,5.13794,2.67993,0,0,0,0,0,0,0,-1,1469,1646,5.13796,-2.67992
252,-622,6.66528,2.53992,0,0,0,0,0,0,0,-1,1476,1646,6.66522,-2.53991
259,-622,8.93787,3.31458,0,0,0,0,0,0,0,-1,1483,1646,8.93791,-3.31454
266,-622,5.72644,3.11926,0,0,0,0,0,0,0,-1,1490,1646,5.72647,-3.1192
273,-622,7.28076,3.61218,0,0,0,0,0,0,0,-1,1497,1646,7.28071,-3.61212
280,-622,8.43127,4.4447,0,0,0,0,0,0,0,-1,1504,1646,8.43123,-4.44467
287,-622,8.60315,5.94617,0,0,0,0,0,0,0,-1,1511,1646,8.60319,-5.94622
294,-622,7.62756,11.5143,0,0,0,0,0,0,0,-1,1518,1646,7.62762,-11.5143
301,-622,7.36548,11.6569,0,0,0,0,0,0,0,-1,1525,1646,7.36549,-11.6569
308,-622,7.10339,11.7994,0,0,0,0,0,0,0,-1,1532,1646,7.10335,-11.7995
315,-622,8.28687,16.5842,0,0,0,0,0,0,0,-1,1539,1646,8.28689,-16.5843
322,-622,7.43689,20.5786,0,0,0,0,0,0,0,-1,1546,1646,7.43685,-20.5786
329,-622,9.76477,26.4202,0,0,0,0,0,0,0,-1,1553,1646,9.7648,-26.4202
336,-622,10.4526,28.8552,0,0,0,0,0,0,0,-1,1560,1646,10.4526,-28.8552
343,-622,11.2021,31.8704,0,0,0,0,0,0,0,-1,1567,1646,11.2021,-31.8703
350,-622,11.7219,32.9758,0,0,0,0,0,0,0,-1,1574,1646,11.7219,-32.9759
357,-622,11.7383,32.2427,0,0,0,0,0,0,0,-1,1581,1646,11.7383,-32.2427
364,-622,12.0408,31.6675,0.00969551,0.017767,-0.00649719,0.0213798,0.00608268,-1.06331,0.0127201,0.0405946,1588,1646,12.0408,-31.6675
371,-622,12.1028,31.0815,0.00887276,0.0159107,-0.00566987,0.0190648,0.0057186,-1.06313,0.0112969,0.024571,1595,1646,12.1028,-31.0815
378,-622,12.0812,30.6727,0.00762917,0.0139416,-0.00469017,0.0164386,0.00513211,-1.08156,0.00971144,0.0105944,1602,1646,12.0812,-30.6728
385,-622,12.0681,30.2825,0.00646713,0.0117303,-0.0038333,0.0137484,0.00444905,-1.0862,0.00810061,0.00916815,1609,1646,12.0681,-30.2824
392,-622,12.0709,29.9287,0.00540951,0.009592,-0.00297461,0.0111369,0.0038646,-1.09178,0.00652946,0.0105877,1616,1646,12.071,-29.9287
399,-622,12.0605,29.5642,0.00427506,0.00749534,-0.00210688,0.00853689,0.0032335,-1.11167,0.00497683,0.0109626,1623,1646,12.0605,-29.5642
406,-622,12.0563,29.1677,0.00314935,0.00561,-0.00136025,0.00621379,0.00254556,-1.15304,0.003607,0.014126,1630,1646,12.0562,-29.1677
413,-622,12.0709,28.7789,0.00222674,0.0039119,-0.000841229,0.00425995,0.00187869,-1.1785,0.00246518,0.0163529,1637,1646,12.0709,-28.7789
420,-622,12.0808,28.4285,0.00153057,0.00235107,-0.000481813,0.00257363,0.00130801,-1.13807,0.00148595,0.016337,1644,1646,12.0808,-28.4285
427,-622,12.0764,28.0411,0.00107297,0.000920922,-0.000225461,0.00123488,0.000759011,-0.622791,0.000719176,0.0128132,1651,1646,12.0764,-28.0411
434,-622,12.0745,27.6505,0.000847479,-0.000345091,-0.000180454,0.000874186,-0.000371799,-0.146934,0.000738604,0.0133806,1658,1646,12.0744,-27.6505
441,-622,12.0582,27.2556,0.000862056,-0.00132426,-0.000337056,0.000912839,-0.00137504,-0.149542,0.00132986,0.0140703,1665,1646,12.0582,-27.2557
448,-622,12.024,26.8716,0.000977672,-0.00230034,-0.000471169,0.00104405,-0.00236672,-0.139962,0.00201796,0.0134665,1672,1646,12.0241,-26.8716
455,-622,11.9924,26.4384,0.00132527,-0.00332894,-0.000623614,0.00140738,-0.00341105,-0.130913,0.00286098,0.0156508,1679,1646,11.9924,-26.4383
462,-622,12.014,26.0453,0.0016209,-0.00449706,-0.000615047,0.00168212,-0.00455828,-0.0992086,0.00372827,0.0166782,1686,1646,12.014,-26.0453
469,-622,12.0072,25.635,0.00188478,-0.0057252,-0.00055208,0.00192462,-0.00576505,-0.0720441,0.00462051,0.0179952,1693,1646,12.0072,-25.6351
476,-622,12.0629,25.2239,0.00199001,-0.00709992,-0.000315321,0.00200093,-0.00711084,-0.0346336,0.00552956,0.0237231,1700,1646,12.0629,-25.2239
483,-622,12.0249,24.8729,0.00161965,-0.00870176,0.000255673,0.00162598,-0.00870809,0.0247509,0.00641643,0.0372813,1707,1646,12.0248,-24.8729
490,-622,12.0063,24.3785,0.00120575,-0.0104603,0.000666617,0.00124372,-0.0104983,0.0568947,0.00744813,0.0407189,1714,1646,12.0063,-24.3786
497,-622,12.1154,23.9147,0,0,0,0,0,0,0,-1,1721,1646,12.1154,-23.9146
504,-622,10.8306,19.8021,0,0,0,0,0,0,0,-1,1728,1646,10.8306,-19.8022
511,-622,5.29004,4.14587,0,0,0,0,0,0,0,-1,1735,1646,5.29008,-4.14589
518,-622,5.6001,1.55359,0,0,0,0,0,0,0,-1,1742,1646,5.60015,-1.5536
525,-622,5.83093,2.01807,0,0,0,0,0,0,0,-1,1749,1646,5.83097,-2.01802
532,-622,5.44202,0.57373,0,0,0,0,0,0,0,-1,1756,1646,5.44196,-0.573705
539,-622,9.32129,1.06116,0,0,0,0,0,0,0,-1,1763,1646,9.32131,-1.0612
546,-622,6.50977,-3.45618,0,0,0,0,0,0,0,-1,1770,1646,6.50981,3.4562
553,-622,0,0,0,0,0,0,0,0,0,-1,1777,1646,0,0
560,-622,0,0,0,0,0,0,0,0,0,-1,1784,1646,0,0
567,-622,0,0,0,0,0,0,0,0,0,-1,1791,1646,0,0
574,-622,0,0,0,0,0,0,0,0,0,-1,1798,1646,0,0
581,-622,0,0,0,0,0,0,0,0,0,-1,1805,1646,0,0
588,-622,0,0,0,0,0,0,0,0,0,-1,1812,1646,0,0
595,-622,0,0,0,0,0,0,0,0,0,-1,1819,1646,0,0
602,-622,0,0,0,0,0,0,0,0,0,-1,1826,1646,0,0
609,-622,0,0,0,0,0,0,0,0,0,-1,1833,1646,0,0
616,-622,0,0,0,0,0,0,0,0,0,-1,1840,1646,0,0
623,-622,0,0,0,0,0,0,0,0,0,-1,1847,1646,0,0
630,-622,0,0,0,0,0,0,0,0,0,-1,1854,1646,0,0
637,-622,0,0,0,0,0,0,0,0,0,-1,1861,1646,0,0
644,-622,0,0,0,0,0,0,0,0,0,-1,1868,1646,0,0
651,-622,0,0,0,0,0,0,0,0,0,-1,1875,1646,0,0
658,-622,0,0,0,0,0,0,0,0,0,-1,1882,1646,0,0
665,-622,0,0,0,0,0,0,0,0,0,-1,1889,1646,0,0
672,-622,0,0,0,0,0,0,0,0,0,-1,1896,1646,0,0
679,-622,0,0,0,0,0,0,0,0,0,-1,1903,1646,0,0
686,-622,0,0,0,0,0,0,0,0,0,-1,1910,1646,0,0
693,-622,0,0,0,0,0,0,0,0,0,-1,1917,1646,0,0
700,-622,0,0,0,0,0,0,0,0,0,-1,1924,1646,0,0
707,-622,0,0,0,0,0,0,0,0,0,-1,1931,1646,0,0
714,-622,0,0,0,0,0,0,0,0,0,-1,1938,1646,0,0
721,-622,0,0,0,0,0,0,0,0,0,-1,1945,1646,0,0
728,-622,0,0,0,0,0,0,0,0,0,-1,1952,1646,0,0
735,-622,0,0,0,0,0,0,0,0,0,-1,1959,1646,0,0
742,-622,0,0,0,0,0,0,0,0,0,-1,1966,1646,0,0
749,-622,0,0,0,0,0,0,0,0,0,-1,1973,1646,0,0
756,-622,0,0,0,0,0,0,0,0,0,-1,1980,1646,0,0
763,-622,0,0,0,0,0,0,0,0,0,-1,1987,1646,0,0
770,-622,0,0,0,0,0,0,0,0,0,-1,1994,1646,0,0
777,-622,0,0,0,0,0,0,0,0,0,-1,2001,1646,0,0
784,-622,0,0,0,0,0,0,0,0,0,-1,2008,1646,0,0
791,-622,0,0,0,0,0,0,0,0,0,-1,2015,1646,0,0
798,-622,0,0,0,0,0,0,0,0,0,-1,2022,1646,0,0
805,-622,0,0,0,0,0,0,0,0,0,-1,2029,1646,0,0
812,-622,0,0,0,0,0,0,0,0,0,-1,2036,1646,0,0
-700,-629,0,0,0,0,0,0,0,0,0,-1,524,1653,0,0
-693,-629,0,0,0,0,0,0,0,0,0,-1,531,1653,0,0
-686,-629,0,0,0,0,0,0,0,0,0,-1,538,1653,0,0
-679,-629,0,0,0,0,0,0,0,0,0,-1,545,1653,0,0
-672,-629,0,0,0,0,0,0,0,0,0,-1,552,1653,0,0
-665,-629,0,0,0,0,0,0,0,0,0,-1,559,1653,0,0
-658,-629,0,0,0,0,0,0,0,0,0,-1,566,1653,0,0
-651,-629,0,0,0,0,0,0,0,0,0,-1,573,1653,0,0
-644,-629,0,0,0,0,0,0,0,0,0,-1,580,1653,0,0
-637,-629,0,0,0,0,0,0,0,0,0,-1,587,1653,0,0
-630,-629,0,0,0,0,0,0,0,0,0,-1,594,1653,0,0
-623,-629,0,0,0,0,0,0,0,0,0,-1,601,1653,0,0
-616,-629,0,0,0,0,0,0,0,0,0,-1,608,1653,0,0
-609,-629,0,0,0,0,0,0,0,0,0,-1,615,1653,0,0
-602,-629,0,0,0,0,0,0,0,0,0,-1,622,1653,0,0
-595,-629,0,0,0,0,0,0,0,0,0,-1,629,1653,0,0
-588,-629,0,0,0,0,0,0,0,0,0,-1,636,1653,0,0
-581,-629,0,0,0,0,0,0,0,0,0,-1,643,1653,0,0
-574,-629,0,0,0,0,0,0,0,0,0,-1,650,1653,0,0
-567,-629,0,0,0,0,0,0,0,0,0,-1,657,1653,0,0
-560,-629,0,0,0,0,0,0,0,0,0,-1,664,1653,0,0
-553,-629,0,0,0,0,0,0,0,0,0,-1,671,1653,0,0
-546,-629,0,0,0,0,0,0,0,0,0,-1,678,1653,0,0
-539,-629,0,0,0,0,0,0,0,0,0,-1,685,1653,0,0
-532,-629,0,0,0,0,0,0,0,0,0,-1,692,1653,0,0
-525,-629,0,0,0,0,0,0,0,0,0,-1,699,1653,0,0
-518,-629,0,0,0,0,0,0,0,0,0,-1,706,1653,0,0
-511,-629,0,0,0,0,0,0,0,0,0,-1,713,1653,0,0
-504,-629,0,0,0,0,0,0,0,0,0,-1,720,1653,0,0
-497,-629,0,0,0,0,0,0,0,0,0,-1,727,1653,0,0
-490,-629,0,0,0,0,0,0,0,0,0,-1,734,1653,0,0
-483,-629,0,0,0,0,0,0,0,0,0,-1,741,1653,0,0
-476,-629,0,0,0,0,0,0,0,0,0,-1,748,1653,0,0
-469,-629,0,0,0,0,0,0,0,0,0,-1,755,1653,0,0
-462,-629,0,0,0,0,0,0,0,0,0,-1,762,1653,0,0
-455,-629,0,0,0,0,0,0,0,0,0,-1,769,1653,0,0
-448,-629,0,0,0,0,0,0,0,0,0,-1,776,1653,0,0
-441,-629,0,0,0,0,0,0,0,0,0,-1,783,1653,0,0
-434,-629,0,0,0,0,0,0,0,0,0,-1,790,1653,0,0
-427,-629,0,0,0,0,0,0,0,0,0,-1,797,1653,0,0
-420,-629,-3.87103,3.37634,0,0,0,0,0,0,0,-1,804,1653,-3.87101,-3.37633
-413,-629,-5.69751,1.33582,0,0,0,0,0,0,0,-1,811,1653,-5.69754,-1.3358
-406,-629,2.85406,6.01501,0,0,0,0,0,0,0,-1,818,1653,2.85405,-6.01507
-399,-629,-0.455627,10.8687,0,0,0,0,0,0,0,-1,825,1653,-0.455625,-10.8687
-392,-629,1.15369,11.1295,0,0,0,0,0,0,0,-1,832,1653,1.1537,-11.1295
-385,-629,1.81976,11.6935,0,0,0,0,0,0,0,-1,839,1653,1.81975,-11.6935
-378,-629,2.19452,14.7941,0,0,0,0,0,0,0,-1,846,1653,2.19451,-14.7941
-371,-629,3.60114,14.7299,0,0,0,0,0,0,0,-1,853,1653,3.60113,-14.7299
-364,-629,3.26898,21.0801,0,0,0,0,0,0,0,-1,860,1653,3.26895,-21.08
-357,-629,4.38782,16.3444,0,0,0,0,0,0,0,-1,867,1653,4.38783,-16.3443
-350,-629,4.1026,23.9181,0,0,0,0,0,0,0,-1,874,1653,4.10262,-23.9181
-343,-629,4.04547,24.4258,0.00334442,-0.0144297,0.00460612,0.00446717,-0.0155524,0.239088,0.0121346,0.0396052,881,1653,4.04548,-24.4257
-336,-629,3.97589,24.8684,0.00372885,-0.0129246,0.00408107,0.00467518,-0.0138709,0.227855,0.0111377,0.0193532,888,1653,3.97589,-24.8684
-329,-629,3.98047,25.3156,0.00351523,-0.0112254,0.0034684,0.00429055,-0.0120007,0.219922,0.00975058,0.011768,895,1653,3.98044,-25.3155
-322,-629,3.94122,25.7411,0.00314382,-0.00959585,0.00288073,0.00376493,-0.010217,0.21236,0.00835404,0.0118386,902,1653,3.94123,-25.7411
-315,-629,3.90717,26.1688,0.00274393,-0.00789882,0.00232318,0.00322895,-0.00838384,0.205817,0.00692133,0.0153589,909,1653,3.90718,-26.1688
-308,-629,3.90027,26.6031,0.00232767,-0.00612511,0.00175874,0.00267901,-0.00647645,0.197168,0.00543535,0.0125454,916,1653,3.90027,-26.6031
-301,-629,3.90619,27.0709,0.00204411,-0.00449858,0.00135305,0.00231289,-0.00476735,0.196091,0.00416885,0.0111645,923,1653,3.90621,-27.071
-294,-629,3.8949,27.4854,0.00194703,-0.00318246,0.00105104,0.00215403,-0.00338946,0.194464,0.00322692,0.0118333,930,1653,3.89491,-27.4853
-287,-629,3.87219,27.8685,0.0019197,-0.00194796,0.000856868,0.00210103,-0.0021293,0.208548,0.0024424,0.00959647,937,1653,3.87219,-27.8686
-280,-629,3.85754,28.259,0.0019981,-0.00097185,0.000694511,0.00215249,-0.00112623,0.218734,0.00192363,0.0102489,944,1653,3.85756,-28.2591
-273,-629,3.84369,28.6284,0.00221382,-0.000131392,0.000593847,0.00235562,-0.00027319,0.23439,0.00166895,0.0132945,951,1653,3.84367,-28.6284
-266,-629,3.82092,29.0385,0.00253776,0.000618799,0.000544978,0.00268173,0.000474828,0.258276,0.00165244,0.0137921,958,1653,3.8209,-29.0384
-259,-629,3.80359,29.4818,0.00305398,0.0011506,0.000611375,0.00323344,0.000971146,0.28551,0.0019158,0.0157547,965,1653,3.80361,-29.4818
-252,-629,3.81598,29.8571,0.0036966,0.00157665,0.000687511,0.00390004,0.00137321,0.2877,0.00228429,0.0118002,972,1653,3.816,-29.8571
-245,-629,3.84686,30.2281,0.00437249,0.00199983,0.00076565,0.00459811,0.00177422,0.286565,0.00267768,0.00799465,979,1653,3.84686,-30.2282
-238,-629,3.84784,30.6111,0.0052207,0.00232161,0.000824894,0.00543898,0.00210333,0.258684,0.00316695,0.0100482,986,1653,3.84784,-30.6111
-231,-629,3.81647,30.9836,0.00615762,0.00250336,0.000923756,0.00637786,0.00228312,0.23405,0.00373145,0.015527,993,1653,3.81647,-30.9836
-224,-629,3.9187,31.4504,0.00656316,0.00323413,0.00108064,0.00688319,0.00291411,0.287914,0.00398954,0.0203233,1000,1653,3.91868,-31.4505
-217,-629,3.89728,31.7488,0.00693917,0.00372879,0.00137974,0.00745066,0.0032173,0.355006,0.00431495,0.0351409,1007,1653,3.89728,-31.7488
-210,-629,4.10742,32.2172,0,0,0,0,0,0,0,-1,1014,1653,4.10743,-32.2172
-203,-629,4.15796,33.1616,0,0,0,0,0,0,0,-1,1021,1653,4.15795,-33.1617
-196,-629,4.36682,33.0414,0,0,0,0,0,0,0,-1,1028,1653,4.36679,-33.0413
-189,-629,4.28357,33.0905,0,0,0,0,0,0,0,-1,1035,1653,4.28355,-33.0905
-182,-629,4.42603,33.3042,0,0,0,0,0,0,0,-1,1042,1653,4.42605,-33.3042
-175,-629,4.69446,33.0199,0,0,0,0,0,0,0,-1,1049,1653,4.69444,-33.0199
-168,-629,3.70325,35.2312,0,0,0,0,0,0,0,-1,1056,1653,3.70325,-35.2312
-161,-629,3.33301,34.2687,0,0,0,0,0,0,0,-1,1063,1653,3.33296,-34.2687
-154,-629,3.2688,34.254,0,0,0,0,0,0,0,-1,1070,1653,3.26883,-34.254
-147,-629,3.39771,34.4545,0,0,0,0,0,0,0,-1,1077,1653,3.39767,-34.4545
-140,-629,2.34851,19.2911,0,0,0,0,0,0,0,-1,1084,1653,2.34853,-19.2911
-133,-629,3.41248,17.6686,0,0,0,0,0,0,0,-1,1091,1653,3.41243,-17.6686
-126,-629,4.01025,19.5328,0,0,0,0,0,0,0,-1,1098,1653,4.01022,-19.5328
-119,-629,4.94177,13.5525,0,0,0,0,0,0,0,-1,1105,1653,4.94172,-13.5525
-112,-629,5.63123,15.9187,0,0,0,0,0,0,0,-1,1112,1653,5.63118,-15.9187
-105,-629,2.15881,4.38342,0,0,0,0,0,0,0,-1,1119,1653,2.15878,-4.38347
-98,-629,0.825806,4.19385,0,0,0,0,0,0,0,-1,1126,1653,0.825779,-4.1939
-91,-629,-0.452271,3.64465,0,0,0,0,0,0,0,-1,1133,1653,-0.452278,-3.6446
-84,-629,-2.6084,0.466797,0,0,0,0,0,0,0,-1,1140,1653,-2.6084,-0.466786
-77,-629,-3.50903,2.10706,0,0,0,0,0,0,0,-1,1147,1653,-3.509,-2.10707
-70,-629,-1.20886,2.52502,0,0,0,0,0,0,0,-1,1154,1653,-1.20886,-2.525
-63,-629,-0.960693,4.30212,0,0,0,0,0,0,0,-1,1161,1653,-0.960691,-4.30215
-56,-629,-1.31934,5.64343,0,0,0,0,0,0,0,-1,1168,1653,-1.31928,-5.6434
-49,-629,-2.15662,2.57458,0,0,0,0,0,0,0,-1,1175,1653,-2.15656,-2.57459
-42,-629,-2.46326,3.91467,0,0,0,0,0,0,0,-1,1182,1653,-2.4633,-3.91466
-35,-629,-2.67261,5.24292,0,0,0,0,0,0,0,-1,1189,1653,-2.67257,-5.24298
-28,-629,-0.402954,-0.866577,0,0,0,0,0,0,0,-1,1196,1653,-0.402943,0.866612
-21,-629,3.45508,27.0596,0,0,0,0,0,0,0,-1,1203,1653,3.45508,-27.0596
-14,-629,-0.221069,33.2972,0,0,0,0,0,0,0,-1,1210,1653,-0.22112,-33.2972
-7,-629,0.644287,33.2933,0,0,0,0,0,0,0,-1,1217,1653,0.644338,-33.2933
0,-629,1.5022,33.3615,0,0,0,0,0,0,0,-1,1224,1653,1.50219,-33.3614
7,-629,2.3783,33.1426,0.110374,-0.267067,-0.0324456,0.113143,-0.269835,-0.0851298,0.227198,0.0423663,1231,1653,2.37834,-33.1426
14,-629,3.02966,32.803,0,0,0,0,0,0,0,-1,1238,1653,3.02971,-32.803
21,-629,3.86707,32.874,0,0,0,0,0,0,0,-1,1245,1653,3.86709,-32.874
28,-629,4.82874,33.2263,0,0,0,0,0,0,0,-1,1252,1653,4.8287,-33.2263
35,-629,5.49475,33.6304,0,0,0,0,0,0,0,-1,1259,1653,5.49471,-33.6304
42,-629,6.39417,34.4274,0,0,0,0,0,0,0,-1,1266,1653,6.39416,-34.4274
49,-629,5.06677,42.0244,0.0618247,-0.0372997,0.0168707,0.0646174,-0.0400924,0.164046,0.0610044,0.0466607,1273,1653,5.06675,-42.0244
56,-629,4.86853,42.5502,0.0717993,0.00257125,0.0130483,0.074177,0.000193536,0.180246,0.0493869,0.0461074,1280,1653,4.86857,-42.5502
63,-629,4.36865,43.0624,0.0874111,0.0350398,0.0066668,0.0882464,0.0342045,0.124651,0.0513764,0.0435898,1287,1653,4.36864,-43.0623
70,-629,3.85803,43.627,0,0,0,0,0,0,0,-1,1294,1653,3.85805,-43.6269
77,-629,3.31995,44.1615,0,0,0,0,0,0,0,-1,1301,1653,3.31992,-44.1615
84,-629,-1.75708,39.6459,0,0,0,0,0,0,0,-1,1308,1653,-1.75703,-39.6458
91,-629,0.565308,40.2677,0,0,0,0,0,0,0,-1,1315,1653,0.565343,-40.2677
98,-629,1.61694,40.5743,0.220382,0.0632653,-0.0435249,0.231634,0.0520137,-0.252972,0.140335,0.04346,1322,1653,1.617,-40.5743
105,-629,2.6604,40.8417,0.234728,0.0782864,-0.036931,0.243008,0.0700064,-0.220556,0.14444,0.0478461,1329,1653,2.66042,-40.8416
112,-629,3.62927,41.108,0,0,0,0,0,0,0,-1,1336,1653,3.62924,-41.1081
119,-629,4.64648,41.4623,0,0,0,0,0,0,0,-1,1343,1653,4.64647,-41.4623
126,-629,5.76196,41.952,0,0,0,0,0,0,0,-1,1350,1653,5.76194,-41.9521
133,-629,6.16895,42.6694,0,0,0,0,0,0,0,-1,1357,1653,6.16899,-42.6694
140,-629,14.0945,38.7534,0,0,0,0,0,0,0,-1,1364,1653,14.0945,-38.7534
147,-629,18.4926,38.0448,0,0,0,0,0,0,0,-1,1371,1653,18.4926,-38.0448
154,-629,11.7258,38.2805,0,0,0,0,0,0,0,-1,1378,1653,11.7258,-38.2805
161,-629,10.5461,6.83752,0,0,0,0,0,0,0,-1,1385,1653,10.5461,-6.83758
168,-629,12.0059,5.56348,0,0,0,0,0,0,0,-1,1392,1653,12.0059,-5.56352
175,-629,5.84485,-1.78845,0,0,0,0,0,0,0,-1,1399,1653,5.84479,1.7884
182,-629,5.99036,-1.27783,0,0,0,0,0,0,0,-1,1406,1653,5.99041,1.27778
189,-629,5.97668,-0.748535,0,0,0,0,0,0,0,-1,1413,1653,5.97671,0.748544
196,-629,4.52869,9.24695,0,0,0,0,0,0,0,-1,1420,1653,4.52869,-9.2469
203,-629,3.75085,6.88037,0,0,0,0,0,0,0,-1,1427,1653,3.75087,-6.88032
210,-629,3.5907,6.52637,0,0,0,0,0,0,0,-1,1434,1653,3.59067,-6.52642
217,-629,2.4585,4.84448,0,0,0,0,0,0,0,-1,1441,1653,2.45855,-4.84448
224,-629,1.31982,3.68481,0,0,0,0,0,0,0,-1,1448,1653,1.31986,-3.68487
231,-629,3.63025,1.73499,0,0,0,0,0,0,0,-1,1455,1653,3.6303,-1.735
238,-629,4.26428,2.11255,0,0,0,0,0,0,0,-1,1462,1653,4.26429,-2.11253
245,-629,5.61816,1.95361,0,0,0,0,0,0,0,-1,1469,1653,5.61815,-1.95359
252,-629,7.27136,2.18982,0,0,0,0,0,0,0,-1,1476,1653,7.27131,-2.18985
259,-629,8.67334,2.18628,0,0,0,0,0,0,0,-1,1483,1653,8.6733,-2.18633
266,-629,6.86475,3.72058,0,0,0,0,0,0,0,-1,1490,1653,6.86479,-3.72063
273,-629,7.9021,3.8717,0,0,0,0,0,0,0,-1,1497,1653,7.90205,-3.87171
280,-629,9.70837,4.39087,0,0,0,0,0,0,0,-1,1504,1653,9.7084,-4.39082
287,-629,9.82947,7.19348,0,0,0,0,0,0,0,-1,1511,1653,9.8295,-7.19347
294,-629,6.56555,11.6359,0,0,0,0,0,0,0,-1,1518,1653,6.5656,-11.6358
301,-629,6.93835,15.6102,0,0,0,0,0,0,0,-1,1525,1653,6.93835,-15.6103
308,-629,6.08264,12.1423,0,0,0,0,0,0,0,-1,1532,1653,6.08263,-12.1423
315,-629,6.82043,18.2764,0,0,0,0,0,0,0,-1,1539,1653,6.82049,-18.2764
322,-629,10.3922,29.9829,0,0,0,0,0,0,0,-1,1546,1653,10.3922,-29.9829
329,-629,11.7097,33.2758,0,0,0,0,0,0,0,-1,1553,1653,11.7097,-33.2758
336,-629,11.7877,32.7874,0,0,0,0,0,0,0,-1,1560,1653,11.7877,-32.7874
343,-629,11.4722,32.6074,0,0,0,0,0,0,0,-1,1567,1653,11.4721,-32.6074
350,-629,11.6287,32.1046,0,0,0,0,0,0,0,-1,1574,1653,11.6286,-32.1046
357,-629,11.8301,31.7899,0,0,0,0,0,0,0,-1,1581,1653,11.8301,-31.7899
364,-629,11.7051,31.3344,0.00692269,0.0130466,-0.00472868,0.0156181,0.00435118,-1.07272,0.00930715,0.0130947,1588,1653,11.7051,-31.3344
371,-629,11.7104,31.0011,0.00631176,0.0117091,-0.0041771,0.0139835,0.00403741,-1.0722,0.00831013,0.0108906,1595,1653,11.7105,-31.0011
378,-629,11.7069,30.6461,0.00559824,0.0103495,-0.0035818,0.0122719,0.00367587,-1.07822,0.00727253,0.0102809,1602,1653,11.7069,-30.6461
385,-629,11.7183,30.2821,0.0049188,0.00866383,-0.00300476,0.0103318,0.00325085,-1.06404,0.00610015,0.0122523,1609,1653,11.7183,-30.2821
392,-629,11.7174,29.9305,0.00420499,0.00689463,-0.0023755,0.00827956,0.00282006,-1.04297,0.0048605,0.0108752,1616,1653,11.7174,-29.9305
399,-629,11.7083,29.5636,0.00338499,0.00507908,-0.00168358,0.00611668,0.00234738,-1.01847,0.00356313,0.0110614,1623,1653,11.7083,-29.5636
406,-629,11.6971,29.1591,0.00258236,0.00341277,-0.00106449,0.00414017,0.00185496,-0.971347,0.00239463,0.0145579,1630,1653,11.6971,-29.1591
413,-629,11.6722,28.7722,0.00196573,0.00182772,-0.000636048,0.0025365,0.00125694,-0.731362,0.00146447,0.0236455,1637,1653,11.6722,-28.7722
420,-629,11.637,28.4165,0.00149069,0.000388881,-0.000345883,0.00159027,0.000289301,-0.280321,0.000978115,0.0219893,1644,1653,11.6369,-28.4165
427,-629,11.6794,28.069,0.00120946,-0.00096679,-0.000156519,0.00122065,-0.00097799,-0.0714317,0.00127196,0.0140158,1651,1653,11.6794,-28.0689
434,-629,11.6866,27.6747,0.00107795,-0.00219775,-0.000146021,0.00108444,-0.00220425,-0.0444596,0.00193507,0.011357,1658,1653,11.6867,-27.6747
441,-629,11.6862,27.2794,0.00113107,-0.0032225,-0.000309301,0.00115294,-0.00324437,-0.070573,0.00263276,0.0150706,1665,1653,11.6862,-27.2794
448,-629,11.6494,26.863,0.00136029,-0.0042872,-0.000453652,0.0013965,-0.00432341,-0.0796474,0.0034435,0.0146689,1672,1653,11.6494,-26.863
455,-629,11.6307,26.4507,0.00176211,-0.00539748,-0.000617821,0.00181503,-0.0054504,-0.0854511,0.00436623,0.0142992,1679,1653,11.6307,-26.4507
462,-629,11.6294,26.0658,0.00207875,-0.00656836,-0.000675841,0.00213125,-0.00662086,-0.0775307,0.00526999,0.01676,1686,1653,11.6293,-26.0658
469,-629,11.6235,25.6404,0.00234669,-0.00786983,-0.000657326,0.00238881,-0.00791194,-0.0639879,0.00622559,0.0204741,1693,1653,11.6235,-25.6404
476,-629,11.7694,25.3051,0.00249531,-0.00936273,-0.000449604,0.00251234,-0.00937975,-0.0378431,0.00723745,0.0362814,1700,1653,11.7695,-25.3051
483,-629,11.9044,24.8553,0,0,0,0,0,0,0,-1,1707,1653,11.9044,-24.8554
490,-629,11.8282,24.2491,0,0,0,0,0,0,0,-1,1714,1653,11.8283,-24.2492
497,-629,10.3662,19.8605,0,0,0,0,0,0,0,-1,1721,1653,10.3662,-19.8605
504,-629,7.89453,15.5316,0,0,0,0,0,0,0,-1,1728,1653,7.89447,-15.5316
511,-629,6.29138,3.40295,0,0,0,0,0,0,0,-1,1735,1653,6.29137,-3.403
518,-629,5.84387,1.41858,0,0,0,0,0,0,0,-1,1742,1653,5.84391,-1.4186
525,-629,6.4729,1.02319,0,0,0,0,0,0,0,-1,1749,1653,6.47284,-1.02316
532,-629,6.86511,0.903687,0,0,0,0,0,0,0,-1,1756,1653,6.86514,-0.903691
539,-629,6.60803,0.746704,0,0,0,0,0,0,0,-1,1763,1653,6.60809,-0.746691
546,-629,0,0,0,0,0,0,0,0,0,-1,1770,1653,0,0
553,-629,0,0,0,0,0,0,0,0,0,-1,1777,1653,0,0
560,-629,0,0,0,0,0,0,0,0,0,-1,1784,1653,0,0
567,-629,0,0,0,0,0,0,0,0,0,-1,1791,1653,0,0
574,-629,0,0,0,0,0,0,0,0,0,-1,1798,1653,0,0
581,-629,0,0,0,0,0,0,0,0,0,-1,1805,1653,0,0
588,-629,0,0,0,0,0,0,0,0,0,-1,1812,1653,0,0
595,-629,0,0,0,0,0,0,0,0,0,-1,1819,1653,0,0
602,-629,0,0,0,0,0,0,0,0,0,-1,1826,1653,0,0
609,-629,0,0,0,0,0,0,0,0,0,-1,1833,1653,0,0
616,-629,0,0,0,0,0,0,0,0,0,-1,1840,1653,0,0
623,-629,0,0,0,0,0,0,0,0,0,-1,1847,1653,0,0
630,-629,0,0,0,0,0,0,0,0,0,-1,1854,1653,0,0
637,-629,0,0,0,0,0,0,0,0,0,-1,1861,1653,0,0
644,-629,0,0,0,0,0,0,0,0,0,-1,1868,1653,0,0
651,-629,0,0,0,0,0,0,0,0,0,-1,1875,1653,0,0
658,-629,0,0,0,0,0,0,0,0,0,-1,1882,1653,0,0
665,-629,0,0,0,0,0,0,0,0,0,-1,1889,1653,0,0
672,-629,0,0,0,0,0,0,0,0,0,-1,1896,1653,0,0
679,-629,0,0,0,0,0,0,0,0,0,-1,1903,1653,0,0
686,-629,0,0,0,0,0,0,0,0,0,-1,1910,1653,0,0
693,-629,0,0,0,0,0,0,0,0,0,-1,1917,1653,0,0
700,-629,0,0,0,0,0,0,0,0,0,-1,1924,1653,0,0
707,-629,0,0,0,0,0,0,0,0,0,-1,1931,1653,0,0
714,-629,0,0,0,0,0,0,0,0,0,-1,1938,1653,0,0
721,-629,0,0,0,0,0,0,0,0,0,-1,1945,1653,0,0
728,-629,0,0,0,0,0,0,0,0,0,-1,1952,1653,0,0
735,-629,0,0,0,0,0,0,0,0,0,-1,1959,1653,0,0
742,-629,0,0,0,0,0,0,0,0,0,-1,1966,1653,0,0
749,-629,0,0,0,0,0,0,0,0,0,-1,1973,1653,0,0
756,-629,0,0,0,0,0,0,0,0,0,-1,1980,1653,0,0
763,-629,0,0,0,0,0,0,0,0,0,-1,1987,1653,0,0
770,-629,0,0,0,0,0,0,0,0,0,-1,1994,1653,0,0
777,-629,0,0,0,0,0,0,0,0,0,-1,2001,1653,0,0
784,-629,0,0,0,0,0,0,0,0,0,-1,2008,1653,0,0
791,-629,0,0,0,0,0,0,0,0,0,-1,2015,1653,0,0
798,-629,0,0,0,0,0,0,0,0,0,-1,2022,1653,0,0
805,-629,0,0,0,0,0,0,0,0,0,-1,2029,1653,0,0
812,-629,0,0,0,0,0,0,0,0,0,-1,2036,1653,0,0
-700,-636,0,0,0,0,0,0,0,0,0,-1,524,1660,0,0
-693,-636,0,0,0,0,0,0,0,0,0,-1,531,1660,0,0
-686,-636,0,0,0,0,0,0,0,0,0,-1,538,1660,0,0
-679,-636,0,0,0,0,0,0,0,0,0,-1,545,1660,0,0
-672,-636,0,0,0,0,0,0,0,0,0,-1,552,1660,0,0
-665,-636,0,0,0,0,0,0,0,0,0,-1,559,1660,0,0
-658,-636,0,0,0,0,0,0,0,0,0,-1,566,1660,0,0
-651,-636,0,0,0,0,0,0,0,0,0,-1,573,1660,0,0
-644,-636,0,0,0,0,0,0,0,0,0,-1,580,1660,0,0
-637,-636,0,0,0,0,0,0,0,0,0,-1,587,1660,0,0
-630,-636,0,0,0,0,0,0,0,0,0,-1,594,1660,0,0
-623,-636,0,0,0,0,0,0,0,0,0,-1,601,1660,0,0
-616,-636,0,0,0,0,0,0,0,0,0,-1,608,1660,0,0
-609,-636,0,0,0,0,0,0,0,0,0,-1,615,1660,0,0
-602,-636,0,0,0,0,0,0,0,0,0,-1,622,1660,0,0
-595,-636,0,0,0,0,0,0,0,0,0,-1,629,1660,0,0
-588,-636,0,0,0,0,0,0,0,0,0,-1,636,1660,0,0
-581,-636,0,0,0,0,0,0,0,0,0,-1,643,1660,0,0
-574,-636,0,0,0,0,0,0,0,0,0,-1,650,1660,0,0
-567,-636,0,0,0,0,0,0,0,0,0,-1,657,1660,0,0
-560,-636,0,0,0,0,0,0,0,0,0,-1,664,1660,0,0
-553,-636,0,0,0,0,0,0,0,0,0,-1,671,1660,0,0
-546,-636,0,0,0,0,0,0,0,0,0,-1,678,1660,0,0
-539,-636,0,0,0,0,0,0,0,0,0,-1,685,1660,0,0
-532,-636,0,0,0,0,0,0,0,0,0,-1,692,1660,0,0
-525,-636,0,0,0,0,0,0,0,0,0,-1,699,1660,0,0
-518,-636,0,0,0,0,0,0,0,0,0,-1,706,1660,0,0
-511,-636,0,0,0,0,0,0,0,0,0,-1,713,1660,0,0
-504,-636,0,0,0,0,0,0,0,0,0,-1,720,1660,0,0
-497,-636,0,0,0,0,0,0,0,0,0,-1,727,1660,0,0
-490,-636,0,0,0,0,0,0,0,0,0,-1,734,1660,0,0
-483,-636,0,0,0,0,0,0,0,0,0,-1,741,1660,0,0
-476,-636,0,0,0,0,0,0,0,0,0,-1,748,1660,0,0
-469,-636,0,0,0,0,0,0,0,0,0,-1,755,1660,0,0
-462,-636,0,0,0,0,0,0,0,0,0,-1,762,1660,0,0
-455,-636,0,0,0,0,0,0,0,0,0,-1,769,1660,0,0
-448,-636,0,0,0,0,0,0,0,0,0,-1,776,1660,0,0
-441,-636,0,0,0,0,0,0,0,0,0,-1,783,1660,0,0
-434,-636,0,0,0,0,0,0,0,0,0,-1,790,1660,0,0
-427,-636,0,0,0,0,0,0,0,0,0,-1,797,1660,0,0
-420,-636,0,0,0,0,0,0,0,0,0,-1,804,1660,0,0
-413,-636,0,0,0,0,0,0,0,0,0,-1,811,1660,0,0
-406,-636,-0.591125,10.6943,0,0,0,0,0,0,0,-1,818,1660,-0.59115,-10.6943
-399,-636,0.0766602,11.2408,0,0,0,0,0,0,0,-1,825,1660,0.076685,-11.2409
-392,-636,0.75946,11.9233,0,0,0,0,0,0,0,-1,832,1660,0.759481,-11.9233
-385,-636,1.68878,12.517,0,0,0,0,0,0,0,-1,839,1660,1.6888,-12.5169
-378,-636,2.22107,13.0013,0,0,0,0,0,0,0,-1,846,1660,2.22107,-13.0014
-371,-636,2.52185,11.9684,0,0,0,0,0,0,0,-1,853,1660,2.52184,-11.9684
-364,-636,4.51947,14.8503,0,0,0,0,0,0,0,-1,860,1660,4.51949,-14.8504
-357,-636,4.55682,15.8809,0,0,0,0,0,0,0,-1,867,1660,4.55681,-15.8808
-350,-636,2.63104,14.4946,0,0,0,0,0,0,0,-1,874,1660,2.63102,-14.4946
-343,-636,4.5307,24.5419,0,0,0,0,0,0,0,-1,881,1660,4.53071,-24.5419
-336,-636,4.41431,24.8389,0.00615488,-0.0196941,0.00550211,0.0072773,-0.0208165,0.201237,0.0168361,0.0327169,888,1660,4.41428,-24.8389
-329,-636,4.39136,25.2911,0.00550547,-0.0172095,0.00459103,0.00639829,-0.0181023,0.192074,0.0146735,0.019774,895,1660,4.39136,-25.2911
-322,-636,4.36401,25.7523,0.00474383,-0.0148615,0.00376259,0.00544113,-0.0155588,0.183246,0.0125847,0.0123616,902,1660,4.36401,-25.7523
-315,-636,4.31122,26.1848,0.00408921,-0.0124388,0.00297229,0.00460748,-0.012957,0.17263,0.0105159,0.0127534,909,1660,4.31122,-26.1848
-308,-636,4.30835,26.6279,0.00335009,-0.00994289,0.00217345,0.00369644,-0.0102892,0.158023,0.00836834,0.0110967,916,1660,4.30836,-26.6279
-301,-636,4.30927,27.0867,0.00270444,-0.00763073,0.00160264,0.00294725,-0.00787354,0.150363,0.00645959,0.0113697,923,1660,4.30929,-27.0866
-294,-636,4.28149,27.5352,0.00227958,-0.00568003,0.00116084,0.00244542,-0.00584587,0.141905,0.00491935,0.0145869,930,1660,4.28148,-27.5351
-287,-636,4.27209,27.8998,0.00198355,-0.00397752,0.000857565,0.00210447,-0.00409843,0.140077,0.0036424,0.0133194,937,1660,4.27207,-27.8998
-280,-636,4.26141,28.2792,0.00180231,-0.00258918,0.000623218,0.00188904,-0.00267591,0.138278,0.0026486,0.0125491,944,1660,4.26141,-28.2792
-273,-636,4.24945,28.6509,0.00176782,-0.00142784,0.000458193,0.00183222,-0.00149224,0.139633,0.00192272,0.0123152,951,1660,4.24944,-28.6509
-266,-636,4.24042,29.0632,0.00183262,-0.000241656,0.000340629,0.00188712,-0.000296161,0.158666,0.00136753,0.0140046,958,1660,4.24044,-29.0632
-259,-636,4.2323,29.5116,0.00211682,0.000580398,0.000404232,0.00221668,0.000480535,0.242193,0.0013465,0.0161413,965,1660,4.23228,-29.5116
-252,-636,4.22675,29.8662,0.00254154,0.00118124,0.000522678,0.00271918,0.00100361,0.32761,0.00158775,0.0120908,972,1660,4.22675,-29.8662
-245,-636,4.2392,30.248,0.00306362,0.00163505,0.000621095,0.00329589,0.00140278,0.357863,0.00190989,0.010396,979,1660,4.23921,-30.2481
-238,-636,4.25452,30.6265,0.00370165,0.00201245,0.000686954,0.00394575,0.00176836,0.341413,0.00228215,0.0114483,986,1660,4.25453,-30.6265
-231,-636,4.25812,31.0001,0.00445482,0.00222294,0.00082714,0.00472794,0.00194982,0.318924,0.0027436,0.0113522,993,1660,4.25814,-31.0001
-224,-636,4.26263,31.3522,0.00486997,0.00287697,0.00100491,0.00528869,0.00245825,0.394799,0.00305595,0.0102008,1000,1660,4.26266,-31.3522
-217,-636,4.24841,31.7646,0.0052445,0.00336899,0.00122746,0.00585143,0.00276207,0.459203,0.00338008,0.0182432,1007,1660,4.24841,-31.7646
-210,-636,4.23145,32.1305,0.00596728,0.00383191,0.00141052,0.00666864,0.00313055,0.461433,0.00385254,0.030789,1014,1660,4.23145,-32.1305
-203,-636,4.2876,32.5519,0.0065873,0.00456023,0.00150131,0.00738517,0.00376236,0.48849,0.00426409,0.0359296,1021,1660,4.28758,-32.5519
-196,-636,4.43115,32.8057,0.0069011,0.00545269,0.00182653,0.00814176,0.00421203,0.596659,0.00470159,0.036395,1028,1660,4.43113,-32.8057
-189,-636,4.45874,33.0457,0.00709819,0.00689859,0.00216586,0.00916655,0.00483023,0.762376,0.00529487,0.0327791,1035,1660,4.45877,-33.0457
-182,-636,4.60864,33.2617,0.00758623,0.00823272,0.00248196,0.0104124,0.00540655,0.850153,0.00601308,0.0464089,1042,1660,4.60863,-33.2617
-175,-636,4.70337,33.427,0,0,0,0,0,0,0,-1,1049,1660,4.70332,-33.427
-168,-636,4.29382,34.5049,0,0,0,0,0,0,0,-1,1056,1660,4.2938,-34.5049
-161,-636,3.77014,34.6067,0,0,0,0,0,0,0,-1,1063,1660,3.77017,-34.6066
-154,-636,4.71057,34.7389,0,0,0,0,0,0,0,-1,1070,1660,4.71054,-34.7389
-147,-636,4.32129,31.4845,0,0,0,0,0,0,0,-1,1077,1660,4.32127,-31.4845
-140,-636,3.4729,27.1271,0,0,0,0,0,0,0,-1,1084,1660,3.47287,-27.1271
-133,-636,4.68311,18.0922,0,0,0,0,0,0,0,-1,1091,1660,4.68316,-18.0921
-126,-636,3.79028,18.2225,0,0,0,0,0,0,0,-1,1098,1660,3.79025,-18.2226
-119,-636,1.8667,13.8916,0,0,0,0,0,0,0,-1,1105,1660,1.86668,-13.8916
-112,-636,-1.24963,9.7998,0,0,0,0,0,0,0,-1,1112,1660,-1.24968,-9.79978
-105,-636,3.51624,4.72791,0,0,0,0,0,0,0,-1,1119,1660,3.51618,-4.7279
-98,-636,1.54504,5.11914,0,0,0,0,0,0,0,-1,1126,1660,1.54503,-5.11912
-91,-636,-1.87964,-2.25012,0,0,0,0,0,0,0,-1,1133,1660,-1.87966,2.25016
-84,-636,-2.84143,0.133667,0,0,0,0,0,0,0,-1,1140,1660,-2.84144,-0.133701
-77,-636,-3.57349,2.45935,0,0,0,0,0,0,0,-1,1147,1660,-3.57345,-2.45939
-70,-636,-4.23682,4.82312,0,0,0,0,0,0,0,-1,1154,1660,-4.23681,-4.82307
-63,-636,-2.21033,6.97168,0,0,0,0,0,0,0,-1,1161,1660,-2.21034,-6.97165
-56,-636,-2.51917,8.80359,0,0,0,0,0,0,0,-1,1168,1660,-2.51916,-8.80361
-49,-636,-3.13,10.4113,0,0,0,0,0,0,0,-1,1175,1660,-3.12996,-10.4112
-42,-636,-2.27771,4.90173,0,0,0,0,0,0,0,-1,1182,1660,-2.27775,-4.90173
-35,-636,-2.27698,5.89685,0,0,0,0,0,0,0,-1,1189,1660,-2.27695,-5.89686
-28,-636,-1.70654,4.83936,0,0,0,0,0,0,0,-1,1196,1660,-1.70656,-4.8393
-21,-636,4.24683,27.7834,0,0,0,0,0,0,0,-1,1203,1660,4.24687,-27.7835
-14,-636,8.75024,41.4883,0,0,0,0,0,0,0,-1,1210,1660,8.75021,-41.4883
-7,-636,6.68604,35.7554,0,0,0,0,0,0,0,-1,1217,1660,6.68605,-35.7554
0,-636,6.92627,35.8455,0,0,0,0,0,0,0,-1,1224,1660,6.92626,-35.8454
7,-636,3.58142,34.7039,0,0,0,0,0,0,0,-1,1231,1660,3.58139,-34.7039
14,-636,4.36292,34.6359,0,0,0,0,0,0,0,-1,1238,1660,4.36297,-34.6359
21,-636,5.28381,34.8728,0,0,0,0,0,0,0,-1,1245,1660,5.28386,-34.8728
28,-636,6.07739,35.1508,0.0505241,-0.105539,0.0224534,0.0536904,-0.108705,0.14009,0.0955355,0.0483493,1252,1660,6.07736,-35.1507
35,-636,6.73669,35.6563,0,0,0,0,0,0,0,-1,1259,1660,6.73665,-35.6563
42,-636,7.6228,36.42,0,0,0,0,0,0,0,-1,1266,1660,7.62278,-36.4201
49,-636,4.79163,41.7917,0.046374,0.00854071,0.0239923,0.0580101,-0.00309538,0.45157,0.0397454,0.0456653,1273,1660,4.79166,-41.7917
56,-636,4.28662,42.1002,0.0540527,0.0401106,0.0177547,0.0661558,0.0280075,0.598328,0.0383444,0.0449382,1280,1660,4.28657,-42.1002
63,-636,3.66138,42.5299,0.0663521,0.0635917,0.00961018,0.0746807,0.0552631,0.714077,0.0447419,0.0437695,1287,1660,3.66142,-42.5299
70,-636,3.04382,43.0066,0,0,0,0,0,0,0,-1,1294,1660,3.04388,-43.0066
77,-636,-2.74609,38.7081,0.108563,0.0819789,-0.0195925,0.118947,0.0715951,-0.487349,0.0691477,0.0485647,1301,1660,-2.74614,-38.7081
84,-636,-1.42163,39.2725,0.129824,0.0848163,-0.0291948,0.144182,0.0704588,-0.457052,0.0832504,0.0444353,1308,1660,-1.42164,-39.2724
91,-636,0.304199,39.6204,0.150797,0.0773308,-0.0388026,0.167496,0.0606321,-0.406393,0.0979241,0.0407682,1315,1660,0.304184,-39.6203
98,-636,1.93066,40.0795,0.169251,0.0692587,-0.0413128,0.184111,0.0543984,-0.345292,0.109221,0.0435389,1322,1660,1.93068,-40.0794
105,-636,3.1687,40.3157,0.18188,0.0717193,-0.037887,0.193652,0.059947,-0.301262,0.114476,0.0475738,1329,1660,3.16875,-40.3157
112,-636,4.13159,40.5682,0,0,0,0,0,0,0,-1,1336,1660,4.13154,-40.5682
119,-636,5.81348,39.4685,0,0,0,0,0,0,0,-1,1343,1660,5.81345,-39.4685
126,-636,6.08777,41.4921,0,0,0,0,0,0,0,-1,1350,1660,6.08777,-41.4921
133,-636,6.54395,42.1558,0,0,0,0,0,0,0,-1,1357,1660,6.54399,-42.1557
140,-636,7.27832,42.5698,0,0,0,0,0,0,0,-1,1364,1660,7.27827,-42.5698
147,-636,17.6116,39.1437,0,0,0,0,0,0,0,-1,1371,1660,17.6115,-39.1437
154,-636,19.6548,40.0386,0,0,0,0,0,0,0,-1,1378,1660,19.6548,-40.0385
161,-636,10.2961,7.13025,0,0,0,0,0,0,0,-1,1385,1660,10.2961,-7.13021
168,-636,11.7659,5.83899,0,0,0,0,0,0,0,-1,1392,1660,11.7658,-5.83899
175,-636,5.94592,-1.72888,0,0,0,0,0,0,0,-1,1399,1660,5.94598,1.72886
182,-636,5.93994,-1.11938,0,0,0,0,0,0,0,-1,1406,1660,5.93998,1.11936
189,-636,5.32544,11.9595,0,0,0,0,0,0,0,-1,1413,1660,5.32542,-11.9595
196,-636,5.3623,9.38025,0,0,0,0,0,0,0,-1,1420,1660,5.36225,-9.38027
203,-636,5.18542,9.02429,0,0,0,0,0,0,0,-1,1427,1660,5.18547,-9.0243
210,-636,4.09167,7.17041,0,0,0,0,0,0,0,-1,1434,1660,4.09173,-7.17041
217,-636,2.94897,5.28992,0,0,0,0,0,0,0,-1,1441,1660,2.94899,-5.28991
224,-636,1.49194,3.63916,0,0,0,0,0,0,0,-1,1448,1660,1.49197,-3.63918
231,-636,0.17749,2.24854,0,0,0,0,0,0,0,-1,1455,1660,0.177501,-2.24855
238,-636,-0.764648,1.00598,0,0,0,0,0,0,0,-1,1462,1660,-0.764704,-1.00595
245,-636,6.21204,1.18005,0,0,0,0,0,0,0,-1,1469,1660,6.21206,-1.18001
252,-636,7.70251,0.865723,0,0,0,0,0,0,0,-1,1476,1660,7.7025,-0.865692
259,-636,9.03601,0.787231,0,0,0,0,0,0,0,-1,1483,1660,9.03598,-0.787243
266,-636,10.1071,3.24109,0,0,0,0,0,0,0,-1,1490,1660,10.1071,-3.24103
273,-636,8.48535,5.02466,0,0,0,0,0,0,0,-1,1497,1660,8.48533,-5.02472
280,-636,11.908,32.0698,0,0,0,0,0,0,0,-1,1504,1660,11.9079,-32.0698
287,-636,10.3539,35.6544,0,0,0,0,0,0,0,-1,1511,1660,10.3538,-35.6544
294,-636,10.2601,35.062,0,0,0,0,0,0,0,-1,1518,1660,10.2602,-35.0621
301,-636,8.25903,23.0582,0,0,0,0,0,0,0,-1,1525,1660,8.25903,-23.0583
308,-636,10.7106,34.6556,0,0,0,0,0,0,0,-1,1532,1660,10.7106,-34.6556
315,-636,11.0702,34.0986,0,0,0,0,0,0,0,-1,1539,1660,11.0702,-34.0987
322,-636,11.1362,33.1492,0,0,0,0,0,0,0,-1,1546,1660,11.1363,-33.1491
329,-636,11.3535,32.9883,0.00945044,0.0151862,-0.00601159,0.018979,0.00565769,-1.00796,0.0112513,0.037,1553,1660,11.3535,-32.9882
336,-636,11.3824,32.6685,0.0077578,0.0138169,-0.0053094,0.0169003,0.00467442,-1.04466,0.0100768,0.0280208,1560,1660,11.3824,-32.6685
343,-636,11.3037,32.4503,0.00675901,0.0115744,-0.00456436,0.0143271,0.00400623,-1.0281,0.00853539,0.0242096,1567,1660,11.3037,-32.4503
350,-636,11.2805,32.0614,0.0059062,0.010573,-0.00382351,0.0127189,0.00376032,-1.05937,0.00754493,0.0127629,1574,1660,11.2805,-32.0614
357,-636,11.3394,31.6807,0.00534621,0.010037,-0.00364641,0.0120272,0.00335604,-1.07119,0.00716637,0.0102029,1581,1660,11.3393,-31.6807
364,-636,11.3467,31.3456,0.00477532,0.00907473,-0.00322588,0.0108016,0.00304849,-1.07931,0.00643044,0.0102277,1588,1660,11.3467,-31.3456
371,-636,11.3474,31.0098,0.00427827,0.00806982,-0.00285419,0.00960047,0.00274762,-1.07855,0.00570925,0.00900683,1595,1660,11.3474,-31.0098
378,-636,11.3448,30.6565,0.00380605,0.00702883,-0.00247456,0.00837041,0.00246447,-1.074,0.00496695,0.00971648,1602,1660,11.3449,-30.6565
385,-636,11.366,30.2887,0.00335771,0.00568724,-0.00206377,0.00689225,0.0021527,-1.04231,0.0040716,0.0148367,1609,1660,11.366,-30.2887
392,-636,11.3649,29.9216,0.00286536,0.00416724,-0.00159141,0.00523569,0.00179691,-0.979533,0.00307197,0.0164759,1616,1660,11.3648,-29.9216
399,-636,11.3467,29.5737,0.00224336,0.00259187,-0.00104874,0.00348073,0.0013545,-0.867726,0.002026,0.0125741,1623,1660,11.3466,-29.5738
406,-636,11.343,29.2214,0.00167376,0.00110944,-0.000558837,0.00201763,0.00076557,-0.551616,0.00117611,0.0146639,1630,1660,11.343,-29.2214
413,-636,11.3253,28.8215,0.0013044,-0.000377476,-0.000233331,0.00133617,-0.000409247,-0.135328,0.00105402,0.0230181,1637,1660,11.3253,-28.8215
420,-636,11.2808,28.4584,0.00102189,-0.00168984,-3.48897e-05,0.00102233,-0.00169029,-0.0128634,0.00158188,0.0231198,1644,1660,11.2808,-28.4584
427,-636,11.3054,28.0931,0.000924541,-0.00295294,5.69827e-05,0.000925378,-0.00295378,0.0146916,0.00233947,0.0143359,1651,1660,11.3054,-28.0931
434,-636,11.2932,27.6943,0.000937765,-0.00413669,-7.26082e-06,0.000937775,-0.0041367,-0.00143085,0.00311776,0.0123516,1658,1660,11.2932,-27.6943
441,-636,11.3,27.2755,0.00111579,-0.00521613,-0.000224516,0.00112375,-0.00522409,-0.0353985,0.00391149,0.0126303,1665,1660,11.3001,-27.2756
448,-636,11.2886,26.8854,0.00155072,-0.00638926,-0.000422119,0.0015731,-0.00641164,-0.0529647,0.00488398,0.0149318,1672,1660,11.2886,-26.8854
455,-636,11.2382,26.5114,0.00211034,-0.00766348,-0.000600662,0.00214712,-0.00770026,-0.0611495,0.00597913,0.0155399,1679,1660,11.2382,-26.5114
462,-636,11.2356,26.093,0.00257505,-0.00894201,-0.000727418,0.00262081,-0.00898778,-0.0628273,0.00703022,0.0195219,1686,1660,11.2355,-26.0931
469,-636,11.2556,25.6307,0.00297604,-0.0104554,-0.000737426,0.00301641,-0.0104957,-0.0546841,0.00818992,0.0311902,1693,1660,11.2557,-25.6307
476,-636,11.4038,25.3075,0,0,0,0,0,0,0,-1,1700,1660,11.4037,-25.3076
483,-636,11.3833,24.3958,0,0,0,0,0,0,0,-1,1707,1660,11.3833,-24.3957
490,-636,10.8951,23.9569,0,0,0,0,0,0,0,-1,1714,1660,10.8951,-23.9569
497,-636,9.55579,18.0111,0,0,0,0,0,0,0,-1,1721,1660,9.55574,-18.0111
504,-636,6.26428,19.4268,0,0,0,0,0,0,0,-1,1728,1660,6.26433,-19.4268
511,-636,5.65466,9.23218,0,0,0,0,0,0,0,-1,1735,1660,5.65461,-9.23216
518,-636,6.72791,1.07605,0,0,0,0,0,0,0,-1,1742,1660,6.7279,-1.0761
525,-636,7.04309,0.93335,0,0,0,0,0,0,0,-1,1749,1660,7.04308,-0.933298
532,-636,0,0,0,0,0,0,0,0,0,-1,1756,1660,0,0
539,-636,0,0,0,0,0,0,0,0,0,-1,1763,1660,0,0
546,-636,0,0,0,0,0,0,0,0,0,-1,1770,1660,0,0
553,-636,0,0,0,0,0,0,0,0,0,-1,1777,1660,0,0
560,-636,0,0,0,0,0,0,0,0,0,-1,1784,1660,0,0
567,-636,0,0,0,0,0,0,0,0,0,-1,1791,1660,0,0
574,-636,0,0,0,0,0,0,0,0,0,-1,1798,1660,0,0
581,-636,0,0,0,0,0,0,0,0,0,-1,1805,1660,0,0
588,-636,0,0,0,0,0,0,0,0,0,-1,1812,1660,0,0
595,-636,0,0,0,0,0,0,0,0,0,-1,1819,1660,0,0
602,-636,0,0,0,0,0,0,0,0,0,-1,1826,1660,0,0
609,-636,0,0,0,0,0,0,0,0,0,-1,1833,1660,0,0
616,-636,0,0,0,0,0,0,0,0,0,-1,1840,1660,0,0
623,-636,0,0,0,0,0,0,0,0,0,-1,1847,1660,0,0
630,-636,0,0,0,0,0,0,0,0,0,-1,1854,1660,0,0
637,-636,0,0,0,0,0,0,0,0,0,-1,1861,1660,0,0
644,-636,0,0,0,0,0,0,0,0,0,-1,1868,1660,0,0
651,-636,0,0,0,0,0,0,0,0,0,-1,1875,1660,0,0
658,-636,0,0,0,0,0,0,0,0,0,-1,1882,1660,0,0
665,-636,0,0,0,0,0,0,0,0,0,-1,1889,1660,0,0
672,-636,0,0,0,0,0,0,0,0,0,-1,1896,1660,0,0
679,-636,0,0,0,0,0,0,0,0,0,-1,1903,1660,0,0
686,-636,0,0,0,0,0,0,0,0,0,-1,1910,1660,0,0
693,-636,0,0,0,0,0,0,0,0,0,-1,1917,1660,0,0
700,-636,0,0,0,0,0,0,0,0,0,-1,1924,1660,0,0
707,-636,0,0,0,0,0,0,0,0,0,-1,1931,1660,0,0
714,-636,0,0,0,0,0,0,0,0,0,-1,1938,1660,0,0
721,-636,0,0,0,0,0,0,0,0,0,-1,1945,1660,0,0
728,-636,0,0,0,0,0,0,0,0,0,-1,1952,1660,0,0
735,-636,0,0,0,0,0,0,0,0,0,-1,1959,1660,0,0
742,-636,0,0,0,0,0,0,0,0,0,-1,1966,1660,0,0
749,-636,0,0,0,0,0,0,0,0,0,-1,1973,1660,0,0
756,-636,0,0,0,0,0,0,0,0,0,-1,1980,1660,0,0
763,-636,0,0,0,0,0,0,0,0,0,-1,1987,1660,0,0
770,-636,0,0,0,0,0,0,0,0,0,-1,1994,1660,0,0
777,-636,0,0,0,0,0,0,0,0,0,-1,2001,1660,0,0
784,-636,0,0,0,0,0,0,0,0,0,-1,2008,1660,0,0
791,-636,0,0,0,0,0,0,0,0,0,-1,2015,1660,0,0
798,-636,0,0,0,0,0,0,0,0,0,-1,2022,1660,0,0
805,-636,0,0,0,0,0,0,0,0,0,-1,2029,1660,0,0
812,-636,0,0,0,0,0,0,0,0,0,-1,2036,1660,0,0
-700,-643,0,0,0,0,0,0,0,0,0,-1,524,1667,0,0
-693,-643,0,0,0,0,0,0,0,0,0,-1,531,1667,0,0
-686,-643,0,0,0,0,0,0,0,0,0,-1,538,1667,0,0
-679,-643,0,0,0,0,0,0,0,0,0,-1,545,1667,0,0
-672,-643,0,0,0,0,0,0,0,0,0,-1,552,1667,0,0
-665,-643,0,0,0,0,0,0,0,0,0,-1,559,1667,0,0
-658,-643,0,0,0,0,0,0,0,0,0,-1,566,1667,0,0
-651,-643,0,0,0,0,0,0,0,0,0,-1,573,1667,0,0
-644,-643,0,0,0,0,0,0,0,0,0,-1,580,1667,0,0
-637,-643,0,0,0,0,0,0,0,0,0,-1,587,1667,0,0
-630,-643,0,0,0,0,0,0,0,0,0,-1,594,1667,0,0
-623,-643,0,0,0,0,0,0,0,0,0,-1,601,1667,0,0
-616,-643,0,0,0,0,0,0,0,0,0,-1,608,1667,0,0
-609,-643,0,0,0,0,0,0,0,0,0,-1,615,1667,0,0
-602,-643,0,0,0,0,0,0,0,0,0,-1,622,1667,0,0
-595,-643,0,0,0,0,0,0,0,0,0,-1,629,1667,0,0
-588,-643,0,0,0,0,0,0,0,0,0,-1,636,1667,0,0
-581,-643,0,0,0,0,0,0,0,0,0,-1,643,1667,0,0
-574,-643,0,0,0,0,0,0,0,0,0,-1,650,1667,0,0
-567,-643,0,0,0,0,0,0,0,0,0,-1,657,1667,0,0
-560,-643,0,0,0,0,0,0,0,0,0,-1,664,1667,0,0
-553,-643,0,0,0,0,0,0,0,0,0,-1,671,1667,0,0
-546,-643,0,0,0,0,0,0,0,0,0,-1,678,1667,0,0
-539,-643,0,0,0,0,0,0,0,0,0,-1,685,1667,0,0
-532,-643,0,0,0,0,0,0,0,0,0,-1,692,1667,0,0
-525,-643,0,0,0,0,0,0,0,0,0,-1,699,1667,0,0
-518,-643,0,0,0,0,0,0,0,0,0,-1,706,1667,0,0
-511,-643,0,0,0,0,0,0,0,0,0,-1,713,1667,0,0
-504,-643,0,0,0,0,0,0,0,0,0,-1,720,1667,0,0
-497,-643,0,0,0,0,0,0,0,0,0,-1,727,1667,0,0
-490,-643,0,0,0,0,0,0,0,0,0,-1,734,1667,0,0
-483,-643,0,0,0,0,0,0,0,0,0,-1,741,1667,0,0
-476,-643,0,0,0,0,0,0,0,0,0,-1,748,1667,0,0
-469,-643,0,0,0,0,0,0,0,0,0,-1,755,1667,0,0
-462,-643,0,0,0,0,0,0,0,0,0,-1,762,1667,0,0
-455,-643,0,0,0,0,0,0,0,0,0,-1,769,1667,0,0
-448,-643,0,0,0,0,0,0,0,0,0,-1,776,1667,0,0
-441,-643,0,0,0,0,0,0,0,0,0,-1,783,1667,0,0
-434,-643,0,0,0,0,0,0,0,0,0,-1,790,1667,0,0
-427,-643,0,0,0,0,0,0,0,0,0,-1,797,1667,0,0
-420,-643,0,0,0,0,0,0,0,0,0,-1,804,1667,0,0
-413,-643,0,0,0,0,0,0,0,0,0,-1,811,1667,0,0
-406,-643,0,0,0,0,0,0,0,0,0,-1,818,1667,0,0
-399,-643,0.589417,11.6465,0,0,0,0,0,0,0,-1,825,1667,0.58939,-11.6465
-392,-643,0.865295,12.6523,0,0,0,0,0,0,0,-1,832,1667,0.865315,-12.6523
-385,-643,1.72968,13.2692,0,0,0,0,0,0,0,-1,839,1667,1.72967,-13.2692
-378,-643,2.66522,13.8193,0,0,0,0,0,0,0,-1,846,1667,2.66524,-13.8193
-371,-643,0.466125,3.35095,0,0,0,0,0,0,0,-1,853,1667,0.466148,-3.351
-364,-643,1.69513,9.922,0,0,0,0,0,0,0,-1,860,1667,1.69511,-9.92205
-357,-643,1.14227,10.8429,0,0,0,0,0,0,0,-1,867,1667,1.14228,-10.8429
-350,-643,2.50061,9.96948,0,0,0,0,0,0,0,-1,874,1667,2.50059,-9.96954
-343,-643,2.61505,6.17407,0,0,0,0,0,0,0,-1,881,1667,2.61504,-6.17412
-336,-643,4.8338,24.8575,0,0,0,0,0,0,0,-1,888,1667,4.83379,-24.8575
-329,-643,4.63196,25.1987,0.0084414,-0.0256735,0.00599067,0.00946279,-0.0266949,0.168874,0.0216515,0.0419147,895,1667,4.63197,-25.1987
-322,-643,4.76569,25.7859,0.00711635,-0.022035,0.00485096,0.00790239,-0.022821,0.160641,0.018422,0.0286075,902,1667,4.7657,-25.7858
-315,-643,4.70996,26.2423,0.00602161,-0.0183965,0.0037696,0.0065903,-0.0189652,0.149735,0.0153202,0.0179769,909,1667,4.70995,-26.2424
-308,-643,4.72748,26.6348,0.00479858,-0.0147828,0.00269933,0.00516387,-0.0151481,0.13451,0.0121902,0.0126178,916,1667,4.7275,-26.6347
-301,-643,4.7298,27.0647,0.00365495,-0.011476,0.00192995,0.00389724,-0.0117183,0.124886,0.00938498,0.0134057,923,1667,4.72979,-27.0647
-294,-643,4.69403,27.4772,0.00279005,-0.00864654,0.00132006,0.00294044,-0.00879693,0.113437,0.00705216,0.0129447,930,1667,4.69404,-27.4771
-287,-643,4.67822,27.8665,0.00214172,-0.00630497,0.00088505,0.00223346,-0.00639671,0.103286,0.00517228,0.0113685,937,1667,4.67822,-27.8664
-280,-643,4.66016,28.2867,0.00164837,-0.00440178,0.000558002,0.0016994,-0.00445281,0.0912044,0.00366864,0.0146285,944,1667,4.66015,-28.2868
-273,-643,4.64227,28.6787,0.00134839,-0.00285042,0.000308155,0.00137089,-0.00287292,0.0728706,0.00250079,0.0125148,951,1667,4.64225,-28.6787
-266,-643,4.63159,29.0831,0.00116801,-0.00117036,9.83063e-05,0.00117214,-0.00117448,0.0419419,0.00135482,0.0124896,958,1667,4.63159,-29.0831
-259,-643,4.63391,29.5002,0.00126361,-6.79743e-05,0.000129291,0.00127604,-8.04119e-05,0.0959027,0.000878727,0.0121869,965,1667,4.63393,-29.5002
-252,-643,4.62219,29.8801,0.00153629,0.000675288,0.000264585,0.0016111,0.000600481,0.275542,0.000940162,0.0133235,972,1667,4.62217,-29.8802
-245,-643,4.61761,30.2612,0.00197813,0.00113958,0.000366638,0.00211582,0.00100188,0.359261,0.00122214,0.0117087,979,1667,4.61764,-30.2613
-238,-643,4.66779,30.6212,0.00247301,0.00155881,0.00042324,0.00263886,0.00139296,0.373479,0.00152434,0.013716,986,1667,4.66776,-30.6212
-231,-643,4.64032,31.0123,0.00311028,0.00177713,0.000598075,0.00333925,0.00154815,0.365643,0.00192962,0.0107015,993,1667,4.64031,-31.0123
-224,-643,4.63013,31.3474,0.00358985,0.00232972,0.000798394,0.00397685,0.00194273,0.451348,0.00229624,0.0095916,1000,1667,4.63013,-31.3474
-217,-643,4.6156,31.6647,0.00398183,0.00278323,0.000969402,0.00452222,0.00224283,0.508544,0.00261094,0.00878603,1007,1667,4.6156,-31.6647
-210,-643,4.60028,32.0332,0.00456321,0.0032013,0.00111175,0.00518598,0.00257853,0.510617,0.00299414,0.0121276,1014,1667,4.60027,-32.0332
-203,-643,4.60706,32.4604,0.00509867,0.00374271,0.00120348,0.005802,0.00303939,0.52888,0.00335106,0.0163739,1021,1667,4.60701,-32.4605
-196,-643,4.62927,32.8093,0.00542239,0.0043538,0.00146176,0.00644444,0.00333175,0.610184,0.00372142,0.0163461,1028,1667,4.62929,-32.8093
-189,-643,4.74109,33.088,0.00562663,0.00544515,0.0017363,0.00727456,0.00379723,0.759292,0.00420132,0.0154638,1035,1667,4.74114,-33.088
-182,-643,4.81775,33.4253,0.00598813,0.00682731,0.00199914,0.00845043,0.00436502,0.888839,0.00487975,0.0221822,1042,1667,4.81777,-33.4253
-175,-643,4.9187,33.9247,0.00626661,0.00953445,0.00241189,0.0108138,0.0049873,1.08311,0.00624959,0.0354571,1049,1667,4.91873,-33.9247
-168,-643,4.85291,34.1257,0.00636067,0.0125108,0.00278954,0.0135876,0.00528392,1.20242,0.0079091,0.0430649,1056,1667,4.85286,-34.1257
-161,-643,4.81848,34.3887,0.00653425,0.0165354,0.00336956,0.0175647,0.00550493,1.27432,0.0103737,0.04608,1063,1667,4.81844,-34.3887
-154,-643,4.85498,34.6646,0.00647694,0.0218069,0.00385854,0.0227233,0.00556053,1.33761,0.0136774,0.0489018,1070,1667,4.85503,-34.6645
-147,-643,4.78894,35.0634,0,0,0,0,0,0,0,-1,1077,1667,4.78889,-35.0633
-140,-643,4.30322,22.9166,0,0,0,0,0,0,0,-1,1084,1667,4.30327,-22.9167
-133,-643,3.66748,21.6034,0,0,0,0,0,0,0,-1,1091,1667,3.66743,-21.6034
-126,-643,3.13904,17.689,0,0,0,0,0,0,0,-1,1098,1667,3.13909,-17.689
-119,-643,3.76282,14.1458,0,0,0,0,0,0,0,-1,1105,1667,3.76283,-14.1458
-112,-643,3.81458,16.2069,0,0,0,0,0,0,0,-1,1112,1667,3.81463,-16.2069
-105,-643,-2.23413,10.0996,0,0,0,0,0,0,0,-1,1119,1667,-2.23415,-10.0996
-98,-643,3.11035,4.68066,0,0,0,0,0,0,0,-1,1126,1667,3.11041,-4.68071
-91,-643,-1.74146,-2.5885,0,0,0,0,0,0,0,-1,1133,1667,-1.74146,2.58856
-84,-643,-3.07446,-0.199341,0,0,0,0,0,0,0,-1,1140,1667,-3.07449,0.199383
-77,-643,-3.63794,2.81165,0,0,0,0,0,0,0,-1,1147,1667,-3.63791,-2.8117
-70,-643,-3.36938,4.45203,0,0,0,0,0,0,0,-1,1154,1667,-3.36941,-4.452
-63,-643,-3.67822,6.26855,0,0,0,0,0,0,0,-1,1161,1667,-3.67823,-6.26856
-56,-643,-3.95142,8.1073,0,0,0,0,0,0,0,-1,1168,1667,-3.95139,-8.10732
-49,-643,-4.23535,9.90552,0,0,0,0,0,0,0,-1,1175,1667,-4.23537,-9.90557
-42,-643,-4.25195,10.7059,0,0,0,0,0,0,0,-1,1182,1667,-4.25192,-10.706
-35,-643,-4.10986,11.6588,0,0,0,0,0,0,0,-1,1189,1667,-4.10982,-11.6589
-28,-643,-1.38513,5.604,0,0,0,0,0,0,0,-1,1196,1667,-1.3851,-5.60403
-21,-643,1.61011,23.1276,0,0,0,0,0,0,0,-1,1203,1667,1.61011,-23.1275
-14,-643,6.31226,36.5835,0,0,0,0,0,0,0,-1,1210,1667,6.31222,-36.5835
-7,-643,6.58142,36.7089,0.0846614,-0.170729,-0.0204648,0.0862908,-0.172358,-0.0794556,0.152062,0.0483822,1217,1667,6.58146,-36.7088
0,-643,6.82239,36.8165,0.0813519,-0.178949,-0.0143353,0.082139,-0.179736,-0.0548511,0.154654,0.0481444,1224,1667,6.82245,-36.8166
7,-643,7.05859,36.9094,0,0,0,0,0,0,0,-1,1231,1667,7.05858,-36.9094
14,-643,7.44409,36.1597,0,0,0,0,0,0,0,-1,1238,1667,7.44408,-36.1596
21,-643,6.7749,36.7333,0,0,0,0,0,0,0,-1,1245,1667,6.77487,-36.7333
28,-643,7.33289,37.0446,0,0,0,0,0,0,0,-1,1252,1667,7.33287,-37.0446
35,-643,8.19739,37.325,0,0,0,0,0,0,0,-1,1259,1667,8.19738,-37.325
42,-643,9.47131,37.5245,0,0,0,0,0,0,0,-1,1266,1667,9.47126,-37.5246
49,-643,4.68091,41.6602,0.0321118,0.0419797,0.0269927,0.0644857,0.00960585,0.875795,0.0401732,0.0457667,1273,1667,4.6809,-41.6601
56,-643,3.78674,41.5723,0.0376594,0.0655013,0.0198474,0.0758231,0.0273375,1.09123,0.0443404,0.0481653,1280,1667,3.78675,-41.5722
63,-643,2.52246,41.2279,0.0468206,0.0817807,0.0111694,0.0850445,0.0435568,1.2865,0.0491053,0.047013,1287,1667,2.5224,-41.2279
70,-643,1.49939,40.7609,0,0,0,0,0,0,0,-1,1294,1667,1.49936,-40.7609
77,-643,0.553589,40.4771,0.0785222,0.0914449,-0.0142076,0.100591,0.0693757,-0.998809,0.0594531,0.0466269,1301,1667,0.553624,-40.477
84,-643,-0.776611,39.1448,0.0952339,0.0907188,-0.0234807,0.116565,0.0693874,-0.737473,0.067705,0.0452349,1308,1667,-0.776581,-39.1448
91,-643,0.660889,39.2985,0.110102,0.0807397,-0.033181,0.131705,0.0591371,-0.577116,0.0761715,0.0452174,1315,1667,0.660874,-39.2985
98,-643,7.34717,39.8844,0,0,0,0,0,0,0,-1,1322,1667,7.34721,-39.8844
105,-643,3.56384,39.5421,0,0,0,0,0,0,0,-1,1329,1667,3.56382,-39.5422
112,-643,5.96545,38.9656,0,0,0,0,0,0,0,-1,1336,1667,5.96551,-38.9656
119,-643,6.16003,39.4711,0,0,0,0,0,0,0,-1,1343,1667,6.16001,-39.4711
126,-643,6.35449,39.9766,0,0,0,0,0,0,0,-1,1350,1667,6.35451,-39.9766
133,-643,7.03577,41.4058,0.0999928,0.0472773,0.00675862,0.100846,0.0464246,0.125505,0.0582842,0.0484785,1357,1667,7.03573,-41.4058
140,-643,7.90613,41.948,0,0,0,0,0,0,0,-1,1364,1667,7.90619,-41.948
147,-643,8.86572,42.379,0,0,0,0,0,0,0,-1,1371,1667,8.8657,-42.3791
154,-643,17.9347,41.1332,0,0,0,0,0,0,0,-1,1378,1667,17.9347,-41.1332
161,-643,5.57935,26.2754,0,0,0,0,0,0,0,-1,1385,1667,5.57931,-26.2754
168,-643,10.5563,10.9818,0,0,0,0,0,0,0,-1,1392,1667,10.5562,-10.9819
175,-643,5.88525,-1.1698,0,0,0,0,0,0,0,-1,1399,1667,5.88526,1.16977
182,-643,5.80945,-0.418701,0,0,0,0,0,0,0,-1,1406,1667,5.80949,0.418712
189,-643,5.42297,12.9208,0,0,0,0,0,0,0,-1,1413,1667,5.42298,-12.9208
196,-643,5.51953,11.2415,0,0,0,0,0,0,0,-1,1420,1667,5.51948,-11.2414
203,-643,5.60828,9.82153,0,0,0,0,0,0,0,-1,1427,1667,5.60833,-9.82148
210,-643,4.73218,7.58728,0,0,0,0,0,0,0,-1,1434,1667,4.73222,-7.58728
217,-643,3.8031,5.28955,0,0,0,0,0,0,0,-1,1441,1667,3.80305,-5.28955
224,-643,2.96436,2.97095,0,0,0,0,0,0,0,-1,1448,1667,2.96432,-2.97095
231,-643,2.13403,1.08472,0,0,0,0,0,0,0,-1,1455,1667,2.13403,-1.08467
238,-643,1.18152,-0.261963,0,0,0,0,0,0,0,-1,1462,1667,1.18152,0.26192
245,-643,-0.157471,-1.79016,0,0,0,0,0,0,0,-1,1469,1667,-0.157517,1.7901
252,-643,8.08789,0.0202637,0,0,0,0,0,0,0,-1,1476,1667,8.08791,-0.0203056
259,-643,9.02979,-0.46936,0,0,0,0,0,0,0,-1,1483,1667,9.02974,0.46933
266,-643,4.55066,5.17554,0,0,0,0,0,0,0,-1,1490,1667,4.55063,-5.17556
273,-643,10.74,31.432,0,0,0,0,0,0,0,-1,1497,1667,10.7399,-31.4319
280,-643,9.73401,35.3773,0,0,0,0,0,0,0,-1,1504,1667,9.734,-35.3774
287,-643,10.0034,35.183,0.022706,0.0294372,-0.0133887,0.0398768,0.0122664,-0.908535,0.0235842,0.0456585,1511,1667,10.0035,-35.183
294,-643,10.1932,34.8372,0.0196301,0.0250823,-0.0113533,0.0340322,0.0106802,-0.903225,0.0200974,0.0467613,1518,1667,10.1932,-34.8371
301,-643,10.7036,34.3861,0,0,0,0,0,0,0,-1,1525,1667,10.7036,-34.3862
308,-643,10.6936,34.193,0.0138294,0.0167594,-0.00735651,0.0227953,0.0077934,-0.883684,0.0133784,0.04947,1532,1667,10.6936,-34.193
315,-643,10.8337,33.7369,0.0111988,0.0139267,-0.00570428,0.0184279,0.0066977,-0.902751,0.0107708,0.0412719,1539,1667,10.8337,-33.737
322,-643,10.9569,33.2153,0.00912846,0.0120687,-0.0047166,0.015539,0.00565818,-0.936471,0.00908117,0.0274487,1546,1667,10.9569,-33.2153
329,-643,11.0135,32.922,0.00741518,0.010833,-0.00403266,0.0135039,0.00474428,-0.98581,0.00791052,0.0182304,1553,1667,11.0136,-32.922
336,-643,10.9426,32.6941,0.00604848,0.00969009,-0.0034782,0.0117952,0.00394332,-1.02653,0.0069335,0.0142742,1560,1667,10.9427,-32.6941
343,-643,10.9419,32.3906,0.00498889,0.00797582,-0.00293987,0.00977982,0.00318489,-1.02041,0.00575966,0.0131298,1567,1667,10.9419,-32.3907
350,-643,10.9877,32.0262,0.00416597,0.00717287,-0.00244156,0.00853675,0.00280209,-1.06137,0.0050247,0.0131827,1574,1667,10.9877,-32.0262
357,-643,10.9924,31.6902,0.00366445,0.00667864,-0.002368,0.00797846,0.00236464,-1.06879,0.00473198,0.011229,1581,1667,10.9925,-31.6902
364,-643,10.9949,31.354,0.00316407,0.00583784,-0.00207603,0.0069702,0.00203171,-1.07146,0.00413925,0.00942265,1588,1667,10.9949,-31.354
371,-643,10.989,31.031,0.00272752,0.00497325,-0.00181182,0.00598194,0.00171883,-1.0628,0.00355628,0.00781541,1595,1667,10.989,-31.0311
378,-643,10.9789,30.6959,0.00232305,0.00404888,-0.00153858,0.00495001,0.00142192,-1.04097,0.00294286,0.00937021,1602,1667,10.9789,-30.6959
385,-643,11.0007,30.3301,0.00194614,0.00286818,-0.00120414,0.00369654,0.00111778,-0.968221,0.00218905,0.0153204,1609,1667,11.0007,-30.3301
392,-643,10.9933,29.9556,0.0015503,0.00149274,-0.000834065,0.00235608,0.000686961,-0.768153,0.00139913,0.0175724,1616,1667,10.9933,-29.9555
399,-643,10.9746,29.614,0.00102627,9.32896e-05,-0.000390058,0.00116786,-4.82978e-05,-0.3482,0.000795161,0.0150907,1623,1667,10.9746,-29.614
406,-643,10.9656,29.2283,0.00060408,-0.00125639,1.24253e-05,0.000604163,-0.00125648,0.00667817,0.00109603,0.0132934,1630,1667,10.9656,-29.2283
413,-643,10.9869,28.851,0.000420659,-0.00268654,0.000271185,0.00044415,-0.00271003,0.0864057,0.00197149,0.0188655,1637,1667,10.9869,-28.851
420,-643,10.958,28.4795,0.000301789,-0.00387131,0.000396355,0.000339101,-0.00390863,0.0938601,0.00272582,0.0184517,1644,1667,10.958,-28.4795
427,-643,10.9484,28.0967,0.00041047,-0.00506874,0.000417881,0.000442157,-0.00510042,0.0756834,0.00355684,0.015764,1651,1667,10.9483,-28.0966
434,-643,10.9272,27.7037,0.000654616,-0.00623807,0.000302772,0.00066789,-0.00625134,0.043814,0.00440709,0.0156189,1658,1667,10.9272,-27.7038
441,-643,10.9116,27.2949,0.00104904,-0.00743366,6.1911e-05,0.00104949,-0.00743411,0.00729799,0.00534039,0.015635,1665,1667,10.9116,-27.2949
448,-643,10.8246,26.8949,0.00181752,-0.00881216,-0.000152797,0.00181972,-0.00881436,-0.0143706,0.00656739,0.0216927,1672,1667,10.8246,-26.8949
455,-643,10.7273,26.4158,0.002704,-0.0103981,-0.000300428,0.00271088,-0.010405,-0.0229137,0.007995,0.0287495,1679,1667,10.7272,-26.4158
462,-643,10.8329,25.9573,0.00351534,-0.011939,-0.000479194,0.00353019,-0.0119538,-0.0309674,0.0093703,0.0387191,1686,1667,10.8328,-25.9572
469,-643,10.8661,25.6519,0,0,0,0,0,0,0,-1,1693,1667,10.8661,-25.6518
476,-643,10.5598,24.5066,0,0,0,0,0,0,0,-1,1700,1667,10.5598,-24.5065
483,-643,10.4502,24.3062,0,0,0,0,0,0,0,-1,1707,1667,10.4502,-24.3062
490,-643,10.6885,24.1522,0,0,0,0,0,0,0,-1,1714,1667,10.6884,-24.1522
497,-643,10.9073,23.9465,0,0,0,0,0,0,0,-1,1721,1667,10.9074,-23.9465
504,-643,8.05591,19.0656,0,0,0,0,0,0,0,-1,1728,1667,8.0559,-19.0655
511,-643,7.74719,18.1564,0,0,0,0,0,0,0,-1,1735,1667,7.74724,-18.1563
518,-643,7.40564,0.922607,0,0,0,0,0,0,0,-1,1742,1667,7.4057,-0.922598
525,-643,0,0,0,0,0,0,0,0,0,-1,1749,1667,0,0
532,-643,0,0,0,0,0,0,0,0,0,-1,1756,1667,0,0
539,-643,0,0,0,0,0,0,0,0,0,-1,1763,1667,0,0
546,-643,0,0,0,0,0,0,0,0,0,-1,1770,1667,0,0
553,-643,0,0,0,0,0,0,0,0,0,-1,1777,1667,0,0
560,-643,0,0,0,0,0,0,0,0,0,-1,1784,1667,0,0
567,-643,0,0,0,0,0,0,0,0,0,-1,1791,1667,0,0
574,-643,0,0,0,0,0,0,0,0,0,-1,1798,1667,0,0
581,-643,0,0,0,0,0,0,0,0,0,-1,1805,1667,0,0
588,-643,0,0,0,0,0,0,0,0,0,-1,1812,1667,0,0
595,-643,0,0,0,0,0,0,0,0,0,-1,1819,1667,0,0
602,-643,0,0,0,0,0,0,0,0,0,-1,1826,1667,0,0
609,-643,0,0,0,0,0,0,0,0,0,-1,1833,1667,0,0
616,-643,0,0,0,0,0,0,0,0,0,-1,1840,1667,0,0
623,-643,0,0,0,0,0,0,0,0,0,-1,1847,1667,0,0
630,-643,0,0,0,0,0,0,0,0,0,-1,1854,1667,0,0
637,-643,0,0,0,0,0,0,0,0,0,-1,1861,1667,0,0
644,-643,0,0,0,0,0,0,0,0,0,-1,1868,1667,0,0
651,-643,0,0,0,0,0,0,0,0,0,-1,1875,1667,0,0
658,-643,0,0,0,0,0,0,0,0,0,-1,1882,1667,0,0
665,-643,0,0,0,0,0,0,0,0,0,-1,1889,1667,0,0
672,-643,0,0,0,0,0,0,0,0,0,-1,1896,1667,0,0
679,-643,0,0,0,0,0,0,0,0,0,-1,1903,1667,0,0
686,-643,0,0,0,0,0,0,0,0,0,-1,1910,1667,0,0
693,-643,0,0,0,0,0,0,0,0,0,-1,1917,1667,0,0
700,-643,0,0,0,0,0,0,0,0,0,-1,1924,1667,0,0
707,-643,0,0,0,0,0,0,0,0,0,-1,1931,1667,0,0
714,-643,0,0,0,0,0,0,0,0,0,-1,1938,1667,0,0
721,-643,0,0,0,0,0,0,0,0,0,-1,1945,1667,0,0
728,-643,0,0,0,0,0,0,0,0,0,-1,1952,1667,0,0
735,-643,0,0,0,0,0,0,0,0,0,-1,1959,1667,0,0
742,-643,0,0,0,0,0,0,0,0,0,-1,1966,1667,0,0
749,-643,0,0,0,0,0,0,0,0,0,-1,1973,1667,0,0
756,-643,0,0,0,0,0,0,0,0,0,-1,1980,1667,0,0
763,-643,0,0,0,0,0,0,0,0,0,-1,1987,1667,0,0
770,-643,0,0,0,0,0,0,0,0,0,-1,1994,1667,0,0
777,-643,0,0,0,0,0,0,0,0,0,-1,2001,1667,0,0
784,-643,0,0,0,0,0,0,0,0,0,-1,2008,1667,0,0
791,-643,0,0,0,0,0,0,0,0,0,-1,2015,1667,0,0
798,-643,0,0,0,0,0,0,0,0,0,-1,2022,1667,0,0
805,-643,0,0,0,0,0,0,0,0,0,-1,2029,1667,0,0
812,-643,0,0,0,0,0,0,0,0,0,-1,2036,1667,0,0
-700,-650,0,0,0,0,0,0,0,0,0,-1,524,1674,0,0
-693,-650,0,0,0,0,0,0,0,0,0,-1,531,1674,0,0
-686,-650,0,0,0,0,0,0,0,0,0,-1,538,1674,0,0
-679,-650,0,0,0,0,0,0,0,0,0,-1,545,1674,0,0
-672,-650,0,0,0,0,0,0,0,0,0,-1,552,1674,0,0
-665,-650,0,0,0,0,0,0,0,0,0,-1,559,1674,0,0
-658,-650,0,0,0,0,0,0,0,0,0,-1,566,1674,0,0
-651,-650,0,0,0,0,0,0,0,0,0,-1,573,1674,0,0
-644,-650,0,0,0,0,0,0,0,0,0,-1,580,1674,0,0
-637,-650,0,0,0,0,0,0,0,0,0,-1,587,1674,0,0
-630,-650,0,0,0,0,0,0,0,0,0,-1,594,1674,0,0
-623,-650,0,0,0,0,0,0,0,0,0,-1,601,1674,0,0
-616,-650,0,0,0,0,0,0,0,0,0,-1,608,1674,0,0
-609,-650,0,0,0,0,0,0,0,0,0,-1,615,1674,0,0
-602,-650,0,0,0,0,0,0,0,0,0,-1,622,1674,0,0
-595,-650,0,0,0,0,0,0,0,0,0,-1,629,1674,0,0
-588,-650,0,0,0,0,0,0,0,0,0,-1,636,1674,0,0
-581,-650,0,0,0,0,0,0,0,0,0,-1,643,1674,0,0
-574,-650,0,0,0,0,0,0,0,0,0,-1,650,1674,0,0
-567,-650,0,0,0,0,0,0,0,0,0,-1,657,1674,0,0
-560,-650,0,0,0,0,0,0,0,0,0,-1,664,1674,0,0
-553,-650,0,0,0,0,0,0,0,0,0,-1,671,1674,0,0
-546,-650,0,0,0,0,0,0,0,0,0,-1,678,1674,0,0
-539,-650,0,0,0,0,0,0,0,0,0,-1,685,1674,0,0
-532,-650,0,0,0,0,0,0,0,0,0,-1,692,1674,0,0
-525,-650,0,0,0,0,0,0,0,0,0,-1,699,1674,0,0
-518,-650,0,0,0,0,0,0,0,0,0,-1,706,1674,0,0
-511,-650,0,0,0,0,0,0,0,0,0,-1,713,1674,0,0
-504,-650,0,0,0,0,0,0,0,0,0,-1,720,1674,0,0
-497,-650,0,0,0,0,0,0,0,0,0,-1,727,1674,0,0
-490,-650,0,0,0,0,0,0,0,0,0,-1,734,1674,0,0
-483,-650,0,0,0,0,0,0,0,0,0,-1,741,1674,0,0
-476,-650,0,0,0,0,0,0,0,0,0,-1,748,1674,0,0
-469,-650,0,0,0,0,0,0,0,0,0,-1,755,1674,0,0
-462,-650,0,0,0,0,0,0,0,0,0,-1,762,1674,0,0
-455,-650,0,0,0,0,0,0,0,0,0,-1,769,1674,0,0
-448,-650,0,0,0,0,0,0,0,0,0,-1,776,1674,0,0
-441,-650,0,0,0,0,0,0,0,0,0,-1,783,1674,0,0
-434,-650,0,0,0,0,0,0,0,0,0,-1,790,1674,0,0
-427,-650,0,0,0,0,0,0,0,0,0,-1,797,1674,0,0
-420,-650,0,0,0,0,0,0,0,0,0,-1,804,1674,0,0
-413,-650,0,0,0,0,0,0,0,0,0,-1,811,1674,0,0
-406,-650,0,0,0,0,0,0,0,0,0,-1,818,1674,0,0
-399,-650,0,0,0,0,0,0,0,0,0,-1,825,1674,0,0
-392,-650,5.44415,6.85669,0,0,0,0,0,0,0,-1,832,1674,5.44414,-6.85674
-385,-650,1.74451,14.0183,0,0,0,0,0,0,0,-1,839,1674,1.74453,-14.0183
-378,-650,0.997986,4.11108,0,0,0,0,0,0,0,-1,846,1674,0.998006,-4.11113
-371,-650,-1.80096,3.78625,0,0,0,0,0,0,0,-1,853,1674,-1.80094,-3.78625
-364,-650,-2.95679,2.57507,0,0,0,0,0,0,0,-1,860,1674,-2.95681,-2.57506
-357,-650,1.97833,10.8362,0,0,0,0,0,0,0,-1,867,1674,1.97835,-10.8362
-350,-650,-5.30243,0.159912,0,0,0,0,0,0,0,-1,874,1674,-5.30244,-0.159866
-343,-650,-6.21338,-1.4425,0,0,0,0,0,0,0,-1,881,1674,-6.21341,1.44248
-336,-650,4.59857,24.226,0,0,0,0,0,0,0,-1,888,1674,4.59858,-24.2259
-329,-650,4.85791,25.1132,0,0,0,0,0,0,0,-1,895,1674,4.85791,-25.1132
-322,-650,5.01526,25.661,0.010261,-0.0318958,0.00597732,0.0110921,-0.0327269,0.138161,0.0263067,0.0457232,902,1674,5.01524,-25.6611
-315,-650,5.07935,26.2292,0.0085909,-0.0262676,0.004586,0.00918414,-0.0268608,0.128645,0.0216286,0.0394162,909,1674,5.07936,-26.2292
-308,-650,5.09644,26.588,0.00673862,-0.0209176,0.00321938,0.00710843,-0.0212874,0.11437,0.017062,0.0235111,916,1674,5.09646,-26.5881
-301,-650,5.13605,27.0804,0.00496371,-0.01615,0.00224607,0.0052,-0.0163863,0.104817,0.0130087,0.0135714,923,1674,5.13605,-27.0804
-294,-650,5.09741,27.4691,0.00356747,-0.0121085,0.00146646,0.00370347,-0.0122445,0.0924789,0.0096377,0.0112824,930,1674,5.09739,-27.4691
-287,-650,5.07111,27.8617,0.00250435,-0.00889531,0.000901877,0.00257526,-0.00896622,0.0784639,0.00699573,0.0139121,937,1674,5.07113,-27.8617
-280,-650,5.05219,28.2726,0.00166679,-0.00633433,0.00048619,0.00169623,-0.00636377,0.0604687,0.00490664,0.0153614,944,1674,5.05217,-28.2726
-273,-650,5.04126,28.6975,0.00108625,-0.00428774,0.000161708,0.00109111,-0.00429261,0.0300547,0.00328638,0.0142061,951,1674,5.04127,-28.6975
-266,-650,5.00098,29.0938,0.00065007,-0.00203794,-0.000136437,0.000656978,-0.00204484,-0.0505842,0.00162705,0.0118358,958,1674,5.00099,-29.0937
-259,-650,5.0069,29.4896,0.00055284,-0.000642387,-0.000136513,0.000568234,-0.000657781,-0.112289,0.000708469,0.0150777,965,1674,5.00689,-29.4896
-252,-650,4.99628,29.8763,0.000671688,0.000224857,1.07633e-05,0.000671947,0.000224598,0.0240695,0.00039499,0.0140025,972,1674,4.99625,-29.8763
-245,-650,4.99988,30.2527,0.0010268,0.000679551,0.000106068,0.00105664,0.000649715,0.274198,0.000615394,0.0118559,979,1674,4.9999,-30.2527
-238,-650,5.00323,30.6381,0.00135824,0.00111269,0.000135765,0.00141851,0.00105242,0.417797,0.000850331,0.0121599,986,1674,5.00321,-30.6381
-231,-650,4.95551,31.0354,0.00188271,0.00131996,0.000335072,0.00203888,0.00116379,0.436142,0.00118108,0.0166723,993,1674,4.95553,-31.0354
-224,-650,4.95331,31.3721,0.00244549,0.00175303,0.000543819,0.00274394,0.00145458,0.501927,0.00158517,0.0142253,1000,1674,4.9533,-31.3721
-217,-650,4.96851,31.6775,0.00285446,0.00215178,0.000656286,0.00324754,0.00175871,0.539635,0.00187712,0.00956653,1007,1674,4.96848,-31.6775
-210,-650,4.97174,32.0231,0.00329682,0.00251423,0.000766131,0.0037658,0.00204526,0.549297,0.00217688,0.00959482,1014,1674,4.97173,-32.0231
-203,-650,5.00586,32.3779,0.00376597,0.00291258,0.00087338,0.00431132,0.00236724,0.558173,0.00249313,0.0145765,1021,1674,5.00586,-32.3779
-196,-650,5.0188,32.7131,0.00410301,0.00334469,0.00107731,0.00486594,0.00258176,0.616191,0.0028111,0.0135374,1028,1674,5.01881,-32.7132
-189,-650,5.0177,33.0421,0.00430666,0.00420733,0.00130094,0.00555888,0.00295511,0.76632,0.00321156,0.0114799,1035,1674,5.01775,-33.0422
-182,-650,5.06201,33.4019,0.00462311,0.00550769,0.00151758,0.00664612,0.00348468,0.927193,0.00383865,0.0112784,1042,1674,5.06203,-33.4018
-175,-650,5.07996,33.701,0.00495303,0.00782835,0.00184705,0.0087313,0.00405008,1.1161,0.00504541,0.0167656,1049,1674,5.0799,-33.7011
-168,-650,5.06409,34.0265,0.00511801,0.0103997,0.00215699,0.0111686,0.00434907,1.22835,0.00650059,0.0213578,1056,1674,5.06404,-34.0265
-161,-650,5.06348,34.3098,0.00533924,0.0137625,0.00262669,0.0145144,0.00458727,1.29197,0.00856688,0.029063,1063,1674,5.06348,-34.3099
-154,-650,5.1449,34.5614,0.00543891,0.0181214,0.00303556,0.0188105,0.00474979,1.34756,0.011295,0.0345189,1070,1674,5.14489,-34.5614
-147,-650,5.25146,34.8748,0,0,0,0,0,0,0,-1,1077,1674,5.2515,-34.8748
-140,-650,4.9696,36.0964,0,0,0,0,0,0,0,-1,1084,1674,4.96957,-36.0964
-133,-650,4.73535,36.736,0,0,0,0,0,0,0,-1,1091,1674,4.73533,-36.736
-126,-650,4.63293,37.3207,0,0,0,0,0,0,0,-1,1098,1674,4.63294,-37.3206
-119,-650,5.16663,20.6232,0,0,0,0,0,0,0,-1,1105,1674,5.16665,-20.6232
-112,-650,3.86292,14.4513,0,0,0,0,0,0,0,-1,1112,1674,3.8629,-14.4513
-105,-650,4.9259,12.0626,0,0,0,0,0,0,0,-1,1119,1674,4.92591,-12.0626
-98,-650,3.3761,6.78003,0,0,0,0,0,0,0,-1,1126,1674,3.37611,-6.78009
-91,-650,3.66809,7.04443,0,0,0,0,0,0,0,-1,1133,1674,3.66806,-7.04439
-84,-650,-3.82666,-1.59521,0,0,0,0,0,0,0,-1,1140,1674,-3.82661,1.59517
-77,-650,-4.70557,1.90198,0,0,0,0,0,0,0,-1,1147,1674,-4.7056,-1.90194
-70,-650,-4.88171,3.81653,0,0,0,0,0,0,0,-1,1154,1674,-4.88176,-3.81651
-63,-650,-5.14612,5.56543,0,0,0,0,0,0,0,-1,1161,1674,-5.14612,-5.56547
-56,-650,-5.38367,7.41101,0,0,0,0,0,0,0,-1,1168,1674,-5.38361,-7.41102
-49,-650,-5.11316,8.23706,0,0,0,0,0,0,0,-1,1175,1674,-5.11317,-8.23708
-42,-650,-4.99487,9.6792,0,0,0,0,0,0,0,-1,1182,1674,-4.99484,-9.67921
-35,-650,-4.77771,11.3369,0,0,0,0,0,0,0,-1,1189,1674,-4.77769,-11.3369
-28,-650,-4.1936,13.1501,0,0,0,0,0,0,0,-1,1196,1674,-4.19358,-13.1501
-21,-650,14.001,37.6479,0,0,0,0,0,0,0,-1,1203,1674,14.0009,-37.6479
-14,-650,4.99292,38.2173,0,0,0,0,0,0,0,-1,1210,1674,4.99294,-38.2173
-7,-650,6.28662,37.6715,0.0710966,-0.133602,-0.0125437,0.0718624,-0.134368,-0.0609749,0.120876,0.0456504,1217,1674,6.28666,-37.6715
0,-650,6.70874,37.8444,0.0664269,-0.132526,-0.00584833,0.0665987,-0.132698,-0.0293617,0.117155,0.0441884,1224,1674,6.70879,-37.8443
7,-650,7.04187,37.91,0.0584595,-0.111336,0.0061317,0.0586807,-0.111557,0.0360497,0.0998545,0.0442661,1231,1674,7.04181,-37.91
14,-650,7.6936,38.12,0.0466854,-0.0832424,0.0174413,0.0489859,-0.085543,0.131146,0.0786204,0.0426306,1238,1674,7.69362,-38.12
21,-650,8.06946,38.5276,0.034104,-0.0519852,0.0278914,0.0423504,-0.0602317,0.287472,0.059525,0.0435867,1245,1674,8.06943,-38.5276
28,-650,8.64966,38.978,0.0207902,-0.0207304,0.0318184,0.038022,-0.0379622,0.496346,0.0438695,0.0398124,1252,1674,8.64968,-38.978
35,-650,9.66663,39.2412,0.0172186,0.0111476,0.0357584,0.0500702,-0.0217039,0.743055,0.0425039,0.0442666,1259,1674,9.66659,-39.2412
42,-650,10.9366,39.4507,0.0204302,0.0387207,0.0315259,0.062401,-0.00325013,0.926567,0.0427253,0.0493716,1266,1674,10.9367,-39.4506
49,-650,11.8416,39.8024,0,0,0,0,0,0,0,-1,1273,1674,11.8416,-39.8024
56,-650,3.40759,41.0829,0,0,0,0,0,0,0,-1,1280,1674,3.40758,-41.0829
63,-650,2.2334,40.7341,0,0,0,0,0,0,0,-1,1287,1674,2.23344,-40.7341
70,-650,0.12854,39.6694,0,0,0,0,0,0,0,-1,1294,1674,0.128565,-39.6694
77,-650,-0.748169,38.964,0.0546485,0.0920357,-0.00983452,0.0944648,0.0522194,-1.32865,0.0546405,0.0469323,1301,1674,-0.748143,-38.964
84,-650,-1.87964,37.8372,0.0679332,0.088683,-0.0183481,0.0993863,0.0572299,-1.04271,0.0576003,0.048417,1308,1674,-1.8796,-37.8372
91,-650,8.51062,39.7937,0.0786062,0.0775024,-0.0273961,0.105456,0.0506526,-0.775326,0.0609008,0.0480058,1315,1674,8.51063,-39.7937
98,-650,7.63013,39.6859,0.0881284,0.0642624,-0.0316817,0.11005,0.0423409,-0.605288,0.0640976,0.0447743,1322,1674,7.63014,-39.6859
105,-650,6.73047,39.3945,0,0,0,0,0,0,0,-1,1329,1674,6.73045,-39.3946
112,-650,6.38867,39.0735,0.100887,0.0453149,-0.028013,0.112557,0.0336447,-0.394734,0.0667136,0.0416971,1336,1674,6.38865,-39.0735
119,-650,6.50854,39.4573,0.0974103,0.0389366,-0.0204397,0.103847,0.0325003,-0.305063,0.0613382,0.0424858,1343,1674,6.50857,-39.4573
126,-650,6.63586,40.0785,0.0914377,0.036463,-0.0100609,0.0932211,0.0346796,-0.175437,0.0544058,0.0449569,1350,1674,6.63583,-40.0785
133,-650,7.46997,40.7833,0.0849859,0.0388892,-0.000686759,0.0849961,0.038879,-0.0148938,0.0491318,0.0462833,1357,1674,7.46995,-40.7833
140,-650,8.43848,40.6467,0,0,0,0,0,0,0,-1,1364,1674,8.43851,-40.6468
147,-650,14.9404,41.616,0,0,0,0,0,0,0,-1,1371,1674,14.9404,-41.616
154,-650,15.4779,42.4648,0,0,0,0,0,0,0,-1,1378,1674,15.4779,-42.4649
161,-650,4.09106,30.3021,0,0,0,0,0,0,0,-1,1385,1674,4.09104,-30.3021
168,-650,11.2113,7.87231,0,0,0,0,0,0,0,-1,1392,1674,11.2113,-7.87236
175,-650,5.62537,-0.230713,0,0,0,0,0,0,0,-1,1399,1674,5.62538,0.230745
182,-650,5.56006,0.421631,0,0,0,0,0,0,0,-1,1406,1674,5.56,-0.421652
189,-650,4.81543,11.0654,0,0,0,0,0,0,0,-1,1413,1674,4.81542,-11.0654
196,-650,5.39575,11.9077,0,0,0,0,0,0,0,-1,1420,1674,5.39575,-11.9078
203,-650,3.93628,11.8215,0,0,0,0,0,0,0,-1,1427,1674,3.93624,-11.8216
210,-650,5.40955,8.08594,0,0,0,0,0,0,0,-1,1434,1674,5.40958,-8.086
217,-650,5.12451,4.69739,0,0,0,0,0,0,0,-1,1441,1674,5.12451,-4.69738
224,-650,4.79041,1.45813,0,0,0,0,0,0,0,-1,1448,1674,4.79046,-1.45816
231,-650,4.04102,-0.642212,0,0,0,0,0,0,0,-1,1455,1674,4.04101,0.642209
238,-650,3.23022,-1.43396,0,0,0,0,0,0,0,-1,1462,1674,3.23023,1.43394
245,-650,1.65894,-2.55042,0,0,0,0,0,0,0,-1,1469,1674,1.65889,2.55036
252,-650,8.75342,0.355103,0,0,0,0,0,0,0,-1,1476,1674,8.75337,-0.355147
259,-650,5.61255,3.17566,0,0,0,0,0,0,0,-1,1483,1674,5.61257,-3.17572
266,-650,4.00403,6.10229,0,0,0,0,0,0,0,-1,1490,1674,4.00401,-6.10225
273,-650,10.0178,34.8409,0,0,0,0,0,0,0,-1,1497,1674,10.0178,-34.8409
280,-650,9.59058,34.8499,0,0,0,0,0,0,0,-1,1504,1674,9.59063,-34.8499
287,-650,9.97583,34.7137,0.0169481,0.020603,-0.00918077,0.0281364,0.00941468,-0.88364,0.0165382,0.0413863,1511,1674,9.97588,-34.7138
294,-650,10.313,34.5831,0.014789,0.0176923,-0.0078704,0.0242438,0.0082375,-0.876592,0.0142347,0.0419631,1518,1674,10.3129,-34.5832
301,-650,10.5155,34.2878,0.0126903,0.0147245,-0.0065314,0.0203175,0.00709728,-0.86264,0.0119066,0.0346831,1525,1674,10.5155,-34.2878
308,-650,10.5996,33.9502,0.0106847,0.0120025,-0.00525871,0.0166434,0.00604377,-0.847721,0.00972835,0.020717,1532,1674,10.5996,-33.9502
315,-650,10.601,33.625,0.00877274,0.0100615,-0.00417762,0.0136441,0.00519008,-0.861916,0.00795222,0.0163323,1539,1674,10.601,-33.625
322,-650,10.6072,33.3191,0.00715151,0.00861472,-0.00340886,0.0113696,0.00439663,-0.891104,0.00662018,0.0131641,1546,1674,10.6071,-33.319
329,-650,10.6307,32.9834,0.00577043,0.00753444,-0.0028491,0.00963493,0.00366993,-0.935507,0.00561509,0.0161451,1553,1674,10.6308,-32.9834
336,-650,10.6343,32.6658,0.00463616,0.00657676,-0.00237664,0.00817354,0.00303938,-0.979204,0.00477038,0.0142512,1560,1674,10.6343,-32.6657
343,-650,10.6439,32.351,0.00352127,0.00522156,-0.00194986,0.00649856,0.00224428,-0.990975,0.0038113,0.0133405,1567,1674,10.6439,-32.351
350,-650,10.6738,32.0254,0.00266998,0.00451935,-0.00156779,0.00541484,0.0017745,-1.05184,0.00318752,0.0162786,1574,1674,10.6739,-32.0254
357,-650,10.6563,31.6865,0.00211793,0.00395488,-0.00145997,0.00476125,0.00131155,-1.06617,0.0028398,0.013544,1581,1674,10.6562,-31.6865
364,-650,10.6472,31.3518,0.00159454,0.00310908,-0.00117654,0.00375099,0.000952624,-1.07134,0.00225133,0.00933804,1588,1674,10.6472,-31.3518
371,-650,10.6393,31.0239,0.00114482,0.00224651,-0.000916914,0.00276532,0.000626006,-1.05589,0.00167435,0.0114181,1595,1674,10.6393,-31.0239
378,-650,10.6244,30.6827,0.00075451,0.00133399,-0.000640848,0.00174755,0.000340946,-0.997705,0.00106965,0.0120202,1602,1674,10.6244,-30.6828
385,-650,10.6388,30.334,0.000432637,0.000209807,-0.000301818,0.000642947,-5.03758e-07,-0.608584,0.0004288,0.013351,1609,1674,10.6387,-30.334
392,-650,10.6334,29.9745,0.000132057,-0.00111914,4.72903e-05,0.000133842,-0.00112092,0.0377243,0.000795657,0.0178382,1616,1674,10.6334,-29.9745
399,-650,10.6191,29.6154,-0.000271023,-0.00243306,0.000461658,-0.000176572,-0.00252751,0.201807,0.00162934,0.0167752,1623,1674,10.6192,-29.6154
406,-650,10.5953,29.2378,-0.000501979,-0.00372936,0.000834578,-0.000298937,-0.0039324,0.238651,0.00252785,0.0151011,1630,1674,10.5953,-29.2378
413,-650,10.6002,28.8533,-0.000438531,-0.00515596,0.00105349,-0.000213956,-0.00538053,0.210028,0.00351787,0.0148965,1637,1674,10.6002,-28.8532
420,-650,10.5905,28.5087,-0.000313647,-0.00620395,0.00109312,-0.000117331,-0.00640027,0.177699,0.00422828,0.0156421,1644,1674,10.5905,-28.5087
427,-650,10.5696,28.1277,5.02474e-05,-0.00742613,0.00106716,0.000199589,-0.00757547,0.13904,0.00511814,0.015281,1651,1674,10.5695,-28.1277
434,-650,10.541,27.7463,0.000587476,-0.00869776,0.000904592,0.000674782,-0.00878507,0.0962171,0.0060941,0.0171367,1658,1674,10.541,-27.7463
441,-650,10.5205,27.4259,0.00127714,-0.0101585,0.000613648,0.00130998,-0.0101913,0.0534565,0.00727031,0.0267428,1665,1674,10.5205,-27.4259
448,-650,10.3972,27.012,0.00233299,-0.0119047,0.000304284,0.00233949,-0.0119112,0.0213587,0.00882461,0.0447635,1672,1674,10.3972,-27.0119
455,-650,10.3871,26.6583,0.00354949,-0.0140789,0.000135395,0.00355053,-0.0140799,0.00767994,0.0107671,0.0446832,1679,1674,10.387,-26.6584
462,-650,10.5017,26.413,0.00488648,-0.0160645,-0.000215048,0.00488869,-0.0160667,-0.0102629,0.0126594,0.0467616,1686,1674,10.5017,-26.413
469,-650,10.6432,26.1511,0,0,0,0,0,0,0,-1,1693,1674,10.6431,-26.1511
476,-650,10.0289,24.4348,0,0,0,0,0,0,0,-1,1700,1674,10.0289,-24.4349
483,-650,10.2426,24.5127,0,0,0,0,0,0,0,-1,1707,1674,10.2425,-24.5127
490,-650,10.4818,24.3475,0,0,0,0,0,0,0,-1,1714,1674,10.4818,-24.3475
497,-650,10.4985,20.1362,0,0,0,0,0,0,0,-1,1721,1674,10.4986,-20.1362
504,-650,9.69458,18.7721,0,0,0,0,0,0,0,-1,1728,1674,9.6946,-18.772
511,-650,9.37158,17.7506,0,0,0,0,0,0,0,-1,1735,1674,9.37159,-17.7506
518,-650,0,0,0,0,0,0,0,0,0,-1,1742,1674,0,0
525,-650,0,0,0,0,0,0,0,0,0,-1,1749,1674,0,0
532,-650,0,0,0,0,0,0,0,0,0,-1,1756,1674,0,0
539,-650,0,0,0,0,0,0,0,0,0,-1,1763,1674,0,0
546,-650,0,0,0,0,0,0,0,0,0,-1,1770,1674,0,0
553,-650,0,0,0,0,0,0,0,0,0,-1,1777,1674,0,0
560,-650,0,0,0,0,0,0,0,0,0,-1,1784,1674,0,0
567,-650,0,0,0,0,0,0,0,0,0,-1,1791,1674,0,0
574,-650,0,0,0,0,0,0,0,0,0,-1,1798,1674,0,0
581,-650,0,0,0,0,0,0,0,0,0,-1,1805,1674,0,0
588,-650,0,0,0,0,0,0,0,0,0,-1,1812,1674,0,0
595,-650,0,0,0,0,0,0,0,0,0,-1,1819,1674,0,0
602,-650,0,0,0,0,0,0,0,0,0,-1,1826,1674,0,0
609,-650,0,0,0,0,0,0,0,0,0,-1,1833,1674,0,0
616,-650,0,0,0,0,0,0,0,0,0,-1,1840,1674,0,0
623,-650,0,0,0,0,0,0,0,0,0,-1,1847,1674,0,0
630,-650,0,0,0,0,0,0,0,0,0,-1,1854,1674,0,0
637,-650,0,0,0,0,0,0,0,0,0,-1,1861,1674,0,0
644,-650,0,0,0,0,0,0,0,0,0,-1,1868,1674,0,0
651,-650,0,0,0,0,0,0,0,0,0,-1,1875,1674,0,0
658,-650,0,0,0,0,0,0,0,0,0,-1,1882,1674,0,0
665,-650,0,0,0,0,0,0,0,0,0,-1,1889,1674,0,0
672,-650,0,0,0,0,0,0,0,0,0,-1,1896,1674,0,0
679,-650,0,0,0,0,0,0,0,0,0,-1,1903,1674,0,0
686,-650,0,0,0,0,0,0,0,0,0,-1,1910,1674,0,0
693,-650,0,0,0,0,0,0,0,0,0,-1,1917,1674,0,0
700,-650,0,0,0,0,0,0,0,0,0,-1,1924,1674,0,0
707,-650,0,0,0,0,0,0,0,0,0,-1,1931,1674,0,0
714,-650,0,0,0,0,0,0,0,0,0,-1,1938,1674,0,0
721,-650,0,0,0,0,0,0,0,0,0,-1,1945,1674,0,0
728,-650,0,0,0,0,0,0,0,0,0,-1,1952,1674,0,0
735,-650,0,0,0,0,0,0,0,0,0,-1,1959,1674,0,0
742,-650,0,0,0,0,0,0,0,0,0,-1,1966,1674,0,0
749,-650,0,0,0,0,0,0,0,0,0,-1,1973,1674,0,0
756,-650,0,0,0,0,0,0,0,0,0,-1,1980,1674,0,0
763,-650,0,0,0,0,0,0,0,0,0,-1,1987,1674,0,0
770,-650,0,0,0,0,0,0,0,0,0,-1,1994,1674,0,0
777,-650,0,0,0,0,0,0,0,0,0,-1,2001,1674,0,0
784,-650,0,0,0,0,0,0,0,0,0,-1,2008,1674,0,0
791,-650,0,0,0,0,0,0,0,0,0,-1,2015,1674,0,0
798,-650,0,0,0,0,0,0,0,0,0,-1,2022,1674,0,0
805,-650,0,0,0,0,0,0,0,0,0,-1,2029,1674,0,0
812,-650,0,0,0,0,0,0,0,0,0,-1,2036,1674,0,0
-700,-657,0,0,0,0,0,0,0,0,0,-1,524,1681,0,0
-693,-657,0,0,0,0,0,0,0,0,0,-1,531,1681,0,0
-686,-657,0,0,0,0,0,0,0,0,0,-1,538,1681,0,0
-679,-657,0,0,0,0,0,0,0,0,0,-1,545,1681,0,0
-672,-657,0,0,0,0,0,0,0,0,0,-1,552,1681,0,0
-665,-657,0,0,0,0,0,0,0,0,0,-1,559,1681,0,0
-658,-657,0,0,0,0,0,0,0,0,0,-1,566,1681,0,0
-651,-657,0,0,0,0,0,0,0,0,0,-1,573,1681,0,0
-644,-657,0,0,0,0,0,0,0,0,0,-1,580,1681,0,0
-637,-657,0,0,0,0,0,0,0,0,0,-1,587,1681,0,0
-630,-657,0,0,0,0,0,0,0,0,0,-1,594,1681,0,0
-623,-657,0,0,0,0,0,0,0,0,0,-1,601,1681,0,0
-616,-657,0,0,0,0,0,0,0,0,0,-1,608,1681,0,0
-609,-657,0,0,0,0,0,0,0,0,0,-1,615,1681,0,0
-602,-657,0,0,0,0,0,0,0,0,0,-1,622,1681,0,0
-595,-657,0,0,0,0,0,0,0,0,0,-1,629,1681,0,0
-588,-657,0,0,0,0,0,0,0,0,0,-1,636,1681,0,0
-581,-657,0,0,0,0,0,0,0,0,0,-1,643,1681,0,0
-574,-657,0,0,0,0,0,0,0,0,0,-1,650,1681,0,0
-567,-657,0,0,0,0,0,0,0,0,0,-1,657,1681,0,0
-560,-657,0,0,0,0,0,0,0,0,0,-1,664,1681,0,0
-553,-657,0,0,0,0,0,0,0,0,0,-1,671,1681,0,0
-546,-657,0,0,0,0,0,0,0,0,0,-1,678,1681,0,0
-539,-657,0,0,0,0,0,0,0,0,0,-1,685,1681,0,0
-532,-657,0,0,0,0,0,0,0,0,0,-1,692,1681,0,0
-525,-657,0,0,0,0,0,0,0,0,0,-1,699,1681,0,0
-518,-657,0,0,0,0,0,0,0,0,0,-1,706,1681,0,0
-511,-657,0,0,0,0,0,0,0,0,0,-1,713,1681,0,0
-504,-657,0,0,0,0,0,0,0,0,0,-1,720,1681,0,0
-497,-657,0,0,0,0,0,0,0,0,0,-1,727,1681,0,0
-490,-657,0,0,0,0,0,0,0,0,0,-1,734,1681,0,0
-483,-657,0,0,0,0,0,0,0,0,0,-1,741,1681,0,0
-476,-657,0,0,0,0,0,0,0,0,0,-1,748,1681,0,0
-469,-657,0,0,0,0,0,0,0,0,0,-1,755,1681,0,0
-462,-657,0,0,0,0,0,0,0,0,0,-1,762,1681,0,0
-455,-657,0,0,0,0,0,0,0,0,0,-1,769,1681,0,0
-448,-657,0,0,0,0,0,0,0,0,0,-1,776,1681,0,0
-441,-657,0,0,0,0,0,0,0,0,0,-1,783,1681,0,0
-434,-657,0,0,0,0,0,0,0,0,0,-1,790,1681,0,0
-427,-657,0,0,0,0,0,0,0,0,0,-1,797,1681,0,0
-420,-657,0,0,0,0,0,0,0,0,0,-1,804,1681,0,0
-413,-657,0,0,0,0,0,0,0,0,0,-1,811,1681,0,0
-406,-657,0,0,0,0,0,0,0,0,0,-1,818,1681,0,0
-399,-657,0,0,0,0,0,0,0,0,0,-1,825,1681,0,0
-392,-657,0,0,0,0,0,0,0,0,0,-1,832,1681,0,0
-385,-657,1.09814,6.18896,0,0,0,0,0,0,0,-1,839,1681,1.09814,-6.18894
-378,-657,0.31488,4.46753,0,0,0,0,0,0,0,-1,846,1681,0.31487,-4.46755
-371,-657,-0.519043,2.69421,0,0,0,0,0,0,0,-1,853,1681,-0.519064,-2.69422
-364,-657,-3.42017,4.18323,0,0,0,0,0,0,0,-1,860,1681,-3.42019,-4.18319
-357,-657,-4.41913,2.97168,0,0,0,0,0,0,0,-1,867,1681,-4.41913,-2.97165
-350,-657,-5.42291,1.70276,0,0,0,0,0,0,0,-1,874,1681,-5.42291,-1.70277
-343,-657,-6.51294,0.397339,0,0,0,0,0,0,0,-1,881,1681,-6.51295,-0.397335
-336,-657,7.12177,22.8324,0,0,0,0,0,0,0,-1,888,1681,7.12179,-22.8324
-329,-657,4.90094,24.8551,0,0,0,0,0,0,0,-1,895,1681,4.90094,-24.855
-322,-657,5.31647,25.7219,0.0146265,-0.0453909,0.00722041,0.0154829,-0.0462474,0.118061,0.037086,0.0448657,902,1681,5.31649,-25.7219
-315,-657,5.4397,26.5718,0.0121758,-0.0367779,0.00544541,0.0127742,-0.0373763,0.109453,0.0300934,0.0402526,909,1681,5.43967,-26.5717
-308,-657,5.4342,27.0015,0.00944783,-0.0289034,0.00368298,0.00979832,-0.0292539,0.0948774,0.0234609,0.0376658,916,1681,5.43418,-27.0015
-301,-657,5.53595,27.1644,0.00679845,-0.0220738,0.00245716,0.00700607,-0.0222814,0.0842967,0.0176592,0.0321474,923,1681,5.53596,-27.1644
-294,-657,5.48987,27.5732,0.0046884,-0.0163702,0.00147459,0.00479115,-0.0164729,0.0695709,0.0128796,0.0202997,930,1681,5.48985,-27.5733
-287,-657,5.44507,27.9403,0.00306489,-0.0119311,0.000771637,0.00310449,-0.0119707,0.0512758,0.00919173,0.0137205,937,1681,5.44508,-27.9403
-280,-657,5.42151,28.296,0.00179273,-0.00849477,0.000274413,0.00180005,-0.00850208,0.0266491,0.00635364,0.0150449,944,1681,5.42152,-28.2961
-273,-657,5.41461,28.7042,0.000886378,-0.00582401,-0.000100246,0.000887875,-0.00582551,-0.0149344,0.00421095,0.010739,951,1681,5.4146,-28.7042
-266,-657,5.34753,29.0975,0.000147595,-0.00290243,-0.000449082,0.000212342,-0.00296718,-0.143191,0.00205256,0.0148154,958,1681,5.34755,-29.0975
-259,-657,5.34235,29.49,-0.000163244,-0.00117563,-0.000438835,4.93834e-07,-0.00133937,-0.35712,0.000893078,0.0199442,965,1681,5.34233,-29.49
-252,-657,5.35474,29.8649,-0.000203154,-0.000159546,-0.000245306,6.49231e-05,-0.000427623,-0.829724,0.000309005,0.0136483,972,1681,5.35476,-29.8649
-245,-657,5.36743,30.2719,5.41083e-05,0.000314454,-0.000126258,0.000365626,2.93623e-06,-1.18573,0.000242778,0.0148774,979,1681,5.36744,-30.2718
-238,-657,5.35675,30.6831,0.000212096,0.000790091,-9.06255e-05,0.000803967,0.00019822,-1.41886,0.00048364,0.0201673,986,1681,5.35673,-30.6831
-231,-657,5.33087,31.0077,0.000643329,0.0010255,0.000161444,0.00108457,0.000584259,1.22004,0.0006268,0.02162,993,1681,5.33089,-31.0077
-224,-657,5.3219,31.3683,0.00131203,0.00136915,0.000392739,0.00173437,0.000946816,0.821695,0.00100274,0.0169636,1000,1681,5.32191,-31.3683
-217,-657,5.32648,31.7271,0.00175236,0.00174056,0.000457379,0.00220388,0.00128904,0.778946,0.00127851,0.0107827,1007,1681,5.3265,-31.7271
-210,-657,5.34198,32.057,0.00207118,0.0020654,0.000542546,0.00261084,0.00152574,0.782737,0.00151451,0.0109518,1014,1681,5.34196,-32.057
-203,-657,5.34827,32.3983,0.00250445,0.00234167,0.000664167,0.00309219,0.00175392,0.72443,0.00179065,0.0131797,1021,1681,5.34821,-32.3983
-196,-657,5.36353,32.7325,0.0028809,0.00262287,0.000803938,0.00356611,0.00193766,0.705837,0.00206147,0.0141655,1028,1681,5.36346,-32.7326
-189,-657,5.38184,33.0568,0.00311372,0.00327008,0.000958802,0.00415388,0.00222991,0.826078,0.00240041,0.0104634,1035,1681,5.38182,-33.0568
-182,-657,5.36694,33.3732,0.00343658,0.00440776,0.00111803,0.00514109,0.00270324,0.990269,0.00296953,0.00878059,1042,1681,5.36693,-33.3732
-175,-657,5.37305,33.6919,0.00381872,0.00633531,0.00136532,0.00693373,0.0032203,1.15771,0.00400656,0.0109249,1049,1681,5.37308,-33.6919
-168,-657,5.3606,34.0208,0.00404961,0.00843227,0.00159353,0.00895042,0.00353147,1.25642,0.00520569,0.0127944,1056,1681,5.36063,-34.0207
-161,-657,5.37659,34.3394,0.00429662,0.0111564,0.00195168,0.0116728,0.00378022,1.31213,0.0068773,0.0126088,1063,1681,5.37664,-34.3393
-154,-657,5.43542,34.6028,0.00449527,0.0146825,0.00227013,0.0151655,0.00401229,1.36117,0.00907357,0.013938,1070,1681,5.43541,-34.6028
-147,-657,5.45471,34.917,0.00465053,0.0188006,0.00248049,0.0192228,0.0042283,1.40219,0.0116641,0.0281948,1077,1681,5.45469,-34.917
-140,-657,5.38428,35.5548,0.00484461,0.0234904,0.00276044,0.0238905,0.00444452,1.42686,0.0146717,0.0496256,1084,1681,5.38428,-35.5548
-133,-657,5.21326,36.1154,0.00509886,0.0288173,0.00316259,0.0292317,0.0046844,1.44049,0.0181292,0.049054,1091,1681,5.21322,-36.1153
-126,-657,5.31726,36.6023,0.00537363,0.0346084,0.00337518,0.034993,0.00498903,1.45733,0.0218563,0.0481991,1098,1681,5.31732,-36.6023
-119,-657,5.38696,36.9641,0,0,0,0,0,0,0,-1,1105,1681,5.38693,-36.9641
-112,-657,4.6051,21.3439,0,0,0,0,0,0,0,-1,1112,1681,4.60512,-21.3438
-105,-657,7.36963,34.7488,0,0,0,0,0,0,0,-1,1119,1681,7.3696,-34.7488
-98,-657,3.78662,8.16785,0,0,0,0,0,0,0,-1,1126,1681,3.78663,-8.16786
-91,-657,3.6521,16.6017,0,0,0,0,0,0,0,-1,1133,1681,3.65215,-16.6017
-84,-657,4.08008,10.4579,0,0,0,0,0,0,0,-1,1140,1681,4.08006,-10.4579
-77,-657,-5.29846,0.396606,0,0,0,0,0,0,0,-1,1147,1681,-5.29842,-0.396573
-70,-657,-4.14893,2.14575,0,0,0,0,0,0,0,-1,1154,1681,-4.14893,-2.1458
-63,-657,-4.1239,3.177,0,0,0,0,0,0,0,-1,1161,1681,-4.12391,-3.17698
-56,-657,-6.40576,5.73987,0,0,0,0,0,0,0,-1,1168,1681,-6.40577,-5.7399
-49,-657,-5.98462,7.54053,0,0,0,0,0,0,0,-1,1175,1681,-5.98466,-7.5405
-42,-657,-5.71948,9.28955,0,0,0,0,0,0,0,-1,1182,1681,-5.71951,-9.2895
-35,-657,-5.44556,11.015,0,0,0,0,0,0,0,-1,1189,1681,-5.44555,-11.015
-28,-657,-1.3446,8.92847,0,0,0,0,0,0,0,-1,1196,1681,-1.34459,-8.92848
-21,-657,5.08801,38.7185,0,0,0,0,0,0,0,-1,1203,1681,5.08799,-38.7185
-14,-657,5.52478,38.5823,0.0629741,-0.0987494,-0.011139,0.0637378,-0.099513,-0.0684461,0.0950043,0.0446852,1210,1681,5.52477,-38.5823
-7,-657,6.0481,38.4742,0.0584439,-0.101217,-0.0068975,0.0587414,-0.101514,-0.043094,0.0936156,0.0447132,1217,1681,6.04809,-38.4742
0,-657,7.0199,38.6315,0.0532184,-0.0941581,-0.000215515,0.0532187,-0.0941584,-0.00146234,0.0861756,0.0423179,1224,1681,7.01996,-38.6315
7,-657,7.995,38.4554,0.0453728,-0.0753023,0.00942526,0.0461046,-0.076034,0.0774783,0.0712189,0.0443564,1231,1681,7.99494,-38.4555
14,-657,7.93481,40.0682,0.0347923,-0.0509307,0.0186559,0.0386764,-0.0548148,0.205264,0.0542446,0.0409988,1238,1681,7.93478,-40.0683
21,-657,8.01575,42.6315,0.0237647,-0.0240731,0.0271461,0.0360263,-0.0363347,0.424256,0.0417777,0.0415693,1245,1681,8.0157,-42.6315
28,-657,7.07495,42.0038,0.0117346,0.00286282,0.0304799,0.0380997,-0.0235023,0.713138,0.0358973,0.0427134,1252,1681,7.0749,-42.0038
35,-657,6.20166,41.9718,0.00874217,0.0300513,0.0337974,0.0548338,-0.0160403,0.938091,0.0429138,0.0418029,1259,1681,6.20169,-41.9718
42,-657,12.4185,41.4012,0.0116559,0.0519018,0.0297553,0.0676998,-0.00414203,1.08271,0.0465753,0.0475674,1266,1681,12.4185,-41.4013
49,-657,13.3575,41.7775,0.0107888,0.0688146,0.0255849,0.0784842,0.00111924,1.20945,0.0519538,0.0470519,1273,1681,13.3575,-41.7774
56,-657,2.98621,40.6348,0.0131749,0.0813368,0.0191599,0.0863533,0.00815844,1.31472,0.0550513,0.0452252,1280,1681,2.9862,-40.6348
63,-657,1.72107,40.1162,0.0179605,0.0882555,0.0116437,0.090134,0.016082,1.41084,0.0555107,0.045618,1287,1681,1.72103,-40.1162
70,-657,0.575317,39.7106,0,0,0,0,0,0,0,-1,1294,1681,0.575265,-39.7106
77,-657,-0.565186,39.1587,0,0,0,0,0,0,0,-1,1301,1681,-0.565152,-39.1586
84,-657,9.61694,40.2048,0,0,0,0,0,0,0,-1,1308,1681,9.61694,-40.2048
91,-657,8.88574,39.8544,0.0543321,0.0706614,-0.0220031,0.0859659,0.0390277,-0.963057,0.0497024,0.0486802,1315,1681,8.88576,-39.8543
98,-657,8.14905,39.5287,0.0612908,0.0572509,-0.0263125,0.0856608,0.0328809,-0.74709,0.0498991,0.0450576,1322,1681,8.14906,-39.5287
105,-657,7.37073,39.1005,0.0694968,0.0436488,-0.0277439,0.0871792,0.0259664,-0.567427,0.051686,0.0447376,1329,1681,7.37069,-39.1004
112,-657,6.9281,39.1021,0.0733151,0.0367945,-0.0245565,0.0856565,0.0244531,-0.465701,0.0509484,0.0451756,1336,1681,6.92812,-39.1021
119,-657,6.86243,39.5614,0.072776,0.0310523,-0.0192364,0.0802912,0.0235371,-0.372442,0.0476601,0.0456804,1343,1681,6.86238,-39.5615
126,-657,7.11145,39.996,0.0703311,0.0289062,-0.0118709,0.0734917,0.0257456,-0.260214,0.0430596,0.0452245,1350,1681,7.11149,-39.996
133,-657,7.75842,40.3713,0.0689197,0.0306796,-0.00495507,0.0695513,0.0300479,-0.126789,0.040279,0.046466,1357,1681,7.75838,-40.3713
140,-657,8.63879,40.7845,0,0,0,0,0,0,0,-1,1364,1681,8.63879,-40.7846
147,-657,9.5022,41.262,0,0,0,0,0,0,0,-1,1371,1681,9.50216,-41.262
154,-657,14.5862,42.9543,0,0,0,0,0,0,0,-1,1378,1681,14.5862,-42.9543
161,-657,4.2926,24.9226,0,0,0,0,0,0,0,-1,1385,1681,4.29264,-24.9226
168,-657,5.21643,0.70105,0,0,0,0,0,0,0,-1,1392,1681,5.21648,-0.7011
175,-657,5.52771,0.649048,0,0,0,0,0,0,0,-1,1399,1681,5.52774,-0.649019
182,-657,5.73999,1.02612,0,0,0,0,0,0,0,-1,1406,1681,5.73995,-1.02611
189,-657,5.92126,1.44116,0,0,0,0,0,0,0,-1,1413,1681,5.92126,-1.44115
196,-657,4.92834,9.59021,0,0,0,0,0,0,0,-1,1420,1681,4.9284,-9.59018
203,-657,6.26343,5.16492,0,0,0,0,0,0,0,-1,1427,1681,6.26345,-5.16488
210,-657,3.9856,5.28088,0,0,0,0,0,0,0,-1,1434,1681,3.98555,-5.28084
217,-657,3.95178,5.2843,0,0,0,0,0,0,0,-1,1441,1681,3.95174,-5.28431
224,-657,6.66736,-0.250244,0,0,0,0,0,0,0,-1,1448,1681,6.66737,0.250229
231,-657,6.85498,-1.70752,0,0,0,0,0,0,0,-1,1455,1681,6.855,1.70758
238,-657,5.34143,-2.89819,0,0,0,0,0,0,0,-1,1462,1681,5.34143,2.89813
245,-657,8.66003,-0.102783,0,0,0,0,0,0,0,-1,1469,1681,8.66,0.102824
252,-657,4.78955,0.623779,0,0,0,0,0,0,0,-1,1476,1681,4.7895,-0.623826
259,-657,2.61523,4.31909,0,0,0,0,0,0,0,-1,1483,1681,2.61523,-4.31908
266,-657,5.35437,11.4742,0,0,0,0,0,0,0,-1,1490,1681,5.35441,-11.4742
273,-657,10.1937,35.2975,0,0,0,0,0,0,0,-1,1497,1681,10.1937,-35.2975
280,-657,9.97009,35.0868,0,0,0,0,0,0,0,-1,1504,1681,9.97007,-35.0868
287,-657,9.98145,34.8733,0,0,0,0,0,0,0,-1,1511,1681,9.98146,-34.8733
294,-657,10.2378,34.498,0.0109381,0.0119432,-0.00524049,0.0167052,0.00617613,-0.833199,0.00975328,0.0319399,1518,1681,10.2378,-34.4981
301,-657,10.2582,34.2401,0.00942859,0.00998178,-0.00442257,0.0141364,0.00527397,-0.816628,0.00824884,0.0195692,1525,1681,10.2582,-34.2401
308,-657,10.256,33.9351,0.00799786,0.00824258,-0.00365601,0.0117783,0.00446216,-0.802126,0.00686642,0.0137901,1532,1681,10.256,-33.935
315,-657,10.2708,33.6,0.00659942,0.00691076,-0.00294235,0.00970155,0.00380862,-0.811827,0.00564412,0.0114195,1539,1681,10.2707,-33.6
322,-657,10.3043,33.2864,0.00534786,0.00587124,-0.00238887,0.00801272,0.00320639,-0.839953,0.00465678,0.0126347,1546,1681,10.3043,-33.2864
329,-657,10.3146,32.9924,0.00424583,0.00502325,-0.00196927,0.00664181,0.00262727,-0.882839,0.00386243,0.0188581,1553,1681,10.3145,-32.9924
336,-657,10.3175,32.6642,0.00331746,0.00426798,-0.00158566,0.00544807,0.00213737,-0.931,0.00316966,0.0175041,1560,1681,10.3175,-32.6642
343,-657,10.3403,32.3464,0.00228966,0.00319013,-0.00120621,0.0040274,0.0014524,-0.964023,0.00235514,0.0133325,1567,1681,10.3403,-32.3464
350,-657,10.3456,32.0396,0.00149535,0.00257298,-0.000893312,0.00307739,0.000990932,-1.05677,0.00181387,0.0147246,1574,1681,10.3456,-32.0395
357,-657,10.318,31.6945,0.00093088,0.00192515,-0.000722109,0.00230471,0.000551326,-1.08686,0.00138964,0.01371,1581,1681,10.318,-31.6944
364,-657,10.3112,31.3682,0.000405397,0.00103351,-0.000410535,0.00123634,0.000202568,-1.11191,0.000765688,0.0104508,1588,1681,10.3112,-31.3681
371,-657,10.3116,31.0436,-4.85417e-05,0.000101771,-0.000118326,0.000166791,-0.000113562,-1.06834,0.000162832,0.0149893,1595,1681,10.3117,-31.0436
378,-657,10.2842,30.6957,-0.000441802,-0.000912952,0.000210502,-0.000361455,-0.000993299,0.364625,0.00058052,0.0147109,1602,1681,10.2842,-30.6956
385,-657,10.2634,30.3433,-0.000742202,-0.00209421,0.000612077,-0.000506274,-0.00233014,0.367904,0.00141518,0.0129362,1609,1681,10.2634,-30.3433
392,-657,10.243,29.9843,-0.000977719,-0.00352288,0.000997291,-0.000633497,-0.0038671,0.332354,0.00239499,0.0129988,1616,1681,10.2431,-29.9843
399,-657,10.2581,29.6044,-0.00129415,-0.00490572,0.00142036,-0.000802482,-0.00539738,0.333246,0.00336283,0.0129881,1623,1681,10.2581,-29.6044
406,-657,10.244,29.2384,-0.00137977,-0.00629707,0.00180117,-0.000790611,-0.00688623,0.316131,0.00435129,0.0144894,1630,1681,10.244,-29.2384
413,-657,10.2317,28.8601,-0.00108052,-0.00781581,0.00200581,-0.00052843,-0.00836789,0.268593,0.00541106,0.0138944,1637,1681,10.2317,-28.8601
420,-657,10.2416,28.4766,-0.000707888,-0.00882648,0.00198548,-0.000248333,-0.00928603,0.227453,0.00610959,0.0159378,1644,1681,10.2416,-28.4766
427,-657,10.2134,28.0857,-6.24377e-05,-0.0101806,0.00193536,0.000295114,-0.0105382,0.182687,0.00712586,0.0204088,1651,1681,10.2134,-28.0857
434,-657,10.2229,27.7585,0.000832256,-0.0116882,0.00174253,0.00107025,-0.0119262,0.135739,0.00833047,0.0280218,1658,1681,10.2228,-27.7585
441,-657,10.3712,27.604,0.00187982,-0.0135793,0.00140597,0.00200665,-0.0137062,0.0899638,0.00987453,0.0457759,1665,1681,10.3712,-27.6039
448,-657,9.98022,27.135,0,0,0,0,0,0,0,-1,1672,1681,9.98017,-27.135
455,-657,10.0546,26.8687,0,0,0,0,0,0,0,-1,1679,1681,10.0545,-26.8686
462,-657,10.0336,26.5952,0,0,0,0,0,0,0,-1,1686,1681,10.0336,-26.5952
469,-657,9.70483,21.9269,0,0,0,0,0,0,0,-1,1693,1681,9.70488,-21.9269
476,-657,8.9519,20.5712,0,0,0,0,0,0,0,-1,1700,1681,8.95194,-20.5712
483,-657,10.0663,21.8628,0,0,0,0,0,0,0,-1,1707,1681,10.0663,-21.8628
490,-657,11.6039,21.2185,0,0,0,0,0,0,0,-1,1714,1681,11.6038,-21.2185
497,-657,9.20862,17.8127,0,0,0,0,0,0,0,-1,1721,1681,9.2086,-17.8127
504,-657,0,0,0,0,0,0,0,0,0,-1,1728,1681,0,0
511,-657,0,0,0,0,0,0,0,0,0,-1,1735,1681,0,0
518,-657,0,0,0,0,0,0,0,0,0,-1,1742,1681,0,0
525,-657,0,0,0,0,0,0,0,0,0,-1,1749,1681,0,0
532,-657,0,0,0,0,0,0,0,0,0,-1,1756,1681,0,0
539,-657,0,0,0,0,0,0,0,0,0,-1,1763,1681,0,0
546,-657,0,0,0,0,0,0,0,0,0,-1,1770,1681,0,0
553,-657,0,0,0,0,0,0,0,0,0,-1,1777,1681,0,0
560,-657,0,0,0,0,0,0,0,0,0,-1,1784,1681,0,0
567,-657,0,0,0,0,0,0,0,0,0,-1,1791,1681,0,0
574,-657,0,0,0,0,0,0,0,0,0,-1,1798,1681,0,0
581,-657,0,0,0,0,0,0,0,0,0,-1,1805,1681,0,0
588,-657,0,0,0,0,0,0,0,0,0,-1,1812,1681,0,0
595,-657,0,0,0,0,0,0,0,0,0,-1,1819,1681,0,0
602,-657,0,0,0,0,0,0,0,0,0,-1,1826,1681,0,0
609,-657,0,0,0,0,0,0,0,0,0,-1,1833,1681,0,0
616,-657,0,0,0,0,0,0,0,0,0,-1,1840,1681,0,0
623,-657,0,0,0,0,0,0,0,0,0,-1,1847,1681,0,0
630,-657,0,0,0,0,0,0,0,0,0,-1,1854,1681,0,0
637,-657,0,0,0,0,0,0,0,0,0,-1,1861,1681,0,0
644,-657,0,0,0,0,0,0,0,0,0,-1,1868,1681,0,0
651,-657,0,0,0,0,0,0,0,0,0,-1,1875,1681,0,0
658,-657,0,0,0,0,0,0,0,0,0,-1,1882,1681,0,0
665,-657,0,0,0,0,0,0,0,0,0,-1,1889,1681,0,0
672,-657,0,0,0,0,0,0,0,0,0,-1,1896,1681,0,0
679,-657,0,0,0,0,0,0,0,0,0,-1,1903,1681,0,0
686,-657,0,0,0,0,0,0,0,0,0,-1,1910,1681,0,0
693,-657,0,0,0,0,0,0,0,0,0,-1,1917,1681,0,0
700,-657,0,0,0,0,0,0,0,0,0,-1,1924,1681,0,0
707,-657,0,0,0,0,0,0,0,0,0,-1,1931,1681,0,0
714,-657,0,0,0,0,0,0,0,0,0,-1,1938,1681,0,0
721,-657,0,0,0,0,0,0,0,0,0,-1,1945,1681,0,0
728,-657,0,0,0,0,0,0,0,0,0,-1,1952,1681,0,0
735,-657,0,0,0,0,0,0,0,0,0,-1,1959,1681,0,0
742,-657,0,0,0,0,0,0,0,0,0,-1,1966,1681,0,0
749,-657,0,0,0,0,0,0,0,0,0,-1,1973,1681,0,0
756,-657,0,0,0,0,0,0,0,0,0,-1,1980,1681,0,0
763,-657,0,0,0,0,0,0,0,0,0,-1,1987,1681,0,0
770,-657,0,0,0,0,0,0,0,0,0,-1,1994,1681,0,0
777,-657,0,0,0,0,0,0,0,0,0,-1,2001,1681,0,0
784,-657,0,0,0,0,0,0,0,0,0,-1,2008,1681,0,0
791,-657,0,0,0,0,0,0,0,0,0,-1,2015,1681,0,0
798,-657,0,0,0,0,0,0,0,0,0,-1,2022,1681,0,0
805,-657,0,0,0,0,0,0,0,0,0,-1,2029,1681,0,0
812,-657,0,0,0,0,0,0,0,0,0,-1,2036,1681,0,0
-700,-664,0,0,0,0,0,0,0,0,0,-1,524,1688,0,0
-693,-664,0,0,0,0,0,0,0,0,0,-1,531,1688,0,0
-686,-664,0,0,0,0,0,0,0,0,0,-1,538,1688,0,0
-679,-664,0,0,0,0,0,0,0,0,0,-1,545,1688,0,0
-672,-664,0,0,0,0,0,0,0,0,0,-1,552,1688,0,0
-665,-664,0,0,0,0,0,0,0,0,0,-1,559,1688,0,0
-658,-664,0,0,0,0,0,0,0,0,0,-1,566,1688,0,0
-651,-664,0,0,0,0,0,0,0,0,0,-1,573,1688,0,0
-644,-664,0,0,0,0,0,0,0,0,0,-1,580,1688,0,0
-637,-664,0,0,0,0,0,0,0,0,0,-1,587,1688,0,0
-630,-664,0,0,0,0,0,0,0,0,0,-1,594,1688,0,0
-623,-664,0,0,0,0,0,0,0,0,0,-1,601,1688,0,0
-616,-664,0,0,0,0,0,0,0,0,0,-1,608,1688,0,0
-609,-664,0,0,0,0,0,0,0,0,0,-1,615,1688,0,0
-602,-664,0,0,0,0,0,0,0,0,0,-1,622,1688,0,0
-595,-664,0,0,0,0,0,0,0,0,0,-1,629,1688,0,0
-588,-664,0,0,0,0,0,0,0,0,0,-1,636,1688,0,0
-581,-664,0,0,0,0,0,0,0,0,0,-1,643,1688,0,0
-574,-664,0,0,0,0,0,0,0,0,0,-1,650,1688,0,0
-567,-664,0,0,0,0,0,0,0,0,0,-1,657,1688,0,0
-560,-664,0,0,0,0,0,0,0,0,0,-1,664,1688,0,0
-553,-664,0,0,0,0,0,0,0,0,0,-1,671,1688,0,0
-546,-664,0,0,0,0,0,0,0,0,0,-1,678,1688,0,0
-539,-664,0,0,0,0,0,0,0,0,0,-1,685,1688,0,0
-532,-664,0,0,0,0,0,0,0,0,0,-1,692,1688,0,0
-525,-664,0,0,0,0,0,0,0,0,0,-1,699,1688,0,0
-518,-664,0,0,0,0,0,0,0,0,0,-1,706,1688,0,0
-511,-664,0,0,0,0,0,0,0,0,0,-1,713,1688,0,0
-504,-664,0,0,0,0,0,0,0,0,0,-1,720,1688,0,0
-497,-664,0,0,0,0,0,0,0,0,0,-1,727,1688,0,0
-490,-664,0,0,0,0,0,0,0,0,0,-1,734,1688,0,0
-483,-664,0,0,0,0,0,0,0,0,0,-1,741,1688,0,0
-476,-664,0,0,0,0,0,0,0,0,0,-1,748,1688,0,0
-469,-664,0,0,0,0,0,0,0,0,0,-1,755,1688,0,0
-462,-664,0,0,0,0,0,0,0,0,0,-1,762,1688,0,0
-455,-664,0,0,0,0,0,0,0,0,0,-1,769,1688,0,0
-448,-664,0,0,0,0,0,0,0,0,0,-1,776,1688,0,0
-441,-664,0,0,0,0,0,0,0,0,0,-1,783,1688,0,0
-434,-664,0,0,0,0,0,0,0,0,0,-1,790,1688,0,0
-427,-664,0,0,0,0,0,0,0,0,0,-1,797,1688,0,0
-420,-664,0,0,0,0,0,0,0,0,0,-1,804,1688,0,0
-413,-664,0,0,0,0,0,0,0,0,0,-1,811,1688,0,0
-406,-664,0,0,0,0,0,0,0,0,0,-1,818,1688,0,0
-399,-664,0,0,0,0,0,0,0,0,0,-1,825,1688,0,0
-392,-664,0,0,0,0,0,0,0,0,0,-1,832,1688,0,0
-385,-664,0,0,0,0,0,0,0,0,0,-1,839,1688,0,0
-378,-664,0,0,0,0,0,0,0,0,0,-1,846,1688,0,0
-371,-664,-1.61676,5.92737,0,0,0,0,0,0,0,-1,853,1688,-1.61675,-5.92735
-364,-664,-3.901,5.87024,0,0,0,0,0,0,0,-1,860,1688,-3.90097,-5.87027
-357,-664,-4.81012,4.53479,0,0,0,0,0,0,0,-1,867,1688,-4.81012,-4.5348
-350,-664,-5.7193,3.19934,0,0,0,0,0,0,0,-1,874,1688,-5.71927,-3.19932
-343,-664,7.80219,22.6451,0,0,0,0,0,0,0,-1,881,1688,7.80219,-22.6451
-336,-664,4.43756,27.1467,0,0,0,0,0,0,0,-1,888,1688,4.43757,-27.1468
-329,-664,4.8681,27.2225,0,0,0,0,0,0,0,-1,895,1688,4.86813,-27.2225
-322,-664,5.35553,27.3022,0.0202915,-0.0628593,0.0083535,0.0211224,-0.0636902,0.099142,0.050981,0.0489908,902,1688,5.35552,-27.3023
-315,-664,5.59772,27.4274,0.0168384,-0.0501228,0.00621567,0.0174105,-0.0506948,0.0917801,0.0408559,0.0455471,909,1688,5.59774,-27.4274
-308,-664,5.83807,27.4683,0.0129828,-0.0387913,0.00402841,0.0132943,-0.0391028,0.0771884,0.031451,0.0499159,916,1688,5.83807,-27.4682
-301,-664,5.91882,27.1943,0,0,0,0,0,0,0,-1,923,1688,5.91885,-27.1943
-294,-664,5.92487,27.5907,0.0062894,-0.0213978,0.00138536,0.00635855,-0.0214669,0.04987,0.0168359,0.0452666,930,1688,5.92487,-27.5907
-287,-664,5.91479,28.0043,0.00396329,-0.0153865,0.000525444,0.00397755,-0.0154007,0.0271284,0.0118183,0.0326545,937,1688,5.91481,-28.0043
-280,-664,5.78601,28.3519,0.00216155,-0.0108819,-7.11751e-05,0.00216194,-0.0108823,-0.00545656,0.00807258,0.0222234,944,1688,5.78604,-28.352
-273,-664,5.76569,28.7202,0.000865928,-0.00746935,-0.000507113,0.000896666,-0.00750009,-0.0605418,0.00532418,0.0158727,951,1688,5.7657,-28.7203
-266,-664,5.68945,29.1173,-0.000211963,-0.00381324,-0.00091437,6.89575e-06,-0.0040321,-0.234935,0.00269037,0.0213721,958,1688,5.68947,-29.1173
-259,-664,5.68738,29.5055,-0.000758839,-0.00177531,-0.000906179,-0.000228103,-0.00230605,-0.529828,0.00146725,0.0194356,965,1688,5.68741,-29.5055
-252,-664,5.71857,29.8649,-0.000975892,-0.000646163,-0.00068073,-0.000110617,-0.00151144,-0.904204,0.000972851,0.0156291,972,1688,5.71857,-29.8648
-245,-664,5.7265,30.2744,-0.000838605,-0.000171765,-0.000546257,0.000134788,-0.00114516,-1.0594,0.000812105,0.0190803,979,1688,5.72652,-30.2744
-238,-664,5.75165,30.7017,-0.000842374,0.000335415,-0.000482964,0.000508131,-0.00101509,-1.22735,0.000895521,0.0238044,986,1688,5.75164,-30.7017
-231,-664,5.70898,31.0269,-0.000473007,0.000590025,-0.000157327,0.00061282,-0.000495802,-1.42691,0.000641251,0.0213679,993,1688,5.70896,-31.0268
-224,-664,5.69391,31.3835,0.000319535,0.000856237,0.00012665,0.000884623,0.000291149,1.35031,0.000520584,0.0150566,1000,1688,5.69394,-31.3836
-217,-664,5.69617,31.7513,0.000789647,0.00121961,0.000187198,0.00128969,0.000719566,1.21258,0.000746265,0.0112694,1007,1688,5.69614,-31.7514
-210,-664,5.69531,32.0709,0.000970405,0.00153707,0.000316482,0.00167852,0.000828958,1.15049,0.000969119,0.0108463,1014,1688,5.69529,-32.071
-203,-664,5.67249,32.4114,0.00137206,0.00175641,0.000518407,0.00211712,0.00101135,0.9629,0.00122272,0.0127887,1021,1688,5.6725,-32.4114
-196,-664,5.66565,32.7347,0.00178476,0.00197425,0.000650389,0.00253676,0.00122225,0.857728,0.00146492,0.0142963,1028,1688,5.66569,-32.7347
-189,-664,5.68469,33.059,0.00203834,0.00248876,0.00078712,0.00308226,0.00144485,0.924736,0.0017807,0.0100851,1035,1688,5.68468,-33.059
-182,-664,5.69324,33.3782,0.00235578,0.00344523,0.000906105,0.00395775,0.00184327,1.05604,0.00228679,0.00995429,1042,1688,5.69322,-33.3782
-175,-664,5.6853,33.6663,0.00274811,0.00501916,0.00108734,0.00545581,0.00231146,1.18893,0.00316213,0.0126346,1049,1688,5.68536,-33.6663
-168,-664,5.68689,33.9646,0.00299702,0.00671688,0.00124485,0.00709502,0.00261888,1.27589,0.00414283,0.0135868,1056,1688,5.6869,-33.9646
-161,-664,5.68982,34.2771,0.00325896,0.00890009,0.00149792,0.00927317,0.00288588,1.3267,0.0054796,0.0102494,1063,1688,5.68986,-34.2772
-154,-664,5.74292,34.5713,0.00350775,0.0117497,0.00171465,0.0120922,0.00316527,1.37365,0.00724078,0.0106675,1070,1688,5.74294,-34.5713
-147,-664,5.75281,34.8767,0.0037287,0.0150006,0.00183233,0.015291,0.00343833,1.41363,0.00926308,0.016961,1077,1688,5.75277,-34.8767
-140,-664,5.77271,35.1998,0.00397975,0.0185733,0.00199738,0.0188417,0.00371132,1.4372,0.011525,0.022776,1084,1688,5.77269,-35.1999
-133,-664,5.703,35.5918,0.00435511,0.0225816,0.00228194,0.022863,0.00407376,1.44812,0.0140819,0.026136,1091,1688,5.70296,-35.5918
-126,-664,5.81299,36.0868,0.00479418,0.0267746,0.00240162,0.0270339,0.00453484,1.46323,0.0167173,0.0400515,1098,1688,5.81303,-36.0868
-119,-664,5.81287,36.392,0.00535978,0.030148,0.00237689,0.0303738,0.00513392,1.47606,0.0187734,0.0439032,1105,1688,5.81288,-36.3919
-112,-664,6.38782,36.3097,0,0,0,0,0,0,0,-1,1112,1688,6.3878,-36.3097
-105,-664,6.78137,35.389,0,0,0,0,0,0,0,-1,1119,1688,6.78142,-35.3891
-98,-664,6.74829,36.4489,0,0,0,0,0,0,0,-1,1126,1688,6.7483,-36.4488
-91,-664,5.41931,25.6302,0,0,0,0,0,0,0,-1,1133,1688,5.41932,-25.6302
-84,-664,3.48389,16.6913,0,0,0,0,0,0,0,-1,1140,1688,3.4839,-16.6913
-77,-664,4.52014,11.2122,0,0,0,0,0,0,0,-1,1147,1688,4.5202,-11.2122
-70,-664,4.20374,8.24524,0,0,0,0,0,0,0,-1,1154,1688,4.20379,-8.24519
-63,-664,-4.677,2.40503,0,0,0,0,0,0,0,-1,1161,1688,-4.67702,-2.40498
-56,-664,-4.66504,3.32727,0,0,0,0,0,0,0,-1,1168,1688,-4.6651,-3.32724
-49,-664,-2.54297,3.31848,0,0,0,0,0,0,0,-1,1175,1688,-2.54297,-3.31852
-42,-664,-0.359253,4.38684,0,0,0,0,0,0,0,-1,1182,1688,-0.359261,-4.38685
-35,-664,-0.705566,3.55017,0,0,0,0,0,0,0,-1,1189,1688,-0.705567,-3.55023
-28,-664,-1.54236,10.2538,0,0,0,0,0,0,0,-1,1196,1688,-1.54236,-10.2538
-21,-664,6.03296,39.0577,0,0,0,0,0,0,0,-1,1203,1688,6.033,-39.0577
-14,-664,6.21838,39.0306,0,0,0,0,0,0,0,-1,1210,1688,6.21837,-39.0306
-7,-664,6.65869,39.1754,0,0,0,0,0,0,0,-1,1217,1688,6.65863,-39.1754
0,-664,6.72375,38.5161,0,0,0,0,0,0,0,-1,1224,1688,6.72375,-38.5161
7,-664,7.74646,38.3444,0,0,0,0,0,0,0,-1,1231,1688,7.74651,-38.3443
14,-664,9.00781,42.5555,0.0252289,-0.0268773,0.0179719,0.0308263,-0.0324747,0.30193,0.036551,0.0438288,1238,1688,9.00785,-42.5555
21,-664,7.92944,42.0924,0.0158925,-0.00468711,0.0246354,0.0323008,-0.0210953,0.587569,0.0310537,0.0436087,1245,1688,7.92949,-42.0925
28,-664,6.74402,41.7511,0.00548326,0.0176194,0.0273966,0.0396119,-0.0165093,0.894383,0.0333041,0.0427543,1252,1688,6.74397,-41.751
35,-664,5.78613,41.319,0.00290517,0.0399039,0.0301534,0.0567805,-0.0139714,1.06054,0.0432693,0.0456858,1259,1688,5.78613,-41.319
42,-664,4.67175,40.8446,0.00514727,0.0569525,0.0266897,0.0682424,-0.00614265,1.17062,0.0476746,0.0458031,1266,1688,4.67179,-40.8446
49,-664,3.54712,40.442,0.00386343,0.0698703,0.0230159,0.0771031,-0.00336939,1.26631,0.0525612,0.043711,1273,1688,3.54709,-40.442
56,-664,2.57117,40.0941,0.00515718,0.0787649,0.0174307,0.0826839,0.00123816,1.34964,0.0547145,0.0465915,1280,1688,2.57114,-40.0942
63,-664,1.39099,39.7241,0.00847102,0.0828405,0.0109138,0.084409,0.00690249,1.42805,0.0541188,0.0483248,1287,1688,1.39105,-39.7242
70,-664,0.222412,39.1056,0.0143925,0.0834146,0.00351292,0.0835929,0.0142142,1.52008,0.0516467,0.0483404,1294,1688,0.22245,-39.1056
77,-664,-0.97876,38.5378,0.0220605,0.0787266,-0.00394411,0.0789998,0.0217873,-1.50164,0.0471143,0.0464576,1301,1688,-0.978796,-38.5378
84,-664,8.70435,40.5148,0,0,0,0,0,0,0,-1,1308,1688,8.70433,-40.5148
91,-664,8.47742,39.9496,0.0359338,0.0619085,-0.0172257,0.0704941,0.0273482,-1.10841,0.0410391,0.0442721,1315,1688,8.47746,-39.9495
98,-664,8.30872,39.6478,0.0409919,0.0492476,-0.0212573,0.0667741,0.0234654,-0.881298,0.0391153,0.0496108,1322,1688,8.30875,-39.6478
105,-664,7.45032,39.1586,0.0477889,0.0353078,-0.0232,0.0655729,0.0175237,-0.654013,0.0392021,0.0498568,1329,1688,7.45026,-39.1586
112,-664,7.49438,39.4012,0.0518264,0.0292147,-0.0208642,0.0642511,0.01679,-0.537104,0.0384784,0.0486806,1336,1688,7.49436,-39.4013
119,-664,7.33508,39.6143,0.0529914,0.0241287,-0.0172633,0.0610609,0.0160593,-0.437257,0.0365498,0.0489656,1343,1688,7.33506,-39.6143
126,-664,7.29456,39.8761,0,0,0,0,0,0,0,-1,1350,1688,7.29456,-39.8761
133,-664,8.08008,40.458,0,0,0,0,0,0,0,-1,1357,1688,8.08006,-40.458
140,-664,8.83911,40.9224,0,0,0,0,0,0,0,-1,1364,1688,8.83906,-40.9224
147,-664,6.0459,36.001,0,0,0,0,0,0,0,-1,1371,1688,6.04593,-36.001
154,-664,4.76721,26.2594,0,0,0,0,0,0,0,-1,1378,1688,4.76723,-26.2594
161,-664,4.60132,1.56238,0,0,0,0,0,0,0,-1,1385,1688,4.60134,-1.56233
168,-664,5.172,1.25488,0,0,0,0,0,0,0,-1,1392,1688,5.17203,-1.25484
175,-664,5.58313,1.16467,0,0,0,0,0,0,0,-1,1399,1688,5.58317,-1.16466
182,-664,5.74268,1.41113,0,0,0,0,0,0,0,-1,1406,1688,5.74263,-1.41115
189,-664,5.87744,1.87061,0,0,0,0,0,0,0,-1,1413,1688,5.87745,-1.87065
196,-664,6.7594,5.97473,0,0,0,0,0,0,0,-1,1420,1688,6.75943,-5.97478
203,-664,5.38452,5.22034,0,0,0,0,0,0,0,-1,1427,1688,5.38453,-5.2203
210,-664,5.25549,6.45715,0,0,0,0,0,0,0,-1,1434,1688,5.25549,-6.45721
217,-664,5.72009,6.73975,0,0,0,0,0,0,0,-1,1441,1688,5.72014,-6.73972
224,-664,5.05725,7.42908,0,0,0,0,0,0,0,-1,1448,1688,5.05723,-7.42912
231,-664,5.13318,7.60864,0,0,0,0,0,0,0,-1,1455,1688,5.13313,-7.60862
238,-664,4.23193,6.45471,0,0,0,0,0,0,0,-1,1462,1688,4.23197,-6.45476
245,-664,4.42004,6.80896,0,0,0,0,0,0,0,-1,1469,1688,4.4201,-6.80901
252,-664,3.67346,6.85461,0,0,0,0,0,0,0,-1,1476,1688,3.6734,-6.85462
259,-664,4.55823,11.7435,0,0,0,0,0,0,0,-1,1483,1688,4.55826,-11.7435
266,-664,9.63977,35.1713,0,0,0,0,0,0,0,-1,1490,1688,9.63979,-35.1712
273,-664,9.86731,35.2992,0,0,0,0,0,0,0,-1,1497,1688,9.86734,-35.2992
280,-664,9.86206,35.0519,0.00983293,0.0101545,-0.00439615,0.0143928,0.0055946,-0.803675,0.00837801,0.0289963,1504,1688,9.86209,-35.0519
287,-664,9.83582,34.7408,0.00889231,0.00904716,-0.00391662,0.0128871,0.00505235,-0.795281,0.00749796,0.0244388,1511,1688,9.83587,-34.7408
294,-664,9.91968,34.4753,0.00790997,0.00798307,-0.00349562,0.0114423,0.00445071,-0.790626,0.0066603,0.0176163,1518,1688,9.91971,-34.4753
301,-664,9.9541,34.2002,0.00689361,0.00685633,-0.0030564,0.00993143,0.00381851,-0.782348,0.00578469,0.0116414,1525,1688,9.95412,-34.2002
308,-664,9.97339,33.8951,0.0058842,0.00582012,-0.00263385,0.00848621,0.00321811,-0.779317,0.00494694,0.0110751,1532,1688,9.97336,-33.8951
315,-664,9.98376,33.5931,0.00487208,0.00492084,-0.00217228,0.00706887,0.00272404,-0.79101,0.00411682,0.011765,1539,1688,9.9838,-33.5931
322,-664,10.0161,33.3091,0.00391941,0.00419041,-0.00179312,0.00585314,0.00225667,-0.82311,0.0034087,0.0149507,1546,1688,10.0161,-33.3091
329,-664,10.0084,33.0333,0.0030271,0.00343626,-0.00145252,0.00469854,0.00176482,-0.855359,0.00274054,0.0171878,1553,1688,10.0085,-33.0333
336,-664,9.99011,32.6927,0.0022412,0.00272777,-0.00109811,0.00360923,0.00135975,-0.894413,0.00210479,0.0147902,1560,1688,9.99016,-32.6928
343,-664,9.98743,32.3601,0.00136899,0.00173462,-0.000716241,0.00229101,0.000812601,-0.910349,0.0013412,0.0122017,1567,1688,9.98739,-32.3601
350,-664,9.99133,32.0428,0.00066174,0.00103415,-0.00040092,0.00129,0.000405894,-1.0028,0.000761647,0.0138243,1574,1688,9.99134,-32.0428
357,-664,9.99243,31.7075,7.40294e-05,0.000151878,-0.000104899,0.000224841,1.06566e-06,-0.963055,0.00014954,0.0125161,1581,1688,9.9924,-31.7075
364,-664,9.98645,31.3729,-0.000464922,-0.000895126,0.000284361,-0.000323471,-0.00103658,0.461593,0.000612399,0.0103292,1588,1688,9.98647,-31.3729
371,-664,9.97778,31.0616,-0.000948935,-0.00197002,0.000648247,-0.000634324,-0.00228463,0.45184,0.00136181,0.0131322,1595,1688,9.97779,-31.0616
378,-664,9.95374,30.7131,-0.00139804,-0.00317782,0.00108352,-0.000885819,-0.00369004,0.441602,0.00222435,0.012829,1602,1688,9.95378,-30.7131
385,-664,9.92505,30.3577,-0.00171827,-0.00443329,0.00155151,-0.00101423,-0.00513733,0.425994,0.00314186,0.0138133,1609,1688,9.92508,-30.3576
392,-664,9.86023,30.021,-0.00195278,-0.00596128,0.00197538,-0.00114294,-0.00677113,0.389072,0.00418545,0.0165159,1616,1688,9.86019,-30.021
399,-664,9.88745,29.6133,-0.0022581,-0.00742203,0.00241086,-0.00130753,-0.0083726,0.375571,0.00520097,0.0142957,1623,1688,9.88747,-29.6133
406,-664,9.89673,29.2397,-0.00228777,-0.00894575,0.00280655,-0.00126258,-0.00997094,0.350227,0.00626896,0.0129105,1630,1688,9.89673,-29.2397
413,-664,9.89783,28.8522,-0.00184032,-0.010629,0.00300868,-0.000909027,-0.0115603,0.300183,0.00742241,0.0140763,1637,1688,9.89778,-28.8521
420,-664,9.91077,28.5122,-0.00129123,-0.0116525,0.00292783,-0.00052114,-0.0124226,0.257199,0.00811362,0.033842,1644,1688,9.91081,-28.5122
427,-664,9.95496,28.1632,0,0,0,0,0,0,0,-1,1651,1688,9.95498,-28.1632
434,-664,9.90906,27.6969,0,0,0,0,0,0,0,-1,1658,1688,9.90909,-27.6969
441,-664,9.99304,27.6105,0,0,0,0,0,0,0,-1,1665,1688,9.99303,-27.6105
448,-664,7.27502,19.7417,0,0,0,0,0,0,0,-1,1672,1688,7.27505,-19.7417
455,-664,7.53198,11.3838,0,0,0,0,0,0,0,-1,1679,1688,7.53195,-11.3838
462,-664,4.3147,4.25439,0,0,0,0,0,0,0,-1,1686,1688,4.31467,-4.25435
469,-664,6.05469,7.49341,0,0,0,0,0,0,0,-1,1693,1688,6.05474,-7.49339
476,-664,10.2377,22.7128,0,0,0,0,0,0,0,-1,1700,1688,10.2377,-22.7128
483,-664,8.41895,10.9768,0,0,0,0,0,0,0,-1,1707,1688,8.41897,-10.9769
490,-664,3.90771,13.2842,0,0,0,0,0,0,0,-1,1714,1688,3.90776,-13.2841
497,-664,0,0,0,0,0,0,0,0,0,-1,1721,1688,0,0
504,-664,0,0,0,0,0,0,0,0,0,-1,1728,1688,0,0
511,-664,0,0,0,0,0,0,0,0,0,-1,1735,1688,0,0
518,-664,0,0,0,0,0,0,0,0,0,-1,1742,1688,0,0
525,-664,0,0,0,0,0,0,0,0,0,-1,1749,1688,0,0
532,-664,0,0,0,0,0,0,0,0,0,-1,1756,1688,0,0
539,-664,0,0,0,0,0,0,0,0,0,-1,1763,1688,0,0
546,-664,0,0,0,0,0,0,0,0,0,-1,1770,1688,0,0
553,-664,0,0,0,0,0,0,0,0,0,-1,1777,1688,0,0
560,-664,0,0,0,0,0,0,0,0,0,-1,1784,1688,0,0
567,-664,0,0,0,0,0,0,0,0,0,-1,1791,1688,0,0
574,-664,0,0,0,0,0,0,0,0,0,-1,1798,1688,0,0
581,-664,0,0,0,0,0,0,0,0,0,-1,1805,1688,0,0
588,-664,0,0,0,0,0,0,0,0,0,-1,1812,1688,0,0
595,-664,0,0,0,0,0,0,0,0,0,-1,1819,1688,0,0
602,-664,0,0,0,0,0,0,0,0,0,-1,1826,1688,0,0
609,-664,0,0,0,0,0,0,0,0,0,-1,1833,1688,0,0
616,-664,0,0,0,0,0,0,0,0,0,-1,1840,1688,0,0
623,-664,0,0,0,0,0,0,0,0,0,-1,1847,1688,0,0
630,-664,0,0,0,0,0,0,0,0,0,-1,1854,1688,0,0
637,-664,0,0,0,0,0,0,0,0,0,-1,1861,1688,0,0
644,-664,0,0,0,0,0,0,0,0,0,-1,1868,1688,0,0
651,-664,0,0,0,0,0,0,0,0,0,-1,1875,1688,0,0
658,-664,0,0,0,0,0,0,0,0,0,-1,1882,1688,0,0
665,-664,0,0,0,0,0,0,0,0,0,-1,1889,1688,0,0
672,-664,0,0,0,0,0,0,0,0,0,-1,1896,1688,0,0
679,-664,0,0,0,0,0,0,0,0,0,-1,1903,1688,0,0
686,-664,0,0,0,0,0,0,0,0,0,-1,1910,1688,0,0
693,-664,0,0,0,0,0,0,0,0,0,-1,1917,1688,0,0
700,-664,0,0,0,0,0,0,0,0,0,-1,1924,1688,0,0
707,-664,0,0,0,0,0,0,0,0,0,-1,1931,1688,0,0
714,-664,0,0,0,0,0,0,0,0,0,-1,1938,1688,0,0
721,-664,0,0,0,0,0,0,0,0,0,-1,1945,1688,0,0
728,-664,0,0,0,0,0,0,0,0,0,-1,1952,1688,0,0
735,-664,0,0,0,0,0,0,0,0,0,-1,1959,1688,0,0
742,-664,0,0,0,0,0,0,0,0,0,-1,1966,1688,0,0
749,-664,0,0,0,0,0,0,0,0,0,-1,1973,1688,0,0
756,-664,0,0,0,0,0,0,0,0,0,-1,1980,1688,0,0
763,-664,0,0,0,0,0,0,0,0,0,-1,1987,1688,0,0
770,-664,0,0,0,0,0,0,0,0,0,-1,1994,1688,0,0
777,-664,0,0,0,0,0,0,0,0,0,-1,2001,1688,0,0
784,-664,0,0,0,0,0,0,0,0,0,-1,2008,1688,0,0
791,-664,0,0,0,0,0,0,0,0,0,-1,2015,1688,0,0
798,-664,0,0,0,0,0,0,0,0,0,-1,2022,1688,0,0
805,-664,0,0,0,0,0,0,0,0,0,-1,2029,1688,0,0
812,-664,0,0,0,0,0,0,0,0,0,-1,2036,1688,0,0
-700,-671,0,0,0,0,0,0,0,0,0,-1,524,1695,0,0
-693,-671,0,0,0,0,0,0,0,0,0,-1,531,1695,0,0
-686,-671,0,0,0,0,0,0,0,0,0,-1,538,1695,0,0
-679,-671,0,0,0,0,0,0,0,0,0,-1,545,1695,0,0
-672,-671,0,0,0,0,0,0,0,0,0,-1,552,1695,0,0
-665,-671,0,0,0,0,0,0,0,0,0,-1,559,1695,0,0
-658,-671,0,0,0,0,0,0,0,0,0,-1,566,1695,0,0
-651,-671,0,0,0,0,0,0,0,0,0,-1,573,1695,0,0
-644,-671,0,0,0,0,0,0,0,0,0,-1,580,1695,0,0
-637,-671,0,0,0,0,0,0,0,0,0,-1,587,1695,0,0
-630,-671,0,0,0,0,0,0,0,0,0,-1,594,1695,0,0
-623,-671,0,0,0,0,0,0,0,0,0,-1,601,1695,0,0
-616,-671,0,0,0,0,0,0,0,0,0,-1,608,1695,0,0
-609,-671,0,0,0,0,0,0,0,0,0,-1,615,1695,0,0
-602,-671,0,0,0,0,0,0,0,0,0,-1,622,1695,0,0
-595,-671,0,0,0,0,0,0,0,0,0,-1,629,1695,0,0
-588,-671,0,0,0,0,0,0,0,0,0,-1,636,1695,0,0
-581,-671,0,0,0,0,0,0,0,0,0,-1,643,1695,0,0
-574,-671,0,0,0,0,0,0,0,0,0,-1,650,1695,0,0
-567,-671,0,0,0,0,0,0,0,0,0,-1,657,1695,0,0
-560,-671,0,0,0,0,0,0,0,0,0,-1,664,1695,0,0
-553,-671,0,0,0,0,0,0,0,0,0,-1,671,1695,0,0
-546,-671,0,0,0,0,0,0,0,0,0,-1,678,1695,0,0
-539,-671,0,0,0,0,0,0,0,0,0,-1,685,1695,0,0
-532,-671,0,0,0,0,0,0,0,0,0,-1,692,1695,0,0
-525,-671,0,0,0,0,0,0,0,0,0,-1,699,1695,0,0
-518,-671,0,0,0,0,0,0,0,0,0,-1,706,1695,0,0
-511,-671,0,0,0,0,0,0,0,0,0,-1,713,1695,0,0
-504,-671,0,0,0,0,0,0,0,0,0,-1,720,1695,0,0
-497,-671,0,0,0,0,0,0,0,0,0,-1,727,1695,0,0
-490,-671,0,0,0,0,0,0,0,0,0,-1,734,1695,0,0
-483,-671,0,0,0,0,0,0,0,0,0,-1,741,1695,0,0
-476,-671,0,0,0,0,0,0,0,0,0,-1,748,1695,0,0
-469,-671,0,0,0,0,0,0,0,0,0,-1,755,1695,0,0
-462,-671,0,0,0,0,0,0,0,0,0,-1,762,1695,0,0
-455,-671,0,0,0,0,0,0,0,0,0,-1,769,1695,0,0
-448,-671,0,0,0,0,0,0,0,0,0,-1,776,1695,0,0
-441,-671,0,0,0,0,0,0,0,0,0,-1,783,1695,0,0
-434,-671,0,0,0,0,0,0,0,0,0,-1,790,1695,0,0
-427,-671,0,0,0,0,0,0,0,0,0,-1,797,1695,0,0
-420,-671,0,0,0,0,0,0,0,0,0,-1,804,1695,0,0
-413,-671,0,0,0,0,0,0,0,0,0,-1,811,1695,0,0
-406,-671,0,0,0,0,0,0,0,0,0,-1,818,1695,0,0
-399,-671,0,0,0,0,0,0,0,0,0,-1,825,1695,0,0
-392,-671,0,0,0,0,0,0,0,0,0,-1,832,1695,0,0
-385,-671,0,0,0,0,0,0,0,0,0,-1,839,1695,0,0
-378,-671,0,0,0,0,0,0,0,0,0,-1,846,1695,0,0
-371,-671,0,0,0,0,0,0,0,0,0,-1,853,1695,0,0
-364,-671,-4.18738,7.51416,0,0,0,0,0,0,0,-1,860,1695,-4.18739,-7.51419
-357,-671,-5.02393,6.07129,0,0,0,0,0,0,0,-1,867,1695,-5.0239,-6.07135
-350,-671,-5.72333,4.58386,0,0,0,0,0,0,0,-1,874,1695,-5.72333,-4.58386
-343,-671,8.04773,23.1034,0,0,0,0,0,0,0,-1,881,1695,8.04774,-23.1034
-336,-671,7.64795,23.7375,0,0,0,0,0,0,0,-1,888,1695,7.64792,-23.7375
-329,-671,5.36792,27.3291,0,0,0,0,0,0,0,-1,895,1695,5.36795,-27.3292
-322,-671,5.70001,27.7072,0,0,0,0,0,0,0,-1,902,1695,5.70003,-27.7071
-315,-671,5.98346,27.9559,0,0,0,0,0,0,0,-1,909,1695,5.98343,-27.9559
-308,-671,6.25031,27.9792,0,0,0,0,0,0,0,-1,916,1695,6.25033,-27.9793
-301,-671,5.8277,27.4781,0,0,0,0,0,0,0,-1,923,1695,5.82772,-27.4782
-294,-671,5.7309,27.8088,0.00821252,-0.0270031,0.00117006,0.00825135,-0.027042,0.0331767,0.0213176,0.0497494,930,1695,5.73087,-27.8088
-287,-671,6.46283,27.9894,0.00508142,-0.0190271,0.000185401,0.00508285,-0.0190286,0.00768964,0.0146764,0.0480213,937,1695,6.4628,-27.9893
-280,-671,6.52747,28.4143,0.00267083,-0.0132265,-0.000507592,0.00268703,-0.0132427,-0.0318861,0.00984709,0.0391284,944,1695,6.52748,-28.4143
-273,-671,6.12311,28.788,0.000955206,-0.00894051,-0.000990148,0.00105331,-0.00903861,-0.0987538,0.00640577,0.0325186,951,1695,6.12313,-28.788
-266,-671,6.16455,29.1924,-0.000488793,-0.00448654,-0.00143354,-2.78817e-05,-0.00494745,-0.31108,0.00328905,0.0241443,958,1695,6.16454,-29.1924
-259,-671,6.0813,29.5336,-0.00126899,-0.00217831,-0.00141227,-0.000239996,-0.00320731,-0.62967,0.00206286,0.0224222,965,1695,6.0813,-29.5335
-252,-671,6.07971,29.8932,-0.00164833,-0.000996612,-0.00115301,-0.000124298,-0.00252064,-0.923114,0.00164057,0.0166943,972,1695,6.07971,-29.8932
-245,-671,6.07562,30.2947,-0.00163208,-0.000562928,-0.00099767,3.43616e-05,-0.00222937,-1.03134,0.00149783,0.0193648,979,1695,6.07563,-30.2946
-238,-671,6.11182,30.679,-0.00180942,-5.46451e-05,-0.000896847,0.000322616,-0.00218668,-1.17261,0.00157637,0.0205347,986,1695,6.11183,-30.6789
-231,-671,6.08838,31.02,-0.00148299,0.000143225,-0.000473333,0.000270962,-0.00161072,-1.30721,0.0011746,0.0164521,993,1695,6.08836,-31.02
-224,-671,6.03479,31.3665,-0.000561643,0.000310148,-0.000121929,0.00032688,-0.000578375,-1.43442,0.00052933,0.0125461,1000,1695,6.03481,-31.3665
-217,-671,6.03253,31.7253,-5.50905e-05,0.000678787,7.452e-06,0.000678863,-5.51662e-05,1.56064,0.00047204,0.0117836,1007,1695,6.03254,-31.7253
-210,-671,6.02155,32.0913,1.79735e-05,0.000984739,0.000242402,0.00104211,-3.94002e-05,1.33838,0.000708241,0.0106548,1014,1695,6.02154,-32.0913
-203,-671,5.9845,32.4093,0.000432858,0.00115764,0.000570155,0.00147082,0.000119671,1.06849,0.000943192,0.0175952,1021,1695,5.98456,-32.4093
-196,-671,5.99597,32.7289,0.000913396,0.00135425,0.000735001,0.00190116,0.000366481,0.931081,0.00116466,0.0162974,1028,1695,5.99598,-32.7289
-189,-671,5.99963,33.0991,0.00121794,0.00177298,0.000885281,0.00242322,0.000567701,0.937289,0.00146343,0.01156,1035,1695,5.99964,-33.0991
-182,-671,5.99011,33.4099,0.00157523,0.00254967,0.000988769,0.00316474,0.000960155,1.01432,0.00187366,0.00968634,1042,1695,5.99008,-33.4099
-175,-671,5.99194,33.6935,0.00198998,0.00378335,0.00111026,0.0043138,0.00145953,1.12509,0.00253359,0.0125212,1049,1695,5.99197,-33.6935
-168,-671,5.9917,33.9673,0.00225054,0.00510088,0.00118541,0.00552944,0.00182198,1.22389,0.0032537,0.0135809,1056,1695,5.99171,-33.9673
-161,-671,5.995,34.2863,0.00250509,0.00679413,0.00130926,0.00716221,0.00213702,1.29674,0.00424569,0.00929871,1063,1695,5.99498,-34.2862
-154,-671,6.02527,34.5692,0.00274298,0.00903434,0.00138541,0.00932591,0.00245142,1.36337,0.00558252,0.00837043,1070,1695,6.02526,-34.5692
-147,-671,6.03833,34.8724,0.00294316,0.0115239,0.00137152,0.0117378,0.00272927,1.41609,0.00709267,0.00982818,1077,1695,6.03833,-34.8724
-140,-671,6.05786,35.1333,0.00315705,0.014152,0.00138459,0.0143237,0.00298537,1.44743,0.00872592,0.0127427,1084,1695,6.05788,-35.1333
-133,-671,6.05798,35.3672,0.00346093,0.0170167,0.00147626,0.0171756,0.00330203,1.46357,0.0105238,0.0180273,1091,1695,6.05794,-35.3671
-126,-671,6.11023,35.7181,0.00386385,0.0198762,0.00150353,0.0200162,0.00372389,1.47798,0.0122923,0.0249709,1098,1695,6.11017,-35.7181
-119,-671,6.18896,36.1779,0.00433469,0.0221899,0.0014559,0.0223078,0.00421676,1.48997,0.0136846,0.0421199,1105,1695,6.18902,-36.1778
-112,-671,6.2533,36.514,0.00480281,0.0242965,0.00147985,0.0244082,0.00469111,1.49546,0.0149557,0.0497335,1112,1695,6.25334,-36.5141
-105,-671,6.45984,36.7238,0,0,0,0,0,0,0,-1,1119,1695,6.45986,-36.7237
-98,-671,6.51672,36.7219,0,0,0,0,0,0,0,-1,1126,1695,6.51669,-36.7219
-91,-671,6.52686,36.9122,0,0,0,0,0,0,0,-1,1133,1695,6.52681,-36.9122
-84,-671,5.4209,26.2415,0,0,0,0,0,0,0,-1,1140,1695,5.42096,-26.2414
-77,-671,4.31763,16.489,0,0,0,0,0,0,0,-1,1147,1695,4.31757,-16.489
-70,-671,3.06067,10.7737,0,0,0,0,0,0,0,-1,1154,1695,3.0607,-10.7737
-63,-671,2.94592,6.90198,0,0,0,0,0,0,0,-1,1161,1695,2.94594,-6.90198
-56,-671,-3.07678,2.87976,0,0,0,0,0,0,0,-1,1168,1695,-3.07675,-2.87979
-49,-671,-1.05957,4.76917,0,0,0,0,0,0,0,-1,1175,1695,-1.05958,-4.76921
-42,-671,0.539307,3.7865,0,0,0,0,0,0,0,-1,1182,1695,0.539266,-3.78648
-35,-671,-0.272461,0.347534,0,0,0,0,0,0,0,-1,1189,1695,-0.272434,-0.347569
-28,-671,-10.4878,17.2009,0,0,0,0,0,0,0,-1,1196,1695,-10.4878,-17.2009
-21,-671,6.30859,39.0616,0,0,0,0,0,0,0,-1,1203,1695,6.30856,-39.0617
-14,-671,6.64063,39.1752,0.0378023,-0.0524398,-0.00407989,0.0379864,-0.0526239,-0.0450879,0.0525409,0.0439461,1210,1695,6.64068,-39.1752
-7,-671,6.91162,38.9918,0.0363115,-0.0500976,-0.00063941,0.0363163,-0.0501023,-0.00739926,0.0501049,0.0481834,1217,1695,6.91162,-38.9918
0,-671,7.27527,39.0033,0,0,0,0,0,0,0,-1,1224,1695,7.27521,-39.0033
7,-671,7.81787,38.9586,0,0,0,0,0,0,0,-1,1231,1695,7.81785,-38.9586
14,-671,8.86084,41.8789,0,0,0,0,0,0,0,-1,1238,1695,8.86085,-41.8789
21,-671,7.87183,41.36,0.0101615,0.00794815,0.0212331,0.0303167,-0.0122071,0.759362,0.0252823,0.0456649,1245,1695,7.87186,-41.36
28,-671,6.74219,40.9784,0.00149465,0.025752,0.0234599,0.040033,-0.0127864,1.02397,0.031819,0.0452726,1252,1695,6.74225,-40.9784
35,-671,5.92029,40.5303,-0.000748675,0.04337,0.0257002,0.0551797,-0.0125584,1.14005,0.0416092,0.046646,1259,1695,5.9203,-40.5302
42,-671,4.85828,40.1594,0.000718442,0.0564462,0.0229565,0.0646849,-0.00752027,1.22623,0.0458361,0.0484894,1266,1695,4.85827,-40.1594
49,-671,3.84631,39.7732,0,0,0,0,0,0,0,-1,1273,1695,3.84634,-39.7732
56,-671,2.1665,39.5431,-0.000306761,0.0723045,0.0152171,0.0753646,-0.00336684,1.37235,0.0514021,0.0491324,1280,1695,2.16655,-39.5431
63,-671,0.908447,39.0955,0.00189186,0.074391,0.00975637,0.075681,0.000601877,1.43934,0.0502546,0.0485913,1287,1695,0.908488,-39.0954
70,-671,-0.1604,38.4205,0.0061998,0.0736754,0.00380151,0.0738889,0.0059863,1.51469,0.04739,0.0448597,1294,1695,-0.160422,-38.4206
77,-671,-1.40625,37.9717,0.0119598,0.0684868,-0.00220911,0.068573,0.0118736,-1.53179,0.0423164,0.0438789,1301,1695,-1.40629,-37.9717
84,-671,8.86243,39.9799,0,0,0,0,0,0,0,-1,1308,1695,8.86241,-39.9799
91,-671,8.59766,39.7574,0.0223695,0.0523646,-0.013146,0.0573106,0.0174235,-1.21094,0.0339249,0.0460784,1315,1695,8.59762,-39.7574
98,-671,8.32239,39.5529,0.0259898,0.0410202,-0.0167137,0.0518306,0.0151794,-0.996677,0.0307684,0.0433829,1322,1695,8.32245,-39.5528
105,-671,7.995,39.3717,0.0314163,0.0278669,-0.0188367,0.0485617,0.0107215,-0.738428,0.0294584,0.0472769,1329,1695,7.99498,-39.3717
112,-671,7.66089,39.2324,0.0352541,0.0225844,-0.0171678,0.0472185,0.01062,-0.608649,0.0286039,0.0441129,1336,1695,7.66092,-39.2324
119,-671,7.52332,39.4039,0.0371455,0.0181203,-0.0147792,0.0452089,0.0100569,-0.499449,0.027409,0.0452201,1343,1695,7.52338,-39.4039
126,-671,7.29126,39.5925,0,0,0,0,0,0,0,-1,1350,1695,7.29125,-39.5925
133,-671,7.2981,37.8523,0,0,0,0,0,0,0,-1,1357,1695,7.29808,-37.8523
140,-671,6.57507,37.1481,0,0,0,0,0,0,0,-1,1364,1695,6.57508,-37.1481
147,-671,6.5835,36.7521,0,0,0,0,0,0,0,-1,1371,1695,6.58346,-36.7521
154,-671,14.0531,44.566,0,0,0,0,0,0,0,-1,1378,1695,14.0531,-44.5661
161,-671,4.49292,4.91272,0,0,0,0,0,0,0,-1,1385,1695,4.49297,-4.91273
168,-671,5.17639,6.1416,0,0,0,0,0,0,0,-1,1392,1695,5.1764,-6.14164
175,-671,5.6731,1.64685,0,0,0,0,0,0,0,-1,1399,1695,5.67313,-1.64691
182,-671,5.56812,1.71692,0,0,0,0,0,0,0,-1,1406,1695,5.56809,-1.71686
189,-671,6.98315,6.36169,0,0,0,0,0,0,0,-1,1413,1695,6.98312,-6.36175
196,-671,5.38123,5.69775,0,0,0,0,0,0,0,-1,1420,1695,5.38125,-5.69769
203,-671,5.95117,8.11658,0,0,0,0,0,0,0,-1,1427,1695,5.9512,-8.11662
210,-671,4.73596,8.39624,0,0,0,0,0,0,0,-1,1434,1695,4.736,-8.39618
217,-671,5.37097,11.863,0,0,0,0,0,0,0,-1,1441,1695,5.37094,-11.863
224,-671,5.08167,13.6694,0,0,0,0,0,0,0,-1,1448,1695,5.08165,-13.6695
231,-671,5.66663,15.3348,0,0,0,0,0,0,0,-1,1455,1695,5.66667,-15.3349
238,-671,6.32959,16.2036,0,0,0,0,0,0,0,-1,1462,1695,6.32961,-16.2037
245,-671,9.77417,35.2817,0,0,0,0,0,0,0,-1,1469,1695,9.77414,-35.2818
252,-671,9.55164,35.7701,0,0,0,0,0,0,0,-1,1476,1695,9.55165,-35.7702
259,-671,9.5647,35.832,0,0,0,0,0,0,0,-1,1483,1695,9.56475,-35.8321
266,-671,9.55286,35.4843,0.00813405,0.00672236,-0.00329827,0.0108012,0.00405525,-0.679986,0.00630022,0.0350029,1490,1695,9.55286,-35.4843
273,-671,9.62695,35.2759,0.00770504,0.00646903,-0.00320178,0.0103479,0.00382616,-0.690061,0.00604156,0.0112012,1497,1695,9.62694,-35.2758
280,-671,9.64783,35.0344,0.00712336,0.00626853,-0.00302315,0.00974916,0.00364273,-0.715174,0.00568827,0.00927164,1504,1695,9.64782,-35.0344
287,-671,9.63269,34.6978,0.00641375,0.00580442,-0.00270187,0.00882807,0.0033901,-0.729255,0.0051424,0.0113985,1511,1695,9.63269,-34.6978
294,-671,9.62158,34.4084,0.00567919,0.00537239,-0.00242662,0.00795725,0.00309433,-0.753832,0.00463179,0.0117545,1518,1695,9.62159,-34.4084
301,-671,9.65112,34.174,0.00490789,0.00485791,-0.00216275,0.0070458,0.00272,-0.779621,0.00410296,0.0111381,1525,1695,9.65114,-34.1739
308,-671,9.67578,33.9022,0.00411303,0.0043168,-0.00190651,0.00612414,0.00230569,-0.812094,0.00357155,0.0111552,1532,1695,9.67576,-33.9022
315,-671,9.698,33.6215,0.00331883,0.00369565,-0.00156179,0.00508035,0.00193413,-0.845426,0.00296084,0.0129569,1539,1695,9.69804,-33.6215
322,-671,9.70093,33.3409,0.00254165,0.00313756,-0.00125659,0.00413104,0.00154817,-0.901806,0.00240986,0.015712,1546,1695,9.70092,-33.3409
329,-671,9.66211,33.0557,0.00178035,0.00248614,-0.000977571,0.00317256,0.00109393,-0.958616,0.00186086,0.0145699,1553,1695,9.66208,-33.0557
336,-671,9.66296,32.7173,0.00109863,0.00180418,-0.000660987,0.00220064,0.000702168,-1.03052,0.00129797,0.0114016,1560,1695,9.66292,-32.7173
343,-671,9.67969,32.3704,0.000358237,0.000831957,-0.000313304,0.000987859,0.000202335,-1.10907,0.00060256,0.0117188,1567,1695,9.67964,-32.3704
350,-671,9.67896,32.0675,-0.000272361,1.04045e-05,-1.48371e-05,1.11809e-05,-0.000273137,-1.51852,0.000185931,0.0118844,1574,1695,9.67898,-32.0675
357,-671,9.67236,31.7054,-0.000861347,-0.00114558,0.000371986,-0.000605254,-0.00140167,0.602931,0.000811761,0.010833,1581,1695,9.67233,-31.7055
364,-671,9.64368,31.3793,-0.00137448,-0.00236388,0.000800685,-0.000927998,-0.00281036,0.508678,0.00165346,0.0116318,1588,1695,9.64362,-31.3793
371,-671,9.61096,31.0841,-0.00184909,-0.0036088,0.00120686,-0.00123541,-0.00422248,0.470419,0.0025068,0.0134817,1595,1695,9.61096,-31.0841
378,-671,9.60706,30.7191,-0.00236162,-0.0050874,0.0017763,-0.0014856,-0.00596342,0.458168,0.00358454,0.0120604,1602,1695,9.60701,-30.7192
385,-671,9.59131,30.3427,-0.00272364,-0.00652545,0.00236764,-0.00158824,-0.00766085,0.447154,0.00466876,0.0143583,1609,1695,9.59135,-30.3427
392,-671,9.53223,30.0253,-0.00297542,-0.00828514,0.00290952,-0.00169155,-0.00956901,0.415566,0.00589692,0.0189826,1616,1695,9.53225,-30.0253
399,-671,9.52307,29.6373,-0.00328368,-0.00998759,0.00345485,-0.00182194,-0.0114493,0.400257,0.00710388,0.015229,1623,1695,9.52313,-29.6374
406,-671,9.54712,29.2538,-0.00328286,-0.011825,0.00399086,-0.00170851,-0.0133994,0.375747,0.00842137,0.0227076,1630,1695,9.54707,-29.2538
413,-671,9.49304,29.0698,-0.00268948,-0.0138069,0.0043044,-0.00121776,-0.0152787,0.329452,0.0098051,0.0390337,1637,1695,9.4931,-29.0699
420,-671,9.51489,28.8721,0,0,0,0,0,0,0,-1,1644,1695,9.51487,-28.8721
427,-671,9.31738,21.7188,0,0,0,0,0,0,0,-1,1651,1695,9.31735,-21.7187
434,-671,9.66528,26.177,0,0,0,0,0,0,0,-1,1658,1695,9.66528,-26.177
441,-671,8.34961,20.6522,0,0,0,0,0,0,0,-1,1665,1695,8.34964,-20.6522
448,-671,7.44873,20.2306,0,0,0,0,0,0,0,-1,1672,1695,7.44872,-20.2306
455,-671,6.62805,19.8612,0,0,0,0,0,0,0,-1,1679,1695,6.62811,-19.8612
462,-671,5.86255,4.47961,0,0,0,0,0,0,0,-1,1686,1695,5.8625,-4.4796
469,-671,3.71301,3.76978,0,0,0,0,0,0,0,-1,1693,1695,3.71297,-3.76974
476,-671,3.75574,3.18848,0,0,0,0,0,0,0,-1,1700,1695,3.7558,-3.18847
483,-671,7.81824,12.1041,0,0,0,0,0,0,0,-1,1707,1695,7.81826,-12.1041
490,-671,0,0,0,0,0,0,0,0,0,-1,1714,1695,0,0
497,-671,0,0,0,0,0,0,0,0,0,-1,1721,1695,0,0
504,-671,0,0,0,0,0,0,0,0,0,-1,1728,1695,0,0
511,-671,0,0,0,0,0,0,0,0,0,-1,1735,1695,0,0
518,-671,0,0,0,0,0,0,0,0,0,-1,1742,1695,0,0
525,-671,0,0,0,0,0,0,0,0,0,-1,1749,1695,0,0
532,-671,0,0,0,0,0,0,0,0,0,-1,1756,1695,0,0
539,-671,0,0,0,0,0,0,0,0,0,-1,1763,1695,0,0
546,-671,0,0,0,0,0,0,0,0,0,-1,1770,1695,0,0
553,-671,0,0,0,0,0,0,0,0,0,-1,1777,1695,0,0
560,-671,0,0,0,0,0,0,0,0,0,-1,1784,1695,0,0
567,-671,0,0,0,0,0,0,0,0,0,-1,1791,1695,0,0
574,-671,0,0,0,0,0,0,0,0,0,-1,1798,1695,0,0
581,-671,0,0,0,0,0,0,0,0,0,-1,1805,1695,0,0
588,-671,0,0,0,0,0,0,0,0,0,-1,1812,1695,0,0
595,-671,0,0,0,0,0,0,0,0,0,-1,1819,1695,0,0
602,-671,0,0,0,0,0,0,0,0,0,-1,1826,1695,0,0
609,-671,0,0,0,0,0,0,0,0,0,-1,1833,1695,0,0
616,-671,0,0,0,0,0,0,0,0,0,-1,1840,1695,0,0
623,-671,0,0,0,0,0,0,0,0,0,-1,1847,1695,0,0
630,-671,0,0,0,0,0,0,0,0,0,-1,1854,1695,0,0
637,-671,0,0,0,0,0,0,0,0,0,-1,1861,1695,0,0
644,-671,0,0,0,0,0,0,0,0,0,-1,1868,1695,0,0
651,-671,0,0,0,0,0,0,0,0,0,-1,1875,1695,0,0
658,-671,0,0,0,0,0,0,0,0,0,-1,1882,1695,0,0
665,-671,0,0,0,0,0,0,0,0,0,-1,1889,1695,0,0
672,-671,0,0,0,0,0,0,0,0,0,-1,1896,1695,0,0
679,-671,0,0,0,0,0,0,0,0,0,-1,1903,1695,0,0
686,-671,0,0,0,0,0,0,0,0,0,-1,1910,1695,0,0
693,-671,0,0,0,0,0,0,0,0,0,-1,1917,1695,0,0
700,-671,0,0,0,0,0,0,0,0,0,-1,1924,1695,0,0
707,-671,0,0,0,0,0,0,0,0,0,-1,1931,1695,0,0
714,-671,0,0,0,0,0,0,0,0,0,-1,1938,1695,0,0
721,-671,0,0,0,0,0,0,0,0,0,-1,1945,1695,0,0
728,-671,0,0,0,0,0,0,0,0,0,-1,1952,1695,0,0
735,-671,0,0,0,0,0,0,0,0,0,-1,1959,1695,0,0
742,-671,0,0,0,0,0,0,0,0,0,-1,1966,1695,0,0
749,-671,0,0,0,0,0,0,0,0,0,-1,1973,1695,0,0
756,-671,0,0,0,0,0,0,0,0,0,-1,1980,1695,0,0
763,-671,0,0,0,0,0,0,0,0,0,-1,1987,1695,0,0
770,-671,0,0,0,0,0,0,0,0,0,-1,1994,1695,0,0
777,-671,0,0,0,0,0,0,0,0,0,-1,2001,1695,0,0
784,-671,0,0,0,0,0,0,0,0,0,-1,2008,1695,0,0
791,-671,0,0,0,0,0,0,0,0,0,-1,2015,1695,0,0
798,-671,0,0,0,0,0,0,0,0,0,-1,2022,1695,0,0
805,-671,0,0,0,0,0,0,0,0,0,-1,2029,1695,0,0
812,-671,0,0,0,0,0,0,0,0,0,-1,2036,1695,0,0
-700,-678,0,0,0,0,0,0,0,0,0,-1,524,1702,0,0
-693,-678,0,0,0,0,0,0,0,0,0,-1,531,1702,0,0
-686,-678,0,0,0,0,0,0,0,0,0,-1,538,1702,0,0
-679,-678,0,0,0,0,0,0,0,0,0,-1,545,1702,0,0
-672,-678,0,0,0,0,0,0,0,0,0,-1,552,1702,0,0
-665,-678,0,0,0,0,0,0,0,0,0,-1,559,1702,0,0
-658,-678,0,0,0,0,0,0,0,0,0,-1,566,1702,0,0
-651,-678,0,0,0,0,0,0,0,0,0,-1,573,1702,0,0
-644,-678,0,0,0,0,0,0,0,0,0,-1,580,1702,0,0
-637,-678,0,0,0,0,0,0,0,0,0,-1,587,1702,0,0
-630,-678,0,0,0,0,0,0,0,0,0,-1,594,1702,0,0
-623,-678,0,0,0,0,0,0,0,0,0,-1,601,1702,0,0
-616,-678,0,0,0,0,0,0,0,0,0,-1,608,1702,0,0
-609,-678,0,0,0,0,0,0,0,0,0,-1,615,1702,0,0
-602,-678,0,0,0,0,0,0,0,0,0,-1,622,1702,0,0
-595,-678,0,0,0,0,0,0,0,0,0,-1,629,1702,0,0
-588,-678,0,0,0,0,0,0,0,0,0,-1,636,1702,0,0
-581,-678,0,0,0,0,0,0,0,0,0,-1,643,1702,0,0
-574,-678,0,0,0,0,0,0,0,0,0,-1,650,1702,0,0
-567,-678,0,0,0,0,0,0,0,0,0,-1,657,1702,0,0
-560,-678,0,0,0,0,0,0,0,0,0,-1,664,1702,0,0
-553,-678,0,0,0,0,0,0,0,0,0,-1,671,1702,0,0
-546,-678,0,0,0,0,0,0,0,0,0,-1,678,1702,0,0
-539,-678,0,0,0,0,0,0,0,0,0,-1,685,1702,0,0
-532,-678,0,0,0,0,0,0,0,0,0,-1,692,1702,0,0
-525,-678,0,0,0,0,0,0,0,0,0,-1,699,1702,0,0
-518,-678,0,0,0,0,0,0,0,0,0,-1,706,1702,0,0
-511,-678,0,0,0,0,0,0,0,0,0,-1,713,1702,0,0
-504,-678,0,0,0,0,0,0,0,0,0,-1,720,1702,0,0
-497,-678,0,0,0,0,0,0,0,0,0,-1,727,1702,0,0
-490,-678,0,0,0,0,0,0,0,0,0,-1,734,1702,0,0
-483,-678,0,0,0,0,0,0,0,0,0,-1,741,1702,0,0
-476,-678,0,0,0,0,0,0,0,0,0,-1,748,1702,0,0
-469,-678,0,0,0,0,0,0,0,0,0,-1,755,1702,0,0
-462,-678,0,0,0,0,0,0,0,0,0,-1,762,1702,0,0
-455,-678,0,0,0,0,0,0,0,0,0,-1,769,1702,0,0
-448,-678,0,0,0,0,0,0,0,0,0,-1,776,1702,0,0
-441,-678,0,0,0,0,0,0,0,0,0,-1,783,1702,0,0
-434,-678,0,0,0,0,0,0,0,0,0,-1,790,1702,0,0
-427,-678,0,0,0,0,0,0,0,0,0,-1,797,1702,0,0
-420,-678,0,0,0,0,0,0,0,0,0,-1,804,1702,0,0
-413,-678,0,0,0,0,0,0,0,0,0,-1,811,1702,0,0
-406,-678,0,0,0,0,0,0,0,0,0,-1,818,1702,0,0
-399,-678,0,0,0,0,0,0,0,0,0,-1,825,1702,0,0
-392,-678,0,0,0,0,0,0,0,0,0,-1,832,1702,0,0
-385,-678,0,0,0,0,0,0,0,0,0,-1,839,1702,0,0
-378,-678,0,0,0,0,0,0,0,0,0,-1,846,1702,0,0
-371,-678,0,0,0,0,0,0,0,0,0,-1,853,1702,0,0
-364,-678,0,0,0,0,0,0,0,0,0,-1,860,1702,0,0
-357,-678,0,0,0,0,0,0,0,0,0,-1,867,1702,0,0
-350,-678,-5.79944,6.11865,0,0,0,0,0,0,0,-1,874,1702,-5.79942,-6.11864
-343,-678,-6.44891,4.52759,0,0,0,0,0,0,0,-1,881,1702,-6.4489,-4.52758
-336,-678,7.92682,24.1683,0,0,0,0,0,0,0,-1,888,1702,7.92682,-24.1684
-329,-678,-7.14575,1.29761,0,0,0,0,0,0,0,-1,895,1702,-7.14577,-1.29755
-322,-678,3.78455,20.3917,0,0,0,0,0,0,0,-1,902,1702,3.78457,-20.3917
-315,-678,4.74176,22.3245,0,0,0,0,0,0,0,-1,909,1702,4.74178,-22.3244
-308,-678,5.5799,27.4917,0,0,0,0,0,0,0,-1,916,1702,5.57988,-27.4917
-301,-678,5.8941,27.4879,0,0,0,0,0,0,0,-1,923,1702,5.89409,-27.4879
-294,-678,5.47028,27.9827,0,0,0,0,0,0,0,-1,930,1702,5.47026,-27.9827
-287,-678,7.04645,27.9674,0,0,0,0,0,0,0,-1,937,1702,7.04644,-27.9674
-280,-678,7.28485,28.2454,0.00327596,-0.0155195,-0.00131607,0.00336767,-0.0156112,-0.0695681,0.0116928,0.0461931,944,1702,7.28486,-28.2454
-273,-678,6.30768,28.802,0.00109038,-0.0102036,-0.0017843,0.00136557,-0.0104788,-0.153023,0.00748272,0.0428946,951,1702,6.30769,-28.8021
-266,-678,6.367,29.2675,-0.000776187,-0.00487988,-0.00218498,0.000169336,-0.0058254,-0.408406,0.00394126,0.0366993,958,1702,6.36702,-29.2675
-259,-678,6.45551,29.6045,-0.00180899,-0.00231375,-0.00207811,3.20068e-05,-0.00415475,-0.724971,0.00278056,0.023813,965,1702,6.45552,-29.6045
-252,-678,6.43884,29.947,-0.00235303,-0.00109282,-0.00172908,0.000117389,-0.00356324,-0.960127,0.00241557,0.0175389,972,1702,6.43885,-29.947
-245,-678,6.43689,30.317,-0.00247471,-0.000688133,-0.00149687,0.000161732,-0.00332458,-1.05442,0.00227222,0.0179239,979,1702,6.43687,-30.3171
-238,-678,6.42548,30.6686,-0.00280721,-0.000179725,-0.00128966,0.000347495,-0.00333443,-1.18272,0.00234737,0.0157135,986,1702,6.42549,-30.6686
-231,-678,6.38556,31.0286,-0.00249552,-4.32796e-05,-0.000734587,0.000159932,-0.00269873,-1.30091,0.00185476,0.0135464,993,1702,6.38557,-31.0286
-224,-678,6.35065,31.3629,-0.00143524,2.17239e-05,-0.00029232,7.81859e-05,-0.0014917,-1.37999,0.00102153,0.0129986,1000,1702,6.35064,-31.3629
-217,-678,6.36627,31.7306,-0.000883611,0.000374548,-7.68443e-05,0.000379224,-0.000888287,-1.51002,0.000751213,0.013842,1007,1702,6.36626,-31.7305
-210,-678,6.33936,32.116,-0.00090543,0.000641026,0.000277186,0.000689207,-0.000953612,1.39869,0.000952568,0.0143994,1014,1702,6.33933,-32.1159
-203,-678,6.3136,32.4127,-0.000452484,0.000739894,0.000733766,0.00108914,-0.000801733,1.12656,0.00109589,0.0179276,1021,1702,6.31365,-32.4128
-196,-678,6.29761,32.7245,0.000110014,0.000892121,0.00093224,0.001512,-0.000509869,0.98399,0.00121418,0.0183856,1028,1702,6.29758,-32.7245
-189,-678,6.30823,33.0892,0.000486436,0.00121588,0.00110848,0.00201809,-0.000315779,0.944334,0.00146207,0.0104399,1035,1702,6.30827,-33.0893
-182,-678,6.31079,33.4274,0.000904664,0.00178953,0.00121579,0.00264088,5.33075e-05,0.959902,0.00174309,0.00978884,1042,1702,6.31082,-33.4273
-175,-678,6.30225,33.7264,0.00134687,0.00270722,0.00131307,0.00350583,0.000548266,1.02437,0.00217759,0.0107155,1049,1702,6.30223,-33.7265
-168,-678,6.29419,34.0144,0.00163053,0.00368186,0.00134756,0.00434968,0.000962699,1.11069,0.00263811,0.0102569,1056,1702,6.29422,-34.0144
-161,-678,6.2998,34.3035,0.00189805,0.00496355,0.00139296,0.00550195,0.00135965,1.20197,0.0033092,0.00878389,1063,1702,6.29976,-34.3035
-154,-678,6.31458,34.5934,0.00213582,0.00671359,0.00138368,0.00709932,0.00175009,1.29893,0.00427077,0.00790528,1070,1702,6.31459,-34.5934
-147,-678,6.3114,34.8837,0.00232831,0.00863187,0.00129666,0.00888817,0.00207201,1.37565,0.00536973,0.00962641,1077,1702,6.3114,-34.8837
-140,-678,6.32703,35.1528,0.00252524,0.0105937,0.00120939,0.0107711,0.00234787,1.42517,0.0065401,0.0110187,1084,1702,6.32705,-35.1529
-133,-678,6.34473,35.4093,0.00277871,0.0126603,0.00116041,0.0127948,0.00264427,1.45546,0.00779929,0.0120329,1091,1702,6.34472,-35.4093
-126,-678,6.36365,35.6788,0.00312017,0.0146301,0.00109144,0.0147327,0.00301759,1.47708,0.00898645,0.0114485,1098,1702,6.36362,-35.6788
-119,-678,6.41736,36.1273,0.00351901,0.0161954,0.00100061,0.0162738,0.00344051,1.49251,0.00990365,0.0305901,1105,1702,6.41733,-36.1274
-112,-678,6.42017,36.4606,0.00389707,0.01746,0.000949362,0.0175262,0.00383094,1.50125,0.0106396,0.048682,1112,1702,6.4202,-36.4605
-105,-678,6.49133,36.7338,0.0041793,0.0182403,0.000903374,0.0182981,0.0041215,1.5069,0.0110834,0.0490345,1119,1702,6.49134,-36.7338
-98,-678,6.45825,36.7908,0.00446124,0.018514,0.000758024,0.0185548,0.00442047,1.51706,0.0111913,0.028903,1126,1702,6.4583,-36.7908
-91,-678,6.55811,36.8204,0,0,0,0,0,0,0,-1,1133,1702,6.55814,-36.8205
-84,-678,6.58545,36.5073,0,0,0,0,0,0,0,-1,1140,1702,6.58544,-36.5073
-77,-678,5.95154,29.1879,0,0,0,0,0,0,0,-1,1147,1702,5.95156,-29.1878
-70,-678,4.75891,19.6552,0,0,0,0,0,0,0,-1,1154,1702,4.75895,-19.6551
-63,-678,3.41687,11.0365,0,0,0,0,0,0,0,-1,1161,1702,3.41682,-11.0365
-56,-678,1.72388,6.13159,0,0,0,0,0,0,0,-1,1168,1702,1.72388,-6.13157
-49,-678,-0.241699,5.29895,0,0,0,0,0,0,0,-1,1175,1702,-0.241682,-5.29897
-42,-678,0.297119,3.90649,0,0,0,0,0,0,0,-1,1182,1702,0.297139,-3.90655
-35,-678,0.498413,3.64038,0,0,0,0,0,0,0,-1,1189,1702,0.498471,-3.64038
-28,-678,0.132446,3.55994,0,0,0,0,0,0,0,-1,1196,1702,0.132432,-3.55993
-21,-678,6.823,38.8073,0,0,0,0,0,0,0,-1,1203,1702,6.82295,-38.8072
-14,-678,6.92529,38.899,0.028088,-0.0342971,-0.00220541,0.0281659,-0.0343749,-0.0352928,0.0361672,0.0408901,1210,1702,6.92525,-38.8991
-7,-678,7.18567,38.8091,0.0273386,-0.0315001,0.000751898,0.0273482,-0.0315097,0.0127762,0.0340099,0.045644,1217,1702,7.18566,-38.8091
0,-678,7.51208,38.871,0.0236903,-0.0210468,0.00569462,0.0244038,-0.0217603,0.124643,0.0266674,0.0466774,1224,1702,7.51203,-38.871
7,-678,7.94189,39.2245,0.0183897,-0.0108991,0.00976261,0.0213455,-0.0138549,0.293993,0.0204758,0.0469023,1231,1702,7.94184,-39.2244
14,-678,8.48608,39.6602,0,0,0,0,0,0,0,-1,1238,1702,8.48613,-39.6601
21,-678,7.8075,40.4417,0,0,0,0,0,0,0,-1,1245,1702,7.80746,-40.4417
28,-678,7.66223,40.6108,0,0,0,0,0,0,0,-1,1252,1702,7.66226,-40.6108
35,-678,7.80371,40.3932,0,0,0,0,0,0,0,-1,1259,1702,7.80375,-40.3932
42,-678,7.99902,40.3855,0,0,0,0,0,0,0,-1,1266,1702,7.99899,-40.3855
49,-678,7.1593,39.2949,0,0,0,0,0,0,0,-1,1273,1702,7.15936,-39.2949
56,-678,7.38684,39.9054,0,0,0,0,0,0,0,-1,1280,1702,7.3869,-39.9054
63,-678,7.46277,40.0214,0,0,0,0,0,0,0,-1,1287,1702,7.46277,-40.0214
70,-678,8.06848,40.1189,0,0,0,0,0,0,0,-1,1294,1702,8.06853,-40.1189
77,-678,9.0498,39.9921,0,0,0,0,0,0,0,-1,1301,1702,9.0498,-39.9921
84,-678,8.75769,39.7839,0,0,0,0,0,0,0,-1,1308,1702,8.75768,-39.784
91,-678,8.54163,39.5859,0.0127762,0.0427159,-0.00975799,0.0456154,0.0098767,-1.28196,0.0277111,0.0460966,1315,1702,8.54158,-39.5859
98,-678,8.29614,39.4049,0.0153075,0.0329963,-0.012759,0.0396765,0.00862722,-1.08847,0.0240957,0.0437349,1322,1702,8.29614,-39.4049
105,-678,8.0188,39.2269,0.0194617,0.0213409,-0.0148083,0.0352394,0.00556323,-0.817082,0.0218756,0.0435697,1329,1702,8.01881,-39.2269
112,-678,7.77344,39.0143,0,0,0,0,0,0,0,-1,1336,1702,7.77347,-39.0143
119,-678,8.25977,38.1321,0,0,0,0,0,0,0,-1,1343,1702,8.25973,-38.1321
126,-678,7.80017,37.9277,0.0255096,0.0109732,-0.00965732,0.0303282,0.00615459,-0.462813,0.0185115,0.043851,1350,1702,7.80018,-37.9278
133,-678,7.23584,38.2197,0,0,0,0,0,0,0,-1,1357,1702,7.23581,-38.2197
140,-678,6.74976,38.4589,0,0,0,0,0,0,0,-1,1364,1702,6.74979,-38.4589
147,-678,8.7699,38.8258,0,0,0,0,0,0,0,-1,1371,1702,8.76986,-38.8258
154,-678,9.65649,38.3108,0,0,0,0,0,0,0,-1,1378,1702,9.65653,-38.3108
161,-678,8.81226,34.8624,0,0,0,0,0,0,0,-1,1385,1702,8.81229,-34.8624
168,-678,4.21863,5.25781,0,0,0,0,0,0,0,-1,1392,1702,4.21865,-5.25781
175,-678,5.21899,5.9635,0,0,0,0,0,0,0,-1,1399,1702,5.21894,-5.96346
182,-678,7.31262,6.75122,0,0,0,0,0,0,0,-1,1406,1702,7.3126,-6.75123
189,-678,5.96021,6.36853,0,0,0,0,0,0,0,-1,1413,1702,5.96018,-6.36851
196,-678,5.01599,8.15771,0,0,0,0,0,0,0,-1,1420,1702,5.01596,-8.15767
203,-678,4.64771,13.0559,0,0,0,0,0,0,0,-1,1427,1702,4.64766,-13.0559
210,-678,5.6532,18.5957,0,0,0,0,0,0,0,-1,1434,1702,5.65318,-18.5958
217,-678,6.88049,23.4835,0,0,0,0,0,0,0,-1,1441,1702,6.88047,-23.4835
224,-678,8.521,32.0977,0,0,0,0,0,0,0,-1,1448,1702,8.52098,-32.0977
231,-678,9.03308,36.8711,0,0,0,0,0,0,0,-1,1455,1702,9.03311,-36.8711
238,-678,9.19055,36.5691,0,0,0,0,0,0,0,-1,1462,1702,9.19053,-36.5691
245,-678,9.28442,36.2626,0,0,0,0,0,0,0,-1,1469,1702,9.28443,-36.2625
252,-678,9.32056,36.0114,0.00509616,0.00255137,-0.00120396,0.00557548,0.00207205,-0.378884,0.00325417,0.0275954,1476,1702,9.32057,-36.0113
259,-678,9.33691,35.8049,0.00521604,0.00310587,-0.00169301,0.00615582,0.00216609,-0.506747,0.00360567,0.0159405,1483,1702,9.33693,-35.8049
266,-678,9.34692,35.5472,0.00524018,0.00357933,-0.00202952,0.0066026,0.00221691,-0.591204,0.00387995,0.0113339,1490,1702,9.3469,-35.5472
273,-678,9.3584,35.2991,0.00502921,0.00371514,-0.00201142,0.00648819,0.00225617,-0.627535,0.00380342,0.01073,1497,1702,9.35845,-35.2991
280,-678,9.34631,35.0503,0.00470752,0.00388061,-0.00191933,0.00625743,0.00233071,-0.679311,0.00365169,0.0110383,1504,1702,9.34637,-35.0503
287,-678,9.35974,34.7445,0.00428987,0.00387824,-0.00171489,0.00581125,0.00235686,-0.725676,0.00337501,0.011447,1511,1702,9.35975,-34.7446
294,-678,9.36719,34.4541,0.00384599,0.00393028,-0.00155816,0.00544687,0.00232941,-0.79892,0.0031557,0.0125935,1518,1702,9.36722,-34.4542
301,-678,9.35913,34.193,0.00334165,0.00389695,-0.00144651,0.00509222,0.00214638,-0.880216,0.00295205,0.0129684,1525,1702,9.35916,-34.193
308,-678,9.3678,33.9196,0.00275424,0.00373251,-0.00133005,0.00466051,0.00182623,-0.9616,0.00271165,0.0136865,1532,1702,9.36774,-33.9195
315,-678,9.37317,33.634,0.00214624,0.00327066,-0.00107406,0.00392076,0.00149614,-1.02651,0.00228471,0.0149505,1539,1702,9.37317,-33.634
322,-678,9.35791,33.3558,0.00153957,0.00286579,-0.000892431,0.0033145,0.00109086,-1.10491,0.00195053,0.0186219,1546,1702,9.35791,-33.3558
329,-678,9.34644,33.0444,0.000883497,0.00230664,-0.000706729,0.00259796,0.000592172,-1.1798,0.00157221,0.0165896,1553,1702,9.34638,-33.0445
336,-678,9.34216,32.7134,0.000276477,0.00162416,-0.000454033,0.00176285,0.000137786,-1.27433,0.00113211,0.0129173,1560,1702,9.34213,-32.7133
343,-678,9.34863,32.4008,-0.000387757,0.000596763,-0.000167633,0.000624522,-0.000415516,-1.40669,0.000604495,0.0128422,1567,1702,9.34866,-32.4007
350,-678,9.35461,32.0717,-0.000996856,-0.000395287,0.000113514,-0.00037458,-0.00101756,1.39036,0.000594264,0.0126781,1574,1702,9.35463,-32.0716
357,-678,9.33691,31.7241,-0.00164861,-0.0018945,0.000613431,-0.00114592,-0.00239718,0.686498,0.00138446,0.00954505,1581,1702,9.33696,-31.7241
364,-678,9.30994,31.3999,-0.0021781,-0.00332127,0.00112155,-0.00149088,-0.00400849,0.549734,0.00233947,0.0104729,1588,1702,9.30999,-31.3998
371,-678,9.27576,31.0922,-0.00270485,-0.0048194,0.00162956,-0.00181962,-0.00570463,0.49763,0.00336475,0.0113655,1595,1702,9.2757,-31.0922
378,-678,9.25488,30.7188,-0.00336652,-0.00673092,0.00243346,-0.00209042,-0.00800702,0.482974,0.00479556,0.0122852,1602,1702,9.25492,-30.7188
385,-678,9.2616,30.3854,-0.00385779,-0.00851427,0.00325249,-0.0021861,-0.010186,0.474762,0.00619194,0.0133595,1609,1702,9.26161,-30.3854
392,-678,9.26855,30.1057,-0.00421772,-0.0107086,0.00403457,-0.00228527,-0.0126411,0.446685,0.00777835,0.0245545,1616,1702,9.26852,-30.1057
399,-678,9.19995,29.7821,-0.00461971,-0.0129055,0.00482438,-0.00240351,-0.0151218,0.430623,0.00938318,0.0369901,1623,1702,9.19992,-29.7822
406,-678,9.01953,29.7179,-0.00468345,-0.0153297,0.00566197,-0.00223525,-0.0177779,0.408117,0.0111816,0.045813,1630,1702,9.01957,-29.7179
413,-678,9.12024,29.2313,0,0,0,0,0,0,0,-1,1637,1702,9.1202,-29.2314
420,-678,9.6665,28.3398,0,0,0,0,0,0,0,-1,1644,1702,9.66649,-28.3398
427,-678,4.57483,10.1555,0,0,0,0,0,0,0,-1,1651,1702,4.57485,-10.1555
434,-678,9.48169,21.6665,0,0,0,0,0,0,0,-1,1658,1702,9.48169,-21.6665
441,-678,8.64539,21.1864,0,0,0,0,0,0,0,-1,1665,1702,8.64536,-21.1865
448,-678,7.62244,20.7195,0,0,0,0,0,0,0,-1,1672,1702,7.6224,-20.7195
455,-678,5.44678,5.54297,0,0,0,0,0,0,0,-1,1679,1702,5.44676,-5.54294
462,-678,3.86792,2.87402,0,0,0,0,0,0,0,-1,1686,1702,3.86796,-2.87406
469,-678,2.26587,1.98755,0,0,0,0,0,0,0,-1,1693,1702,2.26592,-1.98755
476,-678,0,0,0,0,0,0,0,0,0,-1,1700,1702,0,0
483,-678,0,0,0,0,0,0,0,0,0,-1,1707,1702,0,0
490,-678,0,0,0,0,0,0,0,0,0,-1,1714,1702,0,0
497,-678,0,0,0,0,0,0,0,0,0,-1,1721,1702,0,0
504,-678,0,0,0,0,0,0,0,0,0,-1,1728,1702,0,0
511,-678,0,0,0,0,0,0,0,0,0,-1,1735,1702,0,0
518,-678,0,0,0,0,0,0,0,0,0,-1,1742,1702,0,0
525,-678,0,0,0,0,0,0,0,0,0,-1,1749,1702,0,0
532,-678,0,0,0,0,0,0,0,0,0,-1,1756,1702,0,0
539,-678,0,0,0,0,0,0,0,0,0,-1,1763,1702,0,0
546,-678,0,0,0,0,0,0,0,0,0,-1,1770,1702,0,0
553,-678,0,0,0,0,0,0,0,0,0,-1,1777,1702,0,0
560,-678,0,0,0,0,0,0,0,0,0,-1,1784,1702,0,0
567,-678,0,0,0,0,0,0,0,0,0,-1,1791,1702,0,0
574,-678,0,0,0,0,0,0,0,0,0,-1,1798,1702,0,0
581,-678,0,0,0,0,0,0,0,0,0,-1,1805,1702,0,0
588,-678,0,0,0,0,0,0,0,0,0,-1,1812,1702,0,0
595,-678,0,0,0,0,0,0,0,0,0,-1,1819,1702,0,0
602,-678,0,0,0,0,0,0,0,0,0,-1,1826,1702,0,0
609,-678,0,0,0,0,0,0,0,0,0,-1,1833,1702,0,0
616,-678,0,0,0,0,0,0,0,0,0,-1,1840,1702,0,0
623,-678,0,0,0,0,0,0,0,0,0,-1,1847,1702,0,0
630,-678,0,0,0,0,0,0,0,0,0,-1,1854,1702,0,0
637,-678,0,0,0,0,0,0,0,0,0,-1,1861,1702,0,0
644,-678,0,0,0,0,0,0,0,0,0,-1,1868,1702,0,0
651,-678,0,0,0,0,0,0,0,0,0,-1,1875,1702,0,0
658,-678,0,0,0,0,0,0,0,0,0,-1,1882,1702,0,0
665,-678,0,0,0,0,0,0,0,0,0,-1,1889,1702,0,0
672,-678,0,0,0,0,0,0,0,0,0,-1,1896,1702,0,0
679,-678,0,0,0,0,0,0,0,0,0,-1,1903,1702,0,0
686,-678,0,0,0,0,0,0,0,0,0,-1,1910,1702,0,0
693,-678,0,0,0,0,0,0,0,0,0,-1,1917,1702,0,0
700,-678,0,0,0,0,0,0,0,0,0,-1,1924,1702,0,0
707,-678,0,0,0,0,0,0,0,0,0,-1,1931,1702,0,0
714,-678,0,0,0,0,0,0,0,0,0,-1,1938,1702,0,0
721,-678,0,0,0,0,0,0,0,0,0,-1,1945,1702,0,0
728,-678,0,0,0,0,0,0,0,0,0,-1,1952,1702,0,0
735,-678,0,0,0,0,0,0,0,0,0,-1,1959,1702,0,0
742,-678,0,0,0,0,0,0,0,0,0,-1,1966,1702,0,0
749,-678,0,0,0,0,0,0,0,0,0,-1,1973,1702,0,0
756,-678,0,0,0,0,0,0,0,0,0,-1,1980,1702,0,0
763,-678,0,0,0,0,0,0,0,0,0,-1,1987,1702,0,0
770,-678,0,0,0,0,0,0,0,0,0,-1,1994,1702,0,0
777,-678,0,0,0,0,0,0,0,0,0,-1,2001,1702,0,0
784,-678,0,0,0,0,0,0,0,0,0,-1,2008,1702,0,0
791,-678,0,0,0,0,0,0,0,0,0,-1,2015,1702,0,0
798,-678,0,0,0,0,0,0,0,0,0,-1,2022,1702,0,0
805,-678,0,0,0,0,0,0,0,0,0,-1,2029,1702,0,0
812,-678,0,0,0,0,0,0,0,0,0,-1,2036,1702,0,0
-700,-685,0,0,0,0,0,0,0,0,0,-1,524,1709,0,0
-693,-685,0,0,0,0,0,0,0,0,0,-1,531,1709,0,0
-686,-685,0,0,0,0,0,0,0,0,0,-1,538,1709,0,0
-679,-685,0,0,0,0,0,0,0,0,0,-1,545,1709,0,0
-672,-685,0,0,0,0,0,0,0,0,0,-1,552,1709,0,0
-665,-685,0,0,0,0,0,0,0,0,0,-1,559,1709,0,0
-658,-685,0,0,0,0,0,0,0,0,0,-1,566,1709,0,0
-651,-685,0,0,0,0,0,0,0,0,0,-1,573,1709,0,0
-644,-685,0,0,0,0,0,0,0,0,0,-1,580,1709,0,0
-637,-685,0,0,0,0,0,0,0,0,0,-1,587,1709,0,0
-630,-685,0,0,0,0,0,0,0,0,0,-1,594,1709,0,0
-623,-685,0,0,0,0,0,0,0,0,0,-1,601,1709,0,0
-616,-685,0,0,0,0,0,0,0,0,0,-1,608,1709,0,0
-609,-685,0,0,0,0,0,0,0,0,0,-1,615,1709,0,0
-602,-685,0,0,0,0,0,0,0,0,0,-1,622,1709,0,0
-595,-685,0,0,0,0,0,0,0,0,0,-1,629,1709,0,0
-588,-685,0,0,0,0,0,0,0,0,0,-1,636,1709,0,0
-581,-685,0,0,0,0,0,0,0,0,0,-1,643,1709,0,0
-574,-685,0,0,0,0,0,0,0,0,0,-1,650,1709,0,0
-567,-685,0,0,0,0,0,0,0,0,0,-1,657,1709,0,0
-560,-685,0,0,0,0,0,0,0,0,0,-1,664,1709,0,0
-553,-685,0,0,0,0,0,0,0,0,0,-1,671,1709,0,0
-546,-685,0,0,0,0,0,0,0,0,0,-1,678,1709,0,0
-539,-685,0,0,0,0,0,0,0,0,0,-1,685,1709,0,0
-532,-685,0,0,0,0,0,0,0,0,0,-1,692,1709,0,0
-525,-685,0,0,0,0,0,0,0,0,0,-1,699,1709,0,0
-518,-685,0,0,0,0,0,0,0,0,0,-1,706,1709,0,0
-511,-685,0,0,0,0,0,0,0,0,0,-1,713,1709,0,0
-504,-685,0,0,0,0,0,0,0,0,0,-1,720,1709,0,0
-497,-685,0,0,0,0,0,0,0,0,0,-1,727,1709,0,0
-490,-685,0,0,0,0,0,0,0,0,0,-1,734,1709,0,0
-483,-685,0,0,0,0,0,0,0,0,0,-1,741,1709,0,0
-476,-685,0,0,0,0,0,0,0,0,0,-1,748,1709,0,0
-469,-685,0,0,0,0,0,0,0,0,0,-1,755,1709,0,0
-462,-685,0,0,0,0,0,0,0,0,0,-1,762,1709,0,0
-455,-685,0,0,0,0,0,0,0,0,0,-1,769,1709,0,0
-448,-685,0,0,0,0,0,0,0,0,0,-1,776,1709,0,0
-441,-685,0,0,0,0,0,0,0,0,0,-1,783,1709,0,0
-434,-685,0,0,0,0,0,0,0,0,0,-1,790,1709,0,0
-427,-685,0,0,0,0,0,0,0,0,0,-1,797,1709,0,0
-420,-685,0,0,0,0,0,0,0,0,0,-1,804,1709,0,0
-413,-685,0,0,0,0,0,0,0,0,0,-1,811,1709,0,0
-406,-685,0,0,0,0,0,0,0,0,0,-1,818,1709,0,0
-399,-685,0,0,0,0,0,0,0,0,0,-1,825,1709,0,0
-392,-685,0,0,0,0,0,0,0,0,0,-1,832,1709,0,0
-385,-685,0,0,0,0,0,0,0,0,0,-1,839,1709,0,0
-378,-685,0,0,0,0,0,0,0,0,0,-1,846,1709,0,0
-371,-685,0,0,0,0,0,0,0,0,0,-1,853,1709,0,0
-364,-685,0,0,0,0,0,0,0,0,0,-1,860,1709,0,0
-357,-685,0,0,0,0,0,0,0,0,0,-1,867,1709,0,0
-350,-685,0,0,0,0,0,0,0,0,0,-1,874,1709,0,0
-343,-685,-5.98505,6.56335,0,0,0,0,0,0,0,-1,881,1709,-5.98505,-6.56329
-336,-685,-6.51312,5.10571,0,0,0,0,0,0,0,-1,888,1709,-6.51311,-5.10575
-329,-685,-6.81384,3.34106,0,0,0,0,0,0,0,-1,895,1709,-6.81385,-3.341
-322,-685,3.83191,16.7219,0,0,0,0,0,0,0,-1,902,1709,3.8319,-16.7219
-315,-685,5.15784,21.4388,0,0,0,0,0,0,0,-1,909,1709,5.15783,-21.4389
-308,-685,6.36969,21.0303,0,0,0,0,0,0,0,-1,916,1709,6.36968,-21.0302
-301,-685,4.6817,27.6464,0,0,0,0,0,0,0,-1,923,1709,4.6817,-27.6464
-294,-685,6.29749,25.3914,0,0,0,0,0,0,0,-1,930,1709,6.29751,-25.3914
-287,-685,6.37677,26.0441,0,0,0,0,0,0,0,-1,937,1709,6.3768,-26.0441
-280,-685,7.81836,28.2251,0,0,0,0,0,0,0,-1,944,1709,7.81833,-28.2251
-273,-685,6.53558,28.7683,0,0,0,0,0,0,0,-1,951,1709,6.5356,-28.7683
-266,-685,6.68652,29.2872,-0.00103829,-0.00518175,-0.003334,0.00081524,-0.00703527,-0.507397,0.0049842,0.0486141,958,1709,6.6865,-29.2872
-259,-685,7.27063,29.6,-0.00239144,-0.00231092,-0.00305854,0.000707621,-0.00540998,-0.79198,0.00386418,0.0432349,965,1709,7.27065,-29.5999
-252,-685,6.81604,29.9855,-0.00313477,-0.00103062,-0.00255262,0.00067823,-0.00484362,-0.980869,0.00347728,0.0394762,972,1709,6.81603,-29.9855
-245,-685,6.81421,30.3403,-0.00343372,-0.000618182,-0.00217551,0.000565314,-0.00461721,-1.07256,0.00328285,0.036036,979,1709,6.81421,-30.3404
-238,-685,6.80811,30.7091,-0.00389478,-9.82728e-05,-0.00176608,0.000596235,-0.00458928,-1.19612,0.0032764,0.0278225,986,1709,6.80813,-30.7091
-231,-685,6.72913,31.0728,-0.00353322,-6.53319e-05,-0.00101434,0.000209569,-0.00380812,-1.30614,0.0026114,0.018487,993,1709,6.72912,-31.0727
-224,-685,6.7088,31.3885,-0.00231231,-0.000109569,-0.00043926,-2.52047e-05,-0.00239667,-1.38105,0.00158945,0.0154737,1000,1709,6.70883,-31.3886
-217,-685,6.70551,31.7574,-0.00168733,0.000220691,-6.98116e-05,0.000223241,-0.00168988,-1.53427,0.0012079,0.0114465,1007,1709,6.70549,-31.7574
-210,-685,6.67889,32.1134,-0.00175761,0.000422898,0.00045259,0.000513107,-0.00184781,1.37406,0.00143385,0.0154847,1014,1709,6.67888,-32.1134
-203,-685,6.6593,32.4413,-0.00121907,0.000426848,0.00106122,0.000946818,-0.00173904,1.1152,0.001573,0.0154843,1021,1709,6.65934,-32.4412
-196,-685,6.64294,32.7482,-0.000544055,0.000519012,0.00131502,0.00140586,-0.00143091,0.977459,0.00163783,0.0137615,1028,1709,6.64293,-32.7482
-189,-685,6.63818,33.0731,-7.63413e-05,0.000731156,0.00153136,0.00191109,-0.00125628,0.914292,0.00184166,0.00958204,1035,1709,6.63816,-33.0732
-182,-685,6.62012,33.4006,0.000378181,0.0010972,0.001639,0.00241565,-0.000940269,0.893363,0.00199898,0.0136543,1042,1709,6.62012,-33.4006
-175,-685,6.61328,33.7347,0.000815112,0.00172799,0.00171218,0.00304353,-0.000500421,0.915661,0.00221475,0.0133957,1049,1709,6.61328,-33.7347
-168,-685,6.60376,34.0247,0.00109175,0.00240015,0.00170476,0.00357193,-8.00251e-05,0.968607,0.00240841,0.0105527,1056,1709,6.60375,-34.0246
-161,-685,6.61047,34.3204,0.0013424,0.00333296,0.00166798,0.00428004,0.000395321,1.05439,0.00273114,0.0110336,1063,1709,6.61047,-34.3204
-154,-685,6.62292,34.62,0.0015434,0.00468644,0.00156801,0.00533491,0.000894935,1.17866,0.00329901,0.00961,1070,1709,6.62297,-34.62
-147,-685,6.60327,34.889,0.00169825,0.00618647,0.00140713,0.00659115,0.00129358,1.29077,0.00403266,0.00849082,1077,1709,6.6033,-34.889
-140,-685,6.59863,35.1521,0.00186587,0.00771341,0.00122346,0.00795907,0.00162021,1.37264,0.00485691,0.010978,1084,1709,6.59857,-35.1521
-133,-685,6.62939,35.4175,0.0020632,0.00926707,0.0010552,0.00941845,0.00191182,1.42831,0.00574866,0.010916,1091,1709,6.62933,-35.4175
-126,-685,6.64136,35.6801,0.00234625,0.0107038,0.000917388,0.0108033,0.00224673,1.46274,0.00658235,0.00913801,1098,1709,6.64139,-35.68
-119,-685,6.66614,35.9054,0.00270493,0.0118126,0.000804665,0.0118832,0.00263439,1.48335,0.00720633,0.0121154,1105,1709,6.66616,-35.9054
-112,-685,6.67822,36.1565,0.00302908,0.0125803,0.000711675,0.0126331,0.00297635,1.49683,0.00762606,0.0132403,1112,1709,6.67827,-36.1565
-105,-685,6.66687,36.4084,0.00328276,0.0129134,0.000639339,0.0129557,0.00324051,1.5048,0.00778511,0.0138814,1119,1709,6.66691,-36.4084
-98,-685,6.73486,36.6058,0.00354338,0.0128048,0.000531638,0.0128353,0.00351297,1.51364,0.00765927,0.0185752,1126,1709,6.7349,-36.6059
-91,-685,6.73169,36.751,0.00385479,0.0123346,0.000337077,0.0123479,0.00384141,1.53113,0.00729671,0.0293277,1133,1709,6.73168,-36.751
-84,-685,6.75317,37.0002,0,0,0,0,0,0,0,-1,1140,1709,6.75313,-37.0002
-77,-685,6.76904,37.3489,0,0,0,0,0,0,0,-1,1147,1709,6.76901,-37.3489
-70,-685,6.95801,37.822,0,0,0,0,0,0,0,-1,1154,1709,6.95804,-37.8221
-63,-685,6.03015,29.7728,0,0,0,0,0,0,0,-1,1161,1709,6.0302,-29.7728
-56,-685,3.93909,15.8704,0,0,0,0,0,0,0,-1,1168,1709,3.93905,-15.8704
-49,-685,3.07471,9.86011,0,0,0,0,0,0,0,-1,1175,1709,3.07467,-9.86009
-42,-685,2.70618,7.54504,0,0,0,0,0,0,0,-1,1182,1709,2.7062,-7.54504
-35,-685,2.95264,7.91516,0,0,0,0,0,0,0,-1,1189,1709,2.95262,-7.91517
-28,-685,7.12378,38.6018,0,0,0,0,0,0,0,-1,1196,1709,7.12374,-38.6018
-21,-685,7.28284,38.4486,0,0,0,0,0,0,0,-1,1203,1709,7.28287,-38.4486
-14,-685,7.28101,38.5806,0.0200726,-0.0196124,-0.000355275,0.0200758,-0.0196156,-0.0089514,0.0229164,0.0296403,1210,1709,7.28098,-38.5805
-7,-685,7.30078,38.7471,0.0197483,-0.0169655,0.0020684,0.0198645,-0.0170817,0.0561018,0.021351,0.0418721,1217,1709,7.30077,-38.7471
0,-685,7.38416,38.8993,0.0170195,-0.0080107,0.00609702,0.0184257,-0.00941685,0.226667,0.016353,0.047544,1224,1709,7.38422,-38.8993
7,-685,7.45251,39.1698,0.0128829,-0.000434301,0.00890189,0.017341,-0.00489238,0.464288,0.0134905,0.044113,1231,1709,7.45253,-39.1697
14,-685,7.62634,39.6262,0.00822136,0.00890584,0.011667,0.0202356,-0.00310843,0.800061,0.014637,0.0476481,1238,1709,7.6264,-39.6262
21,-685,7.73108,39.8104,0.00366758,0.0190449,0.0142142,0.0275167,-0.00480419,1.03332,0.0201378,0.0420454,1245,1709,7.73112,-39.8104
28,-685,7.69299,39.778,-0.00171667,0.0293118,0.0154263,0.0356759,-0.00808079,1.17952,0.0268854,0.0421809,1252,1709,7.69298,-39.7779
35,-685,7.7981,39.6627,-0.00324099,0.039312,0.0166516,0.0450533,-0.00898233,1.23877,0.0334343,0.0426468,1259,1709,7.79807,-39.6628
42,-685,7.92139,39.679,-0.00290019,0.0465811,0.0150761,0.0508127,-0.00713175,1.29716,0.0364855,0.0484094,1266,1709,7.92134,-39.6789
49,-685,7.96704,39.8739,0,0,0,0,0,0,0,-1,1273,1709,7.96708,-39.8739
56,-685,7.5271,39.4712,-0.00499696,0.0544236,0.0100265,0.0560698,-0.00664321,1.40806,0.0397796,0.0464053,1280,1709,7.52705,-39.4712
63,-685,7.61768,39.5809,-0.00420373,0.0541046,0.00635709,0.0547896,-0.00488877,1.46345,0.0382603,0.0466249,1287,1709,7.61767,-39.5809
70,-685,8.03357,39.6416,-0.00214525,0.0521051,0.0027246,0.0522416,-0.00228175,1.52074,0.0356127,0.0478675,1294,1709,8.03352,-39.6416
77,-685,8.15222,39.6379,0,0,0,0,0,0,0,-1,1301,1709,8.15221,-39.6379
84,-685,8.74292,39.6498,0,0,0,0,0,0,0,-1,1308,1709,8.74293,-39.6498
91,-685,8.21375,39.3241,0.00607427,0.0339793,-0.00754524,0.0358888,0.00416478,-1.32293,0.0226655,0.0461033,1315,1709,8.21376,-39.3241
98,-685,8.25208,39.1627,0.00763784,0.0257514,-0.00991491,0.0301233,0.00326589,-1.1555,0.019087,0.0403331,1322,1709,8.25211,-39.1627
105,-685,8.2124,38.9554,0.0105871,0.0156225,-0.0116368,0.0250109,0.00119871,-0.891934,0.016289,0.0413426,1329,1709,8.21237,-38.9555
112,-685,8.14661,39.038,0,0,0,0,0,0,0,-1,1336,1709,8.14662,-39.038
119,-685,8.27551,38.4025,0.0148472,0.00851195,-0.00945957,0.0216554,0.00170373,-0.623836,0.0139039,0.0413237,1343,1709,8.27548,-38.4024
126,-685,8.14868,38.3278,0.0155931,0.00652858,-0.007819,0.0200984,0.00202323,-0.522739,0.012778,0.046136,1350,1709,8.14865,-38.3278
133,-685,8.59302,38.6919,0,0,0,0,0,0,0,-1,1357,1709,8.59301,-38.6918
140,-685,8.52344,38.9375,0,0,0,0,0,0,0,-1,1364,1709,8.52345,-38.9375
147,-685,8.61157,38.7102,0,0,0,0,0,0,0,-1,1371,1709,8.61151,-38.7102
154,-685,8.5127,38.4189,0,0,0,0,0,0,0,-1,1378,1709,8.51264,-38.4189
161,-685,8.85999,38.4081,0,0,0,0,0,0,0,-1,1385,1709,8.86,-38.4081
168,-685,4.37524,10.8778,0,0,0,0,0,0,0,-1,1392,1709,4.37525,-10.8778
175,-685,3.97522,8.94324,0,0,0,0,0,0,0,-1,1399,1709,3.97519,-8.94328
182,-685,3.98218,9.19739,0,0,0,0,0,0,0,-1,1406,1709,3.98221,-9.1974
189,-685,4.53479,15.2343,0,0,0,0,0,0,0,-1,1413,1709,4.53474,-15.2343
196,-685,8.84253,37.9159,0,0,0,0,0,0,0,-1,1420,1709,8.84257,-37.9159
203,-685,8.86914,37.5679,0,0,0,0,0,0,0,-1,1427,1709,8.86908,-37.5679
210,-685,9.01465,37.295,0,0,0,0,0,0,0,-1,1434,1709,9.0147,-37.295
217,-685,8.97778,37.0143,0,0,0,0,0,0,0,-1,1441,1709,8.97783,-37.0142
224,-685,8.96106,36.8964,0,0,0,0,0,0,0,-1,1448,1709,8.9611,-36.8964
231,-685,8.97815,36.7855,0.00319293,-0.00037722,0.000945812,0.00342802,-0.000612306,0.243618,0.00251442,0.0383109,1455,1709,8.97814,-36.7855
238,-685,9.03308,36.46,0.00337793,0.000678873,0.000261926,0.00340311,0.00065369,0.0958521,0.00208528,0.0194012,1462,1709,9.03306,-36.46
245,-685,9.01758,36.2275,0.00343403,0.00118563,-0.000341302,0.0034847,0.00113496,-0.147376,0.00205224,0.0190428,1469,1709,9.01763,-36.2275
252,-685,9.05347,36.0294,0.00338526,0.00132336,-0.000621432,0.00355807,0.00115055,-0.271229,0.00209655,0.0128019,1476,1709,9.05352,-36.0294
259,-685,9.07935,35.7971,0.00346514,0.00181993,-0.000982918,0.00392425,0.00136081,-0.436978,0.00230086,0.00963198,1483,1709,9.07937,-35.7971
266,-685,9.09216,35.5435,0.00347131,0.00227636,-0.00121706,0.00422964,0.00151802,-0.557221,0.00247418,0.0121771,1490,1709,9.09211,-35.5435
273,-685,9.09473,35.2939,0.0033106,0.00258181,-0.00122074,0.00422017,0.00167224,-0.640356,0.00245394,0.0132762,1497,1709,9.09477,-35.294
280,-685,9.07642,35.0427,0.00305886,0.002858,-0.00115409,0.00411688,0.00179998,-0.741996,0.00238312,0.0139459,1504,1709,9.0764,-35.0427
287,-685,9.08765,34.7797,0.00275436,0.00306963,-0.00101769,0.00394183,0.00188217,-0.862234,0.00227658,0.0116109,1511,1709,9.08767,-34.7796
294,-685,9.0946,34.4991,0.00243777,0.00339271,-0.000933987,0.0039642,0.00186628,-1.02169,0.00229003,0.0104901,1518,1709,9.09455,-34.4992
301,-685,9.07361,34.2063,0.00206738,0.00366469,-0.000927033,0.00408965,0.00164241,-1.14097,0.00237635,0.0130817,1525,1709,9.07366,-34.2063
308,-685,9.06982,33.9192,0.0015847,0.00374205,-0.000904997,0.00407141,0.00125534,-1.22176,0.00240751,0.0143835,1532,1709,9.0698,-33.9192
315,-685,9.09473,33.6389,0.00109486,0.00338022,-0.000711222,0.00358348,0.000891596,-1.29243,0.00215419,0.0132021,1539,1709,9.09472,-33.6389
322,-685,9.0769,33.3348,0.000624616,0.00312571,-0.000643811,0.0032817,0.000468621,-1.33308,0.00204953,0.0212745,1546,1709,9.07693,-33.3348
329,-685,9.04993,33.0286,4.59026e-05,0.0026408,-0.000542078,0.00274948,-6.27859e-05,-1.37292,0.00185427,0.0190717,1553,1709,9.04998,-33.0285
336,-685,9.06189,32.7058,-0.000501108,0.00195097,-0.000351032,0.00200023,-0.000550371,-1.43137,0.00154987,0.0128088,1560,1709,9.06185,-32.7058
343,-685,9.03235,32.4073,-0.00110548,0.000846531,-0.000114578,0.000853233,-0.00111218,-1.51237,0.00113801,0.012144,1567,1709,9.03232,-32.4074
350,-685,9.00842,32.0734,-0.00171201,-0.00034332,0.000172775,-0.000321847,-0.00173348,1.44715,0.00106471,0.013103,1574,1709,9.00844,-32.0734
357,-685,9.01147,31.7473,-0.00243484,-0.00222861,0.000809148,-0.00151603,-0.00314741,0.848774,0.00181757,0.00984691,1581,1709,9.01142,-31.7474
364,-685,8.98621,31.4364,-0.002989,-0.00393276,0.00143503,-0.00195025,-0.0049715,0.626552,0.00289241,0.00964508,1588,1709,8.98615,-31.4364
371,-685,8.98206,31.1057,-0.00359624,-0.00578675,0.00209852,-0.00232435,-0.00705864,0.544884,0.00415373,0.0160853,1595,1709,8.98202,-31.1057
378,-685,8.93848,30.7545,-0.00450043,-0.00835323,0.00326845,-0.00263292,-0.0102207,0.519106,0.00612773,0.0206654,1602,1709,8.93853,-30.7545
385,-685,8.84424,30.4683,-0.00520544,-0.0106935,0.00443845,-0.00273127,-0.0131677,0.508536,0.00802448,0.0343657,1609,1709,8.84427,-30.4682
392,-685,8.75378,30.2904,-0.00576553,-0.0135911,0.00559873,-0.00284782,-0.0165088,0.480415,0.0101901,0.0398452,1616,1709,8.75384,-30.2903
399,-685,8.78137,29.8212,-0.0063671,-0.016634,0.00678143,-0.00299526,-0.0200059,0.461419,0.0124594,0.0470421,1623,1709,8.78133,-29.8212
406,-685,8.62024,29.4349,0,0,0,0,0,0,0,-1,1630,1709,8.62024,-29.4349
413,-685,9.14075,29.2178,0,0,0,0,0,0,0,-1,1637,1709,9.14078,-29.2178
420,-685,4.84631,10.3781,0,0,0,0,0,0,0,-1,1644,1709,4.84634,-10.378
427,-685,6.05151,9.21155,0,0,0,0,0,0,0,-1,1651,1709,6.05156,-9.21156
434,-685,4.87769,8.91418,0,0,0,0,0,0,0,-1,1658,1709,4.87768,-8.91413
441,-685,5.62,8.75549,0,0,0,0,0,0,0,-1,1665,1709,5.61996,-8.75545
448,-685,6.4043,8.58972,0,0,0,0,0,0,0,-1,1672,1709,6.40435,-8.58971
455,-685,2.31958,4.09802,0,0,0,0,0,0,0,-1,1679,1709,2.31957,-4.09803
462,-685,0,0,0,0,0,0,0,0,0,-1,1686,1709,0,0
469,-685,0,0,0,0,0,0,0,0,0,-1,1693,1709,0,0
476,-685,0,0,0,0,0,0,0,0,0,-1,1700,1709,0,0
483,-685,0,0,0,0,0,0,0,0,0,-1,1707,1709,0,0
490,-685,0,0,0,0,0,0,0,0,0,-1,1714,1709,0,0
497,-685,0,0,0,0,0,0,0,0,0,-1,1721,1709,0,0
504,-685,0,0,0,0,0,0,0,0,0,-1,1728,1709,0,0
511,-685,0,0,0,0,0,0,0,0,0,-1,1735,1709,0,0
518,-685,0,0,0,0,0,0,0,0,0,-1,1742,1709,0,0
525,-685,0,0,0,0,0,0,0,0,0,-1,1749,1709,0,0
532,-685,0,0,0,0,0,0,0,0,0,-1,1756,1709,0,0
539,-685,0,0,0,0,0,0,0,0,0,-1,1763,1709,0,0
546,-685,0,0,0,0,0,0,0,0,0,-1,1770,1709,0,0
553,-685,0,0,0,0,0,0,0,0,0,-1,1777,1709,0,0
560,-685,0,0,0,0,0,0,0,0,0,-1,1784,1709,0,0
567,-685,0,0,0,0,0,0,0,0,0,-1,1791,1709,0,0
574,-685,0,0,0,0,0,0,0,0,0,-1,1798,1709,0,0
581,-685,0,0,0,0,0,0,0,0,0,-1,1805,1709,0,0
588,-685,0,0,0,0,0,0,0,0,0,-1,1812,1709,0,0
595,-685,0,0,0,0,0,0,0,0,0,-1,1819,1709,0,0
602,-685,0,0,0,0,0,0,0,0,0,-1,1826,1709,0,0
609,-685,0,0,0,0,0,0,0,0,0,-1,1833,1709,0,0
616,-685,0,0,0,0,0,0,0,0,0,-1,1840,1709,0,0
623,-685,0,0,0,0,0,0,0,0,0,-1,1847,1709,0,0
630,-685,0,0,0,0,0,0,0,0,0,-1,1854,1709,0,0
637,-685,0,0,0,0,0,0,0,0,0,-1,1861,1709,0,0
644,-685,0,0,0,0,0,0,0,0,0,-1,1868,1709,0,0
651,-685,0,0,0,0,0,0,0,0,0,-1,1875,1709,0,0
658,-685,0,0,0,0,0,0,0,0,0,-1,1882,1709,0,0
665,-685,0,0,0,0,0,0,0,0,0,-1,1889,1709,0,0
672,-685,0,0,0,0,0,0,0,0,0,-1,1896,1709,0,0
679,-685,0,0,0,0,0,0,0,0,0,-1,1903,1709,0,0
686,-685,0,0,0,0,0,0,0,0,0,-1,1910,1709,0,0
693,-685,0,0,0,0,0,0,0,0,0,-1,1917,1709,0,0
700,-685,0,0,0,0,0,0,0,0,0,-1,1924,1709,0,0
707,-685,0,0,0,0,0,0,0,0,0,-1,1931,1709,0,0
714,-685,0,0,0,0,0,0,0,0,0,-1,1938,1709,0,0
721,-685,0,0,0,0,0,0,0,0,0,-1,1945,1709,0,0
728,-685,0,0,0,0,0,0,0,0,0,-1,1952,1709,0,0
735,-685,0,0,0,0,0,0,0,0,0,-1,1959,1709,0,0
742,-685,0,0,0,0,0,0,0,0,0,-1,1966,1709,0,0
749,-685,0,0,0,0,0,0,0,0,0,-1,1973,1709,0,0
756,-685,0,0,0,0,0,0,0,0,0,-1,1980,1709,0,0
763,-685,0,0,0,0,0,0,0,0,0,-1,1987,1709,0,0
770,-685,0,0,0,0,0,0,0,0,0,-1,1994,1709,0,0
777,-685,0,0,0,0,0,0,0,0,0,-1,2001,1709,0,0
784,-685,0,0,0,0,0,0,0,0,0,-1,2008,1709,0,0
791,-685,0,0,0,0,0,0,0,0,0,-1,2015,1709,0,0
798,-685,0,0,0,0,0,0,0,0,0,-1,2022,1709,0,0
805,-685,0,0,0,0,0,0,0,0,0,-1,2029,1709,0,0
812,-685,0,0,0,0,0,0,0,0,0,-1,2036,1709,0,0
-700,-692,0,0,0,0,0,0,0,0,0,-1,524,1716,0,0
-693,-692,0,0,0,0,0,0,0,0,0,-1,531,1716,0,0
-686,-692,0,0,0,0,0,0,0,0,0,-1,538,1716,0,0
-679,-692,0,0,0,0,0,0,0,0,0,-1,545,1716,0,0
-672,-692,0,0,0,0,0,0,0,0,0,-1,552,1716,0,0
-665,-692,0,0,0,0,0,0,0,0,0,-1,559,1716,0,0
-658,-692,0,0,0,0,0,0,0,0,0,-1,566,1716,0,0
-651,-692,0,0,0,0,0,0,0,0,0,-1,573,1716,0,0
-644,-692,0,0,0,0,0,0,0,0,0,-1,580,1716,0,0
-637,-692,0,0,0,0,0,0,0,0,0,-1,587,1716,0,0
-630,-692,0,0,0,0,0,0,0,0,0,-1,594,1716,0,0
-623,-692,0,0,0,0,0,0,0,0,0,-1,601,1716,0,0
-616,-692,0,0,0,0,0,0,0,0,0,-1,608,1716,0,0
-609,-692,0,0,0,0,0,0,0,0,0,-1,615,1716,0,0
-602,-692,0,0,0,0,0,0,0,0,0,-1,622,1716,0,0
-595,-692,0,0,0,0,0,0,0,0,0,-1,629,1716,0,0
-588,-692,0,0,0,0,0,0,0,0,0,-1,636,1716,0,0
-581,-692,0,0,0,0,0,0,0,0,0,-1,643,1716,0,0
-574,-692,0,0,0,0,0,0,0,0,0,-1,650,1716,0,0
-567,-692,0,0,0,0,0,0,0,0,0,-1,657,1716,0,0
-560,-692,0,0,0,0,0,0,0,0,0,-1,664,1716,0,0
-553,-692,0,0,0,0,0,0,0,0,0,-1,671,1716,0,0
-546,-692,0,0,0,0,0,0,0,0,0,-1,678,1716,0,0
-539,-692,0,0,0,0,0,0,0,0,0,-1,685,1716,0,0
-532,-692,0,0,0,0,0,0,0,0,0,-1,692,1716,0,0
-525,-692,0,0,0,0,0,0,0,0,0,-1,699,1716,0,0
-518,-692,0,0,0,0,0,0,0,0,0,-1,706,1716,0,0
-511,-692,0,0,0,0,0,0,0,0,0,-1,713,1716,0,0
-504,-692,0,0,0,0,0,0,0,0,0,-1,720,1716,0,0
-497,-692,0,0,0,0,0,0,0,0,0,-1,727,1716,0,0
-490,-692,0,0,0,0,0,0,0,0,0,-1,734,1716,0,0
-483,-692,0,0,0,0,0,0,0,0,0,-1,741,1716,0,0
-476,-692,0,0,0,0,0,0,0,0,0,-1,748,1716,0,0
-469,-692,0,0,0,0,0,0,0,0,0,-1,755,1716,0,0
-462,-692,0,0,0,0,0,0,0,0,0,-1,762,1716,0,0
-455,-692,0,0,0,0,0,0,0,0,0,-1,769,1716,0,0
-448,-692,0,0,0,0,0,0,0,0,0,-1,776,1716,0,0
-441,-692,0,0,0,0,0,0,0,0,0,-1,783,1716,0,0
-434,-692,0,0,0,0,0,0,0,0,0,-1,790,1716,0,0
-427,-692,0,0,0,0,0,0,0,0,0,-1,797,1716,0,0
-420,-692,0,0,0,0,0,0,0,0,0,-1,804,1716,0,0
-413,-692,0,0,0,0,0,0,0,0,0,-1,811,1716,0,0
-406,-692,0,0,0,0,0,0,0,0,0,-1,818,1716,0,0
-399,-692,0,0,0,0,0,0,0,0,0,-1,825,1716,0,0
-392,-692,0,0,0,0,0,0,0,0,0,-1,832,1716,0,0
-385,-692,0,0,0,0,0,0,0,0,0,-1,839,1716,0,0
-378,-692,0,0,0,0,0,0,0,0,0,-1,846,1716,0,0
-371,-692,0,0,0,0,0,0,0,0,0,-1,853,1716,0,0
-364,-692,0,0,0,0,0,0,0,0,0,-1,860,1716,0,0
-357,-692,0,0,0,0,0,0,0,0,0,-1,867,1716,0,0
-350,-692,0,0,0,0,0,0,0,0,0,-1,874,1716,0,0
-343,-692,0,0,0,0,0,0,0,0,0,-1,881,1716,0,0
-336,-692,0,0,0,0,0,0,0,0,0,-1,888,1716,0,0
-329,-692,3.03107,4.10266,0,0,0,0,0,0,0,-1,895,1716,3.03105,-4.10267
-322,-692,4.43713,18.5242,0,0,0,0,0,0,0,-1,902,1716,4.43711,-18.5241
-315,-692,5.38965,17.975,0,0,0,0,0,0,0,-1,909,1716,5.38963,-17.975
-308,-692,5.86938,17.4392,0,0,0,0,0,0,0,-1,916,1716,5.86937,-17.4392
-301,-692,8.65558,20.7662,0,0,0,0,0,0,0,-1,923,1716,8.65556,-20.7663
-294,-692,7.04529,27.412,0,0,0,0,0,0,0,-1,930,1716,7.04529,-27.412
-287,-692,6.51239,25.4999,0,0,0,0,0,0,0,-1,937,1716,6.51237,-25.4999
-280,-692,6.59369,26.2999,0,0,0,0,0,0,0,-1,944,1716,6.59366,-26.2999
-273,-692,6.56561,27.0629,0,0,0,0,0,0,0,-1,951,1716,6.56559,-27.0629
-266,-692,7.18018,29.3191,0,0,0,0,0,0,0,-1,958,1716,7.1802,-29.3191
-259,-692,8.0517,29.6864,0,0,0,0,0,0,0,-1,965,1716,8.05168,-29.6864
-252,-692,7.19421,30.0367,0,0,0,0,0,0,0,-1,972,1716,7.19419,-30.0367
-245,-692,7.28186,30.4041,-0.00450287,-9.89857e-05,-0.00305819,0.0014675,-0.00606936,-1.09742,0.00461387,0.0495684,979,1716,7.28189,-30.4041
-238,-692,7.29248,30.8048,-0.00504572,0.000370634,-0.00234358,0.00124388,-0.00591896,-1.21412,0.00441934,0.0433783,986,1716,7.2925,-30.8048
-231,-692,7.17505,31.1476,-0.00451708,0.000127366,-0.00131617,0.000474416,-0.00486413,-1.31298,0.0034119,0.0376921,993,1716,7.17506,-31.1476
-224,-692,7.05768,31.4152,-0.00309274,-8.75969e-05,-0.000552135,1.06358e-05,-0.00319097,-1.39472,0.00213087,0.018334,1000,1716,7.0577,-31.4152
-217,-692,7.01459,31.7594,-0.00236286,0.000186624,6.66478e-05,0.000188365,-0.0023646,1.54468,0.00164279,0.0121192,1007,1716,7.01456,-31.7594
-210,-692,7.00757,32.1029,-0.0024376,0.000273674,0.000825072,0.000505013,-0.00266894,1.29743,0.00196934,0.0134491,1014,1716,7.00759,-32.1029
-203,-692,7.01221,32.4286,-0.00177036,0.000147211,0.00161133,0.00106343,-0.00268658,1.05378,0.00223165,0.0154357,1021,1716,7.01225,-32.4286
-196,-692,6.97595,32.7694,-0.000977001,0.000173255,0.00193771,0.00161938,-0.00242313,0.929661,0.00234927,0.0181299,1028,1716,6.97589,-32.7694
-189,-692,6.93372,33.0648,-0.000423461,0.000297927,0.00220618,0.0021727,-0.00229823,0.866428,0.00258164,0.00960842,1035,1716,6.93377,-33.0648
-182,-692,6.91614,33.389,4.76736e-05,0.000495255,0.00231331,0.00259557,-0.00205264,0.833618,0.00268974,0.0135728,1042,1716,6.91609,-33.3891
-175,-692,6.896,33.7411,0.000446864,0.000895273,0.00235644,0.00303815,-0.00169601,0.832828,0.00276964,0.0141735,1049,1716,6.89598,-33.7411
-168,-692,6.91272,34.0385,0.000684667,0.00131668,0.00229626,0.00331857,-0.00131723,0.853777,0.00275837,0.0119407,1056,1716,6.91276,-34.0384
-161,-692,6.92932,34.3192,0.00089814,0.00197245,0.00217119,0.00367195,-0.000801352,0.906664,0.00275422,0.0142766,1063,1716,6.92936,-34.3192
-154,-692,6.91125,34.6371,0.00102928,0.00300525,0.00196934,0.00422054,-0.000186013,1.01789,0.0028777,0.0144182,1070,1716,6.91129,-34.6371
-147,-692,6.88342,34.8998,0.00111165,0.00417181,0.00172266,0.00494579,0.000337668,1.14853,0.0031906,0.0122238,1077,1716,6.88337,-34.8998
-140,-692,6.87488,35.1558,0.00121523,0.00536473,0.00143138,0.00581058,0.000769378,1.26884,0.00364443,0.00980317,1084,1716,6.87486,-35.1558
-133,-692,6.88782,35.4227,0.00131626,0.00653541,0.00113025,0.00676966,0.00108201,1.36643,0.00419917,0.00948738,1091,1716,6.88781,-35.4228
-126,-692,6.89795,35.6776,0.00150222,0.00761552,0.000912274,0.00774875,0.00136898,1.42578,0.00477537,0.00754862,1098,1716,6.89792,-35.6776
-119,-692,6.89966,35.906,0.00180304,0.00844939,0.000759585,0.0085351,0.00171734,1.45844,0.00521278,0.0109419,1105,1716,6.8996,-35.906
-112,-692,6.91467,36.1556,0.00207447,0.00896914,0.000602918,0.00902147,0.00202214,1.48422,0.00546639,0.0113425,1112,1716,6.91462,-36.1556
-105,-692,6.94409,36.3966,0.00230933,0.00917564,0.000484996,0.00920973,0.00227524,1.50063,0.00553941,0.0164723,1119,1716,6.94408,-36.3966
-98,-692,6.98657,36.6041,0.00257043,0.00904347,0.000384403,0.00906622,0.00254768,1.51169,0.00539915,0.0178612,1126,1716,6.98658,-36.6041
-91,-692,6.97144,36.8168,0.00286702,0.00866106,0.000248267,0.00867168,0.00285641,1.52805,0.00510282,0.0204866,1133,1716,6.97147,-36.8168
-84,-692,6.98132,37.0109,0.00323873,0.00790864,0.000106905,0.00791108,0.00323629,1.54792,0.00459257,0.0232182,1140,1716,6.98135,-37.0108
-77,-692,6.98621,37.2949,0.00356817,0.00686993,-0.000291081,0.0068954,0.00354271,-1.48353,0.00398156,0.0184291,1147,1716,6.98618,-37.2949
-70,-692,7.04956,37.5599,0.00367174,0.00511672,-0.000668432,0.0053785,0.00340996,-1.19752,0.00314223,0.0346236,1154,1716,7.04957,-37.5599
-63,-692,7.13794,37.7767,0,0,0,0,0,0,0,-1,1161,1716,7.13793,-37.7767
-56,-692,7.04358,37.7384,0,0,0,0,0,0,0,-1,1168,1716,7.04356,-37.7385
-49,-692,7.08484,37.9309,0,0,0,0,0,0,0,-1,1175,1716,7.08483,-37.9309
-42,-692,7.14771,38.2178,0,0,0,0,0,0,0,-1,1182,1716,7.14775,-38.2177
-35,-692,7.23804,38.3972,0,0,0,0,0,0,0,-1,1189,1716,7.23803,-38.3972
-28,-692,7.22595,38.5194,0.0152169,-0.00867123,-0.00184732,0.0153589,-0.00881325,-0.0767244,0.0141253,0.0484149,1196,1716,7.22592,-38.5194
-21,-692,7.32312,38.4507,0.014003,-0.00953225,-0.00123726,0.0140679,-0.00959711,-0.052378,0.013744,0.0336612,1203,1716,7.32317,-38.4507
-14,-692,7.35376,38.531,0.0140612,-0.00944579,0.000157075,0.0140622,-0.00944684,0.00668165,0.0136599,0.0167816,1210,1716,7.35378,-38.5311
-7,-692,7.37549,38.707,0.0138917,-0.00717081,0.00205609,0.0140905,-0.00736964,0.0964059,0.0125909,0.0157047,1217,1716,7.37554,-38.7071
0,-692,7.40344,38.8013,0.0119981,-7.27662e-05,0.00521677,0.0139402,-0.00201487,0.356386,0.0100327,0.0188255,1224,1716,7.4034,-38.8013
7,-692,7.4469,38.8802,0.00894566,0.00551936,0.00719912,0.0146327,-0.000167639,0.668588,0.00981147,0.0235494,1231,1716,7.44685,-38.8803
14,-692,7.53369,39.1134,0.00555497,0.0123126,0.00911418,0.0186541,-0.000786522,0.962906,0.0127064,0.0278354,1238,1716,7.53364,-39.1135
21,-692,7.65076,39.208,0.00225113,0.0196972,0.01088,0.0249193,-0.0029709,1.1233,0.0176865,0.0269898,1245,1716,7.6508,-39.208
28,-692,7.69617,39.1858,-0.00192992,0.0273429,0.0120028,0.0316351,-0.0062221,1.22737,0.023441,0.026585,1252,1716,7.69612,-39.1857
35,-692,7.75537,39.2333,-0.00341946,0.0347311,0.0130418,0.0387633,-0.00745165,1.27094,0.028651,0.025742,1259,1716,7.75536,-39.2332
42,-692,7.81165,39.3738,-0.00377476,0.0401539,0.0120696,0.0432516,-0.0068725,1.31956,0.0313771,0.0247672,1266,1716,7.81164,-39.3738
49,-692,7.85852,39.4397,-0.00561422,0.043964,0.0106695,0.0461627,-0.00781286,1.36757,0.0336828,0.0299914,1273,1716,7.85855,-39.4397
56,-692,7.76709,39.3795,-0.00666681,0.0455857,0.00837159,0.0468942,-0.00797528,1.41575,0.0342323,0.0384642,1280,1716,7.76709,-39.3796
63,-692,7.76257,39.3201,-0.00665251,0.0448865,0.00559006,0.0454858,-0.00725186,1.46399,0.0330078,0.0393409,1287,1716,7.76257,-39.3201
70,-692,7.92957,39.4122,-0.00557769,0.0426609,0.00284117,0.0428277,-0.00574445,1.51217,0.0306466,0.0323812,1294,1716,7.92954,-39.4123
77,-692,8.06982,39.4219,-0.00373949,0.0379091,5.96117e-05,0.0379092,-0.00373957,1.56937,0.0266071,0.0362445,1301,1716,8.06984,-39.4218
84,-692,8.01282,39.2559,-0.00131091,0.0325841,-0.00246756,0.0327628,-0.00148961,-1.4985,0.0223549,0.0457662,1308,1716,8.01276,-39.2559
91,-692,8.08435,39.239,-0.000414884,0.0264419,-0.00498645,0.0273379,-0.00131082,-1.39302,0.0186775,0.0424942,1315,1716,8.0843,-39.239
98,-692,8.14575,39.1444,0.000527315,0.0196219,-0.00688373,0.0218447,-0.00169555,-1.25845,0.01516,0.034081,1322,1716,8.14575,-39.1444
105,-692,8.14124,39.0914,0.00270784,0.0110884,-0.00836991,0.0162583,-0.00246212,-1.01748,0.0117459,0.0406186,1329,1716,8.14118,-39.0914
112,-692,8.19055,39.048,0.00488764,0.00789789,-0.00760883,0.014149,-0.0013635,-0.883044,0.00991848,0.0417542,1336,1716,8.19051,-39.048
119,-692,8.21814,38.9187,0.00635941,0.00509923,-0.00675383,0.0125125,-0.00105384,-0.738886,0.0087142,0.0351201,1343,1716,8.21819,-38.9187
126,-692,8.33472,38.8002,0.00725098,0.00320205,-0.00567264,0.0112496,-0.000796549,-0.614002,0.00777884,0.0355555,1350,1716,8.3347,-38.8002
133,-692,8.41541,38.7417,0.00873393,0.00172878,-0.00438521,0.0108437,-0.000380962,-0.448417,0.00735939,0.0274886,1357,1716,8.41537,-38.7416
140,-692,8.4032,38.7512,0.007174,0.00111652,-0.00353105,0.00879731,-0.000506788,-0.430911,0.0060409,0.0304503,1364,1716,8.40319,-38.7512
147,-692,8.46387,38.6482,0.00558986,4.97682e-05,-0.00102573,0.00577368,-0.000134045,-0.17732,0.00389457,0.0348273,1371,1716,8.46385,-38.6482
154,-692,8.42371,38.4597,0.0080296,0.000237522,2.55095e-05,0.00802968,0.000237439,0.00327373,0.00527575,0.0306568,1378,1716,8.42374,-38.4597
161,-692,8.61475,38.4114,0.00980057,0.00060665,0.00103234,0.00991507,0.000492158,0.110453,0.00645225,0.0408332,1385,1716,8.61474,-38.4114
168,-692,8.62585,38.3187,0,0,0,0,0,0,0,-1,1392,1716,8.62582,-38.3187
175,-692,8.72229,38.1526,0,0,0,0,0,0,0,-1,1399,1716,8.72227,-38.1526
182,-692,8.66663,37.936,0,0,0,0,0,0,0,-1,1406,1716,8.66659,-37.936
189,-692,8.66345,37.8115,0,0,0,0,0,0,0,-1,1413,1716,8.66348,-37.8116
196,-692,8.68396,37.6617,0.00453643,-0.000417017,0.00166004,0.0050413,-0.000921884,0.295242,0.00370658,0.0367134,1420,1716,8.684,-37.6618
203,-692,8.70483,37.5013,0.00391308,-0.000599414,0.00151791,0.00437615,-0.00106249,0.296105,0.00332861,0.0240532,1427,1716,8.70478,-37.5014
210,-692,8.75806,37.3073,0.00318948,-0.000431148,0.00137673,0.00365351,-0.000895175,0.325091,0.00278249,0.0194289,1434,1716,8.75805,-37.3073
217,-692,8.76233,37.0858,0.0025209,-0.000464701,0.000927227,0.00278543,-0.000729229,0.277907,0.00214182,0.016693,1441,1716,8.76232,-37.0858
224,-692,8.78149,36.9171,0.00219066,-0.000344729,0.000770124,0.00240626,-0.000560321,0.272958,0.00181993,0.012769,1448,1716,8.78154,-36.9171
231,-692,8.78406,36.7197,0.00192599,-0.00017725,0.000509466,0.0020429,-0.000294159,0.225568,0.00146983,0.011741,1455,1716,8.78404,-36.7198
238,-692,8.79468,36.4525,0.00200402,0.000420102,9.48451e-05,0.00200968,0.000414443,0.0595961,0.00122523,0.0174939,1462,1716,8.79474,-36.4526
245,-692,8.77112,36.214,0.00207963,0.000786767,-0.00026435,0.00213159,0.000734804,-0.194094,0.0012503,0.0202315,1469,1716,8.77107,-36.214
252,-692,8.80566,35.9855,0.00212459,0.00100564,-0.000445424,0.00228025,0.000849979,-0.336191,0.00133064,0.0171269,1476,1716,8.8057,-35.9855
259,-692,8.81763,35.7845,0.0022301,0.00142292,-0.000640299,0.00258339,0.00106963,-0.50419,0.00149885,0.00941131,1483,1716,8.81767,-35.7846
266,-692,8.81445,35.5569,0.00225294,0.00183723,-0.000716568,0.00279119,0.00129898,-0.644237,0.00161278,0.0104708,1490,1716,8.81441,-35.5569
273,-692,8.81311,35.3057,0.00216542,0.00230016,-0.000699335,0.00293537,0.00153022,-0.833416,0.00169525,0.0137679,1497,1716,8.81314,-35.3056
280,-692,8.82202,35.0461,0.001969,0.00267837,-0.000618706,0.00303685,0.00161052,-1.04566,0.0017544,0.0121234,1504,1716,8.82207,-35.0462
287,-692,8.82959,34.8002,0.0017338,0.00309165,-0.000518538,0.00326702,0.00155843,-1.24467,0.00188688,0.0102443,1511,1716,8.82963,-34.8002
294,-692,8.82153,34.5248,0.00148849,0.00365266,-0.000475851,0.00375267,0.00138848,-1.36365,0.00219088,0.00998066,1518,1716,8.82152,-34.5248
301,-692,8.81445,34.2433,0.0011902,0.004184,-0.000541388,0.00427889,0.0010953,-1.39728,0.00256662,0.0129152,1525,1716,8.81451,-34.2433
308,-692,8.7926,33.9637,0.00071744,0.00444651,-0.000580518,0.0045348,0.000629159,-1.41988,0.00283683,0.0160812,1532,1716,8.79265,-33.9638
315,-692,8.81702,33.665,0.000250003,0.00414292,-0.000404122,0.00418443,0.000208494,-1.46844,0.00272278,0.0156937,1539,1716,8.81704,-33.6651
322,-692,8.76318,33.324,-0.000130539,0.0040071,-0.000419889,0.00404928,-0.000172719,-1.47068,0.0027589,0.0208506,1546,1716,8.76321,-33.324
329,-692,8.73132,32.9985,-0.000675429,0.00357466,-0.000371417,0.00360687,-0.000707644,-1.48428,0.00267188,0.0173551,1553,1716,8.73135,-32.9985
336,-692,8.74731,32.7074,-0.00119498,0.00285681,-0.000224615,0.00286922,-0.0012074,-1.51559,0.00241795,0.0117326,1560,1716,8.74731,-32.7074
343,-692,8.74329,32.4277,-0.00178804,0.00161826,-2.73847e-05,0.00161848,-0.00178826,-1.56276,0.0019677,0.0140364,1567,1716,8.74333,-32.4278
350,-692,8.7218,32.1163,-0.00244263,0.000168117,0.000288595,0.000199638,-0.00247415,1.46201,0.00171984,0.016867,1574,1716,8.72183,-32.1163
357,-692,8.6908,31.722,-0.00327502,-0.00222153,0.00109043,-0.00153729,-0.00395927,1.0104,0.00230483,0.021901,1581,1716,8.69078,-31.7221
364,-692,8.68689,31.3765,-0.00385323,-0.00430435,0.00186572,-0.00219948,-0.0059581,0.725242,0.00347895,0.0268698,1588,1716,8.68692,-31.3764
371,-692,8.76111,31.1555,-0.00456276,-0.00667111,0.0027275,-0.0026928,-0.00854107,0.600992,0.00504211,0.036467,1595,1716,8.76112,-31.1555
378,-692,8.57288,30.853,-0.00584406,-0.0102627,0.00443887,-0.0030951,-0.0130117,0.554485,0.00784889,0.0488959,1602,1716,8.57283,-30.8531
385,-692,8.40198,30.5885,0,0,0,0,0,0,0,-1,1609,1716,8.40195,-30.5885
392,-692,8.1239,30.3804,0,0,0,0,0,0,0,-1,1616,1716,8.12395,-30.3804
399,-692,8.42883,29.748,0,0,0,0,0,0,0,-1,1623,1716,8.42888,-29.7481
406,-692,8.48706,30.1267,0,0,0,0,0,0,0,-1,1630,1716,8.48703,-30.1267
413,-692,4.25085,10.5685,0,0,0,0,0,0,0,-1,1637,1716,4.2508,-10.5685
420,-692,5.48901,10.4845,0,0,0,0,0,0,0,-1,1644,1716,5.48906,-10.4845
427,-692,3.79578,8.60339,0,0,0,0,0,0,0,-1,1651,1716,3.79577,-8.6034
434,-692,4.78516,8.64636,0,0,0,0,0,0,0,-1,1658,1716,4.78512,-8.64634
441,-692,5.8208,8.74036,0,0,0,0,0,0,0,-1,1665,1716,5.82084,-8.7404
448,-692,6.73792,8.51013,0,0,0,0,0,0,0,-1,1672,1716,6.73793,-8.5101
455,-692,0,0,0,0,0,0,0,0,0,-1,1679,1716,0,0
462,-692,0,0,0,0,0,0,0,0,0,-1,1686,1716,0,0
469,-692,0,0,0,0,0,0,0,0,0,-1,1693,1716,0,0
476,-692,0,0,0,0,0,0,0,0,0,-1,1700,1716,0,0
483,-692,0,0,0,0,0,0,0,0,0,-1,1707,1716,0,0
490,-692,0,0,0,0,0,0,0,0,0,-1,1714,1716,0,0
497,-692,0,0,0,0,0,0,0,0,0,-1,1721,1716,0,0
504,-692,0,0,0,0,0,0,0,0,0,-1,1728,1716,0,0
511,-692,0,0,0,0,0,0,0,0,0,-1,1735,1716,0,0
518,-692,0,0,0,0,0,0,0,0,0,-1,1742,1716,0,0
525,-692,0,0,0,0,0,0,0,0,0,-1,1749,1716,0,0
532,-692,0,0,0,0,0,0,0,0,0,-1,1756,1716,0,0
539,-692,0,0,0,0,0,0,0,0,0,-1,1763,1716,0,0
546,-692,0,0,0,0,0,0,0,0,0,-1,1770,1716,0,0
553,-692,0,0,0,0,0,0,0,0,0,-1,1777,1716,0,0
560,-692,0,0,0,0,0,0,0,0,0,-1,1784,1716,0,0
567,-692,0,0,0,0,0,0,0,0,0,-1,1791,1716,0,0
574,-692,0,0,0,0,0,0,0,0,0,-1,1798,1716,0,0
581,-692,0,0,0,0,0,0,0,0,0,-1,1805,1716,0,0
588,-692,0,0,0,0,0,0,0,0,0,-1,1812,1716,0,0
595,-692,0,0,0,0,0,0,0,0,0,-1,1819,1716,0,0
602,-692,0,0,0,0,0,0,0,0,0,-1,1826,1716,0,0
609,-692,0,0,0,0,0,0,0,0,0,-1,1833,1716,0,0
616,-692,0,0,0,0,0,0,0,0,0,-1,1840,1716,0,0
623,-692,0,0,0,0,0,0,0,0,0,-1,1847,1716,0,0
630,-692,0,0,0,0,0,0,0,0,0,-1,1854,1716,0,0
637,-692,0,0,0,0,0,0,0,0,0,-1,1861,1716,0,0
644,-692,0,0,0,0,0,0,0,0,0,-1,1868,1716,0,0
651,-692,0,0,0,0,0,0,0,0,0,-1,1875,1716,0,0
658,-692,0,0,0,0,0,0,0,0,0,-1,1882,1716,0,0
665,-692,0,0,0,0,0,0,0,0,0,-1,1889,1716,0,0
672,-692,0,0,0,0,0,0,0,0,0,-1,1896,1716,0,0
679,-692,0,0,0,0,0,0,0,0,0,-1,1903,1716,0,0
686,-692,0,0,0,0,0,0,0,0,0,-1,1910,1716,0,0
693,-692,0,0,0,0,0,0,0,0,0,-1,1917,1716,0,0
700,-692,0,0,0,0,0,0,0,0,0,-1,1924,1716,0,0
707,-692,0,0,0,0,0,0,0,0,0,-1,1931,1716,0,0
714,-692,0,0,0,0,0,0,0,0,0,-1,1938,1716,0,0
721,-692,0,0,0,0,0,0,0,0,0,-1,1945,1716,0,0
728,-692,0,0,0,0,0,0,0,0,0,-1,1952,1716,0,0
735,-692,0,0,0,0,0,0,0,0,0,-1,1959,1716,0,0
742,-692,0,0,0,0,0,0,0,0,0,-1,1966,1716,0,0
749,-692,0,0,0,0,0,0,0,0,0,-1,1973,1716,0,0
756,-692,0,0,0,0,0,0,0,0,0,-1,1980,1716,0,0
763,-692,0,0,0,0,0,0,0,0,0,-1,1987,1716,0,0
770,-692,0,0,0,0,0,0,0,0,0,-1,1994,1716,0,0
777,-692,0,0,0,0,0,0,0,0,0,-1,2001,1716,0,0
784,-692,0,0,0,0,0,0,0,0,0,-1,2008,1716,0,0
791,-692,0,0,0,0,0,0,0,0,0,-1,2015,1716,0,0
798,-692,0,0,0,0,0,0,0,0,0,-1,2022,1716,0,0
805,-692,0,0,0,0,0,0,0,0,0,-1,2029,1716,0,0
812,-692,0,0,0,0,0,0,0,0,0,-1,2036,1716,0,0
-700,-699,0,0,0,0,0,0,0,0,0,-1,524,1723,0,0
-693,-699,0,0,0,0,0,0,0,0,0,-1,531,1723,0,0
-686,-699,0,0,0,0,0,0,0,0,0,-1,538,1723,0,0
-679,-699,0,0,0,0,0,0,0,0,0,-1,545,1723,0,0
-672,-699,0,0,0,0,0,0,0,0,0,-1,552,1723,0,0
-665,-699,0,0,0,0,0,0,0,0,0,-1,559,1723,0,0
-658,-699,0,0,0,0,0,0,0,0,0,-1,566,1723,0,0
-651,-699,0,0,0,0,0,0,0,0,0,-1,573,1723,0,0
-644,-699,0,0,0,0,0,0,0,0,0,-1,580,1723,0,0
-637,-699,0,0,0,0,0,0,0,0,0,-1,587,1723,0,0
-630,-699,0,0,0,0,0,0,0,0,0,-1,594,1723,0,0
-623,-699,0,0,0,0,0,0,0,0,0,-1,601,1723,0,0
-616,-699,0,0,0,0,0,0,0,0,0,-1,608,1723,0,0
-609,-699,0,0,0,0,0,0,0,0,0,-1,615,1723,0,0
-602,-699,0,0,0,0,0,0,0,0,0,-1,622,1723,0,0
-595,-699,0,0,0,0,0,0,0,0,0,-1,629,1723,0,0
-588,-699,0,0,0,0,0,0,0,0,0,-1,636,1723,0,0
-581,-699,0,0,0,0,0,0,0,0,0,-1,643,1723,0,0
-574,-699,0,0,0,0,0,0,0,0,0,-1,650,1723,0,0
-567,-699,0,0,0,0,0,0,0,0,0,-1,657,1723,0,0
-560,-699,0,0,0,0,0,0,0,0,0,-1,664,1723,0,0
-553,-699,0,0,0,0,0,0,0,0,0,-1,671,1723,0,0
-546,-699,0,0,0,0,0,0,0,0,0,-1,678,1723,0,0
-539,-699,0,0,0,0,0,0,0,0,0,-1,685,1723,0,0
-532,-699,0,0,0,0,0,0,0,0,0,-1,692,1723,0,0
-525,-699,0,0,0,0,0,0,0,0,0,-1,699,1723,0,0
-518,-699,0,0,0,0,0,0,0,0,0,-1,706,1723,0,0
-511,-699,0,0,0,0,0,0,0,0,0,-1,713,1723,0,0
-504,-699,0,0,0,0,0,0,0,0,0,-1,720,1723,0,0
-497,-699,0,0,0,0,0,0,0,0,0,-1,727,1723,0,0
-490,-699,0,0,0,0,0,0,0,0,0,-1,734,1723,0,0
-483,-699,0,0,0,0,0,0,0,0,0,-1,741,1723,0,0
-476,-699,0,0,0,0,0,0,0,0,0,-1,748,1723,0,0
-469,-699,0,0,0,0,0,0,0,0,0,-1,755,1723,0,0
-462,-699,0,0,0,0,0,0,0,0,0,-1,762,1723,0,0
-455,-699,0,0,0,0,0,0,0,0,0,-1,769,1723,0,0
-448,-699,0,0,0,0,0,0,0,0,0,-1,776,1723,0,0
-441,-699,0,0,0,0,0,0,0,0,0,-1,783,1723,0,0
-434,-699,0,0,0,0,0,0,0,0,0,-1,790,1723,0,0
-427,-699,0,0,0,0,0,0,0,0,0,-1,797,1723,0,0
-420,-699,0,0,0,0,0,0,0,0,0,-1,804,1723,0,0
-413,-699,0,0,0,0,0,0,0,0,0,-1,811,1723,0,0
-406,-699,0,0,0,0,0,0,0,0,0,-1,818,1723,0,0
-399,-699,0,0,0,0,0,0,0,0,0,-1,825,1723,0,0
-392,-699,0,0,0,0,0,0,0,0,0,-1,832,1723,0,0
-385,-699,0,0,0,0,0,0,0,0,0,-1,839,1723,0,0
-378,-699,0,0,0,0,0,0,0,0,0,-1,846,1723,0,0
-371,-699,0,0,0,0,0,0,0,0,0,-1,853,1723,0,0
-364,-699,0,0,0,0,0,0,0,0,0,-1,860,1723,0,0
-357,-699,0,0,0,0,0,0,0,0,0,-1,867,1723,0,0
-350,-699,0,0,0,0,0,0,0,0,0,-1,874,1723,0,0
-343,-699,0,0,0,0,0,0,0,0,0,-1,881,1723,0,0
-336,-699,0,0,0,0,0,0,0,0,0,-1,888,1723,0,0
-329,-699,0,0,0,0,0,0,0,0,0,-1,895,1723,0,0
-322,-699,0,0,0,0,0,0,0,0,0,-1,902,1723,0,0
-315,-699,6.20001,19.5193,0,0,0,0,0,0,0,-1,909,1723,6.20001,-19.5193
-308,-699,6.98151,18.9218,0,0,0,0,0,0,0,-1,916,1723,6.98151,-18.9217
-301,-699,4.72729,12.8752,0,0,0,0,0,0,0,-1,923,1723,4.72732,-12.8752
-294,-699,6.90332,19.8601,0,0,0,0,0,0,0,-1,930,1723,6.90332,-19.8601
-287,-699,7.71405,27.0637,0,0,0,0,0,0,0,-1,937,1723,7.71407,-27.0637
-280,-699,7.63812,28.7865,0,0,0,0,0,0,0,-1,944,1723,7.63813,-28.7865
-273,-699,6.48779,28.6891,0,0,0,0,0,0,0,-1,951,1723,6.48782,-28.6891
-266,-699,6.81915,20.8951,0,0,0,0,0,0,0,-1,958,1723,6.81914,-20.8952
-259,-699,5.39758,14.5466,0,0,0,0,0,0,0,-1,965,1723,5.39759,-14.5466
-252,-699,7.9483,28.2317,0,0,0,0,0,0,0,-1,972,1723,7.94833,-28.2317
-245,-699,7.80334,30.5801,0,0,0,0,0,0,0,-1,979,1723,7.80333,-30.5801
-238,-699,7.72418,31.0371,0,0,0,0,0,0,0,-1,986,1723,7.72418,-31.0371
-231,-699,7.62744,30.8624,0,0,0,0,0,0,0,-1,993,1723,7.62745,-30.8625
-224,-699,7.4892,31.264,-0.00384434,0.000257548,-0.000464368,0.000309461,-0.00389626,-1.45947,0.00270656,0.0381802,1000,1723,7.48917,-31.2641
-217,-699,7.4364,31.7059,-0.00295483,0.00047179,0.000531136,0.00055223,-0.00303527,1.42049,0.00223049,0.0261311,1007,1723,7.43637,-31.7059
-210,-699,7.35846,32.1273,-0.00294844,0.000390035,0.00161093,0.00104059,-0.003599,1.18699,0.00281114,0.0179373,1014,1723,7.35848,-32.1273
-203,-699,7.33923,32.4084,-0.00205439,7.81026e-05,0.00260251,0.00182432,-0.00380061,0.979818,0.00331369,0.0219117,1021,1723,7.33929,-32.4084
-196,-699,7.31226,32.7367,-0.00109555,-5.76797e-06,0.00300665,0.00250496,-0.00360628,0.87504,0.00354737,0.0182481,1028,1723,7.31222,-32.7367
-189,-699,7.26038,33.1002,-0.000432141,1.2356e-05,0.00331874,0.00311628,-0.00353607,0.818832,0.00384329,0.00941037,1035,1723,7.26038,-33.1003
-182,-699,7.23022,33.4187,2.2712e-05,1.71858e-05,0.0033785,0.00339845,-0.00335856,0.784989,0.00390118,0.0116254,1042,1723,7.23024,-33.4188
-175,-699,7.22437,33.7395,0.000332977,0.000190586,0.00334203,0.00360457,-0.00308101,0.774748,0.00386386,0.0131516,1049,1723,7.22439,-33.7394
-168,-699,7.24097,34.0264,0.000486084,0.000382409,0.00317844,0.00361311,-0.00274462,0.777244,0.00368203,0.0151708,1056,1723,7.24095,-34.0264
-161,-699,7.22168,34.3147,0.000622063,0.000807324,0.00292197,0.00363813,-0.00220875,0.801244,0.00340916,0.0144488,1063,1723,7.22162,-34.3147
-154,-699,7.17468,34.631,0.000636181,0.00158402,0.00258356,0.00373677,-0.00151657,0.876107,0.003122,0.0138215,1070,1723,7.1747,-34.6309
-147,-699,7.15369,34.8961,0.000599541,0.00251144,0.00222386,0.00397611,-0.000865126,0.988388,0.00298125,0.0138852,1077,1723,7.15363,-34.8961
-140,-699,7.14673,35.1588,0.000607701,0.00349698,0.00180398,0.00436347,-0.000258791,1.12301,0.00299897,0.00980741,1084,1723,7.1467,-35.1588
-133,-699,7.15149,35.4363,0.000584871,0.00442088,0.00136236,0.00485549,0.000150266,1.26199,0.00318808,0.0089319,1091,1723,7.15143,-35.4363
-126,-699,7.16296,35.687,0.000645067,0.00529969,0.0010558,0.00552798,0.000416778,1.35785,0.00355455,0.0108061,1098,1723,7.16293,-35.687
-119,-699,7.17419,35.9333,0.000890762,0.00592823,0.000845984,0.00606651,0.000752485,1.40878,0.00381831,0.0159975,1105,1723,7.17415,-35.9333
-112,-699,7.1427,36.1649,0.00111323,0.00626142,0.000599886,0.0063304,0.00104426,1.45632,0.00391884,0.0118109,1112,1723,7.14271,-36.1649
-105,-699,7.1571,36.403,0.00132738,0.00639906,0.000420331,0.00643366,0.00129278,1.48866,0.00392971,0.0126707,1119,1723,7.15708,-36.4029
-98,-699,7.18677,36.6262,0.00158341,0.0062848,0.000316529,0.00630601,0.0015622,1.50387,0.0037921,0.0144545,1126,1723,7.18675,-36.6262
-91,-699,7.20032,36.832,0.00187442,0.00598662,0.000213912,0.00599772,0.00186332,1.51896,0.00354457,0.0209688,1133,1723,7.20033,-36.832
-84,-699,7.20825,37.0424,0.00218092,0.00546348,0.000119493,0.00546782,0.00217658,1.53446,0.00317864,0.0260069,1140,1723,7.2082,-37.0424
-77,-699,7.20691,37.2533,0.00247323,0.00481395,-0.000142603,0.00482261,0.00246457,-1.51017,0.00278456,0.017024,1147,1723,7.20692,-37.2533
-70,-699,7.21509,37.4259,0.00263289,0.00370532,-0.000402475,0.00383957,0.00249865,-1.24886,0.00225011,0.0167069,1154,1723,7.21513,-37.4259
-63,-699,7.2251,37.6116,0.00402766,0.00360465,-0.00162783,0.00545767,0.00217464,-0.720796,0.00317257,0.0145398,1161,1723,7.22504,-37.6115
-56,-699,7.22534,37.7755,0.00603017,0.00242462,-0.00208971,0.00698726,0.00146752,-0.42949,0.00425423,0.0105547,1168,1723,7.22534,-37.7755
-49,-699,7.24866,37.9512,0.00809663,0.00107481,-0.0019531,0.00860332,0.000568122,-0.253831,0.00555586,0.0231653,1175,1723,7.24862,-37.9512
-42,-699,7.30298,38.155,0.0100315,0.00040401,-0.00152621,0.0102676,0.000167856,-0.153514,0.00678984,0.0283405,1182,1723,7.30301,-38.155
-35,-699,7.32751,38.3,0.0107854,-0.00174633,-0.00142566,0.0109456,-0.00190647,-0.111859,0.00800853,0.0274329,1189,1723,7.32754,-38.3001
-28,-699,7.38538,38.4045,0.0103494,-0.00224863,-0.00126236,0.0104747,-0.00237388,-0.0988927,0.00789429,0.0215465,1196,1723,7.38535,-38.4045
-21,-699,7.39307,38.4496,0.00954617,-0.00258907,-0.000856643,0.00960634,-0.00264924,-0.0701279,0.0074461,0.013839,1203,1723,7.39307,-38.4496
-14,-699,7.40063,38.5869,0.00962225,-0.00239591,0.000102056,0.00962311,-0.00239678,0.00849097,0.00734585,0.0116758,1210,1723,7.40069,-38.587
-7,-699,7.43445,38.7239,0.00955205,-0.000685,0.00150753,0.00976944,-0.000902385,0.143213,0.00683364,0.00889353,1217,1723,7.43441,-38.7239
0,-699,7.48303,38.8123,0.00837571,0.00443612,0.00385374,0.0107339,0.00207794,0.549139,0.00657368,0.0103896,1224,1723,7.48308,-38.8123
7,-699,7.51965,38.8834,0.00633494,0.00826571,0.00525296,0.0126413,0.00195939,0.876274,0.00785625,0.0159749,1231,1723,7.51963,-38.8834
14,-699,7.58057,38.974,0.00410782,0.0128213,0.00658672,0.0163618,0.000567336,1.07759,0.0107237,0.0175402,1238,1723,7.58062,-38.974
21,-699,7.61304,39.0254,0.0019174,0.0178299,0.00781099,0.0210233,-0.00127594,1.1827,0.0144596,0.0163066,1245,1723,7.61303,-39.0254
28,-699,7.65588,39.0542,-0.000821163,0.0230205,0.00875976,0.0258929,-0.00369356,1.25394,0.0186157,0.0155366,1252,1723,7.65583,-39.0542
35,-699,7.69006,39.142,-0.00178767,0.0279351,0.0095909,0.0307612,-0.00461374,1.28424,0.0222057,0.0132794,1259,1723,7.69003,-39.142
42,-699,7.74243,39.1989,-0.00228,0.0314185,0.00934977,0.0338388,-0.0047003,1.31749,0.0242781,0.0132341,1266,1723,7.74244,-39.1989
49,-699,7.79712,39.254,-0.00365085,0.0336546,0.00853366,0.035514,-0.00551026,1.35626,0.0257103,0.0152047,1273,1723,7.79707,-39.2541
56,-699,7.8667,39.277,-0.00451207,0.0342064,0.00701999,0.0354399,-0.00574555,1.39686,0.0257563,0.015476,1280,1723,7.86666,-39.277
63,-699,7.88794,39.2396,-0.00469649,0.0332502,0.00518257,0.0339453,-0.00539157,1.43747,0.0246249,0.0134768,1287,1723,7.88792,-39.2396
70,-699,7.90881,39.2373,-0.00412487,0.0310252,0.00334757,0.0313412,-0.00444084,1.47669,0.0225208,0.0113685,1294,1723,7.90885,-39.2373
77,-699,7.94067,39.2148,-0.00301097,0.0268829,0.00144909,0.026953,-0.00308105,1.52247,0.0190788,0.0116397,1301,1723,7.94066,-39.2148
84,-699,7.95569,39.1731,-0.00159529,0.0224826,-0.000290417,0.0224861,-0.0015988,-1.55874,0.0155511,0.0139531,1308,1723,7.95567,-39.173
91,-699,8.01404,39.1633,-0.00124425,0.0176587,-0.00205137,0.0178788,-0.00146431,-1.46393,0.0124361,0.0136811,1315,1723,8.01408,-39.1633
98,-699,8.09155,39.1593,-0.000849976,0.0124421,-0.00349437,0.0133048,-0.00171263,-1.32877,0.00949237,0.0122044,1322,1723,8.09151,-39.1593
105,-699,8.12573,39.1382,0.000401128,0.00601397,-0.00474932,0.00872407,-0.00230897,-1.05225,0.00671927,0.0169901,1329,1723,8.12569,-39.1382
112,-699,8.17896,39.0653,0.00178059,0.00362848,-0.00431071,0.00711315,-0.00170408,-0.890969,0.0054005,0.0227824,1336,1723,8.17901,-39.0652
119,-699,8.16821,38.964,0.00266456,0.00158413,-0.00383996,0.00600212,-0.00175344,-0.715515,0.0046963,0.0171642,1343,1723,8.16819,-38.964
126,-699,8.21594,38.8857,0.00325392,6.17168e-05,-0.00327946,0.00530507,-0.00198943,-0.558924,0.00435408,0.0182411,1350,1723,8.21597,-38.8858
133,-699,8.27332,38.8035,0.00416795,-0.00106697,-0.00261682,0.00525168,-0.00215071,-0.392637,0.004397,0.0158071,1357,1723,8.27328,-38.8034
140,-699,8.2926,38.7169,0.0031652,-0.00139996,-0.00210505,0.00398768,-0.00222244,-0.372479,0.00363338,0.0167823,1364,1723,8.29255,-38.7169
147,-699,8.34644,38.6367,0.00254207,-0.0018153,-0.000872797,0.00271039,-0.00198363,-0.190515,0.0027209,0.0140078,1371,1723,8.34647,-38.6368
154,-699,8.34143,38.519,0.00416602,-0.00168626,-0.00011246,0.00416818,-0.00168842,-0.019207,0.00348087,0.0144527,1378,1723,8.34142,-38.519
161,-699,8.37061,38.4108,0.00538105,-0.00131681,0.000639917,0.00544164,-0.0013774,0.0944026,0.00416355,0.0112936,1385,1723,8.37064,-38.4108
168,-699,8.43762,38.3003,0.00576422,-0.00102343,0.00109048,0.00593511,-0.00119431,0.155446,0.0044091,0.0123524,1392,1723,8.43759,-38.3003
175,-699,8.49841,38.1764,0.0059626,-0.000227489,0.0013409,0.00624058,-0.00050547,0.204415,0.0043387,0.0138066,1399,1723,8.49841,-38.1763
182,-699,8.4873,37.9855,0.00565816,0.00104393,0.00162707,0.00617419,0.000527903,0.307117,0.00395193,0.0147505,1406,1723,8.48732,-37.9854
189,-699,8.49585,37.8232,0.00369167,0.000132051,0.00125592,0.00409018,-0.000266456,0.307254,0.0028198,0.0167567,1413,1723,8.49582,-37.8232
196,-699,8.50867,37.6525,0.00325253,1.01104e-05,0.00106168,0.00356922,-0.000306587,0.289895,0.00248798,0.0164479,1420,1723,8.50861,-37.6525
203,-699,8.51282,37.496,0.00277898,-7.94997e-05,0.000915164,0.00304687,-0.00034739,0.284769,0.00215639,0.0137782,1427,1723,8.51285,-37.4959
210,-699,8.52625,37.3258,0.00224027,7.97459e-05,0.000770538,0.00248692,-0.000166904,0.309794,0.00171629,0.0138721,1434,1723,8.52624,-37.3258
217,-699,8.53357,37.144,0.00172844,0.00010051,0.000413388,0.0018274,1.5517e-06,0.234961,0.00121775,0.0142795,1441,1723,8.53362,-37.144
224,-699,8.55249,36.9331,0.00148993,0.000206712,0.000242689,0.00153429,0.000162347,0.180809,0.000973271,0.0154333,1448,1723,8.55246,-36.9331
231,-699,8.57178,36.7216,0.00130602,0.000326181,3.18332e-05,0.00130706,0.000325148,0.0324426,0.000785742,0.0121426,1455,1723,8.57182,-36.7215
238,-699,8.56738,36.4702,0.00130604,0.000590184,-0.000158182,0.00133943,0.000556788,-0.208065,0.000776977,0.0109715,1462,1723,8.56744,-36.4703
245,-699,8.56934,36.2263,0.0013585,0.000832124,-0.000299209,0.0014938,0.000696822,-0.424681,0.000863091,0.0130073,1469,1723,8.56937,-36.2264
252,-699,8.5658,36.0173,0.00142498,0.00113826,-0.000379178,0.00168699,0.000876242,-0.604662,0.000974229,0.0106713,1476,1723,8.56579,-36.0173
259,-699,8.5614,35.8182,0.00144839,0.0014745,-0.000390101,0.00185176,0.00107112,-0.802126,0.00107349,0.0108579,1483,1723,8.56145,-35.8183
266,-699,8.54285,35.5787,0.00138532,0.00183901,-0.00027838,0.00197127,0.00125306,-1.12727,0.00115199,0.0134047,1490,1723,8.54279,-35.5788
273,-699,8.55322,35.3037,0.00130677,0.00247684,-0.000219804,0.00251677,0.00126684,-1.3911,0.00145307,0.0123727,1497,1723,8.55319,-35.3037
280,-699,8.56812,35.0496,0.001124,0.00299524,-0.000104612,0.00300107,0.00111817,-1.51512,0.00175132,0.0119955,1504,1723,8.56809,-35.0496
287,-699,8.56116,34.7834,0.000930698,0.00365883,-2.25129e-05,0.00365902,0.000930512,-1.56254,0.0021959,0.0106609,1511,1723,8.56112,-34.7834
294,-699,8.55762,34.5061,0.000739345,0.00453142,-1.59559e-05,0.00453149,0.000739278,-1.56659,0.0028072,0.0105316,1518,1723,8.55767,-34.5061
301,-699,8.55408,34.2565,0.000512548,0.00539804,-0.000158951,0.0054032,0.000507382,-1.53831,0.00344548,0.0111073,1525,1723,8.55409,-34.2565
308,-699,8.54785,33.9974,6.4237e-05,0.00593251,-0.000270632,0.00594497,5.17825e-05,-1.52481,0.00394616,0.0163505,1532,1723,8.54791,-33.9974
315,-699,8.5376,33.6641,-0.000372901,0.00576419,-0.000125791,0.00576677,-0.000375478,-1.55031,0.00397559,0.0200722,1539,1723,8.53765,-33.6641
322,-699,8.49365,33.347,-0.000654834,0.00581096,-0.000242992,0.00582008,-0.000663953,-1.53329,0.00411925,0.0207278,1546,1723,8.49365,-33.3471
329,-699,8.43933,33.0332,-0.00116285,0.0054573,-0.000263286,0.00546776,-0.00117331,-1.53111,0.00409272,0.0173768,1553,1723,8.43927,-33.0332
336,-699,8.44617,32.7621,-0.00164695,0.00470238,-0.000182656,0.00470763,-0.0016522,-1.54206,0.00381048,0.0190823,1560,1723,8.44611,-32.7621
343,-699,8.52417,32.4824,-0.00227084,0.00318023,-1.93129e-05,0.0031803,-0.00227091,-1.56725,0.00316182,0.0276928,1567,1723,8.52417,-32.4824
350,-699,8.53552,32.1293,-0.00304284,0.00132868,0.000385168,0.00136236,-0.00307652,1.48358,0.00262571,0.0388671,1574,1723,8.53549,-32.1293
357,-699,8.40845,31.8397,-0.0040217,-0.00173528,0.00139521,-0.00107473,-0.00468225,1.12862,0.00283207,0.0448008,1581,1723,8.40849,-31.8398
364,-699,8.19934,31.9949,-0.00462569,-0.00434427,0.0024065,-0.00207437,-0.00689559,0.814601,0.0040851,0.0451592,1588,1723,8.19929,-31.9949
371,-699,8.50354,31.4037,0,0,0,0,0,0,0,-1,1595,1723,8.50351,-31.4037
378,-699,8.22107,30.994,0,0,0,0,0,0,0,-1,1602,1723,8.22101,-30.994
385,-699,6.32727,24.7136,0,0,0,0,0,0,0,-1,1609,1723,6.32725,-24.7136
392,-699,8.46643,29.9736,0,0,0,0,0,0,0,-1,1616,1723,8.46643,-29.9737
399,-699,9.27136,30.5154,0,0,0,0,0,0,0,-1,1623,1723,9.27135,-30.5154
406,-699,5.50757,21.6672,0,0,0,0,0,0,0,-1,1630,1723,5.50755,-21.6672
413,-699,9.31396,23.2781,0,0,0,0,0,0,0,-1,1637,1723,9.31396,-23.278
420,-699,2.15076,7.65527,0,0,0,0,0,0,0,-1,1644,1723,2.15079,-7.65522
427,-699,3.36328,8.2428,0,0,0,0,0,0,0,-1,1651,1723,3.36332,-8.24283
434,-699,4.66455,8.90222,0,0,0,0,0,0,0,-1,1658,1723,4.66456,-8.90223
441,-699,0,0,0,0,0,0,0,0,0,-1,1665,1723,0,0
448,-699,0,0,0,0,0,0,0,0,0,-1,1672,1723,0,0
455,-699,0,0,0,0,0,0,0,0,0,-1,1679,1723,0,0
462,-699,0,0,0,0,0,0,0,0,0,-1,1686,1723,0,0
469,-699,0,0,0,0,0,0,0,0,0,-1,1693,1723,0,0
476,-699,0,0,0,0,0,0,0,0,0,-1,1700,1723,0,0
483,-699,0,0,0,0,0,0,0,0,0,-1,1707,1723,0,0
490,-699,0,0,0,0,0,0,0,0,0,-1,1714,1723,0,0
497,-699,0,0,0,0,0,0,0,0,0,-1,1721,1723,0,0
504,-699,0,0,0,0,0,0,0,0,0,-1,1728,1723,0,0
511,-699,0,0,0,0,0,0,0,0,0,-1,1735,1723,0,0
518,-699,0,0,0,0,0,0,0,0,0,-1,1742,1723,0,0
525,-699,0,0,0,0,0,0,0,0,0,-1,1749,1723,0,0
532,-699,0,0,0,0,0,0,0,0,0,-1,1756,1723,0,0
539,-699,0,0,0,0,0,0,0,0,0,-1,1763,1723,0,0
546,-699,0,0,0,0,0,0,0,0,0,-1,1770,1723,0,0
553,-699,0,0,0,0,0,0,0,0,0,-1,1777,1723,0,0
560,-699,0,0,0,0,0,0,0,0,0,-1,1784,1723,0,0
567,-699,0,0,0,0,0,0,0,0,0,-1,1791,1723,0,0
574,-699,0,0,0,0,0,0,0,0,0,-1,1798,1723,0,0
581,-699,0,0,0,0,0,0,0,0,0,-1,1805,1723,0,0
588,-699,0,0,0,0,0,0,0,0,0,-1,1812,1723,0,0
595,-699,0,0,0,0,0,0,0,0,0,-1,1819,1723,0,0
602,-699,0,0,0,0,0,0,0,0,0,-1,1826,1723,0,0
609,-699,0,0,0,0,0,0,0,0,0,-1,1833,1723,0,0
616,-699,0,0,0,0,0,0,0,0,0,-1,1840,1723,0,0
623,-699,0,0,0,0,0,0,0,0,0,-1,1847,1723,0,0
630,-699,0,0,0,0,0,0,0,0,0,-1,1854,1723,0,0
637,-699,0,0,0,0,0,0,0,0,0,-1,1861,1723,0,0
644,-699,0,0,0,0,0,0,0,0,0,-1,1868,1723,0,0
651,-699,0,0,0,0,0,0,0,0,0,-1,1875,1723,0,0
658,-699,0,0,0,0,0,0,0,0,0,-1,1882,1723,0,0
665,-699,0,0,0,0,0,0,0,0,0,-1,1889,1723,0,0
672,-699,0,0,0,0,0,0,0,0,0,-1,1896,1723,0,0
679,-699,0,0,0,0,0,0,0,0,0,-1,1903,1723,0,0
686,-699,0,0,0,0,0,0,0,0,0,-1,1910,1723,0,0
693,-699,0,0,0,0,0,0,0,0,0,-1,1917,1723,0,0
700,-699,0,0,0,0,0,0,0,0,0,-1,1924,1723,0,0
707,-699,0,0,0,0,0,0,0,0,0,-1,1931,1723,0,0
714,-699,0,0,0,0,0,0,0,0,0,-1,1938,1723,0,0
721,-699,0,0,0,0,0,0,0,0,0,-1,1945,1723,0,0
728,-699,0,0,0,0,0,0,0,0,0,-1,1952,1723,0,0
735,-699,0,0,0,0,0,0,0,0,0,-1,1959,1723,0,0
742,-699,0,0,0,0,0,0,0,0,0,-1,1966,1723,0,0
749,-699,0,0,0,0,0,0,0,0,0,-1,1973,1723,0,0
756,-699,0,0,0,0,0,0,0,0,0,-1,1980,1723,0,0
763,-699,0,0,0,0,0,0,0,0,0,-1,1987,1723,0,0
770,-699,0,0,0,0,0,0,0,0,0,-1,1994,1723,0,0
777,-699,0,0,0,0,0,0,0,0,0,-1,2001,1723,0,0
784,-699,0,0,0,0,0,0,0,0,0,-1,2008,1723,0,0
791,-699,0,0,0,0,0,0,0,0,0,-1,2015,1723,0,0
798,-699,0,0,0,0,0,0,0,0,0,-1,2022,1723,0,0
805,-699,0,0,0,0,0,0,0,0,0,-1,2029,1723,0,0
812,-699,0,0,0,0,0,0,0,0,0,-1,2036,1723,0,0
-700,-706,0,0,0,0,0,0,0,0,0,-1,524,1730,0,0
-693,-706,0,0,0,0,0,0,0,0,0,-1,531,1730,0,0
-686,-706,0,0,0,0,0,0,0,0,0,-1,538,1730,0,0
-679,-706,0,0,0,0,0,0,0,0,0,-1,545,1730,0,0
-672,-706,0,0,0,0,0,0,0,0,0,-1,552,1730,0,0
-665,-706,0,0,0,0,0,0,0,0,0,-1,559,1730,0,0
-658,-706,0,0,0,0,0,0,0,0,0,-1,566,1730,0,0
-651,-706,0,0,0,0,0,0,0,0,0,-1,573,1730,0,0
-644,-706,0,0,0,0,0,0,0,0,0,-1,580,1730,0,0
-637,-706,0,0,0,0,0,0,0,0,0,-1,587,1730,0,0
-630,-706,0,0,0,0,0,0,0,0,0,-1,594,1730,0,0
-623,-706,0,0,0,0,0,0,0,0,0,-1,601,1730,0,0
-616,-706,0,0,0,0,0,0,0,0,0,-1,608,1730,0,0
-609,-706,0,0,0,0,0,0,0,0,0,-1,615,1730,0,0
-602,-706,0,0,0,0,0,0,0,0,0,-1,622,1730,0,0
-595,-706,0,0,0,0,0,0,0,0,0,-1,629,1730,0,0
-588,-706,0,0,0,0,0,0,0,0,0,-1,636,1730,0,0
-581,-706,0,0,0,0,0,0,0,0,0,-1,643,1730,0,0
-574,-706,0,0,0,0,0,0,0,0,0,-1,650,1730,0,0
-567,-706,0,0,0,0,0,0,0,0,0,-1,657,1730,0,0
-560,-706,0,0,0,0,0,0,0,0,0,-1,664,1730,0,0
-553,-706,0,0,0,0,0,0,0,0,0,-1,671,1730,0,0
-546,-706,0,0,0,0,0,0,0,0,0,-1,678,1730,0,0
-539,-706,0,0,0,0,0,0,0,0,0,-1,685,1730,0,0
-532,-706,0,0,0,0,0,0,0,0,0,-1,692,1730,0,0
-525,-706,0,0,0,0,0,0,0,0,0,-1,699,1730,0,0
-518,-706,0,0,0,0,0,0,0,0,0,-1,706,1730,0,0
-511,-706,0,0,0,0,0,0,0,0,0,-1,713,1730,0,0
-504,-706,0,0,0,0,0,0,0,0,0,-1,720,1730,0,0
-497,-706,0,0,0,0,0,0,0,0,0,-1,727,1730,0,0
-490,-706,0,0,0,0,0,0,0,0,0,-1,734,1730,0,0
-483,-706,0,0,0,0,0,0,0,0,0,-1,741,1730,0,0
-476,-706,0,0,0,0,0,0,0,0,0,-1,748,1730,0,0
-469,-706,0,0,0,0,0,0,0,0,0,-1,755,1730,0,0
-462,-706,0,0,0,0,0,0,0,0,0,-1,762,1730,0,0
-455,-706,0,0,0,0,0,0,0,0,0,-1,769,1730,0,0
-448,-706,0,0,0,0,0,0,0,0,0,-1,776,1730,0,0
-441,-706,0,0,0,0,0,0,0,0,0,-1,783,1730,0,0
-434,-706,0,0,0,0,0,0,0,0,0,-1,790,1730,0,0
-427,-706,0,0,0,0,0,0,0,0,0,-1,797,1730,0,0
-420,-706,0,0,0,0,0,0,0,0,0,-1,804,1730,0,0
-413,-706,0,0,0,0,0,0,0,0,0,-1,811,1730,0,0
-406,-706,0,0,0,0,0,0,0,0,0,-1,818,1730,0,0
-399,-706,0,0,0,0,0,0,0,0,0,-1,825,1730,0,0
-392,-706,0,0,0,0,0,0,0,0,0,-1,832,1730,0,0
-385,-706,0,0,0,0,0,0,0,0,0,-1,839,1730,0,0
-378,-706,0,0,0,0,0,0,0,0,0,-1,846,1730,0,0
-371,-706,0,0,0,0,0,0,0,0,0,-1,853,1730,0,0
-364,-706,0,0,0,0,0,0,0,0,0,-1,860,1730,0,0
-357,-706,0,0,0,0,0,0,0,0,0,-1,867,1730,0,0
-350,-706,0,0,0,0,0,0,0,0,0,-1,874,1730,0,0
-343,-706,0,0,0,0,0,0,0,0,0,-1,881,1730,0,0
-336,-706,0,0,0,0,0,0,0,0,0,-1,888,1730,0,0
-329,-706,0,0,0,0,0,0,0,0,0,-1,895,1730,0,0
-322,-706,0,0,0,0,0,0,0,0,0,-1,902,1730,0,0
-315,-706,0,0,0,0,0,0,0,0,0,-1,909,1730,0,0
-308,-706,5.08191,14.6245,0,0,0,0,0,0,0,-1,916,1730,5.08188,-14.6245
-301,-706,7.45007,21.1975,0,0,0,0,0,0,0,-1,923,1730,7.45005,-21.1976
-294,-706,11.8603,21.026,0,0,0,0,0,0,0,-1,930,1730,11.8603,-21.026
-287,-706,10.3292,20.8425,0,0,0,0,0,0,0,-1,937,1730,10.3292,-20.8425
-280,-706,7.9162,21.8951,0,0,0,0,0,0,0,-1,944,1730,7.9162,-21.8952
-273,-706,7.38953,20.6355,0,0,0,0,0,0,0,-1,951,1730,7.38955,-20.6355
-266,-706,9.66724,22.8231,0,0,0,0,0,0,0,-1,958,1730,9.66722,-22.8231
-259,-706,3.47852,20.7363,0,0,0,0,0,0,0,-1,965,1730,3.47851,-20.7364
-252,-706,3.84259,20.1979,0,0,0,0,0,0,0,-1,972,1730,3.84256,-20.1979
-245,-706,4.698,19.2992,0,0,0,0,0,0,0,-1,979,1730,4.69799,-19.2991
-238,-706,7.70691,32.0442,0,0,0,0,0,0,0,-1,986,1730,7.70689,-32.0442
-231,-706,7.81104,31.1429,0,0,0,0,0,0,0,-1,993,1730,7.81101,-31.1429
-224,-706,7.91083,31.15,0,0,0,0,0,0,0,-1,1000,1730,7.91082,-31.15
-217,-706,7.93127,31.6067,-0.00343903,0.000847211,0.00130295,0.0012122,-0.00380403,1.29767,0.00302224,0.0445058,1007,1730,7.93129,-31.6067
-210,-706,7.70477,32.1033,-0.00321758,0.000551555,0.00281918,0.00205806,-0.00472409,1.08003,0.00401525,0.0375074,1014,1730,7.70478,-32.1033
-203,-706,7.68567,32.4132,-0.00196541,2.19514e-05,0.00406358,0.00321158,-0.00515504,0.905312,0.00487372,0.0333103,1021,1730,7.68569,-32.4132
-196,-706,7.62305,32.7562,-0.000811146,-0.000151434,0.00457396,0.00410455,-0.00506713,0.821394,0.00530498,0.0257114,1028,1730,7.62306,-32.7562
-189,-706,7.52881,33.0939,-3.06393e-05,-0.000177966,0.00494645,0.0048427,-0.00505131,0.777953,0.00571273,0.0188213,1035,1730,7.52881,-33.0939
-182,-706,7.5127,33.4395,0.00033794,-0.000319221,0.00492013,0.00494045,-0.00492173,0.752056,0.00569394,0.0149031,1042,1730,7.51269,-33.4395
-175,-706,7.53442,33.7422,0.00047885,-0.000310604,0.00476542,0.00486587,-0.00469762,0.744077,0.00552177,0.0151545,1049,1730,7.53444,-33.7422
-168,-706,7.53796,34.0212,0.000481105,-0.000287213,0.00445575,0.00456923,-0.00437534,0.742396,0.00516455,0.0159406,1056,1730,7.53795,-34.0213
-161,-706,7.49158,34.3177,0.000482203,-3.3055e-05,0.00402426,0.00425708,-0.00380793,0.753432,0.00465874,0.0127494,1063,1730,7.49154,-34.3177
-154,-706,7.43359,34.6383,0.000318022,0.000549575,0.00350447,0.00394018,-0.00307258,0.801911,0.00405914,0.0118989,1070,1730,7.43361,-34.6383
-147,-706,7.41907,34.9028,0.000111347,0.0013118,0.00298548,0.00375679,-0.00233364,0.8846,0.00354817,0.0116796,1077,1730,7.41911,-34.9029
-140,-706,7.42896,35.1779,-1.37903e-05,0.00217911,0.00239446,0.00371622,-0.0015509,1.0001,0.00312546,0.0109961,1084,1730,7.42896,-35.1779
-133,-706,7.42639,35.4336,-0.000188563,0.00294251,0.00178075,0.00374804,-0.000994093,1.14599,0.00288767,0.00837066,1091,1730,7.42644,-35.4336
-126,-706,7.42505,35.6841,-0.000267669,0.00371552,0.00135113,0.00413058,-0.000682732,1.27275,0.00300724,0.0124143,1098,1730,7.42508,-35.684
-119,-706,7.39978,35.9203,-6.60112e-05,0.00416994,0.0010478,0.00441495,-0.000311021,1.34109,0.00305226,0.0178069,1105,1730,7.39978,-35.9203
-112,-706,7.39417,36.1919,0.000130254,0.0043676,0.000685408,0.00447571,2.21448e-05,1.41436,0.00297645,0.0127344,1112,1730,7.39414,-36.1919
-105,-706,7.37976,36.4073,0.000334059,0.00449084,0.000428732,0.0045346,0.0002903,1.46908,0.00293109,0.00938446,1119,1730,7.37972,-36.4073
-98,-706,7.4054,36.6218,0.00058866,0.00443059,0.000312202,0.00445579,0.000563455,1.49024,0.00280166,0.0109745,1126,1730,7.40536,-36.6219
-91,-706,7.41687,36.8481,0.000885195,0.00421216,0.000219588,0.00422659,0.000870764,1.50517,0.00257699,0.0148225,1133,1730,7.4169,-36.8481
-84,-706,7.39502,37.0602,0.00115169,0.00386181,0.000143891,0.00386943,0.00114407,1.5179,0.00229535,0.0183074,1140,1730,7.395,-37.0602
-77,-706,7.41516,37.2566,0.00143737,0.00350221,-8.43504e-06,0.00350225,0.00143734,-1.56671,0.00203282,0.0165046,1147,1730,7.41512,-37.2566
-70,-706,7.41553,37.4576,0.00162548,0.00283822,-0.000190145,0.00286733,0.00159637,-1.41886,0.001659,0.0173251,1154,1730,7.4155,-37.4576
-63,-706,7.40149,37.6436,0.00238978,0.00274377,-0.000825012,0.00341056,0.00172299,-0.891063,0.00196912,0.0128552,1161,1730,7.40152,-37.6436
-56,-706,7.40015,37.7948,0.00342909,0.00244523,-0.0012184,0.00425112,0.0016232,-0.593529,0.00247713,0.0122831,1168,1730,7.40015,-37.7948
-49,-706,7.41211,37.9731,0.00457134,0.00203421,-0.00120451,0.00505209,0.00155346,-0.379752,0.00298802,0.0127092,1175,1730,7.41214,-37.9731
-42,-706,7.45459,38.1454,0.00573693,0.00191711,-0.000820886,0.00590587,0.00174818,-0.202966,0.00350307,0.0171116,1182,1730,7.45464,-38.1454
-35,-706,7.47217,38.2772,0.00630777,0.00128272,-0.000703927,0.00640451,0.00118597,-0.136582,0.00393439,0.018666,1189,1730,7.47213,-38.2772
-28,-706,7.49878,38.3763,0.00612013,0.00179405,-0.000605337,0.00620324,0.00171094,-0.136437,0.00369949,0.0119127,1196,1730,7.49876,-38.3763
-21,-706,7.50684,38.4874,0.00557682,0.00229312,-0.000464319,0.00564122,0.00222873,-0.137803,0.00328077,0.0114354,1203,1730,7.5069,-38.4875
-14,-706,7.52637,38.6023,0.00548955,0.00303338,-9.00085e-05,0.00549284,0.00303008,-0.0365805,0.00317693,0.011107,1210,1730,7.52639,-38.6022
-7,-706,7.55359,38.7195,0.0052711,0.00481878,0.000887344,0.00596065,0.00412923,0.66062,0.00352559,0.00907093,1217,1730,7.55358,-38.7195
0,-706,7.59314,38.8221,0.00435238,0.00890807,0.0024784,0.00999638,0.00326406,1.15703,0.00588606,0.0122091,1224,1730,7.59312,-38.8222
7,-706,7.61206,38.9048,0.00277928,0.0119504,0.00336244,0.0130511,0.00167859,1.25444,0.00819867,0.0141523,1231,1730,7.61209,-38.9048
14,-706,7.64624,38.9843,0.00110124,0.0153533,0.0041952,0.0164965,-4.1944e-05,1.30476,0.0110117,0.0142577,1238,1730,7.64622,-38.9843
21,-706,7.6781,39.0333,-0.00048432,0.0188724,0.00496403,0.0200711,-0.0016831,1.33384,0.0139756,0.0118277,1245,1730,7.67808,-39.0333
28,-706,7.68359,39.0825,-0.00234886,0.022235,0.00559621,0.0234489,-0.00356282,1.35718,0.0169455,0.0120884,1252,1730,7.68362,-39.0825
35,-706,7.72009,39.1475,-0.00386152,0.0251537,0.0060071,0.0263482,-0.00505601,1.37451,0.0194709,0.0139853,1259,1730,7.72011,-39.1474
42,-706,7.77563,39.204,-0.00542141,0.0268507,0.00614285,0.0279804,-0.00655113,1.38892,0.0211778,0.0124972,1266,1730,7.77565,-39.204
49,-706,7.8158,39.2345,-0.0069152,0.0274988,0.00572372,0.0284258,-0.0078422,1.41023,0.0220348,0.0141311,1273,1730,7.8158,-39.2345
56,-706,7.86328,39.2443,-0.00809529,0.0267729,0.00478119,0.0274166,-0.00873901,1.43696,0.0217831,0.0130821,1280,1730,7.86323,-39.2443
63,-706,7.88623,39.2299,-0.0088711,0.0250755,0.00364072,0.0254616,-0.00925717,1.46515,0.0207599,0.0110996,1287,1730,7.88623,-39.2299
70,-706,7.89795,39.2186,-0.00897585,0.0223907,0.00255173,0.022597,-0.00918208,1.49015,0.0188847,0.0117758,1294,1730,7.8979,-39.2186
77,-706,7.92529,39.2307,-0.00863001,0.0183816,0.00139629,0.0184535,-0.008702,1.51929,0.0160117,0.0114534,1301,1730,7.92528,-39.2307
84,-706,7.95386,39.2218,-0.00797636,0.0145245,0.000399335,0.0145316,-0.00798345,1.55306,0.0131811,0.00956519,1308,1730,7.95389,-39.2218
91,-706,8.00757,39.2147,-0.0077482,0.0107162,-0.000586755,0.0107348,-0.00776683,-1.53906,0.0107276,0.0107202,1315,1730,8.00756,-39.2148
98,-706,8.0437,39.1953,-0.00725217,0.00680183,-0.00167191,0.00699799,-0.00744832,-1.454,0.00834193,0.0146143,1322,1730,8.04365,-39.1954
105,-706,8.06335,39.1709,-0.00601195,0.00228171,-0.00264003,0.00305077,-0.006781,-1.28733,0.00581097,0.0168681,1329,1730,8.06334,-39.1709
112,-706,8.07043,39.1062,-0.0045086,0.000592299,-0.00239281,0.00153904,-0.00545534,-1.19404,0.00424397,0.0160627,1336,1730,8.07048,-39.1061
119,-706,8.08643,39.0381,-0.00326498,-0.000843917,-0.0021563,0.000418406,-0.0045273,-1.04117,0.00316689,0.0139408,1343,1730,8.08645,-39.0381
126,-706,8.12915,38.9553,-0.00216812,-0.00188379,-0.00188548,-0.000135124,-0.00391679,-0.823026,0.00256734,0.0148869,1350,1730,8.12914,-38.9553
133,-706,8.17639,38.8328,-0.000909553,-0.00244213,-0.0015324,3.74782e-05,-0.00338916,-0.553552,0.00227203,0.0118683,1357,1730,8.17633,-38.8327
140,-706,8.20154,38.703,-0.00010814,-0.00240074,-0.00113614,0.000359505,-0.00286838,-0.390474,0.00204266,0.011787,1364,1730,8.2016,-38.703
147,-706,8.24365,38.6117,0.000813956,-0.00238809,-0.000744146,0.000978443,-0.00255258,-0.217544,0.00210508,0.0206582,1371,1730,8.2437,-38.6116
154,-706,8.27148,38.5349,0.00175492,-0.00217439,-0.000252116,0.00177103,-0.0021905,-0.0638142,0.00229146,0.0191058,1378,1730,8.27144,-38.5349
161,-706,8.23206,38.4242,0.00256129,-0.00177385,0.000277706,0.002579,-0.00179156,0.0637122,0.00253696,0.0101801,1385,1730,8.23204,-38.4242
168,-706,8.25916,38.2905,0.0028438,-0.00136847,0.000548744,0.00291412,-0.00143878,0.12744,0.00256081,0.00993437,1392,1730,8.25916,-38.2905
175,-706,8.29895,38.1521,0.0030102,-0.000555224,0.000704685,0.00314442,-0.000689448,0.188219,0.00235991,0.0103903,1399,1730,8.2989,-38.1521
182,-706,8.30994,37.9939,0.00304324,0.000522903,0.000865459,0.00331181,0.000254332,0.3009,0.00212817,0.011179,1406,1730,8.30994,-37.9939
189,-706,8.32776,37.8091,0.002315,0.000442535,0.00065155,0.0025194,0.000238133,0.303993,0.00160612,0.0138827,1413,1730,8.32772,-37.8091
196,-706,8.33777,37.6345,0.0019815,0.000457212,0.000462147,0.00211068,0.000328041,0.272547,0.00131152,0.0119372,1420,1730,8.33771,-37.6345
203,-706,8.32959,37.4856,0.00170179,0.000522521,0.000309513,0.00177809,0.000446222,0.241694,0.00106818,0.0130453,1427,1730,8.32954,-37.4856
210,-706,8.31848,37.3141,0.00139189,0.000736861,0.000146086,0.00142299,0.000705758,0.209779,0.000821575,0.0126337,1434,1730,8.31842,-37.3141
217,-706,8.30725,37.1497,0.00106013,0.000825746,-0.000152572,0.00113532,0.000750552,-0.457903,0.000666723,0.0139009,1441,1730,8.30726,-37.1497
224,-706,8.32275,36.952,0.00093851,0.000926676,-0.000333185,0.00126583,0.000599355,-0.776519,0.00073117,0.0189094,1448,1730,8.32272,-36.952
231,-706,8.349,36.7034,0.000847034,0.00100504,-0.000506399,0.00143856,0.000413511,-0.862778,0.000855203,0.0137847,1455,1730,8.34904,-36.7034
238,-706,8.33459,36.4746,0.000880754,0.00120715,-0.000575165,0.00164182,0.000446082,-0.923635,0.00098029,0.00923954,1462,1730,8.33458,-36.4747
245,-706,8.34521,36.2369,0.0010136,0.00148393,-0.000609091,0.00190168,0.00059585,-0.969629,0.00112315,0.012204,1469,1730,8.3452,-36.2369
252,-706,8.349,36.0236,0.00114874,0.00196172,-0.000610632,0.00228879,0.000821674,-1.07906,0.00133883,0.0118519,1476,1730,8.34894,-36.0236
259,-706,8.35461,35.8087,0.00114551,0.00234647,-0.000488305,0.00251996,0.000972031,-1.22943,0.00146751,0.0128234,1483,1730,8.35462,-35.8087
266,-706,8.32275,35.5837,0.00103783,0.00274831,-0.000207004,0.002773,0.00101314,-1.45206,0.00162023,0.0129322,1490,1730,8.32275,-35.5837
273,-706,8.29688,35.3207,0.00100328,0.0036132,-9.51509e-05,0.00361666,0.000999814,-1.5344,0.00215653,0.0119206,1497,1730,8.29689,-35.3207
280,-706,8.31348,35.0353,0.000846427,0.00432352,9.5976e-05,0.00432617,0.00084378,1.54322,0.00264805,0.0106137,1504,1730,8.31343,-35.0352
287,-706,8.3009,34.7698,0.000695091,0.00528585,0.000208872,0.00529534,0.000685608,1.52542,0.00332533,0.0119011,1511,1730,8.3009,-34.7697
294,-706,8.29944,34.5195,0.000547871,0.00651367,0.000237401,0.0065231,0.000538439,1.53109,0.00418083,0.0109156,1518,1730,8.29947,-34.5195
301,-706,8.28882,34.246,0.000373611,0.00774406,8.72393e-05,0.00774509,0.000372578,1.55896,0.00504379,0.00937176,1525,1730,8.28886,-34.246
308,-706,8.28003,33.9678,-9.25491e-05,0.00858425,-2.39692e-05,0.00858431,-9.26154e-05,-1.56803,0.00575399,0.0122718,1532,1730,8.28007,-33.9678
315,-706,8.22083,33.6675,-0.00055737,0.00858284,0.000165552,0.00858584,-0.000560368,1.55269,0.00591953,0.0209338,1539,1730,8.22081,-33.6675
322,-706,8.16565,33.4204,-0.00077261,0.00883848,4.80205e-06,0.00883848,-0.000772613,1.5703,0.00616602,0.0302143,1546,1730,8.16559,-33.4204
329,-706,8.24097,33.0309,-0.0012928,0.00855236,-4.33495e-05,0.00855255,-0.00129299,-1.56639,0.00617796,0.0301033,1553,1730,8.24095,-33.0309
336,-706,8.19946,32.5438,-0.00178612,0.00771841,-1.21338e-05,0.00771843,-0.00178613,-1.56952,0.00583288,0.0416592,1560,1730,8.19945,-32.5438
343,-706,8.20203,32.1583,-0.00259755,0.00570582,0.000110299,0.00570728,-0.00259902,1.55752,0.00490629,0.0419629,1567,1730,8.20201,-32.1583
350,-706,8.34167,31.8564,-0.00364782,0.00332523,0.000624942,0.00338079,-0.00370338,1.48212,0.00409146,0.0491882,1574,1730,8.34167,-31.8565
357,-706,8.66772,31.4802,0,0,0,0,0,0,0,-1,1581,1730,8.66779,-31.4802
364,-706,7.54114,32.6045,0,0,0,0,0,0,0,-1,1588,1730,7.54112,-32.6045
371,-706,6.27881,24.0759,0,0,0,0,0,0,0,-1,1595,1730,6.27883,-24.0759
378,-706,4.80444,25.0989,0,0,0,0,0,0,0,-1,1602,1730,4.80445,-25.0989
385,-706,5.55212,24.9753,0,0,0,0,0,0,0,-1,1609,1730,5.55214,-24.9753
392,-706,6.2998,24.8518,0,0,0,0,0,0,0,-1,1616,1730,6.29983,-24.8518
399,-706,3.9502,25.5428,0,0,0,0,0,0,0,-1,1623,1730,3.95019,-25.5428
406,-706,6.04211,18.8085,0,0,0,0,0,0,0,-1,1630,1730,6.04216,-18.8085
413,-706,6.23413,20.7725,0,0,0,0,0,0,0,-1,1637,1730,6.23413,-20.7725
420,-706,6.51294,21.9171,0,0,0,0,0,0,0,-1,1644,1730,6.51292,-21.9171
427,-706,0,0,0,0,0,0,0,0,0,-1,1651,1730,0,0
434,-706,0,0,0,0,0,0,0,0,0,-1,1658,1730,0,0
441,-706,0,0,0,0,0,0,0,0,0,-1,1665,1730,0,0
448,-706,0,0,0,0,0,0,0,0,0,-1,1672,1730,0,0
455,-706,0,0,0,0,0,0,0,0,0,-1,1679,1730,0,0
462,-706,0,0,0,0,0,0,0,0,0,-1,1686,1730,0,0
469,-706,0,0,0,0,0,0,0,0,0,-1,1693,1730,0,0
476,-706,0,0,0,0,0,0,0,0,0,-1,1700,1730,0,0
483,-706,0,0,0,0,0,0,0,0,0,-1,1707,1730,0,0
490,-706,0,0,0,0,0,0,0,0,0,-1,1714,1730,0,0
497,-706,0,0,0,0,0,0,0,0,0,-1,1721,1730,0,0
504,-706,0,0,0,0,0,0,0,0,0,-1,1728,1730,0,0
511,-706,0,0,0,0,0,0,0,0,0,-1,1735,1730,0,0
518,-706,0,0,0,0,0,0,0,0,0,-1,1742,1730,0,0
525,-706,0,0,0,0,0,0,0,0,0,-1,1749,1730,0,0
532,-706,0,0,0,0,0,0,0,0,0,-1,1756,1730,0,0
539,-706,0,0,0,0,0,0,0,0,0,-1,1763,1730,0,0
546,-706,0,0,0,0,0,0,0,0,0,-1,1770,1730,0,0
553,-706,0,0,0,0,0,0,0,0,0,-1,1777,1730,0,0
560,-706,0,0,0,0,0,0,0,0,0,-1,1784,1730,0,0
567,-706,0,0,0,0,0,0,0,0,0,-1,1791,1730,0,0
574,-706,0,0,0,0,0,0,0,0,0,-1,1798,1730,0,0
581,-706,0,0,0,0,0,0,0,0,0,-1,1805,1730,0,0
588,-706,0,0,0,0,0,0,0,0,0,-1,1812,1730,0,0
595,-706,0,0,0,0,0,0,0,0,0,-1,1819,1730,0,0
602,-706,0,0,0,0,0,0,0,0,0,-1,1826,1730,0,0
609,-706,0,0,0,0,0,0,0,0,0,-1,1833,1730,0,0
616,-706,0,0,0,0,0,0,0,0,0,-1,1840,1730,0,0
623,-706,0,0,0,0,0,0,0,0,0,-1,1847,1730,0,0
630,-706,0,0,0,0,0,0,0,0,0,-1,1854,1730,0,0
637,-706,0,0,0,0,0,0,0,0,0,-1,1861,1730,0,0
644,-706,0,0,0,0,0,0,0,0,0,-1,1868,1730,0,0
651,-706,0,0,0,0,0,0,0,0,0,-1,1875,1730,0,0
658,-706,0,0,0,0,0,0,0,0,0,-1,1882,1730,0,0
665,-706,0,0,0,0,0,0,0,0,0,-1,1889,1730,0,0
672,-706,0,0,0,0,0,0,0,0,0,-1,1896,1730,0,0
679,-706,0,0,0,0,0,0,0,0,0,-1,1903,1730,0,0
686,-706,0,0,0,0,0,0,0,0,0,-1,1910,1730,0,0
693,-706,0,0,0,0,0,0,0,0,0,-1,1917,1730,0,0
700,-706,0,0,0,0,0,0,0,0,0,-1,1924,1730,0,0
707,-706,0,0,0,0,0,0,0,0,0,-1,1931,1730,0,0
714,-706,0,0,0,0,0,0,0,0,0,-1,1938,1730,0,0
721,-706,0,0,0,0,0,0,0,0,0,-1,1945,1730,0,0
728,-706,0,0,0,0,0,0,0,0,0,-1,1952,1730,0,0
735,-706,0,0,0,0,0,0,0,0,0,-1,1959,1730,0,0
742,-706,0,0,0,0,0,0,0,0,0,-1,1966,1730,0,0
749,-706,0,0,0,0,0,0,0,0,0,-1,1973,1730,0,0
756,-706,0,0,0,0,0,0,0,0,0,-1,1980,1730,0,0
763,-706,0,0,0,0,0,0,0,0,0,-1,1987,1730,0,0
770,-706,0,0,0,0,0,0,0,0,0,-1,1994,1730,0,0
777,-706,0,0,0,0,0,0,0,0,0,-1,2001,1730,0,0
784,-706,0,0,0,0,0,0,0,0,0,-1,2008,1730,0,0
791,-706,0,0,0,0,0,0,0,0,0,-1,2015,1730,0,0
798,-706,0,0,0,0,0,0,0,0,0,-1,2022,1730,0,0
805,-706,0,0,0,0,0,0,0,0,0,-1,2029,1730,0,0
812,-706,0,0,0,0,0,0,0,0,0,-1,2036,1730,0,0
-700,-713,0,0,0,0,0,0,0,0,0,-1,524,1737,0,0
-693,-713,0,0,0,0,0,0,0,0,0,-1,531,1737,0,0
-686,-713,0,0,0,0,0,0,0,0,0,-1,538,1737,0,0
-679,-713,0,0,0,0,0,0,0,0,0,-1,545,1737,0,0
-672,-713,0,0,0,0,0,0,0,0,0,-1,552,1737,0,0
-665,-713,0,0,0,0,0,0,0,0,0,-1,559,1737,0,0
-658,-713,0,0,0,0,0,0,0,0,0,-1,566,1737,0,0
-651,-713,0,0,0,0,0,0,0,0,0,-1,573,1737,0,0
-644,-713,0,0,0,0,0,0,0,0,0,-1,580,1737,0,0
-637,-713,0,0,0,0,0,0,0,0,0,-1,587,1737,0,0
-630,-713,0,0,0,0,0,0,0,0,0,-1,594,1737,0,0
-623,-713,0,0,0,0,0,0,0,0,0,-1,601,1737,0,0
-616,-713,0,0,0,0,0,0,0,0,0,-1,608,1737,0,0
-609,-713,0,0,0,0,0,0,0,0,0,-1,615,1737,0,0
-602,-713,0,0,0,0,0,0,0,0,0,-1,622,1737,0,0
-595,-713,0,0,0,0,0,0,0,0,0,-1,629,1737,0,0
-588,-713,0,0,0,0,0,0,0,0,0,-1,636,1737,0,0
-581,-713,0,0,0,0,0,0,0,0,0,-1,643,1737,0,0
-574,-713,0,0,0,0,0,0,0,0,0,-1,650,1737,0,0
-567,-713,0,0,0,0,0,0,0,0,0,-1,657,1737,0,0
-560,-713,0,0,0,0,0,0,0,0,0,-1,664,1737,0,0
-553,-713,0,0,0,0,0,0,0,0,0,-1,671,1737,0,0
-546,-713,0,0,0,0,0,0,0,0,0,-1,678,1737,0,0
-539,-713,0,0,0,0,0,0,0,0,0,-1,685,1737,0,0
-532,-713,0,0,0,0,0,0,0,0,0,-1,692,1737,0,0
-525,-713,0,0,0,0,0,0,0,0,0,-1,699,1737,0,0
-518,-713,0,0,0,0,0,0,0,0,0,-1,706,1737,0,0
-511,-713,0,0,0,0,0,0,0,0,0,-1,713,1737,0,0
-504,-713,0,0,0,0,0,0,0,0,0,-1,720,1737,0,0
-497,-713,0,0,0,0,0,0,0,0,0,-1,727,1737,0,0
-490,-713,0,0,0,0,0,0,0,0,0,-1,734,1737,0,0
-483,-713,0,0,0,0,0,0,0,0,0,-1,741,1737,0,0
-476,-713,0,0,0,0,0,0,0,0,0,-1,748,1737,0,0
-469,-713,0,0,0,0,0,0,0,0,0,-1,755,1737,0,0
-462,-713,0,0,0,0,0,0,0,0,0,-1,762,1737,0,0
-455,-713,0,0,0,0,0,0,0,0,0,-1,769,1737,0,0
-448,-713,0,0,0,0,0,0,0,0,0,-1,776,1737,0,0
-441,-713,0,0,0,0,0,0,0,0,0,-1,783,1737,0,0
-434,-713,0,0,0,0,0,0,0,0,0,-1,790,1737,0,0
-427,-713,0,0,0,0,0,0,0,0,0,-1,797,1737,0,0
-420,-713,0,0,0,0,0,0,0,0,0,-1,804,1737,0,0
-413,-713,0,0,0,0,0,0,0,0,0,-1,811,1737,0,0
-406,-713,0,0,0,0,0,0,0,0,0,-1,818,1737,0,0
-399,-713,0,0,0,0,0,0,0,0,0,-1,825,1737,0,0
-392,-713,0,0,0,0,0,0,0,0,0,-1,832,1737,0,0
-385,-713,0,0,0,0,0,0,0,0,0,-1,839,1737,0,0
-378,-713,0,0,0,0,0,0,0,0,0,-1,846,1737,0,0
-371,-713,0,0,0,0,0,0,0,0,0,-1,853,1737,0,0
-364,-713,0,0,0,0,0,0,0,0,0,-1,860,1737,0,0
-357,-713,0,0,0,0,0,0,0,0,0,-1,867,1737,0,0
-350,-713,0,0,0,0,0,0,0,0,0,-1,874,1737,0,0
-343,-713,0,0,0,0,0,0,0,0,0,-1,881,1737,0,0
-336,-713,0,0,0,0,0,0,0,0,0,-1,888,1737,0,0
-329,-713,0,0,0,0,0,0,0,0,0,-1,895,1737,0,0
-322,-713,0,0,0,0,0,0,0,0,0,-1,902,1737,0,0
-315,-713,0,0,0,0,0,0,0,0,0,-1,909,1737,0,0
-308,-713,0,0,0,0,0,0,0,0,0,-1,916,1737,0,0
-301,-713,0,0,0,0,0,0,0,0,0,-1,923,1737,0,0
-294,-713,7.17883,22.0453,0,0,0,0,0,0,0,-1,930,1737,7.17881,-22.0453
-287,-713,11.8916,21.5834,0,0,0,0,0,0,0,-1,937,1737,11.8916,-21.5833
-280,-713,10.2786,21.3551,0,0,0,0,0,0,0,-1,944,1737,10.2787,-21.3551
-273,-713,11.1981,23.8683,0,0,0,0,0,0,0,-1,951,1737,11.198,-23.8683
-266,-713,3.17981,19.8851,0,0,0,0,0,0,0,-1,958,1737,3.17983,-19.8851
-259,-713,3.5921,19.6868,0,0,0,0,0,0,0,-1,965,1737,3.59207,-19.6868
-252,-713,4.55469,20.5758,0,0,0,0,0,0,0,-1,972,1737,4.55466,-20.5758
-245,-713,3.89014,25.9825,0,0,0,0,0,0,0,-1,979,1737,3.89013,-25.9826
-238,-713,6.62506,30.5463,0,0,0,0,0,0,0,-1,986,1737,6.62509,-30.5462
-231,-713,8.23462,31.5148,0,0,0,0,0,0,0,-1,993,1737,8.23462,-31.5148
-224,-713,7.59491,25.9907,0,0,0,0,0,0,0,-1,1000,1737,7.59488,-25.9908
-217,-713,8.42633,31.4293,0,0,0,0,0,0,0,-1,1007,1737,8.42635,-31.4294
-210,-713,8.03088,32.038,0,0,0,0,0,0,0,-1,1014,1737,8.03086,-32.038
-203,-713,8.06421,32.3357,0,0,0,0,0,0,0,-1,1021,1737,8.06424,-32.3357
-196,-713,7.2478,32.8212,0,0,0,0,0,0,0,-1,1028,1737,7.24775,-32.8212
-189,-713,7.42883,33.1552,0.000846615,-0.000374459,0.00733649,0.00759793,-0.00712577,0.743884,0.00850219,0.0436705,1035,1737,7.42881,-33.1552
-182,-713,7.66077,33.3317,0.000988809,-0.000355767,0.0071747,0.00752265,-0.0068896,0.738683,0.00832359,0.0293385,1042,1737,7.66075,-33.3316
-175,-713,7.84619,33.7891,0,0,0,0,0,0,0,-1,1049,1737,7.84623,-33.7891
-168,-713,7.8313,34.0521,0,0,0,0,0,0,0,-1,1056,1737,7.83136,-34.0521
-161,-713,7.7915,34.3021,0.000436125,-0.000112432,0.00562727,0.0057958,-0.0054721,0.761047,0.00650642,0.017735,1063,1737,7.79148,-34.3021
-154,-713,7.70691,34.6305,2.9471e-05,0.0003045,0.00483869,0.00500763,-0.00467366,0.799604,0.00559061,0.0117942,1070,1737,7.70685,-34.6305
-147,-713,7.67773,34.9252,-0.000389915,0.000904502,0.00407093,0.00437935,-0.00386477,0.86423,0.00476283,0.0178443,1077,1737,7.67775,-34.9251
-140,-713,7.69458,35.1967,-0.000667031,0.00164912,0.00322889,0.00392133,-0.00293924,0.957583,0.00397446,0.0175222,1084,1737,7.69462,-35.1966
-133,-713,7.67908,35.4346,-0.00100259,0.00224252,0.00238635,0.00350568,-0.00226575,1.08396,0.00335767,0.0106438,1091,1737,7.67908,-35.4345
-126,-713,7.66467,35.6812,-0.0012179,0.00291451,0.00178879,0.00358125,-0.00188463,1.21402,0.003206,0.0157929,1098,1737,7.66462,-35.6811
-119,-713,7.62817,35.9026,-0.0010449,0.0031782,0.00135139,0.00357362,-0.00144032,1.28614,0.00298086,0.0250733,1105,1737,7.62817,-35.9026
-112,-713,7.62219,36.1998,-0.000858923,0.00325142,0.000841449,0.00341701,-0.00102451,1.37649,0.00268546,0.0133351,1112,1737,7.62217,-36.1999
-105,-713,7.62793,36.4186,-0.00066031,0.00338,0.000493727,0.00343946,-0.000719768,1.45095,0.00256676,0.0109502,1119,1737,7.62793,-36.4186
-98,-713,7.62952,36.6292,-0.000406977,0.00338192,0.000351905,0.00341432,-0.000439384,1.47896,0.00243592,0.010434,1126,1737,7.62948,-36.6292
-91,-713,7.60156,36.8435,-9.2248e-05,0.00322499,0.0002465,0.0032432,-0.000110465,1.49703,0.00219988,0.0100923,1133,1737,7.60155,-36.8435
-84,-713,7.58569,37.0601,0.000154136,0.0029829,0.000166276,0.00299264,0.000144396,1.51228,0.00194874,0.00934052,1140,1737,7.58573,-37.0601
-77,-713,7.59265,37.265,0.000457716,0.00283245,0.000102555,0.00283687,0.000453295,1.52772,0.00175972,0.0122373,1147,1737,7.59261,-37.265
-70,-713,7.59644,37.4667,0.000660531,0.00246419,-3.09083e-05,0.00246472,0.000660002,-1.55367,0.00147328,0.0140917,1154,1737,7.59644,-37.4666
-63,-713,7.58289,37.6508,0.000945565,0.00228342,-0.000272369,0.00233674,0.00089224,-1.37746,0.00136162,0.0124628,1161,1737,7.58284,-37.6507
-56,-713,7.59106,37.8081,0.0013489,0.00215322,-0.000470574,0.00237007,0.00113205,-1.13898,0.00136882,0.0123993,1168,1737,7.59104,-37.8081
-49,-713,7.57471,37.9762,0.00177754,0.00197879,-0.00047771,0.00236636,0.00138997,-0.8892,0.00137316,0.0144552,1175,1737,7.57473,-37.9762
-42,-713,7.62292,38.0936,0.00232497,0.00197053,-0.000255382,0.0024586,0.0018369,-0.482071,0.00147614,0.0165259,1182,1737,7.62288,-38.0937
-35,-713,7.64136,38.218,0.00269264,0.00199013,-0.000192561,0.00274196,0.00194081,-0.250733,0.00162801,0.0150222,1189,1737,7.64137,-38.218
-28,-713,7.64331,38.3862,0.0027085,0.00265236,-0.000188115,0.00287063,0.00249023,-0.711344,0.0018004,0.0138244,1196,1737,7.64327,-38.3862
-21,-713,7.6261,38.5254,0.00254391,0.00336586,-0.000135766,0.0033877,0.00252207,-1.41126,0.00203233,0.010071,1203,1737,7.62608,-38.5254
-14,-713,7.63464,38.611,0.00221097,0.00422604,-2.14043e-05,0.00422626,0.00221075,-1.56018,0.0024409,0.0112762,1210,1737,7.63463,-38.6109
-7,-713,7.66418,38.7189,0.00160921,0.00558403,0.000353672,0.00561526,0.00157799,1.48274,0.00334401,0.00998862,1217,1737,7.66421,-38.7189
0,-713,7.68262,38.8306,0.000807819,0.00782275,0.00113246,0.00800104,0.000629531,1.41464,0.00513706,0.0142278,1224,1737,7.68259,-38.8305
7,-713,7.70435,38.9077,-0.000353377,0.00970106,0.00155926,0.00993733,-0.000589639,1.42042,0.00682992,0.0172517,1231,1737,7.70435,-38.9077
14,-713,7.73145,38.9897,-0.00156734,0.0116859,0.00193701,0.0119632,-0.00184464,1.4286,0.00865609,0.0125591,1238,1737,7.73142,-38.9897
21,-713,7.74561,39.0551,-0.00268457,0.0136036,0.00228925,0.0139193,-0.0030002,1.43379,0.0104245,0.0102571,1245,1737,7.74566,-39.0551
28,-713,7.73779,39.1031,-0.00393003,0.0153167,0.00257267,0.0156547,-0.00426798,1.44018,0.0121124,0.0105997,1252,1737,7.7378,-39.1031
35,-713,7.76746,39.1604,-0.00478464,0.016657,0.00271923,0.0169965,-0.00512412,1.4466,0.0133704,0.0111162,1259,1737,7.76742,-39.1604
42,-713,7.81604,39.2209,-0.0054983,0.0172621,0.00278058,0.0175969,-0.00583308,1.45098,0.0140842,0.011409,1266,1737,7.81608,-39.221
49,-713,7.83435,39.2195,-0.006052,0.0172429,0.00259996,0.0175296,-0.00633866,1.46099,0.0142763,0.0119737,1273,1737,7.83435,-39.2195
56,-713,7.85938,39.2357,-0.00630376,0.0165123,0.00210311,0.0167046,-0.006496,1.47964,0.0138203,0.012273,1280,1737,7.85934,-39.2357
63,-713,7.87073,39.2522,-0.00632314,0.0152753,0.00150316,0.0153794,-0.00642725,1.50164,0.0129389,0.0122224,1287,1737,7.87075,-39.2523
70,-713,7.89038,39.2455,-0.00593786,0.0133973,0.0010136,0.0134503,-0.00599086,1.51856,0.0114965,0.0119754,1294,1737,7.89033,-39.2455
77,-713,7.92029,39.2551,-0.00537841,0.0107117,0.000452535,0.0107244,-0.00539113,1.5427,0.00947263,0.012363,1301,1737,7.92034,-39.2551
84,-713,7.9447,39.245,-0.00480908,0.00824447,-2.98231e-05,0.00824454,-0.00480915,-1.56851,0.00762305,0.0122506,1308,1737,7.94473,-39.245
91,-713,7.95239,39.2286,-0.00427246,0.00592737,-0.000471588,0.00594913,-0.00429422,-1.52469,0.00593967,0.0122577,1315,1737,7.95236,-39.2287
98,-713,7.96106,39.1875,-0.00370572,0.00363711,-0.000965252,0.00376188,-0.00383049,-1.44225,0.00438352,0.0120397,1322,1737,7.96108,-39.1875
105,-713,7.9873,39.1421,-0.00318185,0.00122569,-0.00152479,0.00170176,-0.00365793,-1.26816,0.00316237,0.0137334,1329,1737,7.98735,-39.1421
112,-713,8.0083,39.1096,-0.0024878,-3.12345e-05,-0.00139749,0.000601039,-0.00312007,-1.14592,0.00230665,0.0139747,1336,1737,8.00832,-39.1096
119,-713,8.02625,39.0542,-0.00190121,-0.00111857,-0.00125245,-0.000197728,-0.00282205,-0.936814,0.00181904,0.0146935,1343,1737,8.02619,-39.0542
126,-713,8.03979,38.978,-0.00131966,-0.00191789,-0.00108424,-0.000494033,-0.00274351,-0.650807,0.00168859,0.0138224,1350,1737,8.03982,-38.978
133,-713,8.05225,38.8601,-0.000604128,-0.00231626,-0.000853623,-0.00025126,-0.00266913,-0.391985,0.00170186,0.0118041,1357,1737,8.05228,-38.8601
140,-713,8.09155,38.7416,-0.000183472,-0.00224917,-0.000585068,-2.92733e-05,-0.00240337,-0.257697,0.00159258,0.0132108,1364,1737,8.09149,-38.7416
147,-713,8.10303,38.629,0.000285575,-0.00216549,-0.000335155,0.000330577,-0.00221049,-0.133475,0.00159531,0.0140982,1371,1737,8.10299,-38.6291
154,-713,8.08179,38.5516,0.000751405,-0.00187968,-6.40272e-05,0.000752962,-0.00188124,-0.0243157,0.00156667,0.0132461,1378,1737,8.08181,-38.5516
161,-713,8.10168,38.4139,0.00110872,-0.00146397,0.000222968,0.00112791,-0.00148315,0.0858147,0.00151214,0.00979841,1385,1737,8.10172,-38.414
168,-713,8.11487,38.2793,0.00122915,-0.00105821,0.000311987,0.00127094,-0.0011,0.133156,0.00137005,0.00953028,1392,1737,8.11489,-38.2793
175,-713,8.1366,38.1376,0.00131755,-0.000329775,0.000300823,0.00137077,-0.00038299,0.175087,0.00106472,0.012871,1399,1737,8.13658,-38.1376
182,-713,8.14038,37.9885,0.00133511,0.000501069,0.000269826,0.00141479,0.000421388,0.287144,0.000838786,0.0120451,1406,1737,8.14039,-37.9886
189,-713,8.15796,37.8198,0.00104221,0.00074225,6.61684e-05,0.00105616,0.000728303,0.207748,0.000624212,0.011129,1413,1737,8.15799,-37.8198
196,-713,8.18396,37.6506,0.000779304,0.00094039,-0.000145894,0.0010265,0.000693197,-1.03761,0.000604668,0.0116143,1420,1737,8.18393,-37.6507
203,-713,8.15991,37.4949,0.000696216,0.00120094,-0.000308584,0.00134722,0.000549943,-1.12815,0.000782174,0.0158625,1427,1737,8.15986,-37.4948
210,-713,8.13159,37.3035,0.000660551,0.0015468,-0.00050123,0.0017727,0.000434654,-1.14737,0.00106685,0.0134581,1434,1737,8.13159,-37.3035
217,-713,8.13672,37.1106,0.00052846,0.0017188,-0.000765591,0.00209335,0.00015391,-1.1158,0.0013472,0.0108474,1441,1737,8.13674,-37.1106
224,-713,8.14343,36.9232,0.000553366,0.00183118,-0.00095259,0.00233928,4.52638e-05,-1.08079,0.00154466,0.0118208,1448,1737,8.14344,-36.9232
231,-713,8.14087,36.7169,0.000576556,0.0018804,-0.00109722,0.00250476,-4.7803e-05,-1.05345,0.001686,0.010946,1455,1737,8.14081,-36.7169
238,-713,8.11877,36.4982,0.000769124,0.00218018,-0.00107721,0.00276235,0.000186957,-1.07532,0.00178252,0.0085106,1462,1737,8.11878,-36.4982
245,-713,8.12085,36.2666,0.00109506,0.0025764,-0.00104225,0.00311436,0.000557109,-1.09432,0.0019177,0.0111152,1469,1737,8.12086,-36.2666
252,-713,8.12683,36.0271,0.00138742,0.00329703,-0.000980434,0.00371076,0.00097368,-1.17148,0.00222158,0.0116577,1476,1737,8.12686,-36.0271
259,-713,8.1355,35.7938,0.00141523,0.00381711,-0.000735492,0.00402443,0.00120791,-1.29604,0.00238458,0.0121873,1483,1737,8.13545,-35.7938
266,-713,8.10156,35.5802,0.00129046,0.00432752,-0.000276109,0.00435242,0.00126557,-1.48087,0.00258517,0.0104826,1490,1737,8.1016,-35.5801
273,-713,8.06201,35.3389,0.00130274,0.00546758,-7.97113e-05,0.0054691,0.00130122,-1.55167,0.00329901,0.00878848,1497,1737,8.06206,-35.3389
280,-713,8.05603,35.0663,0.00114461,0.00640912,0.000234337,0.00641953,0.0011342,1.5264,0.00395619,0.010477,1504,1737,8.05604,-35.0663
287,-713,8.03564,34.812,0.00097982,0.00770507,0.000426902,0.00773206,0.000952829,1.50766,0.00486828,0.0119768,1511,1737,8.03567,-34.812
294,-713,8.02905,34.5704,0.000790679,0.00931236,0.000534552,0.00934576,0.000757279,1.50839,0.00599405,0.0177424,1518,1737,8.02909,-34.5704
301,-713,8.04395,34.2888,0.0005686,0.0109182,0.000448933,0.0109377,0.000549163,1.52753,0.00711579,0.0206313,1525,1737,8.04394,-34.2888
308,-713,8.03845,33.9862,-4.44437e-05,0.0120938,0.000410157,0.0121077,-5.82868e-05,1.53706,0.00809129,0.0229319,1532,1737,8.03847,-33.9861
315,-713,7.90466,33.6111,-0.000660483,0.01233,0.000719465,0.0123697,-0.000700208,1.51564,0.00848951,0.0312243,1539,1737,7.90471,-33.6111
322,-713,8.09058,33.0607,-0.000869149,0.0128696,0.000572712,0.0128935,-0.000892982,1.52921,0.00890824,0.0436429,1546,1737,8.09063,-33.0607
329,-713,8.16296,32.9222,0,0,0,0,0,0,0,-1,1553,1737,8.16293,-32.9223
336,-713,8.18127,32.4602,0,0,0,0,0,0,0,-1,1560,1737,8.18132,-32.4602
343,-713,7.65405,31.9194,0,0,0,0,0,0,0,-1,1567,1737,7.65404,-31.9194
350,-713,7.76538,31.561,0,0,0,0,0,0,0,-1,1574,1737,7.76539,-31.561
357,-713,7.04224,30.0194,0,0,0,0,0,0,0,-1,1581,1737,7.0422,-30.0194
364,-713,7.35474,20.9537,0,0,0,0,0,0,0,-1,1588,1737,7.35472,-20.9537
371,-713,3.07507,25.4108,0,0,0,0,0,0,0,-1,1595,1737,3.07502,-25.4107
378,-713,4.21838,25.306,0,0,0,0,0,0,0,-1,1602,1737,4.21837,-25.306
385,-713,5.078,25.3104,0,0,0,0,0,0,0,-1,1609,1737,5.07795,-25.3104
392,-713,5.92114,25.3118,0,0,0,0,0,0,0,-1,1616,1737,5.92112,-25.3118
399,-713,3.14368,25.2808,0,0,0,0,0,0,0,-1,1623,1737,3.14369,-25.2808
406,-713,1.82678,26.7354,0,0,0,0,0,0,0,-1,1630,1737,1.82679,-26.7354
413,-713,3.24731,18.2787,0,0,0,0,0,0,0,-1,1637,1737,3.24726,-18.2787
420,-713,0,0,0,0,0,0,0,0,0,-1,1644,1737,0,0
427,-713,0,0,0,0,0,0,0,0,0,-1,1651,1737,0,0
434,-713,0,0,0,0,0,0,0,0,0,-1,1658,1737,0,0
441,-713,0,0,0,0,0,0,0,0,0,-1,1665,1737,0,0
448,-713,0,0,0,0,0,0,0,0,0,-1,1672,1737,0,0
455,-713,0,0,0,0,0,0,0,0,0,-1,1679,1737,0,0
462,-713,0,0,0,0,0,0,0,0,0,-1,1686,1737,0,0
469,-713,0,0,0,0,0,0,0,0,0,-1,1693,1737,0,0
476,-713,0,0,0,0,0,0,0,0,0,-1,1700,1737,0,0
483,-713,0,0,0,0,0,0,0,0,0,-1,1707,1737,0,0
490,-713,0,0,0,0,0,0,0,0,0,-1,1714,1737,0,0
497,-713,0,0,0,0,0,0,0,0,0,-1,1721,1737,0,0
504,-713,0,0,0,0,0,0,0,0,0,-1,1728,1737,0,0
511,-713,0,0,0,0,0,0,0,0,0,-1,1735,1737,0,0
518,-713,0,0,0,0,0,0,0,0,0,-1,1742,1737,0,0
525,-713,0,0,0,0,0,0,0,0,0,-1,1749,1737,0,0
532,-713,0,0,0,0,0,0,0,0,0,-1,1756,1737,0,0
539,-713,0,0,0,0,0,0,0,0,0,-1,1763,1737,0,0
546,-713,0,0,0,0,0,0,0,0,0,-1,1770,1737,0,0
553,-713,0,0,0,0,0,0,0,0,0,-1,1777,1737,0,0
560,-713,0,0,0,0,0,0,0,0,0,-1,1784,1737,0,0
567,-713,0,0,0,0,0,0,0,0,0,-1,1791,1737,0,0
574,-713,0,0,0,0,0,0,0,0,0,-1,1798,1737,0,0
581,-713,0,0,0,0,0,0,0,0,0,-1,1805,1737,0,0
588,-713,0,0,0,0,0,0,0,0,0,-1,1812,1737,0,0
595,-713,0,0,0,0,0,0,0,0,0,-1,1819,1737,0,0
602,-713,0,0,0,0,0,0,0,0,0,-1,1826,1737,0,0
609,-713,0,0,0,0,0,0,0,0,0,-1,1833,1737,0,0
616,-713,0,0,0,0,0,0,0,0,0,-1,1840,1737,0,0
623,-713,0,0,0,0,0,0,0,0,0,-1,1847,1737,0,0
630,-713,0,0,0,0,0,0,0,0,0,-1,1854,1737,0,0
637,-713,0,0,0,0,0,0,0,0,0,-1,1861,1737,0,0
644,-713,0,0,0,0,0,0,0,0,0,-1,1868,1737,0,0
651,-713,0,0,0,0,0,0,0,0,0,-1,1875,1737,0,0
658,-713,0,0,0,0,0,0,0,0,0,-1,1882,1737,0,0
665,-713,0,0,0,0,0,0,0,0,0,-1,1889,1737,0,0
672,-713,0,0,0,0,0,0,0,0,0,-1,1896,1737,0,0
679,-713,0,0,0,0,0,0,0,0,0,-1,1903,1737,0,0
686,-713,0,0,0,0,0,0,0,0,0,-1,1910,1737,0,0
693,-713,0,0,0,0,0,0,0,0,0,-1,1917,1737,0,0
700,-713,0,0,0,0,0,0,0,0,0,-1,1924,1737,0,0
707,-713,0,0,0,0,0,0,0,0,0,-1,1931,1737,0,0
714,-713,0,0,0,0,0,0,0,0,0,-1,1938,1737,0,0
721,-713,0,0,0,0,0,0,0,0,0,-1,1945,1737,0,0
728,-713,0,0,0,0,0,0,0,0,0,-1,1952,1737,0,0
735,-713,0,0,0,0,0,0,0,0,0,-1,1959,1737,0,0
742,-713,0,0,0,0,0,0,0,0,0,-1,1966,1737,0,0
749,-713,0,0,0,0,0,0,0,0,0,-1,1973,1737,0,0
756,-713,0,0,0,0,0,0,0,0,0,-1,1980,1737,0,0
763,-713,0,0,0,0,0,0,0,0,0,-1,1987,1737,0,0
770,-713,0,0,0,0,0,0,0,0,0,-1,1994,1737,0,0
777,-713,0,0,0,0,0,0,0,0,0,-1,2001,1737,0,0
784,-713,0,0,0,0,0,0,0,0,0,-1,2008,1737,0,0
791,-713,0,0,0,0,0,0,0,0,0,-1,2015,1737,0,0
798,-713,0,0,0,0,0,0,0,0,0,-1,2022,1737,0,0
805,-713,0,0,0,0,0,0,0,0,0,-1,2029,1737,0,0
812,-713,0,0,0,0,0,0,0,0,0,-1,2036,1737,0,0
-700,-720,0,0,0,0,0,0,0,0,0,-1,524,1744,0,0
-693,-720,0,0,0,0,0,0,0,0,0,-1,531,1744,0,0
-686,-720,0,0,0,0,0,0,0,0,0,-1,538,1744,0,0
-679,-720,0,0,0,0,0,0,0,0,0,-1,545,1744,0,0
-672,-720,0,0,0,0,0,0,0,0,0,-1,552,1744,0,0
-665,-720,0,0,0,0,0,0,0,0,0,-1,559,1744,0,0
-658,-720,0,0,0,0,0,0,0,0,0,-1,566,1744,0,0
-651,-720,0,0,0,0,0,0,0,0,0,-1,573,1744,0,0
-644,-720,0,0,0,0,0,0,0,0,0,-1,580,1744,0,0
-637,-720,0,0,0,0,0,0,0,0,0,-1,587,1744,0,0
-630,-720,0,0,0,0,0,0,0,0,0,-1,594,1744,0,0
-623,-720,0,0,0,0,0,0,0,0,0,-1,601,1744,0,0
-616,-720,0,0,0,0,0,0,0,0,0,-1,608,1744,0,0
-609,-720,0,0,0,0,0,0,0,0,0,-1,615,1744,0,0
-602,-720,0,0,0,0,0,0,0,0,0,-1,622,1744,0,0
-595,-720,0,0,0,0,0,0,0,0,0,-1,629,1744,0,0
-588,-720,0,0,0,0,0,0,0,0,0,-1,636,1744,0,0
-581,-720,0,0,0,0,0,0,0,0,0,-1,643,1744,0,0
-574,-720,0,0,0,0,0,0,0,0,0,-1,650,1744,0,0
-567,-720,0,0,0,0,0,0,0,0,0,-1,657,1744,0,0
-560,-720,0,0,0,0,0,0,0,0,0,-1,664,1744,0,0
-553,-720,0,0,0,0,0,0,0,0,0,-1,671,1744,0,0
-546,-720,0,0,0,0,0,0,0,0,0,-1,678,1744,0,0
-539,-720,0,0,0,0,0,0,0,0,0,-1,685,1744,0,0
-532,-720,0,0,0,0,0,0,0,0,0,-1,692,1744,0,0
-525,-720,0,0,0,0,0,0,0,0,0,-1,699,1744,0,0
-518,-720,0,0,0,0,0,0,0,0,0,-1,706,1744,0,0
-511,-720,0,0,0,0,0,0,0,0,0,-1,713,1744,0,0
-504,-720,0,0,0,0,0,0,0,0,0,-1,720,1744,0,0
-497,-720,0,0,0,0,0,0,0,0,0,-1,727,1744,0,0
-490,-720,0,0,0,0,0,0,0,0,0,-1,734,1744,0,0
-483,-720,0,0,0,0,0,0,0,0,0,-1,741,1744,0,0
-476,-720,0,0,0,0,0,0,0,0,0,-1,748,1744,0,0
-469,-720,0,0,0,0,0,0,0,0,0,-1,755,1744,0,0
-462,-720,0,0,0,0,0,0,0,0,0,-1,762,1744,0,0
-455,-720,0,0,0,0,0,0,0,0,0,-1,769,1744,0,0
-448,-720,0,0,0,0,0,0,0,0,0,-1,776,1744,0,0
-441,-720,0,0,0,0,0,0,0,0,0,-1,783,1744,0,0
-434,-720,0,0,0,0,0,0,0,0,0,-1,790,1744,0,0
-427,-720,0,0,0,0,0,0,0,0,0,-1,797,1744,0,0
-420,-720,0,0,0,0,0,0,0,0,0,-1,804,1744,0,0
-413,-720,0,0,0,0,0,0,0,0,0,-1,811,1744,0,0
-406,-720,0,0,0,0,0,0,0,0,0,-1,818,1744,0,0
-399,-720,0,0,0,0,0,0,0,0,0,-1,825,1744,0,0
-392,-720,0,0,0,0,0,0,0,0,0,-1,832,1744,0,0
-385,-720,0,0,0,0,0,0,0,0,0,-1,839,1744,0,0
-378,-720,0,0,0,0,0,0,0,0,0,-1,846,1744,0,0
-371,-720,0,0,0,0,0,0,0,0,0,-1,853,1744,0,0
-364,-720,0,0,0,0,0,0,0,0,0,-1,860,1744,0,0
-357,-720,0,0,0,0,0,0,0,0,0,-1,867,1744,0,0
-350,-720,0,0,0,0,0,0,0,0,0,-1,874,1744,0,0
-343,-720,0,0,0,0,0,0,0,0,0,-1,881,1744,0,0
-336,-720,0,0,0,0,0,0,0,0,0,-1,888,1744,0,0
-329,-720,0,0,0,0,0,0,0,0,0,-1,895,1744,0,0
-322,-720,0,0,0,0,0,0,0,0,0,-1,902,1744,0,0
-315,-720,0,0,0,0,0,0,0,0,0,-1,909,1744,0,0
-308,-720,0,0,0,0,0,0,0,0,0,-1,916,1744,0,0
-301,-720,0,0,0,0,0,0,0,0,0,-1,923,1744,0,0
-294,-720,0,0,0,0,0,0,0,0,0,-1,930,1744,0,0
-287,-720,0,0,0,0,0,0,0,0,0,-1,937,1744,0,0
-280,-720,6.46796,22.6417,0,0,0,0,0,0,0,-1,944,1744,6.46793,-22.6417
-273,-720,8.54633,13.262,0,0,0,0,0,0,0,-1,951,1744,8.54636,-13.2619
-266,-720,7.28027,13.3165,0,0,0,0,0,0,0,-1,958,1744,7.28026,-13.3166
-259,-720,3.70563,18.6372,0,0,0,0,0,0,0,-1,965,1744,3.70564,-18.6372
-252,-720,4.00989,18.5059,0,0,0,0,0,0,0,-1,972,1744,4.00988,-18.5058
-245,-720,7.05634,33.8489,0,0,0,0,0,0,0,-1,979,1744,7.05634,-33.8489
-238,-720,5.02216,24.1455,0,0,0,0,0,0,0,-1,986,1744,5.02217,-24.1455
-231,-720,7.35455,28.3225,0,0,0,0,0,0,0,-1,993,1744,7.35453,-28.3225
-224,-720,7.65991,19.4061,0,0,0,0,0,0,0,-1,1000,1744,7.6599,-19.4061
-217,-720,4.77637,30.7196,0,0,0,0,0,0,0,-1,1007,1744,4.77636,-30.7197
-210,-720,7.53912,32.1326,0,0,0,0,0,0,0,-1,1014,1744,7.5391,-32.1325
-203,-720,7.34473,32.6597,0,0,0,0,0,0,0,-1,1021,1744,7.34469,-32.6596
-196,-720,7.61426,33.1782,0,0,0,0,0,0,0,-1,1028,1744,7.61422,-33.1783
-189,-720,7.64734,33.2438,0,0,0,0,0,0,0,-1,1035,1744,7.64735,-33.2438
-182,-720,7.85632,33.6627,0.00225666,-0.000266064,0.0101659,0.0112391,-0.00924855,0.723675,0.0118472,0.0449553,1042,1744,7.85631,-33.6627
-175,-720,7.94897,34.0732,0,0,0,0,0,0,0,-1,1049,1744,7.94904,-34.0732
-168,-720,7.69214,34.0192,0.00109439,0.000394755,0.00871503,0.00946662,-0.00797748,0.765339,0.0100836,0.0446549,1056,1744,7.69215,-34.0192
-161,-720,7.7135,34.3141,0.000577139,0.000584744,0.00766947,0.00825041,-0.00708853,0.785646,0.00886441,0.0380565,1063,1744,7.71349,-34.314
-154,-720,8.00781,34.7012,-0.000187269,0.000933116,0.00653013,0.00692703,-0.00618119,0.828186,0.00757212,0.0307843,1070,1744,8.00777,-34.7011
-147,-720,7.95947,35.0249,-0.000904706,0.00145721,0.00543908,0.00584206,-0.00528956,0.892301,0.00642948,0.0265102,1077,1744,7.95949,-35.0249
-140,-720,7.95911,35.2794,-0.00138413,0.00216383,0.00428425,0.00502685,-0.00424715,0.981687,0.00536065,0.0192033,1084,1744,7.95914,-35.2794
-133,-720,7.9137,35.4653,-0.00190585,0.0026463,0.00317359,0.00427563,-0.00353518,1.09648,0.00451632,0.0128634,1091,1744,7.91372,-35.4654
-126,-720,7.89893,35.7064,-0.00225495,0.00326232,0.00237237,0.00414211,-0.00313475,1.21567,0.0042147,0.01264,1098,1744,7.89888,-35.7064
-119,-720,7.88672,35.9674,-0.00208987,0.00334426,0.00176297,0.00386609,-0.00261171,1.28301,0.00376326,0.014899,1105,1744,7.88676,-35.9674
-112,-720,7.84851,36.184,-0.00189055,0.00329922,0.0010761,0.0035135,-0.00210483,1.37424,0.00327755,0.013479,1112,1744,7.84854,-36.184
-105,-720,7.83118,36.4138,-0.00168074,0.00342053,0.00062277,0.00349546,-0.00175566,1.45106,0.0030867,0.012878,1119,1744,7.83122,-36.4138
-98,-720,7.8147,36.6259,-0.00141341,0.00344437,0.000436369,0.00348326,-0.0014523,1.48192,0.00292886,0.0102714,1126,1744,7.8147,-36.6259
-91,-720,7.77893,36.8425,-0.00105972,0.00328701,0.000290339,0.00330631,-0.00107903,1.50439,0.00263849,0.00934254,1133,1744,7.77895,-36.8425
-84,-720,7.77014,37.0458,-0.000800191,0.00300836,0.000176736,0.00301655,-0.000808375,1.52452,0.00232776,0.00960312,1140,1744,7.77014,-37.0457
-77,-720,7.77197,37.2699,-0.000449876,0.00287237,0.000181283,0.00288223,-0.000459739,1.51645,0.00209165,0.0124076,1147,1744,7.77197,-37.2698
-70,-720,7.76245,37.4564,-0.000259028,0.0025383,7.07407e-05,0.00254009,-0.000260816,1.54553,0.00178669,0.0114563,1154,1744,7.76239,-37.4565
-63,-720,7.74463,37.6403,-0.000209441,0.00204307,-4.41979e-05,0.00204394,-0.000210308,-1.55118,0.00143787,0.0108606,1161,1744,7.7446,-37.6403
-56,-720,7.76111,37.8176,-5.86319e-05,0.0016614,-9.90561e-05,0.00166709,-6.43177e-05,-1.51346,0.00113344,0.0128753,1168,1744,7.76115,-37.8176
-49,-720,7.76282,37.9685,0.000172642,0.00151002,-0.000108052,0.0015187,0.000163968,-1.49069,0.000962474,0.0202134,1175,1744,7.76276,-37.9685
-42,-720,7.78259,38.0752,0.000485094,0.00123594,-5.25935e-05,0.0012396,0.000481428,-1.5012,0.000721606,0.0224342,1182,1744,7.78265,-38.0752
-35,-720,7.79712,38.2124,0.000824833,0.00110132,-1.92587e-05,0.00110266,0.000823498,-1.50159,0.000661972,0.0188133,1189,1744,7.79707,-38.2124
-28,-720,7.77612,38.3928,0.00107979,0.00146408,-3.31129e-05,0.00146692,0.00107696,-1.48547,0.000877338,0.0109545,1196,1744,7.77613,-38.3928
-21,-720,7.75452,38.5461,0.00128388,0.00193094,6.96797e-05,0.00193836,0.00127646,1.46473,0.00113771,0.00944283,1203,1744,7.75446,-38.5462
-14,-720,7.74695,38.6327,0.00144065,0.00254319,0.000265192,0.00260366,0.00138018,1.34661,0.00150413,0.0114657,1210,1744,7.74695,-38.6326
-7,-720,7.76282,38.7405,0.0014401,0.0033305,0.000532496,0.00347017,0.00130043,1.31427,0.00202435,0.0121869,1217,1744,7.7628,-38.7404
0,-720,7.77588,38.8541,0.00129562,0.00418046,0.000834589,0.00440451,0.00107157,1.30853,0.00265231,0.0122881,1224,1744,7.77586,-38.8542
7,-720,7.78979,38.9377,0.000931067,0.00510146,0.00105169,0.00535167,0.000680864,1.33723,0.00336387,0.0150176,1231,1744,7.78982,-38.9377
14,-720,7.82227,39.0088,0.000547274,0.00601435,0.001172,0.006255,0.000306622,1.36828,0.00407164,0.0145207,1238,1744,7.82222,-39.0088
21,-720,7.82202,39.068,0.000205843,0.00684601,0.00125268,0.00707447,-2.26165e-05,1.3904,0.00472387,0.0109586,1245,1744,7.82198,-39.068
28,-720,7.81311,39.1262,-0.000235045,0.00747949,0.00125634,0.00767893,-0.000434489,1.41336,0.00527009,0.0103204,1252,1744,7.81309,-39.1262
35,-720,7.823,39.1862,-0.000498859,0.00793355,0.00114885,0.00808727,-0.000652578,1.43778,0.00562168,0.0107152,1259,1744,7.82298,-39.1862
42,-720,7.8313,39.2117,-0.000797885,0.00807501,0.00106222,0.0082004,-0.000923277,1.45329,0.00579924,0.0112583,1266,1744,7.8313,-39.2116
49,-720,7.8446,39.2257,-0.0010865,0.00797521,0.000891966,0.00806217,-0.00117346,1.47361,0.0058056,0.0117068,1273,1744,7.84459,-39.2257
56,-720,7.85303,39.264,-0.00127479,0.00758181,0.0005938,0.00762144,-0.00131442,1.50415,0.00557103,0.0103955,1280,1744,7.85299,-39.2641
63,-720,7.87036,39.2745,-0.00138114,0.00698687,0.000277045,0.00699603,-0.0013903,1.53774,0.00518991,0.0120979,1287,1744,7.87039,-39.2745
70,-720,7.89026,39.2743,-0.0013413,0.00600145,8.9726e-05,0.00600254,-0.00134239,1.55858,0.00451616,0.0131471,1294,1744,7.89022,-39.2742
77,-720,7.896,39.2585,-0.00120747,0.00462377,-9.97871e-05,0.00462547,-0.00120918,-1.55369,0.00355591,0.0143664,1301,1744,7.89595,-39.2585
84,-720,7.91138,39.2091,-0.00114267,0.00338879,-0.000249777,0.00340251,-0.00115639,-1.5159,0.0027365,0.012656,1308,1744,7.91143,-39.2091
91,-720,7.92114,39.1832,-0.00110604,0.00222797,-0.000400519,0.00227541,-0.00115348,-1.4529,0.00201468,0.0116724,1315,1744,7.9212,-39.1833
98,-720,7.90845,39.1702,-0.00102941,0.00114278,-0.000516165,0.0012592,-0.00114583,-1.34897,0.00138905,0.0111319,1322,1744,7.9084,-39.1702
105,-720,7.91968,39.1434,-0.000957432,0.000138568,-0.000613704,0.000413329,-0.00123219,-1.14985,0.000988477,0.0115603,1329,1744,7.91966,-39.1435
112,-720,7.93689,39.097,-0.000743792,-0.00075984,-0.000566644,-0.000185115,-0.00131852,-0.778318,0.000824264,0.0111366,1336,1744,7.93684,-39.0971
119,-720,7.95093,39.036,-0.000597579,-0.00150274,-0.000511297,-0.000367332,-0.00173299,-0.42312,0.00105443,0.0112361,1343,1744,7.95095,-39.036
126,-720,7.96777,38.9457,-0.000410654,-0.0019768,-0.000451437,-0.000289848,-0.00209761,-0.261478,0.0013125,0.0111097,1350,1744,7.96775,-38.9457
133,-720,7.97388,38.8523,-0.000120134,-0.00209262,-0.000341906,-6.25494e-05,-0.0021502,-0.166855,0.00141308,0.0122003,1357,1744,7.97392,-38.8523
140,-720,7.99109,38.7717,6.37484e-05,-0.00194418,-0.000193344,8.21959e-05,-0.00196263,-0.0951255,0.00133666,0.018566,1364,1744,7.99103,-38.7718
147,-720,7.99133,38.6587,0.000264703,-0.00170568,-6.805e-05,0.000267051,-0.00170803,-0.0344816,0.00123735,0.0191422,1371,1744,7.99129,-38.6586
154,-720,7.96655,38.5302,0.000406559,-0.00133651,3.27027e-05,0.000407173,-0.00133713,0.0187527,0.0010537,0.012541,1378,1744,7.96656,-38.5301
161,-720,8,38.4121,0.000431845,-0.000906733,0.000103497,0.0004398,-0.000914688,0.0767113,0.000797874,0.0094853,1385,1744,7.99999,-38.4121
168,-720,7.99548,38.2953,0.000380982,-0.000459286,5.33712e-05,0.000384359,-0.000462662,0.0631784,0.000489724,0.0100118,1392,1744,7.99548,-38.2953
175,-720,7.98108,38.1305,0.000304207,0.000126185,-0.000124504,0.000368246,6.21467e-05,-0.475062,0.000227627,0.0153294,1399,1744,7.98108,-38.1305
182,-720,7.99341,37.9777,0.000113278,0.000723524,-0.00030189,0.00084763,-1.08285e-05,-1.18076,0.00056873,0.0148505,1406,1744,7.99336,-37.9777
189,-720,8.00195,37.8394,-0.000127885,0.00108097,-0.000514557,0.00127033,-0.000317247,-1.21817,0.000970087,0.0125056,1413,1744,8.00192,-37.8394
196,-720,8.01282,37.675,-0.000359713,0.00148542,-0.000759658,0.00175793,-0.000632223,-1.22637,0.00143007,0.0126322,1420,1744,8.01276,-37.675
203,-720,7.9989,37.4918,-0.00023692,0.00196365,-0.000931854,0.00230523,-0.000578501,-1.21944,0.00176161,0.0150223,1427,1744,7.99887,-37.4918
210,-720,7.97742,37.3219,5.54244e-05,0.00250715,-0.00116553,0.00297279,-0.000410221,-1.19071,0.0021318,0.0135299,1434,1744,7.97744,-37.3219
217,-720,7.96655,37.1156,0.000150082,0.00278623,-0.00142064,0.00340608,-0.000469766,-1.15938,0.00244241,0.011879,1441,1744,7.96659,-37.1157
224,-720,7.94836,36.9022,0.00035663,0.0029353,-0.00161039,0.00370891,-0.000416982,-1.12296,0.00262267,0.00909474,1448,1744,7.94838,-36.9022
231,-720,7.94958,36.6953,0.000525892,0.00297576,-0.00173606,0.00387553,-0.000373879,-1.09263,0.0027169,0.00938969,1455,1744,7.94959,-36.6953
238,-720,7.92212,36.4946,0.000912713,0.00337708,-0.00164176,0.00419761,9.21788e-05,-1.10732,0.00276819,0.00860935,1462,1744,7.92206,-36.4946
245,-720,7.90491,36.2894,0.00146911,0.00390496,-0.00154824,0.00465691,0.000717165,-1.11867,0.00289531,0.011068,1469,1744,7.90485,-36.2894
252,-720,7.90295,36.0471,0.00195872,0.00489068,-0.001429,0.00547193,0.00137747,-1.18448,0.00328647,0.0109753,1476,1744,7.90293,-36.0471
259,-720,7.89563,35.8115,0.00205892,0.00559113,-0.00106577,0.00588779,0.00176226,-1.29932,0.0034894,0.0101367,1483,1744,7.89559,-35.8115
266,-720,7.85754,35.587,0.001952,0.00627244,-0.0004259,0.00631403,0.00191041,-1.47347,0.00373894,0.00836092,1490,1744,7.85756,-35.587
273,-720,7.83215,35.3323,0.00203478,0.00775885,-0.000116487,0.00776122,0.00203241,-1.55046,0.00464725,0.0141312,1497,1744,7.83215,-35.3323
280,-720,7.76111,35.077,0.00189499,0.009035,0.000361912,0.0090533,0.00187669,1.52028,0.0055174,0.0204406,1504,1744,7.7611,-35.077
287,-720,7.64197,34.755,0.00173079,0.0107947,0.000680246,0.0108455,0.00168002,1.4963,0.00674046,0.0359771,1511,1744,7.64201,-34.755
294,-720,7.72522,34.3456,0.00149377,0.0129305,0.000926343,0.0130051,0.00141923,1.4905,0.00823782,0.0381208,1518,1744,7.72516,-34.3456
301,-720,7.80896,34.0439,0.00120542,0.0150619,0.000987099,0.0151318,0.00113545,1.50004,0.00973151,0.0394377,1525,1744,7.80897,-34.044
308,-720,7.53381,34.0298,0.000384299,0.0167541,0.00110864,0.0168288,0.000309558,1.50348,0.0111175,0.0369058,1532,1744,7.53376,-34.0297
315,-720,7.21985,33.8357,-0.000465388,0.0174394,0.00165007,0.0175902,-0.000616185,1.47966,0.0119375,0.039504,1539,1744,7.21979,-33.8357
322,-720,8.15271,32.6279,0,0,0,0,0,0,0,-1,1546,1744,8.15276,-32.6279
329,-720,7.79773,28.8168,0,0,0,0,0,0,0,-1,1553,1744,7.79771,-28.8167
336,-720,6.14148,26.5682,0,0,0,0,0,0,0,-1,1560,1744,6.14151,-26.5683
343,-720,6.78552,21.3625,0,0,0,0,0,0,0,-1,1567,1744,6.78551,-21.3625
350,-720,4.0741,11.1836,0,0,0,0,0,0,0,-1,1574,1744,4.07412,-11.1836
357,-720,6.90833,21.4504,0,0,0,0,0,0,0,-1,1581,1744,6.90827,-21.4505
364,-720,5.83777,24.1599,0,0,0,0,0,0,0,-1,1588,1744,5.83773,-24.1599
371,-720,5.46997,23.6176,0,0,0,0,0,0,0,-1,1595,1744,5.47001,-23.6176
378,-720,3.88257,25.5404,0,0,0,0,0,0,0,-1,1602,1744,3.88262,-25.5404
385,-720,4.63611,25.6746,0,0,0,0,0,0,0,-1,1609,1744,4.63612,-25.6746
392,-720,3.49377,23.5042,0,0,0,0,0,0,0,-1,1616,1744,3.4938,-23.5042
399,-720,2.37317,24.7166,0,0,0,0,0,0,0,-1,1623,1744,2.37317,-24.7166
406,-720,0,0,0,0,0,0,0,0,0,-1,1630,1744,0,0
413,-720,0,0,0,0,0,0,0,0,0,-1,1637,1744,0,0
420,-720,0,0,0,0,0,0,0,0,0,-1,1644,1744,0,0
427,-720,0,0,0,0,0,0,0,0,0,-1,1651,1744,0,0
434,-720,0,0,0,0,0,0,0,0,0,-1,1658,1744,0,0
441,-720,0,0,0,0,0,0,0,0,0,-1,1665,1744,0,0
448,-720,0,0,0,0,0,0,0,0,0,-1,1672,1744,0,0
455,-720,0,0,0,0,0,0,0,0,0,-1,1679,1744,0,0
462,-720,0,0,0,0,0,0,0,0,0,-1,1686,1744,0,0
469,-720,0,0,0,0,0,0,0,0,0,-1,1693,1744,0,0
476,-720,0,0,0,0,0,0,0,0,0,-1,1700,1744,0,0
483,-720,0,0,0,0,0,0,0,0,0,-1,1707,1744,0,0
490,-720,0,0,0,0,0,0,0,0,0,-1,1714,1744,0,0
497,-720,0,0,0,0,0,0,0,0,0,-1,1721,1744,0,0
504,-720,0,0,0,0,0,0,0,0,0,-1,1728,1744,0,0
511,-720,0,0,0,0,0,0,0,0,0,-1,1735,1744,0,0
518,-720,0,0,0,0,0,0,0,0,0,-1,1742,1744,0,0
525,-720,0,0,0,0,0,0,0,0,0,-1,1749,1744,0,0
532,-720,0,0,0,0,0,0,0,0,0,-1,1756,1744,0,0
539,-720,0,0,0,0,0,0,0,0,0,-1,1763,1744,0,0
546,-720,0,0,0,0,0,0,0,0,0,-1,1770,1744,0,0
553,-720,0,0,0,0,0,0,0,0,0,-1,1777,1744,0,0
560,-720,0,0,0,0,0,0,0,0,0,-1,1784,1744,0,0
567,-720,0,0,0,0,0,0,0,0,0,-1,1791,1744,0,0
574,-720,0,0,0,0,0,0,0,0,0,-1,1798,1744,0,0
581,-720,0,0,0,0,0,0,0,0,0,-1,1805,1744,0,0
588,-720,0,0,0,0,0,0,0,0,0,-1,1812,1744,0,0
595,-720,0,0,0,0,0,0,0,0,0,-1,1819,1744,0,0
602,-720,0,0,0,0,0,0,0,0,0,-1,1826,1744,0,0
609,-720,0,0,0,0,0,0,0,0,0,-1,1833,1744,0,0
616,-720,0,0,0,0,0,0,0,0,0,-1,1840,1744,0,0
623,-720,0,0,0,0,0,0,0,0,0,-1,1847,1744,0,0
630,-720,0,0,0,0,0,0,0,0,0,-1,1854,1744,0,0
637,-720,0,0,0,0,0,0,0,0,0,-1,1861,1744,0,0
644,-720,0,0,0,0,0,0,0,0,0,-1,1868,1744,0,0
651,-720,0,0,0,0,0,0,0,0,0,-1,1875,1744,0,0
658,-720,0,0,0,0,0,0,0,0,0,-1,1882,1744,0,0
665,-720,0,0,0,0,0,0,0,0,0,-1,1889,1744,0,0
672,-720,0,0,0,0,0,0,0,0,0,-1,1896,1744,0,0
679,-720,0,0,0,0,0,0,0,0,0,-1,1903,1744,0,0
686,-720,0,0,0,0,0,0,0,0,0,-1,1910,1744,0,0
693,-720,0,0,0,0,0,0,0,0,0,-1,1917,1744,0,0
700,-720,0,0,0,0,0,0,0,0,0,-1,1924,1744,0,0
707,-720,0,0,0,0,0,0,0,0,0,-1,1931,1744,0,0
714,-720,0,0,0,0,0,0,0,0,0,-1,1938,1744,0,0
721,-720,0,0,0,0,0,0,0,0,0,-1,1945,1744,0,0
728,-720,0,0,0,0,0,0,0,0,0,-1,1952,1744,0,0
735,-720,0,0,0,0,0,0,0,0,0,-1,1959,1744,0,0
742,-720,0,0,0,0,0,0,0,0,0,-1,1966,1744,0,0
749,-720,0,0,0,0,0,0,0,0,0,-1,1973,1744,0,0
756,-720,0,0,0,0,0,0,0,0,0,-1,1980,1744,0,0
763,-720,0,0,0,0,0,0,0,0,0,-1,1987,1744,0,0
770,-720,0,0,0,0,0,0,0,0,0,-1,1994,1744,0,0
777,-720,0,0,0,0,0,0,0,0,0,-1,2001,1744,0,0
784,-720,0,0,0,0,0,0,0,0,0,-1,2008,1744,0,0
791,-720,0,0,0,0,0,0,0,0,0,-1,2015,1744,0,0
798,-720,0,0,0,0,0,0,0,0,0,-1,2022,1744,0,0
805,-720,0,0,0,0,0,0,0,0,0,-1,2029,1744,0,0
812,-720,0,0,0,0,0,0,0,0,0,-1,2036,1744,0,0
-700,-727,0,0,0,0,0,0,0,0,0,-1,524,1751,0,0
-693,-727,0,0,0,0,0,0,0,0,0,-1,531,1751,0,0
-686,-727,0,0,0,0,0,0,0,0,0,-1,538,1751,0,0
-679,-727,0,0,0,0,0,0,0,0,0,-1,545,1751,0,0
-672,-727,0,0,0,0,0,0,0,0,0,-1,552,1751,0,0
-665,-727,0,0,0,0,0,0,0,0,0,-1,559,1751,0,0
-658,-727,0,0,0,0,0,0,0,0,0,-1,566,1751,0,0
-651,-727,0,0,0,0,0,0,0,0,0,-1,573,1751,0,0
-644,-727,0,0,0,0,0,0,0,0,0,-1,580,1751,0,0
-637,-727,0,0,0,0,0,0,0,0,0,-1,587,1751,0,0
-630,-727,0,0,0,0,0,0,0,0,0,-1,594,1751,0,0
-623,-727,0,0,0,0,0,0,0,0,0,-1,601,1751,0,0
-616,-727,0,0,0,0,0,0,0,0,0,-1,608,1751,0,0
-609,-727,0,0,0,0,0,0,0,0,0,-1,615,1751,0,0
-602,-727,0,0,0,0,0,0,0,0,0,-1,622,1751,0,0
-595,-727,0,0,0,0,0,0,0,0,0,-1,629,1751,0,0
-588,-727,0,0,0,0,0,0,0,0,0,-1,636,1751,0,0
-581,-727,0,0,0,0,0,0,0,0,0,-1,643,1751,0,0
-574,-727,0,0,0,0,0,0,0,0,0,-1,650,1751,0,0
-567,-727,0,0,0,0,0,0,0,0,0,-1,657,1751,0,0
-560,-727,0,0,0,0,0,0,0,0,0,-1,664,1751,0,0
-553,-727,0,0,0,0,0,0,0,0,0,-1,671,1751,0,0
-546,-727,0,0,0,0,0,0,0,0,0,-1,678,1751,0,0
-539,-727,0,0,0,0,0,0,0,0,0,-1,685,1751,0,0
-532,-727,0,0,0,0,0,0,0,0,0,-1,692,1751,0,0
-525,-727,0,0,0,0,0,0,0,0,0,-1,699,1751,0,0
-518,-727,0,0,0,0,0,0,0,0,0,-1,706,1751,0,0
-511,-727,0,0,0,0,0,0,0,0,0,-1,713,1751,0,0
-504,-727,0,0,0,0,0,0,0,0,0,-1,720,1751,0,0
-497,-727,0,0,0,0,0,0,0,0,0,-1,727,1751,0,0
-490,-727,0,0,0,0,0,0,0,0,0,-1,734,1751,0,0
-483,-727,0,0,0,0,0,0,0,0,0,-1,741,1751,0,0
-476,-727,0,0,0,0,0,0,0,0,0,-1,748,1751,0,0
-469,-727,0,0,0,0,0,0,0,0,0,-1,755,1751,0,0
-462,-727,0,0,0,0,0,0,0,0,0,-1,762,1751,0,0
-455,-727,0,0,0,0,0,0,0,0,0,-1,769,1751,0,0
-448,-727,0,0,0,0,0,0,0,0,0,-1,776,1751,0,0
-441,-727,0,0,0,0,0,0,0,0,0,-1,783,1751,0,0
-434,-727,0,0,0,0,0,0,0,0,0,-1,790,1751,0,0
-427,-727,0,0,0,0,0,0,0,0,0,-1,797,1751,0,0
-420,-727,0,0,0,0,0,0,0,0,0,-1,804,1751,0,0
-413,-727,0,0,0,0,0,0,0,0,0,-1,811,1751,0,0
-406,-727,0,0,0,0,0,0,0,0,0,-1,818,1751,0,0
-399,-727,0,0,0,0,0,0,0,0,0,-1,825,1751,0,0
-392,-727,0,0,0,0,0,0,0,0,0,-1,832,1751,0,0
-385,-727,0,0,0,0,0,0,0,0,0,-1,839,1751,0,0
-378,-727,0,0,0,0,0,0,0,0,0,-1,846,1751,0,0
-371,-727,0,0,0,0,0,0,0,0,0,-1,853,1751,0,0
-364,-727,0,0,0,0,0,0,0,0,0,-1,860,1751,0,0
-357,-727,0,0,0,0,0,0,0,0,0,-1,867,1751,0,0
-350,-727,0,0,0,0,0,0,0,0,0,-1,874,1751,0,0
-343,-727,0,0,0,0,0,0,0,0,0,-1,881,1751,0,0
-336,-727,0,0,0,0,0,0,0,0,0,-1,888,1751,0,0
-329,-727,0,0,0,0,0,0,0,0,0,-1,895,1751,0,0
-322,-727,0,0,0,0,0,0,0,0,0,-1,902,1751,0,0
-315,-727,0,0,0,0,0,0,0,0,0,-1,909,1751,0,0
-308,-727,0,0,0,0,0,0,0,0,0,-1,916,1751,0,0
-301,-727,0,0,0,0,0,0,0,0,0,-1,923,1751,0,0
-294,-727,0,0,0,0,0,0,0,0,0,-1,930,1751,0,0
-287,-727,0,0,0,0,0,0,0,0,0,-1,937,1751,0,0
-280,-727,0,0,0,0,0,0,0,0,0,-1,944,1751,0,0
-273,-727,0,0,0,0,0,0,0,0,0,-1,951,1751,0,0
-266,-727,4.24805,7.61145,0,0,0,0,0,0,0,-1,958,1751,4.24802,-7.6115
-259,-727,3.65228,5.4082,0,0,0,0,0,0,0,-1,965,1751,3.65229,-5.40818
-252,-727,5.8797,32.9292,0,0,0,0,0,0,0,-1,972,1751,5.87972,-32.9292
-245,-727,6.59198,32.2588,0,0,0,0,0,0,0,-1,979,1751,6.59195,-32.2587
-238,-727,6.6189,30.4597,0,0,0,0,0,0,0,-1,986,1751,6.61889,-30.4598
-231,-727,6.70105,28.9473,0,0,0,0,0,0,0,-1,993,1751,6.70103,-28.9472
-224,-727,7.0614,27.79,0,0,0,0,0,0,0,-1,1000,1751,7.06139,-27.79
-217,-727,4.72937,32.0111,0,0,0,0,0,0,0,-1,1007,1751,4.72935,-32.0111
-210,-727,5.0921,32.4524,0,0,0,0,0,0,0,-1,1014,1751,5.09209,-32.4523
-203,-727,7.72632,29.3203,0,0,0,0,0,0,0,-1,1021,1751,7.72626,-29.3203
-196,-727,8.28052,30.7444,0,0,0,0,0,0,0,-1,1028,1751,8.28049,-30.7444
-189,-727,8.21594,32.4889,0,0,0,0,0,0,0,-1,1035,1751,8.21595,-32.4889
-182,-727,8.09583,34.1484,0,0,0,0,0,0,0,-1,1042,1751,8.09579,-34.1484
-175,-727,8.16882,34.6984,0,0,0,0,0,0,0,-1,1049,1751,8.16878,-34.6984
-168,-727,7.30176,33.8112,0,0,0,0,0,0,0,-1,1056,1751,7.30182,-33.8112
-161,-727,7.47534,34.6329,0,0,0,0,0,0,0,-1,1063,1751,7.47529,-34.6329
-154,-727,8.27283,34.6569,0,0,0,0,0,0,0,-1,1070,1751,8.27283,-34.6569
-147,-727,8.19958,34.7179,-0.00131141,0.00232706,0.00725555,0.00798798,-0.00697232,0.908234,0.00864396,0.0479659,1077,1751,8.19964,-34.7179
-140,-727,8.11633,35.0532,-0.00205094,0.00315158,0.00568351,0.00680083,-0.00570019,1.00001,0.00722678,0.0310006,1084,1751,8.11634,-35.0533
-133,-727,8.18359,35.3662,-0.00278575,0.00363655,0.00423448,0.00573975,-0.00488895,1.1098,0.00614304,0.0218269,1091,1751,8.18363,-35.3663
-126,-727,8.09644,35.6655,-0.00326243,0.00428324,0.00317065,0.00543863,-0.00441781,1.22135,0.00570078,0.0144276,1098,1751,8.09646,-35.6655
-119,-727,8.08423,35.9537,-0.00308583,0.00423348,0.00233443,0.00491464,-0.00376699,1.28689,0.00502692,0.012217,1105,1751,8.0842,-35.9537
-112,-727,8.08093,36.1704,-0.00285097,0.00411861,0.00143855,0.00440386,-0.00313622,1.37505,0.00437373,0.0134657,1112,1751,8.08089,-36.1704
-105,-727,8.03918,36.4067,-0.00261573,0.00425404,0.000864605,0.00436119,-0.00272287,1.4475,0.00412628,0.0127282,1119,1751,8.03913,-36.4068
-98,-727,8.02502,36.6388,-0.00232582,0.00428734,0.000608752,0.00434291,-0.00238139,1.47976,0.00393695,0.0106347,1126,1751,8.02501,-36.6388
-91,-727,8.005,36.8473,-0.00193094,0.00409815,0.000397628,0.00412426,-0.00195706,1.50522,0.00358459,0.0103093,1133,1751,8.00495,-36.8473
-84,-727,7.9707,37.0361,-0.00165978,0.00371406,0.000228935,0.0037238,-0.00166951,1.5283,0.00318823,0.0105898,1140,1751,7.97074,-37.0361
-77,-727,7.9585,37.2434,-0.00125807,0.00349969,0.000276397,0.00351569,-0.00127407,1.51296,0.00286454,0.0117963,1147,1751,7.95855,-37.2435
-70,-727,7.94214,37.4442,-0.0011108,0.00303212,0.000141941,0.00303698,-0.00111566,1.53659,0.00248159,0.0125966,1154,1751,7.94219,-37.4442
-63,-727,7.92371,37.6461,-0.00123352,0.00217759,-1.44864e-06,0.00217759,-0.00123352,-1.57037,0.00199439,0.0101763,1161,1751,7.92366,-37.6461
-56,-727,7.90723,37.8063,-0.00123971,0.00154463,-2.82363e-05,0.00154492,-0.00124,-1.56066,0.00161108,0.0105469,1168,1751,7.90726,-37.8063
-49,-727,7.90552,37.9624,-0.00114176,0.00142325,-2.98245e-06,0.00142326,-0.00114176,-1.56963,0.00148388,0.0147249,1175,1751,7.90555,-37.9624
-42,-727,7.90576,38.1095,-0.00101682,0.000842105,-1.32596e-05,0.0008422,-0.00101692,-1.56366,0.00107494,0.0184043,1182,1751,7.90574,-38.1095
-35,-727,7.88477,38.2433,-0.000879998,0.000225113,-4.32637e-05,0.000226804,-0.000881689,-1.53173,0.000676194,0.0155828,1189,1751,7.88482,-38.2432
-28,-727,7.8866,38.3829,-0.000754748,0.000305729,-0.000103898,0.000315812,-0.000764832,-1.47405,0.000641612,0.00923481,1196,1751,7.88657,-38.3829
-21,-727,7.87512,38.5206,-0.000537945,0.000464137,2.92413e-05,0.000464989,-0.000538797,1.54165,0.000580058,0.0105347,1203,1751,7.87512,-38.5206
-14,-727,7.8667,38.623,-0.000249282,0.000747425,0.000278819,0.00082012,-0.000321976,1.31575,0.000679975,0.0117537,1210,1751,7.86675,-38.6231
-7,-727,7.87195,38.7362,-6.87621e-06,0.00112119,0.000584027,0.00136908,-0.000254767,1.16939,0.00100843,0.0148484,1217,1751,7.87193,-38.7362
0,-727,7.87854,38.8582,0.000126985,0.00156379,0.000942998,0.00203086,-0.000340086,1.11091,0.00148035,0.014024,1224,1751,7.87858,-38.8582
7,-727,7.87476,38.9277,0.000284643,0.0022362,0.00126735,0.0028599,-0.000339058,1.11347,0.00202908,0.0140708,1231,1751,7.87471,-38.9277
14,-727,7.87805,38.9951,0.000501118,0.00294115,0.00150458,0.0036582,-0.000215927,1.12606,0.00251387,0.0144141,1238,1751,7.87803,-38.9951
21,-727,7.86707,39.0757,0.000765021,0.00366898,0.00168945,0.00444467,-1.06648e-05,1.14037,0.00296667,0.0118886,1245,1751,7.86704,-39.0756
28,-727,7.87122,39.1373,0.000978653,0.00420937,0.00179084,0.00500575,0.000182275,1.15236,0.0032781,0.0104588,1252,1751,7.87124,-39.1373
35,-727,7.89111,39.1892,0.00119812,0.00474358,0.00178803,0.00548871,0.000452986,1.17595,0.00351788,0.0113859,1259,1751,7.89108,-39.1892
42,-727,7.87354,39.1953,0.00130297,0.00474836,0.00175159,0.00548244,0.000568884,1.17394,0.00348086,0.0115587,1266,1751,7.87356,-39.1954
49,-727,7.85754,39.2178,0.00131568,0.00474094,0.00161766,0.00538414,0.000672478,1.19235,0.00338759,0.0102349,1273,1751,7.8576,-39.2178
56,-727,7.85474,39.2628,0.00127968,0.00445735,0.00138981,0.00497943,0.000757597,1.21146,0.00309812,0.00896546,1280,1751,7.85473,-39.2628
63,-727,7.86719,39.2715,0.00120981,0.00395333,0.00111711,0.00435065,0.00081249,1.22908,0.00267112,0.0111979,1287,1751,7.86714,-39.2715
70,-727,7.88513,39.2706,0.00112472,0.00320066,0.000925577,0.0035534,0.000771976,1.20669,0.00215813,0.0142063,1294,1751,7.88514,-39.2706
77,-727,7.88306,39.2666,0.000966448,0.00208169,0.00070313,0.00242147,0.000626666,1.12064,0.00145125,0.0164723,1301,1751,7.88303,-39.2666
84,-727,7.89551,39.1855,0.000670231,0.00101079,0.000483198,0.00135284,0.000328188,0.954805,0.000814832,0.0142664,1308,1751,7.89549,-39.1855
91,-727,7.90491,39.1396,0.000358788,1.65317e-05,0.00027037,0.000507636,-0.000132316,0.503254,0.000390083,0.0139907,1315,1751,7.90495,-39.1396
98,-727,7.89026,39.1534,0.00010899,-0.000844506,0.000113093,0.00012222,-0.000857736,0.116456,0.000616615,0.0126666,1322,1751,7.89024,-39.1535
105,-727,7.88574,39.1401,-7.46189e-05,-0.00163859,-2.46503e-05,-7.42304e-05,-0.00163898,-0.0157562,0.00106877,0.0131935,1329,1751,7.88577,-39.1401
112,-727,7.89917,39.0863,-0.000241079,-0.00234428,-5.18336e-05,-0.000239803,-0.00234555,-0.0246252,0.00149021,0.0116453,1336,1751,7.89921,-39.0863
119,-727,7.90894,39.0144,-0.000392052,-0.00278802,-6.79481e-05,-0.000390127,-0.00278995,-0.028329,0.00174452,0.00930277,1343,1751,7.90894,-39.0145
126,-727,7.91663,38.9202,-0.000433551,-0.00294906,-7.70323e-05,-0.000431194,-0.00295142,-0.0305847,0.00184079,0.0104893,1350,1751,7.91667,-38.9201
133,-727,7.91577,38.8422,-0.00036943,-0.00268088,-5.2436e-05,-0.000368241,-0.00268206,-0.0226698,0.00167881,0.0148144,1357,1751,7.91577,-38.8421
140,-727,7.91235,38.7732,-0.000306769,-0.00231323,-9.9276e-06,-0.00030672,-0.00231328,-0.00494764,0.0014508,0.0207098,1364,1751,7.91237,-38.7732
147,-727,7.90674,38.663,-0.00024564,-0.00152325,2.78037e-05,-0.000245035,-0.00152385,0.0217486,0.000944873,0.0177111,1371,1751,7.90671,-38.6629
154,-727,7.89136,38.5112,-0.000273052,-0.00106551,2.36661e-05,-0.000272346,-0.00106621,0.0298288,0.000639655,0.0113794,1378,1751,7.89135,-38.5112
161,-727,7.89258,38.4111,-0.000427176,-0.000585615,-5.13111e-05,-0.00041201,-0.00060078,-0.287381,0.000354753,0.00978489,1385,1751,7.89259,-38.4111
168,-727,7.85657,38.2933,-0.000560462,-3.32175e-05,-0.00021188,4.13757e-05,-0.000635055,-1.23229,0.000437814,0.0127093,1392,1751,7.85656,-38.2933
175,-727,7.854,38.1387,-0.000692423,0.000436026,-0.000536996,0.00065072,-0.000907117,-1.19046,0.00090347,0.0181854,1399,1751,7.85405,-38.1386
182,-727,7.88,37.9893,-0.00100969,0.000945126,-0.000845426,0.00126003,-0.00132459,-1.21424,0.00149239,0.0189643,1406,1751,7.88002,-37.9893
189,-727,7.83008,37.8364,-0.00120896,0.00144763,-0.00108292,0.00183313,-0.00159445,-1.22881,0.00198051,0.0115998,1413,1751,7.8301,-37.8364
196,-727,7.82361,37.6796,-0.00144377,0.00208419,-0.00137148,0.00255462,-0.0019142,-1.24036,0.00258889,0.0129046,1420,1751,7.8236,-37.6796
203,-727,7.81177,37.495,-0.00110107,0.00279933,-0.00155191,0.00334146,-0.00164319,-1.23472,0.00293304,0.0158198,1427,1751,7.81182,-37.4951
210,-727,7.79871,37.318,-0.000410914,0.00361471,-0.00183977,0.00432883,-0.00112504,-1.20054,0.00332496,0.0156853,1434,1751,7.79873,-37.318
217,-727,7.77405,37.131,-4.46442e-05,0.00402817,-0.00211491,0.00492771,-0.000944184,-1.16864,0.00364091,0.0115192,1441,1751,7.774,-37.131
224,-727,7.76428,36.8971,0.000395429,0.00425042,-0.00230308,0.00532616,-0.00068031,-1.13382,0.00379791,0.012062,1448,1751,7.7643,-36.8971
231,-727,7.74133,36.6852,0.000762885,0.00431525,-0.00242035,0.00554122,-0.000463082,-1.10194,0.00385778,0.00992485,1455,1751,7.74138,-36.6851
238,-727,7.72742,36.4863,0.0013972,0.00482179,-0.00227417,0.00595621,0.000262777,-1.10809,0.00388618,0.0102114,1462,1751,7.72739,-36.4863
245,-727,7.70483,36.2931,0.0022409,0.00547648,-0.00213131,0.00653445,0.00118292,-1.11004,0.00402043,0.0100969,1469,1751,7.70485,-36.2931
252,-727,7.68567,36.0568,0.00299768,0.00672567,-0.00195919,0.00756592,0.00215744,-1.16565,0.0045006,0.0110997,1476,1751,7.68564,-36.0567
259,-727,7.69312,35.8203,0.00325354,0.00763991,-0.00148011,0.00809262,0.00280083,-1.27397,0.00474548,0.0143529,1483,1751,7.69318,-35.8203
266,-727,7.67029,35.6322,0.00323926,0.00855106,-0.000650834,0.00862964,0.00316068,-1.45064,0.00504138,0.0195163,1490,1751,7.67029,-35.6322
273,-727,7.73145,35.411,0.0034433,0.0104504,-0.000176331,0.0104549,0.00343887,-1.54565,0.00615277,0.0351645,1497,1751,7.73141,-35.411
280,-727,7.42407,35.1045,0,0,0,0,0,0,0,-1,1504,1751,7.42407,-35.1045
287,-727,7.09082,34.3815,0.00323163,0.0145615,0.00106585,0.0146609,0.00313224,1.47781,0.00891521,0.0499033,1511,1751,7.09078,-34.3815
294,-727,7.26355,34.0708,0.00293788,0.0174116,0.00155912,0.0175776,0.00277183,1.4647,0.0109124,0.0469456,1518,1751,7.26349,-34.0708
301,-727,7.44006,33.6511,0.00254764,0.0202631,0.00190871,0.0204664,0.00234432,1.46468,0.0129338,0.0496003,1525,1751,7.44001,-33.6511
308,-727,6.98706,34.3253,0,0,0,0,0,0,0,-1,1532,1751,6.98712,-34.3254
315,-727,6.43359,34.0697,0,0,0,0,0,0,0,-1,1539,1751,6.43355,-34.0697
322,-727,6.15845,33.5527,0,0,0,0,0,0,0,-1,1546,1751,6.15843,-33.5528
329,-727,5.54419,31.0325,0,0,0,0,0,0,0,-1,1553,1751,5.54425,-31.0325
336,-727,5.55823,20.2439,0,0,0,0,0,0,0,-1,1560,1751,5.55829,-20.2438
343,-727,2.41699,8.72095,0,0,0,0,0,0,0,-1,1567,1751,2.41702,-8.72098
350,-727,3.89783,7.50195,0,0,0,0,0,0,0,-1,1574,1751,3.89782,-7.50193
357,-727,4.48462,10.2948,0,0,0,0,0,0,0,-1,1581,1751,4.48464,-10.2948
364,-727,6.96729,17.2365,0,0,0,0,0,0,0,-1,1588,1751,6.96732,-17.2365
371,-727,5.04565,23.2227,0,0,0,0,0,0,0,-1,1595,1751,5.04564,-23.2227
378,-727,4.56726,23.0574,0,0,0,0,0,0,0,-1,1602,1751,4.56727,-23.0574
385,-727,3.52307,22.6431,0,0,0,0,0,0,0,-1,1609,1751,3.52303,-22.643
392,-727,0,0,0,0,0,0,0,0,0,-1,1616,1751,0,0
399,-727,0,0,0,0,0,0,0,0,0,-1,1623,1751,0,0
406,-727,0,0,0,0,0,0,0,0,0,-1,1630,1751,0,0
413,-727,0,0,0,0,0,0,0,0,0,-1,1637,1751,0,0
420,-727,0,0,0,0,0,0,0,0,0,-1,1644,1751,0,0
427,-727,0,0,0,0,0,0,0,0,0,-1,1651,1751,0,0
434,-727,0,0,0,0,0,0,0,0,0,-1,1658,1751,0,0
441,-727,0,0,0,0,0,0,0,0,0,-1,1665,1751,0,0
448,-727,0,0,0,0,0,0,0,0,0,-1,1672,1751,0,0
455,-727,0,0,0,0,0,0,0,0,0,-1,1679,1751,0,0
462,-727,0,0,0,0,0,0,0,0,0,-1,1686,1751,0,0
469,-727,0,0,0,0,0,0,0,0,0,-1,1693,1751,0,0
476,-727,0,0,0,0,0,0,0,0,0,-1,1700,1751,0,0
483,-727,0,0,0,0,0,0,0,0,0,-1,1707,1751,0,0
490,-727,0,0,0,0,0,0,0,0,0,-1,1714,1751,0,0
497,-727,0,0,0,0,0,0,0,0,0,-1,1721,1751,0,0
504,-727,0,0,0,0,0,0,0,0,0,-1,1728,1751,0,0
511,-727,0,0,0,0,0,0,0,0,0,-1,1735,1751,0,0
518,-727,0,0,0,0,0,0,0,0,0,-1,1742,1751,0,0
525,-727,0,0,0,0,0,0,0,0,0,-1,1749,1751,0,0
532,-727,0,0,0,0,0,0,0,0,0,-1,1756,1751,0,0
539,-727,0,0,0,0,0,0,0,0,0,-1,1763,1751,0,0
546,-727,0,0,0,0,0,0,0,0,0,-1,1770,1751,0,0
553,-727,0,0,0,0,0,0,0,0,0,-1,1777,1751,0,0
560,-727,0,0,0,0,0,0,0,0,0,-1,1784,1751,0,0
567,-727,0,0,0,0,0,0,0,0,0,-1,1791,1751,0,0
574,-727,0,0,0,0,0,0,0,0,0,-1,1798,1751,0,0
581,-727,0,0,0,0,0,0,0,0,0,-1,1805,1751,0,0
588,-727,0,0,0,0,0,0,0,0,0,-1,1812,1751,0,0
595,-727,0,0,0,0,0,0,0,0,0,-1,1819,1751,0,0
602,-727,0,0,0,0,0,0,0,0,0,-1,1826,1751,0,0
609,-727,0,0,0,0,0,0,0,0,0,-1,1833,1751,0,0
616,-727,0,0,0,0,0,0,0,0,0,-1,1840,1751,0,0
623,-727,0,0,0,0,0,0,0,0,0,-1,1847,1751,0,0
630,-727,0,0,0,0,0,0,0,0,0,-1,1854,1751,0,0
637,-727,0,0,0,0,0,0,0,0,0,-1,1861,1751,0,0
644,-727,0,0,0,0,0,0,0,0,0,-1,1868,1751,0,0
651,-727,0,0,0,0,0,0,0,0,0,-1,1875,1751,0,0
658,-727,0,0,0,0,0,0,0,0,0,-1,1882,1751,0,0
665,-727,0,0,0,0,0,0,0,0,0,-1,1889,1751,0,0
672,-727,0,0,0,0,0,0,0,0,0,-1,1896,1751,0,0
679,-727,0,0,0,0,0,0,0,0,0,-1,1903,1751,0,0
686,-727,0,0,0,0,0,0,0,0,0,-1,1910,1751,0,0
693,-727,0,0,0,0,0,0,0,0,0,-1,1917,1751,0,0
700,-727,0,0,0,0,0,0,0,0,0,-1,1924,1751,0,0
707,-727,0,0,0,0,0,0,0,0,0,-1,1931,1751,0,0
714,-727,0,0,0,0,0,0,0,0,0,-1,1938,1751,0,0
721,-727,0,0,0,0,0,0,0,0,0,-1,1945,1751,0,0
728,-727,0,0,0,0,0,0,0,0,0,-1,1952,1751,0,0
735,-727,0,0,0,0,0,0,0,0,0,-1,1959,1751,0,0
742,-727,0,0,0,0,0,0,0,0,0,-1,1966,1751,0,0
749,-727,0,0,0,0,0,0,0,0,0,-1,1973,1751,0,0
756,-727,0,0,0,0,0,0,0,0,0,-1,1980,1751,0,0
763,-727,0,0,0,0,0,0,0,0,0,-1,1987,1751,0,0
770,-727,0,0,0,0,0,0,0,0,0,-1,1994,1751,0,0
777,-727,0,0,0,0,0,0,0,0,0,-1,2001,1751,0,0
784,-727,0,0,0,0,0,0,0,0,0,-1,2008,1751,0,0
791,-727,0,0,0,0,0,0,0,0,0,-1,2015,1751,0,0
798,-727,0,0,0,0,0,0,0,0,0,-1,2022,1751,0,0
805,-727,0,0,0,0,0,0,0,0,0,-1,2029,1751,0,0
812,-727,0,0,0,0,0,0,0,0,0,-1,2036,1751,0,0
-700,-734,0,0,0,0,0,0,0,0,0,-1,524,1758,0,0
-693,-734,0,0,0,0,0,0,0,0,0,-1,531,1758,0,0
-686,-734,0,0,0,0,0,0,0,0,0,-1,538,1758,0,0
-679,-734,0,0,0,0,0,0,0,0,0,-1,545,1758,0,0
-672,-734,0,0,0,0,0,0,0,0,0,-1,552,1758,0,0
-665,-734,0,0,0,0,0,0,0,0,0,-1,559,1758,0,0
-658,-734,0,0,0,0,0,0,0,0,0,-1,566,1758,0,0
-651,-734,0,0,0,0,0,0,0,0,0,-1,573,1758,0,0
-644,-734,0,0,0,0,0,0,0,0,0,-1,580,1758,0,0
-637,-734,0,0,0,0,0,0,0,0,0,-1,587,1758,0,0
-630,-734,0,0,0,0,0,0,0,0,0,-1,594,1758,0,0
-623,-734,0,0,0,0,0,0,0,0,0,-1,601,1758,0,0
-616,-734,0,0,0,0,0,0,0,0,0,-1,608,1758,0,0
-609,-734,0,0,0,0,0,0,0,0,0,-1,615,1758,0,0
-602,-734,0,0,0,0,0,0,0,0,0,-1,622,1758,0,0
-595,-734,0,0,0,0,0,0,0,0,0,-1,629,1758,0,0
-588,-734,0,0,0,0,0,0,0,0,0,-1,636,1758,0,0
-581,-734,0,0,0,0,0,0,0,0,0,-1,643,1758,0,0
-574,-734,0,0,0,0,0,0,0,0,0,-1,650,1758,0,0
-567,-734,0,0,0,0,0,0,0,0,0,-1,657,1758,0,0
-560,-734,0,0,0,0,0,0,0,0,0,-1,664,1758,0,0
-553,-734,0,0,0,0,0,0,0,0,0,-1,671,1758,0,0
-546,-734,0,0,0,0,0,0,0,0,0,-1,678,1758,0,0
-539,-734,0,0,0,0,0,0,0,0,0,-1,685,1758,0,0
-532,-734,0,0,0,0,0,0,0,0,0,-1,692,1758,0,0
-525,-734,0,0,0,0,0,0,0,0,0,-1,699,1758,0,0
-518,-734,0,0,0,0,0,0,0,0,0,-1,706,1758,0,0
-511,-734,0,0,0,0,0,0,0,0,0,-1,713,1758,0,0
-504,-734,0,0,0,0,0,0,0,0,0,-1,720,1758,0,0
-497,-734,0,0,0,0,0,0,0,0,0,-1,727,1758,0,0
-490,-734,0,0,0,0,0,0,0,0,0,-1,734,1758,0,0
-483,-734,0,0,0,0,0,0,0,0,0,-1,741,1758,0,0
-476,-734,0,0,0,0,0,0,0,0,0,-1,748,1758,0,0
-469,-734,0,0,0,0,0,0,0,0,0,-1,755,1758,0,0
-462,-734,0,0,0,0,0,0,0,0,0,-1,762,1758,0,0
-455,-734,0,0,0,0,0,0,0,0,0,-1,769,1758,0,0
-448,-734,0,0,0,0,0,0,0,0,0,-1,776,1758,0,0
-441,-734,0,0,0,0,0,0,0,0,0,-1,783,1758,0,0
-434,-734,0,0,0,0,0,0,0,0,0,-1,790,1758,0,0
-427,-734,0,0,0,0,0,0,0,0,0,-1,797,1758,0,0
-420,-734,0,0,0,0,0,0,0,0,0,-1,804,1758,0,0
-413,-734,0,0,0,0,0,0,0,0,0,-1,811,1758,0,0
-406,-734,0,0,0,0,0,0,0,0,0,-1,818,1758,0,0
-399,-734,0,0,0,0,0,0,0,0,0,-1,825,1758,0,0
-392,-734,0,0,0,0,0,0,0,0,0,-1,832,1758,0,0
-385,-734,0,0,0,0,0,0,0,0,0,-1,839,1758,0,0
-378,-734,0,0,0,0,0,0,0,0,0,-1,846,1758,0,0
-371,-734,0,0,0,0,0,0,0,0,0,-1,853,1758,0,0
-364,-734,0,0,0,0,0,0,0,0,0,-1,860,1758,0,0
-357,-734,0,0,0,0,0,0,0,0,0,-1,867,1758,0,0
-350,-734,0,0,0,0,0,0,0,0,0,-1,874,1758,0,0
-343,-734,0,0,0,0,0,0,0,0,0,-1,881,1758,0,0
-336,-734,0,0,0,0,0,0,0,0,0,-1,888,1758,0,0
-329,-734,0,0,0,0,0,0,0,0,0,-1,895,1758,0,0
-322,-734,0,0,0,0,0,0,0,0,0,-1,902,1758,0,0
-315,-734,0,0,0,0,0,0,0,0,0,-1,909,1758,0,0
-308,-734,0,0,0,0,0,0,0,0,0,-1,916,1758,0,0
-301,-734,0,0,0,0,0,0,0,0,0,-1,923,1758,0,0
-294,-734,0,0,0,0,0,0,0,0,0,-1,930,1758,0,0
-287,-734,0,0,0,0,0,0,0,0,0,-1,937,1758,0,0
-280,-734,0,0,0,0,0,0,0,0,0,-1,944,1758,0,0
-273,-734,0,0,0,0,0,0,0,0,0,-1,951,1758,0,0
-266,-734,0,0,0,0,0,0,0,0,0,-1,958,1758,0,0
-259,-734,0,0,0,0,0,0,0,0,0,-1,965,1758,0,0
-252,-734,5.73883,31.5245,0,0,0,0,0,0,0,-1,972,1758,5.73884,-31.5246
-245,-734,6.32513,30.9761,0,0,0,0,0,0,0,-1,979,1758,6.32511,-30.9761
-238,-734,6.82385,30.0449,0,0,0,0,0,0,0,-1,986,1758,6.82387,-30.0449
-231,-734,7.1958,29.1666,0,0,0,0,0,0,0,-1,993,1758,7.19578,-29.1666
-224,-734,7.36169,28.5652,0,0,0,0,0,0,0,-1,1000,1758,7.36172,-28.5651
-217,-734,7.45984,28.4386,0,0,0,0,0,0,0,-1,1007,1758,7.45986,-28.4386
-210,-734,7.45483,28.4388,0,0,0,0,0,0,0,-1,1014,1758,7.45482,-28.4388
-203,-734,7.93079,29.6151,0,0,0,0,0,0,0,-1,1021,1758,7.93076,-29.6151
-196,-734,8.34253,30.8267,0,0,0,0,0,0,0,-1,1028,1758,8.34258,-30.8266
-189,-734,8.72375,32.4082,0,0,0,0,0,0,0,-1,1035,1758,8.7237,-32.4082
-182,-734,9.13208,33.4539,0,0,0,0,0,0,0,-1,1042,1758,9.13203,-33.4539
-175,-734,9.48938,34.4182,0,0,0,0,0,0,0,-1,1049,1758,9.48936,-34.4182
-168,-734,7.13196,33.7797,0,0,0,0,0,0,0,-1,1056,1758,7.132,-33.7797
-161,-734,9.45959,33.5569,0,0,0,0,0,0,0,-1,1063,1758,9.45965,-33.5569
-154,-734,8.91858,34.597,0,0,0,0,0,0,0,-1,1070,1758,8.91854,-34.597
-147,-734,8.5321,34.9442,0,0,0,0,0,0,0,-1,1077,1758,8.53213,-34.9442
-140,-734,8.4198,35.0157,0,0,0,0,0,0,0,-1,1084,1758,8.41976,-35.0158
-133,-734,8.48096,35.3945,-0.00388856,0.00577808,0.00547811,0.00825028,-0.00636076,1.14687,0.00845917,0.0447238,1091,1758,8.48097,-35.3945
-126,-734,8.28284,35.6195,-0.00446447,0.00654641,0.00406157,0.00788248,-0.00580054,1.25299,0.00793032,0.0360469,1098,1758,8.28283,-35.6195
-119,-734,8.24597,35.9207,-0.00422635,0.0064185,0.00292327,0.00716845,-0.0049763,1.31967,0.00704975,0.037147,1105,1758,8.24597,-35.9207
-112,-734,8.25806,36.152,-0.00391108,0.00632304,0.00177575,0.0066224,-0.00421044,1.40378,0.00630581,0.0369907,1112,1758,8.25805,-36.152
-105,-734,8.23926,36.387,-0.00361752,0.00653009,0.00105907,0.00663944,-0.00372687,1.46791,0.00606322,0.0274721,1119,1758,8.23926,-36.3869
-98,-734,8.25818,36.5117,-0.00328133,0.00657491,0.000698033,0.0066241,-0.00333052,1.50044,0.00585122,0.0324875,1126,1758,8.25815,-36.5117
-91,-734,8.29553,36.6333,-0.00283539,0.0063022,0.000392123,0.006319,-0.00285218,1.52799,0.00541962,0.048168,1133,1758,8.29551,-36.6333
-84,-734,8.16406,37.0337,0,0,0,0,0,0,0,-1,1140,1758,8.16412,-37.0337
-77,-734,8.14929,37.2372,0,0,0,0,0,0,0,-1,1147,1758,8.1493,-37.2372
-70,-734,8.14685,37.4491,0,0,0,0,0,0,0,-1,1154,1758,8.1468,-37.4491
-63,-734,8.09998,37.5881,-0.00246967,0.0040748,-0.000205874,0.00408127,-0.00247614,-1.53938,0.00382354,0.027365,1161,1758,8.09997,-37.5881
-56,-734,8.07153,37.7477,-0.00271448,0.00409733,-0.000202207,0.00410333,-0.00272047,-1.54115,0.0039666,0.0167945,1168,1758,8.07151,-37.7476
-49,-734,8.0498,37.9603,-0.00266297,0.00480122,-3.38079e-05,0.00480137,-0.00266312,-1.56627,0.00436817,0.0131896,1175,1758,8.04979,-37.9604
-42,-734,8.02747,38.1195,-0.00270925,0.00442096,0.000236485,0.0044288,-0.00271708,1.53768,0.00416494,0.0142004,1182,1758,8.02747,-38.1195
-35,-734,8.02209,38.2502,-0.00286897,0.00361846,0.000305765,0.00363284,-0.00288335,1.5238,0.00377041,0.0139367,1189,1758,8.02212,-38.2502
-28,-734,8.01831,38.3798,-0.00294031,0.003536,0.000157686,0.00353984,-0.00294415,1.54647,0.00374879,0.00979156,1196,1758,8.0183,-38.3797
-21,-734,8.04236,38.5011,-0.00284026,0.00349637,0.000255355,0.00350665,-0.00285053,1.53059,0.00367683,0.0153144,1203,1758,8.04238,-38.5011
-14,-734,7.99475,38.6296,-0.0026626,0.00348119,0.000490166,0.00352005,-0.00270146,1.49168,0.00360234,0.0158534,1210,1758,7.99474,-38.6297
-7,-734,7.98145,38.7295,-0.00249061,0.00347984,0.000754029,0.00357359,-0.00258436,1.44709,0.00357056,0.0181256,1217,1758,7.98147,-38.7295
0,-734,7.9696,38.8346,-0.00240774,0.00357812,0.000886921,0.00370677,-0.00253639,1.42675,0.00362554,0.0173682,1224,1758,7.96965,-38.8346
7,-734,7.94849,38.933,-0.00216514,0.00401106,0.00103857,0.00418103,-0.00233511,1.40858,0.00381208,0.012792,1231,1758,7.94847,-38.933
14,-734,7.93372,39.0166,-0.00176231,0.0045029,0.00116071,0.00471102,-0.00197043,1.39337,0.00396423,0.0127604,1238,1758,7.93369,-39.0166
21,-734,7.90112,39.0723,-0.00127526,0.00511608,0.00121334,0.00533867,-0.00149785,1.38936,0.00414951,0.0108037,1245,1758,7.90112,-39.0723
28,-734,7.89587,39.1304,-0.000822799,0.00554703,0.00120257,0.0057665,-0.00104227,1.39028,0.00423473,0.0105045,1252,1758,7.89592,-39.1304
35,-734,7.91492,39.1885,0.000394759,0.00588104,0.00137605,0.00620683,6.897e-05,1.33832,0.00411509,0.0131905,1259,1758,7.91488,-39.1885
42,-734,7.92017,39.1981,0.00148628,0.00547676,0.00149989,0.00597765,0.000985388,1.24849,0.00370063,0.0114849,1266,1758,7.92022,-39.1981
49,-734,7.89417,39.2185,0.00231871,0.00537786,0.00154157,0.00601993,0.00167664,1.17614,0.00358748,0.0098162,1273,1758,7.89411,-39.2184
56,-734,7.86841,39.2606,0.00314063,0.00500615,0.0015499,0.00588232,0.00226446,1.05628,0.00342599,0.00909449,1280,1758,7.86837,-39.2606
63,-734,7.86951,39.2639,0.00389555,0.0042991,0.00155035,0.00566075,0.0025339,0.850107,0.0032742,0.0121112,1287,1758,7.86952,-39.2639
70,-734,7.86707,39.27,0.00459144,0.00347505,0.00163185,0.00575792,0.00230857,0.620605,0.00334601,0.0132376,1294,1758,7.86705,-39.27
77,-734,7.86572,39.2831,0.0050968,0.00226169,0.00170958,0.00590009,0.0014584,0.439256,0.0035486,0.0176453,1301,1758,7.86574,-39.283
84,-734,7.86804,39.2313,0.0051539,0.00102771,0.00169292,0.00575957,0.000422036,0.343579,0.00370705,0.0158909,1308,1758,7.86799,-39.2313
91,-734,7.87927,39.191,0.00495512,-7.39815e-05,0.00158801,0.00541458,-0.000533443,0.28164,0.00380004,0.0163273,1315,1758,7.87933,-39.1911
98,-734,7.8634,39.1722,0.00457068,-0.000955578,0.00147187,0.00493825,-0.00132315,0.244725,0.00381057,0.0131102,1322,1758,7.86345,-39.1722
105,-734,7.84729,39.137,0.00406324,-0.00181129,0.00141157,0.00438482,-0.00213286,0.223992,0.00383713,0.0149443,1329,1758,7.84735,-39.1369
112,-734,7.85278,39.0768,0.0033274,-0.00262392,0.00127965,0.00359089,-0.00288741,0.203065,0.00374759,0.0134933,1336,1758,7.85282,-39.0768
119,-734,7.84229,38.9946,0.00245779,-0.00306689,0.00104088,0.00264739,-0.0032565,0.180179,0.00341465,0.0141266,1343,1758,7.84226,-38.9946
126,-734,7.84229,38.8936,0.00166994,-0.00319593,0.00082529,0.00180611,-0.00333209,0.163518,0.00300983,0.0157693,1350,1758,7.84228,-38.8935
133,-734,7.82434,38.8113,0.000992443,-0.0027278,0.000612223,0.0010906,-0.00282596,0.158982,0.00233405,0.0142478,1357,1758,7.82434,-38.8113
140,-734,7.80493,38.7375,-0.000361174,-0.0020904,0.000181672,-0.000342294,-0.00210928,0.103554,0.00130711,0.0179821,1364,1758,7.8049,-38.7376
147,-734,7.78882,38.6361,-0.00101732,-0.000837354,-2.03852e-06,-0.000837331,-0.00101735,-1.55947,0.000626901,0.0136918,1371,1758,7.7888,-38.6361
154,-734,7.76514,38.5345,-0.00115332,-0.000724483,-8.61927e-05,-0.000707808,-0.00116999,-1.37969,0.00068044,0.0100577,1378,1758,7.7652,-38.5345
161,-734,7.76648,38.4183,-0.00141812,-0.000613355,-0.000211472,-0.00056117,-0.00147031,-1.32886,0.000856769,0.0093263,1385,1758,7.76648,-38.4183
168,-734,7.71936,38.2786,-0.00159543,0.000130948,-0.000477672,0.000254301,-0.00171878,-1.31808,0.00123935,0.0146171,1392,1758,7.7193,-38.2786
175,-734,7.69714,38.1427,-0.00173993,0.000561157,-0.000950288,0.00090286,-0.00208163,-1.22561,0.00176733,0.0180947,1399,1758,7.6972,-38.1427
182,-734,7.72974,37.9828,-0.00201874,0.00117043,-0.00136772,0.00167665,-0.00252495,-1.21632,0.00244222,0.0153371,1406,1758,7.72976,-37.9828
189,-734,7.69043,37.8347,-0.00218842,0.00184522,-0.0016401,0.00242791,-0.00277112,-1.22942,0.00300384,0.0109555,1413,1758,7.69042,-37.8347
196,-734,7.66003,37.6836,-0.00247045,0.00273698,-0.00197567,0.00340169,-0.00313516,-1.24624,0.0037751,0.0140383,1420,1758,7.65999,-37.6835
203,-734,7.65967,37.4812,-0.00190184,0.003689,-0.00215399,0.00442261,-0.00263545,-1.24254,0.00411829,0.0192812,1427,1758,7.65972,-37.4812
210,-734,7.67212,37.2782,-0.000726009,0.00486925,-0.00250651,0.00582786,-0.00168462,-1.20551,0.0045519,0.0287261,1434,1758,7.67209,-37.2782
217,-734,7.6145,37.0989,-3.99856e-05,0.00547648,-0.00283614,0.00667446,-0.00123796,-1.17113,0.00491454,0.0327499,1441,1758,7.61445,-37.0988
224,-734,7.71094,36.6815,0.000687267,0.00584491,-0.00301909,0.00723663,-0.000704459,-1.13885,0.00507557,0.039956,1448,1758,7.71089,-36.6815
231,-734,7.6123,36.547,0.00132628,0.00599242,-0.0031295,0.0075628,-0.000244109,-1.10571,0.00512518,0.0339293,1455,1758,7.61236,-36.547
238,-734,7.47583,36.4738,0.00228597,0.00660315,-0.00294976,0.00809977,0.000789338,-1.10127,0.00515691,0.0265276,1462,1758,7.47583,-36.4738
245,-734,7.49902,36.2289,0.00349395,0.00736159,-0.00276909,0.00880527,0.00205027,-1.09021,0.00532012,0.0269082,1469,1758,7.49905,-36.2289
252,-734,7.53528,35.9828,0.00461342,0.00885253,-0.0025486,0.0100478,0.00341818,-1.13227,0.00589903,0.0304841,1476,1758,7.53522,-35.9828
259,-734,7.64905,35.8599,0.00514349,0.0100193,-0.00195662,0.0107074,0.00445541,-1.23264,0.00621083,0.0370744,1483,1758,7.649,-35.8599
266,-734,7.60266,35.6915,0.00532502,0.0112414,-0.000928401,0.0113837,0.00518276,-1.41874,0.00658114,0.0458782,1490,1758,7.60262,-35.6916
273,-734,7.62744,35.5901,0,0,0,0,0,0,0,-1,1497,1758,7.62749,-35.5901
280,-734,5.95288,32.8356,0,0,0,0,0,0,0,-1,1504,1758,5.95285,-32.8356
287,-734,6.45056,34.1005,0,0,0,0,0,0,0,-1,1511,1758,6.4505,-34.1004
294,-734,6.79333,33.9246,0,0,0,0,0,0,0,-1,1518,1758,6.7934,-33.9245
301,-734,6.92224,33.4891,0,0,0,0,0,0,0,-1,1525,1758,6.92223,-33.4891
308,-734,5.22681,34.1436,0,0,0,0,0,0,0,-1,1532,1758,5.22678,-34.1436
315,-734,5.82043,34.0148,0,0,0,0,0,0,0,-1,1539,1758,5.82041,-34.0148
322,-734,5.74854,28.3324,0,0,0,0,0,0,0,-1,1546,1758,5.74854,-28.3324
329,-734,5.45972,12.4125,0,0,0,0,0,0,0,-1,1553,1758,5.45969,-12.4125
336,-734,5.92188,13.8751,0,0,0,0,0,0,0,-1,1560,1758,5.92183,-13.8751
343,-734,5.54968,5.14221,0,0,0,0,0,0,0,-1,1567,1758,5.54973,-5.14225
350,-734,5.07397,6.73242,0,0,0,0,0,0,0,-1,1574,1758,5.07402,-6.73243
357,-734,5.05542,7.19189,0,0,0,0,0,0,0,-1,1581,1758,5.05541,-7.19184
364,-734,4.43896,10.4904,0,0,0,0,0,0,0,-1,1588,1758,4.43893,-10.4904
371,-734,7.36975,17.4751,0,0,0,0,0,0,0,-1,1595,1758,7.36972,-17.4752
378,-734,0,0,0,0,0,0,0,0,0,-1,1602,1758,0,0
385,-734,0,0,0,0,0,0,0,0,0,-1,1609,1758,0,0
392,-734,0,0,0,0,0,0,0,0,0,-1,1616,1758,0,0
399,-734,0,0,0,0,0,0,0,0,0,-1,1623,1758,0,0
406,-734,0,0,0,0,0,0,0,0,0,-1,1630,1758,0,0
413,-734,0,0,0,0,0,0,0,0,0,-1,1637,1758,0,0
420,-734,0,0,0,0,0,0,0,0,0,-1,1644,1758,0,0
427,-734,0,0,0,0,0,0,0,0,0,-1,1651,1758,0,0
434,-734,0,0,0,0,0,0,0,0,0,-1,1658,1758,0,0
441,-734,0,0,0,0,0,0,0,0,0,-1,1665,1758,0,0
448,-734,0,0,0,0,0,0,0,0,0,-1,1672,1758,0,0
455,-734,0,0,0,0,0,0,0,0,0,-1,1679,1758,0,0
462,-734,0,0,0,0,0,0,0,0,0,-1,1686,1758,0,0
469,-734,0,0,0,0,0,0,0,0,0,-1,1693,1758,0,0
476,-734,0,0,0,0,0,0,0,0,0,-1,1700,1758,0,0
483,-734,0,0,0,0,0,0,0,0,0,-1,1707,1758,0,0
490,-734,0,0,0,0,0,0,0,0,0,-1,1714,1758,0,0
497,-734,0,0,0,0,0,0,0,0,0,-1,1721,1758,0,0
504,-734,0,0,0,0,0,0,0,0,0,-1,1728,1758,0,0
511,-734,0,0,0,0,0,0,0,0,0,-1,1735,1758,0,0
518,-734,0,0,0,0,0,0,0,0,0,-1,1742,1758,0,0
525,-734,0,0,0,0,0,0,0,0,0,-1,1749,1758,0,0
532,-734,0,0,0,0,0,0,0,0,0,-1,1756,1758,0,0
539,-734,0,0,0,0,0,0,0,0,0,-1,1763,1758,0,0
546,-734,0,0,0,0,0,0,0,0,0,-1,1770,1758,0,0
553,-734,0,0,0,0,0,0,0,0,0,-1,1777,1758,0,0
560,-734,0,0,0,0,0,0,0,0,0,-1,1784,1758,0,0
567,-734,0,0,0,0,0,0,0,0,0,-1,1791,1758,0,0
574,-734,0,0,0,0,0,0,0,0,0,-1,1798,1758,0,0
581,-734,0,0,0,0,0,0,0,0,0,-1,1805,1758,0,0
588,-734,0,0,0,0,0,0,0,0,0,-1,1812,1758,0,0
595,-734,0,0,0,0,0,0,0,0,0,-1,1819,1758,0,0
602,-734,0,0,0,0,0,0,0,0,0,-1,1826,1758,0,0
609,-734,0,0,0,0,0,0,0,0,0,-1,1833,1758,0,0
616,-734,0,0,0,0,0,0,0,0,0,-1,1840,1758,0,0
623,-734,0,0,0,0,0,0,0,0,0,-1,1847,1758,0,0
630,-734,0,0,0,0,0,0,0,0,0,-1,1854,1758,0,0
637,-734,0,0,0,0,0,0,0,0,0,-1,1861,1758,0,0
644,-734,0,0,0,0,0,0,0,0,0,-1,1868,1758,0,0
651,-734,0,0,0,0,0,0,0,0,0,-1,1875,1758,0,0
658,-734,0,0,0,0,0,0,0,0,0,-1,1882,1758,0,0
665,-734,0,0,0,0,0,0,0,0,0,-1,1889,1758,0,0
672,-734,0,0,0,0,0,0,0,0,0,-1,1896,1758,0,0
679,-734,0,0,0,0,0,0,0,0,0,-1,1903,1758,0,0
686,-734,0,0,0,0,0,0,0,0,0,-1,1910,1758,0,0
693,-734,0,0,0,0,0,0,0,0,0,-1,1917,1758,0,0
700,-734,0,0,0,0,0,0,0,0,0,-1,1924,1758,0,0
707,-734,0,0,0,0,0,0,0,0,0,-1,1931,1758,0,0
714,-734,0,0,0,0,0,0,0,0,0,-1,1938,1758,0,0
721,-734,0,0,0,0,0,0,0,0,0,-1,1945,1758,0,0
728,-734,0,0,0,0,0,0,0,0,0,-1,1952,1758,0,0
735,-734,0,0,0,0,0,0,0,0,0,-1,1959,1758,0,0
742,-734,0,0,0,0,0,0,0,0,0,-1,1966,1758,0,0
749,-734,0,0,0,0,0,0,0,0,0,-1,1973,1758,0,0
756,-734,0,0,0,0,0,0,0,0,0,-1,1980,1758,0,0
763,-734,0,0,0,0,0,0,0,0,0,-1,1987,1758,0,0
770,-734,0,0,0,0,0,0,0,0,0,-1,1994,1758,0,0
777,-734,0,0,0,0,0,0,0,0,0,-1,2001,1758,0,0
784,-734,0,0,0,0,0,0,0,0,0,-1,2008,1758,0,0
791,-734,0,0,0,0,0,0,0,0,0,-1,2015,1758,0,0
798,-734,0,0,0,0,0,0,0,0,0,-1,2022,1758,0,0
805,-734,0,0,0,0,0,0,0,0,0,-1,2029,1758,0,0
812,-734,0,0,0,0,0,0,0,0,0,-1,2036,1758,0,0
-700,-741,0,0,0,0,0,0,0,0,0,-1,524,1765,0,0
-693,-741,0,0,0,0,0,0,0,0,0,-1,531,1765,0,0
-686,-741,0,0,0,0,0,0,0,0,0,-1,538,1765,0,0
-679,-741,0,0,0,0,0,0,0,0,0,-1,545,1765,0,0
-672,-741,0,0,0,0,0,0,0,0,0,-1,552,1765,0,0
-665,-741,0,0,0,0,0,0,0,0,0,-1,559,1765,0,0
-658,-741,0,0,0,0,0,0,0,0,0,-1,566,1765,0,0
-651,-741,0,0,0,0,0,0,0,0,0,-1,573,1765,0,0
-644,-741,0,0,0,0,0,0,0,0,0,-1,580,1765,0,0
-637,-741,0,0,0,0,0,0,0,0,0,-1,587,1765,0,0
-630,-741,0,0,0,0,0,0,0,0,0,-1,594,1765,0,0
-623,-741,0,0,0,0,0,0,0,0,0,-1,601,1765,0,0
-616,-741,0,0,0,0,0,0,0,0,0,-1,608,1765,0,0
-609,-741,0,0,0,0,0,0,0,0,0,-1,615,1765,0,0
-602,-741,0,0,0,0,0,0,0,0,0,-1,622,1765,0,0
-595,-741,0,0,0,0,0,0,0,0,0,-1,629,1765,0,0
-588,-741,0,0,0,0,0,0,0,0,0,-1,636,1765,0,0
-581,-741,0,0,0,0,0,0,0,0,0,-1,643,1765,0,0
-574,-741,0,0,0,0,0,0,0,0,0,-1,650,1765,0,0
-567,-741,0,0,0,0,0,0,0,0,0,-1,657,1765,0,0
-560,-741,0,0,0,0,0,0,0,0,0,-1,664,1765,0,0
-553,-741,0,0,0,0,0,0,0,0,0,-1,671,1765,0,0
-546,-741,0,0,0,0,0,0,0,0,0,-1,678,1765,0,0
-539,-741,0,0,0,0,0,0,0,0,0,-1,685,1765,0,0
-532,-741,0,0,0,0,0,0,0,0,0,-1,692,1765,0,0
-525,-741,0,0,0,0,0,0,0,0,0,-1,699,1765,0,0
-518,-741,0,0,0,0,0,0,0,0,0,-1,706,1765,0,0
-511,-741,0,0,0,0,0,0,0,0,0,-1,713,1765,0,0
-504,-741,0,0,0,0,0,0,0,0,0,-1,720,1765,0,0
-497,-741,0,0,0,0,0,0,0,0,0,-1,727,1765,0,0
-490,-741,0,0,0,0,0,0,0,0,0,-1,734,1765,0,0
-483,-741,0,0,0,0,0,0,0,0,0,-1,741,1765,0,0
-476,-741,0,0,0,0,0,0,0,0,0,-1,748,1765,0,0
-469,-741,0,0,0,0,0,0,0,0,0,-1,755,1765,0,0
-462,-741,0,0,0,0,0,0,0,0,0,-1,762,1765,0,0
-455,-741,0,0,0,0,0,0,0,0,0,-1,769,1765,0,0
-448,-741,0,0,0,0,0,0,0,0,0,-1,776,1765,0,0
-441,-741,0,0,0,0,0,0,0,0,0,-1,783,1765,0,0
-434,-741,0,0,0,0,0,0,0,0,0,-1,790,1765,0,0
-427,-741,0,0,0,0,0,0,0,0,0,-1,797,1765,0,0
-420,-741,0,0,0,0,0,0,0,0,0,-1,804,1765,0,0
-413,-741,0,0,0,0,0,0,0,0,0,-1,811,1765,0,0
-406,-741,0,0,0,0,0,0,0,0,0,-1,818,1765,0,0
-399,-741,0,0,0,0,0,0,0,0,0,-1,825,1765,0,0
-392,-741,0,0,0,0,0,0,0,0,0,-1,832,1765,0,0
-385,-741,0,0,0,0,0,0,0,0,0,-1,839,1765,0,0
-378,-741,0,0,0,0,0,0,0,0,0,-1,846,1765,0,0
-371,-741,0,0,0,0,0,0,0,0,0,-1,853,1765,0,0
-364,-741,0,0,0,0,0,0,0,0,0,-1,860,1765,0,0
-357,-741,0,0,0,0,0,0,0,0,0,-1,867,1765,0,0
-350,-741,0,0,0,0,0,0,0,0,0,-1,874,1765,0,0
-343,-741,0,0,0,0,0,0,0,0,0,-1,881,1765,0,0
-336,-741,0,0,0,0,0,0,0,0,0,-1,888,1765,0,0
-329,-741,0,0,0,0,0,0,0,0,0,-1,895,1765,0,0
-322,-741,0,0,0,0,0,0,0,0,0,-1,902,1765,0,0
-315,-741,0,0,0,0,0,0,0,0,0,-1,909,1765,0,0
-308,-741,0,0,0,0,0,0,0,0,0,-1,916,1765,0,0
-301,-741,0,0,0,0,0,0,0,0,0,-1,923,1765,0,0
-294,-741,0,0,0,0,0,0,0,0,0,-1,930,1765,0,0
-287,-741,0,0,0,0,0,0,0,0,0,-1,937,1765,0,0
-280,-741,0,0,0,0,0,0,0,0,0,-1,944,1765,0,0
-273,-741,0,0,0,0,0,0,0,0,0,-1,951,1765,0,0
-266,-741,0,0,0,0,0,0,0,0,0,-1,958,1765,0,0
-259,-741,0,0,0,0,0,0,0,0,0,-1,965,1765,0,0
-252,-741,0,0,0,0,0,0,0,0,0,-1,972,1765,0,0
-245,-741,0,0,0,0,0,0,0,0,0,-1,979,1765,0,0
-238,-741,7.13855,29.8348,0,0,0,0,0,0,0,-1,986,1765,7.13856,-29.8348
-231,-741,7.74182,29.3066,0,0,0,0,0,0,0,-1,993,1765,7.74183,-29.3066
-224,-741,7.80078,29.0964,0,0,0,0,0,0,0,-1,1000,1765,7.80079,-29.0964
-217,-741,8.15863,29.113,0,0,0,0,0,0,0,-1,1007,1765,8.15863,-29.1131
-210,-741,8.37024,29.3896,0,0,0,0,0,0,0,-1,1014,1765,8.37022,-29.3896
-203,-741,8.33801,29.8871,0,0,0,0,0,0,0,-1,1021,1765,8.33805,-29.8871
-196,-741,8.75513,30.84,0,0,0,0,0,0,0,-1,1028,1765,8.75516,-30.8399
-189,-741,9.16321,31.9888,0,0,0,0,0,0,0,-1,1035,1765,9.16327,-31.9888
-182,-741,9.71594,33.2998,0,0,0,0,0,0,0,-1,1042,1765,9.71593,-33.2998
-175,-741,7.26477,24.616,0,0,0,0,0,0,0,-1,1049,1765,7.26471,-24.616
-168,-741,5.4801,16.3933,0,0,0,0,0,0,0,-1,1056,1765,5.4801,-16.3933
-161,-741,3.73047,14.4974,0,0,0,0,0,0,0,-1,1063,1765,3.73043,-14.4974
-154,-741,9.02466,35.0419,0,0,0,0,0,0,0,-1,1070,1765,9.02462,-35.0419
-147,-741,8.67517,35.4379,0,0,0,0,0,0,0,-1,1077,1765,8.67511,-35.4379
-140,-741,8.32556,35.834,0,0,0,0,0,0,0,-1,1084,1765,8.3256,-35.8339
-133,-741,8.85144,35.6244,0,0,0,0,0,0,0,-1,1091,1765,8.85142,-35.6244
-126,-741,8.49768,35.7122,0,0,0,0,0,0,0,-1,1098,1765,8.49771,-35.7122
-119,-741,8.41772,35.9601,0,0,0,0,0,0,0,-1,1105,1765,8.41772,-35.9601
-112,-741,8.42297,36.1359,0,0,0,0,0,0,0,-1,1112,1765,8.42299,-36.1358
-105,-741,8.43408,36.3318,0,0,0,0,0,0,0,-1,1119,1765,8.43413,-36.3318
-98,-741,8.4635,36.4249,0,0,0,0,0,0,0,-1,1126,1765,8.46344,-36.4249
-91,-741,8.40002,36.3687,0,0,0,0,0,0,0,-1,1133,1765,8.40002,-36.3687
-84,-741,7.8877,35.0892,0,0,0,0,0,0,0,-1,1140,1765,7.88776,-35.0892
-77,-741,7.73303,34.1174,0,0,0,0,0,0,0,-1,1147,1765,7.73304,-34.1174
-70,-741,7.5437,32.0275,0,0,0,0,0,0,0,-1,1154,1765,7.5437,-32.0275
-63,-741,8.23132,37.4733,0,0,0,0,0,0,0,-1,1161,1765,8.23127,-37.4732
-56,-741,8.26367,37.6381,0,0,0,0,0,0,0,-1,1168,1765,8.2637,-37.638
-49,-741,8.21692,37.9928,0,0,0,0,0,0,0,-1,1175,1765,8.21695,-37.9929
-42,-741,8.15979,38.1464,0,0,0,0,0,0,0,-1,1182,1765,8.15975,-38.1463
-35,-741,8.15332,38.2458,-0.00586833,0.0119805,0.00147831,0.0121021,-0.00598995,1.48872,0.0106423,0.0241582,1189,1765,8.15331,-38.2459
-28,-741,8.15076,38.3943,-0.00578372,0.011658,0.00114536,0.0117329,-0.00585861,1.5055,0.0103435,0.0139921,1196,1765,8.15071,-38.3942
-21,-741,8.1394,38.5166,-0.00549525,0.0112181,0.00105975,0.011285,-0.00556218,1.50773,0.00991203,0.0179532,1203,1765,8.13945,-38.5166
-14,-741,8.09497,38.6328,-0.0052036,0.0105744,0.00117011,0.0106607,-0.00528991,1.49717,0.00938148,0.0182254,1210,1765,8.09499,-38.6328
-7,-741,8.08875,38.709,-0.00489483,0.00980487,0.00130943,0.0099206,-0.00501056,1.48264,0.0087745,0.0162447,1217,1765,8.08874,-38.709
0,-741,8.07214,38.8142,-0.00471394,0.00913009,0.00103537,0.0092071,-0.00479094,1.49656,0.00821474,0.0158042,1224,1765,8.07214,-38.8143
7,-741,8.03076,38.9363,-0.00427102,0.00865592,0.000792137,0.00870428,-0.00431938,1.50982,0.00765996,0.0167494,1231,1765,8.03078,-38.9362
14,-741,8.01147,39.0078,-0.00358676,0.00846468,0.000661938,0.00850093,-0.003623,1.51609,0.00718612,0.0147898,1238,1765,8.01152,-39.0078
21,-741,7.97729,39.0631,-0.00287401,0.00849212,0.00044295,0.00850936,-0.00289124,1.5319,0.00684336,0.0114538,1245,1765,7.97729,-39.0631
28,-741,7.92932,39.1306,-0.00220164,0.00859505,0.000178643,0.00859801,-0.00220459,1.55426,0.00659094,0.0117583,1252,1765,7.92927,-39.1306
35,-741,7.94226,39.1606,-0.000403418,0.00839506,0.000261633,0.00840283,-0.000411191,1.5411,0.00574386,0.0136009,1259,1765,7.94226,-39.1607
42,-741,7.96667,39.1814,0.0012422,0.0075013,0.000318589,0.00751748,0.00122603,1.52007,0.00465708,0.0144129,1266,1765,7.96674,-39.1814
49,-741,7.92603,39.2196,0.00253011,0.00726657,0.000380997,0.00729702,0.00249966,1.49104,0.00428199,0.00985072,1273,1765,7.92601,-39.2196
56,-741,7.87866,39.26,0.00383048,0.00688317,0.000485335,0.00695848,0.00375518,1.41687,0.00402169,0.00992414,1280,1765,7.87871,-39.26
63,-741,7.87756,39.2625,0.0050818,0.00609259,0.000629421,0.00639441,0.00477998,1.12367,0.00383965,0.0144488,1287,1765,7.87753,-39.2625
70,-741,7.8606,39.2745,0.00627485,0.0053269,0.000950655,0.00686314,0.00473862,0.554144,0.00405711,0.0158464,1294,1765,7.86056,-39.2746
77,-741,7.84106,39.2806,0.00715171,0.00427047,0.00135868,0.00769134,0.00373084,0.378066,0.00444126,0.0130285,1301,1765,7.84106,-39.2806
84,-741,7.82202,39.27,0.00744565,0.00309222,0.00160946,0.00797605,0.00256182,0.318341,0.00470211,0.0161547,1308,1765,7.82203,-39.27
91,-741,7.81152,39.2509,0.00738508,0.00202026,0.00169513,0.00787581,0.00152953,0.281789,0.00482224,0.0129368,1315,1765,7.81148,-39.2508
98,-741,7.80103,39.1915,0.00702273,0.0011602,0.00173634,0.0074984,0.000684532,0.267389,0.0047871,0.0101554,1322,1765,7.80103,-39.1915
105,-741,7.79614,39.1174,0.00649893,0.00016401,0.00197276,0.00706304,-0.000400098,0.278516,0.00484757,0.011028,1329,1765,7.79618,-39.1175
112,-741,7.81348,39.059,0.00553743,-0.000723097,0.00196294,0.00610199,-0.00128765,0.280049,0.00455824,0.0114556,1336,1765,7.81346,-39.059
119,-741,7.7738,38.9786,0.00428438,-0.00147189,0.001599,0.00469874,-0.00188624,0.253554,0.00391572,0.0142405,1343,1765,7.77382,-38.9787
126,-741,7.7533,38.8799,0.00308967,-0.0018439,0.00128627,0.00340488,-0.00215911,0.240324,0.0032391,0.0188442,1350,1765,7.75333,-38.8799
133,-741,7.73425,38.8046,0.00198261,-0.00172746,0.000948258,0.00221093,-0.00195578,0.236276,0.00240715,0.0141675,1357,1765,7.73422,-38.8046
140,-741,7.69495,38.7102,-0.000419084,-0.000934701,0.000208364,-0.000345409,-0.00100838,0.339864,0.000591731,0.0105864,1364,1765,7.69492,-38.7102
147,-741,7.67322,38.6194,-0.00164337,0.000331317,-0.000130807,0.000339944,-0.001652,-1.50494,0.0012304,0.0103238,1371,1765,7.67318,-38.6193
154,-741,7.64624,38.54,-0.00189075,-0.000420575,-0.000302547,-0.000360749,-0.00195057,-1.37557,0.00119837,0.00916193,1378,1765,7.64622,-38.54
161,-741,7.63,38.4164,-0.00237151,-0.00120876,-0.000430996,-0.00106643,-0.00251385,-1.25183,0.00145692,0.0111734,1385,1765,7.62996,-38.4163
168,-741,7.62317,38.2878,-0.00256179,-0.000102829,-0.000809716,0.000139854,-0.00280447,-1.2796,0.00191796,0.0256447,1392,1765,7.62314,-38.2879
175,-741,7.60339,38.1851,0,0,0,0,0,0,0,-1,1399,1765,7.60345,-38.185
182,-741,7.58838,37.9808,0,0,0,0,0,0,0,-1,1406,1765,7.58843,-37.9809
189,-741,7.53662,37.8615,0,0,0,0,0,0,0,-1,1413,1765,7.53664,-37.8615
196,-741,7.51001,37.6957,0,0,0,0,0,0,0,-1,1420,1765,7.50999,-37.6957
203,-741,7.5105,37.4254,0,0,0,0,0,0,0,-1,1427,1765,7.5105,-37.4255
210,-741,7.45422,37.0488,0,0,0,0,0,0,0,-1,1434,1765,7.45421,-37.0488
217,-741,7.59436,36.9575,0,0,0,0,0,0,0,-1,1441,1765,7.59437,-36.9575
224,-741,7.86902,36.165,0,0,0,0,0,0,0,-1,1448,1765,7.86896,-36.1651
231,-741,7.47241,36.3285,0,0,0,0,0,0,0,-1,1455,1765,7.47237,-36.3285
238,-741,7.22095,36.4207,0,0,0,0,0,0,0,-1,1462,1765,7.22094,-36.4207
245,-741,7.26123,36.1134,0,0,0,0,0,0,0,-1,1469,1765,7.26124,-36.1134
252,-741,7.37073,35.8773,0.00736737,0.011732,-0.00333629,0.0135363,0.00556303,-1.07503,0.00785638,0.0494763,1476,1765,7.37069,-35.8774
259,-741,7.6228,35.7601,0.00837477,0.0132168,-0.00261725,0.0143611,0.00723049,-1.15863,0.00829144,0.0490911,1483,1765,7.62277,-35.7602
266,-741,7.48145,35.8424,0,0,0,0,0,0,0,-1,1490,1765,7.48143,-35.8424
273,-741,7.03821,33.8081,0,0,0,0,0,0,0,-1,1497,1765,7.0382,-33.8081
280,-741,16.2363,9.84546,0,0,0,0,0,0,0,-1,1504,1765,16.2363,-9.84547
287,-741,6.86572,34.726,0,0,0,0,0,0,0,-1,1511,1765,6.86572,-34.726
294,-741,6.88074,34.7733,0,0,0,0,0,0,0,-1,1518,1765,6.88076,-34.7733
301,-741,6.42542,31.2136,0,0,0,0,0,0,0,-1,1525,1765,6.42541,-31.2136
308,-741,6.27148,29.2661,0,0,0,0,0,0,0,-1,1532,1765,6.27154,-29.2661
315,-741,4.604,30.1898,0,0,0,0,0,0,0,-1,1539,1765,4.604,-30.1898
322,-741,9.21252,8.54858,0,0,0,0,0,0,0,-1,1546,1765,9.21251,-8.54858
329,-741,8.5603,10.1146,0,0,0,0,0,0,0,-1,1553,1765,8.56033,-10.1146
336,-741,4.74475,14.6453,0,0,0,0,0,0,0,-1,1560,1765,4.7447,-14.6452
343,-741,5.42297,5.93701,0,0,0,0,0,0,0,-1,1567,1765,5.42296,-5.937
350,-741,4.90369,5.44666,0,0,0,0,0,0,0,-1,1574,1765,4.90368,-5.44664
357,-741,4.02063,5.16626,0,0,0,0,0,0,0,-1,1581,1765,4.02058,-5.1662
364,-741,0,0,0,0,0,0,0,0,0,-1,1588,1765,0,0
371,-741,0,0,0,0,0,0,0,0,0,-1,1595,1765,0,0
378,-741,0,0,0,0,0,0,0,0,0,-1,1602,1765,0,0
385,-741,0,0,0,0,0,0,0,0,0,-1,1609,1765,0,0
392,-741,0,0,0,0,0,0,0,0,0,-1,1616,1765,0,0
399,-741,0,0,0,0,0,0,0,0,0,-1,1623,1765,0,0
406,-741,0,0,0,0,0,0,0,0,0,-1,1630,1765,0,0
413,-741,0,0,0,0,0,0,0,0,0,-1,1637,1765,0,0
420,-741,0,0,0,0,0,0,0,0,0,-1,1644,1765,0,0
427,-741,0,0,0,0,0,0,0,0,0,-1,1651,1765,0,0
434,-741,0,0,0,0,0,0,0,0,0,-1,1658,1765,0,0
441,-741,0,0,0,0,0,0,0,0,0,-1,1665,1765,0,0
448,-741,0,0,0,0,0,0,0,0,0,-1,1672,1765,0,0
455,-741,0,0,0,0,0,0,0,0,0,-1,1679,1765,0,0
462,-741,0,0,0,0,0,0,0,0,0,-1,1686,1765,0,0
469,-741,0,0,0,0,0,0,0,0,0,-1,1693,1765,0,0
476,-741,0,0,0,0,0,0,0,0,0,-1,1700,1765,0,0
483,-741,0,0,0,0,0,0,0,0,0,-1,1707,1765,0,0
490,-741,0,0,0,0,0,0,0,0,0,-1,1714,1765,0,0
497,-741,0,0,0,0,0,0,0,0,0,-1,1721,1765,0,0
504,-741,0,0,0,0,0,0,0,0,0,-1,1728,1765,0,0
511,-741,0,0,0,0,0,0,0,0,0,-1,1735,1765,0,0
518,-741,0,0,0,0,0,0,0,0,0,-1,1742,1765,0,0
525,-741,0,0,0,0,0,0,0,0,0,-1,1749,1765,0,0
532,-741,0,0,0,0,0,0,0,0,0,-1,1756,1765,0,0
539,-741,0,0,0,0,0,0,0,0,0,-1,1763,1765,0,0
546,-741,0,0,0,0,0,0,0,0,0,-1,1770,1765,0,0
553,-741,0,0,0,0,0,0,0,0,0,-1,1777,1765,0,0
560,-741,0,0,0,0,0,0,0,0,0,-1,1784,1765,0,0
567,-741,0,0,0,0,0,0,0,0,0,-1,1791,1765,0,0
574,-741,0,0,0,0,0,0,0,0,0,-1,1798,1765,0,0
581,-741,0,0,0,0,0,0,0,0,0,-1,1805,1765,0,0
588,-741,0,0,0,0,0,0,0,0,0,-1,1812,1765,0,0
595,-741,0,0,0,0,0,0,0,0,0,-1,1819,1765,0,0
602,-741,0,0,0,0,0,0,0,0,0,-1,1826,1765,0,0
609,-741,0,0,0,0,0,0,0,0,0,-1,1833,1765,0,0
616,-741,0,0,0,0,0,0,0,0,0,-1,1840,1765,0,0
623,-741,0,0,0,0,0,0,0,0,0,-1,1847,1765,0,0
630,-741,0,0,0,0,0,0,0,0,0,-1,1854,1765,0,0
637,-741,0,0,0,0,0,0,0,0,0,-1,1861,1765,0,0
644,-741,0,0,0,0,0,0,0,0,0,-1,1868,1765,0,0
651,-741,0,0,0,0,0,0,0,0,0,-1,1875,1765,0,0
658,-741,0,0,0,0,0,0,0,0,0,-1,1882,1765,0,0
665,-741,0,0,0,0,0,0,0,0,0,-1,1889,1765,0,0
672,-741,0,0,0,0,0,0,0,0,0,-1,1896,1765,0,0
679,-741,0,0,0,0,0,0,0,0,0,-1,1903,1765,0,0
686,-741,0,0,0,0,0,0,0,0,0,-1,1910,1765,0,0
693,-741,0,0,0,0,0,0,0,0,0,-1,1917,1765,0,0
700,-741,0,0,0,0,0,0,0,0,0,-1,1924,1765,0,0
707,-741,0,0,0,0,0,0,0,0,0,-1,1931,1765,0,0
714,-741,0,0,0,0,0,0,0,0,0,-1,1938,1765,0,0
721,-741,0,0,0,0,0,0,0,0,0,-1,1945,1765,0,0
728,-741,0,0,0,0,0,0,0,0,0,-1,1952,1765,0,0
735,-741,0,0,0,0,0,0,0,0,0,-1,1959,1765,0,0
742,-741,0,0,0,0,0,0,0,0,0,-1,1966,1765,0,0
749,-741,0,0,0,0,0,0,0,0,0,-1,1973,1765,0,0
756,-741,0,0,0,0,0,0,0,0,0,-1,1980,1765,0,0
763,-741,0,0,0,0,0,0,0,0,0,-1,1987,1765,0,0
770,-741,0,0,0,0,0,0,0,0,0,-1,1994,1765,0,0
777,-741,0,0,0,0,0,0,0,0,0,-1,2001,1765,0,0
784,-741,0,0,0,0,0,0,0,0,0,-1,2008,1765,0,0
791,-741,0,0,0,0,0,0,0,0,0,-1,2015,1765,0,0
798,-741,0,0,0,0,0,0,0,0,0,-1,2022,1765,0,0
805,-741,0,0,0,0,0,0,0,0,0,-1,2029,1765,0,0
812,-741,0,0,0,0,0,0,0,0,0,-1,2036,1765,0,0
-700,-748,0,0,0,0,0,0,0,0,0,-1,524,1772,0,0
-693,-748,0,0,0,0,0,0,0,0,0,-1,531,1772,0,0
-686,-748,0,0,0,0,0,0,0,0,0,-1,538,1772,0,0
-679,-748,0,0,0,0,0,0,0,0,0,-1,545,1772,0,0
-672,-748,0,0,0,0,0,0,0,0,0,-1,552,1772,0,0
-665,-748,0,0,0,0,0,0,0,0,0,-1,559,1772,0,0
-658,-748,0,0,0,0,0,0,0,0,0,-1,566,1772,0,0
-651,-748,0,0,0,0,0,0,0,0,0,-1,573,1772,0,0
-644,-748,0,0,0,0,0,0,0,0,0,-1,580,1772,0,0
-637,-748,0,0,0,0,0,0,0,0,0,-1,587,1772,0,0
-630,-748,0,0,0,0,0,0,0,0,0,-1,594,1772,0,0
-623,-748,0,0,0,0,0,0,0,0,0,-1,601,1772,0,0
-616,-748,0,0,0,0,0,0,0,0,0,-1,608,1772,0,0
-609,-748,0,0,0,0,0,0,0,0,0,-1,615,1772,0,0
-602,-748,0,0,0,0,0,0,0,0,0,-1,622,1772,0,0
-595,-748,0,0,0,0,0,0,0,0,0,-1,629,1772,0,0
-588,-748,0,0,0,0,0,0,0,0,0,-1,636,1772,0,0
-581,-748,0,0,0,0,0,0,0,0,0,-1,643,1772,0,0
-574,-748,0,0,0,0,0,0,0,0,0,-1,650,1772,0,0
-567,-748,0,0,0,0,0,0,0,0,0,-1,657,1772,0,0
-560,-748,0,0,0,0,0,0,0,0,0,-1,664,1772,0,0
-553,-748,0,0,0,0,0,0,0,0,0,-1,671,1772,0,0
-546,-748,0,0,0,0,0,0,0,0,0,-1,678,1772,0,0
-539,-748,0,0,0,0,0,0,0,0,0,-1,685,1772,0,0
-532,-748,0,0,0,0,0,0,0,0,0,-1,692,1772,0,0
-525,-748,0,0,0,0,0,0,0,0,0,-1,699,1772,0,0
-518,-748,0,0,0,0,0,0,0,0,0,-1,706,1772,0,0
-511,-748,0,0,0,0,0,0,0,0,0,-1,713,1772,0,0
-504,-748,0,0,0,0,0,0,0,0,0,-1,720,1772,0,0
-497,-748,0,0,0,0,0,0,0,0,0,-1,727,1772,0,0
-490,-748,0,0,0,0,0,0,0,0,0,-1,734,1772,0,0
-483,-748,0,0,0,0,0,0,0,0,0,-1,741,1772,0,0
-476,-748,0,0,0,0,0,0,0,0,0,-1,748,1772,0,0
-469,-748,0,0,0,0,0,0,0,0,0,-1,755,1772,0,0
-462,-748,0,0,0,0,0,0,0,0,0,-1,762,1772,0,0
-455,-748,0,0,0,0,0,0,0,0,0,-1,769,1772,0,0
-448,-748,0,0,0,0,0,0,0,0,0,-1,776,1772,0,0
-441,-748,0,0,0,0,0,0,0,0,0,-1,783,1772,0,0
-434,-748,0,0,0,0,0,0,0,0,0,-1,790,1772,0,0
-427,-748,0,0,0,0,0,0,0,0,0,-1,797,1772,0,0
-420,-748,0,0,0,0,0,0,0,0,0,-1,804,1772,0,0
-413,-748,0,0,0,0,0,0,0,0,0,-1,811,1772,0,0
-406,-748,0,0,0,0,0,0,0,0,0,-1,818,1772,0,0
-399,-748,0,0,0,0,0,0,0,0,0,-1,825,1772,0,0
-392,-748,0,0,0,0,0,0,0,0,0,-1,832,1772,0,0
-385,-748,0,0,0,0,0,0,0,0,0,-1,839,1772,0,0
-378,-748,0,0,0,0,0,0,0,0,0,-1,846,1772,0,0
-371,-748,0,0,0,0,0,0,0,0,0,-1,853,1772,0,0
-364,-748,0,0,0,0,0,0,0,0,0,-1,860,1772,0,0
-357,-748,0,0,0,0,0,0,0,0,0,-1,867,1772,0,0
-350,-748,0,0,0,0,0,0,0,0,0,-1,874,1772,0,0
-343,-748,0,0,0,0,0,0,0,0,0,-1,881,1772,0,0
-336,-748,0,0,0,0,0,0,0,0,0,-1,888,1772,0,0
-329,-748,0,0,0,0,0,0,0,0,0,-1,895,1772,0,0
-322,-748,0,0,0,0,0,0,0,0,0,-1,902,1772,0,0
-315,-748,0,0,0,0,0,0,0,0,0,-1,909,1772,0,0
-308,-748,0,0,0,0,0,0,0,0,0,-1,916,1772,0,0
-301,-748,0,0,0,0,0,0,0,0,0,-1,923,1772,0,0
-294,-748,0,0,0,0,0,0,0,0,0,-1,930,1772,0,0
-287,-748,0,0,0,0,0,0,0,0,0,-1,937,1772,0,0
-280,-748,0,0,0,0,0,0,0,0,0,-1,944,1772,0,0
-273,-748,0,0,0,0,0,0,0,0,0,-1,951,1772,0,0
-266,-748,0,0,0,0,0,0,0,0,0,-1,958,1772,0,0
-259,-748,0,0,0,0,0,0,0,0,0,-1,965,1772,0,0
-252,-748,0,0,0,0,0,0,0,0,0,-1,972,1772,0,0
-245,-748,0,0,0,0,0,0,0,0,0,-1,979,1772,0,0
-238,-748,0,0,0,0,0,0,0,0,0,-1,986,1772,0,0
-231,-748,0,0,0,0,0,0,0,0,0,-1,993,1772,0,0
-224,-748,0,0,0,0,0,0,0,0,0,-1,1000,1772,0,0
-217,-748,8.97742,29.9884,0,0,0,0,0,0,0,-1,1007,1772,8.97744,-29.9884
-210,-748,8.8941,30.14,0,0,0,0,0,0,0,-1,1014,1772,8.8941,-30.14
-203,-748,8.57703,30.2961,0,0,0,0,0,0,0,-1,1021,1772,8.57706,-30.2962
-196,-748,8.01953,29.9611,0,0,0,0,0,0,0,-1,1028,1772,8.01957,-29.9611
-189,-748,9.63245,31.4406,0,0,0,0,0,0,0,-1,1035,1772,9.6325,-31.4406
-182,-748,3.94958,20.8662,0,0,0,0,0,0,0,-1,1042,1772,3.94959,-20.8662
-175,-748,3.56726,19.4518,0,0,0,0,0,0,0,-1,1049,1772,3.5673,-19.4518
-168,-748,3.04858,18.0109,0,0,0,0,0,0,0,-1,1056,1772,3.04853,-18.0108
-161,-748,3.50562,13.2729,0,0,0,0,0,0,0,-1,1063,1772,3.5056,-13.2729
-154,-748,-3.38562,10.6989,0,0,0,0,0,0,0,-1,1070,1772,-3.38564,-10.6989
-147,-748,8.79785,35.8357,0,0,0,0,0,0,0,-1,1077,1772,8.79785,-35.8357
-140,-748,7.42126,23.8113,0,0,0,0,0,0,0,-1,1084,1772,7.42133,-23.8113
-133,-748,7.44727,22.0308,0,0,0,0,0,0,0,-1,1091,1772,7.44728,-22.0308
-126,-748,5.98035,22.6067,0,0,0,0,0,0,0,-1,1098,1772,5.9803,-22.6067
-119,-748,6.63342,26.309,0,0,0,0,0,0,0,-1,1105,1772,6.6334,-26.3089
-112,-748,6.91333,24.923,0,0,0,0,0,0,0,-1,1112,1772,6.91339,-24.923
-105,-748,6.83313,25.0537,0,0,0,0,0,0,0,-1,1119,1772,6.83311,-25.0537
-98,-748,8.13623,30.8743,0,0,0,0,0,0,0,-1,1126,1772,8.13628,-30.8742
-91,-748,4.85352,15.3033,0,0,0,0,0,0,0,-1,1133,1772,4.85351,-15.3033
-84,-748,-0.192017,7.26196,0,0,0,0,0,0,0,-1,1140,1772,-0.192047,-7.26201
-77,-748,4.42615,13.5537,0,0,0,0,0,0,0,-1,1147,1772,4.4261,-13.5538
-70,-748,4.46191,13.7446,0,0,0,0,0,0,0,-1,1154,1772,4.4619,-13.7446
-63,-748,4.49768,13.9355,0,0,0,0,0,0,0,-1,1161,1772,4.49769,-13.9355
-56,-748,3.05762,7.87817,0,0,0,0,0,0,0,-1,1168,1772,3.05768,-7.87822
-49,-748,3.04102,7.82471,0,0,0,0,0,0,0,-1,1175,1772,3.04096,-7.82468
-42,-748,0.793457,14.9474,0,0,0,0,0,0,0,-1,1182,1772,0.793413,-14.9474
-35,-748,8.32947,38.1893,0,0,0,0,0,0,0,-1,1189,1772,8.32946,-38.1893
-28,-748,8.25,38.5125,0,0,0,0,0,0,0,-1,1196,1772,8.25001,-38.5124
-21,-748,8.24292,38.5637,-0.0077456,0.0230417,0.00182107,0.0231491,-0.00785294,1.51192,0.0186111,0.0233964,1203,1772,8.2429,-38.5638
-14,-748,8.18665,38.6191,-0.0072618,0.021705,0.00190895,0.0218302,-0.00738706,1.50527,0.0175422,0.0160948,1210,1772,8.18668,-38.6191
-7,-748,8.17554,38.6903,-0.00674184,0.0201586,0.00201264,0.0203084,-0.00689159,1.49653,0.0163283,0.0156235,1217,1772,8.1755,-38.6903
0,-748,8.14734,38.7925,-0.00638934,0.0185809,0.00153017,0.0186743,-0.00648276,1.50982,0.0150822,0.0155844,1224,1772,8.14731,-38.7925
7,-748,8.11829,38.8882,-0.00573015,0.017173,0.00105355,0.0172214,-0.00577851,1.52493,0.013816,0.0141188,1231,1772,8.11831,-38.8882
14,-748,8.07751,38.9902,-0.00477397,0.0161798,0.00074438,0.0162062,-0.00480038,1.53533,0.0127101,0.0149595,1238,1772,8.07753,-38.9902
21,-748,8.05566,39.0482,-0.00377291,0.0156288,0.000326676,0.0156343,-0.00377841,1.55397,0.0118843,0.0107813,1245,1772,8.05565,-39.0482
28,-748,7.99597,39.1267,-0.00280183,0.0153774,-0.000145727,0.0153785,-0.002803,-1.56278,0.0113031,0.0105442,1252,1772,7.99592,-39.1267
35,-748,7.98352,39.1672,-0.000256475,0.0146824,-8.0791e-05,0.0146828,-0.000256911,-1.56539,0.00987531,0.0116083,1259,1772,7.98356,-39.1673
42,-748,7.99072,39.1865,0.00209121,0.0132689,-6.74868e-05,0.0132693,0.0020908,-1.56476,0.0082382,0.0135157,1266,1772,7.99077,-39.1865
49,-748,7.95313,39.2155,0.00394652,0.0127722,2.65611e-06,0.0127722,0.00394652,1.5705,0.00755125,0.0103421,1273,1772,7.95311,-39.2155
56,-748,7.90027,39.2491,0.00594093,0.0122553,0.000118216,0.0122575,0.00593872,1.55208,0.00707802,0.0100788,1280,1772,7.90028,-39.2491
63,-748,7.88928,39.2422,0.00785409,0.011226,0.000328372,0.0112577,0.00782241,1.47462,0.0066621,0.0121983,1287,1772,7.88928,-39.2422
70,-748,7.87024,39.243,0.0097057,0.0102384,0.000771272,0.010788,0.00915608,0.951649,0.00671446,0.0125908,1294,1772,7.8702,-39.243
77,-748,7.84448,39.249,0.0111282,0.00930314,0.00138672,0.0118757,0.00855565,0.494389,0.00707507,0.0120724,1301,1772,7.84449,-39.249
84,-748,7.79993,39.2554,0.0118255,0.00810446,0.00182273,0.0125696,0.0073604,0.387566,0.0072924,0.014485,1308,1772,7.79991,-39.2553
91,-748,7.77393,39.2393,0.012002,0.00689449,0.00197424,0.0126761,0.00622035,0.329055,0.00731897,0.0114389,1315,1772,7.77397,-39.2392
98,-748,7.745,39.1787,0.0117211,0.00585999,0.00205864,0.0123719,0.00520918,0.306193,0.00717253,0.010577,1322,1772,7.74497,-39.1787
105,-748,7.74426,39.0933,0.0111774,0.00468205,0.00244304,0.0119937,0.00386576,0.322468,0.0070688,0.01195,1329,1772,7.74427,-39.0932
112,-748,7.74939,39.0396,0.0100045,0.00358266,0.00245736,0.0108369,0.00275024,0.326615,0.00650466,0.0150235,1336,1772,7.74936,-39.0395
119,-748,7.71667,38.9907,0.00839022,0.00245767,0.00196046,0.00897953,0.00186836,0.292005,0.00547096,0.0138591,1343,1772,7.71663,-38.9907
126,-748,7.6803,38.9353,0.00674059,0.00145962,0.00154731,0.00716055,0.00103966,0.265028,0.00446765,0.0157244,1350,1772,7.68026,-38.9353
133,-748,7.62207,38.8394,0.00506366,0.000821402,0.0010934,0.00532889,0.000556171,0.237978,0.00338248,0.00915725,1357,1772,7.62201,-38.8394
140,-748,7.60864,38.7301,0.00113667,0.0013602,-4.89607e-05,0.00137046,0.00112642,-1.36435,0.000844134,0.0117713,1364,1772,7.60868,-38.7301
147,-748,7.61804,38.632,-0.00107551,0.00242287,-0.000466979,0.00248414,-0.00113677,-1.44035,0.00213823,0.0139985,1371,1772,7.61798,-38.632
154,-748,7.54089,38.5228,-0.00146451,0.00053786,-0.000675828,0.000744613,-0.00167127,-1.27391,0.0014286,0.0127656,1378,1772,7.54092,-38.5229
161,-748,7.47339,38.4368,-0.00281636,-0.00224866,-0.000577063,-0.00188941,-0.00317561,-1.01397,0.00184443,0.0184338,1385,1772,7.47337,-38.4368
168,-748,7.45386,38.3707,0,0,0,0,0,0,0,-1,1392,1772,7.45385,-38.3707
175,-748,11.6235,16.8242,0,0,0,0,0,0,0,-1,1399,1772,11.6236,-16.8242
182,-748,7.62476,10.3058,0,0,0,0,0,0,0,-1,1406,1772,7.62476,-10.3058
189,-748,6.15857,6.95898,0,0,0,0,0,0,0,-1,1413,1772,6.15862,-6.95896
196,-748,3.9425,8.46021,0,0,0,0,0,0,0,-1,1420,1772,3.9425,-8.46026
203,-748,3.9668,12.9835,0,0,0,0,0,0,0,-1,1427,1772,3.96678,-12.9836
210,-748,4.71472,16.8318,0,0,0,0,0,0,0,-1,1434,1772,4.71471,-16.8317
217,-748,5.38452,21.5551,0,0,0,0,0,0,0,-1,1441,1772,5.38455,-21.555
224,-748,6.14258,25.2345,0,0,0,0,0,0,0,-1,1448,1772,6.14263,-25.2345
231,-748,6.46045,29.7867,0,0,0,0,0,0,0,-1,1455,1772,6.46049,-29.7867
238,-748,7.41565,32.8574,0,0,0,0,0,0,0,-1,1462,1772,7.41562,-32.8574
245,-748,7.84912,32.0914,0,0,0,0,0,0,0,-1,1469,1772,7.84914,-32.0914
252,-748,7.20972,35.7568,0,0,0,0,0,0,0,-1,1476,1772,7.20977,-35.7569
259,-748,7.37964,35.6158,0,0,0,0,0,0,0,-1,1483,1772,7.37959,-35.6158
266,-748,7.0072,32.5728,0,0,0,0,0,0,0,-1,1490,1772,7.00718,-32.5728
273,-748,16.4131,7.57129,0,0,0,0,0,0,0,-1,1497,1772,16.413,-7.57125
280,-748,15.2177,7.24829,0,0,0,0,0,0,0,-1,1504,1772,15.2176,-7.24833
287,-748,14.161,8.32813,0,0,0,0,0,0,0,-1,1511,1772,14.161,-8.32808
294,-748,6.38525,32.4724,0,0,0,0,0,0,0,-1,1518,1772,6.38521,-32.4725
301,-748,6.24658,30.7585,0,0,0,0,0,0,0,-1,1525,1772,6.24657,-30.7586
308,-748,9.92456,7.80225,0,0,0,0,0,0,0,-1,1532,1772,9.92453,-7.80224
315,-748,8.91541,8.29773,0,0,0,0,0,0,0,-1,1539,1772,8.91544,-8.29773
322,-748,7.83618,8.87122,0,0,0,0,0,0,0,-1,1546,1772,7.83613,-8.87124
329,-748,3.48315,14.6533,0,0,0,0,0,0,0,-1,1553,1772,3.48316,-14.6534
336,-748,3.76001,15.8163,0,0,0,0,0,0,0,-1,1560,1772,3.75995,-15.8163
343,-748,0,0,0,0,0,0,0,0,0,-1,1567,1772,0,0
350,-748,0,0,0,0,0,0,0,0,0,-1,1574,1772,0,0
357,-748,0,0,0,0,0,0,0,0,0,-1,1581,1772,0,0
364,-748,0,0,0,0,0,0,0,0,0,-1,1588,1772,0,0
371,-748,0,0,0,0,0,0,0,0,0,-1,1595,1772,0,0
378,-748,0,0,0,0,0,0,0,0,0,-1,1602,1772,0,0
385,-748,0,0,0,0,0,0,0,0,0,-1,1609,1772,0,0
392,-748,0,0,0,0,0,0,0,0,0,-1,1616,1772,0,0
399,-748,0,0,0,0,0,0,0,0,0,-1,1623,1772,0,0
406,-748,0,0,0,0,0,0,0,0,0,-1,1630,1772,0,0
413,-748,0,0,0,0,0,0,0,0,0,-1,1637,1772,0,0
420,-748,0,0,0,0,0,0,0,0,0,-1,1644,1772,0,0
427,-748,0,0,0,0,0,0,0,0,0,-1,1651,1772,0,0
434,-748,0,0,0,0,0,0,0,0,0,-1,1658,1772,0,0
441,-748,0,0,0,0,0,0,0,0,0,-1,1665,1772,0,0
448,-748,0,0,0,0,0,0,0,0,0,-1,1672,1772,0,0
455,-748,0,0,0,0,0,0,0,0,0,-1,1679,1772,0,0
462,-748,0,0,0,0,0,0,0,0,0,-1,1686,1772,0,0
469,-748,0,0,0,0,0,0,0,0,0,-1,1693,1772,0,0
476,-748,0,0,0,0,0,0,0,0,0,-1,1700,1772,0,0
483,-748,0,0,0,0,0,0,0,0,0,-1,1707,1772,0,0
490,-748,0,0,0,0,0,0,0,0,0,-1,1714,1772,0,0
497,-748,0,0,0,0,0,0,0,0,0,-1,1721,1772,0,0
504,-748,0,0,0,0,0,0,0,0,0,-1,1728,1772,0,0
511,-748,0,0,0,0,0,0,0,0,0,-1,1735,1772,0,0
518,-748,0,0,0,0,0,0,0,0,0,-1,1742,1772,0,0
525,-748,0,0,0,0,0,0,0,0,0,-1,1749,1772,0,0
532,-748,0,0,0,0,0,0,0,0,0,-1,1756,1772,0,0
539,-748,0,0,0,0,0,0,0,0,0,-1,1763,1772,0,0
546,-748,0,0,0,0,0,0,0,0,0,-1,1770,1772,0,0
553,-748,0,0,0,0,0,0,0,0,0,-1,1777,1772,0,0
560,-748,0,0,0,0,0,0,0,0,0,-1,1784,1772,0,0
567,-748,0,0,0,0,0,0,0,0,0,-1,1791,1772,0,0
574,-748,0,0,0,0,0,0,0,0,0,-1,1798,1772,0,0
581,-748,0,0,0,0,0,0,0,0,0,-1,1805,1772,0,0
588,-748,0,0,0,0,0,0,0,0,0,-1,1812,1772,0,0
595,-748,0,0,0,0,0,0,0,0,0,-1,1819,1772,0,0
602,-748,0,0,0,0,0,0,0,0,0,-1,1826,1772,0,0
609,-748,0,0,0,0,0,0,0,0,0,-1,1833,1772,0,0
616,-748,0,0,0,0,0,0,0,0,0,-1,1840,1772,0,0
623,-748,0,0,0,0,0,0,0,0,0,-1,1847,1772,0,0
630,-748,0,0,0,0,0,0,0,0,0,-1,1854,1772,0,0
637,-748,0,0,0,0,0,0,0,0,0,-1,1861,1772,0,0
644,-748,0,0,0,0,0,0,0,0,0,-1,1868,1772,0,0
651,-748,0,0,0,0,0,0,0,0,0,-1,1875,1772,0,0
658,-748,0,0,0,0,0,0,0,0,0,-1,1882,1772,0,0
665,-748,0,0,0,0,0,0,0,0,0,-1,1889,1772,0,0
672,-748,0,0,0,0,0,0,0,0,0,-1,1896,1772,0,0
679,-748,0,0,0,0,0,0,0,0,0,-1,1903,1772,0,0
686,-748,0,0,0,0,0,0,0,0,0,-1,1910,1772,0,0
693,-748,0,0,0,0,0,0,0,0,0,-1,1917,1772,0,0
700,-748,0,0,0,0,0,0,0,0,0,-1,1924,1772,0,0
707,-748,0,0,0,0,0,0,0,0,0,-1,1931,1772,0,0
714,-748,0,0,0,0,0,0,0,0,0,-1,1938,1772,0,0
721,-748,0,0,0,0,0,0,0,0,0,-1,1945,1772,0,0
728,-748,0,0,0,0,0,0,0,0,0,-1,1952,1772,0,0
735,-748,0,0,0,0,0,0,0,0,0,-1,1959,1772,0,0
742,-748,0,0,0,0,0,0,0,0,0,-1,1966,1772,0,0
749,-748,0,0,0,0,0,0,0,0,0,-1,1973,1772,0,0
756,-748,0,0,0,0,0,0,0,0,0,-1,1980,1772,0,0
763,-748,0,0,0,0,0,0,0,0,0,-1,1987,1772,0,0
770,-748,0,0,0,0,0,0,0,0,0,-1,1994,1772,0,0
777,-748,0,0,0,0,0,0,0,0,0,-1,2001,1772,0,0
784,-748,0,0,0,0,0,0,0,0,0,-1,2008,1772,0,0
791,-748,0,0,0,0,0,0,0,0,0,-1,2015,1772,0,0
798,-748,0,0,0,0,0,0,0,0,0,-1,2022,1772,0,0
805,-748,0,0,0,0,0,0,0,0,0,-1,2029,1772,0,0
812,-748,0,0,0,0,0,0,0,0,0,-1,2036,1772,0,0
-700,-755,0,0,0,0,0,0,0,0,0,-1,524,1779,0,0
-693,-755,0,0,0,0,0,0,0,0,0,-1,531,1779,0,0
-686,-755,0,0,0,0,0,0,0,0,0,-1,538,1779,0,0
-679,-755,0,0,0,0,0,0,0,0,0,-1,545,1779,0,0
-672,-755,0,0,0,0,0,0,0,0,0,-1,552,1779,0,0
-665,-755,0,0,0,0,0,0,0,0,0,-1,559,1779,0,0
-658,-755,0,0,0,0,0,0,0,0,0,-1,566,1779,0,0
-651,-755,0,0,0,0,0,0,0,0,0,-1,573,1779,0,0
-644,-755,0,0,0,0,0,0,0,0,0,-1,580,1779,0,0
-637,-755,0,0,0,0,0,0,0,0,0,-1,587,1779,0,0
-630,-755,0,0,0,0,0,0,0,0,0,-1,594,1779,0,0
-623,-755,0,0,0,0,0,0,0,0,0,-1,601,1779,0,0
-616,-755,0,0,0,0,0,0,0,0,0,-1,608,1779,0,0
-609,-755,0,0,0,0,0,0,0,0,0,-1,615,1779,0,0
-602,-755,0,0,0,0,0,0,0,0,0,-1,622,1779,0,0
-595,-755,0,0,0,0,0,0,0,0,0,-1,629,1779,0,0
-588,-755,0,0,0,0,0,0,0,0,0,-1,636,1779,0,0
-581,-755,0,0,0,0,0,0,0,0,0,-1,643,1779,0,0
-574,-755,0,0,0,0,0,0,0,0,0,-1,650,1779,0,0
-567,-755,0,0,0,0,0,0,0,0,0,-1,657,1779,0,0
-560,-755,0,0,0,0,0,0,0,0,0,-1,664,1779,0,0
-553,-755,0,0,0,0,0,0,0,0,0,-1,671,1779,0,0
-546,-755,0,0,0,0,0,0,0,0,0,-1,678,1779,0,0
-539,-755,0,0,0,0,0,0,0,0,0,-1,685,1779,0,0
-532,-755,0,0,0,0,0,0,0,0,0,-1,692,1779,0,0
-525,-755,0,0,0,0,0,0,0,0,0,-1,699,1779,0,0
-518,-755,0,0,0,0,0,0,0,0,0,-1,706,1779,0,0
-511,-755,0,0,0,0,0,0,0,0,0,-1,713,1779,0,0
-504,-755,0,0,0,0,0,0,0,0,0,-1,720,1779,0,0
-497,-755,0,0,0,0,0,0,0,0,0,-1,727,1779,0,0
-490,-755,0,0,0,0,0,0,0,0,0,-1,734,1779,0,0
-483,-755,0,0,0,0,0,0,0,0,0,-1,741,1779,0,0
-476,-755,0,0,0,0,0,0,0,0,0,-1,748,1779,0,0
-469,-755,0,0,0,0,0,0,0,0,0,-1,755,1779,0,0
-462,-755,0,0,0,0,0,0,0,0,0,-1,762,1779,0,0
-455,-755,0,0,0,0,0,0,0,0,0,-1,769,1779,0,0
-448,-755,0,0,0,0,0,0,0,0,0,-1,776,1779,0,0
-441,-755,0,0,0,0,0,0,0,0,0,-1,783,1779,0,0
-434,-755,0,0,0,0,0,0,0,0,0,-1,790,1779,0,0
-427,-755,0,0,0,0,0,0,0,0,0,-1,797,1779,0,0
-420,-755,0,0,0,0,0,0,0,0,0,-1,804,1779,0,0
-413,-755,0,0,0,0,0,0,0,0,0,-1,811,1779,0,0
-406,-755,0,0,0,0,0,0,0,0,0,-1,818,1779,0,0
-399,-755,0,0,0,0,0,0,0,0,0,-1,825,1779,0,0
-392,-755,0,0,0,0,0,0,0,0,0,-1,832,1779,0,0
-385,-755,0,0,0,0,0,0,0,0,0,-1,839,1779,0,0
-378,-755,0,0,0,0,0,0,0,0,0,-1,846,1779,0,0
-371,-755,0,0,0,0,0,0,0,0,0,-1,853,1779,0,0
-364,-755,0,0,0,0,0,0,0,0,0,-1,860,1779,0,0
-357,-755,0,0,0,0,0,0,0,0,0,-1,867,1779,0,0
-350,-755,0,0,0,0,0,0,0,0,0,-1,874,1779,0,0
-343,-755,0,0,0,0,0,0,0,0,0,-1,881,1779,0,0
-336,-755,0,0,0,0,0,0,0,0,0,-1,888,1779,0,0
-329,-755,0,0,0,0,0,0,0,0,0,-1,895,1779,0,0
-322,-755,0,0,0,0,0,0,0,0,0,-1,902,1779,0,0
-315,-755,0,0,0,0,0,0,0,0,0,-1,909,1779,0,0
-308,-755,0,0,0,0,0,0,0,0,0,-1,916,1779,0,0
-301,-755,0,0,0,0,0,0,0,0,0,-1,923,1779,0,0
-294,-755,0,0,0,0,0,0,0,0,0,-1,930,1779,0,0
-287,-755,0,0,0,0,0,0,0,0,0,-1,937,1779,0,0
-280,-755,0,0,0,0,0,0,0,0,0,-1,944,1779,0,0
-273,-755,0,0,0,0,0,0,0,0,0,-1,951,1779,0,0
-266,-755,0,0,0,0,0,0,0,0,0,-1,958,1779,0,0
-259,-755,0,0,0,0,0,0,0,0,0,-1,965,1779,0,0
-252,-755,0,0,0,0,0,0,0,0,0,-1,972,1779,0,0
-245,-755,0,0,0,0,0,0,0,0,0,-1,979,1779,0,0
-238,-755,0,0,0,0,0,0,0,0,0,-1,986,1779,0,0
-231,-755,0,0,0,0,0,0,0,0,0,-1,993,1779,0,0
-224,-755,0,0,0,0,0,0,0,0,0,-1,1000,1779,0,0
-217,-755,0,0,0,0,0,0,0,0,0,-1,1007,1779,0,0
-210,-755,0,0,0,0,0,0,0,0,0,-1,1014,1779,0,0
-203,-755,8.97363,30.5414,0,0,0,0,0,0,0,-1,1021,1779,8.97362,-30.5414
-196,-755,8.34436,29.0909,0,0,0,0,0,0,0,-1,1028,1779,8.3443,-29.091
-189,-755,4.8175,22.4788,0,0,0,0,0,0,0,-1,1035,1779,4.81745,-22.4788
-182,-755,4.021,20.8032,0,0,0,0,0,0,0,-1,1042,1779,4.02094,-20.8032
-175,-755,3.79993,18.8242,0,0,0,0,0,0,0,-1,1049,1779,3.79995,-18.8242
-168,-755,3.14294,16.9865,0,0,0,0,0,0,0,-1,1056,1779,3.14291,-16.9864
-161,-755,-2.85889,11.5868,0,0,0,0,0,0,0,-1,1063,1779,-2.85887,-11.5868
-154,-755,-5.39026,8.51416,0,0,0,0,0,0,0,-1,1070,1779,-5.3903,-8.51417
-147,-755,-6.45593,10.2422,0,0,0,0,0,0,0,-1,1077,1779,-6.45594,-10.2422
-140,-755,1.33521,21.3856,0,0,0,0,0,0,0,-1,1084,1779,1.33522,-21.3857
-133,-755,2.89417,21.0964,0,0,0,0,0,0,0,-1,1091,1779,2.89422,-21.0964
-126,-755,3.26404,20.9304,0,0,0,0,0,0,0,-1,1098,1779,3.26399,-20.9305
-119,-755,5.17761,21.9325,0,0,0,0,0,0,0,-1,1105,1779,5.17761,-21.9325
-112,-755,5.40247,24.5646,0,0,0,0,0,0,0,-1,1112,1779,5.40244,-24.5646
-105,-755,7.01294,20.1539,0,0,0,0,0,0,0,-1,1119,1779,7.01295,-20.154
-98,-755,5.50708,16.9628,0,0,0,0,0,0,0,-1,1126,1779,5.5071,-16.9628
-91,-755,5.51025,12.0438,0,0,0,0,0,0,0,-1,1133,1779,5.51022,-12.0439
-84,-755,0.169312,8.66443,0,0,0,0,0,0,0,-1,1140,1779,0.16932,-8.66446
-77,-755,-0.0491943,6.87439,0,0,0,0,0,0,0,-1,1147,1779,-0.0491385,-6.87443
-70,-755,4.5686,13.2169,0,0,0,0,0,0,0,-1,1154,1779,4.56865,-13.2169
-63,-755,-1.36316,7.3147,0,0,0,0,0,0,0,-1,1161,1779,-1.36312,-7.31473
-56,-755,0.0483398,5.06079,0,0,0,0,0,0,0,-1,1168,1779,0.0483138,-5.06084
-49,-755,-1.32263,5.33716,0,0,0,0,0,0,0,-1,1175,1779,-1.32264,-5.33718
-42,-755,-2.03613,4.01672,0,0,0,0,0,0,0,-1,1182,1779,-2.0361,-4.01671
-35,-755,-2.72498,2.37476,0,0,0,0,0,0,0,-1,1189,1779,-2.72502,-2.37473
-28,-755,8.26904,38.1047,0,0,0,0,0,0,0,-1,1196,1779,8.26902,-38.1047
-21,-755,8.30737,38.6162,0,0,0,0,0,0,0,-1,1203,1779,8.30741,-38.6162
-14,-755,8.28857,38.6285,-0.00991349,0.0343843,0.00285352,0.0345673,-0.0100965,1.50673,0.0270461,0.0328665,1210,1779,8.28859,-38.6285
-7,-755,8.23657,38.6691,-0.00905029,0.0318973,0.00292792,0.0321056,-0.00925859,1.49977,0.0250665,0.0225032,1217,1779,8.23654,-38.669
0,-755,8.21753,38.7651,-0.00839511,0.0293671,0.00222321,0.0294975,-0.00852555,1.51219,0.0230388,0.0145983,1224,1779,8.21757,-38.7651
7,-755,8.1991,38.8818,-0.00739778,0.0270185,0.00143124,0.0270779,-0.0074572,1.52931,0.0209841,0.0127793,1231,1779,8.19916,-38.8818
14,-755,8.16956,38.9722,-0.00602776,0.0253027,0.000852211,0.0253259,-0.00605092,1.54362,0.019221,0.0111645,1238,1779,8.16954,-38.9721
21,-755,8.08301,39.0404,-0.00458717,0.0243149,0.000145491,0.0243156,-0.0045879,1.56576,0.0179364,0.015361,1245,1779,8.08299,-39.0404
28,-755,8.05652,39.0789,-0.00319683,0.0238888,-0.000605397,0.0239023,-0.00321035,-1.54846,0.0171057,0.0179949,1252,1779,8.05651,-39.0788
35,-755,8.04456,39.1802,0.000285237,0.0227885,-0.000550292,0.022802,0.000271789,-1.54636,0.0151115,0.0184828,1259,1779,8.04451,-39.1802
42,-755,8.01025,39.2043,0.00347832,0.0208548,-0.000570245,0.0208735,0.00345963,-1.53803,0.0129178,0.0145267,1266,1779,8.01022,-39.2044
49,-755,7.97388,39.1884,0.00601065,0.0201858,-0.000472006,0.0202015,0.00599495,-1.53755,0.0119802,0.00989499,1273,1779,7.97391,-39.1884
56,-755,7.92908,39.2225,0.00872166,0.019569,-0.000288083,0.0195766,0.00871401,-1.54426,0.0113252,0.00869427,1280,1779,7.92903,-39.2225
63,-755,7.90649,39.2361,0.01138,0.0183248,5.19172e-05,0.0183252,0.0113796,1.56332,0.0106828,0.00907912,1287,1779,7.90645,-39.236
70,-755,7.88611,39.2213,0.0139723,0.0170849,0.00072673,0.0172463,0.013811,1.35237,0.0105407,0.0119579,1294,1779,7.88611,-39.2214
77,-755,7.84045,39.2046,0.0160096,0.0160937,0.00167254,0.0177248,0.0143786,0.797965,0.0108741,0.0117475,1301,1779,7.84039,-39.2046
84,-755,7.82825,39.1953,0.0171832,0.0147145,0.00240217,0.0186496,0.0132481,0.54807,0.0110805,0.0124099,1308,1779,7.8282,-39.1954
91,-755,7.78589,39.1581,0.0176691,0.0132237,0.00270456,0.0189471,0.0119457,0.441444,0.0110626,0.0123614,1315,1779,7.78588,-39.158
98,-755,7.71399,39.1382,0.0175457,0.011909,0.00286997,0.0187497,0.0107049,0.397236,0.0108614,0.0129587,1322,1779,7.71404,-39.1382
105,-755,7.71326,39.1246,0.0170284,0.0105248,0.00344533,0.0185142,0.00903903,0.407144,0.0106901,0.0164257,1329,1779,7.71326,-39.1247
112,-755,7.66687,39.0557,0.015704,0.00930934,0.00350449,0.0172505,0.00776279,0.4156,0.00997618,0.0224455,1336,1779,7.66685,-39.0557
119,-755,7.62378,38.9875,0.0137729,0.00790881,0.00282923,0.0149153,0.00676637,0.383778,0.00862368,0.0240386,1343,1779,7.62378,-38.9875
126,-755,7.62256,38.9882,0.0117797,0.00624795,0.00227318,0.012594,0.00543369,0.343966,0.00729388,0.0273166,1350,1779,7.62261,-38.9882
133,-755,7.50903,38.8857,0.00963573,0.00463607,0.00162727,0.0101187,0.00415309,0.288522,0.0058732,0.0264838,1357,1779,7.50902,-38.8858
140,-755,7.4054,38.7898,0.00374044,0.00496531,-0.000197226,0.00499629,0.00370947,-1.41502,0.00299551,0.0332384,1364,1779,7.40536,-38.7897
147,-755,7.5647,38.6892,0.000147973,0.00613742,-0.000819583,0.00624754,3.78478e-05,-1.43723,0.00415247,0.0373856,1371,1779,7.56465,-38.6892
154,-755,7.49817,38.6196,-0.000393912,0.00249253,-0.00111234,0.00287144,-0.000772826,-1.24248,0.00221726,0.037367,1378,1779,7.49818,-38.6197
161,-755,7.33936,38.4797,0,0,0,0,0,0,0,-1,1385,1779,7.33936,-38.4797
168,-755,3.98181,7.35901,0,0,0,0,0,0,0,-1,1392,1779,3.98184,-7.35904
175,-755,8.17065,1.34363,0,0,0,0,0,0,0,-1,1399,1779,8.1706,-1.34368
182,-755,8.09216,2.96924,0,0,0,0,0,0,0,-1,1406,1779,8.09213,-2.9693
189,-755,8.04419,4.68042,0,0,0,0,0,0,0,-1,1413,1779,8.04419,-4.68046
196,-755,7.74841,7.4541,0,0,0,0,0,0,0,-1,1420,1779,7.74842,-7.45405
203,-755,4.80554,6.88696,0,0,0,0,0,0,0,-1,1427,1779,4.80554,-6.88697
210,-755,25.1694,7.35693,0,0,0,0,0,0,0,-1,1434,1779,25.1694,-7.35688
217,-755,5.01648,16.411,0,0,0,0,0,0,0,-1,1441,1779,5.01646,-16.411
224,-755,5.18103,22.6283,0,0,0,0,0,0,0,-1,1448,1779,5.18101,-22.6283
231,-755,5.7489,30.15,0,0,0,0,0,0,0,-1,1455,1779,5.74885,-30.15
238,-755,6.56323,29.2726,0,0,0,0,0,0,0,-1,1462,1779,6.56327,-29.2726
245,-755,5.76453,29.2085,0,0,0,0,0,0,0,-1,1469,1779,5.76455,-29.2085
252,-755,5.57678,29.0841,0,0,0,0,0,0,0,-1,1476,1779,5.57682,-29.0841
259,-755,5.37292,29.1577,0,0,0,0,0,0,0,-1,1483,1779,5.37293,-29.1577
266,-755,17.255,7.86096,0,0,0,0,0,0,0,-1,1490,1779,17.255,-7.86092
273,-755,15.7932,7.59778,0,0,0,0,0,0,0,-1,1497,1779,15.7932,-7.59777
280,-755,14.6255,7.34802,0,0,0,0,0,0,0,-1,1504,1779,14.6254,-7.34806
287,-755,13.8279,7.83105,0,0,0,0,0,0,0,-1,1511,1779,13.8279,-7.83104
294,-755,12.5695,7.96814,0,0,0,0,0,0,0,-1,1518,1779,12.5694,-7.9682
301,-755,11.2659,8.27087,0,0,0,0,0,0,0,-1,1525,1779,11.2658,-8.27087
308,-755,9.94434,8.55811,0,0,0,0,0,0,0,-1,1532,1779,9.94428,-8.55806
315,-755,8.64502,9.04492,0,0,0,0,0,0,0,-1,1539,1779,8.64497,-9.04488
322,-755,0,0,0,0,0,0,0,0,0,-1,1546,1779,0,0
329,-755,0,0,0,0,0,0,0,0,0,-1,1553,1779,0,0
336,-755,0,0,0,0,0,0,0,0,0,-1,1560,1779,0,0
343,-755,0,0,0,0,0,0,0,0,0,-1,1567,1779,0,0
350,-755,0,0,0,0,0,0,0,0,0,-1,1574,1779,0,0
357,-755,0,0,0,0,0,0,0,0,0,-1,1581,1779,0,0
364,-755,0,0,0,0,0,0,0,0,0,-1,1588,1779,0,0
371,-755,0,0,0,0,0,0,0,0,0,-1,1595,1779,0,0
378,-755,0,0,0,0,0,0,0,0,0,-1,1602,1779,0,0
385,-755,0,0,0,0,0,0,0,0,0,-1,1609,1779,0,0
392,-755,0,0,0,0,0,0,0,0,0,-1,1616,1779,0,0
399,-755,0,0,0,0,0,0,0,0,0,-1,1623,1779,0,0
406,-755,0,0,0,0,0,0,0,0,0,-1,1630,1779,0,0
413,-755,0,0,0,0,0,0,0,0,0,-1,1637,1779,0,0
420,-755,0,0,0,0,0,0,0,0,0,-1,1644,1779,0,0
427,-755,0,0,0,0,0,0,0,0,0,-1,1651,1779,0,0
434,-755,0,0,0,0,0,0,0,0,0,-1,1658,1779,0,0
441,-755,0,0,0,0,0,0,0,0,0,-1,1665,1779,0,0
448,-755,0,0,0,0,0,0,0,0,0,-1,1672,1779,0,0
455,-755,0,0,0,0,0,0,0,0,0,-1,1679,1779,0,0
462,-755,0,0,0,0,0,0,0,0,0,-1,1686,1779,0,0
469,-755,0,0,0,0,0,0,0,0,0,-1,1693,1779,0,0
476,-755,0,0,0,0,0,0,0,0,0,-1,1700,1779,0,0
483,-755,0,0,0,0,0,0,0,0,0,-1,1707,1779,0,0
490,-755,0,0,0,0,0,0,0,0,0,-1,1714,1779,0,0
497,-755,0,0,0,0,0,0,0,0,0,-1,1721,1779,0,0
504,-755,0,0,0,0,0,0,0,0,0,-1,1728,1779,0,0
511,-755,0,0,0,0,0,0,0,0,0,-1,1735,1779,0,0
518,-755,0,0,0,0,0,0,0,0,0,-1,1742,1779,0,0
525,-755,0,0,0,0,0,0,0,0,0,-1,1749,1779,0,0
532,-755,0,0,0,0,0,0,0,0,0,-1,1756,1779,0,0
539,-755,0,0,0,0,0,0,0,0,0,-1,1763,1779,0,0
546,-755,0,0,0,0,0,0,0,0,0,-1,1770,1779,0,0
553,-755,0,0,0,0,0,0,0,0,0,-1,1777,1779,0,0
560,-755,0,0,0,0,0,0,0,0,0,-1,1784,1779,0,0
567,-755,0,0,0,0,0,0,0,0,0,-1,1791,1779,0,0
574,-755,0,0,0,0,0,0,0,0,0,-1,1798,1779,0,0
581,-755,0,0,0,0,0,0,0,0,0,-1,1805,1779,0,0
588,-755,0,0,0,0,0,0,0,0,0,-1,1812,1779,0,0
595,-755,0,0,0,0,0,0,0,0,0,-1,1819,1779,0,0
602,-755,0,0,0,0,0,0,0,0,0,-1,1826,1779,0,0
609,-755,0,0,0,0,0,0,0,0,0,-1,1833,1779,0,0
616,-755,0,0,0,0,0,0,0,0,0,-1,1840,1779,0,0
623,-755,0,0,0,0,0,0,0,0,0,-1,1847,1779,0,0
630,-755,0,0,0,0,0,0,0,0,0,-1,1854,1779,0,0
637,-755,0,0,0,0,0,0,0,0,0,-1,1861,1779,0,0
644,-755,0,0,0,0,0,0,0,0,0,-1,1868,1779,0,0
651,-755,0,0,0,0,0,0,0,0,0,-1,1875,1779,0,0
658,-755,0,0,0,0,0,0,0,0,0,-1,1882,1779,0,0
665,-755,0,0,0,0,0,0,0,0,0,-1,1889,1779,0,0
672,-755,0,0,0,0,0,0,0,0,0,-1,1896,1779,0,0
679,-755,0,0,0,0,0,0,0,0,0,-1,1903,1779,0,0
686,-755,0,0,0,0,0,0,0,0,0,-1,1910,1779,0,0
693,-755,0,0,0,0,0,0,0,0,0,-1,1917,1779,0,0
700,-755,0,0,0,0,0,0,0,0,0,-1,1924,1779,0,0
707,-755,0,0,0,0,0,0,0,0,0,-1,1931,1779,0,0
714,-755,0,0,0,0,0,0,0,0,0,-1,1938,1779,0,0
721,-755,0,0,0,0,0,0,0,0,0,-1,1945,1779,0,0
728,-755,0,0,0,0,0,0,0,0,0,-1,1952,1779,0,0
735,-755,0,0,0,0,0,0,0,0,0,-1,1959,1779,0,0
742,-755,0,0,0,0,0,0,0,0,0,-1,1966,1779,0,0
749,-755,0,0,0,0,0,0,0,0,0,-1,1973,1779,0,0
756,-755,0,0,0,0,0,0,0,0,0,-1,1980,1779,0,0
763,-755,0,0,0,0,0,0,0,0,0,-1,1987,1779,0,0
770,-755,0,0,0,0,0,0,0,0,0,-1,1994,1779,0,0
777,-755,0,0,0,0,0,0,0,0,0,-1,2001,1779,0,0
784,-755,0,0,0,0,0,0,0,0,0,-1,2008,1779,0,0
791,-755,0,0,0,0,0,0,0,0,0,-1,2015,1779,0,0
798,-755,0,0,0,0,0,0,0,0,0,-1,2022,1779,0,0
805,-755,0,0,0,0,0,0,0,0,0,-1,2029,1779,0,0
812,-755,0,0,0,0,0,0,0,0,0,-1,2036,1779,0,0
-700,-762,0,0,0,0,0,0,0,0,0,-1,524,1786,0,0
-693,-762,0,0,0,0,0,0,0,0,0,-1,531,1786,0,0
-686,-762,0,0,0,0,0,0,0,0,0,-1,538,1786,0,0
-679,-762,0,0,0,0,0,0,0,0,0,-1,545,1786,0,0
-672,-762,0,0,0,0,0,0,0,0,0,-1,552,1786,0,0
-665,-762,0,0,0,0,0,0,0,0,0,-1,559,1786,0,0
-658,-762,0,0,0,0,0,0,0,0,0,-1,566,1786,0,0
-651,-762,0,0,0,0,0,0,0,0,0,-1,573,1786,0,0
-644,-762,0,0,0,0,0,0,0,0,0,-1,580,1786,0,0
-637,-762,0,0,0,0,0,0,0,0,0,-1,587,1786,0,0
-630,-762,0,0,0,0,0,0,0,0,0,-1,594,1786,0,0
-623,-762,0,0,0,0,0,0,0,0,0,-1,601,1786,0,0
-616,-762,0,0,0,0,0,0,0,0,0,-1,608,1786,0,0
-609,-762,0,0,0,0,0,0,0,0,0,-1,615,1786,0,0
-602,-762,0,0,0,0,0,0,0,0,0,-1,622,1786,0,0
-595,-762,0,0,0,0,0,0,0,0,0,-1,629,1786,0,0
-588,-762,0,0,0,0,0,0,0,0,0,-1,636,1786,0,0
-581,-762,0,0,0,0,0,0,0,0,0,-1,643,1786,0,0
-574,-762,0,0,0,0,0,0,0,0,0,-1,650,1786,0,0
-567,-762,0,0,0,0,0,0,0,0,0,-1,657,1786,0,0
-560,-762,0,0,0,0,0,0,0,0,0,-1,664,1786,0,0
-553,-762,0,0,0,0,0,0,0,0,0,-1,671,1786,0,0
-546,-762,0,0,0,0,0,0,0,0,0,-1,678,1786,0,0
-539,-762,0,0,0,0,0,0,0,0,0,-1,685,1786,0,0
-532,-762,0,0,0,0,0,0,0,0,0,-1,692,1786,0,0
-525,-762,0,0,0,0,0,0,0,0,0,-1,699,1786,0,0
-518,-762,0,0,0,0,0,0,0,0,0,-1,706,1786,0,0
-511,-762,0,0,0,0,0,0,0,0,0,-1,713,1786,0,0
-504,-762,0,0,0,0,0,0,0,0,0,-1,720,1786,0,0
-497,-762,0,0,0,0,0,0,0,0,0,-1,727,1786,0,0
-490,-762,0,0,0,0,0,0,0,0,0,-1,734,1786,0,0
-483,-762,0,0,0,0,0,0,0,0,0,-1,741,1786,0,0
-476,-762,0,0,0,0,0,0,0,0,0,-1,748,1786,0,0
-469,-762,0,0,0,0,0,0,0,0,0,-1,755,1786,0,0
-462,-762,0,0,0,0,0,0,0,0,0,-1,762,1786,0,0
-455,-762,0,0,0,0,0,0,0,0,0,-1,769,1786,0,0
-448,-762,0,0,0,0,0,0,0,0,0,-1,776,1786,0,0
-441,-762,0,0,0,0,0,0,0,0,0,-1,783,1786,0,0
-434,-762,0,0,0,0,0,0,0,0,0,-1,790,1786,0,0
-427,-762,0,0,0,0,0,0,0,0,0,-1,797,1786,0,0
-420,-762,0,0,0,0,0,0,0,0,0,-1,804,1786,0,0
-413,-762,0,0,0,0,0,0,0,0,0,-1,811,1786,0,0
-406,-762,0,0,0,0,0,0,0,0,0,-1,818,1786,0,0
-399,-762,0,0,0,0,0,0,0,0,0,-1,825,1786,0,0
-392,-762,0,0,0,0,0,0,0,0,0,-1,832,1786,0,0
-385,-762,0,0,0,0,0,0,0,0,0,-1,839,1786,0,0
-378,-762,0,0,0,0,0,0,0,0,0,-1,846,1786,0,0
-371,-762,0,0,0,0,0,0,0,0,0,-1,853,1786,0,0
-364,-762,0,0,0,0,0,0,0,0,0,-1,860,1786,0,0
-357,-762,0,0,0,0,0,0,0,0,0,-1,867,1786,0,0
-350,-762,0,0,0,0,0,0,0,0,0,-1,874,1786,0,0
-343,-762,0,0,0,0,0,0,0,0,0,-1,881,1786,0,0
-336,-762,0,0,0,0,0,0,0,0,0,-1,888,1786,0,0
-329,-762,0,0,0,0,0,0,0,0,0,-1,895,1786,0,0
-322,-762,0,0,0,0,0,0,0,0,0,-1,902,1786,0,0
-315,-762,0,0,0,0,0,0,0,0,0,-1,909,1786,0,0
-308,-762,0,0,0,0,0,0,0,0,0,-1,916,1786,0,0
-301,-762,0,0,0,0,0,0,0,0,0,-1,923,1786,0,0
-294,-762,0,0,0,0,0,0,0,0,0,-1,930,1786,0,0
-287,-762,0,0,0,0,0,0,0,0,0,-1,937,1786,0,0
-280,-762,0,0,0,0,0,0,0,0,0,-1,944,1786,0,0
-273,-762,0,0,0,0,0,0,0,0,0,-1,951,1786,0,0
-266,-762,0,0,0,0,0,0,0,0,0,-1,958,1786,0,0
-259,-762,0,0,0,0,0,0,0,0,0,-1,965,1786,0,0
-252,-762,0,0,0,0,0,0,0,0,0,-1,972,1786,0,0
-245,-762,0,0,0,0,0,0,0,0,0,-1,979,1786,0,0
-238,-762,0,0,0,0,0,0,0,0,0,-1,986,1786,0,0
-231,-762,0,0,0,0,0,0,0,0,0,-1,993,1786,0,0
-224,-762,0,0,0,0,0,0,0,0,0,-1,1000,1786,0,0
-217,-762,0,0,0,0,0,0,0,0,0,-1,1007,1786,0,0
-210,-762,0,0,0,0,0,0,0,0,0,-1,1014,1786,0,0
-203,-762,0,0,0,0,0,0,0,0,0,-1,1021,1786,0,0
-196,-762,0,0,0,0,0,0,0,0,0,-1,1028,1786,0,0
-189,-762,0,0,0,0,0,0,0,0,0,-1,1035,1786,0,0
-182,-762,4.44226,13.2462,0,0,0,0,0,0,0,-1,1042,1786,4.44227,-13.2462
-175,-762,4.3219,18.3975,0,0,0,0,0,0,0,-1,1049,1786,4.32192,-18.3974
-168,-762,-2.08618,13.0768,0,0,0,0,0,0,0,-1,1056,1786,-2.08623,-13.0768
-161,-762,-3.29077,11.9508,0,0,0,0,0,0,0,-1,1063,1786,-3.29076,-11.9508
-154,-762,-4.55823,11.1176,0,0,0,0,0,0,0,-1,1070,1786,-4.55828,-11.1175
-147,-762,-6.52454,9.41418,0,0,0,0,0,0,0,-1,1077,1786,-6.52458,-9.41419
-140,-762,4.99792,5.28589,0,0,0,0,0,0,0,-1,1084,1786,4.99793,-5.28587
-133,-762,0.689819,19.2172,0,0,0,0,0,0,0,-1,1091,1786,0.689867,-19.2171
-126,-762,1.48743,19.9288,0,0,0,0,0,0,0,-1,1098,1786,1.48738,-19.9289
-119,-762,2.65637,20.208,0,0,0,0,0,0,0,-1,1105,1786,2.65632,-20.208
-112,-762,6.84705,25.5554,0,0,0,0,0,0,0,-1,1112,1786,6.84706,-25.5554
-105,-762,5.57947,21.618,0,0,0,0,0,0,0,-1,1119,1786,5.57948,-21.618
-98,-762,5.0636,17.9901,0,0,0,0,0,0,0,-1,1126,1786,5.06361,-17.9901
-91,-762,4.54773,14.3622,0,0,0,0,0,0,0,-1,1133,1786,4.54774,-14.3622
-84,-762,3.96375,10.4547,0,0,0,0,0,0,0,-1,1140,1786,3.96371,-10.4548
-77,-762,0.305054,8.49365,0,0,0,0,0,0,0,-1,1147,1786,0.305008,-8.49362
-70,-762,0.183716,6.74622,0,0,0,0,0,0,0,-1,1154,1786,0.183696,-6.74621
-63,-762,-0.883057,9.08813,0,0,0,0,0,0,0,-1,1161,1786,-0.88311,-9.08808
-56,-762,-0.578979,5.10254,0,0,0,0,0,0,0,-1,1168,1786,-0.578951,-5.10249
-49,-762,-2.04541,3.66321,0,0,0,0,0,0,0,-1,1175,1786,-2.0454,-3.66319
-42,-762,-2.23462,3.474,0,0,0,0,0,0,0,-1,1182,1786,-2.23459,-3.47399
-35,-762,-3.28992,1.68164,0,0,0,0,0,0,0,-1,1189,1786,-3.28998,-1.68164
-28,-762,-3.75378,1.37769,0,0,0,0,0,0,0,-1,1196,1786,-3.75373,-1.37767
-21,-762,8.42566,38.9344,0,0,0,0,0,0,0,-1,1203,1786,8.42563,-38.9344
-14,-762,8.34839,38.8101,-0.0130895,0.0510648,0.00400655,0.051314,-0.0133387,1.50867,0.0394152,0.0482699,1210,1786,8.34841,-38.81
-7,-762,8.29565,38.7218,-0.0118014,0.0472727,0.00401796,0.0475447,-0.0120734,1.5032,0.0363947,0.0472848,1217,1786,8.29563,-38.7218
0,-762,8.29895,38.8107,-0.0107007,0.0435135,0.00309531,0.0436897,-0.0108768,1.51395,0.0333486,0.0369216,1224,1786,8.29889,-38.8107
7,-762,8.32739,38.925,-0.00927142,0.0399463,0.00187325,0.0400175,-0.00934261,1.53281,0.0302769,0.022007,1231,1786,8.32745,-38.9251
14,-762,8.24792,39.1482,-0.00738766,0.0372799,0.000880027,0.0372972,-0.00740499,1.5511,0.0276655,0.0349969,1238,1786,8.24793,-39.1481
21,-762,8.04016,39.0166,-0.00541679,0.0356183,-0.000261809,0.03562,-0.00541847,-1.56442,0.0257436,0.0448038,1245,1786,8.04021,-39.0166
28,-762,7.79883,39.1013,-0.00352702,0.0348247,-0.00143565,0.0348783,-0.00358069,-1.53343,0.024533,0.0424248,1252,1786,7.79889,-39.1013
35,-762,7.83801,39.286,0.0011341,0.0329918,-0.00145992,0.0330586,0.00106733,-1.5251,0.021692,0.0435613,1259,1786,7.83804,-39.286
42,-762,7.99353,39.2902,0.00540437,0.0302639,-0.00157056,0.0303627,0.00530554,-1.50795,0.0187255,0.0461093,1266,1786,7.99352,-39.2901
49,-762,7.99597,39.2214,0.00881456,0.0292426,-0.00146398,0.029347,0.00871018,-1.49962,0.0174037,0.0375076,1273,1786,7.99599,-39.2214
56,-762,7.97217,39.2338,0.012473,0.0284145,-0.00121073,0.028506,0.0123816,-1.49542,0.0165051,0.0266872,1280,1786,7.97221,-39.2337
63,-762,7.91956,39.2441,0.0161494,0.0268354,-0.000709391,0.0268823,0.0161025,-1.5048,0.0156216,0.0232925,1287,1786,7.91955,-39.2442
70,-762,7.86487,39.2417,0.0197527,0.0251844,0.000271849,0.025198,0.0197392,1.52091,0.015307,0.0237315,1294,1786,7.86488,-39.2417
77,-762,7.80933,39.1624,0.0226491,0.0241733,0.00168253,0.0252582,0.0215641,0.998044,0.0157525,0.0324018,1301,1786,7.80933,-39.1623
84,-762,7.90259,39.1456,0.0245262,0.0226677,0.00284404,0.026589,0.020605,0.627493,0.0161062,0.0396314,1308,1786,7.9026,-39.1456
91,-762,7.87585,39.2825,0.0254856,0.0210187,0.00339028,0.027312,0.0191923,0.494135,0.0161948,0.0469754,1315,1786,7.87585,-39.2825
98,-762,7.72595,39.3423,0.0256128,0.0196212,0.00368931,0.0273694,0.0178645,0.444387,0.0160456,0.0469317,1322,1786,7.72595,-39.3423
105,-762,7.69519,39.2555,0.0251681,0.0182605,0.00448164,0.0273724,0.0160562,0.457102,0.0158823,0.0438778,1329,1786,7.69517,-39.2555
112,-762,7.57263,39.1794,0.0237238,0.0173119,0.0045711,0.0261012,0.0149346,0.479581,0.0151218,0.0458869,1336,1786,7.57265,-39.1794
119,-762,7.53577,38.9269,0,0,0,0,0,0,0,-1,1343,1786,7.53574,-38.9269
126,-762,7.55627,39.0553,0,0,0,0,0,0,0,-1,1350,1786,7.55624,-39.0553
133,-762,7.41809,38.9457,0,0,0,0,0,0,0,-1,1357,1786,7.41809,-38.9457
140,-762,7.33313,38.7937,0.00859532,0.0123832,-0.000599862,0.012476,0.00850259,-1.41743,0.00735952,0.0454156,1364,1786,7.33312,-38.7938
147,-762,7.40308,38.5743,0.00310581,0.0135873,-0.00148884,0.0137947,0.00289844,-1.4324,0.00839872,0.0463235,1371,1786,7.40313,-38.5743
154,-762,7.4718,38.3621,0,0,0,0,0,0,0,-1,1378,1786,7.47186,-38.362
161,-762,8.65051,34.8102,0,0,0,0,0,0,0,-1,1385,1786,8.65054,-34.8101
168,-762,8.19287,0.880615,0,0,0,0,0,0,0,-1,1392,1786,8.19291,-0.880603
175,-762,8.33997,1.95947,0,0,0,0,0,0,0,-1,1399,1786,8.33997,-1.95942
182,-762,8.28418,3.56482,0,0,0,0,0,0,0,-1,1406,1786,8.28415,-3.56485
189,-762,8.21179,5.23389,0,0,0,0,0,0,0,-1,1413,1786,8.21183,-5.23383
196,-762,8.05969,6.95483,0,0,0,0,0,0,0,-1,1420,1786,8.05972,-6.9548
203,-762,24.0077,7.10425,0,0,0,0,0,0,0,-1,1427,1786,24.0077,-7.10426
210,-762,23.8073,7.6499,0,0,0,0,0,0,0,-1,1434,1786,23.8073,-7.64987
217,-762,23.3193,8.24426,0,0,0,0,0,0,0,-1,1441,1786,23.3194,-8.2442
224,-762,2.65149,20.6106,0,0,0,0,0,0,0,-1,1448,1786,2.65153,-20.6106
231,-762,5.46655,23.521,0,0,0,0,0,0,0,-1,1455,1786,5.46653,-23.521
238,-762,5.35632,29.7203,0,0,0,0,0,0,0,-1,1462,1786,5.35629,-29.7203
245,-762,5.84509,28.6954,0,0,0,0,0,0,0,-1,1469,1786,5.84509,-28.6954
252,-762,5.82837,27.7246,0,0,0,0,0,0,0,-1,1476,1786,5.82839,-27.7247
259,-762,10.7311,18.3031,0,0,0,0,0,0,0,-1,1483,1786,10.7311,-18.3031
266,-762,16.451,7.67773,0,0,0,0,0,0,0,-1,1490,1786,16.4511,-7.67773
273,-762,15.287,7.5304,0,0,0,0,0,0,0,-1,1497,1786,15.2869,-7.53044
280,-762,14.1501,7.38379,0,0,0,0,0,0,0,-1,1504,1786,14.1502,-7.38376
287,-762,12.6891,7.99133,0,0,0,0,0,0,0,-1,1511,1786,12.6891,-7.99135
294,-762,12.6959,8.30371,0,0,0,0,0,0,0,-1,1518,1786,12.6959,-8.30368
301,-762,11.4222,8.84143,0,0,0,0,0,0,0,-1,1525,1786,11.4223,-8.84149
308,-762,0,0,0,0,0,0,0,0,0,-1,1532,1786,0,0
315,-762,0,0,0,0,0,0,0,0,0,-1,1539,1786,0,0
322,-762,0,0,0,0,0,0,0,0,0,-1,1546,1786,0,0
329,-762,0,0,0,0,0,0,0,0,0,-1,1553,1786,0,0
336,-762,0,0,0,0,0,0,0,0,0,-1,1560,1786,0,0
343,-762,0,0,0,0,0,0,0,0,0,-1,1567,1786,0,0
350,-762,0,0,0,0,0,0,0,0,0,-1,1574,1786,0,0
357,-762,0,0,0,0,0,0,0,0,0,-1,1581,1786,0,0
364,-762,0,0,0,0,0,0,0,0,0,-1,1588,1786,0,0
371,-762,0,0,0,0,0,0,0,0,0,-1,1595,1786,0,0
378,-762,0,0,0,0,0,0,0,0,0,-1,1602,1786,0,0
385,-762,0,0,0,0,0,0,0,0,0,-1,1609,1786,0,0
392,-762,0,0,0,0,0,0,0,0,0,-1,1616,1786,0,0
399,-762,0,0,0,0,0,0,0,0,0,-1,1623,1786,0,0
406,-762,0,0,0,0,0,0,0,0,0,-1,1630,1786,0,0
413,-762,0,0,0,0,0,0,0,0,0,-1,1637,1786,0,0
420,-762,0,0,0,0,0,0,0,0,0,-1,1644,1786,0,0
427,-762,0,0,0,0,0,0,0,0,0,-1,1651,1786,0,0
434,-762,0,0,0,0,0,0,0,0,0,-1,1658,1786,0,0
441,-762,0,0,0,0,0,0,0,0,0,-1,1665,1786,0,0
448,-762,0,0,0,0,0,0,0,0,0,-1,1672,1786,0,0
455,-762,0,0,0,0,0,0,0,0,0,-1,1679,1786,0,0
462,-762,0,0,0,0,0,0,0,0,0,-1,1686,1786,0,0
469,-762,0,0,0,0,0,0,0,0,0,-1,1693,1786,0,0
476,-762,0,0,0,0,0,0,0,0,0,-1,1700,1786,0,0
483,-762,0,0,0,0,0,0,0,0,0,-1,1707,1786,0,0
490,-762,0,0,0,0,0,0,0,0,0,-1,1714,1786,0,0
497,-762,0,0,0,0,0,0,0,0,0,-1,1721,1786,0,0
504,-762,0,0,0,0,0,0,0,0,0,-1,1728,1786,0,0
511,-762,0,0,0,0,0,0,0,0,0,-1,1735,1786,0,0
518,-762,0,0,0,0,0,0,0,0,0,-1,1742,1786,0,0
525,-762,0,0,0,0,0,0,0,0,0,-1,1749,1786,0,0
532,-762,0,0,0,0,0,0,0,0,0,-1,1756,1786,0,0
539,-762,0,0,0,0,0,0,0,0,0,-1,1763,1786,0,0
546,-762,0,0,0,0,0,0,0,0,0,-1,1770,1786,0,0
553,-762,0,0,0,0,0,0,0,0,0,-1,1777,1786,0,0
560,-762,0,0,0,0,0,0,0,0,0,-1,1784,1786,0,0
567,-762,0,0,0,0,0,0,0,0,0,-1,1791,1786,0,0
574,-762,0,0,0,0,0,0,0,0,0,-1,1798,1786,0,0
581,-762,0,0,0,0,0,0,0,0,0,-1,1805,1786,0,0
588,-762,0,0,0,0,0,0,0,0,0,-1,1812,1786,0,0
595,-762,0,0,0,0,0,0,0,0,0,-1,1819,1786,0,0
602,-762,0,0,0,0,0,0,0,0,0,-1,1826,1786,0,0
609,-762,0,0,0,0,0,0,0,0,0,-1,1833,1786,0,0
616,-762,0,0,0,0,0,0,0,0,0,-1,1840,1786,0,0
623,-762,0,0,0,0,0,0,0,0,0,-1,1847,1786,0,0
630,-762,0,0,0,0,0,0,0,0,0,-1,1854,1786,0,0
637,-762,0,0,0,0,0,0,0,0,0,-1,1861,1786,0,0
644,-762,0,0,0,0,0,0,0,0,0,-1,1868,1786,0,0
651,-762,0,0,0,0,0,0,0,0,0,-1,1875,1786,0,0
658,-762,0,0,0,0,0,0,0,0,0,-1,1882,1786,0,0
665,-762,0,0,0,0,0,0,0,0,0,-1,1889,1786,0,0
672,-762,0,0,0,0,0,0,0,0,0,-1,1896,1786,0,0
679,-762,0,0,0,0,0,0,0,0,0,-1,1903,1786,0,0
686,-762,0,0,0,0,0,0,0,0,0,-1,1910,1786,0,0
693,-762,0,0,0,0,0,0,0,0,0,-1,1917,1786,0,0
700,-762,0,0,0,0,0,0,0,0,0,-1,1924,1786,0,0
707,-762,0,0,0,0,0,0,0,0,0,-1,1931,1786,0,0
714,-762,0,0,0,0,0,0,0,0,0,-1,1938,1786,0,0
721,-762,0,0,0,0,0,0,0,0,0,-1,1945,1786,0,0
728,-762,0,0,0,0,0,0,0,0,0,-1,1952,1786,0,0
735,-762,0,0,0,0,0,0,0,0,0,-1,1959,1786,0,0
742,-762,0,0,0,0,0,0,0,0,0,-1,1966,1786,0,0
749,-762,0,0,0,0,0,0,0,0,0,-1,1973,1786,0,0
756,-762,0,0,0,0,0,0,0,0,0,-1,1980,1786,0,0
763,-762,0,0,0,0,0,0,0,0,0,-1,1987,1786,0,0
770,-762,0,0,0,0,0,0,0,0,0,-1,1994,1786,0,0
777,-762,0,0,0,0,0,0,0,0,0,-1,2001,1786,0,0
784,-762,0,0,0,0,0,0,0,0,0,-1,2008,1786,0,0
791,-762,0,0,0,0,0,0,0,0,0,-1,2015,1786,0,0
798,-762,0,0,0,0,0,0,0,0,0,-1,2022,1786,0,0
805,-762,0,0,0,0,0,0,0,0,0,-1,2029,1786,0,0
812,-762,0,0,0,0,0,0,0,0,0,-1,2036,1786,0,0
-700,-769,0,0,0,0,0,0,0,0,0,-1,524,1793,0,0
-693,-769,0,0,0,0,0,0,0,0,0,-1,531,1793,0,0
-686,-769,0,0,0,0,0,0,0,0,0,-1,538,1793,0,0
-679,-769,0,0,0,0,0,0,0,0,0,-1,545,1793,0,0
-672,-769,0,0,0,0,0,0,0,0,0,-1,552,1793,0,0
-665,-769,0,0,0,0,0,0,0,0,0,-1,559,1793,0,0
-658,-769,0,0,0,0,0,0,0,0,0,-1,566,1793,0,0
-651,-769,0,0,0,0,0,0,0,0,0,-1,573,1793,0,0
-644,-769,0,0,0,0,0,0,0,0,0,-1,580,1793,0,0
-637,-769,0,0,0,0,0,0,0,0,0,-1,587,1793,0,0
-630,-769,0,0,0,0,0,0,0,0,0,-1,594,1793,0,0
-623,-769,0,0,0,0,0,0,0,0,0,-1,601,1793,0,0
-616,-769,0,0,0,0,0,0,0,0,0,-1,608,1793,0,0
-609,-769,0,0,0,0,0,0,0,0,0,-1,615,1793,0,0
-602,-769,0,0,0,0,0,0,0,0,0,-1,622,1793,0,0
-595,-769,0,0,0,0,0,0,0,0,0,-1,629,1793,0,0
-588,-769,0,0,0,0,0,0,0,0,0,-1,636,1793,0,0
-581,-769,0,0,0,0,0,0,0,0,0,-1,643,1793,0,0
-574,-769,0,0,0,0,0,0,0,0,0,-1,650,1793,0,0
-567,-769,0,0,0,0,0,0,0,0,0,-1,657,1793,0,0
-560,-769,0,0,0,0,0,0,0,0,0,-1,664,1793,0,0
-553,-769,0,0,0,0,0,0,0,0,0,-1,671,1793,0,0
-546,-769,0,0,0,0,0,0,0,0,0,-1,678,1793,0,0
-539,-769,0,0,0,0,0,0,0,0,0,-1,685,1793,0,0
-532,-769,0,0,0,0,0,0,0,0,0,-1,692,1793,0,0
-525,-769,0,0,0,0,0,0,0,0,0,-1,699,1793,0,0
-518,-769,0,0,0,0,0,0,0,0,0,-1,706,1793,0,0
-511,-769,0,0,0,0,0,0,0,0,0,-1,713,1793,0,0
-504,-769,0,0,0,0,0,0,0,0,0,-1,720,1793,0,0
-497,-769,0,0,0,0,0,0,0,0,0,-1,727,1793,0,0
-490,-769,0,0,0,0,0,0,0,0,0,-1,734,1793,0,0
-483,-769,0,0,0,0,0,0,0,0,0,-1,741,1793,0,0
-476,-769,0,0,0,0,0,0,0,0,0,-1,748,1793,0,0
-469,-769,0,0,0,0,0,0,0,0,0,-1,755,1793,0,0
-462,-769,0,0,0,0,0,0,0,0,0,-1,762,1793,0,0
-455,-769,0,0,0,0,0,0,0,0,0,-1,769,1793,0,0
-448,-769,0,0,0,0,0,0,0,0,0,-1,776,1793,0,0
-441,-769,0,0,0,0,0,0,0,0,0,-1,783,1793,0,0
-434,-769,0,0,0,0,0,0,0,0,0,-1,790,1793,0,0
-427,-769,0,0,0,0,0,0,0,0,0,-1,797,1793,0,0
-420,-769,0,0,0,0,0,0,0,0,0,-1,804,1793,0,0
-413,-769,0,0,0,0,0,0,0,0,0,-1,811,1793,0,0
-406,-769,0,0,0,0,0,0,0,0,0,-1,818,1793,0,0
-399,-769,0,0,0,0,0,0,0,0,0,-1,825,1793,0,0
-392,-769,0,0,0,0,0,0,0,0,0,-1,832,1793,0,0
-385,-769,0,0,0,0,0,0,0,0,0,-1,839,1793,0,0
-378,-769,0,0,0,0,0,0,0,0,0,-1,846,1793,0,0
-371,-769,0,0,0,0,0,0,0,0,0,-1,853,1793,0,0
-364,-769,0,0,0,0,0,0,0,0,0,-1,860,1793,0,0
-357,-769,0,0,0,0,0,0,0,0,0,-1,867,1793,0,0
-350,-769,0,0,0,0,0,0,0,0,0,-1,874,1793,0,0
-343,-769,0,0,0,0,0,0,0,0,0,-1,881,1793,0,0
-336,-769,0,0,0,0,0,0,0,0,0,-1,888,1793,0,0
-329,-769,0,0,0,0,0,0,0,0,0,-1,895,1793,0,0
-322,-769,0,0,0,0,0,0,0,0,0,-1,902,1793,0,0
-315,-769,0,0,0,0,0,0,0,0,0,-1,909,1793,0,0
-308,-769,0,0,0,0,0,0,0,0,0,-1,916,1793,0,0
-301,-769,0,0,0,0,0,0,0,0,0,-1,923,1793,0,0
-294,-769,0,0,0,0,0,0,0,0,0,-1,930,1793,0,0
-287,-769,0,0,0,0,0,0,0,0,0,-1,937,1793,0,0
-280,-769,0,0,0,0,0,0,0,0,0,-1,944,1793,0,0
-273,-769,0,0,0,0,0,0,0,0,0,-1,951,1793,0,0
-266,-769,0,0,0,0,0,0,0,0,0,-1,958,1793,0,0
-259,-769,0,0,0,0,0,0,0,0,0,-1,965,1793,0,0
-252,-769,0,0,0,0,0,0,0,0,0,-1,972,1793,0,0
-245,-769,0,0,0,0,0,0,0,0,0,-1,979,1793,0,0
-238,-769,0,0,0,0,0,0,0,0,0,-1,986,1793,0,0
-231,-769,0,0,0,0,0,0,0,0,0,-1,993,1793,0,0
-224,-769,0,0,0,0,0,0,0,0,0,-1,1000,1793,0,0
-217,-769,0,0,0,0,0,0,0,0,0,-1,1007,1793,0,0
-210,-769,0,0,0,0,0,0,0,0,0,-1,1014,1793,0,0
-203,-769,0,0,0,0,0,0,0,0,0,-1,1021,1793,0,0
-196,-769,0,0,0,0,0,0,0,0,0,-1,1028,1793,0,0
-189,-769,0,0,0,0,0,0,0,0,0,-1,1035,1793,0,0
-182,-769,0,0,0,0,0,0,0,0,0,-1,1042,1793,0,0
-175,-769,0,0,0,0,0,0,0,0,0,-1,1049,1793,0,0
-168,-769,0,0,0,0,0,0,0,0,0,-1,1056,1793,0,0
-161,-769,-3.61145,12.4761,0,0,0,0,0,0,0,-1,1063,1793,-3.6114,-12.476
-154,-769,-0.813232,5.32874,0,0,0,0,0,0,0,-1,1070,1793,-0.813269,-5.32872
-147,-769,4.26587,4.7002,0,0,0,0,0,0,0,-1,1077,1793,4.26593,-4.70022
-140,-769,4.10376,5.28589,0,0,0,0,0,0,0,-1,1084,1793,4.10371,-5.28584
-133,-769,6.422,8.21777,0,0,0,0,0,0,0,-1,1091,1793,6.42198,-8.21773
-126,-769,-0.352295,19.326,0,0,0,0,0,0,0,-1,1098,1793,-0.352235,-19.326
-119,-769,6.01685,16.2577,0,0,0,0,0,0,0,-1,1105,1793,6.01689,-16.2576
-112,-769,5.76416,27.2615,0,0,0,0,0,0,0,-1,1112,1793,5.7642,-27.2615
-105,-769,4.97009,22.8479,0,0,0,0,0,0,0,-1,1119,1793,4.97006,-22.8479
-98,-769,4.69373,18.9142,0,0,0,0,0,0,0,-1,1126,1793,4.69376,-18.9142
-91,-769,4.41748,14.9805,0,0,0,0,0,0,0,-1,1133,1793,4.41746,-14.9805
-84,-769,3.2207,12.4565,0,0,0,0,0,0,0,-1,1140,1793,3.22066,-12.4565
-77,-769,2.48816,8.98486,0,0,0,0,0,0,0,-1,1147,1793,2.48815,-8.98489
-70,-769,1.04944,11.9852,0,0,0,0,0,0,0,-1,1154,1793,1.04947,-11.9852
-63,-769,-2.39709,9.60339,0,0,0,0,0,0,0,-1,1161,1793,-2.39706,-9.6034
-56,-769,-5.84363,7.22156,0,0,0,0,0,0,0,-1,1168,1793,-5.84359,-7.22157
-49,-769,-2.41443,3.95471,0,0,0,0,0,0,0,-1,1175,1793,-2.41446,-3.95471
-42,-769,-3.1991,2.64941,0,0,0,0,0,0,0,-1,1182,1793,-3.19914,-2.64944
-35,-769,-3.50183,1.73389,0,0,0,0,0,0,0,-1,1189,1793,-3.50189,-1.7339
-28,-769,-3.96985,1.14075,0,0,0,0,0,0,0,-1,1196,1793,-3.96985,-1.14078
-21,-769,7.97278,33.8591,0,0,0,0,0,0,0,-1,1203,1793,7.97275,-33.8592
-14,-769,8.37341,38.9119,0,0,0,0,0,0,0,-1,1210,1793,8.37346,-38.9119
-7,-769,8.34399,38.7498,0,0,0,0,0,0,0,-1,1217,1793,8.34395,-38.7498
0,-769,8.45361,38.5592,-0.0131252,0.0612905,0.00422172,0.0615292,-0.0133639,1.51431,0.046124,0.0458854,1224,1793,8.45364,-38.5592
7,-769,8.47949,39.0524,-0.0111118,0.0562534,0.00245831,0.056343,-0.0112014,1.53437,0.0417991,0.0440751,1231,1793,8.47951,-39.0523
14,-769,8.46472,39.4414,-0.0085844,0.0524115,0.000894237,0.0524246,-0.00859751,1.55614,0.03814,0.0419277,1238,1793,8.46473,-39.4414
21,-769,7.98169,38.9547,-0.00596793,0.0498957,-0.000816954,0.0499076,-0.00597988,-1.55618,0.0354336,0.0490585,1245,1793,7.98168,-38.9547
28,-769,7.94629,39.0211,0,0,0,0,0,0,0,-1,1252,1793,7.94628,-39.0211
35,-769,7.49109,39.2864,0.0024735,0.0458609,-0.00267732,0.0460255,0.00230891,-1.5094,0.0299437,0.0462961,1259,1793,7.49111,-39.2864
42,-769,7.54065,39.3583,0.00792333,0.0422487,-0.00293098,0.0424972,0.00767486,-1.48622,0.0261513,0.0462511,1266,1793,7.54064,-39.3582
49,-769,7.54187,39.4456,0.0123067,0.0408123,-0.00283659,0.0410918,0.0120271,-1.47257,0.0243946,0.0461394,1273,1793,7.54191,-39.4456
56,-769,7.28503,39.343,0.0170242,0.0397775,-0.0025237,0.040054,0.0167477,-1.46165,0.0232283,0.043664,1280,1793,7.28499,-39.343
63,-769,7.52734,38.8385,0.0218803,0.0378899,-0.00184239,0.0380992,0.0216711,-1.45769,0.0220659,0.0428689,1287,1793,7.52732,-38.8385
70,-769,7.62988,38.7882,0.0266546,0.0357967,-0.000504514,0.0358244,0.0266268,-1.51583,0.0214837,0.0434843,1294,1793,7.62992,-38.7883
77,-769,8.41052,38.3522,0,0,0,0,0,0,0,-1,1301,1793,8.41057,-38.3522
84,-769,8.09216,38.5233,0,0,0,0,0,0,0,-1,1308,1793,8.09222,-38.5233
91,-769,7.98218,39.3953,0,0,0,0,0,0,0,-1,1315,1793,7.98219,-39.3953
98,-769,7.67029,39.3561,0.0355136,0.0306069,0.0045015,0.0381869,0.0279336,0.535898,0.0228213,0.0474208,1322,1793,7.67026,-39.3561
105,-769,7.60461,39.4064,0.0351809,0.0296455,0.00543085,0.0385086,0.0263178,0.549739,0.0227262,0.0444926,1329,1793,7.60465,-39.4063
112,-769,7.74731,39.8673,0.0336721,0.0295382,0.00543592,0.0374207,0.0257895,0.603719,0.0221143,0.048013,1336,1793,7.74731,-39.8673
119,-769,7.83569,40.2939,0,0,0,0,0,0,0,-1,1343,1793,7.83572,-40.294
126,-769,8.099,40.6744,0,0,0,0,0,0,0,-1,1350,1793,8.09906,-40.6744
133,-769,8.56934,41.4447,0,0,0,0,0,0,0,-1,1357,1793,8.56937,-41.4448
140,-769,7.33838,38.7917,0,0,0,0,0,0,0,-1,1364,1793,7.33833,-38.7917
147,-769,7.2926,38.3539,0,0,0,0,0,0,0,-1,1371,1793,7.29256,-38.3539
154,-769,7.76904,34.4832,0,0,0,0,0,0,0,-1,1378,1793,7.7691,-34.4832
161,-769,6.57019,1.53223,0,0,0,0,0,0,0,-1,1385,1793,6.57019,-1.53226
168,-769,8.27637,0.756958,0,0,0,0,0,0,0,-1,1392,1793,8.27639,-0.756944
175,-769,8.47144,2.41174,0,0,0,0,0,0,0,-1,1399,1793,8.47147,-2.4118
182,-769,8.41479,4.05994,0,0,0,0,0,0,0,-1,1406,1793,8.41479,-4.05997
189,-769,8.25049,5.68433,0,0,0,0,0,0,0,-1,1413,1793,8.25054,-5.68428
196,-769,7.97729,7.42847,0,0,0,0,0,0,0,-1,1420,1793,7.9773,-7.42848
203,-769,22.0977,6.73889,0,0,0,0,0,0,0,-1,1427,1793,22.0977,-6.7389
210,-769,22.1115,7.77246,0,0,0,0,0,0,0,-1,1434,1793,22.1115,-7.77248
217,-769,22.4723,8.79102,0,0,0,0,0,0,0,-1,1441,1793,22.4723,-8.79099
224,-769,22.1348,9.35278,0,0,0,0,0,0,0,-1,1448,1793,22.1348,-9.35283
231,-769,3.13318,19.7184,0,0,0,0,0,0,0,-1,1455,1793,3.13323,-19.7184
238,-769,5.74512,18.6597,0,0,0,0,0,0,0,-1,1462,1793,5.74512,-18.6596
245,-769,5.80798,22.87,0,0,0,0,0,0,0,-1,1469,1793,5.80796,-22.87
252,-769,8.39099,20.3199,0,0,0,0,0,0,0,-1,1476,1793,8.39098,-20.3199
259,-769,10.974,17.7698,0,0,0,0,0,0,0,-1,1483,1793,10.974,-17.7698
266,-769,15.8488,7.3905,0,0,0,0,0,0,0,-1,1490,1793,15.8488,-7.39046
273,-769,14.8075,7.56152,0,0,0,0,0,0,0,-1,1497,1793,14.8075,-7.56152
280,-769,13.6519,7.43054,0,0,0,0,0,0,0,-1,1504,1793,13.6518,-7.43058
287,-769,0,0,0,0,0,0,0,0,0,-1,1511,1793,0,0
294,-769,0,0,0,0,0,0,0,0,0,-1,1518,1793,0,0
301,-769,0,0,0,0,0,0,0,0,0,-1,1525,1793,0,0
308,-769,0,0,0,0,0,0,0,0,0,-1,1532,1793,0,0
315,-769,0,0,0,0,0,0,0,0,0,-1,1539,1793,0,0
322,-769,0,0,0,0,0,0,0,0,0,-1,1546,1793,0,0
329,-769,0,0,0,0,0,0,0,0,0,-1,1553,1793,0,0
336,-769,0,0,0,0,0,0,0,0,0,-1,1560,1793,0,0
343,-769,0,0,0,0,0,0,0,0,0,-1,1567,1793,0,0
350,-769,0,0,0,0,0,0,0,0,0,-1,1574,1793,0,0
357,-769,0,0,0,0,0,0,0,0,0,-1,1581,1793,0,0
364,-769,0,0,0,0,0,0,0,0,0,-1,1588,1793,0,0
371,-769,0,0,0,0,0,0,0,0,0,-1,1595,1793,0,0
378,-769,0,0,0,0,0,0,0,0,0,-1,1602,1793,0,0
385,-769,0,0,0,0,0,0,0,0,0,-1,1609,1793,0,0
392,-769,0,0,0,0,0,0,0,0,0,-1,1616,1793,0,0
399,-769,0,0,0,0,0,0,0,0,0,-1,1623,1793,0,0
406,-769,0,0,0,0,0,0,0,0,0,-1,1630,1793,0,0
413,-769,0,0,0,0,0,0,0,0,0,-1,1637,1793,0,0
420,-769,0,0,0,0,0,0,0,0,0,-1,1644,1793,0,0
427,-769,0,0,0,0,0,0,0,0,0,-1,1651,1793,0,0
434,-769,0,0,0,0,0,0,0,0,0,-1,1658,1793,0,0
441,-769,0,0,0,0,0,0,0,0,0,-1,1665,1793,0,0
448,-769,0,0,0,0,0,0,0,0,0,-1,1672,1793,0,0
455,-769,0,0,0,0,0,0,0,0,0,-1,1679,1793,0,0
462,-769,0,0,0,0,0,0,0,0,0,-1,1686,1793,0,0
469,-769,0,0,0,0,0,0,0,0,0,-1,1693,1793,0,0
476,-769,0,0,0,0,0,0,0,0,0,-1,1700,1793,0,0
483,-769,0,0,0,0,0,0,0,0,0,-1,1707,1793,0,0
490,-769,0,0,0,0,0,0,0,0,0,-1,1714,1793,0,0
497,-769,0,0,0,0,0,0,0,0,0,-1,1721,1793,0,0
504,-769,0,0,0,0,0,0,0,0,0,-1,1728,1793,0,0
511,-769,0,0,0,0,0,0,0,0,0,-1,1735,1793,0,0
518,-769,0,0,0,0,0,0,0,0,0,-1,1742,1793,0,0
525,-769,0,0,0,0,0,0,0,0,0,-1,1749,1793,0,0
532,-769,0,0,0,0,0,0,0,0,0,-1,1756,1793,0,0
539,-769,0,0,0,0,0,0,0,0,0,-1,1763,1793,0,0
546,-769,0,0,0,0,0,0,0,0,0,-1,1770,1793,0,0
553,-769,0,0,0,0,0,0,0,0,0,-1,1777,1793,0,0
560,-769,0,0,0,0,0,0,0,0,0,-1,1784,1793,0,0
567,-769,0,0,0,0,0,0,0,0,0,-1,1791,1793,0,0
574,-769,0,0,0,0,0,0,0,0,0,-1,1798,1793,0,0
581,-769,0,0,0,0,0,0,0,0,0,-1,1805,1793,0,0
588,-769,0,0,0,0,0,0,0,0,0,-1,1812,1793,0,0
595,-769,0,0,0,0,0,0,0,0,0,-1,1819,1793,0,0
602,-769,0,0,0,0,0,0,0,0,0,-1,1826,1793,0,0
609,-769,0,0,0,0,0,0,0,0,0,-1,1833,1793,0,0
616,-769,0,0,0,0,0,0,0,0,0,-1,1840,1793,0,0
623,-769,0,0,0,0,0,0,0,0,0,-1,1847,1793,0,0
630,-769,0,0,0,0,0,0,0,0,0,-1,1854,1793,0,0
637,-769,0,0,0,0,0,0,0,0,0,-1,1861,1793,0,0
644,-769,0,0,0,0,0,0,0,0,0,-1,1868,1793,0,0
651,-769,0,0,0,0,0,0,0,0,0,-1,1875,1793,0,0
658,-769,0,0,0,0,0,0,0,0,0,-1,1882,1793,0,0
665,-769,0,0,0,0,0,0,0,0,0,-1,1889,1793,0,0
672,-769,0,0,0,0,0,0,0,0,0,-1,1896,1793,0,0
679,-769,0,0,0,0,0,0,0,0,0,-1,1903,1793,0,0
686,-769,0,0,0,0,0,0,0,0,0,-1,1910,1793,0,0
693,-769,0,0,0,0,0,0,0,0,0,-1,1917,1793,0,0
700,-769,0,0,0,0,0,0,0,0,0,-1,1924,1793,0,0
707,-769,0,0,0,0,0,0,0,0,0,-1,1931,1793,0,0
714,-769,0,0,0,0,0,0,0,0,0,-1,1938,1793,0,0
721,-769,0,0,0,0,0,0,0,0,0,-1,1945,1793,0,0
728,-769,0,0,0,0,0,0,0,0,0,-1,1952,1793,0,0
735,-769,0,0,0,0,0,0,0,0,0,-1,1959,1793,0,0
742,-769,0,0,0,0,0,0,0,0,0,-1,1966,1793,0,0
749,-769,0,0,0,0,0,0,0,0,0,-1,1973,1793,0,0
756,-769,0,0,0,0,0,0,0,0,0,-1,1980,1793,0,0
763,-769,0,0,0,0,0,0,0,0,0,-1,1987,1793,0,0
770,-769,0,0,0,0,0,0,0,0,0,-1,1994,1793,0,0
777,-769,0,0,0,0,0,0,0,0,0,-1,2001,1793,0,0
784,-769,0,0,0,0,0,0,0,0,0,-1,2008,1793,0,0
791,-769,0,0,0,0,0,0,0,0,0,-1,2015,1793,0,0
798,-769,0,0,0,0,0,0,0,0,0,-1,2022,1793,0,0
805,-769,0,0,0,0,0,0,0,0,0,-1,2029,1793,0,0
812,-769,0,0,0,0,0,0,0,0,0,-1,2036,1793,0,0
-700,-776,0,0,0,0,0,0,0,0,0,-1,524,1800,0,0
-693,-776,0,0,0,0,0,0,0,0,0,-1,531,1800,0,0
-686,-776,0,0,0,0,0,0,0,0,0,-1,538,1800,0,0
-679,-776,0,0,0,0,0,0,0,0,0,-1,545,1800,0,0
-672,-776,0,0,0,0,0,0,0,0,0,-1,552,1800,0,0
-665,-776,0,0,0,0,0,0,0,0,0,-1,559,1800,0,0
-658,-776,0,0,0,0,0,0,0,0,0,-1,566,1800,0,0
-651,-776,0,0,0,0,0,0,0,0,0,-1,573,1800,0,0
-644,-776,0,0,0,0,0,0,0,0,0,-1,580,1800,0,0
-637,-776,0,0,0,0,0,0,0,0,0,-1,587,1800,0,0
-630,-776,0,0,0,0,0,0,0,0,0,-1,594,1800,0,0
-623,-776,0,0,0,0,0,0,0,0,0,-1,601,1800,0,0
-616,-776,0,0,0,0,0,0,0,0,0,-1,608,1800,0,0
-609,-776,0,0,0,0,0,0,0,0,0,-1,615,1800,0,0
-602,-776,0,0,0,0,0,0,0,0,0,-1,622,1800,0,0
-595,-776,0,0,0,0,0,0,0,0,0,-1,629,1800,0,0
-588,-776,0,0,0,0,0,0,0,0,0,-1,636,1800,0,0
-581,-776,0,0,0,0,0,0,0,0,0,-1,643,1800,0,0
-574,-776,0,0,0,0,0,0,0,0,0,-1,650,1800,0,0
-567,-776,0,0,0,0,0,0,0,0,0,-1,657,1800,0,0
-560,-776,0,0,0,0,0,0,0,0,0,-1,664,1800,0,0
-553,-776,0,0,0,0,0,0,0,0,0,-1,671,1800,0,0
-546,-776,0,0,0,0,0,0,0,0,0,-1,678,1800,0,0
-539,-776,0,0,0,0,0,0,0,0,0,-1,685,1800,0,0
-532,-776,0,0,0,0,0,0,0,0,0,-1,692,1800,0,0
-525,-776,0,0,0,0,0,0,0,0,0,-1,699,1800,0,0
-518,-776,0,0,0,0,0,0,0,0,0,-1,706,1800,0,0
-511,-776,0,0,0,0,0,0,0,0,0,-1,713,1800,0,0
-504,-776,0,0,0,0,0,0,0,0,0,-1,720,1800,0,0
-497,-776,0,0,0,0,0,0,0,0,0,-1,727,1800,0,0
-490,-776,0,0,0,0,0,0,0,0,0,-1,734,1800,0,0
-483,-776,0,0,0,0,0,0,0,0,0,-1,741,1800,0,0
-476,-776,0,0,0,0,0,0,0,0,0,-1,748,1800,0,0
-469,-776,0,0,0,0,0,0,0,0,0,-1,755,1800,0,0
-462,-776,0,0,0,0,0,0,0,0,0,-1,762,1800,0,0
-455,-776,0,0,0,0,0,0,0,0,0,-1,769,1800,0,0
-448,-776,0,0,0,0,0,0,0,0,0,-1,776,1800,0,0
-441,-776,0,0,0,0,0,0,0,0,0,-1,783,1800,0,0
-434,-776,0,0,0,0,0,0,0,0,0,-1,790,1800,0,0
-427,-776,0,0,0,0,0,0,0,0,0,-1,797,1800,0,0
-420,-776,0,0,0,0,0,0,0,0,0,-1,804,1800,0,0
-413,-776,0,0,0,0,0,0,0,0,0,-1,811,1800,0,0
-406,-776,0,0,0,0,0,0,0,0,0,-1,818,1800,0,0
-399,-776,0,0,0,0,0,0,0,0,0,-1,825,1800,0,0
-392,-776,0,0,0,0,0,0,0,0,0,-1,832,1800,0,0
-385,-776,0,0,0,0,0,0,0,0,0,-1,839,1800,0,0
-378,-776,0,0,0,0,0,0,0,0,0,-1,846,1800,0,0
-371,-776,0,0,0,0,0,0,0,0,0,-1,853,1800,0,0
-364,-776,0,0,0,0,0,0,0,0,0,-1,860,1800,0,0
-357,-776,0,0,0,0,0,0,0,0,0,-1,867,1800,0,0
-350,-776,0,0,0,0,0,0,0,0,0,-1,874,1800,0,0
-343,-776,0,0,0,0,0,0,0,0,0,-1,881,1800,0,0
-336,-776,0,0,0,0,0,0,0,0,0,-1,888,1800,0,0
-329,-776,0,0,0,0,0,0,0,0,0,-1,895,1800,0,0
-322,-776,0,0,0,0,0,0,0,0,0,-1,902,1800,0,0
-315,-776,0,0,0,0,0,0,0,0,0,-1,909,1800,0,0
-308,-776,0,0,0,0,0,0,0,0,0,-1,916,1800,0,0
-301,-776,0,0,0,0,0,0,0,0,0,-1,923,1800,0,0
-294,-776,0,0,0,0,0,0,0,0,0,-1,930,1800,0,0
-287,-776,0,0,0,0,0,0,0,0,0,-1,937,1800,0,0
-280,-776,0,0,0,0,0,0,0,0,0,-1,944,1800,0,0
-273,-776,0,0,0,0,0,0,0,0,0,-1,951,1800,0,0
-266,-776,0,0,0,0,0,0,0,0,0,-1,958,1800,0,0
-259,-776,0,0,0,0,0,0,0,0,0,-1,965,1800,0,0
-252,-776,0,0,0,0,0,0,0,0,0,-1,972,1800,0,0
-245,-776,0,0,0,0,0,0,0,0,0,-1,979,1800,0,0
-238,-776,0,0,0,0,0,0,0,0,0,-1,986,1800,0,0
-231,-776,0,0,0,0,0,0,0,0,0,-1,993,1800,0,0
-224,-776,0,0,0,0,0,0,0,0,0,-1,1000,1800,0,0
-217,-776,0,0,0,0,0,0,0,0,0,-1,1007,1800,0,0
-210,-776,0,0,0,0,0,0,0,0,0,-1,1014,1800,0,0
-203,-776,0,0,0,0,0,0,0,0,0,-1,1021,1800,0,0
-196,-776,0,0,0,0,0,0,0,0,0,-1,1028,1800,0,0
-189,-776,0,0,0,0,0,0,0,0,0,-1,1035,1800,0,0
-182,-776,0,0,0,0,0,0,0,0,0,-1,1042,1800,0,0
-175,-776,0,0,0,0,0,0,0,0,0,-1,1049,1800,0,0
-168,-776,0,0,0,0,0,0,0,0,0,-1,1056,1800,0,0
-161,-776,0,0,0,0,0,0,0,0,0,-1,1063,1800,0,0
-154,-776,0,0,0,0,0,0,0,0,0,-1,1070,1800,0,0
-147,-776,0,0,0,0,0,0,0,0,0,-1,1077,1800,0,0
-140,-776,2.98499,5.20911,0,0,0,0,0,0,0,-1,1084,1800,2.98493,-5.2091
-133,-776,6.72363,9.35828,0,0,0,0,0,0,0,-1,1091,1800,6.72358,-9.35824
-126,-776,6.55029,13.7832,0,0,0,0,0,0,0,-1,1098,1800,6.55029,-13.7832
-119,-776,5.72107,13.7787,0,0,0,0,0,0,0,-1,1105,1800,5.72106,-13.7787
-112,-776,6.84998,20.4421,0,0,0,0,0,0,0,-1,1112,1800,6.84993,-20.4421
-105,-776,4.46863,24.6742,0,0,0,0,0,0,0,-1,1119,1800,4.46868,-24.6742
-98,-776,4.31616,19.7659,0,0,0,0,0,0,0,-1,1126,1800,4.31619,-19.7659
-91,-776,3.30225,18.134,0,0,0,0,0,0,0,-1,1133,1800,3.30222,-18.134
-84,-776,2.67932,14.3162,0,0,0,0,0,0,0,-1,1140,1800,2.67926,-14.3161
-77,-776,0.580078,11.1272,0,0,0,0,0,0,0,-1,1147,1800,0.58002,-11.1272
-70,-776,-0.562866,12.3163,0,0,0,0,0,0,0,-1,1154,1800,-0.562897,-12.3163
-63,-776,-3.96106,9.97656,0,0,0,0,0,0,0,-1,1161,1800,-3.961,-9.97654
-56,-776,-7.35913,7.63672,0,0,0,0,0,0,0,-1,1168,1800,-7.3591,-7.63676
-49,-776,-7.62952,3.1908,0,0,0,0,0,0,0,-1,1175,1800,-7.62955,-3.19076
-42,-776,-3.41272,3.0249,0,0,0,0,0,0,0,-1,1182,1800,-3.41269,-3.02488
-35,-776,-3.71753,1.63635,0,0,0,0,0,0,0,-1,1189,1800,-3.71755,-1.63631
-28,-776,-4.03979,0.716064,0,0,0,0,0,0,0,-1,1196,1800,-4.03977,-0.716055
-21,-776,8.56567,36.7518,0,0,0,0,0,0,0,-1,1203,1800,8.56565,-36.7518
-14,-776,9.58972,37.2025,0,0,0,0,0,0,0,-1,1210,1800,9.5897,-37.2026
-7,-776,8.93909,37.2837,0,0,0,0,0,0,0,-1,1217,1800,8.93911,-37.2837
0,-776,8.87683,37.7917,0,0,0,0,0,0,0,-1,1224,1800,8.87679,-37.7918
7,-776,8.67578,39.1418,0,0,0,0,0,0,0,-1,1231,1800,8.67582,-39.1418
14,-776,7.83899,38.5968,0,0,0,0,0,0,0,-1,1238,1800,7.839,-38.5968
21,-776,7.88599,38.7643,0,0,0,0,0,0,0,-1,1245,1800,7.88602,-38.7643
28,-776,7.93298,38.9318,0,0,0,0,0,0,0,-1,1252,1800,7.93304,-38.9317
35,-776,7.76099,39.3295,0,0,0,0,0,0,0,-1,1259,1800,7.76099,-39.3294
42,-776,7.72168,39.7964,0,0,0,0,0,0,0,-1,1266,1800,7.72169,-39.7964
49,-776,7.17883,39.5618,0,0,0,0,0,0,0,-1,1273,1800,7.17878,-39.5617
56,-776,6.81592,38.4893,0.0221312,0.0539128,-0.00421427,0.0544621,0.0215819,-1.44118,0.0316685,0.0439403,1280,1800,6.81587,-38.4892
63,-776,7.29138,38.2628,0.0282636,0.0518103,-0.00335663,0.0522794,0.0277945,-1.43193,0.0302037,0.0454291,1287,1800,7.29133,-38.2628
70,-776,7.49365,38.0756,0.0343041,0.0493074,-0.00164269,0.0494852,0.0341263,-1.46301,0.0292472,0.0480513,1294,1800,7.49365,-38.0755
77,-776,7.68909,37.8997,0,0,0,0,0,0,0,-1,1301,1800,7.68912,-37.8997
84,-776,8.10217,37.948,0.0432916,0.0476332,0.00332494,0.0494332,0.0414915,1.0746,0.0306531,0.0470436,1308,1800,8.10215,-37.948
91,-776,7.80615,38.2391,0.0457728,0.0463324,0.00457414,0.0506353,0.0414699,0.815945,0.0311544,0.0449603,1315,1800,7.8062,-38.2392
98,-776,7.50293,39.186,0,0,0,0,0,0,0,-1,1322,1800,7.50296,-39.186
105,-776,6.57324,49.9867,0,0,0,0,0,0,0,-1,1329,1800,6.57323,-49.9867
112,-776,6.0033,49.9819,0,0,0,0,0,0,0,-1,1336,1800,6.00331,-49.9819
119,-776,5.86853,50.3477,0,0,0,0,0,0,0,-1,1343,1800,5.86853,-50.3477
126,-776,6.00256,50.8138,0,0,0,0,0,0,0,-1,1350,1800,6.00257,-50.8139
133,-776,8.66162,41.7432,0,0,0,0,0,0,0,-1,1357,1800,8.66165,-41.7431
140,-776,9.20557,42.3809,0,0,0,0,0,0,0,-1,1364,1800,9.20562,-42.3809
147,-776,4.38184,33.3923,0,0,0,0,0,0,0,-1,1371,1800,4.38185,-33.3923
154,-776,38.4338,21.854,0,0,0,0,0,0,0,-1,1378,1800,38.4339,-21.854
161,-776,6.50293,1.1731,0,0,0,0,0,0,0,-1,1385,1800,6.5029,-1.17313
168,-776,8.44971,1.22913,0,0,0,0,0,0,0,-1,1392,1800,8.44974,-1.22915
175,-776,8.61523,2.87061,0,0,0,0,0,0,0,-1,1399,1800,8.6152,-2.87063
182,-776,8.54065,4.60645,0,0,0,0,0,0,0,-1,1406,1800,8.5407,-4.60643
189,-776,8.35303,6.28223,0,0,0,0,0,0,0,-1,1413,1800,8.35297,-6.28225
196,-776,8.0387,8.21704,0,0,0,0,0,0,0,-1,1420,1800,8.03865,-8.217
203,-776,7.91736,9.79919,0,0,0,0,0,0,0,-1,1427,1800,7.91735,-9.79922
210,-776,20.2479,7.85718,0,0,0,0,0,0,0,-1,1434,1800,20.248,-7.85719
217,-776,21.5171,9.3418,0,0,0,0,0,0,0,-1,1441,1800,21.5171,-9.34182
224,-776,3.09253,14.9313,0,0,0,0,0,0,0,-1,1448,1800,3.09254,-14.9313
231,-776,20.8671,9.21057,0,0,0,0,0,0,0,-1,1455,1800,20.867,-9.21054
238,-776,20.7511,9.05847,0,0,0,0,0,0,0,-1,1462,1800,20.7511,-9.05848
245,-776,3.80823,15.4108,0,0,0,0,0,0,0,-1,1469,1800,3.80826,-15.4108
252,-776,8.57837,20.2009,0,0,0,0,0,0,0,-1,1476,1800,8.57841,-20.2009
259,-776,14.1882,7.69055,0,0,0,0,0,0,0,-1,1483,1800,14.1882,-7.69061
266,-776,0,0,0,0,0,0,0,0,0,-1,1490,1800,0,0
273,-776,0,0,0,0,0,0,0,0,0,-1,1497,1800,0,0
280,-776,0,0,0,0,0,0,0,0,0,-1,1504,1800,0,0
287,-776,0,0,0,0,0,0,0,0,0,-1,1511,1800,0,0
294,-776,0,0,0,0,0,0,0,0,0,-1,1518,1800,0,0
301,-776,0,0,0,0,0,0,0,0,0,-1,1525,1800,0,0
308,-776,0,0,0,0,0,0,0,0,0,-1,1532,1800,0,0
315,-776,0,0,0,0,0,0,0,0,0,-1,1539,1800,0,0
322,-776,0,0,0,0,0,0,0,0,0,-1,1546,1800,0,0
329,-776,0,0,0,0,0,0,0,0,0,-1,1553,1800,0,0
336,-776,0,0,0,0,0,0,0,0,0,-1,1560,1800,0,0
343,-776,0,0,0,0,0,0,0,0,0,-1,1567,1800,0,0
350,-776,0,0,0,0,0,0,0,0,0,-1,1574,1800,0,0
357,-776,0,0,0,0,0,0,0,0,0,-1,1581,1800,0,0
364,-776,0,0,0,0,0,0,0,0,0,-1,1588,1800,0,0
371,-776,0,0,0,0,0,0,0,0,0,-1,1595,1800,0,0
378,-776,0,0,0,0,0,0,0,0,0,-1,1602,1800,0,0
385,-776,0,0,0,0,0,0,0,0,0,-1,1609,1800,0,0
392,-776,0,0,0,0,0,0,0,0,0,-1,1616,1800,0,0
399,-776,0,0,0,0,0,0,0,0,0,-1,1623,1800,0,0
406,-776,0,0,0,0,0,0,0,0,0,-1,1630,1800,0,0
413,-776,0,0,0,0,0,0,0,0,0,-1,1637,1800,0,0
420,-776,0,0,0,0,0,0,0,0,0,-1,1644,1800,0,0
427,-776,0,0,0,0,0,0,0,0,0,-1,1651,1800,0,0
434,-776,0,0,0,0,0,0,0,0,0,-1,1658,1800,0,0
441,-776,0,0,0,0,0,0,0,0,0,-1,1665,1800,0,0
448,-776,0,0,0,0,0,0,0,0,0,-1,1672,1800,0,0
455,-776,0,0,0,0,0,0,0,0,0,-1,1679,1800,0,0
462,-776,0,0,0,0,0,0,0,0,0,-1,1686,1800,0,0
469,-776,0,0,0,0,0,0,0,0,0,-1,1693,1800,0,0
476,-776,0,0,0,0,0,0,0,0,0,-1,1700,1800,0,0
483,-776,0,0,0,0,0,0,0,0,0,-1,1707,1800,0,0
490,-776,0,0,0,0,0,0,0,0,0,-1,1714,1800,0,0
497,-776,0,0,0,0,0,0,0,0,0,-1,1721,1800,0,0
504,-776,0,0,0,0,0,0,0,0,0,-1,1728,1800,0,0
511,-776,0,0,0,0,0,0,0,0,0,-1,1735,1800,0,0
518,-776,0,0,0,0,0,0,0,0,0,-1,1742,1800,0,0
525,-776,0,0,0,0,0,0,0,0,0,-1,1749,1800,0,0
532,-776,0,0,0,0,0,0,0,0,0,-1,1756,1800,0,0
539,-776,0,0,0,0,0,0,0,0,0,-1,1763,1800,0,0
546,-776,0,0,0,0,0,0,0,0,0,-1,1770,1800,0,0
553,-776,0,0,0,0,0,0,0,0,0,-1,1777,1800,0,0
560,-776,0,0,0,0,0,0,0,0,0,-1,1784,1800,0,0
567,-776,0,0,0,0,0,0,0,0,0,-1,1791,1800,0,0
574,-776,0,0,0,0,0,0,0,0,0,-1,1798,1800,0,0
581,-776,0,0,0,0,0,0,0,0,0,-1,1805,1800,0,0
588,-776,0,0,0,0,0,0,0,0,0,-1,1812,1800,0,0
595,-776,0,0,0,0,0,0,0,0,0,-1,1819,1800,0,0
602,-776,0,0,0,0,0,0,0,0,0,-1,1826,1800,0,0
609,-776,0,0,0,0,0,0,0,0,0,-1,1833,1800,0,0
616,-776,0,0,0,0,0,0,0,0,0,-1,1840,1800,0,0
623,-776,0,0,0,0,0,0,0,0,0,-1,1847,1800,0,0
630,-776,0,0,0,0,0,0,0,0,0,-1,1854,1800,0,0
637,-776,0,0,0,0,0,0,0,0,0,-1,1861,1800,0,0
644,-776,0,0,0,0,0,0,0,0,0,-1,1868,1800,0,0
651,-776,0,0,0,0,0,0,0,0,0,-1,1875,1800,0,0
658,-776,0,0,0,0,0,0,0,0,0,-1,1882,1800,0,0
665,-776,0,0,0,0,0,0,0,0,0,-1,1889,1800,0,0
672,-776,0,0,0,0,0,0,0,0,0,-1,1896,1800,0,0
679,-776,0,0,0,0,0,0,0,0,0,-1,1903,1800,0,0
686,-776,0,0,0,0,0,0,0,0,0,-1,1910,1800,0,0
693,-776,0,0,0,0,0,0,0,0,0,-1,1917,1800,0,0
700,-776,0,0,0,0,0,0,0,0,0,-1,1924,1800,0,0
707,-776,0,0,0,0,0,0,0,0,0,-1,1931,1800,0,0
714,-776,0,0,0,0,0,0,0,0,0,-1,1938,1800,0,0
721,-776,0,0,0,0,0,0,0,0,0,-1,1945,1800,0,0
728,-776,0,0,0,0,0,0,0,0,0,-1,1952,1800,0,0
735,-776,0,0,0,0,0,0,0,0,0,-1,1959,1800,0,0
742,-776,0,0,0,0,0,0,0,0,0,-1,1966,1800,0,0
749,-776,0,0,0,0,0,0,0,0,0,-1,1973,1800,0,0
756,-776,0,0,0,0,0,0,0,0,0,-1,1980,1800,0,0
763,-776,0,0,0,0,0,0,0,0,0,-1,1987,1800,0,0
770,-776,0,0,0,0,0,0,0,0,0,-1,1994,1800,0,0
777,-776,0,0,0,0,0,0,0,0,0,-1,2001,1800,0,0
784,-776,0,0,0,0,0,0,0,0,0,-1,2008,1800,0,0
791,-776,0,0,0,0,0,0,0,0,0,-1,2015,1800,0,0
798,-776,0,0,0,0,0,0,0,0,0,-1,2022,1800,0,0
805,-776,0,0,0,0,0,0,0,0,0,-1,2029,1800,0,0
812,-776,0,0,0,0,0,0,0,0,0,-1,2036,1800,0,0
-700,-783,0,0,0,0,0,0,0,0,0,-1,524,1807,0,0
-693,-783,0,0,0,0,0,0,0,0,0,-1,531,1807,0,0
-686,-783,0,0,0,0,0,0,0,0,0,-1,538,1807,0,0
-679,-783,0,0,0,0,0,0,0,0,0,-1,545,1807,0,0
-672,-783,0,0,0,0,0,0,0,0,0,-1,552,1807,0,0
-665,-783,0,0,0,0,0,0,0,0,0,-1,559,1807,0,0
-658,-783,0,0,0,0,0,0,0,0,0,-1,566,1807,0,0
-651,-783,0,0,0,0,0,0,0,0,0,-1,573,1807,0,0
-644,-783,0,0,0,0,0,0,0,0,0,-1,580,1807,0,0
-637,-783,0,0,0,0,0,0,0,0,0,-1,587,1807,0,0
-630,-783,0,0,0,0,0,0,0,0,0,-1,594,1807,0,0
-623,-783,0,0,0,0,0,0,0,0,0,-1,601,1807,0,0
-616,-783,0,0,0,0,0,0,0,0,0,-1,608,1807,0,0
-609,-783,0,0,0,0,0,0,0,0,0,-1,615,1807,0,0
-602,-783,0,0,0,0,0,0,0,0,0,-1,622,1807,0,0
-595,-783,0,0,0,0,0,0,0,0,0,-1,629,1807,0,0
-588,-783,0,0,0,0,0,0,0,0,0,-1,636,1807,0,0
-581,-783,0,0,0,0,0,0,0,0,0,-1,643,1807,0,0
-574,-783,0,0,0,0,0,0,0,0,0,-1,650,1807,0,0
-567,-783,0,0,0,0,0,0,0,0,0,-1,657,1807,0,0
-560,-783,0,0,0,0,0,0,0,0,0,-1,664,1807,0,0
-553,-783,0,0,0,0,0,0,0,0,0,-1,671,1807,0,0
-546,-783,0,0,0,0,0,0,0,0,0,-1,678,1807,0,0
-539,-783,0,0,0,0,0,0,0,0,0,-1,685,1807,0,0
-532,-783,0,0,0,0,0,0,0,0,0,-1,692,1807,0,0
-525,-783,0,0,0,0,0,0,0,0,0,-1,699,1807,0,0
-518,-783,0,0,0,0,0,0,0,0,0,-1,706,1807,0,0
-511,-783,0,0,0,0,0,0,0,0,0,-1,713,1807,0,0
-504,-783,0,0,0,0,0,0,0,0,0,-1,720,1807,0,0
-497,-783,0,0,0,0,0,0,0,0,0,-1,727,1807,0,0
-490,-783,0,0,0,0,0,0,0,0,0,-1,734,1807,0,0
-483,-783,0,0,0,0,0,0,0,0,0,-1,741,1807,0,0
-476,-783,0,0,0,0,0,0,0,0,0,-1,748,1807,0,0
-469,-783,0,0,0,0,0,0,0,0,0,-1,755,1807,0,0
-462,-783,0,0,0,0,0,0,0,0,0,-1,762,1807,0,0
-455,-783,0,0,0,0,0,0,0,0,0,-1,769,1807,0,0
-448,-783,0,0,0,0,0,0,0,0,0,-1,776,1807,0,0
-441,-783,0,0,0,0,0,0,0,0,0,-1,783,1807,0,0
-434,-783,0,0,0,0,0,0,0,0,0,-1,790,1807,0,0
-427,-783,0,0,0,0,0,0,0,0,0,-1,797,1807,0,0
-420,-783,0,0,0,0,0,0,0,0,0,-1,804,1807,0,0
-413,-783,0,0,0,0,0,0,0,0,0,-1,811,1807,0,0
-406,-783,0,0,0,0,0,0,0,0,0,-1,818,1807,0,0
-399,-783,0,0,0,0,0,0,0,0,0,-1,825,1807,0,0
-392,-783,0,0,0,0,0,0,0,0,0,-1,832,1807,0,0
-385,-783,0,0,0,0,0,0,0,0,0,-1,839,1807,0,0
-378,-783,0,0,0,0,0,0,0,0,0,-1,846,1807,0,0
-371,-783,0,0,0,0,0,0,0,0,0,-1,853,1807,0,0
-364,-783,0,0,0,0,0,0,0,0,0,-1,860,1807,0,0
-357,-783,0,0,0,0,0,0,0,0,0,-1,867,1807,0,0
-350,-783,0,0,0,0,0,0,0,0,0,-1,874,1807,0,0
-343,-783,0,0,0,0,0,0,0,0,0,-1,881,1807,0,0
-336,-783,0,0,0,0,0,0,0,0,0,-1,888,1807,0,0
-329,-783,0,0,0,0,0,0,0,0,0,-1,895,1807,0,0
-322,-783,0,0,0,0,0,0,0,0,0,-1,902,1807,0,0
-315,-783,0,0,0,0,0,0,0,0,0,-1,909,1807,0,0
-308,-783,0,0,0,0,0,0,0,0,0,-1,916,1807,0,0
-301,-783,0,0,0,0,0,0,0,0,0,-1,923,1807,0,0
-294,-783,0,0,0,0,0,0,0,0,0,-1,930,1807,0,0
-287,-783,0,0,0,0,0,0,0,0,0,-1,937,1807,0,0
-280,-783,0,0,0,0,0,0,0,0,0,-1,944,1807,0,0
-273,-783,0,0,0,0,0,0,0,0,0,-1,951,1807,0,0
-266,-783,0,0,0,0,0,0,0,0,0,-1,958,1807,0,0
-259,-783,0,0,0,0,0,0,0,0,0,-1,965,1807,0,0
-252,-783,0,0,0,0,0,0,0,0,0,-1,972,1807,0,0
-245,-783,0,0,0,0,0,0,0,0,0,-1,979,1807,0,0
-238,-783,0,0,0,0,0,0,0,0,0,-1,986,1807,0,0
-231,-783,0,0,0,0,0,0,0,0,0,-1,993,1807,0,0
-224,-783,0,0,0,0,0,0,0,0,0,-1,1000,1807,0,0
-217,-783,0,0,0,0,0,0,0,0,0,-1,1007,1807,0,0
-210,-783,0,0,0,0,0,0,0,0,0,-1,1014,1807,0,0
-203,-783,0,0,0,0,0,0,0,0,0,-1,1021,1807,0,0
-196,-783,0,0,0,0,0,0,0,0,0,-1,1028,1807,0,0
-189,-783,0,0,0,0,0,0,0,0,0,-1,1035,1807,0,0
-182,-783,0,0,0,0,0,0,0,0,0,-1,1042,1807,0,0
-175,-783,0,0,0,0,0,0,0,0,0,-1,1049,1807,0,0
-168,-783,0,0,0,0,0,0,0,0,0,-1,1056,1807,0,0
-161,-783,0,0,0,0,0,0,0,0,0,-1,1063,1807,0,0
-154,-783,0,0,0,0,0,0,0,0,0,-1,1070,1807,0,0
-147,-783,0,0,0,0,0,0,0,0,0,-1,1077,1807,0,0
-140,-783,0,0,0,0,0,0,0,0,0,-1,1084,1807,0,0
-133,-783,0,0,0,0,0,0,0,0,0,-1,1091,1807,0,0
-126,-783,0,0,0,0,0,0,0,0,0,-1,1098,1807,0,0
-119,-783,0,0,0,0,0,0,0,0,0,-1,1105,1807,0,0
-112,-783,5.33936,14.7699,0,0,0,0,0,0,0,-1,1112,1807,5.33931,-14.7699
-105,-783,6.44263,21.2224,0,0,0,0,0,0,0,-1,1119,1807,6.44263,-21.2224
-98,-783,5.54773,20.5695,0,0,0,0,0,0,0,-1,1126,1807,5.54772,-20.5695
-91,-783,2.6106,20.2491,0,0,0,0,0,0,0,-1,1133,1807,2.61056,-20.2492
-84,-783,-0.0491943,14.5743,0,0,0,0,0,0,0,-1,1140,1807,-0.0491562,-14.5743
-77,-783,0.332764,12.7788,0,0,0,0,0,0,0,-1,1147,1807,0.332743,-12.7788
-70,-783,-1.93176,5.12817,0,0,0,0,0,0,0,-1,1154,1807,-1.93171,-5.12813
-63,-783,-5.31702,10.54,0,0,0,0,0,0,0,-1,1161,1807,-5.31703,-10.54
-56,-783,-6.26135,6.9679,0,0,0,0,0,0,0,-1,1168,1807,-6.26136,-6.96785
-49,-783,-3.17688,4.59705,0,0,0,0,0,0,0,-1,1175,1807,-3.17685,-4.5971
-42,-783,-3.72876,3.1405,0,0,0,0,0,0,0,-1,1182,1807,-3.72874,-3.14055
-35,-783,-3.97046,1.59399,0,0,0,0,0,0,0,-1,1189,1807,-3.97041,-1.59401
-28,-783,-4.12195,0.270386,0,0,0,0,0,0,0,-1,1196,1807,-4.12197,-0.270408
-21,-783,9.81384,35.9977,0,0,0,0,0,0,0,-1,1203,1807,9.81382,-35.9977
-14,-783,9.64404,36.3192,-0.0266668,0.12573,0.00875495,0.126231,-0.0271681,1.5136,0.0945209,0.0475317,1210,1807,9.64399,-36.3192
-7,-783,9.31274,36.5518,-0.0225198,0.116885,0.00838395,0.117388,-0.0230222,1.51094,0.0869545,0.0445408,1217,1807,9.31275,-36.5517
0,-783,9.08179,36.875,-0.0180857,0.108114,0.00743814,0.108551,-0.0185226,1.51213,0.0792661,0.0405406,1224,1807,9.08173,-36.875
7,-783,8.94678,37.0938,-0.014221,0.0994018,0.00424901,0.0995605,-0.0143797,1.53347,0.0716495,0.0433557,1231,1807,8.94678,-37.0937
14,-783,8.22375,38.5,-0.00995747,0.092461,0.00102413,0.0924713,-0.00996772,1.5608,0.0652245,0.0461051,1238,1807,8.2238,-38.5
21,-783,8.00879,38.4529,-0.0057433,0.0876442,-0.00219205,0.0876956,-0.00579473,-1.54734,0.0604879,0.0462323,1245,1807,8.0088,-38.4529
28,-783,8.10217,38.7906,-0.00193354,0.0849864,-0.00518022,0.0852941,-0.00224118,-1.51148,0.0576243,0.0457698,1252,1807,8.10223,-38.7906
35,-783,8.12573,39.2682,0,0,0,0,0,0,0,-1,1259,1807,8.12573,-39.2682
42,-783,8.06506,39.7594,0,0,0,0,0,0,0,-1,1266,1807,8.06508,-39.7593
49,-783,7.78955,40.0431,0.020574,0.0723249,-0.00652285,0.0731344,0.0197645,-1.44733,0.0436848,0.0483455,1273,1807,7.78955,-40.043
56,-783,6.89221,37.3733,0.0274555,0.0710879,-0.00621249,0.0719552,0.0265882,-1.43209,0.0420123,0.045579,1280,1807,6.89218,-37.3733
63,-783,7.17993,37.658,0.0348589,0.0689385,-0.00521669,0.0697191,0.0340783,-1.42225,0.0402557,0.0486447,1287,1807,7.17997,-37.6579
70,-783,7.50537,37.5635,0.0421623,0.0661347,-0.00316225,0.0665449,0.0417522,-1.44182,0.0388334,0.0467379,1294,1807,7.50537,-37.5635
77,-783,7.85938,37.2203,0,0,0,0,0,0,0,-1,1301,1807,7.85943,-37.2203
84,-783,7.95923,37.8389,0.0536775,0.0658055,0.00316519,0.0665819,0.0529011,1.33026,0.0406033,0.0481281,1308,1807,7.95927,-37.8388
91,-783,7.5907,47.5707,0.0572301,0.06519,0.00484638,0.0674812,0.0549389,1.12917,0.0414442,0.0468553,1315,1807,7.59073,-47.5707
98,-783,7.70581,48.3297,0.0589872,0.065491,0.00560911,0.0687227,0.0557555,1.0481,0.0421627,0.0456913,1322,1807,7.70586,-48.3297
105,-783,7.63782,49.049,0.0587194,0.06705,0.00603177,0.0702149,0.0555545,1.08758,0.0427691,0.0472583,1329,1807,7.63787,-49.0489
112,-783,7.75928,49.446,0,0,0,0,0,0,0,-1,1336,1807,7.75926,-49.4461
119,-783,7.72986,49.8268,0,0,0,0,0,0,0,-1,1343,1807,7.7299,-49.8267
126,-783,7.8291,50.1509,0,0,0,0,0,0,0,-1,1350,1807,7.82906,-50.1509
133,-783,8.11963,50.5338,0,0,0,0,0,0,0,-1,1357,1807,8.11958,-50.5338
140,-783,18.3468,35.1345,0,0,0,0,0,0,0,-1,1364,1807,18.3468,-35.1345
147,-783,19.5115,35.8862,0,0,0,0,0,0,0,-1,1371,1807,19.5115,-35.8862
154,-783,38.2109,17.545,0,0,0,0,0,0,0,-1,1378,1807,38.2109,-17.545
161,-783,39.5087,17.5449,0,0,0,0,0,0,0,-1,1385,1807,39.5087,-17.545
168,-783,8.62561,1.79944,0,0,0,0,0,0,0,-1,1392,1807,8.62561,-1.79946
175,-783,8.78699,3.40857,0,0,0,0,0,0,0,-1,1399,1807,8.78697,-3.40854
182,-783,8.70984,5.14661,0,0,0,0,0,0,0,-1,1406,1807,8.70989,-5.14666
189,-783,8.55762,6.79871,0,0,0,0,0,0,0,-1,1413,1807,8.55766,-6.79872
196,-783,8.25488,8.66626,0,0,0,0,0,0,0,-1,1420,1807,8.25492,-8.66628
203,-783,7.86755,10.5735,0,0,0,0,0,0,0,-1,1427,1807,7.8676,-10.5734
210,-783,5.6969,8.99231,0,0,0,0,0,0,0,-1,1434,1807,5.69693,-8.99234
217,-783,5.28503,3.80872,0,0,0,0,0,0,0,-1,1441,1807,5.285,-3.80868
224,-783,3.22571,6.62903,0,0,0,0,0,0,0,-1,1448,1807,3.2257,-6.62907
231,-783,4.27942,4.56262,0,0,0,0,0,0,0,-1,1455,1807,4.27948,-4.56267
238,-783,0,0,0,0,0,0,0,0,0,-1,1462,1807,0,0
245,-783,0,0,0,0,0,0,0,0,0,-1,1469,1807,0,0
252,-783,0,0,0,0,0,0,0,0,0,-1,1476,1807,0,0
259,-783,0,0,0,0,0,0,0,0,0,-1,1483,1807,0,0
266,-783,0,0,0,0,0,0,0,0,0,-1,1490,1807,0,0
273,-783,0,0,0,0,0,0,0,0,0,-1,1497,1807,0,0
280,-783,0,0,0,0,0,0,0,0,0,-1,1504,1807,0,0
287,-783,0,0,0,0,0,0,0,0,0,-1,1511,1807,0,0
294,-783,0,0,0,0,0,0,0,0,0,-1,1518,1807,0,0
301,-783,0,0,0,0,0,0,0,0,0,-1,1525,1807,0,0
308,-783,0,0,0,0,0,0,0,0,0,-1,1532,1807,0,0
315,-783,0,0,0,0,0,0,0,0,0,-1,1539,1807,0,0
322,-783,0,0,0,0,0,0,0,0,0,-1,1546,1807,0,0
329,-783,0,0,0,0,0,0,0,0,0,-1,1553,1807,0,0
336,-783,0,0,0,0,0,0,0,0,0,-1,1560,1807,0,0
343,-783,0,0,0,0,0,0,0,0,0,-1,1567,1807,0,0
350,-783,0,0,0,0,0,0,0,0,0,-1,1574,1807,0,0
357,-783,0,0,0,0,0,0,0,0,0,-1,1581,1807,0,0
364,-783,0,0,0,0,0,0,0,0,0,-1,1588,1807,0,0
371,-783,0,0,0,0,0,0,0,0,0,-1,1595,1807,0,0
378,-783,0,0,0,0,0,0,0,0,0,-1,1602,1807,0,0
385,-783,0,0,0,0,0,0,0,0,0,-1,1609,1807,0,0
392,-783,0,0,0,0,0,0,0,0,0,-1,1616,1807,0,0
399,-783,0,0,0,0,0,0,0,0,0,-1,1623,1807,0,0
406,-783,0,0,0,0,0,0,0,0,0,-1,1630,1807,0,0
413,-783,0,0,0,0,0,0,0,0,0,-1,1637,1807,0,0
420,-783,0,0,0,0,0,0,0,0,0,-1,1644,1807,0,0
427,-783,0,0,0,0,0,0,0,0,0,-1,1651,1807,0,0
434,-783,0,0,0,0,0,0,0,0,0,-1,1658,1807,0,0
441,-783,0,0,0,0,0,0,0,0,0,-1,1665,1807,0,0
448,-783,0,0,0,0,0,0,0,0,0,-1,1672,1807,0,0
455,-783,0,0,0,0,0,0,0,0,0,-1,1679,1807,0,0
462,-783,0,0,0,0,0,0,0,0,0,-1,1686,1807,0,0
469,-783,0,0,0,0,0,0,0,0,0,-1,1693,1807,0,0
476,-783,0,0,0,0,0,0,0,0,0,-1,1700,1807,0,0
483,-783,0,0,0,0,0,0,0,0,0,-1,1707,1807,0,0
490,-783,0,0,0,0,0,0,0,0,0,-1,1714,1807,0,0
497,-783,0,0,0,0,0,0,0,0,0,-1,1721,1807,0,0
504,-783,0,0,0,0,0,0,0,0,0,-1,1728,1807,0,0
511,-783,0,0,0,0,0,0,0,0,0,-1,1735,1807,0,0
518,-783,0,0,0,0,0,0,0,0,0,-1,1742,1807,0,0
525,-783,0,0,0,0,0,0,0,0,0,-1,1749,1807,0,0
532,-783,0,0,0,0,0,0,0,0,0,-1,1756,1807,0,0
539,-783,0,0,0,0,0,0,0,0,0,-1,1763,1807,0,0
546,-783,0,0,0,0,0,0,0,0,0,-1,1770,1807,0,0
553,-783,0,0,0,0,0,0,0,0,0,-1,1777,1807,0,0
560,-783,0,0,0,0,0,0,0,0,0,-1,1784,1807,0,0
567,-783,0,0,0,0,0,0,0,0,0,-1,1791,1807,0,0
574,-783,0,0,0,0,0,0,0,0,0,-1,1798,1807,0,0
581,-783,0,0,0,0,0,0,0,0,0,-1,1805,1807,0,0
588,-783,0,0,0,0,0,0,0,0,0,-1,1812,1807,0,0
595,-783,0,0,0,0,0,0,0,0,0,-1,1819,1807,0,0
602,-783,0,0,0,0,0,0,0,0,0,-1,1826,1807,0,0
609,-783,0,0,0,0,0,0,0,0,0,-1,1833,1807,0,0
616,-783,0,0,0,0,0,0,0,0,0,-1,1840,1807,0,0
623,-783,0,0,0,0,0,0,0,0,0,-1,1847,1807,0,0
630,-783,0,0,0,0,0,0,0,0,0,-1,1854,1807,0,0
637,-783,0,0,0,0,0,0,0,0,0,-1,1861,1807,0,0
644,-783,0,0,0,0,0,0,0,0,0,-1,1868,1807,0,0
651,-783,0,0,0,0,0,0,0,0,0,-1,1875,1807,0,0
658,-783,0,0,0,0,0,0,0,0,0,-1,1882,1807,0,0
665,-783,0,0,0,0,0,0,0,0,0,-1,1889,1807,0,0
672,-783,0,0,0,0,0,0,0,0,0,-1,1896,1807,0,0
679,-783,0,0,0,0,0,0,0,0,0,-1,1903,1807,0,0
686,-783,0,0,0,0,0,0,0,0,0,-1,1910,1807,0,0
693,-783,0,0,0,0,0,0,0,0,0,-1,1917,1807,0,0
700,-783,0,0,0,0,0,0,0,0,0,-1,1924,1807,0,0
707,-783,0,0,0,0,0,0,0,0,0,-1,1931,1807,0,0
714,-783,0,0,0,0,0,0,0,0,0,-1,1938,1807,0,0
721,-783,0,0,0,0,0,0,0,0,0,-1,1945,1807,0,0
728,-783,0,0,0,0,0,0,0,0,0,-1,1952,1807,0,0
735,-783,0,0,0,0,0,0,0,0,0,-1,1959,1807,0,0
742,-783,0,0,0,0,0,0,0,0,0,-1,1966,1807,0,0
749,-783,0,0,0,0,0,0,0,0,0,-1,1973,1807,0,0
756,-783,0,0,0,0,0,0,0,0,0,-1,1980,1807,0,0
763,-783,0,0,0,0,0,0,0,0,0,-1,1987,1807,0,0
770,-783,0,0,0,0,0,0,0,0,0,-1,1994,1807,0,0
777,-783,0,0,0,0,0,0,0,0,0,-1,2001,1807,0,0
784,-783,0,0,0,0,0,0,0,0,0,-1,2008,1807,0,0
791,-783,0,0,0,0,0,0,0,0,0,-1,2015,1807,0,0
798,-783,0,0,0,0,0,0,0,0,0,-1,2022,1807,0,0
805,-783,0,0,0,0,0,0,0,0,0,-1,2029,1807,0,0
812,-783,0,0,0,0,0,0,0,0,0,-1,2036,1807,0,0
-700,-790,0,0,0,0,0,0,0,0,0,-1,524,1814,0,0
-693,-790,0,0,0,0,0,0,0,0,0,-1,531,1814,0,0
-686,-790,0,0,0,0,0,0,0,0,0,-1,538,1814,0,0
-679,-790,0,0,0,0,0,0,0,0,0,-1,545,1814,0,0
-672,-790,0,0,0,0,0,0,0,0,0,-1,552,1814,0,0
-665,-790,0,0,0,0,0,0,0,0,0,-1,559,1814,0,0
-658,-790,0,0,0,0,0,0,0,0,0,-1,566,1814,0,0
-651,-790,0,0,0,0,0,0,0,0,0,-1,573,1814,0,0
-644,-790,0,0,0,0,0,0,0,0,0,-1,580,1814,0,0
-637,-790,0,0,0,0,0,0,0,0,0,-1,587,1814,0,0
-630,-790,0,0,0,0,0,0,0,0,0,-1,594,1814,0,0
-623,-790,0,0,0,0,0,0,0,0,0,-1,601,1814,0,0
-616,-790,0,0,0,0,0,0,0,0,0,-1,608,1814,0,0
-609,-790,0,0,0,0,0,0,0,0,0,-1,615,1814,0,0
-602,-790,0,0,0,0,0,0,0,0,0,-1,622,1814,0,0
-595,-790,0,0,0,0,0,0,0,0,0,-1,629,1814,0,0
-588,-790,0,0,0,0,0,0,0,0,0,-1,636,1814,0,0
-581,-790,0,0,0,0,0,0,0,0,0,-1,643,1814,0,0
-574,-790,0,0,0,0,0,0,0,0,0,-1,650,1814,0,0
-567,-790,0,0,0,0,0,0,0,0,0,-1,657,1814,0,0
-560,-790,0,0,0,0,0,0,0,0,0,-1,664,1814,0,0
-553,-790,0,0,0,0,0,0,0,0,0,-1,671,1814,0,0
-546,-790,0,0,0,0,0,0,0,0,0,-1,678,1814,0,0
-539,-790,0,0,0,0,0,0,0,0,0,-1,685,1814,0,0
-532,-790,0,0,0,0,0,0,0,0,0,-1,692,1814,0,0
-525,-790,0,0,0,0,0,0,0,0,0,-1,699,1814,0,0
-518,-790,0,0,0,0,0,0,0,0,0,-1,706,1814,0,0
-511,-790,0,0,0,0,0,0,0,0,0,-1,713,1814,0,0
-504,-790,0,0,0,0,0,0,0,0,0,-1,720,1814,0,0
-497,-790,0,0,0,0,0,0,0,0,0,-1,727,1814,0,0
-490,-790,0,0,0,0,0,0,0,0,0,-1,734,1814,0,0
-483,-790,0,0,0,0,0,0,0,0,0,-1,741,1814,0,0
-476,-790,0,0,0,0,0,0,0,0,0,-1,748,1814,0,0
-469,-790,0,0,0,0,0,0,0,0,0,-1,755,1814,0,0
-462,-790,0,0,0,0,0,0,0,0,0,-1,762,1814,0,0
-455,-790,0,0,0,0,0,0,0,0,0,-1,769,1814,0,0
-448,-790,0,0,0,0,0,0,0,0,0,-1,776,1814,0,0
-441,-790,0,0,0,0,0,0,0,0,0,-1,783,1814,0,0
-434,-790,0,0,0,0,0,0,0,0,0,-1,790,1814,0,0
-427,-790,0,0,0,0,0,0,0,0,0,-1,797,1814,0,0
-420,-790,0,0,0,0,0,0,0,0,0,-1,804,1814,0,0
-413,-790,0,0,0,0,0,0,0,0,0,-1,811,1814,0,0
-406,-790,0,0,0,0,0,0,0,0,0,-1,818,1814,0,0
-399,-790,0,0,0,0,0,0,0,0,0,-1,825,1814,0,0
-392,-790,0,0,0,0,0,0,0,0,0,-1,832,1814,0,0
-385,-790,0,0,0,0,0,0,0,0,0,-1,839,1814,0,0
-378,-790,0,0,0,0,0,0,0,0,0,-1,846,1814,0,0
-371,-790,0,0,0,0,0,0,0,0,0,-1,853,1814,0,0
-364,-790,0,0,0,0,0,0,0,0,0,-1,860,1814,0,0
-357,-790,0,0,0,0,0,0,0,0,0,-1,867,1814,0,0
-350,-790,0,0,0,0,0,0,0,0,0,-1,874,1814,0,0
-343,-790,0,0,0,0,0,0,0,0,0,-1,881,1814,0,0
-336,-790,0,0,0,0,0,0,0,0,0,-1,888,1814,0,0
-329,-790,0,0,0,0,0,0,0,0,0,-1,895,1814,0,0
-322,-790,0,0,0,0,0,0,0,0,0,-1,902,1814,0,0
-315,-790,0,0,0,0,0,0,0,0,0,-1,909,1814,0,0
-308,-790,0,0,0,0,0,0,0,0,0,-1,916,1814,0,0
-301,-790,0,0,0,0,0,0,0,0,0,-1,923,1814,0,0
-294,-790,0,0,0,0,0,0,0,0,0,-1,930,1814,0,0
-287,-790,0,0,0,0,0,0,0,0,0,-1,937,1814,0,0
-280,-790,0,0,0,0,0,0,0,0,0,-1,944,1814,0,0
-273,-790,0,0,0,0,0,0,0,0,0,-1,951,1814,0,0
-266,-790,0,0,0,0,0,0,0,0,0,-1,958,1814,0,0
-259,-790,0,0,0,0,0,0,0,0,0,-1,965,1814,0,0
-252,-790,0,0,0,0,0,0,0,0,0,-1,972,1814,0,0
-245,-790,0,0,0,0,0,0,0,0,0,-1,979,1814,0,0
-238,-790,0,0,0,0,0,0,0,0,0,-1,986,1814,0,0
-231,-790,0,0,0,0,0,0,0,0,0,-1,993,1814,0,0
-224,-790,0,0,0,0,0,0,0,0,0,-1,1000,1814,0,0
-217,-790,0,0,0,0,0,0,0,0,0,-1,1007,1814,0,0
-210,-790,0,0,0,0,0,0,0,0,0,-1,1014,1814,0,0
-203,-790,0,0,0,0,0,0,0,0,0,-1,1021,1814,0,0
-196,-790,0,0,0,0,0,0,0,0,0,-1,1028,1814,0,0
-189,-790,0,0,0,0,0,0,0,0,0,-1,1035,1814,0,0
-182,-790,0,0,0,0,0,0,0,0,0,-1,1042,1814,0,0
-175,-790,0,0,0,0,0,0,0,0,0,-1,1049,1814,0,0
-168,-790,0,0,0,0,0,0,0,0,0,-1,1056,1814,0,0
-161,-790,0,0,0,0,0,0,0,0,0,-1,1063,1814,0,0
-154,-790,0,0,0,0,0,0,0,0,0,-1,1070,1814,0,0
-147,-790,0,0,0,0,0,0,0,0,0,-1,1077,1814,0,0
-140,-790,0,0,0,0,0,0,0,0,0,-1,1084,1814,0,0
-133,-790,0,0,0,0,0,0,0,0,0,-1,1091,1814,0,0
-126,-790,0,0,0,0,0,0,0,0,0,-1,1098,1814,0,0
-119,-790,0,0,0,0,0,0,0,0,0,-1,1105,1814,0,0
-112,-790,0,0,0,0,0,0,0,0,0,-1,1112,1814,0,0
-105,-790,0,0,0,0,0,0,0,0,0,-1,1119,1814,0,0
-98,-790,0,0,0,0,0,0,0,0,0,-1,1126,1814,0,0
-91,-790,0,0,0,0,0,0,0,0,0,-1,1133,1814,0,0
-84,-790,0,0,0,0,0,0,0,0,0,-1,1140,1814,0,0
-77,-790,-0.969238,5.30847,0,0,0,0,0,0,0,-1,1147,1814,-0.969277,-5.3085
-70,-790,-1.23169,4.98914,0,0,0,0,0,0,0,-1,1154,1814,-1.23163,-4.98916
-63,-790,-1.69128,4.32263,0,0,0,0,0,0,0,-1,1161,1814,-1.69128,-4.32258
-56,-790,-2.24756,3.75305,0,0,0,0,0,0,0,-1,1168,1814,-2.24758,-3.75302
-49,-790,-3.11011,3.35779,0,0,0,0,0,0,0,-1,1175,1814,-3.11006,-3.35781
-42,-790,0.593262,1.19165,0,0,0,0,0,0,0,-1,1182,1814,0.593225,-1.19165
-35,-790,0.307129,-0.20105,0,0,0,0,0,0,0,-1,1189,1814,0.307178,0.201006
-28,-790,-2.78467,0.785156,0,0,0,0,0,0,0,-1,1196,1814,-2.78471,-0.785183
-21,-790,10.0026,34.9109,0,0,0,0,0,0,0,-1,1203,1814,10.0026,-34.9108
-14,-790,9.94897,35.2709,-0.033699,0.159138,0.0108148,0.159743,-0.0343036,1.51495,0.119581,0.0478586,1210,1814,9.94896,-35.2709
-7,-790,9.52393,35.6753,-0.027078,0.14855,0.0102195,0.149143,-0.0276707,1.51287,0.10982,0.0454248,1217,1814,9.52391,-35.6753
0,-790,9.34583,35.9972,-0.0202786,0.137656,0.00961622,0.138239,-0.0208619,1.51021,0.0998427,0.0430264,1224,1814,9.34581,-35.9972
7,-790,9.13855,36.3444,-0.0150144,0.126614,0.00553894,0.12683,-0.0152307,1.53177,0.0900606,0.0436967,1231,1814,9.13852,-36.3444
14,-790,8.25439,37.9373,-0.00965537,0.117596,0.00124012,0.117608,-0.00966745,1.56105,0.0818186,0.0443559,1238,1814,8.25439,-37.9373
21,-790,8.55762,38.1791,-0.00456561,0.111228,-0.0028224,0.111296,-0.00463437,-1.54644,0.0757896,0.0415098,1245,1814,8.55763,-38.179
28,-790,8.83569,38.4994,-0.000134562,0.107607,-0.00642559,0.107989,-0.00051643,-1.51144,0.0721654,0.0417382,1252,1814,8.83571,-38.4994
35,-790,8.49048,39.207,0,0,0,0,0,0,0,-1,1259,1814,8.49048,-39.207
42,-790,8.41125,39.7272,0,0,0,0,0,0,0,-1,1266,1814,8.41124,-39.7272
49,-790,7.66504,39.249,0.0247694,0.0927016,-0.00854699,0.0937605,0.0237105,-1.44754,0.0562933,0.0496972,1273,1814,7.66502,-39.249
56,-790,6.70007,36.6825,0.0325421,0.0915841,-0.00835605,0.0927439,0.0313823,-1.43288,0.0544702,0.0495076,1280,1814,6.70006,-36.6825
63,-790,7.0603,36.9548,0.0410644,0.0896469,-0.00730262,0.0907208,0.0399904,-1.42478,0.0524999,0.0486861,1287,1814,7.06036,-36.9549
70,-790,7.25745,37.2842,0,0,0,0,0,0,0,-1,1294,1814,7.25747,-37.2841
77,-790,8.71143,45.173,0.0570231,0.0882043,-0.00115513,0.088247,0.0569804,-1.53382,0.0516654,0.0412973,1301,1814,8.71137,-45.173
84,-790,8.62878,45.8086,0.0636397,0.088657,0.00259353,0.0889231,0.0633737,1.46858,0.0528653,0.0418925,1308,1814,8.62883,-45.8086
91,-790,8.6156,46.434,0.0684811,0.0891938,0.00472504,0.0902208,0.0674541,1.35678,0.054177,0.0476045,1315,1814,8.61558,-46.434
98,-790,8.38086,47.2334,0.0710731,0.0910112,0.00560861,0.0924806,0.0696037,1.31456,0.0556191,0.0467276,1322,1814,8.38091,-47.2333
105,-790,8.70349,47.7747,0.0705814,0.0949564,0.00506002,0.0959651,0.0695727,1.37403,0.0572445,0.0475841,1329,1814,8.70355,-47.7747
112,-790,9.11084,48.1443,0,0,0,0,0,0,0,-1,1336,1814,9.11084,-48.1443
119,-790,10.6792,47.7906,0,0,0,0,0,0,0,-1,1343,1814,10.6792,-47.7906
126,-790,9.65552,49.488,0,0,0,0,0,0,0,-1,1350,1814,9.65554,-49.488
133,-790,15.274,33.887,0,0,0,0,0,0,0,-1,1357,1814,15.274,-33.8869
140,-790,16.0784,33.3459,0,0,0,0,0,0,0,-1,1364,1814,16.0784,-33.346
147,-790,9.01794,33.7303,0,0,0,0,0,0,0,-1,1371,1814,9.0179,-33.7304
154,-790,40.215,13.2396,0,0,0,0,0,0,0,-1,1378,1814,40.2149,-13.2396
161,-790,39.3429,13.0336,0,0,0,0,0,0,0,-1,1385,1814,39.3429,-13.0336
168,-790,7.04077,2.23279,0,0,0,0,0,0,0,-1,1392,1814,7.04082,-2.23275
175,-790,9.03918,3.98535,0,0,0,0,0,0,0,-1,1399,1814,9.0392,-3.98535
182,-790,8.96997,5.67896,0,0,0,0,0,0,0,-1,1406,1814,8.97001,-5.6789
189,-790,8.59729,6.86975,0,0,0,0,0,0,0,-1,1413,1814,8.59728,-6.86972
196,-790,8.21924,9.29053,0,0,0,0,0,0,0,-1,1420,1814,8.21924,-9.29048
203,-790,0,0,0,0,0,0,0,0,0,-1,1427,1814,0,0
210,-790,0,0,0,0,0,0,0,0,0,-1,1434,1814,0,0
217,-790,0,0,0,0,0,0,0,0,0,-1,1441,1814,0,0
224,-790,0,0,0,0,0,0,0,0,0,-1,1448,1814,0,0
231,-790,0,0,0,0,0,0,0,0,0,-1,1455,1814,0,0
238,-790,0,0,0,0,0,0,0,0,0,-1,1462,1814,0,0
245,-790,0,0,0,0,0,0,0,0,0,-1,1469,1814,0,0
252,-790,0,0,0,0,0,0,0,0,0,-1,1476,1814,0,0
259,-790,0,0,0,0,0,0,0,0,0,-1,1483,1814,0,0
266,-790,0,0,0,0,0,0,0,0,0,-1,1490,1814,0,0
273,-790,0,0,0,0,0,0,0,0,0,-1,1497,1814,0,0
280,-790,0,0,0,0,0,0,0,0,0,-1,1504,1814,0,0
287,-790,0,0,0,0,0,0,0,0,0,-1,1511,1814,0,0
294,-790,0,0,0,0,0,0,0,0,0,-1,1518,1814,0,0
301,-790,0,0,0,0,0,0,0,0,0,-1,1525,1814,0,0
308,-790,0,0,0,0,0,0,0,0,0,-1,1532,1814,0,0
315,-790,0,0,0,0,0,0,0,0,0,-1,1539,1814,0,0
322,-790,0,0,0,0,0,0,0,0,0,-1,1546,1814,0,0
329,-790,0,0,0,0,0,0,0,0,0,-1,1553,1814,0,0
336,-790,0,0,0,0,0,0,0,0,0,-1,1560,1814,0,0
343,-790,0,0,0,0,0,0,0,0,0,-1,1567,1814,0,0
350,-790,0,0,0,0,0,0,0,0,0,-1,1574,1814,0,0
357,-790,0,0,0,0,0,0,0,0,0,-1,1581,1814,0,0
364,-790,0,0,0,0,0,0,0,0,0,-1,1588,1814,0,0
371,-790,0,0,0,0,0,0,0,0,0,-1,1595,1814,0,0
378,-790,0,0,0,0,0,0,0,0,0,-1,1602,1814,0,0
385,-790,0,0,0,0,0,0,0,0,0,-1,1609,1814,0,0
392,-790,0,0,0,0,0,0,0,0,0,-1,1616,1814,0,0
399,-790,0,0,0,0,0,0,0,0,0,-1,1623,1814,0,0
406,-790,0,0,0,0,0,0,0,0,0,-1,1630,1814,0,0
413,-790,0,0,0,0,0,0,0,0,0,-1,1637,1814,0,0
420,-790,0,0,0,0,0,0,0,0,0,-1,1644,1814,0,0
427,-790,0,0,0,0,0,0,0,0,0,-1,1651,1814,0,0
434,-790,0,0,0,0,0,0,0,0,0,-1,1658,1814,0,0
441,-790,0,0,0,0,0,0,0,0,0,-1,1665,1814,0,0
448,-790,0,0,0,0,0,0,0,0,0,-1,1672,1814,0,0
455,-790,0,0,0,0,0,0,0,0,0,-1,1679,1814,0,0
462,-790,0,0,0,0,0,0,0,0,0,-1,1686,1814,0,0
469,-790,0,0,0,0,0,0,0,0,0,-1,1693,1814,0,0
476,-790,0,0,0,0,0,0,0,0,0,-1,1700,1814,0,0
483,-790,0,0,0,0,0,0,0,0,0,-1,1707,1814,0,0
490,-790,0,0,0,0,0,0,0,0,0,-1,1714,1814,0,0
497,-790,0,0,0,0,0,0,0,0,0,-1,1721,1814,0,0
504,-790,0,0,0,0,0,0,0,0,0,-1,1728,1814,0,0
511,-790,0,0,0,0,0,0,0,0,0,-1,1735,1814,0,0
518,-790,0,0,0,0,0,0,0,0,0,-1,1742,1814,0,0
525,-790,0,0,0,0,0,0,0,0,0,-1,1749,1814,0,0
532,-790,0,0,0,0,0,0,0,0,0,-1,1756,1814,0,0
539,-790,0,0,0,0,0,0,0,0,0,-1,1763,1814,0,0
546,-790,0,0,0,0,0,0,0,0,0,-1,1770,1814,0,0
553,-790,0,0,0,0,0,0,0,0,0,-1,1777,1814,0,0
560,-790,0,0,0,0,0,0,0,0,0,-1,1784,1814,0,0
567,-790,0,0,0,0,0,0,0,0,0,-1,1791,1814,0,0
574,-790,0,0,0,0,0,0,0,0,0,-1,1798,1814,0,0
581,-790,0,0,0,0,0,0,0,0,0,-1,1805,1814,0,0
588,-790,0,0,0,0,0,0,0,0,0,-1,1812,1814,0,0
595,-790,0,0,0,0,0,0,0,0,0,-1,1819,1814,0,0
602,-790,0,0,0,0,0,0,0,0,0,-1,1826,1814,0,0
609,-790,0,0,0,0,0,0,0,0,0,-1,1833,1814,0,0
616,-790,0,0,0,0,0,0,0,0,0,-1,1840,1814,0,0
623,-790,0,0,0,0,0,0,0,0,0,-1,1847,1814,0,0
630,-790,0,0,0,0,0,0,0,0,0,-1,1854,1814,0,0
637,-790,0,0,0,0,0,0,0,0,0,-1,1861,1814,0,0
644,-790,0,0,0,0,0,0,0,0,0,-1,1868,1814,0,0
651,-790,0,0,0,0,0,0,0,0,0,-1,1875,1814,0,0
658,-790,0,0,0,0,0,0,0,0,0,-1,1882,1814,0,0
665,-790,0,0,0,0,0,0,0,0,0,-1,1889,1814,0,0
672,-790,0,0,0,0,0,0,0,0,0,-1,1896,1814,0,0
679,-790,0,0,0,0,0,0,0,0,0,-1,1903,1814,0,0
686,-790,0,0,0,0,0,0,0,0,0,-1,1910,1814,0,0
693,-790,0,0,0,0,0,0,0,0,0,-1,1917,1814,0,0
700,-790,0,0,0,0,0,0,0,0,0,-1,1924,1814,0,0
707,-790,0,0,0,0,0,0,0,0,0,-1,1931,1814,0,0
714,-790,0,0,0,0,0,0,0,0,0,-1,1938,1814,0,0
721,-790,0,0,0,0,0,0,0,0,0,-1,1945,1814,0,0
728,-790,0,0,0,0,0,0,0,0,0,-1,1952,1814,0,0
735,-790,0,0,0,0,0,0,0,0,0,-1,1959,1814,0,0
742,-790,0,0,0,0,0,0,0,0,0,-1,1966,1814,0,0
749,-790,0,0,0,0,0,0,0,0,0,-1,1973,1814,0,0
756,-790,0,0,0,0,0,0,0,0,0,-1,1980,1814,0,0
763,-790,0,0,0,0,0,0,0,0,0,-1,1987,1814,0,0
770,-790,0,0,0,0,0,0,0,0,0,-1,1994,1814,0,0
777,-790,0,0,0,0,0,0,0,0,0,-1,2001,1814,0,0
784,-790,0,0,0,0,0,0,0,0,0,-1,2008,1814,0,0
791,-790,0,0,0,0,0,0,0,0,0,-1,2015,1814,0,0
798,-790,0,0,0,0,0,0,0,0,0,-1,2022,1814,0,0
805,-790,0,0,0,0,0,0,0,0,0,-1,2029,1814,0,0
812,-790,0,0,0,0,0,0,0,0,0,-1,2036,1814,0,0
-700,-797,0,0,0,0,0,0,0,0,0,-1,524,1821,0,0
-693,-797,0,0,0,0,0,0,0,0,0,-1,531,1821,0,0
-686,-797,0,0,0,0,0,0,0,0,0,-1,538,1821,0,0
-679,-797,0,0,0,0,0,0,0,0,0,-1,545,1821,0,0
-672,-797,0,0,0,0,0,0,0,0,0,-1,552,1821,0,0
-665,-797,0,0,0,0,0,0,0,0,0,-1,559,1821,0,0
-658,-797,0,0,0,0,0,0,0,0,0,-1,566,1821,0,0
-651,-797,0,0,0,0,0,0,0,0,0,-1,573,1821,0,0
-644,-797,0,0,0,0,0,0,0,0,0,-1,580,1821,0,0
-637,-797,0,0,0,0,0,0,0,0,0,-1,587,1821,0,0
-630,-797,0,0,0,0,0,0,0,0,0,-1,594,1821,0,0
-623,-797,0,0,0,0,0,0,0,0,0,-1,601,1821,0,0
-616,-797,0,0,0,0,0,0,0,0,0,-1,608,1821,0,0
-609,-797,0,0,0,0,0,0,0,0,0,-1,615,1821,0,0
-602,-797,0,0,0,0,0,0,0,0,0,-1,622,1821,0,0
-595,-797,0,0,0,0,0,0,0,0,0,-1,629,1821,0,0
-588,-797,0,0,0,0,0,0,0,0,0,-1,636,1821,0,0
-581,-797,0,0,0,0,0,0,0,0,0,-1,643,1821,0,0
-574,-797,0,0,0,0,0,0,0,0,0,-1,650,1821,0,0
-567,-797,0,0,0,0,0,0,0,0,0,-1,657,1821,0,0
-560,-797,0,0,0,0,0,0,0,0,0,-1,664,1821,0,0
-553,-797,0,0,0,0,0,0,0,0,0,-1,671,1821,0,0
-546,-797,0,0,0,0,0,0,0,0,0,-1,678,1821,0,0
-539,-797,0,0,0,0,0,0,0,0,0,-1,685,1821,0,0
-532,-797,0,0,0,0,0,0,0,0,0,-1,692,1821,0,0
-525,-797,0,0,0,0,0,0,0,0,0,-1,699,1821,0,0
-518,-797,0,0,0,0,0,0,0,0,0,-1,706,1821,0,0
-511,-797,0,0,0,0,0,0,0,0,0,-1,713,1821,0,0
-504,-797,0,0,0,0,0,0,0,0,0,-1,720,1821,0,0
-497,-797,0,0,0,0,0,0,0,0,0,-1,727,1821,0,0
-490,-797,0,0,0,0,0,0,0,0,0,-1,734,1821,0,0
-483,-797,0,0,0,0,0,0,0,0,0,-1,741,1821,0,0
-476,-797,0,0,0,0,0,0,0,0,0,-1,748,1821,0,0
-469,-797,0,0,0,0,0,0,0,0,0,-1,755,1821,0,0
-462,-797,0,0,0,0,0,0,0,0,0,-1,762,1821,0,0
-455,-797,0,0,0,0,0,0,0,0,0,-1,769,1821,0,0
-448,-797,0,0,0,0,0,0,0,0,0,-1,776,1821,0,0
-441,-797,0,0,0,0,0,0,0,0,0,-1,783,1821,0,0
-434,-797,0,0,0,0,0,0,0,0,0,-1,790,1821,0,0
-427,-797,0,0,0,0,0,0,0,0,0,-1,797,1821,0,0
-420,-797,0,0,0,0,0,0,0,0,0,-1,804,1821,0,0
-413,-797,0,0,0,0,0,0,0,0,0,-1,811,1821,0,0
-406,-797,0,0,0,0,0,0,0,0,0,-1,818,1821,0,0
-399,-797,0,0,0,0,0,0,0,0,0,-1,825,1821,0,0
-392,-797,0,0,0,0,0,0,0,0,0,-1,832,1821,0,0
-385,-797,0,0,0,0,0,0,0,0,0,-1,839,1821,0,0
-378,-797,0,0,0,0,0,0,0,0,0,-1,846,1821,0,0
-371,-797,0,0,0,0,0,0,0,0,0,-1,853,1821,0,0
-364,-797,0,0,0,0,0,0,0,0,0,-1,860,1821,0,0
-357,-797,0,0,0,0,0,0,0,0,0,-1,867,1821,0,0
-350,-797,0,0,0,0,0,0,0,0,0,-1,874,1821,0,0
-343,-797,0,0,0,0,0,0,0,0,0,-1,881,1821,0,0
-336,-797,0,0,0,0,0,0,0,0,0,-1,888,1821,0,0
-329,-797,0,0,0,0,0,0,0,0,0,-1,895,1821,0,0
-322,-797,0,0,0,0,0,0,0,0,0,-1,902,1821,0,0
-315,-797,0,0,0,0,0,0,0,0,0,-1,909,1821,0,0
-308,-797,0,0,0,0,0,0,0,0,0,-1,916,1821,0,0
-301,-797,0,0,0,0,0,0,0,0,0,-1,923,1821,0,0
-294,-797,0,0,0,0,0,0,0,0,0,-1,930,1821,0,0
-287,-797,0,0,0,0,0,0,0,0,0,-1,937,1821,0,0
-280,-797,0,0,0,0,0,0,0,0,0,-1,944,1821,0,0
-273,-797,0,0,0,0,0,0,0,0,0,-1,951,1821,0,0
-266,-797,0,0,0,0,0,0,0,0,0,-1,958,1821,0,0
-259,-797,0,0,0,0,0,0,0,0,0,-1,965,1821,0,0
-252,-797,0,0,0,0,0,0,0,0,0,-1,972,1821,0,0
-245,-797,0,0,0,0,0,0,0,0,0,-1,979,1821,0,0
-238,-797,0,0,0,0,0,0,0,0,0,-1,986,1821,0,0
-231,-797,0,0,0,0,0,0,0,0,0,-1,993,1821,0,0
-224,-797,0,0,0,0,0,0,0,0,0,-1,1000,1821,0,0
-217,-797,0,0,0,0,0,0,0,0,0,-1,1007,1821,0,0
-210,-797,0,0,0,0,0,0,0,0,0,-1,1014,1821,0,0
-203,-797,0,0,0,0,0,0,0,0,0,-1,1021,1821,0,0
-196,-797,0,0,0,0,0,0,0,0,0,-1,1028,1821,0,0
-189,-797,0,0,0,0,0,0,0,0,0,-1,1035,1821,0,0
-182,-797,0,0,0,0,0,0,0,0,0,-1,1042,1821,0,0
-175,-797,0,0,0,0,0,0,0,0,0,-1,1049,1821,0,0
-168,-797,0,0,0,0,0,0,0,0,0,-1,1056,1821,0,0
-161,-797,0,0,0,0,0,0,0,0,0,-1,1063,1821,0,0
-154,-797,0,0,0,0,0,0,0,0,0,-1,1070,1821,0,0
-147,-797,0,0,0,0,0,0,0,0,0,-1,1077,1821,0,0
-140,-797,0,0,0,0,0,0,0,0,0,-1,1084,1821,0,0
-133,-797,0,0,0,0,0,0,0,0,0,-1,1091,1821,0,0
-126,-797,0,0,0,0,0,0,0,0,0,-1,1098,1821,0,0
-119,-797,0,0,0,0,0,0,0,0,0,-1,1105,1821,0,0
-112,-797,0,0,0,0,0,0,0,0,0,-1,1112,1821,0,0
-105,-797,0,0,0,0,0,0,0,0,0,-1,1119,1821,0,0
-98,-797,0,0,0,0,0,0,0,0,0,-1,1126,1821,0,0
-91,-797,0,0,0,0,0,0,0,0,0,-1,1133,1821,0,0
-84,-797,0,0,0,0,0,0,0,0,0,-1,1140,1821,0,0
-77,-797,0,0,0,0,0,0,0,0,0,-1,1147,1821,0,0
-70,-797,0,0,0,0,0,0,0,0,0,-1,1154,1821,0,0
-63,-797,0,0,0,0,0,0,0,0,0,-1,1161,1821,0,0
-56,-797,0,0,0,0,0,0,0,0,0,-1,1168,1821,0,0
-49,-797,0,0,0,0,0,0,0,0,0,-1,1175,1821,0,0
-42,-797,0.579834,0.692871,0,0,0,0,0,0,0,-1,1182,1821,0.579856,-0.692816
-35,-797,-0.185425,5.55396,0,0,0,0,0,0,0,-1,1189,1821,-0.18542,-5.55396
-28,-797,-0.310181,4.71509,0,0,0,0,0,0,0,-1,1196,1821,-0.310228,-4.71503
-21,-797,9.60547,34.1531,0,0,0,0,0,0,0,-1,1203,1821,9.60544,-34.1531
-14,-797,10.0695,34.5391,0,0,0,0,0,0,0,-1,1210,1821,10.0695,-34.5391
-7,-797,10.027,34.5223,0,0,0,0,0,0,0,-1,1217,1821,10.0269,-34.5223
0,-797,9.83899,34.8774,-0.0214124,0.172129,0.0120362,0.172875,-0.022158,1.50892,0.123301,0.0497282,1224,1821,9.83896,-34.8774
7,-797,9.6947,35.1722,-0.0145814,0.158117,0.00709092,0.158407,-0.014872,1.52983,0.110895,0.0478332,1231,1821,9.69469,-35.1722
14,-797,9.65979,35.6713,-0.00806499,0.146404,0.00164112,0.146421,-0.00808243,1.56017,0.100417,0.0438453,1238,1821,9.65975,-35.6713
21,-797,9.55298,38.1063,-0.00220419,0.138055,-0.00318969,0.138127,-0.0022767,-1.54807,0.0928532,0.042032,1245,1821,9.55293,-38.1063
28,-797,9.61548,38.1923,0.00265748,0.133219,-0.00723014,0.133618,0.00225831,-1.51564,0.0883356,0.0413296,1252,1821,9.61551,-38.1923
35,-797,9.70605,38.8447,0.0121983,0.12556,-0.00831962,0.126167,0.011591,-1.49793,0.0805265,0.0456027,1259,1821,9.70606,-38.8447
42,-797,9.73987,39.5665,0.0209851,0.119502,-0.00988779,0.120485,0.0200025,-1.47175,0.0745556,0.0461716,1266,1821,9.73986,-39.5666
49,-797,7.86011,38.4985,0,0,0,0,0,0,0,-1,1273,1821,7.86008,-38.4985
56,-797,9.56006,41.4832,0,0,0,0,0,0,0,-1,1280,1821,9.56002,-41.4832
63,-797,6.89856,36.3047,0,0,0,0,0,0,0,-1,1287,1821,6.89862,-36.3047
70,-797,9.37183,43.308,0.0550803,0.111938,-0.00711925,0.112816,0.0542024,-1.44811,0.065151,0.0441685,1294,1821,9.37181,-43.308
77,-797,9.50024,43.9481,0.0636367,0.11524,-0.00288144,0.1154,0.0634763,-1.51519,0.0667375,0.0432581,1301,1821,9.50023,-43.9482
84,-797,9.82166,44.6281,0.0717366,0.117341,0.00144227,0.117386,0.0716911,1.53921,0.0683248,0.0462614,1308,1821,9.82171,-44.628
91,-797,10.0648,45.4307,0.0780852,0.119697,0.00397115,0.120073,0.0777096,1.4765,0.0703183,0.0482671,1315,1821,10.0648,-45.4306
98,-797,10.2963,46.1915,0,0,0,0,0,0,0,-1,1322,1821,10.2963,-46.1916
105,-797,9.21912,46.6085,0.0807538,0.13108,0.00264226,0.131219,0.0806154,1.51849,0.0764168,0.0470678,1329,1821,9.21915,-46.6085
112,-797,10.1931,46.6144,0,0,0,0,0,0,0,-1,1336,1821,10.1932,-46.6144
119,-797,11.1322,46.5341,0,0,0,0,0,0,0,-1,1343,1821,11.1322,-46.5341
126,-797,11.9917,46.5272,0,0,0,0,0,0,0,-1,1350,1821,11.9917,-46.5272
133,-797,-8.12036,26.9442,0,0,0,0,0,0,0,-1,1357,1821,-8.12031,-26.9443
140,-797,15.7264,35.1793,0,0,0,0,0,0,0,-1,1364,1821,15.7265,-35.1793
147,-797,16.7083,34.7194,0,0,0,0,0,0,0,-1,1371,1821,16.7083,-34.7194
154,-797,40.2623,8.88733,0,0,0,0,0,0,0,-1,1378,1821,40.2623,-8.88731
161,-797,42.2798,8.17371,0,0,0,0,0,0,0,-1,1385,1821,42.2798,-8.17367
168,-797,0,0,0,0,0,0,0,0,0,-1,1392,1821,0,0
175,-797,0,0,0,0,0,0,0,0,0,-1,1399,1821,0,0
182,-797,0,0,0,0,0,0,0,0,0,-1,1406,1821,0,0
189,-797,0,0,0,0,0,0,0,0,0,-1,1413,1821,0,0
196,-797,0,0,0,0,0,0,0,0,0,-1,1420,1821,0,0
203,-797,0,0,0,0,0,0,0,0,0,-1,1427,1821,0,0
210,-797,0,0,0,0,0,0,0,0,0,-1,1434,1821,0,0
217,-797,0,0,0,0,0,0,0,0,0,-1,1441,1821,0,0
224,-797,0,0,0,0,0,0,0,0,0,-1,1448,1821,0,0
231,-797,0,0,0,0,0,0,0,0,0,-1,1455,1821,0,0
238,-797,0,0,0,0,0,0,0,0,0,-1,1462,1821,0,0
245,-797,0,0,0,0,0,0,0,0,0,-1,1469,1821,0,0
252,-797,0,0,0,0,0,0,0,0,0,-1,1476,1821,0,0
259,-797,0,0,0,0,0,0,0,0,0,-1,1483,1821,0,0
266,-797,0,0,0,0,0,0,0,0,0,-1,1490,1821,0,0
273,-797,0,0,0,0,0,0,0,0,0,-1,1497,1821,0,0
280,-797,0,0,0,0,0,0,0,0,0,-1,1504,1821,0,0
287,-797,0,0,0,0,0,0,0,0,0,-1,1511,1821,0,0
294,-797,0,0,0,0,0,0,0,0,0,-1,1518,1821,0,0
301,-797,0,0,0,0,0,0,0,0,0,-1,1525,1821,0,0
308,-797,0,0,0,0,0,0,0,0,0,-1,1532,1821,0,0
315,-797,0,0,0,0,0,0,0,0,0,-1,1539,1821,0,0
322,-797,0,0,0,0,0,0,0,0,0,-1,1546,1821,0,0
329,-797,0,0,0,0,0,0,0,0,0,-1,1553,1821,0,0
336,-797,0,0,0,0,0,0,0,0,0,-1,1560,1821,0,0
343,-797,0,0,0,0,0,0,0,0,0,-1,1567,1821,0,0
350,-797,0,0,0,0,0,0,0,0,0,-1,1574,1821,0,0
357,-797,0,0,0,0,0,0,0,0,0,-1,1581,1821,0,0
364,-797,0,0,0,0,0,0,0,0,0,-1,1588,1821,0,0
371,-797,0,0,0,0,0,0,0,0,0,-1,1595,1821,0,0
378,-797,0,0,0,0,0,0,0,0,0,-1,1602,1821,0,0
385,-797,0,0,0,0,0,0,0,0,0,-1,1609,1821,0,0
392,-797,0,0,0,0,0,0,0,0,0,-1,1616,1821,0,0
399,-797,0,0,0,0,0,0,0,0,0,-1,1623,1821,0,0
406,-797,0,0,0,0,0,0,0,0,0,-1,1630,1821,0,0
413,-797,0,0,0,0,0,0,0,0,0,-1,1637,1821,0,0
420,-797,0,0,0,0,0,0,0,0,0,-1,1644,1821,0,0
427,-797,0,0,0,0,0,0,0,0,0,-1,1651,1821,0,0
434,-797,0,0,0,0,0,0,0,0,0,-1,1658,1821,0,0
441,-797,0,0,0,0,0,0,0,0,0,-1,1665,1821,0,0
448,-797,0,0,0,0,0,0,0,0,0,-1,1672,1821,0,0
455,-797,0,0,0,0,0,0,0,0,0,-1,1679,1821,0,0
462,-797,0,0,0,0,0,0,0,0,0,-1,1686,1821,0,0
469,-797,0,0,0,0,0,0,0,0,0,-1,1693,1821,0,0
476,-797,0,0,0,0,0,0,0,0,0,-1,1700,1821,0,0
483,-797,0,0,0,0,0,0,0,0,0,-1,1707,1821,0,0
490,-797,0,0,0,0,0,0,0,0,0,-1,1714,1821,0,0
497,-797,0,0,0,0,0,0,0,0,0,-1,1721,1821,0,0
504,-797,0,0,0,0,0,0,0,0,0,-1,1728,1821,0,0
511,-797,0,0,0,0,0,0,0,0,0,-1,1735,1821,0,0
518,-797,0,0,0,0,0,0,0,0,0,-1,1742,1821,0,0
525,-797,0,0,0,0,0,0,0,0,0,-1,1749,1821,0,0
532,-797,0,0,0,0,0,0,0,0,0,-1,1756,1821,0,0
539,-797,0,0,0,0,0,0,0,0,0,-1,1763,1821,0,0
546,-797,0,0,0,0,0,0,0,0,0,-1,1770,1821,0,0
553,-797,0,0,0,0,0,0,0,0,0,-1,1777,1821,0,0
560,-797,0,0,0,0,0,0,0,0,0,-1,1784,1821,0,0
567,-797,0,0,0,0,0,0,0,0,0,-1,1791,1821,0,0
574,-797,0,0,0,0,0,0,0,0,0,-1,1798,1821,0,0
581,-797,0,0,0,0,0,0,0,0,0,-1,1805,1821,0,0
588,-797,0,0,0,0,0,0,0,0,0,-1,1812,1821,0,0
595,-797,0,0,0,0,0,0,0,0,0,-1,1819,1821,0,0
602,-797,0,0,0,0,0,0,0,0,0,-1,1826,1821,0,0
609,-797,0,0,0,0,0,0,0,0,0,-1,1833,1821,0,0
616,-797,0,0,0,0,0,0,0,0,0,-1,1840,1821,0,0
623,-797,0,0,0,0,0,0,0,0,0,-1,1847,1821,0,0
630,-797,0,0,0,0,0,0,0,0,0,-1,1854,1821,0,0
637,-797,0,0,0,0,0,0,0,0,0,-1,1861,1821,0,0
644,-797,0,0,0,0,0,0,0,0,0,-1,1868,1821,0,0
651,-797,0,0,0,0,0,0,0,0,0,-1,1875,1821,0,0
658,-797,0,0,0,0,0,0,0,0,0,-1,1882,1821,0,0
665,-797,0,0,0,0,0,0,0,0,0,-1,1889,1821,0,0
672,-797,0,0,0,0,0,0,0,0,0,-1,1896,1821,0,0
679,-797,0,0,0,0,0,0,0,0,0,-1,1903,1821,0,0
686,-797,0,0,0,0,0,0,0,0,0,-1,1910,1821,0,0
693,-797,0,0,0,0,0,0,0,0,0,-1,1917,1821,0,0
700,-797,0,0,0,0,0,0,0,0,0,-1,1924,1821,0,0
707,-797,0,0,0,0,0,0,0,0,0,-1,1931,1821,0,0
714,-797,0,0,0,0,0,0,0,0,0,-1,1938,1821,0,0
721,-797,0,0,0,0,0,0,0,0,0,-1,1945,1821,0,0
728,-797,0,0,0,0,0,0,0,0,0,-1,1952,1821,0,0
735,-797,0,0,0,0,0,0,0,0,0,-1,1959,1821,0,0
742,-797,0,0,0,0,0,0,0,0,0,-1,1966,1821,0,0
749,-797,0,0,0,0,0,0,0,0,0,-1,1973,1821,0,0
756,-797,0,0,0,0,0,0,0,0,0,-1,1980,1821,0,0
763,-797,0,0,0,0,0,0,0,0,0,-1,1987,1821,0,0
770,-797,0,0,0,0,0,0,0,0,0,-1,1994,1821,0,0
777,-797,0,0,0,0,0,0,0,0,0,-1,2001,1821,0,0
784,-797,0,0,0,0,0,0,0,0,0,-1,2008,1821,0,0
791,-797,0,0,0,0,0,0,0,0,0,-1,2015,1821,0,0
798,-797,0,0,0,0,0,0,0,0,0,-1,2022,1821,0,0
805,-797,0,0,0,0,0,0,0,0,0,-1,2029,1821,0,0
812,-797,0,0,0,0,0,0,0,0,0,-1,2036,1821,0,0
-700,-804,0,0,0,0,0,0,0,0,0,-1,524,1828,0,0
-693,-804,0,0,0,0,0,0,0,0,0,-1,531,1828,0,0
-686,-804,0,0,0,0,0,0,0,0,0,-1,538,1828,0,0
-679,-804,0,0,0,0,0,0,0,0,0,-1,545,1828,0,0
-672,-804,0,0,0,0,0,0,0,0,0,-1,552,1828,0,0
-665,-804,0,0,0,0,0,0,0,0,0,-1,559,1828,0,0
-658,-804,0,0,0,0,0,0,0,0,0,-1,566,1828,0,0
-651,-804,0,0,0,0,0,0,0,0,0,-1,573,1828,0,0
-644,-804,0,0,0,0,0,0,0,0,0,-1,580,1828,0,0
-637,-804,0,0,0,0,0,0,0,0,0,-1,587,1828,0,0
-630,-804,0,0,0,0,0,0,0,0,0,-1,594,1828,0,0
-623,-804,0,0,0,0,0,0,0,0,0,-1,601,1828,0,0
-616,-804,0,0,0,0,0,0,0,0,0,-1,608,1828,0,0
-609,-804,0,0,0,0,0,0,0,0,0,-1,615,1828,0,0
-602,-804,0,0,0,0,0,0,0,0,0,-1,622,1828,0,0
-595,-804,0,0,0,0,0,0,0,0,0,-1,629,1828,0,0
-588,-804,0,0,0,0,0,0,0,0,0,-1,636,1828,0,0
-581,-804,0,0,0,0,0,0,0,0,0,-1,643,1828,0,0
-574,-804,0,0,0,0,0,0,0,0,0,-1,650,1828,0,0
-567,-804,0,0,0,0,0,0,0,0,0,-1,657,1828,0,0
-560,-804,0,0,0,0,0,0,0,0,0,-1,664,1828,0,0
-553,-804,0,0,0,0,0,0,0,0,0,-1,671,1828,0,0
-546,-804,0,0,0,0,0,0,0,0,0,-1,678,1828,0,0
-539,-804,0,0,0,0,0,0,0,0,0,-1,685,1828,0,0
-532,-804,0,0,0,0,0,0,0,0,0,-1,692,1828,0,0
-525,-804,0,0,0,0,0,0,0,0,0,-1,699,1828,0,0
-518,-804,0,0,0,0,0,0,0,0,0,-1,706,1828,0,0
-511,-804,0,0,0,0,0,0,0,0,0,-1,713,1828,0,0
-504,-804,0,0,0,0,0,0,0,0,0,-1,720,1828,0,0
-497,-804,0,0,0,0,0,0,0,0,0,-1,727,1828,0,0
-490,-804,0,0,0,0,0,0,0,0,0,-1,734,1828,0,0
-483,-804,0,0,0,0,0,0,0,0,0,-1,741,1828,0,0
-476,-804,0,0,0,0,0,0,0,0,0,-1,748,1828,0,0
-469,-804,0,0,0,0,0,0,0,0,0,-1,755,1828,0,0
-462,-804,0,0,0,0,0,0,0,0,0,-1,762,1828,0,0
-455,-804,0,0,0,0,0,0,0,0,0,-1,769,1828,0,0
-448,-804,0,0,0,0,0,0,0,0,0,-1,776,1828,0,0
-441,-804,0,0,0,0,0,0,0,0,0,-1,783,1828,0,0
-434,-804,0,0,0,0,0,0,0,0,0,-1,790,1828,0,0
-427,-804,0,0,0,0,0,0,0,0,0,-1,797,1828,0,0
-420,-804,0,0,0,0,0,0,0,0,0,-1,804,1828,0,0
-413,-804,0,0,0,0,0,0,0,0,0,-1,811,1828,0,0
-406,-804,0,0,0,0,0,0,0,0,0,-1,818,1828,0,0
-399,-804,0,0,0,0,0,0,0,0,0,-1,825,1828,0,0
-392,-804,0,0,0,0,0,0,0,0,0,-1,832,1828,0,0
-385,-804,0,0,0,0,0,0,0,0,0,-1,839,1828,0,0
-378,-804,0,0,0,0,0,0,0,0,0,-1,846,1828,0,0
-371,-804,0,0,0,0,0,0,0,0,0,-1,853,1828,0,0
-364,-804,0,0,0,0,0,0,0,0,0,-1,860,1828,0,0
-357,-804,0,0,0,0,0,0,0,0,0,-1,867,1828,0,0
-350,-804,0,0,0,0,0,0,0,0,0,-1,874,1828,0,0
-343,-804,0,0,0,0,0,0,0,0,0,-1,881,1828,0,0
-336,-804,0,0,0,0,0,0,0,0,0,-1,888,1828,0,0
-329,-804,0,0,0,0,0,0,0,0,0,-1,895,1828,0,0
-322,-804,0,0,0,0,0,0,0,0,0,-1,902,1828,0,0
-315,-804,0,0,0,0,0,0,0,0,0,-1,909,1828,0,0
-308,-804,0,0,0,0,0,0,0,0,0,-1,916,1828,0,0
-301,-804,0,0,0,0,0,0,0,0,0,-1,923,1828,0,0
-294,-804,0,0,0,0,0,0,0,0,0,-1,930,1828,0,0
-287,-804,0,0,0,0,0,0,0,0,0,-1,937,1828,0,0
-280,-804,0,0,0,0,0,0,0,0,0,-1,944,1828,0,0
-273,-804,0,0,0,0,0,0,0,0,0,-1,951,1828,0,0
-266,-804,0,0,0,0,0,0,0,0,0,-1,958,1828,0,0
-259,-804,0,0,0,0,0,0,0,0,0,-1,965,1828,0,0
-252,-804,0,0,0,0,0,0,0,0,0,-1,972,1828,0,0
-245,-804,0,0,0,0,0,0,0,0,0,-1,979,1828,0,0
-238,-804,0,0,0,0,0,0,0,0,0,-1,986,1828,0,0
-231,-804,0,0,0,0,0,0,0,0,0,-1,993,1828,0,0
-224,-804,0,0,0,0,0,0,0,0,0,-1,1000,1828,0,0
-217,-804,0,0,0,0,0,0,0,0,0,-1,1007,1828,0,0
-210,-804,0,0,0,0,0,0,0,0,0,-1,1014,1828,0,0
-203,-804,0,0,0,0,0,0,0,0,0,-1,1021,1828,0,0
-196,-804,0,0,0,0,0,0,0,0,0,-1,1028,1828,0,0
-189,-804,0,0,0,0,0,0,0,0,0,-1,1035,1828,0,0
-182,-804,0,0,0,0,0,0,0,0,0,-1,1042,1828,0,0
-175,-804,0,0,0,0,0,0,0,0,0,-1,1049,1828,0,0
-168,-804,0,0,0,0,0,0,0,0,0,-1,1056,1828,0,0
-161,-804,0,0,0,0,0,0,0,0,0,-1,1063,1828,0,0
-154,-804,0,0,0,0,0,0,0,0,0,-1,1070,1828,0,0
-147,-804,0,0,0,0,0,0,0,0,0,-1,1077,1828,0,0
-140,-804,0,0,0,0,0,0,0,0,0,-1,1084,1828,0,0
-133,-804,0,0,0,0,0,0,0,0,0,-1,1091,1828,0,0
-126,-804,0,0,0,0,0,0,0,0,0,-1,1098,1828,0,0
-119,-804,0,0,0,0,0,0,0,0,0,-1,1105,1828,0,0
-112,-804,0,0,0,0,0,0,0,0,0,-1,1112,1828,0,0
-105,-804,0,0,0,0,0,0,0,0,0,-1,1119,1828,0,0
-98,-804,0,0,0,0,0,0,0,0,0,-1,1126,1828,0,0
-91,-804,0,0,0,0,0,0,0,0,0,-1,1133,1828,0,0
-84,-804,0,0,0,0,0,0,0,0,0,-1,1140,1828,0,0
-77,-804,0,0,0,0,0,0,0,0,0,-1,1147,1828,0,0
-70,-804,0,0,0,0,0,0,0,0,0,-1,1154,1828,0,0
-63,-804,0,0,0,0,0,0,0,0,0,-1,1161,1828,0,0
-56,-804,0,0,0,0,0,0,0,0,0,-1,1168,1828,0,0
-49,-804,0,0,0,0,0,0,0,0,0,-1,1175,1828,0,0
-42,-804,0,0,0,0,0,0,0,0,0,-1,1182,1828,0,0
-35,-804,0,0,0,0,0,0,0,0,0,-1,1189,1828,0,0
-28,-804,0,0,0,0,0,0,0,0,0,-1,1196,1828,0,0
-21,-804,0,0,0,0,0,0,0,0,0,-1,1203,1828,0,0
-14,-804,0,0,0,0,0,0,0,0,0,-1,1210,1828,0,0
-7,-804,0,0,0,0,0,0,0,0,0,-1,1217,1828,0,0
0,-804,0,0,0,0,0,0,0,0,0,-1,1224,1828,0,0
7,-804,0,0,0,0,0,0,0,0,0,-1,1231,1828,0,0
14,-804,0,0,0,0,0,0,0,0,0,-1,1238,1828,0,0
21,-804,0,0,0,0,0,0,0,0,0,-1,1245,1828,0,0
28,-804,0,0,0,0,0,0,0,0,0,-1,1252,1828,0,0
35,-804,10.0251,38.1625,0.0153308,0.152926,-0.00837826,0.153434,0.0148225,-1.5102,0.0977241,0.0436562,1259,1828,10.0252,-38.1625
42,-804,10.298,38.6887,0.0233799,0.147459,-0.0105686,0.148353,0.0224862,-1.48643,0.0923238,0.0462269,1266,1828,10.298,-38.6887
49,-804,10.243,39.6787,0,0,0,0,0,0,0,-1,1273,1828,10.243,-39.6787
56,-804,10.1642,40.5714,0,0,0,0,0,0,0,-1,1280,1828,10.1642,-40.5714
63,-804,10.1116,41.4426,0,0,0,0,0,0,0,-1,1287,1828,10.1116,-41.4426
70,-804,10.0402,42.2616,0.0567926,0.143032,-0.00934714,0.144033,0.0557911,-1.46406,0.0838582,0.0468561,1294,1828,10.0402,-42.2616
77,-804,10.1346,42.901,0.0657586,0.149167,-0.00523122,0.149494,0.0654317,-1.5084,0.0865336,0.046891,1301,1828,10.1347,-42.9011
84,-804,10.219,43.6045,0.0751443,0.153863,-0.000704333,0.15387,0.075138,-1.56185,0.0888448,0.0470503,1308,1828,10.2189,-43.6045
91,-804,0,0,0,0,0,0,0,0,0,-1,1315,1828,0,0
98,-804,0,0,0,0,0,0,0,0,0,-1,1322,1828,0,0
105,-804,0,0,0,0,0,0,0,0,0,-1,1329,1828,0,0
112,-804,0,0,0,0,0,0,0,0,0,-1,1336,1828,0,0
119,-804,0,0,0,0,0,0,0,0,0,-1,1343,1828,0,0
126,-804,0,0,0,0,0,0,0,0,0,-1,1350,1828,0,0
133,-804,0,0,0,0,0,0,0,0,0,-1,1357,1828,0,0
140,-804,0,0,0,0,0,0,0,0,0,-1,1364,1828,0,0
147,-804,0,0,0,0,0,0,0,0,0,-1,1371,1828,0,0
154,-804,0,0,0,0,0,0,0,0,0,-1,1378,1828,0,0
161,-804,0,0,0,0,0,0,0,0,0,-1,1385,1828,0,0
168,-804,0,0,0,0,0,0,0,0,0,-1,1392,1828,0,0
175,-804,0,0,0,0,0,0,0,0,0,-1,1399,1828,0,0
182,-804,0,0,0,0,0,0,0,0,0,-1,1406,1828,0,0
189,-804,0,0,0,0,0,0,0,0,0,-1,1413,1828,0,0
196,-804,0,0,0,0,0,0,0,0,0,-1,1420,1828,0,0
203,-804,0,0,0,0,0,0,0,0,0,-1,1427,1828,0,0
210,-804,0,0,0,0,0,0,0,0,0,-1,1434,1828,0,0
217,-804,0,0,0,0,0,0,0,0,0,-1,1441,1828,0,0
224,-804,0,0,0,0,0,0,0,0,0,-1,1448,1828,0,0
231,-804,0,0,0,0,0,0,0,0,0,-1,1455,1828,0,0
238,-804,0,0,0,0,0,0,0,0,0,-1,1462,1828,0,0
245,-804,0,0,0,0,0,0,0,0,0,-1,1469,1828,0,0
252,-804,0,0,0,0,0,0,0,0,0,-1,1476,1828,0,0
259,-804,0,0,0,0,0,0,0,0,0,-1,1483,1828,0,0
266,-804,0,0,0,0,0,0,0,0,0,-1,1490,1828,0,0
273,-804,0,0,0,0,0,0,0,0,0,-1,1497,1828,0,0
280,-804,0,0,0,0,0,0,0,0,0,-1,1504,1828,0,0
287,-804,0,0,0,0,0,0,0,0,0,-1,1511,1828,0,0
294,-804,0,0,0,0,0,0,0,0,0,-1,1518,1828,0,0
301,-804,0,0,0,0,0,0,0,0,0,-1,1525,1828,0,0
308,-804,0,0,0,0,0,0,0,0,0,-1,1532,1828,0,0
315,-804,0,0,0,0,0,0,0,0,0,-1,1539,1828,0,0
322,-804,0,0,0,0,0,0,0,0,0,-1,1546,1828,0,0
329,-804,0,0,0,0,0,0,0,0,0,-1,1553,1828,0,0
336,-804,0,0,0,0,0,0,0,0,0,-1,1560,1828,0,0
343,-804,0,0,0,0,0,0,0,0,0,-1,1567,1828,0,0
350,-804,0,0,0,0,0,0,0,0,0,-1,1574,1828,0,0
357,-804,0,0,0,0,0,0,0,0,0,-1,1581,1828,0,0
364,-804,0,0,0,0,0,0,0,0,0,-1,1588,1828,0,0
371,-804,0,0,0,0,0,0,0,0,0,-1,1595,1828,0,0
378,-804,0,0,0,0,0,0,0,0,0,-1,1602,1828,0,0
385,-804,0,0,0,0,0,0,0,0,0,-1,1609,1828,0,0
392,-804,0,0,0,0,0,0,0,0,0,-1,1616,1828,0,0
399,-804,0,0,0,0,0,0,0,0,0,-1,1623,1828,0,0
406,-804,0,0,0,0,0,0,0,0,0,-1,1630,1828,0,0
413,-804,0,0,0,0,0,0,0,0,0,-1,1637,1828,0,0
420,-804,0,0,0,0,0,0,0,0,0,-1,1644,1828,0,0
427,-804,0,0,0,0,0,0,0,0,0,-1,1651,1828,0,0
434,-804,0,0,0,0,0,0,0,0,0,-1,1658,1828,0,0
441,-804,0,0,0,0,0,0,0,0,0,-1,1665,1828,0,0
448,-804,0,0,0,0,0,0,0,0,0,-1,1672,1828,0,0
455,-804,0,0,0,0,0,0,0,0,0,-1,1679,1828,0,0
462,-804,0,0,0,0,0,0,0,0,0,-1,1686,1828,0,0
469,-804,0,0,0,0,0,0,0,0,0,-1,1693,1828,0,0
476,-804,0,0,0,0,0,0,0,0,0,-1,1700,1828,0,0
483,-804,0,0,0,0,0,0,0,0,0,-1,1707,1828,0,0
490,-804,0,0,0,0,0,0,0,0,0,-1,1714,1828,0,0
497,-804,0,0,0,0,0,0,0,0,0,-1,1721,1828,0,0
504,-804,0,0,0,0,0,0,0,0,0,-1,1728,1828,0,0
511,-804,0,0,0,0,0,0,0,0,0,-1,1735,1828,0,0
518,-804,0,0,0,0,0,0,0,0,0,-1,1742,1828,0,0
525,-804,0,0,0,0,0,0,0,0,0,-1,1749,1828,0,0
532,-804,0,0,0,0,0,0,0,0,0,-1,1756,1828,0,0
539,-804,0,0,0,0,0,0,0,0,0,-1,1763,1828,0,0
546,-804,0,0,0,0,0,0,0,0,0,-1,1770,1828,0,0
553,-804,0,0,0,0,0,0,0,0,0,-1,1777,1828,0,0
560,-804,0,0,0,0,0,0,0,0,0,-1,1784,1828,0,0
567,-804,0,0,0,0,0,0,0,0,0,-1,1791,1828,0,0
574,-804,0,0,0,0,0,0,0,0,0,-1,1798,1828,0,0
581,-804,0,0,0,0,0,0,0,0,0,-1,1805,1828,0,0
588,-804,0,0,0,0,0,0,0,0,0,-1,1812,1828,0,0
595,-804,0,0,0,0,0,0,0,0,0,-1,1819,1828,0,0
602,-804,0,0,0,0,0,0,0,0,0,-1,1826,1828,0,0
609,-804,0,0,0,0,0,0,0,0,0,-1,1833,1828,0,0
616,-804,0,0,0,0,0,0,0,0,0,-1,1840,1828,0,0
623,-804,0,0,0,0,0,0,0,0,0,-1,1847,1828,0,0
630,-804,0,0,0,0,0,0,0,0,0,-1,1854,1828,0,0
637,-804,0,0,0,0,0,0,0,0,0,-1,1861,1828,0,0
644,-804,0,0,0,0,0,0,0,0,0,-1,1868,1828,0,0
651,-804,0,0,0,0,0,0,0,0,0,-1,1875,1828,0,0
658,-804,0,0,0,0,0,0,0,0,0,-1,1882,1828,0,0
665,-804,0,0,0,0,0,0,0,0,0,-1,1889,1828,0,0
672,-804,0,0,0,0,0,0,0,0,0,-1,1896,1828,0,0
679,-804,0,0,0,0,0,0,0,0,0,-1,1903,1828,0,0
686,-804,0,0,0,0,0,0,0,0,0,-1,1910,1828,0,0
693,-804,0,0,0,0,0,0,0,0,0,-1,1917,1828,0,0
700,-804,0,0,0,0,0,0,0,0,0,-1,1924,1828,0,0
707,-804,0,0,0,0,0,0,0,0,0,-1,1931,1828,0,0
714,-804,0,0,0,0,0,0,0,0,0,-1,1938,1828,0,0
721,-804,0,0,0,0,0,0,0,0,0,-1,1945,1828,0,0
728,-804,0,0,0,0,0,0,0,0,0,-1,1952,1828,0,0
735,-804,0,0,0,0,0,0,0,0,0,-1,1959,1828,0,0
742,-804,0,0,0,0,0,0,0,0,0,-1,1966,1828,0,0
749,-804,0,0,0,0,0,0,0,0,0,-1,1973,1828,0,0
756,-804,0,0,0,0,0,0,0,0,0,-1,1980,1828,0,0
763,-804,0,0,0,0,0,0,0,0,0,-1,1987,1828,0,0
770,-804,0,0,0,0,0,0,0,0,0,-1,1994,1828,0,0
777,-804,0,0,0,0,0,0,0,0,0,-1,2001,1828,0,0
784,-804,0,0,0,0,0,0,0,0,0,-1,2008,1828,0,0
791,-804,0,0,0,0,0,0,0,0,0,-1,2015,1828,0,0
798,-804,0,0,0,0,0,0,0,0,0,-1,2022,1828,0,0
805,-804,0,0,0,0,0,0,0,0,0,-1,2029,1828,0,0
812,-804,0,0,0,0,0,0,0,0,0,-1,2036,1828,0,0

